
#######################################################################
#
#                 Cambridge Crystallographic Data Centre
#                                CCDC
#
#######################################################################
#
# If this CIF has been generated from an entry in the Cambridge
# Structural Database, then it will include bibliographic, chemical,
# crystal, experimental, refinement or atomic coordinate data resulting
# from the CCDC's data processing and validation procedures.
#
#######################################################################

data_CSD_CIF_QIGDEP13
_audit_creation_date 2018-07-30
_audit_creation_method CSD-ConQuest-V1
_database_code_CSD QIGDEP13
_database_code_depnum_ccdc_archive 'CCDC 1582480'
_chemical_formula_sum 'C20 H40 N4 O22 Zn2'
_chemical_formula_moiety
;
(C8 O16 Zn2 4-)n,2(C6 H14 N2 2+),6(H2 O1)
;
_journal_coden_Cambridge 222
_journal_volume 47
_journal_year 2018
_journal_page_first 11308
_journal_name_full 'Dalton Trans. '
loop_
_publ_author_name
"K.Pasinska"
"A.Piecha-Bisiorek"
"V.Kinzhybalo"
"A.Cizman"
"A.Gagor"
"A.Pietraszko"
_chemical_name_systematic
;
catena-[bis(1,4-diazabicyclo[2.2.2]octane-1,4-diium) 
bis(\m-oxalato)-bis(oxalato)-di-zinc hexahydrate]
;
_cell_volume   1545.600
_exptl_crystal_colour 'colorless'
_exptl_crystal_density_diffrn 1.76
_exptl_special_details
;
polymorph I
reversible phase transition at 207 K

;
_exptl_crystal_description 'needle'
_diffrn_ambient_temperature 220
#These two values have been output from a single CSD field.
_refine_ls_R_factor_gt 0.0332
_refine_ls_wR_factor_gt 0.0332
_symmetry_cell_setting monoclinic
_symmetry_space_group_name_H-M 'P 21/n'
_symmetry_Int_Tables_number 14
loop_
_symmetry_equiv_pos_site_id
_symmetry_equiv_pos_as_xyz
1 x,y,z
2 1/2-x,1/2+y,1/2-z
3 -x,-y,-z
4 -1/2+x,-1/2-y,-1/2+z
_cell_length_a 9.412(3)
_cell_length_b 16.774(5)
_cell_length_c 9.793(3)
_cell_angle_alpha 90
_cell_angle_beta 91.44(3)
_cell_angle_gamma 90
_cell_formula_units_Z 2
loop_
_atom_type_symbol
_atom_type_radius_bond
C 0.68
H 0.23
N 0.68
O 0.68
Zn 1.22
loop_
_atom_site_label
_atom_site_type_symbol
_atom_site_fract_x
_atom_site_fract_y
_atom_site_fract_z
Zn1 Zn 0.09863(3) 0.45397(2) 0.25130(3)
O1 O -0.07835(18) 0.44051(11) 0.37177(18)
O2 O 0.04294(19) 0.55728(10) 0.14438(17)
O3 O 0.31123(18) 0.46213(11) 0.19798(19)
O4 O 0.17194(18) 0.34116(11) 0.31345(18)
O5 O -0.03045(19) 0.59587(10) -0.06431(17)
O6 O -0.16022(18) 0.47577(11) 0.57503(18)
C1 C -0.0690(3) 0.47565(15) 0.4844(3)
C2 C 0.3786(3) 0.39836(17) 0.2159(3)
C3 C 0.2956(3) 0.32631(17) 0.2741(3)
C4 C 0.0037(3) 0.54413(15) 0.0228(3)
O7 O 0.3565(2) 0.26108(13) 0.2780(2)
O8 O 0.5044(2) 0.38726(14) 0.1880(3)
O9 O 0.4409(2) 0.58152(17) 0.4877(3)
H1 H 0.35810 0.57050 0.45640
H2 H 0.45130 0.56310 0.56850
O10 O 0.1529(2) 0.13897(13) 0.3148(3)
H3 H 0.21770 0.17280 0.29950
H4 H 0.18770 0.09220 0.31170
O11 O 0.67916(16) 0.50300(13) 0.0848(2)
H5 H 0.66570 0.50950 -0.00100
H6 H 0.61170 0.47520 0.11620
N1 N -0.11837(10) 0.17428(6) 0.23144(13)
H7 H -0.03010 0.14220 0.23620
N2 N -0.33861(10) 0.25427(6) 0.21985(14)
H8 H -0.42670 0.28650 0.21550
C5 C -0.22334(10) 0.29880(6) 0.15275(14)
H9 H -0.19820 0.34630 0.20630
H10 H -0.25520 0.31590 0.06130
C6 C -0.09535(10) 0.24471(6) 0.14252(9)
H11 H -0.08400 0.22760 0.04770
H12 H -0.00910 0.27310 0.17240
C7 C -0.23553(12) 0.12458(6) 0.17183(15)
H13 H -0.25790 0.08090 0.23430
H14 H -0.20650 0.10150 0.08490
C8 C -0.36483(10) 0.17705(8) 0.14898(12)
H15 H -0.38150 0.18610 0.05100
H16 H -0.44910 0.15110 0.18550
C9 C -0.15355(12) 0.20066(9) 0.37093(11)
H17 H -0.08270 0.23920 0.40460
H18 H -0.15310 0.15490 0.43310
C10 C -0.29896(12) 0.23866(8) 0.36572(12)
H19 H -0.36860 0.20290 0.40640
H20 H -0.29750 0.28870 0.41730
O1B O 0.07835(18) 0.55949(11) 0.62823(18)
O6B O 0.16022(18) 0.52423(11) 0.42497(18)
C1B C 0.0690(3) 0.52435(15) 0.5156(3)
O2B O -0.04294(19) 0.44272(10) -0.14438(17)
O5B O 0.03045(19) 0.40413(10) 0.06431(17)
C4B C -0.0037(3) 0.45587(15) -0.0228(3)
Zn1B Zn -0.09863(3) 0.54603(2) -0.25130(3)
O3B O -0.31123(18) 0.53787(11) -0.19798(19)
O4B O -0.17194(18) 0.65884(11) -0.31345(18)
C2B C -0.3786(3) 0.60164(17) -0.2159(3)
C3B C -0.2956(3) 0.67369(17) -0.2741(3)
O7B O -0.3565(2) 0.73892(13) -0.2780(2)
O8B O -0.5044(2) 0.61274(14) -0.1880(3)
Zn1B* Zn -0.09863(3) 0.54603(2) 0.74870(3)
O1B* O 0.07835(18) 0.55949(11) -0.37177(18)
O6* O -0.16022(18) 0.47577(11) -0.42497(18)
#END
