
#######################################################################
#
#                 Cambridge Crystallographic Data Centre
#                                CCDC
#
#######################################################################
#
# If this CIF has been generated from an entry in the Cambridge
# Structural Database, then it will include bibliographic, chemical,
# crystal, experimental, refinement or atomic coordinate data resulting
# from the CCDC's data processing and validation procedures.
#
#######################################################################

data_CSD_CIF_QIGDEP17
_audit_creation_date 2018-07-30
_audit_creation_method CSD-ConQuest-V1
_database_code_CSD QIGDEP17
_database_code_depnum_ccdc_archive 'CCDC 1582484'
_chemical_formula_sum 'C20 H40 N4 O22 Zn2'
_chemical_formula_moiety
;
(C8 O16 Zn2 4-)n,2(C6 H14 N2 2+),6(H2 O1)
;
_journal_coden_Cambridge 222
_journal_volume 47
_journal_year 2018
_journal_page_first 11308
_journal_name_full 'Dalton Trans. '
loop_
_publ_author_name
"K.Pasinska"
"A.Piecha-Bisiorek"
"V.Kinzhybalo"
"A.Cizman"
"A.Gagor"
"A.Pietraszko"
_chemical_name_systematic
;
catena-[bis(1,4-diazabicyclo[2.2.2]octane-1,4-diium) 
bis(\m-oxalato)-bis(oxalato)-di-zinc hexahydrate]
;
_cell_volume   1549.133
_exptl_crystal_colour 'colorless'
_exptl_crystal_density_diffrn 1.756
_exptl_special_details
;
polymorph I
reversible phase transition at 207 K

;
_exptl_crystal_description 'needle'
_diffrn_ambient_temperature 250
#These two values have been output from a single CSD field.
_refine_ls_R_factor_gt 0.0331
_refine_ls_wR_factor_gt 0.0331
_symmetry_cell_setting monoclinic
_symmetry_space_group_name_H-M 'P 21/n'
_symmetry_Int_Tables_number 14
loop_
_symmetry_equiv_pos_site_id
_symmetry_equiv_pos_as_xyz
1 x,y,z
2 1/2-x,1/2+y,1/2-z
3 -x,-y,-z
4 -1/2+x,-1/2-y,-1/2+z
_cell_length_a 9.422(3)
_cell_length_b 16.803(5)
_cell_length_c 9.788(3)
_cell_angle_alpha 90
_cell_angle_beta 91.43(3)
_cell_angle_gamma 90
_cell_formula_units_Z 2
loop_
_atom_type_symbol
_atom_type_radius_bond
C 0.68
H 0.23
N 0.68
O 0.68
Zn 1.22
loop_
_atom_site_label
_atom_site_type_symbol
_atom_site_fract_x
_atom_site_fract_y
_atom_site_fract_z
Zn1 Zn 0.09903(3) 0.45401(2) 0.25137(3)
O1 O -0.07819(18) 0.44067(11) 0.37179(17)
O2 O 0.04349(19) 0.5571(1) 0.14419(17)
O3 O 0.31134(18) 0.46192(10) 0.19792(18)
O4 O 0.17194(18) 0.34136(11) 0.31382(18)
O5 O -0.03019(18) 0.59565(10) -0.06439(17)
O6 O -0.16039(18) 0.47595(11) 0.57453(17)
C1 C -0.0689(2) 0.47553(15) 0.4844(3)
C2 C 0.3783(3) 0.39802(17) 0.2156(3)
C3 C 0.2955(3) 0.32641(16) 0.2744(3)
C4 C 0.0036(3) 0.54390(14) 0.0230(3)
O7 O 0.3560(2) 0.26122(12) 0.2785(2)
O8 O 0.5040(2) 0.38691(14) 0.1879(3)
O9 O 0.4410(3) 0.58204(17) 0.4871(3)
H1 H 0.35820 0.57190 0.45460
H2 H 0.45150 0.56080 0.56580
O10 O 0.1526(2) 0.13916(14) 0.3147(3)
H3 H 0.21810 0.17250 0.29940
H4 H 0.18500 0.09210 0.30700
O11 O 0.67897(16) 0.50300(13) 0.0852(2)
H5 H 0.66550 0.50950 -0.00050
H6 H 0.61150 0.47520 0.11660
N1 N -0.11877(10) 0.17450(5) 0.23227(13)
H7 H -0.03060 0.14240 0.23710
N2 N -0.33896(9) 0.25453(6) 0.22065(14)
H8 H -0.42700 0.28670 0.21630
C5 C -0.22367(10) 0.29904(6) 0.15350(13)
H9 H -0.19860 0.34650 0.20710
H10 H -0.25550 0.31620 0.06210
C6 C -0.09572(10) 0.24491(6) 0.14329(9)
H11 H -0.08440 0.22790 0.04840
H12 H -0.00950 0.27320 0.17320
C7 C -0.23598(11) 0.12482(6) 0.17271(15)
H13 H -0.25830 0.08130 0.23530
H14 H -0.20710 0.10170 0.08580
C8 C -0.36524(10) 0.17733(8) 0.14986(12)
H15 H -0.38190 0.18630 0.05180
H16 H -0.44940 0.15150 0.18650
C9 C -0.15388(12) 0.20091(9) 0.37174(11)
H17 H -0.08300 0.23940 0.40540
H18 H -0.15350 0.15520 0.43400
C10 C -0.29928(12) 0.23896(8) 0.36654(12)
H19 H -0.36890 0.20330 0.40730
H20 H -0.29770 0.28900 0.41810
O1B O 0.07819(18) 0.55933(11) 0.62821(17)
O6B O 0.16039(18) 0.52405(11) 0.42547(17)
C1B C 0.0689(2) 0.52447(15) 0.5156(3)
O2B O -0.04349(19) 0.4429(1) -0.14419(17)
O5B O 0.03019(18) 0.40435(10) 0.06439(17)
C4B C -0.0036(3) 0.45610(14) -0.0230(3)
Zn1B Zn -0.09903(3) 0.54599(2) -0.25137(3)
O3B O -0.31134(18) 0.53808(10) -0.19792(18)
O4B O -0.17194(18) 0.65864(11) -0.31382(18)
C2B C -0.3783(3) 0.60198(17) -0.2156(3)
C3B C -0.2955(3) 0.67359(16) -0.2744(3)
O7B O -0.3560(2) 0.73878(12) -0.2785(2)
O8B O -0.5040(2) 0.61309(14) -0.1879(3)
Zn1B* Zn -0.09903(3) 0.54599(2) 0.74863(3)
O1B* O 0.07819(18) 0.55933(11) -0.37179(17)
O6* O -0.16039(18) 0.47595(11) -0.42547(17)
#END
