
#######################################################################
#
#                 Cambridge Crystallographic Data Centre
#                                CCDC
#
#######################################################################
#
# If this CIF has been generated from an entry in the Cambridge
# Structural Database, then it will include bibliographic, chemical,
# crystal, experimental, refinement or atomic coordinate data resulting
# from the CCDC's data processing and validation procedures.
#
#######################################################################

data_CSD_CIF_QIGDEP11
_audit_creation_date 2018-07-30
_audit_creation_method CSD-ConQuest-V1
_database_code_CSD QIGDEP11
_database_code_depnum_ccdc_archive 'CCDC 1582478'
_chemical_formula_sum 'C20 H40 N4 O22 Zn2'
_chemical_formula_moiety
;
(C8 O16 Zn2 4-)n,2(C6 H14 N2 2+),6(H2 O1)
;
_journal_coden_Cambridge 222
_journal_volume 47
_journal_year 2018
_journal_page_first 11308
_journal_name_full 'Dalton Trans. '
loop_
_publ_author_name
"K.Pasinska"
"A.Piecha-Bisiorek"
"V.Kinzhybalo"
"A.Cizman"
"A.Gagor"
"A.Pietraszko"
_chemical_name_systematic
;
catena-[bis(1,4-diazabicyclo[2.2.2]octane-1,4-diium) 
bis(\m-oxalato)-bis(oxalato)-di-zinc hexahydrate]
;
_cell_volume   1533.435
_exptl_crystal_colour 'colorless'
_exptl_crystal_density_diffrn 1.774
_exptl_special_details
;
polymorph II
reversible phase transition at 207 K

;
_exptl_crystal_description 'needle'
_diffrn_ambient_temperature 110.0
_diffrn_special_details
;
twin

;
#These two values have been output from a single CSD field.
_refine_ls_R_factor_gt 0.0304
_refine_ls_wR_factor_gt 0.0304
_symmetry_cell_setting monoclinic
_symmetry_space_group_name_H-M 'P 21'
_symmetry_Int_Tables_number 4
loop_
_symmetry_equiv_pos_site_id
_symmetry_equiv_pos_as_xyz
1 x,y,z
2 -x,1/2+y,-z
_cell_length_a 9.386(3)
_cell_length_b 16.648(5)
_cell_length_c 9.816(3)
_cell_angle_alpha 90
_cell_angle_beta 91.30(3)
_cell_angle_gamma 90
_cell_formula_units_Z 2
loop_
_atom_type_symbol
_atom_type_radius_bond
C 0.68
H 0.23
N 0.68
O 0.68
Zn 1.22
loop_
_atom_site_label
_atom_site_type_symbol
_atom_site_fract_x
_atom_site_fract_y
_atom_site_fract_z
Zn1 Zn 0.34877(6) 0.54626(3) 0.99461(6)
O1 O 0.2954(3) 0.4422(2) 0.8884(3)
O2 O 0.2214(3) 0.4045(2) 0.6796(3)
C1 C 0.2553(5) 0.4571(3) 0.7672(5)
O3 O 0.0936(4) 0.5278(2) 1.3218(3)
O4 O 0.1720(4) 0.5593(2) 1.1160(3)
C2 C 0.1831(5) 0.5257(3) 1.2306(5)
O5 O 0.5640(4) 0.5352(2) 0.9444(3)
O6 O 0.4222(4) 0.6596(2) 1.0563(3)
O7 O 0.7686(4) 0.6037(2) 0.9693(4)
O8 O 0.6175(4) 0.7356(2) 1.0382(4)
C3 C 0.6356(6) 0.5966(3) 0.9768(5)
C4 C 0.5522(6) 0.6711(3) 1.0280(5)
Zn2 Zn 0.15426(6) 0.45514(3) 0.49305(5)
O9 O -0.0967(2) 0.25743(11) 0.4800(2)
O10 O -0.24150(15) 0.38234(13) 0.5894(2)
O11 O -0.05786(13) 0.46222(10) 0.54985(15)
O12 O 0.07853(16) 0.34270(9) 0.42866(15)
C5 C -0.12218(14) 0.39556(11) 0.54513(16)
C6 C -0.04017(17) 0.32509(10) 0.47835(16)
O13 O 0.33078(15) 0.44032(12) 1.37288(16)
O14 O 0.4138(2) 0.47731(17) 1.16983(18)
C7 C 0.32064(19) 0.47600(14) 1.26229(15)
O15 O 0.21517(17) 0.55875(10) 0.59894(17)
O16 O 0.2844(2) 0.59790(16) 0.8090(2)
C8 C 0.25027(18) 0.54596(13) 0.72165(16)
N1 N 0.1358(5) 0.8286(4) 0.9683(5)
H1 H 0.22330 0.86060 0.96570
N2 N -0.0870(5) 0.7479(4) 0.9773(5)
H2 H -0.17480 0.71620 0.98110
C9 C 0.0250(6) 0.6998(4) 0.9040(6)
H3 H -0.01370 0.67930 0.81840
H4 H 0.05650 0.65470 0.95960
C10 C 0.1499(6) 0.7568(4) 0.8783(6)
H5 H 0.23940 0.72970 0.89820
H6 H 0.14870 0.77330 0.78350
C11 C 0.0127(7) 0.8786(5) 0.9211(6)
H7 H 0.03450 0.90460 0.83570
H8 H -0.00650 0.91990 0.98800
C12 C -0.1172(7) 0.8246(5) 0.9020(6)
H9 H -0.20090 0.85050 0.93800
H10 H -0.13450 0.81380 0.80600
C13 C 0.1130(7) 0.8000(5) 1.1107(6)
H11 H 0.12460 0.84430 1.17420
H12 H 0.18260 0.75900 1.13470
C14 C -0.0357(7) 0.7660(5) 1.1190(5)
H13 H -0.03470 0.71740 1.17350
H14 H -0.09840 0.80460 1.16100
O17 O 0.6965(5) 0.4177(3) 1.2342(5)
H15 H 0.60850 0.42350 1.21350
H16 H 0.72980 0.46190 1.26450
O18 O 0.4103(5) 0.8584(3) 1.0583(5)
H17 H 0.44370 0.90570 1.05370
H18 H 0.47860 0.82500 1.06790
O19 O 0.9470(6) 0.4973(4) 0.8336(5)
H19 H 0.93450 0.50060 0.74770
H20 H 0.89490 0.53180 0.87220
N3 N 0.3729(5) 0.1761(4) 0.5106(4)
H21 H 0.28560 0.14430 0.49880
N4 N 0.5943(5) 0.2565(4) 0.5400(4)
H22 H 0.68100 0.28880 0.55160
C15 C 0.4726(6) 0.3013(4) 0.5974(6)
H23 H 0.45100 0.34800 0.54170
H24 H 0.49700 0.31940 0.68890
C16 C 0.3431(7) 0.2458(4) 0.6007(6)
H25 H 0.32740 0.22760 0.69300
H26 H 0.25850 0.27400 0.56830
C17 C 0.4878(6) 0.1236(4) 0.5753(6)
H27 H 0.51730 0.08260 0.51180
H28 H 0.45240 0.09750 0.65610
C18 C 0.6143(7) 0.1789(5) 0.6132(6)
H29 H 0.61800 0.18810 0.71080
H30 H 0.70300 0.15410 0.58710
C19 C 0.4184(7) 0.2047(4) 0.3747(6)
H31 H 0.35230 0.24490 0.33970
H32 H 0.41970 0.16020 0.31090
C20 C 0.5683(6) 0.2409(4) 0.3910(6)
H33 H 0.63900 0.20390 0.35730
H34 H 0.57440 0.29070 0.34000
O20 O -0.1859(5) 0.5789(3) 0.2620(4)
H35 H -0.18880 0.58350 0.17590
H36 H -0.10140 0.56730 0.28880
O21 O 0.1073(5) 0.1374(3) 0.4253(5)
H37 H 0.08200 0.08880 0.43620
H38 H 0.04550 0.16850 0.45890
O22 O -0.4203(5) 0.5076(3) 0.6635(4)
H39 H -0.35930 0.47450 0.63370
H40 H -0.40520 0.51490 0.74830
O3* O 0.0936(4) 0.5278(2) 0.3218(3)
Zn2* Zn 0.15426(6) 0.45514(3) 1.49305(5)
O13* O 0.33078(15) 0.44032(12) 0.37288(16)
#END
