
#######################################################################
#
#                 Cambridge Crystallographic Data Centre
#                                CCDC
#
#######################################################################
#
# If this CIF has been generated from an entry in the Cambridge
# Structural Database, then it will include bibliographic, chemical,
# crystal, experimental, refinement or atomic coordinate data resulting
# from the CCDC's data processing and validation procedures.
#
#######################################################################

data_CSD_CIF_QIGDEP06
_audit_creation_date 2018-07-30
_audit_creation_method CSD-ConQuest-V1
_database_code_CSD QIGDEP06
_database_code_depnum_ccdc_archive 'CCDC 1582473'
_chemical_formula_sum 'C20 H40 N4 O22 Zn2'
_chemical_formula_moiety
;
(C8 O16 Zn2 4-)n,2(C6 H14 N2 2+),6(H2 O1)
;
_journal_coden_Cambridge 222
_journal_volume 47
_journal_year 2018
_journal_page_first 11308
_journal_name_full 'Dalton Trans. '
loop_
_publ_author_name
"K.Pasinska"
"A.Piecha-Bisiorek"
"V.Kinzhybalo"
"A.Cizman"
"A.Gagor"
"A.Pietraszko"
_chemical_name_systematic
;
catena-[bis(1,4-diazabicyclo[2.2.2]octane-1,4-diium) 
bis(\m-oxalato)-bis(oxalato)-di-zinc hexahydrate]
;
_cell_volume   1539.195
_exptl_crystal_colour 'colorless'
_exptl_crystal_density_diffrn 1.768
_exptl_special_details
;
polymorph II
reversible phase transition at 207 K

;
_exptl_crystal_description 'block'
_diffrn_ambient_temperature 170.0
_diffrn_special_details
;
twin

;
#These two values have been output from a single CSD field.
_refine_ls_R_factor_gt 0.0326
_refine_ls_wR_factor_gt 0.0326
_symmetry_cell_setting monoclinic
_symmetry_space_group_name_H-M 'P 21'
_symmetry_Int_Tables_number 4
loop_
_symmetry_equiv_pos_site_id
_symmetry_equiv_pos_as_xyz
1 x,y,z
2 -x,1/2+y,-z
_cell_length_a 9.399(3)
_cell_length_b 16.703(5)
_cell_length_c 9.807(3)
_cell_angle_alpha 90
_cell_angle_beta 91.34(3)
_cell_angle_gamma 90
_cell_formula_units_Z 2
loop_
_atom_type_symbol
_atom_type_radius_bond
C 0.68
H 0.23
N 0.68
O 0.68
Zn 1.22
loop_
_atom_site_label
_atom_site_type_symbol
_atom_site_fract_x
_atom_site_fract_y
_atom_site_fract_z
Zn1 Zn 0.34898(8) 0.54632(4) 0.99610(6)
O1 O 0.2964(4) 0.4427(2) 0.8893(3)
O2 O 0.2206(4) 0.4048(2) 0.6810(4)
C1 C 0.2549(5) 0.4570(4) 0.7687(5)
O3 O 0.0934(4) 0.5271(3) 1.3222(4)
O4 O 0.1721(4) 0.5592(3) 1.1167(4)
C2 C 0.1832(5) 0.5255(3) 1.2314(5)
O5 O 0.5631(4) 0.5362(2) 0.9448(4)
O6 O 0.4216(4) 0.6596(2) 1.0569(4)
O7 O 0.7660(4) 0.6054(3) 0.9651(5)
O8 O 0.6150(5) 0.7353(3) 1.0368(5)
C3 C 0.6346(6) 0.5976(4) 0.9760(6)
C4 C 0.5493(6) 0.6714(4) 1.0264(5)
Zn2 Zn 0.15307(8) 0.45498(4) 0.49414(6)
O9 O -0.0984(3) 0.25757(13) 0.4787(3)
O10 O -0.24325(18) 0.38240(17) 0.5881(2)
O11 O -0.05925(15) 0.46223(13) 0.54950(18)
O12 O 0.0772(2) 0.34278(12) 0.42833(18)
C5 C -0.12376(17) 0.39564(14) 0.54432(19)
C6 C -0.0417(2) 0.32518(12) 0.4775(2)
O13 O 0.33000(18) 0.44029(15) 1.37380(19)
O14 O 0.4138(3) 0.4775(2) 1.1711(2)
C7 C 0.3203(2) 0.47610(17) 1.26332(18)
O15 O 0.2139(2) 0.55850(13) 0.5999(2)
O16 O 0.2824(3) 0.59725(19) 0.8103(2)
C8 C 0.2484(2) 0.54544(16) 0.72267(19)
N1 N 0.1347(6) 0.8284(5) 0.9708(6)
H1 H 0.22210 0.86040 0.96930
N2 N -0.0870(6) 0.7475(5) 0.9764(6)
H2 H -0.17440 0.71560 0.97860
C9 C 0.0259(8) 0.7006(5) 0.9047(7)
H3 H -0.01130 0.68040 0.81820
H4 H 0.05660 0.65540 0.96020
C10 C 0.1507(7) 0.7571(5) 0.8814(7)
H5 H 0.23980 0.73010 0.90290
H6 H 0.15150 0.77350 0.78650
C11 C 0.0129(8) 0.8781(6) 0.9217(8)
H7 H 0.03570 0.90360 0.83610
H8 H -0.00730 0.91950 0.98780
C12 C -0.1165(8) 0.8237(6) 0.9016(8)
H9 H -0.20050 0.84930 0.93710
H10 H -0.13310 0.81300 0.80540
C13 C 0.1108(9) 0.8003(6) 1.1124(8)
H11 H 0.12070 0.84460 1.17570
H12 H 0.18050 0.75980 1.13760
C14 C -0.0384(8) 0.7654(6) 1.1184(7)
H13 H -0.03750 0.71690 1.17270
H14 H -0.10230 0.80360 1.15970
O17 O 0.6960(6) 0.4178(4) 1.2352(6)
H15 H 0.60620 0.42170 1.22190
H16 H 0.72820 0.46210 1.26650
O18 O 0.4096(6) 0.8595(4) 1.0595(7)
H17 H 0.45670 0.90310 1.05980
H18 H 0.46680 0.81990 1.06130
O19 O 0.9438(7) 0.4973(4) 0.8340(6)
H19 H 0.93320 0.50160 0.74800
H20 H 0.89360 0.53260 0.87270
N3 N 0.3717(6) 0.1761(5) 0.5112(5)
H21 H 0.28450 0.14440 0.50020
N4 N 0.5931(6) 0.2559(5) 0.5373(5)
H22 H 0.68040 0.28760 0.54770
C15 C 0.4732(7) 0.3013(5) 0.5971(7)
H23 H 0.45110 0.34800 0.54170
H24 H 0.49930 0.31920 0.68840
C16 C 0.3435(8) 0.2458(6) 0.6018(7)
H25 H 0.32910 0.22780 0.69440
H26 H 0.25870 0.27400 0.57030
C17 C 0.4871(7) 0.1243(5) 0.5748(7)
H27 H 0.51490 0.08290 0.51150
H28 H 0.45290 0.09890 0.65670
C18 C 0.6135(9) 0.1784(6) 0.6096(8)
H29 H 0.61980 0.18740 0.70730
H30 H 0.70100 0.15330 0.58150
C19 C 0.4162(9) 0.2050(6) 0.3745(7)
H31 H 0.34950 0.24480 0.34020
H32 H 0.41720 0.16070 0.31060
C20 C 0.5643(8) 0.2412(6) 0.3888(7)
H33 H 0.63450 0.20480 0.35300
H34 H 0.56870 0.29110 0.33840
O20 O -0.1865(6) 0.5797(4) 0.2621(5)
H35 H -0.18880 0.58340 0.17590
H36 H -0.10420 0.56430 0.28940
O21 O 0.1052(6) 0.1385(4) 0.4275(6)
H37 H 0.08750 0.08960 0.44600
H38 H 0.04110 0.16830 0.46040
O22 O -0.4205(7) 0.5067(5) 0.6639(5)
H39 H -0.36000 0.47590 0.62710
H40 H -0.39820 0.51270 0.74770
O3* O 0.0934(4) 0.5271(3) 0.3222(4)
Zn2* Zn 0.15307(8) 0.45498(4) 1.49414(6)
O13* O 0.33000(18) 0.44029(15) 0.37380(19)
#END
