
#######################################################################
#
#                 Cambridge Crystallographic Data Centre
#                                CCDC
#
#######################################################################
#
# If this CIF has been generated from an entry in the Cambridge
# Structural Database, then it will include bibliographic, chemical,
# crystal, experimental, refinement or atomic coordinate data resulting
# from the CCDC's data processing and validation procedures.
#
#######################################################################

data_CSD_CIF_QIGDEP10
_audit_creation_date 2018-07-30
_audit_creation_method CSD-ConQuest-V1
_database_code_CSD QIGDEP10
_database_code_depnum_ccdc_archive 'CCDC 1582477'
_chemical_formula_sum 'C20 H40 N4 O22 Zn2'
_chemical_formula_moiety
;
(C8 O16 Zn2 4-)n,2(C6 H14 N2 2+),6(H2 O1)
;
_journal_coden_Cambridge 222
_journal_volume 47
_journal_year 2018
_journal_page_first 11308
_journal_name_full 'Dalton Trans. '
loop_
_publ_author_name
"K.Pasinska"
"A.Piecha-Bisiorek"
"V.Kinzhybalo"
"A.Cizman"
"A.Gagor"
"A.Pietraszko"
_chemical_name_systematic
;
catena-[bis(1,4-diazabicyclo[2.2.2]octane-1,4-diium) 
bis(\m-oxalato)-bis(oxalato)-di-zinc hexahydrate]
;
_cell_volume   1546.856
_exptl_crystal_density_diffrn 1.759
_exptl_special_details
;
polymorph I
reversible phase transition at 207 K

;
_exptl_crystal_description 'needle'
_diffrn_ambient_temperature 230
#These two values have been output from a single CSD field.
_refine_ls_R_factor_gt 0.0331
_refine_ls_wR_factor_gt 0.0331
_symmetry_cell_setting monoclinic
_symmetry_space_group_name_H-M 'P 21/n'
_symmetry_Int_Tables_number 14
loop_
_symmetry_equiv_pos_site_id
_symmetry_equiv_pos_as_xyz
1 x,y,z
2 1/2-x,1/2+y,1/2-z
3 -x,-y,-z
4 -1/2+x,-1/2-y,-1/2+z
_cell_length_a 9.415(3)
_cell_length_b 16.784(5)
_cell_length_c 9.792(3)
_cell_angle_alpha 90
_cell_angle_beta 91.44(3)
_cell_angle_gamma 90
_cell_formula_units_Z 2
loop_
_atom_type_symbol
_atom_type_radius_bond
C 0.68
H 0.23
N 0.68
O 0.68
Zn 1.22
loop_
_atom_site_label
_atom_site_type_symbol
_atom_site_fract_x
_atom_site_fract_y
_atom_site_fract_z
Zn1 Zn 0.09876(3) 0.45399(2) 0.25132(3)
O1 O -0.07817(18) 0.44056(11) 0.37173(18)
O2 O 0.04308(19) 0.55725(10) 0.14424(17)
O3 O 0.31121(18) 0.46208(10) 0.19803(18)
O4 O 0.17187(18) 0.34140(11) 0.31352(18)
O5 O -0.03046(18) 0.59575(10) -0.06415(17)
O6 O -0.16018(18) 0.47585(11) 0.57488(17)
C1 C -0.0686(3) 0.47561(15) 0.4844(3)
C2 C 0.3783(3) 0.39827(17) 0.2158(3)
C3 C 0.2957(3) 0.32647(16) 0.2743(3)
C4 C 0.0036(3) 0.54419(14) 0.0228(3)
O7 O 0.3561(2) 0.26103(12) 0.2781(2)
O8 O 0.5041(2) 0.38707(14) 0.1878(3)
O9 O 0.4409(3) 0.58167(17) 0.4876(3)
H1 H 0.35940 0.57060 0.45300
H2 H 0.44720 0.56410 0.56920
O10 O 0.1526(2) 0.13919(13) 0.3148(3)
H3 H 0.22010 0.17180 0.30270
H4 H 0.18470 0.09170 0.31290
O11 O 0.67893(16) 0.50323(13) 0.0849(2)
H5 H 0.66540 0.50970 -0.00080
H6 H 0.61150 0.47550 0.11630
N1 N -0.11843(10) 0.17440(5) 0.23183(13)
H7 H -0.03020 0.14230 0.23670
N2 N -0.33873(9) 0.25435(6) 0.22014(14)
H8 H -0.42680 0.28650 0.21570
C5 C -0.22346(10) 0.29890(6) 0.15301(13)
H9 H -0.19840 0.34640 0.20660
H10 H -0.25530 0.31600 0.06160
C6 C -0.09543(10) 0.24481(6) 0.14284(9)
H11 H -0.08410 0.22770 0.04800
H12 H -0.00920 0.27320 0.17270
C7 C -0.23555(11) 0.12468(6) 0.17224(15)
H13 H -0.25790 0.08110 0.23470
H14 H -0.20650 0.10160 0.08540
C8 C -0.36486(10) 0.17710(7) 0.14934(12)
H15 H -0.38150 0.18610 0.05130
H16 H -0.44910 0.15120 0.18590
C9 C -0.15364(12) 0.20082(9) 0.37128(10)
H17 H -0.08280 0.23930 0.40500
H18 H -0.15320 0.15510 0.43350
C10 C -0.29906(12) 0.23881(8) 0.36606(12)
H19 H -0.36870 0.20310 0.40680
H20 H -0.29750 0.28890 0.41760
O1B O 0.07817(18) 0.55944(11) 0.62827(18)
O6B O 0.16018(18) 0.52415(11) 0.42512(17)
C1B C 0.0686(3) 0.52439(15) 0.5156(3)
O2B O -0.04308(19) 0.44275(10) -0.14424(17)
O5B O 0.03046(18) 0.40425(10) 0.06415(17)
C4B C -0.0036(3) 0.45581(14) -0.0228(3)
Zn1B Zn -0.09876(3) 0.54601(2) -0.25132(3)
O3B O -0.31121(18) 0.53792(10) -0.19803(18)
O4B O -0.17187(18) 0.65860(11) -0.31352(18)
C2B C -0.3783(3) 0.60173(17) -0.2158(3)
C3B C -0.2957(3) 0.67353(16) -0.2743(3)
O7B O -0.3561(2) 0.73897(12) -0.2781(2)
O8B O -0.5041(2) 0.61293(14) -0.1878(3)
Zn1B* Zn -0.09876(3) 0.54601(2) 0.74868(3)
O1B* O 0.07817(18) 0.55944(11) -0.37173(18)
O6* O -0.16018(18) 0.47585(11) -0.42512(17)
#END
