
#######################################################################
#
#                 Cambridge Crystallographic Data Centre
#                                CCDC
#
#######################################################################
#
# If this CIF has been generated from an entry in the Cambridge
# Structural Database, then it will include bibliographic, chemical,
# crystal, experimental, refinement or atomic coordinate data resulting
# from the CCDC's data processing and validation procedures.
#
#######################################################################

data_CSD_CIF_QIGDEP14
_audit_creation_date 2018-07-30
_audit_creation_method CSD-ConQuest-V1
_database_code_CSD QIGDEP14
_database_code_depnum_ccdc_archive 'CCDC 1582481'
_chemical_formula_sum 'C20 H40 N4 O22 Zn2'
_chemical_formula_moiety
;
(C8 O16 Zn2 4-)n,2(C6 H14 N2 2+),6(H2 O1)
;
_journal_coden_Cambridge 222
_journal_volume 47
_journal_year 2018
_journal_page_first 11308
_journal_name_full 'Dalton Trans. '
loop_
_publ_author_name
"K.Pasinska"
"A.Piecha-Bisiorek"
"V.Kinzhybalo"
"A.Cizman"
"A.Gagor"
"A.Pietraszko"
_chemical_name_systematic
;
catena-[bis(1,4-diazabicyclo[2.2.2]octane-1,4-diium) 
bis(\m-oxalato)-bis(oxalato)-di-zinc hexahydrate]
;
_cell_volume   1551.878
_exptl_crystal_colour 'colorless'
_exptl_crystal_density_diffrn 1.753
_exptl_special_details
;
polymorph I
reversible phase transition at 207 K

;
_exptl_crystal_description 'needle'
_diffrn_ambient_temperature 290
#These two values have been output from a single CSD field.
_refine_ls_R_factor_gt 0.0416
_refine_ls_wR_factor_gt 0.0416
_symmetry_cell_setting monoclinic
_symmetry_space_group_name_H-M 'P 21/n'
_symmetry_Int_Tables_number 14
loop_
_symmetry_equiv_pos_site_id
_symmetry_equiv_pos_as_xyz
1 x,y,z
2 1/2-x,1/2+y,1/2-z
3 -x,-y,-z
4 -1/2+x,-1/2-y,-1/2+z
_cell_length_a 9.454(3)
_cell_length_b 16.816(5)
_cell_length_c 9.765(3)
_cell_angle_alpha 90
_cell_angle_beta 91.52(3)
_cell_angle_gamma 90
_cell_formula_units_Z 2
loop_
_atom_type_symbol
_atom_type_radius_bond
C 0.68
H 0.23
N 0.68
O 0.68
Zn 1.22
loop_
_atom_site_label
_atom_site_type_symbol
_atom_site_fract_x
_atom_site_fract_y
_atom_site_fract_z
Zn1 Zn 0.10057(4) 0.45382(2) 0.25179(4)
O1 O -0.0768(2) 0.44052(14) 0.3713(2)
O2 O 0.0445(2) 0.55707(12) 0.1442(2)
O3 O 0.3115(2) 0.46136(13) 0.1978(2)
O4 O 0.1731(2) 0.34103(14) 0.3136(2)
O5 O -0.0311(2) 0.59579(13) -0.0642(2)
O6 O -0.1605(2) 0.47624(14) 0.5732(2)
C1 C -0.0681(3) 0.47575(19) 0.4842(3)
C2 C 0.3783(3) 0.3981(2) 0.2152(3)
C3 C 0.2963(3) 0.3264(2) 0.2739(3)
C4 C 0.0042(3) 0.54412(18) 0.0232(3)
O7 O 0.3561(3) 0.26083(16) 0.2774(3)
O8 O 0.5029(3) 0.38676(17) 0.1856(3)
O9 O 0.4409(3) 0.5819(2) 0.4875(4)
H1 H 0.35720 0.56990 0.45950
H2 H 0.45510 0.56380 0.56790
O10 O 0.1516(3) 0.13861(18) 0.3145(4)
H3 H 0.21960 0.17130 0.30580
H4 H 0.18470 0.09160 0.32250
O11 O 0.6784(2) 0.50324(18) 0.0855(3)
H5 H 0.66530 0.50930 -0.00040
H6 H 0.61090 0.47560 0.11710
N1 N -0.11910(13) 0.17497(7) 0.23480(17)
H7 H -0.03210 0.14330 0.24050
N2 N -0.33949(12) 0.25481(8) 0.22121(18)
H8 H -0.42630 0.28660 0.21600
C5 C -0.22404(12) 0.29902(8) 0.15376(18)
H9 H -0.19960 0.34620 0.20640
H10 H -0.25510 0.31550 0.06260
C6 C -0.09588(12) 0.24495(8) 0.14488(12)
H11 H -0.08420 0.22770 0.05110
H12 H -0.01110 0.27320 0.17470
C7 C -0.23601(15) 0.12493(8) 0.1757(2)
H13 H -0.25800 0.08220 0.23840
H14 H -0.20740 0.10160 0.08990
C8 C -0.36529(13) 0.17723(10) 0.15154(15)
H15 H -0.38170 0.18550 0.05410
H16 H -0.44820 0.15180 0.18820
C9 C -0.15484(15) 0.20212(11) 0.37373(14)
H17 H -0.08520 0.24040 0.40680
H18 H -0.15440 0.15730 0.43630
C10 C -0.30030(15) 0.24005(11) 0.36746(16)
H19 H -0.36890 0.20490 0.40820
H20 H -0.29900 0.28980 0.41790
O1B O 0.0768(2) 0.55948(14) 0.6287(2)
O6B O 0.1605(2) 0.52376(14) 0.4268(2)
C1B C 0.0681(3) 0.52425(19) 0.5158(3)
O2B O -0.0445(2) 0.44293(12) -0.1442(2)
O5B O 0.0311(2) 0.40421(13) 0.0642(2)
C4B C -0.0042(3) 0.45588(18) -0.0232(3)
Zn1B Zn -0.10057(4) 0.54618(2) -0.25179(4)
O3B O -0.3115(2) 0.53864(13) -0.1978(2)
O4B O -0.1731(2) 0.65897(14) -0.3136(2)
C2B C -0.3783(3) 0.6019(2) -0.2152(3)
C3B C -0.2963(3) 0.6736(2) -0.2739(3)
O7B O -0.3561(3) 0.73917(16) -0.2774(3)
O8B O -0.5029(3) 0.61324(17) -0.1856(3)
Zn1B* Zn -0.10057(4) 0.54618(2) 0.74821(4)
O1B* O 0.0768(2) 0.55948(14) -0.3713(2)
O6* O -0.1605(2) 0.47624(14) -0.4268(2)
#END
