
#######################################################################
#
#                 Cambridge Crystallographic Data Centre
#                                CCDC
#
#######################################################################
#
# If this CIF has been generated from an entry in the Cambridge
# Structural Database, then it will include bibliographic, chemical,
# crystal, experimental, refinement or atomic coordinate data resulting
# from the CCDC's data processing and validation procedures.
#
#######################################################################

data_CSD_CIF_QIGDEP08
_audit_creation_date 2018-07-30
_audit_creation_method CSD-ConQuest-V1
_database_code_CSD QIGDEP08
_database_code_depnum_ccdc_archive 'CCDC 1582475'
_chemical_formula_sum 'C20 H40 N4 O22 Zn2'
_chemical_formula_moiety
;
(C8 O16 Zn2 4-)n,2(C6 H14 N2 2+),6(H2 O1)
;
_journal_coden_Cambridge 222
_journal_volume 47
_journal_year 2018
_journal_page_first 11308
_journal_name_full 'Dalton Trans. '
loop_
_publ_author_name
"K.Pasinska"
"A.Piecha-Bisiorek"
"V.Kinzhybalo"
"A.Cizman"
"A.Gagor"
"A.Pietraszko"
_chemical_name_systematic
;
catena-[bis(1,4-diazabicyclo[2.2.2]octane-1,4-diium) 
bis(\m-oxalato)-bis(oxalato)-di-zinc hexahydrate]
;
_cell_volume   1542.125
_exptl_crystal_colour 'colorless'
_exptl_crystal_density_diffrn 1.764
_exptl_special_details
;
polymorph II
reversible phase transition at 207 K

;
_exptl_crystal_description 'needle'
_diffrn_ambient_temperature 190
_diffrn_special_details
;
twin

;
#These two values have been output from a single CSD field.
_refine_ls_R_factor_gt 0.0333
_refine_ls_wR_factor_gt 0.0333
_symmetry_cell_setting monoclinic
_symmetry_space_group_name_H-M 'P 21'
_symmetry_Int_Tables_number 4
loop_
_symmetry_equiv_pos_site_id
_symmetry_equiv_pos_as_xyz
1 x,y,z
2 -x,1/2+y,-z
_cell_length_a 9.404(3)
_cell_length_b 16.733(5)
_cell_length_c 9.803(3)
_cell_angle_alpha 90
_cell_angle_beta 91.38(3)
_cell_angle_gamma 90
_cell_formula_units_Z 2
loop_
_atom_type_symbol
_atom_type_radius_bond
C 0.68
H 0.23
N 0.68
O 0.68
Zn 1.22
loop_
_atom_site_label
_atom_site_type_symbol
_atom_site_fract_x
_atom_site_fract_y
_atom_site_fract_z
Zn1 Zn 0.34897(9) 0.54641(4) 0.99752(7)
O1 O 0.2965(4) 0.4429(3) 0.8897(4)
O2 O 0.2200(4) 0.4047(3) 0.6822(4)
C1 C 0.2536(5) 0.4565(4) 0.7689(5)
O3 O 0.0937(4) 0.5264(3) 1.3230(4)
O4 O 0.1722(4) 0.5592(3) 1.1179(4)
C2 C 0.1836(6) 0.5251(3) 1.2329(5)
O5 O 0.5629(4) 0.5369(3) 0.9448(4)
O6 O 0.4210(4) 0.6597(3) 1.0569(4)
O7 O 0.7643(5) 0.6068(3) 0.9612(6)
O8 O 0.6139(5) 0.7359(3) 1.0342(6)
C3 C 0.6337(7) 0.5984(4) 0.9749(6)
C4 C 0.5481(6) 0.6718(4) 1.0252(6)
Zn2 Zn 0.15251(9) 0.45478(4) 0.49532(7)
O9 O -0.0996(3) 0.25777(16) 0.4777(3)
O10 O -0.2445(2) 0.3827(2) 0.5867(3)
O11 O -0.06003(18) 0.46237(15) 0.5489(2)
O12 O 0.0765(2) 0.34284(14) 0.4281(2)
C5 C -0.1247(2) 0.39585(16) 0.5434(2)
C6 C -0.0426(2) 0.32533(15) 0.4768(2)
O13 O 0.3299(2) 0.44006(18) 1.3746(2)
O14 O 0.4147(3) 0.4772(2) 1.1724(2)
C7 C 0.3208(3) 0.4759(2) 1.2642(2)
O15 O 0.2132(2) 0.55834(15) 0.6004(2)
O16 O 0.2810(3) 0.5969(2) 0.8112(3)
C8 C 0.2472(2) 0.54522(18) 0.7233(2)
N1 N 0.1336(7) 0.8286(6) 0.9728(6)
H1 H 0.22100 0.86060 0.97280
N2 N -0.0871(7) 0.7477(5) 0.9752(6)
H2 H -0.17490 0.71630 0.97650
C9 C 0.0255(10) 0.6999(7) 0.9036(8)
H3 H -0.01090 0.68060 0.81620
H4 H 0.05480 0.65440 0.95880
C10 C 0.1514(9) 0.7570(6) 0.8836(8)
H5 H 0.23990 0.73010 0.90730
H6 H 0.15460 0.77340 0.78880
C11 C 0.0143(9) 0.8775(7) 0.9211(8)
H7 H 0.03920 0.90240 0.83560
H8 H -0.00660 0.91930 0.98610
C12 C -0.116(1) 0.8240(7) 0.8992(9)
H9 H -0.20010 0.84990 0.93380
H10 H -0.13160 0.81320 0.80280
C13 C 0.1074(11) 0.8005(7) 1.1141(9)
H11 H 0.11610 0.84470 1.17760
H12 H 0.17690 0.76010 1.14040
C14 C -0.0414(10) 0.7656(7) 1.1182(8)
H13 H -0.04110 0.71710 1.17240
H14 H -0.10600 0.80350 1.15850
O17 O 0.6932(7) 0.4184(5) 1.2376(7)
H15 H 0.60460 0.42590 1.22180
H16 H 0.73160 0.46240 1.26360
O18 O 0.4089(7) 0.8603(5) 1.0598(8)
H17 H 0.44570 0.90690 1.06390
H18 H 0.47230 0.82530 1.07840
O19 O 0.9414(8) 0.4969(5) 0.8340(7)
H19 H 0.94090 0.49290 0.74760
H20 H 0.87650 0.52940 0.85730
N3 N 0.3696(7) 0.1768(6) 0.5120(6)
H21 H 0.28220 0.14530 0.50250
N4 N 0.5925(7) 0.2559(5) 0.5350(6)
H22 H 0.67960 0.28770 0.54430
C15 C 0.4732(9) 0.3002(6) 0.5963(8)
H23 H 0.45020 0.34680 0.54140
H24 H 0.50070 0.31810 0.68730
C16 C 0.3436(9) 0.2460(7) 0.6035(9)
H25 H 0.33090 0.22780 0.69640
H26 H 0.25860 0.27450 0.57370
C17 C 0.4877(9) 0.1241(6) 0.5732(8)
H27 H 0.45570 0.09830 0.65560
H28 H 0.51410 0.08310 0.50860
C18 C 0.6139(11) 0.1784(7) 0.6056(10)
H29 H 0.62240 0.18690 0.70330
H30 H 0.70090 0.15350 0.57550
C19 C 0.4117(11) 0.2051(7) 0.3746(8)
H31 H 0.34470 0.24490 0.34080
H32 H 0.41170 0.16070 0.31090
C20 C 0.5602(10) 0.2412(7) 0.3874(8)
H33 H 0.62960 0.20470 0.35040
H34 H 0.56400 0.29100 0.33700
O20 O -0.1882(7) 0.5810(5) 0.2634(7)
H35 H -0.19530 0.58140 0.17700
H36 H -0.10410 0.56730 0.28800
O21 O 0.1040(7) 0.1390(5) 0.4293(7)
H37 H 0.08130 0.09030 0.44400
H38 H 0.04410 0.16990 0.46640
O22 O -0.4227(8) 0.5059(6) 0.6641(6)
H39 H -0.36560 0.47510 0.62280
H40 H -0.39900 0.50790 0.74820
O3* O 0.0937(4) 0.5264(3) 0.3230(4)
Zn2* Zn 0.15251(9) 0.45478(4) 1.49532(7)
O13* O 0.3299(2) 0.44006(18) 0.3746(2)
#END
