
#######################################################################
#
#                 Cambridge Crystallographic Data Centre
#                                CCDC
#
#######################################################################
#
# If this CIF has been generated from an entry in the Cambridge
# Structural Database, then it will include bibliographic, chemical,
# crystal, experimental, refinement or atomic coordinate data resulting
# from the CCDC's data processing and validation procedures.
#
#######################################################################

data_CSD_CIF_QIGDEP05
_audit_creation_date 2018-07-30
_audit_creation_method CSD-ConQuest-V1
_database_code_CSD QIGDEP05
_database_code_depnum_ccdc_archive 'CCDC 1582472'
_chemical_formula_sum 'C20 H40 N4 O22 Zn2'
_chemical_formula_moiety
;
(C8 O16 Zn2 4-)n,2(C6 H14 N2 2+),6(H2 O1)
;
_journal_coden_Cambridge 222
_journal_volume 47
_journal_year 2018
_journal_page_first 11308
_journal_name_full 'Dalton Trans. '
loop_
_publ_author_name
"K.Pasinska"
"A.Piecha-Bisiorek"
"V.Kinzhybalo"
"A.Cizman"
"A.Gagor"
"A.Pietraszko"
_chemical_name_systematic
;
catena-[bis(1,4-diazabicyclo[2.2.2]octane-1,4-diium) 
bis(\m-oxalato)-bis(oxalato)-di-zinc hexahydrate]
;
_cell_volume   1536.429
_exptl_crystal_colour 'colorless'
_exptl_crystal_density_diffrn 1.771
_exptl_special_details
;
polymorph II
reversible phase transition at 207 K

;
_exptl_crystal_description 'needle'
_diffrn_ambient_temperature 140
_diffrn_special_details
;
twin

;
#These two values have been output from a single CSD field.
_refine_ls_R_factor_gt 0.0312
_refine_ls_wR_factor_gt 0.0312
_symmetry_cell_setting monoclinic
_symmetry_space_group_name_H-M 'P 21'
_symmetry_Int_Tables_number 4
loop_
_symmetry_equiv_pos_site_id
_symmetry_equiv_pos_as_xyz
1 x,y,z
2 -x,1/2+y,-z
_cell_length_a 9.393(3)
_cell_length_b 16.675(5)
_cell_length_c 9.812(3)
_cell_angle_alpha 90
_cell_angle_beta 91.32(3)
_cell_angle_gamma 90
_cell_formula_units_Z 2
loop_
_atom_type_symbol
_atom_type_radius_bond
C 0.68
H 0.23
N 0.68
O 0.68
Zn 1.22
loop_
_atom_site_label
_atom_site_type_symbol
_atom_site_fract_x
_atom_site_fract_y
_atom_site_fract_z
Zn1 Zn 0.34893(7) 0.54628(3) 0.99512(6)
O1 O 0.2957(4) 0.4426(2) 0.8889(3)
O2 O 0.2213(4) 0.4047(2) 0.6802(4)
C1 C 0.2552(5) 0.4569(3) 0.7676(5)
O3 O 0.0936(4) 0.5278(3) 1.3222(3)
O4 O 0.1723(4) 0.5596(2) 1.1161(3)
C2 C 0.1826(5) 0.5260(3) 1.2311(5)
O5 O 0.5638(4) 0.5355(2) 0.9444(3)
O6 O 0.4222(4) 0.6595(2) 1.0565(4)
O7 O 0.7678(4) 0.6041(3) 0.9678(4)
O8 O 0.6162(5) 0.7352(3) 1.0375(5)
C3 C 0.6358(6) 0.5965(4) 0.9768(5)
C4 C 0.5513(6) 0.6712(3) 1.0275(5)
Zn2 Zn 0.15371(7) 0.45508(3) 0.49338(6)
O9 O -0.0970(2) 0.25749(12) 0.4794(2)
O10 O -0.24183(16) 0.38227(14) 0.5891(2)
O11 O -0.05817(14) 0.46221(11) 0.54986(16)
O12 O 0.07826(18) 0.34283(10) 0.42842(16)
C5 C -0.12251(15) 0.39558(12) 0.54492(17)
C6 C -0.04047(18) 0.32515(11) 0.47795(18)
O13 O 0.33057(16) 0.44051(13) 1.37306(17)
O14 O 0.4137(2) 0.47769(19) 1.17011(19)
C7 C 0.3205(2) 0.47629(15) 1.26256(16)
O15 O 0.21481(18) 0.55873(11) 0.59937(18)
O16 O 0.2839(2) 0.59763(17) 0.8096(2)
C8 C 0.24982(19) 0.54577(14) 0.72206(17)
N1 N 0.1353(6) 0.8287(4) 0.9696(5)
H1 H 0.22230 0.86120 0.96750
N2 N -0.0865(6) 0.7476(4) 0.9774(5)
H2 H -0.17420 0.71580 0.98060
C9 C 0.0252(7) 0.7003(5) 0.9044(7)
H3 H -0.01320 0.68010 0.81850
H4 H 0.05630 0.65510 0.95970
C10 C 0.1512(7) 0.7570(5) 0.8792(6)
H5 H 0.24040 0.72990 0.90000
H6 H 0.15100 0.77340 0.78430
C11 C 0.0122(7) 0.8776(5) 0.9207(7)
H7 H 0.03440 0.90290 0.83480
H8 H -0.00750 0.91930 0.98640
C12 C -0.1164(8) 0.8244(5) 0.9020(7)
H9 H -0.19990 0.85040 0.93810
H10 H -0.13400 0.81360 0.80600
C13 C 0.1126(8) 0.8003(5) 1.1106(6)
H11 H 0.12400 0.84450 1.17420
H12 H 0.18220 0.75940 1.13470
C14 C -0.0366(7) 0.7660(5) 1.1187(6)
H13 H -0.03570 0.71770 1.17370
H14 H -0.09970 0.80470 1.16010
O17 O 0.6967(6) 0.4181(4) 1.2352(6)
H15 H 0.60740 0.42050 1.21830
H16 H 0.72870 0.46510 1.25070
O18 O 0.4099(5) 0.8584(4) 1.0591(6)
H17 H 0.44420 0.90510 1.04790
H18 H 0.47750 0.82470 1.06880
O19 O 0.9450(6) 0.4976(4) 0.8337(5)
H19 H 0.94190 0.49920 0.74710
H20 H 0.88650 0.53150 0.86490
N3 N 0.3725(6) 0.1762(4) 0.5111(5)
H21 H 0.28490 0.14480 0.49950
N4 N 0.5942(6) 0.2563(4) 0.5392(5)
H22 H 0.68120 0.28820 0.55070
C15 C 0.4730(6) 0.3014(5) 0.5972(6)
H23 H 0.45150 0.34810 0.54160
H24 H 0.49770 0.31930 0.68880
C16 C 0.3439(7) 0.2461(5) 0.6003(6)
H25 H 0.32810 0.22820 0.69280
H26 H 0.25960 0.27440 0.56770
C17 C 0.4869(6) 0.1237(4) 0.5742(6)
H27 H 0.51560 0.08280 0.51010
H28 H 0.45210 0.09740 0.65520
C18 C 0.6138(7) 0.1788(5) 0.6115(7)
H29 H 0.61840 0.18770 0.70920
H30 H 0.70220 0.15380 0.58470
C19 C 0.4186(7) 0.2046(5) 0.3743(6)
H31 H 0.35200 0.24430 0.33870
H32 H 0.42060 0.16000 0.31100
C20 C 0.5669(7) 0.2414(5) 0.3899(6)
H33 H 0.63790 0.20510 0.35480
H34 H 0.57160 0.29140 0.33960
O20 O -0.1854(5) 0.5793(4) 0.2625(5)
H35 H -0.19070 0.58280 0.17620
H36 H -0.10310 0.56260 0.28700
O21 O 0.1064(5) 0.1373(4) 0.4265(5)
H37 H 0.08170 0.08920 0.44310
H38 H 0.04310 0.16950 0.45480
O22 O -0.4203(6) 0.5074(4) 0.6636(5)
H39 H -0.36130 0.47650 0.62490
H40 H -0.39910 0.51050 0.74800
O3* O 0.0936(4) 0.5278(3) 0.3222(3)
Zn2* Zn 0.15371(7) 0.45508(3) 1.49338(6)
O13* O 0.33057(16) 0.44051(13) 0.37306(17)
#END
