
#######################################################################
#
#                 Cambridge Crystallographic Data Centre
#                                CCDC
#
#######################################################################
#
# If this CIF has been generated from an entry in the Cambridge
# Structural Database, then it will include bibliographic, chemical,
# crystal, experimental, refinement or atomic coordinate data resulting
# from the CCDC's data processing and validation procedures.
#
#######################################################################

data_CSD_CIF_QIHMIG
_audit_creation_date 2018-06-04
_audit_creation_method CSD-ConQuest-V1
_database_code_CSD QIHMIG
_database_code_depnum_ccdc_archive 'CCDC 1566580'
_chemical_formula_sum 'C24 H15 Bi2 N3 O21'
_chemical_formula_moiety
;
(C24 H12 Bi2 N3 O20 1-)n,H3 O1 1+
;
_journal_coden_Cambridge 1290
_journal_year 2018
_journal_page_first 3232
_journal_name_full 'Eur.J.Inorg.Chem. '
loop_
_publ_author_name
"T.Rhauderwiek"
"C.dos S.Cunha"
"H.Terraschke"
"N.Stock"
_chemical_name_systematic
;
catena-[oxonium bis(\m-hydrogen 
pyridine-2,4,6-tricarboxylato)-(\m-pyridine-2,4,6-tricarboxylato)-diaqua-di-bi
smuth(iii)]
;
_cell_volume   1456.092
_exptl_crystal_colour 'colorless'
_exptl_crystal_density_diffrn 2.486
_exptl_crystal_description 'block'
_diffrn_ambient_temperature 200
#These two values have been output from a single CSD field.
_refine_ls_R_factor_gt 0.0565
_refine_ls_wR_factor_gt 0.0565
_symmetry_cell_setting triclinic
_symmetry_space_group_name_H-M 'P -1'
_symmetry_Int_Tables_number 2
loop_
_symmetry_equiv_pos_site_id
_symmetry_equiv_pos_as_xyz
1 x,y,z
2 -x,-y,-z
_cell_length_a 10.030(2)
_cell_length_b 11.870(2)
_cell_length_c 13.470(3)
_cell_angle_alpha 78.60(3)
_cell_angle_beta 77.70(3)
_cell_angle_gamma 69.70(3)
_cell_formula_units_Z 2
loop_
_atom_type_symbol
_atom_type_radius_bond
C 0.68
H 0.23
Bi 1.48
N 0.68
O 0.68
loop_
_atom_site_label
_atom_site_type_symbol
_atom_site_fract_x
_atom_site_fract_y
_atom_site_fract_z
Bi1 Bi 0.94418(4) 0.16360(3) 0.07001(2)
Bi2 Bi 0.84368(4) 0.17328(3) 0.46807(3)
O1 O 0.8931(9) 0.3632(7) 0.0793(6)
O2 O 0.7470(11) 0.5536(7) 0.0561(7)
O3 O 0.4339(14) 0.6433(8) -0.2282(9)
O4 O 0.4537(11) 0.4857(8) -0.3030(7)
O5 O 0.7931(9) 0.0772(7) -0.1982(6)
O6 O 0.8973(8) 0.0596(7) -0.0632(5)
O7 O 1.1024(8) 0.1802(8) -0.0680(5)
O8 O 1.3336(9) 0.1524(8) -0.1385(5)
O9 O 1.6755(8) 0.1306(8) 0.1064(6)
O10 O 1.5951(8) 0.0656(9) 0.2689(6)
O11 O 1.0608(9) 0.1991(9) 0.3814(6)
O12 O 0.9338(9) 0.1983(8) 0.2663(6)
O13 O 1.0086(9) 0.0439(8) 0.5802(6)
O14 O 1.138(1) 0.0255(8) 0.7017(7)
O15 O 1.1396(12) 0.4158(9) 0.7915(9)
O16 O 0.9308(15) 0.5656(11) 0.7885(12)
O17 O 0.7039(13) 0.5707(8) 0.4699(9)
O18 O 0.7368(10) 0.3847(8) 0.4329(6)
O19 O 0.5931(13) 0.2100(12) 0.4238(9)
O20 O 0.6881(10) 0.1453(11) 0.6259(7)
N1 N 0.7898(9) 0.2959(8) -0.0534(6)
N2 N 1.1595(9) 0.1772(8) 0.1159(6)
N3 N 0.9079(9) 0.2811(8) 0.5721(6)
C1 C 0.7962(13) 0.4483(11) 0.0349(9)
C2 C 0.7363(11) 0.4133(10) -0.0435(8)
C3 C 0.6363(13) 0.494(1) -0.1020(9)
C4 C 0.5898(13) 0.4516(9) -0.1723(8)
C5 C 0.4857(14) 0.5371(11) -0.2390(9)
C6 C 0.6454(11) 0.3272(9) -0.1825(8)
C7 C 0.7448(10) 0.2529(9) -0.1223(7)
C8 C 0.8137(11) 0.1193(8) -0.1292(7)
C9 C 1.2357(12) 0.1653(10) -0.0648(8)
C10 C 1.2696(11) 0.1633(9) 0.0385(7)
C11 C 1.4086(11) 0.1467(9) 0.0538(7)
C12 C 1.4295(11) 0.1410(9) 0.1549(7)
C13 C 1.5807(11) 0.1116(10) 0.1730(8)
C14 C 1.3136(11) 0.1559(9) 0.2334(7)
C15 C 1.1827(10) 0.1766(9) 0.2091(7)
C16 C 1.0482(11) 0.194(1) 0.2888(8)
C17 C 1.0545(11) 0.0878(11) 0.6412(8)
C18 C 1.0004(11) 0.2189(9) 0.6387(7)
C19 C 1.0360(12) 0.2803(10) 0.7009(8)
C20 C 0.9809(12) 0.406(1) 0.6913(8)
C21 C 1.0187(14) 0.4721(11) 0.7617(10)
C22 C 0.8890(13) 0.4664(10) 0.6223(9)
C23 C 0.8522(12) 0.4012(10) 0.5629(8)
C24 C 0.7585(14) 0.4587(12) 0.4807(9)
H1 H 0.60670 0.29230 -0.21430
H2 H 0.59590 0.57020 -0.10310
H3 H 1.48320 0.13080 0.00410
H4 H 1.32310 0.15610 0.29210
H5 H 0.83500 0.56730 0.61450
H6 H 1.12290 0.26000 0.74070
O21 O 0.5992(10) 0.7835(9) 0.3450(7)
Bi1* Bi 1.94418(4) 0.16360(3) 0.07001(2)
Bi1A Bi 1.05582(4) -0.16360(3) -0.07001(2)
Bi2A Bi 1.15632(4) -0.17328(3) 0.53193(3)
O6A O 1.1027(8) -0.0596(7) 0.0632(5)
O9* O 0.6755(8) 0.1306(8) 0.1064(6)
O13A O 0.9914(9) -0.0439(8) 0.4198(6)
#END
