
#######################################################################
#
#                 Cambridge Crystallographic Data Centre
#                                CCDC
#
#######################################################################
#
# If this CIF has been generated from an entry in the Cambridge
# Structural Database, then it will include bibliographic, chemical,
# crystal, experimental, refinement or atomic coordinate data resulting
# from the CCDC's data processing and validation procedures.
#
#######################################################################

data_CSD_CIF_QIHXIO
_audit_creation_date 2001-06-05
_audit_creation_method CSD-ConQuest-V1
_database_code_CSD QIHXIO
_database_code_depnum_ccdc_archive 'CCDC 162554'
_chemical_formula_sum 'C70 H116 Fe1 K3 N6 O38 Rh2'
_chemical_formula_moiety
;
(C34 H20 Fe1 N6 O8 Rh2 3-)n,n(C12 H28 K1 O8 1+),2n(C12 H26 K1 O7 1+),8n(H2 O1)
;
_journal_coeditor_code "IUCr OA1112"
_journal_coden_Cambridge 591
_journal_volume 57
_journal_year 2001
_journal_page_first 266
_journal_name_full 'Acta Crystallogr.,Sect.C:Cryst.Struct.Commun. '
loop_
_publ_author_name
"Youngmee Kim"
"Sung-Jin Kim"
"Wonwoo Nam"
_chemical_name_systematic
;
catena-((bis(\m~2~-Cyano)-tetrakis(\m~2~-benzoato)-iron-di-rhodium(ii)) 
bis(aqua-(18-crown-6)-potassium) diaqua-(18-crown-6)-potassium octahydrate)
;
_cell_volume   9311.637
_exptl_crystal_colour 'brown'
_exptl_crystal_density_diffrn 1.447
_exptl_crystal_description 'block'
_diffrn_ambient_temperature 150.0
#These two values have been output from a single CSD field.
_refine_ls_R_factor_gt 0.0525
_refine_ls_wR_factor_gt 0.0525
_symmetry_cell_setting monoclinic
_symmetry_space_group_name_H-M 'P 21/c'
_symmetry_Int_Tables_number 14
loop_
_symmetry_equiv_pos_site_id
_symmetry_equiv_pos_as_xyz
1 x,y,z
2 x,1/2-y,1/2+z
3 -x,-y,-z
4 -x,-1/2+y,-1/2-z
_cell_length_a 16.0884(4)
_cell_length_b 23.1083(5)
_cell_length_c 25.8233(6)
_cell_angle_alpha 90
_cell_angle_beta 104.090(1)
_cell_angle_gamma 90
_cell_formula_units_Z 4
loop_
_atom_type_symbol
_atom_type_radius_bond
C 0.68
H 0.23
Fe 1.34
K 1.85
N 0.68
O 0.68
Rh 1.39
loop_
_atom_site_label
_atom_site_type_symbol
_atom_site_fract_x
_atom_site_fract_y
_atom_site_fract_z
Rh1 Rh 0.236790(18) -0.260830(11) -0.29419(1)
Rh2 Rh 0.253940(18) -0.247260(11) -0.19960(1)
Fe1 Fe 0.24944(3) -0.26650(2) -0.496520(18)
O1 O 0.11733(16) -0.22421(10) -0.30593(9)
O2 O 0.13363(16) -0.21358(10) -0.21720(9)
O3 O 0.18367(16) -0.33992(10) -0.28445(9)
O4 O 0.19748(16) -0.32528(10) -0.19614(9)
O5 O 0.35729(16) -0.29485(10) -0.27660(9)
O6 O 0.37202(16) -0.28541(10) -0.18752(9)
O7 O 0.29242(16) -0.18238(10) -0.29772(9)
O8 O 0.31019(16) -0.16924(10) -0.20902(9)
N1 N 0.22889(19) -0.27043(12) -0.38029(11)
N2 N 0.0523(2) -0.26147(13) -0.54009(12)
N3 N 0.2475(2) -0.40082(14) -0.49903(12)
N4 N 0.4473(2) -0.26696(13) -0.45488(12)
N5 N 0.2524(2) -0.13234(14) -0.49254(13)
N6 N 0.2647(2) -0.26334(12) -0.61357(11)
C1 C 0.0902(2) -0.21184(15) -0.26528(14)
C2 C 0.1752(2) -0.35483(15) -0.23888(14)
C3 C 0.3993(2) -0.29877(14) -0.22827(14)
C4 C 0.3194(2) -0.15413(15) -0.25447(13)
C5 C 0.2366(2) -0.26896(14) -0.42340(13)
C6 C 0.1254(3) -0.26424(15) -0.52303(13)
C7 C 0.2483(2) -0.35060(16) -0.49836(13)
C8 C 0.3736(3) -0.26734(15) -0.47106(13)
C9 C 0.2512(2) -0.18233(16) -0.49369(14)
C10 C 0.2597(2) -0.26507(14) -0.56998(14)
C11 C -0.0028(3) -0.19560(15) -0.27423(14)
C12 C -0.0453(3) -0.20904(18) -0.23431(16)
H1 H -0.01460 -0.22520 -0.20140
C13 C -0.1328(3) -0.1986(2) -0.24335(17)
H2 H -0.16230 -0.20840 -0.21690
C14 C -0.1768(3) -0.17390(19) -0.29085(17)
H3 H -0.23650 -0.16670 -0.29700
C15 C -0.1338(3) -0.15962(17) -0.32954(16)
H4 H -0.16420 -0.14190 -0.36180
C16 C -0.0473(3) -0.17099(16) -0.32162(15)
H5 H -0.01850 -0.16190 -0.34870
C17 C 0.1352(2) -0.41263(14) -0.23453(14)
C18 C 0.1354(3) -0.43570(16) -0.18471(15)
H6 H 0.15930 -0.41410 -0.15330
C19 C 0.1010(3) -0.48977(17) -0.18063(17)
H7 H 0.10150 -0.50520 -0.14650
C20 C 0.0659(3) -0.52156(17) -0.22613(17)
H8 H 0.04260 -0.55890 -0.22330
C21 C 0.0651(3) -0.49850(16) -0.27591(16)
H9 H 0.04070 -0.52010 -0.30730
C22 C 0.0995(2) -0.44416(15) -0.28016(15)
H10 H 0.09860 -0.42860 -0.31430
C23 C 0.4898(3) -0.31945(15) -0.21823(14)
C24 C 0.5308(3) -0.34370(16) -0.16960(15)
H11 H 0.50020 -0.34970 -0.14290
C25 C 0.6158(3) -0.35905(18) -0.16012(17)
H12 H 0.64320 -0.37630 -0.12690
C26 C 0.5361(3) -0.31063(17) -0.25681(15)
H13 H 0.50860 -0.29440 -0.29040
C27 C 0.6619(3) -0.34996(18) -0.19775(18)
H14 H 0.72070 -0.36040 -0.19050
C28 C 0.6217(3) -0.32540(19) -0.24626(17)
H15 H 0.65320 -0.31870 -0.27240
C29 C 0.3649(2) -0.09852(15) -0.25802(14)
C30 C 0.3929(3) -0.06427(15) -0.21269(14)
H16 H 0.38550 -0.07710 -0.17910
C31 C 0.4314(3) -0.01129(16) -0.21675(16)
H17 H 0.44930 0.01230 -0.18590
C32 C 0.4442(3) 0.00758(17) -0.26501(16)
H18 H 0.47090 0.04380 -0.26740
C33 C 0.4176(3) -0.02718(17) -0.31006(16)
H19 H 0.42650 -0.01460 -0.34330
C34 C 0.3785(3) -0.07979(16) -0.30677(15)
H20 H 0.36070 -0.10330 -0.33770
K1 K 0.58215(6) -0.04095(4) -0.11208(3)
O9 O 0.62998(18) -0.13258(12) -0.17460(11)
O10 O 0.53774(18) -0.15793(11) -0.09661(10)
O11 O 0.43597(18) -0.06697(11) -0.07673(10)
O12 O 0.47653(18) 0.04801(11) -0.08625(10)
O13 O 0.59106(18) 0.07197(11) -0.14784(10)
O14 O 0.69074(19) -0.01759(12) -0.17601(11)
O15 O 0.6850(2) -0.10764(13) -0.02893(13)
H21 H 0.7282(11) -0.1193(12) -0.0396(7)
H22 H 0.6553(8) -0.1369(8) -0.0242(10)
C35 C 0.7011(3) -0.0605(2) -0.21322(18)
H23 H 0.75300 -0.05230 -0.22610
H24 H 0.65100 -0.06030 -0.24430
C36 C 0.7091(3) -0.1182(2) -0.18683(19)
H25 H 0.72370 -0.14780 -0.21090
H26 H 0.75550 -0.11730 -0.15370
C37 C 0.6342(3) -0.18761(18) -0.14870(19)
H27 H 0.68120 -0.18760 -0.11580
H28 H 0.64610 -0.21830 -0.17260
C38 C 0.5506(3) -0.19924(18) -0.13506(18)
H29 H 0.50330 -0.19660 -0.16770
H30 H 0.55080 -0.23880 -0.12040
C39 C 0.4581(3) -0.16775(16) -0.08321(16)
H31 H 0.45970 -0.20540 -0.06460
H32 H 0.41120 -0.16910 -0.11610
C40 C 0.4421(3) -0.12023(17) -0.04792(16)
H33 H 0.38820 -0.12760 -0.03700
H34 H 0.48970 -0.11820 -0.01540
C41 C 0.3965(3) -0.02287(17) -0.05228(16)
H35 H 0.43040 -0.01600 -0.01530
H36 H 0.33810 -0.03500 -0.05090
C42 C 0.3922(3) 0.03115(17) -0.08452(17)
H37 H 0.35720 0.02430 -0.12120
H38 H 0.36490 0.06240 -0.06830
C43 C 0.4792(3) 0.10354(16) -0.11021(16)
H39 H 0.46050 0.13380 -0.08830
H40 H 0.44000 0.10420 -0.14630
C44 C 0.5679(3) 0.11517(16) -0.11392(16)
H41 H 0.57170 0.15420 -0.12900
H42 H 0.60750 0.11360 -0.07800
C45 C 0.6745(3) 0.08168(18) -0.15616(17)
H43 H 0.71860 0.07580 -0.12240
H44 H 0.67920 0.12180 -0.16850
C46 C 0.6868(3) 0.0398(2) -0.19716(18)
H45 H 0.63870 0.04280 -0.22930
H46 H 0.74060 0.04880 -0.20770
K2 K -0.08470(6) -0.46196(3) -0.38593(3)
O16 O -0.05323(19) -0.34543(11) -0.40912(11)
O17 O 0.06294(18) -0.43401(11) -0.41852(10)
O18 O 0.01956(18) -0.55043(11) -0.41319(10)
O19 O -0.08988(19) -0.57605(11) -0.34862(11)
O20 O -0.1796(2) -0.48642(13) -0.31135(12)
O21 O -0.1323(2) -0.37330(12) -0.32489(12)
O22 O -0.2086(2) -0.48005(12) -0.47122(12)
H47 H -0.2270(15) -0.5134(3) -0.4831(10)
H48 H -0.2442(15) -0.4545(4) -0.4869(10)
C47 C -0.1507(4) -0.3221(2) -0.3558(2)
H49 H -0.16760 -0.29100 -0.33400
H50 H -0.19920 -0.32920 -0.38700
C48 C -0.0762(4) -0.30368(19) -0.3740(2)
H51 H -0.08870 -0.26620 -0.39290
H52 H -0.02730 -0.29790 -0.34280
C49 C 0.0312(3) -0.33414(17) -0.41550(17)
H53 H 0.07210 -0.33210 -0.38010
H54 H 0.03210 -0.29650 -0.43370
C50 C 0.0568(3) -0.38093(17) -0.44750(17)
H55 H 0.01380 -0.38470 -0.48200
H56 H 0.11280 -0.37160 -0.45500
C51 C 0.1015(3) -0.47791(17) -0.44353(15)
H57 H 0.16030 -0.46610 -0.44430
H58 H 0.06790 -0.48340 -0.48080
C52 C 0.1045(3) -0.53309(17) -0.41346(16)
H59 H 0.13220 -0.56350 -0.43040
H60 H 0.13870 -0.52770 -0.37630
C53 C 0.0166(3) -0.60657(16) -0.39057(16)
H61 H 0.05730 -0.60860 -0.35510
H62 H 0.03320 -0.63630 -0.41380
C54 C -0.0722(3) -0.61781(17) -0.38530(16)
H63 H -0.11370 -0.61390 -0.42040
H64 H -0.07670 -0.65750 -0.37170
C55 C -0.1716(3) -0.58410(19) -0.3377(2)
H65 H -0.17870 -0.62480 -0.32760
H66 H -0.21770 -0.57460 -0.36950
C56 C -0.1752(3) -0.5448(2) -0.2928(2)
H67 H -0.22630 -0.55380 -0.27930
H68 H -0.12360 -0.55010 -0.26320
C57 C -0.1765(4) -0.4443(2) -0.2709(2)
H69 H -0.11910 -0.44440 -0.24580
H70 H -0.21960 -0.45350 -0.25050
C58 C -0.1945(4) -0.3865(2) -0.2963(2)
H71 H -0.25220 -0.38650 -0.32100
H72 H -0.19340 -0.35680 -0.26860
K3 K 0.00000 0.00000 -0.50000
O23 O -0.1395(2) 0.04363(13) -0.57035(12)
O24 O -0.1418(2) -0.07428(14) -0.53789(14)
O25 O -0.0085(2) -0.11027(13) -0.44588(12)
O26 O -0.0924(2) 0.07034(13) -0.44534(12)
H73 H -0.0609(7) 0.0978(8) -0.4303(11)
H74 H -0.1366(11) 0.0832(11) -0.4672(5)
C59 C -0.2047(4) 0.0041(2) -0.5939(2)
H75 H -0.18830 -0.01690 -0.62340
H76 H -0.25870 0.02530 -0.60900
C60 C -0.2177(3) -0.0386(2) -0.5518(2)
H77 H -0.22600 -0.01770 -0.52000
H78 H -0.26900 -0.06270 -0.56620
C61 C -0.1519(4) -0.1169(2) -0.4993(2)
H79 H -0.19770 -0.14460 -0.51570
H80 H -0.16790 -0.09790 -0.46880
C62 C -0.0678(3) -0.1481(2) -0.4807(2)
H81 H -0.07600 -0.18380 -0.46140
H82 H -0.04520 -0.15900 -0.51170
C63 C 0.0734(3) -0.13573(19) -0.43018(18)
H83 H 0.09410 -0.14620 -0.46210
H84 H 0.07080 -0.17140 -0.40930
C64 C -0.1329(3) 0.0930(2) -0.60315(18)
H85 H -0.11060 0.08090 -0.63400
H86 H -0.19010 0.11070 -0.61690
K4 K 0.50000 0.00000 -0.50000
O27 O 0.6303(2) -0.01051(12) -0.40663(11)
O28 O 0.54822(19) 0.09840(11) -0.43445(11)
O29 O 0.44526(19) 0.11088(12) -0.54061(11)
O30 O 0.3935(2) -0.05586(13) -0.44403(12)
H87 H 0.3471(9) -0.0655(13) -0.4661(5)
H88 H 0.4189(9) -0.0863(9) -0.4294(12)
C65 C 0.6344(3) 0.03636(18) -0.36990(16)
H89 H 0.68770 0.03380 -0.34120
H90 H 0.58490 0.03460 -0.35340
C66 C 0.6326(3) 0.09211(18) -0.40008(17)
H91 H 0.64570 0.12510 -0.37490
H92 H 0.67600 0.09120 -0.42150
C67 C 0.5393(3) 0.15149(17) -0.46338(17)
H93 H 0.58290 0.15380 -0.48450
H94 H 0.54790 0.18460 -0.43830
C68 C 0.4517(3) 0.15404(18) -0.49957(17)
H95 H 0.40820 0.14670 -0.47900
H96 H 0.44120 0.19290 -0.51590
C69 C 0.3643(3) 0.1117(2) -0.57843(19)
H97 H 0.35450 0.15000 -0.59600
H98 H 0.31780 0.10440 -0.56020
C70 C 0.6360(3) -0.06560(19) -0.38076(18)
H99 H 0.68930 -0.06790 -0.35200
H100 H 0.58670 -0.07100 -0.36460
O31 O 0.0634(2) -0.17536(13) -0.62771(12)
H101 H 0.069(3) -0.2001(13) -0.6027(11)
H102 H 0.098(2) -0.1837(16) -0.6468(14)
O32 O -0.1266(2) -0.25974(15) -0.58797(16)
H103 H -0.0722(4) -0.2612(19) -0.5782(19)
H104 H -0.142(2) -0.2298(13) -0.6071(17)
O33 O 0.4301(2) -0.20083(19) -0.35699(15)
H105 H 0.3824(16) -0.205(2) -0.3490(18)
H106 H 0.429(3) -0.218(2) -0.3863(11)
O34 O -0.1165(2) -0.14399(17) -0.63234(17)
H107 H -0.0687(16) -0.150(2) -0.640(2)
H108 H -0.113(3) -0.1140(14) -0.6126(18)
O35 O 0.5858(3) -0.16727(17) -0.29709(17)
H109 H 0.5334(8) -0.175(2) -0.311(2)
H110 H 0.617(2) -0.1938(17) -0.305(2)
O36 O -0.1807(2) -0.31678(19) -0.50759(18)
H111 H -0.1326(15) -0.326(2) -0.4873(18)
H112 H -0.174(3) -0.2903(19) -0.5291(17)
O37 O 0.6227(3) -0.2592(2) -0.3795(3)
H113 H 0.621(4) -0.230(2) -0.359(2)
H114 H 0.5727(19) -0.264(3) -0.400(2)
O38 O 0.2612(8) 0.2259(3) -0.5491(4)
H115 H 0.249(9) 0.225(5) -0.519(3)
H116 H 0.270(9) 0.2609(18) -0.557(5)
C64B C 0.1329(3) -0.0930(2) -0.39685(18)
O23B O 0.1395(2) -0.04363(13) -0.42965(12)
C59B C 0.2047(4) -0.0041(2) -0.4061(2)
H75B H 0.18830 0.01690 -0.37660
H76B H 0.25870 -0.02530 -0.39100
C60B C 0.2177(3) 0.0386(2) -0.4482(2)
O24B O 0.1418(2) 0.07428(14) -0.46211(14)
C61B C 0.1519(4) 0.1169(2) -0.5007(2)
H79B H 0.19770 0.14460 -0.48430
H80B H 0.16790 0.09790 -0.53120
C62B C 0.0678(3) 0.1481(2) -0.5193(2)
O25B O 0.0085(2) 0.11027(13) -0.55412(12)
C63B C -0.0734(3) 0.13573(19) -0.56982(18)
H83B H -0.09410 0.14620 -0.53790
H84B H -0.07080 0.17140 -0.59070
H81B H 0.07600 0.18380 -0.53860
H82B H 0.04520 0.15900 -0.48830
H77B H 0.22600 0.01770 -0.48000
H78B H 0.26900 0.06270 -0.43380
H85B H 0.11060 -0.08090 -0.36600
H86B H 0.19010 -0.11070 -0.38310
C70B C 0.3640(3) 0.06560(19) -0.61924(18)
O27B O 0.3697(2) 0.01051(12) -0.59337(11)
C65B C 0.3656(3) -0.03636(18) -0.63010(16)
H89B H 0.31230 -0.03380 -0.65880
H90B H 0.41510 -0.03460 -0.64660
C66B C 0.3674(3) -0.09211(18) -0.59992(17)
O28B O 0.45178(19) -0.09840(11) -0.56555(11)
C67B C 0.4607(3) -0.15149(17) -0.53662(17)
H93B H 0.41710 -0.15380 -0.51550
H94B H 0.45210 -0.18460 -0.56170
C68B C 0.5483(3) -0.15404(18) -0.50043(17)
O29B O 0.55474(19) -0.11088(12) -0.45939(11)
C69B C 0.6357(3) -0.1117(2) -0.42157(19)
H97B H 0.64550 -0.15000 -0.40400
H98B H 0.68220 -0.10440 -0.43980
H95B H 0.59180 -0.14670 -0.52100
H96B H 0.55880 -0.19290 -0.48410
H91B H 0.35430 -0.12510 -0.62510
H92B H 0.32400 -0.09120 -0.57850
H99B H 0.31070 0.06790 -0.64800
H100B H 0.41330 0.07100 -0.63540
O26B O 0.0924(2) -0.07034(13) -0.55466(12)
H73B H 0.0609(7) -0.0978(8) -0.5697(11)
H74B H 0.1366(11) -0.0832(11) -0.5328(5)
O30B O 0.6065(2) 0.05586(13) -0.55597(12)
H87B H 0.6529(9) 0.0655(13) -0.5339(5)
H88B H 0.5811(9) 0.0863(9) -0.5706(12)
N6A N 0.2647(2) -0.23666(12) -0.11357(11)
Rh2A Rh 0.253940(18) -0.252740(11) -0.69960(1)
Rh1A Rh 0.236790(18) -0.239170(11) -0.79419(1)
O2A O 0.13363(16) -0.28642(10) -0.71720(9)
O4A O 0.19748(16) -0.17472(10) -0.69614(9)
O6A O 0.37202(16) -0.21459(10) -0.68752(9)
O8A O 0.31019(16) -0.33076(10) -0.70902(9)
#END
