
#######################################################################
#
#                 Cambridge Crystallographic Data Centre
#                                CCDC
#
#######################################################################
#
# If this CIF has been generated from an entry in the Cambridge
# Structural Database, then it will include bibliographic, chemical,
# crystal, experimental, refinement or atomic coordinate data resulting
# from the CCDC's data processing and validation procedures.
#
#######################################################################

data_CSD_CIF_QIJLAW
_audit_creation_date 2001-06-22
_audit_creation_method CSD-ConQuest-V1
_database_code_CSD QIJLAW
_database_code_depnum_ccdc_archive 'CCDC 146450'
_chemical_formula_sum 'C50 H36 Mn2 N18 P2'
_chemical_formula_moiety
;
(C19 H18 P1 1+)2n,n(C12 Mn2 N18 2-)
;
_journal_coden_Cambridge 9
_journal_volume 40
_journal_year 2001
_journal_page_first 1718
_journal_name_full 'Inorg.Chem. '
loop_
_publ_author_name
"P.M.van der Werff"
"S.R.Batten"
"P.Jensen"
"B.Moubaraki"
"K.S.Murray"
_chemical_name_systematic
;
catena-(bis(Methyl(triphenyl)phosphonium) 
hexakis(\m~2~-dicyanamido)-di-manganese(ii))
;
_cell_volume   5008.173
_exptl_crystal_colour 'colorless'
_exptl_crystal_density_diffrn 1.407
_exptl_crystal_description 'block'
_diffrn_ambient_temperature 123
#These two values have been output from a single CSD field.
_refine_ls_R_factor_gt 0.0509
_refine_ls_wR_factor_gt 0.0509
_symmetry_cell_setting orthorhombic
_symmetry_space_group_name_H-M 'P 21 21 21'
_symmetry_Int_Tables_number 19
loop_
_symmetry_equiv_pos_site_id
_symmetry_equiv_pos_as_xyz
1 x,y,z
2 1/2-x,-y,1/2+z
3 -x,1/2+y,1/2-z
4 1/2+x,1/2-y,-z
_cell_length_a 13.9593(3)
_cell_length_b 17.2000(2)
_cell_length_c 20.8587(5)
_cell_angle_alpha 90
_cell_angle_beta 90
_cell_angle_gamma 90
_cell_formula_units_Z 4
loop_
_atom_type_symbol
_atom_type_radius_bond
C 0.68
H 0.23
Mn 1.35
N 0.68
P 1.05
loop_
_atom_site_label
_atom_site_type_symbol
_atom_site_fract_x
_atom_site_fract_y
_atom_site_fract_z
Mn1 Mn -0.12255(2) 0.199850(17) 0.074201(16)
Mn2 Mn 0.03190(2) 0.199364(18) 0.419407(17)
N1 N -0.17271(15) 0.20706(12) 0.17488(10)
C1 C -0.19323(17) 0.20930(13) 0.22777(13)
N2 N -0.11445(17) 0.21708(12) 0.37784(11)
C2 C -0.16279(18) 0.21377(13) 0.33362(13)
N3 N -0.22597(16) 0.20937(14) 0.28671(10)
N4 N 0.02418(14) 0.18838(11) 0.1165(1)
C3 C 0.07300(16) 0.18252(11) 0.16052(13)
N5 N 0.08927(16) 0.19198(12) 0.32035(11)
C4 C 0.10683(17) 0.18580(12) 0.26658(13)
N6 N 0.13544(15) 0.17596(11) 0.20716(10)
N7 N -0.06967(14) 0.20027(12) -0.02729(9)
C5 C -0.00842(18) 0.23307(13) -0.05177(11)
N8 N 0.22218(15) 0.28533(10) -0.05252(9)
C6 C 0.14234(19) 0.27787(12) -0.06548(11)
N9 N 0.05370(16) 0.27333(14) -0.08427(12)
N10 N -0.09707(15) 0.32644(11) 0.06925(11)
C7 C -0.05341(18) 0.38153(12) 0.05827(12)
N11 N -0.00858(16) 0.57384(11) 0.07603(12)
C8 C -0.00904(17) 0.50938(13) 0.06246(12)
N12 N 0.00284(16) 0.43873(11) 0.04198(10)
N13 N 0.17626(17) 0.18117(13) 0.46171(12)
C9 C 0.2587(2) 0.18348(13) 0.46038(12)
N14 N 0.46328(15) 0.28484(11) 0.48224(10)
C10 C 0.40628(18) 0.23702(14) 0.47185(12)
N15 N 0.35218(16) 0.17803(11) 0.45721(11)
N16 N -0.05995(17) -0.17544(11) 0.08281(12)
C11 C -0.10482(19) -0.12028(12) 0.08842(13)
N17 N -0.13587(15) 0.07337(10) 0.06968(11)
C12 C -0.14409(17) 0.00851(12) 0.08109(12)
N18 N -0.16460(16) -0.06299(11) 0.09688(11)
P1 P 0.26278(4) 0.60063(3) 0.65927(3)
C13 C 0.36689(16) 0.56470(12) 0.69968(10)
C14 C 0.36306(18) 0.49448(12) 0.73306(12)
H1 H 0.30670 0.46360 0.73190
C15 C 0.44186(17) 0.47018(14) 0.76790(12)
H2 H 0.43940 0.42270 0.79110
C16 C 0.52403(18) 0.51468(14) 0.76910(12)
H3 H 0.57810 0.49740 0.79280
C17 C 0.52816(18) 0.58464(14) 0.73579(12)
H4 H 0.58500 0.61510 0.73670
C18 C 0.44952(17) 0.60978(13) 0.70144(12)
H5 H 0.45180 0.65780 0.67900
C19 C 0.19169(17) 0.52116(12) 0.63022(11)
C20 C 0.09196(18) 0.52411(14) 0.63313(12)
H6 H 0.06110 0.56650 0.65380
C21 C 0.03784(19) 0.46508(15) 0.60585(13)
H7 H -0.03010 0.46690 0.60770
C22 C 0.0833(2) 0.40346(14) 0.57588(13)
H8 H 0.04620 0.36320 0.55700
C23 C 0.1817(2) 0.40007(14) 0.57317(13)
H9 H 0.21220 0.35730 0.55290
C24 C 0.23671(19) 0.45907(12) 0.60002(12)
H10 H 0.30460 0.45700 0.59780
C25 C 0.19574(16) 0.65990(12) 0.71429(11)
C26 C 0.1397(2) 0.72102(14) 0.69193(13)
H11 H 0.13540 0.73090 0.64720
C27 C 0.0903(2) 0.76724(15) 0.73464(14)
H12 H 0.05190 0.80880 0.71930
C28 C 0.0967(2) 0.75320(14) 0.79952(14)
H13 H 0.06300 0.78540 0.82880
C29 C 0.1522(2) 0.69215(14) 0.82226(13)
H14 H 0.15610 0.68240 0.86700
C30 C 0.20176(18) 0.64556(13) 0.77974(12)
H15 H 0.23990 0.60380 0.79520
C31 C 0.29575(18) 0.65705(13) 0.59089(11)
H16 H 0.33370 0.70200 0.60470
H17 H 0.23780 0.67510 0.56890
H18 H 0.33380 0.62500 0.56150
P2 P 0.35935(4) -0.06070(3) 0.16038(3)
C32 C 0.47482(16) -0.01547(12) 0.15856(12)
C33 C 0.50911(18) 0.02584(13) 0.21115(12)
H19 H 0.47210 0.02890 0.24930
C34 C 0.59740(18) 0.06244(13) 0.20777(13)
H20 H 0.62100 0.09100 0.24340
C35 C 0.65090(18) 0.05724(13) 0.15224(13)
H21 H 0.71120 0.08270 0.14980
C36 C 0.61803(19) 0.01570(14) 0.10044(13)
H22 H 0.65580 0.01230 0.06270
C37 C 0.52984(18) -0.02126(14) 0.10318(12)
H23 H 0.50720 -0.05030 0.06750
C38 C 0.28027(17) -0.01156(12) 0.10648(11)
C39 C 0.19337(19) -0.04654(14) 0.08982(12)
H24 H 0.17890 -0.09710 0.10530
C40 C 0.1286(2) -0.00842(17) 0.05121(13)
H25 H 0.06970 -0.03260 0.04000
C41 C 0.1498(2) 0.06557(16) 0.02879(13)
H26 H 0.10500 0.09240 0.00250
C42 C 0.2354(2) 0.10020(15) 0.04450(12)
H27 H 0.24970 0.15080 0.02880
C43 C 0.30102(18) 0.06201(13) 0.08290(12)
H28 H 0.36030 0.08610 0.09320
C44 C 0.31354(16) -0.05235(13) 0.24028(11)
C45 C 0.32203(19) -0.11229(14) 0.28458(13)
H29 H 0.34840 -0.16090 0.27200
C46 C 0.2921(2) -0.10112(15) 0.34668(13)
H30 H 0.29630 -0.14260 0.37660
C47 C 0.25597(19) -0.03001(14) 0.36594(12)
H31 H 0.23680 -0.02250 0.40920
C48 C 0.24776(18) 0.02989(14) 0.32255(12)
H32 H 0.22280 0.07860 0.33590
C49 C 0.27560(17) 0.01939(13) 0.25961(11)
H33 H 0.26910 0.06060 0.22960
C50 C 0.3708(2) -0.16033(12) 0.13589(13)
H34 H 0.41450 -0.18750 0.16510
H35 H 0.39630 -0.16250 0.09220
H36 H 0.30780 -0.18540 0.13710
N8C N -0.27782(15) 0.21467(10) 0.05252(9)
N11B N 0.00858(16) 0.07384(11) 0.42397(12)
N14C N -0.03672(15) 0.21516(11) 0.51776(10)
N16B N 0.05995(17) 0.32456(11) 0.41719(12)
Mn1C Mn 0.37745(2) 0.300150(17) -0.074201(16)
Mn2B Mn -0.03190(2) 0.699364(18) 0.080593(17)
Mn2C Mn 0.53190(2) 0.300636(18) 0.580593(17)
Mn2B* Mn -0.03190(2) -0.300636(18) 0.080593(17)
#END
