
#######################################################################
#
#                 Cambridge Crystallographic Data Centre
#                                CCDC
#
#######################################################################
#
# If this CIF has been generated from an entry in the Cambridge
# Structural Database, then it will include bibliographic, chemical,
# crystal, experimental, refinement or atomic coordinate data resulting
# from the CCDC's data processing and validation procedures.
#
#######################################################################

data_CSD_CIF_QIMFAW
_audit_creation_date 2018-11-05
_audit_creation_method CSD-ConQuest-V1
_database_code_CSD QIMFAW
_database_code_depnum_ccdc_archive 'CCDC 1857682'
_chemical_formula_sum 'C240 H216 Mg9 N12 O63'
_chemical_formula_moiety
;
(C228 H144 Mg9 O63 12-)n,12(C1 H6 N1 1+)
;
_journal_coden_Cambridge 9
_journal_volume 57
_journal_year 2018
_journal_page_first 14280
_journal_name_full 'Inorg.Chem. '
loop_
_publ_author_name
"Xiao-Juan Lei"
"Xiang-Yang Hou"
"Shu-Ni Li"
"Yu-Cheng Jiang"
"Guo-Xin Sun"
"Man-Cheng Hu"
"Quan-Guo Zhai"
_chemical_name_systematic
;
catena-[dodecakis(methylammonium) 
octakis(\m-1,3,5-tris(4-carboxylatophenyl)benzene)-hexakis(acetato)-triaqua-no
na-magnesium]
;
_chemical_name_common
;
SNNU-35
;
_cell_volume  69518.081
_exptl_crystal_colour 'colorless'
_exptl_crystal_density_diffrn 0.644
_exptl_crystal_description 'bulk'
_diffrn_ambient_temperature 296
_refine_special_details
;
Disordered methylammonium ions were not modelled and the disordered density 
was taken into account using the SQUEEZE/PLATON procedure.
;
#These two values have been output from a single CSD field.
_refine_ls_R_factor_gt 0.094
_refine_ls_wR_factor_gt 0.094
_symmetry_cell_setting rhombohedral
_symmetry_space_group_name_H-M 'R -3'
_symmetry_Int_Tables_number 148
loop_
_symmetry_equiv_pos_site_id
_symmetry_equiv_pos_as_xyz
1 x,y,z
2 -y,x-y,z
3 -x+y,-x,z
4 2/3+x,1/3+y,1/3+z
5 2/3-y,1/3+x-y,1/3+z
6 2/3-x+y,1/3-x,1/3+z
7 1/3+x,2/3+y,2/3+z
8 1/3-y,2/3+x-y,2/3+z
9 1/3-x+y,2/3-x,2/3+z
10 -x,-y,-z
11 y,-x+y,-z
12 x-y,x,-z
13 -2/3-x,-1/3-y,-1/3-z
14 -2/3+y,-1/3-x+y,-1/3-z
15 -2/3+x-y,-1/3+x,-1/3-z
16 -1/3-x,-2/3-y,-2/3-z
17 -1/3+y,-2/3-x+y,-2/3-z
18 -1/3+x-y,-2/3+x,-2/3-z
_cell_length_a 44.2587(6)
_cell_length_b 44.2587(6)
_cell_length_c 40.9798(5)
_cell_angle_alpha 90
_cell_angle_beta 90
_cell_angle_gamma 120
_cell_formula_units_Z 6
loop_
_atom_type_symbol
_atom_type_radius_bond
C 0.68
H 0.23
Mg 1.41
O 0.68
loop_
_atom_site_label
_atom_site_type_symbol
_atom_site_fract_x
_atom_site_fract_y
_atom_site_fract_z
Mg1 Mg 0.17370(3) 0.21998(3) -0.19356(3)
Mg2 Mg 0.23539(3) 0.19383(3) -0.18489(3)
Mg3 Mg -0.05264(4) 0.18970(3) -0.54157(4)
C1 C -0.0244(3) 0.2145(2) -0.4831(2)
C2 C 0.35477(11) 0.37905(11) -0.28906(11)
C3 C 0.1195(3) 0.2023(4) -0.1397(4)
C4 C 0.3109(3) 0.2145(3) -0.1615(2)
C5 C 0.09453(14) 0.05812(13) -0.17289(17)
H1 H 0.08930 0.03790 -0.16150
C6 C -0.0138(2) 0.34584(19) -0.25066(14)
H2 H -0.00170 0.36280 -0.23500
C7 C -0.06184(17) 0.3156(2) -0.2832(2)
H3 H -0.08420 0.30960 -0.28990
C8 C -0.04414(18) 0.29917(18) -0.29886(18)
H4 H -0.05480 0.28410 -0.31630
C9 C 0.00068(18) 0.3286(2) -0.26419(15)
H5 H 0.02210 0.33290 -0.25620
C10 C 0.12815(13) 0.08707(14) -0.17168(16)
H6 H 0.14550 0.08570 -0.16000
C11 C -0.0337(2) 0.1513(3) -0.5501(3)
C12 C 0.01816(14) 0.23785(13) -0.43854(12)
H7 H 0.03580 0.24100 -0.45280
C13 C 0.06903(12) 0.05980(12) -0.19116(16)
C14 C -0.04705(16) 0.33835(15) -0.26007(17)
C15 C 0.45843(12) 0.44826(11) -0.24804(12)
H8 H 0.44000 0.44230 -0.23370
C16 C -0.03986(15) 0.22234(13) -0.42845(19)
H9 H -0.06260 0.21390 -0.43570
C17 C 0.07356(16) 0.23117(17) -0.29087(12)
H10 H 0.06090 0.21690 -0.30820
C18 C -0.0727(3) 0.3532(2) -0.2422(2)
C19 C 0.09742(15) 0.22464(15) -0.27354(14)
H11 H 0.10150 0.20700 -0.28060
C20 C 0.02856(12) -0.00398(14) -0.19289(15)
H12 H 0.04800 -0.00680 -0.19170
C21 C 0.17179(12) 0.14799(14) -0.18574(12)
C22 C 0.03439(12) 0.02980(12) -0.19371(15)
C23 C -0.03242(13) 0.23219(13) -0.39678(15)
H13 H -0.05010 0.23040 -0.38320
C24 C 0.49238(17) 0.46311(13) -0.23672(13)
H14 H 0.49650 0.46620 -0.21440
C25 C 0.10902(12) 0.27070(14) -0.23869(11)
H15 H 0.11980 0.28420 -0.22030
C26 C 0.08655(13) 0.27829(14) -0.25851(16)
H16 H 0.08500 0.29800 -0.25380
C27 C 0.30989(12) 0.29760(12) -0.23840(11)
H17 H 0.31590 0.28320 -0.22700
C28 C 0.32857(11) 0.42356(12) -0.41079(13)
H18 H 0.30610 0.41860 -0.41600
C29 C 0.55697(15) 0.49039(12) -0.2441(2)
C30 C -0.01614(18) 0.22422(14) -0.44963(15)
C31 C 0.11081(12) 0.11865(11) -0.20376(13)
H19 H 0.11550 0.13930 -0.21400
C32 C 0.07749(12) 0.09037(13) -0.20631(14)
H20 H 0.06070 0.09220 -0.21840
C33 C 0.33530(11) 0.32568(13) -0.25386(11)
H21 H 0.35810 0.33000 -0.25320
C34 C 0.38720(11) 0.44673(11) -0.42462(12)
H22 H 0.40580 0.45780 -0.43910
C35 C 0.33475(12) 0.41601(12) -0.38031(11)
H23 H 0.31630 0.40510 -0.36560
C36 C 0.02538(13) 0.24681(12) -0.40520(13)
H24 H 0.04780 0.25430 -0.39740
C37 C 0.39330(11) 0.43905(13) -0.39343(12)
H25 H 0.41580 0.44440 -0.38800
C38 C 0.24786(13) 0.25740(11) -0.22127(10)
C39 C 0.52000(14) 0.47337(11) -0.25737(16)
C40 C 0.26751(11) 0.31169(12) -0.25497(10)
H26 H 0.24470 0.30750 -0.25480
C41 C 0.38913(11) 0.39778(11) -0.27679(10)
H27 H 0.39390 0.39220 -0.25630
C42 C 0.01033(11) 0.25769(11) -0.35043(11)
C43 C 0.45250(12) 0.44242(11) -0.28168(12)
C44 C 0.37492(11) 0.41526(11) -0.33790(11)
C45 C 0.13609(12) 0.11806(12) -0.18781(13)
C46 C 0.11458(11) 0.24387(12) -0.24673(12)
C47 C 0.29324(12) 0.34053(12) -0.27158(10)
H28 H 0.28700 0.35460 -0.28330
C48 C 0.47944(12) 0.45213(10) -0.30199(11)
H29 H 0.47500 0.44830 -0.32420
C49 C 0.00331(12) 0.28740(11) -0.30444(12)
C50 C 0.13774(11) 0.23585(14) -0.22701(12)
C51 C 0.40750(11) 0.43275(11) -0.32424(10)
H30 H 0.42520 0.45150 -0.33550
C52 C 0.27553(11) 0.28918(11) -0.23871(10)
C53 C 0.41530(11) 0.42358(11) -0.29399(10)
C54 C 0.03396(10) 0.25275(11) -0.33310(11)
H31 H 0.04430 0.24120 -0.34300
C55 C 0.00065(13) 0.24482(11) -0.38401(12)
C56 C 0.51369(12) 0.4677(1) -0.29119(12)
H32 H 0.53200 0.47420 -0.30580
C57 C -0.00487(11) 0.27454(11) -0.33495(12)
H33 H -0.02170 0.27710 -0.34620
C58 C 0.36832(11) 0.42427(10) -0.37048(10)
C59 C 0.34770(14) 0.44706(11) -0.46775(11)
C60 C 0.06909(12) 0.25902(12) -0.28189(10)
C61 C 0.3493(1) 0.38812(11) -0.31966(11)
H34 H 0.32710 0.37530 -0.32870
C62 C -0.01400(13) 0.30524(12) -0.28892(12)
C63 C 0.02738(11) 0.28240(11) -0.28736(10)
H35 H 0.03340 0.29110 -0.26620
C64 C 0.32747(11) 0.34877(12) -0.27123(10)
C65 C 0.35460(11) 0.43844(10) -0.43473(10)
C66 C 0.0430(1) 0.26450(11) -0.30114(10)
C67 C 0.33044(18) 0.19737(19) -0.16754(17)
H36 H 0.31480 0.17360 -0.17360
H37 H 0.34290 0.19800 -0.14810
H38 H 0.34670 0.20900 -0.18490
O1 O 0.1088(2) 0.1787(2) -0.1158(2)
O2 O -0.05568(13) 0.20225(10) -0.49354(10)
O3 O -0.00195(17) 0.21764(14) -0.50217(11)
O4 O 0.32099(18) 0.2486(3) -0.1530(2)
C68 C 0.1229(3) 0.2368(2) -0.1313(2)
H39 H 0.13100 0.25180 -0.15000
H40 H 0.13930 0.24740 -0.11370
H41 H 0.10060 0.23340 -0.12470
O5 O -0.05210(17) 0.14471(16) -0.5309(2)
O6 O -0.0063(3) 0.1683(3) -0.5604(2)
O7 O -0.0512(2) 0.3775(2) -0.22674(13)
O8 O -0.09310(15) 0.34963(18) -0.2551(3)
O9 O 0.23832(11) 0.17112(13) -0.22949(9)
H42 H 0.22550 0.16990 -0.24550
H43 H 0.25230 0.16330 -0.23140
O10 O 0.58035(9) 0.4954(1) -0.26361(11)
O11 O 0.27776(9) 0.19230(9) -0.17021(10)
O12 O 0.13255(10) 0.19293(11) -0.16279(10)
O13 O 0.25781(7) 0.23906(8) -0.20725(8)
O14 O 0.19515(8) 0.14368(7) -0.17202(8)
O15 O 0.56300(9) 0.49934(8) -0.21516(10)
O16 O 0.15578(8) 0.25618(8) -0.20356(7)
O17 O 0.37267(7) 0.46372(7) -0.48612(7)
O18 O 0.31557(8) 0.43579(7) -0.47549(6)
O19 O 0.21697(7) 0.25080(6) -0.22233(6)
O20 O 0.13880(6) 0.20852(8) -0.23333(7)
O21 O 0.18032(6) 0.17795(7) -0.19780(7)
C69 C 0.0048(3) 0.11664(18) -0.56264(18)
H44 H 0.01890 0.13620 -0.57520
C70 C -0.04367(16) 0.08619(19) -0.53078(18)
H45 H -0.06330 0.08410 -0.52050
C71 C 0.01230(17) 0.08901(15) -0.56150(14)
H46 H 0.03210 0.09110 -0.57150
C72 C -0.03771(13) 0.05807(13) -0.52957(14)
H47 H -0.05290 0.03830 -0.51770
C73 C -0.0225(3) 0.1156(2) -0.5460(2)
C74 C -0.01088(13) 0.05865(11) -0.54489(12)
C75 C -0.03292(10) -0.00472(12) -0.54557(9)
H48 H -0.05540 -0.00800 -0.54550
C76 C -0.00496(11) 0.02884(11) -0.54558(9)
C5A C -0.05812(14) 0.03641(13) -0.17289(17)
H1A H -0.03790 0.05140 -0.16150
C10A C -0.08707(13) 0.04108(14) -0.17168(16)
H6A H -0.08570 0.05980 -0.16000
C13A C -0.05980(12) 0.00923(12) -0.19116(16)
C20A C 0.00398(12) 0.03254(14) -0.19289(15)
H12A H 0.00680 0.05480 -0.19170
C21A C -0.14799(12) 0.02380(14) -0.18574(12)
C22A C -0.02980(12) 0.00459(12) -0.19371(15)
C31A C -0.11865(12) -0.00784(11) -0.20376(13)
H19A H -0.13930 -0.02380 -0.21400
C32A C -0.09037(12) -0.01288(13) -0.20631(14)
H20A H -0.09220 -0.03150 -0.21840
C45A C -0.11806(12) 0.01803(12) -0.18781(13)
O14A O -0.14368(8) 0.05147(7) -0.17202(8)
O21A O -0.17795(6) 0.00237(7) -0.19780(7)
C5B C -0.03641(14) -0.09453(13) -0.17289(17)
H1B H -0.05140 -0.08930 -0.16150
C10B C -0.04108(13) -0.12815(14) -0.17168(16)
H6B H -0.05980 -0.14550 -0.16000
C13B C -0.00923(12) -0.06903(12) -0.19116(16)
C20B C -0.03254(12) -0.02856(14) -0.19289(15)
H12B H -0.05480 -0.04800 -0.19170
C21B C -0.02380(12) -0.17179(14) -0.18574(12)
C22B C -0.00459(12) -0.03439(12) -0.19371(15)
C31B C 0.00784(12) -0.11081(11) -0.20376(13)
H19B H 0.02380 -0.11550 -0.21400
C32B C 0.01288(12) -0.07749(13) -0.20631(14)
H20B H 0.03150 -0.06070 -0.21840
C45B C -0.01803(12) -0.13609(12) -0.18781(13)
O14B O -0.05147(8) -0.19515(7) -0.17202(8)
O21B O -0.00237(6) -0.18032(7) -0.19780(7)
C11A C -0.1513(2) -0.1850(3) -0.5501(3)
O5A O -0.14471(17) -0.19681(16) -0.5309(2)
O6A O -0.1683(3) -0.1746(3) -0.5604(2)
C69A C -0.11664(30) -0.11184(18) -0.56264(18)
H44A H -0.13620 -0.11730 -0.57520
C70A C -0.08619(16) -0.12986(19) -0.53078(18)
H45A H -0.08410 -0.14740 -0.52050
C71A C -0.08901(17) -0.07671(15) -0.56150(14)
H46A H -0.09110 -0.05900 -0.57150
C72A C -0.05807(13) -0.09578(13) -0.52957(14)
H47A H -0.03830 -0.09120 -0.51770
C73A C -0.1156(3) -0.1381(2) -0.5460(2)
C74A C -0.05865(13) -0.06953(11) -0.54489(12)
C75A C 0.00472(10) -0.02820(12) -0.54557(9)
H48A H 0.00800 -0.04740 -0.54550
C76A C -0.02884(11) -0.03380(11) -0.54558(9)
C11B C 0.1850(2) 0.0337(3) -0.5501(3)
O5B O 0.19681(17) 0.05210(16) -0.5309(2)
O6B O 0.1746(3) 0.0063(3) -0.5604(2)
C69B C 0.11184(30) -0.00480(18) -0.56264(18)
H44B H 0.11730 -0.01890 -0.57520
C70B C 0.12986(16) 0.04367(19) -0.53078(18)
H45B H 0.14740 0.06330 -0.52050
C71B C 0.07671(17) -0.01230(15) -0.56150(14)
H46B H 0.05900 -0.03210 -0.57150
C72B C 0.09578(13) 0.03771(13) -0.52957(14)
H47B H 0.09120 0.05290 -0.51770
C73B C 0.1381(3) 0.0225(2) -0.5460(2)
C74B C 0.06953(13) 0.01088(11) -0.54489(12)
C75B C 0.0282(1) 0.03292(12) -0.54557(9)
H48B H 0.04740 0.05540 -0.54550
C76B C 0.03380(11) 0.00496(11) -0.54558(9)
Mg1A Mg -0.21998(3) -0.04628(3) -0.19356(3)
Mg2A Mg -0.19383(3) 0.04156(3) -0.18489(3)
Mg3A Mg -0.18970(4) -0.24234(3) -0.54157(4)
C1A C -0.2145(3) -0.2389(2) -0.4831(2)
C2A C -0.37905(11) -0.02428(11) -0.28906(11)
C3A C -0.2023(3) -0.0828(4) -0.1397(4)
C4A C -0.2145(3) 0.0964(3) -0.1615(2)
C6A C -0.34584(20) -0.35964(19) -0.25066(14)
H2A H -0.36280 -0.36450 -0.23500
C7A C -0.31560(17) -0.37744(20) -0.2832(2)
H3A H -0.30960 -0.39380 -0.28990
C8A C -0.29917(18) -0.34331(18) -0.29886(18)
H4A H -0.28410 -0.33890 -0.31630
C9A C -0.32860(18) -0.32792(20) -0.26419(15)
H5A H -0.33290 -0.31080 -0.25620
C12A C -0.23785(14) -0.21969(13) -0.43854(12)
H7A H -0.24100 -0.20520 -0.45280
C14A C -0.33835(16) -0.38540(15) -0.26007(17)
C15A C -0.44826(12) 0.01017(11) -0.24804(12)
H8A H -0.44230 -0.00230 -0.23370
C16A C -0.22234(15) -0.26220(13) -0.42845(19)
H9A H -0.21390 -0.27650 -0.43570
C17A C -0.23117(16) -0.15761(17) -0.29087(12)
H10A H -0.21690 -0.15600 -0.30820
C18A C -0.3532(3) -0.4259(2) -0.2422(2)
C19A C -0.22464(15) -0.12722(15) -0.27354(14)
H11A H -0.20700 -0.10550 -0.28060
C23A C -0.23219(13) -0.26461(13) -0.39678(15)
H13A H -0.23040 -0.28050 -0.38320
C24A C -0.46311(17) 0.02927(13) -0.23672(13)
H14A H -0.46620 0.03030 -0.21440
C25A C -0.27070(12) -0.16168(14) -0.23869(11)
H15A H -0.28420 -0.16440 -0.22030
C26A C -0.27829(13) -0.19174(14) -0.25851(16)
H16A H -0.29800 -0.21300 -0.25380
C27A C -0.29760(12) 0.01229(12) -0.23840(11)
H17A H -0.28320 0.03270 -0.22700
C28A C -0.42356(11) -0.09499(12) -0.41079(13)
H18A H -0.41860 -0.11250 -0.41600
C29A C -0.49039(15) 0.06658(12) -0.2441(2)
C30A C -0.22422(18) -0.24036(14) -0.44963(15)
C33A C -0.32568(11) 0.00962(13) -0.25386(11)
H21A H -0.33000 0.02810 -0.25320
C34A C -0.44673(11) -0.05953(11) -0.42462(12)
H22A H -0.45780 -0.05200 -0.43910
C35A C -0.41601(12) -0.08126(12) -0.38031(11)
H23A H -0.40510 -0.08880 -0.36560
C36A C -0.24681(13) -0.22143(12) -0.40520(13)
H24A H -0.25430 -0.20650 -0.39740
C37A C -0.43905(11) -0.04575(13) -0.39343(12)
H25A H -0.44440 -0.02860 -0.38800
C38A C -0.25740(13) -0.00954(11) -0.22127(10)
C39A C -0.47337(14) 0.04663(11) -0.25737(16)
C40A C -0.31169(11) -0.04418(12) -0.25497(10)
H26A H -0.30750 -0.06280 -0.25480
C41A C -0.39778(11) -0.00865(11) -0.27679(10)
H27A H -0.39220 0.00170 -0.25630
C42A C -0.25769(11) -0.24736(11) -0.35043(11)
C43A C -0.44242(12) 0.01008(11) -0.28168(12)
C44A C -0.41526(11) -0.04034(11) -0.33790(11)
C46A C -0.24387(11) -0.12929(12) -0.24673(12)
C47A C -0.34053(12) -0.04729(12) -0.27158(10)
H28A H -0.35460 -0.06760 -0.28330
C48A C -0.45213(12) 0.02731(10) -0.30199(11)
H29A H -0.44830 0.02670 -0.32420
C49A C -0.28740(12) -0.28409(11) -0.30444(12)
C50A C -0.23585(11) -0.09811(14) -0.22701(12)
C51A C -0.43275(11) -0.02525(11) -0.32424(10)
H30A H -0.45150 -0.02630 -0.33550
C52A C -0.28918(11) -0.01365(11) -0.23871(10)
C53A C -0.42358(11) -0.00828(11) -0.29399(10)
C54A C -0.25275(10) -0.21879(11) -0.33310(11)
H31A H -0.24120 -0.19690 -0.34300
C55A C -0.24482(13) -0.24417(11) -0.38401(12)
C56A C -0.46770(12) 0.04599(10) -0.29119(12)
H32A H -0.47420 0.05780 -0.30580
C57A C -0.27454(11) -0.27941(11) -0.33495(12)
H33A H -0.27710 -0.29880 -0.34620
C58A C -0.42427(11) -0.05595(10) -0.37048(10)
C59A C -0.44706(14) -0.09936(11) -0.46775(11)
C60A C -0.25902(12) -0.18993(12) -0.28189(10)
C61A C -0.38812(10) -0.03882(11) -0.31966(11)
H34A H -0.37530 -0.04820 -0.32870
C62A C -0.30524(13) -0.31924(12) -0.28892(12)
C63A C -0.28240(11) -0.25502(11) -0.28736(10)
H35A H -0.29110 -0.25770 -0.26620
C64A C -0.34877(11) -0.02130(12) -0.27123(10)
C65A C -0.43844(11) -0.08384(10) -0.43473(10)
C66A C -0.2645(1) -0.22150(11) -0.30114(10)
C67A C -0.19737(18) 0.13307(19) -0.16754(17)
H36A H -0.17360 0.14120 -0.17360
H37A H -0.19800 0.14490 -0.14810
H38A H -0.20900 0.13770 -0.18490
O1A O -0.1787(2) -0.0699(2) -0.1158(2)
O2A O -0.20225(13) -0.25793(10) -0.49354(10)
O3A O -0.21764(17) -0.21959(14) -0.50217(11)
O4A O -0.24860(18) 0.07239(30) -0.1530(2)
C68A C -0.2368(3) -0.1139(2) -0.1313(2)
H39A H -0.25180 -0.12080 -0.15000
H40A H -0.24740 -0.10810 -0.11370
H41A H -0.23340 -0.13280 -0.12470
O7A O -0.3775(2) -0.4287(2) -0.22674(13)
O8A O -0.34963(15) -0.44273(18) -0.2551(3)
O9A O -0.17112(11) 0.06720(13) -0.22949(9)
H42A H -0.16990 0.05560 -0.24550
H43A H -0.16330 0.08900 -0.23140
O10A O -0.49540(9) 0.08495(10) -0.26361(11)
O11A O -0.19230(9) 0.08546(9) -0.17021(10)
O12A O -0.19293(10) -0.06038(11) -0.16279(10)
O13A O -0.23906(7) 0.01875(8) -0.20725(8)
O15A O -0.49934(9) 0.06366(8) -0.21516(10)
O16A O -0.25618(8) -0.10040(8) -0.20356(7)
O17A O -0.46372(7) -0.09105(7) -0.48612(7)
O18A O -0.43579(8) -0.12022(7) -0.47549(6)
O19A O -0.25080(7) -0.03383(6) -0.22233(6)
O20A O -0.20852(6) -0.06972(8) -0.23333(7)
Mg1B Mg 0.04628(3) -0.17370(3) -0.19356(3)
Mg2B Mg -0.04156(3) -0.23539(3) -0.18489(3)
Mg3B Mg 0.24234(4) 0.05264(3) -0.54157(4)
C1B C 0.2389(3) 0.0244(2) -0.4831(2)
C2B C 0.02428(11) -0.35477(11) -0.28906(11)
C3B C 0.0828(3) -0.1195(4) -0.1397(4)
C4B C -0.0964(3) -0.3109(3) -0.1615(2)
C6B C 0.35964(20) 0.01380(19) -0.25066(14)
H2B H 0.36450 0.00170 -0.23500
C7B C 0.37744(17) 0.06184(20) -0.2832(2)
H3B H 0.39380 0.08420 -0.28990
C8B C 0.34331(18) 0.04414(18) -0.29886(18)
H4B H 0.33890 0.05480 -0.31630
C9B C 0.32792(18) -0.00068(20) -0.26419(15)
H5B H 0.31080 -0.02210 -0.25620
C12B C 0.21969(14) -0.01816(13) -0.43854(12)
H7B H 0.20520 -0.03580 -0.45280
C14B C 0.38540(16) 0.04705(15) -0.26007(17)
C15B C -0.01017(12) -0.45843(11) -0.24804(12)
H8B H 0.00230 -0.44000 -0.23370
C16B C 0.26220(15) 0.03986(13) -0.42845(19)
H9B H 0.27650 0.06260 -0.43570
C17B C 0.15761(16) -0.07356(17) -0.29087(12)
H10B H 0.15600 -0.06090 -0.30820
C18B C 0.4259(3) 0.0727(2) -0.2422(2)
C19B C 0.12722(15) -0.09742(15) -0.27354(14)
H11B H 0.10550 -0.10150 -0.28060
C23B C 0.26461(13) 0.03242(13) -0.39678(15)
H13B H 0.28050 0.05010 -0.38320
C24B C -0.02927(17) -0.49238(13) -0.23672(13)
H14B H -0.03030 -0.49650 -0.21440
C25B C 0.16168(12) -0.10902(14) -0.23869(11)
H15B H 0.16440 -0.11980 -0.22030
C26B C 0.19174(13) -0.08655(14) -0.25851(16)
H16B H 0.21300 -0.08500 -0.25380
C27B C -0.01229(12) -0.30989(12) -0.23840(11)
H17B H -0.03270 -0.31590 -0.22700
C28B C 0.09499(11) -0.32857(12) -0.41079(13)
H18B H 0.11250 -0.30610 -0.41600
C29B C -0.06658(15) -0.55697(12) -0.2441(2)
C30B C 0.24036(18) 0.01614(14) -0.44963(15)
C33B C -0.00962(11) -0.33530(13) -0.25386(11)
H21B H -0.02810 -0.35810 -0.25320
C34B C 0.05953(11) -0.38720(11) -0.42462(12)
H22B H 0.05200 -0.40580 -0.43910
C35B C 0.08126(12) -0.33475(12) -0.38031(11)
H23B H 0.08880 -0.31630 -0.36560
C36B C 0.22143(13) -0.02538(12) -0.40520(13)
H24B H 0.20650 -0.04780 -0.39740
C37B C 0.04575(11) -0.39330(13) -0.39343(12)
H25B H 0.02860 -0.41580 -0.38800
C38B C 0.00954(13) -0.24786(11) -0.22127(10)
C39B C -0.04663(14) -0.52000(11) -0.25737(16)
C40B C 0.04418(11) -0.26751(12) -0.25497(10)
H26B H 0.06280 -0.24470 -0.25480
C41B C 0.00865(11) -0.38913(11) -0.27679(10)
H27B H -0.00170 -0.39390 -0.25630
C42B C 0.24736(11) -0.01033(11) -0.35043(11)
C43B C -0.01008(12) -0.45250(11) -0.28168(12)
C44B C 0.04034(11) -0.37492(11) -0.33790(11)
C46B C 0.12929(11) -0.11458(12) -0.24673(12)
C47B C 0.04729(12) -0.29324(12) -0.27158(10)
H28B H 0.06760 -0.28700 -0.28330
C48B C -0.02731(12) -0.47944(10) -0.30199(11)
H29B H -0.02670 -0.47500 -0.32420
C49B C 0.28409(12) -0.00331(11) -0.30444(12)
C50B C 0.09811(11) -0.13774(14) -0.22701(12)
C51B C 0.02525(11) -0.40750(11) -0.32424(10)
H30B H 0.02630 -0.42520 -0.33550
C52B C 0.01365(11) -0.27553(11) -0.23871(10)
C53B C 0.00828(11) -0.41530(11) -0.29399(10)
C54B C 0.21879(10) -0.03396(11) -0.33310(11)
H31B H 0.19690 -0.04430 -0.34300
C55B C 0.24417(13) -0.00065(11) -0.38401(12)
C56B C -0.04599(12) -0.51369(10) -0.29119(12)
H32B H -0.05780 -0.53200 -0.30580
C57B C 0.27941(11) 0.00487(11) -0.33495(12)
H33B H 0.29880 0.02170 -0.34620
C58B C 0.05595(11) -0.36832(10) -0.37048(10)
C59B C 0.09936(14) -0.34770(11) -0.46775(11)
C60B C 0.18993(12) -0.06909(12) -0.28189(10)
C61B C 0.03882(10) -0.34930(11) -0.31966(11)
H34B H 0.04820 -0.32710 -0.32870
C62B C 0.31924(13) 0.01400(12) -0.28892(12)
C63B C 0.25502(11) -0.02738(11) -0.28736(10)
H35B H 0.25770 -0.03340 -0.26620
C64B C 0.02130(11) -0.32747(12) -0.27123(10)
C65B C 0.08384(11) -0.3546(1) -0.43473(10)
C66B C 0.2215(1) -0.04300(11) -0.30114(10)
C67B C -0.13307(18) -0.33044(19) -0.16754(17)
H36B H -0.14120 -0.31480 -0.17360
H37B H -0.14490 -0.34290 -0.14810
H38B H -0.13770 -0.34670 -0.18490
O1B O 0.0699(2) -0.1088(2) -0.1158(2)
O2B O 0.25793(13) 0.05568(10) -0.49354(10)
O3B O 0.21959(17) 0.00195(14) -0.50217(11)
O4B O -0.07239(18) -0.32099(30) -0.1530(2)
C68B C 0.1139(3) -0.1229(2) -0.1313(2)
H39B H 0.12080 -0.13100 -0.15000
H40B H 0.10810 -0.13930 -0.11370
H41B H 0.13280 -0.10060 -0.12470
O7B O 0.4287(2) 0.0512(2) -0.22674(13)
O8B O 0.44273(15) 0.09310(18) -0.2551(3)
O9B O -0.06720(11) -0.23832(13) -0.22949(9)
H42B H -0.05560 -0.22550 -0.24550
H43B H -0.08900 -0.25230 -0.23140
O10B O -0.08495(9) -0.58035(10) -0.26361(11)
O11B O -0.08546(9) -0.27776(9) -0.17021(10)
O12B O 0.06038(10) -0.13255(11) -0.16279(10)
O13B O -0.01875(7) -0.25781(8) -0.20725(8)
O15B O -0.06366(9) -0.56300(8) -0.21516(10)
O16B O 0.10040(8) -0.15578(8) -0.20356(7)
O17B O 0.09105(7) -0.37267(7) -0.48612(7)
O18B O 0.12022(8) -0.31557(7) -0.47549(6)
O19B O 0.03383(7) -0.21697(6) -0.22233(6)
O20B O 0.06972(6) -0.13880(8) -0.23333(7)
Mg1F Mg -0.492967(30) -0.113353(30) -0.526893(30)
Mg1G Mg 0.113353(30) -0.379613(30) -0.526893(30)
Mg1H Mg 0.379613(30) 0.492967(30) -0.526893(30)
Mg2F Mg -0.431277(30) -0.139503(30) -0.518223(30)
Mg2G Mg 0.139503(30) -0.291773(30) -0.518223(30)
Mg2H Mg 0.291773(30) 0.431277(30) -0.518223(30)
Mg3C Mg -0.385973(40) -0.476967(30) -0.208237(40)
Mg3C* Mg 0.614027(40) 0.523033(30) -0.208237(40)
Mg3D Mg -0.523033(40) 0.090993(30) -0.208237(40)
Mg3D* Mg 0.476967(40) 0.090993(30) -0.208237(40)
Mg3E Mg -0.090993(40) -0.614027(30) -0.208237(40)
Mg3E* Mg -0.090993(40) 0.385973(30) -0.208237(40)
O7F O 0.282133(200) 0.044167(200) -0.560073(130)
O7G O -0.044167(200) 0.237967(200) -0.560073(130)
O7H O -0.237967(200) -0.282133(200) -0.560073(130)
O15F O -0.103667(90) 0.166007(80) -0.548493(100)
O15G O -0.166007(90) -0.269673(80) -0.548493(100)
O15H O 0.269673(90) 0.103667(80) -0.548493(100)
O17C O 0.039337(70) -0.202947(70) -0.152787(70)
O17D O 0.202947(70) 0.242283(70) -0.152787(70)
O17E O -0.242283(70) -0.039337(70) -0.152787(70)
O18C O -0.017763(80) -0.230877(70) -0.142157(60)
O18D O 0.230877(80) 0.213113(70) -0.142157(60)
O18E O -0.213113(80) 0.017763(70) -0.142157(60)
#END
