
#######################################################################
#
#                 Cambridge Crystallographic Data Centre
#                                CCDC
#
#######################################################################
#
# If this CIF has been generated from an entry in the Cambridge
# Structural Database, then it will include bibliographic, chemical,
# crystal, experimental, refinement or atomic coordinate data resulting
# from the CCDC's data processing and validation procedures.
#
#######################################################################

data_CSD_CIF_QINGAY
_audit_creation_date 2018-11-06
_audit_creation_method CSD-ConQuest-V1
_database_code_CSD QINGAY
_database_code_depnum_ccdc_archive 'CCDC 1811911'
_chemical_formula_sum 'C54 H57 Cu5 I6 N7 O2'
_chemical_formula_moiety
;
(C52 H54 Cu1 N6 O2 2+)n,n(Cu4 I6 2-),n(C2 H3 N1)
;
_journal_coden_Cambridge 95
_journal_volume 67
_journal_year 2018
_journal_page_first 1251
_journal_name_full 'Izv.Akad.Nauk SSSR,Ser.Khim.(Russ.)(Russ.Chem.Bull.) '
loop_
_publ_author_name
"T.E.Kokina"
"L.A.Glinskaya"
"D.A.Piryazev"
"A.Yu.Baranov"
"A.M.Agafontsev"
"Yu.A.Eremina"
"E.V.Vorontsova"
"A.S.Bogomyakov"
"D.Yu.Naumov"
"A.V.Tkachev"
"S.V.Larionov"
_chemical_name_systematic
;
catena-(bis(N-[1,1,3-trimethyl-7-phenyl-5-(pyridin-2-yl)-1a,2,3,7b-tetrahydro-
1H-cyclopropa[f]quinolin-3-yl]acetamide)-copper(ii) 
hexakis(\m-iodo)-tetra-copper(i) acetonitrile solvate)
;
_cell_volume   2956.290
_exptl_crystal_colour 'green'
_exptl_crystal_density_diffrn 2.151
_exptl_special_details
;
Absolute configuration

;
_exptl_crystal_description 'block'
_diffrn_ambient_temperature 150
#These two values have been output from a single CSD field.
_refine_ls_R_factor_gt 0.0292
_refine_ls_wR_factor_gt 0.0292
_symmetry_cell_setting monoclinic
_symmetry_space_group_name_H-M 'P 21'
_symmetry_Int_Tables_number 4
loop_
_symmetry_equiv_pos_site_id
_symmetry_equiv_pos_as_xyz
1 x,y,z
2 -x,1/2+y,-z
_cell_length_a 8.3488(4)
_cell_length_b 27.7434(16)
_cell_length_c 12.8970(7)
_cell_angle_alpha 90
_cell_angle_beta 98.257(2)
_cell_angle_gamma 90
_cell_formula_units_Z 2
loop_
_atom_type_symbol
_atom_type_radius_bond
C 0.68
H 0.23
Cu 1.32
I 1.40
N 0.68
O 0.68
loop_
_atom_site_label
_atom_site_type_symbol
_atom_site_fract_x
_atom_site_fract_y
_atom_site_fract_z
I1 I -0.20723(4) 0.56348(2) 1.18043(2)
I2 I 0.26954(5) 0.49573(2) 1.09669(3)
I3 I 0.24397(5) 0.64663(2) 1.15930(3)
I4 I 0.50954(4) 0.59761(2) 0.89137(2)
I5 I 0.71040(6) 0.45463(2) 0.95567(4)
I6 I 0.99533(4) 0.58976(2) 0.87449(2)
Cu1 Cu 0.04812(12) 0.57525(4) 1.09563(8)
Cu2 Cu 0.28633(10) 0.58864(4) 1.00451(7)
Cu3 Cu 0.51883(14) 0.52081(4) 1.01778(10)
Cu4 Cu 0.7863(1) 0.54631(3) 0.96689(9)
Cu5 Cu 0.50778(8) 0.41984(2) 0.59195(5)
O1 O 0.6158(5) 0.42399(13) 0.4686(3)
O2 O 0.2779(5) 0.44389(15) 0.4834(3)
N1 N 0.5012(5) 0.49228(14) 0.6272(3)
N2 N 0.3698(5) 0.41623(14) 0.7021(3)
N3 N 0.7079(5) 0.49823(15) 0.4308(3)
H1 H 0.73400 0.51620 0.38150
N4 N 0.3803(5) 0.34112(14) 0.4762(3)
N5 N 0.6326(5) 0.35901(14) 0.6365(3)
N6 N 0.0904(5) 0.41413(15) 0.3562(3)
H2 H 0.02090 0.42100 0.30240
C1 C 0.7049(6) 0.60455(17) 0.4605(4)
H3 H 0.73760 0.60890 0.39100
C2 C 0.8073(6) 0.56962(17) 0.5323(4)
H4 H 0.82700 0.58320 0.60230
H5 H 0.91110 0.56560 0.50790
C3 C 0.7261(6) 0.51946(16) 0.5372(4)
C4 C 0.5579(6) 0.52673(16) 0.5687(3)
C5 C 0.4680(6) 0.56847(16) 0.5386(3)
C6 C 0.5245(6) 0.60249(17) 0.4626(4)
H6 H 0.45550 0.60540 0.39470
C7 C 0.6199(6) 0.64706(19) 0.5014(4)
C8 C 0.6444(8) 0.6590(2) 0.6159(5)
H7 H 0.74490 0.67590 0.63360
H8 H 0.64700 0.62980 0.65590
H9 H 0.55690 0.67900 0.63140
C9 C 0.5931(8) 0.6902(2) 0.4285(6)
H10 H 0.49600 0.70670 0.43980
H11 H 0.58280 0.67940 0.35710
H12 H 0.68360 0.71170 0.44230
C10 C 0.8384(6) 0.48822(19) 0.6143(4)
H13 H 0.79310 0.45650 0.61690
H14 H 0.84960 0.50250 0.68280
H15 H 0.94270 0.48610 0.59160
C11 C 0.6552(6) 0.45424(18) 0.4042(4)
C12 C 0.6427(7) 0.43983(19) 0.2910(4)
H16 H 0.68420 0.40780 0.28630
H17 H 0.70470 0.46180 0.25510
H18 H 0.53140 0.44080 0.25940
C13 C 0.3667(6) 0.50034(16) 0.6707(3)
C14 C 0.2808(6) 0.54313(17) 0.6540(4)
H19 H 0.19380 0.54930 0.68970
C15 C 0.3263(6) 0.57685(15) 0.5831(3)
C16 C 0.2257(6) 0.62057(16) 0.5588(4)
C17 C 0.1945(6) 0.65031(19) 0.6391(4)
H20 H 0.23870 0.64310 0.70770
C18 C 0.0976(7) 0.6909(2) 0.6186(5)
H21 H 0.07920 0.71110 0.67320
C19 C 0.0290(7) 0.7014(2) 0.5178(5)
H22 H -0.03630 0.72850 0.50440
C20 C 0.0571(7) 0.6714(2) 0.4356(5)
H23 H 0.00910 0.67820 0.36750
C21 C 0.1573(6) 0.63140(18) 0.4555(4)
H24 H 0.17880 0.61190 0.40050
C22 C 0.3107(6) 0.45919(17) 0.7276(3)
C23 C 0.2060(7) 0.46317(18) 0.8011(4)
H25 H 0.16670 0.49300 0.81830
C24 C 0.1610(7) 0.4210(2) 0.8488(4)
H26 H 0.09190 0.42260 0.89920
C25 C 0.2197(7) 0.3771(2) 0.8207(4)
H27 H 0.18870 0.34870 0.85070
C26 C 0.3245(7) 0.37600(18) 0.7480(4)
H28 H 0.36540 0.34650 0.72990
C27 C 0.0331(6) 0.33968(19) 0.1989(4)
H29 H -0.03680 0.36210 0.15450
C28 C -0.0068(6) 0.3336(2) 0.3090(4)
H30 H 0.00170 0.29970 0.32810
H31 H -0.11770 0.34360 0.31080
C29 C 0.1073(6) 0.36324(18) 0.3899(4)
C30 C 0.2813(6) 0.34604(18) 0.3852(4)
C31 C 0.3281(6) 0.33498(17) 0.2880(4)
C32 C 0.2120(6) 0.34313(18) 0.1901(4)
H32 H 0.24300 0.36750 0.14170
C33 C 0.1118(6) 0.3011(2) 0.1411(4)
C34 C 0.1410(7) 0.2506(2) 0.1857(4)
H33 H 0.04510 0.23150 0.16760
H34 H 0.16700 0.25240 0.26060
H35 H 0.22930 0.23600 0.15710
C35 C 0.0744(8) 0.3021(2) 0.0232(4)
H36 H 0.03930 0.33380 0.00050
H37 H -0.00980 0.27920 0.00050
H38 H 0.16990 0.29380 -0.00640
C36 C 0.0569(7) 0.3572(2) 0.4984(4)
H39 H 0.12560 0.37660 0.54810
H40 H 0.06700 0.32390 0.51890
H41 H -0.05350 0.36730 0.49650
C37 C 0.1783(6) 0.45025(19) 0.4058(4)
C38 C 0.1424(7) 0.5005(2) 0.3640(4)
H42 H 0.11040 0.52040 0.41820
H43 H 0.05640 0.49930 0.30600
H44 H 0.23760 0.51380 0.34100
C39 C 0.5256(6) 0.32172(16) 0.4728(3)
C40 C 0.5784(6) 0.30555(17) 0.3815(4)
H45 H 0.67700 0.28960 0.38400
C41 C 0.4807(6) 0.31366(17) 0.2859(4)
C42 C 0.5394(6) 0.29874(18) 0.1873(4)
C43 C 0.5413(7) 0.33079(19) 0.1037(4)
H46 H 0.50710 0.36240 0.10950
C44 C 0.5946(8) 0.3152(2) 0.0118(4)
H47 H 0.59580 0.33660 -0.04360
C45 C 0.6458(8) 0.2683(2) 0.0019(4)
H48 H 0.67910 0.25810 -0.06020
C46 C 0.6473(8) 0.2370(2) 0.0842(5)
H49 H 0.68430 0.20560 0.07830
C47 C 0.5938(7) 0.25169(19) 0.1768(4)
H50 H 0.59440 0.23000 0.23190
C48 C 0.6346(6) 0.32016(16) 0.5741(3)
C49 C 0.7327(6) 0.28081(19) 0.6052(4)
H51 H 0.73440 0.25450 0.56080
C50 C 0.8283(7) 0.2808(2) 0.7030(4)
H52 H 0.89440 0.25470 0.72490
C51 C 0.8225(7) 0.3205(2) 0.7662(4)
H53 H 0.88360 0.32140 0.83240
C52 C 0.7249(7) 0.35908(19) 0.7303(4)
H54 H 0.72340 0.38600 0.77300
N7 N 0.7682(10) 0.7581(3) 0.2358(6)
C53 C 0.7433(9) 0.7296(3) 0.1720(6)
C54 C 0.7137(11) 0.6938(3) 0.0917(7)
H55 H 0.81250 0.67710 0.08570
H56 H 0.67420 0.70910 0.02620
H57 H 0.63450 0.67130 0.10930
I1* I 0.79277(4) 0.56348(2) 1.18043(2)
I6* I -0.00467(4) 0.58976(2) 0.87449(2)
Cu1* Cu 1.04812(12) 0.57525(4) 1.09563(8)
Cu2* Cu 1.28633(10) 0.58864(4) 1.00451(7)
Cu3* Cu -0.48117(14) 0.52081(4) 1.01778(10)
Cu4* Cu -0.2137(1) 0.54631(3) 0.96689(9)
#END
