
#######################################################################
#
#                 Cambridge Crystallographic Data Centre
#                                CCDC
#
#######################################################################
#
# If this CIF has been generated from an entry in the Cambridge
# Structural Database, then it will include bibliographic, chemical,
# crystal, experimental, refinement or atomic coordinate data resulting
# from the CCDC's data processing and validation procedures.
#
#######################################################################

data_CSD_CIF_QIPVAO
_audit_creation_date 2013-10-29
_audit_creation_method CSD-ConQuest-V1
_database_code_CSD QIPVAO
_database_code_depnum_ccdc_archive 'CCDC 939275'
_chemical_formula_sum 'C14 H14 Bi1 N3 O4 S2'
_chemical_formula_moiety
;
(C12 H6 Bi1 N2 O4 S2 1-)n,n(C2 H8 N1 1+)
;
_journal_coden_Cambridge 1350
_journal_volume 15
_journal_year 2013
_journal_page_first 10188
_journal_name_full 'CrystEngComm '
loop_
_publ_author_name
"Yan-Qiong Sun"
"Su-Zhi Ge"
"Qi Liu"
"Jie-Cen Zhong"
"Yi-Ping Chen"
_chemical_name_systematic
;
catena-(Dimethylammonium 
(\m~2~-2-mercaptonicotinato-N,O,O',S)-(\m~2~-2-mercaptonicotinato-N,O,S)-bismu
th)
;
_cell_volume   1768.435
_exptl_crystal_colour 'brown'
_exptl_crystal_density_diffrn 2.109
_exptl_crystal_description 'prism'
_diffrn_ambient_temperature 293
#These two values have been output from a single CSD field.
_refine_ls_R_factor_gt 0.0277
_refine_ls_wR_factor_gt 0.0277
_symmetry_cell_setting orthorhombic
_symmetry_space_group_name_H-M 'P 21 21 21'
_symmetry_Int_Tables_number 19
loop_
_symmetry_equiv_pos_site_id
_symmetry_equiv_pos_as_xyz
1 x,y,z
2 1/2-x,-y,1/2+z
3 -x,1/2+y,1/2-z
4 1/2+x,1/2-y,-z
_cell_length_a 10.0459(2)
_cell_length_b 11.4179(3)
_cell_length_c 15.4175(3)
_cell_angle_alpha 90
_cell_angle_beta 90
_cell_angle_gamma 90
_cell_formula_units_Z 4
loop_
_atom_type_symbol
_atom_type_radius_bond
C 0.68
H 0.23
Bi 1.48
N 0.68
O 0.68
S 1.02
loop_
_atom_site_label
_atom_site_type_symbol
_atom_site_fract_x
_atom_site_fract_y
_atom_site_fract_z
Bi1 Bi 0.859499(15) 0.398620(16) 0.246888(12)
S1 S 1.02161(12) 0.57967(12) 0.24046(15)
S2 S 0.73278(14) 0.49683(17) 0.11608(8)
O1 O 1.2801(5) 0.7207(5) 0.3043(3)
O2 O 1.3592(6) 0.6981(6) 0.1744(3)
O3 O 0.6698(5) 0.5422(5) -0.0687(2)
O4 O 0.7883(4) 0.4770(4) -0.1790(2)
N1 N 1.1340(4) 0.3722(4) 0.2583(3)
N2 N 0.9351(4) 0.3587(4) 0.0999(3)
C1 C 1.3128(5) 0.6605(5) 0.2409(5)
C2 C 1.2897(4) 0.5305(5) 0.2493(6)
C3 C 1.3947(5) 0.4509(6) 0.2545(6)
H1 H 1.48240 0.47640 0.25050
C4 C 1.3661(6) 0.3319(6) 0.2657(5)
H2 H 1.43410 0.27740 0.27230
C5 C 1.2364(6) 0.2978(6) 0.2668(5)
H3 H 1.21770 0.21860 0.27380
C6 C 1.1608(4) 0.4863(4) 0.2509(4)
C7 C 0.7636(5) 0.4855(7) -0.0983(3)
C8 C 0.8538(5) 0.4176(5) -0.0397(3)
C9 C 0.9533(6) 0.3506(6) -0.0760(3)
H4 H 0.96190 0.34860 -0.13600
C10 C 1.0407(7) 0.2864(8) -0.0260(4)
H5 H 1.10640 0.24090 -0.05180
C11 C 1.0288(6) 0.2911(7) 0.0628(4)
H6 H 1.08590 0.24720 0.09730
C12 C 0.8467(6) 0.4209(5) 0.0522(3)
N3 N 1.4361(8) 0.6093(8) 0.0239(4)
H7 H 1.51850 0.57930 0.01830
H8 H 1.42290 0.62280 0.08080
C13 C 1.3431(11) 0.5216(15) -0.0030(7)
H9 H 1.36480 0.49600 -0.06060
H10 H 1.25480 0.55380 -0.00260
H11 H 1.34730 0.45630 0.03600
C14 C 1.4337(14) 0.7213(13) -0.0204(8)
H12 H 1.46520 0.71140 -0.07880
H13 H 1.49010 0.77570 0.00960
H14 H 1.34420 0.75080 -0.02150
Bi1A Bi 0.640501(15) 0.601380(16) -0.253112(12)
Bi1B Bi 1.140501(15) 0.898620(16) 0.253112(12)
O1B O 0.7199(5) 0.2207(5) 0.1957(3)
O3A O 0.8302(5) 0.4578(5) 0.4313(2)
O4A O 0.7117(4) 0.5230(4) 0.3210(2)
#END
