
#######################################################################
#
#                 Cambridge Crystallographic Data Centre
#                                CCDC
#
#######################################################################
#
# If this CIF has been generated from an entry in the Cambridge
# Structural Database, then it will include bibliographic, chemical,
# crystal, experimental, refinement or atomic coordinate data resulting
# from the CCDC's data processing and validation procedures.
#
#######################################################################

data_CSD_CIF_QIQNIQ
_audit_creation_date 2018-11-07
_audit_creation_method CSD-ConQuest-V1
_database_code_CSD QIQNIQ
_database_code_depnum_ccdc_archive 'CCDC 1877465'
_chemical_formula_sum 'C8 H14 O23 V2'
_chemical_formula_moiety
;
(C8 O18 V2 4-)n,4(H3 O1 1+),H2 O1
;
_journal_coden_Cambridge 1078
_journal_year 2018
_journal_name_full 'CSD Communication(Private Communication) '
loop_
_publ_author_name
"Jian Zhou"
_chemical_name_systematic
;
catena-[tetrakis(oxonium) tetrakis(\m-oxalato)-dioxo-vanadium monohydrate]
;
_cell_volume   2025.522
_exptl_crystal_colour 'blue'
_exptl_crystal_density_diffrn 1.902
_exptl_crystal_description 'block'
_diffrn_ambient_temperature 296
#These two values have been output from a single CSD field.
_refine_ls_R_factor_gt 0.0407
_refine_ls_wR_factor_gt 0.0407
_symmetry_cell_setting monoclinic
_symmetry_space_group_name_H-M 'P 21/c'
_symmetry_Int_Tables_number 14
loop_
_symmetry_equiv_pos_site_id
_symmetry_equiv_pos_as_xyz
1 x,y,z
2 -x,1/2+y,1/2-z
3 -x,-y,-z
4 x,-1/2-y,-1/2+z
_cell_length_a 11.9281(8)
_cell_length_b 13.7771(9)
_cell_length_c 12.7247(8)
_cell_angle_alpha 90
_cell_angle_beta 104.388(1)
_cell_angle_gamma 90
_cell_formula_units_Z 4
loop_
_atom_type_symbol
_atom_type_radius_bond
C 0.68
H 0.23
O 0.68
V 1.53
loop_
_atom_site_label
_atom_site_type_symbol
_atom_site_fract_x
_atom_site_fract_y
_atom_site_fract_z
V1 V 0.25362(3) 0.14485(3) 0.15604(3)
V2 V 0.73750(3) 0.09386(3) 0.30971(3)
O1 O 0.40752(14) 0.18929(13) 0.29030(15)
O2 O 0.39165(13) 0.06977(12) 0.12509(14)
O3 O 0.58426(13) 0.05114(12) 0.17141(14)
O4 O 0.60002(13) 0.17014(12) 0.33918(14)
O5 O 0.76448(15) 0.19865(12) 0.21034(15)
O6 O 0.83433(14) 0.01914(12) 0.23065(15)
O7 O 0.88440(19) 0.23554(16) 0.1074(2)
O8 O 0.95670(16) 0.04441(15) 0.12645(17)
O9 O 0.22806(15) 0.04233(12) 0.25942(15)
O10 O 0.15994(14) 0.22140(12) 0.23739(15)
O11 O 0.05726(18) 0.20483(16) 0.36085(17)
O12 O 0.12602(18) 0.01221(15) 0.38065(18)
O13 O 0.70062(15) -0.03740(14) 0.36248(18)
O14 O 0.5203(2) -0.03215(17) 0.3784(3)
O15 O 0.54185(18) -0.22459(14) 0.4384(2)
O16 O 0.71269(15) -0.22407(14) 0.39805(19)
C1 C 0.49978(18) 0.15415(16) 0.28016(18)
C2 C 0.49223(18) 0.08519(15) 0.18414(18)
C3 C 0.8432(2) 0.17889(17) 0.1599(2)
C4 C 0.88302(18) 0.07127(17) 0.17144(19)
C5 C 0.11999(19) 0.17339(17) 0.30668(19)
C6 C 0.15872(19) 0.06562(17) 0.31825(19)
C7 C 0.62034(19) -0.18436(17) 0.40942(19)
C8 C 0.6109(2) -0.07387(18) 0.3822(2)
O17 O 0.16824(16) 0.11037(16) 0.04498(16)
O18 O 0.82712(16) 0.12594(16) 0.41891(16)
O19 O 0.05743(18) 0.12016(15) 0.57700(18)
H1 H -0.00460 0.15320 0.56470
H2 H 0.06260 0.08540 0.52330
H3 H 0.11790 0.15510 0.59490
O20 O 0.32614(19) -0.12659(15) 0.41674(19)
H4 H 0.30880 -0.17610 0.37610
H5 H 0.27000 -0.08680 0.40650
H6 H 0.38460 -0.09730 0.40510
O21 O 1.0733(2) -0.13071(16) 0.0932(2)
H7 H 1.03720 -0.18340 0.09640
H8 H 1.04050 -0.08400 0.11760
H9 H 1.07280 -0.11790 0.02780
O22 O 0.6713(2) -0.13562(16) 0.1091(2)
H10 H 0.68260 -0.08760 0.15240
H11 H 0.64190 -0.18780 0.12610
H12 H 0.64620 -0.12640 0.04130
O23 O 0.6858(3) 0.3671(2) 0.3869(6)
H13 H 0.64460 0.41820 0.37600
H14 H 0.64230 0.31810 0.36690
V1A V 0.74638(3) -0.35515(3) 0.34396(3)
O16A O 0.28731(15) 0.27593(14) 0.10195(19)
#END
