
#######################################################################
#
#                 Cambridge Crystallographic Data Centre
#                                CCDC
#
#######################################################################
#
# If this CIF has been generated from an entry in the Cambridge
# Structural Database, then it will include bibliographic, chemical,
# crystal, experimental, refinement or atomic coordinate data resulting
# from the CCDC's data processing and validation procedures.
#
#######################################################################

data_CSD_CIF_QIQROX
_audit_creation_date 2001-07-02
_audit_creation_method CSD-ConQuest-V1
_database_code_CSD QIQROX
_database_code_depnum_ccdc_archive 'CCDC 132209'
_chemical_formula_sum 'C74 H74 Cu2 Na10 O47 P4 S12'
_chemical_formula_moiety
;
(Na1 1+)10n,n(C72 H48 Cu2 O36 P4 S12 10-),n(C2 H6 O1),10n(H2 O1)
;
_journal_coden_Cambridge 9
_journal_volume 40
_journal_year 2001
_journal_page_first 1394
_journal_name_full 'Inorg.Chem. '
loop_
_publ_author_name
"F.Tisato"
"F.Refosco"
"G.Bandoli"
"G.Pilloni"
"B.Corain"
_chemical_name_systematic
;
catena-[Decasodium 
tetrakis(\m~2~-tris(m-sulfonatophenyl)phosphine)-di-copper(i) ethanol solvate 
decahydrate]
;
_cell_volume   5677.795
_exptl_crystal_colour 'colorless'
_exptl_crystal_density_diffrn 1.511
_exptl_crystal_description 'parallelepiped'
_diffrn_ambient_temperature ?
_diffrn_special_details
;
The study was carried out at room temperature,in the range 283-303K

;
_refine_special_details
;
Two sets of sulfonato O atoms are each disordered over two sites with 
occupancies 0.67:0.33. Some water molecules are also disordered.
;
#These two values have been output from a single CSD field.
_refine_ls_R_factor_gt 0.106
_refine_ls_wR_factor_gt 0.106
_symmetry_cell_setting monoclinic
_symmetry_space_group_name_H-M 'C 2/m'
_symmetry_Int_Tables_number 12
loop_
_symmetry_equiv_pos_site_id
_symmetry_equiv_pos_as_xyz
1 x,y,z
2 1/2+x,1/2+y,z
3 x,-y,z
4 1/2+x,1/2-y,z
5 -x,-y,-z
6 -1/2-x,-1/2-y,-z
7 -x,y,-z
8 -1/2-x,-1/2+y,-z
_cell_length_a 16.480(3)
_cell_length_b 28.321(6)
_cell_length_c 12.969(3)
_cell_angle_alpha 90
_cell_angle_beta 110.28(2)
_cell_angle_gamma 90
_cell_formula_units_Z 2
loop_
_atom_type_symbol
_atom_type_radius_bond
C 0.68
H 0.23
Cu 1.52
Na 0.97
O 0.68
P 1.05
S 1.02
loop_
_atom_site_label
_atom_site_type_symbol
_atom_site_fract_x
_atom_site_fract_y
_atom_site_fract_z
Cu1 Cu 0.00000 0.21310(5) 0.50000
P1 P 0.11411(14) 0.24771(7) 0.6301(2)
S1 S 0.40731(14) 0.35363(9) 0.6517(2)
O1 O 0.4046(6) 0.4044(3) 0.6599(7)
O2 O 0.4370(6) 0.3308(3) 0.7570(7)
O3 O 0.4539(6) 0.3417(3) 0.5791(7)
C1 C 0.1774(6) 0.2866(3) 0.5755(7)
C2 C 0.2636(5) 0.2998(3) 0.6287(7)
H1 H 0.2969(5) 0.2848(3) 0.6934(7)
C3 C 0.2989(6) 0.3352(3) 0.5841(7)
C4 C 0.2510(7) 0.3586(4) 0.4891(9)
H2 H 0.2755(7) 0.3830(4) 0.4620(9)
C5 C 0.1680(9) 0.3455(6) 0.4359(10)
H3 H 0.1359(9) 0.3603(6) 0.3705(10)
C6 C 0.1298(7) 0.3097(5) 0.4783(9)
H4 H 0.0725(7) 0.3013(5) 0.4415(9)
S2 S 0.2410(2) 0.07196(9) 0.7900(3)
O4 O 0.2064(12) 0.0565(7) 0.8698(15)
O5 O 0.3181(12) 0.0521(7) 0.8528(15)
O6 O 0.1909(11) 0.0611(6) 0.6838(12)
C7 C 0.1897(6) 0.2111(3) 0.7351(7)
C8 C 0.1877(6) 0.1625(3) 0.7231(7)
H5 H 0.1485(6) 0.1486(3) 0.6607(7)
C9 C 0.2440(7) 0.1347(4) 0.8039(8)
C10 C 0.3005(6) 0.1541(4) 0.8975(8)
H6 H 0.3383(6) 0.1348(4) 0.9507(8)
C11 C 0.3015(7) 0.2018(4) 0.9131(8)
H7 H 0.3392(7) 0.2150(4) 0.9776(8)
C12 C 0.2460(6) 0.2308(4) 0.8325(8)
H8 H 0.2465(6) 0.2632(4) 0.8435(8)
S3 S 0.0674(3) 0.42598(12) 0.7782(4)
O7 O -0.0130(12) 0.4446(7) 0.7229(15)
O8 O 0.1106(21) 0.4351(11) 0.7093(25)
O9 O 0.0863(16) 0.4406(8) 0.8947(19)
C13 C 0.0784(5) 0.2880(3) 0.7160(7)
C14 C 0.0908(6) 0.3366(3) 0.7171(8)
H9 H 0.1219(6) 0.3501(3) 0.6769(8)
C15 C 0.0558(7) 0.3649(4) 0.7797(9)
C16 C 0.0099(7) 0.3450(5) 0.8396(9)
H10 H -0.0135(7) 0.3642(5) 0.8804(9)
C17 C -0.0011(8) 0.2979(6) 0.839(1)
H11 H -0.0323(8) 0.2846(6) 0.8793(10)
C18 C 0.0342(7) 0.2686(4) 0.7780(8)
H12 H 0.0276(7) 0.2360(4) 0.7795(8)
C19 C 0.3211(17) 0.3679(10) 0.9235(21)
O10 O 0.3836(21) 0.3356(12) 1.0030(27)
C20 C 0.3776(25) 0.4022(15) 0.8912(32)
Na1 Na 0.0988(6) 0.00000 0.6030(8)
Na2 Na 0.00000 0.50000 1.00000
Na3 Na -0.0781(9) 0.50000 0.8093(12)
Na4 Na 0.50000 0.4404(5) 0.50000
Na5 Na 0.1558(19) 0.00000 0.4538(24)
Na6 Na 0.1048(21) 0.00000 0.8901(27)
O11? O 0.1608(24) 0.0567(13) 0.8102(31)
O12? O 0.0270(36) 0.4380(18) 0.6640(42)
O13? O 0.3394(18) 0.0617(10) 0.8139(23)
O14? O 0.1269(25) 0.4419(13) 0.8725(29)
O15? O 0.2264(18) 0.0610(9) 0.6717(20)
O16? O 0.1495(21) 0.4335(11) 0.7555(26)
O17? O 0.2080(33) 0.00000 1.0775(41)
O18 O 0.0080(48) 0.00000 0.7288(60)
O19 O 0.0838(41) 0.4672(23) 0.4979(51)
O20 O 0.151(4) 0.50000 0.6226(51)
O21 O 0.1413(9) 0.50000 1.0042(12)
O22? O 0.2034(10) 0.50000 0.9926(13)
O23? O -0.1211(12) 0.50000 0.7216(17)
O24 O 0.2799(46) 0.4685(25) 0.7085(59)
P1F P -0.11411(14) 0.24771(7) 0.3699(2)
S1F S -0.40731(14) 0.35363(9) 0.3483(2)
O1F O -0.4046(6) 0.4044(3) 0.3401(7)
O2F O -0.4370(6) 0.3308(3) 0.2430(7)
O3F O -0.4539(6) 0.3417(3) 0.4209(7)
C1F C -0.1774(6) 0.2866(3) 0.4245(7)
C2F C -0.2636(5) 0.2998(3) 0.3713(7)
H1F H -0.2969(5) 0.2848(3) 0.3066(7)
C3F C -0.2989(6) 0.3352(3) 0.4159(7)
C4F C -0.2510(7) 0.3586(4) 0.5109(9)
H2F H -0.2755(7) 0.3830(4) 0.5380(9)
C5F C -0.1680(9) 0.3455(6) 0.5641(10)
H3F H -0.1359(9) 0.3603(6) 0.6295(10)
C6F C -0.1298(7) 0.3097(5) 0.5217(9)
H4F H -0.0725(7) 0.3013(5) 0.5585(9)
S2F S -0.2410(2) 0.07196(9) 0.2100(3)
O4F O -0.2064(12) 0.0565(7) 0.1302(15)
O5F O -0.3181(12) 0.0521(7) 0.1472(15)
O6F O -0.1909(11) 0.0611(6) 0.3162(12)
C7F C -0.1897(6) 0.2111(3) 0.2649(7)
C8F C -0.1877(6) 0.1625(3) 0.2769(7)
H5F H -0.1485(6) 0.1486(3) 0.3393(7)
C9F C -0.2440(7) 0.1347(4) 0.1961(8)
C10F C -0.3005(6) 0.1541(4) 0.1025(8)
H6F H -0.3383(6) 0.1348(4) 0.0493(8)
C11F C -0.3015(7) 0.2018(4) 0.0869(8)
H7F H -0.3392(7) 0.2150(4) 0.0224(8)
C12F C -0.2460(6) 0.2308(4) 0.1675(8)
H8F H -0.2465(6) 0.2632(4) 0.1565(8)
S3F S -0.0674(3) 0.42598(12) 0.2218(4)
O7F O 0.0130(12) 0.4446(7) 0.2771(15)
O8F O -0.1106(21) 0.4351(11) 0.2907(25)
O9F O -0.0863(16) 0.4406(8) 0.1053(19)
C13F C -0.0784(5) 0.2880(3) 0.2840(7)
C14F C -0.0908(6) 0.3366(3) 0.2829(8)
H9F H -0.1219(6) 0.3501(3) 0.3231(8)
C15F C -0.0558(7) 0.3649(4) 0.2203(9)
C16F C -0.0099(7) 0.3450(5) 0.1604(9)
H10F H 0.0135(7) 0.3642(5) 0.1196(9)
C17F C 0.0011(8) 0.2979(6) 0.161(1)
H11F H 0.0323(8) 0.2846(6) 0.1207(10)
C18F C -0.0342(7) 0.2686(4) 0.2220(8)
H12F H -0.0276(7) 0.2360(4) 0.2205(8)
P1C P -0.38589(14) 0.25229(7) 0.6301(2)
S1C S -0.09269(14) 0.14637(9) 0.6517(2)
O1C O -0.0954(6) 0.0956(3) 0.6599(7)
O2C O -0.0630(6) 0.1692(3) 0.7570(7)
O3C O -0.0461(6) 0.1583(3) 0.5791(7)
C1C C -0.3226(6) 0.2134(3) 0.5755(7)
C2C C -0.2364(5) 0.2002(3) 0.6287(7)
H1C H -0.2031(5) 0.2152(3) 0.6934(7)
C3C C -0.2011(6) 0.1648(3) 0.5841(7)
C4C C -0.2490(7) 0.1414(4) 0.4891(9)
H2C H -0.2245(7) 0.1170(4) 0.4620(9)
C5C C -0.3320(9) 0.1545(6) 0.4359(10)
H3C H -0.3641(9) 0.1397(6) 0.3705(10)
C6C C -0.3702(7) 0.1903(5) 0.4783(9)
H4C H -0.4275(7) 0.1987(5) 0.4415(9)
S2C S -0.2590(2) 0.42804(9) 0.7900(3)
O4C O -0.2936(12) 0.4435(7) 0.8698(15)
O5C O -0.1819(12) 0.4479(7) 0.8528(15)
O6C O -0.3091(11) 0.4389(6) 0.6838(12)
C7C C -0.3103(6) 0.2889(3) 0.7351(7)
C8C C -0.3123(6) 0.3375(3) 0.7231(7)
H5C H -0.3515(6) 0.3514(3) 0.6607(7)
C9C C -0.2560(7) 0.3653(4) 0.8039(8)
C10C C -0.1995(6) 0.3459(4) 0.8975(8)
H6C H -0.1617(6) 0.3652(4) 0.9507(8)
C11C C -0.1985(7) 0.2982(4) 0.9131(8)
H7C H -0.1608(7) 0.2850(4) 0.9776(8)
C12C C -0.2540(6) 0.2692(4) 0.8325(8)
H8C H -0.2535(6) 0.2368(4) 0.8435(8)
S3C S -0.4326(3) 0.07402(12) 0.7782(4)
O7C O -0.5130(12) 0.0554(7) 0.7229(15)
O8C O -0.3894(21) 0.0649(11) 0.7093(25)
O9C O -0.4137(16) 0.0594(8) 0.8947(19)
C13C C -0.4216(5) 0.2120(3) 0.7160(7)
C14C C -0.4092(6) 0.1634(3) 0.7171(8)
H9C H -0.3781(6) 0.1499(3) 0.6769(8)
C15C C -0.4442(7) 0.1351(4) 0.7797(9)
C16C C -0.4901(7) 0.1550(5) 0.8396(9)
H10C H -0.5135(7) 0.1358(5) 0.8804(9)
C17C C -0.5011(8) 0.2021(6) 0.839(1)
H11C H -0.5323(8) 0.2154(6) 0.8793(10)
C18C C -0.4658(7) 0.2314(4) 0.7780(8)
H12C H -0.4724(7) 0.2640(4) 0.7795(8)
P1E P 0.38589(14) 0.25229(7) 0.3699(2)
S1E S 0.09269(14) 0.14637(9) 0.3483(2)
O1E O 0.0954(6) 0.0956(3) 0.3401(7)
O2E O 0.0630(6) 0.1692(3) 0.2430(7)
O3E O 0.0461(6) 0.1583(3) 0.4209(7)
C1E C 0.3226(6) 0.2134(3) 0.4245(7)
C2E C 0.2364(5) 0.2002(3) 0.3713(7)
H1E H 0.2031(5) 0.2152(3) 0.3066(7)
C3E C 0.2011(6) 0.1648(3) 0.4159(7)
C4E C 0.2490(7) 0.1414(4) 0.5109(9)
H2E H 0.2245(7) 0.1170(4) 0.5380(9)
C5E C 0.3320(9) 0.1545(6) 0.5641(10)
H3E H 0.3641(9) 0.1397(6) 0.6295(10)
C6E C 0.3702(7) 0.1903(5) 0.5217(9)
H4E H 0.4275(7) 0.1987(5) 0.5585(9)
S2E S 0.2590(2) 0.42804(9) 0.2100(3)
O4E O 0.2936(12) 0.4435(7) 0.1302(15)
O5E O 0.1819(12) 0.4479(7) 0.1472(15)
O6E O 0.3091(11) 0.4389(6) 0.3162(12)
C7E C 0.3103(6) 0.2889(3) 0.2649(7)
C8E C 0.3123(6) 0.3375(3) 0.2769(7)
H5E H 0.3515(6) 0.3514(3) 0.3393(7)
C9E C 0.2560(7) 0.3653(4) 0.1961(8)
C10E C 0.1995(6) 0.3459(4) 0.1025(8)
H6E H 0.1617(6) 0.3652(4) 0.0493(8)
C11E C 0.1985(7) 0.2982(4) 0.0869(8)
H7E H 0.1608(7) 0.2850(4) 0.0224(8)
C12E C 0.2540(6) 0.2692(4) 0.1675(8)
H8E H 0.2535(6) 0.2368(4) 0.1565(8)
S3E S 0.4326(3) 0.07402(12) 0.2218(4)
O7E O 0.5130(12) 0.0554(7) 0.2771(15)
O8E O 0.3894(21) 0.0649(11) 0.2907(25)
O9E O 0.4137(16) 0.0594(8) 0.1053(19)
C13E C 0.4216(5) 0.2120(3) 0.2840(7)
C14E C 0.4092(6) 0.1634(3) 0.2829(8)
H9E H 0.3781(6) 0.1499(3) 0.3231(8)
C15E C 0.4442(7) 0.1351(4) 0.2203(9)
C16E C 0.4901(7) 0.1550(5) 0.1604(9)
H10E H 0.5135(7) 0.1358(5) 0.1196(9)
C17E C 0.5011(8) 0.2021(6) 0.161(1)
H11E H 0.5323(8) 0.2154(6) 0.1207(10)
C18E C 0.4658(7) 0.2314(4) 0.2220(8)
H12E H 0.4724(7) 0.2640(4) 0.2205(8)
Cu1C Cu -0.50000 0.28690(5) 0.50000
Cu1C* Cu 0.50000 0.28690(5) 0.50000
P1E* P -0.61411(14) 0.25229(7) 0.3699(2)
O3* O -0.5461(6) 0.3417(3) 0.5791(7)
#END
