
#######################################################################
#
#                 Cambridge Crystallographic Data Centre
#                                CCDC
#
#######################################################################
#
# If this CIF has been generated from an entry in the Cambridge
# Structural Database, then it will include bibliographic, chemical,
# crystal, experimental, refinement or atomic coordinate data resulting
# from the CCDC's data processing and validation procedures.
#
#######################################################################

data_CSD_CIF_QITCUS
_audit_creation_date 2008-05-08
_audit_creation_method CSD-ConQuest-V1
_database_code_CSD QITCUS
_database_code_depnum_ccdc_archive 'CCDC 676004'
_chemical_formula_sum 'C32 H36 N12 Na4 O10 Os2'
_chemical_formula_moiety
;
(C32 H20 N12 Na2 O2 Os2 2-)n,n(H16 Na2 O8 2+)
;
_journal_coden_Cambridge 9
_journal_volume 46
_journal_year 2007
_journal_page_first 9779
_journal_name_full 'Inorg.Chem. '
loop_
_publ_author_name
"S.G.Baca"
"H.Adams"
"C.S.Grange"
"A.P.Smith"
"I.Sazanovich"
"M.D.Ward"
_chemical_name_systematic
;
catena-(bis(\m~2~-Aqua)-hexaaqua-di-sodium 
tetrakis(\m~3~-\h^2^-cyano)-bis(\m~2~-aqua)-tetracyano-bis(1,10-phenanthroline
)-di-osmium(ii)-di-sodium)
;
_cell_volume   1030.141
_exptl_crystal_colour 'red'
_exptl_crystal_density_diffrn 1.968
_exptl_special_details
;
weakly luminescent

;
_exptl_crystal_description 'plate'
_diffrn_ambient_temperature 100
#These two values have been output from a single CSD field.
_refine_ls_R_factor_gt 0.0554
_refine_ls_wR_factor_gt 0.0554
_symmetry_cell_setting triclinic
_symmetry_space_group_name_H-M 'P -1'
_symmetry_Int_Tables_number 2
loop_
_symmetry_equiv_pos_site_id
_symmetry_equiv_pos_as_xyz
1 x,y,z
2 -x,-y,-z
_cell_length_a 6.5785(6)
_cell_length_b 10.6416(9)
_cell_length_c 15.6335(13)
_cell_angle_alpha 105.243(5)
_cell_angle_beta 95.882(5)
_cell_angle_gamma 99.237(5)
_cell_formula_units_Z 1
loop_
_atom_type_symbol
_atom_type_radius_bond
C 0.84
H 0.17
N 0.77
Na 1.74
O 0.68
Os 1.37
loop_
_atom_site_label
_atom_site_type_symbol
_atom_site_fract_x
_atom_site_fract_y
_atom_site_fract_z
Os1 Os 0.34932(7) -0.15897(4) -0.26472(3)
Na1 Na 0.00000 0.00000 0.00000
Na2 Na 0.50000 0.00000 0.00000
Na3 Na -0.2017(7) 0.4355(4) 0.9100(3)
C1 C 0.3183(17) 0.0761(10) 0.3773(8)
H1 H 0.23110 0.03190 0.32170
C2 C 0.2446(18) 0.0718(11) 0.4586(8)
H2 H 0.10730 0.02550 0.45650
C3 C 0.3653(19) 0.1323(11) 0.5394(8)
H3 H 0.31340 0.12860 0.59340
C4 C 0.5732(18) 0.2019(10) 0.5419(7)
C5 C 0.712(2) 0.2665(11) 0.6218(8)
H4 H 0.66790 0.26810 0.67790
C6 C 0.911(2) 0.3272(11) 0.6191(8)
H5 H 1.00520 0.36640 0.67340
C7 C 0.9784(18) 0.3323(10) 0.5351(7)
C8 C 1.1801(18) 0.3965(10) 0.5280(8)
H6 H 1.27960 0.44080 0.58010
C9 C 1.2262(18) 0.3931(11) 0.4462(8)
H7 H 1.35920 0.43800 0.44080
C10 C 1.0840(17) 0.3252(10) 0.3679(8)
H8 H 1.12280 0.32420 0.31090
C11 C 0.8446(17) 0.2664(10) 0.4557(7)
C12 C 0.6359(17) 0.2013(10) 0.4581(7)
C13 C 0.4410(17) -0.3350(11) -0.2687(7)
C14 C 0.7951(16) 0.1833(10) 0.1634(7)
C15 C 0.2575(16) 0.0182(10) -0.2552(7)
C16 C 0.5975(19) -0.0619(11) -0.1744(7)
N1 N 0.5138(15) 0.1432(8) 0.3782(6)
N2 N 0.8961(14) 0.2624(8) 0.3729(6)
N3 N 0.4851(15) -0.4349(9) -0.2688(7)
N4 N 0.1344(15) -0.1970(9) -0.1005(6)
N5 N 0.2095(16) 0.1207(9) -0.2481(7)
N6 N 0.2607(15) 0.0049(9) 0.1191(6)
O1 O 0.2930(12) 0.1357(7) -0.0416(5)
H9 H 0.72480 -0.13780 0.10220
H10 H 0.72120 -0.20200 -0.00010
O2 O -0.2455(12) 0.6481(7) 0.9065(5)
H11 H -0.38070 0.65040 0.87990
H12 H -0.13860 0.70080 0.90160
O3 O 0.1772(13) 0.5410(7) 0.9357(5)
H13 H 0.23520 0.50560 0.89920
H14 H 0.20840 0.62600 0.95230
O4 O -0.5592(13) 0.3875(7) 0.8358(5)
H15 H -0.55270 0.43950 0.79620
H16 H -0.60560 0.31250 0.80380
O5 O -0.1184(13) 0.2394(8) 0.8353(6)
H17 H -0.15980 0.17160 0.85760
H18 H -0.01720 0.22410 0.82500
Os1A Os 0.65068(7) 0.15897(4) 0.26472(3)
Na1* Na 1.00000 0.00000 0.00000
Na3A Na 0.2017(7) 0.5645(4) 1.0900(3)
C1A C 0.6817(17) -0.0761(10) -0.3773(8)
H1A H 0.76890 -0.03190 -0.32170
C2A C 0.7554(18) -0.0718(11) -0.4586(8)
H2A H 0.89270 -0.02550 -0.45650
C3A C 0.6347(19) -0.1323(11) -0.5394(8)
H3A H 0.68660 -0.12860 -0.59340
C4A C 0.4268(18) -0.2019(10) -0.5419(7)
C5A C 0.288(2) -0.2665(11) -0.6218(8)
H4A H 0.33210 -0.26810 -0.67790
C6A C 0.089(2) -0.3272(11) -0.6191(8)
H5A H -0.00520 -0.36640 -0.67340
C7A C 0.0216(18) -0.3323(10) -0.5351(7)
C8A C -0.1801(18) -0.3965(10) -0.5280(8)
H6A H -0.27960 -0.44080 -0.58010
C9A C -0.2262(18) -0.3931(11) -0.4462(8)
H7A H -0.35920 -0.43800 -0.44080
C10A C -0.0840(17) -0.3252(10) -0.3679(8)
H8A H -0.12280 -0.32420 -0.31090
C11A C 0.1554(17) -0.2664(10) -0.4557(7)
C12A C 0.3641(17) -0.2013(10) -0.4581(7)
C13A C 0.5590(17) 0.3350(11) 0.2687(7)
C14A C 0.2049(16) -0.1833(10) -0.1634(7)
C15A C 0.7425(16) -0.0182(10) 0.2552(7)
C16A C 0.4025(19) 0.0619(11) 0.1744(7)
N1A N 0.4862(15) -0.1432(8) -0.3782(6)
N2A N 0.1039(14) -0.2624(8) -0.3729(6)
N3A N 0.5149(15) 0.4349(9) 0.2688(7)
N4A N -0.1344(15) 0.1970(9) 0.1005(6)
N4A* N 0.8656(15) 0.1970(9) 0.1005(6)
N5A N 0.7905(16) -0.1207(9) 0.2481(7)
N6A N -0.2607(15) -0.0049(9) -0.1191(6)
N6A* N 0.7393(15) -0.0049(9) -0.1191(6)
O1A O -0.2930(12) -0.1357(7) 0.0416(5)
O1A* O 0.7070(12) -0.1357(7) 0.0416(5)
H9* H -0.27520 -0.13780 0.10220
H9A H 0.27520 0.13780 -0.10220
H10* H -0.27880 -0.20200 -0.00010
H10A H 0.27880 0.20200 0.00010
O2A O 0.2455(12) 0.3519(7) 1.0935(5)
H11A H 0.38070 0.34960 1.12010
H12A H 0.13860 0.29920 1.09840
O3A O -0.1772(13) 0.4590(7) 1.0643(5)
H13A H -0.23520 0.49440 1.10080
H14A H -0.20840 0.37400 1.04770
O4A O 0.5592(13) 0.6125(7) 1.1642(5)
H15A H 0.55270 0.56050 1.20380
H16A H 0.60560 0.68750 1.19620
O5A O 0.1184(13) 0.7606(8) 1.1647(6)
H17A H 0.15980 0.82840 1.14240
H18A H 0.01720 0.77590 1.17500
#END
