
#######################################################################
#
#                 Cambridge Crystallographic Data Centre
#                                CCDC
#
#######################################################################
#
# If this CIF has been generated from an entry in the Cambridge
# Structural Database, then it will include bibliographic, chemical,
# crystal, experimental, refinement or atomic coordinate data resulting
# from the CCDC's data processing and validation procedures.
#
#######################################################################

data_CSD_CIF_QITWUM
_audit_creation_date 2008-05-08
_audit_creation_method CSD-ConQuest-V1
_database_code_CSD QITWUM
_database_code_depnum_ccdc_archive 'CCDC 655325'
_chemical_formula_sum 'C28 H56 N2 O24 U3'
_chemical_formula_moiety
;
(C12 H12 O22 U3 2-)n,2n(C8 H20 N1 1+),2n(H2 O1)
;
_journal_coden_Cambridge 1350
_journal_volume 10
_journal_year 2008
_journal_page_first 79
_journal_name_full 'CrystEngComm '
loop_
_publ_author_name
"P.Thuery"
_chemical_name_systematic
;
catena-(bis(Tetraethylammonium) bis(\m~4~-citrato)-diaqua-hexaoxo-tri-uranium 
dihydrate)
;
_cell_volume   1039.851
_exptl_crystal_colour 'light yellow'
_exptl_crystal_density_diffrn 2.425
_exptl_crystal_description 'parallelepiped'
_diffrn_ambient_temperature 100
#These two values have been output from a single CSD field.
_refine_ls_R_factor_gt 0.0204
_refine_ls_wR_factor_gt 0.0204
_symmetry_cell_setting triclinic
_symmetry_space_group_name_H-M 'P -1'
_symmetry_Int_Tables_number 2
loop_
_symmetry_equiv_pos_site_id
_symmetry_equiv_pos_as_xyz
1 x,y,z
2 -x,-y,-z
_cell_length_a 8.4980(3)
_cell_length_b 9.2992(4)
_cell_length_c 13.2045(6)
_cell_angle_alpha 86.048(2)
_cell_angle_beta 87.745(3)
_cell_angle_gamma 88.381(3)
_cell_formula_units_Z 1
loop_
_atom_type_symbol
_atom_type_radius_bond
C 0.68
H 0.23
N 0.68
O 0.68
U 1.48
loop_
_atom_site_label
_atom_site_type_symbol
_atom_site_fract_x
_atom_site_fract_y
_atom_site_fract_z
U1 U 0.701452(14) 0.067762(11) 0.548765(9)
U2 U 0.00000 0.00000 1.00000
O1 O 0.4277(3) 0.0376(2) 0.58492(16)
O2 O 0.6156(3) 0.1441(2) 0.71008(18)
O3 O 0.4230(3) 0.1962(2) 0.82296(17)
O4 O 0.2566(3) -0.0843(2) 0.92275(17)
O5 O 0.0663(3) -0.0314(2) 0.81877(18)
O6 O -0.0621(3) 0.1489(2) 0.62169(18)
O7 O 0.1038(3) -0.0279(2) 0.57773(17)
O8 O 0.6695(3) 0.2454(2) 0.49229(18)
O9 O 0.7399(3) -0.1077(2) 0.60598(18)
O10 O 0.0444(3) 0.1838(2) 0.97267(18)
O11 O 0.2250(3) -0.0120(3) 1.11092(18)
H1 H 0.31760 0.03530 1.09830
H2 H 0.23010 -0.04550 1.17290
O12 O 0.4403(3) 0.1698(2) 1.03542(18)
H3 H 0.44340 0.16930 0.96220
H4 H 0.53180 0.14030 1.04940
N1 N 0.7708(4) 0.5342(3) 0.7656(2)
C1 C 0.3553(4) 0.0679(3) 0.6801(2)
C2 C 0.4719(4) 0.1446(3) 0.7437(3)
C3 C 0.3224(4) -0.0774(3) 0.7426(2)
H5 H 0.27980 -0.14400 0.69800
H6 H 0.42150 -0.11870 0.76630
C4 C 0.2105(5) -0.0638(3) 0.8322(3)
C5 C 0.2075(4) 0.1645(3) 0.6639(2)
H7 H 0.17160 0.19920 0.72870
H8 H 0.23570 0.24770 0.61920
C6 C 0.0728(4) 0.0902(3) 0.6189(2)
C7 C 0.6166(5) 0.6195(3) 0.7580(3)
H9 H 0.63060 0.69960 0.70770
H10 H 0.59180 0.65960 0.82280
C8 C 0.4774(5) 0.5338(4) 0.7298(4)
H11 H 0.49940 0.49500 0.66510
H12 H 0.38520 0.59580 0.72600
H13 H 0.45940 0.45640 0.78050
C9 C 0.8091(5) 0.4611(4) 0.6687(3)
H14 H 0.73190 0.38770 0.66220
H15 H 0.91120 0.41250 0.67460
C10 C 0.8125(7) 0.5603(4) 0.5712(3)
H16 H 0.71090 0.60630 0.56280
H17 H 0.83870 0.50460 0.51410
H18 H 0.89020 0.63240 0.57580
C11 C 0.8942(5) 0.6423(4) 0.7846(3)
H19 H 0.86630 0.68600 0.84770
H20 H 0.89290 0.71810 0.73030
C12 C 1.0595(6) 0.5783(5) 0.7909(4)
H21 H 1.05940 0.49520 0.83820
H22 H 1.12840 0.64870 0.81330
H23 H 1.09560 0.55050 0.72510
C13 C 0.7597(5) 0.4151(4) 0.8493(3)
H24 H 0.67250 0.35470 0.83620
H25 H 0.85530 0.35580 0.84650
C14 C 0.7367(7) 0.4653(4) 0.9551(3)
H26 H 0.82430 0.52210 0.97010
H27 H 0.73000 0.38310 1.00310
H28 H 0.64120 0.52260 0.95950
U1A U -0.701452(14) -0.067762(11) 1.451235(9)
U1A* U 0.298548(14) -0.067762(11) 0.451235(9)
U1* U -0.298548(14) 0.067762(11) 0.548765(9)
U1** U -0.298548(14) 0.067762(11) 1.548765(9)
U1A** U 0.298548(14) -0.067762(11) 1.451235(9)
O1A O -0.4277(3) -0.0376(2) 1.41508(16)
O1A* O 0.5723(3) -0.0376(2) 0.41508(16)
O1* O -0.5723(3) 0.0376(2) 1.58492(16)
O2A O -0.6156(3) -0.1441(2) 1.28992(18)
O3A O -0.4230(3) -0.1962(2) 1.17704(17)
O4A O -0.2566(3) 0.0843(2) 1.07725(17)
O5A O -0.0663(3) 0.0314(2) 1.18123(18)
O6A O 0.0621(3) -0.1489(2) 1.37831(18)
O6* O 0.9379(3) 0.1489(2) 0.62169(18)
O6A* O -0.9379(3) -0.1489(2) 1.37831(18)
O7A O -0.1038(3) 0.0279(2) 1.42227(17)
O7A* O 0.8962(3) 0.0279(2) 0.42227(17)
O7* O -0.8962(3) -0.0279(2) 1.57773(17)
O8A O -0.6695(3) -0.2454(2) 1.50771(18)
O9A O -0.7399(3) 0.1077(2) 1.39402(18)
O10A O -0.0444(3) -0.1838(2) 1.02733(18)
O11A O -0.2250(3) 0.0120(3) 0.88908(18)
H1A H -0.31760 -0.03530 0.90170
H2A H -0.23010 0.04550 0.82710
C1A C -0.3553(4) -0.0679(3) 1.3199(2)
C2A C -0.4719(4) -0.1446(3) 1.2563(3)
C3A C -0.3224(4) 0.0774(3) 1.2574(2)
H5A H -0.27980 0.14400 1.30200
H6A H -0.42150 0.11870 1.23370
C4A C -0.2105(5) 0.0638(3) 1.1678(3)
C5A C -0.2075(4) -0.1645(3) 1.3361(2)
H7A H -0.17160 -0.19920 1.27130
H8A H -0.23570 -0.24770 1.38080
C6A C -0.0728(4) -0.0902(3) 1.3811(2)
#END
