
#######################################################################
#
#                 Cambridge Crystallographic Data Centre
#                                CCDC
#
#######################################################################
#
# If this CIF has been generated from an entry in the Cambridge
# Structural Database, then it will include bibliographic, chemical,
# crystal, experimental, refinement or atomic coordinate data resulting
# from the CCDC's data processing and validation procedures.
#
#######################################################################

data_CSD_CIF_QITXAT
_audit_creation_date 2008-05-08
_audit_creation_method CSD-ConQuest-V1
_database_code_CSD QITXAT
_database_code_depnum_ccdc_archive 'CCDC 655326'
_chemical_formula_sum 'C22 H22 N2 O21 U3'
_chemical_formula_moiety
;
(C12 H10 O21 U3 2-)n,2n(C5 H6 N1 1+)
;
_journal_coden_Cambridge 1350
_journal_volume 10
_journal_year 2008
_journal_page_first 79
_journal_name_full 'CrystEngComm '
loop_
_publ_author_name
"P.Thuery"
_chemical_name_systematic
;
catena-(bis(Pyridinium) (\m~4~-citrato)-(\m~4~-hydrogen 
citrato)-(\m~2~-hydroxo)-hexaoxo-tri-uranium)
;
_cell_volume   3138.605
_exptl_crystal_colour 'light yellow'
_exptl_crystal_density_diffrn 2.888
_exptl_crystal_description 'platelet'
_diffrn_ambient_temperature 100
#These two values have been output from a single CSD field.
_refine_ls_R_factor_gt 0.0324
_refine_ls_wR_factor_gt 0.0324
_symmetry_cell_setting monoclinic
_symmetry_space_group_name_H-M 'P 21/n'
_symmetry_Int_Tables_number 14
loop_
_symmetry_equiv_pos_site_id
_symmetry_equiv_pos_as_xyz
1 x,y,z
2 1/2-x,1/2+y,1/2-z
3 -x,-y,-z
4 -1/2+x,-1/2-y,-1/2+z
_cell_length_a 10.0669(5)
_cell_length_b 29.4919(13)
_cell_length_c 11.1076(6)
_cell_angle_alpha 90
_cell_angle_beta 107.873(3)
_cell_angle_gamma 90
_cell_formula_units_Z 4
loop_
_atom_type_symbol
_atom_type_radius_bond
C 0.68
H 0.23
N 0.68
O 0.68
U 1.48
loop_
_atom_site_label
_atom_site_type_symbol
_atom_site_fract_x
_atom_site_fract_y
_atom_site_fract_z
U1 U 0.59415(3) -0.039316(11) 0.14165(3)
U2 U 0.83755(3) 0.13825(1) 0.52382(3)
U3 U 0.37278(3) 0.24184(1) 0.17684(3)
O1 O 0.4597(7) -0.0319(3) 0.2142(7)
O2 O 0.7331(6) -0.04776(19) 0.0747(5)
O3 O 0.7454(6) 0.10701(18) 0.6111(5)
O4 O 0.9326(6) 0.16501(19) 0.4327(5)
O5 O 0.2541(6) 0.24213(18) 0.2670(5)
O6 O 0.4941(6) 0.23793(19) 0.0897(5)
O7 O 0.7367(5) 0.20550(18) 0.5445(5)
H1 H 0.68290 0.21100 0.47470
O8 O 0.5650(6) 0.03638(18) 0.0688(6)
O9 O 0.4956(6) 0.1120(2) -0.0724(6)
O10 O 0.6509(8) 0.1578(3) 0.0304(7)
O11 O 0.7398(7) 0.0069(2) 0.3028(5)
O12 O 0.8283(9) 0.0674(2) 0.4137(8)
O13 O 0.6366(7) 0.1433(2) 0.3501(6)
O14 O 0.4271(6) 0.16500(19) 0.2389(5)
C1 C 0.6025(9) 0.0821(3) 0.1246(9)
C2 C 0.5925(11) 0.1187(3) 0.0243(8)
C3 C 0.7574(10) 0.0818(5) 0.1965(12)
H2 H 0.79070 0.11190 0.22600
H3 H 0.81160 0.07000 0.14490
C4 C 0.7637(14) 0.0487(4) 0.3121(10)
C5 C 0.5028(8) 0.0906(3) 0.2017(8)
H4 H 0.40770 0.08870 0.14590
H5 H 0.51540 0.06680 0.26450
C6 C 0.5229(9) 0.1360(3) 0.2683(7)
O15 O 1.0522(5) -0.17873(18) 0.2871(5)
O16 O 0.9437(6) -0.24398(17) 0.1317(5)
O17 O 0.7900(6) -0.19964(19) -0.0067(5)
O18 O 0.9467(6) -0.09993(19) 0.3815(5)
O19 O 0.7173(6) -0.08951(19) 0.3061(5)
O20 O 1.1666(7) -0.0945(2) 0.0788(7)
O21 O 1.1035(7) -0.1656(2) 0.0212(6)
H6 H 1.19530 -0.16670 0.01190
C7 C 0.9317(9) -0.1657(3) 0.1891(7)
C8 C 0.8880(8) -0.2056(3) 0.0942(7)
C9 C 0.8113(9) -0.1551(3) 0.2365(8)
H7 H 0.72750 -0.15280 0.16460
H8 H 0.79860 -0.18020 0.28830
C10 C 0.8263(9) -0.1124(3) 0.3125(8)
C11 C 0.9616(9) -0.1239(3) 0.1152(7)
H9 H 0.96820 -0.09730 0.16810
H10 H 0.88170 -0.11960 0.04060
C12 C 1.0897(9) -0.1256(3) 0.0737(7)
N1 N 0.5092(7) 0.2030(2) -0.1989(7)
H11 H 0.55580 0.19330 -0.12240
N2 N 0.8328(9) 0.0003(3) 0.6203(8)
H12 H 0.81500 0.02520 0.56290
C13 C 0.5071(11) 0.1800(4) -0.2998(12)
H13 H 0.55830 0.15320 -0.29120
C14 C 0.4317(13) 0.1943(4) -0.4172(11)
H14 H 0.42960 0.17780 -0.48910
C15 C 0.3581(13) 0.2343(4) -0.4253(10)
H15 H 0.30740 0.24530 -0.50450
C16 C 0.3579(10) 0.2585(3) -0.3182(8)
H16 H 0.30550 0.28480 -0.32350
C17 C 0.4384(9) 0.2417(3) -0.2048(9)
H17 H 0.44410 0.25740 -0.13070
C18 C 0.8503(11) -0.0416(3) 0.5777(9)
H18 H 0.85460 -0.04460 0.49560
C19 C 0.8616(13) -0.0784(4) 0.6481(13)
H19 H 0.87390 -0.10680 0.61670
C20 C 0.8547(12) -0.0733(5) 0.7707(12)
H20 H 0.86280 -0.09860 0.82250
C21 C 0.8360(12) -0.0315(5) 0.8149(10)
H21 H 0.83210 -0.02840 0.89710
C22 C 0.8225(10) 0.0067(4) 0.7385(9)
H22 H 0.80710 0.03530 0.76690
U1B U 0.40585(3) 0.039316(11) -0.14165(3)
U2B U 1.16245(3) -0.13825(1) 0.47618(3)
U3C U 0.87278(3) 0.25816(1) 0.67684(3)
U3A U 1.12722(3) -0.25816(1) 0.32316(3)
U3B U 0.62722(3) -0.24184(1) -0.17684(3)
O7C O 0.2367(5) 0.29450(18) 0.0445(5)
H1C H 0.18290 0.28900 -0.02530
O8B O 0.4350(6) -0.03638(18) -0.0688(6)
O9B O 0.5044(6) -0.1120(2) 0.0724(6)
O15B O 0.9478(5) 0.17873(18) 0.7129(5)
O15A O 0.4478(5) 0.32127(18) 0.2129(5)
O16A O 0.5563(6) 0.25602(17) 0.3683(5)
O17B O 0.2100(6) 0.19964(19) 0.0067(5)
O18B O 1.0533(6) 0.09993(19) 0.6185(5)
#END
