
#######################################################################
#
#                 Cambridge Crystallographic Data Centre
#                                CCDC
#
#######################################################################
#
# If this CIF has been generated from an entry in the Cambridge
# Structural Database, then it will include bibliographic, chemical,
# crystal, experimental, refinement or atomic coordinate data resulting
# from the CCDC's data processing and validation procedures.
#
#######################################################################

data_CSD_CIF_QITXAU
_audit_creation_date 2014-03-18
_audit_creation_method CSD-ConQuest-V1
_database_code_CSD QITXAU
_database_code_depnum_ccdc_archive 'CCDC 976274'
_chemical_formula_sum 'C64 H80 N18 O21 S2 Zn3'
_chemical_formula_moiety
;
(C48 H46 N12 O14 S2 Zn2 2-)n,(C16 H28 N6 O4 Zn1 2+)n,3(H2 O1)
;
_journal_coden_Cambridge 1500
_journal_volume 4
_journal_year 2015
_journal_page_first 14241
_journal_name_full 'RSC Advances '
loop_
_publ_author_name
"Min Li"
"Yan-Fen Peng"
"Shan Zhao"
"Bao-Long Li"
"Hai-Yan Li"
_chemical_name_systematic
;
catena-[bis(\m-3,5-dicarboxylatobenzenesulfonate)-bis(\m-1,1'-((2,3,5,6-tetram
ethyl-1,4-phenylene)bis(methylene))bis(1H-1,2,4-triazole))-di-zinc 
(\m-1,1'-((2,3,5,6-tetramethyl-1,4-phenylene)bis(methylene))bis(1H-1,2,4-triaz
ole))-tetra-aqua-zinc trihydrate]
;
_cell_volume   1963.430
_exptl_crystal_colour 'colorless'
_exptl_crystal_density_diffrn 1.436
_exptl_crystal_description 'block'
_diffrn_ambient_temperature 293
#These two values have been output from a single CSD field.
_refine_ls_R_factor_gt 0.0624
_refine_ls_wR_factor_gt 0.0624
_symmetry_cell_setting triclinic
_symmetry_space_group_name_H-M 'P -1'
_symmetry_Int_Tables_number 2
loop_
_symmetry_equiv_pos_site_id
_symmetry_equiv_pos_as_xyz
1 x,y,z
2 -x,-y,-z
_cell_length_a 9.691(2)
_cell_length_b 14.157(4)
_cell_length_c 16.055(4)
_cell_angle_alpha 107.408(4)
_cell_angle_beta 99.937(3)
_cell_angle_gamma 104.264(3)
_cell_formula_units_Z 1
loop_
_atom_type_symbol
_atom_type_radius_bond
C 0.68
H 0.23
N 0.68
O 0.68
S 1.02
Zn 1.22
loop_
_atom_site_label
_atom_site_type_symbol
_atom_site_fract_x
_atom_site_fract_y
_atom_site_fract_z
Zn1 Zn 0.80800(5) 0.90897(4) 0.93976(3)
S1 S 0.98870(13) 0.48582(9) 0.70239(8)
O1 O 0.9487(4) 0.8558(3) 0.8765(2)
O2 O 1.1745(4) 0.9556(2) 0.9644(2)
O3 O 1.5975(3) 0.8350(3) 0.9166(2)
O4 O 1.5707(4) 0.7076(3) 0.7887(3)
O5 O 1.0761(4) 0.4171(3) 0.6937(3)
O6 O 0.8792(5) 0.4626(3) 0.7506(3)
O7 O 0.9247(6) 0.4946(3) 0.6175(3)
N1 N 0.9563(6) 0.7586(3) 1.1152(3)
N2 N 0.9134(7) 0.8274(4) 1.1745(3)
N3 N 0.8731(5) 0.8466(3) 1.0401(3)
N4 N 0.7373(4) 1.0120(3) 0.7180(3)
N5 N 0.6577(6) 1.0616(4) 0.7660(3)
N6 N 0.7589(5) 0.9744(3) 0.8398(3)
C1 C 1.0125(9) 0.5922(5) 1.0673(4)
C2 C 1.1315(9) 0.5848(5) 1.0324(4)
C3 C 1.1186(9) 0.4896(5) 0.9650(4)
C4 C 1.0266(9) 0.6897(5) 1.1453(4)
H1 H 0.98140 0.66950 1.18940
H2 H 1.13040 0.72740 1.17480
C5 C 1.2721(11) 0.6770(6) 1.0631(7)
H3 H 1.32750 0.68550 1.12200
H4 H 1.24710 0.73920 1.06590
H5 H 1.33050 0.66460 1.02090
C6 C 1.2516(10) 0.4781(6) 0.9308(5)
H6 H 1.29870 0.54050 0.92110
H7 H 1.22060 0.41970 0.87480
H8 H 1.31990 0.46680 0.97480
C7 C 0.8642(8) 0.8777(5) 1.1258(4)
H9 H 0.82600 0.93110 1.14900
C8 C 0.9336(7) 0.7718(4) 1.0369(4)
H10 H 0.95680 0.73370 0.98620
C9 C 0.6231(5) 1.0132(4) 0.5668(3)
C10 C 0.5271(5) 0.9129(4) 0.5143(3)
C11 C 0.4047(6) 0.8994(4) 0.4458(3)
C12 C 0.7623(6) 1.0256(4) 0.6340(3)
H11 H 0.80750 0.97500 0.60570
H12 H 0.83130 1.09460 0.64910
C13 C 0.5523(7) 0.8180(4) 0.5312(4)
H13 H 0.50010 0.80260 0.57370
H14 H 0.65600 0.83180 0.55540
H15 H 0.51680 0.75930 0.47520
C14 C 0.3080(7) 0.7895(4) 0.3858(4)
H16 H 0.35570 0.76050 0.34140
H17 H 0.21450 0.79130 0.35580
H18 H 0.29250 0.74700 0.42220
C15 C 0.6727(7) 1.0360(5) 0.8375(4)
H19 H 0.62800 1.05820 0.88330
C16 C 0.7961(6) 0.9613(4) 0.7629(3)
H20 H 0.85580 0.92170 0.74320
C17 C 1.1473(5) 0.7905(3) 0.8592(3)
C18 C 1.2986(5) 0.8114(3) 0.8720(3)
H21 H 1.36210 0.87790 0.90790
C19 C 1.3559(5) 0.7347(4) 0.8321(3)
C20 C 1.2616(5) 0.6350(3) 0.7796(3)
H22 H 1.29920 0.58300 0.75180
C21 C 1.1114(5) 0.6137(3) 0.7690(3)
C22 C 1.0537(5) 0.6911(4) 0.8068(3)
H23 H 0.95200 0.67640 0.79700
C23 C 1.0859(5) 0.8744(3) 0.9036(3)
C24 C 1.5208(5) 0.7594(4) 0.8454(4)
Zn2 Zn 0.50000 0.50000 0.50000
O8 O 0.5740(4) 0.4060(3) 0.3965(2)
H24 H 0.658(4) 0.391(4) 0.407(3)
H25 H 0.530(5) 0.365(4) 0.3391(18)
O9 O 0.5997(4) 0.4472(3) 0.5971(3)
H26 H 0.698(2) 0.468(5) 0.614(3)
H27 H 0.576(5) 0.442(5) 0.647(2)
N7 N 0.1143(5) 0.2644(3) 0.4761(3)
N8 N 0.1145(5) 0.2292(3) 0.3871(3)
N9 N 0.2982(4) 0.3792(3) 0.4653(3)
C25 C 0.0033(6) 0.0995(4) 0.5027(4)
C26 C 0.1076(6) 0.0874(4) 0.5669(4)
C27 C 0.1033(6) -0.0134(4) 0.5641(4)
C28 C 0.0012(6) 0.2092(4) 0.5110(4)
H28 H -0.09550 0.20470 0.47820
H29 H 0.01630 0.24970 0.57420
C29 C 0.2248(8) 0.1812(5) 0.6401(4)
H30 H 0.24990 0.23690 0.61740
H31 H 0.31120 0.16250 0.65750
H32 H 0.18750 0.20370 0.69180
C30 C 0.2142(8) -0.0258(5) 0.6353(5)
H33 H 0.30040 -0.03020 0.61460
H34 H 0.17120 -0.08830 0.64600
H35 H 0.24140 0.03330 0.69050
C31 C 0.2270(5) 0.3010(4) 0.3841(3)
H36 H 0.25540 0.29860 0.33130
C32 C 0.2224(6) 0.3533(4) 0.5204(4)
H37 H 0.24230 0.39210 0.58170
O10 O 0.8346(5) 0.3659(4) 0.4383(3)
H38 H 0.883(6) 0.411(4) 0.4939(18)
H39 H 0.897(6) 0.379(5) 0.405(3)
O11 O 0.5137(18) 0.4804(12) 0.7529(8)
N1A N 1.0437(6) 0.2414(3) 0.8848(3)
N2A N 1.0866(7) 0.1726(4) 0.8255(3)
N3A N 1.1269(5) 0.1534(3) 0.9599(3)
C1A C 0.9875(9) 0.4078(5) 0.9327(4)
C2A C 0.8685(9) 0.4152(5) 0.9676(4)
C3A C 0.8814(9) 0.5104(5) 1.0350(4)
C4A C 0.9734(9) 0.3103(5) 0.8547(4)
H1A H 1.01860 0.33050 0.81060
H2A H 0.86960 0.27260 0.82520
C5A C 0.7279(11) 0.3230(6) 0.9369(7)
H3A H 0.67250 0.31450 0.87800
H4A H 0.75290 0.26080 0.93410
H5A H 0.66950 0.33540 0.97910
C6A C 0.7484(10) 0.5219(6) 1.0692(5)
H6A H 0.70130 0.45950 1.07890
H7A H 0.77940 0.58030 1.12520
H8A H 0.68010 0.53320 1.02520
C7A C 1.1358(8) 0.1223(5) 0.8742(4)
H9A H 1.17400 0.06890 0.85100
C8A C 1.0664(7) 0.2282(4) 0.9631(4)
H10A H 1.04320 0.26630 1.01380
N4A N 0.2627(4) 0.9880(3) 0.2820(3)
N5A N 0.3423(6) 0.9384(4) 0.2340(3)
N6A N 0.2411(5) 1.0256(3) 0.1602(3)
C9A C 0.3769(5) 0.9868(4) 0.4332(3)
C10A C 0.4729(5) 1.0871(4) 0.4857(3)
C11A C 0.5953(6) 1.1006(4) 0.5542(3)
C12A C 0.2377(6) 0.9744(4) 0.3660(3)
H11A H 0.19250 1.02500 0.39430
H12A H 0.16870 0.90540 0.35090
C13A C 0.4477(7) 1.1820(4) 0.4688(4)
H13A H 0.49990 1.19740 0.42630
H14A H 0.34400 1.16820 0.44460
H15A H 0.48320 1.24070 0.52480
C14A C 0.6920(7) 1.2105(4) 0.6142(4)
H16A H 0.64430 1.23950 0.65860
H17A H 0.78550 1.20870 0.64420
H18A H 0.70750 1.25300 0.57780
C15A C 0.3273(7) 0.9640(5) 0.1625(4)
H19A H 0.37200 0.94180 0.11670
C16A C 0.2039(6) 1.0387(4) 0.2371(3)
H20A H 0.14420 1.07830 0.25680
Zn1A Zn 0.19200(5) 1.09103(4) 0.06024(3)
S1A S 0.01130(13) 1.51418(9) 0.29761(8)
O1A O 0.0513(4) 1.1442(3) 0.1235(2)
O2A O -0.1745(4) 1.0444(2) 0.0356(2)
O3A O -0.5975(3) 1.1650(3) 0.0834(2)
O4A O -0.5707(4) 1.2924(3) 0.2113(3)
O5A O -0.0761(4) 1.5829(3) 0.3063(3)
O6A O 0.1208(5) 1.5374(3) 0.2494(3)
O7A O 0.0753(6) 1.5054(3) 0.3825(3)
C17A C -0.1473(5) 1.2095(3) 0.1408(3)
C18A C -0.2986(5) 1.1886(3) 0.1280(3)
H21A H -0.36210 1.12210 0.09210
C19A C -0.3559(5) 1.2653(4) 0.1679(3)
C20A C -0.2616(5) 1.3650(3) 0.2204(3)
H22A H -0.29920 1.41700 0.24820
C21A C -0.1114(5) 1.3863(3) 0.2310(3)
C22A C -0.0537(5) 1.3089(4) 0.1932(3)
H23A H 0.04800 1.32360 0.20300
C23A C -0.0859(5) 1.1256(3) 0.0964(3)
C24A C -0.5208(5) 1.2406(4) 0.1546(4)
Zn1* Zn -0.19200(5) 0.90897(4) -0.06024(3)
Zn1** Zn 1.80800(5) 0.90897(4) 0.93976(3)
Zn1A* Zn -0.80800(5) 1.09103(4) 0.06024(3)
Zn1A** Zn 1.19200(5) 0.09103(4) 1.06024(3)
Zn1A*** Zn 1.19200(5) 1.09103(4) 1.06024(3)
O2* O 0.1745(4) 0.9556(2) -0.0356(2)
O2A* O 0.8255(4) 1.0444(2) 1.0356(2)
O3* O 0.5975(3) 0.8350(3) 0.9166(2)
O3A* O 0.4025(3) 1.1650(3) 0.0834(2)
N3A* N 0.1269(5) 1.1534(3) -0.0401(3)
N7A N -0.1143(5) -0.2644(3) 0.5239(3)
N8A N -0.1145(5) -0.2292(3) 0.6129(3)
N9A N -0.2982(4) -0.3792(3) 0.5347(3)
C25A C -0.0033(6) -0.0995(4) 0.4973(4)
C26A C -0.1076(6) -0.0874(4) 0.4331(4)
C27A C -0.1033(6) 0.0134(4) 0.4359(4)
C28A C -0.0012(6) -0.2092(4) 0.4890(4)
H28A H 0.09550 -0.20470 0.52180
H29A H -0.01630 -0.24970 0.42580
C29A C -0.2248(8) -0.1812(5) 0.3599(4)
H30A H -0.24990 -0.23690 0.38260
H31A H -0.31120 -0.16250 0.34250
H32A H -0.18750 -0.20370 0.30820
C30A C -0.2142(8) 0.0258(5) 0.3647(5)
H33A H -0.30040 0.03020 0.38540
H34A H -0.17120 0.08830 0.35400
H35A H -0.24140 -0.03330 0.30950
C31A C -0.2270(5) -0.3010(4) 0.6159(3)
H36A H -0.25540 -0.29860 0.66870
C32A C -0.2224(6) -0.3533(4) 0.4796(4)
H37A H -0.24230 -0.39210 0.41830
O8A O 0.4260(4) 0.5940(3) 0.6035(2)
H24A H 0.342(4) 0.609(4) 0.593(3)
H25A H 0.470(5) 0.635(4) 0.6609(18)
O9A O 0.4003(4) 0.5528(3) 0.4029(3)
H26A H 0.302(2) 0.532(5) 0.386(3)
H27A H 0.424(5) 0.558(5) 0.353(2)
Zn2* Zn -0.50000 -0.50000 0.50000
N9A* N 0.7018(4) 0.6208(3) 0.5347(3)
#END
