
#######################################################################
#
#                 Cambridge Crystallographic Data Centre
#                                CCDC
#
#######################################################################
#
# If this CIF has been generated from an entry in the Cambridge
# Structural Database, then it will include bibliographic, chemical,
# crystal, experimental, refinement or atomic coordinate data resulting
# from the CCDC's data processing and validation procedures.
#
#######################################################################

data_CSD_CIF_QIVFEJ
_audit_creation_date 2019-03-04
_audit_creation_method CSD-ConQuest-V1
_database_code_CSD QIVFEJ
_database_code_depnum_ccdc_archive 'CCDC 1888156'
_chemical_formula_sum 'C24 H31 O25 Zn3.5'
_chemical_formula_moiety
;
0.5(Zn1 2+),(C24 H25 O22 Zn3 1-)n,3(H2 O1)
;
_journal_coden_Cambridge 1147
_journal_volume 19
_journal_year 2019
_journal_page_first 2308
_journal_name_full 'Cryst.Growth Des. '
loop_
_publ_author_name
"Jia-Yao Zhang"
"Xue-Li Ma"
"Zhao-Xi Wang"
"Xiang He"
"Min Shao"
"Ming-Xing Li"
_chemical_name_systematic
;
catena-[hemikis(zinc) 
bis(\m-1,3,5-tris(carboxylatomethoxy)benzene)-(\m-hydroxo)-triaqua-tri-zinc(ii
) trihydrate]
;
_cell_volume   1617.948
_exptl_crystal_colour 'colorless'
_exptl_crystal_density_diffrn 1.947
_exptl_special_details
;
The authors state the half occupancy zinc atom is weakly coordinated by three 
carboxylic oxygens and two water molecules and can be deemed as a charge 
counterion
;
_exptl_crystal_description 'sheet'
_diffrn_ambient_temperature 296
#These two values have been output from a single CSD field.
_refine_ls_R_factor_gt 0.048
_refine_ls_wR_factor_gt 0.048
_symmetry_cell_setting triclinic
_symmetry_space_group_name_H-M 'P -1'
_symmetry_Int_Tables_number 2
loop_
_symmetry_equiv_pos_site_id
_symmetry_equiv_pos_as_xyz
1 x,y,z
2 -x,-y,-z
_cell_length_a 11.390(2)
_cell_length_b 12.684(2)
_cell_length_c 12.893(2)
_cell_angle_alpha 87.979(2)
_cell_angle_beta 67.951(2)
_cell_angle_gamma 70.430(2)
_cell_formula_units_Z 2
loop_
_atom_type_symbol
_atom_type_radius_bond
C 0.68
H 0.23
O 0.68
Zn 1.22
loop_
_atom_site_label
_atom_site_type_symbol
_atom_site_fract_x
_atom_site_fract_y
_atom_site_fract_z
Zn1 Zn 0.72833(5) -0.06302(4) 0.67888(4)
Zn2 Zn 0.39579(5) 0.08177(4) 0.86300(4)
Zn3 Zn 0.15836(5) 0.63567(4) 0.69998(4)
C1 C 0.6018(5) 0.5716(4) 0.5919(3)
H1 H 0.60100 0.64570 0.57010
H2 H 0.51490 0.56690 0.60230
C2 C 0.6012(4) 0.4664(3) 0.7519(3)
C3 C 0.6420(4) 0.4505(3) 0.8419(4)
H3 H 0.67620 0.50000 0.86200
C4 C 0.6302(4) 0.3582(4) 0.9012(3)
C5 C 0.5812(4) 0.2830(4) 0.8700(3)
H4 H 0.57830 0.21910 0.90700
C6 C 0.5465(4) 0.3970(3) 0.7219(4)
H5 H 0.51690 0.41090 0.66300
C7 C 0.5368(4) 0.3056(4) 0.7822(3)
C8 C 0.7317(5) 0.3995(4) 1.0206(4)
H6 H 0.67460 0.47820 1.03510
H7 H 0.81690 0.39190 0.95950
C9 C 0.4538(5) 0.2424(4) 0.6602(4)
H8 H 0.53490 0.23680 0.59510
H9 H 0.38730 0.31630 0.66720
C10 C 0.4000(4) 0.1537(4) 0.6433(4)
C11 C 0.2898(4) 0.2631(4) 1.0380(4)
C12 C 0.1910(5) 0.3203(4) 0.9848(4)
H10 H 0.10410 0.36190 1.04290
H11 H 0.22270 0.37330 0.93600
C13 C 0.1073(4) 0.2822(3) 0.8507(4)
C14 C 0.0895(4) 0.3872(3) 0.8169(4)
H12 H 0.11850 0.43650 0.84430
C15 C 0.0277(4) 0.4195(3) 0.7411(4)
C16 C -0.0166(4) 0.3483(3) 0.6981(4)
H13 H -0.05660 0.37020 0.64620
C17 C 0.0020(4) 0.2429(3) 0.7368(4)
C18 C 0.0614(5) 0.2092(3) 0.8125(4)
H14 H 0.07090 0.13850 0.83800
C19 C -0.0866(5) 0.1878(4) 0.6140(4)
H15 H -0.01210 0.18870 0.54570
H16 H -0.15660 0.26150 0.63100
C20 C -0.0762(4) 0.5841(3) 0.6625(4)
H17 H -0.15960 0.56890 0.69860
H18 H -0.03950 0.55920 0.58290
C21 C 0.7101(5) 0.4848(4) 0.4988(4)
C22 C 0.7558(5) 0.3585(4) 1.1256(4)
O1 O -0.1654(5) 0.1016(3) 0.5100(3)
C23 C -0.1415(5) 0.1002(4) 0.5958(4)
C24 C -0.1020(4) 0.7079(3) 0.6797(3)
O2 O 0.6192(3) 0.5587(2) 0.6965(2)
O3 O 0.6671(3) 0.3327(3) 0.9909(3)
O4 O 0.4842(3) 0.2292(2) 0.7586(3)
O5 O 0.3816(4) 0.1533(3) 0.5553(3)
O6 O 0.3778(3) 0.0855(2) 0.7168(2)
O7 O 0.2893(4) -0.0209(3) 0.9379(3)
H19 H 0.231(4) -0.023(5) 0.913(4)
H20 H 0.242(4) 0.004(5) 1.0070(15)
O8 O 0.3645(3) 0.1603(2) 1.0046(2)
O9 O 0.5773(3) -0.0314(2) 0.8182(3)
H21 H 0.59170 -0.07670 0.87370
O10 O -0.1655(3) 0.0337(3) 0.6707(3)
O11 O -0.1947(3) 0.7718(2) 0.6531(3)
O12 O 0.6865(4) -0.0244(3) 0.5447(3)
H22 H 0.733(5) 0.015(4) 0.511(4)
H23 H 0.698(5) -0.072(3) 0.495(3)
O13 O 0.1758(3) 0.2404(2) 0.9214(3)
O14 O -0.0412(4) 0.1648(2) 0.7040(3)
O15 O 0.0181(3) 0.5267(2) 0.7113(3)
O16 O 0.8091(3) 0.4159(3) 0.5109(3)
O17 O 0.6903(3) 0.4902(3) 0.4064(3)
O18 O -0.0309(3) 0.7396(2) 0.7176(3)
O19 O 0.2257(5) 0.7624(4) 0.6372(4)
H24 H 0.192(6) 0.807(4) 0.598(5)
H25 H 0.270(6) 0.793(4) 0.658(5)
O20 O 0.8330(3) 0.3963(3) 1.1509(3)
O21 O 0.7003(4) 0.2967(3) 1.1801(3)
O22 O 0.2939(3) 0.3221(2) 1.1106(2)
Zn4 Zn 0.49633(11) 0.76794(8) 0.82712(10)
O23 O 0.4137(4) 0.8618(3) 0.6502(3)
H26 H 0.49050 0.83900 0.56760
H27 H 0.36230 0.93810 0.68650
O24 O 0.1072(4) 0.0472(3) 0.1546(3)
H28 H 0.07710 0.12410 0.20060
H29 H 0.16190 -0.04440 0.15310
O25 O 0.1282(5) 0.9232(4) 0.8728(6)
H30 H 0.04110 0.93110 0.87220
H31 H 0.18820 0.86820 0.82410
Zn1* Zn -0.27167(5) -0.06302(4) 0.67888(4)
Zn1** Zn -0.27167(5) 0.93698(4) 0.67888(4)
Zn3A Zn 0.84164(5) 0.36433(4) 0.30002(4)
Zn3A* Zn 0.84164(5) 0.36433(4) 1.30002(4)
O10* O 0.8345(3) 0.0337(3) 0.6707(3)
O11* O 0.8053(3) -0.2282(2) 0.6531(3)
O17A O 0.3097(3) 0.5098(3) 0.5936(3)
O20A O 0.1670(3) 0.6037(3) 0.8491(3)
#END
