
#######################################################################
#
#                 Cambridge Crystallographic Data Centre
#                                CCDC
#
#######################################################################
#
# If this CIF has been generated from an entry in the Cambridge
# Structural Database, then it will include bibliographic, chemical,
# crystal, experimental, refinement or atomic coordinate data resulting
# from the CCDC's data processing and validation procedures.
#
#######################################################################

data_CSD_CIF_QIVPUI
_audit_creation_date 2014-03-19
_audit_creation_method CSD-ConQuest-V1
_database_code_CSD QIVPUI
_database_code_depnum_ccdc_archive 'CCDC 962778'
_chemical_formula_sum 'C162 H218 Co4 N6 Na4 O52 S12'
_chemical_formula_moiety
;
(C162 H210 Co4 N6 O48 S12 4-)n,4(Na1 1+),4(H2 O1)
;
_journal_coden_Cambridge 9
_journal_volume 53
_journal_year 2014
_journal_page_first 3004
_journal_name_full 'Inorg.Chem. '
loop_
_publ_author_name
"Ka Young Kim"
"Sunhong Park"
"Sung Ho Jung"
"Shim Sung Lee"
"K.-M.Park"
"Seiji Shinkai"
"Jong Hwa Jung"
_chemical_name_systematic
;
catena-[tetra-sodium 
tris(\m~4~-5,11,17,23-tetra-t-butyl-25,26,27,28-tetrakis(carboxylatomethoxy)-2
,8,14,20-tetrathiacalix(4)arene)-hexakis(N,N-dimethylformamide)-hexakis(aqua)-
tetra-cobalt tetrahydrate]
;
_cell_volume  20203.657
_exptl_crystal_colour 'purple'
_exptl_crystal_density_diffrn 1.247
_exptl_special_details
;
Coordinated N,N-dimethylformamide and water molecules are mixed occupancy. 
The structure contains two Co(dmf)3 and two Co(H2O)3
;
_exptl_crystal_description 'Block'
_diffrn_ambient_temperature 173
_refine_special_details
;
The structure is disordered.

;
#These two values have been output from a single CSD field.
_refine_ls_R_factor_gt 0.0918
_refine_ls_wR_factor_gt 0.0918
_symmetry_cell_setting cubic
_symmetry_space_group_name_H-M 'I -4 3 d'
_symmetry_Int_Tables_number 220
loop_
_symmetry_equiv_pos_site_id
_symmetry_equiv_pos_as_xyz
1 x,y,z
2 1/2-x,-y,1/2+z
3 -x,1/2+y,1/2-z
4 1/2+x,1/2-y,-z
5 z,x,y
6 1/2+z,1/2-x,-y
7 1/2-z,-x,1/2+y
8 -z,1/2+x,1/2-y
9 y,z,x
10 -y,1/2+z,1/2-x
11 1/2+y,1/2-z,-x
12 1/2-y,-z,1/2+x
13 1/4+y,1/4+x,1/4+z
14 1/4-y,3/4-x,3/4+z
15 3/4+y,1/4-x,3/4-z
16 3/4-y,3/4+x,1/4-z
17 1/4+x,1/4+z,1/4+y
18 3/4-x,3/4+z,1/4-y
19 1/4-x,3/4-z,3/4+y
20 3/4+x,1/4-z,3/4-y
21 1/4+z,1/4+y,1/4+x
22 3/4+z,1/4-y,3/4-x
23 3/4-z,3/4+y,1/4-x
24 1/4-z,3/4-y,3/4+x
25 1/2+x,1/2+y,1/2+z
26 -x,1/2-y,z
27 1/2-x,y,-z
28 x,-y,1/2-z
29 1/2+z,1/2+x,1/2+y
30 z,-x,1/2-y
31 -z,1/2-x,y
32 1/2-z,x,-y
33 1/2+y,1/2+z,1/2+x
34 1/2-y,z,-x
35 y,-z,1/2-x
36 -y,1/2-z,x
37 3/4+y,3/4+x,3/4+z
38 3/4-y,1/4-x,1/4+z
39 1/4+y,3/4-x,1/4-z
40 1/4-y,1/4+x,3/4-z
41 3/4+x,3/4+z,3/4+y
42 1/4-x,1/4+z,3/4-y
43 3/4-x,1/4-z,1/4+y
44 1/4+x,3/4-z,1/4-y
45 3/4+z,3/4+y,3/4+x
46 1/4+z,3/4-y,1/4-x
47 1/4-z,1/4+y,3/4-x
48 3/4-z,1/4-y,1/4+x
_cell_length_a 27.236(3)
_cell_length_b 27.236(3)
_cell_length_c 27.236(3)
_cell_angle_alpha 90
_cell_angle_beta 90
_cell_angle_gamma 90
_cell_formula_units_Z 4
loop_
_atom_type_symbol
_atom_type_radius_bond
C 0.68
H 0.23
Co 1.26
N 0.68
Na 1.66
O 0.68
S 1.02
loop_
_atom_site_label
_atom_site_type_symbol
_atom_site_fract_x
_atom_site_fract_y
_atom_site_fract_z
Co1 Co 0.09832(6) -0.09832(6) 0.40168(6)
O1 O 0.1127(4) -0.0283(3) 0.4204(3)
C1 C 0.1442(4) -0.0009(4) 0.4327(4)
O2 O 0.1854(4) -0.0199(3) 0.4540(4)
C2 C 0.1359(5) 0.0502(4) 0.4384(6)
O3 O 0.1756(2) 0.07997(19) 0.4564(2)
H1 H 0.10770 0.05440 0.46100
H2 H 0.12580 0.06350 0.40610
C3 C 0.1657(2) 0.1291(3) 0.4504(3)
C4 C 0.1372(3) 0.1545(3) 0.4858(3)
C5 C 0.1823(3) 0.1542(3) 0.4096(3)
S1 S 0.11080(7) 0.12648(9) 0.53729(9)
C6 C 0.1260(3) 0.2041(3) 0.4770(3)
C7 C 0.1699(3) 0.2032(3) 0.4023(3)
C8 C 0.1404(3) 0.2294(3) 0.4361(3)
H3 H 0.10720 0.22110 0.50090
H4 H 0.18160 0.21960 0.37380
C9 C 0.1271(4) 0.2827(3) 0.4266(4)
C10 C 0.0940(7) 0.3026(7) 0.4646(7)
C11 C 0.1733(6) 0.3132(4) 0.4314(6)
C12 C 0.1082(6) 0.2904(5) 0.3761(6)
H5 H 0.10690 0.29460 0.49720
H6 H 0.06120 0.28810 0.46080
H7 H 0.09170 0.33840 0.46100
H8 H 0.18610 0.31040 0.46490
H9 H 0.16560 0.34760 0.42430
H10 H 0.19800 0.30130 0.40810
H11 H 0.13330 0.28050 0.35220
H12 H 0.10040 0.32520 0.37140
H13 H 0.07850 0.27070 0.37120
O4 O 0.1681(4) -0.1271(5) 0.4121(6)
Na1 Na 0.25000 0.0310(3) 0.50000
O5 O 0.2258(11) -0.2258(11) 0.2742(11)
O6? O 0.1681(4) -0.1271(5) 0.4121(6)
C13? C 0.1827(7) -0.1358(10) 0.4506(7)
N1? N 0.2231(5) -0.1679(7) 0.4563(4)
H14? H 0.16760 -0.12160 0.47860
C14? C 0.2396(12) -0.1973(13) 0.4167(6)
C15? C 0.25000 -0.167(1) 0.50000
H15? H 0.21610 -0.19520 0.38950
H16? H 0.24230 -0.23150 0.42750
H17? H 0.27180 -0.18560 0.40570
H18? H 0.27490 -0.19290 0.49930
H19? H 0.22780 -0.17240 0.52780
H20? H 0.26610 -0.13500 0.50350
O1U O 0.1704(4) 0.2783(3) 0.6373(3)
C1U C 0.1827(4) 0.2509(4) 0.6058(4)
O2U O 0.2040(4) 0.2699(3) 0.5646(4)
C2U C 0.1884(5) 0.1998(4) 0.6141(6)
O3U O 0.2064(2) 0.17003(19) 0.5744(2)
H1U H 0.21100 0.19560 0.64230
H2U H 0.15610 0.18650 0.62420
C3U C 0.2004(2) 0.1209(3) 0.5843(3)
C4U C 0.2358(3) 0.0955(3) 0.6128(3)
C5U C 0.1596(3) 0.0958(3) 0.5677(3)
S1U S 0.28729(7) 0.12352(9) 0.63920(9)
C6U C 0.2270(3) 0.0459(3) 0.6240(3)
C7U C 0.1523(3) 0.0468(3) 0.5801(3)
C8U C 0.1861(3) 0.0206(3) 0.6096(3)
H3U H 0.25090 0.02890 0.64280
H4U H 0.12380 0.03040 0.56840
C9U C 0.1766(4) -0.0327(3) 0.6229(4)
C10U C 0.2146(7) -0.0526(7) 0.6560(7)
C11U C 0.1814(6) -0.0632(4) 0.5767(6)
C12U C 0.1261(6) -0.0404(5) 0.6418(6)
H5U H 0.24720 -0.04460 0.64310
H6U H 0.21080 -0.03810 0.68880
H7U H 0.21100 -0.08840 0.65830
H8U H 0.21490 -0.06040 0.56390
H9U H 0.17430 -0.09760 0.58440
H10U H 0.15810 -0.05130 0.55200
H11U H 0.10220 -0.03050 0.61670
H12U H 0.12140 -0.07520 0.64960
H13U H 0.12120 -0.02070 0.67150
O1UA O 0.3296(4) 0.2783(3) 0.3627(3)
C1UA C 0.3173(4) 0.2509(4) 0.3942(4)
O2UA O 0.2960(4) 0.2699(3) 0.4354(4)
C2UA C 0.3116(5) 0.1998(4) 0.3859(6)
O3UA O 0.2936(2) 0.17003(19) 0.4256(2)
H1UA H 0.28900 0.19560 0.35770
H2UA H 0.34390 0.18650 0.37580
C3UA C 0.2996(2) 0.1209(3) 0.4157(3)
C4UA C 0.2642(3) 0.0955(3) 0.3872(3)
C5UA C 0.3404(3) 0.0958(3) 0.4323(3)
S1UA S 0.21271(7) 0.12352(9) 0.36080(9)
C6UA C 0.2730(3) 0.0459(3) 0.3760(3)
C7UA C 0.3477(3) 0.0468(3) 0.4199(3)
C8UA C 0.3139(3) 0.0206(3) 0.3904(3)
H3UA H 0.24910 0.02890 0.35720
H4UA H 0.37620 0.03040 0.43160
C9UA C 0.3234(4) -0.0327(3) 0.3771(4)
C10UA C 0.2854(7) -0.0526(7) 0.3440(7)
C11UA C 0.3186(6) -0.0632(4) 0.4233(6)
C12UA C 0.3739(6) -0.0404(5) 0.3582(6)
H5UA H 0.25280 -0.04460 0.35690
H6UA H 0.28920 -0.03810 0.31120
H7UA H 0.28900 -0.08840 0.34170
H8UA H 0.28510 -0.06040 0.43610
H9UA H 0.32570 -0.09760 0.41560
H10UA H 0.34190 -0.05130 0.44800
H11UA H 0.39780 -0.03050 0.38330
H12UA H 0.37860 -0.07520 0.35040
H13UA H 0.37880 -0.02070 0.32850
O1Z O 0.3873(4) -0.0283(3) 0.5796(3)
C1Z C 0.3558(4) -0.0009(4) 0.5673(4)
O2Z O 0.3146(4) -0.0199(3) 0.5460(4)
C2Z C 0.3641(5) 0.0502(4) 0.5616(6)
O3Z O 0.3244(2) 0.07997(19) 0.5436(2)
H1Z H 0.39230 0.05440 0.53900
H2Z H 0.37420 0.06350 0.59390
C3Z C 0.3343(2) 0.1291(3) 0.5496(3)
C4Z C 0.3628(3) 0.1545(3) 0.5142(3)
C5Z C 0.3177(3) 0.1542(3) 0.5904(3)
S1Z S 0.38920(7) 0.12648(9) 0.46271(9)
C6Z C 0.3740(3) 0.2041(3) 0.5230(3)
C7Z C 0.3301(3) 0.2032(3) 0.5977(3)
C8Z C 0.3596(3) 0.2294(3) 0.5639(3)
H3Z H 0.39280 0.22110 0.49910
H4Z H 0.31840 0.21960 0.62620
C9Z C 0.3729(4) 0.2827(3) 0.5734(4)
C10Z C 0.4060(7) 0.3026(7) 0.5354(7)
C11Z C 0.3267(6) 0.3132(4) 0.5686(6)
C12Z C 0.3918(6) 0.2904(5) 0.6239(6)
H5Z H 0.39310 0.29460 0.50280
H6Z H 0.43880 0.28810 0.53920
H7Z H 0.40830 0.33840 0.53900
H8Z H 0.31390 0.31040 0.53510
H9Z H 0.33440 0.34760 0.57570
H10Z H 0.30200 0.30130 0.59190
H11Z H 0.36670 0.28050 0.64780
H12Z H 0.39960 0.32520 0.62860
H13Z H 0.42150 0.27070 0.62880
O1F O 0.0796(4) -0.1127(3) 0.4717(3)
C1F C 0.0673(4) -0.1442(4) 0.4991(4)
O2F O 0.0460(4) -0.1854(3) 0.4801(4)
C2F C 0.0616(5) -0.1359(4) 0.5502(6)
O3F O 0.0436(2) -0.17560(19) 0.57997(20)
H1F H 0.03900 -0.10770 0.55440
H2F H 0.09390 -0.12580 0.56350
C3F C 0.0496(2) -0.1657(3) 0.6291(3)
C4F C 0.0142(3) -0.1372(3) 0.6545(3)
C5F C 0.0904(3) -0.1823(3) 0.6542(3)
S1F S -0.03729(7) -0.11080(9) 0.62648(9)
C6F C 0.0230(3) -0.1260(3) 0.7041(3)
C7F C 0.0977(3) -0.1699(3) 0.7032(3)
C8F C 0.0639(3) -0.1404(3) 0.7294(3)
H3F H -0.00090 -0.10720 0.72110
H4F H 0.12620 -0.18160 0.71960
C9F C 0.0734(4) -0.1271(3) 0.7827(4)
C10F C 0.0354(7) -0.0940(7) 0.8026(7)
C11F C 0.0686(6) -0.1733(4) 0.8132(6)
C12F C 0.1239(6) -0.1082(5) 0.7904(6)
H5F H 0.00280 -0.10690 0.79460
H6F H 0.03920 -0.06120 0.78810
H7F H 0.03900 -0.09170 0.83840
H8F H 0.03510 -0.18610 0.81040
H9F H 0.07570 -0.16560 0.84760
H10F H 0.09190 -0.19800 0.80130
H11F H 0.14780 -0.13330 0.78050
H12F H 0.12860 -0.10040 0.82520
H13F H 0.12880 -0.07850 0.77070
O4F O 0.0879(4) -0.1681(5) 0.3729(6)
O1S O -0.1373(4) -0.1704(3) 0.7783(3)
C1S C -0.1058(4) -0.1827(4) 0.7509(4)
O2S O -0.0646(4) -0.2040(3) 0.7699(4)
C2S C -0.1141(5) -0.1884(4) 0.6998(6)
O3S O -0.0744(2) -0.20640(19) 0.67003(20)
H1S H -0.14230 -0.21100 0.69560
H2S H -0.12420 -0.15610 0.68650
C3S C -0.0843(2) -0.2004(3) 0.6209(3)
C4S C -0.1128(3) -0.2358(3) 0.5955(3)
C5S C -0.0677(3) -0.1596(3) 0.5958(3)
S1S S -0.13920(7) -0.28729(9) 0.62352(9)
C6S C -0.1240(3) -0.2270(3) 0.5459(3)
C7S C -0.0801(3) -0.1523(3) 0.5468(3)
C8S C -0.1096(3) -0.1861(3) 0.5206(3)
H3S H -0.14280 -0.25090 0.52890
H4S H -0.06840 -0.12380 0.53040
C9S C -0.1229(4) -0.1766(3) 0.4673(4)
C10S C -0.1560(7) -0.2146(7) 0.4474(7)
C11S C -0.0767(6) -0.1814(4) 0.4368(6)
C12S C -0.1418(6) -0.1261(5) 0.4596(6)
H5S H -0.14310 -0.24720 0.45540
H6S H -0.18880 -0.21080 0.46190
H7S H -0.15830 -0.21100 0.41160
H8S H -0.06390 -0.21490 0.43960
H9S H -0.08440 -0.17430 0.40240
H10S H -0.05200 -0.15810 0.44870
H11S H -0.11670 -0.10220 0.46950
H12S H -0.14960 -0.12140 0.42480
H13S H -0.17150 -0.12120 0.47930
O1OA O 0.1373(4) -0.3296(3) 0.7783(3)
C1OA C 0.1058(4) -0.3173(4) 0.7509(4)
O2OA O 0.0646(4) -0.2960(3) 0.7699(4)
C2OA C 0.1141(5) -0.3116(4) 0.6998(6)
O3OA O 0.0744(2) -0.29360(19) 0.67003(20)
H1OA H 0.14230 -0.28900 0.69560
H2OA H 0.12420 -0.34390 0.68650
C3OA C 0.0843(2) -0.2996(3) 0.6209(3)
C4OA C 0.1128(3) -0.2642(3) 0.5955(3)
C5OA C 0.0677(3) -0.3404(3) 0.5958(3)
S1OA S 0.13920(7) -0.21271(9) 0.62352(9)
C6OA C 0.1240(3) -0.2730(3) 0.5459(3)
C7OA C 0.0801(3) -0.3477(3) 0.5468(3)
C8OA C 0.1096(3) -0.3139(3) 0.5206(3)
H3OA H 0.14280 -0.24910 0.52890
H4OA H 0.06840 -0.37620 0.53040
C9OA C 0.1229(4) -0.3234(3) 0.4673(4)
C10OA C 0.1560(7) -0.2854(7) 0.4474(7)
C11OA C 0.0767(6) -0.3186(4) 0.4368(6)
C12OA C 0.1418(6) -0.3739(5) 0.4596(6)
H5OA H 0.14310 -0.25280 0.45540
H6OA H 0.18880 -0.28920 0.46190
H7OA H 0.15830 -0.28900 0.41160
H8OA H 0.06390 -0.28510 0.43960
H9OA H 0.08440 -0.32570 0.40240
H10OA H 0.05200 -0.34190 0.44870
H11OA H 0.11670 -0.39780 0.46950
H12OA H 0.14960 -0.37860 0.42480
H13OA H 0.17150 -0.37880 0.47930
O1BA O -0.0796(4) -0.3873(3) 0.4717(3)
C1BA C -0.0673(4) -0.3558(4) 0.4991(4)
O2BA O -0.0460(4) -0.3146(3) 0.4801(4)
C2BA C -0.0616(5) -0.3641(4) 0.5502(6)
O3BA O -0.0436(2) -0.32440(19) 0.57997(20)
H1BA H -0.03900 -0.39230 0.55440
H2BA H -0.09390 -0.37420 0.56350
C3BA C -0.0496(2) -0.3343(3) 0.6291(3)
C4BA C -0.0142(3) -0.3628(3) 0.6545(3)
C5BA C -0.0904(3) -0.3177(3) 0.6542(3)
S1BA S 0.03729(7) -0.38920(9) 0.62648(9)
C6BA C -0.0230(3) -0.3740(3) 0.7041(3)
C7BA C -0.0977(3) -0.3301(3) 0.7032(3)
C8BA C -0.0639(3) -0.3596(3) 0.7294(3)
H3BA H 0.00090 -0.39280 0.72110
H4BA H -0.12620 -0.31840 0.71960
C9BA C -0.0734(4) -0.3729(3) 0.7827(4)
C10BA C -0.0354(7) -0.4060(7) 0.8026(7)
C11BA C -0.0686(6) -0.3267(4) 0.8132(6)
C12BA C -0.1239(6) -0.3918(5) 0.7904(6)
H5BA H -0.00280 -0.39310 0.79460
H6BA H -0.03920 -0.43880 0.78810
H7BA H -0.03900 -0.40830 0.83840
H8BA H -0.03510 -0.31390 0.81040
H9BA H -0.07570 -0.33440 0.84760
H10BA H -0.09190 -0.30200 0.80130
H11BA H -0.14780 -0.36670 0.78050
H12BA H -0.12860 -0.39960 0.82520
H13BA H -0.12880 -0.42150 0.77070
O1I O 0.0283(4) -0.0796(3) 0.3873(3)
C1I C 0.0009(4) -0.0673(4) 0.3558(4)
O2I O 0.0199(4) -0.0460(3) 0.3146(4)
C2I C -0.0502(5) -0.0616(4) 0.3641(6)
O3I O -0.07997(20) -0.04360(19) 0.3244(2)
H1I H -0.05440 -0.03900 0.39230
H2I H -0.06350 -0.09390 0.37420
C3I C -0.1291(2) -0.0496(3) 0.3343(3)
C4I C -0.1545(3) -0.0142(3) 0.3628(3)
C5I C -0.1542(3) -0.0904(3) 0.3177(3)
S1I S -0.12648(7) 0.03729(9) 0.38920(9)
C6I C -0.2041(3) -0.0230(3) 0.3740(3)
C7I C -0.2032(3) -0.0977(3) 0.3301(3)
C8I C -0.2294(3) -0.0639(3) 0.3596(3)
H3I H -0.22110 0.00090 0.39280
H4I H -0.21960 -0.12620 0.31840
C9I C -0.2827(4) -0.0734(3) 0.3729(4)
C10I C -0.3026(7) -0.0354(7) 0.4060(7)
C11I C -0.3132(6) -0.0686(4) 0.3267(6)
C12I C -0.2904(6) -0.1239(5) 0.3918(6)
H5I H -0.29460 -0.00280 0.39310
H6I H -0.28810 -0.03920 0.43880
H7I H -0.33840 -0.03900 0.40830
H8I H -0.31040 -0.03510 0.31390
H9I H -0.34760 -0.07570 0.33440
H10I H -0.30130 -0.09190 0.30200
H11I H -0.28050 -0.14780 0.36670
H12I H -0.32520 -0.12860 0.39960
H13I H -0.27070 -0.12880 0.42150
O4I O 0.1271(4) -0.0879(5) 0.3319(6)
O1N O -0.2783(4) 0.1373(3) 0.3296(3)
C1N C -0.2509(4) 0.1058(4) 0.3173(4)
O2N O -0.2699(4) 0.0646(3) 0.2960(4)
C2N C -0.1998(5) 0.1141(4) 0.3116(6)
O3N O -0.17003(20) 0.07440(19) 0.2936(2)
H1N H -0.19560 0.14230 0.28900
H2N H -0.18650 0.12420 0.34390
C3N C -0.1209(2) 0.0843(3) 0.2996(3)
C4N C -0.0955(3) 0.1128(3) 0.2642(3)
C5N C -0.0958(3) 0.0677(3) 0.3404(3)
S1N S -0.12352(7) 0.13920(9) 0.21271(9)
C6N C -0.0459(3) 0.1240(3) 0.2730(3)
C7N C -0.0468(3) 0.0801(3) 0.3477(3)
C8N C -0.0206(3) 0.1096(3) 0.3139(3)
H3N H -0.02890 0.14280 0.24910
H4N H -0.03040 0.06840 0.37620
C9N C 0.0327(4) 0.1229(3) 0.3234(4)
C10N C 0.0526(7) 0.1560(7) 0.2854(7)
C11N C 0.0632(6) 0.0767(4) 0.3186(6)
C12N C 0.0404(6) 0.1418(5) 0.3739(6)
H5N H 0.04460 0.14310 0.25280
H6N H 0.03810 0.18880 0.28920
H7N H 0.08840 0.15830 0.28900
H8N H 0.06040 0.06390 0.28510
H9N H 0.09760 0.08440 0.32570
H10N H 0.05130 0.05200 0.34190
H11N H 0.03050 0.11670 0.39780
H12N H 0.07520 0.14960 0.37860
H13N H 0.02070 0.17150 0.37880
O1JA O -0.2783(4) -0.1373(3) 0.1704(3)
C1JA C -0.2509(4) -0.1058(4) 0.1827(4)
O2JA O -0.2699(4) -0.0646(3) 0.2040(4)
C2JA C -0.1998(5) -0.1141(4) 0.1884(6)
O3JA O -0.17003(20) -0.07440(19) 0.2064(2)
H1JA H -0.19560 -0.14230 0.21100
H2JA H -0.18650 -0.12420 0.15610
C3JA C -0.1209(2) -0.0843(3) 0.2004(3)
C4JA C -0.0955(3) -0.1128(3) 0.2358(3)
C5JA C -0.0958(3) -0.0677(3) 0.1596(3)
S1JA S -0.12352(7) -0.13920(9) 0.28729(9)
C6JA C -0.0459(3) -0.1240(3) 0.2270(3)
C7JA C -0.0468(3) -0.0801(3) 0.1523(3)
C8JA C -0.0206(3) -0.1096(3) 0.1861(3)
H3JA H -0.02890 -0.14280 0.25090
H4JA H -0.03040 -0.06840 0.12380
C9JA C 0.0327(4) -0.1229(3) 0.1766(4)
C10JA C 0.0526(7) -0.1560(7) 0.2146(7)
C11JA C 0.0632(6) -0.0767(4) 0.1814(6)
C12JA C 0.0404(6) -0.1418(5) 0.1261(6)
H5JA H 0.04460 -0.14310 0.24720
H6JA H 0.03810 -0.18880 0.21080
H7JA H 0.08840 -0.15830 0.21100
H8JA H 0.06040 -0.06390 0.21490
H9JA H 0.09760 -0.08440 0.17430
H10JA H 0.05130 -0.05200 0.15810
H11JA H 0.03050 -0.11670 0.10220
H12JA H 0.07520 -0.14960 0.12140
H13JA H 0.02070 -0.17150 0.12120
O1IA O 0.0283(4) 0.0796(3) 0.1127(3)
C1IA C 0.0009(4) 0.0673(4) 0.1442(4)
O2IA O 0.0199(4) 0.0460(3) 0.1854(4)
C2IA C -0.0502(5) 0.0616(4) 0.1359(6)
O3IA O -0.07997(20) 0.04360(19) 0.1756(2)
H1IA H -0.05440 0.03900 0.10770
H2IA H -0.06350 0.09390 0.12580
C3IA C -0.1291(2) 0.0496(3) 0.1657(3)
C4IA C -0.1545(3) 0.0142(3) 0.1372(3)
C5IA C -0.1542(3) 0.0904(3) 0.1823(3)
S1IA S -0.12648(7) -0.03729(9) 0.11080(9)
C6IA C -0.2041(3) 0.0230(3) 0.1260(3)
C7IA C -0.2032(3) 0.0977(3) 0.1699(3)
C8IA C -0.2294(3) 0.0639(3) 0.1404(3)
H3IA H -0.22110 -0.00090 0.10720
H4IA H -0.21960 0.12620 0.18160
C9IA C -0.2827(4) 0.0734(3) 0.1271(4)
C10IA C -0.3026(7) 0.0354(7) 0.0940(7)
C11IA C -0.3132(6) 0.0686(4) 0.1733(6)
C12IA C -0.2904(6) 0.1239(5) 0.1082(6)
H5IA H -0.29460 0.00280 0.10690
H6IA H -0.28810 0.03920 0.06120
H7IA H -0.33840 0.03900 0.09170
H8IA H -0.31040 0.03510 0.18610
H9IA H -0.34760 0.07570 0.16560
H10IA H -0.30130 0.09190 0.19800
H11IA H -0.28050 0.14780 0.13330
H12IA H -0.32520 0.12860 0.10040
H13IA H -0.27070 0.12880 0.07850
Co1N Co -0.34832(6) 0.15168(6) 0.34832(6)
O4N O -0.3771(4) 0.0819(5) 0.3379(6)
Co1L Co 0.15168(6) 0.34832(6) 0.65168(6)
O4R O 0.0819(4) 0.3379(5) 0.6229(6)
O4U O 0.1621(4) 0.3771(5) 0.5819(6)
Co1Z Co 0.40168(6) -0.09832(6) 0.59832(6)
O4Z O 0.3319(4) -0.1271(5) 0.5879(6)
O4T O -0.3379(4) 0.1229(5) 0.4181(6)
O4Q O -0.4181(4) 0.1621(5) 0.3771(6)
O4L O 0.1229(4) 0.4181(5) 0.6621(6)
O4CA O 0.4121(4) -0.1681(5) 0.6271(6)
O4FA O 0.3729(4) -0.0879(5) 0.6681(6)
Co1O Co -0.15168(6) -0.15168(6) 0.84832(6)
Co1Y Co -0.09832(6) -0.40168(6) 0.40168(6)
Co1AA Co 0.09832(6) 0.09832(6) 0.09832(6)
Co1JA Co -0.34832(6) -0.15168(6) 0.15168(6)
Co1LA Co 0.15168(6) -0.34832(6) 0.84832(6)
Co1MA Co 0.34832(6) 0.34832(6) 0.34832(6)
O1L O 0.2217(4) 0.3627(3) 0.6704(3)
O1Q O -0.3627(4) 0.1704(3) 0.2783(3)
O1R O 0.1373(4) 0.3296(3) 0.7217(3)
O1T O -0.3296(4) 0.2217(3) 0.3627(3)
O1CA O 0.4204(4) -0.1127(3) 0.5283(3)
O1FA O 0.4717(4) -0.0796(3) 0.6127(3)
#END
