
#######################################################################
#
#                 Cambridge Crystallographic Data Centre
#                                CCDC
#
#######################################################################
#
# If this CIF has been generated from an entry in the Cambridge
# Structural Database, then it will include bibliographic, chemical,
# crystal, experimental, refinement or atomic coordinate data resulting
# from the CCDC's data processing and validation procedures.
#
#######################################################################

data_CSD_CIF_QIVWUP
_audit_creation_date 2014-03-19
_audit_creation_method CSD-ConQuest-V1
_database_code_CSD QIVWUP
_database_code_depnum_ccdc_archive 'CCDC 978883'
_chemical_formula_sum 'C1 H5 Cl2 Fe1 N1 O2'
_chemical_formula_moiety
;
(C1 H1 Cl2 Fe1 O2 1-)n,n(H4 N1 1+)
;
_journal_coden_Cambridge 9
_journal_volume 53
_journal_year 2014
_journal_page_first 3162
_journal_name_full 'Inorg.Chem. '
loop_
_publ_author_name
"J.T.Greenfield"
"S.Kamali"
"N.Izquierdo"
"Michael Chen"
"K.Kovnir"
_chemical_name_systematic
;
catena-(Ammonium bis(\m~2~-chloro)-(\m~2~-formato-O,O')-iron)
;
_cell_volume    578.929
_exptl_crystal_colour 'pale yellow'
_exptl_crystal_density_diffrn 2.178
_exptl_special_details
;
Magnetic properties
Moisture-sensitive

;
_exptl_crystal_description 'needle'
_diffrn_ambient_temperature 90
#These two values have been output from a single CSD field.
_refine_ls_R_factor_gt 0.0153
_refine_ls_wR_factor_gt 0.0153
_symmetry_cell_setting monoclinic
_symmetry_space_group_name_H-M 'C 2/c'
_symmetry_Int_Tables_number 15
loop_
_symmetry_equiv_pos_site_id
_symmetry_equiv_pos_as_xyz
1 x,y,z
2 -x,y,1/2-z
3 1/2+x,1/2+y,z
4 1/2-x,1/2+y,1/2-z
5 -x,-y,-z
6 x,-y,-1/2+z
7 -1/2-x,-1/2-y,-z
8 -1/2+x,-1/2-y,-1/2+z
_cell_length_a 7.8880(14)
_cell_length_b 11.156(2)
_cell_length_c 6.920(2)
_cell_angle_alpha 90
_cell_angle_beta 108.066(2)
_cell_angle_gamma 90
_cell_formula_units_Z 4
loop_
_atom_type_symbol
_atom_type_radius_bond
C 0.68
H 0.23
Cl 0.99
Fe 1.52
N 0.68
O 0.68
loop_
_atom_site_label
_atom_site_type_symbol
_atom_site_fract_x
_atom_site_fract_y
_atom_site_fract_z
Fe1 Fe 0.00000 0.00000 0.00000
Cl1 Cl -0.23046(3) 0.046599(19) 0.16846(3)
O1 O 0.00648(9) -0.17830(6) 0.08952(10)
C1 C 0.00000 -0.22906(12) 0.25000
H1 H 0.00000 -0.314(2) 0.25000
N1 N -0.50000 -0.17066(11) 0.25000
H2 H -0.596(2) -0.1258(18) 0.231(3)
H3 H -0.512(2) -0.2155(16) 0.139(2)
O1A O -0.00648(9) -0.17830(6) 0.41048(10)
Cl1A Cl 0.23046(3) 0.046599(19) 0.33154(3)
Fe1A Fe 0.00000 0.00000 0.50000
Cl1D Cl 0.23046(3) -0.046599(19) -0.16846(3)
Cl1E Cl -0.23046(3) -0.046599(19) -0.33154(3)
O1D O -0.00648(9) 0.17830(6) -0.08952(10)
H2A H -0.404(2) -0.1258(18) 0.269(3)
H3A H -0.488(2) -0.2155(16) 0.361(2)
#END
