
#######################################################################
#
#                 Cambridge Crystallographic Data Centre
#                                CCDC
#
#######################################################################
#
# If this CIF has been generated from an entry in the Cambridge
# Structural Database, then it will include bibliographic, chemical,
# crystal, experimental, refinement or atomic coordinate data resulting
# from the CCDC's data processing and validation procedures.
#
#######################################################################

data_CSD_CIF_QIWGIO
_audit_creation_date 2014-03-19
_audit_creation_method CSD-ConQuest-V1
_database_code_CSD QIWGIO
_database_code_depnum_ccdc_archive 'CCDC 995852'
_chemical_formula_sum 'C36 H36 Mg2 N6 O21 Ru1'
_chemical_formula_moiety
;
(C36 H24 Mg1 N6 O15 Ru1 2-)n,n(H12 Mg1 O6 2+)
;
_journal_coden_Cambridge 9
_journal_volume 53
_journal_year 2014
_journal_page_first 2910
_journal_name_full 'Inorg.Chem. '
loop_
_publ_author_name
"A.Kobayashi"
"T.Ohba"
"E.Saitoh"
"Yui Suzuki"
"S.Noro"
"Ho-Chol Chang"
"M.Kato"
_chemical_name_systematic
;
catena-[hexa-aqua-magnesium 
tris(\m~2~-2,2'-bipyridine-4,4'-dicarboxylato)-triaqua-magnesium-ruthenium]
;
_cell_volume   7078.587
_exptl_crystal_colour 'red'
_exptl_crystal_description 'platelet'
_diffrn_ambient_temperature 150
_diffrn_radiation_probe x-ray
_diffrn_source synchrotron
#These two values have been output from a single CSD field.
_refine_ls_R_factor_gt 0.0509
_refine_ls_wR_factor_gt 0.0509
_symmetry_cell_setting rhombohedral
_symmetry_space_group_name_H-M 'R 3 2'
_symmetry_Int_Tables_number 155
loop_
_symmetry_equiv_pos_site_id
_symmetry_equiv_pos_as_xyz
1 x,y,z
2 -y,x-y,z
3 -x+y,-x,z
4 y,x,-z
5 x-y,-y,-z
6 -x,-x+y,-z
7 2/3+x,1/3+y,1/3+z
8 2/3-y,1/3+x-y,1/3+z
9 2/3-x+y,1/3-x,1/3+z
10 2/3+y,1/3+x,1/3-z
11 2/3+x-y,1/3-y,1/3-z
12 2/3-x,1/3-x+y,1/3-z
13 1/3+x,2/3+y,2/3+z
14 1/3-y,2/3+x-y,2/3+z
15 1/3-x+y,2/3-x,2/3+z
16 1/3+y,2/3+x,2/3-z
17 1/3+x-y,2/3-y,2/3-z
18 1/3-x,2/3-x+y,2/3-z
_cell_length_a 14.190(4)
_cell_length_b 14.190(4)
_cell_length_c 40.593(10)
_cell_angle_alpha 90
_cell_angle_beta 90
_cell_angle_gamma 120
_cell_formula_units_Z 6
loop_
_atom_type_symbol
_atom_type_radius_bond
C 0.68
H 0.23
Mg 1.41
N 0.68
O 0.68
Ru 1.46
loop_
_atom_site_label
_atom_site_type_symbol
_atom_site_fract_x
_atom_site_fract_y
_atom_site_fract_z
Ru1 Ru 0.66670 0.33330 0.022684(8)
Mg1 Mg 1.00000 1.00000 -0.06974(5)
O1 O 0.7407(3) 0.7813(3) -0.07044(7)
O2 O 0.9006(3) 0.8589(3) -0.04362(7)
O3 O 1.1020(3) 0.7900(3) 0.09837(8)
O4 O 1.1584(3) 0.6711(3) 0.10359(14)
O5 O 0.8681(3) 0.9656(3) -0.10179(7)
N1 N 0.7066(3) 0.4737(3) -0.00284(6)
N2 N 0.8013(3) 0.4458(3) 0.04833(6)
C1 C 0.6534(3) 0.4808(3) -0.02935(9)
C2 C 0.6838(3) 0.5786(3) -0.04496(9)
C3 C 0.7722(3) 0.6741(3) -0.03311(8)
C4 C 0.8274(3) 0.6679(3) -0.00559(7)
C5 C 0.7928(3) 0.5669(3) 0.00903(7)
C6 C 0.8478(3) 0.5509(3) 0.03773(7)
C7 C 0.9388(3) 0.6346(3) 0.05295(8)
C8 C 0.9878(3) 0.6099(3) 0.07849(9)
C9 C 0.9409(3) 0.5028(3) 0.08905(9)
C10 C 0.8473(3) 0.4230(4) 0.07374(7)
C11 C 0.8078(3) 0.7807(3) -0.05084(8)
C12 C 1.0904(4) 0.6972(3) 0.09514(11)
H1 H 0.59290 0.41630 -0.03770
H2 H 0.64450 0.58060 -0.06370
H3 H 0.88790 0.73170 0.00310
H4 H 0.96710 0.70770 0.04600
H5 H 0.97270 0.48420 0.10660
H6 H 0.81480 0.35020 0.08150
Mg2 Mg 0.33330 0.9461(3) 0.16670
O6 O 0.3385(4) 0.8480(4) 0.12941(10)
O7 O 0.1680(5) 0.8659(7) 0.16054(11)
O8 O 0.3595(6) 1.0648(6) 0.13117(12)
O1A O 0.2187(3) -0.0406(3) -0.07044(7)
O2A O 0.1411(3) 0.0417(3) -0.04362(7)
O3A O 0.2100(3) 0.3120(3) 0.09837(8)
O4A O 0.3289(3) 0.4873(3) 0.10359(14)
N1A N 0.5263(3) 0.2329(3) -0.00284(6)
N2A N 0.5542(3) 0.3555(3) 0.04833(6)
C1A C 0.5192(3) 0.1726(3) -0.02935(9)
C2A C 0.4214(3) 0.1052(3) -0.04496(9)
C3A C 0.3259(3) 0.0981(3) -0.03311(8)
C4A C 0.3321(3) 0.1595(3) -0.00559(7)
C5A C 0.4331(3) 0.2259(3) 0.00903(7)
C6A C 0.4491(3) 0.2969(3) 0.03773(7)
C7A C 0.3654(3) 0.3042(3) 0.05295(8)
C8A C 0.3901(3) 0.3779(3) 0.07849(9)
C9A C 0.4972(3) 0.4381(3) 0.08905(9)
C10A C 0.5770(3) 0.4243(4) 0.07374(7)
C11A C 0.2193(3) 0.0271(3) -0.05084(8)
C12A C 0.3028(4) 0.3932(3) 0.09514(11)
H1A H 0.58370 0.17660 -0.03770
H2A H 0.41940 0.06390 -0.06370
H3A H 0.26830 0.15620 0.00310
H4A H 0.29230 0.25940 0.04600
H5A H 0.51580 0.48850 0.10660
H6A H 0.64980 0.46460 0.08150
O1B O 1.0406(3) 0.2593(3) -0.07044(7)
O2B O 0.9583(3) 0.0994(3) -0.04362(7)
O3B O 0.6880(3) -0.1020(3) 0.09837(8)
O4B O 0.5127(3) -0.1584(3) 0.10359(14)
N1B N 0.7671(3) 0.2934(3) -0.00284(6)
N2B N 0.6445(3) 0.1987(3) 0.04833(6)
C1B C 0.8274(3) 0.3466(3) -0.02935(9)
C2B C 0.8948(3) 0.3162(3) -0.04496(9)
C3B C 0.9019(3) 0.2278(3) -0.03311(8)
C4B C 0.8405(3) 0.1726(3) -0.00559(7)
C5B C 0.7741(3) 0.2072(3) 0.00903(7)
C6B C 0.7031(3) 0.1522(3) 0.03773(7)
C7B C 0.6958(3) 0.0612(3) 0.05295(8)
C8B C 0.6221(3) 0.0122(3) 0.07849(9)
C9B C 0.5619(3) 0.0591(3) 0.08905(9)
C10B C 0.5757(3) 0.1527(4) 0.07374(7)
C11B C 0.9729(3) 0.1922(3) -0.05084(8)
C12B C 0.6068(4) -0.0904(3) 0.09514(11)
H1B H 0.82340 0.40710 -0.03770
H2B H 0.93610 0.35550 -0.06370
H3B H 0.84380 0.11210 0.00310
H4B H 0.74060 0.03290 0.04600
H5B H 0.51150 0.02730 0.10660
H6B H 0.53540 0.18520 0.08150
O5A O 1.0344(3) 0.9025(3) -0.10179(7)
O5B O 1.0975(3) 1.1319(3) -0.10179(7)
Mg1* Mg 0.00000 0.00000 -0.06974(5)
Mg1** Mg 1.00000 0.00000 -0.06974(5)
O2A* O 1.1411(3) 1.0417(3) -0.04362(7)
O2B* O 0.9583(3) 1.0994(3) -0.04362(7)
O6K O 0.328167(400) 0.842833(400) 0.203923(100)
O7K O 0.498667(500) 1.031233(700) 0.172793(110)
O8K O 0.307167(600) 1.038633(600) 0.202163(120)
#END
