
#######################################################################
#
#                 Cambridge Crystallographic Data Centre
#                                CCDC
#
#######################################################################
#
# If this CIF has been generated from an entry in the Cambridge
# Structural Database, then it will include bibliographic, chemical,
# crystal, experimental, refinement or atomic coordinate data resulting
# from the CCDC's data processing and validation procedures.
#
#######################################################################

data_CSD_CIF_QIXSOG01
_audit_creation_date 2008-09-17
_audit_creation_method CSD-ConQuest-V1
_database_code_CSD QIXSOG01
_database_code_depnum_ccdc_archive 'CCDC 644978'
_chemical_formula_sum 'C56 H32 Cu2 Mn2 N24 S32'
_chemical_formula_moiety
;
(C10 H8 S8 1+)2n,n(C16 Cu2 Mn2 N24 2-),2n(C10 H8 S8)
;
_journal_coden_Cambridge 1145
_journal_volume 17
_journal_year 2007
_journal_page_first 4407
_journal_name_full 'J.Mater.Chem. '
loop_
_publ_author_name
"N.D.Kushch"
"A.V.Kazakova"
"A.D.Dubrovskii"
"G.V.Shilov"
"L.I.Buravov"
"R.B.Morgunov"
"E.V.Kurganova"
"Y.Tanimoto"
"E.B.Yagubskii"
_chemical_name_systematic
;
catena-(octakis(\m~2~-dicyanamide)-di-copper(i)-di-manganese(ii) 
tetrakis(bis(ethylenedithio)tetrathiafulvalene))
;
_cell_volume   4185.107
_exptl_crystal_colour 'black'
_exptl_crystal_density_diffrn 1.828
_exptl_special_details
;
magnetic properties

;
_exptl_crystal_description 'plate'
_diffrn_ambient_temperature 330
_refine_special_details
;
Two C atoms are disordered equally over two sites.

;
#These two values have been output from a single CSD field.
_refine_ls_R_factor_gt 0.0555
_refine_ls_wR_factor_gt 0.0555
_symmetry_cell_setting monoclinic
_symmetry_space_group_name_H-M 'P 21/n'
_symmetry_Int_Tables_number 14
loop_
_symmetry_equiv_pos_site_id
_symmetry_equiv_pos_as_xyz
1 x,y,z
2 1/2-x,1/2+y,1/2-z
3 -x,-y,-z
4 -1/2+x,-1/2-y,-1/2+z
_cell_length_a 31.936(2)
_cell_length_b 10.664(6)
_cell_length_c 12.361(7)
_cell_angle_alpha 90
_cell_angle_beta 96.20(4)
_cell_angle_gamma 90
_cell_formula_units_Z 2
loop_
_atom_type_symbol
_atom_type_radius_bond
C 0.68
H 0.23
Cu 1.52
Mn 1.35
N 0.68
S 1.02
loop_
_atom_site_label
_atom_site_type_symbol
_atom_site_fract_x
_atom_site_fract_y
_atom_site_fract_z
Mn1 Mn 0.24953(3) 0.25010(9) 0.49958(7)
Cu1 Cu -0.00435(3) 0.25738(11) 0.28498(10)
C1 C 0.0745(2) 0.2546(7) 0.4345(6)
C2 C 0.1451(3) 0.2451(6) 0.4847(5)
C3 C 0.3526(3) 0.2520(7) 0.5384(6)
C4 C 0.4201(3) 0.2397(9) 0.6267(7)
C5 C 0.2553(2) -0.0439(8) 0.4109(5)
C6 C 0.2505(2) 0.5440(7) 0.5905(5)
C7 C 0.2527(2) 0.6713(6) 0.7383(6)
C8 C 0.2518(2) -0.1730(6) 0.2652(6)
N1 N 0.0431(2) 0.2541(6) 0.3800(5)
N2 N 0.10618(19) 0.2558(7) 0.5034(5)
N3 N 0.1804(2) 0.2352(6) 0.4799(5)
N4 N 0.3180(2) 0.2615(6) 0.5216(5)
N5 N 0.3926(3) 0.2377(13) 0.5433(7)
N6 N 0.4486(2) 0.2402(7) 0.6900(6)
N7 N 0.2505(3) -0.1571(6) 0.3690(5)
N8 N 0.2562(2) 0.0476(6) 0.4554(5)
N9 N 0.2461(2) 0.4515(6) 0.5440(5)
N10 N 0.2563(3) 0.6537(6) 0.6352(5)
N11 N 0.2511(2) 0.6998(6) 0.8256(5)
N12 N 0.2512(2) -0.2006(6) 0.1752(5)
S1 S 0.03619(6) 0.0046(2) 0.16000(14)
S2 S 0.05821(6) 0.0622(2) -0.05891(14)
S3 S 0.12002(6) 0.05636(19) 0.27048(14)
S4 S 0.14679(7) 0.1200(3) 0.01245(18)
C9 C 0.0198(2) 0.0145(6) 0.0212(5)
C10 C 0.0875(2) 0.0542(6) 0.1493(5)
C11 C 0.0975(2) 0.0780(6) 0.0502(5)
C12 C 0.1672(5) 0.019(2) 0.216(2)
H1 H 0.18950 0.01150 0.27520
H2 H 0.16390 -0.06220 0.18080
C13 C 0.1814(6) 0.1109(19) 0.1345(13)
H3 H 0.20910 0.08660 0.11680
H4 H 0.18380 0.19340 0.16770
C14? C 0.1789(7) 0.0467(17) 0.1212(12)
H5? H 0.17480 -0.04330 0.11530
H6? H 0.20810 0.06370 0.11220
C15? C 0.1708(5) 0.087(3) 0.2339(17)
H7? H 0.17610 0.17610 0.24070
H8? H 0.19110 0.04480 0.28590
S5 S 0.04286(6) 0.0458(2) 0.64228(14)
S6 S 0.05375(6) -0.09598(18) 0.44776(14)
S7 S 0.13075(7) 0.0251(3) 0.73760(16)
S8 S 0.14381(7) -0.1452(2) 0.50267(16)
C16 C 0.0202(2) -0.0106(7) 0.5193(5)
C17 C 0.0929(2) -0.0085(8) 0.6300(5)
C18 C 0.0985(2) -0.0769(7) 0.5393(5)
C19 C 0.1682(3) -0.0953(8) 0.7183(6)
H9 H 0.19240 -0.08510 0.77210
H10 H 0.15560 -0.17610 0.73060
C20 C 0.1826(2) -0.0947(8) 0.6088(6)
H11 H 0.20710 -0.14890 0.60950
H12 H 0.19150 -0.01040 0.59250
S9 S 0.01674(8) -0.5914(2) 0.65600(19)
S10 S 0.06330(8) -0.4219(2) 0.5267(2)
S11 S 0.08797(10) -0.6494(3) 0.8165(2)
S12 S 0.14360(8) -0.4456(3) 0.6641(2)
C21 C 0.0169(2) -0.5029(7) 0.5375(6)
C22 C 0.0694(3) -0.5649(7) 0.7001(6)
C23 C 0.0909(2) -0.4895(7) 0.6427(6)
C24 C 0.1391(5) -0.5899(15) 0.8449(12)
H13 H 0.13690 -0.51180 0.88400
H14 H 0.15450 -0.64800 0.89490
C25 C 0.1653(4) -0.5653(11) 0.7575(10)
H15 H 0.16850 -0.64230 0.71740
H16 H 0.19310 -0.53940 0.78910
S13 S 0.04984(7) 0.39081(18) 0.08846(17)
S14 S 0.02964(6) 0.65548(17) 0.09146(15)
S15 S 0.12778(8) 0.4074(2) 0.2351(2)
S16 S 0.10382(7) 0.72722(18) 0.24061(17)
C26 C 0.0170(2) 0.5096(6) 0.0383(5)
C27 C 0.0851(2) 0.4848(6) 0.1690(6)
C28 C 0.0749(2) 0.6089(7) 0.1703(6)
C29 C 0.1526(3) 0.5296(9) 0.3200(9)
H17 H 0.13770 0.53820 0.38390
H18 H 0.18120 0.50390 0.34450
C30 C 0.1541(3) 0.6527(8) 0.2675(8)
H19 H 0.16620 0.64270 0.19940
H20 H 0.17260 0.70710 0.31380
Mn1A Mn 0.25047(3) 0.75010(9) 0.00042(7)
Mn1A* Mn 0.25047(3) 0.75010(9) 1.00042(7)
Mn1A** Mn 0.25047(3) -0.24990(9) 0.00042(7)
Mn1A*** Mn 0.25047(3) -0.24990(9) 1.00042(7)
Mn1C Mn -0.25047(3) 0.24990(9) -0.00042(7)
Cu1C Cu 0.49565(3) 0.24262(11) 0.78498(10)
Cu1A Cu 0.50435(3) 0.75738(11) 0.21502(10)
C1A C 0.4255(2) 0.7546(7) 0.0655(6)
C2A C 0.3549(3) 0.7451(6) 0.0153(5)
C3C C -0.1474(3) 0.2480(7) 0.0384(6)
C4C C -0.0799(3) 0.2603(9) 0.1267(7)
C5A C 0.2447(2) 0.4561(8) 0.0891(5)
C6A C 0.2495(2) 0.0440(7) 0.9095(5)
C7A C 0.2473(2) 0.1713(6) 0.7617(6)
C8A C 0.2482(2) 0.3270(6) 0.2348(6)
N1A N 0.4569(2) 0.7541(6) 0.1200(5)
N1C N 0.5431(2) 0.2459(6) 0.8800(5)
N2A N 0.39382(19) 0.7558(7) -0.0034(5)
N3A N 0.3196(2) 0.7352(6) 0.0201(5)
N4C N -0.1820(2) 0.2385(6) 0.0216(5)
N4A N 0.1820(2) 0.7615(6) -0.0216(5)
N5C N -0.1074(3) 0.2623(13) 0.0433(7)
N6C N -0.0514(2) 0.2598(7) 0.1900(6)
N7A N 0.2495(3) 0.3429(6) 0.1310(5)
N8A N 0.2438(2) 0.5476(6) 0.0446(5)
N9A N 0.2539(2) -0.0485(6) 0.9560(5)
N9A* N 0.2539(2) 0.9515(6) -0.0440(5)
N10A N 0.2437(3) 0.1537(6) 0.8648(5)
N11A N 0.2489(2) 0.1998(6) 0.6744(5)
N11* N 0.2511(2) 0.6998(6) -0.1744(5)
N12A N 0.2488(2) 0.2994(6) 0.3248(5)
N12* N 0.2512(2) 0.7994(6) 0.1752(5)
S1B S -0.03619(6) -0.0046(2) -0.16000(14)
S2B S -0.05821(6) -0.0622(2) 0.05891(14)
S3B S -0.12002(6) -0.05636(19) -0.27048(14)
S4B S -0.14679(7) -0.1200(3) -0.01245(18)
C9B C -0.0198(2) -0.0145(6) -0.0212(5)
C10B C -0.0875(2) -0.0542(6) -0.1493(5)
C11B C -0.0975(2) -0.0780(6) -0.0502(5)
C12B C -0.1672(5) -0.019(2) -0.216(2)
H1B H -0.18950 -0.01150 -0.27520
H2B H -0.16390 0.06220 -0.18080
C13B C -0.1814(6) -0.1109(19) -0.1345(13)
H3B H -0.20910 -0.08660 -0.11680
H4B H -0.18380 -0.19340 -0.16770
S5B S -0.04286(6) -0.0458(2) 0.35772(14)
S6B S -0.05375(6) 0.09598(18) 0.55224(14)
S7B S -0.13075(7) -0.0251(3) 0.26240(16)
S8B S -0.14381(7) 0.1452(2) 0.49733(16)
C16B C -0.0202(2) 0.0106(7) 0.4807(5)
C17B C -0.0929(2) 0.0085(8) 0.3700(5)
C18B C -0.0985(2) 0.0769(7) 0.4607(5)
C19B C -0.1682(3) 0.0953(8) 0.2817(6)
H9B H -0.19240 0.08510 0.22790
H10B H -0.15560 0.17610 0.26940
C20B C -0.1826(2) 0.0947(8) 0.3912(6)
H11B H -0.20710 0.14890 0.39050
H12B H -0.19150 0.01040 0.40750
S9B S -0.01674(8) -0.4086(2) 0.34400(19)
S10B S -0.06330(8) -0.5781(2) 0.4733(2)
S11B S -0.08797(10) -0.3506(3) 0.1835(2)
S12B S -0.14360(8) -0.5544(3) 0.3359(2)
C21B C -0.0169(2) -0.4971(7) 0.4625(6)
C22B C -0.0694(3) -0.4351(7) 0.2999(6)
C23B C -0.0909(2) -0.5105(7) 0.3573(6)
C24B C -0.1391(5) -0.4101(15) 0.1551(12)
H13B H -0.13690 -0.48820 0.11600
H14B H -0.15450 -0.35200 0.10510
C25B C -0.1653(4) -0.4347(11) 0.2425(10)
H15B H -0.16850 -0.35770 0.28260
H16B H -0.19310 -0.46060 0.21090
S13B S -0.04984(7) 0.60919(18) -0.08846(17)
S14B S -0.02964(6) 0.34452(17) -0.09146(15)
S15B S -0.12778(8) 0.5926(2) -0.2351(2)
S16B S -0.10382(7) 0.27278(18) -0.24061(17)
C26B C -0.0170(2) 0.4904(6) -0.0383(5)
C27B C -0.0851(2) 0.5152(6) -0.1690(6)
C28B C -0.0749(2) 0.3911(7) -0.1703(6)
C29B C -0.1526(3) 0.4704(9) -0.3200(9)
H17B H -0.13770 0.46180 -0.38390
H18B H -0.18120 0.49610 -0.34450
C30B C -0.1541(3) 0.3473(8) -0.2675(8)
H19B H -0.16620 0.35730 -0.19940
H20B H -0.17260 0.29290 -0.31380
#END
