
#######################################################################
#
#                 Cambridge Crystallographic Data Centre
#                                CCDC
#
#######################################################################
#
# If this CIF has been generated from an entry in the Cambridge
# Structural Database, then it will include bibliographic, chemical,
# crystal, experimental, refinement or atomic coordinate data resulting
# from the CCDC's data processing and validation procedures.
#
#######################################################################

data_CSD_CIF_QIXSOG
_audit_creation_date 2008-09-17
_audit_creation_method CSD-ConQuest-V1
_database_code_CSD QIXSOG
_database_code_depnum_ccdc_archive 'CCDC 644977'
_chemical_formula_sum 'C56 H32 Cu2 Mn2 N24 S32'
_chemical_formula_moiety
;
(C10 H8 S8 1+)2n,n(C16 Cu2 Mn2 N24 2-),2n(C10 H8 S8)
;
_journal_coden_Cambridge 1145
_journal_volume 17
_journal_year 2007
_journal_page_first 4407
_journal_name_full 'J.Mater.Chem. '
loop_
_publ_author_name
"N.D.Kushch"
"A.V.Kazakova"
"A.D.Dubrovskii"
"G.V.Shilov"
"L.I.Buravov"
"R.B.Morgunov"
"E.V.Kurganova"
"Y.Tanimoto"
"E.B.Yagubskii"
_chemical_name_systematic
;
catena-(octakis(\m~2~-dicyanamide)-di-copper(i)-di-manganese(ii) 
tetrakis(bis(ethylenedithio)tetrathiafulvalene))
;
_cell_volume   4179.773
_exptl_crystal_colour 'black'
_exptl_crystal_density_diffrn 1.831
_exptl_special_details
;
magnetic properties

;
_exptl_crystal_description 'plate'
_diffrn_ambient_temperature 291
_refine_special_details
;
Two C atoms are disordered equally over two sites.

;
#These two values have been output from a single CSD field.
_refine_ls_R_factor_gt 0.0628
_refine_ls_wR_factor_gt 0.0628
_symmetry_cell_setting monoclinic
_symmetry_space_group_name_H-M 'P 21/n'
_symmetry_Int_Tables_number 14
loop_
_symmetry_equiv_pos_site_id
_symmetry_equiv_pos_as_xyz
1 x,y,z
2 1/2-x,1/2+y,1/2-z
3 -x,-y,-z
4 -1/2+x,-1/2-y,-1/2+z
_cell_length_a 31.951(2)
_cell_length_b 10.636(6)
_cell_length_c 12.368(7)
_cell_angle_alpha 90
_cell_angle_beta 96.03(4)
_cell_angle_gamma 90
_cell_formula_units_Z 2
loop_
_atom_type_symbol
_atom_type_radius_bond
C 0.68
H 0.23
Cu 1.52
Mn 1.35
N 0.68
S 1.02
loop_
_atom_site_label
_atom_site_type_symbol
_atom_site_fract_x
_atom_site_fract_y
_atom_site_fract_z
Mn1 Mn 0.24958(3) 0.24825(8) 0.49941(7)
Cu1 Cu -0.00423(3) 0.25709(11) 0.28561(9)
C1 C 0.0745(2) 0.2547(6) 0.4349(5)
C2 C 0.1449(2) 0.2439(6) 0.4852(5)
C3 C 0.3532(2) 0.2509(7) 0.5381(5)
C4 C 0.4205(2) 0.2384(9) 0.6261(7)
C5 C 0.2546(2) -0.0479(7) 0.4125(5)
C6 C 0.2498(2) 0.5431(7) 0.5902(5)
C7 C 0.2532(2) 0.6695(6) 0.7376(5)
C8 C 0.2514(2) -0.1764(6) 0.2662(5)
N1 N 0.04354(18) 0.2541(6) 0.3809(5)
N2 N 0.1064(2) 0.2580(7) 0.5052(5)
N3 N 0.18078(18) 0.2328(6) 0.4802(5)
N4 N 0.3183(2) 0.2607(7) 0.5209(5)
N5 N 0.3929(3) 0.2371(14) 0.5422(7)
N6 N 0.4484(2) 0.2403(7) 0.6898(6)
N7 N 0.2506(3) -0.1623(6) 0.3697(5)
N8 N 0.2566(2) 0.0441(6) 0.4556(5)
N9 N 0.2458(2) 0.4511(6) 0.5425(5)
N10 N 0.2570(3) 0.6528(6) 0.6345(5)
N11 N 0.25084(19) 0.6986(6) 0.8254(5)
N12 N 0.2510(2) -0.2030(6) 0.1762(5)
S1 S 0.03603(5) 0.00499(19) 0.16040(12)
S2 S 0.05833(6) 0.0596(2) -0.05865(13)
S3 S 0.11984(5) 0.05521(17) 0.27145(12)
S4 S 0.14701(6) 0.1168(2) 0.01265(16)
C9 C 0.01979(19) 0.0134(6) 0.0210(5)
C10 C 0.08746(18) 0.0514(5) 0.1494(5)
C11 C 0.0978(2) 0.0762(6) 0.0489(5)
C12 C 0.1682(5) 0.0208(16) 0.2202(15)
H1 H 0.19010 0.02040 0.28090
H2 H 0.16650 -0.06370 0.19050
C13 C 0.1820(5) 0.1085(19) 0.1334(12)
H3 H 0.20930 0.08110 0.11470
H4 H 0.18540 0.19240 0.16390
C14? C 0.1781(6) 0.0438(16) 0.1222(11)
H5? H 0.17280 -0.04600 0.11930
H6? H 0.20760 0.05650 0.11280
C15? C 0.1701(4) 0.0919(18) 0.2333(12)
H7? H 0.17350 0.18250 0.23440
H8? H 0.19130 0.05690 0.28690
S5 S 0.04276(6) 0.0471(2) 0.64237(13)
S6 S 0.05373(5) -0.09791(17) 0.44816(13)
S7 S 0.13070(6) 0.0269(2) 0.73742(15)
S8 S 0.14373(6) -0.1475(2) 0.50330(15)
C16 C 0.0202(2) -0.0110(6) 0.5191(5)
C17 C 0.0930(2) -0.0065(7) 0.6298(5)
C18 C 0.0985(2) -0.0774(6) 0.5388(5)
C19 C 0.1682(2) -0.0963(7) 0.7198(6)
H9 H 0.19230 -0.08650 0.77390
H10 H 0.15540 -0.17700 0.73190
C20 C 0.1830(2) -0.0953(8) 0.6093(6)
H11 H 0.20750 -0.14910 0.60980
H12 H 0.19150 -0.01060 0.59280
S9 S 0.01657(8) -0.5912(2) 0.65635(18)
S10 S 0.06351(7) -0.4236(2) 0.52603(19)
S11 S 0.08766(9) -0.6482(3) 0.8183(2)
S12 S 0.14380(8) -0.4466(2) 0.6637(2)
C21 C 0.0170(2) -0.5032(7) 0.5375(6)
C22 C 0.0687(3) -0.5630(7) 0.7008(6)
C23 C 0.0909(2) -0.4897(6) 0.6427(6)
C24 C 0.1389(4) -0.5885(14) 0.8469(11)
H13 H 0.13690 -0.50870 0.88400
H14 H 0.15430 -0.64550 0.89790
C25 C 0.1639(3) -0.5688(11) 0.7579(10)
H15 H 0.16540 -0.64710 0.71820
H16 H 0.19230 -0.54680 0.78720
S13 S 0.04934(7) 0.38960(16) 0.08987(16)
S14 S 0.02944(6) 0.65562(15) 0.09241(15)
S15 S 0.12762(8) 0.40607(19) 0.2350(2)
S16 S 0.10378(7) 0.72678(16) 0.24067(16)
C26 C 0.0167(2) 0.5091(6) 0.0383(5)
C27 C 0.0843(2) 0.4849(6) 0.1702(6)
C28 C 0.0748(2) 0.6086(6) 0.1709(5)
C29 C 0.1523(3) 0.5288(9) 0.3204(8)
H17 H 0.13690 0.53850 0.38340
H18 H 0.18070 0.50230 0.34620
C30 C 0.1546(3) 0.6521(8) 0.2671(8)
H19 H 0.16660 0.64120 0.19890
H20 H 0.17320 0.70660 0.31290
Mn1A Mn 0.25042(3) 0.74825(8) 0.00059(7)
Mn1A* Mn 0.25042(3) 0.74825(8) 1.00059(7)
Mn1A** Mn 0.25042(3) -0.25175(8) 0.00059(7)
Mn1A*** Mn 0.25042(3) -0.25175(8) 1.00059(7)
Mn1C Mn -0.25042(3) 0.25175(8) -0.00059(7)
Cu1C Cu 0.49577(3) 0.24291(11) 0.78561(9)
Cu1A Cu 0.50423(3) 0.75709(11) 0.21439(9)
C1A C 0.4255(2) 0.7547(6) 0.0651(5)
C2A C 0.3551(2) 0.7439(6) 0.0148(5)
C3C C -0.1468(2) 0.2491(7) 0.0381(5)
C4C C -0.0795(2) 0.2616(9) 0.1261(7)
C5A C 0.2454(2) 0.4521(7) 0.0875(5)
C6A C 0.2502(2) 0.0431(7) 0.9098(5)
C7A C 0.2468(2) 0.1695(6) 0.7624(5)
C8A C 0.2486(2) 0.3236(6) 0.2338(5)
N1A N 0.45646(18) 0.7541(6) 0.1191(5)
N1C N 0.54354(18) 0.2459(6) 0.8809(5)
N2A N 0.3936(2) 0.7580(7) -0.0052(5)
N3A N 0.31922(18) 0.7328(6) 0.0198(5)
N4C N -0.1817(2) 0.2393(7) 0.0209(5)
N4A N 0.1817(2) 0.7607(7) -0.0209(5)
N5C N -0.1071(3) 0.2629(14) 0.0422(7)
N6C N -0.0516(2) 0.2597(7) 0.1898(6)
N7A N 0.2494(3) 0.3377(6) 0.1303(5)
N8A N 0.2434(2) 0.5441(6) 0.0444(5)
N9A N 0.2542(2) -0.0489(6) 0.9575(5)
N9A* N 0.2542(2) 0.9511(6) -0.0425(5)
N10A N 0.2430(3) 0.1528(6) 0.8655(5)
N11A N 0.24916(19) 0.1986(6) 0.6746(5)
N11* N 0.25084(19) 0.6986(6) -0.1746(5)
N12A N 0.2490(2) 0.2970(6) 0.3238(5)
N12* N 0.2510(2) 0.7970(6) 0.1762(5)
S1B S -0.03603(5) -0.00499(19) -0.16040(12)
S2B S -0.05833(6) -0.0596(2) 0.05865(13)
S3B S -0.11984(5) -0.05521(17) -0.27145(12)
S4B S -0.14701(6) -0.1168(2) -0.01265(16)
C9B C -0.01979(19) -0.0134(6) -0.0210(5)
C10B C -0.08746(18) -0.0514(5) -0.1494(5)
C11B C -0.0978(2) -0.0762(6) -0.0489(5)
C12B C -0.1682(5) -0.0208(16) -0.2202(15)
H1B H -0.19010 -0.02040 -0.28090
H2B H -0.16650 0.06370 -0.19050
C13B C -0.1820(5) -0.1085(19) -0.1334(12)
H3B H -0.20930 -0.08110 -0.11470
H4B H -0.18540 -0.19240 -0.16390
S5B S -0.04276(6) -0.0471(2) 0.35763(13)
S6B S -0.05373(5) 0.09791(17) 0.55184(13)
S7B S -0.13070(6) -0.0269(2) 0.26258(15)
S8B S -0.14373(6) 0.1475(2) 0.49670(15)
C16B C -0.0202(2) 0.0110(6) 0.4809(5)
C17B C -0.0930(2) 0.0065(7) 0.3702(5)
C18B C -0.0985(2) 0.0774(6) 0.4612(5)
C19B C -0.1682(2) 0.0963(7) 0.2802(6)
H9B H -0.19230 0.08650 0.22610
H10B H -0.15540 0.17700 0.26810
C20B C -0.1830(2) 0.0953(8) 0.3907(6)
H11B H -0.20750 0.14910 0.39020
H12B H -0.19150 0.01060 0.40720
S9B S -0.01657(8) -0.4088(2) 0.34365(18)
S10B S -0.06351(7) -0.5764(2) 0.47397(19)
S11B S -0.08766(9) -0.3518(3) 0.1817(2)
S12B S -0.14380(8) -0.5534(2) 0.3363(2)
C21B C -0.0170(2) -0.4968(7) 0.4625(6)
C22B C -0.0687(3) -0.4370(7) 0.2992(6)
C23B C -0.0909(2) -0.5103(6) 0.3573(6)
C24B C -0.1389(4) -0.4115(14) 0.1531(11)
H13B H -0.13690 -0.49130 0.11600
H14B H -0.15430 -0.35450 0.10210
C25B C -0.1639(3) -0.4312(11) 0.2421(10)
H15B H -0.16540 -0.35290 0.28180
H16B H -0.19230 -0.45320 0.21280
S13B S -0.04934(7) 0.61040(16) -0.08987(16)
S14B S -0.02944(6) 0.34438(15) -0.09241(15)
S15B S -0.12762(8) 0.59393(19) -0.2350(2)
S16B S -0.10378(7) 0.27322(16) -0.24067(16)
C26B C -0.0167(2) 0.4909(6) -0.0383(5)
C27B C -0.0843(2) 0.5151(6) -0.1702(6)
C28B C -0.0748(2) 0.3914(6) -0.1709(5)
C29B C -0.1523(3) 0.4712(9) -0.3204(8)
H17B H -0.13690 0.46150 -0.38340
H18B H -0.18070 0.49770 -0.34620
C30B C -0.1546(3) 0.3479(8) -0.2671(8)
H19B H -0.16660 0.35880 -0.19890
H20B H -0.17320 0.29340 -0.31290
#END
