
#######################################################################
#
#                 Cambridge Crystallographic Data Centre
#                                CCDC
#
#######################################################################
#
# If this CIF has been generated from an entry in the Cambridge
# Structural Database, then it will include bibliographic, chemical,
# crystal, experimental, refinement or atomic coordinate data resulting
# from the CCDC's data processing and validation procedures.
#
#######################################################################

data_CSD_CIF_QIYJAK
_audit_creation_date 2008-09-17
_audit_creation_method CSD-ConQuest-V1
_database_code_CSD QIYJAK
_database_code_depnum_ccdc_archive 'CCDC 283712'
_chemical_formula_sum 'C12 H102 Bi2 Co3 N6 Na12 O108 W18'
_chemical_formula_moiety
;
(C12 H96 Bi2 Co3 N6 Na11 O105 W18 1-)n,n(Na1 1+),3n(H2 O1)
;
_journal_coden_Cambridge 119
_journal_volume 878
_journal_year 2008
_journal_page_first 124
_journal_name_full 'J.Mol.Struct. '
loop_
_publ_author_name
"Hong Liu"
"Lin Xu"
"Guanggang Gao"
"Fengyan Li"
"Ning Jiang"
_chemical_name_systematic
;
catena-(Sodium 
dodecakis(\m~2~-aqua)-heptacosa-aqua-tris(1-methylimidazole)-bis(tungsto(vi)bi
smuthato)-tri-cobalt(ii)-undeca-sodium trihydrate)
;
_cell_volume   5994.827
_exptl_crystal_colour 'blue'
_exptl_special_details
;
magnetic properties
The paper states that three sodium cations are bonded to some terminal and 
bridging oxo atoms from the complex tungstobismuthate anion and water 
molecules, when bonds to these sodium ions are included the structure becomes 
polymeric
;
_exptl_crystal_description 'block'
_diffrn_ambient_temperature 293
#These two values have been output from a single CSD field.
_refine_ls_R_factor_gt 0.0532
_refine_ls_wR_factor_gt 0.0532
_symmetry_cell_setting triclinic
_symmetry_space_group_name_H-M 'P -1'
_symmetry_Int_Tables_number 2
loop_
_symmetry_equiv_pos_site_id
_symmetry_equiv_pos_as_xyz
1 x,y,z
2 -x,-y,-z
_cell_length_a 13.585(3)
_cell_length_b 19.039(4)
_cell_length_c 24.923(5)
_cell_angle_alpha 75.743(3)
_cell_angle_beta 85.682(4)
_cell_angle_gamma 73.648(3)
_cell_formula_units_Z 2
loop_
_atom_type_symbol
_atom_type_radius_bond
C 0.68
H 0.23
Bi 1.55
Co 1.33
N 0.68
Na 1.44
O 0.81
W 1.30
loop_
_atom_site_label
_atom_site_type_symbol
_atom_site_fract_x
_atom_site_fract_y
_atom_site_fract_z
Bi1 Bi 0.43352(4) 0.91124(3) 0.26360(2)
Bi2 Bi 0.46751(4) 0.67863(3) 0.22648(2)
W1 W 0.69607(4) 0.91465(3) 0.27091(3)
W2 W 0.33796(4) 0.72859(3) 0.09634(3)
W3 W 0.74145(4) 0.60403(3) 0.22077(3)
W4 W 0.57665(4) 0.86171(3) 0.38892(3)
W5 W 0.54697(4) 1.00697(3) 0.14346(3)
W6 W 0.29327(4) 0.89696(3) 0.39173(3)
W7 W 0.62267(5) 0.55256(3) 0.33934(3)
W8 W 0.15995(4) 0.98171(3) 0.27610(3)
W9 W 0.29367(4) 1.03855(3) 0.14564(3)
W10 W 0.59150(4) 0.69727(3) 0.09314(3)
W11 W 0.48856(4) 0.55277(3) 0.11225(3)
W12 W 0.34113(5) 0.58730(3) 0.34300(3)
W13 W 0.40144(5) 1.13805(3) 0.20523(3)
W14 W 0.26649(4) 1.08032(3) 0.33688(3)
W15 W 0.20552(4) 0.67073(3) 0.22759(3)
W16 W 0.55140(4) 1.04514(3) 0.33414(3)
W17 W 0.63930(5) 0.45874(3) 0.24123(3)
W18 W 0.35623(5) 0.49404(3) 0.24465(3)
Co1 Co 0.64902(14) 0.80521(10) 0.18135(9)
Co2 Co 0.24522(14) 0.85560(11) 0.18492(9)
Co3 Co 0.45857(15) 0.72224(11) 0.36941(9)
Na1 Na 0.2037(5) 0.7815(4) 0.3238(3)
Na2 Na 0.7081(5) 0.7179(4) 0.3175(3)
Na3 Na 0.4391(5) 0.8857(3) 0.0883(3)
Na4 Na 0.4096(5) 0.9964(4) 0.4558(3)
Na5 Na 0.3914(6) 1.3197(4) 0.1030(4)
Na6 Na 0.6706(6) 1.2615(4) 0.1068(4)
Na7 Na 1.0602(11) 0.3973(8) 0.3116(8)
Na8 Na 0.1276(14) 1.3527(11) 0.1086(10)
Na9 Na 0.8276(18) 1.3675(14) 0.0601(12)
Na10 Na 0.1283(18) 0.9859(14) 0.5668(13)
Na11 Na 0.855(3) 0.268(2) 0.296(2)
Na12 Na 0.0117(19) 1.1596(14) 0.1006(13)
O1 O 0.8249(7) 0.8979(7) 0.2580(5)
O2 O 0.6617(9) 0.8402(6) 0.2508(5)
O3 O 0.3687(7) 0.6091(5) 0.2521(5)
O4 O 0.2530(7) 0.6830(5) 0.1520(5)
O5 O 0.3382(7) 0.7950(6) 0.1351(5)
O6 O 0.2499(8) 0.7780(6) 0.0439(5)
O7 O 0.6811(8) 0.6980(6) 0.2267(5)
O8 O 0.8688(8) 0.6027(6) 0.2089(6)
O9 O 0.5511(7) 0.7917(6) 0.3588(5)
O10 O 0.6240(8) 0.8122(6) 0.4540(5)
O11 O 0.5519(7) 0.9088(5) 0.1557(5)
O12 O 0.3409(8) 0.8187(6) 0.3605(5)
O13 O 0.1635(7) 0.9258(6) 0.3553(5)
O14 O 0.2537(9) 0.8589(7) 0.4573(5)
O15 O 0.5711(7) 0.6512(6) 0.3348(5)
O16 O 0.4870(8) 0.5390(5) 0.3518(5)
O17 O 0.6715(9) 0.5157(7) 0.4044(5)
O18 O 0.2167(8) 0.8953(5) 0.2560(5)
O19 O 0.3186(7) 0.9373(5) 0.1587(5)
O20 O 0.2056(8) 1.0732(6) 0.0911(5)
O21 O 0.5695(7) 0.7682(6) 0.1322(5)
O22 O 0.6728(8) 0.7241(6) 0.0390(5)
O23 O 0.4998(8) 0.4877(6) 0.0723(5)
O24 O 0.3964(7) 0.5233(6) 0.1689(5)
O25 O 0.5925(7) 0.4982(5) 0.1660(5)
O26 O 0.3637(8) 0.6782(6) 0.3380(5)
O27 O 0.2061(7) 0.6335(6) 0.3085(5)
O28 O 0.5020(8) 1.1015(6) 0.2637(4)
O29 O 0.3867(8) 1.2331(5) 0.1932(5)
O30 O 0.3054(7) 1.1261(5) 0.2655(4)
O31 O 0.2141(8) 1.1599(6) 0.3630(5)
O32 O 0.2412(8) 0.7544(6) 0.2323(5)
O33 O 0.0756(8) 0.6982(7) 0.2189(5)
O34 O 0.2258(7) 0.5627(6) 0.2259(5)
O35 O 0.5814(8) 1.1123(6) 0.3605(6)
O36 O 0.4081(7) 1.0602(5) 0.3549(4)
O37 O 0.4992(8) 0.4576(6) 0.2584(5)
O38 O 0.6953(9) 0.3658(6) 0.2408(6)
O39 O 0.3331(8) 0.4953(5) 0.3197(5)
O40 O 0.5893(6) 0.5804(5) 0.2494(4)
O41 O 0.4320(7) 0.8933(6) 0.4082(4)
O42 O 0.6783(7) 1.0045(6) 0.3023(4)
O43 O 0.4730(7) 0.6526(5) 0.1491(4)
O44 O 0.1996(7) 1.0397(5) 0.2094(5)
O45 O 0.6614(8) 0.4532(5) 0.3156(5)
O46 O 0.5060(7) 1.1141(5) 0.1537(5)
O47 O 0.5836(7) 0.6018(5) 0.0728(5)
O48 O 0.3010(8) 1.1384(6) 0.1557(5)
O49 O 0.4615(6) 0.7444(5) 0.0547(4)
O50 O 0.5804(8) 0.9627(6) 0.3985(4)
O51 O 0.5377(6) 0.9411(5) 0.3071(4)
O52 O 0.7558(7) 0.4965(5) 0.2199(5)
O53 O 0.4208(6) 1.0147(5) 0.2067(4)
O54 O 0.4189(7) 1.0383(6) 0.1019(4)
O55 O 0.3771(7) 0.6297(5) 0.0743(4)
O56 O 0.6917(7) 0.6296(5) 0.1471(5)
O57 O 0.2579(7) 1.0038(5) 0.4012(4)
O58 O 0.6397(7) 0.9855(5) 0.2027(4)
O59 O 0.2982(9) 0.5623(6) 0.4094(5)
O60 O 0.1473(7) 1.0710(5) 0.3091(5)
O61 O 0.7495(8) 0.5673(6) 0.3025(5)
O62 O 0.3135(6) 0.9686(5) 0.3094(4)
O63 O 0.3283(8) 0.4113(6) 0.2444(6)
O64 O 0.6245(8) 1.0221(7) 0.0874(5)
O65 O 0.7055(8) 0.8582(6) 0.3495(5)
O66 O 0.0303(7) 0.9989(7) 0.2669(6)
O67 O 0.0224(16) 0.8146(12) 0.3098(11)
O68 O 0.159(2) 0.7315(17) 0.4177(15)
O69 O 0.779(2) 0.6557(17) 0.4107(15)
O70 O 0.8887(16) 0.7036(12) 0.2955(10)
O71 O 0.5523(13) 0.8957(10) 0.0105(9)
O72 O 0.3053(15) 0.9487(12) 0.0207(10)
O73 O 0.6571(11) 1.3787(8) 0.0339(7)
O74 O 0.5263(10) 1.3378(8) 0.1523(7)
O75 O 0.2681(10) 1.2684(8) 0.0718(7)
O76 O 0.5362(10) 1.2327(7) 0.0664(7)
O77 O 0.3642(10) 1.4261(8) 0.0277(7)
O78 O 0.2534(11) 1.4061(8) 0.1431(7)
O79 O 0.7895(14) 1.3050(11) 0.1524(10)
O80 O 0.8222(16) 1.2227(12) 0.0538(11)
O81 O 0.6872(12) 1.1569(9) 0.1867(8)
O82 O 0.5176(10) 0.9074(8) 0.5295(7)
O83 O 0.2871(14) 1.0319(11) 0.5262(10)
O84 O 0.9330(16) 0.3782(12) 0.2511(11)
O85 O 1.1839(17) 0.3089(13) 0.2674(11)
O86 O 1.0663(17) 0.4974(13) 0.2372(11)
O87 O 1.203(3) 0.406(2) 0.3668(19)
O88 O 0.924(3) 0.484(2) 0.3565(18)
O89 O 0.133(3) 1.451(3) 0.021(2)
O90 O 0.124(3) 1.248(2) 0.190(2)
O91 O 1.008(3) 1.320(2) 0.0627(18)
O92 O -0.002(3) 1.443(3) 0.138(2)
O93 O 1.034(3) 0.290(2) 0.3773(19)
O94 O 0.794(2) 1.4604(18) 0.0013(16)
O95 O 0.005(2) 1.0887(17) 0.5766(15)
O96 O 0.1150(19) 0.1970(14) 0.5959(13)
O97 O 0.7924(17) 1.4789(13) 0.0992(12)
O98 O 0.1483(15) 0.9679(11) 0.6651(10)
O99 O 0.1978(15) 0.5642(11) 0.1017(10)
O100 O 0.250(3) 0.870(2) 0.5721(19)
O101 O 0.086(3) 1.015(2) 0.4751(19)
O102 O 0.712(3) 0.207(2) 0.287(2)
O103 O 0.794(2) 0.3235(19) 0.3722(17)
O104 O 0.887(2) 0.6462(18) 0.0469(16)
O105 O 0.524(3) 0.274(2) 0.271(2)
O106 O 0.955(8) 0.204(6) 0.260(5)
O107 O 0.018(5) 0.895(4) 0.613(3)
O108 O -0.096(2) 1.1192(18) 0.1916(16)
N1 N 0.1107(9) 0.9033(7) 0.1445(6)
C1 C 0.006(3) 0.974(2) 0.0750(18)
H1 H -0.01780 1.00090 0.03980
N2 N 0.7696(8) 0.8140(7) 0.1298(6)
C2 C 0.8531(18) 0.8427(16) 0.0522(11)
H2 H 0.86720 0.86490 0.01600
N3 N 0.4665(11) 0.6754(8) 0.4510(6)
C3 C 0.487(2) 0.5921(19) 0.5320(17)
H3 H 0.50210 0.54590 0.55760
C4 C 0.7626(14) 0.8515(14) 0.0779(10)
H4 H 0.70100 0.88090 0.06080
N4 N 0.9166(11) 0.7965(11) 0.0890(8)
C5 C 1.0284(18) 0.768(2) 0.0794(13)
H5 H 1.04500 0.78830 0.04180
H6 H 1.04660 0.71370 0.08630
H7 H 1.06580 0.78220 0.10400
C6 C 0.0960(18) 0.9388(15) 0.0903(10)
H8 H 0.15060 0.93700 0.06540
C7 C 0.0210(18) 0.9157(18) 0.1664(12)
H9 H 0.00110 0.89870 0.20270
N5 N -0.0423(13) 0.9642(11) 0.1187(10)
C8 C -0.156(3) 0.994(2) 0.1307(18)
H10 H -0.19030 1.02470 0.09710
H11 H -0.16410 1.02430 0.15740
H12 H -0.18510 0.95290 0.14510
C9 C 0.477(2) 0.6032(12) 0.4797(15)
H13 H 0.47590 0.56500 0.46270
C10 C 0.4635(17) 0.7096(13) 0.4920(12)
H14 H 0.45580 0.76100 0.48660
N6 N 0.4731(15) 0.6608(12) 0.5427(7)
C11 C 0.468(2) 0.6786(17) 0.5969(10)
H15 H 0.47780 0.63300 0.62550
H16 H 0.40210 0.71210 0.60160
H17 H 0.52070 0.70230 0.59920
C12 C 0.8672(14) 0.7772(13) 0.1392(12)
H18 H 0.89650 0.74550 0.17210
Na4A Na 0.5904(5) 1.0036(4) 0.5442(3)
Na8* Na 1.1276(14) 1.3527(11) 0.1086(10)
Na9* Na -0.1724(18) 1.3675(14) 0.0601(12)
O36A O 0.5919(7) 0.9398(5) 0.6451(4)
O41A O 0.5680(7) 1.1067(6) 0.5918(4)
O50A O 0.4196(8) 1.0373(6) 0.6015(4)
O57A O 0.7421(7) 0.9962(5) 0.5988(4)
O75* O 1.2681(10) 1.2684(8) 0.0718(7)
O78* O 1.2534(11) 1.4061(8) 0.1431(7)
O82A O 0.4824(10) 1.0926(8) 0.4705(7)
O83A O 0.7129(14) 0.9681(11) 0.4738(10)
O89* O 1.133(3) 1.451(3) 0.021(2)
O90* O 1.124(3) 1.248(2) 0.190(2)
O91* O 0.008(3) 1.320(2) 0.0627(18)
O92* O 0.998(3) 1.443(3) 0.138(2)
#END
