
#######################################################################
#
#                 Cambridge Crystallographic Data Centre
#                                CCDC
#
#######################################################################
#
# If this CIF has been generated from an entry in the Cambridge
# Structural Database, then it will include bibliographic, chemical,
# crystal, experimental, refinement or atomic coordinate data resulting
# from the CCDC's data processing and validation procedures.
#
#######################################################################

data_CSD_CIF_QIYQAS
_audit_creation_date 2014-03-20
_audit_creation_method CSD-ConQuest-V1
_database_code_CSD QIYQAS
_database_code_depnum_ccdc_archive 'CCDC 920582'
_chemical_formula_sum 'C40 H50 Ge1 Mn2 N8 O57 W12'
_chemical_formula_moiety
;
(C40 H44 Mn2 N8 O14 4+)n,n(Ge1 O40 W12 4-),3n(H2 O1)
;
_journal_coden_Cambridge 315
_journal_volume 115
_journal_year 2013
_journal_page_first 690
_journal_name_full 'Spectrochim.Acta,Part A '
loop_
_publ_author_name
"Yan Bai"
"Meng-Meng Li"
"You-Jing Huang-Fu"
"Dong-Bin Dang"
_chemical_name_systematic
;
catena-[bis(\m~2~-4,4'-Bipyridine-N,N'-dioxide)-hexa-aqua-bis(4,4'-bipyridine-
N,N'-dioxide)-di-manganese(ii) 
tetrakis(\m~4~-oxo)-tetracosakis(\m~2~-oxo)-dodeca-oxo-germanium-dodeca-tungst
en trihydrate]
;
_cell_volume   1887.932
_exptl_crystal_density_diffrn 3.469
_diffrn_ambient_temperature 296
#These two values have been output from a single CSD field.
_refine_ls_R_factor_gt 0.033
_refine_ls_wR_factor_gt 0.033
_symmetry_cell_setting triclinic
_symmetry_space_group_name_H-M 'P 1'
_symmetry_Int_Tables_number 1
loop_
_symmetry_equiv_pos_site_id
_symmetry_equiv_pos_as_xyz
1 x,y,z
_cell_length_a 11.9770(5)
_cell_length_b 12.1151(5)
_cell_length_c 13.2275(6)
_cell_angle_alpha 91.428(1)
_cell_angle_beta 97.399(1)
_cell_angle_gamma 96.913(1)
_cell_formula_units_Z 1
loop_
_atom_type_symbol
_atom_type_radius_bond
C 0.68
H 0.23
Ge 1.17
Mn 1.61
N 0.68
O 0.68
W 1.62
loop_
_atom_site_label
_atom_site_type_symbol
_atom_site_fract_x
_atom_site_fract_y
_atom_site_fract_z
Ge1 Ge 0.0906(2) 0.0785(2) -0.94059(17)
W1 W 0.35241(7) -0.01663(7) -0.84649(6)
W2 W 0.10723(7) -0.16779(7) -0.80539(6)
W3 W 0.18380(7) -0.15997(7) -1.04289(6)
W4 W 0.08916(7) 0.32089(7) -1.08244(6)
W5 W 0.34255(7) 0.22936(7) -1.00633(7)
W6 W 0.15643(7) 0.08903(7) -1.19452(6)
W7 W 0.00708(7) 0.31475(7) -0.82362(6)
W8 W 0.03215(7) 0.08582(7) -0.68497(6)
W9 W 0.26852(7) 0.24220(7) -0.74422(6)
W10 W -0.16769(7) -0.06933(7) -0.89035(7)
W11 W -0.17767(7) 0.15678(8) -1.03731(6)
W12 W -0.09953(7) -0.08073(7) -1.13056(6)
O1 O 0.4882(12) -0.0347(13) -0.8002(11)
O2 O 0.0909(15) -0.2797(13) -0.7280(13)
O3 O 0.2109(14) -0.2734(13) -1.1122(12)
O4 O 0.0723(15) 0.4386(14) -1.1440(11)
O5 O 0.4750(13) 0.2985(13) -1.0131(12)
O6 O 0.1762(14) 0.0646(13) -1.3206(11)
O7 O -0.0381(14) 0.4332(14) -0.7858(14)
O8 O -0.0103(12) 0.0612(13) -0.5698(10)
O9 O 0.3719(14) 0.3103(14) -0.6610(11)
O10 O -0.2744(11) -0.1493(13) -0.8424(11)
O11 O -0.2938(13) 0.2229(15) -1.0752(13)
O12 O -0.1666(14) -0.1633(13) -1.2357(12)
O13 O 0.0213(11) -0.1577(11) -1.084(1)
O14 O -0.1932(12) 0.0428(11) -1.1427(9)
O15 O -0.1156(10) 0.2376(11) -0.9114(10)
O16 O 0.3176(12) 0.0947(12) -0.7611(9)
O17 O -0.0589(11) 0.2407(13) -1.0958(10)
O18 O -0.2473(11) 0.0434(12) -0.9514(9)
O19 O -0.0441(11) -0.1560(11) -0.8629(11)
O20 O -0.1893(11) -0.1409(11) -1.0293(10)
O21 O 0.1781(11) 0.1692(12) -0.6446(10)
O22 O 0.0087(11) 0.0200(12) -1.1915(10)
O23 O -0.1008(11) 0.0229(11) -0.7809(10)
O24 O 0.3698(11) 0.0951(12) -0.9486(11)
O25 O 0.2498(11) 0.3435(11) -1.0556(11)
O26 O -0.0269(11) 0.2270(12) -0.7108(10)
O27 O 0.3088(11) 0.1640(11) -1.1394(10)
O28 O 0.1617(12) 0.3465(11) -0.7541(9)
O29 O 0.2034(11) -0.0411(13) -1.126(1)
O30 O 0.1340(11) -0.2417(12) -0.9269(10)
O31 O 0.3116(11) 0.2739(11) -0.8747(9)
O32 O 0.1081(12) 0.2340(11) -1.2041(10)
O33 O 0.2738(10) -0.1241(13) -0.7771(9)
O34 O 0.0726(12) 0.3536(12) -0.9469(10)
O35 O 0.3266(11) -0.1273(11) -0.9651(10)
O36 O 0.0939(10) -0.0434(10) -0.716(1)
O37 O 0.1623(10) -0.0351(10) -0.9182(9)
O38 O 0.1508(10) 0.1534(11) -1.0313(9)
O39 O 0.0971(10) 0.1567(10) -0.8306(8)
O40 O -0.0481(9) 0.0326(10) -0.9882(9)
Mn1 Mn 0.5920(3) 0.5811(3) -0.4396(3)
Mn2 Mn 0.0939(3) -0.4212(3) -0.4362(3)
O41 O 0.4109(12) 0.5291(14) -0.4832(11)
H1 H 0.39330 0.54100 -0.54600
H2 H 0.37390 0.56850 -0.44890
O42 O 0.7683(11) 0.6375(12) -0.3981(11)
H3 H 0.80670 0.59800 -0.43090
H4 H 0.78570 0.62760 -0.33490
O43 O 0.032(2) -0.2900(15) -0.5299(13)
H5 H 0.04760 -0.27840 -0.58990
H6 H 0.00860 -0.23210 -0.50680
O44 O 0.0593(15) -0.3429(17) -0.2965(12)
H7 H 0.11820 -0.33360 -0.25240
H8 H 0.00580 -0.38080 -0.27150
O45 O 0.1618(19) -0.5492(17) -0.3457(17)
H9 H 0.15850 -0.60960 -0.38070
H10 H 0.12670 -0.56130 -0.29430
O46 O 0.1235(17) -0.5076(18) -0.5740(14)
H11 H 0.10530 -0.57750 -0.57380
H12 H 0.19090 -0.49240 -0.58790
O47 O 0.5976(13) 0.4331(12) -0.3478(11)
O48 O 0.2683(13) -0.3407(12) -0.4177(13)
N1 N 0.5498(16) 0.3252(13) -0.3602(13)
N2 N 0.3116(14) -0.2340(15) -0.4106(14)
C1 C 0.496(2) 0.154(2) -0.2906(17)
H13 H 0.48910 0.11240 -0.23320
C2 C 0.5502(19) 0.2621(18) -0.2772(16)
H14 H 0.58550 0.29020 -0.21350
C3 C 0.508(2) 0.2818(19) -0.4561(17)
H15 H 0.51130 0.32600 -0.51240
C4 C 0.461(2) 0.1731(18) -0.4681(18)
H16 H 0.43490 0.14430 -0.53390
C5 C 0.4508(16) 0.1043(18) -0.3885(15)
C6 C 0.4010(16) -0.0105(19) -0.3970(17)
C7 C 0.3872(18) -0.0736(17) -0.3114(16)
H17 H 0.41110 -0.04010 -0.24700
C8 C 0.3406(19) -0.1814(19) -0.3183(16)
H18 H 0.32860 -0.21910 -0.25950
C9 C 0.319(2) -0.170(2) -0.4963(16)
H19 H 0.29020 -0.20270 -0.55980
C10 C 0.365(3) -0.067(2) -0.4927(16)
H20 H 0.37350 -0.03030 -0.55270
O49 O 0.6257(14) 0.4847(12) -0.5641(11)
O50 O 0.8767(13) 0.5716(14) -1.2232(11)
N3 N 0.6570(14) 0.5019(13) -0.6585(12)
N4 N 0.8479(14) 0.5613(14) -1.1331(12)
C11 C 0.656(2) 0.439(2) -0.8271(18)
H21 H 0.63150 0.38470 -0.87870
C12 C 0.6136(18) 0.4294(17) -0.7324(14)
H22 H 0.55630 0.37320 -0.72290
C13 C 0.738(2) 0.5851(19) -0.6707(18)
H23 H 0.76970 0.63340 -0.61600
C14 C 0.7729(18) 0.5980(17) -0.7623(14)
H24 H 0.82660 0.65790 -0.77120
C15 C 0.7318(17) 0.5255(15) -0.8433(13)
C16 C 0.7712(18) 0.5355(16) -0.9449(14)
C17 C 0.702(2) 0.491(2) -1.0293(18)
H25 H 0.63230 0.44950 -1.02390
C18 C 0.7393(18) 0.509(2) -1.126(2)
H26 H 0.69040 0.48640 -1.18520
C19 C 0.9198(18) 0.5926(18) -1.0481(15)
H27 H 0.99520 0.61850 -1.05250
C20 C 0.8817(17) 0.5864(17) -0.9539(16)
H28 H 0.92920 0.61590 -0.89590
O51 O 0.5793(14) 0.7302(12) -0.5329(10)
O52 O 0.9189(13) 1.5001(13) -0.4508(12)
N5 N 0.6295(13) 0.8314(13) -0.5152(11)
N6 N 0.8832(14) 1.3890(14) -0.4553(13)
C21 C 0.7077(18) 0.9884(19) -0.4091(15)
H29 H 0.72460 1.01940 -0.34310
C22 C 0.6607(16) 0.880(2) -0.4252(17)
H30 H 0.65010 0.83860 -0.36840
C23 C 0.659(2) 0.892(2) -0.5955(17)
H31 H 0.64960 0.85640 -0.65970
C24 C 0.702(3) 1.0025(18) -0.5866(17)
H32 H 0.71300 1.04340 -0.64390
C25 C 0.7298(19) 1.0505(18) -0.4896(17)
C26 C 0.7850(18) 1.1708(15) -0.4780(16)
C27 C 0.822(2) 1.2271(18) -0.3806(18)
H33 H 0.81480 1.18750 -0.32200
C28 C 0.869(2) 1.3406(18) -0.3700(19)
H34 H 0.88830 1.37800 -0.30670
C29 C 0.849(2) 1.3402(17) -0.5491(17)
H35 H 0.85990 1.38130 -0.60640
C30 C 0.8018(19) 1.2352(17) -0.5617(16)
H36 H 0.77940 1.20420 -0.62730
O53 O 0.5603(15) 0.6800(14) -0.3129(12)
O54 O 0.2949(13) 0.5978(14) 0.3462(10)
N7 N 0.5265(15) 0.6636(17) -0.2240(12)
N8 N 0.3357(16) 0.6100(16) 0.2525(14)
C31 C 0.410(2) 0.563(2) -0.1134(18)
H37 H 0.35610 0.50390 -0.10350
C32 C 0.4473(18) 0.5733(17) -0.2102(14)
H38 H 0.41950 0.52120 -0.26310
C33 C 0.5676(18) 0.737(2) -0.1436(16)
H39 H 0.61990 0.79800 -0.15370
C34 C 0.5348(18) 0.725(2) -0.0516(16)
H40 H 0.56710 0.77480 0.00170
C35 C 0.4511(19) 0.637(2) -0.0340(18)
C36 C 0.4112(18) 0.6258(16) 0.0678(14)
C37 C 0.2997(17) 0.5802(16) 0.0760(14)
H41 H 0.24930 0.55940 0.01720
C38 C 0.2646(17) 0.5659(17) 0.1688(16)
H42 H 0.19400 0.52730 0.17510
C39 C 0.4383(19) 0.6548(19) 0.2463(16)
H43 H 0.48620 0.67930 0.30560
C40 C 0.4762(16) 0.6663(18) 0.1570(14)
H44 H 0.54860 0.70280 0.15470
O55 O -0.3430(17) 0.1697(16) -0.7902(14)
H45 H -0.40890 0.19020 -0.79600
H46 H -0.31280 0.16620 -0.84470
O56 O 0.1940(19) -0.7359(19) -0.4464(16)
H47 H 0.18870 -0.79080 -0.40780
H48 H 0.18900 -0.76100 -0.50760
O57 O -0.477(2) -0.014(3) -1.085(2)
H49 H -0.50890 -0.00360 -1.03230
H50 H -0.41540 -0.04300 -1.07550
O58 O -0.044(3) -0.125(3) -0.438(3)
H51 H -0.08040 -0.12080 -0.38700
H52 H -0.04300 -0.06390 -0.46800
Mn2* Mn 1.0939(3) 1.5788(3) -0.4362(3)
O52* O -0.0811(13) -0.4999(13) -0.4508(12)
#END
