
#######################################################################
#
#                 Cambridge Crystallographic Data Centre
#                                CCDC
#
#######################################################################
#
# If this CIF has been generated from an entry in the Cambridge
# Structural Database, then it will include bibliographic, chemical,
# crystal, experimental, refinement or atomic coordinate data resulting
# from the CCDC's data processing and validation procedures.
#
#######################################################################

data_CSD_CIF_QIYQEW
_audit_creation_date 2014-03-20
_audit_creation_method CSD-ConQuest-V1
_database_code_CSD QIYQEW
_database_code_depnum_ccdc_archive 'CCDC 920581'
_chemical_formula_sum 'C40 H52 Ge1 Mn2 Mo12 N8 O58'
_chemical_formula_moiety
;
(C40 H44 Mn2 N8 O14 4+)n,n(Ge1 Mo12 O40 4-),4n(H2 O1)
;
_journal_coden_Cambridge 315
_journal_volume 115
_journal_year 2013
_journal_page_first 690
_journal_name_full 'Spectrochim.Acta,Part A '
loop_
_publ_author_name
"Yan Bai"
"Meng-Meng Li"
"You-Jing Huang-Fu"
"Dong-Bin Dang"
_chemical_name_systematic
;
catena-[bis(\m~2~-4,4'-Bipyridine-N,N'-dioxide)-hexa-aqua-bis(4,4'-bipyridine-
N,N'-dioxide)-di-manganese(ii) 
tetrakis(\m~4~-oxo)-tetracosakis(\m~2~-oxo)-dodeca-oxo-germanium-dodeca-molybd
enum tetrahydrate]
;
_cell_volume   1870.380
_exptl_crystal_colour 'red'
_exptl_crystal_density_diffrn 2.581
_exptl_crystal_description 'block'
_diffrn_ambient_temperature 296
_refine_special_details
;
The Keggin anion is disordered by symmetry.

;
#These two values have been output from a single CSD field.
_refine_ls_R_factor_gt 0.0793
_refine_ls_wR_factor_gt 0.0793
_symmetry_cell_setting triclinic
_symmetry_space_group_name_H-M 'P -1'
_symmetry_Int_Tables_number 2
loop_
_symmetry_equiv_pos_site_id
_symmetry_equiv_pos_as_xyz
1 x,y,z
2 -x,-y,-z
_cell_length_a 11.9167(13)
_cell_length_b 12.0974(13)
_cell_length_c 13.1927(14)
_cell_angle_alpha 91.095(2)
_cell_angle_beta 98.022(2)
_cell_angle_gamma 96.396(2)
_cell_formula_units_Z 1
loop_
_atom_type_symbol
_atom_type_radius_bond
C 0.68
H 0.23
Ge 1.17
Mn 1.61
Mo 1.54
N 0.68
O 0.68
loop_
_atom_site_label
_atom_site_type_symbol
_atom_site_fract_x
_atom_site_fract_y
_atom_site_fract_z
Mo1 Mo -0.04769(11) -0.00513(11) -0.74025(9)
O1 O -0.0820(11) -0.0045(10) -0.6244(8)
O2 O 0.0082(19) -0.1253(18) -0.7747(16)
O3 O -0.189(2) -0.0542(19) -0.836(2)
O4 O -0.1135(18) 0.1492(16) -0.7653(16)
O5 O 0.089(2) 0.0554(19) -0.7496(17)
O6 O -0.0614(15) -0.0769(13) -0.9070(12)
O7 O 0.0073(16) 0.0758(16) -0.8895(14)
Mo2 Mo 0.00412(12) -0.25036(10) -0.8688(1)
Mo3 Mo -0.25762(12) -0.13727(10) -0.93606(11)
Mo4 Mo -0.09793(12) 0.23112(10) -0.88797(10)
Mo5 Mo 0.18596(12) 0.16956(10) -0.81306(10)
Ge1 Ge 0.00000 0.00000 -1.00000
O8 O 0.0091(10) -0.3617(8) -0.7972(8)
O9 O -0.161(2) -0.263(2) -0.8836(17)
O10 O 0.0186(18) -0.2700(16) -0.9937(15)
O11 O 0.1522(18) -0.1588(17) -0.8448(16)
O12 O 0.0720(16) -0.1175(14) -0.9766(13)
O13 O -0.3713(10) -0.2135(8) -0.9105(9)
O14 O -0.2185(18) -0.1916(15) -1.0634(16)
O15 O -0.341(2) -0.031(2) -1.013(2)
O16 O -0.1422(15) -0.0464(14) -1.0473(12)
O17 O -0.1307(9) 0.3482(8) -0.8374(9)
O18 O -0.2422(18) 0.2098(17) -0.9834(14)
O19 O 0.0733(18) 0.2679(18) -0.8115(15)
O20 O 0.291(2) 0.0421(17) -0.7952(18)
O21 O 0.2699(11) 0.2391(9) -0.7186(9)
Mo6 Mo 0.26384(12) -0.08868(12) -0.89413(10)
O22 O 0.3894(9) -0.1290(9) -0.8568(8)
Mn1 Mn 0.00000 -0.50000 -0.50000
O23 O 0.1726(9) -0.4159(8) -0.4846(9)
O24 O -0.0684(12) -0.3695(9) -0.5920(8)
H1 H -0.03280 -0.35560 -0.64270
H2 H -0.06830 -0.31000 -0.55660
O25 O -0.0300(11) -0.4174(10) -0.3613(9)
H3 H -0.02440 -0.36310 -0.31840
H4 H -0.08670 -0.46280 -0.35120
O26 O -0.5108(10) -1.3499(8) -0.5907(8)
N1 N -0.4571(11) -1.2476(10) -0.5758(9)
N2 N -0.2126(10) -0.6917(9) -0.5218(9)
C1 C -0.3912(17) -1.0777(12) -0.6437(12)
H5 H -0.38230 -1.03570 -0.70090
C2 C -0.4387(17) -1.1865(12) -0.6584(12)
H6 H -0.45810 -1.21800 -0.72430
C3 C -0.4247(15) -1.2006(13) -0.4827(12)
H7 H -0.43460 -1.24320 -0.42590
C4 C -0.3780(14) -1.0932(13) -0.4672(11)
H8 H -0.36050 -1.06330 -0.40070
C5 C -0.3559(13) -1.0276(10) -0.5473(11)
C6 C -0.3036(13) -0.9093(11) -0.5380(11)
C7 C -0.2638(17) -0.8581(12) -0.4437(13)
H9 H -0.26440 -0.89980 -0.38520
C8 C -0.2229(17) -0.7458(13) -0.4337(13)
H10 H -0.20360 -0.70950 -0.36990
C9 C -0.2419(14) -0.7371(13) -0.6107(14)
H11 H -0.23130 -0.69600 -0.66810
C10 C -0.2898(14) -0.8479(10) -0.6232(12)
H12 H -0.31230 -0.88010 -0.68850
Mn2 Mn -0.50000 -1.50000 -0.50000
C11 C -0.1731(13) -1.4844(10) -1.1082(11)
N3 N -0.2429(10) -1.5239(10) -1.1943(8)
C12 C -0.5241(15) -1.3471(14) -0.2055(12)
N4 N -0.5662(11) -1.4201(10) -0.2825(9)
O27 O -0.5318(11) -1.4027(9) -0.3731(8)
C13 C -0.3851(14) -1.5869(12) -1.0970(12)
H13 H -0.45790 -1.62300 -1.09500
C14 C -0.6824(13) -1.4562(11) 0.0038(11)
C15 C -0.6432(13) -1.5040(11) -0.2683(11)
C16 C -0.6814(12) -1.5198(12) -0.176(1)
C17 C -0.7902(12) -1.5078(11) 0.0173(10)
H14 H -0.90050 -1.54810 0.11240
C18 C -0.5576(13) -1.3561(12) -0.1128(12)
O28 O -0.7913(9) -1.4872(9) 0.2848(7)
C19 C -0.6400(11) -1.4426(11) -0.0922(10)
H15 H -0.67220 -1.55370 -0.32280
C20 C -0.6536(14) -1.4234(12) 0.1871(11)
H16 H -0.60770 -1.39330 0.24610
O29 O -0.3206(8) -1.4444(8) -0.4582(7)
H17 H -0.28280 -1.48440 -0.49130
H18 H -0.73400 -1.58060 -0.16770
H19 H -0.47000 -1.28860 -0.21650
H20 H -0.30230 -1.45480 -0.39480
H21 H -0.16130 -1.46170 -0.95980
H22 H -0.52570 -1.30420 -0.06100
O30 O 0.4326(12) -0.0935(11) -1.1488(10)
H23 H 0.50170 -0.08370 -1.12050
H24 H 0.39290 -0.06180 -1.11080
O31 O -0.150(3) -0.204(3) -0.496(2)
O32 O -0.284(2) -0.2184(17) -1.0882(18)
O33 O -0.1345(19) -0.237(2) -0.9240(17)
O34 O 0.234(2) 0.0153(18) -0.8200(18)
O35 O 0.2101(18) -0.1544(18) -1.0289(16)
O36 O 0.0450(18) -0.3261(18) -0.9848(16)
O37 O -0.068(2) -0.2376(18) -1.1406(16)
O38 O -0.015(2) -0.1562(18) -0.7333(17)
O39 O -0.218(2) -0.081(2) -0.7965(19)
O40 O -0.280(2) -0.0060(18) -0.9905(18)
O41 O -0.1156(19) 0.1192(17) -0.8107(16)
O42 O 0.093(2) 0.090(2) -0.7004(19)
O43 O 0.1816(19) -0.2133(17) -0.8318(17)
O44 O -0.091(3) -0.187(3) -0.491(3)
O10A O -0.0186(18) 0.2700(16) -1.0063(15)
O12A O -0.0720(16) 0.1175(14) -1.0234(13)
O14A O 0.2185(18) 0.1916(15) -0.9366(16)
O16A O 0.1422(15) 0.0464(14) -0.9527(12)
O7A O -0.0073(16) -0.0758(16) -1.1105(14)
O6A O 0.0614(15) 0.0769(13) -1.0930(12)
Mo4A Mo 0.09793(12) -0.23112(10) -1.11203(10)
Mo5A Mo -0.18596(12) -0.16956(10) -1.18694(10)
Mo6A Mo -0.26384(12) 0.08868(12) -1.10587(10)
Mo2A Mo -0.00412(12) 0.25036(10) -1.1312(1)
Mo3A Mo 0.25762(12) 0.13727(10) -1.06394(11)
Mo1A Mo 0.04769(11) 0.00513(11) -1.25975(9)
O17A O 0.1307(9) -0.3482(8) -1.1626(9)
O18A O 0.2422(18) -0.2098(17) -1.0166(14)
O19A O -0.0733(18) -0.2679(18) -1.1885(15)
O4A O 0.1135(18) -0.1492(16) -1.2347(16)
O15A O 0.341(2) 0.031(2) -0.987(2)
O21A O -0.2699(11) -0.2391(9) -1.2814(9)
O20A O -0.291(2) -0.0421(17) -1.2048(18)
O5A O -0.089(2) -0.0554(19) -1.2504(17)
O22A O -0.3894(9) 0.1290(9) -1.1432(8)
O11A O -0.1522(18) 0.1588(17) -1.1552(16)
O8A O -0.0091(10) 0.3617(8) -1.2028(8)
O9A O 0.161(2) 0.263(2) -1.1164(17)
O2A O -0.0082(19) 0.1253(18) -1.2253(16)
O13A O 0.3713(10) 0.2135(8) -1.0895(9)
O3A O 0.189(2) 0.0542(19) -1.164(2)
O1A O 0.0820(11) 0.0045(10) -1.3756(8)
O23A O -0.1726(9) -0.5841(8) -0.5154(9)
O24A O 0.0684(12) -0.6305(9) -0.4080(8)
H1A H 0.03280 -0.64440 -0.35730
H2A H 0.06830 -0.69000 -0.44340
O25A O 0.0300(11) -0.5826(10) -0.6387(9)
H3A H 0.02440 -0.63690 -0.68160
H4A H 0.08670 -0.53720 -0.64880
C1A C -0.6088(17) -1.9223(12) -0.3563(12)
C2A C -0.5613(17) -1.8135(12) -0.3416(12)
H5A H -0.61770 -1.96430 -0.29910
C5A C -0.6441(13) -1.9724(10) -0.4527(11)
C6A C -0.6964(13) -2.0907(11) -0.4620(11)
C7A C -0.7362(17) -2.1419(12) -0.5563(13)
C13A C -0.6149(14) -1.4131(12) 0.0970(12)
C11A C -0.8269(13) -1.5156(10) 0.1082(11)
H9A H -0.73560 -2.10020 -0.61480
C10A C -0.7102(14) -2.1521(10) -0.3768(12)
H12A H -0.68770 -2.11990 -0.31150
N3A N -0.7571(10) -1.4761(10) 0.1943(8)
C17A C -0.2098(12) -1.4922(11) -1.0173(10)
C8A C -0.7771(17) -2.2542(13) -0.5663(13)
H10A H -0.79640 -2.29050 -0.63010
C3A C -0.5753(15) -1.7994(13) -0.5173(12)
C4A C -0.6220(14) -1.9068(13) -0.5328(11)
H13A H -0.54210 -1.37700 0.09500
O27A O -0.4682(11) -1.5973(9) -0.6269(8)
N4A N -0.4338(11) -1.5799(10) -0.7175(9)
H6A H -0.54190 -1.78200 -0.27570
C9A C -0.7581(14) -2.2629(13) -0.3893(14)
O28A O -0.2087(9) -1.5128(9) -1.2848(7)
C20A C -0.3464(14) -1.5766(12) -1.1871(11)
C14A C -0.3176(13) -1.5438(11) -1.0038(11)
H7A H -0.56540 -1.75680 -0.57410
H16A H -0.39230 -1.60670 -1.24610
H14A H -0.09950 -1.45190 -1.11240
H8A H -0.63950 -1.93670 -0.59930
O29A O -0.6794(8) -1.5556(8) -0.5418(7)
H17A H -0.71720 -1.51560 -0.50870
H21A H -0.83870 -1.53830 -0.04020
H20A H -0.69770 -1.54520 -0.60520
H11A H -0.76870 -2.30400 -0.33190
N2A N -0.7874(10) -2.3083(9) -0.4782(9)
Mn1* Mn -1.00000 -2.50000 -0.50000
C15A C -0.3568(13) -1.4960(11) -0.7317(11)
C19A C -0.3600(11) -1.5574(11) -0.9078(10)
N1A N -0.5429(11) -1.7524(10) -0.4242(9)
C12A C -0.4759(15) -1.6529(14) -0.7945(12)
C18A C -0.4424(13) -1.6439(12) -0.8872(12)
H22A H -0.47430 -1.69580 -0.93900
H19A H -0.53000 -1.71140 -0.78350
C16A C -0.3186(12) -1.4802(12) -0.824(1)
H15A H -0.32780 -1.44630 -0.67720
O23* O -0.8274(9) -2.4159(8) -0.4846(9)
O26A O -0.4892(10) -1.6501(8) -0.4093(8)
H18A H -0.26600 -1.41940 -0.83230
#END
