
#######################################################################
#
#                 Cambridge Crystallographic Data Centre
#                                CCDC
#
#######################################################################
#
# If this CIF has been generated from an entry in the Cambridge
# Structural Database, then it will include bibliographic, chemical,
# crystal, experimental, refinement or atomic coordinate data resulting
# from the CCDC's data processing and validation procedures.
#
#######################################################################

data_CSD_CIF_QIZRIC
_audit_creation_date 2014-03-21
_audit_creation_method CSD-ConQuest-V1
_database_code_CSD QIZRIC
_database_code_depnum_ccdc_archive 'CCDC 992448'
_chemical_formula_sum 'C12 H12 N2 O18 U2'
_chemical_formula_moiety
;
(C12 H4 O18 U2 2-)n,2n(H4 N1 1+)
;
_journal_coeditor_code "gg2133"
_journal_coden_Cambridge 1370
_journal_volume 70
_journal_year 2014
_journal_page_first m142
_journal_name_full 'Acta Crystallogr.,Sect.E:Struct.Rep.Online '
loop_
_publ_author_name
"P.M.Cantos"
"C.L.Cahill"
_chemical_name_systematic
;
catena-[diammonium 
(\m~6~-hexacarboxylatobenzene)-diaqua-tetraoxo-di-uranium(vi)]
;
_cell_volume    954.617
_exptl_crystal_colour 'yellow'
_exptl_crystal_density_diffrn 3.299
_exptl_crystal_description 'rods'
_diffrn_ambient_temperature 100
#These two values have been output from a single CSD field.
_refine_ls_R_factor_gt 0.0166
_refine_ls_wR_factor_gt 0.0166
_symmetry_cell_setting monoclinic
_symmetry_space_group_name_H-M 'P 21/c'
_symmetry_Int_Tables_number 14
loop_
_symmetry_equiv_pos_site_id
_symmetry_equiv_pos_as_xyz
1 x,y,z
2 -x,1/2+y,1/2-z
3 -x,-y,-z
4 x,-1/2-y,-1/2+z
_cell_length_a 8.0083(4)
_cell_length_b 10.2948(6)
_cell_length_c 11.7481(6)
_cell_angle_alpha 90
_cell_angle_beta 99.733(1)
_cell_angle_gamma 90
_cell_formula_units_Z 2
loop_
_atom_type_symbol
_atom_type_radius_bond
C 0.68
H 0.23
N 0.68
O 0.68
U 1.96
loop_
_atom_site_label
_atom_site_type_symbol
_atom_site_fract_x
_atom_site_fract_y
_atom_site_fract_z
U1 U 0.412520(13) 0.721169(10) 0.152007(9)
O1 O 0.5032(3) 0.5786(2) 0.10655(18)
O2 O 0.3232(3) 0.8648(2) 0.19911(18)
O3 O 0.2643(3) 0.6031(2) 0.28641(18)
O4 O 0.1465(3) 0.8450(2) 0.55335(18)
O5 O 0.3585(3) 0.7027(2) 0.45278(18)
O6 O 0.3585(3) 0.3435(2) 0.39103(18)
O7 O 0.6149(3) 0.7076(2) 0.3302(2)
O8 O 0.1115(3) 0.2764(2) 0.28941(19)
O9 O -0.1157(3) 0.8354(2) 0.45745(18)
C1 C 0.2569(4) 0.6268(3) 0.3903(2)
C2 C 0.1216(4) 0.5613(3) 0.4453(2)
C3 C 0.0179(4) 0.6342(3) 0.5063(2)
C4 C 0.1985(4) 0.3427(3) 0.3663(2)
C5 C 0.1018(4) 0.4272(3) 0.4383(2)
C6 C 0.0162(4) 0.7819(3) 0.5055(2)
H1 H 0.571(6) 0.706(4) 0.381(4)
H2 H 0.716(7) 0.748(5) 0.355(4)
N1 N 0.8845(4) 0.5051(3) 0.1615(3)
H3 H 0.852(5) 0.507(4) 0.089(4)
H4 H 0.980(6) 0.463(4) 0.185(4)
H5 H 0.813(6) 0.468(4) 0.190(4)
H6 H 0.905(6) 0.590(5) 0.190(4)
O3B O -0.2643(3) 0.3969(2) 0.71359(18)
C1B C -0.2569(4) 0.3732(3) 0.6097(2)
C2B C -0.1216(4) 0.4387(3) 0.5547(2)
C3B C -0.0179(4) 0.3658(3) 0.4937(2)
C5B C -0.1018(4) 0.5728(3) 0.5617(2)
O4B O -0.1465(3) 0.1550(2) 0.44665(18)
O9B O 0.1157(3) 0.1646(2) 0.54255(18)
C6B C -0.0162(4) 0.2181(3) 0.4945(2)
O6B O -0.3585(3) 0.6565(2) 0.60897(18)
O8B O -0.1115(3) 0.7236(2) 0.71059(19)
C4B C -0.1985(4) 0.6573(3) 0.6337(2)
O5B O -0.3585(3) 0.2973(2) 0.54722(18)
U1B U -0.412520(13) 0.278831(10) 0.847993(9)
O1B O -0.5032(3) 0.4214(2) 0.89345(18)
O2B O -0.3232(3) 0.1352(2) 0.80089(18)
O7B O -0.6149(3) 0.2924(2) 0.6698(2)
H1B H -0.571(6) 0.294(4) 0.619(4)
H2B H -0.716(7) 0.252(5) 0.645(4)
U1A U -0.412520(13) 0.221169(10) 0.347993(9)
U1A* U 0.587480(13) 0.221169(10) 0.347993(9)
U1C U -0.587480(13) 0.778831(10) 0.652007(9)
U1C* U 0.412520(13) 0.778831(10) 0.652007(9)
O4A O -0.1465(3) 0.3450(2) 0.94665(18)
O4C O 0.1465(3) 0.6550(2) 0.05335(18)
O5A O -0.3585(3) 0.2027(2) 1.04722(18)
O5C O 0.3585(3) 0.7973(2) -0.04722(18)
O6A O 0.6415(3) 0.8435(2) 0.10897(18)
O6C O -0.6415(3) 0.1565(2) 0.89103(18)
#END
