
#######################################################################
#
#                 Cambridge Crystallographic Data Centre
#                                CCDC
#
#######################################################################
#
# If this CIF has been generated from an entry in the Cambridge
# Structural Database, then it will include bibliographic, chemical,
# crystal, experimental, refinement or atomic coordinate data resulting
# from the CCDC's data processing and validation procedures.
#
#######################################################################

data_CSD_CIF_QOBGEV
_audit_creation_date 2014-03-25
_audit_creation_method CSD-ConQuest-V1
_database_code_CSD QOBGEV
_database_code_depnum_ccdc_archive 'CCDC 948129'
_chemical_formula_sum 'C17 H25 N3 O9 Zn1'
_chemical_formula_moiety
;
(C10 H2 O8 Zn1 2-)n,2n(C2 H8 N1 1+),n(C3 H7 N1 O1)
;
_journal_coden_Cambridge 1295
_journal_volume 36
_journal_year 2013
_journal_page_first 195
_journal_name_full 'Inorg.Chem.Commun. '
loop_
_publ_author_name
"E.Yang"
"Qing rong Ding"
"Yao Kang"
"Fei Wang"
_chemical_name_systematic
;
catena-(bis(dimethylammonium) (\m~4~-benzene-1,2,4,5-tetracarboxylato)-zinc 
N,N-dimethylformamide solvate)
;
_cell_volume   7603.702
_exptl_crystal_colour 'colorless'
_exptl_crystal_description 'block'
_diffrn_ambient_temperature 293
_refine_special_details
;
The SQUEEZE/PLATON program has been used.

;
#These two values have been output from a single CSD field.
_refine_ls_R_factor_gt 0.0605
_refine_ls_wR_factor_gt 0.0605
_symmetry_cell_setting tetragonal
_symmetry_space_group_name_H-M 'I 41/a m d'
_symmetry_Int_Tables_number 141
loop_
_symmetry_equiv_pos_site_id
_symmetry_equiv_pos_as_xyz
1 x,y,z
2 1/2-x,-y,1/2+z
3 1/4-y,3/4+x,1/4+z
4 1/4+y,1/4-x,3/4+z
5 1/2-x,y,1/2-z
6 x,-y,-z
7 1/4+y,3/4+x,1/4-z
8 1/4-y,1/4-x,3/4-z
9 1/2+x,1/2+y,1/2+z
10 -x,1/2-y,z
11 3/4-y,1/4+x,3/4+z
12 3/4+y,3/4-x,1/4+z
13 -x,1/2+y,-z
14 1/2+x,1/2-y,1/2-z
15 3/4+y,1/4+x,3/4-z
16 3/4-y,3/4-x,1/4-z
17 -x,-y,-z
18 -1/2+x,y,-1/2-z
19 -1/4+y,-3/4-x,-1/4-z
20 -1/4-y,-1/4+x,-3/4-z
21 -1/2+x,-y,-1/2+z
22 -x,y,z
23 -1/4-y,-3/4-x,-1/4+z
24 -1/4+y,-1/4+x,-3/4+z
25 -1/2-x,-1/2-y,-1/2-z
26 x,-1/2+y,-z
27 -3/4+y,-1/4-x,-3/4-z
28 -3/4-y,-3/4+x,-1/4-z
29 x,-1/2-y,z
30 -1/2-x,-1/2+y,-1/2+z
31 -3/4-y,-1/4-x,-3/4+z
32 -3/4+y,-3/4+x,-1/4+z
_cell_length_a 18.9381(3)
_cell_length_b 18.9381(3)
_cell_length_c 21.2008(7)
_cell_angle_alpha 90
_cell_angle_beta 90
_cell_angle_gamma 90
_cell_formula_units_Z 16
loop_
_atom_type_symbol
_atom_type_radius_bond
C 0.68
H 0.23
N 0.68
O 0.68
Zn 1.22
loop_
_atom_site_label
_atom_site_type_symbol
_atom_site_fract_x
_atom_site_fract_y
_atom_site_fract_z
Zn1 Zn 0.27647(2) 0.47353(2) 0.12500
O1 O 0.28506(17) 0.56137(14) 0.07599(13)
O2 O 0.2646(3) 0.62156(16) 0.16366(15)
C1 C 0.2791(2) 0.6188(2) 0.1065(2)
C2 C 0.2836(3) 0.75000 0.1002(3)
H1 H 0.27120 0.75000 0.14270
C3 C 0.2923(2) 0.68595(18) 0.07039(17)
O3 O 0.26662(16) 0.59792(15) -0.05983(13)
C4 C 0.3212(3) 0.75000 -0.0237(2)
H2 H 0.33420 0.75000 -0.06600
C5 C 0.3119(2) 0.68597(17) 0.00658(17)
C6 C 0.3226(2) 0.62129(18) -0.03413(18)
O4 O 0.38171(17) 0.59970(18) -0.04484(19)
N1 N 0.25000 0.5499(2) 0.25000
C7 C 0.3055(4) 0.5777(5) 0.2581(5)
H3 H 0.34150 0.54240 0.26290
H4 H 0.30350 0.60620 0.29560
H5 H 0.31640 0.60720 0.22260
O1BA O 0.28506(17) 0.93863(14) 0.07599(13)
O2BA O 0.2646(3) 0.87844(16) 0.16366(15)
C1BA C 0.2791(2) 0.8812(2) 0.1065(2)
C3BA C 0.2923(2) 0.81405(18) 0.07039(17)
O3BA O 0.26662(16) 0.90208(15) -0.05983(13)
C5BA C 0.3119(2) 0.81403(17) 0.00658(17)
C6BA C 0.3226(2) 0.87871(18) -0.03413(18)
O4BA O 0.38171(17) 0.90030(18) -0.04484(19)
Zn1E Zn 0.27647(2) 0.52647(2) -0.12500
Zn1S Zn 0.27647(2) 1.02647(2) 0.12500
Zn1V Zn 0.27647(2) 0.97353(2) -0.12500
O1O O 0.18863(17) 0.46494(14) 0.17401(13)
O3E O 0.26662(16) 0.40208(15) 0.05983(13)
O3K O 0.34792(16) 0.48338(15) 0.19017(13)
C7D C 0.1945(4) 0.5777(5) 0.2419(5)
H3D H 0.15850 0.54240 0.23710
H4D H 0.19650 0.60620 0.20440
H5D H 0.18360 0.60720 0.27740
#END
