
#######################################################################
#
#                 Cambridge Crystallographic Data Centre
#                                CCDC
#
#######################################################################
#
# If this CIF has been generated from an entry in the Cambridge
# Structural Database, then it will include bibliographic, chemical,
# crystal, experimental, refinement or atomic coordinate data resulting
# from the CCDC's data processing and validation procedures.
#
#######################################################################

data_CSD_CIF_QOCJOI
_audit_creation_date 2008-09-17
_audit_creation_method CSD-ConQuest-V1
_database_code_CSD QOCJOI
_database_code_depnum_ccdc_archive 'CCDC 627404'
_chemical_formula_sum 'C30 H68 Mo12 N20 Ni4 O54'
_chemical_formula_moiety
;
(C3 H5 N2 1+)4n,n(C18 H40 Mo12 N12 Ni4 O50 4-),4n(H2 O1)
;
_journal_coden_Cambridge 29
_journal_volume 634
_journal_year 2008
_journal_page_first 1173
_journal_name_full 'Z.Anorg.Allg.Chem. '
loop_
_publ_author_name
"Jing Li"
"Lan-Cui Zhang"
"Zhen-Gang Sun"
"Cui-Hua Tian"
"Zai-Ming Zhu"
"Yan Zhao"
"Yan-Yu Zhu"
"Jing Zhang"
"Na Zhang"
"Lei Liu"
"Xin Lu"
_chemical_name_systematic
;
catena-[tetrakis(Imidazolium) 
dodecakis(\m~3~-hydroxo)-hexadecakis(\m~2~-oxo)-diaqua-hexakis(imidazole)-icos
aoxo-dodeca-molybdenum-tetra-nickel tetrahydrate]
;
_cell_volume   2115.742
_exptl_crystal_colour 'light blue'
_exptl_crystal_density_diffrn 2.322
_exptl_crystal_description 'block'
_diffrn_ambient_temperature 295
#These two values have been output from a single CSD field.
_refine_ls_R_factor_gt 0.0461
_refine_ls_wR_factor_gt 0.0461
_symmetry_cell_setting triclinic
_symmetry_space_group_name_H-M 'P -1'
_symmetry_Int_Tables_number 2
loop_
_symmetry_equiv_pos_site_id
_symmetry_equiv_pos_as_xyz
1 x,y,z
2 -x,-y,-z
_cell_length_a 12.7092(15)
_cell_length_b 13.6302(16)
_cell_length_c 14.3496(17)
_cell_angle_alpha 68.072(1)
_cell_angle_beta 68.570(2)
_cell_angle_gamma 73.613(2)
_cell_formula_units_Z 1
loop_
_atom_type_symbol
_atom_type_radius_bond
C 0.68
H 0.23
Mo 1.38
N 0.68
Ni 1.50
O 0.68
loop_
_atom_site_label
_atom_site_type_symbol
_atom_site_fract_x
_atom_site_fract_y
_atom_site_fract_z
Mo1 Mo 0.47839(5) 0.25230(5) 0.16993(5)
Mo2 Mo 0.69623(6) 0.29140(5) -0.04670(5)
Mo3 Mo 0.28153(6) 0.46267(5) 0.21362(5)
Mo4 Mo 0.13623(5) 0.24682(5) 0.05409(5)
Mo5 Mo 0.25833(5) 0.42952(5) -0.15282(5)
Mo6 Mo -0.12225(5) 0.31632(5) 0.21027(5)
Ni1 Ni 0.25279(8) 0.07125(8) 0.28147(7)
Ni2 Ni 0.50000 0.50000 0.00000
Ni3 Ni 0.00000 0.50000 0.00000
O1 O 0.3680(4) 0.1821(4) 0.2136(4)
O2 O 0.1857(4) 0.1668(4) 0.1598(4)
O3 O 0.5676(5) 0.1742(4) 0.2427(4)
O4 O 0.5588(5) 0.2269(4) 0.0365(4)
O5 O 0.4042(5) 0.3519(4) 0.2545(4)
O6 O 0.3820(4) 0.3973(4) 0.0776(4)
H1 H 0.330(7) 0.4050(11) 0.0758(4)
O7 O 0.5967(4) 0.3707(4) 0.0792(4)
H2 H 0.63970 0.38420 0.11640
O8 O 0.5824(4) 0.4371(4) -0.1200(4)
H3 H 0.53620 0.42760 -0.15680
O9 O 0.7933(5) 0.2145(5) 0.0183(6)
O10 O 0.7307(6) 0.2465(5) -0.1531(5)
O11 O 0.7757(4) 0.4167(4) -0.1101(4)
O12 O 0.2465(5) 0.5135(5) 0.3151(5)
O13 O 0.1727(4) 0.3913(4) 0.2478(4)
O14 O 0.2597(4) 0.3314(4) -0.0148(4)
O15 O 0.0431(4) 0.3809(4) 0.1257(4)
H4 H 0.07920 0.39840 0.16590
O16 O -0.0266(4) 0.2356(4) 0.1141(4)
O17 O 0.1695(5) 0.1641(4) -0.0195(4)
O18 O 0.1539(4) 0.5531(4) -0.0665(4)
H5 H 0.18670 0.56850 -0.02240
O19 O 0.0840(4) 0.3855(4) -0.0714(4)
H6 H 0.04630 0.37220 -0.11310
O20 O 0.3824(5) 0.4754(5) -0.1818(4)
O21 O 0.2924(5) 0.3437(5) -0.2250(4)
O22 O 0.1810(4) 0.5491(4) -0.2446(4)
O23 O -0.0774(5) 0.2476(4) 0.3197(4)
O24 O -0.2485(5) 0.2742(5) 0.2385(4)
O25 O 0.1376(5) 0.1854(4) 0.3575(4)
H7 H 0.07580 0.16110 0.39530
H8 H 0.16820 0.19580 0.39600
O26 O 0.9968(5) 0.3465(5) 0.8012(5)
H9 H 0.97170 0.28790 0.83750
H10 H 0.95350 0.38660 0.76340
O27 O 0.0822(11) 0.5186(9) 0.6327(8)
H11 H 0.10790 0.57620 0.59270
H12 H 0.13210 0.46490 0.62000
N1 N 0.3746(6) -0.0197(5) 0.1939(5)
N2 N 0.4634(7) -0.1115(6) 0.0832(6)
H13 H 0.47490 -0.14000 0.03520
N3 N 0.3041(6) 0.0013(6) 0.4171(5)
N4 N 0.3115(8) -0.0964(7) 0.5757(6)
H14 H 0.30230 -0.14770 0.63390
N5 N 0.1338(6) -0.0293(5) 0.3320(5)
N6 N 0.0572(9) -0.1729(8) 0.3829(7)
H15 H 0.05160 -0.23860 0.39620
N7 N 0.0472(9) 0.1271(7) 0.8348(8)
H16 H 0.01440 0.19210 0.83230
N8 N 0.0725(7) -0.0401(6) 0.8608(6)
H17 H 0.05970 -0.10430 0.87890
N9 N 0.457(2) 0.3199(17) 0.5630(17)
H18 H 0.42560 0.30590 0.62960
N10 N 0.5629(13) 0.3709(11) 0.4156(12)
H19 H 0.61880 0.39530 0.36310
C1 C 0.3669(7) -0.0488(7) 0.1206(7)
H20 H 0.30250 -0.02870 0.09700
C2 C 0.5393(9) -0.1225(8) 0.1331(8)
H21 H 0.61310 -0.16200 0.12310
C3 C 0.4856(8) -0.0640(8) 0.2013(8)
H22 H 0.51760 -0.05490 0.24570
C4 C 0.2804(9) -0.0871(8) 0.4942(7)
H23 H 0.24560 -0.13720 0.49150
C5 C 0.359(1) -0.0128(12) 0.5511(8)
H24 H 0.39070 0.00140 0.59280
C6 C 0.353(1) 0.0493(10) 0.4530(8)
H25 H 0.37870 0.11460 0.41660
C7 C 0.0188(8) -0.0070(8) 0.3683(9)
H26 H -0.02200 0.06110 0.36980
C8 C -0.0300(8) -0.0930(8) 0.4018(9)
H27 H -0.10760 -0.09700 0.43180
C9 C 0.1553(9) -0.1310(9) 0.3392(9)
H28 H 0.22800 -0.16940 0.31720
C10 C 0.1614(11) 0.0931(9) 0.8041(9)
H29 H 0.21850 0.13490 0.77740
C11 C 0.1762(10) -0.0116(8) 0.8194(8)
H30 H 0.24600 -0.05680 0.80410
C12 C -0.0064(10) 0.0438(8) 0.8696(9)
H31 H -0.08520 0.04510 0.89540
C13 C 0.5526(11) 0.3541(9) 0.5185(9)
H32 H 0.60130 0.36470 0.54770
C14 C 0.4083(18) 0.307(2) 0.498(2)
H33 H 0.34320 0.27770 0.51530
C15 C 0.4769(13) 0.3449(12) 0.4087(10)
H34 H 0.46600 0.35310 0.34540
Mo1A Mo 0.52161(5) 0.74770(5) -0.16993(5)
Mo2A Mo 0.30377(6) 0.70860(5) 0.04670(5)
Mo3A Mo 0.71847(6) 0.53733(5) -0.21362(5)
Mo4A Mo -0.13623(5) 0.75318(5) -0.05409(5)
Mo5A Mo -0.25833(5) 0.57048(5) 0.15282(5)
Mo6A Mo 0.12225(5) 0.68368(5) -0.21027(5)
Ni1A Ni 0.74721(8) 0.92875(8) -0.28147(7)
Ni1A* Ni -0.25279(8) 0.92875(8) -0.28147(7)
O1A O 0.6320(4) 0.8179(4) -0.2136(4)
O2A O -0.1857(4) 0.8332(4) -0.1598(4)
O2A* O 0.8143(4) 0.8332(4) -0.1598(4)
O3A O 0.4324(5) 0.8258(4) -0.2427(4)
O4A O 0.4412(5) 0.7731(4) -0.0365(4)
O5A O 0.5958(5) 0.6481(4) -0.2545(4)
O6A O 0.6180(4) 0.6027(4) -0.0776(4)
H1A H 0.670(7) 0.5950(11) -0.0758(4)
O7A O 0.4033(4) 0.6293(4) -0.0792(4)
H2A H 0.36030 0.61580 -0.11640
O8A O 0.4176(4) 0.5629(4) 0.1200(4)
H3A H 0.46380 0.57240 0.15680
O9A O 0.2067(5) 0.7855(5) -0.0183(6)
O10A O 0.2693(6) 0.7535(5) 0.1531(5)
O11A O 0.2243(4) 0.5833(4) 0.1101(4)
O12A O 0.7535(5) 0.4865(5) -0.3151(5)
O13A O 0.8273(4) 0.6087(4) -0.2478(4)
O14A O -0.2597(4) 0.6686(4) 0.0148(4)
O15A O -0.0431(4) 0.6191(4) -0.1257(4)
H4A H -0.07920 0.60160 -0.16590
O16A O 0.0266(4) 0.7644(4) -0.1141(4)
O17A O -0.1695(5) 0.8359(4) 0.0195(4)
O18A O -0.1539(4) 0.4469(4) 0.0665(4)
H5A H -0.18670 0.43150 0.02240
O19A O -0.0840(4) 0.6145(4) 0.0714(4)
H6A H -0.04630 0.62780 0.11310
O20A O -0.3824(5) 0.5246(5) 0.1818(4)
O21A O -0.2924(5) 0.6563(5) 0.2250(4)
O22A O -0.1810(4) 0.4509(4) 0.2446(4)
O23A O 0.0774(5) 0.7524(4) -0.3197(4)
O24A O 0.2485(5) 0.7258(5) -0.2385(4)
O25A O 0.8624(5) 0.8146(4) -0.3575(4)
H7A H 0.92420 0.83890 -0.39530
H8A H 0.83180 0.80420 -0.39600
N1A N 0.6254(6) 1.0197(5) -0.1939(5)
N2A N 0.5366(7) 1.1115(6) -0.0832(6)
H13A H 0.52510 1.14000 -0.03520
N3A N 0.6959(6) 0.9987(6) -0.4171(5)
N4A N 0.6885(8) 1.0964(7) -0.5757(6)
H14A H 0.69770 1.14770 -0.63390
N5A N 0.8662(6) 1.0293(5) -0.3320(5)
N6A N 0.9428(9) 1.1729(8) -0.3829(7)
H15A H 0.94840 1.23860 -0.39620
C1A C 0.6331(7) 1.0488(7) -0.1206(7)
H20A H 0.69750 1.02870 -0.09700
C2A C 0.4607(9) 1.1225(8) -0.1331(8)
H21A H 0.38690 1.16200 -0.12310
C3A C 0.5144(8) 1.0640(8) -0.2013(8)
H22A H 0.48240 1.05490 -0.24570
C4A C 0.7196(9) 1.0871(8) -0.4942(7)
H23A H 0.75440 1.13720 -0.49150
C5A C 0.641(1) 1.0128(12) -0.5511(8)
H24A H 0.60930 0.99860 -0.59280
C6A C 0.647(1) 0.9507(10) -0.4530(8)
H25A H 0.62130 0.88540 -0.41660
C7A C 0.9812(8) 1.0070(8) -0.3683(9)
H26A H 1.02200 0.93890 -0.36980
C8A C 1.0300(8) 1.0930(8) -0.4018(9)
H27A H 1.10760 1.09700 -0.43180
C9A C 0.8447(9) 1.1310(9) -0.3392(9)
H28A H 0.77200 1.16940 -0.31720
#END
