
#######################################################################
#
#                 Cambridge Crystallographic Data Centre
#                                CCDC
#
#######################################################################
#
# If this CIF has been generated from an entry in the Cambridge
# Structural Database, then it will include bibliographic, chemical,
# crystal, experimental, refinement or atomic coordinate data resulting
# from the CCDC's data processing and validation procedures.
#
#######################################################################

data_CSD_CIF_QOCKOJ
_audit_creation_date 2008-09-17
_audit_creation_method CSD-ConQuest-V1
_database_code_CSD QOCKOJ
_database_code_depnum_ccdc_archive 'CCDC 670674'
_chemical_formula_sum 'C40 H36 Cu3 Mo12 N8 O42 P1'
_chemical_formula_moiety
;
(C10 H8 Cu1 N2 1+)n,n(C20 H16 Cu2 Mo12 N4 O40 P1 1-),n(C10 H8 N2),2n(H2 O1)
;
_journal_coden_Cambridge 29
_journal_volume 634
_journal_year 2008
_journal_page_first 1197
_journal_name_full 'Z.Anorg.Allg.Chem. '
loop_
_publ_author_name
"Qi Chen"
"Chunxiu Cai"
"Guangpeng Zhou"
"Yan Xu"
"Dunru Zhu"
"Xuefang Zheng"
_chemical_name_systematic
;
catena-[(\m~2~-4,4'-Bipyridyl)-copper(i) 
(\m~12~-phosphato)-octacosakis(\m~2~-oxo)-bis(\m~2~-4,4'-bipyridyl)-octaoxo-di
-copper(i)-dodeca-molybdenum(vi) 4,4'-bipyridine dihydrate clathrate]
;
_cell_volume   1579.445
_exptl_crystal_colour 'brown'
_exptl_crystal_density_diffrn 2.811
_exptl_crystal_description 'pyramid'
_diffrn_ambient_temperature 293
_refine_special_details
;
The central Keggin phosphate group is disordered by symmetry.

;
#These two values have been output from a single CSD field.
_refine_ls_R_factor_gt 0.0601
_refine_ls_wR_factor_gt 0.0601
_symmetry_cell_setting triclinic
_symmetry_space_group_name_H-M 'P -1'
_symmetry_Int_Tables_number 2
loop_
_symmetry_equiv_pos_site_id
_symmetry_equiv_pos_as_xyz
1 x,y,z
2 -x,-y,-z
_cell_length_a 10.9180(11)
_cell_length_b 12.3759(13)
_cell_length_c 13.0264(13)
_cell_angle_alpha 113.356(1)
_cell_angle_beta 93.873(1)
_cell_angle_gamma 99.030(1)
_cell_formula_units_Z 1
loop_
_atom_type_symbol
_atom_type_radius_bond
C 0.68
H 0.23
Cu 1.61
Mo 1.41
N 0.68
O 0.68
P 1.05
loop_
_atom_site_label
_atom_site_type_symbol
_atom_site_fract_x
_atom_site_fract_y
_atom_site_fract_z
Mo1 Mo -0.24303(7) -0.01260(8) -0.20371(7)
Mo2 Mo -0.26923(7) -0.23592(7) -0.09754(7)
Mo3 Mo 0.02715(8) 0.22511(8) -0.10560(8)
Mo4 Mo 0.02659(8) -0.29563(7) -0.17767(7)
Mo5 Mo -0.29478(8) 0.05982(9) 0.08336(8)
Mo6 Mo 0.05166(9) -0.07044(8) -0.28439(7)
P1 P 0.00000 0.00000 0.00000
O1 O -0.2176(13) 0.0479(13) 0.2154(12)
O2 O -0.1505(12) -0.3136(15) -0.1842(11)
O3 O 0.1991(14) -0.2172(13) -0.1331(12)
O4 O -0.2937(13) -0.1634(10) -0.1979(10)
O5 O -0.3565(13) -0.0163(11) -0.2969(10)
O6 O -0.1226(12) -0.0774(11) -0.2938(13)
O7 O -0.4297(11) 0.0921(11) 0.1257(11)
O8 O -0.3910(12) -0.3495(10) -0.1427(10)
O9 O 0.0737(10) -0.1034(11) -0.4164(9)
O10 O -0.3100(12) 0.0566(9) -0.0658(9)
O11 O -0.3291(13) -0.1119(10) 0.0123(8)
O12 O 0.0359(10) -0.4366(10) -0.2615(11)
O13 O 0.0363(10) 0.3316(11) -0.155(1)
O14 O 0.0199(12) -0.2270(13) -0.2868(13)
O15 O -0.0316(14) 0.3030(17) 0.0341(12)
O16 O -0.1882(13) -0.2604(15) 0.0262(11)
O17 O 0.0742(12) 0.0980(11) -0.2233(14)
O18 O -0.1461(13) 0.1461(11) -0.1630(15)
O19 O -0.0337(15) 0.0279(16) -0.1066(15)
O20 O -0.0531(16) -0.1363(18) -0.0324(15)
O21 O 0.0732(16) -0.0774(14) -0.0960(14)
O22 O -0.1385(16) -0.0341(16) -0.0368(15)
Cu1 Cu 0.00000 0.50000 0.50000
Cu2 Cu 0.01697(19) -0.2813(3) -0.6294(2)
N1 N -0.1765(13) 0.4959(17) 0.4930(13)
N2 N -0.1592(11) -0.2835(14) -0.6287(12)
N3 N -0.8075(10) -0.2767(13) -0.6294(13)
N4 N -0.2975(13) 0.2986(12) -0.0434(13)
C1 C -0.3398(13) 0.5957(16) 0.5635(13)
H1 H -0.36220 0.66580 0.61210
C2 C -0.2180(16) 0.5930(19) 0.5599(15)
H2 H -0.15930 0.66170 0.60600
C3 C -0.4322(13) 0.4996(14) 0.4985(13)
C4 C -0.3890(16) 0.3964(18) 0.4270(16)
H3 H -0.44630 0.32740 0.37950
C5 C -0.2632(16) 0.399(2) 0.4282(18)
H4 H -0.23690 0.32960 0.38200
C6 C -0.1972(15) -0.1844(17) -0.5738(15)
H5 H -0.13760 -0.11410 -0.53480
C7 C -0.3244(13) -0.1795(14) -0.5709(13)
H6 H -0.34790 -0.10860 -0.52540
C8 C -0.4142(12) -0.2798(14) -0.6357(11)
C9 C -0.3735(16) -0.3852(16) -0.6933(14)
H7 H -0.43150 -0.45640 -0.73300
C10 C -0.2450(13) -0.3850(17) -0.6921(13)
H8 H -0.21830 -0.45490 -0.73510
C11 C -0.5514(14) -0.2787(13) -0.6350(13)
C12 C -0.5935(17) -0.1823(15) -0.5656(19)
H9 H -0.53570 -0.11280 -0.51970
C13 C -0.7218(17) -0.184(2) -0.561(2)
H10 H -0.74670 -0.11770 -0.50790
C14 C -0.6425(13) -0.3745(15) -0.7049(13)
H11 H -0.61950 -0.44320 -0.75550
C15 C -0.7689(17) -0.3707(17) -0.7012(16)
H12 H -0.82840 -0.43660 -0.75100
C16 C -0.4248(17) 0.2547(16) -0.085(2)
H13 H -0.45480 0.17250 -0.12470
C17 C -0.5042(14) 0.3311(14) -0.0675(14)
H14 H -0.58930 0.30110 -0.09360
C18 C -0.4595(12) 0.4566(12) -0.0099(13)
C19 C -0.3293(15) 0.4935(16) 0.0233(15)
H15 H -0.29690 0.57560 0.06070
C20 C -0.2455(16) 0.4160(16) 0.0042(16)
H16 H -0.15930 0.44380 0.02320
O23 O -0.407(3) -0.042(3) 0.298(4)
Mo1A Mo 0.24303(7) 0.01260(8) 0.20371(7)
Mo2A Mo 0.26923(7) 0.23592(7) 0.09754(7)
Mo3A Mo -0.02715(8) -0.22511(8) 0.10560(8)
Mo4A Mo -0.02659(8) 0.29563(7) 0.17767(7)
Mo5A Mo 0.29478(8) -0.05982(9) -0.08336(8)
Mo6A Mo -0.05166(9) 0.07044(8) 0.28439(7)
O1A O 0.2176(13) -0.0479(13) -0.2154(12)
O2A O 0.1505(12) 0.3136(15) 0.1842(11)
O3A O -0.1991(14) 0.2172(13) 0.1331(12)
O4A O 0.2937(13) 0.1634(10) 0.1979(10)
O5A O 0.3565(13) 0.0163(11) 0.2969(10)
O6A O 0.1226(12) 0.0774(11) 0.2938(13)
O7A O 0.4297(11) -0.0921(11) -0.1257(11)
O8A O 0.3910(12) 0.3495(10) 0.1427(10)
O9A O -0.0737(10) 0.1034(11) 0.4164(9)
O10A O 0.3100(12) -0.0566(9) 0.0658(9)
O11A O 0.3291(13) 0.1119(10) -0.0123(8)
O12A O -0.0359(10) 0.4366(10) 0.2615(11)
O13A O -0.0363(10) -0.3316(11) 0.155(1)
O13A* O -0.0363(10) -0.3316(11) -0.845(1)
O13* O 0.0363(10) 0.3316(11) 0.845(1)
O14A O -0.0199(12) 0.2270(13) 0.2868(13)
O15A O 0.0316(14) -0.3030(17) -0.0341(12)
O16A O 0.1882(13) 0.2604(15) -0.0262(11)
O17A O -0.0742(12) -0.0980(11) 0.2233(14)
O18A O 0.1461(13) -0.1461(11) 0.1630(15)
O19A O 0.0337(15) -0.0279(16) 0.1066(15)
O20A O 0.0531(16) 0.1363(18) 0.0324(15)
O21A O -0.0732(16) 0.0774(14) 0.0960(14)
O22A O 0.1385(16) 0.0341(16) 0.0368(15)
Cu1* Cu -1.00000 0.50000 0.50000
Cu2A Cu -0.01697(19) 0.2813(3) 0.6294(2)
Cu2A* Cu -0.01697(19) 0.2813(3) -0.3706(2)
Cu2* Cu -0.98303(19) -0.2813(3) -0.6294(2)
Cu2** Cu 0.01697(19) -0.2813(3) 0.3706(2)
Cu2*** Cu 1.01697(19) -0.2813(3) -0.6294(2)
N1A N -0.8235(13) 0.5041(17) 0.5070(13)
N1A* N 0.1765(13) 0.5041(17) 0.5070(13)
N2* N 0.8408(11) -0.2835(14) -0.6287(12)
N2A N 0.1592(11) 0.2835(14) 0.6287(12)
N3* N 0.1925(10) -0.2767(13) -0.6294(13)
N3A N -0.1925(10) 0.2767(13) 0.6294(13)
N4A N -0.7025(13) 0.7014(12) 0.0434(13)
C1A C -0.6602(13) 0.4043(16) 0.4365(13)
H1A H -0.63780 0.33420 0.38790
C2A C -0.7820(16) 0.4070(19) 0.4401(15)
H2A H -0.84070 0.33830 0.39400
C3A C -0.5678(13) 0.5004(14) 0.5015(13)
C4A C -0.6110(16) 0.6036(18) 0.5730(16)
H3A H -0.55370 0.67260 0.62050
C5A C -0.7368(16) 0.601(2) 0.5718(18)
H4A H -0.76310 0.67040 0.61800
C6* C 0.8028(15) -0.1844(17) -0.5738(15)
H5* H 0.86240 -0.11410 -0.53480
C7* C 0.6756(13) -0.1795(14) -0.5709(13)
H6* H 0.65210 -0.10860 -0.52540
C8* C 0.5858(12) -0.2798(14) -0.6357(11)
C9* C 0.6265(16) -0.3852(16) -0.6933(14)
H7* H 0.56850 -0.45640 -0.73300
C10* C 0.7550(13) -0.3850(17) -0.6921(13)
H8* H 0.78170 -0.45490 -0.73510
C11* C 0.4486(14) -0.2787(13) -0.6350(13)
C12* C 0.4065(17) -0.1823(15) -0.5656(19)
H9* H 0.46430 -0.11280 -0.51970
C13* C 0.2782(17) -0.184(2) -0.561(2)
H10* H 0.25330 -0.11770 -0.50790
C14* C 0.3575(13) -0.3745(15) -0.7049(13)
H11* H 0.38050 -0.44320 -0.75550
C15* C 0.2311(17) -0.3707(17) -0.7012(16)
H12* H 0.17160 -0.43660 -0.75100
C16A C -0.5752(17) 0.7453(16) 0.085(2)
H13A H -0.54520 0.82750 0.12470
C17A C -0.4958(14) 0.6689(14) 0.0675(14)
H14A H -0.41070 0.69890 0.09360
C18A C -0.5405(12) 0.5434(12) 0.0099(13)
C19A C -0.6707(15) 0.5065(16) -0.0233(15)
H15A H -0.70310 0.42440 -0.06070
C20A C -0.7545(16) 0.5840(16) -0.0042(16)
H16A H -0.84070 0.55620 -0.02320
#END
