
#######################################################################
#
#                 Cambridge Crystallographic Data Centre
#                                CCDC
#
#######################################################################
#
# If this CIF has been generated from an entry in the Cambridge
# Structural Database, then it will include bibliographic, chemical,
# crystal, experimental, refinement or atomic coordinate data resulting
# from the CCDC's data processing and validation procedures.
#
#######################################################################

data_CSD_CIF_QODHUO03
_audit_creation_date 2014-03-27
_audit_creation_method CSD-ConQuest-V1
_database_code_CSD QODHUO03
_database_code_depnum_ccdc_archive 'CCDC 976112'
_chemical_formula_sum 'C72 H48 Ag4 Mo8 N24 O26'
_chemical_formula_moiety
;
(C36 H24 Ag2 N12 2+)2n,n(Mo8 O26 4-)
;
_journal_coden_Cambridge 222
_journal_volume 43
_journal_year 2014
_journal_page_first 7146
_journal_name_full 'Dalton Trans. '
loop_
_publ_author_name
"Lei Zhang"
"Xiaofei Kuang"
"Xiaoyuan Wu"
"Wenbin Yang"
"Canzhong Lu"
_chemical_name_systematic
;
catena-[bis(bis(\m~3~-2,4,6-tri(pyridin-4-yl)-1,3,5-triazine)-di-silver) 
tetrakis(\m~3~-oxido)-octakis(\m~2~-oxido)-tetradecakis(oxido)-octa-molybdenum
]
;
_cell_volume   8378.613
_exptl_crystal_colour 'brown'
_exptl_crystal_density_diffrn 2.271
_exptl_crystal_description 'block-like'
_diffrn_ambient_temperature 210
#These two values have been output from a single CSD field.
_refine_ls_R_factor_gt 0.031
_refine_ls_wR_factor_gt 0.031
_symmetry_cell_setting monoclinic
_symmetry_space_group_name_H-M 'C 2/c'
_symmetry_Int_Tables_number 15
loop_
_symmetry_equiv_pos_site_id
_symmetry_equiv_pos_as_xyz
1 x,y,z
2 -x,y,1/2-z
3 1/2+x,1/2+y,z
4 1/2-x,1/2+y,1/2-z
5 -x,-y,-z
6 x,-y,-1/2+z
7 -1/2-x,-1/2-y,-z
8 -1/2+x,-1/2-y,-1/2+z
_cell_length_a 22.0780(7)
_cell_length_b 16.3817(4)
_cell_length_c 25.6311(11)
_cell_angle_alpha 90
_cell_angle_beta 115.334(4)
_cell_angle_gamma 90
_cell_formula_units_Z 4
loop_
_atom_type_symbol
_atom_type_radius_bond
C 0.68
H 0.23
Ag 1.45
Mo 1.54
N 0.68
O 0.68
loop_
_atom_site_label
_atom_site_type_symbol
_atom_site_fract_x
_atom_site_fract_y
_atom_site_fract_z
Mo1 Mo 0.50000 0.09492(4) -0.75000
Mo2 Mo 0.48943(2) 0.20842(2) -0.643679(16)
Mo3 Mo 0.498577(19) 0.41157(2) -0.639532(16)
Mo4 Mo 0.50000 0.53920(4) -0.75000
Mo5 Mo 0.408433(19) 0.30664(2) -0.791209(17)
O1 O 0.5621(3) 0.6015(4) -0.7053(3)
O2 O 0.46500(18) 0.4862(2) -0.70684(15)
O3 O 0.55202(19) 0.4753(2) -0.58721(16)
O4 O 0.42607(19) 0.4166(2) -0.63105(17)
O5 O 0.53311(18) 0.3096(2) -0.60667(15)
O6 O 0.4484(2) 0.3144(2) -0.71423(16)
O7 O 0.4246(2) 0.3959(2) -0.82279(17)
O8 O 0.32383(18) 0.3008(2) -0.81604(18)
O9 O 0.43604(18) 0.2173(2) -0.81507(16)
O10 O 0.42093(19) 0.2128(2) -0.62940(18)
O11 O 0.54071(19) 0.1426(2) -0.59394(17)
O12 O 0.45068(18) 0.1411(2) -0.71217(16)
O13 O 0.5570(2) 0.0331(3) -0.70018(18)
Ag1 Ag 0.344121(18) 0.54225(2) -0.632072(15)
Ag2 Ag 0.32288(2) 0.24792(3) -0.132722(16)
C1 C 0.1241(2) 0.2430(3) -0.49752(19)
C2 C 0.2351(2) 0.4353(3) -0.6114(2)
H1 H 0.21280 0.44250 -0.65120
C3 C 0.0331(2) 0.1873(3) -0.5890(2)
H2 H 0.05480 0.20800 -0.61020
C4 C 0.7198(2) -0.1521(3) -0.1079(2)
H3 H 0.69960 -0.15700 -0.14790
C5 C 0.0600(2) 0.1980(3) -0.52976(19)
C6 C 0.5978(2) 0.0302(3) 0.00107(19)
C7 C 0.7784(2) -0.1379(3) 0.0096(2)
H4 H 0.79950 -0.13430 0.04960
C8 C 0.4440(2) 0.1568(3) -0.0349(2)
H5 H 0.42390 0.18440 -0.01480
C9 C 0.0263(2) 0.1642(3) -0.5000(2)
H6 H 0.04370 0.16860 -0.46010
C10 C 0.2980(2) 0.4157(3) -0.4951(2)
H7 H 0.32040 0.41140 -0.45520
C11 C 0.5035(2) 0.1167(3) -0.0037(2)
H8 H 0.52340 0.11830 0.03650
C12 C 0.2435(2) 0.2625(3) -0.34862(19)
C13 C 0.2097(2) 0.2730(3) -0.41234(19)
C14 C 0.5332(2) 0.0739(3) -0.03311(19)
C15 C 0.2054(2) 0.3276(3) -0.49479(19)
C16 C -0.0330(2) 0.1244(3) -0.5304(2)
H9 H -0.05530 0.10260 -0.50990
C17 C 0.6825(2) -0.0519(3) 0.00698(19)
C18 C 0.6788(3) 0.0447(3) 0.1810(2)
H10 H 0.63490 0.06290 0.16100
C19 C 0.7158(2) -0.1014(3) -0.0220(2)
C20 C 0.6802(2) -0.0019(3) 0.08838(19)
C21 C 0.3260(2) 0.4594(3) -0.5259(2)
H11 H 0.36800 0.48290 -0.50560
C22 C 0.8075(3) -0.0051(3) 0.2428(2)
H12 H 0.85160 -0.02190 0.26360
C23 C 0.2360(2) 0.3787(3) -0.5252(2)
C24 C 0.2040(2) 0.3899(3) -0.5847(2)
H13 H 0.16200 0.36700 -0.60620
C25 C -0.0266(2) 0.1451(3) -0.6159(2)
H14 H -0.04380 0.13720 -0.65560
C26 C 0.7123(2) 0.0081(3) 0.1518(2)
C27 C 0.8080(2) -0.1794(3) -0.0206(2)
H15 H 0.84950 -0.20370 0.00030
C28 C 0.7120(3) 0.0535(4) 0.2407(2)
H16 H 0.68910 0.07720 0.26000
C29 C 0.3022(3) 0.3025(3) -0.3150(2)
H17 H 0.32370 0.33510 -0.33160
C30 C 0.5025(2) 0.0732(3) -0.0929(2)
H18 H 0.52100 0.04430 -0.11390
C31 C 0.4435(2) 0.1167(3) -0.1207(2)
H19 H 0.42350 0.11730 -0.16080
C32 C 0.2457(3) 0.2046(3) -0.2625(2)
H20 H 0.22690 0.16970 -0.24480
C33 C 0.2153(3) 0.2106(3) -0.3221(2)
H21 H 0.17690 0.18060 -0.34390
C34 C 0.3284(3) 0.2929(4) -0.2556(2)
H22 H 0.36770 0.32060 -0.23310
C35 C 0.6860(2) -0.1093(3) -0.0816(2)
H23 H 0.64420 -0.08630 -0.10360
C36 C 0.7784(2) -0.0168(3) 0.1835(2)
H24 H 0.80240 -0.04080 0.16530
N1 N -0.06082(19) 0.1151(2) -0.58783(17)
N2 N 0.29562(19) 0.4696(2) -0.58332(16)
N3 N 0.3008(2) 0.2465(3) -0.22876(18)
N4 N 0.14809(18) 0.2892(2) -0.52741(16)
N5 N 0.23827(19) 0.3224(2) -0.43709(16)
N6 N 0.15301(19) 0.2320(2) -0.44062(16)
N7 N 0.41343(19) 0.1584(2) -0.09275(17)
N8 N 0.7802(2) -0.1868(2) -0.07855(17)
N9 N 0.7760(2) 0.0291(3) 0.27182(18)
N10 N 0.62631(18) -0.0115(2) -0.02701(16)
N11 N 0.71121(19) -0.0496(2) 0.06458(17)
N12 N 0.62279(19) 0.0374(2) 0.05894(16)
Mo2A Mo 0.51057(2) 0.20842(2) -0.856321(16)
Mo3A Mo 0.501423(19) 0.41157(2) -0.860468(16)
Mo5A Mo 0.591567(19) 0.30664(2) -0.708791(17)
O1A O 0.4379(3) 0.6015(4) -0.7947(3)
O2A O 0.53500(18) 0.4862(2) -0.79316(15)
O3A O 0.44798(19) 0.4753(2) -0.91279(16)
O4A O 0.57393(19) 0.4166(2) -0.86895(17)
O5A O 0.46689(18) 0.3096(2) -0.89333(15)
O6A O 0.5516(2) 0.3144(2) -0.78577(16)
O7A O 0.5754(2) 0.3959(2) -0.67721(17)
O8A O 0.67617(18) 0.3008(2) -0.68396(18)
O9A O 0.56396(18) 0.2173(2) -0.68493(16)
O10A O 0.57907(19) 0.2128(2) -0.87060(18)
O11A O 0.45929(19) 0.1426(2) -0.90606(17)
O12A O 0.54932(18) 0.1411(2) -0.78783(16)
O13A O 0.4430(2) 0.0331(3) -0.79982(18)
Ag1B Ag -0.155879(18) 0.04225(2) -0.632072(15)
Ag1B* Ag 0.844121(18) 0.04225(2) 0.367928(15)
Ag2B Ag 0.82288(2) -0.25208(3) -0.132722(16)
N1B N 0.43918(19) 0.6151(2) -0.58783(17)
N8B N 0.2802(2) 0.3132(2) -0.07855(17)
N9B N 0.2760(2) 0.5291(3) -0.72818(18)
#END
