
#######################################################################
#
#                 Cambridge Crystallographic Data Centre
#                                CCDC
#
#######################################################################
#
# If this CIF has been generated from an entry in the Cambridge
# Structural Database, then it will include bibliographic, chemical,
# crystal, experimental, refinement or atomic coordinate data resulting
# from the CCDC's data processing and validation procedures.
#
#######################################################################

data_CSD_CIF_QODHUO05
_audit_creation_date 2014-03-27
_audit_creation_method CSD-ConQuest-V1
_database_code_CSD QODHUO05
_database_code_depnum_ccdc_archive 'CCDC 976109'
_chemical_formula_sum 'C72 H48 Ag4 Mo8 N24 O26'
_chemical_formula_moiety
;
(C36 H24 Ag2 N12 2+)2n,n(Mo8 O26 4-)
;
_journal_coden_Cambridge 222
_journal_volume 43
_journal_year 2014
_journal_page_first 7146
_journal_name_full 'Dalton Trans. '
loop_
_publ_author_name
"Lei Zhang"
"Xiaofei Kuang"
"Xiaoyuan Wu"
"Wenbin Yang"
"Canzhong Lu"
_chemical_name_systematic
;
catena-(bis(bis(\m~3~-2,4,6-tris(Pyridin-4-yl)-1,3,5-triazine)-di-silver) 
tetrakis(\m~3~-oxo)-octakis(\m~2~-oxo)-tetradecaoxo-octa-molybdenum)
;
_cell_volume   8460.698
_exptl_crystal_colour 'brown'
_exptl_crystal_density_diffrn 2.249
_exptl_crystal_description 'block-like'
_diffrn_ambient_temperature 370
#These two values have been output from a single CSD field.
_refine_ls_R_factor_gt 0.0447
_refine_ls_wR_factor_gt 0.0447
_symmetry_cell_setting monoclinic
_symmetry_space_group_name_H-M 'C 2/c'
_symmetry_Int_Tables_number 15
loop_
_symmetry_equiv_pos_site_id
_symmetry_equiv_pos_as_xyz
1 x,y,z
2 -x,y,1/2-z
3 1/2+x,1/2+y,z
4 1/2-x,1/2+y,1/2-z
5 -x,-y,-z
6 x,-y,-1/2+z
7 -1/2-x,-1/2-y,-z
8 -1/2+x,-1/2-y,-1/2+z
_cell_length_a 22.0267(7)
_cell_length_b 16.6061(5)
_cell_length_c 25.5742(12)
_cell_angle_alpha 90
_cell_angle_beta 115.250(4)
_cell_angle_gamma 90
_cell_formula_units_Z 4
loop_
_atom_type_symbol
_atom_type_radius_bond
C 0.68
H 0.23
Ag 1.45
Mo 1.54
N 0.68
O 0.68
loop_
_atom_site_label
_atom_site_type_symbol
_atom_site_fract_x
_atom_site_fract_y
_atom_site_fract_z
Mo1 Mo 0.50000 -0.03524(6) 0.25000
Mo2 Mo 0.50128(3) 0.08977(3) 0.13917(2)
Mo3 Mo 0.50873(3) 0.29074(4) 0.14285(2)
Mo4 Mo 0.50000 0.40706(7) 0.25000
Mo5 Mo 0.59199(3) 0.19286(3) 0.29039(2)
O1 O 0.4377(6) -0.0984(6) 0.2073(6)
O2 O 0.5338(3) 0.0152(3) 0.2058(2)
O3 O 0.4475(3) 0.0278(4) 0.0861(3)
O4 O 0.5728(3) 0.0824(4) 0.1305(3)
O5 O 0.4671(3) 0.1898(3) 0.1064(2)
O6 O 0.5511(3) 0.1860(3) 0.2144(2)
O7 O 0.5764(3) 0.1044(4) 0.3236(3)
O8 O 0.6761(3) 0.1969(3) 0.3167(3)
O9 O 0.5658(3) 0.2811(4) 0.3165(3)
O10 O 0.5783(3) 0.2876(4) 0.1297(3)
O11 O 0.4570(3) 0.3521(4) 0.0919(3)
O12 O 0.5472(3) 0.3578(4) 0.2116(3)
O13 O 0.4420(4) 0.4668(5) 0.2015(3)
Ag1 Ag 0.34424(3) -0.04292(4) -0.63274(2)
Ag2 Ag 0.32227(3) 0.25501(4) -0.13325(2)
C1 C 0.0327(3) 0.3107(4) -0.5904(3)
H1 H 0.05400 0.28970 -0.61200
C2 C 0.1237(3) 0.2559(4) -0.4990(3)
C3 C 0.5978(3) 0.4713(4) -0.0005(3)
C4 C 0.0598(3) 0.3009(4) -0.5312(3)
C5 C 0.2977(3) 0.0835(4) -0.4957(3)
H2 H 0.31990 0.08720 -0.45560
C6 C 0.5039(3) 0.3847(4) -0.0046(3)
H3 H 0.52360 0.38330 0.03560
C7 C 0.2095(3) 0.2261(4) -0.4136(3)
C8 C 0.7203(3) 0.6525(4) -0.1089(3)
H4 H 0.70060 0.65720 -0.14890
C9 C 0.6820(3) 0.5522(4) 0.0056(3)
C10 C 0.7775(3) 0.6383(4) 0.0086(3)
H5 H 0.79840 0.63450 0.04870
C11 C 0.5333(3) 0.4272(4) -0.0346(3)
C12 C 0.4441(3) 0.3444(4) -0.0366(3)
H6 H 0.42420 0.31640 -0.01650
C13 C 0.2428(3) 0.2367(4) -0.3496(3)
C14 C 0.0260(3) 0.3343(5) -0.5014(3)
H7 H 0.04310 0.32970 -0.46140
C15 C 0.2353(3) 0.0643(4) -0.6123(3)
H8 H 0.21350 0.05720 -0.65220
C16 C 0.7148(3) 0.6017(4) -0.0235(3)
C17 C 0.2354(3) 0.1216(4) -0.5265(3)
C18 C -0.0330(3) 0.3742(5) -0.5321(3)
H9 H -0.05500 0.39680 -0.51170
C19 C 0.6788(4) 0.4561(5) 0.1795(3)
H10 H 0.63480 0.43880 0.15920
C20 C 0.2041(3) 0.1095(4) -0.5857(3)
H11 H 0.16200 0.13190 -0.60750
C21 C 0.6802(3) 0.5021(4) 0.0869(3)
C22 C 0.7124(3) 0.4914(4) 0.1511(3)
C23 C 0.6865(3) 0.6099(4) -0.0827(3)
H12 H 0.64490 0.58690 -0.10510
C24 C -0.0269(3) 0.3526(5) -0.6169(3)
H13 H -0.04440 0.36000 -0.65670
C25 C 0.8073(3) 0.6801(4) -0.0213(3)
H14 H 0.84860 0.70460 -0.00010
C26 C 0.2053(3) 0.1721(4) -0.4962(3)
C27 C 0.3248(3) 0.0404(4) -0.5269(3)
H15 H 0.36680 0.01710 -0.50650
C28 C 0.5016(3) 0.4279(4) -0.0943(3)
H16 H 0.51910 0.45760 -0.11540
C29 C 0.8066(4) 0.5049(5) 0.2413(3)
H17 H 0.85060 0.52190 0.26240
C30 C 0.7118(4) 0.4464(6) 0.2392(3)
H18 H 0.68900 0.42220 0.25840
C31 C 0.2449(4) 0.2951(5) -0.2641(3)
H19 H 0.22600 0.32990 -0.24660
C32 C 0.4438(3) 0.3840(5) -0.1218(3)
H20 H 0.42450 0.38240 -0.16200
C33 C 0.2144(4) 0.2876(5) -0.3232(3)
H21 H 0.17540 0.31620 -0.34510
C34 C 0.3280(4) 0.2086(6) -0.2570(3)
H22 H 0.36720 0.18090 -0.23440
C35 C 0.7780(4) 0.5166(5) 0.1822(3)
H23 H 0.80190 0.54060 0.16400
C36 C 0.3022(4) 0.1993(5) -0.3161(3)
H24 H 0.32450 0.16840 -0.33280
N1 N 0.2957(3) 0.0300(3) -0.5833(2)
N2 N -0.0608(3) 0.3829(4) -0.5892(2)
N3 N 0.3008(3) 0.2544(4) -0.2303(3)
N4 N 0.1477(3) 0.2104(3) -0.5286(2)
N5 N 0.1526(3) 0.2668(3) -0.4419(2)
N6 N 0.2379(3) 0.1775(3) -0.4383(2)
N7 N 0.7799(3) 0.6871(3) -0.0789(2)
N8 N 0.4135(3) 0.3432(3) -0.0941(2)
N9 N 0.7753(3) 0.4708(4) 0.2700(3)
N10 N 0.6259(2) 0.5127(3) -0.0279(2)
N11 N 0.6229(3) 0.4630(3) 0.0575(2)
N12 N 0.7110(3) 0.5491(3) 0.0635(2)
Mo2A Mo 0.49872(3) 0.08977(3) 0.36083(2)
Mo3A Mo 0.49127(3) 0.29074(4) 0.35715(2)
Mo5A Mo 0.40801(3) 0.19286(3) 0.20961(2)
O1A O 0.5623(6) -0.0984(6) 0.2927(6)
O2A O 0.4662(3) 0.0152(3) 0.2942(2)
O3A O 0.5525(3) 0.0278(4) 0.4139(3)
O4A O 0.4272(3) 0.0824(4) 0.3695(3)
O5A O 0.5329(3) 0.1898(3) 0.3936(2)
O6A O 0.4489(3) 0.1860(3) 0.2856(2)
O7A O 0.4236(3) 0.1044(4) 0.1764(3)
O8A O 0.3239(3) 0.1969(3) 0.1833(3)
O9A O 0.4342(3) 0.2811(4) 0.1835(3)
O10A O 0.4217(3) 0.2876(4) 0.3703(3)
O11A O 0.5430(3) 0.3521(4) 0.4081(3)
O12A O 0.4528(3) 0.3578(4) 0.2884(3)
O13A O 0.5580(4) 0.4668(5) 0.2985(3)
Ag1B Ag -0.15576(3) 0.45708(4) -0.63274(2)
Ag1B* Ag 0.84424(3) 0.45708(4) 0.36726(2)
Ag2B Ag 0.82227(3) 0.75501(4) -0.13325(2)
N2B N 0.4392(3) -0.1171(4) -0.5892(2)
N7B N 0.2799(3) 0.1871(3) -0.0789(2)
N9B N 0.2753(3) -0.0292(4) -0.7300(3)
#END
