
#######################################################################
#
#                 Cambridge Crystallographic Data Centre
#                                CCDC
#
#######################################################################
#
# If this CIF has been generated from an entry in the Cambridge
# Structural Database, then it will include bibliographic, chemical,
# crystal, experimental, refinement or atomic coordinate data resulting
# from the CCDC's data processing and validation procedures.
#
#######################################################################

data_CSD_CIF_QODHUO06
_audit_creation_date 2014-03-27
_audit_creation_method CSD-ConQuest-V1
_database_code_CSD QODHUO06
_database_code_depnum_ccdc_archive 'CCDC 976110'
_chemical_formula_sum 'C72 H48 Ag4 Mo8 N24 O26'
_chemical_formula_moiety
;
(C36 H24 Ag2 N12 2+)2n,n(Mo8 O26 4-)
;
_journal_coden_Cambridge 222
_journal_volume 43
_journal_year 2014
_journal_page_first 7146
_journal_name_full 'Dalton Trans. '
loop_
_publ_author_name
"Lei Zhang"
"Xiaofei Kuang"
"Xiaoyuan Wu"
"Wenbin Yang"
"Canzhong Lu"
_chemical_name_systematic
;
catena-(bis(bis(\m~3~-2,4,6-tris(Pyridin-4-yl)-1,3,5-triazine)-di-silver) 
tetrakis(\m~3~-oxo)-octakis(\m~2~-oxo)-tetradecaoxo-octa-molybdenum)
;
_cell_volume   8423.931
_exptl_crystal_colour 'brown'
_exptl_crystal_density_diffrn 2.258
_exptl_crystal_description 'block-like'
_diffrn_ambient_temperature 310.0
#These two values have been output from a single CSD field.
_refine_ls_R_factor_gt 0.0387
_refine_ls_wR_factor_gt 0.0387
_symmetry_cell_setting monoclinic
_symmetry_space_group_name_H-M 'C 2/c'
_symmetry_Int_Tables_number 15
loop_
_symmetry_equiv_pos_site_id
_symmetry_equiv_pos_as_xyz
1 x,y,z
2 -x,y,1/2-z
3 1/2+x,1/2+y,z
4 1/2-x,1/2+y,1/2-z
5 -x,-y,-z
6 x,-y,-1/2+z
7 -1/2-x,-1/2-y,-z
8 -1/2+x,-1/2-y,-1/2+z
_cell_length_a 22.0501(7)
_cell_length_b 16.5079(5)
_cell_length_c 25.5960(12)
_cell_angle_alpha 90
_cell_angle_beta 115.291(4)
_cell_angle_gamma 90
_cell_formula_units_Z 4
loop_
_atom_type_symbol
_atom_type_radius_bond
C 0.68
H 0.23
Ag 1.45
Mo 1.54
N 0.68
O 0.68
loop_
_atom_site_label
_atom_site_type_symbol
_atom_site_fract_x
_atom_site_fract_y
_atom_site_fract_z
Mo1 Mo 0.50000 0.09332(6) 0.25000
Mo2 Mo 0.50944(2) 0.20885(3) 0.14323(2)
Mo3 Mo 0.50127(2) 0.41067(3) 0.139337(19)
Mo4 Mo 0.50000 0.53694(6) 0.25000
Mo5 Mo 0.59175(2) 0.30689(3) 0.29073(2)
O1 O 0.4423(3) 0.0332(4) 0.2008(3)
O2 O 0.5481(2) 0.1415(3) 0.2117(2)
O3 O 0.4580(3) 0.1455(3) 0.0924(2)
O4 O 0.5788(3) 0.2129(3) 0.1300(2)
O5 O 0.4669(2) 0.3100(3) 0.10612(19)
O6 O 0.5511(3) 0.3140(3) 0.2145(2)
O7 O 0.5652(2) 0.2180(3) 0.3162(2)
O8 O 0.6763(2) 0.3020(3) 0.3163(2)
O9 O 0.5761(3) 0.3956(3) 0.3234(2)
O10 O 0.4478(3) 0.4736(3) 0.0866(2)
O11 O 0.5732(2) 0.4171(3) 0.1308(2)
O12 O 0.5343(2) 0.4856(3) 0.2063(2)
O13 O 0.4374(5) 0.6002(5) 0.2061(4)
Ag1 Ag 0.34423(2) 0.54263(3) -0.63245(2)
Ag2 Ag 0.32266(3) 0.24611(3) -0.13300(2)
C1 C 0.1238(3) 0.2435(3) -0.4986(2)
C2 C 0.5980(3) 0.0293(3) 0.0002(2)
C3 C 0.7203(3) -0.1523(3) -0.1083(2)
H1 H 0.70060 -0.15690 -0.14840
C4 C 0.0328(3) 0.1885(4) -0.5898(3)
H2 H 0.05430 0.20950 -0.61120
C5 C 0.0597(3) 0.1987(3) -0.5308(2)
C6 C 0.7778(3) -0.1384(3) 0.0090(3)
H3 H 0.79860 -0.13500 0.04910
C7 C 0.4440(3) 0.1558(4) -0.0359(3)
H4 H 0.42390 0.18350 -0.01580
C8 C 0.2352(3) 0.4355(4) -0.6118(3)
H5 H 0.21340 0.44250 -0.65170
C9 C 0.2978(3) 0.4160(3) -0.4954(2)
H6 H 0.32000 0.41180 -0.45540
C10 C 0.2430(3) 0.2632(3) -0.3494(2)
C11 C 0.6824(3) -0.0522(3) 0.0061(2)
C12 C 0.5036(3) 0.1155(4) -0.0042(2)
H7 H 0.52320 0.11670 0.03600
C13 C 0.2097(3) 0.2739(3) -0.4130(2)
C14 C 0.0258(3) 0.1649(4) -0.5010(2)
H8 H 0.04310 0.16940 -0.46100
C15 C 0.5335(2) 0.0734(3) -0.0339(2)
C16 C 0.2357(3) 0.3787(3) -0.5260(2)
C17 C 0.2054(2) 0.3280(3) -0.4956(2)
C18 C 0.6792(3) 0.0441(4) 0.1806(3)
H9 H 0.63520 0.06190 0.16050
C19 C 0.2040(3) 0.3903(4) -0.5854(2)
H10 H 0.16200 0.36770 -0.60700
C20 C -0.0331(3) 0.1250(4) -0.5314(3)
H11 H -0.05530 0.10280 -0.51100
C21 C 0.7153(3) -0.1019(3) -0.0231(2)
C22 C 0.6802(3) -0.0021(3) 0.0874(2)
C23 C 0.7125(3) 0.0083(4) 0.1513(2)
C24 C 0.8078(3) -0.1801(4) -0.0212(3)
H12 H 0.84920 -0.20450 -0.00030
C25 C 0.3253(3) 0.4594(3) -0.5266(3)
H13 H 0.36740 0.48260 -0.50620
C26 C -0.0267(3) 0.1464(4) -0.6164(3)
H14 H -0.04400 0.13870 -0.65620
C27 C 0.5020(3) 0.0727(4) -0.0935(3)
H15 H 0.51980 0.04330 -0.11460
C28 C 0.8071(3) -0.0049(4) 0.2419(3)
H16 H 0.85130 -0.02150 0.26280
C29 C 0.6863(3) -0.1099(3) -0.0825(2)
H17 H 0.64450 -0.08730 -0.10480
C30 C 0.7122(3) 0.0533(5) 0.2402(3)
H18 H 0.68950 0.07740 0.25950
C31 C 0.4439(3) 0.1164(4) -0.1211(2)
H19 H 0.42440 0.11790 -0.16120
C32 C 0.2453(3) 0.2047(4) -0.2634(3)
H20 H 0.22630 0.17000 -0.24590
C33 C 0.3023(3) 0.3015(4) -0.3156(3)
H21 H 0.32430 0.33320 -0.33220
C34 C 0.3283(3) 0.2920(5) -0.2564(3)
H22 H 0.36750 0.31970 -0.23380
C35 C 0.7781(3) -0.0165(4) 0.1829(3)
H23 H 0.80210 -0.04050 0.16470
C36 C 0.2151(3) 0.2113(4) -0.3227(3)
H24 H 0.17670 0.18160 -0.34460
N1 N -0.0608(2) 0.1162(3) -0.5886(2)
N2 N 0.2956(2) 0.4700(3) -0.5831(2)
N3 N 0.3008(3) 0.2457(3) -0.2296(2)
N4 N 0.1478(2) 0.2896(3) -0.5282(2)
N5 N 0.2380(2) 0.3226(3) -0.43786(19)
N6 N 0.1529(2) 0.2328(3) -0.4412(2)
N7 N 0.7800(2) -0.1867(3) -0.0787(2)
N8 N 0.4136(2) 0.1572(3) -0.0933(2)
N9 N 0.7754(3) 0.0290(3) 0.2708(2)
N10 N 0.6261(2) -0.0121(3) -0.02746(19)
N11 N 0.6229(2) 0.0370(3) 0.0580(2)
N12 N 0.7115(2) -0.0495(3) 0.0641(2)
Mo2A Mo 0.49056(2) 0.20885(3) 0.35677(2)
Mo3A Mo 0.49873(2) 0.41067(3) 0.360663(19)
Mo5A Mo 0.40825(2) 0.30689(3) 0.20927(2)
O1A O 0.5577(3) 0.0332(4) 0.2992(3)
O2A O 0.4519(2) 0.1415(3) 0.2883(2)
O3A O 0.5420(3) 0.1455(3) 0.4076(2)
O4A O 0.4212(3) 0.2129(3) 0.3700(2)
O5A O 0.5331(2) 0.3100(3) 0.39388(19)
O6A O 0.4489(3) 0.3140(3) 0.2855(2)
O7A O 0.4348(2) 0.2180(3) 0.1838(2)
O8A O 0.3237(2) 0.3020(3) 0.1837(2)
O9A O 0.4239(3) 0.3956(3) 0.1766(2)
O10A O 0.5522(3) 0.4736(3) 0.4134(2)
O11A O 0.4268(2) 0.4171(3) 0.3692(2)
O12A O 0.4657(2) 0.4856(3) 0.2937(2)
O13A O 0.5626(5) 0.6002(5) 0.2939(4)
Ag1B Ag -0.15577(2) 0.04263(3) -0.63245(2)
Ag1B* Ag 0.84423(2) 0.04263(3) 0.36755(2)
Ag2B Ag 0.82266(3) -0.25389(3) -0.13300(2)
N1B N 0.4392(2) 0.6162(3) -0.5886(2)
N7B N 0.2800(2) 0.3133(3) -0.0787(2)
N9B N 0.2754(3) 0.5290(3) -0.7292(2)
#END
