
#######################################################################
#
#                 Cambridge Crystallographic Data Centre
#                                CCDC
#
#######################################################################
#
# If this CIF has been generated from an entry in the Cambridge
# Structural Database, then it will include bibliographic, chemical,
# crystal, experimental, refinement or atomic coordinate data resulting
# from the CCDC's data processing and validation procedures.
#
#######################################################################

data_CSD_CIF_QODHUO09
_audit_creation_date 2014-03-27
_audit_creation_method CSD-ConQuest-V1
_database_code_CSD QODHUO09
_database_code_depnum_ccdc_archive 'CCDC 956846'
_chemical_formula_sum 'C72 H48 Ag4 Mo8 N24 O26'
_chemical_formula_moiety
;
(C36 H24 Ag2 N12 2+)2n,n(Mo8 O26 4-)
;
_journal_coden_Cambridge 222
_journal_volume 43
_journal_year 2014
_journal_page_first 7146
_journal_name_full 'Dalton Trans. '
loop_
_publ_author_name
"Lei Zhang"
"Xiaofei Kuang"
"Xiaoyuan Wu"
"Wenbin Yang"
"Canzhong Lu"
_chemical_name_systematic
;
catena-(bis(bis(\m~3~-2,4,6-tris(Pyridin-4-yl)-1,3,5-triazine)-di-silver) 
tetrakis(\m~3~-oxo)-octakis(\m~2~-oxo)-tetradecaoxo-octa-molybdenum)
;
_cell_volume   8344.355
_exptl_crystal_colour 'brown'
_exptl_crystal_density_diffrn 2.28
_exptl_crystal_description 'block-like'
_diffrn_ambient_temperature 100.0
#These two values have been output from a single CSD field.
_refine_ls_R_factor_gt 0.0383
_refine_ls_wR_factor_gt 0.0383
_symmetry_cell_setting monoclinic
_symmetry_space_group_name_H-M 'C 2/c'
_symmetry_Int_Tables_number 15
loop_
_symmetry_equiv_pos_site_id
_symmetry_equiv_pos_as_xyz
1 x,y,z
2 -x,y,1/2-z
3 1/2+x,1/2+y,z
4 1/2-x,1/2+y,1/2-z
5 -x,-y,-z
6 x,-y,-1/2+z
7 -1/2-x,-1/2-y,-z
8 -1/2+x,-1/2-y,-1/2+z
_cell_length_a 22.1162(7)
_cell_length_b 16.2831(4)
_cell_length_c 25.6433(12)
_cell_angle_alpha 90
_cell_angle_beta 115.366(4)
_cell_angle_gamma 90
_cell_formula_units_Z 4
loop_
_atom_type_symbol
_atom_type_radius_bond
C 0.68
H 0.23
Ag 1.45
Mo 1.54
N 0.68
O 0.68
loop_
_atom_site_label
_atom_site_type_symbol
_atom_site_fract_x
_atom_site_fract_y
_atom_site_fract_z
Ag1 Ag -0.65622(2) 0.04313(3) -0.632290(19)
Ag2 Ag -0.17721(2) 0.24829(3) -0.13282(2)
N1 N 0.1226(2) 0.0376(3) 0.0592(2)
N2 N 0.2800(2) -0.1867(3) -0.0786(2)
N3 N -0.5611(2) 0.1157(3) -0.5878(2)
N4 N -0.2616(2) 0.3226(3) -0.4369(2)
N5 N -0.0872(2) 0.1582(3) -0.0926(2)
C1 C -0.2646(3) 0.4347(4) -0.6119(3)
H1 H -0.28610 0.44050 -0.65180
C2 C 0.2194(3) -0.1514(4) -0.1079(3)
H2 H 0.19930 -0.15560 -0.14790
N6 N 0.2112(2) -0.0493(3) 0.0648(2)
C3 C -0.4669(3) 0.1872(4) -0.5890(3)
H3 H -0.44480 0.20710 -0.61010
N7 N -0.2041(2) 0.4697(3) -0.5832(2)
N8 N -0.3521(2) 0.2897(3) -0.5274(2)
N9 N -0.2000(3) 0.2471(4) -0.2286(2)
C4 C -0.3761(3) 0.2431(4) -0.4975(3)
C5 C 0.0976(3) 0.0298(4) 0.0013(3)
C6 C 0.2778(3) -0.1382(4) 0.0092(3)
H4 H 0.29870 -0.13460 0.04930
N10 N 0.1263(2) -0.0111(3) -0.0267(2)
C7 C -0.2017(3) 0.4163(4) -0.4950(2)
H5 H -0.17950 0.41230 -0.45510
N11 N 0.2760(3) 0.0291(3) 0.2718(2)
C8 C -0.4404(3) 0.1984(3) -0.5298(3)
C9 C 0.0031(3) 0.1160(4) -0.0036(3)
H6 H 0.02260 0.11710 0.03650
C10 C -0.0569(3) 0.1167(4) -0.1204(3)
H7 H -0.07670 0.11770 -0.16060
C11 C -0.2905(3) 0.2736(4) -0.4123(3)
C12 C -0.4747(3) 0.1651(4) -0.4998(3)
H8 H -0.45760 0.17000 -0.45990
N12 N -0.3470(2) 0.2317(3) -0.4404(2)
C13 C 0.3077(3) -0.0045(4) 0.2430(3)
H9 H 0.35200 -0.02070 0.26370
C14 C -0.2571(3) 0.2630(4) -0.3486(3)
C15 C 0.1787(3) 0.0441(4) 0.1814(3)
H10 H 0.13460 0.06160 0.16130
C16 C -0.0570(3) 0.1569(4) -0.0351(3)
H11 H -0.07710 0.18460 -0.01500
C17 C -0.5268(3) 0.1459(4) -0.6159(3)
H12 H -0.54450 0.13860 -0.65560
C18 C 0.2125(3) 0.0082(4) 0.1521(3)
C19 C -0.1736(3) 0.4598(4) -0.5260(3)
H13 H -0.13150 0.48300 -0.50580
C20 C 0.0017(3) 0.0732(4) -0.0929(3)
H14 H 0.01990 0.04400 -0.11400
C21 C -0.1716(3) 0.2927(4) -0.2549(3)
H15 H -0.13170 0.31920 -0.23210
C22 C 0.0331(3) 0.0739(4) -0.0329(3)
C23 C 0.2153(3) -0.1016(4) -0.0224(3)
C24 C 0.1858(3) -0.1092(3) -0.0815(3)
H16 H 0.14390 -0.08630 -0.10340
C25 C -0.2960(3) 0.3904(4) -0.5844(3)
H17 H -0.33840 0.36860 -0.60570
C26 C -0.2939(3) 0.3278(4) -0.4947(3)
C27 C 0.2116(3) 0.0535(4) 0.2409(3)
H18 H 0.18880 0.07730 0.26030
C28 C 0.1801(3) -0.0028(4) 0.0882(3)
C29 C 0.1825(3) -0.0520(4) 0.0071(3)
C30 C -0.2644(3) 0.3785(4) -0.5255(3)
C31 C 0.3080(3) -0.1801(4) -0.0209(3)
H19 H 0.34940 -0.20450 0.00000
C32 C -0.1981(3) 0.3035(4) -0.3147(3)
H20 H -0.17680 0.33670 -0.33120
C33 C -0.5337(3) 0.1253(4) -0.5303(3)
H21 H -0.55630 0.10360 -0.51000
C34 C -0.2852(3) 0.2113(4) -0.3221(3)
H22 H -0.32350 0.18110 -0.34390
C35 C -0.2554(3) 0.2053(4) -0.2626(3)
H23 H -0.27460 0.17060 -0.24510
C36 C 0.2780(3) -0.0165(4) 0.1835(3)
H24 H 0.30190 -0.04070 0.16520
Mo1 Mo -0.50130(3) -0.08784(3) -0.63955(2)
Mo2 Mo -0.51065(3) -0.29204(3) -0.64364(2)
Mo3 Mo -0.40858(3) -0.19324(3) -0.70943(2)
Mo4 Mo -0.50000 -0.40447(6) -0.75000
Mo5 Mo -0.50000 0.04009(6) -0.75000
O1 O -0.5733(2) -0.0823(3) -0.6305(2)
O2 O -0.4377(2) -0.2835(3) -0.6861(2)
O3 O -0.4475(2) -0.0230(3) -0.5877(2)
O4 O -0.5790(2) -0.2867(3) -0.6287(2)
O5 O -0.5506(2) -0.3592(3) -0.7123(2)
O6 O -0.4591(2) -0.3578(3) -0.5941(2)
O7 O -0.5351(2) -0.0127(3) -0.7070(2)
O8 O -0.4478(3) -0.1849(3) -0.7860(2)
O9 O -0.3240(2) -0.1989(3) -0.6828(2)
O10 O -0.4435(3) -0.4661(3) -0.6999(2)
O11 O -0.4661(2) -0.1896(3) -0.6068(2)
O12 O -0.4250(3) -0.1037(3) -0.6777(2)
O13 O -0.4380(4) 0.1046(5) -0.7053(3)
Ag1* Ag 0.34378(2) 0.04313(3) 0.367710(19)
Ag1B Ag -0.15622(2) 0.54313(3) -0.632290(19)
Ag2B Ag 0.32279(2) -0.25171(3) -0.13282(2)
N2B N -0.2200(2) 0.3133(3) -0.0786(2)
N7B N -0.7041(2) -0.0303(3) -0.5832(2)
N11* N -0.7240(3) 0.0291(3) -0.7282(2)
Mo1A Mo -0.49870(3) -0.08784(3) -0.86045(2)
Mo2A Mo -0.48935(3) -0.29204(3) -0.85636(2)
Mo3A Mo -0.59142(3) -0.19324(3) -0.79057(2)
O1A O -0.4267(2) -0.0823(3) -0.8695(2)
O2A O -0.5623(2) -0.2835(3) -0.8139(2)
O3A O -0.5525(2) -0.0230(3) -0.9123(2)
O4A O -0.4210(2) -0.2867(3) -0.8713(2)
O5A O -0.4494(2) -0.3592(3) -0.7877(2)
O6A O -0.5409(2) -0.3578(3) -0.9059(2)
O7A O -0.4649(2) -0.0127(3) -0.7930(2)
O8A O -0.5522(3) -0.1849(3) -0.7140(2)
O9A O -0.6760(2) -0.1989(3) -0.8172(2)
O10A O -0.5565(3) -0.4661(3) -0.8001(2)
O11A O -0.5339(2) -0.1896(3) -0.8932(2)
O12A O -0.5750(3) -0.1037(3) -0.8223(2)
O13A O -0.5620(4) 0.1046(5) -0.7947(3)
#END
