
#######################################################################
#
#                 Cambridge Crystallographic Data Centre
#                                CCDC
#
#######################################################################
#
# If this CIF has been generated from an entry in the Cambridge
# Structural Database, then it will include bibliographic, chemical,
# crystal, experimental, refinement or atomic coordinate data resulting
# from the CCDC's data processing and validation procedures.
#
#######################################################################

data_CSD_CIF_QODHUO07
_audit_creation_date 2014-03-27
_audit_creation_method CSD-ConQuest-V1
_database_code_CSD QODHUO07
_database_code_depnum_ccdc_archive 'CCDC 976111'
_chemical_formula_sum 'C72 H48 Ag4 Mo8 N24 O26'
_chemical_formula_moiety
;
(C36 H24 Ag2 N12 2+)2n,n(Mo8 O26 4-)
;
_journal_coden_Cambridge 222
_journal_volume 43
_journal_year 2014
_journal_page_first 7146
_journal_name_full 'Dalton Trans. '
loop_
_publ_author_name
"Lei Zhang"
"Xiaofei Kuang"
"Xiaoyuan Wu"
"Wenbin Yang"
"Canzhong Lu"
_chemical_name_systematic
;
catena-(bis(bis(\m~3~-2,4,6-tris(Pyridin-4-yl)-1,3,5-triazine)-di-silver) 
tetrakis(\m~3~-oxo)-octakis(\m~2~-oxo)-tetradecaoxo-octa-molybdenum)
;
_cell_volume   8398.497
_exptl_crystal_colour 'brown'
_exptl_crystal_density_diffrn 2.265
_exptl_crystal_description 'block-like'
_diffrn_ambient_temperature 250.0
#These two values have been output from a single CSD field.
_refine_ls_R_factor_gt 0.0337
_refine_ls_wR_factor_gt 0.0337
_symmetry_cell_setting monoclinic
_symmetry_space_group_name_H-M 'C 2/c'
_symmetry_Int_Tables_number 15
loop_
_symmetry_equiv_pos_site_id
_symmetry_equiv_pos_as_xyz
1 x,y,z
2 -x,y,1/2-z
3 1/2+x,1/2+y,z
4 1/2-x,1/2+y,1/2-z
5 -x,-y,-z
6 x,-y,-1/2+z
7 -1/2-x,-1/2-y,-z
8 -1/2+x,-1/2-y,-1/2+z
_cell_length_a 22.0700(7)
_cell_length_b 16.4328(4)
_cell_length_c 25.6173(12)
_cell_angle_alpha 90
_cell_angle_beta 115.315(4)
_cell_angle_gamma 90
_cell_formula_units_Z 4
loop_
_atom_type_symbol
_atom_type_radius_bond
C 0.68
H 0.23
Ag 1.45
Mo 1.54
N 0.68
O 0.68
loop_
_atom_site_label
_atom_site_type_symbol
_atom_site_fract_x
_atom_site_fract_y
_atom_site_fract_z
Mo1 Mo 0.50000 0.40586(5) 0.25000
Mo2 Mo 0.51013(2) 0.29143(3) 0.143517(18)
Mo3 Mo 0.50133(2) 0.08883(3) 0.139441(17)
Mo4 Mo 0.50000 -0.03830(5) 0.25000
Mo5 Mo 0.591628(19) 0.19330(2) 0.291024(18)
O1 O 0.4427(2) 0.4671(3) 0.2004(2)
O2 O 0.54868(19) 0.3583(2) 0.21208(17)
O3 O 0.5790(2) 0.2871(3) 0.12969(19)
O4 O 0.4588(2) 0.3561(3) 0.09325(18)
O5 O 0.46703(18) 0.1900(2) 0.10644(16)
O6 O 0.5513(2) 0.1859(2) 0.21418(17)
O7 O 0.56428(19) 0.2822(2) 0.31558(17)
O8 O 0.67594(18) 0.1988(2) 0.31600(19)
O9 O 0.5760(2) 0.1046(3) 0.32319(18)
O10 O 0.4481(2) 0.0253(3) 0.08710(18)
O11 O 0.57371(19) 0.0831(3) 0.13110(18)
O12 O 0.53463(19) 0.0141(2) 0.20646(16)
O13 O 0.4377(4) -0.1011(4) 0.2055(3)
Ag1 Ag 0.344170(19) -0.04239(3) -0.632204(17)
Ag2 Ag 0.32282(2) 0.25282(3) -0.132803(17)
C1 C 0.1239(2) 0.2568(3) -0.49814(19)
C2 C 0.0332(2) 0.3123(3) -0.5891(2)
H1 H 0.05490 0.29140 -0.61030
C3 C 0.4441(2) 0.3435(3) -0.0352(2)
H2 H 0.42410 0.31560 -0.01510
C4 C 0.5978(2) 0.4702(3) 0.0007(2)
C5 C 0.7780(2) 0.6379(3) 0.0092(2)
H3 H 0.79890 0.63420 0.04920
C6 C 0.0600(2) 0.3018(3) -0.5302(2)
C7 C 0.2352(2) 0.0646(3) -0.6116(2)
H4 H 0.21320 0.05750 -0.65140
C8 C 0.5036(2) 0.3837(3) -0.0037(2)
H5 H 0.52320 0.38230 0.03650
C9 C 0.7201(2) 0.6521(3) -0.1078(2)
H6 H 0.69990 0.65660 -0.14780
C10 C 0.2097(2) 0.2264(3) -0.4127(2)
C11 C 0.2979(2) 0.0843(3) -0.4953(2)
H7 H 0.32020 0.08880 -0.45540
C12 C 0.5336(2) 0.4264(3) -0.03333(19)
C13 C 0.0260(2) 0.3353(3) -0.5004(2)
H8 H 0.04340 0.33060 -0.46040
C14 C -0.0331(2) 0.3753(3) -0.5306(2)
H9 H -0.05540 0.39710 -0.51020
C15 C 0.2433(2) 0.2371(3) -0.3490(2)
C16 C 0.6825(2) 0.5518(3) 0.0066(2)
C17 C 0.7155(2) 0.6015(3) -0.0225(2)
C18 C 0.6803(2) 0.5022(3) 0.0879(2)
C19 C 0.6791(3) 0.4559(4) 0.1810(2)
H10 H 0.63500 0.43840 0.16090
C20 C 0.2054(2) 0.1721(3) -0.4949(2)
C21 C -0.0266(2) 0.3545(3) -0.6161(2)
H11 H -0.04380 0.36230 -0.65590
C22 C 0.8074(3) 0.5049(3) 0.2425(2)
H12 H 0.85150 0.52160 0.26340
C23 C 0.2359(2) 0.1214(3) -0.5256(2)
C24 C 0.3256(2) 0.0404(3) -0.5262(2)
H13 H 0.36760 0.01690 -0.50590
C25 C 0.2038(2) 0.1099(3) -0.5850(2)
H14 H 0.16180 0.13250 -0.60660
C26 C 0.7124(2) 0.4915(3) 0.1517(2)
C27 C 0.8079(3) 0.6798(3) -0.0210(2)
H15 H 0.84930 0.70430 0.00010
C28 C 0.6865(2) 0.6100(3) -0.0817(2)
H16 H 0.64460 0.58750 -0.10380
C29 C 0.5024(2) 0.4271(3) -0.0930(2)
H17 H 0.52060 0.45630 -0.11400
C30 C 0.4436(2) 0.3835(3) -0.1210(2)
H18 H 0.42370 0.38270 -0.16120
C31 C 0.7119(3) 0.4466(4) 0.2404(2)
H19 H 0.68900 0.42270 0.25960
C32 C 0.2155(3) 0.2886(3) -0.3222(2)
H20 H 0.17700 0.31830 -0.34390
C33 C 0.2458(3) 0.2952(4) -0.2628(2)
H21 H 0.22690 0.33020 -0.24530
C34 C 0.3023(3) 0.1978(3) -0.3151(2)
H22 H 0.32410 0.16580 -0.33180
C35 C 0.7783(3) 0.5167(3) 0.1833(2)
H23 H 0.80220 0.54090 0.16510
C36 C 0.3284(3) 0.2072(4) -0.2559(2)
H24 H 0.36760 0.17920 -0.23330
N1 N -0.06078(19) 0.3846(3) -0.58827(18)
N2 N 0.29547(19) 0.0302(2) -0.58330(17)
N3 N 0.3008(2) 0.2539(3) -0.22911(18)
N4 N 0.15295(19) 0.2680(2) -0.44090(17)
N5 N 0.14800(19) 0.2109(2) -0.52763(17)
N6 N 0.23813(19) 0.1776(2) -0.43735(17)
N7 N 0.4135(2) 0.3423(3) -0.09317(18)
N8 N 0.7802(2) 0.6868(2) -0.07857(18)
N9 N 0.7758(2) 0.4710(3) 0.27145(18)
N10 N 0.62287(19) 0.4624(2) 0.05853(17)
N11 N 0.62625(18) 0.5115(2) -0.02705(17)
N12 N 0.71152(19) 0.5495(2) 0.06460(17)
Mo2A Mo 0.48987(2) 0.29143(3) 0.356483(18)
Mo3A Mo 0.49867(2) 0.08883(3) 0.360559(17)
Mo5A Mo 0.408372(19) 0.19330(2) 0.208976(18)
O1A O 0.5573(2) 0.4671(3) 0.2996(2)
O2A O 0.45132(19) 0.3583(2) 0.28792(17)
O3A O 0.4210(2) 0.2871(3) 0.37031(19)
O4A O 0.5412(2) 0.3561(3) 0.40675(18)
O5A O 0.53297(18) 0.1900(2) 0.39356(16)
O6A O 0.4487(2) 0.1859(2) 0.28582(17)
O7A O 0.43572(19) 0.2822(2) 0.18442(17)
O8A O 0.32406(18) 0.1988(2) 0.18400(19)
O9A O 0.4240(2) 0.1046(3) 0.17681(18)
O10A O 0.5519(2) 0.0253(3) 0.41290(18)
O11A O 0.42629(19) 0.0831(3) 0.36890(18)
O12A O 0.46537(19) 0.0141(2) 0.29354(16)
O13A O 0.5623(4) -0.1011(4) 0.2945(3)
Ag1B Ag -0.155830(19) 0.45761(3) -0.632204(17)
Ag1B* Ag 0.844170(19) 0.45761(3) 0.367796(17)
Ag2B Ag 0.82282(2) 0.75282(3) -0.132803(17)
N1B N 0.43922(19) -0.1154(3) -0.58827(18)
N8B N 0.2802(2) 0.1868(2) -0.07857(18)
N9B N 0.2758(2) -0.0290(3) -0.72855(18)
#END
