
#######################################################################
#
#                 Cambridge Crystallographic Data Centre
#                                CCDC
#
#######################################################################
#
# If this CIF has been generated from an entry in the Cambridge
# Structural Database, then it will include bibliographic, chemical,
# crystal, experimental, refinement or atomic coordinate data resulting
# from the CCDC's data processing and validation procedures.
#
#######################################################################

data_CSD_CIF_QODHUO
_audit_creation_date 2014-03-27
_audit_creation_method CSD-ConQuest-V1
_database_code_CSD QODHUO
_database_code_depnum_ccdc_archive 'CCDC 976113'
_chemical_formula_sum 'C72 H48 Ag4 Mo8 N24 O26'
_chemical_formula_moiety
;
(C36 H24 Ag2 N12 2+)2n,n(Mo8 O26 4-)
;
_journal_coden_Cambridge 222
_journal_volume 43
_journal_year 2014
_journal_page_first 7146
_journal_name_full 'Dalton Trans. '
loop_
_publ_author_name
"Lei Zhang"
"Xiaofei Kuang"
"Xiaoyuan Wu"
"Wenbin Yang"
"Canzhong Lu"
_chemical_name_systematic
;
catena-[bis(bis(\m~3~-2,4,6-tri(pyridin-4-yl)-1,3,5-triazine)-di-silver) 
tetrakis(\m~3~-oxido)-octakis(\m~2~-oxido)-tetradecakis(oxido)-octa-molybdenum
]
;
_cell_volume   8365.336
_exptl_crystal_colour 'brown'
_exptl_crystal_density_diffrn 2.274
_exptl_crystal_description 'block-like'
_diffrn_ambient_temperature 160.0
#These two values have been output from a single CSD field.
_refine_ls_R_factor_gt 0.0303
_refine_ls_wR_factor_gt 0.0303
_symmetry_cell_setting monoclinic
_symmetry_space_group_name_H-M 'C 2/c'
_symmetry_Int_Tables_number 15
loop_
_symmetry_equiv_pos_site_id
_symmetry_equiv_pos_as_xyz
1 x,y,z
2 -x,y,1/2-z
3 1/2+x,1/2+y,z
4 1/2-x,1/2+y,1/2-z
5 -x,-y,-z
6 x,-y,-1/2+z
7 -1/2-x,-1/2-y,-z
8 -1/2+x,-1/2-y,-1/2+z
_cell_length_a 22.0984(6)
_cell_length_b 16.3321(4)
_cell_length_c 25.6479(11)
_cell_angle_alpha 90
_cell_angle_beta 115.350(4)
_cell_angle_gamma 90
_cell_formula_units_Z 4
loop_
_atom_type_symbol
_atom_type_radius_bond
C 0.68
H 0.23
Ag 1.45
Mo 1.54
N 0.68
O 0.68
loop_
_atom_site_label
_atom_site_type_symbol
_atom_site_fract_x
_atom_site_fract_y
_atom_site_fract_z
Mo1 Mo 0.50000 -0.40447(4) 0.25000
Mo2 Mo 0.489173(19) -0.29178(2) 0.356255(16)
Mo3 Mo 0.498567(19) -0.08802(2) 0.360442(15)
Mo4 Mo 0.50000 0.03983(4) 0.25000
Mo5 Mo 0.408511(18) -0.19334(2) 0.208901(16)
O1 O 0.5568(2) -0.4664(2) 0.29996(17)
O2 O 0.45005(17) -0.3589(2) 0.28771(15)
O3 O 0.54074(18) -0.3576(2) 0.40598(15)
O4 O 0.42060(18) -0.2872(2) 0.37064(17)
O5 O 0.53311(17) -0.1903(2) 0.39334(14)
O6 O 0.4480(2) -0.1855(2) 0.28581(15)
O7 O 0.43685(18) -0.2830(2) 0.18549(15)
O8 O 0.42471(19) -0.1041(2) 0.17732(17)
O9 O 0.32380(17) -0.1994(2) 0.18372(17)
O10 O 0.55208(18) -0.0239(2) 0.41256(15)
O11 O 0.42615(18) -0.0831(2) 0.36916(15)
O12 O 0.46471(18) -0.0134(2) 0.29305(15)
O13 O 0.5621(3) 0.1029(4) 0.2949(3)
Ag1 Ag 0.343962(17) 0.04249(2) 0.367891(15)
Ag2 Ag 0.822846(18) 0.24840(2) 0.867299(15)
C1 C 0.6240(2) 0.2429(3) 0.50258(19)
C2 C 0.7350(2) 0.4351(3) 0.38856(19)
H1 H 0.71290 0.44190 0.34880
C3 C 0.5334(2) 0.1871(3) 0.41134(19)
H2 H 0.55530 0.20780 0.39020
C4 C 1.2198(2) -0.1516(3) 0.89215(19)
H3 H 1.19970 -0.15610 0.85220
C5 C 0.9435(2) 0.1569(3) 0.9650(2)
H4 H 0.92330 0.18460 0.98500
C6 C 0.5598(2) 0.1975(3) 0.47047(19)
C7 C 1.2784(2) -0.1378(3) 1.0098(2)
H5 H 1.29930 -0.13440 1.04980
C8 C 1.0975(2) 0.0304(3) 1.00139(18)
C9 C 0.5261(2) 0.1644(3) 0.50035(19)
H6 H 0.54330 0.16910 0.54030
C10 C 0.7982(2) 0.4160(3) 0.50513(19)
H7 H 0.82050 0.41170 0.54510
C11 C 1.0034(2) 0.1165(3) 0.99665(19)
H8 H 1.02310 0.11810 1.03680
C12 C 0.7433(2) 0.2628(3) 0.65142(19)
C13 C 0.7098(2) 0.2733(3) 0.58766(19)
C14 C 1.1789(2) 0.0443(3) 1.1813(2)
H9 H 1.13490 0.06180 1.16130
C15 C 1.1826(2) -0.0512(3) 1.00712(19)
C16 C 0.7055(2) 0.3276(3) 0.50523(19)
C17 C 1.3075(3) -0.0047(3) 1.2427(2)
H10 H 1.35160 -0.02130 1.26360
C18 C 1.0331(2) 0.0740(3) 0.96739(18)
C19 C 1.2156(2) -0.1011(3) 0.97799(19)
C20 C 0.8261(2) 0.4596(3) 0.4742(2)
H11 H 0.86820 0.48300 0.49450
C21 C 1.3081(2) -0.1794(3) 0.9796(2)
H12 H 1.34960 -0.20360 1.00050
C22 C 0.4666(2) 0.1246(3) 0.4696(2)
H13 H 0.44400 0.10310 0.48990
C23 C 0.4736(2) 0.1451(3) 0.3844(2)
H14 H 0.45630 0.13740 0.34470
C24 C 1.1803(2) -0.0019(3) 1.08827(19)
C25 C 1.0022(2) 0.0735(3) 0.90718(19)
H15 H 1.02060 0.04450 0.88620
C26 C 0.7038(2) 0.3902(3) 0.41542(19)
H16 H 0.66170 0.36770 0.39400
C27 C 0.8282(3) 0.2937(3) 0.7444(2)
H17 H 0.86730 0.32180 0.76700
C28 C 0.7357(2) 0.3786(3) 0.47464(19)
C29 C 0.7153(2) 0.2104(3) 0.6781(2)
H18 H 0.67720 0.17990 0.65630
C30 C 0.8022(2) 0.3028(3) 0.6852(2)
H19 H 0.82390 0.33510 0.66860
C31 C 1.2120(2) 0.0536(3) 1.2406(2)
H20 H 1.18920 0.07770 1.25990
C32 C 1.2124(2) 0.0084(3) 1.15210(19)
C33 C 0.9435(2) 0.1173(3) 0.8795(2)
H21 H 0.92370 0.11850 0.83940
C34 C 1.1861(2) -0.1091(3) 0.91845(19)
H22 H 1.14430 -0.08620 0.89650
C35 C 0.7454(3) 0.2048(3) 0.7376(2)
H23 H 0.72640 0.17000 0.75510
C36 C 1.2784(2) -0.0164(3) 1.1835(2)
H24 H 1.30240 -0.04020 1.16520
N1 N 0.43917(19) 0.1148(2) 0.41236(16)
N2 N 0.79571(18) 0.4697(2) 0.41672(16)
N3 N 0.8006(2) 0.2468(3) 0.77150(17)
N4 N 0.64780(18) 0.2894(2) 0.47277(16)
N5 N 0.73861(18) 0.3224(2) 0.56319(16)
N6 N 0.65314(18) 0.2315(2) 0.55956(15)
N7 N 0.91320(19) 0.1582(2) 0.90741(16)
N8 N 1.28011(19) -0.1866(2) 0.92153(17)
N9 N 1.2758(2) 0.0291(3) 1.27176(17)
N10 N 1.12652(18) -0.0110(2) 0.97330(15)
N11 N 1.21121(18) -0.0494(2) 1.06478(16)
N12 N 1.12245(18) 0.0375(2) 1.05879(16)
Mo2A Mo 0.510827(19) -0.29178(2) 0.143745(16)
Mo3A Mo 0.501433(19) -0.08802(2) 0.139558(15)
Mo5A Mo 0.591489(18) -0.19334(2) 0.291099(16)
O1A O 0.4432(2) -0.4664(2) 0.20004(17)
O2A O 0.54995(17) -0.3589(2) 0.21229(15)
O3A O 0.45926(18) -0.3576(2) 0.09402(15)
O4A O 0.57940(18) -0.2872(2) 0.12936(17)
O5A O 0.46689(17) -0.1903(2) 0.10666(14)
O6A O 0.5520(2) -0.1855(2) 0.21419(15)
O7A O 0.56315(18) -0.2830(2) 0.31451(15)
O8A O 0.57529(19) -0.1041(2) 0.32268(17)
O9A O 0.67620(17) -0.1994(2) 0.31628(17)
O10A O 0.44792(18) -0.0239(2) 0.08744(15)
O11A O 0.57385(18) -0.0831(2) 0.13084(15)
O12A O 0.53529(18) -0.0134(2) 0.20695(15)
O13A O 0.4379(3) 0.1029(4) 0.2051(3)
Ag1* Ag 1.343962(17) 0.04249(2) 1.367891(15)
Ag1B Ag 0.843962(17) 0.54249(2) 0.367891(15)
Ag2B Ag 1.322846(18) -0.25160(2) 0.867299(15)
N2B N 0.29571(18) -0.0303(2) 0.41672(16)
N8B N 0.78011(19) 0.3134(2) 0.92153(17)
N9* N 0.2758(2) 0.0291(3) 0.27176(17)
#END
