
#######################################################################
#
#                 Cambridge Crystallographic Data Centre
#                                CCDC
#
#######################################################################
#
# If this CIF has been generated from an entry in the Cambridge
# Structural Database, then it will include bibliographic, chemical,
# crystal, experimental, refinement or atomic coordinate data resulting
# from the CCDC's data processing and validation procedures.
#
#######################################################################

data_CSD_CIF_QODHUO10
_audit_creation_date 2014-03-27
_audit_creation_method CSD-ConQuest-V1
_database_code_CSD QODHUO10
_database_code_depnum_ccdc_archive 'CCDC 956847'
_chemical_formula_sum 'C72 H48 Ag4 Mo8 N24 O26'
_chemical_formula_moiety
;
(C36 H24 Ag2 N12 2+)2n,n(Mo8 O26 4-)
;
_journal_coden_Cambridge 222
_journal_volume 43
_journal_year 2014
_journal_page_first 7146
_journal_name_full 'Dalton Trans. '
loop_
_publ_author_name
"Lei Zhang"
"Xiaofei Kuang"
"Xiaoyuan Wu"
"Wenbin Yang"
"Canzhong Lu"
_chemical_name_systematic
;
catena-(bis(bis(\m~3~-2,4,6-tris(Pyridin-4-yl)-1,3,5-triazine)-di-silver) 
tetrakis(\m~3~-oxo)-octakis(\m~2~-oxo)-tetradecaoxo-octa-molybdenum)
;
_cell_volume   8341.167
_exptl_crystal_colour 'brown'
_exptl_crystal_density_diffrn 2.281
_exptl_crystal_description 'block-like'
_diffrn_ambient_temperature 130
#These two values have been output from a single CSD field.
_refine_ls_R_factor_gt 0.0353
_refine_ls_wR_factor_gt 0.0353
_symmetry_cell_setting monoclinic
_symmetry_space_group_name_H-M 'C 2/c'
_symmetry_Int_Tables_number 15
loop_
_symmetry_equiv_pos_site_id
_symmetry_equiv_pos_as_xyz
1 x,y,z
2 -x,y,1/2-z
3 1/2+x,1/2+y,z
4 1/2-x,1/2+y,1/2-z
5 -x,-y,-z
6 x,-y,-1/2+z
7 -1/2-x,-1/2-y,-z
8 -1/2+x,-1/2-y,-1/2+z
_cell_length_a 22.0935(9)
_cell_length_b 16.2897(4)
_cell_length_c 25.6306(11)
_cell_angle_alpha 90
_cell_angle_beta 115.277(5)
_cell_angle_gamma 90
_cell_formula_units_Z 4
loop_
_atom_type_symbol
_atom_type_radius_bond
C 0.68
H 0.23
Ag 1.45
Mo 1.54
N 0.68
O 0.68
loop_
_atom_site_label
_atom_site_type_symbol
_atom_site_fract_x
_atom_site_fract_y
_atom_site_fract_z
Ag1 Ag -0.65611(2) -0.45704(3) -0.632255(18)
Ag2 Ag -0.17711(2) -0.25187(3) -0.132785(18)
N1 N -0.2616(2) -0.1776(3) -0.43679(19)
N2 N 0.2799(2) -0.6869(3) -0.07872(19)
N3 N 0.1226(2) -0.4629(3) 0.05882(19)
N4 N -0.5608(2) -0.3842(3) -0.58779(19)
N5 N -0.0868(2) -0.3422(3) -0.09259(19)
C1 C -0.3763(3) -0.2572(3) -0.4976(2)
N6 N 0.1263(2) -0.5111(3) -0.02678(18)
N7 N -0.3519(2) -0.2102(3) -0.52719(19)
C2 C -0.2649(3) -0.0649(3) -0.6119(2)
H1 H -0.28690 -0.05780 -0.65160
N8 N -0.2042(2) -0.0304(3) -0.58332(19)
N9 N 0.2115(2) -0.5499(3) 0.06477(19)
N10 N -0.1996(2) -0.2533(3) -0.2287(2)
C3 C 0.2780(3) -0.6377(3) 0.0092(2)
H2 H 0.29890 -0.63400 0.04920
C4 C -0.2016(2) -0.0842(3) -0.4950(2)
H3 H -0.17920 -0.08870 -0.45510
C5 C 0.2195(3) -0.6517(3) -0.1081(2)
H4 H 0.19950 -0.65590 -0.14810
C6 C -0.4402(2) -0.3022(3) -0.5298(2)
N11 N 0.2758(2) -0.4708(3) 0.2718(2)
C7 C 0.0976(2) -0.4696(3) 0.0011(2)
N12 N -0.3470(2) -0.2680(3) -0.44068(18)
C8 C -0.0564(3) -0.3430(3) -0.0349(2)
H5 H -0.07640 -0.31470 -0.01480
C9 C -0.4671(3) -0.3120(3) -0.5890(2)
H6 H -0.44550 -0.29050 -0.61020
C10 C 0.0031(3) -0.3838(3) -0.0036(2)
H7 H 0.02250 -0.38290 0.03650
C11 C -0.2566(3) -0.2372(3) -0.3483(2)
C12 C 0.1804(3) -0.5022(3) 0.0883(2)
C13 C 0.1789(3) -0.4562(4) 0.1816(2)
H8 H 0.13480 -0.43880 0.16180
C14 C -0.4740(3) -0.3351(3) -0.4998(2)
H9 H -0.45670 -0.33030 -0.45990
C15 C 0.2155(2) -0.6013(3) -0.0223(2)
C16 C -0.1738(3) -0.0409(3) -0.5259(2)
H10 H -0.13170 -0.01780 -0.50570
C17 C -0.2905(3) -0.2267(3) -0.4124(2)
C18 C 0.0331(2) -0.4261(3) -0.0330(2)
C19 C 0.3078(3) -0.6796(3) -0.0208(2)
H11 H 0.34930 -0.70400 0.00020
C20 C -0.2638(3) -0.1209(3) -0.5251(2)
C21 C -0.0567(3) -0.3834(4) -0.1206(2)
H12 H -0.07650 -0.38240 -0.16070
C22 C -0.2944(3) -0.1722(3) -0.4948(2)
C23 C 0.3078(3) -0.5049(4) 0.2429(3)
H13 H 0.35200 -0.52140 0.26370
C24 C 0.1828(3) -0.5515(3) 0.0069(2)
C25 C 0.1856(3) -0.6095(3) -0.0816(2)
H14 H 0.14360 -0.58710 -0.10340
C26 C -0.2961(3) -0.1104(3) -0.5848(2)
H15 H -0.33790 -0.13380 -0.60610
C27 C -0.5269(3) -0.3544(3) -0.6160(2)
H16 H -0.54420 -0.36250 -0.65570
C28 C -0.5335(3) -0.3750(4) -0.5303(2)
H17 H -0.55610 -0.39680 -0.51010
C29 C -0.1715(3) -0.2067(4) -0.2552(2)
H18 H -0.13220 -0.17900 -0.23250
C30 C 0.2122(3) -0.4921(3) 0.1520(2)
C31 C 0.0023(3) -0.4271(3) -0.0927(2)
H19 H 0.02060 -0.45640 -0.11360
C32 C -0.1978(3) -0.1972(4) -0.3148(2)
H20 H -0.17620 -0.16480 -0.33150
C33 C 0.2122(3) -0.4468(4) 0.2406(3)
H21 H 0.18940 -0.42250 0.25990
C34 C -0.2848(3) -0.2894(4) -0.3218(2)
H22 H -0.32290 -0.31980 -0.34360
C35 C 0.2783(3) -0.5167(3) 0.1834(2)
H23 H 0.30220 -0.54050 0.16500
C36 C -0.2551(3) -0.2950(4) -0.2626(3)
H24 H -0.27440 -0.32950 -0.24500
Mo1 Mo -0.50134(2) -0.58796(3) -0.639577(19)
Mo2 Mo -0.59137(2) -0.69324(3) -0.79066(2)
Mo3 Mo -0.51064(2) -0.79194(3) -0.643666(19)
Mo4 Mo -0.50000 -0.90469(5) -0.75000
Mo5 Mo -0.50000 -0.46013(5) -0.75000
O1 O -0.5628(2) -0.7830(3) -0.81435(18)
O2 O -0.5519(2) -0.6848(3) -0.71378(18)
O3 O -0.4591(2) -0.8574(3) -0.59390(19)
O4 O -0.5503(2) -0.8586(3) -0.71245(18)
O5 O -0.5351(2) -0.5125(3) -0.70697(18)
O6 O -0.4477(2) -0.5232(3) -0.58752(18)
O7 O -0.5791(2) -0.7869(3) -0.6290(2)
O8 O -0.6760(2) -0.6992(3) -0.8169(2)
O9 O -0.4434(2) -0.9665(3) -0.6998(2)
O10 O -0.4666(2) -0.6900(3) -0.60683(18)
O11 O -0.5750(2) -0.6035(3) -0.8225(2)
O12 O -0.4383(3) -0.3959(4) -0.7050(3)
O13 O -0.5733(2) -0.5821(3) -0.63063(18)
Ag1* Ag 0.34389(2) -0.45704(3) 0.367745(18)
Ag1B Ag -0.15611(2) 0.04296(3) -0.632255(18)
Ag2B Ag 0.32289(2) -0.75187(3) -0.132785(18)
N2B N -0.2201(2) -0.1869(3) -0.07872(19)
N8B N -0.7042(2) -0.5304(3) -0.58332(19)
N11* N -0.7242(2) -0.4708(3) -0.7282(2)
Mo1A Mo -0.49866(2) -0.58796(3) -0.860423(19)
Mo2A Mo -0.40863(2) -0.69324(3) -0.70934(2)
Mo3A Mo -0.48936(2) -0.79194(3) -0.856334(19)
O1A O -0.4372(2) -0.7830(3) -0.68565(18)
O2A O -0.4481(2) -0.6848(3) -0.78622(18)
O3A O -0.5409(2) -0.8574(3) -0.90610(19)
O4A O -0.4497(2) -0.8586(3) -0.78755(18)
O5A O -0.4649(2) -0.5125(3) -0.79303(18)
O6A O -0.5523(2) -0.5232(3) -0.91248(18)
O7A O -0.4209(2) -0.7869(3) -0.8710(2)
O8A O -0.3240(2) -0.6992(3) -0.6831(2)
O9A O -0.5566(2) -0.9665(3) -0.8002(2)
O10A O -0.5334(2) -0.6900(3) -0.89317(18)
O11A O -0.4250(2) -0.6035(3) -0.6775(2)
O12A O -0.5617(3) -0.3959(4) -0.7950(3)
O13A O -0.4267(2) -0.5821(3) -0.86937(18)
#END
