
#######################################################################
#
#                 Cambridge Crystallographic Data Centre
#                                CCDC
#
#######################################################################
#
# If this CIF has been generated from an entry in the Cambridge
# Structural Database, then it will include bibliographic, chemical,
# crystal, experimental, refinement or atomic coordinate data resulting
# from the CCDC's data processing and validation procedures.
#
#######################################################################

data_CSD_CIF_QODHUO08
_audit_creation_date 2014-03-27
_audit_creation_method CSD-ConQuest-V1
_database_code_CSD QODHUO08
_database_code_depnum_ccdc_archive 'CCDC 956844'
_chemical_formula_sum 'C72 H48 Ag4 Mo8 N24 O26'
_chemical_formula_moiety
;
(C36 H24 Ag2 N12 2+)2n,n(Mo8 O26 4-)
;
_journal_coden_Cambridge 222
_journal_volume 43
_journal_year 2014
_journal_page_first 7146
_journal_name_full 'Dalton Trans. '
loop_
_publ_author_name
"Lei Zhang"
"Xiaofei Kuang"
"Xiaoyuan Wu"
"Wenbin Yang"
"Canzhong Lu"
_chemical_name_systematic
;
catena-(bis(bis(\m~3~-2,4,6-tris(Pyridin-4-yl)-1,3,5-triazine)-di-silver) 
tetrakis(\m~3~-oxo)-octakis(\m~2~-oxo)-tetradecaoxo-octa-molybdenum)
;
_cell_volume   8507.045
_exptl_crystal_colour 'brown'
_exptl_crystal_density_diffrn 2.236
_exptl_crystal_description 'block-like'
_diffrn_ambient_temperature 470
#These two values have been output from a single CSD field.
_refine_ls_R_factor_gt 0.0509
_refine_ls_wR_factor_gt 0.0509
_symmetry_cell_setting monoclinic
_symmetry_space_group_name_H-M 'C 2/c'
_symmetry_Int_Tables_number 15
loop_
_symmetry_equiv_pos_site_id
_symmetry_equiv_pos_as_xyz
1 x,y,z
2 -x,y,1/2-z
3 1/2+x,1/2+y,z
4 1/2-x,1/2+y,1/2-z
5 -x,-y,-z
6 x,-y,-1/2+z
7 -1/2-x,-1/2-y,-z
8 -1/2+x,-1/2-y,-1/2+z
_cell_length_a 21.9416(8)
_cell_length_b 16.7734(6)
_cell_length_c 25.5513(14)
_cell_angle_alpha 90
_cell_angle_beta 115.225(5)
_cell_angle_gamma 90
_cell_formula_units_Z 4
loop_
_atom_type_symbol
_atom_type_radius_bond
C 0.68
H 0.23
Ag 1.45
Mo 1.54
N 0.68
O 0.68
loop_
_atom_site_label
_atom_site_type_symbol
_atom_site_fract_x
_atom_site_fract_y
_atom_site_fract_z
Ag1 Ag -0.65574(3) 0.04241(5) -0.63278(3)
Ag2 Ag -0.17856(4) 0.24466(5) -0.13319(3)
C1 C 0.0971(3) 0.0292(4) -0.0006(3)
C2 C -0.3762(3) 0.2438(4) -0.4993(3)
C3 C -0.4672(4) 0.1896(5) -0.5903(3)
H1 H -0.44570 0.21040 -0.61170
C4 C -0.4401(3) 0.1995(4) -0.5319(3)
C5 C 0.0032(3) 0.1153(5) -0.0053(3)
H2 H 0.02270 0.11620 0.03500
C6 C 0.1812(3) -0.0522(4) 0.0055(3)
C7 C 0.2200(4) -0.1514(5) -0.1086(3)
H3 H 0.20040 -0.15550 -0.14870
C8 C -0.2024(3) 0.4165(4) -0.4956(3)
H4 H -0.18050 0.41320 -0.45550
C9 C 0.0329(3) 0.0735(4) -0.0348(3)
C10 C -0.0563(4) 0.1557(5) -0.0367(3)
H5 H -0.07600 0.18360 -0.01640
C11 C -0.2906(3) 0.2746(4) -0.4140(3)
C12 C 0.2763(4) -0.1380(5) 0.0083(3)
H6 H 0.29680 -0.13470 0.04850
C13 C -0.2642(4) 0.4349(5) -0.6121(3)
H7 H -0.28580 0.44170 -0.65190
C14 C -0.2576(4) 0.2637(5) -0.3503(3)
C15 C 0.1783(4) 0.0435(6) 0.1793(4)
H8 H 0.13420 0.06120 0.15910
C16 C -0.4748(4) 0.1657(5) -0.5024(3)
H9 H -0.45810 0.17030 -0.46250
C17 C 0.2139(3) -0.1014(4) -0.0241(3)
C18 C 0.2116(4) 0.0080(5) 0.1506(3)
C19 C 0.1794(3) -0.0015(4) 0.0865(3)
C20 C -0.2958(4) 0.3896(5) -0.5858(3)
H10 H -0.33780 0.36700 -0.60780
C21 C -0.2950(3) 0.3279(4) -0.4964(3)
C22 C -0.2646(4) 0.3782(4) -0.5268(3)
C23 C -0.5328(4) 0.1263(6) -0.5330(4)
H11 H -0.55470 0.10350 -0.51250
C24 C 0.3067(4) -0.1795(5) -0.0216(4)
H12 H 0.34820 -0.20360 -0.00030
C25 C -0.1751(4) 0.4590(5) -0.5267(3)
H13 H -0.13300 0.48200 -0.50620
C26 C 0.1860(3) -0.1091(5) -0.0826(3)
H14 H 0.14440 -0.08610 -0.10500
C27 C 0.0012(4) 0.0739(5) -0.0939(3)
H15 H 0.01880 0.04460 -0.11510
C28 C -0.5273(4) 0.1482(6) -0.6175(3)
H16 H -0.54500 0.14160 -0.65740
C29 C 0.2110(4) 0.0526(7) 0.2387(4)
H17 H 0.18790 0.07660 0.25780
C30 C 0.3050(4) -0.0057(6) 0.2411(4)
H18 H 0.34890 -0.02360 0.26230
C31 C -0.0564(4) 0.1172(6) -0.1219(3)
H19 H -0.07540 0.11920 -0.16210
C32 C 0.2772(4) -0.0169(5) 0.1821(4)
H20 H 0.30170 -0.04030 0.16410
C33 C -0.1735(5) 0.2932(7) -0.2577(4)
H21 H -0.13470 0.32160 -0.23520
C34 C -0.2549(5) 0.2056(6) -0.2645(4)
H22 H -0.27280 0.16970 -0.24710
C35 C -0.1986(4) 0.3022(6) -0.3165(4)
H23 H -0.17640 0.33350 -0.33300
C36 C -0.2856(5) 0.2134(6) -0.3233(4)
H24 H -0.32480 0.18530 -0.34510
N1 N -0.5607(3) 0.1177(4) -0.5897(3)
N2 N -0.2044(3) 0.4694(4) -0.5833(3)
N3 N -0.1997(4) 0.2475(5) -0.2304(3)
N4 N -0.3518(3) 0.2893(4) -0.5288(3)
N5 N -0.2624(3) 0.3228(4) -0.4384(3)
N6 N -0.3477(3) 0.2340(4) -0.4423(3)
N7 N -0.0869(3) 0.1568(4) -0.0943(3)
N8 N 0.2797(3) -0.1866(4) -0.0787(3)
N9 N 0.2745(4) 0.0282(5) 0.2700(3)
N10 N 0.1251(3) -0.0122(4) -0.0280(3)
N11 N 0.2103(3) -0.0488(4) 0.0631(3)
N12 N 0.1225(3) 0.0378(4) 0.0569(3)
Mo1 Mo -0.50000 0.03218(7) -0.75000
Mo2 Mo -0.50144(3) -0.09041(4) -0.63911(3)
Mo3 Mo -0.50815(3) -0.28975(4) -0.64243(3)
Mo4 Mo -0.50000 -0.40459(8) -0.75000
Mo5 Mo -0.59257(3) -0.19270(4) -0.79014(3)
O1 O -0.4365(8) 0.0935(8) -0.7085(8)
O2 O -0.5340(4) -0.0163(4) -0.7054(3)
O3 O -0.4466(4) -0.0311(5) -0.5858(3)
O4 O -0.5721(4) -0.0811(5) -0.6302(3)
O5 O -0.4671(3) -0.1897(4) -0.6063(3)
O6 O -0.5527(4) -0.1868(4) -0.7145(3)
O7 O -0.5761(4) -0.1049(4) -0.8228(3)
O8 O -0.6767(3) -0.1964(4) -0.8181(4)
O9 O -0.4559(4) -0.3490(6) -0.5913(4)
O10 O -0.5776(4) -0.2879(6) -0.6289(4)
O11 O -0.5465(4) -0.3566(5) -0.7108(3)
O12 O -0.5657(3) -0.2802(4) -0.8159(3)
O13 O -0.4414(5) -0.4638(6) -0.7019(4)
Ag1* Ag 0.34426(3) 0.04241(5) 0.36722(3)
Ag1B Ag -0.15574(3) 0.54241(5) -0.63278(3)
Ag2B Ag 0.32144(4) -0.25534(5) -0.13319(3)
N2B N -0.7044(3) -0.0306(4) -0.5833(3)
N8B N -0.2203(3) 0.3134(4) -0.0787(3)
N9* N -0.7255(4) 0.0282(5) -0.7300(3)
Mo2A Mo -0.49856(3) -0.09041(4) -0.86089(3)
Mo3A Mo -0.49185(3) -0.28975(4) -0.85757(3)
Mo5A Mo -0.40743(3) -0.19270(4) -0.70986(3)
O1A O -0.5635(8) 0.0935(8) -0.7915(8)
O2A O -0.4660(4) -0.0163(4) -0.7946(3)
O3A O -0.5534(4) -0.0311(5) -0.9142(3)
O4A O -0.4279(4) -0.0811(5) -0.8698(3)
O5A O -0.5329(3) -0.1897(4) -0.8937(3)
O6A O -0.4473(4) -0.1868(4) -0.7855(3)
O7A O -0.4239(4) -0.1049(4) -0.6772(3)
O8A O -0.3233(3) -0.1964(4) -0.6819(4)
O9A O -0.5441(4) -0.3490(6) -0.9087(4)
O10A O -0.4224(4) -0.2879(6) -0.8711(4)
O11A O -0.4535(4) -0.3566(5) -0.7892(3)
O12A O -0.4343(3) -0.2802(4) -0.6841(3)
O13A O -0.5586(5) -0.4638(6) -0.7981(4)
#END
