
#######################################################################
#
#                 Cambridge Crystallographic Data Centre
#                                CCDC
#
#######################################################################
#
# If this CIF has been generated from an entry in the Cambridge
# Structural Database, then it will include bibliographic, chemical,
# crystal, experimental, refinement or atomic coordinate data resulting
# from the CCDC's data processing and validation procedures.
#
#######################################################################

data_CSD_CIF_QODHUO02
_audit_creation_date 2014-03-27
_audit_creation_method CSD-ConQuest-V1
_database_code_CSD QODHUO02
_database_code_depnum_ccdc_archive 'CCDC 956860'
_chemical_formula_sum 'C72 H48 Ag4 Mo8 N24 O26'
_chemical_formula_moiety
;
(C36 H24 Ag2 N12 2+)2n,n(Mo8 O26 4-)
;
_journal_coden_Cambridge 222
_journal_volume 43
_journal_year 2014
_journal_page_first 7146
_journal_name_full 'Dalton Trans. '
loop_
_publ_author_name
"Lei Zhang"
"Xiaofei Kuang"
"Xiaoyuan Wu"
"Wenbin Yang"
"Canzhong Lu"
_chemical_name_systematic
;
catena-[bis(bis(\m~3~-2,4,6-tri(pyridin-4-yl)-1,3,5-triazine)-di-silver) 
tetrakis(\m~3~-oxido)-octakis(\m~2~-oxido)-tetradecakis(oxido)-octa-molybdenum
]
;
_cell_volume   8498.270
_exptl_crystal_colour 'brown'
_exptl_crystal_density_diffrn 2.239
_exptl_crystal_description 'block-like'
_diffrn_ambient_temperature 500
#These two values have been output from a single CSD field.
_refine_ls_R_factor_gt 0.0578
_refine_ls_wR_factor_gt 0.0578
_symmetry_cell_setting monoclinic
_symmetry_space_group_name_H-M 'C 2/c'
_symmetry_Int_Tables_number 15
loop_
_symmetry_equiv_pos_site_id
_symmetry_equiv_pos_as_xyz
1 x,y,z
2 -x,y,1/2-z
3 1/2+x,1/2+y,z
4 1/2-x,1/2+y,1/2-z
5 -x,-y,-z
6 x,-y,-1/2+z
7 -1/2-x,-1/2-y,-z
8 -1/2+x,-1/2-y,-1/2+z
_cell_length_a 21.9302(11)
_cell_length_b 16.7795(8)
_cell_length_c 25.4880(18)
_cell_angle_alpha 90
_cell_angle_beta 115.029(7)
_cell_angle_gamma 90
_cell_formula_units_Z 4
loop_
_atom_type_symbol
_atom_type_radius_bond
C 0.68
H 0.23
Ag 1.45
Mo 1.54
N 0.68
O 0.68
loop_
_atom_site_label
_atom_site_type_symbol
_atom_site_fract_x
_atom_site_fract_y
_atom_site_fract_z
Ag1 Ag 0.34423(4) 0.45588(6) -0.63369(3)
Ag2 Ag 0.32111(5) 0.75773(6) -0.13403(4)
C1 C 0.5976(4) 0.9718(5) -0.0014(4)
C2 C 0.0324(5) 0.8091(6) -0.5918(4)
H1 H 0.05370 0.78780 -0.61330
C3 C 0.7762(5) 1.1387(5) 0.0070(4)
H2 H 0.79690 1.13470 0.04720
C4 C 0.0597(4) 0.7995(5) -0.5329(4)
C5 C 0.2973(4) 0.5833(5) -0.4971(4)
H3 H 0.31940 0.58730 -0.45700
C6 C 0.1228(4) 0.7556(5) -0.5007(4)
C7 C 0.5035(4) 0.8857(6) -0.0061(4)
H4 H 0.52320 0.88410 0.03410
C8 C 0.5326(4) 0.9279(5) -0.0356(4)
C9 C 0.6815(4) 1.0524(5) 0.0044(4)
C10 C 0.2093(4) 0.7251(5) -0.4149(4)
C11 C 0.7137(4) 1.1017(5) -0.0250(4)
C12 C 0.7196(4) 1.1525(5) -0.1102(4)
H5 H 0.70030 1.15640 -0.15030
C13 C 0.4435(5) 0.8450(6) -0.0380(4)
H6 H 0.42410 0.81610 -0.01780
C14 C 0.7117(4) 0.9917(6) 0.1500(4)
C15 C 0.2348(4) 0.6208(5) -0.5280(4)
C16 C 0.2357(5) 0.5645(6) -0.6133(4)
H7 H 0.21470 0.55860 -0.65330
C17 C 0.2426(5) 0.7363(6) -0.3512(4)
C18 C 0.6787(5) 0.9554(7) 0.1792(5)
H8 H 0.63490 0.93710 0.15890
C19 C 0.0249(5) 0.8342(6) -0.5034(4)
H9 H 0.04190 0.83080 -0.46330
C20 C 0.8063(5) 1.1812(6) -0.0224(5)
H10 H 0.84720 1.20630 -0.00110
C21 C 0.6794(4) 1.0025(5) 0.0848(4)
C22 C 0.2041(5) 0.6093(6) -0.5867(4)
H11 H 0.16200 0.63150 -0.60860
C23 C 0.2047(4) 0.6712(5) -0.4980(4)
C24 C 0.6855(4) 1.1105(5) -0.0838(4)
H12 H 0.64360 1.08840 -0.10610
C25 C 0.3249(5) 0.5409(6) -0.5275(4)
H13 H 0.36720 0.51870 -0.50710
C26 C 0.5011(5) 0.9286(6) -0.0955(4)
H14 H 0.51890 0.95790 -0.11670
C27 C -0.0275(5) 0.8510(7) -0.6191(4)
H15 H -0.04510 0.85830 -0.65900
C28 C 0.8059(6) 1.0046(8) 0.2403(5)
H16 H 0.84950 1.02310 0.26140
C29 C 0.2135(5) 0.7860(7) -0.3244(5)
H17 H 0.17380 0.81310 -0.34590
C30 C -0.0332(5) 0.8723(7) -0.5340(5)
H18 H -0.05570 0.89450 -0.51370
C31 C 0.7107(5) 0.9463(8) 0.2379(4)
H19 H 0.68730 0.92290 0.25690
C32 C 0.2452(7) 0.7937(8) -0.2654(5)
H20 H 0.22660 0.82840 -0.24780
C33 C 0.4431(5) 0.8854(7) -0.1230(4)
H21 H 0.42380 0.88380 -0.16330
C34 C 0.7774(5) 1.0152(7) 0.1808(5)
H22 H 0.80200 1.03740 0.16230
C35 C 0.3020(5) 0.6998(7) -0.3180(4)
H23 H 0.32450 0.66880 -0.33460
C36 C 0.3278(6) 0.7108(8) -0.2582(5)
H24 H 0.36760 0.68450 -0.23530
N1 N 0.2951(4) 0.5295(5) -0.5842(3)
N2 N -0.0606(4) 0.8807(5) -0.5906(3)
N3 N 0.3004(5) 0.7551(6) -0.2320(4)
N4 N 0.2368(4) 0.6773(5) -0.4400(3)
N5 N 0.1476(4) 0.7095(4) -0.5303(3)
N6 N 0.1523(4) 0.7655(5) -0.4434(3)
N7 N 0.7792(4) 1.1876(5) -0.0799(3)
N8 N 0.4127(4) 0.8453(5) -0.0952(3)
N9 N 0.7751(4) 0.9698(6) 0.2695(4)
N10 N 0.6249(3) 1.0135(4) -0.0295(3)
N11 N 0.7107(4) 1.0490(5) 0.0625(3)
N12 N 0.6223(4) 0.9623(4) 0.0561(3)
Mo1 Mo 0.50000 0.46806(9) -0.75000
Mo2 Mo 0.49857(4) 0.59027(5) -0.63878(3)
Mo3 Mo 0.49269(4) 0.78953(5) -0.64193(3)
Mo4 Mo 0.50000 0.90685(9) -0.75000
Mo5 Mo 0.40751(4) 0.69202(5) -0.78956(3)
O1 O 0.5638(9) 0.4059(10) -0.7100(9)
O2 O 0.4668(5) 0.5153(5) -0.7050(4)
O3 O 0.5538(5) 0.5341(8) -0.5842(4)
O4 O 0.4287(4) 0.5794(7) -0.6298(4)
O5 O 0.5331(5) 0.6885(5) -0.6057(4)
O6 O 0.4472(5) 0.6865(5) -0.7147(4)
O7 O 0.4244(5) 0.6038(6) -0.8228(4)
O8 O 0.3234(4) 0.6952(5) -0.8177(4)
O9 O 0.4227(5) 0.7884(7) -0.6293(5)
O10 O 0.5465(5) 0.8457(8) -0.5896(4)
O11 O 0.4550(5) 0.8574(6) -0.7102(4)
O12 O 0.4334(5) 0.7783(5) -0.8173(4)
O13 O 0.5594(7) 0.9652(8) -0.7044(6)
Ag1B Ag -0.15577(4) 0.95588(6) -0.63369(3)
Ag1B* Ag 0.84423(4) 0.95588(6) 0.36631(3)
Ag2B Ag 0.82111(5) 1.25773(6) -0.13403(4)
N2B N 0.4394(4) 0.3807(5) -0.5906(3)
N7B N 0.2792(4) 0.6876(5) -0.0799(3)
N9B N 0.2751(4) 0.4698(6) -0.7305(4)
Mo2A Mo 0.50143(4) 0.59027(5) -0.86122(3)
Mo3A Mo 0.50731(4) 0.78953(5) -0.85807(3)
Mo5A Mo 0.59249(4) 0.69202(5) -0.71044(3)
O1A O 0.4362(9) 0.4059(10) -0.7900(9)
O2A O 0.5332(5) 0.5153(5) -0.7950(4)
O3A O 0.4462(5) 0.5341(8) -0.9158(4)
O4A O 0.5713(4) 0.5794(7) -0.8702(4)
O5A O 0.4669(5) 0.6885(5) -0.8943(4)
O6A O 0.5528(5) 0.6865(5) -0.7853(4)
O7A O 0.5756(5) 0.6038(6) -0.6772(4)
O8A O 0.6766(4) 0.6952(5) -0.6823(4)
O9A O 0.5773(5) 0.7884(7) -0.8707(5)
O10A O 0.4535(5) 0.8457(8) -0.9104(4)
O11A O 0.5450(5) 0.8574(6) -0.7898(4)
O12A O 0.5666(5) 0.7783(5) -0.6827(4)
O13A O 0.4406(7) 0.9652(8) -0.7956(6)
#END
