
#######################################################################
#
#                 Cambridge Crystallographic Data Centre
#                                CCDC
#
#######################################################################
#
# If this CIF has been generated from an entry in the Cambridge
# Structural Database, then it will include bibliographic, chemical,
# crystal, experimental, refinement or atomic coordinate data resulting
# from the CCDC's data processing and validation procedures.
#
#######################################################################

data_CSD_CIF_QODHUO11
_audit_creation_date 2014-03-27
_audit_creation_method CSD-ConQuest-V1
_database_code_CSD QODHUO11
_database_code_depnum_ccdc_archive 'CCDC 956848'
_chemical_formula_sum 'C72 H48 Ag4 Mo8 N24 O26'
_chemical_formula_moiety
;
(C36 H24 Ag2 N12 2+)2n,n(Mo8 O26 4-)
;
_journal_coden_Cambridge 222
_journal_volume 43
_journal_year 2014
_journal_page_first 7146
_journal_name_full 'Dalton Trans. '
loop_
_publ_author_name
"Lei Zhang"
"Xiaofei Kuang"
"Xiaoyuan Wu"
"Wenbin Yang"
"Canzhong Lu"
_chemical_name_systematic
;
catena-(bis(bis(\m~3~-2,4,6-tris(Pyridin-4-yl)-1,3,5-triazine)-di-silver) 
tetrakis(\m~3~-oxo)-octakis(\m~2~-oxo)-tetradecaoxo-octa-molybdenum)
;
_cell_volume   8352.736
_exptl_crystal_colour 'brown'
_exptl_crystal_density_diffrn 2.278
_exptl_crystal_description 'block-like'
_diffrn_ambient_temperature 160.0
#These two values have been output from a single CSD field.
_refine_ls_R_factor_gt 0.0348
_refine_ls_wR_factor_gt 0.0348
_symmetry_cell_setting monoclinic
_symmetry_space_group_name_H-M 'C 2/c'
_symmetry_Int_Tables_number 15
loop_
_symmetry_equiv_pos_site_id
_symmetry_equiv_pos_as_xyz
1 x,y,z
2 -x,y,1/2-z
3 1/2+x,1/2+y,z
4 1/2-x,1/2+y,1/2-z
5 -x,-y,-z
6 x,-y,-1/2+z
7 -1/2-x,-1/2-y,-z
8 -1/2+x,-1/2-y,-1/2+z
_cell_length_a 22.0870(8)
_cell_length_b 16.3172(4)
_cell_length_c 25.6279(10)
_cell_angle_alpha 90
_cell_angle_beta 115.265(5)
_cell_angle_gamma 90
_cell_formula_units_Z 4
loop_
_atom_type_symbol
_atom_type_radius_bond
C 0.68
H 0.23
Ag 1.45
Mo 1.54
N 0.68
O 0.68
loop_
_atom_site_label
_atom_site_type_symbol
_atom_site_fract_x
_atom_site_fract_y
_atom_site_fract_z
Ag1 Ag -0.17704(2) 0.25212(3) -0.132771(18)
Ag2 Ag 0.34397(2) 0.45717(3) 0.367761(18)
C1 C 0.6237(2) 0.2568(3) 0.5024(2)
C2 C 0.7353(3) 0.0652(3) 0.3882(2)
H1 H 0.71340 0.05860 0.34840
C3 C 0.2776(3) 0.6377(3) 0.0089(2)
H2 H 0.29850 0.63400 0.04890
C4 C 0.0033(3) 0.3837(3) -0.0035(2)
H3 H 0.02280 0.38220 0.03660
C5 C -0.0565(3) 0.3433(3) -0.0352(2)
H4 H -0.07670 0.31520 -0.01520
C6 C 0.2196(2) 0.6521(3) -0.1081(2)
H5 H 0.19960 0.65650 -0.14810
C7 C 0.5332(3) 0.3121(3) 0.4112(2)
H6 H 0.55500 0.29120 0.39000
C8 C 0.0977(2) 0.4699(3) 0.0010(2)
C9 C 0.7981(2) 0.0840(3) 0.5049(2)
H7 H 0.82040 0.08830 0.54490
C10 C 0.5598(2) 0.3019(3) 0.4701(2)
C11 C 0.1792(3) 0.4563(4) 0.1815(2)
H8 H 0.13520 0.43880 0.16160
C12 C 0.0334(2) 0.4262(3) -0.0329(2)
C13 C 0.7098(3) 0.2269(3) 0.5876(2)
C14 C 0.7433(3) 0.2373(3) 0.6514(2)
C15 C 0.5259(3) 0.3352(3) 0.5001(2)
H9 H 0.54300 0.33050 0.54000
C16 C 0.1804(3) 0.5023(3) 0.0884(2)
C17 C 0.1825(2) 0.5517(3) 0.0067(2)
C18 C 0.8260(3) 0.0408(3) 0.4741(2)
H10 H 0.86800 0.01760 0.49440
C19 C 0.2151(2) 0.6013(3) -0.0226(2)
C20 C 0.1855(3) 0.6098(3) -0.0818(2)
H11 H 0.14350 0.58750 -0.10370
C21 C 0.7362(2) 0.1209(3) 0.4749(2)
C22 C 0.3079(3) 0.5048(4) 0.2427(2)
H12 H 0.35210 0.52120 0.26340
C23 C 0.4666(3) 0.3753(4) 0.4693(2)
H13 H 0.44430 0.39760 0.48960
C24 C 0.7056(2) 0.1721(3) 0.5052(2)
C25 C 0.3081(3) 0.6797(3) -0.0211(2)
H14 H 0.34970 0.70360 -0.00010
C26 C 0.4728(3) 0.3544(3) 0.3840(2)
H15 H 0.45530 0.36210 0.34430
C27 C -0.0564(3) 0.3835(3) -0.1204(2)
H16 H -0.07610 0.38240 -0.16060
C28 C 0.0023(3) 0.4272(3) -0.0929(2)
H17 H 0.02050 0.45650 -0.11390
C29 C 0.7040(3) 0.1103(3) 0.4152(2)
H18 H 0.66210 0.13340 0.39390
C30 C 0.2782(3) 0.5166(3) 0.1833(2)
H19 H 0.30220 0.54020 0.16480
C31 C 0.2123(3) 0.4924(3) 0.1520(2)
C32 C 0.8283(3) 0.2071(4) 0.7446(2)
H20 H 0.86770 0.17950 0.76720
C33 C 0.7154(3) 0.2894(4) 0.6781(2)
H21 H 0.67730 0.31980 0.65630
C34 C 0.8023(3) 0.1975(3) 0.6851(2)
H22 H 0.82400 0.16510 0.66850
C35 C 0.2119(3) 0.4465(4) 0.2404(2)
H23 H 0.18900 0.42210 0.25950
C36 C 0.7450(3) 0.2953(4) 0.7372(3)
H24 H 0.72570 0.33000 0.75470
N1 N -0.0867(2) 0.3426(3) -0.09278(19)
N2 N 0.2800(2) 0.6872(3) -0.0786(2)
N3 N 0.2759(2) 0.4709(3) 0.2717(2)
N4 N 0.1228(2) 0.4627(3) 0.05890(18)
N5 N 0.1263(2) 0.5112(3) -0.02685(18)
N6 N 0.2115(2) 0.5499(3) 0.06485(19)
N7 N 0.4390(2) 0.3843(3) 0.41210(19)
N8 N 0.7957(2) 0.0303(3) 0.41656(18)
N9 N 0.8004(2) 0.2536(3) 0.7713(2)
N10 N 0.6480(2) 0.2105(3) 0.47260(18)
N11 N 0.7382(2) 0.1775(3) 0.56314(18)
N12 N 0.6529(2) 0.2681(3) 0.55923(18)
Mo1 Mo 0.50000 0.46036(5) 0.25000
Mo2 Mo 0.49868(2) 0.58819(3) 0.360442(19)
Mo3 Mo 0.48952(2) 0.79183(3) 0.356363(19)
Mo4 Mo 0.50000 0.90515(5) 0.25000
Mo5 Mo 0.40861(2) 0.69328(3) 0.20926(2)
O1 O 0.5618(4) 0.3962(4) 0.2947(3)
O2 O 0.4650(2) 0.5127(3) 0.29310(18)
O3 O 0.5524(2) 0.5237(3) 0.41262(19)
O4 O 0.4267(2) 0.5823(3) 0.36940(18)
O5 O 0.5334(2) 0.6898(3) 0.39344(17)
O6 O 0.4484(2) 0.6851(3) 0.28598(18)
O7 O 0.4249(2) 0.6036(3) 0.1773(2)
O8 O 0.3240(2) 0.6990(3) 0.1835(2)
O9 O 0.4209(2) 0.7871(3) 0.37061(19)
O10 O 0.5407(2) 0.8573(3) 0.40609(18)
O11 O 0.4503(2) 0.8586(3) 0.28769(18)
O12 O 0.4368(2) 0.7828(3) 0.18538(18)
O13 O 0.5568(2) 0.9668(3) 0.3001(2)
Ag1* Ag 0.82296(2) 0.25212(3) 0.867229(18)
Ag1B Ag 0.32296(2) 0.75212(3) -0.132771(18)
Ag2B Ag 0.84397(2) -0.04283(3) 0.367761(18)
N2B N -0.2200(2) 0.1872(3) -0.0786(2)
N8B N 0.2957(2) 0.5303(3) 0.41656(18)
N9* N -0.1996(2) 0.2536(3) -0.2287(2)
Mo2A Mo 0.50132(2) 0.58819(3) 0.139558(19)
Mo3A Mo 0.51048(2) 0.79183(3) 0.143637(19)
Mo5A Mo 0.59139(2) 0.69328(3) 0.29074(2)
O1A O 0.4382(4) 0.3962(4) 0.2053(3)
O2A O 0.5350(2) 0.5127(3) 0.20690(18)
O3A O 0.4476(2) 0.5237(3) 0.08738(19)
O4A O 0.5733(2) 0.5823(3) 0.13060(18)
O5A O 0.4666(2) 0.6898(3) 0.10656(17)
O6A O 0.5516(2) 0.6851(3) 0.21402(18)
O7A O 0.5751(2) 0.6036(3) 0.3227(2)
O8A O 0.6760(2) 0.6990(3) 0.3165(2)
O9A O 0.5791(2) 0.7871(3) 0.12939(19)
O10A O 0.4593(2) 0.8573(3) 0.09391(18)
O11A O 0.5497(2) 0.8586(3) 0.21231(18)
O12A O 0.5632(2) 0.7828(3) 0.31462(18)
O13A O 0.4432(2) 0.9668(3) 0.1999(2)
#END
