
#######################################################################
#
#                 Cambridge Crystallographic Data Centre
#                                CCDC
#
#######################################################################
#
# If this CIF has been generated from an entry in the Cambridge
# Structural Database, then it will include bibliographic, chemical,
# crystal, experimental, refinement or atomic coordinate data resulting
# from the CCDC's data processing and validation procedures.
#
#######################################################################

data_CSD_CIF_QODHUO13
_audit_creation_date 2014-03-27
_audit_creation_method CSD-ConQuest-V1
_database_code_CSD QODHUO13
_database_code_depnum_ccdc_archive 'CCDC 956853'
_chemical_formula_sum 'C72 H48 Ag4 Mo8 N24 O26'
_chemical_formula_moiety
;
(C36 H24 Ag2 N12 2+)2n,n(Mo8 O26 4-)
;
_journal_coden_Cambridge 222
_journal_volume 43
_journal_year 2014
_journal_page_first 7146
_journal_name_full 'Dalton Trans. '
loop_
_publ_author_name
"Lei Zhang"
"Xiaofei Kuang"
"Xiaoyuan Wu"
"Wenbin Yang"
"Canzhong Lu"
_chemical_name_systematic
;
catena-(bis(bis(\m~3~-2,4,6-tris(Pyridin-4-yl)-1,3,5-triazine)-di-silver) 
tetrakis(\m~3~-oxo)-octakis(\m~2~-oxo)-tetradecaoxo-octa-molybdenum)
;
_cell_volume   8406.374
_exptl_crystal_colour 'brown'
_exptl_crystal_density_diffrn 2.263
_exptl_crystal_description 'block-like'
_diffrn_ambient_temperature 310.0
#These two values have been output from a single CSD field.
_refine_ls_R_factor_gt 0.0397
_refine_ls_wR_factor_gt 0.0397
_symmetry_cell_setting monoclinic
_symmetry_space_group_name_H-M 'C 2/c'
_symmetry_Int_Tables_number 15
loop_
_symmetry_equiv_pos_site_id
_symmetry_equiv_pos_as_xyz
1 x,y,z
2 -x,y,1/2-z
3 1/2+x,1/2+y,z
4 1/2-x,1/2+y,1/2-z
5 -x,-y,-z
6 x,-y,-1/2+z
7 -1/2-x,-1/2-y,-z
8 -1/2+x,-1/2-y,-1/2+z
_cell_length_a 22.0290(9)
_cell_length_b 16.4861(5)
_cell_length_c 25.5887(11)
_cell_angle_alpha 90
_cell_angle_beta 115.233(5)
_cell_angle_gamma 90
_cell_formula_units_Z 4
loop_
_atom_type_symbol
_atom_type_radius_bond
C 0.68
H 0.23
Ag 1.45
Mo 1.54
N 0.68
O 0.68
loop_
_atom_site_label
_atom_site_type_symbol
_atom_site_fract_x
_atom_site_fract_y
_atom_site_fract_z
Ag1 Ag -0.65573(2) 0.04257(3) -0.63237(2)
Ag2 Ag -0.17734(3) 0.24623(4) -0.13295(2)
C1 C 0.0977(3) 0.0293(3) 0.0003(2)
C2 C 0.2775(3) -0.1381(4) 0.0087(3)
H1 H 0.29830 -0.13460 0.04880
C3 C -0.3763(3) 0.2432(3) -0.4985(2)
C4 C -0.4402(3) 0.1983(3) -0.5309(2)
C5 C -0.2645(3) 0.4356(4) -0.6118(3)
H2 H -0.28630 0.44270 -0.65160
C6 C -0.2022(3) 0.4161(4) -0.4953(3)
H3 H -0.18000 0.41210 -0.45530
C7 C -0.0561(3) 0.1563(4) -0.0358(3)
H4 H -0.07610 0.18430 -0.01580
C8 C 0.2199(3) -0.1527(4) -0.1083(3)
H5 H 0.19990 -0.15750 -0.14830
C9 C -0.4671(3) 0.1881(4) -0.5897(3)
H6 H -0.44560 0.20910 -0.61110
C10 C -0.2902(3) 0.2733(4) -0.4132(2)
C11 C 0.0036(3) 0.1158(4) -0.0042(3)
H7 H 0.02320 0.11710 0.03600
C12 C -0.2565(3) 0.2633(4) -0.3491(3)
C13 C 0.1802(3) -0.0023(4) 0.0874(3)
C14 C 0.1823(3) -0.0518(3) 0.0063(3)
C15 C 0.1793(3) 0.0439(5) 0.1807(3)
H8 H 0.13540 0.06200 0.16070
C16 C 0.0334(3) 0.0736(4) -0.0339(3)
C17 C -0.4739(3) 0.1645(4) -0.5009(3)
H9 H -0.45650 0.16880 -0.46090
C18 C -0.2643(3) 0.3789(3) -0.5259(3)
C19 C 0.2151(3) -0.1015(3) -0.0230(2)
C20 C -0.2962(3) 0.3902(4) -0.5854(3)
H10 H -0.33820 0.36750 -0.60700
C21 C -0.2946(3) 0.3278(3) -0.4954(3)
C22 C 0.2123(3) 0.0075(4) 0.1514(3)
C23 C 0.1861(3) -0.1103(4) -0.0820(3)
H11 H 0.14420 -0.08790 -0.10420
C24 C -0.1745(3) 0.4592(4) -0.5263(3)
H12 H -0.13240 0.48210 -0.50610
C25 C -0.5266(3) 0.1463(4) -0.6164(3)
H13 H -0.54390 0.13850 -0.65610
C26 C 0.3079(3) -0.1802(4) -0.0214(3)
H14 H 0.34940 -0.20450 -0.00050
C27 C -0.5330(3) 0.1247(4) -0.5315(3)
H15 H -0.55520 0.10220 -0.51110
C28 C 0.0020(3) 0.0725(4) -0.0937(3)
H16 H 0.01950 0.04240 -0.11470
C29 C 0.3070(3) -0.0053(5) 0.2417(3)
H17 H 0.35120 -0.02220 0.26260
C30 C -0.1979(3) 0.3015(4) -0.3156(3)
H18 H -0.17600 0.33340 -0.33220
C31 C -0.0558(3) 0.1169(4) -0.1211(3)
H19 H -0.07470 0.11930 -0.16120
C32 C -0.2545(4) 0.2049(4) -0.2633(3)
H20 H -0.27350 0.17010 -0.24570
C33 C 0.2119(3) 0.0533(5) 0.2396(3)
H21 H 0.18900 0.07760 0.25870
C34 C 0.2782(3) -0.0168(4) 0.1828(3)
H22 H 0.30240 -0.04040 0.16460
C35 C -0.2850(3) 0.2114(4) -0.3228(3)
H23 H -0.32350 0.18200 -0.34470
C36 C -0.1715(4) 0.2919(5) -0.2560(3)
H24 H -0.13210 0.31930 -0.23340
N1 N -0.5606(2) 0.1164(3) -0.5887(2)
N2 N -0.2046(2) 0.4698(3) -0.5834(2)
N3 N -0.1992(3) 0.2460(4) -0.2296(2)
N4 N -0.3471(2) 0.2327(3) -0.4415(2)
N5 N -0.2622(2) 0.3224(3) -0.4379(2)
N6 N -0.3521(2) 0.2897(3) -0.5281(2)
N7 N -0.0865(2) 0.1571(3) -0.0936(2)
N8 N 0.2797(3) -0.1870(3) -0.0788(2)
N9 N 0.2756(3) 0.0288(4) 0.2710(2)
N10 N 0.1227(2) 0.0373(3) 0.0580(2)
N11 N 0.1261(2) -0.0123(3) -0.0274(2)
N12 N 0.2114(2) -0.0499(3) 0.0641(2)
Mo1 Mo -0.50000 0.03701(6) -0.75000
Mo2 Mo -0.50130(3) -0.08929(3) -0.63936(2)
Mo3 Mo -0.50949(3) -0.29115(3) -0.64324(2)
Mo4 Mo -0.50000 -0.40659(6) -0.75000
Mo5 Mo -0.59174(2) -0.19309(3) -0.79075(2)
O1 O -0.4378(5) 0.1000(5) -0.7062(4)
O2 O -0.5344(3) -0.0141(3) -0.7065(2)
O3 O -0.4478(3) -0.0267(4) -0.5866(2)
O4 O -0.5732(2) -0.0826(3) -0.6308(2)
O5 O -0.4674(2) -0.1901(3) -0.6064(2)
O6 O -0.5512(3) -0.1855(3) -0.7141(2)
O7 O -0.5757(3) -0.1045(3) -0.8231(2)
O8 O -0.6764(2) -0.1978(3) -0.8163(3)
O9 O -0.5787(3) -0.2874(4) -0.6300(3)
O10 O -0.4583(3) -0.3547(4) -0.5928(2)
O11 O -0.5482(3) -0.3582(3) -0.7119(2)
O12 O -0.5652(3) -0.2818(3) -0.8161(2)
O13 O -0.4425(3) -0.4669(4) -0.7008(3)
Ag1* Ag 0.34427(2) 0.04257(3) 0.36763(2)
Ag1B Ag -0.15573(2) 0.54257(3) -0.63237(2)
Ag2B Ag 0.32266(3) -0.25377(4) -0.13295(2)
N2B N -0.7046(2) -0.0302(3) -0.5834(2)
N8B N -0.2203(3) 0.3130(3) -0.0788(2)
N9* N -0.7244(3) 0.0288(4) -0.7290(2)
Mo2A Mo -0.49870(3) -0.08929(3) -0.86064(2)
Mo3A Mo -0.49051(3) -0.29115(3) -0.85676(2)
Mo5A Mo -0.40826(2) -0.19309(3) -0.70925(2)
O1A O -0.5622(5) 0.1000(5) -0.7938(4)
O2A O -0.4656(3) -0.0141(3) -0.7935(2)
O3A O -0.5522(3) -0.0267(4) -0.9134(2)
O4A O -0.4268(2) -0.0826(3) -0.8692(2)
O5A O -0.5326(2) -0.1901(3) -0.8936(2)
O6A O -0.4488(3) -0.1855(3) -0.7859(2)
O7A O -0.4243(3) -0.1045(3) -0.6769(2)
O8A O -0.3236(2) -0.1978(3) -0.6837(3)
O9A O -0.4213(3) -0.2874(4) -0.8700(3)
O10A O -0.5417(3) -0.3547(4) -0.9072(2)
O11A O -0.4518(3) -0.3582(3) -0.7881(2)
O12A O -0.4348(3) -0.2818(3) -0.6839(2)
O13A O -0.5575(3) -0.4669(4) -0.7992(3)
#END
