
#######################################################################
#
#                 Cambridge Crystallographic Data Centre
#                                CCDC
#
#######################################################################
#
# If this CIF has been generated from an entry in the Cambridge
# Structural Database, then it will include bibliographic, chemical,
# crystal, experimental, refinement or atomic coordinate data resulting
# from the CCDC's data processing and validation procedures.
#
#######################################################################

data_CSD_CIF_QODHUO04
_audit_creation_date 2014-03-27
_audit_creation_method CSD-ConQuest-V1
_database_code_CSD QODHUO04
_database_code_depnum_ccdc_archive 'CCDC 976108'
_chemical_formula_sum 'C72 H48 Ag4 Mo8 N24 O26'
_chemical_formula_moiety
;
(C36 H24 Ag2 N12 2+)2n,n(Mo8 O26 4-)
;
_journal_coden_Cambridge 222
_journal_volume 43
_journal_year 2014
_journal_page_first 7146
_journal_name_full 'Dalton Trans. '
loop_
_publ_author_name
"Lei Zhang"
"Xiaofei Kuang"
"Xiaoyuan Wu"
"Wenbin Yang"
"Canzhong Lu"
_chemical_name_systematic
;
catena-(bis(bis(\m~3~-2,4,6-tris(Pyridin-4-yl)-1,3,5-triazine)-di-silver) 
tetrakis(\m~3~-oxo)-octakis(\m~2~-oxo)-tetradecaoxo-octa-molybdenum)
;
_cell_volume   8516.190
_exptl_crystal_colour 'brown'
_exptl_crystal_density_diffrn 2.234
_exptl_crystal_description 'block-like'
_diffrn_ambient_temperature 440
#These two values have been output from a single CSD field.
_refine_ls_R_factor_gt 0.0501
_refine_ls_wR_factor_gt 0.0501
_symmetry_cell_setting monoclinic
_symmetry_space_group_name_H-M 'C 2/c'
_symmetry_Int_Tables_number 15
loop_
_symmetry_equiv_pos_site_id
_symmetry_equiv_pos_as_xyz
1 x,y,z
2 -x,y,1/2-z
3 1/2+x,1/2+y,z
4 1/2-x,1/2+y,1/2-z
5 -x,-y,-z
6 x,-y,-1/2+z
7 -1/2-x,-1/2-y,-z
8 -1/2+x,-1/2-y,-1/2+z
_cell_length_a 22.0020(8)
_cell_length_b 16.7356(6)
_cell_length_c 25.5607(14)
_cell_angle_alpha 90
_cell_angle_beta 115.199(5)
_cell_angle_gamma 90
_cell_formula_units_Z 4
loop_
_atom_type_symbol
_atom_type_radius_bond
C 0.68
H 0.23
Ag 1.45
Mo 1.54
N 0.68
O 0.68
loop_
_atom_site_label
_atom_site_type_symbol
_atom_site_fract_x
_atom_site_fract_y
_atom_site_fract_z
Mo1 Mo 0.00000 -0.03343(7) 0.25000
Mo2 Mo 0.00132(3) 0.09014(4) 0.13900(3)
Mo3 Mo 0.00803(3) 0.29018(4) 0.14242(3)
Mo4 Mo 0.00000 0.40691(8) 0.25000
Mo5 Mo 0.09227(3) 0.19249(4) 0.29003(3)
O1 O -0.0631(7) -0.0959(8) 0.2085(8)
O2 O 0.0340(4) 0.0157(4) 0.2054(3)
O3 O -0.0531(4) 0.0298(5) 0.0853(3)
O4 O 0.0725(4) 0.0819(5) 0.1302(3)
O5 O 0.0519(4) 0.1863(4) 0.2144(3)
O6 O 0.0763(4) 0.1042(5) 0.3232(3)
O7 O 0.1762(3) 0.1959(4) 0.3173(3)
O8 O 0.0663(4) 0.2802(4) 0.3169(3)
O9 O -0.0330(3) 0.1892(4) 0.1062(3)
O10 O 0.0775(4) 0.2874(5) 0.1289(4)
O11 O -0.0443(4) 0.3495(6) 0.0912(3)
O12 O 0.0463(4) 0.3579(4) 0.2108(3)
O13 O -0.0589(5) 0.4658(6) 0.2024(4)
Ag1 Ag -0.15577(3) -0.04333(5) -0.63317(3)
Ag2 Ag -0.17829(4) 0.25616(5) -0.13356(3)
C1 C 0.0976(3) 0.4716(4) -0.0009(3)
C2 C -0.4674(4) 0.3103(5) -0.5910(3)
H1 H -0.44600 0.28960 -0.61240
C3 C -0.3766(3) 0.2557(4) -0.4997(3)
C4 C 0.0037(3) 0.3850(5) -0.0054(3)
H2 H 0.02350 0.38340 0.03480
C5 C -0.4403(3) 0.3002(4) -0.5320(3)
C6 C 0.1817(3) 0.5526(4) 0.0053(3)
C7 C 0.0331(3) 0.4274(4) -0.0350(3)
C8 C -0.2025(3) 0.0837(4) -0.4963(3)
H3 H -0.18030 0.08770 -0.45630
C9 C -0.2906(3) 0.2251(4) -0.4142(3)
C10 C -0.0558(4) 0.3448(5) -0.0371(3)
H4 H -0.07540 0.31690 -0.01680
C11 C 0.2770(4) 0.6385(4) 0.0083(3)
H5 H 0.29780 0.63480 0.04850
C12 C 0.2202(4) 0.6527(4) -0.1092(3)
H6 H 0.20040 0.65740 -0.14920
C13 C -0.2573(4) 0.2367(5) -0.3505(3)
C14 C -0.2648(4) 0.1212(4) -0.5270(3)
C15 C 0.1788(4) 0.4558(6) 0.1790(4)
H7 H 0.13480 0.43800 0.15870
C16 C 0.2141(3) 0.6015(4) -0.0242(3)
C17 C -0.2646(4) 0.0643(5) -0.6126(3)
H8 H -0.28620 0.05730 -0.65240
C18 C 0.2121(4) 0.4914(5) 0.1506(3)
C19 C -0.4742(4) 0.3343(5) -0.5024(3)
H9 H -0.45680 0.33040 -0.46240
C20 C -0.5328(4) 0.3735(6) -0.5325(4)
H10 H -0.55470 0.39590 -0.51200
C21 C 0.1799(3) 0.5021(4) 0.0862(3)
C22 C 0.1863(3) 0.6097(4) -0.0829(3)
H11 H 0.14480 0.58670 -0.10540
C23 C 0.3068(4) 0.6807(5) -0.0218(4)
H12 H 0.34780 0.70550 -0.00070
C24 C -0.2962(4) 0.1094(5) -0.5863(3)
H13 H -0.33810 0.13170 -0.60810
C25 C -0.2949(3) 0.1718(4) -0.4966(3)
C26 C -0.5271(4) 0.3519(5) -0.6178(3)
H14 H -0.54440 0.35940 -0.65760
C27 C -0.1750(4) 0.0406(5) -0.5271(3)
H15 H -0.13300 0.01750 -0.50660
C28 C 0.0015(4) 0.4277(5) -0.0946(3)
H16 H 0.01920 0.45710 -0.11580
C29 C 0.3056(4) 0.5048(6) 0.2405(4)
H17 H 0.34950 0.52230 0.26150
C30 C 0.2114(4) 0.4468(7) 0.2385(4)
H18 H 0.18820 0.42320 0.25760
C31 C -0.0562(4) 0.3843(5) -0.1222(3)
H19 H -0.07550 0.38260 -0.16240
C32 C -0.2552(5) 0.2948(6) -0.2650(4)
H20 H -0.27380 0.33000 -0.24760
C33 C 0.2777(4) 0.5165(5) 0.1818(4)
H21 H 0.30190 0.54030 0.16380
C34 C -0.2858(4) 0.2869(6) -0.3238(4)
H22 H -0.32510 0.31460 -0.34560
C35 C -0.1975(4) 0.1994(6) -0.3164(4)
H23 H -0.17500 0.16830 -0.33270
C36 C -0.1725(5) 0.2098(7) -0.2579(4)
H24 H -0.13300 0.18300 -0.23520
N1 N -0.2045(3) 0.0300(4) -0.5837(3)
N2 N -0.5610(3) 0.3817(4) -0.5900(3)
N3 N -0.1994(4) 0.2542(5) -0.2310(3)
N4 N -0.3522(3) 0.2101(4) -0.5292(3)
N5 N -0.3475(3) 0.2660(4) -0.4426(3)
N6 N -0.2625(3) 0.1774(4) -0.4391(3)
N7 N 0.2793(3) 0.6872(4) -0.0794(3)
N8 N -0.0866(3) 0.3437(4) -0.0944(3)
N9 N 0.2749(4) 0.4704(5) 0.2698(3)
N10 N 0.1255(3) 0.5129(3) -0.0282(2)
N11 N 0.1230(3) 0.4630(4) 0.0569(3)
N12 N 0.2109(3) 0.5490(4) 0.0631(3)
Mo2A Mo -0.00132(3) 0.09014(4) 0.36100(3)
Mo3A Mo -0.00803(3) 0.29018(4) 0.35758(3)
Mo5A Mo -0.09227(3) 0.19249(4) 0.20997(3)
O1A O 0.0631(7) -0.0959(8) 0.2915(8)
O2A O -0.0340(4) 0.0157(4) 0.2946(3)
O3A O 0.0531(4) 0.0298(5) 0.4147(3)
O4A O -0.0725(4) 0.0819(5) 0.3698(3)
O5A O -0.0519(4) 0.1863(4) 0.2856(3)
O6A O -0.0763(4) 0.1042(5) 0.1768(3)
O7A O -0.1762(3) 0.1959(4) 0.1827(3)
O8A O -0.0663(4) 0.2802(4) 0.1831(3)
O9A O 0.0330(3) 0.1892(4) 0.3938(3)
O10A O -0.0775(4) 0.2874(5) 0.3711(4)
O11A O 0.0443(4) 0.3495(6) 0.4088(3)
O12A O -0.0463(4) 0.3579(4) 0.2892(3)
O13A O 0.0589(5) 0.4658(6) 0.2976(4)
Ag1B Ag -0.65577(3) 0.45667(5) -0.63317(3)
Ag1B* Ag 0.34423(3) 0.45667(5) 0.36683(3)
Ag2B Ag 0.32171(4) 0.75616(5) -0.13356(3)
N2B N -0.0610(3) -0.1183(4) -0.5900(3)
N7B N -0.2207(3) 0.1872(4) -0.0794(3)
N9B N -0.2251(4) -0.0296(5) -0.7302(3)
#END
