
#######################################################################
#
#                 Cambridge Crystallographic Data Centre
#                                CCDC
#
#######################################################################
#
# If this CIF has been generated from an entry in the Cambridge
# Structural Database, then it will include bibliographic, chemical,
# crystal, experimental, refinement or atomic coordinate data resulting
# from the CCDC's data processing and validation procedures.
#
#######################################################################

data_CSD_CIF_QODPOQ
_audit_creation_date 2014-03-27
_audit_creation_method CSD-ConQuest-V1
_database_code_CSD QODPOQ
_database_code_depnum_ccdc_archive 'CCDC 956842'
_chemical_formula_sum 'C72 H48 Ag4 Mo8 N24 O26'
_chemical_formula_moiety
;
(C36 H24 Ag2 N12 2+)2n,n(Mo8 O26 4-)
;
_journal_coden_Cambridge 222
_journal_volume 43
_journal_year 2014
_journal_page_first 7146
_journal_name_full 'Dalton Trans. '
loop_
_publ_author_name
"Lei Zhang"
"Xiaofei Kuang"
"Xiaoyuan Wu"
"Wenbin Yang"
"Canzhong Lu"
_chemical_name_systematic
;
catena-(bis(bis(\m~3~-2,4,6-tris(Pyridin-4-yl)-1,3,5-triazine)-di-silver) 
tetrakis(\m~3~-oxo)-octakis(\m~2~-oxo)-tetradecaoxo-octa-molybdenum)
;
_cell_volume   8488.564
_exptl_crystal_colour 'crimson'
_exptl_crystal_density_diffrn 2.241
_exptl_crystal_description 'block-like'
_diffrn_ambient_temperature 410.0
#These two values have been output from a single CSD field.
_refine_ls_R_factor_gt 0.0447
_refine_ls_wR_factor_gt 0.0447
_symmetry_cell_setting monoclinic
_symmetry_space_group_name_H-M 'C 2/c'
_symmetry_Int_Tables_number 15
loop_
_symmetry_equiv_pos_site_id
_symmetry_equiv_pos_as_xyz
1 x,y,z
2 -x,y,1/2-z
3 1/2+x,1/2+y,z
4 1/2-x,1/2+y,1/2-z
5 -x,-y,-z
6 x,-y,-1/2+z
7 -1/2-x,-1/2-y,-z
8 -1/2+x,-1/2-y,-1/2+z
_cell_length_a 21.9504(7)
_cell_length_b 16.7095(7)
_cell_length_c 25.6128(10)
_cell_angle_alpha 90
_cell_angle_beta 115.366(5)
_cell_angle_gamma 90
_cell_formula_units_Z 4
loop_
_atom_type_symbol
_atom_type_radius_bond
C 0.68
H 0.23
Ag 1.45
Mo 1.54
N 0.68
O 0.68
loop_
_atom_site_label
_atom_site_type_symbol
_atom_site_fract_x
_atom_site_fract_y
_atom_site_fract_z
Ag1 Ag 0.27363(3) 0.20879(4) -0.13206(2)
Ag2 Ag 0.79557(3) 0.50313(4) 0.36744(2)
C1 C 0.6531(3) 0.7198(3) 0.5003(3)
C2 C 0.4222(3) 0.8995(4) 0.3919(3)
H1 H 0.40140 0.90250 0.35180
C3 C 0.6276(3) 0.5611(4) -0.0894(3)
H2 H 0.58490 0.53970 -0.11080
C4 C 0.6275(3) 0.5067(4) 0.0017(3)
C5 C 0.5746(3) 0.8016(4) 0.5060(3)
C6 C 0.7707(3) 0.5935(4) 0.4646(3)
H3 H 0.81080 0.56590 0.48480
C7 C 0.4819(3) 0.8873(4) 0.5087(3)
H4 H 0.50130 0.88420 0.54880
C8 C 0.4029(3) 0.3159(4) -0.1112(3)
H5 H 0.38470 0.30950 -0.15110
C9 C 0.7428(3) 0.6339(4) 0.4956(3)
H6 H 0.76340 0.63310 0.53580
C10 C 0.6589(3) 0.5515(4) -0.0310(3)
C11 C 0.7224(3) 0.5851(5) -0.0018(3)
H7 H 0.74530 0.58040 0.03810
C12 C 0.6836(3) 0.6759(4) 0.4663(2)
C13 C 0.6269(3) 0.4753(4) 0.0872(3)
C14 C 0.6581(3) 0.4858(4) 0.1505(3)
C15 C 0.4819(3) 0.8584(4) 0.4180(3)
H8 H 0.50160 0.83620 0.39570
C16 C 0.5496(3) 0.4225(3) 0.0046(3)
C17 C 0.6899(3) 0.7420(4) 0.6515(3)
C18 C 0.4572(3) 0.3341(4) 0.0053(3)
H9 H 0.47510 0.33760 0.04540
C19 C 0.7510(3) 0.6248(5) -0.0319(3)
H10 H 0.79370 0.64650 -0.01140
C20 C 0.4607(3) 0.3609(4) -0.0851(3)
H11 H 0.48090 0.38330 -0.10700
C21 C 0.7518(4) 0.7071(5) 0.6800(3)
H12 H 0.77580 0.68950 0.65980
C22 C 0.6605(3) 0.6030(5) -0.1158(3)
H13 H 0.63820 0.60980 -0.15560
C23 C 0.7783(4) 0.6982(5) 0.7396(3)
H14 H 0.82020 0.67380 0.75860
C24 C 0.3990(3) 0.2909(4) -0.0257(3)
H15 H 0.37770 0.26710 -0.00510
C25 C 0.6561(4) 0.7677(5) 0.6833(3)
H16 H 0.61400 0.79180 0.66540
C26 C 0.6583(3) 0.7515(4) 0.5872(3)
C27 C 0.5124(3) 0.8500(4) 0.4769(3)
C28 C 0.6550(3) 0.6751(4) 0.4070(3)
H17 H 0.61580 0.70390 0.38590
C29 C 0.6864(4) 0.7567(5) 0.7419(3)
H18 H 0.66330 0.77400 0.76290
C30 C 0.7124(3) 0.5370(5) 0.1773(3)
H19 H 0.72900 0.56670 0.15550
C31 C 0.4885(3) 0.3725(4) -0.0255(3)
C32 C 0.4221(3) 0.9291(4) 0.4790(3)
H20 H 0.40190 0.95360 0.50020
C33 C 0.7415(4) 0.5433(5) 0.2366(3)
H21 H 0.77760 0.57820 0.25400
C34 C 0.6330(4) 0.4460(5) 0.1844(3)
H22 H 0.59440 0.41470 0.16810
C35 C 0.6677(4) 0.4546(6) 0.2438(3)
H23 H 0.65260 0.42480 0.26670
C36 C 0.6853(4) 0.6310(5) 0.3790(3)
H24 H 0.66420 0.62860 0.33890
N1 N 0.3715(3) 0.2809(3) -0.0825(2)
N2 N 0.7216(3) 0.6345(3) -0.0889(2)
N3 N 0.7203(3) 0.5014(4) 0.2706(3)
N4 N 0.5739(2) 0.4610(3) -0.0279(2)
N5 N 0.6557(3) 0.5171(3) 0.0583(2)
N6 N 0.5749(3) 0.4272(3) 0.0626(2)
N7 N 0.7436(3) 0.5914(3) 0.4068(2)
N8 N 0.7463(3) 0.7232(4) 0.7710(3)
N9 N 0.3922(3) 0.9358(3) 0.4220(2)
N10 N 0.5973(2) 0.7611(3) 0.4729(2)
N11 N 0.6858(3) 0.7129(3) 0.5583(2)
N12 N 0.6035(3) 0.7988(3) 0.5639(2)
Mo1 Mo 0.00000 0.21691(6) -0.25000
Mo2 Mo 0.11211(3) 0.34018(3) -0.13938(2)
Mo3 Mo 0.11618(3) 0.54012(4) -0.14303(2)
Mo4 Mo 0.00000 0.65270(6) -0.25000
Mo5 Mo 0.05179(3) 0.44329(3) -0.29069(2)
O1 O -0.0199(5) 0.1561(6) -0.2063(6)
O2 O 0.0784(3) 0.2665(3) -0.2059(2)
O3 O 0.1925(3) 0.3327(4) -0.1305(3)
O4 O 0.1104(3) 0.2797(4) -0.0866(3)
O5 O 0.1101(3) 0.4402(3) -0.1068(2)
O6 O 0.0887(3) 0.4367(3) -0.2146(2)
O7 O 0.0033(3) 0.3560(4) -0.3225(3)
O8 O 0.1094(3) 0.4481(3) -0.3177(3)
O9 O 0.1991(3) 0.5377(4) -0.1292(3)
O10 O 0.1145(3) 0.6022(4) -0.0926(3)
O11 O 0.0862(3) 0.6070(3) -0.2112(2)
O12 O -0.0004(2) 0.5314(3) -0.3149(3)
O13 O -0.0092(4) 0.7126(4) -0.2010(3)
Ag1B Ag 0.77363(3) 0.70879(4) -0.13206(2)
Ag1B* Ag 0.77363(3) 0.70879(4) 0.86794(2)
Ag2B Ag 0.29557(3) 1.00313(4) 0.36744(2)
N2B N 0.2216(3) 0.1345(3) -0.0889(2)
N8B N 0.2463(3) 0.2232(4) -0.2290(3)
N9B N 0.8922(3) 0.4358(3) 0.4220(2)
Mo2A Mo -0.11211(3) 0.34018(3) -0.36062(2)
Mo3A Mo -0.11618(3) 0.54012(4) -0.35697(2)
Mo5A Mo -0.05179(3) 0.44329(3) -0.20931(2)
O1A O 0.0199(5) 0.1561(6) -0.2937(6)
O2A O -0.0784(3) 0.2665(3) -0.2941(2)
O3A O -0.1925(3) 0.3327(4) -0.3695(3)
O4A O -0.1104(3) 0.2797(4) -0.4134(3)
O5A O -0.1101(3) 0.4402(3) -0.3932(2)
O6A O -0.0887(3) 0.4367(3) -0.2854(2)
O7A O -0.0033(3) 0.3560(4) -0.1775(3)
O8A O -0.1094(3) 0.4481(3) -0.1823(3)
O9A O -0.1991(3) 0.5377(4) -0.3708(3)
O10A O -0.1145(3) 0.6022(4) -0.4074(3)
O11A O -0.0862(3) 0.6070(3) -0.2888(2)
O12A O 0.0004(2) 0.5314(3) -0.1851(3)
O13A O 0.0092(4) 0.7126(4) -0.2990(3)
#END
