
#######################################################################
#
#                 Cambridge Crystallographic Data Centre
#                                CCDC
#
#######################################################################
#
# If this CIF has been generated from an entry in the Cambridge
# Structural Database, then it will include bibliographic, chemical,
# crystal, experimental, refinement or atomic coordinate data resulting
# from the CCDC's data processing and validation procedures.
#
#######################################################################

data_CSD_CIF_QODQEH
_audit_creation_date 2014-03-27
_audit_creation_method CSD-ConQuest-V1
_database_code_CSD QODQEH
_database_code_depnum_ccdc_archive 'CCDC 956845'
_chemical_formula_sum 'C72 H48 Ag4 Mo8 N24 O26'
_chemical_formula_moiety
;
(C36 H24 Ag2 N12 2+)2n,n(Mo8 O26 4-)
;
_journal_coden_Cambridge 222
_journal_volume 43
_journal_year 2014
_journal_page_first 7146
_journal_name_full 'Dalton Trans. '
loop_
_publ_author_name
"Lei Zhang"
"Xiaofei Kuang"
"Xiaoyuan Wu"
"Wenbin Yang"
"Canzhong Lu"
_chemical_name_systematic
;
catena-(bis(bis(\m~3~-2,4,6-tris(Pyridin-4-yl)-1,3,5-triazine)-di-silver) 
tetrakis(\m~3~-oxo)-octakis(\m~2~-oxo)-tetradecaoxo-octa-molybdenum)
;
_cell_volume   8516.609
_exptl_crystal_colour 'brown'
_exptl_crystal_density_diffrn 2.234
_exptl_crystal_description 'block-like'
_diffrn_ambient_temperature 500
#These two values have been output from a single CSD field.
_refine_ls_R_factor_gt 0.0548
_refine_ls_wR_factor_gt 0.0548
_symmetry_cell_setting monoclinic
_symmetry_space_group_name_H-M 'C 2/c'
_symmetry_Int_Tables_number 15
loop_
_symmetry_equiv_pos_site_id
_symmetry_equiv_pos_as_xyz
1 x,y,z
2 -x,y,1/2-z
3 1/2+x,1/2+y,z
4 1/2-x,1/2+y,1/2-z
5 -x,-y,-z
6 x,-y,-1/2+z
7 -1/2-x,-1/2-y,-z
8 -1/2+x,-1/2-y,-1/2+z
_cell_length_a 21.9368(7)
_cell_length_b 16.8155(5)
_cell_length_c 25.4998(12)
_cell_angle_alpha 90
_cell_angle_beta 115.121(4)
_cell_angle_gamma 90
_cell_formula_units_Z 4
loop_
_atom_type_symbol
_atom_type_radius_bond
C 0.68
H 0.23
Ag 1.45
Mo 1.54
N 0.68
O 0.68
loop_
_atom_site_label
_atom_site_type_symbol
_atom_site_fract_x
_atom_site_fract_y
_atom_site_fract_z
Ag1 Ag 0.65577(4) 0.45643(5) 0.63345(3)
Ag2 Ag 0.67883(4) 0.75699(6) 0.13374(3)
C1 C 0.4026(3) 0.9716(4) 0.0017(3)
C2 C 0.9678(4) 0.8092(6) 0.5914(4)
H1 H 0.94650 0.78790 0.61290
C3 C 0.8771(4) 0.7557(4) 0.5005(3)
C4 C 0.9404(4) 0.7995(5) 0.5327(3)
C5 C 0.7023(4) 0.5834(5) 0.4963(4)
H2 H 0.68030 0.58710 0.45610
C6 C 0.5560(4) 0.8453(5) 0.0373(4)
H3 H 0.57570 0.81760 0.01700
C7 C 0.4967(4) 0.8848(5) 0.0061(3)
H4 H 0.47670 0.88290 -0.03420
C8 C 0.3195(4) 1.0523(5) -0.0042(3)
C9 C 0.4673(3) 0.9275(4) 0.0356(3)
C10 C 0.2799(4) 1.1522(5) 0.1094(4)
H5 H 0.29950 1.15650 0.14950
C11 C 0.2237(4) 1.1390(5) -0.0081(4)
H6 H 0.20340 1.13610 -0.04830
C12 C 0.7903(4) 0.7253(5) 0.4145(3)
C13 C 0.7577(4) 0.7366(5) 0.3510(3)
C14 C 0.7645(4) 0.5643(5) 0.6128(4)
H7 H 0.78580 0.55760 0.65270
C15 C 0.2881(4) 0.9914(5) -0.1500(3)
C16 C 0.7650(4) 0.6210(5) 0.5277(3)
C17 C 0.2863(4) 1.1013(4) 0.0250(3)
C18 C 0.9748(4) 0.8340(6) 0.5027(4)
H8 H 0.95780 0.83020 0.46260
C19 C 0.7962(4) 0.6094(5) 0.5866(4)
H9 H 0.83820 0.63180 0.60850
C20 C 0.3216(5) 0.9556(7) -0.1782(4)
H10 H 0.36540 0.93740 -0.15780
C21 C 0.3202(4) 1.0016(5) -0.0861(3)
C22 C 0.7949(4) 0.6715(4) 0.4970(3)
C23 C 0.6752(4) 0.5410(5) 0.5274(4)
H11 H 0.63280 0.51870 0.50710
C24 C 0.1939(4) 1.1808(6) 0.0224(4)
H12 H 0.15270 1.20550 0.00130
C25 C 0.3138(4) 1.1095(5) 0.0833(3)
H13 H 0.35540 1.08660 0.10580
C26 C 1.0329(5) 0.8727(6) 0.5334(4)
H14 H 1.05510 0.89480 0.51290
C27 C 0.4989(4) 0.9276(6) 0.0952(4)
H15 H 0.48110 0.95620 0.11660
C28 C 1.0275(4) 0.8512(6) 0.6185(4)
H16 H 1.04510 0.85820 0.65840
C29 C 0.2887(5) 0.9470(7) -0.2381(4)
H17 H 0.31210 0.92400 -0.25720
C30 C 0.1951(5) 1.0050(7) -0.2406(4)
H18 H 0.15140 1.02330 -0.26190
C31 C 0.7555(6) 0.7942(7) 0.2656(4)
H19 H 0.77390 0.82960 0.24830
C32 C 0.2229(4) 1.0169(6) -0.1810(4)
H20 H 0.19860 1.04080 -0.16290
C33 C 0.5564(4) 0.8851(6) 0.1221(4)
H21 H 0.57620 0.88440 0.16230
C34 C 0.7864(5) 0.7855(7) 0.3241(4)
H22 H 0.82630 0.81220 0.34580
C35 C 0.6975(5) 0.6992(6) 0.3170(4)
H23 H 0.67480 0.66850 0.33330
C36 C 0.6729(5) 0.7092(8) 0.2583(4)
H24 H 0.63370 0.68190 0.23550
N1 N 0.7046(3) 0.5297(4) 0.5837(3)
N2 N 1.0608(3) 0.8817(5) 0.5903(3)
N3 N 0.6997(4) 0.7541(6) 0.2315(3)
N4 N 0.7630(3) 0.6771(4) 0.4397(3)
N5 N 0.8524(3) 0.7099(4) 0.5298(3)
N6 N 0.8479(3) 0.7655(4) 0.4432(3)
N7 N 0.5867(3) 0.8441(5) 0.0947(3)
N8 N 0.2207(3) 1.1872(4) 0.0795(3)
N9 N 0.2255(4) 0.9700(5) -0.2693(3)
N10 N 0.3774(3) 0.9623(4) -0.0563(3)
N11 N 0.3752(3) 1.0130(4) 0.0291(3)
N12 N 0.2900(3) 1.0493(4) -0.0622(3)
Mo1 Mo 0.50000 0.46821(8) 0.75000
Mo2 Mo 0.50144(3) 0.59035(4) 0.63887(3)
Mo3 Mo 0.50749(4) 0.78948(5) 0.64203(3)
Mo4 Mo 0.50000 0.90598(9) 0.75000
Mo5 Mo 0.59256(3) 0.69221(4) 0.78973(3)
O1 O 0.4366(8) 0.4066(8) 0.7104(9)
O2 O 0.5339(4) 0.5156(5) 0.7051(3)
O3 O 0.4468(4) 0.5319(7) 0.5853(4)
O4 O 0.5717(4) 0.5804(6) 0.6298(4)
O5 O 0.4667(4) 0.6892(5) 0.6062(3)
O6 O 0.5524(5) 0.6869(5) 0.7145(3)
O7 O 0.5763(4) 0.6040(5) 0.8230(4)
O8 O 0.6763(3) 0.6955(5) 0.8179(4)
O9 O 0.5772(5) 0.7893(7) 0.6289(4)
O10 O 0.4543(5) 0.8462(7) 0.5900(4)
O11 O 0.5457(4) 0.8576(5) 0.7105(4)
O12 O 0.5664(4) 0.7795(5) 0.8169(4)
O13 O 0.4408(6) 0.9643(7) 0.7031(5)
Ag1B Ag 0.15577(4) 0.95643(5) -0.36655(3)
Ag1B* Ag 1.15577(4) 0.95643(5) 0.63345(3)
Ag2B Ag 0.17883(4) 1.25699(6) 0.13374(3)
N2B N 0.5608(3) 0.3817(5) 0.5903(3)
N8B N 0.7207(3) 0.6872(4) 0.0795(3)
N9B N 0.7255(4) 0.4700(5) 0.7307(3)
Mo2A Mo 0.49856(3) 0.59035(4) 0.86113(3)
Mo3A Mo 0.49251(4) 0.78948(5) 0.85797(3)
Mo5A Mo 0.40744(3) 0.69221(4) 0.71027(3)
O1A O 0.5634(8) 0.4066(8) 0.7896(9)
O2A O 0.4661(4) 0.5156(5) 0.7949(3)
O3A O 0.5532(4) 0.5319(7) 0.9147(4)
O4A O 0.4283(4) 0.5804(6) 0.8702(4)
O5A O 0.5333(4) 0.6892(5) 0.8938(3)
O6A O 0.4476(5) 0.6869(5) 0.7855(3)
O7A O 0.4237(4) 0.6040(5) 0.6770(4)
O8A O 0.3237(3) 0.6955(5) 0.6821(4)
O9A O 0.4228(5) 0.7893(7) 0.8711(4)
O10A O 0.5457(5) 0.8462(7) 0.9100(4)
O11A O 0.4543(4) 0.8576(5) 0.7895(4)
O12A O 0.4336(4) 0.7795(5) 0.6831(4)
O13A O 0.5592(6) 0.9643(7) 0.7969(5)
#END
