
#######################################################################
#
#                 Cambridge Crystallographic Data Centre
#                                CCDC
#
#######################################################################
#
# If this CIF has been generated from an entry in the Cambridge
# Structural Database, then it will include bibliographic, chemical,
# crystal, experimental, refinement or atomic coordinate data resulting
# from the CCDC's data processing and validation procedures.
#
#######################################################################

data_CSD_CIF_QODSUZ
_audit_creation_date 2014-03-27
_audit_creation_method CSD-ConQuest-V1
_database_code_CSD QODSUZ
_database_code_depnum_ccdc_archive 'CCDC 956858'
_chemical_formula_sum 'C72 H48 Ag4 Mo8 N24 O26'
_chemical_formula_moiety
;
(C36 H24 Ag2 N12 2+)2n,n(Mo8 O26 4-)
;
_journal_coden_Cambridge 222
_journal_volume 43
_journal_year 2014
_journal_page_first 7146
_journal_name_full 'Dalton Trans. '
loop_
_publ_author_name
"Lei Zhang"
"Xiaofei Kuang"
"Xiaoyuan Wu"
"Wenbin Yang"
"Canzhong Lu"
_chemical_name_systematic
;
catena-(bis(bis(\m~3~-2,4,6-tris(Pyridin-4-yl)-1,3,5-triazine)-di-silver) 
tetrakis(\m~3~-oxo)-octakis(\m~2~-oxo)-tetradecaoxo-octa-molybdenum)
;
_cell_volume   8456.805
_exptl_crystal_colour 'brown'
_exptl_crystal_density_diffrn 2.25
_exptl_crystal_description 'block-like'
_diffrn_ambient_temperature 440
#These two values have been output from a single CSD field.
_refine_ls_R_factor_gt 0.0526
_refine_ls_wR_factor_gt 0.0526
_symmetry_cell_setting monoclinic
_symmetry_space_group_name_H-M 'C 2/c'
_symmetry_Int_Tables_number 15
loop_
_symmetry_equiv_pos_site_id
_symmetry_equiv_pos_as_xyz
1 x,y,z
2 -x,y,1/2-z
3 1/2+x,1/2+y,z
4 1/2-x,1/2+y,1/2-z
5 -x,-y,-z
6 x,-y,-1/2+z
7 -1/2-x,-1/2-y,-z
8 -1/2+x,-1/2-y,-1/2+z
_cell_length_a 21.9475(9)
_cell_length_b 16.6741(7)
_cell_length_c 25.5226(17)
_cell_angle_alpha 90
_cell_angle_beta 115.119(6)
_cell_angle_gamma 90
_cell_formula_units_Z 4
loop_
_atom_type_symbol
_atom_type_radius_bond
C 0.68
H 0.23
Ag 1.45
Mo 1.54
N 0.68
O 0.68
loop_
_atom_site_label
_atom_site_type_symbol
_atom_site_fract_x
_atom_site_fract_y
_atom_site_fract_z
Ag1 Ag 0.32170(4) 0.74386(6) -0.13357(3)
Ag2 Ag 0.84425(4) 0.54332(5) 0.36689(3)
C1 C 0.5975(4) 0.5283(4) -0.0011(3)
C2 C 0.6234(4) 0.2440(4) 0.5004(3)
C3 C 0.5597(4) 0.1987(5) 0.4680(3)
C4 C 0.7764(4) 0.3615(5) 0.0081(4)
H1 H 0.79690 0.36460 0.04830
C5 C 0.5036(4) 0.6150(5) -0.0052(3)
H2 H 0.52330 0.61650 0.03500
C6 C 0.7975(4) 0.4164(5) 0.5038(4)
H3 H 0.81950 0.41230 0.54390
C7 C 0.5325(4) 0.1904(6) 0.4094(4)
H4 H 0.55350 0.21290 0.38800
C8 C 0.6814(4) 0.4478(5) 0.0050(4)
C9 C 0.7198(4) 0.3471(5) -0.1095(4)
H5 H 0.70040 0.34250 -0.14960
C10 C 0.4437(4) 0.6551(5) -0.0372(4)
H6 H 0.42380 0.68330 -0.01710
C11 C 0.6790(5) 0.5440(6) 0.1794(4)
H7 H 0.63500 0.56180 0.15900
C12 C 0.7096(4) 0.2740(5) 0.5858(3)
C13 C 0.5330(4) 0.5727(5) -0.0351(3)
C14 C 0.7427(4) 0.2637(5) 0.6492(4)
C15 C 0.7352(4) 0.3791(5) 0.4730(3)
C16 C 0.6799(4) 0.4980(5) 0.0857(3)
C17 C 0.7120(4) 0.5076(5) 0.1504(3)
C18 C 0.7358(4) 0.4351(6) 0.3872(4)
H8 H 0.71480 0.44120 0.34730
C19 C 0.7038(4) 0.3905(5) 0.4138(4)
H9 H 0.66170 0.36840 0.39200
C20 C 0.7046(4) 0.3278(4) 0.5031(4)
C21 C 0.7146(4) 0.3990(4) -0.0239(3)
C22 C 0.5256(4) 0.1650(6) 0.4978(4)
H10 H 0.54280 0.16900 0.53790
C23 C 0.8252(4) 0.4590(5) 0.4734(4)
H11 H 0.86740 0.48170 0.49380
C24 C 0.6856(4) 0.3894(5) -0.0833(3)
H12 H 0.64340 0.41110 -0.10560
C25 C 0.8065(5) 0.3192(6) -0.0221(4)
H13 H 0.84760 0.29430 -0.00090
C26 C 0.8062(5) 0.4949(7) 0.2408(4)
H14 H 0.85010 0.47720 0.26180
C27 C 0.4669(5) 0.1265(6) 0.4673(4)
H15 H 0.44430 0.10450 0.48760
C28 C 0.4730(4) 0.1479(6) 0.3820(4)
H16 H 0.45590 0.13980 0.34220
C29 C 0.7111(5) 0.5539(7) 0.2384(4)
H17 H 0.68810 0.57850 0.25740
C30 C 0.7456(5) 0.2058(7) 0.7355(4)
H18 H 0.72680 0.17100 0.75310
C31 C 0.5015(4) 0.5722(6) -0.0947(4)
H19 H 0.51910 0.54250 -0.11600
C32 C 0.4438(5) 0.6163(6) -0.1222(4)
H20 H 0.42480 0.61880 -0.16240
C33 C 0.8020(5) 0.3002(6) 0.6828(4)
H21 H 0.82480 0.33080 0.66630
C34 C 0.7145(5) 0.2129(7) 0.6765(4)
H22 H 0.67530 0.18440 0.65490
C35 C 0.7777(5) 0.4840(6) 0.1816(4)
H23 H 0.80220 0.46140 0.16320
C36 C 0.8277(5) 0.2905(8) 0.7426(4)
H24 H 0.86690 0.31820 0.76530
N1 N 0.4132(3) 0.6558(4) -0.0945(3)
N2 N 0.7793(3) 0.3129(4) -0.0793(3)
N3 N 0.7753(4) 0.5290(5) 0.2699(3)
N4 N 0.6228(3) 0.5372(4) 0.0571(3)
N5 N 0.6252(3) 0.4869(4) -0.0289(3)
N6 N 0.7109(3) 0.4502(4) 0.0628(3)
N7 N 0.7955(3) 0.4698(4) 0.4166(3)
N8 N 0.4396(3) 0.1182(5) 0.4105(3)
N9 N 0.8008(4) 0.2455(5) 0.7692(3)
N10 N 0.7377(3) 0.3229(4) 0.5610(3)
N11 N 0.6476(3) 0.2900(4) 0.4706(3)
N12 N 0.6525(3) 0.2337(4) 0.5575(3)
Mo1 Mo 1.00000 0.53360(8) 0.25000
Mo2 Mo 0.99866(4) 0.40982(4) 0.36097(3)
Mo3 Mo 0.99198(4) 0.20983(5) 0.35758(3)
Mo4 Mo 1.00000 0.09296(8) 0.25000
Mo5 Mo 0.90780(3) 0.30751(4) 0.21004(3)
O1 O 1.0632(8) 0.5956(8) 0.2915(8)
O2 O 0.9665(4) 0.4854(5) 0.2946(3)
O3 O 1.0535(4) 0.4704(6) 0.4149(4)
O4 O 0.9276(4) 0.4189(5) 0.3697(3)
O5 O 1.0332(4) 0.3104(5) 0.3942(3)
O6 O 0.9482(4) 0.3136(5) 0.2855(3)
O7 O 0.9245(4) 0.3957(5) 0.1770(3)
O8 O 0.9342(4) 0.2200(5) 0.1833(4)
O9 O 0.9226(4) 0.2119(6) 0.3707(4)
O10 O 1.0446(5) 0.1507(7) 0.4092(4)
O11 O 0.9533(4) 0.1422(5) 0.2887(3)
O12 O 0.8237(3) 0.3037(4) 0.1828(4)
O13 O 1.0584(6) 0.0343(6) 0.2973(5)
Ag1B Ag 0.82170(4) 0.24386(6) -0.13357(3)
Ag1B* Ag 0.82170(4) 0.24386(6) 0.86643(3)
Ag2B Ag 0.34425(4) 0.04332(5) 0.36689(3)
N2B N 0.2793(3) 0.8129(4) -0.0793(3)
N8B N 0.9396(3) 0.6182(5) 0.4105(3)
N9B N 0.3008(4) 0.7455(5) -0.2308(3)
Mo2A Mo 1.00134(4) 0.40982(4) 0.13903(3)
Mo3A Mo 1.00802(4) 0.20983(5) 0.14242(3)
Mo5A Mo 1.09220(3) 0.30751(4) 0.28996(3)
O1A O 0.9368(8) 0.5956(8) 0.2085(8)
O2A O 1.0335(4) 0.4854(5) 0.2054(3)
O3A O 0.9465(4) 0.4704(6) 0.0851(4)
O4A O 1.0724(4) 0.4189(5) 0.1303(3)
O5A O 0.9668(4) 0.3104(5) 0.1058(3)
O6A O 1.0518(4) 0.3136(5) 0.2145(3)
O7A O 1.0755(4) 0.3957(5) 0.3230(3)
O8A O 1.0658(4) 0.2200(5) 0.3167(4)
O9A O 1.0774(4) 0.2119(6) 0.1293(4)
O10A O 0.9554(5) 0.1507(7) 0.0908(4)
O11A O 1.0467(4) 0.1422(5) 0.2113(3)
O12A O 1.1763(3) 0.3037(4) 0.3172(4)
O13A O 0.9416(6) 0.0343(6) 0.2027(5)
#END
