
#######################################################################
#
#                 Cambridge Crystallographic Data Centre
#                                CCDC
#
#######################################################################
#
# If this CIF has been generated from an entry in the Cambridge
# Structural Database, then it will include bibliographic, chemical,
# crystal, experimental, refinement or atomic coordinate data resulting
# from the CCDC's data processing and validation procedures.
#
#######################################################################

data_CSD_CIF_QOFBUL
_audit_creation_date 2019-03-07
_audit_creation_method CSD-ConQuest-V1
_database_code_CSD QOFBUL
_database_code_depnum_ccdc_archive 'CCDC 1824754'
_chemical_formula_sum 'C20 H20 Cl4 I3.74 N1 O8 Y1'
_chemical_formula_moiety
;
(C12 Cl4 O8 Y1 1-)n,C8 H20 N1 1+,1.87(I2)
;
_journal_coden_Cambridge 1220
_journal_volume 25
_journal_year 2019
_journal_page_first 5222
_journal_name_full 'Chem.-Eur.J. '
loop_
_publ_author_name
"B.F.Abrahams"
"C.J.Kingsbury"
"J.E.Auckett"
"H.Chevreau"
"A.David Dharma"
"S.Duyker"
"Qilin He"
"Carol Hua"
"T.A.Hudson"
"K.S.Murray"
"W.Phonsri"
"V.K.Peterson"
"R.Robson"
"K.F.White"
_chemical_name_systematic
;
catena-[tetraethylammonium 
bis(\m-2,5-dichloro-3,6-dioxocyclohexa-1,4-diene-1,4-diolato)-yttrium(iii) 
iodine]
;
_chemical_name_common
;
catena-[tetraethylammonium bis(mu-chloranilato)-yttrium(iii) iodine]
;
_cell_volume   3092.639
_exptl_crystal_colour 'dark purple'
_exptl_crystal_density_diffrn 2.38
_exptl_crystal_description 'square block'
_diffrn_ambient_temperature 130.0
_refine_special_details
;
The structure is disordered by symmetry.

;
#These two values have been output from a single CSD field.
_refine_ls_R_factor_gt 0.0528
_refine_ls_wR_factor_gt 0.0528
_symmetry_cell_setting tetragonal
_symmetry_space_group_name_H-M 'I 4/m c m'
_symmetry_Int_Tables_number 140
loop_
_symmetry_equiv_pos_site_id
_symmetry_equiv_pos_as_xyz
1 x,y,z
2 -x,-y,z
3 -y,x,z
4 y,-x,z
5 -x,y,1/2-z
6 x,-y,1/2-z
7 y,x,1/2-z
8 -y,-x,1/2-z
9 1/2+x,1/2+y,1/2+z
10 1/2-x,1/2-y,1/2+z
11 1/2-y,1/2+x,1/2+z
12 1/2+y,1/2-x,1/2+z
13 1/2-x,1/2+y,-z
14 1/2+x,1/2-y,-z
15 1/2+y,1/2+x,-z
16 1/2-y,1/2-x,-z
17 -x,-y,-z
18 x,y,-z
19 y,-x,-z
20 -y,x,-z
21 x,-y,-1/2+z
22 -x,y,-1/2+z
23 -y,-x,-1/2+z
24 y,x,-1/2+z
25 -1/2-x,-1/2-y,-1/2-z
26 -1/2+x,-1/2+y,-1/2-z
27 -1/2+y,-1/2-x,-1/2-z
28 -1/2-y,-1/2+x,-1/2-z
29 -1/2+x,-1/2-y,z
30 -1/2-x,-1/2+y,z
31 -1/2-y,-1/2-x,z
32 -1/2+y,-1/2+x,z
_cell_length_a 12.1750(4)
_cell_length_b 12.1750(4)
_cell_length_c 20.8637(15)
_cell_angle_alpha 90
_cell_angle_beta 90
_cell_angle_gamma 90
_cell_formula_units_Z 4
loop_
_atom_type_symbol
_atom_type_radius_bond
C 0.68
H 0.23
Cl 0.99
I 1.40
N 0.68
O 0.68
Y 1.90
loop_
_atom_site_label
_atom_site_type_symbol
_atom_site_fract_x
_atom_site_fract_y
_atom_site_fract_z
Y1 Y 0.50000 0.50000 0.75000
O1 O 0.4115(4) 0.3618(4) 0.6912(3)
C1 C 0.3335(6) 0.3079(6) 0.7153(4)
Cl1 Cl 0.29740(17) 0.20260(17) 0.60235(13)
C2 C 0.2701(6) 0.2299(6) 0.6828(6)
C3 C 0.5380(12) 0.2919(12) 0.5115(7)
H1 H 0.59500 0.29970 0.48010
H2 H 0.47150 0.26840 0.49090
H3 H 0.55960 0.23820 0.54280
C4 C 0.5186(15) 0.4013(12) 0.5443(8)
H4 H 0.58150 0.41700 0.57140
H5 H 0.45510 0.39400 0.57210
N1 N 0.50000 0.50000 0.50000
I1 I 0.07832(5) 0.42168(5) 0.66210(6)
O1F O 0.3618(4) 0.4115(4) 0.8088(3)
C1F C 0.3079(6) 0.3335(6) 0.7847(4)
Cl1F Cl 0.20260(17) 0.29740(17) 0.89765(13)
C2F C 0.2299(6) 0.2701(6) 0.8172(6)
O1X O 0.0885(4) 0.1382(4) 0.8088(3)
C1X C 0.1665(6) 0.1921(6) 0.7847(4)
O1DA O 0.1382(4) 0.0885(4) 0.6912(3)
C1DA C 0.1921(6) 0.1665(6) 0.7153(4)
O1A O 0.5885(4) 0.6382(4) 0.6912(3)
C1A C 0.6665(6) 0.6921(6) 0.7153(4)
Cl1A Cl 0.70260(17) 0.79740(17) 0.60235(13)
C2A C 0.7299(6) 0.7701(6) 0.6828(6)
O1G O 0.6382(4) 0.5885(4) 0.8088(3)
C1G C 0.6921(6) 0.6665(6) 0.7847(4)
Cl1G Cl 0.79740(17) 0.70260(17) 0.89765(13)
C2G C 0.7701(6) 0.7299(6) 0.8172(6)
O1Y O 0.9115(4) 0.8618(4) 0.8088(3)
C1Y C 0.8335(6) 0.8079(6) 0.7847(4)
O1EA O 0.8618(4) 0.9115(4) 0.6912(3)
C1EA C 0.8079(6) 0.8335(6) 0.7153(4)
Y1X Y 0.00000 0.00000 0.75000
Y1X* Y 1.00000 1.00000 0.75000
O1B O 0.6382(4) 0.4115(4) 0.6912(3)
O1C O 0.3618(4) 0.5885(4) 0.6912(3)
O1D O 0.5885(4) 0.3618(4) 0.8088(3)
O1E O 0.4115(4) 0.6382(4) 0.8088(3)
C3A C 0.4620(12) 0.7081(12) 0.5115(7)
H1A H 0.40500 0.70030 0.48010
H2A H 0.52850 0.73160 0.49090
H3A H 0.44040 0.76180 0.54280
C4A C 0.4814(15) 0.5987(12) 0.5443(8)
H4A H 0.41850 0.58300 0.57140
H5A H 0.54490 0.60600 0.57210
C3B C 0.7081(12) 0.5380(12) 0.5115(7)
H1B H 0.70030 0.59500 0.48010
H2B H 0.73160 0.47150 0.49090
H3B H 0.76180 0.55960 0.54280
C4B C 0.5987(15) 0.5186(12) 0.5443(8)
H4B H 0.58300 0.58150 0.57140
H5B H 0.60600 0.45510 0.57210
C3C C 0.2919(12) 0.4620(12) 0.5115(7)
H1C H 0.29970 0.40500 0.48010
H2C H 0.26840 0.52850 0.49090
H3C H 0.23820 0.44040 0.54280
C4C C 0.4013(15) 0.4814(12) 0.5443(8)
H4C H 0.41700 0.41850 0.57140
H5C H 0.39400 0.54490 0.57210
C3P C 0.4620(12) 0.7081(12) 0.4885(7)
H1P H 0.40500 0.70030 0.51990
H2P H 0.52850 0.73160 0.50910
H3P H 0.44040 0.76180 0.45720
C4P C 0.4814(15) 0.5987(12) 0.4557(8)
H4P H 0.41850 0.58300 0.42860
H5P H 0.54490 0.60600 0.42790
C3Q C 0.5380(12) 0.2919(12) 0.4885(7)
H1Q H 0.59500 0.29970 0.51990
H2Q H 0.47150 0.26840 0.50910
H3Q H 0.55960 0.23820 0.45720
C4Q C 0.5186(15) 0.4013(12) 0.4557(8)
H4Q H 0.58150 0.41700 0.42860
H5Q H 0.45510 0.39400 0.42790
C3R C 0.2919(12) 0.4620(12) 0.4885(7)
H1R H 0.29970 0.40500 0.51990
H2R H 0.26840 0.52850 0.50910
H3R H 0.23820 0.44040 0.45720
C4R C 0.4013(15) 0.4814(12) 0.4557(8)
H4R H 0.41700 0.41850 0.42860
H5R H 0.39400 0.54490 0.42790
C3S C 0.7081(12) 0.5380(12) 0.4885(7)
H1S H 0.70030 0.59500 0.51990
H2S H 0.73160 0.47150 0.50910
H3S H 0.76180 0.55960 0.45720
C4S C 0.5987(15) 0.5186(12) 0.4557(8)
H4S H 0.58300 0.58150 0.42860
H5S H 0.60600 0.45510 0.42790
I1A I -0.07832(5) 0.57832(5) 0.66210(6)
#END
