
#######################################################################
#
#                 Cambridge Crystallographic Data Centre
#                                CCDC
#
#######################################################################
#
# If this CIF has been generated from an entry in the Cambridge
# Structural Database, then it will include bibliographic, chemical,
# crystal, experimental, refinement or atomic coordinate data resulting
# from the CCDC's data processing and validation procedures.
#
#######################################################################

data_CSD_CIF_QOFBIZ
_audit_creation_date 2019-03-07
_audit_creation_method CSD-ConQuest-V1
_database_code_CSD QOFBIZ
_database_code_depnum_ccdc_archive 'CCDC 1824752'
_chemical_formula_sum 'C16 H12 Cl4 N1 O8 Sc1'
_chemical_formula_moiety
;
(C12 Cl4 O8 Sc1 1-)n,C4 H12 N1 1+
;
_journal_coden_Cambridge 1220
_journal_volume 25
_journal_year 2019
_journal_page_first 5222
_journal_name_full 'Chem.-Eur.J. '
loop_
_publ_author_name
"B.F.Abrahams"
"C.J.Kingsbury"
"J.E.Auckett"
"H.Chevreau"
"A.David Dharma"
"S.Duyker"
"Qilin He"
"Carol Hua"
"T.A.Hudson"
"K.S.Murray"
"W.Phonsri"
"V.K.Peterson"
"R.Robson"
"K.F.White"
_chemical_name_systematic
;
catena-[tetramethylammonium 
bis(\m-2,5-dichloro-3,6-dioxocyclohexa-1,4-diene-1,4-diolato)-scandium(iii)]
;
_chemical_name_common
;
catena-[tetramethylammonium bis(mu-chloranilato)-scandium(iii)]
;
_cell_volume   2737.335
_exptl_crystal_colour 'purple'
_exptl_crystal_density_diffrn 1.293
_exptl_special_details
;
We calculate void space in the structure

;
_exptl_crystal_description 'square plate'
_diffrn_ambient_temperature 400
_refine_special_details
;
C7 disordered by symmetry over two configurations with occupancy 0.5.

;
#These two values have been output from a single CSD field.
_refine_ls_R_factor_gt 0.068
_refine_ls_wR_factor_gt 0.068
_symmetry_cell_setting tetragonal
_symmetry_space_group_name_H-M 'I 4/m c m'
_symmetry_Int_Tables_number 140
loop_
_symmetry_equiv_pos_site_id
_symmetry_equiv_pos_as_xyz
1 x,y,z
2 -x,-y,z
3 -y,x,z
4 y,-x,z
5 -x,y,1/2-z
6 x,-y,1/2-z
7 y,x,1/2-z
8 -y,-x,1/2-z
9 1/2+x,1/2+y,1/2+z
10 1/2-x,1/2-y,1/2+z
11 1/2-y,1/2+x,1/2+z
12 1/2+y,1/2-x,1/2+z
13 1/2-x,1/2+y,-z
14 1/2+x,1/2-y,-z
15 1/2+y,1/2+x,-z
16 1/2-y,1/2-x,-z
17 -x,-y,-z
18 x,y,-z
19 y,-x,-z
20 -y,x,-z
21 x,-y,-1/2+z
22 -x,y,-1/2+z
23 -y,-x,-1/2+z
24 y,x,-1/2+z
25 -1/2-x,-1/2-y,-1/2-z
26 -1/2+x,-1/2+y,-1/2-z
27 -1/2+y,-1/2-x,-1/2-z
28 -1/2-y,-1/2+x,-1/2-z
29 -1/2+x,-1/2-y,z
30 -1/2-x,-1/2+y,z
31 -1/2-y,-1/2-x,z
32 -1/2+y,-1/2+x,z
_cell_length_a 11.6882(2)
_cell_length_b 11.6882(2)
_cell_length_c 20.0370(6)
_cell_angle_alpha 90
_cell_angle_beta 90
_cell_angle_gamma 90
_cell_formula_units_Z 4
loop_
_atom_type_symbol
_atom_type_radius_bond
C 0.68
H 0.23
Cl 0.99
N 0.68
O 0.68
Sc 1.70
loop_
_atom_site_label
_atom_site_type_symbol
_atom_site_fract_x
_atom_site_fract_y
_atom_site_fract_z
Sc1 Sc 0.50000 0.50000 0.25000
O1 O 0.57210(19) 0.64517(18) 0.30725(14)
C1 C 0.6557(3) 0.6981(3) 0.28390(19)
C2 C 0.7097(3) 0.7903(3) 0.3144(3)
Cl1 Cl 0.66113(15) 0.83887(15) 0.39049(10)
N1 N 0.50000 0.50000 0.50000
C3 C 0.558(2) 0.5897(17) 0.4559(5)
H1 H 0.52710 0.66390 0.46570
H2 H 0.54430 0.57180 0.40980
H3 H 0.63880 0.58970 0.46430
O1F O 0.64517(19) 0.57210(18) 0.19275(14)
C1F C 0.6981(3) 0.6557(3) 0.21610(19)
C2F C 0.7903(3) 0.7097(3) 0.1856(3)
Cl1F Cl 0.83887(15) 0.66113(15) 0.10951(10)
O1X O 0.92790(19) 0.85483(18) 0.19275(14)
C1X C 0.8443(3) 0.8019(3) 0.21610(19)
O1DA O 0.85483(19) 0.92790(18) 0.30725(14)
C1DA C 0.8019(3) 0.8443(3) 0.28390(19)
O1A O 0.42790(19) 0.35483(18) 0.30725(14)
C1A C 0.3443(3) 0.3019(3) 0.28390(19)
C2A C 0.2903(3) 0.2097(3) 0.3144(3)
Cl1A Cl 0.33887(15) 0.16113(15) 0.39049(10)
O1G O 0.35483(19) 0.42790(18) 0.19275(14)
C1G C 0.3019(3) 0.3443(3) 0.21610(19)
C2G C 0.2097(3) 0.2903(3) 0.1856(3)
Cl1G Cl 0.16113(15) 0.33887(15) 0.10951(10)
O1Y O 0.07210(19) 0.14517(18) 0.19275(14)
C1Y C 0.1557(3) 0.1981(3) 0.21610(19)
O1EA O 0.14517(19) 0.07210(18) 0.30725(14)
C1EA C 0.1981(3) 0.1557(3) 0.28390(19)
Sc1X Sc 0.00000 0.00000 0.25000
Sc1X* Sc 1.00000 1.00000 0.25000
O1B O 0.35483(19) 0.57210(18) 0.30725(14)
O1C O 0.64517(19) 0.42790(18) 0.30725(14)
O1D O 0.42790(19) 0.64517(18) 0.19275(14)
O1E O 0.57210(19) 0.35483(18) 0.19275(14)
C3A C 0.442(2) 0.4103(17) 0.4559(5)
H1A H 0.47290 0.33610 0.46570
H2A H 0.45570 0.42820 0.40980
H3A H 0.36120 0.41030 0.46430
C3B C 0.4103(20) 0.5580(17) 0.4559(5)
H1B H 0.33610 0.52710 0.46570
H2B H 0.42820 0.54430 0.40980
H3B H 0.41030 0.63880 0.46430
C3C C 0.5897(20) 0.4420(17) 0.4559(5)
H1C H 0.66390 0.47290 0.46570
H2C H 0.57180 0.45570 0.40980
H3C H 0.58970 0.36120 0.46430
C3P C 0.442(2) 0.4103(17) 0.5441(5)
H1P H 0.47290 0.33610 0.53430
H2P H 0.45570 0.42820 0.59020
H3P H 0.36120 0.41030 0.53570
C3Q C 0.558(2) 0.5897(17) 0.5441(5)
H1Q H 0.52710 0.66390 0.53430
H2Q H 0.54430 0.57180 0.59020
H3Q H 0.63880 0.58970 0.53570
C3R C 0.5897(20) 0.4420(17) 0.5441(5)
H1R H 0.66390 0.47290 0.53430
H2R H 0.57180 0.45570 0.59020
H3R H 0.58970 0.36120 0.53570
C3S C 0.4103(20) 0.5580(17) 0.5441(5)
H1S H 0.33610 0.52710 0.53430
H2S H 0.42820 0.54430 0.59020
H3S H 0.41030 0.63880 0.53570
#END
