
#######################################################################
#
#                 Cambridge Crystallographic Data Centre
#                                CCDC
#
#######################################################################
#
# If this CIF has been generated from an entry in the Cambridge
# Structural Database, then it will include bibliographic, chemical,
# crystal, experimental, refinement or atomic coordinate data resulting
# from the CCDC's data processing and validation procedures.
#
#######################################################################

data_CSD_CIF_QOFCAR
_audit_creation_date 2014-03-27
_audit_creation_method CSD-ConQuest-V1
_database_code_CSD QOFCAR
_database_code_depnum_ccdc_archive 'CCDC 956834'
_chemical_formula_sum 'C72 H51 Ag4 Mo8 N24 O27.5'
_chemical_formula_moiety
;
(C36 H24 Ag2 N12 2+)2n,n(Mo8 O26 4-),1.5n(H2 O1)
;
_journal_coden_Cambridge 222
_journal_volume 43
_journal_year 2014
_journal_page_first 7146
_journal_name_full 'Dalton Trans. '
loop_
_publ_author_name
"Lei Zhang"
"Xiaofei Kuang"
"Xiaoyuan Wu"
"Wenbin Yang"
"Canzhong Lu"
_chemical_name_systematic
;
catena-(bis(\m~3~-2,4,6-tris(Pyridin-4-yl)-1,3,5-triazine)-di-silver 
tetrakis(\m~3~-oxo)-octakis(\m~2~-oxo)-tetradecaoxo-octa-molybdenum 
sesquihydrate)
;
_cell_volume   8391.398
_exptl_crystal_colour 'pale yellow'
_exptl_crystal_density_diffrn 2.289
_exptl_crystal_description 'block-like'
_diffrn_ambient_temperature 190.0
#These two values have been output from a single CSD field.
_refine_ls_R_factor_gt 0.0283
_refine_ls_wR_factor_gt 0.0283
_symmetry_cell_setting monoclinic
_symmetry_space_group_name_H-M 'C 2/c'
_symmetry_Int_Tables_number 15
loop_
_symmetry_equiv_pos_site_id
_symmetry_equiv_pos_as_xyz
1 x,y,z
2 -x,y,1/2-z
3 1/2+x,1/2+y,z
4 1/2-x,1/2+y,1/2-z
5 -x,-y,-z
6 x,-y,-1/2+z
7 -1/2-x,-1/2-y,-z
8 -1/2+x,-1/2-y,-1/2+z
_cell_length_a 22.0383(6)
_cell_length_b 16.4151(6)
_cell_length_c 25.6790(8)
_cell_angle_alpha 90
_cell_angle_beta 115.404(4)
_cell_angle_gamma 90
_cell_formula_units_Z 4
loop_
_atom_type_symbol
_atom_type_radius_bond
C 0.68
H 0.23
Ag 1.45
Mo 1.54
N 0.68
O 0.68
loop_
_atom_site_label
_atom_site_type_symbol
_atom_site_fract_x
_atom_site_fract_y
_atom_site_fract_z
Ag1 Ag 0.344043(13) 0.04164(2) 0.368111(13)
Ag2 Ag 0.823048(14) 0.24999(2) 0.867650(13)
C1 C 0.62428(16) 0.2425(2) 0.50295(16)
C2 C 0.73570(16) 0.4333(2) 0.38904(17)
H1 H 0.71390 0.43910 0.34920
C3 C 1.00281(16) 0.1170(2) 0.99680(17)
H2 H 1.02220 0.11730 1.03690
C4 C 1.09731(15) 0.0309(2) 1.00158(16)
C5 C 0.56013(16) 0.1975(2) 0.47065(16)
C6 C 0.53320(17) 0.1881(2) 0.41130(17)
H3 H 0.55440 0.21010 0.39010
C7 C 1.21976(17) -0.1501(2) 0.89295(17)
H4 H 1.19950 -0.15440 0.85300
C8 C 1.27780(17) -0.1370(2) 1.00976(17)
H5 H 1.29860 -0.13400 1.04980
C9 C 0.52672(17) 0.1634(2) 0.50030(17)
H6 H 0.54420 0.16770 0.54020
C10 C 0.94347(16) 0.1581(2) 0.96589(16)
H7 H 0.92340 0.18580 0.98600
C11 C 0.74307(16) 0.2635(2) 0.65187(16)
C12 C 1.17813(17) 0.0431(3) 1.18178(17)
H8 H 1.13420 0.06150 1.16170
C13 C 0.71035(16) 0.2734(2) 0.58824(16)
C14 C 1.18211(16) -0.0505(2) 1.00736(16)
C15 C 0.79856(16) 0.4158(2) 0.50549(16)
H9 H 0.82110 0.41190 0.54540
C16 C 1.17975(16) -0.0026(2) 1.08896(16)
C17 C 1.30641(18) -0.0070(3) 1.24341(17)
H10 H 1.35050 -0.02400 1.26450
C18 C 0.70578(16) 0.3272(2) 0.50573(16)
C19 C 1.21538(16) -0.1000(2) 0.97817(16)
C20 C 0.46693(17) 0.1230(3) 0.46955(17)
H11 H 0.44460 0.10060 0.48970
C21 C 1.03298(16) 0.0754(2) 0.96759(16)
C22 C 1.30787(17) -0.1782(2) 0.97987(17)
H12 H 1.34950 -0.20230 1.00090
C23 C 0.82562(17) 0.4592(2) 0.47431(17)
H13 H 0.86740 0.48330 0.49460
C24 C 0.74570(19) 0.2067(3) 0.73784(18)
H14 H 0.72710 0.17140 0.75540
C25 C 0.47349(17) 0.1448(2) 0.38455(17)
H15 H 0.45630 0.13660 0.34490
C26 C 1.21054(18) 0.0514(3) 1.24062(17)
H16 H 1.18740 0.07480 1.25980
C27 C 1.00230(17) 0.0755(2) 0.90795(17)
H17 H 1.02090 0.04690 0.88700
C28 C 1.21131(17) 0.0074(2) 1.15250(16)
C29 C 0.73623(16) 0.3780(2) 0.47519(16)
C30 C 0.82724(19) 0.2969(3) 0.74460(18)
H18 H 0.86590 0.32590 0.76720
C31 C 1.27757(17) -0.0183(2) 1.18415(18)
H19 H 1.30160 -0.04240 1.16600
C32 C 1.18635(16) -0.1083(2) 0.91899(16)
H20 H 1.14440 -0.08560 0.89690
C33 C 0.70461(17) 0.3889(2) 0.41566(16)
H21 H 0.66260 0.36610 0.39410
C34 C 0.80199(18) 0.3053(2) 0.68565(17)
H22 H 0.82350 0.33780 0.66900
C35 C 0.71602(18) 0.2116(3) 0.67845(17)
H23 H 0.67840 0.18040 0.65670
C36 C 0.94322(17) 0.1191(2) 0.88008(17)
H24 H 0.92340 0.12020 0.84000
N1 N 0.43951(13) 0.11428(19) 0.41219(14)
N2 N 0.79617(13) 0.46893(18) 0.41734(13)
N3 N 0.80019(15) 0.2502(2) 0.77175(14)
N4 N 0.64811(13) 0.28904(19) 0.47305(13)
N5 N 0.73846(13) 0.32270(19) 0.56327(13)
N6 N 0.65352(13) 0.23159(19) 0.55984(13)
N7 N 0.91322(14) 0.1598(2) 0.90774(14)
N8 N 1.28014(14) -0.18532(19) 0.92206(14)
N9 N 1.27477(15) 0.0268(2) 1.27187(14)
N10 N 1.12590(13) -0.00982(19) 0.97340(13)
N11 N 1.21091(13) -0.04912(19) 1.06483(14)
N12 N 1.12201(13) 0.03761(19) 1.05936(13)
Mo1 Mo 0.50000 0.03746(4) 0.25000
Mo2 Mo 0.498248(14) -0.08803(2) 0.360363(14)
Mo3 Mo 0.488811(14) -0.29121(2) 0.356296(14)
Mo4 Mo 0.50000 -0.40120(3) 0.25000
Mo5 Mo 0.408267(14) -0.19336(2) 0.208784(14)
O1 O 0.5620(2) 0.0994(3) 0.2953(2)
O2 O 0.46403(12) -0.01435(17) 0.29306(12)
O3 O 0.55204(12) -0.02495(18) 0.41183(12)
O4 O 0.42634(12) -0.08321(18) 0.36983(13)
O5 O 0.53329(12) -0.19012(16) 0.39262(11)
O6 O 0.44604(14) -0.18564(17) 0.28576(12)
O7 O 0.42611(13) -0.10460(18) 0.17878(13)
O8 O 0.32330(12) -0.19995(17) 0.18254(13)
O9 O 0.42100(12) -0.28760(18) 0.37133(13)
O10 O 0.54110(12) -0.35725(18) 0.40558(12)
O11 O 0.44970(12) -0.35810(16) 0.28780(12)
O12 O 0.43804(12) -0.28229(17) 0.18667(12)
O13 O 0.55679(14) -0.4640(2) 0.29977(13)
O14 O 0.5988(4) -0.6133(5) 0.2675(3)
H25 H 0.58580 -0.56930 0.27700
H26 H 0.56950 -0.64980 0.26240
O15 O 0.50000 -0.7362(11) 0.25000
H27 H 0.52990 -0.70020 0.25580
H28? H 0.51940 -0.78120 0.26370
Ag1* Ag 1.344043(13) 0.04164(2) 1.368111(13)
Ag1B Ag 0.844043(13) 0.54164(2) 0.368111(13)
Ag2B Ag 1.323048(14) -0.25001(2) 0.867650(13)
N2B N 0.29617(13) -0.03107(18) 0.41734(13)
N8B N 0.78014(14) 0.31468(19) 0.92206(14)
N9* N 0.27477(15) 0.0268(2) 0.27187(14)
Mo2A Mo 0.501752(14) -0.08803(2) 0.139637(14)
Mo3A Mo 0.511189(14) -0.29121(2) 0.143704(14)
Mo5A Mo 0.591733(14) -0.19336(2) 0.291216(14)
O1A O 0.4380(2) 0.0994(3) 0.2047(2)
O2A O 0.53597(12) -0.01435(17) 0.20694(12)
O3A O 0.44796(12) -0.02495(18) 0.08817(12)
O4A O 0.57366(12) -0.08321(18) 0.13017(13)
O5A O 0.46671(12) -0.19012(16) 0.10738(11)
O6A O 0.55396(14) -0.18564(17) 0.21424(12)
O7A O 0.57389(13) -0.10460(18) 0.32122(13)
O8A O 0.67670(12) -0.19995(17) 0.31746(13)
O9A O 0.57900(12) -0.28760(18) 0.12867(13)
O10A O 0.45890(12) -0.35725(18) 0.09442(12)
O11A O 0.55030(12) -0.35810(16) 0.21220(12)
O12A O 0.56196(12) -0.28229(17) 0.31333(12)
O13A O 0.44321(14) -0.4640(2) 0.20023(13)
H27A H 0.47010 -0.70020 0.24420
#END
