
#######################################################################
#
#                 Cambridge Crystallographic Data Centre
#                                CCDC
#
#######################################################################
#
# If this CIF has been generated from an entry in the Cambridge
# Structural Database, then it will include bibliographic, chemical,
# crystal, experimental, refinement or atomic coordinate data resulting
# from the CCDC's data processing and validation procedures.
#
#######################################################################

data_CSD_CIF_QOFCOF
_audit_creation_date 2014-03-27
_audit_creation_method CSD-ConQuest-V1
_database_code_CSD QOFCOF
_database_code_depnum_ccdc_archive 'CCDC 956837'
_chemical_formula_sum 'C72 H51 Ag4 Mo8 N24 O27.5'
_chemical_formula_moiety
;
(C36 H24 Ag2 N12 2+)2n,n(Mo8 O26 4-),1.5n(H2 O1)
;
_journal_coden_Cambridge 222
_journal_volume 43
_journal_year 2014
_journal_page_first 7146
_journal_name_full 'Dalton Trans. '
loop_
_publ_author_name
"Lei Zhang"
"Xiaofei Kuang"
"Xiaoyuan Wu"
"Wenbin Yang"
"Canzhong Lu"
_chemical_name_systematic
;
catena-(bis(\m~3~-2,4,6-tris(Pyridin-4-yl)-1,3,5-triazine)-di-silver 
tetrakis(\m~3~-oxo)-octakis(\m~2~-oxo)-tetradecaoxo-octa-molybdenum 
sesquihydrate)
;
_cell_volume   8436.501
_exptl_crystal_density_diffrn 2.276
_exptl_crystal_description 'block-like'
_diffrn_ambient_temperature 280
_refine_special_details
;
O15 disordered by symmetry over two configurations with occupancy 0.25.

;
#These two values have been output from a single CSD field.
_refine_ls_R_factor_gt 0.0309
_refine_ls_wR_factor_gt 0.0309
_symmetry_cell_setting monoclinic
_symmetry_space_group_name_H-M 'C 2/c'
_symmetry_Int_Tables_number 15
loop_
_symmetry_equiv_pos_site_id
_symmetry_equiv_pos_as_xyz
1 x,y,z
2 -x,y,1/2-z
3 1/2+x,1/2+y,z
4 1/2-x,1/2+y,1/2-z
5 -x,-y,-z
6 x,-y,-1/2+z
7 -1/2-x,-1/2-y,-z
8 -1/2+x,-1/2-y,-1/2+z
_cell_length_a 22.0121(6)
_cell_length_b 16.5301(6)
_cell_length_c 25.6641(9)
_cell_angle_alpha 90
_cell_angle_beta 115.386(5)
_cell_angle_gamma 90
_cell_formula_units_Z 4
loop_
_atom_type_symbol
_atom_type_radius_bond
C 0.68
H 0.23
Ag 1.45
Mo 1.54
N 0.68
O 0.68
loop_
_atom_site_label
_atom_site_type_symbol
_atom_site_fract_x
_atom_site_fract_y
_atom_site_fract_z
Ag1 Ag -0.226084(16) 0.70883(2) -0.631747(15)
Ag2 Ag 0.294821(17) 1.00096(2) -0.132307(15)
C1 C -0.07686(19) 1.4005(3) -0.10736(19)
H1 H -0.09620 1.40560 -0.14730
C2 C 0.1280(2) 1.0618(3) -0.58873(19)
H2 H 0.08560 1.03980 -0.61000
C3 C 0.15399(18) 1.2193(2) 0.00136(18)
C4 C 0.12825(18) 1.0072(2) -0.49744(18)
C5 C -0.0968(2) 0.8167(3) -0.61092(19)
H3 H -0.11490 0.81060 -0.65080
C6 C -0.0184(2) 1.3872(3) 0.00948(19)
H4 H 0.00070 1.38420 0.04950
C7 C 0.07521(19) 1.3008(2) 0.00726(18)
C8 C 0.15995(19) 1.0526(2) -0.52958(18)
C9 C 0.24355(19) 1.1335(3) -0.00322(18)
H5 H 0.26420 1.13320 0.03690
C10 C 0.2233(2) 1.0863(3) -0.50016(19)
H6 H 0.24610 1.08170 -0.46030
C11 C 0.15821(19) 0.9867(3) -0.34837(18)
C12 C -0.0391(2) 0.8616(3) -0.58412(18)
H7 H -0.01900 0.88510 -0.60580
C13 C 0.12806(18) 0.9763(2) -0.41174(17)
C14 C 0.2719(2) 1.0926(3) -0.03433(19)
H8 H 0.31210 1.06510 -0.01410
C15 C 0.2520(2) 1.1264(3) -0.5305(2)
H9 H 0.29450 1.14870 -0.51020
C16 C 0.05010(19) 0.9227(2) -0.49413(18)
C17 C 0.2796(2) 1.1983(3) 0.2406(2)
H10 H 0.32160 1.17430 0.25970
C18 C 0.18403(19) 1.1749(2) -0.03273(17)
C19 C 0.1904(2) 1.2426(3) 0.15193(18)
C20 C -0.01794(19) 1.3582(2) -0.08116(18)
H11 H 0.00150 1.33490 -0.10330
C21 C 0.15897(19) 1.2525(2) 0.08851(18)
C22 C 0.1607(2) 1.1048(3) -0.61567(19)
H12 H 0.13830 1.11270 -0.65530
C23 C 0.1867(2) 1.2573(3) 0.2428(2)
H13 H 0.16370 1.27480 0.26380
C24 C -0.04290(19) 0.8339(2) -0.49464(18)
H14 H -0.02530 0.83780 -0.45470
C25 C 0.2529(2) 1.2072(3) 0.18124(19)
H15 H 0.27690 1.18940 0.16120
C26 C 0.2121(2) 1.0379(3) -0.3216(2)
H16 H 0.22840 1.06830 -0.34340
C27 C 0.01259(19) 1.3501(2) -0.02197(18)
C28 C 0.2417(2) 1.0437(3) -0.2624(2)
H17 H 0.27750 1.07930 -0.24510
C29 C 0.1565(2) 1.2683(3) 0.1841(2)
H18 H 0.11430 1.29230 0.16620
C30 C -0.1010(2) 0.7907(2) -0.52529(19)
H19 H -0.12240 0.76690 -0.50480
C31 C -0.0779(2) 1.4284(3) -0.0203(2)
H20 H -0.09810 1.45290 0.00090
C32 C 0.1337(2) 0.9450(3) -0.3145(2)
H21 H 0.09590 0.91210 -0.33110
C33 C -0.01086(19) 0.8720(2) -0.52517(18)
C34 C 0.1553(2) 1.1746(3) -0.09224(19)
H22 H 0.11590 1.20310 -0.11320
C35 C 0.1668(2) 0.9535(3) -0.2558(2)
H23 H 0.15040 0.92480 -0.23340
C36 C 0.1864(2) 1.1310(3) -0.12001(19)
H24 H 0.16590 1.12960 -0.16010
N1 N -0.12859(16) 0.7809(2) -0.58231(15)
N2 N 0.22223(16) 1.1354(2) -0.58802(16)
N3 N 0.22110(19) 1.0002(2) -0.22825(16)
N4 N 0.07457(16) 0.9608(2) -0.52723(15)
N5 N 0.15590(16) 1.0184(2) -0.44058(15)
N6 N 0.07492(16) 0.9276(2) -0.43688(15)
N7 N 0.24452(17) 1.0905(2) -0.09229(16)
N8 N 0.24695(19) 1.2232(2) 0.27181(16)
N9 N -0.10831(16) 1.4354(2) -0.07793(16)
N10 N 0.09757(16) 1.2605(2) -0.02662(15)
N11 N 0.18686(16) 1.2127(2) 0.05897(15)
N12 N 0.10392(16) 1.2990(2) 0.06458(15)
Mo1 Mo -0.50000 0.71396(4) -0.75000
Mo2 Mo -0.388005(17) 0.83898(2) -0.639608(15)
Mo3 Mo -0.382905(17) 1.04087(2) -0.643557(16)
Mo4 Mo -0.50000 1.15172(4) -0.75000
Mo5 Mo -0.449209(17) 0.94361(2) -0.791227(16)
O1 O -0.5176(2) 0.6523(3) -0.7052(3)
O2 O -0.42149(15) 0.76527(19) -0.70668(14)
O3 O -0.39009(17) 0.7767(2) -0.58779(15)
O4 O -0.30670(15) 0.8335(2) -0.63042(15)
O5 O -0.39030(14) 0.94029(19) -0.60713(13)
O6 O -0.41101(18) 0.93566(19) -0.71455(14)
O7 O -0.49707(15) 0.8555(2) -0.82179(16)
O8 O -0.39043(16) 0.9497(2) -0.81725(16)
O9 O -0.30004(16) 1.0376(2) -0.62938(16)
O10 O -0.38546(15) 1.1059(2) -0.59404(15)
O11 O -0.41240(14) 1.10795(19) -0.71207(14)
O12 O -0.50101(14) 1.03231(19) -0.81420(14)
O13 O -0.50787(19) 1.2138(2) -0.70064(16)
O14 O -0.5794(6) 1.3636(7) -0.7322(4)
H25 H -0.55090 1.40020 -0.72920
H26 H -0.55880 1.31860 -0.72290
O15 O -0.4861(14) 1.4828(15) -0.7216(10)
H27 H -0.49850 1.52980 -0.71670
H28 H -0.51660 1.44920 -0.72440
Ag1B Ag 0.273916(16) 1.20883(2) -0.631747(15)
Ag1B* Ag 0.273916(16) 1.20883(2) 0.368253(15)
Ag2B Ag -0.205179(17) 1.50096(2) -0.132307(15)
N2B N -0.27777(16) 0.6354(2) -0.58802(16)
N8B N -0.25305(19) 0.7232(2) -0.72819(16)
N9B N 0.39169(16) 0.9354(2) -0.07793(16)
Mo2A Mo -0.611995(17) 0.83898(2) -0.860392(15)
Mo3A Mo -0.617095(17) 1.04087(2) -0.856443(16)
Mo5A Mo -0.550791(17) 0.94361(2) -0.708773(16)
O1A O -0.4824(2) 0.6523(3) -0.7948(3)
O2A O -0.57851(15) 0.76527(19) -0.79332(14)
O3A O -0.60991(17) 0.7767(2) -0.91221(15)
O4A O -0.69330(15) 0.8335(2) -0.86958(15)
O5A O -0.60970(14) 0.94029(19) -0.89287(13)
O6A O -0.58899(18) 0.93566(19) -0.78545(14)
O7A O -0.50293(15) 0.8555(2) -0.67821(16)
O8A O -0.60957(16) 0.9497(2) -0.68275(16)
O9A O -0.69996(16) 1.0376(2) -0.87062(16)
O10A O -0.61454(15) 1.1059(2) -0.90596(15)
O11A O -0.58760(14) 1.10795(19) -0.78793(14)
O12A O -0.49899(14) 1.03231(19) -0.68580(14)
O13A O -0.49213(19) 1.2138(2) -0.79936(16)
#END
