
#######################################################################
#
#                 Cambridge Crystallographic Data Centre
#                                CCDC
#
#######################################################################
#
# If this CIF has been generated from an entry in the Cambridge
# Structural Database, then it will include bibliographic, chemical,
# crystal, experimental, refinement or atomic coordinate data resulting
# from the CCDC's data processing and validation procedures.
#
#######################################################################

data_CSD_CIF_QOFCEV
_audit_creation_date 2014-03-27
_audit_creation_method CSD-ConQuest-V1
_database_code_CSD QOFCEV
_database_code_depnum_ccdc_archive 'CCDC 956835'
_chemical_formula_sum 'C72 H51.26 Ag4 Mo8 N24 O27.63'
_chemical_formula_moiety
;
(C36 H24 Ag2 N12 2+)2n,n(Mo8 O26 4-),1.63n(H2 O1)
;
_journal_coden_Cambridge 222
_journal_volume 43
_journal_year 2014
_journal_page_first 7146
_journal_name_full 'Dalton Trans. '
loop_
_publ_author_name
"Lei Zhang"
"Xiaofei Kuang"
"Xiaoyuan Wu"
"Wenbin Yang"
"Canzhong Lu"
_chemical_name_systematic
;
catena-(bis(\m~3~-2,4,6-tris(Pyridin-4-yl)-1,3,5-triazine)-di-silver 
tetrakis(\m~3~-oxo)-octakis(\m~2~-oxo)-tetradecaoxo-octa-molybdenum hydrate)
;
_cell_volume   8411.205
_exptl_crystal_density_diffrn 2.285
_exptl_crystal_description 'block-like'
_diffrn_ambient_temperature 220
_refine_special_details
;
O15 disordered by symmetry over two configurations with occupancy 0.25.

;
#These two values have been output from a single CSD field.
_refine_ls_R_factor_gt 0.0287
_refine_ls_wR_factor_gt 0.0287
_symmetry_cell_setting monoclinic
_symmetry_space_group_name_H-M 'C 2/c'
_symmetry_Int_Tables_number 15
loop_
_symmetry_equiv_pos_site_id
_symmetry_equiv_pos_as_xyz
1 x,y,z
2 -x,y,1/2-z
3 1/2+x,1/2+y,z
4 1/2-x,1/2+y,1/2-z
5 -x,-y,-z
6 x,-y,-1/2+z
7 -1/2-x,-1/2-y,-z
8 -1/2+x,-1/2-y,-1/2+z
_cell_length_a 22.0366(6)
_cell_length_b 16.4532(6)
_cell_length_c 25.6805(8)
_cell_angle_alpha 90
_cell_angle_beta 115.397(4)
_cell_angle_gamma 90
_cell_formula_units_Z 4
loop_
_atom_type_symbol
_atom_type_radius_bond
C 0.68
H 0.23
Ag 1.45
Mo 1.54
N 0.68
O 0.68
loop_
_atom_site_label
_atom_site_type_symbol
_atom_site_fract_x
_atom_site_fract_y
_atom_site_fract_z
Ag1 Ag 0.274042(14) 0.70856(2) -0.131802(13)
Ag2 Ag 0.794645(15) 1.00021(2) 0.367683(13)
C1 C 0.62836(18) 1.0621(2) -0.08821(17)
H1 H 0.58580 1.04040 -0.10940
C2 C 0.42295(17) 1.4000(2) 0.39285(17)
H2 H 0.40330 1.40430 0.35290
C3 C 0.62842(16) 1.0075(2) 0.00282(16)
C4 C 0.65412(17) 1.2190(2) 0.50174(16)
C5 C 0.48163(18) 1.3869(2) 0.50950(17)
H3 H 0.50060 1.38360 0.54950
C6 C 0.40311(18) 0.8166(2) -0.11112(17)
H4 H 0.38500 0.81080 -0.15100
C7 C 0.74388(17) 1.1331(2) 0.49673(16)
H5 H 0.76470 1.13280 0.53680
C8 C 0.72318(17) 1.0864(2) 0.00014(17)
H6 H 0.74550 1.08210 0.04000
C9 C 0.57523(17) 1.3009(2) 0.50731(16)
C10 C 0.66041(17) 1.0525(2) -0.02928(16)
C11 C 0.62810(17) 0.9764(2) 0.08825(16)
C12 C 0.77212(18) 1.0925(2) 0.46566(17)
H7 H 0.81250 1.06520 0.48580
C13 C 0.46113(17) 0.8609(2) -0.08415(16)
H8 H 0.48180 0.88350 -0.10560
C14 C 0.7800(2) 1.1983(3) 0.74082(18)
H9 H 0.82210 1.17460 0.75990
C15 C 0.65853(17) 0.9869(2) 0.15185(16)
C16 C 0.69090(18) 1.2427(2) 0.65244(17)
C17 C 0.75254(19) 1.1271(3) -0.03035(17)
H10 H 0.79510 1.14940 -0.01010
C18 C 0.55014(17) 0.9226(2) 0.00605(16)
C19 C 0.66106(18) 1.1051(2) -0.11533(17)
H11 H 0.63870 1.11270 -0.15500
C20 C 0.71218(19) 1.0386(3) 0.17865(17)
H12 H 0.72800 1.06980 0.15690
C21 C 0.48236(17) 1.3580(2) 0.41910(17)
H13 H 0.50210 1.33510 0.39700
C22 C 0.68425(17) 1.1744(2) 0.46749(16)
C23 C 0.45688(17) 0.8341(2) 0.00548(16)
H14 H 0.47440 0.83790 0.04540
C24 C 0.75343(19) 1.2073(3) 0.68173(17)
H15 H 0.77750 1.18960 0.66170
C25 C 0.6869(2) 1.2569(3) 0.74328(18)
H16 H 0.66390 1.27420 0.76430
C26 C 0.6563(2) 1.2683(2) 0.68386(18)
H17 H 0.61410 1.29230 0.66570
C27 C 0.51278(17) 1.3500(2) 0.47833(16)
C28 C 0.65893(17) 1.2525(2) 0.58855(16)
C29 C 0.7421(2) 1.0438(3) 0.23781(18)
H18 H 0.77830 1.07890 0.25530
C30 C 0.39894(18) 0.7909(2) -0.02520(17)
H19 H 0.37760 0.76690 -0.00480
C31 C 0.65563(19) 1.1747(2) 0.40809(17)
H20 H 0.61630 1.20360 0.38730
C32 C 0.63376(19) 0.9449(3) 0.18561(17)
H21 H 0.59570 0.91230 0.16890
C33 C 0.6674(2) 0.9531(3) 0.24475(19)
H22 H 0.65140 0.92390 0.26730
C34 C 0.42193(19) 1.4286(2) 0.47980(18)
H23 H 0.40170 1.45320 0.50090
C35 C 0.48905(17) 0.8722(2) -0.02467(16)
C36 C 0.68672(19) 1.1312(3) 0.38001(18)
H24 H 0.66650 1.13030 0.33990
N1 N 0.37117(14) 0.78101(18) -0.08254(14)
N2 N 0.72246(15) 1.1359(2) -0.08781(14)
N3 N 0.72127(16) 1.0001(2) 0.27168(14)
N4 N 0.57480(14) 0.96111(19) -0.02693(13)
N5 N 0.65627(14) 1.01856(19) 0.05975(13)
N6 N 0.57485(14) 0.92718(19) 0.06336(13)
N7 N 0.74459(15) 1.0901(2) 0.40779(14)
N8 N 0.39180(14) 1.43528(19) 0.42208(14)
N9 N 0.74691(16) 1.2228(2) 0.77201(14)
N10 N 0.59747(14) 1.26002(18) 0.47353(13)
N11 N 0.60422(15) 1.29900(19) 0.56492(14)
N12 N 0.68724(15) 1.21254(19) 0.55933(13)
Mo1 Mo 0.00000 0.71282(4) -0.25000
Mo2 Mo 0.112056(15) 0.83834(2) -0.139657(14)
Mo3 Mo 0.117388(15) 1.04114(2) -0.143702(14)
Mo4 Mo 0.00000 1.15132(3) -0.25000
Mo5 Mo 0.050519(15) 0.94350(2) -0.291303(14)
O1 O -0.01704(18) 0.6507(3) -0.2051(2)
O2 O 0.07901(13) 0.76471(17) -0.20686(12)
O3 O 0.19359(13) 0.83319(18) -0.13022(13)
O4 O 0.11000(14) 0.77527(18) -0.08794(13)
O5 O 0.00277(13) 0.85493(18) -0.32141(13)
O6 O 0.10967(14) 0.94996(18) -0.31720(14)
O7 O 0.08966(15) 0.93580(17) -0.21427(12)
O8 O 0.10938(12) 0.94020(16) -0.10743(11)
O9 O 0.11447(13) 1.10670(18) -0.09430(13)
O10 O 0.20024(13) 1.03745(18) -0.12898(13)
O11 O -0.00128(12) 1.03253(17) -0.31366(12)
O12 O 0.08790(13) 1.10827(17) -0.21220(12)
O13 O -0.00730(16) 1.2140(2) -0.20032(14)
O14 O -0.0807(5) 1.3633(6) -0.2324(4)
H25 H -0.05830 1.31930 -0.22320
H26 H -0.06050 1.39650 -0.24480
O15 O 0.0131(12) 1.4818(11) -0.2234(9)
H27 H 0.00190 1.52900 -0.21740
H28 H -0.01720 1.44840 -0.22520
Ag1B Ag 0.774042(14) 1.20856(2) -0.131802(13)
Ag1B* Ag 0.774042(14) 1.20856(2) 0.868198(13)
Ag2B Ag 0.294645(15) 1.50021(2) 0.367683(13)
N2B N 0.22246(15) 0.6359(2) -0.08781(14)
N8B N 0.89180(14) 0.93528(19) 0.42208(14)
N9B N 0.24691(16) 0.7228(2) -0.22799(14)
Mo2A Mo -0.112056(15) 0.83834(2) -0.360343(14)
Mo3A Mo -0.117388(15) 1.04114(2) -0.356298(14)
Mo5A Mo -0.050519(15) 0.94350(2) -0.208697(14)
O1A O 0.01704(18) 0.6507(3) -0.2949(2)
O2A O -0.07901(13) 0.76471(17) -0.29314(12)
O3A O -0.19359(13) 0.83319(18) -0.36978(13)
O4A O -0.11000(14) 0.77527(18) -0.41206(13)
O5A O -0.00277(13) 0.85493(18) -0.17859(13)
O6A O -0.10967(14) 0.94996(18) -0.18280(14)
O7A O -0.08966(15) 0.93580(17) -0.28573(12)
O8A O -0.10938(12) 0.94020(16) -0.39257(11)
O9A O -0.11447(13) 1.10670(18) -0.40570(13)
O10A O -0.20024(13) 1.03745(18) -0.37102(13)
O11A O 0.00128(12) 1.03253(17) -0.18634(12)
O12A O -0.08790(13) 1.10827(17) -0.28780(12)
O13A O 0.00730(16) 1.2140(2) -0.29968(14)
#END
