
#######################################################################
#
#                 Cambridge Crystallographic Data Centre
#                                CCDC
#
#######################################################################
#
# If this CIF has been generated from an entry in the Cambridge
# Structural Database, then it will include bibliographic, chemical,
# crystal, experimental, refinement or atomic coordinate data resulting
# from the CCDC's data processing and validation procedures.
#
#######################################################################

data_CSD_CIF_QOFDIA01
_audit_creation_date 2014-03-27
_audit_creation_method CSD-ConQuest-V1
_database_code_CSD QOFDIA01
_database_code_depnum_ccdc_archive 'CCDC 956843'
_chemical_formula_sum 'C72 H48 Ag4 Mo8 N24 O26'
_chemical_formula_moiety
;
(C36 H24 Ag2 N12 2+)2n,n(Mo8 O26 4-)
;
_journal_coden_Cambridge 222
_journal_volume 43
_journal_year 2014
_journal_page_first 7146
_journal_name_full 'Dalton Trans. '
loop_
_publ_author_name
"Lei Zhang"
"Xiaofei Kuang"
"Xiaoyuan Wu"
"Wenbin Yang"
"Canzhong Lu"
_chemical_name_systematic
;
catena-(bis(bis(\m~3~-2,4,6-tris(Pyridin-4-yl)-1,3,5-triazine)-di-silver) 
tetrakis(\m~3~-oxo)-octakis(\m~2~-oxo)-tetradecaoxo-octa-molybdenum)
;
_cell_volume   8484.199
_exptl_crystal_colour 'crimson'
_exptl_crystal_density_diffrn 2.242
_exptl_crystal_description 'block-like'
_diffrn_ambient_temperature 440.0
#These two values have been output from a single CSD field.
_refine_ls_R_factor_gt 0.0472
_refine_ls_wR_factor_gt 0.0472
_symmetry_cell_setting monoclinic
_symmetry_space_group_name_H-M 'C 2/c'
_symmetry_Int_Tables_number 15
loop_
_symmetry_equiv_pos_site_id
_symmetry_equiv_pos_as_xyz
1 x,y,z
2 -x,y,1/2-z
3 1/2+x,1/2+y,z
4 1/2-x,1/2+y,1/2-z
5 -x,-y,-z
6 x,-y,-1/2+z
7 -1/2-x,-1/2-y,-z
8 -1/2+x,-1/2-y,-1/2+z
_cell_length_a 21.9362(7)
_cell_length_b 16.7329(5)
_cell_length_c 25.5715(11)
_cell_angle_alpha 90
_cell_angle_beta 115.324(4)
_cell_angle_gamma 90
_cell_formula_units_Z 4
loop_
_atom_type_symbol
_atom_type_radius_bond
C 0.68
H 0.23
Ag 1.45
Mo 1.54
N 0.68
O 0.68
loop_
_atom_site_label
_atom_site_type_symbol
_atom_site_fract_x
_atom_site_fract_y
_atom_site_fract_z
Ag1 Ag 0.34428(3) -0.04164(4) -0.63233(3)
Ag2 Ag 0.32166(3) 0.25405(5) -0.13281(3)
C1 C 0.5974(3) 0.4705(4) 0.0000(3)
C2 C 0.1235(3) 0.2563(4) -0.4990(3)
C3 C 0.0329(4) 0.3109(5) -0.5899(3)
H1 H 0.05410 0.28970 -0.61140
C4 C 0.7201(3) 0.6503(4) -0.1083(3)
H2 H 0.70060 0.65400 -0.14850
C5 C 0.0602(3) 0.3014(4) -0.5313(3)
C6 C 0.5027(3) 0.3844(4) -0.0047(3)
H3 H 0.52220 0.38370 0.03550
C7 C 0.5327(3) 0.4261(4) -0.0341(3)
C8 C 0.2978(3) 0.0839(4) -0.4950(3)
H4 H 0.31990 0.08750 -0.45490
C9 C 0.4435(3) 0.3438(4) -0.0358(3)
H5 H 0.42360 0.31630 -0.01550
C10 C 0.6813(3) 0.5515(4) 0.0058(3)
C11 C 0.2097(3) 0.2253(4) -0.4134(3)
C12 C 0.7767(4) 0.6376(4) 0.0088(3)
H6 H 0.79750 0.63480 0.04890
C13 C 0.2361(3) 0.0658(4) -0.6112(3)
H7 H 0.21450 0.05910 -0.65110
C14 C 0.7113(3) 0.4929(4) 0.1511(3)
C15 C 0.2426(3) 0.2359(4) -0.3498(3)
C16 C 0.0256(3) 0.3347(5) -0.5018(3)
H8 H 0.04230 0.32950 -0.46190
C17 C -0.0328(4) 0.3745(5) -0.5321(3)
H9 H -0.05470 0.39700 -0.51160
C18 C 0.6792(3) 0.5017(4) 0.0868(3)
C19 C 0.7144(3) 0.6006(4) -0.0233(3)
C20 C 0.2054(3) 0.1725(4) -0.4955(3)
C21 C 0.6782(4) 0.4572(5) 0.1798(3)
H10 H 0.63420 0.43920 0.15960
C22 C 0.2356(3) 0.1219(4) -0.5259(3)
C23 C 0.3254(3) 0.0410(4) -0.5257(3)
H11 H 0.36750 0.01770 -0.50520
C24 C 0.6866(3) 0.6084(4) -0.0823(3)
H12 H 0.64500 0.58540 -0.10480
C25 C -0.0268(3) 0.3524(5) -0.6166(3)
H13 H -0.04460 0.35920 -0.65650
C26 C 0.2044(4) 0.1112(4) -0.5855(3)
H14 H 0.16260 0.13440 -0.60750
C27 C 0.5016(3) 0.4254(5) -0.0934(3)
H15 H 0.51970 0.45390 -0.11460
C28 C 0.8052(4) 0.5062(6) 0.2417(3)
H16 H 0.84920 0.52380 0.26290
C29 C 0.8065(4) 0.6790(5) -0.0219(3)
H17 H 0.84810 0.70320 -0.00090
C30 C 0.7109(4) 0.4482(6) 0.2392(3)
H18 H 0.68780 0.42440 0.25830
C31 C 0.7771(4) 0.5176(5) 0.1826(3)
H19 H 0.80160 0.54110 0.16470
C32 C 0.4435(4) 0.3819(5) -0.1211(3)
H20 H 0.42400 0.38010 -0.16130
C33 C 0.2150(4) 0.2868(5) -0.3233(3)
H21 H 0.17640 0.31610 -0.34520
C34 C 0.3011(4) 0.1965(5) -0.3157(3)
H22 H 0.32290 0.16430 -0.33210
C35 C 0.3267(4) 0.2057(6) -0.2569(4)
H23 H 0.36590 0.17790 -0.23440
C36 C 0.2453(5) 0.2935(6) -0.2639(3)
H24 H 0.22710 0.32910 -0.24640
N1 N 0.2958(3) 0.0308(3) -0.5827(2)
N2 N -0.0606(3) 0.3834(4) -0.5891(3)
N3 N 0.3002(3) 0.2509(4) -0.2298(3)
N4 N 0.1480(3) 0.2110(3) -0.5283(2)
N5 N 0.1527(3) 0.2669(3) -0.4418(2)
N6 N 0.2377(3) 0.1771(3) -0.4379(2)
N7 N 0.7794(3) 0.6857(3) -0.0784(3)
N8 N 0.4134(3) 0.3420(4) -0.0932(3)
N9 N 0.7746(3) 0.4725(4) 0.2704(3)
N10 N 0.6252(3) 0.5116(3) -0.0277(2)
N11 N 0.6224(3) 0.4626(3) 0.0578(2)
N12 N 0.7104(3) 0.5492(4) 0.0637(2)
Mo1 Mo 0.50000 -0.03266(7) -0.75000
Mo2 Mo 0.49853(3) 0.09036(4) -0.63926(2)
Mo3 Mo 0.49121(3) 0.28991(4) -0.64280(3)
Mo4 Mo 0.50000 0.40333(7) -0.75000
Mo5 Mo 0.40745(3) 0.19301(3) -0.79047(3)
O1 O 0.5634(7) -0.0939(7) -0.7072(7)
O2 O 0.4659(3) 0.0164(4) -0.7056(3)
O3 O 0.4273(3) 0.0824(5) -0.6304(3)
O4 O 0.5534(3) 0.0300(5) -0.5861(3)
O5 O 0.5330(3) 0.1903(4) -0.6066(2)
O6 O 0.4471(4) 0.1871(4) -0.7148(3)
O7 O 0.4241(3) 0.1056(4) -0.8225(3)
O8 O 0.3228(3) 0.1975(4) -0.8183(3)
O9 O 0.4219(3) 0.2876(5) -0.6291(3)
O10 O 0.5433(3) 0.3511(5) -0.5924(3)
O11 O 0.4528(3) 0.3572(4) -0.7111(3)
O12 O 0.4349(3) 0.2810(4) -0.8152(3)
O13 O 0.5587(4) 0.4632(5) -0.7013(3)
Ag1B Ag -0.15572(3) 0.45836(4) -0.63233(3)
Ag1B* Ag 0.84428(3) 0.45836(4) 0.36767(3)
Ag2B Ag 0.82166(3) 0.75405(5) -0.13281(3)
N2B N 0.4394(3) -0.1166(4) -0.5891(3)
N7B N 0.2794(3) 0.1857(3) -0.0784(3)
N9B N 0.2746(3) -0.0275(4) -0.7296(3)
Mo2A Mo 0.50147(3) 0.09036(4) -0.86074(2)
Mo3A Mo 0.50879(3) 0.28991(4) -0.85720(3)
Mo5A Mo 0.59255(3) 0.19301(3) -0.70953(3)
O1A O 0.4366(7) -0.0939(7) -0.7928(7)
O2A O 0.5341(3) 0.0164(4) -0.7944(3)
O3A O 0.5727(3) 0.0824(5) -0.8696(3)
O4A O 0.4466(3) 0.0300(5) -0.9139(3)
O5A O 0.4670(3) 0.1903(4) -0.8934(2)
O6A O 0.5529(4) 0.1871(4) -0.7852(3)
O7A O 0.5759(3) 0.1056(4) -0.6775(3)
O8A O 0.6772(3) 0.1975(4) -0.6817(3)
O9A O 0.5781(3) 0.2876(5) -0.8709(3)
O10A O 0.4567(3) 0.3511(5) -0.9076(3)
O11A O 0.5472(3) 0.3572(4) -0.7889(3)
O12A O 0.5651(3) 0.2810(4) -0.6848(3)
O13A O 0.4413(4) 0.4632(5) -0.7987(3)
#END
