
#######################################################################
#
#                 Cambridge Crystallographic Data Centre
#                                CCDC
#
#######################################################################
#
# If this CIF has been generated from an entry in the Cambridge
# Structural Database, then it will include bibliographic, chemical,
# crystal, experimental, refinement or atomic coordinate data resulting
# from the CCDC's data processing and validation procedures.
#
#######################################################################

data_CSD_CIF_QOFDIA08
_audit_creation_date 2014-03-27
_audit_creation_method CSD-ConQuest-V1
_database_code_CSD QOFDIA08
_database_code_depnum_ccdc_archive 'CCDC 956857'
_chemical_formula_sum 'C72 H48 Ag4 Mo8 N24 O26'
_chemical_formula_moiety
;
(C36 H24 Ag2 N12 2+)2n,n(Mo8 O26 4-)
;
_journal_coden_Cambridge 222
_journal_volume 43
_journal_year 2014
_journal_page_first 7146
_journal_name_full 'Dalton Trans. '
loop_
_publ_author_name
"Lei Zhang"
"Xiaofei Kuang"
"Xiaoyuan Wu"
"Wenbin Yang"
"Canzhong Lu"
_chemical_name_systematic
;
catena-(bis(bis(\m~3~-2,4,6-tris(Pyridin-4-yl)-1,3,5-triazine)-di-silver) 
tetrakis(\m~3~-oxo)-octakis(\m~2~-oxo)-tetradecaoxo-octa-molybdenum)
;
_cell_volume   8441.186
_exptl_crystal_colour 'brown'
_exptl_crystal_density_diffrn 2.254
_exptl_crystal_description 'block-like'
_diffrn_ambient_temperature 410.0
#These two values have been output from a single CSD field.
_refine_ls_R_factor_gt 0.0501
_refine_ls_wR_factor_gt 0.0501
_symmetry_cell_setting monoclinic
_symmetry_space_group_name_H-M 'C 2/c'
_symmetry_Int_Tables_number 15
loop_
_symmetry_equiv_pos_site_id
_symmetry_equiv_pos_as_xyz
1 x,y,z
2 -x,y,1/2-z
3 1/2+x,1/2+y,z
4 1/2-x,1/2+y,1/2-z
5 -x,-y,-z
6 x,-y,-1/2+z
7 -1/2-x,-1/2-y,-z
8 -1/2+x,-1/2-y,-1/2+z
_cell_length_a 21.9660(9)
_cell_length_b 16.6288(6)
_cell_length_c 25.5315(16)
_cell_angle_alpha 90
_cell_angle_beta 115.158(6)
_cell_angle_gamma 90
_cell_formula_units_Z 4
loop_
_atom_type_symbol
_atom_type_radius_bond
C 0.68
H 0.23
Ag 1.45
Mo 1.54
N 0.68
O 0.68
loop_
_atom_site_label
_atom_site_type_symbol
_atom_site_fract_x
_atom_site_fract_y
_atom_site_fract_z
Ag1 Ag 0.34423(3) -0.04307(5) -0.63294(3)
Ag2 Ag 0.32195(4) 0.25558(5) -0.13341(3)
C1 C 0.5976(3) 0.4710(4) -0.0007(3)
C2 C 0.7771(4) 0.6382(5) 0.0085(3)
H1 H 0.79800 0.63460 0.04860
C3 C 0.2974(4) 0.0842(5) -0.4960(3)
H2 H 0.31960 0.08840 -0.45600
C4 C 0.1233(3) 0.2565(4) -0.4993(3)
C5 C 0.5034(4) 0.3848(5) -0.0052(3)
H3 H 0.52290 0.38350 0.03500
C6 C 0.0328(4) 0.3103(5) -0.5904(4)
H4 H 0.05400 0.28860 -0.61180
C7 C 0.0596(4) 0.3014(4) -0.5318(3)
C8 C 0.6816(4) 0.5524(5) 0.0056(3)
C9 C 0.2094(4) 0.2260(5) -0.4140(3)
C10 C 0.4442(4) 0.3444(5) -0.0368(3)
H5 H 0.42460 0.31580 -0.01660
C11 C 0.5333(3) 0.4272(5) -0.0346(3)
C12 C 0.2426(4) 0.2366(5) -0.3503(3)
C13 C 0.7199(4) 0.6532(5) -0.1093(4)
H6 H 0.70000 0.65830 -0.14930
C14 C 0.6793(4) 0.4565(6) 0.1798(4)
H7 H 0.63500 0.43950 0.15970
C15 C 0.2355(4) 0.1213(4) -0.5263(3)
C16 C 0.2355(4) 0.0644(5) -0.6125(4)
H8 H 0.21420 0.05750 -0.65250
C17 C 0.7145(4) 0.6011(4) -0.0236(3)
C18 C 0.0256(4) 0.3350(6) -0.5020(3)
H9 H 0.04280 0.33080 -0.46190
C19 C 0.2048(3) 0.1724(4) -0.4967(3)
C20 C 0.6797(4) 0.5021(5) 0.0862(3)
C21 C 0.7122(4) 0.4918(5) 0.1506(3)
C22 C 0.2039(4) 0.1095(5) -0.5862(3)
H10 H 0.16180 0.13200 -0.60800
C23 C 0.6861(4) 0.6100(4) -0.0828(3)
H11 H 0.64440 0.58720 -0.10520
C24 C 0.3252(4) 0.0412(5) -0.5267(4)
H12 H 0.36750 0.01870 -0.50620
C25 C -0.0269(4) 0.3526(5) -0.6172(4)
H13 H -0.04410 0.36050 -0.65700
C26 C -0.0328(4) 0.3738(6) -0.5323(4)
H14 H -0.05500 0.39610 -0.51190
C27 C 0.8061(5) 0.5048(6) 0.2410(4)
H15 H 0.85030 0.52160 0.26190
C28 C 0.8066(4) 0.6806(5) -0.0219(4)
H16 H 0.84770 0.70560 -0.00080
C29 C 0.5022(4) 0.4280(5) -0.0943(4)
H17 H 0.51990 0.45770 -0.11540
C30 C 0.7779(4) 0.5161(6) 0.1820(4)
H18 H 0.80230 0.53950 0.16390
C31 C 0.4443(4) 0.3835(6) -0.1218(4)
H19 H 0.42540 0.38080 -0.16200
C32 C 0.7118(5) 0.4462(7) 0.2388(4)
H20 H 0.68910 0.42080 0.25770
C33 C 0.2450(5) 0.2944(6) -0.2644(4)
H21 H 0.22570 0.32890 -0.24700
C34 C 0.3021(5) 0.1990(6) -0.3168(4)
H22 H 0.32460 0.16790 -0.33330
C35 C 0.2146(5) 0.2871(6) -0.3235(4)
H23 H 0.17570 0.31580 -0.34530
C36 C 0.3274(5) 0.2092(7) -0.2575(4)
H24 H 0.36660 0.18160 -0.23470
N1 N 0.2955(3) 0.0300(4) -0.5834(3)
N2 N -0.0606(3) 0.3823(4) -0.5893(3)
N3 N 0.3005(4) 0.2547(5) -0.2307(3)
N4 N 0.2375(3) 0.1770(4) -0.4387(3)
N5 N 0.1478(3) 0.2103(4) -0.5289(3)
N6 N 0.1525(3) 0.2664(4) -0.4422(3)
N7 N 0.4134(3) 0.3439(4) -0.0942(3)
N8 N 0.7753(4) 0.4718(5) 0.2701(3)
N9 N 0.7796(3) 0.6873(4) -0.0793(3)
N10 N 0.6254(3) 0.5128(4) -0.0284(3)
N11 N 0.6226(3) 0.4631(4) 0.0573(3)
N12 N 0.7111(3) 0.5495(4) 0.0634(3)
Mo1 Mo 0.50000 -0.03430(8) -0.75000
Mo2 Mo 0.49870(3) 0.09000(4) -0.63912(3)
Mo3 Mo 0.49165(4) 0.29044(4) -0.64262(3)
Mo4 Mo 0.50000 0.40713(8) -0.75000
Mo5 Mo 0.40790(3) 0.19269(4) -0.79018(3)
O1 O 0.5630(7) -0.0969(7) -0.7079(7)
O2 O 0.4662(4) 0.0143(4) -0.7056(3)
O3 O 0.5527(4) 0.0289(6) -0.5856(3)
O4 O 0.4276(4) 0.0818(5) -0.6303(3)
O5 O 0.5328(3) 0.1892(4) -0.6061(3)
O6 O 0.4487(4) 0.1864(4) -0.7141(3)
O7 O 0.4245(4) 0.1043(5) -0.8229(3)
O8 O 0.3235(3) 0.1969(4) -0.8171(3)
O9 O 0.4227(4) 0.2876(5) -0.6293(4)
O10 O 0.5435(4) 0.3511(6) -0.5915(3)
O11 O 0.4533(4) 0.3582(5) -0.7111(3)
O12 O 0.4345(4) 0.2807(4) -0.8166(3)
O13 O 0.5584(5) 0.4659(6) -0.7021(4)
Ag1B Ag -0.15577(3) 0.45693(5) -0.63294(3)
Ag1B* Ag 0.84423(3) 0.45693(5) 0.36706(3)
Ag2B Ag 0.82195(4) 0.75558(5) -0.13341(3)
N2B N 0.4394(3) -0.1177(4) -0.5893(3)
N8B N 0.2753(4) -0.0282(5) -0.7299(3)
N9B N 0.2796(3) 0.1873(4) -0.0793(3)
Mo2A Mo 0.50130(3) 0.09000(4) -0.86088(3)
Mo3A Mo 0.50835(4) 0.29044(4) -0.85738(3)
Mo5A Mo 0.59210(3) 0.19269(4) -0.70982(3)
O1A O 0.4370(7) -0.0969(7) -0.7921(7)
O2A O 0.5338(4) 0.0143(4) -0.7944(3)
O3A O 0.4473(4) 0.0289(6) -0.9144(3)
O4A O 0.5724(4) 0.0818(5) -0.8697(3)
O5A O 0.4672(3) 0.1892(4) -0.8939(3)
O6A O 0.5513(4) 0.1864(4) -0.7859(3)
O7A O 0.5755(4) 0.1043(5) -0.6771(3)
O8A O 0.6765(3) 0.1969(4) -0.6829(3)
O9A O 0.5773(4) 0.2876(5) -0.8707(4)
O10A O 0.4565(4) 0.3511(6) -0.9085(3)
O11A O 0.5467(4) 0.3582(5) -0.7889(3)
O12A O 0.5655(4) 0.2807(4) -0.6834(3)
O13A O 0.4416(5) 0.4659(6) -0.7979(4)
#END
