
#######################################################################
#
#                 Cambridge Crystallographic Data Centre
#                                CCDC
#
#######################################################################
#
# If this CIF has been generated from an entry in the Cambridge
# Structural Database, then it will include bibliographic, chemical,
# crystal, experimental, refinement or atomic coordinate data resulting
# from the CCDC's data processing and validation procedures.
#
#######################################################################

data_CSD_CIF_QOFDIA07
_audit_creation_date 2014-03-27
_audit_creation_method CSD-ConQuest-V1
_database_code_CSD QOFDIA07
_database_code_depnum_ccdc_archive 'CCDC 956856'
_chemical_formula_sum 'C72 H48 Ag4 Mo8 N24 O26'
_chemical_formula_moiety
;
(C36 H24 Ag2 N12 2+)2n,n(Mo8 O26 4-)
;
_journal_coden_Cambridge 222
_journal_volume 43
_journal_year 2014
_journal_page_first 7146
_journal_name_full 'Dalton Trans. '
loop_
_publ_author_name
"Lei Zhang"
"Xiaofei Kuang"
"Xiaoyuan Wu"
"Wenbin Yang"
"Canzhong Lu"
_chemical_name_systematic
;
catena-(bis(bis(\m~3~-2,4,6-tris(Pyridin-4-yl)-1,3,5-triazine)-di-silver) 
tetrakis(\m~3~-oxo)-octakis(\m~2~-oxo)-tetradecaoxo-octa-molybdenum)
;
_cell_volume   8433.893
_exptl_crystal_colour 'brown'
_exptl_crystal_density_diffrn 2.256
_exptl_crystal_description 'block-like'
_diffrn_ambient_temperature 380
#These two values have been output from a single CSD field.
_refine_ls_R_factor_gt 0.0472
_refine_ls_wR_factor_gt 0.0472
_symmetry_cell_setting monoclinic
_symmetry_space_group_name_H-M 'C 2/c'
_symmetry_Int_Tables_number 15
loop_
_symmetry_equiv_pos_site_id
_symmetry_equiv_pos_as_xyz
1 x,y,z
2 -x,y,1/2-z
3 1/2+x,1/2+y,z
4 1/2-x,1/2+y,1/2-z
5 -x,-y,-z
6 x,-y,-1/2+z
7 -1/2-x,-1/2-y,-z
8 -1/2+x,-1/2-y,-1/2+z
_cell_length_a 21.9867(10)
_cell_length_b 16.5916(5)
_cell_length_c 25.5520(12)
_cell_angle_alpha 90
_cell_angle_beta 115.203(6)
_cell_angle_gamma 90
_cell_formula_units_Z 4
loop_
_atom_type_symbol
_atom_type_radius_bond
C 0.68
H 0.23
Ag 1.45
Mo 1.54
N 0.68
O 0.68
loop_
_atom_site_label
_atom_site_type_symbol
_atom_site_fract_x
_atom_site_fract_y
_atom_site_fract_z
Ag1 Ag -0.15573(3) 0.45709(4) -0.63275(3)
Ag2 Ag -0.17779(4) 0.75508(5) -0.13326(3)
C1 C 0.0978(3) 0.9705(4) -0.0006(3)
C2 C -0.3763(3) 0.7559(4) -0.4988(3)
C3 C 0.2772(4) 1.1384(5) 0.0084(3)
H1 H 0.29790 1.13500 0.04850
C4 C -0.4404(3) 0.8014(4) -0.5316(3)
C5 C 0.1818(3) 1.0525(4) 0.0055(3)
C6 C 0.0038(3) 0.8847(5) -0.0049(3)
H2 H 0.02370 0.88310 0.03530
C7 C -0.2026(3) 0.5836(4) -0.4961(3)
H3 H -0.18060 0.58750 -0.45600
C8 C -0.4671(4) 0.8110(5) -0.5899(3)
H4 H -0.44550 0.78980 -0.61120
C9 C -0.2900(4) 0.7262(4) -0.4136(3)
C10 C -0.0559(4) 0.8442(4) -0.0364(3)
H5 H -0.07590 0.81620 -0.01630
C11 C 0.2201(4) 1.1530(4) -0.1088(3)
H6 H 0.20040 1.15810 -0.14890
C12 C 0.1801(3) 1.0023(4) 0.0867(3)
C13 C 0.1789(4) 0.9559(6) 0.1798(4)
H7 H 0.13490 0.93810 0.15960
C14 C -0.2569(4) 0.7364(4) -0.3498(3)
C15 C 0.0333(3) 0.9275(4) -0.0345(3)
C16 C -0.2644(4) 0.5648(5) -0.6122(3)
H8 H -0.28570 0.55850 -0.65220
C17 C -0.2645(3) 0.6209(4) -0.5267(3)
C18 C -0.4744(4) 0.8351(5) -0.5020(3)
H9 H -0.45710 0.83080 -0.46190
C19 C 0.2147(3) 1.1013(4) -0.0234(3)
C20 C -0.2961(4) 0.6095(4) -0.5860(3)
H10 H -0.33820 0.63180 -0.60770
C21 C 0.2123(4) 0.9918(5) 0.1510(3)
C22 C 0.1860(3) 1.1103(4) -0.0828(3)
H11 H 0.14420 1.08780 -0.10530
C23 C -0.2950(3) 0.6723(4) -0.4964(3)
C24 C -0.5267(4) 0.8528(5) -0.6172(3)
H12 H -0.54410 0.86030 -0.65700
C25 C -0.5330(4) 0.8744(5) -0.5321(3)
H13 H -0.55520 0.89680 -0.51160
C26 C -0.1747(4) 0.5410(5) -0.5266(3)
H14 H -0.13240 0.51840 -0.50610
C27 C 0.3074(4) 1.1807(5) -0.0217(4)
H15 H 0.34870 1.20540 -0.00070
C28 C 0.0020(4) 0.9280(5) -0.0943(3)
H16 H 0.01970 0.95770 -0.11540
C29 C 0.3068(4) 1.0050(6) 0.2416(4)
H17 H 0.35110 1.02160 0.26260
C30 C -0.2855(4) 0.7880(5) -0.3233(3)
H18 H -0.32420 0.81720 -0.34500
C31 C -0.0559(4) 0.8837(5) -0.1219(3)
H19 H -0.07520 0.88170 -0.16210
C32 C 0.2114(4) 0.9466(6) 0.2390(3)
H20 H 0.18850 0.92220 0.25810
C33 C 0.2778(4) 1.0168(5) 0.1825(4)
H21 H 0.30180 1.04090 0.16430
C34 C -0.2545(5) 0.7942(6) -0.2640(4)
H22 H -0.27350 0.82870 -0.24640
C35 C -0.1719(5) 0.7085(6) -0.2568(4)
H23 H -0.13270 0.68080 -0.23410
C36 C -0.1979(4) 0.6991(5) -0.3160(4)
H24 H -0.17560 0.66780 -0.33250
N1 N -0.2046(3) 0.5302(4) -0.5835(3)
N2 N -0.5606(3) 0.8827(4) -0.5890(3)
N3 N -0.1995(4) 0.7549(5) -0.2303(3)
N4 N -0.2624(3) 0.6773(4) -0.4385(3)
N5 N -0.3521(3) 0.7101(4) -0.5287(3)
N6 N -0.3473(3) 0.7669(4) -0.4418(3)
N7 N -0.0863(3) 0.8433(4) -0.0942(3)
N8 N 0.2751(3) 0.9714(5) 0.2703(3)
N9 N 0.2798(3) 1.1870(4) -0.0788(3)
N10 N 0.1256(3) 1.0127(3) -0.0282(2)
N11 N 0.1227(3) 0.9633(4) 0.0573(3)
N12 N 0.2111(3) 1.0499(4) 0.0635(3)
Mo1 Mo 0.00000 0.46487(7) -0.75000
Mo2 Mo -0.00129(3) 0.58983(4) -0.63920(3)
Mo3 Mo -0.00866(3) 0.79067(4) -0.64284(3)
Mo4 Mo 0.00000 0.90716(7) -0.75000
Mo5 Mo -0.09195(3) 0.69280(4) -0.79034(3)
O1 O 0.0624(6) 0.4024(7) -0.7074(6)
O2 O -0.0340(3) 0.5144(4) -0.7058(3)
O3 O 0.0526(4) 0.5281(5) -0.5861(3)
O4 O -0.0724(3) 0.5815(4) -0.6303(3)
O5 O 0.0329(3) 0.6898(4) -0.6062(3)
O6 O -0.0512(4) 0.6860(4) -0.7140(3)
O7 O -0.0758(4) 0.6043(4) -0.8232(3)
O8 O -0.1762(3) 0.6971(4) -0.8168(3)
O9 O -0.0779(4) 0.7875(5) -0.6295(3)
O10 O 0.0428(4) 0.8522(5) -0.5918(3)
O11 O -0.0471(3) 0.8584(4) -0.7115(3)
O12 O -0.0657(3) 0.7810(4) -0.8165(3)
O13 O 0.0580(5) 0.9663(5) -0.7016(4)
Ag1B Ag -0.65573(3) 0.95709(4) -0.63275(3)
Ag1B* Ag 0.34427(3) 0.95709(4) 0.36725(3)
Ag2B Ag 0.32221(4) 1.25508(5) -0.13326(3)
N2B N -0.0606(3) 0.3827(4) -0.5890(3)
N8B N -0.2249(3) 0.4714(5) -0.7297(3)
N9B N -0.2202(3) 0.6870(4) -0.0788(3)
Mo2A Mo 0.00129(3) 0.58983(4) -0.86080(3)
Mo3A Mo 0.00866(3) 0.79067(4) -0.85716(3)
Mo5A Mo 0.09195(3) 0.69280(4) -0.70966(3)
O1A O -0.0624(6) 0.4024(7) -0.7926(6)
O2A O 0.0340(3) 0.5144(4) -0.7942(3)
O3A O -0.0526(4) 0.5281(5) -0.9139(3)
O4A O 0.0724(3) 0.5815(4) -0.8697(3)
O5A O -0.0329(3) 0.6898(4) -0.8938(3)
O6A O 0.0512(4) 0.6860(4) -0.7860(3)
O7A O 0.0758(4) 0.6043(4) -0.6768(3)
O8A O 0.1762(3) 0.6971(4) -0.6832(3)
O9A O 0.0779(4) 0.7875(5) -0.8705(3)
O10A O -0.0428(4) 0.8522(5) -0.9082(3)
O11A O 0.0471(3) 0.8584(4) -0.7885(3)
O12A O 0.0657(3) 0.7810(4) -0.6835(3)
O13A O -0.0580(5) 0.9663(5) -0.7984(4)
#END
