
#######################################################################
#
#                 Cambridge Crystallographic Data Centre
#                                CCDC
#
#######################################################################
#
# If this CIF has been generated from an entry in the Cambridge
# Structural Database, then it will include bibliographic, chemical,
# crystal, experimental, refinement or atomic coordinate data resulting
# from the CCDC's data processing and validation procedures.
#
#######################################################################

data_CSD_CIF_QOFDEW
_audit_creation_date 2014-03-27
_audit_creation_method CSD-ConQuest-V1
_database_code_CSD QOFDEW
_database_code_depnum_ccdc_archive 'CCDC 956839'
_chemical_formula_sum 'C72 H51 Ag4 Mo8 N24 O27.5'
_chemical_formula_moiety
;
(C36 H24 Ag2 N12 2+)2n,n(Mo8 O26 4-),1.5n(H2 O1)
;
_journal_coden_Cambridge 222
_journal_volume 43
_journal_year 2014
_journal_page_first 7146
_journal_name_full 'Dalton Trans. '
loop_
_publ_author_name
"Lei Zhang"
"Xiaofei Kuang"
"Xiaoyuan Wu"
"Wenbin Yang"
"Canzhong Lu"
_chemical_name_systematic
;
catena-(bis(\m~3~-2,4,6-tris(Pyridin-4-yl)-1,3,5-triazine)-di-silver 
tetrakis(\m~3~-oxo)-octakis(\m~2~-oxo)-tetradecaoxo-octa-molybdenum 
sesquihydrate)
;
_cell_volume   8457.245
_exptl_crystal_density_diffrn 2.271
_exptl_crystal_description 'block-like'
_diffrn_ambient_temperature 340.0
_refine_special_details
;
O15 disordered by symmetry over two configurations with occupancy 0.25.

;
#These two values have been output from a single CSD field.
_refine_ls_R_factor_gt 0.0353
_refine_ls_wR_factor_gt 0.0353
_symmetry_cell_setting monoclinic
_symmetry_space_group_name_H-M 'C 2/c'
_symmetry_Int_Tables_number 15
loop_
_symmetry_equiv_pos_site_id
_symmetry_equiv_pos_as_xyz
1 x,y,z
2 -x,y,1/2-z
3 1/2+x,1/2+y,z
4 1/2-x,1/2+y,1/2-z
5 -x,-y,-z
6 x,-y,-1/2+z
7 -1/2-x,-1/2-y,-z
8 -1/2+x,-1/2-y,-1/2+z
_cell_length_a 21.9777(6)
_cell_length_b 16.6111(6)
_cell_length_c 25.6344(9)
_cell_angle_alpha 90
_cell_angle_beta 115.351(5)
_cell_angle_gamma 90
_cell_formula_units_Z 4
loop_
_atom_type_symbol
_atom_type_radius_bond
C 0.68
H 0.23
Ag 1.45
Mo 1.54
N 0.68
O 0.68
loop_
_atom_site_label
_atom_site_type_symbol
_atom_site_fract_x
_atom_site_fract_y
_atom_site_fract_z
Ag1 Ag -0.22614(2) 0.20904(3) -0.631791(18)
Ag2 Ag 0.29517(2) 0.50170(3) -0.132346(18)
C1 C 0.1534(2) 0.7199(3) 0.0011(2)
C2 C -0.0770(2) 0.9002(3) -0.1075(2)
H1 H -0.09670 0.90500 -0.14750
C3 C 0.1281(2) 0.5071(3) -0.4976(2)
C4 C 0.1279(2) 0.5617(3) -0.5889(2)
H2 H 0.08540 0.53970 -0.61010
C5 C -0.0969(2) 0.3169(3) -0.6109(2)
H3 H -0.11530 0.31110 -0.65090
C6 C 0.0753(2) 0.8014(3) 0.0070(2)
C7 C -0.0177(2) 0.8875(3) 0.0095(2)
H4 H 0.00160 0.88480 0.04950
C8 C 0.1598(2) 0.5527(3) -0.5298(2)
C9 C 0.2431(2) 0.6337(3) -0.0037(2)
H5 H 0.26370 0.63320 0.03650
C10 C 0.2229(2) 0.5861(3) -0.5007(2)
H6 H 0.24570 0.58130 -0.46080
C11 C 0.1581(2) 0.4857(3) -0.3486(2)
C12 C 0.1276(2) 0.4760(3) -0.4122(2)
C13 C 0.2716(2) 0.5928(3) -0.0347(2)
H7 H 0.31180 0.56540 -0.01440
C14 C -0.0391(2) 0.3613(3) -0.5845(2)
H8 H -0.01880 0.38390 -0.60620
C15 C 0.1838(2) 0.6755(3) -0.03319(19)
C16 C 0.1904(2) 0.7426(3) 0.1520(2)
C17 C -0.0428(2) 0.3341(3) -0.4946(2)
H9 H -0.02500 0.33750 -0.45460
C18 C 0.2527(3) 0.7074(4) 0.1810(2)
H10 H 0.27670 0.68970 0.16080
C19 C 0.2514(3) 0.6266(4) -0.5312(2)
H11 H 0.29370 0.64930 -0.51090
C20 C 0.0501(2) 0.4229(3) -0.4946(2)
C21 C -0.0176(2) 0.8577(3) -0.0814(2)
H12 H 0.00190 0.83440 -0.10360
C22 C 0.1584(2) 0.7522(3) 0.0880(2)
C23 C 0.2795(3) 0.6985(4) 0.2404(2)
H13 H 0.32150 0.67440 0.25950
C24 C 0.1867(3) 0.7575(4) 0.2428(2)
H14 H 0.16380 0.77540 0.26380
C25 C 0.1563(3) 0.7675(3) 0.1837(2)
H15 H 0.11380 0.79070 0.16550
C26 C 0.1605(3) 0.6043(3) -0.6160(2)
H16 H 0.13830 0.61170 -0.65570
C27 C 0.2118(3) 0.5373(3) -0.3220(2)
H17 H 0.22780 0.56770 -0.34390
C28 C -0.1010(2) 0.2910(3) -0.5254(2)
H18 H -0.12240 0.26730 -0.50490
C29 C 0.2413(3) 0.5434(4) -0.2628(2)
H19 H 0.27720 0.57880 -0.24550
C30 C 0.0127(2) 0.8500(3) -0.0221(2)
C31 C -0.0110(2) 0.3724(3) -0.5249(2)
C32 C 0.1554(2) 0.6749(3) -0.0926(2)
H20 H 0.11610 0.70350 -0.11380
C33 C -0.0778(3) 0.9291(3) -0.0206(2)
H21 H -0.09790 0.95410 0.00050
C34 C 0.1337(3) 0.4452(3) -0.3147(2)
H22 H 0.09560 0.41300 -0.33130
C35 C 0.1672(3) 0.4536(4) -0.2557(2)
H23 H 0.15110 0.42460 -0.23320
C36 C 0.1863(3) 0.6310(3) -0.1202(2)
H24 H 0.16570 0.62930 -0.16030
N1 N -0.12838(19) 0.2813(2) -0.58232(18)
N2 N 0.2220(2) 0.6351(2) -0.58817(18)
N3 N 0.2208(2) 0.5003(3) -0.22868(19)
N4 N 0.07450(19) 0.4607(2) -0.52713(17)
N5 N 0.15623(19) 0.5175(2) -0.44071(17)
N6 N 0.07486(19) 0.4271(2) -0.43713(17)
N7 N 0.2442(2) 0.5905(3) -0.09255(18)
N8 N 0.2468(2) 0.7234(3) 0.27139(19)
N9 N -0.1078(2) 0.9350(2) -0.07791(18)
N10 N 0.09769(18) 0.7607(2) -0.02689(17)
N11 N 0.18629(19) 0.7126(2) 0.05876(17)
N12 N 0.1039(2) 0.7989(3) 0.06457(18)
Mo1 Mo -0.50000 0.21525(5) -0.75000
Mo2 Mo -0.38803(2) 0.33959(3) -0.639537(18)
Mo3 Mo -0.38326(2) 0.54054(3) -0.643367(18)
Mo4 Mo -0.50000 0.65197(5) -0.75000
Mo5 Mo -0.44883(2) 0.44352(2) -0.791075(18)
O1 O -0.5188(3) 0.1538(4) -0.7057(4)
O2 O -0.42162(19) 0.2660(2) -0.70638(17)
O3 O -0.30687(19) 0.3333(3) -0.63044(18)
O4 O -0.3901(2) 0.2778(3) -0.58741(19)
O5 O -0.39013(18) 0.4403(2) -0.60722(16)
O6 O -0.4112(2) 0.4361(2) -0.71476(17)
O7 O -0.49670(19) 0.3560(2) -0.82210(19)
O8 O -0.3903(2) 0.4492(2) -0.8175(2)
O9 O -0.3002(2) 0.5377(3) -0.6292(2)
O10 O -0.38554(19) 0.6045(3) -0.59358(19)
O11 O -0.41298(18) 0.6074(2) -0.71181(17)
O12 O -0.50085(17) 0.5318(2) -0.81476(18)
O13 O -0.5086(2) 0.7128(3) -0.7010(2)
O14 O -0.5777(9) 0.8649(10) -0.7320(6)
H25 H -0.55750 0.81990 -0.72300
H26 H -0.54900 0.90090 -0.72940
O15 O -0.4835(18) 0.9842(17) -0.7218(14)
H27 H -0.49600 1.03070 -0.71650
H28 H -0.51330 0.95020 -0.72370
Ag1B Ag 0.27386(2) 0.70904(3) -0.631791(18)
Ag1B* Ag 0.27386(2) 0.70904(3) 0.368209(18)
Ag2B Ag -0.20483(2) 1.00170(3) -0.132346(18)
N2B N -0.2780(2) 0.1351(2) -0.58817(18)
N8B N -0.2532(2) 0.2234(3) -0.72861(19)
N9B N 0.3922(2) 0.4350(2) -0.07791(18)
Mo2A Mo -0.61197(2) 0.33959(3) -0.860463(18)
Mo3A Mo -0.61674(2) 0.54054(3) -0.856633(18)
Mo5A Mo -0.55117(2) 0.44352(2) -0.708925(18)
O1A O -0.4812(3) 0.1538(4) -0.7943(4)
O2A O -0.57838(19) 0.2660(2) -0.79362(17)
O3A O -0.69313(19) 0.3333(3) -0.86956(18)
O4A O -0.6099(2) 0.2778(3) -0.91259(19)
O5A O -0.60987(18) 0.4403(2) -0.89278(16)
O6A O -0.5888(2) 0.4361(2) -0.78524(17)
O7A O -0.50330(19) 0.3560(2) -0.67790(19)
O8A O -0.6097(2) 0.4492(2) -0.6825(2)
O9A O -0.6998(2) 0.5377(3) -0.8708(2)
O10A O -0.61446(19) 0.6045(3) -0.90642(19)
O11A O -0.58702(18) 0.6074(2) -0.78819(17)
O12A O -0.49915(17) 0.5318(2) -0.68524(18)
O13A O -0.4914(2) 0.7128(3) -0.7990(2)
O15A O -0.5165(18) 0.9842(17) -0.7782(14)
H27A H -0.50400 1.03070 -0.78350
H28A H -0.48670 0.95020 -0.77630
#END
