
#######################################################################
#
#                 Cambridge Crystallographic Data Centre
#                                CCDC
#
#######################################################################
#
# If this CIF has been generated from an entry in the Cambridge
# Structural Database, then it will include bibliographic, chemical,
# crystal, experimental, refinement or atomic coordinate data resulting
# from the CCDC's data processing and validation procedures.
#
#######################################################################

data_CSD_CIF_QOFDIA02
_audit_creation_date 2014-03-27
_audit_creation_method CSD-ConQuest-V1
_database_code_CSD QOFDIA02
_database_code_depnum_ccdc_archive 'CCDC 956850'
_chemical_formula_sum 'C72 H48 Ag4 Mo8 N24 O26'
_chemical_formula_moiety
;
(C36 H24 Ag2 N12 2+)2n,n(Mo8 O26 4-)
;
_journal_coden_Cambridge 222
_journal_volume 43
_journal_year 2014
_journal_page_first 7146
_journal_name_full 'Dalton Trans. '
loop_
_publ_author_name
"Lei Zhang"
"Xiaofei Kuang"
"Xiaoyuan Wu"
"Wenbin Yang"
"Canzhong Lu"
_chemical_name_systematic
;
catena-(bis(bis(\m~3~-2,4,6-tris(Pyridin-4-yl)-1,3,5-triazine)-di-silver) 
tetrakis(\m~3~-oxo)-octakis(\m~2~-oxo)-tetradecaoxo-octa-molybdenum)
;
_cell_volume   8367.425
_exptl_crystal_colour 'brown'
_exptl_crystal_density_diffrn 2.274
_exptl_crystal_description 'block-like'
_diffrn_ambient_temperature 220.0
#These two values have been output from a single CSD field.
_refine_ls_R_factor_gt 0.0324
_refine_ls_wR_factor_gt 0.0324
_symmetry_cell_setting monoclinic
_symmetry_space_group_name_H-M 'C 2/c'
_symmetry_Int_Tables_number 15
loop_
_symmetry_equiv_pos_site_id
_symmetry_equiv_pos_as_xyz
1 x,y,z
2 -x,y,1/2-z
3 1/2+x,1/2+y,z
4 1/2-x,1/2+y,1/2-z
5 -x,-y,-z
6 x,-y,-1/2+z
7 -1/2-x,-1/2-y,-z
8 -1/2+x,-1/2-y,-1/2+z
_cell_length_a 22.0572(6)
_cell_length_b 16.3893(3)
_cell_length_c 25.6030(7)
_cell_angle_alpha 90
_cell_angle_beta 115.305(3)
_cell_angle_gamma 90
_cell_formula_units_Z 4
loop_
_atom_type_symbol
_atom_type_radius_bond
C 0.68
H 0.23
Ag 1.45
Mo 1.54
N 0.68
O 0.68
loop_
_atom_site_label
_atom_site_type_symbol
_atom_site_fract_x
_atom_site_fract_y
_atom_site_fract_z
Ag1 Ag -0.155857(19) 0.45773(3) -0.632089(16)
Ag2 Ag 0.32294(2) 0.25223(3) -0.132724(17)
C1 C 0.1240(2) 0.2573(3) -0.4975(2)
C2 C 0.7780(2) 0.6377(3) 0.0093(2)
H1 H 0.79890 0.63380 0.04930
C3 C 0.5976(2) 0.4697(3) 0.0009(2)
C4 C 0.2349(2) 0.0647(3) -0.6117(2)
H2 H 0.21280 0.05740 -0.65150
C5 C 0.2979(2) 0.0844(3) -0.4951(2)
H3 H 0.32030 0.08900 -0.45510
C6 C 0.0333(2) 0.3122(3) -0.5889(2)
H4 H 0.05480 0.29080 -0.61010
C7 C 0.0600(2) 0.3024(3) -0.5299(2)
C8 C 0.4436(2) 0.3431(3) -0.0352(2)
H5 H 0.42340 0.31530 -0.01520
C9 C 0.5034(2) 0.3835(3) -0.0036(2)
H6 H 0.52310 0.38190 0.03660
C10 C 0.7197(2) 0.6520(3) -0.1078(2)
H7 H 0.69950 0.65670 -0.14790
C11 C 0.2099(2) 0.2271(3) -0.4124(2)
C12 C 0.5332(2) 0.4264(3) -0.0331(2)
C13 C 0.6792(3) 0.4562(3) 0.1815(2)
H8 H 0.63520 0.43830 0.16160
C14 C 0.2433(2) 0.2377(3) -0.3486(2)
C15 C 0.0262(2) 0.3355(3) -0.5002(2)
H9 H 0.04350 0.33070 -0.46030
C16 C 0.6823(2) 0.5519(3) 0.0067(2)
C17 C 0.6802(2) 0.5020(3) 0.0881(2)
C18 C 0.7154(2) 0.6014(3) -0.0225(2)
C19 C 0.6861(2) 0.6094(3) -0.0814(2)
H10 H 0.64420 0.58660 -0.10340
C20 C -0.0264(2) 0.3547(3) -0.6158(2)
H11 H -0.04370 0.36260 -0.65560
C21 C 0.3257(2) 0.0408(3) -0.5260(2)
H12 H 0.36780 0.01760 -0.50570
C22 C -0.0330(2) 0.3755(3) -0.5305(2)
H13 H -0.05540 0.39720 -0.51010
C23 C 0.8083(2) 0.6796(3) -0.0204(2)
H14 H 0.84990 0.70370 0.00070
C24 C 0.2056(2) 0.1724(3) -0.4948(2)
C25 C 0.2358(2) 0.1209(3) -0.5254(2)
C26 C 0.8073(3) 0.5049(3) 0.2427(2)
H15 H 0.85160 0.52140 0.26350
C27 C 0.2037(2) 0.1103(3) -0.5850(2)
H16 H 0.16190 0.13350 -0.60640
C28 C 0.5023(2) 0.4267(3) -0.0929(2)
H17 H 0.52050 0.45570 -0.11400
C29 C 0.7123(2) 0.4924(3) 0.1519(2)
C30 C 0.2158(3) 0.2893(3) -0.3219(2)
H18 H 0.17770 0.31960 -0.34370
C31 C 0.7781(2) 0.5168(3) 0.1834(2)
H19 H 0.80220 0.54060 0.16520
C32 C 0.4438(2) 0.3830(3) -0.1203(2)
H20 H 0.42400 0.38190 -0.16050
C33 C 0.3023(3) 0.1974(3) -0.3150(2)
H21 H 0.32360 0.16470 -0.33180
C34 C 0.3287(3) 0.2072(4) -0.2557(2)
H22 H 0.36820 0.17980 -0.23300
C35 C 0.2458(3) 0.2953(3) -0.2626(2)
H23 H 0.22680 0.33000 -0.24500
C36 C 0.7121(3) 0.4471(4) 0.2403(2)
H24 H 0.68910 0.42320 0.25950
N1 N -0.06049(19) 0.3851(2) -0.58791(17)
N2 N 0.29548(19) 0.0303(2) -0.58330(17)
N3 N 0.3007(2) 0.2537(3) -0.22900(18)
N4 N 0.15324(19) 0.2678(2) -0.44061(17)
N5 N 0.14786(19) 0.2102(2) -0.52758(17)
N6 N 0.23824(19) 0.1780(2) -0.43718(17)
N7 N 0.41356(19) 0.3421(2) -0.09272(17)
N8 N 0.7803(2) 0.6870(2) -0.07836(18)
N9 N 0.7759(2) 0.4712(3) 0.27169(18)
N10 N 0.62276(19) 0.4626(2) 0.05861(17)
N11 N 0.62621(18) 0.5114(2) -0.02700(16)
N12 N 0.71159(19) 0.5496(2) 0.06475(17)
Mo1 Mo 0.00000 0.46104(5) -0.75000
Mo2 Mo -0.00140(2) 0.58844(3) -0.639521(17)
Mo3 Mo -0.01048(2) 0.79149(3) -0.643654(18)
Mo4 Mo 0.00000 0.90531(4) -0.75000
Mo5 Mo -0.09155(2) 0.69335(2) -0.791128(18)
O1 O 0.0620(3) 0.3976(4) -0.7055(3)
O2 O -0.03483(19) 0.5136(2) -0.70663(16)
O3 O 0.0520(2) 0.5249(2) -0.58721(17)
O4 O -0.07364(18) 0.5828(2) -0.63092(16)
O5 O 0.03277(18) 0.6900(2) -0.60682(15)
O6 O -0.0515(2) 0.6855(2) -0.71402(16)
O7 O -0.07527(19) 0.6043(2) -0.82290(17)
O8 O -0.17605(18) 0.6994(2) -0.81604(18)
O9 O -0.07938(19) 0.7869(3) -0.62948(18)
O10 O 0.04075(19) 0.8567(2) -0.59378(17)
O11 O -0.04917(19) 0.8586(2) -0.71230(16)
O12 O -0.06395(18) 0.7823(2) -0.81537(16)
O13 O 0.0569(2) 0.9670(3) -0.70033(18)
Ag1* Ag 0.844143(19) 0.45773(3) 0.367911(16)
Ag1B Ag 0.344143(19) -0.04227(3) -0.632089(16)
Ag2B Ag 0.82294(2) 0.75223(3) -0.132724(17)
N2B N -0.20452(19) 0.5303(2) -0.58330(17)
N8B N 0.2803(2) 0.1870(2) -0.07836(18)
N9* N -0.2241(2) 0.4712(3) -0.72831(18)
Mo2A Mo 0.00140(2) 0.58844(3) -0.860479(17)
Mo3A Mo 0.01048(2) 0.79149(3) -0.856346(18)
Mo5A Mo 0.09155(2) 0.69335(2) -0.708872(18)
O1A O -0.0620(3) 0.3976(4) -0.7945(3)
O2A O 0.03483(19) 0.5136(2) -0.79337(16)
O3A O -0.0520(2) 0.5249(2) -0.91279(17)
O4A O 0.07364(18) 0.5828(2) -0.86908(16)
O5A O -0.03277(18) 0.6900(2) -0.89318(15)
O6A O 0.0515(2) 0.6855(2) -0.78598(16)
O7A O 0.07527(19) 0.6043(2) -0.67710(17)
O8A O 0.17605(18) 0.6994(2) -0.68396(18)
O9A O 0.07938(19) 0.7869(3) -0.87052(18)
O10A O -0.04075(19) 0.8567(2) -0.90622(17)
O11A O 0.04917(19) 0.8586(2) -0.78770(16)
O12A O 0.06395(18) 0.7823(2) -0.68463(16)
O13A O -0.0569(2) 0.9670(3) -0.79967(18)
#END
