
#######################################################################
#
#                 Cambridge Crystallographic Data Centre
#                                CCDC
#
#######################################################################
#
# If this CIF has been generated from an entry in the Cambridge
# Structural Database, then it will include bibliographic, chemical,
# crystal, experimental, refinement or atomic coordinate data resulting
# from the CCDC's data processing and validation procedures.
#
#######################################################################

data_CSD_CIF_QOFDOG
_audit_creation_date 2014-03-27
_audit_creation_method CSD-ConQuest-V1
_database_code_CSD QOFDOG
_database_code_depnum_ccdc_archive 'CCDC 956841'
_chemical_formula_sum 'C72 H48 Ag4 Mo8 N24 O26'
_chemical_formula_moiety
;
(C36 H24 Ag2 N12 2+)2n,n(Mo8 O26 4-)
;
_journal_coden_Cambridge 222
_journal_volume 43
_journal_year 2014
_journal_page_first 7146
_journal_name_full 'Dalton Trans. '
loop_
_publ_author_name
"Lei Zhang"
"Xiaofei Kuang"
"Xiaoyuan Wu"
"Wenbin Yang"
"Canzhong Lu"
_chemical_name_systematic
;
catena-(bis(\m~3~-2,4,6-tris(Pyridin-4-yl)-1,3,5-triazine)-di-silver 
tetrakis(\m~3~-oxo)-octakis(\m~2~-oxo)-tetradecaoxo-octa-molybdenum)
;
_cell_volume   8483.180
_exptl_crystal_colour 'crimson'
_exptl_crystal_density_diffrn 2.243
_exptl_crystal_description 'block-like'
_diffrn_ambient_temperature 380
#These two values have been output from a single CSD field.
_refine_ls_R_factor_gt 0.0421
_refine_ls_wR_factor_gt 0.0421
_symmetry_cell_setting monoclinic
_symmetry_space_group_name_H-M 'C 2/c'
_symmetry_Int_Tables_number 15
loop_
_symmetry_equiv_pos_site_id
_symmetry_equiv_pos_as_xyz
1 x,y,z
2 -x,y,1/2-z
3 1/2+x,1/2+y,z
4 1/2-x,1/2+y,1/2-z
5 -x,-y,-z
6 x,-y,-1/2+z
7 -1/2-x,-1/2-y,-z
8 -1/2+x,-1/2-y,-1/2+z
_cell_length_a 21.9717(6)
_cell_length_b 16.6692(6)
_cell_length_c 25.6289(9)
_cell_angle_alpha 90
_cell_angle_beta 115.344(5)
_cell_angle_gamma 90
_cell_formula_units_Z 4
loop_
_atom_type_symbol
_atom_type_radius_bond
C 0.68
H 0.23
Ag 1.45
Mo 1.54
N 0.68
O 0.68
loop_
_atom_site_label
_atom_site_type_symbol
_atom_site_fract_x
_atom_site_fract_y
_atom_site_fract_z
Ag1 Ag 0.27371(2) 0.20896(4) -0.13192(2)
Ag2 Ag 0.29539(3) 0.00244(4) 0.36756(2)
C1 C -0.0779(3) 0.3997(4) 0.3920(3)
H1 H -0.09830 0.40340 0.35190
C2 C 0.1535(3) 0.2200(3) 0.5008(2)
C3 C 0.1276(3) 0.0614(4) -0.0891(3)
H2 H 0.08490 0.04010 -0.11040
C4 C 0.1280(3) 0.0072(3) 0.0019(2)
C5 C -0.0183(3) 0.3870(4) 0.5090(3)
H3 H 0.00090 0.38360 0.54910
C6 C -0.0970(3) -0.1846(4) -0.1111(3)
H4 H -0.11470 -0.19170 -0.15090
C7 C 0.0748(3) 0.3015(3) 0.5063(3)
C8 C 0.2434(3) 0.1334(4) 0.4965(3)
H5 H 0.26370 0.13230 0.53670
C9 C 0.2711(3) 0.0932(4) 0.4648(3)
H6 H 0.31130 0.06580 0.48480
C10 C 0.2228(3) 0.0850(4) -0.0010(3)
H7 H 0.24600 0.07990 0.03880
C11 C 0.1596(3) 0.0517(3) -0.0305(3)
C12 C 0.1274(3) -0.0241(4) 0.0875(3)
C13 C 0.1583(3) -0.0144(4) 0.1512(3)
C14 C -0.0394(3) -0.1387(4) -0.0847(3)
H8 H -0.01960 -0.11560 -0.10660
C15 C 0.1839(3) 0.1757(3) 0.4663(2)
C16 C 0.1900(3) 0.2424(4) 0.6514(3)
C17 C 0.2507(3) 0.1259(5) -0.0322(3)
H9 H 0.29280 0.14900 -0.01190
C18 C -0.0179(3) 0.3580(4) 0.4183(3)
H10 H 0.00170 0.33550 0.39600
C19 C -0.0428(3) -0.1662(4) 0.0051(3)
H11 H -0.02500 -0.16290 0.04520
C20 C 0.2520(3) 0.2073(5) 0.6805(3)
H12 H 0.27590 0.18960 0.66020
C21 C 0.0495(3) -0.0772(3) 0.0051(2)
C22 C 0.2791(3) 0.1982(5) 0.7399(3)
H13 H 0.32110 0.17430 0.75890
C23 C 0.1606(3) 0.1039(4) -0.1157(3)
H14 H 0.13820 0.11140 -0.15540
C24 C 0.0126(3) 0.3499(3) 0.4770(3)
C25 C 0.1558(4) 0.2682(4) 0.6832(3)
H15 H 0.11360 0.29210 0.66540
C26 C 0.1583(3) 0.2516(4) 0.5874(3)
C27 C -0.1010(3) -0.2093(4) -0.0257(3)
H16 H -0.12230 -0.23310 -0.00510
C28 C 0.1871(4) 0.2566(5) 0.7424(3)
H17 H 0.16430 0.27410 0.76370
C29 C 0.1552(3) 0.1752(4) 0.4070(3)
H18 H 0.11600 0.20400 0.38600
C30 C -0.0778(3) 0.4286(4) 0.4793(3)
H19 H -0.09780 0.45340 0.50050
C31 C 0.2412(4) 0.0439(5) 0.2368(3)
H20 H 0.27670 0.07960 0.25420
C32 C 0.2118(3) 0.0377(5) 0.1774(3)
H21 H 0.22770 0.06800 0.15540
C33 C 0.1333(4) -0.0551(4) 0.1846(3)
H22 H 0.09510 -0.08720 0.16800
C34 C -0.0112(3) -0.1273(3) -0.0253(3)
C35 C 0.1674(4) -0.0462(5) 0.2442(3)
H23 H 0.15160 -0.07510 0.26700
C36 C 0.1859(4) 0.1312(5) 0.3795(3)
H24 H 0.16520 0.12920 0.33940
N1 N 0.2220(2) 0.1346(3) -0.0884(2)
N2 N -0.1286(2) -0.2192(3) -0.0825(2)
N3 N 0.2206(3) 0.0002(4) 0.2709(2)
N4 N 0.0740(2) -0.0393(3) -0.0279(2)
N5 N 0.0747(2) -0.0726(3) 0.0626(2)
N6 N 0.1558(2) 0.0175(3) 0.0587(2)
N7 N 0.2438(3) 0.0910(3) 0.4072(2)
N8 N -0.1080(3) 0.4352(3) 0.4220(2)
N9 N 0.2464(3) 0.2230(4) 0.7711(2)
N10 N 0.0971(2) 0.2608(3) 0.4727(2)
N11 N 0.1036(2) 0.2993(3) 0.5640(2)
N12 N 0.1861(2) 0.2126(3) 0.5584(2)
Mo1 Mo 0.00000 0.21623(6) -0.25000
Mo2 Mo 0.11203(2) 0.33998(3) -0.13945(2)
Mo3 Mo 0.11641(2) 0.54031(3) -0.14319(2)
Mo4 Mo 0.05155(2) 0.44338(3) -0.29086(2)
Mo5 Mo 0.00000 0.65236(6) -0.25000
O1 O -0.0194(4) 0.1556(6) -0.2059(5)
O2 O 0.0785(2) 0.2662(3) -0.2063(2)
O3 O 0.1106(3) 0.2793(4) -0.0865(2)
O4 O 0.1928(3) 0.3329(4) -0.1306(2)
O5 O 0.0886(3) 0.4362(3) -0.2148(2)
O6 O 0.0032(2) 0.3561(3) -0.3222(2)
O7 O 0.1097(3) 0.4486(3) -0.3176(3)
O8 O -0.0005(2) 0.5315(3) -0.3148(2)
O9 O 0.1100(2) 0.4401(3) -0.1070(2)
O10 O 0.1992(3) 0.5376(4) -0.1293(3)
O11 O 0.0867(2) 0.6075(3) -0.2115(2)
O12 O 0.1146(3) 0.6032(4) -0.0929(2)
O13 O -0.0089(3) 0.7131(4) -0.2009(3)
Ag1* Ag 0.27371(2) 0.20896(4) 0.86808(2)
Ag1B Ag -0.22629(2) -0.29104(4) -0.13192(2)
Ag2B Ag -0.20461(3) 0.50244(4) 0.36756(2)
N2B N 0.3714(2) 0.2808(3) -0.0825(2)
N8B N 0.3920(3) -0.0648(3) 0.4220(2)
N9* N 0.2464(3) 0.2230(4) -0.2289(2)
Mo2A Mo -0.11203(2) 0.33998(3) -0.36055(2)
Mo3A Mo -0.11641(2) 0.54031(3) -0.35681(2)
Mo4A Mo -0.05155(2) 0.44338(3) -0.20914(2)
O1A O 0.0194(4) 0.1556(6) -0.2941(5)
O2A O -0.0785(2) 0.2662(3) -0.2937(2)
O3A O -0.1106(3) 0.2793(4) -0.4135(2)
O4A O -0.1928(3) 0.3329(4) -0.3694(2)
O5A O -0.0886(3) 0.4362(3) -0.2852(2)
O6A O -0.0032(2) 0.3561(3) -0.1778(2)
O7A O -0.1097(3) 0.4486(3) -0.1824(3)
O8A O 0.0005(2) 0.5315(3) -0.1852(2)
O9A O -0.1100(2) 0.4401(3) -0.3930(2)
O10A O -0.1992(3) 0.5376(4) -0.3707(3)
O11A O -0.0867(2) 0.6075(3) -0.2885(2)
O12A O -0.1146(3) 0.6032(4) -0.4071(2)
O13A O 0.0089(3) 0.7131(4) -0.2991(3)
#END
