
#######################################################################
#
#                 Cambridge Crystallographic Data Centre
#                                CCDC
#
#######################################################################
#
# If this CIF has been generated from an entry in the Cambridge
# Structural Database, then it will include bibliographic, chemical,
# crystal, experimental, refinement or atomic coordinate data resulting
# from the CCDC's data processing and validation procedures.
#
#######################################################################

data_CSD_CIF_QOFDIA06
_audit_creation_date 2014-03-27
_audit_creation_method CSD-ConQuest-V1
_database_code_CSD QOFDIA06
_database_code_depnum_ccdc_archive 'CCDC 956855'
_chemical_formula_sum 'C72 H48 Ag4 Mo8 N24 O26'
_chemical_formula_moiety
;
(C36 H24 Ag2 N12 2+)2n,n(Mo8 O26 4-)
;
_journal_coden_Cambridge 222
_journal_volume 43
_journal_year 2014
_journal_page_first 7146
_journal_name_full 'Dalton Trans. '
loop_
_publ_author_name
"Lei Zhang"
"Xiaofei Kuang"
"Xiaoyuan Wu"
"Wenbin Yang"
"Canzhong Lu"
_chemical_name_systematic
;
catena-(bis(bis(\m~3~-2,4,6-tris(Pyridin-4-yl)-1,3,5-triazine)-di-silver) 
tetrakis(\m~3~-oxo)-octakis(\m~2~-oxo)-tetradecaoxo-octa-molybdenum)
;
_cell_volume   8431.516
_exptl_crystal_colour 'brown'
_exptl_crystal_density_diffrn 2.256
_exptl_crystal_description 'block-like'
_diffrn_ambient_temperature 370.0
#These two values have been output from a single CSD field.
_refine_ls_R_factor_gt 0.0461
_refine_ls_wR_factor_gt 0.0461
_symmetry_cell_setting monoclinic
_symmetry_space_group_name_H-M 'C 2/c'
_symmetry_Int_Tables_number 15
loop_
_symmetry_equiv_pos_site_id
_symmetry_equiv_pos_as_xyz
1 x,y,z
2 -x,y,1/2-z
3 1/2+x,1/2+y,z
4 1/2-x,1/2+y,1/2-z
5 -x,-y,-z
6 x,-y,-1/2+z
7 -1/2-x,-1/2-y,-z
8 -1/2+x,-1/2-y,-1/2+z
_cell_length_a 21.9943(8)
_cell_length_b 16.5773(6)
_cell_length_c 25.5580(15)
_cell_angle_alpha 90
_cell_angle_beta 115.203(5)
_cell_angle_gamma 90
_cell_formula_units_Z 4
loop_
_atom_type_symbol
_atom_type_radius_bond
C 0.68
H 0.23
Ag 1.45
Mo 1.54
N 0.68
O 0.68
loop_
_atom_site_label
_atom_site_type_symbol
_atom_site_fract_x
_atom_site_fract_y
_atom_site_fract_z
Ag1 Ag -0.15573(3) 0.45714(4) -0.63270(3)
Ag2 Ag -0.17772(3) 0.75492(5) -0.13323(3)
C1 C 0.0978(3) 0.9708(4) -0.0004(3)
C2 C -0.2025(3) 0.5841(4) -0.4958(3)
H1 H -0.18030 0.58820 -0.45580
C3 C 0.0034(3) 0.8846(4) -0.0048(3)
H2 H 0.02290 0.88340 0.03540
C4 C 0.2773(4) 1.1378(5) 0.0086(3)
H3 H 0.29830 1.13380 0.04870
C5 C 0.1817(3) 1.0522(4) 0.0057(3)
C6 C -0.2902(3) 0.7264(4) -0.4136(3)
C7 C -0.4402(3) 0.8014(4) -0.5317(3)
C8 C -0.4670(4) 0.8112(5) -0.5898(3)
H4 H -0.44540 0.79010 -0.61100
C9 C -0.3767(3) 0.7563(4) -0.4991(3)
C10 C -0.0560(4) 0.8441(4) -0.0365(3)
H5 H -0.07580 0.81550 -0.01650
C11 C 0.0331(3) 0.9272(4) -0.0346(3)
C12 C 0.2199(3) 1.1532(5) -0.1089(3)
H6 H 0.20020 1.15810 -0.14890
C13 C 0.1791(4) 0.9563(5) 0.1800(3)
H7 H 0.13500 0.93880 0.15990
C14 C -0.2646(4) 0.5644(4) -0.6123(3)
H8 H -0.28620 0.55750 -0.65220
C15 C -0.2568(3) 0.7369(4) -0.3495(3)
C16 C 0.1801(3) 1.0020(4) 0.0866(3)
C17 C 0.2149(3) 1.1013(4) -0.0232(3)
C18 C -0.2643(3) 0.6210(4) -0.5263(3)
C19 C -0.4744(4) 0.8356(5) -0.5020(3)
H9 H -0.45690 0.83190 -0.46190
C20 C 0.2122(3) 0.9920(5) 0.1511(3)
C21 C 0.1859(3) 1.1107(4) -0.0827(3)
H10 H 0.14390 1.08860 -0.10500
C22 C -0.2960(4) 0.6093(4) -0.5858(3)
H11 H -0.33810 0.63160 -0.60750
C23 C 0.3073(4) 1.1805(5) -0.0215(3)
H12 H 0.34850 1.20540 -0.00040
C24 C -0.2950(3) 0.6721(4) -0.4962(3)
C25 C -0.5268(4) 0.8529(5) -0.6173(3)
H13 H -0.54410 0.86040 -0.65710
C26 C -0.1749(4) 0.5411(4) -0.5266(3)
H14 H -0.13280 0.51810 -0.50610
C27 C -0.5332(4) 0.8742(5) -0.5322(3)
H15 H -0.55560 0.89600 -0.51180
C28 C 0.0020(4) 0.9276(5) -0.0941(3)
H16 H 0.01980 0.95700 -0.11530
C29 C 0.3067(4) 1.0053(6) 0.2414(4)
H17 H 0.35080 1.02250 0.26220
C30 C -0.0560(4) 0.8837(5) -0.1214(3)
H18 H -0.07530 0.88190 -0.16160
C31 C 0.2117(4) 0.9466(6) 0.2392(3)
H19 H 0.18880 0.92190 0.25830
C32 C -0.2851(4) 0.7882(5) -0.3229(3)
H20 H -0.32370 0.81750 -0.34470
C33 C -0.2546(4) 0.7946(5) -0.2636(3)
H21 H -0.27370 0.82880 -0.24590
C34 C 0.2776(4) 1.0163(5) 0.1818(3)
H22 H 0.30160 1.03950 0.16330
C35 C -0.1717(4) 0.7089(6) -0.2567(4)
H23 H -0.13220 0.68170 -0.23410
C36 C -0.1978(4) 0.6994(5) -0.3159(4)
H24 H -0.17570 0.66810 -0.33260
N1 N -0.2044(3) 0.5304(3) -0.5833(3)
N2 N -0.5606(3) 0.8827(4) -0.5890(3)
N3 N -0.1992(3) 0.7543(5) -0.2303(3)
N4 N -0.2622(3) 0.6773(4) -0.4382(3)
N5 N -0.3522(3) 0.7100(4) -0.5288(2)
N6 N -0.3475(3) 0.7666(4) -0.4420(2)
N7 N -0.0865(3) 0.8436(4) -0.0941(3)
N8 N 0.2753(3) 0.9715(4) 0.2703(3)
N9 N 0.2797(3) 1.1871(4) -0.0787(3)
N10 N 0.1257(3) 1.0127(3) -0.0282(2)
N11 N 0.1229(3) 0.9632(4) 0.0577(2)
N12 N 0.2111(3) 1.0498(4) 0.0636(3)
Mo1 Mo 0.00000 0.46468(7) -0.75000
Mo2 Mo -0.00128(3) 0.58975(4) -0.63920(2)
Mo3 Mo -0.00875(3) 0.79075(4) -0.64289(3)
Mo4 Mo 0.00000 0.90713(7) -0.75000
Mo5 Mo -0.09193(3) 0.69287(4) -0.79041(3)
O1 O 0.0626(6) 0.4018(7) -0.7073(6)
O2 O -0.0340(3) 0.5143(4) -0.7059(3)
O3 O 0.0527(3) 0.5278(5) -0.5860(3)
O4 O -0.0729(3) 0.5819(4) -0.6305(3)
O5 O 0.0329(3) 0.6897(4) -0.6064(3)
O6 O -0.0513(4) 0.6865(4) -0.7143(3)
O7 O -0.0757(3) 0.6045(4) -0.8230(3)
O8 O -0.1761(3) 0.6971(4) -0.8168(3)
O9 O -0.0779(3) 0.7871(5) -0.6297(3)
O10 O 0.0430(4) 0.8522(5) -0.5920(3)
O11 O -0.0476(3) 0.8583(4) -0.7116(3)
O12 O -0.0655(3) 0.7809(4) -0.8165(3)
O13 O 0.0579(4) 0.9664(5) -0.7016(3)
Ag1B Ag -0.65573(3) 0.95714(4) -0.63270(3)
Ag1B* Ag 0.34427(3) 0.95714(4) 0.36730(3)
Ag2B Ag 0.32228(3) 1.25492(5) -0.13323(3)
N2B N -0.0606(3) 0.3827(4) -0.5890(3)
N8B N -0.2247(3) 0.4715(4) -0.7297(3)
N9B N -0.2203(3) 0.6871(4) -0.0787(3)
Mo2A Mo 0.00128(3) 0.58975(4) -0.86080(2)
Mo3A Mo 0.00875(3) 0.79075(4) -0.85711(3)
Mo5A Mo 0.09193(3) 0.69287(4) -0.70959(3)
O1A O -0.0626(6) 0.4018(7) -0.7927(6)
O2A O 0.0340(3) 0.5143(4) -0.7941(3)
O3A O -0.0527(3) 0.5278(5) -0.9140(3)
O4A O 0.0729(3) 0.5819(4) -0.8695(3)
O5A O -0.0329(3) 0.6897(4) -0.8936(3)
O6A O 0.0513(4) 0.6865(4) -0.7857(3)
O7A O 0.0757(3) 0.6045(4) -0.6770(3)
O8A O 0.1761(3) 0.6971(4) -0.6832(3)
O9A O 0.0779(3) 0.7871(5) -0.8703(3)
O10A O -0.0430(4) 0.8522(5) -0.9080(3)
O11A O 0.0476(3) 0.8583(4) -0.7884(3)
O12A O 0.0655(3) 0.7809(4) -0.6835(3)
O13A O -0.0579(4) 0.9664(5) -0.7984(3)
#END
