
#######################################################################
#
#                 Cambridge Crystallographic Data Centre
#                                CCDC
#
#######################################################################
#
# If this CIF has been generated from an entry in the Cambridge
# Structural Database, then it will include bibliographic, chemical,
# crystal, experimental, refinement or atomic coordinate data resulting
# from the CCDC's data processing and validation procedures.
#
#######################################################################

data_CSD_CIF_QOFDAS
_audit_creation_date 2014-03-27
_audit_creation_method CSD-ConQuest-V1
_database_code_CSD QOFDAS
_database_code_depnum_ccdc_archive 'CCDC 956838'
_chemical_formula_sum 'C72 H51 Ag4 Mo8 N24 O27.5'
_chemical_formula_moiety
;
(C36 H24 Ag2 N12 2+)2n,n(Mo8 O26 4-),1.5n(H2 O1)
;
_journal_coden_Cambridge 222
_journal_volume 43
_journal_year 2014
_journal_page_first 7146
_journal_name_full 'Dalton Trans. '
loop_
_publ_author_name
"Lei Zhang"
"Xiaofei Kuang"
"Xiaoyuan Wu"
"Wenbin Yang"
"Canzhong Lu"
_chemical_name_systematic
;
catena-(bis(\m~3~-2,4,6-tris(Pyridin-4-yl)-1,3,5-triazine)-di-silver 
tetrakis(\m~3~-oxo)-octakis(\m~2~-oxo)-tetradecaoxo-octa-molybdenum 
sesquihydrate)
;
_cell_volume   8437.029
_exptl_crystal_density_diffrn 2.276
_exptl_crystal_description 'block-like'
_diffrn_ambient_temperature 310
_refine_special_details
;
O15 disordered by symmetry over two configurations with occupancy 0.25.

;
#These two values have been output from a single CSD field.
_refine_ls_R_factor_gt 0.0336
_refine_ls_wR_factor_gt 0.0336
_symmetry_cell_setting monoclinic
_symmetry_space_group_name_H-M 'C 2/c'
_symmetry_Int_Tables_number 15
loop_
_symmetry_equiv_pos_site_id
_symmetry_equiv_pos_as_xyz
1 x,y,z
2 -x,y,1/2-z
3 1/2+x,1/2+y,z
4 1/2-x,1/2+y,1/2-z
5 -x,-y,-z
6 x,-y,-1/2+z
7 -1/2-x,-1/2-y,-z
8 -1/2+x,-1/2-y,-1/2+z
_cell_length_a 21.9848(6)
_cell_length_b 16.5617(6)
_cell_length_c 25.6443(9)
_cell_angle_alpha 90
_cell_angle_beta 115.366(5)
_cell_angle_gamma 90
_cell_formula_units_Z 4
loop_
_atom_type_symbol
_atom_type_radius_bond
C 0.68
H 0.23
Ag 1.45
Mo 1.54
N 0.68
O 0.68
loop_
_atom_site_label
_atom_site_type_symbol
_atom_site_fract_x
_atom_site_fract_y
_atom_site_fract_z
Ag1 Ag 0.273896(18) 0.20897(3) -0.131754(16)
Ag2 Ag 0.794995(19) 0.50132(3) 0.367687(17)
C1 C 0.6278(2) 0.4760(3) 0.08782(19)
C2 C 0.4227(2) 0.9004(3) 0.3926(2)
H1 H 0.40290 0.90500 0.35260
C3 C 0.6538(2) 0.7197(3) 0.50129(19)
C4 C 0.6280(2) 0.5616(3) -0.0887(2)
H2 H 0.58550 0.53980 -0.11000
C5 C 0.6280(2) 0.5070(3) 0.00244(19)
C6 C 0.4821(2) 0.8872(3) 0.5094(2)
H3 H 0.50140 0.88420 0.54950
C7 C 0.4031(2) 0.3169(3) -0.1108(2)
H4 H 0.38460 0.31130 -0.15070
C8 C 0.7434(2) 0.6335(3) 0.49629(19)
H5 H 0.76390 0.63300 0.53640
C9 C 0.5753(2) 0.8007(3) 0.5072(2)
C10 C 0.6599(2) 0.5523(3) -0.02968(19)
C11 C 0.7229(2) 0.5865(3) -0.0006(2)
H6 H 0.74550 0.58210 0.03940
C12 C 0.7719(2) 0.5927(3) 0.4656(2)
H7 H 0.81220 0.56540 0.48580
C13 C 0.7517(2) 0.6266(3) -0.0308(2)
H8 H 0.79420 0.64900 -0.01040
C14 C 0.4573(2) 0.3341(3) 0.0056(2)
H9 H 0.47500 0.33800 0.04560
C15 C 0.6583(2) 0.4862(3) 0.1518(2)
C16 C 0.4609(2) 0.3610(3) -0.0844(2)
H10 H 0.48130 0.38360 -0.10610
C17 C 0.6837(2) 0.6751(3) 0.46686(18)
C18 C 0.6902(2) 0.7426(3) 0.6519(2)
C19 C 0.4823(2) 0.8576(3) 0.41865(19)
H11 H 0.50160 0.83410 0.39640
C20 C 0.5498(2) 0.4228(3) 0.00565(19)
C21 C 0.7793(3) 0.6987(3) 0.7403(2)
H12 H 0.82150 0.67500 0.75940
C22 C 0.7527(2) 0.7070(3) 0.6811(2)
H13 H 0.77670 0.68890 0.66100
C23 C 0.6610(2) 0.6042(3) -0.1156(2)
H14 H 0.63880 0.61120 -0.15540
C24 C 0.6565(3) 0.7680(3) 0.6841(2)
H15 H 0.61420 0.79180 0.66620
C25 C 0.7122(2) 0.5380(3) 0.1783(2)
H16 H 0.72840 0.56860 0.15660
C26 C 0.6869(3) 0.7573(3) 0.7429(2)
H17 H 0.66400 0.77500 0.76400
C27 C 0.3989(2) 0.2906(3) -0.0253(2)
H18 H 0.37760 0.26640 -0.00490
C28 C 0.6583(2) 0.7522(3) 0.5879(2)
C29 C 0.7414(3) 0.5434(3) 0.2377(2)
H19 H 0.77730 0.57880 0.25530
C30 C 0.5127(2) 0.8502(3) 0.47797(19)
C31 C 0.6556(2) 0.6746(3) 0.4075(2)
H20 H 0.61630 0.70330 0.38640
C32 C 0.4891(2) 0.3720(3) -0.02489(19)
C33 C 0.6335(3) 0.4450(3) 0.1853(2)
H21 H 0.59530 0.41270 0.16870
C34 C 0.4223(2) 0.9286(3) 0.4797(2)
H22 H 0.40210 0.95300 0.50100
C35 C 0.6675(3) 0.4535(4) 0.2445(2)
H23 H 0.65180 0.42430 0.26710
C36 C 0.6864(2) 0.6312(3) 0.3799(2)
H24 H 0.66600 0.62990 0.33980
N1 N 0.37154(17) 0.2813(2) -0.08233(17)
N2 N 0.72209(18) 0.6356(2) -0.08816(17)
N3 N 0.7209(2) 0.5003(3) 0.27143(18)
N4 N 0.57474(17) 0.4610(2) -0.02712(16)
N5 N 0.65628(17) 0.5182(2) 0.05968(16)
N6 N 0.57504(18) 0.4275(2) 0.06315(16)
N7 N 0.74411(18) 0.5905(2) 0.40749(17)
N8 N 0.7468(2) 0.7234(3) 0.77159(18)
N9 N 0.39200(18) 0.9355(2) 0.42218(17)
N10 N 0.59761(17) 0.7604(2) 0.47329(16)
N11 N 0.68682(18) 0.7124(2) 0.55894(16)
N12 N 0.60415(18) 0.7989(2) 0.56459(16)
Mo1 Mo 0.00000 0.21450(4) -0.25000
Mo2 Mo 0.111959(19) 0.33930(2) -0.139579(17)
Mo3 Mo 0.116913(19) 0.54071(2) -0.143492(18)
Mo4 Mo 0.00000 0.65180(4) -0.25000
Mo5 Mo 0.050971(18) 0.44357(2) -0.291149(17)
O1 O -0.0179(3) 0.1532(4) -0.2052(3)
O2 O 0.07850(17) 0.2656(2) -0.20652(16)
O3 O 0.11010(19) 0.2772(2) -0.08750(17)
O4 O 0.19331(17) 0.3333(2) -0.13050(16)
O5 O 0.10996(16) 0.4402(2) -0.10699(15)
O6 O 0.0890(2) 0.4361(2) -0.21441(15)
O7 O 0.10981(18) 0.4495(2) -0.31721(18)
O8 O 0.00321(17) 0.3556(2) -0.32212(17)
O9 O 0.19994(18) 0.5376(2) -0.12923(18)
O10 O 0.11474(17) 0.6054(2) -0.09374(17)
O11 O 0.08746(16) 0.6076(2) -0.21197(16)
O12 O -0.00102(16) 0.5320(2) -0.31469(16)
O13 O -0.0081(2) 0.7135(3) -0.20078(19)
O14 O -0.0788(6) 0.8639(8) -0.2324(6)
H25 H -0.05720 0.81970 -0.22270
H26 H -0.05090 0.90170 -0.22830
O15 O 0.0123(16) 0.9842(18) -0.2206(11)
H27 H 0.00000 1.03140 -0.21610
H28 H -0.01870 0.95110 -0.22410
Ag1B Ag 0.773896(18) 0.70897(3) -0.131754(16)
Ag1B* Ag 0.773896(18) 0.70897(3) 0.868246(16)
Ag2B Ag 0.294995(19) 1.00132(3) 0.367687(17)
N2B N 0.22209(18) 0.1356(2) -0.08816(17)
N8B N 0.2468(2) 0.2234(3) -0.22841(18)
N9B N 0.89200(18) 0.4355(2) 0.42218(17)
Mo2A Mo -0.111959(19) 0.33930(2) -0.360421(17)
Mo3A Mo -0.116913(19) 0.54071(2) -0.356508(18)
Mo5A Mo -0.050971(18) 0.44357(2) -0.208851(17)
O1A O 0.0179(3) 0.1532(4) -0.2948(3)
O2A O -0.07850(17) 0.2656(2) -0.29348(16)
O3A O -0.11010(19) 0.2772(2) -0.41250(17)
O4A O -0.19331(17) 0.3333(2) -0.36950(16)
O5A O -0.10996(16) 0.4402(2) -0.39301(15)
O6A O -0.0890(2) 0.4361(2) -0.28559(15)
O7A O -0.10981(18) 0.4495(2) -0.18279(18)
O8A O -0.00321(17) 0.3556(2) -0.17788(17)
O9A O -0.19994(18) 0.5376(2) -0.37077(18)
O10A O -0.11474(17) 0.6054(2) -0.40626(17)
O11A O -0.08746(16) 0.6076(2) -0.28803(16)
O12A O 0.00102(16) 0.5320(2) -0.18531(16)
O13A O 0.0081(2) 0.7135(3) -0.29922(19)
#END
