
#######################################################################
#
#                 Cambridge Crystallographic Data Centre
#                                CCDC
#
#######################################################################
#
# If this CIF has been generated from an entry in the Cambridge
# Structural Database, then it will include bibliographic, chemical,
# crystal, experimental, refinement or atomic coordinate data resulting
# from the CCDC's data processing and validation procedures.
#
#######################################################################

data_CSD_CIF_QOFDIA
_audit_creation_date 2014-03-27
_audit_creation_method CSD-ConQuest-V1
_database_code_CSD QOFDIA
_database_code_depnum_ccdc_archive 'CCDC 956840'
_chemical_formula_sum 'C72 H48 Ag4 Mo8 N24 O26'
_chemical_formula_moiety
;
(C36 H24 Ag2 N12 2+)2n,n(Mo8 O26 4-)
;
_journal_coden_Cambridge 222
_journal_volume 43
_journal_year 2014
_journal_page_first 7146
_journal_name_full 'Dalton Trans. '
loop_
_publ_author_name
"Lei Zhang"
"Xiaofei Kuang"
"Xiaoyuan Wu"
"Wenbin Yang"
"Canzhong Lu"
_chemical_name_systematic
;
catena-(bis(\m~3~-2,4,6-tris(Pyridin-4-yl)-1,3,5-triazine)-di-silver 
tetrakis(\m~3~-oxo)-octakis(\m~2~-oxo)-tetradecaoxo-octa-molybdenum)
;
_cell_volume   8491.059
_exptl_crystal_colour 'crimson'
_exptl_crystal_density_diffrn 2.241
_exptl_crystal_description 'block-like'
_diffrn_ambient_temperature 370
#These two values have been output from a single CSD field.
_refine_ls_R_factor_gt 0.0405
_refine_ls_wR_factor_gt 0.0405
_symmetry_cell_setting monoclinic
_symmetry_space_group_name_H-M 'C 2/c'
_symmetry_Int_Tables_number 15
loop_
_symmetry_equiv_pos_site_id
_symmetry_equiv_pos_as_xyz
1 x,y,z
2 -x,y,1/2-z
3 1/2+x,1/2+y,z
4 1/2-x,1/2+y,1/2-z
5 -x,-y,-z
6 x,-y,-1/2+z
7 -1/2-x,-1/2-y,-z
8 -1/2+x,-1/2-y,-1/2+z
_cell_length_a 21.9944(8)
_cell_length_b 16.6621(5)
_cell_length_c 25.6363(11)
_cell_angle_alpha 90
_cell_angle_beta 115.340(5)
_cell_angle_gamma 90
_cell_formula_units_Z 4
loop_
_atom_type_symbol
_atom_type_radius_bond
C 0.68
H 0.23
Ag 1.45
Mo 1.54
N 0.68
O 0.68
loop_
_atom_site_label
_atom_site_type_symbol
_atom_site_fract_x
_atom_site_fract_y
_atom_site_fract_z
Ag1 Ag -0.22622(2) 0.70901(3) -0.63185(2)
Ag2 Ag 0.29535(3) 1.00221(4) -0.13243(2)
C1 C 0.1537(3) 1.2200(3) 0.0010(2)
C2 C 0.1279(3) 1.0072(3) -0.4981(2)
C3 C -0.0777(3) 1.3998(4) -0.1078(3)
H1 H -0.09790 1.40360 -0.14780
C4 C 0.1278(3) 1.0617(4) -0.5891(3)
H2 H 0.08520 1.04040 -0.61040
C5 C -0.0969(3) 0.8166(4) -0.6111(3)
H3 H -0.11500 0.81030 -0.65090
C6 C -0.0181(3) 1.3870(4) 0.0095(3)
H4 H 0.00080 1.38340 0.04950
C7 C 0.0748(3) 1.3014(3) 0.0067(2)
C8 C 0.1594(3) 1.0520(3) -0.5306(2)
C9 C 0.1585(3) 0.9859(4) -0.3488(2)
C10 C 0.2434(3) 1.1335(4) -0.0035(3)
H5 H 0.26400 1.13260 0.03660
C11 C 0.2711(3) 1.0932(4) -0.0353(3)
H6 H 0.31140 1.06600 -0.01530
C12 C 0.2228(3) 1.0858(4) -0.5012(3)
H7 H 0.24550 1.08130 -0.46130
C13 C 0.0497(3) 0.9227(3) -0.4949(2)
C14 C 0.1839(3) 1.1754(3) -0.0334(2)
C15 C -0.0393(3) 0.8616(4) -0.5847(3)
H8 H -0.01910 0.88440 -0.60650
C16 C 0.2513(3) 1.1257(4) -0.5317(3)
H9 H 0.29380 1.14770 -0.51140
C17 C 0.1277(3) 0.9754(4) -0.4124(2)
C18 C -0.0427(3) 0.8340(4) -0.4946(2)
H10 H -0.02490 0.83740 -0.45460
C19 C 0.1903(3) 1.2431(4) 0.1519(2)
C20 C 0.2524(3) 1.2069(4) 0.1809(3)
H11 H 0.27590 1.18800 0.16060
C21 C 0.1582(3) 1.2518(3) 0.0877(2)
C22 C 0.1605(3) 1.1037(4) -0.6157(3)
H12 H 0.13830 1.11080 -0.65550
C23 C -0.0179(3) 1.3579(4) -0.0817(3)
H13 H 0.00150 1.33510 -0.10400
C24 C -0.0113(3) 0.8726(3) -0.5252(2)
C25 C 0.0127(3) 1.3502(3) -0.0226(2)
C26 C 0.2119(3) 1.0376(4) -0.3223(3)
H14 H 0.22800 1.06800 -0.34410
C27 C 0.1869(4) 1.2571(5) 0.2425(3)
H15 H 0.16410 1.27480 0.26370
C28 C -0.1009(3) 0.7907(3) -0.5256(3)
H16 H -0.12200 0.76640 -0.50500
C29 C 0.2790(3) 1.1992(5) 0.2400(3)
H17 H 0.32140 1.17620 0.25920
C30 C -0.0778(3) 1.4288(4) -0.0209(3)
H18 H -0.09790 1.45380 0.00020
C31 C 0.1562(3) 1.2679(4) 0.1834(3)
H19 H 0.11380 1.29130 0.16540
C32 C 0.1554(3) 1.1753(4) -0.0927(3)
H20 H 0.11640 1.20430 -0.11370
C33 C 0.1335(3) 0.9453(4) -0.3150(3)
H21 H 0.09530 0.91330 -0.33150
C34 C 0.2410(4) 1.0436(4) -0.2631(3)
H22 H 0.27640 1.07950 -0.24560
C35 C 0.1673(4) 0.9539(5) -0.2559(3)
H23 H 0.15140 0.92520 -0.23320
C36 C 0.1857(3) 1.1314(4) -0.1207(3)
H24 H 0.16510 1.12980 -0.16090
N1 N -0.1286(2) 0.7813(3) -0.5825(2)
N2 N 0.2219(2) 1.1348(3) -0.5884(2)
N3 N 0.2207(3) 1.0001(4) -0.2292(2)
N4 N 0.0741(2) 0.9610(3) -0.5277(2)
N5 N 0.1560(2) 1.0175(3) -0.4409(2)
N6 N 0.0748(2) 0.9273(3) -0.4372(2)
N7 N 0.2438(3) 1.0906(3) -0.0928(2)
N8 N 0.2465(3) 1.2234(4) 0.2712(2)
N9 N -0.1080(2) 1.4351(3) -0.0783(2)
N10 N 0.1862(2) 1.2129(3) 0.0585(2)
N11 N 0.1037(2) 1.2990(3) 0.0641(2)
N12 N 0.0976(2) 1.2606(3) -0.0268(2)
Mo1 Mo -0.50000 0.71602(6) -0.75000
Mo2 Mo -0.38796(2) 0.83990(3) -0.63947(2)
Mo3 Mo -0.38349(2) 1.04035(3) -0.64324(2)
Mo4 Mo -0.50000 1.15213(6) -0.75000
Mo5 Mo -0.44853(2) 0.94347(3) -0.79093(2)
O1 O -0.5187(4) 0.6547(6) -0.7058(5)
O2 O -0.4216(2) 0.7662(3) -0.7063(2)
O3 O -0.3073(2) 0.8332(3) -0.6306(2)
O4 O -0.3900(3) 0.7783(3) -0.5870(2)
O5 O -0.4111(3) 0.9364(3) -0.7147(2)
O6 O -0.3900(2) 0.9404(3) -0.6069(2)
O7 O -0.3005(3) 1.0374(4) -0.6290(3)
O8 O -0.3856(3) 1.1037(3) -0.5932(2)
O9 O -0.4967(2) 0.8558(3) -0.8221(2)
O10 O -0.3905(3) 0.9489(3) -0.8177(3)
O11 O -0.5006(2) 1.0311(3) -0.8143(2)
O12 O -0.4133(2) 1.1074(3) -0.7115(2)
O13 O -0.5087(3) 1.2131(4) -0.7006(3)
Ag1B Ag 0.27378(2) 1.20901(3) -0.63185(2)
Ag1B* Ag 0.27378(2) 1.20901(3) 0.36815(2)
Ag2B Ag -0.20465(3) 1.50221(4) -0.13243(2)
N2B N -0.2781(2) 0.6348(3) -0.5884(2)
N8B N -0.2535(3) 0.7234(4) -0.7288(2)
N9B N 0.3920(2) 0.9351(3) -0.0783(2)
Mo2A Mo -0.61204(2) 0.83990(3) -0.86053(2)
Mo3A Mo -0.61651(2) 1.04035(3) -0.85676(2)
Mo5A Mo -0.55147(2) 0.94347(3) -0.70907(2)
O1A O -0.4813(4) 0.6547(6) -0.7942(5)
O2A O -0.5784(2) 0.7662(3) -0.7937(2)
O3A O -0.6927(2) 0.8332(3) -0.8694(2)
O4A O -0.6100(3) 0.7783(3) -0.9130(2)
O5A O -0.5889(3) 0.9364(3) -0.7853(2)
O6A O -0.6100(2) 0.9404(3) -0.8931(2)
O7A O -0.6995(3) 1.0374(4) -0.8710(3)
O8A O -0.6144(3) 1.1037(3) -0.9068(2)
O9A O -0.5033(2) 0.8558(3) -0.6779(2)
O10A O -0.6095(3) 0.9489(3) -0.6823(3)
O11A O -0.4994(2) 1.0311(3) -0.6857(2)
O12A O -0.5867(2) 1.1074(3) -0.7885(2)
O13A O -0.4913(3) 1.2131(4) -0.7994(3)
#END
