
#######################################################################
#
#                 Cambridge Crystallographic Data Centre
#                                CCDC
#
#######################################################################
#
# If this CIF has been generated from an entry in the Cambridge
# Structural Database, then it will include bibliographic, chemical,
# crystal, experimental, refinement or atomic coordinate data resulting
# from the CCDC's data processing and validation procedures.
#
#######################################################################

data_CSD_CIF_QOFDIA05
_audit_creation_date 2014-03-27
_audit_creation_method CSD-ConQuest-V1
_database_code_CSD QOFDIA05
_database_code_depnum_ccdc_archive 'CCDC 956854'
_chemical_formula_sum 'C72 H48 Ag4 Mo8 N24 O26'
_chemical_formula_moiety
;
(C36 H24 Ag2 N12 2+)2n,n(Mo8 O26 4-)
;
_journal_coden_Cambridge 222
_journal_volume 43
_journal_year 2014
_journal_page_first 7146
_journal_name_full 'Dalton Trans. '
loop_
_publ_author_name
"Lei Zhang"
"Xiaofei Kuang"
"Xiaoyuan Wu"
"Wenbin Yang"
"Canzhong Lu"
_chemical_name_systematic
;
catena-(bis(bis(\m~3~-2,4,6-tris(Pyridin-4-yl)-1,3,5-triazine)-di-silver) 
tetrakis(\m~3~-oxo)-octakis(\m~2~-oxo)-tetradecaoxo-octa-molybdenum)
;
_cell_volume   8413.047
_exptl_crystal_colour 'brown'
_exptl_crystal_density_diffrn 2.261
_exptl_crystal_description 'block-like'
_diffrn_ambient_temperature 340
#These two values have been output from a single CSD field.
_refine_ls_R_factor_gt 0.0432
_refine_ls_wR_factor_gt 0.0432
_symmetry_cell_setting monoclinic
_symmetry_space_group_name_H-M 'C 2/c'
_symmetry_Int_Tables_number 15
loop_
_symmetry_equiv_pos_site_id
_symmetry_equiv_pos_as_xyz
1 x,y,z
2 -x,y,1/2-z
3 1/2+x,1/2+y,z
4 1/2-x,1/2+y,1/2-z
5 -x,-y,-z
6 x,-y,-1/2+z
7 -1/2-x,-1/2-y,-z
8 -1/2+x,-1/2-y,-1/2+z
_cell_length_a 22.0101(9)
_cell_length_b 16.5266(5)
_cell_length_c 25.5684(11)
_cell_angle_alpha 90
_cell_angle_beta 115.234(5)
_cell_angle_gamma 90
_cell_formula_units_Z 4
loop_
_atom_type_symbol
_atom_type_radius_bond
C 0.68
H 0.23
Ag 1.45
Mo 1.54
N 0.68
O 0.68
loop_
_atom_site_label
_atom_site_type_symbol
_atom_site_fract_x
_atom_site_fract_y
_atom_site_fract_z
Ag1 Ag 0.34427(3) -0.04269(4) -0.63253(2)
Ag2 Ag 0.32249(3) 0.25433(4) -0.13309(2)
C1 C 0.5977(3) 0.4710(4) -0.0001(3)
C2 C 0.7773(3) 0.6381(4) 0.0087(3)
H1 H 0.79800 0.63480 0.04890
C3 C 0.2978(3) 0.0839(4) -0.4954(3)
H2 H 0.31990 0.08780 -0.45540
C4 C 0.1235(3) 0.2567(4) -0.4990(3)
C5 C 0.0597(3) 0.3016(4) -0.5312(3)
C6 C 0.5032(3) 0.3843(4) -0.0047(3)
H3 H 0.52260 0.38330 0.03550
C7 C 0.4441(3) 0.3442(4) -0.0361(3)
H4 H 0.42410 0.31640 -0.01590
C8 C 0.2097(3) 0.2262(4) -0.4133(3)
C9 C 0.0327(3) 0.3113(4) -0.5899(3)
H5 H 0.05420 0.29010 -0.61120
C10 C 0.6820(3) 0.5526(4) 0.0060(3)
C11 C 0.5334(3) 0.4262(4) -0.0341(3)
C12 C 0.2355(3) 0.0643(4) -0.6118(3)
H6 H 0.21380 0.05680 -0.65160
C13 C 0.7203(3) 0.6529(4) -0.1084(3)
H7 H 0.70040 0.65780 -0.14850
C14 C 0.2431(3) 0.2371(4) -0.3495(3)
C15 C 0.6790(4) 0.4563(5) 0.1804(3)
H8 H 0.63480 0.43910 0.16020
C16 C 0.6802(3) 0.5019(4) 0.0870(3)
C17 C 0.7149(3) 0.6012(4) -0.0232(3)
C18 C 0.2352(3) 0.1211(4) -0.5264(3)
C19 C 0.0259(3) 0.3351(5) -0.5012(3)
H9 H 0.04320 0.33070 -0.46120
C20 C 0.2038(3) 0.1100(4) -0.5858(3)
H10 H 0.16210 0.13310 -0.60770
C21 C 0.6864(3) 0.6100(4) -0.0821(3)
H11 H 0.64450 0.58750 -0.10440
C22 C 0.2050(3) 0.1720(4) -0.4959(3)
C23 C 0.7124(3) 0.4919(4) 0.1512(3)
C24 C -0.0267(3) 0.3530(5) -0.6166(3)
H12 H -0.04420 0.36020 -0.65640
C25 C 0.3254(3) 0.0413(4) -0.5266(3)
H13 H 0.36790 0.01900 -0.50640
C26 C 0.8076(4) 0.6802(4) -0.0215(3)
H14 H 0.84910 0.70450 -0.00050
C27 C -0.0331(4) 0.3748(5) -0.5319(3)
H15 H -0.05550 0.39700 -0.51160
C28 C 0.8068(4) 0.5052(5) 0.2419(3)
H16 H 0.85080 0.52240 0.26280
C29 C 0.5018(3) 0.4279(4) -0.0937(3)
H17 H 0.51920 0.45840 -0.11470
C30 C 0.4439(4) 0.3833(5) -0.1215(3)
H18 H 0.42470 0.38110 -0.16160
C31 C 0.2153(4) 0.2884(5) -0.3226(3)
H19 H 0.17670 0.31780 -0.34430
C32 C 0.2455(4) 0.2949(5) -0.2638(3)
H20 H 0.22660 0.32990 -0.24630
C33 C 0.7116(4) 0.4466(5) 0.2396(3)
H21 H 0.68860 0.42230 0.25870
C34 C 0.7781(4) 0.5167(5) 0.1826(3)
H22 H 0.80240 0.54030 0.16440
C35 C 0.3285(4) 0.2081(6) -0.2564(3)
H23 H 0.36800 0.18090 -0.23370
C36 C 0.3023(4) 0.1985(5) -0.3157(3)
H24 H 0.32410 0.16670 -0.33240
N1 N 0.2954(3) 0.0302(3) -0.5832(2)
N2 N -0.0606(3) 0.3836(3) -0.5889(2)
N3 N 0.3007(3) 0.2540(4) -0.2299(3)
N4 N 0.2379(3) 0.1772(3) -0.4379(2)
N5 N 0.1482(3) 0.2105(3) -0.5284(2)
N6 N 0.1527(3) 0.2669(3) -0.4417(2)
N7 N 0.4138(3) 0.3427(3) -0.0935(2)
N8 N 0.7757(3) 0.4712(4) 0.2709(2)
N9 N 0.7798(3) 0.6869(3) -0.0787(2)
N10 N 0.6230(3) 0.4628(3) 0.0579(2)
N11 N 0.7113(3) 0.5496(3) 0.0639(2)
N12 N 0.6261(2) 0.5122(3) -0.0276(2)
Mo1 Mo 0.50000 -0.03623(6) -0.75000
Mo2 Mo 0.49871(3) 0.08950(4) -0.63929(2)
Mo3 Mo 0.49084(3) 0.29098(4) -0.64311(2)
Mo4 Mo 0.50000 0.40696(7) -0.75000
Mo5 Mo 0.40817(3) 0.19305(3) -0.79058(2)
O1 O 0.5619(6) -0.0997(6) -0.7071(5)
O2 O 0.4662(3) 0.0143(3) -0.7061(2)
O3 O 0.5523(3) 0.0275(4) -0.5864(3)
O4 O 0.4271(3) 0.0821(4) -0.6307(2)
O5 O 0.5327(3) 0.1900(3) -0.6062(2)
O6 O 0.4488(3) 0.1857(3) -0.7142(2)
O7 O 0.4241(3) 0.1044(4) -0.8231(3)
O8 O 0.3237(3) 0.1977(3) -0.8164(3)
O9 O 0.5422(3) 0.3534(4) -0.5924(3)
O10 O 0.4217(3) 0.2874(4) -0.6299(3)
O11 O 0.4524(3) 0.3584(4) -0.7117(3)
O12 O 0.4343(3) 0.2816(3) -0.8163(3)
O13 O 0.5577(4) 0.4667(5) -0.7010(3)
Ag1B Ag -0.15573(3) 0.45731(4) -0.63253(2)
Ag1B* Ag 0.84427(3) 0.45731(4) 0.36747(2)
Ag2B Ag 0.82249(3) 0.75433(4) -0.13309(2)
N2B N 0.4394(3) -0.1164(3) -0.5889(2)
N8B N 0.2757(3) -0.0288(4) -0.7291(2)
N9B N 0.2798(3) 0.1869(3) -0.0787(2)
Mo2A Mo 0.50129(3) 0.08950(4) -0.86071(2)
Mo3A Mo 0.50916(3) 0.29098(4) -0.85689(2)
Mo5A Mo 0.59183(3) 0.19305(3) -0.70942(2)
O1A O 0.4381(6) -0.0997(6) -0.7929(5)
O2A O 0.5338(3) 0.0143(3) -0.7939(2)
O3A O 0.4477(3) 0.0275(4) -0.9136(3)
O4A O 0.5729(3) 0.0821(4) -0.8693(2)
O5A O 0.4673(3) 0.1900(3) -0.8938(2)
O6A O 0.5512(3) 0.1857(3) -0.7858(2)
O7A O 0.5759(3) 0.1044(4) -0.6769(3)
O8A O 0.6763(3) 0.1977(3) -0.6836(3)
O9A O 0.4578(3) 0.3534(4) -0.9076(3)
O10A O 0.5783(3) 0.2874(4) -0.8701(3)
O11A O 0.5476(3) 0.3584(4) -0.7883(3)
O12A O 0.5657(3) 0.2816(3) -0.6837(3)
O13A O 0.4423(4) 0.4667(5) -0.7990(3)
#END
