
#######################################################################
#
#                 Cambridge Crystallographic Data Centre
#                                CCDC
#
#######################################################################
#
# If this CIF has been generated from an entry in the Cambridge
# Structural Database, then it will include bibliographic, chemical,
# crystal, experimental, refinement or atomic coordinate data resulting
# from the CCDC's data processing and validation procedures.
#
#######################################################################

data_CSD_CIF_QOFNEH
_audit_creation_date 2019-03-07
_audit_creation_method CSD-ConQuest-V1
_database_code_CSD QOFNEH
_database_code_depnum_ccdc_archive 'CCDC 1824741'
_chemical_formula_sum 'C23 H26 Cl4 N1 O9 Yb1'
_chemical_formula_moiety
;
C8 H20 N1 1+,n(C12 Cl4 O8 Yb1 1-),C3 H6 O1
;
_journal_coden_Cambridge 1220
_journal_volume 25
_journal_year 2019
_journal_page_first 5222
_journal_name_full 'Chem.-Eur.J. '
loop_
_publ_author_name
"B.F.Abrahams"
"C.J.Kingsbury"
"J.E.Auckett"
"H.Chevreau"
"A.David Dharma"
"S.Duyker"
"Qilin He"
"Carol Hua"
"T.A.Hudson"
"K.S.Murray"
"W.Phonsri"
"V.K.Peterson"
"R.Robson"
"K.F.White"
_chemical_name_systematic
;
catena-[tetraethylammonium bis(\m-chloranilato)-gadolinium(iii) acetone 
solvate]
;
_cell_volume   2977.489
_exptl_crystal_colour 'dark purple'
_exptl_crystal_density_diffrn 1.73
_exptl_crystal_description 'square block'
_diffrn_ambient_temperature 280
_refine_special_details
;
The structure is disordered.  Disordered solvent molecules were not modelled 
and the disordered density was taken into account using the SQUEEZE/PLATON 
procedure.
;
#These two values have been output from a single CSD field.
_refine_ls_R_factor_gt 0.0287
_refine_ls_wR_factor_gt 0.0287
_symmetry_cell_setting tetragonal
_symmetry_space_group_name_H-M 'I 4/m c m'
_symmetry_Int_Tables_number 140
loop_
_symmetry_equiv_pos_site_id
_symmetry_equiv_pos_as_xyz
1 x,y,z
2 -x,-y,z
3 -y,x,z
4 y,-x,z
5 -x,y,1/2-z
6 x,-y,1/2-z
7 y,x,1/2-z
8 -y,-x,1/2-z
9 1/2+x,1/2+y,1/2+z
10 1/2-x,1/2-y,1/2+z
11 1/2-y,1/2+x,1/2+z
12 1/2+y,1/2-x,1/2+z
13 1/2-x,1/2+y,-z
14 1/2+x,1/2-y,-z
15 1/2+y,1/2+x,-z
16 1/2-y,1/2-x,-z
17 -x,-y,-z
18 x,y,-z
19 y,-x,-z
20 -y,x,-z
21 x,-y,-1/2+z
22 -x,y,-1/2+z
23 -y,-x,-1/2+z
24 y,x,-1/2+z
25 -1/2-x,-1/2-y,-1/2-z
26 -1/2+x,-1/2+y,-1/2-z
27 -1/2+y,-1/2-x,-1/2-z
28 -1/2-y,-1/2+x,-1/2-z
29 -1/2+x,-1/2-y,z
30 -1/2-x,-1/2+y,z
31 -1/2-y,-1/2-x,z
32 -1/2+y,-1/2+x,z
_cell_length_a 12.0529(4)
_cell_length_b 12.0529(4)
_cell_length_c 20.4959(12)
_cell_angle_alpha 90
_cell_angle_beta 90
_cell_angle_gamma 90
_cell_formula_units_Z 4
loop_
_atom_type_symbol
_atom_type_radius_bond
C 0.68
H 0.23
Cl 0.99
N 0.68
O 0.68
Yb 1.87
loop_
_atom_site_label
_atom_site_type_symbol
_atom_site_fract_x
_atom_site_fract_y
_atom_site_fract_z
Yb1 Yb 0.50000 0.50000 0.75000
O1 O 0.42002(16) 0.35510(16) 0.69225(9)
C1 C 0.2826(3) 0.2174(3) 0.6849(2)
C2 C 0.3396(2) 0.3034(2) 0.71545(14)
Cl1 Cl 0.32239(10) 0.17761(10) 0.60720(6)
N1 N 0.50000 0.50000 0.50000
C3 C 0.5260(8) 0.4027(7) 0.5443(4)
H1 H 0.58770 0.42300 0.57220
H2 H 0.46230 0.38930 0.57210
C4 C 0.5546(8) 0.2966(7) 0.510(2)
H3 H 0.49120 0.27110 0.48540
H4 H 0.57560 0.24130 0.54090
H5 H 0.61510 0.30950 0.48010
O1F O 0.35510(16) 0.42002(16) 0.80775(9)
C1F C 0.2174(3) 0.2826(3) 0.8151(2)
C2F C 0.3034(2) 0.3396(2) 0.78455(14)
Cl1F Cl 0.17761(10) 0.32239(10) 0.89280(6)
O1X O 0.07998(16) 0.14490(16) 0.80775(9)
C2X C 0.1604(2) 0.1966(2) 0.78455(14)
O1DA O 0.14490(16) 0.07998(16) 0.69225(9)
C2DA C 0.1966(2) 0.1604(2) 0.71545(14)
O1A O 0.57998(16) 0.64490(16) 0.69225(9)
C1A C 0.7174(3) 0.7826(3) 0.6849(2)
C2A C 0.6604(2) 0.6966(2) 0.71545(14)
Cl1A Cl 0.67761(10) 0.82239(10) 0.60720(6)
O1G O 0.64490(16) 0.57998(16) 0.80775(9)
C1G C 0.7826(3) 0.7174(3) 0.8151(2)
C2G C 0.6966(2) 0.6604(2) 0.78455(14)
Cl1G Cl 0.82239(10) 0.67761(10) 0.89280(6)
O1Y O 0.92002(16) 0.85510(16) 0.80775(9)
C2Y C 0.8396(2) 0.8034(2) 0.78455(14)
O1EA O 0.85510(16) 0.92002(16) 0.69225(9)
C2EA C 0.8034(2) 0.8396(2) 0.71545(14)
Yb1X Yb 0.00000 0.00000 0.75000
Yb1X* Yb 1.00000 1.00000 0.75000
O1B O 0.64490(16) 0.42002(16) 0.69225(9)
O1C O 0.35510(16) 0.57998(16) 0.69225(9)
O1D O 0.57998(16) 0.35510(16) 0.80775(9)
O1E O 0.42002(16) 0.64490(16) 0.80775(9)
C3A C 0.4740(8) 0.5973(7) 0.5443(4)
H1A H 0.41230 0.57700 0.57220
H2A H 0.53770 0.61070 0.57210
C4A C 0.4454(8) 0.7034(7) 0.510(2)
H3A H 0.50880 0.72890 0.48540
H4A H 0.42440 0.75870 0.54090
H5A H 0.38490 0.69050 0.48010
C3B C 0.5973(8) 0.5260(7) 0.5443(4)
H1B H 0.57700 0.58770 0.57220
H2B H 0.61070 0.46230 0.57210
C4B C 0.7034(8) 0.5546(7) 0.510(2)
H3B H 0.72890 0.49120 0.48540
H4B H 0.75870 0.57560 0.54090
H5B H 0.69050 0.61510 0.48010
C3C C 0.4027(8) 0.4740(7) 0.5443(4)
H1C H 0.42300 0.41230 0.57220
H2C H 0.38930 0.53770 0.57210
C4C C 0.2966(8) 0.4454(7) 0.510(2)
H3C H 0.27110 0.50880 0.48540
H4C H 0.24130 0.42440 0.54090
H5C H 0.30950 0.38490 0.48010
C3P C 0.4740(8) 0.5973(7) 0.4557(4)
H1P H 0.41230 0.57700 0.42780
H2P H 0.53770 0.61070 0.42790
C4P C 0.4454(8) 0.7034(7) 0.490(2)
H3P H 0.50880 0.72890 0.51460
H4P H 0.42440 0.75870 0.45910
H5P H 0.38490 0.69050 0.51990
C3Q C 0.5260(8) 0.4027(7) 0.4557(4)
H1Q H 0.58770 0.42300 0.42780
H2Q H 0.46230 0.38930 0.42790
C4Q C 0.5546(8) 0.2966(7) 0.490(2)
H3Q H 0.49120 0.27110 0.51460
H4Q H 0.57560 0.24130 0.45910
H5Q H 0.61510 0.30950 0.51990
C3R C 0.4027(8) 0.4740(7) 0.4557(4)
H1R H 0.42300 0.41230 0.42780
H2R H 0.38930 0.53770 0.42790
C4R C 0.2966(8) 0.4454(7) 0.490(2)
H3R H 0.27110 0.50880 0.51460
H4R H 0.24130 0.42440 0.45910
H5R H 0.30950 0.38490 0.51990
C3S C 0.5973(8) 0.5260(7) 0.4557(4)
H1S H 0.57700 0.58770 0.42780
H2S H 0.61070 0.46230 0.42790
C4S C 0.7034(8) 0.5546(7) 0.490(2)
H3S H 0.72890 0.49120 0.51460
H4S H 0.75870 0.57560 0.45910
H5S H 0.69050 0.61510 0.51990
#END
