
#######################################################################
#
#                 Cambridge Crystallographic Data Centre
#                                CCDC
#
#######################################################################
#
# If this CIF has been generated from an entry in the Cambridge
# Structural Database, then it will include bibliographic, chemical,
# crystal, experimental, refinement or atomic coordinate data resulting
# from the CCDC's data processing and validation procedures.
#
#######################################################################

data_CSD_CIF_QOFNIL
_audit_creation_date 2019-03-07
_audit_creation_method CSD-ConQuest-V1
_database_code_CSD QOFNIL
_database_code_depnum_ccdc_archive 'CCDC 1824742'
_chemical_formula_sum 'C24.5 H29 Cl4 In1 N1 O9.5'
_chemical_formula_moiety
;
C8 H20 N1 1+,n(C12 Cl4 In1 O8 1-),1.5(C3 H6 O1)
;
_journal_coden_Cambridge 1220
_journal_volume 25
_journal_year 2019
_journal_page_first 5222
_journal_name_full 'Chem.-Eur.J. '
loop_
_publ_author_name
"B.F.Abrahams"
"C.J.Kingsbury"
"J.E.Auckett"
"H.Chevreau"
"A.David Dharma"
"S.Duyker"
"Qilin He"
"Carol Hua"
"T.A.Hudson"
"K.S.Murray"
"W.Phonsri"
"V.K.Peterson"
"R.Robson"
"K.F.White"
_chemical_name_systematic
;
catena-[tetraethylammonium bis(\m-chloranilato)-indium(iii) acetone solvate]
;
_cell_volume   2899.503
_exptl_crystal_colour 'dark purple'
_exptl_crystal_density_diffrn 1.709
_exptl_crystal_description 'square block'
_diffrn_ambient_temperature 130.0
_refine_special_details
;
The structure is disordered.  Disordered solvent molecules were not modelled 
and the disordered density was taken into account using the SQUEEZE/PLATON 
procedure.
;
#These two values have been output from a single CSD field.
_refine_ls_R_factor_gt 0.0369
_refine_ls_wR_factor_gt 0.0369
_symmetry_cell_setting tetragonal
_symmetry_space_group_name_H-M 'I 4/m c m'
_symmetry_Int_Tables_number 140
loop_
_symmetry_equiv_pos_site_id
_symmetry_equiv_pos_as_xyz
1 x,y,z
2 -x,-y,z
3 -y,x,z
4 y,-x,z
5 -x,y,1/2-z
6 x,-y,1/2-z
7 y,x,1/2-z
8 -y,-x,1/2-z
9 1/2+x,1/2+y,1/2+z
10 1/2-x,1/2-y,1/2+z
11 1/2-y,1/2+x,1/2+z
12 1/2+y,1/2-x,1/2+z
13 1/2-x,1/2+y,-z
14 1/2+x,1/2-y,-z
15 1/2+y,1/2+x,-z
16 1/2-y,1/2-x,-z
17 -x,-y,-z
18 x,y,-z
19 y,-x,-z
20 -y,x,-z
21 x,-y,-1/2+z
22 -x,y,-1/2+z
23 -y,-x,-1/2+z
24 y,x,-1/2+z
25 -1/2-x,-1/2-y,-1/2-z
26 -1/2+x,-1/2+y,-1/2-z
27 -1/2+y,-1/2-x,-1/2-z
28 -1/2-y,-1/2+x,-1/2-z
29 -1/2+x,-1/2-y,z
30 -1/2-x,-1/2+y,z
31 -1/2-y,-1/2-x,z
32 -1/2+y,-1/2+x,z
_cell_length_a 11.8178(3)
_cell_length_b 11.8178(3)
_cell_length_c 20.7611(8)
_cell_angle_alpha 90
_cell_angle_beta 90
_cell_angle_gamma 90
_cell_formula_units_Z 4
loop_
_atom_type_symbol
_atom_type_radius_bond
C 0.68
H 0.23
Cl 0.99
In 1.42
N 0.68
O 0.68
loop_
_atom_site_label
_atom_site_type_symbol
_atom_site_fract_x
_atom_site_fract_y
_atom_site_fract_z
O1 O 0.57682(19) 0.64255(19) 0.30838(11)
In1 In 0.50000 0.50000 0.25000
C1 C 0.7184(3) 0.7816(3) 0.3150(2)
C2 C 0.6596(3) 0.6948(3) 0.28451(15)
Cl1 Cl 0.68157(10) 0.81843(10) 0.39323(6)
N1 N 0.50000 0.50000 0.50000
C3 C 0.4756(6) 0.5997(6) 0.4559(3)
H1 H 0.54140 0.61240 0.42890
H2 H 0.41320 0.57940 0.42770
C4 C 0.4465(7) 0.7089(6) 0.4892(10)
H3 H 0.43260 0.76650 0.45750
H4 H 0.50840 0.73150 0.51620
H5 H 0.37990 0.69850 0.51500
O1F O 0.64255(19) 0.57682(19) 0.19162(11)
C1F C 0.7816(3) 0.7184(3) 0.1850(2)
C2F C 0.6948(3) 0.6596(3) 0.21549(15)
Cl1F Cl 0.81843(10) 0.68157(10) 0.10677(6)
O1X O 0.92318(19) 0.85745(19) 0.19162(11)
C2X C 0.8404(3) 0.8052(3) 0.21549(15)
O1DA O 0.85745(19) 0.92318(19) 0.30838(11)
C2DA C 0.8052(3) 0.8404(3) 0.28451(15)
O1A O 0.42318(19) 0.35745(19) 0.30838(11)
C1A C 0.2816(3) 0.2184(3) 0.3150(2)
C2A C 0.3404(3) 0.3052(3) 0.28451(15)
Cl1A Cl 0.31843(10) 0.18157(10) 0.39323(6)
O1G O 0.35745(19) 0.42318(19) 0.19162(11)
C1G C 0.2184(3) 0.2816(3) 0.1850(2)
C2G C 0.3052(3) 0.3404(3) 0.21549(15)
Cl1G Cl 0.18157(10) 0.31843(10) 0.10677(6)
O1Y O 0.07682(19) 0.14255(19) 0.19162(11)
C2Y C 0.1596(3) 0.1948(3) 0.21549(15)
O1EA O 0.14255(19) 0.07682(19) 0.30838(11)
C2EA C 0.1948(3) 0.1596(3) 0.28451(15)
O1B O 0.35745(19) 0.57682(19) 0.30838(11)
O1C O 0.64255(19) 0.42318(19) 0.30838(11)
O1D O 0.42318(19) 0.64255(19) 0.19162(11)
O1E O 0.57682(19) 0.35745(19) 0.19162(11)
In1X In 0.00000 0.00000 0.25000
In1X* In 1.00000 1.00000 0.25000
C3A C 0.5244(6) 0.4003(6) 0.4559(3)
H1A H 0.45860 0.38760 0.42890
H2A H 0.58680 0.42060 0.42770
C4A C 0.5535(7) 0.2911(6) 0.4892(10)
H3A H 0.56740 0.23350 0.45750
H4A H 0.49160 0.26850 0.51620
H5A H 0.62010 0.30150 0.51500
C3B C 0.4003(6) 0.4756(6) 0.4559(3)
H1B H 0.38760 0.54140 0.42890
H2B H 0.42060 0.41320 0.42770
C4B C 0.2911(7) 0.4465(6) 0.4892(10)
H3B H 0.23350 0.43260 0.45750
H4B H 0.26850 0.50840 0.51620
H5B H 0.30150 0.37990 0.51500
C3C C 0.5997(6) 0.5244(6) 0.4559(3)
H1C H 0.61240 0.45860 0.42890
H2C H 0.57940 0.58680 0.42770
C4C C 0.7089(7) 0.5535(6) 0.4892(10)
H3C H 0.76650 0.56740 0.45750
H4C H 0.73150 0.49160 0.51620
H5C H 0.69850 0.62010 0.51500
C3P C 0.5244(6) 0.4003(6) 0.5441(3)
H1P H 0.45860 0.38760 0.57110
H2P H 0.58680 0.42060 0.57230
C4P C 0.5535(7) 0.2911(6) 0.5108(10)
H3P H 0.56740 0.23350 0.54250
H4P H 0.49160 0.26850 0.48380
H5P H 0.62010 0.30150 0.48500
C3Q C 0.4756(6) 0.5997(6) 0.5441(3)
H1Q H 0.54140 0.61240 0.57110
H2Q H 0.41320 0.57940 0.57230
C4Q C 0.4465(7) 0.7089(6) 0.5108(10)
H3Q H 0.43260 0.76650 0.54250
H4Q H 0.50840 0.73150 0.48380
H5Q H 0.37990 0.69850 0.48500
C3R C 0.5997(6) 0.5244(6) 0.5441(3)
H1R H 0.61240 0.45860 0.57110
H2R H 0.57940 0.58680 0.57230
C4R C 0.7089(7) 0.5535(6) 0.5108(10)
H3R H 0.76650 0.56740 0.54250
H4R H 0.73150 0.49160 0.48380
H5R H 0.69850 0.62010 0.48500
C3S C 0.4003(6) 0.4756(6) 0.5441(3)
H1S H 0.38760 0.54140 0.57110
H2S H 0.42060 0.41320 0.57230
C4S C 0.2911(7) 0.4465(6) 0.5108(10)
H3S H 0.23350 0.43260 0.54250
H4S H 0.26850 0.50840 0.48380
H5S H 0.30150 0.37990 0.48500
#END
