
#######################################################################
#
#                 Cambridge Crystallographic Data Centre
#                                CCDC
#
#######################################################################
#
# If this CIF has been generated from an entry in the Cambridge
# Structural Database, then it will include bibliographic, chemical,
# crystal, experimental, refinement or atomic coordinate data resulting
# from the CCDC's data processing and validation procedures.
#
#######################################################################

data_CSD_CIF_QOFNAD
_audit_creation_date 2019-03-07
_audit_creation_method CSD-ConQuest-V1
_database_code_CSD QOFNAD
_database_code_depnum_ccdc_archive 'CCDC 1824740'
_chemical_formula_sum 'C23 H26 Cl4 Gd1 N1 O9'
_chemical_formula_moiety
;
C8 H20 N1 1+,n(C12 Cl4 Gd1 O8 1-),C3 H6 O1
;
_journal_coden_Cambridge 1220
_journal_volume 25
_journal_year 2019
_journal_page_first 5222
_journal_name_full 'Chem.-Eur.J. '
loop_
_publ_author_name
"B.F.Abrahams"
"C.J.Kingsbury"
"J.E.Auckett"
"H.Chevreau"
"A.David Dharma"
"S.Duyker"
"Qilin He"
"Carol Hua"
"T.A.Hudson"
"K.S.Murray"
"W.Phonsri"
"V.K.Peterson"
"R.Robson"
"K.F.White"
_chemical_name_systematic
;
catena-[tetraethylammonium bis(\m-chloranilato)-gadolinium(iii) acetone 
solvate]
;
_cell_volume   3018.560
_exptl_crystal_colour 'dark purple'
_exptl_crystal_density_diffrn 1.671
_exptl_crystal_description 'square block'
_diffrn_ambient_temperature 130.0
_refine_special_details
;
The structure is disordered.  Disordered solvent molecules were not modelled 
and the disordered density was taken into account using the SQUEEZE/PLATON 
procedure.
;
#These two values have been output from a single CSD field.
_refine_ls_R_factor_gt 0.0298
_refine_ls_wR_factor_gt 0.0298
_symmetry_cell_setting tetragonal
_symmetry_space_group_name_H-M 'I 4/m c m'
_symmetry_Int_Tables_number 140
loop_
_symmetry_equiv_pos_site_id
_symmetry_equiv_pos_as_xyz
1 x,y,z
2 -x,-y,z
3 -y,x,z
4 y,-x,z
5 -x,y,1/2-z
6 x,-y,1/2-z
7 y,x,1/2-z
8 -y,-x,1/2-z
9 1/2+x,1/2+y,1/2+z
10 1/2-x,1/2-y,1/2+z
11 1/2-y,1/2+x,1/2+z
12 1/2+y,1/2-x,1/2+z
13 1/2-x,1/2+y,-z
14 1/2+x,1/2-y,-z
15 1/2+y,1/2+x,-z
16 1/2-y,1/2-x,-z
17 -x,-y,-z
18 x,y,-z
19 y,-x,-z
20 -y,x,-z
21 x,-y,-1/2+z
22 -x,y,-1/2+z
23 -y,-x,-1/2+z
24 y,x,-1/2+z
25 -1/2-x,-1/2-y,-1/2-z
26 -1/2+x,-1/2+y,-1/2-z
27 -1/2+y,-1/2-x,-1/2-z
28 -1/2-y,-1/2+x,-1/2-z
29 -1/2+x,-1/2-y,z
30 -1/2-x,-1/2+y,z
31 -1/2-y,-1/2-x,z
32 -1/2+y,-1/2+x,z
_cell_length_a 12.2523(2)
_cell_length_b 12.2523(2)
_cell_length_c 20.1078(6)
_cell_angle_alpha 90
_cell_angle_beta 90
_cell_angle_gamma 90
_cell_formula_units_Z 4
loop_
_atom_type_symbol
_atom_type_radius_bond
C 0.68
H 0.23
Cl 0.99
Gd 1.96
N 0.68
O 0.68
loop_
_atom_site_label
_atom_site_type_symbol
_atom_site_fract_x
_atom_site_fract_y
_atom_site_fract_z
Gd1 Gd 0.50000 0.50000 0.75000
O1 O 0.41835(16) 0.35243(17) 0.69104(10)
C1 C 0.2831(2) 0.2169(2) 0.68392(19)
C2 C 0.3383(2) 0.3022(2) 0.71497(13)
Cl1 Cl 0.32399(7) 0.17601(7) 0.60531(5)
C3 C 0.5565(6) 0.2996(6) 0.5104(13)
H1 H 0.49560 0.27510 0.48440
H2 H 0.57450 0.24530 0.54300
H3 H 0.61820 0.31150 0.48190
C4 C 0.5272(7) 0.4049(7) 0.5449(4)
H4 H 0.58780 0.42590 0.57320
H5 H 0.46500 0.39130 0.57360
N1 N 0.50000 0.50000 0.50000
O1F O 0.35243(16) 0.41835(17) 0.80896(10)
C1F C 0.2169(2) 0.2831(2) 0.81608(19)
C2F C 0.3022(2) 0.3383(2) 0.78503(13)
Cl1F Cl 0.17601(7) 0.32399(7) 0.89469(5)
O1X O 0.08165(16) 0.14757(17) 0.80896(10)
C2X C 0.1617(2) 0.1978(2) 0.78503(13)
O1DA O 0.14757(16) 0.08165(17) 0.69104(10)
C2DA C 0.1978(2) 0.1617(2) 0.71497(13)
O1A O 0.58165(16) 0.64757(17) 0.69104(10)
C1A C 0.7169(2) 0.7831(2) 0.68392(19)
C2A C 0.6617(2) 0.6978(2) 0.71497(13)
Cl1A Cl 0.67601(7) 0.82399(7) 0.60531(5)
O1G O 0.64757(16) 0.58165(17) 0.80896(10)
C1G C 0.7831(2) 0.7169(2) 0.81608(19)
C2G C 0.6978(2) 0.6617(2) 0.78503(13)
Cl1G Cl 0.82399(7) 0.67601(7) 0.89469(5)
O1Y O 0.91835(16) 0.85243(17) 0.80896(10)
C2Y C 0.8383(2) 0.8022(2) 0.78503(13)
O1EA O 0.85243(16) 0.91835(17) 0.69104(10)
C2EA C 0.8022(2) 0.8383(2) 0.71497(13)
Gd1X Gd 0.00000 0.00000 0.75000
Gd1X* Gd 1.00000 1.00000 0.75000
O1B O 0.64757(16) 0.41835(17) 0.69104(10)
O1C O 0.35243(16) 0.58165(17) 0.69104(10)
O1D O 0.58165(16) 0.35243(17) 0.80896(10)
O1E O 0.41835(16) 0.64757(17) 0.80896(10)
C3A C 0.4435(6) 0.7004(6) 0.5104(13)
H1A H 0.50440 0.72490 0.48440
H2A H 0.42550 0.75470 0.54300
H3A H 0.38180 0.68850 0.48190
C4A C 0.4728(7) 0.5951(7) 0.5449(4)
H4A H 0.41220 0.57410 0.57320
H5A H 0.53500 0.60870 0.57360
C3B C 0.7004(6) 0.5565(6) 0.5104(13)
H1B H 0.72490 0.49560 0.48440
H2B H 0.75470 0.57450 0.54300
H3B H 0.68850 0.61820 0.48190
C4B C 0.5951(7) 0.5272(7) 0.5449(4)
H4B H 0.57410 0.58780 0.57320
H5B H 0.60870 0.46500 0.57360
C3C C 0.2996(6) 0.4435(6) 0.5104(13)
H1C H 0.27510 0.50440 0.48440
H2C H 0.24530 0.42550 0.54300
H3C H 0.31150 0.38180 0.48190
C4C C 0.4049(7) 0.4728(7) 0.5449(4)
H4C H 0.42590 0.41220 0.57320
H5C H 0.39130 0.53500 0.57360
C3P C 0.4435(6) 0.7004(6) 0.4896(13)
H1P H 0.50440 0.72490 0.51560
H2P H 0.42550 0.75470 0.45700
H3P H 0.38180 0.68850 0.51810
C4P C 0.4728(7) 0.5951(7) 0.4551(4)
H4P H 0.41220 0.57410 0.42680
H5P H 0.53500 0.60870 0.42640
C3Q C 0.5565(6) 0.2996(6) 0.4896(13)
H1Q H 0.49560 0.27510 0.51560
H2Q H 0.57450 0.24530 0.45700
H3Q H 0.61820 0.31150 0.51810
C4Q C 0.5272(7) 0.4049(7) 0.4551(4)
H4Q H 0.58780 0.42590 0.42680
H5Q H 0.46500 0.39130 0.42640
C3R C 0.2996(6) 0.4435(6) 0.4896(13)
H1R H 0.27510 0.50440 0.51560
H2R H 0.24530 0.42550 0.45700
H3R H 0.31150 0.38180 0.51810
C4R C 0.4049(7) 0.4728(7) 0.4551(4)
H4R H 0.42590 0.41220 0.42680
H5R H 0.39130 0.53500 0.42640
C3S C 0.7004(6) 0.5565(6) 0.4896(13)
H1S H 0.72490 0.49560 0.51560
H2S H 0.75470 0.57450 0.45700
H3S H 0.68850 0.61820 0.51810
C4S C 0.5951(7) 0.5272(7) 0.4551(4)
H4S H 0.57410 0.58780 0.42680
H5S H 0.60870 0.46500 0.42640
#END
