
#######################################################################
#
#                 Cambridge Crystallographic Data Centre
#                                CCDC
#
#######################################################################
#
# If this CIF has been generated from an entry in the Cambridge
# Structural Database, then it will include bibliographic, chemical,
# crystal, experimental, refinement or atomic coordinate data resulting
# from the CCDC's data processing and validation procedures.
#
#######################################################################

data_CSD_CIF_QOFNUX
_audit_creation_date 2019-03-07
_audit_creation_method CSD-ConQuest-V1
_database_code_CSD QOFNUX
_database_code_depnum_ccdc_archive 'CCDC 1824744'
_chemical_formula_sum 'C23 H26 Cl4 N1 O9 Y1'
_chemical_formula_moiety
;
C8 H20 N1 1+,n(C12 Cl4 O8 Y1 1-),C3 H6 O1
;
_journal_coden_Cambridge 1220
_journal_volume 25
_journal_year 2019
_journal_page_first 5222
_journal_name_full 'Chem.-Eur.J. '
loop_
_publ_author_name
"B.F.Abrahams"
"C.J.Kingsbury"
"J.E.Auckett"
"H.Chevreau"
"A.David Dharma"
"S.Duyker"
"Qilin He"
"Carol Hua"
"T.A.Hudson"
"K.S.Murray"
"W.Phonsri"
"V.K.Peterson"
"R.Robson"
"K.F.White"
_chemical_name_systematic
;
catena-[tetraethylammonium bis(\m-chloranilato)-yttrium(iii) acetone solvate]
;
_cell_volume   2981.535
_exptl_crystal_colour 'dark purple'
_exptl_crystal_density_diffrn 1.54
_exptl_crystal_description 'square block'
_diffrn_ambient_temperature 130
_refine_special_details
;
The structure is disordered.  Disordered solvent molecules were not modelled 
and the disordered density was taken into account using the SQUEEZE/PLATON 
procedure.
;
#These two values have been output from a single CSD field.
_refine_ls_R_factor_gt 0.0221
_refine_ls_wR_factor_gt 0.0221
_symmetry_cell_setting tetragonal
_symmetry_space_group_name_H-M 'I 4/m c m'
_symmetry_Int_Tables_number 140
loop_
_symmetry_equiv_pos_site_id
_symmetry_equiv_pos_as_xyz
1 x,y,z
2 -x,-y,z
3 -y,x,z
4 y,-x,z
5 -x,y,1/2-z
6 x,-y,1/2-z
7 y,x,1/2-z
8 -y,-x,1/2-z
9 1/2+x,1/2+y,1/2+z
10 1/2-x,1/2-y,1/2+z
11 1/2-y,1/2+x,1/2+z
12 1/2+y,1/2-x,1/2+z
13 1/2-x,1/2+y,-z
14 1/2+x,1/2-y,-z
15 1/2+y,1/2+x,-z
16 1/2-y,1/2-x,-z
17 -x,-y,-z
18 x,y,-z
19 y,-x,-z
20 -y,x,-z
21 x,-y,-1/2+z
22 -x,y,-1/2+z
23 -y,-x,-1/2+z
24 y,x,-1/2+z
25 -1/2-x,-1/2-y,-1/2-z
26 -1/2+x,-1/2+y,-1/2-z
27 -1/2+y,-1/2-x,-1/2-z
28 -1/2-y,-1/2+x,-1/2-z
29 -1/2+x,-1/2-y,z
30 -1/2-x,-1/2+y,z
31 -1/2-y,-1/2-x,z
32 -1/2+y,-1/2+x,z
_cell_length_a 12.1320(2)
_cell_length_b 12.1320(2)
_cell_length_c 20.2570(4)
_cell_angle_alpha 90
_cell_angle_beta 90
_cell_angle_gamma 90
_cell_formula_units_Z 4
loop_
_atom_type_symbol
_atom_type_radius_bond
C 0.68
H 0.23
Cl 0.99
N 0.68
O 0.68
Y 1.90
loop_
_atom_site_label
_atom_site_type_symbol
_atom_site_fract_x
_atom_site_fract_y
_atom_site_fract_z
Y1 Y 0.50000 0.50000 0.75000
O1 O 0.41969(8) 0.35417(8) 0.69154(5)
C1 C 0.33917(12) 0.30271(12) 0.71513(6)
Cl1 Cl 0.32300(4) 0.17700(4) 0.60559(3)
C2 C 0.28299(13) 0.21701(13) 0.68401(10)
C3 C 0.4039(3) 0.4732(3) 0.54481(15)
H1 H 0.38970 0.53740 0.57370
H2 H 0.42480 0.41050 0.57350
C4 C 0.2974(3) 0.4439(3) 0.5086(10)
H3 H 0.27480 0.50600 0.48080
H4 H 0.23930 0.42810 0.54090
H5 H 0.30970 0.37880 0.48100
N1 N 0.50000 0.50000 0.50000
O1F O 0.35417(8) 0.41969(8) 0.80846(5)
C1F C 0.30271(12) 0.33917(12) 0.78487(6)
Cl1F Cl 0.17700(4) 0.32300(4) 0.89441(3)
C2F C 0.21701(13) 0.28299(13) 0.81599(10)
O1X O 0.08031(8) 0.14583(8) 0.80846(5)
C1X C 0.16083(12) 0.19729(12) 0.78487(6)
O1DA O 0.14583(8) 0.08031(8) 0.69154(5)
C1DA C 0.19729(12) 0.16083(12) 0.71513(6)
O1A O 0.58031(8) 0.64583(8) 0.69154(5)
C1A C 0.66083(12) 0.69729(12) 0.71513(6)
Cl1A Cl 0.67700(4) 0.82300(4) 0.60559(3)
C2A C 0.71701(13) 0.78299(13) 0.68401(10)
O1G O 0.64583(8) 0.58031(8) 0.80846(5)
C1G C 0.69729(12) 0.66083(12) 0.78487(6)
Cl1G Cl 0.82300(4) 0.67700(4) 0.89441(3)
C2G C 0.78299(13) 0.71701(13) 0.81599(10)
O1Y O 0.91969(8) 0.85417(8) 0.80846(5)
C1Y C 0.83917(12) 0.80271(12) 0.78487(6)
O1EA O 0.85417(8) 0.91969(8) 0.69154(5)
C1EA C 0.80271(12) 0.83917(12) 0.71513(6)
Y1X Y 0.00000 0.00000 0.75000
Y1X* Y 1.00000 1.00000 0.75000
O1B O 0.64583(8) 0.41969(8) 0.69154(5)
O1C O 0.35417(8) 0.58031(8) 0.69154(5)
O1D O 0.58031(8) 0.35417(8) 0.80846(5)
O1E O 0.41969(8) 0.64583(8) 0.80846(5)
C3A C 0.5961(3) 0.5268(3) 0.54481(15)
H1A H 0.61030 0.46260 0.57370
H2A H 0.57520 0.58950 0.57350
C4A C 0.7026(3) 0.5561(3) 0.5086(10)
H3A H 0.72520 0.49400 0.48080
H4A H 0.76070 0.57190 0.54090
H5A H 0.69030 0.62120 0.48100
C3B C 0.5268(3) 0.4039(3) 0.54481(15)
H1B H 0.46260 0.38970 0.57370
H2B H 0.58950 0.42480 0.57350
C4B C 0.5561(3) 0.2974(3) 0.5086(10)
H3B H 0.49400 0.27480 0.48080
H4B H 0.57190 0.23930 0.54090
H5B H 0.62120 0.30970 0.48100
C3C C 0.4732(3) 0.5961(3) 0.54481(15)
H1C H 0.53740 0.61030 0.57370
H2C H 0.41050 0.57520 0.57350
C4C C 0.4439(3) 0.7026(3) 0.5086(10)
H3C H 0.50600 0.72520 0.48080
H4C H 0.42810 0.76070 0.54090
H5C H 0.37880 0.69030 0.48100
C3P C 0.5961(3) 0.5268(3) 0.45519(15)
H1P H 0.61030 0.46260 0.42630
H2P H 0.57520 0.58950 0.42650
C4P C 0.7026(3) 0.5561(3) 0.4914(10)
H3P H 0.72520 0.49400 0.51920
H4P H 0.76070 0.57190 0.45910
H5P H 0.69030 0.62120 0.51900
C3Q C 0.4039(3) 0.4732(3) 0.45519(15)
H1Q H 0.38970 0.53740 0.42630
H2Q H 0.42480 0.41050 0.42650
C4Q C 0.2974(3) 0.4439(3) 0.4914(10)
H3Q H 0.27480 0.50600 0.51920
H4Q H 0.23930 0.42810 0.45910
H5Q H 0.30970 0.37880 0.51900
C3R C 0.4732(3) 0.5961(3) 0.45519(15)
H1R H 0.53740 0.61030 0.42630
H2R H 0.41050 0.57520 0.42650
C4R C 0.4439(3) 0.7026(3) 0.4914(10)
H3R H 0.50600 0.72520 0.51920
H4R H 0.42810 0.76070 0.45910
H5R H 0.37880 0.69030 0.51900
C3S C 0.5268(3) 0.4039(3) 0.45519(15)
H1S H 0.46260 0.38970 0.42630
H2S H 0.58950 0.42480 0.42650
C4S C 0.5561(3) 0.2974(3) 0.4914(10)
H3S H 0.49400 0.27480 0.51920
H4S H 0.57190 0.23930 0.45910
H5S H 0.62120 0.30970 0.51900
#END
