
#######################################################################
#
#                 Cambridge Crystallographic Data Centre
#                                CCDC
#
#######################################################################
#
# If this CIF has been generated from an entry in the Cambridge
# Structural Database, then it will include bibliographic, chemical,
# crystal, experimental, refinement or atomic coordinate data resulting
# from the CCDC's data processing and validation procedures.
#
#######################################################################

data_CSD_CIF_QOFPAF
_audit_creation_date 2019-03-07
_audit_creation_method CSD-ConQuest-V1
_database_code_CSD QOFPAF
_database_code_depnum_ccdc_archive 'CCDC 1824745'
_chemical_formula_sum 'C24.5 H29 Cl4 N1 O9.5 Tb1'
_chemical_formula_moiety
;
C8 H20 N1 1+,n(C12 Cl4 O8 Tb1 1-),1.5(C3 H6 O1)
;
_journal_coden_Cambridge 1220
_journal_volume 25
_journal_year 2019
_journal_page_first 5222
_journal_name_full 'Chem.-Eur.J. '
loop_
_publ_author_name
"B.F.Abrahams"
"C.J.Kingsbury"
"J.E.Auckett"
"H.Chevreau"
"A.David Dharma"
"S.Duyker"
"Qilin He"
"Carol Hua"
"T.A.Hudson"
"K.S.Murray"
"W.Phonsri"
"V.K.Peterson"
"R.Robson"
"K.F.White"
_chemical_name_systematic
;
catena-[tetraethylammonium bis(\m-chloranilato)-terbium(iii) acetone solvate]
;
_cell_volume   3015.576
_exptl_crystal_colour 'dark purple'
_exptl_crystal_density_diffrn 1.741
_exptl_crystal_description 'square block'
_diffrn_ambient_temperature 130
_refine_special_details
;
The structure is disordered.  Disordered solvent molecules were not modelled 
and the disordered density was taken into account using the SQUEEZE/PLATON 
procedure.
;
#These two values have been output from a single CSD field.
_refine_ls_R_factor_gt 0.0456
_refine_ls_wR_factor_gt 0.0456
_symmetry_cell_setting tetragonal
_symmetry_space_group_name_H-M 'I 4/m c m'
_symmetry_Int_Tables_number 140
loop_
_symmetry_equiv_pos_site_id
_symmetry_equiv_pos_as_xyz
1 x,y,z
2 -x,-y,z
3 -y,x,z
4 y,-x,z
5 -x,y,1/2-z
6 x,-y,1/2-z
7 y,x,1/2-z
8 -y,-x,1/2-z
9 1/2+x,1/2+y,1/2+z
10 1/2-x,1/2-y,1/2+z
11 1/2-y,1/2+x,1/2+z
12 1/2+y,1/2-x,1/2+z
13 1/2-x,1/2+y,-z
14 1/2+x,1/2-y,-z
15 1/2+y,1/2+x,-z
16 1/2-y,1/2-x,-z
17 -x,-y,-z
18 x,y,-z
19 y,-x,-z
20 -y,x,-z
21 x,-y,-1/2+z
22 -x,y,-1/2+z
23 -y,-x,-1/2+z
24 y,x,-1/2+z
25 -1/2-x,-1/2-y,-1/2-z
26 -1/2+x,-1/2+y,-1/2-z
27 -1/2+y,-1/2-x,-1/2-z
28 -1/2-y,-1/2+x,-1/2-z
29 -1/2+x,-1/2-y,z
30 -1/2-x,-1/2+y,z
31 -1/2-y,-1/2-x,z
32 -1/2+y,-1/2+x,z
_cell_length_a 12.2076(2)
_cell_length_b 12.2076(2)
_cell_length_c 20.2353(6)
_cell_angle_alpha 90
_cell_angle_beta 90
_cell_angle_gamma 90
_cell_formula_units_Z 4
loop_
_atom_type_symbol
_atom_type_radius_bond
C 0.68
H 0.23
Cl 0.99
N 0.68
O 0.68
Tb 1.94
loop_
_atom_site_label
_atom_site_type_symbol
_atom_site_fract_x
_atom_site_fract_y
_atom_site_fract_z
Tb1 Tb 0.50000 0.50000 0.75000
O1 O 0.41797(17) 0.35341(17) 0.69113(10)
C1 C 0.2822(3) 0.2178(3) 0.68366(19)
C2 C 0.3380(3) 0.3033(3) 0.71490(15)
Cl1 Cl 0.32006(8) 0.17994(8) 0.60468(5)
N1 N 0.50000 0.50000 0.50000
C3 C 0.5255(8) 0.4029(7) 0.5445(4)
H1 H 0.58630 0.42270 0.57290
H2 H 0.46260 0.38980 0.57260
C4 C 0.5535(7) 0.2986(6) 0.5101(15)
H3 H 0.49850 0.28260 0.47760
H4 H 0.55660 0.24000 0.54170
H5 H 0.62340 0.30590 0.48880
O1F O 0.35341(17) 0.41797(17) 0.80887(10)
C1F C 0.2178(3) 0.2822(3) 0.81634(19)
C2F C 0.3033(3) 0.3380(3) 0.78510(15)
Cl1F Cl 0.17994(8) 0.32006(8) 0.89532(5)
O1X O 0.08203(17) 0.14659(17) 0.80887(10)
C2X C 0.1620(3) 0.1967(3) 0.78510(15)
O1DA O 0.14659(17) 0.08203(17) 0.69113(10)
C2DA C 0.1967(3) 0.1620(3) 0.71490(15)
O1A O 0.58203(17) 0.64659(17) 0.69113(10)
C1A C 0.7178(3) 0.7822(3) 0.68366(19)
C2A C 0.6620(3) 0.6967(3) 0.71490(15)
Cl1A Cl 0.67994(8) 0.82006(8) 0.60468(5)
O1G O 0.64659(17) 0.58203(17) 0.80887(10)
C1G C 0.7822(3) 0.7178(3) 0.81634(19)
C2G C 0.6967(3) 0.6620(3) 0.78510(15)
Cl1G Cl 0.82006(8) 0.67994(8) 0.89532(5)
O1Y O 0.91797(17) 0.85341(17) 0.80887(10)
C2Y C 0.8380(3) 0.8033(3) 0.78510(15)
O1EA O 0.85341(17) 0.91797(17) 0.69113(10)
C2EA C 0.8033(3) 0.8380(3) 0.71490(15)
Tb1X Tb 0.00000 0.00000 0.75000
Tb1X* Tb 1.00000 1.00000 0.75000
O1B O 0.64659(17) 0.41797(17) 0.69113(10)
O1C O 0.35341(17) 0.58203(17) 0.69113(10)
O1D O 0.58203(17) 0.35341(17) 0.80887(10)
O1E O 0.41797(17) 0.64659(17) 0.80887(10)
C3A C 0.4745(8) 0.5971(7) 0.5445(4)
H1A H 0.41370 0.57730 0.57290
H2A H 0.53740 0.61020 0.57260
C4A C 0.4465(7) 0.7014(6) 0.5101(15)
H3A H 0.50150 0.71740 0.47760
H4A H 0.44340 0.76000 0.54170
H5A H 0.37660 0.69410 0.48880
C3B C 0.5971(8) 0.5255(7) 0.5445(4)
H1B H 0.57730 0.58630 0.57290
H2B H 0.61020 0.46260 0.57260
C4B C 0.7014(7) 0.5535(6) 0.5101(15)
H3B H 0.71740 0.49850 0.47760
H4B H 0.76000 0.55660 0.54170
H5B H 0.69410 0.62340 0.48880
C3C C 0.4029(8) 0.4745(7) 0.5445(4)
H1C H 0.42270 0.41370 0.57290
H2C H 0.38980 0.53740 0.57260
C4C C 0.2986(7) 0.4465(6) 0.5101(15)
H3C H 0.28260 0.50150 0.47760
H4C H 0.24000 0.44340 0.54170
H5C H 0.30590 0.37660 0.48880
C3P C 0.4745(8) 0.5971(7) 0.4555(4)
H1P H 0.41370 0.57730 0.42710
H2P H 0.53740 0.61020 0.42740
C4P C 0.4465(7) 0.7014(6) 0.4899(15)
H3P H 0.50150 0.71740 0.52240
H4P H 0.44340 0.76000 0.45830
H5P H 0.37660 0.69410 0.51120
C3Q C 0.5255(8) 0.4029(7) 0.4555(4)
H1Q H 0.58630 0.42270 0.42710
H2Q H 0.46260 0.38980 0.42740
C4Q C 0.5535(7) 0.2986(6) 0.4899(15)
H3Q H 0.49850 0.28260 0.52240
H4Q H 0.55660 0.24000 0.45830
H5Q H 0.62340 0.30590 0.51120
C3R C 0.4029(8) 0.4745(7) 0.4555(4)
H1R H 0.42270 0.41370 0.42710
H2R H 0.38980 0.53740 0.42740
C4R C 0.2986(7) 0.4465(6) 0.4899(15)
H3R H 0.28260 0.50150 0.52240
H4R H 0.24000 0.44340 0.45830
H5R H 0.30590 0.37660 0.51120
C3S C 0.5971(8) 0.5255(7) 0.4555(4)
H1S H 0.57730 0.58630 0.42710
H2S H 0.61020 0.46260 0.42740
C4S C 0.7014(7) 0.5535(6) 0.4899(15)
H3S H 0.71740 0.49850 0.52240
H4S H 0.76000 0.55660 0.45830
H5S H 0.69410 0.62340 0.51120
#END
