
#######################################################################
#
#                 Cambridge Crystallographic Data Centre
#                                CCDC
#
#######################################################################
#
# If this CIF has been generated from an entry in the Cambridge
# Structural Database, then it will include bibliographic, chemical,
# crystal, experimental, refinement or atomic coordinate data resulting
# from the CCDC's data processing and validation procedures.
#
#######################################################################

data_CSD_CIF_QOFPIN
_audit_creation_date 2019-03-07
_audit_creation_method CSD-ConQuest-V1
_database_code_CSD QOFPIN
_database_code_depnum_ccdc_archive 'CCDC 1824747'
_chemical_formula_sum 'C24.5 H29 Cl4 Ho1 N1 O9.5'
_chemical_formula_moiety
;
C8 H20 N1 1+,n(C12 Cl4 Ho1 O8 1-),1.5(C3 H6 O1)
;
_journal_coden_Cambridge 1220
_journal_volume 25
_journal_year 2019
_journal_page_first 5222
_journal_name_full 'Chem.-Eur.J. '
loop_
_publ_author_name
"B.F.Abrahams"
"C.J.Kingsbury"
"J.E.Auckett"
"H.Chevreau"
"A.David Dharma"
"S.Duyker"
"Qilin He"
"Carol Hua"
"T.A.Hudson"
"K.S.Murray"
"W.Phonsri"
"V.K.Peterson"
"R.Robson"
"K.F.White"
_chemical_name_systematic
;
catena-[tetraethylammonium bis(\m-chloranilato)-holmium(iii) acetone solvate]
;
_cell_volume   3055.799
_exptl_crystal_colour 'purple'
_exptl_crystal_density_diffrn 1.731
_exptl_crystal_description 'block'
_diffrn_ambient_temperature 130
_refine_special_details
;
The structure is disordered.  Disordered solvent molecules were not modelled 
and the disordered density was taken into account using the SQUEEZE/PLATON 
procedure.
;
#These two values have been output from a single CSD field.
_refine_ls_R_factor_gt 0.0295
_refine_ls_wR_factor_gt 0.0295
_symmetry_cell_setting tetragonal
_symmetry_space_group_name_H-M 'I 4/m c m'
_symmetry_Int_Tables_number 140
loop_
_symmetry_equiv_pos_site_id
_symmetry_equiv_pos_as_xyz
1 x,y,z
2 -x,-y,z
3 -y,x,z
4 y,-x,z
5 -x,y,1/2-z
6 x,-y,1/2-z
7 y,x,1/2-z
8 -y,-x,1/2-z
9 1/2+x,1/2+y,1/2+z
10 1/2-x,1/2-y,1/2+z
11 1/2-y,1/2+x,1/2+z
12 1/2+y,1/2-x,1/2+z
13 1/2-x,1/2+y,-z
14 1/2+x,1/2-y,-z
15 1/2+y,1/2+x,-z
16 1/2-y,1/2-x,-z
17 -x,-y,-z
18 x,y,-z
19 y,-x,-z
20 -y,x,-z
21 x,-y,-1/2+z
22 -x,y,-1/2+z
23 -y,-x,-1/2+z
24 y,x,-1/2+z
25 -1/2-x,-1/2-y,-1/2-z
26 -1/2+x,-1/2+y,-1/2-z
27 -1/2+y,-1/2-x,-1/2-z
28 -1/2-y,-1/2+x,-1/2-z
29 -1/2+x,-1/2-y,z
30 -1/2-x,-1/2+y,z
31 -1/2-y,-1/2-x,z
32 -1/2+y,-1/2+x,z
_cell_length_a 12.1589(2)
_cell_length_b 12.1589(2)
_cell_length_c 20.6698(5)
_cell_angle_alpha 90
_cell_angle_beta 90
_cell_angle_gamma 90
_cell_formula_units_Z 4
loop_
_atom_type_symbol
_atom_type_radius_bond
C 0.68
H 0.23
Cl 0.99
Ho 1.92
N 0.68
O 0.68
loop_
_atom_site_label
_atom_site_type_symbol
_atom_site_fract_x
_atom_site_fract_y
_atom_site_fract_z
Ho1 Ho 0.50000 0.50000 0.25000
O1 O 0.58461(14) 0.64225(14) 0.30861(8)
C1 C 0.7231(2) 0.7769(2) 0.31655(17)
C2 C 0.6641(2) 0.69460(19) 0.28506(11)
Cl1 Cl 0.69138(6) 0.80862(6) 0.39597(4)
N1 N 0.50000 0.50000 0.50000
C3 C 0.4794(5) 0.5977(5) 0.4559(3)
H1 H 0.54380 0.60830 0.42890
H2 H 0.41820 0.58030 0.42760
C4 C 0.4547(5) 0.7041(5) 0.4899(11)
H3 H 0.44450 0.76130 0.45850
H4 H 0.51490 0.72290 0.51790
H5 H 0.38890 0.69600 0.51520
O1F O 0.64225(14) 0.58461(14) 0.19139(8)
C1F C 0.7769(2) 0.7231(2) 0.18345(17)
C2F C 0.6946(2) 0.66410(19) 0.21494(11)
Cl1F Cl 0.80862(6) 0.69138(6) 0.10403(4)
O1X O 0.91539(14) 0.85775(14) 0.19139(8)
C2X C 0.8359(2) 0.80540(19) 0.21494(11)
O1DA O 0.85775(14) 0.91539(14) 0.30861(8)
C2DA C 0.8054(2) 0.83590(19) 0.28506(11)
O1A O 0.41539(14) 0.35775(14) 0.30861(8)
C1A C 0.2769(2) 0.2231(2) 0.31655(17)
C2A C 0.3359(2) 0.30540(19) 0.28506(11)
Cl1A Cl 0.30862(6) 0.19138(6) 0.39597(4)
O1G O 0.35775(14) 0.41539(14) 0.19139(8)
C1G C 0.2231(2) 0.2769(2) 0.18345(17)
C2G C 0.3054(2) 0.33590(19) 0.21494(11)
Cl1G Cl 0.19138(6) 0.30862(6) 0.10403(4)
O1Y O 0.08461(14) 0.14225(14) 0.19139(8)
C2Y C 0.1641(2) 0.19460(19) 0.21494(11)
O1EA O 0.14225(14) 0.08461(14) 0.30861(8)
C2EA C 0.1946(2) 0.16410(19) 0.28506(11)
Ho1X Ho 0.00000 0.00000 0.25000
Ho1X* Ho 1.00000 1.00000 0.25000
O1B O 0.35775(14) 0.58461(14) 0.30861(8)
O1C O 0.64225(14) 0.41539(14) 0.30861(8)
O1D O 0.41539(14) 0.64225(14) 0.19139(8)
O1E O 0.58461(14) 0.35775(14) 0.19139(8)
C3A C 0.5206(5) 0.4023(5) 0.4559(3)
H1A H 0.45620 0.39170 0.42890
H2A H 0.58180 0.41970 0.42760
C4A C 0.5453(5) 0.2959(5) 0.4899(11)
H3A H 0.55550 0.23870 0.45850
H4A H 0.48510 0.27710 0.51790
H5A H 0.61110 0.30400 0.51520
C3B C 0.4023(5) 0.4794(5) 0.4559(3)
H1B H 0.39170 0.54380 0.42890
H2B H 0.41970 0.41820 0.42760
C4B C 0.2959(5) 0.4547(5) 0.4899(11)
H3B H 0.23870 0.44450 0.45850
H4B H 0.27710 0.51490 0.51790
H5B H 0.30400 0.38890 0.51520
C3C C 0.5977(5) 0.5206(5) 0.4559(3)
H1C H 0.60830 0.45620 0.42890
H2C H 0.58030 0.58180 0.42760
C4C C 0.7041(5) 0.5453(5) 0.4899(11)
H3C H 0.76130 0.55550 0.45850
H4C H 0.72290 0.48510 0.51790
H5C H 0.69600 0.61110 0.51520
C3P C 0.5206(5) 0.4023(5) 0.5441(3)
H1P H 0.45620 0.39170 0.57110
H2P H 0.58180 0.41970 0.57240
C4P C 0.5453(5) 0.2959(5) 0.5101(11)
H3P H 0.55550 0.23870 0.54150
H4P H 0.48510 0.27710 0.48210
H5P H 0.61110 0.30400 0.48480
C3Q C 0.4794(5) 0.5977(5) 0.5441(3)
H1Q H 0.54380 0.60830 0.57110
H2Q H 0.41820 0.58030 0.57240
C4Q C 0.4547(5) 0.7041(5) 0.5101(11)
H3Q H 0.44450 0.76130 0.54150
H4Q H 0.51490 0.72290 0.48210
H5Q H 0.38890 0.69600 0.48480
C3R C 0.5977(5) 0.5206(5) 0.5441(3)
H1R H 0.60830 0.45620 0.57110
H2R H 0.58030 0.58180 0.57240
C4R C 0.7041(5) 0.5453(5) 0.5101(11)
H3R H 0.76130 0.55550 0.54150
H4R H 0.72290 0.48510 0.48210
H5R H 0.69600 0.61110 0.48480
C3S C 0.4023(5) 0.4794(5) 0.5441(3)
H1S H 0.39170 0.54380 0.57110
H2S H 0.41970 0.41820 0.57240
C4S C 0.2959(5) 0.4547(5) 0.5101(11)
H3S H 0.23870 0.44450 0.54150
H4S H 0.27710 0.51490 0.48210
H5S H 0.30400 0.38890 0.48480
#END
