
#######################################################################
#
#                 Cambridge Crystallographic Data Centre
#                                CCDC
#
#######################################################################
#
# If this CIF has been generated from an entry in the Cambridge
# Structural Database, then it will include bibliographic, chemical,
# crystal, experimental, refinement or atomic coordinate data resulting
# from the CCDC's data processing and validation procedures.
#
#######################################################################

data_CSD_CIF_QOFPEJ
_audit_creation_date 2019-03-07
_audit_creation_method CSD-ConQuest-V1
_database_code_CSD QOFPEJ
_database_code_depnum_ccdc_archive 'CCDC 1824746'
_chemical_formula_sum 'C24.5 H29 Cl4 Lu1 N1 O9.5'
_chemical_formula_moiety
;
C8 H20 N1 1+,n(C12 Cl4 Lu1 O8 1-),1.5(C3 H6 O1)
;
_journal_coden_Cambridge 1220
_journal_volume 25
_journal_year 2019
_journal_page_first 5222
_journal_name_full 'Chem.-Eur.J. '
loop_
_publ_author_name
"B.F.Abrahams"
"C.J.Kingsbury"
"J.E.Auckett"
"H.Chevreau"
"A.David Dharma"
"S.Duyker"
"Qilin He"
"Carol Hua"
"T.A.Hudson"
"K.S.Murray"
"W.Phonsri"
"V.K.Peterson"
"R.Robson"
"K.F.White"
_chemical_name_systematic
;
catena-[tetraethylammonium bis(\m-chloranilato)-lutetium(iii) acetone solvate]
;
_cell_volume   2966.565
_exptl_crystal_colour 'dark purple'
_exptl_crystal_density_diffrn 1.805
_exptl_crystal_description 'square block'
_diffrn_ambient_temperature 130.0
_refine_special_details
;
The structure is disordered.  Disordered solvent molecules were not modelled 
and the disordered density was taken into account using the SQUEEZE/PLATON 
procedure.
;
#These two values have been output from a single CSD field.
_refine_ls_R_factor_gt 0.0291
_refine_ls_wR_factor_gt 0.0291
_symmetry_cell_setting tetragonal
_symmetry_space_group_name_H-M 'I 4/m c m'
_symmetry_Int_Tables_number 140
loop_
_symmetry_equiv_pos_site_id
_symmetry_equiv_pos_as_xyz
1 x,y,z
2 -x,-y,z
3 -y,x,z
4 y,-x,z
5 -x,y,1/2-z
6 x,-y,1/2-z
7 y,x,1/2-z
8 -y,-x,1/2-z
9 1/2+x,1/2+y,1/2+z
10 1/2-x,1/2-y,1/2+z
11 1/2-y,1/2+x,1/2+z
12 1/2+y,1/2-x,1/2+z
13 1/2-x,1/2+y,-z
14 1/2+x,1/2-y,-z
15 1/2+y,1/2+x,-z
16 1/2-y,1/2-x,-z
17 -x,-y,-z
18 x,y,-z
19 y,-x,-z
20 -y,x,-z
21 x,-y,-1/2+z
22 -x,y,-1/2+z
23 -y,-x,-1/2+z
24 y,x,-1/2+z
25 -1/2-x,-1/2-y,-1/2-z
26 -1/2+x,-1/2+y,-1/2-z
27 -1/2+y,-1/2-x,-1/2-z
28 -1/2-y,-1/2+x,-1/2-z
29 -1/2+x,-1/2-y,z
30 -1/2-x,-1/2+y,z
31 -1/2-y,-1/2-x,z
32 -1/2+y,-1/2+x,z
_cell_length_a 12.0218(3)
_cell_length_b 12.0218(3)
_cell_length_c 20.5265(9)
_cell_angle_alpha 90
_cell_angle_beta 90
_cell_angle_gamma 90
_cell_formula_units_Z 4
loop_
_atom_type_symbol
_atom_type_radius_bond
C 0.68
H 0.23
Cl 0.99
Lu 1.87
N 0.68
O 0.68
loop_
_atom_site_label
_atom_site_type_symbol
_atom_site_fract_x
_atom_site_fract_y
_atom_site_fract_z
Lu1 Lu 0.50000 0.50000 0.75000
O1 O 0.64336(19) 0.58047(19) 0.69182(12)
C1 C 0.7800(3) 0.7200(3) 0.6841(3)
C2 C 0.6957(3) 0.6616(3) 0.71490(17)
Cl1 Cl 0.81516(10) 0.68484(10) 0.60497(7)
C3 C 0.7051(6) 0.4491(7) 0.5118(7)
H1 H 0.76120 0.43390 0.54380
H2 H 0.72770 0.51130 0.48560
H3 H 0.69520 0.38500 0.48450
C4 C 0.5987(7) 0.4757(7) 0.5448(4)
H4 H 0.61050 0.53990 0.57260
H5 H 0.57910 0.41370 0.57280
N1 N 0.50000 0.50000 0.50000
O1F O 0.58047(19) 0.64336(19) 0.80818(12)
C1F C 0.7200(3) 0.7800(3) 0.8159(3)
C2F C 0.6616(3) 0.6957(3) 0.78510(17)
Cl1F Cl 0.68484(10) 0.81516(10) 0.89503(7)
O1X O 0.85664(19) 0.91953(19) 0.80818(12)
C2X C 0.8043(3) 0.8384(3) 0.78510(17)
O1DA O 0.91953(19) 0.85664(19) 0.69182(12)
C2DA C 0.8384(3) 0.8043(3) 0.71490(17)
O1A O 0.35664(19) 0.41953(19) 0.69182(12)
C1A C 0.2200(3) 0.2800(3) 0.6841(3)
C2A C 0.3043(3) 0.3384(3) 0.71490(17)
Cl1A Cl 0.18484(10) 0.31516(10) 0.60497(7)
O1G O 0.41953(19) 0.35664(19) 0.80818(12)
C1G C 0.2800(3) 0.2200(3) 0.8159(3)
C2G C 0.3384(3) 0.3043(3) 0.78510(17)
Cl1G Cl 0.31516(10) 0.18484(10) 0.89503(7)
O1Y O 0.14336(19) 0.08047(19) 0.80818(12)
C2Y C 0.1957(3) 0.1616(3) 0.78510(17)
O1EA O 0.08047(19) 0.14336(19) 0.69182(12)
C2EA C 0.1616(3) 0.1957(3) 0.71490(17)
Lu1X Lu 0.00000 0.00000 0.75000
Lu1X* Lu 1.00000 1.00000 0.75000
O1B O 0.41953(19) 0.64336(19) 0.69182(12)
O1C O 0.58047(19) 0.35664(19) 0.69182(12)
O1D O 0.35664(19) 0.58047(19) 0.80818(12)
O1E O 0.64336(19) 0.41953(19) 0.80818(12)
C3A C 0.2949(6) 0.5509(7) 0.5118(7)
H1A H 0.23880 0.56610 0.54380
H2A H 0.27230 0.48870 0.48560
H3A H 0.30480 0.61500 0.48450
C4A C 0.4013(7) 0.5243(7) 0.5448(4)
H4A H 0.38950 0.46010 0.57260
H5A H 0.42090 0.58630 0.57280
C3B C 0.5509(6) 0.7051(7) 0.5118(7)
H1B H 0.56610 0.76120 0.54380
H2B H 0.48870 0.72770 0.48560
H3B H 0.61500 0.69520 0.48450
C4B C 0.5243(7) 0.5987(7) 0.5448(4)
H4B H 0.46010 0.61050 0.57260
H5B H 0.58630 0.57910 0.57280
C3C C 0.4491(6) 0.2949(7) 0.5118(7)
H1C H 0.43390 0.23880 0.54380
H2C H 0.51130 0.27230 0.48560
H3C H 0.38500 0.30480 0.48450
C4C C 0.4757(7) 0.4013(7) 0.5448(4)
H4C H 0.53990 0.38950 0.57260
H5C H 0.41370 0.42090 0.57280
C3P C 0.2949(6) 0.5509(7) 0.4882(7)
H1P H 0.23880 0.56610 0.45620
H2P H 0.27230 0.48870 0.51440
H3P H 0.30480 0.61500 0.51550
C4P C 0.4013(7) 0.5243(7) 0.4552(4)
H4P H 0.38950 0.46010 0.42740
H5P H 0.42090 0.58630 0.42720
C3Q C 0.7051(6) 0.4491(7) 0.4882(7)
H1Q H 0.76120 0.43390 0.45620
H2Q H 0.72770 0.51130 0.51440
H3Q H 0.69520 0.38500 0.51550
C4Q C 0.5987(7) 0.4757(7) 0.4552(4)
H4Q H 0.61050 0.53990 0.42740
H5Q H 0.57910 0.41370 0.42720
C3R C 0.4491(6) 0.2949(7) 0.4882(7)
H1R H 0.43390 0.23880 0.45620
H2R H 0.51130 0.27230 0.51440
H3R H 0.38500 0.30480 0.51550
C4R C 0.4757(7) 0.4013(7) 0.4552(4)
H4R H 0.53990 0.38950 0.42740
H5R H 0.41370 0.42090 0.42720
C3S C 0.5509(6) 0.7051(7) 0.4882(7)
H1S H 0.56610 0.76120 0.45620
H2S H 0.48870 0.72770 0.51440
H3S H 0.61500 0.69520 0.51550
C4S C 0.5243(7) 0.5987(7) 0.4552(4)
H4S H 0.46010 0.61050 0.42740
H5S H 0.58630 0.57910 0.42720
#END
