
#######################################################################
#
#                 Cambridge Crystallographic Data Centre
#                                CCDC
#
#######################################################################
#
# If this CIF has been generated from an entry in the Cambridge
# Structural Database, then it will include bibliographic, chemical,
# crystal, experimental, refinement or atomic coordinate data resulting
# from the CCDC's data processing and validation procedures.
#
#######################################################################

data_CSD_CIF_QOFPUZ
_audit_creation_date 2019-03-07
_audit_creation_method CSD-ConQuest-V1
_database_code_CSD QOFPUZ
_database_code_depnum_ccdc_archive 'CCDC 1824749'
_chemical_formula_sum 'C24.5 H29 Bi1 Br4 N1 O9.5'
_chemical_formula_moiety
;
C8 H20 N1 1+,n(C12 Bi1 Br4 O8 1-),1.5(C3 H6 O1)
;
_journal_coden_Cambridge 1220
_journal_volume 25
_journal_year 2019
_journal_page_first 5222
_journal_name_full 'Chem.-Eur.J. '
loop_
_publ_author_name
"B.F.Abrahams"
"C.J.Kingsbury"
"J.E.Auckett"
"H.Chevreau"
"A.David Dharma"
"S.Duyker"
"Qilin He"
"Carol Hua"
"T.A.Hudson"
"K.S.Murray"
"W.Phonsri"
"V.K.Peterson"
"R.Robson"
"K.F.White"
_chemical_name_systematic
;
catena-[tetraethylammonium bis(\m-bromanilato)-bismuth(iii) acetone solvate]
;
_cell_volume   3219.511
_exptl_crystal_colour 'dark red'
_exptl_crystal_density_diffrn 2.1
_exptl_crystal_description 'square plate'
_diffrn_ambient_temperature 130
_refine_special_details
;
The structure is disordered.  Disordered solvent molecules were not modelled 
and the disordered density was taken into account using the SQUEEZE/PLATON 
procedure.
;
#These two values have been output from a single CSD field.
_refine_ls_R_factor_gt 0.0215
_refine_ls_wR_factor_gt 0.0215
_symmetry_cell_setting tetragonal
_symmetry_space_group_name_H-M 'I 4/m c m'
_symmetry_Int_Tables_number 140
loop_
_symmetry_equiv_pos_site_id
_symmetry_equiv_pos_as_xyz
1 x,y,z
2 -x,-y,z
3 -y,x,z
4 y,-x,z
5 -x,y,1/2-z
6 x,-y,1/2-z
7 y,x,1/2-z
8 -y,-x,1/2-z
9 1/2+x,1/2+y,1/2+z
10 1/2-x,1/2-y,1/2+z
11 1/2-y,1/2+x,1/2+z
12 1/2+y,1/2-x,1/2+z
13 1/2-x,1/2+y,-z
14 1/2+x,1/2-y,-z
15 1/2+y,1/2+x,-z
16 1/2-y,1/2-x,-z
17 -x,-y,-z
18 x,y,-z
19 y,-x,-z
20 -y,x,-z
21 x,-y,-1/2+z
22 -x,y,-1/2+z
23 -y,-x,-1/2+z
24 y,x,-1/2+z
25 -1/2-x,-1/2-y,-1/2-z
26 -1/2+x,-1/2+y,-1/2-z
27 -1/2+y,-1/2-x,-1/2-z
28 -1/2-y,-1/2+x,-1/2-z
29 -1/2+x,-1/2-y,z
30 -1/2-x,-1/2+y,z
31 -1/2-y,-1/2-x,z
32 -1/2+y,-1/2+x,z
_cell_length_a 12.4380(2)
_cell_length_b 12.4380(2)
_cell_length_c 20.8108(4)
_cell_angle_alpha 90
_cell_angle_beta 90
_cell_angle_gamma 90
_cell_formula_units_Z 4
loop_
_atom_type_symbol
_atom_type_radius_bond
C 0.68
H 0.23
Bi 1.48
Br 1.21
N 0.68
O 0.68
loop_
_atom_site_label
_atom_site_type_symbol
_atom_site_fract_x
_atom_site_fract_y
_atom_site_fract_z
Bi1 Bi 0.50000 0.50000 0.25000
O1 O 0.64258(17) 0.59074(17) 0.31012(10)
C1 C 0.7747(3) 0.7253(3) 0.31604(19)
C2 C 0.6945(2) 0.6659(2) 0.28499(13)
Br1 Br 0.80745(3) 0.69255(3) 0.40185(2)
N1 N 0.50000 0.50000 0.50000
C3 C 0.5955(5) 0.4793(5) 0.4559(3)
H1 H 0.57900 0.41830 0.42860
H2 H 0.60500 0.54140 0.42820
C4 C 0.7008(5) 0.4574(5) 0.4904(9)
H3 H 0.69260 0.39580 0.51780
H4 H 0.72010 0.51880 0.51580
H5 H 0.75620 0.44360 0.45930
O1F O 0.59074(17) 0.64258(17) 0.18988(10)
C1F C 0.7253(3) 0.7747(3) 0.18396(19)
C2F C 0.6659(2) 0.6945(2) 0.21501(13)
Br1F Br 0.69255(3) 0.80745(3) 0.09815(2)
O1X O 0.85742(17) 0.90926(17) 0.18988(10)
C2X C 0.8055(2) 0.8341(2) 0.21501(13)
O1DA O 0.90926(17) 0.85742(17) 0.31012(10)
C2DA C 0.8341(2) 0.8055(2) 0.28499(13)
O1A O 0.35742(17) 0.40926(17) 0.31012(10)
C1A C 0.2253(3) 0.2747(3) 0.31604(19)
C2A C 0.3055(2) 0.3341(2) 0.28499(13)
Br1A Br 0.19255(3) 0.30745(3) 0.40185(2)
O1G O 0.40926(17) 0.35742(17) 0.18988(10)
C1G C 0.2747(3) 0.2253(3) 0.18396(19)
C2G C 0.3341(2) 0.3055(2) 0.21501(13)
Br1G Br 0.30745(3) 0.19255(3) 0.09815(2)
O1Y O 0.14258(17) 0.09074(17) 0.18988(10)
C2Y C 0.1945(2) 0.1659(2) 0.21501(13)
O1EA O 0.09074(17) 0.14258(17) 0.31012(10)
C2EA C 0.1659(2) 0.1945(2) 0.28499(13)
Bi1X Bi 0.00000 0.00000 0.25000
Bi1X* Bi 1.00000 1.00000 0.25000
O1B O 0.40926(17) 0.64258(17) 0.31012(10)
O1C O 0.59074(17) 0.35742(17) 0.31012(10)
O1D O 0.35742(17) 0.59074(17) 0.18988(10)
O1E O 0.64258(17) 0.40926(17) 0.18988(10)
C3A C 0.4045(5) 0.5207(5) 0.4559(3)
H1A H 0.42100 0.58170 0.42860
H2A H 0.39500 0.45860 0.42820
C4A C 0.2992(5) 0.5426(5) 0.4904(9)
H3A H 0.30740 0.60420 0.51780
H4A H 0.27990 0.48120 0.51580
H5A H 0.24380 0.55640 0.45930
C3B C 0.5207(5) 0.5955(5) 0.4559(3)
H1B H 0.58170 0.57900 0.42860
H2B H 0.45860 0.60500 0.42820
C4B C 0.5426(5) 0.7008(5) 0.4904(9)
H3B H 0.60420 0.69260 0.51780
H4B H 0.48120 0.72010 0.51580
H5B H 0.55640 0.75620 0.45930
C3C C 0.4793(5) 0.4045(5) 0.4559(3)
H1C H 0.41830 0.42100 0.42860
H2C H 0.54140 0.39500 0.42820
C4C C 0.4574(5) 0.2992(5) 0.4904(9)
H3C H 0.39580 0.30740 0.51780
H4C H 0.51880 0.27990 0.51580
H5C H 0.44360 0.24380 0.45930
C3P C 0.4045(5) 0.5207(5) 0.5441(3)
H1P H 0.42100 0.58170 0.57140
H2P H 0.39500 0.45860 0.57180
C4P C 0.2992(5) 0.5426(5) 0.5096(9)
H3P H 0.30740 0.60420 0.48220
H4P H 0.27990 0.48120 0.48420
H5P H 0.24380 0.55640 0.54070
C3Q C 0.5955(5) 0.4793(5) 0.5441(3)
H1Q H 0.57900 0.41830 0.57140
H2Q H 0.60500 0.54140 0.57180
C4Q C 0.7008(5) 0.4574(5) 0.5096(9)
H3Q H 0.69260 0.39580 0.48220
H4Q H 0.72010 0.51880 0.48420
H5Q H 0.75620 0.44360 0.54070
C3R C 0.4793(5) 0.4045(5) 0.5441(3)
H1R H 0.41830 0.42100 0.57140
H2R H 0.54140 0.39500 0.57180
C4R C 0.4574(5) 0.2992(5) 0.5096(9)
H3R H 0.39580 0.30740 0.48220
H4R H 0.51880 0.27990 0.48420
H5R H 0.44360 0.24380 0.54070
C3S C 0.5207(5) 0.5955(5) 0.5441(3)
H1S H 0.58170 0.57900 0.57140
H2S H 0.45860 0.60500 0.57180
C4S C 0.5426(5) 0.7008(5) 0.5096(9)
H3S H 0.60420 0.69260 0.48220
H4S H 0.48120 0.72010 0.48420
H5S H 0.55640 0.75620 0.54070
#END
