
#######################################################################
#
#                 Cambridge Crystallographic Data Centre
#                                CCDC
#
#######################################################################
#
# If this CIF has been generated from an entry in the Cambridge
# Structural Database, then it will include bibliographic, chemical,
# crystal, experimental, refinement or atomic coordinate data resulting
# from the CCDC's data processing and validation procedures.
#
#######################################################################

data_CSD_CIF_QOFYIT
_audit_creation_date 2001-07-31
_audit_creation_method CSD-ConQuest-V1
_database_code_CSD QOFYIT
_database_code_depnum_ccdc_archive 'CCDC 151890'
_chemical_formula_sum 'C16 H51 N4 O24 P5 Zn4'
_chemical_formula_moiety
;
(C2 H8 O22 P5 Zn4 3-)n,4n(C3 H10 N1 1+),n(C2 H3 O2 1-)
;
_journal_coden_Cambridge 440
_journal_volume 25
_journal_year 2001
_journal_page_first 213
_journal_name_full 'New J.Chem. '
loop_
_publ_author_name
"A.A.Ayi"
"A.Choudhury"
"S.Natarajan"
"C.N.R.Rao"
_chemical_name_systematic
;
catena-(tetrakis(propylammonium) acetate 
(\m~4~-phosphato)-tris(\m~2~-hydrogen phosphato)-(\m~2~-dihydrogen 
phosphateo)-(acetato)-tetra-zinc)
;
_cell_volume   2096.805
_exptl_crystal_density_diffrn 1.742
_diffrn_ambient_temperature ?
_diffrn_special_details
;
The study was carried out at room temperature,in the range 283-303K

;
#These two values have been output from a single CSD field.
_refine_ls_R_factor_gt 0.0661
_refine_ls_wR_factor_gt 0.0661
_symmetry_cell_setting triclinic
_symmetry_space_group_name_H-M 'P -1'
_symmetry_Int_Tables_number 2
loop_
_symmetry_equiv_pos_site_id
_symmetry_equiv_pos_as_xyz
1 x,y,z
2 -x,-y,-z
_cell_length_a 12.1830(6)
_cell_length_b 12.9550(6)
_cell_length_c 14.3375(7)
_cell_angle_alpha 85.988(1)
_cell_angle_beta 89.019(1)
_cell_angle_gamma 68.267(1)
_cell_formula_units_Z 2
loop_
_atom_type_symbol
_atom_type_radius_bond
C 0.68
H 0.23
N 0.68
O 0.68
P 1.05
Zn 1.45
loop_
_atom_site_label
_atom_site_type_symbol
_atom_site_fract_x
_atom_site_fract_y
_atom_site_fract_z
Zn1 Zn 0.51751(8) 0.33192(8) 0.04936(7)
Zn2 Zn 0.74754(8) -0.11319(8) -0.08951(8)
Zn3 Zn 0.10973(8) 0.73782(8) -0.04059(8)
Zn4 Zn 0.12354(9) 0.49246(8) -0.18006(8)
P1 P 0.3259(2) 0.5305(2) -0.0927(2)
P2 P 0.7383(2) 0.1055(2) 0.0025(2)
P3 P 0.9638(2) -0.2513(2) -0.2142(2)
P4 P 0.4518(2) 0.1597(2) 0.1875(2)
P5 P 0.8824(2) -0.2710(2) 0.0797(2)
O1 O 0.4090(5) 0.4236(5) -0.0432(5)
O2 O 0.3890(5) 0.6105(5) -0.1222(4)
O3 O 0.6181(5) 0.1982(5) -0.0107(4)
O4 O 0.4244(5) 0.2751(5) 0.1391(4)
O5 O 0.7645(5) 0.0259(5) -0.0745(4)
O6 O 0.7708(5) -0.2161(5) 0.0185(5)
O7 O 0.8337(5) -0.1755(5) -0.2022(4)
O8 O 0.4172(5) 0.0858(5) 0.1263(4)
O9 O 0.2224(5) 0.5876(5) -0.0259(4)
O10 O 0.8378(6) 0.1471(6) 0.0039(7)
O11 O 0.9792(5) -0.2312(5) 0.0452(5)
O12 O 1.0490(5) -0.2049(5) -0.1703(4)
O13 O 0.2742(5) 0.5072(5) -0.1809(4)
O14 O 0.9205(5) -0.3969(5) 0.0872(4)
O15 O 0.9859(5) -0.3690(5) -0.1739(4)
O16 O 0.1220(6) 0.4112(6) -0.2919(5)
O17 O 0.7376(7) 0.0389(7) 0.0973(5)
H1 H 0.8006(7) -0.0140(7) 0.1044(5)
O18 O 0.9863(6) -0.2518(5) -0.3221(4)
H2 H 1.0548(6) -0.2919(5) -0.3320(4)
O19 O 0.5793(5) 0.1054(6) 0.2208(4)
H3 H 0.6231(5) 0.0926(6) 0.1755(4)
O20 O 0.3727(6) 0.1747(6) 0.2773(4)
H4 H 0.3893(6) 0.2145(6) 0.3122(4)
O21 O 0.8506(6) -0.2269(5) 0.1801(5)
H5 H 0.8277(6) -0.1587(5) 0.1764(5)
N1 N 0.4736(22) -0.2415(22) 0.3518(22)
C1 C 0.4509(13) -0.1786(16) 0.2609(11)
C2 C 0.5705(11) -0.2079(10) 0.2125(9)
C3 C 0.5500(7) -0.1461(7) 0.1156(6)
N2 N 0.8029(6) 0.5531(7) -0.1199(6)
C4 C 0.8105(13) 0.4914(14) -0.2052(14)
C5 C 0.7086(18) 0.4641(23) -0.2400(19)
C6 C 0.7663(27) 0.4285(23) -0.3362(16)
N3 N 0.5123(32) 0.3057(31) 0.4100(22)
C7 C 0.5864(19) 0.3764(20) 0.3856(17)
C8 C 0.7165(12) 0.3109(11) 0.3586(9)
C9 C 0.7259(8) 0.2442(8) 0.2738(6)
C10 C 0.9324(18) 0.1217(17) 0.5882(12)
C11 C 0.9398(39) 0.0377(22) 0.6723(13)
C12 C 0.9653(23) 0.0948(19) 0.7534(14)
N4 N 0.9952(7) 0.0425(7) 0.8509(6)
O22 O 0.0929(8) 0.5519(7) -0.3956(5)
O23 O 0.6222(9) -0.0250(8) 0.3756(7)
O24 O 0.7434(10) 0.0571(10) 0.4087(7)
C13 C 0.1191(10) 0.4512(10) -0.3742(8)
C14 C 0.1478(15) 0.3697(12) -0.4511(10)
H6 H 0.1659(15) 0.2955(12) -0.4235(10)
H7 H 0.0810(15) 0.3892(12) -0.4924(10)
H8 H 0.2147(15) 0.3731(12) -0.4857(10)
C15 C 0.6951(13) -0.0054(11) 0.4305(9)
C16 C 0.7098(15) -0.0641(12) 0.5285(9)
H9 H 0.6643(15) -0.1109(12) 0.5328(9)
H10 H 0.6826(15) -0.0094(12) 0.5741(9)
H11 H 0.7917(15) -0.1087(12) 0.5400(9)
O2A O 0.6110(5) 0.3895(5) 0.1222(4)
O8A O 0.5828(5) -0.0858(5) -0.1263(4)
O10A O 0.1622(6) 0.8529(6) -0.0039(7)
O11* O -0.0208(5) 0.7688(5) 0.0452(5)
O12* O 0.0490(5) 0.7951(5) -0.1703(4)
O14A O 0.0795(5) 0.3969(5) -0.0872(4)
O15* O -0.0141(5) 0.6310(5) -0.1739(4)
Zn1A Zn 0.48249(8) 0.66808(8) -0.04936(7)
Zn2A Zn 0.25246(8) 0.11319(8) 0.08951(8)
Zn3A Zn 0.89027(8) 0.26218(8) 0.04059(8)
Zn3* Zn 1.10973(8) -0.26218(8) -0.04059(8)
Zn4A Zn 0.87646(9) -0.49246(8) 0.18006(8)
Zn4* Zn 1.12354(9) -0.50754(8) -0.18006(8)
#END
