
#######################################################################
#
#                 Cambridge Crystallographic Data Centre
#                                CCDC
#
#######################################################################
#
# If this CIF has been generated from an entry in the Cambridge
# Structural Database, then it will include bibliographic, chemical,
# crystal, experimental, refinement or atomic coordinate data resulting
# from the CCDC's data processing and validation procedures.
#
#######################################################################

data_CSD_CIF_QOKBEZ
_audit_creation_date 2014-08-14
_audit_creation_method CSD-ConQuest-V1
_database_code_CSD QOKBEZ
_database_code_depnum_ccdc_archive 'CCDC 998453'
_chemical_formula_sum 'C32 H36 Ag4 Mo12 N20 O42 P1'
_chemical_formula_moiety
;
(C32 H32 Ag4 N20 4+)n,n(Mo12 O40 P1 4-),2n(H2 O1)
;
_journal_coden_Cambridge 9
_journal_volume 53
_journal_year 2014
_journal_page_first 7118
_journal_name_full 'Inorg.Chem. '
loop_
_publ_author_name
"Xiu-Li Wang"
"Na Li"
"Ai-Xiang Tian"
"Jun Ying"
"Tian-Jiao Li"
"Xiao-Ling Lin"
"Jian Luan"
"Yang Yang"
_chemical_name_systematic
;
catena-[bis(\m~4~-3,3'-(Butane-1,4-diylbis(2H-tetrazole-2,5-diyl))dipyridine)-
tetra-silver(i) 
(\m~12~-phosphato)-tetracosakis(\m~2~-oxo)-dodeca-oxo-dodeca-molybdenum 
dihydrate]
;
_cell_volume   6797.201
_exptl_crystal_colour 'yellow'
_exptl_crystal_density_diffrn 2.918
_exptl_crystal_description 'block'
_diffrn_ambient_temperature 298
_refine_special_details
;
The Keggin anion is disordered by symmetry.

;
#These two values have been output from a single CSD field.
_refine_ls_R_factor_gt 0.053
_refine_ls_wR_factor_gt 0.053
_symmetry_cell_setting monoclinic
_symmetry_space_group_name_H-M 'C 2/c'
_symmetry_Int_Tables_number 15
loop_
_symmetry_equiv_pos_site_id
_symmetry_equiv_pos_as_xyz
1 x,y,z
2 -x,y,1/2-z
3 1/2+x,1/2+y,z
4 1/2-x,1/2+y,1/2-z
5 -x,-y,-z
6 x,-y,-1/2+z
7 -1/2-x,-1/2-y,-z
8 -1/2+x,-1/2-y,-1/2+z
_cell_length_a 21.7793(15)
_cell_length_b 24.0089(15)
_cell_length_c 13.1613(8)
_cell_angle_alpha 90
_cell_angle_beta 99.004(1)
_cell_angle_gamma 90
_cell_formula_units_Z 4
loop_
_atom_type_symbol
_atom_type_radius_bond
C 0.68
H 0.23
Ag 1.45
Mo 1.54
N 0.68
O 0.68
P 1.05
loop_
_atom_site_label
_atom_site_type_symbol
_atom_site_fract_x
_atom_site_fract_y
_atom_site_fract_z
P1 P -0.25000 1.25000 -1.00000
Mo1 Mo -0.36397(4) 1.17444(4) -0.88877(7)
O1 O -0.2111(5) 1.2504(4) -1.0820(7)
Mo2 Mo -0.24488(4) 1.25088(4) -0.73144(6)
O2 O -0.2091(5) 1.3033(4) -0.9962(8)
Mo3 Mo -0.24974(6) 1.39907(3) -0.99763(9)
O3 O -0.2076(5) 1.1990(4) -0.9965(8)
Mo4 Mo -0.13114(4) 1.17578(3) -0.84033(7)
O4 O -0.2077(4) 1.2490(4) -0.8910(7)
Mo5 Mo -0.13133(4) 1.32313(4) -0.84008(8)
O5 O -0.3044(3) 1.1917(3) -0.7708(6)
Mo6 Mo -0.36535(5) 1.32369(4) -0.89030(7)
O6 O -0.3080(4) 1.3018(3) -0.7710(6)
O7 O -0.1936(6) 1.3040(5) -0.7733(10)
O8 O -0.1831(4) 1.1941(3) -0.7479(8)
O9 O -0.3062(5) 1.1154(5) -0.9131(6)
O10 O -0.3944(4) 1.2474(3) -0.8879(7)
O11 O -0.3105(5) 1.3810(4) -0.9092(6)
O12 O -0.1888(4) 1.3825(4) -0.8854(7)
O13 O -0.0917(6) 1.2491(5) -0.8050(11)
O14 O -0.1839(4) 1.1177(4) -0.8923(5)
O15 O -0.3947(5) 1.1688(5) -1.0308(6)
O16 O -0.4162(4) 1.1386(4) -0.8372(8)
O17 O -0.4187(5) 1.3564(5) -0.8381(9)
O18 O -0.2520(5) 1.4676(3) -0.9937(6)
O19 O -0.0763(3) 1.3582(3) -0.7666(5)
O20 O -0.1016(5) 1.1754(4) -0.9719(6)
O21 O -0.0739(3) 1.1421(3) -0.7697(5)
O22 O -0.2428(4) 1.2495(3) -0.6057(5)
Ag1 Ag -0.33585(4) 1.33512(3) -0.56178(7)
N1 N -0.3611(3) 1.0966(3) -0.6168(6)
C1 C -0.3832(4) 1.2150(3) -0.5573(7)
H1 H -0.35490 1.20920 -0.60240
C2 C -0.4171(4) 1.1702(3) -0.5292(6)
Ag2 Ag -0.26600(4) 1.11543(3) -0.66660(8)
N2 N -0.3707(4) 1.0428(3) -0.6371(6)
C3 C -0.4599(4) 1.1793(4) -0.4640(8)
H2 H -0.48340 1.15000 -0.44440
N3 N -0.4213(3) 1.0303(3) -0.6009(6)
C4 C -0.4674(4) 1.2325(4) -0.4284(8)
H3 H -0.49640 1.23990 -0.38530
N4 N -0.4468(3) 1.0723(3) -0.5573(6)
C5 C -0.4309(4) 1.2746(4) -0.4582(8)
H4 H -0.43530 1.31020 -0.43260
N5 N -0.3900(4) 1.2666(3) -0.5214(6)
C6 C -0.4080(4) 1.1140(3) -0.5688(6)
N6 N -0.2885(4) 1.4046(3) -0.6168(6)
C7 C -0.3221(4) 1.4447(4) -0.6709(7)
H5 H -0.36460 1.44590 -0.66910
N7 N -0.4001(3) 1.5162(3) -0.8119(6)
C8 C -0.2970(4) 1.4842(3) -0.7291(6)
N8 N -0.4164(4) 1.5566(3) -0.8795(6)
C9 C -0.2331(4) 1.4835(4) -0.7262(7)
H6 H -0.21400 1.50980 -0.76280
N9 N -0.3707(4) 1.5864(3) -0.9019(6)
C10 C -0.1978(4) 1.4433(4) -0.6682(8)
H7 H -0.15490 1.44250 -0.66460
N10 N -0.3200(3) 1.5657(3) -0.8474(5)
C11 C -0.2273(5) 1.4046(4) -0.6162(7)
H8 H -0.20360 1.37720 -0.57880
C12 C -0.3382(4) 1.5222(3) -0.7932(7)
C13 C -0.4815(5) 1.5672(4) -0.9209(9)
H9 H -0.48370 1.59330 -0.97770
H10 H -0.50160 1.58430 -0.86800
C14 C -0.5159(4) 1.5143(4) -0.9581(9)
H11 H -0.55860 1.52320 -0.98610
H12 H -0.51610 1.48910 -0.90060
C15 C -0.4507(5) 0.9751(4) -0.6123(8)
H13 H -0.46300 0.96420 -0.54750
H14 H -0.42070 0.94810 -0.62910
C16 C -0.5074(5) 0.9748(4) -0.6959(8)
H15 H -0.53210 0.94200 -0.68690
H16 H -0.53250 1.00720 -0.68710
O23 O -0.4546(11) 1.3823(11) -0.6553(17)
H17 H -0.48310 1.35940 -0.64610
H18 H -0.44270 1.37400 -0.71190
O24? O -0.1767(6) 1.3032(5) -0.7194(10)
O25? O -0.281(2) 1.395(2) -0.968(3)
O26? O -0.1095(6) 1.2523(5) -0.8542(11)
O1F O -0.2889(5) 1.2496(4) -0.9180(7)
O2F O -0.2909(5) 1.1967(4) -1.0038(8)
O3F O -0.2924(5) 1.3010(4) -1.0035(8)
O4F O -0.2923(4) 1.2510(4) -1.1090(7)
Mo1F Mo -0.13603(4) 1.32556(4) -1.11123(7)
Mo2F Mo -0.25512(4) 1.24912(4) -1.26856(6)
Mo3F Mo -0.25026(6) 1.10093(3) -1.00237(9)
Mo4F Mo -0.36886(4) 1.32422(3) -1.15967(7)
Mo5F Mo -0.36867(4) 1.17687(4) -1.15992(8)
O5F O -0.1956(3) 1.3083(3) -1.2292(6)
Mo6F Mo -0.13465(5) 1.17631(4) -1.10970(7)
O6F O -0.1920(4) 1.1982(3) -1.2290(6)
O7F O -0.3064(6) 1.1960(5) -1.2267(10)
O8F O -0.3169(4) 1.3059(3) -1.2521(8)
O9F O -0.1938(5) 1.3846(5) -1.0869(6)
O10F O -0.1056(4) 1.2526(3) -1.1121(7)
O11F O -0.1895(5) 1.1190(4) -1.0908(6)
O12F O -0.3112(4) 1.1175(4) -1.1146(7)
O13F O -0.4083(6) 1.2509(5) -1.1950(11)
O14F O -0.3161(4) 1.3823(4) -1.1077(5)
O15F O -0.1053(5) 1.3312(5) -0.9692(6)
O16F O -0.0838(4) 1.3614(4) -1.1628(8)
O17F O -0.0813(5) 1.1436(5) -1.1619(9)
O18F O -0.2480(5) 1.0324(3) -1.0063(6)
O19F O -0.4237(3) 1.1418(3) -1.2334(5)
O20F O -0.3984(5) 1.3246(4) -1.0281(6)
O21F O -0.4261(3) 1.3579(3) -1.2303(5)
O22F O -0.2572(4) 1.2505(3) -1.3943(5)
N1A N -0.6389(3) 1.0966(3) -0.8832(6)
C1A C -0.6168(4) 1.2150(3) -0.9427(7)
H1A H -0.64510 1.20920 -0.89760
C2A C -0.5829(4) 1.1702(3) -0.9708(6)
N2A N -0.6293(4) 1.0428(3) -0.8629(6)
C3A C -0.5401(4) 1.1793(4) -1.0360(8)
H2A H -0.51660 1.15000 -1.05560
N3A N -0.5787(3) 1.0303(3) -0.8991(6)
C4A C -0.5326(4) 1.2325(4) -1.0716(8)
H3A H -0.50360 1.23990 -1.11470
N4A N -0.5532(3) 1.0723(3) -0.9427(6)
C5A C -0.5691(4) 1.2746(4) -1.0418(8)
H4A H -0.56470 1.31020 -1.06740
N5A N -0.6100(4) 1.2666(3) -0.9786(6)
C6A C -0.5920(4) 1.1140(3) -0.9312(6)
C15A C -0.5493(5) 0.9751(4) -0.8877(8)
H13A H -0.53700 0.96420 -0.95250
H14A H -0.57930 0.94810 -0.87090
C16A C -0.4926(5) 0.9748(4) -0.8041(8)
H15A H -0.46790 0.94200 -0.81310
H16A H -0.46750 1.00720 -0.81290
N6D N -0.7115(4) 1.5954(3) -1.3832(6)
C7D C -0.6779(4) 1.5553(4) -1.3291(7)
H5D H -0.63540 1.55410 -1.33090
N7D N -0.5999(3) 1.4838(3) -1.1881(6)
C8D C -0.7030(4) 1.5158(3) -1.2709(6)
N8D N -0.5836(4) 1.4434(3) -1.1205(6)
C9D C -0.7669(4) 1.5165(4) -1.2738(7)
H6D H -0.78600 1.49020 -1.23720
N9D N -0.6293(4) 1.4136(3) -1.0981(6)
C10D C -0.8022(4) 1.5567(4) -1.3318(8)
H7D H -0.84510 1.55750 -1.33540
N10D N -0.6800(3) 1.4343(3) -1.1526(5)
C11D C -0.7727(5) 1.5954(4) -1.3838(7)
H8D H -0.79640 1.62280 -1.42120
C12D C -0.6618(4) 1.4778(3) -1.2068(7)
C13D C -0.5185(5) 1.4328(4) -1.0791(9)
H9D H -0.51630 1.40670 -1.02230
H10D H -0.49840 1.41570 -1.13200
C14D C -0.4841(4) 1.4857(4) -1.0419(9)
H11D H -0.44140 1.47680 -1.01390
H12D H -0.48390 1.51090 -1.09940
Ag1A Ag -0.66415(4) 1.33512(3) -0.93822(7)
Ag2A Ag -0.73400(4) 1.11543(3) -0.83340(8)
Ag1D Ag -0.66415(4) 1.66488(3) -1.43822(7)
Ag2C Ag -0.23400(4) 1.61543(3) -0.83340(8)
Ag2G Ag -0.76600(4) 1.38457(3) -1.16660(8)
N6A N -0.7115(4) 1.4046(3) -0.8832(6)
N10B N -0.8200(3) 1.0657(3) -0.8474(5)
N10C N -0.1800(3) 1.0657(3) -0.6526(5)
#END
