
#######################################################################
#
#                 Cambridge Crystallographic Data Centre
#                                CCDC
#
#######################################################################
#
# If this CIF has been generated from an entry in the Cambridge
# Structural Database, then it will include bibliographic, chemical,
# crystal, experimental, refinement or atomic coordinate data resulting
# from the CCDC's data processing and validation procedures.
#
#######################################################################

data_CSD_CIF_QOLJOR
_audit_creation_date 2009-03-02
_audit_creation_method CSD-ConQuest-V1
_database_code_CSD QOLJOR
_database_code_depnum_ccdc_archive 'CCDC 691039'
_chemical_formula_sum 'C12 H16 N2 O10 Tl2'
_chemical_formula_moiety
;
(C2 H10 N2 2+)n,n(C10 H6 O10 Tl2 2-)
;
_journal_coeditor_code "IUCr HY2169"
_journal_coden_Cambridge 1370
_journal_volume 65
_journal_year 2009
_journal_page_first m17
_journal_name_full 'Acta Crystallogr.,Sect.E:Struct.Rep.Online '
loop_
_publ_author_name
"M.Rafizadeh"
"F.Manteghi"
_chemical_name_systematic
;
catena-[Ethylenediammonium 
(\m~6~-benzene-1,2,4,5-tetracarboxylato-\k^10^O^1^,O^1'^:O^2^,O^2'^:O^2'^:O^4^
,O^4'^:O^5^:O^5^,O^5'^)-bis(\m~2~-aqua)-di-thallium(i)]
;
_chemical_melting_point ?
_cell_volume    786.487
_exptl_crystal_colour 'pale yellow'
_exptl_crystal_density_diffrn 3.197
_exptl_special_details
;
Decomposes above 673K

;
_exptl_crystal_description 'prism'
_diffrn_ambient_temperature 100
#These two values have been output from a single CSD field.
_refine_ls_R_factor_gt 0.0314
_refine_ls_wR_factor_gt 0.0314
_symmetry_cell_setting monoclinic
_symmetry_space_group_name_H-M 'P 21/n'
_symmetry_Int_Tables_number 14
loop_
_symmetry_equiv_pos_site_id
_symmetry_equiv_pos_as_xyz
1 x,y,z
2 1/2-x,1/2+y,1/2-z
3 -x,-y,-z
4 -1/2+x,-1/2-y,-1/2+z
_cell_length_a 9.925(5)
_cell_length_b 7.073(4)
_cell_length_c 11.325(6)
_cell_angle_alpha 90
_cell_angle_beta 98.397(10)
_cell_angle_gamma 90
_cell_formula_units_Z 2
loop_
_atom_type_symbol
_atom_type_radius_bond
C 0.68
H 0.23
N 0.68
O 0.85
Tl 2.12
loop_
_atom_site_label
_atom_site_type_symbol
_atom_site_fract_x
_atom_site_fract_y
_atom_site_fract_z
Tl1 Tl -0.05121(3) 0.10847(4) 0.68253(2)
O1 O 0.1709(5) -0.1391(7) 0.8360(4)
O2 O 0.1667(5) 0.1726(8) 0.8595(4)
O3 O 0.3201(5) -0.2759(7) 1.2028(4)
O4 O 0.1685(5) -0.0925(8) 1.0927(5)
C1 C 0.2231(7) 0.0140(11) 0.8761(6)
C2 C 0.3648(8) 0.0083(10) 0.9445(6)
C3 C 0.4680(7) 0.0882(10) 0.8919(6)
H1 H 0.44630 0.14910 0.81680
C4 C 0.3959(7) -0.0817(10) 1.0535(6)
C5 C 0.2857(7) -0.155(1) 1.1215(6)
C6 C 0.5359(8) 0.0285(11) 0.5608(6)
H2 H 0.48010 -0.00870 0.62260
H3 H 0.62440 -0.03810 0.57750
N1 N 0.5585(6) 0.2319(8) 0.5655(5)
H4 H 0.60700 0.26640 0.50670
H5 H 0.60580 0.26360 0.63780
H6 H 0.47680 0.29270 0.55500
O5 O 0.1899(5) 0.0253(8) 0.5778(5)
H7 H 0.23890 -0.07170 0.59650
H8 H 0.23410 0.12440 0.60180
Tl1B Tl 1.05121(3) -0.10847(4) 1.31747(2)
Tl1C Tl 0.44879(3) -0.60847(4) 1.18253(2)
Tl1B* Tl 0.05121(3) -0.10847(4) 1.31747(2)
Tl1B** Tl 0.05121(3) -0.10847(4) 0.31747(2)
Tl1* Tl 0.94879(3) 0.10847(4) 0.68253(2)
Tl1A Tl 0.55121(3) 0.60847(4) 0.81747(2)
O1B O 0.8291(5) 0.1391(7) 1.1640(4)
O2B O 0.8333(5) -0.1726(8) 1.1405(4)
O3B O 0.6799(5) 0.2759(7) 0.7972(4)
O3C O -0.1799(5) -0.2241(7) 0.7028(4)
O3B* O -0.3201(5) 0.2759(7) 0.7972(4)
O3* O 1.3201(5) -0.2759(7) 1.2028(4)
O3A O 1.1799(5) 0.2241(7) 1.2972(4)
O4B O 0.8315(5) 0.0925(8) 0.9073(5)
O4B* O -0.1685(5) 0.0925(8) 0.9073(5)
O4* O 1.1685(5) -0.0925(8) 1.0927(5)
C1B C 0.7769(7) -0.0140(11) 1.1239(6)
C2B C 0.6352(8) -0.0083(10) 1.0555(6)
C3B C 0.5320(7) -0.0882(10) 1.1081(6)
H1B H 0.55370 -0.14910 1.18320
C4B C 0.6041(7) 0.0817(10) 0.9465(6)
C5B C 0.7143(7) 0.155(1) 0.8785(6)
C6B C 0.4641(8) -0.0285(11) 0.4392(6)
H2B H 0.51990 0.00870 0.37740
H3B H 0.37560 0.03810 0.42250
N1B N 0.4415(6) -0.2319(8) 0.4345(5)
H4B H 0.39300 -0.26640 0.49330
H5B H 0.39420 -0.26360 0.36220
H6B H 0.52320 -0.29270 0.44500
O5B O -0.1899(5) -0.0253(8) 0.4222(5)
O5* O 1.1899(5) 0.0253(8) 1.5778(5)
O5B* O 0.8101(5) -0.0253(8) 1.4222(5)
H7B H -0.23890 0.07170 0.40350
H7* H 1.23890 -0.07170 1.59650
H7B* H 0.76110 0.07170 1.40350
H8B H -0.23410 -0.12440 0.39820
H8* H 1.23410 0.12440 1.60180
H8B* H 0.76590 -0.12440 1.39820
#END
