
#######################################################################
#
#                 Cambridge Crystallographic Data Centre
#                                CCDC
#
#######################################################################
#
# If this CIF has been generated from an entry in the Cambridge
# Structural Database, then it will include bibliographic, chemical,
# crystal, experimental, refinement or atomic coordinate data resulting
# from the CCDC's data processing and validation procedures.
#
#######################################################################

data_CSD_CIF_QOLSOC
_audit_creation_date 2019-07-15
_audit_creation_method CSD-ConQuest-V1
_database_code_CSD QOLSOC
_database_code_depnum_ccdc_archive 'CCDC 1939699'
_chemical_formula_sum 'C30 H24 Br8 Cd1 N6 O12'
_chemical_formula_moiety
;
(C16 H4 Br8 Cd1 O10 2-)n,2(C7 H8 N3 1+),2(H2 O1)
;
_journal_coden_Cambridge 208
_journal_volume 277
_journal_year 2019
_journal_page_first 611
_journal_name_full 'J.Solid State Chem. '
loop_
_publ_author_name
"Shaoshao Jiao"
"Yaowen Zhang"
"Kang Liu"
"Liming Deng"
"Xinghao Zhang"
"Lei Wang"
_chemical_name_systematic
;
catena-(bis(2-aminobenzimidazolium) 
bis(\m-2,3,5,6-tetrabromoterephthalato)-diaqua-cadmium dihydrate)
;
_cell_volume   1031.379
_exptl_crystal_colour 'colorless'
_exptl_crystal_density_diffrn 2.274
_exptl_crystal_description 'block'
_diffrn_ambient_temperature 293
#These two values have been output from a single CSD field.
_refine_ls_R_factor_gt 0.0309
_refine_ls_wR_factor_gt 0.0309
_symmetry_cell_setting triclinic
_symmetry_space_group_name_H-M 'P -1'
_symmetry_Int_Tables_number 2
loop_
_symmetry_equiv_pos_site_id
_symmetry_equiv_pos_as_xyz
1 x,y,z
2 -x,-y,-z
_cell_length_a 9.1676(5)
_cell_length_b 9.8386(3)
_cell_length_c 11.8945(4)
_cell_angle_alpha 84.575(3)
_cell_angle_beta 82.118(4)
_cell_angle_gamma 76.552(4)
_cell_formula_units_Z 1
loop_
_atom_type_symbol
_atom_type_radius_bond
C 0.68
H 0.23
Br 1.21
Cd 1.44
N 0.68
O 0.68
loop_
_atom_site_label
_atom_site_type_symbol
_atom_site_fract_x
_atom_site_fract_y
_atom_site_fract_z
Cd1 Cd 0.00000 0.50000 1.00000
Br1 Br 0.43421(6) 0.24692(4) 1.17759(4)
Br2 Br 0.28289(5) 0.42646(4) 0.65140(4)
Br3 Br 0.65335(6) -0.06405(4) 1.23634(4)
Br4 Br 0.34055(5) 0.49459(5) 0.37177(4)
O1 O -0.0357(3) 0.5433(3) 0.8076(2)
O2 O -0.0712(3) 0.3315(3) 0.7820(2)
O3 O 0.1728(3) 0.2938(3) 0.9811(2)
O4 O 0.3806(3) 0.3645(3) 0.8992(2)
O5 O 0.1875(4) 0.6209(3) 0.9270(3)
C1 C -0.0239(4) 0.4781(4) 0.6186(3)
C2 C 0.1442(4) 0.4972(4) 0.4455(3)
C3 C 0.1202(4) 0.4739(4) 0.5632(3)
C4 C 0.5654(4) -0.0263(4) 1.1001(3)
C5 C 0.4733(4) 0.1043(4) 1.0752(3)
C6 C 0.4083(4) 0.1321(4) 0.9752(3)
C7 C -0.0457(4) 0.4490(4) 0.7485(3)
C8 C 0.3131(5) 0.2762(4) 0.9480(3)
H1 H 0.252(3) 0.5498(19) 0.909(2)
H2 H 0.219(6) 0.653(3) 0.976(3)
N1 N 0.0633(5) 0.8382(4) 0.7355(4)
N2 N -0.1148(5) 0.9539(4) 0.8774(4)
H3 H -0.11750 0.87730 0.91810
H4 H -0.16970 1.03200 0.90020
C9 C -0.0263(6) 0.9516(5) 0.7796(4)
C10 C 0.1448(5) 0.8775(4) 0.6331(4)
C11 C 0.1550(6) 1.0975(5) 0.5270(4)
H5 H 0.12150 1.19400 0.51640
C12 C 0.2567(6) 0.8050(5) 0.5599(4)
H6 H 0.29070 0.70860 0.57120
C13 C 0.3186(7) 0.8795(5) 0.4680(4)
H7 H 0.39470 0.83290 0.41610
C14 C 0.2670(7) 1.0230(5) 0.4534(4)
H8 H 0.30990 1.07090 0.39130
N3 N -0.0126(5) 1.0627(4) 0.7091(3)
C15 C 0.0948(5) 1.0214(4) 0.6178(4)
H9 H -0.037(5) 1.133(4) 0.724(4)
H10 H 0.069(7) 0.771(6) 0.755(5)
O6 O -0.2992(5) 0.2488(4) 0.9126(4)
H11 H -0.24270 0.28280 0.86000
H12 H -0.372(7) 0.268(7) 0.893(6)
Br1A Br 0.56579(6) -0.24692(4) 0.82241(4)
Br3A Br 0.34665(6) 0.06405(4) 0.76366(4)
O3A O 0.8272(3) -0.2938(3) 1.0189(2)
O4A O 0.6194(3) -0.3645(3) 1.1008(2)
C4A C 0.4346(4) 0.0263(4) 0.8999(3)
C5A C 0.5267(4) -0.1043(4) 0.9248(3)
C6A C 0.5917(4) -0.1321(4) 1.0248(3)
C8A C 0.6869(5) -0.2762(4) 1.0520(3)
Br2A Br -0.28289(5) 0.57354(4) 0.34860(4)
Br4A Br -0.34055(5) 0.50541(5) 0.62823(4)
O1A O 0.0357(3) 0.4567(3) 0.1924(2)
O2A O 0.0712(3) 0.6685(3) 0.2180(2)
C1A C 0.0239(4) 0.5219(4) 0.3814(3)
C2A C -0.1442(4) 0.5028(4) 0.5545(3)
C3A C -0.1202(4) 0.5261(4) 0.4368(3)
C7A C 0.0457(4) 0.5510(4) 0.2515(3)
O5A O -0.1875(4) 0.3791(3) 1.0730(3)
H1A H -0.252(3) 0.4502(19) 1.091(2)
H2A H -0.219(6) 0.347(3) 1.024(3)
Cd1* Cd 0.00000 0.50000 0.00000
Cd1** Cd 1.00000 -0.50000 1.00000
O1A* O 0.0357(3) 0.4567(3) 1.1924(2)
O3A* O -0.1728(3) 0.7062(3) 1.0189(2)
#END
