
#######################################################################
#
#                 Cambridge Crystallographic Data Centre
#                                CCDC
#
#######################################################################
#
# If this CIF has been generated from an entry in the Cambridge
# Structural Database, then it will include bibliographic, chemical,
# crystal, experimental, refinement or atomic coordinate data resulting
# from the CCDC's data processing and validation procedures.
#
#######################################################################

data_CSD_CIF_QOPCII
_audit_creation_date 2009-06-25
_audit_creation_method CSD-ConQuest-V1
_database_code_CSD QOPCII
_database_code_depnum_ccdc_archive 'CCDC 686603'
_chemical_formula_sum 'C8 H20 Mn5 N2 O26 P4'
_chemical_formula_moiety
;
(C8 H12 Mn5 O26 P4 2-)n,2n(H4 N1 1+)
;
_journal_coden_Cambridge 29
_journal_volume 635
_journal_year 2009
_journal_page_first 171
_journal_name_full 'Z.Anorg.Allg.Chem. '
loop_
_publ_author_name
"Yan-Yu Zhu"
"Jing Li"
"Zhen-Gang Sun"
"Jing Zhang"
"Yan Zhao"
"Xin Lu"
"Lei Liu"
"Na Zhang"
_chemical_name_systematic
;
catena-[Diammonium 
bis(\m~5~-2-hydroxyphosphonoacetato)-bis(\m~4~-2-hydroxyphosphonoacetato)-diaq
ua-penta-manganese(ii)]
;
_cell_volume    750.564
_exptl_crystal_colour 'colorless'
_exptl_crystal_density_diffrn 2.112
_exptl_special_details
;
isomorphous with the butylene-1,4-diammonium analogue

;
_exptl_crystal_description 'needle'
_diffrn_ambient_temperature 295
#These two values have been output from a single CSD field.
_refine_ls_R_factor_gt 0.0623
_refine_ls_wR_factor_gt 0.0623
_symmetry_cell_setting triclinic
_symmetry_space_group_name_H-M 'P -1'
_symmetry_Int_Tables_number 2
loop_
_symmetry_equiv_pos_site_id
_symmetry_equiv_pos_as_xyz
1 x,y,z
2 -x,-y,-z
_cell_length_a 5.6431(8)
_cell_length_b 10.4832(14)
_cell_length_c 13.3055(18)
_cell_angle_alpha 79.356(2)
_cell_angle_beta 84.344(2)
_cell_angle_gamma 76.376(2)
_cell_formula_units_Z 1
loop_
_atom_type_symbol
_atom_type_radius_bond
C 0.68
H 0.23
Mn 1.35
N 0.68
O 0.68
P 1.05
loop_
_atom_site_label
_atom_site_type_symbol
_atom_site_fract_x
_atom_site_fract_y
_atom_site_fract_z
Mn1 Mn -0.18527(17) 0.07933(9) 0.40794(7)
Mn2 Mn -0.50000 0.00000 0.00000
Mn3 Mn 0.10593(19) -0.38593(10) 0.34020(8)
P1 P -0.0045(3) 0.14489(18) -0.12401(14)
P2 P 0.2364(3) 0.22189(16) 0.47668(13)
O1 O 0.1635(9) 0.1335(5) -0.0393(4)
O2 O 0.2691(9) -0.1482(5) 0.0806(4)
O3 O 0.0062(11) 0.2619(5) -0.2071(4)
O4 O 0.0470(9) 0.0034(6) 0.2657(4)
H1 H 0.19730 -0.00630 0.24630
O5 O -0.4186(9) 0.0418(5) 0.3069(4)
O6 O 0.5180(9) -0.0551(6) -0.1494(4)
O7 O -0.4922(8) 0.1762(5) 0.4913(4)
O8 O 0.1154(10) 0.3253(5) 0.5406(4)
O9 O 0.1072(8) 0.1065(4) 0.4876(4)
O10 O 0.3263(8) 0.4133(5) 0.3223(4)
H2 H 0.47940 0.38120 0.32110
O11 O -0.1421(9) 0.4903(5) 0.3178(4)
O12 O -0.2029(8) 0.2878(5) 0.3222(4)
O13 O 0.4137(13) -0.3403(9) 0.3857(8)
N1 N 0.601(2) -0.3620(11) 0.138(1)
H3 H 0.59180 -0.30820 0.18440
H4 H 0.74400 -0.42220 0.14550
H5 H 0.60960 -0.31220 0.07550
H6 H 0.48100 -0.40650 0.15530
C1 C 0.0920(12) -0.0075(7) -0.1798(5)
H7 H 0.06430 -0.08050 -0.12830
C2 C 0.3611(12) -0.0359(7) -0.2136(5)
C3 C 0.2005(12) 0.3077(6) 0.3420(5)
H8 H 0.26330 0.24560 0.29590
C4 C -0.0672(12) 0.3679(7) 0.3265(5)
Mn1A Mn 0.18527(17) -0.07933(9) 0.59206(7)
Mn1* Mn 0.81473(17) 0.07933(9) 0.40794(7)
Mn1A* Mn -0.81473(17) -0.07933(9) 0.59206(7)
Mn1A** Mn 0.18527(17) -0.07933(9) -0.40794(7)
Mn1** Mn -1.18527(17) 0.07933(9) 0.40794(7)
Mn2* Mn 0.50000 0.00000 0.00000
Mn3A Mn -0.10593(19) 0.38593(10) 0.65980(8)
Mn3A* Mn -0.10593(19) 0.38593(10) -0.34020(8)
Mn3* Mn 0.10593(19) 0.61407(10) 0.34020(8)
Mn3A** Mn -1.10593(19) 0.38593(10) 0.65980(8)
Mn3** Mn -0.89407(19) 0.61407(10) 0.34020(8)
P1A P 0.0045(3) -0.14489(18) 0.12401(14)
P2* P -0.7636(3) 0.22189(16) 0.47668(13)
O1A O -0.1635(9) -0.1335(5) 0.0393(4)
O1* O -0.8365(9) 0.1335(5) -0.0393(4)
O2A O -0.2691(9) 0.1482(5) -0.0806(4)
O2* O -0.7309(9) -0.1482(5) 0.0806(4)
O3A O -0.0062(11) -0.2619(5) 0.2071(4)
O4A O -0.0470(9) -0.0034(6) -0.2657(4)
H1A H -0.19730 0.00630 -0.24630
O5A O 0.4186(9) -0.0418(5) -0.3069(4)
O6A O -0.5180(9) 0.0551(6) 0.1494(4)
O6* O -0.4820(9) -0.0551(6) -0.1494(4)
O7* O 0.5078(8) 0.1762(5) 0.4913(4)
O7A O 0.4922(8) -0.1762(5) -0.4913(4)
O8A O -0.1154(10) -0.3253(5) 0.4594(4)
O8* O -0.8846(10) 0.3253(5) 0.5406(4)
O8** O 0.1154(10) 0.3253(5) -0.4594(4)
O9A O -0.1072(8) -0.1065(4) 0.5124(4)
O9* O -0.8928(8) 0.1065(4) 0.4876(4)
O9A* O -0.1072(8) -0.1065(4) -0.4876(4)
O9** O 0.1072(8) 0.1065(4) -0.5124(4)
O10* O 0.3263(8) -0.5867(5) 0.3223(4)
O10A O -0.3263(8) 0.5867(5) -0.3223(4)
O10** O -0.6737(8) 0.4133(5) 0.3223(4)
H2* H 0.47940 -0.61880 0.32110
H2A H -0.47940 0.61880 -0.32110
H2** H -0.52060 0.38120 0.32110
O11* O -0.1421(9) -0.5097(5) 0.3178(4)
O11A O 0.1421(9) 0.5097(5) -0.3178(4)
O11** O -1.1421(9) 0.4903(5) 0.3178(4)
O12A O 0.2029(8) -0.2878(5) -0.3222(4)
O12* O -1.2029(8) 0.2878(5) 0.3222(4)
O13A O -0.4137(13) 0.3403(9) -0.3857(8)
C1A C -0.0920(12) 0.0075(7) 0.1798(5)
H7A H -0.06430 0.08050 0.12830
C2A C -0.3611(12) 0.0359(7) 0.2136(5)
C3* C -0.7995(12) 0.3077(6) 0.3420(5)
H8* H -0.73670 0.24560 0.29590
C4* C -1.0672(12) 0.3679(7) 0.3265(5)
#END
