
#######################################################################
#
#                 Cambridge Crystallographic Data Centre
#                                CCDC
#
#######################################################################
#
# If this CIF has been generated from an entry in the Cambridge
# Structural Database, then it will include bibliographic, chemical,
# crystal, experimental, refinement or atomic coordinate data resulting
# from the CCDC's data processing and validation procedures.
#
#######################################################################

data_CSD_CIF_QOPPES
_audit_creation_date 2014-08-18
_audit_creation_method CSD-ConQuest-V1
_database_code_CSD QOPPES
_database_code_depnum_ccdc_archive 'CCDC 935147'
_chemical_formula_sum 'C31 H27 Co3 N3 O17'
_chemical_formula_moiety
;
(C31 H17 Co3 N1 O16 2-)n,2(H4 N1 1+),H2 O1
;
_journal_coden_Cambridge 1428
_journal_volume 43
_journal_year 2014
_journal_page_first 146
_journal_name_full 'Catalysis Communications '
loop_
_publ_author_name
"Sha Sha"
"Hua Yang"
"Jun Li"
"Changfu Zhuang"
"Shuang Gao"
"Shuxia Liu"
_chemical_name_systematic
;
catena-[dimmonium 
tris(\m-terephthalato)-(\m-isonicotinato)-formato-tri-cobalt monohydrate]
;
_cell_volume   5431.850
_exptl_crystal_density_diffrn 1.076
_diffrn_ambient_temperature 293
_refine_special_details
;
The structure is disordered.

;
#These two values have been output from a single CSD field.
_refine_ls_R_factor_gt 0.0911
_refine_ls_wR_factor_gt 0.0911
_symmetry_cell_setting monoclinic
_symmetry_space_group_name_H-M 'P 21/c'
_symmetry_Int_Tables_number 14
loop_
_symmetry_equiv_pos_site_id
_symmetry_equiv_pos_as_xyz
1 x,y,z
2 -x,1/2+y,1/2-z
3 -x,-y,-z
4 x,-1/2-y,-1/2+z
_cell_length_a 18.148(4)
_cell_length_b 9.6650(19)
_cell_length_c 30.969(6)
_cell_angle_alpha 90
_cell_angle_beta 90.39(3)
_cell_angle_gamma 90
_cell_formula_units_Z 4
loop_
_atom_type_symbol
_atom_type_radius_bond
C 0.68
H 0.23
Co 1.26
N 0.68
O 0.68
loop_
_atom_site_label
_atom_site_type_symbol
_atom_site_fract_x
_atom_site_fract_y
_atom_site_fract_z
C1 C 0.2607(4) 0.2184(6) 0.2242(2)
C2 C 0.3488(4) 0.9674(7) 0.3218(2)
C3 C 0.5531(4) 1.1918(8) 0.3152(2)
C4 C 0.4196(4) 1.0475(8) 0.3206(2)
C5 C -0.1554(3) 1.1950(7) 0.3185(2)
C6 C 0.3003(4) 0.4457(7) 0.2474(2)
H1 H 0.33150 0.52130 0.24430
C7 C 0.0549(4) 0.9873(8) 0.3156(2)
C8 C -0.0816(4) 1.1194(8) 0.3172(2)
C9 C 0.2465(4) 0.4474(6) 0.2789(2)
C10 C 0.2376(4) 0.5661(7) 0.3087(2)
C11 C 0.1271(4) 0.9134(7) 0.3139(2)
C12 C 0.6249(4) 1.2650(7) 0.3127(2)
C13 C 0.1981(5) 0.3316(7) 0.2824(2)
H2 H 0.16050 0.33210 0.30260
C14 C 0.4445(4) 1.0975(9) 0.2813(2)
H3 H 0.41670 1.08300 0.25630
C15 C -0.0581(4) 1.060(1) 0.2801(2)
H4 H -0.08770 1.06350 0.25550
C16 C 0.3223(5) 0.5949(13) 0.5547(3)
H5 H 0.36200 0.56000 0.57050
C17 C 0.2074(4) 0.2202(7) 0.2559(2)
H6 H 0.17700 0.14350 0.25930
C18 C 0.0112(4) 0.9926(10) 0.2784(2)
H7 H 0.02730 0.95250 0.25290
C19 C 0.3081(4) 0.3328(7) 0.2204(2)
H8 H 0.34490 0.33250 0.19960
C20 C 0.5106(4) 1.1691(9) 0.2790(2)
H9 H 0.52650 1.20220 0.25240
C21 C 0.4613(5) 1.0726(11) 0.3568(2)
H10 H 0.44510 1.03850 0.38320
C22 C -0.0378(4) 1.1137(10) 0.3543(2)
H11 H -0.05370 1.15440 0.37970
C23 C 0.2155(6) 0.7027(13) 0.5078(3)
H12 H 0.17640 0.74110 0.49240
C24 C 0.2096(6) 0.6850(13) 0.5521(3)
H13 H 0.16740 0.71550 0.56610
C25 C 0.0299(4) 1.0469(11) 0.3530(2)
H14 H 0.05880 1.04240 0.37790
C26 C 0.5249(5) 1.1451(10) 0.3557(2)
H15 H 0.55040 1.16440 0.38120
C27 C 0.2669(4) 0.0989(7) 0.1949(2)
C28 C 0.2769(5) 0.6654(9) 0.4867(2)
C29 C 0.2839(7) 0.6897(11) 0.4391(3)
C30 C 0.3299(7) 0.6116(13) 0.5112(3)
H16 H 0.37370 0.58430 0.49830
C31 C 0.9025(8) 1.5255(15) 0.3645(5)
H17 H 0.91180 1.43410 0.35700
Co1 Co 0.24838(4) 0.77783(8) 0.35853(2)
Co2 Co 0.75078(4) 1.40284(8) 0.35836(2)
Co3 Co 0.25145(4) 0.83180(7) 0.25126(2)
N1 N 0.2630(3) 0.6252(7) 0.57475(17)
O1 O 0.3092(2) 0.9690(5) 0.28938(15)
O2 O 0.6560(3) 1.2976(5) 0.34786(15)
O3 O 0.1506(2) 0.8830(5) 0.27787(16)
O4 O 0.3355(3) 0.9023(6) 0.35632(15)
O5 O -0.1925(3) 1.1922(5) 0.28470(16)
O6 O 0.6487(2) 1.2825(5) 0.27541(15)
O7 O 0.1576(3) 0.8866(6) 0.34995(16)
O8 O -0.1722(3) 1.2531(6) 0.35283(15)
O9 O 0.2720(3) 0.6775(5) 0.30146(15)
O10 O 0.2338(3) -0.0133(4) 0.20392(13)
O11 O 0.3019(4) 0.1085(5) 0.16067(18)
O12 O 0.1986(4) 0.5581(6) 0.3409(2)
O13 O 0.2332(4) 0.7526(8) 0.42096(19)
O14 O 0.3353(6) 0.6439(11) 0.4191(3)
O15 O 0.9574(8) 1.5975(19) 0.3588(7)
O16 O 0.8414(4) 1.5382(7) 0.3768(2)
N2 N 0.2689(19) 0.399(2) 0.0840(8)
N3 N 0.491(2) 0.511(5) 0.410(5)
O17 O 0.507(3) 0.712(6) 0.3518(19)
O18 O 0.231(3) 0.241(6) 0.4045(18)
N4? N 0.4656(12) 0.587(4) 0.3708(10)
N5? N 0.245(3) 0.215(4) 0.4305(8)
Co2* Co -0.24922(4) 1.40284(8) 0.35836(2)
Co2A Co 0.24922(4) -0.09716(8) 0.14164(2)
Co2B Co 0.24922(4) 0.59716(8) 0.64164(2)
Co3* Co 0.25145(4) -0.16820(7) 0.25126(2)
Co3A Co -0.25145(4) 1.33180(7) 0.24874(2)
Co3A* Co 0.74855(4) 1.33180(7) 0.24874(2)
N1B N 0.7370(3) 1.3748(7) 0.42525(17)
O5A O 0.1925(3) 0.6922(5) 0.21530(16)
O6A O 0.3513(2) 0.7825(5) 0.22459(15)
O8* O 0.8278(3) 1.2531(6) 0.35283(15)
O10* O 0.2338(3) 0.9867(4) 0.20392(13)
O10A O 0.7662(3) 1.4867(4) 0.29608(13)
O11A O 0.6981(4) 1.6085(5) 0.33933(18)
#END
