
#######################################################################
#
#                 Cambridge Crystallographic Data Centre
#                                CCDC
#
#######################################################################
#
# If this CIF has been generated from an entry in the Cambridge
# Structural Database, then it will include bibliographic, chemical,
# crystal, experimental, refinement or atomic coordinate data resulting
# from the CCDC's data processing and validation procedures.
#
#######################################################################

data_CSD_CIF_QOSJUG
_audit_creation_date 2019-11-18
_audit_creation_method CSD-ConQuest-V1
_database_code_CSD QOSJUG
_database_code_depnum_ccdc_archive 'CCDC 1945188'
_chemical_formula_sum 'C42 H51 N6 O39 Sm3'
_chemical_formula_moiety
;
2(H3 O1 1+),n(C42 H21 N6 O25 Sm3 2-),12(H2 O1)
;
_journal_coden_Cambridge 1133
_journal_volume 31
_journal_year 2020
_journal_page_first 1013
_journal_name_full 'J.Cluster Sci. '
loop_
_publ_author_name
"Yanmei Chen"
"Liangchen Huang"
"Rui Gao"
"Yehui Chen"
"Zhuo Huang"
"Wanju Zhang"
_chemical_name_systematic
;
catena-[bis(oxonium) 
tetrakis(\m-pyridine-2,4-dicarboxylato)-oxonium-bis(pyridine-2,4-dicarboxylato
)-tri-samarium(iii) dodecahydrate]
;
_cell_volume   4687.076
_exptl_crystal_colour 'light yellow'
_exptl_crystal_density_diffrn 2.43
_exptl_crystal_description 'block'
_diffrn_ambient_temperature 296
_diffrn_special_details
;
twin

;
_refine_special_details
;
Disordered solvent water molecules were not modelled and the disordered 
density was taken into account using the SQUEEZE/PLATON procedure.
;
#These two values have been output from a single CSD field.
_refine_ls_R_factor_gt 0.0835
_refine_ls_wR_factor_gt 0.0835
_symmetry_cell_setting tetragonal
_symmetry_space_group_name_H-M 'P 41 21 2'
_symmetry_Int_Tables_number 92
loop_
_symmetry_equiv_pos_site_id
_symmetry_equiv_pos_as_xyz
1 x,y,z
2 -x,-y,1/2+z
3 1/2-y,1/2+x,1/4+z
4 1/2+y,1/2-x,3/4+z
5 1/2-x,1/2+y,1/4-z
6 1/2+x,1/2-y,3/4-z
7 y,x,-z
8 -y,-x,1/2-z
_cell_length_a 9.5069(3)
_cell_length_b 9.5069(3)
_cell_length_c 51.859(4)
_cell_angle_alpha 90
_cell_angle_beta 90
_cell_angle_gamma 90
_cell_formula_units_Z 4
loop_
_atom_type_symbol
_atom_type_radius_bond
C 0.68
H 0.23
N 0.68
O 0.68
Sm 1.98
loop_
_atom_site_label
_atom_site_type_symbol
_atom_site_fract_x
_atom_site_fract_y
_atom_site_fract_z
Sm1 Sm 0.52711(11) 1.52711(11) 0.50000
Sm2 Sm 0.62699(11) 0.60954(11) 0.41317(2)
O1 O 0.618(2) 1.3319(18) 0.4754(3)
O2 O 0.657(2) 1.391(2) 0.4345(4)
O3 O 0.5479(19) 0.7937(18) 0.4914(3)
O4 O 0.6461(18) 0.6613(17) 0.4611(3)
O5 O 0.7918(19) 0.7307(19) 0.3855(3)
O6 O 1.0049(17) 0.7719(18) 0.3708(3)
O7 O 1.405(3) 0.689(3) 0.4309(6)
O8 O 1.362(2) 0.5580(19) 0.4666(3)
O9 O 0.427(4) 0.454(4) 0.4051(7)
O10 O 0.303(5) 0.322(5) 0.3821(8)
O11 O 0.467(4) 0.281(4) 0.2911(7)
O12 O 0.690(4) 0.309(6) 0.2809(8)
O13 O 0.339(3) 1.339(3) 0.50000
N1 N 0.641(3) 0.872(3) 0.4275(5)
N2 N 0.889(2) 0.611(2) 0.4282(4)
N3 N 0.653(4) 0.440(4) 0.3743(4)
C1 C 0.525(4) 0.380(4) 0.3673(6)
C2 C 0.505(3) 0.331(4) 0.3423(7)
H1 H 0.41910 0.29182 0.33755
C3 C 0.613(4) 0.342(4) 0.3243(5)
C4 C 0.741(3) 0.401(4) 0.3314(5)
H2 H 0.81342 0.40745 0.31940
C5 C 0.761(3) 0.450(4) 0.3564(6)
H3 H 0.84652 0.48931 0.36111
C6 C 0.642(3) 1.307(3) 0.4519(4)
C7 C 0.655(4) 0.978(4) 0.4109(7)
H4 H 0.66650 0.95777 0.39349
C8 C 0.653(5) 1.118(5) 0.4189(9)
H5 H 0.66295 1.18996 0.40684
C9 C 0.637(3) 1.149(3) 0.4442(6)
C10 C 0.621(3) 1.043(3) 0.4613(5)
H6 H 0.60997 1.06208 0.47878
C11 C 0.620(3) 0.907(3) 0.4527(5)
C12 C 0.603(3) 0.781(2) 0.4699(4)
C13 C 0.920(2) 0.727(2) 0.3867(4)
C14 C 1.118(2) 0.670(2) 0.4169(4)
H7 H 1.17918 0.70913 0.40496
C15 C 1.173(3) 0.614(3) 0.4402(5)
C16 C 0.986(2) 0.667(2) 0.4120(5)
C17 C 0.934(3) 0.555(3) 0.4502(5)
H8 H 0.86907 0.51363 0.46115
C18 C 1.071(3) 0.556(3) 0.4572(5)
H9 H 1.09831 0.51927 0.47300
C19 C 1.322(3) 0.614(3) 0.4466(5)
C20 C 0.417(5) 0.392(5) 0.3841(8)
C21 C 0.591(4) 0.302(5) 0.2968(5)
O14 O 0.292(4) 0.959(4) 0.4964(7)
H10 H 0.36846 0.96683 0.49000
H11 H 0.30288 0.95443 0.51320
H12 H 0.25952 0.87523 0.49285
H13? H 0.31400 1.32193 0.48460
H14? H 0.26799 1.36795 0.50850
H15? H 0.37087 1.26503 0.50689
Sm2F Sm -0.39046(11) 1.62699(11) 0.58683(2)
O1F O 0.3319(20) 1.6180(18) 0.5246(3)
O2F O 0.391(2) 1.657(2) 0.5655(4)
O3F O -0.2063(19) 1.5479(18) 0.5086(3)
O4F O -0.3387(18) 1.6461(17) 0.5389(3)
O5F O -0.2693(19) 1.7918(19) 0.6145(3)
O6F O -0.2281(17) 2.0049(18) 0.6292(3)
O7F O -0.311(3) 2.405(3) 0.5691(6)
O8F O -0.442(2) 2.3620(19) 0.5334(3)
O9F O -0.546(4) 1.427(4) 0.5949(7)
O10F O -0.678(5) 1.303(5) 0.6179(8)
O11F O -0.719(4) 1.467(4) 0.7089(7)
O12F O -0.691(4) 1.690(6) 0.7191(8)
N1F N -0.128(3) 1.641(3) 0.5725(5)
N2F N -0.389(2) 1.889(2) 0.5718(4)
N3F N -0.560(4) 1.653(4) 0.6257(4)
C1F C -0.620(4) 1.525(4) 0.6327(6)
C2F C -0.669(3) 1.505(4) 0.6577(7)
H1F H -0.70818 1.41910 0.66245
C3F C -0.658(4) 1.613(4) 0.6757(5)
C4F C -0.599(3) 1.741(4) 0.6686(5)
H2F H -0.59255 1.81342 0.68060
C5F C -0.550(3) 1.761(4) 0.6436(6)
H3F H -0.51069 1.84652 0.63889
C6F C 0.307(3) 1.642(3) 0.5481(4)
C7F C -0.022(4) 1.655(4) 0.5891(7)
H4F H -0.04223 1.66650 0.60651
C8F C 0.118(5) 1.653(5) 0.5811(9)
H5F H 0.18996 1.66295 0.59316
C9F C 0.149(3) 1.637(3) 0.5558(6)
C10F C 0.043(3) 1.621(3) 0.5387(5)
H6F H 0.06208 1.60997 0.52122
C11F C -0.093(3) 1.620(3) 0.5473(5)
C12F C -0.219(3) 1.603(2) 0.5301(4)
C13F C -0.273(2) 1.920(2) 0.6133(4)
C14F C -0.330(2) 2.118(2) 0.5831(4)
H7F H -0.29087 2.17918 0.59504
C15F C -0.386(3) 2.173(3) 0.5598(5)
C16F C -0.333(2) 1.986(2) 0.5880(5)
C17F C -0.445(3) 1.934(3) 0.5498(5)
H8F H -0.48637 1.86908 0.53885
C18F C -0.444(3) 2.071(3) 0.5428(5)
H9F H -0.48073 2.09831 0.52700
C19F C -0.386(3) 2.322(3) 0.5534(5)
C20F C -0.608(5) 1.417(5) 0.6159(8)
C21F C -0.698(4) 1.591(5) 0.7032(5)
Sm1* Sm -0.47289(11) 1.52711(11) 0.50000
Sm1** Sm -0.47289(11) 2.52711(11) 0.50000
Sm1*** Sm 0.52711(11) 0.52711(11) 0.50000
Sm1**** Sm 1.52711(11) 0.52711(11) 0.50000
Sm2* Sm 0.62699(11) 1.60954(11) 0.41317(2)
Sm2** Sm 1.62699(11) 0.60954(11) 0.41317(2)
Sm2B Sm -0.10954(11) 2.12699(11) 0.66317(2)
Sm2E Sm 1.12699(11) 0.89046(11) 0.33683(2)
Sm2F* Sm -0.39046(11) 2.62699(11) 0.58683(2)
Sm2F** Sm 0.60954(11) 1.62699(11) 0.58683(2)
O2* O 0.657(2) 0.391(2) 0.4345(4)
O2F* O -0.609(2) 1.657(2) 0.5655(4)
O3* O 0.5479(19) 1.7937(18) 0.4914(3)
O3F* O 0.7937(19) 1.5479(18) 0.5086(3)
O4* O 0.6461(18) 1.6613(17) 0.4611(3)
O4F* O 0.6613(18) 1.6461(17) 0.5389(3)
O6B O -0.2719(17) 1.5049(18) 0.6208(3)
O6E O 0.5049(17) 0.7281(18) 0.3792(3)
O7* O 0.405(3) 0.689(3) 0.4309(6)
O7F* O -0.311(3) 1.405(3) 0.5691(6)
O8* O 0.362(2) 1.5580(19) 0.4666(3)
O8F* O 0.558(2) 1.3620(19) 0.5334(3)
#END
