
#######################################################################
#
#                 Cambridge Crystallographic Data Centre
#                                CCDC
#
#######################################################################
#
# If this CIF has been generated from an entry in the Cambridge
# Structural Database, then it will include bibliographic, chemical,
# crystal, experimental, refinement or atomic coordinate data resulting
# from the CCDC's data processing and validation procedures.
#
#######################################################################

data_CSD_CIF_QOSXUR
_audit_creation_date 2001-08-17
_audit_creation_method CSD-ConQuest-V1
_database_code_CSD QOSXUR
_database_code_depnum_ccdc_archive 'CCDC 165548'
_chemical_formula_sum 'C56 H40 Co1 N12 P2'
_chemical_formula_moiety
;
(C24 H20 P1 1+)2n,n(C8 Co1 N12 2-)
;
_journal_coden_Cambridge 9
_journal_volume 40
_journal_year 2001
_journal_page_first 2578
_journal_name_full 'Inorg.Chem. '
loop_
_publ_author_name
"J.W.Raebiger"
"J.L.Manson"
"R.D.Sommer"
"U.Geiser"
"A.L.Rheingold"
"J.S.Miller"
_chemical_name_systematic
;
catena(bis(Tetraphenylphosphonium) 
bis((\m~2~-dicyanamide)-(dicyanamide))-cobalt(ii))
;
_cell_volume   4835.729
_exptl_crystal_colour 'pink'
_exptl_crystal_density_diffrn 1.376
_exptl_crystal_description 'block'
_diffrn_ambient_temperature 173
#These two values have been output from a single CSD field.
_refine_ls_R_factor_gt 0.0323
_refine_ls_wR_factor_gt 0.0323
_symmetry_cell_setting monoclinic
_symmetry_space_group_name_H-M 'C 2/c'
_symmetry_Int_Tables_number 15
loop_
_symmetry_equiv_pos_site_id
_symmetry_equiv_pos_as_xyz
1 x,y,z
2 1/2+x,1/2+y,z
3 x,-y,1/2+z
4 1/2+x,1/2-y,1/2+z
5 -x,-y,-z
6 -1/2-x,-1/2-y,-z
7 -x,y,-1/2-z
8 -1/2-x,-1/2+y,-1/2-z
_cell_length_a 23.3789(10)
_cell_length_b 7.5684(3)
_cell_length_c 28.3778(12)
_cell_angle_alpha 90
_cell_angle_beta 105.621(1)
_cell_angle_gamma 90
_cell_formula_units_Z 4
loop_
_atom_type_symbol
_atom_type_radius_bond
C 0.68
H 0.23
Co 1.33
N 0.68
P 1.05
loop_
_atom_site_label
_atom_site_type_symbol
_atom_site_fract_x
_atom_site_fract_y
_atom_site_fract_z
Co1 Co 0.50000 0.22199(3) 0.25000
N1 N 0.43429(6) 0.42823(16) 0.22825(5)
N2 N 0.50953(6) 0.22697(18) 0.17910(5)
N3 N 0.43694(6) 1.00871(16) 0.22668(5)
N4 N 0.39605(7) 0.71889(18) 0.19613(7)
N5 N 0.48900(7) 0.19954(19) 0.09009(5)
N6 N 0.41557(7) 0.3586(2) 0.02601(6)
C1 C 0.41867(7) 0.56838(19) 0.21498(6)
C2 C 0.49752(7) 0.22216(19) 0.13699(6)
C3 C 0.42005(6) 0.86835(19) 0.21414(6)
C4 C 0.44916(8) 0.2903(2) 0.05786(6)
C5 C 0.15442(6) 0.81444(19) 0.05355(6)
C6 C 0.16531(8) 0.7247(2) -0.02464(6)
H1 H 0.18260 0.74090 -0.05100
C7 C 0.12624(8) 0.5875(2) -0.02595(7)
H2 H 0.11680 0.50910 -0.05310
C8 C 0.17961(7) 0.8398(2) 0.01496(6)
H3 H 0.20640 0.93490 0.01560
C9 C 0.11489(7) 0.6753(2) 0.05228(6)
H4 H 0.09790 0.65760 0.07880
C10 C 0.10058(8) 0.5635(2) 0.01242(7)
H5 H 0.07310 0.47000 0.01120
C11 C 0.19336(7) 0.80431(19) 0.15787(6)
C12 C 0.16015(7) 0.7966(2) 0.19205(6)
H6 H 0.12820 0.87660 0.18990
C13 C 0.23995(7) 0.6848(2) 0.16098(6)
H7 H 0.26220 0.68860 0.13750
C14 C 0.25367(8) 0.5615(2) 0.19820(7)
H8 H 0.28570 0.48160 0.20060
C15 C 0.17408(7) 0.6717(2) 0.22904(6)
H9 H 0.15170 0.66630 0.25240
C16 C 0.22051(8) 0.5545(2) 0.23204(6)
H10 H 0.22970 0.46890 0.25740
C17 C 0.11244(7) 1.08710(19) 0.11220(6)
C18 C 0.05663(7) 1.0733(2) 0.07959(6)
H11 H 0.05000 0.99550 0.05240
C19 C 0.01995(8) 1.2887(2) 0.12632(8)
H12 H -0.01220 1.35550 0.13150
C20 C 0.07616(9) 1.3066(2) 0.15824(7)
H13 H 0.08270 1.38770 0.18470
C21 C 0.01052(8) 1.1751(2) 0.08732(8)
H14 H -0.02800 1.16580 0.06530
C22 C 0.12262(8) 1.2062(2) 0.15135(7)
H15 H 0.16120 1.21790 0.17300
C23 C 0.23247(7) 1.10027(19) 0.10431(6)
C24 C 0.21731(7) 1.2405(2) 0.07118(6)
H16 H 0.17790 1.25200 0.05100
C25 C 0.29036(7) 1.0836(2) 0.13386(6)
H17 H 0.30080 0.98810 0.15630
C26 C 0.33280(7) 1.2077(2) 0.13034(6)
H18 H 0.37230 1.19720 0.15050
C27 C 0.26023(8) 1.3621(2) 0.06810(7)
H19 H 0.25020 1.45730 0.04550
C28 C 0.31774(7) 1.3463(2) 0.09765(6)
H20 H 0.34690 1.43100 0.09550
P1 P 0.173200(16) 0.95256(5) 0.106730(14)
N1F N 0.56571(6) 0.42823(16) 0.27175(5)
N3F N 0.56306(6) 1.00871(16) 0.27332(5)
N4F N 0.60395(7) 0.71889(18) 0.30387(7)
C1F C 0.58133(7) 0.56838(19) 0.28502(6)
C3F C 0.57995(6) 0.86835(19) 0.28586(6)
N2F N 0.49047(6) 0.22697(18) 0.32090(5)
N5F N 0.51100(7) 0.19954(19) 0.40991(5)
N6F N 0.58443(7) 0.3586(2) 0.47399(6)
C2F C 0.50248(7) 0.22216(19) 0.36301(6)
C4F C 0.55084(8) 0.2903(2) 0.44214(6)
N3* N 0.43694(6) 0.00871(16) 0.22668(5)
N3F* N 0.56306(6) 0.00871(16) 0.27332(5)
Co1* Co 0.50000 1.22199(3) 0.25000
#END
