
#######################################################################
#
#                 Cambridge Crystallographic Data Centre
#                                CCDC
#
#######################################################################
#
# If this CIF has been generated from an entry in the Cambridge
# Structural Database, then it will include bibliographic, chemical,
# crystal, experimental, refinement or atomic coordinate data resulting
# from the CCDC's data processing and validation procedures.
#
#######################################################################

data_CSD_CIF_QOSXUR01
_audit_creation_date 2003-03-06
_audit_creation_method CSD-ConQuest-V1
_database_code_CSD QOSXUR01
_database_code_depnum_ccdc_archive 'CCDC 141386'
_chemical_formula_sum 'C56 H40 Co1 N12 P2'
_chemical_formula_moiety
;
(C24 H20 P1 1+)2n,n(C8 Co1 N12 2-)
;
_journal_coden_Cambridge 119
_journal_volume 570
_journal_year 2001
_journal_page_first 159
_journal_name_full 'J.Mol.Struct. '
loop_
_publ_author_name
"L.Jager"
"C.Wagner"
"M.Korabik"
"A.Zygmunt"
"J.Mrozinski"
_chemical_name_systematic
;
catena-(bis(Tetraphenylphosphonium) 
bis((\m~2~-dicyanamide)-(dicyanamide))-cobalt(ii))
;
_cell_volume   4885.610
_exptl_crystal_colour 'pink'
_exptl_crystal_density_diffrn 1.362
_exptl_crystal_preparation 'acetone'
_diffrn_ambient_temperature 220
#These two values have been output from a single CSD field.
_refine_ls_R_factor_gt 0.0464
_refine_ls_wR_factor_gt 0.0464
_symmetry_cell_setting monoclinic
_symmetry_space_group_name_H-M 'C 2/c'
_symmetry_Int_Tables_number 15
loop_
_symmetry_equiv_pos_site_id
_symmetry_equiv_pos_as_xyz
1 x,y,z
2 1/2+x,1/2+y,z
3 x,-y,1/2+z
4 1/2+x,1/2-y,1/2+z
5 -x,-y,-z
6 -1/2-x,-1/2-y,-z
7 -x,y,-1/2-z
8 -1/2-x,-1/2+y,-1/2-z
_cell_length_a 23.430(6)
_cell_length_b 7.5891(12)
_cell_length_c 28.534(4)
_cell_angle_alpha 90
_cell_angle_beta 105.65(2)
_cell_angle_gamma 90
_cell_formula_units_Z 4
loop_
_atom_type_symbol
_atom_type_radius_bond
C 0.68
H 0.23
Co 1.33
N 0.68
P 1.05
loop_
_atom_site_label
_atom_site_type_symbol
_atom_site_fract_x
_atom_site_fract_y
_atom_site_fract_z
C1 C -0.07977(12) -0.1319(4) 0.71475(11)
C2 C -0.08110(12) -0.4310(4) 0.71558(12)
C3 C -0.00252(13) 0.2236(4) 0.63724(11)
C4 C -0.05046(15) 0.2908(4) 0.55838(12)
C5 C 0.34561(12) 0.1864(4) 0.44642(10)
C6 C 0.32046(15) 0.1614(4) 0.48479(12)
H1 H 0.2932(19) 0.063(5) 0.4850(15)
C7 C 0.33498(16) 0.2755(4) 0.52430(13)
H2 H 0.3172(19) 0.251(5) 0.5503(16)
C8 C 0.37356(16) 0.4119(5) 0.52564(13)
H3 H 0.3821(19) 0.500(5) 0.5521(16)
C9 C 0.39920(16) 0.4372(5) 0.48722(14)
H4 H 0.428(2) 0.527(6) 0.4891(16)
C10 C 0.38493(14) 0.3244(4) 0.44739(13)
H5 H 0.402(2) 0.338(5) 0.4215(16)
C11 C 0.30660(12) 0.1968(4) 0.34211(10)
C12 C 0.26014(14) 0.3157(4) 0.33905(13)
H6 H 0.2375(19) 0.310(5) 0.3606(15)
C13 C 0.24660(15) 0.4386(4) 0.30193(13)
H7 H 0.2158(19) 0.516(5) 0.2989(14)
C14 C 0.27944(15) 0.4450(4) 0.26834(13)
H8 H 0.2706(15) 0.536(4) 0.2432(13)
C15 C 0.32554(14) 0.3287(4) 0.27145(13)
H9 H 0.3496(18) 0.334(5) 0.2488(14)
C16 C 0.33981(12) 0.2034(4) 0.30826(11)
H10 H 0.3745(17) 0.126(4) 0.3099(12)
C17 C 0.38712(13) -0.0867(4) 0.38793(11)
C18 C 0.37700(16) -0.2060(5) 0.34914(13)
H11 H 0.341(2) -0.213(5) 0.3259(15)
C19 C 0.42347(19) -0.3060(5) 0.34225(15)
H12 H 0.414(2) -0.388(6) 0.3139(17)
C20 C 0.47968(17) -0.2890(4) 0.37445(17)
H13 H 0.509(2) -0.360(6) 0.3692(17)
C21 C 0.48857(16) -0.1758(4) 0.41327(16)
H14 H 0.524(3) -0.170(6) 0.4350(18)
C22 C 0.44253(14) -0.0737(4) 0.42045(13)
H15 H 0.4465(18) -0.008(5) 0.4491(15)
C23 C 0.26731(13) -0.0982(4) 0.39565(10)
C24 C 0.20998(13) -0.0825(4) 0.36614(11)
H16 H 0.2005(16) 0.011(5) 0.3433(14)
C25 C 0.16760(13) -0.2061(5) 0.36942(12)
H17 H 0.1287(17) -0.194(4) 0.3499(13)
C26 C 0.18208(15) -0.3440(4) 0.40233(14)
H18 H 0.151(2) -0.426(6) 0.4073(16)
C27 C 0.23942(16) -0.3596(4) 0.43195(13)
H19 H 0.2510(17) -0.457(5) 0.4542(14)
C28 C 0.28236(14) -0.2385(4) 0.42904(12)
H20 H 0.321(2) -0.242(5) 0.4504(16)
N1 N -0.10391(14) -0.2805(4) 0.69706(13)
N2 N -0.06317(11) 0.0084(3) 0.72705(10)
N3 N -0.06573(12) -0.5713(3) 0.72859(10)
N4 N -0.01069(15) 0.2016(4) 0.59085(11)
N5 N 0.00930(12) 0.2270(3) 0.67915(11)
N6 N -0.08407(16) 0.3585(4) 0.52670(11)
Co1 Co 0.00000 0.22249(6) 0.75000
P1 P 0.32667(3) 0.04813(9) 0.39327(3)
C1F C 0.07977(12) -0.1319(4) 0.78525(11)
C2F C 0.08110(12) -0.4310(4) 0.78442(12)
N1F N 0.10391(14) -0.2805(4) 0.80294(13)
N2F N 0.06317(11) 0.0084(3) 0.77295(10)
N3F N 0.06573(12) -0.5713(3) 0.77141(10)
C3F C 0.00252(13) 0.2236(4) 0.86276(11)
C4F C 0.05046(15) 0.2908(4) 0.94162(12)
N4F N 0.01069(15) 0.2016(4) 0.90915(11)
N5F N -0.00930(12) 0.2270(3) 0.82085(11)
N6F N 0.08407(16) 0.3585(4) 0.97330(11)
Co1* Co 0.00000 -0.77751(6) 0.75000
N3* N -0.06573(12) 0.4287(3) 0.72859(10)
N3F* N 0.06573(12) 0.4287(3) 0.77141(10)
#END
