
#######################################################################
#
#                 Cambridge Crystallographic Data Centre
#                                CCDC
#
#######################################################################
#
# If this CIF has been generated from an entry in the Cambridge
# Structural Database, then it will include bibliographic, chemical,
# crystal, experimental, refinement or atomic coordinate data resulting
# from the CCDC's data processing and validation procedures.
#
#######################################################################

data_CSD_CIF_QOSYAY
_audit_creation_date 2001-08-17
_audit_creation_method CSD-ConQuest-V1
_database_code_CSD QOSYAY
_database_code_depnum_ccdc_archive 'CCDC 165549'
_chemical_formula_sum 'C30 H20 Co1 N9 P1'
_chemical_formula_moiety
;
(C24 H20 P1 1+)n,n(C6 Co1 N9 1-)
;
_journal_coden_Cambridge 9
_journal_volume 40
_journal_year 2001
_journal_page_first 2578
_journal_name_full 'Inorg.Chem. '
loop_
_publ_author_name
"J.W.Raebiger"
"J.L.Manson"
"R.D.Sommer"
"U.Geiser"
"A.L.Rheingold"
"J.S.Miller"
_chemical_name_systematic
;
catena((Tetraphenylphosphonium) 
bis((\m~2~-dicyanamide-N,N')-(dicyanamide-N))-cobalt(ii))
;
_cell_volume   1389.061
_exptl_crystal_colour 'pink'
_exptl_crystal_density_diffrn 1.426
_exptl_special_details
;
isostructural with the manganese analogue

;
_exptl_crystal_description 'block'
_diffrn_ambient_temperature 173
_refine_special_details
;
One ligand has imposed disorder.

;
#These two values have been output from a single CSD field.
_refine_ls_R_factor_gt 0.0533
_refine_ls_wR_factor_gt 0.0533
_symmetry_cell_setting monoclinic
_symmetry_space_group_name_H-M 'P 2/n'
_symmetry_Int_Tables_number 13
loop_
_symmetry_equiv_pos_site_id
_symmetry_equiv_pos_as_xyz
1 x,y,z
2 1/2+x,-y,1/2+z
3 -x,-y,-z
4 -1/2-x,y,-1/2-z
_cell_length_a 13.4354(10)
_cell_length_b 7.4426(5)
_cell_length_c 14.1556(10)
_cell_angle_alpha 90
_cell_angle_beta 101.087(1)
_cell_angle_gamma 90
_cell_formula_units_Z 2
loop_
_atom_type_symbol
_atom_type_radius_bond
C 0.68
H 0.23
Co 1.33
N 0.68
P 1.05
loop_
_atom_site_label
_atom_site_type_symbol
_atom_site_fract_x
_atom_site_fract_y
_atom_site_fract_z
Co1 Co 0.25000 0.45689(6) 0.25000
N1 N 0.3140(2) 0.2463(3) 0.18064(17)
N2 N 0.3504(2) -0.0438(3) 0.11263(18)
N3 N 0.3164(2) -0.3363(3) 0.18049(19)
N4 N 0.1225(2) 0.4613(3) 0.13147(19)
N5 N -0.0560(4) 0.4718(8) 0.0422(4)
C1 C 0.3290(2) 0.1067(3) 0.15150(19)
C2 C 0.3303(2) -0.1964(3) 0.1522(2)
C3 C 0.0388(6) 0.4664(8) 0.0870(4)
C4 C 0.6746(2) 0.4375(4) 0.1653(2)
C5 C 0.6754(2) 0.4321(4) 0.0680(2)
H1 H 0.71050 0.33880 0.04220
C6 C 0.6246(2) 0.5641(4) 0.0078(2)
H2 H 0.62480 0.56060 -0.05920
C7 C 0.5739(2) 0.7001(4) 0.0449(2)
H3 H 0.53980 0.79020 0.00340
C8 C 0.5724(2) 0.7060(4) 0.1429(2)
H4 H 0.53690 0.79940 0.16800
C9 C 0.6225(2) 0.5765(4) 0.2032(2)
H5 H 0.62200 0.58060 0.27020
C10 C 0.8279(2) 0.1481(4) 0.1912(2)
C11 C 0.7811(2) 0.0100(4) 0.1321(2)
H6 H 0.70990 -0.00730 0.12420
C12 C 0.8376(2) -0.1012(4) 0.0851(2)
H7 H 0.80550 -0.19510 0.04500
C13 C 0.9414(2) -0.0760(4) 0.0966(2)
H8 H 0.98030 -0.15260 0.06410
C14 C 0.9883(2) 0.0598(4) 0.1548(2)
H9 H 1.05960 0.07630 0.16240
C15 C 0.9319(2) 0.1731(4) 0.2026(2)
H10 H 0.96430 0.26670 0.24270
C16? C 0.0890(6) 0.4928(7) 0.0500(5)
P1 P 0.75000 0.28928(13) 0.25000
C4C C 0.8254(2) 0.4375(4) 0.3347(2)
C5C C 0.8246(2) 0.4321(4) 0.4320(2)
H1C H 0.78950 0.33880 0.45780
C6C C 0.8754(2) 0.5641(4) 0.4922(2)
H2C H 0.87520 0.56060 0.55920
C7C C 0.9261(2) 0.7001(4) 0.4551(2)
H3C H 0.96020 0.79020 0.49660
C8C C 0.9276(2) 0.7060(4) 0.3571(2)
H4C H 0.96310 0.79940 0.33200
C9C C 0.8775(2) 0.5765(4) 0.2968(2)
H5C H 0.87800 0.58060 0.22980
C10C C 0.6721(2) 0.1481(4) 0.3088(2)
C11C C 0.7189(2) 0.0100(4) 0.3679(2)
H6C H 0.79010 -0.00730 0.37580
C12C C 0.6624(2) -0.1012(4) 0.4149(2)
H7C H 0.69450 -0.19510 0.45500
C13C C 0.5586(2) -0.0760(4) 0.4034(2)
H8C H 0.51970 -0.15260 0.43590
C14C C 0.5117(2) 0.0598(4) 0.3452(2)
H9C H 0.44040 0.07630 0.33760
C15C C 0.5681(2) 0.1731(4) 0.2974(2)
H10C H 0.53570 0.26670 0.25730
N1C N 0.1860(2) 0.2463(3) 0.31936(17)
N2C N 0.1496(2) -0.0438(3) 0.38737(18)
N3C N 0.1836(2) -0.3363(3) 0.31951(19)
C1C C 0.1710(2) 0.1067(3) 0.34850(19)
C2C C 0.1697(2) -0.1964(3) 0.3478(2)
N4C N 0.3775(2) 0.4613(3) 0.36853(19)
N5C N 0.5560(4) 0.4718(8) 0.4578(4)
C3C C 0.4612(6) 0.4664(8) 0.4130(4)
N3* N 0.3164(2) 0.6637(3) 0.18049(19)
N3C* N 0.1836(2) 0.6637(3) 0.31951(19)
Co1* Co 0.25000 -0.54311(6) 0.25000
#END
