
#######################################################################
#
#                 Cambridge Crystallographic Data Centre
#                                CCDC
#
#######################################################################
#
# If this CIF has been generated from an entry in the Cambridge
# Structural Database, then it will include bibliographic, chemical,
# crystal, experimental, refinement or atomic coordinate data resulting
# from the CCDC's data processing and validation procedures.
#
#######################################################################

data_CSD_CIF_QOSZIH
_audit_creation_date 2001-08-17
_audit_creation_method CSD-ConQuest-V1
_database_code_CSD QOSZIH
_database_code_depnum_ccdc_archive 'CCDC 165556'
_chemical_formula_sum 'C30 H30 N6 O16 P4 V2'
_chemical_formula_moiety
;
(C10 H10 N2 2+)n,n(C20 H20 N4 O16 P4 V2 2-)
;
_journal_coden_Cambridge 9
_journal_volume 40
_journal_year 2001
_journal_page_first 2625
_journal_name_full 'Inorg.Chem. '
loop_
_publ_author_name
"Ching-Hui Huang"
"Li-Hsun Huang"
"Kwang-Hwa Lii"
_chemical_name_systematic
;
catena-(4,4'-Bipyridinium 
bis(\m~2~-4,4'-bipyridine-N,N')-tetrakis(\m~2~-hydrogenphosphato-O,O')-di-vana
dium)
;
_cell_volume    898.225
_exptl_crystal_colour 'green'
_exptl_crystal_density_diffrn 1.768
_exptl_crystal_description 'plate'
_diffrn_ambient_temperature ?
_diffrn_special_details
;
The study was carried out at room temperature,in the range 283-303K

;
#These two values have been output from a single CSD field.
_refine_ls_R_factor_gt 0.0449
_refine_ls_wR_factor_gt 0.0449
_symmetry_cell_setting monoclinic
_symmetry_space_group_name_H-M 'P 2'
_symmetry_Int_Tables_number 3
loop_
_symmetry_equiv_pos_site_id
_symmetry_equiv_pos_as_xyz
1 x,y,z
2 -x,y,-z
_cell_length_a 8.1434(9)
_cell_length_b 11.4343(12)
_cell_length_c 10.0905(11)
_cell_angle_alpha 90
_cell_angle_beta 107.060(2)
_cell_angle_gamma 90
_cell_formula_units_Z 1
loop_
_atom_type_symbol
_atom_type_radius_bond
C 0.68
H 0.23
N 0.68
O 0.68
P 1.05
V 1.33
loop_
_atom_site_label
_atom_site_type_symbol
_atom_site_fract_x
_atom_site_fract_y
_atom_site_fract_z
V1 V 1.00000 0.55888(9) 0.50000
V2 V 1.00000 0.62928(9) 0.00000
P1 P 0.72026(14) 0.60465(12) 0.18604(12)
P2 P 0.7161(2) 0.58921(12) 0.68200(13)
O1 O 0.5713(5) 0.5190(3) 0.1266(3)
O2 O 0.8042(4) 0.6372(4) 0.0775(3)
O3 O 0.8420(4) 0.5522(4) 0.3132(3)
O4 O 0.6422(5) 0.7217(3) 0.2241(4)
O5 O 0.8368(4) 0.6369(3) 0.8157(3)
O6 O 0.5742(5) 0.6835(4) 0.6252(4)
O7 O 0.8050(4) 0.5578(4) 0.5752(3)
O8 O 0.6293(5) 0.4740(4) 0.7101(4)
N1 N 1.00000 0.7482(6) 0.50000
N2 N 1.00000 1.3715(6) 0.50000
N3 N 1.00000 0.8181(6) 0.00000
N4 N 1.00000 1.4386(6) 0.00000
N5 N 0.6134(6) 1.1135(5) 1.1832(5)
C1 C 0.9815(6) 0.8099(4) 0.6076(4)
C2 C 0.9800(6) 0.9312(4) 0.6120(4)
C3 C 1.00000 0.9977(7) 0.50000
C4 C 1.00000 1.1218(9) 0.50000
C5 C 0.9581(7) 1.3097(4) 0.5986(5)
C6 C 0.9586(7) 1.1886(4) 0.6032(5)
C7 C 0.8528(6) 0.8784(4) -0.0297(5)
C8 C 0.8477(6) 0.9980(4) -0.0288(5)
C9 C 1.00000 1.0612(6) 0.00000
C10 C 1.00000 1.1950(8) 0.00000
C11 C 0.8610(6) 1.3766(4) 0.0041(5)
C12 C 0.8564(6) 1.2562(4) 0.0046(5)
C13 C 0.5955(8) 1.0133(6) 1.2459(7)
C14 C 0.5484(8) 1.0072(5) 1.3669(7)
C15 C 0.5210(6) 1.1099(5) 1.4327(5)
C16 C 0.5401(9) 1.2142(6) 1.3668(7)
C17 C 0.5838(9) 1.2101(5) 1.2436(7)
H1 H 0.56720 0.70570 0.27700
H2 H 0.56890 0.48360 0.77720
H3 H 0.95310 0.76950 0.67830
H4 H 0.95490 0.96090 0.69830
H5 H 0.94070 1.34080 0.67830
H6 H 0.86530 1.13870 0.63780
H7 H 0.75010 0.82790 -0.04250
H8 H 0.75610 1.04090 -0.02240
H9 H 0.75570 1.42100 -0.00240
H10 H 0.74730 1.21590 -0.00240
H11 H 0.54240 0.92110 1.39690
H12 H 0.50620 1.28090 1.42330
H13 H 0.60220 1.27640 1.19720
C2A C 1.0200(6) 0.9312(4) 0.3880(4)
C1A C 1.0185(6) 0.8099(4) 0.3924(4)
H3A H 1.04690 0.76950 0.32170
H4A H 1.04510 0.96090 0.30170
C5A C 1.0419(7) 1.3097(4) 0.4014(5)
C6A C 1.0414(7) 1.1886(4) 0.3968(5)
H6A H 1.13470 1.13870 0.36220
H5A H 1.05930 1.34080 0.32170
C8A C 1.1523(6) 0.9980(4) 0.0288(5)
C7A C 1.1472(6) 0.8784(4) 0.0297(5)
H7A H 1.24990 0.82790 0.04250
H8A H 1.24390 1.04090 0.02240
C11A C 1.1390(6) 1.3766(4) -0.0041(5)
C12A C 1.1436(6) 1.2562(4) -0.0046(5)
H10A H 1.25270 1.21590 0.00240
H9A H 1.24430 1.42100 0.00240
C15A C 0.4790(6) 1.1099(5) 1.5673(5)
C14A C 0.4516(8) 1.0072(5) 1.6331(7)
C13A C 0.4045(8) 1.0133(6) 1.7541(7)
N5A N 0.3866(6) 1.1135(5) 1.8168(5)
C17A C 0.4162(9) 1.2101(5) 1.7564(7)
C16A C 0.4599(9) 1.2142(6) 1.6332(7)
H12A H 0.49380 1.28090 1.57670
H13A H 0.39780 1.27640 1.80280
H11A H 0.45760 0.92110 1.60310
P1A P 1.27974(14) 0.60465(12) 0.81396(12)
O1A O 1.4287(5) 0.5190(3) 0.8734(3)
O2A O 1.1958(4) 0.6372(4) 0.9225(3)
O3A O 1.1580(4) 0.5522(4) 0.6868(3)
O4A O 1.3578(5) 0.7217(3) 0.7759(4)
H1A H 1.43280 0.70570 0.72300
P2A P 1.2839(2) 0.58921(12) 0.31800(13)
O5A O 1.1632(4) 0.6369(3) 0.1843(3)
O6A O 1.4258(5) 0.6835(4) 0.3748(4)
O7A O 1.1950(4) 0.5578(4) 0.4248(3)
O8A O 1.3707(5) 0.4740(4) 0.2899(4)
H2A H 1.43110 0.48360 0.22280
N2* N 1.00000 0.3715(6) 0.50000
O2A* O 1.1958(4) 0.6372(4) -0.0775(3)
O5* O 0.8368(4) 0.6369(3) -0.1843(3)
N4* N 1.00000 0.4386(6) 0.00000
V2* V 1.00000 0.62928(9) 1.00000
V1* V 1.00000 1.55888(9) 0.50000
V2** V 1.00000 1.62928(9) 0.00000
#END
