
#######################################################################
#
#                 Cambridge Crystallographic Data Centre
#                                CCDC
#
#######################################################################
#
# If this CIF has been generated from an entry in the Cambridge
# Structural Database, then it will include bibliographic, chemical,
# crystal, experimental, refinement or atomic coordinate data resulting
# from the CCDC's data processing and validation procedures.
#
#######################################################################

data_CSD_CIF_QOTBOT
_audit_creation_date 2019-11-18
_audit_creation_method CSD-ConQuest-V1
_database_code_CSD QOTBOT
_database_code_depnum_ccdc_archive 'CCDC 1522377'
_chemical_formula_sum 'C156 H194 Ca5 N28 O40'
_chemical_formula_moiety
;
2(C2 H8 N1 1+),n(C112 H84 Ca5 N16 O28 2-),10(C4 H9 N1 O1),2(H2 O1)
;
_journal_coden_Cambridge 154
_journal_volume 72
_journal_year 2019
_journal_page_first 910
_journal_name_full 'Aust.J.Chem. '
loop_
_publ_author_name
"Min Chen"
"Wen-Ming Xu"
_chemical_name_systematic
;
catena-[bis(Dimethylammonium) 
tetrakis(\m-4,4',4''-(1,3,5-triazine-2,4,6-triyl)tribenzoato)-tetrakis(N,N-dim
ethylacetamide)-penta-calcium(ii) N,N-dimethylacetamide solvate dihydrate]
;
_cell_volume   4073.866
_exptl_crystal_description 'prism'
_diffrn_ambient_temperature 294
_refine_special_details
;
The MASK/OLEX2 program has been used to model some disordered solvent.

;
#These two values have been output from a single CSD field.
_refine_ls_R_factor_gt 0.0672
_refine_ls_wR_factor_gt 0.0672
_symmetry_cell_setting triclinic
_symmetry_space_group_name_H-M 'P -1'
_symmetry_Int_Tables_number 2
loop_
_symmetry_equiv_pos_site_id
_symmetry_equiv_pos_as_xyz
1 x,y,z
2 -x,-y,-z
_cell_length_a 17.0982(5)
_cell_length_b 17.2327(5)
_cell_length_c 17.9411(3)
_cell_angle_alpha 93.378(2)
_cell_angle_beta 113.121(2)
_cell_angle_gamma 118.414(3)
_cell_formula_units_Z 1
loop_
_atom_type_symbol
_atom_type_radius_bond
C 0.68
H 0.23
Ca 1.76
N 0.68
O 0.68
loop_
_atom_site_label
_atom_site_type_symbol
_atom_site_fract_x
_atom_site_fract_y
_atom_site_fract_z
C1 C 0.0576(3) 0.5323(2) 0.2115(2)
C2 C 0.1595(3) 0.6162(2) 0.2738(2)
C3 C 0.1837(3) 0.6467(3) 0.3581(2)
H1 H 0.13580 0.61600 0.37590
C4 C 0.2780(3) 0.7219(3) 0.4148(2)
H2 H 0.29350 0.74100 0.47110
C5 C 0.3505(3) 0.7698(2) 0.3902(2)
C6 C 0.3260(3) 0.7392(3) 0.3062(2)
H3 H 0.37350 0.77010 0.28810
C7 C 0.2315(3) 0.6633(3) 0.2495(2)
H4 H 0.21620 0.64360 0.19350
C8 C 0.8592(3) 1.1987(3) 0.3418(2)
C9 C 0.7953(3) 1.1356(2) 0.3767(2)
C10 C 0.7064(3) 1.0525(3) 0.3251(2)
H5 H 0.68680 1.03290 0.26780
C11 C 0.6459(3) 0.9977(3) 0.3572(2)
H6 H 0.58680 0.94090 0.32180
C12 C 0.6724(3) 1.0267(2) 0.44240(19)
C13 C 0.7619(3) 1.1093(3) 0.4943(2)
H7 H 0.78150 1.12880 0.55170
C14 C 0.8229(3) 1.1635(3) 0.4621(2)
H8 H 0.88330 1.21930 0.49800
C15 C 0.6802(2) 1.0718(2) 0.93715(17)
C16 C 0.6490(2) 1.0418(2) 0.84421(17)
C17 C 0.7176(3) 1.0849(3) 0.8148(2)
H9 H 0.78330 1.13350 0.85290
C18 C 0.6905(3) 1.0573(3) 0.7301(2)
H10 H 0.73730 1.08810 0.71140
C19 C 0.5934(2) 0.9838(2) 0.67294(18)
C20 C 0.5237(2) 0.9406(2) 0.70207(19)
H11 H 0.45800 0.89200 0.66400
C21 C 0.5510(2) 0.9687(2) 0.78613(19)
H12 H 0.50370 0.93890 0.80470
C22 C 0.4510(2) 0.8516(2) 0.45033(19)
C23 C 0.6031(2) 0.9710(2) 0.47518(18)
C24 C 0.5646(2) 0.9524(2) 0.58205(18)
C25 C 0.6384(3) 0.9203(2) 1.1147(2)
C26 C 0.5967(2) 0.8223(2) 1.1198(2)
C27 C 0.5044(3) 0.7737(2) 1.1196(3)
H13 H 0.46890 0.80160 1.11730
C28 C 0.4655(3) 0.6840(2) 1.1228(3)
H14 H 0.40350 0.65180 1.12230
C29 C 0.5168(2) 0.6409(2) 1.1267(3)
C30 C 0.6080(3) 0.6891(2) 1.1262(3)
H15 H 0.64300 0.66080 1.12720
C31 C 0.6475(3) 0.7798(3) 1.1241(3)
H16 H 0.71010 0.81240 1.12560
C32 C 0.68538(18) 0.23006(17) 1.12526(16)
C33 C 0.63278(19) 0.27922(18) 1.12725(18)
C34 C 0.6851(2) 0.3752(2) 1.1486(3)
H17 H 0.75310 0.40930 1.16250
C35 C 0.6367(2) 0.4203(2) 1.1494(3)
H18 H 0.67210 0.48460 1.16350
C36 C 0.5349(2) 0.3697(2) 1.1290(2)
C37 C 0.4836(2) 0.2742(2) 1.1102(2)
H19 H 0.41680 0.24040 1.09970
C38 C 0.5314(2) 0.22887(19) 1.1071(2)
H20 H 0.49550 0.16450 1.09150
C39 C -0.0215(2) 0.2208(2) 1.1530(2)
C40 C 0.0776(2) 0.2722(2) 1.1510(2)
C41 C 0.1147(3) 0.2243(2) 1.1289(3)
H21 H 0.07870 0.16010 1.11560
C42 C 0.2048(3) 0.2707(3) 1.1262(4)
H22 H 0.23070 0.23790 1.11380
C43 C 0.2569(2) 0.3658(2) 1.1417(3)
C44 C 0.2195(2) 0.4136(2) 1.1627(3)
H23 H 0.25410 0.47760 1.17360
C45 C 0.1299(2) 0.3670(2) 1.1677(3)
H24 H 0.10540 0.40000 1.18230
C46 C 0.4741(2) 0.5442(2) 1.1303(3)
C47 C 0.4824(2) 0.4174(2) 1.1306(2)
C48 C 0.3520(2) 0.4151(2) 1.1357(3)
C49 C 0.1746(5) 0.3731(6) 0.3733(4)
C50 C 0.1309(8) 0.2677(7) 0.3731(6)
H25 H 0.14800 0.23930 0.33970
H26 H 0.05860 0.23470 0.34910
H27 H 0.16000 0.26590 0.43040
C51 C 0.3019(5) 0.5184(5) 0.3928(6)
H28 H 0.30350 0.52270 0.34030
H29 H 0.36850 0.56070 0.43970
H30 H 0.25580 0.53370 0.39590
C52 C 0.3316(8) 0.3851(9) 0.4145(9)
H31 H 0.36640 0.39540 0.47460
H32 H 0.38030 0.41460 0.39500
H33 H 0.28940 0.31980 0.38550
C53 C -0.1273(7) 0.4576(8) 0.3780(6)
C54 C -0.0603(8) 0.5644(7) 0.4057(8)
H34 H -0.03470 0.58360 0.36670
H35 H -0.00470 0.58660 0.46190
H36 H -0.09990 0.58930 0.40590
C55 C -0.2758(8) 0.3209(7) 0.3569(6)
H37 H -0.33540 0.30410 0.30560
H38 H -0.29470 0.29810 0.39860
H39 H -0.24220 0.29420 0.34510
C56 C -0.2239(9) 0.4837(9) 0.4393(9)
H40 H -0.17110 0.51440 0.49730
H41 H -0.28680 0.44070 0.43770
H42 H -0.23030 0.52880 0.41290
Ca1 Ca -0.05668(4) 0.34859(4) 0.27667(4)
Ca2 Ca 0.77319(3) 1.11790(3) 0.12102(3)
Ca3 Ca 0.50000 1.00000 1.00000
N1 N 0.5139(2) 0.8960(2) 0.41948(16)
N2 N 0.6330(2) 1.00244(19) 0.55749(16)
N3 N 0.4718(2) 0.8774(2) 0.53130(16)
N4 N 0.5252(2) 0.50492(18) 1.1285(2)
N5 N 0.3958(2) 0.36932(18) 1.1338(2)
N6 N 0.3876(2) 0.50256(18) 1.1343(2)
N7 N 0.2681(5) 0.4244(7) 0.3967(5)
N8 N -0.1990(7) 0.4341(8) 0.3936(6)
O1 O 0.0019(2) 0.48035(18) 0.23822(19)
O2 O 0.0367(2) 0.5185(2) 0.13461(18)
O3 O 0.83115(18) 1.17420(19) 0.26410(14)
O4 O 0.9362(3) 1.2745(2) 0.38971(18)
O5 O 0.76389(18) 1.14311(17) 0.98569(13)
O6 O 0.62104(15) 1.02116(14) 0.96290(12)
O7 O 0.5829(2) 0.95061(17) 1.10007(15)
O8 O 0.7271(2) 0.96606(17) 1.1258(2)
O9 O 0.77852(14) 0.27712(13) 1.14976(15)
O10 O 0.63371(13) 0.14378(12) 1.09825(13)
O11 O -0.06689(17) 0.13586(16) 1.1392(2)
O12 O -0.05666(13) 0.26713(14) 1.16613(12)
O13 O 0.1134(2) 0.3963(2) 0.35294(19)
O14 O -0.1174(4) 0.4084(4) 0.3384(3)
C57 C 0.7906(4) 0.3550(4) 0.9864(4)
H43 H 0.73900 0.29830 0.94070
H44 H 0.80760 0.40620 0.96360
H45 H 0.76590 0.36240 1.02430
C58 C 0.9195(4) 0.3373(4) 0.9787(3)
H46 H 0.86950 0.27900 0.93480
H47 H 0.97850 0.33680 1.01330
H48 H 0.93760 0.38630 0.95340
N9 N 0.8781(3) 0.3523(2) 1.03169(19)
H49 H 0.86260 0.30710 1.05560
H50 H 0.92580 0.40550 1.07330
C25A C 0.3616(3) 0.0797(2) 0.8853(2)
C26A C 0.4033(2) 0.1777(2) 0.8802(2)
C27A C 0.4956(3) 0.2263(2) 0.8804(3)
H13A H 0.53110 0.19840 0.88270
C28A C 0.5345(3) 0.3160(2) 0.8772(3)
H14A H 0.59650 0.34820 0.87770
C29A C 0.4832(2) 0.3591(2) 0.8733(3)
C30A C 0.3920(3) 0.3109(2) 0.8738(3)
H15A H 0.35700 0.33920 0.87280
C31A C 0.3525(3) 0.2202(3) 0.8759(3)
H16A H 0.28990 0.18760 0.87440
C32A C 0.31462(18) 0.76994(17) 0.87474(16)
C33A C 0.36722(19) 0.72078(18) 0.87275(18)
C34A C 0.3149(2) 0.6248(2) 0.8514(3)
H17A H 0.24690 0.59070 0.83750
C35A C 0.3633(2) 0.5797(2) 0.8506(3)
H18A H 0.32790 0.51540 0.83650
C36A C 0.4651(2) 0.6303(2) 0.8710(2)
C37A C 0.5164(2) 0.7258(2) 0.8898(2)
H19A H 0.58320 0.75960 0.90030
C38A C 0.4686(2) 0.77113(19) 0.8929(2)
H20A H 0.50450 0.83550 0.90850
C39A C 1.0215(2) 0.7792(2) 0.8470(2)
C40A C 0.9224(2) 0.7278(2) 0.8490(2)
C41A C 0.8853(3) 0.7757(2) 0.8711(3)
H21A H 0.92130 0.83990 0.88440
C42A C 0.7952(3) 0.7293(3) 0.8738(4)
H22A H 0.76930 0.76210 0.88620
C43A C 0.7431(2) 0.6342(2) 0.8583(3)
C44A C 0.7805(2) 0.5864(2) 0.8373(3)
H23A H 0.74590 0.52240 0.82640
C45A C 0.8701(2) 0.6330(2) 0.8323(3)
H24A H 0.89460 0.60000 0.81770
C46A C 0.5259(2) 0.4558(2) 0.8697(3)
C47A C 0.5176(2) 0.5826(2) 0.8694(2)
C48A C 0.6480(2) 0.5849(2) 0.8643(3)
N4A N 0.4748(2) 0.49508(18) 0.8715(2)
N5A N 0.6042(2) 0.63068(18) 0.8662(2)
N6A N 0.6124(2) 0.49744(18) 0.8657(2)
O7A O 0.4171(2) 0.04939(17) 0.89993(15)
O8A O 0.2729(2) 0.03394(17) 0.8742(2)
O9A O 0.22148(14) 0.72288(13) 0.85024(15)
O10A O 0.36629(13) 0.85622(12) 0.90175(13)
O11A O 1.06689(17) 0.86414(16) 0.8608(2)
O12A O 1.05666(13) 0.73287(14) 0.83387(12)
C1* C -0.9424(3) -0.4677(2) 1.2115(2)
C2* C -0.8405(3) -0.3838(2) 1.2738(2)
C3* C -0.8163(3) -0.3533(3) 1.3581(2)
H1* H -0.86420 -0.38400 1.37590
C4* C -0.7220(3) -0.2781(3) 1.4148(2)
H2* H -0.70650 -0.25900 1.47110
C5* C -0.6495(3) -0.2302(2) 1.3902(2)
C6* C -0.6740(3) -0.2608(3) 1.3062(2)
H3* H -0.62650 -0.22990 1.28810
C7* C -0.7685(3) -0.3367(3) 1.2495(2)
H4* H -0.78380 -0.35640 1.19350
C8* C -0.1408(3) 0.1987(3) 1.3418(2)
C9* C -0.2047(3) 0.1356(2) 1.3767(2)
C10* C -0.2936(3) 0.0525(3) 1.3251(2)
H5* H -0.31320 0.03290 1.26780
C11* C -0.3541(3) -0.0023(3) 1.3572(2)
H6* H -0.41320 -0.05910 1.32180
C12* C -0.3276(3) 0.0267(2) 1.44240(19)
C13* C -0.2381(3) 0.1093(3) 1.4943(2)
H7* H -0.21850 0.12880 1.55170
C14* C -0.1771(3) 0.1635(3) 1.4621(2)
H8* H -0.11670 0.21930 1.49800
C15* C -0.3198(2) 0.0718(2) 1.93715(17)
C16* C -0.3510(2) 0.0418(2) 1.84421(17)
C17* C -0.2824(3) 0.0849(3) 1.8148(2)
H9* H -0.21670 0.13350 1.85290
C18* C -0.3095(3) 0.0573(3) 1.7301(2)
H10* H -0.26270 0.08810 1.71140
C19* C -0.4066(2) -0.0162(2) 1.67294(18)
C20* C -0.4763(2) -0.0594(2) 1.70207(19)
H11* H -0.54200 -0.10800 1.66400
C21* C -0.4490(2) -0.0313(2) 1.78613(19)
H12* H -0.49630 -0.06110 1.80470
C22* C -0.5490(2) -0.1484(2) 1.45033(19)
C23* C -0.3969(2) -0.0290(2) 1.47518(18)
C24* C -0.4354(2) -0.0476(2) 1.58205(18)
C49* C -0.8254(5) -0.6269(6) 1.3733(4)
C50* C -0.8691(8) -0.7323(7) 1.3731(6)
H25* H -0.85200 -0.76070 1.33970
H26* H -0.94140 -0.76530 1.34910
H27* H -0.84000 -0.73410 1.43040
C51* C -0.6981(5) -0.4816(5) 1.3928(6)
H28* H -0.69650 -0.47730 1.34030
H29* H -0.63150 -0.43930 1.43970
H30* H -0.74420 -0.46630 1.39590
C52* C -0.6684(8) -0.6149(9) 1.4145(9)
H31* H -0.63360 -0.60460 1.47460
H32* H -0.61970 -0.58540 1.39500
H33* H -0.71060 -0.68020 1.38550
C53* C -1.1273(7) -0.5424(8) 1.3780(6)
C54* C -1.0603(8) -0.4356(7) 1.4057(8)
H34* H -1.03470 -0.41640 1.36670
H35* H -1.00470 -0.41340 1.46190
H36* H -1.09990 -0.41070 1.40590
C55* C -1.2758(8) -0.6791(7) 1.3569(6)
H37* H -1.33540 -0.69590 1.30560
H38* H -1.29470 -0.70190 1.39860
H39* H -1.24220 -0.70580 1.34510
C56* C -1.2239(9) -0.5163(9) 1.4393(9)
H40* H -1.17110 -0.48560 1.49730
H41* H -1.28680 -0.55930 1.43770
H42* H -1.23030 -0.47120 1.41290
Ca1* Ca -1.05668(4) -0.65141(4) 1.27667(4)
Ca2* Ca -0.22681(3) 0.11790(3) 1.12102(3)
N1* N -0.4861(2) -0.1040(2) 1.41948(16)
N2* N -0.3670(2) 0.00244(19) 1.55749(16)
N3* N -0.5282(2) -0.1226(2) 1.53130(16)
N7* N -0.7319(5) -0.5756(7) 1.3967(5)
N8* N -1.1990(7) -0.5659(8) 1.3936(6)
O1* O -0.9981(2) -0.51965(18) 1.23822(19)
O2* O -0.9633(2) -0.4815(2) 1.13461(18)
O3* O -0.16885(18) 0.17420(19) 1.26410(14)
O4* O -0.0638(3) 0.2745(2) 1.38971(18)
O5* O -0.23611(18) 0.14311(17) 1.98569(13)
O6* O -0.37896(15) 0.02116(14) 1.96290(12)
O13* O -0.8866(2) -0.6037(2) 1.35294(19)
O14* O -1.1174(4) -0.5916(4) 1.3384(3)
Ca1** Ca -0.05668(4) 0.34859(4) 1.27667(4)
Ca1*** Ca 0.94332(4) 0.34859(4) 1.27667(4)
Ca1**** Ca 0.94332(4) 1.34859(4) 0.27667(4)
Ca1A Ca 0.05668(4) 0.65141(4) 0.72333(4)
Ca1A* Ca 1.05668(4) 0.65141(4) 0.72333(4)
Ca2** Ca -0.22681(3) 0.11790(3) 2.12102(3)
Ca2*** Ca 0.77319(3) 0.11790(3) 1.12102(3)
Ca2**** Ca 0.77319(3) 1.11790(3) 1.12102(3)
Ca2A Ca 0.22681(3) -0.11790(3) 0.87898(3)
Ca2A* Ca 0.22681(3) 0.88210(3) 0.87898(3)
Ca2A** Ca 1.22681(3) 0.88210(3) 0.87898(3)
Ca3* Ca -0.50000 0.00000 2.00000
Ca3** Ca 0.50000 0.00000 1.00000
O3** O -1.16885(18) -0.82580(19) 1.26410(14)
O3*** O -0.16885(18) 0.17420(19) 0.26410(14)
O4** O -1.0638(3) -0.7255(2) 1.38971(18)
O4*** O -0.0638(3) 0.2745(2) 0.38971(18)
O5** O -0.23611(18) 0.14311(17) 0.98569(13)
O5*** O 0.76389(18) 1.14311(17) -0.01431(13)
O6** O -0.37896(15) 0.02116(14) 0.96290(12)
O6*** O 0.62104(15) 1.02116(14) -0.03710(12)
O6A O 0.37896(15) 0.97884(14) 1.03710(12)
O7A* O 0.4171(2) 1.04939(17) 0.89993(15)
O8* O -0.2729(2) -0.03394(17) 1.1258(2)
O8** O 0.7271(2) 0.96606(17) 0.1258(2)
O9* O -1.22148(14) -0.72288(13) 1.14976(15)
O9** O -0.22148(14) 0.27712(13) 0.14976(15)
O9*** O -0.22148(14) 0.27712(13) 1.14976(15)
O9**** O 0.77852(14) 1.27712(13) 0.14976(15)
O10* O -0.36629(13) 0.14378(12) 1.09825(13)
O10** O 0.63371(13) 1.14378(12) 0.09825(13)
O10*** O 0.63371(13) 1.14378(12) 1.09825(13)
O11* O 0.93311(17) 1.13586(16) 0.1392(2)
O12* O -1.05666(13) -0.73287(14) 1.16613(12)
O12** O -0.05666(13) 0.26713(14) 0.16613(12)
O12*** O 0.94334(13) 1.26713(14) 0.16613(12)
#END
