
#######################################################################
#
#                 Cambridge Crystallographic Data Centre
#                                CCDC
#
#######################################################################
#
# If this CIF has been generated from an entry in the Cambridge
# Structural Database, then it will include bibliographic, chemical,
# crystal, experimental, refinement or atomic coordinate data resulting
# from the CCDC's data processing and validation procedures.
#
#######################################################################

data_CSD_CIF_QOWKIY
_audit_creation_date 2015-02-04
_audit_creation_method CSD-ConQuest-V1
_database_code_CSD QOWKIY
_database_code_depnum_ccdc_archive 'CCDC 1047416'
_chemical_formula_sum 'C62 H80 Br2 Mn1 N22 O9 W1 Zn1'
_chemical_formula_moiety
;
(C32 H44 N12 Zn1 2+)n,n(C28 H18 Br2 Mn1 N10 O2 W1 2-),2n(C1 H4 O1),5n(H2 O1)
;
_journal_coden_Cambridge 9
_journal_volume 53
_journal_year 2014
_journal_page_first 10437
_journal_name_full 'Inorg.Chem. '
loop_
_publ_author_name
"Jung Hee Yoon"
"Kwang Soo Lim"
"Dae Won Ryu"
"Woo Ram Lee"
"Sung Won Yoon"
"Byoung Jin Suh"
"Chang Seop Hong"
_chemical_name_systematic
;
catena-(bis(1-,1',1''-Methanetriyltris(3,5-dimethyl-1H-pyrazole))-zinc 
bis(\m~2~-cyano)-hexacyano-(2,2'-(cyclohexane-1,2-diylbis(nitrilomethylylidene
))bis(4-bromophenolato))-manganese-tungsten methanol solvate pentahydrate)
;
_cell_volume   3659.391
_exptl_crystal_colour 'red'
_exptl_crystal_density_diffrn 1.58
_exptl_crystal_description 'block'
_diffrn_ambient_temperature 130
_refine_special_details
;
O9A and O9B and O9C disordered over three sites with occupancies 
0.33:0.33:0.33.
;
#These two values have been output from a single CSD field.
_refine_ls_R_factor_gt 0.0257
_refine_ls_wR_factor_gt 0.0257
_symmetry_cell_setting triclinic
_symmetry_space_group_name_H-M 'P -1'
_symmetry_Int_Tables_number 2
loop_
_symmetry_equiv_pos_site_id
_symmetry_equiv_pos_as_xyz
1 x,y,z
2 -x,-y,-z
_cell_length_a 10.8160(6)
_cell_length_b 13.8608(8)
_cell_length_c 24.5131(15)
_cell_angle_alpha 89.373(2)
_cell_angle_beta 89.037(2)
_cell_angle_gamma 84.840(2)
_cell_formula_units_Z 2
loop_
_atom_type_symbol
_atom_type_radius_bond
C 0.68
H 0.23
Br 1.21
Mn 1.61
N 0.68
O 0.68
W 1.62
Zn 1.22
loop_
_atom_site_label
_atom_site_type_symbol
_atom_site_fract_x
_atom_site_fract_y
_atom_site_fract_z
W1 W 0.050081(9) 0.535231(7) 0.245561(5)
C1 C 0.2381(3) 0.4818(2) 0.26805(12)
N1 N 0.3385(2) 0.45634(19) 0.27927(11)
C2 C 0.1652(3) 0.5580(2) 0.17423(14)
N2 N 0.2261(3) 0.5680(3) 0.13592(13)
C3 C 0.1485(3) 0.6576(2) 0.26921(14)
N3 N 0.2021(3) 0.7223(2) 0.28001(14)
C4 C -0.0723(3) 0.6672(3) 0.24070(18)
N4 N -0.1369(3) 0.7363(3) 0.2375(2)
C5 C -0.0528(3) 0.5174(3) 0.17156(14)
N5 N -0.1057(3) 0.5068(3) 0.13213(14)
C6 C 0.0677(3) 0.3796(2) 0.23719(13)
N6 N 0.0744(3) 0.2969(2) 0.23312(13)
C7 C 0.0446(3) 0.5190(2) 0.33305(13)
N7 N 0.0472(3) 0.5059(2) 0.37955(12)
C8 C -0.1333(3) 0.4929(2) 0.26811(13)
N8 N -0.2310(2) 0.4710(2) 0.27788(12)
Mn1 Mn 0.55463(4) 0.45391(3) 0.284848(19)
O1 O 0.57015(19) 0.31744(15) 0.28567(9)
O2 O 0.55951(19) 0.46196(14) 0.36061(9)
N9 N 0.5523(2) 0.45773(18) 0.20377(11)
N10 N 0.5310(2) 0.59752(18) 0.27568(11)
C9 C 0.5280(3) 0.2619(2) 0.24809(14)
C10 C 0.5109(3) 0.1645(2) 0.26243(15)
H1 H 0.52680 0.14250 0.29870
C11 C 0.4718(3) 0.1014(2) 0.22492(16)
H2 H 0.46060 0.03650 0.23540
C12 C 0.4485(3) 0.1325(2) 0.17162(15)
C13 C 0.4627(3) 0.2266(2) 0.15557(14)
H3 H 0.44630 0.24690 0.11910
C14 C 0.5019(3) 0.2925(2) 0.19382(13)
C15 C 0.5220(3) 0.3888(2) 0.17341(14)
H4 H 0.51230 0.40150 0.13550
C16 C 0.5774(3) 0.5552(2) 0.18219(14)
H5 H 0.66710 0.56350 0.18810
C17 C 0.5515(3) 0.5728(2) 0.12197(14)
H6 H 0.46510 0.55970 0.11420
H7 H 0.60820 0.52840 0.09970
C18 C 0.5710(4) 0.6783(3) 0.10701(15)
H8 H 0.65980 0.68880 0.11080
H9 H 0.54830 0.69090 0.06850
C19 C 0.4934(4) 0.7484(3) 0.14318(16)
H10 H 0.40440 0.74090 0.13750
H11 H 0.50890 0.81550 0.13270
C20 C 0.5230(3) 0.7316(2) 0.20352(14)
H12 H 0.46930 0.77740 0.22620
H13 H 0.61060 0.74270 0.21010
C21 C 0.5003(3) 0.6270(2) 0.21888(13)
H14 H 0.41060 0.61880 0.21320
C22 C 0.5409(3) 0.6591(2) 0.31395(14)
H15 H 0.53210 0.72580 0.30420
C23 C 0.5642(3) 0.6352(2) 0.37027(13)
C24 C 0.5719(3) 0.7133(2) 0.40666(14)
H16 H 0.56610 0.77800 0.39320
C25 C 0.5878(3) 0.6949(2) 0.46114(14)
C26 C 0.6012(3) 0.6000(2) 0.48169(14)
H17 H 0.61420 0.58820 0.51950
C27 C 0.5954(3) 0.5237(2) 0.44648(14)
H18 H 0.60700 0.45930 0.46030
C28 C 0.5728(3) 0.5387(2) 0.39084(13)
Br1 Br 0.39955(4) 0.04252(3) 0.119844(17)
Br2 Br 0.59494(3) 0.79799(2) 0.511115(14)
Zn1 Zn 0.00000 0.00000 0.00000
N11 N 0.0280(3) -0.04370(18) 0.08450(12)
N12 N 0.0492(2) 0.02862(18) 0.12014(12)
N13 N 0.1412(3) 0.09651(19) 0.01686(12)
N14 N 0.1194(2) 0.15342(18) 0.06194(12)
N15 N -0.1284(2) 0.11405(19) 0.03466(12)
N16 N -0.0955(2) 0.15198(18) 0.08328(11)
C29 C 0.0367(4) -0.2229(2) 0.08829(18)
H19 H 0.01530 -0.21410 0.04980
H20 H -0.02930 -0.25410 0.10770
H21 H 0.11510 -0.26380 0.09120
C30 C 0.0503(3) -0.1261(2) 0.11310(16)
C31 C 0.0853(4) -0.1060(3) 0.16601(17)
H22 H 0.10570 -0.15210 0.19420
C32 C 0.0848(3) -0.0069(3) 0.16984(16)
C33 C 0.1112(5) 0.0557(3) 0.21624(18)
H23 H 0.13530 0.01500 0.24790
H24 H 0.03670 0.09830 0.22540
H25 H 0.17910 0.09500 0.20600
C34 C 0.2758(4) 0.0976(3) -0.06543(18)
H26 H 0.24140 0.03560 -0.07150
H27 H 0.36660 0.08720 -0.06410
H28 H 0.25180 0.14260 -0.09530
C35 C 0.2267(3) 0.1391(2) -0.01283(16)
C36 C 0.2572(3) 0.2231(2) 0.01338(16)
H29 H 0.31550 0.26600 0.00080
C37 C 0.1874(3) 0.2317(2) 0.06041(15)
C38 C 0.1791(3) 0.3068(2) 0.10388(16)
H30 H 0.09440 0.33860 0.10570
H31 H 0.23750 0.35520 0.09530
H32 H 0.19990 0.27600 0.13910
C39 C -0.3148(4) 0.1309(3) -0.02285(18)
H33 H -0.26340 0.08630 -0.04640
H34 H -0.33930 0.19070 -0.04310
H35 H -0.38930 0.10050 -0.01100
C40 C -0.2428(3) 0.1539(2) 0.02581(15)
C41 C -0.2819(3) 0.2173(2) 0.06780(16)
H36 H -0.35970 0.25480 0.07060
C42 C -0.1866(3) 0.2153(2) 0.10436(15)
C43 C -0.1761(3) 0.2658(3) 0.15711(18)
H37 H -0.18770 0.22050 0.18740
H38 H -0.23990 0.32060 0.15940
H39 H -0.09370 0.28960 0.15930
C44 C 0.0294(3) 0.1291(2) 0.10277(14)
H40 H 0.03990 0.17020 0.13540
Zn2 Zn 0.00000 0.00000 0.50000
N17 N 0.0308(3) 0.13095(18) 0.54148(12)
N18 N 0.0478(2) 0.21004(17) 0.50881(11)
N19 N -0.1283(2) 0.09253(18) 0.45053(13)
N20 N -0.0909(2) 0.18222(18) 0.43710(12)
N21 N 0.1406(2) 0.04487(17) 0.44268(12)
N22 N 0.1267(2) 0.13967(17) 0.42534(11)
C45 C 0.0417(4) 0.0942(3) 0.64067(17)
H41 H 0.01320 0.03250 0.62920
H42 H -0.01820 0.12530 0.66690
H43 H 0.12290 0.08220 0.65780
C46 C 0.0526(3) 0.1591(2) 0.59195(15)
C47 C 0.0837(3) 0.2559(2) 0.59154(15)
H44 H 0.10340 0.29270 0.62220
C48 C 0.0798(3) 0.2862(2) 0.53865(14)
C49 C 0.1004(3) 0.3810(2) 0.51223(15)
H45 H 0.12690 0.42540 0.53970
H46 H 0.02290 0.40880 0.49590
H47 H 0.16480 0.37120 0.48380
C50 C -0.3195(3) 0.0097(3) 0.4387(2)
H48 H -0.26540 -0.04690 0.45050
H49 H -0.35720 -0.00420 0.40390
H50 H -0.38500 0.02450 0.46620
C51 C -0.2797(3) 0.1842(3) 0.40717(17)
H51 H -0.35730 0.20340 0.39090
C52 C -0.2443(3) 0.0949(2) 0.43168(16)
C53 C -0.1805(3) 0.2389(2) 0.41108(16)
C54 C -0.1632(3) 0.3397(3) 0.39223(19)
H52 H -0.14620 0.37930 0.42360
H53 H -0.23890 0.36750 0.37440
H54 H -0.09320 0.33840 0.36630
C55 C 0.2820(4) -0.1001(3) 0.4206(2)
H55 H 0.24200 -0.12710 0.45280
H56 H 0.37220 -0.10590 0.42530
H57 H 0.26180 -0.13580 0.38810
C56 C 0.2363(3) 0.0043(2) 0.41391(17)
C57 C 0.2836(3) 0.0725(2) 0.37810(16)
H58 H 0.35140 0.06140 0.35320
C58 C 0.2122(3) 0.1585(2) 0.38640(14)
C59 C 0.2208(3) 0.2563(2) 0.36079(15)
H59 H 0.14250 0.27730 0.34290
H60 H 0.28870 0.25270 0.33370
H61 H 0.23690 0.30290 0.38900
C60 C 0.0328(3) 0.2055(2) 0.45054(13)
H62 H 0.04320 0.27160 0.43530
O3 O 0.4826(3) 0.38149(19) 0.03336(11)
O4 O 0.5414(4) 0.9192(3) 0.32410(17)
O5 O 0.3106(3) 0.5502(3) 0.02609(12)
O6 O 0.3132(4) 0.8971(3) 0.2772(2)
O7 O 0.7181(4) 0.9172(3) 0.2422(3)
H63 H 0.75630 0.86400 0.23340
C61 C 0.7733(6) 0.9903(5) 0.2179(4)
H64 H 0.78530 1.04020 0.24490
H65 H 0.72070 1.01860 0.18860
H66 H 0.85400 0.96540 0.20260
O8 O 0.2011(3) 0.5740(2) 0.46381(12)
H67 H 0.15980 0.54530 0.44140
C62 C 0.2567(4) 0.6476(3) 0.4375(2)
H68 H 0.19260 0.69590 0.42380
H69 H 0.30760 0.62090 0.40680
H70 H 0.30940 0.67830 0.46310
O9 O 0.0959(6) 0.4955(5) -0.0183(3)
O10? O 0.0948(6) 0.6122(5) -0.0329(3)
O11? O 0.0252(10) 0.5846(7) -0.0054(4)
N8* N 0.7690(2) 0.4710(2) 0.27788(12)
Mn1* Mn -0.44537(4) 0.45391(3) 0.284848(19)
N11A N -0.0280(3) 0.04370(18) -0.08450(12)
N12A N -0.0492(2) -0.02862(18) -0.12014(12)
N13A N -0.1412(3) -0.09651(19) -0.01686(12)
N14A N -0.1194(2) -0.15342(18) -0.06194(12)
N15A N 0.1284(2) -0.11405(19) -0.03466(12)
N16A N 0.0955(2) -0.15198(18) -0.08328(11)
C29A C -0.0367(4) 0.2229(2) -0.08829(18)
H19A H -0.01530 0.21410 -0.04980
H20A H 0.02930 0.25410 -0.10770
H21A H -0.11510 0.26380 -0.09120
C30A C -0.0503(3) 0.1261(2) -0.11310(16)
C31A C -0.0853(4) 0.1060(3) -0.16601(17)
H22A H -0.10570 0.15210 -0.19420
C32A C -0.0848(3) 0.0069(3) -0.16984(16)
C33A C -0.1112(5) -0.0557(3) -0.21624(18)
H23A H -0.13530 -0.01500 -0.24790
H24A H -0.03670 -0.09830 -0.22540
H25A H -0.17910 -0.09500 -0.20600
C34A C -0.2758(4) -0.0976(3) 0.06543(18)
H26A H -0.24140 -0.03560 0.07150
H27A H -0.36660 -0.08720 0.06410
H28A H -0.25180 -0.14260 0.09530
C35A C -0.2267(3) -0.1391(2) 0.01283(16)
C36A C -0.2572(3) -0.2231(2) -0.01338(16)
H29A H -0.31550 -0.26600 -0.00080
C37A C -0.1874(3) -0.2317(2) -0.06041(15)
C38A C -0.1791(3) -0.3068(2) -0.10388(16)
H30A H -0.09440 -0.33860 -0.10570
H31A H -0.23750 -0.35520 -0.09530
H32A H -0.19990 -0.27600 -0.13910
C39A C 0.3148(4) -0.1309(3) 0.02285(18)
H33A H 0.26340 -0.08630 0.04640
H34A H 0.33930 -0.19070 0.04310
H35A H 0.38930 -0.10050 0.01100
C40A C 0.2428(3) -0.1539(2) -0.02581(15)
C41A C 0.2819(3) -0.2173(2) -0.06780(16)
H36A H 0.35970 -0.25480 -0.07060
C42A C 0.1866(3) -0.2153(2) -0.10436(15)
C43A C 0.1761(3) -0.2658(3) -0.15711(18)
H37A H 0.18770 -0.22050 -0.18740
H38A H 0.23990 -0.32060 -0.15940
H39A H 0.09370 -0.28960 -0.15930
C44A C -0.0294(3) -0.1291(2) -0.10277(14)
H40A H -0.03990 -0.17020 -0.13540
N17A N -0.0308(3) -0.13095(18) 0.45852(12)
N18A N -0.0478(2) -0.21004(17) 0.49119(11)
N19A N 0.1283(2) -0.09253(18) 0.54947(13)
N20A N 0.0909(2) -0.18222(18) 0.56290(12)
N21A N -0.1406(2) -0.04487(17) 0.55732(12)
N22A N -0.1267(2) -0.13967(17) 0.57466(11)
C45A C -0.0417(4) -0.0942(3) 0.35933(17)
H41A H -0.01320 -0.03250 0.37080
H42A H 0.01820 -0.12530 0.33310
H43A H -0.12290 -0.08220 0.34220
C46A C -0.0526(3) -0.1591(2) 0.40805(15)
C47A C -0.0837(3) -0.2559(2) 0.40846(15)
H44A H -0.10340 -0.29270 0.37780
C48A C -0.0798(3) -0.2862(2) 0.46135(14)
C49A C -0.1004(3) -0.3810(2) 0.48777(15)
H45A H -0.12690 -0.42540 0.46030
H46A H -0.02290 -0.40880 0.50410
H47A H -0.16480 -0.37120 0.51620
C50A C 0.3195(3) -0.0097(3) 0.5613(2)
H48A H 0.26540 0.04690 0.54950
H49A H 0.35720 0.00420 0.59610
H50A H 0.38500 -0.02450 0.53380
C51A C 0.2797(3) -0.1842(3) 0.59283(17)
H51A H 0.35730 -0.20340 0.60910
C52A C 0.2443(3) -0.0949(2) 0.56832(16)
C53A C 0.1805(3) -0.2389(2) 0.58892(16)
C54A C 0.1632(3) -0.3397(3) 0.60777(19)
H52A H 0.14620 -0.37930 0.57640
H53A H 0.23890 -0.36750 0.62560
H54A H 0.09320 -0.33840 0.63370
C55A C -0.2820(4) 0.1001(3) 0.5794(2)
H55A H -0.24200 0.12710 0.54720
H56A H -0.37220 0.10590 0.57470
H57A H -0.26180 0.13580 0.61190
C56A C -0.2363(3) -0.0043(2) 0.58609(17)
C57A C -0.2836(3) -0.0725(2) 0.62190(16)
H58A H -0.35140 -0.06140 0.64680
C58A C -0.2122(3) -0.1585(2) 0.61360(14)
C59A C -0.2208(3) -0.2563(2) 0.63921(15)
H59A H -0.14250 -0.27730 0.65710
H60A H -0.28870 -0.25270 0.66630
H61A H -0.23690 -0.30290 0.61100
C60A C -0.0328(3) -0.2055(2) 0.54946(13)
H62A H -0.04320 -0.27160 0.56470
#END
