
#######################################################################
#
#                 Cambridge Crystallographic Data Centre
#                                CCDC
#
#######################################################################
#
# If this CIF has been generated from an entry in the Cambridge
# Structural Database, then it will include bibliographic, chemical,
# crystal, experimental, refinement or atomic coordinate data resulting
# from the CCDC's data processing and validation procedures.
#
#######################################################################

data_CSD_CIF_QOWKOE
_audit_creation_date 2015-02-04
_audit_creation_method CSD-ConQuest-V1
_database_code_CSD QOWKOE
_database_code_depnum_ccdc_archive 'CCDC 1047417'
_chemical_formula_sum 'C63 H72 Br2 Fe1 Mn1 N22 O4 W1'
_chemical_formula_moiety
;
(C32 H44 Fe1 N12 2+)n,n(C28 H18 Br2 Mn1 N10 O2 W1 2-),n(C3 H8 O1),n(H2 O1)
;
_journal_coden_Cambridge 9
_journal_volume 53
_journal_year 2014
_journal_page_first 10437
_journal_name_full 'Inorg.Chem. '
loop_
_publ_author_name
"Jung Hee Yoon"
"Kwang Soo Lim"
"Dae Won Ryu"
"Woo Ram Lee"
"Sung Won Yoon"
"Byoung Jin Suh"
"Chang Seop Hong"
_chemical_name_systematic
;
catena-(bis(1-,1',1''-Methanetriyltris(3,5-dimethyl-1H-pyrazole))-iron 
bis(\m~2~-cyano)-hexacyano-(2,2'-(cyclohexane-1,2-diylbis(nitrilomethylylidene
))bis(4-bromophenolato))-manganese-tungsten isopropanol solvate monohydrate)
;
_cell_volume   3671.689
_exptl_crystal_colour 'red'
_exptl_crystal_density_diffrn 1.498
_exptl_special_details
;
Atoms C55 and N22 in the deposited cif appear to have been misassigned. We 
have interchanged the element types of these two atoms
;
_exptl_crystal_description 'block'
_diffrn_ambient_temperature 100
#These two values have been output from a single CSD field.
_refine_ls_R_factor_gt 0.0555
_refine_ls_wR_factor_gt 0.0555
_symmetry_cell_setting triclinic
_symmetry_space_group_name_H-M 'P -1'
_symmetry_Int_Tables_number 2
loop_
_symmetry_equiv_pos_site_id
_symmetry_equiv_pos_as_xyz
1 x,y,z
2 -x,-y,-z
_cell_length_a 10.7016(2)
_cell_length_b 14.1793(3)
_cell_length_c 24.4382(6)
_cell_angle_alpha 88.794(1)
_cell_angle_beta 87.291(1)
_cell_angle_gamma 82.459(1)
_cell_formula_units_Z 2
loop_
_atom_type_symbol
_atom_type_radius_bond
C 0.68
H 0.23
Br 1.21
Fe 1.52
Mn 1.61
N 0.68
O 0.68
W 1.62
loop_
_atom_site_label
_atom_site_type_symbol
_atom_site_fract_x
_atom_site_fract_y
_atom_site_fract_z
W1 W 0.49492(2) 0.54719(2) 0.252212(11)
C1 C 0.6855(6) 0.5010(5) 0.2791(2)
N1 N 0.7864(5) 0.4805(4) 0.2927(2)
C2 C 0.5853(6) 0.6750(5) 0.2564(3)
N2 N 0.6374(6) 0.7388(5) 0.2599(3)
C3 C 0.4822(5) 0.5086(5) 0.3378(3)
N3 N 0.4766(6) 0.4847(5) 0.3829(2)
C4 C 0.6223(6) 0.5340(5) 0.1800(3)
N4 N 0.6890(5) 0.5273(5) 0.1422(2)
C5 C 0.5198(6) 0.3974(5) 0.2347(3)
N5 N 0.5315(6) 0.3163(5) 0.2264(3)
C6 C 0.3907(7) 0.6039(7) 0.1825(3)
N6 N 0.3357(6) 0.6332(8) 0.1452(3)
C7 C 0.3580(6) 0.6615(6) 0.2851(3)
N7 N 0.2862(6) 0.7224(5) 0.3010(3)
C8 C 0.3138(6) 0.4951(5) 0.2638(3)
N8 N 0.2169(5) 0.4697(4) 0.2709(2)
Mn1 Mn 1.00321(8) 0.46851(8) 0.29025(4)
O1 O 1.0129(4) 0.3343(4) 0.28686(19)
O2 O 1.0279(4) 0.4654(4) 0.36578(19)
N9 N 0.9876(5) 0.4847(5) 0.2094(2)
N10 N 0.9896(5) 0.6095(5) 0.2868(2)
C9 C 0.9776(6) 0.2851(6) 0.2474(3)
C10 C 0.9710(7) 0.1883(6) 0.2576(3)
H1 H 0.98680 0.16310 0.29330
C11 C 0.9426(8) 0.1288(7) 0.2180(3)
H2 H 0.94040 0.06310 0.22580
C12 C 0.9167(8) 0.1672(7) 0.1652(3)
C13 C 0.9167(7) 0.2624(7) 0.1535(3)
H3 H 0.89540 0.28700 0.11820
C14 C 0.9482(6) 0.3232(6) 0.1938(3)
C15 C 0.9605(6) 0.4204(6) 0.1778(3)
H4 H 0.94740 0.43790 0.14060
C16 C 1.0161(7) 0.5771(6) 0.1894(3)
H5 H 1.10920 0.57810 0.19080
C17 C 0.9763(7) 0.6078(7) 0.1327(3)
H6 H 1.02080 0.56310 0.10540
H7 H 0.88450 0.60630 0.13030
C18 C 1.0066(8) 0.7069(7) 0.1199(4)
H8 H 1.09890 0.70740 0.12070
H9 H 0.98020 0.72610 0.08260
C19 C 0.9416(9) 0.7762(7) 0.1601(4)
H10 H 0.84920 0.77930 0.15700
H11 H 0.96500 0.84010 0.15100
C20 C 0.9752(8) 0.7497(6) 0.2195(3)
H12 H 1.06530 0.75490 0.22450
H13 H 0.92360 0.79360 0.24510
C21 C 0.9495(7) 0.6487(6) 0.2311(3)
H14 H 0.85660 0.64740 0.22950
C22 C 1.0153(6) 0.6622(6) 0.3250(3)
H15 H 1.00900 0.72860 0.31750
C23 C 1.0532(6) 0.6297(6) 0.3788(3)
C24 C 1.0801(7) 0.6989(6) 0.4159(3)
H16 H 1.07370 0.76400 0.40500
C25 C 1.1150(9) 0.6720(7) 0.4669(4)
C26 C 1.1307(9) 0.5766(7) 0.4842(4)
H17 H 1.15840 0.55920 0.51980
C27 C 1.1049(7) 0.5079(6) 0.4482(3)
H18 H 1.11650 0.44300 0.45950
C28 C 1.0621(6) 0.5319(6) 0.3953(3)
Br1 Br 0.88526(9) 0.08193(8) 0.10960(4)
Br2 Br 1.14324(12) 0.76552(8) 0.51829(4)
Fe1 Fe 0.50000 0.00000 0.00000
N11 N 0.6233(5) 0.1106(4) 0.0114(2)
N12 N 0.5921(5) 0.1660(4) 0.0563(2)
N13 N 0.3514(5) 0.1035(5) 0.0360(2)
N14 N 0.5395(5) -0.0346(4) 0.0855(2)
N15 N 0.5466(5) 0.0417(4) 0.1187(2)
N16 N 0.3795(5) 0.1495(4) 0.0824(2)
C29 C 0.7558(9) 0.1218(7) -0.0733(4)
H19 H 0.73450 0.05760 -0.07880
H20 H 0.84770 0.11980 -0.07350
H21 H 0.72230 0.16410 -0.10280
C30 C 0.6996(8) 0.1579(6) -0.0199(3)
C31 C 0.7153(9) 0.2431(6) 0.0047(4)
H22 H 0.76560 0.28920 -0.00950
C32 C 0.6445(8) 0.2481(6) 0.0530(3)
C33 C 0.6219(10) 0.3232(6) 0.0958(4)
H23 H 0.53360 0.35220 0.09610
H24 H 0.67700 0.37210 0.08760
H25 H 0.64040 0.29430 0.13180
C34 C 0.1617(7) 0.0943(7) -0.0158(3)
H26 H 0.13620 0.14560 -0.04210
H27 H 0.08670 0.06870 -0.00040
H28 H 0.21780 0.04360 -0.03450
C35 C 0.2297(6) 0.1326(7) 0.0294(3)
C36 C 0.1803(7) 0.1953(7) 0.0699(4)
H29 H 0.09600 0.22600 0.07370
C37 C 0.2778(7) 0.2044(6) 0.1037(3)
C38 C 0.2805(8) 0.2639(7) 0.1539(3)
H30 H 0.28520 0.22250 0.18660
H31 H 0.20350 0.30970 0.15680
H32 H 0.35430 0.29820 0.15110
C39 C 0.5820(8) -0.2088(6) 0.0947(3)
H33 H 0.52010 -0.24290 0.11500
H34 H 0.66690 -0.24270 0.09920
H35 H 0.56360 -0.20540 0.05580
C40 C 0.5751(7) -0.1113(6) 0.1162(3)
C41 C 0.6037(7) -0.0839(6) 0.1691(3)
H36 H 0.63070 -0.12520 0.19860
C42 C 0.5846(7) 0.0143(6) 0.1696(3)
C43 C 0.6022(8) 0.0809(7) 0.2138(3)
H37 H 0.66630 0.12100 0.20160
H38 H 0.62970 0.04450 0.24660
H39 H 0.52220 0.12100 0.22230
C44 C 0.5091(6) 0.1377(5) 0.0995(3)
H40 H 0.51290 0.18110 0.13100
Fe2 Fe 0.50000 0.00000 0.50000
N17 N 0.6341(6) 0.0470(4) 0.4384(2)
N18 N 0.6092(5) 0.1402(4) 0.4199(2)
N19 N 0.3566(5) 0.0824(4) 0.4503(2)
N20 N 0.3854(5) 0.1678(4) 0.4299(2)
N21 N 0.5119(5) 0.1328(4) 0.5359(2)
C45 C 0.5196(9) 0.1661(6) 0.5859(3)
C46 C 0.1777(8) -0.0096(7) 0.4438(4)
H41 H 0.22670 -0.05260 0.46910
H42 H 0.16970 -0.04270 0.40960
H43 H 0.09360 0.01060 0.46050
C47 C 0.2426(7) 0.0744(6) 0.4321(3)
C48 C 0.1981(7) 0.1564(6) 0.4011(3)
H44 H 0.11900 0.16900 0.38450
C49 C 0.2913(7) 0.2141(6) 0.3997(3)
C50 C 0.3005(8) 0.3063(7) 0.3699(4)
H45 H 0.32280 0.35310 0.39550
H46 H 0.21910 0.32970 0.35450
H47 H 0.36570 0.29670 0.34030
C51 C 0.7941(8) -0.0893(6) 0.4164(4)
H48 H 0.75760 -0.11570 0.44990
H49 H 0.88550 -0.09180 0.41930
H50 H 0.77690 -0.12670 0.38490
C52 C 0.7368(7) 0.0110(6) 0.4087(3)
C53 C 0.7755(7) 0.0794(6) 0.3723(3)
H51 H 0.84590 0.07070 0.34700
C54 C 0.6946(7) 0.1609(6) 0.3796(3)
C55 C 0.6879(8) 0.2555(6) 0.3517(3)
H52 H 0.75860 0.25530 0.32460
H53 H 0.69270 0.30460 0.37880
H54 H 0.60810 0.26890 0.33320
N22 N 0.5104(6) 0.2109(4) 0.5014(2)
C56 C 0.5195(11) 0.2899(6) 0.5297(3)
C57 C 0.5210(17) 0.3831(8) 0.5026(4)
H55 H 0.59360 0.38050 0.47640
H56 H 0.52750 0.43130 0.53010
H57 H 0.44300 0.39990 0.48320
C58 C 0.5026(6) 0.2009(5) 0.4428(3)
H58 H 0.50330 0.26540 0.42560
C59 C 0.5236(9) 0.1028(6) 0.6361(3)
H59 H 0.61040 0.09030 0.64800
H60 H 0.46910 0.13430 0.66540
H61 H 0.49390 0.04260 0.62750
C60 C 0.5249(12) 0.2646(6) 0.5835(3)
H62 H 0.53110 0.30510 0.61340
O3 O 0.1754(7) 0.9199(6) 0.2986(3)
C61 C 0.237(2) 0.926(2) 0.2022(7)
C62 C 0.2635(19) 0.9513(11) 0.2556(5)
C63 C 0.2853(12) 1.0493(11) 0.2656(6)
O4 O 0.798(2) 0.5117(17) 0.0221(9)
N8* N 1.2169(5) 0.4697(4) 0.2709(2)
Mn1* Mn 0.00321(8) 0.46851(8) 0.29025(4)
N11A N 0.3767(5) -0.1106(4) -0.0114(2)
N12A N 0.4079(5) -0.1660(4) -0.0563(2)
N13A N 0.6486(5) -0.1035(5) -0.0360(2)
N14A N 0.4605(5) 0.0346(4) -0.0855(2)
N15A N 0.4534(5) -0.0417(4) -0.1187(2)
N16A N 0.6205(5) -0.1495(4) -0.0824(2)
C29A C 0.2442(9) -0.1218(7) 0.0733(4)
H19A H 0.26550 -0.05760 0.07880
H20A H 0.15230 -0.11980 0.07350
H21A H 0.27770 -0.16410 0.10280
C30A C 0.3004(8) -0.1579(6) 0.0199(3)
C31A C 0.2847(9) -0.2431(6) -0.0047(4)
H22A H 0.23440 -0.28920 0.00950
C32A C 0.3555(8) -0.2481(6) -0.0530(3)
C33A C 0.3781(10) -0.3232(6) -0.0958(4)
H23A H 0.46640 -0.35220 -0.09610
H24A H 0.32300 -0.37210 -0.08760
H25A H 0.35960 -0.29430 -0.13180
C34A C 0.8383(7) -0.0943(7) 0.0158(3)
H26A H 0.86380 -0.14560 0.04210
H27A H 0.91330 -0.06870 0.00040
H28A H 0.78220 -0.04360 0.03450
C35A C 0.7703(6) -0.1326(7) -0.0294(3)
C36A C 0.8197(7) -0.1953(7) -0.0699(4)
H29A H 0.90400 -0.22600 -0.07370
C37A C 0.7222(7) -0.2044(6) -0.1037(3)
C38A C 0.7195(8) -0.2639(7) -0.1539(3)
H30A H 0.71480 -0.22250 -0.18660
H31A H 0.79650 -0.30970 -0.15680
H32A H 0.64570 -0.29820 -0.15110
C39A C 0.4180(8) 0.2088(6) -0.0947(3)
H33A H 0.47990 0.24290 -0.11500
H34A H 0.33310 0.24270 -0.09920
H35A H 0.43640 0.20540 -0.05580
C40A C 0.4249(7) 0.1113(6) -0.1162(3)
C41A C 0.3963(7) 0.0839(6) -0.1691(3)
H36A H 0.36930 0.12520 -0.19860
C42A C 0.4154(7) -0.0143(6) -0.1696(3)
C43A C 0.3978(8) -0.0809(7) -0.2138(3)
H37A H 0.33370 -0.12100 -0.20160
H38A H 0.37030 -0.04450 -0.24660
H39A H 0.47780 -0.12100 -0.22230
C44A C 0.4909(6) -0.1377(5) -0.0995(3)
H40A H 0.48710 -0.18110 -0.13100
N17A N 0.3659(6) -0.0470(4) 0.5616(2)
N18A N 0.3908(5) -0.1402(4) 0.5801(2)
N19A N 0.6434(5) -0.0824(4) 0.5497(2)
N20A N 0.6146(5) -0.1678(4) 0.5701(2)
N21A N 0.4881(5) -0.1328(4) 0.4641(2)
C45A C 0.4804(9) -0.1661(6) 0.4141(3)
C46A C 0.8223(8) 0.0096(7) 0.5562(4)
H41A H 0.77330 0.05260 0.53090
H42A H 0.83030 0.04270 0.59040
H43A H 0.90640 -0.01060 0.53950
C47A C 0.7574(7) -0.0744(6) 0.5679(3)
C48A C 0.8019(7) -0.1564(6) 0.5989(3)
H44A H 0.88100 -0.16900 0.61550
C49A C 0.7087(7) -0.2141(6) 0.6003(3)
C50A C 0.6995(8) -0.3063(7) 0.6301(4)
H45A H 0.67720 -0.35310 0.60450
H46A H 0.78090 -0.32970 0.64550
H47A H 0.63430 -0.29670 0.65970
C51A C 0.2059(8) 0.0893(6) 0.5836(4)
H48A H 0.24240 0.11570 0.55010
H49A H 0.11450 0.09180 0.58070
H50A H 0.22310 0.12670 0.61510
C52A C 0.2632(7) -0.0110(6) 0.5913(3)
C53A C 0.2245(7) -0.0794(6) 0.6277(3)
H51A H 0.15410 -0.07070 0.65300
C54A C 0.3054(7) -0.1609(6) 0.6204(3)
C55A C 0.3121(8) -0.2555(6) 0.6483(3)
H52A H 0.24140 -0.25530 0.67540
H53A H 0.30730 -0.30460 0.62120
H54A H 0.39190 -0.26890 0.66680
N22A N 0.4896(6) -0.2109(4) 0.4986(2)
C56A C 0.4805(11) -0.2899(6) 0.4703(3)
C57A C 0.4790(17) -0.3831(8) 0.4974(4)
H55A H 0.40640 -0.38050 0.52360
H56A H 0.47250 -0.43130 0.46990
H57A H 0.55700 -0.39990 0.51680
C58A C 0.4974(6) -0.2009(5) 0.5572(3)
H58A H 0.49670 -0.26540 0.57440
C59A C 0.4764(9) -0.1028(6) 0.3639(3)
H59A H 0.38960 -0.09030 0.35200
H60A H 0.53090 -0.13430 0.33460
H61A H 0.50610 -0.04260 0.37250
C60A C 0.4751(12) -0.2646(6) 0.4165(3)
H62A H 0.46890 -0.30510 0.38660
#END
