
#######################################################################
#
#                 Cambridge Crystallographic Data Centre
#                                CCDC
#
#######################################################################
#
# If this CIF has been generated from an entry in the Cambridge
# Structural Database, then it will include bibliographic, chemical,
# crystal, experimental, refinement or atomic coordinate data resulting
# from the CCDC's data processing and validation procedures.
#
#######################################################################

data_CSD_CIF_QOWZIO
_audit_creation_date 2019-11-19
_audit_creation_method CSD-ConQuest-V1
_database_code_CSD QOWZIO
_database_code_depnum_ccdc_archive 'CCDC 1837225'
_chemical_formula_sum 'C48 H92 N6 O25 U3'
_chemical_formula_moiety
;
C24 H54 N4 O7 U1 2+,n(C12 H12 O16 U2 2-),2(C6 H13 N1 O1)
;
_journal_coden_Cambridge 41
_journal_volume 64
_journal_year 2019
_journal_page_first 594
_journal_name_full 'Kristallografiya(Russ.)(Crystallogr.Rep.) '
loop_
_publ_author_name
"L.B.Serezhkina"
"M.S.Grigoriev"
"E.F.Rogaleva"
"V.N.Serezhkin"
_chemical_name_systematic
;
catena-[aqua-tetrakis(N,N-diethylacetamide)-dioxo-uranium(vi) 
tris(\m-succinato)-tetra-oxo-di-uranium(vi) N,N-diethylacetamide solvate]
;
_cell_volume   3328.805
_exptl_crystal_density_diffrn 1.863
_diffrn_ambient_temperature 100
_diffrn_special_details
;
twin

;
#These two values have been output from a single CSD field.
_refine_ls_R_factor_gt 0.0667
_refine_ls_wR_factor_gt 0.0667
_symmetry_cell_setting monoclinic
_symmetry_space_group_name_H-M 'P 21'
_symmetry_Int_Tables_number 4
loop_
_symmetry_equiv_pos_site_id
_symmetry_equiv_pos_as_xyz
1 x,y,z
2 -x,1/2+y,-z
_cell_length_a 7.5253(5)
_cell_length_b 17.1493(12)
_cell_length_c 25.8466(15)
_cell_angle_alpha 90
_cell_angle_beta 93.657(2)
_cell_angle_gamma 90
_cell_formula_units_Z 2
loop_
_atom_type_symbol
_atom_type_radius_bond
C 0.68
H 0.23
N 0.68
O 0.68
U 1.96
loop_
_atom_site_label
_atom_site_type_symbol
_atom_site_fract_x
_atom_site_fract_y
_atom_site_fract_z
U1 U 0.10035(9) 0.16683(3) 0.57032(3)
U2 U 0.41276(9) 0.14988(3) 0.92899(3)
O1 O 0.3320(18) 0.1773(10) 0.5647(6)
O2 O -0.1306(16) 0.1548(8) 0.5762(5)
O3 O 0.6427(17) 0.1415(9) 0.9242(5)
O4 O 0.1768(17) 0.1560(8) 0.9339(5)
O5 O 0.1764(17) 0.1156(8) 0.6588(5)
O6 O 0.1240(18) 0.2416(11) 0.6530(5)
O7 O 0.363(2) 0.0796(12) 0.8461(6)
O8 O 0.3842(19) 0.2084(9) 0.8408(5)
O9 O 0.0779(17) 0.0816(9) 0.4938(5)
O10 O 0.1200(16) 0.0216(7) 0.5684(4)
O11 O -0.0482(18) -0.1916(8) 0.4399(5)
O12 O -0.0384(18) -0.2607(10) 0.5112(5)
O13 O 0.3977(15) 0.0073(7) 0.9385(5)
O14 O 0.4427(19) 0.0747(11) 1.0104(6)
O15 O 0.5398(17) -0.2700(9) 0.9940(5)
O16 O 0.5569(18) -0.2058(8) 1.0681(5)
C1 C 0.167(3) 0.1810(14) 0.6795(8)
C2 C 0.212(3) 0.1912(12) 0.7387(7)
H1 H 0.25660 0.24490 0.74530
H2 H 0.10150 0.18490 0.75700
C3 C 0.346(3) 0.1356(14) 0.7603(8)
H3 H 0.46240 0.14670 0.74620
H4 H 0.31030 0.08190 0.75000
C4 C 0.363(3) 0.1416(14) 0.8191(7)
C5 C 0.097(2) 0.0206(11) 0.5199(7)
C6 C 0.091(2) -0.0583(10) 0.4917(7)
H5 H 0.21450 -0.07560 0.48690
H6 H 0.03040 -0.05140 0.45690
C7 C -0.006(2) -0.122(1) 0.5208(7)
H7 H 0.06440 -0.13420 0.55360
H8 H -0.12300 -0.10190 0.52990
C8 C -0.032(2) -0.1940(11) 0.4902(7)
C9 C 0.429(3) -0.0651(11) 1.0179(7)
H9 H 0.30600 -0.08160 1.02330
H10 H 0.49230 -0.05770 1.05240
C10 C 0.426(2) 0.0114(12) 0.9887(7)
C11 C 0.523(3) -0.1296(11) 0.9885(7)
H11 H 0.45540 -0.13930 0.95500
H12 H 0.64360 -0.11130 0.98080
C12 C 0.540(3) -0.2058(11) 1.0188(7)
U3 U 0.26038(12) 0.23705(6) 0.24781(3)
O17 O 0.071(2) 0.2391(11) 0.2822(6)
O18 O 0.457(2) 0.240(1) 0.2119(6)
O19 O 0.085(2) 0.1822(10) 0.1790(6)
O20 O 0.144(3) 0.3316(13) 0.1901(8)
O21 O 0.4383(17) 0.1983(8) 0.3212(5)
O22 O 0.347(3) 0.3565(14) 0.2880(9)
O23 O 0.280(3) 0.1016(14) 0.2500(8)
H13 H 0.20360 0.07580 0.23090
H14 H 0.33600 0.06780 0.26950
N1 N -0.078(2) 0.1698(10) 0.1052(6)
N2 N 0.055(3) 0.4346(12) 0.1462(8)
N3 N 0.5932(19) 0.1768(10) 0.3963(6)
N4 N 0.366(3) 0.4612(12) 0.3397(8)
C13 C 0.079(2) 0.1719(12) 0.1303(7)
C14 C 0.243(3) 0.1649(13) 0.1036(8)
H15 H 0.21350 0.15730 0.06650
H16 H 0.31320 0.21260 0.10890
H17 H 0.31130 0.12020 0.11750
C15 C -0.239(3) 0.1747(14) 0.1333(8)
H18 H -0.33470 0.19940 0.11080
H19 H -0.21640 0.20840 0.16410
C16 C -0.303(3) 0.0963(15) 0.1507(10)
H20 H -0.41160 0.10310 0.16930
H21 H -0.32900 0.06300 0.12040
H22 H -0.21070 0.07200 0.17370
C17 C -0.091(3) 0.1614(13) 0.0476(9)
H23 H -0.20310 0.13410 0.03660
H24 H 0.00970 0.12960 0.03670
C18 C -0.088(3) 0.2398(16) 0.0220(9)
H25 H -0.09660 0.23320 -0.01570
H26 H -0.18860 0.27100 0.03250
H27 H 0.02380 0.26650 0.03260
C19 C 0.185(5) 0.396(2) 0.1643(14)
C20 C 0.352(4) 0.429(2) 0.1592(13)
H28 H 0.44370 0.39430 0.17470
H29 H 0.37060 0.43660 0.12240
H30 H 0.35820 0.47960 0.17700
C21 C -0.150(4) 0.3937(18) 0.1520(12)
H31 H -0.24000 0.41930 0.12800
H32 H -0.14740 0.33740 0.14360
C22 C -0.188(6) 0.403(3) 0.1977(18)
H33 H -0.30570 0.38050 0.20250
H34 H -0.09880 0.37760 0.22100
H35 H -0.19100 0.45920 0.20550
C23 C 0.044(3) 0.5052(11) 0.1152(8)
H36 H 0.13960 0.54120 0.12800
H37 H -0.07140 0.53100 0.12050
C24 C 0.059(3) 0.4927(15) 0.0576(9)
H38 H 0.04950 0.54300 0.03970
H39 H 0.17370 0.46860 0.05180
H40 H -0.03770 0.45840 0.04420
C25 C 0.436(2) 0.1848(11) 0.3695(7)
C26 C 0.269(3) 0.1799(14) 0.3947(8)
H41 H 0.29430 0.16920 0.43170
H42 H 0.20510 0.22940 0.39050
H43 H 0.19660 0.13770 0.37900
C27 C 0.605(3) 0.1696(13) 0.4535(8)
H44 H 0.71840 0.14310 0.46470
H45 H 0.50620 0.13660 0.46420
C28 C 0.598(3) 0.2482(12) 0.4808(8)
H46 H 0.60660 0.24030 0.51840
H47 H 0.69760 0.28080 0.47100
H48 H 0.48530 0.27420 0.47050
C29 C 0.759(2) 0.1814(12) 0.3704(7)
H49 H 0.85030 0.20740 0.39370
H50 H 0.74020 0.21400 0.33890
C30 C 0.827(4) 0.1051(16) 0.3556(11)
H51 H 0.93830 0.11200 0.33840
H52 H 0.84900 0.07290 0.38660
H53 H 0.73880 0.07950 0.33170
C31 C 0.439(4) 0.4062(18) 0.3189(12)
C32 C 0.642(4) 0.3927(19) 0.3283(12)
H54 H 0.67700 0.34670 0.30880
H55 H 0.70650 0.43850 0.31660
H56 H 0.67150 0.38430 0.36540
C33 C 0.435(3) 0.5198(12) 0.3755(8)
H57 H 0.37220 0.56940 0.36730
H58 H 0.56250 0.52800 0.36970
C34 C 0.419(3) 0.5018(14) 0.4323(9)
H59 H 0.46950 0.54490 0.45330
H60 H 0.29320 0.49520 0.43900
H61 H 0.48400 0.45370 0.44130
C35 C 0.150(5) 0.467(3) 0.3283(17)
H62 H 0.09010 0.48980 0.35780
H63 H 0.09560 0.41570 0.31910
C36 C 0.148(5) 0.529(2) 0.2760(15)
H64 H 0.02490 0.53970 0.26340
H65 H 0.20670 0.57820 0.28660
H66 H 0.21210 0.50510 0.24830
O24 O 0.167(2) -0.0072(10) 0.1810(7)
N5 N 0.126(2) -0.124(1) 0.1470(7)
C37 C 0.226(3) -0.0746(14) 0.1713(9)
C38 C 0.416(3) -0.0910(16) 0.191(1)
H67 H 0.44810 -0.14420 0.18160
H68 H 0.49570 -0.05390 0.17540
H69 H 0.42640 -0.08530 0.22880
C39 C -0.057(3) -0.1070(14) 0.1295(9)
H70 H -0.11130 -0.07200 0.15460
H71 H -0.12720 -0.15590 0.12710
C40 C -0.059(4) -0.0680(17) 0.0765(11)
H72 H -0.18260 -0.05640 0.06440
H73 H 0.00930 -0.01950 0.07920
H74 H -0.00650 -0.10320 0.05180
C41 C 0.193(3) -0.2059(12) 0.1337(8)
H75 H 0.15090 -0.21900 0.09770
H76 H 0.32520 -0.20520 0.13520
C42 C 0.133(3) -0.2678(15) 0.1693(9)
H77 H 0.18010 -0.31840 0.15900
H78 H 0.17730 -0.25590 0.20490
H79 H 0.00280 -0.26970 0.16730
O25 O 0.351(2) 0.0098(11) 0.3318(7)
N6 N 0.384(2) -0.115(1) 0.3596(7)
C43 C 0.286(3) -0.0592(13) 0.3378(8)
C44 C 0.095(3) -0.0757(16) 0.3187(10)
H80 H 0.06570 -0.13010 0.32600
H81 H 0.01470 -0.04110 0.33650
H82 H 0.08040 -0.06640 0.28130
C45 C 0.572(3) -0.0985(12) 0.3768(8)
H83 H 0.62380 -0.06230 0.35200
H84 H 0.64130 -0.14750 0.37740
C46 C 0.582(3) -0.0619(15) 0.4309(10)
H85 H 0.70720 -0.05130 0.44180
H86 H 0.51480 -0.01310 0.43010
H87 H 0.53220 -0.09810 0.45550
C47 C 0.320(3) -0.1920(11) 0.3695(8)
H88 H 0.19220 -0.18880 0.37650
H89 H 0.38480 -0.21280 0.40110
C48 C 0.341(3) -0.2490(13) 0.3246(9)
H90 H 0.29520 -0.30030 0.33370
H91 H 0.27510 -0.22960 0.29340
H92 H 0.46780 -0.25360 0.31800
U1A U -0.10035(9) -0.33317(3) 0.42968(3)
U2A U 0.58724(9) -0.35012(3) 1.07101(3)
O11A O 0.0482(18) 0.3084(8) 0.5601(5)
O12A O 0.0384(18) 0.2393(10) 0.4888(5)
O15A O 0.4602(17) 0.2300(9) 1.0060(5)
O16A O 0.4431(18) 0.2942(8) 0.9319(5)
#END
