
#######################################################################
#
#                 Cambridge Crystallographic Data Centre
#                                CCDC
#
#######################################################################
#
# If this CIF has been generated from an entry in the Cambridge
# Structural Database, then it will include bibliographic, chemical,
# crystal, experimental, refinement or atomic coordinate data resulting
# from the CCDC's data processing and validation procedures.
#
#######################################################################

data_CSD_CIF_QOXFIU
_audit_creation_date 2015-02-05
_audit_creation_method CSD-ConQuest-V1
_database_code_CSD QOXFIU
_database_code_depnum_ccdc_archive 'CCDC 1047599'
_chemical_formula_sum 'C20 H56 I2 K4 N4 O50 U4'
_chemical_formula_moiety
;
(C20 H24 I2 N4 O34 U4 4-)n,4n(K1 1+),16n(H2 O1)
;
_journal_coden_Cambridge 9
_journal_volume 53
_journal_year 2014
_journal_page_first 12084
_journal_name_full 'Inorg.Chem. '
loop_
_publ_author_name
"Jie Qiu"
"Jie Ling"
"C.Sieradzki"
"Kevin Nguyen"
"E.M.Wylie"
"J.E.S.Szymanowski"
"P.C.Burns"
_chemical_name_systematic
;
catena-(Tetra-potassium 
bis(\m~2~-ethylenediamine-N,N,N',N'-tetra-acetato)-bis(\m~2~-iodato)-bis(\m~2~
-peroxo)-octaoxo-tetra-uranium hexadecahydrate)
;
_cell_volume  12843.227
_exptl_crystal_colour 'yellow'
_exptl_crystal_description 'block'
_diffrn_ambient_temperature 100
#These two values have been output from a single CSD field.
_refine_ls_R_factor_gt 0.0495
_refine_ls_wR_factor_gt 0.0495
_symmetry_cell_setting monoclinic
_symmetry_space_group_name_H-M 'C 2/c'
_symmetry_Int_Tables_number 15
loop_
_symmetry_equiv_pos_site_id
_symmetry_equiv_pos_as_xyz
1 x,y,z
2 -x,y,1/2-z
3 1/2+x,1/2+y,z
4 1/2-x,1/2+y,1/2-z
5 -x,-y,-z
6 x,-y,-1/2+z
7 -1/2-x,-1/2-y,-z
8 -1/2+x,-1/2-y,-1/2+z
_cell_length_a 34.074(3)
_cell_length_b 16.2211(15)
_cell_length_c 28.278(4)
_cell_angle_alpha 90
_cell_angle_beta 124.743(1)
_cell_angle_gamma 90
_cell_formula_units_Z 8
loop_
_atom_type_symbol
_atom_type_radius_bond
C 0.68
I 1.40
K 2.03
N 0.68
O 0.68
U 1.96
loop_
_atom_site_label
_atom_site_type_symbol
_atom_site_fract_x
_atom_site_fract_y
_atom_site_fract_z
U1 U 0.056241(15) 0.27184(3) 0.561293(18)
U2 U 0.274325(16) 0.37983(3) 0.912344(18)
U3 U 0.208664(15) 0.14399(3) 0.862254(18)
U4 U 0.119780(16) 0.50386(3) 0.611147(18)
I1 I 0.09800(3) 0.17183(5) 0.70752(3)
I2 I 0.18518(3) 0.50641(5) 0.77507(3)
O1 O 0.0150(3) 0.3407(5) 0.5596(3)
O2 O 0.0996(3) 0.3801(5) 0.5564(3)
O3 O 0.1503(3) 0.2137(5) 0.7725(3)
O4 O 0.1214(3) 0.3586(5) 0.6177(4)
O5 O 0.2729(3) 0.2350(6) 0.9083(4)
O6 O 0.3197(3) 0.3895(6) 0.8994(4)
O7 O 0.0283(3) 0.3113(5) 0.4638(3)
O8 O 0.0627(3) 0.5116(5) 0.5979(4)
O9 O 0.2380(3) 0.2679(5) 0.8500(4)
O10 O 0.1656(3) 0.1807(5) 0.9953(4)
O11 O -0.0817(3) 0.3974(5) 0.5583(4)
O12 O 0.0207(3) 0.1642(5) 0.5868(4)
O13 O -0.0837(3) 0.4673(5) 0.4885(3)
O14 O -0.1446(3) 0.3896(6) 0.3148(4)
O15 O 0.0921(3) 0.2585(5) 0.6638(4)
O16 O 0.1775(3) 0.5024(5) 0.6247(4)
O17 O 0.0526(3) 0.1976(5) 0.7187(4)
O18 O 0.2315(3) 0.3792(5) 0.9292(4)
O19 O 0.2341(3) 0.0918(5) 0.8295(3)
O20 O 0.0941(3) 0.1960(5) 0.5603(4)
O21 O 0.2730(3) 0.0952(5) 0.9550(3)
O22 O 0.1337(3) 0.0667(6) 0.7977(4)
O23 O 0.3222(3) 0.0017(6) 1.0177(4)
O24 O 0.0921(3) 0.1849(6) 0.9139(4)
O25 O 0.1530(3) 0.4527(6) 0.7073(4)
O26 O 0.2430(3) -0.0288(6) 1.1041(4)
O27 O -0.0108(3) 0.0380(6) 0.5732(4)
O28 O 0.2161(3) 0.4138(6) 0.8135(4)
O29 O 0.1805(3) 0.1889(5) 0.8935(4)
O30 O 0.1402(4) 0.5085(7) 0.7886(5)
O31 O -0.0016(4) 0.2840(8) 0.3739(5)
O32 O -0.1850(5) 0.2744(9) 0.2685(6)
O33 O 0.2205(5) -0.1610(9) 1.0877(6)
O34 O 0.0993(5) -0.0505(10) 0.7446(6)
N1 N -0.0170(4) 0.1854(7) 0.4742(4)
N2 N 0.1697(4) 0.0157(7) 1.0000(5)
N3 N 0.2024(4) -0.0104(7) 0.8904(5)
N4 N -0.1208(4) 0.3391(6) 0.4158(4)
C1 C -0.0004(5) 0.0974(8) 0.5570(5)
C2 C -0.1273(4) 0.3400(8) 0.4628(5)
C3 C 0.2851(4) 0.0208(8) 0.9707(5)
C4 C -0.0737(4) 0.3060(8) 0.4333(5)
C5 C -0.1613(4) 0.2968(8) 0.3657(5)
C6 C -0.0652(5) 0.2170(8) 0.4561(5)
C7 C -0.0125(5) 0.0992(9) 0.4940(6)
C8 C -0.0949(4) 0.4049(8) 0.5065(5)
C9 C 0.1266(5) 0.1467(8) 0.9552(6)
C10 C -0.0127(5) 0.1821(8) 0.4252(5)
C11 C 0.0053(5) 0.2646(9) 0.4193(6)
C12 C 0.2520(5) -0.0448(9) 0.9303(6)
C13 C 0.1212(5) 0.0541(9) 0.9625(6)
C14 C 0.1975(5) 0.017(1) 0.9719(6)
C15 C -0.1629(6) 0.3244(10) 0.3125(7)
C16 C 0.1771(6) -0.0589(11) 0.8358(7)
C17 C 0.1652(6) -0.0629(11) 1.0191(7)
C18 C 0.2138(6) -0.0853(11) 1.0761(7)
C19 C 0.1730(7) -0.0277(11) 0.9130(8)
C20 C 0.1325(7) -0.0101(12) 0.7915(9)
K1 K 0.15850(9) 0.32592(18) 0.93719(11)
K2 K -0.01587(10) 0.2874(2) 0.63093(12)
K3 K 0.19686(12) 0.2965(2) 0.73157(12)
K4 K -0.01827(12) 0.5383(3) 0.59460(14)
O35 O 0.1694(4) 0.1377(6) 0.6825(4)
O36 O 0.1244(4) 0.3500(6) 0.8180(4)
O37 O 0.0480(4) 0.4189(6) 0.6840(4)
O38 O 0.0585(10) 0.6092(18) 0.7250(12)
O39 O -0.0394(6) 0.3324(11) 0.6993(7)
O40 O -0.1154(4) 0.6231(7) 0.5325(5)
O41 O 0.2048(5) 0.3101(9) 0.6230(6)
O42 O 0.2718(5) 0.3654(9) 0.7325(6)
O43 O 0.2589(4) 0.5182(6) 0.7570(4)
O44 O 0.0059(5) -0.0025(9) 0.6774(6)
O45 O 0.1572(4) 0.5814(8) 0.8861(5)
O46 O 0.1026(6) 0.6600(11) 0.8104(7)
O47 O 0.1832(5) 0.6991(9) 0.8249(6)
O48 O 0.0379(2) 0.1325(4) 0.7958(3)
O49 O 0.0777(10) 0.7152(18) 0.8675(11)
O50 O 0.0625(10) -0.2061(18) 0.7278(12)
U2F U 0.225675(16) 0.12017(3) 1.087656(18)
U4D U -0.119780(16) 0.49614(3) 0.388853(18)
O10F O 0.3344(3) 0.3193(5) 1.0047(4)
O13D O 0.0837(3) 0.5327(5) 0.5115(3)
O14D O 0.1446(3) 0.6104(6) 0.6852(4)
O26F O 0.2570(3) 0.5288(6) 0.8959(4)
N2F N 0.3303(4) 0.4843(7) 1.0000(5)
N4D N 0.1208(4) 0.6609(6) 0.5842(4)
#END
