
#######################################################################
#
#                 Cambridge Crystallographic Data Centre
#                                CCDC
#
#######################################################################
#
# If this CIF has been generated from an entry in the Cambridge
# Structural Database, then it will include bibliographic, chemical,
# crystal, experimental, refinement or atomic coordinate data resulting
# from the CCDC's data processing and validation procedures.
#
#######################################################################

data_CSD_CIF_QOYLUM
_audit_creation_date 2009-11-17
_audit_creation_method CSD-ConQuest-V1
_database_code_CSD QOYLUM
_database_code_depnum_ccdc_archive 'CCDC 704688'
_chemical_formula_sum 'C20 H18 Co3 Cs2 O23'
_chemical_formula_moiety
;
(Cs1 1+)2n,n(C20 H12 Co3 O20 2-),3n(H2 O1)
;
_journal_coden_Cambridge 1220
_journal_volume 15
_journal_year 2009
_journal_page_first 3604
_journal_name_full 'Chem.-Eur.J. '
loop_
_publ_author_name
"Jing-Yun Wu"
"Miao-Tzu Ding"
"Yuh-Sheng Wen"
"Yen-Hsiang Liu"
"Kuang-Lieh Lu"
_chemical_name_systematic
;
catena-(Di-cesium 
bis(\m~6~-benzene-1,2,4,5-tetracarboxylato)-bis(\m~2~-aqua)-diaqua-tri-cobalt(
ii) trihydrate)
;
_cell_volume   1459.896
_exptl_crystal_colour 'pink'
_exptl_crystal_density_diffrn 2.432
_exptl_special_details
;
isostructural and isomorphous with the Ni analogue

;
_exptl_crystal_description 'block'
_diffrn_ambient_temperature 293
#These two values have been output from a single CSD field.
_refine_ls_R_factor_gt 0.0509
_refine_ls_wR_factor_gt 0.0509
_symmetry_cell_setting monoclinic
_symmetry_space_group_name_H-M 'P n'
_symmetry_Int_Tables_number 7
loop_
_symmetry_equiv_pos_site_id
_symmetry_equiv_pos_as_xyz
1 x,y,z
2 1/2+x,-y,1/2+z
_cell_length_a 9.5520(19)
_cell_length_b 11.187(2)
_cell_length_c 14.087(3)
_cell_angle_alpha 90
_cell_angle_beta 104.11(3)
_cell_angle_gamma 90
_cell_formula_units_Z 2
loop_
_atom_type_symbol
_atom_type_radius_bond
C 0.68
H 0.23
Co 1.26
Cs 1.94
O 0.68
loop_
_atom_site_label
_atom_site_type_symbol
_atom_site_fract_x
_atom_site_fract_y
_atom_site_fract_z
Cs1 Cs 0.53524(7) 0.36599(8) 0.27724(5)
Cs2 Cs 0.47443(8) -0.11098(7) -0.07745(6)
Co1 Co 0.82018(11) 0.34261(10) 0.08825(8)
Co2 Co 0.58261(13) 0.25243(12) -0.13721(9)
Co3 Co 0.84682(11) -0.15078(10) 0.14045(8)
O1 O 0.6628(7) 0.2307(6) 0.1212(5)
O2 O 0.5354(7) 0.1588(6) -0.0230(5)
O3 O 0.6864(6) -0.0356(6) 0.1523(5)
O4 O 0.6930(7) -0.0378(6) 0.3121(5)
O5 O 0.1649(7) -0.0993(6) 0.3133(4)
O6 O -0.0023(7) -0.0192(5) 0.1947(5)
O7 O -0.0149(7) 0.1171(6) 0.0038(5)
O8 O 0.0026(6) 0.2334(6) 0.1338(4)
O9 O 0.9692(7) 0.4731(6) 0.0734(5)
O10 O 0.9808(8) 0.4456(6) -0.0816(5)
O11 O 1.1205(7) 0.6490(6) 0.2447(5)
O12 O 1.0100(6) 0.7467(6) 0.1078(4)
O13 O 1.6748(6) 0.7260(6) 0.0902(5)
O14 O 1.6769(7) 0.6202(6) 0.2253(4)
O15 O 1.6625(7) 0.4673(6) 0.0446(5)
O16 O 1.5006(6) 0.4105(6) -0.0934(4)
O17 O 0.7972(6) 0.2838(5) -0.0605(4)
O18 O 0.3671(5) 0.2150(6) -0.2132(4)
O19 O 0.8488(8) 0.4138(6) 0.2349(5)
O20 O 0.8127(7) -0.0866(6) -0.0048(5)
O21 O 0.6449(9) 0.1497(8) 0.4415(6)
O22 O 0.1915(12) 0.4040(8) 0.2601(8)
O23 O 0.298(2) 0.2997(11) 0.4167(8)
C1 C 0.4493(9) 0.1216(8) 0.1188(6)
C2 C 0.4899(9) 0.0431(7) 0.1974(6)
C3 C 0.3837(9) -0.0004(7) 0.2415(7)
H1 H 0.40900 -0.05090 0.29540
C4 C 0.2384(9) 0.0326(7) 0.2041(6)
C5 C 0.2003(9) 0.1126(8) 0.1278(6)
C6 C 0.3069(10) 0.1565(8) 0.0829(7)
H2 H 0.28200 0.20820 0.02970
C7 C 0.5613(10) 0.1729(8) 0.0685(7)
C8 C 0.6385(10) -0.0114(8) 0.2268(8)
C9 C 0.1242(9) -0.0355(8) 0.2408(7)
C10 C 0.0493(9) 0.1538(7) 0.0842(7)
C11 C 1.1778(9) 0.5443(8) 0.0318(6)
C12 C 1.2136(8) 0.6266(8) 0.1053(6)
C13 C 1.3592(9) 0.6629(7) 0.1359(6)
H3 H 1.38450 0.71990 0.18510
C14 C 1.4637(9) 0.6176(8) 0.0959(6)
C15 C 1.4257(8) 0.5341(7) 0.0212(6)
C16 C 1.2806(9) 0.4996(8) -0.0127(6)
H4 H 1.25390 0.44670 -0.06500
C17 C 1.0291(9) 0.4837(8) 0.0039(6)
C18 C 1.1062(9) 0.6783(8) 0.1571(7)
C19 C 1.6178(9) 0.6566(8) 0.1378(7)
C20 C 1.5392(9) 0.4652(7) -0.0135(7)
Co1* Co -0.17982(11) 0.34261(10) 0.08825(8)
Co1** Co 1.82018(11) 0.34261(10) 0.08825(8)
Co2A Co 0.08261(13) -0.25243(12) 0.36279(9)
Co2A* Co 1.08261(13) 0.74757(12) 0.36279(9)
Co2* Co 1.58261(13) 0.25243(12) -0.13721(9)
Co3* Co -0.15318(11) -0.15078(10) 0.14045(8)
Co3** Co 0.84682(11) 0.84922(10) 0.14045(8)
Co3*** Co 1.84682(11) 0.84922(10) 0.14045(8)
Co3A Co 0.34682(11) 0.15078(10) -0.35955(8)
O5A O 0.6649(7) 0.0993(6) -0.1867(4)
O6* O 0.9977(7) -0.0192(5) 0.1947(5)
O8* O 1.0026(6) 0.2334(6) 0.1338(4)
O11A O 0.6205(7) 0.3510(6) -0.2553(5)
O12* O 1.0100(6) -0.2533(6) 0.1078(4)
O13* O 0.6748(6) -0.2740(6) 0.0902(5)
O15* O 0.6625(7) 0.4673(6) 0.0446(5)
O16* O 0.5006(6) 0.4105(6) -0.0934(4)
O18A O 0.8671(5) -0.2150(6) 0.2868(4)
#END
