
#######################################################################
#
#                 Cambridge Crystallographic Data Centre
#                                CCDC
#
#######################################################################
#
# If this CIF has been generated from an entry in the Cambridge
# Structural Database, then it will include bibliographic, chemical,
# crystal, experimental, refinement or atomic coordinate data resulting
# from the CCDC's data processing and validation procedures.
#
#######################################################################

data_CSD_CIF_QOYMEX
_audit_creation_date 2009-11-17
_audit_creation_method CSD-ConQuest-V1
_database_code_CSD QOYMEX
_database_code_depnum_ccdc_archive 'CCDC 704690'
_chemical_formula_sum 'C10 H14 Co1 Cs2 O14'
_chemical_formula_moiety
;
(Cs1 1+)2n,n(C10 H10 Co1 O12 2-),2n(H2 O1)
;
_journal_coden_Cambridge 1220
_journal_volume 15
_journal_year 2009
_journal_page_first 3604
_journal_name_full 'Chem.-Eur.J. '
loop_
_publ_author_name
"Jing-Yun Wu"
"Miao-Tzu Ding"
"Yuh-Sheng Wen"
"Yen-Hsiang Liu"
"Kuang-Lieh Lu"
_chemical_name_systematic
;
catena-(Di-cesium 
(\m~2~-benzene-1,2,4,5-tetracarboxylato)-tetraaqua-cobalt(ii) dihydrate)
;
_cell_volume   1845.874
_exptl_crystal_colour 'pink'
_exptl_crystal_density_diffrn 2.457
_exptl_special_details
;
isostructural and isomorphous with the Ni analogue

;
_exptl_crystal_description 'prism'
_diffrn_ambient_temperature 293
#These two values have been output from a single CSD field.
_refine_ls_R_factor_gt 0.0266
_refine_ls_wR_factor_gt 0.0266
_symmetry_cell_setting monoclinic
_symmetry_space_group_name_H-M 'C 2/c'
_symmetry_Int_Tables_number 15
loop_
_symmetry_equiv_pos_site_id
_symmetry_equiv_pos_as_xyz
1 x,y,z
2 -x,y,1/2-z
3 1/2+x,1/2+y,z
4 1/2-x,1/2+y,1/2-z
5 -x,-y,-z
6 x,-y,-1/2+z
7 -1/2-x,-1/2-y,-z
8 -1/2+x,-1/2-y,-1/2+z
_cell_length_a 15.270(3)
_cell_length_b 6.7028(13)
_cell_length_c 18.718(4)
_cell_angle_alpha 90
_cell_angle_beta 105.53(3)
_cell_angle_gamma 90
_cell_formula_units_Z 4
loop_
_atom_type_symbol
_atom_type_radius_bond
C 0.68
H 0.23
Co 1.26
Cs 2.04
O 0.68
loop_
_atom_site_label
_atom_site_type_symbol
_atom_site_fract_x
_atom_site_fract_y
_atom_site_fract_z
Cs1 Cs 0.66989(2) 0.02170(5) 0.319704(18)
Co1 Co 1.00000 0.02392(12) 0.25000
C1 C 1.0555(3) 0.3580(6) 0.4807(2)
H1 H 1.09310 0.26350 0.46770
C2 C 0.9717(3) 0.3996(6) 0.4319(2)
C3 C 1.0844(3) 0.4547(6) 0.5487(2)
C4 C 0.9412(3) 0.2824(6) 0.3612(2)
C5 C 1.1728(3) 0.3894(7) 0.6029(2)
O1 O 1.0023(2) 0.2427(5) 0.32938(16)
O2 O 0.8604(2) 0.2290(6) 0.33975(19)
O3 O 1.1667(2) 0.3063(5) 0.66104(17)
O4 O 1.2454(2) 0.4132(6) 0.58572(17)
O5 O 0.9989(3) -0.1974(5) 0.3304(2)
O6 O 1.1410(2) -0.0002(5) 0.2796(2)
O7 O 0.6431(4) 0.3316(10) 0.4576(3)
H2 H 1.030(4) -0.177(8) 0.370(3)
H3 H 1.174(4) 0.037(8) 0.322(3)
H4 H 0.645(5) 0.302(12) 0.494(4)
H5 H 0.948(5) -0.211(10) 0.339(4)
H6 H 0.684(5) 0.401(12) 0.457(4)
H7 H 1.157(4) 0.054(10) 0.253(4)
Co1D Co 1.00000 0.97608(12) 0.75000
C1D C 0.9445(3) 0.6420(6) 0.5193(2)
H1D H 0.90690 0.73650 0.53230
C2D C 1.0283(3) 0.6004(6) 0.5681(2)
C3D C 0.9156(3) 0.5453(6) 0.4513(2)
C4D C 1.0588(3) 0.7176(6) 0.6388(2)
C5D C 0.8272(3) 0.6106(7) 0.3971(2)
O1D O 0.9977(2) 0.7573(5) 0.67062(16)
O1A O 0.9977(2) 0.2427(5) 0.17062(16)
O2D O 1.1396(2) 0.7710(6) 0.66025(19)
O3D O 0.8333(2) 0.6937(5) 0.33896(17)
O4D O 0.7546(2) 0.5868(6) 0.41428(17)
O5A O 1.0011(3) -0.1974(5) 0.1696(2)
O6A O 0.8590(2) -0.0002(5) 0.2204(2)
H2A H 0.970(4) -0.177(8) 0.130(3)
H3A H 0.826(4) 0.037(8) 0.178(3)
H5A H 1.052(5) -0.211(10) 0.161(4)
H7A H 0.843(4) 0.054(10) 0.247(4)
#END
