
#######################################################################
#
#                 Cambridge Crystallographic Data Centre
#                                CCDC
#
#######################################################################
#
# If this CIF has been generated from an entry in the Cambridge
# Structural Database, then it will include bibliographic, chemical,
# crystal, experimental, refinement or atomic coordinate data resulting
# from the CCDC's data processing and validation procedures.
#
#######################################################################

data_CSD_CIF_QUBRAI
_audit_creation_date 2015-02-06
_audit_creation_method CSD-ConQuest-V1
_database_code_CSD QUBRAI
_database_code_depnum_ccdc_archive 'CCDC 1035298'
_chemical_formula_sum 'C44 H36 N14 Ni2 O4'
_chemical_formula_moiety
;
(C40 H20 N12 Ni2 O4 2-)n,2n(C2 H8 N1 1+)
;
_journal_coden_Cambridge 1078
_journal_year 2015
_journal_name_full 'CSD Communication(Private Communication) '
loop_
_publ_author_name
"zai yong zhang"
_chemical_name_systematic
;
catena-(bis(Dimethylammonium) 
(\m~4~-5,10,15,20-tetrakis(1H-imidazol-4-yl)porphyrinato)-(\m~2~-terephthalato
)-di-nickel)
;
_cell_volume   2408.011
_exptl_crystal_colour 'purple'
_exptl_crystal_density_diffrn 1.3
_exptl_crystal_description 'Shuttle-like'
_diffrn_ambient_temperature 293
#These two values have been output from a single CSD field.
_refine_ls_R_factor_gt 0.0849
_refine_ls_wR_factor_gt 0.0849
_symmetry_cell_setting monoclinic
_symmetry_space_group_name_H-M 'P 21/m'
_symmetry_Int_Tables_number 11
loop_
_symmetry_equiv_pos_site_id
_symmetry_equiv_pos_as_xyz
1 x,y,z
2 -x,1/2+y,-z
3 -x,-y,-z
4 x,-1/2-y,z
_cell_length_a 9.236(2)
_cell_length_b 21.642(5)
_cell_length_c 12.378(3)
_cell_angle_alpha 90
_cell_angle_beta 103.281(3)
_cell_angle_gamma 90
_cell_formula_units_Z 2
loop_
_atom_type_symbol
_atom_type_radius_bond
C 0.68
H 0.23
N 0.68
Ni 1.24
O 0.68
loop_
_atom_site_label
_atom_site_type_symbol
_atom_site_fract_x
_atom_site_fract_y
_atom_site_fract_z
C1 C 0.2014(10) 0.0565(3) 0.4921(6)
H1 H 0.24320 0.02200 0.53220
C2 C 0.0624(7) 0.1202(3) 0.3653(5)
C3 C 0.4287(7) 0.0918(3) 0.6880(5)
C4 C -0.1234(7) 0.0917(3) 0.1954(5)
C5 C 0.0934(9) 0.0565(3) 0.3970(7)
H2 H 0.04790 0.02200 0.35920
C6 C 0.5828(9) 0.0201(4) 0.7679(6)
H3 H 0.65720 -0.00970 0.77860
C7 C -0.1663(7) 0.0347(4) 0.0442(6)
H4 H -0.15210 0.01460 -0.01900
C8 C 0.2386(8) 0.1198(3) 0.5192(5)
C9 C -0.0796(7) 0.1994(3) 0.2533(5)
C10 C 0.3223(7) 0.1149(3) 1.0654(5)
C11 C -0.1923(9) 0.2189(4) 0.1592(6)
H5 H -0.25370 0.19330 0.10790
C12 C -0.0456(7) 0.1383(3) 0.2740(5)
C13 C 0.3208(7) 0.1852(3) 1.0623(5)
C14 C -0.2619(8) 0.0692(3) 0.1742(6)
H6 H -0.33050 0.07680 0.21710
C15 C 0.3508(7) 0.1382(3) 0.6066(5)
C16 C 0.5111(8) 0.2192(3) 0.7176(6)
H7 H 0.57700 0.19380 0.76610
C17 C 0.3908(8) 0.1992(3) 0.6293(5)
C18 C 0.2265(8) 0.2183(3) 1.1136(7)
H8 H 0.16240 0.19720 1.14850
C19 C 0.4153(8) 0.2171(3) 1.0110(6)
H9 H 0.47920 0.19570 0.97640
C20 C 0.4117(8) 0.0804(3) 0.7933(6)
H10 H 0.34410 0.10030 0.82670
N1 N -0.2891(6) 0.0328(2) 0.0788(4)
N2 N 0.1530(5) 0.1599(2) 0.4414(4)
N3 N -0.0092(8) 0.25000 0.3106(6)
N4 N 0.5104(6) 0.0349(2) 0.8425(4)
N5 N 0.3163(9) 0.25000 0.5711(6)
N6 N 0.5382(8) 0.0529(3) 0.6731(5)
N7 N -0.0610(6) 0.0700(3) 0.1122(5)
Ni1 Ni 0.50000 0.00000 1.00000
Ni2 Ni 0.15300(12) 0.25000 0.44093(9)
O1 O 0.2256(5) 0.0880(2) 1.1032(5)
O2 O 0.4251(5) 0.08912(19) 1.0318(4)
C21 C 0.3788(13) -0.0789(5) 0.5333(9)
H11 H 0.28890 -0.07350 0.47710
H12 H 0.46290 -0.06940 0.50280
H13 H 0.37780 -0.05170 0.59440
C22 C 0.5075(17) -0.1531(7) 0.6493(13)
H14 H 0.49260 -0.19600 0.66310
H15 H 0.51250 -0.12990 0.71610
H16 H 0.59880 -0.14820 0.62570
N8 N 0.387(2) -0.1313(11) 0.5650(16)
H17 H 0.38400 -0.15520 0.50510
H18 H 0.30370 -0.13910 0.58820
C1C C 0.2014(10) 0.4435(3) 0.4921(6)
H1C H 0.24320 0.47800 0.53220
C2C C 0.0624(7) 0.3798(3) 0.3653(5)
C3C C 0.4287(7) 0.4082(3) 0.6880(5)
C5C C 0.0934(9) 0.4435(3) 0.3970(7)
H2C H 0.04790 0.47800 0.35920
C6C C 0.5828(9) 0.4799(4) 0.7679(6)
H3C H 0.65720 0.50970 0.77860
C8C C 0.2386(8) 0.3802(3) 0.5192(5)
C9C C -0.0796(7) 0.3006(3) 0.2533(5)
C11C C -0.1923(9) 0.2811(4) 0.1592(6)
H5C H -0.25370 0.30670 0.10790
C12C C -0.0456(7) 0.3617(3) 0.2740(5)
C15C C 0.3508(7) 0.3618(3) 0.6066(5)
C16C C 0.5111(8) 0.2808(3) 0.7176(6)
H7C H 0.57700 0.30620 0.76610
C17C C 0.3908(8) 0.3008(3) 0.6293(5)
C20C C 0.4117(8) 0.4196(3) 0.7933(6)
H10C H 0.34410 0.39970 0.82670
N2C N 0.1530(5) 0.3401(2) 0.4414(4)
N4C N 0.5104(6) 0.4651(2) 0.8425(4)
N6C N 0.5382(8) 0.4471(3) 0.6731(5)
C4C C -0.1234(7) 0.4083(3) 0.1954(5)
C7C C -0.1663(7) 0.4653(4) 0.0442(6)
H4C H -0.15210 0.48540 -0.01900
C14C C -0.2619(8) 0.4308(3) 0.1742(6)
H6C H -0.33050 0.42320 0.21710
N1C N -0.2891(6) 0.4672(2) 0.0788(4)
N7C N -0.0610(6) 0.4300(3) 0.1122(5)
C10C C 0.3223(7) 0.3851(3) 1.0654(5)
C13C C 0.3208(7) 0.3148(3) 1.0623(5)
C18C C 0.2265(8) 0.2817(3) 1.1136(7)
H8C H 0.16240 0.30280 1.14850
C19C C 0.4153(8) 0.2829(3) 1.0110(6)
H9C H 0.47920 0.30430 0.97640
O1C O 0.2256(5) 0.4120(2) 1.1032(5)
O2C O 0.4251(5) 0.41088(19) 1.0318(4)
N1* N 0.7109(6) 0.0328(2) 1.0788(4)
N1B N 0.2891(6) -0.0328(2) 0.9212(4)
N4B N 0.4896(6) -0.0349(2) 1.1575(4)
Ni1* Ni -0.50000 0.00000 0.00000
Ni1A Ni -0.50000 0.50000 0.00000
Ni1A* Ni 0.50000 0.50000 1.00000
O2B O 0.5749(5) -0.08912(19) 0.9682(4)
#END
