
#######################################################################
#
#                 Cambridge Crystallographic Data Centre
#                                CCDC
#
#######################################################################
#
# If this CIF has been generated from an entry in the Cambridge
# Structural Database, then it will include bibliographic, chemical,
# crystal, experimental, refinement or atomic coordinate data resulting
# from the CCDC's data processing and validation procedures.
#
#######################################################################

data_CSD_CIF_QUGWIA
_audit_creation_date 2015-06-08
_audit_creation_method CSD-ConQuest-V1
_database_code_CSD QUGWIA
_database_code_depnum_ccdc_archive 'CCDC 1405489'
_chemical_formula_sum 'C38 H38 I2 N4 O12 Zn3'
_chemical_formula_moiety
;
(C24 H12 I2 O12 Zn3 2-)n,2(C7 H13 N2 1+)
;
_journal_coden_Cambridge 222
_journal_volume 44
_journal_year 2015
_journal_page_first 17980
_journal_name_full 'Dalton Trans. '
loop_
_publ_author_name
"Zong-Hui Zhang"
"Bing Liu"
"Ling Xu"
"Huan Jiao"
_chemical_name_systematic
;
catena-[bis(1-propyl-3-methylimidazolium) 
tris(\m-terephthalato)-diiodo-tri-zinc]
;
_cell_volume   2181.983
_exptl_crystal_colour 'colorless'
_exptl_crystal_density_diffrn 1.815
_exptl_crystal_description 'Prism'
_diffrn_ambient_temperature 293
#These two values have been output from a single CSD field.
_refine_ls_R_factor_gt 0.1043
_refine_ls_wR_factor_gt 0.1043
_symmetry_cell_setting monoclinic
_symmetry_space_group_name_H-M 'P 21/n'
_symmetry_Int_Tables_number 14
loop_
_symmetry_equiv_pos_site_id
_symmetry_equiv_pos_as_xyz
1 x,y,z
2 1/2-x,1/2+y,1/2-z
3 -x,-y,-z
4 -1/2+x,-1/2-y,-1/2+z
_cell_length_a 13.3440(9)
_cell_length_b 9.4033(6)
_cell_length_c 18.5203(12)
_cell_angle_alpha 90
_cell_angle_beta 110.126(7)
_cell_angle_gamma 90
_cell_formula_units_Z 2
loop_
_atom_type_symbol
_atom_type_radius_bond
C 0.68
H 0.23
I 1.40
N 0.68
O 0.68
Zn 1.22
loop_
_atom_site_label
_atom_site_type_symbol
_atom_site_fract_x
_atom_site_fract_y
_atom_site_fract_z
Zn1 Zn 0.00000 0.00000 0.00000
Zn2 Zn 0.19552(6) 0.03350(8) -0.06791(4)
I1 I 0.33893(5) 0.14803(9) -0.10953(4)
C1 C -0.0654(4) -0.1846(8) -0.2264(3)
C2 C -0.1584(5) -0.2265(11) -0.2310(5)
H1 H -0.17530 -0.22950 -0.18640
C3 C -0.0264(5) -0.2188(8) -0.2860(3)
H2 H 0.04440 -0.20170 -0.28090
C4 C 0.0127(4) -0.1188(8) -0.1526(3)
O1 O 0.1001(3) -0.0784(5) -0.1541(2)
O2 O -0.0162(5) -0.1132(7) -0.0961(3)
C5 C -0.0589(6) -0.3829(8) 0.0016(5)
C6 C 0.0266(8) -0.3967(12) 0.0543(5)
H3 H 0.04870 -0.32800 0.09260
C7 C -0.0886(11) -0.4886(11) -0.0567(6)
H4 H -0.15240 -0.47860 -0.09770
C8 C -0.1376(6) -0.2602(8) -0.0023(5)
O3 O -0.2339(6) -0.2695(10) -0.0405(5)
O4 O -0.0989(4) -0.1523(5) 0.0342(2)
C9 C -0.2359(8) -0.2682(12) -0.3004(5)
H5 H -0.30790 -0.27160 -0.30610
C10 C -0.2006(6) -0.3041(9) -0.3600(4)
C11 C -0.0956(5) -0.2777(8) -0.3513(4)
H6 H -0.07130 -0.30080 -0.39120
C12 C -0.2735(5) -0.3772(8) -0.4300(4)
O5 O -0.3674(4) -0.3985(6) -0.4356(3)
O6 O -0.2367(4) -0.4061(6) -0.4815(3)
N1 N 0.6741(7) 0.3689(10) 0.1104(5)
N2 N 0.5587(12) 0.2680(17) 0.1422(8)
C13 C 0.5994(13) 0.2791(14) 0.0820(7)
H7 H 0.57790 0.23360 0.03450
C14 C 0.6978(13) 0.4045(18) 0.1728(9)
H8 H 0.75910 0.45290 0.20200
C15 C 0.6246(13) 0.3648(18) 0.1924(9)
H9 H 0.61390 0.39630 0.23690
C16 C 0.7421(12) 0.4002(18) 0.0684(9)
H10 H 0.79710 0.46430 0.09760
H11 H 0.70140 0.44370 0.02040
H12 H 0.77380 0.31390 0.05880
C17 C 0.4613(15) 0.140(2) 0.1352(11)
H13 H 0.40360 0.14540 0.08610
H14 H 0.49100 0.04520 0.14270
C18 C 0.4264(16) 0.183(2) 0.1978(12)
H15 H 0.36710 0.12860 0.20260
H16 H 0.48300 0.19590 0.24700
C19 C 0.393(2) 0.327(3) 0.1441(16)
H17 H 0.38690 0.40550 0.17520
H18 H 0.32550 0.31120 0.10380
H19 H 0.44650 0.34660 0.12180
C5B C 0.0589(6) -0.6171(8) -0.0016(5)
C6B C -0.0266(8) -0.6033(12) -0.0543(5)
H3B H -0.04870 -0.67200 -0.09260
C7B C 0.0886(11) -0.5114(11) 0.0567(6)
H4B H 0.15240 -0.52140 0.09770
C8B C 0.1376(6) -0.7398(8) 0.0023(5)
O3B O 0.2339(6) -0.7305(10) 0.0405(5)
O4B O 0.0989(4) -0.8477(5) -0.0342(2)
Zn2B Zn -0.19552(6) -0.03350(8) 0.06791(4)
I1B I -0.33893(5) -0.14803(9) 0.10953(4)
C1B C 0.0654(4) 0.1846(8) 0.2264(3)
C2B C 0.1584(5) 0.2265(11) 0.2310(5)
H1B H 0.17530 0.22950 0.18640
C3B C 0.0264(5) 0.2188(8) 0.2860(3)
H2B H -0.04440 0.20170 0.28090
C4B C -0.0127(4) 0.1188(8) 0.1526(3)
O1B O -0.1001(3) 0.0784(5) 0.1541(2)
O2B O 0.0162(5) 0.1132(7) 0.0961(3)
C9B C 0.2359(8) 0.2682(12) 0.3004(5)
H5B H 0.30790 0.27160 0.30610
C10B C 0.2006(6) 0.3041(9) 0.3600(4)
C11B C 0.0956(5) 0.2777(8) 0.3513(4)
H6B H 0.07130 0.30080 0.39120
C12B C 0.2735(5) 0.3772(8) 0.4300(4)
O5B O 0.3674(4) 0.3985(6) 0.4356(3)
O6B O 0.2367(4) 0.4061(6) 0.4815(3)
Zn1* Zn 0.00000 -1.00000 0.00000
Zn1A Zn -0.50000 -0.50000 -0.50000
Zn1A* Zn 0.50000 0.50000 0.50000
Zn2* Zn 0.19552(6) -0.96650(8) -0.06791(4)
Zn2A Zn 0.30448(6) 0.53350(8) 0.56791(4)
Zn2C Zn -0.30448(6) -0.53350(8) -0.56791(4)
O4B* O 0.0989(4) 0.1523(5) -0.0342(2)
O5A O -0.1326(4) 0.1015(6) -0.0644(3)
O5C O 0.1326(4) -0.1015(6) 0.0644(3)
O6A O -0.2633(4) 0.0939(6) -0.0185(3)
O6C O 0.2633(4) -0.0939(6) 0.0185(3)
#END
