
#######################################################################
#
#                 Cambridge Crystallographic Data Centre
#                                CCDC
#
#######################################################################
#
# If this CIF has been generated from an entry in the Cambridge
# Structural Database, then it will include bibliographic, chemical,
# crystal, experimental, refinement or atomic coordinate data resulting
# from the CCDC's data processing and validation procedures.
#
#######################################################################

data_CSD_CIF_QUHYEX
_audit_creation_date 2001-11-07
_audit_creation_method CSD-ConQuest-V1
_database_code_CSD QUHYEX
_database_code_depnum_ccdc_archive 'CCDC 1245583'
_chemical_formula_sum 'C8 H8 K2 La2 O20'
_chemical_formula_moiety
;
(C8 H4 La2 O18 2-)n,2n(K1 1+),2n(H2 O1)
;
_journal_coden_Cambridge 208
_journal_volume 150
_journal_year 2000
_journal_page_first 81
_journal_name_full 'J.Solid State Chem. '
loop_
_publ_author_name
"T.Bataille"
"M.Louer"
"J.-P.Auffredic"
"D.Louer"
_chemical_name_systematic
;
catena-(dipotassium tetrakis(\m~2~-oxalato)-diaqua-di-lanthanum dihydrate)
;
_cell_volume    540.042
_exptl_special_details
;
powder data
The structure is described in a triclinic subcell although it has been solved 
ab initio in a monoclinic cell [QUHYEX01]. The structure is depicted as ionic 
though described with an eightfold coordinated potassium atom and 
isostructural with the ammonium analogue
;
_diffrn_ambient_temperature ?
_diffrn_special_details
;
The study was carried out at room temperature,in the range 283-303K

;
#These two values have been output from a single CSD field.
_refine_ls_R_factor_gt 0.078
_refine_ls_wR_factor_gt 0.078
_symmetry_cell_setting triclinic
_symmetry_space_group_name_H-M 'P -1'
_symmetry_Int_Tables_number 2
loop_
_symmetry_equiv_pos_site_id
_symmetry_equiv_pos_as_xyz
1 x,y,z
2 -x,-y,-z
_cell_length_a 11.654
_cell_length_b 7.6003
_cell_length_c 6.6418
_cell_angle_alpha 90
_cell_angle_beta 103.05
_cell_angle_gamma 109.03
_cell_formula_units_Z 1
loop_
_atom_type_symbol
_atom_type_radius_bond
C 0.68
K 1.48
La 1.87
O 0.68
loop_
_atom_site_label
_atom_site_type_symbol
_atom_site_fract_x
_atom_site_fract_y
_atom_site_fract_z
La1 La 0.1984(3) 0.3462(8) -0.1775(5)
O1 O 0.235(3) 0.187(2) -0.502(2)
O2 O 0.245(3) 0.556(2) -0.504(1)
O3 O 0.227(3) 0.180(2) -0.829(2)
O4 O 0.213(3) 0.537(2) -0.835(1)
O5 O 0.004(2) 0.234(1) -0.502(2)
O6 O -0.092(2) 0.012(1) -0.747(2)
O7 O 0.411(1) 0.287(2) -0.147(3)
O8 O 0.6062(9) 0.375(2) 0.027(4)
C1 C 0.242(3) 0.272(2) -0.664(2)
C2 C 0.215(3) 0.456(2) -0.671(1)
C3 C -0.013(2) 0.072(1) -0.575(2)
C4 C 0.502(1) 0.401(2) -0.018(5)
O9 O -0.042(2) 0.200(4) -0.07(4)
O10 O 0.125(3) 0.647(3) -0.180(5)
K1 K 0.3511(9) 0.935(2) 0.686(1)
O11 O -0.644(2) -0.052(4) -0.753(4)
C3A C 0.013(2) -0.072(1) -0.425(2)
O5A O -0.004(2) -0.234(1) -0.498(2)
O6A O 0.092(2) -0.012(1) -0.253(2)
C4A C 0.498(1) 0.599(2) 0.018(5)
O7A O 0.589(1) 0.713(2) 0.147(3)
O8A O 0.3938(9) 0.625(2) -0.027(4)
O1* O 0.235(3) 0.187(2) 0.498(2)
O2* O 0.245(3) 0.556(2) 0.496(1)
O3* O 0.227(3) 0.180(2) 0.171(2)
O4* O 0.213(3) 0.537(2) 0.165(1)
C1* C 0.242(3) 0.272(2) 0.336(2)
C2* C 0.215(3) 0.456(2) 0.329(1)
La1* La 0.1984(3) 0.3462(8) 0.8225(5)
La1** La 0.1984(3) 0.3462(8) -1.1775(5)
La1A La -0.1984(3) -0.3462(8) -0.8225(5)
La1A* La 0.8016(3) 0.6538(8) 0.1775(5)
O3** O 0.227(3) 0.180(2) 1.171(2)
O4** O 0.213(3) 0.537(2) 1.165(1)
O5* O 0.004(2) 0.234(1) 0.498(2)
O6A* O 0.092(2) -0.012(1) 0.747(2)
O7* O 0.411(1) 0.287(2) 0.853(3)
O8A* O 0.3938(9) 0.625(2) 0.973(4)
O9* O -0.042(2) 0.200(4) 0.93(4)
O10* O 0.125(3) 0.647(3) 0.820(5)
#END
