
#######################################################################
#
#                 Cambridge Crystallographic Data Centre
#                                CCDC
#
#######################################################################
#
# If this CIF has been generated from an entry in the Cambridge
# Structural Database, then it will include bibliographic, chemical,
# crystal, experimental, refinement or atomic coordinate data resulting
# from the CCDC's data processing and validation procedures.
#
#######################################################################

data_CSD_CIF_QUHYIB
_audit_creation_date 2001-11-07
_audit_creation_method CSD-ConQuest-V1
_database_code_CSD QUHYIB
_database_code_depnum_ccdc_archive 'CCDC 1245585'
_chemical_formula_sum 'C8 H16 La2 N2 O20'
_chemical_formula_moiety
;
(C8 H4 La2 O18 2-)n,2n(H4 N1 1+),2n(H2 O1)
;
_journal_coden_Cambridge 208
_journal_volume 150
_journal_year 2000
_journal_page_first 81
_journal_name_full 'J.Solid State Chem. '
loop_
_publ_author_name
"T.Bataille"
"M.Louer"
"J.-P.Auffredic"
"D.Louer"
_chemical_name_systematic
;
catena-(diammonium tetrakis(\m~2~-oxalato)-diaqua-di-lanthanum dihydrate)
;
_cell_volume    552.247
_exptl_special_details
;
powder data
The structure is described in a triclinic subcell although it has been solved 
ab initio in a monoclinic cell [QUHYIB01]
;
_diffrn_ambient_temperature ?
_diffrn_special_details
;
The study was carried out at room temperature,in the range 283-303K

;
#These two values have been output from a single CSD field.
_refine_ls_R_factor_gt 0.095
_refine_ls_wR_factor_gt 0.095
_symmetry_cell_setting triclinic
_symmetry_space_group_name_H-M 'P -1'
_symmetry_Int_Tables_number 2
loop_
_symmetry_equiv_pos_site_id
_symmetry_equiv_pos_as_xyz
1 x,y,z
2 -x,-y,-z
_cell_length_a 11.732
_cell_length_b 7.774
_cell_length_c 6.655
_cell_angle_alpha 90
_cell_angle_beta 104.4
_cell_angle_gamma 109.4
_cell_formula_units_Z 1
loop_
_atom_type_symbol
_atom_type_radius_bond
C 0.68
La 2.02
N 0.68
O 0.68
loop_
_atom_site_label
_atom_site_type_symbol
_atom_site_fract_x
_atom_site_fract_y
_atom_site_fract_z
La1 La 0.1954(5) 0.349(2) -0.1534(7)
O1 O 0.214(4) 0.186(2) -0.486(2)
O2 O 0.294(4) 0.563(2) -0.447(2)
O3 O 0.189(4) 0.188(2) -0.821(2)
O4 O 0.251(4) 0.562(2) -0.784(2)
O5 O -0.068(3) 0.159(4) -0.442(3)
O6 O -0.068(4) 0.048(6) -0.754(2)
O7 O 0.407(1) 0.277(2) -0.106(6)
O8 O 0.609(1) 0.388(3) 0.020(6)
C1 C 0.209(6) 0.270(2) -0.647(2)
C2 C 0.268(5) 0.480(2) -0.627(2)
C3 C -0.052(4) 0.042(6) -0.553(2)
C4 C 0.505(2) 0.411(3) -0.04(1)
O9 O -0.026(4) 0.20(1) -0.060(5)
O10 O 0.152(4) 0.668(6) -0.140(6)
N1 N 0.398(4) 0.97(1) 0.656(7)
O11 O -0.629(4) -0.08(1) -0.745(5)
C3A C 0.052(4) -0.042(6) -0.447(2)
O5A O 0.068(3) -0.159(4) -0.558(3)
O6A O 0.068(4) -0.048(6) -0.246(2)
C4A C 0.495(2) 0.589(3) 0.04(1)
O7A O 0.593(1) 0.723(2) 0.106(6)
O8A O 0.391(1) 0.612(3) -0.020(6)
O1* O 0.214(4) 0.186(2) 0.514(2)
O2* O 0.294(4) 0.563(2) 0.553(2)
O3* O 0.189(4) 0.188(2) 0.179(2)
O4* O 0.251(4) 0.562(2) 0.216(2)
C1* C 0.209(6) 0.270(2) 0.353(2)
C2* C 0.268(5) 0.480(2) 0.373(2)
La1* La 0.1954(5) 0.349(2) 0.8466(7)
La1** La 0.1954(5) 0.349(2) -1.1534(7)
La1A La -0.1954(5) -0.349(2) -0.8466(7)
La1A* La 0.8046(5) 0.651(2) 0.1534(7)
O3** O 0.189(4) 0.188(2) 1.179(2)
O4** O 0.251(4) 0.562(2) 1.216(2)
O5* O -0.068(3) 0.159(4) 0.558(3)
O6A* O 0.068(4) -0.048(6) 0.754(2)
O7* O 0.407(1) 0.277(2) 0.894(6)
O8A* O 0.391(1) 0.612(3) 0.980(6)
O9* O -0.026(4) 0.20(1) 0.940(5)
O10* O 0.152(4) 0.668(6) 0.860(6)
#END
