
#######################################################################
#
#                 Cambridge Crystallographic Data Centre
#                                CCDC
#
#######################################################################
#
# If this CIF has been generated from an entry in the Cambridge
# Structural Database, then it will include bibliographic, chemical,
# crystal, experimental, refinement or atomic coordinate data resulting
# from the CCDC's data processing and validation procedures.
#
#######################################################################

data_CSD_CIF_QUJJIQ
_audit_creation_date 2015-06-09
_audit_creation_method CSD-ConQuest-V1
_database_code_CSD QUJJIQ
_database_code_depnum_ccdc_archive 'CCDC 1032217'
_chemical_formula_sum 'C44 H60 Br6 Cr1 Na1 O12 P2'
_chemical_formula_moiety
;
(C18 Br6 Cr1 Na1 O12 2-)n,2n(C13 H30 P1 1+)
;
_journal_coden_Cambridge 9
_journal_volume 54
_journal_year 2015
_journal_page_first 5410
_journal_name_full 'Inorg.Chem. '
loop_
_publ_author_name
"S.Benmansour"
"C.Valles-Garcia"
"P.Gomez-Claramunt"
"G.M.Espallargas"
"C.J.Gomez-Garcia"
_chemical_name_systematic
;
catena-(bis(Tri-n-butyl(methyl)phosphonium) 
tris(\m~2~-3,6-dibromo-2,5-dioxy-1,4-benzoquinone)-chromium-sodium)
;
_cell_volume   2829.210
_exptl_crystal_colour 'red'
_exptl_crystal_density_diffrn 1.64
_exptl_crystal_description 'rhombic'
_diffrn_ambient_temperature 120
#These two values have been output from a single CSD field.
_refine_ls_R_factor_gt 0.0326
_refine_ls_wR_factor_gt 0.0326
_symmetry_cell_setting monoclinic
_symmetry_space_group_name_H-M 'P 21'
_symmetry_Int_Tables_number 4
loop_
_symmetry_equiv_pos_site_id
_symmetry_equiv_pos_as_xyz
1 x,y,z
2 -x,1/2+y,-z
_cell_length_a 9.8809(4)
_cell_length_b 23.8659(8)
_cell_length_c 12.4131(4)
_cell_angle_alpha 90
_cell_angle_beta 104.868(4)
_cell_angle_gamma 90
_cell_formula_units_Z 2
loop_
_atom_type_symbol
_atom_type_radius_bond
C 0.68
H 0.23
Br 1.21
Cr 1.39
Na 1.66
O 0.68
P 1.05
loop_
_atom_site_label
_atom_site_type_symbol
_atom_site_fract_x
_atom_site_fract_y
_atom_site_fract_z
Cr1 Cr -0.23034(7) 0.22184(3) 0.67540(5)
Na1 Na 0.26382(18) 0.04527(7) 1.17792(13)
C1 C 0.0701(5) 0.11079(18) 0.8361(4)
Br1 Br 0.13551(6) 0.06873(2) 0.73056(4)
C2 C -0.0258(4) 0.15236(17) 0.7998(4)
O1 O -0.0774(3) 0.16628(13) 0.6977(2)
C3 C -0.0810(4) 0.18568(17) 0.8833(4)
O2 O -0.1817(3) 0.21947(12) 0.8395(2)
C4 C -0.0240(4) 0.17829(18) 0.9953(4)
Br2 Br -0.08636(5) 0.22320(2) 1.09780(4)
C5 C 0.0728(5) 0.13475(19) 1.0371(4)
O3 O 0.1182(4) 0.12261(14) 1.1355(3)
C6 C 0.1246(4) 0.09834(17) 0.9505(3)
O4 O 0.2097(3) 0.06134(13) 0.9879(2)
C7 C -0.3911(4) 0.37216(18) 0.7349(4)
Br3 Br -0.58602(5) 0.36553(2) 0.72012(5)
C8 C -0.3202(4) 0.32739(18) 0.7078(4)
O5 O -0.3733(3) 0.27906(12) 0.6712(3)
C9 C -0.1630(4) 0.33188(18) 0.7190(4)
O6 O -0.1079(3) 0.28758(12) 0.6875(2)
C10 C -0.0939(4) 0.37956(18) 0.7609(4)
Br4 Br 0.10304(5) 0.38380(2) 0.78093(5)
C11 C -0.1629(5) 0.42690(18) 0.7910(4)
O7 O -0.1063(3) 0.47161(13) 0.8255(3)
C12 C -0.3236(5) 0.42170(18) 0.7805(4)
O8 O -0.3805(3) 0.46113(13) 0.8142(3)
C13 C -0.5007(5) 0.09915(19) 0.5204(4)
Br5 Br -0.56318(6) 0.05669(2) 0.62699(4)
C14 C -0.4120(4) 0.14304(17) 0.5544(4)
O9 O -0.3660(3) 0.15967(13) 0.6561(2)
C15 C -0.3609(4) 0.17719(18) 0.4696(4)
O10 O -0.2731(3) 0.21613(12) 0.5121(2)
C16 C -0.4078(5) 0.16468(19) 0.3582(4)
Br6 Br -0.34428(6) 0.20596(2) 0.25148(4)
C17 C -0.5038(5) 0.12045(18) 0.3187(4)
O11 O -0.5486(3) 0.10724(14) 0.2214(3)
C18 C -0.5565(5) 0.08539(18) 0.4064(4)
O12 O -0.6449(3) 0.04945(13) 0.3704(2)
P1 P 0.15986(13) 0.23272(6) 0.47941(10)
C19 C 0.1927(5) 0.2269(2) 0.6261(4)
H1 H 0.19940 0.26440 0.65910
H2 H 0.28090 0.20680 0.65560
H3 H 0.11590 0.20630 0.64470
C20 C 0.1380(6) 0.1633(2) 0.4197(4)
H4 H 0.13340 0.16600 0.33920
H5 H 0.22100 0.14040 0.45530
C21 C 0.0055(6) 0.1334(2) 0.4337(4)
H6 H 0.00200 0.13610 0.51250
H7 H -0.07830 0.15260 0.38750
C22 C 0.0017(6) 0.0713(2) 0.3997(5)
H8 H 0.00040 0.06860 0.31990
H9 H 0.08740 0.05240 0.44350
C23 C -0.1245(7) 0.0423(2) 0.4189(5)
H10 H -0.11930 0.04210 0.49880
H11 H -0.12730 0.00360 0.39190
H12 H -0.20930 0.06210 0.37870
C24 C 0.0037(5) 0.2721(2) 0.4235(4)
H13 H -0.01850 0.26980 0.34120
H14 H -0.07400 0.25390 0.44720
C25 C 0.0072(5) 0.3335(2) 0.4561(4)
H15 H 0.03840 0.33680 0.53830
H16 H 0.07620 0.35340 0.42450
C26 C -0.1346(6) 0.3613(2) 0.4151(5)
H17 H -0.20290 0.34150 0.44750
H18 H -0.16620 0.35730 0.33310
C27 C -0.1334(7) 0.4228(2) 0.4451(6)
H19 H -0.09560 0.42730 0.52570
H20 H -0.22920 0.43750 0.42310
H21 H -0.07480 0.44340 0.40590
C28 C 0.3097(6) 0.2677(3) 0.4518(5)
H22 H 0.32510 0.30320 0.49430
H23 H 0.39330 0.24390 0.48040
C29 C 0.2984(7) 0.2807(3) 0.3309(5)
H24 H 0.20900 0.30040 0.29820
H25 H 0.29860 0.24530 0.28920
C30 C 0.4236(9) 0.3182(4) 0.3203(8)
H26 H 0.51190 0.29780 0.35280
H27 H 0.41720 0.32400 0.24020
C31 C 0.4318(9) 0.3765(3) 0.3778(8)
H28 H 0.34090 0.39540 0.35340
H29 H 0.50380 0.39940 0.35740
H30 H 0.45570 0.37160 0.45890
P2 P 0.65602(14) 0.03715(6) 0.98450(12)
C32 C 0.6866(7) 0.0380(3) 1.1326(5)
H31 H 0.78160 0.05160 1.16630
H32 H 0.67620 0.00000 1.15930
H33 H 0.61860 0.06280 1.15350
C33 C 0.4983(6) -0.0026(2) 0.9250(5)
H34 H 0.41940 0.01520 0.94790
H35 H 0.47760 -0.00020 0.84280
C34 C 0.5051(6) -0.0647(2) 0.9585(5)
H36 H 0.57970 -0.08360 0.93210
H37 H 0.52830 -0.06780 1.04080
C35 C 0.3656(7) -0.0931(2) 0.9083(6)
H38 H 0.34300 -0.08960 0.82610
H39 H 0.29130 -0.07360 0.93420
C36 C 0.3656(8) -0.1549(3) 0.9392(6)
H40 H 0.44110 -0.17430 0.91610
H41 H 0.27550 -0.17170 0.90130
H42 H 0.38050 -0.15850 1.02000
C37 C 0.8069(6) 0.0036(3) 0.9567(6)
H43 H 0.88860 0.02830 0.98590
H44 H 0.82400 -0.03150 1.00070
C38 C 0.8040(8) -0.0101(3) 0.8439(6)
H45 H 0.80380 0.02490 0.80110
H46 H 0.71640 -0.03060 0.80970
C39 C 0.9324(8) -0.0470(3) 0.8354(7)
H47 H 0.93140 -0.04970 0.75560
H48 H 1.01860 -0.02640 0.87320
C40 C 0.9442(10) -0.1050(4) 0.8818(7)
H49 H 0.96370 -0.10330 0.96320
H50 H 1.02050 -0.12480 0.86080
H51 H 0.85600 -0.12510 0.85190
C41 C 0.6321(5) 0.1077(2) 0.9318(4)
H52 H 0.71410 0.13030 0.97060
H53 H 0.62990 0.10700 0.85160
C42 C 0.5006(5) 0.1363(2) 0.9451(4)
H54 H 0.41790 0.11670 0.89840
H55 H 0.49670 0.13310 1.02380
C43 C 0.4931(6) 0.1975(2) 0.9128(4)
H56 H 0.49260 0.20080 0.83320
H57 H 0.57760 0.21700 0.95730
C44 C 0.3627(6) 0.2262(2) 0.9317(5)
H58 H 0.27870 0.20680 0.88860
H59 H 0.36040 0.26530 0.90730
H60 H 0.36530 0.22490 1.01110
Na1* Na -0.73618(18) 0.04527(7) 0.17792(13)
Na1A Na -0.26382(18) 0.54527(7) 0.82208(13)
O7A O 0.1063(3) -0.02839(13) 1.1745(3)
O8A O 0.3805(3) -0.03887(13) 1.1858(3)
O11* O 0.4514(3) 0.10724(14) 1.2214(3)
O12* O 0.3551(3) 0.04945(13) 1.3704(2)
#END
