
#######################################################################
#
#                 Cambridge Crystallographic Data Centre
#                                CCDC
#
#######################################################################
#
# If this CIF has been generated from an entry in the Cambridge
# Structural Database, then it will include bibliographic, chemical,
# crystal, experimental, refinement or atomic coordinate data resulting
# from the CCDC's data processing and validation procedures.
#
#######################################################################

data_CSD_CIF_QUJJOW
_audit_creation_date 2015-06-09
_audit_creation_method CSD-ConQuest-V1
_database_code_CSD QUJJOW
_database_code_depnum_ccdc_archive 'CCDC 1032218'
_chemical_formula_sum 'C64 H54 Cl6 Fe1 K1 N2 O14 P2'
_chemical_formula_moiety
;
(C18 Cl6 Fe1 K1 O12 2-)n,2n(C20 H20 P1 1+),2n(C3 H7 N1 O1)
;
_journal_coden_Cambridge 9
_journal_volume 54
_journal_year 2015
_journal_page_first 5410
_journal_name_full 'Inorg.Chem. '
loop_
_publ_author_name
"S.Benmansour"
"C.Valles-Garcia"
"P.Gomez-Claramunt"
"G.M.Espallargas"
"C.J.Gomez-Garcia"
_chemical_name_systematic
;
catena-(bis(Ethyl(triphenyl)phosphonium) 
tris(\m~2~-3,6-dichloro-2,5-dioxy-1,4-benzoquinone)-iron-potassium)
;
_cell_volume   3086.007
_exptl_crystal_colour 'red'
_exptl_crystal_density_diffrn 1.555
_exptl_crystal_description 'Prism'
_diffrn_ambient_temperature 120
#These two values have been output from a single CSD field.
_refine_ls_R_factor_gt 0.0579
_refine_ls_wR_factor_gt 0.0579
_symmetry_cell_setting monoclinic
_symmetry_space_group_name_H-M 'P 21'
_symmetry_Int_Tables_number 4
loop_
_symmetry_equiv_pos_site_id
_symmetry_equiv_pos_as_xyz
1 x,y,z
2 -x,1/2+y,-z
_cell_length_a 9.7327(3)
_cell_length_b 24.9615(7)
_cell_length_c 13.3675(4)
_cell_angle_alpha 90
_cell_angle_beta 108.147(4)
_cell_angle_gamma 90
_cell_formula_units_Z 2
loop_
_atom_type_symbol
_atom_type_radius_bond
C 0.68
H 0.23
Cl 0.99
Fe 1.52
K 2.03
N 0.68
O 0.68
P 1.05
loop_
_atom_site_label
_atom_site_type_symbol
_atom_site_fract_x
_atom_site_fract_y
_atom_site_fract_z
Fe1 Fe 0.74018(7) 0.28885(2) 0.30938(5)
K1 K 0.24271(14) 0.11204(5) -0.19354(10)
C1 C 0.4251(5) 0.17933(18) 0.1377(4)
Cl1 Cl 0.34436(13) 0.15001(5) 0.2246(1)
C2 C 0.5273(5) 0.21839(16) 0.1773(4)
O1 O 0.5709(4) 0.23534(13) 0.2713(3)
C3 C 0.6001(5) 0.24391(17) 0.1032(3)
O2 O 0.6972(4) 0.27870(12) 0.1475(3)
C4 C 0.5609(5) 0.22920(18) -0.0004(4)
Cl2 Cl 0.64574(12) 0.25755(4) -0.08466(9)
C5 C 0.4567(5) 0.18849(17) -0.0429(3)
O3 O 0.4193(4) 0.17291(13) -0.1358(3)
C6 C 0.3834(5) 0.16095(17) 0.0324(4)
O4 O 0.2940(4) 0.12623(14) -0.0067(3)
C7 C 1.0487(5) 0.17739(18) 0.4805(4)
Cl3 Cl 1.13516(12) 0.14967(4) 0.39685(9)
C8 C 0.9429(5) 0.21619(17) 0.4407(4)
O5 O 0.9028(4) 0.23305(12) 0.3467(3)
C9 C 0.8703(5) 0.24236(17) 0.5148(4)
O6 O 0.7777(3) 0.27868(12) 0.4701(3)
C10 C 0.9069(5) 0.2260(2) 0.6175(4)
Cl4 Cl 0.82626(15) 0.25443(5) 0.70306(11)
C11 C 1.0142(5) 0.18605(18) 0.6596(4)
O7 O 1.0512(4) 0.17027(13) 0.7518(3)
C12 C 1.0922(5) 0.16076(16) 0.5864(4)
O8 O 1.1869(4) 0.12726(13) 0.6266(3)
C13 C 0.9016(5) 0.4383(2) 0.2624(4)
Cl5 Cl 1.08071(12) 0.43066(6) 0.26692(10)
C14 C 0.8286(5) 0.3940(2) 0.2804(3)
O9 O 0.8812(4) 0.34713(15) 0.3034(3)
C15 C 0.6692(5) 0.3995(2) 0.2763(3)
O10 O 0.6143(4) 0.35500(16) 0.2960(3)
C16 C 0.6020(5) 0.4478(2) 0.2541(4)
Cl6 Cl 0.42356(12) 0.45515(6) 0.25008(10)
C17 C 0.6744(5) 0.4948(2) 0.2355(4)
O11 O 0.6194(4) 0.53948(17) 0.2154(3)
C18 C 0.8353(5) 0.4887(2) 0.2377(4)
O12 O 0.8932(4) 0.53036(16) 0.2176(3)
P1 P 0.29737(12) 0.50949(5) 0.58338(9)
C19 C 0.3481(6) 0.54890(19) 0.7029(4)
H1 H 0.31920 0.52940 0.75760
H2 H 0.45460 0.55280 0.72810
C20 C 0.2810(6) 0.6035(2) 0.6894(4)
H3 H 0.31550 0.62420 0.63970
H4 H 0.30820 0.62190 0.75760
H5 H 0.17560 0.60020 0.66220
C21 C 0.4132(5) 0.45168(18) 0.5981(3)
C22 C 0.4965(6) 0.4330(2) 0.6953(4)
H6 H 0.49260 0.44990 0.75810
C23 C 0.5856(7) 0.3892(3) 0.7000(5)
H7 H 0.64420 0.37620 0.76640
C24 C 0.5899(6) 0.3643(2) 0.6090(5)
H8 H 0.65210 0.33450 0.61270
C25 C 0.5041(6) 0.3826(2) 0.5129(4)
H9 H 0.50540 0.36480 0.45040
C26 C 0.4161(5) 0.42648(19) 0.5063(4)
H10 H 0.35800 0.43940 0.43970
C27 C 0.1135(5) 0.48766(18) 0.5524(4)
C28 C 0.0016(5) 0.52516(19) 0.5293(4)
H11 H 0.02250 0.56220 0.52680
C29 C -0.1403(5) 0.5083(2) 0.5098(4)
H12 H -0.21680 0.53370 0.49280
C30 C -0.1701(5) 0.4543(2) 0.5153(4)
H13 H -0.26680 0.44290 0.50450
C31 C -0.0602(6) 0.4167(2) 0.5365(4)
H14 H -0.08200 0.37970 0.53890
C32 C 0.0815(6) 0.4329(2) 0.5540(4)
H15 H 0.15670 0.40700 0.56700
C33 C 0.3244(5) 0.54938(17) 0.4795(4)
C34 C 0.2159(5) 0.55885(19) 0.3872(4)
H16 H 0.12170 0.54510 0.37750
C35 C 0.2439(6) 0.5886(2) 0.3079(4)
H17 H 0.16860 0.59560 0.24430
C36 C 0.3829(6) 0.6082(2) 0.3218(4)
H18 H 0.40180 0.62880 0.26780
C37 C 0.4934(5) 0.5976(2) 0.4141(4)
H19 H 0.58880 0.60980 0.42230
C38 C 0.4645(5) 0.5694(2) 0.4939(4)
H20 H 0.53890 0.56350 0.55840
P2 P 0.80278(12) 0.89416(4) 0.07307(9)
C39 C 0.8571(6) 0.8550(2) 0.1933(4)
H21 H 0.96400 0.85260 0.21900
H22 H 0.82570 0.87370 0.24780
C40 C 0.7932(6) 0.7975(2) 0.1787(4)
H23 H 0.68740 0.79960 0.15350
H24 H 0.82440 0.77860 0.24630
H25 H 0.82730 0.77820 0.12720
C41 C 0.8278(5) 0.85401(17) -0.0309(3)
C42 C 0.9672(5) 0.8366(2) -0.0210(4)
H26 H 1.04500 0.84590 0.03970
C43 C 0.9930(6) 0.8056(2) -0.0996(4)
H27 H 1.08850 0.79440 -0.09360
C44 C 0.8789(6) 0.79110(19) -0.1865(4)
H28 H 0.89620 0.76980 -0.24040
C45 C 0.7396(6) 0.8075(2) -0.1955(4)
H29 H 0.66150 0.79700 -0.25500
C46 C 0.7136(5) 0.8388(2) -0.1187(4)
H30 H 0.61790 0.85020 -0.12550
C47 C 0.9176(5) 0.9516(2) 0.0876(3)
C48 C 1.0012(6) 0.9705(2) 0.1857(4)
H31 H 0.99840 0.95320 0.24830
C49 C 1.0895(7) 1.0156(2) 0.1910(5)
H32 H 1.14700 1.02880 0.25750
C50 C 1.0930(6) 1.0406(2) 0.1004(4)
H33 H 1.15300 1.07100 0.10450
C51 C 1.0100(5) 1.02171(18) 0.0033(4)
H34 H 1.01300 1.03930 -0.05900
C52 C 0.9238(6) 0.9779(2) -0.0036(4)
H35 H 0.86730 0.96520 -0.07080
C53 C 0.6176(5) 0.91597(19) 0.0437(3)
C54 C 0.5064(5) 0.87886(19) 0.0236(4)
H36 H 0.52670 0.84170 0.02260
C55 C 0.3649(5) 0.8963(2) 0.0050(4)
H37 H 0.28820 0.87110 -0.00880
C56 C 0.3364(6) 0.9504(2) 0.0068(4)
H38 H 0.23980 0.96210 -0.00520
C57 C 0.4471(6) 0.9880(2) 0.0258(4)
H39 H 0.42610 1.02510 0.02660
C58 C 0.5891(6) 0.97080(19) 0.0436(4)
H40 H 0.66550 0.99610 0.05560
C59 C 0.7608(6) 0.7912(2) 0.4893(4)
H41 H 0.79790 0.80000 0.56190
O13 O 0.8230(5) 0.81012(16) 0.4297(3)
N1 N 0.6476(5) 0.75996(19) 0.4598(3)
C60 C 0.5842(6) 0.7457(2) 0.3501(4)
H42 H 0.56850 0.77810 0.30680
H43 H 0.49140 0.72770 0.34030
H44 H 0.64960 0.72150 0.32890
C61 C 0.5742(7) 0.7398(2) 0.5328(4)
H45 H 0.62930 0.75020 0.60490
H46 H 0.56750 0.70070 0.52790
H47 H 0.47680 0.75520 0.51450
C62 C 0.7409(6) 0.1131(2) -0.0017(4)
H48 H 0.70110 0.10440 -0.07420
O14 O 0.6810(4) 0.09476(15) 0.0585(3)
N2 N 0.8588(5) 0.14481(16) 0.0263(3)
C63 C 0.9244(6) 0.1588(2) 0.1367(4)
H49 H 0.88910 0.19390 0.15020
H50 H 1.02980 0.16000 0.15310
H51 H 0.89860 0.13170 0.18090
C64 C 0.9257(6) 0.1660(2) -0.0473(4)
H52 H 1.01470 0.14600 -0.04120
H53 H 0.94900 0.20390 -0.03180
H54 H 0.85910 0.16240 -0.11900
K1* K 1.24271(14) 0.11204(5) 0.80646(10)
K1A K 0.75729(14) 0.61204(5) 0.19354(10)
O7* O 0.0512(4) 0.17027(13) -0.2482(3)
O8* O 0.1869(4) 0.12726(13) -0.3734(3)
O11A O 0.3806(4) 0.03948(17) -0.2154(3)
O12A O 0.1068(4) 0.03036(16) -0.2176(3)
#END
