
#######################################################################
#
#                 Cambridge Crystallographic Data Centre
#                                CCDC
#
#######################################################################
#
# If this CIF has been generated from an entry in the Cambridge
# Structural Database, then it will include bibliographic, chemical,
# crystal, experimental, refinement or atomic coordinate data resulting
# from the CCDC's data processing and validation procedures.
#
#######################################################################

data_CSD_CIF_QUJKOX
_audit_creation_date 2015-06-09
_audit_creation_method CSD-ConQuest-V1
_database_code_CSD QUJKOX
_database_code_depnum_ccdc_archive 'CCDC 1032219'
_chemical_formula_sum 'C28 H25 Cl6 Fe1 N2 Na2 O13'
_chemical_formula_moiety
;
(C21 H7 Cl6 Fe1 N1 Na2 O13 1-)n,n(C7 H18 N1 1+)
;
_journal_coden_Cambridge 9
_journal_volume 54
_journal_year 2015
_journal_page_first 5410
_journal_name_full 'Inorg.Chem. '
loop_
_publ_author_name
"S.Benmansour"
"C.Valles-Garcia"
"P.Gomez-Claramunt"
"G.M.Espallargas"
"C.J.Gomez-Garcia"
_chemical_name_systematic
;
catena-(Triethyl(methyl)ammonium 
bis(\m~4~-3,6-dichloro-2,5-dioxy-1,4-benzoquinone)-(\m~3~-3,6-dichloro-2,5-dio
xy-1,4-benzoquinone)-dimethylformamide-iron-di-sodium)
;
_cell_volume   3521.190
_exptl_crystal_colour 'purple'
_exptl_crystal_density_diffrn 1.72
_exptl_crystal_description 'block'
_diffrn_ambient_temperature 120
_refine_special_details
;
C51',C52',C61',C62',C71',C72',C81',N50' and C51,C52,C61,C62,C71,C72,C81,N50 
disordered over two sites with occupancies 0.533:0.467.
;
#These two values have been output from a single CSD field.
_refine_ls_R_factor_gt 0.0413
_refine_ls_wR_factor_gt 0.0413
_symmetry_cell_setting monoclinic
_symmetry_space_group_name_H-M 'P 21/c'
_symmetry_Int_Tables_number 14
loop_
_symmetry_equiv_pos_site_id
_symmetry_equiv_pos_as_xyz
1 x,y,z
2 -x,1/2+y,1/2-z
3 -x,-y,-z
4 x,-1/2-y,-1/2+z
_cell_length_a 12.7905(3)
_cell_length_b 25.9152(6)
_cell_length_c 10.6329(2)
_cell_angle_alpha 90
_cell_angle_beta 92.472(2)
_cell_angle_gamma 90
_cell_formula_units_Z 4
loop_
_atom_type_symbol
_atom_type_radius_bond
C 0.68
H 0.23
Cl 0.99
Fe 1.52
N 0.68
Na 1.66
O 0.68
loop_
_atom_site_label
_atom_site_type_symbol
_atom_site_fract_x
_atom_site_fract_y
_atom_site_fract_z
Fe1 Fe 0.81432(2) 0.102553(12) 0.18721(3)
Na1 Na 0.30866(7) 0.29398(3) 0.31686(9)
Na2 Na 0.34799(8) 0.31174(4) 0.02611(9)
C1 C 0.60538(18) 0.22032(9) 0.2523(2)
Cl1 Cl 0.64844(5) 0.25465(3) 0.38370(6)
C2 C 0.51368(18) 0.23698(9) 0.1831(2)
O1 O 0.46183(14) 0.27583(7) 0.20590(17)
C3 C 0.47437(17) 0.20395(9) 0.0688(2)
O2 O 0.39816(13) 0.22084(7) 0.00642(16)
C4 C 0.52897(17) 0.15775(9) 0.0415(2)
Cl2 Cl 0.48633(5) 0.12087(2) -0.08598(5)
C5 C 0.62203(17) 0.14560(8) 0.1050(2)
O3 O 0.68314(12) 0.10870(6) 0.07655(15)
C6 C 0.65885(17) 0.17699(9) 0.2188(2)
O4 O 0.74069(12) 0.15923(6) 0.27764(15)
C7 C 1.04474(17) 0.20670(9) 0.0945(2)
Cl3 Cl 1.01225(5) 0.23579(2) -0.04803(6)
C8 C 0.98178(16) 0.16857(8) 0.1395(2)
O5 O 0.89659(12) 0.15190(6) 0.08507(14)
C9 C 1.01033(16) 0.14233(8) 0.2637(2)
O6 O 0.94417(12) 0.10876(6) 0.29916(15)
C10 C 1.10228(17) 0.15478(8) 0.3286(2)
Cl4 Cl 1.13611(4) 0.12364(2) 0.46854(5)
C11 C 1.16762(17) 0.19508(8) 0.2883(2)
O7 O 1.24837(12) 0.20978(6) 0.34559(16)
C12 C 1.13646(17) 0.22418(8) 0.1645(2)
O8 O 1.19298(13) 0.26010(6) 0.13470(16)
C13 C 0.28110(17) 0.45935(9) 0.1805(2)
Cl5 Cl 0.35072(5) 0.46692(2) 0.04576(5)
C14 C 0.23866(16) 0.50192(8) 0.2371(2)
O9 O 0.24442(12) 0.54828(6) 0.19630(15)
C15 C 0.18098(16) 0.49612(8) 0.3582(2)
O10 O 0.14826(12) 0.53871(6) 0.40415(15)
C16 C 0.16701(17) 0.44814(9) 0.4092(2)
Cl6 Cl 0.09637(5) 0.44203(2) 0.54340(6)
C17 C 0.20992(17) 0.40292(8) 0.3552(2)
O11 O 0.20177(14) 0.35901(6) 0.39732(17)
C18 C 0.27217(16) 0.40913(8) 0.2332(2)
O12 O 0.30997(13) 0.36947(6) 0.18911(15)
O13 O 0.45569(17) 0.36045(8) -0.0965(2)
C19 C 0.4878(2) 0.39898(11) -0.1500(3)
H1 H 0.55530 0.41130 -0.12440
N1 N 0.43552(17) 0.42484(9) -0.2411(2)
C20 C 0.4793(2) 0.46984(12) -0.3004(3)
H2 H 0.42910 0.48320 -0.36450
H3 H 0.54430 0.46020 -0.34000
H4 H 0.49420 0.49650 -0.23670
C21 C 0.3331(2) 0.40747(14) -0.2875(3)
H5 H 0.30640 0.43090 -0.35370
H6 H 0.28500 0.40720 -0.21830
H7 H 0.33870 0.37250 -0.32200
N2? N 0.8269(4) 0.3999(2) 0.1968(5)
C22? C 0.8497(7) 0.3614(4) 0.0953(8)
H8? H 0.80590 0.37000 0.01920
H9? H 0.92380 0.36530 0.07370
C23? C 0.8308(9) 0.3063(4) 0.1285(11)
H10? H 0.84790 0.28420 0.05760
H11? H 0.75700 0.30160 0.14720
H12? H 0.87500 0.29690 0.20260
C24? C 0.7178(7) 0.3928(4) 0.2351(10)
H13? H 0.71190 0.35810 0.27280
H14? H 0.70400 0.41830 0.30160
C25? C 0.6354(10) 0.3980(6) 0.1343(12)
H15? H 0.56670 0.39250 0.16950
H16? H 0.64660 0.37230 0.06860
H17? H 0.63830 0.43270 0.09790
C26? C 0.8210(12) 0.4475(5) 0.1386(15)
H18? H 0.82820 0.44120 0.04750
H19? H 0.74890 0.46040 0.14840
C27? C 0.8832(5) 0.4851(3) 0.1691(6)
H20? H 0.86330 0.51570 0.11980
H21? H 0.95520 0.47530 0.15180
H22? H 0.87850 0.49270 0.25900
C28? C 0.8977(6) 0.3922(3) 0.3104(7)
H23? H 0.97060 0.39680 0.28760
H24? H 0.88830 0.35720 0.34340
H25? H 0.88090 0.41750 0.37500
N3 N 0.8491(3) 0.38552(18) 0.1765(4)
C29 C 0.8565(4) 0.3385(2) 0.0938(4)
H26 H 0.81560 0.34490 0.01420
H27 H 0.93050 0.33370 0.07260
C30 C 0.8182(5) 0.2894(2) 0.1505(6)
H28 H 0.82640 0.26090 0.09100
H29 H 0.74420 0.29300 0.16910
H30 H 0.85920 0.28200 0.22850
C31 C 0.7398(7) 0.3921(4) 0.2278(8)
H31 H 0.73820 0.42440 0.27750
H32 H 0.72610 0.36300 0.28530
C32 C 0.6510(9) 0.3940(5) 0.1225(10)
H33 H 0.58320 0.39770 0.16090
H34 H 0.65170 0.36200 0.07330
H35 H 0.66250 0.42350 0.06700
C33 C 0.8797(4) 0.43204(18) 0.0985(4)
H36 H 0.90940 0.41600 0.02340
H37 H 0.81110 0.44620 0.06840
C34 C 0.9376(10) 0.4740(4) 0.1155(12)
H38 H 0.93610 0.49420 0.03760
H39 H 1.00990 0.46400 0.13820
H40 H 0.90970 0.49480 0.18330
C35 C 0.9257(6) 0.3803(3) 0.2867(6)
H41 H 0.90650 0.35070 0.33800
H42 H 0.92450 0.41180 0.33790
H43 H 0.99620 0.37520 0.25630
Fe1A Fe 0.18568(2) 0.602553(12) 0.31279(3)
Na1* Na 1.30866(7) 0.29398(3) 0.31686(9)
Na1C Na 0.30866(7) 0.20602(3) -0.18314(9)
Na2* Na 1.34799(8) 0.31174(4) 0.02611(9)
Na2C Na 1.34799(8) 0.18826(4) 0.52611(9)
O2C O 0.39816(13) 0.27916(7) 0.50642(16)
O7* O 0.24837(12) 0.20978(6) 0.34559(16)
O7C O 0.24837(12) 0.29022(6) -0.15441(16)
O8* O 0.19298(13) 0.26010(6) 0.13470(16)
O9A O 0.75558(12) 0.04828(6) 0.30370(15)
O10A O 0.85174(12) 0.03871(6) 0.09585(15)
#END
