
#######################################################################
#
#                 Cambridge Crystallographic Data Centre
#                                CCDC
#
#######################################################################
#
# If this CIF has been generated from an entry in the Cambridge
# Structural Database, then it will include bibliographic, chemical,
# crystal, experimental, refinement or atomic coordinate data resulting
# from the CCDC's data processing and validation procedures.
#
#######################################################################

data_CSD_CIF_QUJVEY
_audit_creation_date 2015-06-09
_audit_creation_method CSD-ConQuest-V1
_database_code_CSD QUJVEY
_database_code_depnum_ccdc_archive 'CCDC 1060073'
_chemical_formula_sum 'C60 H42 N6 O31 S5 U4'
_chemical_formula_moiety
;
(C50 H26 N4 O28 S5 U4 2-)n,C10 H10 N2 2+,3(H2 O1)
;
_journal_coden_Cambridge 1147
_journal_volume 15
_journal_year 2015
_journal_page_first 3481
_journal_name_full 'Cryst.Growth Des. '
loop_
_publ_author_name
"S.G.Thangavelu"
"R.J.Butcher"
"C.L.Cahill"
_chemical_name_systematic
;
catena-[2,2'-bipyridinium 
pentakis(\m-thiophene-2,5-dicarboxylato)-bis(2,2'-bipyridine)-octaoxo-tetra-ur
anium trihydrate]
;
_cell_volume   3625.142
_exptl_crystal_colour 'yellow'
_exptl_crystal_density_diffrn 2.244
_exptl_crystal_description 'block'
_diffrn_ambient_temperature 100
#These two values have been output from a single CSD field.
_refine_ls_R_factor_gt 0.0684
_refine_ls_wR_factor_gt 0.0684
_symmetry_cell_setting triclinic
_symmetry_space_group_name_H-M 'P -1'
_symmetry_Int_Tables_number 2
loop_
_symmetry_equiv_pos_site_id
_symmetry_equiv_pos_as_xyz
1 x,y,z
2 -x,-y,-z
_cell_length_a 8.4850(12)
_cell_length_b 20.759(3)
_cell_length_c 21.698(3)
_cell_angle_alpha 97.970(3)
_cell_angle_beta 100.426(2)
_cell_angle_gamma 101.314(2)
_cell_formula_units_Z 2
loop_
_atom_type_symbol
_atom_type_radius_bond
C 0.68
H 0.23
N 0.68
O 0.68
S 1.02
U 1.96
loop_
_atom_site_label
_atom_site_type_symbol
_atom_site_fract_x
_atom_site_fract_y
_atom_site_fract_z
O1 O 0.7276(13) 0.6726(6) 0.7030(6)
O2 O 0.3207(14) 1.3526(6) -0.1991(6)
O3 O 0.2134(14) 1.4494(6) -0.0746(6)
O4 O 0.8230(14) 0.5748(6) 0.5746(6)
O5 O 0.9973(16) 1.0888(6) 0.1049(7)
O6 O -0.3010(13) 0.7815(6) 0.3042(6)
O7 O 0.9468(14) 1.2241(6) 0.2104(6)
O8 O -0.0238(15) 0.9008(7) 0.3736(7)
O9 O 0.0145(16) 0.7623(7) 0.2673(6)
O10 O -0.0450(13) 0.7586(6) 0.3988(6)
O11 O -0.2352(13) 0.8495(8) 0.2405(7)
C1 C 0.5502(18) 1.3746(9) -0.0607(9)
C2 C 0.4987(19) 0.6532(9) 0.5638(8)
S1 S -0.6458(5) 0.7223(2) 0.2282(2)
C3 C -0.575(2) 0.8186(8) 0.1701(8)
H1 H -0.51560 0.85630 0.15720
C4 C -0.797(2) 0.7348(8) 0.1681(7)
C5 C -0.7404(18) 0.7881(8) 0.1426(8)
H2 H -0.80520 0.80330 0.10960
C6 C -0.3406(19) 0.8067(10) 0.2551(8)
C7 C 0.106(2) 0.7675(9) 0.4187(8)
C8 C -0.5082(18) 0.7885(8) 0.2174(8)
C9 C -0.958(2) 0.6895(8) 0.1534(9)
C10 C 0.607(2) 1.6206(10) -0.0983(12)
H3 H 0.67580 1.64830 -0.06070
C11 C 0.593(3) 1.6418(9) -0.1584(13)
H4 H 0.66050 1.68260 -0.16230
U1 U 0.77573(6) 0.62318(3) 0.64008(3)
U2 U -0.00527(6) 0.83248(3) 0.31831(3)
U3 U 0.97032(7) 1.15665(3) 0.15762(3)
U4 U 0.26370(6) 1.40119(3) -0.13762(3)
O12 O 0.4033(12) 1.3447(7) -0.0600(6)
O13 O 0.4778(14) 0.6054(6) 0.5931(6)
S2 S 0.3815(5) 0.7324(2) 0.4824(2)
S3 S 1.3946(5) 0.7456(2) 0.7391(2)
S4 S 0.6476(5) 1.2826(2) 0.0056(2)
S5 S 0.5291(5) 0.9907(2) 0.2569(2)
O14 O 0.5649(13) 1.4243(6) -0.0887(6)
O15 O 1.0729(13) 0.6564(5) 0.6842(6)
C12 C 1.7086(16) 0.8247(8) 0.7683(7)
O16 O 0.7912(16) 1.1901(7) 0.0716(7)
O17 O 1.7303(12) 0.7991(6) 0.8179(5)
O18 O 0.9691(12) 0.7234(6) 0.6246(5)
O19 O 0.6787(16) 1.1068(8) 0.1398(7)
O20 O -0.9706(12) 0.6358(5) 0.1778(6)
O21 O 1.8240(13) 0.8640(7) 0.7550(6)
O22 O 0.2808(13) 0.8993(7) 0.3150(6)
N1 N 0.6080(18) 0.5038(7) 0.6438(7)
O23 O 1.0526(14) 1.2390(6) 0.0869(6)
N2 N 0.8597(17) 0.5656(7) 0.7387(6)
C13 C 0.8496(19) 1.3737(9) -0.0268(8)
H5 H 0.89290 1.41110 -0.04440
N3 N 0.4090(17) 1.5190(6) -0.1496(7)
C14 C 1.2525(16) 0.7562(8) 0.6764(6)
C15 C 1.4830(19) 0.8357(9) 0.6755(8)
H6 H 1.54680 0.87160 0.66160
C16 C 0.946(2) 1.3361(9) 0.0047(8)
H7 H 1.06290 1.34490 0.01110
N4 N 0.1609(17) 1.4484(7) -0.2432(7)
O24 O 0.2037(13) 0.8100(7) 0.3984(7)
C17 C 0.6879(18) 1.3511(9) -0.0296(8)
C18 C 0.0871(18) 0.6813(8) 0.4923(8)
H8 H -0.02880 0.67270 0.48820
C19 C 0.1907(18) 0.6499(8) 0.5288(7)
H9 H 0.15180 0.61640 0.55180
C20 C 0.5358(18) 1.0360(9) 0.1972(9)
O25 O -1.0793(14) 0.7018(6) 0.1196(6)
C21 C 0.3538(18) 0.6717(8) 0.5287(8)
C22 C 0.3203(19) 0.9652(9) 0.2344(9)
C23 C 0.217(2) 0.9198(10) 0.2666(9)
O26 O 0.8288(14) 1.0747(7) 0.2175(6)
O27 O 0.0665(15) 0.9035(9) 0.2433(8)
C24 C 0.7576(19) 0.5110(8) 0.7488(8)
C25 C 0.780(3) 0.4892(9) 0.8074(9)
H10 H 0.70640 0.45150 0.81430
C26 C 1.3173(19) 0.8055(8) 0.6460(8)
H11 H 1.25820 0.81770 0.60970
C27 C 0.985(2) 0.5983(10) 0.7866(8)
H12 H 1.05410 0.63760 0.78000
C28 C 0.515(2) 1.5570(9) -0.0973(9)
H13 H 0.52770 1.54000 -0.05860
C29 C 0.906(2) 1.2359(9) 0.0625(8)
C30 C 0.853(2) 1.2849(8) 0.0256(7)
C31 C 0.6269(18) 0.4747(7) 0.6949(8)
C32 C 1.0866(18) 0.7102(8) 0.6586(7)
C33 C 0.090(3) 1.4837(11) -0.3612(10)
H14 H 0.06410 1.49630 -0.40160
C34 C -0.005(3) 1.4291(11) -0.3472(9)
H15 H -0.09740 1.40240 -0.37800
C35 C 0.388(2) 1.5427(8) -0.2044(9)
C36 C 0.402(2) 0.4059(9) 0.5876(11)
H16 H 0.32810 0.38240 0.54930
C37 C 0.255(2) 1.5030(8) -0.2568(8)
C38 C 0.034(2) 1.4133(10) -0.2879(8)
H17 H -0.03410 1.37540 -0.27840
C39 C 1.5434(17) 0.8078(8) 0.7267(8)
C40 C 0.496(2) 0.4696(9) 0.5911(10)
H18 H 0.48060 0.49030 0.55470
C41 C 0.224(3) 1.5202(10) -0.3157(9)
H19 H 0.29520 1.55720 -0.32510
C42 C 0.175(2) 0.7266(9) 0.4626(8)
C43 C 0.482(2) 1.6035(9) -0.2101(11)
H20 H 0.46940 1.61830 -0.24980
C44 C 0.6885(17) 1.0737(9) 0.1846(9)
C45 C 0.532(2) 0.4122(9) 0.6945(10)
H21 H 0.54530 0.39320 0.73200
C46 C 1.022(3) 0.5786(11) 0.8457(9)
H22 H 1.11600 0.60140 0.87760
C47 C 0.421(3) 0.3779(10) 0.6425(12)
H23 H 0.35620 0.33510 0.64300
C48 C 0.384(2) 1.0301(10) 0.1611(10)
H24 H 0.36320 1.05050 0.12480
C49 C 0.913(3) 0.5241(12) 0.8547(9)
H25 H 0.92940 0.51000 0.89480
C50 C 0.260(2) 0.9908(10) 0.1831(10)
H26 H 0.14660 0.98280 0.16430
O28 O 0.6432(13) 0.6848(6) 0.5634(6)
C51 C 0.894(2) 0.0518(9) 0.4353(8)
C52 C 0.778(2) 0.0016(9) 0.4549(8)
N5 N 0.765(2) 0.0125(9) 0.5169(8)
H27 H 0.82640 0.04840 0.54320
N6 N 0.979(2) 0.1047(10) 0.4788(10)
H28 H 0.96200 0.10810 0.51790
C53 C 0.672(2) -0.0533(10) 0.4133(9)
H29 H 0.67460 -0.06120 0.36930
C54 C 0.563(3) -0.0966(13) 0.4384(14)
H30 H 0.48740 -0.13360 0.41060
C55 C 0.922(2) 0.0459(11) 0.3747(9)
H31 H 0.86370 0.00810 0.34330
C56 C 0.657(3) -0.0316(14) 0.5382(12)
H32 H 0.64930 -0.02290 0.58150
C57 C 1.035(3) 0.0947(16) 0.3596(12)
H33 H 1.05500 0.09160 0.31770
C58 C 1.087(3) 0.1522(12) 0.4646(17)
H34 H 1.14310 0.19000 0.49620
C59 C 0.562(3) -0.0869(13) 0.5003(15)
H35 H 0.49490 -0.11910 0.51720
C60 C 1.118(3) 0.1473(12) 0.4054(19)
H36 H 1.19830 0.18120 0.39610
O29 O 0.410(3) 0.1685(12) 0.0715(9)
O30 O 0.799(3) 0.9303(15) 0.1386(13)
O31 O 0.709(3) 0.8879(12) 0.0334(11)
U3A U 2.02968(7) 0.84335(3) 0.84238(3)
U4A U -1.26370(6) 0.59881(3) 0.13762(3)
O17A O 1.2697(12) 1.2009(6) 0.1821(5)
O20A O -0.0294(12) 1.3642(5) -0.1778(6)
O21A O 1.1760(13) 1.1360(7) 0.2450(6)
O25A O 0.0793(14) 1.2982(6) -0.1196(6)
#END
