
#######################################################################
#
#                 Cambridge Crystallographic Data Centre
#                                CCDC
#
#######################################################################
#
# If this CIF has been generated from an entry in the Cambridge
# Structural Database, then it will include bibliographic, chemical,
# crystal, experimental, refinement or atomic coordinate data resulting
# from the CCDC's data processing and validation procedures.
#
#######################################################################

data_CSD_CIF_QUJVUO
_audit_creation_date 2015-06-09
_audit_creation_method CSD-ConQuest-V1
_database_code_CSD QUJVUO
_database_code_depnum_ccdc_archive 'CCDC 1060076'
_chemical_formula_sum 'C24 H17 N1 O18 S3 U2'
_chemical_formula_moiety
;
(C18 H6 O16 S3 U2 1-)n,0.5(C12 H14 N2 2+),2(H2 O1)
;
_journal_coden_Cambridge 1147
_journal_volume 15
_journal_year 2015
_journal_page_first 3481
_journal_name_full 'Cryst.Growth Des. '
loop_
_publ_author_name
"S.G.Thangavelu"
"R.J.Butcher"
"C.L.Cahill"
_chemical_name_systematic
;
catena-[hemikis(6,6'-dimethyl-2,2'-bipyridinium) 
tris(\m-thiophene-2,5-dicarboxylato)-dioxo-di-uranium dihydrate]
;
_cell_volume   9422.831
_exptl_crystal_colour 'yellow'
_exptl_crystal_density_diffrn 1.663
_exptl_crystal_description 'block'
_diffrn_ambient_temperature 100
_refine_special_details
;
C19A,C20A,C21A,C22A,C23A,C24A,N1A and C19,C20,C21,C22,C23,C24,N1 disordered 
over two sites with occupancies 0.586:0.414.
;
#These two values have been output from a single CSD field.
_refine_ls_R_factor_gt 0.0655
_refine_ls_wR_factor_gt 0.0655
_symmetry_cell_setting monoclinic
_symmetry_space_group_name_H-M 'C 2/c'
_symmetry_Int_Tables_number 15
loop_
_symmetry_equiv_pos_site_id
_symmetry_equiv_pos_as_xyz
1 x,y,z
2 -x,y,1/2-z
3 1/2+x,1/2+y,z
4 1/2-x,1/2+y,1/2-z
5 -x,-y,-z
6 x,-y,-1/2+z
7 -1/2-x,-1/2-y,-z
8 -1/2+x,-1/2-y,-1/2+z
_cell_length_a 7.707(2)
_cell_length_b 36.226(11)
_cell_length_c 33.863(10)
_cell_angle_alpha 90
_cell_angle_beta 94.679(5)
_cell_angle_gamma 90
_cell_formula_units_Z 8
loop_
_atom_type_symbol
_atom_type_radius_bond
C 0.68
H 0.23
N 0.68
O 0.68
S 1.02
U 1.96
loop_
_atom_site_label
_atom_site_type_symbol
_atom_site_fract_x
_atom_site_fract_y
_atom_site_fract_z
U1 U 0.37658(6) 0.36735(2) 0.33470(2)
U2 U 1.12321(6) 0.42347(2) 0.61030(2)
S1 S 0.3324(4) 0.22175(7) 0.36719(13)
S2 S 0.2584(4) 0.47727(6) 0.22861(9)
S3 S 0.7771(4) 0.39020(7) 0.47134(11)
O1 O 0.5591(11) 0.3548(2) 0.3094(3)
O2 O 0.1910(11) 0.3789(2) 0.3599(3)
O3 O 0.2255(13) 0.3122(2) 0.3059(3)
O4 O 0.3763(12) 0.3038(2) 0.3634(3)
O5 O 0.5565(13) 0.3638(2) 0.3982(3)
O6 O 0.5403(11) 0.4171(2) 0.3689(3)
O7 O 0.3535(12) 0.42475(18) 0.2970(2)
O8 O 0.2148(11) 0.37645(18) 0.2706(2)
O9 O 0.2497(13) 0.1187(2) 0.3361(4)
O10 O 0.3549(14) 0.1440(2) 0.3927(3)
O11 O 1.3295(13) 0.4287(3) 0.5925(3)
O12 O 0.9175(14) 0.4183(3) 0.6274(3)
O13 O 1.0014(13) 0.3963(2) 0.5477(3)
O14 O 1.0049(14) 0.4571(2) 0.5506(3)
O15 O 0.2213(12) 0.54251(19) 0.1715(3)
O16 O 0.0958(13) 0.5108(2) 0.1216(3)
C1 C 0.2883(19) 0.1472(3) 0.3591(6)
C2 C 0.2567(19) 0.1842(3) 0.3412(5)
C3 C 0.176(2) 0.1948(4) 0.3056(6)
H1 H 0.12370 0.17770 0.28700
C4 C 0.178(2) 0.2330(3) 0.2990(5)
H2 H 0.13040 0.24480 0.27550
C5 C 0.2578(16) 0.2509(3) 0.3305(5)
C6 C 0.2884(17) 0.2908(3) 0.3332(5)
C7 C 0.2641(16) 0.4104(3) 0.2686(4)
C8 C 0.2132(14) 0.4310(3) 0.2312(4)
C9 C 0.1312(15) 0.4168(3) 0.1978(3)
H3 H 0.09650 0.39180 0.19440
C10 C 0.1044(15) 0.4446(3) 0.1687(4)
H4 H 0.04710 0.44020 0.14320
C11 C 0.1688(15) 0.4786(2) 0.1806(3)
C12 C 0.5979(15) 0.3978(3) 0.3978(4)
C13 C 0.7027(16) 0.4149(3) 0.4304(4)
C14 C 0.7514(16) 0.4512(3) 0.4325(4)
H5 H 0.72240 0.46870 0.41230
C15 C 0.8522(17) 0.4596(3) 0.4693(4)
H6 H 0.89880 0.48330 0.47610
C16 C 0.8717(16) 0.4294(3) 0.4929(4)
C17 C 0.9652(18) 0.4272(3) 0.5313(4)
C18 C 0.1606(16) 0.5125(3) 0.1573(4)
N1 N 0.442(2) 0.5072(4) 0.4477(5)
H7 H 0.48520 0.52900 0.44250
C19 C 0.468(2) 0.4927(5) 0.4858(5)
C20 C 0.400(3) 0.4583(6) 0.4941(5)
H8 H 0.41740 0.44840 0.52010
C21 C 0.307(3) 0.4384(5) 0.4644(7)
H9 H 0.26060 0.41480 0.47000
C22 C 0.281(2) 0.4529(6) 0.4263(6)
H10 H 0.21770 0.43920 0.40600
C23 C 0.349(2) 0.4873(5) 0.4180(4)
C24 C 0.350(5) 0.5053(10) 0.3793(9)
H11 H 0.24280 0.51970 0.37410
H12 H 0.35630 0.48650 0.35870
H13 H 0.45090 0.52170 0.37930
N2? N 0.412(4) 0.4474(8) 0.4955(7)
H14? H 0.46130 0.43930 0.51820
C25? C 0.432(4) 0.4840(7) 0.4847(8)
C26? C 0.354(3) 0.4969(6) 0.4489(8)
H15? H 0.36750 0.52190 0.44140
C27? C 0.255(3) 0.4731(8) 0.4239(6)
H16? H 0.20140 0.48180 0.39940
C28? C 0.235(3) 0.4364(8) 0.4348(7)
H17? H 0.16720 0.42010 0.41770
C29? C 0.313(4) 0.4236(6) 0.4706(7)
C30? C 0.291(6) 0.3868(10) 0.4871(12)
H18? H 0.36920 0.38390 0.51120
H19? H 0.31810 0.36810 0.46770
H20? H 0.17000 0.38370 0.49370
O17 O 0.00000 0.3285(2) 0.25000
O18 O 0.187(2) 0.2990(7) 0.2096(7)
O19 O 0.925(5) 0.3229(7) 0.3870(17)
O20 O 0.404(6) 0.1372(8) 0.2085(12)
O21 O 0.50000 0.2922(9) 0.25000
U2E U 0.12321(6) 0.57653(2) 0.11030(2)
U2F U 0.37679(6) 0.07653(2) 0.38970(2)
O9F O 1.2503(13) 0.3813(2) 0.6639(4)
O10F O 1.1451(14) 0.3560(2) 0.6073(3)
O15E O 1.2213(12) 0.45749(19) 0.6715(3)
O16E O 1.0958(13) 0.4892(2) 0.6216(3)
N1D N 0.558(2) 0.4928(4) 0.5523(5)
H7D H 0.51480 0.47100 0.55750
C19D C 0.532(2) 0.5073(5) 0.5142(5)
C20D C 0.600(3) 0.5417(6) 0.5059(5)
H8D H 0.58260 0.55160 0.47990
C21D C 0.693(3) 0.5616(5) 0.5356(7)
H9D H 0.73940 0.58520 0.53000
C22D C 0.719(2) 0.5471(6) 0.5737(6)
H10D H 0.78230 0.56080 0.59400
C23D C 0.651(2) 0.5127(5) 0.5820(4)
C24D C 0.650(5) 0.4947(10) 0.6207(9)
H11D H 0.75720 0.48030 0.62590
H12D H 0.64370 0.51350 0.64130
H13D H 0.54910 0.47830 0.62070
#END
