
#######################################################################
#
#                 Cambridge Crystallographic Data Centre
#                                CCDC
#
#######################################################################
#
# If this CIF has been generated from an entry in the Cambridge
# Structural Database, then it will include bibliographic, chemical,
# crystal, experimental, refinement or atomic coordinate data resulting
# from the CCDC's data processing and validation procedures.
#
#######################################################################

data_CSD_CIF_QUKKIT
_audit_creation_date 2020-04-02
_audit_creation_method CSD-ConQuest-V1
_database_code_CSD QUKKIT
_database_code_depnum_ccdc_archive 'CCDC 1947677'
_chemical_formula_sum 'C54 H50 Dy2 N4 O16'
_chemical_formula_moiety
;
(C52 H40 Dy2 N3 O15 1-)n,C2 H8 N1 1+,H2 O1
;
_journal_coden_Cambridge 1147
_journal_volume 20
_journal_year 2020
_journal_page_first 2973
_journal_name_full 'Cryst.Growth Des. '
loop_
_publ_author_name
"N.Phukan"
"S.Goswami"
"S.Lipstman"
"I.Goldberg"
"B.K.Tripuramallu"
_chemical_name_systematic
;
catena-[dimethylammonium 
tris(\m-formato)-bis(5-{[(anthracen-9-yl)methyl]amino}benzene-1,3-dicarboxylat
o)-(N,N-dimethylformamide)-di-dysprosium(iii) monohydrate]
;
_cell_volume   2565.069
_exptl_crystal_colour 'colorless'
_exptl_crystal_description 'needle'
_diffrn_ambient_temperature 110
_refine_special_details
;
C75A and C75B disordered over two sites with occupancies 0.6:0.4; The 
SQUEEZE/PLATON program has been used to model some disordered water.
;
#These two values have been output from a single CSD field.
_refine_ls_R_factor_gt 0.0457
_refine_ls_wR_factor_gt 0.0457
_symmetry_cell_setting triclinic
_symmetry_space_group_name_H-M 'P -1'
_symmetry_Int_Tables_number 2
loop_
_symmetry_equiv_pos_site_id
_symmetry_equiv_pos_as_xyz
1 x,y,z
2 -x,-y,-z
_cell_length_a 9.3064(2)
_cell_length_b 16.7784(4)
_cell_length_c 17.6166(3)
_cell_angle_alpha 105.812(1)
_cell_angle_beta 99.912(1)
_cell_angle_gamma 97.051(1)
_cell_formula_units_Z 2
loop_
_atom_type_symbol
_atom_type_radius_bond
C 0.68
H 0.23
Dy 1.92
N 0.68
O 0.68
loop_
_atom_site_label
_atom_site_type_symbol
_atom_site_fract_x
_atom_site_fract_y
_atom_site_fract_z
Dy1 Dy 0.61987(3) 0.53170(2) 0.30212(2)
Dy2 Dy 0.18529(3) 0.40249(2) 0.17453(2)
O1 O 0.2926(5) 0.5216(3) 0.1537(3)
O2 O 0.5058(5) 0.6056(3) 0.2247(2)
C1 C 0.3874(7) 0.5879(4) 0.1712(4)
C2 C 0.3569(7) 0.6478(4) 0.1251(4)
C3 C 0.2268(7) 0.6273(4) 0.0650(4)
H1 H 0.15874 0.57694 0.05604
C4 C 0.1974(7) 0.6800(4) 0.0190(4)
C5 C 0.2934(7) 0.7540(4) 0.0309(4)
H2 H 0.27354 0.78851 -0.00306
C6 C 0.4217(7) 0.7782(4) 0.0940(4)
C7 C 0.4524(7) 0.7232(4) 0.1399(4)
H3 H 0.53951 0.73791 0.18144
C8 C 0.0571(7) 0.6562(4) -0.0443(4)
O3 O 0.0405(5) 0.6920(3) -0.0987(3)
O4 O -0.0460(5) 0.5997(3) -0.0426(2)
N1 N 0.5152(7) 0.8535(4) 0.1112(4)
H4 H 0.57750 0.87381 0.15835
C9 C 0.5135(8) 0.8998(4) 0.0537(4)
H5 H 0.41805 0.91991 0.04531
H6 H 0.52369 0.86287 0.00125
C10 C 0.6407(8) 0.9745(4) 0.0849(4)
C11 C 0.6176(8) 1.0568(5) 0.1212(4)
C12 C 0.4768(9) 1.0751(5) 0.1349(5)
H7 H 0.39454 1.03032 0.12021
C13 C 0.4575(9) 1.1545(5) 0.1683(5)
H8 H 0.36253 1.16458 0.17706
C14 C 0.5768(9) 1.2229(5) 0.1902(4)
H9 H 0.56124 1.27865 0.21249
C15 C 0.7129(9) 1.2092(4) 0.1797(4)
H10 H 0.79219 1.25567 0.19450
C16 C 0.7403(8) 1.1261(4) 0.1467(4)
C17 C 0.8811(8) 1.1101(5) 0.1380(4)
H11 H 0.96129 1.15617 0.15327
C18 C 0.9074(8) 1.0299(5) 0.1080(5)
C19 C 1.0529(10) 1.0146(6) 0.1034(6)
H12 H 1.13368 1.06057 0.12110
C20 C 1.0778(10) 0.9348(7) 0.0740(7)
H13 H 1.17624 0.92488 0.07480
C21 C 0.9563(10) 0.8663(6) 0.0421(7)
H14 H 0.97435 0.81137 0.01879
C22 C 0.8158(10) 0.8780(6) 0.0443(6)
H15 H 0.73652 0.83131 0.02266
C23 C 0.7852(8) 0.9605(5) 0.0792(5)
O5 O 0.0849(5) 0.3637(3) 0.2783(3)
O6 O 0.2183(5) 0.2790(3) 0.2155(3)
C24 C 0.1548(7) 0.3038(4) 0.2735(4)
C25 C 0.1689(7) 0.2630(4) 0.3400(4)
C26 C 0.1694(6) 0.3144(4) 0.4173(3)
H16 H 0.14839 0.36971 0.42512
C27 C 0.2010(7) 0.2832(4) 0.4825(4)
C28 C 0.2271(8) 0.2015(4) 0.4708(4)
H17 H 0.24837 0.18081 0.51584
C29 C 0.2223(8) 0.1494(4) 0.3934(4)
C30 C 0.1933(7) 0.1811(4) 0.3276(4)
H18 H 0.19037 0.14656 0.27452
C31 C 0.2251(7) 0.3431(4) 0.5656(4)
O7 O 0.2869(5) 0.3232(3) 0.6258(3)
O8 O 0.1933(5) 0.4158(3) 0.5743(3)
N2 N 0.2493(9) 0.0675(4) 0.3807(4)
H19 H 0.21697 0.03131 0.33216
C32 C 0.3251(16) 0.0403(7) 0.4415(8)
H20 H 0.25816 0.02977 0.47705
H21 H 0.40982 0.08486 0.47472
C33 C 0.3836(14) -0.0426(9) 0.4043(8)
C34 C 0.2842(11) -0.1212(6) 0.3849(9)
C35 C 0.1416(13) -0.1286(8) 0.4000(12)
H22 H 0.10401 -0.07889 0.42083
C36 C 0.0569(12) -0.2024(7) 0.3865(9)
H23 H -0.04294 -0.20519 0.39243
C37 C 0.1137(12) -0.2756(6) 0.3637(6)
H24 H 0.05514 -0.32828 0.35773
C38 C 0.2523(12) -0.2723(5) 0.3497(5)
H25 H 0.29000 -0.32311 0.33451
C39 C 0.3423(10) -0.1954(5) 0.3572(5)
C40 C 0.4826(10) -0.1927(5) 0.3429(5)
H26 H 0.52098 -0.24348 0.33014
O9 O 0.4787(5) 0.5609(3) 0.4112(3)
C41 C 0.3653(8) 0.5149(5) 0.3679(5)
H27 H 0.27818 0.51097 0.38896
O10 O 0.3602(6) 0.4719(4) 0.2953(3)
O11 O 0.8263(7) 0.5410(4) 0.2478(3)
C42 C 0.9284(9) 0.4999(5) 0.2479(4)
H28 H 0.93920 0.46849 0.28534
O12 O 1.0181(5) 0.4968(3) 0.2024(3)
C43 C 0.5692(8) -0.1195(4) 0.3464(6)
C44 C 0.7071(8) -0.1207(5) 0.3264(5)
H29 H 0.74423 -0.17199 0.31399
C45 C 0.7909(8) -0.0470(6) 0.3245(7)
H30 H 0.88514 -0.04793 0.31076
C46 C 0.7366(11) 0.0279(5) 0.3426(9)
H31 H 0.79381 0.07830 0.34126
C47 C 0.5986(11) 0.0292(4) 0.3626(9)
H32 H 0.56156 0.08047 0.37499
C48 C 0.5149(8) -0.0445(5) 0.3645(7)
O13 O 0.3458(6) 0.3469(3) 0.0936(4)
C49 C 0.4776(13) 0.3737(5) 0.1148(5)
H33 H 0.53413 0.34829 0.07791
O14 O 0.5524(8) 0.4287(4) 0.1764(3)
O15 O 0.6686(8) 0.4173(3) 0.3398(3)
C50 C 0.5804(18) 0.2731(11) 0.4403(10)
H34 H 0.49856 0.30272 0.45218
H35 H 0.63925 0.26964 0.49071
H36 H 0.54023 0.21623 0.40379
N3 N 0.6722(10) 0.3181(5) 0.4029(5)
C51 C 0.5939(15) 0.3720(8) 0.3847(7)
C52 C 0.8017(14) 0.2829(11) 0.3995(10)
H37 H 0.87053 0.31620 0.37876
H38 H 0.77585 0.22486 0.36362
H39 H 0.84883 0.28314 0.45382
C53? C 0.760(2) 0.3695(12) 0.3550(12)
C54 C 0.7151(9) 0.5650(6) 0.0726(4)
H40 H 0.67488 0.59846 0.03898
H41 H 0.66865 0.57213 0.11926
H42 H 0.69452 0.50549 0.04069
N4 N 0.8761(7) 0.5936(4) 0.1006(3)
H43 H 0.94144 0.56174 0.08680
C55 C 0.9174(11) 0.6813(5) 0.1544(5)
H44 H 0.87763 0.71914 0.12580
H45 H 1.02567 0.69707 0.17029
H46 H 0.87629 0.68593 0.20270
Dy1A Dy 0.38013(3) 0.46830(2) 0.69788(2)
Dy2* Dy 1.18529(3) 0.40249(2) 0.17453(2)
Dy2A Dy -0.18529(3) 0.59751(2) -0.17453(2)
O3A O -0.0405(5) 0.3080(3) 0.0987(3)
O4A O 0.0460(5) 0.4003(3) 0.0426(2)
O7A O 0.7131(5) 0.6768(3) 0.3742(3)
O8A O 0.8067(5) 0.5842(3) 0.4257(3)
O12* O 0.0181(5) 0.4968(3) 0.2024(3)
#END
