
#######################################################################
#
#                 Cambridge Crystallographic Data Centre
#                                CCDC
#
#######################################################################
#
# If this CIF has been generated from an entry in the Cambridge
# Structural Database, then it will include bibliographic, chemical,
# crystal, experimental, refinement or atomic coordinate data resulting
# from the CCDC's data processing and validation procedures.
#
#######################################################################

data_CSD_CIF_QUKLIT
_audit_creation_date 2015-06-09
_audit_creation_method CSD-ConQuest-V1
_database_code_CSD QUKLIT
_database_code_depnum_ccdc_archive 'CCDC 1052080'
_chemical_formula_sum 'C12 H21 Ni1 O23.5 U2'
_chemical_formula_moiety
;
(C12 H6 O16 U2 2-)n,n(H12 Ni1 O6 2+),1.5n(H2 O1)
;
_journal_coden_Cambridge 580
_journal_volume 98
_journal_year 2015
_journal_page_first 5
_journal_name_full 'Polyhedron '
loop_
_publ_author_name
"P.Thuery"
"J.Harrowfield"
_chemical_name_systematic
;
catena-(Hexa-aqua-nickel 
(\m~6~-cyclohexane-1,2,3,4,5,6-hexacarboxylato)-tetraoxo-di-uranium 
sesquihydrate)
;
_cell_volume   2981.125
_exptl_crystal_colour 'light yellow'
_exptl_crystal_density_diffrn 2.398
_exptl_crystal_description 'lath'
_diffrn_ambient_temperature 150
_refine_special_details
;
O10A,O11A and O10B,O11B disordered over two sites with occupancies 0.64:0.36; 
O13A and O13B disordered over two sites with occupancies 0.35:0.15.
;
#These two values have been output from a single CSD field.
_refine_ls_R_factor_gt 0.0343
_refine_ls_wR_factor_gt 0.0343
_symmetry_cell_setting monoclinic
_symmetry_space_group_name_H-M 'C 2/c'
_symmetry_Int_Tables_number 15
loop_
_symmetry_equiv_pos_site_id
_symmetry_equiv_pos_as_xyz
1 x,y,z
2 -x,y,1/2-z
3 1/2+x,1/2+y,z
4 1/2-x,1/2+y,1/2-z
5 -x,-y,-z
6 x,-y,-1/2+z
7 -1/2-x,-1/2-y,-z
8 -1/2+x,-1/2-y,-1/2+z
_cell_length_a 25.4143(14)
_cell_length_b 8.8177(5)
_cell_length_c 15.7551(8)
_cell_angle_alpha 90
_cell_angle_beta 122.397(3)
_cell_angle_gamma 90
_cell_formula_units_Z 4
loop_
_atom_type_symbol
_atom_type_radius_bond
C 0.68
H 0.23
Ni 1.24
O 0.68
U 1.96
loop_
_atom_site_label
_atom_site_type_symbol
_atom_site_fract_x
_atom_site_fract_y
_atom_site_fract_z
U1 U 0.23035(2) 0.25687(3) 0.35175(2)
O1 O 0.1591(3) 0.1603(6) 0.3046(4)
O2 O 0.3013(3) 0.3562(6) 0.3986(4)
O3 O 0.2705(3) 0.0222(6) 0.3344(4)
O4 O 0.2821(3) -0.2204(6) 0.3067(4)
O5 O 0.2798(3) 0.1299(6) 0.5159(4)
O6 O 0.3763(3) 0.0518(7) 0.5659(4)
O7 O 0.3312(2) 0.0223(6) 0.7162(4)
O8 O 0.3546(3) -0.2197(6) 0.7649(4)
C1 C 0.2464(4) -0.1675(9) 0.4164(5)
H1 H 0.20970 -0.10390 0.40080
C2 C 0.2987(4) -0.1365(8) 0.5265(5)
H2 H 0.33410 -0.20740 0.54560
C3 C 0.2728(4) -0.1690(9) 0.5943(5)
H3 H 0.23510 -0.10430 0.57090
C4 C 0.2675(4) -0.1184(9) 0.3463(5)
C5 C 0.3218(4) 0.0240(9) 0.5383(5)
C6 C 0.3229(4) -0.1213(9) 0.7013(5)
Ni1 Ni 0.00000 0.50000 0.00000
O9 O 0.0680(3) 0.6582(9) 0.0386(5)
O10 O 0.0492(8) 0.396(2) 0.1377(12)
O11 O 0.0399(9) 0.348(2) -0.0505(19)
O12? O 0.0735(14) 0.358(3) 0.096(2)
O13? O 0.0077(12) 0.430(4) -0.118(2)
O14 O 0.00000 0.297(6) 0.25000
O15 O 0.0831(13) 0.048(3) 0.075(2)
O16? O 0.097(2) 0.105(6) 0.030(4)
O3F O 0.2295(3) -0.5222(6) 0.6656(4)
O4F O 0.2179(3) -0.2796(6) 0.6933(4)
O5F O 0.2202(3) -0.6299(6) 0.4841(4)
O6F O 0.1237(3) -0.5518(7) 0.4341(4)
O7F O 0.1688(2) -0.5223(6) 0.2838(4)
O8F O 0.1454(3) -0.2803(6) 0.2351(4)
C1F C 0.2536(4) -0.3325(9) 0.5836(5)
H1F H 0.29030 -0.39610 0.59920
C2F C 0.2013(4) -0.3635(8) 0.4735(5)
H2F H 0.16590 -0.29260 0.45440
C3F C 0.2272(4) -0.3310(9) 0.4057(5)
H3F H 0.26490 -0.39570 0.42910
C4F C 0.2325(4) -0.3816(9) 0.6537(5)
C5F C 0.1782(4) -0.5240(9) 0.4617(5)
C6F C 0.1771(4) -0.3787(9) 0.2987(5)
U1F U 0.26965(2) -0.75687(3) 0.64825(2)
O1F O 0.3409(3) -0.6603(6) 0.6954(4)
O2F O 0.1987(3) -0.8562(6) 0.6014(4)
U1* U 0.23035(2) -0.74313(3) 0.35175(2)
U1C U 0.26965(2) -0.24313(3) 0.14825(2)
U1E U 0.23035(2) -0.25687(3) 0.85175(2)
U1F* U 0.26965(2) 0.24313(3) 0.64825(2)
O4C O 0.2179(3) 0.2796(6) 0.1933(4)
O4E O 0.2821(3) -0.7796(6) 0.8067(4)
O5* O 0.2798(3) -0.8701(6) 0.5159(4)
O5F* O 0.2202(3) 0.3701(6) 0.4841(4)
O7* O 0.3312(2) -0.9777(6) 0.7162(4)
O7F* O 0.1688(2) 0.4777(6) 0.2838(4)
O9D O -0.0680(3) 0.3418(9) -0.0386(5)
O10D O -0.0492(8) 0.604(2) -0.1377(12)
O11D O -0.0399(9) 0.652(2) 0.0505(19)
#END
