
#######################################################################
#
#                 Cambridge Crystallographic Data Centre
#                                CCDC
#
#######################################################################
#
# If this CIF has been generated from an entry in the Cambridge
# Structural Database, then it will include bibliographic, chemical,
# crystal, experimental, refinement or atomic coordinate data resulting
# from the CCDC's data processing and validation procedures.
#
#######################################################################

data_CSD_CIF_QULXOL
_audit_creation_date 2010-07-26
_audit_creation_method CSD-ConQuest-V1
_database_code_CSD QULXOL
_database_code_depnum_ccdc_archive 'CCDC 736091'
_chemical_formula_sum 'C30 H40 Cu2 N6 O48 Si1 W12'
_chemical_formula_moiety
;
(C30 H32 Cu2 N6 O4 4+)n,n(O40 Si1 W12 4-),4n(H2 O1)
;
_journal_coden_Cambridge 222
_journal_year 2009
_journal_page_first 9503
_journal_name_full 'Dalton Trans. '
loop_
_publ_author_name
"Fan Yu"
"Xiang-Jian Kong"
"Yun-Yun Zheng"
"Yan-Ping Ren"
"La-Sheng Long"
"Rong-Bin Huang"
"Lan-Sun Zheng"
_chemical_name_systematic
;
catena-[(\m~2~-4,4'-Bipyridine)-bis(\m~2~-aqua)-diaqua-bis(4,4'-bipyridine)-di
-copper(ii) 
(\m~12~-silicato)-tetracosakis(\m~2~-oxo)-dodecaoxo-dodeca-tungsten 
tetrahydrate]
;
_cell_volume   3032.338
_exptl_crystal_colour 'green'
_exptl_crystal_density_diffrn 3.958
_exptl_special_details
;
The Cu atoms are described as six-coordinate, with coordination by one anion 
O atom. Due to anion disorder we have represented the structure as disrete 
;
_exptl_crystal_description 'block'
_diffrn_ambient_temperature 123
_refine_special_details
;
The anion is partially disordered by symmetry.

;
#These two values have been output from a single CSD field.
_refine_ls_R_factor_gt 0.0904
_refine_ls_wR_factor_gt 0.0904
_symmetry_cell_setting monoclinic
_symmetry_space_group_name_H-M 'P 21/n'
_symmetry_Int_Tables_number 14
loop_
_symmetry_equiv_pos_site_id
_symmetry_equiv_pos_as_xyz
1 x,y,z
2 1/2-x,1/2+y,1/2-z
3 -x,-y,-z
4 -1/2+x,-1/2-y,-1/2+z
_cell_length_a 13.095(2)
_cell_length_b 15.757(3)
_cell_length_c 14.741(3)
_cell_angle_alpha 90
_cell_angle_beta 94.479(3)
_cell_angle_gamma 90
_cell_formula_units_Z 2
loop_
_atom_type_symbol
_atom_type_radius_bond
C 0.68
H 0.23
Cu 1.35
N 0.68
O 0.71
Si 1.20
W 1.39
loop_
_atom_site_label
_atom_site_type_symbol
_atom_site_fract_x
_atom_site_fract_y
_atom_site_fract_z
Cu1 Cu -0.4186(3) -0.0320(3) -0.0621(3)
N1 N -0.4290(18) -0.0847(16) -0.1861(16)
C1 C -0.381(2) -0.1550(19) -0.202(2)
H1 H -0.33300 -0.17690 -0.15670
C2 C -0.3970(19) -0.1978(17) -0.2816(17)
H2 H -0.36070 -0.24910 -0.28960
C3 C -0.463(2) -0.1697(18) -0.3497(19)
C4 C -0.509(4) -0.091(3) -0.337(3)
H3 H -0.54870 -0.06280 -0.38470
C5 C -0.491(3) -0.058(3) -0.251(3)
H4 H -0.52900 -0.00860 -0.23830
C6 C -0.4865(19) -0.2133(17) -0.4416(17)
C7 C -0.410(2) -0.258(2) -0.476(2)
H5 H -0.34560 -0.26310 -0.44240
C8 C -0.427(2) -0.294(2) -0.558(2)
H6 H -0.37460 -0.32500 -0.58410
C9 C -0.597(3) -0.245(2) -0.567(2)
H7 H -0.66390 -0.24330 -0.59690
C10 C -0.578(3) -0.207(2) -0.486(2)
H8 H -0.62980 -0.17490 -0.46030
N2 N -0.521(2) -0.284(2) -0.6037(19)
N3 N -0.2659(17) -0.0318(17) -0.0417(17)
C11 C -0.213(3) -0.001(2) -0.108(2)
H9 H -0.24620 0.01480 -0.16490
C12 C -0.103(2) 0.0061(18) -0.0914(18)
H10 H -0.06390 0.02170 -0.14040
C13 C -0.055(2) -0.0080(18) -0.0098(18)
C14 C -0.111(3) -0.044(3) 0.055(3)
H11 H -0.07990 -0.05750 0.11310
C15 C -0.214(3) -0.059(2) 0.034(3)
H12 H -0.24920 -0.09170 0.07630
O1 O 0.432(2) -0.0251(19) -0.0567(19)
H13 H 0.40080 -0.08230 -0.05790
H14 H 0.40030 0.00890 -0.10770
O2 O -0.413(2) 0.1072(15) -0.1431(18)
O3 O -0.683(2) -1.1668(19) -0.056(2)
O4 O -0.370(4) -1.128(4) 0.212(4)
W1 W -0.76268(9) -0.44570(8) -0.03850(9)
W2 W -0.41776(11) -0.63242(10) 0.18519(9)
W3 W -0.61319(10) -0.36255(8) 0.15228(8)
W4 W -0.35168(10) -0.41557(8) 0.18984(8)
W5 W -0.43404(10) -0.28266(8) 0.00661(10)
W6 W -0.67998(11) -0.57955(10) 0.14515(9)
Si1 Si -0.50000 -0.50000 0.00000
O5 O -0.481(2) -0.4246(11) 0.0615(15)
O6 O -0.5300(19) -0.5743(12) 0.0568(15)
O7 O -0.5971(12) -0.4777(16) 0.0424(16)
O8 O -0.5851(14) -0.4827(17) -0.0709(14)
O9 O -0.768(2) -0.5310(17) 0.0513(18)
O10 O -0.4891(18) -0.3836(19) 0.217(2)
O11 O -0.718(3) -0.3672(17) 0.0578(16)
O12 O -0.6630(19) -0.2958(16) 0.2304(16)
O13 O -0.3825(19) -0.5257(16) 0.2328(17)
O14 O -0.3531(19) -0.3217(16) 0.1088(17)
O15 O -0.379(2) -0.6939(17) 0.2720(18)
O16 O -0.7503(18) -0.5344(15) -0.1233(16)
O17 O -0.7674(17) -0.6170(14) 0.2159(14)
O18 O -0.4088(15) -0.1741(13) 0.0091(13)
O19 O -0.7003(19) -0.3705(16) -0.1210(16)
O20 O -0.278(2) -0.376(2) 0.284(2)
O21 O -0.664(3) -0.673(2) 0.068(2)
O22 O -0.548(2) -0.2832(18) 0.079(2)
O23 O -0.890(2) -0.4195(18) -0.060(2)
O24 O -0.657(2) -0.4703(17) 0.1937(18)
O25 O -0.555(3) -0.614(2) 0.212(2)
O26 O -0.525(3) -0.269(2) -0.114(2)
O27? O -0.534(3) -0.308(2) -0.079(2)
Cu1B Cu 0.4186(3) 0.0320(3) 0.0621(3)
Cu1* Cu 0.5814(3) -0.0320(3) -0.0621(3)
N1B N 0.4290(18) 0.0847(16) 0.1861(16)
C1B C 0.381(2) 0.1550(19) 0.202(2)
H1B H 0.33300 0.17690 0.15670
C2B C 0.3970(19) 0.1978(17) 0.2816(17)
H2B H 0.36070 0.24910 0.28960
C3B C 0.463(2) 0.1697(18) 0.3497(19)
C4B C 0.509(4) 0.091(3) 0.337(3)
H3B H 0.54870 0.06280 0.38470
C5B C 0.491(3) 0.058(3) 0.251(3)
H4B H 0.52900 0.00860 0.23830
C6B C 0.4865(19) 0.2133(17) 0.4416(17)
C7B C 0.410(2) 0.258(2) 0.476(2)
H5B H 0.34560 0.26310 0.44240
C8B C 0.427(2) 0.294(2) 0.558(2)
H6B H 0.37460 0.32500 0.58410
C9B C 0.597(3) 0.245(2) 0.567(2)
H7B H 0.66390 0.24330 0.59690
C10B C 0.578(3) 0.207(2) 0.486(2)
H8B H 0.62980 0.17490 0.46030
N2B N 0.521(2) 0.284(2) 0.6037(19)
N3B N 0.2659(17) 0.0318(17) 0.0417(17)
C11B C 0.213(3) 0.001(2) 0.108(2)
H9B H 0.24620 -0.01480 0.16490
C12B C 0.103(2) -0.0061(18) 0.0914(18)
H10B H 0.06390 -0.02170 0.14040
C13B C 0.055(2) 0.0080(18) 0.0098(18)
C14B C 0.111(3) 0.044(3) -0.055(3)
H11B H 0.07990 0.05750 -0.11310
C15B C 0.214(3) 0.059(2) -0.034(3)
H12B H 0.24920 0.09170 -0.07630
O1* O -0.568(2) -0.0251(19) -0.0567(19)
O1B O -0.432(2) 0.0251(19) 0.0567(19)
O1B* O 0.568(2) 0.0251(19) 0.0567(19)
H13* H -0.59920 -0.08230 -0.05790
H13B H -0.40080 0.08230 0.05790
H13B* H 0.59920 0.08230 0.05790
H14* H -0.59970 0.00890 -0.10770
H14B H -0.40030 -0.00890 0.10770
H14B* H 0.59970 -0.00890 0.10770
O2B O 0.413(2) -0.1072(15) 0.1431(18)
W1B W -0.23732(9) -0.55430(8) 0.03850(9)
W2B W -0.58224(11) -0.36758(10) -0.18519(9)
W3B W -0.38681(10) -0.63745(8) -0.15228(8)
W4B W -0.64832(10) -0.58443(8) -0.18984(8)
W5B W -0.56596(10) -0.71734(8) -0.00661(10)
W6B W -0.32002(11) -0.42045(10) -0.14515(9)
O5B O -0.519(2) -0.5754(11) -0.0615(15)
O6B O -0.4700(19) -0.4257(12) -0.0568(15)
O7B O -0.4029(12) -0.5223(16) -0.0424(16)
O8B O -0.4149(14) -0.5173(17) 0.0709(14)
O9B O -0.232(2) -0.4690(17) -0.0513(18)
O10B O -0.5109(18) -0.6164(19) -0.217(2)
O11B O -0.282(3) -0.6328(17) -0.0578(16)
O12B O -0.3370(19) -0.7042(16) -0.2304(16)
O13B O -0.6175(19) -0.4743(16) -0.2328(17)
O14B O -0.6469(19) -0.6783(16) -0.1088(17)
O15B O -0.621(2) -0.3061(17) -0.2720(18)
O16B O -0.2497(18) -0.4656(15) 0.1233(16)
O17B O -0.2326(17) -0.3830(14) -0.2159(14)
O18B O -0.5912(15) -0.8259(13) -0.0091(13)
O19B O -0.2997(19) -0.6295(16) 0.1210(16)
O20B O -0.722(2) -0.624(2) -0.284(2)
O21B O -0.336(3) -0.327(2) -0.068(2)
O22B O -0.452(2) -0.7168(18) -0.079(2)
O23B O -0.110(2) -0.5805(18) 0.060(2)
O24B O -0.343(2) -0.5297(17) -0.1937(18)
O25B O -0.445(3) -0.386(2) -0.212(2)
O26B O -0.475(3) -0.731(2) 0.114(2)
#END
