
#######################################################################
#
#                 Cambridge Crystallographic Data Centre
#                                CCDC
#
#######################################################################
#
# If this CIF has been generated from an entry in the Cambridge
# Structural Database, then it will include bibliographic, chemical,
# crystal, experimental, refinement or atomic coordinate data resulting
# from the CCDC's data processing and validation procedures.
#
#######################################################################

data_CSD_CIF_QULXUR
_audit_creation_date 2010-07-26
_audit_creation_method CSD-ConQuest-V1
_database_code_CSD QULXUR
_database_code_depnum_ccdc_archive 'CCDC 736092'
_chemical_formula_sum 'C100 H102 Cu6 N20 O93 Si2 W24'
_chemical_formula_moiety
;
(C60 H54 Cu4 N12 O4 6+)n,2n(O40 Si1 W12 4-),n(C40 H36 Cu2 N8 O3 2+),6n(H2 O1)
;
_journal_coden_Cambridge 222
_journal_year 2009
_journal_page_first 9503
_journal_name_full 'Dalton Trans. '
loop_
_publ_author_name
"Fan Yu"
"Xiang-Jian Kong"
"Yun-Yun Zheng"
"Yan-Ping Ren"
"La-Sheng Long"
"Rong-Bin Huang"
"Lan-Sun Zheng"
_chemical_name_systematic
;
catena-[hexakis(\m~2~-4,4'-Bipyridine)-bis(\m~2~-hydroxo)-diaqua-tetra-copper(
ii) (\m~2~-oxo)-diaqua-tetrakis(4,4'-bipyridine)-di-copper(ii) 
bis((\m~12~-silicato)-tetracosakis(\m~2~-oxo)-dodecaoxo-dodeca-tungsten) 
hexahydrate]
;
_cell_volume   8589.868
_exptl_crystal_colour 'blue'
_exptl_crystal_density_diffrn 3.063
_exptl_special_details
;
Two anions are described as bonding the the tetra-copper unit, but we have 
not represented this due to disorder
;
_exptl_crystal_description 'stick'
_diffrn_ambient_temperature 298
_refine_special_details
;
The anion is partially disordered by symmetry.

;
#These two values have been output from a single CSD field.
_refine_ls_R_factor_gt 0.0809
_refine_ls_wR_factor_gt 0.0809
_symmetry_cell_setting orthorhombic
_symmetry_space_group_name_H-M 'P b a m'
_symmetry_Int_Tables_number 55
loop_
_symmetry_equiv_pos_site_id
_symmetry_equiv_pos_as_xyz
1 x,y,z
2 -x,-y,z
3 1/2-x,1/2+y,-z
4 1/2+x,1/2-y,-z
5 -x,-y,-z
6 x,y,-z
7 -1/2+x,-1/2-y,z
8 -1/2-x,-1/2+y,z
_cell_length_a 27.022(5)
_cell_length_b 28.597(5)
_cell_length_c 11.116(2)
_cell_angle_alpha 90
_cell_angle_beta 90
_cell_angle_gamma 90
_cell_formula_units_Z 2
loop_
_atom_type_symbol
_atom_type_radius_bond
C 0.68
H 0.23
Cu 1.33
N 0.68
O 0.68
Si 1.20
W 1.39
loop_
_atom_site_label
_atom_site_type_symbol
_atom_site_fract_x
_atom_site_fract_y
_atom_site_fract_z
Cu1 Cu 0.33398(11) 0.16048(11) 0.50000
Cu2 Cu 0.20602(10) 0.17667(10) 0.50000
O1 O 0.3568(9) 0.0793(8) 0.50000
O2 O 0.2670(6) 0.1411(6) 0.50000
H1 H 0.26260 0.10880 0.50000
N1 N -0.0984(9) 0.3100(8) 0.50000
N2 N 0.1383(7) 0.2094(7) 0.50000
N3 N 0.3356(5) 0.1634(5) 0.6829(14)
N4 N 0.2043(6) 0.1765(4) 0.3168(13)
C1 C -0.0930(11) 0.2674(13) 0.50000
H2 H -0.12150 0.24910 0.50000
C2 C -0.0469(9) 0.2439(10) 0.50000
H3 H -0.04550 0.21140 0.50000
C3 C -0.0038(10) 0.2705(10) 0.50000
C4 C 0.0457(11) 0.2503(9) 0.50000
C5 C 0.0534(16) 0.2020(14) 0.50000
H4 H 0.02630 0.18210 0.50000
C6 C 0.0986(12) 0.1841(11) 0.50000
H5 H 0.10190 0.15170 0.50000
C7 C 0.1321(12) 0.2545(11) 0.50000
H6 H 0.16000 0.27350 0.50000
C8 C 0.0855(12) 0.2756(12) 0.50000
H7 H 0.08300 0.30800 0.50000
C9 C -0.0123(13) 0.319(1) 0.50000
H8 H 0.01400 0.33990 0.50000
C10 C -0.0609(12) 0.3349(11) 0.50000
H9 H -0.06570 0.36710 0.50000
C11 C 0.3386(10) 0.2008(10) 0.747(3)
H10 H 0.34050 0.22910 0.70640
C12 C 0.3391(12) 0.2029(7) 0.869(2)
H11 H 0.34040 0.23180 0.90740
C13 C 0.3379(8) 0.1648(7) 0.9340(18)
C14 C 0.3343(17) 0.1245(9) 0.869(2)
H12 H 0.33150 0.09590 0.90830
C15 C 0.3349(11) 0.1265(10) 0.745(3)
H13 H 0.33460 0.09820 0.70430
C16 C 0.2051(8) 0.2144(8) 0.254(2)
H14 H 0.20590 0.24240 0.29680
C17 C 0.2050(9) 0.2174(9) 0.133(2)
H15 H 0.20680 0.24620 0.09390
C18 C 0.2022(7) 0.1784(6) 0.0718(17)
C19 C 0.2022(16) 0.1372(9) 0.131(2)
H16 H 0.20340 0.10840 0.09270
C20 C 0.2003(11) 0.1420(11) 0.257(3)
H17 H 0.19510 0.11450 0.29930
Cu3 Cu 0.50000 0.50000 0.1631(5)
O3 O 0.50000 0.50000 0.336(3)
O4 O 0.50000 0.50000 0.00000
N5 N 0.5107(11) 0.4289(7) 0.165(2)
N6 N 0.534(2) 0.1868(13) 0.172(4)
C21 C 0.4719(10) 0.4013(8) 0.130(4)
H18 H 0.44280 0.41500 0.10250
C22 C 0.4756(8) 0.3536(8) 0.135(3)
H19 H 0.44830 0.33530 0.11550
C23 C 0.5190(9) 0.3324(7) 0.167(2)
C24 C 0.559(1) 0.3603(10) 0.191(6)
H20 H 0.58900 0.34660 0.21250
C25 C 0.5554(11) 0.408(1) 0.185(7)
H21 H 0.58360 0.42630 0.19470
C26 C 0.5250(12) 0.2844(14) 0.169(2)
C27 C 0.5692(16) 0.2637(18) 0.168(3)
H22 H 0.59760 0.28210 0.16690
C28 C 0.573(2) 0.219(2) 0.170(4)
H23 H 0.60530 0.20620 0.17010
C29 C 0.4882(17) 0.2068(15) 0.174(4)
H24 H 0.46020 0.18790 0.17830
C30 C 0.4832(15) 0.2527(12) 0.170(3)
H25 H 0.45150 0.26520 0.16750
O5 O 0.1693(16) 0.0387(15) 0.00000
O6 O 0.2336(19) -0.2011(15) 1.00000
O7 O 0.2101(11) -0.0771(10) 1.00000
W1 W 0.31727(4) 0.54043(3) -0.50000
W2 W 0.34197(3) 0.34901(3) -0.27454(7)
W3 W 0.26648(4) 0.30272(3) -0.50000
W4 W 0.36688(3) 0.46914(3) -0.72313(8)
W5 W 0.41791(4) 0.39636(4) -0.50000
W6 W 0.23991(4) 0.49333(3) -0.72172(9)
W7 W 0.21452(3) 0.37329(3) -0.72181(9)
W8 W 0.16442(5) 0.44431(5) -0.50000
Si1 Si 0.2913(3) 0.4212(2) -0.50000
O8 O 0.2433(9) 0.4288(8) -0.591(2)
O9 O 0.2822(8) 0.3754(8) -0.419(2)
O10 O 0.3388(8) 0.4110(8) -0.588(2)
O11 O 0.3005(8) 0.4672(7) -0.5778(19)
O12 O 0.1866(9) 0.4885(6) -0.380(3)
O13 O 0.2541(7) 0.2420(6) -0.50000
O14 O 0.2265(9) 0.4330(6) -0.784(3)
O15 O 0.4159(8) 0.4437(7) -0.380(2)
O16 O 0.1671(9) 0.3975(6) -0.380(2)
O17 O 0.3599(8) 0.4085(7) -0.210(2)
O18 O 0.1786(8) 0.3495(8) -0.836(2)
O19 O 0.2164(9) 0.5279(6) -0.833(2)
O20 O 0.3045(6) 0.4851(8) -0.7882(17)
O21 O 0.3168(5) 0.3033(7) -0.3812(17)
O22 O 0.2779(6) 0.3595(6) -0.2153(18)
O23 O 0.3670(6) 0.3137(5) -0.1663(15)
O24 O 0.4063(7) 0.4920(6) -0.8313(15)
O25 O 0.1013(8) 0.4573(8) -0.50000
O26 O 0.3630(7) 0.5203(7) -0.3812(17)
O27 O 0.3967(9) 0.3534(5) -0.6184(18)
O28 O 0.2217(5) 0.3224(7) -0.3805(15)
O29 O 0.2672(5) 0.5400(7) -0.3800(15)
O30 O 0.4788(9) 0.3860(8) -0.50000
O31 O 0.3313(8) 0.5991(7) -0.50000
Cu1C Cu -0.16602(11) 0.33952(11) 0.50000
Cu1* Cu 0.33398(11) 0.16048(11) 1.50000
Cu1** Cu 0.33398(11) 0.16048(11) -0.50000
Cu2* Cu 0.20602(10) 0.17667(10) -0.50000
Cu2** Cu 0.20602(10) 0.17667(10) 1.50000
Cu2C Cu 0.70602(10) 0.32333(10) 0.50000
O1C O -0.1432(9) 0.4207(8) 0.50000
O2C O -0.2330(6) 0.3589(6) 0.50000
O2* O 0.2670(6) 0.1411(6) -0.50000
H1C H -0.23740 0.39120 0.50000
H1* H 0.26260 0.10880 -0.50000
N1C N 0.4016(9) 0.1900(8) 0.50000
N2C N 0.6383(7) 0.2906(7) 0.50000
N2* N 0.1383(7) 0.2094(7) -0.50000
N3E N 0.3356(5) 0.1634(5) 1.3171(14)
N3E* N 0.3356(5) 0.1634(5) 0.3171(14)
N3* N 0.3356(5) 0.1634(5) -0.3171(14)
N3C N -0.1644(5) 0.3366(5) 0.3171(14)
N3F N -0.1644(5) 0.3366(5) 0.6829(14)
N4E N 0.2043(6) 0.1765(4) -0.3168(13)
N4E* N 0.2043(6) 0.1765(4) 0.6832(13)
N4* N 0.2043(6) 0.1765(4) 1.3168(13)
N4** N 0.2043(6) 0.1765(4) -0.6832(13)
C1C C 0.4070(11) 0.2326(13) 0.50000
H2C H 0.37850 0.25090 0.50000
C2C C 0.4531(9) 0.2561(10) 0.50000
H3C H 0.45450 0.28860 0.50000
C3C C 0.4962(10) 0.2295(10) 0.50000
C4C C 0.5457(11) 0.2497(9) 0.50000
C5C C 0.5534(16) 0.2980(14) 0.50000
H4C H 0.52630 0.31790 0.50000
C6C C 0.5986(12) 0.3159(11) 0.50000
H5C H 0.60190 0.34830 0.50000
C7C C 0.6321(12) 0.2455(11) 0.50000
H6C H 0.66000 0.22650 0.50000
C8C C 0.5855(12) 0.2244(12) 0.50000
H7C H 0.58300 0.19200 0.50000
C9C C 0.4877(13) 0.181(1) 0.50000
H8C H 0.51400 0.16010 0.50000
C10C C 0.4391(12) 0.1651(11) 0.50000
H9C H 0.43430 0.13290 0.50000
C11E C 0.3386(10) 0.2008(10) 1.253(3)
C11E* C 0.3386(10) 0.2008(10) 0.253(3)
C11* C 0.3386(10) 0.2008(10) -0.253(3)
H10E H 0.34050 0.22910 1.29360
H10E* H 0.34050 0.22910 0.29360
H10* H 0.34050 0.22910 -0.29360
C12E C 0.3391(12) 0.2029(7) 1.131(2)
C12E* C 0.3391(12) 0.2029(7) 0.131(2)
C12* C 0.3391(12) 0.2029(7) -0.131(2)
H11E H 0.34040 0.23180 1.09260
H11E* H 0.34040 0.23180 0.09260
H11* H 0.34040 0.23180 -0.09260
C13E C 0.3379(8) 0.1648(7) 1.0660(18)
C13E* C 0.3379(8) 0.1648(7) 0.0660(18)
C13* C 0.3379(8) 0.1648(7) -0.0660(18)
C14E C 0.3343(17) 0.1245(9) 1.131(2)
C14E* C 0.3343(17) 0.1245(9) 0.131(2)
C14* C 0.3343(17) 0.1245(9) -0.131(2)
H12E H 0.33150 0.09590 1.09170
H12E* H 0.33150 0.09590 0.09170
H12* H 0.33150 0.09590 -0.09170
C15E C 0.3349(11) 0.1265(10) 1.255(3)
C15E* C 0.3349(11) 0.1265(10) 0.255(3)
C15* C 0.3349(11) 0.1265(10) -0.255(3)
H13E H 0.33460 0.09820 1.29570
H13E* H 0.33460 0.09820 0.29570
H13* H 0.33460 0.09820 -0.29570
C16E C 0.2051(8) 0.2144(8) -0.254(2)
C16E* C 0.2051(8) 0.2144(8) 0.746(2)
C16* C 0.2051(8) 0.2144(8) 1.254(2)
H14E H 0.20590 0.24240 -0.29680
H14E* H 0.20590 0.24240 0.70320
H14* H 0.20590 0.24240 1.29680
C17E C 0.2050(9) 0.2174(9) -0.133(2)
C17E* C 0.2050(9) 0.2174(9) 0.867(2)
C17* C 0.2050(9) 0.2174(9) 1.133(2)
H15E H 0.20680 0.24620 -0.09390
H15E* H 0.20680 0.24620 0.90610
H15* H 0.20680 0.24620 1.09390
C18E C 0.2022(7) 0.1784(6) -0.0718(17)
C18E* C 0.2022(7) 0.1784(6) 0.9282(17)
C18* C 0.2022(7) 0.1784(6) 1.0718(17)
C19E C 0.2022(16) 0.1372(9) -0.131(2)
C19E* C 0.2022(16) 0.1372(9) 0.869(2)
C19* C 0.2022(16) 0.1372(9) 1.131(2)
H16E H 0.20340 0.10840 -0.09270
H16E* H 0.20340 0.10840 0.90730
H16* H 0.20340 0.10840 1.09270
C20E C 0.2003(11) 0.1420(11) -0.257(3)
C20E* C 0.2003(11) 0.1420(11) 0.743(3)
C20* C 0.2003(11) 0.1420(11) 1.257(3)
H17E H 0.19510 0.11450 -0.29930
H17E* H 0.19510 0.11450 0.70070
H17* H 0.19510 0.11450 1.29930
Cu3D Cu 0.50000 0.50000 -0.1631(5)
O3D O 0.50000 0.50000 -0.336(3)
N5A N 0.4893(11) 0.5711(7) 0.165(2)
N5D N 0.4893(11) 0.5711(7) -0.165(2)
N5E N 0.5107(11) 0.4289(7) -0.165(2)
N6A N 0.466(2) 0.8132(13) 0.172(4)
N6D N 0.466(2) 0.8132(13) -0.172(4)
N6E N 0.534(2) 0.1868(13) -0.172(4)
C21A C 0.5281(10) 0.5987(8) 0.130(4)
C21D C 0.5281(10) 0.5987(8) -0.130(4)
C21E C 0.4719(10) 0.4013(8) -0.130(4)
H18A H 0.55720 0.58500 0.10250
H18D H 0.55720 0.58500 -0.10250
H18E H 0.44280 0.41500 -0.10250
C22A C 0.5244(8) 0.6464(8) 0.135(3)
C22D C 0.5244(8) 0.6464(8) -0.135(3)
C22E C 0.4756(8) 0.3536(8) -0.135(3)
H19A H 0.55170 0.66470 0.11550
H19D H 0.55170 0.66470 -0.11550
H19E H 0.44830 0.33530 -0.11550
C23A C 0.4810(9) 0.6676(7) 0.167(2)
C23D C 0.4810(9) 0.6676(7) -0.167(2)
C23E C 0.5190(9) 0.3324(7) -0.167(2)
C24A C 0.441(1) 0.6397(10) 0.191(6)
C24D C 0.441(1) 0.6397(10) -0.191(6)
C24E C 0.559(1) 0.3603(10) -0.191(6)
H20A H 0.41100 0.65340 0.21250
H20D H 0.41100 0.65340 -0.21250
H20E H 0.58900 0.34660 -0.21250
C25A C 0.4446(11) 0.592(1) 0.185(7)
C25D C 0.4446(11) 0.592(1) -0.185(7)
C25E C 0.5554(11) 0.408(1) -0.185(7)
H21A H 0.41640 0.57370 0.19470
H21D H 0.41640 0.57370 -0.19470
H21E H 0.58360 0.42630 -0.19470
C26A C 0.4750(12) 0.7156(14) 0.169(2)
C26D C 0.4750(12) 0.7156(14) -0.169(2)
C26E C 0.5250(12) 0.2844(14) -0.169(2)
C27A C 0.4308(16) 0.7363(18) 0.168(3)
C27D C 0.4308(16) 0.7363(18) -0.168(3)
C27E C 0.5692(16) 0.2637(18) -0.168(3)
H22A H 0.40240 0.71790 0.16690
H22D H 0.40240 0.71790 -0.16690
H22E H 0.59760 0.28210 -0.16690
C28A C 0.427(2) 0.781(2) 0.170(4)
C28D C 0.427(2) 0.781(2) -0.170(4)
C28E C 0.573(2) 0.219(2) -0.170(4)
H23A H 0.39470 0.79380 0.17010
H23D H 0.39470 0.79380 -0.17010
H23E H 0.60530 0.20620 -0.17010
C29A C 0.5118(17) 0.7932(15) 0.174(4)
C29D C 0.5118(17) 0.7932(15) -0.174(4)
C29E C 0.4882(17) 0.2068(15) -0.174(4)
H24A H 0.53980 0.81210 0.17830
H24D H 0.53980 0.81210 -0.17830
H24E H 0.46020 0.18790 -0.17830
C30A C 0.5168(15) 0.7473(12) 0.170(3)
C30D C 0.5168(15) 0.7473(12) -0.170(3)
C30E C 0.4832(15) 0.2527(12) -0.170(3)
H25A H 0.54850 0.73480 0.16750
H25D H 0.54850 0.73480 -0.16750
H25E H 0.45150 0.26520 -0.16750
W1* W 0.31727(4) 0.54043(3) 0.50000
W2E W 0.34197(3) 0.34901(3) 0.27454(7)
W2* W 0.34197(3) 0.34901(3) 0.72546(7)
W3* W 0.26648(4) 0.30272(3) 0.50000
W4E W 0.36688(3) 0.46914(3) 0.72313(8)
W4* W 0.36688(3) 0.46914(3) 0.27687(8)
W5* W 0.41791(4) 0.39636(4) 0.50000
W6E W 0.23991(4) 0.49333(3) 0.72172(9)
W6* W 0.23991(4) 0.49333(3) 0.27828(9)
W7E W 0.21452(3) 0.37329(3) 0.72181(9)
W7* W 0.21452(3) 0.37329(3) 0.27819(9)
W8* W 0.16442(5) 0.44431(5) 0.50000
Si1* Si 0.2913(3) 0.4212(2) 0.50000
O8E O 0.2433(9) 0.4288(8) 0.591(2)
O8* O 0.2433(9) 0.4288(8) 0.409(2)
O9E O 0.2822(8) 0.3754(8) 0.419(2)
O9* O 0.2822(8) 0.3754(8) 0.581(2)
O10E O 0.3388(8) 0.4110(8) 0.588(2)
O10* O 0.3388(8) 0.4110(8) 0.412(2)
O11E O 0.3005(8) 0.4672(7) 0.5778(19)
O11* O 0.3005(8) 0.4672(7) 0.4222(19)
O12* O 0.1866(9) 0.4885(6) 0.620(3)
O12E O 0.1866(9) 0.4885(6) 0.380(3)
O13* O 0.2541(7) 0.2420(6) 0.50000
O14E O 0.2265(9) 0.4330(6) 0.784(3)
O14* O 0.2265(9) 0.4330(6) 0.216(3)
O15* O 0.4159(8) 0.4437(7) 0.620(2)
O15E O 0.4159(8) 0.4437(7) 0.380(2)
O16* O 0.1671(9) 0.3975(6) 0.620(2)
O16E O 0.1671(9) 0.3975(6) 0.380(2)
O17E O 0.3599(8) 0.4085(7) 0.210(2)
O17* O 0.3599(8) 0.4085(7) 0.790(2)
O18E O 0.1786(8) 0.3495(8) 0.836(2)
O18* O 0.1786(8) 0.3495(8) 0.164(2)
O19E O 0.2164(9) 0.5279(6) 0.833(2)
O19* O 0.2164(9) 0.5279(6) 0.167(2)
O20E O 0.3045(6) 0.4851(8) 0.7882(17)
O20* O 0.3045(6) 0.4851(8) 0.2118(17)
O21E O 0.3168(5) 0.3033(7) 0.3812(17)
O21* O 0.3168(5) 0.3033(7) 0.6188(17)
O22E O 0.2779(6) 0.3595(6) 0.2153(18)
O22* O 0.2779(6) 0.3595(6) 0.7847(18)
O23E O 0.3670(6) 0.3137(5) 0.1663(15)
O23* O 0.3670(6) 0.3137(5) 0.8337(15)
O24E O 0.4063(7) 0.4920(6) 0.8313(15)
O24* O 0.4063(7) 0.4920(6) 0.1687(15)
O25* O 0.1013(8) 0.4573(8) 0.50000
O26E O 0.3630(7) 0.5203(7) 0.3812(17)
O26* O 0.3630(7) 0.5203(7) 0.6188(17)
O27* O 0.3967(9) 0.3534(5) 0.3816(18)
O27E O 0.3967(9) 0.3534(5) 0.6184(18)
O28E O 0.2217(5) 0.3224(7) 0.3805(15)
O28* O 0.2217(5) 0.3224(7) 0.6195(15)
O29E O 0.2672(5) 0.5400(7) 0.3800(15)
O29* O 0.2672(5) 0.5400(7) 0.6200(15)
O30* O 0.4788(9) 0.3860(8) 0.50000
O31* O 0.3313(8) 0.5991(7) 0.50000
W2E* W 0.34197(3) 0.34901(3) -0.72546(7)
W4E* W 0.36688(3) 0.46914(3) -0.27687(8)
W6E* W 0.23991(4) 0.49333(3) -0.27828(9)
W7E* W 0.21452(3) 0.37329(3) -0.27819(9)
O8E* O 0.2433(9) 0.4288(8) -0.409(2)
O9E* O 0.2822(8) 0.3754(8) -0.581(2)
O10E* O 0.3388(8) 0.4110(8) -0.412(2)
O11E* O 0.3005(8) 0.4672(7) -0.4222(19)
O12E* O 0.1866(9) 0.4885(6) -0.620(3)
O14E* O 0.2265(9) 0.4330(6) -0.216(3)
O15E* O 0.4159(8) 0.4437(7) -0.620(2)
O16E* O 0.1671(9) 0.3975(6) -0.620(2)
O17E* O 0.3599(8) 0.4085(7) -0.790(2)
O18E* O 0.1786(8) 0.3495(8) -0.164(2)
O19E* O 0.2164(9) 0.5279(6) -0.167(2)
O20E* O 0.3045(6) 0.4851(8) -0.2118(17)
O21E* O 0.3168(5) 0.3033(7) -0.6188(17)
O22E* O 0.2779(6) 0.3595(6) -0.7847(18)
O23E* O 0.3670(6) 0.3137(5) -0.8337(15)
O24E* O 0.4063(7) 0.4920(6) -0.1687(15)
O26E* O 0.3630(7) 0.5203(7) -0.6188(17)
O27E* O 0.3967(9) 0.3534(5) -0.3816(18)
O28E* O 0.2217(5) 0.3224(7) -0.6195(15)
O29E* O 0.2672(5) 0.5400(7) -0.6200(15)
#END
