
#######################################################################
#
#                 Cambridge Crystallographic Data Centre
#                                CCDC
#
#######################################################################
#
# If this CIF has been generated from an entry in the Cambridge
# Structural Database, then it will include bibliographic, chemical,
# crystal, experimental, refinement or atomic coordinate data resulting
# from the CCDC's data processing and validation procedures.
#
#######################################################################

data_CSD_CIF_QUPMOG
_audit_creation_date 2020-08-15
_audit_creation_method CSD-ConQuest-V1
_database_code_CSD QUPMOG
_database_code_depnum_ccdc_archive 'CCDC 2010718'
_chemical_formula_sum 'C18 H18 In1 N1 O11'
_chemical_formula_moiety
;
(C16 H8 In1 O10 1-)n,n(C2 H8 N1 1+),n(H2 O1)
;
_journal_coden_Cambridge 1347
_journal_volume 308
_journal_year 2020
_journal_page_first 110568
_journal_name_full 'Microporous and Mesoporous Materials '
loop_
_publ_author_name
"Yansong Jiang"
"Zijing Lu"
"Pengcheng Wang"
"Jianing Xu"
"Li Wang"
"Yong Fan"
_chemical_name_systematic
;
catena-(dimethylammonium bis(\m-5-hydroxyisophthalato)-indium monohydrate)
;
_cell_volume   2444.499
_exptl_crystal_colour 'colorless'
_exptl_crystal_description 'block'
_diffrn_ambient_temperature 293
_refine_special_details
;
The SQUEEZE/PLATON program was used to model the disordered cation and water 
molecule.
;
#These two values have been output from a single CSD field.
_refine_ls_R_factor_gt 0.1063
_refine_ls_wR_factor_gt 0.1063
_symmetry_cell_setting monoclinic
_symmetry_space_group_name_H-M 'C 2/c'
_symmetry_Int_Tables_number 15
loop_
_symmetry_equiv_pos_site_id
_symmetry_equiv_pos_as_xyz
1 x,y,z
2 -x,y,1/2-z
3 1/2+x,1/2+y,z
4 1/2-x,1/2+y,1/2-z
5 -x,-y,-z
6 x,-y,-1/2+z
7 -1/2-x,-1/2-y,-z
8 -1/2+x,-1/2-y,-1/2+z
_cell_length_a 14.5443(11)
_cell_length_b 13.3383(11)
_cell_length_c 12.6641(11)
_cell_angle_alpha 90
_cell_angle_beta 95.733(6)
_cell_angle_gamma 90
_cell_formula_units_Z 4
loop_
_atom_type_symbol
_atom_type_radius_bond
C 0.68
H 0.23
In 1.42
O 0.68
loop_
_atom_site_label
_atom_site_type_symbol
_atom_site_fract_x
_atom_site_fract_y
_atom_site_fract_z
In1 In 0.00000 0.34551(6) 0.25000
O1 O 0.0556(4) 0.2739(5) 0.1158(5)
O2 O 0.4258(4) -0.0730(5) 0.1169(5)
O3 O 0.3785(5) -0.0345(5) 0.2683(5)
O4 O 0.2259(5) 0.1182(6) -0.1553(5)
H1 H 0.26170 0.07910 -0.17990
O5 O 0.1174(5) 0.2247(5) 0.2679(5)
C1 C 0.2431(5) 0.0957(6) 0.1707(6)
H2 H 0.24660 0.09260 0.24440
C2 C 0.2988(5) 0.0476(7) 0.0060(6)
H3 H 0.34090 0.01220 -0.03020
C3 C 0.3022(5) 0.0412(7) 0.1147(6)
C4 C 0.1714(6) 0.1653(6) 0.0061(7)
H4 H 0.12860 0.20840 -0.02950
C5 C 0.1144(5) 0.2215(6) 0.1708(6)
C6 C 0.1772(6) 0.1565(6) 0.1125(7)
C7 C 0.3727(5) -0.0251(7) 0.1703(7)
C8 C 0.2316(5) 0.1076(6) -0.0500(6)
O1A O -0.0556(4) 0.2739(5) 0.3842(5)
O2A O -0.4258(4) -0.0730(5) 0.3831(5)
O3A O -0.3785(5) -0.0345(5) 0.2317(5)
O4A O -0.2259(5) 0.1182(6) 0.6553(5)
H1A H -0.26170 0.07910 0.67990
O5A O -0.1174(5) 0.2247(5) 0.2321(5)
C1A C -0.2431(5) 0.0957(6) 0.3293(6)
H2A H -0.24660 0.09260 0.25560
C2A C -0.2988(5) 0.0476(7) 0.4940(6)
H3A H -0.34090 0.01220 0.53020
C3A C -0.3022(5) 0.0412(7) 0.3853(6)
C4A C -0.1714(6) 0.1653(6) 0.4939(7)
H4A H -0.12860 0.20840 0.52950
C5A C -0.1144(5) 0.2215(6) 0.3292(6)
C6A C -0.1772(6) 0.1565(6) 0.3875(7)
C7A C -0.3727(5) -0.0251(7) 0.3297(7)
C8A C -0.2316(5) 0.1076(6) 0.5500(6)
In1B In -0.50000 -0.15449(6) 0.25000
In1B* In 0.50000 -0.15449(6) 0.25000
O2B O -0.0742(4) 0.4270(5) 0.1169(5)
O2C O 0.0742(4) 0.4270(5) 0.3831(5)
O3B O -0.1215(5) 0.4655(5) 0.2683(5)
O3C O 0.1215(5) 0.4655(5) 0.2317(5)
#END
