
#######################################################################
#
#                 Cambridge Crystallographic Data Centre
#                                CCDC
#
#######################################################################
#
# If this CIF has been generated from an entry in the Cambridge
# Structural Database, then it will include bibliographic, chemical,
# crystal, experimental, refinement or atomic coordinate data resulting
# from the CCDC's data processing and validation procedures.
#
#######################################################################

data_CSD_CIF_QUPQEY
_audit_creation_date 2010-11-12
_audit_creation_method CSD-ConQuest-V1
_database_code_CSD QUPQEY
_database_code_depnum_ccdc_archive 'CCDC 761738'
_chemical_formula_sum 'C40 H66 Co3 N8 O38 S2'
_chemical_formula_moiety
;
(H12 Co1 O6 2+)n,n(C40 H34 Co2 N8 O22 S2 2-),10n(H2 O1)
;
_journal_coden_Cambridge 1147
_journal_volume 10
_journal_year 2010
_journal_page_first 2650
_journal_name_full 'Cryst.Growth Des. '
loop_
_publ_author_name
"Cheng-Peng Li"
"Qian Yu"
"Jing Chen"
"Miao Du"
_chemical_name_systematic
;
catena-[Hexa-aqua-cobalt(ii) 
bis(\m~2~-2,5-bis(3-pyridyl)-1,3,4-oxadiazole-N,N')-bis(5-sulfonatoisophthalat
o-O)-hexa-aqua-di-cobalt(ii) decahydrate]
;
_cell_volume   2940.069
_exptl_crystal_colour 'red'
_exptl_crystal_density_diffrn 1.703
_exptl_special_details
;
Isostructural with the Cd(ii) analogue

;
_exptl_crystal_description 'block'
_diffrn_ambient_temperature 296
#These two values have been output from a single CSD field.
_refine_ls_R_factor_gt 0.0364
_refine_ls_wR_factor_gt 0.0364
_symmetry_cell_setting monoclinic
_symmetry_space_group_name_H-M 'P 21/c'
_symmetry_Int_Tables_number 14
loop_
_symmetry_equiv_pos_site_id
_symmetry_equiv_pos_as_xyz
1 x,y,z
2 -x,1/2+y,1/2-z
3 -x,-y,-z
4 x,-1/2-y,-1/2+z
_cell_length_a 7.021(2)
_cell_length_b 20.296(7)
_cell_length_c 20.820(7)
_cell_angle_alpha 90
_cell_angle_beta 97.699(6)
_cell_angle_gamma 90
_cell_formula_units_Z 2
loop_
_atom_type_symbol
_atom_type_radius_bond
C 0.68
H 0.23
Co 1.26
N 0.68
O 0.68
S 1.02
loop_
_atom_site_label
_atom_site_type_symbol
_atom_site_fract_x
_atom_site_fract_y
_atom_site_fract_z
Co1 Co 0.13172(6) 0.31198(2) 1.056764(18)
Co2 Co 1.00000 0.50000 0.50000
S1 S -0.02674(12) 0.50884(4) 0.76768(4)
O1 O 0.0396(3) 0.33575(10) 0.95915(9)
O2 O -0.0853(4) 0.24152(12) 0.91917(10)
O3 O -0.2556(4) 0.21677(11) 0.68158(10)
O4 O -0.2889(3) 0.30483(11) 0.61925(10)
O5 O 0.1055(4) 0.51172(13) 0.72067(13)
O6 O -0.2055(4) 0.53993(13) 0.74460(14)
O7 O 0.0552(4) 0.53272(12) 0.83040(11)
O8 O 0.5516(3) 0.61273(10) 1.16987(9)
O9 O -0.1059(3) 0.35727(11) 1.09074(10)
H1 H -0.07890 0.39260 1.11190
H2 H -0.16760 0.32870 1.10960
O10 O 0.3946(3) 0.27218(12) 1.03444(11)
H3 H 0.44500 0.29640 1.00800
H4 H 0.47060 0.24780 1.05930
O11 O -0.0162(3) 0.22078(11) 1.04105(10)
H5 H -0.10400 0.21270 1.06430
H6 H -0.05180 0.22170 1.00040
O12 O 0.7388(4) 0.45355(13) 0.48057(12)
H7 H 0.71070 0.42610 0.44950
H8 H 0.68170 0.44670 0.51370
O13 O 1.1250(3) 0.41768(12) 0.54993(12)
H9 H 1.24630 0.42140 0.55210
H10 H 1.07640 0.38140 0.53520
O14 O 0.9189(4) 0.53495(14) 0.58636(12)
H11 H 0.87220 0.57360 0.57980
H12 H 0.95830 0.52510 0.62560
O15 O 0.4687(4) 0.48484(17) 0.68015(16)
H13 H 0.48260 0.52380 0.66530
H14 H 0.37470 0.48000 0.70180
O16 O 0.5194(3) 0.41669(12) 0.57371(12)
H15 H 0.57890 0.38090 0.58480
H16 H 0.50880 0.44400 0.60420
O17 O 0.6515(4) 0.12327(15) 0.76432(14)
H17 H 0.72400 0.08990 0.77400
H18 H 0.69920 0.15410 0.74300
O18 O 0.6328(4) 0.14469(13) 0.89180(13)
H19 H 0.65380 0.13160 0.85430
H20 H 0.70770 0.17540 0.90870
O19 O 0.2693(5) 0.15058(16) 0.92543(17)
H21 H 0.38000 0.14140 0.91580
H22 H 0.24250 0.19100 0.92960
N1 N 0.2735(4) 0.40691(13) 1.06573(11)
N2 N 0.4961(4) 0.64993(13) 1.07027(12)
N3 N 0.5694(4) 0.70173(13) 1.11078(12)
N4 N 0.7813(4) 0.77238(12) 1.34680(11)
C1 C 0.4776(5) 0.48125(16) 1.13162(15)
H23 H 0.56540 0.48800 1.16860
C2 C 0.4040(5) 0.41968(16) 1.11705(15)
H24 H 0.44720 0.38500 1.14430
C3 C 0.2226(5) 0.45739(15) 1.02559(14)
H25 H 0.13540 0.44920 0.98870
C4 C 0.2910(4) 0.52038(16) 1.03549(14)
H26 H 0.25210 0.55370 1.00600
C5 C 0.4197(4) 0.53307(15) 1.09074(13)
C6 C 0.4875(4) 0.59945(16) 1.10687(14)
C7 C 0.5976(4) 0.67749(15) 1.16851(14)
C8 C 0.6655(4) 0.70994(15) 1.22943(14)
C9 C 0.7231(4) 0.77495(15) 1.23141(14)
H27 H 0.72350 0.79880 1.19330
C10 C 0.7799(4) 0.80406(15) 1.29052(14)
H28 H 0.81930 0.84780 1.29130
C11 C 0.7267(5) 0.70928(15) 1.34384(14)
H29 H 0.72770 0.68650 1.38260
C12 C 0.6694(4) 0.67605(15) 1.28747(14)
H30 H 0.63400 0.63190 1.28800
C13 C -0.0788(4) 0.33082(15) 0.84731(13)
C14 C -0.1483(4) 0.29251(15) 0.79390(14)
H31 H -0.17330 0.24800 0.79950
C15 C -0.1810(4) 0.31991(15) 0.73209(13)
C16 C -0.1432(4) 0.38611(15) 0.72438(14)
H32 H -0.16410 0.40510 0.68340
C17 C -0.0741(4) 0.42418(15) 0.77776(14)
C18 C -0.0415(4) 0.39682(15) 0.83879(14)
H33 H 0.00550 0.42280 0.87420
C19 C -0.0392(4) 0.30037(16) 0.91396(14)
C20 C -0.2475(4) 0.27713(16) 0.67359(14)
Co1A Co 0.86828(6) -0.18802(2) 1.443236(18)
Co1A* Co 0.86828(6) 0.81198(2) 1.443236(18)
S1A S 1.02674(12) 0.00884(4) 1.73232(4)
O1A O 0.9604(3) -0.16425(10) 1.54085(9)
O2A O 1.0853(4) -0.25848(12) 1.58083(10)
O3A O 1.2556(4) -0.28323(11) 1.81842(10)
O4A O 1.2889(3) -0.19517(11) 1.88075(10)
O5A O 0.8945(4) 0.01172(13) 1.77933(13)
O6A O 1.2055(4) 0.03993(13) 1.75540(14)
O7A O 0.9448(4) 0.03272(12) 1.66960(11)
O8A O 0.4484(3) 0.11273(10) 1.33013(9)
O9A O 1.1059(3) -0.14273(11) 1.40926(10)
H1A H 1.07890 -0.10740 1.38810
H2A H 1.16760 -0.17130 1.39040
O10A O 0.6054(3) -0.22782(12) 1.46556(11)
H3A H 0.55500 -0.20360 1.49200
H4A H 0.52940 -0.25220 1.44070
O11A O 1.0162(3) -0.27922(11) 1.45895(10)
H5A H 1.10400 -0.28730 1.43570
H6A H 1.05180 -0.27830 1.49960
O12B O 1.2612(4) 0.54645(13) 0.51943(12)
H7B H 1.28930 0.57390 0.55050
H8B H 1.31830 0.55330 0.48630
O13B O 0.8750(3) 0.58232(12) 0.45007(12)
H9B H 0.75370 0.57860 0.44790
H10B H 0.92360 0.61860 0.46480
O14B O 1.0811(4) 0.46505(14) 0.41364(12)
H11B H 1.12780 0.42640 0.42020
H12B H 1.04170 0.47490 0.37440
N1A N 0.7265(4) -0.09309(13) 1.43427(11)
N2A N 0.5039(4) 0.14993(13) 1.42973(12)
N3A N 0.4306(4) 0.20173(13) 1.38922(12)
N4A N 0.2187(4) 0.27238(12) 1.15320(11)
N4* N 0.7813(4) -0.22762(12) 1.34680(11)
C1A C 0.5224(5) -0.01875(16) 1.36838(15)
H23A H 0.43460 -0.01200 1.33140
C2A C 0.5960(5) -0.08032(16) 1.38295(15)
H24A H 0.55280 -0.11500 1.35570
C3A C 0.7774(5) -0.04261(15) 1.47441(14)
H25A H 0.86460 -0.05080 1.51130
C4A C 0.7090(4) 0.02038(16) 1.46451(14)
H26A H 0.74790 0.05370 1.49400
C5A C 0.5803(4) 0.03307(15) 1.40926(13)
C6A C 0.5125(4) 0.09945(16) 1.39313(14)
C7A C 0.4024(4) 0.17749(15) 1.33149(14)
C8A C 0.3345(4) 0.20994(15) 1.27057(14)
C9A C 0.2769(4) 0.27495(15) 1.26859(14)
H27A H 0.27650 0.29880 1.30670
C10A C 0.2201(4) 0.30406(15) 1.20948(14)
H28A H 0.18070 0.34780 1.20870
C11A C 0.2733(5) 0.20928(15) 1.15616(14)
H29A H 0.27230 0.18650 1.11740
C12A C 0.3306(4) 0.17605(15) 1.21253(14)
H30A H 0.36600 0.13190 1.21200
C13A C 1.0788(4) -0.16918(15) 1.65269(13)
C14A C 1.1483(4) -0.20749(15) 1.70610(14)
H31A H 1.17330 -0.25200 1.70050
C15A C 1.1810(4) -0.18009(15) 1.76791(13)
C16A C 1.1432(4) -0.11389(15) 1.77562(14)
H32A H 1.16410 -0.09490 1.81660
C17A C 1.0741(4) -0.07582(15) 1.72224(14)
C18A C 1.0415(4) -0.10318(15) 1.66121(14)
H33A H 0.99450 -0.07720 1.62580
C19A C 1.0392(4) -0.19963(16) 1.58604(14)
C20A C 1.2475(4) -0.22287(16) 1.82641(14)
#END
