
#######################################################################
#
#                 Cambridge Crystallographic Data Centre
#                                CCDC
#
#######################################################################
#
# If this CIF has been generated from an entry in the Cambridge
# Structural Database, then it will include bibliographic, chemical,
# crystal, experimental, refinement or atomic coordinate data resulting
# from the CCDC's data processing and validation procedures.
#
#######################################################################

data_CSD_CIF_QUQWOQ
_audit_creation_date 2015-10-30
_audit_creation_method CSD-ConQuest-V1
_database_code_CSD QUQWOQ
_database_code_depnum_ccdc_archive 'CCDC 1412024'
_chemical_formula_sum 'C38 H38 N12 O12 Zn3'
_chemical_formula_moiety
;
(C34 H22 N10 O12 Zn3 2-)n,2(C2 H8 N1 1+)
;
_journal_coden_Cambridge 119
_journal_volume 1105
_journal_year 2016
_journal_page_first 112
_journal_name_full 'J.Mol.Struct. '
loop_
_publ_author_name
"Haixiang Zhao"
"Yanli Dong"
"Haiping Liu"
_chemical_name_systematic
;
catena-[bis(dimethylammonium) 
bis(\m~3~-biphenyl-3,4',5-tricarboxylato)-bis(\m~3~-3,5-diamino-1,2,4-triazol-
1-yl)-tri-zinc]
;
_cell_volume   8764.336
_exptl_crystal_colour 'colorless'
_exptl_crystal_density_diffrn 0.761
_exptl_special_details
;
We calculate 61.32% void space in the structure

;
_exptl_crystal_description 'block'
_diffrn_ambient_temperature 293
_refine_special_details
;
C19 disordered by symmetry over two configurations with occupancy 0.50.

;
#These two values have been output from a single CSD field.
_refine_ls_R_factor_gt 0.0873
_refine_ls_wR_factor_gt 0.0873
_symmetry_cell_setting monoclinic
_symmetry_space_group_name_H-M 'C 2/c'
_symmetry_Int_Tables_number 15
loop_
_symmetry_equiv_pos_site_id
_symmetry_equiv_pos_as_xyz
1 x,y,z
2 -x,y,1/2-z
3 1/2+x,1/2+y,z
4 1/2-x,1/2+y,1/2-z
5 -x,-y,-z
6 x,-y,-1/2+z
7 -1/2-x,-1/2-y,-z
8 -1/2+x,-1/2-y,-1/2+z
_cell_length_a 28.3006(15)
_cell_length_b 20.085(3)
_cell_length_c 15.4335(12)
_cell_angle_alpha 90
_cell_angle_beta 92.498(5)
_cell_angle_gamma 90
_cell_formula_units_Z 4
loop_
_atom_type_symbol
_atom_type_radius_bond
C 0.68
H 0.23
N 0.68
O 0.68
Zn 1.22
loop_
_atom_site_label
_atom_site_type_symbol
_atom_site_fract_x
_atom_site_fract_y
_atom_site_fract_z
Zn1 Zn 0.50000 0.29271(5) 1.25000
Zn2 Zn 0.064887(16) 0.00518(4) 1.01129(3)
C1 C 0.03607(15) 0.1201(3) 0.8995(3)
C2 C -0.03743(15) 0.1096(4) 0.8791(3)
C3 C 0.37618(16) 0.1882(4) 1.2845(3)
C4 C 0.36108(17) 0.1416(4) 1.3427(4)
H1 H 0.38290 0.12440 1.38360
C5 C 0.31533(19) 0.1196(4) 1.3429(4)
H2 H 0.30630 0.08890 1.38420
C6 C 0.28213(16) 0.1435(4) 1.2803(3)
C7 C 0.29709(19) 0.1892(5) 1.2232(4)
H3 H 0.27560 0.20550 1.18110
C8 C 0.34359(18) 0.2130(5) 1.2251(4)
H4 H 0.35230 0.24550 1.18600
C9 C 0.42629(19) 0.2124(4) 1.2887(4)
C10 C 0.23197(15) 0.1194(3) 1.2773(3)
C11 C 0.20961(17) 0.1049(4) 1.3531(3)
H5 H 0.22510 0.11330 1.40630
C12 C 0.16436(16) 0.0778(4) 1.3508(3)
C13 C 0.14033(15) 0.0697(3) 1.2694(3)
H6 H 0.10980 0.05240 1.26670
C14 C 0.16134(15) 0.0867(3) 1.1953(3)
C15 C 0.20712(17) 0.1142(4) 1.1995(3)
H7 H 0.22060 0.12900 1.14900
C16 C 0.13984(17) 0.0598(4) 1.4314(3)
C17 C 0.13449(17) 0.0767(4) 1.1089(3)
O1 O 0.43677(10) 0.2567(2) 1.2351(2)
O2 O 0.45543(14) 0.1887(4) 1.3404(3)
O3 O 0.15649(15) 0.0757(4) 1.5020(2)
O4 O 0.10193(11) 0.0286(3) 1.4199(2)
O5 O 0.14792(13) 0.1035(3) 1.0427(2)
O6 O 0.09906(11) 0.0395(3) 1.1122(2)
N1 N 0.02345(11) 0.0704(3) 0.9529(2)
N2 N -0.02529(11) 0.0645(3) 0.9379(2)
N3 N -0.00117(11) 0.1473(3) 0.8525(2)
N4 N 0.08068(13) 0.1416(4) 0.8941(3)
H8 H 0.10300 0.12370 0.92560
H9 H 0.08700 0.17340 0.85910
N5 N -0.08319(13) 0.1199(4) 0.8477(4)
H10 H -0.10580 0.09620 0.86650
H11 H -0.08910 0.15020 0.80920
C18 C -0.0048(5) 0.1345(10) 1.1646(7)
H12 H -0.00460 0.18220 1.16760
H13 H -0.03410 0.11960 1.13740
H14 H 0.02110 0.11960 1.13130
N6 N 0.00000 0.1077(7) 1.25000
C19? C 0.00000 0.0318(9) 1.25000
H15? H 0.00320 0.01590 1.30860
H16? H 0.02600 0.01590 1.21780
H17? H -0.02920 0.01590 1.22360
H18? H 0.02720 0.12240 1.27570
H19? H -0.02400 0.12240 1.28130
Zn2A Zn 0.935113(16) 0.00518(4) 1.48871(3)
C1A C 0.96393(15) 0.1201(3) 1.6005(3)
C2A C 1.03743(15) 0.1096(4) 1.6209(3)
C3A C 0.62382(16) 0.1882(4) 1.2155(3)
C4A C 0.63892(17) 0.1416(4) 1.1573(4)
H1A H 0.61710 0.12440 1.11640
C5A C 0.68467(19) 0.1196(4) 1.1571(4)
H2A H 0.69370 0.08890 1.11580
C6A C 0.71787(16) 0.1435(4) 1.2197(3)
C7A C 0.70291(19) 0.1892(5) 1.2768(4)
H3A H 0.72440 0.20550 1.31890
C8A C 0.65641(18) 0.2130(5) 1.2749(4)
H4A H 0.64770 0.24550 1.31400
C9A C 0.57371(19) 0.2124(4) 1.2113(4)
C10A C 0.76803(15) 0.1194(3) 1.2227(3)
C11A C 0.79039(17) 0.1049(4) 1.1469(3)
H5A H 0.77490 0.11330 1.09370
C12A C 0.83564(16) 0.0778(4) 1.1492(3)
C13A C 0.85967(15) 0.0697(3) 1.2306(3)
H6A H 0.89020 0.05240 1.23330
C14A C 0.83866(15) 0.0867(3) 1.3047(3)
C15A C 0.79288(17) 0.1142(4) 1.3005(3)
H7A H 0.77940 0.12900 1.35100
C16A C 0.86016(17) 0.0598(4) 1.0686(3)
C17A C 0.86551(17) 0.0767(4) 1.3911(3)
O1A O 0.56323(10) 0.2567(2) 1.2649(2)
O2A O 0.54457(14) 0.1887(4) 1.1596(3)
O3A O 0.84351(15) 0.0757(4) 0.9980(2)
O4A O 0.89807(11) 0.0286(3) 1.0801(2)
O5A O 0.85208(13) 0.1035(3) 1.4573(2)
O6A O 0.90094(11) 0.0395(3) 1.3878(2)
N1A N 0.97655(11) 0.0704(3) 1.5471(2)
N2A N 1.02529(11) 0.0645(3) 1.5621(2)
N3A N 1.00117(11) 0.1473(3) 1.6475(2)
N4A N 0.91932(13) 0.1416(4) 1.6059(3)
H8A H 0.89700 0.12370 1.57440
H9A H 0.91300 0.17340 1.64090
N5A N 1.08319(13) 0.1199(4) 1.6523(4)
H10A H 1.10580 0.09620 1.63350
H11A H 1.08910 0.15020 1.69080
Zn1F Zn 0.00000 0.20729(5) 0.75000
Zn1F* Zn 1.00000 0.20729(5) 1.75000
Zn2D Zn -0.064887(16) -0.00518(4) 0.98871(3)
Zn2D* Zn 0.935113(16) -0.00518(4) 0.98871(3)
Zn2E Zn 0.064887(16) -0.00518(4) 1.51129(3)
Zn2E* Zn 1.064887(16) -0.00518(4) 1.51129(3)
O4D O 0.89807(11) -0.0286(3) 1.5801(2)
O4E O 0.10193(11) -0.0286(3) 0.9199(2)
N2D N 0.02529(11) -0.0645(3) 1.0621(2)
N2E N 0.97471(11) -0.0645(3) 1.4379(2)
N3F N 0.50117(11) 0.3527(3) 1.1475(2)
N3G N 0.49883(11) 0.3527(3) 1.3525(2)
C18A C 0.0048(5) 0.1345(10) 1.3354(7)
H12A H 0.00460 0.18220 1.33240
H13A H 0.03410 0.11960 1.36260
H14A H -0.02110 0.11960 1.36870
#END
