
#######################################################################
#
#                 Cambridge Crystallographic Data Centre
#                                CCDC
#
#######################################################################
#
# If this CIF has been generated from an entry in the Cambridge
# Structural Database, then it will include bibliographic, chemical,
# crystal, experimental, refinement or atomic coordinate data resulting
# from the CCDC's data processing and validation procedures.
#
#######################################################################

data_CSD_CIF_QURBOW
_audit_creation_date 2015-10-30
_audit_creation_method CSD-ConQuest-V1
_database_code_CSD QURBOW
_database_code_depnum_ccdc_archive 'CCDC 1434416'
_chemical_formula_sum 'C16 H22 Mn2 N6 O15'
_chemical_formula_moiety
;
(C6 Mn2 O12 2-)n,2(C5 H8 N3 1+),3(H2 O1)
;
_journal_coden_Cambridge 1078
_journal_year 2015
_journal_name_full 'CSD Communication(Private Communication) '
loop_
_publ_author_name
"S.Hiba"
_chemical_name_systematic
;
catena-(bis(2,6-diaminopyridinium) tris(\m-oxalato)-di-manganese trihydrate)
;
_cell_volume   2497.054
_exptl_crystal_colour 'green'
_exptl_crystal_density_diffrn 1.724
_exptl_crystal_description 'Prism'
_diffrn_ambient_temperature 298
#These two values have been output from a single CSD field.
_refine_ls_R_factor_gt 0.0413
_refine_ls_wR_factor_gt 0.0413
_symmetry_cell_setting monoclinic
_symmetry_space_group_name_H-M 'P 21/n'
_symmetry_Int_Tables_number 14
loop_
_symmetry_equiv_pos_site_id
_symmetry_equiv_pos_as_xyz
1 x,y,z
2 1/2-x,1/2+y,1/2-z
3 -x,-y,-z
4 -1/2+x,-1/2-y,-1/2+z
_cell_length_a 9.756
_cell_length_b 16.743
_cell_length_c 15.42
_cell_angle_alpha 90
_cell_angle_beta 97.53
_cell_angle_gamma 90
_cell_formula_units_Z 4
loop_
_atom_type_symbol
_atom_type_radius_bond
C 0.68
H 0.23
Mn 1.61
N 0.68
O 0.68
loop_
_atom_site_label
_atom_site_type_symbol
_atom_site_fract_x
_atom_site_fract_y
_atom_site_fract_z
Mn1 Mn 0.46967(6) 0.09959(3) 0.28142(4)
Mn2 Mn 0.53332(6) -0.22878(3) 0.21333(4)
O1 O 0.3228(3) -0.24138(16) 0.14567(17)
O2 O 0.5625(3) 0.19500(16) 0.21419(16)
O3 O 0.6703(3) 0.11806(16) 0.36000(17)
O4 O 0.7592(3) 0.26212(17) 0.21564(17)
O5 O 0.1320(3) -0.31498(16) 0.14341(17)
O6 O 0.4918(3) -0.14519(15) 0.31468(17)
O7 O 0.4648(3) -0.01589(15) 0.34049(16)
O8 O 0.8591(3) 0.19360(17) 0.36658(17)
O9 O 0.5382(3) -0.11260(15) 0.15185(16)
O10 O 0.5094(3) 0.01719(15) 0.17605(18)
O11 O 0.4401(3) -0.32469(16) 0.28433(17)
O12 O 0.2446(3) -0.39174(16) 0.28778(18)
C1 C 0.3180(4) -0.3410(2) 0.2560(2)
C2 C 0.6824(4) 0.2133(2) 0.2465(2)
C3 C 0.7432(4) 0.1711(2) 0.3325(2)
C4 C 0.4888(4) -0.0735(2) 0.2931(2)
C5 C 0.2513(4) -0.2949(2) 0.1743(2)
C6 C 0.5163(4) -0.0546(2) 0.1988(2)
O13 O 0.4302(4) -0.1919(3) 0.4806(3)
H1 H 0.499(6) -0.194(4) 0.518(4)
H2 H 0.456(6) -0.180(3) 0.438(4)
N1 N 0.2072(4) -0.0788(2) 0.4456(2)
C7 C 0.1943(4) 0.0012(2) 0.4562(3)
N2 N 0.2921(4) 0.0377(2) 0.5093(2)
H3 H 0.36040 0.01080 0.53550
H4 H 0.28730 0.08840 0.51770
N3 N 0.1423(4) -0.2026(2) 0.3911(3)
H5 H 0.21570 -0.22150 0.42110
H6 H 0.08670 -0.23390 0.35940
C8 C 0.0806(5) 0.0387(3) 0.4116(3)
C9 C 0.1144(5) -0.1238(3) 0.3940(3)
C10 C -0.0136(5) -0.0060(3) 0.3591(3)
C11 C 0.0013(5) -0.0873(3) 0.3490(3)
H7 H -0.064(4) -0.115(2) 0.318(3)
H8 H 0.065(4) 0.092(2) 0.420(3)
H9 H -0.087(5) 0.016(3) 0.327(3)
H10 H 0.273(4) -0.099(2) 0.472(2)
O14 O 0.7532(6) -0.2054(3) 0.4629(3)
H11 H 0.765(6) -0.213(4) 0.418(4)
H12 H 0.807(10) -0.230(6) 0.498(6)
N4 N 0.0098(4) 0.0115(2) 0.1194(3)
N5 N -0.1642(4) 0.1036(2) 0.0935(3)
H13 H -0.10530 0.13980 0.11260
H14 H -0.24870 0.11660 0.07600
C12 C 0.0648(5) -0.0640(3) 0.1197(3)
N6 N 0.1992(4) -0.0700(3) 0.1476(3)
H15 H 0.23950 -0.11570 0.14800
H16 H 0.24580 -0.02810 0.16520
C13 C -0.1249(5) 0.0279(3) 0.0909(3)
C14 C -0.2098(5) -0.0342(3) 0.0593(4)
C15 C -0.1563(6) -0.1096(3) 0.0609(4)
C16 C -0.0201(6) -0.1254(3) 0.0904(4)
H17 H -0.316(6) -0.020(3) 0.037(3)
H18 H -0.213(6) -0.153(3) 0.034(3)
H19 H 0.012(6) -0.173(4) 0.086(4)
H20 H 0.075(6) 0.056(4) 0.148(4)
O15 O 0.4506(4) -0.1300(3) -0.0275(3)
H21 H 0.482(7) -0.111(4) 0.022(5)
H22? H 0.57(5) -0.16(3) -0.09(5)
Mn1A Mn 0.03033(6) -0.40041(3) 0.21858(4)
Mn2A Mn 0.96668(6) 0.27122(3) 0.28667(4)
O4A O 0.7408(3) -0.23788(17) 0.28436(17)
O5A O 0.3680(3) 0.18502(16) 0.35659(17)
O8A O 0.6409(3) -0.30640(17) 0.13342(17)
O12A O 0.2554(3) 0.10826(16) 0.21222(18)
#END
