
#######################################################################
#
#                 Cambridge Crystallographic Data Centre
#                                CCDC
#
#######################################################################
#
# If this CIF has been generated from an entry in the Cambridge
# Structural Database, then it will include bibliographic, chemical,
# crystal, experimental, refinement or atomic coordinate data resulting
# from the CCDC's data processing and validation procedures.
#
#######################################################################

data_CSD_CIF_QURPUR
_audit_creation_date 2020-08-17
_audit_creation_method CSD-ConQuest-V1
_database_code_CSD QURPUR
_database_code_depnum_ccdc_archive 'CCDC 2014805'
_chemical_formula_sum 'C42 H56 Br1 Cl5 Fe2 N2 O12'
_chemical_formula_moiety
;
(C18 Br1 Cl5 Fe2 O12 2-)n,2(C12 H28 N1 1+)
;
_journal_coden_Cambridge 182
_journal_volume 56
_journal_year 2020
_journal_page_first 10867
_journal_name_full 'Chem.Commun. '
loop_
_publ_author_name
"Y.Sekine"
"Jian Chen"
"N.Eguchi"
"H.Miyasaka"
_chemical_name_systematic
;
catena-[bis(tetrapropylammonium ) 
bis(\m-2,5-dichloro-3,6-dioxocyclohexa-1,4-diene-1,4-bis(olato))-(\m-2-bromo-5
-chloro-3,6-dioxocyclohexa-1,4-diene-1,4-bis(olato))-di-iron(ii) unknown 
solvate]
;
_cell_volume   2673.677
_exptl_crystal_colour 'black'
_exptl_crystal_density_diffrn 1.399
_exptl_crystal_description 'hexagonal'
_diffrn_ambient_temperature 103.2
_refine_special_details
;
Cl1,Cl2 and Br1,Br2 disordered over two sites with occupancies 0.919:0.081; 
Cl3 and Br3 disordered over two sites with occupancies 0.923:0.077. The 
authors' sum of formula is C42 H56 Br0.48 Cl5.52 Fe2 N2 O12. Disordered 
solvent molecules were not modelled and the disordered density was taken into 
account using the MASK/OLEX2 program.
;
#These two values have been output from a single CSD field.
_refine_ls_R_factor_gt 0.1294
_refine_ls_wR_factor_gt 0.1294
_symmetry_cell_setting monoclinic
_symmetry_space_group_name_H-M 'P 21/n'
_symmetry_Int_Tables_number 14
loop_
_symmetry_equiv_pos_site_id
_symmetry_equiv_pos_as_xyz
1 x,y,z
2 1/2-x,1/2+y,1/2-z
3 -x,-y,-z
4 -1/2+x,-1/2-y,-1/2+z
_cell_length_a 10.7693(7)
_cell_length_b 20.6834(12)
_cell_length_c 12.2409(8)
_cell_angle_alpha 90
_cell_angle_beta 101.308(6)
_cell_angle_gamma 90
_cell_formula_units_Z 2
loop_
_atom_type_symbol
_atom_type_radius_bond
C 0.68
H 0.23
Br 1.21
Cl 0.99
Fe 1.52
N 0.68
O 0.68
loop_
_atom_site_label
_atom_site_type_symbol
_atom_site_fract_x
_atom_site_fract_y
_atom_site_fract_z
Fe1 Fe -0.04276(12) 0.31076(6) 0.52616(11)
Cl1 Cl 0.0661(7) 0.3290(5) 0.9414(7)
Cl2 Cl -0.2993(6) 0.5191(5) 0.4807(5)
Cl3 Cl 0.3395(9) 0.1703(3) 0.6093(7)
O1 O 0.4221(5) 0.1877(3) 0.8601(5)
O2 O 0.3061(5) 0.2457(3) 0.9963(5)
O3 O 0.0957(5) 0.2466(3) 0.5570(5)
O4 O -0.0976(6) 0.6191(3) 0.4740(5)
O5 O -0.0131(5) 0.3129(3) 0.6925(5)
O6 O -0.1435(6) 0.3963(3) 0.5227(5)
C1 C 0.3170(8) 0.2142(4) 0.8142(7)
C2 C 0.1517(8) 0.2461(4) 0.6604(7)
C3 C -0.0841(8) 0.4473(4) 0.5104(7)
C4 C 0.0892(8) 0.2842(4) 0.7373(7)
C5 C -0.1345(7) 0.5092(4) 0.4929(7)
C6 C 0.2530(8) 0.2508(4) 0.8939(7)
C7 C 0.2626(8) 0.2127(4) 0.7001(6)
C8 C -0.0591(8) 0.5624(5) 0.4854(7)
C9 C 0.1430(8) 0.2854(4) 0.8506(7)
Br1? Br 0.330(4) 0.1555(16) 0.615(4)
Br2? Br 0.086(4) 0.337(3) 0.951(4)
Br3? Br -0.297(3) 0.523(3) 0.506(3)
N1 N 0.6094(7) 0.3606(4) 0.7539(6)
C10 C 0.7145(10) 0.2489(5) 0.7489(8)
H1 H 0.79732 0.26265 0.79323
H2 H 0.71628 0.25591 0.66920
C11 C 0.7311(9) 0.3909(5) 0.8155(8)
H3 H 0.80263 0.37133 0.78727
H4 H 0.74178 0.37948 0.89531
C12 C 0.5022(9) 0.3346(5) 0.5498(8)
H5 H 0.41715 0.34391 0.56534
H6 H 0.51804 0.28756 0.55859
C13 C 0.7403(11) 0.4640(5) 0.8062(9)
H7 H 0.73606 0.47631 0.72739
H8 H 0.66825 0.48458 0.83210
C14 C 0.6021(9) 0.3719(5) 0.6295(8)
H9 H 0.58742 0.41855 0.61448
H10 H 0.68571 0.36117 0.61214
C15 C 0.6105(9) 0.2896(5) 0.7809(8)
H11 H 0.52820 0.27111 0.74368
H12 H 0.61579 0.28509 0.86217
C16 C 0.6943(9) 0.1774(5) 0.7690(9)
H13 H 0.61204 0.16389 0.72566
H14 H 0.69614 0.17019 0.84841
H15 H 0.76170 0.15220 0.74584
C17 C 0.4919(10) 0.3911(5) 0.7839(9)
H16 H 0.48400 0.43570 0.75412
H17 H 0.41698 0.36660 0.74540
C18 C 0.509(1) 0.3558(6) 0.4312(8)
H18 H 0.45633 0.32703 0.37750
H19 H 0.59693 0.35354 0.42108
H20 H 0.47806 0.40025 0.41910
C19 C 0.4875(12) 0.3939(6) 0.9051(10)
H21 H 0.56337 0.41685 0.94573
H22 H 0.48837 0.34950 0.93531
C20 C 0.8632(12) 0.4873(6) 0.8760(12)
H23 H 0.93405 0.47196 0.84340
H24 H 0.87192 0.47035 0.95189
H25 H 0.86367 0.53464 0.87807
C21 C 0.3694(14) 0.4287(6) 0.9229(12)
H26 H 0.29432 0.40496 0.88543
H27 H 0.36796 0.47249 0.89203
H28 H 0.36943 0.43124 1.00289
Cl2B Cl 0.2993(6) 0.4809(5) 0.5193(5)
O4B O 0.0976(6) 0.3809(3) 0.5260(5)
O6B O 0.1435(6) 0.6037(3) 0.4773(5)
C3B C 0.0841(8) 0.5527(4) 0.4896(7)
C5B C 0.1345(7) 0.4908(4) 0.5071(7)
C8B C 0.0591(8) 0.4376(5) 0.5146(7)
Fe1B Fe 0.04276(12) 0.68924(6) 0.47384(11)
Cl1B Cl -0.0661(7) 0.6710(5) 0.0586(7)
Cl3B Cl -0.3395(9) 0.8297(3) 0.3907(7)
O1B O -0.4221(5) 0.8123(3) 0.1399(5)
O2B O -0.3061(5) 0.7543(3) 0.0037(5)
O3B O -0.0957(5) 0.7534(3) 0.4430(5)
O5B O 0.0131(5) 0.6871(3) 0.3075(5)
C1B C -0.3170(8) 0.7858(4) 0.1858(7)
C2B C -0.1517(8) 0.7539(4) 0.3396(7)
C4B C -0.0892(8) 0.7158(4) 0.2627(7)
C6B C -0.2530(8) 0.7492(4) 0.1061(7)
C7B C -0.2626(8) 0.7873(4) 0.2999(6)
C9B C -0.1430(8) 0.7146(4) 0.1494(7)
Fe1A Fe -0.45724(12) 0.81076(6) -0.02616(11)
Fe1C Fe 0.45724(12) 0.18924(6) 1.02616(11)
O1A O 0.0779(5) 0.6877(3) 0.6399(5)
O1C O -0.0779(5) 0.3123(3) 0.3601(5)
O2A O 0.1939(5) 0.7457(3) 0.5037(5)
O2C O -0.1939(5) 0.2543(3) 0.4963(5)
#END
