
#######################################################################
#
#                 Cambridge Crystallographic Data Centre
#                                CCDC
#
#######################################################################
#
# If this CIF has been generated from an entry in the Cambridge
# Structural Database, then it will include bibliographic, chemical,
# crystal, experimental, refinement or atomic coordinate data resulting
# from the CCDC's data processing and validation procedures.
#
#######################################################################

data_CSD_CIF_QURPIF
_audit_creation_date 2020-08-17
_audit_creation_method CSD-ConQuest-V1
_database_code_CSD QURPIF
_database_code_depnum_ccdc_archive 'CCDC 2014803'
_chemical_formula_sum 'C42 H56 Br1 Cl5 Fe2 N2 O12'
_chemical_formula_moiety
;
(C18 Br1 Cl5 Fe2 O12 2-)n,2(C12 H28 N1 1+)
;
_journal_coden_Cambridge 182
_journal_volume 56
_journal_year 2020
_journal_page_first 10867
_journal_name_full 'Chem.Commun. '
loop_
_publ_author_name
"Y.Sekine"
"Jian Chen"
"N.Eguchi"
"H.Miyasaka"
_chemical_name_systematic
;
catena-[bis(tetrapropylammonium ) 
bis(\m-2,5-dichloro-3,6-dioxocyclohexa-1,4-diene-1,4-bis(olato))-(\m-2-bromo-5
-chloro-3,6-dioxocyclohexa-1,4-diene-1,4-bis(olato))-di-iron(ii) unknown 
solvate]
;
_cell_volume   2696.069
_exptl_crystal_colour 'black'
_exptl_crystal_density_diffrn 1.421
_exptl_crystal_description 'hexagonal'
_diffrn_ambient_temperature 103.2
_refine_special_details
;
Cl1 and Br1 disordered over two sites with occupancies 0.815:0.185; Cl2 and 
Br2 disordered over two sites with occupancies 0.815:0.185; Cl3 and Br3 
disordered over two sites with occupancies 0.83:0.17. The authors' sum of 
formula is C42 H56 Br1.08 Cl4.92 Fe2 N2 O12Cl3  Disordered solvent molecules 
were not modelled and the disordered density was taken into account using the 
MASK/OLEX2 program.
;
#These two values have been output from a single CSD field.
_refine_ls_R_factor_gt 0.0796
_refine_ls_wR_factor_gt 0.0796
_symmetry_cell_setting monoclinic
_symmetry_space_group_name_H-M 'P 21/n'
_symmetry_Int_Tables_number 14
loop_
_symmetry_equiv_pos_site_id
_symmetry_equiv_pos_as_xyz
1 x,y,z
2 1/2-x,1/2+y,1/2-z
3 -x,-y,-z
4 -1/2+x,-1/2-y,-1/2+z
_cell_length_a 10.8043(10)
_cell_length_b 20.7436(17)
_cell_length_c 12.2725(11)
_cell_angle_alpha 90
_cell_angle_beta 101.419(9)
_cell_angle_gamma 90
_cell_formula_units_Z 2
loop_
_atom_type_symbol
_atom_type_radius_bond
C 0.68
H 0.23
Br 1.21
Cl 0.99
Fe 1.52
N 0.68
O 0.68
loop_
_atom_site_label
_atom_site_type_symbol
_atom_site_fract_x
_atom_site_fract_y
_atom_site_fract_z
Fe1 Fe 0.54118(8) 0.68918(4) -0.02794(7)
Cl1 Cl 0.9277(6) 0.8308(2) 0.0559(5)
Cl2 Cl 0.6598(5) 0.6675(2) 0.3877(4)
O1 O 0.5976(4) 0.38119(19) 0.0275(3)
O2 O 0.5761(3) 0.68763(19) 0.1377(3)
O3 O 0.9026(3) 0.74671(19) 0.4413(3)
O4 O 0.6918(4) 0.74601(19) 0.0017(3)
O5 O 1.0115(3) 0.81258(18) 0.3070(3)
O6 O 0.6425(4) 0.60353(19) -0.0243(3)
C1 C 0.6810(5) 0.7153(3) 0.1829(5)
C2 C 0.9084(5) 0.7838(3) 0.2610(4)
C3 C 0.7457(5) 0.7502(3) 0.1061(4)
C4 C 0.5591(5) 0.4385(3) 0.0154(5)
C5 C 0.8459(5) 0.7463(3) 0.3369(4)
C6 C 0.5830(5) 0.5527(3) -0.0112(4)
C7 C 0.6345(5) 0.4919(3) 0.0069(5)
C8 C 0.8539(5) 0.7853(3) 0.1479(4)
C9 C 0.7355(5) 0.7135(3) 0.2974(4)
Br1 Br 0.8072(17) 0.4803(17) 0.007(3)
N1 N 0.3890(5) 0.8600(2) 0.2462(4)
C10 C 0.2840(6) 0.7489(3) 0.2498(5)
H1 H 0.20140 0.76290 0.20590
H2 H 0.28310 0.75570 0.32940
C11 C 0.3882(6) 0.7887(3) 0.2174(5)
H3 H 0.38210 0.78470 0.13610
H4 H 0.47030 0.77000 0.25390
C12 C 0.2675(6) 0.8908(3) 0.1833(5)
H5 H 0.25790 0.87980 0.10360
H6 H 0.19550 0.87130 0.21020
C13 C 0.3955(6) 0.8709(3) 0.3686(5)
H7 H 0.31230 0.85970 0.38560
H8 H 0.40920 0.91750 0.38370
C14 C 0.4966(6) 0.8339(3) 0.4486(5)
H9 H 0.58110 0.84340 0.43290
H10 H 0.48120 0.78690 0.44030
C15 C 0.5051(6) 0.8908(3) 0.2144(5)
H11 H 0.51210 0.93550 0.24310
H12 H 0.58070 0.86710 0.25310
C16 C 0.3040(6) 0.6777(3) 0.2287(6)
H13 H 0.30090 0.67080 0.14930
H14 H 0.23750 0.65240 0.25240
H15 H 0.38660 0.66420 0.27100
C17 C 0.4897(7) 0.8556(3) 0.5676(5)
H16 H 0.40240 0.85210 0.57840
H17 H 0.51790 0.90040 0.57850
H18 H 0.54430 0.82790 0.62160
C18 C 0.2592(7) 0.9637(3) 0.1937(6)
H19 H 0.32990 0.98440 0.16650
H20 H 0.26530 0.97580 0.27260
C19 C 0.5087(8) 0.8929(4) 0.0917(6)
H21 H 0.43270 0.91540 0.05070
H22 H 0.50860 0.84850 0.06230
C20 C 0.6266(8) 0.9282(4) 0.0745(8)
H23 H 0.63170 0.92650 -0.00430
H24 H 0.70130 0.90750 0.11900
H25 H 0.62270 0.97320 0.09770
C21 C 0.1336(8) 0.9868(4) 0.1251(8)
H26 H 0.12840 0.97490 0.04710
H27 H 0.12780 1.03370 0.13120
H28 H 0.06400 0.96660 0.15300
Br2? Br 0.9309(13) 0.8322(6) 0.0535(11)
Br3? Br 0.6608(9) 0.6662(6) 0.3895(8)
Cl3? Cl 0.7981(7) 0.4807(7) 0.0201(15)
O1B O 0.4024(4) 0.61881(19) -0.0275(3)
O6B O 0.3575(4) 0.39647(19) 0.0243(3)
C4B C 0.4409(5) 0.5615(3) -0.0154(5)
C6B C 0.4170(5) 0.4473(3) 0.0112(4)
C7B C 0.3655(5) 0.5081(3) -0.0069(5)
Br1B Br 0.1928(17) 0.5197(17) -0.007(3)
Fe1B Fe 0.45882(8) 0.31082(4) 0.02794(7)
Cl1B Cl 0.0723(6) 0.1692(2) -0.0559(5)
Cl2B Cl 0.3402(5) 0.3325(2) -0.3877(4)
O2B O 0.4239(3) 0.31237(19) -0.1377(3)
O3B O 0.0974(3) 0.25329(19) -0.4413(3)
O4B O 0.3082(4) 0.25399(19) -0.0017(3)
O5B O -0.0115(3) 0.18742(18) -0.3070(3)
C1B C 0.3190(5) 0.2847(3) -0.1829(5)
C2B C 0.0916(5) 0.2162(3) -0.2610(4)
C3B C 0.2543(5) 0.2498(3) -0.1061(4)
C5B C 0.1541(5) 0.2537(3) -0.3369(4)
C8B C 0.1461(5) 0.2147(3) -0.1479(4)
C9B C 0.2645(5) 0.2865(3) -0.2974(4)
Fe1A Fe -0.04118(8) 0.18918(4) -0.47206(7)
Fe1C Fe 1.04118(8) 0.81082(4) 0.47206(7)
O3A O 0.5974(3) 0.24671(19) 0.0587(3)
O3C O 0.4026(3) 0.75329(19) -0.0587(3)
O5A O 0.4885(3) 0.31258(18) 0.1930(3)
O5C O 0.5115(3) 0.68742(18) -0.1930(3)
#END
