
#######################################################################
#
#                 Cambridge Crystallographic Data Centre
#                                CCDC
#
#######################################################################
#
# If this CIF has been generated from an entry in the Cambridge
# Structural Database, then it will include bibliographic, chemical,
# crystal, experimental, refinement or atomic coordinate data resulting
# from the CCDC's data processing and validation procedures.
#
#######################################################################

data_CSD_CIF_QURRAZ
_audit_creation_date 2020-08-17
_audit_creation_method CSD-ConQuest-V1
_database_code_CSD QURRAZ
_database_code_depnum_ccdc_archive 'CCDC 2014811'
_chemical_formula_sum 'C42 H56 Cl5 F1 Fe2 N2 O12'
_chemical_formula_moiety
;
(C18 Cl5 F1 Fe2 O12 2-)n,2(C12 H28 N1 1+)
;
_journal_coden_Cambridge 182
_journal_volume 56
_journal_year 2020
_journal_page_first 10867
_journal_name_full 'Chem.Commun. '
loop_
_publ_author_name
"Y.Sekine"
"Jian Chen"
"N.Eguchi"
"H.Miyasaka"
_chemical_name_systematic
;
catena-[bis(tetrapropylammonium ) 
bis(\m-2,5-dichloro-3,6-dioxocyclohexa-1,4-diene-1,4-bis(olato))-(\m-2-fluoro-
5-chloro-3,6-dioxocyclohexa-1,4-diene-1,4-bis(olato))-di-iron(ii) unknown 
solvate]
;
_cell_volume   2666.132
_exptl_crystal_colour 'black'
_exptl_crystal_density_diffrn 1.37
_exptl_crystal_description 'hexagonal'
_diffrn_ambient_temperature 103.2
_refine_special_details
;
Cl1 and F1 disordered over two sites with occupancies 0.938:0.062; Cl2 and F2 
disordered over two sites with occupancies 0.938:0.062; Cl3 and F3 disordered 
over two sites with occupancies 0.954:0.046. The authors' sum of formula is 
C42 H56 Cl5.66 F0.34 Fe2 N2 O12.
;
#These two values have been output from a single CSD field.
_refine_ls_R_factor_gt 0.0484
_refine_ls_wR_factor_gt 0.0484
_symmetry_cell_setting monoclinic
_symmetry_space_group_name_H-M 'P 21/n'
_symmetry_Int_Tables_number 14
loop_
_symmetry_equiv_pos_site_id
_symmetry_equiv_pos_as_xyz
1 x,y,z
2 1/2-x,1/2+y,1/2-z
3 -x,-y,-z
4 -1/2+x,-1/2-y,-1/2+z
_cell_length_a 10.7147(3)
_cell_length_b 20.7638(7)
_cell_length_c 12.2126(4)
_cell_angle_alpha 90
_cell_angle_beta 101.108(3)
_cell_angle_gamma 90
_cell_formula_units_Z 2
loop_
_atom_type_symbol
_atom_type_radius_bond
C 0.68
H 0.23
Cl 0.99
F 0.64
Fe 1.52
N 0.68
O 0.68
loop_
_atom_site_label
_atom_site_type_symbol
_atom_site_fract_x
_atom_site_fract_y
_atom_site_fract_z
Fe1 Fe 1.04356(4) 0.68857(2) 0.47750(3)
Cl1 Cl 0.93296(10) 0.67236(6) 0.06184(9)
Cl2 Cl 1.29746(7) 0.48039(5) 0.51446(9)
O1 O 0.69573(19) 0.75506(10) 0.00668(16)
O2 O 0.90412(19) 0.75245(10) 0.44692(16)
O3 O 0.57819(18) 0.81311(10) 0.14356(16)
O4 O 1.14488(19) 0.60328(10) 0.47992(17)
O5 O 1.01485(18) 0.68727(10) 0.31144(16)
O6 O 1.09683(19) 0.38114(10) 0.52226(17)
C1 C 0.6838(3) 0.78538(14) 0.1886(2)
C2 C 0.8485(3) 0.75350(14) 0.3430(2)
C3 C 0.7486(3) 0.75030(14) 0.1107(2)
C4 C 0.9112(3) 0.71640(14) 0.2661(2)
C5 C 1.0841(3) 0.55266(15) 0.4912(2)
C6 C 0.7369(3) 0.78662(14) 0.3027(2)
C7 C 1.0591(3) 0.43808(15) 0.5129(2)
C8 C 0.8582(3) 0.71559(14) 0.1522(2)
C9 C 1.1354(3) 0.49137(15) 0.5064(2)
F1 F 0.681(4) 0.826(2) 0.367(3)
N1 N 0.3918(2) 0.63991(13) 0.2490(2)
C10 C 0.3915(3) 0.71136(16) 0.2214(3)
H1 H 0.47410 0.72990 0.25840
H2 H 0.38560 0.71600 0.13990
C11 C 0.3978(3) 0.62883(16) 0.3725(3)
H3 H 0.31410 0.64060 0.38980
H4 H 0.41020 0.58220 0.38730
C12 C 0.2859(3) 0.75080(17) 0.2550(3)
H5 H 0.28450 0.74340 0.33490
H6 H 0.20280 0.73730 0.21060
C13 C 0.4995(3) 0.66477(17) 0.4527(3)
H7 H 0.48490 0.71180 0.44500
H8 H 0.58450 0.65510 0.43620
C14 C 0.2694(3) 0.61016(17) 0.1858(3)
H9 H 0.19720 0.62970 0.21350
H10 H 0.26010 0.62170 0.10600
C15 C 0.5085(3) 0.60942(17) 0.2168(3)
H11 H 0.58460 0.63300 0.25570
H12 H 0.51550 0.56460 0.24510
C16 C 0.4930(3) 0.64309(18) 0.5710(3)
H13 H 0.40490 0.64560 0.58190
H14 H 0.54680 0.67120 0.62500
H15 H 0.52320 0.59860 0.58200
C17 C 0.3076(3) 0.82209(17) 0.2354(3)
H16 H 0.30420 0.82960 0.15560
H17 H 0.39120 0.83490 0.27750
H18 H 0.24140 0.84760 0.26040
C18 C 0.2597(4) 0.53747(18) 0.1946(3)
H19 H 0.26390 0.52490 0.27340
H20 H 0.33140 0.51680 0.16780
C19 C 0.5119(4) 0.6079(2) 0.0934(3)
H21 H 0.51220 0.65240 0.06440
H22 H 0.43530 0.58570 0.05220
C20 C 0.6307(5) 0.5726(2) 0.0756(4)
H23 H 0.63600 0.57430 -0.00360
H24 H 0.62660 0.52760 0.09870
H25 H 0.70600 0.59320 0.12010
C21 C 0.1340(4) 0.5153(2) 0.1240(4)
H26 H 0.13080 0.52750 0.04600
H27 H 0.06340 0.53570 0.15130
H28 H 0.12700 0.46840 0.12940
F2? F 0.913(5) 0.682(3) 0.076(4)
F3? F 1.259(5) 0.487(3) 0.506(5)
Cl3? Cl 0.66228(9) 0.82973(5) 0.39298(7)
Cl2B Cl 0.70254(7) 0.51961(5) 0.48554(9)
O4B O 0.85512(19) 0.39672(10) 0.52008(17)
O6B O 0.90317(19) 0.61886(10) 0.47774(17)
C5B C 0.9159(3) 0.44734(15) 0.5088(2)
C7B C 0.9409(3) 0.56192(15) 0.4871(2)
C9B C 0.8646(3) 0.50863(15) 0.4936(2)
Fe1B Fe 0.95644(4) 0.31143(2) 0.52250(3)
Cl1B Cl 1.06704(10) 0.32764(6) 0.93816(9)
O1B O 1.30427(19) 0.24494(10) 0.99332(16)
O2B O 1.09588(19) 0.24755(10) 0.55308(16)
O3B O 1.42181(18) 0.18689(10) 0.85644(16)
O5B O 0.98515(18) 0.31273(10) 0.68856(16)
C1B C 1.3162(3) 0.21462(14) 0.8114(2)
C2B C 1.1515(3) 0.24650(14) 0.6570(2)
C3B C 1.2514(3) 0.24970(14) 0.8893(2)
C4B C 1.0888(3) 0.28360(14) 0.7339(2)
C6B C 1.2631(3) 0.21338(14) 0.6973(2)
C8B C 1.1418(3) 0.28441(14) 0.8478(2)
F1B F 1.319(4) 0.174(2) 0.633(3)
Fe1A Fe 1.45644(4) 0.18857(2) 1.02250(3)
Fe1C Fe 0.54356(4) 0.81143(2) -0.02250(3)
O1A O 0.80427(19) 0.25506(10) 0.49332(16)
O1C O 1.19573(19) 0.74494(10) 0.50668(16)
O3A O 0.92181(18) 0.31311(10) 0.35644(16)
O3C O 1.07819(18) 0.68689(10) 0.64356(16)
#END
