
#######################################################################
#
#                 Cambridge Crystallographic Data Centre
#                                CCDC
#
#######################################################################
#
# If this CIF has been generated from an entry in the Cambridge
# Structural Database, then it will include bibliographic, chemical,
# crystal, experimental, refinement or atomic coordinate data resulting
# from the CCDC's data processing and validation procedures.
#
#######################################################################

data_CSD_CIF_QURSUU
_audit_creation_date 2020-08-17
_audit_creation_method CSD-ConQuest-V1
_database_code_CSD QURSUU
_database_code_depnum_ccdc_archive 'CCDC 2014820'
_chemical_formula_sum 'C42 H56 Cl3 F3 Fe2 N2 O12'
_chemical_formula_moiety
;
(C18 Cl3 F3 Fe2 O12 2-)n,2(C12 H28 N1 1+)
;
_journal_coden_Cambridge 182
_journal_volume 56
_journal_year 2020
_journal_page_first 10867
_journal_name_full 'Chem.Commun. '
loop_
_publ_author_name
"Y.Sekine"
"Jian Chen"
"N.Eguchi"
"H.Miyasaka"
_chemical_name_systematic
;
catena-[bis(tetrapropylammonium ) 
tris(\m-2-fluoro-5-chloro-3,6-dioxocyclohexa-1,4-diene-1,4-bis(olato))-di-iron
(ii) unknown solvate]
;
_cell_volume   2630.826
_exptl_crystal_colour 'black'
_exptl_crystal_density_diffrn 1.343
_exptl_crystal_description 'hexagonal'
_diffrn_ambient_temperature 103.2
_refine_special_details
;
Cl1 and F1 disordered over two sites with occupancies 0.6067:0.3933; Cl2 and 
F2 disordered over two sites with occupancies 0.6067:0.3933; Cl3 and F3 
disordered over two sites with occupancies 0.5318:0.4682. The authors' sum of 
formula is C42 H56 Cl3.49 F2.51 Fe2 N2 O12. Disordered solvent molecules were 
not modelled and the disordered density was taken into account using the 
MASK/OLEX2 program.
;
#These two values have been output from a single CSD field.
_refine_ls_R_factor_gt 0.0642
_refine_ls_wR_factor_gt 0.0642
_symmetry_cell_setting monoclinic
_symmetry_space_group_name_H-M 'P 21/n'
_symmetry_Int_Tables_number 14
loop_
_symmetry_equiv_pos_site_id
_symmetry_equiv_pos_as_xyz
1 x,y,z
2 1/2-x,1/2+y,1/2-z
3 -x,-y,-z
4 -1/2+x,-1/2-y,-1/2+z
_cell_length_a 10.4272(5)
_cell_length_b 21.1795(9)
_cell_length_c 12.1426(4)
_cell_angle_alpha 90
_cell_angle_beta 101.168(4)
_cell_angle_gamma 90
_cell_formula_units_Z 2
loop_
_atom_type_symbol
_atom_type_radius_bond
C 0.68
H 0.23
Cl 0.99
F 0.64
Fe 1.52
N 0.68
O 0.68
loop_
_atom_site_label
_atom_site_type_symbol
_atom_site_fract_x
_atom_site_fract_y
_atom_site_fract_z
Fe1 Fe 1.04708(5) 0.31520(3) 0.49494(4)
Cl1 Cl 0.6663(5) 0.1696(3) 0.4110(4)
O1 O 1.0188(2) 0.31430(11) 0.32860(19)
O2 O 0.5837(2) 0.18318(11) 0.16124(19)
O3 O 1.1498(2) 0.39837(12) 0.4922(2)
O4 O 0.9054(2) 0.25195(11) 0.46579(18)
O5 O 1.0967(2) 0.61691(12) 0.50608(19)
O6 O 0.7033(3) 0.23970(12) 0.02346(18)
C1 C 1.0872(4) 0.44814(19) 0.4977(3)
C2 C 1.0601(4) 0.56067(19) 0.5040(3)
C3 C 0.6890(3) 0.21186(17) 0.2063(3)
C4 C 0.8519(3) 0.24773(16) 0.3608(3)
C5 C 0.9165(4) 0.28333(17) 0.2835(3)
C6 C 0.7409(3) 0.21309(17) 0.3200(3)
C7 C 0.7563(4) 0.24598(16) 0.1286(3)
C8 C 1.1379(3) 0.50854(19) 0.5041(3)
C9 C 0.8658(4) 0.28111(17) 0.1690(3)
F1 F 1.2737(9) 0.5163(10) 0.5038(16)
F2 F 0.9328(14) 0.3098(6) 0.0959(10)
N1 N 0.3999(3) 0.35775(17) 0.2616(3)
C10 C 0.3999(4) 0.2878(2) 0.2376(3)
H1 H 0.39440 0.28200 0.15590
H2 H 0.48470 0.27010 0.27610
C11 C 0.4063(5) 0.3713(2) 0.3847(3)
H3 H 0.42020 0.41730 0.39690
H4 H 0.32020 0.36100 0.40300
C12 C 0.5181(5) 0.3875(2) 0.2270(4)
H5 H 0.52400 0.43200 0.25280
H6 H 0.59720 0.36550 0.26700
C13 C 0.2917(4) 0.2501(2) 0.2725(3)
H7 H 0.20680 0.26200 0.22520
H8 H 0.28790 0.25980 0.35160
C14 C 0.2735(5) 0.3862(2) 0.1971(4)
H9 H 0.26330 0.37360 0.11740
H10 H 0.19970 0.36760 0.22630
C15 C 0.5100(5) 0.3369(2) 0.4661(4)
H11 H 0.59750 0.34570 0.44930
H12 H 0.49450 0.29080 0.46060
C16 C 0.3148(5) 0.1801(2) 0.2605(4)
H13 H 0.30880 0.16970 0.18100
H14 H 0.24860 0.15620 0.29030
H15 H 0.40190 0.16900 0.30230
C17 C 0.2632(6) 0.4568(3) 0.2022(4)
H16 H 0.33380 0.47650 0.17000
H17 H 0.27320 0.47060 0.28130
C18 C 0.5028(5) 0.3604(3) 0.5847(4)
H18 H 0.41260 0.35700 0.59630
H19 H 0.53100 0.40460 0.59260
H20 H 0.56020 0.33450 0.64060
C19 C 0.5202(6) 0.3868(3) 0.1029(4)
H21 H 0.52110 0.34260 0.07630
H22 H 0.44070 0.40760 0.06080
C20 C 0.6400(7) 0.4209(3) 0.0823(6)
H23 H 0.65180 0.41250 0.00550
H24 H 0.71680 0.40600 0.13570
H25 H 0.62920 0.46640 0.09220
C21 C 0.1304(7) 0.4779(3) 0.1362(7)
H26 H 0.12180 0.46490 0.05760
H27 H 0.12340 0.52390 0.14030
H28 H 0.06090 0.45820 0.16830
F3? F 0.6753(18) 0.1826(8) 0.3965(13)
Cl2? Cl 1.3088(5) 0.5191(5) 0.5135(7)
Cl3? Cl 0.9419(4) 0.32448(19) 0.0759(3)
O3B O 0.8502(2) 0.60163(12) 0.5078(2)
O5B O 0.9033(2) 0.38309(12) 0.49392(19)
C1B C 0.9128(4) 0.55186(19) 0.5023(3)
C2B C 0.9399(4) 0.43933(19) 0.4960(3)
C8B C 0.8621(3) 0.49146(19) 0.4959(3)
F1B F 0.7263(9) 0.4837(10) 0.4962(16)
Fe1B Fe 0.95292(5) 0.68480(3) 0.50506(4)
Cl1B Cl 1.3337(5) 0.8304(3) 0.5890(4)
O1B O 0.9812(2) 0.68570(11) 0.67140(19)
O2B O 1.4163(2) 0.81682(11) 0.83876(19)
O4B O 1.0946(2) 0.74805(11) 0.53421(18)
O6B O 1.2967(3) 0.76030(12) 0.97654(18)
C3B C 1.3110(3) 0.78814(17) 0.7937(3)
C4B C 1.1481(3) 0.75227(16) 0.6392(3)
C5B C 1.0835(4) 0.71667(17) 0.7165(3)
C6B C 1.2591(3) 0.78691(17) 0.6800(3)
C7B C 1.2437(4) 0.75402(16) 0.8714(3)
C9B C 1.1342(4) 0.71889(17) 0.8310(3)
F2B F 1.0672(14) 0.6902(6) 0.9041(10)
Fe1A Fe 1.45292(5) 0.81520(3) 1.00506(4)
Fe1C Fe 0.54708(5) 0.18480(3) -0.00506(4)
O2A O 0.9163(2) 0.68318(11) 0.33876(19)
O2C O 1.0837(2) 0.31682(11) 0.66124(19)
O6A O 0.7967(3) 0.73970(12) 0.47654(18)
O6C O 1.2033(3) 0.26030(12) 0.52346(18)
#END
