
#######################################################################
#
#                 Cambridge Crystallographic Data Centre
#                                CCDC
#
#######################################################################
#
# If this CIF has been generated from an entry in the Cambridge
# Structural Database, then it will include bibliographic, chemical,
# crystal, experimental, refinement or atomic coordinate data resulting
# from the CCDC's data processing and validation procedures.
#
#######################################################################

data_CSD_CIF_QUSBUC
_audit_creation_date 2011-05-03
_audit_creation_method CSD-ConQuest-V1
_database_code_CSD QUSBUC
_database_code_depnum_ccdc_archive 'CCDC 733215'
_chemical_formula_sum 'C22 H30 Cd1 N2 O13'
_chemical_formula_moiety
;
(C16 H9 Cd1 O10 1-)n,n(C2 H8 N1 1+),n(C3 H7 N1 O1),n(C1 H4 O1),n(H2 O1)
;
_journal_coden_Cambridge 1147
_journal_volume 10
_journal_year 2010
_journal_page_first 146
_journal_name_full 'Cryst.Growth Des. '
loop_
_publ_author_name
"Jian-Di Lin"
"Xi-Fa Long"
"Ping Lin"
"Shao-Wu Du"
_chemical_name_systematic
;
catena-(Dimethylammonium (\m~2~-hydrogen 
5-hydroxybenzene-1,3-dicarboxylato)-(\m~2~-5-hydroxybenzene-1,3-dicarboxylato)
-cadmium(ii) dimethylformamide methanol solvate monohydrate)
;
_cell_volume   2636.127
_exptl_crystal_colour 'colorless'
_exptl_crystal_density_diffrn 1.605
_exptl_crystal_description 'prism'
_diffrn_ambient_temperature 150
#These two values have been output from a single CSD field.
_refine_ls_R_factor_gt 0.0413
_refine_ls_wR_factor_gt 0.0413
_symmetry_cell_setting monoclinic
_symmetry_space_group_name_H-M 'C c'
_symmetry_Int_Tables_number 9
loop_
_symmetry_equiv_pos_site_id
_symmetry_equiv_pos_as_xyz
1 x,y,z
2 x,-y,1/2+z
3 1/2+x,1/2+y,z
4 1/2+x,1/2-y,1/2+z
_cell_length_a 14.141(4)
_cell_length_b 14.517(3)
_cell_length_c 13.029(3)
_cell_angle_alpha 90
_cell_angle_beta 99.737(4)
_cell_angle_gamma 90
_cell_formula_units_Z 4
loop_
_atom_type_symbol
_atom_type_radius_bond
C 0.68
H 0.23
Cd 1.50
N 0.68
O 0.68
loop_
_atom_site_label
_atom_site_type_symbol
_atom_site_fract_x
_atom_site_fract_y
_atom_site_fract_z
Cd1 Cd 0.63919(6) 0.839778(15) 0.56949(6)
O1 O 0.6964(4) 0.7708(4) 0.4282(4)
O2 O 0.7718(4) 0.7242(4) 0.5789(5)
O3 O 1.0023(4) 0.4538(4) 0.5782(5)
O4 O 1.0570(4) 0.4266(4) 0.4338(4)
O5 O 0.5923(4) 0.7711(3) 0.7166(5)
O6 O 0.5261(5) 0.7129(5) 0.5637(6)
O7 O 0.2311(4) 0.4210(3) 0.7028(4)
H1 H 0.22950 0.41870 0.77380
O8 O 0.2821(5) 0.4592(4) 0.5586(5)
O9 O 0.8695(4) 0.6415(4) 0.1646(4)
H2 H 0.91030 0.61200 0.14090
O10 O 0.4208(4) 0.6247(4) 0.9796(4)
H3 H 0.37650 0.59720 0.99940
O11 O 0.7190(5) 0.3967(4) 0.3634(5)
O12 O 1.0582(4) 0.6949(3) 0.7561(4)
O13 O 0.8696(4) 0.6458(3) 0.7487(4)
N1 N 0.7444(4) 0.8034(4) 0.8698(5)
H4 H 0.72040 0.74610 0.85950
H5 H 0.74470 0.82860 0.80670
N2 N 0.6580(4) 0.4879(4) 0.4753(5)
C1 C 0.7601(5) 0.7210(4) 0.4839(6)
C2 C 0.8236(6) 0.6619(3) 0.4283(7)
C3 C 0.8189(7) 0.6737(5) 0.3185(8)
H6 H 0.77710 0.71670 0.28250
C4 C 0.8753(6) 0.6219(5) 0.2673(6)
C5 C 0.9353(5) 0.5567(4) 0.3206(6)
H7 H 0.97620 0.52380 0.28510
C6 C 0.9370(6) 0.5385(5) 0.4259(6)
C7 C 0.8799(5) 0.5949(4) 0.4814(5)
H8 H 0.88090 0.58620 0.55230
C8 C 1.0002(5) 0.4667(5) 0.4825(6)
C9 C 0.5364(6) 0.7178(5) 0.6648(7)
C10 C 0.4777(6) 0.6542(4) 0.7197(8)
C11 C 0.4763(7) 0.6664(4) 0.8224(9)
H9 H 0.51610 0.71070 0.85880
C12 C 0.4152(5) 0.6131(5) 0.8766(6)
C13 C 0.3532(5) 0.5475(5) 0.8207(6)
H10 H 0.31320 0.51130 0.85380
C14 C 0.3537(5) 0.5386(5) 0.7137(6)
C15 C 0.4153(6) 0.5875(5) 0.6654(6)
H11 H 0.41650 0.57700 0.59520
C16 C 0.2847(6) 0.4700(5) 0.6546(6)
C17 C 0.8429(6) 0.7965(5) 0.9232(7)
H12 H 0.87910 0.75940 0.88280
H13 H 0.84410 0.76870 0.99030
H14 H 0.87060 0.85700 0.93190
C18 C 0.6717(4) 0.8640(4) 0.9298(5)
H15 H 0.60860 0.86440 0.88860
H16 H 0.69500 0.92610 0.93920
H17 H 0.66910 0.83700 0.99650
C19 C 0.7107(6) 0.4200(5) 0.4501(6)
H18 H 0.74520 0.38640 0.50480
C20 C 0.5980(6) 0.5487(5) 0.3992(6)
H19 H 0.60790 0.53360 0.33010
H20 H 0.61560 0.61180 0.41410
H21 H 0.53160 0.54010 0.40420
C21 C 0.6510(7) 0.5030(5) 0.5817(8)
H22 H 0.69220 0.46070 0.62470
H23 H 0.58590 0.49360 0.59140
H24 H 0.67010 0.56500 0.60070
C22 C 1.0320(6) 0.7770(5) 0.6857(6)
Cd1B Cd 1.13919(6) 0.339778(15) 0.56949(6)
Cd1B* Cd 0.13919(6) 0.339778(15) 0.56949(6)
O3B O 0.5023(4) 0.9538(4) 0.5782(5)
O4B O 0.5570(4) 0.9266(4) 0.4338(4)
O7B O 0.7311(4) 0.9210(3) 0.7028(4)
H1B H 0.72950 0.91870 0.77380
#END
