
#######################################################################
#
#                 Cambridge Crystallographic Data Centre
#                                CCDC
#
#######################################################################
#
# If this CIF has been generated from an entry in the Cambridge
# Structural Database, then it will include bibliographic, chemical,
# crystal, experimental, refinement or atomic coordinate data resulting
# from the CCDC's data processing and validation procedures.
#
#######################################################################

data_CSD_CIF_QUSCIR
_audit_creation_date 2011-05-03
_audit_creation_method CSD-ConQuest-V1
_database_code_CSD QUSCIR
_database_code_depnum_ccdc_archive 'CCDC 733218'
_chemical_formula_sum 'C34 H35 Cd1 Li1 N2 O14 S2'
_chemical_formula_moiety
;
(C28 H16 Cd1 Li1 O12 S2 1-)n,n(C2 H8 N1 1+),n(C3 H7 N1 O1),n(C1 H4 O1)
;
_journal_coden_Cambridge 1147
_journal_volume 10
_journal_year 2010
_journal_page_first 146
_journal_name_full 'Cryst.Growth Des. '
loop_
_publ_author_name
"Jian-Di Lin"
"Xi-Fa Long"
"Ping Lin"
"Shao-Wu Du"
_chemical_name_systematic
;
catena-(Dimethylammonium bis(\m~4~-4,4'-sulfonyldibenzoato)-cadmium-lithium 
dimethylformamide methanol solvate)
;
_cell_volume   4196.246
_exptl_crystal_colour 'colorless'
_exptl_crystal_density_diffrn 1.376
_exptl_crystal_description 'prism'
_diffrn_ambient_temperature 293
_refine_special_details
;
C31' and C31 disordered over two sites with occupancies 0.66:0.34.

;
#These two values have been output from a single CSD field.
_refine_ls_R_factor_gt 0.0632
_refine_ls_wR_factor_gt 0.0632
_symmetry_cell_setting monoclinic
_symmetry_space_group_name_H-M 'C c'
_symmetry_Int_Tables_number 9
loop_
_symmetry_equiv_pos_site_id
_symmetry_equiv_pos_as_xyz
1 x,y,z
2 x,-y,1/2+z
3 1/2+x,1/2+y,z
4 1/2+x,1/2-y,1/2+z
_cell_length_a 27.07(4)
_cell_length_b 6.347(2)
_cell_length_c 25.67(3)
_cell_angle_alpha 90
_cell_angle_beta 107.930(3)
_cell_angle_gamma 90
_cell_formula_units_Z 4
loop_
_atom_type_symbol
_atom_type_radius_bond
C 0.68
H 0.23
Cd 1.46
Li 1.28
N 0.68
O 0.68
S 1.02
loop_
_atom_site_label
_atom_site_type_symbol
_atom_site_fract_x
_atom_site_fract_y
_atom_site_fract_z
Cd1 Cd 0.22728(6) 0.97632(5) 0.42322(6)
S1 S 0.04198(14) 1.5608(7) 0.11732(15)
O1 O 0.1632(4) 0.9723(11) 0.3339(5)
N1 N 0.4226(5) 0.5502(18) 0.4889(5)
C1 C 0.1649(5) 1.158(2) 0.3328(5)
Li1 Li 0.2266(14) 1.4771(12) 0.4242(14)
S2 S 0.41383(15) 1.5604(8) 0.73096(14)
O2 O 0.1900(4) 1.2752(14) 0.3693(4)
N2 N 0.2257(7) 0.031(2) 0.1728(6)
H1 H 0.25780 0.00970 0.17030
H2 H 0.20310 -0.04760 0.14700
C2 C 0.1308(2) 1.2734(10) 0.2775(3)
O3 O 0.2939(5) 0.9698(17) 0.5124(4)
C3 C 0.1423(3) 1.4712(11) 0.2644(3)
H3 H 0.16950 1.54560 0.28840
O4 O 0.2659(4) 1.2913(15) 0.4776(4)
C4 C 0.1140(3) 1.5603(12) 0.2163(3)
H4 H 0.12190 1.69560 0.20740
O5 O -0.0097(5) 1.4690(19) 0.1002(6)
C5 C 0.0743(3) 1.4514(12) 0.1812(3)
O6 O 0.0491(4) 1.7864(16) 0.1214(4)
C6 C 0.0628(3) 1.2537(11) 0.1943(3)
H5 H 0.03560 1.17930 0.17030
O7 O 0.2869(5) 1.0268(13) 0.8719(5)
C7 C 0.0911(3) 1.1646(10) 0.2424(3)
H6 H 0.08320 1.02940 0.25130
O8 O 0.2651(4) 1.3329(14) 0.8923(4)
C8 C 0.2939(4) 1.1736(19) 0.5179(5)
O9 O 0.1599(5) 1.0161(12) -0.0378(5)
C9 C 0.3241(3) 1.2685(11) 0.5657(3)
O10 O 0.1898(4) 1.3424(17) -0.0437(4)
C10 C 0.3640(3) 1.1524(11) 0.6039(3)
H7 H 0.37150 1.01570 0.59570
O11 O 0.4643(4) 1.4734(12) 0.7501(5)
C11 C 0.3924(3) 1.2451(12) 0.6548(3)
H8 H 0.41840 1.16920 0.67980
O12 O 0.4080(4) 1.7872(15) 0.7282(4)
C12 C 0.3808(3) 1.4541(12) 0.6673(3)
O13 O 0.4822(7) 0.585(3) 0.4355(8)
C13 C 0.3410(3) 1.5703(11) 0.6290(3)
H9 H 0.33340 1.70690 0.63720
O14 O 0.0328(5) 0.5564(19) 0.3677(5)
C14 C 0.3126(3) 1.4774(11) 0.5782(3)
H10 H 0.28650 1.55350 0.55320
C15 C 0.2940(4) 1.227(2) 0.8713(5)
C16 C 0.3207(3) 1.3124(12) 0.8377(3)
C17 C 0.3566(3) 1.1829(10) 0.8239(3)
H11 H 0.36130 1.04440 0.83620
C18 C 0.3857(3) 1.2621(11) 0.7914(4)
H12 H 0.40960 1.17620 0.78220
C19 C 0.3786(3) 1.4708(10) 0.7728(4)
C20 C 0.3427(4) 1.6003(10) 0.7866(4)
H13 H 0.33800 1.73890 0.77420
C21 C 0.3137(4) 1.5211(12) 0.8191(3)
H14 H 0.28980 1.60710 0.82830
C22 C 0.1677(4) 1.2041(19) -0.0244(5)
C23 C 0.1311(3) 1.3056(10) 0.0088(3)
C24 C 0.1379(3) 1.5052(11) 0.0265(4)
H15 H 0.16110 1.59200 0.01650
C25 C 0.1111(4) 1.5798(12) 0.0586(4)
H16 H 0.11580 1.71840 0.07090
C26 C 0.0776(4) 1.4549(14) 0.0729(4)
C27 C 0.0709(3) 1.2553(13) 0.0552(4)
H17 H 0.04760 1.16850 0.06510
C28 C 0.0976(3) 1.1807(10) 0.0231(4)
H18 H 0.09290 1.04210 0.01080
C29 C 0.4619(5) 0.632(2) 0.4665(6)
H19 H 0.47410 0.76210 0.48210
C30 C 0.3948(5) 0.7135(19) 0.5024(5)
C31 C 0.4063(8) 0.354(3) 0.4686(8)
C32 C 0.2116(13) 0.256(4) 0.1653(14)
H20 H 0.21430 0.30360 0.13080
H21 H 0.23480 0.33660 0.19430
H22 H 0.17660 0.27490 0.16590
C33 C 0.2239(12) -0.028(4) 0.2278(10)
H23 H 0.23030 -0.17660 0.23340
H24 H 0.19020 0.00460 0.23080
H25 H 0.24990 0.04880 0.25500
C34 C 0.0665(8) 0.374(3) 0.3916(8)
C35? C 0.4386(10) 0.466(4) 0.5428(7)
Cd1A Cd 0.22728(6) 1.02368(5) 0.92322(6)
Cd1A* Cd 0.22728(6) 1.02368(5) -0.07678(6)
Li1A Li 0.2266(14) 1.5229(12) 0.9242(14)
Li1A* Li 0.2266(14) 1.5229(12) -0.0758(14)
O7A O 0.2869(5) 0.9732(13) 0.3719(5)
O8A O 0.2651(4) 0.6671(14) 0.3923(4)
O8A* O 0.2651(4) 1.6671(14) 0.3923(4)
O9A O 0.1599(5) 0.9839(12) 0.4622(5)
O10A O 0.1898(4) 0.6576(17) 0.4563(4)
O10A* O 0.1898(4) 1.6576(17) 0.4563(4)
#END
