
#######################################################################
#
#                 Cambridge Crystallographic Data Centre
#                                CCDC
#
#######################################################################
#
# If this CIF has been generated from an entry in the Cambridge
# Structural Database, then it will include bibliographic, chemical,
# crystal, experimental, refinement or atomic coordinate data resulting
# from the CCDC's data processing and validation procedures.
#
#######################################################################

data_CSD_CIF_QUSHUJ
_audit_creation_date 2015-11-02
_audit_creation_method CSD-ConQuest-V1
_database_code_CSD QUSHUJ
_database_code_depnum_ccdc_archive 'CCDC 1416018'
_chemical_formula_sum 'C100 H137 Cu3 Mn2 N8 O23.5 S3'
_chemical_formula_moiety
;
(C76 H90 Cu3 Mn2 N6 O20 S2 2-)n,2n(C11 H18 N1 1+),n(C2 H6 O1 S1),2.5n(H2 O1)
;
_journal_coden_Cambridge 9
_journal_volume 54
_journal_year 2015
_journal_page_first 8890
_journal_name_full 'Inorg.Chem. '
loop_
_publ_author_name
"T.Grancha"
"M.Mon"
"F.Lloret"
"J.Ferrando-Soria"
"Y.Journaux"
"J.Pasan"
"E.Pardo"
_chemical_name_systematic
;
catena-(bis((S)-(1-Phenylethyl)trimethylammonium) 
hexakis(\m~2~-((2,6-diethylphenyl)amino)(oxo)acetato)-bis(dimethyl 
sulfoxide)-tri-copper-di-manganese dimethyl sulfoxide solvate hydrate)
;
_cell_volume  23724.390
_exptl_crystal_colour 'green'
_exptl_crystal_density_diffrn 1.242
_exptl_special_details
;
Magnetic properties

;
_exptl_crystal_description 'prism'
_diffrn_ambient_temperature 100
_diffrn_radiation_probe x-ray
_diffrn_source synchrotron
_diffrn_special_details
;
twin

;
#These two values have been output from a single CSD field.
_refine_ls_R_factor_gt 0.1503
_refine_ls_wR_factor_gt 0.1503
_symmetry_cell_setting orthorhombic
_symmetry_space_group_name_H-M 'P 21 21 21'
_symmetry_Int_Tables_number 19
loop_
_symmetry_equiv_pos_site_id
_symmetry_equiv_pos_as_xyz
1 x,y,z
2 1/2-x,-y,1/2+z
3 1/2+x,1/2-y,-z
4 -x,1/2+y,1/2-z
_cell_length_a 27.310(6)
_cell_length_b 28.430(6)
_cell_length_c 30.556(6)
_cell_angle_alpha 90
_cell_angle_beta 90
_cell_angle_gamma 90
_cell_formula_units_Z 8
loop_
_atom_type_symbol
_atom_type_radius_bond
C 0.68
H 0.23
Cu 1.32
Mn 1.61
N 0.68
O 0.68
S 1.02
loop_
_atom_site_label
_atom_site_type_symbol
_atom_site_fract_x
_atom_site_fract_y
_atom_site_fract_z
Cu1 Cu 0.42036(10) 0.96441(8) 0.28246(8)
N1 N 0.4250(6) 0.9474(5) 0.2206(5)
O1 O 0.4102(6) 1.0278(5) 0.2628(5)
C1 C 0.4187(7) 0.9866(7) 0.1964(7)
C2 C 0.4325(5) 0.9045(4) 0.2020(5)
C3 C 0.4082(7) 1.0308(7) 0.2211(7)
O2 O 0.4188(6) 0.9872(4) 0.1543(4)
C4 C 0.4804(4) 0.8885(4) 0.1977(6)
C5 C 0.3938(4) 0.8770(5) 0.1871(7)
O3 O 0.4021(6) 1.0661(5) 0.1980(6)
Mn1 Mn 0.39542(14) 1.05340(12) 0.12896(12)
C6 C 0.4895(4) 0.8450(5) 0.1785(7)
C7 C 0.5276(9) 0.9197(11) 0.2113(13)
C8 C 0.4030(4) 0.8336(5) 0.1680(8)
C9 C 0.3382(9) 0.8911(14) 0.1904(15)
O4 O 0.4647(5) 1.0764(5) 0.1055(5)
O5 O 0.3860(5) 1.1289(5) 0.1182(4)
O6 O 0.3690(6) 1.0301(6) 0.0690(6)
O7 O 0.3166(6) 1.0485(6) 0.1393(6)
H1 H 0.52160 0.83440 0.17570
C10 C 0.4509(5) 0.8176(4) 0.1637(7)
H2 H 0.54300 0.90670 0.23720
H3 H 0.51790 0.95180 0.21740
C11 C 0.5655(12) 0.9181(14) 0.1696(16)
H4 H 0.37710 0.81520 0.15800
H5 H 0.33390 0.91470 0.21300
H6 H 0.31880 0.86380 0.19820
C12 C 0.3200(18) 0.912(2) 0.1442(16)
C13 C 0.4662(7) 1.1180(7) 0.0955(7)
C14 C 0.4238(7) 1.1502(7) 0.0999(6)
C15 C 0.3219(9) 1.0389(8) 0.0651(8)
C16 C 0.2966(9) 1.0479(7) 0.1041(9)
H7 H 0.45700 0.78850 0.15090
H8 H 0.59470 0.93520 0.17680
H9 H 0.55020 0.93220 0.14450
H10 H 0.57370 0.88600 0.16310
H11 H 0.28630 0.92110 0.14660
H12 H 0.32300 0.88770 0.12220
H13 H 0.33970 0.93820 0.13630
N2 N 0.5037(6) 1.1429(6) 0.0802(6)
O8 O 0.4239(4) 1.1914(4) 0.0898(4)
N3 N 0.2978(7) 1.0413(7) 0.0250(7)
O9 O 0.2482(6) 1.0563(6) 0.0966(5)
C17 C 0.5482(6) 1.1152(8) 0.0670(6)
Cu2 Cu 0.49114(8) 1.20915(8) 0.07318(8)
C18 C 0.3232(7) 1.0324(6) -0.0123(5)
Cu3 Cu 0.23425(11) 1.0671(1) 0.03628(10)
C19 C 0.5601(7) 1.1095(8) 0.0231(5)
C20 C 0.5773(8) 1.0948(8) 0.0991(5)
N4 N 0.4776(6) 1.2726(5) 0.0536(5)
O10 O 0.5595(5) 1.2288(5) 0.0661(4)
C21 C 0.3074(7) 0.9938(6) -0.0365(7)
C22 C 0.3590(7) 1.0621(6) -0.0292(6)
O11 O 0.2251(6) 1.0828(5) -0.0260(6)
O12 O 0.2488(8) 1.1470(7) 0.0432(7)
N5 N 0.1637(7) 1.0734(7) 0.0416(6)
C23 C 0.6010(9) 1.0834(9) 0.0113(6)
C24 C 0.5244(12) 1.1304(12) -0.0133(10)
C25 C 0.6182(8) 1.0687(10) 0.0874(7)
C26 C 0.5697(10) 1.1071(13) 0.1491(12)
C27 C 0.5162(6) 1.2988(6) 0.0532(5)
C28 C 0.4322(4) 1.2931(5) 0.0405(4)
C29 C 0.5626(7) 1.2728(7) 0.0592(5)
C30 C 0.3274(8) 0.9849(7) -0.0775(7)
C31 C 0.2669(11) 0.9638(12) -0.0172(16)
C32 C 0.3790(8) 1.0532(7) -0.0702(7)
C33 C 0.3768(17) 1.1068(10) -0.0039(11)
S1 S 0.2877(4) 1.1580(4) 0.0741(4)
H14 H 0.60900 1.07960 -0.01810
C34 C 0.6301(8) 1.063(1) 0.0434(8)
H15 H 0.50920 1.10490 -0.02940
H16 H 0.49870 1.14870 0.00060
C35 C 0.5541(18) 1.1622(17) -0.0451(15)
H17 H 0.63770 1.05510 0.10890
H18 H 0.59970 1.12100 0.16030
H19 H 0.54420 1.13070 0.15150
C36 C 0.5564(13) 1.0662(15) 0.1774(14)
O13 O 0.5176(5) 1.3428(5) 0.0473(4)
C37 C 0.4202(6) 1.2903(6) -0.0036(4)
C38 C 0.3995(5) 1.3132(6) 0.0700(4)
O14 O 0.6030(5) 1.2951(5) 0.0600(5)
H20 H 0.31690 0.95910 -0.09360
C39 C 0.3632(9) 1.0146(8) -0.0943(5)
H21 H 0.27620 0.95530 0.01240
H22 H 0.26470 0.93500 -0.03400
C40 C 0.2145(9) 0.9872(7) -0.0157(10)
H23 H 0.40290 1.07300 -0.08150
H24 H 0.40990 1.10040 0.00600
H25 H 0.35660 1.10960 0.02200
C41 C 0.378(2) 1.1566(13) -0.0262(15)
C42 C 0.2612(13) 1.1676(14) 0.1290(7)
C43 C 0.3088(13) 1.2173(10) 0.0622(15)
H26 H 0.65750 1.04550 0.03560
H27 H 0.53250 1.17500 -0.06690
H28 H 0.57910 1.14390 -0.05910
H29 H 0.56900 1.18740 -0.02900
H30 H 0.55280 1.07660 0.20710
H31 H 0.58170 1.04290 0.17580
H32 H 0.52610 1.05290 0.16740
Mn2 Mn 0.58800(13) 1.37101(12) 0.06438(11)
C44 C 0.4532(12) 1.2695(12) -0.0343(7)
C45 C 0.3755(7) 1.3076(7) -0.0183(4)
C46 C 0.4121(9) 1.3121(8) 0.1185(9)
C47 C 0.3549(5) 1.3305(6) 0.0553(5)
H33 H 0.37660 1.00870 -0.12180
H34 H 0.19120 0.96490 -0.00470
H35 H 0.20520 0.99670 -0.04460
H36 H 0.21530 1.01420 0.00320
H37 H 0.39050 1.17940 -0.00600
H38 H 0.34510 1.16530 -0.03460
H39 H 0.39830 1.15550 -0.05180
H40 H 0.28660 1.17690 0.14890
H41 H 0.24640 1.13900 0.13910
H42 H 0.23690 1.19190 0.12740
H43 H 0.28150 1.23860 0.06300
H44 H 0.33260 1.22660 0.08360
H45 H 0.32340 1.21800 0.03360
O15 O 0.5919(6) 1.3605(5) 0.1363(5)
O16 O 0.5634(6) 1.4387(5) 0.0910(4)
O17 O 0.6015(5) 1.3988(5) 0.0013(4)
O18 O 0.6646(6) 1.3884(6) 0.0676(5)
C48 C 0.447(2) 1.275(2) -0.0844(7)
H46 H 0.45350 1.23600 -0.02820
H47 H 0.48560 1.28120 -0.02720
C49 C 0.3429(5) 1.3277(7) 0.0112(6)
H48 H 0.36750 1.30570 -0.04780
C50 C 0.439(1) 1.3586(9) 0.1317(10)
H49 H 0.38240 1.30870 0.13550
H50 H 0.43310 1.28530 0.12460
H51 H 0.33300 1.34400 0.07500
C51 C 0.5836(8) 1.3968(7) 0.1560(6)
C52 C 0.5706(7) 1.4410(6) 0.1313(6)
C53 C 0.6444(8) 1.4097(7) -0.0047(6)
C54 C 0.6799(9) 1.4037(7) 0.0315(7)
H52 H 0.41820 1.25860 -0.09370
H53 H 0.47530 1.26130 -0.09880
H54 H 0.44480 1.30740 -0.09180
H55 H 0.31300 1.33930 0.00140
H56 H 0.41820 1.38500 0.12570
H57 H 0.44650 1.35780 0.16240
H58 H 0.46880 1.36140 0.11530
O19 O 0.5865(6) 1.4006(4) 0.1975(4)
N6 N 0.5696(7) 1.4788(6) 0.1562(5)
C55 C 0.5584(6) 1.5245(4) 0.1391(6)
C56 C 0.6311(7) 1.4343(7) -0.0789(5)
C57 C 0.5145(6) 1.5458(5) 0.1506(6)
C58 C 0.5903(5) 1.5470(5) 0.1104(6)
C59 C 0.6117(8) 1.3976(6) -0.1035(6)
C60 C 0.6210(8) 1.4806(6) -0.0903(6)
C61 C 0.4746(12) 1.5207(10) 0.1794(10)
C62 C 0.5024(6) 1.5895(6) 0.1335(7)
C63 C 0.5781(6) 1.5908(5) 0.0933(6)
C64 C 0.6409(9) 1.5289(9) 0.1031(10)
C65 C 0.6168(12) 1.3488(13) -0.0917(11)
C66 C 0.5823(8) 1.4073(8) -0.1395(6)
C67 C 0.6448(11) 1.5259(10) -0.0710(8)
C68 C 0.5915(9) 1.4903(7) -0.1263(7)
C69 C 0.4578(9) 1.4787(10) 0.1471(13)
H59 H 0.44750 1.54160 0.18610
H60 H 0.48830 1.50860 0.20640
C70 C 0.5342(7) 1.6120(5) 0.1049(7)
H61 H 0.47300 1.60380 0.14130
H62 H 0.59940 1.60580 0.07410
H63 H 0.65360 1.54230 0.07610
H64 H 0.63960 1.49500 0.09940
C71 C 0.6766(13) 1.5407(14) 0.1410(12)
H65 H 0.63250 1.33090 -0.11480
C72 C 0.5610(14) 1.3336(16) -0.0855(19)
H66 H 0.63520 1.34510 -0.06480
C73 C 0.5722(8) 1.4536(9) -0.1509(6)
H67 H 0.56940 1.38270 -0.15600
C74 C 0.6144(13) 1.5483(15) -0.0327(12)
H68 H 0.64840 1.54890 -0.09420
H69 H 0.67730 1.51820 -0.06030
H70 H 0.58480 1.52130 -0.13400
H71 H 0.44430 1.49180 0.12080
H72 H 0.43340 1.45980 0.16140
H73 H 0.48560 1.45950 0.14000
H74 H 0.52610 1.64130 0.09350
H75 H 0.67920 1.57420 0.14400
H76 H 0.66430 1.52740 0.16770
H77 H 0.70820 1.52760 0.13470
H78 H 0.55940 1.30050 -0.07930
H79 H 0.54700 1.35080 -0.06160
H80 H 0.54310 1.34020 -0.11180
H81 H 0.55250 1.46000 -0.17500
H82 H 0.58280 1.55770 -0.04340
H83 H 0.61040 1.52570 -0.00970
H84 H 0.63140 1.57530 -0.02160
O20 O 0.9940(6) 0.8674(6) 1.0303(12)
O21 O 0.2555(11) 1.0051(5) 0.2260(4)
O22 O 0.3140(6) 0.7222(7) 0.5005(6)
O23 O 0.3604(7) 0.6675(8) 0.2294(6)
O24 O 0.4942(6) 0.9913(14) 0.5303(12)
Mn3 Mn 0.66769(17) 0.85462(17) 0.83716(13)
Mn4 Mn 0.82438(17) 0.82745(17) 1.15538(13)
Cu4 Cu 0.68414(11) 1.01372(10) 0.74680(8)
Cu5 Cu 0.74433(10) 0.81463(13) 0.99630(9)
Cu6 Cu 0.99767(11) 0.73849(9) 1.16389(10)
C75 C 0.6831(13) 0.952(1) 0.8095(8)
C76 C 0.6916(12) 0.9222(7) 0.7719(6)
C77 C 0.7447(6) 0.9196(6) 0.6742(5)
C78 C 0.6985(7) 0.9231(6) 0.6929(5)
C79 C 0.6580(6) 0.9046(8) 0.6713(6)
C80 C 0.6638(8) 0.8827(9) 0.6310(6)
H85 H 0.63670 0.87040 0.61650
C81 C 0.7100(9) 0.8793(9) 0.6122(5)
H86 H 0.71390 0.86460 0.58530
C82 C 0.7505(7) 0.8977(8) 0.6339(6)
H87 H 0.78140 0.89540 0.62130
C83 C 0.6036(9) 0.9090(11) 0.6899(10)
H88 H 0.60370 0.92320 0.71870
H89 H 0.58360 0.92810 0.67060
C84 C 0.7908(10) 0.9399(10) 0.6988(8)
H90 H 0.78720 0.93600 0.73010
H91 H 0.82020 0.92350 0.68950
C85 C 0.795(2) 0.9933(12) 0.6870(13)
H92 H 0.82230 1.00680 0.70190
H93 H 0.76530 1.00910 0.69600
H94 H 0.79880 0.99670 0.65600
C86 C 0.5832(18) 0.8575(14) 0.692(2)
H95 H 0.55250 0.85740 0.70750
H96 H 0.60620 0.83790 0.70750
H97 H 0.57850 0.84560 0.66310
C87 C 0.5622(11) 0.8296(8) 0.8296(7)
C88 C 0.5912(10) 0.7876(8) 0.8240(7)
C89 C 0.5497(10) 0.6967(10) 0.7472(9)
H98 H 0.54450 0.66920 0.72910
H99 H 0.51820 0.70550 0.75950
C90 C 0.5889(6) 0.7066(5) 0.8257(6)
C91 C 0.6172(7) 0.6881(7) 0.8594(5)
C92 C 0.6415(7) 0.6456(7) 0.8535(7)
H100 H 0.66040 0.63320 0.87610
C93 C 0.6377(7) 0.6217(5) 0.8140(8)
H101 H 0.65400 0.59330 0.81010
C94 C 0.6095(8) 0.6402(5) 0.7803(6)
H102 H 0.60690 0.62420 0.75390
C95 C 0.5851(6) 0.6827(6) 0.7861(6)
C96 C 0.568(2) 0.7379(14) 0.7172(14)
H103 H 0.54340 0.74440 0.69540
H104 H 0.59780 0.72900 0.70320
H105 H 0.57310 0.76550 0.73470
C97 C 0.6218(14) 0.7176(10) 0.9026(8)
H106 H 0.63730 0.74730 0.89520
H107 H 0.58890 0.72490 0.91260
C98 C 0.6500(13) 0.6964(17) 0.9417(11)
H108 H 0.65040 0.71860 0.96550
H109 H 0.68300 0.68950 0.93300
H110 H 0.63420 0.66800 0.95110
C99 C 0.6837(8) 0.8339(9) 0.9283(8)
C100 C 0.7327(8) 0.8266(9) 0.9088(8)
C101 C 0.8184(5) 0.8084(6) 0.9262(7)
C102 C 0.8488(6) 0.8473(5) 0.9219(9)
C103 C 0.8988(6) 0.8412(6) 0.9158(9)
H111 H 0.91920 0.86730 0.91290
C104 C 0.9185(5) 0.7961(7) 0.9141(9)
H112 H 0.95200 0.79210 0.91000
C105 C 0.8881(7) 0.7572(6) 0.9184(9)
H113 H 0.90120 0.72710 0.91730
C106 C 0.8381(7) 0.7633(5) 0.9245(8)
C107 C 0.8028(13) 0.7216(12) 0.9389(12)
H114 H 0.82170 0.69530 0.95000
H115 H 0.78060 0.73210 0.96170
C108 C 0.8265(8) 0.8977(7) 0.9242(15)
H116 H 0.85130 0.91930 0.93470
H117 H 0.79990 0.89770 0.94520
C109 C 0.7732(11) 0.7065(15) 0.8970(13)
H118 H 0.75200 0.68070 0.90410
H119 H 0.79560 0.69710 0.87440
H120 H 0.75390 0.73260 0.88680
C110 C 0.807(2) 0.9159(17) 0.8789(19)
H121 H 0.79440 0.94730 0.88230
H122 H 0.78100 0.89560 0.86890
H123 H 0.83290 0.91590 0.85790
C111 C 0.8078(9) 0.8158(14) 1.0645(9)
C112 C 0.7577(9) 0.8097(14) 1.0847(9)
C113 C 0.6730(8) 0.7968(10) 1.0689(8)
C114 C 0.6386(11) 0.8327(9) 1.0761(10)
C115 C 0.5900(12) 0.8192(14) 1.0846(14)
C116 C 0.5787(14) 0.7695(15) 1.0814(13)
C117 C 0.6074(12) 0.7351(14) 1.0692(14)
C118 C 0.6555(9) 0.7485(9) 1.0655(11)
C119 C 0.6585(15) 0.8820(11) 1.0713(17)
H124 H 0.69160 0.87890 1.06030
H125 H 0.66120 0.89480 1.10070
C120 C 0.6956(11) 0.7128(11) 1.0558(15)
H126 H 0.72560 0.72540 1.06810
H127 H 0.69990 0.71260 1.02420
C121 C 0.692(2) 0.6593(14) 1.071(3)
H128 H 0.72240 0.64360 1.06320
H129 H 0.66560 0.64430 1.05600
H130 H 0.68760 0.65780 1.10170
C122 C 0.633(2) 0.9214(16) 1.042(2)
H131 H 0.65100 0.95010 1.04420
H132 H 0.60000 0.92670 1.05310
H133 H 0.63130 0.91120 1.01250
C123 C 0.8122(7) 0.9233(9) 1.1811(7)
C124 C 0.8005(7) 0.8961(9) 1.2210(7)
C125 C 0.7887(5) 0.8978(6) 1.2961(5)
C126 C 0.8227(5) 0.8680(7) 1.3156(6)
C127 C 0.8101(6) 0.8429(7) 1.3529(6)
H134 H 0.83280 0.82290 1.36590
C128 C 0.7635(7) 0.8475(6) 1.3708(5)
H135 H 0.75510 0.83070 1.39570
C129 C 0.7296(5) 0.8773(6) 1.3513(6)
H136 H 0.69840 0.88040 1.36320
C130 C 0.7422(5) 0.9025(6) 1.3139(6)
C131 C 0.7028(12) 0.934(1) 1.2946(11)
H137 H 0.67450 0.91470 1.28790
H138 H 0.71490 0.94670 1.26730
C132 C 0.8751(9) 0.8648(12) 1.2985(9)
H139 H 0.88720 0.89690 1.29830
H140 H 0.87210 0.85570 1.26800
C133 C 0.9176(16) 0.835(2) 1.3166(19)
H141 H 0.94660 0.84040 1.29960
H142 H 0.90910 0.80210 1.31510
H143 H 0.92370 0.84340 1.34650
C134 C 0.685(2) 0.977(2) 1.325(2)
H144 H 0.66060 0.99490 1.30940
H145 H 0.71250 0.99690 1.33140
H146 H 0.67130 0.96500 1.35140
C135 C 0.9266(8) 0.8066(8) 1.1680(7)
C136 C 0.8974(9) 0.7638(7) 1.1706(7)
C137 C 0.9041(8) 0.6772(5) 1.1758(6)
C138 C 0.8805(9) 0.6610(5) 1.1385(6)
C139 C 0.8563(10) 0.6180(5) 1.1391(7)
H147 H 0.84050 0.60720 1.11410
C140 C 0.8557(11) 0.5912(6) 1.1772(7)
H148 H 0.83950 0.56250 1.17760
C141 C 0.8793(13) 0.6074(6) 1.2145(6)
H149 H 0.87880 0.58950 1.24000
C142 C 0.9035(11) 0.6504(5) 1.2139(6)
C143 C 0.8674(13) 0.688(1) 1.0942(9)
H150 H 0.87880 0.66990 1.06930
H151 H 0.88340 0.71840 1.09370
C144 C 0.8980(17) 0.6814(12) 1.2585(9)
H152 H 0.87320 0.70530 1.25370
H153 H 0.88620 0.66100 1.28160
C145 C 0.8094(12) 0.695(2) 1.092(2)
H154 H 0.80130 0.71330 1.06640
H155 H 0.79800 0.71030 1.11750
H156 H 0.79390 0.66450 1.08930
C146 C 0.946(2) 0.706(2) 1.2745(17)
H157 H 0.93850 0.72480 1.29970
H158 H 0.95830 0.72550 1.25150
H159 H 0.96950 0.68240 1.28200
C147 C 0.9673(14) 0.7133(13) 1.0063(10)
H160 H 0.93390 0.72160 1.01220
H161 H 0.96820 0.68680 0.98690
H162 H 0.98380 0.73950 0.99290
C148 C 1.0580(13) 0.6876(12) 1.0334(10)
H163 H 1.07970 0.67760 1.05640
H164 H 1.07040 0.71590 1.02040
H165 H 1.05600 0.66340 1.01160
C149 C 0.5622(11) 1.0356(12) 0.6628(8)
H166 H 0.59060 1.01720 0.65570
H167 H 0.56860 1.06810 0.65670
H168 H 0.53490 1.02510 0.64560
C150 C 0.5255(9) 1.0865(8) 0.7248(9)
H169 H 0.52450 1.09300 0.75560
H170 H 0.49300 1.08850 0.71290
H171 H 0.54620 1.10910 0.71050
N7 N 0.6907(9) 0.9469(7) 0.7358(6)
N8 N 0.5667(8) 0.7471(7) 0.8259(7)
N9 N 0.7690(8) 0.8174(7) 0.9387(6)
N10 N 0.7223(7) 0.8064(7) 1.0551(6)
N11 N 0.8007(6) 0.9193(6) 1.2565(6)
N12 N 0.9306(8) 0.7258(6) 1.1740(6)
O25 O 0.6840(6) 0.9943(6) 0.8084(4)
O26 O 0.6778(10) 0.9303(7) 0.8471(6)
O27 O 0.692(1) 0.8767(6) 0.7757(6)
O28 O 0.5210(8) 0.8273(5) 0.8347(7)
O29 O 0.5851(9) 0.8683(7) 0.8287(6)
O30 O 0.6385(8) 0.7864(7) 0.8190(6)
O31 O 0.7373(7) 0.8310(7) 0.8676(5)
O32 O 0.6442(7) 0.8485(7) 0.9045(5)
O33 O 0.6812(6) 0.8251(7) 0.9698(5)
O34 O 0.8076(6) 0.8196(10) 1.0211(6)
O35 O 0.8422(6) 0.8266(10) 1.0864(6)
O36 O 0.7546(6) 0.8075(9) 1.1245(6)
O37 O 0.7980(5) 0.8507(6) 1.2183(5)
O38 O 0.8161(6) 0.9030(7) 1.1453(5)
O39 O 0.8159(6) 0.9691(7) 1.1846(5)
O40 O 0.8530(6) 0.7614(6) 1.1747(6)
O41 O 0.9028(6) 0.8449(5) 1.1662(5)
O42 O 0.9754(5) 0.8033(5) 1.1667(5)
O43 O 0.9997(7) 0.7418(6) 1.0858(6)
O44 O 0.5946(7) 1.0258(7) 0.7465(5)
S2 S 0.9972(3) 0.6986(3) 1.0561(2)
S3 S 0.5490(4) 1.0292(4) 0.7160(3)
C151 C 0.3960(9) 1.1446(9) 0.2843(8)
H172 H 0.41050 1.14180 0.31280
H173 H 0.39120 1.11390 0.27200
H174 H 0.36500 1.16030 0.28670
C152 C 0.4729(7) 1.1420(7) 0.2426(8)
H175 H 0.49240 1.13590 0.26810
H176 H 0.49240 1.15800 0.22110
H177 H 0.46140 1.11270 0.23080
C153 C 0.4053(9) 1.1751(8) 0.2120(9)
H178 H 0.42620 1.19140 0.19180
H179 H 0.37480 1.19160 0.21460
H180 H 0.39920 1.14380 0.20140
C154 C 0.4459(8) 1.2197(7) 0.2707(8)
H181 H 0.46750 1.23090 0.24730
C155 C 0.4779(13) 1.2182(10) 0.3102(11)
H182 H 0.50280 1.19480 0.30620
H183 H 0.45860 1.21060 0.33540
H184 H 0.49300 1.24840 0.31430
C156 C 0.4045(5) 1.2563(5) 0.2720(5)
C157 C 0.3972(6) 1.2846(5) 0.2354(4)
H185 H 0.41750 1.28140 0.21120
C158 C 0.3597(6) 1.3176(5) 0.2352(5)
H186 H 0.35490 1.33660 0.21080
C159 C 0.3294(5) 1.3224(5) 0.2715(6)
H187 H 0.30430 1.34450 0.27130
C160 C 0.3367(6) 1.2941(6) 0.3080(5)
H188 H 0.31640 1.29730 0.33230
C161 C 0.3742(6) 1.2610(5) 0.3083(4)
H189 H 0.37900 1.24210 0.33270
N13 N 0.4293(6) 1.1727(5) 0.2551(6)
C162 C 0.25570 0.93130 0.35940
H190 H 0.22870 0.95260 0.36250
H191 H 0.27690 0.94200 0.33650
H192 H 0.27360 0.92990 0.38650
C163 C 0.22020 0.85850 0.38890
H193 H 0.20820 0.82790 0.38090
H194 H 0.19440 0.87600 0.40270
H195 H 0.24710 0.85520 0.40890
C164 C 0.18960 0.89800 0.32040
H196 H 0.17320 0.87000 0.31080
H197 H 0.19960 0.91620 0.29540
H198 H 0.16780 0.91640 0.33820
C165 C 0.28690 0.86340 0.34700
H199 H 0.31020 0.87970 0.36610
C166 C 0.2894(9) 0.8085(5) 0.3517(8)
C167 C 0.3132(9) 0.7890(7) 0.3876(9)
H200 H 0.32860 0.80840 0.40780
C168 C 0.3140(7) 0.7404(7) 0.3931(11)
H201 H 0.32990 0.72740 0.41710
C169 C 0.291(1) 0.7115(5) 0.3628(13)
H202 H 0.29150 0.67900 0.36650
C170 C 0.2672(13) 0.7310(5) 0.3269(11)
H203 H 0.25180 0.71160 0.30660
C171 C 0.2664(11) 0.7795(5) 0.3214(7)
H204 H 0.25050 0.79260 0.29740
C172 C 0.3009(16) 0.8677(9) 0.2953(9)
H205 H 0.30840 0.89980 0.28850
H206 H 0.27360 0.85750 0.27790
H207 H 0.32880 0.84830 0.28920
N14 N 0.23700 0.88400 0.34860
C173 C 0.4063(10) 0.7466(13) 0.3292(9)
H208 H 0.39520 0.73050 0.35500
H209 H 0.40690 0.72500 0.30510
H210 H 0.38450 0.77210 0.32270
C174 C 0.4650(12) 0.7936(10) 0.2852(8)
H211 H 0.49650 0.80810 0.28210
H212 H 0.43980 0.81700 0.28230
H213 H 0.46090 0.77010 0.26290
O45 O 0.4946(6) 0.7280(5) 0.3373(6)
S4 S 0.4607(2) 0.7668(2) 0.33754(19)
C175 C 0.4222(16) 0.9156(14) 1.0612(12)
H214 H 0.40860 0.88460 1.05820
H215 H 0.40970 0.93540 1.03830
H216 H 0.41310 0.92850 1.08910
C176 C 0.4951(19) 0.9750(15) 1.0630(16)
H217 H 0.52960 0.98130 1.06160
H218 H 0.48240 0.98550 1.09060
H219 H 0.47880 0.99130 1.03970
O46 O 0.4909(10) 0.9077(8) 1.0098(7)
S5 S 0.4849(5) 0.9126(3) 1.0574(3)
C177 C 0.7814(15) 0.7491(13) 1.2712(18)
H220 H 0.81590 0.75210 1.26560
H221 H 0.77530 0.75290 1.30190
H222 H 0.76400 0.77290 1.25520
C178 C 0.7111(9) 0.6848(11) 1.2567(10)
H223 H 0.70270 0.65300 1.24930
H224 H 0.69490 0.70600 1.23700
H225 H 0.70070 0.69130 1.28620
O47 O 0.7589(11) 0.6921(10) 1.1985(12)
S6 S 0.7604(3) 0.6906(3) 1.2536(4)
N15 N 0.52610 0.95500 0.90640
C179 C 0.5669(10) 0.9270(12) 0.9235(13)
H226 H 0.57860 0.90610 0.90120
H227 H 0.55590 0.90900 0.94820
H228 H 0.59290 0.94760 0.93250
C180 C 0.50410 0.99040 0.94240
H229 H 0.47810 1.00840 0.92960
H230 H 0.52940 1.01120 0.95230
H231 H 0.49170 0.97270 0.96670
C181 C 0.48040 0.92290 0.89170
H232 H 0.45500 0.94260 0.88010
H233 H 0.46810 0.90600 0.91660
H234 H 0.49080 0.90090 0.86970
C182 C 0.54100 0.97810 0.85810
H235 H 0.55380 0.95310 0.83910
C183 C 0.50180 1.00620 0.83250
C184 C 0.47930 0.98050 0.79940
H236 H 0.48760 0.94910 0.79510
C185 C 0.44450 1.00190 0.77270
H237 H 0.42940 0.98480 0.75050
C186 C 0.43230 1.04880 0.77920
H238 H 0.40900 1.06310 0.76140
C187 C 0.45470 1.07440 0.81230
H239 H 0.44650 1.10580 0.81660
C188 C 0.48940 1.05310 0.83900
H240 H 0.50440 1.07030 0.86120
C189 C 0.5829(19) 1.0135(19) 0.8680(16)
H241 H 0.61140 0.99670 0.87750
H242 H 0.57260 1.03480 0.89060
H243 H 0.59050 1.03110 0.84200
C190 C 0.6688(11) 1.0605(11) 0.5363(13)
H244 H 0.68200 1.06450 0.50740
H245 H 0.69000 1.07540 0.55720
H246 H 0.63690 1.07450 0.53780
C191 C 0.7207(9) 0.9896(13) 0.5487(8)
H247 H 0.71760 0.95760 0.56010
C192 C 0.7494(10) 0.9850(12) 0.5069(7)
C193 C 0.7500(12) 0.9423(10) 0.4846(9)
H248 H 0.73640 0.91570 0.49730
C194 C 0.7709(15) 0.9396(12) 0.4432(10)
H249 H 0.77130 0.91110 0.42830
C195 C 0.7913(16) 0.9795(15) 0.4241(8)
H250 H 0.80530 0.97760 0.39640
C196 C 0.7907(15) 1.0221(12) 0.4464(12)
H251 H 0.80430 1.04870 0.43360
C197 C 0.7698(12) 1.0248(10) 0.4878(11)
H252 H 0.76940 1.05330 0.50270
C198 C 0.6394(9) 0.9985(16) 0.5874(8)
H253 H 0.63620 0.96500 0.58990
H254 H 0.60740 1.01260 0.58730
H255 H 0.65780 1.01030 0.61180
C199 C 0.6362(14) 0.9840(16) 0.5072(9)
H256 H 0.63240 0.95130 0.51420
H257 H 0.65430 0.98710 0.48050
H258 H 0.60440 0.99810 0.50370
C200 C 0.7510(9) 1.0170(18) 0.5834(10)
H259 H 0.73230 1.01980 0.60980
H260 H 0.75860 1.04780 0.57240
H261 H 0.78090 1.00030 0.58930
N16 N 0.6651(10) 1.0102(13) 0.5462(8)
N5B N 0.6637(7) 1.4266(7) -0.0416(6)
O11B O 0.7251(6) 1.4172(5) 0.0260(6)
Cu1C Cu 0.57964(10) 1.46441(8) 0.21754(8)
Cu3B Cu 0.73425(11) 1.4329(1) -0.03628(10)
O9B O 0.7482(6) 1.4437(6) -0.0966(5)
O12B O 0.7488(8) 1.3530(7) -0.0432(7)
N3B N 0.7978(7) 1.4587(7) -0.0250(7)
S1B S 0.7877(4) 1.3420(4) -0.0741(4)
C42B C 0.7612(13) 1.3324(14) -0.1290(7)
C43B C 0.8088(13) 1.2827(10) -0.0622(15)
H40B H 0.78660 1.32310 -0.14890
H41B H 0.74640 1.36100 -0.13910
H42B H 0.73690 1.30810 -0.12740
H43B H 0.78150 1.26140 -0.06300
H44B H 0.83260 1.27340 -0.08360
H45B H 0.82340 1.28200 -0.03360
Cu4A Cu 0.81586(11) 0.98628(10) 1.24680(8)
Cu6B Cu 0.49767(11) 0.76151(9) 0.83611(10)
N8B N 1.0667(8) 0.7529(7) 1.1741(7)
N11A N 0.6993(6) 1.0807(6) 0.7565(6)
O28B O 1.0210(8) 0.6727(5) 1.1653(7)
O39A O 0.6841(6) 1.0309(7) 0.6846(5)
#END
