
#######################################################################
#
#                 Cambridge Crystallographic Data Centre
#                                CCDC
#
#######################################################################
#
# If this CIF has been generated from an entry in the Cambridge
# Structural Database, then it will include bibliographic, chemical,
# crystal, experimental, refinement or atomic coordinate data resulting
# from the CCDC's data processing and validation procedures.
#
#######################################################################

data_CSD_CIF_QUSNOJ
_audit_creation_date 2015-11-02
_audit_creation_method CSD-ConQuest-V1
_database_code_CSD QUSNOJ
_database_code_depnum_ccdc_archive 'CCDC 1013716'
_chemical_formula_sum 'C72 H78 Ag13 Co2 I17 N12 O15'
_chemical_formula_moiety
;
(C36 H24 Co1 N6 2+)2n,n(Ag13 I17 4-),15n(H2 O1)
;
_journal_coden_Cambridge 1350
_journal_volume 17
_journal_year 2015
_journal_page_first 8752
_journal_name_full 'CrystEngComm '
loop_
_publ_author_name
"Tanlai Yu"
"Yangbo Fu"
"Yilin Wang"
"Pengfei Hao"
"Junju Shen"
"Yunlong Fu"
_chemical_name_systematic
;
catena-[bis(tris(1,10-phenanthroline)-cobalt) 
heptadecakis(\m-iodo)-trideca-silver pentadecahydrate]
;
_cell_volume  11713.322
_exptl_crystal_colour 'yellow'
_exptl_crystal_density_diffrn 2.852
_exptl_crystal_description 'block'
_diffrn_ambient_temperature 100
_refine_special_details
;
The SQUEEZE/PLATON program has been used to model some disorder.

;
#These two values have been output from a single CSD field.
_refine_ls_R_factor_gt 0.0675
_refine_ls_wR_factor_gt 0.0675
_symmetry_cell_setting cubic
_symmetry_space_group_name_H-M 'P 21 3'
_symmetry_Int_Tables_number 198
loop_
_symmetry_equiv_pos_site_id
_symmetry_equiv_pos_as_xyz
1 x,y,z
2 1/2-x,-y,1/2+z
3 -x,1/2+y,1/2-z
4 1/2+x,1/2-y,-z
5 z,x,y
6 1/2+z,1/2-x,-y
7 1/2-z,-x,1/2+y
8 -z,1/2+x,1/2-y
9 y,z,x
10 -y,1/2+z,1/2-x
11 1/2+y,1/2-z,-x
12 1/2-y,-z,1/2+x
_cell_length_a 22.7105(5)
_cell_length_b 22.7105(5)
_cell_length_c 22.7105(5)
_cell_angle_alpha 90
_cell_angle_beta 90
_cell_angle_gamma 90
_cell_formula_units_Z 4
loop_
_atom_type_symbol
_atom_type_radius_bond
C 0.68
H 0.23
Ag 1.45
Co 1.26
I 1.40
N 0.68
loop_
_atom_site_label
_atom_site_type_symbol
_atom_site_fract_x
_atom_site_fract_y
_atom_site_fract_z
Ag1 Ag 0.10488(4) 0.10488(4) 0.10488(4)
Ag2 Ag 0.11325(4) -0.01828(4) 0.15965(4)
Ag3 Ag 0.11295(4) 0.09578(4) 0.24635(4)
Ag4 Ag 0.10949(4) 0.01174(4) 0.34700(4)
Ag5 Ag 0.10827(5) -0.10099(4) 0.25793(4)
I1 I 0.17949(3) 0.17949(3) 0.17949(3)
I2 I 0.01210(3) 0.05678(3) 0.17829(3)
I3 I 0.07588(4) 0.13279(3) 0.35707(3)
I4 I 0.19771(3) -0.00082(3) 0.25114(3)
I5 I 0.07541(4) -0.13354(3) 0.14226(3)
I6 I 0.17972(3) -0.17972(3) 0.32028(3)
I7 I 0.01023(3) -0.05605(3) 0.31959(3)
Co1 Co 0.31647(6) 0.31647(6) 0.31647(6)
N1 N 0.2218(4) 0.3219(4) 0.3171(4)
N2 N 0.3027(4) 0.4086(4) 0.3217(4)
C1 C 0.1831(4) 0.2789(5) 0.3119(4)
H1 H 0.19690 0.24040 0.31050
C2 C 0.1225(5) 0.2881(5) 0.3085(4)
H2 H 0.09670 0.25650 0.30510
C3 C 0.1022(5) 0.3435(4) 0.3102(4)
H3 H 0.06200 0.35000 0.30590
C4 C 0.1387(4) 0.3907(5) 0.3183(4)
C5 C 0.1181(5) 0.4481(5) 0.3220(5)
H4 H 0.07790 0.45600 0.32120
C6 C 0.1592(5) 0.4938(5) 0.3269(5)
H5 H 0.14590 0.53230 0.33030
C7 C 0.2217(5) 0.4824(5) 0.3268(5)
C8 C 0.2631(5) 0.5263(5) 0.3311(5)
H6 H 0.25130 0.56510 0.33720
C9 C 0.3223(5) 0.5127(5) 0.3265(5)
H7 H 0.35000 0.54270 0.32350
C10 C 0.3409(5) 0.4525(5) 0.3264(5)
H8 H 0.38080 0.44400 0.32970
C11 C 0.2421(5) 0.4257(5) 0.3229(5)
C12 C 0.2013(4) 0.3780(5) 0.3183(4)
Co2 Co 0.31654(6) 0.68346(6) 0.18346(6)
N3 N 0.3220(4) 0.6816(4) 0.2777(4)
N4 N 0.4110(4) 0.6775(4) 0.1985(4)
C13 C 0.2796(5) 0.6842(5) 0.3172(4)
H9 H 0.24110 0.68070 0.30360
C14 C 0.2876(4) 0.6918(4) 0.3792(4)
H10 H 0.25570 0.69960 0.40360
C15 C 0.3410(4) 0.6875(5) 0.4010(5)
H11 H 0.34790 0.68940 0.44130
C16 C 0.3885(5) 0.6797(5) 0.3594(5)
C17 C 0.4429(5) 0.6764(5) 0.3809(5)
H12 H 0.44930 0.67700 0.42140
C18 C 0.4907(5) 0.6721(5) 0.3415(5)
H13 H 0.52850 0.66720 0.35640
C19 C 0.4824(5) 0.6750(5) 0.2805(5)
C20 C 0.5296(5) 0.6675(5) 0.2415(5)
H14 H 0.56770 0.66010 0.25450
C21 C 0.5152(5) 0.6722(5) 0.1805(6)
H15 H 0.54590 0.67350 0.15350
C22 C 0.4521(5) 0.6750(5) 0.1570(6)
H16 H 0.44330 0.67500 0.11700
C23 C 0.4217(5) 0.6783(5) 0.2558(5)
C24 C 0.3760(5) 0.6799(5) 0.2966(5)
Ag6? Ag 0.0773(2) -0.1422(2) 0.26546(19)
Ag2D Ag 0.15965(4) 0.11325(4) -0.01828(4)
Ag3D Ag 0.24635(4) 0.11295(4) 0.09578(4)
Ag4D Ag 0.34700(4) 0.10949(4) 0.01174(4)
Ag5D Ag 0.25793(5) 0.10827(4) -0.10099(4)
I2D I 0.17829(3) 0.01210(3) 0.05678(3)
I3D I 0.35707(4) 0.07588(3) 0.13279(3)
I4D I 0.25114(3) 0.19771(3) -0.00082(3)
I5D I 0.14226(4) 0.07541(3) -0.13354(3)
I7D I 0.31959(3) 0.01023(3) -0.05605(3)
Ag2H Ag -0.01828(4) 0.15965(4) 0.11325(4)
Ag3H Ag 0.09578(4) 0.24635(4) 0.11295(4)
Ag4H Ag 0.01174(4) 0.34700(4) 0.10949(4)
Ag5H Ag -0.10099(5) 0.25793(4) 0.10827(4)
I2H I 0.05678(3) 0.17829(3) 0.01210(3)
I3H I 0.13279(4) 0.35707(3) 0.07588(3)
I4H I -0.00082(3) 0.25114(3) 0.19771(3)
I5H I -0.13354(4) 0.14226(3) 0.07541(3)
I7H I -0.05605(3) 0.31959(3) 0.01023(3)
Ag4A Ag 0.39051(4) -0.01174(4) -0.15300(4)
Ag4E Ag -0.15300(4) 0.39051(4) -0.01174(4)
Ag4I Ag -0.01174(4) -0.15300(4) 0.39051(4)
Ag5F Ag 0.24207(5) -0.10827(4) 0.39901(4)
Ag5I Ag 0.10099(5) -0.24207(4) 0.39173(4)
I6A I 0.32028(3) 0.17972(3) -0.17972(3)
I6B I -0.17972(3) 0.32028(3) 0.17972(3)
I7B I -0.01023(3) 0.44395(3) 0.18041(3)
I7F I 0.18041(3) -0.01023(3) 0.44395(3)
I7J I 0.44395(3) 0.18041(3) -0.01023(3)
N1D N 0.3171(4) 0.2218(4) 0.3219(4)
N2D N 0.3217(4) 0.3027(4) 0.4086(4)
C1D C 0.3119(4) 0.1831(5) 0.2789(4)
H1D H 0.31050 0.19690 0.24040
C2D C 0.3085(5) 0.1225(5) 0.2881(4)
H2D H 0.30510 0.09670 0.25650
C3D C 0.3102(5) 0.1022(4) 0.3435(4)
H3D H 0.30590 0.06200 0.35000
C4D C 0.3183(4) 0.1387(5) 0.3907(4)
C5D C 0.3220(5) 0.1181(5) 0.4481(5)
H4D H 0.32120 0.07790 0.45600
C6D C 0.3269(5) 0.1592(5) 0.4938(5)
H5D H 0.33030 0.14590 0.53230
C7D C 0.3268(5) 0.2217(5) 0.4824(5)
C8D C 0.3311(5) 0.2631(5) 0.5263(5)
H6D H 0.33720 0.25130 0.56510
C9D C 0.3265(5) 0.3223(5) 0.5127(5)
H7D H 0.32350 0.35000 0.54270
C10D C 0.3264(5) 0.3409(5) 0.4525(5)
H8D H 0.32970 0.38080 0.44400
C11D C 0.3229(5) 0.2421(5) 0.4257(5)
C12D C 0.3183(4) 0.2013(5) 0.3780(4)
N1H N 0.3219(4) 0.3171(4) 0.2218(4)
N2H N 0.4086(4) 0.3217(4) 0.3027(4)
C1H C 0.2789(4) 0.3119(5) 0.1831(4)
H1H H 0.24040 0.31050 0.19690
C2H C 0.2881(5) 0.3085(5) 0.1225(4)
H2H H 0.25650 0.30510 0.09670
C3H C 0.3435(5) 0.3102(4) 0.1022(4)
H3H H 0.35000 0.30590 0.06200
C4H C 0.3907(4) 0.3183(5) 0.1387(4)
C5H C 0.4481(5) 0.3220(5) 0.1181(5)
H4H H 0.45600 0.32120 0.07790
C6H C 0.4938(5) 0.3269(5) 0.1592(5)
H5H H 0.53230 0.33030 0.14590
C7H C 0.4824(5) 0.3268(5) 0.2217(5)
C8H C 0.5263(5) 0.3311(5) 0.2631(5)
H6H H 0.56510 0.33720 0.25130
C9H C 0.5127(5) 0.3265(5) 0.3223(5)
H7H H 0.54270 0.32350 0.35000
C10H C 0.4525(5) 0.3264(5) 0.3409(5)
H8H H 0.44400 0.32970 0.38080
C11H C 0.4257(5) 0.3229(5) 0.2421(5)
C12H C 0.3780(4) 0.3183(5) 0.2013(4)
N3F N 0.2223(4) 0.6780(4) 0.1816(4)
N4F N 0.3015(4) 0.5890(4) 0.1775(4)
C13F C 0.1828(5) 0.7204(5) 0.1842(4)
H9F H 0.19640 0.75890 0.18070
C14F C 0.1208(4) 0.7124(4) 0.1918(4)
H10F H 0.09640 0.74430 0.19960
C15F C 0.0990(4) 0.6590(5) 0.1875(5)
H11F H 0.05870 0.65210 0.18940
C16F C 0.1406(5) 0.6115(5) 0.1797(5)
C17F C 0.1191(5) 0.5571(5) 0.1764(5)
H12F H 0.07860 0.55070 0.17700
C18F C 0.1585(5) 0.5093(5) 0.1721(5)
H13F H 0.14360 0.47150 0.16720
C19F C 0.2195(5) 0.5176(5) 0.1750(5)
C20F C 0.2585(5) 0.4704(5) 0.1675(5)
H14F H 0.24550 0.43230 0.16010
C21F C 0.3195(5) 0.4848(5) 0.1722(6)
H15F H 0.34650 0.45410 0.17350
C22F C 0.3430(5) 0.5479(5) 0.1750(6)
H16F H 0.38300 0.55670 0.17500
C23F C 0.2442(5) 0.5783(5) 0.1783(5)
C24F C 0.2034(5) 0.6240(5) 0.1799(5)
N3I N 0.3184(4) 0.7777(4) 0.1780(4)
N4I N 0.3225(4) 0.6985(4) 0.0890(4)
C13I C 0.3158(5) 0.8172(5) 0.2204(4)
H9I H 0.31930 0.80360 0.25890
C14I C 0.3082(4) 0.8792(4) 0.2124(4)
H10I H 0.30040 0.90360 0.24430
C15I C 0.3125(4) 0.9010(5) 0.1590(5)
H11I H 0.31060 0.94130 0.15210
C16I C 0.3203(5) 0.8594(5) 0.1115(5)
C17I C 0.3236(5) 0.8809(5) 0.0571(5)
H12I H 0.32300 0.92140 0.05070
C18I C 0.3279(5) 0.8415(5) 0.0093(5)
H13I H 0.33280 0.85640 -0.02850
C19I C 0.3250(5) 0.7805(5) 0.0176(5)
C20I C 0.3325(5) 0.7415(5) -0.0296(5)
H14I H 0.33990 0.75450 -0.06770
C21I C 0.3278(5) 0.6805(5) -0.0152(6)
H15I H 0.32650 0.65350 -0.04590
C22I C 0.3250(5) 0.6570(5) 0.0479(6)
H16I H 0.32500 0.61700 0.05670
C23I C 0.3217(5) 0.7558(5) 0.0783(5)
C24I C 0.3201(5) 0.7966(5) 0.1240(5)
#END
