
#######################################################################
#
#                 Cambridge Crystallographic Data Centre
#                                CCDC
#
#######################################################################
#
# If this CIF has been generated from an entry in the Cambridge
# Structural Database, then it will include bibliographic, chemical,
# crystal, experimental, refinement or atomic coordinate data resulting
# from the CCDC's data processing and validation procedures.
#
#######################################################################

data_CSD_CIF_QUSRUT
_audit_creation_date 2015-11-02
_audit_creation_method CSD-ConQuest-V1
_database_code_CSD QUSRUT
_database_code_depnum_ccdc_archive 'CCDC 1058992'
_chemical_formula_sum 'C30 H34 N12 O38 U5'
_chemical_formula_moiety
;
(C30 H31 N12 O37 U5 1-)n,n(H3 O1 1+)
;
_journal_coden_Cambridge 9
_journal_volume 54
_journal_year 2015
_journal_page_first 9046
_journal_name_full 'Inorg.Chem. '
loop_
_publ_author_name
"Jian Song"
"Xue Gao"
"Zhi-Nan Wang"
"Cheng-Ren Li"
"Qi Xu"
"Feng-Ying Bai"
"Zhong-Feng Shi"
"Yong-Heng Xing"
_chemical_name_systematic
;
catena-(Oxonium 
(\m~8~-2,2',2'',2''',2'''',2'''''-(1,3,5-triazine-2,4,6-triyltrinitrilo)hexa-a
cetato)-(\m~7~-hydrogen 
2,2',2'',2''',2'''',2'''''-(1,3,5-triazine-2,4,6-triyltrinitrilo)hexa-acetato)
-triaqua-decaoxo-penta-uranium)
;
_cell_volume   3264.217
_exptl_crystal_colour 'yellow'
_exptl_crystal_density_diffrn 2.402
_exptl_crystal_description 'block'
_diffrn_ambient_temperature 293
#These two values have been output from a single CSD field.
_refine_ls_R_factor_gt 0.0549
_refine_ls_wR_factor_gt 0.0549
_symmetry_cell_setting triclinic
_symmetry_space_group_name_H-M 'P -1'
_symmetry_Int_Tables_number 2
loop_
_symmetry_equiv_pos_site_id
_symmetry_equiv_pos_as_xyz
1 x,y,z
2 -x,-y,-z
_cell_length_a 14.533(3)
_cell_length_b 15.479(4)
_cell_length_c 15.666(4)
_cell_angle_alpha 74.643(4)
_cell_angle_beta 74.576(4)
_cell_angle_gamma 81.431(4)
_cell_formula_units_Z 2
loop_
_atom_type_symbol
_atom_type_radius_bond
C 0.68
H 0.23
N 0.68
O 0.68
U 1.96
loop_
_atom_site_label
_atom_site_type_symbol
_atom_site_fract_x
_atom_site_fract_y
_atom_site_fract_z
U1 U 0.45585(4) 0.34330(4) 0.76294(4)
U2 U 0.52106(5) 0.85895(4) 0.82052(4)
U3 U 0.26824(5) 0.92117(4) 0.58451(4)
U4 U 0.84190(4) 0.49701(4) 0.80762(3)
U5 U 0.81348(4) 0.52101(3) 0.43292(3)
C1 C 0.3822(11) 0.5358(10) 0.6085(9)
C2 C 0.4534(11) 0.6039(11) 0.5918(9)
H1 H 0.49950 0.60210 0.53460
H2 H 0.41940 0.66330 0.58460
C3 C 0.6424(10) 0.4797(9) 0.6355(10)
C4 C 0.6102(10) 0.5730(11) 0.6373(10)
H3 H 0.63660 0.61090 0.57810
H4 H 0.63570 0.58910 0.68170
C5 C 0.6685(12) 0.6601(11) 0.8673(10)
C6 C 0.6006(10) 0.5912(10) 0.935(1)
H5 H 0.61250 0.53600 0.91420
H6 H 0.61600 0.57770 0.99400
C7 C 0.4633(11) 0.7265(10) 1.0494(10)
C8 C 0.4434(11) 0.638(1) 1.0356(9)
H7 H 0.45990 0.58920 1.08390
H8 H 0.37550 0.63880 1.03980
C9 C 0.1926(11) 0.7706(11) 0.7145(11)
C10 C 0.1735(10) 0.6774(9) 0.7746(10)
H9 H 0.10490 0.67390 0.79780
H10 H 0.19730 0.63330 0.73830
C11 C 0.1666(10) 0.6204(12) 1.0182(10)
C12 C 0.1709(11) 0.6919(11) 0.9300(11)
H11 H 0.10640 0.71560 0.92510
H12 H 0.20490 0.74100 0.93060
C13 C 0.8822(11) 0.6146(11) 0.5822(10)
C14 C 0.9211(11) 0.7034(10) 0.5409(10)
H13 H 0.87510 0.74920 0.56360
H14 H 0.97930 0.70340 0.56000
C15 C 1.0274(10) 0.6279(9) 0.3366(9)
C16 C 1.0297(10) 0.6989(10) 0.3889(10)
H15 H 1.07250 0.67460 0.42930
H16 H 1.05690 0.75130 0.34520
C17 C 0.6342(13) 0.8969(12) 0.5904(10)
C18 C 0.6082(12) 0.8285(12) 0.5489(11)
H17 H 0.64050 0.77030 0.57020
H18 H 0.53970 0.82310 0.56930
C19 C 0.5732(11) 0.9827(10) 0.3387(11)
C20 C 0.5585(10) 0.8953(11) 0.4019(11)
H19 H 0.54920 0.85410 0.36830
H20 H 0.49940 0.90130 0.44740
C21 C 0.6900(13) 0.7753(11) 0.1641(10)
C22 C 0.7595(12) 0.8486(12) 0.1365(12)
H21 H 0.78330 0.86170 0.07080
H22 H 0.72390 0.90280 0.15180
C23 C 0.3178(9) 0.6374(8) 0.8346(9)
C24 C 0.4567(9) 0.6052(9) 0.7443(9)
C25 C 0.4502(12) 0.6196(9) 0.8814(9)
C26 C 0.8699(10) 0.7703(10) 0.3996(9)
C27 C 0.7201(10) 0.8289(9) 0.4026(9)
C28 C 0.8219(12) 0.8206(10) 0.2675(11)
C29 C 0.9294(13) 0.8023(15) 0.1301(12)
H23 H 0.92930 0.78840 0.07330
H24 H 0.96020 0.75200 0.16740
C30 C 0.973(3) 0.890(2) 0.115(2)
N1 N 0.5047(8) 0.6005(8) 0.8054(8)
N2 N 0.3553(8) 0.6353(7) 0.9022(7)
N3 N 0.3612(8) 0.6238(8) 0.7527(8)
N4 N 0.5041(8) 0.5926(8) 0.6598(7)
N5 N 0.2190(8) 0.6553(8) 0.8513(8)
N6 N 0.4981(8) 0.6213(8) 0.9464(8)
N7 N 0.7870(8) 0.7914(7) 0.4482(7)
N8 N 0.7326(9) 0.8443(8) 0.3114(8)
N9 N 0.8954(8) 0.7885(10) 0.3052(8)
N10 N 0.6346(9) 0.8531(8) 0.4501(8)
N11 N 0.9424(9) 0.7266(8) 0.4402(8)
N12 N 0.8385(9) 0.8290(9) 0.1762(8)
O1 O 0.4037(7) 0.4083(7) 0.8436(7)
O2 O 0.5027(9) 0.2766(10) 0.6859(8)
O3 O 0.5915(9) 0.9246(8) 0.8489(9)
O4 O 0.4496(9) 0.7987(7) 0.7873(8)
O5 O 0.1731(10) 0.9982(8) 0.6233(9)
O6 O 0.3622(9) 0.8412(8) 0.5492(8)
O7 O 0.7284(7) 0.4695(7) 0.8102(7)
O8 O 0.9557(9) 0.5220(9) 0.8050(8)
O9 O 0.7401(7) 0.6212(7) 0.4235(6)
O10 O 0.8850(7) 0.4194(7) 0.4379(7)
O11 O 0.3089(8) 0.5599(7) 0.5786(7)
O12 O 0.4011(8) 0.4559(7) 0.6511(7)
O13 O 0.5962(8) 0.4160(7) 0.6978(8)
O14 O 0.7185(7) 0.4603(7) 0.5824(7)
O15 O 0.7556(7) 0.6299(6) 0.8465(7)
O16 O 0.6384(8) 0.7370(7) 0.8386(8)
O17 O 0.4864(9) 0.7893(7) 0.9843(7)
O18 O 0.4476(7) 0.7287(7) 1.1329(6)
O19 O 0.2378(8) 0.8218(7) 0.7376(7)
O20 O 0.1680(8) 0.7927(8) 0.6407(7)
O21 O 0.1856(8) 0.5409(7) 1.0255(6)
O22 O 0.138(1) 0.6500(8) 1.0912(7)
O23 O 0.8569(10) 0.5961(10) 0.6659(8)
O24 O 0.8793(9) 0.5595(8) 0.5363(7)
O25 O 0.9555(7) 0.5895(8) 0.3484(7)
O26 O 1.1057(8) 0.6117(7) 0.2808(7)
O27 O 0.6297(11) 0.8731(9) 0.6747(8)
O28 O 0.6620(12) 0.9720(8) 0.5430(8)
O29 O 0.6253(10) 1.0312(7) 0.3504(8)
O30 O 0.5273(10) 1.0063(8) 0.280(1)
O31 O 0.7081(8) 0.7017(7) 0.2142(8)
O32 O 0.6134(10) 0.7942(9) 0.1353(10)
O33 O 0.3771(11) 0.9252(10) 0.8997(10)
H25 H 0.35260 0.96620 0.86200
H26 H 0.33820 0.88500 0.92600
O34 O 0.1902(14) 0.9087(10) 0.4679(10)
H27 H 0.20520 0.95080 0.42050
H28 H 0.20870 0.85820 0.45440
O35 O 0.8264(9) 0.5402(9) 0.2703(8)
H29 H 0.87520 0.56840 0.24010
H30 H 0.83280 0.48870 0.25860
O36 O 1.0161(19) 0.9533(17) 0.1141(16)
O37 O 1.053(3) 0.860(3) 0.071(4)
H31 H 1.05240 0.80620 0.07620
O38 O 0.8263(6) 0.0801(6) 0.8452(6)
H32 H 0.81260 0.04790 0.89930
H33 H 0.84320 0.04630 0.80790
H34 H 0.87200 0.11130 0.83920
U1A U 0.54415(4) 0.65670(4) 0.23706(4)
U1A* U 0.54415(4) 0.65670(4) 1.23706(4)
U2A U 0.47894(5) 1.14105(4) 0.17948(4)
U3A U 0.73176(5) 1.07883(4) 0.41549(4)
U4A U 0.15810(4) 0.50299(4) 1.19238(3)
U4A* U 1.15810(4) 0.50299(4) 0.19238(3)
U5A U 0.18652(4) 0.47899(3) 0.56708(3)
O11A O 0.6911(8) 0.4401(7) 0.4214(7)
O18A O 0.5524(7) 0.2713(7) 0.8671(6)
O21A O 0.8144(8) 0.4591(7) 0.9745(6)
O22A O 0.862(1) 0.3500(8) 0.9088(7)
O26A O 0.8943(8) 0.3883(7) 0.7192(7)
O28A O 0.3380(12) 1.0280(8) 0.4570(8)
O29A O 0.3747(10) 0.9688(7) 0.6496(8)
O30A O 0.4727(10) 0.9937(8) 0.720(1)
O31A O 0.2919(8) 0.2983(7) 0.7858(8)
O32A O 0.3866(10) 0.2058(9) 0.8647(10)
#END
