
#######################################################################
#
#                 Cambridge Crystallographic Data Centre
#                                CCDC
#
#######################################################################
#
# If this CIF has been generated from an entry in the Cambridge
# Structural Database, then it will include bibliographic, chemical,
# crystal, experimental, refinement or atomic coordinate data resulting
# from the CCDC's data processing and validation procedures.
#
#######################################################################

data_CSD_CIF_QUSWOT
_audit_creation_date 2020-08-18
_audit_creation_method CSD-ConQuest-V1
_database_code_CSD QUSWOT
_database_code_depnum_ccdc_archive 'CCDC 1866411'
_chemical_formula_sum 'C47 H87 In10 N13 S17'
_chemical_formula_moiety
;
(C2 H2 In10 N3 S17 5-)n,5(C9 H17 N2 1+)
;
_journal_coden_Cambridge 222
_journal_volume 49
_journal_year 2020
_journal_page_first 11489
_journal_name_full 'Dalton Trans. '
loop_
_publ_author_name
"Xiaoshuang Liu"
"Chaozhuang Xue"
"Xiang Wang"
"Jiaxu Zhang"
"Tao Wu"
_chemical_name_systematic
;
catena-[pentakis(2,3,4,6,7,8,9,10-octahydro-1H-pyrimido[1,2-a]azepin-5-ium) 
heptadecakis(\m-sulfido)-(\m-1,2,4-triazolato)-deca-indium(iii) unknown 
;
_cell_volume  15687.149
_exptl_crystal_colour 'colorless'
_exptl_crystal_density_diffrn 2.14
_exptl_crystal_description 'block'
_diffrn_ambient_temperature 120
_refine_special_details
;
Disordered solvent molecules were not modelled and the disordered density was 
taken into account using the SQUEEZE/PLATON procedure.
;
#These two values have been output from a single CSD field.
_refine_ls_R_factor_gt 0.0274
_refine_ls_wR_factor_gt 0.0274
_symmetry_cell_setting orthorhombic
_symmetry_space_group_name_H-M 'P b c a'
_symmetry_Int_Tables_number 61
loop_
_symmetry_equiv_pos_site_id
_symmetry_equiv_pos_as_xyz
1 x,y,z
2 1/2-x,-y,1/2+z
3 -x,1/2+y,1/2-z
4 1/2+x,1/2-y,-z
5 -x,-y,-z
6 -1/2+x,y,-1/2-z
7 x,-1/2-y,-1/2+z
8 -1/2-x,-1/2+y,z
_cell_length_a 20.887(4)
_cell_length_b 22.592(5)
_cell_length_c 33.244(7)
_cell_angle_alpha 90
_cell_angle_beta 90
_cell_angle_gamma 90
_cell_formula_units_Z 8
loop_
_atom_type_symbol
_atom_type_radius_bond
C 0.68
H 0.23
In 1.42
N 0.68
S 1.02
loop_
_atom_site_label
_atom_site_type_symbol
_atom_site_fract_x
_atom_site_fract_y
_atom_site_fract_z
In1 In 0.71172(2) 0.17907(2) 0.43696(2)
In2 In 0.54082(2) 0.80579(2) 0.80168(2)
C1 C 0.6249(3) 0.5398(3) 0.68017(17)
H1 H 0.64958 0.52343 0.65891
In3 In 0.69759(2) 0.73347(2) 0.85441(2)
In4 In 0.51780(2) 0.66895(2) 0.88231(2)
In5 In 0.35750(2) 0.39805(2) 0.61244(2)
In6 In 0.55138(2) 0.19900(2) 0.51331(2)
In7 In 0.87731(2) 0.24060(2) 0.46660(2)
In8 In 0.59935(2) 0.65384(2) 0.78106(2)
In9 In 0.51104(2) 0.44993(2) 0.65973(2)
In10 In 0.53669(2) 0.33073(2) 0.58408(2)
S1 S 0.80365(6) 0.75839(6) 0.87652(4)
S2 S 0.60369(6) 0.14893(6) 0.45669(3)
S3 S 0.25437(6) 0.41826(6) 0.58451(4)
S4 S 0.65002(6) 0.82851(5) 0.82868(3)
S5 S 0.94656(6) 0.27944(6) 0.51774(3)
S6 S 0.71000(6) 0.66180(6) 0.80041(4)
S7 S 0.58854(6) 0.42056(6) 0.60907(4)
S8 S 0.41079(6) 0.48892(6) 0.63459(4)
S9 S 0.52447(6) 0.60290(6) 0.82467(4)
S10 S 0.42709(6) 0.35404(6) 0.55914(3)
S11 S 0.62915(6) 0.68826(5) 0.90766(4)
S12 S 0.55611(6) 0.73865(6) 0.74596(4)
S13 S 0.60593(6) 0.29013(6) 0.53363(4)
S14 S 0.49026(6) 0.89487(6) 0.77769(4)
S15 S 0.77043(6) 0.22611(6) 0.49139(4)
S16 S 0.45601(6) 0.62215(6) 0.93388(4)
S17 S 0.47015(6) 0.76288(5) 0.85572(3)
N1 N 0.56297(19) 0.52629(18) 0.68613(11)
N2 N 0.59886(19) 0.58834(17) 0.73201(11)
C2 C 0.5498(2) 0.5569(2) 0.71901(16)
H2 H 0.50922 0.55632 0.73193
N3 N 0.6480(2) 0.5774(2) 0.70619(15)
N4 N 0.8549(2) 0.6274(2) 0.74059(13)
N5 N 0.8826(2) 0.6164(2) 0.80724(13)
H3 H 0.88081 0.59424 0.82898
C3 C 0.9178(3) 0.6720(3) 0.80928(15)
H4 H 0.96371 0.66485 0.80367
H5 H 0.91404 0.68913 0.83659
C4 C 0.8530(2) 0.5973(2) 0.77430(15)
C5 C 0.8166(3) 0.5408(3) 0.77700(17)
H6 H 0.77266 0.54740 0.76687
H7 H 0.81337 0.52908 0.80563
C6 C 0.8466(3) 0.4901(3) 0.75352(19)
H8 H 0.89364 0.49122 0.75722
H9 H 0.83083 0.45211 0.76449
C7 C 0.8908(3) 0.7144(2) 0.77877(15)
H10 H 0.91818 0.75011 0.77725
H11 H 0.84734 0.72685 0.78706
C8 C 0.8563(3) 0.5484(3) 0.68898(19)
H12 H 0.90313 0.55074 0.69308
H13 H 0.84849 0.54492 0.65969
C9 C 0.8264(3) 0.6050(3) 0.70369(17)
H14 H 0.83063 0.63549 0.68246
H15 H 0.78017 0.59824 0.70829
C10 C 0.8878(3) 0.6851(2) 0.73812(16)
H16 H 0.86474 0.71109 0.71906
H17 H 0.93181 0.67914 0.72777
C11 C 0.8316(3) 0.4929(3) 0.7094(2)
H18 H 0.78465 0.49078 0.70574
H19 H 0.85064 0.45795 0.69596
N6 N 0.6149(2) 0.0039(2) 0.35786(13)
H20 H 0.60407 -0.02868 0.37063
N7 N 0.5928(2) 0.10167(19) 0.34507(12)
C12 C 0.5560(2) 0.1566(2) 0.35297(15)
H21 H 0.58036 0.19074 0.34232
H22 H 0.55175 0.16189 0.38240
C13 C 0.5786(2) 0.0510(2) 0.36242(16)
C14 C 0.4414(3) 0.1216(3) 0.35849(19)
H23 H 0.39923 0.12505 0.34514
H24 H 0.43760 0.13989 0.38546
C15 C 0.4901(3) 0.1564(3) 0.33432(17)
H25 H 0.49286 0.13924 0.30697
H26 H 0.47503 0.19774 0.33162
C16 C 0.6458(3) 0.1062(3) 0.31634(17)
H27 H 0.68381 0.12272 0.33008
H28 H 0.63369 0.13355 0.29436
C17 C 0.5190(3) 0.0445(3) 0.38714(16)
H29 H 0.52128 0.07223 0.41016
H30 H 0.51739 0.00382 0.39812
C18 C 0.6720(3) 0.0030(3) 0.33277(18)
H31 H 0.67899 -0.03729 0.32185
H32 H 0.71002 0.01423 0.34885
C19 C 0.4572(3) 0.0565(3) 0.36364(19)
H33 H 0.46097 0.03816 0.33669
H34 H 0.42118 0.03695 0.37774
C20 C 0.6623(3) 0.0465(3) 0.29881(18)
H35 H 0.70193 0.04952 0.28256
H36 H 0.62729 0.03276 0.28106
N8 N 0.84416(19) 0.63224(19) 0.91497(13)
H37 H 0.83865 0.66108 0.89751
N9 N 0.9116(2) 0.58621(19) 0.96022(12)
C21 C 0.8994(2) 0.6293(2) 0.93439(14)
C22 C 0.7920(3) 0.5903(3) 0.92092(17)
H38 H 0.79541 0.55754 0.90129
H39 H 0.75030 0.61034 0.91686
C23 C 0.7963(3) 0.5667(3) 0.96286(17)
H40 H 0.76451 0.53458 0.96644
H41 H 0.78602 0.59857 0.98224
C24 C 0.9490(2) 0.6745(2) 0.92508(16)
H42 H 0.96525 0.69152 0.95055
H43 H 0.92924 0.70691 0.90936
C25 C 0.9747(2) 0.5816(2) 0.98016(15)
H44 H 0.97221 0.55127 1.00158
H45 H 0.98482 0.61996 0.99313
C26 C 1.0288(2) 0.5655(2) 0.95157(16)
H46 H 1.01314 0.53499 0.93259
H47 H 1.06418 0.54789 0.96731
C27 C 0.8625(3) 0.5431(3) 0.97130(16)
H48 H 0.86634 0.53367 1.00028
H49 H 0.86922 0.50614 0.95591
C28 C 1.0053(3) 0.6486(3) 0.90119(16)
H50 H 0.98848 0.62004 0.88124
H51 H 1.02660 0.68098 0.88622
C29 C 1.0549(2) 0.6175(3) 0.92750(17)
H52 H 1.09003 0.60304 0.91009
H53 H 1.07331 0.64669 0.94642
N10 N 0.6387(2) 0.0230(2) 0.49317(12)
H54 H 0.63714 0.05772 0.48127
N11 N 0.6903(2) -0.0377(2) 0.53850(14)
C30 C 0.6831(3) 0.0142(2) 0.52067(15)
C31 C 0.6435(3) -0.0853(3) 0.53208(19)
H55 H 0.63679 -0.10701 0.55761
H56 H 0.66048 -0.11359 0.51198
C32 C 0.7465(3) -0.0499(3) 0.56495(17)
H57 H 0.75011 -0.09318 0.56925
H58 H 0.78604 -0.03648 0.55126
C33 C 0.7263(3) 0.0657(3) 0.53125(18)
H59 H 0.77110 0.05481 0.52494
H60 H 0.71472 0.10000 0.51421
C34 C 0.5924(3) -0.0216(3) 0.48145(18)
H61 H 0.60895 -0.04521 0.45861
H62 H 0.55177 -0.00265 0.47312
C35 C 0.5813(3) -0.0611(3) 0.5177(2)
H63 H 0.56080 -0.03801 0.53950
H64 H 0.55235 -0.09402 0.51033
C36 C 0.7414(3) -0.0199(3) 0.60459(18)
H65 H 0.76872 -0.04094 0.62428
H66 H 0.69657 -0.02248 0.61412
C37 C 0.7615(3) 0.0453(3) 0.60303(18)
H67 H 0.75796 0.06210 0.63044
H68 H 0.80703 0.04737 0.59498
C38 C 0.7224(3) 0.0836(3) 0.57433(19)
H69 H 0.67696 0.08246 0.58281
H70 H 0.73719 0.12511 0.57677
N12 N 0.6874(2) 0.3397(2) 0.67018(14)
H71 H 0.66368 0.35817 0.65227
N13 N 0.7562(2) 0.2629(2) 0.68473(14)
C39 C 0.8487(3) 0.2229(3) 0.64741(17)
H72 H 0.87918 0.18946 0.64914
H73 H 0.87056 0.25841 0.65821
C40 C 0.8329(3) 0.2339(3) 0.60301(17)
H74 H 0.87300 0.24300 0.58838
H75 H 0.81478 0.19722 0.59134
C41 C 0.7930(3) 0.2096(3) 0.67321(19)
H76 H 0.80801 0.18947 0.69791
H77 H 0.76422 0.18200 0.65877
C42 C 0.7859(3) 0.2841(3) 0.59676(18)
H78 H 0.78023 0.28994 0.56747
H79 H 0.80512 0.32072 0.60774
C43 C 0.7212(3) 0.2927(3) 0.65852(17)
C44 C 0.7483(4) 0.3461(4) 0.7307(2)
H80 H 0.74474 0.35519 0.75973
H81 H 0.78299 0.37104 0.71949
C45 C 0.6882(3) 0.3616(3) 0.71095(18)
H82 H 0.65194 0.34433 0.72611
H83 H 0.68302 0.40516 0.71080
C46 C 0.7205(3) 0.2759(3) 0.61558(17)
H84 H 0.68892 0.30062 0.60107
H85 H 0.70728 0.23404 0.61299
C47 C 0.7659(3) 0.2838(3) 0.72595(17)
H86 H 0.81147 0.27855 0.73339
H87 H 0.73982 0.25944 0.74451
In1A In 0.78828(2) 0.82093(2) 0.93696(2)
In1C In 0.21172(2) 0.32093(2) 0.56304(2)
In5B In 0.64250(2) 0.89805(2) 0.88756(2)
In6B In 0.44862(2) 0.69900(2) 0.98669(2)
In6C In 1.05138(2) 0.30100(2) 0.48669(2)
In7A In 0.62269(2) 0.75940(2) 0.96660(2)
In7C In 0.37731(2) 0.25940(2) 0.53340(2)
In9B In 0.48896(2) 0.94993(2) 0.84027(2)
In10B In 0.46331(2) 0.83073(2) 0.91592(2)
S1A S 0.69635(6) 0.24161(6) 0.37652(4)
S3C S 0.75437(6) 0.08174(6) 0.41549(4)
S4B S 0.34998(6) 0.32851(5) 0.67132(3)
S5C S 0.44656(6) 0.22056(6) 0.48226(3)
S10C S 0.92709(6) 0.14596(6) 0.44086(3)
S11A S 0.87085(6) 0.31174(5) 0.40766(4)
S14B S 0.50974(6) 0.39487(6) 0.72231(4)
S16B S 0.54399(6) 0.12215(6) 0.56612(4)
S17B S 0.52985(6) 0.26288(5) 0.64428(3)
#END
