
#######################################################################
#
#                 Cambridge Crystallographic Data Centre
#                                CCDC
#
#######################################################################
#
# If this CIF has been generated from an entry in the Cambridge
# Structural Database, then it will include bibliographic, chemical,
# crystal, experimental, refinement or atomic coordinate data resulting
# from the CCDC's data processing and validation procedures.
#
#######################################################################

data_CSD_CIF_QUYNIJ
_audit_creation_date 2015-11-05
_audit_creation_method CSD-ConQuest-V1
_database_code_CSD QUYNIJ
_database_code_depnum_ccdc_archive 'CCDC 1404505'
_chemical_formula_sum 'C16 H14 N3 O9 Pr1'
_chemical_formula_moiety
;
(C4 H12 N2 2+)0.5n,n(C14 H8 N2 O9 Pr1 1-)
;
_journal_coden_Cambridge 208
_journal_volume 233
_journal_year 2016
_journal_page_first 415
_journal_name_full 'J.Solid State Chem. '
loop_
_publ_author_name
"B.Ay"
"S.Karaca"
"E.Yildiz"
"V.Lopez"
"M.H.Nanao"
"J.Zubieta"
_chemical_name_systematic
;
catena-[hemikis(Piperazinediium) 
bis(\m~2~-pyridine-2,6-dicarboxylato)-aqua-praseodymium(iii)]
;
_chemical_melting_point 573
_cell_volume    851.927
_exptl_special_details
;
Melts above 573K
Isomorphous with the Ce and Eu analogues.

;
_diffrn_ambient_temperature 293
_diffrn_radiation_probe x-ray
_diffrn_source synchrotron
#These two values have been output from a single CSD field.
_refine_ls_R_factor_gt 0.0797
_refine_ls_wR_factor_gt 0.0797
_symmetry_cell_setting triclinic
_symmetry_space_group_name_H-M 'P -1'
_symmetry_Int_Tables_number 2
loop_
_symmetry_equiv_pos_site_id
_symmetry_equiv_pos_as_xyz
1 x,y,z
2 -x,-y,-z
_cell_length_a 6.9700(14)
_cell_length_b 10.900(2)
_cell_length_c 12.330(3)
_cell_angle_alpha 112.70(3)
_cell_angle_beta 95.85(3)
_cell_angle_gamma 94.80(3)
_cell_formula_units_Z 2
loop_
_atom_type_symbol
_atom_type_radius_bond
C 0.68
H 0.23
N 0.68
O 0.68
Pr 2.03
loop_
_atom_site_label
_atom_site_type_symbol
_atom_site_fract_x
_atom_site_fract_y
_atom_site_fract_z
Pr1 Pr 0.15118(5) 0.17870(3) 0.14117(3)
O1 O 0.0783(9) 0.0440(5) -0.0810(5)
O2 O 0.2140(9) 0.4252(5) 0.2373(4)
O3 O 0.2846(9) 0.2058(6) 0.3449(5)
O4 O -0.1895(9) 0.2199(5) 0.0810(5)
O5 O 0.3498(11) -0.0169(6) 0.1199(6)
N1 N 0.1753(10) 0.3101(6) 0.0052(5)
N2 N -0.0685(11) 0.2662(6) 0.3050(7)
O6 O 0.5017(10) 0.2314(6) 0.1173(5)
C1 C 0.0932(18) 0.0929(11) -0.1602(10)
C2 C 0.2424(16) 0.5080(8) 0.1888(8)
C3 C 0.1523(11) 0.2422(7) -0.1146(6)
C4 C 0.2249(12) 0.4415(7) 0.0549(7)
C5 C 0.6827(16) 0.2478(7) 0.1506(7)
O7 O 0.0566(11) 0.0270(7) -0.2695(5)
O8 O 0.2809(9) 0.6290(5) 0.2375(5)
C6 C 0.1803(13) 0.3084(7) -0.1876(6)
C7 C 0.2581(13) 0.5138(8) -0.0168(7)
C8 C 0.7580(16) 0.3003(9) 0.2824(9)
H1 H 0.15920 0.26130 -0.26970
C9 C 0.2402(14) 0.4454(8) -0.1388(7)
H2 H 0.29160 0.60650 0.01790
C10 C 0.6519(17) 0.3698(9) 0.3681(10)
H3 H 0.26780 0.49050 -0.18700
C11 C 1.0070(15) 0.2934(8) 0.4168(9)
C12 C 0.7306(15) 0.4038(7) 0.4881(8)
H4 H 0.53260 0.39390 0.34820
C13 C 1.1962(18) 0.2493(10) 0.4354(10)
C14 C 0.9055(17) 0.3630(8) 0.5141(9)
H5 H 0.66490 0.45340 0.54910
O9 O 1.2589(11) 0.2532(8) 0.5365(6)
H6 H 0.95610 0.37990 0.59200
N3 N 0.5741(13) 0.1413(7) 0.5611(6)
C15 C 0.4833(15) -0.0580(8) 0.3705(7)
H7 H 0.37070 -0.02200 0.34770
H8 H 0.53090 -0.11390 0.29880
C16 C 0.6440(14) 0.0582(8) 0.4495(8)
H9 H 0.75950 0.02200 0.46790
H10 H 0.67840 0.11350 0.40690
O1A O -0.0783(9) -0.0440(5) 0.0810(5)
Pr1A Pr -0.15118(5) -0.17870(3) -0.14117(3)
O4* O 0.8105(9) 0.2199(5) 0.0810(5)
Pr1* Pr 1.15118(5) 0.17870(3) 0.14117(3)
N2* N 0.9315(11) 0.2662(6) 0.3050(7)
O3* O 1.2846(9) 0.2058(6) 0.3449(5)
N3A N 0.4259(13) -0.1413(7) 0.4389(6)
C15A C 0.5167(15) 0.0580(8) 0.6295(7)
H7A H 0.62930 0.02200 0.65230
H8A H 0.46910 0.11390 0.70120
C16A C 0.3560(14) -0.0582(8) 0.5505(8)
H9A H 0.24050 -0.02200 0.53210
H10A H 0.32160 -0.11350 0.59310
#END
