
#######################################################################
#
#                 Cambridge Crystallographic Data Centre
#                                CCDC
#
#######################################################################
#
# If this CIF has been generated from an entry in the Cambridge
# Structural Database, then it will include bibliographic, chemical,
# crystal, experimental, refinement or atomic coordinate data resulting
# from the CCDC's data processing and validation procedures.
#
#######################################################################

data_CSD_CIF_RABFOR
_audit_creation_date 2011-02-15
_audit_creation_method CSD-ConQuest-V1
_database_code_CSD RABFOR
_database_code_depnum_ccdc_archive 'CCDC 776029'
_chemical_formula_sum 'C6 H6 N1 O14 U2'
_chemical_formula_moiety
;
(C6 O13 U2 1-)n,n(H4 N1 1+),n(H2 O1)
;
_journal_coden_Cambridge 9
_journal_volume 49
_journal_year 2010
_journal_page_first 6716
_journal_name_full 'Inorg.Chem. '
loop_
_publ_author_name
"C.E.Rowland"
"C.L.Cahill"
_chemical_name_systematic
;
catena-((\m~4~-squarato-O,O')-(\m~2~-oxalato)-(\m~2~-oxo)-tetraoxo-di-uranium(
vi) ammonium monohydrate)
;
_cell_volume   1437.040
_exptl_crystal_colour 'yellow'
_exptl_crystal_density_diffrn 3.642
_exptl_special_details
;
P21/n polymorph

;
_exptl_crystal_description 'block'
_diffrn_ambient_temperature 100
#These two values have been output from a single CSD field.
_refine_ls_R_factor_gt 0.018
_refine_ls_wR_factor_gt 0.018
_symmetry_cell_setting monoclinic
_symmetry_space_group_name_H-M 'P 21/n'
_symmetry_Int_Tables_number 14
loop_
_symmetry_equiv_pos_site_id
_symmetry_equiv_pos_as_xyz
1 x,y,z
2 1/2-x,1/2+y,1/2-z
3 -x,-y,-z
4 -1/2+x,-1/2-y,-1/2+z
_cell_length_a 9.0601(7)
_cell_length_b 15.7299(12)
_cell_length_c 10.5108(8)
_cell_angle_alpha 90
_cell_angle_beta 106.394(1)
_cell_angle_gamma 90
_cell_formula_units_Z 4
loop_
_atom_type_symbol
_atom_type_radius_bond
C 0.68
N 0.68
O 0.68
U 1.48
loop_
_atom_site_label
_atom_site_type_symbol
_atom_site_fract_x
_atom_site_fract_y
_atom_site_fract_z
U1 U 0.773773(18) 0.127968(10) 0.955965(15)
U2 U 0.779612(18) 0.127104(10) 1.551462(15)
O1 O 0.8443(4) 0.21178(19) 1.3777(3)
O2 O 0.8421(4) 0.04374(19) 1.3742(3)
O3 O 0.7635(4) -0.02216(19) 0.5946(3)
C1 C 0.7575(6) -0.0764(3) 0.6806(5)
O4 O 0.7328(4) -0.22421(19) 0.9013(3)
C2 C 0.7446(6) -0.1697(3) 0.8167(5)
O5 O 0.9723(4) 0.1287(2) 1.6517(3)
O6 O 0.5874(4) 0.1264(2) 1.4487(3)
O7 O 0.6835(4) 0.12518(18) 0.7304(3)
C3 C 0.8452(5) 0.1775(3) 1.2707(5)
C4 C 0.8483(5) 0.0797(3) 1.2700(5)
O8 O 0.8441(4) 0.21373(19) 1.1640(3)
O9 O 0.8542(4) 0.0465(2) 1.1625(3)
O10 O 0.7488(4) -0.02145(19) 0.9049(3)
C5 C 0.7521(6) -0.0760(3) 0.8189(4)
O11 O 0.7530(4) -0.22373(19) 0.5930(3)
C6 C 0.7514(6) -0.1695(3) 0.6799(5)
O12 O 0.9656(4) 0.1302(2) 0.9455(3)
O13 O 0.5835(4) 0.1249(2) 0.9697(3)
N1 N 0.3769(4) 0.1097(2) 1.6482(3)
O14 O 0.7491(3) -0.11856(17) 1.1360(3)
U1A U 0.726227(18) -0.372032(10) 0.544035(15)
U2* U 0.779612(18) 0.127104(10) 0.551462(15)
U2A U 0.720388(18) -0.372896(10) 0.948538(15)
O3* O 0.7635(4) -0.02216(19) 1.5946(3)
O4A O 0.7672(4) 0.27579(19) 1.5987(3)
O7* O 0.6835(4) 0.12518(18) 1.7304(3)
O11A O 0.7470(4) 0.27627(19) 0.9070(3)
#END
