
#######################################################################
#
#                 Cambridge Crystallographic Data Centre
#                                CCDC
#
#######################################################################
#
# If this CIF has been generated from an entry in the Cambridge
# Structural Database, then it will include bibliographic, chemical,
# crystal, experimental, refinement or atomic coordinate data resulting
# from the CCDC's data processing and validation procedures.
#
#######################################################################

data_CSD_CIF_RABFOR01
_audit_creation_date 2011-02-15
_audit_creation_method CSD-ConQuest-V1
_database_code_CSD RABFOR01
_database_code_depnum_ccdc_archive 'CCDC 776030'
_chemical_formula_sum 'C6 H6 N1 O14 U2'
_chemical_formula_moiety
;
(C6 O13 U2 1-)n,n(H4 N1 1+),n(H2 O1)
;
_journal_coden_Cambridge 9
_journal_volume 49
_journal_year 2010
_journal_page_first 6716
_journal_name_full 'Inorg.Chem. '
loop_
_publ_author_name
"C.E.Rowland"
"C.L.Cahill"
_chemical_name_systematic
;
catena-((\m~4~-squarato-O,O')-(\m~2~-oxalato)-(\m~2~-oxo)-tetraoxo-di-uranium(
vi) ammonium monohydrate)
;
_cell_volume    664.116
_exptl_crystal_colour 'yellow'
_exptl_crystal_density_diffrn 3.927
_exptl_special_details
;
P21/m polymorph

;
_exptl_crystal_description 'block'
_diffrn_ambient_temperature 100
#These two values have been output from a single CSD field.
_refine_ls_R_factor_gt 0.0382
_refine_ls_wR_factor_gt 0.0382
_symmetry_cell_setting monoclinic
_symmetry_space_group_name_H-M 'P 21/m'
_symmetry_Int_Tables_number 11
loop_
_symmetry_equiv_pos_site_id
_symmetry_equiv_pos_as_xyz
1 x,y,z
2 -x,1/2+y,-z
3 -x,-y,-z
4 x,-1/2-y,z
_cell_length_a 8.4469(6)
_cell_length_b 7.7589(5)
_cell_length_c 10.5257(7)
_cell_angle_alpha 90
_cell_angle_beta 105.696(1)
_cell_angle_gamma 90
_cell_formula_units_Z 2
loop_
_atom_type_symbol
_atom_type_radius_bond
C 0.68
N 0.68
O 0.68
U 1.49
loop_
_atom_site_label
_atom_site_type_symbol
_atom_site_fract_x
_atom_site_fract_y
_atom_site_fract_z
U1 U 0.27158(5) 0.25000 0.06539(4)
U2 U 0.24674(6) 0.25000 0.46412(4)
O1 O 0.4787(11) 0.25000 0.1704(8)
O2 O 0.0652(12) 0.25000 -0.0379(8)
O3 O 0.1576(12) 0.25000 0.2399(8)
O4 O 0.2617(8) -0.0474(8) 0.1099(6)
O5 O 0.3334(7) 0.0791(8) -0.1136(6)
O6 O 0.4545(11) 0.25000 0.4563(9)
O7 O 0.0378(12) 0.25000 0.4717(9)
O8 O 0.3183(9) 0.0786(8) -0.3313(5)
O9 O 0.2285(8) -0.0493(8) 0.4173(5)
C1 C 0.2513(9) -0.1559(11) 0.1946(8)
C2 C 0.2377(10) -0.1573(11) 0.3304(7)
C3 C 0.3288(11) 0.1505(10) -0.2205(7)
N1 N -0.1710(12) 0.25000 0.1749(10)
O10 O -0.2804(11) 0.25000 0.3698(8)
U1* U 0.27158(5) -0.75000 0.06539(4)
U2* U 0.24674(6) 0.25000 -0.53588(4)
U2** U 0.24674(6) -0.75000 0.46412(4)
O4C O 0.2617(8) -0.4526(8) 0.1099(6)
O4C* O 0.2617(8) 0.5474(8) 0.1099(6)
O5C O 0.3334(7) 0.4209(8) -0.1136(6)
O8C O 0.3183(9) 0.4214(8) -0.3313(5)
O8* O 0.3183(9) 0.0786(8) 0.6687(5)
O8C* O 0.3183(9) 0.4214(8) 0.6687(5)
O9C O 0.2285(8) -0.4507(8) 0.4173(5)
O9C* O 0.2285(8) 0.5493(8) 0.4173(5)
C1C C 0.2513(9) -0.3441(11) 0.1946(8)
C2C C 0.2377(10) -0.3427(11) 0.3304(7)
C3C C 0.3288(11) 0.3495(10) -0.2205(7)
#END
