
#######################################################################
#
#                 Cambridge Crystallographic Data Centre
#                                CCDC
#
#######################################################################
#
# If this CIF has been generated from an entry in the Cambridge
# Structural Database, then it will include bibliographic, chemical,
# crystal, experimental, refinement or atomic coordinate data resulting
# from the CCDC's data processing and validation procedures.
#
#######################################################################

data_CSD_CIF_RABYOE
_audit_creation_date 1996-08-07
_audit_creation_method CSD-ConQuest-V1
_database_code_CSD RABYOE
_chemical_formula_sum 'C8 H32 Cs2 N5 P7'
_chemical_formula_moiety
;
(C8 H20 N1 1+)n,4n(H3 N1),n(Cs2 P7 1-)
;
_journal_coden_Cambridge 186
_journal_year 1996
_journal_page_first 1653
_journal_name_full 'J.Chem.Soc.,Dalton Trans. '
loop_
_publ_author_name
"N.Korber"
"J.Daniels"
_chemical_name_systematic
;
catena-(Tetraethylammonium tetraammonia 
(\m~5~-heptaphosphanortricyclane)-di-cesium)
;
_cell_volume   4974.396
_exptl_crystal_colour 'pale yellow'
_exptl_crystal_density_diffrn 1.819
_exptl_special_details
;
Highly air- and moisture-sensitive

;
_diffrn_ambient_temperature 123
#These two values have been output from a single CSD field.
_refine_ls_R_factor_gt 0.0594
_refine_ls_wR_factor_gt 0.0594
_symmetry_cell_setting orthorhombic
_symmetry_space_group_name_H-M 'P b c a'
_symmetry_Int_Tables_number 61
loop_
_symmetry_equiv_pos_site_id
_symmetry_equiv_pos_as_xyz
1 x,y,z
2 1/2-x,-y,1/2+z
3 1/2+x,1/2-y,-z
4 -x,1/2+y,1/2-z
5 -x,-y,-z
6 -1/2+x,y,-1/2-z
7 -1/2-x,-1/2+y,z
8 x,-1/2-y,-1/2+z
_cell_length_a 22.378(4)
_cell_length_b 13.023(2)
_cell_length_c 17.069(6)
_cell_angle_alpha 90
_cell_angle_beta 90
_cell_angle_gamma 90
_cell_formula_units_Z 8
loop_
_atom_type_symbol
_atom_type_radius_bond
C 0.65
H 0.23
Cs 2.16
N 0.88
P 1.26
loop_
_atom_site_label
_atom_site_type_symbol
_atom_site_fract_x
_atom_site_fract_y
_atom_site_fract_z
Cs1 Cs 0.0289(1) 0.0348(1) -0.1540(1)
Cs2 Cs -0.0594(1) -0.3988(1) 0.0821(1)
P1 P 0.0177(1) -0.2158(2) -0.0466(2)
P2 P -0.0111(1) -0.2162(2) -0.2411(2)
P3 P -0.0513(1) -0.4193(2) -0.1318(2)
P4 P 0.0238(1) -0.3151(2) -0.1490(2)
P5 P -0.0732(1) -0.1720(2) -0.0567(2)
P6 P -0.0932(1) -0.1731(2) -0.1878(2)
P7 P -0.1196(1) -0.3096(2) -0.1136(2)
N1 N -0.1780(3) 0.3104(6) -0.1332(5)
N2 N 0.1565(5) -0.0351(9) -0.0444(7)
N3 N -0.1761(5) 0.0274(9) -0.3087(7)
N4 N -0.2141(5) -0.1361(10) -0.4471(7)
N5 N 0.1806(7) 0.1155(10) -0.1940(8)
C1 C -0.2422(4) 0.3425(8) -0.1280(7)
C2 C -0.1781(4) 0.1934(8) -0.1325(7)
C3 C -0.1425(4) 0.3524(8) -0.0661(7)
C4 C -0.1491(5) 0.3506(8) -0.2082(7)
C5 C -0.2520(5) 0.4573(9) -0.1261(8)
C6 C -0.1159(4) 0.1441(9) -0.1416(6)
C7 C -0.1666(6) 0.3297(9) 0.0134(7)
C8 C -0.1792(6) 0.3189(10) -0.2830(8)
H1 H 0.1676(58) -0.0086(79) -0.0882(38)
H2 H 0.1318(46) -0.0853(68) -0.0495(63)
H3 H 0.1452(53) 0.0096(65) -0.0101(55)
H4 H -0.1640(57) -0.0081(71) -0.2694(50)
H5 H -0.1556(51) 0.0814(62) -0.3185(60)
H6 H -0.1847(59) -0.0087(71) -0.3491(40)
H7 H -0.1942(54) -0.1443(74) -0.4895(45)
H8 H -0.2099(62) -0.0787(48) -0.4237(54)
H9 H -0.2152(62) -0.1889(52) -0.4171(50)
H10 H 0.1601(44) 0.1092(93) -0.2365(45)
H11 H 0.2184(20) 0.1071(98) -0.2013(68)
H12 H 0.1727(47) 0.1712(64) -0.1687(65)
H13 H -0.2639(4) 0.3138(8) -0.1735(7)
H14 H -0.2599(4) 0.3122(8) -0.0801(7)
H15 H -0.1959(4) 0.1696(8) -0.0826(7)
H16 H -0.2041(4) 0.1688(8) -0.1756(7)
H17 H -0.1397(4) 0.4279(8) -0.0721(7)
H18 H -0.1014(4) 0.3246(8) -0.0693(7)
H19 H -0.1484(5) 0.4266(8) -0.2059(7)
H20 H -0.1071(5) 0.3267(8) -0.2098(7)
H21 H -0.2947(7) 0.4717(9) -0.1198(49)
H22 H -0.2378(34) 0.4876(12) -0.1752(21)
H23 H -0.2299(30) 0.4869(12) -0.0820(29)
H24 H -0.1201(5) 0.0694(9) -0.1455(40)
H25 H -0.0913(11) 0.1611(45) -0.096(2)
H26 H -0.0967(13) 0.1704(40) -0.1892(23)
H27 H -0.1394(19) 0.3573(55) 0.0532(7)
H28 H -0.2060(17) 0.3616(53) 0.0192(18)
H29 H -0.1702(34) 0.2552(9) 0.0201(19)
H30 H -0.1534(18) 0.3358(62) -0.3275(8)
H31 H -0.1866(36) 0.2447(15) -0.2820(23)
H32 H -0.2173(20) 0.3555(52) -0.2882(26)
P2C P 0.0111(1) 0.2838(2) -0.2589(2)
Cs2D Cs 0.0594(1) -0.6012(1) -0.0821(1)
P2G P -0.0111(1) -0.2838(2) 0.2589(2)
P3D P 0.0513(1) -0.5807(2) 0.1318(2)
P3C P 0.0513(1) 0.0807(2) -0.3682(2)
Cs1C Cs -0.0289(1) -0.4652(1) -0.3460(1)
Cs2G Cs -0.0594(1) -0.1012(1) -0.4179(1)
#END
