
#######################################################################
#
#                 Cambridge Crystallographic Data Centre
#                                CCDC
#
#######################################################################
#
# If this CIF has been generated from an entry in the Cambridge
# Structural Database, then it will include bibliographic, chemical,
# crystal, experimental, refinement or atomic coordinate data resulting
# from the CCDC's data processing and validation procedures.
#
#######################################################################

data_CSD_CIF_RACPAP
_audit_creation_date 2015-12-04
_audit_creation_method CSD-ConQuest-V1
_database_code_CSD RACPAP
_database_code_depnum_ccdc_archive 'CCDC 1416215'
_chemical_formula_sum 'C32 H130 Cu7 Er2 N26 O102 Si2 W22'
_chemical_formula_moiety
;
(C22 H64 Cu5 Er2 N16 O90 Si2 W22 6-)n,2(C4 H18 Cu1 N4 O1 2+),C2 H10 N2 
2+,10(H2 O1)
;
_journal_coden_Cambridge 1295
_journal_volume 63
_journal_year 2016
_journal_page_first 65
_journal_name_full 'Inorg.Chem.Commun. '
loop_
_publ_author_name
"Zhi-Hui Zhang"
"Zhong Zhang"
"Bai-Feng Yang"
"Huan He"
"Guo-Yu Yang"
_chemical_name_systematic
;
catena-[bis(bis(ethane-1,2-diamine)-aqua-copper) ethane-1,2-bis(aminium) 
bis(\m-silicato)-tris(\m-oxalato)-pentacontakis(\m-oxido)-octakis(ethane-1,2-d
iamine)-icosaoxo-penta-copper-di-erbium-docosa-tungsten decahydrate]
;
_cell_volume   3243.435
_exptl_crystal_colour 'blue'
_exptl_crystal_density_diffrn 3.76
_exptl_crystal_description 'block'
_diffrn_ambient_temperature 293
_refine_special_details
;
The structure is disordered.

;
#These two values have been output from a single CSD field.
_refine_ls_R_factor_gt 0.027
_refine_ls_wR_factor_gt 0.027
_symmetry_cell_setting triclinic
_symmetry_space_group_name_H-M 'P -1'
_symmetry_Int_Tables_number 2
loop_
_symmetry_equiv_pos_site_id
_symmetry_equiv_pos_as_xyz
1 x,y,z
2 -x,-y,-z
_cell_length_a 12.8762(3)
_cell_length_b 13.9073(4)
_cell_length_c 18.5025(5)
_cell_angle_alpha 83.907(2)
_cell_angle_beta 80.731(2)
_cell_angle_gamma 85.040(2)
_cell_formula_units_Z 1
loop_
_atom_type_symbol
_atom_type_radius_bond
C 0.68
H 0.23
Cu 1.32
Er 1.89
N 0.68
O 0.68
Si 1.20
W 1.62
loop_
_atom_site_label
_atom_site_type_symbol
_atom_site_fract_x
_atom_site_fract_y
_atom_site_fract_z
O1 O 0.5277(12) 0.3674(17) 0.6398(10)
C1 C 0.2936(16) 0.2373(14) -0.2941(11)
H1 H 0.29560 0.29820 -0.32500
H2 H 0.28490 0.18680 -0.32450
C2 C 0.2054(18) 0.2431(14) -0.2386(13)
H3 H 0.17080 0.18300 -0.23370
H4 H 0.15600 0.29480 -0.25440
C3 C 0.5387(9) 0.2234(7) -0.0854(6)
C4 C 0.4353(8) 0.2293(7) -0.0304(7)
C5 C 0.5463(6) 0.5027(7) -0.0314(5)
Cu1 Cu 0.3550(12) 0.2054(11) -0.1468(7)
Er1 Er 0.59827(3) 0.29710(3) 0.05913(2)
N1 N 0.3944(12) 0.2171(11) -0.2669(9)
H5 H 0.45610 0.21110 -0.29270
N2 N 0.2267(8) 0.2602(7) -0.1678(6)
H6 H 0.18340 0.29310 -0.13770
O2 O 0.8927(4) 0.3669(4) 0.1154(3)
O3 O 0.9791(4) 0.1972(4) 0.1538(3)
O4 O 0.8701(4) 0.4929(4) 0.2880(3)
O5 O 0.8354(4) 0.0256(4) 0.2147(3)
O6 O 0.8604(4) 0.1106(4) 0.0748(3)
O7 O 0.7191(4) 0.0296(4) 0.3440(3)
O8 O 0.9825(4) 0.3414(4) 0.2325(3)
O9 O 0.5293(4) 0.4065(4) 0.2562(3)
O10 O 1.0063(4) 0.2187(4) 0.3493(3)
O11 O 0.8412(4) 0.1928(4) 0.2925(3)
O12 O 0.7795(4) 0.5250(4) 0.1680(3)
O13 O 0.7229(4) 0.2019(4) 0.4372(3)
O14 O 0.9901(4) 0.2516(4) 0.0027(3)
O15 O 0.8843(4) 0.0717(4) 0.4017(3)
O16 O 0.6306(4) 0.0558(4) 0.2258(3)
O17 O 0.5145(4) 0.2615(4) 0.1760(3)
O18 O 1.0049(4) 0.0692(4) 0.2723(3)
O19 O 0.5267(5) 0.2594(4) 0.5193(3)
O20 O 0.6459(4) 0.1320(4) 0.0821(3)
O21 O 0.7552(4) 0.3646(4) 0.2508(3)
O22 O 0.6329(4) 0.2215(4) 0.3016(3)
O23 O 0.7572(4) 0.2148(4) 0.1703(3)
O24 O 0.4585(4) 0.1447(4) 0.3019(3)
O25 O 0.6496(4) 0.4104(4) 0.1235(3)
O26 O 0.7408(5) -0.0483(4) 0.1116(4)
O27 O 0.4658(4) 0.2917(4) 0.3799(3)
O28 O 0.7780(4) 0.2892(4) 0.0269(3)
O29 O 0.6604(4) 0.5229(4) 0.2977(3)
O30 O 1.1538(4) 0.2009(4) 0.2238(4)
O31 O 0.9017(5) -0.0986(4) 0.3293(4)
O32 O 0.6150(4) 0.4327(4) -0.0346(3)
O33 O 0.5210(4) -0.0439(4) 0.3513(4)
O34 O 0.6391(4) 0.3724(4) 0.4009(3)
O35 O 0.3374(4) 0.3160(4) 0.2707(4)
O36 O 0.8419(4) 0.3434(4) 0.3868(3)
O37 O 0.5529(4) 0.1166(4) 0.4204(3)
O38 O 0.7550(5) 0.5284(4) 0.4219(4)
O39 O 0.9945(4) 0.5239(4) 0.1503(4)
O40 O 0.5450(4) 0.5779(4) -0.0754(4)
O41 O 0.5671(5) 0.5866(4) 0.1712(4)
O42 O 0.9092(5) 0.2073(5) 0.4964(4)
O43 O 0.6206(5) 0.2361(5) -0.0627(4)
O44 O 0.4417(5) 0.2414(5) 0.0341(4)
O45 O 0.3516(6) 0.2213(6) -0.0549(5)
O46 O 0.5295(7) 0.2068(6) -0.1499(5)
Si1 Si 0.74590(15) 0.24864(15) 0.25222(12)
W1 W 0.88459(2) 0.24643(2) 0.074484(19)
W2 W 0.87185(3) 0.20943(2) 0.41062(2)
W3 W 0.90021(3) 0.44713(2) 0.19151(2)
W4 W 0.57904(3) 0.25035(3) 0.42806(2)
W5 W 0.57670(3) 0.06541(2) 0.32680(2)
W6 W 1.01917(2) 0.20420(2) 0.24288(2)
W7 W 0.73304(3) 0.06871(2) 0.13805(2)
W8 W 0.74857(3) 0.45188(2) 0.35595(2)
W9 W 0.63643(3) 0.48125(2) 0.19860(2)
W10 W 0.46995(2) 0.28314(2) 0.26860(2)
W11 W 0.86579(2) 0.02284(2) 0.30746(2)
C6 C 0.8061(8) 0.6010(7) -0.0034(6)
H7 H 0.73470 0.60820 0.02280
H8 H 0.85430 0.61510 0.02870
C7 C 0.8175(7) 0.6679(7) -0.0704(6)
H9 H 0.89130 0.66910 -0.09180
H10 H 0.79170 0.73290 -0.05870
C8 C 0.7246(12) 0.3843(9) -0.2319(8)
H11 H 0.72980 0.38640 -0.28490
H12 H 0.66600 0.34630 -0.20950
C9 C 0.8255(13) 0.3392(9) -0.2078(7)
H13 H 0.83330 0.27080 -0.21520
H14 H 0.88530 0.37010 -0.23690
Cu2 Cu 0.77162(9) 0.49013(8) -0.11738(7)
N3 N 0.8300(6) 0.5004(5) -0.0248(5)
H15 H 0.86340 0.45430 -0.00120
N4 N 0.7562(5) 0.6352(5) -0.1234(5)
H16 H 0.72010 0.67220 -0.15200
N5 N 0.7077(8) 0.4823(7) -0.2089(6)
H17 H 0.67500 0.53010 -0.23120
N6 N 0.8233(6) 0.3511(6) -0.1312(5)
H18 H 0.84050 0.30740 -0.09780
C10 C 1.0916(13) -0.0757(13) 0.1244(10)
H19 H 1.06660 -0.05690 0.17360
H20 H 1.13210 -0.13750 0.12970
C11 C 1.1594(12) -0.0084(12) 0.0887(9)
H21 H 1.22310 -0.04300 0.06620
H22 H 1.17900 0.02880 0.12520
Cu3 Cu 1.00000 0.00000 0.00000
N7 N 1.0026(7) -0.0905(6) 0.0923(5)
H23 H 0.95670 -0.13180 0.10940
N8 N 1.1206(6) 0.0576(6) 0.0334(5)
H24 H 1.14460 0.11280 0.01690
C12 C 0.3096(14) -0.1547(10) 0.3167(8)
H25 H 0.38030 -0.17940 0.29760
H26 H 0.26440 -0.20810 0.32170
C13 C 0.277(2) -0.087(1) 0.2661(9)
H27 H 0.21510 -0.10910 0.25130
H28 H 0.33170 -0.08580 0.22330
C14 C 0.2026(8) 0.1761(8) 0.4711(7)
H29 H 0.13680 0.15030 0.49510
H30 H 0.19770 0.24520 0.47580
C15 C 0.2923(8) 0.1275(8) 0.5067(6)
H31 H 0.35650 0.15960 0.48820
H32 H 0.27720 0.12980 0.55960
Cu4 Cu 0.26608(9) 0.01657(8) 0.38903(7)
N9 N 0.3111(6) -0.1263(6) 0.3883(4)
H33 H 0.32830 -0.16380 0.42520
N10 N 0.2523(7) 0.0107(6) 0.2834(5)
H34 H 0.23450 0.05880 0.25360
N11 N 0.2210(6) 0.1585(6) 0.3932(5)
H35 H 0.21390 0.20060 0.35650
N12 N 0.3046(6) 0.0247(6) 0.4880(5)
H36 H 0.32540 -0.02400 0.51610
O47 O 0.0857(5) -0.0165(5) 0.4266(4)
C16 C 1.0094(11) 0.5523(9) 0.4824(8)
H37 H 0.96690 0.59850 0.51260
H38 H 1.08300 0.56440 0.48020
N13 N 0.9813(8) 0.5652(8) 0.4078(6)
H39 H 1.02390 0.52600 0.37920
H40 H 0.98820 0.62640 0.38930
H41 H 0.91480 0.55090 0.40970
O48 O 0.0333(6) 0.7487(6) 0.3700(5)
O49 O 0.2734(8) 0.4066(8) 0.4248(7)
O50 O 0.1130(7) 0.4238(7) 0.3344(6)
O51 O 0.4061(9) 0.0653(9) 0.1495(6)
Cu5? Cu 0.3914(10) 0.2374(8) -0.1701(7)
C5A C 0.4537(6) 0.4973(7) 0.0314(5)
O32A O 0.3850(4) 0.5673(4) 0.0346(3)
O40A O 0.4550(4) 0.4221(4) 0.0754(4)
C1A C 0.7064(16) -0.2373(14) 0.2941(11)
H1A H 0.70440 -0.29820 0.32500
H2A H 0.71510 -0.18680 0.32450
C2A C 0.7946(18) -0.2431(14) 0.2386(13)
H3A H 0.82920 -0.18300 0.23370
H4A H 0.84400 -0.29480 0.25440
C3A C 0.4613(9) -0.2234(7) 0.0854(6)
C4A C 0.5647(8) -0.2293(7) 0.0304(7)
Cu1A Cu 0.6450(12) -0.2054(11) 0.1468(7)
Er1A Er 0.40173(3) -0.29710(3) -0.05913(2)
N1A N 0.6056(12) -0.2171(11) 0.2669(9)
H5A H 0.54390 -0.21110 0.29270
N2A N 0.7733(8) -0.2602(7) 0.1678(6)
H6A H 0.81660 -0.29310 0.13770
O2A O 0.1073(4) -0.3669(4) -0.1154(3)
O3A O 0.0209(4) -0.1972(4) -0.1538(3)
O4A O 0.1299(4) -0.4929(4) -0.2880(3)
O5A O 0.1646(4) -0.0256(4) -0.2147(3)
O6A O 0.1396(4) -0.1106(4) -0.0748(3)
O7A O 0.2809(4) -0.0296(4) -0.3440(3)
O8A O 0.0175(4) -0.3414(4) -0.2325(3)
O9A O 0.4707(4) -0.4065(4) -0.2562(3)
O10A O -0.0063(4) -0.2187(4) -0.3493(3)
O11A O 0.1588(4) -0.1928(4) -0.2925(3)
O12A O 0.2205(4) -0.5250(4) -0.1680(3)
O13A O 0.2771(4) -0.2019(4) -0.4372(3)
O14A O 0.0099(4) -0.2516(4) -0.0027(3)
O15A O 0.1157(4) -0.0717(4) -0.4017(3)
O16A O 0.3694(4) -0.0558(4) -0.2258(3)
O17A O 0.4855(4) -0.2615(4) -0.1760(3)
O18A O -0.0049(4) -0.0692(4) -0.2723(3)
O19A O 0.4733(5) -0.2594(4) -0.5193(3)
O20A O 0.3541(4) -0.1320(4) -0.0821(3)
O21A O 0.2448(4) -0.3646(4) -0.2508(3)
O22A O 0.3671(4) -0.2215(4) -0.3016(3)
O23A O 0.2428(4) -0.2148(4) -0.1703(3)
O24A O 0.5415(4) -0.1447(4) -0.3019(3)
O25A O 0.3504(4) -0.4104(4) -0.1235(3)
O26A O 0.2592(5) 0.0483(4) -0.1116(4)
O27A O 0.5342(4) -0.2917(4) -0.3799(3)
O28A O 0.2220(4) -0.2892(4) -0.0269(3)
O29A O 0.3396(4) -0.5229(4) -0.2977(3)
O30A O -0.1538(4) -0.2009(4) -0.2238(4)
O31A O 0.0983(5) 0.0986(4) -0.3293(4)
O33A O 0.4790(4) 0.0439(4) -0.3513(4)
O34A O 0.3609(4) -0.3724(4) -0.4009(3)
O35A O 0.6626(4) -0.3160(4) -0.2707(4)
O36A O 0.1581(4) -0.3434(4) -0.3868(3)
O37A O 0.4471(4) -0.1166(4) -0.4204(3)
O38A O 0.2450(5) -0.5284(4) -0.4219(4)
O39A O 0.0055(4) -0.5239(4) -0.1503(4)
O41A O 0.4329(5) -0.5866(4) -0.1712(4)
O42A O 0.0908(5) -0.2073(5) -0.4964(4)
O43A O 0.3794(5) -0.2361(5) 0.0627(4)
O44A O 0.5583(5) -0.2414(5) -0.0341(4)
O45A O 0.6484(6) -0.2213(6) 0.0549(5)
O46A O 0.4705(7) -0.2068(6) 0.1499(5)
Si1A Si 0.25410(15) -0.24864(15) -0.25222(12)
W1A W 0.11541(2) -0.24643(2) -0.074484(19)
W2A W 0.12815(3) -0.20943(2) -0.41062(2)
W3A W 0.09979(3) -0.44713(2) -0.19151(2)
W4A W 0.42096(3) -0.25035(3) -0.42806(2)
W5A W 0.42330(3) -0.06541(2) -0.32680(2)
W6A W -0.01917(2) -0.20420(2) -0.24288(2)
W7A W 0.26696(3) -0.06871(2) -0.13805(2)
W8A W 0.25143(3) -0.45188(2) -0.35595(2)
W9A W 0.36357(3) -0.48125(2) -0.19860(2)
W10A W 0.53005(2) -0.28314(2) -0.26860(2)
W11A W 0.13421(2) -0.02284(2) -0.30746(2)
C6A C 0.1939(8) 0.3990(7) 0.0034(6)
H7A H 0.26530 0.39180 -0.02280
H8A H 0.14570 0.38490 -0.02870
C7A C 0.1825(7) 0.3321(7) 0.0704(6)
H9A H 0.10870 0.33090 0.09180
H10A H 0.20830 0.26710 0.05870
C8A C 0.2754(12) 0.6157(9) 0.2319(8)
H11A H 0.27020 0.61360 0.28490
H12A H 0.33400 0.65370 0.20950
C9A C 0.1745(13) 0.6608(9) 0.2078(7)
H13A H 0.16670 0.72920 0.21520
H14A H 0.11470 0.62990 0.23690
Cu2A Cu 0.22838(9) 0.50987(8) 0.11738(7)
N3A N 0.1700(6) 0.4996(5) 0.0248(5)
H15A H 0.13660 0.54570 0.00120
N4A N 0.2438(5) 0.3648(5) 0.1234(5)
H16A H 0.27990 0.32780 0.15200
N5A N 0.2923(8) 0.5177(7) 0.2089(6)
H17A H 0.32500 0.46990 0.23120
N6A N 0.1767(6) 0.6489(6) 0.1312(5)
H18A H 0.15950 0.69260 0.09780
C10A C 0.9084(13) 0.0757(13) -0.1244(10)
H19A H 0.93340 0.05690 -0.17360
H20A H 0.86790 0.13750 -0.12970
C11A C 0.8406(12) 0.0084(12) -0.0887(9)
H21A H 0.77690 0.04300 -0.06620
H22A H 0.82100 -0.02880 -0.12520
N7A N 0.9974(7) 0.0905(6) -0.0923(5)
H23A H 1.04330 0.13180 -0.10940
N8A N 0.8794(6) -0.0576(6) -0.0334(5)
H24A H 0.85540 -0.11280 -0.01690
Er1A* Er 0.40173(3) 0.70290(3) -0.05913(2)
O6A* O 1.1396(4) -0.1106(4) -0.0748(3)
O32A* O 0.3850(4) -0.4327(4) 0.0346(3)
O40* O 0.5450(4) -0.4221(4) -0.0754(4)
Cu3* Cu 0.00000 0.00000 0.00000
C16A C 0.9906(11) 0.4477(9) 0.5176(8)
H37A H 1.03310 0.40150 0.48740
H38A H 0.91700 0.43560 0.51980
N13A N 1.0187(8) 0.4348(8) 0.5922(6)
H39A H 0.97610 0.47400 0.62080
H40A H 1.01180 0.37360 0.61070
H41A H 1.08520 0.44910 0.59030
#END
