
#######################################################################
#
#                 Cambridge Crystallographic Data Centre
#                                CCDC
#
#######################################################################
#
# If this CIF has been generated from an entry in the Cambridge
# Structural Database, then it will include bibliographic, chemical,
# crystal, experimental, refinement or atomic coordinate data resulting
# from the CCDC's data processing and validation procedures.
#
#######################################################################

data_CSD_CIF_RAGMOE
_audit_creation_date 2017-01-14
_audit_creation_method CSD-ConQuest-V1
_database_code_CSD RAGMOE
_database_code_depnum_ccdc_archive 'CCDC 1522609'
_chemical_formula_sum 'C47 H32 La1 N3 O12'
_chemical_formula_moiety
;
(C42 H26 La1 N2 O12 1-)n,C5 H6 N1 1+
;
_journal_coden_Cambridge 1295
_journal_volume 76
_journal_year 2017
_journal_page_first 77
_journal_name_full 'Inorg.Chem.Commun. '
loop_
_publ_author_name
"Ying-Juan Qu"
"Jing Li"
_chemical_name_systematic
;
catena-[pyridin-1-ium 
bis(\m-4,4'-[(4-carboxyphenyl)azanediyl]dibenzoato)-lanthanum(iii) unknown 
solvate]
;
_cell_volume   6910.775
_exptl_crystal_density_diffrn 1.398
_diffrn_ambient_temperature 293
_refine_special_details
;
The SQUEEZE/PLATON program has been used to model some disorder.

;
#These two values have been output from a single CSD field.
_refine_ls_R_factor_gt 0.0278
_refine_ls_wR_factor_gt 0.0278
_symmetry_cell_setting hexagonal
_symmetry_space_group_name_H-M 'P 62 2 2'
_symmetry_Int_Tables_number 180
loop_
_symmetry_equiv_pos_site_id
_symmetry_equiv_pos_as_xyz
1 x,y,z
2 -y,x-y,2/3+z
3 -x+y,-x,1/3+z
4 -x,-y,z
5 y,-x+y,2/3+z
6 x-y,x,1/3+z
7 y,x,2/3-z
8 x-y,-y,-z
9 -x,-x+y,1/3-z
10 -y,-x,2/3-z
11 -x+y,y,-z
12 x,x-y,1/3-z
_cell_length_a 16.18114(17)
_cell_length_b 16.18114(17)
_cell_length_c 30.4774(3)
_cell_angle_alpha 90
_cell_angle_beta 90
_cell_angle_gamma 120
_cell_formula_units_Z 6
loop_
_atom_type_symbol
_atom_type_radius_bond
C 0.68
H 0.23
La 2.07
N 0.68
O 0.68
loop_
_atom_site_label
_atom_site_type_symbol
_atom_site_fract_x
_atom_site_fract_y
_atom_site_fract_z
La1 La 0.35666(2) 0.00000 0.50000
O1 O 0.6431(3) 0.1235(2) 0.44678(12)
O2 O 0.9723(2) 0.6993(3) 0.23985(11)
O3 O 0.4984(2) 0.1020(2) 0.45773(12)
C1 C 0.6214(3) 0.2571(3) 0.44027(13)
C2 C 0.6860(3) 0.4499(3) 0.42262(15)
N1 N 0.7198(3) 0.5478(3) 0.41358(13)
O4 O 0.6747(4) 0.7898(3) 0.56772(12)
O5 O 0.6828(3) 0.8746(3) 0.50910(11)
C3 C 0.8410(3) 0.5979(3) 0.30593(14)
H1 H 0.83140 0.56910 0.27860
C4 C 0.5628(3) 0.2963(3) 0.44675(14)
H2 H 0.50120 0.25770 0.45730
C5 C 0.6862(3) 0.5860(3) 0.48679(15)
H3 H 0.68530 0.53230 0.49830
C6 C 0.5939(4) 0.3909(3) 0.43787(15)
H4 H 0.55310 0.41510 0.44210
C7 C 0.7884(3) 0.5947(3) 0.37999(15)
C8 C 0.7141(4) 0.3171(3) 0.42548(17)
H5 H 0.75480 0.29270 0.42120
C9 C 0.6983(3) 0.6034(3) 0.44191(15)
C10 C 0.9362(4) 0.7284(3) 0.35449(15)
H6 H 0.99040 0.78690 0.36000
C11 C 0.7753(4) 0.5525(3) 0.33852(15)
H7 H 0.72180 0.49330 0.33310
C12 C 0.6927(4) 0.6807(3) 0.42487(15)
H8 H 0.69520 0.69020 0.39470
C13 C 0.6754(3) 0.6477(3) 0.51434(15)
H9 H 0.66740 0.63540 0.54430
C14 C 0.5858(3) 0.1544(3) 0.44913(13)
C15 C 0.8696(4) 0.6828(3) 0.38739(15)
H10 H 0.87930 0.71150 0.41480
C16 C 0.9923(4) 0.7311(4) 0.27646(14)
O6 O 1.0759(4) 0.7996(4) 0.28713(14)
H11 H 1.14160 0.81370 0.28930
C17 C 0.6772(4) 0.8031(4) 0.52661(16)
C18 C 0.7462(3) 0.4119(3) 0.41714(18)
H12 H 0.80870 0.45120 0.40780
C19 C 0.9221(3) 0.6869(3) 0.31313(15)
C20 C 0.6835(4) 0.7426(3) 0.45249(15)
H13 H 0.68190 0.79490 0.44080
C21 C 0.6765(3) 0.7286(3) 0.49756(15)
N2 N 1.00000 0.50000 0.3890(3)
H14 H 1.00000 0.50000 0.41720
C22 C 1.00000 0.50000 0.3018(3)
H15 H 1.00000 0.50000 0.27130
C23 C 1.0505(6) 0.5800(7) 0.3227(3)
H16 H 1.08690 0.63600 0.30690
C24 C 1.0512(6) 0.5832(6) 0.3663(3)
H17 H 1.08580 0.64090 0.38100
O1C O 0.3569(3) -0.1235(2) 0.44678(12)
O2C O 0.0277(2) -0.6993(3) 0.23985(11)
O3C O 0.5016(2) -0.1020(2) 0.45773(12)
C1C C 0.3786(3) -0.2571(3) 0.44027(13)
C2C C 0.3140(3) -0.4499(3) 0.42262(15)
N1C N 0.2802(3) -0.5478(3) 0.41358(13)
O4C O 0.3253(4) -0.7898(3) 0.56772(12)
O5C O 0.3172(3) -0.8746(3) 0.50910(11)
C3C C 0.1590(3) -0.5979(3) 0.30593(14)
H1C H 0.16860 -0.56910 0.27860
C4C C 0.4372(3) -0.2963(3) 0.44675(14)
H2C H 0.49880 -0.25770 0.45730
C5C C 0.3138(3) -0.5860(3) 0.48679(15)
H3C H 0.31470 -0.53230 0.49830
C6C C 0.4061(4) -0.3909(3) 0.43787(15)
H4C H 0.44690 -0.41510 0.44210
C7C C 0.2116(3) -0.5947(3) 0.37999(15)
C8C C 0.2859(4) -0.3171(3) 0.42548(17)
H5C H 0.24520 -0.29270 0.42120
C9C C 0.3017(3) -0.6034(3) 0.44191(15)
C10C C 0.0638(4) -0.7284(3) 0.35449(15)
H6C H 0.00960 -0.78690 0.36000
C11C C 0.2247(4) -0.5525(3) 0.33852(15)
H7C H 0.27820 -0.49330 0.33310
C12C C 0.3073(4) -0.6807(3) 0.42487(15)
H8C H 0.30480 -0.69020 0.39470
C13C C 0.3246(3) -0.6477(3) 0.51434(15)
H9C H 0.33260 -0.63540 0.54430
C14C C 0.4142(3) -0.1544(3) 0.44913(13)
C15C C 0.1304(4) -0.6828(3) 0.38739(15)
H10C H 0.12070 -0.71150 0.41480
C16C C 0.0077(4) -0.7311(4) 0.27646(14)
O6C O -0.0759(4) -0.7996(4) 0.28713(14)
H11C H -0.14160 -0.81370 0.28930
C17C C 0.3228(4) -0.8031(4) 0.52661(16)
C18C C 0.2538(3) -0.4119(3) 0.41714(18)
H12C H 0.19130 -0.45120 0.40780
C19C C 0.0779(3) -0.6869(3) 0.31313(15)
C20C C 0.3165(4) -0.7426(3) 0.45249(15)
H13C H 0.31810 -0.79490 0.44080
C21C C 0.3235(3) -0.7286(3) 0.49756(15)
La1* La 0.35666(2) -1.00000 0.50000
La1A La 0.00000(2) -0.64334 0.16667
La1C La 0.64334(2) 0.00000 0.50000
La1C* La 0.64334(2) 1.00000 0.50000
La1D La 1.00000(2) 0.64334 0.16667
O1J O 0.4804(3) 0.1235(2) 0.55322(12)
O2E O 0.2730(2) -0.0277(3) 0.573183(110)
O2I O 0.3007(2) 0.0277(3) 0.426817(110)
O3G O 0.3964(2) -0.1020(2) 0.54227(12)
O5C* O 0.3172(3) 0.1254(3) 0.50910(11)
O5J O 0.1918(3) -0.1254(3) 0.49090(11)
C23C C 0.9495(6) 0.4200(7) 0.3227(3)
H16C H 0.91310 0.36400 0.30690
C24C C 0.9488(6) 0.4168(6) 0.3663(3)
H17C H 0.91420 0.35910 0.38100
#END
