
#######################################################################
#
#                 Cambridge Crystallographic Data Centre
#                                CCDC
#
#######################################################################
#
# If this CIF has been generated from an entry in the Cambridge
# Structural Database, then it will include bibliographic, chemical,
# crystal, experimental, refinement or atomic coordinate data resulting
# from the CCDC's data processing and validation procedures.
#
#######################################################################

data_CSD_CIF_RAGPIA
_audit_creation_date 2012-01-25
_audit_creation_method CSD-ConQuest-V1
_database_code_CSD RAGPIA
_database_code_depnum_ccdc_archive 'CCDC 773213'
_chemical_formula_sum 'C60 H97 Cl1 N40 Na4 O50 V4'
_chemical_formula_moiety
;
(H3 O1 1+)2n,n(C60 H63 N40 Na4 O34 V4 1-),n(Cl1 1-),14n(H2 O1)
;
_journal_coden_Cambridge 367
_journal_volume 37
_journal_year 2011
_journal_page_first 139
_journal_name_full 'Koord.Khim.(Russ.)(Coord.Chem.) '
loop_
_publ_author_name
"E.A.Kovalenko"
"D.Yu.Naumov"
"V.P.Fedin"
_chemical_name_systematic
;
catena(bis(oxonium) 
bis(((\m~4~-cucurbit(5)uril)(\m~2~-hydroxo)disodium))hexakis(\m~2~-oxo)(tetrao
xo)(hydroxy)(oxy)tetravanadium(v) chloride tetradecahydrate)
;
_cell_volume   9270.337
_exptl_crystal_colour 'colorless'
_exptl_crystal_density_diffrn 1.798
_exptl_crystal_description 'prism'
_diffrn_ambient_temperature 150
#These two values have been output from a single CSD field.
_refine_ls_R_factor_gt 0.0771
_refine_ls_wR_factor_gt 0.0771
_symmetry_cell_setting monoclinic
_symmetry_space_group_name_H-M 'P 21/c'
_symmetry_Int_Tables_number 14
loop_
_symmetry_equiv_pos_site_id
_symmetry_equiv_pos_as_xyz
1 x,y,z
2 -x,1/2+y,1/2-z
3 -x,-y,-z
4 x,-1/2-y,-1/2+z
_cell_length_a 9.6197(8)
_cell_length_b 28.063(3)
_cell_length_c 34.340(3)
_cell_angle_alpha 90
_cell_angle_beta 90.078(3)
_cell_angle_gamma 90
_cell_formula_units_Z 4
loop_
_atom_type_symbol
_atom_type_radius_bond
C 0.68
H 0.23
Cl 0.99
N 0.68
Na 1.66
O 0.65
V 1.34
loop_
_atom_site_label
_atom_site_type_symbol
_atom_site_fract_x
_atom_site_fract_y
_atom_site_fract_z
V1 V 0.73311(8) 0.94894(2) 0.211149(18)
V2 V 0.73433(8) 0.80069(2) 0.209506(18)
V3 V 0.51713(7) 0.87506(3) 0.162723(14)
V4 V 0.99385(8) 0.87485(4) 0.213167(19)
Na1 Na 0.75003(17) 1.07535(5) 0.15843(4)
Na2 Na 0.74831(17) 0.67243(5) 0.15413(4)
Na3 Na 0.75435(15) 1.12298(9) 0.04903(3)
Na4 Na 0.75338(15) 0.62550(9) 0.04212(4)
O1 O 0.7498(4) 1.00715(14) 0.20836(10)
O2 O 0.6596(4) 0.93601(12) 0.25325(9)
O3 O 0.7466(4) 0.74273(14) 0.20528(10)
O4 O 0.6638(4) 0.81275(12) 0.25145(9)
O5 O 0.4698(3) 0.87557(16) 0.11635(7)
O6 O 0.3821(3) 0.87322(15) 0.19104(7)
H1 H 0.31120 0.88160 0.17850
O7 O 1.0779(3) 0.87532(13) 0.25552(7)
O8 O 1.1145(3) 0.87530(13) 0.17847(7)
O9 O 0.7489(3) 1.13924(10) 0.11460(8)
H2 H 0.74630 1.17120 0.12370
O10 O 0.7467(3) 0.61035(10) 0.10891(8)
H3 H 0.74330 0.57830 0.11790
O11 O 0.5691(3) 1.12065(18) 0.19088(8)
O12 O -0.0719(3) 1.11856(17) 0.18936(8)
O13 O 0.5615(5) 1.03676(15) 0.13129(11)
O14 O -0.0669(5) 1.03195(15) 0.13081(11)
O15 O 0.5785(5) 1.06660(15) 0.03822(11)
O16 O -0.0666(5) 1.06857(15) 0.03730(11)
O17 O 0.5760(5) 1.18071(16) 0.04050(11)
O18 O -0.0682(5) 1.17927(16) 0.03775(11)
O19 O 0.5799(5) 1.21663(15) 0.13560(11)
O20 O -0.0656(4) 1.21010(15) 0.13066(11)
O21 O 0.5619(5) 0.71348(15) 0.12886(11)
O22 O -0.0705(5) 0.71845(14) 0.12798(11)
O23 O 0.5692(3) 0.62950(18) 0.18786(8)
O24 O -0.0735(3) 0.63125(17) 0.18656(8)
O25 O 0.5764(5) 0.53279(15) 0.13253(11)
O26 O -0.0658(5) 0.54002(15) 0.12802(11)
O27 O 0.5711(5) 0.56795(15) 0.03702(11)
O28 O -0.0678(5) 0.56995(15) 0.03616(11)
O29 O 0.5756(5) 0.68279(15) 0.03604(11)
O30 O -0.0680(5) 0.67952(16) 0.03443(11)
O31 O 0.6228(3) 0.82273(11) 0.17018(8)
O32 O 0.6212(3) 0.92709(11) 0.17183(8)
O33 O 0.9005(4) 0.92227(12) 0.20636(9)
O34 O 0.9040(4) 0.82737(12) 0.20590(9)
N1 N 0.3709(5) 1.16002(19) 0.21074(13)
N2 N 0.1217(5) 1.15804(18) 0.21577(13)
N3 N 0.3789(6) 1.0797(2) 0.21614(13)
N4 N 0.1203(6) 1.07952(19) 0.21253(13)
N5 N 0.3748(6) 1.01564(19) 0.16928(13)
N6 N 0.1197(6) 1.01193(18) 0.16944(14)
N7 N 0.3792(6) 0.99230(18) 0.10727(14)
N8 N 0.1234(6) 0.99243(18) 0.10704(13)
N9 N 0.3830(6) 1.0183(2) 0.03975(15)
N10 N 0.1253(6) 1.0186(2) 0.03998(14)
N11 N 0.3833(6) 1.0815(2) -0.00021(15)
N12 N 0.1274(6) 1.0810(2) 0.00017(14)
N13 N 0.3811(6) 1.1672(2) 0.00119(14)
N14 N 0.1285(6) 1.1679(2) 0.00077(14)
N15 N 0.3826(6) 1.2274(2) 0.04181(14)
N16 N 0.1270(6) 1.2298(2) 0.04096(14)
N17 N 0.3820(6) 1.25178(19) 0.11059(15)
N18 N 0.1277(6) 1.2518(2) 0.10806(16)
N19 N 0.3815(6) 1.23166(19) 0.17266(15)
N20 N 0.1310(6) 1.22338(18) 0.16861(13)
N21 N 0.3776(6) 0.7560(2) 0.10379(15)
N22 N 0.1242(6) 0.75683(19) 0.10267(15)
N23 N 0.3711(6) 0.73483(19) 0.16561(14)
N24 N 0.1216(6) 0.73781(18) 0.16560(13)
N25 N 0.3788(5) 0.66953(19) 0.21255(13)
N26 N 0.1253(6) 0.66934(19) 0.20992(13)
N27 N 0.3695(6) 0.5903(2) 0.20860(14)
N28 N 0.1113(6) 0.5909(2) 0.21247(14)
N29 N 0.3849(6) 0.51826(18) 0.17021(13)
N30 N 0.1278(5) 0.52637(17) 0.16589(14)
N31 N 0.3801(6) 0.49715(19) 0.10754(14)
N32 N 0.1221(6) 0.49602(18) 0.10683(13)
N33 N 0.3807(6) 0.5196(2) 0.03900(14)
N34 N 0.1220(5) 0.51837(19) 0.03856(14)
N35 N 0.3793(6) 0.5817(2) -0.00200(14)
N36 N 0.1270(6) 0.5810(2) -0.00213(14)
N37 N 0.3812(6) 0.6673(2) -0.00220(14)
N38 N 0.1269(6) 0.6684(2) -0.00337(14)
N39 N 0.3818(6) 0.7294(2) 0.03639(14)
N40 N 0.1268(6) 0.7294(2) 0.03644(14)
C1 C 0.4513(6) 1.1202(3) 0.20416(12)
C2 C 0.0459(6) 1.1182(3) 0.20320(13)
C3 C 0.2480(7) 1.1482(2) 0.23425(18)
H4 H 0.25280 1.16190 0.26110
C4 C 0.2485(7) 1.0923(2) 0.23430(18)
H5 H 0.24450 1.07970 0.26150
C5 C 0.4214(7) 1.0338(2) 0.20595(17)
H6 H 0.38950 1.01160 0.22650
H7 H 0.52430 1.03310 0.20600
C6 C 0.0767(7) 1.0312(2) 0.20599(16)
H8 H 0.11440 1.01100 0.22710
H9 H -0.02600 1.02980 0.20750
C7 C 0.4502(8) 1.0178(2) 0.13525(17)
C8 C 0.0465(8) 1.0128(2) 0.13597(18)
C9 C 0.2540(7) 0.9862(2) 0.16500(16)
H10 H 0.25860 0.95780 0.18250
C10 C 0.2498(7) 0.9711(2) 0.12171(16)
H11 H 0.24940 0.93570 0.11870
C11 C 0.4366(7) 0.9855(2) 0.06872(15)
H12 H 0.41670 0.95250 0.06010
H13 H 0.53880 0.98920 0.07020
C12 C 0.0725(7) 0.9852(2) 0.06780(16)
H14 H 0.09770 0.95260 0.05930
H15 H -0.03020 0.98740 0.06800
C13 C 0.4570(9) 1.0565(3) 0.0273(2)
C14 C 0.0473(9) 1.0578(3) 0.02809(19)
C15 C 0.2540(7) 1.0127(3) 0.01823(17)
H16 H 0.25360 0.98220 0.00320
C16 C 0.2534(7) 1.0563(2) -0.00954(17)
H17 H 0.25240 1.04580 -0.03740
C17 C 0.4313(4) 1.1246(3) -0.01765(11)
H18 H 0.40170 1.12510 -0.04530
H19 H 0.53420 1.12480 -0.01710
C18 C 0.0784(4) 1.1239(3) -0.01865(11)
H20 H -0.02450 1.12390 -0.01870
H21 H 0.11000 1.12400 -0.04610
C19 C 0.4604(7) 1.1892(2) 0.02941(18)
C20 C 0.0500(7) 1.1908(2) 0.02767(17)
C21 C 0.2560(8) 1.1924(2) -0.00882(17)
H22 H 0.25680 1.20310 -0.03660
C22 C 0.2550(7) 1.2349(2) 0.01946(17)
H23 H 0.25780 1.26590 0.00510
C23 C 0.4332(7) 1.2605(2) 0.07109(17)
H24 H 0.40620 1.29320 0.06330
H25 H 0.53600 1.25910 0.07150
C24 C 0.0747(7) 1.2630(2) 0.06942(17)
H26 H -0.02820 1.26170 0.06970
H27 H 0.10280 1.29570 0.06220
C25 C 0.4590(8) 1.2302(2) 0.13899(18)
C26 C 0.0514(7) 1.2262(2) 0.13546(18)
C27 C 0.2555(7) 1.2721(2) 0.12491(16)
H28 H 0.25640 1.30760 0.12310
C28 C 0.2479(7) 1.2547(2) 0.16824(17)
H29 H 0.23620 1.28180 0.18680
C29 C 0.4306(7) 1.2078(2) 0.20733(17)
H30 H 0.40500 1.22690 0.23050
H31 H 0.53320 1.20550 0.20650
C30 C 0.0695(7) 1.2061(2) 0.20480(16)
H32 H -0.03280 1.20480 0.20180
H33 H 0.09100 1.22890 0.22600
C31 C 0.4496(8) 0.7319(2) 0.13216(19)
C32 C 0.0456(7) 0.7350(2) 0.13202(18)
C33 C 0.2545(7) 0.7767(2) 0.11823(16)
H34 H 0.25650 0.81210 0.11510
C34 C 0.2486(8) 0.7627(3) 0.16260(18)
H35 H 0.25140 0.79130 0.18000
C35 C 0.4300(7) 0.7159(2) 0.20283(16)
H36 H 0.53250 0.71450 0.20060
H37 H 0.40700 0.73820 0.22420
C36 C 0.0754(7) 0.7193(2) 0.20247(16)
H38 H -0.02750 0.71970 0.20310
H39 H 0.10940 0.74030 0.22360
C37 C 0.4528(5) 0.6293(3) 0.20109(12)
C38 C 0.0446(6) 0.6312(3) 0.20072(13)
C39 C 0.2501(7) 0.6586(2) 0.23148(18)
H40 H 0.24670 0.67140 0.25860
C40 C 0.2475(7) 0.6024(2) 0.23068(18)
H41 H 0.25330 0.58910 0.25770
C41 C 0.4201(7) 0.5422(2) 0.20438(16)
H42 H 0.52270 0.54290 0.20640
H43 H 0.38510 0.52330 0.22660
C42 C 0.0698(7) 0.5439(2) 0.20268(15)
H44 H -0.03290 0.54280 0.20100
H45 H 0.09860 0.52210 0.22390
C43 C 0.4552(8) 0.5191(2) 0.13535(17)
C44 C 0.0494(8) 0.5221(2) 0.13302(18)
C45 C 0.2487(7) 0.4949(2) 0.16476(17)
H46 H 0.23730 0.46810 0.18370
C46 C 0.2491(8) 0.4758(3) 0.12251(17)
H47 H 0.24980 0.44020 0.12140
C47 C 0.4330(7) 0.4880(2) 0.06908(15)
H48 H 0.40970 0.45480 0.06180
H49 H 0.53570 0.49060 0.06980
C48 C 0.0689(7) 0.4864(2) 0.06758(15)
H50 H 0.09360 0.45340 0.06020
H51 H -0.03370 0.48870 0.06790
C49 C 0.4529(9) 0.5583(3) 0.02551(19)
C50 C 0.0453(9) 0.5585(3) 0.02617(18)
C51 C 0.2491(7) 0.5125(2) 0.01786(18)
H52 H 0.24990 0.48150 0.00360
C52 C 0.2529(7) 0.5552(2) -0.01130(18)
H53 H 0.25300 0.54390 -0.03890
C53 C 0.4290(4) 0.6242(3) -0.02104(11)
H54 H 0.39690 0.62410 -0.04840
H55 H 0.53190 0.62390 -0.02120
C54 C 0.0805(4) 0.6240(3) -0.02200(12)
H56 H -0.02230 0.62400 -0.02310
H57 H 0.11540 0.62340 -0.04910
C55 C 0.4586(7) 0.6904(2) 0.02514(17)
C56 C 0.0505(7) 0.6905(2) 0.02367(17)
C57 C 0.2538(8) 0.6921(2) -0.01293(17)
H58 H 0.25530 0.70200 -0.04090
C58 C 0.2532(7) 0.7358(2) 0.01441(16)
H59 H 0.25280 0.76640 -0.00050
C59 C 0.4337(7) 0.7636(2) 0.06444(16)
H60 H 0.40910 0.79610 0.05560
H61 H 0.53640 0.76140 0.06550
C60 C 0.0739(7) 0.7639(2) 0.06394(17)
H62 H 0.10040 0.79630 0.05520
H63 H -0.02890 0.76220 0.06410
Cl1 Cl 0.74965(10) 0.62592(5) -0.06045(2)
O35 O 0.2547(3) 0.87513(17) 0.05792(7)
O36 O 0.0189(3) 0.87205(16) 0.10737(7)
O37 O 0.7744(4) 0.80175(14) 0.10187(10)
O38 O 0.7716(4) 0.94861(15) 0.10287(11)
O39 O 0.7039(3) 0.87551(15) 0.32315(7)
O40 O 0.4722(3) 0.87700(17) 0.37638(7)
O41 O 0.9796(3) 0.87231(16) 0.37503(7)
O42 O 1.0268(3) 0.93260(12) 0.31283(9)
O43 O 1.0230(3) 0.81679(12) 0.31344(9)
O44 O 1.2427(4) 0.99699(14) 0.30103(10)
O45 O 1.2464(5) 0.75270(15) 0.29922(10)
O46 O 1.2398(4) 0.80865(14) 0.39077(10)
O47 O 1.3937(7) 0.8256(2) 0.26596(18)
O48 O 1.2379(4) 0.94134(15) 0.39195(11)
O49 O 1.3894(7) 0.9274(2) 0.26662(18)
O50 O 0.3962(6) 0.6222(4) 0.09738(15)
O51 O 0.4024(6) 1.1256(4) 0.09996(14)
O52 O 0.1044(6) 0.6310(3) 0.10786(15)
O53 O 0.1102(6) 1.1198(3) 0.10682(15)
Na1* Na -0.24997(17) 1.07535(5) 0.15843(4)
Na2* Na -0.25169(17) 0.67243(5) 0.15413(4)
Na3* Na -0.24565(15) 1.12298(9) 0.04903(3)
Na4* Na -0.24662(15) 0.62550(9) 0.04212(4)
O12* O 0.9281(3) 1.11856(17) 0.18936(8)
O14* O 0.9331(5) 1.03195(15) 0.13081(11)
O16* O 0.9334(5) 1.06857(15) 0.03730(11)
O18* O 0.9318(5) 1.17927(16) 0.03775(11)
O22* O 0.9295(5) 0.71845(14) 0.12798(11)
O24* O 0.9265(3) 0.63125(17) 0.18656(8)
O28* O 0.9322(5) 0.56995(15) 0.03616(11)
O30* O 0.9320(5) 0.67952(16) 0.03443(11)
#END
