
#######################################################################
#
#                 Cambridge Crystallographic Data Centre
#                                CCDC
#
#######################################################################
#
# If this CIF has been generated from an entry in the Cambridge
# Structural Database, then it will include bibliographic, chemical,
# crystal, experimental, refinement or atomic coordinate data resulting
# from the CCDC's data processing and validation procedures.
#
#######################################################################

data_CSD_CIF_RAGYOO
_audit_creation_date 2005-02-17
_audit_creation_method CSD-ConQuest-V1
_database_code_CSD RAGYOO
_database_code_depnum_ccdc_archive 'CCDC 234031'
_chemical_formula_sum 'C11 H50 Cu2 K5 N3 O53 Si1 W11'
_chemical_formula_moiety
;
(C11 H26 Cu1 N3 O2 1+)n,5n(K1 1+),n(Cu1 O39 Si1 W11 6-),12n(H2 O1)
;
_journal_coden_Cambridge 1220
_journal_volume 10
_journal_year 2004
_journal_page_first 5138
_journal_name_full 'Chem.-Eur.J. '
loop_
_publ_author_name
"L.S.Felices"
"P.Vitoria"
"J.M.Gutierrez-Zorrilla"
"S.Reinoso"
"J.Etxebarria"
"L.Lezama"
_chemical_name_systematic
;
catena-[Acetato-(pentamethyldiethylenetriamine)-copper(ii) penta-potassium 
(\m~12~-silicato)-pentacosakis(\m~2~-oxo)-decaoxo-copper(ii)-undeca-tungsten 
dodecahydrate]
;
_cell_volume   3045.354
_exptl_crystal_colour 'blue'
_exptl_crystal_density_diffrn 3.679
_exptl_crystal_description 'prism'
_diffrn_ambient_temperature 293
_refine_special_details
;
A potassium ion and a water O atom are disordered over the same sites, with 
occupancies 0.665:0.335.
;
#These two values have been output from a single CSD field.
_refine_ls_R_factor_gt 0.0403
_refine_ls_wR_factor_gt 0.0403
_symmetry_cell_setting monoclinic
_symmetry_space_group_name_H-M 'P 21'
_symmetry_Int_Tables_number 4
loop_
_symmetry_equiv_pos_site_id
_symmetry_equiv_pos_as_xyz
1 x,y,z
2 -x,1/2+y,-z
_cell_length_a 12.467(5)
_cell_length_b 10.897(5)
_cell_length_c 22.452(5)
_cell_angle_alpha 90
_cell_angle_beta 93.220(5)
_cell_angle_gamma 90
_cell_formula_units_Z 2
loop_
_atom_type_symbol
_atom_type_radius_bond
C 0.68
H 0.23
Cu 1.40
K 0.97
N 0.68
O 0.68
Si 1.20
W 1.37
loop_
_atom_site_label
_atom_site_type_symbol
_atom_site_fract_x
_atom_site_fract_y
_atom_site_fract_z
C1 C 0.5669(13) 0.195(3) 0.4235(8)
H1 H 0.50460 0.14970 0.40750
H2 H 0.54720 0.28020 0.42720
C2 C 0.6578(16) 0.182(3) 0.3824(10)
H3 H 0.66260 0.09740 0.36960
H4 H 0.64240 0.23220 0.34720
C3 C 0.8542(14) 0.177(2) 0.3798(9)
H5 H 0.83930 0.09740 0.36200
H6 H 0.86930 0.23420 0.34820
C4 C 0.9456(14) 0.1686(19) 0.4213(9)
H7 H 0.96810 0.25030 0.43370
H8 H 1.00470 0.13010 0.40200
C5 C 0.5710(16) 0.0145(19) 0.484(1)
H9 H 0.60620 -0.02870 0.45340
H10 H 0.49460 0.00880 0.47660
H11 H 0.59090 -0.02120 0.52210
C6 C 0.5465(14) 0.195(3) 0.5307(8)
H12 H 0.56210 0.28140 0.53370
H13 H 0.56800 0.15560 0.56760
H14 H 0.47080 0.18390 0.52240
C7 C 0.7692(15) 0.3570(15) 0.4128(9)
H15 H 0.83650 0.37990 0.43260
H16 H 0.71120 0.38990 0.43430
H17 H 0.76530 0.38910 0.37290
C8 C 0.9143(16) -0.0443(18) 0.4671(10)
H18 H 0.86290 -0.06450 0.43510
H19 H 0.89340 -0.08210 0.50330
H20 H 0.98390 -0.07390 0.45770
C9 C 1.0001(15) 0.1200(17) 0.5241(10)
H21 H 1.00600 0.20710 0.53010
H22 H 1.06830 0.08770 0.51390
H23 H 0.97880 0.08190 0.56010
C10 C 0.7939(11) 0.210(3) 0.5979(7)
C11 C 0.8024(12) 0.2309(16) 0.6626(7)
H24 H 0.85540 0.17660 0.68070
H25 H 0.73410 0.21520 0.67880
H26 H 0.82320 0.31440 0.67050
N1 N 0.6034(12) 0.1436(13) 0.4839(8)
N2 N 0.7604(9) 0.2194(17) 0.4107(6)
N3 N 0.9186(12) 0.0944(14) 0.4752(7)
O1 O 0.4283(12) 0.4556(13) 0.3311(7)
O2 O 0.7619(7) 0.7173(15) 0.4353(5)
O3 O 1.0126(12) 0.9449(12) 0.3170(7)
O4 O 0.6596(7) 0.6997(18) -0.0261(5)
O5 O 0.3725(12) 0.4465(12) 0.1106(7)
O6 O 0.4241(12) 0.9616(13) 0.3232(7)
O7 O 0.6724(7) 0.1846(13) 0.2040(5)
O8 O 0.3780(14) 0.9548(14) 0.1033(8)
O9 O 0.8363(12) 0.3881(13) 0.2616(7)
O10 O 0.9701(11) 0.5158(13) 0.1956(7)
O11 O 0.8052(13) 0.3847(13) 0.1402(8)
O12 O 0.6127(12) 0.4313(12) 0.2718(7)
O13 O 0.8172(12) 0.5940(12) 0.3319(7)
O14 O 0.9494(6) 0.7136(14) 0.2662(4)
O15 O 0.9147(6) 0.7048(16) 0.1239(4)
O16 O 0.7612(12) 0.5831(13) 0.0720(7)
O17 O 0.5827(12) 0.4247(12) 0.1505(7)
O18 O 0.6112(11) 0.5871(12) 0.3663(7)
O19 O 0.8115(10) 0.8302(12) 0.3274(6)
O20 O 0.9638(12) 0.9045(13) 0.1929(7)
O21 O 0.7472(10) 0.8241(11) 0.0715(6)
O22 O 0.5374(11) 0.5812(12) 0.0584(7)
O23 O 0.4585(12) 0.5608(14) 0.2153(7)
O24 O 0.4475(7) 0.7042(18) 0.3105(4)
O25 O 0.6117(11) 0.8353(12) 0.3612(7)
O26 O 0.8227(10) 1.0188(13) 0.2582(6)
O27 O 0.7950(11) 1.0159(13) 0.1379(7)
O28 O 0.5434(12) 0.8233(13) 0.0545(7)
O29 O 0.4042(7) 0.7020(17) 0.1212(4)
O30 O 0.6163(12) 0.9680(12) 0.2634(7)
O31 O 0.5911(11) 0.9655(11) 0.1480(7)
O32 O 0.4557(12) 0.8486(13) 0.2138(7)
O33 O 0.7797(10) 0.5908(10) 0.2027(6)
O34 O 0.6359(6) 0.7048(16) 0.2675(4)
O35 O 0.7671(11) 0.8333(12) 0.2013(7)
O36 O 0.6072(6) 0.7006(16) 0.1481(4)
O37 O 0.7972(12) 0.3025(15) 0.5651(7)
O38 O 0.7772(11) 0.1061(13) 0.5760(7)
O39 O 0.6464(14) 0.3412(16) 0.0361(8)
O40 O 0.8122(13) 0.177(2) -0.0652(8)
O41 O 1.0544(10) 0.204(3) 0.0213(6)
O42 O 1.1751(18) 0.283(2) 0.1505(12)
O43 O 1.2568(12) 0.0307(16) 0.3949(8)
O44 O 0.9766(9) 0.204(2) 0.2077(6)
O45? O 0.6639(7) 0.0472(9) 0.0211(4)
K1 K 0.6639(7) 0.0472(9) 0.0211(4)
O46 O 1.1596(12) 0.177(2) 0.2957(7)
O47 O 1.2249(14) 0.4869(16) 0.2263(9)
O48 O 1.2498(12) 0.2593(13) 0.4422(8)
O49 O 1.1303(7) 0.7060(19) 0.1813(4)
O50 O 1.0155(11) 0.4874(12) 0.3163(7)
O51 O 0.9633(12) 0.4792(12) 0.0719(7)
O52 O 0.9506(12) 0.9349(12) 0.0699(7)
Si1 Si 0.6955(3) 0.7050(7) 0.20469(16)
K2 K 0.5331(5) 0.7017(8) -0.1300(2)
K3 K 1.1736(5) 0.4102(7) 0.0474(3)
K4 K 0.1752(9) 0.9939(13) 0.0533(8)
O53? O 0.1752(9) 0.9939(13) 0.0533(8)
K5 K 1.2195(3) 0.4045(4) 0.3456(2)
K6 K 0.8418(6) 0.2025(11) 0.0618(3)
Cu1 Cu 0.7056(2) 0.3880(2) 0.20712(13)
Cu2 Cu 0.76687(18) 0.15136(18) 0.49111(11)
W1 W 0.90799(7) 0.53078(9) 0.27313(5)
W2 W 0.87559(8) 0.52652(9) 0.12591(5)
W3 W 0.52049(8) 0.54134(9) 0.29552(5)
W4 W 0.72113(5) 0.71068(11) 0.36162(3)
W5 W 0.90988(8) 0.87491(8) 0.27121(5)
W6 W 0.87466(9) 0.87224(8) 0.12114(6)
W7 W 0.65015(5) 0.69837(12) 0.04855(3)
W8 W 0.48166(8) 0.53865(9) 0.13396(5)
W9 W 0.51102(9) 0.85691(8) 0.29379(6)
W10 W 0.69975(8) 1.02757(10) 0.20338(5)
W11 W 0.47440(9) 0.85344(8) 0.12985(6)
O54 O 0.197(2) 0.952(2) 0.1982(13)
W10* W 0.69975(8) 0.02757(10) 0.20338(5)
O7* O 0.6724(7) 1.1846(13) 0.2040(5)
#END
