
#######################################################################
#
#                 Cambridge Crystallographic Data Centre
#                                CCDC
#
#######################################################################
#
# If this CIF has been generated from an entry in the Cambridge
# Structural Database, then it will include bibliographic, chemical,
# crystal, experimental, refinement or atomic coordinate data resulting
# from the CCDC's data processing and validation procedures.
#
#######################################################################

data_CSD_CIF_RAHMAP
_audit_creation_date 2005-02-17
_audit_creation_method CSD-ConQuest-V1
_database_code_CSD RAHMAP
_database_code_depnum_ccdc_archive 'CCDC 235545'
_chemical_formula_sum 'C32 H28 Cu3 N4 O18'
_chemical_formula_moiety
;
(C10 H16 Cu1 N2 O4 2+)n,n(C22 H12 Cu2 N2 O14 2-)
;
_journal_coden_Cambridge 9
_journal_volume 43
_journal_year 2004
_journal_page_first 6525
_journal_name_full 'Inorg.Chem. '
loop_
_publ_author_name
"E.Yang"
"Jian Zhang"
"Zhao-Ji Li"
"Song Gao"
"Yao Kang"
"Yu-Biao Chen"
"Yi-Hang Wen"
"Yuan-Gen Yao"
_chemical_name_systematic
;
catena-((\m~4~-Mellitato)-(\m~2~-4,4'-bipyridyl)-diaqua-di-copper(ii) 
(\m~2~-4,4'-bipyridyl)-tetra-aqua-copper(ii) clathrate)
;
_cell_volume   1613.075
_exptl_crystal_colour 'blue'
_exptl_crystal_density_diffrn 1.95
_exptl_crystal_description 'prism'
_diffrn_ambient_temperature 293
#These two values have been output from a single CSD field.
_refine_ls_R_factor_gt 0.0417
_refine_ls_wR_factor_gt 0.0417
_symmetry_cell_setting monoclinic
_symmetry_space_group_name_H-M 'P 2/c'
_symmetry_Int_Tables_number 13
loop_
_symmetry_equiv_pos_site_id
_symmetry_equiv_pos_as_xyz
1 x,y,z
2 x,-y,1/2+z
3 -x,-y,-z
4 -x,y,-1/2-z
_cell_length_a 10.1763(4)
_cell_length_b 11.1598(4)
_cell_length_c 14.8557(5)
_cell_angle_alpha 90
_cell_angle_beta 107.035(1)
_cell_angle_gamma 90
_cell_formula_units_Z 2
loop_
_atom_type_symbol
_atom_type_radius_bond
C 0.68
H 0.23
Cu 1.52
N 0.68
O 0.68
loop_
_atom_site_label
_atom_site_type_symbol
_atom_site_fract_x
_atom_site_fract_y
_atom_site_fract_z
Cu1 Cu 0.03066(5) 0.25026(4) 0.00000(3)
Cu2 Cu 0.50000 -1.08382(6) 0.25000
O1 O -0.1491(3) 0.1722(3) -0.00860(19)
O2 O -0.2930(3) 0.0676(3) 0.0463(2)
O3 O -0.0125(3) 0.3655(3) 0.0844(2)
O4 O -0.1329(4) 0.4235(3) 0.1787(2)
O5 O -0.0599(3) -0.1156(3) 0.0756(2)
O6 O -0.1443(3) -0.1816(3) 0.1905(2)
O7 O -0.0589(4) 0.3638(4) -0.1390(3)
H1 H -0.028(8) 0.429(7) -0.150(5)
H2 H -0.066(6) 0.331(5) -0.184(4)
O8 O 0.5253(4) -1.0814(3) 0.1090(2)
H3 H 0.584(6) -1.028(5) 0.100(4)
H4 H 0.461(6) -1.078(5) 0.068(4)
O9 O 0.2804(3) -1.0833(3) 0.1898(3)
H5 H 0.243(7) -1.105(6) 0.139(5)
H6 H 0.234(6) -1.112(5) 0.222(4)
N1 N 0.2134(3) 0.3291(3) 0.0181(2)
N2 N 0.50000 -0.9021(4) 0.25000
N3 N 0.50000 -0.2642(4) 0.25000
C1 C 0.2188(5) 0.4488(4) 0.0291(3)
H7 H 0.14470 0.48720 0.04120
C2 C 0.3279(4) 0.5168(4) 0.0233(3)
H8 H 0.32570 0.59950 0.03090
C3 C 0.4416(4) 0.4642(4) 0.0063(3)
C4 C 0.4391(5) 0.3392(4) 0.0000(3)
H9 H 0.51470 0.29840 -0.00780
C5 C 0.3253(5) 0.2758(4) 0.0052(3)
H10 H 0.32590 0.19280 -0.00040
C6 C -0.0668(4) 0.3481(4) 0.1512(3)
C7 C -0.0369(4) 0.2280(4) 0.2015(3)
C8 C -0.1807(4) 0.1190(3) 0.0564(3)
C9 C -0.0799(4) 0.1199(4) 0.1554(3)
C10 C -0.0422(4) 0.0119(4) 0.2033(3)
C11 C -0.0876(4) -0.1057(3) 0.1530(3)
C12 C 0.3878(4) -0.8389(4) 0.2517(3)
H11 H 0.30910 -0.88050 0.25280
C13 C 0.3847(4) -0.7156(4) 0.2519(3)
H12 H 0.30500 -0.67590 0.25330
C14 C 0.50000 -0.6500(5) 0.25000
C15 C 0.50000 -0.5165(5) 0.25000
C16 C 0.6033(4) -0.4505(4) 0.2276(3)
H13 H 0.67480 -0.48990 0.21290
C17 C 0.5986(4) -0.3273(4) 0.2274(3)
H14 H 0.66710 -0.28550 0.21070
C7C C 0.0369(4) 0.2280(4) 0.2985(3)
C6C C 0.0668(4) 0.3481(4) 0.3488(3)
O3C O 0.0125(3) 0.3655(3) 0.4156(2)
O4C O 0.1329(4) 0.4235(3) 0.3213(2)
C9C C 0.0799(4) 0.1199(4) 0.3446(3)
C8C C 0.1807(4) 0.1190(3) 0.4436(3)
O1C O 0.1491(3) 0.1722(3) 0.50860(19)
O2C O 0.2930(3) 0.0676(3) 0.4537(2)
C10C C 0.0422(4) 0.0119(4) 0.2967(3)
C11C C 0.0876(4) -0.1057(3) 0.3470(3)
O5C O 0.0599(3) -0.1156(3) 0.4244(2)
O6C O 0.1443(3) -0.1816(3) 0.3095(2)
C3B C 0.5584(4) 0.5358(4) -0.0063(3)
C2B C 0.6721(4) 0.4832(4) -0.0233(3)
C1B C 0.7812(5) 0.5512(4) -0.0291(3)
N1B N 0.7866(3) 0.6709(3) -0.0181(2)
C5B C 0.6747(5) 0.7242(4) -0.0052(3)
C4B C 0.5609(5) 0.6608(4) 0.0000(3)
H9B H 0.48530 0.70160 0.00780
H10B H 0.67410 0.80720 0.00040
H7B H 0.85530 0.51280 -0.04120
H8B H 0.67430 0.40050 -0.03090
C13C C 0.6153(4) -0.7156(4) 0.2481(3)
C12C C 0.6122(4) -0.8389(4) 0.2483(3)
H11C H 0.69090 -0.88050 0.24720
H12C H 0.69500 -0.67590 0.24670
C17C C 0.4014(4) -0.3273(4) 0.2726(3)
C16C C 0.3967(4) -0.4505(4) 0.2724(3)
H13C H 0.32520 -0.48990 0.28710
H14C H 0.33290 -0.28550 0.28930
O8C O 0.4747(4) -1.0814(3) 0.3910(2)
H3C H 0.416(6) -1.028(5) 0.400(4)
H4C H 0.539(6) -1.078(5) 0.432(4)
O9C O 0.7196(3) -1.0833(3) 0.3102(3)
H5C H 0.757(7) -1.105(6) 0.361(5)
H6C H 0.766(6) -1.112(5) 0.278(4)
Cu1C Cu -0.03066(5) 0.25026(4) 0.50000(3)
O7C O 0.0589(4) 0.3638(4) 0.6390(3)
H1C H 0.028(8) 0.429(7) 0.650(5)
H2C H 0.066(6) 0.331(5) 0.684(4)
O5B O 0.0599(3) 0.1156(3) -0.0756(2)
N3* N 0.50000 -1.2642(4) 0.25000
Cu1B Cu -0.03066(5) -0.25026(4) 0.00000(3)
Cu2* Cu 0.50000 -0.08382(6) 0.25000
Cu1A Cu 0.03066(5) -0.25026(4) 0.50000(3)
Cu1B* Cu 0.96934(5) 0.74974(4) 0.00000(3)
O5A O -0.0599(3) 0.1156(3) 0.5756(2)
N1C N -0.2134(3) 0.3291(3) 0.4819(2)
#END
