
#######################################################################
#
#                 Cambridge Crystallographic Data Centre
#                                CCDC
#
#######################################################################
#
# If this CIF has been generated from an entry in the Cambridge
# Structural Database, then it will include bibliographic, chemical,
# crystal, experimental, refinement or atomic coordinate data resulting
# from the CCDC's data processing and validation procedures.
#
#######################################################################

data_CSD_CIF_RAMJOH
_audit_creation_date 2017-01-17
_audit_creation_method CSD-ConQuest-V1
_database_code_CSD RAMJOH
_database_code_depnum_ccdc_archive 'CCDC 756105'
_chemical_formula_sum 'C117 H104 Cd6 N4 O39'
_chemical_formula_moiety
;
(C117 H84 Cd6 N4 O30 2-)n,7(H2 O1),2(H3 O1 1+)
;
_journal_coden_Cambridge 1500
_journal_volume 7
_journal_year 2017
_journal_page_first 5541
_journal_name_full 'RSC Advances '
loop_
_publ_author_name
"Lei Wu"
"Dongdong Chigan"
"Luke Yan"
"Huaxin Chen"
_chemical_name_systematic
;
catena-[bis(oxonium) 
(\m-4,4'-(propane-1,3-diyl)dipyridine)-heptakis(\m-[1,1'-biphenyl]-4,4'-dicarb
oxylato)-bis(N,N-dimethylformamide)-hexa-cadmium(ii) hydrate]
;
_cell_volume  31265.529
_exptl_crystal_colour 'colorless'
_exptl_crystal_density_diffrn 1.192
_exptl_crystal_description 'rod'
_diffrn_ambient_temperature 293
_refine_special_details
;
Some water molecules have not been located.

;
#These two values have been output from a single CSD field.
_refine_ls_R_factor_gt 0.0681
_refine_ls_wR_factor_gt 0.0681
_symmetry_cell_setting monoclinic
_symmetry_space_group_name_H-M 'C 2/c'
_symmetry_Int_Tables_number 15
loop_
_symmetry_equiv_pos_site_id
_symmetry_equiv_pos_as_xyz
1 x,y,z
2 -x,y,1/2-z
3 1/2+x,1/2+y,z
4 1/2-x,1/2+y,1/2-z
5 -x,-y,-z
6 x,-y,-1/2+z
7 -1/2-x,-1/2-y,-z
8 -1/2+x,-1/2-y,-1/2+z
_cell_length_a 53.600(11)
_cell_length_b 13.976(3)
_cell_length_c 47.389(9)
_cell_angle_alpha 90
_cell_angle_beta 118.27(3)
_cell_angle_gamma 90
_cell_formula_units_Z 8
loop_
_atom_type_symbol
_atom_type_radius_bond
C 0.68
H 0.23
Cd 1.44
N 0.68
O 0.68
loop_
_atom_site_label
_atom_site_type_symbol
_atom_site_fract_x
_atom_site_fract_y
_atom_site_fract_z
C1 C 0.33139(16) 0.7604(6) 0.07575(19)
C2 C 0.35152(14) 0.7541(5) 0.06145(16)
C3 C 0.34537(15) 0.8039(5) 0.03396(17)
H1 H 0.32900 0.84080 0.02420
C4 C 0.36362(14) 0.7993(5) 0.02065(17)
H2 H 0.35900 0.83290 0.00190
C5 C 0.38840(14) 0.7465(5) 0.03439(17)
C6 C 0.39444(14) 0.6963(5) 0.06214(17)
H3 H 0.41090 0.65980 0.07180
C7 C 0.37683(14) 0.6989(5) 0.07567(17)
H4 H 0.38140 0.66430 0.09430
C8 C 0.40706(14) 0.7428(5) 0.02013(17)
C9 C 0.40931(14) 0.8248(6) 0.00323(17)
H5 H 0.39990 0.88120 0.00270
C10 C 0.42558(15) 0.8192(6) -0.01221(17)
H6 H 0.42670 0.87290 -0.02310
C11 C 0.44063(15) 0.7355(5) -0.01224(18)
C12 C 0.43787(14) 0.6583(5) 0.00404(16)
H7 H 0.44740 0.60210 0.00470
C13 C 0.42150(13) 0.6603(5) 0.01952(16)
H8 H 0.42010 0.60540 0.02980
C14 C 0.45651(16) 0.7319(6) -0.03002(18)
C15 C 0.23978(15) 0.8778(6) 0.07310(18)
C16 C 0.21236(15) 0.9254(6) 0.05500(17)
C17 C 0.20437(17) 0.9951(7) 0.06856(19)
H9 H 0.21670 1.01410 0.08940
C18 C 0.17743(16) 1.0409(7) 0.05175(19)
H10 H 0.17300 1.08960 0.06200
C19 C 0.15820(16) 1.0167(6) 0.02181(18)
C20 C 0.16719(15) 0.9419(6) 0.00801(18)
H11 H 0.15480 0.92140 -0.01260
C21 C 0.19316(15) 0.8994(6) 0.02377(17)
H12 H 0.19810 0.85220 0.01350
C22 C 0.12967(15) 1.0532(6) 0.00579(17)
C23 C 0.11610(16) 1.0791(6) 0.02326(19)
H13 H 0.12600 1.07280 0.04540
C24 C 0.08908(15) 1.1134(6) 0.00980(18)
H14 H 0.08150 1.13450 0.02270
C25 C 0.07299(15) 1.1165(6) -0.02345(17)
C26 C 0.08531(14) 1.0894(5) -0.04209(17)
H15 H 0.07480 1.09120 -0.06430
C27 C 0.11336(15) 1.0595(6) -0.02776(17)
H16 H 0.12150 1.04330 -0.04060
C28 C 0.04227(15) 1.1481(6) -0.03829(18)
C29 C 0.27687(16) 0.6162(5) 0.1152(2)
C30 C 0.26852(16) 0.5242(5) 0.12473(19)
C31 C 0.25952(17) 0.4449(6) 0.1032(2)
H17 H 0.25860 0.45080 0.08320
C32 C 0.25233(17) 0.3605(6) 0.1119(2)
H18 H 0.24610 0.31010 0.09730
C33 C 0.25395(16) 0.3474(6) 0.14151(19)
C34 C 0.26186(16) 0.4256(5) 0.16207(19)
H19 H 0.26230 0.41910 0.18180
C35 C 0.26914(16) 0.5126(5) 0.15421(19)
H20 H 0.27440 0.56330 0.16860
C36 C 0.24805(18) 0.2506(5) 0.1509(2)
C37 C 0.25882(16) 0.1707(5) 0.14340(18)
H21 H 0.26900 0.17810 0.13220
C38 C 0.25469(16) 0.0770(5) 0.15239(18)
H22 H 0.26190 0.02410 0.14680
C39 C 0.24006(16) 0.0649(5) 0.16942(18)
C40 C 0.23021(17) 0.1488(5) 0.17831(18)
H23 H 0.22010 0.14310 0.18970
C41 C 0.23565(18) 0.2382(6) 0.1701(2)
H24 H 0.23070 0.29200 0.17800
C42 C 0.23397(16) -0.0306(5) 0.17736(19)
C43 C 0.32042(16) 0.9073(6) 0.16208(18)
C44 C 0.34475(15) 0.9652(6) 0.18309(17)
C45 C 0.36270(17) 1.0054(7) 0.1724(2)
H25 H 0.35790 1.00090 0.15080
C46 C 0.38729(17) 1.0514(7) 0.19312(18)
H26 H 0.39920 1.07410 0.18530
C47 C 0.39530(15) 1.0659(6) 0.22635(17)
C48 C 0.37618(17) 1.0315(7) 0.23570(19)
H27 H 0.37990 1.03980 0.25680
C49 C 0.35135(17) 0.9845(7) 0.21420(19)
H28 H 0.33870 0.96540 0.22140
C50 C 0.42188(15) 1.1117(6) 0.24827(17)
C51 C 0.44043(16) 1.1465(6) 0.23668(18)
H29 H 0.43490 1.14530 0.21490
C52 C 0.46616(16) 1.1811(6) 0.25800(17)
H30 H 0.47820 1.20230 0.25020
C53 C 0.47570(14) 1.1870(6) 0.29081(16)
C54 C 0.45685(15) 1.1571(6) 0.30149(18)
H31 H 0.46200 1.16150 0.32320
C55 C 0.43030(16) 1.1208(6) 0.28016(17)
H32 H 0.41800 1.10240 0.28790
C56 C 0.50486(15) 1.2161(6) 0.31288(18)
C57 C 0.27285(15) 0.6966(6) 0.21758(17)
C58 C 0.29929(15) 0.6473(6) 0.23873(16)
C59 C 0.30027(15) 0.5790(6) 0.26262(17)
H33 H 0.28410 0.56580 0.26440
C60 C 0.32542(15) 0.5348(6) 0.28233(17)
H34 H 0.32590 0.49180 0.29750
C61 C 0.35053(15) 0.5515(6) 0.28059(17)
C62 C 0.34883(15) 0.6093(6) 0.25669(17)
H35 H 0.36460 0.61580 0.25360
C63 C 0.32435(15) 0.6591(6) 0.23674(17)
H36 H 0.32460 0.70130 0.22170
C64 C 0.37703(15) 0.5016(6) 0.30238(18)
C65 C 0.38252(15) 0.4783(6) 0.33309(18)
H37 H 0.36920 0.49230 0.33990
C66 C 0.40840(16) 0.4331(6) 0.35438(19)
H38 H 0.41150 0.41520 0.37470
C67 C 0.42861(14) 0.4156(6) 0.34582(18)
C68 C 0.42310(15) 0.4357(6) 0.31488(18)
H39 H 0.43640 0.42050 0.30820
C69 C 0.39768(15) 0.4786(6) 0.29368(19)
H40 H 0.39440 0.49250 0.27300
C70 C 0.45631(15) 0.3724(6) 0.37022(18)
C71 C 0.20837(16) 0.6670(6) 0.12245(19)
C72 C 0.19061(14) 0.6016(5) 0.09456(17)
C73 C 0.19645(15) 0.5936(5) 0.06986(17)
H41 H 0.21160 0.62720 0.07030
C74 C 0.18003(14) 0.5358(5) 0.04389(17)
H42 H 0.18470 0.53030 0.02740
C75 C 0.15667(14) 0.4853(5) 0.04166(17)
C76 C 0.15107(15) 0.4948(6) 0.06727(17)
H43 H 0.13570 0.46260 0.06670
C77 C 0.16770(15) 0.5506(6) 0.09345(18)
H44 H 0.16370 0.55450 0.11050
C78 C 0.13783(15) 0.4324(5) 0.01218(16)
C79 C 0.14732(16) 0.3968(6) -0.00849(17)
H45 H 0.16650 0.40190 -0.00270
C80 C 0.12888(15) 0.3534(6) -0.03794(18)
H46 H 0.13560 0.33350 -0.05180
C81 C 0.10025(14) 0.3405(5) -0.04619(16)
C82 C 0.09151(15) 0.3727(5) -0.02531(16)
H47 H 0.07260 0.36420 -0.03040
C83 C 0.10916(14) 0.4169(5) 0.00284(16)
H48 H 0.10190 0.43730 0.01620
C84 C 0.08064(15) 0.2965(5) -0.07756(17)
C85 C 0.2076(2) 0.7355(8) 0.2421(2)
H49 H 0.22640 0.71680 0.24980
C86 C 0.1968(2) 0.7346(8) 0.2635(3)
H50 H 0.20810 0.71880 0.28500
C87 C 0.1689(2) 0.7578(8) 0.2521(3)
C88 C 0.1528(2) 0.7751(8) 0.2201(3)
H51 H 0.13340 0.78550 0.21130
C89 C 0.1661(2) 0.7771(7) 0.2006(2)
H52 H 0.15510 0.79030 0.17900
C90 C 0.1566(2) 0.7677(9) 0.2763(3)
H53 H 0.13620 0.75990 0.26490
H54 H 0.16440 0.71800 0.29240
C91 C 0.1635(2) 0.8598(9) 0.2914(2)
H55 H 0.14870 0.90450 0.27820
H56 H 0.18090 0.88170 0.29210
C92 C 0.1670(2) 0.8633(9) 0.3241(2)
H57 H 0.17210 0.92810 0.33200
H58 H 0.18280 0.82230 0.33750
C93 C 0.1416(2) 0.8339(9) 0.3280(3)
C94 C 0.1435(2) 0.7758(9) 0.3498(3)
H59 H 0.16090 0.74710 0.36250
C95 C 0.1217(2) 0.7532(9) 0.3555(3)
H60 H 0.12460 0.70960 0.37160
C96 C 0.0932(2) 0.8444(8) 0.3155(2)
H61 H 0.07550 0.87040 0.30180
C97 C 0.1156(2) 0.8636(9) 0.3100(3)
H62 H 0.11200 0.90050 0.29220
C98 C 0.04442(16) 0.0436(5) -0.14231(19)
C99 C 0.03683(16) -0.0519(5) -0.13384(18)
C100 C 0.03906(17) -0.1348(5) -0.14911(19)
H63 H 0.04480 -0.13000 -0.16480
C101 C 0.03283(18) -0.2243(5) -0.1411(2)
H64 H 0.03490 -0.27890 -0.15100
C102 C 0.02350(17) -0.2326(5) -0.11832(19)
C103 C 0.02110(16) -0.1490(5) -0.10361(18)
H65 H 0.01490 -0.15310 -0.08840
C104 C 0.02766(16) -0.0621(5) -0.11100(18)
H66 H 0.02600 -0.00810 -0.10060
C105 C 0.01764(17) -0.3275(5) -0.10881(19)
C106 C 0.00639(17) -0.4025(5) -0.13123(19)
H67 H 0.00240 -0.39250 -0.15240
C107 C 0.00139(17) -0.4893(6) -0.1222(2)
H68 H -0.00700 -0.53690 -0.13750
C108 C 0.00851(16) -0.5093(5) -0.09013(19)
C109 C 0.02098(17) -0.4367(5) -0.0677(2)
H69 H 0.02700 -0.44880 -0.04610
C110 C 0.02452(16) -0.3457(5) -0.07736(18)
H70 H 0.03160 -0.29650 -0.06240
C111 C 0.00326(16) -0.6036(5) -0.0799(2)
C112 C 0.16928(19) 0.8547(7) 0.1169(2)
H71 H 0.18520 0.86890 0.11460
C113 C 0.1438(2) 0.8165(9) 0.0588(2)
H72 H 0.16100 0.83800 0.05930
H73 H 0.12790 0.84930 0.04210
H74 H 0.14170 0.74890 0.05490
C114 C 0.1191(3) 0.8342(13) 0.0927(3)
H75 H 0.10880 0.77690 0.08290
H76 H 0.10770 0.88900 0.08230
H77 H 0.12400 0.83490 0.11500
C115 C 0.06786(18) 0.4493(6) -0.1316(2)
H78 H 0.05200 0.43890 -0.12880
C116 C 0.1139(2) 0.5154(9) -0.1124(3)
H79 H 0.12520 0.46270 -0.10000
H80 H 0.12300 0.57450 -0.10260
H81 H 0.11170 0.51190 -0.13370
C117 C 0.0816(2) 0.5622(7) -0.0889(2)
H82 H 0.06670 0.53260 -0.08630
H83 H 0.07680 0.62780 -0.09520
H84 H 0.09890 0.55950 -0.06910
Cd1 Cd 0.293315(10) 0.77986(3) 0.097628(11)
Cd2 Cd 0.263400(9) 0.80358(3) 0.148364(11)
Cd3 Cd 0.217361(10) 0.78457(3) 0.183223(11)
Cd4 Cd -0.010675(10) 1.22735(4) -0.059576(11)
Cd5 Cd 0.015436(9) 0.21596(3) -0.114505(10)
Cd6 Cd 0.060853(9) 0.23108(3) -0.148100(11)
N1 N 0.19337(12) 0.7609(5) 0.21168(14)
N2 N 0.09568(13) 0.7935(5) 0.33801(16)
N3 N 0.14492(15) 0.8370(8) 0.08965(18)
N4 N 0.08528(17) 0.5110(6) -0.11390(19)
O1 O 0.30876(11) 0.8027(5) 0.06089(13)
O2 O 0.33839(12) 0.7204(4) 0.10194(14)
O3 O 0.45661(13) 0.8000(5) -0.04671(16)
O4 O 0.47061(13) 0.6607(5) -0.02805(14)
O5 O 0.25326(10) 0.8887(4) 0.10255(12)
O6 O 0.24937(11) 0.8284(5) 0.05850(12)
O7 O 0.03337(10) 1.1801(5) -0.02019(12)
O8 O 0.02685(9) 1.1371(3) -0.06739(11)
O9 O 0.28613(10) 0.6831(4) 0.13524(13)
O10 O 0.27518(12) 0.6234(4) 0.08808(13)
O11 O 0.23449(10) -0.1003(3) 0.16012(12)
O12 O 0.22705(12) -0.0442(4) 0.19805(13)
O13 O 0.3035(1) 0.8851(4) 0.17195(11)
O14 O 0.3185(1) 0.8832(4) 0.13513(12)
O15 O 0.51427(9) 1.2029(3) 0.34318(10)
O16 O 0.52008(10) 1.2516(4) 0.30227(11)
O17 O 0.27251(13) 0.7392(5) 0.19495(14)
O18 O 0.25324(11) 0.6976(5) 0.22307(12)
O19 O 0.47452(9) 0.3590(4) 0.36068(11)
O20 O 0.4588(1) 0.3529(4) 0.39702(11)
O21 O 0.20363(11) 0.6679(4) 0.14611(12)
O22 O 0.22560(11) 0.7187(4) 0.11863(12)
O23 O 0.05505(9) 0.2997(3) -0.08459(11)
O24 O 0.09012(9) 0.2663(4) -0.09541(11)
O25 O 0.05402(15) 0.0495(4) -0.16089(17)
O26 O 0.04258(9) 0.1159(3) -0.12713(12)
O27 O -0.00790(9) -0.6699(3) -0.10166(13)
O28 O 0.00889(13) -0.6172(4) -0.05157(15)
O29 O 0.17246(11) 0.8540(5) 0.14406(12)
O30 O 0.06993(12) 0.3995(4) -0.15303(14)
O31 O 0.1959(3) 0.4433(13) 0.2136(4)
O32 O 0.25000 0.75000 0.00000
O33 O 0.1571(5) 0.0563(14) 0.9185(5)
O34 O 0.0952(5) 0.4030(17) 0.6396(4)
O35 O 0.0207(6) 0.9399(12) 0.5514(5)
O36 O 0.1116(5) 0.1970(16) 0.3089(4)
O37 O 0.2156(4) 0.4147(13) 0.9488(5)
Cd2* Cd 0.263400(9) -0.19642(3) 0.148364(11)
Cd3* Cd 0.217361(10) -0.21543(3) 0.183223(11)
Cd4* Cd -0.010675(10) -0.77265(4) -0.059576(11)
Cd4B Cd 0.489325(10) 0.72735(4) -0.059576(11)
Cd4G Cd 0.489325(10) 0.27265(4) 0.440424(11)
Cd5* Cd 0.015436(9) -0.78404(3) -0.114505(10)
Cd5** Cd 0.015436(9) 1.21596(3) -0.114505(10)
Cd5G Cd 0.515436(9) 0.28404(3) 0.385495(10)
Cd5G* Cd 0.515436(9) 1.28404(3) 0.385495(10)
Cd6E Cd 0.060853(9) 0.76892(3) 0.351900(11)
Cd6G Cd 0.560853(9) 1.26892(3) 0.351900(11)
N2E N 0.09568(13) 0.2065(5) -0.16199(16)
O3B O -0.04339(13) 1.3000(5) -0.04671(16)
O4B O -0.02939(13) 1.1607(5) -0.02805(14)
O8* O 0.02685(9) 0.1371(3) -0.06739(11)
O11* O 0.23449(10) 0.8997(3) 0.16012(12)
O12* O 0.22705(12) 0.9558(4) 0.19805(13)
O15G O 0.01427(9) 0.2971(3) -0.15682(10)
O16G O 0.02008(10) 0.2484(4) -0.19773(11)
O19G O -0.02548(9) 0.1410(4) -0.13932(11)
O20G O -0.0412(1) 1.1471(4) -0.10298(11)
O27* O -0.00790(9) 0.3301(3) -0.10166(13)
O27** O -0.00790(9) 1.3301(3) -0.10166(13)
O28* O 0.00889(13) 1.3828(4) -0.05157(15)
#END
