
#######################################################################
#
#                 Cambridge Crystallographic Data Centre
#                                CCDC
#
#######################################################################
#
# If this CIF has been generated from an entry in the Cambridge
# Structural Database, then it will include bibliographic, chemical,
# crystal, experimental, refinement or atomic coordinate data resulting
# from the CCDC's data processing and validation procedures.
#
#######################################################################

data_CSD_CIF_RANDUH
_audit_creation_date 2012-02-16
_audit_creation_method CSD-ConQuest-V1
_database_code_CSD RANDUH
_database_code_depnum_ccdc_archive 'CCDC 816052'
_chemical_formula_sum 'C85 H73 Mn3 N15 O11 W1'
_chemical_formula_moiety
;
(C33 H20 Mn1 N10 O2 W1 2-)n,2n(C25 H24 Mn1 N2 O4 1+),n(C2 H3 N1),n(H2 O1)
;
_journal_coden_Cambridge 9
_journal_volume 50
_journal_year 2011
_journal_page_first 11306
_journal_name_full 'Inorg.Chem. '
loop_
_publ_author_name
"Jung Hee Yoon"
"Jin Wuk Lee"
"Dae Won Ryu"
"Sang Yup Choi"
"Sung Won Yoon"
"Byoung Jin Suh"
"Eui Kwan Koh"
"Hyoung Chan Kim"
"Chang Seop Hong"
_chemical_name_systematic
;
catena-(bis(diaqua-(1,1'-(propane-1,2-diylbis(nitrilomethylylidene))di(2-napht
holato))-manganese(iii)) 
bis(\m~2~-cyanido)-hexacyanido-(1,1'-(propane-1,2-diylbis(nitrilomethylylidene
))di(2-naphtholato))-manganese(iii)-tungsten(v) acetonitrile solvate 
monohydrate)
;
_cell_volume   9686.121
_exptl_crystal_colour 'red'
_exptl_crystal_description 'block'
_diffrn_ambient_temperature 293
_refine_special_details
;
C21A,C22A and C21B,C22B disordered over two sites with occupancies 
0.671:0.329; C71A and C71B disordered over two sites with occupancies 
0.585:0.415; The SQUEEZE/PLATON program has been used to model the solvent 
molecule and water molecule.
;
#These two values have been output from a single CSD field.
_refine_ls_R_factor_gt 0.0524
_refine_ls_wR_factor_gt 0.0524
_symmetry_cell_setting monoclinic
_symmetry_space_group_name_H-M 'P 21/c'
_symmetry_Int_Tables_number 14
loop_
_symmetry_equiv_pos_site_id
_symmetry_equiv_pos_as_xyz
1 x,y,z
2 -x,1/2+y,1/2-z
3 -x,-y,-z
4 x,-1/2-y,-1/2+z
_cell_length_a 19.4499(11)
_cell_length_b 23.2599(13)
_cell_length_c 21.4110(12)
_cell_angle_alpha 90
_cell_angle_beta 90.431(2)
_cell_angle_gamma 90
_cell_formula_units_Z 4
loop_
_atom_type_symbol
_atom_type_radius_bond
C 0.68
H 0.23
Mn 1.54
N 0.68
O 0.68
W 1.62
loop_
_atom_site_label
_atom_site_type_symbol
_atom_site_fract_x
_atom_site_fract_y
_atom_site_fract_z
W1 W 0.398309(8) 0.710710(6) -0.132548(6)
C1 C 0.3703(2) 0.70390(15) -0.03520(18)
N1 N 0.3558(2) 0.70114(14) 0.01677(16)
C2 C 0.4430(2) 0.78606(17) -0.08965(18)
N2 N 0.46357(19) 0.82605(15) -0.06430(16)
C3 C 0.3142(2) 0.76844(18) -0.11676(19)
N3 N 0.2696(2) 0.80016(18) -0.1088(2)
C4 C 0.3106(2) 0.65501(17) -0.13260(18)
N4 N 0.2626(2) 0.62467(18) -0.13160(18)
C5 C 0.4186(2) 0.63968(15) -0.19527(17)
N5 N 0.42985(19) 0.60198(15) -0.22779(17)
C6 C 0.4735(3) 0.6585(2) -0.0854(2)
N6 N 0.5152(2) 0.62943(19) -0.0631(2)
C7 C 0.4908(3) 0.73114(19) -0.1850(2)
N7 N 0.5384(2) 0.74085(18) -0.2144(2)
C8 C 0.3624(2) 0.74489(17) -0.22157(18)
N8 N 0.3443(3) 0.76307(16) -0.26900(16)
Mn1 Mn 0.34677(3) 0.71251(2) 0.12344(2)
O1 O 0.37916(16) 0.63768(11) 0.13709(12)
O2 O 0.25379(16) 0.69100(12) 0.12260(13)
N9 N 0.44013(19) 0.74369(14) 0.12655(16)
N10 N 0.3212(2) 0.79299(14) 0.10743(17)
C9 C 0.4420(3) 0.61876(17) 0.14382(18)
C10 C 0.4492(3) 0.55801(17) 0.15219(19)
H1 H 0.41020 0.53480 0.15230
C11 C 0.5120(3) 0.5341(2) 0.1599(2)
H2 H 0.51510 0.49440 0.16410
C12 C 0.5730(3) 0.5667(2) 0.1618(2)
C13 C 0.6384(3) 0.5415(2) 0.1717(2)
H3 H 0.64140 0.50180 0.17530
C14 C 0.6958(3) 0.5725(3) 0.1759(2)
H4 H 0.73800 0.55460 0.18270
C15 C 0.6918(3) 0.6323(3) 0.1698(2)
H5 H 0.73150 0.65440 0.17310
C16 C 0.6295(3) 0.6587(2) 0.1589(2)
H6 H 0.62820 0.69850 0.15440
C17 C 0.5676(2) 0.62747(19) 0.15448(19)
C18 C 0.5004(2) 0.65335(17) 0.14449(18)
C19 C 0.4947(3) 0.71450(19) 0.1363(2)
H7 H 0.53560 0.73520 0.13840
C20 C 0.5068(2) 0.83656(19) 0.1211(2)
H8 H 0.54020 0.82340 0.15120
H9 H 0.50260 0.87760 0.12390
H10 H 0.52140 0.82620 0.07990
C21 C 0.4383(4) 0.8091(3) 0.1343(4)
H11 H 0.42450 0.81850 0.17700
C22 C 0.3817(4) 0.8279(3) 0.0889(5)
H12 H 0.37220 0.86860 0.09300
H13 H 0.39450 0.81980 0.04600
C23 C 0.2598(3) 0.8145(2) 0.1062(2)
H14 H 0.25590 0.85370 0.09820
C24 C 0.1980(2) 0.78347(19) 0.1159(2)
C25 C 0.1339(3) 0.8145(2) 0.1161(2)
C26 C 0.1279(3) 0.8739(2) 0.1061(3)
H15 H 0.16730 0.89520 0.09820
C27 C 0.0660(3) 0.9014(3) 0.1077(3)
H16 H 0.06440 0.94090 0.10120
C28 C 0.0053(4) 0.8717(4) 0.1187(3)
H17 H -0.03650 0.89110 0.11950
C29 C 0.0079(3) 0.8131(3) 0.1284(3)
H18 H -0.03250 0.79300 0.13610
C30 C 0.0719(3) 0.7829(3) 0.1267(2)
C31 C 0.0747(3) 0.7235(3) 0.1351(2)
H19 H 0.03400 0.70340 0.14170
C32 C 0.1354(3) 0.6938(2) 0.1340(2)
H20 H 0.13580 0.65420 0.14000
C33 C 0.1976(2) 0.72365(19) 0.12391(18)
Mn2 Mn 0.81816(3) 0.51107(2) 0.02105(3)
O3 O 0.90609(13) 0.47867(11) 0.01612(14)
O4 O 0.84575(14) 0.58394(11) 0.05193(14)
N11 N 0.77792(16) 0.43793(13) -0.00658(15)
N12 N 0.72170(16) 0.53713(13) 0.01863(16)
C34 C 0.9227(2) 0.42402(17) 0.02303(19)
C35 C 0.9939(2) 0.41230(19) 0.0341(2)
H21 H 1.02520 0.44250 0.03660
C36 C 1.0159(2) 0.35761(19) 0.0410(2)
H22 H 1.06250 0.35090 0.04750
C37 C 0.9704(2) 0.31006(19) 0.0387(2)
C38 C 0.9953(2) 0.25300(19) 0.0454(2)
H23 H 1.04210 0.24680 0.05090
C39 C 0.9515(3) 0.20711(19) 0.0439(2)
H24 H 0.96860 0.16990 0.04760
C40 C 0.8810(2) 0.21652(18) 0.0368(2)
H25 H 0.85100 0.18540 0.03680
C41 C 0.8551(2) 0.27170(17) 0.02969(19)
H26 H 0.80790 0.27710 0.02580
C42 C 0.8993(2) 0.31991(17) 0.02828(17)
C43 C 0.87601(19) 0.37820(16) 0.01805(17)
C44 C 0.80670(19) 0.38814(16) -0.00101(17)
H27 H 0.77990 0.35610 -0.01020
C45 C 0.7060(2) 0.44468(17) -0.0271(2)
H28 H 0.68260 0.40790 -0.02570
H29 H 0.70430 0.45880 -0.06970
C46 C 0.6706(2) 0.48768(18) 0.0169(2)
H30 H 0.66930 0.47050 0.05860
C47 C 0.5990(2) 0.5030(2) -0.0014(2)
H31 H 0.58030 0.52930 0.02860
H32 H 0.57130 0.46890 -0.00290
H33 H 0.59900 0.52090 -0.04190
C48 C 0.7019(2) 0.58935(16) 0.01783(19)
H34 H 0.65510 0.59590 0.01200
C49 C 0.7154(2) 0.69637(16) 0.01863(18)
C50 C 0.6476(2) 0.70606(18) -0.0021(2)
H35 H 0.62000 0.67500 -0.01320
C51 C 0.6214(2) 0.7611(2) -0.0061(2)
H36 H 0.57630 0.76640 -0.01950
C52 C 0.6611(3) 0.80878(19) 0.0092(2)
H37 H 0.64250 0.84560 0.00660
C53 C 0.7268(3) 0.80116(17) 0.0280(2)
H38 H 0.75350 0.83310 0.03770
C54 C 0.7561(2) 0.74538(17) 0.03332(19)
C55 C 0.8250(2) 0.73752(18) 0.0534(2)
H39 H 0.85140 0.76960 0.06350
C56 C 0.8536(2) 0.68398(17) 0.0585(2)
H40 H 0.89920 0.68010 0.07140
C57 C 0.8137(2) 0.63372(17) 0.04395(19)
O5 O 0.82925(17) 0.54302(14) -0.07922(15)
O6 O 0.81185(14) 0.47697(11) 0.12057(13)
Mn3 Mn 0.56447(3) 0.97874(2) 0.90164(2)
N13 N 0.52407(16) 0.92472(12) 0.84165(13)
N14 N 0.64547(17) 0.92930(13) 0.89473(16)
O7 O 0.48163(13) 1.0209(1) 0.90380(12)
O8 O 0.60905(13) 1.02708(10) 0.95958(12)
C58 C 0.7454(2) 0.63953(16) 0.02520(18)
C59 C 0.42188(19) 1.01110(14) 0.87612(16)
C60 C 0.3683(2) 1.05099(16) 0.88932(18)
H41 H 0.37690 1.08130 0.91660
C61 C 0.3054(2) 1.04572(16) 0.86319(18)
H42 H 0.27180 1.07280 0.87230
C62 C 0.2895(2) 0.99980(17) 0.82197(18)
C63 C 0.2230(2) 0.9948(2) 0.7954(2)
H43 H 0.19020 1.02290 0.80330
C64 C 0.2066(3) 0.9487(3) 0.7581(3)
H44 H 0.16260 0.94520 0.74130
C65 C 0.2562(3) 0.9072(3) 0.7455(3)
H45 H 0.24480 0.87590 0.72030
C66 C 0.3215(2) 0.9117(2) 0.7696(2)
H46 H 0.35380 0.88360 0.76010
C67 C 0.3405(2) 0.95815(17) 0.80883(17)
C68 C 0.40873(19) 0.96504(15) 0.83616(16)
C69 C 0.4614(2) 0.92429(15) 0.82069(16)
H47 H 0.44950 0.89500 0.79310
C70 C 0.5739(2) 0.8817(2) 0.8208(2)
H48 H 0.55010 0.84610 0.81150
H49 H 0.59550 0.89500 0.78270
C71 C 0.6252(3) 0.8714(3) 0.8666(3)
H50 H 0.60540 0.84750 0.89960
C72 C 0.6894(3) 0.8391(2) 0.8387(3)
H51 H 0.72270 0.83250 0.87120
H52 H 0.70950 0.86230 0.80650
H53 H 0.67500 0.80300 0.82140
C73 C 0.7040(2) 0.93741(17) 0.92250(19)
H54 H 0.73840 0.91070 0.91450
C74 C 0.72145(19) 0.98340(15) 0.96441(17)
C75 C 0.7896(2) 0.98600(17) 0.99105(18)
C76 C 0.8418(2) 0.9458(2) 0.9781(2)
H55 H 0.83250 0.91530 0.95130
C77 C 0.9062(3) 0.9508(3) 1.0046(3)
H56 H 0.93970 0.92370 0.99520
C78 C 0.9217(3) 0.9954(3) 1.0450(3)
H57 H 0.96560 0.99830 1.06230
C79 C 0.8730(2) 1.0351(2) 1.0594(2)
H58 H 0.88370 1.06490 1.08680
C80 C 0.8061(2) 1.03139(17) 1.03286(19)
C81 C 0.7558(2) 1.07256(17) 1.04762(19)
H59 H 0.76690 1.10200 1.07520
C82 C 0.6910(2) 1.07044(16) 1.02252(17)
H60 H 0.65900 1.09850 1.03270
C83 C 0.67252(18) 1.02517(15) 0.98060(17)
O9 O 0.60856(17) 1.02962(13) 0.82333(15)
O10 O 0.53214(13) 0.92187(10) 0.98108(11)
C84? C 0.4485(6) 0.8033(5) 0.0972(7)
C85? C 0.3844(8) 0.8320(7) 0.1243(10)
C86? C 0.6415(5) 0.8944(4) 0.8323(5)
H61? H 0.54890 0.82030 0.10590
H62? H 0.50700 0.83550 0.16590
H63? H 0.50290 0.87570 0.10720
H64? H 0.44730 0.80190 0.05140
H65? H 0.37840 0.87010 0.10660
H66? H 0.38900 0.83570 0.16920
H67? H 0.56330 0.84550 0.84100
H68? H 0.56790 0.87620 0.77620
H69? H 0.65870 0.91860 0.79830
H70? H 0.73590 0.85100 0.84690
H71? H 0.68760 0.81750 0.80060
H72? H 0.67350 0.81560 0.87250
N8C N 0.3443(3) 0.73693(16) 0.23100(16)
Mn1C Mn 0.34677(3) 0.78749(2) -0.37656(2)
#END
