
#######################################################################
#
#                 Cambridge Crystallographic Data Centre
#                                CCDC
#
#######################################################################
#
# If this CIF has been generated from an entry in the Cambridge
# Structural Database, then it will include bibliographic, chemical,
# crystal, experimental, refinement or atomic coordinate data resulting
# from the CCDC's data processing and validation procedures.
#
#######################################################################

data_CSD_CIF_RANMUQ01
_audit_creation_date 2013-09-11
_audit_creation_method CSD-ConQuest-V1
_database_code_CSD RANMUQ01
_database_code_depnum_ccdc_archive 'CCDC 849342'
_chemical_formula_sum 'C36 H84 N36 O54 U3'
_chemical_formula_moiety
;
(C16 O32 U2 8-)n,n(C8 O16 U1 4-),12n(C1 H6 N3 1+),6n(H2 O1)
;
_journal_coden_Cambridge 513
_journal_volume 54
_journal_year 2012
_journal_page_first 408
_journal_name_full 'Radiokhimiya(Russ.)(Radiochem.) '
loop_
_publ_author_name
"A.M.Fedosseev"
"M.S.Grigor'ev"
"A.B.Yusov"
_chemical_name_systematic
;
catena-(dodecakis(Guanidinium) bis(\m~2~-oxalato)-hexakis(oxalato)-di-uranium 
(\m~2~-oxalato)-tris(oxalato)-uranium hexahydrate)
;
_cell_volume   7996.854
_exptl_crystal_colour 'green'
_exptl_crystal_density_diffrn 2.159
_diffrn_ambient_temperature 100
#These two values have been output from a single CSD field.
_refine_ls_R_factor_gt 0.0632
_refine_ls_wR_factor_gt 0.0632
_symmetry_cell_setting monoclinic
_symmetry_space_group_name_H-M 'P 21/c'
_symmetry_Int_Tables_number 14
loop_
_symmetry_equiv_pos_site_id
_symmetry_equiv_pos_as_xyz
1 x,y,z
2 -x,1/2+y,1/2-z
3 -x,-y,-z
4 x,-1/2-y,-1/2+z
_cell_length_a 17.7856(14)
_cell_length_b 35.825(3)
_cell_length_c 12.8175(11)
_cell_angle_alpha 90
_cell_angle_beta 101.713(2)
_cell_angle_gamma 90
_cell_formula_units_Z 4
loop_
_atom_type_symbol
_atom_type_radius_bond
C 0.68
H 0.23
N 0.68
O 0.68
U 1.96
loop_
_atom_site_label
_atom_site_type_symbol
_atom_site_fract_x
_atom_site_fract_y
_atom_site_fract_z
U1 U 0.766698(17) 0.732619(18) 0.51987(2)
O1 O 0.7228(5) 0.6806(3) 0.4017(7)
O2 O 0.6318(5) 0.6389(3) 0.3427(7)
O3 O 0.6291(4) 0.7226(3) 0.4784(6)
O4 O 0.5280(4) 0.6899(3) 0.3950(7)
O5 O 0.8342(4) 0.7890(3) 0.4906(6)
O6 O 0.8332(5) 0.8502(3) 0.4731(8)
O7 O 0.7012(4) 0.7890(3) 0.5540(6)
O8 O 0.7005(5) 0.8509(3) 0.5564(8)
O9 O 0.9026(5) 0.7153(3) 0.5682(6)
O10 O 0.9925(4) 0.6727(3) 0.6386(7)
O11 O 0.7926(5) 0.6737(3) 0.6115(7)
O12 O 0.8717(5) 0.6246(3) 0.6478(7)
O13 O 0.8348(4) 0.7254(2) 0.3651(6)
O14 O 0.8371(4) 0.7398(3) 0.1940(6)
O15 O 0.7018(4) 0.7623(3) 0.3480(6)
O16 O 0.7032(4) 0.7749(2) 0.1773(6)
C1 C 0.6543(6) 0.6697(4) 0.3855(9)
C2 C 0.5973(6) 0.6959(4) 0.4225(8)
C3 C 0.8042(6) 0.8215(3) 0.4990(8)
C4 C 0.7306(6) 0.8210(4) 0.5383(10)
C5 C 0.9243(6) 0.6838(4) 0.6106(9)
C6 C 0.8588(6) 0.6578(4) 0.6255(9)
C7 C 0.8069(5) 0.7415(3) 0.2750(8)
C8 C 0.7311(5) 0.7618(3) 0.2666(8)
U2 U 0.25709(2) 0.933855(13) 0.50798(3)
U3 U 0.25730(2) 0.899481(13) 0.00674(3)
O17 O 0.3253(4) 0.9262(3) 0.1834(6)
O18 O 0.3260(4) 0.9373(3) 0.3551(6)
O19 O 0.1884(4) 0.8936(2) 0.1618(6)
O20 O 0.1895(4) 0.9051(3) 0.3344(6)
O21 O 0.1185(4) 0.8858(3) -0.0362(6)
O22 O 0.0227(5) 0.8504(3) -0.1193(7)
O23 O 0.2211(5) 0.8443(3) -0.0990(7)
O24 O 0.1335(5) 0.8000(3) -0.1544(8)
O25 O 0.1197(4) 0.9480(3) 0.4701(7)
O26 O 0.0224(5) 0.9827(3) 0.3830(7)
O27 O 0.3252(4) 0.9535(2) -0.0221(6)
O28 O 0.1325(5) 1.0309(3) 0.3286(7)
O29 O 0.1938(4) 0.9578(3) 0.0362(6)
O30 O 0.1955(5) 1.0202(3) 0.0344(8)
O31 O 0.2195(5) 0.9857(3) 0.3866(7)
O32 O 0.3271(5) 1.0152(3) -0.0516(9)
O33 O 0.3943(4) 0.9501(3) 0.5537(6)
O34 O 0.4838(5) 0.9902(3) 0.6304(7)
O35 O 0.2867(5) 0.9928(3) 0.5984(7)
O36 O 0.3662(5) 1.0406(3) 0.6401(7)
O37 O 0.2896(4) 0.8435(3) 0.1124(6)
O38 O 0.3719(5) 0.7968(3) 0.1606(8)
O39 O 0.3938(4) 0.8834(3) 0.0511(6)
O40 O 0.4861(5) 0.8453(3) 0.1297(7)
O41 O 0.3200(4) 0.8762(3) 0.4828(6)
O42 O 0.3188(5) 0.8127(3) 0.4872(8)
O43 O 0.1878(4) 0.8800(3) 0.5427(6)
O44 O 0.1872(5) 0.8188(3) 0.5744(8)
O45 O 0.1912(4) 0.9283(3) -0.1655(6)
O46 O 0.1936(4) 0.9437(3) -0.3344(6)
O47 O 0.3218(4) 0.8914(3) -0.1487(6)
O48 O 0.3261(4) 0.9065(3) -0.3188(6)
C9 C 0.2970(6) 0.9257(4) 0.2655(9)
C10 C 0.2173(6) 0.9064(3) 0.2511(8)
C11 C 0.0919(6) 0.8589(3) -0.0901(8)
C12 C 0.1527(6) 0.8314(3) -0.1198(8)
C13 C 0.2225(6) 0.9888(3) 0.0204(8)
C14 C 0.2988(6) 0.9865(4) -0.0230(8)
C15 C 0.0917(6) 0.9747(4) 0.4079(8)
C16 C 0.1510(6) 0.9999(3) 0.3701(8)
C17 C 0.4176(6) 0.9811(4) 0.5974(8)
C18 C 0.3526(6) 1.0077(4) 0.6126(9)
C19 C 0.3559(6) 0.8283(4) 0.1283(9)
C20 C 0.4184(6) 0.8545(4) 0.1005(8)
C21 C 0.2922(7) 0.8439(4) 0.5000(9)
C22 C 0.2163(6) 0.8467(4) 0.5447(9)
C23 C 0.2196(6) 0.9284(3) -0.2464(8)
C24 C 0.2954(6) 0.9065(4) -0.2370(9)
O49 O 0.9513(5) 0.4644(3) 0.6359(7)
O50 O 0.9588(5) 0.6867(3) 0.1814(7)
O51 O 0.5557(5) 0.7029(3) 0.8786(7)
O52 O 0.5481(5) 0.0218(3) 0.8304(7)
O53 O 0.9439(5) 0.1396(3) 0.6530(6)
O54 O 0.4604(5) 0.8613(3) 0.6523(7)
N1 N 0.0854(6) 0.4159(4) 0.1047(8)
H1 H 0.08830 0.39210 0.08950
H2 H 0.04140 0.42550 0.11260
N2 N 0.2129(6) 0.4222(4) 0.1036(9)
H3 H 0.25480 0.43580 0.11120
H4 H 0.21440 0.39840 0.08770
N3 N 0.1435(6) 0.4734(4) 0.1398(9)
H5 H 0.18470 0.48760 0.14790
H6 H 0.09940 0.48300 0.14760
C25 C 0.1480(6) 0.4375(4) 0.1159(9)
N4 N 1.0238(6) 0.2013(3) 0.5805(9)
H7 H 1.06720 0.20630 0.56040
H8 H 1.00920 0.17790 0.58480
N5 N 0.9142(6) 0.2206(4) 0.6367(8)
H9 H 0.88520 0.23860 0.65360
H10 H 0.90040 0.19720 0.64060
N6 N 1.0006(5) 0.2643(4) 0.5989(7)
H11 H 1.04370 0.26990 0.57890
H12 H 0.97110 0.28220 0.61510
C26 C 0.9803(6) 0.2290(4) 0.6046(8)
N7 N 0.3500(6) 0.3612(4) 0.3533(9)
H13 H 0.39350 0.35080 0.34630
H14 H 0.30840 0.34750 0.34850
N8 N 0.2809(6) 0.4127(4) 0.3804(8)
H15 H 0.27820 0.43690 0.39150
H16 H 0.23980 0.39870 0.37540
N9 N 0.4099(6) 0.4171(4) 0.3778(9)
H17 H 0.45280 0.40620 0.37060
H18 H 0.40920 0.44130 0.38960
C27 C 0.3471(7) 0.3975(4) 0.3711(9)
N10 N 0.2244(6) 0.4056(4) 0.6062(9)
H19 H 0.26200 0.38920 0.61510
H20 H 0.23330 0.42900 0.59160
N11 N 0.1413(6) 0.3603(4) 0.6365(9)
H21 H 0.17830 0.34360 0.64560
H22 H 0.09460 0.35370 0.64190
N12 N 0.0988(6) 0.4204(4) 0.5999(8)
H23 H 0.10780 0.44370 0.58470
H24 H 0.05230 0.41350 0.60560
C28 C 0.1560(6) 0.3954(4) 0.6145(9)
N13 N 0.5558(6) 0.2231(3) 0.3304(8)
H25 H 0.57020 0.19980 0.32560
H26 H 0.58780 0.24140 0.32460
N14 N 0.4373(6) 0.2034(3) 0.3550(9)
H27 H 0.45090 0.18000 0.35030
H28 H 0.39110 0.20890 0.36550
N15 N 0.4646(5) 0.2665(4) 0.3486(7)
H29 H 0.49640 0.28450 0.33970
H30 H 0.41840 0.27200 0.35900
C29 C 0.4865(5) 0.2307(4) 0.3461(8)
N16 N 0.4110(6) 0.7510(4) 0.4154(9)
H31 H 0.40420 0.77410 0.43510
H32 H 0.45710 0.74320 0.41060
N17 N 0.2821(6) 0.7404(4) 0.4005(8)
H33 H 0.27600 0.76350 0.42030
H34 H 0.24240 0.72530 0.38570
N18 N 0.3614(6) 0.6926(4) 0.3639(8)
H35 H 0.40730 0.68440 0.35970
H36 H 0.32150 0.67750 0.34910
C30 C 0.3522(6) 0.7282(4) 0.3930(9)
N19 N 0.5772(5) 0.5612(3) 0.3496(8)
H37 H 0.60610 0.57910 0.33160
H38 H 0.59150 0.53780 0.34760
N20 N 0.4707(6) 0.5414(4) 0.4063(9)
H39 H 0.42720 0.54580 0.42670
H40 H 0.48700 0.51830 0.40310
N21 N 0.4908(6) 0.6049(3) 0.3828(9)
H41 H 0.51980 0.62260 0.36480
H42 H 0.44770 0.61060 0.40280
C31 C 0.5118(6) 0.5697(4) 0.3799(9)
N22 N 0.3566(6) 0.4722(4) 0.8572(9)
H43 H 0.40290 0.47970 0.85250
H44 H 0.31860 0.48840 0.84950
N23 N 0.3997(6) 0.4130(4) 0.8872(8)
H45 H 0.44650 0.41990 0.88280
H46 H 0.39010 0.38940 0.89950
N24 N 0.2727(6) 0.4253(4) 0.8771(9)
H47 H 0.23380 0.44090 0.86580
H48 H 0.26510 0.40160 0.88960
C32 C 0.3444(7) 0.4377(5) 0.8753(10)
N25 N 0.0967(6) 0.7528(4) 0.6308(8)
H49 H 0.10260 0.77710 0.62610
H50 H 0.05120 0.74350 0.63290
N26 N 0.1485(6) 0.6925(4) 0.6430(9)
H51 H 0.18810 0.67750 0.64640
H52 H 0.10300 0.68330 0.64510
N27 N 0.2252(6) 0.7449(4) 0.6312(9)
H53 H 0.26590 0.73060 0.63440
H54 H 0.22940 0.76930 0.62560
C33 C 0.1576(6) 0.7297(4) 0.6346(8)
N28 N 0.0419(6) 0.6242(3) 0.1111(8)
H55 H 0.02690 0.64750 0.11350
H56 H 0.08560 0.61900 0.09220
N29 N -0.0672(5) 0.6038(3) 0.1645(8)
H57 H -0.08330 0.62690 0.16740
H58 H -0.09510 0.58520 0.18070
N30 N 0.0230(6) 0.5616(4) 0.1308(8)
H59 H 0.06680 0.55700 0.11130
H60 H -0.00490 0.54300 0.14700
C34 C -0.0012(6) 0.5969(4) 0.1357(9)
N31 N -0.0628(5) 0.5468(3) 0.6546(7)
H61 H -0.09740 0.56410 0.65790
H62 H -0.07370 0.52320 0.66280
N32 N 0.0575(6) 0.5294(4) 0.6341(9)
H63 H 0.10350 0.53530 0.62370
H64 H 0.04560 0.50600 0.64250
N33 N 0.0227(5) 0.5917(3) 0.6248(8)
H65 H -0.01140 0.60920 0.62800
H66 H 0.06830 0.59780 0.61330
C35 C 0.0057(6) 0.5564(4) 0.6372(9)
N34 N 0.5738(5) 0.6205(4) 0.8582(9)
H67 H 0.60820 0.60350 0.85210
H68 H 0.58470 0.64430 0.85350
N35 N 0.4871(6) 0.5755(3) 0.8818(9)
H69 H 0.52090 0.55810 0.87590
H70 H 0.44150 0.56930 0.89260
N36 N 0.4536(6) 0.6374(3) 0.8803(9)
H71 H 0.40720 0.63160 0.88900
H72 H 0.46650 0.66090 0.87520
C36 C 0.5047(6) 0.6103(4) 0.8746(9)
U1C U 0.766698(17) 0.767381(18) 0.01987(2)
O14C O 0.8371(4) 0.7602(3) 0.6940(6)
O16C O 0.7032(4) 0.7251(2) 0.6773(6)
U2* U 0.25709(2) 0.933855(13) -0.49202(3)
O46* O 0.1936(4) 0.9437(3) 0.6656(6)
O48* O 0.3261(4) 0.9065(3) 0.6812(6)
#END
