
#######################################################################
#
#                 Cambridge Crystallographic Data Centre
#                                CCDC
#
#######################################################################
#
# If this CIF has been generated from an entry in the Cambridge
# Structural Database, then it will include bibliographic, chemical,
# crystal, experimental, refinement or atomic coordinate data resulting
# from the CCDC's data processing and validation procedures.
#
#######################################################################

data_CSD_CIF_RANMUQ
_audit_creation_date 2012-02-16
_audit_creation_method CSD-ConQuest-V1
_database_code_CSD RANMUQ
_database_code_depnum_ccdc_archive 'CCDC 863041'
_chemical_formula_sum 'C12 H28 N12 O18 U1'
_chemical_formula_moiety
;
(C8 O16 U1 4-)n,4n(C1 H6 N3 1+),2n(H2 O1)
;
_journal_coden_Cambridge 9
_journal_volume 50
_journal_year 2011
_journal_page_first 11481
_journal_name_full 'Inorg.Chem. '
loop_
_publ_author_name
"G.Andreev"
"N.Budantseva"
"A.Fedoseev"
"P.Moisy"
_chemical_name_systematic
;
catena-(tetrakis(guanidinium) (\m~2~-oxalato)-tris(oxalato)-uranium(iv) 
dihydrate)
;
_cell_volume   2660.209
_exptl_crystal_density_diffrn 2.164
_diffrn_ambient_temperature 100
#These two values have been output from a single CSD field.
_refine_ls_R_factor_gt 0.0345
_refine_ls_wR_factor_gt 0.0345
_symmetry_cell_setting monoclinic
_symmetry_space_group_name_H-M 'C 2/c'
_symmetry_Int_Tables_number 15
loop_
_symmetry_equiv_pos_site_id
_symmetry_equiv_pos_as_xyz
1 x,y,z
2 -x,y,1/2-z
3 1/2+x,1/2+y,z
4 1/2-x,1/2+y,1/2-z
5 -x,-y,-z
6 x,-y,-1/2+z
7 -1/2-x,-1/2-y,-z
8 -1/2+x,-1/2-y,-1/2+z
_cell_length_a 19.6703(4)
_cell_length_b 11.9387(2)
_cell_length_c 12.8072(2)
_cell_angle_alpha 90
_cell_angle_beta 117.811(1)
_cell_angle_gamma 90
_cell_formula_units_Z 4
loop_
_atom_type_symbol
_atom_type_radius_bond
C 0.68
H 0.23
N 0.68
O 0.68
U 1.96
loop_
_atom_site_label
_atom_site_type_symbol
_atom_site_fract_x
_atom_site_fract_y
_atom_site_fract_z
U1 U 0.50000 0.948351(13) 0.75000
O1 O 0.46569(14) 0.7820(2) 0.8208(2)
O2 O 0.38118(16) 0.6443(3) 0.7865(3)
O3 O 0.26792(17) 0.7921(3) 0.6416(2)
O4 O 0.36311(18) 0.9050(2) 0.6568(2)
O5 O 0.4339(2) 1.1169(2) 0.6537(2)
O6 O 0.4339(3) 1.3026(3) 0.6415(4)
O7 O 0.4324(2) 1.0330(2) 0.8562(2)
O8 O 0.4338(2) 1.0733(2) 1.0282(2)
C1 C 0.3985(2) 0.7392(3) 0.7707(3)
C2 C 0.3363(2) 0.8186(3) 0.6815(3)
C3 C 0.4621(3) 1.2141(3) 0.6910(4)
C4 C 0.4615(3) 1.0309(3) 0.9668(3)
O9 O 0.2978(2) 1.1662(4) 0.7000(4)
H1 H 0.330(4) 1.117(6) 0.739(7)
H2 H 0.283(5) 1.160(8) 0.752(6)
N1 N 0.39454(17) 0.6696(2) 0.5029(2)
H3 H 0.3484(15) 0.695(4) 0.456(3)
H4 H 0.4338(19) 0.714(3) 0.543(4)
N2 N 0.47172(19) 0.5222(3) 0.6077(3)
H5 H 0.511(2) 0.570(4) 0.635(5)
H6 H 0.475(3) 0.452(2) 0.629(5)
N3 N 0.3432(2) 0.4936(3) 0.4835(3)
H7 H 0.2988(19) 0.524(5) 0.433(4)
H8 H 0.350(3) 0.4219(19) 0.499(5)
C5 C 0.40354(19) 0.5619(2) 0.5326(3)
N4 N 0.2931(4) 1.1427(5) 0.4295(4)
H9 H 0.338(3) 1.132(8) 0.491(5)
H10 H 0.277(5) 1.212(3) 0.409(8)
N5 N 0.2668(3) 0.9553(4) 0.3943(3)
H11 H 0.311(2) 0.935(6) 0.454(5)
H12 H 0.233(3) 0.903(5) 0.356(6)
N6 N 0.1794(3) 1.0852(5) 0.2762(3)
H13 H 0.167(4) 1.156(2) 0.260(6)
H14 H 0.147(3) 1.033(5) 0.233(6)
C6 C 0.2471(3) 1.0610(5) 0.3678(3)
U1D U 0.50000 1.051649(13) 1.25000
O1A O 0.53431(14) 0.7820(2) 0.6792(2)
O2A O 0.61882(16) 0.6443(3) 0.7135(3)
O3A O 0.73208(17) 0.7921(3) 0.8584(2)
O4A O 0.63689(18) 0.9050(2) 0.8432(2)
O5A O 0.5661(2) 1.1169(2) 0.8463(2)
O6A O 0.5661(3) 1.3026(3) 0.8585(4)
O7D O 0.5676(2) 0.9670(2) 1.1438(2)
O7A O 0.5676(2) 1.0330(2) 0.6438(2)
O8D O 0.5662(2) 0.9267(2) 0.9718(2)
O8E O 0.4338(2) 0.9267(2) 0.5282(2)
C1A C 0.6015(2) 0.7392(3) 0.7293(3)
C2A C 0.6637(2) 0.8186(3) 0.8185(3)
C3A C 0.5379(3) 1.2141(3) 0.8090(4)
C4D C 0.5385(3) 0.9691(3) 1.0332(3)
#END
