
#######################################################################
#
#                 Cambridge Crystallographic Data Centre
#                                CCDC
#
#######################################################################
#
# If this CIF has been generated from an entry in the Cambridge
# Structural Database, then it will include bibliographic, chemical,
# crystal, experimental, refinement or atomic coordinate data resulting
# from the CCDC's data processing and validation procedures.
#
#######################################################################

data_CSD_CIF_RANNAX
_audit_creation_date 2012-02-16
_audit_creation_method CSD-ConQuest-V1
_database_code_CSD RANNAX
_database_code_depnum_ccdc_archive 'CCDC 863042'
_chemical_formula_sum 'C12 H28 N12 Np1 O18'
_chemical_formula_moiety
;
(C8 Np1 O16 4-)n,4n(C1 H6 N3 1+),2n(H2 O1)
;
_journal_coden_Cambridge 9
_journal_volume 50
_journal_year 2011
_journal_page_first 11481
_journal_name_full 'Inorg.Chem. '
loop_
_publ_author_name
"G.Andreev"
"N.Budantseva"
"A.Fedoseev"
"P.Moisy"
_chemical_name_systematic
;
catena-(tetrakis(guanidinium) (\m~2~-oxalato)-tris(oxalato)-neptunium(iv) 
dihydrate)
;
_cell_volume   2643.009
_exptl_crystal_density_diffrn 2.175
_diffrn_ambient_temperature 100
#These two values have been output from a single CSD field.
_refine_ls_R_factor_gt 0.0356
_refine_ls_wR_factor_gt 0.0356
_symmetry_cell_setting monoclinic
_symmetry_space_group_name_H-M 'C 2/c'
_symmetry_Int_Tables_number 15
loop_
_symmetry_equiv_pos_site_id
_symmetry_equiv_pos_as_xyz
1 x,y,z
2 -x,y,1/2-z
3 1/2+x,1/2+y,z
4 1/2-x,1/2+y,1/2-z
5 -x,-y,-z
6 x,-y,-1/2+z
7 -1/2-x,-1/2-y,-z
8 -1/2+x,-1/2-y,-1/2+z
_cell_length_a 19.6222(3)
_cell_length_b 11.9186(2)
_cell_length_c 12.7670(2)
_cell_angle_alpha 90
_cell_angle_beta 117.725(1)
_cell_angle_gamma 90
_cell_formula_units_Z 4
loop_
_atom_type_symbol
_atom_type_radius_bond
C 0.68
H 0.23
N 0.68
Np 1.90
O 0.68
loop_
_atom_site_label
_atom_site_type_symbol
_atom_site_fract_x
_atom_site_fract_y
_atom_site_fract_z
Np1 Np 0.50000 0.949664(9) 0.75000
O1 O 0.46663(11) 0.78340(16) 0.82238(16)
O2 O 0.38231(13) 0.6456(2) 0.7884(2)
O3 O 0.26878(14) 0.7929(3) 0.64271(19)
O4 O 0.36398(14) 0.90556(17) 0.65667(16)
O5 O 0.43396(16) 1.11663(15) 0.65369(16)
O6 O 0.4338(2) 1.3025(2) 0.6409(4)
O7 O 0.43242(16) 1.03237(16) 0.85580(15)
O8 O 0.43334(16) 1.07228(17) 1.02822(15)
C1 C 0.39955(16) 0.7409(2) 0.7723(2)
C2 C 0.33719(17) 0.8193(3) 0.68235(19)
C3 C 0.4623(2) 1.2136(2) 0.6907(3)
C4 C 0.4614(2) 1.03036(19) 0.96681(18)
O9 O 0.29781(18) 1.1672(4) 0.7009(4)
H1 H 0.332(3) 1.118(5) 0.731(7)
H2 H 0.282(4) 1.152(7) 0.750(6)
N1 N 0.39388(13) 0.66999(15) 0.50284(18)
H3 H 0.3481(14) 0.696(3) 0.454(3)
H4 H 0.4338(17) 0.714(3) 0.542(3)
N2 N 0.47138(15) 0.5222(2) 0.6072(2)
H5 H 0.512(2) 0.568(3) 0.639(4)
H6 H 0.474(3) 0.452(2) 0.631(4)
N3 N 0.34277(16) 0.4934(2) 0.4823(3)
H7 H 0.2972(17) 0.521(4) 0.434(4)
H8 H 0.351(3) 0.423(2) 0.504(5)
C5 C 0.40298(14) 0.56193(17) 0.53168(19)
N4 N 0.2927(3) 1.1416(4) 0.4297(3)
H9 H 0.337(2) 1.134(7) 0.494(4)
H10 H 0.276(5) 1.211(3) 0.410(7)
N5 N 0.2663(2) 0.9539(4) 0.3937(3)
H11 H 0.309(2) 0.934(6) 0.456(4)
H12 H 0.230(3) 0.904(5) 0.357(6)
N6 N 0.1787(2) 1.0840(4) 0.2758(3)
H13 H 0.166(4) 1.155(2) 0.262(6)
H14 H 0.148(3) 1.031(4) 0.231(5)
C6 C 0.2462(3) 1.0598(4) 0.3675(3)
Np1D Np 0.50000 1.050336(9) 1.25000
O1A O 0.53337(11) 0.78340(16) 0.67762(16)
O2A O 0.61769(13) 0.6456(2) 0.7116(2)
O3A O 0.73122(14) 0.7929(3) 0.85729(19)
O4A O 0.63602(14) 0.90556(17) 0.84333(16)
O5A O 0.56604(16) 1.11663(15) 0.84631(16)
O6A O 0.5662(2) 1.3025(2) 0.8591(4)
O7D O 0.56758(16) 0.96763(16) 1.14420(15)
O7A O 0.56758(16) 1.03237(16) 0.64420(15)
O8D O 0.56666(16) 0.92772(17) 0.97178(15)
O8E O 0.43334(16) 0.92772(17) 0.52822(15)
C1A C 0.60045(16) 0.7409(2) 0.7277(2)
C2A C 0.66281(17) 0.8193(3) 0.81765(19)
C3A C 0.5377(2) 1.2136(2) 0.8093(3)
C4D C 0.5386(2) 0.96964(19) 1.03319(18)
#END
