
#######################################################################
#
#                 Cambridge Crystallographic Data Centre
#                                CCDC
#
#######################################################################
#
# If this CIF has been generated from an entry in the Cambridge
# Structural Database, then it will include bibliographic, chemical,
# crystal, experimental, refinement or atomic coordinate data resulting
# from the CCDC's data processing and validation procedures.
#
#######################################################################

data_CSD_CIF_RANTOS
_audit_creation_date 2017-01-18
_audit_creation_method CSD-ConQuest-V1
_database_code_CSD RANTOS
_database_code_depnum_ccdc_archive 'CCDC 1422784'
_chemical_formula_sum 'C8 H14 Cr1 N1 O12 Zn1'
_chemical_formula_moiety
;
(C6 H6 Cr1 O12 Zn1 1-)n,C2 H8 N1 1+
;
_journal_coden_Cambridge 208
_journal_volume 233
_journal_year 2016
_journal_page_first 455
_journal_name_full 'J.Solid State Chem. '
loop_
_publ_author_name
"M.Maczka"
"A.Pietraszko"
"A.Pikul"
"K.Hermanowicz"
_chemical_name_systematic
;
catena-[dimethylammonium hexakis(\m-formato)-chromium(iii)-zinc(ii)]
;
_cell_volume    786.774
_exptl_crystal_colour 'colorless'
_exptl_crystal_density_diffrn 1.83
_diffrn_ambient_temperature 293
_refine_special_details
;
N1 disordered by symmetry over three configurations with occupancy 0.33.

;
#These two values have been output from a single CSD field.
_refine_ls_R_factor_gt 0.0484
_refine_ls_wR_factor_gt 0.0484
_symmetry_cell_setting hexagonal
_symmetry_space_group_name_H-M 'P -3 1 c'
_symmetry_Int_Tables_number 163
loop_
_symmetry_equiv_pos_site_id
_symmetry_equiv_pos_as_xyz
1 x,y,z
2 -y,x-y,z
3 -x+y,-x,z
4 -y,-x,1/2-z
5 -x+y,y,1/2-z
6 x,x-y,1/2-z
7 -x,-y,-z
8 y,-x+y,-z
9 x-y,x,-z
10 y,x,-1/2+z
11 x-y,-y,-1/2+z
12 -x,-x+y,-1/2+z
_cell_length_a 8.1831(12)
_cell_length_b 8.1831(12)
_cell_length_c 13.567(3)
_cell_angle_alpha 90
_cell_angle_beta 90
_cell_angle_gamma 120
_cell_formula_units_Z 2
loop_
_atom_type_symbol
_atom_type_radius_bond
C 0.68
H 0.23
Cr 1.39
N 0.68
O 0.68
Zn 1.22
loop_
_atom_site_label
_atom_site_type_symbol
_atom_site_fract_x
_atom_site_fract_y
_atom_site_fract_z
Zn1 Zn 0.33330 0.66670 0.25000
Cr1 Cr 0.00000 1.00000 0.00000
O1 O 0.11527(15) 0.65862(17) 0.16666(9)
O2 O -0.01074(15) 0.79607(14) 0.08156(8)
C1 C 0.1258(2) 0.7903(2) 0.11893(12)
H1 H 0.24100 0.89500 0.10700
C2 C 0.33330 0.66670 0.8353(7)
N1 N 0.2812(7) 0.5624(13) 0.75000
H2 H 0.25380 0.50760 0.80280
H3 H 0.26490 0.69990 0.89680
O1A O 0.34138(15) 0.45665(17) 0.16666(9)
O2A O 0.20393(15) 0.19319(14) 0.08156(8)
C1A C 0.2097(2) 0.3355(2) 0.11893(12)
H1A H 0.10500 0.34600 0.10700
O1A* O 0.34138(15) 1.45665(17) 0.16666(9)
O2A* O 0.20393(15) 1.19319(14) 0.08156(8)
C1A* C 0.2097(2) 1.3355(2) 0.11893(12)
H1A* H 0.10500 1.34600 0.10700
O1B O -0.45665(15) 0.88473(17) 0.16666(9)
O2B O -0.19319(15) 1.01074(14) 0.08156(8)
C1B C -0.3355(2) 0.8742(2) 0.11893(12)
H1B H -0.34600 0.75900 0.10700
O1B* O 0.54335(15) 0.88473(17) 0.16666(9)
O2B* O 0.80681(15) 1.01074(14) 0.08156(8)
C1B* C 0.6645(2) 0.8742(2) 0.11893(12)
H1B* H 0.65400 0.75900 0.10700
O1C O 0.34138(15) 0.88473(17) 0.33334(9)
O2C O 0.20393(15) 1.01074(14) 0.41844(8)
C1C C 0.2097(2) 0.8742(2) 0.38107(12)
H1C H 0.10500 0.75900 0.39300
Zn1* Zn -0.66670 0.66670 0.25000
Zn1** Zn 0.33330 1.66670 0.25000
Cr1* Cr 0.00000 0.00000 0.00000
Cr1** Cr 1.00000 1.00000 0.00000
Cr1C Cr 0.00000 1.00000 0.50000
O1D O 0.54335(15) 0.65862(17) 0.33334(9)
O1E O 0.11527(15) 0.45665(17) 0.33334(9)
O2F O 0.01074(15) 1.20393(14) -0.08156(8)
O2G O -0.20393(15) 0.80681(14) -0.08156(8)
O2H O 0.19319(15) 0.98926(14) -0.08156(8)
N1A N 0.4376(7) 0.7188(13) 0.75000
H2A H 0.49240 0.74620 0.80280
H3A H 0.30010 0.56500 0.89680
N1B N 0.2812(7) 0.7188(13) 0.75000
H2B H 0.25380 0.74620 0.80280
H3B H 0.43500 0.73510 0.89680
C2C C 0.33330 0.66670 0.6647(7)
H2C H 0.49240 0.74620 0.69720
H3C H 0.30010 0.73510 0.60320
H2D H 0.25380 0.50760 0.69720
H3D H 0.43500 0.69990 0.60320
H2E H 0.25380 0.74620 0.69720
H3E H 0.26490 0.56500 0.60320
#END
