
#######################################################################
#
#                 Cambridge Crystallographic Data Centre
#                                CCDC
#
#######################################################################
#
# If this CIF has been generated from an entry in the Cambridge
# Structural Database, then it will include bibliographic, chemical,
# crystal, experimental, refinement or atomic coordinate data resulting
# from the CCDC's data processing and validation procedures.
#
#######################################################################

data_CSD_CIF_RANWEL
_audit_creation_date 2017-01-18
_audit_creation_method CSD-ConQuest-V1
_database_code_CSD RANWEL
_database_code_depnum_ccdc_archive 'CCDC 1504150'
_chemical_formula_sum 'C76 H104 N16 Ni3 O62 Sb6 V15'
_chemical_formula_moiety
;
(C4 H16 N4 Ni1 O42 Sb6 V15 4-)n,2(C36 H24 N6 Ni1 2+),20(H2 O1)
;
_journal_coden_Cambridge 222
_journal_volume 46
_journal_year 2017
_journal_page_first 1618
_journal_name_full 'Dalton Trans. '
loop_
_publ_author_name
"M.Wendt"
"P.Polzin"
"J.van Leusen"
"C.Nather"
"P.Kogerler"
"W.Bensch"
_chemical_name_systematic
;
catena-[bis(tris(1,10-phenanthroline)-nickel(ii)) 
nonacosakis(\m-oxido)-bis(ethane-1,2-diamine)-tridecaoxo-hexa-antimony(iii)-ni
ckel(ii)-pentadeca-vanadium(iv) icosahydrate]
;
_cell_volume  12381.380
_exptl_crystal_colour 'brown green'
_exptl_crystal_density_diffrn 2.095
_exptl_crystal_description 'block'
_diffrn_ambient_temperature 200
_refine_special_details
;
O40,O41 and O40',O42 disordered over two sites with occupancies 
0.7,0.8:0.3,0.4.
;
#These two values have been output from a single CSD field.
_refine_ls_R_factor_gt 0.0329
_refine_ls_wR_factor_gt 0.0329
_symmetry_cell_setting monoclinic
_symmetry_space_group_name_H-M 'C 2/c'
_symmetry_Int_Tables_number 15
loop_
_symmetry_equiv_pos_site_id
_symmetry_equiv_pos_as_xyz
1 x,y,z
2 -x,y,1/2-z
3 1/2+x,1/2+y,z
4 1/2-x,1/2+y,1/2-z
5 -x,-y,-z
6 x,-y,-1/2+z
7 -1/2-x,-1/2-y,-z
8 -1/2+x,-1/2-y,-1/2+z
_cell_length_a 21.2523(12)
_cell_length_b 31.159(2)
_cell_length_c 18.7101(11)
_cell_angle_alpha 90
_cell_angle_beta 92.117(7)
_cell_angle_gamma 90
_cell_formula_units_Z 4
loop_
_atom_type_symbol
_atom_type_radius_bond
C 0.68
H 0.23
N 0.68
Ni 1.24
O 0.68
Sb 1.39
V 1.53
loop_
_atom_site_label
_atom_site_type_symbol
_atom_site_fract_x
_atom_site_fract_y
_atom_site_fract_z
Sb1 Sb 0.28473(2) 0.21538(2) 0.32176(2)
Sb2 Sb 0.39459(2) 0.13647(2) 0.37878(2)
Sb3 Sb 0.46528(2) 0.39567(2) 0.33388(2)
V1 V 0.36096(3) 0.31219(2) 0.33627(3)
V2 V 0.50000 0.12381(2) 0.25000
V3 V 0.34130(3) 0.25410(2) 0.16033(3)
V4 V 0.42187(3) 0.24861(2) 0.43731(3)
V5 V 0.53381(3) 0.18861(2) 0.41912(3)
V6 V 0.52341(3) 0.30744(2) 0.42294(3)
V7 V 0.37889(3) 0.16117(2) 0.18588(3)
V8 V 0.38196(3) 0.33959(2) 0.18504(3)
O1 O 0.35096(11) 0.25161(7) 0.36653(12)
O2 O 0.33128(12) 0.20797(7) 0.23293(12)
O3 O 0.31236(12) 0.16224(8) 0.36626(13)
O4 O 0.41504(12) 0.14141(8) 0.27870(12)
O5 O 0.43916(11) 0.18825(7) 0.41001(12)
O6 O 0.40860(12) 0.35674(8) 0.28344(12)
O7 O 0.50000 0.42226(11) 0.25000
O8 O 0.53280(11) 0.35491(8) 0.35042(12)
O9 O 0.34066(11) 0.29527(7) 0.23864(12)
O10 O 0.43300(11) 0.30666(7) 0.40133(12)
O11 O 0.30406(12) 0.33809(9) 0.37149(13)
O12 O 0.53483(11) 0.14778(7) 0.34004(12)
O13 O 0.50000 0.07255(11) 0.25000
O14 O 0.39662(11) 0.29469(7) 0.11796(12)
O15 O 0.38836(11) 0.20840(7) 0.12055(12)
O16 O 0.27540(11) 0.25781(8) 0.11199(12)
O17 O 0.39555(13) 0.25077(8) 0.51827(13)
O18 O 0.51156(11) 0.24735(7) 0.43978(12)
O19 O 0.55293(12) 0.16399(8) 0.49297(12)
O20 O 0.53593(12) 0.33072(8) 0.49951(12)
O21 O 0.32957(12) 0.12705(8) 0.15162(13)
O22 O 0.32986(12) 0.37296(8) 0.15289(13)
Ni1 Ni 0.25000 0.25000 0.00000
N1 N 0.28438(15) 0.18702(10) 0.00459(16)
H1 H 0.30210 0.18010 -0.03740
H2 H 0.31430 0.18460 0.04040
C1 C 0.2310(2) 0.15767(12) 0.0180(2)
H3 H 0.24680 0.13080 0.04060
H4 H 0.20870 0.15020 -0.02770
C2 C 0.18618(19) 0.17996(13) 0.0670(2)
H5 H 0.14850 0.16190 0.07350
H6 H 0.20700 0.18490 0.11450
N2 N 0.16783(15) 0.22124(10) 0.03408(16)
H7 H 0.14900 0.23830 0.06650
H8 H 0.14040 0.21690 -0.00370
Ni2 Ni 0.24406(2) 0.46939(2) 0.48926(2)
N3 N 0.22156(16) 0.47292(10) 0.59865(17)
N4 N 0.31107(15) 0.42752(11) 0.53535(17)
C3 C 0.1762(2) 0.49522(14) 0.6299(2)
H9 H 0.15410 0.51640 0.60250
C4 C 0.1596(2) 0.48905(15) 0.7003(2)
H10 H 0.12650 0.50530 0.71990
C5 C 0.1920(2) 0.45883(14) 0.7413(2)
H11 H 0.18070 0.45370 0.78920
C6 C 0.24126(19) 0.43577(12) 0.7124(2)
C7 C 0.2787(2) 0.40522(14) 0.7517(2)
H12 H 0.27080 0.40010 0.80060
C8 C 0.3251(2) 0.38348(15) 0.7203(2)
H13 H 0.34960 0.36350 0.74770
C9 C 0.33828(19) 0.38994(14) 0.6462(2)
C10 C 0.3845(2) 0.36681(16) 0.6100(3)
H14 H 0.41000 0.34630 0.63490
C11 C 0.3924(2) 0.37418(16) 0.5381(3)
H15 H 0.42310 0.35870 0.51300
C12 C 0.3547(2) 0.40470(14) 0.5028(2)
H16 H 0.36030 0.40950 0.45330
C13 C 0.30275(18) 0.41994(12) 0.6057(2)
C14 C 0.25355(17) 0.44365(11) 0.63943(19)
N5 N 0.18170(15) 0.41899(10) 0.46914(16)
N6 N 0.16366(17) 0.50391(10) 0.45864(17)
C15 C 0.1932(2) 0.37679(12) 0.4710(2)
H17 H 0.23360 0.36720 0.48760
C16 C 0.1484(2) 0.34631(13) 0.4499(2)
H18 H 0.15850 0.31660 0.45090
C17 C 0.0897(2) 0.35983(15) 0.4275(2)
H19 H 0.05830 0.33940 0.41410
C18 C 0.0758(2) 0.40336(16) 0.4244(2)
C19 C 0.0159(2) 0.4204(2) 0.4014(3)
H20 H -0.01760 0.40120 0.38890
C20 C 0.0060(3) 0.4631(2) 0.3972(3)
H21 H -0.03390 0.47350 0.38050
C21 C 0.0547(2) 0.49333(18) 0.4177(3)
C22 C 0.0464(3) 0.53823(19) 0.4163(3)
H22 H 0.00720 0.55030 0.40070
C23 C 0.0949(3) 0.56410(16) 0.4373(3)
H23 H 0.08930 0.59430 0.43860
C24 C 0.1544(3) 0.54587(14) 0.4576(3)
H24 H 0.18840 0.56440 0.47070
C25 C 0.11441(19) 0.47792(13) 0.4406(2)
C26 C 0.12414(18) 0.43223(13) 0.44503(19)
N7 N 0.27532(16) 0.46493(10) 0.38357(17)
N8 N 0.31188(16) 0.51889(11) 0.48829(18)
C27 C 0.2551(2) 0.43901(14) 0.3311(2)
H25 H 0.21980 0.42120 0.33890
C28 C 0.2838(2) 0.43681(16) 0.2646(2)
H26 H 0.26780 0.41790 0.22850
C29 C 0.3347(2) 0.46202(17) 0.2525(2)
H27 H 0.35490 0.46050 0.20810
C30 C 0.3570(2) 0.49027(14) 0.3059(2)
C31 C 0.4104(3) 0.51763(17) 0.2980(3)
H28 H 0.43230 0.51730 0.25470
C32 C 0.4298(3) 0.54397(17) 0.3518(3)
H29 H 0.46520 0.56200 0.34530
C33 C 0.3985(2) 0.54538(13) 0.4184(3)
C34 C 0.4167(2) 0.57219(15) 0.4759(4)
H30 H 0.45260 0.59020 0.47270
C35 C 0.3828(3) 0.57229(17) 0.5360(4)
H31 H 0.39490 0.59040 0.57500
C36 C 0.3298(2) 0.54547(16) 0.5405(3)
H32 H 0.30600 0.54640 0.58250
C37 C 0.34555(19) 0.51910(12) 0.4276(2)
C38 C 0.32531(19) 0.49067(12) 0.3706(2)
O23 O 0.53444(18) 0.32236(13) 0.64605(17)
H33 H 0.52010 0.29720 0.64490
H34 H 0.54200 0.32660 0.60290
O24 O 0.3833(2) 0.28370(13) 0.7541(2)
H35 H 0.40910 0.29210 0.78630
H36 H 0.36350 0.26640 0.77940
O25 O 0.4587(2) 0.25099(13) 0.64785(19)
H37 H 0.43330 0.24540 0.61360
H38 H 0.44260 0.26760 0.67740
O26 O 0.33057(17) 0.21661(12) 0.8179(2)
H39 H 0.35760 0.20410 0.84440
H40 H 0.30090 0.22620 0.84170
O27 O 0.55200(18) 0.18906(13) 0.63537(19)
H41 H 0.54840 0.17270 0.59980
H42 H 0.53140 0.21150 0.62630
O28 O 0.3054(2) 0.15162(17) 0.7202(3)
H43 H 0.30620 0.17610 0.73880
H44 H 0.27200 0.15710 0.69660
O29 O 0.3872(2) 0.08871(15) 0.7677(3)
H45 H 0.42090 0.10210 0.76150
H46 H 0.36630 0.10820 0.74680
O30 O 0.50000 0.1404(2) 0.75000
H47 H 0.48280 0.15920 0.77480
O31 O 0.50000 0.38480(19) 0.75000
H48 H 0.48680 0.36850 0.78340
O32 O 0.1962(3) 0.3914(2) 0.1063(3)
O33 O 0.2251(3) 0.2136(2) 0.4666(3)
O34 O 0.50000 0.2471(4) 0.25000
O35? O 0.1451(12) 0.3954(7) 0.0867(11)
Sb1A Sb 0.71527(2) 0.21538(2) 0.17824(2)
Sb2A Sb 0.60541(2) 0.13647(2) 0.12122(2)
Sb3A Sb 0.53472(2) 0.39567(2) 0.16612(2)
V1A V 0.63904(3) 0.31219(2) 0.16373(3)
V3A V 0.65870(3) 0.25410(2) 0.33967(3)
V4A V 0.57813(3) 0.24861(2) 0.06269(3)
V5A V 0.46619(3) 0.18861(2) 0.08088(3)
V6A V 0.47659(3) 0.30744(2) 0.07706(3)
V7A V 0.62111(3) 0.16117(2) 0.31412(3)
V8A V 0.61804(3) 0.33959(2) 0.31496(3)
O1A O 0.64904(11) 0.25161(7) 0.13347(12)
O2A O 0.66872(12) 0.20797(7) 0.26707(12)
O3A O 0.68764(12) 0.16224(8) 0.13374(13)
O4A O 0.58496(12) 0.14141(8) 0.22130(12)
O5A O 0.56084(11) 0.18825(7) 0.08999(12)
O6A O 0.59140(12) 0.35674(8) 0.21656(12)
O8A O 0.46720(11) 0.35491(8) 0.14958(12)
O9A O 0.65934(11) 0.29527(7) 0.26136(12)
O10A O 0.56700(11) 0.30666(7) 0.09867(12)
O11A O 0.69594(12) 0.33809(9) 0.12851(13)
O12A O 0.46517(11) 0.14778(7) 0.15996(12)
O14A O 0.60338(11) 0.29469(7) 0.38204(12)
O15A O 0.61164(11) 0.20840(7) 0.37945(12)
O16A O 0.72460(11) 0.25781(8) 0.38801(12)
O17A O 0.60445(13) 0.25077(8) -0.01827(13)
O18A O 0.48844(11) 0.24735(7) 0.06022(12)
O19A O 0.44707(12) 0.16399(8) 0.00703(12)
O20A O 0.46407(12) 0.33072(8) 0.00049(12)
O21A O 0.67043(12) 0.12705(8) 0.34838(13)
O22A O 0.67014(12) 0.37296(8) 0.34711(13)
N1F N 0.21562(15) 0.31298(10) -0.00459(16)
H1F H 0.19790 0.31990 0.03740
H2F H 0.18570 0.31540 -0.04040
C1F C 0.2690(2) 0.34233(12) -0.0180(2)
H3F H 0.25320 0.36920 -0.04060
H4F H 0.29130 0.34980 0.02770
C2F C 0.31382(19) 0.32004(13) -0.0670(2)
H5F H 0.35150 0.33810 -0.07350
H6F H 0.29300 0.31510 -0.11450
N2F N 0.33217(15) 0.27876(10) -0.03408(16)
H7F H 0.35100 0.26170 -0.06650
H8F H 0.35960 0.28310 0.00370
O16F O 0.22460(11) 0.24219(8) -0.11199(12)
Ni1A Ni 0.75000 0.25000 0.50000
H47A H 0.51720 0.15920 0.72520
H48A H 0.51320 0.36850 0.71660
#END
