
#######################################################################
#
#                 Cambridge Crystallographic Data Centre
#                                CCDC
#
#######################################################################
#
# If this CIF has been generated from an entry in the Cambridge
# Structural Database, then it will include bibliographic, chemical,
# crystal, experimental, refinement or atomic coordinate data resulting
# from the CCDC's data processing and validation procedures.
#
#######################################################################

data_CSD_CIF_RANZUB
_audit_creation_date 2001-11-22
_audit_creation_method CSD-ConQuest-V1
_database_code_CSD RANZUB
_chemical_formula_sum 'C4 H10 Fe1 Mo1 N2 O8'
_chemical_formula_moiety
;
(C2 H10 N2 2+)n,n(C2 Fe1 Mo1 O8 2-)
;
_journal_coden_Cambridge 208
_journal_volume 152
_journal_year 2000
_journal_page_first 229
_journal_name_full 'J.Solid State Chem. '
loop_
_publ_author_name
"S.D.Huang"
"Y.Shan"
_chemical_name_systematic
;
catena-(Ethane-1,2-diammonium 
(\m~2~-oxalato-O,O',O'',O''')-bis(\m~2~-oxo)-dioxo-iron-molybdenum)
;
_cell_volume   1031.673
_exptl_crystal_colour 'yellow'
_exptl_crystal_density_diffrn 2.36
_exptl_crystal_description 'rectangular prism'
_diffrn_ambient_temperature ?
_diffrn_special_details
;
The study was carried out at room temperature,in the range 283-303K

;
#These two values have been output from a single CSD field.
_refine_ls_R_factor_gt 0.0185
_refine_ls_wR_factor_gt 0.0185
_symmetry_cell_setting monoclinic
_symmetry_space_group_name_H-M 'P 21/c'
_symmetry_Int_Tables_number 14
loop_
_symmetry_equiv_pos_site_id
_symmetry_equiv_pos_as_xyz
1 x,y,z
2 -x,1/2+y,1/2-z
3 -x,-y,-z
4 x,-1/2-y,-1/2+z
_cell_length_a 5.5813(4)
_cell_length_b 13.994(1)
_cell_length_c 13.2282(9)
_cell_angle_alpha 90
_cell_angle_beta 93.100(1)
_cell_angle_gamma 90
_cell_formula_units_Z 4
loop_
_atom_type_symbol
_atom_type_radius_bond
C 0.68
Fe 1.34
Mo 1.44
N 0.68
O 0.68
loop_
_atom_site_label
_atom_site_type_symbol
_atom_site_fract_x
_atom_site_fract_y
_atom_site_fract_z
Mo1 Mo 0.60703(4) 0.27382(1) 0.29233(1)
Fe1 Fe 0.48298(6) 0.52023(2) 0.25100(2)
O1 O 0.4745(3) 0.3727(1) 0.2248(1)
O2 O 0.9161(4) 0.2835(1) 0.2934(2)
O3 O 0.5290(4) 0.2739(2) 0.4201(2)
O4 O 0.5141(3) 0.1670(1) 0.2308(2)
O5 O 0.1698(3) 0.5300(1) 0.1474(1)
O6 O 0.1958(3) 0.5081(1) 0.3511(1)
O7 O -0.2030(3) 0.5043(1) 0.3514(1)
O8 O -0.2307(3) 0.5268(1) 0.1480(1)
N1 N 1.1185(4) 0.1456(2) -0.0072(2)
N2 N 1.2736(4) 0.3580(2) 0.0277(2)
C1 C 1.0352(5) 0.2143(2) 0.0704(2)
C2 C 1.0289(5) 0.3161(2) 0.0330(2)
C3 C -0.0241(4) 0.5236(2) 0.1905(2)
C4 C -0.0081(4) 0.5102(2) 0.3073(2)
O4A O 0.4859(3) 0.6670(1) 0.2692(2)
Fe1A Fe 0.51702(6) 0.02023(2) 0.24900(2)
O8* O 0.7693(3) 0.5268(1) 0.1480(1)
O7* O 0.7970(3) 0.5043(1) 0.3514(1)
Fe1* Fe -0.51702(6) 0.52023(2) 0.25100(2)
#END
