
#######################################################################
#
#                 Cambridge Crystallographic Data Centre
#                                CCDC
#
#######################################################################
#
# If this CIF has been generated from an entry in the Cambridge
# Structural Database, then it will include bibliographic, chemical,
# crystal, experimental, refinement or atomic coordinate data resulting
# from the CCDC's data processing and validation procedures.
#
#######################################################################

data_CSD_CIF_RAQGEX
_audit_creation_date 2012-03-13
_audit_creation_method CSD-ConQuest-V1
_database_code_CSD RAQGEX
_database_code_depnum_ccdc_archive 'CCDC 863293'
_chemical_formula_sum 'C32 H72 Mo8 N16 Na8 O56 P8'
_chemical_formula_moiety
;
(C1 H6 N3 1+)4n,n(C28 H42 Mo8 N4 Na5 O53 P8 7-),3n(Na1 1+),3n(H2 O1)
;
_journal_coden_Cambridge 9
_journal_volume 50
_journal_year 2011
_journal_page_first 11667
_journal_name_full 'Inorg.Chem. '
loop_
_publ_author_name
"A.Banerjee"
"F.S.Raad"
"N.Vankova"
"B.S.Bassil"
"T.Heine"
"U.Kortz"
_chemical_name_systematic
;
catena-(tetrakis(Guanidinium) tri-sodium 
tetrakis(\m~4~-(1-hydroxy-2-(pyridin-3-yl)ethane-1,1-diyl)-bis(hydrogen 
(phosphonato)))-bis((\m~3~-aqua)-(\m~3~-oxo))-pentakis(\m~2~-aqua)-hexakis(\m~
2~-oxo)-diaqua-octaoxo-octa-molybdenum-penta-sodium trihydrate)
;
_cell_volume   5193.147
_exptl_crystal_colour 'red'
_exptl_crystal_density_diffrn 1.775
_exptl_crystal_description 'thread'
_diffrn_ambient_temperature 173
_refine_special_details
;
The structure is disordered.

;
#These two values have been output from a single CSD field.
_refine_ls_R_factor_gt 0.0499
_refine_ls_wR_factor_gt 0.0499
_symmetry_cell_setting tetragonal
_symmetry_space_group_name_H-M 'P 4/n'
_symmetry_Int_Tables_number 85
loop_
_symmetry_equiv_pos_site_id
_symmetry_equiv_pos_as_xyz
1 x,y,z
2 1/2-x,1/2-y,z
3 1/2-y,x,z
4 y,1/2-x,z
5 -x,-y,-z
6 -1/2+x,-1/2+y,-z
7 -1/2+y,-x,-z
8 -y,-1/2+x,-z
_cell_length_a 25.3368(11)
_cell_length_b 25.3368(11)
_cell_length_c 8.0896(4)
_cell_angle_alpha 90
_cell_angle_beta 90
_cell_angle_gamma 90
_cell_formula_units_Z 2
loop_
_atom_type_symbol
_atom_type_radius_bond
C 0.68
H 0.23
Mo 1.08
N 0.68
Na 1.56
O 0.93
P 0.96
loop_
_atom_site_label
_atom_site_type_symbol
_atom_site_fract_x
_atom_site_fract_y
_atom_site_fract_z
C1 C 0.5851(3) -0.1217(3) -0.5490(11)
N1 N 0.5467(3) -0.0891(3) -0.5373(8)
H1 H 0.51390 -0.10070 -0.54030
H2 H 0.55300 -0.05510 -0.52630
N2 N 0.6351(3) -0.1040(3) -0.5497(10)
H3 H 0.64150 -0.06990 -0.54210
H4 H 0.66140 -0.12650 -0.55770
N3 N 0.5766(3) -0.1731(3) -0.5656(12)
H5 H 0.54410 -0.18530 -0.56890
H6 H 0.60350 -0.19490 -0.57350
C2 C 0.7552(3) -0.0450(3) 0.0365(10)
N4 N 0.7819(3) -0.0759(3) -0.0670(9)
H7 H 0.80010 -0.06190 -0.14860
H8 H 0.78140 -0.11040 -0.05390
N5 N 0.7556(3) 0.0059(3) 0.0185(9)
H9 H 0.73870 0.02610 0.08950
H10 H 0.77280 0.02030 -0.06460
N6 N 0.7291(3) -0.0661(3) 0.1626(9)
H11 H 0.71230 -0.04560 0.23290
H12 H 0.72860 -0.10060 0.17580
O1 O 0.7407(2) -0.1710(3) -0.5844(16)
O2 O 0.9317(3) -0.1393(3) -0.1588(9)
O3 O 0.8269(4) -0.1923(4) -0.117(2)
Mo1 Mo 0.72245(2) 0.04012(2) -0.45110(7)
Mo2 Mo 0.56887(2) 0.18236(2) -0.61482(7)
P1 P 0.60084(7) 0.05854(7) -0.4882(2)
P2 P 0.66895(7) 0.10695(7) -0.7570(2)
O4 O 0.7210(2) -0.01789(19) -0.3441(6)
O5 O 0.67849(19) 0.01229(18) -0.6456(6)
O6 O 0.64840(19) 0.0667(2) -0.3702(6)
O7 O 0.62916(19) 0.15309(18) -0.7615(6)
O8 O 0.51762(19) 0.16639(19) -0.7397(6)
O9 O 0.6438(2) 0.1919(2) -0.4386(6)
O10 O 0.56770(19) 0.0119(2) -0.4456(6)
O11 O 0.6931(2) 0.09970(19) -0.9240(6)
O12 O 0.56829(18) 0.10998(19) -0.4942(6)
O13 O 0.70895(19) 0.11461(19) -0.6162(6)
O14 O 0.75055(18) 0.09193(19) -0.2986(6)
O15 O 0.78757(19) 0.03516(19) -0.5789(6)
C3 C 0.6351(3) 0.0470(3) -0.6873(8)
C4 C 0.6023(3) 0.0172(3) -0.8198(9)
H13 H 0.58880 -0.01580 -0.76980
H14 H 0.62620 0.00720 -0.91140
C5 C 0.5562(3) 0.0471(3) -0.8915(9)
C6 C 0.5618(3) 0.0798(3) -1.0280(9)
H15 H 0.59580 0.08460 -1.07540
C7 C 0.5192(4) 0.1056(3) -1.0961(10)
H16 H 0.52340 0.12800 -1.18940
C8 C 0.4703(3) 0.0981(3) -1.0256(10)
H17 H 0.44050 0.11570 -1.07080
C9 C 0.5062(3) 0.0416(3) -0.8256(9)
H18 H 0.50130 0.02010 -0.73070
N7 N 0.4640(3) 0.0665(3) -0.8943(8)
Na1 Na 0.67972(13) 0.14171(13) -0.1995(4)
Na2 Na 0.75000 0.25000 0.00000
O16 O 0.6593(2) 0.2156(2) -0.0286(7)
O17 O 0.75000 0.25000 0.357(11)
Na3? Na 0.75000 0.25000 0.364(6)
Mo1* Mo 0.72245(2) 0.04012(2) 0.54890(7)
Mo1A Mo 0.77755(2) 0.45988(2) -0.45110(7)
Mo1A* Mo 0.77755(2) 0.45988(2) 0.54890(7)
Mo1F Mo 0.54012(2) 0.27755(2) 0.45110(7)
Mo1G Mo 0.95988(2) 0.22245(2) 0.45110(7)
Mo1F* Mo 0.54012(2) 0.27755(2) -0.54890(7)
Mo2* Mo 0.56887(2) 0.18236(2) 0.38518(7)
Mo2A Mo 0.93113(2) 0.31764(2) -0.61482(7)
Mo2A* Mo 0.93113(2) 0.31764(2) 0.38518(7)
Mo2G Mo 0.81764(2) 0.06887(2) -0.38518(7)
Mo2F Mo 0.68236(2) 0.43113(2) -0.38518(7)
Mo2F* Mo 0.68236(2) 0.43113(2) 0.61482(7)
Mo2G* Mo 0.81764(2) 0.06887(2) 0.61482(7)
P1* P 0.60084(7) 0.05854(7) 0.5118(2)
P1A P 0.89916(7) 0.44146(7) -0.4882(2)
P1A* P 0.89916(7) 0.44146(7) 0.5118(2)
P2* P 0.66895(7) 0.10695(7) 0.2430(2)
P2A P 0.83105(7) 0.39305(7) -0.7570(2)
P2A* P 0.83105(7) 0.39305(7) 0.2430(2)
O4* O 0.7210(2) -0.01789(19) 0.6559(6)
O4A O 0.7790(2) 0.51789(19) -0.3441(6)
O4A* O 0.7790(2) 0.51789(19) 0.6559(6)
O5* O 0.67849(19) 0.01229(18) 0.3544(6)
O5A O 0.82151(19) 0.48771(18) -0.6456(6)
O5A* O 0.82151(19) 0.48771(18) 0.3544(6)
O6* O 0.64840(19) 0.0667(2) 0.6298(6)
O6A O 0.85160(19) 0.4333(2) -0.3702(6)
O6A* O 0.85160(19) 0.4333(2) 0.6298(6)
O6F O 0.56670(19) 0.3516(2) 0.3702(6)
O6G O 0.93330(19) 0.1484(2) 0.3702(6)
O7* O 0.62916(19) 0.15309(18) 0.2385(6)
O7A O 0.87084(19) 0.34691(18) -0.7615(6)
O7A* O 0.87084(19) 0.34691(18) 0.2385(6)
O8* O 0.51762(19) 0.16639(19) 0.2603(6)
O8A O 0.98238(19) 0.33361(19) -0.7397(6)
O8A* O 0.98238(19) 0.33361(19) 0.2603(6)
O9A O 0.8562(2) 0.3081(2) -0.4386(6)
O9F O 0.6919(2) 0.3562(2) 0.4386(6)
O9G O 0.8081(2) 0.1438(2) 0.4386(6)
O9* O 0.6438(2) 0.1919(2) 0.5614(6)
O9A* O 0.8562(2) 0.3081(2) 0.5614(6)
O10* O 0.56770(19) 0.0119(2) 0.5544(6)
O10A O 0.93230(19) 0.4881(2) -0.4456(6)
O10A* O 0.93230(19) 0.4881(2) 0.5544(6)
O11* O 0.6931(2) 0.09970(19) 0.0760(6)
O11A O 0.8069(2) 0.40030(19) -0.9240(6)
O11A* O 0.8069(2) 0.40030(19) 0.0760(6)
O11F O 0.5997(2) 0.30690(19) -0.0760(6)
O11G O 0.9003(2) 0.19310(19) -0.0760(6)
O12* O 0.56829(18) 0.10998(19) 0.5058(6)
O12A O 0.93171(18) 0.39002(19) -0.4942(6)
O12A* O 0.93171(18) 0.39002(19) 0.5058(6)
O13* O 0.70895(19) 0.11461(19) 0.3838(6)
O13A O 0.79105(19) 0.38539(19) -0.6162(6)
O13A* O 0.79105(19) 0.38539(19) 0.3838(6)
O14A O 0.74945(18) 0.40807(19) -0.2986(6)
O14F O 0.59193(18) 0.24945(19) 0.2986(6)
O14G O 0.90807(18) 0.25055(19) 0.2986(6)
O14F* O 0.59193(18) 0.24945(19) -0.7014(6)
O14* O 0.75055(18) 0.09193(19) 0.7014(6)
O14A* O 0.74945(18) 0.40807(19) 0.7014(6)
O14G* O 0.90807(18) 0.25055(19) -0.7014(6)
O15F O 0.53516(19) 0.21243(19) -0.4211(6)
O15* O 0.78757(19) 0.03516(19) 0.4211(6)
O15A O 0.71243(19) 0.46484(19) -0.5789(6)
O15A* O 0.71243(19) 0.46484(19) 0.4211(6)
O15F* O 0.53516(19) 0.21243(19) 0.5789(6)
O15G O 0.96484(19) 0.28757(19) -0.4211(6)
O15G* O 0.96484(19) 0.28757(19) 0.5789(6)
C3* C 0.6351(3) 0.0470(3) 0.3127(8)
C3A C 0.8649(3) 0.4530(3) -0.6873(8)
C3A* C 0.8649(3) 0.4530(3) 0.3127(8)
C4* C 0.6023(3) 0.0172(3) 0.1802(9)
C4A C 0.8977(3) 0.4828(3) -0.8198(9)
C4A* C 0.8977(3) 0.4828(3) 0.1802(9)
H13* H 0.58880 -0.01580 0.23020
H13A H 0.91120 0.51580 -0.76980
H13A* H 0.91120 0.51580 0.23020
H14* H 0.62620 0.00720 0.08860
H14A H 0.87380 0.49280 -0.91140
H14A* H 0.87380 0.49280 0.08860
C5* C 0.5562(3) 0.0471(3) 0.1085(9)
C5A C 0.9438(3) 0.4529(3) -0.8915(9)
C5A* C 0.9438(3) 0.4529(3) 0.1085(9)
C6* C 0.5618(3) 0.0798(3) -0.0280(9)
C6A C 0.9382(3) 0.4202(3) -1.0280(9)
C6A* C 0.9382(3) 0.4202(3) -0.0280(9)
H15* H 0.59580 0.08460 -0.07540
H15A H 0.90420 0.41540 -1.07540
H15A* H 0.90420 0.41540 -0.07540
C7* C 0.5192(4) 0.1056(3) -0.0961(10)
C7A C 0.9808(4) 0.3944(3) -1.0961(10)
C7A* C 0.9808(4) 0.3944(3) -0.0961(10)
H16* H 0.52340 0.12800 -0.18940
H16A H 0.97660 0.37200 -1.18940
H16A* H 0.97660 0.37200 -0.18940
C8* C 0.4703(3) 0.0981(3) -0.0256(10)
C8A C 1.0297(3) 0.4019(3) -1.0256(10)
C8A* C 1.0297(3) 0.4019(3) -0.0256(10)
H17* H 0.44050 0.11570 -0.07080
H17A H 1.05950 0.38430 -1.07080
H17A* H 1.05950 0.38430 -0.07080
C9* C 0.5062(3) 0.0416(3) 0.1744(9)
C9A C 0.9938(3) 0.4584(3) -0.8256(9)
C9A* C 0.9938(3) 0.4584(3) 0.1744(9)
H18* H 0.50130 0.02010 0.26930
H18A H 0.99870 0.47990 -0.73070
H18A* H 0.99870 0.47990 0.26930
N7* N 0.4640(3) 0.0665(3) 0.1057(8)
N7A N 1.0360(3) 0.4335(3) -0.8943(8)
N7A* N 1.0360(3) 0.4335(3) 0.1057(8)
Na1A Na 0.82028(13) 0.35829(13) -0.1995(4)
Na1F Na 0.64171(13) 0.32028(13) 0.1995(4)
Na1G Na 0.85829(13) 0.17972(13) 0.1995(4)
Na1* Na 0.67972(13) 0.14171(13) -1.1995(4)
Na1** Na 0.67972(13) 0.14171(13) 0.8005(4)
Na1A* Na 0.82028(13) 0.35829(13) -1.1995(4)
Na1A** Na 0.82028(13) 0.35829(13) 0.8005(4)
O16A O 0.8407(2) 0.2844(2) -0.0286(7)
O16F O 0.7156(2) 0.3407(2) 0.0286(7)
O16G O 0.7844(2) 0.1593(2) 0.0286(7)
O17F O 0.75000 0.25000 -0.357(11)
#END
