
#######################################################################
#
#                 Cambridge Crystallographic Data Centre
#                                CCDC
#
#######################################################################
#
# If this CIF has been generated from an entry in the Cambridge
# Structural Database, then it will include bibliographic, chemical,
# crystal, experimental, refinement or atomic coordinate data resulting
# from the CCDC's data processing and validation procedures.
#
#######################################################################

data_CSD_CIF_RARYUG
_audit_creation_date 2012-09-12
_audit_creation_method CSD-ConQuest-V1
_database_code_CSD RARYUG
_database_code_depnum_ccdc_archive 'CCDC 817490'
_chemical_formula_sum 'C14 H22 Cu1 Mg1 N2 O16'
_chemical_formula_moiety
;
(H12 Mg1 O6 2+)n,n(C14 H6 Cu1 N2 O8 2-),2n(H2 O1)
;
_journal_coden_Cambridge 580
_journal_volume 35
_journal_year 2012
_journal_page_first 55
_journal_name_full 'Polyhedron '
loop_
_publ_author_name
"D.Saha"
"T.Maity"
"T.Dey"
"S.Koner"
_chemical_name_systematic
;
catena-(Hexa-aqua-magnesium bis(\m~2~-pyridine-2,5-dicarboxylato)-copper 
dihydrate)
;
_cell_volume    526.289
_exptl_crystal_colour 'blue'
_exptl_crystal_density_diffrn 1.774
_exptl_special_details
;
moisture-sensitive, hygroscropic

;
_exptl_crystal_description 'block'
_diffrn_ambient_temperature 273
#These two values have been output from a single CSD field.
_refine_ls_R_factor_gt 0.0287
_refine_ls_wR_factor_gt 0.0287
_symmetry_cell_setting triclinic
_symmetry_space_group_name_H-M 'P -1'
_symmetry_Int_Tables_number 2
loop_
_symmetry_equiv_pos_site_id
_symmetry_equiv_pos_as_xyz
1 x,y,z
2 -x,-y,-z
_cell_length_a 7.2742(3)
_cell_length_b 7.5120(4)
_cell_length_c 10.7141(5)
_cell_angle_alpha 80.059(2)
_cell_angle_beta 74.500(1)
_cell_angle_gamma 69.463(1)
_cell_formula_units_Z 1
loop_
_atom_type_symbol
_atom_type_radius_bond
C 0.68
H 0.23
Cu 1.57
Mg 1.41
N 0.68
O 0.68
loop_
_atom_site_label
_atom_site_type_symbol
_atom_site_fract_x
_atom_site_fract_y
_atom_site_fract_z
Cu1 Cu 0.00000 1.00000 0.50000
Mg1 Mg 0.00000 0.50000 0.00000
O1 O 0.2260(3) 0.9381(3) 0.9159(2)
O2 O 0.06544(19) 0.8993(2) 0.33221(13)
O3 O 0.3197(2) 0.7266(3) 0.18976(15)
O4 O 0.8921(2) 0.7080(2) 0.63438(14)
O5 O 0.0638(2) 0.6803(2) -0.16147(16)
O6 O -0.0132(3) 0.6842(3) 0.12416(17)
O7 O -0.3019(2) 0.6286(3) 0.00570(18)
N1 N 0.2857(2) 0.8551(2) 0.49824(14)
C1 C 0.3824(3) 0.7698(3) 0.38763(18)
C2 C 0.2485(3) 0.7996(3) 0.29394(19)
C3 C 0.5846(3) 0.6687(3) 0.3642(2)
H1 H 0.636(4) 0.617(3) 0.296(2)
C4 C 0.6928(3) 0.6594(3) 0.45558(19)
H2 H 0.831(4) 0.595(3) 0.438(2)
C5 C 0.5936(3) 0.7474(2) 0.56914(17)
C6 C 0.7056(3) 0.7501(3) 0.66963(18)
O8 O 0.6027(2) 0.8017(3) 0.77788(15)
C7 C 0.3878(3) 0.8425(3) 0.58737(17)
H3 H 0.311(3) 0.907(3) 0.6613(19)
H4 H 0.079(5) 0.681(4) 0.146(3)
H5 H -0.394(5) 0.635(4) 0.060(3)
H6 H 0.075(5) 0.768(5) -0.152(3)
H7 H 0.013(4) 0.697(4) -0.221(3)
H8 H -0.333(4) 0.681(4) -0.059(3)
H9 H 0.336(5) 0.914(4) 0.876(3)
H10 H -0.072(5) 0.775(5) 0.114(3)
H11 H 0.231(6) 0.931(6) 0.984(4)
Cu1* Cu 1.00000 1.00000 0.50000
Cu1** Cu -1.00000 1.00000 0.50000
O2A O -0.06544(19) 1.1007(2) 0.66779(13)
O3A O -0.3197(2) 1.2734(3) 0.81024(15)
O4A O -0.8921(2) 1.2920(2) 0.36562(14)
O4* O -0.1079(2) 0.7080(2) 0.63438(14)
O4A* O 0.1079(2) 1.2920(2) 0.36562(14)
O5A O -0.0638(2) 0.3197(2) 0.16147(16)
O6A O 0.0132(3) 0.3158(3) -0.12416(17)
O7A O 0.3019(2) 0.3714(3) -0.00570(18)
N1A N -0.2857(2) 1.1449(2) 0.50176(14)
C1A C -0.3824(3) 1.2302(3) 0.61237(18)
C2A C -0.2485(3) 1.2004(3) 0.70606(19)
C3A C -0.5846(3) 1.3313(3) 0.6358(2)
H1A H -0.636(4) 1.383(3) 0.704(2)
C4A C -0.6928(3) 1.3406(3) 0.54442(19)
H2A H -0.831(4) 1.405(3) 0.562(2)
C5A C -0.5936(3) 1.2526(2) 0.43086(17)
C6A C -0.7056(3) 1.2499(3) 0.33037(18)
O8A O -0.6027(2) 1.1983(3) 0.22212(15)
C7A C -0.3878(3) 1.1575(3) 0.41263(17)
H3A H -0.311(3) 1.093(3) 0.3387(19)
H4A H -0.079(5) 0.319(4) -0.146(3)
H5A H 0.394(5) 0.365(4) -0.060(3)
H6A H -0.075(5) 0.232(5) 0.152(3)
H7A H -0.013(4) 0.303(4) 0.221(3)
H8A H 0.333(4) 0.319(4) 0.059(3)
H10A H 0.072(5) 0.225(5) -0.114(3)
#END
