
#######################################################################
#
#                 Cambridge Crystallographic Data Centre
#                                CCDC
#
#######################################################################
#
# If this CIF has been generated from an entry in the Cambridge
# Structural Database, then it will include bibliographic, chemical,
# crystal, experimental, refinement or atomic coordinate data resulting
# from the CCDC's data processing and validation procedures.
#
#######################################################################

data_CSD_CIF_RAVDEZ
_audit_creation_date 2012-09-04
_audit_creation_method CSD-ConQuest-V1
_database_code_CSD RAVDEZ
_database_code_depnum_ccdc_archive 'CCDC 884270'
_chemical_formula_sum 'C19 H18 Eu1 N1 O9'
_chemical_formula_moiety
;
(C17 H10 Eu1 O9 1-)n,n(C2 H8 N1 1+)
;
_journal_coden_Cambridge 1147
_journal_volume 12
_journal_year 2012
_journal_page_first 1808
_journal_name_full 'Cryst.Growth Des. '
loop_
_publ_author_name
"Shengqun Su"
"Wan Chen"
"Chao Qin"
"Shuyan Song"
"Zhiyong Guo"
"Guanghua Li"
"Xuezhi Song"
"Min Zhu"
"Song Wang"
"Zhaomin Hao"
"Hongjie Zhang"
_chemical_name_systematic
;
catena-(Dimethylammonium (\m~6~-methylenedi-isophthalato)-aqua-europium)
;
_cell_volume   1829.459
_exptl_crystal_colour 'colorless'
_exptl_crystal_density_diffrn 2.02
_exptl_special_details
;
isostructural with the Pr, Nd, Sm, Gd, Tb and Dy analogues

;
_exptl_crystal_description 'rod'
_diffrn_ambient_temperature 185
#These two values have been output from a single CSD field.
_refine_ls_R_factor_gt 0.0334
_refine_ls_wR_factor_gt 0.0334
_symmetry_cell_setting monoclinic
_symmetry_space_group_name_H-M 'P 21/n'
_symmetry_Int_Tables_number 14
loop_
_symmetry_equiv_pos_site_id
_symmetry_equiv_pos_as_xyz
1 x,y,z
2 1/2-x,1/2+y,1/2-z
3 -x,-y,-z
4 -1/2+x,-1/2-y,-1/2+z
_cell_length_a 9.2390(5)
_cell_length_b 13.5278(8)
_cell_length_c 14.6379(8)
_cell_angle_alpha 90
_cell_angle_beta 90.354(1)
_cell_angle_gamma 90
_cell_formula_units_Z 4
loop_
_atom_type_symbol
_atom_type_radius_bond
C 0.68
H 0.23
Eu 1.98
N 0.68
O 0.68
loop_
_atom_site_label
_atom_site_type_symbol
_atom_site_fract_x
_atom_site_fract_y
_atom_site_fract_z
Eu1 Eu -0.24883(2) 0.503095(18) -0.407351(15)
C1 C -0.0083(5) 0.3946(4) -0.1639(3)
C2 C -0.0360(5) 0.3006(4) -0.1285(3)
H1 H -0.10770 0.25940 -0.15560
C3 C 0.0436(5) 0.2678(4) -0.0522(3)
C4 C 0.1440(5) 0.3321(4) -0.0110(3)
H2 H 0.19920 0.30960 0.03990
C5 C 0.1645(5) 0.4277(4) -0.0427(3)
C6 C 0.0911(5) 0.4568(4) -0.1211(4)
H3 H 0.10910 0.52040 -0.14610
C7 C 0.2618(6) 0.4968(4) 0.0087(3)
C8 C 0.3455(5) 0.5714(4) -0.0457(3)
C9 C 0.3658(5) 0.6665(4) -0.0125(3)
H4 H 0.31690 0.68610 0.04140
C10 C 0.4557(5) 0.7338(4) -0.0559(3)
C11 C 0.5271(5) 0.7047(4) -0.1354(3)
H5 H 0.59220 0.74890 -0.16440
C12 C 0.5033(5) 0.6109(3) -0.1722(3)
C13 C 0.4109(5) 0.5456(4) -0.1274(3)
H6 H 0.39240 0.48240 -0.15330
C14 C -0.0872(6) 0.4325(4) -0.2474(3)
C15 C 0.0235(5) 0.1653(4) -0.0138(3)
C16 C 0.4752(5) 0.8346(4) -0.0158(3)
C17 C 0.5829(6) 0.5748(4) -0.2555(3)
C18 C 0.6772(7) 0.7834(6) 0.1911(5)
H7 H 0.69950 0.82430 0.13780
H8 H 0.69230 0.71360 0.17600
H9 H 0.74100 0.80190 0.24200
C19 C 0.4851(7) 0.7425(5) 0.2967(4)
H10 H 0.38390 0.75620 0.31190
H11 H 0.54740 0.76100 0.34830
H12 H 0.49660 0.67190 0.28380
N1 N 0.5252(6) 0.7989(4) 0.2176(3)
O1 O -0.0294(4) 0.5024(3) -0.2927(2)
O2 O -0.2069(4) 0.3956(3) -0.2694(2)
O3 O -0.0835(4) 0.1171(3) -0.0379(3)
O4 O 0.1191(4) 0.1348(3) 0.0402(2)
O5 O 0.4006(4) 0.8571(2) 0.0539(2)
O6 O 0.5640(4) 0.8923(3) -0.0512(2)
O7 O 0.7051(4) 0.6127(2) -0.2737(2)
O8 O 0.5256(4) 0.5080(3) -0.3041(2)
O9 O -0.2391(4) 0.5061(3) -0.5844(3)
H13 H -0.325(3) 0.502(4) -0.613(4)
H14 H -0.170(5) 0.515(4) -0.625(3)
H15 H 0.210(6) 0.533(4) 0.055(3)
H16 H 0.326(5) 0.456(4) 0.045(3)
H17 H 0.505(6) 0.860(2) 0.240(4)
H18 H 0.4646(14) 0.788(2) 0.1685(9)
Eu1* Eu 0.75117(2) 0.503095(18) -0.407351(15)
Eu1A Eu -0.25117(2) 0.003095(18) -0.092649(15)
Eu1A* Eu 0.74883(2) 1.003095(18) -0.092649(15)
Eu1C Eu 0.25117(2) -0.003095(18) 0.092649(15)
Eu1C* Eu 0.25117(2) 0.996905(18) 0.092649(15)
C17* C -0.4171(6) 0.5748(4) -0.2555(3)
O3A O -0.4165(4) 0.6171(3) -0.4621(3)
O4C O -0.3809(4) 0.3652(3) -0.4598(2)
O5C O -0.0994(4) 0.6429(2) -0.4461(2)
O6A O -0.0640(4) 0.3923(3) -0.4488(2)
O7* O -0.2949(4) 0.6127(2) -0.2737(2)
O8* O -0.4744(4) 0.5080(3) -0.3041(2)
#END
