
#######################################################################
#
#                 Cambridge Crystallographic Data Centre
#                                CCDC
#
#######################################################################
#
# If this CIF has been generated from an entry in the Cambridge
# Structural Database, then it will include bibliographic, chemical,
# crystal, experimental, refinement or atomic coordinate data resulting
# from the CCDC's data processing and validation procedures.
#
#######################################################################

data_CSD_CIF_RAVDAV
_audit_creation_date 2012-09-04
_audit_creation_method CSD-ConQuest-V1
_database_code_CSD RAVDAV
_database_code_depnum_ccdc_archive 'CCDC 884269'
_chemical_formula_sum 'C19 H18 N1 O9 Sm1'
_chemical_formula_moiety
;
(C2 H8 N1 1+)n,n(C17 H10 O9 Sm1 1-)
;
_journal_coden_Cambridge 1147
_journal_volume 12
_journal_year 2012
_journal_page_first 1808
_journal_name_full 'Cryst.Growth Des. '
loop_
_publ_author_name
"Shengqun Su"
"Wan Chen"
"Chao Qin"
"Shuyan Song"
"Zhiyong Guo"
"Guanghua Li"
"Xuezhi Song"
"Min Zhu"
"Song Wang"
"Zhaomin Hao"
"Hongjie Zhang"
_chemical_name_systematic
;
catena-(Dimethylammonium (\m~6~-methylenedi-isophthalato)-aqua-samarium)
;
_cell_volume   1832.583
_exptl_crystal_colour 'colorless'
_exptl_crystal_density_diffrn 2.01
_exptl_special_details
;
isostructural with the Pr, Nd, Eu, Gd, Tb and Dy analogues

;
_exptl_crystal_description 'block'
_diffrn_ambient_temperature 185
#These two values have been output from a single CSD field.
_refine_ls_R_factor_gt 0.0405
_refine_ls_wR_factor_gt 0.0405
_symmetry_cell_setting monoclinic
_symmetry_space_group_name_H-M 'P 21/n'
_symmetry_Int_Tables_number 14
loop_
_symmetry_equiv_pos_site_id
_symmetry_equiv_pos_as_xyz
1 x,y,z
2 1/2-x,1/2+y,1/2-z
3 -x,-y,-z
4 -1/2+x,-1/2-y,-1/2+z
_cell_length_a 9.2161(6)
_cell_length_b 13.5618(9)
_cell_length_c 14.6623(9)
_cell_angle_alpha 90
_cell_angle_beta 90.209(1)
_cell_angle_gamma 90
_cell_formula_units_Z 4
loop_
_atom_type_symbol
_atom_type_radius_bond
C 0.68
H 0.23
N 0.68
O 0.68
Sm 1.98
loop_
_atom_site_label
_atom_site_type_symbol
_atom_site_fract_x
_atom_site_fract_y
_atom_site_fract_z
Sm1 Sm 0.75075(3) 0.99773(2) -0.406937(19)
C1 C 0.5038(6) 0.8891(4) -0.1706(4)
C2 C 0.5284(6) 0.7958(4) -0.1340(4)
H1 H 0.59510 0.75220 -0.16240
C3 C 0.4548(6) 0.7664(4) -0.0553(4)
C4 C 0.3637(7) 0.8334(4) -0.0114(4)
H2 H 0.31510 0.81370 0.04270
C5 C 0.3423(7) 0.9286(4) -0.0450(4)
C6 C 0.4115(7) 0.9549(4) -0.1262(4)
H3 H 0.39540 1.01850 -0.15160
C7 C 0.2574(7) 1.0024(5) 0.0100(4)
H4 H 0.19550 0.96570 0.05340
H5 H 0.32690 1.04190 0.04640
C8 C 0.1623(7) 1.0724(4) -0.0430(4)
C9 C 0.1426(6) 1.1671(4) -0.0103(4)
H6 H 0.19680 1.18870 0.04120
C10 C 0.0434(6) 1.2319(4) -0.0523(4)
C11 C -0.0333(7) 1.2000(4) -0.1291(4)
H7 H -0.10380 1.24160 -0.15670
C12 C -0.0061(6) 1.1067(4) -0.1651(4)
C13 C 0.0906(6) 1.0431(4) -0.1215(4)
H8 H 0.10730 0.97920 -0.14590
C14 C 0.5830(7) 0.9254(5) -0.2540(4)
C15 C 0.4746(6) 0.6654(4) -0.0143(4)
C16 C 0.0255(6) 1.3347(4) -0.0140(4)
C17 C -0.0861(7) 1.0684(4) -0.2479(4)
C18 C 0.6799(12) 0.7171(9) 0.194(1)
H9 H 0.70360 0.67560 0.14140
H10 H 0.74090 0.69810 0.24600
H11 H 0.69770 0.78640 0.17880
C19 C 0.4881(11) 0.7602(9) 0.2954(7)
H12 H 0.38750 0.74790 0.31350
H13 H 0.50020 0.83030 0.28080
H14 H 0.55340 0.74230 0.34560
N1 N 0.5212(9) 0.7033(6) 0.2185(5)
H15 H 0.4672(18) 0.714(3) 0.1672(10)
H16 H 0.502(3) 0.6376(11) 0.221(2)
O1 O 0.5263(5) 0.9928(3) -0.3007(3)
O2 O 0.7041(4) 0.8882(3) -0.2722(3)
O3 O 0.5654(5) 0.6087(3) -0.0497(3)
O4 O 0.3980(5) 0.6429(3) 0.0532(3)
O5 O 0.1172(5) 1.3629(3) 0.0432(3)
O6 O -0.0785(5) 1.3837(3) -0.0412(3)
O7 O -0.2063(5) 1.1060(3) -0.2690(3)
O8 O -0.0290(5) 0.9994(3) -0.2942(3)
O9 O 0.7572(5) 0.9942(4) -0.5848(3)
H17 H 0.833(6) 1.020(5) -0.614(5)
H18 H 0.673(4) 1.012(6) -0.610(5)
Sm1* Sm -0.24925(3) 0.99773(2) -0.406937(19)
Sm1A Sm -0.25075(3) 1.49773(2) -0.093063(19)
Sm1A* Sm 0.74925(3) 0.49773(2) -0.093063(19)
Sm1C Sm 0.25075(3) 0.50227(2) 0.093063(19)
Sm1C* Sm 0.25075(3) 1.50227(2) 0.093063(19)
C17* C 0.9139(7) 1.0684(4) -0.2479(4)
O3A O 0.9346(5) 1.1087(3) -0.4503(3)
O4C O 0.8980(5) 0.8571(3) -0.4468(3)
O5C O 0.6172(5) 1.1371(3) -0.4568(3)
O6A O 0.5785(5) 0.8837(3) -0.4588(3)
O7* O 0.7937(5) 1.1060(3) -0.2690(3)
O8* O 0.9710(5) 0.9994(3) -0.2942(3)
#END
