
#######################################################################
#
#                 Cambridge Crystallographic Data Centre
#                                CCDC
#
#######################################################################
#
# If this CIF has been generated from an entry in the Cambridge
# Structural Database, then it will include bibliographic, chemical,
# crystal, experimental, refinement or atomic coordinate data resulting
# from the CCDC's data processing and validation procedures.
#
#######################################################################

data_CSD_CIF_RAVDID
_audit_creation_date 2012-09-04
_audit_creation_method CSD-ConQuest-V1
_database_code_CSD RAVDID
_database_code_depnum_ccdc_archive 'CCDC 884271'
_chemical_formula_sum 'C19 H18 Gd1 N1 O9'
_chemical_formula_moiety
;
(C2 H8 N1 1+)n,n(C17 H10 Gd1 O9 1-)
;
_journal_coden_Cambridge 1147
_journal_volume 12
_journal_year 2012
_journal_page_first 1808
_journal_name_full 'Cryst.Growth Des. '
loop_
_publ_author_name
"Shengqun Su"
"Wan Chen"
"Chao Qin"
"Shuyan Song"
"Zhiyong Guo"
"Guanghua Li"
"Xuezhi Song"
"Min Zhu"
"Song Wang"
"Zhaomin Hao"
"Hongjie Zhang"
_chemical_name_systematic
;
catena-(Dimethylammonium (\m~6~-methylenedi-isophthalato)-aqua-gadolinium)
;
_cell_volume   1820.985
_exptl_crystal_colour 'colorless'
_exptl_crystal_density_diffrn 2.048
_exptl_special_details
;
isostructural with the Pr, Nd, Sm, Eu, Tb and Dy analogues

;
_exptl_crystal_description 'rod'
_diffrn_ambient_temperature 185
#These two values have been output from a single CSD field.
_refine_ls_R_factor_gt 0.0273
_refine_ls_wR_factor_gt 0.0273
_symmetry_cell_setting monoclinic
_symmetry_space_group_name_H-M 'P 21/n'
_symmetry_Int_Tables_number 14
loop_
_symmetry_equiv_pos_site_id
_symmetry_equiv_pos_as_xyz
1 x,y,z
2 1/2-x,1/2+y,1/2-z
3 -x,-y,-z
4 -1/2+x,-1/2-y,-1/2+z
_cell_length_a 9.2275(5)
_cell_length_b 13.5056(8)
_cell_length_c 14.6122(8)
_cell_angle_alpha 90
_cell_angle_beta 90.328(1)
_cell_angle_gamma 90
_cell_formula_units_Z 4
loop_
_atom_type_symbol
_atom_type_radius_bond
C 0.68
H 0.23
Gd 1.96
N 0.68
O 0.68
loop_
_atom_site_label
_atom_site_type_symbol
_atom_site_fract_x
_atom_site_fract_y
_atom_site_fract_z
Gd1 Gd 0.25108(2) 0.002899(14) 0.092750(12)
C1 C 0.0037(4) 0.1107(3) 0.3283(3)
C2 C 0.0288(4) 0.2048(3) 0.3649(3)
H1 H 0.09480 0.24870 0.33610
C3 C -0.0441(4) 0.2338(3) 0.4443(3)
C4 C -0.1347(4) 0.1667(3) 0.4880(3)
H2 H -0.18360 0.18640 0.54200
C5 C -0.1554(4) 0.0713(3) 0.4544(3)
C6 C -0.0879(5) 0.0452(3) 0.3724(3)
H3 H -0.10510 -0.01830 0.34670
C7 C -0.2398(5) -0.0029(3) 0.5097(3)
H4 H -0.17000 -0.04280 0.54580
H5 H -0.30060 0.03390 0.55380
C8 C -0.3360(4) -0.0726(3) 0.4571(3)
C9 C -0.4098(4) -0.0438(3) 0.3787(3)
H6 H -0.39230 0.02010 0.35390
C10 C -0.5084(4) -0.1057(3) 0.3358(3)
C11 C -0.5348(4) -0.1999(3) 0.3713(3)
H7 H -0.60540 -0.24160 0.34370
C12 C -0.4570(4) -0.2323(3) 0.4477(3)
C13 C -0.3575(4) -0.1682(3) 0.4889(3)
H8 H -0.30300 -0.19070 0.54020
C14 C 0.0831(5) 0.0744(3) 0.2449(3)
C15 C -0.0239(4) 0.3357(3) 0.4850(3)
C16 C -0.5879(4) -0.0676(3) 0.2522(3)
C17 C -0.4755(4) -0.3355(3) 0.4863(3)
C18 C 0.6784(7) 0.2168(5) 0.1919(5)
H9 H 0.70100 0.17620 0.13830
H10 H 0.74160 0.19760 0.24300
H11 H 0.69400 0.28680 0.17730
C19 C 0.4853(6) 0.2579(5) 0.2974(4)
H12 H 0.38370 0.24520 0.31260
H13 H 0.49840 0.32860 0.28470
H14 H 0.54720 0.23860 0.34910
N1 N 0.5243(5) 0.2012(3) 0.2179(3)
H15 H 0.4656(14) 0.216(2) 0.1680(8)
H16 H 0.506(2) 0.1348(9) 0.2240(18)
O1 O 0.0268(3) 0.0073(2) 0.1968(2)
O2 O 0.2053(3) 0.1119(2) 0.22601(19)
O3 O 0.0660(3) 0.3925(2) 0.4494(2)
O4 O -0.1012(3) 0.3581(2) 0.55322(19)
O5 O -0.5298(3) 0.0024(2) 0.20628(19)
O6 O -0.7076(3) -0.1047(2) 0.23014(19)
O7 O -0.5829(3) -0.3838(2) 0.4615(2)
O8 O -0.3802(3) -0.3655(2) 0.5418(2)
O9 O 0.2602(4) 0.0057(3) -0.0840(2)
H17 H 0.180(3) -0.002(4) -0.117(3)
H18 H 0.330(4) 0.018(4) -0.124(3)
Gd1* Gd -0.74892(2) 0.002899(14) 0.092750(12)
Gd1A Gd -0.75108(2) -0.497101(14) 0.407250(12)
Gd1A* Gd 0.24892(2) 0.502899(14) 0.407250(12)
Gd1C Gd -0.24892(2) -0.502899(14) 0.592750(12)
Gd1C* Gd -0.24892(2) 0.497101(14) 0.592750(12)
C16* C 0.4121(4) -0.0676(3) 0.2522(3)
O3A O 0.4340(3) -0.1075(2) 0.0506(2)
O4C O 0.3988(3) 0.1419(2) 0.05322(19)
O5* O 0.4702(3) 0.0024(2) 0.20628(19)
O6* O 0.2924(3) -0.1047(2) 0.23014(19)
O7A O 0.0829(3) 0.1162(2) 0.0385(2)
O8C O 0.1198(3) -0.1345(2) 0.0418(2)
#END
