
#######################################################################
#
#                 Cambridge Crystallographic Data Centre
#                                CCDC
#
#######################################################################
#
# If this CIF has been generated from an entry in the Cambridge
# Structural Database, then it will include bibliographic, chemical,
# crystal, experimental, refinement or atomic coordinate data resulting
# from the CCDC's data processing and validation procedures.
#
#######################################################################

data_CSD_CIF_RAVFEB
_audit_creation_date 2012-09-04
_audit_creation_method CSD-ConQuest-V1
_database_code_CSD RAVFEB
_database_code_depnum_ccdc_archive 'CCDC 884275'
_chemical_formula_sum 'C20 H21.5 N1.5 O9 Tm1'
_chemical_formula_moiety
;
(C2 H8 N1 1+)n,n(C17 H10 O9 Tm1 1-),0.5n(C2 H7 N1)
;
_journal_coden_Cambridge 1147
_journal_volume 12
_journal_year 2012
_journal_page_first 1808
_journal_name_full 'Cryst.Growth Des. '
loop_
_publ_author_name
"Shengqun Su"
"Wan Chen"
"Chao Qin"
"Shuyan Song"
"Zhiyong Guo"
"Guanghua Li"
"Xuezhi Song"
"Min Zhu"
"Song Wang"
"Zhaomin Hao"
"Hongjie Zhang"
_chemical_name_systematic
;
catena-((Dimethylammonium) (\m~6~-methylenedi-isophthalato)-aqua-thulium 
dimethylamine solvate)
;
_cell_volume   3906.557
_exptl_crystal_colour 'colorless'
_exptl_crystal_density_diffrn 2.026
_exptl_crystal_description 'block'
_diffrn_ambient_temperature 185
_refine_special_details
;
N2 disordered by symmetry over two sites with occupancy 0.50; C21 disordered 
by symmetry over two sites with occupancy 0.50.
;
#These two values have been output from a single CSD field.
_refine_ls_R_factor_gt 0.0207
_refine_ls_wR_factor_gt 0.0207
_symmetry_cell_setting orthorhombic
_symmetry_space_group_name_H-M 'P b c n'
_symmetry_Int_Tables_number 60
loop_
_symmetry_equiv_pos_site_id
_symmetry_equiv_pos_as_xyz
1 x,y,z
2 1/2-x,1/2-y,1/2+z
3 -x,y,1/2-z
4 1/2+x,1/2-y,-z
5 -x,-y,-z
6 -1/2+x,-1/2+y,-1/2-z
7 x,-y,-1/2+z
8 -1/2-x,-1/2+y,z
_cell_length_a 15.6958(5)
_cell_length_b 10.6984(3)
_cell_length_c 23.2644(7)
_cell_angle_alpha 90
_cell_angle_beta 90
_cell_angle_gamma 90
_cell_formula_units_Z 8
loop_
_atom_type_symbol
_atom_type_radius_bond
C 0.68
H 0.23
N 0.68
O 0.68
Tm 1.65
loop_
_atom_site_label
_atom_site_type_symbol
_atom_site_fract_x
_atom_site_fract_y
_atom_site_fract_z
Tm1 Tm 0.547839(8) 0.030629(12) 0.084134(5)
C1 C 0.40597(19) 0.2501(3) 0.20308(13)
C2 C 0.38275(18) 0.2029(3) 0.25600(13)
H1 H 0.40030 0.12140 0.26700
C3 C 0.33362(19) 0.2749(3) 0.29325(12)
C4 C 0.30754(19) 0.3929(3) 0.27620(13)
H2 H 0.27150 0.44020 0.30080
C5 C 0.33299(19) 0.4438(3) 0.22371(13)
C6 C 0.38220(19) 0.3713(3) 0.18731(13)
H3 H 0.40000 0.40410 0.15130
C7 C 0.3096(2) 0.5779(3) 0.20910(13)
H4 H 0.25340 0.59650 0.22650
H5 H 0.35180 0.63390 0.22740
C8 C 0.30529(19) 0.6098(3) 0.14590(13)
C9 C 0.23550(19) 0.5729(3) 0.11281(13)
H6 H 0.19080 0.52640 0.13020
C10 C 0.23047(18) 0.6031(3) 0.05457(13)
C11 C 0.29650(18) 0.6713(3) 0.02919(13)
H7 H 0.29450 0.68990 -0.01070
C12 C 0.36495(19) 0.7117(3) 0.06201(13)
C13 C 0.36922(19) 0.6806(3) 0.12003(13)
H8 H 0.41640 0.70790 0.14230
C14 C 0.45715(19) 0.1742(3) 0.16140(13)
C15 C 0.3077(2) 0.2219(3) 0.35073(13)
C16 C 0.15502(19) 0.5667(3) 0.01886(13)
C17 C 0.43058(19) 0.7953(3) 0.03476(13)
C18 C 0.1084(3) 0.0404(5) 0.4023(2)
H9 H 0.13620 0.02060 0.36570
H10 H 0.06490 0.10470 0.39600
H11 H 0.08150 -0.03510 0.41780
C19 C 0.1335(2) 0.1192(4) 0.49939(15)
H12 H 0.17760 0.14940 0.52580
H13 H 0.10630 0.04480 0.51570
H14 H 0.09060 0.18470 0.49380
N1 N 0.1727(2) 0.0873(3) 0.44353(14)
O1 O 0.49112(14) 0.2262(2) 0.11940(9)
O2 O 0.46495(13) 0.0563(2) 0.16900(9)
O3 O 0.65783(13) 0.1227(2) 0.13257(9)
O4 O 0.25138(18) 0.2770(3) 0.37920(11)
O5 O 0.41593(13) 0.0542(2) 0.04274(10)
O6 O 0.66683(13) -0.0514(2) 0.03448(9)
O7 O 0.57971(13) 0.1790(2) 0.01735(9)
O8 O 0.49058(13) -0.1657(2) 0.06598(9)
O9 O 0.60484(14) -0.1173(2) 0.14948(10)
C20 C 0.50000 -0.1204(8) 0.25000
N2 N 0.5716(8) -0.1498(11) 0.2623(5)
C21? C 0.3850(9) -0.1116(16) 0.2290(7)
H15 H 0.2001(14) 0.1553(19) 0.4284(5)
H16 H 0.2167(10) 0.034(2) 0.4474(7)
H17 H 0.593(3) -0.124(5) 0.1862(7)
H18 H 0.6550(17) -0.153(5) 0.1440(18)
C15B C 0.6923(2) 0.2219(3) 0.14927(13)
C16G C 0.34498(19) 0.0667(3) 0.01886(13)
C16C C 0.65502(19) -0.0667(3) -0.01886(13)
C17D C 0.56942(19) 0.2047(3) -0.03476(13)
C17* C 0.43058(19) -0.2047(3) 0.03476(13)
O3B O 0.34217(13) 0.1227(2) 0.36743(9)
O5G O 0.08407(13) 0.5542(2) 0.04274(10)
O6C O 0.16683(13) 0.5514(2) -0.03448(9)
O7D O 0.42029(13) 0.8210(2) -0.01735(9)
O8* O 0.49058(13) 0.8343(2) 0.06598(9)
N2B N 0.4284(8) -0.1498(11) 0.2377(5)
#END
