
#######################################################################
#
#                 Cambridge Crystallographic Data Centre
#                                CCDC
#
#######################################################################
#
# If this CIF has been generated from an entry in the Cambridge
# Structural Database, then it will include bibliographic, chemical,
# crystal, experimental, refinement or atomic coordinate data resulting
# from the CCDC's data processing and validation procedures.
#
#######################################################################

data_CSD_CIF_RAVLEI
_audit_creation_date 2017-05-31
_audit_creation_method CSD-ConQuest-V1
_database_code_CSD RAVLEI
_database_code_depnum_ccdc_archive 'CCDC 1547892'
_chemical_formula_sum 'C106 H110 Cd2 N9 Na1 O30'
_chemical_formula_moiety
;
(C84 H38 Cd2 Na1 O24 5-)n,5n(C2 H8 N1 1+),4n(C3 H7 N1 O1),2n(H2 O1)
;
_journal_coden_Cambridge 222
_journal_volume 46
_journal_year 2017
_journal_page_first 7403
_journal_name_full 'Dalton Trans. '
loop_
_publ_author_name
"Yun-Nan Gong"
"Xue-Wen Wei"
"Lv-Heng He"
"Ya-Qiong Wen"
"Ya-Wen Ren"
"Yong-Rong Xie"
"Di-Chang Zhong"
_chemical_name_systematic
;
catena-(pentakis(dimethylammonium) bis(\m-hydrogen 
triphenylene-2,4,6-tricarboxylato)-bis(\m-triphenylene-2,4,6-tricarboxylato)-d
i-cadmium-sodium dimethylformamide solvate dihydrate)
;
_cell_volume  13288.679
_exptl_crystal_colour 'colorless'
_exptl_crystal_description 'block'
_diffrn_ambient_temperature 293
_refine_special_details
;
The MASK/OLEX2 program was used to model the disordered cations and solvent 
molecules.
;
#These two values have been output from a single CSD field.
_refine_ls_R_factor_gt 0.1299
_refine_ls_wR_factor_gt 0.1299
_symmetry_cell_setting monoclinic
_symmetry_space_group_name_H-M 'C 2/c'
_symmetry_Int_Tables_number 15
loop_
_symmetry_equiv_pos_site_id
_symmetry_equiv_pos_as_xyz
1 x,y,z
2 -x,y,1/2-z
3 1/2+x,1/2+y,z
4 1/2-x,1/2+y,1/2-z
5 -x,-y,-z
6 x,-y,-1/2+z
7 -1/2-x,-1/2-y,-z
8 -1/2+x,-1/2-y,-1/2+z
_cell_length_a 17.546(2)
_cell_length_b 21.3217(10)
_cell_length_c 35.974(2)
_cell_angle_alpha 90
_cell_angle_beta 99.105(9)
_cell_angle_gamma 90
_cell_formula_units_Z 4
loop_
_atom_type_symbol
_atom_type_radius_bond
C 0.68
H 0.23
Cd 1.44
Na 1.66
O 0.68
loop_
_atom_site_label
_atom_site_type_symbol
_atom_site_fract_x
_atom_site_fract_y
_atom_site_fract_z
Cd1 Cd 0.13934(5) 0.34141(3) 0.04493(2)
Na1 Na 0.25000 0.25000 0.00000
C1 C 0.2175(6) 0.2542(5) 0.0932(3)
C2 C 0.2545(7) 0.1987(5) 0.1161(3)
C3 C 0.2948(7) 0.1549(5) 0.1013(3)
H1 H 0.30100 0.15920 0.07630
C4 C 0.3291(6) 0.1013(5) 0.1217(3)
C5 C 0.3810(6) 0.0567(5) 0.1055(3)
C6 C 0.3896(7) 0.0596(6) 0.0682(3)
H2 H 0.36240 0.08970 0.05270
C7 C 0.4374(6) 0.0190(5) 0.0532(3)
H3 H 0.44470 0.02300 0.02830
C8 C 0.4753(6) -0.0289(5) 0.0762(3)
C9 C 0.5281(6) -0.0744(5) 0.0616(3)
O1 O 0.5302(5) -0.0771(4) 0.0278(2)
O2 O 0.5716(6) -0.1066(5) 0.0861(2)
C10 C 0.4114(6) 0.0094(5) 0.1292(3)
C11 C 0.4656(6) -0.0324(5) 0.1131(3)
H4 H 0.49390 -0.06190 0.12870
C12 C 0.3933(6) -0.0029(5) 0.1673(3)
C13 C 0.4282(9) -0.0526(7) 0.1897(4)
H5 H 0.46420 -0.07860 0.18110
C14 C 0.4073(7) -0.0618(7) 0.2251(4)
H6 H 0.42760 -0.09590 0.23940
C15 C 0.3147(6) 0.0954(5) 0.1591(3)
C16 C 0.3486(6) 0.0406(5) 0.1823(3)
C17 C 0.3295(8) 0.0292(7) 0.2181(4)
H7 H 0.29690 0.05710 0.22780
C18 C 0.3579(9) -0.0222(7) 0.2394(4)
C19 C 0.3384(10) -0.0277(9) 0.2796(4)
O3 O 0.3653(7) -0.0788(6) 0.2966(3)
O4 O 0.2876(8) 0.0042(7) 0.2884(3)
C20 C 0.2410(9) 0.1929(7) 0.1531(4)
H8 H 0.21300 0.22320 0.16370
C21 C 0.2709(8) 0.1400(6) 0.1741(4)
H9 H 0.26080 0.13490 0.19860
O5 O 0.1787(6) 0.2903(4) 0.1074(2)
O6 O 0.2351(6) 0.2596(4) 0.0612(2)
C22 C -0.2478(7) -0.0890(6) 0.0199(4)
C23 C -0.1919(7) -0.0452(6) 0.0071(4)
C24 C -0.1610(6) -0.0536(6) -0.0246(4)
H10 H -0.17700 -0.08850 -0.03940
C25 C -0.1052(7) -0.0126(6) -0.0374(4)
C26 C -0.0696(9) -0.0243(7) -0.0696(5)
C27 C -0.0896(17) -0.0820(11) -0.0904(8)
H11 H -0.12630 -0.10880 -0.08310
C28 C -0.0543(17) -0.0977(12) -0.1213(8)
H12 H -0.06660 -0.13500 -0.13430
C29 C 0.0002(15) -0.0563(11) -0.1325(8)
C30 C 0.0425(18) -0.0742(14) -0.1647(9)
O7 O 0.0335(14) -0.1276(9) -0.1781(6)
O8 O 0.0693(14) -0.0232(9) -0.1803(6)
C31 C -0.0224(10) 0.0165(8) -0.0814(5)
C32 C 0.0101(12) 0.002(1) -0.1143(6)
H13 H 0.03910 0.03250 -0.12410
C33 C 0.0043(7) 0.0768(6) -0.0620(4)
C34 C 0.0509(7) 0.1187(7) -0.0733(4)
H14 H 0.07030 0.11210 -0.09560
C35 C 0.0716(8) 0.1731(7) -0.0523(4)
H15 H 0.10650 0.20110 -0.06010
C36 C -0.0865(6) 0.0408(5) -0.0171(4)
C37 C -0.0315(7) 0.0863(6) -0.0291(4)
C38 C -0.0127(7) 0.1428(6) -0.0081(4)
H16 H -0.03510 0.15140 0.01320
C39 C 0.0403(8) 0.1853(6) -0.0200(4)
C40 C 0.0639(9) 0.2426(7) 0.0048(5)
O9 O 0.1122(5) 0.2780(4) -0.0066(3)
O10 O 0.0368(7) 0.2532(5) 0.0331(3)
C41 C -0.1744(9) 0.0112(6) 0.0281(5)
H17 H -0.19740 0.02020 0.04900
C42 C -0.1213(8) 0.0526(6) 0.0159(5)
H18 H -0.10810 0.08900 0.02960
O11 O -0.2774(6) -0.0749(5) 0.0472(3)
O12 O -0.2606(5) -0.1383(4) 0.0010(3)
Cd1D Cd -0.13934(5) -0.34141(3) -0.04493(2)
C1D C -0.2175(6) -0.2542(5) -0.0932(3)
C2D C -0.2545(7) -0.1987(5) -0.1161(3)
C3D C -0.2948(7) -0.1549(5) -0.1013(3)
H1D H -0.30100 -0.15920 -0.07630
C4D C -0.3291(6) -0.1013(5) -0.1217(3)
C5D C -0.3810(6) -0.0567(5) -0.1055(3)
C6D C -0.3896(7) -0.0596(6) -0.0682(3)
H2D H -0.36240 -0.08970 -0.05270
C7D C -0.4374(6) -0.0190(5) -0.0532(3)
H3D H -0.44470 -0.02300 -0.02830
C8D C -0.4753(6) 0.0289(5) -0.0762(3)
C9D C -0.5281(6) 0.0744(5) -0.0616(3)
O1D O -0.5302(5) 0.0771(4) -0.0278(2)
O2D O -0.5716(6) 0.1066(5) -0.0861(2)
C10D C -0.4114(6) -0.0094(5) -0.1292(3)
C11D C -0.4656(6) 0.0324(5) -0.1131(3)
H4D H -0.49390 0.06190 -0.12870
C12D C -0.3933(6) 0.0029(5) -0.1673(3)
C13D C -0.4282(9) 0.0526(7) -0.1897(4)
H5D H -0.46420 0.07860 -0.18110
C14D C -0.4073(7) 0.0618(7) -0.2251(4)
H6D H -0.42760 0.09590 -0.23940
C15D C -0.3147(6) -0.0954(5) -0.1591(3)
C16D C -0.3486(6) -0.0406(5) -0.1823(3)
C17D C -0.3295(8) -0.0292(7) -0.2181(4)
H7D H -0.29690 -0.05710 -0.22780
C18D C -0.3579(9) 0.0222(7) -0.2394(4)
C19D C -0.3384(10) 0.0277(9) -0.2796(4)
O3D O -0.3653(7) 0.0788(6) -0.2966(3)
O4D O -0.2876(8) -0.0042(7) -0.2884(3)
C20D C -0.2410(9) -0.1929(7) -0.1531(4)
H8D H -0.21300 -0.22320 -0.16370
C21D C -0.2709(8) -0.1400(6) -0.1741(4)
H9D H -0.26080 -0.13490 -0.19860
O5D O -0.1787(6) -0.2903(4) -0.1074(2)
O6D O -0.2351(6) -0.2596(4) -0.0612(2)
C22D C 0.2478(7) 0.0890(6) -0.0199(4)
C23D C 0.1919(7) 0.0452(6) -0.0071(4)
C24D C 0.1610(6) 0.0536(6) 0.0246(4)
H10D H 0.17700 0.08850 0.03940
C25D C 0.1052(7) 0.0126(6) 0.0374(4)
C26D C 0.0696(9) 0.0243(7) 0.0696(5)
C27D C 0.0896(17) 0.0820(11) 0.0904(8)
H11D H 0.12630 0.10880 0.08310
C28D C 0.0543(17) 0.0977(12) 0.1213(8)
H12D H 0.06660 0.13500 0.13430
C29D C -0.0002(15) 0.0563(11) 0.1325(8)
C30D C -0.0425(18) 0.0742(14) 0.1647(9)
O7D O -0.0335(14) 0.1276(9) 0.1781(6)
O8D O -0.0693(14) 0.0232(9) 0.1803(6)
C31D C 0.0224(10) -0.0165(8) 0.0814(5)
C32D C -0.0101(12) -0.002(1) 0.1143(6)
H13D H -0.03910 -0.03250 0.12410
C33D C -0.0043(7) -0.0768(6) 0.0620(4)
C34D C -0.0509(7) -0.1187(7) 0.0733(4)
H14D H -0.07030 -0.11210 0.09560
C35D C -0.0716(8) -0.1731(7) 0.0523(4)
H15D H -0.10650 -0.20110 0.06010
C36D C 0.0865(6) -0.0408(5) 0.0171(4)
C37D C 0.0315(7) -0.0863(6) 0.0291(4)
C38D C 0.0127(7) -0.1428(6) 0.0081(4)
H16D H 0.03510 -0.15140 -0.01320
C39D C -0.0403(8) -0.1853(6) 0.0200(4)
C40D C -0.0639(9) -0.2426(7) -0.0048(5)
O9D O -0.1122(5) -0.2780(4) 0.0066(3)
O10D O -0.0368(7) -0.2532(5) -0.0331(3)
C41D C 0.1744(9) -0.0112(6) -0.0281(5)
H17D H 0.19740 -0.02020 -0.04900
C42D C 0.1213(8) -0.0526(6) -0.0159(5)
H18D H 0.10810 -0.08900 -0.02960
O11D O 0.2774(6) 0.0749(5) -0.0472(3)
O12D O 0.2606(5) 0.1383(4) -0.0010(3)
Cd1B Cd -0.36066(5) -0.15859(3) 0.04493(2)
Cd1B* Cd 0.63934(5) -0.15859(3) 0.04493(2)
Cd1F Cd -0.63934(5) 0.15859(3) -0.04493(2)
Cd1F* Cd 0.36066(5) 0.15859(3) -0.04493(2)
Na1B Na -0.25000 -0.25000 0.00000
O1B O 0.0302(5) 0.4229(4) 0.0278(2)
O1F O -0.0302(5) -0.4229(4) -0.0278(2)
O2B O 0.0716(6) 0.3934(5) 0.0861(2)
O2F O -0.0716(6) -0.3934(5) -0.0861(2)
O6F O 0.2649(6) 0.2404(4) -0.0612(2)
O9F O 0.3878(5) 0.2220(4) 0.0066(3)
O11B O 0.2226(6) 0.4251(5) 0.0472(3)
O11F O -0.2226(6) -0.4251(5) -0.0472(3)
O12B O 0.2394(5) 0.3617(4) 0.0010(3)
O12F O -0.2394(5) -0.3617(4) -0.0010(3)
#END
