
#######################################################################
#
#                 Cambridge Crystallographic Data Centre
#                                CCDC
#
#######################################################################
#
# If this CIF has been generated from an entry in the Cambridge
# Structural Database, then it will include bibliographic, chemical,
# crystal, experimental, refinement or atomic coordinate data resulting
# from the CCDC's data processing and validation procedures.
#
#######################################################################

data_CSD_CIF_RAXBAV
_audit_creation_date 2012-11-29
_audit_creation_method CSD-ConQuest-V1
_database_code_CSD RAXBAV
_database_code_depnum_ccdc_archive 'CCDC 745278'
_chemical_formula_sum 'C60 H94 Fe4 Mo12 N12 Na1 O83 P9 Sr2'
_chemical_formula_moiety
;
(H28 Fe2 Mo12 O70 P8 Sr2 4-)n,2n(C30 H24 Fe1 N6 3+),n(Na1 1+),n(O4 P1 
3-),9n(H2 O1)
;
_journal_coden_Cambridge 1350
_journal_volume 13
_journal_year 2011
_journal_page_first 3417
_journal_name_full 'CrystEngComm '
loop_
_publ_author_name
"Kai Yu"
"Wei-Lin Chen"
"Bai-Bin Zhou"
"Yang-Guang Li"
"Yang Yu"
"Zhan-Hua Su"
"Song Gao"
"Ying Chen"
_chemical_name_systematic
;
catena-(bis(tris(2,2'-Bipyridine)-iron(iii)) sodium phosphate 
bis(\m~8~-phosphato)-bis(\m~4~-phosphato)-bis(\m~3~-hydrogen 
phosphato)-octakis(\m~3~-oxo)-bis(\m~2~-dihydrogen 
phosphato)-hexakis(\m~2~-hydroxo)-tetrakis(\m~2~-oxo)-octa-aqua-dodecaoxo-di-i
ron-dodeca-molybdenum-di-strontium nonahydrate)
;
_cell_volume  12121.703
_exptl_crystal_colour 'red'
_exptl_crystal_density_diffrn 2.281
_exptl_crystal_description 'block'
_diffrn_ambient_temperature 293
_refine_special_details
;
O41,O42,O43,O44 disordered by symmetry over two sites with occupancy 0.50.

;
#These two values have been output from a single CSD field.
_refine_ls_R_factor_gt 0.0373
_refine_ls_wR_factor_gt 0.0373
_symmetry_cell_setting monoclinic
_symmetry_space_group_name_H-M 'C 2/c'
_symmetry_Int_Tables_number 15
loop_
_symmetry_equiv_pos_site_id
_symmetry_equiv_pos_as_xyz
1 x,y,z
2 -x,y,1/2-z
3 1/2+x,1/2+y,z
4 1/2-x,1/2+y,1/2-z
5 -x,-y,-z
6 x,-y,-1/2+z
7 -1/2-x,-1/2-y,-z
8 -1/2+x,-1/2-y,-1/2+z
_cell_length_a 24.4496(7)
_cell_length_b 14.3595(4)
_cell_length_c 34.5689(9)
_cell_angle_alpha 90
_cell_angle_beta 92.8380(4)
_cell_angle_gamma 90
_cell_formula_units_Z 4
loop_
_atom_type_symbol
_atom_type_radius_bond
C 0.68
H 0.23
Fe 1.52
Mo 1.38
N 0.68
Na 1.21
O 0.68
P 1.05
Sr 1.85
loop_
_atom_site_label
_atom_site_type_symbol
_atom_site_fract_x
_atom_site_fract_y
_atom_site_fract_z
Mo1 Mo -0.090406(14) -0.09868(2) -0.084397(10)
Mo2 Mo -0.145853(13) 0.02250(2) -0.046677(10)
Mo3 Mo -0.132880(13) 0.03341(2) 0.05535(1)
Mo4 Mo -0.006970(14) 0.24111(2) -0.042210(11)
Mo5 Mo -0.067470(14) -0.07918(3) 0.09342(1)
Mo6 Mo 0.001240(14) 0.24927(2) 0.032920(11)
Sr1 Sr -0.376220(19) -0.09122(3) 0.003750(16)
Fe1 Fe 0.16552(3) 0.27675(5) 0.266535(19)
Fe2 Fe 0.00000 0.00000 0.00000
Fe3 Fe -0.25000 -0.25000 0.00000
P1 P 0.05173(6) 0.29969(9) -0.12249(4)
P2 P -0.11967(4) -0.17322(7) 0.00735(3)
P3 P -0.25107(4) -0.00270(7) 0.00847(3)
P4 P -0.09712(5) -0.32625(8) -0.09565(3)
O1 O -0.06651(11) -0.0058(2) -0.04483(8)
O2 O -0.01479(11) 0.1437(2) -0.00247(8)
O3 O -0.05456(11) 0.0061(2) 0.04968(8)
O4 O -0.07831(11) -0.1815(2) 0.04237(8)
O5 O -0.14155(11) -0.07233(19) 0.00588(8)
O6 O -0.01020(12) 0.1340(2) -0.08327(9)
O7 O -0.16786(12) -0.0891(2) -0.07507(9)
O8 O -0.12893(11) 0.1073(2) 0.00254(9)
O9 O -0.22581(12) 0.0267(2) -0.02946(9)
O10 O -0.21699(12) 0.0343(2) 0.04343(9)
O11 O -0.26578(12) -0.1039(2) 0.01051(10)
O12 O -0.08792(11) -0.1902(2) -0.02968(8)
O13 O -0.01033(12) -0.1518(2) -0.07732(9)
O14 O -0.14643(12) -0.0731(2) 0.08755(9)
O15 O -0.16459(12) -0.2447(2) 0.00972(9)
O16 O 0.02681(12) 0.3324(2) -0.00668(9)
O17 O -0.10882(13) -0.2262(2) -0.10865(9)
O18 O -0.13225(13) 0.1263(2) 0.08477(10)
O19 O -0.15206(14) 0.1097(2) -0.07872(10)
O20 O 0.07690(15) 0.2021(3) -0.12311(10)
O21 O -0.06207(13) 0.2876(2) 0.04128(10)
O22 O 0.02526(15) 0.3209(2) -0.08472(11)
O23 O 0.0093(2) 0.3149(4) -0.15535(14)
H1 H 0.02310 0.30440 -0.17610
O24 O -0.07213(13) 0.2759(2) -0.04947(11)
O25 O -0.04196(13) -0.3335(2) -0.0721(1)
O26 O -0.30875(12) 0.0484(2) 0.00882(10)
O27 O -0.08247(14) -0.0396(2) -0.12539(9)
O28 O -0.14180(14) -0.3699(3) -0.07354(11)
O29 O -0.04950(14) -0.0133(3) 0.13191(10)
O30 O -0.08989(16) -0.3800(3) -0.13477(10)
H2 H -0.08530 -0.43560 -0.13020
O31 O 0.09694(19) 0.3745(3) -0.12740(13)
N1 N 0.17610(18) 0.1540(3) 0.29106(12)
N2 N 0.11534(19) 0.3185(3) 0.30587(12)
N3 N 0.14644(19) 0.3994(3) 0.24425(13)
N4 N 0.10537(18) 0.2102(3) 0.23860(12)
N5 N 0.21890(19) 0.2451(3) 0.22781(14)
N6 N 0.2302(2) 0.3348(3) 0.29250(14)
C1 C 0.3253(3) 0.3681(7) 0.2876(3)
H3 H 0.35750 0.36080 0.27470
C2 C 0.2784(4) 0.4283(6) 0.3396(3)
H4 H 0.27800 0.46230 0.36250
C3 C 0.1149(4) 0.5758(6) 0.2198(3)
H5 H 0.10410 0.63490 0.21150
C4 C 0.2494(4) 0.1771(6) 0.1694(3)
H6 H 0.24120 0.14620 0.14620
C5 C 0.3252(5) 0.4201(8) 0.3201(4)
H7 H 0.35700 0.45020 0.32920
C6 C 0.3139(3) 0.2483(7) 0.2146(3)
H8 H 0.34970 0.26440 0.22210
C7 C 0.3022(4) 0.2010(8) 0.1801(3)
H9 H 0.33040 0.18550 0.16420
C8 C 0.0942(4) 0.5379(5) 0.2527(3)
H10 H 0.06930 0.57110 0.26680
C9 C 0.1000(2) 0.1198(4) 0.24860(15)
C10 C 0.1384(2) 0.0889(4) 0.27999(15)
C11 C 0.0928(2) 0.4024(4) 0.29949(17)
C12 C 0.2707(2) 0.2709(5) 0.2376(2)
C13 C 0.0621(3) 0.0619(5) 0.22958(18)
H11 H 0.05890 0.00010 0.23720
C14 C 0.0727(2) 0.2430(5) 0.20991(18)
H12 H 0.07510 0.30560 0.20330
C15 C 0.1664(3) 0.4389(5) 0.21243(17)
H13 H 0.19140 0.40550 0.19850
C16 C 0.1370(3) 0.0022(5) 0.29757(19)
H14 H 0.11040 -0.04110 0.28970
C17 C 0.1109(2) 0.4494(4) 0.26454(17)
C18 C 0.2141(3) 0.0453(5) 0.33750(19)
H15 H 0.24050 0.03190 0.35700
C19 C 0.2768(2) 0.3248(5) 0.2731(2)
C20 C 0.1512(3) 0.5261(5) 0.1998(2)
H16 H 0.16580 0.55100 0.17770
C21 C 0.2087(3) 0.2005(5) 0.1941(2)
H17 H 0.17270 0.18460 0.18700
C22 C 0.0578(3) 0.4427(5) 0.3255(2)
H18 H 0.04280 0.50120 0.32070
C23 C 0.1756(3) -0.0192(5) 0.32695(19)
H19 H 0.17510 -0.07680 0.33920
C24 C 0.1031(3) 0.2726(5) 0.33822(16)
H20 H 0.11810 0.21380 0.34270
C25 C 0.0692(3) 0.3094(6) 0.36488(19)
H21 H 0.06230 0.27630 0.38720
C26 C 0.0460(3) 0.3941(6) 0.3585(2)
H22 H 0.02240 0.41900 0.37610
C27 C 0.0352(3) 0.1868(6) 0.18937(19)
H23 H 0.01380 0.21100 0.16870
C28 C 0.2320(3) 0.3853(5) 0.3249(2)
H24 H 0.20000 0.39160 0.33810
C29 C 0.0298(3) 0.0956(6) 0.19979(19)
H25 H 0.00450 0.05730 0.18670
C30 C 0.21394(14) 0.1303(3) 0.31924(10)
H26 H 0.24090 0.17340 0.32660
Na1 Na -0.24727(14) -0.3619(3) -0.10547(10)
O32 O 0.93300(14) 0.1767(3) 0.84239(10)
H27 H 0.92190 0.20770 0.86140
H28 H 0.96180 0.14370 0.84520
O33 O 0.7536(3) 0.2252(6) 0.0861(2)
H29 H 0.76610 0.24360 0.10820
H30 H 0.77530 0.21700 0.06800
O34 O 0.1845(3) 0.5966(6) 0.9146(2)
H31 H 0.21390 0.58850 0.92850
H32 H 0.15590 0.61670 0.92490
O35 O 0.1602(4) 0.6969(6) 0.1289(3)
H33 H 0.16410 0.70040 0.15370
H34 H 0.16620 0.73960 0.11440
O36 O 0.3025(3) 0.7693(4) 0.9875(2)
H35 H 0.28070 0.80990 0.99580
H36 H 0.32830 0.74820 1.00250
O37 O 0.0750(2) 0.5630(3) 0.11948(16)
H37 H 0.04910 0.57370 0.13440
H38 H 0.09410 0.60780 0.11150
O38 O -0.24666(15) -0.2109(3) -0.05996(10)
H39 H -0.21600 -0.19020 -0.06680
H40 H -0.25370 -0.26020 -0.07290
O39 O -0.4374(3) 0.0041(4) -0.04803(19)
H41 H -0.43710 0.06280 -0.05110
H42 H -0.42630 -0.02060 -0.06850
O40 O -0.4384(2) 0.0239(3) 0.03616(18)
H43 H -0.43330 0.07960 0.04380
H44 H -0.47060 0.00810 0.04160
O41 O -0.33615(19) -0.0900(4) -0.06770(14)
H45 H -0.35020 -0.12510 -0.08530
H46 H -0.30960 -0.05430 -0.07260
P5 P 0.00000 0.21457(19) 0.75000
O42 O 0.0124(6) 0.3026(9) 0.7747(3)
O43 O -0.0163(9) 0.1396(14) 0.7790(6)
O44? O -0.0440(6) 0.2330(13) 0.7231(5)
O45? O 0.0523(8) 0.1801(14) 0.7357(6)
Mo1D Mo 0.090406(14) 0.09868(2) 0.084397(10)
Mo2D Mo 0.145853(13) -0.02250(2) 0.046677(10)
Mo3D Mo 0.132880(13) -0.03341(2) -0.05535(1)
Mo4D Mo 0.006970(14) -0.24111(2) 0.042210(11)
Mo5D Mo 0.067470(14) 0.07918(3) -0.09342(1)
Mo6D Mo -0.001240(14) -0.24927(2) -0.032920(11)
Sr1D Sr 0.376220(19) 0.09122(3) -0.003750(16)
Sr1F Sr -0.123780(19) -0.40878(3) -0.003750(16)
Sr1B Sr 0.123780(19) 0.40878(3) 0.003750(16)
Fe3B Fe 0.25000 0.25000 0.00000
P1D P -0.05173(6) -0.29969(9) 0.12249(4)
P2D P 0.11967(4) 0.17322(7) -0.00735(3)
P3D P 0.25107(4) 0.00270(7) -0.00847(3)
P4D P 0.09712(5) 0.32625(8) 0.09565(3)
O1D O 0.06651(11) 0.0058(2) 0.04483(8)
O2D O 0.01479(11) -0.1437(2) 0.00247(8)
O3D O 0.05456(11) -0.0061(2) -0.04968(8)
O4D O 0.07831(11) 0.1815(2) -0.04237(8)
O5D O 0.14155(11) 0.07233(19) -0.00588(8)
O6D O 0.01020(12) -0.1340(2) 0.08327(9)
O7D O 0.16786(12) 0.0891(2) 0.07507(9)
O8D O 0.12893(11) -0.1073(2) -0.00254(9)
O9D O 0.22581(12) -0.0267(2) 0.02946(9)
O10D O 0.21699(12) -0.0343(2) -0.04343(9)
O11D O 0.26578(12) 0.1039(2) -0.01051(10)
O11F O -0.23422(12) -0.3961(2) -0.01051(10)
O12D O 0.08792(11) 0.1902(2) 0.02968(8)
O13D O 0.01033(12) 0.1518(2) 0.07732(9)
O14D O 0.14643(12) 0.0731(2) -0.08755(9)
O15D O 0.16459(12) 0.2447(2) -0.00972(9)
O15F O -0.33541(12) -0.2553(2) -0.00972(9)
O15B O 0.33541(12) 0.2553(2) 0.00972(9)
O16D O -0.02681(12) -0.3324(2) 0.00668(9)
O16B O -0.47319(12) -0.1676(2) -0.00668(9)
O16F O 0.47319(12) 0.1676(2) 0.00668(9)
O17D O 0.10882(13) 0.2262(2) 0.10865(9)
O18D O 0.13225(13) -0.1263(2) -0.08477(10)
O19D O 0.15206(14) -0.1097(2) 0.07872(10)
O20D O -0.07690(15) -0.2021(3) 0.12311(10)
O21D O 0.06207(13) -0.2876(2) -0.04128(10)
O22D O -0.02526(15) -0.3209(2) 0.08472(11)
O23D O -0.0093(2) -0.3149(4) 0.15535(14)
H1D H -0.02310 -0.30440 0.17610
O24D O 0.07213(13) -0.2759(2) 0.04947(11)
O25D O 0.04196(13) 0.3335(2) 0.0721(1)
O26D O 0.30875(12) -0.0484(2) -0.00882(10)
O27D O 0.08247(14) 0.0396(2) 0.12539(9)
O28D O 0.14180(14) 0.3699(3) 0.07354(11)
O28F O -0.35820(14) -0.1301(3) 0.07354(11)
O28B O 0.35820(14) 0.1301(3) -0.07354(11)
O29D O 0.04950(14) 0.0133(3) -0.13191(10)
O30D O 0.08989(16) 0.3800(3) 0.13477(10)
H2D H 0.08530 0.43560 0.13020
O31D O -0.09694(19) -0.3745(3) 0.12740(13)
O38F O -0.25334(15) -0.2891(3) 0.05996(10)
H39F H -0.28400 -0.30980 0.06680
H40F H -0.24630 -0.23980 0.07290
O39D O 0.4374(3) -0.0041(4) 0.04803(19)
H41D H 0.43710 -0.06280 0.05110
H42D H 0.42630 0.02060 0.06850
O40D O 0.4384(2) -0.0239(3) -0.03616(18)
H43D H 0.43330 -0.07960 -0.04380
H44D H 0.47060 -0.00810 -0.04160
O41D O 0.33615(19) 0.0900(4) 0.06770(14)
H45D H 0.35020 0.12510 0.08530
H46D H 0.30960 0.05430 0.07260
O42A O -0.0124(6) 0.3026(9) 0.7253(3)
O43A O 0.0163(9) 0.1396(14) 0.7210(6)
#END
