
#######################################################################
#
#                 Cambridge Crystallographic Data Centre
#                                CCDC
#
#######################################################################
#
# If this CIF has been generated from an entry in the Cambridge
# Structural Database, then it will include bibliographic, chemical,
# crystal, experimental, refinement or atomic coordinate data resulting
# from the CCDC's data processing and validation procedures.
#
#######################################################################

data_CSD_CIF_RAXQEO
_audit_creation_date 2012-11-29
_audit_creation_method CSD-ConQuest-V1
_database_code_CSD RAXQEO
_database_code_depnum_ccdc_archive 'CCDC 860728'
_chemical_formula_sum 'C40 H64 Cu2 N24 O40 Si1 W12'
_chemical_formula_moiety
;
(C40 H64 Cu2 N24 4+)n,n(O40 Si1 W12 4-)
;
_journal_coden_Cambridge 211
_journal_volume 65
_journal_year 2012
_journal_page_first 2147
_journal_name_full 'J.Coord.Chem. '
loop_
_publ_author_name
"Ai-Xiang Tian"
"Xiao-Ling Lin"
"Yu-Jing Liu"
"Gui-Ying Liu"
"Jun Ying"
"Xiu-Li Wang"
"Hong-Yan Lin"
_chemical_name_systematic
;
catena-(tetrakis(\m~2~-1,6-bis(1,2,4-Triazol-1-yl)hexane)-di-copper(ii) 
(\m~12~-silicato)-tetracosakis(\m~2~-oxo)-dodecaoxo-dodeca-tungsten)
;
_cell_volume   3948.289
_exptl_crystal_colour 'blue'
_exptl_crystal_density_diffrn 3.266
_exptl_special_details
;
Further description of the bonding of the anion to the cation is reported in 
the paper
;
_exptl_crystal_description 'block'
_diffrn_ambient_temperature 296
_refine_special_details
;
The silicate moiety of the anion is disordered by symmetry.

;
#These two values have been output from a single CSD field.
_refine_ls_R_factor_gt 0.0677
_refine_ls_wR_factor_gt 0.0677
_symmetry_cell_setting monoclinic
_symmetry_space_group_name_H-M 'P 21/n'
_symmetry_Int_Tables_number 14
loop_
_symmetry_equiv_pos_site_id
_symmetry_equiv_pos_as_xyz
1 x,y,z
2 1/2-x,1/2+y,1/2-z
3 -x,-y,-z
4 -1/2+x,-1/2-y,-1/2+z
_cell_length_a 11.5359(9)
_cell_length_b 15.0948(12)
_cell_length_c 22.6817(19)
_cell_angle_alpha 90
_cell_angle_beta 91.483(1)
_cell_angle_gamma 90
_cell_formula_units_Z 2
loop_
_atom_type_symbol
_atom_type_radius_bond
C 0.68
H 0.23
Cu 1.21
N 0.68
O 0.68
Si 1.20
W 1.38
loop_
_atom_site_label
_atom_site_type_symbol
_atom_site_fract_x
_atom_site_fract_y
_atom_site_fract_z
Si1 Si -0.50000 0.50000 0.50000
W1 W -0.79570(7) 0.53956(7) 0.52962(5)
W2 W -0.28318(7) 0.56304(6) 0.60412(5)
W3 W -0.38655(9) 0.28438(6) 0.50738(6)
W4 W -0.47972(9) 0.39094(8) 0.63749(5)
W5 W -0.68596(8) 0.32032(7) 0.53010(5)
W6 W -0.58022(9) 0.61301(7) 0.62943(5)
O1? O -0.372(2) 0.5364(16) 0.5127(13)
O2 O -0.467(2) 0.5137(19) 0.5650(12)
O3 O -0.5155(19) 0.4022(16) 0.5390(13)
O4 O -0.5920(19) 0.5662(15) 0.5330(11)
O5 O -0.6133(18) 0.3400(14) 0.6057(9)
O6 O -0.7326(18) 0.5724(14) 0.6041(9)
O7 O -0.4135(18) 0.2958(14) 0.4238(9)
O8 O -0.1845(16) 0.5965(12) 0.6547(9)
O9 O -0.7525(18) 0.6510(14) 0.4981(11)
O10 O -0.5594(18) 0.4933(14) 0.6571(10)
O11 O -0.5509(18) 0.2651(14) 0.5076(9)
O12 O -0.7810(18) 0.4210(14) 0.5483(9)
O13 O -0.3938(17) 0.3127(14) 0.5860(11)
O14 O -0.9332(14) 0.5569(15) 0.5440(9)
O15 O -0.7741(17) 0.2353(11) 0.5433(9)
O16 O -0.6142(17) 0.6600(13) 0.6918(9)
O17 O -0.4639(15) 0.3386(13) 0.7014(9)
O18 O -0.2745(18) 0.6595(14) 0.5507(9)
O19 O -0.3358(14) 0.1813(10) 0.5143(9)
O20 O -0.3403(17) 0.4605(14) 0.6392(11)
O21 O -0.8031(17) 0.5025(14) 0.4482(11)
O22 O -0.4189(18) 0.6233(14) 0.6316(9)
Cu1 Cu -0.1159(2) 0.7214(2) 0.72786(14)
C1 C 0.057(3) 0.628(3) 0.8100(19)
H1 H 0.04150 0.66250 0.84300
C2 C 0.057(3) 0.584(3) 0.726(2)
H2 H 0.04210 0.57580 0.68570
C3 C 0.209(3) 0.459(3) 0.7393(19)
H3 H 0.23440 0.46870 0.69950
H4 H 0.27760 0.45820 0.76490
C4 C 0.160(3) 0.377(3) 0.7413(18)
H5 H 0.11600 0.36880 0.77680
H6 H 0.21800 0.33030 0.73920
C5 C 0.084(3) 0.377(3) 0.6890(18)
H7 H 0.01160 0.40510 0.69870
H8 H 0.12000 0.41250 0.65880
C6 C 0.059(3) 0.288(3) 0.6643(18)
H9 H 0.12990 0.25770 0.65400
H10 H 0.01820 0.25150 0.69250
C7 C -0.016(3) 0.305(3) 0.6102(18)
H11 H 0.02910 0.32510 0.57750
H12 H -0.07640 0.34790 0.61800
C8 C -0.070(3) 0.210(3) 0.5976(18)
H13 H -0.00610 0.16890 0.59250
H14 H -0.11310 0.21270 0.56050
C9 C -0.281(3) 0.875(2) 0.7303(13)
H15 H -0.25950 0.88820 0.76900
C10 C -0.296(2) 0.815(2) 0.6521(12)
H16 H -0.28760 0.77500 0.62110
C11 C -0.446(3) 0.906(2) 0.5989(12)
H17 H -0.50780 0.94200 0.61350
H18 H -0.48010 0.85310 0.58100
C12 C -0.383(3) 0.955(2) 0.5537(12)
H19 H -0.31470 0.92150 0.54390
H20 H -0.35630 1.01040 0.57140
C13 C -0.451(2) 0.979(2) 0.4937(12)
H21 H -0.40300 1.01660 0.46960
H22 H -0.46810 0.92520 0.47180
C14 C 0.161(4) 0.937(3) 0.599(2)
H23 H 0.15710 0.97860 0.63110
H24 H 0.24280 0.92500 0.59360
C15 C 0.126(3) 0.985(3) 0.548(2)
H25 H 0.13410 1.04800 0.55700
H26 H 0.17850 0.97190 0.51680
C16 C 0.007(4) 0.971(3) 0.5250(19)
H27 H -0.04900 0.98520 0.55470
H28 H -0.00370 0.90970 0.51320
N1 N 0.007(3) 0.639(2) 0.7539(16)
N2 N 0.137(3) 0.535(2) 0.7563(17)
N3 N 0.130(3) 0.562(2) 0.8087(16)
N4 N -0.149(2) 0.1717(18) 0.644(1)
N5 N -0.1214(19) 0.1057(16) 0.6793(11)
C17 C -0.196(2) 0.1044(17) 0.7220(11)
H29 H -0.19620 0.06430 0.75310
N6 N -0.269(2) 0.1695(18) 0.7131(11)
C18 C -0.240(2) 0.2111(16) 0.6650(12)
H30 H -0.27810 0.26000 0.64850
N7 N -0.236(2) 0.8072(16) 0.7005(10)
N8 N -0.369(2) 0.8789(16) 0.6484(10)
N9 N -0.362(2) 0.9221(16) 0.6996(10)
N10 N -0.012(2) 0.7671(19) 0.6658(12)
C19 C 0.057(2) 0.837(2) 0.6724(12)
H31 H 0.06810 0.87010 0.70660
N11 N 0.109(2) 0.8504(18) 0.6215(13)
N12 N 0.072(2) 0.789(2) 0.5834(11)
C20 C -0.004(2) 0.7377(18) 0.6108(13)
H32 H -0.04300 0.68960 0.59440
W1B W -0.20430(7) 0.46044(7) 0.47038(5)
W2B W -0.71682(7) 0.43696(6) 0.39588(5)
W3B W -0.61345(9) 0.71562(6) 0.49262(6)
W4B W -0.52028(9) 0.60906(8) 0.36251(5)
W5B W -0.31404(8) 0.67968(7) 0.46990(5)
W6B W -0.41978(9) 0.38699(7) 0.37057(5)
O2B O -0.533(2) 0.4863(19) 0.4350(12)
O3B O -0.4845(19) 0.5978(16) 0.4610(13)
O4B O -0.4080(19) 0.4338(15) 0.4670(11)
O5B O -0.3867(18) 0.6600(14) 0.3943(9)
O6B O -0.2674(18) 0.4276(14) 0.3959(9)
O7B O -0.5865(18) 0.7042(14) 0.5762(9)
O8B O -0.8155(16) 0.4035(12) 0.3453(9)
O9B O -0.2475(18) 0.3490(14) 0.5019(11)
O10B O -0.4406(18) 0.5067(14) 0.3429(10)
O11B O -0.4491(18) 0.7349(14) 0.4924(9)
O12B O -0.2190(18) 0.5790(14) 0.4517(9)
O13B O -0.6062(17) 0.6873(14) 0.4140(11)
O14B O -0.0668(14) 0.4431(15) 0.4560(9)
O15B O -0.2259(17) 0.7647(11) 0.4567(9)
O16B O -0.3858(17) 0.3400(13) 0.3082(9)
O17B O -0.5361(15) 0.6614(13) 0.2986(9)
O18B O -0.7255(18) 0.3405(14) 0.4493(9)
O19B O -0.6642(14) 0.8187(10) 0.4857(9)
O20B O -0.6597(17) 0.5395(14) 0.3608(11)
O21B O -0.1969(17) 0.4975(14) 0.5518(11)
O22B O -0.5811(18) 0.3767(14) 0.3684(9)
Cu1A Cu -0.3841(2) 1.2214(2) 0.77214(14)
Cu1A* Cu -0.3841(2) 0.2214(2) 0.77214(14)
Cu1B Cu -0.8841(2) 1.2786(2) 0.27214(14)
Cu1B* Cu 0.1159(2) 1.2786(2) 0.27214(14)
C1A C -0.557(3) 1.128(3) 0.6900(19)
H1A H -0.54150 1.16250 0.65700
C2A C -0.557(3) 1.084(3) 0.774(2)
H2A H -0.54210 1.07580 0.81430
C3A C -0.709(3) 0.959(3) 0.7607(19)
H3A H -0.73440 0.96870 0.80050
H4A H -0.77760 0.95820 0.73510
C4A C -0.660(3) 0.877(3) 0.7587(18)
H5A H -0.61600 0.86880 0.72320
H6A H -0.71800 0.83030 0.76080
C5A C -0.584(3) 0.877(3) 0.8110(18)
H7A H -0.51160 0.90510 0.80130
H8A H -0.62000 0.91250 0.84120
C6A C -0.559(3) 0.788(3) 0.8357(18)
H9A H -0.62990 0.75770 0.84600
H10A H -0.51820 0.75150 0.80750
C7A C -0.484(3) 0.805(3) 0.8898(18)
H11A H -0.52910 0.82510 0.92250
H12A H -0.42360 0.84790 0.88200
C8A C -0.430(3) 0.710(3) 0.9024(18)
H13A H -0.49390 0.66890 0.90750
H14A H -0.38690 0.71270 0.93950
C9B C -0.719(3) 1.125(2) 0.2697(13)
H15B H -0.74050 1.11180 0.23100
C10B C -0.704(2) 1.185(2) 0.3479(12)
H16B H -0.71240 1.22500 0.37890
C11B C -0.554(3) 1.094(2) 0.4011(12)
H17B H -0.49220 1.05800 0.38650
H18B H -0.51990 1.14690 0.41900
C12B C -0.617(3) 1.045(2) 0.4463(12)
H19B H -0.68530 1.07850 0.45610
H20B H -0.64370 0.98960 0.42860
C13B C -0.549(2) 1.021(2) 0.5063(12)
H21B H -0.59700 0.98340 0.53040
H22B H -0.53190 1.07480 0.52820
C14B C -0.161(4) 1.063(3) 0.401(2)
H23B H -0.15710 1.02140 0.36890
H24B H -0.24280 1.07500 0.40640
C15B C -0.126(3) 1.015(3) 0.452(2)
H25B H -0.13410 0.95200 0.44300
H26B H -0.17850 1.02810 0.48320
C16B C -0.007(4) 1.029(3) 0.4750(19)
H27B H 0.04900 1.01480 0.44530
H28B H 0.00370 1.09030 0.48680
N1A N -0.507(3) 1.139(2) 0.7461(16)
N2A N -0.637(3) 1.035(2) 0.7437(17)
N3A N -0.630(3) 1.062(2) 0.6913(16)
N4A N -0.351(2) 0.6717(18) 0.856(1)
N5A N -0.3786(19) 0.6057(16) 0.8207(11)
C17A C -0.304(2) 0.6044(17) 0.7780(11)
H29A H -0.30380 0.56430 0.74690
N6A N -0.231(2) 0.6695(18) 0.7869(11)
N6* N -0.269(2) 1.1695(18) 0.7131(11)
C18A C -0.260(2) 0.7111(16) 0.8350(12)
H30A H -0.22190 0.76000 0.85150
N7B N -0.764(2) 1.1928(16) 0.2995(10)
N7A N -0.264(2) 1.3072(16) 0.7995(10)
N8B N -0.631(2) 1.1211(16) 0.3516(10)
N9B N -0.638(2) 1.0779(16) 0.3004(10)
N10B N 0.012(2) 1.2329(19) 0.3342(12)
N10A N -0.488(2) 1.2671(19) 0.8342(12)
C19B C -0.057(2) 1.163(2) 0.3276(12)
H31B H -0.06810 1.12990 0.29340
N11B N -0.109(2) 1.1496(18) 0.3785(13)
N12B N -0.072(2) 1.211(2) 0.4166(11)
C20B C 0.004(2) 1.2623(18) 0.3892(13)
H32B H 0.04300 1.31040 0.40560
#END
