
#######################################################################
#
#                 Cambridge Crystallographic Data Centre
#                                CCDC
#
#######################################################################
#
# If this CIF has been generated from an entry in the Cambridge
# Structural Database, then it will include bibliographic, chemical,
# crystal, experimental, refinement or atomic coordinate data resulting
# from the CCDC's data processing and validation procedures.
#
#######################################################################

data_CSD_CIF_RAXQAK
_audit_creation_date 2012-11-29
_audit_creation_method CSD-ConQuest-V1
_database_code_CSD RAXQAK
_database_code_depnum_ccdc_archive 'CCDC 860727'
_chemical_formula_sum 'C40 H64 Cu5 N24 O40 P1 W12'
_chemical_formula_moiety
;
(C40 H64 Cu5 N24 5+)n,n(O40 P1 W12 5-)
;
_journal_coden_Cambridge 211
_journal_volume 65
_journal_year 2012
_journal_page_first 2147
_journal_name_full 'J.Coord.Chem. '
loop_
_publ_author_name
"Ai-Xiang Tian"
"Xiao-Ling Lin"
"Yu-Jing Liu"
"Gui-Ying Liu"
"Jun Ying"
"Xiu-Li Wang"
"Hong-Yan Lin"
_chemical_name_systematic
;
catena-(bis(\m~3~-1,6-bis(1,2,4-Triazol-1-yl)hexane)-bis(\m~2~-1,6-bis(1,2,4-t
riazol-1-yl)hexane)-penta-copper(i) 
(\m~12~-phosphato)-tetracosakis(\m~2~-oxo)-dodecaoxo-di-tungsten(v)-deca-tungs
ten(vi))
;
_cell_volume   3869.620
_exptl_crystal_colour 'black'
_exptl_crystal_density_diffrn 3.498
_exptl_special_details
;
Further description of the bonding of the anion to the cation is reported in 
the paper
;
_exptl_crystal_description 'block'
_diffrn_ambient_temperature 273
_refine_special_details
;
The phosphate moiety of the anion is disordered by symmetry.

;
#These two values have been output from a single CSD field.
_refine_ls_R_factor_gt 0.0465
_refine_ls_wR_factor_gt 0.0465
_symmetry_cell_setting monoclinic
_symmetry_space_group_name_H-M 'P 21/c'
_symmetry_Int_Tables_number 14
loop_
_symmetry_equiv_pos_site_id
_symmetry_equiv_pos_as_xyz
1 x,y,z
2 -x,1/2+y,1/2-z
3 -x,-y,-z
4 x,-1/2-y,-1/2+z
_cell_length_a 13.6234(9)
_cell_length_b 24.7644(16)
_cell_length_c 11.5519(7)
_cell_angle_alpha 90
_cell_angle_beta 96.836(1)
_cell_angle_gamma 90
_cell_formula_units_Z 2
loop_
_atom_type_symbol
_atom_type_radius_bond
C 0.68
H 0.23
Cu 1.20
N 0.68
O 0.74
P 1.05
W 1.34
loop_
_atom_site_label
_atom_site_type_symbol
_atom_site_fract_x
_atom_site_fract_y
_atom_site_fract_z
W1 W 0.89299(3) 0.125825(19) 0.90780(4)
W2 W 1.14238(4) 0.12054(2) 1.04507(4)
W3 W 0.94113(3) 0.095880(19) 1.20981(4)
W4 W 0.94657(4) 0.02899(3) 0.69668(4)
W5 W 1.19540(4) 0.02589(3) 0.83083(5)
W6 W 0.75162(4) 0.00573(3) 0.86792(5)
O1 O 0.9965(9) 0.0553(5) 1.0282(11)
O2 O 0.9278(9) 0.0331(5) 0.9086(11)
O3 O 1.1014(9) 0.0302(5) 0.9998(11)
O4 O 0.9637(10) 0.0129(5) 1.1206(11)
O5 O 0.9263(8) 0.0962(5) 0.7681(10)
O6 O 1.1864(10) 0.0929(5) 0.9058(8)
O7 O 0.8326(7) 0.0481(5) 1.2060(12)
O8 O 1.2259(10) 0.0691(6) 1.1305(8)
O9 O 1.2652(11) 0.0002(5) 0.9714(8)
O10 O 1.0190(7) 0.0453(4) 1.3066(11)
O11 O 0.7803(9) 0.0804(6) 0.893(1)
O12 O 1.0844(7) 0.0457(4) 0.7252(12)
O13 O 1.2078(7) 0.1779(5) 1.0634(8)
O14 O 0.9149(7) 0.1421(6) 1.3055(8)
O15 O 0.8209(9) 0.0087(5) 0.7365(11)
O16 O 1.2881(6) 0.0375(3) 0.7507(9)
O17 O 0.8461(7) 0.1867(5) 0.8689(9)
O18 O 1.0276(6) 0.1460(3) 0.9473(7)
O19 O 0.9197(7) 0.0433(3) 0.5550(7)
O20 O 0.8812(6) 0.1268(3) 1.0706(7)
O21 O 0.6328(6) 0.0093(3) 0.8066(8)
O22 O 1.0634(6) 0.1224(3) 1.1700(7)
Cu1 Cu 0.03462(16) 0.24539(8) 0.88156(14)
Cu2 Cu 0.47485(14) 0.45707(7) 0.22361(16)
Cu3 Cu 0.50000 1.00000 0.00000
C1 C 0.0261(12) 0.2522(5) 0.6291(11)
H1 H 0.00360 0.28770 0.62830
C2 C 0.0780(8) 0.1769(5) 0.6902(9)
H2 H 0.10000 0.14820 0.73840
C3 C 0.1018(9) 0.1339(5) 0.4956(11)
H3 H 0.06390 0.10180 0.50870
H4 H 0.08310 0.14550 0.41580
C4 C 0.2110(12) 0.1198(6) 0.5112(14)
H5 H 0.22200 0.09110 0.45720
H6 H 0.22810 0.10580 0.58950
C5 C 0.2800(12) 0.1655(8) 0.4929(17)
H7 H 0.34640 0.15460 0.52350
H8 H 0.26250 0.19600 0.53910
C6 C 0.2822(15) 0.1842(7) 0.3729(17)
H9 H 0.30140 0.15540 0.32330
H10 H 0.21860 0.19840 0.34030
C7 C 0.3596(17) 0.2280(11) 0.388(3)
H11 H 0.42280 0.21270 0.41970
H12 H 0.34110 0.25500 0.44220
C8 C 0.368(2) 0.2523(11) 0.276(2)
H13 H 0.39660 0.22710 0.22580
H14 H 0.30290 0.26290 0.23900
C9 C 0.4054(11) 0.3536(6) 0.2805(17)
H15 H 0.33960 0.36450 0.27040
C10 C 0.5585(11) 0.3518(7) 0.3060(12)
H16 H 0.62360 0.36390 0.31520
C11 C 0.3716(11) 0.5359(6) 0.0700(13)
H17 H 0.31210 0.51720 0.06310
C12 C 0.5165(13) 0.5612(8) 0.1173(16)
H18 H 0.58130 0.56210 0.15340
C13 C 0.3144(12) 0.6172(7) -0.0502(14)
H19 H 0.34530 0.63500 -0.11130
H20 H 0.26030 0.59530 -0.08670
C14 C 0.2749(12) 0.6590(8) 0.0269(13)
H21 H 0.32980 0.68010 0.06420
H22 H 0.24440 0.64070 0.08770
C15 C 0.2026(13) 0.6956(7) -0.0353(18)
H23 H 0.14950 0.67410 -0.07530
H24 H 0.17430 0.71760 0.02180
C16 C 0.2417(12) 0.7329(7) -0.1235(13)
H25 H 0.18610 0.75170 -0.16580
H26 H 0.27170 0.71100 -0.17940
C17 C 0.3166(11) 0.7744(6) -0.0731(12)
H27 H 0.29060 0.79440 -0.01120
H28 H 0.37700 0.75650 -0.04060
C18 C 0.3379(11) 0.8129(6) -0.1704(12)
H29 H 0.27690 0.83010 -0.20320
H30 H 0.36360 0.79250 -0.23200
C19 C 0.3947(12) 0.9052(6) -0.0942(13)
H31 H 0.33270 0.92120 -0.09760
C20 C 0.5467(12) 0.8900(7) -0.0710(18)
H32 H 0.61440 0.89540 -0.05310
N1 N 0.0446(8) 0.2228(4) 0.7272(8)
N2 N 0.0427(9) 0.2260(4) 0.5346(8)
N3 N 0.0765(7) 0.1768(4) 0.5750(8)
N4 N 0.4356(12) 0.3030(6) 0.3007(18)
N5 N 0.5354(12) 0.3020(6) 0.3197(14)
N6 N 0.4799(7) 0.3856(4) 0.2768(9)
N7 N 0.4534(9) 0.5199(5) 0.1329(11)
N8 N 0.3862(9) 0.5828(5) 0.0172(10)
N9 N 0.479(1) 0.5997(6) 0.0476(14)
N10 N 0.4110(9) 0.8552(4) -0.1259(10)
N11 N 0.5099(9) 0.8448(5) -0.1109(13)
N12 N 0.4785(8) 0.9294(4) -0.057(1)
P1 P 1.00000 0.00000 1.00000
W1B W 1.10701(3) -0.125825(19) 1.09220(4)
W2B W 0.85762(4) -0.12054(2) 0.95493(4)
W3B W 1.05887(3) -0.095880(19) 0.79019(4)
W4B W 1.05343(4) -0.02899(3) 1.30332(4)
W5B W 0.80460(4) -0.02589(3) 1.16917(5)
W6B W 1.24838(4) -0.00573(3) 1.13208(5)
O1B O 1.0035(9) -0.0553(5) 0.9718(11)
O2B O 1.0722(9) -0.0331(5) 1.0914(11)
O3B O 0.8986(9) -0.0302(5) 1.0002(11)
O4B O 1.0363(10) -0.0129(5) 0.8794(11)
O5B O 1.0737(8) -0.0962(5) 1.2319(10)
O6B O 0.8136(10) -0.0929(5) 1.0942(8)
O7B O 1.1674(7) -0.0481(5) 0.7940(12)
O8B O 0.7741(10) -0.0691(6) 0.8695(8)
O9B O 0.7348(11) -0.0002(5) 1.0286(8)
O10B O 0.9810(7) -0.0453(4) 0.6934(11)
O11B O 1.2197(9) -0.0804(6) 1.107(1)
O12B O 0.9156(7) -0.0457(4) 1.2748(12)
O13B O 0.7922(7) -0.1779(5) 0.9366(8)
O14B O 1.0851(7) -0.1421(6) 0.6945(8)
O15B O 1.1791(9) -0.0087(5) 1.2635(11)
O16B O 0.7119(6) -0.0375(3) 1.2493(9)
O17B O 1.1539(7) -0.1867(5) 1.1311(9)
O18B O 0.9724(6) -0.1460(3) 1.0527(7)
O19B O 1.0803(7) -0.0433(3) 1.4450(7)
O20B O 1.1188(6) -0.1268(3) 0.9294(7)
O21B O 1.3672(6) -0.0093(3) 1.1934(8)
O22B O 0.9366(6) -0.1224(3) 0.8300(7)
Cu1B Cu 0.96538(16) 1.75461(8) -0.88156(14)
Cu1C Cu 0.03462(16) 0.25461(8) 0.38156(14)
Cu1A Cu 0.96538(16) 1.74539(8) -0.38156(14)
Cu2B Cu 0.52515(14) 1.54293(7) -0.22361(16)
C1B C 0.9739(12) 1.7478(5) -0.6291(11)
H1B H 0.99640 1.71230 -0.62830
C2B C 0.9220(8) 1.8231(5) -0.6902(9)
H2B H 0.90000 1.85180 -0.73840
C3B C 0.8982(9) 1.8661(5) -0.4956(11)
H3B H 0.93610 1.89820 -0.50870
H4B H 0.91690 1.85450 -0.41580
C4B C 0.7890(12) 1.8802(6) -0.5112(14)
H5B H 0.77800 1.90890 -0.45720
H6B H 0.77190 1.89420 -0.58950
C5B C 0.7200(12) 1.8345(8) -0.4929(17)
H7B H 0.65360 1.84540 -0.52350
H8B H 0.73750 1.80400 -0.53910
C6B C 0.7178(15) 1.8158(7) -0.3729(17)
H9B H 0.69860 1.84460 -0.32330
H10B H 0.78140 1.80160 -0.34030
C7B C 0.6404(17) 1.7720(11) -0.388(3)
H11B H 0.57720 1.78730 -0.41970
H12B H 0.65890 1.74500 -0.44220
C8B C 0.632(2) 1.7477(11) -0.276(2)
H13B H 0.60340 1.77290 -0.22580
H14B H 0.69710 1.73710 -0.23900
C9B C 0.5946(11) 1.6464(6) -0.2805(17)
H15B H 0.66040 1.63550 -0.27040
C10B C 0.4415(11) 1.6482(7) -0.3060(12)
H16B H 0.37640 1.63610 -0.31520
C11B C 0.6284(11) 1.4641(6) -0.0700(13)
H17B H 0.68790 1.48280 -0.06310
C12B C 0.4835(13) 1.4388(8) -0.1173(16)
H18B H 0.41870 1.43790 -0.15340
C13B C 0.6856(12) 1.3828(7) 0.0502(14)
H19B H 0.65470 1.36500 0.11130
H20B H 0.73970 1.40470 0.08670
C14B C 0.7251(12) 1.3410(8) -0.0269(13)
H21B H 0.67020 1.31990 -0.06420
H22B H 0.75560 1.35930 -0.08770
C15B C 0.7974(13) 1.3044(7) 0.0353(18)
H23B H 0.85050 1.32590 0.07530
H24B H 0.82570 1.28240 -0.02180
C16B C 0.7583(12) 1.2671(7) 0.1235(13)
H25B H 0.81390 1.24830 0.16580
H26B H 0.72830 1.28900 0.17940
C17B C 0.6834(11) 1.2256(6) 0.0731(12)
H27B H 0.70940 1.20560 0.01120
H28B H 0.62300 1.24350 0.04060
C18B C 0.6621(11) 1.1871(6) 0.1704(12)
H29B H 0.72310 1.16990 0.20320
H30B H 0.63640 1.20750 0.23200
C19B C 0.6053(12) 1.0948(6) 0.0942(13)
H31B H 0.66730 1.07880 0.09760
C20B C 0.4533(12) 1.1100(7) 0.0710(18)
H32B H 0.38560 1.10460 0.05310
N1B N 0.9554(8) 1.7772(4) -0.7272(8)
N2B N 0.9573(9) 1.7740(4) -0.5346(8)
N2C N 0.0427(9) 0.2740(4) 1.0346(8)
N2A N 0.9573(9) 1.7260(4) -1.0346(8)
N3B N 0.9235(7) 1.8232(4) -0.5750(8)
N4B N 0.5644(12) 1.6970(6) -0.3007(18)
N5B N 0.4646(12) 1.6980(6) -0.3197(14)
N6B N 0.5201(7) 1.6144(4) -0.2768(9)
N7B N 0.5466(9) 1.4801(5) -0.1329(11)
N8B N 0.6138(9) 1.4172(5) -0.0172(10)
N9B N 0.521(1) 1.4003(6) -0.0476(14)
N10B N 0.5890(9) 1.1448(4) 0.1259(10)
N11B N 0.4901(9) 1.1552(5) 0.1109(13)
N12B N 0.5215(8) 1.0706(4) 0.057(1)
#END
