
#######################################################################
#
#                 Cambridge Crystallographic Data Centre
#                                CCDC
#
#######################################################################
#
# If this CIF has been generated from an entry in the Cambridge
# Structural Database, then it will include bibliographic, chemical,
# crystal, experimental, refinement or atomic coordinate data resulting
# from the CCDC's data processing and validation procedures.
#
#######################################################################

data_CSD_CIF_RBCUPH
_audit_creation_date 1978-09-01
_audit_creation_method CSD-ConQuest-V1
_database_code_CSD RBCUPH
_chemical_formula_sum 'C16 H12 Cu1 O10 Rb2'
_chemical_formula_moiety
;
(C16 H8 Cu1 O8 2-)n,2n(Rb1 1+),2n(H2 O1)
;
_journal_coeditor_code "IUCr A14475"
_journal_coden_Cambridge 107
_journal_volume 33
_journal_year 1977
_journal_page_first 659
_journal_name_full 'Acta Crystallogr.,Sect.B:Struct.Crystallogr.Cryst.Chem. '
loop_
_publ_author_name
"M.B.Cingi"
"A.M.M.Lanfredi"
"A.Tiripicchio"
"M.Tiripicchio Camellini"
_chemical_name_systematic
;
catena-(Di-rubidium bis(\m~2~-o-phthalato-O,O')-copper(ii) dihydrate)
;
_cell_volume   1879.355
_exptl_crystal_density_diffrn 2.12
_diffrn_ambient_temperature ?
_diffrn_special_details
;
The study was carried out at room temperature,in the range 283-303K

;
#These two values have been output from a single CSD field.
_refine_ls_R_factor_gt 0.066
_refine_ls_wR_factor_gt 0.066
_symmetry_cell_setting monoclinic
_symmetry_space_group_name_H-M 'C 2/c'
_symmetry_Int_Tables_number 15
loop_
_symmetry_equiv_pos_site_id
_symmetry_equiv_pos_as_xyz
1 x,y,z
2 1/2+x,1/2+y,z
3 -x,y,1/2-z
4 1/2-x,1/2+y,1/2-z
5 -x,-y,-z
6 -1/2-x,-1/2-y,-z
7 x,-y,-1/2+z
8 -1/2+x,-1/2-y,-1/2+z
_cell_length_a 21.919(15)
_cell_length_b 7.827(7)
_cell_length_c 11.191(10)
_cell_angle_alpha 90
_cell_angle_beta 101.8(3)
_cell_angle_gamma 90
_cell_formula_units_Z 4
loop_
_atom_type_symbol
_atom_type_radius_bond
C 0.68
H 0.23
Cu 1.52
O 0.68
Rb 1.47
loop_
_atom_site_label
_atom_site_type_symbol
_atom_site_fract_x
_atom_site_fract_y
_atom_site_fract_z
Cu1 Cu 0.00000 0.37180 0.25000
Rb1 Rb 0.44720 0.29060 0.39760
O1 O -0.06570 0.65760 0.14360
O2 O -0.07330 0.37560 0.11540
O3 O -0.05350 0.62140 -0.13380
O4 O -0.10100 0.86790 -0.19160
O5 O 0.06560 0.00150 0.40120
C1 C -0.15250 0.55140 -0.00270
C2 C -0.15620 0.66100 -0.10190
C3 C -0.21490 0.69930 -0.17260
C4 C -0.26760 0.62020 -0.14660
C5 C -0.26320 0.51100 -0.04800
C6 C -0.20470 0.47480 0.02380
C7 C -0.09160 0.52740 0.09160
C8 C -0.09940 0.72700 -0.14430
H1 H -0.21900 0.78200 -0.24700
H2 H -0.30200 0.63100 -0.20200
H3 H -0.30100 0.45300 -0.02600
H4 H -0.20100 0.39600 0.09800
H5 H 0.07700 0.08800 0.43500
H6 H 0.08800 0.00600 0.31400
O2B O 0.07330 0.37560 0.38460
O3F O -0.05350 0.37860 0.36620
C7B C 0.09160 0.52740 0.40840
O3D O 0.05350 0.37860 0.13380
O1B O 0.06570 0.65760 0.35640
C1B C 0.15250 0.55140 0.50270
Cu1D Cu 0.00000 0.62820 -0.25000
C2B C 0.15620 0.66100 0.60190
C6B C 0.20470 0.47480 0.47620
C3B C 0.21490 0.69930 0.67260
C8B C 0.09940 0.72700 0.64430
C5B C 0.26320 0.51100 0.54800
H4B H 0.20100 0.39600 0.40200
C4B C 0.26760 0.62020 0.64660
H1B H 0.21900 0.78200 0.74700
O3B O 0.05350 0.62140 0.63380
O4B O 0.10100 0.86790 0.69160
H3B H 0.30100 0.45300 0.52600
H2B H 0.30200 0.63100 0.70200
Cu1D* Cu 0.00000 0.62820 0.75000
#END
