
#######################################################################
#
#                 Cambridge Crystallographic Data Centre
#                                CCDC
#
#######################################################################
#
# If this CIF has been generated from an entry in the Cambridge
# Structural Database, then it will include bibliographic, chemical,
# crystal, experimental, refinement or atomic coordinate data resulting
# from the CCDC's data processing and validation procedures.
#
#######################################################################

data_CSD_CIF_REBSUP
_audit_creation_date 2017-06-02
_audit_creation_method CSD-ConQuest-V1
_database_code_CSD REBSUP
_database_code_depnum_ccdc_archive 'CCDC 1453053'
_chemical_formula_sum 'C72 H54 Mn3 N8 O16'
_chemical_formula_moiety
;
2(C2 H8 N1 1+),n(C68 H38 Mn3 N6 O16 2-)
;
_journal_coden_Cambridge 1220
_journal_volume 23
_journal_year 2017
_journal_page_first 7297
_journal_name_full 'Chem.-Eur.J. '
loop_
_publ_author_name
"P.Chandrasekhar"
"G.Savitha"
"J.N.Moorthy"
_chemical_name_systematic
;
catena-[bis(Dimethylammonium) 
(\m-tris(4,5-dicarboxylato-2,3-pyrazino)(b,e,h)triptycene)-(\m-oxo)-triaqua-tr
iaqua-tri-manganese(ii) unknown solvate]
;
_cell_volume   1875.074
_exptl_crystal_colour 'colorless'
_exptl_special_details
;
The authors state:

;
_exptl_crystal_description 'square'
_diffrn_ambient_temperature 100
_diffrn_special_details
;
twin

;
_refine_special_details
;
The SQUEEZE/PLATON program has been used to model some disorder. The unit 
cell was found to contain one major void of 509 A$3! holding 94 electrons.
;
#These two values have been output from a single CSD field.
_refine_ls_R_factor_gt 0.1463
_refine_ls_wR_factor_gt 0.1463
_symmetry_cell_setting hexagonal
_symmetry_space_group_name_H-M 'P -6 2 m'
_symmetry_Int_Tables_number 189
loop_
_symmetry_equiv_pos_site_id
_symmetry_equiv_pos_as_xyz
1 x,y,z
2 -x+y,-x,-z
3 -y,x-y,z
4 x,y,-z
5 -x+y,-x,z
6 -y,x-y,-z
7 y,x,z
8 x-y,-y,-z
9 -x,-x+y,z
10 y,x,-z
11 x-y,-y,z
12 -x,-x+y,-z
_cell_length_a 13.5376(9)
_cell_length_b 13.5376(9)
_cell_length_c 11.8142(8)
_cell_angle_alpha 90
_cell_angle_beta 90
_cell_angle_gamma 120
_cell_formula_units_Z 1
loop_
_atom_type_symbol
_atom_type_radius_bond
C 0.68
H 0.23
Mn 1.61
N 0.68
O 0.68
loop_
_atom_site_label
_atom_site_type_symbol
_atom_site_fract_x
_atom_site_fract_y
_atom_site_fract_z
Mn1 Mn 0.8479(2) 0.8479(2) 1.00000
O1 O 1.00000 1.00000 1.00000
O2 O 0.9068(10) 0.7788(10) 0.8755(9)
O3 O 0.688(3) 0.688(3) 1.00000
C1 C 1.00000 0.7935(16) 0.8428(16)
C2 C 1.00000 0.7047(11) 0.7632(14)
C3 C 1.091(2) 0.7139(17) 0.726(3)
H1 H 1.15950 0.77510 0.75060
C4 C 1.094(3) 0.636(2) 0.648(3)
H2 H 1.16270 0.65150 0.61470
C5 C 1.00000 0.5427(12) 0.6250(17)
C6 C 1.00000 0.4473(11) 0.5611(15)
N1 N 1.00000 0.3658(11) 0.6206(11)
C7 C 1.00000 0.277(1) 0.5617(13)
C8 C 1.00000 0.1928(9) 0.6176(9)
H3 H 1.00000 0.19250 0.69630
C9 C 1.00000 0.1031(9) 0.5568(10)
C10 C 1.00000 0.00000 0.599(3)
H4 H 1.00000 0.00000 0.68200
O2B O 0.2212(10) -0.872(1) 0.8755(9)
C1B C 0.20650 -0.7935(16) 0.8428(16)
C2B C 0.29530 -0.7047(11) 0.7632(14)
C3B C 0.2861(20) -0.6229(17) 0.726(3)
H1B H 0.22490 -0.61560 0.75060
C4B C 0.364(3) -0.542(2) 0.648(3)
H2B H 0.34850 -0.48880 0.61470
C5B C 0.45730 -0.5427(12) 0.6250(17)
C6B C 0.55270 -0.4473(11) 0.5611(15)
N1B N 0.63420 -0.3658(11) 0.6206(11)
C7B C 0.72300 -0.277(1) 0.5617(13)
C8B C 0.80720 -0.1928(9) 0.6176(9)
H3B H 0.80750 -0.19250 0.69630
C9B C 0.89690 -0.1031(9) 0.5568(10)
O2C O 0.9068(10) 0.7788(10) 0.1245(9)
C1C C 1.00000 0.7935(16) 0.1572(16)
C2C C 1.00000 0.7047(11) 0.2368(14)
C3C C 1.091(2) 0.7139(17) 0.274(3)
H1C H 1.15950 0.77510 0.24940
C4C C 1.094(3) 0.636(2) 0.352(3)
H2C H 1.16270 0.65150 0.38530
C5C C 1.00000 0.5427(12) 0.3750(17)
C6C C 1.00000 0.4473(11) 0.4389(15)
N1C N 1.00000 0.3658(11) 0.3794(11)
C7C C 1.00000 0.277(1) 0.4383(13)
C8C C 1.00000 0.1928(9) 0.3824(9)
H3C H 1.00000 0.19250 0.30370
C9C C 1.00000 0.1031(9) 0.4432(10)
C10A C 1.00000 0.00000 0.401(3)
H4A H 1.00000 0.00000 0.31800
O2D O 1.872(1) 0.0932(10) 0.8755(9)
C1D C 1.79350 0.0000(16) 0.8428(16)
C2D C 1.70470 0.0000(11) 0.7632(14)
C3D C 1.6229(20) -0.0910(17) 0.726(3)
H1D H 1.61560 -0.15950 0.75060
C4D C 1.542(3) -0.094(2) 0.648(3)
H2D H 1.48880 -0.16270 0.61470
C5D C 1.54270 0.0000(12) 0.6250(17)
C6D C 1.44730 0.0000(11) 0.5611(15)
N1D N 1.36580 0.0000(11) 0.6206(11)
C7D C 1.27700 0.000(1) 0.5617(13)
C8D C 1.19280 0.0000(9) 0.6176(9)
H3D H 1.19250 0.00000 0.69630
C9D C 1.10310 0.0000(9) 0.5568(10)
O2E O 0.2212(10) -0.872(1) 0.1245(9)
C1E C 0.20650 -0.7935(16) 0.1572(16)
C2E C 0.29530 -0.7047(11) 0.2368(14)
C3E C 0.2861(20) -0.6229(17) 0.274(3)
H1E H 0.22490 -0.61560 0.24940
C4E C 0.364(3) -0.542(2) 0.352(3)
H2E H 0.34850 -0.48880 0.38530
C5E C 0.45730 -0.5427(12) 0.3750(17)
C6E C 0.55270 -0.4473(11) 0.4389(15)
N1E N 0.63420 -0.3658(11) 0.3794(11)
C7E C 0.72300 -0.277(1) 0.4383(13)
C8E C 0.80720 -0.1928(9) 0.3824(9)
H3E H 0.80750 -0.19250 0.30370
C9E C 0.89690 -0.1031(9) 0.4432(10)
O2F O 1.7788(10) -0.0932(10) 0.8755(9)
C3F C 1.7139(20) 0.0910(17) 0.726(3)
H1F H 1.77510 0.15950 0.75060
C4F C 1.636(3) 0.094(2) 0.648(3)
H2F H 1.65150 0.16270 0.61470
O2G O 0.128(1) -0.7788(10) 0.1245(9)
C3G C 0.3771(20) -0.7139(17) 0.274(3)
H1G H 0.38440 -0.77510 0.24940
C4G C 0.458(3) -0.636(2) 0.352(3)
H2G H 0.51120 -0.65150 0.38530
O2H O 1.0932(10) 0.872(1) 0.8755(9)
C3H C 0.909(2) 0.6229(17) 0.726(3)
H1H H 0.84050 0.61560 0.75060
C4H C 0.906(3) 0.542(2) 0.648(3)
H2H H 0.83730 0.48880 0.61470
O2I O 1.7788(10) -0.0932(10) 0.1245(9)
C1A C 1.79350 0.0000(16) 0.1572(16)
C2A C 1.70470 0.0000(11) 0.2368(14)
C3I C 1.7139(20) 0.0910(17) 0.274(3)
H1I H 1.77510 0.15950 0.24940
C4I C 1.636(3) 0.094(2) 0.352(3)
H2I H 1.65150 0.16270 0.38530
C5A C 1.54270 0.0000(12) 0.3750(17)
C6A C 1.44730 0.0000(11) 0.4389(15)
N1A N 1.36580 0.0000(11) 0.3794(11)
C7A C 1.27700 0.000(1) 0.4383(13)
C8A C 1.19280 0.0000(9) 0.3824(9)
H3A H 1.19250 0.00000 0.30370
C9A C 1.10310 0.0000(9) 0.4432(10)
O2J O 0.128(1) -0.7788(10) 0.8755(9)
C3J C 0.3771(20) -0.7139(17) 0.726(3)
H1J H 0.38440 -0.77510 0.75060
C4J C 0.458(3) -0.636(2) 0.648(3)
H2J H 0.51120 -0.65150 0.61470
O2K O 1.0932(10) 0.872(1) 0.1245(9)
C3K C 0.909(2) 0.6229(17) 0.274(3)
H1K H 0.84050 0.61560 0.24940
C4K C 0.906(3) 0.542(2) 0.352(3)
H2K H 0.83730 0.48880 0.38530
O2A O 1.872(1) 0.0932(10) 0.1245(9)
C3A C 1.6229(20) -0.0910(17) 0.274(3)
H1A H 1.61560 -0.15950 0.24940
C4A C 1.542(3) -0.094(2) 0.352(3)
H2A H 1.48880 -0.16270 0.38530
Mn1A Mn 0.0000(2) -0.8479(2) 1.00000
O3A O 0.000(3) -0.688(3) 1.00000
Mn1B Mn 1.1521(2) 1.0000(2) 1.00000
O3B O 1.312(3) 1.000(3) 1.00000
Mn1* Mn 0.8479(2) 0.8479(2) 0.00000
Mn1** Mn 1.8479(2) -0.1521(2) 0.00000
Mn1*** Mn 1.8479(2) -0.1521(2) 1.00000
Mn1A* Mn 0.0000(2) -0.8479(2) 0.00000
Mn1A** Mn 1.0000(2) 1.1521(2) 1.00000
Mn1A*** Mn 2.0000(2) 0.1521(2) 0.00000
Mn1A**** Mn 2.0000(2) 0.1521(2) 1.00000
Mn1B* Mn 0.1521(2) -1.0000(2) 0.00000
Mn1B** Mn 0.1521(2) -1.0000(2) 1.00000
Mn1B*** Mn 1.1521(2) 1.0000(2) 0.00000
O1* O 0.00000 -1.00000 1.00000
O2A* O -0.128(1) -0.9068(10) 1.1245(9)
O2B* O 1.2212(10) 1.128(1) 0.8755(9)
O2C* O 0.9068(10) 0.7788(10) 1.1245(9)
O2D* O -0.128(1) -0.9068(10) 0.8755(9)
O2E* O 1.2212(10) 1.128(1) 1.1245(9)
O2F* O 0.7788(10) 0.9068(10) 0.8755(9)
O2G* O 0.128(1) -0.7788(10) 1.1245(9)
O2I* O 0.7788(10) 0.9068(10) 1.1245(9)
O2K* O 1.0932(10) 0.872(1) 1.1245(9)
#END
