
#######################################################################
#
#                 Cambridge Crystallographic Data Centre
#                                CCDC
#
#######################################################################
#
# If this CIF has been generated from an entry in the Cambridge
# Structural Database, then it will include bibliographic, chemical,
# crystal, experimental, refinement or atomic coordinate data resulting
# from the CCDC's data processing and validation procedures.
#
#######################################################################

data_CSD_CIF_REBSID
_audit_creation_date 2017-06-02
_audit_creation_method CSD-ConQuest-V1
_database_code_CSD REBSID
_database_code_depnum_ccdc_archive 'CCDC 1487482'
_chemical_formula_sum 'C72 H54 Cu3 N8 O16'
_chemical_formula_moiety
;
2(C2 H8 N1 1+),n(C68 H38 Cu3 N6 O16 2-)
;
_journal_coden_Cambridge 1220
_journal_volume 23
_journal_year 2017
_journal_page_first 7297
_journal_name_full 'Chem.-Eur.J. '
loop_
_publ_author_name
"P.Chandrasekhar"
"G.Savitha"
"J.N.Moorthy"
_chemical_name_systematic
;
catena-[bis(Dimethylammonium) 
(\m-tris(4,5-dicarboxylato-2,3-pyrazino)(b,e,h)triptycene)-(\m-oxo)-triaqua-tr
i-copper(ii) unknown solvate]
;
_cell_volume   1785.767
_exptl_crystal_colour 'colorless'
_exptl_special_details
;
The authors state:

;
_exptl_crystal_description 'square'
_diffrn_ambient_temperature 100
_diffrn_special_details
;
twin

;
_refine_special_details
;
The SQUEEZE/PLATON program has been used to model some disorder. The unit 
cell was found to contain one major void of 508 A$3! holding 133 electrons.
;
#These two values have been output from a single CSD field.
_refine_ls_R_factor_gt 0.1166
_refine_ls_wR_factor_gt 0.1166
_symmetry_cell_setting hexagonal
_symmetry_space_group_name_H-M 'P -6 2 m'
_symmetry_Int_Tables_number 189
loop_
_symmetry_equiv_pos_site_id
_symmetry_equiv_pos_as_xyz
1 x,y,z
2 -y,x-y,z
3 -x+y,-x,z
4 x,y,-z
5 -y,x-y,-z
6 -x+y,-x,-z
7 y,x,-z
8 x-y,-y,-z
9 -x,-x+y,-z
10 y,x,z
11 x-y,-y,z
12 -x,-x+y,z
_cell_length_a 13.240(3)
_cell_length_b 13.240(3)
_cell_length_c 11.763(3)
_cell_angle_alpha 90
_cell_angle_beta 90
_cell_angle_gamma 120
_cell_formula_units_Z 1
loop_
_atom_type_symbol
_atom_type_radius_bond
C 0.68
H 0.23
Cu 1.32
N 0.68
O 0.68
loop_
_atom_site_label
_atom_site_type_symbol
_atom_site_fract_x
_atom_site_fract_y
_atom_site_fract_z
Cu1 Cu 0.1428(4) 0.00000 0.50000
O1 O 0.208(2) 0.1188(11) 0.6139(10)
N1 N 0.6265(13) 0.6265(13) 0.8819(14)
C1 C 0.193(2) 0.193(2) 0.646(2)
C2 C 0.2852(16) 0.2852(16) 0.7307(16)
C3 C 0.370(3) 0.2705(19) 0.768(2)
H1 H 0.37730 0.20700 0.74600
C4 C 0.453(2) 0.359(2) 0.846(3)
H2 H 0.51250 0.34930 0.87630
C5 C 0.447(2) 0.447(2) 0.874(2)
C6 C 0.5428(16) 0.5428(16) 0.9370(17)
C7 C 0.7150(12) 0.7150(12) 0.9397(15)
C8 C 0.8050(11) 0.8050(11) 0.8854(12)
H3 H 0.80460 0.80460 0.80630
C9 C 0.8972(12) 0.8972(12) 0.9397(11)
C10 C 1.00000 1.00000 0.900(2)
H4 H 1.00000 1.00000 0.81700
O2 O 0.282(6) 0.00000 0.50000
O3 O 0.00000 0.00000 0.50000
O1A O 1.8812(20) 1.0892(11) 0.6139(10)
N1A N 1.3735(13) 1.0000(13) 0.8819(14)
C1A C 1.807(2) 1.000(2) 0.646(2)
C2A C 1.7148(16) 1.0000(16) 0.7307(16)
C3A C 1.7295(30) 1.0995(19) 0.768(2)
H1A H 1.79300 1.17030 0.74600
C4A C 1.641(2) 1.094(2) 0.846(3)
H2A H 1.65070 1.16320 0.87630
C5A C 1.553(2) 1.000(2) 0.874(2)
C6A C 1.4572(16) 1.0000(16) 0.9370(17)
C7A C 1.2850(12) 1.0000(12) 0.9397(15)
C8A C 1.1950(11) 1.0000(11) 0.8854(12)
H3A H 1.19540 1.00000 0.80630
C9A C 1.1028(12) 1.0000(12) 0.9397(11)
O1B O 0.9108(20) 1.7920(11) 0.6139(10)
N1B N 1.0000(13) 1.3735(13) 0.8819(14)
C1B C 1.000(2) 1.807(2) 0.646(2)
C2B C 1.0000(16) 1.7148(16) 0.7307(16)
C3B C 0.9005(30) 1.6300(19) 0.768(2)
H1B H 0.82970 1.62270 0.74600
C4B C 0.906(2) 1.547(2) 0.846(3)
H2B H 0.83680 1.48750 0.87630
C5B C 1.000(2) 1.553(2) 0.874(2)
C6B C 1.0000(16) 1.4572(16) 0.9370(17)
C7B C 1.0000(12) 1.2850(12) 0.9397(15)
C8B C 1.0000(11) 1.1950(11) 0.8854(12)
H3B H 1.00000 1.19540 0.80630
C9B C 1.0000(12) 1.1028(12) 0.9397(11)
O1C O 0.208(2) 0.1188(11) 1.3861(10)
N1C N 0.6265(13) 0.6265(13) 1.1181(14)
C1C C 0.193(2) 0.193(2) 1.354(2)
C2C C 0.2852(16) 0.2852(16) 1.2693(16)
C3C C 0.370(3) 0.2705(19) 1.232(2)
H1C H 0.37730 0.20700 1.25400
C4C C 0.453(2) 0.359(2) 1.154(3)
H2C H 0.51250 0.34930 1.12370
C5C C 0.447(2) 0.447(2) 1.126(2)
C6C C 0.5428(16) 0.5428(16) 1.0630(17)
C7C C 0.7150(12) 0.7150(12) 1.0603(15)
C8C C 0.8050(11) 0.8050(11) 1.1146(12)
H3C H 0.80460 0.80460 1.19370
C9C C 0.8972(12) 0.8972(12) 1.0603(11)
C10C C 1.00000 1.00000 1.100(2)
H4C H 1.00000 1.00000 1.18300
O1D O 1.8812(20) 1.0892(11) 1.3861(10)
N1D N 1.3735(13) 1.0000(13) 1.1181(14)
C1D C 1.807(2) 1.000(2) 1.354(2)
C2D C 1.7148(16) 1.0000(16) 1.2693(16)
C3D C 1.7295(30) 1.0995(19) 1.232(2)
H1D H 1.79300 1.17030 1.25400
C4D C 1.641(2) 1.094(2) 1.154(3)
H2D H 1.65070 1.16320 1.12370
C5D C 1.553(2) 1.000(2) 1.126(2)
C6D C 1.4572(16) 1.0000(16) 1.0630(17)
C7D C 1.2850(12) 1.0000(12) 1.0603(15)
C8D C 1.1950(11) 1.0000(11) 1.1146(12)
H3D H 1.19540 1.00000 1.19370
C9D C 1.1028(12) 1.0000(12) 1.0603(11)
O1E O 0.9108(20) 1.7920(11) 1.3861(10)
N1E N 1.0000(13) 1.3735(13) 1.1181(14)
C1E C 1.000(2) 1.807(2) 1.354(2)
C2E C 1.0000(16) 1.7148(16) 1.2693(16)
C3E C 0.9005(30) 1.6300(19) 1.232(2)
H1E H 0.82970 1.62270 1.25400
C4E C 0.906(2) 1.547(2) 1.154(3)
H2E H 0.83680 1.48750 1.12370
C5E C 1.000(2) 1.553(2) 1.126(2)
C6E C 1.0000(16) 1.4572(16) 1.0630(17)
C7E C 1.0000(12) 1.2850(12) 1.0603(15)
C8E C 1.0000(11) 1.1950(11) 1.1146(12)
H3E H 1.00000 1.19540 1.19370
C9E C 1.0000(12) 1.1028(12) 1.0603(11)
O1F O 0.1188(20) 0.2080(11) 1.3861(10)
C3F C 0.2705(30) 0.3700(19) 1.232(2)
H1F H 0.20700 0.37730 1.25400
C4F C 0.359(2) 0.453(2) 1.154(3)
H2F H 0.34930 0.51250 1.12370
O1G O 1.0892(20) 1.8812(11) 1.3861(10)
C3G C 1.0995(30) 1.7295(19) 1.232(2)
H1G H 1.17030 1.79300 1.25400
C4G C 1.094(2) 1.641(2) 1.154(3)
H2G H 1.16320 1.65070 1.12370
O1H O 1.792(2) 0.9108(11) 1.3861(10)
C3H C 1.630(3) 0.9005(19) 1.232(2)
H1H H 1.62270 0.82970 1.25400
C4H C 1.547(2) 0.906(2) 1.154(3)
H2H H 1.48750 0.83680 1.12370
O1I O 0.1188(20) 0.2080(11) 0.6139(10)
C3I C 0.2705(30) 0.3700(19) 0.768(2)
H1I H 0.20700 0.37730 0.74600
C4I C 0.359(2) 0.453(2) 0.846(3)
H2I H 0.34930 0.51250 0.87630
O1J O 1.0892(20) 1.8812(11) 0.6139(10)
C3J C 1.0995(30) 1.7295(19) 0.768(2)
H1J H 1.17030 1.79300 0.74600
C4J C 1.094(2) 1.641(2) 0.846(3)
H2J H 1.16320 1.65070 0.87630
O1K O 1.792(2) 0.9108(11) 0.6139(10)
C3K C 1.630(3) 0.9005(19) 0.768(2)
H1K H 1.62270 0.82970 0.74600
C4K C 1.547(2) 0.906(2) 0.846(3)
H2K H 1.48750 0.83680 0.87630
Cu1A Cu 0.0000(4) 0.14280 0.50000
O2A O 0.000(6) 0.28200 0.50000
Cu1B Cu -0.1428(4) -0.14280 0.50000
O2B O -0.282(6) -0.28200 0.50000
Cu1* Cu 0.1428(4) 0.00000 1.50000
Cu1** Cu 1.1428(4) 2.00000 0.50000
Cu1*** Cu 1.1428(4) 2.00000 1.50000
Cu1A* Cu 0.0000(4) 0.14280 1.50000
Cu1A** Cu 2.0000(4) 1.14280 0.50000
Cu1A*** Cu 2.0000(4) 1.14280 1.50000
Cu1B* Cu 0.8572(4) 1.85720 0.50000
Cu1B** Cu 0.8572(4) 1.85720 1.50000
Cu1B*** Cu 1.8572(4) 0.85720 0.50000
Cu1B**** Cu 1.8572(4) 0.85720 1.50000
O1A* O -0.1188(20) 0.0892(11) 0.6139(10)
O1B* O -0.0892(20) -0.2080(11) 0.6139(10)
O1C* O 0.208(2) 0.1188(11) 0.3861(10)
O1D* O -0.1188(20) 0.0892(11) 0.3861(10)
O1E* O -0.0892(20) -0.2080(11) 0.3861(10)
O1F* O 0.1188(20) 0.2080(11) 0.3861(10)
O1G* O 0.0892(20) -0.1188(11) 0.3861(10)
O1H* O -0.208(2) -0.0892(11) 0.3861(10)
O1J* O 0.0892(20) -0.1188(11) 0.6139(10)
O1K* O -0.208(2) -0.0892(11) 0.6139(10)
#END
