
#######################################################################
#
#                 Cambridge Crystallographic Data Centre
#                                CCDC
#
#######################################################################
#
# If this CIF has been generated from an entry in the Cambridge
# Structural Database, then it will include bibliographic, chemical,
# crystal, experimental, refinement or atomic coordinate data resulting
# from the CCDC's data processing and validation procedures.
#
#######################################################################

data_CSD_CIF_REBSOJ
_audit_creation_date 2017-06-02
_audit_creation_method CSD-ConQuest-V1
_database_code_CSD REBSOJ
_database_code_depnum_ccdc_archive 'CCDC 1453054'
_chemical_formula_sum 'C72 H54 Co3 N8 O16'
_chemical_formula_moiety
;
2(C2 H8 N1 1+),n(C68 H38 Co3 N6 O16 2-)
;
_journal_coden_Cambridge 1220
_journal_volume 23
_journal_year 2017
_journal_page_first 7297
_journal_name_full 'Chem.-Eur.J. '
loop_
_publ_author_name
"P.Chandrasekhar"
"G.Savitha"
"J.N.Moorthy"
_chemical_name_systematic
;
catena-[bis(Dimethylammonium) 
(\m-tris(4,5-dicarboxylato-2,3-pyrazino)(b,e,h)triptycene)-(\m-oxo)-triaqua-tr
i-cobalt(ii) unknown solvate]
;
_cell_volume   1843.342
_exptl_crystal_colour 'colorless'
_exptl_special_details
;
The authors state:

;
_exptl_crystal_description 'square'
_diffrn_ambient_temperature 100
_diffrn_special_details
;
twin

;
_refine_special_details
;
The SQUEEZE/PLATON program has been used to model some disorder.  The unit 
cell was found to contain one major void of 518 A$3! holding 121 electrons.
;
#These two values have been output from a single CSD field.
_refine_ls_R_factor_gt 0.1121
_refine_ls_wR_factor_gt 0.1121
_symmetry_cell_setting hexagonal
_symmetry_space_group_name_H-M 'P -6 2 m'
_symmetry_Int_Tables_number 189
loop_
_symmetry_equiv_pos_site_id
_symmetry_equiv_pos_as_xyz
1 x,y,z
2 -x+y,-x,-z
3 -y,x-y,z
4 x,y,-z
5 -x+y,-x,z
6 -y,x-y,-z
7 y,x,z
8 x-y,-y,-z
9 -x,-x+y,z
10 y,x,-z
11 x-y,-y,z
12 -x,-x+y,-z
_cell_length_a 13.4098(19)
_cell_length_b 13.4098(19)
_cell_length_c 11.8367(16)
_cell_angle_alpha 90
_cell_angle_beta 90
_cell_angle_gamma 120
_cell_formula_units_Z 1
loop_
_atom_type_symbol
_atom_type_radius_bond
C 0.68
H 0.23
Co 1.26
N 0.68
O 0.68
loop_
_atom_site_label
_atom_site_type_symbol
_atom_site_fract_x
_atom_site_fract_y
_atom_site_fract_z
C1 C 0.00000 0.7987(13) 0.1523(15)
C2 C 0.00000 0.7092(10) 0.2345(13)
C3 C 0.0950(16) 0.7165(15) 0.269(2)
H1 H 0.16500 0.77460 0.24160
C4 C 0.094(2) 0.6402(19) 0.346(3)
H2 H 0.16310 0.65810 0.38110
C5 C 0.00000 0.5413(13) 0.3748(13)
C6 C 0.00000 0.4519(10) 0.4408(14)
C7 C 0.00000 0.1915(8) 0.3802(9)
H3 H 0.00000 0.19180 0.30160
C8 C 0.00000 0.2800(11) 0.4396(13)
C9 C 0.00000 0.1014(9) 0.4395(11)
C10 C 0.00000 0.00000 0.392(2)
H4 H 0.00000 0.00000 0.30920
Co1 Co 0.1486(2) 1.00000 0.00000
O1 O 0.0945(8) 0.8763(6) 0.1219(7)
O2 O 0.3090(15) 1.00000 0.00000
O3 O 0.00000 1.00000 0.00000
N1 N 0.00000 0.3706(10) 0.3806(11)
C1B C -0.79870 -0.7987(13) 0.1523(15)
C2B C -0.70920 -0.7092(10) 0.2345(13)
C3B C -0.7165(16) -0.6215(15) 0.269(2)
H1B H -0.77460 -0.60960 0.24160
C4B C -0.6402(20) -0.5462(19) 0.346(3)
H2B H -0.65810 -0.49500 0.38110
C5B C -0.54130 -0.5413(13) 0.3748(13)
C6B C -0.45190 -0.4519(10) 0.4408(14)
C7B C -0.19150 -0.1915(8) 0.3802(9)
H3B H -0.19180 -0.19180 0.30160
C8B C -0.28000 -0.2800(11) 0.4396(13)
C9B C -0.10140 -0.1014(9) 0.4395(11)
O1B O -0.8763(8) -0.7818(6) 0.1219(7)
N1B N -0.37060 -0.3706(10) 0.3806(11)
C1C C 0.00000 0.7987(13) 0.8477(15)
C2C C 0.00000 0.7092(10) 0.7655(13)
C3C C 0.0950(16) 0.7165(15) 0.731(2)
H1C H 0.16500 0.77460 0.75840
C4C C 0.094(2) 0.6402(19) 0.654(3)
H2C H 0.16310 0.65810 0.61890
C5C C 0.00000 0.5413(13) 0.6252(13)
C6C C 0.00000 0.4519(10) 0.5592(14)
C7C C 0.00000 0.1915(8) 0.6198(9)
H3C H 0.00000 0.19180 0.69840
C8C C 0.00000 0.2800(11) 0.5604(13)
C9C C 0.00000 0.1014(9) 0.5605(11)
C10A C 0.00000 0.00000 0.608(2)
H4A H 0.00000 0.00000 0.69080
O1C O 0.0945(8) 0.8763(6) 0.8781(7)
N1C N 0.00000 0.3706(10) 0.6194(11)
C1D C 0.79870 0.0000(13) 0.1523(15)
C2D C 0.70920 0.000(1) 0.2345(13)
C3D C 0.6215(16) -0.0950(15) 0.269(2)
H1D H 0.60960 -0.16500 0.24160
C4D C 0.5462(20) -0.0940(19) 0.346(3)
H2D H 0.49500 -0.16310 0.38110
C5D C 0.54130 0.0000(13) 0.3748(13)
C6D C 0.45190 0.000(1) 0.4408(14)
C7D C 0.19150 0.0000(8) 0.3802(9)
H3D H 0.19180 0.00000 0.30160
C8D C 0.28000 0.0000(11) 0.4396(13)
C9D C 0.10140 0.0000(9) 0.4395(11)
O1D O 0.7818(8) -0.0945(6) 0.1219(7)
N1D N 0.37060 0.000(1) 0.3806(11)
C1E C -0.79870 -0.7987(13) 0.8477(15)
C2E C -0.70920 -0.7092(10) 0.7655(13)
C3E C -0.7165(16) -0.6215(15) 0.731(2)
H1E H -0.77460 -0.60960 0.75840
C4E C -0.6402(20) -0.5462(19) 0.654(3)
H2E H -0.65810 -0.49500 0.61890
C5E C -0.54130 -0.5413(13) 0.6252(13)
C6E C -0.45190 -0.4519(10) 0.5592(14)
C7E C -0.19150 -0.1915(8) 0.6198(9)
H3E H -0.19180 -0.19180 0.69840
C8E C -0.28000 -0.2800(11) 0.5604(13)
C9E C -0.10140 -0.1014(9) 0.5605(11)
O1E O -0.8763(8) -0.7818(6) 0.8781(7)
N1E N -0.37060 -0.3706(10) 0.6194(11)
C3F C 0.7165(16) 0.0950(15) 0.269(2)
H1F H 0.77460 0.16500 0.24160
C4F C 0.6402(20) 0.0940(19) 0.346(3)
H2F H 0.65810 0.16310 0.38110
O1F O 0.8763(8) 0.0945(6) 0.1219(7)
C3G C -0.6215(16) -0.7165(15) 0.731(2)
H1G H -0.60960 -0.77460 0.75840
C4G C -0.5462(20) -0.6402(19) 0.654(3)
H2G H -0.49500 -0.65810 0.61890
O1G O -0.7818(8) -0.8763(6) 0.8781(7)
C3H C -0.0950(16) 0.6215(15) 0.269(2)
H1H H -0.16500 0.60960 0.24160
C4H C -0.094(2) 0.5462(19) 0.346(3)
H2H H -0.16310 0.49500 0.38110
O1H O -0.0945(8) 0.7818(6) 0.1219(7)
C1A C 0.79870 0.0000(13) 0.8477(15)
C2A C 0.70920 0.000(1) 0.7655(13)
C3I C 0.7165(16) 0.0950(15) 0.731(2)
H1I H 0.77460 0.16500 0.75840
C4I C 0.6402(20) 0.0940(19) 0.654(3)
H2I H 0.65810 0.16310 0.61890
C5A C 0.54130 0.0000(13) 0.6252(13)
C6A C 0.45190 0.000(1) 0.5592(14)
C7A C 0.19150 0.0000(8) 0.6198(9)
H3A H 0.19180 0.00000 0.69840
C8A C 0.28000 0.0000(11) 0.5604(13)
C9A C 0.10140 0.0000(9) 0.5605(11)
O1I O 0.8763(8) 0.0945(6) 0.8781(7)
N1A N 0.37060 0.000(1) 0.6194(11)
C3J C -0.6215(16) -0.7165(15) 0.269(2)
H1J H -0.60960 -0.77460 0.24160
C4J C -0.5462(20) -0.6402(19) 0.346(3)
H2J H -0.49500 -0.65810 0.38110
O1J O -0.7818(8) -0.8763(6) 0.1219(7)
C3K C -0.0950(16) 0.6215(15) 0.731(2)
H1K H -0.16500 0.60960 0.75840
C4K C -0.094(2) 0.5462(19) 0.654(3)
H2K H -0.16310 0.49500 0.61890
O1K O -0.0945(8) 0.7818(6) 0.8781(7)
C3A C 0.6215(16) -0.0950(15) 0.731(2)
H1A H 0.60960 -0.16500 0.75840
C4A C 0.5462(20) -0.0940(19) 0.654(3)
H2A H 0.49500 -0.16310 0.61890
O1A O 0.7818(8) -0.0945(6) 0.8781(7)
Co1A Co -0.1486(2) 0.85140 0.00000
O2A O -0.3090(15) 0.69100 0.00000
Co1B Co 0.0000(2) 1.14860 0.00000
O2B O 0.0000(15) 1.30900 0.00000
Co1* Co -0.8514(2) -1.00000 0.00000
Co1** Co -0.8514(2) -1.00000 1.00000
Co1*** Co 0.1486(2) 1.00000 1.00000
Co1A* Co -0.1486(2) 0.85140 1.00000
Co1A** Co 0.8514(2) -0.14860 0.00000
Co1A*** Co 0.8514(2) -0.14860 1.00000
Co1B* Co -1.0000(2) -0.85140 0.00000
Co1B** Co -1.0000(2) -0.85140 1.00000
Co1B*** Co 1.0000(2) 0.14860 0.00000
Co1B**** Co 1.0000(2) 0.14860 1.00000
O1A* O -0.2182(8) 0.9055(6) -0.1219(7)
O1B* O 0.1237(8) 1.2182(6) 0.1219(7)
O1C* O 0.0945(8) 0.8763(6) -0.1219(7)
O1D* O -0.2182(8) 0.9055(6) 0.1219(7)
O1E* O 0.1237(8) 1.2182(6) -0.1219(7)
O1F* O -0.1237(8) 1.0945(6) 0.1219(7)
O1G* O 0.2182(8) 1.1237(6) -0.1219(7)
O1I* O -0.1237(8) 1.0945(6) -0.1219(7)
O1J* O 0.2182(8) 1.1237(6) 0.1219(7)
O1K* O -0.0945(8) 0.7818(6) -0.1219(7)
#END
