
#######################################################################
#
#                 Cambridge Crystallographic Data Centre
#                                CCDC
#
#######################################################################
#
# If this CIF has been generated from an entry in the Cambridge
# Structural Database, then it will include bibliographic, chemical,
# crystal, experimental, refinement or atomic coordinate data resulting
# from the CCDC's data processing and validation procedures.
#
#######################################################################

data_CSD_CIF_REBTEZ
_audit_creation_date 2012-08-03
_audit_creation_method CSD-ConQuest-V1
_database_code_CSD REBTEZ
_database_code_depnum_ccdc_archive 'CCDC 634566'
_chemical_formula_sum 'C90 H68 Na2 O62 Zn9'
_chemical_formula_moiety
;
(H12 O6 Zn1 2+)n,n(C90 H56 Na2 O56 Zn8 2-)
;
_journal_coden_Cambridge 211
_journal_volume 52
_journal_year 2001
_journal_page_first 253
_journal_name_full 'J.Coord.Chem. '
loop_
_publ_author_name
"B.Paluchowska"
"J.K.Maurin"
"J.Leciejewicz"
_chemical_name_systematic
;
catena-(hexaaqua-zinc 
bis(\m~3~-hydroxo)-tetrakis(\m~3~-furan-2-carboxylato)-decakis(\m~2~-furan-2-c
arboxylato)-tetrakis(furan-2-carboxylato)-di-sodium-octa-zinc)
;
_cell_volume   2634.963
_exptl_crystal_density_diffrn 1.749
_diffrn_ambient_temperature 293
#These two values have been output from a single CSD field.
_refine_ls_R_factor_gt 0.039
_refine_ls_wR_factor_gt 0.039
_symmetry_cell_setting triclinic
_symmetry_space_group_name_H-M 'P -1'
_symmetry_Int_Tables_number 2
loop_
_symmetry_equiv_pos_site_id
_symmetry_equiv_pos_as_xyz
1 x,y,z
2 -x,-y,-z
_cell_length_a 12.138(2)
_cell_length_b 14.718(3)
_cell_length_c 15.883(3)
_cell_angle_alpha 103.94(3)
_cell_angle_beta 94.95(3)
_cell_angle_gamma 73.13(3)
_cell_formula_units_Z 1
loop_
_atom_type_symbol
_atom_type_radius_bond
C 0.68
Na 1.48
O 0.68
Zn 1.22
loop_
_atom_site_label
_atom_site_type_symbol
_atom_site_fract_x
_atom_site_fract_y
_atom_site_fract_z
Zn1 Zn 0.00000 0.00000 0.50000
Zn2 Zn 0.0027(1) 0.3303(1) 0.8083(1)
Zn3 Zn -0.0114(1) 0.1095(1) 0.8196(1)
Zn4 Zn -0.1878(1) 0.3967(1) 0.6558(1)
Zn5 Zn 0.2384(1) 0.1414(1) 0.7623(1)
O1 O 0.1319(3) 0.3629(2) 0.8917(2)
O2 O 0.2899(3) 0.2399(2) 0.8510(2)
C1 C 0.2380(4) 0.3211(3) 0.8963(3)
C2 C 0.3087(4) 0.3717(3) 0.9595(3)
O3 O 0.2559(3) 0.4562(3) 1.0131(2)
C3 C 0.3364(8) 0.4853(6) 1.0634(5)
C4 C 0.4364(6) 0.4318(6) 1.0451(5)
C5 C 0.4220(4) 0.3467(5) 0.9730(4)
O4 O -0.0432(2) 0.3904(3) 0.6053(2)
O5 O 0.0850(3) 0.3454(2) 0.7075(2)
C6 C 0.0568(4) 0.3742(3) 0.6384(3)
C7 C 0.1474(4) 0.3872(3) 0.5922(3)
O6 O 0.1304(5) 0.4270(4) 0.5228(4)
C8 C 0.2449(7) 0.4206(6) 0.4989(5)
C9 C 0.3159(6) 0.3790(6) 0.5504(6)
C10 C 0.2585(4) 0.3585(4) 0.6112(3)
O7 O -0.0844(2) 0.4818(2) 0.8354(2)
O8 O -0.2216(3) 0.5230(2) 0.7362(2)
C11 C -0.1617(4) 0.5406(3) 0.8050(3)
C12 C -0.1942(3) 0.6446(3) 0.8489(3)
O9 O -0.1317(3) 0.6730(2) 0.9218(2)
C13 C -0.1767(4) 0.7704(3) 0.9490(3)
C14 C -0.2614(4) 0.8029(3) 0.8979(4)
C15 C -0.2739(4) 0.7225(3) 0.8319(4)
O10 O -0.0719(3) 0.3252(2) 0.9205(2)
O11 O -0.0799(3) 0.1802(2) 0.9349(2)
C16 C -0.0957(3) 0.2706(3) 0.9608(3)
C17 C -0.1452(4) 0.3150(3) 1.0482(3)
O12 O -0.1344(3) 0.4073(2) 1.0865(2)
C18 C -0.1847(6) 0.4363(4) 1.1634(4)
C19 C -0.2290(6) 0.3684(5) 1.1766(4)
C20 C -0.2032(5) 0.2868(5) 1.1004(4)
O13 O -0.1512(2) 0.3028(2) 0.7305(2)
O14 O -0.1729(3) 0.1698(2) 0.7639(3)
C21 C -0.2128(4) 0.2495(3) 0.7459(3)
C22 C -0.3375(4) 0.2905(3) 0.7451(3)
O15 O -0.3839(3) 0.3807(3) 0.7312(2)
C23 C -0.4998(5) 0.4018(5) 0.7353(5)
C24 C -0.5265(6) 0.3268(8) 0.7517(6)
C25 C -0.4224(6) 0.2522(6) 0.7570(5)
O16 O 0.1332(3) 0.0528(2) 0.8905(2)
O17 O 0.2923(3) 0.0273(2) 0.8160(3)
C26 C 0.2386(4) 0.0169(3) 0.8761(3)
C27 C 0.3079(4) -0.0399(3) 0.9358(4)
O18 O 0.2461(4) -0.0504(3) 1.0014(3)
C28 C 0.3249(8) -0.0929(5) 1.0557(6)
C29 C 0.4306(7) -0.1101(6) 1.0272(7)
C30 C 0.4181(5) -0.0755(4) 0.9479(6)
O19 O -0.1982(3) 0.2471(2) 0.5104(2)
O20 O -0.3013(2) 0.3988(2) 0.5628(2)
C31 C -0.2784(3) 0.3201(3) 0.5040(3)
C32 C -0.3499(3) 0.3205(3) 0.4256(3)
O21 O -0.4461(4) 0.3903(3) 0.4133(4)
C33 C -0.4832(6) 0.3532(6) 0.3248(5)
C34 C -0.4127(7) 0.2687(7) 0.2968(4)
C35 C -0.3288(4) 0.2444(3) 0.3568(3)
O22 O 0.2143(4) 0.1278(3) 0.5538(3)
O23 O 0.3343(3) 0.1275(3) 0.6691(3)
C36 C 0.3082(5) 0.1272(4) 0.5907(4)
C37 C 0.4019(6) 0.1244(4) 0.5357(4)
O24 O 0.3899(6) 0.1232(5) 0.4501(5)
C38 C 0.4992(10) 0.1228(8) 0.4252(8)
C39 C 0.5684(8) 0.1219(6) 0.4941(8)
C40 C 0.5089(4) 0.1241(4) 0.5622(5)
O25 O -0.0051(3) -0.0176(2) 0.7375(2)
O26 O -0.0504(4) -0.0516(3) 0.8565(3)
C41 C -0.0255(5) -0.0752(3) 0.7788(4)
C42 C -0.0190(5) -0.1740(3) 0.7282(3)
O27 O 0.0111(4) -0.1989(3) 0.6436(2)
C43 C 0.0131(6) -0.2943(4) 0.6148(4)
C44 C -0.0164(6) -0.3284(4) 0.6743(4)
C45 C -0.0302(7) -0.2530(4) 0.7504(4)
O28 O -0.1189(3) 0.0600(2) 0.4138(2)
O29 O 0.0032(3) 0.1379(2) 0.5786(2)
O30 O -0.1403(3) 0.0083(3) 0.5730(3)
O31 O 0.0704(2) 0.1792(2) 0.7620(2)
Na1 Na 0.00000 0.50000 1.00000
Na2 Na 0.00000 0.00000 1.00000
Zn2A Zn -0.0027(1) 0.6697(1) 1.1917(1)
Zn3A Zn 0.0114(1) 0.8905(1) 1.1804(1)
Zn4A Zn 0.1878(1) 0.6033(1) 1.3442(1)
Zn5A Zn -0.2384(1) 0.8586(1) 1.2377(1)
O1A O -0.1319(3) 0.6371(2) 1.1083(2)
O2A O -0.2899(3) 0.7601(2) 1.1490(2)
C1A C -0.2380(4) 0.6789(3) 1.1037(3)
C2A C -0.3087(4) 0.6283(3) 1.0405(3)
O3A O -0.2559(3) 0.5438(3) 0.9869(2)
C3A C -0.3364(8) 0.5147(6) 0.9366(5)
C4A C -0.4364(6) 0.5682(6) 0.9549(5)
C5A C -0.4220(4) 0.6533(5) 1.0270(4)
O4A O 0.0432(2) 0.6096(3) 1.3947(2)
O5A O -0.0850(3) 0.6546(2) 1.2925(2)
C6A C -0.0568(4) 0.6258(3) 1.3616(3)
C7A C -0.1474(4) 0.6128(3) 1.4078(3)
O6A O -0.1304(5) 0.5730(4) 1.4772(4)
C8A C -0.2449(7) 0.5794(6) 1.5011(5)
C9A C -0.3159(6) 0.6210(6) 1.4496(6)
C10A C -0.2585(4) 0.6415(4) 1.3888(3)
O7A O 0.0844(2) 0.5182(2) 1.1646(2)
O8A O 0.2216(3) 0.4770(2) 1.2638(2)
C11A C 0.1617(4) 0.4594(3) 1.1950(3)
C12A C 0.1942(3) 0.3554(3) 1.1511(3)
O9A O 0.1317(3) 0.3270(2) 1.0782(2)
C13A C 0.1767(4) 0.2296(3) 1.0510(3)
C14A C 0.2614(4) 0.1971(3) 1.1021(4)
C15A C 0.2739(4) 0.2775(3) 1.1681(4)
O10A O 0.0719(3) 0.6748(2) 1.0795(2)
O11A O 0.0799(3) 0.8198(2) 1.0651(2)
C16A C 0.0957(3) 0.7294(3) 1.0392(3)
C17A C 0.1452(4) 0.6850(3) 0.9518(3)
O12A O 0.1344(3) 0.5927(2) 0.9135(2)
C18A C 0.1847(6) 0.5637(4) 0.8366(4)
C19A C 0.2290(6) 0.6316(5) 0.8234(4)
C20A C 0.2032(5) 0.7132(5) 0.8996(4)
O13A O 0.1512(2) 0.6972(2) 1.2695(2)
O14A O 0.1729(3) 0.8302(2) 1.2361(3)
C21A C 0.2128(4) 0.7505(3) 1.2541(3)
C22A C 0.3375(4) 0.7095(3) 1.2549(3)
O15A O 0.3839(3) 0.6193(3) 1.2688(2)
C23A C 0.4998(5) 0.5982(5) 1.2647(5)
C24A C 0.5265(6) 0.6732(8) 1.2483(6)
C25A C 0.4224(6) 0.7478(6) 1.2430(5)
O16A O -0.1332(3) 0.9472(2) 1.1095(2)
O17A O -0.2923(3) 0.9727(2) 1.1840(3)
C26A C -0.2386(4) 0.9831(3) 1.1239(3)
C27A C -0.3079(4) 1.0399(3) 1.0642(4)
O18A O -0.2461(4) 1.0504(3) 0.9986(3)
C28A C -0.3249(8) 1.0929(5) 0.9443(6)
C29A C -0.4306(7) 1.1101(6) 0.9728(7)
C30A C -0.4181(5) 1.0755(4) 1.0521(6)
O19A O 0.1982(3) 0.7529(2) 1.4896(2)
O20A O 0.3013(2) 0.6012(2) 1.4372(2)
C31A C 0.2784(3) 0.6799(3) 1.4960(3)
C32A C 0.3499(3) 0.6795(3) 1.5744(3)
O21A O 0.4461(4) 0.6097(3) 1.5867(4)
C33A C 0.4832(6) 0.6468(6) 1.6752(5)
C34A C 0.4127(7) 0.7313(7) 1.7032(4)
C35A C 0.3288(4) 0.7556(3) 1.6432(3)
O22A O -0.2143(4) 0.8722(3) 1.4462(3)
O23A O -0.3343(3) 0.8725(3) 1.3309(3)
C36A C -0.3082(5) 0.8728(4) 1.4093(4)
C37A C -0.4019(6) 0.8756(4) 1.4643(4)
O24A O -0.3899(6) 0.8768(5) 1.5499(5)
C38A C -0.4992(10) 0.8772(8) 1.5748(8)
C39A C -0.5684(8) 0.8781(6) 1.5059(8)
C40A C -0.5089(4) 0.8759(4) 1.4378(5)
O25A O 0.0051(3) 1.0176(2) 1.2625(2)
O26A O 0.0504(4) 1.0516(3) 1.1435(3)
O26A* O 0.0504(4) 0.0516(3) 1.1435(3)
C41A C 0.0255(5) 1.0752(3) 1.2212(4)
C42A C 0.0190(5) 1.1740(3) 1.2718(3)
O27A O -0.0111(4) 1.1989(3) 1.3564(2)
C43A C -0.0131(6) 1.2943(4) 1.3852(4)
C44A C 0.0164(6) 1.3284(4) 1.3257(4)
C45A C 0.0302(7) 1.2530(4) 1.2496(4)
O28A O 0.1189(3) -0.0600(2) 0.5862(2)
O29A O -0.0032(3) -0.1379(2) 0.4214(2)
O30A O 0.1403(3) -0.0083(3) 0.4270(3)
O31A O -0.0704(2) 0.8208(2) 1.2380(2)
Na2* Na 0.00000 1.00000 1.00000
#END
