
#######################################################################
#
#                 Cambridge Crystallographic Data Centre
#                                CCDC
#
#######################################################################
#
# If this CIF has been generated from an entry in the Cambridge
# Structural Database, then it will include bibliographic, chemical,
# crystal, experimental, refinement or atomic coordinate data resulting
# from the CCDC's data processing and validation procedures.
#
#######################################################################

data_CSD_CIF_RECDOT
_audit_creation_date 2006-06-21
_audit_creation_method CSD-ConQuest-V1
_database_code_CSD RECDOT
_database_code_depnum_ccdc_archive 'CCDC 280068'
_chemical_formula_sum 'C54 H80 Cr3 K3 Mn3 O58'
_chemical_formula_moiety
;
(C18 H8 Cr3 Mn3 O40 3-)n,3n(C12 H24 K1 O6 1+)
;
_journal_coden_Cambridge 9
_journal_volume 45
_journal_year 2006
_journal_page_first 1882
_journal_name_full 'Inorg.Chem. '
loop_
_publ_author_name
"E.Coronado"
"J.R.Galan-Mascaros"
"C.Marti-Gastaldo"
_chemical_name_systematic
;
catena-(tris((18-Crown-6)-potassium) 
heptakis(\m~2~-oxalato)-tetra-aqua-bis(oxalato)-tri-chromium(iii)-tri-manganes
e(ii))
;
_cell_volume   8781.768
_exptl_crystal_colour 'dark green'
_exptl_crystal_density_diffrn 1.585
_exptl_special_details
;
ferromagnetic

;
_exptl_crystal_description 'prismatic'
_diffrn_ambient_temperature 293
_refine_special_details
;
An 18-crown-6 ring is disordered over two sites with occupancies 0.67:0.33.

;
#These two values have been output from a single CSD field.
_refine_ls_R_factor_gt 0.0538
_refine_ls_wR_factor_gt 0.0538
_symmetry_cell_setting monoclinic
_symmetry_space_group_name_H-M 'C 2/c'
_symmetry_Int_Tables_number 15
loop_
_symmetry_equiv_pos_site_id
_symmetry_equiv_pos_as_xyz
1 x,y,z
2 1/2+x,1/2+y,z
3 -x,y,1/2-z
4 1/2-x,1/2+y,1/2-z
5 -x,-y,-z
6 -1/2-x,-1/2-y,-z
7 x,-y,-1/2+z
8 -1/2+x,-1/2-y,-1/2+z
_cell_length_a 26.7760(6)
_cell_length_b 20.0490(5)
_cell_length_c 18.1900(5)
_cell_angle_alpha 90
_cell_angle_beta 115.9321(9)
_cell_angle_gamma 90
_cell_formula_units_Z 4
loop_
_atom_type_symbol
_atom_type_radius_bond
C 0.68
H 0.23
Cr 1.35
K 1.85
Mn 1.35
O 0.68
loop_
_atom_site_label
_atom_site_type_symbol
_atom_site_fract_x
_atom_site_fract_y
_atom_site_fract_z
Cr1 Cr 0.00000 0.13290(4) 0.25000
Cr2 Cr -0.15720(3) -0.31000(3) 0.25150(5)
Mn1 Mn 0.15695(3) 0.30238(3) 0.24567(4)
Mn2 Mn 0.00000 -0.13910(4) 0.25000
O1 O -0.07703(12) -0.29236(13) 0.31722(19)
O2 O -0.15041(12) -0.23610(12) 0.18326(18)
O3 O -0.01168(13) -0.22086(14) 0.32175(19)
O4 O -0.08903(13) -0.15957(14) 0.1860(2)
O5 O 0.26160(13) 0.18641(12) 0.18389(18)
O6 O 0.32228(13) 0.25449(13) 0.31614(18)
O7 O 0.18432(13) 0.23479(14) 0.1749(2)
O8 O 0.24684(13) 0.29755(14) 0.3203(2)
O9 O -0.15721(14) -0.38286(14) 0.3221(2)
O10 O -0.14437(14) -0.38205(13) 0.1896(2)
O11 O -0.1480(2) -0.49266(15) 0.3361(3)
O12 O -0.1404(2) -0.49216(15) 0.1854(3)
O13 O 0.00678(12) 0.20417(12) 0.17991(18)
O14 O 0.08172(12) 0.14227(13) 0.30751(19)
O15 O 0.07052(12) 0.27275(14) 0.17460(19)
O16 O 0.14617(13) 0.21743(14) 0.3170(2)
O17 O 0.00078(13) 0.05904(12) 0.17824(18)
O18 O -0.00106(14) -0.05258(13) 0.17463(19)
O19 O 0.13686(19) 0.37654(16) 0.3104(2)
H1 H 0.160(2) 0.407(2) 0.316(4)
H2 H 0.143(3) 0.370(3) 0.360(3)
O20 O 0.1598(2) 0.37910(17) 0.1680(3)
H3 H 0.165(3) 0.372(3) 0.128(3)
H4 H 0.161(3) 0.417(2) 0.182(4)
C1 C -0.0593(2) -0.2434(2) 0.2917(3)
C2 C -0.10289(18) -0.2093(2) 0.2131(3)
C3 C 0.2348(2) 0.22543(19) 0.2088(3)
C4 C 0.2705(2) 0.26274(19) 0.2888(3)
C5 C -0.1503(2) -0.4405(2) 0.2982(3)
C6 C -0.1453(2) -0.4398(2) 0.2172(3)
C7 C 0.05565(19) 0.22653(19) 0.2061(3)
C8 C 0.09921(19) 0.1930(2) 0.2839(3)
C9 C 0.00001(17) 0.00167(19) 0.2076(3)
K1 K 0.34917(5) 0.00175(5) 0.50894(8)
O21 O 0.26260(19) 0.0920(2) 0.4570(3)
C10 C 0.2137(4) 0.0659(5) 0.4499(7)
H5 H 0.18400 0.09730 0.42100
H6 H 0.21580 0.05930 0.50400
C11 C 0.2005(3) 0.0011(5) 0.4054(6)
H7 H 0.16480 -0.01510 0.39940
H8 H 0.19860 0.00690 0.35130
O22 O 0.24246(19) -0.0453(2) 0.4502(3)
C12 C 0.2323(4) -0.1103(5) 0.4151(5)
H9 H 0.23250 -0.10910 0.36190
H10 H 0.19620 -0.12610 0.40800
C13 C 0.2760(4) -0.1556(3) 0.4699(5)
H11 H 0.27800 -0.15350 0.52440
H12 H 0.26720 -0.20110 0.45020
O23 O 0.3281(2) -0.13719(16) 0.4728(2)
C14 C 0.3721(4) -0.1767(3) 0.5288(5)
H13 H 0.36620 -0.22280 0.51120
H14 H 0.37230 -0.17420 0.58220
C15 C 0.4271(4) -0.1534(3) 0.5351(4)
H15 H 0.45660 -0.18250 0.57110
H16 H 0.42690 -0.15380 0.48160
O24 O 0.43571(19) -0.0875(2) 0.5669(3)
C16 C 0.4872(4) -0.0638(5) 0.5806(6)
H17 H 0.48910 -0.05730 0.52900
H18 H 0.51580 -0.09540 0.61300
C17 C 0.4962(3) 0.0017(5) 0.6254(5)
H19 H 0.49190 -0.00430 0.67520
H20 H 0.53350 0.01790 0.64000
O25 O 0.45643(17) 0.0486(2) 0.5734(3)
C18 C 0.4658(3) 0.1139(4) 0.6049(5)
H21 H 0.50200 0.12920 0.61190
H22 H 0.46530 0.11440 0.65790
C19 C 0.4220(4) 0.1590(3) 0.5480(5)
H23 H 0.43110 0.20490 0.56580
H24 H 0.41990 0.15500 0.49350
O26 O 0.36981(18) 0.14163(15) 0.5464(2)
C20 C 0.3264(4) 0.1810(3) 0.4905(4)
H25 H 0.32590 0.17780 0.43690
H26 H 0.33260 0.22730 0.50760
C21 C 0.2732(4) 0.1587(4) 0.4856(4)
H27 H 0.27380 0.16150 0.53920
H28 H 0.24380 0.18750 0.44880
K2 K 0.00000 0.00000 0.00000
C22 C 0.0063(3) 0.1775(3) 0.0006(4)
H29 H -0.00510 0.22080 -0.02530
H30 H 0.00850 0.18060 0.05520
O27 O -0.0349(2) 0.1293(2) -0.0451(4)
C23 C -0.0881(4) 0.1438(4) -0.0457(5)
H31 H -0.09940 0.18900 -0.06450
H32 H -0.08550 0.13940 0.00890
C24 C -0.1299(4) 0.0946(4) -0.1028(5)
H33 H -0.16730 0.10680 -0.11210
H34 H -0.12830 0.09330 -0.15500
O28 O -0.1147(2) 0.0305(3) -0.0623(3)
C25 C -0.1526(4) -0.0207(4) -0.1144(5)
H35 H -0.19070 -0.01040 -0.12620
H36 H -0.14960 -0.02500 -0.16540
C26 C -0.1326(4) -0.0850(4) -0.0622(5)
H37 H -0.15850 -0.12110 -0.08820
H38 H -0.13090 -0.07760 -0.00850
O29 O -0.0796(3) -0.1022(3) -0.0549(4)
C27 C 0.0584(4) 0.1624(4) 0.0065(5)
H39 H 0.05610 0.15580 -0.04770
H40 H 0.08360 0.19920 0.03210
C28? C 0.0921(11) 0.1342(13) 0.0332(17)
H41? H 0.10610 0.17950 0.04360
H42? H 0.08630 0.12000 -0.02100
O30? O 0.0461(7) 0.1251(8) 0.0471(11)
C29? C 0.0063(3) 0.1775(3) 0.0006(4)
H43? H 0.01910 0.21920 0.03000
H44? H 0.00790 0.18250 -0.05140
C30? C -0.0493(8) 0.1697(12) -0.0157(16)
H45? H -0.07050 0.20900 -0.04270
H46? H -0.05280 0.16270 0.03470
O31? O -0.0680(9) 0.1158(9) -0.0649(12)
C31? C -0.1219(11) 0.1046(14) -0.0694(19)
H47? H -0.14800 0.13940 -0.09940
H48? H -0.12110 0.09890 -0.01600
C32? C -0.1331(12) 0.0406(11) -0.1163(16)
H49? H -0.17270 0.03790 -0.15080
H50? H -0.11490 0.04290 -0.15210
O32? O -0.1171(8) -0.0169(10) -0.0727(12)
C33? C -0.1269(13) -0.0862(12) -0.0992(17)
H51? H -0.11890 -0.09200 -0.14590
H52? H -0.16580 -0.09660 -0.11660
Cr2B Cr 0.15720(3) -0.31000(3) 0.24850(5)
Cr2A Cr 0.34280(3) 0.19000(3) 0.25150(5)
Cr2C Cr -0.34280(3) 0.19000(3) 0.24850(5)
Mn1B Mn -0.15695(3) 0.30238(3) 0.25433(4)
O1B O 0.07703(12) -0.29236(13) 0.18278(19)
O2B O 0.15041(12) -0.23610(12) 0.31674(18)
O3B O 0.01168(13) -0.22086(14) 0.17825(19)
O4B O 0.08903(13) -0.15957(14) 0.3140(2)
O5B O -0.26160(13) 0.18641(12) 0.31611(18)
O5A O -0.23840(13) -0.31359(12) 0.18389(18)
O5C O 0.23840(13) -0.31359(12) 0.31611(18)
O6B O -0.32228(13) 0.25449(13) 0.18386(18)
O6A O -0.17772(13) -0.24551(13) 0.31614(18)
O6C O 0.17772(13) -0.24551(13) 0.18386(18)
O7B O -0.18432(13) 0.23479(14) 0.3251(2)
O8B O -0.24684(13) 0.29755(14) 0.1797(2)
O9B O 0.15721(14) -0.38286(14) 0.1779(2)
O10B O 0.14437(14) -0.38205(13) 0.3104(2)
O11B O 0.1480(2) -0.49266(15) 0.1639(3)
O12B O 0.1404(2) -0.49216(15) 0.3146(3)
O13B O -0.00678(12) 0.20417(12) 0.32009(18)
O14B O -0.08172(12) 0.14227(13) 0.19249(19)
O15B O -0.07052(12) 0.27275(14) 0.32540(19)
O16B O -0.14617(13) 0.21743(14) 0.1830(2)
O17B O -0.00078(13) 0.05904(12) 0.32176(18)
O18B O 0.00106(14) -0.05258(13) 0.32537(19)
O19B O -0.13686(19) 0.37654(16) 0.1896(2)
H1B H -0.160(2) 0.407(2) 0.184(4)
H2B H -0.143(3) 0.370(3) 0.140(3)
O20B O -0.1598(2) 0.37910(17) 0.3320(3)
H3B H -0.165(3) 0.372(3) 0.372(3)
H4B H -0.161(3) 0.417(2) 0.318(4)
C1B C 0.0593(2) -0.2434(2) 0.2083(3)
C2B C 0.10289(18) -0.2093(2) 0.2869(3)
C3B C -0.2348(2) 0.22543(19) 0.2912(3)
C4B C -0.2705(2) 0.26274(19) 0.2112(3)
C5B C 0.1503(2) -0.4405(2) 0.2018(3)
C6B C 0.1453(2) -0.4398(2) 0.2828(3)
C7B C -0.05565(19) 0.22653(19) 0.2939(3)
C8B C -0.09921(19) 0.1930(2) 0.2161(3)
C9B C -0.00001(17) 0.00167(19) 0.2924(3)
C22D C -0.0063(3) -0.1775(3) -0.0006(4)
H29D H 0.00510 -0.22080 0.02530
H30D H -0.00850 -0.18060 -0.05520
O27D O 0.0349(2) -0.1293(2) 0.0451(4)
C23D C 0.0881(4) -0.1438(4) 0.0457(5)
H31D H 0.09940 -0.18900 0.06450
H32D H 0.08550 -0.13940 -0.00890
C24D C 0.1299(4) -0.0946(4) 0.1028(5)
H33D H 0.16730 -0.10680 0.11210
H34D H 0.12830 -0.09330 0.15500
O28D O 0.1147(2) -0.0305(3) 0.0623(3)
C25D C 0.1526(4) 0.0207(4) 0.1144(5)
H35D H 0.19070 0.01040 0.12620
H36D H 0.14960 0.02500 0.16540
C26D C 0.1326(4) 0.0850(4) 0.0622(5)
H37D H 0.15850 0.12110 0.08820
H38D H 0.13090 0.07760 0.00850
O29D O 0.0796(3) 0.1022(3) 0.0549(4)
C27D C -0.0584(4) -0.1624(4) -0.0065(5)
H39D H -0.05610 -0.15580 0.04770
H40D H -0.08360 -0.19920 -0.03210
#END
