
#######################################################################
#
#                 Cambridge Crystallographic Data Centre
#                                CCDC
#
#######################################################################
#
# If this CIF has been generated from an entry in the Cambridge
# Structural Database, then it will include bibliographic, chemical,
# crystal, experimental, refinement or atomic coordinate data resulting
# from the CCDC's data processing and validation procedures.
#
#######################################################################

data_CSD_CIF_RECMIV
_audit_creation_date 1997-09-01
_audit_creation_method CSD-ConQuest-V1
_database_code_CSD RECMIV
_chemical_formula_sum 'C20 H34 Cl1 Mo4 N1 Na2 O18'
_chemical_formula_moiety
;
(C20 H34 Cl1 N1 Na1 O5 1+)n,n(Mo4 Na1 O13 1-)
;
_journal_coden_Cambridge 603
_journal_volume 16
_journal_year 1997
_journal_page_first 1
_journal_name_full 'Jiegou Huaxue(Chin.)(Chin.J.Struct.Chem.) '
loop_
_publ_author_name
"Lu Xiao-Ming"
"Jin Xiang-Lin Pu Xian-He"
"Liu Shun-Cheng"
_chemical_name_systematic
;
catena((N-(p-Chlorophenyl)-1-aza-15-crown-5)-(diethyl ether)-sodium 
tridecaoxo-tetra-molybdenum-sodium)
;
_cell_volume   3289.924
_exptl_crystal_density_diffrn 2.139
_diffrn_ambient_temperature ?
_diffrn_special_details
;
The study was carried out at room temperature,in the range 283-303K

;
_refine_special_details
;
One molybdenum atom is 0.25 replaced by a tungsten atom.

;
#These two values have been output from a single CSD field.
_refine_ls_R_factor_gt 0.026
_refine_ls_wR_factor_gt 0.026
_symmetry_cell_setting monoclinic
_symmetry_space_group_name_H-M 'P 21/c'
_symmetry_Int_Tables_number 14
loop_
_symmetry_equiv_pos_site_id
_symmetry_equiv_pos_as_xyz
1 x,y,z
2 -x,1/2+y,1/2-z
3 -x,-y,-z
4 x,-1/2-y,-1/2+z
_cell_length_a 17.803(4)
_cell_length_b 13.674(3)
_cell_length_c 14.610(3)
_cell_angle_alpha 90
_cell_angle_beta 112.33(3)
_cell_angle_gamma 90
_cell_formula_units_Z 4
loop_
_atom_type_symbol
_atom_type_radius_bond
C 0.68
Cl 0.99
Mo 1.39
N 0.68
Na 1.77
O 0.68
loop_
_atom_site_label
_atom_site_type_symbol
_atom_site_fract_x
_atom_site_fract_y
_atom_site_fract_z
Mo1 Mo 0.0666(1) 0.0899(1) 0.5724(1)
Mo2 Mo -0.0991(1) 0.1629(1) 0.4012(1)
Mo3 Mo -0.2010(1) 0.0335(1) 0.5015(1)
Mo4 Mo -0.0323(1) -0.0387(1) 0.6747(1)
Na1 Na -0.0681(1) 0.2297(1) 0.6654(2)
Na2 Na 0.3034(1) 0.4467(2) 0.5824(2)
Cl1 Cl 0.5787(1) 0.1302(2) 0.5533(2)
O1 O -0.0574(2) 0.0455(2) 0.5261(2)
O2 O 0.0206(2) 0.1465(2) 0.4405(2)
O3 O 0.0756(2) -0.0176(2) 0.6638(2)
O4 O -0.1974(2) 0.1028(2) 0.3873(2)
O5 O -0.1443(2) -0.0585(2) 0.6063(3)
O6 O 0.1678(2) 0.0871(2) 0.5820(2)
O7 O -0.2989(2) -0.0017(3) 0.4650(3)
O8 O 0.0597(2) 0.1870(2) 0.6417(2)
O9 O -0.0940(2) 0.2536(2) 0.4837(3)
O10 O -0.1211(2) 0.2199(3) 0.2903(2)
O11 O -0.1917(2) 0.1334(3) 0.5753(3)
O12 O -0.0320(2) 0.0671(3) 0.7367(3)
O13 O -0.0066(2) -0.1281(3) 0.7618(3)
O14 O 0.3086(2) 0.5781(3) 0.4715(3)
O15 O 0.3215(2) 0.6041(3) 0.6681(3)
O16 O 0.2138(3) 0.4552(4) 0.6684(4)
O17 O 0.1689(3) 0.3891(3) 0.4787(3)
O18 O 0.4204(3) 0.3710(4) 0.7037(4)
N1 N 0.2858(3) 0.3820(4) 0.3909(4)
C1 C 0.4922(4) 0.2026(5) 0.5075(5)
C2 C 0.4997(4) 0.3030(5) 0.5100(5)
C3 C 0.4317(3) 0.3609(5) 0.4734(4)
C4 C 0.3544(3) 0.3190(4) 0.4296(4)
C5 C 0.3486(4) 0.2179(5) 0.4301(5)
C6 C 0.4176(4) 0.16007(5) 0.4679(5)
C7 C 0.2940(4) 0.4703(5) 0.3380(5)
C8 C 0.2619(4) 0.5598(5) 0.3703(5)
C9 C 0.2842(5) 0.6670(5) 0.5024(5)
C10 C 0.3341(5) 0.6811(5) 0.6104(5)
C11 C 0.2563(4) 0.6237(5) 0.7005(5)
C12 C 0.2360(5) 0.5323(6) 0.7389(6)
C13 C 0.1305(5) 0.4585(7) 0.6012(6)
C14 C 0.1163(5) 0.3785(7) 0.5292(6)
C15 C 0.1666(4) 0.3096(5) 0.4131(5)
C16 C 0.2050(4) 0.3401(6) 0.3455(5)
C17 C 0.3328(5) 0.2342(5) 0.6735(5)
C18 C 0.4156(5) 0.2665(5) 0.7175(6)
C19 C 0.5048(5) 0.4068(7) 0.7566(7)
C20 C 0.5116(6) 0.5042(7) 0.7444(9)
O1B O 0.0574(2) -0.0455(2) 0.4739(2)
O3B O -0.0756(2) 0.0176(2) 0.3362(2)
O6B O -0.1678(2) -0.0871(2) 0.4180(2)
O2B O -0.0206(2) -0.1465(2) 0.5595(2)
O10C O -0.1211(2) 0.2801(3) 0.7903(2)
O13A O 0.0066(2) 0.3719(3) 0.7382(3)
Mo1B Mo -0.0666(1) -0.0899(1) 0.4276(1)
Mo4B Mo 0.0323(1) 0.0387(1) 0.3253(1)
Mo2B Mo 0.0991(1) -0.1629(1) 0.5988(1)
Mo3B Mo 0.2010(1) -0.0335(1) 0.4985(1)
Na1C Na -0.0681(1) 0.2703(1) 0.1654(2)
Na1A Na 0.0681(1) -0.2703(1) 0.8346(2)
#END
