
#######################################################################
#
#                 Cambridge Crystallographic Data Centre
#                                CCDC
#
#######################################################################
#
# If this CIF has been generated from an entry in the Cambridge
# Structural Database, then it will include bibliographic, chemical,
# crystal, experimental, refinement or atomic coordinate data resulting
# from the CCDC's data processing and validation procedures.
#
#######################################################################

data_CSD_CIF_RECREX
_audit_creation_date 2006-06-21
_audit_creation_method CSD-ConQuest-V1
_database_code_CSD RECREX
_database_code_depnum_ccdc_archive 'CCDC 216859'
_chemical_formula_sum 'C48 H74 Cd1 N4 Na2 O13 S4'
_chemical_formula_moiety
;
(C20 H38 Na1 O7 1+)n,n(C28 H36 Cd1 N4 Na1 O6 S4 1-)
;
_journal_coden_Cambridge 960
_journal_volume 54
_journal_year 2006
_journal_page_first 115
_journal_name_full 'J.Inclusion Phenom.Macrocyclic Chem. '
loop_
_publ_author_name
"Feng-Ying Dong"
"Jian-Min Dou"
"Da-Cheng Li"
"Xi-Ke Gao"
"Da-Qi Wang"
_chemical_name_systematic
;
catena-(Aqua-(cis-syn-cis-dicyclohexyl-18-crown-6)-sodium 
bis(\m~2~-maleonitriledithiolato-N,S,S')-(cis-syn-cis-dicyclohexyl-18-crown-6)
-cadmium-sodium)
;
_chemical_melting_point 425.15
_cell_volume   2906.044
_exptl_crystal_colour 'colorless'
_exptl_crystal_density_diffrn 1.373
_exptl_special_details
;
Melting point range 425.15-426.15K

;
_exptl_crystal_preparation 'diethyl ether/1,2-dichloroethane'
_diffrn_ambient_temperature 293
#These two values have been output from a single CSD field.
_refine_ls_R_factor_gt 0.0577
_refine_ls_wR_factor_gt 0.0577
_symmetry_cell_setting triclinic
_symmetry_space_group_name_H-M 'P -1'
_symmetry_Int_Tables_number 2
loop_
_symmetry_equiv_pos_site_id
_symmetry_equiv_pos_as_xyz
1 x,y,z
2 -x,-y,-z
_cell_length_a 13.547(14)
_cell_length_b 14.134(15)
_cell_length_c 16.465(16)
_cell_angle_alpha 68.021(15)
_cell_angle_beta 83.919(16)
_cell_angle_gamma 89.104(16)
_cell_formula_units_Z 2
loop_
_atom_type_symbol
_atom_type_radius_bond
C 0.68
H 0.23
Cd 1.69
N 0.68
Na 1.81
O 0.68
S 1.02
loop_
_atom_site_label
_atom_site_type_symbol
_atom_site_fract_x
_atom_site_fract_y
_atom_site_fract_z
Cd1 Cd 0.78462(3) 0.84756(3) 0.76553(3)
Na1 Na 0.74050(15) 0.24385(15) 1.00597(13)
Na2 Na 0.23381(16) 0.67301(19) 0.53795(15)
N1 N 0.7274(4) 0.4163(4) 0.8728(4)
N2 N 0.5474(4) 0.5584(4) 0.6969(3)
N3 N 0.7875(4) 1.1871(4) 0.8775(3)
N4 N 1.0088(6) 1.2157(6) 0.6971(6)
O1 O 0.5897(3) 0.1293(3) 1.0181(3)
O2 O 0.5501(3) 0.3183(3) 1.0236(3)
O3 O 0.6963(3) 0.2953(4) 1.1410(3)
O4 O 0.8742(3) 0.3497(3) 1.0353(3)
O5 O 0.9244(3) 0.1653(3) 1.0335(3)
O6 O 0.7466(3) 0.0558(3) 1.1134(3)
O7 O 0.2476(3) 0.5236(3) 0.4752(2)
O8 O 0.1471(3) 0.5012(3) 0.6347(2)
O9 O 0.0584(3) 0.6877(3) 0.5910(3)
O10 O 0.1802(3) 0.8561(3) 0.5676(3)
O11 O 0.3587(3) 0.8508(3) 0.4708(3)
O12 O 0.2970(3) 0.7288(3) 0.3804(2)
O13 O 0.3834(4) 0.6484(4) 0.5930(4)
S1 S 0.83058(11) 0.66415(10) 0.83634(10)
S2 S 0.66568(13) 0.79263(11) 0.68264(11)
S3 S 0.71793(11) 0.95792(11) 0.84725(10)
S4 S 0.92462(11) 0.97474(11) 0.69515(10)
C1 C 0.5017(4) 0.1825(4) 0.9857(4)
H1 H 0.44890 0.13140 0.99610
C2 C 0.5263(4) 0.2360(4) 0.8864(3)
H2 H 0.54270 0.18560 0.86060
H3 H 0.58380 0.28110 0.87430
C3 C 0.4387(4) 0.2978(5) 0.8444(4)
H4 H 0.45850 0.33630 0.78240
H5 H 0.38440 0.25160 0.84890
C4 C 0.4040(5) 0.3700(5) 0.8886(5)
H6 H 0.34520 0.40380 0.86380
H7 H 0.45530 0.42190 0.87710
C5 C 0.3805(4) 0.3153(5) 0.9865(4)
H8 H 0.32300 0.27040 0.99760
H9 H 0.36300 0.36520 1.01270
C6 C 0.4661(4) 0.2523(5) 1.0316(4)
H10 H 0.44450 0.21280 1.09380
C7 C 0.5441(5) 0.3674(6) 1.0859(5)
H11 H 0.57410 0.43530 1.05750
H12 H 0.47480 0.37450 1.10410
C8 C 0.5914(6) 0.3137(7) 1.1598(6)
H13 H 0.55690 0.24850 1.19110
H14 H 0.58610 0.35140 1.19870
C9 C 0.7611(7) 0.3626(8) 1.1490(6)
H15 H 0.75510 0.35680 1.21000
H16 H 0.74350 0.43130 1.11340
C10 C 0.8628(6) 0.3464(8) 1.1225(6)
H17 H 0.90530 0.39870 1.12670
H18 H 0.88320 0.28060 1.16190
C11 C 0.9730(5) 0.3345(5) 1.0048(4)
H19 H 1.01800 0.37670 1.02090
C12 C 0.9798(4) 0.3729(5) 0.9050(4)
H20 H 0.96470 0.44480 0.88160
H21 H 0.93140 0.33620 0.88760
C13 C 1.0853(5) 0.3572(6) 0.8666(5)
H22 H 1.08840 0.37920 0.80300
H23 H 1.13340 0.39770 0.88020
C14 C 1.1094(5) 0.2464(6) 0.9058(5)
H24 H 1.06360 0.20710 0.88850
H25 H 1.17600 0.23680 0.88260
C15 C 1.1029(5) 0.2077(5) 1.0037(5)
H26 H 1.15420 0.24130 1.02100
H27 H 1.11500 0.13510 1.02630
C16 C 1.0032(4) 0.2260(5) 1.0441(4)
H28 H 1.00650 0.20840 1.10730
C17 C 0.9181(6) 0.0646(6) 1.0991(8)
H29 H 0.97180 0.02640 1.08340
H30 H 0.93090 0.06980 1.15420
C18 C 0.8394(6) 0.0124(6) 1.1136(6)
H31 H 0.84070 -0.04230 1.17070
H32 H 0.84300 -0.01930 1.07040
C19 C 0.6685(5) -0.0080(5) 1.1132(5)
H33 H 0.65990 -0.06540 1.16910
H34 H 0.68440 -0.03430 1.06690
C20 C 0.5764(5) 0.0478(5) 1.0991(4)
H35 H 0.52280 0.00290 1.09930
H36 H 0.55910 0.07290 1.14590
C21 C 0.1904(4) 0.4306(5) 0.5216(4)
H37 H 0.12320 0.44050 0.50330
C22 C 0.2335(5) 0.3401(5) 0.5046(4)
H38 H 0.24020 0.35470 0.44180
H39 H 0.18860 0.28150 0.53340
C23 C 0.3341(6) 0.3152(5) 0.5387(5)
H40 H 0.38070 0.37150 0.50650
H41 H 0.35910 0.25500 0.52940
C24 C 0.3260(5) 0.2962(5) 0.6362(5)
H42 H 0.39110 0.28250 0.65700
H43 H 0.28300 0.23700 0.66890
C25 C 0.2835(4) 0.3897(5) 0.6523(4)
H44 H 0.27640 0.37610 0.71490
H45 H 0.32890 0.44780 0.62300
C26 C 0.1840(4) 0.4144(4) 0.6176(4)
H46 H 0.13840 0.35640 0.65040
C27 C 0.0433(4) 0.5125(5) 0.6321(5)
H47 H 0.00880 0.45120 0.67400
H48 H 0.02650 0.52220 0.57380
C28 C 0.0120(5) 0.6002(5) 0.6539(5)
H49 H -0.05950 0.60610 0.65500
H50 H 0.02990 0.59140 0.71180
C29 C 0.0227(7) 0.7773(6) 0.6107(6)
H51 H -0.04690 0.78700 0.60180
H52 H 0.02940 0.76570 0.67180
C30 C 0.0774(5) 0.8635(6) 0.5563(5)
H53 H 0.05140 0.92200 0.56800
H54 H 0.06950 0.87500 0.49550
C31 C 0.2329(5) 0.9506(5) 0.5190(4)
H55 H 0.21010 0.98030 0.46040
C32 C 0.2172(6) 1.0274(5) 0.5648(5)
H56 H 0.14670 1.03660 0.57610
H57 H 0.24710 1.09300 0.52640
C33 C 0.2639(10) 0.9900(7) 0.6523(5)
H58 H 0.25700 1.04170 0.67780
H59 H 0.22850 0.92870 0.69320
C34 C 0.3708(9) 0.9675(7) 0.6400(6)
H60 H 0.39680 0.94070 0.69670
H61 H 0.40770 1.03000 0.60380
C35 C 0.3839(6) 0.8906(5) 0.5962(4)
H62 H 0.45410 0.87870 0.58660
H63 H 0.35180 0.82640 0.63500
C36 C 0.3407(5) 0.9264(5) 0.5096(4)
H64 H 0.37660 0.98940 0.47050
C37 C 0.3478(5) 0.8890(4) 0.3796(4)
H65 H 0.39240 0.94750 0.34890
H66 H 0.28030 0.91100 0.37040
C38 C 0.3711(5) 0.8073(5) 0.3444(4)
H67 H 0.37350 0.83550 0.28070
H68 H 0.43550 0.77960 0.36000
C39 C 0.3141(5) 0.6510(5) 0.3437(4)
H69 H 0.37860 0.62160 0.35600
H70 H 0.31290 0.68060 0.28030
C40 C 0.2345(6) 0.5705(5) 0.3842(4)
H71 H 0.16950 0.60050 0.37690
H72 H 0.24010 0.52060 0.35660
C41 C 0.7316(4) 0.5025(4) 0.8383(4)
C42 C 0.7393(4) 0.6109(4) 0.7984(3)
C43 C 0.6763(4) 0.6620(4) 0.7376(3)
C44 C 0.6049(4) 0.6027(4) 0.7150(4)
C45 C 0.8009(4) 1.1283(4) 0.8442(4)
C46 C 0.8112(4) 1.0525(4) 0.8072(3)
C47 C 0.8905(4) 1.0597(4) 0.7448(3)
C48 C 0.9557(5) 1.1468(5) 0.7194(5)
H73 H 0.42080 0.62630 0.55350
H74 H 0.37250 0.59080 0.64080
Na1* Na 0.74050(15) 1.24385(15) 1.00597(13)
N3* N 0.7875(4) 0.1871(4) 0.8775(3)
#END
