
#######################################################################
#
#                 Cambridge Crystallographic Data Centre
#                                CCDC
#
#######################################################################
#
# If this CIF has been generated from an entry in the Cambridge
# Structural Database, then it will include bibliographic, chemical,
# crystal, experimental, refinement or atomic coordinate data resulting
# from the CCDC's data processing and validation procedures.
#
#######################################################################

data_CSD_CIF_REFFIT
_audit_creation_date 2013-02-22
_audit_creation_method CSD-ConQuest-V1
_database_code_CSD REFFIT
_database_code_depnum_ccdc_archive 'CCDC 882181'
_chemical_formula_sum 'C130 H100 Mg6 N4 O40'
_chemical_formula_moiety
;
(C112 H66 Mg6 O40 2-)n,2n(C9 H17 N2 1+)
;
_journal_coden_Cambridge 1295
_journal_volume 24
_journal_year 2012
_journal_page_first 166
_journal_name_full 'Inorg.Chem.Commun. '
loop_
_publ_author_name
"Zhao-Feng Wu"
"Mei-Ling Feng"
"Bing Hu"
"Bin Tan"
"Xiao-Ying Huang"
_chemical_name_systematic
;
catena-(bis(1-n-Butyl-2,3-dimethylimidazolium) 
tetrakis(\m~4~-4,4'-oxybis(benzoato)-O,O,O',O'',O''')-bis(\m~4~-4,4'-oxybis(be
nzoato)-O,O',O'',O''')-bis(\m~3~-hydrogen 
4,4'-oxybis(benzoato)-O,O',O'')-hexa-magnesium)
;
_cell_volume   2922.990
_exptl_crystal_colour 'colorless'
_exptl_crystal_density_diffrn 1.423
_exptl_crystal_description 'block'
_diffrn_ambient_temperature 293
_refine_special_details
;
C57A,C58A,C59A,C60A,C61A,C62A,C63A,C64A,C65A,N1A,N2A and 
C57B,C58B,C59B,C60B,C61B,C62B,C63B,C64B,C65B,N1B,N2B disordered over two 
sites with occupancies 0.677:0.323.
;
#These two values have been output from a single CSD field.
_refine_ls_R_factor_gt 0.0356
_refine_ls_wR_factor_gt 0.0356
_symmetry_cell_setting triclinic
_symmetry_space_group_name_H-M 'P -1'
_symmetry_Int_Tables_number 2
loop_
_symmetry_equiv_pos_site_id
_symmetry_equiv_pos_as_xyz
1 x,y,z
2 -x,-y,-z
_cell_length_a 10.3169(2)
_cell_length_b 14.5910(4)
_cell_length_c 19.9242(6)
_cell_angle_alpha 81.023(2)
_cell_angle_beta 87.629(2)
_cell_angle_gamma 80.676(2)
_cell_formula_units_Z 1
loop_
_atom_type_symbol
_atom_type_radius_bond
C 0.68
H 0.23
Mg 1.36
N 0.68
O 0.68
loop_
_atom_site_label
_atom_site_type_symbol
_atom_site_fract_x
_atom_site_fract_y
_atom_site_fract_z
Mg1 Mg 0.70203(5) 0.38483(4) 0.13687(2)
Mg2 Mg 0.50000 0.50000 0.00000
Mg3 Mg 0.20038(5) 0.85490(4) 0.61557(2)
Mg4 Mg 0.00000 1.00000 0.50000
O1 O 0.64049(11) 0.51712(8) 0.15245(5)
O2 O 0.53791(11) 0.59490(8) 0.05927(5)
O3 O 0.50901(12) 0.92537(8) 0.23378(6)
O4 O 0.37268(11) 0.87500(9) 0.55150(5)
O5 O 0.17623(10) 0.90703(8) 0.51062(5)
O6 O 0.80034(12) 1.24186(8) 0.12544(6)
O7 O 0.72686(13) 1.12641(9) 0.19581(6)
H1 H 0.718(2) 1.1676(18) 0.2244(13)
O8 O 0.83705(14) 0.94505(10) -0.07437(7)
O9 O 0.46012(10) 0.67698(8) -0.14910(5)
O10 O 0.59285(10) 0.57407(8) -0.07800(5)
O11 O 0.76863(11) 0.35569(8) 0.23198(5)
O12 O 0.71921(10) 0.23665(7) 0.30665(5)
O13 O 0.65282(12) 0.56746(11) 0.48513(8)
O14 O 0.91446(10) 0.89892(8) 0.56184(5)
O15 O 1.05893(11) 0.77822(8) 0.60699(6)
O16 O -0.15577(11) 1.03544(8) 0.33698(5)
O17 O -0.04580(11) 0.94158(8) 0.42125(5)
O18 O -0.04726(13) 0.64017(9) 0.23025(6)
O19 O 0.13403(10) 0.58734(8) -0.07123(5)
O20 O 0.32478(9) 0.59174(7) -0.02884(5)
C1 C 0.58303(14) 0.58991(11) 0.11712(7)
C2 C 0.56662(14) 0.67943(11) 0.14733(7)
C3 C 0.50946(17) 0.76358(12) 0.11131(8)
H2 H 0.48370 0.76570 0.06680
C4 C 0.48979(18) 0.84501(12) 0.14032(8)
H3 H 0.45150 0.90150 0.11550
C5 C 0.52722(16) 0.84170(11) 0.20606(8)
C6 C 0.58678(17) 0.75926(12) 0.24238(8)
H4 H 0.61350 0.75780 0.28660
C7 C 0.60687(16) 0.67832(12) 0.21297(8)
H5 H 0.64790 0.62240 0.23750
C8 C 0.45685(16) 0.91977(11) 0.29955(8)
C9 C 0.52702(17) 0.94300(13) 0.34974(9)
H6 H 0.60810 0.96240 0.33980
C10 C 0.47614(16) 0.93729(13) 0.41524(8)
H7 H 0.52460 0.95140 0.44960
C11 C 0.35419(15) 0.91093(11) 0.43044(8)
C12 C 0.28224(17) 0.89165(13) 0.37830(8)
H8 H 0.19840 0.87650 0.38730
C13 C 0.33453(17) 0.89482(13) 0.31320(9)
H9 H 0.28710 0.88010 0.27870
C14 C 0.29985(15) 0.89875(11) 0.50122(8)
C15 C 0.77015(16) 1.16373(12) 0.13605(9)
C16 C 0.78195(16) 1.10278(12) 0.08282(8)
C17 C 0.84342(18) 1.13247(13) 0.02214(9)
H10 H 0.87460 1.18960 0.01610
C18 C 0.85919(19) 1.07887(13) -0.02939(9)
H11 H 0.90120 1.09930 -0.06980
C19 C 0.81215(18) 0.99456(13) -0.02060(9)
C20 C 0.7469(2) 0.96494(14) 0.03868(10)
H12 H 0.71250 0.90910 0.04370
C21 C 0.73299(19) 1.01894(13) 0.09047(9)
H13 H 0.69040 0.99870 0.13080
C22 C 0.76592(19) 0.87251(14) -0.07921(9)
C23 C 0.66151(18) 0.89270(13) -0.12207(10)
H14 H 0.63640 0.95360 -0.14440
C24 C 0.59378(17) 0.82168(12) -0.13184(9)
H15 H 0.52220 0.83510 -0.16060
C25 C 0.63115(15) 0.73137(11) -0.09946(8)
C26 C 0.73626(19) 0.71354(14) -0.05666(10)
H16 H 0.76190 0.65300 -0.03390
C27 C 0.8045(2) 0.78443(16) -0.04687(11)
H17 H 0.87630 0.77150 -0.01830
C28 C 0.55618(14) 0.65449(11) -0.10911(7)
C29 C 0.73868(14) 0.32162(11) 0.29043(8)
C30 C 0.72382(14) 0.38480(11) 0.34361(7)
C31 C 0.77396(15) 0.46844(12) 0.33222(8)
H18 H 0.81960 0.48400 0.29190
C32 C 0.75730(16) 0.52918(12) 0.37980(9)
H19 H 0.79250 0.58480 0.37200
C33 C 0.68806(16) 0.50616(13) 0.43862(9)
C34 C 0.63766(16) 0.42307(13) 0.45136(9)
H20 H 0.59180 0.40790 0.49170
C35 C 0.65588(16) 0.36274(12) 0.40387(8)
H21 H 0.62220 0.30660 0.41230
C36 C 0.73550(17) 0.62706(14) 0.50108(9)
C37 C 0.68267(18) 0.71895(15) 0.50002(10)
H22 H 0.59850 0.74130 0.48360
C38 C 0.75493(17) 0.77864(13) 0.52347(9)
H23 H 0.71950 0.84170 0.52200
C39 C 0.87929(15) 0.74626(11) 0.54907(8)
C40 C 0.93121(16) 0.65308(12) 0.54909(9)
H24 H 1.01500 0.63020 0.56570
C41 C 0.85966(18) 0.59306(14) 0.52452(10)
H25 H 0.89560 0.53050 0.52400
C42 C 0.95611(15) 0.81294(12) 0.57426(7)
C43 C -0.09474(15) 0.95705(12) 0.36374(8)
C44 C -0.08000(14) 0.87537(11) 0.32548(7)
C45 C -0.10522(17) 0.88656(13) 0.25683(8)
H26 H -0.13270 0.94630 0.23310
C46 C -0.08979(19) 0.80920(13) 0.22323(9)
H27 H -0.10490 0.81680 0.17690
C47 C -0.05202(16) 0.72122(12) 0.25887(8)
C48 C -0.02650(16) 0.70878(12) 0.32715(8)
H28 H -0.00030 0.64890 0.35080
C49 C -0.04023(16) 0.78620(12) 0.36010(8)
H29 H -0.02250 0.77830 0.40620
C50 C 0.01335(17) 0.63578(11) 0.16697(8)
C51 C -0.05213(16) 0.60244(12) 0.11968(9)
H30 H -0.13680 0.58900 0.12880
C52 C 0.00966(15) 0.58914(12) 0.05850(8)
H31 H -0.03510 0.56850 0.02560
C53 C 0.13688(14) 0.60586(11) 0.04514(7)
C54 C 0.20201(16) 0.63917(12) 0.09390(8)
H32 H 0.28780 0.65050 0.08570
C55 C 0.13942(17) 0.65541(13) 0.15443(8)
H33 H 0.18180 0.67940 0.18650
C56 C 0.20121(15) 0.59244(10) -0.02139(7)
N1 N 0.1781(6) 0.2166(6) 0.2622(3)
N2 N 0.3000(3) 0.3201(3) 0.26710(16)
C57 C 0.2836(4) 0.1725(3) 0.30018(19)
H34 H 0.29930 0.10970 0.31980
C58 C 0.3589(6) 0.2363(3) 0.3035(3)
H35 H 0.43790 0.22670 0.32640
C59 C 0.1912(4) 0.3065(3) 0.24191(17)
C60 C 0.0691(4) 0.1701(3) 0.2432(2)
H36 H -0.01280 0.21160 0.24510
H37 H 0.06560 0.11320 0.27430
H38 H 0.08440 0.15550 0.19790
C61 C 0.1002(4) 0.3748(5) 0.1975(2)
H39 H 0.14670 0.42170 0.17290
H40 H 0.03110 0.40410 0.22450
H41 H 0.06310 0.34320 0.16590
C62 C 0.3622(8) 0.4059(11) 0.2613(8)
H42 H 0.36000 0.43520 0.21410
H43 H 0.45370 0.38720 0.27360
C63 C 0.2991(15) 0.4795(11) 0.3051(9)
H44 H 0.20970 0.50680 0.29500
H45 H 0.30060 0.44350 0.34980
C64 C 0.3877(16) 0.5450(13) 0.3066(10)
H46 H 0.40530 0.57310 0.26040
H47 H 0.47020 0.51140 0.32550
C65 C 0.334(2) 0.6250(15) 0.3493(13)
H48 H 0.40320 0.65890 0.35620
H49 H 0.30140 0.59780 0.39250
H50 H 0.26380 0.66710 0.32530
C66? C 0.0802(9) 0.2995(6) 0.2155(4)
C67? C 0.1335(11) 0.3789(10) 0.2168(5)
C68? C 0.2603(8) 0.2605(7) 0.2687(4)
C69? C 0.1380(8) 0.1306(8) 0.2606(5)
C70? C 0.3745(13) 0.1982(9) 0.3045(7)
C71? C 0.328(2) 0.418(3) 0.2508(18)
C72? C 0.312(3) 0.460(3) 0.3139(19)
C73? C 0.369(4) 0.559(3) 0.308(2)
C74? C 0.346(5) 0.605(3) 0.362(3)
H51? H 0.00150 0.29760 0.19500
H52? H 0.09550 0.44010 0.20010
H53? H 0.21490 0.09690 0.28400
H54? H 0.13010 0.10620 0.21910
H55? H 0.06170 0.12310 0.28880
H56? H 0.34300 0.15060 0.33700
H57? H 0.42190 0.23510 0.32760
H58? H 0.43160 0.16910 0.27200
H59? H 0.31210 0.46760 0.21240
H60? H 0.41860 0.38750 0.24730
H61? H 0.35650 0.41550 0.35030
H62? H 0.21910 0.47050 0.32590
H63? H 0.46290 0.54640 0.30030
H64? H 0.33090 0.60030 0.26850
H65? H 0.39600 0.65620 0.35600
H66? H 0.37290 0.56300 0.40240
H67? H 0.25450 0.62940 0.36480
N3? N 0.1497(16) 0.2326(14) 0.2445(8)
N4? N 0.2483(7) 0.3533(6) 0.2459(4)
Mg1A Mg 0.29797(5) 0.61517(4) -0.13687(2)
Mg1* Mg 0.70203(5) 1.38483(4) 0.13687(2)
Mg1A* Mg 0.29797(5) -0.38483(4) -0.13687(2)
Mg1A** Mg 0.29797(5) 0.61517(4) 0.86313(2)
Mg3A Mg 0.79962(5) 0.14510(4) -0.61557(2)
Mg3A* Mg 0.79962(5) 0.14510(4) 0.38443(2)
Mg3* Mg 1.20038(5) 0.85490(4) 0.61557(2)
Mg3A** Mg -0.20038(5) 1.14510(4) 0.38443(2)
Mg3** Mg 1.20038(5) -0.14510(4) -0.38443(2)
Mg3A*** Mg -0.20038(5) 0.14510(4) 0.38443(2)
Mg4* Mg 1.00000 1.00000 0.50000
Mg4** Mg 1.00000 0.00000 -0.50000
Mg4*** Mg 0.00000 0.00000 0.50000
O1A O 0.35951(11) 0.48288(8) -0.15245(5)
O2A O 0.46209(11) 0.40510(8) -0.05927(5)
O3A O 0.49099(12) 0.07463(8) -0.23378(6)
O4A O 0.62732(11) 0.12500(9) -0.55150(5)
O5A O 0.82377(10) 0.09297(8) -0.51062(5)
O5A* O -0.17623(10) 1.09297(8) 0.48938(5)
O6A O 0.19966(12) -0.24186(8) -0.12544(6)
O6* O 0.80034(12) 0.24186(8) 0.12544(6)
O6A* O 0.19966(12) 0.75814(8) -0.12544(6)
O7A O 0.27314(13) -0.12641(9) -0.19581(6)
H1A H 0.282(2) -0.1676(18) -0.2244(13)
O8A O 0.16295(14) 0.05495(10) 0.07437(7)
O9A O 0.53988(10) 0.32302(8) 0.14910(5)
O10A O 0.40715(10) 0.42593(8) 0.07800(5)
O11A O 0.23137(11) 0.64431(8) 0.76802(5)
O11A* O 0.23137(11) 0.64431(8) -0.23198(5)
O12A O 0.28079(10) 0.76335(7) 0.69335(5)
O12* O 0.71921(10) 0.23665(7) -0.69335(5)
O13A O 0.34718(12) 0.43254(11) 0.51487(8)
O14A O 0.08554(10) 0.10108(8) 0.43816(5)
O14* O -0.08554(10) 0.89892(8) 0.56184(5)
O14A* O 0.08554(10) 1.10108(8) 0.43816(5)
O15A O -0.05893(11) 0.22178(8) 0.39301(6)
O15* O 0.05893(11) 0.77822(8) 0.60699(6)
O15A* O 0.94107(11) 0.22178(8) -0.60699(6)
O16A O 1.15577(11) -0.03544(8) -0.33698(5)
O16A* O 0.15577(11) 0.96456(8) 0.66302(5)
O16* O 0.84423(11) 0.03544(8) -0.66302(5)
O17A O 1.04580(11) 0.05842(8) -0.42125(5)
O17A* O 0.04580(11) 1.05842(8) 0.57875(5)
O18A O 1.04726(13) 0.35983(9) -0.23025(6)
O19A O 0.86597(10) 0.41266(8) 0.07123(5)
O20A O 0.67522(9) 0.40826(7) 0.02884(5)
C1A C 0.41697(14) 0.41009(11) -0.11712(7)
C2A C 0.43338(14) 0.32057(11) -0.14733(7)
C3A C 0.49054(17) 0.23642(12) -0.11131(8)
H2A H 0.51630 0.23430 -0.06680
C4A C 0.51021(18) 0.15499(12) -0.14032(8)
H3A H 0.54850 0.09850 -0.11550
C5A C 0.47278(16) 0.15830(11) -0.20606(8)
C6A C 0.41322(17) 0.24074(12) -0.24238(8)
H4A H 0.38650 0.24220 -0.28660
C7A C 0.39313(16) 0.32168(12) -0.21297(8)
H5A H 0.35210 0.37760 -0.23750
C8A C 0.54315(16) 0.08023(11) -0.29955(8)
C9A C 0.47298(17) 0.05700(13) -0.34974(9)
H6A H 0.39190 0.03760 -0.33980
C10A C 0.52386(16) 0.06271(13) -0.41524(8)
H7A H 0.47540 0.04860 -0.44960
C11A C 0.64581(15) 0.08907(11) -0.43044(8)
C12A C 0.71776(17) 0.10835(13) -0.37830(8)
H8A H 0.80160 0.12350 -0.38730
C13A C 0.66547(17) 0.10518(13) -0.31320(9)
H9A H 0.71290 0.11990 -0.27870
C14A C 0.70015(15) 0.10125(11) -0.50122(8)
C15A C 0.22985(16) -0.16373(12) -0.13605(9)
C16A C 0.21805(16) -0.10278(12) -0.08282(8)
C17A C 0.15658(18) -0.13247(13) -0.02214(9)
H10A H 0.12540 -0.18960 -0.01610
C18A C 0.14081(19) -0.07887(13) 0.02939(9)
H11A H 0.09880 -0.09930 0.06980
C19A C 0.18785(18) 0.00544(13) 0.02060(9)
C20A C 0.2531(2) 0.03506(14) -0.03868(10)
H12A H 0.28750 0.09090 -0.04370
C21A C 0.26701(19) -0.01894(13) -0.09047(9)
H13A H 0.30960 0.00130 -0.13080
C22A C 0.23408(19) 0.12749(14) 0.07921(9)
C23A C 0.33849(18) 0.10730(13) 0.12207(10)
H14A H 0.36360 0.04640 0.14440
C24A C 0.40622(17) 0.17832(12) 0.13184(9)
H15A H 0.47780 0.16490 0.16060
C25A C 0.36885(15) 0.26863(11) 0.09946(8)
C26A C 0.26374(19) 0.28646(14) 0.05666(10)
H16A H 0.23810 0.34700 0.03390
C27A C 0.1955(2) 0.21557(16) 0.04687(11)
H17A H 0.12370 0.22850 0.01830
C28A C 0.44382(14) 0.34551(11) 0.10911(7)
C29A C 0.26132(14) 0.67838(11) 0.70957(8)
C30A C 0.27618(14) 0.61520(11) 0.65639(7)
C31A C 0.22604(15) 0.53156(12) 0.66778(8)
H18A H 0.18040 0.51600 0.70810
C32A C 0.24270(16) 0.47082(12) 0.62020(9)
H19A H 0.20750 0.41520 0.62800
C33A C 0.31194(16) 0.49384(13) 0.56138(9)
C34A C 0.36234(16) 0.57693(13) 0.54864(9)
H20A H 0.40820 0.59210 0.50830
C35A C 0.34412(16) 0.63726(12) 0.59613(8)
H21A H 0.37780 0.69340 0.58770
C36A C 0.26450(17) 0.37294(14) 0.49892(9)
C37A C 0.31733(18) 0.28105(15) 0.49998(10)
H22A H 0.40150 0.25870 0.51640
C38A C 0.24507(17) 0.22136(13) 0.47653(9)
H23A H 0.28050 0.15830 0.47800
C39A C 0.12071(15) 0.25374(11) 0.45093(8)
C40A C 0.06879(16) 0.34692(12) 0.45091(9)
H24A H -0.01500 0.36980 0.43430
C41A C 0.14034(18) 0.40694(14) 0.47548(10)
H25A H 0.10440 0.46950 0.47600
C42A C 0.04389(15) 0.18706(12) 0.42574(7)
C43A C 1.09474(15) 0.04295(12) -0.36374(8)
C44A C 1.08000(14) 0.12463(11) -0.32548(7)
C45A C 1.10522(17) 0.11344(13) -0.25683(8)
H26A H 1.13270 0.05370 -0.23310
C46A C 1.08979(19) 0.19080(13) -0.22323(9)
H27A H 1.10490 0.18320 -0.17690
C47A C 1.05202(16) 0.27878(12) -0.25887(8)
C48A C 1.02650(16) 0.29122(12) -0.32715(8)
H28A H 1.00030 0.35110 -0.35080
C49A C 1.04023(16) 0.21380(12) -0.36010(8)
H29A H 1.02250 0.22170 -0.40620
C50A C 0.98665(17) 0.36422(11) -0.16697(8)
C51A C 1.05213(16) 0.39756(12) -0.11968(9)
H30A H 1.13680 0.41100 -0.12880
C52A C 0.99034(15) 0.41086(12) -0.05850(8)
H31A H 1.03510 0.43150 -0.02560
C53A C 0.86312(14) 0.39414(11) -0.04514(7)
C54A C 0.79799(16) 0.36083(12) -0.09390(8)
H32A H 0.71220 0.34950 -0.08570
C55A C 0.86058(17) 0.34459(13) -0.15443(8)
H33A H 0.81820 0.32060 -0.18650
C56A C 0.79879(15) 0.40756(10) 0.02139(7)
#END
