
#######################################################################
#
#                 Cambridge Crystallographic Data Centre
#                                CCDC
#
#######################################################################
#
# If this CIF has been generated from an entry in the Cambridge
# Structural Database, then it will include bibliographic, chemical,
# crystal, experimental, refinement or atomic coordinate data resulting
# from the CCDC's data processing and validation procedures.
#
#######################################################################

data_CSD_CIF_REFMEW
_audit_creation_date 2013-02-22
_audit_creation_method CSD-ConQuest-V1
_database_code_CSD REFMEW
_database_code_depnum_ccdc_archive 'CCDC 840148'
_chemical_formula_sum 'C50 H40 N8 O14 Zn2'
_chemical_formula_moiety
;
(C34 H20 N4 O12 Zn2 2-)n,n(C16 H16 N4 2+),2n(H2 O1)
;
_journal_coden_Cambridge 1295
_journal_volume 24
_journal_year 2012
_journal_page_first 247
_journal_name_full 'Inorg.Chem.Commun. '
loop_
_publ_author_name
"Guo-Dong Feng"
"Luan Jiang"
"Zong-Xiao Li"
"Qiang Chen"
"Xin-Long Wang"
"Kui-Zhan Shao"
"Chun-Yi Sun"
"Lian-Jie Li"
"Ji-Hong Yu"
"Zhong-Min Su"
_chemical_name_systematic
;
catena-(2,2'-(Ethane-1,2-diyl)bis(1H-benzimidazolium) 
bis(\m~3~-benzene-1,3,5-tricarboxylato)-(\m~2~-2,2'-(ethane-1,2-diyl)bis(1H-be
nzimidazole))-di-zinc dihydrate)
;
_cell_volume   4877.351
_exptl_crystal_density_diffrn 1.506
_diffrn_ambient_temperature 293
#These two values have been output from a single CSD field.
_refine_ls_R_factor_gt 0.0419
_refine_ls_wR_factor_gt 0.0419
_symmetry_cell_setting orthorhombic
_symmetry_space_group_name_H-M 'P n a 21'
_symmetry_Int_Tables_number 33
loop_
_symmetry_equiv_pos_site_id
_symmetry_equiv_pos_as_xyz
1 x,y,z
2 -x,-y,1/2+z
3 1/2+x,1/2-y,z
4 1/2-x,1/2+y,1/2+z
_cell_length_a 32.313(2)
_cell_length_b 8.1801(5)
_cell_length_c 18.4522(12)
_cell_angle_alpha 90
_cell_angle_beta 90
_cell_angle_gamma 90
_cell_formula_units_Z 4
loop_
_atom_type_symbol
_atom_type_radius_bond
C 0.68
H 0.23
N 0.68
O 0.68
Zn 1.22
loop_
_atom_site_label
_atom_site_type_symbol
_atom_site_fract_x
_atom_site_fract_y
_atom_site_fract_z
O1 O 0.08244(10) 0.2411(4) -0.02940(17)
O2 O 0.06580(8) 0.1478(3) 0.08050(17)
O3 O 0.48366(8) -0.8724(4) 0.07659(17)
C1 C 0.08425(10) 0.1380(5) 0.0201(2)
O4 O 0.46887(8) -0.6173(4) 0.1103(2)
O5 O 0.31099(8) -0.4813(3) -0.07819(17)
O6 O 0.31687(9) -1.0789(4) -0.07116(18)
C2 C 0.46055(11) -0.7464(5) 0.0782(2)
C3 C 0.40474(11) -0.6190(5) 0.0047(2)
H1 H 0.41780 -0.51890 0.01120
C4 C 0.40104(11) -0.9088(5) 0.0286(2)
H2 H 0.41220 -1.00220 0.04980
C5 C 0.42109(11) -0.7582(5) 0.0355(2)
C6 C 0.34883(11) -0.7787(5) -0.0434(2)
H3 H 0.32480 -0.78660 -0.07080
C7 C 0.36443(10) -0.9173(5) -0.0103(2)
C8 C 0.36819(10) -0.6285(5) -0.0367(2)
C9 C -0.06277(13) -0.5969(7) 0.3138(3)
H4 H -0.08960 -0.55990 0.30580
O7 O 0.37299(9) -0.3739(4) -0.09631(19)
O8 O 0.34311(11) -1.1784(4) 0.03191(18)
C10 C 0.35024(11) -0.4830(5) -0.0727(2)
C11 C 0.33978(10) -1.0728(5) -0.0156(2)
O9 O 0.14902(12) 0.3737(5) -0.1293(3)
O10 O 0.22837(8) 0.3312(4) -0.06765(8)
H5 H 0.43490 -0.32030 0.38120
H6 H 0.45960 -0.49780 0.19260
H7 H 0.07100 -0.79320 0.36900
H8 H 0.18180 -0.61770 0.13510
H9 H 0.30090 -0.44140 0.29960
H10 H 0.20480 0.33860 -0.08530
H11 H 0.12820 0.36910 -0.10030
H12 H 0.31990 -0.24130 0.11880
C12 C 0.38395(14) -0.4646(8) 0.2750(3)
H13 H 0.36880 -0.42430 0.31670
H14 H 0.38020 -0.58210 0.27260
C13 C 0.36718(14) -0.3868(9) 0.2071(3)
H15 H 0.38240 -0.28650 0.19830
H16 H 0.37270 -0.45960 0.16670
Zn1 Zn 0.039580(11) -0.65524(5) 0.11639(4)
Zn2 Zn 0.289220(11) -0.26972(5) -0.10959(4)
N1 N 0.03816(8) -0.6852(4) 0.2248(2)
N2 N 0.21239(9) -0.7462(4) 0.28284(19)
C14 C 0.21065(11) -0.1493(5) -0.0749(2)
O11 O 0.23359(8) -0.2728(3) -0.06739(18)
O12 O 0.06769(8) -0.4555(3) 0.09024(17)
C15 C 0.17038(11) -0.1525(4) -0.0332(2)
O13 O 0.21894(8) -0.0286(3) -0.11285(18)
N3 N 0.0550(1) -0.7663(5) 0.33313(16)
C16 C 0.18348(11) -0.6790(5) 0.2398(2)
C17 C 0.09731(11) -0.1573(5) 0.0452(2)
H17 H 0.07280 -0.15870 0.07160
O14 O 0.13103(8) -0.5627(4) 0.09097(17)
C18 C 0.12101(11) -0.2981(5) 0.0401(2)
C19 C 0.11101(11) -0.7803(5) 0.2405(2)
H18 H 0.12060 -0.88150 0.26210
H19 H 0.11100 -0.79410 0.18830
C20 C 0.14041(11) -0.6416(5) 0.2610(2)
H20 H 0.13920 -0.62360 0.31290
H21 H 0.13160 -0.54180 0.23710
C21 C 0.10627(11) -0.4526(5) 0.0766(2)
C22 C 0.15811(10) -0.2946(5) 0.0026(2)
H22 H 0.17490 -0.38700 0.00140
C23 C 0.00403(11) -0.6634(5) 0.2710(2)
N4 N 0.19747(10) -0.6516(5) 0.17054(15)
C24 C 0.01501(13) -0.7166(6) 0.3401(2)
C25 C 0.23959(12) -0.7013(6) 0.1708(2)
C26 C 0.28634(12) -0.8284(6) 0.2571(3)
H23 H 0.29200 -0.87320 0.30230
C27 C 0.06765(12) -0.7453(5) 0.2660(2)
C28 C 0.14617(11) -0.0133(5) -0.0293(2)
H24 H 0.15420 0.08100 -0.05380
C29 C 0.10979(10) -0.0143(5) 0.0112(2)
C30 C -0.0516(2) -0.6472(8) 0.3822(4)
H25 H -0.07050 -0.63620 0.41980
C31 C -0.03503(11) -0.5999(6) 0.2567(3)
H26 H -0.04220 -0.56140 0.21090
C32 C 0.24797(12) -0.7627(5) 0.2402(2)
C33 C 0.26995(16) -0.6977(8) 0.1170(3)
H27 H 0.26450 -0.65620 0.07110
C34 C 0.31592(14) -0.8233(8) 0.2022(3)
H28 H 0.34210 -0.86570 0.21110
C35 C -0.01297(16) -0.7137(8) 0.3972(3)
H29 H -0.00630 -0.75410 0.44280
C36 C 0.30751(16) -0.7572(8) 0.1348(3)
H30 H 0.32860 -0.75360 0.10050
N5 N 0.44473(11) -0.3468(4) 0.33900(12)
N6 N 0.45867(10) -0.4517(5) 0.23505(13)
C37 C 0.48639(13) -0.3170(6) 0.3272(2)
C38 C 0.49521(13) -0.3839(5) 0.2590(2)
C39 C 0.42941(13) -0.4254(6) 0.2836(2)
C40 C 0.55466(18) -0.2186(8) 0.3354(4)
H31 H 0.57530 -0.16190 0.35980
C41 C 0.53403(14) -0.3740(7) 0.2287(3)
H32 H 0.54010 -0.42240 0.18440
C42 C 0.56325(16) -0.2896(8) 0.2670(4)
H33 H 0.58960 -0.27830 0.24750
C43 C 0.51665(17) -0.2327(7) 0.3654(3)
H34 H 0.51090 -0.18720 0.41050
N7 N 0.30370(12) -0.2691(6) 0.15420(18)
N8 N 0.29499(11) -0.3835(5) 0.26106(16)
C44 C 0.32253(14) -0.3478(7) 0.2072(3)
C45 C 0.26318(15) -0.2367(6) 0.1714(3)
C46 C 0.19459(18) -0.1416(8) 0.1725(4)
H35 H 0.17260 -0.08630 0.15110
C47 C 0.23296(18) -0.1523(7) 0.1344(3)
H36 H 0.23720 -0.10660 0.08890
C48 C 0.25724(13) -0.3064(6) 0.2383(2)
C49 C 0.21947(15) -0.2996(7) 0.2739(3)
H37 H 0.21480 -0.35160 0.31800
C50 C 0.18931(16) -0.2097(8) 0.2389(4)
H38 H 0.16400 -0.19500 0.26220
O2* O 0.06580(8) -0.8522(3) 0.08050(17)
O3B O -0.01634(8) -0.6276(4) 0.07659(17)
O6* O 0.31687(9) -0.0789(4) -0.07116(18)
Zn1* Zn 0.039580(11) 0.34476(5) 0.11639(4)
Zn1B Zn 0.539580(11) -0.84476(5) 0.11639(4)
Zn2C Zn 0.210780(11) -0.76972(5) 0.39041(4)
Zn2* Zn 0.289220(11) -1.26972(5) -0.10959(4)
N2C N 0.28761(9) -0.2462(4) -0.21716(19)
#END
