
#######################################################################
#
#                 Cambridge Crystallographic Data Centre
#                                CCDC
#
#######################################################################
#
# If this CIF has been generated from an entry in the Cambridge
# Structural Database, then it will include bibliographic, chemical,
# crystal, experimental, refinement or atomic coordinate data resulting
# from the CCDC's data processing and validation procedures.
#
#######################################################################

data_CSD_CIF_REGYOT
_audit_creation_date 2013-03-18
_audit_creation_method CSD-ConQuest-V1
_database_code_CSD REGYOT
_database_code_depnum_ccdc_archive 'CCDC 900466'
_chemical_formula_sum 'C310 H394 Cl3 Cu12 N29 O74'
_chemical_formula_moiety
;
(C168 H72 Cl3 Cu12 O48 3-)n,26n(C5 H11 N1 O1),3n(C4 H12 N1 1+)
;
_journal_coden_Cambridge 182
_journal_volume 48
_journal_year 2012
_journal_page_first 12002
_journal_name_full 'Chem.Commun. '
loop_
_publ_author_name
"Yun-Nan Gong"
"Miao Meng"
"Di-Chang Zhong"
"Yong-Liang Huang"
"Long Jiang"
"Tong-Bu Lu"
_chemical_name_systematic
;
catena-(tris(Diethylammonium) 
octakis(\m~6~-triphenylene-2,6,10-tricarboxylato)-tris(\m~4~-chloro)-dodeca-co
pper N,N-diethylformamide solvate)
;
_cell_volume  71237.514
_exptl_crystal_colour 'green'
_exptl_crystal_description 'block'
_diffrn_ambient_temperature 173
_refine_special_details
;
The SQUEEZE/PLATON program has been used to model the cations and solvent 
molecules.
;
#These two values have been output from a single CSD field.
_refine_ls_R_factor_gt 0.0353
_refine_ls_wR_factor_gt 0.0353
_symmetry_cell_setting cubic
_symmetry_space_group_name_H-M 'F m -3 c'
_symmetry_Int_Tables_number 226
loop_
_symmetry_equiv_pos_site_id
_symmetry_equiv_pos_as_xyz
1 x,y,z
2 -y,x,1/2+z
3 -x,-y,z
4 y,-x,1/2+z
5 x,-y,-z
6 y,x,1/2-z
7 -x,y,-z
8 -y,-x,1/2-z
9 z,x,y
10 -x,z,1/2+y
11 -z,-x,y
12 x,-z,1/2+y
13 z,-x,-y
14 x,z,1/2-y
15 -z,x,-y
16 -x,-z,1/2-y
17 y,z,x
18 1/2-z,-y,-x
19 1/2-z,y,x
20 1/2+z,y,-x
21 1/2+z,-y,x
22 y,1/2-z,1/2-x
23 -y,1/2-z,1/2+x
24 -y,1/2+z,1/2-x
25 x,1/2+y,1/2+z
26 -y,1/2+x,z
27 -x,1/2-y,1/2+z
28 y,1/2-x,z
29 x,1/2-y,1/2-z
30 y,1/2+x,-z
31 -x,1/2+y,1/2-z
32 -y,1/2-x,-z
33 z,1/2+x,1/2+y
34 -x,1/2+z,y
35 -z,1/2-x,1/2+y
36 x,1/2-z,y
37 z,1/2-x,1/2-y
38 x,1/2+z,-y
39 -z,1/2+x,1/2-y
40 -x,1/2-z,-y
41 y,1/2+z,1/2+x
42 1/2-z,1/2-y,1/2-x
43 1/2-z,1/2+y,1/2+x
44 1/2+z,1/2+y,1/2-x
45 1/2+z,1/2-y,1/2+x
46 y,-z,-x
47 -y,-z,x
48 -y,z,-x
49 1/2+x,y,1/2+z
50 1/2-y,x,z
51 1/2-x,-y,1/2+z
52 1/2+y,-x,z
53 1/2+x,-y,1/2-z
54 1/2+y,x,-z
55 1/2-x,y,1/2-z
56 1/2-y,-x,-z
57 1/2+z,x,1/2+y
58 1/2-x,z,y
59 1/2-z,-x,1/2+y
60 1/2+x,-z,y
61 1/2+z,-x,1/2-y
62 1/2+x,z,-y
63 1/2-z,x,1/2-y
64 1/2-x,-z,-y
65 1/2+y,z,1/2+x
66 -z,-y,1/2-x
67 -z,y,1/2+x
68 z,y,1/2-x
69 z,-y,1/2+x
70 1/2+y,1/2-z,-x
71 1/2-y,1/2-z,x
72 1/2-y,1/2+z,-x
73 1/2+x,1/2+y,z
74 1/2-y,1/2+x,1/2+z
75 1/2-x,1/2-y,z
76 1/2+y,1/2-x,1/2+z
77 1/2+x,1/2-y,-z
78 1/2+y,1/2+x,1/2-z
79 1/2-x,1/2+y,-z
80 1/2-y,1/2-x,1/2-z
81 1/2+z,1/2+x,y
82 1/2-x,1/2+z,1/2+y
83 1/2-z,1/2-x,y
84 1/2+x,1/2-z,1/2+y
85 1/2+z,1/2-x,-y
86 1/2+x,1/2+z,1/2-y
87 1/2-z,1/2+x,-y
88 1/2-x,1/2-z,1/2-y
89 1/2+y,1/2+z,x
90 -z,1/2-y,-x
91 -z,1/2+y,x
92 z,1/2+y,-x
93 z,1/2-y,x
94 1/2+y,-z,1/2-x
95 1/2-y,-z,1/2+x
96 1/2-y,z,1/2-x
97 -x,-y,-z
98 y,-x,-1/2-z
99 x,y,-z
100 -y,x,-1/2-z
101 -x,y,z
102 -y,-x,-1/2+z
103 x,-y,z
104 y,x,-1/2+z
105 -z,-x,-y
106 x,-z,-1/2-y
107 z,x,-y
108 -x,z,-1/2-y
109 -z,x,y
110 -x,-z,-1/2+y
111 z,-x,y
112 x,z,-1/2+y
113 -y,-z,-x
114 -1/2+z,y,x
115 -1/2+z,-y,-x
116 -1/2-z,-y,x
117 -1/2-z,y,-x
118 -y,-1/2+z,-1/2+x
119 y,-1/2+z,-1/2-x
120 y,-1/2-z,-1/2+x
121 -x,-1/2-y,-1/2-z
122 y,-1/2-x,-z
123 x,-1/2+y,-1/2-z
124 -y,-1/2+x,-z
125 -x,-1/2+y,-1/2+z
126 -y,-1/2-x,z
127 x,-1/2-y,-1/2+z
128 y,-1/2+x,z
129 -z,-1/2-x,-1/2-y
130 x,-1/2-z,-y
131 z,-1/2+x,-1/2-y
132 -x,-1/2+z,-y
133 -z,-1/2+x,-1/2+y
134 -x,-1/2-z,y
135 z,-1/2-x,-1/2+y
136 x,-1/2+z,y
137 -y,-1/2-z,-1/2-x
138 -1/2+z,-1/2+y,-1/2+x
139 -1/2+z,-1/2-y,-1/2-x
140 -1/2-z,-1/2-y,-1/2+x
141 -1/2-z,-1/2+y,-1/2-x
142 -y,z,x
143 y,z,-x
144 y,-z,x
145 -1/2-x,-y,-1/2-z
146 -1/2+y,-x,-z
147 -1/2+x,y,-1/2-z
148 -1/2-y,x,-z
149 -1/2-x,y,-1/2+z
150 -1/2-y,-x,z
151 -1/2+x,-y,-1/2+z
152 -1/2+y,x,z
153 -1/2-z,-x,-1/2-y
154 -1/2+x,-z,-y
155 -1/2+z,x,-1/2-y
156 -1/2-x,z,-y
157 -1/2-z,x,-1/2+y
158 -1/2-x,-z,y
159 -1/2+z,-x,-1/2+y
160 -1/2+x,z,y
161 -1/2-y,-z,-1/2-x
162 z,y,-1/2+x
163 z,-y,-1/2-x
164 -z,-y,-1/2+x
165 -z,y,-1/2-x
166 -1/2-y,-1/2+z,x
167 -1/2+y,-1/2+z,-x
168 -1/2+y,-1/2-z,x
169 -1/2-x,-1/2-y,-z
170 -1/2+y,-1/2-x,-1/2-z
171 -1/2+x,-1/2+y,-z
172 -1/2-y,-1/2+x,-1/2-z
173 -1/2-x,-1/2+y,z
174 -1/2-y,-1/2-x,-1/2+z
175 -1/2+x,-1/2-y,z
176 -1/2+y,-1/2+x,-1/2+z
177 -1/2-z,-1/2-x,-y
178 -1/2+x,-1/2-z,-1/2-y
179 -1/2+z,-1/2+x,-y
180 -1/2-x,-1/2+z,-1/2-y
181 -1/2-z,-1/2+x,y
182 -1/2-x,-1/2-z,-1/2+y
183 -1/2+z,-1/2-x,y
184 -1/2+x,-1/2+z,-1/2+y
185 -1/2-y,-1/2-z,-x
186 z,-1/2+y,x
187 z,-1/2-y,-x
188 -z,-1/2-y,x
189 -z,-1/2+y,-x
190 -1/2-y,z,-1/2+x
191 -1/2+y,z,-1/2-x
192 -1/2+y,-z,-1/2+x
_cell_length_a 41.4543(15)
_cell_length_b 41.4543(15)
_cell_length_c 41.4543(15)
_cell_angle_alpha 90
_cell_angle_beta 90
_cell_angle_gamma 90
_cell_formula_units_Z 4
loop_
_atom_type_symbol
_atom_type_radius_bond
C 0.68
H 0.23
Cl 0.99
Cu 1.32
O 0.68
loop_
_atom_site_label
_atom_site_type_symbol
_atom_site_fract_x
_atom_site_fract_y
_atom_site_fract_z
Cu1 Cu 0.262905(6) 0.190603(6) 0.00000
Cl1 Cl 0.25000 0.25000 0.00000
O1 O 0.23442(3) 0.17463(4) 0.03324(3)
C1 C 0.20807(4) 0.18324(4) 0.04406(4)
C2 C 0.19621(4) 0.16588(5) 0.07350(4)
C3 C 0.16920(4) 0.17675(5) 0.08944(4)
H1 H 0.15840 0.19470 0.08150
C4 C 0.15746(5) 0.16165(5) 0.11729(5)
C5 C 0.17366(5) 0.13404(5) 0.12892(5)
C6 C 0.20130(6) 0.12362(6) 0.11241(6)
H2 H 0.21240 0.10570 0.12000
C7 C 0.21242(5) 0.13914(6) 0.08546(5)
H3 H 0.23090 0.13170 0.07510
O2 O 0.19033(3) 0.20463(4) 0.03349(4)
Cu1P Cu 0.190603(6) 0.000000(6) 0.26290
Cu1H Cu 0.000000(6) 0.262905(6) 0.19060
Cu1SA Cu 0.190603(6) 0.000000(6) -0.26290
Cu1N Cu 0.000000(6) 0.262905(6) -0.19060
Cu1WA Cu 0.309397(6) 0.262905(6) 0.00000
Cu1R Cu 0.500000(6) 0.190603(6) 0.26290
Cu1EB Cu 0.237095(6) 0.000000(6) 0.19060
Cu1S Cu 0.500000(6) 0.190603(6) -0.26290
Cu1KB Cu 0.237095(6) 0.000000(6) -0.19060
Cu1AA Cu 0.190603(6) 0.237095(6) 0.00000
Cu1OB Cu 0.000000(6) 0.190603(6) 0.23710
Cu1VB Cu 0.237095(6) 0.309397(6) 0.00000
Cu1NB Cu 0.000000(6) 0.190603(6) -0.23710
Cu1DC Cu 0.500000(6) 0.237095(6) 0.19060
Cu1QC Cu 0.309397(6) 0.000000(6) 0.23710
Cu1FC Cu 0.500000(6) 0.237095(6) -0.19060
Cu1PC Cu 0.309397(6) 0.000000(6) -0.23710
Cu1M Cu 0.262905(6) 0.000000(6) 0.30940
Cu1J Cu 0.000000(6) -0.262905(6) 0.19060
Cu1MB Cu 0.000000(6) -0.190603(6) 0.23710
Cu1D Cu 0.262905(6) -0.190603(6) 0.00000
Cu1CA Cu 0.190603(6) -0.237095(6) 0.00000
Cu1E Cu 0.190603(6) 0.262905(6) 0.50000
Cu1BB Cu 0.237095(6) 0.190603(6) 0.50000
Cu1JA Cu 0.000000(6) 0.237095(6) 0.30940
Cu1C Cu 0.190603(6) -0.262905(6) 0.50000
Cu1XA Cu 0.237095(6) -0.190603(6) 0.50000
Cu1LA Cu 0.000000(6) -0.237095(6) 0.30940
Cu1NC Cu 0.000000(6) 0.309397(6) 0.26290
Cu1F Cu -0.262905(6) 0.190603(6) 0.00000
Cu1EA Cu -0.190603(6) 0.237095(6) 0.00000
Cu1TA Cu -0.190603(6) 0.000000(6) 0.26290
Cu1GB Cu -0.237095(6) 0.000000(6) 0.19060
Cl1M Cl 0.25000 0.00000 0.25000
Cl1H Cl 0.00000 0.25000 0.25000
Cl1K Cl 0.25000 0.00000 -0.25000
Cl1N Cl 0.00000 0.25000 -0.25000
Cl1R Cl 0.50000 0.25000 0.25000
Cl1S Cl 0.50000 0.25000 -0.25000
O1P O 0.17463(3) 0.03324(4) 0.23442(3)
O1H O 0.03324(3) 0.23442(4) 0.17463(3)
O1TC O 0.23442(3) 0.17463(4) -0.03324(3)
O1LE O 0.17463(3) 0.03324(4) -0.23442(3)
O1BD O 0.03324(3) 0.23442(4) -0.17463(3)
O1WA O 0.32537(3) 0.23442(4) 0.03324(3)
O1R O 0.46676(3) 0.17463(4) 0.23442(3)
O1EB O 0.26558(3) 0.03324(4) 0.17463(3)
O1QE O 0.32537(3) 0.23442(4) -0.03324(3)
O1LD O 0.46676(3) 0.17463(4) -0.23442(3)
O1YE O 0.26558(3) 0.03324(4) -0.17463(3)
O1ME O 0.17463(3) -0.03324(4) 0.23442(3)
O1FD O 0.03324(3) -0.23442(4) 0.17463(3)
O1XC O 0.23442(3) -0.17463(4) 0.03324(3)
O1M O 0.23442(3) 0.03324(4) 0.32537(3)
O1E O 0.17463(3) 0.23442(4) 0.46676(3)
O1OB O 0.03324(3) 0.17463(4) 0.26558(3)
O1AD O 0.23442(3) -0.03324(4) 0.32537(3)
O1SC O 0.17463(3) -0.23442(4) 0.46676(3)
O1FF O 0.03324(3) -0.17463(4) 0.26558(3)
O1DD O -0.03324(3) 0.23442(4) 0.17463(3)
O1VC O -0.23442(3) 0.17463(4) 0.03324(3)
O1KE O -0.17463(3) 0.03324(4) 0.23442(3)
O1SA O 0.17463(3) -0.03324(4) -0.23442(3)
O1N O -0.03324(3) 0.23442(4) -0.17463(3)
O1ID O 0.53324(3) 0.17463(4) 0.23442(3)
O1AF O 0.26558(3) -0.03324(4) 0.17463(3)
O1S O 0.53324(3) 0.17463(4) -0.23442(3)
O1KB O 0.26558(3) -0.03324(4) -0.17463(3)
O1AA O 0.17463(3) 0.26558(4) 0.03324(3)
O1QD O 0.17463(3) 0.26558(4) -0.03324(3)
O1HF O -0.03324(3) 0.17463(4) 0.26558(3)
C1P C 0.18324(4) 0.04406(4) 0.20807(4)
C1H C 0.04406(4) 0.20807(4) 0.18324(4)
C1TC C 0.20807(4) 0.18324(4) -0.04406(4)
C1LE C 0.18324(4) 0.04406(4) -0.20807(4)
C1BD C 0.04406(4) 0.20807(4) -0.18324(4)
C1WA C 0.31676(4) 0.20807(4) 0.04406(4)
C1R C 0.45594(4) 0.18324(4) 0.20807(4)
C1EB C 0.29193(4) 0.04406(4) 0.18324(4)
C1QE C 0.31676(4) 0.20807(4) -0.04406(4)
C1LD C 0.45594(4) 0.18324(4) -0.20807(4)
C1YE C 0.29193(4) 0.04406(4) -0.18324(4)
C1ME C 0.18324(4) -0.04406(4) 0.20807(4)
C1FD C 0.04406(4) -0.20807(4) 0.18324(4)
C1XC C 0.20807(4) -0.18324(4) 0.04406(4)
C1M C 0.20807(4) 0.04406(4) 0.31676(4)
C1E C 0.18324(4) 0.20807(4) 0.45594(4)
C1OB C 0.04406(4) 0.18324(4) 0.29193(4)
C1AD C 0.20807(4) -0.04406(4) 0.31676(4)
C1SC C 0.18324(4) -0.20807(4) 0.45594(4)
C1FF C 0.04406(4) -0.18324(4) 0.29193(4)
C1DD C -0.04406(4) 0.20807(4) 0.18324(4)
C1VC C -0.20807(4) 0.18324(4) 0.04406(4)
C1KE C -0.18324(4) 0.04406(4) 0.20807(4)
C2P C 0.16588(4) 0.07350(5) 0.19621(4)
C2H C 0.07350(4) 0.19621(5) 0.16588(4)
C2TC C 0.19621(4) 0.16588(5) -0.07350(4)
C2LE C 0.16588(4) 0.07350(5) -0.19621(4)
C2BD C 0.07350(4) 0.19621(5) -0.16588(4)
C2WA C 0.33412(4) 0.19621(5) 0.07350(4)
C2R C 0.42650(4) 0.16588(5) 0.19621(4)
C2EB C 0.30379(4) 0.07350(5) 0.16588(4)
C2QE C 0.33412(4) 0.19621(5) -0.07350(4)
C2LD C 0.42650(4) 0.16588(5) -0.19621(4)
C2YE C 0.30379(4) 0.07350(5) -0.16588(4)
C2ME C 0.16588(4) -0.07350(5) 0.19621(4)
C2FD C 0.07350(4) -0.19621(5) 0.16588(4)
C2XC C 0.19621(4) -0.16588(5) 0.07350(4)
C2M C 0.19621(4) 0.07350(5) 0.33412(4)
C2E C 0.16588(4) 0.19621(5) 0.42650(4)
C2OB C 0.07350(4) 0.16588(5) 0.30379(4)
C2AD C 0.19621(4) -0.07350(5) 0.33412(4)
C2SC C 0.16588(4) -0.19621(5) 0.42650(4)
C2FF C 0.07350(4) -0.16588(5) 0.30379(4)
C2DD C -0.07350(4) 0.19621(5) 0.16588(4)
C2VC C -0.19621(4) 0.16588(5) 0.07350(4)
C2KE C -0.16588(4) 0.07350(5) 0.19621(4)
C3P C 0.17675(4) 0.08944(5) 0.16920(4)
C3H C 0.08944(4) 0.16920(5) 0.17675(4)
C3TC C 0.16920(4) 0.17675(5) -0.08944(4)
C3LE C 0.17675(4) 0.08944(5) -0.16920(4)
C3BD C 0.08944(4) 0.16920(5) -0.17675(4)
C3WA C 0.32325(4) 0.16920(5) 0.08944(4)
C3R C 0.41056(4) 0.17675(5) 0.16920(4)
C3EB C 0.33080(4) 0.08944(5) 0.17675(4)
C3QE C 0.32325(4) 0.16920(5) -0.08944(4)
C3LD C 0.41056(4) 0.17675(5) -0.16920(4)
C3YE C 0.33080(4) 0.08944(5) -0.17675(4)
C3ME C 0.17675(4) -0.08944(5) 0.16920(4)
C3FD C 0.08944(4) -0.16920(5) 0.17675(4)
C3XC C 0.16920(4) -0.17675(5) 0.08944(4)
C3M C 0.16920(4) 0.08944(5) 0.32325(4)
C3E C 0.17675(4) 0.16920(5) 0.41056(4)
C3OB C 0.08944(4) 0.17675(5) 0.33080(4)
C3AD C 0.16920(4) -0.08944(5) 0.32325(4)
C3SC C 0.17675(4) -0.16920(5) 0.41056(4)
C3FF C 0.08944(4) -0.17675(5) 0.33080(4)
C3DD C -0.08944(4) 0.16920(5) 0.17675(4)
C3VC C -0.16920(4) 0.17675(5) 0.08944(4)
C3KE C -0.17675(4) 0.08944(5) 0.16920(4)
H1H H 0.08150 0.15840 0.19470
H1P H 0.19470 0.08150 0.15840
H1TC H 0.15840 0.19470 -0.08150
H1BD H 0.08150 0.15840 -0.19470
H1LE H 0.19470 0.08150 -0.15840
H1WA H 0.30530 0.15840 0.08150
H1EB H 0.34160 0.08150 0.19470
H1R H 0.41850 0.19470 0.15840
H1QE H 0.30530 0.15840 -0.08150
H1YE H 0.34160 0.08150 -0.19470
H1LD H 0.41850 0.19470 -0.15840
H1ME H 0.19470 -0.08150 0.15840
H1XC H 0.15840 -0.19470 0.08150
H1FD H 0.08150 -0.15840 0.19470
H1M H 0.15840 0.08150 0.30530
H1OB H 0.08150 0.19470 0.34160
H1E H 0.19470 0.15840 0.41850
H1AD H 0.15840 -0.08150 0.30530
H1FF H 0.08150 -0.19470 0.34160
H1SC H 0.19470 -0.15840 0.41850
H1DD H -0.08150 0.15840 0.19470
H1KE H -0.19470 0.08150 0.15840
H1VC H -0.15840 0.19470 0.08150
C4P C 0.16165(5) 0.11729(5) 0.15746(5)
C4H C 0.11729(5) 0.15746(5) 0.16165(5)
C4TC C 0.15746(5) 0.16165(5) -0.11729(5)
C4LE C 0.16165(5) 0.11729(5) -0.15746(5)
C4BD C 0.11729(5) 0.15746(5) -0.16165(5)
C4WA C 0.33835(5) 0.15746(5) 0.11729(5)
C4R C 0.38271(5) 0.16165(5) 0.15746(5)
C4EB C 0.34254(5) 0.11729(5) 0.16165(5)
C4QE C 0.33835(5) 0.15746(5) -0.11729(5)
C4LD C 0.38271(5) 0.16165(5) -0.15746(5)
C4YE C 0.34254(5) 0.11729(5) -0.16165(5)
C4ME C 0.16165(5) -0.11729(5) 0.15746(5)
C4FD C 0.11729(5) -0.15746(5) 0.16165(5)
C4XC C 0.15746(5) -0.16165(5) 0.11729(5)
C4M C 0.15746(5) 0.11729(5) 0.33835(5)
C4E C 0.16165(5) 0.15746(5) 0.38271(5)
C4OB C 0.11729(5) 0.16165(5) 0.34254(5)
C4AD C 0.15746(5) -0.11729(5) 0.33835(5)
C4SC C 0.16165(5) -0.15746(5) 0.38271(5)
C4FF C 0.11729(5) -0.16165(5) 0.34254(5)
C4DD C -0.11729(5) 0.15746(5) 0.16165(5)
C4VC C -0.15746(5) 0.16165(5) 0.11729(5)
C4KE C -0.16165(5) 0.11729(5) 0.15746(5)
C5P C 0.13404(5) 0.12892(5) 0.17366(5)
C5H C 0.12892(5) 0.17366(5) 0.13404(5)
C5TC C 0.17366(5) 0.13404(5) -0.12892(5)
C5LE C 0.13404(5) 0.12892(5) -0.17366(5)
C5BD C 0.12892(5) 0.17366(5) -0.13404(5)
C5WA C 0.36596(5) 0.17366(5) 0.12892(5)
C5R C 0.37108(5) 0.13404(5) 0.17366(5)
C5EB C 0.32634(5) 0.12892(5) 0.13404(5)
C5QE C 0.36596(5) 0.17366(5) -0.12892(5)
C5LD C 0.37108(5) 0.13404(5) -0.17366(5)
C5YE C 0.32634(5) 0.12892(5) -0.13404(5)
C5ME C 0.13404(5) -0.12892(5) 0.17366(5)
C5FD C 0.12892(5) -0.17366(5) 0.13404(5)
C5XC C 0.17366(5) -0.13404(5) 0.12892(5)
C5M C 0.17366(5) 0.12892(5) 0.36596(5)
C5E C 0.13404(5) 0.17366(5) 0.37108(5)
C5OB C 0.12892(5) 0.13404(5) 0.32634(5)
C5AD C 0.17366(5) -0.12892(5) 0.36596(5)
C5SC C 0.13404(5) -0.17366(5) 0.37108(5)
C5FF C 0.12892(5) -0.13404(5) 0.32634(5)
C5DD C -0.12892(5) 0.17366(5) 0.13404(5)
C5VC C -0.17366(5) 0.13404(5) 0.12892(5)
C5KE C -0.13404(5) 0.12892(5) 0.17366(5)
C6P C 0.12362(6) 0.11241(6) 0.20130(6)
C6H C 0.11241(6) 0.20130(6) 0.12362(6)
C6TC C 0.20130(6) 0.12362(6) -0.11241(6)
C6LE C 0.12362(6) 0.11241(6) -0.20130(6)
C6BD C 0.11241(6) 0.20130(6) -0.12362(6)
C6WA C 0.37638(6) 0.20130(6) 0.11241(6)
C6R C 0.38759(6) 0.12362(6) 0.20130(6)
C6EB C 0.29870(6) 0.11241(6) 0.12362(6)
C6QE C 0.37638(6) 0.20130(6) -0.11241(6)
C6LD C 0.38759(6) 0.12362(6) -0.20130(6)
C6YE C 0.29870(6) 0.11241(6) -0.12362(6)
C6ME C 0.12362(6) -0.11241(6) 0.20130(6)
C6FD C 0.11241(6) -0.20130(6) 0.12362(6)
C6XC C 0.20130(6) -0.12362(6) 0.11241(6)
C6M C 0.20130(6) 0.11241(6) 0.37638(6)
C6E C 0.12362(6) 0.20130(6) 0.38759(6)
C6OB C 0.11241(6) 0.12362(6) 0.29870(6)
C6AD C 0.20130(6) -0.11241(6) 0.37638(6)
C6SC C 0.12362(6) -0.20130(6) 0.38759(6)
C6FF C 0.11241(6) -0.12362(6) 0.29870(6)
C6DD C -0.11241(6) 0.20130(6) 0.12362(6)
C6VC C -0.20130(6) 0.12362(6) 0.11241(6)
C6KE C -0.12362(6) 0.11241(6) 0.20130(6)
H2H H 0.12000 0.21240 0.10570
H2P H 0.10570 0.12000 0.21240
H2TC H 0.21240 0.10570 -0.12000
H2BD H 0.12000 0.21240 -0.10570
H2LE H 0.10570 0.12000 -0.21240
H2WA H 0.39430 0.21240 0.12000
H2EB H 0.28760 0.12000 0.10570
H2R H 0.38000 0.10570 0.21240
H2QE H 0.39430 0.21240 -0.12000
H2YE H 0.28760 0.12000 -0.10570
H2LD H 0.38000 0.10570 -0.21240
H2ME H 0.10570 -0.12000 0.21240
H2XC H 0.21240 -0.10570 0.12000
H2FD H 0.12000 -0.21240 0.10570
H2M H 0.21240 0.12000 0.39430
H2OB H 0.12000 0.10570 0.28760
H2E H 0.10570 0.21240 0.38000
H2AD H 0.21240 -0.12000 0.39430
H2FF H 0.12000 -0.10570 0.28760
H2SC H 0.10570 -0.21240 0.38000
H2DD H -0.12000 0.21240 0.10570
H2KE H -0.10570 0.12000 0.21240
H2VC H -0.21240 0.10570 0.12000
C7P C 0.13914(5) 0.08546(6) 0.21242(5)
C7H C 0.08546(5) 0.21242(6) 0.13914(5)
C7TC C 0.21242(5) 0.13914(6) -0.08546(5)
C7LE C 0.13914(5) 0.08546(6) -0.21242(5)
C7BD C 0.08546(5) 0.21242(6) -0.13914(5)
C7WA C 0.36086(5) 0.21242(6) 0.08546(5)
C7R C 0.41454(5) 0.13914(6) 0.21242(5)
C7EB C 0.28758(5) 0.08546(6) 0.13914(5)
C7QE C 0.36086(5) 0.21242(6) -0.08546(5)
C7LD C 0.41454(5) 0.13914(6) -0.21242(5)
C7YE C 0.28758(5) 0.08546(6) -0.13914(5)
C7ME C 0.13914(5) -0.08546(6) 0.21242(5)
C7FD C 0.08546(5) -0.21242(6) 0.13914(5)
C7XC C 0.21242(5) -0.13914(6) 0.08546(5)
C7M C 0.21242(5) 0.08546(6) 0.36086(5)
C7E C 0.13914(5) 0.21242(6) 0.41454(5)
C7OB C 0.08546(5) 0.13914(6) 0.28758(5)
C7AD C 0.21242(5) -0.08546(6) 0.36086(5)
C7SC C 0.13914(5) -0.21242(6) 0.41454(5)
C7FF C 0.08546(5) -0.13914(6) 0.28758(5)
C7DD C -0.08546(5) 0.21242(6) 0.13914(5)
C7VC C -0.21242(5) 0.13914(6) 0.08546(5)
C7KE C -0.13914(5) 0.08546(6) 0.21242(5)
H3H H 0.07510 0.23090 0.13170
H3P H 0.13170 0.07510 0.23090
H3TC H 0.23090 0.13170 -0.07510
H3BD H 0.07510 0.23090 -0.13170
H3LE H 0.13170 0.07510 -0.23090
H3WA H 0.36830 0.23090 0.07510
H3EB H 0.26910 0.07510 0.13170
H3R H 0.42490 0.13170 0.23090
H3QE H 0.36830 0.23090 -0.07510
H3YE H 0.26910 0.07510 -0.13170
H3LD H 0.42490 0.13170 -0.23090
H3ME H 0.13170 -0.07510 0.23090
H3XC H 0.23090 -0.13170 0.07510
H3FD H 0.07510 -0.23090 0.13170
H3M H 0.23090 0.07510 0.36830
H3OB H 0.07510 0.13170 0.26910
H3E H 0.13170 0.23090 0.42490
H3AD H 0.23090 -0.07510 0.36830
H3FF H 0.07510 -0.13170 0.26910
H3SC H 0.13170 -0.23090 0.42490
H3DD H -0.07510 0.23090 0.13170
H3KE H -0.13170 0.07510 0.23090
H3VC H -0.23090 0.13170 0.07510
O2P O 0.20463(3) 0.03349(4) 0.19033(4)
O2H O 0.03349(3) 0.19033(4) 0.20463(4)
O2TC O 0.19033(3) 0.20463(4) -0.03349(4)
O2LE O 0.20463(3) 0.03349(4) -0.19033(4)
O2BD O 0.03349(3) 0.19033(4) -0.20463(4)
O2WA O 0.29537(3) 0.19033(4) 0.03349(4)
O2R O 0.46651(3) 0.20463(4) 0.19033(4)
O2EB O 0.30967(3) 0.03349(4) 0.20463(4)
O2QE O 0.29537(3) 0.19033(4) -0.03349(4)
O2LD O 0.46651(3) 0.20463(4) -0.19033(4)
O2YE O 0.30967(3) 0.03349(4) -0.20463(4)
O2ME O 0.20463(3) -0.03349(4) 0.19033(4)
O2FD O 0.03349(3) -0.19033(4) 0.20463(4)
O2XC O 0.19033(3) -0.20463(4) 0.03349(4)
O2M O 0.19033(3) 0.03349(4) 0.29537(4)
O2E O 0.20463(3) 0.19033(4) 0.46651(4)
O2OB O 0.03349(3) 0.20463(4) 0.30967(4)
O2AD O 0.19033(3) -0.03349(4) 0.29537(4)
O2SC O 0.20463(3) -0.19033(4) 0.46651(4)
O2FF O 0.03349(3) -0.20463(4) 0.30967(4)
O2DD O -0.03349(3) 0.19033(4) 0.20463(4)
O2VC O -0.19033(3) 0.20463(4) 0.03349(4)
O2KE O -0.20463(3) 0.03349(4) 0.19033(4)
O2NC O 0.03349(3) 0.29537(4) 0.19033(4)
O2EG O -0.03349(3) 0.29537(4) 0.19033(4)
O2GD O 0.19033(3) 0.03349(4) -0.29537(4)
O2K O 0.19033(3) -0.03349(4) -0.29537(4)
O2DG O 0.03349(3) 0.29537(4) -0.19033(4)
O2KC O -0.03349(3) 0.29537(4) -0.19033(4)
O2VB O 0.30967(3) 0.29537(4) 0.03349(4)
O2LF O 0.30967(3) 0.29537(4) -0.03349(4)
O2JB O 0.46651(3) 0.19033(4) 0.29537(4)
O2XE O 0.53349(3) 0.19033(4) 0.29537(4)
O2ZE O 0.46651(3) 0.19033(4) -0.29537(4)
O2DB O 0.53349(3) 0.19033(4) -0.29537(4)
O2SA O 0.20463(3) -0.03349(4) -0.19033(4)
#END
