
#######################################################################
#
#                 Cambridge Crystallographic Data Centre
#                                CCDC
#
#######################################################################
#
# If this CIF has been generated from an entry in the Cambridge
# Structural Database, then it will include bibliographic, chemical,
# crystal, experimental, refinement or atomic coordinate data resulting
# from the CCDC's data processing and validation procedures.
#
#######################################################################

data_CSD_CIF_REJLOK01
_audit_creation_date 2018-05-10
_audit_creation_method CSD-ConQuest-V1
_database_code_CSD REJLOK01
_database_code_depnum_ccdc_archive 'CCDC 1552012'
_chemical_formula_sum 'C60 H42 Ag3 Mo12 N6 O40 P1'
_chemical_formula_moiety
;
(C20 H14 Ag1 N2 1+)3n,Mo12 O40 P1 3-
;
_journal_coden_Cambridge 1350
_journal_volume 20
_journal_year 2018
_journal_page_first 2940
_journal_name_full 'CrystEngComm '
loop_
_publ_author_name
"Aixiang Tian"
"Jiani Liu"
"Tingting Li"
"Yan Tian"
"Guiying Liu"
"Jun Ying"
_chemical_name_systematic
;
catena-[tris((\m-2,3-diphenylquinoxaline)-silver(i)) 
(\m-phosphato)-tetracosakis(\m-oxo)-dodecaoxo-dodeca-molybdenum]
;
_cell_volume  11557.959
_exptl_crystal_colour 'colorless'
_exptl_crystal_density_diffrn 2.58
_exptl_special_details
;
R-3 polymorph

;
_exptl_crystal_description 'block'
_diffrn_ambient_temperature 293
_refine_special_details
;
O1,O1' disordered by symmetry over two configurations with occupancy 0.5; O10 
and O10A disordered over two sites with occupancies 0.5:0.5; O8,O8' 
disordered by symmetry over two configurations with occupancy 0.5.
;
#These two values have been output from a single CSD field.
_refine_ls_R_factor_gt 0.0494
_refine_ls_wR_factor_gt 0.0494
_symmetry_cell_setting rhombohedral
_symmetry_space_group_name_H-M 'R -3'
_symmetry_Int_Tables_number 148
loop_
_symmetry_equiv_pos_site_id
_symmetry_equiv_pos_as_xyz
1 x,y,z
2 -y,x-y,z
3 -x+y,-x,z
4 2/3+x,1/3+y,1/3+z
5 2/3-y,1/3+x-y,1/3+z
6 2/3-x+y,1/3-x,1/3+z
7 1/3+x,2/3+y,2/3+z
8 1/3-y,2/3+x-y,2/3+z
9 1/3-x+y,2/3-x,2/3+z
10 -x,-y,-z
11 y,-x+y,-z
12 x-y,x,-z
13 -2/3-x,-1/3-y,-1/3-z
14 -2/3+y,-1/3-x+y,-1/3-z
15 -2/3+x-y,-1/3+x,-1/3-z
16 -1/3-x,-2/3-y,-2/3-z
17 -1/3+y,-2/3-x+y,-2/3-z
18 -1/3+x-y,-2/3+x,-2/3-z
_cell_length_a 25.2432(10)
_cell_length_b 25.2432(10)
_cell_length_c 20.9441(16)
_cell_angle_alpha 90
_cell_angle_beta 90
_cell_angle_gamma 120
_cell_formula_units_Z 6
loop_
_atom_type_symbol
_atom_type_radius_bond
C 0.68
H 0.23
Ag 1.45
Mo 1.54
N 0.68
O 0.68
P 1.05
loop_
_atom_site_label
_atom_site_type_symbol
_atom_site_fract_x
_atom_site_fract_y
_atom_site_fract_z
Ag1 Ag 0.62200(4) 0.64419(4) 0.68336(3)
N1 N 0.6318(4) 0.6272(3) 0.5808(3)
C1 C 0.6876(4) 0.6464(4) 0.5611(4)
N2 N 0.6565(4) 0.6331(3) 0.4515(3)
C2 C 0.7000(4) 0.6462(4) 0.4940(4)
C3 C 0.5984(4) 0.6149(4) 0.4713(4)
C4 C 0.5514(5) 0.6005(5) 0.4271(4)
H1 H 0.55980 0.60490 0.38360
C5 C 0.4936(5) 0.5803(6) 0.4480(5)
H2 H 0.46280 0.57170 0.41850
C6 C 0.4792(5) 0.5721(5) 0.5137(5)
H3 H 0.43910 0.55760 0.52690
C7 C 0.5239(5) 0.5853(5) 0.5581(5)
H4 H 0.51420 0.57970 0.60140
C8 C 0.5845(5) 0.6075(5) 0.5378(4)
C9 C 0.7374(4) 0.6733(4) 0.6087(4)
C10 C 0.7831(5) 0.7324(5) 0.6028(4)
H5 H 0.78610 0.75310 0.56500
C11 C 0.8249(5) 0.7629(5) 0.6502(5)
H6 H 0.85490 0.80370 0.64530
C12 C 0.8210(5) 0.7309(5) 0.7065(5)
H7 H 0.84860 0.75060 0.73960
C13 C 0.7768(5) 0.6706(5) 0.7129(4)
H8 H 0.77510 0.64970 0.75010
C14 C 0.7349(4) 0.6407(5) 0.6650(5)
H9 H 0.70540 0.59970 0.66950
C15 C 0.7588(5) 0.6569(4) 0.4678(4)
C16 C 0.7934(5) 0.7049(5) 0.4272(4)
H10 H 0.78280 0.73470 0.41980
C17 C 0.8445(5) 0.7086(5) 0.3972(5)
H11 H 0.86750 0.74060 0.36920
C18 C 0.8612(6) 0.6652(6) 0.4088(5)
H12 H 0.89510 0.66760 0.38850
C19 C 0.8274(5) 0.6185(6) 0.4506(5)
H13 H 0.83860 0.58930 0.45920
C20 C 0.7768(5) 0.6150(5) 0.4797(4)
H14 H 0.75440 0.58320 0.50820
P1 P 0.33330 0.66670 0.66670
Mo1 Mo 0.37494(4) 0.61458(4) 0.80609(4)
O1 O 0.3694(5) 0.6364(5) 0.6912(5)
O2 O 0.33330 0.66670 0.7381(8)
Mo2 Mo 0.47912(4) 0.67850(4) 0.67496(4)
O3 O 0.4029(3) 0.7019(3) 0.8259(4)
O4 O 0.5004(4) 0.7583(3) 0.6817(3)
O5 O 0.4532(3) 0.6574(3) 0.7563(3)
O6 O 0.3534(3) 0.5515(3) 0.7513(3)
O7 O 0.3983(3) 0.5934(3) 0.8697(3)
O8 O 0.5462(3) 0.6822(3) 0.6746(3)
P2 P 0.66670 0.33330 0.83330
Mo3 Mo 0.63074(4) 0.39055(4) 0.69432(4)
Mo4 Mo 0.70689(4) 0.48926(4) 0.82590(5)
O9 O 0.6478(5) 0.3783(5) 0.8040(5)
O10 O 0.66670 0.33330 0.7663(8)
O11 O 0.7819(4) 0.4955(4) 0.8183(4)
O12 O 0.6796(8) 0.4766(7) 0.7323(7)
O13 O 0.5985(3) 0.3108(3) 0.6732(3)
O14 O 0.6174(3) 0.4215(4) 0.6310(4)
O15 O 0.5690(3) 0.3786(4) 0.7481(4)
O16 O 0.7213(3) 0.5608(3) 0.8247(3)
O17? O 0.6861(7) 0.4565(7) 0.7541(6)
Ag1G Ag 0.689143(40) 0.644477(40) 0.350027(30)
N2E N 0.643267(400) 0.676833(300) 0.784833(300)
O1A O 0.3636(5) 0.7330(5) 0.6912(5)
O1B O 0.2670(5) 0.6306(5) 0.6912(5)
O1O O 0.297267(500) 0.696933(500) 0.642133(500)
O2O O 0.33337 0.66663 0.595233(800)
O1P O 0.303067(500) 0.600333(500) 0.642133(500)
O1Q O 0.399667(500) 0.702733(500) 0.642133(500)
Mo1A Mo 0.38542(4) 0.76036(4) 0.80609(4)
Mo2A Mo 0.32150(4) 0.80062(4) 0.67496(4)
O3A O 0.2981(3) 0.7010(3) 0.8259(4)
O4A O 0.2417(4) 0.7421(3) 0.6817(3)
O5A O 0.3426(3) 0.7958(3) 0.7563(3)
O6A O 0.4485(3) 0.8019(3) 0.7513(3)
O7A O 0.4066(3) 0.8049(3) 0.8697(3)
O8A O 0.3178(3) 0.8640(3) 0.6746(3)
Mo1B Mo 0.23964(4) 0.62506(4) 0.80609(4)
Mo2B Mo 0.19938(4) 0.52088(4) 0.67496(4)
O3B O 0.2990(3) 0.5971(3) 0.8259(4)
O4B O 0.2579(4) 0.4996(3) 0.6817(3)
O5B O 0.2042(3) 0.5468(3) 0.7563(3)
O6B O 0.1981(3) 0.6466(3) 0.7513(3)
O7B O 0.1951(3) 0.6017(3) 0.8697(3)
O8B O 0.1360(3) 0.4538(3) 0.6746(3)
Mo1O Mo 0.291727(40) 0.718753(40) 0.527243(40)
Mo2O Mo 0.187547(40) 0.654833(40) 0.658373(40)
O3O O 0.263767(300) 0.631433(300) 0.507433(400)
O4O O 0.166267(400) 0.575033(300) 0.651633(300)
O5O O 0.213467(300) 0.675933(300) 0.577033(300)
O6O O 0.313267(300) 0.781833(300) 0.582033(300)
O7O O 0.268367(300) 0.739933(300) 0.463633(300)
O8O O 0.120467(300) 0.651133(300) 0.658733(300)
Mo1P Mo 0.281247(40) 0.572973(40) 0.527243(40)
Mo2P Mo 0.345167(40) 0.532713(40) 0.658373(40)
O3P O 0.368567(300) 0.632333(300) 0.507433(400)
O4P O 0.424967(400) 0.591233(300) 0.651633(300)
O5P O 0.324067(300) 0.537533(300) 0.577033(300)
O6P O 0.218167(300) 0.531433(300) 0.582033(300)
O7P O 0.260067(300) 0.528433(300) 0.463633(300)
O8P O 0.348867(300) 0.469333(300) 0.658733(300)
Mo1Q Mo 0.427027(40) 0.708273(40) 0.527243(40)
Mo2Q Mo 0.467287(40) 0.812453(40) 0.658373(40)
O3Q O 0.367667(300) 0.736233(300) 0.507433(400)
O4Q O 0.408767(400) 0.833733(300) 0.651633(300)
O5Q O 0.462467(300) 0.786533(300) 0.577033(300)
O6Q O 0.468567(300) 0.686733(300) 0.582033(300)
O7Q O 0.471567(300) 0.731633(300) 0.463633(300)
O8Q O 0.530667(300) 0.879533(300) 0.658733(300)
O9A O 0.6217(5) 0.2695(5) 0.8040(5)
O9B O 0.7305(5) 0.3522(5) 0.8040(5)
O9L O 0.685533(500) 0.288367(500) 0.862667(500)
O10L O 0.66663 0.33337 0.900367(800)
O9M O 0.711633(500) 0.397167(500) 0.862667(500)
O9N O 0.602833(500) 0.314467(500) 0.862667(500)
Mo3A Mo 0.60945(4) 0.24019(4) 0.69432(4)
Mo4A Mo 0.51074(4) 0.21763(4) 0.82590(5)
O11A O 0.5045(4) 0.2864(4) 0.8183(4)
O12A O 0.5234(8) 0.2030(7) 0.7323(7)
O13A O 0.6892(3) 0.2877(3) 0.6732(3)
O14A O 0.5785(3) 0.1959(4) 0.6310(4)
O15A O 0.6214(3) 0.1904(4) 0.7481(4)
O16A O 0.4392(3) 0.1605(3) 0.8247(3)
Mo3B Mo 0.75981(4) 0.36926(4) 0.69432(4)
Mo4B Mo 0.78237(4) 0.29311(4) 0.82590(5)
O11B O 0.7136(4) 0.2181(4) 0.8183(4)
O12B O 0.7970(8) 0.3204(7) 0.7323(7)
O13B O 0.7123(3) 0.4015(3) 0.6732(3)
O14B O 0.8041(3) 0.3826(4) 0.6310(4)
O15B O 0.8096(3) 0.4310(4) 0.7481(4)
O16B O 0.8395(3) 0.2787(3) 0.8247(3)
Mo3L Mo 0.702593(40) 0.276117(40) 0.972347(40)
Mo4L Mo 0.626443(40) 0.177407(40) 0.840767(50)
O11L O 0.551433(400) 0.171167(400) 0.848367(400)
O12L O 0.653733(800) 0.190067(700) 0.934367(700)
O13L O 0.734833(300) 0.355867(300) 0.993467(300)
O14L O 0.715933(300) 0.245167(400) 1.035667(400)
O15L O 0.764333(300) 0.288067(400) 0.918567(400)
O16L O 0.612033(300) 0.105867(300) 0.841967(300)
Mo3M Mo 0.723883(40) 0.426477(40) 0.972347(40)
Mo4M Mo 0.822593(40) 0.449037(40) 0.840767(50)
O11M O 0.828833(400) 0.380267(400) 0.848367(400)
O12M O 0.809933(800) 0.463667(700) 0.934367(700)
O13M O 0.644133(300) 0.378967(300) 0.993467(300)
O14M O 0.754833(300) 0.470767(400) 1.035667(400)
O15M O 0.711933(300) 0.476267(400) 0.918567(400)
O16M O 0.894133(300) 0.506167(300) 0.841967(300)
Mo3N Mo 0.573523(40) 0.297407(40) 0.972347(40)
Mo4N Mo 0.550963(40) 0.373557(40) 0.840767(50)
O11N O 0.619733(400) 0.448567(400) 0.848367(400)
O12N O 0.536333(800) 0.346267(700) 0.934367(700)
O13N O 0.621033(300) 0.265167(300) 0.993467(300)
O14N O 0.529233(300) 0.284067(400) 1.035667(400)
O15N O 0.523733(300) 0.235667(400) 0.918567(400)
O16N O 0.493833(300) 0.387967(300) 0.841967(300)
#END
