
#######################################################################
#
#                 Cambridge Crystallographic Data Centre
#                                CCDC
#
#######################################################################
#
# If this CIF has been generated from an entry in the Cambridge
# Structural Database, then it will include bibliographic, chemical,
# crystal, experimental, refinement or atomic coordinate data resulting
# from the CCDC's data processing and validation procedures.
#
#######################################################################

data_CSD_CIF_REJLEA
_audit_creation_date 2017-10-11
_audit_creation_method CSD-ConQuest-V1
_database_code_CSD REJLEA
_database_code_depnum_ccdc_archive 'CCDC 1481873'
_chemical_formula_sum 'C60 H42 Cu3 Mo12 N6 O40 P1'
_chemical_formula_moiety
;
(C60 H42 Cu3 N6 3+)n,n(Mo12 O40 P1 3-)
;
_journal_coden_Cambridge 222
_journal_volume 45
_journal_year 2016
_journal_page_first 13925
_journal_name_full 'Dalton Trans. '
loop_
_publ_author_name
"Aixiang Tian"
"Yan Tian"
"Yali Ning"
"Xue Hou"
"Huaiping Ni"
"Xuebin Ji"
"Guocheng Liu"
"Jun Ying"
_chemical_name_systematic
;
catena-(tris(\m-2,3-diphenylquinoxaline)-tri-copper(i) 
(\m-phosphato)-tetracosakis(\m-oxo)-dodecaoxo-dodeca-molybdenum)
;
_cell_volume   4172.188
_exptl_crystal_colour 'red'
_exptl_crystal_density_diffrn 2.276
_exptl_crystal_description 'block'
_diffrn_ambient_temperature 293
_refine_special_details
;
The phosphate moieties are disordered by symmetry.

;
#These two values have been output from a single CSD field.
_refine_ls_R_factor_gt 0.0459
_refine_ls_wR_factor_gt 0.0459
_symmetry_cell_setting triclinic
_symmetry_space_group_name_H-M 'P -1'
_symmetry_Int_Tables_number 2
loop_
_symmetry_equiv_pos_site_id
_symmetry_equiv_pos_as_xyz
1 x,y,z
2 -x,-y,-z
_cell_length_a 13.2679(6)
_cell_length_b 13.7650(6)
_cell_length_c 23.3329(11)
_cell_angle_alpha 79.509(1)
_cell_angle_beta 84.731(1)
_cell_angle_gamma 88.464(1)
_cell_formula_units_Z 2
loop_
_atom_type_symbol
_atom_type_radius_bond
C 0.68
H 0.23
Cu 1.32
Mo 1.54
N 0.68
O 0.68
P 1.05
loop_
_atom_site_label
_atom_site_type_symbol
_atom_site_fract_x
_atom_site_fract_y
_atom_site_fract_z
Mo1 Mo 0.66803(5) 0.70223(4) 0.45380(2)
P1 P 0.50000 0.50000 0.50000
O1 O 0.6144(5) 0.5282(5) 0.4938(3)
O2 O 0.4406(5) 0.5631(5) 0.5382(3)
Mo2 Mo 0.25554(4) 0.53980(4) 0.56988(2)
O3 O 0.4636(5) 0.5088(5) 0.4410(3)
O4 O 0.4951(5) 0.3908(5) 0.5319(3)
Mo3 Mo 0.27864(4) 0.48505(4) 0.42599(2)
O5 O 0.4499(4) 0.7432(3) 0.3068(2)
Mo4 Mo 0.46977(4) 0.66422(4) 0.36694(2)
O6 O 0.5303(4) 0.3717(4) 0.3031(2)
Mo5 Mo 0.41019(4) 0.74534(4) 0.50299(3)
O7 O 0.1787(3) 0.4733(4) 0.3903(2)
Mo6 Mo 0.51994(4) 0.40949(4) 0.36682(2)
O8 O 0.3755(4) 0.8598(3) 0.5065(2)
O9 O 0.7462(4) 0.7942(3) 0.4281(2)
O10 O 0.1412(3) 0.5630(4) 0.5992(2)
O11 O 0.5900(4) 0.7029(5) 0.3849(2)
O12 O 0.7379(5) 0.5933(3) 0.4191(2)
O13 O 0.2968(4) 0.6753(4) 0.5306(2)
O14 O 0.5169(3) 0.5549(3) 0.3391(2)
O15 O 0.3842(3) 0.4151(3) 0.3820(2)
O16 O 0.3366(3) 0.5983(3) 0.3846(2)
O17 O 0.4064(4) 0.7402(5) 0.4263(3)
O18 O 0.2257(5) 0.5366(3) 0.4881(2)
O19 O 0.6655(4) 0.4446(3) 0.3725(2)
O20 O 0.5601(4) 0.7607(5) 0.4858(2)
O21 O 0.7192(5) 0.6456(3) 0.5215(2)
O22 O 0.5428(4) 0.2982(4) 0.4184(2)
Cu1 Cu 0.79387(6) 0.44117(6) 0.27340(4)
N1 N 0.8935(4) 0.5411(3) 0.2693(2)
C1 C 0.8763(4) 0.6363(4) 0.2778(2)
Cu2 Cu 0.54431(7) 0.05936(6) 0.22732(5)
N2 N 1.0539(3) 0.6695(3) 0.2603(2)
C2 C 0.9872(4) 0.5125(4) 0.2546(2)
N3 N 0.7299(3) 0.3232(3) 0.2608(2)
C3 C 1.0694(4) 0.5793(4) 0.2472(2)
Cu3 Cu 1.16618(6) 0.75489(6) 0.24778(4)
C4 C 0.9575(4) 0.7005(4) 0.2757(3)
N4 N 0.6281(4) 0.1625(3) 0.2412(2)
C5 C 0.9401(5) 0.7976(4) 0.2844(3)
H1 H 0.99430 0.83850 0.28560
N5 N 0.4393(4) -0.0340(3) 0.2297(3)
C6 C 0.8440(5) 0.8316(5) 0.2911(3)
H2 H 0.83240 0.89670 0.29570
N6 N 0.2797(3) -0.1617(3) 0.2384(2)
C7 C 0.7620(5) 0.7701(5) 0.2911(3)
H3 H 0.69650 0.79550 0.29470
C8 C 0.7766(5) 0.6733(5) 0.2861(3)
H4 H 0.72150 0.63210 0.28810
C9 C 1.0049(5) 0.4077(4) 0.2468(3)
C10 C 1.0564(6) 0.3438(5) 0.2873(4)
H5 H 1.08310 0.36660 0.31780
C11 C 1.0676(7) 0.2454(6) 0.2819(5)
H6 H 1.10210 0.20170 0.30880
C12 C 1.0279(7) 0.2130(6) 0.2371(5)
H7 H 1.03510 0.14670 0.23420
C13 C 0.9785(6) 0.2737(6) 0.1971(4)
H8 H 0.95260 0.24930 0.16690
C14 C 0.9659(5) 0.3739(5) 0.2007(3)
H9 H 0.93230 0.41670 0.17300
C15 C 1.1702(4) 0.5576(4) 0.2195(3)
C16 C 1.2579(5) 0.5574(5) 0.2481(3)
H10 H 1.25340 0.56550 0.28690
C17 C 1.3509(5) 0.5452(5) 0.2193(4)
H11 H 1.40890 0.54460 0.23900
C18 C 1.3594(5) 0.5339(5) 0.1621(3)
H12 H 1.42290 0.52530 0.14300
C19 C 1.2731(6) 0.5354(5) 0.1323(3)
H13 H 1.27860 0.52930 0.09310
C20 C 1.1791(5) 0.5460(5) 0.1614(3)
H14 H 1.12120 0.54520 0.14190
C21 C 0.7360(4) 0.2356(4) 0.2984(3)
C22 C 0.6759(4) 0.3312(4) 0.2147(3)
C23 C 0.6228(4) 0.2477(4) 0.2055(3)
C24 C 0.6860(4) 0.1523(4) 0.2880(3)
C25 C 0.6910(5) 0.0622(5) 0.3281(3)
H15 H 0.65570 0.00750 0.32280
C26 C 0.7466(6) 0.0560(5) 0.3735(4)
H16 H 0.75180 -0.00430 0.39870
C27 C 0.7967(5) 0.1369(5) 0.3840(3)
H17 H 0.83260 0.13070 0.41690
C28 C 0.7942(5) 0.2242(5) 0.3474(3)
H18 H 0.83050 0.27720 0.35420
C29 C 0.6755(4) 0.4276(4) 0.1750(3)
C30 C 0.6485(5) 0.5144(4) 0.1967(3)
H19 H 0.62470 0.51060 0.23580
C31 C 0.6571(6) 0.6047(5) 0.1603(4)
H20 H 0.63940 0.66190 0.17500
C32 C 0.6925(7) 0.6115(7) 0.1013(4)
H21 H 0.69930 0.67310 0.07710
C33 C 0.7174(8) 0.5261(7) 0.0788(4)
H22 H 0.74030 0.52990 0.03960
C34 C 0.7075(6) 0.4344(6) 0.1164(3)
H23 H 0.72270 0.37690 0.10150
C35 C 0.5540(5) 0.2509(4) 0.1577(3)
C36 C 0.4657(6) 0.3049(5) 0.1581(4)
H24 H 0.45290 0.34680 0.18510
C37 C 0.3962(7) 0.2978(6) 0.1192(5)
H25 H 0.33550 0.33310 0.12060
C38 C 0.4161(7) 0.2387(7) 0.0784(5)
H26 H 0.36920 0.23470 0.05160
C39 C 0.5049(6) 0.1848(6) 0.0764(4)
H27 H 0.51890 0.14560 0.04810
C40 C 0.5729(5) 0.1899(5) 0.1173(3)
H28 H 0.63180 0.15170 0.11740
C41 C 0.4366(5) -0.0951(4) 0.1889(3)
C42 C 0.3651(5) -0.0364(4) 0.2722(3)
C43 C 0.2849(5) -0.1045(4) 0.2788(3)
C44 C 0.3529(4) -0.1581(4) 0.1932(3)
C45 C 0.3459(5) -0.2146(4) 0.1501(3)
H29 H 0.28970 -0.25410 0.15140
C46 C 0.4214(5) -0.2124(5) 0.1058(3)
H30 H 0.41610 -0.25030 0.07700
C47 C 0.5060(5) -0.1541(5) 0.1035(3)
H31 H 0.55790 -0.15480 0.07400
C48 C 0.5135(5) -0.0957(5) 0.1442(3)
H32 H 0.57000 -0.05630 0.14200
C49 C 0.3678(5) 0.0353(5) 0.3126(3)
C50 C 0.3863(7) 0.0044(6) 0.3695(4)
H33 H 0.40020 -0.06180 0.38360
C51 C 0.3841(8) 0.0745(6) 0.4065(4)
H34 H 0.39640 0.05450 0.44550
C52 C 0.3642(7) 0.1712(6) 0.3858(4)
H35 H 0.36200 0.21680 0.41080
C53 C 0.3479(6) 0.2013(5) 0.3297(4)
H36 H 0.33450 0.26770 0.31600
C54 C 0.3506(6) 0.1339(5) 0.2914(3)
H37 H 0.34100 0.15530 0.25210
C55 C 0.2055(5) -0.1159(5) 0.3273(3)
C56 C 0.1439(6) -0.0367(5) 0.3387(3)
H38 H 0.15530 0.02610 0.31670
C57 C 0.0654(7) -0.0517(7) 0.3830(4)
H39 H 0.02300 0.00080 0.38940
C58 C 0.0497(8) -0.1423(7) 0.4171(4)
H40 H -0.00250 -0.15160 0.44700
C59 C 0.1114(7) -0.2192(7) 0.4069(4)
H41 H 0.10140 -0.28110 0.43030
C60 C 0.1882(5) -0.2068(5) 0.3625(3)
H42 H 0.22910 -0.26040 0.35620
P2 P 1.00000 0.00000 0.00000
Mo7 Mo 1.15674(4) -0.21170(4) -0.00872(2)
Mo8 Mo 0.95811(4) -0.21955(4) 0.10497(3)
Mo9 Mo 1.26323(4) 0.01257(4) 0.01335(2)
Mo10 Mo 0.89994(4) -0.21283(4) -0.04139(2)
Mo11 Mo 1.08841(4) -0.01743(4) 0.13989(2)
Mo12 Mo 0.82369(4) 0.00150(4) 0.12486(3)
O23 O 1.0037(5) -0.1145(6) 0.0075(3)
O24 O 0.8973(5) 0.0344(5) 0.0187(3)
O25 O 1.0806(5) 0.0356(5) 0.0323(3)
O26 O 1.0234(5) 0.0412(5) -0.0674(3)
O27 O 0.9456(3) -0.3236(3) 0.1527(2)
O28 O 1.2295(4) -0.3088(4) -0.0158(2)
O29 O 1.3851(3) 0.0130(4) 0.0215(2)
O30 O 0.8475(4) -0.3102(4) -0.0582(2)
O31 O 0.7374(3) -0.0038(3) 0.1822(2)
O32 O 1.1248(4) -0.0182(4) 0.2057(2)
O33 O 1.2074(4) -0.0259(3) 0.0956(2)
O34 O 1.0917(4) 0.1264(4) 0.1104(2)
O35 O 1.2432(5) -0.1289(4) 0.0145(2)
O36 O 0.7752(4) -0.1401(4) -0.0188(2)
O37 O 1.0529(4) -0.1460(4) 0.1431(3)
O38 O 0.9426(4) 0.0123(4) 0.1561(3)
O39 O 0.8966(4) -0.2488(5) 0.0440(2)
O40 O 1.0345(4) -0.2428(4) -0.0439(2)
O41 O 0.8571(4) -0.1416(4) 0.1295(3)
O42 O 1.0883(4) -0.2483(4) 0.0622(2)
O43 O 0.7366(4) -0.0296(4) 0.0668(2)
O44 O 0.8181(4) 0.1302(3) 0.0893(2)
O1A O 0.3856(5) 0.4718(5) 0.5062(3)
O2A O 0.5594(5) 0.4369(5) 0.4618(3)
O3A O 0.5364(5) 0.4912(5) 0.5590(3)
O4A O 0.5049(5) 0.6092(5) 0.4681(3)
Mo1A Mo 0.33197(5) 0.29777(4) 0.54620(2)
Mo2A Mo 0.74446(4) 0.46020(4) 0.43012(2)
Mo3A Mo 0.72136(4) 0.51495(4) 0.57401(2)
O5A O 0.5501(4) 0.2568(3) 0.6932(2)
Mo4A Mo 0.53023(4) 0.33578(4) 0.63306(2)
O6A O 0.4697(4) 0.6283(4) 0.6969(2)
Mo5A Mo 0.58981(4) 0.25466(4) 0.49701(3)
O7A O 0.8213(3) 0.5267(4) 0.6097(2)
Mo6A Mo 0.48006(4) 0.59051(4) 0.63318(2)
O8A O 0.6245(4) 0.1402(3) 0.4935(2)
O9A O 0.2538(4) 0.2058(3) 0.5719(2)
O10A O 0.8588(3) 0.4370(4) 0.4008(2)
O11A O 0.4100(4) 0.2971(5) 0.6151(2)
O12A O 0.2621(5) 0.4067(3) 0.5809(2)
O13A O 0.7032(4) 0.3247(4) 0.4694(2)
O14A O 0.4831(3) 0.4451(3) 0.6609(2)
O15A O 0.6158(3) 0.5849(3) 0.6180(2)
O16A O 0.6634(3) 0.4017(3) 0.6154(2)
O17A O 0.5936(4) 0.2598(5) 0.5737(3)
O18A O 0.7743(5) 0.4634(3) 0.5119(2)
O19A O 0.3345(4) 0.5554(3) 0.6275(2)
O20A O 0.4399(4) 0.2393(5) 0.5142(2)
O21A O 0.2808(5) 0.3544(3) 0.4785(2)
O22A O 0.4572(4) 0.7018(4) 0.5816(2)
Cu3* Cu 0.16618(6) -0.24511(6) 0.24778(4)
N6* N 1.2797(3) 0.8383(3) 0.2384(2)
O23A O 0.9963(5) 0.1145(6) -0.0075(3)
O24A O 1.1027(5) -0.0344(5) -0.0187(3)
O25A O 0.9194(5) -0.0356(5) -0.0323(3)
O26A O 0.9766(5) -0.0412(5) 0.0674(3)
Mo7A Mo 0.84326(4) 0.21170(4) 0.00872(2)
Mo8A Mo 1.04189(4) 0.21955(4) -0.10497(3)
Mo9A Mo 0.73677(4) -0.01257(4) -0.01335(2)
Mo10A Mo 1.10006(4) 0.21283(4) 0.04139(2)
Mo11A Mo 0.91159(4) 0.01743(4) -0.13989(2)
Mo12A Mo 1.17631(4) -0.00150(4) -0.12486(3)
O27A O 1.0544(3) 0.3236(3) -0.1527(2)
O28A O 0.7705(4) 0.3088(4) 0.0158(2)
O29A O 0.6149(3) -0.0130(4) -0.0215(2)
O30A O 1.1525(4) 0.3102(4) 0.0582(2)
O31A O 1.2626(3) 0.0038(3) -0.1822(2)
O32A O 0.8752(4) 0.0182(4) -0.2057(2)
O33A O 0.7926(4) 0.0259(3) -0.0956(2)
O34A O 0.9083(4) -0.1264(4) -0.1104(2)
O35A O 0.7568(5) 0.1289(4) -0.0145(2)
O36A O 1.2248(4) 0.1401(4) 0.0188(2)
O37A O 0.9471(4) 0.1460(4) -0.1431(3)
O38A O 1.0574(4) -0.0123(4) -0.1561(3)
O39A O 1.1034(4) 0.2488(5) -0.0440(2)
O40A O 0.9655(4) 0.2428(4) 0.0439(2)
O41A O 1.1429(4) 0.1416(4) -0.1295(3)
O42A O 0.9117(4) 0.2483(4) -0.0622(2)
O43A O 1.2634(4) 0.0296(4) -0.0668(2)
O44A O 1.1819(4) -0.1302(3) -0.0893(2)
#END
