
#######################################################################
#
#                 Cambridge Crystallographic Data Centre
#                                CCDC
#
#######################################################################
#
# If this CIF has been generated from an entry in the Cambridge
# Structural Database, then it will include bibliographic, chemical,
# crystal, experimental, refinement or atomic coordinate data resulting
# from the CCDC's data processing and validation procedures.
#
#######################################################################

data_CSD_CIF_REJTEI
_audit_creation_date 2017-10-11
_audit_creation_method CSD-ConQuest-V1
_database_code_CSD REJTEI
_database_code_depnum_ccdc_archive 'CCDC 1549092'
_chemical_formula_sum 'C57 H99 Mo12 N3 O46.5 P1 Zn4'
_chemical_formula_moiety
;
(C21 H14 Mo12 O46 P1 Zn4 3-)n,3(C12 H28 N1 1+),0.5(H2 O1)
;
_journal_coden_Cambridge 222
_journal_volume 46
_journal_year 2017
_journal_page_first 14286
_journal_name_full 'Dalton Trans. '
loop_
_publ_author_name
"Bao-Xia Dong"
"Hua-Bo Chen"
"Yi-Chen Wu"
"Juan Zhao"
"Yun-Lei Teng"
"Wen-Long Liu"
"Zong-Wei Li"
_chemical_name_systematic
;
catena-[tris(tetrapropylammonium) 
(\m-phosphato)-(\m-[1,1';3',1''-terphenyl]-3,5',3''-tricarboxylato)-henicosaki
s(\m-oxo)-tris(\m-hydroxo)-dodeca-oxo-tetra-zinc-dodeca-molybdenum 
hemihydrate]
;
_chemical_name_common
;
YZU-106
;
_cell_volume   9159.446
_exptl_crystal_colour 'black'
_exptl_crystal_density_diffrn 2.188
_exptl_crystal_description 'polyhedron'
_exptl_crystal_preparation 'Hydrothermal synthesis'
_diffrn_ambient_temperature 296
#These two values have been output from a single CSD field.
_refine_ls_R_factor_gt 0.0399
_refine_ls_wR_factor_gt 0.0399
_symmetry_cell_setting monoclinic
_symmetry_space_group_name_H-M 'P 21/n'
_symmetry_Int_Tables_number 14
loop_
_symmetry_equiv_pos_site_id
_symmetry_equiv_pos_as_xyz
1 x,y,z
2 1/2-x,1/2+y,1/2-z
3 -x,-y,-z
4 -1/2+x,-1/2-y,-1/2+z
_cell_length_a 17.257(4)
_cell_length_b 21.715(4)
_cell_length_c 24.743(6)
_cell_angle_alpha 90
_cell_angle_beta 98.940(7)
_cell_angle_gamma 90
_cell_formula_units_Z 4
loop_
_atom_type_symbol
_atom_type_radius_bond
C 0.68
H 0.23
Mo 1.54
N 0.68
O 0.68
P 1.05
Zn 1.22
loop_
_atom_site_label
_atom_site_type_symbol
_atom_site_fract_x
_atom_site_fract_y
_atom_site_fract_z
Mo1 Mo 0.12873(3) 0.30681(2) 0.11906(2)
Mo2 Mo -0.26551(3) 0.41772(2) 0.04184(2)
Mo3 Mo 0.02463(3) 0.19147(2) 0.14334(2)
Mo4 Mo 0.03914(3) 0.44839(2) 0.11414(2)
Mo5 Mo -0.03516(3) 0.34026(2) -0.08043(2)
Mo6 Mo -0.12186(3) 0.15053(2) 0.03993(2)
Mo7 Mo -0.22196(3) 0.33408(3) 0.16028(2)
Mo8 Mo 0.07778(3) 0.37742(2) -0.00536(2)
Mo9 Mo -0.22887(3) 0.35371(2) -0.06716(2)
Mo10 Mo -0.15032(3) 0.20839(2) -0.05349(2)
Mo11 Mo -0.16353(3) 0.22295(2) 0.16389(2)
Mo12 Mo -0.10486(3) 0.46422(2) 0.13140(2)
Zn1 Zn -0.01015(4) 0.33121(3) 0.20484(3)
Zn2 Zn -0.28620(4) 0.25777(3) 0.03325(3)
Zn3 Zn 0.05495(4) 0.21542(3) 0.00843(3)
Zn4 Zn 0.10091(4) 0.52870(3) 0.01258(3)
P1 P -0.08608(9) 0.31739(7) 0.05900(6)
O1 O -0.1132(2) 0.30863(19) -0.00320(16)
O2 O -0.1421(2) 0.36062(18) 0.08480(16)
O3 O -0.0030(2) 0.34634(18) 0.06784(16)
O4 O -0.0858(2) 0.25330(18) 0.08692(16)
O5 O 0.1320(3) 0.1744(2) -0.02635(18)
O6 O 0.0733(3) 0.1986(2) -0.1110(2)
O7 O 0.6134(3) 0.2173(2) 0.0242(2)
O8 O 0.6672(3) 0.1368(2) 0.0725(2)
O9 O 0.4735(3) -0.1523(2) 0.22043(19)
O10 O 0.5621(3) -0.0778(2) 0.21905(18)
O11 O -0.0956(3) 0.5310(2) 0.16431(19)
O12 O 0.0935(3) 0.1477(2) 0.18096(19)
O13 O -0.1448(2) 0.37034(19) -0.10059(17)
O14 O 0.2162(3) 0.2833(2) 0.15192(18)
O15 O -0.3483(3) 0.4554(2) 0.0159(2)
O16 O -0.2801(3) 0.3288(2) 0.20808(19)
O17 O -0.2067(3) 0.1916(2) 0.2129(2)
O18 O -0.1774(3) 0.1496(2) -0.0953(2)
O19 O -0.1435(3) 0.0787(2) 0.0200(2)
O20 O 0.0025(3) 0.3543(2) -0.13681(17)
O21 O -0.2930(2) 0.3778(2) 0.10125(18)
O22 O -0.0775(3) 0.2521(2) -0.10051(17)
O23 O -0.0544(3) 0.19237(19) 0.18460(17)
O24 O -0.3046(3) 0.3814(2) -0.11117(19)
O25 O -0.2057(3) 0.47620(19) 0.07993(17)
O26 O 0.0805(3) 0.5114(2) 0.14473(18)
O27 O 0.0915(2) 0.44850(18) 0.04713(16)
O28 O 0.1184(2) 0.38414(19) 0.14456(17)
O29 O -0.2317(3) 0.2712(2) -0.08064(17)
O30 O 0.1421(3) 0.3989(2) -0.04520(18)
O31 O -0.2454(2) 0.2627(2) 0.11228(18)
O32 O 0.1489(2) 0.32853(19) 0.05162(17)
O33 O -0.0206(3) 0.41143(19) 0.16658(16)
O34 O -0.1709(3) 0.4182(2) 0.18288(17)
O35 O -0.1781(3) 0.15152(19) 0.10801(18)
O36 O -0.2007(2) 0.42697(19) -0.01809(17)
O37 O 0.0429(2) 0.29545(18) -0.03024(17)
O38 O -0.0226(2) 0.13791(19) 0.09218(18)
O39 O 0.0546(2) 0.27637(19) 0.16866(16)
O40 O -0.0525(2) 0.18250(19) -0.00885(17)
O41 O -0.0560(2) 0.47427(19) 0.06587(16)
O42 O 0.0827(2) 0.22697(19) 0.08677(17)
O43 O -0.2108(2) 0.20074(19) 0.00683(17)
O44 O -0.0226(2) 0.41506(18) -0.03556(16)
O45 O -0.2785(2) 0.33844(19) 0.00000(17)
O46 O -0.1201(2) 0.30132(19) 0.19299(17)
C1 C 0.1311(4) 0.1843(3) -0.0774(3)
C2 C 0.2104(4) 0.1766(3) -0.0953(3)
C3 C 0.2252(4) 0.1962(4) -0.1456(3)
H1 H 0.18390 0.21250 -0.17150
C4 C 0.3004(4) 0.1920(4) -0.1587(3)
H2 H 0.31070 0.20590 -0.19330
C5 C 0.3605(4) 0.1676(3) -0.1211(3)
H3 H 0.41200 0.16540 -0.13010
C6 C 0.3470(4) 0.1464(3) -0.0707(3)
C7 C 0.2711(4) 0.1509(3) -0.0589(3)
H4 H 0.26030 0.13590 -0.02480
C8 C 0.4094(4) 0.1212(3) -0.0287(2)
C9 C 0.4807(4) 0.1509(3) -0.0144(3)
H5 H 0.49220 0.18640 -0.03410
C10 C 0.5350(4) 0.1295(3) 0.0283(3)
C11 C 0.5209(4) 0.0759(3) 0.0559(3)
H6 H 0.55950 0.06100 0.08460
C12 C 0.4504(4) 0.0437(3) 0.0419(2)
C13 C 0.3957(4) 0.0684(3) -0.0003(3)
H7 H 0.34690 0.04790 -0.01000
C14 C 0.6119(4) 0.1626(3) 0.0431(3)
C15 C 0.4326(4) -0.0138(3) 0.0698(2)
C16 C 0.4759(4) -0.0334(3) 0.1195(2)
H8 H 0.51960 -0.00970 0.13590
C17 C 0.4565(4) -0.0862(3) 0.1451(2)
C18 C 0.3933(4) -0.1217(3) 0.1218(3)
H9 H 0.37960 -0.15790 0.13960
C19 C 0.3505(4) -0.1041(3) 0.0728(3)
H10 H 0.30730 -0.12840 0.05660
C20 C 0.3701(4) -0.0512(3) 0.0471(3)
H11 H 0.34010 -0.03980 0.01300
C21 C 0.5028(4) -0.1058(3) 0.1989(3)
C22 C -0.461(1) 0.4866(7) 0.3265(8)
H12 H -0.51770 0.48490 0.31170
H13 H -0.44640 0.53060 0.33020
C23 C -0.4501(12) 0.4595(8) 0.3820(7)
H14 H -0.39860 0.47360 0.40130
H15 H -0.44660 0.41420 0.37790
C24 C -0.5105(9) 0.4722(7) 0.4193(9)
H16 H -0.49480 0.45130 0.45440
H17 H -0.56180 0.45670 0.40210
H18 H -0.51380 0.51660 0.42530
C25 C -0.4409(10) 0.4984(8) 0.2334(6)
H19 H -0.49850 0.49880 0.22180
H20 H -0.42350 0.54160 0.23990
C26 C -0.4014(10) 0.4710(8) 0.1874(7)
H21 H -0.40030 0.42560 0.19110
H22 H -0.34640 0.48550 0.19190
C27 C -0.4422(15) 0.4876(13) 0.129(1)
H23 H -0.41330 0.46910 0.10200
H24 H -0.44310 0.53250 0.12460
H25 H -0.49610 0.47190 0.12340
C28 C -0.4420(8) 0.3908(7) 0.2767(6)
H26 H -0.40970 0.37550 0.24980
H27 H -0.42610 0.36760 0.31110
C29 C -0.5234(11) 0.3764(10) 0.2564(8)
H28 H -0.54170 0.40190 0.22380
H29 H -0.55590 0.38660 0.28480
C30 C -0.5332(15) 0.3113(11) 0.2421(11)
H30 H -0.58880 0.30270 0.22930
H31 H -0.51480 0.28600 0.27430
H32 H -0.50270 0.30150 0.21290
C31 C -0.3314(7) 0.4618(6) 0.3031(6)
H33 H -0.31690 0.43530 0.33570
H34 H -0.30940 0.44240 0.27270
C32 C -0.2939(8) 0.5197(6) 0.3142(8)
H35 H -0.31710 0.54110 0.34320
H36 H -0.30310 0.54550 0.28090
C33 C -0.2079(8) 0.5125(8) 0.3321(9)
H37 H -0.18390 0.55320 0.33920
H38 H -0.18470 0.49180 0.30330
H39 H -0.19870 0.48790 0.36570
N1 N -0.4212(6) 0.4613(6) 0.2883(5)
C34 C 0.2127(8) 0.6328(6) 0.2784(6)
H40 H 0.20040 0.66080 0.30740
H41 H 0.27050 0.62810 0.28440
C35 C 0.1940(9) 0.6656(7) 0.2290(6)
H42 H 0.13860 0.67890 0.22590
H43 H 0.19720 0.63660 0.19860
C36 C 0.2413(8) 0.7202(5) 0.2203(4)
H44 H 0.22350 0.73690 0.18370
H45 H 0.29660 0.70850 0.22360
H46 H 0.23510 0.75150 0.24780
C37 C 0.2044(8) 0.5643(7) 0.3502(5)
H47 H 0.18930 0.60270 0.36740
H48 H 0.16920 0.53180 0.36040
C38 C 0.2784(9) 0.5498(7) 0.3769(5)
H49 H 0.31580 0.57440 0.35930
H50 H 0.28760 0.50620 0.36820
C39 C 0.3022(7) 0.5562(7) 0.4344(4)
H51 H 0.35730 0.54410 0.44390
H52 H 0.26970 0.52970 0.45380
H53 H 0.29600 0.59920 0.44490
C40 C 0.0937(6) 0.5748(6) 0.2775(7)
H54 H 0.08070 0.57940 0.23730
H55 H 0.07590 0.53310 0.28620
C41 C 0.0448(7) 0.6163(7) 0.2999(6)
H56 H 0.06380 0.65850 0.29440
H57 H 0.05110 0.60900 0.33980
C42 C -0.0396(6) 0.6141(6) 0.2781(5)
H58 H -0.06740 0.64480 0.29690
H59 H -0.06010 0.57300 0.28400
H60 H -0.04750 0.62310 0.23880
C43 C 0.2106(10) 0.5229(7) 0.2608(5)
H61 H 0.18920 0.53000 0.22190
H62 H 0.26780 0.52970 0.26420
C44 C 0.2018(12) 0.4601(8) 0.2691(7)
H63 H 0.14800 0.44980 0.25110
H64 H 0.20200 0.45500 0.30880
C45 C 0.2525(8) 0.4112(7) 0.2533(6)
H65 H 0.23300 0.37110 0.26340
H66 H 0.30610 0.41730 0.27230
H67 H 0.25220 0.41260 0.21370
N2 N 0.1815(4) 0.5733(4) 0.2901(3)
C46 C 0.4461(11) 0.3671(9) -0.0258(8)
H68 H 0.48620 0.36680 0.00740
H69 H 0.44410 0.40900 -0.04190
C47 C 0.4670(15) 0.3207(11) -0.0666(10)
H70 H 0.47210 0.27930 -0.04970
H71 H 0.42510 0.31920 -0.09880
C48 C 0.5407(16) 0.3384(14) -0.0836(13)
H72 H 0.55470 0.30820 -0.10990
H73 H 0.58200 0.33980 -0.05160
H74 H 0.53520 0.37910 -0.10080
C49 C 0.3262(12) 0.4008(9) 0.0196(8)
H75 H 0.31940 0.43830 -0.00340
H76 H 0.27310 0.38550 0.02310
C50 C 0.3626(13) 0.4170(9) 0.0698(8)
H77 H 0.41250 0.43770 0.06590
H78 H 0.37580 0.37910 0.09150
C51 C 0.3165(9) 0.4589(6) 0.1018(5)
H79 H 0.34810 0.46860 0.13720
H80 H 0.26810 0.43830 0.10770
H81 H 0.30360 0.49710 0.08120
C52 C 0.3080(8) 0.3398(7) -0.0641(6)
H82 H 0.32370 0.30190 -0.08170
H83 H 0.25650 0.33150 -0.05280
C53 C 0.2973(10) 0.3857(8) -0.1035(6)
H84 H 0.34830 0.39520 -0.11510
H85 H 0.27850 0.42350 -0.08730
C54 C 0.2406(11) 0.3682(9) -0.1520(6)
H86 H 0.23550 0.40190 -0.17870
H87 H 0.18940 0.35990 -0.14100
H88 H 0.25910 0.33110 -0.16860
C55 C 0.3778(9) 0.2916(5) 0.0207(6)
H89 H 0.39040 0.25940 -0.00490
H90 H 0.42540 0.29680 0.04840
C56 C 0.3186(9) 0.2660(7) 0.0491(7)
H91 H 0.27470 0.25000 0.02220
H92 H 0.29770 0.29850 0.07090
C57 C 0.3521(13) 0.2151(6) 0.0860(6)
H93 H 0.31120 0.19810 0.10500
H94 H 0.39520 0.23110 0.11280
H95 H 0.37200 0.18260 0.06420
N3 N 0.3681(6) 0.3506(4) -0.0114(4)
O47 O -0.4029(9) 0.4264(7) -0.2150(6)
Zn1A Zn 0.51015(4) -0.16879(3) 0.29516(3)
Zn2* Zn 0.71380(4) 0.25777(3) 0.03325(3)
Zn4B Zn -0.10091(4) 0.47130(3) -0.01258(3)
O7* O -0.3866(3) 0.2173(2) 0.0242(2)
O9A O 0.0265(3) 0.3477(2) 0.27957(19)
O36B O 0.2007(2) 0.57303(19) 0.01809(17)
O41B O 0.0560(2) 0.52573(19) -0.06587(16)
O44B O 0.0226(2) 0.58494(18) 0.03556(16)
#END
