
#######################################################################
#
#                 Cambridge Crystallographic Data Centre
#                                CCDC
#
#######################################################################
#
# If this CIF has been generated from an entry in the Cambridge
# Structural Database, then it will include bibliographic, chemical,
# crystal, experimental, refinement or atomic coordinate data resulting
# from the CCDC's data processing and validation procedures.
#
#######################################################################

data_CSD_CIF_REJTAE
_audit_creation_date 2017-10-11
_audit_creation_method CSD-ConQuest-V1
_database_code_CSD REJTAE
_database_code_depnum_ccdc_archive 'CCDC 1549082'
_chemical_formula_sum 'C69 H122 Mo12 N3 O46 P1 Zn4'
_chemical_formula_moiety
;
(C21 H14 Mo12 O46 P1 Zn4 3-)n,3(C16 H36 N1 1+)
;
_journal_coden_Cambridge 222
_journal_volume 46
_journal_year 2017
_journal_page_first 14286
_journal_name_full 'Dalton Trans. '
loop_
_publ_author_name
"Bao-Xia Dong"
"Hua-Bo Chen"
"Yi-Chen Wu"
"Juan Zhao"
"Yun-Lei Teng"
"Wen-Long Liu"
"Zong-Wei Li"
_chemical_name_systematic
;
catena-[tris(tetra-n-butylammonium) 
(\m-phosphato)-(\m-[1,1';3',1''-terphenyl]-3,5',3''-tricarboxylato)-henicosaki
s(\m-oxo)-tris(\m-hydroxo)-dodeca-oxo-tetra-zinc-dodeca-molybdenum]
;
_chemical_name_common
;
YZU-105
;
_cell_volume  10447.275
_exptl_crystal_colour 'black'
_exptl_crystal_density_diffrn 2.019
_exptl_crystal_description 'polyhedron'
_exptl_crystal_preparation 'hydrothermal synthesis'
_diffrn_ambient_temperature 296
_refine_special_details
;
C41 and C41A disordered over two sites with occupancies 0.70:0.30.

;
#These two values have been output from a single CSD field.
_refine_ls_R_factor_gt 0.0385
_refine_ls_wR_factor_gt 0.0385
_symmetry_cell_setting monoclinic
_symmetry_space_group_name_H-M 'P 21/c'
_symmetry_Int_Tables_number 14
loop_
_symmetry_equiv_pos_site_id
_symmetry_equiv_pos_as_xyz
1 x,y,z
2 -x,1/2+y,1/2-z
3 -x,-y,-z
4 x,-1/2-y,-1/2+z
_cell_length_a 16.3103(15)
_cell_length_b 28.272(3)
_cell_length_c 23.888(2)
_cell_angle_alpha 90
_cell_angle_beta 108.481(3)
_cell_angle_gamma 90
_cell_formula_units_Z 4
loop_
_atom_type_symbol
_atom_type_radius_bond
C 0.68
H 0.23
Mo 1.54
N 0.68
O 0.68
P 1.05
Zn 1.22
loop_
_atom_site_label
_atom_site_type_symbol
_atom_site_fract_x
_atom_site_fract_y
_atom_site_fract_z
Mo1 Mo 0.45088(2) 0.600838(11) 0.499727(15)
Mo2 Mo 0.57397(2) 0.662523(11) 0.619638(15)
Mo3 Mo 0.61564(2) 0.544634(12) 0.610827(15)
Mo4 Mo 0.28939(2) 0.577771(12) 0.481991(15)
Mo5 Mo 0.58182(2) 0.479903(12) 0.678686(15)
Mo6 Mo 0.37524(2) 0.444052(11) 0.665385(15)
Mo7 Mo 0.22577(2) 0.494128(12) 0.563686(15)
Mo8 Mo 0.47944(2) 0.691125(12) 0.712726(15)
Mo9 Mo 0.26825(2) 0.656674(13) 0.682120(17)
Mo10 Mo 0.18369(2) 0.609287(13) 0.588158(17)
Mo11 Mo 0.44012(3) 0.601611(13) 0.797119(16)
Mo12 Mo 0.47752(2) 0.513750(13) 0.784581(16)
Zn1 Zn 0.25457(3) 0.529700(18) 0.70890(2)
Zn2 Zn 0.35066(3) 0.688441(17) 0.56498(2)
Zn3 Zn 0.62821(3) 0.596494(17) 0.74946(2)
Zn4 Zn 0.42042(3) 0.476313(16) 0.53500(2)
P1 P 0.41348(6) 0.57345(3) 0.64109(4)
O1 O 0.40445(18) 0.61194(10) 0.68553(12)
O2 O 0.44513(18) 0.52718(10) 0.67570(12)
O3 O 0.47984(18) 0.58854(9) 0.60980(12)
O4 O 0.32396(18) 0.56677(10) 0.59367(12)
O5 O 0.2884(2) 0.74687(12) 0.53546(16)
O6 O 0.1891(3) 0.70001(12) 0.47494(17)
O7 O -0.2851(2) 0.97072(12) 0.33903(15)
O8 O -0.2626(2) 0.89752(12) 0.31205(14)
O9 O -0.2082(3) 1.08133(13) 0.69720(17)
O10 O -0.1839(2) 1.01187(13) 0.74387(15)
O11 O 0.1886(2) 0.69069(12) 0.68972(16)
O12 O 0.4041(2) 0.45922(11) 0.74383(13)
O13 O 0.5265(2) 0.74411(11) 0.73166(15)
O14 O 0.2494(2) 0.58262(11) 0.40897(14)
O15 O 0.48465(19) 0.43356(10) 0.66487(13)
O16 O 0.4935(2) 0.66210(11) 0.78329(13)
O17 O 0.3223(2) 0.63684(11) 0.76973(13)
O18 O 0.6369(2) 0.71071(11) 0.62557(15)
O19 O 0.57966(19) 0.48267(10) 0.76478(12)
O20 O 0.4473(2) 0.61109(10) 0.43023(13)
O21 O 0.23695(19) 0.5169(1) 0.49553(13)
O22 O 0.5026(2) 0.49548(12) 0.85436(14)
O23 O 0.46311(19) 0.69099(10) 0.62604(13)
O24 O 0.4582(2) 0.60352(12) 0.86958(15)
O25 O 0.3642(2) 0.70393(10) 0.69670(14)
O26 O 0.64855(19) 0.61349(10) 0.62777(13)
O27 O 0.35316(18) 0.63689(10) 0.51013(13)
O28 O 0.70825(19) 0.52282(10) 0.60574(14)
O29 O 0.6651(2) 0.44338(11) 0.68825(14)
O30 O 0.19018(18) 0.61035(10) 0.50368(13)
O31 O 0.51997(19) 0.6570(1) 0.54087(13)
O32 O 0.2224(2) 0.59238(10) 0.67195(13)
O33 O 0.3672(2) 0.54622(10) 0.76833(13)
O34 O 0.56205(17) 0.56443(9) 0.52610(12)
O35 O 0.57755(19) 0.65268(10) 0.70383(13)
O36 O 0.26424(19) 0.66213(10) 0.60033(13)
O37 O 0.54134(19) 0.5724(1) 0.78539(13)
O38 O 0.34153(18) 0.46261(10) 0.57999(12)
O39 O 0.53314(17) 0.49252(9) 0.59392(12)
O40 O 0.27091(19) 0.48529(10) 0.65137(13)
O41 O 0.62993(18) 0.5437(1) 0.69552(12)
O42 O 0.39461(18) 0.53997(9) 0.49942(12)
O43 O 0.15582(19) 0.54109(11) 0.57539(14)
O44 O 0.3325(2) 0.38981(11) 0.66221(15)
O45 O 0.1586(2) 0.44818(11) 0.54134(15)
O46 O 0.0858(2) 0.63308(12) 0.57501(16)
C1 C 0.2123(3) 0.73839(17) 0.5008(2)
C2 C 0.1467(3) 0.77696(16) 0.4908(2)
C3 C 0.0607(3) 0.76713(18) 0.4617(3)
H1 H 0.04420 0.73600 0.44740
C4 C -0.0015(3) 0.80182(19) 0.4530(3)
H2 H -0.06030 0.79430 0.43310
C5 C 0.0207(3) 0.84784(17) 0.4731(2)
C6 C 0.1075(3) 0.85774(17) 0.5017(2)
H3 H 0.12430 0.88890 0.51550
C7 C 0.1699(3) 0.82263(17) 0.5104(2)
H4 H 0.22890 0.83000 0.52990
C8 C -0.0471(3) 0.88475(17) 0.4649(2)
C9 C -0.0472(3) 0.91359(17) 0.5128(2)
H5 H -0.00300 0.90980 0.54960
C10 C -0.1108(3) 0.94746(16) 0.50737(19)
C11 C -0.1733(3) 0.95369(17) 0.4526(2)
H6 H -0.21550 0.97780 0.44770
C12 C -0.1749(3) 0.92531(16) 0.40522(19)
C13 C -0.1130(3) 0.89058(17) 0.4116(2)
H7 H -0.11540 0.87050 0.37920
C14 C -0.2466(3) 0.93269(17) 0.3478(2)
C15 C -0.1181(3) 0.97341(17) 0.55959(19)
C16 C -0.1456(4) 1.01993(18) 0.5555(2)
H8 H -0.15270 1.03700 0.52000
C17 C -0.1631(4) 1.04197(17) 0.6023(2)
H9 H -0.18080 1.07410 0.59890
C18 C -0.1550(3) 1.01768(17) 0.6539(2)
C19 C -0.1247(3) 0.97181(18) 0.6591(2)
H10 H -0.11690 0.95500 0.69480
C20 C -0.1055(3) 0.94996(18) 0.6131(2)
H11 H -0.08340 0.91860 0.61790
C21 C -0.1842(3) 1.03972(18) 0.7018(2)
C22 C 0.2282(4) 0.6822(2) 0.3470(3)
H12 H 0.23060 0.64860 0.33610
H13 H 0.25260 0.68450 0.39050
C23 C 0.1340(4) 0.6974(2) 0.3288(3)
H14 H 0.12860 0.72570 0.35180
H15 H 0.11460 0.70610 0.28650
C24 C 0.0766(4) 0.6587(3) 0.3389(4)
H16 H 0.08560 0.62960 0.31850
H17 H 0.09310 0.65170 0.38160
C25 C -0.0171(5) 0.6721(4) 0.3167(6)
H18 H -0.05210 0.64590 0.32370
H19 H -0.03390 0.67860 0.27430
H20 H -0.02650 0.70030 0.33750
C26 C 0.2490(4) 0.7103(2) 0.2530(2)
H21 H 0.19680 0.73060 0.24090
H22 H 0.29220 0.72480 0.23710
C27 C 0.2253(6) 0.6624(2) 0.2248(3)
H23 H 0.18560 0.64610 0.24240
H24 H 0.27800 0.64290 0.23210
C28 C 0.1818(6) 0.6681(3) 0.1590(3)
H25 H 0.17790 0.63670 0.13990
H26 H 0.21840 0.68850 0.14290
C29 C 0.0918(7) 0.6895(5) 0.1430(4)
H27 H 0.06790 0.69290 0.10010
H28 H 0.09500 0.72060 0.16170
H29 H 0.05430 0.66860 0.15700
C30 C 0.2878(4) 0.76231(19) 0.3379(2)
H30 H 0.31530 0.78060 0.31340
H31 H 0.22770 0.77380 0.32870
C31 C 0.3349(5) 0.7730(2) 0.4016(3)
H32 H 0.39720 0.76610 0.41020
H33 H 0.31250 0.75250 0.42700
C32 C 0.3233(6) 0.8243(3) 0.4153(3)
H34 H 0.33190 0.84430 0.38360
H35 H 0.26330 0.82910 0.41550
C33 C 0.3851(7) 0.8401(4) 0.4739(4)
H36 H 0.37440 0.87340 0.48050
H37 H 0.44470 0.83630 0.47360
H38 H 0.37630 0.82080 0.50560
C34 C 0.3735(4) 0.6888(2) 0.3413(3)
H39 H 0.36840 0.65520 0.32900
H40 H 0.39360 0.68940 0.38500
C35 C 0.4424(4) 0.7119(2) 0.3200(3)
H41 H 0.43030 0.70500 0.27750
H42 H 0.44020 0.74660 0.32460
C36 C 0.5308(5) 0.6943(3) 0.3537(4)
H43 H 0.57070 0.70260 0.33140
H44 H 0.52880 0.65940 0.35590
C37 C 0.5671(6) 0.7135(5) 0.4151(4)
H45 H 0.62450 0.69990 0.43410
H46 H 0.52880 0.70510 0.43800
H47 H 0.57180 0.74800 0.41360
N1 N 0.2850(3) 0.71073(15) 0.31991(19)
C38 C 0.9784(4) 0.9476(2) 0.1399(3)
H48 H 1.00420 0.93070 0.11330
H49 H 1.02630 0.95870 0.17440
C39 C 0.9299(5) 0.9903(3) 0.1076(3)
H50 H 0.88180 0.97940 0.07310
H51 H 0.90430 1.00750 0.13420
C40 C 0.9851(5) 1.0234(3) 0.0871(4)
C41 C 1.0464(6) 1.0506(3) 0.1352(4)
H52 H 1.03040 1.05770 0.17090
H53 H 1.10900 1.04760 0.14100
C42 C 0.8516(4) 0.8928(2) 0.1097(3)
H54 H 0.81690 0.87120 0.12590
H55 H 0.81340 0.91910 0.08980
C43 C 0.8790(4) 0.8660(2) 0.0636(3)
H56 H 0.91250 0.88720 0.04600
H57 H 0.91660 0.83910 0.08250
C44 C 0.8008(5) 0.8476(3) 0.0158(3)
H58 H 0.76110 0.87410 -0.00110
H59 H 0.76960 0.82470 0.03300
C45 C 0.8267(8) 0.8237(4) -0.0330(5)
H60 H 0.77490 0.81200 -0.06330
H61 H 0.86540 0.79710 -0.01650
H62 H 0.85660 0.84650 -0.05060
C46 C 0.8800(4) 0.9375(2) 0.2002(3)
H63 H 0.84230 0.91430 0.21120
H64 H 0.84250 0.96300 0.17720
C47 C 0.9410(5) 0.9588(3) 0.2563(3)
H65 H 0.97130 0.93310 0.28300
H66 H 0.98510 0.97820 0.24640
C48 C 0.8931(7) 0.9891(3) 0.2870(4)
H67 H 0.83830 0.97310 0.28500
H68 H 0.92800 0.99170 0.32920
C49 C 0.8734(9) 1.0370(4) 0.2625(7)
H69 H 0.84180 1.05440 0.28470
H70 H 0.83790 1.03490 0.22100
H71 H 0.92740 1.05360 0.26560
C50 C 0.9852(4) 0.8743(2) 0.1946(3)
H72 H 1.01430 0.86030 0.16790
H73 H 1.03040 0.88900 0.22800
C51 C 0.9433(6) 0.8354(3) 0.2180(5)
H74 H 0.90900 0.81530 0.18500
H75 H 0.90360 0.84910 0.23760
C52 C 1.0109(7) 0.8055(3) 0.2618(5)
H76 H 0.98280 0.77670 0.27070
H77 H 1.05450 0.79530 0.24340
C53 C 1.0561(7) 0.8304(4) 0.3186(5)
H78 H 1.09970 0.80930 0.34430
H79 H 1.01390 0.83920 0.33820
H80 H 1.08440 0.85890 0.31030
N2 N 0.9238(3) 0.91321(18) 0.1610(2)
C54? C 0.991(2) 1.0667(11) 0.0795(13)
H81? H 0.94110 1.08650 0.07980
H82? H 1.01890 1.07650 0.05010
C55 C 0.6553(4) 0.5948(2) 0.1339(3)
H83 H 0.71720 0.58640 0.14390
H84 H 0.63150 0.57650 0.16050
C56 C 0.6101(5) 0.5792(2) 0.0718(3)
H85 H 0.54680 0.58000 0.06440
H86 H 0.62350 0.60170 0.04410
C57 C 0.6358(5) 0.5305(3) 0.0595(4)
H87 H 0.60990 0.50720 0.08000
H88 H 0.69950 0.52750 0.07600
C58 C 0.6079(7) 0.5189(5) -0.0055(4)
H89 H 0.62630 0.48670 -0.01090
H90 H 0.63450 0.54130 -0.02590
H91 H 0.54480 0.52110 -0.02190
C59 C 0.7047(4) 0.6554(2) 0.2111(3)
H92 H 0.67990 0.63690 0.23710
H93 H 0.76340 0.64290 0.21640
C60 C 0.7129(6) 0.7064(3) 0.2314(3)
H94 H 0.74620 0.72400 0.21000
H95 H 0.65450 0.72060 0.22060
C61 C 0.7555(6) 0.7122(3) 0.2951(4)
H96 H 0.81270 0.69660 0.30610
H97 H 0.72060 0.69590 0.31640
C62 C 0.7677(8) 0.7625(4) 0.3150(5)
H98 H 0.79650 0.76360 0.35770
H99 H 0.71120 0.77810 0.30550
H100 H 0.80330 0.77890 0.29480
C63 C 0.6791(6) 0.6782(3) 0.1054(4)
H101 H 0.63890 0.67370 0.06490
H102 H 0.67510 0.71160 0.11630
C64 C 0.7698(8) 0.6688(4) 0.1048(5)
H103 H 0.77350 0.63560 0.09260
H104 H 0.81000 0.67240 0.14550
C65 C 0.8009(12) 0.7024(6) 0.0625(8)
H105 H 0.78540 0.73560 0.06740
H106 H 0.86440 0.70030 0.07150
C66 C 0.7546(17) 0.6853(9) -0.0002(10)
C67 C 0.5550(5) 0.6604(2) 0.1386(3)
H107 H 0.55140 0.69530 0.14060
H108 H 0.51960 0.65070 0.09840
C68 C 0.5156(5) 0.6396(3) 0.1816(4)
H109 H 0.54040 0.65520 0.22040
H110 H 0.53000 0.60550 0.18670
C69 C 0.4175(6) 0.6454(4) 0.1611(5)
H111 H 0.39750 0.64630 0.19610
H112 H 0.40250 0.67620 0.14050
C70 C 0.3704(6) 0.6071(4) 0.1208(5)
H113 H 0.30810 0.61350 0.10830
H114 H 0.38210 0.57670 0.14150
H115 H 0.38990 0.60580 0.08600
N3 N 0.6493(4) 0.64702(17) 0.1472(2)
Mo1B Mo 0.54912(2) 0.399162(11) 0.500273(15)
Zn1A Zn -0.25457(3) 1.029700(18) 0.79110(2)
Zn3C Zn -0.37179(3) 0.903506(17) 0.24946(2)
Zn4B Zn 0.57958(3) 0.523687(16) 0.46500(2)
O8C O 0.7374(2) 0.60248(12) 0.81205(14)
O10A O 0.1839(2) 0.51187(13) 0.75613(15)
O34B O 0.43795(17) 0.43557(9) 0.47390(12)
#END
