
#######################################################################
#
#                 Cambridge Crystallographic Data Centre
#                                CCDC
#
#######################################################################
#
# If this CIF has been generated from an entry in the Cambridge
# Structural Database, then it will include bibliographic, chemical,
# crystal, experimental, refinement or atomic coordinate data resulting
# from the CCDC's data processing and validation procedures.
#
#######################################################################

data_CSD_CIF_REKQIK
_audit_creation_date 2017-10-12
_audit_creation_method CSD-ConQuest-V1
_database_code_CSD REKQIK
_database_code_depnum_ccdc_archive 'CCDC 1557544'
_chemical_formula_sum 'C28 H46 Cu4 Mo8 N24 O29'
_chemical_formula_moiety
;
(C28 H40 Cu4 N24 4+)n,n(Mo8 O26 4-),3n(H2 O1)
;
_journal_coden_Cambridge 9
_journal_volume 56
_journal_year 2017
_journal_page_first 12952
_journal_name_full 'Inorg.Chem. '
loop_
_publ_author_name
"G.A.Senchyk"
"A.B.Lysenko"
"K.V.Domasevitch"
"O.Erhart"
"Stefan Henfling"
"H.Krautscheid"
"E.B.Rusanov"
"K.W.Kramer"
"S.Decurtins"
"Shi-Xia Liu"
_chemical_name_systematic
;
catena-(tetrakis(\m-1,3-bis(1,2,4-triazol-4-yl)propane)-tetra-copper(i) 
dodecakis(\m-oxo)-tetradecaoxo-octa-molybdenum(vi) trihydrate)
;
_cell_volume   5825.256
_exptl_crystal_colour 'colorless'
_exptl_crystal_density_diffrn 2.514
_exptl_crystal_description 'needle'
_diffrn_ambient_temperature 213
_diffrn_special_details
;
twin

;
_refine_special_details
;
Mo4,Mo5,Mo6,O10,O11,O12,O13,O14,O15,O16,O17,O18 and 
Mo7,Mo8,Mo9,O19,O20,O21,O22,O23,O24,O25,O26 disordered over two sites with 
occupancies 0.8465:0.1535; O21W and O22W disordered over two sites with 
occupancies 0.6:0.4.
;
#These two values have been output from a single CSD field.
_refine_ls_R_factor_gt 0.0365
_refine_ls_wR_factor_gt 0.0365
_symmetry_cell_setting monoclinic
_symmetry_space_group_name_H-M 'I 2/m'
_symmetry_Int_Tables_number 12
loop_
_symmetry_equiv_pos_site_id
_symmetry_equiv_pos_as_xyz
1 x,y,z
2 -x,y,-z
3 1/2+x,1/2+y,1/2+z
4 1/2-x,1/2+y,1/2-z
5 -x,-y,-z
6 x,-y,z
7 -1/2-x,-1/2-y,-1/2-z
8 -1/2+x,-1/2-y,-1/2+z
_cell_length_a 8.7226(9)
_cell_length_b 22.6889(15)
_cell_length_c 29.436(3)
_cell_angle_alpha 90
_cell_angle_beta 90.592(11)
_cell_angle_gamma 90
_cell_formula_units_Z 4
loop_
_atom_type_symbol
_atom_type_radius_bond
C 0.68
H 0.23
Cu 1.32
Mo 1.54
N 0.68
O 0.68
loop_
_atom_site_label
_atom_site_type_symbol
_atom_site_fract_x
_atom_site_fract_y
_atom_site_fract_z
Mo1 Mo 0.50899(10) 0.39732(3) 0.05721(2)
Mo2 Mo 0.30167(13) 0.50000 0.01196(3)
Mo3 Mo 0.71408(15) 0.50000 0.10481(4)
O1 O 0.3570(6) 0.4166(2) 0.00844(18)
O2 O 0.6953(7) 0.4192(2) 0.08714(19)
O3 O 0.5171(8) 0.50000 0.0467(2)
O4 O 0.1774(9) 0.50000 -0.0350(3)
O5 O 0.5405(8) 0.3243(3) 0.0489(2)
O6 O 0.3851(7) 0.4007(3) 0.1014(2)
O7 O 0.1911(9) 0.50000 0.0582(3)
O8 O 0.5877(11) 0.50000 0.1467(3)
O9 O 0.8891(13) 0.50000 0.1316(3)
Mo4 Mo 0.96632(11) 0.10330(3) 0.05674(3)
Mo5 Mo 0.7982(5) 0.00000 -0.00047(9)
Mo6 Mo 1.13512(19) 0.00000 0.11429(4)
O10 O 0.9846(11) 0.00000 0.0466(3)
O11 O 0.8530(8) 0.0836(2) -0.0008(2)
O12 O 1.1331(8) 0.0818(3) 0.0962(2)
O13 O 0.9947(10) 0.1765(3) 0.0509(2)
O14 O 0.8197(9) 0.0983(3) 0.0929(2)
O15 O 0.7042(14) 0.00000 -0.0545(3)
O16 O 0.6612(14) 0.00000 0.0367(4)
O17 O 1.2888(15) 0.00000 0.1499(4)
O18 O 0.9828(15) 0.00000 0.1499(4)
Mo7? Mo 0.9998(6) 0.07701(16) 0.09355(14)
Mo8? Mo 1.00000 0.1543(2) 0.00000
Mo9? Mo 0.812(2) 0.00000 0.0145(5)
O19? O 0.864(4) 0.0777(14) 0.0246(12)
O20? O 1.094(3) 0.1302(13) 0.0559(10)
O21? O 0.904(5) 0.00000 0.0922(14)
O22? O 0.878(4) 0.1206(13) 0.1250(11)
O23? O 1.130(4) 0.0612(13) 0.1241(11)
O24? O 0.860(4) 0.2030(12) 0.0194(10)
O25? O 0.614(7) 0.00000 0.0201(19)
O26? O 1.087(6) 0.00000 0.0426(16)
Cu1 Cu 0.26509(13) 0.24489(4) 0.18959(3)
Cu2 Cu -0.19990(15) 0.24375(4) 0.19011(3)
N1 N 0.0952(8) 0.2679(3) 0.1393(2)
N2 N -0.0607(8) 0.2710(3) 0.1415(2)
N3 N 0.0142(8) 0.3219(2) 0.08317(19)
N4 N 0.4217(8) 0.2179(3) 0.1436(2)
N5 N 0.5749(9) 0.2337(3) 0.1368(2)
N6 N 0.5004(9) 0.1727(3) 0.0833(2)
N7 N 0.3398(7) 0.3137(3) 0.2254(2)
N8 N 0.3284(9) 0.3175(3) 0.2723(2)
N9 N 0.4659(7) 0.3914(2) 0.2482(2)
N10 N -0.1689(8) 0.3162(3) 0.2323(2)
N11 N -0.2136(8) 0.3226(2) 0.2775(2)
N12 N -0.0512(7) 0.3917(2) 0.2610(2)
C1 C 0.1360(9) 0.2992(3) 0.1035(2)
H1 H 0.23750 0.30440 0.09390
C2 C -0.1031(9) 0.3037(3) 0.1074(2)
H2 H -0.20570 0.31330 0.10080
C3 C 0.0108(10) 0.3584(3) 0.0422(2)
H3 H 0.10400 0.38250 0.04110
H4 H -0.07750 0.38500 0.04330
C4 C 0.00000 0.3206(5) 0.00000
H5 H 0.09060 0.29520 -0.00160
C5 C 0.382(1) 0.1818(4) 0.1117(3)
H6 H 0.28470 0.16440 0.10860
C6 C 0.6158(11) 0.2062(3) 0.0999(3)
H7 H 0.71290 0.20940 0.08660
C7 C 0.4971(10) 0.1361(3) 0.0418(3)
H8 H 0.40410 0.11180 0.04150
H9 H 0.58580 0.10960 0.04190
C8 C 0.50000 0.1732(4) 0.00000
H10 H 0.40920 0.19870 -0.00080
C9 C 0.4225(9) 0.3585(3) 0.2120(3)
H11 H 0.44790 0.36650 0.18170
C10 C 0.4061(10) 0.3643(3) 0.2847(3)
H12 H 0.41840 0.37720 0.31490
C11 C 0.5557(9) 0.4461(3) 0.2482(3)
H13 H 0.62400 0.44620 0.22200
H14 H 0.61930 0.44770 0.27580
C12 C 0.4524(12) 0.50000 0.2462(4)
H15 H 0.39190 0.50000 0.21800
H16 H 0.38180 0.50000 0.27190
C13 C -0.0730(14) 0.3594(3) 0.2236(3)
H17 H -0.02690 0.36640 0.19540
C14 C -0.1399(11) 0.3679(3) 0.2936(3)
H18 H -0.14730 0.38210 0.32350
C15 C 0.0471(10) 0.4457(3) 0.2653(3)
H19 H 0.13300 0.44310 0.24420
H20 H 0.08890 0.44860 0.29620
C16 C -0.0480(13) 0.50000 0.2546(5)
H21 H -0.14130 0.50000 0.27290
H22 H -0.07820 0.50000 0.22240
O27 O 1.1382(9) 0.4258(3) 0.1582(3)
H23 H 1.20780 0.42100 0.13860
H24 H 1.06990 0.44850 0.14710
O28 O -0.145(3) 0.50000 0.3545(8)
O29? O -0.062(5) 0.50000 0.3672(15)
Mo1A Mo 0.49101(10) 0.39732(3) -0.05721(2)
Mo2A Mo 0.69833(13) 0.50000 -0.01196(3)
Mo3A Mo 0.28592(15) 0.50000 -0.10481(4)
O1A O 0.6430(6) 0.4166(2) -0.00844(18)
O2A O 0.3047(7) 0.4192(2) -0.08714(19)
O3A O 0.4829(8) 0.50000 -0.0467(2)
O4A O 0.8226(9) 0.50000 0.0350(3)
O5A O 0.4595(8) 0.3243(3) -0.0489(2)
O6A O 0.6149(7) 0.4007(3) -0.1014(2)
O7A O 0.8089(9) 0.50000 -0.0582(3)
O8A O 0.4123(11) 0.50000 -0.1467(3)
O9A O 0.1109(13) 0.50000 -0.1316(3)
Mo1D Mo 0.49101(10) 0.60268(3) -0.05721(2)
O1D O 0.6430(6) 0.5834(2) -0.00844(18)
O2D O 0.3047(7) 0.5808(2) -0.08714(19)
O5D O 0.4595(8) 0.6757(3) -0.0489(2)
O6D O 0.6149(7) 0.5993(3) -0.1014(2)
Mo1E Mo 0.50899(10) 0.60268(3) 0.05721(2)
O1E O 0.3570(6) 0.5834(2) 0.00844(18)
O2E O 0.6953(7) 0.5808(2) 0.08714(19)
O5E O 0.5405(8) 0.6757(3) 0.0489(2)
O6E O 0.3851(7) 0.5993(3) 0.1014(2)
Mo4A Mo 1.03368(11) 0.10330(3) -0.05674(3)
Mo5A Mo 1.2018(5) 0.00000 0.00047(9)
Mo6A Mo 0.86488(19) 0.00000 -0.11429(4)
O10A O 1.0154(11) 0.00000 -0.0466(3)
O11A O 1.1470(8) 0.0836(2) 0.0008(2)
O12A O 0.8669(8) 0.0818(3) -0.0962(2)
O13A O 1.0053(10) 0.1765(3) -0.0509(2)
O14A O 1.1803(9) 0.0983(3) -0.0929(2)
O15A O 1.2958(14) 0.00000 0.0545(3)
O16A O 1.3388(14) 0.00000 -0.0367(4)
O17A O 0.7112(15) 0.00000 -0.1499(4)
O18A O 1.0172(15) 0.00000 -0.1499(4)
Mo4D Mo 1.03368(11) -0.10330(3) -0.05674(3)
O11D O 1.1470(8) -0.0836(2) 0.0008(2)
O12D O 0.8669(8) -0.0818(3) -0.0962(2)
O13D O 1.0053(10) -0.1765(3) -0.0509(2)
O14D O 1.1803(9) -0.0983(3) -0.0929(2)
Mo4E Mo 0.96632(11) -0.10330(3) 0.05674(3)
O11E O 0.8530(8) -0.0836(2) -0.0008(2)
O12E O 1.1331(8) -0.0818(3) 0.0962(2)
O13E O 0.9947(10) -0.1765(3) 0.0509(2)
O14E O 0.8197(9) -0.0983(3) 0.0929(2)
N1A N -0.0952(8) 0.2679(3) -0.1393(2)
N2A N 0.0607(8) 0.2710(3) -0.1415(2)
N3A N -0.0142(8) 0.3219(2) -0.08317(19)
C1A C -0.1360(9) 0.2992(3) -0.1035(2)
H1A H -0.23750 0.30440 -0.09390
C2A C 0.1031(9) 0.3037(3) -0.1074(2)
H2A H 0.20570 0.31330 -0.10080
C3A C -0.0108(10) 0.3584(3) -0.0422(2)
H3A H -0.10400 0.38250 -0.04110
H4A H 0.07750 0.38500 -0.04330
H5A H -0.09060 0.29520 0.00160
N4A N 0.5783(8) 0.2179(3) -0.1436(2)
N5A N 0.4251(9) 0.2337(3) -0.1368(2)
N6A N 0.4996(9) 0.1727(3) -0.0833(2)
C5A C 0.618(1) 0.1818(4) -0.1117(3)
H6A H 0.71530 0.16440 -0.10860
C6A C 0.3842(11) 0.2062(3) -0.0999(3)
H7A H 0.28710 0.20940 -0.08660
C7A C 0.5029(10) 0.1361(3) -0.0418(3)
H8A H 0.59590 0.11180 -0.04150
H9A H 0.41420 0.10960 -0.04190
H10A H 0.59080 0.19870 0.00080
N7E N 0.3398(7) 0.6863(3) 0.2254(2)
N8E N 0.3284(9) 0.6825(3) 0.2723(2)
N9E N 0.4659(7) 0.6086(2) 0.2482(2)
C9E C 0.4225(9) 0.6415(3) 0.2120(3)
H11E H 0.44790 0.63350 0.18170
C10E C 0.4061(10) 0.6357(3) 0.2847(3)
H12E H 0.41840 0.62280 0.31490
C11E C 0.5557(9) 0.5539(3) 0.2482(3)
H13E H 0.62400 0.55380 0.22200
H14E H 0.61930 0.55230 0.27580
N10E N -0.1689(8) 0.6838(3) 0.2323(2)
N11E N -0.2136(8) 0.6774(2) 0.2775(2)
N12E N -0.0512(7) 0.6083(2) 0.2610(2)
C13E C -0.0730(14) 0.6406(3) 0.2236(3)
H17E H -0.02690 0.63360 0.19540
C14E C -0.1399(11) 0.6321(3) 0.2936(3)
H18E H -0.14730 0.61790 0.32350
C15E C 0.0471(10) 0.5543(3) 0.2653(3)
H19E H 0.13300 0.55690 0.24420
H20E H 0.08890 0.55140 0.29620
Cu1A Cu -0.26509(13) 0.24489(4) -0.18959(3)
Cu2A Cu 0.19990(15) 0.24375(4) -0.19011(3)
Cu1A* Cu 0.73491(13) 0.24489(4) -0.18959(3)
Cu1C Cu 0.23491(13) 0.74489(4) 0.31041(3)
Cu1E Cu 0.26509(13) 0.75511(4) 0.18959(3)
Cu1F Cu 0.23491(13) 0.25511(4) 0.31041(3)
Cu2* Cu 0.80010(15) 0.24375(4) 0.19011(3)
Cu2C Cu -0.30010(15) 0.74375(4) 0.30989(3)
Cu2E Cu -0.19990(15) 0.75625(4) 0.19011(3)
Cu2F Cu -0.30010(15) 0.25625(4) 0.30989(3)
N4A* N -0.4217(8) 0.2179(3) -0.1436(2)
N5* N -0.4251(9) 0.2337(3) 0.1368(2)
N7A N -0.3398(7) 0.3137(3) -0.2254(2)
N8F N 0.1716(9) 0.1825(3) 0.2277(2)
N8G N -0.1716(9) 0.1825(3) -0.2277(2)
N10A N 0.1689(8) 0.3162(3) -0.2323(2)
N11F N -0.2864(8) 0.1774(2) 0.2225(2)
N11G N 0.2864(8) 0.1774(2) -0.2225(2)
#END
