
#######################################################################
#
#                 Cambridge Crystallographic Data Centre
#                                CCDC
#
#######################################################################
#
# If this CIF has been generated from an entry in the Cambridge
# Structural Database, then it will include bibliographic, chemical,
# crystal, experimental, refinement or atomic coordinate data resulting
# from the CCDC's data processing and validation procedures.
#
#######################################################################

data_CSD_CIF_REMREI
_audit_creation_date 2013-02-22
_audit_creation_method CSD-ConQuest-V1
_database_code_CSD REMREI
_database_code_depnum_ccdc_archive 'CCDC 783333'
_chemical_formula_sum 'C10 H16 K1 N1 O19 Pr2'
_chemical_formula_moiety
;
(C10 H10 N1 O16 Pr2 1-)n,n(K1 1+),3n(H2 O1)
;
_journal_coden_Cambridge 1295
_journal_volume 14
_journal_year 2011
_journal_page_first 320
_journal_name_full 'Inorg.Chem.Commun. '
loop_
_publ_author_name
"Qing-Feng Yang"
"Xiao-Bing Cui"
"Yan Chen"
"Zheng Wang"
"Jie-Hui Yu"
"Ji-Qing Xu"
"Tie-Gang Wang"
_chemical_name_systematic
;
catena-(Potassium 
(\m~4~-nitrilotriacetato)-bis(\m~2~-oxalato)-diaqua-di-praseodymium 
trihydrate)
;
_cell_volume   1044.774
_exptl_crystal_colour 'green'
_exptl_crystal_density_diffrn 2.464
_exptl_crystal_description 'block'
_diffrn_ambient_temperature 293
#These two values have been output from a single CSD field.
_refine_ls_R_factor_gt 0.0355
_refine_ls_wR_factor_gt 0.0355
_symmetry_cell_setting monoclinic
_symmetry_space_group_name_H-M 'P 21/m'
_symmetry_Int_Tables_number 11
loop_
_symmetry_equiv_pos_site_id
_symmetry_equiv_pos_as_xyz
1 x,y,z
2 -x,1/2+y,-z
3 -x,-y,-z
4 x,-1/2-y,z
_cell_length_a 6.4004(7)
_cell_length_b 10.3632(11)
_cell_length_c 16.0411(18)
_cell_angle_alpha 90
_cell_angle_beta 100.904(2)
_cell_angle_gamma 90
_cell_formula_units_Z 2
loop_
_atom_type_symbol
_atom_type_radius_bond
C 0.68
H 0.23
K 1.50
N 0.68
O 0.68
Pr 2.03
loop_
_atom_site_label
_atom_site_type_symbol
_atom_site_fract_x
_atom_site_fract_y
_atom_site_fract_z
C1 C 0.3777(8) 0.4956(5) -0.0103(3)
C2 C 0.5514(9) 0.4786(6) 0.2749(4)
C3 C 0.5596(11) 0.3653(6) 0.3350(4)
H1 H 0.70710 0.34510 0.35820
H2 H 0.49150 0.38950 0.38180
C4 C 0.2203(14) 0.25000 0.2959(6)
H3 H 0.19010 0.17470 0.32750
C5 C 0.0679(11) 0.25000 0.2118(4)
C6 C 0.9117(9) 0.5030(6) 0.5267(4)
H4 H 0.365(13) 0.684(8) 0.424(5)
H5 H 1.014(17) 0.693(9) 0.248(6)
H6 H 0.00(2) 0.456(15) -0.134(8)
H7 H -0.198(15) 0.504(9) -0.168(6)
H8 H -0.48(2) 0.295(15) -0.157(8)
K1 K -0.0541(3) 0.25000 -0.03508(11)
N1 N 0.4552(10) 0.25000 0.2940(4)
O1 O 0.2934(6) 0.4018(4) 0.0186(3)
O2 O 0.2815(6) 0.5865(4) -0.0541(2)
O3 O 0.4867(7) 0.4631(4) 0.1967(3)
O4 O 0.6120(9) 0.5867(5) 0.3079(3)
O5 O 0.1394(8) 0.25000 0.1451(3)
O6 O -0.1270(9) 0.25000 0.2166(4)
O7 O 0.7859(8) 0.5960(5) 0.5125(3)
O8 O 0.9075(8) 0.4133(5) 0.5776(3)
O9 O 0.4337(11) 0.75000 0.4244(6)
O10 O 0.9816(13) 0.75000 0.2722(5)
O11 O -0.0512(9) 0.4427(5) -0.1628(4)
O12 O -0.4687(18) 0.25000 -0.1320(7)
Pr1 Pr 0.51175(6) 0.25000 0.12580(2)
Pr2 Pr 0.79570(6) 0.75000 0.39432(2)
C1B C 0.6223(8) 0.5044(5) 0.0103(3)
C2C C 0.5514(9) 0.0214(6) 0.2749(4)
C3C C 0.5596(11) 0.1347(6) 0.3350(4)
H1C H 0.70710 0.15490 0.35820
H2C H 0.49150 0.11050 0.38180
H3C H 0.19010 0.32530 0.32750
C6B C 1.0883(9) 0.4970(6) 0.4733(4)
H4C H 0.365(13) 0.816(8) 0.424(5)
H5C H 1.014(17) 0.807(9) 0.248(6)
H8C H -0.48(2) 0.205(15) -0.157(8)
O1B O 0.7066(6) 0.5982(4) -0.0186(3)
O1C O 0.2934(6) 0.0982(4) 0.0186(3)
O2B O 0.7185(6) 0.4135(4) 0.0541(2)
O2A O 0.7185(6) 0.0865(4) 0.0541(2)
O3C O 0.4867(7) 0.0369(4) 0.1967(3)
O4C O 0.6120(9) -0.0867(5) 0.3079(3)
O4C* O 0.6120(9) 0.9133(5) 0.3079(3)
O6* O 0.8730(9) 0.25000 0.2166(4)
O7B O 1.2141(8) 0.4040(5) 0.4875(3)
O7C O 0.7859(8) 0.9040(5) 0.5125(3)
O8B O 1.0925(8) 0.5867(5) 0.4224(3)
O8A O 1.0925(8) 0.9133(5) 0.4224(3)
Pr1A Pr 0.48825(6) 0.75000 -0.12580(2)
Pr1* Pr -0.48825(6) 0.25000 0.12580(2)
Pr2A Pr 1.20430(6) 0.25000 0.60568(2)
Pr2* Pr 0.79570(6) -0.25000 0.39432(2)
#END
