
#######################################################################
#
#                 Cambridge Crystallographic Data Centre
#                                CCDC
#
#######################################################################
#
# If this CIF has been generated from an entry in the Cambridge
# Structural Database, then it will include bibliographic, chemical,
# crystal, experimental, refinement or atomic coordinate data resulting
# from the CCDC's data processing and validation procedures.
#
#######################################################################

data_CSD_CIF_REMRIM
_audit_creation_date 2013-02-22
_audit_creation_method CSD-ConQuest-V1
_database_code_CSD REMRIM
_database_code_depnum_ccdc_archive 'CCDC 783334'
_chemical_formula_sum 'C10 H16 Gd2 K1 N1 O19'
_chemical_formula_moiety
;
(C10 H10 Gd2 N1 O16 1-)n,n(K1 1+),3n(H2 O1)
;
_journal_coden_Cambridge 1295
_journal_volume 14
_journal_year 2011
_journal_page_first 320
_journal_name_full 'Inorg.Chem.Commun. '
loop_
_publ_author_name
"Qing-Feng Yang"
"Xiao-Bing Cui"
"Yan Chen"
"Zheng Wang"
"Jie-Hui Yu"
"Ji-Qing Xu"
"Tie-Gang Wang"
_chemical_name_systematic
;
catena-(Potassium 
(\m~4~-nitrilotriacetato)-bis(\m~2~-oxalato)-diaqua-di-gadolinium trihydrate)
;
_cell_volume    996.287
_exptl_crystal_colour 'colorless'
_exptl_crystal_density_diffrn 2.693
_exptl_crystal_description 'block'
_diffrn_ambient_temperature 293
#These two values have been output from a single CSD field.
_refine_ls_R_factor_gt 0.0362
_refine_ls_wR_factor_gt 0.0362
_symmetry_cell_setting monoclinic
_symmetry_space_group_name_H-M 'P 21/m'
_symmetry_Int_Tables_number 11
loop_
_symmetry_equiv_pos_site_id
_symmetry_equiv_pos_as_xyz
1 x,y,z
2 -x,1/2+y,-z
3 -x,-y,-z
4 x,-1/2-y,z
_cell_length_a 6.2927(13)
_cell_length_b 10.083(2)
_cell_length_c 15.981(3)
_cell_angle_alpha 90
_cell_angle_beta 79.28(3)
_cell_angle_gamma 90
_cell_formula_units_Z 2
loop_
_atom_type_symbol
_atom_type_radius_bond
C 0.68
H 0.23
Gd 1.96
K 1.60
N 0.68
O 0.68
loop_
_atom_site_label
_atom_site_type_symbol
_atom_site_fract_x
_atom_site_fract_y
_atom_site_fract_z
C1 C 0.8756(7) 0.5031(6) 0.0096(3)
C2 C 0.9352(9) 0.4809(7) 0.2733(4)
C3 C 0.9417(11) 0.3690(8) 0.3344(4)
H1 H 1.01710 0.39800 0.37880
H2 H 0.79500 0.34600 0.36100
C4 C 1.2828(14) 0.25000 0.2944(6)
H3 H 1.31420 0.17250 0.32600
C5 C 1.4362(11) 0.25000 0.2091(5)
C6 C 0.591(1) 0.5042(7) 0.5251(4)
Gd1 Gd 0.99132(5) 0.25000 0.12558(2)
Gd2 Gd 0.69139(6) 0.75000 0.39360(2)
K1 K 0.5558(3) 0.25000 -0.03699(11)
N1 N 1.0504(10) 0.25000 0.2927(4)
O1 O 0.7822(5) 0.4098(4) 0.0545(2)
O2 O 0.7898(6) 0.5967(4) -0.0219(2)
O3 O 1.0003(6) 0.4627(4) 0.1943(2)
O4 O 0.8630(9) 0.5898(5) 0.3035(3)
O5 O 1.3588(8) 0.25000 0.1436(3)
O6 O 1.6347(8) 0.25000 0.2131(3)
O7 O 0.7158(10) 0.5994(7) 0.5094(4)
O8 O 0.5989(9) 0.4120(7) 0.5768(4)
O9 O 1.0548(10) 0.75000 0.4152(6)
O10 O 0.4909(11) 0.75000 0.2789(4)
O11 O 0.5527(7) 0.4445(5) -0.1635(3)
O12 O 0.9849(14) 0.25000 -0.1302(5)
C1B C 1.1244(7) 0.4969(6) -0.0096(3)
C2C C 0.9352(9) 0.0191(7) 0.2733(4)
C3C C 0.9417(11) 0.1310(8) 0.3344(4)
H1C H 1.01710 0.10200 0.37880
H2C H 0.79500 0.15400 0.36100
H3C H 1.31420 0.32750 0.32600
C6B C 0.409(1) 0.4958(7) 0.4749(4)
Gd1A Gd 1.00868(5) 0.75000 -0.12558(2)
Gd1* Gd 1.99132(5) 0.25000 0.12558(2)
Gd2A Gd 0.30861(6) 0.25000 0.60640(2)
Gd2* Gd 0.69139(6) -0.25000 0.39360(2)
O1B O 1.2178(5) 0.5902(4) -0.0545(2)
O1C O 0.7822(5) 0.0902(4) 0.0545(2)
O2B O 1.2102(6) 0.4033(4) 0.0219(2)
O2A O 1.2102(6) 0.0967(4) 0.0219(2)
O3C O 1.0003(6) 0.0373(4) 0.1943(2)
O4C O 0.8630(9) -0.0898(5) 0.3035(3)
O4C* O 0.8630(9) 0.9102(5) 0.3035(3)
O6* O 0.6347(8) 0.25000 0.2131(3)
O7B O 0.2842(10) 0.4006(7) 0.4906(4)
O7C O 0.7158(10) 0.9006(7) 0.5094(4)
O8B O 0.4011(9) 0.5880(7) 0.4232(4)
O8A O 0.4011(9) 0.9120(7) 0.4232(4)
#END
