
#######################################################################
#
#                 Cambridge Crystallographic Data Centre
#                                CCDC
#
#######################################################################
#
# If this CIF has been generated from an entry in the Cambridge
# Structural Database, then it will include bibliographic, chemical,
# crystal, experimental, refinement or atomic coordinate data resulting
# from the CCDC's data processing and validation procedures.
#
#######################################################################

data_CSD_CIF_REQDIC
_audit_creation_date 2013-05-19
_audit_creation_method CSD-ConQuest-V1
_database_code_CSD REQDIC
_database_code_depnum_ccdc_archive 'CCDC 913601'
_chemical_formula_sum 'C60 H40 Cu2 N30 P2'
_chemical_formula_moiety
;
(C12 Cu2 N30 2-)n,2n(C24 H20 P1 1+)
;
_journal_coden_Cambridge 1290
_journal_year 2013
_journal_page_first 3167
_journal_name_full 'Eur.J.Inorg.Chem. '
loop_
_publ_author_name
"B.Szafranowska"
"J.Beck"
_chemical_name_systematic
;
catena-[bis(Tetraphenylphosphonium) 
hexakis(\m~2~-5-cyanotetrazolyl)-di-copper]
;
_cell_volume   3101.646
_exptl_crystal_colour 'blue'
_exptl_crystal_density_diffrn 1.467
_exptl_crystal_description 'thin needle'
_diffrn_ambient_temperature 123
#These two values have been output from a single CSD field.
_refine_ls_R_factor_gt 0.055
_refine_ls_wR_factor_gt 0.055
_symmetry_cell_setting monoclinic
_symmetry_space_group_name_H-M 'P 21/c'
_symmetry_Int_Tables_number 14
loop_
_symmetry_equiv_pos_site_id
_symmetry_equiv_pos_as_xyz
1 x,y,z
2 -x,1/2+y,1/2-z
3 -x,-y,-z
4 x,-1/2-y,-1/2+z
_cell_length_a 7.5389(3)
_cell_length_b 15.0865(6)
_cell_length_c 27.3257(9)
_cell_angle_alpha 90
_cell_angle_beta 93.637(2)
_cell_angle_gamma 90
_cell_formula_units_Z 2
loop_
_atom_type_symbol
_atom_type_radius_bond
C 0.68
H 0.23
Cu 1.32
N 0.68
P 1.05
loop_
_atom_site_label
_atom_site_type_symbol
_atom_site_fract_x
_atom_site_fract_y
_atom_site_fract_z
Cu1 Cu 0.50000 0.50000 0.00000
Cu2 Cu 1.00000 0.50000 0.00000
N1 N 1.2024(4) 0.4148(2) 0.04754(12)
N2 N 1.3734(4) 0.4380(2) 0.05235(11)
N3 N 1.4500(5) 0.4097(2) 0.09460(12)
N4 N 1.3273(5) 0.3661(3) 0.11877(13)
N5 N 0.8893(6) 0.2965(3) 0.11185(17)
N6 N 1.1038(4) 0.6884(2) 0.01549(12)
N7 N 1.1632(4) 0.6069(2) 0.00969(11)
N8 N 1.3395(4) 0.6080(2) 0.00660(11)
N9 N 1.3987(5) 0.6905(2) 0.01092(12)
N10 N 1.2565(7) 0.9078(3) 0.0243(2)
N11 N 0.7084(4) 0.5588(2) 0.05971(11)
N12 N 0.8795(4) 0.5330(2) 0.06105(11)
N13 N 0.9555(5) 0.5399(3) 0.10598(12)
N14 N 0.8368(5) 0.5723(3) 0.13556(13)
N15 N 0.4031(6) 0.6572(3) 0.13277(15)
C1 C 1.1795(5) 0.3712(3) 0.08943(15)
C2 C 1.0169(6) 0.3313(3) 0.10140(16)
C3 C 1.2508(6) 0.7378(3) 0.01650(15)
C4 C 1.2520(7) 0.8322(3) 0.02061(18)
C5 C 0.6899(6) 0.5824(3) 0.10632(15)
C6 C 0.5299(7) 0.6213(3) 0.12204(15)
P1 P 0.14436(13) 0.00037(8) 0.17037(3)
C7 C 0.2829(6) 0.0699(3) 0.13554(14)
C8 C 0.4367(6) 0.1034(3) 0.15974(17)
H1 H 0.46770 0.08610 0.19260
C9 C 0.5446(7) 0.1616(3) 0.13626(18)
H2 H 0.64850 0.18510 0.15300
C10 C 0.5003(8) 0.1849(3) 0.08900(19)
H3 H 0.57460 0.22460 0.07270
C11 C 0.3506(9) 0.1521(4) 0.06440(18)
H4 H 0.32240 0.16960 0.03140
C12 C 0.2367(7) 0.0924(3) 0.08747(16)
H5 H 0.13320 0.06900 0.07050
C13 C 0.2928(5) -0.0682(3) 0.20795(14)
C14 C 0.2832(6) -0.0695(3) 0.25882(14)
H6 H 0.19480 -0.03650 0.27410
C15 C 0.4063(6) -0.1203(3) 0.28656(16)
H7 H 0.40090 -0.12230 0.32120
C16 C 0.5350(7) -0.1673(3) 0.26482(17)
H8 H 0.61800 -0.20150 0.28440
C17 C 0.5449(6) -0.1653(3) 0.21421(17)
H9 H 0.63480 -0.19780 0.19920
C18 C 0.4236(6) -0.1159(3) 0.18589(16)
H10 H 0.42940 -0.11460 0.15130
C19 C -0.0084(6) -0.0657(3) 0.13274(14)
C20 C 0.0153(6) -0.1564(3) 0.12832(15)
H11 H 0.11540 -0.18480 0.14440
C21 C -0.1094(7) -0.2053(3) 0.10000(16)
H12 H -0.09510 -0.26750 0.09690
C22 C -0.2536(7) -0.1639(4) 0.07645(17)
H13 H -0.33840 -0.19800 0.05740
C23 C -0.2761(7) -0.0734(4) 0.08024(18)
H14 H -0.37470 -0.04520 0.06340
C24 C -0.1535(6) -0.0239(3) 0.10885(16)
H15 H -0.16880 0.03830 0.11200
C25 C 0.0160(6) 0.0684(3) 0.20808(14)
C26 C 0.0451(6) 0.1594(3) 0.21154(16)
H16 H 0.13080 0.18700 0.19260
C27 C -0.0524(7) 0.2092(3) 0.24299(17)
H17 H -0.03300 0.27130 0.24550
C28 C -0.1764(7) 0.1698(3) 0.27040(17)
H18 H -0.24110 0.20490 0.29200
C29 C -0.2083(6) 0.0801(3) 0.26703(17)
H19 H -0.29450 0.05350 0.28630
C30 C -0.1147(6) 0.0288(3) 0.23557(15)
H20 H -0.13850 -0.03290 0.23250
N11B N 0.2916(4) 0.4412(2) -0.05971(11)
N12B N 0.1205(4) 0.4670(2) -0.06105(11)
N13B N 0.0445(5) 0.4601(3) -0.10598(12)
N14B N 0.1632(5) 0.4277(3) -0.13556(13)
N15B N 0.5969(6) 0.3428(3) -0.13277(15)
C5B C 0.3101(6) 0.4176(3) -0.10632(15)
C6B C 0.4701(7) 0.3787(3) -0.12204(15)
N1B N 0.7976(4) 0.5852(2) -0.04754(12)
N2B N 0.6266(4) 0.5620(2) -0.05235(11)
N3B N 0.5500(5) 0.5903(2) -0.09460(12)
N4B N 0.6727(5) 0.6339(3) -0.11877(13)
N5B N 1.1107(6) 0.7035(3) -0.11185(17)
C1B C 0.8205(5) 0.6288(3) -0.08943(15)
C2B C 0.9831(6) 0.6687(3) -0.10140(16)
N6B N 0.8962(4) 0.3116(2) -0.01549(12)
N7B N 0.8368(4) 0.3931(2) -0.00969(11)
N8B N 0.6605(4) 0.3920(2) -0.00660(11)
N9B N 0.6013(5) 0.3095(2) -0.01092(12)
N10B N 0.7435(7) 0.0922(3) -0.0243(2)
C3B C 0.7492(6) 0.2622(3) -0.01650(15)
C4B C 0.7480(7) 0.1678(3) -0.02061(18)
Cu1* Cu 1.50000 0.50000 0.00000
Cu2* Cu 0.00000 0.50000 0.00000
N2* N 0.3734(4) 0.4380(2) 0.05235(11)
N8* N 0.3395(4) 0.6080(2) 0.00660(11)
N12B* N 1.1205(4) 0.4670(2) -0.06105(11)
#END
