
#######################################################################
#
#                 Cambridge Crystallographic Data Centre
#                                CCDC
#
#######################################################################
#
# If this CIF has been generated from an entry in the Cambridge
# Structural Database, then it will include bibliographic, chemical,
# crystal, experimental, refinement or atomic coordinate data resulting
# from the CCDC's data processing and validation procedures.
#
#######################################################################

data_CSD_CIF_REQJUT
_audit_creation_date 2007-02-05
_audit_creation_method CSD-ConQuest-V1
_database_code_CSD REQJUT
_database_code_depnum_ccdc_archive 'CCDC 627262'
_chemical_formula_sum 'C20 H14 Cu2 I3 N4'
_chemical_formula_moiety
;
(C20 H14 Cu1 I1 N4 1+)n,0.5n(Cu2 I4 2-)
;
_journal_coden_Cambridge 155
_journal_volume 359
_journal_year 2006
_journal_page_first 4027
_journal_name_full 'Inorg.Chim.Acta '
loop_
_publ_author_name
"Hua Feng"
"Xiao-Ping Zhou"
"Tao Wu"
"D.Li"
"Ye-Gao Yin"
"S.W.Ng"
_chemical_name_systematic
;
catena-((\m~2~-4'-(3-pyridyl)-2,2':6',2''-terpyridine)-iodo-copper(ii) 
hemikis(bis(\m~2~-iodo)-di-iodo-di-copper(i)))
;
_cell_volume   1132.016
_exptl_crystal_density_diffrn 2.4
_diffrn_ambient_temperature 295
#These two values have been output from a single CSD field.
_refine_ls_R_factor_gt 0.0326
_refine_ls_wR_factor_gt 0.0326
_symmetry_cell_setting triclinic
_symmetry_space_group_name_H-M 'P -1'
_symmetry_Int_Tables_number 2
loop_
_symmetry_equiv_pos_site_id
_symmetry_equiv_pos_as_xyz
1 x,y,z
2 -x,-y,-z
_cell_length_a 7.7388(15)
_cell_length_b 9.5312(19)
_cell_length_c 16.777(3)
_cell_angle_alpha 90.02(3)
_cell_angle_beta 100.42(3)
_cell_angle_gamma 111.17(3)
_cell_formula_units_Z 2
loop_
_atom_type_symbol
_atom_type_radius_bond
C 0.68
H 0.23
Cu 1.47
I 1.40
N 0.68
loop_
_atom_site_label
_atom_site_type_symbol
_atom_site_fract_x
_atom_site_fract_y
_atom_site_fract_z
Cu1 Cu -0.33518(8) -0.25488(6) 0.34134(4)
Cu2 Cu 0.47151(11) 0.04819(9) 0.06629(4)
I1 I 0.41284(6) 0.14242(4) 0.19305(2)
I2 I 0.25200(6) -0.21435(5) -0.00164(2)
I3 I -0.22237(5) -0.46701(4) 0.40570(2)
N1 N -0.3240(6) -0.1482(4) 0.4476(2)
N2 N -0.1964(5) -0.0461(4) 0.3222(2)
N3 N -0.3018(6) -0.2797(4) 0.2258(2)
N4 N 0.3675(5) 0.6351(4) 0.3052(2)
C1 C -0.3670(7) -0.4103(6) 0.1795(3)
H1 H -0.42900 -0.49970 0.20180
C2 C -0.3447(8) -0.4156(6) 0.1001(3)
H2 H -0.39290 -0.50720 0.06910
C3 C -0.2508(8) -0.2848(6) 0.0670(3)
H3 H -0.23370 -0.28670 0.01360
C4 C -0.1819(7) -0.1502(6) 0.1143(3)
H4 H -0.11630 -0.06050 0.09330
C5 C -0.2113(7) -0.1503(5) 0.1930(3)
C6 C -0.1486(6) -0.0145(5) 0.2494(3)
C7 C -0.0539(6) 0.1327(5) 0.2338(3)
H5 H -0.02400 0.15540 0.18290
C8 C -0.0035(6) 0.2469(5) 0.2948(3)
C9 C -0.0510(7) 0.2114(5) 0.3701(3)
H6 H -0.01600 0.28610 0.41190
C10 C -0.1516(6) 0.0625(5) 0.3817(3)
C11 C -0.2267(6) 0.0018(5) 0.4545(3)
C12 C -0.2023(7) 0.0883(6) 0.5251(3)
H7 H -0.13350 0.19160 0.52940
C13 C -0.2815(7) 0.0190(6) 0.5886(3)
H8 H -0.26560 0.07490 0.63660
C14 C -0.3843(8) -0.1336(6) 0.5805(3)
H9 H -0.44140 -0.18180 0.62230
C15 C -0.4010(8) -0.2133(6) 0.5096(3)
H10 H -0.46860 -0.31680 0.50460
C16 C 0.0949(6) 0.4052(5) 0.2773(3)
C17 C 0.2707(7) 0.4942(5) 0.3219(3)
H11 H 0.32410 0.45380 0.36570
C18 C 0.0180(8) 0.4678(6) 0.2131(3)
H12 H -0.09770 0.41100 0.18060
C19 C 0.1126(7) 0.6150(6) 0.1969(3)
H13 H 0.05990 0.65950 0.15480
C20 C 0.2860(7) 0.6942(5) 0.2442(3)
H14 H 0.34960 0.79330 0.23330
Cu1* Cu 0.66482(8) 0.74512(6) 0.34134(4)
Cu2A Cu 0.52849(11) -0.04819(9) -0.06629(4)
I1A I 0.58716(6) -0.14242(4) -0.19305(2)
I2A I 0.74800(6) 0.21435(5) 0.00164(2)
N4* N -0.6325(5) -0.3649(4) 0.3052(2)
#END
