
#######################################################################
#
#                 Cambridge Crystallographic Data Centre
#                                CCDC
#
#######################################################################
#
# If this CIF has been generated from an entry in the Cambridge
# Structural Database, then it will include bibliographic, chemical,
# crystal, experimental, refinement or atomic coordinate data resulting
# from the CCDC's data processing and validation procedures.
#
#######################################################################

data_CSD_CIF_RERREM
_audit_creation_date 2007-02-05
_audit_creation_method CSD-ConQuest-V1
_database_code_CSD RERREM
_database_code_depnum_ccdc_archive 'CCDC 614230'
_chemical_formula_sum 'C48 H62 N4 O21 U2'
_chemical_formula_moiety
;
(C28 H42 O20 U2 2-)n,n(H2 O1),n(C10 H10 N2 2+),n(C10 H8 N2)
;
_journal_coden_Cambridge 1147
_journal_volume 6
_journal_year 2006
_journal_page_first 2248
_journal_name_full 'Cryst.Growth Des. '
loop_
_publ_author_name
"L.A.Borkowski"
"C.L.Cahill"
_chemical_name_systematic
;
catena-(4,4'-Bipyridyl-1,1'-diium 
bis(\m~2~-heptanedioato-O,O',O'',O''')-bis(monohydrogen 
heptanedioato-O,O')-tetraoxo-di-uranium(vi) 4,4'-bipyridyl monohydrate)
;
_chemical_name_common
;
catena-(4,4'-Bipyridyl-1,1'-diium 
bis(mu!2$-pimelato-O,O',O'',O''')-(monohydrogen 
pimelato-O,O')-tetraoxo-di-uranium(vi) 4,4'-bipyridyl monohydrate)
;
_cell_volume   1336.621
_exptl_crystal_colour 'dark yellow'
_exptl_crystal_density_diffrn 1.895
_exptl_crystal_description 'needle'
_diffrn_ambient_temperature 298
#These two values have been output from a single CSD field.
_refine_ls_R_factor_gt 0.0354
_refine_ls_wR_factor_gt 0.0354
_symmetry_cell_setting triclinic
_symmetry_space_group_name_H-M 'P -1'
_symmetry_Int_Tables_number 2
loop_
_symmetry_equiv_pos_site_id
_symmetry_equiv_pos_as_xyz
1 x,y,z
2 -x,-y,-z
_cell_length_a 9.2194(5)
_cell_length_b 12.1003(8)
_cell_length_c 12.6351(8)
_cell_angle_alpha 85.612(1)
_cell_angle_beta 75.136(2)
_cell_angle_gamma 78.964(2)
_cell_formula_units_Z 1
loop_
_atom_type_symbol
_atom_type_radius_bond
C 0.68
H 0.23
N 0.68
O 0.68
U 1.48
loop_
_atom_site_label
_atom_site_type_symbol
_atom_site_fract_x
_atom_site_fract_y
_atom_site_fract_z
U1 U 0.66640(2) 0.661865(19) 0.074050(16)
O1 O 0.8635(4) 0.6672(4) 0.0462(3)
O2 O 0.4696(4) 0.6531(3) 0.1054(3)
O3 O 0.6762(4) 0.6725(3) -0.1233(3)
O4 O 0.6172(4) 0.8301(3) -0.0383(3)
O5 O 0.6088(4) 0.8330(3) -0.8172(3)
O6 O 0.6510(5) 0.6737(3) -0.7281(3)
O7 O 0.7098(5) 0.4733(3) 0.1660(3)
O8 O 0.7365(4) 0.4755(3) -0.0098(3)
O9 O 0.9906(7) 0.1799(8) 0.5357(5)
O10 O 0.7507(6) 0.1817(6) 0.6057(4)
H1 H 0.77860 0.16860 0.66270
O11 O 0.5947(7) 0.4707(6) 0.3981(4)
N1 N 0.1886(5) 0.5475(4) 0.2296(4)
H2 H 0.23600 0.55770 0.16250
N2 N 0.1707(6) 0.8645(5) 0.2082(4)
C1 C 0.6384(6) 0.7791(5) -0.1256(4)
C2 C 0.6193(7) 0.8433(5) -0.2292(4)
H3 H 0.68990 0.89590 -0.24650
H4 H 0.51690 0.88720 -0.21520
C3 C 0.6442(6) 0.7736(5) -0.3288(4)
H5 H 0.57720 0.71850 -0.31120
H6 H 0.74840 0.73300 -0.34620
C4 C 0.6152(7) 0.8427(5) -0.4287(4)
H7 H 0.68380 0.89680 -0.44710
H8 H 0.51180 0.88470 -0.41060
C5 C 0.6366(7) 0.7732(5) -0.5286(4)
H9 H 0.56860 0.71880 -0.51020
H10 H 0.74030 0.73170 -0.54720
C6 C 0.6057(6) 0.8440(5) -0.6288(4)
H11 H 0.50300 0.88700 -0.60840
H12 H 0.67510 0.89740 -0.64680
C7 C 0.6211(6) 0.7810(5) -0.7302(4)
C8 C 0.7380(6) 0.4194(5) 0.0790(5)
C9 C 0.7679(7) 0.2936(5) 0.0779(5)
H13 H 0.86210 0.26950 0.02340
H14 H 0.68660 0.27000 0.05440
C10 C 0.7802(7) 0.2320(5) 0.1861(5)
H15 H 0.69570 0.26540 0.24420
H16 H 0.77190 0.15390 0.18150
C11 C 0.9284(7) 0.2364(6) 0.2152(5)
H17 H 0.93640 0.31470 0.21890
H18 H 1.01230 0.20320 0.15660
C12 C 0.9467(9) 0.1758(9) 0.3239(6)
H19 H 0.96260 0.09530 0.31380
H20 H 1.03860 0.19190 0.33880
C13 C 0.8264(10) 0.2023(10) 0.4171(6)
H21 H 0.74740 0.16020 0.41570
H22 H 0.78350 0.28170 0.41190
C14 C 0.8655(11) 0.1794(10) 0.5258(7)
C15 C -0.0302(6) 0.5180(5) 0.3575(4)
H23 H -0.13210 0.51060 0.37270
C16 C 0.0466(7) 0.5357(5) 0.2519(5)
H24 H -0.00260 0.53930 0.19570
C17 C 0.2619(7) 0.5441(6) 0.3070(5)
H25 H 0.36290 0.55430 0.28880
C18 C 0.1905(7) 0.5258(6) 0.4134(5)
H26 H 0.24320 0.52330 0.46750
C19 C 0.0403(6) 0.5108(5) 0.4420(4)
C20 C 0.1883(6) 0.9748(5) 0.0421(5)
H27 H 0.24710 1.01400 -0.01350
C21 C 0.0356(6) 0.9714(5) 0.0430(5)
C22 C -0.0444(7) 0.9109(5) 0.1292(5)
H28 H -0.14470 0.90470 0.13310
C23 C 0.0267(8) 0.8602(6) 0.2086(5)
H29 H -0.02880 0.82060 0.26580
C24 C 0.2487(7) 0.9197(6) 0.1242(6)
H30 H 0.35030 0.92090 0.12100
H31 H 0.533(7) 0.511(5) 0.442(4)
H32 H 0.612(8) 0.463(6) 0.3323(19)
U1* U 0.66640(2) 0.661865(19) 1.074050(16)
U1** U 0.66640(2) 0.661865(19) -0.925950(16)
O1* O 0.8635(4) 0.6672(4) 1.0462(3)
O2* O 0.4696(4) 0.6531(3) 1.1054(3)
O3* O 0.6762(4) 0.6725(3) 0.8767(3)
O4* O 0.6172(4) 0.8301(3) 0.9617(3)
O5* O 0.6088(4) 0.8330(3) 0.1828(3)
O5** O 0.6088(4) 0.8330(3) 1.1828(3)
O6* O 0.6510(5) 0.6737(3) 0.2719(3)
O6** O 0.6510(5) 0.6737(3) 1.2719(3)
O7* O 0.7098(5) 0.4733(3) 1.1660(3)
O8* O 0.7365(4) 0.4755(3) 0.9902(3)
O9* O 0.9906(7) 0.1799(8) 1.5357(5)
O10* O 0.7507(6) 0.1817(6) 1.6057(4)
H1* H 0.77860 0.16860 1.66270
N1A N -0.1886(5) 0.4525(4) 0.7704(4)
H2A H -0.23600 0.44230 0.83750
N2A N -0.1707(6) 1.1355(5) -0.2082(4)
C1* C 0.6384(6) 0.7791(5) 0.8744(4)
C2* C 0.6193(7) 0.8433(5) 0.7708(4)
H3* H 0.68990 0.89590 0.75350
H4* H 0.51690 0.88720 0.78480
C3* C 0.6442(6) 0.7736(5) 0.6712(4)
H5* H 0.57720 0.71850 0.68880
H6* H 0.74840 0.73300 0.65380
C4* C 0.6152(7) 0.8427(5) 0.5713(4)
H7* H 0.68380 0.89680 0.55290
H8* H 0.51180 0.88470 0.58940
C5* C 0.6366(7) 0.7732(5) 0.4714(4)
H9* H 0.56860 0.71880 0.48980
H10* H 0.74030 0.73170 0.45280
C6* C 0.6057(6) 0.8440(5) 0.3712(4)
H11* H 0.50300 0.88700 0.39160
H12* H 0.67510 0.89740 0.35320
C7* C 0.6211(6) 0.7810(5) 0.2698(4)
C8* C 0.7380(6) 0.4194(5) 1.0790(5)
C9* C 0.7679(7) 0.2936(5) 1.0779(5)
H13* H 0.86210 0.26950 1.02340
H14* H 0.68660 0.27000 1.05440
C10* C 0.7802(7) 0.2320(5) 1.1861(5)
H15* H 0.69570 0.26540 1.24420
H16* H 0.77190 0.15390 1.18150
C11* C 0.9284(7) 0.2364(6) 1.2152(5)
H17* H 0.93640 0.31470 1.21890
H18* H 1.01230 0.20320 1.15660
C12* C 0.9467(9) 0.1758(9) 1.3239(6)
H19* H 0.96260 0.09530 1.31380
H20* H 1.03860 0.19190 1.33880
C13* C 0.8264(10) 0.2023(10) 1.4171(6)
H21* H 0.74740 0.16020 1.41570
H22* H 0.78350 0.28170 1.41190
C14* C 0.8655(11) 0.1794(10) 1.5258(7)
C15A C 0.0302(6) 0.4820(5) 0.6425(4)
H23A H 0.13210 0.48940 0.62730
C16A C -0.0466(7) 0.4643(5) 0.7481(5)
H24A H 0.00260 0.46070 0.80430
C17A C -0.2619(7) 0.4559(6) 0.6930(5)
H25A H -0.36290 0.44570 0.71120
C18A C -0.1905(7) 0.4742(6) 0.5866(5)
H26A H -0.24320 0.47670 0.53250
C19A C -0.0403(6) 0.4892(5) 0.5580(4)
C20A C -0.1883(6) 1.0252(5) -0.0421(5)
H27A H -0.24710 0.98600 0.01350
C21A C -0.0356(6) 1.0286(5) -0.0430(5)
C22A C 0.0444(7) 1.0891(5) -0.1292(5)
H28A H 0.14470 1.09530 -0.13310
C23A C -0.0267(8) 1.1398(6) -0.2086(5)
H29A H 0.02880 1.17940 -0.26580
C24A C -0.2487(7) 1.0803(6) -0.1242(6)
H30A H -0.35030 1.07910 -0.12100
#END
