
#######################################################################
#
#                 Cambridge Crystallographic Data Centre
#                                CCDC
#
#######################################################################
#
# If this CIF has been generated from an entry in the Cambridge
# Structural Database, then it will include bibliographic, chemical,
# crystal, experimental, refinement or atomic coordinate data resulting
# from the CCDC's data processing and validation procedures.
#
#######################################################################

data_CSD_CIF_RERVOC
_audit_creation_date 2018-02-20
_audit_creation_method CSD-ConQuest-V1
_database_code_CSD RERVOC
_database_code_depnum_ccdc_archive 'CCDC 1528959'
_chemical_formula_sum 'C158 H100 Cl2 Mn6 N18 O50 Ru1'
_chemical_formula_moiety
;
(C120 H44 Cl2 Mn6 N8 O50 6-)n,n(C30 H24 N6 Ru1 2+),4n(C2 H8 N1 1+)
;
_journal_coden_Cambridge 1659
_journal_volume 227
_journal_year 2018
_journal_page_first 425
_journal_name_full 'Applied Catalysis B: Environmental(Appl.Catal.,B) '
loop_
_publ_author_name
"Yan-Xi Tan"
"Shao-Xia Lin"
"Caiping Liu"
"Yiyin Huang"
"Mi Zhou"
"Qiang Kang"
"Daqiang Yuan"
"Maochun Hong"
_chemical_name_systematic
;
catena-(tetrakis(dimethylammonium) tris(2,2'-bipyridine)-ruthenium(ii) 
tetrakis(\m-5,5'-(1,3,6,8-tetraoxo-1,3,6,8-tetrahydrobenzo[lmn][3,8]phenanthro
line-2,7-diyl)bis(benzene-1,3-dicarboxylate))-diaqua-dichloro-hexa-manganese 
unknown solvate)
;
_chemical_name_common
;
FJI-Y2
;
_cell_volume  21272.486
_exptl_crystal_colour 'red'
_exptl_crystal_description 'prism'
_diffrn_ambient_temperature 200.1
_refine_special_details
;
The SQUEEZE/PLATON program was used to model two of the cations and some 
guest molecules.
;
#These two values have been output from a single CSD field.
_refine_ls_R_factor_gt 0.1024
_refine_ls_wR_factor_gt 0.1024
_symmetry_cell_setting monoclinic
_symmetry_space_group_name_H-M 'P 21/c'
_symmetry_Int_Tables_number 14
loop_
_symmetry_equiv_pos_site_id
_symmetry_equiv_pos_as_xyz
1 x,y,z
2 -x,1/2+y,1/2-z
3 -x,-y,-z
4 x,-1/2-y,-1/2+z
_cell_length_a 31.4652(7)
_cell_length_b 21.1868(6)
_cell_length_c 33.7591(6)
_cell_angle_alpha 90
_cell_angle_beta 109.053(2)
_cell_angle_gamma 90
_cell_formula_units_Z 4
loop_
_atom_type_symbol
_atom_type_radius_bond
C 0.68
H 0.23
Cl 0.99
Mn 1.61
N 0.68
O 0.68
Ru 1.46
loop_
_atom_site_label
_atom_site_type_symbol
_atom_site_fract_x
_atom_site_fract_y
_atom_site_fract_z
Ru1 Ru 0.75267(2) 0.65580(3) 0.72455(2)
N1 N 0.7144(2) 0.7167(3) 0.67879(17)
N2 N 0.7154(2) 0.5934(3) 0.6797(2)
N3 N 0.7061(2) 0.6422(3) 0.7554(2)
N4 N 0.7856(3) 0.5908(3) 0.77002(17)
N5 N 0.7916(2) 0.7235(3) 0.76407(16)
N6 N 0.8055(2) 0.6651(3) 0.70102(17)
C1 C 0.7161(3) 0.7805(4) 0.6815(2)
H1 H 0.73584 0.79980 0.70608
C2 C 0.6898(3) 0.8183(5) 0.6495(3)
H2 H 0.69106 0.86290 0.65229
C3 C 0.6614(4) 0.7904(5) 0.6133(3)
H3 H 0.64305 0.81506 0.59064
C4 C 0.6610(3) 0.7235(5) 0.6115(3)
H4 H 0.64226 0.70279 0.58706
C5 C 0.6868(3) 0.6887(4) 0.6439(2)
C6 C 0.6872(3) 0.6195(4) 0.6442(2)
C7 C 0.6612(3) 0.5830(5) 0.6121(3)
H5 H 0.64180 0.60198 0.58735
C8 C 0.6635(4) 0.5172(5) 0.6161(3)
H6 H 0.64633 0.49106 0.59374
C9 C 0.6906(4) 0.4916(5) 0.6521(3)
H7 H 0.69226 0.44705 0.65578
C10 C 0.7156(3) 0.5306(4) 0.6833(3)
H8 H 0.73401 0.51212 0.70877
C11 C 0.6651(3) 0.6656(4) 0.7435(3)
H9 H 0.65695 0.69546 0.72131
C12 C 0.6334(4) 0.6487(6) 0.7617(4)
H10 H 0.60423 0.66681 0.75294
C13 C 0.6461(4) 0.6043(6) 0.7932(4)
H11 H 0.62457 0.58906 0.80518
C14 C 0.6894(4) 0.5819(5) 0.8075(3)
H12 H 0.69876 0.55402 0.83085
C15 C 0.7189(3) 0.6005(4) 0.7875(2)
C16 C 0.7642(4) 0.5757(5) 0.7980(3)
C17 C 0.7859(5) 0.5391(5) 0.8336(3)
H13 H 0.77137 0.53118 0.85370
C18 C 0.8280(5) 0.5146(5) 0.8395(3)
H14 H 0.84230 0.48867 0.86305
C19 C 0.8489(4) 0.5288(5) 0.8102(3)
H15 H 0.87798 0.51250 0.81339
C20 C 0.8275(3) 0.5663(4) 0.7771(3)
H16 H 0.84263 0.57596 0.75763
C21 C 0.7810(3) 0.7543(4) 0.7938(2)
H17 H 0.75234 0.74783 0.79674
C22 C 0.8110(3) 0.7958(4) 0.8208(2)
H18 H 0.80298 0.81621 0.84240
C23 C 0.8508(3) 0.8072(4) 0.8164(3)
H19 H 0.87085 0.83695 0.83400
C24 C 0.8629(3) 0.7747(4) 0.7856(2)
H20 H 0.89153 0.78120 0.78264
C25 C 0.8328(2) 0.7333(3) 0.7597(2)
C26 C 0.8404(2) 0.6993(3) 0.7246(2)
C27 C 0.8809(3) 0.7008(4) 0.7161(2)
H21 H 0.90569 0.72400 0.73375
C28 C 0.8845(3) 0.6688(4) 0.6824(3)
H22 H 0.91202 0.66859 0.67642
C29 C 0.8479(3) 0.6370(4) 0.6573(3)
H23 H 0.84913 0.61686 0.63258
C30 C 0.8093(3) 0.6340(4) 0.6678(2)
H24 H 0.78470 0.60935 0.65116
Mn1 Mn 0.49529(6) 0.21150(11) 0.70466(8)
Mn2 Mn 0.53585(4) 0.32601(7) 0.80611(4)
Mn3 Mn 0.79007(3) -0.01792(5) 0.78610(3)
Mn4 Mn 0.70946(3) 0.50226(5) 1.19684(3)
Mn5 Mn 0.99607(4) 0.26685(6) 1.32789(4)
Mn6 Mn 0.03077(4) 0.66024(6) 0.26439(4)
Cl1 Cl 0.84670(7) -0.02595(13) 0.85288(5)
Cl2 Cl 0.65563(8) 0.50057(14) 1.12833(6)
O1 O 0.5394(2) 0.3515(4) 0.74611(19)
O2 O 0.4894(2) 0.3086(4) 0.6889(2)
O3 O 0.5067(6) 0.6400(8) 0.7048(5)
O4 O 0.5132(6) 0.6010(8) 0.7602(5)
O5 O 0.4181(2) 0.4820(4) 0.57424(18)
O6 O 0.34679(19) 0.4824(3) 0.67148(14)
O7 O 0.21026(18) 0.4647(3) 0.41308(14)
O8 O 0.13708(19) 0.4767(4) 0.50865(17)
O9 O 0.1099(3) 0.6345(3) 0.3468(3)
O10 O 0.0379(3) 0.6065(4) 0.3177(2)
O11 O -0.0108(3) 0.3935(5) 0.3456(3)
O12 O 0.0463(3) 0.3288(3) 0.3727(3)
O13 O 0.4526(3) 0.1645(4) 0.6583(2)
O14 O 0.3940(3) 0.2044(4) 0.6091(3)
O15 O 0.4649(2) -0.0697(3) 0.6740(2)
O16 O 0.4026(2) -0.1237(3) 0.6538(2)
O17 O 0.2556(2) 0.0016(3) 0.58909(15)
O18 O 0.3334(2) 0.0310(4) 0.49823(18)
O19 O 0.0605(2) -0.0639(4) 0.41822(17)
O20 O 0.13835(18) -0.0307(3) 0.32821(15)
O21 O -0.0346(3) 0.0769(3) 0.2699(2)
O22 O -0.0860(2) 0.0006(4) 0.2494(2)
O23 O -0.00871(19) -0.2009(3) 0.22759(17)
O24 O 0.03076(19) -0.2438(3) 0.28786(19)
O25 O 0.5624(3) 0.2392(4) 0.7982(3)
O26 O 0.5594(3) 0.1927(4) 0.7389(2)
O27 O 0.68882(18) 0.0587(3) 0.73806(16)
O28 O 0.74483(18) 0.0450(3) 0.79872(18)
O29 O 0.6625(3) 0.1147(4) 0.92051(19)
O30 O 0.7538(3) 0.2542(4) 0.88666(19)
O31 O 0.7675(3) 0.1809(4) 1.13498(19)
O32 O 0.8491(2) 0.3356(3) 1.10034(17)
O33 O 0.7542(2) 0.4317(3) 1.19337(18)
O34 O 0.8077(2) 0.4393(3) 1.25582(17)
O35 O 0.91904(17) 0.1937(3) 1.25848(18)
O36 O 0.92705(18) 0.2805(3) 1.29687(18)
O37 O -0.03909(16) 0.6587(3) 0.23985(15)
O38 O -0.03439(16) 0.6866(3) 0.17713(15)
O39 O -0.17941(16) 0.5719(3) 0.25019(13)
O40 O -0.23975(15) 0.5670(2) 0.19230(14)
O41 O -0.15491(18) 0.6177(3) 0.05801(14)
O42 O -0.2365(2) 0.7569(3) 0.10615(14)
O43 O -0.27284(19) 0.7075(3) -0.14842(14)
O44 O -0.35433(19) 0.8462(3) -0.10060(16)
O45 O -0.4583(2) 0.7377(4) -0.2455(2)
O46 O -0.46445(18) 0.8269(3) -0.28156(17)
O47 O -0.31865(18) 0.9237(3) -0.27795(15)
O48 O -0.25984(18) 0.9123(3) -0.22017(17)
O49 O 0.9888(3) 0.2186(4) 1.3831(2)
O50 O 0.5283(3) 0.2843(5) 0.8635(2)
N7 N 0.3825(2) 0.4832(4) 0.62263(19)
N8 N 0.1740(2) 0.4746(3) 0.46114(16)
N9 N 0.2942(2) 0.0172(3) 0.54366(17)
N10 N 0.0984(2) -0.0431(3) 0.37305(17)
N11 N 0.7096(2) 0.1826(3) 0.90439(19)
N12 N 0.8067(2) 0.2601(3) 1.11694(17)
N13 N -0.1967(2) 0.6855(3) 0.08229(15)
N14 N -0.3126(2) 0.7777(3) -0.12400(17)
C31 C 0.5058(3) 0.3553(5) 0.7117(3)
C32 C 0.5101(9) 0.5866(9) 0.7243(6)
C33 C 0.4861(3) 0.5297(6) 0.7065(3)
C34 C 0.5058(3) 0.4722(6) 0.7201(3)
H25 H 0.53303 0.46936 0.74306
C35 C 0.4847(3) 0.4186(5) 0.6992(2)
C36 C 0.4447(3) 0.4223(5) 0.6676(2)
H26 H 0.43055 0.38511 0.65383
C37 C 0.4251(3) 0.4798(5) 0.6558(2)
C38 C 0.4447(3) 0.5356(5) 0.6743(3)
H27 H 0.43088 0.57547 0.66579
C39 C 0.3828(3) 0.4804(5) 0.5813(2)
C40 C 0.3389(3) 0.4766(4) 0.5487(2)
C41 C 0.2990(3) 0.4756(4) 0.5583(2)
C42 C 0.2999(3) 0.4779(4) 0.6005(2)
C43 C 0.3425(3) 0.4813(4) 0.6342(2)
C44 C 0.3370(3) 0.4727(5) 0.5063(2)
H28 H 0.36391 0.47232 0.49937
C45 C 0.2946(3) 0.4693(4) 0.4743(2)
H29 H 0.29315 0.46634 0.44583
C46 C 0.2564(3) 0.4703(4) 0.4841(2)
C47 C 0.2571(3) 0.4727(4) 0.5258(2)
C48 C 0.2168(3) 0.4746(4) 0.5359(2)
C49 C 0.2185(3) 0.4758(5) 0.5776(2)
H30 H 0.19147 0.47473 0.58429
C50 C 0.2595(3) 0.4784(4) 0.6094(2)
H31 H 0.26028 0.48064 0.63775
C51 C 0.2124(3) 0.4691(4) 0.4495(2)
C52 C 0.1724(3) 0.4755(4) 0.5025(2)
C53 C 0.1317(2) 0.4791(3) 0.42746(19)
C54 C 0.1222(3) 0.5353(4) 0.4042(2)
H32 H 0.14255 0.56965 0.41213
C55 C 0.0839(2) 0.5415(4) 0.3700(2)
C56 C 0.0551(3) 0.4901(5) 0.3602(2)
H33 H 0.02804 0.49398 0.33725
C57 C 0.0633(3) 0.4342(5) 0.3814(3)
C58 C 0.1026(3) 0.4285(4) 0.4160(3)
H34 H 0.10921 0.39016 0.43144
C59 C 0.0764(3) 0.5979(4) 0.3425(2)
C60 C 0.0299(4) 0.3835(5) 0.3647(4)
C61 C 0.4140(4) 0.1612(5) 0.6289(3)
C62 C 0.4236(3) -0.0746(5) 0.6539(2)
C63 C 0.3945(3) 0.0952(4) 0.6188(2)
C64 C 0.4172(3) 0.0420(4) 0.6402(2)
H35 H 0.44567 0.04692 0.66128
C65 C 0.3987(3) -0.0168(5) 0.6311(2)
C66 C 0.3578(3) -0.0256(4) 0.5996(2)
H36 H 0.34526 -0.06657 0.59288
C67 C 0.3359(3) 0.0270(4) 0.5783(2)
C68 C 0.3533(3) 0.0868(4) 0.5869(2)
H37 H 0.33762 0.12197 0.57148
C69 C 0.2980(3) 0.0186(5) 0.5028(2)
C70 C 0.2559(3) 0.0061(4) 0.4674(2)
C71 C 0.2157(3) -0.0090(4) 0.4754(2)
C72 C 0.2143(3) -0.0098(4) 0.5169(2)
C73 C 0.2549(3) 0.0035(4) 0.5523(2)
C74 C 0.2575(3) 0.0054(4) 0.4269(2)
H38 H 0.28514 0.01311 0.42204
C75 C 0.2188(3) -0.0064(4) 0.3934(2)
H39 H 0.21991 -0.00533 0.36562
C76 C 0.1791(3) -0.0198(4) 0.4001(2)
C77 C 0.1771(2) -0.0217(3) 0.4414(2)
C78 C 0.1362(3) -0.0354(4) 0.4490(2)
C79 C 0.1349(3) -0.0358(4) 0.4890(2)
H40 H 0.10730 -0.04437 0.49376
C80 C 0.1733(3) -0.0237(4) 0.5229(2)
H41 H 0.17169 -0.02490 0.55056
C81 C 0.1384(3) -0.0315(4) 0.3641(2)
C82 C 0.0954(3) -0.0495(4) 0.4133(2)
C83 C 0.0582(2) -0.0586(3) 0.3373(2)
C84 C 0.0268(2) -0.0139(4) 0.3203(2)
H42 H 0.03089 0.02764 0.33148
C85 C -0.0114(2) -0.0280(4) 0.2867(2)
C86 C -0.0157(3) -0.0887(4) 0.2697(2)
H43 H -0.04121 -0.09889 0.24622
C87 C 0.0164(3) -0.1336(4) 0.2865(2)
C88 C 0.0542(2) -0.1212(4) 0.3216(2)
H44 H 0.07572 -0.15290 0.33419
C89 C -0.0466(3) 0.0206(4) 0.2673(2)
C90 C 0.0131(2) -0.1986(4) 0.2661(2)
C91 C 0.5785(3) 0.2064(5) 0.7759(3)
C92 C 0.7088(3) 0.0682(4) 0.7765(2)
C93 C 0.6861(2) 0.1146(4) 0.7977(2)
C94 C 0.6449(3) 0.1402(4) 0.7769(2)
H45 H 0.63023 0.13016 0.74828
C95 C 0.6242(3) 0.1810(4) 0.7976(3)
C96 C 0.6457(3) 0.1949(4) 0.8399(3)
H46 H 0.63203 0.22240 0.85443
C97 C 0.6872(3) 0.1683(4) 0.8603(2)
C98 C 0.7079(3) 0.1278(4) 0.8403(2)
H47 H 0.73621 0.10941 0.85499
C99 C 0.7436(3) 0.2285(5) 0.9144(2)
C100 C 0.7635(3) 0.2448(4) 0.9595(2)
C101 C 0.7500(3) 0.2109(4) 0.9889(2)
C102 C 0.7162(4) 0.1646(4) 0.9774(2)
C103 C 0.6939(4) 0.1497(5) 0.9331(3)
C104 C 0.7943(3) 0.2918(5) 0.9713(3)
H48 H 0.80227 0.31504 0.95072
C105 C 0.8143(3) 0.3058(5) 1.0136(3)
H49 H 0.83633 0.33825 1.02156
C106 C 0.8031(3) 0.2743(4) 1.0437(2)
C107 C 0.7707(3) 0.2255(4) 1.0323(2)
C108 C 0.7575(3) 0.1924(4) 1.0628(2)
C109 C 0.7241(4) 0.1469(5) 1.0500(3)
H50 H 0.71609 0.12319 1.07041
C110 C 0.7020(4) 0.1355(6) 1.0069(3)
H51 H 0.67705 0.10747 0.99843
C111 C 0.8222(3) 0.2925(4) 1.0885(2)
C112 C 0.7783(3) 0.2087(4) 1.1077(3)
C113 C 0.8209(2) 0.2835(3) 1.15968(19)
C114 C 0.7999(2) 0.3339(4) 1.1697(2)
H52 H 0.77553 0.35291 1.14857
C115 C 0.8132(3) 0.3584(4) 1.2101(2)
C116 C 0.8478(2) 0.3289(3) 1.2406(2)
H53 H 0.85679 0.34426 1.26855
C117 C 0.8690(2) 0.2785(4) 1.2313(2)
C118 C 0.8562(2) 0.2540(4) 1.1901(2)
H54 H 0.87120 0.21866 1.18345
C119 C 0.9078(3) 0.2492(4) 1.2651(3)
C120 C 0.7894(3) 0.4144(4) 1.2202(2)
C121 C -0.0560(2) 0.6686(4) 0.2012(2)
C122 C -0.1998(2) 0.5830(3) 0.2123(2)
C123 C -0.1053(2) 0.6580(3) 0.1817(2)
C124 C -0.1290(2) 0.6277(3) 0.20513(19)
H55 H -0.11342 0.61493 0.23311
C125 C -0.1753(2) 0.6159(3) 0.18773(18)
C126 C -0.1969(2) 0.6355(3) 0.14713(19)
H56 H -0.22821 0.62771 0.13457
C127 C -0.1736(2) 0.6662(3) 0.12460(19)
C128 C -0.1275(2) 0.6765(3) 0.1414(2)
H57 H -0.11161 0.69598 0.12508
C129 C -0.1854(2) 0.6562(4) 0.0497(2)
C130 C -0.2110(2) 0.6737(3) 0.00692(19)
C131 C -0.2460(2) 0.7184(3) -0.00053(18)
C132 C -0.2566(3) 0.7479(4) 0.0323(2)
C133 C -0.2300(2) 0.7317(4) 0.07648(19)
C134 C -0.2005(2) 0.6491(4) -0.02597(19)
H58 H -0.17638 0.61984 -0.02061
C135 C -0.2243(2) 0.6657(4) -0.06752(19)
H59 H -0.21708 0.64673 -0.09004
C136 C -0.2579(2) 0.7095(3) -0.07523(18)
C137 C -0.2693(2) 0.7372(3) -0.04205(19)
C138 C -0.3033(3) 0.7834(4) -0.0498(2)
C139 C -0.3127(3) 0.8104(5) -0.0164(2)
H60 H -0.33537 0.84189 -0.02137
C140 C -0.2893(3) 0.7919(4) 0.0247(2)
H61 H -0.29650 0.81036 0.04742
C141 C -0.2809(2) 0.7295(4) -0.1189(2)
C142 C -0.3262(2) 0.8057(4) -0.09221(19)
C143 C -0.3336(3) 0.8003(4) -0.1662(2)
C144 C -0.3076(2) 0.8382(3) -0.1823(2)
H62 H -0.27781 0.84954 -0.16589
C145 C -0.3266(2) 0.8598(4) -0.2240(2)
C146 C -0.3699(2) 0.8436(3) -0.24719(19)
H63 H -0.38268 0.85807 -0.27521
C147 C -0.3947(2) 0.8058(4) -0.2291(2)
C148 C -0.3758(2) 0.7830(4) -0.1883(2)
H64 H -0.39244 0.75594 -0.17637
C149 C -0.2995(2) 0.9013(3) -0.2422(2)
C150 C -0.4432(2) 0.7895(5) -0.2545(3)
N15 N -0.0744(3) 0.4872(5) 0.3099(3)
H65 H -0.05249 0.46252 0.32734
H66 H -0.10047 0.47842 0.31492
C151 C -0.0616(4) 0.5604(7) 0.3216(5)
H67 H -0.08529 0.58756 0.30354
H68 H -0.03298 0.57018 0.31722
H69 H -0.05877 0.56788 0.35096
C152 C -0.0795(4) 0.4707(6) 0.2682(3)
H70 H -0.05462 0.48852 0.26035
H71 H -0.10806 0.48741 0.24957
H72 H -0.07934 0.42461 0.26563
N16 N -0.1516(2) 0.0785(3) 0.2070(2)
H73 H -0.13913 0.10759 0.19421
H74 H -0.12879 0.05526 0.22445
C153 C -0.1749(4) 0.1114(5) 0.2318(4)
H75 H -0.18317 0.08106 0.24995
H76 H -0.20213 0.13138 0.21302
H77 H -0.15510 0.14372 0.24903
C154 C -0.1806(4) 0.0372(6) 0.1753(3)
H78 H -0.19757 0.06219 0.15082
H79 H -0.20157 0.01560 0.18676
H80 H -0.16227 0.00582 0.16692
Mn1A Mn -0.49529(6) 0.71150(11) -0.20466(8)
Mn2A Mn -0.53585(4) 0.82601(7) -0.30611(4)
Mn2A* Mn 0.46415(4) -0.17399(7) 0.69389(4)
Mn3* Mn -0.20993(3) 0.98208(5) -0.21390(3)
Mn3C Mn -0.20993(3) 0.51792(5) 0.28610(3)
Mn3C* Mn 0.79007(3) 0.51792(5) 1.28610(3)
Mn4* Mn -0.29054(3) 0.50226(5) 0.19684(3)
Mn4C Mn -0.29054(3) 0.99774(5) -0.30316(3)
Mn4C* Mn 0.70946(3) -0.00226(5) 0.69684(3)
Mn5* Mn -0.00393(4) 0.26685(6) 0.32789(4)
Mn5A Mn 0.00393(4) -0.23315(6) 0.17211(4)
Mn5A* Mn 0.00393(4) 0.76685(6) 0.17211(4)
Mn6* Mn 0.03077(4) -0.33976(6) 0.26439(4)
Mn6A Mn -0.03077(4) 0.16024(6) 0.23561(4)
Mn6A* Mn 0.96923(4) 0.16024(6) 1.23561(4)
O12* O 1.0463(3) 0.3288(3) 1.3727(3)
O15A O 0.5351(2) 0.4303(3) 0.8260(2)
O16A O 0.5974(2) 0.3763(3) 0.8462(2)
O21A O 0.0346(3) 0.5769(3) 0.2301(2)
O23A O 1.00871(19) 0.2991(3) 1.27241(17)
O24* O 0.03076(19) 0.7562(3) 0.28786(19)
O27C O 0.68882(18) 0.4413(3) 1.23806(16)
O34C O 0.8077(2) 0.0607(3) 0.75582(17)
O35A O 0.08096(17) 0.6937(3) 0.24152(18)
O38A O 1.03439(16) 0.1866(3) 1.32287(15)
O39C O 0.82059(16) -0.0719(3) 0.75019(13)
O40* O 0.76025(15) 0.5670(2) 1.19230(14)
O45A O 0.4583(2) 0.2377(4) 0.7455(2)
O46A O 0.46445(18) 0.3269(3) 0.78156(17)
O47C O 0.68135(18) 0.5763(3) 1.22205(15)
O48* O 0.74016(18) -0.0877(3) 0.77983(17)
#END
