
#######################################################################
#
#                 Cambridge Crystallographic Data Centre
#                                CCDC
#
#######################################################################
#
# If this CIF has been generated from an entry in the Cambridge
# Structural Database, then it will include bibliographic, chemical,
# crystal, experimental, refinement or atomic coordinate data resulting
# from the CCDC's data processing and validation procedures.
#
#######################################################################

data_CSD_CIF_RERVIW
_audit_creation_date 2018-02-20
_audit_creation_method CSD-ConQuest-V1
_database_code_CSD RERVIW
_database_code_depnum_ccdc_archive 'CCDC 1528958'
_chemical_formula_sum 'C70 H55 Cl1 Mn3 N8 O26'
_chemical_formula_moiety
;
(C60 H22 Cl1 Mn3 N4 O25 3-)n,C4 H9 N1 O1,3(C2 H8 N1 1+)
;
_journal_coden_Cambridge 1659
_journal_volume 227
_journal_year 2018
_journal_page_first 425
_journal_name_full 'Applied Catalysis B: Environmental(Appl.Catal.,B) '
loop_
_publ_author_name
"Yan-Xi Tan"
"Shao-Xia Lin"
"Caiping Liu"
"Yiyin Huang"
"Mi Zhou"
"Qiang Kang"
"Daqiang Yuan"
"Maochun Hong"
_chemical_name_systematic
;
catena-(tris(dimethylammonium) 
bis(\m-5,5'-(1,3,6,8-tetraoxo-1,3,6,8-tetrahydrobenzo[lmn][3,8]phenanthroline-
2,7-diyl)bis(benzene-1,3-dicarboxylate))-aqua-chloro-tri-manganese 
dimethylacetamide unknown solvate)
;
_chemical_name_common
;
FJI-Y1
;
_cell_volume  10439.030
_exptl_crystal_colour 'orange'
_exptl_crystal_density_diffrn 1.032
_exptl_crystal_description 'prism'
_diffrn_ambient_temperature 100
_refine_special_details
;
C64A and C64B disordered over two sites with occupancies 0.617:0.383; The 
SQUEEZE/PLATON program has been used to model some disorder.
;
#These two values have been output from a single CSD field.
_refine_ls_R_factor_gt 0.0754
_refine_ls_wR_factor_gt 0.0754
_symmetry_cell_setting monoclinic
_symmetry_space_group_name_H-M 'P 21/c'
_symmetry_Int_Tables_number 14
loop_
_symmetry_equiv_pos_site_id
_symmetry_equiv_pos_as_xyz
1 x,y,z
2 -x,1/2+y,1/2-z
3 -x,-y,-z
4 x,-1/2-y,-1/2+z
_cell_length_a 18.6552(3)
_cell_length_b 21.1563(1)
_cell_length_c 33.4582(5)
_cell_angle_alpha 90
_cell_angle_beta 127.765(2)
_cell_angle_gamma 90
_cell_formula_units_Z 4
loop_
_atom_type_symbol
_atom_type_radius_bond
C 0.68
H 0.23
Cl 0.99
Mn 1.61
N 0.68
O 0.68
loop_
_atom_site_label
_atom_site_type_symbol
_atom_site_fract_x
_atom_site_fract_y
_atom_site_fract_z
Mn1 Mn 0.43252(4) 0.36046(3) 0.72670(2)
Mn2 Mn 0.91772(3) 0.00993(2) 0.50385(2)
Mn3 Mn 1.53092(4) 0.24530(3) 0.68298(3)
Cl1 Cl 0.81218(7) 0.02735(7) 0.52005(4)
O1 O 0.57186(17) 0.37745(13) 0.77487(11)
O2 O 0.56729(18) 0.34054(13) 0.71130(11)
O3 O 0.86037(19) 0.44223(14) 0.93407(10)
O4 O 0.98154(18) 0.45179(15) 0.93554(10)
O5 O 0.9746(3) 0.2731(2) 0.83774(15)
O6 O 0.8101(2) 0.41900(14) 0.71291(12)
O7 O 1.19985(19) 0.18858(14) 0.73700(12)
O8 O 1.0304(3) 0.33057(18) 0.61054(14)
O9 O 1.0131(2) 0.08316(14) 0.54337(11)
O10 O 1.12959(19) 0.07305(13) 0.54088(10)
O11 O 1.35307(19) 0.31796(13) 0.65475(12)
O12 O 1.38913(19) 0.22442(16) 0.64129(14)
O13 O 0.3915(2) 0.41097(16) 0.76345(14)
O14 O 0.2504(3) 0.3777(2) 0.72051(17)
O15 O 0.4546(2) 0.63807(16) 0.82192(17)
O16 O 0.3345(2) 0.69826(14) 0.78675(15)
O17 O 0.17818(19) 0.52358(17) 0.84363(12)
O18 O 0.0178(2) 0.5534(2) 0.67471(13)
O19 O -0.22542(17) 0.55146(13) 0.81841(10)
O20 O -0.3848(2) 0.5780(2) 0.64899(12)
O21 O -0.44098(19) 0.76558(12) 0.74566(12)
O22 O -0.55190(19) 0.72942(13) 0.74705(13)
O23 O -0.5889(2) 0.44439(14) 0.68376(13)
O24 O -0.6822(2) 0.52151(16) 0.67133(13)
O25 O 1.5105(3) 0.2793(3) 0.61275(19)
N1 N 0.8955(2) 0.34790(18) 0.77698(13)
N2 N 1.1079(2) 0.25518(15) 0.67140(13)
N3 N 0.0975(2) 0.53827(15) 0.75939(13)
N4 N -0.3053(2) 0.56388(15) 0.73366(12)
C1 C 0.6091(2) 0.36165(17) 0.75537(15)
C2 C 0.9014(2) 0.43619(17) 0.91560(14)
C3 C 0.7550(3) 0.35373(18) 0.76774(15)
H1 H 0.72300 0.33519 0.73514
C4 C 0.7098(2) 0.37092(16) 0.78684(14)
C5 C 0.7571(2) 0.39656(17) 0.83486(14)
H2 H 0.72571 0.40696 0.84807
C6 C 0.8502(2) 0.40727(18) 0.86404(14)
C7 C 0.8951(3) 0.3908(2) 0.84439(15)
H3 H 0.95851 0.39790 0.86362
C8 C 0.8477(3) 0.36397(19) 0.79689(16)
C9 C 0.9595(3) 0.2988(2) 0.80130(18)
C10 C 1.0077(3) 0.2832(2) 0.78014(16)
C11 C 0.9864(3) 0.31482(19) 0.73732(15)
C12 C 0.9199(3) 0.36305(19) 0.71324(16)
C13 C 0.8705(3) 0.3802(2) 0.73353(17)
C14 C 1.0721(3) 0.2360(2) 0.80234(19)
H4 H 1.08644 0.21498 0.83150
C15 C 1.1162(3) 0.2191(2) 0.78220(18)
H5 H 1.16070 0.18666 0.79785
C16 C 1.0959(3) 0.24897(19) 0.73979(16)
C17 C 1.0310(3) 0.29704(18) 0.71675(15)
C18 C 1.0079(3) 0.32824(19) 0.67281(17)
C19 C 0.9444(3) 0.3755(2) 0.65074(19)
H6 H 0.93011 0.39659 0.62160
C20 C 0.9003(3) 0.3927(2) 0.67150(18)
H7 H 0.85638 0.42554 0.65612
C21 C 1.1400(3) 0.22808(18) 0.71721(16)
C22 C 1.0489(3) 0.3067(2) 0.64880(17)
C23 C 1.1428(2) 0.23053(18) 0.64591(15)
C24 C 1.0990(2) 0.18006(18) 0.61332(14)
H8 H 1.04588 0.16271 0.60694
C25 C 1.1338(2) 0.15505(17) 0.59002(14)
C26 C 1.2115(2) 0.18074(17) 0.59968(14)
H9 H 1.23585 0.16303 0.58421
C27 C 1.2539(2) 0.23237(18) 0.63197(15)
C28 C 1.2188(2) 0.25751(18) 0.65524(16)
H10 H 1.24700 0.29282 0.67725
C29 C 1.3386(3) 0.2598(2) 0.64346(17)
C30 C 1.0888(2) 0.09901(18) 0.55542(14)
C31 C 0.3113(3) 0.4154(2) 0.7479(2)
C32 C 0.3704(3) 0.6448(2) 0.7983(2)
C33 C 0.3404(3) 0.5299(2) 0.77667(17)
H11 H 0.39650 0.52784 0.78190
C34 C 0.3125(3) 0.5866(2) 0.78412(18)
C35 C 0.2319(3) 0.58944(19) 0.77776(18)
H12 H 0.21195 0.62825 0.78222
C36 C 0.1810(3) 0.53543(18) 0.76492(16)
C37 C 0.2063(3) 0.47893(19) 0.75590(16)
H13 H 0.16908 0.44255 0.74593
C38 C 0.2863(3) 0.4757(2) 0.76148(16)
C39 C 0.1048(3) 0.53276(19) 0.80353(16)
C40 C 0.0176(3) 0.5488(2) 0.71092(16)
C41 C -0.0672(3) 0.55391(19) 0.70605(15)
C42 C -0.0630(2) 0.54856(17) 0.74940(14)
C43 C 0.0195(2) 0.53753(18) 0.79764(15)
C44 C 0.0221(3) 0.53240(19) 0.83953(15)
H14 H 0.07821 0.52509 0.87185
C45 C -0.0585(3) 0.53797(19) 0.83450(15)
H15 H -0.05660 0.53468 0.86346
C46 C -0.1396(2) 0.54815(17) 0.78776(14)
C47 C -0.1439(2) 0.55338(16) 0.74439(14)
C48 C -0.2272(3) 0.56305(19) 0.69557(15)
C49 C -0.2291(3) 0.5680(2) 0.65413(16)
H16 H -0.28529 0.57451 0.62170
C50 C -0.1496(3) 0.5637(2) 0.65890(16)
H17 H -0.15181 0.56738 0.62985
C51 C -0.3119(3) 0.5693(2) 0.68996(15)
C52 C -0.2237(2) 0.55490(17) 0.78312(15)
C53 C -0.3865(2) 0.57886(18) 0.72860(14)
C54 C -0.3983(2) 0.63983(18) 0.73738(15)
H18 H -0.35317 0.67075 0.74746
C55 C -0.4764(2) 0.65640(17) 0.73150(14)
C56 C -0.5424(2) 0.61031(17) 0.71550(14)
H19 H -0.59596 0.62116 0.71142
C57 C -0.5314(2) 0.54893(17) 0.70542(14)
C58 C -0.4517(3) 0.53288(18) 0.71303(14)
H20 H -0.44192 0.49071 0.70761
C59 C -0.4911(3) 0.72201(18) 0.74205(16)
C60 C -0.6063(3) 0.50106(19) 0.68590(16)
O26 O 0.1255(5) 0.6790(3) 0.8117(3)
N5 N 0.2249(6) 0.7385(4) 0.8730(3)
C61 C 0.1241(7) 0.6835(5) 0.8844(4)
H21 H 0.09752 0.72187 0.88683
H22 H 0.17458 0.66928 0.91848
H23 H 0.07792 0.65026 0.86737
C62 C 0.1587(6) 0.6969(5) 0.8549(3)
C63 C 0.2611(7) 0.7598(5) 0.9239(3)
H24 H 0.30543 0.78977 0.93559
H25 H 0.28228 0.72195 0.94625
H26 H 0.20793 0.77703 0.92169
C64 C 0.2556(7) 0.7507(5) 0.8424(4)
H27 H 0.27913 0.79395 0.84857
H28 H 0.20450 0.74569 0.80651
H29 H 0.30359 0.72070 0.85177
N6 N -0.8284(4) 0.4408(3) 0.6261(2)
H30 H -0.78038 0.46757 0.64006
H31 H -0.81417 0.41208 0.65015
C65 C -0.8392(5) 0.4073(4) 0.5847(3)
H32 H -0.78544 0.38131 0.59810
H33 H -0.84653 0.43795 0.56050
H34 H -0.89297 0.38021 0.56779
C66 C -0.9065(5) 0.4773(4) 0.6131(4)
H35 H -0.89122 0.49883 0.64337
H36 H -0.95793 0.44885 0.59999
H37 H -0.92271 0.50875 0.58728
N7 N 0.5942(3) 0.5516(3) 0.8691(2)
H38 H 0.54039 0.57150 0.84634
H39 H 0.58090 0.51107 0.87152
C67 C 0.6414(3) 0.5482(3) 0.84697(19)
H40 H 0.60497 0.52374 0.81553
H41 H 0.70028 0.52756 0.87081
H42 H 0.65066 0.59099 0.83971
C68 C 0.6377(6) 0.5821(5) 0.9187(3)
H43 H 0.60145 0.57418 0.93029
H44 H 0.64193 0.62775 0.91545
H45 H 0.69872 0.56466 0.94318
C69? C 0.5775(10) 0.4852(6) 0.8785(6)
H46? H 0.55844 0.48686 0.89997
H47? H 0.63353 0.46050 0.89536
H48? H 0.52987 0.46527 0.84614
N8 N -0.5592(9) 0.4022(6) 0.6083(4)
H49 H -0.54988 0.35972 0.61055
H50 H -0.55421 0.41438 0.63604
C70 C -0.4866(11) 0.4340(12) 0.6096(8)
H51 H -0.51356 0.45559 0.57737
H52 H -0.44287 0.40242 0.61517
H53 H -0.45545 0.46500 0.63717
C71 C -0.6519(9) 0.4155(13) 0.5631(8)
H54 H -0.69224 0.40774 0.57202
H55 H -0.66566 0.38537 0.53693
H56 H -0.66083 0.45867 0.55020
Mn1* Mn -0.56748(4) 0.36046(3) 0.72670(2)
Mn1** Mn 1.43252(4) 0.36046(3) 0.72670(2)
Mn1A Mn -0.43252(4) 0.86046(3) 0.77330(2)
Mn2A Mn 1.08228(3) 0.50993(2) 0.99615(2)
Mn2B Mn 1.08228(3) -0.00993(2) 0.49615(2)
Mn2C Mn 0.91772(3) 0.49007(2) 1.00385(2)
Mn3* Mn 0.53092(4) 0.24530(3) 0.68298(3)
Mn3A Mn -0.53092(4) 0.74530(3) 0.81702(3)
Mn3A* Mn 0.46908(4) 0.74530(3) 0.81702(3)
O2* O 1.56729(18) 0.34054(13) 0.71130(11)
O3C O 0.86037(19) 0.05777(14) 0.43407(10)
O4A O 1.01846(18) -0.04821(15) 0.56446(10)
O10B O 0.87041(19) -0.07305(13) 0.45912(10)
O11* O 0.35307(19) 0.31796(13) 0.65475(12)
O15A O 1.5454(2) 0.13807(16) 0.67808(17)
O16A O 1.6655(2) 0.19826(14) 0.71325(15)
O21A O 0.44098(19) 0.26558(12) 0.75434(12)
O22A O 1.55190(19) 0.22942(13) 0.75295(13)
O23* O 0.4111(2) 0.44439(14) 0.68376(13)
#END
