
#######################################################################
#
#                 Cambridge Crystallographic Data Centre
#                                CCDC
#
#######################################################################
#
# If this CIF has been generated from an entry in the Cambridge
# Structural Database, then it will include bibliographic, chemical,
# crystal, experimental, refinement or atomic coordinate data resulting
# from the CCDC's data processing and validation procedures.
#
#######################################################################

data_CSD_CIF_RESMEJ
_audit_creation_date 2013-05-19
_audit_creation_method CSD-ConQuest-V1
_database_code_CSD RESMEJ
_database_code_depnum_ccdc_archive 'CCDC 912314'
_chemical_formula_sum 'C80 H112 Gd10 K2 O112'
_chemical_formula_moiety
;
(C80 H60 Gd10 O86 2-)n,2n(K1 1+),26n(H2 O1)
;
_journal_coden_Cambridge 1350
_journal_volume 15
_journal_year 2013
_journal_page_first 1882
_journal_name_full 'CrystEngComm '
loop_
_publ_author_name
"Yun Luo"
"K.Bernot"
"G.Calvez"
"S.Freslon"
"C.Daiguebonne"
"O.Guillou"
"N.Kerbellec"
"T.Roisnel"
_chemical_name_systematic
;
catena-(Di-potassium 
pentakis(\m~6~-1,2,4,5-benzene-tetra-carboxylato)-tris(\m~4~-1,2,4,5-benzene-t
etra-carboxylato)-docosa-aqua-deca-gadolinium hexacosahydrate)
;
_cell_volume   3030.015
_exptl_crystal_colour 'colorless'
_exptl_crystal_density_diffrn 2.475
_exptl_crystal_description 'prism'
_diffrn_ambient_temperature 293
#These two values have been output from a single CSD field.
_refine_ls_R_factor_gt 0.0567
_refine_ls_wR_factor_gt 0.0567
_symmetry_cell_setting triclinic
_symmetry_space_group_name_H-M 'P -1'
_symmetry_Int_Tables_number 2
loop_
_symmetry_equiv_pos_site_id
_symmetry_equiv_pos_as_xyz
1 x,y,z
2 -x,-y,-z
_cell_length_a 9.537(5)
_cell_length_b 14.761(5)
_cell_length_c 23.057(5)
_cell_angle_alpha 107.218(5)
_cell_angle_beta 96.735(5)
_cell_angle_gamma 97.691(5)
_cell_formula_units_Z 1
loop_
_atom_type_symbol
_atom_type_radius_bond
C 0.68
H 0.23
Gd 1.96
K 2.03
O 0.68
loop_
_atom_site_label
_atom_site_type_symbol
_atom_site_fract_x
_atom_site_fract_y
_atom_site_fract_z
Gd1 Gd 0.43113(3) 0.12874(2) 0.957775(13)
Gd2 Gd -0.06339(3) -0.36819(2) 0.457588(13)
Gd3 Gd 0.30877(3) -0.34636(2) 0.798810(14)
Gd4 Gd 0.18644(3) -0.15516(2) 0.700924(13)
O1 O -0.0959(5) -0.5314(3) 0.5936(2)
O2 O -0.6607(5) -0.2901(4) 0.7127(2)
O3 O 1.2681(5) -0.0389(3) 0.9043(2)
O4 O 0.0190(5) -0.3069(3) 0.6539(2)
O5 O -0.7733(5) -0.4608(3) 0.5957(2)
O6 O 0.3773(6) 0.1104(4) 0.8471(2)
O7 O 1.1419(5) -0.2720(4) 0.8620(2)
O8 O 0.5703(5) -0.3225(3) 0.8061(3)
O9 O -0.1075(5) -0.4451(4) 0.5298(2)
O10 O 0.3081(5) 0.0027(4) 0.6943(2)
O11 O 0.1052(6) 0.3880(4) 0.6535(2)
O12 O 0.3060(6) 0.2350(4) 0.9078(2)
O13 O 0.1757(5) 0.2615(4) 0.5939(2)
O14 O 0.4771(4) -0.1941(3) 0.8455(2)
O15 O 1.1570(5) -0.2109(4) 0.7870(2)
O16 O 0.5887(5) 0.0311(3) 0.9034(2)
O17 O -0.6460(5) -0.2275(4) 0.6384(2)
O18 O -0.0760(5) -0.1775(4) 0.6905(3)
O19 O 0.6042(5) -0.0527(4) 0.9686(2)
O20 O -0.6707(5) -0.5879(3) 0.5636(3)
O21 O -0.0863(5) -0.2268(3) 0.5379(2)
O22 O 0.1168(5) -0.2375(3) 0.4536(2)
O23 O 0.6081(6) 0.3598(4) 1.1005(3)
O24 O 0.6049(5) 0.2586(3) 0.9521(2)
O25 O 0.1620(5) -0.3405(4) 0.5283(2)
O26 O 0.1889(6) 0.5005(4) 0.8086(2)
O27 O 0.0972(5) -0.4201(4) 0.7218(2)
O28 O 1.1660(5) 0.0862(4) 0.9436(3)
O29 O 0.3976(5) -0.0801(4) 0.7782(2)
O30 O 0.1123(6) -0.1384(4) 0.6007(2)
O31 O 0.4076(6) 0.2732(4) 1.0377(2)
C1 C -0.2373(6) -0.3261(4) 0.6429(3)
O32 O 0.6558(6) 0.1586(4) 1.0286(2)
O33 O 0.1306(5) 0.0002(3) 0.7474(2)
O34 O 0.3585(5) 0.4941(4) 0.7511(2)
C2 C 0.7317(6) -0.1736(5) 0.8550(3)
C3 C 0.2450(7) 0.3471(5) 0.7605(3)
O35 O 0.2092(9) -0.1503(5) 0.3997(4)
C4 C 0.1613(7) 0.3122(4) 0.6464(3)
C5 C 0.2767(8) 0.3131(5) 0.8099(3)
H1 H 0.29950 0.35640 0.84970
C6 C 0.3190(7) 0.1846(5) 0.8547(3)
C7 C 0.2748(7) 0.2166(5) 0.8010(3)
C8 C 0.9886(7) -0.1600(5) 0.8550(3)
C9 C 0.0648(7) -0.0781(5) 0.4717(3)
C10 C 0.1340(8) -0.1607(5) 0.4393(3)
C11 C 0.6039(9) 0.3292(6) 0.9319(4)
C12 C 0.8938(7) -0.0240(5) 0.9116(3)
H2 H 0.90830 0.03990 0.93650
C13 C 0.6381(6) -0.0313(4) 0.9231(3)
C14 C 0.2622(7) 0.4536(4) 0.7738(3)
C15 C -0.4929(6) -0.3396(5) 0.6441(3)
C16 C 0.2048(7) 0.2816(4) 0.7003(3)
C17 C -0.2604(6) -0.4223(4) 0.6039(3)
C18 C -0.1438(6) -0.4679(4) 0.5744(3)
C19 C 1.0102(6) -0.0648(5) 0.8926(3)
C20 C 0.2359(7) 0.1513(5) 0.7412(3)
C21 C -0.0564(7) 0.0032(5) 0.5533(3)
H3 H -0.09390 0.00580 0.58910
C22 C 1.1047(6) -0.2161(4) 0.8340(3)
C23 C 0.2027(7) 0.1843(5) 0.6914(3)
H4 H 0.17890 0.14060 0.65180
C24 C 0.5077(7) 0.3462(5) 1.0562(3)
C25 C -0.5152(6) -0.4353(4) 0.6074(3)
C26 C -0.6093(6) -0.2847(4) 0.6657(3)
C27 C 0.7549(6) -0.0777(4) 0.8936(3)
C28 C 0.5842(6) -0.2341(4) 0.8344(3)
C29 C -0.0896(6) -0.2661(5) 0.6634(3)
C30 C 0.5490(8) 0.4165(5) 0.9681(3)
C31 C 0.5063(7) 0.4237(5) 1.0256(3)
C32 C 0.0120(7) -0.1527(4) 0.5566(3)
C33 C -0.3534(7) -0.2854(5) 0.6631(3)
H5 H -0.33860 -0.22220 0.68920
C34 C 0.5427(8) 0.4928(5) 0.9439(3)
H6 H 0.57220 0.48760 0.90620
O36 O 0.6425(9) 0.3279(6) 0.8817(4)
C35 C -0.3997(6) -0.4764(5) 0.5868(3)
H7 H -0.41500 -0.54020 0.56150
C36 C 0.8499(6) -0.2138(5) 0.8361(3)
H8 H 0.83590 -0.27730 0.81050
C37 C 0.0070(7) -0.0757(4) 0.5260(3)
C38 C 1.1586(7) -0.0019(5) 0.9151(3)
C39 C -0.6631(6) -0.4972(5) 0.5878(3)
C40 C 0.2263(7) 0.0456(4) 0.7275(3)
Gd5 Gd 0.35631(4) -0.24825(3) 0.34072(2)
O37 O 0.1886(7) -0.3932(5) 0.3206(3)
O38 O 0.3881(8) -0.3390(6) 0.2375(4)
O39 O 0.5132(7) -0.3646(5) 0.3398(3)
O40 O 0.3811(7) -0.2859(5) 0.4381(3)
O41 O 0.1464(9) -0.2409(6) 0.2724(4)
O42 O 0.4332(8) -0.1271(6) 0.2961(4)
O43 O 0.5653(11) -0.1415(9) 0.4055(5)
K1 K 0.85240(19) 0.25034(14) 0.84090(9)
O44 O 0.6887(9) 0.1298(6) 0.8231(4)
O45 O 0.938(2) 0.3807(14) 0.8315(9)
O46 O 0.893(2) 0.2228(16) 0.9573(10)
O47 O 0.867(2) 0.0622(15) 0.7378(9)
O48 O 0.989(3) 0.131(2) 0.8289(15)
O49 O 1.107(4) 0.372(3) 0.9417(17)
O50 O 1.1415(14) 0.2647(10) 0.9891(6)
O51 O 0.3880(17) -0.0515(11) 0.5676(7)
O52 O 0.2743(13) 0.4730(9) 0.2100(6)
O53 O 0.3719(15) 0.1942(11) 0.4905(7)
O54 O 0.866(2) 0.4462(14) 0.0555(9)
O55 O 0.692(3) -0.068(2) 0.6361(14)
O56 O 0.120(3) 0.374(2) 0.0839(15)
O21A O 0.0863(5) 0.2268(3) 0.4621(2)
O22A O -0.1168(5) 0.2375(3) 0.5464(2)
O30A O -0.1123(6) 0.1384(4) 0.3993(2)
O35A O -0.2092(9) 0.1503(5) 0.6003(4)
C9A C -0.0648(7) 0.0781(5) 0.5283(3)
C10A C -0.1340(8) 0.1607(5) 0.5607(3)
C21A C 0.0564(7) -0.0032(5) 0.4467(3)
H3A H 0.09390 -0.00580 0.41090
C32A C -0.0120(7) 0.1527(4) 0.4434(3)
C37A C -0.0070(7) 0.0757(4) 0.4740(3)
O23A O 0.3919(6) 0.6402(4) 0.8995(3)
O24A O 0.3951(5) 0.7414(3) 1.0479(2)
O31A O 0.5924(6) 0.7268(4) 0.9623(2)
C11A C 0.3961(9) 0.6708(6) 1.0681(4)
C24A C 0.4923(7) 0.6538(5) 0.9438(3)
C30A C 0.4510(8) 0.5835(5) 1.0319(3)
C31A C 0.4937(7) 0.5763(5) 0.9744(3)
C34A C 0.4573(8) 0.5072(5) 1.0561(3)
H6A H 0.42780 0.51240 1.09380
O36A O 0.3575(9) 0.6721(6) 1.1183(4)
Gd1A Gd -1.43113(3) -1.12874(2) 0.042225(13)
Gd2A Gd -0.93661(3) -0.63181(2) 0.542412(13)
Gd3A Gd -1.30877(3) -0.65364(2) 0.201190(14)
Gd4A Gd -1.18644(3) -0.84484(2) 0.299076(13)
O1A O -0.9041(5) -0.4686(3) 0.4064(2)
O2A O -0.3393(5) -0.7099(4) 0.2873(2)
O3A O -2.2681(5) -0.9611(3) 0.0957(2)
O4A O -1.0190(5) -0.6931(3) 0.3461(2)
O5A O -0.2267(5) -0.5392(3) 0.4043(2)
O6A O -1.3773(6) -1.1104(4) 0.1529(2)
O7A O -2.1419(5) -0.7280(4) 0.1380(2)
O8A O -1.5703(5) -0.6775(3) 0.1939(3)
O9A O -0.8925(5) -0.5549(4) 0.4702(2)
O10A O -1.3081(5) -1.0027(4) 0.3057(2)
O11A O -1.1052(6) -1.3880(4) 0.3465(2)
O12A O -1.3060(6) -1.2350(4) 0.0922(2)
O13A O -1.1757(5) -1.2615(4) 0.4061(2)
O14A O -1.4771(4) -0.8059(3) 0.1545(2)
O15A O -2.1570(5) -0.7891(4) 0.2130(2)
O16A O -1.5887(5) -1.0311(3) 0.0966(2)
O17A O -0.3540(5) -0.7725(4) 0.3616(2)
O18A O -0.9240(5) -0.8225(4) 0.3095(3)
O19A O -1.6042(5) -0.9473(4) 0.0314(2)
O20A O -0.3293(5) -0.4121(3) 0.4364(3)
O25A O -1.1620(5) -0.6595(4) 0.4717(2)
O26A O -1.1889(6) -1.5005(4) 0.1914(2)
O27A O -1.0972(5) -0.5799(4) 0.2782(2)
O28A O -2.1660(5) -1.0862(4) 0.0564(3)
O29A O -1.3976(5) -0.9199(4) 0.2218(2)
C1A C -0.7627(6) -0.6739(4) 0.3571(3)
O32A O -1.6558(6) -1.1586(4) -0.0286(2)
O33A O -1.1306(5) -1.0002(3) 0.2526(2)
O34A O -1.3585(5) -1.4941(4) 0.2489(2)
C2A C -1.7317(6) -0.8264(5) 0.1450(3)
C3A C -1.2450(7) -1.3471(5) 0.2395(3)
C4A C -1.1613(7) -1.3122(4) 0.3536(3)
C5A C -1.2767(8) -1.3131(5) 0.1901(3)
H1A H -1.29950 -1.35640 0.15030
C6A C -1.3190(7) -1.1846(5) 0.1453(3)
C7A C -1.2748(7) -1.2166(5) 0.1990(3)
C8A C -1.9886(7) -0.8400(5) 0.1450(3)
C12A C -1.8938(7) -0.9760(5) 0.0884(3)
H2A H -1.90830 -1.03990 0.06350
C13A C -1.6381(6) -0.9687(4) 0.0769(3)
C14A C -1.2622(7) -1.4536(4) 0.2262(3)
C15A C -0.5071(6) -0.6604(5) 0.3559(3)
C16A C -1.2048(7) -1.2816(4) 0.2997(3)
C17A C -0.7396(6) -0.5777(4) 0.3961(3)
C18A C -0.8562(6) -0.5321(4) 0.4256(3)
C19A C -2.0102(6) -0.9352(5) 0.1074(3)
C20A C -1.2359(7) -1.1513(5) 0.2588(3)
C22A C -2.1047(6) -0.7839(4) 0.1660(3)
C23A C -1.2027(7) -1.1843(5) 0.3086(3)
H4A H -1.17890 -1.14060 0.34820
C25A C -0.4848(6) -0.5647(4) 0.3926(3)
C26A C -0.3907(6) -0.7153(4) 0.3343(3)
C27A C -1.7549(6) -0.9223(4) 0.1064(3)
C28A C -1.5842(6) -0.7659(4) 0.1656(3)
C29A C -0.9104(6) -0.7339(5) 0.3366(3)
C33A C -0.6466(7) -0.7146(5) 0.3369(3)
H5A H -0.66140 -0.77780 0.31080
C35A C -0.6003(6) -0.5236(5) 0.4132(3)
H7A H -0.58500 -0.45980 0.43850
C36A C -1.8499(6) -0.7862(5) 0.1639(3)
H8A H -1.83590 -0.72270 0.18950
C38A C -2.1586(7) -0.9981(5) 0.0849(3)
C39A C -0.3369(6) -0.5028(5) 0.4122(3)
C40A C -1.2263(7) -1.0456(4) 0.2725(3)
Gd5A Gd -0.35631(4) 0.24825(3) 0.65928(2)
O37A O -0.1886(7) 0.3932(5) 0.6794(3)
O38A O -0.3881(8) 0.3390(6) 0.7625(4)
O39A O -0.5132(7) 0.3646(5) 0.6602(3)
O40A O -0.3811(7) 0.2859(5) 0.5619(3)
O41A O -0.1464(9) 0.2409(6) 0.7276(4)
O42A O -0.4332(8) 0.1271(6) 0.7039(4)
O43A O -0.5653(11) 0.1415(9) 0.5945(5)
Gd1* Gd -1.56887(3) -0.87126(2) -0.042225(13)
Gd1** Gd 1.43113(3) 0.12874(2) 0.957775(13)
Gd1A* Gd -2.43113(3) -1.12874(2) 0.042225(13)
Gd1A** Gd 0.56887(3) -0.12874(2) 1.042225(13)
Gd1A*** Gd 0.56887(3) 0.87126(2) 1.042225(13)
Gd2* Gd -1.06339(3) -1.36819(2) 0.457588(13)
Gd2** Gd -1.06339(3) -0.36819(2) 0.457588(13)
Gd2A* Gd 0.06339(3) -0.63181(2) 0.542412(13)
Gd2A** Gd 0.06339(3) 0.36819(2) 0.542412(13)
Gd3* Gd -0.69123(3) -0.34636(2) 0.798810(14)
Gd3** Gd 0.30877(3) 0.65364(2) 0.798810(14)
Gd3*** Gd 1.30877(3) -0.34636(2) 0.798810(14)
Gd3A* Gd -2.30877(3) -0.65364(2) 0.201190(14)
Gd3A** Gd -1.30877(3) -1.65364(2) 0.201190(14)
Gd3A*** Gd -0.30877(3) -0.65364(2) 0.201190(14)
Gd3A**** Gd 0.69123(3) 0.34636(2) 1.201190(14)
Gd4* Gd -0.81356(3) -0.15516(2) 0.700924(13)
Gd4** Gd 1.18644(3) -0.15516(2) 0.700924(13)
Gd4A* Gd -2.18644(3) -0.84484(2) 0.299076(13)
Gd4A** Gd -0.18644(3) -0.84484(2) 0.299076(13)
Gd4A*** Gd -0.18644(3) 0.15516(2) 0.299076(13)
O1* O -1.0959(5) -0.5314(3) 0.5936(2)
O1A* O 0.0959(5) -0.4686(3) 0.4064(2)
O2* O 0.3393(5) -0.2901(4) 0.7127(2)
O2A* O -1.3393(5) -0.7099(4) 0.2873(2)
O3* O 0.2681(5) -0.0389(3) 0.9043(2)
O3A* O -1.2681(5) -0.9611(3) 0.0957(2)
O7* O 0.1419(5) -0.2720(4) 0.8620(2)
O7A* O -1.1419(5) -0.7280(4) 0.1380(2)
O11* O -0.8948(6) -0.6120(4) 0.6535(2)
O11A* O -0.1052(6) -0.3880(4) 0.3465(2)
O13* O -0.8243(5) -0.7385(4) 0.5939(2)
O13A* O -0.1757(5) -0.2615(4) 0.4061(2)
O15* O 0.1570(5) -0.2109(4) 0.7870(2)
O15A* O -1.1570(5) -0.7891(4) 0.2130(2)
O17* O 0.3540(5) -0.2275(4) 0.6384(2)
O17A* O -1.3540(5) -0.7725(4) 0.3616(2)
O19* O -1.3958(5) -1.0527(4) -0.0314(2)
O19A* O 0.3958(5) 0.0527(4) 1.0314(2)
O21A* O -0.9137(5) -0.7732(3) 0.4621(2)
O22A* O -1.1168(5) -0.7625(3) 0.5464(2)
O23* O -1.3919(6) -0.6402(4) 0.1005(3)
O23A* O 0.3919(6) -0.3598(4) 0.8995(3)
O24A* O -1.6049(5) -1.2586(3) 0.0479(2)
O26* O 0.1889(6) -0.4995(4) 0.8086(2)
O26A* O -1.1889(6) -0.5005(4) 0.1914(2)
O28* O 0.1660(5) 0.0862(4) 0.9436(3)
O28A* O -1.1660(5) -1.0862(4) 0.0564(3)
O30A* O -1.1123(6) -0.8616(4) 0.3993(2)
O31A* O -1.4076(6) -1.2732(4) -0.0377(2)
O34* O 0.3585(5) -0.5059(4) 0.7511(2)
O34A* O -1.3585(5) -0.4941(4) 0.2489(2)
#END
