
#######################################################################
#
#                 Cambridge Crystallographic Data Centre
#                                CCDC
#
#######################################################################
#
# If this CIF has been generated from an entry in the Cambridge
# Structural Database, then it will include bibliographic, chemical,
# crystal, experimental, refinement or atomic coordinate data resulting
# from the CCDC's data processing and validation procedures.
#
#######################################################################

data_CSD_CIF_RETDOM
_audit_creation_date 2018-02-21
_audit_creation_method CSD-ConQuest-V1
_database_code_CSD RETDOM
_database_code_depnum_ccdc_archive 'CCDC 1565928'
_chemical_formula_sum 'C44 H59 N11 O15 Zn2'
_chemical_formula_moiety
;
(C26 H15 N6 O11 Zn2 1-)n,C2 H8 N1 1+,4(C4 H9 N1 O1)
;
_journal_coden_Cambridge 1475
_journal_volume 9
_journal_year 2018
_journal_page_first 2918
_journal_name_full 'Chemical Science '
loop_
_publ_author_name
"He Zhao"
"Jun Ni"
"Jian-Jun Zhang"
"Shu-Qin Liu"
"Ying-Ji Sun"
"Huajun Zhou"
"Yan-Qin Li"
"Chun-Ying Duan"
_chemical_name_systematic
;
catena-[dimethylammonium 
(\m-2,2'-{[6-(3-carboxylatoanilino)-1,3,5-triazine-2,4-diyl]diazanediyl}di(ben
zene-1,4-dicarboxylato))-aqua-di-zin(ii) N,N-dimethylacetamide solvate]
;
_cell_volume  13740.589
_exptl_crystal_colour 'colorless'
_exptl_crystal_description 'block'
_diffrn_ambient_temperature 293
_diffrn_radiation_probe x-ray
_diffrn_source synchrotron
_diffrn_special_details
;
twin

;
_refine_special_details
;
Disordered dimethylammonium cation and N,N-dimethylformamide solvent 
molecules were not modelled and the disordered density was taken into account 
using the SQUEEZE/PLATON procedure.
;
#These two values have been output from a single CSD field.
_refine_ls_R_factor_gt 0.0323
_refine_ls_wR_factor_gt 0.0323
_symmetry_cell_setting tetragonal
_symmetry_space_group_name_H-M 'I 4'
_symmetry_Int_Tables_number 79
loop_
_symmetry_equiv_pos_site_id
_symmetry_equiv_pos_as_xyz
1 x,y,z
2 -x,-y,z
3 -y,x,z
4 y,-x,z
5 1/2+x,1/2+y,1/2+z
6 1/2-x,1/2-y,1/2+z
7 1/2-y,1/2+x,1/2+z
8 1/2+y,1/2-x,1/2+z
_cell_length_a 27.458(4)
_cell_length_b 27.458(4)
_cell_length_c 18.225(4)
_cell_angle_alpha 90
_cell_angle_beta 90
_cell_angle_gamma 90
_cell_formula_units_Z 8
loop_
_atom_type_symbol
_atom_type_radius_bond
C 0.68
H 0.23
N 0.68
O 0.68
Zn 1.22
loop_
_atom_site_label
_atom_site_type_symbol
_atom_site_fract_x
_atom_site_fract_y
_atom_site_fract_z
Zn1 Zn 0.13765(2) 0.41935(2) 0.22952(2)
Zn2 Zn 0.20084(2) 0.34568(2) 0.34209(2)
O1 O 0.12108(6) 0.46952(5) 0.15943(9)
O2 O 0.06612(9) 0.42606(7) 0.09929(13)
O3 O 0.08113(7) 0.58688(7) -0.1964(1)
O4 O 0.12529(8) 0.63644(7) -0.12772(10)
O5 O 0.33173(8) 0.78346(7) 0.23825(11)
O6 O 0.36078(7) 0.84691(7) 0.17500(11)
O7 O 0.18658(7) 0.72382(7) -0.06889(10)
O8 O 0.21511(7) 0.79004(7) -0.1230(1)
O9 O 0.19607(7) 0.45036(6) 0.27441(10)
O10 O 0.23767(7) 0.40939(6) 0.35968(10)
O11 O 0.15467(16) 0.28031(14) 0.3242(2)
N1 N 0.24564(8) 0.62517(7) 0.28652(11)
H1 H 0.25710 0.65200 0.30380
N2 N 0.20634(9) 0.70837(8) 0.07026(12)
H2 H 0.18410 0.70880 0.03710
N3 N 0.14329(9) 0.55663(7) 0.11704(11)
H3 H 0.14040 0.53510 0.15110
N4 N 0.22675(8) 0.67069(7) 0.18308(11)
N5 N 0.19129(9) 0.59192(7) 0.20252(11)
N6 N 0.17356(9) 0.63506(8) 0.09322(11)
C1 C 0.22030(8) 0.62822(8) 0.22175(12)
C2 C 0.17001(10) 0.59646(8) 0.13620(13)
C3 C 0.20299(10) 0.67086(9) 0.11840(13)
C4 C 0.11976(9) 0.54484(8) 0.05124(11)
C5 C 0.12151(9) 0.57583(8) -0.01019(12)
H4 H 0.13890 0.60480 -0.00770
C6 C 0.09730(9) 0.56340(8) -0.07479(12)
C7 C 0.06921(9) 0.52140(8) -0.07895(13)
H5 H 0.05160 0.51410 -0.12120
C8 C 0.06804(10) 0.49048(9) -0.01857(13)
H6 H 0.05000 0.46190 -0.02170
C9 C 0.09266(9) 0.50055(8) 0.04605(12)
C10 C 0.09219(9) 0.46209(8) 0.10520(12)
C11 C 0.10103(9) 0.59843(9) -0.13695(12)
C12 C 0.23993(9) 0.74639(9) 0.06566(13)
C13 C 0.26925(10) 0.75966(9) 0.12468(14)
H7 H 0.26600 0.74350 0.16920
C14 C 0.30343(9) 0.79707(8) 0.11775(14)
C15 C 0.24367(8) 0.77281(8) -0.00147(13)
C16 C 0.27772(9) 0.81021(9) -0.00654(13)
H8 H 0.28020 0.82770 -0.05000
C17 C 0.30818(9) 0.82203(9) 0.05176(15)
H9 H 0.33150 0.84640 0.04670
C18 C 0.33414(9) 0.80933(8) 0.18416(14)
C19 C 0.21368(8) 0.76270(8) -0.07058(13)
C20 C 0.25486(8) 0.58282(8) 0.32752(12)
C21 C 0.28580(11) 0.58626(11) 0.38911(16)
H10 H 0.29870 0.61640 0.40220
C22 C 0.29725(12) 0.54553(11) 0.43024(19)
H11 H 0.31740 0.54860 0.47100
C23 C 0.27858(11) 0.49876(10) 0.41078(16)
H12 H 0.28610 0.47130 0.43840
C24 C 0.24911(9) 0.49562(8) 0.34982(13)
C25 C 0.23650(8) 0.53672(8) 0.30955(13)
H13 H 0.21540 0.53360 0.26990
C26 C 0.22553(9) 0.44828(8) 0.32744(13)
Zn1C Zn 0.41935(2) 0.86235(2) 0.22952(2)
Zn1F Zn 0.08065(2) 0.63765(2) -0.27048(2)
Zn2C Zn 0.34568(2) 0.79916(2) 0.34209(2)
Zn2F Zn 0.15432(2) 0.70084(2) -0.15791(2)
O3G O 0.08688(7) 0.41887(7) 0.3036(1)
O4G O 0.13644(8) 0.37471(7) 0.37228(10)
O5B O 0.21654(8) 0.33173(7) 0.23825(11)
O6B O 0.15309(7) 0.36078(7) 0.17500(11)
O7G O 0.22382(7) 0.31342(7) 0.43111(10)
#END
