
#######################################################################
#
#                 Cambridge Crystallographic Data Centre
#                                CCDC
#
#######################################################################
#
# If this CIF has been generated from an entry in the Cambridge
# Structural Database, then it will include bibliographic, chemical,
# crystal, experimental, refinement or atomic coordinate data resulting
# from the CCDC's data processing and validation procedures.
#
#######################################################################

data_CSD_CIF_REXVIC
_audit_creation_date 2018-02-22
_audit_creation_method CSD-ConQuest-V1
_database_code_CSD REXVIC
_database_code_depnum_ccdc_archive 'CCDC 1579049'
_chemical_formula_sum 'C36 H36 Cu3 Mo12 N8 O42 P1 V2'
_chemical_formula_moiety
;
Mo12 O42 P1 V2 3-,3n(C10 H8 Cu1 N2 1+),C6 H12 N2
;
_journal_coden_Cambridge 208
_journal_volume 259
_journal_year 2018
_journal_page_first 11
_journal_name_full 'J.Solid State Chem. '
loop_
_publ_author_name
"Li-Na Xiao"
"Hao Zhang"
"Ting-Ting Zhang"
"Xiao Zhang"
"Xiao-Bing Cui"
_chemical_name_systematic
;
catena-[tris((\m-4,4'-bipyridine)-copper(i)) 
tetracosakis(\m-oxo)-(\m-phosphato)-tetradecaoxo-tetra-molybdenum(v)-octa-moly
bdenum(vi)-di-vanadium(iv) 1,4-diazabicyclo[2.2.2]octane]
;
_cell_volume   1526.861
_exptl_crystal_density_diffrn 2.966
_exptl_crystal_description 'block'
_diffrn_ambient_temperature 293
_refine_special_details
;
C16,C17,C18,C19,C20,C21 disordered by symmetry over two configurations with 
occupancy 0.5; Cu2 disordered by symmetry over two configurations with 
occupancy 0.5; O1,O2,O3,O4 disordered by symmetry over two configurations 
with occupancy 0.5.
;
#These two values have been output from a single CSD field.
_refine_ls_R_factor_gt 0.0642
_refine_ls_wR_factor_gt 0.0642
_symmetry_cell_setting triclinic
_symmetry_space_group_name_H-M 'P -1'
_symmetry_Int_Tables_number 2
loop_
_symmetry_equiv_pos_site_id
_symmetry_equiv_pos_as_xyz
1 x,y,z
2 -x,-y,-z
_cell_length_a 10.826(4)
_cell_length_b 10.876(2)
_cell_length_c 13.584(3)
_cell_angle_alpha 98.64(3)
_cell_angle_beta 99.090(17)
_cell_angle_gamma 100.40(3)
_cell_formula_units_Z 1
loop_
_atom_type_symbol
_atom_type_radius_bond
C 0.68
H 0.23
Cu 1.32
Mo 1.54
N 0.68
O 0.68
P 1.05
V 1.53
loop_
_atom_site_label
_atom_site_type_symbol
_atom_site_fract_x
_atom_site_fract_y
_atom_site_fract_z
Mo1 Mo 0.79665(9) 0.42422(9) 0.17903(7)
O1 O 0.984(1) 0.4319(10) 0.0884(8)
O2 O 0.8746(10) 0.5166(10) 0.0371(8)
O3 O 0.8455(7) 0.2637(8) 0.1412(7)
O4 O 0.7086(8) 0.3911(7) 0.2632(6)
O5 O 0.7939(9) 0.5992(7) 0.1782(6)
O6 O 0.9640(7) 0.4780(8) 0.2664(7)
O7 O 0.6783(9) 0.3848(7) 0.0530(7)
Mo2 Mo 0.96792(6) 0.19931(6) 0.08463(5)
Mo3 Mo 1.13201(7) 0.50509(7) 0.25797(5)
P1 P 1.00000 0.50000 0.00000
Mo4 Mo 0.82491(7) 0.72163(6) 0.10216(6)
Mo5 Mo 0.66019(6) 0.42060(7) -0.07288(7)
O8 O 0.8671(6) 0.1486(9) -0.0411(5)
O9 O 0.9617(7) 0.0653(7) 0.1280(7)
O10 O 1.1057(6) 0.3178(6) 0.1944(5)
O11 O 1.0002(10) 0.3597(9) -0.0272(8)
O12 O 1.1280(6) 0.2110(7) 0.0234(5)
O13 O 1.1135(9) 0.5671(10) 0.0909(8)
O14 O 1.1996(8) 0.5046(7) 0.3781(5)
O15 O 1.1514(9) 0.6735(8) 0.2583(7)
O16 O 1.2825(8) 0.4987(6) 0.1880(7)
O17 O 0.9846(7) 0.7954(9) 0.1717(5)
O18 O 0.7419(8) 0.8263(8) 0.1442(6)
O19 O 0.6984(8) 0.6095(6) -0.0183(6)
O20 O 0.5041(6) 0.3917(6) -0.1134(5)
O21 O 0.7014(9) 0.2727(8) -0.1255(8)
Mo6 Mo 0.83937(9) 0.20367(8) -0.16974(7)
V1 V 1.25738(12) 0.31790(12) 0.13345(11)
O22 O 0.7660(7) 0.0725(7) -0.2461(5)
O23 O 1.3586(7) 0.2480(7) 0.1876(7)
N1 N 0.6327(10) 0.5918(9) 0.4368(8)
C1 C 0.5917(12) 0.631(1) 0.3495(9)
H1 H 0.56460 0.57150 0.28960
C2 C 0.5890(12) 0.7569(10) 0.3472(8)
H2 H 0.56130 0.78080 0.28590
C3 C 0.6274(8) 0.8489(8) 0.4359(6)
C4 C 0.6270(8) 0.9846(8) 0.4356(6)
C5 C 0.5555(11) 1.0255(10) 0.3571(8)
H3 H 0.50420 0.96550 0.30340
C6 C 0.5590(14) 1.1515(11) 0.3572(9)
H4 H 0.50930 1.17490 0.30370
N2 N 0.6320(9) 1.2431(8) 0.4324(8)
C7 C 0.6965(10) 1.2045(9) 0.5116(9)
H5 H 0.74330 1.26560 0.56650
C8 C 0.6957(10) 1.0801(9) 0.5143(7)
H6 H 0.74250 1.05860 0.57040
C9 C 0.669(1) 0.8071(10) 0.5244(7)
H7 H 0.69620 0.86480 0.58530
C10 C 0.6700(12) 0.6796(10) 0.5222(8)
H8 H 0.69770 0.65370 0.58260
Cu1 Cu 0.64165(18) 0.41897(14) 0.43124(17)
Cu2 Cu 1.0094(10) 0.5044(8) 0.5188(3)
C11 C 0.9956(9) 0.9327(7) 0.5012(6)
C12 C 0.9589(10) 0.8398(9) 0.4143(7)
H9 H 0.93380 0.86360 0.35250
N3 N 0.9921(9) 0.6743(8) 0.5042(8)
C13 C 0.9582(10) 0.7172(9) 0.4162(9)
H10 H 0.93380 0.65890 0.35550
C14 C 1.0242(12) 0.7593(10) 0.5897(9)
H11 H 1.04550 0.73170 0.65050
C15 C 1.0272(12) 0.8881(9) 0.5918(8)
H12 H 1.05020 0.94480 0.65330
N4 N 0.5917(6) 0.0880(6) -0.0010(6)
C16 C 0.5227(19) 0.0304(19) -0.1068(14)
C17 C 0.6148(17) -0.0342(15) -0.0604(17)
C18 C 0.6405(16) -0.0071(17) 0.0511(16)
C19 C 0.5931(19) 0.0716(18) 0.1064(15)
C20 C 0.4955(15) 0.1442(15) 0.0533(14)
C21 C 0.4715(17) 0.1182(16) -0.0459(16)
O11A O 0.9998(10) 0.6403(9) 0.0272(8)
O13A O 0.8865(9) 0.4329(10) -0.0909(8)
O1A O 1.016(1) 0.5681(10) -0.0884(8)
O2A O 1.1254(10) 0.4834(10) -0.0371(8)
O12A O 0.8720(6) 0.7890(7) -0.0234(5)
O16A O 0.7175(8) 0.5013(6) -0.1880(7)
Mo4A Mo 1.17509(7) 0.27837(6) -0.10216(6)
Mo6A Mo 1.16063(9) 0.79633(8) 0.16974(7)
Mo5A Mo 1.33981(6) 0.57940(7) 0.07288(7)
Mo2A Mo 1.03208(6) 0.80069(6) -0.08463(5)
Mo3A Mo 0.86799(7) 0.49491(7) -0.25797(5)
Mo1A Mo 1.20335(9) 0.57578(9) -0.17903(7)
V1A V 0.74262(12) 0.68210(12) -0.13345(11)
O17A O 1.0154(7) 0.2046(9) -0.1717(5)
O15A O 0.8486(9) 0.3265(8) -0.2583(7)
O19A O 1.3016(8) 0.3905(6) 0.0183(6)
O5A O 1.2061(9) 0.4008(7) -0.1782(6)
O18A O 1.2581(8) 0.1737(8) -0.1442(6)
O22A O 1.2340(7) 0.9275(7) 0.2461(5)
O8A O 1.1329(6) 0.8514(9) 0.0411(5)
O21A O 1.2986(9) 0.7273(8) 0.1255(8)
O20A O 1.4959(6) 0.6083(6) 0.1134(5)
O7A O 1.3217(9) 0.6152(7) -0.0530(7)
O3A O 1.1545(7) 0.7363(8) -0.1412(7)
O9A O 1.0383(7) 0.9347(7) -0.1280(7)
O10A O 0.8943(6) 0.6822(6) -0.1944(5)
O14A O 0.8004(8) 0.4954(7) -0.3781(5)
O6A O 1.0360(7) 0.5220(8) -0.2664(7)
O4A O 1.2914(8) 0.6089(7) -0.2632(6)
O23A O 0.6414(7) 0.7520(7) -0.1876(7)
N2* N 0.6320(9) 0.2431(8) 0.4324(8)
Cu1* Cu 0.64165(18) 1.41897(14) 0.43124(17)
C11A C 1.0044(9) 1.0673(7) 0.4988(6)
C12A C 1.0411(10) 1.1602(9) 0.5857(7)
H9A H 1.06620 1.13640 0.64750
N3A N 1.0079(9) 1.3257(8) 0.4958(8)
C13A C 1.0418(10) 1.2828(9) 0.5838(9)
H10A H 1.06620 1.34110 0.64450
C14A C 0.9758(12) 1.2407(10) 0.4103(9)
H11A H 0.95450 1.26830 0.34950
C15A C 0.9728(12) 1.1119(9) 0.4082(8)
H12A H 0.94980 1.05520 0.34670
Cu2* Cu 1.0094(10) 1.5044(8) 0.5188(3)
N3A* N 1.0079(9) 0.3257(8) 0.4958(8)
N4A N 0.4083(6) -0.0880(6) 0.0010(6)
C16A C 0.4773(19) -0.0304(19) 0.1068(14)
C17A C 0.3852(17) 0.0342(15) 0.0604(17)
C18A C 0.3595(16) 0.0071(17) -0.0511(16)
C19A C 0.4069(19) -0.0716(18) -0.1064(15)
C20A C 0.5045(15) -0.1442(15) -0.0533(14)
C21A C 0.5285(17) -0.1182(16) 0.0459(16)
#END
