
#######################################################################
#
#                 Cambridge Crystallographic Data Centre
#                                CCDC
#
#######################################################################
#
# If this CIF has been generated from an entry in the Cambridge
# Structural Database, then it will include bibliographic, chemical,
# crystal, experimental, refinement or atomic coordinate data resulting
# from the CCDC's data processing and validation procedures.
#
#######################################################################

data_CSD_CIF_REXZIG
_audit_creation_date 2018-02-22
_audit_creation_method CSD-ConQuest-V1
_database_code_CSD REXZIG
_database_code_depnum_ccdc_archive 'CCDC 1447310'
_chemical_formula_sum 'C16 H36 N8 O26 U3'
_chemical_formula_moiety
;
(C12 H12 O16 U2 2-)n,C4 H18 N8 O7 U1 2+,3(H2 O1)
;
_journal_coden_Cambridge 41
_journal_volume 62
_journal_year 2017
_journal_page_first 716
_journal_name_full 'Kristallografiya(Russ.)(Crystallogr.Rep.) '
loop_
_publ_author_name
"L.B.Serezhkina"
"M.S.Grigorev"
"N.V.Seliverstova"
"V.N.Serezhkin"
_chemical_name_systematic
;
catena-[tetrakis(urea)-aqua-uranium tris(\m-succinato)-tetraoxo-di-uranium 
trihydrate]
;
_cell_volume   1889.889
_exptl_crystal_density_diffrn 2.584
_diffrn_ambient_temperature 100
_diffrn_special_details
;
twin

;
#These two values have been output from a single CSD field.
_refine_ls_R_factor_gt 0.0605
_refine_ls_wR_factor_gt 0.0605
_symmetry_cell_setting triclinic
_symmetry_space_group_name_H-M 'P -1'
_symmetry_Int_Tables_number 2
loop_
_symmetry_equiv_pos_site_id
_symmetry_equiv_pos_as_xyz
1 x,y,z
2 -x,-y,-z
_cell_length_a 10.4486(9)
_cell_length_b 12.3549(10)
_cell_length_c 16.0659(16)
_cell_angle_alpha 105.304(5)
_cell_angle_beta 105.283(6)
_cell_angle_gamma 96.800(6)
_cell_formula_units_Z 2
loop_
_atom_type_symbol
_atom_type_radius_bond
C 0.68
H 0.23
N 0.68
O 0.68
U 1.96
loop_
_atom_site_label
_atom_site_type_symbol
_atom_site_fract_x
_atom_site_fract_y
_atom_site_fract_z
U1 U 0.33991(7) 0.60208(5) 0.16579(4)
U2 U 0.00534(7) 0.25416(5) 0.53965(4)
O1 O 0.2293(13) 0.7007(10) 0.1566(9)
O2 O 0.4490(12) 0.5033(10) 0.1729(10)
O3 O -0.1020(12) 0.3551(9) 0.5418(9)
O4 O 0.1142(12) 0.1533(9) 0.5370(9)
O5 O 0.3012(13) 0.5691(10) 0.3036(9)
O6 O 0.1546(13) 0.4693(10) 0.1741(9)
O7 O 0.1801(12) 0.3955(9) 0.5292(9)
O8 O 0.0443(11) 0.2799(9) 0.4008(8)
O9 O 0.2037(12) 0.4758(10) 0.0161(8)
O10 O 0.3742(12) 0.6002(10) 0.0223(9)
O11 O -0.0039(12) 0.2418(10) -0.3134(9)
O12 O 0.1494(12) 0.3758(10) -0.3123(9)
O13 O 0.5254(12) 0.7497(9) 0.1774(9)
O14 O 0.4981(11) 0.7479(9) 0.3071(8)
O15 O 0.8401(12) 1.1227(9) 0.3986(9)
O16 O 0.8195(12) 1.1084(9) 0.5277(9)
C1 C 0.1965(19) 0.4891(14) 0.2575(13)
C2 C 0.1252(18) 0.4186(14) 0.3021(13)
H1 H 0.04650 0.45080 0.31300
H2 H 0.09090 0.33910 0.26090
C3 C 0.2188(19) 0.4172(15) 0.3910(13)
H3 H 0.28940 0.37400 0.37910
H4 H 0.26450 0.49680 0.42840
C4 C 0.1449(17) 0.3639(13) 0.4426(12)
C5 C 0.2719(19) 0.5178(14) -0.0260(13)
C6 C 0.2360(19) 0.4771(14) -0.1253(13)
H5 H 0.31840 0.46320 -0.14240
H6 H 0.20310 0.53770 -0.14990
C7 C 0.1286(18) 0.3684(14) -0.1681(12)
H7 H 0.16170 0.30750 -0.14400
H8 H 0.04630 0.38200 -0.15090
C8 C 0.093(2) 0.3281(15) -0.2689(13)
C9 C 0.5570(17) 0.7934(13) 0.2627(12)
C10 C 0.6677(16) 0.9014(13) 0.3059(12)
H9 H 0.75690 0.87880 0.31920
H10 H 0.66460 0.94440 0.26160
C11 C 0.6560(17) 0.9798(13) 0.3925(12)
H11 H 0.57480 1.01330 0.37740
H12 H 0.64300 0.93370 0.43260
C12 C 0.7770(19) 1.0746(15) 0.4427(15)
U3 U 0.37128(7) 0.14294(5) 0.20960(4)
O17 O 0.3208(12) 0.2745(9) 0.2100(9)
O18 O 0.4183(12) 0.0088(9) 0.2083(9)
O19 O 0.4287(12) 0.1115(9) 0.0739(9)
O20 O 0.5974(12) 0.2468(9) 0.2451(9)
O21 O 0.4663(13) 0.2039(10) 0.3672(9)
O22 O 0.1970(12) 0.0974(10) 0.2677(10)
O23 O 0.1708(14) 0.0547(11) 0.0879(10)
H13 H 0.14100 0.00000 0.03300
H14 H 0.08500 0.07100 0.08300
N1 N 0.4387(16) 0.2776(11) 0.0391(11)
H15 H 0.40490 0.30920 0.08220
H16 H 0.46010 0.31680 0.00460
N2 N 0.5082(16) 0.1281(12) -0.0396(11)
H17 H 0.52160 0.05740 -0.05010
H18 H 0.52840 0.16970 -0.07290
N3 N 0.5943(16) 0.4298(12) 0.3264(12)
H19 H 0.50590 0.42010 0.30360
H20 H 0.64130 0.49580 0.36570
N4 N 0.7912(16) 0.3632(13) 0.3390(12)
H21 H 0.83650 0.30900 0.32520
H22 H 0.83410 0.43050 0.37810
N5 N 0.6047(15) 0.2858(12) 0.5089(11)
H23 H 0.67350 0.29830 0.48840
H24 H 0.61670 0.30730 0.56760
N6 N 0.3821(15) 0.2178(12) 0.4835(11)
H25 H 0.30080 0.18420 0.44570
H26 H 0.39500 0.23960 0.54240
N7 N 0.1801(16) -0.0897(11) 0.2608(12)
H27 H 0.23940 -0.09800 0.23070
H28 H 0.14360 -0.14820 0.27420
N8 N 0.0559(17) 0.0226(13) 0.3286(12)
H29 H 0.03180 0.08910 0.34400
H30 H 0.01920 -0.03580 0.34200
C13 C 0.4574(18) 0.1719(14) 0.0265(13)
C14 C 0.6578(18) 0.3434(15) 0.3010(13)
C15 C 0.4847(19) 0.2353(14) 0.4521(11)
C16 C 0.1460(18) 0.0106(15) 0.2859(14)
O24 O 0.0823(13) -0.1051(10) -0.0748(10)
H31 H 0.12700 -0.10800 -0.11800
H32 H 0.07800 -0.17300 -0.06300
O25 O 0.0653(15) -0.3071(12) -0.0395(11)
H33 H -0.00800 -0.36200 -0.08400
H34 H 0.12000 -0.30900 0.02400
O26 O 0.2130(16) -0.1107(12) -0.2038(11)
H35 H 0.27700 -0.15700 -0.21800
H36 H 0.19600 -0.11600 -0.26900
U2* U 0.00534(7) 0.25416(5) -0.46035(4)
U2** U 1.00534(7) 1.25416(5) 0.53965(4)
O11* O -0.0039(12) 0.2418(10) 0.6866(9)
O12* O 0.1494(12) 0.3758(10) 0.6877(9)
O15* O -0.1599(12) 0.1227(9) 0.3986(9)
O16* O -0.1805(12) 0.1084(9) 0.5277(9)
#END
