
#######################################################################
#
#                 Cambridge Crystallographic Data Centre
#                                CCDC
#
#######################################################################
#
# If this CIF has been generated from an entry in the Cambridge
# Structural Database, then it will include bibliographic, chemical,
# crystal, experimental, refinement or atomic coordinate data resulting
# from the CCDC's data processing and validation procedures.
#
#######################################################################

data_CSD_CIF_REYDIL
_audit_creation_date 2018-02-22
_audit_creation_method CSD-ConQuest-V1
_database_code_CSD REYDIL
_database_code_depnum_ccdc_archive 'CCDC 1485305'
_chemical_formula_sum 'C34 H51 Li3 N6 O16'
_chemical_formula_moiety
;
(C30 H35 Li3 N4 O16 2-)n,2(C2 H8 N1 1+)
;
_journal_coden_Cambridge 82
_journal_volume 58
_journal_year 2017
_journal_page_first 1048
_journal_name_full 'Zh.Strukt.Khim.(Russ.)(J.Struct.Chem.) '
loop_
_publ_author_name
"T.K.Koltunova"
"D.G.Samsonenko"
"D.N.Dybtsev"
"V.P.Fedin"
_chemical_name_systematic
;
catena-[bis(dimethylammonium) 
(\m-benzene-1,3,5-tricarboxylato)-(\m-5-carboxybenzene-1,3-dicarboxylato)-tetr
akis(N,N-dimethylformamide)-tri-lithium(i)]
;
_cell_volume   2081.893
_exptl_crystal_colour 'colorless'
_exptl_crystal_density_diffrn 1.309
_exptl_crystal_description 'block'
_diffrn_ambient_temperature 130
_refine_special_details
;
C24D and C23D disordered over two sites with occupancies 0.62:0.38.

;
#These two values have been output from a single CSD field.
_refine_ls_R_factor_gt 0.0595
_refine_ls_wR_factor_gt 0.0595
_symmetry_cell_setting triclinic
_symmetry_space_group_name_H-M 'P -1'
_symmetry_Int_Tables_number 2
loop_
_symmetry_equiv_pos_site_id
_symmetry_equiv_pos_as_xyz
1 x,y,z
2 -x,-y,-z
_cell_length_a 10.06221(16)
_cell_length_b 10.52528(17)
_cell_length_c 19.9730(3)
_cell_angle_alpha 93.0892(13)
_cell_angle_beta 92.8790(13)
_cell_angle_gamma 99.1059(13)
_cell_formula_units_Z 2
loop_
_atom_type_symbol
_atom_type_radius_bond
C 0.68
H 0.23
Li 1.28
N 0.68
O 0.68
loop_
_atom_site_label
_atom_site_type_symbol
_atom_site_fract_x
_atom_site_fract_y
_atom_site_fract_z
O1 O 0.45792(12) 0.81060(13) 0.03227(7)
Li1 Li 0.3525(3) 0.9277(3) 0.07417(15)
O2 O 0.38526(14) 0.94031(16) 0.17285(7)
O3 O 0.41977(13) 1.09765(13) 0.04695(6)
O4 O 0.16878(13) 0.85836(14) 0.06224(7)
C1 C 0.2939(2) 0.8885(2) 0.20623(10)
C2 C 0.07096(18) 0.84147(17) 0.01985(9)
N1 N 0.29949(17) 0.88195(17) 0.27206(8)
H1 H 0.21220 0.84990 0.18230
O5 O 0.07642(13) 0.84977(14) -0.04223(6)
C3 C -0.06723(17) 0.80466(17) 0.04643(9)
C4 C 0.4171(2) 0.9422(2) 0.31367(10)
C5 C 0.1848(2) 0.8176(2) 0.30583(11)
C6 C -0.18241(18) 0.83363(17) 0.01290(9)
C7 C -0.08013(18) 0.73990(17) 0.10533(9)
H2 H 0.39040 1.00310 0.34730
H3 H 0.48330 0.98830 0.28550
H4 H 0.45720 0.87580 0.33640
H5 H 0.15240 0.88010 0.33660
H6 H 0.21260 0.74820 0.33130
H7 H 0.11230 0.78140 0.27230
C8 C -0.30859(17) 0.80055(17) 0.03859(9)
H8 H -0.17490 0.87630 -0.02780
C9 C -0.20602(18) 0.70045(17) 0.12962(9)
H9 H -0.00170 0.72240 0.12930
C10 C -0.43301(17) 0.84061(17) 0.00554(9)
C11 C -0.32045(18) 0.73169(17) 0.09636(9)
C12 C -0.21430(19) 0.62238(18) 0.19076(9)
H10 H -0.40670 0.70610 0.11310
O6 O -0.11120(13) 0.61541(14) 0.22502(7)
O7 O -0.33175(14) 0.56232(14) 0.20191(7)
Li2 Li -0.0224(3) 0.4676(3) 0.24257(17)
H11 H -0.331(5) 0.515(4) 0.2382(18)
O8 O -0.15563(14) 0.35269(15) 0.28350(7)
O9 O 0.02900(17) 0.42382(17) 0.15519(8)
O10 O 0.13923(15) 0.49758(16) 0.30099(8)
C13 C -0.26349(18) 0.35379(18) 0.31132(9)
C14 C 0.0834(3) 0.4377(2) 0.10285(12)
C15 C 0.1579(2) 0.4739(2) 0.36016(11)
O11 O -0.35973(14) 0.40997(14) 0.29124(7)
C16 C -0.28442(18) 0.28247(17) 0.37430(9)
N2 N 0.2042(2) 0.50632(18) 0.09496(10)
H12 H 0.03540 0.39550 0.06360
N3 N 0.27401(18) 0.50075(17) 0.39597(9)
H13 H 0.08240 0.43270 0.38190
C17 C -0.41091(18) 0.25375(17) 0.39987(9)
C18 C -0.17355(18) 0.24683(17) 0.40841(9)
C19 C 0.2330(15) 0.5296(9) 0.0234(5)
C20 C 0.2878(3) 0.5754(3) 0.14959(15)
C21 C 0.3961(2) 0.5617(2) 0.36745(14)
C22 C 0.2827(3) 0.4694(3) 0.46614(13)
C23 C -0.42689(17) 0.19297(16) 0.45994(8)
H14 H -0.48740 0.27580 0.37610
C24 C -0.18761(17) 0.18703(17) 0.46880(9)
H15 H -0.08740 0.26340 0.39040
H16 H 0.31580 0.49670 0.01250
H17 H 0.15760 0.48490 -0.00630
H18 H 0.24460 0.62230 0.01710
H19 H 0.31630 0.66470 0.13830
H20 H 0.36740 0.53420 0.15760
H21 H 0.23680 0.57440 0.19010
H22 H 0.43450 0.64000 0.39500
H23 H 0.37460 0.58420 0.32160
H24 H 0.46150 0.50190 0.36650
H25 H 0.35470 0.41800 0.47320
H26 H 0.30250 0.54930 0.49500
H27 H 0.19660 0.42000 0.47740
O12 O 0.33605(12) 0.15495(14) 0.44502(7)
C25 C -0.56564(17) 0.16264(17) 0.48674(9)
C26 C -0.31453(17) 0.16058(17) 0.49437(8)
C27 C -0.06369(18) 0.15265(17) 0.50449(9)
Li3 Li 0.1503(3) 0.0974(3) 0.43047(15)
O13 O -0.57136(13) 0.14880(14) 0.54854(6)
H28 H -0.32450 0.12010 0.53560
O14 O 0.04871(12) 0.19964(13) 0.48442(7)
O15 O -0.07801(13) 0.08031(13) 0.55293(6)
O16 O 0.11334(14) 0.11771(15) 0.33410(7)
C28 C 0.2024(2) 0.1728(2) 0.30047(10)
N4 N 0.19723(17) 0.17380(17) 0.23433(8)
H29 H 0.28130 0.21830 0.32430
C29 C 0.0795(2) 0.1098(3) 0.19339(11)
C30 C 0.3075(2) 0.2424(2) 0.19946(12)
H30 H 0.10690 0.04770 0.16060
H31 H 0.03800 0.17410 0.16970
H32 H 0.01420 0.06450 0.22230
H33 H 0.34220 0.18170 0.16850
H34 H 0.37980 0.28210 0.23230
H35 H 0.27480 0.30950 0.17410
N5 N 0.69139(16) 0.15023(16) 0.10409(8)
H36 H 0.61510 0.11420 0.07930
H37 H 0.76260 0.14630 0.07820
C31 C 0.7067(2) 0.0752(2) 0.16376(10)
H38 H 0.73140 -0.00820 0.14980
H39 H 0.62130 0.06120 0.18590
H40 H 0.77750 0.12290 0.19510
C32 C 0.6839(2) 0.2870(2) 0.12264(11)
H41 H 0.65910 0.32960 0.08250
H42 H 0.77190 0.33040 0.14200
H43 H 0.61580 0.29150 0.15570
N6 N 0.80149(16) 0.84657(16) 0.38934(8)
H44 H 0.87880 0.87650 0.41480
H45 H 0.73080 0.86070 0.41380
C33 C 0.7932(3) 0.7070(2) 0.37396(11)
H46 H 0.80160 0.66380 0.41590
H47 H 0.86620 0.69160 0.34550
H48 H 0.70610 0.67270 0.35030
C34 C 0.7998(2) 0.9189(2) 0.32811(11)
H49 H 0.79940 1.01020 0.34060
H50 H 0.71870 0.88440 0.29950
H51 H 0.88000 0.91020 0.30350
C35? C 1.285(2) 0.5025(16) 0.0374(8)
H52? H 1.31870 0.59070 0.02590
H53? H 1.22950 0.45630 -0.00080
H54? H 1.36110 0.45800 0.04790
H55? H 0.664(5) 0.469(4) 0.262(2)
O1* O -0.54208(12) 0.81060(13) 0.03227(7)
O3A O -0.41977(13) 0.90235(13) -0.04695(6)
Li1A Li -0.3525(3) 1.0723(3) -0.07417(15)
Li1* Li -0.6475(3) 0.9277(3) 0.07417(15)
O12* O -0.66395(12) 0.15495(14) 0.44502(7)
O15A O 0.07801(13) -0.08031(13) 0.44707(6)
Li3* Li -0.8497(3) 0.0974(3) 0.43047(15)
Li3A Li -0.1503(3) -0.0974(3) 0.56953(15)
#END
