
#######################################################################
#
#                 Cambridge Crystallographic Data Centre
#                                CCDC
#
#######################################################################
#
# If this CIF has been generated from an entry in the Cambridge
# Structural Database, then it will include bibliographic, chemical,
# crystal, experimental, refinement or atomic coordinate data resulting
# from the CCDC's data processing and validation procedures.
#
#######################################################################

data_CSD_CIF_REYKUE
_audit_creation_date 2018-02-22
_audit_creation_method CSD-ConQuest-V1
_database_code_CSD REYKUE
_database_code_depnum_ccdc_archive 'CCDC 1422014'
_chemical_formula_sum 'C18 H38 N12 O25 U3'
_chemical_formula_moiety
;
(C12 H12 O16 U2 2-)n,n(C4 H18 N8 O7 U1 2+),2n(C1 H4 N2 O1)
;
_journal_coden_Cambridge 41
_journal_volume 62
_journal_year 2017
_journal_page_first 716
_journal_name_full 'Kristallografiya(Russ.)(Crystallogr.Rep.) '
loop_
_publ_author_name
"L.B.Serezhkina"
"M.S.Grigorev"
"N.V.Seliverstova"
"V.N.Serezhkin"
_chemical_name_systematic
;
catena-(aqua-dioxo-tetrakis(urea)-uranium 
tris(\m-succinato)-tetraoxo-di-uranium bis(urea))
;
_cell_volume   4097.294
_diffrn_ambient_temperature 100
#These two values have been output from a single CSD field.
_refine_ls_R_factor_gt 0.0575
_refine_ls_wR_factor_gt 0.0575
_symmetry_cell_setting monoclinic
_symmetry_space_group_name_H-M 'C 2/c'
_symmetry_Int_Tables_number 15
loop_
_symmetry_equiv_pos_site_id
_symmetry_equiv_pos_as_xyz
1 x,y,z
2 -x,y,1/2-z
3 1/2+x,1/2+y,z
4 1/2-x,1/2+y,1/2-z
5 -x,-y,-z
6 x,-y,-1/2+z
7 -1/2-x,-1/2-y,-z
8 -1/2+x,-1/2-y,-1/2+z
_cell_length_a 26.5307(17)
_cell_length_b 17.3294(12)
_cell_length_c 8.9347(6)
_cell_angle_alpha 90
_cell_angle_beta 94.104(3)
_cell_angle_gamma 90
_cell_formula_units_Z 4
loop_
_atom_type_symbol
_atom_type_radius_bond
C 0.68
H 0.23
N 0.68
O 0.68
U 1.96
loop_
_atom_site_label
_atom_site_type_symbol
_atom_site_fract_x
_atom_site_fract_y
_atom_site_fract_z
U1 U 0.50000 0.73948(5) 0.25000
O1 O 0.50000 0.6022(9) 0.25000
H1 H 0.5254(6) 0.572(2) 0.261(19)
O2 O 0.5383(4) 0.7427(6) 0.4221(11)
O3 O 0.4568(4) 0.8486(6) 0.3407(11)
O4 O 0.4284(4) 0.6924(6) 0.3653(11)
N1 N 0.3493(6) 0.6490(9) 0.4329(19)
H2 H 0.36290 0.62300 0.51010
H3 H 0.31630 0.64890 0.41330
N2 N 0.3603(5) 0.7286(7) 0.2179(14)
H4 H 0.37870 0.75340 0.15550
H5 H 0.32720 0.72750 0.20160
N3 N 0.3946(5) 0.9290(8) 0.3819(15)
H6 H 0.39510 0.91410 0.47610
H7 H 0.37290 0.96440 0.34790
N4 N 0.4257(6) 0.9287(10) 0.1393(18)
H8 H 0.44750 0.91200 0.07710
H9 H 0.40330 0.96400 0.10980
C1 C 0.3821(6) 0.6933(9) 0.3352(17)
C2 C 0.4267(5) 0.8981(8) 0.2905(16)
U2 U 0.67815(2) 0.17443(4) 0.24028(7)
O5 O 0.6624(4) 0.1725(6) 0.0456(12)
O6 O 0.6932(4) 0.1754(6) 0.4351(11)
O7 O 0.6830(4) 0.0309(6) 0.2448(13)
O8 O 0.7516(3) 0.0922(6) 0.1995(11)
O9 O 0.7463(4) -0.2510(6) 0.3004(12)
O10 O 0.8133(4) -0.1837(7) 0.2669(14)
O11 O 0.5971(5) 0.2418(7) 0.2647(15)
O12 O 0.5950(5) 0.1166(7) 0.2859(15)
C3 C 0.7289(5) 0.0287(8) 0.2169(18)
C4 C 0.7579(6) -0.0470(9) 0.2085(19)
H10 H 0.75930 -0.06150 0.10170
H11 H 0.79310 -0.03840 0.25000
C5 C 0.7364(6) -0.1124(9) 0.289(2)
H12 H 0.70190 -0.12280 0.24420
H13 H 0.73340 -0.09700 0.39500
C6 C 0.7671(5) -0.1867(8) 0.2872(18)
C7 C 0.5745(5) 0.1810(9) 0.271(2)
C8 C 0.5196(6) 0.186(3) 0.308(2)
H14 H 0.51330 0.14150 0.37500
H15 H 0.51580 0.23310 0.36770
O13 O 0.5541(6) 0.5164(10) 0.0811(18)
N5 N 0.6062(6) 0.4163(10) 0.0212(18)
H16 H 0.60670 0.43590 -0.06950
H17 H 0.62310 0.37380 0.04460
N6 N 0.5681(6) 0.4156(9) 0.2582(17)
H18 H 0.54470 0.43310 0.31440
H19 H 0.58510 0.37360 0.28510
C9 C 0.5779(8) 0.4532(12) 0.130(2)
H1A H 0.4746(6) 0.572(2) 0.239(19)
O2A O 0.4617(4) 0.7427(6) 0.0779(11)
O3A O 0.5432(4) 0.8486(6) 0.1593(11)
O4A O 0.5716(4) 0.6924(6) 0.1347(11)
N1A N 0.6507(6) 0.6490(9) 0.0671(19)
H2A H 0.63710 0.62300 -0.01010
H3A H 0.68370 0.64890 0.08670
N2A N 0.6397(5) 0.7286(7) 0.2821(14)
H4A H 0.62130 0.75340 0.34450
H5A H 0.67280 0.72750 0.29840
N3A N 0.6054(5) 0.9290(8) 0.1181(15)
H6A H 0.60490 0.91410 0.02390
H7A H 0.62710 0.96440 0.15210
N4A N 0.5743(6) 0.9287(10) 0.3607(18)
H8A H 0.55250 0.91200 0.42290
H9A H 0.59670 0.96400 0.39020
C1A C 0.6179(6) 0.6933(9) 0.1648(17)
C2A C 0.5733(5) 0.8981(8) 0.2095(16)
O11A O 0.4029(5) 0.2418(7) 0.2353(15)
O12A O 0.4050(5) 0.1166(7) 0.2141(15)
C7A C 0.4255(5) 0.1810(9) 0.229(2)
C8A C 0.4804(6) 0.186(3) 0.192(2)
H14A H 0.48670 0.14150 0.12500
H15A H 0.48420 0.23310 0.13230
U2A U 0.32185(2) 0.17443(4) 0.25972(7)
O5A O 0.3376(4) 0.1725(6) 0.4544(12)
O6A O 0.3068(4) 0.1754(6) 0.0649(11)
O7A O 0.3170(4) 0.0309(6) 0.2552(13)
O8A O 0.2484(3) 0.0922(6) 0.3005(11)
O9A O 0.2537(4) -0.2510(6) 0.1996(12)
O10A O 0.1867(4) -0.1837(7) 0.2331(14)
C3A C 0.2711(5) 0.0287(8) 0.2831(18)
C4A C 0.2421(6) -0.0470(9) 0.2915(19)
H10A H 0.24070 -0.06150 0.39830
H11A H 0.20690 -0.03840 0.25000
C5A C 0.2636(6) -0.1124(9) 0.211(2)
H12A H 0.29810 -0.12280 0.25580
H13A H 0.26660 -0.09700 0.10500
C6A C 0.2329(5) -0.1867(8) 0.2128(18)
U2B U 0.17815(2) -0.32557(4) 0.24028(7)
U2C U 0.82185(2) -0.32557(4) 0.25972(7)
O9B O 0.2463(4) 0.2490(6) 0.3004(12)
O9C O 0.7537(4) 0.2490(6) 0.1996(12)
O10B O 0.3133(4) 0.3163(7) 0.2669(14)
O10C O 0.6867(4) 0.3163(7) 0.2331(14)
#END
