
#######################################################################
#
#                 Cambridge Crystallographic Data Centre
#                                CCDC
#
#######################################################################
#
# If this CIF has been generated from an entry in the Cambridge
# Structural Database, then it will include bibliographic, chemical,
# crystal, experimental, refinement or atomic coordinate data resulting
# from the CCDC's data processing and validation procedures.
#
#######################################################################

data_CSD_CIF_REYMOZ
_audit_creation_date 2013-05-19
_audit_creation_method CSD-ConQuest-V1
_database_code_CSD REYMOZ
_database_code_depnum_ccdc_archive 'CCDC 909625'
_chemical_formula_sum 'C88 H159 Cu12 Mo11 N4 O131.5 P1 V1'
_chemical_formula_moiety
;
(C18 H12 Cu3 O15)4n,n(Mo11 O40 P1 V1 4-),4n(C4 H12 N1 1+),31.5n(H2 O1)
;
_journal_coden_Cambridge 1428
_journal_volume 35
_journal_year 2013
_journal_page_first 101
_journal_name_full 'Catalysis Communications '
loop_
_publ_author_name
"Hua Yang"
"Jun Li"
"Lianyue Wang"
"Wen Dai"
"Ying Lv"
"Shuang Gao"
_chemical_name_systematic
;
catena-(tetrakis(Tetramethylammonium) 
tetrakis(bis(\m~6~-benzene-1,3,5-tricarboxylato)-triaqua-tri-copper) 
(\m~12~-phosphato)-tetracosakis(\m~2~-oxo)-dodecaoxo-undeca-molybdenum-vanadiu
m hydrate)
;
_cell_volume  18194.767
_exptl_crystal_colour 'green'
_exptl_crystal_density_diffrn 1.786
_exptl_special_details
;
The tetramethylammonium cations were not located. The formulation of the 
compound is not made clear
;
_exptl_crystal_description 'block'
_diffrn_ambient_temperature 296
_refine_special_details
;
Each of the metal sites of the anion is a mixed molybdenum/vanadium site with 
occupancies 0.92:0.08. The phosphate moiety of the anion is disordered by 
symmetry.
;
#These two values have been output from a single CSD field.
_refine_ls_R_factor_gt 0.0516
_refine_ls_wR_factor_gt 0.0516
_symmetry_cell_setting cubic
_symmetry_space_group_name_H-M 'F m -3 m'
_symmetry_Int_Tables_number 225
loop_
_symmetry_equiv_pos_site_id
_symmetry_equiv_pos_as_xyz
1 x,y,z
2 -x,-y,z
3 -x,y,-z
4 x,-y,-z
5 z,x,y
6 z,-x,-y
7 -z,-x,y
8 -z,x,-y
9 y,z,x
10 -y,z,-x
11 y,-z,-x
12 -y,-z,x
13 y,x,-z
14 -y,-x,-z
15 y,-x,z
16 -y,x,z
17 x,z,-y
18 -x,z,y
19 -x,-z,-y
20 x,-z,y
21 z,y,-x
22 z,-y,x
23 -z,y,x
24 -z,-y,-x
25 x,1/2+y,1/2+z
26 -x,1/2-y,1/2+z
27 -x,1/2+y,1/2-z
28 x,1/2-y,1/2-z
29 z,1/2+x,1/2+y
30 z,1/2-x,1/2-y
31 -z,1/2-x,1/2+y
32 -z,1/2+x,1/2-y
33 y,1/2+z,1/2+x
34 -y,1/2+z,1/2-x
35 y,1/2-z,1/2-x
36 -y,1/2-z,1/2+x
37 y,1/2+x,1/2-z
38 -y,1/2-x,1/2-z
39 y,1/2-x,1/2+z
40 -y,1/2+x,1/2+z
41 x,1/2+z,1/2-y
42 -x,1/2+z,1/2+y
43 -x,1/2-z,1/2-y
44 x,1/2-z,1/2+y
45 z,1/2+y,1/2-x
46 z,1/2-y,1/2+x
47 -z,1/2+y,1/2+x
48 -z,1/2-y,1/2-x
49 1/2+x,y,1/2+z
50 1/2-x,-y,1/2+z
51 1/2-x,y,1/2-z
52 1/2+x,-y,1/2-z
53 1/2+z,x,1/2+y
54 1/2+z,-x,1/2-y
55 1/2-z,-x,1/2+y
56 1/2-z,x,1/2-y
57 1/2+y,z,1/2+x
58 1/2-y,z,1/2-x
59 1/2+y,-z,1/2-x
60 1/2-y,-z,1/2+x
61 1/2+y,x,1/2-z
62 1/2-y,-x,1/2-z
63 1/2+y,-x,1/2+z
64 1/2-y,x,1/2+z
65 1/2+x,z,1/2-y
66 1/2-x,z,1/2+y
67 1/2-x,-z,1/2-y
68 1/2+x,-z,1/2+y
69 1/2+z,y,1/2-x
70 1/2+z,-y,1/2+x
71 1/2-z,y,1/2+x
72 1/2-z,-y,1/2-x
73 1/2+x,1/2+y,z
74 1/2-x,1/2-y,z
75 1/2-x,1/2+y,-z
76 1/2+x,1/2-y,-z
77 1/2+z,1/2+x,y
78 1/2+z,1/2-x,-y
79 1/2-z,1/2-x,y
80 1/2-z,1/2+x,-y
81 1/2+y,1/2+z,x
82 1/2-y,1/2+z,-x
83 1/2+y,1/2-z,-x
84 1/2-y,1/2-z,x
85 1/2+y,1/2+x,-z
86 1/2-y,1/2-x,-z
87 1/2+y,1/2-x,z
88 1/2-y,1/2+x,z
89 1/2+x,1/2+z,-y
90 1/2-x,1/2+z,y
91 1/2-x,1/2-z,-y
92 1/2+x,1/2-z,y
93 1/2+z,1/2+y,-x
94 1/2+z,1/2-y,x
95 1/2-z,1/2+y,x
96 1/2-z,1/2-y,-x
97 -x,-y,-z
98 x,y,-z
99 x,-y,z
100 -x,y,z
101 -z,-x,-y
102 -z,x,y
103 z,x,-y
104 z,-x,y
105 -y,-z,-x
106 y,-z,x
107 -y,z,x
108 y,z,-x
109 -y,-x,z
110 y,x,z
111 -y,x,-z
112 y,-x,-z
113 -x,-z,y
114 x,-z,-y
115 x,z,y
116 -x,z,-y
117 -z,-y,x
118 -z,y,-x
119 z,-y,-x
120 z,y,x
121 -x,-1/2-y,-1/2-z
122 x,-1/2+y,-1/2-z
123 x,-1/2-y,-1/2+z
124 -x,-1/2+y,-1/2+z
125 -z,-1/2-x,-1/2-y
126 -z,-1/2+x,-1/2+y
127 z,-1/2+x,-1/2-y
128 z,-1/2-x,-1/2+y
129 -y,-1/2-z,-1/2-x
130 y,-1/2-z,-1/2+x
131 -y,-1/2+z,-1/2+x
132 y,-1/2+z,-1/2-x
133 -y,-1/2-x,-1/2+z
134 y,-1/2+x,-1/2+z
135 -y,-1/2+x,-1/2-z
136 y,-1/2-x,-1/2-z
137 -x,-1/2-z,-1/2+y
138 x,-1/2-z,-1/2-y
139 x,-1/2+z,-1/2+y
140 -x,-1/2+z,-1/2-y
141 -z,-1/2-y,-1/2+x
142 -z,-1/2+y,-1/2-x
143 z,-1/2-y,-1/2-x
144 z,-1/2+y,-1/2+x
145 -1/2-x,-y,-1/2-z
146 -1/2+x,y,-1/2-z
147 -1/2+x,-y,-1/2+z
148 -1/2-x,y,-1/2+z
149 -1/2-z,-x,-1/2-y
150 -1/2-z,x,-1/2+y
151 -1/2+z,x,-1/2-y
152 -1/2+z,-x,-1/2+y
153 -1/2-y,-z,-1/2-x
154 -1/2+y,-z,-1/2+x
155 -1/2-y,z,-1/2+x
156 -1/2+y,z,-1/2-x
157 -1/2-y,-x,-1/2+z
158 -1/2+y,x,-1/2+z
159 -1/2-y,x,-1/2-z
160 -1/2+y,-x,-1/2-z
161 -1/2-x,-z,-1/2+y
162 -1/2+x,-z,-1/2-y
163 -1/2+x,z,-1/2+y
164 -1/2-x,z,-1/2-y
165 -1/2-z,-y,-1/2+x
166 -1/2-z,y,-1/2-x
167 -1/2+z,-y,-1/2-x
168 -1/2+z,y,-1/2+x
169 -1/2-x,-1/2-y,-z
170 -1/2+x,-1/2+y,-z
171 -1/2+x,-1/2-y,z
172 -1/2-x,-1/2+y,z
173 -1/2-z,-1/2-x,-y
174 -1/2-z,-1/2+x,y
175 -1/2+z,-1/2+x,-y
176 -1/2+z,-1/2-x,y
177 -1/2-y,-1/2-z,-x
178 -1/2+y,-1/2-z,x
179 -1/2-y,-1/2+z,x
180 -1/2+y,-1/2+z,-x
181 -1/2-y,-1/2-x,z
182 -1/2+y,-1/2+x,z
183 -1/2-y,-1/2+x,-z
184 -1/2+y,-1/2-x,-z
185 -1/2-x,-1/2-z,y
186 -1/2+x,-1/2-z,-y
187 -1/2+x,-1/2+z,y
188 -1/2-x,-1/2+z,-y
189 -1/2-z,-1/2-y,x
190 -1/2-z,-1/2+y,-x
191 -1/2+z,-1/2-y,-x
192 -1/2+z,-1/2+y,x
_cell_length_a 26.3016(3)
_cell_length_b 26.3016(3)
_cell_length_c 26.3016(3)
_cell_angle_alpha 90
_cell_angle_beta 90
_cell_angle_gamma 90
_cell_formula_units_Z 4
loop_
_atom_type_symbol
_atom_type_radius_bond
C 0.68
H 0.23
Cu 1.32
Mo 1.54
O 0.68
P 1.05
V 1.53
loop_
_atom_site_label
_atom_site_type_symbol
_atom_site_fract_x
_atom_site_fract_y
_atom_site_fract_z
Mo1 Mo 0.09526(2) 0.00000 0.09526(2)
P1 P 0.00000 0.00000 0.00000
O1 O 0.13937(18) 0.00000 0.13937(18)
O2 O 0.04988(19) 0.04988(19) 0.1200(2)
O3 O 0.0339(3) 0.0339(3) 0.0339(3)
Cu1 Cu 0.28513(2) 0.00000 0.21487(2)
O4 O 0.24335(10) 0.05261(10) 0.18300(11)
O5 O 0.3439(2) 0.00000 0.1561(2)
C1 C 0.17692(14) 0.1122(2) 0.17692(14)
C2 C 0.13391(15) 0.13391(15) 0.1983(2)
H1 H 0.11950 0.11950 0.22730
C3 C 0.20276(14) 0.06875(19) 0.20276(14)
O6 O 0.2460(7) 0.00000 0.0660(7)
O7 O 0.25000 0.25000 0.25000
O8 O 0.313(2) 0.00000 0.00000
V1? V 0.09526(2) 0.00000 0.09526(2)
O3A O -0.0339(3) -0.0339(3) 0.0339(3)
O3B O -0.0339(3) 0.0339(3) -0.0339(3)
O3C O 0.0339(3) -0.0339(3) -0.0339(3)
O3L O 0.0339(3) 0.0339(3) -0.0339(3)
O3M O -0.0339(3) -0.0339(3) -0.0339(3)
O3N O 0.0339(3) -0.0339(3) 0.0339(3)
O3O O -0.0339(3) 0.0339(3) 0.0339(3)
Mo1A Mo -0.09526(2) 0.00000 0.09526(2)
O1A O -0.13937(18) 0.00000 0.13937(18)
O2A O -0.04988(19) -0.04988(19) 0.1200(2)
Mo1B Mo -0.09526(2) 0.00000 -0.09526(2)
O1B O -0.13937(18) 0.00000 -0.13937(18)
O2B O -0.04988(19) 0.04988(19) -0.1200(2)
Mo1C Mo 0.09526(2) 0.00000 -0.09526(2)
O1C O 0.13937(18) 0.00000 -0.13937(18)
O2C O 0.04988(19) -0.04988(19) -0.1200(2)
Mo1D Mo 0.09526(2) 0.09526 0.00000(2)
O1D O 0.13937(18) 0.13937 0.00000(18)
O2D O 0.12000(19) 0.04988(19) 0.04988(20)
Mo1E Mo 0.09526(2) -0.09526 0.00000(2)
O1E O 0.13937(18) -0.13937 0.00000(18)
O2E O 0.12000(19) -0.04988(19) -0.04988(20)
Mo1F Mo -0.09526(2) -0.09526 0.00000(2)
O1F O -0.13937(18) -0.13937 0.00000(18)
O2F O -0.12000(19) -0.04988(19) 0.04988(20)
Mo1G Mo -0.09526(2) 0.09526 0.00000(2)
O1G O -0.13937(18) 0.13937 0.00000(18)
O2G O -0.12000(19) 0.04988(19) -0.04988(20)
Mo1H Mo 0.00000(2) 0.09526 0.09526(2)
O1H O 0.00000(18) 0.13937 0.13937(18)
O2H O 0.04988(19) 0.12000(19) 0.04988(20)
Mo1I Mo 0.00000(2) 0.09526 -0.09526(2)
O1I O 0.00000(18) 0.13937 -0.13937(18)
O2I O -0.04988(19) 0.12000(19) -0.04988(20)
Mo1J Mo 0.00000(2) -0.09526 -0.09526(2)
O1J O 0.00000(18) -0.13937 -0.13937(18)
O2J O 0.04988(19) -0.12000(19) -0.04988(20)
Mo1K Mo 0.00000(2) -0.09526 0.09526(2)
O1K O 0.00000(18) -0.13937 0.13937(18)
O2K O -0.04988(19) -0.12000(19) 0.04988(20)
O2L O 0.04988(19) 0.04988(19) -0.1200(2)
O2M O -0.04988(19) -0.04988(19) -0.1200(2)
O2N O 0.04988(19) -0.04988(19) 0.1200(2)
O2O O -0.04988(19) 0.04988(19) 0.1200(2)
O2P O 0.04988(19) 0.12000(19) -0.04988(20)
O2Q O -0.04988(19) 0.12000(19) 0.04988(20)
O2R O -0.04988(19) -0.12000(19) -0.04988(20)
O2S O 0.04988(19) -0.12000(19) 0.04988(20)
O2T O 0.12000(19) 0.04988(19) -0.04988(20)
O2U O 0.12000(19) -0.04988(19) 0.04988(20)
O2V O -0.12000(19) 0.04988(19) 0.04988(20)
O2W O -0.12000(19) -0.04988(19) -0.04988(20)
O4D O 0.1830(1) 0.24335(10) 0.05261(11)
C1D C 0.17692(14) 0.17692(20) 0.11220(14)
C2D C 0.19830(15) 0.13391(15) 0.13391(20)
H1D H 0.22730 0.11950 0.11950
C3D C 0.20276(14) 0.20276(19) 0.06875(14)
O4H O 0.05261(10) 0.1830(1) 0.24335(11)
C1H C 0.11220(14) 0.17692(20) 0.17692(14)
C2H C 0.13391(15) 0.19830(15) 0.13391(20)
H1H H 0.11950 0.22730 0.11950
C3H C 0.06875(14) 0.20276(19) 0.20276(14)
O4ED O 0.05261(10) 0.24335(10) 0.18300(11)
O4JD O 0.24335(10) 0.1830(1) 0.05261(11)
O4OD O 0.1830(1) 0.05261(10) 0.24335(11)
Cu1O Cu 0.00000(2) 0.28513 0.21487(2)
O5O O 0.0000(2) 0.34390 0.1561(2)
O4SB O 0.3170(1) -0.05261(10) 0.25665(11)
C1SB C 0.32308(14) -0.1122(2) 0.32308(14)
C2SB C 0.30170(15) -0.13391(15) 0.36609(20)
H1SB H 0.27270 -0.11950 0.38050
C3SB C 0.29724(14) -0.06875(19) 0.29724(14)
O4IB O 0.44739(10) -0.24335(10) 0.31700(11)
C1IB C 0.38780(14) -0.17692(20) 0.32308(14)
C2IB C 0.36609(15) -0.13391(15) 0.3017(2)
H1IB H 0.38050 -0.11950 0.27270
C3IB C 0.43125(14) -0.20276(19) 0.29724(14)
O4NB O 0.25665(10) -0.1830(1) 0.44739(11)
C1NB C 0.32308(14) -0.17692(20) 0.38780(14)
C2NB C 0.36609(15) -0.19830(15) 0.36609(20)
H1NB H 0.38050 -0.22730 0.38050
C3NB C 0.29724(14) -0.20276(19) 0.43125(14)
O4RE O 0.3170(1) -0.24335(10) 0.44739(11)
O4VE O 0.44739(10) -0.1830(1) 0.25665(11)
O4NE O 0.25665(10) -0.05261(10) 0.31700(11)
Cu1U Cu 0.21487(2) 0.00000 0.28513(2)
O5U O 0.1561(2) 0.00000 0.3439(2)
Cu1D Cu 0.21487(2) 0.28513 0.00000(2)
Cu1H Cu 0.00000(2) 0.21487 0.28513(2)
Cu1P Cu 0.28513(2) 0.21487 0.00000(2)
Cu1BA Cu 0.21487(2) -0.21487 0.50000(2)
Cu1NA Cu 0.28513(2) -0.28513 0.50000(2)
Cu1FB Cu 0.50000(2) -0.21487 0.21487(2)
Cu1IB Cu 0.50000(2) -0.28513 0.28513(2)
O4O O -0.05261(10) 0.24335(10) 0.18300(11)
O4U O 0.1830(1) -0.05261(10) 0.24335(11)
O4HA O 0.05261(10) 0.3170(1) 0.25665(11)
O4XA O 0.25665(10) 0.05261(10) 0.31700(11)
O4TC O 0.24335(10) -0.05261(10) 0.18300(11)
O4XD O -0.05261(10) 0.3170(1) 0.25665(11)
O4IF O 0.3170(1) 0.05261(10) 0.25665(11)
#END
