
#######################################################################
#
#                 Cambridge Crystallographic Data Centre
#                                CCDC
#
#######################################################################
#
# If this CIF has been generated from an entry in the Cambridge
# Structural Database, then it will include bibliographic, chemical,
# crystal, experimental, refinement or atomic coordinate data resulting
# from the CCDC's data processing and validation procedures.
#
#######################################################################

data_CSD_CIF_REYPAO
_audit_creation_date 2013-05-19
_audit_creation_method CSD-ConQuest-V1
_database_code_CSD REYPAO
_database_code_depnum_ccdc_archive 'CCDC 909600'
_chemical_formula_sum 'C12 H8 Cd2 K3 N9 O16'
_chemical_formula_moiety
;
(C12 H4 Cd2 N9 O14 3-)n,2n(H2 O1),3n(K1 1+)
;
_journal_coden_Cambridge 1350
_journal_volume 15
_journal_year 2013
_journal_page_first 2682
_journal_name_full 'CrystEngComm '
loop_
_publ_author_name
"Ji-Yong Zou"
"Hong-Ling Gao"
"Wei Shi"
"Jian-Zhong Cui"
"Peng Cheng"
_chemical_name_systematic
;
catena-(Tri-potassium 
(\m~2~-4,5-dicarboxylato-1,2,3-triazolato-N^1^,N^3^)-bis(\m~2~-4,5-dicarboxyla
to-1,2,3-triazolato-N^1^,N^2^)-diaqua-di-cadmium dihydrate)
;
_cell_volume   1250.120
_exptl_crystal_colour 'colorless'
_exptl_crystal_density_diffrn 2.328
_exptl_crystal_description 'block'
_diffrn_ambient_temperature 121.2
#These two values have been output from a single CSD field.
_refine_ls_R_factor_gt 0.0404
_refine_ls_wR_factor_gt 0.0404
_symmetry_cell_setting monoclinic
_symmetry_space_group_name_H-M 'P 2/n'
_symmetry_Int_Tables_number 13
loop_
_symmetry_equiv_pos_site_id
_symmetry_equiv_pos_as_xyz
1 x,y,z
2 1/2-x,y,1/2-z
3 -x,-y,-z
4 -1/2+x,-y,-1/2+z
_cell_length_a 7.9992(4)
_cell_length_b 7.6259(3)
_cell_length_c 20.6651(10)
_cell_angle_alpha 90
_cell_angle_beta 97.391(4)
_cell_angle_gamma 90
_cell_formula_units_Z 2
loop_
_atom_type_symbol
_atom_type_radius_bond
C 0.68
H 0.23
Cd 1.44
K 2.03
N 0.68
O 0.68
loop_
_atom_site_label
_atom_site_type_symbol
_atom_site_fract_x
_atom_site_fract_y
_atom_site_fract_z
Cd1 Cd 0.50811(5) 0.48730(5) 0.606766(17)
O1 O -0.1599(5) 0.1423(5) 0.51523(19)
O2 O 0.5602(5) 0.1913(5) 0.61737(17)
N1 N 0.75000 0.5506(9) 0.75000
O3 O 0.0015(5) 0.2451(6) 0.61740(19)
N2 N 0.2950(6) 0.4194(6) 0.4564(2)
O4 O -0.1382(5) 0.1354(5) 0.40942(19)
N3 N 0.1576(6) 0.3318(6) 0.4290(2)
C1 C -0.0838(6) 0.1800(7) 0.4654(3)
N4 N 0.6739(6) 0.4466(6) 0.7027(2)
N5 N 0.3009(6) 0.4241(6) 0.5212(2)
O5 O 0.2457(5) 0.3822(6) 0.64809(17)
C2 C 0.1356(7) 0.3215(7) 0.6056(2)
C3 C 0.1633(6) 0.3386(7) 0.5362(3)
C4 C 0.7021(6) 0.2773(6) 0.7196(2)
C5 C 0.6362(6) 0.1380(7) 0.6711(2)
O6 O 0.4570(6) 0.7751(6) 0.6151(3)
H1 H 0.35750 0.82000 0.60910
H2 H 0.50060 0.80800 0.65400
C6 C 0.0747(6) 0.2806(7) 0.4787(2)
O7 O 0.6583(6) -0.0181(5) 0.6862(2)
K1 K 0.97810(18) -0.1587(2) 0.70344(7)
O8 O 1.25000 0.0937(8) 0.75000
H3 H 1.27430 0.16110 0.72000
O9 O 1.25000 -0.3761(8) 0.75000
H4 H 1.27490 -0.43910 0.71920
K2 K 0.50000 0.00000 0.50000
O2A O 0.9398(5) 0.1913(5) 0.88263(17)
N4A N 0.8261(6) 0.4466(6) 0.7973(2)
C4A C 0.7979(6) 0.2773(6) 0.7804(2)
C5A C 0.8638(6) 0.1380(7) 0.8289(2)
O7A O 0.8417(6) -0.0181(5) 0.8138(2)
Cd1A Cd 0.99189(5) 0.48730(5) 0.893234(17)
O1A O 1.6599(5) 0.1423(5) 0.98477(19)
O3A O 1.4985(5) 0.2451(6) 0.88260(19)
N2A N 1.2050(6) 0.4194(6) 1.0436(2)
O4A O 1.6382(5) 0.1354(5) 1.09058(19)
N3A N 1.3424(6) 0.3318(6) 1.0710(2)
C1A C 1.5838(6) 0.1800(7) 1.0346(3)
N5A N 1.1991(6) 0.4241(6) 0.9788(2)
O5A O 1.2543(5) 0.3822(6) 0.85191(17)
C2A C 1.3644(7) 0.3215(7) 0.8944(2)
C3A C 1.3367(6) 0.3386(7) 0.9638(3)
O6A O 1.0430(6) 0.7751(6) 0.8849(3)
H1A H 1.14250 0.82000 0.89090
H2A H 0.99940 0.80800 0.84600
C6A C 1.4253(6) 0.2806(7) 1.0213(2)
Cd1B Cd 0.49189(5) 0.51270(5) 0.393234(17)
Cd1C Cd 1.00811(5) 0.51270(5) 1.106766(17)
N2B N 0.7050(6) 0.5806(6) 0.5436(2)
N2C N 0.7950(6) 0.5806(6) 0.9564(2)
H3A H 1.22570 0.16110 0.78000
H4A H 1.22510 -0.43910 0.78080
#END
