
#######################################################################
#
#                 Cambridge Crystallographic Data Centre
#                                CCDC
#
#######################################################################
#
# If this CIF has been generated from an entry in the Cambridge
# Structural Database, then it will include bibliographic, chemical,
# crystal, experimental, refinement or atomic coordinate data resulting
# from the CCDC's data processing and validation procedures.
#
#######################################################################

data_CSD_CIF_REZBEG01
_audit_creation_date 2018-02-23
_audit_creation_method CSD-ConQuest-V1
_database_code_CSD REZBEG01
_database_code_depnum_ccdc_archive 'CCDC 1570364'
_chemical_formula_sum 'C8 H14 Cr1 Mn1 N1 O13'
_chemical_formula_moiety
;
(C6 H6 Cr1 Mn1 O12 1-)n,n(C2 H8 N1 O1 1+)
;
_journal_coden_Cambridge 208
_journal_volume 260
_journal_year 2018
_journal_page_first 7
_journal_name_full 'J.Solid State Chem. '
loop_
_publ_author_name
"M.Maczka"
"Jan Janczak"
"K.Hermanowicz"
"A.Pikul"
"J.Hanuza"
_chemical_name_systematic
;
catena-(2-hydroxyethylammonium 
hexakis(\m-formato)-chromium(iii)-manganese(ii))
;
_cell_volume    839.522
_exptl_crystal_colour 'violet'
_exptl_crystal_density_diffrn 1.737
_exptl_crystal_description 'parallelepiped'
_diffrn_ambient_temperature 295
_refine_special_details
;
The cation is disordered by symmetry.

;
#These two values have been output from a single CSD field.
_refine_ls_R_factor_gt 0.0327
_refine_ls_wR_factor_gt 0.0327
_symmetry_cell_setting hexagonal
_symmetry_space_group_name_H-M 'P -3 1 c'
_symmetry_Int_Tables_number 163
loop_
_symmetry_equiv_pos_site_id
_symmetry_equiv_pos_as_xyz
1 x,y,z
2 -y,x-y,z
3 -x+y,-x,z
4 -y,-x,1/2-z
5 -x+y,y,1/2-z
6 x,x-y,1/2-z
7 -x,-y,-z
8 y,-x+y,-z
9 x-y,x,-z
10 y,x,-1/2+z
11 x-y,-y,-1/2+z
12 -x,-x+y,-1/2+z
_cell_length_a 8.2876(5)
_cell_length_b 8.2876(5)
_cell_length_c 14.1138(8)
_cell_angle_alpha 90
_cell_angle_beta 90
_cell_angle_gamma 120
_cell_formula_units_Z 2
loop_
_atom_type_symbol
_atom_type_radius_bond
C 0.68
H 0.23
Cr 1.39
Mn 1.61
N 0.68
O 0.68
loop_
_atom_site_label
_atom_site_type_symbol
_atom_site_fract_x
_atom_site_fract_y
_atom_site_fract_z
Mn1 Mn 0.00000 0.00000 0.50000
O1 O 0.2008(2) 0.1922(2) 0.57955(11)
C1 C 0.2068(3) 0.3314(3) 0.61699(16)
O2 O 0.3338(3) 0.4473(3) 0.66584(13)
H1 H 0.10550 0.34860 0.60680
Cr1 Cr 0.33330 0.66670 0.75000
N1 N 0.4616(15) 0.7308(7) 0.25000
O3 O 0.220(2) 0.6495(18) 0.4333(8)
C2 C 0.33330 0.66670 0.4099(10)
C3 C 0.33330 0.66670 0.3035(10)
O1A O -0.1922(2) 0.0086(2) 0.57955(11)
O1B O -0.0086(2) -0.2008(2) 0.57955(11)
O1F O -0.2008(2) -0.1922(2) 0.42045(11)
O1H O 0.0086(2) 0.2008(2) 0.42045(11)
O1G O 0.1922(2) -0.0086(2) 0.42045(11)
C1H C -0.1246(3) 0.2068(3) 0.38301(16)
O2H O -0.1135(3) 0.3338(3) 0.33416(13)
H1H H -0.24310 0.10550 0.39320
Cr1F Cr -0.33330 0.33330 0.25000
O2K O -0.3338(3) 0.1135(3) 0.16584(13)
O2J O -0.1135(3) 0.5527(3) 0.16584(13)
O2F O -0.3338(3) 0.5527(3) 0.33416(13)
O2I O -0.5527(3) 0.3338(3) 0.16584(13)
O2G O -0.5527(3) 0.1135(3) 0.33416(13)
C1K C -0.2068(3) 0.1246(3) 0.11699(16)
C1F C -0.2068(3) 0.6686(3) 0.38301(16)
C1I C -0.6686(3) 0.2068(3) 0.11699(16)
C1G C -0.6686(3) 0.1246(3) 0.38301(16)
O1K O -0.2008(2) -0.0086(2) 0.07955(11)
H1K H -0.10550 0.24310 0.10680
O1F* O -0.2008(2) 0.8078(2) 0.42045(11)
H1F H -0.10550 0.65140 0.39320
O1I O -0.8078(2) 0.2008(2) 0.07955(11)
H1I H -0.65140 0.10550 0.10680
O1G* O -0.8078(2) -0.0086(2) 0.42045(11)
H1G H -0.65140 0.24310 0.39320
Mn1* Mn 0.00000 1.00000 0.50000
Mn1C Mn 0.00000 0.00000 0.00000
Mn1C* Mn -1.00000 0.00000 0.00000
Mn1** Mn -1.00000 0.00000 0.50000
N1A N 0.2692(15) 0.7308(7) 0.25000
O3A O 0.3505(20) 0.5705(18) 0.4333(8)
N1B N 0.2692(15) 0.5384(7) 0.25000
O3B O 0.4295(20) 0.7800(18) 0.4333(8)
O3C O 0.3505(20) 0.7800(18) 0.0667(8)
C2C C 0.33330 0.66670 0.0901(10)
C3C C 0.33330 0.66670 0.1965(10)
O3D O 0.4295(20) 0.6495(18) 0.0667(8)
O3E O 0.220(2) 0.5705(18) 0.0667(8)
#END
