
#######################################################################
#
#                 Cambridge Crystallographic Data Centre
#                                CCDC
#
#######################################################################
#
# If this CIF has been generated from an entry in the Cambridge
# Structural Database, then it will include bibliographic, chemical,
# crystal, experimental, refinement or atomic coordinate data resulting
# from the CCDC's data processing and validation procedures.
#
#######################################################################

data_CSD_CIF_REZFEK
_audit_creation_date 2018-02-23
_audit_creation_method CSD-ConQuest-V1
_database_code_CSD REZFEK
_database_code_depnum_ccdc_archive 'CCDC 1588778'
_chemical_formula_sum 'C26 H26 Mn1 N2 O8'
_chemical_formula_moiety
;
(C22 H10 Mn1 O8 2-)n,2n(C2 H8 N1 1+)
;
_journal_coden_Cambridge 208
_journal_volume 260
_journal_year 2018
_journal_page_first 46
_journal_name_full 'J.Solid State Chem. '
loop_
_publ_author_name
"Liming Fan"
"Yujuan Zhang"
"Jiang Wang"
"Li Zhao"
"Xiaoqing Wang"
"Tuoping Hu"
"Xiutang Zhang"
_chemical_name_systematic
;
catena-(bis(dimethylammonium) 
(\m-p-terphenyl-2,2'',5'',5'''-tetracarboxylato)-manganese)
;
_cell_volume   2566.749
_exptl_crystal_colour 'colorless'
_exptl_crystal_density_diffrn 1.422
_exptl_crystal_description 'block'
_diffrn_ambient_temperature 296.1
_diffrn_special_details
;
twin

;
_refine_special_details
;
C3,C4,N2 and C3',C4',N2' disordered over two sites with occupancies 
0.57:0.43; N1 and N1' disordered over two sites with occupancies 0.68:0.32.
;
#These two values have been output from a single CSD field.
_refine_ls_R_factor_gt 0.1015
_refine_ls_wR_factor_gt 0.1015
_symmetry_cell_setting monoclinic
_symmetry_space_group_name_H-M 'P 21/n'
_symmetry_Int_Tables_number 14
loop_
_symmetry_equiv_pos_site_id
_symmetry_equiv_pos_as_xyz
1 x,y,z
2 1/2-x,1/2+y,1/2-z
3 -x,-y,-z
4 -1/2+x,-1/2-y,-1/2+z
_cell_length_a 15.681(12)
_cell_length_b 9.294(7)
_cell_length_c 18.891(14)
_cell_angle_alpha 90
_cell_angle_beta 111.205(13)
_cell_angle_gamma 90
_cell_formula_units_Z 4
loop_
_atom_type_symbol
_atom_type_radius_bond
C 0.68
H 0.23
Mn 1.61
N 0.68
O 0.68
loop_
_atom_site_label
_atom_site_type_symbol
_atom_site_fract_x
_atom_site_fract_y
_atom_site_fract_z
Mn1 Mn 0.12727(9) 0.92466(13) 0.36528(6)
O1 O 0.5783(4) 0.7021(7) 0.7659(3)
O2 O 0.1485(4) 0.7410(7) 0.4326(3)
O3 O 0.0111(5) 1.0057(7) 0.6262(4)
O4 O 0.6075(5) 0.5911(8) 0.6732(3)
O5 O 0.1183(5) 0.6137(7) 0.5188(3)
O6 O 0.7373(5) 0.9915(9) 0.6258(4)
O7 O -0.0473(6) 0.8801(8) 0.6957(4)
O8 O 0.7796(6) 0.9490(8) 0.5308(4)
C1 C 0.4578(6) 0.6934(9) 0.6445(4)
C2 C 0.0150(6) 0.9016(9) 0.6694(5)
C3 C 0.1725(6) 0.6875(9) 0.4982(4)
C4 C 0.3391(6) 0.7173(8) 0.5215(4)
H1 H 0.32140 0.72730 0.46920
C5 C 0.1852(7) 0.6137(10) 0.7751(5)
H2 H 0.19630 0.55470 0.81730
C6 C 0.5005(6) 0.7347(9) 0.5279(4)
C7 C 0.4336(6) 0.7141(9) 0.5656(4)
C8 C 0.1563(6) 0.7979(8) 0.6529(4)
H3 H 0.14710 0.86140 0.61270
C9 C 0.6385(7) 0.8447(9) 0.5243(4)
C10 C 0.3910(7) 0.6892(9) 0.6757(4)
H4 H 0.40890 0.67900 0.72810
C11 C 0.2707(6) 0.7061(8) 0.5527(4)
C12 C 0.2302(6) 0.7020(8) 0.6729(4)
C13 C 0.5569(6) 0.6613(9) 0.6981(4)
C14 C 0.5739(6) 0.8270(9) 0.5576(4)
H5 H 0.58000 0.87870 0.60140
C15 C 0.0965(6) 0.7993(9) 0.6924(4)
C16 C 0.2971(7) 0.6994(8) 0.6326(4)
C17 C 0.4892(7) 0.6632(10) 0.4598(4)
H6 H 0.43920 0.60270 0.43820
C18 C 0.6273(7) 0.7715(11) 0.4563(5)
H7 H 0.66980 0.78250 0.43280
C19 C 0.2441(6) 0.6098(9) 0.7350(4)
H8 H 0.29290 0.54570 0.74930
C20 C 0.1106(7) 0.7043(10) 0.7531(4)
H9 H 0.06970 0.70230 0.77850
C21 C 0.5515(8) 0.6821(11) 0.4247(5)
H10 H 0.54300 0.63460 0.37930
C22 C 0.7239(7) 0.9335(9) 0.5618(5)
N1 N -0.0507(9) 0.7256(15) 0.4271(7)
H11 H 0.00220 0.68970 0.45820
H12 H -0.03840 0.81080 0.41150
C23 C -0.0832(10) 0.6331(14) 0.3616(6)
H13 H -0.13860 0.67200 0.32550
H14 H -0.09500 0.53900 0.37680
H15 H -0.03760 0.62680 0.33880
C24 C -0.1052(13) 0.7502(17) 0.4701(9)
H16 H -0.07590 0.81930 0.50920
H17 H -0.11360 0.66170 0.49300
H18 H -0.16360 0.78670 0.43790
H19? H -0.14860 0.63610 0.33790
H20? H -0.06040 0.54720 0.34640
H21? H -0.05730 0.71580 0.34640
H22? H -0.07440 0.84030 0.47210
H23? H -0.10250 0.72480 0.52020
H24? H -0.16800 0.75900 0.43700
N2? N -0.059(2) 0.634(4) 0.4402(15)
H25? H 0.00160 0.64510 0.46150
H26? H -0.07230 0.54830 0.45470
C25 C 0.185(2) 0.254(3) 0.2275(16)
H27 H 0.14560 0.20980 0.24950
H28 H 0.23920 0.19620 0.23770
H29 H 0.15420 0.26280 0.17360
C26 C 0.184(2) 0.421(4) 0.3371(16)
H30 H 0.21970 0.41420 0.39030
H31 H 0.12060 0.40490 0.32920
H32 H 0.19110 0.51480 0.31890
N3 N 0.2111(18) 0.394(2) 0.2598(14)
H33 H 0.26980 0.39080 0.28970
H34 H 0.20640 0.45480 0.22210
N4? N 0.2124(16) 0.320(2) 0.2989(12)
H35? H 0.21300 0.23360 0.31920
H36? H 0.26860 0.34040 0.30060
C27? C 0.149(3) 0.323(5) 0.2222(16)
H37? H 0.09380 0.27430 0.21910
H38? H 0.17540 0.27610 0.18980
H39? H 0.13500 0.42120 0.20620
C28? C 0.161(4) 0.452(6) 0.302(3)
H40? H 0.16610 0.55550 0.30300
H41? H 0.18610 0.41660 0.35350
H42? H 0.09830 0.42500 0.27960
Mn1B Mn -0.12727(9) 1.07534(13) 0.63472(6)
Mn1B* Mn 0.87273(9) 1.07534(13) 0.63472(6)
Mn1C Mn 0.62727(9) 0.57534(13) 0.86528(6)
O1C O 0.0783(4) 0.7979(7) 0.2659(3)
O3B O -0.0111(5) 0.9943(7) 0.3738(4)
O6B O 0.2627(5) 1.0085(9) 0.3742(4)
O7B O 0.0473(6) 1.1199(8) 0.3043(4)
O8B O 0.2204(6) 1.0510(8) 0.4692(4)
#END
