
#######################################################################
#
#                 Cambridge Crystallographic Data Centre
#                                CCDC
#
#######################################################################
#
# If this CIF has been generated from an entry in the Cambridge
# Structural Database, then it will include bibliographic, chemical,
# crystal, experimental, refinement or atomic coordinate data resulting
# from the CCDC's data processing and validation procedures.
#
#######################################################################

data_CSD_CIF_REZJIR
_audit_creation_date 2013-07-16
_audit_creation_method CSD-ConQuest-V1
_database_code_CSD REZJIR
_database_code_depnum_ccdc_archive 'CCDC 950433'
_chemical_formula_sum 'C12 H16 Mn2 N4 O12'
_chemical_formula_moiety
;
(C6 H6 Mn2 O12 2-)n,2n(C3 H5 N2 1+)
;
_journal_coeditor_code "LG3108"
_journal_coden_Cambridge 591
_journal_volume 69
_journal_year 2013
_journal_page_first 616
_journal_name_full 'Acta Crystallogr.,Sect.C:Cryst.Struct.Commun. '
loop_
_publ_author_name
"Bi-Qin Wang"
"Hai-Biao Yan"
"Zheng-Qing Huang"
"Zhi Zhang"
_chemical_name_systematic
;
catena-[bis(1H-imidazol-3-ium) hexakis(\m~2~-formato)-di-manganese(ii)]
;
_cell_volume   1974.131
_exptl_crystal_colour 'colorless'
_exptl_crystal_density_diffrn 1.743
_exptl_special_details
;
monoclinic polymorph
Undergoes a phase-transition at 435 K

;
_exptl_crystal_description 'block'
_diffrn_ambient_temperature 293
#These two values have been output from a single CSD field.
_refine_ls_R_factor_gt 0.0279
_refine_ls_wR_factor_gt 0.0279
_symmetry_cell_setting monoclinic
_symmetry_space_group_name_H-M 'P 21/n'
_symmetry_Int_Tables_number 14
loop_
_symmetry_equiv_pos_site_id
_symmetry_equiv_pos_as_xyz
1 x,y,z
2 1/2-x,1/2+y,1/2-z
3 -x,-y,-z
4 -1/2+x,-1/2-y,-1/2+z
_cell_length_a 12.332(3)
_cell_length_b 12.461(3)
_cell_length_c 12.850(3)
_cell_angle_alpha 90
_cell_angle_beta 91.31(3)
_cell_angle_gamma 90
_cell_formula_units_Z 4
loop_
_atom_type_symbol
_atom_type_radius_bond
C 0.68
H 0.23
Mn 1.61
N 0.68
O 0.68
loop_
_atom_site_label
_atom_site_type_symbol
_atom_site_fract_x
_atom_site_fract_y
_atom_site_fract_z
Mn1 Mn 0.23949(2) 0.75287(2) 0.00823(2)
Mn2 Mn 0.73998(2) 0.74768(2) 0.00685(2)
C1 C 0.48867(16) 0.78333(19) 0.00373(16)
H1 H 0.49000 0.73080 0.05510
C2 C -0.00834(16) 0.72988(19) 0.04414(18)
H2 H -0.00540 0.79930 0.07060
C3 C 0.24711(17) 0.7810(2) 0.25854(16)
H3 H 0.19940 0.83880 0.25940
C4 C 0.73572(17) 0.72935(19) 0.25561(16)
H4 H 0.78800 0.67550 0.25730
C5 C 0.78179(17) 0.99722(17) -0.02302(18)
H5 H 0.72970 0.99680 -0.07650
C6 C 0.72475(17) 0.49882(17) 0.01305(17)
H6 H 0.78510 0.50060 0.05780
O1 O 0.07757(11) 0.69195(13) 0.01836(13)
O2 O 0.27906(14) 0.75159(15) 0.17279(11)
O3 O 0.39848(11) 0.81763(13) -0.02546(12)
O4 O 0.5776(1) 0.81345(13) -0.03009(11)
O5 O 0.79963(13) 0.91219(13) 0.02088(13)
O6 O 0.68150(12) 0.58561(12) -0.00958(13)
O7 O 0.70120(14) 0.75907(15) 0.17015(11)
O8 O 0.27267(15) 0.74094(15) 0.34257(11)
O9 O -0.09929(11) 0.68830(14) 0.03988(14)
O10 O 0.69399(11) 0.40918(12) -0.01921(12)
O11 O 0.70566(13) 0.76626(14) 0.34045(11)
O12 O 0.82668(11) 1.08493(12) -0.00308(12)
N1 N 0.02918(17) 0.54480(18) 0.30825(16)
H7 H 0.04300 0.58840 0.35870
N2 N -0.04583(16) 0.42174(17) 0.21481(16)
H8 H -0.08930 0.37180 0.19400
C7 C 0.0858(2) 0.5365(2) 0.2205(2)
H9 H 0.14620 0.57690 0.20350
C8 C 0.0397(2) 0.4598(2) 0.16248(19)
H10 H 0.06240 0.43670 0.09770
C9 C -0.0511(2) 0.4751(2) 0.3041(2)
H11 H -0.10260 0.46490 0.35490
N3 N 0.44428(16) 0.5487(2) 0.19223(17)
H12 H 0.39430 0.56950 0.14910
N4 N 0.54806(16) 0.54070(19) 0.32563(16)
H13 H 0.57800 0.55530 0.38510
C10 C 0.5102(2) 0.4642(3) 0.1784(2)
H14 H 0.51040 0.41820 0.12140
C11 C 0.5755(2) 0.4597(2) 0.2629(2)
H15 H 0.62990 0.40950 0.27570
C12 C 0.4679(2) 0.5940(2) 0.2811(2)
H16 H 0.43380 0.65400 0.30830
Mn1B Mn 0.76051(2) 0.24713(2) -0.00823(2)
Mn1B* Mn 0.76051(2) 1.24713(2) -0.00823(2)
Mn1C Mn 0.73949(2) 0.74713(2) 0.50823(2)
Mn2* Mn -0.26002(2) 0.74768(2) 0.00685(2)
Mn2C Mn 0.23998(2) 0.75232(2) 0.50685(2)
O8C O 0.77267(15) 0.75906(15) -0.15743(11)
O9* O 0.90071(11) 0.68830(14) 0.03988(14)
O10B O 0.30601(11) 0.59082(12) 0.01921(12)
O11C O 0.20566(13) 0.73374(14) -0.15955(11)
O12B O 0.17332(11) 0.91507(12) 0.00308(12)
#END
