
#######################################################################
#
#                 Cambridge Crystallographic Data Centre
#                                CCDC
#
#######################################################################
#
# If this CIF has been generated from an entry in the Cambridge
# Structural Database, then it will include bibliographic, chemical,
# crystal, experimental, refinement or atomic coordinate data resulting
# from the CCDC's data processing and validation procedures.
#
#######################################################################

data_CSD_CIF_REZJIR03
_audit_creation_date 2013-10-04
_audit_creation_method CSD-ConQuest-V1
_database_code_CSD REZJIR03
_database_code_depnum_ccdc_archive 'CCDC 959633'
_chemical_formula_sum 'C12 H16 Mn2 N4 O12'
_chemical_formula_moiety
;
(C6 H6 Mn2 O12 2-)n,2(C3 H5 N2 1+)
;
_journal_coden_Cambridge 1500
_journal_volume 3
_journal_year 2013
_journal_page_first 22404
_journal_name_full 'RSC Advances '
loop_
_publ_author_name
"B.Pato-Doldan"
"L.C.Gomez-Aguirre"
"J.M.Bermudez-Garcia"
"M.Sanchez-Andujar"
"A.Fondado"
"J.Mira"
"S.Castro-Garcia"
"M.A.Senaris-Rodriguez"
_chemical_name_systematic
;
catena-[bis(1H-imidazol-3-ium) hexakis(\m~2~-formato)-di-manganese(ii)]
;
_cell_volume   1932.445
_exptl_crystal_colour 'colorless'
_exptl_crystal_density_diffrn 1.743
_exptl_special_details
;
Study temperature given as 100 K and 296 K in the CIF

;
_exptl_crystal_description 'prism'
_diffrn_ambient_temperature 100
#These two values have been output from a single CSD field.
_refine_ls_R_factor_gt 0.0341
_refine_ls_wR_factor_gt 0.0341
_symmetry_cell_setting monoclinic
_symmetry_space_group_name_H-M 'P 21/n'
_symmetry_Int_Tables_number 14
loop_
_symmetry_equiv_pos_site_id
_symmetry_equiv_pos_as_xyz
1 x,y,z
2 1/2-x,1/2+y,1/2-z
3 -x,-y,-z
4 -1/2+x,-1/2-y,-1/2+z
_cell_length_a 12.1962(3)
_cell_length_b 12.3675(3)
_cell_length_c 12.8155(3)
_cell_angle_alpha 90
_cell_angle_beta 91.428(1)
_cell_angle_gamma 90
_cell_formula_units_Z 4
loop_
_atom_type_symbol
_atom_type_radius_bond
C 0.68
H 0.23
Mn 1.61
N 0.68
O 0.68
loop_
_atom_site_label
_atom_site_type_symbol
_atom_site_fract_x
_atom_site_fract_y
_atom_site_fract_z
C1 C 0.24590(19) 0.28245(16) 0.26199(15)
C2 C 0.72439(18) -0.00233(15) 0.01267(15)
C3 C 0.23006(18) 0.27129(16) -0.24181(15)
C4 C 0.78496(18) 0.49548(15) -0.02580(16)
C5 C 0.98699(19) 0.23116(17) 0.04883(16)
C6 C 0.48335(18) 0.28929(16) 0.00525(15)
H1 H 0.489(2) 0.2370(18) 0.0627(19)
H2 H 0.989(2) 0.310(2) 0.071(2)
H3 H 0.189(2) 0.339(2) 0.262(2)
H4 H 0.288(2) 0.330(2) -0.237(2)
H5 H 0.731(3) 0.492(2) -0.090(2)
H6 H 0.788(3) 0.001(2) 0.062(3)
Mn1 Mn 0.23534(3) 0.25497(2) 0.01177(2)
Mn2 Mn 0.73602(3) 0.24709(2) 0.01000(2)
O1 O 0.19909(13) 0.23455(11) -0.15586(11)
O2 O 0.57443(12) 0.31667(11) -0.03031(11)
O3 O 0.89582(12) 0.18502(11) 0.04892(11)
O4 O 1.07455(12) 0.18937(11) 0.02342(11)
O5 O 0.27457(14) 0.24117(12) 0.34712(11)
O6 O 0.83512(12) 0.58315(10) -0.00725(11)
O7 O 0.39312(12) 0.32397(11) -0.02612(11)
O8 O 0.67647(13) 0.08408(11) -0.00927(11)
O9 O 0.19194(14) 0.24098(12) -0.32766(11)
O10 O 0.69313(12) -0.09358(11) -0.02114(11)
O11 O 0.28081(14) 0.25435(11) 0.17541(11)
O12 O 0.79731(14) 0.41199(11) 0.02574(11)
H7 H 0.640(2) -0.0889(19) 0.2826(18)
H8 H 0.427(2) 0.149(2) 0.3050(19)
H9 H 0.513(2) -0.0819(19) 0.1160(19)
H10 H 0.579(2) 0.054(2) 0.384(2)
H11 H 0.398(2) 0.063(2) 0.137(2)
N1 N 0.44745(16) 0.04664(14) 0.18644(13)
N2 N 0.54935(16) 0.04020(14) 0.32534(14)
C7 C 0.5821(2) -0.04245(17) 0.26157(16)
C8 C 0.46793(19) 0.09298(17) 0.27819(16)
C9 C 0.5183(2) -0.03821(17) 0.17452(16)
H12 H 0.062(2) -0.063(2) 0.093(2)
H13 H 0.151(2) 0.081(2) 0.2104(19)
H14 H -0.090(2) -0.125(2) 0.196(2)
H15 H 0.039(2) 0.088(2) 0.359(2)
H16 H -0.105(2) -0.037(2) 0.352(2)
C10 C 0.09183(19) 0.03672(17) 0.21873(16)
N3 N -0.04255(16) -0.08014(14) 0.21105(13)
C11 C 0.04468(19) -0.03999(17) 0.15755(16)
N4 N 0.03154(16) 0.04281(14) 0.30784(13)
C12 C -0.04910(19) -0.02852(17) 0.30144(16)
Mn1* Mn 1.23534(3) 0.25497(2) 0.01177(2)
Mn1B Mn 0.76466(3) -0.25497(2) -0.01177(2)
Mn1B* Mn 0.76466(3) 0.74503(2) -0.01177(2)
Mn2C Mn 0.23602(3) 0.25291(2) -0.49000(2)
Mn2C* Mn 0.23602(3) 0.25291(2) 0.51000(2)
O4* O 0.07455(12) 0.18937(11) 0.02342(11)
O5C O 0.77457(14) 0.25883(12) -0.15288(11)
O6B O 0.16488(12) 0.41685(10) 0.00725(11)
O9C O 0.69194(14) 0.25902(12) 0.17234(11)
O10B O 0.30687(12) 0.09358(11) 0.02114(11)
#END
