
#######################################################################
#
#                 Cambridge Crystallographic Data Centre
#                                CCDC
#
#######################################################################
#
# If this CIF has been generated from an entry in the Cambridge
# Structural Database, then it will include bibliographic, chemical,
# crystal, experimental, refinement or atomic coordinate data resulting
# from the CCDC's data processing and validation procedures.
#
#######################################################################

data_CSD_CIF_REZJIR02
_audit_creation_date 2013-10-04
_audit_creation_method CSD-ConQuest-V1
_database_code_CSD REZJIR02
_database_code_depnum_ccdc_archive 'CCDC 959632'
_chemical_formula_sum 'C12 H16 Mn2 N4 O12'
_chemical_formula_moiety
;
(C6 H6 Mn2 O12 2-)n,2n(C3 H5 N2 1+)
;
_journal_coden_Cambridge 1500
_journal_volume 3
_journal_year 2013
_journal_page_first 22404
_journal_name_full 'RSC Advances '
loop_
_publ_author_name
"B.Pato-Doldan"
"L.C.Gomez-Aguirre"
"J.M.Bermudez-Garcia"
"M.Sanchez-Andujar"
"A.Fondado"
"J.Mira"
"S.Castro-Garcia"
"M.A.Senaris-Rodriguez"
_chemical_name_systematic
;
catena-[bis(1H-imidazol-3-ium) hexakis(\m~2~-formato)-di-manganese(ii)]
;
_cell_volume   1961.186
_diffrn_ambient_temperature 296
#These two values have been output from a single CSD field.
_refine_ls_R_factor_gt 0.0381
_refine_ls_wR_factor_gt 0.0381
_symmetry_cell_setting monoclinic
_symmetry_space_group_name_H-M 'P 21/n'
_symmetry_Int_Tables_number 14
loop_
_symmetry_equiv_pos_site_id
_symmetry_equiv_pos_as_xyz
1 x,y,z
2 1/2-x,1/2+y,1/2-z
3 -x,-y,-z
4 -1/2+x,-1/2-y,-1/2+z
_cell_length_a 12.3034(4)
_cell_length_b 12.4408(4)
_cell_length_c 12.8156(4)
_cell_angle_alpha 90
_cell_angle_beta 91.190(2)
_cell_angle_gamma 90
_cell_formula_units_Z 4
loop_
_atom_type_symbol
_atom_type_radius_bond
C 0.68
H 0.23
Mn 1.61
N 0.68
O 0.68
loop_
_atom_site_label
_atom_site_type_symbol
_atom_site_fract_x
_atom_site_fract_y
_atom_site_fract_z
C1 C 0.7192(3) 0.50276(19) 0.0229(2)
C2 C 0.7748(3) 0.00123(18) -0.0131(2)
C3 C 0.7369(3) 0.2711(3) -0.2447(2)
C4 C 0.7528(3) 0.7808(3) 0.2415(2)
C5 C 1.0105(2) 0.7174(2) -0.0035(2)
C6 C 0.4925(3) 0.2295(3) 0.0432(3)
H1 H 0.790(3) 0.326(3) -0.241(3)
H2 H 0.797(3) 0.833(3) 0.244(3)
H3 H 1.005(3) 0.771(3) -0.062(3)
H4 H 0.496(3) 0.305(4) 0.077(3)
H5 H 0.779(4) 0.504(3) 0.073(4)
H6 H 0.710(4) -0.004(3) -0.059(4)
Mn1 Mn 0.74030(3) 0.25281(2) 0.00780(3)
Mn2 Mn 0.75929(3) 0.75241(2) -0.00653(2)
O1 O 0.57821(16) 0.19195(16) 0.01782(17)
O2 O 0.92170(15) 0.68697(15) 0.02970(15)
O3 O 0.80603(16) 0.09038(13) 0.01845(15)
O4 O 1.10034(16) 0.68317(16) 0.02520(16)
O5 O 0.40137(17) 0.18823(17) 0.03794(19)
O6 O 0.7069(2) 0.23381(17) -0.16005(15)
O7 O 0.81761(17) -0.08555(14) 0.00940(16)
O8 O 0.67444(16) 0.41515(13) 0.00262(16)
O9 O 0.7025(2) 0.24079(18) -0.32979(15)
O10 O 0.7275(2) 0.74059(18) 0.15771(16)
O11 O 0.7211(2) 0.75103(17) 0.32746(15)
O12 O 0.69965(19) 0.58790(14) -0.02024(17)
N1 N 0.5477(2) 0.4590(2) 0.8257(2)
N2 N 0.4440(3) 0.4508(3) 0.6928(2)
C7 C 0.5746(3) 0.5409(3) 0.7628(3)
C8 C 0.5097(4) 0.5362(4) 0.6787(3)
C9 C 0.4686(3) 0.4066(3) 0.7815(3)
H7 H 0.630(3) 0.584(3) 0.776(3)
H8 H 0.584(4) 0.444(4) 0.891(4)
H9 H 0.438(4) 0.352(4) 0.806(4)
H10 H 0.393(5) 0.440(5) 0.644(5)
H11 H 0.495(4) 0.580(4) 0.623(4)
N3 N 0.5465(3) 0.0780(2) 0.7844(2)
N4 N 0.4718(3) -0.0451(2) 0.6918(2)
C10 C 0.4606(3) 0.0395(3) 0.8369(3)
C11 C 0.5520(4) 0.0250(3) 0.6954(3)
C12 C 0.4143(3) -0.0365(3) 0.7786(3)
H12 H 0.354(4) -0.079(3) 0.786(3)
H13 H 0.449(3) 0.065(3) 0.901(3)
H14 H 0.599(4) 0.129(4) 0.803(3)
H15 H 0.464(4) -0.097(4) 0.645(4)
H16 H 0.606(4) 0.036(4) 0.655(3)
Mn1A Mn 0.75970(3) 0.75281(2) 0.49220(3)
Mn1B Mn 1.25970(3) 0.74719(2) -0.00780(3)
Mn2* Mn 0.75929(3) -0.24759(2) -0.00653(2)
Mn2A Mn 0.74071(3) 0.25241(2) -0.49347(2)
Mn2B Mn 0.24071(3) 0.24759(2) 0.00653(2)
O4B O 0.89966(16) 0.31683(16) -0.02520(16)
O5B O 0.59863(17) 0.81177(17) -0.03794(19)
O7* O 0.81761(17) 0.91445(14) 0.00940(16)
O9A O 0.7975(2) 0.74079(18) -0.17021(15)
O11A O 0.7789(2) 0.25103(17) 0.17254(15)
#END
