
#######################################################################
#
#                 Cambridge Crystallographic Data Centre
#                                CCDC
#
#######################################################################
#
# If this CIF has been generated from an entry in the Cambridge
# Structural Database, then it will include bibliographic, chemical,
# crystal, experimental, refinement or atomic coordinate data resulting
# from the CCDC's data processing and validation procedures.
#
#######################################################################

data_CSD_CIF_RIDXIM
_audit_creation_date 2007-08-13
_audit_creation_method CSD-ConQuest-V1
_database_code_CSD RIDXIM
_database_code_depnum_ccdc_archive 'CCDC 648690'
_chemical_formula_sum 'C22 H50 As8 N10 O41 V12 Zn4'
_chemical_formula_moiety
;
(C10 H8 As8 N2 O40 V12 Zn2 4-)n,2n(C6 H20 N4 Zn1 2+),n(H2 O1)
;
_journal_coden_Cambridge 9
_journal_volume 46
_journal_year 2007
_journal_page_first 3217
_journal_name_full 'Inorg.Chem. '
loop_
_publ_author_name
"Yanfei Qi"
"Yangguang Li"
"Chao Qin"
"Enbo Wang"
"Hua Jin"
"Dongrong Xiao"
"Xinglong Wang"
"Song Chang"
_chemical_name_systematic
;
catena-(tetrakis(\m~6~-diarsenato)-octakis(\m~3~-oxo)-(\m~2~-4,4'-bipyridine-N
,N')-dodecaoxo-dodeca-vanadium-di-zinc bis(1,2-diaminopropane-N,N')-zinc 
monohydrate)
;
_cell_volume   7930.298
_exptl_crystal_colour 'brown'
_exptl_crystal_description 'block'
_diffrn_ambient_temperature 293
_refine_special_details
;
The bis(1,2-diaminopropane-N,N')-zinc complex is disordered.

;
#These two values have been output from a single CSD field.
_refine_ls_R_factor_gt 0.0788
_refine_ls_wR_factor_gt 0.0788
_symmetry_cell_setting monoclinic
_symmetry_space_group_name_H-M 'C 2/c'
_symmetry_Int_Tables_number 15
loop_
_symmetry_equiv_pos_site_id
_symmetry_equiv_pos_as_xyz
1 x,y,z
2 1/2+x,1/2+y,z
3 -x,y,1/2-z
4 1/2-x,1/2+y,1/2-z
5 -x,-y,-z
6 -1/2-x,-1/2-y,-z
7 x,-y,-1/2+z
8 -1/2+x,-1/2-y,-1/2+z
_cell_length_a 16.420(3)
_cell_length_b 18.624(4)
_cell_length_c 26.339(5)
_cell_angle_alpha 90
_cell_angle_beta 100.08(3)
_cell_angle_gamma 90
_cell_formula_units_Z 4
loop_
_atom_type_symbol
_atom_type_radius_bond
C 0.68
H 0.23
As 1.21
N 0.68
O 0.68
V 1.21
Zn 1.45
loop_
_atom_site_label
_atom_site_type_symbol
_atom_site_fract_x
_atom_site_fract_y
_atom_site_fract_z
Zn1 Zn 0.50000 -0.97491(11) 0.25000
Zn2 Zn 0.50000 -0.57336(11) 0.25000
Zn3 Zn 0.43503(15) 0.81842(15) 0.45087(9)
V1 V 0.46887(13) -0.76451(12) 0.39607(8)
V2 V 0.64738(13) -0.77413(11) 0.38363(8)
V3 V 0.25793(12) -0.78308(10) 0.20395(8)
V4 V 0.31198(13) -0.77527(11) 0.32019(8)
V5 V 0.52032(13) -0.91013(11) 0.14344(8)
V6 V 0.32252(13) -0.64090(11) 0.21699(8)
As1 As 0.32768(8) -0.94178(7) 0.15662(5)
As2 As 0.30353(8) -0.94045(7) 0.27696(5)
As3 As 0.37535(9) -0.60613(7) 0.34106(5)
As4 As 0.57531(9) -0.60562(7) 0.37870(5)
O1 O 0.7060(6) -0.7748(5) 0.4394(4)
O2 O 0.7530(6) -0.5867(5) 0.2976(4)
O3 O 0.4775(6) -0.9683(5) 0.4026(4)
O4 O 0.2935(5) -0.8474(4) 0.2640(3)
O5 O 0.1601(5) -0.7840(5) 0.1863(4)
O6 O 0.7103(5) -0.9715(4) 0.2883(3)
O7 O 0.4118(5) -0.9474(4) 0.2920(3)
O8 O 0.2343(6) -0.7785(5) 0.3473(4)
O9 O 0.5530(5) -0.8335(4) 0.3866(3)
O10 O 0.2865(5) -0.7149(4) 0.2595(3)
O11 O 0.4003(6) -0.6049(4) 0.2791(3)
O12 O 0.5813(5) -0.6045(5) 0.3131(3)
O13 O 0.5620(5) -0.6995(5) 0.3882(3)
O14 O 0.3879(5) -0.7011(4) 0.3541(3)
O15 O 0.6944(5) -0.7135(4) 0.3361(3)
O16 O 0.5662(5) -0.9417(4) 0.3188(3)
O17 O 0.3976(5) -0.8346(4) 0.3578(3)
O18 O 0.6904(5) -0.8479(4) 0.3400(3)
O19 O 0.4578(7) -0.7636(6) 0.4553(4)
O20 O 0.4700(7) -0.5777(5) 0.3749(4)
O21 O 0.50000 0.221(2) 0.25000
N1 N 0.50000 -0.0822(8) 0.25000
N2 N 0.50000 -0.4687(8) 0.25000
C1 C 0.5649(10) -0.4288(10) 0.2744(8)
H1 H 0.61060 -0.45360 0.29170
C2 C 0.5685(9) -0.3532(7) 0.2755(7)
H2 H 0.61500 -0.32930 0.29270
C3 C 0.50000 -0.3155(10) 0.25000
C4 C 0.50000 -0.2348(9) 0.25000
C5 C 0.5739(10) -0.1944(8) 0.2580(6)
H3 H 0.62500 -0.21740 0.26480
C6 C 0.5697(9) -0.1226(7) 0.2559(6)
H4 H 0.61960 -0.09800 0.25870
N3 N 0.3922(9) 0.8874(7) 0.5038(6)
H5 H 0.35470 0.86460 0.51910
H6 H 0.43450 0.90110 0.52830
N4 N 0.3548(13) 0.8759(12) 0.4008(9)
H7 H 0.38340 0.90010 0.38000
H8 H 0.32080 0.84530 0.38090
C7 C 0.3030(15) 0.9287(13) 0.4242(9)
C8 C 0.3535(17) 0.9517(12) 0.4748(9)
H9 H 0.39350 0.98950 0.47110
C9 C 0.2822(19) 0.978(2) 0.4980(13)
H10 H 0.30210 0.99500 0.53230
H11 H 0.24400 0.93920 0.49930
H12 H 0.25480 1.01620 0.47740
C10? C 0.3053(14) 0.905(4) 0.4786(14)
H13? H 0.27050 0.86290 0.47900
H14? H 0.28360 0.94280 0.49780
C11? C 0.255(5) 0.996(3) 0.407(3)
H15? H 0.25790 1.00560 0.37180
H16? H 0.27790 1.03540 0.42830
H17? H 0.19820 0.98920 0.41070
N5 N 0.4872(11) 0.7451(9) 0.4057(7)
N6 N 0.5472(10) 0.8708(9) 0.4521(6)
H18 H 0.53890 0.91830 0.44750
H19 H 0.58070 0.86370 0.48260
C12 C 0.5839(19) 0.8406(17) 0.4101(13)
H20 H 0.55520 0.86650 0.37980
C13 C 0.570(2) 0.7735(18) 0.3972(17)
H21 H 0.61370 0.74450 0.41700
H22 H 0.57410 0.76800 0.36110
C14 C 0.6702(19) 0.8618(19) 0.4123(14)
H23 H 0.67420 0.91320 0.41260
H24 H 0.69000 0.84320 0.38270
H25 H 0.70310 0.84290 0.44310
N7? N 0.388(1) 0.7183(8) 0.4739(6)
H26? H 0.40850 0.70970 0.50730
H27? H 0.33250 0.72040 0.47020
C15? C 0.4120(15) 0.6605(13) 0.4421(10)
H28? H 0.37040 0.65880 0.41050
C16? C 0.4855(15) 0.6694(13) 0.4278(10)
H29? H 0.49300 0.63400 0.40190
H30? H 0.52960 0.66360 0.45720
C17? C 0.415(3) 0.5886(18) 0.4650(18)
H31? H 0.36240 0.57680 0.47340
H32? H 0.45650 0.58780 0.49580
H33? H 0.42940 0.55420 0.44080
Zn1* Zn 0.50000 0.02509(11) 0.25000
V1B V 0.53113(13) -0.76451(12) 0.10393(8)
V2B V 0.35262(13) -0.77413(11) 0.11637(8)
V3B V 0.74207(12) -0.78308(10) 0.29605(8)
V4B V 0.68802(13) -0.77527(11) 0.17981(8)
V5B V 0.47968(13) -0.91013(11) 0.35656(8)
V6B V 0.67748(13) -0.64090(11) 0.28301(8)
As1B As 0.67232(8) -0.94178(7) 0.34338(5)
As2B As 0.69647(8) -0.94045(7) 0.22304(5)
As3B As 0.62465(9) -0.60613(7) 0.15894(5)
As4B As 0.42469(9) -0.60562(7) 0.12130(5)
O1B O 0.2940(6) -0.7748(5) 0.0606(4)
O2B O 0.2470(6) -0.5867(5) 0.2024(4)
O3B O 0.5225(6) -0.9683(5) 0.0974(4)
O4B O 0.7065(5) -0.8474(4) 0.2360(3)
O5B O 0.8399(5) -0.7840(5) 0.3137(4)
O6B O 0.2897(5) -0.9715(4) 0.2117(3)
O7B O 0.5882(5) -0.9474(4) 0.2080(3)
O8B O 0.7657(6) -0.7785(5) 0.1527(4)
O9B O 0.4470(5) -0.8335(4) 0.1134(3)
O10B O 0.7135(5) -0.7149(4) 0.2405(3)
O11B O 0.5997(6) -0.6049(4) 0.2209(3)
O12B O 0.4187(5) -0.6045(5) 0.1869(3)
O13B O 0.4380(5) -0.6995(5) 0.1118(3)
O14B O 0.6121(5) -0.7011(4) 0.1459(3)
O15B O 0.3056(5) -0.7135(4) 0.1639(3)
O16B O 0.4338(5) -0.9417(4) 0.1812(3)
O17B O 0.6024(5) -0.8346(4) 0.1422(3)
O18B O 0.3096(5) -0.8479(4) 0.1600(3)
O19B O 0.5422(7) -0.7636(6) 0.0447(4)
O20B O 0.5300(7) -0.5777(5) 0.1251(4)
N1* N 0.50000 -1.0822(8) 0.25000
C1B C 0.4351(10) -0.4288(10) 0.2256(8)
H1B H 0.38940 -0.45360 0.20830
C2B C 0.4315(9) -0.3532(7) 0.2245(7)
H2B H 0.38500 -0.32930 0.20730
C5B C 0.4261(10) -0.1944(8) 0.2420(6)
H3B H 0.37500 -0.21740 0.23520
C6B C 0.4303(9) -0.1226(7) 0.2441(6)
H4B H 0.38040 -0.09800 0.24130
#END
