
#######################################################################
#
#                 Cambridge Crystallographic Data Centre
#                                CCDC
#
#######################################################################
#
# If this CIF has been generated from an entry in the Cambridge
# Structural Database, then it will include bibliographic, chemical,
# crystal, experimental, refinement or atomic coordinate data resulting
# from the CCDC's data processing and validation procedures.
#
#######################################################################

data_CSD_CIF_RIDXEI
_audit_creation_date 2007-08-13
_audit_creation_method CSD-ConQuest-V1
_database_code_CSD RIDXEI
_database_code_depnum_ccdc_archive 'CCDC 648688'
_chemical_formula_sum 'C38 H100 As16 N18 O87 V24 Zn7'
_chemical_formula_moiety
;
(C10 H40 N10 Zn2 4+)n,n(C28 H46 As16 N8 O80 V24 Zn5 4-),7n(H2 O1)
;
_journal_coden_Cambridge 9
_journal_volume 46
_journal_year 2007
_journal_page_first 3217
_journal_name_full 'Inorg.Chem. '
loop_
_publ_author_name
"Yanfei Qi"
"Yangguang Li"
"Chao Qin"
"Enbo Wang"
"Hua Jin"
"Dongrong Xiao"
"Xinglong Wang"
"Song Chang"
_chemical_name_systematic
;
catena-(octakis(\m~6~-diarsenato)-bis(\m~3~-hydroxo)-tetradecakis(\m~3~-oxo)-b
is(\m~2~-aqua)-bis(\m~2~-1,2-bis(4-pyridyl)ethane-N,N')-bis(1,2-diaminoethane-
N,N')-docosaoxo-tetracosa-vanadium-penta-zinc 
(\m~2~-1,2-diaminoethane-N,N')-bis(1,2-diaminoethane-N,N')-di-zinc 
heptahydrate)
;
_cell_volume   7167.773
_exptl_crystal_colour 'brown'
_exptl_special_details
;
The deposited CIF contained two fully occupied C atoms labelled Q1 and Q2, we 
have relabelled them as C atoms and have suppressed them
;
_exptl_crystal_description 'block'
_diffrn_ambient_temperature 293
_refine_special_details
;
An uncoordinated water molecule is disordered by symmetry.

;
#These two values have been output from a single CSD field.
_refine_ls_R_factor_gt 0.0475
_refine_ls_wR_factor_gt 0.0475
_symmetry_cell_setting monoclinic
_symmetry_space_group_name_H-M 'P 21/n'
_symmetry_Int_Tables_number 14
loop_
_symmetry_equiv_pos_site_id
_symmetry_equiv_pos_as_xyz
1 x,y,z
2 1/2-x,1/2+y,1/2-z
3 -x,-y,-z
4 -1/2+x,-1/2-y,-1/2+z
_cell_length_a 12.901(3)
_cell_length_b 22.591(5)
_cell_length_c 25.299(5)
_cell_angle_alpha 90
_cell_angle_beta 103.56(3)
_cell_angle_gamma 90
_cell_formula_units_Z 2
loop_
_atom_type_symbol
_atom_type_radius_bond
C 0.68
H 0.23
As 1.21
N 0.68
O 0.68
V 1.22
Zn 1.45
loop_
_atom_site_label
_atom_site_type_symbol
_atom_site_fract_x
_atom_site_fract_y
_atom_site_fract_z
Zn1 Zn -0.43501(9) 0.41813(4) 0.88500(4)
Zn2 Zn 0.00000 0.50000 0.50000
Zn3 Zn -0.49995(7) 0.30150(4) 0.54338(4)
Zn4 Zn 0.02833(7) 0.23174(4) 0.73212(4)
As1 As 0.10201(6) 0.25048(4) 0.60829(3)
As2 As -0.11450(6) 0.10768(3) 0.75113(3)
As3 As 0.08217(6) 0.36785(3) 0.68037(3)
As4 As -0.13595(6) 0.22634(3) 0.82246(3)
As5 As -0.41698(6) 0.44299(3) 0.58503(3)
As6 As -0.53802(6) 0.36506(3) 0.66179(3)
As7 As -0.37954(6) 0.22546(3) 0.45497(3)
As8 As -0.49708(6) 0.14834(3) 0.53343(3)
V1 V -0.22631(10) 0.12546(5) 0.54610(5)
V2 V -0.31984(10) 0.10170(5) 0.64198(5)
V3 V -0.36663(10) 0.17084(5) 0.73536(5)
V4 V -0.35548(9) 0.30174(5) 0.76184(5)
V5 V -0.1552(1) 0.43253(5) 0.63317(5)
V6 V -0.08248(9) 0.36005(5) 0.54761(5)
V7 V -0.11848(10) 0.23175(5) 0.51215(5)
V8 V -0.07806(10) 0.34848(5) 0.76346(5)
V9 V -0.04184(10) 0.13948(5) 0.63746(5)
V10 V -0.30824(10) 0.35836(5) 0.50551(5)
V11 V -0.51992(10) 0.22124(5) 0.64313(5)
V12 V -0.27739(10) 0.41291(5) 0.71874(5)
O1 O -0.2312(15) 0.2752(8) 0.6361(8)
O2 O -0.5191(4) 0.4252(2) 0.6195(2)
O3 O -0.2236(5) 0.0683(3) 0.5087(2)
O4 O -0.0095(5) 0.3827(3) 0.8153(2)
O5 O 0.0421(5) 0.0864(2) 0.6389(3)
O6 O -0.3383(5) 0.3955(3) 0.4508(2)
O7 O -0.6393(4) 0.2041(3) 0.6452(2)
O8 O -0.0528(4) 0.1544(2) 0.7128(2)
O9 O -0.3612(5) 0.0341(2) 0.6416(2)
O10 O -0.2925(5) 0.4699(2) 0.7532(2)
O11 O -0.5089(4) 0.2145(2) 0.5661(2)
O12 O -0.1216(4) 0.5005(2) 0.6315(2)
O13 O -0.3974(4) 0.2861(2) 0.4951(2)
O14 O 0.0396(4) 0.2145(2) 0.6537(2)
O15 O -0.0661(4) 0.2163(2) 0.4623(2)
O16 O -0.4062(4) 0.3169(2) 0.8123(2)
O17 O -0.4144(4) 0.3767(2) 0.5491(2)
O18 O -0.1019(4) 0.1524(2) 0.8109(2)
O19 O -0.0222(4) 0.4006(2) 0.5107(2)
O20 O -0.4204(4) 0.1304(2) 0.7737(2)
O21 O -0.4750(4) 0.1760(2) 0.4710(2)
O22 O -0.4275(4) 0.1516(2) 0.6599(2)
O23 O -0.2621(4) 0.1948(2) 0.4974(2)
O24 O -0.5216(4) 0.3058(2) 0.6209(2)
O25 O -0.1835(4) 0.1042(2) 0.6223(2)
O26 O 0.1472(4) 0.3157(2) 0.6471(2)
O27 O -0.4094(4) 0.3652(2) 0.7077(2)
O28 O -0.0677(4) 0.2623(2) 0.7795(2)
O29 O -0.2495(4) 0.1245(2) 0.7180(2)
O30 O -0.0918(4) 0.1668(2) 0.5636(2)
O31 O -0.0298(4) 0.3853(2) 0.62491(19)
O32 O -0.3634(4) 0.1307(2) 0.5664(2)
O33 O 0.0201(4) 0.3216(2) 0.7182(2)
O34 O -0.4430(4) 0.2442(2) 0.7156(2)
O35 O -0.2677(4) 0.2285(2) 0.7804(2)
O36 O -0.2267(4) 0.3469(2) 0.76722(19)
O37 O -0.3051(4) 0.4313(2) 0.6399(2)
O38 O -0.1853(4) 0.3095(2) 0.50263(19)
O39 O -0.1309(4) 0.4105(2) 0.7093(2)
O40 O -0.2016(4) 0.4034(2) 0.5592(2)
O41 O -0.0122(4) 0.2813(2) 0.5628(2)
N1 N -0.6440(5) 0.3215(3) 0.4952(2)
N2 N -1.3236(5) 0.2871(3) 0.2774(3)
N3 N 0.0737(6) 0.5036(3) 0.5851(3)
H1 H 0.05340 0.53680 0.59960
H2 H 0.05270 0.47240 0.60210
N4 N 0.1588(5) 0.4819(3) 0.4963(3)
H3 H 0.15980 0.45270 0.47220
H4 H 0.18820 0.51430 0.48520
N5 N -0.5821(7) 0.3733(4) 0.8638(4)
H5 H -0.57120 0.33420 0.86930
H6 H -0.62440 0.38580 0.88530
N6 N -0.5013(8) 0.4590(5) 0.8074(4)
H7 H -0.49330 0.49850 0.81030
H8 H -0.46650 0.44610 0.78270
N7 N -0.2752(6) 0.4244(4) 0.8740(3)
H9 H -0.27170 0.40780 0.84210
H10 H -0.25600 0.46260 0.87350
N8 N -0.3592(6) 0.3524(3) 0.9412(3)
H11 H -0.35380 0.36500 0.97550
H12 H -0.39780 0.31880 0.93630
N9 N -0.4507(8) 0.4858(4) 0.9382(4)
H13 H -0.38480 0.49940 0.95300
H14 H -0.48650 0.51540 0.91810
C1 C -0.7319(6) 0.3010(4) 0.5097(3)
H15 H -0.72380 0.27960 0.54180
C2 C -0.8332(6) 0.3108(4) 0.4782(3)
H16 H -0.89180 0.29470 0.48850
C3 C -0.8479(6) 0.3441(4) 0.4317(3)
C4 C -0.7571(6) 0.3646(4) 0.4156(3)
H17 H -0.76370 0.38570 0.38350
C5 C -0.6572(6) 0.3525(4) 0.4489(3)
H18 H -0.59700 0.36650 0.43850
C6 C -0.9597(7) 0.3536(4) 0.3960(3)
H19 H -1.00710 0.36750 0.41790
H20 H -0.95780 0.38300 0.36830
C7 C -0.9990(6) 0.2960(4) 0.3699(4)
H21 H -0.99350 0.26630 0.39810
H22 H -0.95260 0.28390 0.34670
C8 C -1.1117(6) 0.2969(4) 0.3365(3)
C9 C -1.3011(7) 0.3017(5) 0.3296(4)
H23 H -1.35720 0.30870 0.34600
C10 C -1.1979(7) 0.3072(5) 0.3606(4)
H24 H -1.18560 0.31750 0.39720
C11 C -1.2412(7) 0.2802(5) 0.2542(4)
H25 H -1.25560 0.27190 0.21710
C12 C -1.1370(7) 0.2847(5) 0.2819(4)
H26 H -1.08290 0.27940 0.26370
C13 C -0.6342(11) 0.3840(7) 0.8075(7)
H27 H -0.71060 0.37920 0.80250
H28 H -0.60990 0.35510 0.78480
C14 C -0.6110(12) 0.4447(7) 0.7903(6)
H29 H -0.63290 0.44750 0.75100
H30 H -0.65220 0.47320 0.80550
C15 C -0.2042(9) 0.3942(6) 0.9180(5)
H31 H -0.13870 0.38430 0.90740
H32 H -0.18640 0.42010 0.94940
C16 C -0.2522(8) 0.3412(5) 0.9321(5)
H33 H -0.20700 0.32460 0.96480
H34 H -0.25760 0.31250 0.90310
C17 C 0.1900(8) 0.5030(5) 0.5933(4)
H35 H 0.22260 0.48740 0.62900
H36 H 0.21610 0.54290 0.59090
C18 C 0.2195(8) 0.4643(5) 0.5496(4)
H37 H 0.29510 0.46800 0.55140
H38 H 0.20470 0.42310 0.55610
C19 C -0.4993(13) 0.4755(5) 0.9800(6)
H39 H -0.46490 0.44150 1.00020
H40 H -0.57270 0.46440 0.96420
O42 O -0.7869(13) 0.1138(8) 0.5588(5)
O43 O -0.3022(10) 0.0900(5) 0.3906(4)
O44 O -0.6334(9) 0.0523(5) 0.6594(14)
O45 O -0.5804(10) 0.0121(5) 0.7246(6)
O46? O -0.4578(6) 0.0139(3) 0.7325(3)
C20? C -0.0825(12) 0.3358(7) 0.8030(7)
C21? C 0.0254(14) 0.1526(8) 0.6135(7)
Zn1B Zn -0.56499(9) 0.58187(4) 1.11500(4)
Zn3B Zn 0.49995(7) 0.69850(4) 0.45662(4)
Zn3C Zn 1.00005(7) 0.19850(4) 1.04338(4)
Zn4B Zn -0.02833(7) 0.76826(4) 0.26788(4)
Zn4C Zn -1.47167(7) 0.26826(4) 0.23212(4)
As1B As -0.10201(6) 0.74952(4) 0.39171(3)
As2B As 0.11450(6) 0.89232(3) 0.24887(3)
As3B As -0.08217(6) 0.63215(3) 0.31963(3)
As4B As 0.13595(6) 0.77366(3) 0.17754(3)
As5B As 0.41698(6) 0.55701(3) 0.41497(3)
As6B As 0.53802(6) 0.63494(3) 0.33821(3)
As7B As 0.37954(6) 0.77454(3) 0.54503(3)
As8B As 0.49708(6) 0.85166(3) 0.46657(3)
V1B V 0.22631(10) 0.87454(5) 0.45390(5)
V2B V 0.31984(10) 0.89830(5) 0.35802(5)
V3B V 0.36663(10) 0.82916(5) 0.26464(5)
V4B V 0.35548(9) 0.69826(5) 0.23816(5)
V5B V 0.1552(1) 0.56747(5) 0.36683(5)
V6B V 0.08248(9) 0.63995(5) 0.45239(5)
V7B V 0.11848(10) 0.76825(5) 0.48785(5)
V8B V 0.07806(10) 0.65152(5) 0.23654(5)
V9B V 0.04184(10) 0.86052(5) 0.36254(5)
V10B V 0.30824(10) 0.64164(5) 0.49449(5)
V11B V 0.51992(10) 0.77876(5) 0.35687(5)
V12B V 0.27739(10) 0.58709(5) 0.28126(5)
O2B O 0.5191(4) 0.5748(2) 0.3805(2)
O3B O 0.2236(5) 0.9317(3) 0.4913(2)
O4B O 0.0095(5) 0.6173(3) 0.1847(2)
O5B O -0.0421(5) 0.9136(2) 0.3611(3)
O6B O 0.3383(5) 0.6045(3) 0.5492(2)
O7B O 0.6393(4) 0.7959(3) 0.3548(2)
O8B O 0.0528(4) 0.8456(2) 0.2872(2)
O9B O 0.3612(5) 0.9659(2) 0.3584(2)
O10B O 0.2925(5) 0.5301(2) 0.2468(2)
O11B O 0.5089(4) 0.7855(2) 0.4339(2)
O12B O 0.1216(4) 0.4995(2) 0.3685(2)
O13B O 0.3974(4) 0.7139(2) 0.5049(2)
O14B O -0.0396(4) 0.7855(2) 0.3463(2)
O15B O 0.0661(4) 0.7837(2) 0.5377(2)
O16B O 0.4062(4) 0.6831(2) 0.1877(2)
O17B O 0.4144(4) 0.6233(2) 0.4509(2)
O18B O 0.1019(4) 0.8476(2) 0.1891(2)
O19B O 0.0222(4) 0.5994(2) 0.4893(2)
O20B O 0.4204(4) 0.8696(2) 0.2263(2)
O21B O 0.4750(4) 0.8240(2) 0.5290(2)
O22B O 0.4275(4) 0.8484(2) 0.3401(2)
O23B O 0.2621(4) 0.8052(2) 0.5026(2)
O24B O 0.5216(4) 0.6942(2) 0.3791(2)
O25B O 0.1835(4) 0.8958(2) 0.3777(2)
O26B O -0.1472(4) 0.6843(2) 0.3529(2)
O27B O 0.4094(4) 0.6348(2) 0.2923(2)
O28B O 0.0677(4) 0.7377(2) 0.2205(2)
O29B O 0.2495(4) 0.8755(2) 0.2820(2)
O30B O 0.0918(4) 0.8332(2) 0.4364(2)
O31B O 0.0298(4) 0.6147(2) 0.37509(19)
O32B O 0.3634(4) 0.8693(2) 0.4336(2)
O33B O -0.0201(4) 0.6784(2) 0.2818(2)
O34B O 0.4430(4) 0.7558(2) 0.2844(2)
O35B O 0.2677(4) 0.7715(2) 0.2196(2)
O36B O 0.2267(4) 0.6531(2) 0.23278(19)
O37B O 0.3051(4) 0.5687(2) 0.3601(2)
O38B O 0.1853(4) 0.6905(2) 0.49737(19)
O39B O 0.1309(4) 0.5895(2) 0.2907(2)
O40B O 0.2016(4) 0.5966(2) 0.4408(2)
O41B O 0.0122(4) 0.7187(2) 0.4372(2)
N1C N 0.8560(5) 0.1785(3) 0.9952(2)
N1B N 0.6440(5) 0.6785(3) 0.5048(2)
N2C N 0.1764(5) 0.2129(3) 0.7774(3)
N2A N -0.1764(5) 0.7871(3) 0.2226(3)
N3B N -0.0737(6) 0.4964(3) 0.4149(3)
H1B H -0.05340 0.46320 0.40040
H2B H -0.05270 0.52760 0.39790
N4B N -0.1588(5) 0.5181(3) 0.5037(3)
H3B H -0.15980 0.54730 0.52780
H4B H -0.18820 0.48570 0.51480
N5B N -0.4179(7) 0.6267(4) 1.1362(4)
H5B H -0.42880 0.66580 1.13070
H6B H -0.37560 0.61420 1.11470
N6B N -0.4987(8) 0.5410(5) 1.1926(4)
H7B H -0.50670 0.50150 1.18970
H8B H -0.53350 0.55390 1.21730
N7B N -0.7248(6) 0.5756(4) 1.1260(3)
H9B H -0.72830 0.59220 1.15790
H10B H -0.74400 0.53740 1.12650
N8B N -0.6408(6) 0.6476(3) 1.0588(3)
H11B H -0.64620 0.63500 1.02450
H12B H -0.60220 0.68120 1.06370
N9B N -0.5493(8) 0.5142(4) 1.0618(4)
H13B H -0.61520 0.50060 1.04700
H14B H -0.51350 0.48460 1.08190
C1C C 0.7681(6) 0.1990(4) 1.0097(3)
H15C H 0.77620 0.22040 1.04180
C2C C 0.6668(6) 0.1892(4) 0.9782(3)
H16C H 0.60820 0.20530 0.98850
C3C C 0.6521(6) 0.1559(4) 0.9317(3)
C4C C 0.7429(6) 0.1354(4) 0.9156(3)
H17C H 0.73630 0.11430 0.88350
C5C C 0.8428(6) 0.1475(4) 0.9489(3)
H18C H 0.90300 0.13350 0.93850
C6C C 0.5403(7) 0.1464(4) 0.8960(3)
H19C H 0.49290 0.13250 0.91790
H20C H 0.54220 0.11700 0.86830
C7C C 0.5010(6) 0.2040(4) 0.8699(4)
H21C H 0.50650 0.23370 0.89810
H22C H 0.54740 0.21610 0.84670
C8C C 0.3883(6) 0.2031(4) 0.8365(3)
C9C C 0.1989(7) 0.1983(5) 0.8296(4)
H23C H 0.14280 0.19130 0.84600
C10C C 0.3021(7) 0.1928(5) 0.8606(4)
H24C H 0.31440 0.18250 0.89720
C11C C 0.2588(7) 0.2198(5) 0.7542(4)
H25C H 0.24440 0.22810 0.71710
C12C C 0.3630(7) 0.2153(5) 0.7819(4)
H26C H 0.41710 0.22060 0.76370
C13B C -0.3658(11) 0.6160(7) 1.1925(7)
H27B H -0.28940 0.62080 1.19750
H28B H -0.39010 0.64490 1.21520
C14B C -0.3890(12) 0.5553(7) 1.2097(6)
H29B H -0.36710 0.55250 1.24900
H30B H -0.34780 0.52680 1.19450
C15B C -0.7958(9) 0.6058(6) 1.0820(5)
H31B H -0.86130 0.61570 1.09260
H32B H -0.81360 0.57990 1.05060
C16B C -0.7478(8) 0.6588(5) 1.0679(5)
H33B H -0.79300 0.67540 1.03520
H34B H -0.74240 0.68750 1.09690
C17B C -0.1900(8) 0.4970(5) 0.4067(4)
H35B H -0.22260 0.51260 0.37100
H36B H -0.21610 0.45710 0.40910
C18B C -0.2195(8) 0.5357(5) 0.4504(4)
H37B H -0.29510 0.53200 0.44860
H38B H -0.20470 0.57690 0.44390
C19B C -0.5007(13) 0.5245(5) 1.0200(6)
H39B H -0.53510 0.55850 0.99980
H40B H -0.42730 0.53560 1.03580
#END
