
#######################################################################
#
#                 Cambridge Crystallographic Data Centre
#                                CCDC
#
#######################################################################
#
# If this CIF has been generated from an entry in the Cambridge
# Structural Database, then it will include bibliographic, chemical,
# crystal, experimental, refinement or atomic coordinate data resulting
# from the CCDC's data processing and validation procedures.
#
#######################################################################

data_CSD_CIF_RIFQEF
_audit_creation_date 2018-07-05
_audit_creation_method CSD-ConQuest-V1
_database_code_CSD RIFQEF
_database_code_depnum_ccdc_archive 'CCDC 1817478'
_chemical_formula_sum 'C12 H84 As3 Ce4 K6 Li1 N4 O147 W29'
_chemical_formula_moiety
;
(C12 H40 As3 Ce4 N4 O125 W29 7-)n,6(K1 1+),22(H2 O1),Li1 1+
;
_journal_coden_Cambridge 222
_journal_volume 47
_journal_year 2018
_journal_page_first 9677
_journal_name_full 'Dalton Trans. '
loop_
_publ_author_name
"Yanjun Niu"
"Qiaofei Xu"
"Yuan Wang"
"Zhao Li"
"Jingkun Lu"
"Pengtao Ma"
"Chao Zhang"
"Jingyang Niu"
"Jingping Wang"
_chemical_name_systematic
;
catena-[hexa-potassium lithium 
tris(\m-arsenato)-(\m-pyrazine-2,3-dicarboxylic 
acid)-(\m-pyrazine-2,3-dicarboxylato)-hexakis(\m-hydroxo)-henhexacontakis(\m-o
xido)-tetradeca-aqua-heptacosaoxo-tetra-cerium(iii)-nonacosa-tungsten(vi) 
docosahydrate]
;
_cell_volume   8699.606
_exptl_crystal_colour 'colorless'
_exptl_crystal_density_diffrn 3.4
_exptl_special_details
;
The bridging hydroxide H atoms have not been located and have been placed 
arbitrarily in the 2D diagram to balance the charges. We calculate 23% void 
space in the structure.  Lithium has been added as given in the paper
;
_exptl_crystal_description 'block'
_diffrn_ambient_temperature 296.1
#These two values have been output from a single CSD field.
_refine_ls_R_factor_gt 0.0709
_refine_ls_wR_factor_gt 0.0709
_symmetry_cell_setting triclinic
_symmetry_space_group_name_H-M 'P -1'
_symmetry_Int_Tables_number 2
loop_
_symmetry_equiv_pos_site_id
_symmetry_equiv_pos_as_xyz
1 x,y,z
2 -x,-y,-z
_cell_length_a 19.533(2)
_cell_length_b 20.652(2)
_cell_length_c 25.774(3)
_cell_angle_alpha 96.152(2)
_cell_angle_beta 104.376(2)
_cell_angle_gamma 116.764(2)
_cell_formula_units_Z 2
loop_
_atom_type_symbol
_atom_type_radius_bond
C 0.68
H 0.23
As 1.21
Ce 2.04
K 2.03
N 0.68
O 0.68
W 1.62
loop_
_atom_site_label
_atom_site_type_symbol
_atom_site_fract_x
_atom_site_fract_y
_atom_site_fract_z
W1 W 0.85583(7) 0.94760(6) 0.74874(5)
W2 W 0.91041(7) 0.98836(6) 0.88783(5)
W3 W 0.80216(7) 1.05997(6) 0.81517(5)
W4 W 0.75085(8) 0.89372(7) 0.94634(6)
W5 W 0.63662(8) 0.96350(6) 0.87464(6)
W6 W 0.55726(7) 0.77712(6) 0.86665(5)
W7 W 0.58842(7) 0.93225(6) 0.72295(5)
W8 W 0.49359(7) 0.74756(6) 0.71500(5)
W9 W 0.64575(7) 0.81854(6) 0.66225(5)
W10 W 0.57987(7) 0.63315(6) 0.77650(5)
W11 W 0.37872(7) 0.50293(6) 0.79626(5)
W12 W 0.31118(7) 0.32252(7) 0.80919(5)
W13 W 0.31842(7) 0.36101(6) 0.68524(5)
W14 W 0.50699(8) 0.38183(7) 0.91713(5)
W15 W 0.57341(7) 0.55741(6) 0.90130(5)
W16 W 0.68182(7) 0.47017(6) 0.89098(5)
W17 W 0.42981(7) 0.22376(6) 0.79690(5)
W18 W 0.43413(7) 0.26662(6) 0.67361(5)
W19 W 0.61065(7) 0.31186(6) 0.77346(5)
W20 W 0.72425(7) 0.51278(6) 0.76049(5)
W21 W 0.82216(7) 0.45703(6) 0.66950(5)
W22 W 0.86708(8) 0.61565(7) 0.62847(5)
W23 W 1.00540(8) 0.55525(8) 0.65704(6)
W24 W 1.01831(8) 0.79755(7) 0.71988(6)
W25 W 1.15806(8) 0.73938(8) 0.75619(6)
W26 W 1.10986(8) 0.81636(7) 0.85412(6)
W27 W 1.09103(8) 0.56280(8) 0.80382(6)
W28 W 1.05434(9) 0.64590(7) 0.90589(6)
W29 W 0.90551(7) 0.48188(6) 0.81896(5)
Ce1 Ce 0.77938(9) 0.71501(8) 0.72722(6)
Ce2 Ce 0.96319(16) 1.05366(13) 0.63889(11)
Ce3 Ce 0.51898(9) 0.47592(8) 0.63475(6)
Ce4 Ce 0.79294(11) 0.25765(9) 0.82200(8)
As1 As 0.70709(17) 0.84813(14) 0.80303(11)
As2 As 0.51062(16) 0.42482(14) 0.77841(11)
As3 As 0.94575(17) 0.63774(15) 0.76811(12)
O1 O 0.8406(11) 0.8569(10) 0.7496(8)
O2 O 0.9183(11) 0.9828(10) 0.7095(8)
O3 O 0.9403(11) 0.9986(10) 0.8218(8)
O4 O 0.8489(11) 1.047(1) 0.7640(8)
O5 O 0.7525(11) 0.9088(10) 0.6948(7)
O6 O 0.7877(10) 0.9397(10) 0.8092(7)
O7 O 0.8997(11) 0.8999(10) 0.8818(8)
O8 O 1.0052(13) 1.0443(12) 0.9377(9)
O9 O 0.8871(11) 1.0744(10) 0.8751(7)
O10 O 0.8391(11) 0.9714(10) 0.9307(8)
O11 O 0.8221(12) 1.1519(11) 0.8193(8)
O12 O 0.7321(12) 1.0313(11) 0.8602(9)
O13 O 0.6944(11) 1.0084(10) 0.7548(8)
O14 O 0.7744(13) 0.8250(12) 0.9247(9)
O15 O 0.7917(13) 0.9182(12) 1.0185(9)
O16 O 0.7054(12) 0.9671(11) 0.9443(8)
O17 O 0.6404(12) 0.8197(11) 0.9365(9)
O18 O 0.6734(10) 0.8736(9) 0.8551(7)
O19 O 0.6059(13) 1.0230(12) 0.8987(9)
O20 O 0.5521(13) 0.8728(12) 0.8779(9)
O21 O 0.5821(10) 0.9395(9) 0.7968(7)
O22 O 0.4760(12) 0.7228(11) 0.8849(8)
O23 O 0.5884(12) 0.7154(11) 0.8401(8)
O24 O 0.5002(12) 0.7692(11) 0.7903(8)
O25 O 0.5421(13) 0.9830(12) 0.6991(9)
O26 O 0.4874(11) 0.8353(10) 0.7058(7)
O27 O 0.6051(10) 0.8968(9) 0.6603(7)
O28 O 0.6306(10) 0.8468(9) 0.7461(7)
O29 O 0.3908(12) 0.6816(11) 0.6839(8)
O30 O 0.5395(10) 0.6856(9) 0.7317(7)
O31 O 0.5337(11) 0.7518(10) 0.6525(7)
O32 O 0.6384(12) 0.8022(11) 0.5935(8)
O33 O 0.6825(11) 0.7609(10) 0.6909(8)
O34 O 0.6813(11) 0.6855(10) 0.7838(8)
O35 O 0.5459(11) 0.5576(10) 0.7209(7)
O36 O 0.3314(12) 0.5501(11) 0.8125(9)
O37 O 0.4552(11) 0.5711(10) 0.7755(8)
O38 O 0.3150(11) 0.4148(10) 0.8249(8)
O39 O 0.3068(12) 0.4420(11) 0.7238(8)
O40 O 0.4641(11) 0.527(1) 0.8664(7)
O41 O 0.4094(10) 0.4039(9) 0.7720(7)
O42 O 0.2339(13) 0.2686(12) 0.8339(9)
O43 O 0.2549(11) 0.3005(10) 0.7338(7)
O44 O 0.4050(12) 0.3657(11) 0.8810(8)
O45 O 0.3525(12) 0.2565(11) 0.7966(9)
O46 O 0.2329(11) 0.3281(10) 0.6285(8)
O47 O 0.3952(11) 0.4219(10) 0.6634(8)
O48 O 0.3459(12) 0.2822(11) 0.6778(8)
O49 O 0.4954(13) 0.3523(12) 0.9758(9)
O50 O 0.5432(11) 0.4889(10) 0.9470(7)
O51 O 0.6250(11) 0.4205(10) 0.9383(8)
O52 O 0.4865(11) 0.2967(10) 0.8708(8)
O53 O 0.5481(11) 0.4422(10) 0.8521(7)
O54 O 0.6089(12) 0.6425(11) 0.9472(8)
O55 O 0.5937(10) 0.5867(9) 0.8362(7)
O56 O 0.6781(11) 0.5578(10) 0.9196(7)
O57 O 0.7800(12) 0.4960(11) 0.9291(8)
O58 O 0.6997(10) 0.5106(9) 0.8283(7)
O59 O 0.6479(11) 0.3734(10) 0.8477(7)
O60 O 0.3850(13) 0.1406(11) 0.8162(9)
O61 O 0.3924(12) 0.1909(11) 0.7220(8)
O62 O 0.5312(10) 0.2333(9) 0.8025(7)
O63 O 0.4946(10) 0.3311(9) 0.7630(7)
O64 O 0.3886(12) 0.1983(11) 0.6121(8)
O65 O 0.4849(11) 0.3496(10) 0.6547(7)
O66 O 0.5321(11) 0.2563(10) 0.7010(8)
O67 O 0.6731(11) 0.2714(10) 0.7813(8)
O68 O 0.6676(11) 0.3924(10) 0.7519(8)
O69 O 0.6309(12) 0.4913(11) 0.7130(8)
O70 O 0.7743(11) 0.6092(10) 0.7726(7)
O71 O 0.7491(14) 0.3637(13) 0.6365(10)
O72 O 0.7680(11) 0.4911(10) 0.7069(7)
O73 O 0.7991(12) 0.5070(11) 0.6143(8)
O74 O 0.9061(12) 0.4598(11) 0.6443(9)
O75 O 0.8754(12) 0.4498(11) 0.7414(9)
O76 O 0.9267(11) 0.5817(10) 0.7012(8)
O77 O 0.8192(10) 0.6381(10) 0.6701(7)
O78 O 0.8238(13) 0.6256(12) 0.5641(9)
O79 O 0.9461(12) 0.5823(11) 0.6063(9)
O80 O 0.9637(11) 0.7101(10) 0.6594(8)
O81 O 1.0511(13) 0.5250(12) 0.6195(9)
O82 O 1.0913(13) 0.6544(12) 0.6920(9)
O83 O 1.0391(13) 0.5277(12) 0.7262(9)
O84 O 1.0315(14) 0.8692(12) 0.6862(9)
O85 O 0.9270(11) 0.7739(10) 0.7369(8)
O86 O 1.1233(13) 0.7959(12) 0.7144(9)
O87 O 1.0931(12) 0.8605(11) 0.7944(8)
O88 O 1.0369(11) 0.7191(10) 0.7714(7)
O89 O 1.2515(14) 0.7656(13) 0.748(1)
O90 O 1.1924(13) 0.8057(12) 0.8250(9)
O91 O 1.1503(13) 0.6626(12) 0.7967(9)
O92 O 1.1781(13) 0.8964(12) 0.9058(9)
O93 O 1.0155(13) 0.7941(12) 0.8633(9)
O94 O 1.1135(12) 0.7387(11) 0.8908(9)
O95 O 1.1649(14) 0.5384(13) 0.8141(10)
O96 O 1.1185(12) 0.6108(11) 0.8813(8)
O97 O 1.0032(13) 0.4775(12) 0.8151(9)
O98 O 0.9903(11) 0.5927(10) 0.8084(7)
O99 O 1.0970(14) 0.6686(13) 0.9777(10)
O100 O 0.9680(14) 0.6706(12) 0.8994(9)
O101 O 0.9703(11) 0.5426(10) 0.8921(8)
O102 O 0.8594(12) 0.3957(11) 0.8347(9)
O103 O 0.8331(11) 0.5113(10) 0.8109(8)
O104 O 0.8999(19) 1.0585(18) 0.5465(14)
O105 O 0.828(2) 1.0660(19) 0.4665(14)
O106 O 1.0470(16) 1.0547(14) 0.4159(11)
O107 O 1.0033(18) 1.1113(17) 0.4658(13)
O108 O 0.3824(12) 0.4309(11) 0.5449(8)
O109 O 0.4524(12) 0.3734(11) 0.5383(8)
O110 O 0.4239(10) 0.4448(9) 0.4376(7)
O111 O 0.3490(11) 0.3901(10) 0.3497(8)
N1 N 0.805(2) 0.9089(19) 0.4567(14)
N2 N 0.9244(18) 0.9193(16) 0.4099(12)
N3 N 0.2396(12) 0.2724(11) 0.3764(8)
N4 N 0.2682(14) 0.2640(13) 0.4868(10)
C1 C 0.802(2) 0.846(2) 0.4306(16)
H1 H 0.76223 0.79880 0.42927
C2 C 0.861(2) 0.855(2) 0.4057(16)
H2 H 0.85522 0.81175 0.38479
C3 C 0.927(2) 0.979(2) 0.4415(16)
C4 C 0.875(2) 0.978(2) 0.4618(16)
C5 C 0.997(2) 1.052(2) 0.4417(16)
C6 C 0.871(2) 1.038(2) 0.4938(17)
C7 C 0.1927(19) 0.2155(17) 0.3901(13)
H3 H 0.14836 0.17616 0.36192
C8 C 0.203(2) 0.2075(18) 0.4450(14)
H4 H 0.16575 0.16486 0.45238
C9 C 0.3199(16) 0.3215(15) 0.4731(11)
C10 C 0.3057(15) 0.3267(14) 0.4169(11)
C11 C 0.3904(18) 0.3795(16) 0.5217(12)
C12 C 0.3657(16) 0.3928(15) 0.4021(12)
O112 O 0.8619(11) 0.7664(10) 0.8281(8)
O113 O 0.807(2) 0.9613(18) 0.6036(14)
O114 O 0.910(2) 1.1223(18) 0.6929(14)
O115 O 1.0716(18) 1.0160(17) 0.6907(13)
O116 O 1.088(2) 1.156(2) 0.7227(17)
O117 O 1.015(2) 1.1878(19) 0.6233(15)
O118 O 0.6213(11) 0.444(1) 0.6032(8)
O119 O 0.4701(13) 0.5760(12) 0.6231(9)
O120 O 0.7713(15) 0.3279(14) 0.9021(10)
O121 O 0.7884(18) 0.2812(17) 0.7245(13)
O122 O 0.9325(19) 0.3046(18) 0.8066(13)
O123 O 0.9064(19) 0.2970(17) 0.9135(13)
O124 O 0.7123(19) 0.1687(18) 0.8713(14)
O125 O 0.6833(19) 0.1430(18) 0.7448(13)
K1 K 0.4288(5) 0.5601(4) 0.5093(3)
K2 K 0.5632(6) 0.7717(5) 0.4822(4)
K3 K 0.7732(5) 0.6788(5) 0.8836(4)
K4 K 0.7720(6) 0.5946(6) 0.4527(4)
K5 K 1.0653(6) 0.9361(5) 0.9470(4)
K6 K 0.3239(10) 0.6747(9) 0.7873(7)
K7 K 0.3818(11) 0.6094(8) 0.9269(6)
O126 O 0.3711(13) 0.4715(12) 0.9426(9)
O127 O 0.6782(13) 0.4721(12) 0.3593(9)
O128 O 0.4165(16) 0.7039(15) 0.3961(11)
O129 O 0.4444(17) 0.7017(16) 0.5373(12)
O130 O 1.0788(16) 0.9795(15) 0.8467(11)
O131 O 0.4138(19) 0.8477(18) 0.7903(14)
O132 O 0.697(2) 0.915(2) 0.5072(15)
O133 O 0.279(2) 0.5443(18) 0.5035(14)
O134 O 1.134(2) 0.8704(19) 1.0200(14)
O135 O 0.891(2) 0.657(2) 0.9696(18)
O136 O 0.932(3) 0.828(3) 0.972(2)
O137 O 0.9081(15) 0.4634(14) 0.9714(11)
O138 O 0.794(2) 0.5720(19) 1.0392(15)
O139 O 0.182(2) 0.417(2) 0.8403(16)
O140 O 0.824(2) 0.855(2) 1.1029(17)
O141 O 1.057(3) 1.140(2) 0.8179(18)
O142 O 1.078(3) 0.724(3) 0.595(2)
O143 O 1.137(3) 0.883(3) 0.622(2)
O144 O 0.625(3) 0.265(3) 0.923(2)
O145 O 0.970(3) 0.367(3) 0.705(2)
O146 O 0.989(3) 0.217(3) 0.935(2)
O147 O 0.939(3) 0.556(2) 1.0813(18)
Ce1A Ce 0.22062(9) 0.28499(8) 0.27278(6)
Ce2A Ce 1.03681(16) 0.94634(13) 0.36111(11)
Ce3A Ce 0.48102(9) 0.52408(8) 0.36525(6)
Ce4* Ce 0.79294(11) 1.25765(9) 0.82200(8)
O11* O 0.8221(12) 0.1519(11) 0.8193(8)
O106A O 0.9530(16) 0.9453(14) 0.5841(11)
O110A O 0.5761(10) 0.5552(9) 0.5624(7)
O111A O 0.6510(11) 0.6099(10) 0.6503(8)
N2A N 1.0756(18) 1.0807(16) 0.5901(12)
N3A N 0.7604(12) 0.7276(11) 0.6236(8)
#END
