
#######################################################################
#
#                 Cambridge Crystallographic Data Centre
#                                CCDC
#
#######################################################################
#
# If this CIF has been generated from an entry in the Cambridge
# Structural Database, then it will include bibliographic, chemical,
# crystal, experimental, refinement or atomic coordinate data resulting
# from the CCDC's data processing and validation procedures.
#
#######################################################################

data_CSD_CIF_RIFZEO
_audit_creation_date 2018-07-06
_audit_creation_method CSD-ConQuest-V1
_database_code_CSD RIFZEO
_database_code_depnum_ccdc_archive 'CCDC 1573679'
_chemical_formula_sum 'C59 H76 Li2 N8 O33 Zn3'
_chemical_formula_moiety
;
(C39 H24 Li2 N1 O26 Zn3 1-)n,n(C2 H8 N1 1+),6n(C3 H7 N1 O1),n(H2 O1)
;
_journal_coden_Cambridge 82
_journal_volume 59
_journal_year 2018
_journal_page_first 487
_journal_name_full 'Zh.Strukt.Khim.(Russ.)(J.Struct.Chem.) '
loop_
_publ_author_name
"A.A.Sapianik"
"E.E.Semenenko"
"D.G.Samsonenko"
"D.N.Dybtsev"
"V.P.Fedin"
_chemical_name_systematic
;
catena-(dimethylammonium tris(\m-hydrogen 
benzene-1,3,5-tricarboxylato)-(\m-benzene-1,3,5-tricarboxylato)-aqua-dimethylf
ormamide-di-lithium-tri-zinc dimethylformamide solvate monohydrate)
;
_cell_volume  19176.548
_exptl_crystal_colour 'colorless'
_exptl_crystal_density_diffrn 1.133
_exptl_crystal_description 'block'
_diffrn_ambient_temperature 130
_refine_special_details
;
O36 and O36' disordered over two sites with occupancies 0.5:0.5. The solvent 
molecules were taken into account using PLATON/SQUEEZE.
;
#These two values have been output from a single CSD field.
_refine_ls_R_factor_gt 0.0724
_refine_ls_wR_factor_gt 0.0724
_symmetry_cell_setting orthorhombic
_symmetry_space_group_name_H-M 'P b c a'
_symmetry_Int_Tables_number 61
loop_
_symmetry_equiv_pos_site_id
_symmetry_equiv_pos_as_xyz
1 x,y,z
2 1/2-x,-y,1/2+z
3 -x,1/2+y,1/2-z
4 1/2+x,1/2-y,-z
5 -x,-y,-z
6 -1/2+x,y,-1/2-z
7 x,-1/2-y,-1/2+z
8 -1/2-x,-1/2+y,z
_cell_length_a 15.8408(4)
_cell_length_b 25.2295(6)
_cell_length_c 47.9827(12)
_cell_angle_alpha 90
_cell_angle_beta 90
_cell_angle_gamma 90
_cell_formula_units_Z 8
loop_
_atom_type_symbol
_atom_type_radius_bond
C 0.68
H 0.23
Li 1.28
N 0.68
O 0.68
Zn 1.22
loop_
_atom_site_label
_atom_site_type_symbol
_atom_site_fract_x
_atom_site_fract_y
_atom_site_fract_z
Li1 Li 0.5473(6) 0.5923(4) 0.3260(2)
Li2 Li 0.7929(5) 0.6704(3) 0.5588(2)
Zn1 Zn 0.37225(3) 0.64194(2) 0.31922(2)
Zn2 Zn 0.90267(4) 0.55850(2) 0.56114(2)
Zn3 Zn 0.91142(3) 0.78163(2) 0.36820(2)
O1 O 0.4766(2) 0.65775(16) 0.61932(9)
O2 O 0.4366(3) 0.6094(2) 0.65607(10)
H1 H 0.44040 0.63550 0.66690
O3 O 0.5764(3) 0.42885(16) 0.66773(9)
O4 O 0.6842(3) 0.40816(17) 0.64187(11)
O5 O 0.8006(2) 0.53829(14) 0.58081(9)
O6 O 0.7262(2) 0.60762(16) 0.56529(8)
C1 C 0.4796(3) 0.6176(3) 0.63503(13)
C2 C 0.6278(4) 0.4366(3) 0.64999(15)
C3 C 0.7356(3) 0.5682(2) 0.58014(12)
C4 C 0.6679(3) 0.55178(17) 0.60067(11)
C5 C 0.6040(3) 0.58970(18) 0.60682(10)
H2 H 0.60180 0.62270 0.59730
C6 C 0.5449(3) 0.5771(2) 0.62713(11)
C7 C 0.5517(3) 0.5274(2) 0.64071(11)
H3 H 0.51220 0.51820 0.65480
C8 C 0.6140(3) 0.4926(2) 0.63382(12)
C9 C 0.6705(3) 0.50489(18) 0.61364(11)
H4 H 0.71270 0.47980 0.60860
O7 O 0.9291(3) 0.72691(15) 0.39649(10)
O8 O 0.8760(4) 0.76820(17) 0.43291(10)
O9 O 0.8444(3) 0.66797(14) 0.52272(9)
O10 O 0.9000(2) 0.58585(14) 0.52384(9)
O11 O 1.0391(2) 0.50761(15) 0.44726(9)
O12 O 1.0448(3) 0.54639(16) 0.40556(11)
C10 C 0.9071(4) 0.7294(2) 0.42116(16)
C11 C 0.8822(4) 0.6288(2) 0.51242(14)
C12 C 1.0227(4) 0.5448(2) 0.43020(16)
C13 C 0.9789(4) 0.5926(2) 0.44266(14)
C14 C 0.9637(4) 0.6372(2) 0.42694(15)
H5 H 0.98070 0.63820 0.40800
C15 C 0.9232(4) 0.6812(2) 0.43885(14)
C16 C 0.8969(4) 0.6790(2) 0.46604(14)
H6 H 0.86910 0.70870 0.47410
C17 C 0.9106(3) 0.6331(2) 0.48222(13)
C18 C 0.9534(3) 0.5905(2) 0.47051(14)
H7 H 0.96540 0.56000 0.48140
O13 O 0.4267(2) 0.65582(15) 0.28283(7)
O14 O 0.5369(3) 0.60158(18) 0.28628(8)
O15 O 0.7520(2) 0.59741(17) 0.21063(8)
O16 O 0.75716(19) 0.67113(15) 0.18514(7)
O17 O 0.4758(2) 0.74871(17) 0.16169(8)
O18 O 0.4109(7) 0.7794(5) 0.1970(3)
C19 C 0.4939(3) 0.6350(2) 0.27397(11)
C20 C 0.4529(4) 0.7425(3) 0.18628(13)
C21 C 0.7202(3) 0.6397(3) 0.20206(11)
C22 C 0.6322(3) 0.6555(2) 0.21109(9)
C23 C 0.6018(3) 0.6361(2) 0.2361(1)
H8 H 0.63380 0.61130 0.24660
C24 C 0.5234(3) 0.6536(2) 0.24565(10)
C25 C 0.4760(3) 0.6882(2) 0.2299(1)
H9 H 0.42300 0.70020 0.23660
C26 C 0.5059(3) 0.7059(2) 0.20382(10)
C27 C 0.5851(3) 0.6902(2) 0.19479(10)
H10 H 0.60700 0.70290 0.17760
O19 O 0.5520(2) 0.66200(16) 0.34062(11)
O20 O 0.42333(18) 0.69652(13) 0.34326(7)
O21 O 0.3807(2) 0.83730(17) 0.41332(11)
O22 O 0.4798(2) 0.90112(15) 0.41546(10)
O23 O 0.7744(2) 0.84113(16) 0.39500(8)
H11 H 0.77690 0.87180 0.38820
O24 O 0.7909(2) 0.78349(17) 0.36004(9)
C28 C 0.5031(3) 0.6975(2) 0.34762(12)
C29 C 0.4511(4) 0.8546(2) 0.40795(14)
C30 C 0.7455(3) 0.8104(2) 0.37744(12)
C31 C 0.6525(3) 0.8000(2) 0.37676(11)
C32 C 0.6212(3) 0.7561(2) 0.36244(11)
H12 H 0.65880 0.73380 0.35240
C33 C 0.5354(3) 0.7448(2) 0.36281(11)
C34 C 0.4816(3) 0.7777(2) 0.37700(12)
H13 H 0.42270 0.77050 0.37700
C35 C 0.5127(3) 0.8220(2) 0.39154(12)
C36 C 0.5964(3) 0.8327(2) 0.39063(12)
H14 H 0.61710 0.86350 0.39980
O25 O 0.6269(3) 0.5443(2) 0.34001(13)
O26 O 0.7211(4) 0.7279(2) 0.56581(12)
C37 C 0.6764(6) 0.7554(4) 0.5824(2)
H15 H 0.61800 0.74740 0.58390
N1 N 0.7061(4) 0.7935(3) 0.59726(14)
C38 C 0.6538(5) 0.8267(3) 0.61522(17)
H16 H 0.67710 0.82670 0.63410
H17 H 0.59610 0.81260 0.61560
H18 H 0.65300 0.86300 0.60800
C39 C 0.7972(6) 0.8071(5) 0.5949(2)
H19 H 0.82360 0.80510 0.61330
H20 H 0.80300 0.84310 0.58750
H21 H 0.82490 0.78200 0.58220
N2 N 1.1019(4) 0.4938(3) 0.35941(14)
H22 H 1.14510 0.47010 0.35850
H23 H 1.09640 0.50360 0.37760
C40 C 1.1260(5) 0.5413(3) 0.34308(17)
H24 H 1.17860 0.55600 0.35050
H25 H 1.13430 0.53130 0.32350
H26 H 1.08110 0.56790 0.34440
C41 C 1.0283(6) 0.4682(3) 0.3514(2)
H27 H 1.01850 0.43760 0.36350
H28 H 0.98050 0.49280 0.35290
H29 H 1.03370 0.45620 0.33200
O27? O 0.3785(5) 0.7553(4) 0.1970(2)
H30? H 0.34610 0.76530 0.18420
H31? H 0.83650 0.78040 0.42320
H32? H 0.36200 0.77950 0.19020
Li1D Li 0.4527(6) 0.4077(4) 0.6740(2)
Li2C Li 0.2929(5) 0.8296(3) 0.4412(2)
Zn1D Zn 0.62775(3) 0.35806(2) 0.68078(2)
Zn1E Zn 0.87225(3) 0.64194(2) 0.18078(2)
Zn2C Zn 0.40267(4) 0.94150(2) 0.43886(2)
Zn2D Zn 1.09733(4) 0.44150(2) 0.43886(2)
Zn3C Zn 0.41142(3) 0.71837(2) 0.63180(2)
Zn3E Zn 0.41142(3) 0.78163(2) 0.13180(2)
O1C O 0.9766(2) 0.84225(16) 0.38068(9)
O3D O 0.4236(3) 0.57115(16) 0.33227(9)
O4D O 0.3158(3) 0.59184(17) 0.35813(11)
O11D O 0.9609(2) 0.49239(15) 0.55274(9)
O16E O 0.25716(19) 0.67113(15) 0.31486(7)
O17E O 0.9758(2) 0.74871(17) 0.33831(8)
O21C O 0.8807(2) 0.66270(17) 0.58668(11)
O22C O 0.9798(2) 0.59888(15) 0.58454(10)
#END
