
#######################################################################
#
#                 Cambridge Crystallographic Data Centre
#                                CCDC
#
#######################################################################
#
# If this CIF has been generated from an entry in the Cambridge
# Structural Database, then it will include bibliographic, chemical,
# crystal, experimental, refinement or atomic coordinate data resulting
# from the CCDC's data processing and validation procedures.
#
#######################################################################

data_CSD_CIF_RIGBEO
_audit_creation_date 1997-10-20
_audit_creation_method CSD-ConQuest-V1
_database_code_CSD RIGBEO
_database_code_depnum_ccdc_archive 'CCDC 1249746'
_database_code_depnum_ccdc_fiz 'CSD 406618'
_chemical_formula_sum 'C21 H48 Gd1 N13 O15'
_chemical_formula_moiety
;
(C18 H24 Gd1 N4 O12 3-)n,3n(C1 H6 N3 1+),3n(H2 O1)
;
_journal_coden_Cambridge 644
_journal_volume 52
_journal_year 1997
_journal_page_first 805
_journal_name_full 'Z.Naturforsch.,B:Chem.Sci. '
loop_
_publ_author_name
"R.Ruloff"
"T.Gelbrich"
"J.Sieler"
"E.Hoyer"
"L.Beyer"
_chemical_name_systematic
;
catena-(tris(Guanidinium) 
(\m~2~-tris(2-aminoethyl)aminehexa-acetato)-gadolinium(iii) trihydrate)
;
_cell_volume   3506.573
_exptl_crystal_colour 'colorless'
_exptl_crystal_density_diffrn 1.667
_diffrn_ambient_temperature ?
_diffrn_special_details
;
The study was carried out at room temperature,in the range 283-303K

;
#These two values have been output from a single CSD field.
_refine_ls_R_factor_gt 0.034
_refine_ls_wR_factor_gt 0.034
_symmetry_cell_setting monoclinic
_symmetry_space_group_name_H-M 'P 21/c'
_symmetry_Int_Tables_number 14
loop_
_symmetry_equiv_pos_site_id
_symmetry_equiv_pos_as_xyz
1 x,y,z
2 -x,1/2+y,1/2-z
3 -x,-y,-z
4 x,-1/2-y,-1/2+z
_cell_length_a 12.8459(9)
_cell_length_b 15.0445(10)
_cell_length_c 18.1516(13)
_cell_angle_alpha 90
_cell_angle_beta 91.623(1)
_cell_angle_gamma 90
_cell_formula_units_Z 4
loop_
_atom_type_symbol
_atom_type_radius_bond
C 0.68
H 0.23
Gd 1.79
N 0.68
O 0.68
loop_
_atom_site_label
_atom_site_type_symbol
_atom_site_fract_x
_atom_site_fract_y
_atom_site_fract_z
Gd1 Gd 0.19311(2) 0.079572(14) 0.770880(11)
O1 O -0.1213(3) 0.0191(3) 0.8531(2)
O2 O 0.0118(2) 0.0443(2) 0.7816(2)
O3 O 0.2902(3) 0.1886(2) 0.8322(2)
O4 O 0.3370(3) 0.2509(3) 0.9395(2)
O5 O 0.1571(3) 0.0234(2) 0.6532(2)
O6 O 0.1754(4) 0.0245(4) 0.5328(2)
O7 O 0.3680(2) 0.0182(2) 0.7685(2)
O8 O 0.5362(3) 0.0547(3) 0.7746(2)
O9 O 0.1830(2) -0.0882(2) 0.8001(2)
O10 O 0.2043(3) 0.0068(2) 0.8910(2)
O11 O -0.3515(3) 0.1878(3) 0.5969(2)
O12 O -0.3301(3) 0.1659(3) 0.4780(2)
N1 N 0.1058(3) 0.2203(2) 0.7006(2)
N2 N 0.3163(3) 0.1469(3) 0.6736(2)
N3 N 0.0858(3) 0.1783(3) 0.8644(2)
N4 N -0.1529(3) 0.2698(2) 0.6037(2)
C1 C 0.1778(4) 0.2543(4) 0.6438(3)
H1 H 0.1613(4) 0.2233(4) 0.5961(3)
H2 H 0.1640(4) 0.3191(4) 0.6361(3)
C2 C 0.2870(4) 0.2424(4) 0.6618(4)
H3 H 0.3050(4) 0.2768(4) 0.7075(4)
H4 H 0.3288(4) 0.2672(4) 0.6210(4)
C3 C 0.0316(4) 0.2508(3) 0.8230(3)
H5 H 0.0174(4) 0.3006(3) 0.8577(3)
H6 H -0.0370(4) 0.2280(3) 0.8036(3)
C4 C 0.0924(4) 0.2867(3) 0.7592(3)
H7 H 0.0552(4) 0.3396(3) 0.7380(3)
H8 H 0.1625(4) 0.3067(3) 0.7779(3)
C5 C 0.3093(4) 0.0918(5) 0.6071(3)
H9 H 0.3666(4) 0.0468(5) 0.6093(3)
H10 H 0.3204(4) 0.1303(5) 0.5631(3)
C6 C 0.2064(4) 0.0438(4) 0.5968(3)
C7 C 0.1604(4) 0.2148(4) 0.9208(3)
H11 H 0.1580(4) 0.1771(4) 0.9661(3)
H12 H 0.1375(4) 0.2761(4) 0.9344(3)
C8 C 0.2716(4) 0.2192(3) 0.8960(3)
C9 C 0.0075(4) 0.1200(4) 0.8967(3)
H13 H -0.0495(4) 0.1572(4) 0.9170(3)
H14 H 0.0404(4) 0.0856(4) 0.9383(3)
C10 C -0.0385(4) 0.0559(4) 0.8400(3)
C11 C 0.4239(4) 0.1462(4) 0.7039(3)
H15 H 0.4366(4) 0.2015(4) 0.7334(3)
H16 H 0.4736(4) 0.1459(4) 0.6625(3)
C12 C 0.4444(4) 0.0665(3) 0.7521(3)
C13 C 0.1924(3) -0.0722(3) 0.8675(2)
C14 C 0.1907(4) -0.1448(3) 0.9248(2)
H17 H 0.2628(4) -0.1529(3) 0.9459(2)
H18 H 0.1453(4) -0.1255(3) 0.9657(2)
C15 C -0.1799(4) 0.1980(3) 0.5510(3)
H19 H -0.1461(4) 0.1416(3) 0.5684(3)
H20 H -0.1511(4) 0.2131(3) 0.5020(3)
C16 C -0.2963(4) 0.1830(3) 0.5419(3)
C17 C -0.0397(4) 0.2766(3) 0.6150(3)
H21 H -0.0228(4) 0.3340(3) 0.6404(3)
H22 H -0.0061(4) 0.2774(3) 0.5660(3)
C18 C 0.0059(4) 0.1994(3) 0.6612(3)
H23 H -0.0462(4) 0.1813(3) 0.6983(3)
H24 H 0.0170(4) 0.1474(3) 0.6280(3)
C19 C 0.7127(4) 0.2519(4) 0.3119(3)
N5 N 0.7308(4) 0.2794(3) 0.2442(3)
H25 H 0.7793(4) 0.2454(3) 0.2127(3)
H26 H 0.6960(4) 0.3344(3) 0.2247(3)
N6 N 0.7575(4) 0.1803(3) 0.3385(2)
H27 H 0.7454(4) 0.1617(3) 0.3905(2)
H28 H 0.8038(4) 0.1441(3) 0.3069(2)
N7 N 0.6518(4) 0.2992(3) 0.3540(3)
H29 H 0.6400(4) 0.2803(3) 0.4059(3)
H30 H 0.6173(4) 0.3541(3) 0.3340(3)
C20 C 0.2186(4) 0.0201(3) 0.3383(3)
N8 N 0.1164(3) 0.0141(3) 0.3436(2)
H31 H 0.0838(3) 0.0202(3) 0.3927(2)
H32 H 0.0716(3) 0.0033(3) 0.2985(2)
N9 N 0.2780(4) 0.0343(3) 0.3975(2)
H33 H 0.2459(4) 0.0406(3) 0.4468(2)
H34 H 0.3553(4) 0.0389(3) 0.3932(2)
N10 N 0.2604(3) 0.0125(3) 0.2726(2)
H35 H 0.3375(3) 0.0175(3) 0.2677(2)
H36 H 0.2148(3) 0.0017(3) 0.2279(2)
C21 C 0.5023(4) 0.1290(4) 0.0964(3)
N11 N 0.4885(4) 0.1898(3) 0.0445(3)
H37 H 0.4342(4) 0.1808(3) 0.0046(3)
H38 H 0.5323(4) 0.2447(3) 0.0451(3)
N12 N 0.5740(3) 0.1415(3) 0.1492(3)
H39 H 0.5846(3) 0.0958(3) 0.1887(3)
H40 H 0.6176(3) 0.1966(3) 0.1495(3)
N13 N 0.4452(4) 0.0564(4) 0.0964(3)
H41 H 0.3907(4) 0.0467(4) 0.0567(3)
H42 H 0.4563(4) 0.0109(4) 0.1359(3)
O13 O 0.2432(4) 0.0470(3) 0.0367(2)
H43 H 0.2714(66) 0.0065(37) 0.0085(40)
H44 H 0.2066(63) 0.0200(46) 0.0703(36)
O14 O 0.4849(6) 0.0937(8) 0.4364(8)
H45 H 0.49380 0.12470 0.39040
H46 H 0.51170 0.03740 0.43540
H47 H 0.0176(64) -0.1045(57) 0.4952(34)
H48 H 0.0411(53) -0.0428(59) 0.5529(50)
O15 O -0.0064(8) -0.0800(8) 0.5355(6)
C14A C -0.1907(4) 0.3552(3) 0.5752(2)
C13A C -0.1924(3) 0.4278(3) 0.6325(2)
H17A H -0.2628(4) 0.3471(3) 0.5541(2)
H18A H -0.1453(4) 0.3745(3) 0.5343(2)
#END
