
#######################################################################
#
#                 Cambridge Crystallographic Data Centre
#                                CCDC
#
#######################################################################
#
# If this CIF has been generated from an entry in the Cambridge
# Structural Database, then it will include bibliographic, chemical,
# crystal, experimental, refinement or atomic coordinate data resulting
# from the CCDC's data processing and validation procedures.
#
#######################################################################

data_CSD_CIF_RIGYOV
_audit_creation_date 1997-11-11
_audit_creation_method CSD-ConQuest-V1
_database_code_CSD RIGYOV
_chemical_formula_sum 'C46 H44 Cl4 Fe1 Mn2 N11 O4'
_chemical_formula_moiety
;
(C38 H24 Cl4 Fe1 Mn2 N10 O4 1-)n,n(C8 H20 N1 1+)
;
_journal_coden_Cambridge 9
_journal_volume 36
_journal_year 1997
_journal_page_first 670
_journal_name_full 'Inorg.Chem. '
loop_
_publ_author_name
"H.Miyasaka"
"M.Matsumoto"
"N.Re"
"E.Gallo"
"C.Floriani"
_chemical_name_systematic
;
catena-(Tetraethylammonium 
bis((N,N'-bis(5-chlorosalicylidene)ethylenediamine)-manganese(iii))-tetrakis(\
m~2~-cyano)-dicyano-iron(iii))
;
_cell_volume   2515.494
_exptl_crystal_colour 'brown'
_exptl_crystal_density_diffrn 1.482
_exptl_special_details
;
Isostructural with the potassium salt

;
_diffrn_ambient_temperature ?
_diffrn_special_details
;
The study was carried out at room temperature,in the range 283-303K

;
_refine_special_details
;
Tetraethylammonium is disordered.

;
#These two values have been output from a single CSD field.
_refine_ls_R_factor_gt 0.052
_refine_ls_wR_factor_gt 0.052
_symmetry_cell_setting monoclinic
_symmetry_space_group_name_H-M 'P 21/c'
_symmetry_Int_Tables_number 14
loop_
_symmetry_equiv_pos_site_id
_symmetry_equiv_pos_as_xyz
1 x,y,z
2 -x,1/2+y,1/2-z
3 -x,-y,-z
4 x,-1/2-y,-1/2+z
_cell_length_a 13.104(3)
_cell_length_b 12.861(3)
_cell_length_c 15.526(2)
_cell_angle_alpha 90
_cell_angle_beta 105.98(1)
_cell_angle_gamma 90
_cell_formula_units_Z 2
loop_
_atom_type_symbol
_atom_type_radius_bond
C 0.71
Cl 0.99
Fe 1.34
Mn 1.35
N 0.68
O 0.68
loop_
_atom_site_label
_atom_site_type_symbol
_atom_site_fract_x
_atom_site_fract_y
_atom_site_fract_z
Fe1 Fe 0.50000 0.00000 0.50000
Cl1 Cl 0.9049(2) -0.0988(2) -0.0251(2)
Cl2 Cl -0.0030(2) -0.3097(3) 0.2876(2)
O1 O 0.5515(4) -0.0841(4) 0.1395(3)
O2 O 0.3608(4) -0.1387(4) 0.1834(4)
N1 N 0.6433(5) -0.2584(5) 0.2336(4)
N2 N 0.4716(5) -0.3130(5) 0.2687(5)
N3 N 0.5485(6) -0.1050(5) 0.3379(4)
N4 N 0.5442(6) 0.2116(5) 0.4224(4)
N5 N 0.7325(6) -0.0343(7) 0.6120(6)
N6 N 0.00000 0.00000 0.50000
C1 C 0.6316(6) -0.0892(6) 0.1034(5)
C2 C 0.6431(6) -0.0131(6) 0.0421(5)
C3 C 0.7257(7) -0.0139(7) 0.0036(5)
C4 C 0.8006(6) -0.0930(7) 0.0245(5)
C5 C 0.7940(6) -0.1687(6) 0.0839(5)
C6 C 0.7106(6) -0.1667(6) 0.1251(5)
C7 C 0.7135(6) -0.2447(7) 0.1914(5)
C8 C 0.6559(8) -0.3373(8) 0.3034(7)
C9 C 0.5596(8) -0.3885(8) 0.2954(8)
C10 C 0.3833(7) -0.3367(7) 0.2834(6)
C11 C 0.2889(7) -0.2737(7) 0.2569(6)
C12 C 0.2006(8) -0.3136(8) 0.2809(6)
C13 C 0.1063(8) -0.2590(9) 0.2581(7)
C14 C 0.0992(7) -0.1649(8) 0.2127(6)
C15 C 0.1855(7) -0.1260(7) 0.1889(6)
C16 C 0.2815(7) -0.1793(6) 0.2091(5)
C17 C 0.5324(6) -0.0673(6) 0.3984(5)
C18 C 0.5320(7) 0.1343(6) 0.4550(5)
C19 C 0.6492(7) -0.0197(7) 0.5712(6)
C20 C 0.090(2) 0.079(2) 0.508(2)
C21 C 0.151(1) 0.080(1) 0.612(1)
C22 C 0.050(3) -0.001(3) 0.604(2)
C23 C -0.080(2) 0.044(3) 0.541(2)
C24 C -0.134(1) 0.149(1) 0.498(1)
C25 C -0.045(2) 0.107(3) 0.465(2)
Mn1 Mn 0.5014(1) -0.18990(9) 0.20339(8)
N4A N 0.4558(6) -0.2884(5) 0.0776(4)
N3C N 0.5485(6) -0.3950(5) 0.8379(4)
Mn1C Mn 0.5014(1) -0.31010(9) 0.70339(8)
O1C O 0.5515(4) -0.4159(4) 0.6395(3)
C1C C 0.6316(6) -0.4108(6) 0.6034(5)
C2C C 0.6431(6) -0.4869(6) 0.5421(5)
C3C C 0.7257(7) -0.4861(7) 0.5036(5)
C4C C 0.8006(6) -0.4070(7) 0.5245(5)
Cl1C Cl 0.9049(2) -0.4012(2) 0.4749(2)
C5C C 0.7940(6) -0.3313(6) 0.5839(5)
C6C C 0.7106(6) -0.3333(6) 0.6251(5)
C7C C 0.7135(6) -0.2553(7) 0.6914(5)
N1C N 0.6433(5) -0.2416(5) 0.7336(4)
C8C C 0.6559(8) -0.1627(8) 0.8034(7)
C9C C 0.5596(8) -0.1115(8) 0.7954(8)
N2C N 0.4716(5) -0.1870(5) 0.7687(5)
C10C C 0.3833(7) -0.1633(7) 0.7834(6)
C11C C 0.2889(7) -0.2263(7) 0.7569(6)
C12C C 0.2006(8) -0.1864(8) 0.7809(6)
C13C C 0.1063(8) -0.2410(9) 0.7581(7)
Cl2C Cl -0.0030(2) -0.1903(3) 0.7876(2)
C14C C 0.0992(7) -0.3351(8) 0.7127(6)
C15C C 0.1855(7) -0.3740(7) 0.6889(6)
C16C C 0.2815(7) -0.3207(6) 0.7091(5)
O2C O 0.3608(4) -0.3613(4) 0.6834(4)
N4B N 0.4558(6) -0.2116(5) 0.5776(4)
C18B C 0.4680(7) -0.1343(6) 0.5450(5)
C17B C 0.4676(6) 0.0673(6) 0.6016(5)
N3B N 0.4515(6) 0.1050(5) 0.6621(4)
Mn1B Mn 0.4986(1) 0.18990(9) 0.79661(8)
C19B C 0.3508(7) 0.0197(7) 0.4288(6)
N5B N 0.2675(6) 0.0343(7) 0.3880(6)
Mn1A Mn 0.4986(1) 0.31010(9) 0.29661(8)
C20B C -0.090(2) -0.079(2) 0.492(2)
C21B C -0.151(1) -0.080(1) 0.388(1)
C22B C -0.050(3) 0.001(3) 0.396(2)
C25B C 0.045(2) -0.107(3) 0.535(2)
C23B C 0.080(2) -0.044(3) 0.459(2)
C24B C 0.134(1) -0.149(1) 0.502(1)
#END
