
#######################################################################
#
#                 Cambridge Crystallographic Data Centre
#                                CCDC
#
#######################################################################
#
# If this CIF has been generated from an entry in the Cambridge
# Structural Database, then it will include bibliographic, chemical,
# crystal, experimental, refinement or atomic coordinate data resulting
# from the CCDC's data processing and validation procedures.
#
#######################################################################

data_CSD_CIF_RIHXIR
_audit_creation_date 2013-07-17
_audit_creation_method CSD-ConQuest-V1
_database_code_CSD RIHXIR
_database_code_depnum_ccdc_archive 'CCDC 895623'
_chemical_formula_sum 'C24 H44 Ca3 Gd2 O40'
_chemical_formula_moiety
;
(C12 H12 Ca1 Gd1 O15 1-)2n,n(H12 Ca1 O6 2+),4n(H2 O1)
;
_journal_coden_Cambridge 737
_journal_volume 27
_journal_year 2012
_journal_page_first 232
_journal_name_full 'Powder Diffr. '
loop_
_publ_author_name
"L.Suescun"
"Jun Wang"
"R.Faccio"
"G.Peinado"
"J.Torres"
"C.Kremer"
"R.A.Burrow"
_chemical_name_systematic
;
catena-(Hexa-aqua-calcium(ii) 
bis(tris(\m~3~-2,2'-oxydiacetato)-calcium-gadolinium) tetrahydrate)
;
_cell_volume  18811.333
_exptl_crystal_colour 'colorless'
_exptl_crystal_density_diffrn 1.988
_exptl_crystal_description 'Block'
_diffrn_ambient_temperature 296
#These two values have been output from a single CSD field.
_refine_ls_R_factor_gt 0.0545
_refine_ls_wR_factor_gt 0.0545
_symmetry_cell_setting cubic
_symmetry_space_group_name_H-M 'F d -3 c'
_symmetry_Int_Tables_number 228
loop_
_symmetry_equiv_pos_site_id
_symmetry_equiv_pos_as_xyz
1 x,y,z
2 x,1/4-y,1/4-z
3 1/4-x,3/4-y,1/2+z
4 1/4-x,1/2+y,3/4-z
5 1/2-y,1/4+x,1/4+z
6 1/4+y,1/4+x,1/2-z
7 3/4+y,1/2-x,3/4+z
8 -y,1/2-x,-z
9 y,z,x
10 1/4-y,3/4-z,1/2+x
11 y,1/4-z,1/4-x
12 1/4-y,1/2+z,3/4-x
13 1/2-z,1/4+y,1/4+x
14 1/2-z,-y,-x
15 3/4+z,1/2-y,3/4+x
16 3/4+z,3/4+y,1/2-x
17 z,x,y
18 3/4-z,1/2+x,1/4-y
19 1/4-z,1/4-x,y
20 1/2+z,3/4-x,1/4-y
21 1/2-x,-z,-y
22 1/2-x,3/4+z,3/4+y
23 1/4+x,1/2-z,1/4+y
24 3/4+x,3/4+z,1/2-y
25 x,1/2+y,1/2+z
26 x,3/4-y,3/4-z
27 1/4-x,1/4-y,z
28 1/4-x,y,1/4-z
29 1/2-y,3/4+x,3/4+z
30 1/4+y,3/4+x,-z
31 3/4+y,-x,1/4+z
32 -y,-x,1/2-z
33 y,1/2+z,1/2+x
34 1/4-y,1/4-z,x
35 y,3/4-z,3/4-x
36 1/4-y,z,1/4-x
37 1/2-z,3/4+y,3/4+x
38 1/2-z,1/2-y,1/2-x
39 3/4+z,-y,1/4+x
40 3/4+z,1/4+y,-x
41 z,1/2+x,1/2+y
42 3/4-z,x,3/4-y
43 1/4-z,3/4-x,1/2+y
44 1/2+z,1/4-x,3/4-y
45 1/2-x,1/2-z,1/2-y
46 1/2-x,1/4+z,1/4+y
47 1/4+x,-z,3/4+y
48 3/4+x,1/4+z,-y
49 1/2+x,y,1/2+z
50 1/2+x,1/4-y,3/4-z
51 3/4-x,3/4-y,z
52 3/4-x,1/2+y,1/4-z
53 -y,1/4+x,3/4+z
54 3/4+y,1/4+x,-z
55 1/4+y,1/2-x,1/4+z
56 1/2-y,1/2-x,1/2-z
57 1/2+y,z,1/2+x
58 3/4-y,3/4-z,x
59 1/2+y,1/4-z,3/4-x
60 3/4-y,1/2+z,1/4-x
61 -z,1/4+y,3/4+x
62 -z,-y,1/2-x
63 1/4+z,1/2-y,1/4+x
64 1/4+z,3/4+y,-x
65 1/2+z,x,1/2+y
66 1/4-z,1/2+x,3/4-y
67 3/4-z,1/4-x,1/2+y
68 z,3/4-x,3/4-y
69 -x,-z,1/2-y
70 -x,3/4+z,1/4+y
71 3/4+x,1/2-z,3/4+y
72 1/4+x,3/4+z,-y
73 1/2+x,1/2+y,z
74 1/2+x,3/4-y,1/4-z
75 3/4-x,1/4-y,1/2+z
76 3/4-x,y,3/4-z
77 -y,3/4+x,1/4+z
78 3/4+y,3/4+x,1/2-z
79 1/4+y,-x,3/4+z
80 1/2-y,-x,-z
81 1/2+y,1/2+z,x
82 3/4-y,1/4-z,1/2+x
83 1/2+y,3/4-z,1/4-x
84 3/4-y,z,3/4-x
85 -z,3/4+y,1/4+x
86 -z,1/2-y,-x
87 1/4+z,-y,3/4+x
88 1/4+z,1/4+y,1/2-x
89 1/2+z,1/2+x,y
90 1/4-z,x,1/4-y
91 3/4-z,3/4-x,y
92 z,1/4-x,1/4-y
93 -x,1/2-z,-y
94 -x,1/4+z,3/4+y
95 3/4+x,-z,1/4+y
96 1/4+x,1/4+z,1/2-y
97 -x,-y,-z
98 -x,-1/4+y,-1/4+z
99 -1/4+x,-3/4+y,-1/2-z
100 -1/4+x,-1/2-y,-3/4+z
101 -1/2+y,-1/4-x,-1/4-z
102 -1/4-y,-1/4-x,-1/2+z
103 -3/4-y,-1/2+x,-3/4-z
104 y,-1/2+x,z
105 -y,-z,-x
106 -1/4+y,-3/4+z,-1/2-x
107 -y,-1/4+z,-1/4+x
108 -1/4+y,-1/2-z,-3/4+x
109 -1/2+z,-1/4-y,-1/4-x
110 -1/2+z,y,x
111 -3/4-z,-1/2+y,-3/4-x
112 -3/4-z,-3/4-y,-1/2+x
113 -z,-x,-y
114 -3/4+z,-1/2-x,-1/4+y
115 -1/4+z,-1/4+x,-y
116 -1/2-z,-3/4+x,-1/4+y
117 -1/2+x,z,y
118 -1/2+x,-3/4-z,-3/4-y
119 -1/4-x,-1/2+z,-1/4-y
120 -3/4-x,-3/4-z,-1/2+y
121 -x,-1/2-y,-1/2-z
122 -x,-3/4+y,-3/4+z
123 -1/4+x,-1/4+y,-z
124 -1/4+x,-y,-1/4+z
125 -1/2+y,-3/4-x,-3/4-z
126 -1/4-y,-3/4-x,z
127 -3/4-y,x,-1/4-z
128 y,x,-1/2+z
129 -y,-1/2-z,-1/2-x
130 -1/4+y,-1/4+z,-x
131 -y,-3/4+z,-3/4+x
132 -1/4+y,-z,-1/4+x
133 -1/2+z,-3/4-y,-3/4-x
134 -1/2+z,-1/2+y,-1/2+x
135 -3/4-z,y,-1/4-x
136 -3/4-z,-1/4-y,x
137 -z,-1/2-x,-1/2-y
138 -3/4+z,-x,-3/4+y
139 -1/4+z,-3/4+x,-1/2-y
140 -1/2-z,-1/4+x,-3/4+y
141 -1/2+x,-1/2+z,-1/2+y
142 -1/2+x,-1/4-z,-1/4-y
143 -1/4-x,z,-3/4-y
144 -3/4-x,-1/4-z,y
145 -1/2-x,-y,-1/2-z
146 -1/2-x,-1/4+y,-3/4+z
147 -3/4+x,-3/4+y,-z
148 -3/4+x,-1/2-y,-1/4+z
149 y,-1/4-x,-3/4-z
150 -3/4-y,-1/4-x,z
151 -1/4-y,-1/2+x,-1/4-z
152 -1/2+y,-1/2+x,-1/2+z
153 -1/2-y,-z,-1/2-x
154 -3/4+y,-3/4+z,-x
155 -1/2-y,-1/4+z,-3/4+x
156 -3/4+y,-1/2-z,-1/4+x
157 z,-1/4-y,-3/4-x
158 z,y,-1/2+x
159 -1/4-z,-1/2+y,-1/4-x
160 -1/4-z,-3/4-y,x
161 -1/2-z,-x,-1/2-y
162 -1/4+z,-1/2-x,-3/4+y
163 -3/4+z,-1/4+x,-1/2-y
164 -z,-3/4+x,-3/4+y
165 x,z,-1/2+y
166 x,-3/4-z,-1/4-y
167 -3/4-x,-1/2+z,-3/4-y
168 -1/4-x,-3/4-z,y
169 -1/2-x,-1/2-y,-z
170 -1/2-x,-3/4+y,-1/4+z
171 -3/4+x,-1/4+y,-1/2-z
172 -3/4+x,-y,-3/4+z
173 y,-3/4-x,-1/4-z
174 -3/4-y,-3/4-x,-1/2+z
175 -1/4-y,x,-3/4-z
176 -1/2+y,x,z
177 -1/2-y,-1/2-z,-x
178 -3/4+y,-1/4+z,-1/2-x
179 -1/2-y,-3/4+z,-1/4+x
180 -3/4+y,-z,-3/4+x
181 z,-3/4-y,-1/4-x
182 z,-1/2+y,x
183 -1/4-z,y,-3/4-x
184 -1/4-z,-1/4-y,-1/2+x
185 -1/2-z,-1/2-x,-y
186 -1/4+z,-x,-1/4+y
187 -3/4+z,-3/4+x,-y
188 -z,-1/4+x,-1/4+y
189 x,-1/2+z,y
190 x,-1/4-z,-3/4-y
191 -3/4-x,z,-1/4-y
192 -1/4-x,-1/4-z,-1/2+y
_cell_length_a 26.5954(7)
_cell_length_b 26.5954(7)
_cell_length_c 26.5954(7)
_cell_angle_alpha 90
_cell_angle_beta 90
_cell_angle_gamma 90
_cell_formula_units_Z 16
loop_
_atom_type_symbol
_atom_type_radius_bond
C 0.68
H 0.23
Ca 1.76
Gd 1.96
O 0.68
loop_
_atom_site_label
_atom_site_type_symbol
_atom_site_fract_x
_atom_site_fract_y
_atom_site_fract_z
Gd1 Gd 0.25000 0.50000 0.50000
O1 O 0.1655(3) 0.4918(3) 0.5291(3)
C1 C 0.1274(4) 0.4917(4) 0.5012(4)
O2 O 0.0839(3) 0.4853(3) 0.5194(3)
C2 C 0.1334(5) 0.4967(6) 0.4464(4)
H1 H 0.11870 0.46790 0.42970
H2 H 0.11620 0.52670 0.43480
O3 O 0.1847(3) 0.50000 0.4347(3)
Ca1 Ca 0.00000 0.50000 0.50000
Ca2 Ca 0.12500 0.62500 0.62500
O4 O 0.0375(5) 0.62500 0.62500
O5 O 0.12500 0.62500 0.4257(10)
O1LA O 0.2791(3) 0.5082(3) 0.4155(3)
C1LA C 0.2512(4) 0.5083(4) 0.3774(4)
O2LA O 0.2694(3) 0.5147(3) 0.3339(3)
C2LA C 0.1964(5) 0.5033(6) 0.3834(4)
H1LA H 0.17970 0.53210 0.36870
H2LA H 0.18480 0.47330 0.36620
O1T O 0.3345(3) 0.4709(3) 0.5082(3)
C1T C 0.3726(4) 0.4988(4) 0.5083(4)
O2T O 0.4161(3) 0.4806(3) 0.5147(3)
C2T C 0.3666(5) 0.5536(6) 0.5033(4)
H1T H 0.38130 0.57030 0.53210
H2T H 0.38380 0.56520 0.47330
O3T O 0.3153(3) 0.56530 0.5000(3)
O1LC O 0.2209(3) 0.5845(3) 0.4918(3)
C1LC C 0.2488(4) 0.6226(4) 0.4917(4)
O2LC O 0.2306(3) 0.6661(3) 0.4853(3)
C2LC C 0.3036(5) 0.6166(6) 0.4967(4)
H1LC H 0.32030 0.63130 0.46790
H2LC H 0.31520 0.63380 0.52670
O1AB O 0.2418(3) 0.4155(3) 0.4709(3)
C1AB C 0.2417(4) 0.3774(4) 0.4988(4)
O2AB O 0.2353(3) 0.3339(3) 0.4806(3)
C2AB C 0.2467(5) 0.3834(6) 0.5536(4)
H1AB H 0.21790 0.36870 0.57030
H2AB H 0.27670 0.36620 0.56520
O3AB O 0.2500(3) 0.43470 0.5653(3)
O1EC O 0.2582(3) 0.5291(3) 0.5845(3)
C1EC C 0.2583(4) 0.5012(4) 0.6226(4)
O2EC O 0.2647(3) 0.5194(3) 0.6661(3)
C2EC C 0.2533(5) 0.4464(6) 0.6166(4)
H1EC H 0.28210 0.42970 0.63130
H2EC H 0.22330 0.43480 0.63380
O2DB O -0.0147(3) 0.5194(3) 0.5839(3)
O2JC O 0.0194(3) 0.5839(3) 0.4853(3)
O2RC O -0.0839(3) 0.5147(3) 0.4806(3)
O2VE O 0.0147(3) 0.4806(3) 0.4161(3)
O2BG O -0.0194(3) 0.4161(3) 0.5147(3)
Ca1F Ca 0.25000 0.50000 0.25000
Ca1G Ca 0.50000 0.50000 0.50000
Ca1O Ca 0.25000 0.25000 0.50000
Ca1Q Ca 0.25000 0.50000 0.75000
Ca1Z Ca 0.25000 0.75000 0.50000
O4Q O 0.1250(5) 0.53750 0.62500
O4S O 0.1250(5) 0.71250 0.62500
O4Z O 0.2125(5) 0.62500 0.62500
O4DB O 0.1250(5) 0.62500 0.53750
O4FB O 0.1250(5) 0.62500 0.71250
#END
