
#######################################################################
#
#                 Cambridge Crystallographic Data Centre
#                                CCDC
#
#######################################################################
#
# If this CIF has been generated from an entry in the Cambridge
# Structural Database, then it will include bibliographic, chemical,
# crystal, experimental, refinement or atomic coordinate data resulting
# from the CCDC's data processing and validation procedures.
#
#######################################################################

data_CSD_CIF_RIJYIV
_audit_creation_date 2018-07-07
_audit_creation_method CSD-ConQuest-V1
_database_code_CSD RIJYIV
_database_code_depnum_ccdc_archive 'CCDC 1845552'
_chemical_formula_sum 'C24 H16 Cd1 N2 O8'
_chemical_formula_moiety
;
C14 H14 N2 2+,(C10 H2 Cd1 O8 2-)n
;
_journal_coeditor_code "sk3694"
_journal_coden_Cambridge 1777
_journal_volume 74
_journal_year 2018
_journal_page_first 889
_journal_name_full 'Acta Crystallogr.,Sect.C:Cryst.Struct.Chem. '
loop_
_publ_author_name
"Q.-K.Zhou"
"L.Wang"
"D.Liu"
_chemical_name_systematic
;
catena-[4,4'-buta-1,3-diene-1,4-diyldipyridinium 
(\m-benzene-1,2,4,5-tetracarboxylato)-cadmium(ii)]
;
_cell_volume   2030.508
_exptl_crystal_colour 'yellow'
_exptl_crystal_density_diffrn 1.874
_exptl_crystal_description 'block'
_diffrn_ambient_temperature 223
#These two values have been output from a single CSD field.
_refine_ls_R_factor_gt 0.0184
_refine_ls_wR_factor_gt 0.0184
_symmetry_cell_setting monoclinic
_symmetry_space_group_name_H-M 'C 2/c'
_symmetry_Int_Tables_number 15
loop_
_symmetry_equiv_pos_site_id
_symmetry_equiv_pos_as_xyz
1 x,y,z
2 -x,y,1/2-z
3 1/2+x,1/2+y,z
4 1/2-x,1/2+y,1/2-z
5 -x,-y,-z
6 x,-y,-1/2+z
7 -1/2-x,-1/2-y,-z
8 -1/2+x,-1/2-y,-1/2+z
_cell_length_a 10.392(2)
_cell_length_b 12.459(3)
_cell_length_c 15.726(3)
_cell_angle_alpha 90
_cell_angle_beta 94.25(3)
_cell_angle_gamma 90
_cell_formula_units_Z 4
loop_
_atom_type_symbol
_atom_type_radius_bond
C 0.68
H 0.23
Cd 1.44
N 0.68
O 0.68
loop_
_atom_site_label
_atom_site_type_symbol
_atom_site_fract_x
_atom_site_fract_y
_atom_site_fract_z
Cd1 Cd 0.50000 0.49448(2) 0.75000
O1 O 0.90691(13) 0.87312(12) 0.82656(8)
O2 O 0.71262(15) 0.81903(13) 0.77233(8)
O3 O 0.69232(12) 0.57138(11) 0.81480(8)
O4 O 0.50545(13) 0.62278(14) 0.85667(9)
C1 C 0.66919(14) 0.66518(12) 1.01167(9)
H1 H 0.61340 0.60720 1.01940
C2 C 0.69112(14) 0.69659(12) 0.92904(9)
C3 C 0.77305(14) 0.78339(12) 0.91679(9)
C4 C 0.79915(16) 0.82832(12) 0.8302(1)
C5 C 0.62575(15) 0.62775(12) 0.86007(9)
N1 N 0.69212(15) 0.86219(12) 0.60852(9)
H2 H 0.706(3) 0.852(2) 0.6605(18)
C6 C 0.56910(17) 0.86382(14) 0.57607(10)
H3 H 0.50200 0.85620 0.61250
C7 C 0.54034(16) 0.87658(14) 0.48974(10)
H4 H 0.45380 0.87790 0.46750
C8 C 0.64010(16) 0.88766(13) 0.43484(10)
C9 C 0.76708(16) 0.88676(14) 0.47214(10)
H5 H 0.83670 0.89500 0.43780
C10 C 0.79015(16) 0.87386(14) 0.55896(11)
H6 H 0.87540 0.87330 0.58350
C11 C 0.62006(17) 0.89565(15) 0.34199(10)
H7 H 0.69420 0.89950 0.31130
C12 C 0.50556(17) 0.89795(15) 0.29653(10)
H8 H 0.42980 0.89960 0.32570
O1F O 0.59309(13) 0.62688(12) 1.17344(8)
O2F O 0.78738(15) 0.68097(13) 1.22767(8)
O3F O 0.80768(12) 0.92862(11) 1.18520(8)
O4F O 0.99455(13) 0.87722(14) 1.14333(9)
C1F C 0.83081(14) 0.83482(12) 0.98833(9)
H1F H 0.88660 0.89280 0.98060
C2F C 0.80888(14) 0.80341(12) 1.07096(9)
C3F C 0.72695(14) 0.71661(12) 1.08321(9)
C4F C 0.70085(16) 0.67168(12) 1.1698(1)
C5F C 0.87425(15) 0.87225(12) 1.13993(9)
Cd1B Cd 1.00000 0.99448(2) 0.75000
Cd1D Cd 0.50000 0.50552(2) 1.25000
Cd1F Cd 1.00000 1.00552(2) 1.25000
O1B O 0.40691(13) 0.37312(12) 0.82656(8)
O1C O 0.59309(13) 0.37312(12) 0.67344(8)
O3A O 0.30768(12) 0.57138(11) 0.68520(8)
O4A O 0.49455(13) 0.62278(14) 0.64333(9)
N1A N 0.30788(15) 0.86219(12) -0.10852(9)
H2A H 0.294(3) 0.852(2) -0.1605(18)
C6A C 0.43090(17) 0.86382(14) -0.07607(10)
H3A H 0.49800 0.85620 -0.11250
C7A C 0.45966(16) 0.87658(14) 0.01026(10)
H4A H 0.54620 0.87790 0.03250
C8A C 0.35990(16) 0.88766(13) 0.06516(10)
C9A C 0.23292(16) 0.88676(14) 0.02786(10)
H5A H 0.16330 0.89500 0.06220
C10A C 0.20985(16) 0.87386(14) -0.05896(11)
H6A H 0.12460 0.87330 -0.08350
C11A C 0.37994(17) 0.89565(15) 0.15801(10)
H7A H 0.30580 0.89950 0.18870
C12A C 0.49444(17) 0.89795(15) 0.20347(10)
H8A H 0.57020 0.89960 0.17430
#END
