
#######################################################################
#
#                 Cambridge Crystallographic Data Centre
#                                CCDC
#
#######################################################################
#
# If this CIF has been generated from an entry in the Cambridge
# Structural Database, then it will include bibliographic, chemical,
# crystal, experimental, refinement or atomic coordinate data resulting
# from the CCDC's data processing and validation procedures.
#
#######################################################################

data_CSD_CIF_RINPEJ
_audit_creation_date 2001-11-22
_audit_creation_method CSD-ConQuest-V1
_database_code_CSD RINPEJ
_database_code_depnum_ccdc_archive 'CCDC 166257'
_chemical_formula_sum 'C60 H56 Cd2 N12 O16'
_chemical_formula_moiety
;
(H4 N1 1+)2n,2n(C2 H8 N1 1+),n(C56 H32 Cd2 N8 O16 4-)
;
_journal_coden_Cambridge 186
_journal_year 2001
_journal_page_first 2453
_journal_name_full 'J.Chem.Soc.,Dalton Trans. '
loop_
_publ_author_name
"Zhen-Feng Chen"
"Ren-Gen Xiong"
"B.F.Abrahams"
"Xiao-Zeng You"
"Chi-Ming Che"
_chemical_name_systematic
;
catena-[Diammonium bis(dimethylammonium) 
tetrakis(3,3'-azodibenzoato)-di-cadmium(ii)]
;
_cell_volume   7030.170
_exptl_crystal_density_diffrn 1.347
_diffrn_ambient_temperature 293
#These two values have been output from a single CSD field.
_refine_ls_R_factor_gt 0.0709
_refine_ls_wR_factor_gt 0.0709
_symmetry_cell_setting orthorhombic
_symmetry_space_group_name_H-M 'C 2 2 21'
_symmetry_Int_Tables_number 20
loop_
_symmetry_equiv_pos_site_id
_symmetry_equiv_pos_as_xyz
1 x,y,z
2 -x,-y,1/2+z
3 -x,y,1/2-z
4 x,-y,-z
5 1/2+x,1/2+y,z
6 1/2-x,1/2-y,1/2+z
7 1/2-x,1/2+y,1/2-z
8 1/2+x,1/2-y,-z
_cell_length_a 13.1187(10)
_cell_length_b 23.3448(16)
_cell_length_c 22.9554(17)
_cell_angle_alpha 90
_cell_angle_beta 90
_cell_angle_gamma 90
_cell_formula_units_Z 4
loop_
_atom_type_symbol
_atom_type_radius_bond
C 0.68
H 0.23
Cd 1.69
N 0.68
O 0.68
loop_
_atom_site_label
_atom_site_type_symbol
_atom_site_fract_x
_atom_site_fract_y
_atom_site_fract_z
Cd1 Cd 0.48966(5) 0.17018(3) 0.06478(3)
O1 O 0.4925(6) 0.1812(3) -0.0375(2)
N1 N 0.4526(6) 0.2238(4) -0.2535(6)
O2 O 0.3431(6) 0.2027(3) 0.0009(3)
C1 C 0.4025(9) 0.1989(5) -0.0430(5)
C2 C 0.3637(8) 0.2095(5) -0.1021(5)
C3 C 0.2620(9) 0.2218(5) -0.1128(5)
H1 H 0.21750 0.22410 -0.08140
C4 C 0.9963(11) 0.1009(5) 0.1411(6)
H2 H 1.06260 0.09100 0.15130
C5 C 0.4263(8) 0.2106(5) -0.1491(5)
H3 H 0.49540 0.20300 -0.14430
C6 C 0.2911(9) 0.2316(5) -0.2131(5)
H4 H 0.26770 0.23840 -0.25080
N2 N 0.1470(8) -0.0835(4) 0.2562(6)
C7 C 0.9281(10) 0.1135(5) 0.1826(7)
O3 O 0.4374(7) 0.0722(3) 0.0548(4)
O4 O 0.3678(7) 0.1178(4) 0.1245(4)
C8 C 0.3893(8) 0.2228(5) -0.2039(4)
C9 C 0.6900(11) 0.1387(6) 0.0970(8)
O5 O 0.6253(8) 0.1420(4) 0.1331(5)
N3 N 0.1778(9) -0.0349(5) 0.2441(7)
C10 C 0.3791(11) 0.0742(6) 0.0995(6)
C11 C 0.2241(9) 0.2308(5) -0.1678(6)
H5 H 0.15460 0.23610 -0.17400
O6 O 0.6666(7) 0.1456(4) 0.0457(5)
C12 C 0.2713(10) 0.0172(5) 0.1689(6)
H6 H 0.27100 0.04710 0.19550
C13 C 0.7960(11) 0.1258(6) 0.1126(7)
C14 C 0.2221(11) -0.0330(5) 0.1838(6)
C15 C 0.2154(12) -0.0796(6) 0.1474(7)
H7 H 0.18360 -0.11330 0.15920
C16 C 0.3215(12) 0.0253(6) 0.1157(7)
C17 C 0.8262(9) 0.1242(5) 0.1684(6)
H8 H 0.77880 0.13020 0.19790
C18 C 0.3168(12) -0.0223(7) 0.0773(8)
H9 H 0.35130 -0.02090 0.04190
C19 C 0.8658(10) 0.1136(6) 0.0689(8)
H10 H 0.84460 0.11280 0.03030
C20 C 0.1047(10) -0.0885(6) 0.3123(7)
C21 C 0.0883(15) -0.0449(6) 0.3501(8)
H11 H 0.10740 -0.00770 0.34040
C22 C 0.2578(13) -0.0743(7) 0.0925(7)
H12 H 0.24930 -0.10330 0.06520
C23 C 0.9680(13) 0.1025(6) 0.0828(7)
H13 H 1.01590 0.09630 0.05360
N4 N 0.9525(6) 0.1155(4) 0.2431(7)
C24 C 0.0768(9) -0.1434(5) 0.3311(5)
H14 H 0.08740 -0.17400 0.30590
C25 C 0.0361(10) -0.1539(6) 0.3827(6)
C26 C 0.0164(10) -0.2159(7) 0.3989(7)
C27 C 0.0175(13) -0.1099(7) 0.4191(6)
H15 H -0.01280 -0.11690 0.45500
C28 C 0.0423(16) -0.0564(7) 0.4041(8)
H16 H 0.02890 -0.02650 0.42960
O7 O -0.0320(7) -0.2207(4) 0.4471(5)
O8 O 0.0472(8) -0.2545(4) 0.3734(5)
N5 N 0.1828(7) 0.2530(5) 0.0513(4)
H17 H 0.23190 0.24290 0.02590
H18 H 0.12930 0.26590 0.03060
C29 C 0.1526(12) 0.2043(6) 0.0825(8)
H19 H 0.12650 0.17610 0.05590
H20 H 0.10040 0.21450 0.10990
H21 H 0.21010 0.18880 0.10300
N6 N 0.50000 0.1531(13) 0.25000
N7 N 0.50000 0.041(2) 0.25000
C30 C 0.2192(11) 0.2974(7) 0.0864(6)
H22 H 0.23540 0.32990 0.06250
H23 H 0.27920 0.28480 0.10660
H24 H 0.16780 0.30790 0.11420
N1B N 0.5474(6) 0.2238(4) -0.2465(6)
C8B C 0.6107(8) 0.2228(5) -0.2961(4)
C5B C 0.5737(8) 0.2106(5) -0.3509(5)
C2B C 0.6363(8) 0.2095(5) -0.3979(5)
C1B C 0.5975(9) 0.1989(5) -0.4570(5)
O1B O 0.5075(6) 0.1812(3) -0.4625(2)
O2B O 0.6569(6) 0.2027(3) -0.5009(3)
C3B C 0.7380(9) 0.2218(5) -0.3872(5)
H1B H 0.78250 0.22410 -0.41860
C11B C 0.7759(9) 0.2308(5) -0.3322(6)
C6B C 0.7089(9) 0.2316(5) -0.2869(5)
H4B H 0.73230 0.23840 -0.24920
H5B H 0.84540 0.23610 -0.32600
H3B H 0.50460 0.20300 -0.35570
N4B N 1.0475(6) 0.1155(4) 0.2569(7)
C7B C 1.0719(10) 0.1135(5) 0.3174(7)
C4B C 1.0037(11) 0.1009(5) 0.3589(6)
H2B H 0.93740 0.09100 0.34870
C23B C 1.0320(13) 0.1025(6) 0.4172(7)
C19B C 1.1342(10) 0.1136(6) 0.4311(8)
C13B C 1.2040(11) 0.1258(6) 0.3874(7)
C9B C 1.3100(11) 0.1387(6) 0.4030(8)
O5B O 1.3747(8) 0.1420(4) 0.3669(5)
O6B O 1.3334(7) 0.1456(4) 0.4543(5)
C17B C 1.1738(9) 0.1242(5) 0.3316(6)
H8B H 1.22120 0.13020 0.30210
H10B H 1.15540 0.11280 0.46970
H13B H 0.98410 0.09630 0.44640
N2F N 0.3530(8) 0.4165(4) 0.2438(6)
O3F O 0.0626(7) 0.5722(3) 0.4452(4)
O4F O 0.1322(7) 0.6178(4) 0.3755(4)
N3F N 0.3222(9) 0.4651(5) 0.2559(7)
C10F C 0.1209(11) 0.5742(6) 0.4005(6)
C12F C 0.2287(10) 0.5172(5) 0.3311(6)
H6F H 0.22900 0.54710 0.30450
C14F C 0.2779(11) 0.4670(5) 0.3162(6)
C15F C 0.2846(12) 0.4204(6) 0.3526(7)
H7F H 0.31640 0.38670 0.34080
C16F C 0.1785(12) 0.5253(6) 0.3843(7)
C18F C 0.1832(12) 0.4777(7) 0.4227(8)
H9F H 0.14870 0.47910 0.45810
C20F C 0.3953(10) 0.4115(6) 0.1877(7)
C21F C 0.4117(15) 0.4551(6) 0.1499(8)
H11F H 0.39260 0.49230 0.15960
C22F C 0.2422(13) 0.4257(7) 0.4075(7)
H12F H 0.25070 0.39670 0.43480
C24F C 0.4232(9) 0.3566(5) 0.1689(5)
H14F H 0.41260 0.32600 0.19410
C25F C 0.4639(10) 0.3461(6) 0.1173(6)
C26F C 0.4836(10) 0.2841(7) 0.1011(7)
C27F C 0.4825(13) 0.3901(7) 0.0809(6)
H15F H 0.51280 0.38310 0.04500
C28F C 0.4577(16) 0.4436(7) 0.0959(8)
H16F H 0.47110 0.47350 0.07040
O7F O 0.5320(7) 0.2793(4) 0.0529(5)
O8F O 0.4528(8) 0.2455(4) 0.1266(5)
Cd1B Cd 0.51034(5) 0.17018(3) -0.56478(3)
Cd1F Cd 0.01034(5) -0.32982(3) 0.43522(3)
Cd1B* Cd 1.51034(5) 0.17018(3) 0.43522(3)
Cd1F* Cd 0.01034(5) 0.67018(3) 0.43522(3)
O3B O 0.5626(7) 0.0722(3) -0.5548(4)
O4B O 0.6322(7) 0.1178(4) -0.6245(4)
O5B* O 0.3747(8) 0.1420(4) -0.6331(5)
O6B* O 0.3334(7) 0.1456(4) -0.5457(5)
O7D O 0.4680(7) 0.2793(4) -0.5529(5)
O8D O 0.5472(8) 0.2455(4) -0.6266(5)
#END
