
#######################################################################
#
#                 Cambridge Crystallographic Data Centre
#                                CCDC
#
#######################################################################
#
# If this CIF has been generated from an entry in the Cambridge
# Structural Database, then it will include bibliographic, chemical,
# crystal, experimental, refinement or atomic coordinate data resulting
# from the CCDC's data processing and validation procedures.
#
#######################################################################

data_CSD_CIF_RINTUF
_audit_creation_date 2013-12-02
_audit_creation_method CSD-ConQuest-V1
_database_code_CSD RINTUF
_database_code_depnum_ccdc_archive 'CCDC 955234'
_chemical_formula_sum 'C92 H62 Dy6 N4 O40'
_chemical_formula_moiety
;
(C80 H40 Dy6 O40 2-)n,2n(C6 H11 N2 1+)
;
_journal_coden_Cambridge 1350
_journal_volume 16
_journal_year 2014
_journal_page_first 486
_journal_name_full 'CrystEngComm '
loop_
_publ_author_name
"Qing-Yan Liu"
"Yi-Lei Li"
"Yu-Ling Wang"
"Cai-Ming Liu"
"Li-Wen Ding"
"Ying Liu"
_chemical_name_systematic
;
catena-(bis(1-ethyl-3-methylimidazolium) 
decakis(\m-benzene-1,4-dicarboxylato)-hexa-dysprosium)
;
_cell_volume   4840.788
_exptl_crystal_colour 'colorless'
_exptl_crystal_density_diffrn 1.947
_exptl_crystal_description 'prism'
_diffrn_ambient_temperature 296
#These two values have been output from a single CSD field.
_refine_ls_R_factor_gt 0.0256
_refine_ls_wR_factor_gt 0.0256
_symmetry_cell_setting monoclinic
_symmetry_space_group_name_H-M 'P 21/c'
_symmetry_Int_Tables_number 14
loop_
_symmetry_equiv_pos_site_id
_symmetry_equiv_pos_as_xyz
1 x,y,z
2 -x,1/2+y,1/2-z
3 -x,-y,-z
4 x,-1/2-y,-1/2+z
_cell_length_a 12.3512(7)
_cell_length_b 20.7502(12)
_cell_length_c 18.8896(11)
_cell_angle_alpha 90
_cell_angle_beta 90.759(1)
_cell_angle_gamma 90
_cell_formula_units_Z 2
loop_
_atom_type_symbol
_atom_type_radius_bond
C 0.68
H 0.23
Dy 1.92
N 0.68
O 0.68
loop_
_atom_site_label
_atom_site_type_symbol
_atom_site_fract_x
_atom_site_fract_y
_atom_site_fract_z
Dy1 Dy 0.283382(12) 0.610081(7) 0.279723(8)
Dy2 Dy 0.576134(12) 0.615105(7) 0.236698(8)
Dy3 Dy 0.936143(12) 0.576347(7) 0.214354(9)
O1 O 0.6706(2) 0.62036(13) 0.13266(14)
O2 O 0.8255(2) 0.56973(18) 0.11911(17)
O3 O 0.4702(2) 0.48233(12) -0.17609(15)
O4 O 0.5967(2) 0.40809(12) -0.17389(13)
O5 O 1.0027(3) 0.57285(19) 0.32448(18)
O6 O 1.1725(3) 0.55231(16) 0.35667(17)
O7 O 1.0652(2) 0.50534(13) 0.19077(19)
O8 O 1.2370(2) 0.51530(12) 0.22454(15)
O9 O 1.1186(2) 0.17511(14) 0.2512(2)
O10 O 1.2911(2) 0.18418(12) 0.22485(15)
O11 O 0.5298(2) 0.72287(12) 0.18543(15)
O12 O 0.42094(19) 0.69049(11) 0.26912(13)
O13 O 0.2977(3) 1.03688(12) 0.22844(18)
O14 O 0.1537(3) 0.98269(16) 0.2587(2)
O15 O 0.44335(19) 0.55848(11) 0.31899(13)
O16 O 0.5765(2) 0.61585(14) 0.36437(14)
O17 O 0.3202(2) 0.64657(14) 0.40219(15)
O18 O 0.1862(2) 0.69079(13) 0.34192(14)
O19 O 0.0343(3) 0.86424(17) 0.63735(19)
O20 O 0.1857(3) 0.83926(15) 0.69388(15)
C1 C 0.6918(3) 0.55430(19) 0.0310(2)
C2 C 0.7450(3) 0.5019(2) 0.0017(2)
H1 H 0.80920 0.48710 0.02220
C3 C 0.7027(3) 0.4718(2) -0.0575(2)
H2 H 0.73700 0.43570 -0.07590
C4 C 0.6094(3) 0.49519(17) -0.08986(19)
C5 C 0.5582(3) 0.54884(19) -0.0622(2)
H3 H 0.49640 0.56520 -0.08440
C6 C 0.5988(3) 0.57801(19) -0.0016(2)
H4 H 0.56370 0.61360 0.01730
C7 C 0.7323(3) 0.58358(19) 0.0989(2)
C8 C 0.5573(3) 0.46099(17) -0.15067(19)
C9 C 0.9283(4) 0.5073(3) 0.4445(2)
H5 H 0.87970 0.51240 0.40690
C10 C 1.0353(3) 0.5247(2) 0.4364(2)
C11 C 1.1071(3) 0.5175(3) 0.4922(2)
H6 H 1.17920 0.52940 0.48720
C12 C 1.0734(4) 0.5511(2) 0.3674(2)
C13 C 1.1667(3) 0.41059(17) 0.2105(2)
C14 C 1.0752(3) 0.37184(19) 0.2072(3)
H7 H 1.00740 0.39040 0.20000
C15 C 1.0845(3) 0.30536(19) 0.2145(3)
H8 H 1.02300 0.27950 0.21400
C16 C 1.1864(3) 0.27820(17) 0.2227(2)
C17 C 1.2776(3) 0.31693(18) 0.2239(3)
H9 H 1.34580 0.29830 0.22850
C18 C 1.2679(3) 0.38308(18) 0.2183(3)
H10 H 1.32930 0.40900 0.21970
C19 C 1.1559(3) 0.48245(16) 0.2080(2)
C20 C 1.1997(3) 0.20740(17) 0.2337(2)
C21 C 0.4053(3) 0.80038(17) 0.2308(2)
C22 C 0.4467(3) 0.85141(19) 0.1937(3)
H11 H 0.50690 0.84540 0.16540
C23 C 0.3992(3) 0.91206(18) 0.1979(3)
H12 H 0.42940 0.94650 0.17370
C24 C 0.3085(3) 0.92147(17) 0.2373(2)
C25 C 0.2664(4) 0.8700(2) 0.2739(3)
H13 H 0.20440 0.87570 0.30050
C26 C 0.3147(4) 0.8103(2) 0.2716(3)
H14 H 0.28620 0.77640 0.29760
C27 C 0.4543(3) 0.73436(16) 0.22708(19)
C28 C 0.2511(3) 0.98501(18) 0.2419(3)
C29 C 0.4175(3) 0.4932(2) 0.4505(2)
H15 H 0.36170 0.48870 0.41730
C30 C 0.5014(3) 0.53571(18) 0.43777(19)
C31 C 0.5838(3) 0.5424(2) 0.4881(2)
H16 H 0.64010 0.57120 0.48020
C32 C 0.5067(3) 0.57320(18) 0.37106(19)
C33 C 0.2118(3) 0.7243(2) 0.4616(2)
C34 C 0.1428(4) 0.7762(2) 0.4539(2)
H17 H 0.11520 0.78670 0.40930
C35 C 0.1144(4) 0.8126(2) 0.5120(2)
H18 H 0.06670 0.84700 0.50660
C36 C 0.1567(3) 0.7981(2) 0.5781(2)
C37 C 0.2269(4) 0.7467(3) 0.5859(2)
H19 H 0.25570 0.73670 0.63030
C38 C 0.2542(4) 0.7101(2) 0.5277(2)
H20 H 0.30150 0.67550 0.53310
C39 C 0.2417(3) 0.68460(19) 0.3981(2)
C40 C 0.1241(3) 0.83691(19) 0.6414(2)
C41 C 0.7178(7) 0.7098(5) 0.4512(4)
H21 H 0.70110 0.69980 0.40430
C42 C 0.8175(8) 0.7052(5) 0.4802(5)
H22 H 0.88150 0.69080 0.46020
C43 C 0.6982(9) 0.7394(4) 0.5598(5)
H23 H 0.66890 0.75170 0.60290
C44 C 0.5370(14) 0.7347(6) 0.4968(7)
H24 H 0.50360 0.69240 0.49790
H25 H 0.51140 0.75990 0.53650
C45 C 0.5168(11) 0.7644(7) 0.4354(9)
H26 H 0.44010 0.76930 0.42890
H27 H 0.54540 0.73920 0.39740
H28 H 0.55050 0.80610 0.43590
C46 C 0.9095(12) 0.6962(11) 0.5950(7)
H29 H 0.90210 0.70820 0.64370
H30 H 0.97580 0.71350 0.57710
H31 H 0.91080 0.65000 0.59120
N1 N 0.6467(6) 0.7303(3) 0.4976(4)
N2 N 0.7997(9) 0.7268(4) 0.5455(5)
O5B O 0.9973(3) 0.42715(19) 0.67552(18)
O6B O 0.8275(3) 0.44769(16) 0.64333(17)
C9B C 1.0717(4) 0.4927(3) 0.5555(2)
H5B H 1.12030 0.48760 0.59310
C10B C 0.9647(3) 0.4753(2) 0.5636(2)
C11B C 0.8929(3) 0.4825(3) 0.5078(2)
H6B H 0.82080 0.47060 0.51280
C12B C 0.9266(4) 0.4489(2) 0.6326(2)
O15B O 0.55665(19) 0.44152(11) 0.68101(13)
O16B O 0.4235(2) 0.38415(14) 0.63563(14)
C29B C 0.5825(3) 0.5068(2) 0.5495(2)
H15B H 0.63830 0.51130 0.58270
C30B C 0.4986(3) 0.46429(18) 0.56223(19)
C31B C 0.4162(3) 0.4576(2) 0.5119(2)
H16B H 0.35990 0.42880 0.51980
C32B C 0.4933(3) 0.42680(18) 0.62894(19)
Dy1B Dy 0.716618(12) 0.389919(7) -0.279723(8)
Dy2B Dy 0.423866(12) 0.384895(7) -0.236698(8)
Dy3B Dy 0.063857(12) 0.423653(7) -0.214354(9)
O1B O 0.3294(2) 0.37964(13) -0.13266(14)
O2B O 0.1745(2) 0.43027(18) -0.11911(17)
O3B O 0.5298(2) 0.51767(12) 0.17609(15)
O4B O 0.4033(2) 0.59191(12) 0.17389(13)
O7B O -0.0652(2) 0.49466(13) -0.19077(19)
O8B O -0.2370(2) 0.48470(12) -0.22454(15)
O9B O -0.1186(2) 0.82489(14) -0.2512(2)
O10B O -0.2911(2) 0.81582(12) -0.22485(15)
O11B O 0.4702(2) 0.27713(12) -0.18543(15)
O12B O 0.57906(19) 0.30951(11) -0.26912(13)
O13B O 0.7023(3) -0.03688(12) -0.22844(18)
O14B O 0.8463(3) 0.01731(16) -0.2587(2)
O17B O 0.6798(2) 0.35343(14) -0.40219(15)
O18B O 0.8138(2) 0.30921(13) -0.34192(14)
O19B O 0.9657(3) 0.13576(17) -0.63735(19)
O20B O 0.8143(3) 0.16074(15) -0.69388(15)
C1B C 0.3082(3) 0.44570(19) -0.0310(2)
C2B C 0.2550(3) 0.4981(2) -0.0017(2)
H1B H 0.19080 0.51290 -0.02220
C3B C 0.2973(3) 0.5282(2) 0.0575(2)
H2B H 0.26300 0.56430 0.07590
C4B C 0.3906(3) 0.50481(17) 0.08986(19)
C5B C 0.4418(3) 0.45116(19) 0.0622(2)
H3B H 0.50360 0.43480 0.08440
C6B C 0.4012(3) 0.42199(19) 0.0016(2)
H4B H 0.43630 0.38640 -0.01730
C7B C 0.2677(3) 0.41642(19) -0.0989(2)
C8B C 0.4427(3) 0.53901(17) 0.15067(19)
C13B C -0.1667(3) 0.58941(17) -0.2105(2)
C14B C -0.0752(3) 0.62816(19) -0.2072(3)
H7B H -0.00740 0.60960 -0.20000
C15B C -0.0845(3) 0.69464(19) -0.2145(3)
H8B H -0.02300 0.72050 -0.21400
C16B C -0.1864(3) 0.72180(17) -0.2227(2)
C17B C -0.2776(3) 0.68307(18) -0.2239(3)
H9B H -0.34580 0.70170 -0.22850
C18B C -0.2679(3) 0.61692(18) -0.2183(3)
H10B H -0.32930 0.59100 -0.21970
C19B C -0.1559(3) 0.51755(16) -0.2080(2)
C20B C -0.1997(3) 0.79260(17) -0.2337(2)
C21B C 0.5947(3) 0.19962(17) -0.2308(2)
C22B C 0.5533(3) 0.14859(19) -0.1937(3)
H11B H 0.49310 0.15460 -0.16540
C23B C 0.6008(3) 0.08794(18) -0.1979(3)
H12B H 0.57060 0.05350 -0.17370
C24B C 0.6915(3) 0.07853(17) -0.2373(2)
C25B C 0.7336(4) 0.1300(2) -0.2739(3)
H13B H 0.79560 0.12430 -0.30050
C26B C 0.6853(4) 0.1897(2) -0.2716(3)
H14B H 0.71380 0.22360 -0.29760
C27B C 0.5457(3) 0.26564(16) -0.22708(19)
C28B C 0.7489(3) 0.01499(18) -0.2419(3)
C33B C 0.7882(3) 0.2757(2) -0.4616(2)
C34B C 0.8572(4) 0.2238(2) -0.4539(2)
H17B H 0.88480 0.21330 -0.40930
C35B C 0.8856(4) 0.1874(2) -0.5120(2)
H18B H 0.93330 0.15300 -0.50660
C36B C 0.8433(3) 0.2019(2) -0.5781(2)
C37B C 0.7731(4) 0.2533(3) -0.5859(2)
H19B H 0.74430 0.26330 -0.63030
C38B C 0.7458(4) 0.2899(2) -0.5277(2)
H20B H 0.69850 0.32450 -0.53310
C39B C 0.7583(3) 0.31540(19) -0.3981(2)
C40B C 0.8759(3) 0.16309(19) -0.6414(2)
Dy1* Dy 1.283382(12) 0.610081(7) 0.279723(8)
Dy1A Dy 0.716618(12) 0.110081(7) -0.779723(8)
Dy1B* Dy -0.283382(12) 0.389919(7) -0.279723(8)
Dy1B** Dy 0.716618(12) 0.389919(7) 0.720277(8)
Dy1C Dy 0.283382(12) 0.889919(7) 0.779723(8)
Dy2A Dy 0.423866(12) 1.115105(7) 0.263302(8)
Dy2A* Dy 1.423866(12) 0.115105(7) 0.263302(8)
Dy2B* Dy 0.423866(12) 0.384895(7) 0.763302(8)
Dy2C Dy -0.423866(12) 0.884895(7) -0.263302(8)
Dy2C* Dy 0.576134(12) -0.115105(7) -0.263302(8)
Dy3A Dy 0.063857(12) 1.076347(7) 0.285646(9)
Dy3A* Dy 1.063857(12) 0.076347(7) -0.714354(9)
Dy3A** Dy 1.063857(12) 0.076347(7) 0.285646(9)
Dy3B* Dy 1.063857(12) 0.423653(7) 0.785646(9)
Dy3C Dy -0.063857(12) 0.923653(7) -0.285646(9)
Dy3C* Dy -0.063857(12) 0.923653(7) 0.714354(9)
Dy3C** Dy 0.936143(12) -0.076347(7) -0.285646(9)
O5B* O -0.0027(3) 0.42715(19) -0.32448(18)
O6* O 0.1725(3) 0.55231(16) 0.35667(17)
O6B* O 0.8275(3) 0.44769(16) -0.35667(17)
O8* O 0.2370(2) 0.51530(12) 0.22454(15)
O8B* O 0.7630(2) 0.48470(12) -0.22454(15)
O9A O 0.8814(2) 0.67511(14) 0.2488(2)
O9C O 0.1186(2) 0.32489(14) -0.2488(2)
O10A O 0.7089(2) 0.68418(12) 0.27515(15)
O10C O 0.2911(2) 0.31582(12) -0.27515(15)
O13A O 0.7023(3) 0.53688(12) 0.27156(18)
O13C O 0.2977(3) 0.46312(12) -0.27156(18)
O14A O 0.8463(3) 0.48269(16) 0.2413(2)
O14C O 0.1537(3) 0.51731(16) -0.2413(2)
O15B* O 0.55665(19) 0.44152(11) -0.31899(13)
O16B* O 0.4235(2) 0.38415(14) -0.36437(14)
O19A O -0.0343(3) 0.36424(17) -0.13735(19)
O19C O 1.0343(3) 0.63576(17) 0.13735(19)
O20A O 0.8143(3) 0.33926(15) -0.19388(15)
O20C O 0.1857(3) 0.66074(15) 0.19388(15)
#END
