
#######################################################################
#
#                 Cambridge Crystallographic Data Centre
#                                CCDC
#
#######################################################################
#
# If this CIF has been generated from an entry in the Cambridge
# Structural Database, then it will include bibliographic, chemical,
# crystal, experimental, refinement or atomic coordinate data resulting
# from the CCDC's data processing and validation procedures.
#
#######################################################################

data_CSD_CIF_RINTOA
_audit_creation_date 2018-11-29
_audit_creation_method CSD-ConQuest-V1
_database_code_CSD RINTOA
_database_code_depnum_ccdc_archive 'CCDC 1487965'
_chemical_formula_sum 'C34 H43 N7 O23 Pb8'
_chemical_formula_moiety
;
(C34 H40 N7 O22 Pb8 1-)n,H3 O1 1+
;
_journal_coden_Cambridge 1500
_journal_volume 8
_journal_year 2018
_journal_page_first 39929
_journal_name_full 'RSC Advances '
loop_
_publ_author_name
"Rong-Yi Huang"
"Chao Zhang"
"Da Yan"
"Zhi Xiong"
"Heng Xu"
"Xiao-Ming Ren"
_chemical_name_systematic
;
catena-[oxonium 
tetrakis(\m-1,3-cyclohexane-dicarboxylato)-(\m-oxalato)-(\m-heptanitrogen)-bis
(\m-oxido)-octa-lead]
;
_cell_volume   2741.617
_exptl_crystal_colour 'colorless'
_exptl_special_details
;
We calculate void space in the structure.  The formula in the publication is 
H3O[Pb8(m6-N7)(m4-O)2(m6-ox)(m7-CHDA)4]$4H2O
;
_exptl_crystal_description 'block'
_diffrn_ambient_temperature 293
#These two values have been output from a single CSD field.
_refine_ls_R_factor_gt 0.0419
_refine_ls_wR_factor_gt 0.0419
_symmetry_cell_setting monoclinic
_symmetry_space_group_name_H-M 'C 2/m'
_symmetry_Int_Tables_number 12
loop_
_symmetry_equiv_pos_site_id
_symmetry_equiv_pos_as_xyz
1 x,y,z
2 -x,y,-z
3 1/2+x,1/2+y,z
4 1/2-x,1/2+y,-z
5 -x,-y,-z
6 x,-y,z
7 -1/2-x,-1/2-y,-z
8 -1/2+x,-1/2-y,z
_cell_length_a 8.1312(6)
_cell_length_b 29.931(3)
_cell_length_c 11.5601(9)
_cell_angle_alpha 90
_cell_angle_beta 102.974(5)
_cell_angle_gamma 90
_cell_formula_units_Z 2
loop_
_atom_type_symbol
_atom_type_radius_bond
C 0.68
H 0.23
N 0.68
O 0.68
Pb 1.46
loop_
_atom_site_label
_atom_site_type_symbol
_atom_site_fract_x
_atom_site_fract_y
_atom_site_fract_z
Pb1 Pb 0.40680(8) 0.50000 0.63059(7)
N1 N 0.734(3) 0.50000 0.703(2)
N2 N 0.833(4) 0.50000 0.797(2)
N3 N 0.903(4) 0.50000 0.906(3)
N4 N 1.00000 0.50000 1.00000
Pb2 Pb 0.70293(6) 0.59107(2) 0.61270(5)
Pb3 Pb 0.50000 0.71430(3) 0.50000
O1 O 0.50000 0.5471(4) 0.50000
O2 O 0.1392(11) 0.5456(4) 0.5363(10)
C1 C 0.00000 0.5265(7) 0.50000
O3 O 0.3870(13) 0.6404(4) 0.5803(11)
O4 O 0.4854(12) 0.5935(4) 0.7274(11)
O5 O -0.2846(13) 0.6824(4) 0.6772(11)
O6 O -0.1555(14) 0.7370(4) 0.6266(12)
C2 C 0.3895(17) 0.6254(6) 0.6808(18)
C3 C 0.275(2) 0.6445(6) 0.7493(14)
H1 H 0.23670 0.61900 0.78960
C4 C 0.1168(16) 0.6657(5) 0.6799(11)
H2 H 0.05190 0.64330 0.62860
H3 H 0.14750 0.68870 0.62940
C5 C 0.366(2) 0.6729(8) 0.8439(18)
H4 H 0.41370 0.69810 0.80970
H5 H 0.45880 0.65620 0.89230
C6 C 0.250(3) 0.6904(9) 0.923(2)
H6 H 0.21340 0.66570 0.96590
H7 H 0.31110 0.71140 0.98130
C7 C 0.102(2) 0.7126(8) 0.849(2)
H8 H 0.13960 0.73930 0.81520
H9 H 0.02760 0.72200 0.89940
C8 C 0.0055(18) 0.6865(7) 0.7543(12)
H10 H -0.02970 0.66070 0.79520
C9 C -0.1543(15) 0.7030(5) 0.6800(12)
N1A N 1.266(3) 0.50000 1.297(2)
N2A N 1.167(4) 0.50000 1.203(2)
N3A N 1.097(4) 0.50000 1.094(3)
O2A O -0.1392(11) 0.5456(4) 0.4637(10)
O2D O -0.1392(11) 0.4544(4) 0.4637(10)
C1D C 0.00000 0.4735(7) 0.50000
O2E O 0.1392(11) 0.4544(4) 0.5363(10)
Pb1A Pb -0.40680(8) 0.50000 0.36941(7)
Pb2A Pb -0.70293(6) 0.59107(2) 0.38730(5)
O3A O -0.3870(13) 0.6404(4) 0.4197(11)
O4A O -0.4854(12) 0.5935(4) 0.2726(11)
O5A O 0.2846(13) 0.6824(4) 0.3228(11)
O6A O 0.1555(14) 0.7370(4) 0.3734(12)
C2A C -0.3895(17) 0.6254(6) 0.3192(18)
C3A C -0.275(2) 0.6445(6) 0.2507(14)
H1A H -0.23670 0.61900 0.21040
C4A C -0.1168(16) 0.6657(5) 0.3201(11)
H2A H -0.05190 0.64330 0.37140
H3A H -0.14750 0.68870 0.37060
C5A C -0.366(2) 0.6729(8) 0.1561(18)
H4A H -0.41370 0.69810 0.19030
H5A H -0.45880 0.65620 0.10770
C6A C -0.250(3) 0.6904(9) 0.077(2)
H6A H -0.21340 0.66570 0.03410
H7A H -0.31110 0.71140 0.01870
C7A C -0.102(2) 0.7126(8) 0.151(2)
H8A H -0.13960 0.73930 0.18480
H9A H -0.02760 0.72200 0.10060
C8A C -0.0055(18) 0.6865(7) 0.2457(12)
H10A H 0.02970 0.66070 0.20480
C9A C 0.1543(15) 0.7030(5) 0.3200(12)
Pb2D Pb -0.70293(6) 0.40893(2) 0.38730(5)
O3D O -0.3870(13) 0.3596(4) 0.4197(11)
O4D O -0.4854(12) 0.4065(4) 0.2726(11)
O5D O 0.2846(13) 0.3176(4) 0.3228(11)
O6D O 0.1555(14) 0.2630(4) 0.3734(12)
C2D C -0.3895(17) 0.3746(6) 0.3192(18)
C3D C -0.275(2) 0.3555(6) 0.2507(14)
H1D H -0.23670 0.38100 0.21040
C4D C -0.1168(16) 0.3343(5) 0.3201(11)
H2D H -0.05190 0.35670 0.37140
H3D H -0.14750 0.31130 0.37060
C5D C -0.366(2) 0.3271(8) 0.1561(18)
H4D H -0.41370 0.30190 0.19030
H5D H -0.45880 0.34380 0.10770
C6D C -0.250(3) 0.3096(9) 0.077(2)
H6D H -0.21340 0.33430 0.03410
H7D H -0.31110 0.28860 0.01870
C7D C -0.102(2) 0.2874(8) 0.151(2)
H8D H -0.13960 0.26070 0.18480
H9D H -0.02760 0.27800 0.10060
C8D C -0.0055(18) 0.3135(7) 0.2457(12)
H10D H 0.02970 0.33930 0.20480
C9D C 0.1543(15) 0.2970(5) 0.3200(12)
Pb2E Pb 0.70293(6) 0.40893(2) 0.61270(5)
Pb3D Pb 0.50000 0.28570(3) 0.50000
O1D O 0.50000 0.4529(4) 0.50000
O3E O 0.3870(13) 0.3596(4) 0.5803(11)
O4E O 0.4854(12) 0.4065(4) 0.7274(11)
O5E O -0.2846(13) 0.3176(4) 0.6772(11)
O6E O -0.1555(14) 0.2630(4) 0.6266(12)
C2E C 0.3895(17) 0.3746(6) 0.6808(18)
C3E C 0.275(2) 0.3555(6) 0.7493(14)
H1E H 0.23670 0.38100 0.78960
C4E C 0.1168(16) 0.3343(5) 0.6799(11)
H2E H 0.05190 0.35670 0.62860
H3E H 0.14750 0.31130 0.62940
C5E C 0.366(2) 0.3271(8) 0.8439(18)
H4E H 0.41370 0.30190 0.80970
H5E H 0.45880 0.34380 0.89230
C6E C 0.250(3) 0.3096(9) 0.923(2)
H6E H 0.21340 0.33430 0.96590
H7E H 0.31110 0.28860 0.98130
C7E C 0.102(2) 0.2874(8) 0.849(2)
H8E H 0.13960 0.26070 0.81520
H9E H 0.02760 0.27800 0.89940
C8E C 0.0055(18) 0.3135(7) 0.7543(12)
H10E H -0.02970 0.33930 0.79520
C9E C -0.1543(15) 0.2970(5) 0.6800(12)
Pb1A* Pb 0.59320(8) 0.50000 0.36941(7)
Pb1A** Pb 1.59320(8) 0.50000 1.36941(7)
N1A* N -0.734(3) 0.50000 0.297(2)
Pb2* Pb -0.29707(6) 0.59107(2) 0.61270(5)
Pb2A* Pb 0.29707(6) 0.59107(2) 0.38730(5)
Pb2A** Pb 1.29707(6) 0.59107(2) 1.38730(5)
Pb2D* Pb 0.29707(6) 0.40893(2) 0.38730(5)
Pb2D** Pb 1.29707(6) 0.40893(2) 1.38730(5)
Pb2E* Pb -0.29707(6) 0.40893(2) 0.61270(5)
Pb3* Pb -0.50000 0.71430(3) 0.50000
Pb3B Pb 0.00000 0.21430(3) 0.50000
Pb3D* Pb -0.50000 0.28570(3) 0.50000
Pb3F Pb 0.00000 0.78570(3) 0.50000
O1* O -0.50000 0.5471(4) 0.50000
O1D* O -0.50000 0.4529(4) 0.50000
O2* O -0.8608(11) 0.5456(4) 0.5363(10)
O2A* O 0.8608(11) 0.5456(4) 0.4637(10)
O2D* O 0.8608(11) 0.4544(4) 0.4637(10)
O2E* O -0.8608(11) 0.4544(4) 0.5363(10)
O3* O -0.6130(13) 0.6404(4) 0.5803(11)
O3A* O 0.6130(13) 0.6404(4) 0.4197(11)
O3D* O 0.6130(13) 0.3596(4) 0.4197(11)
O3E* O -0.6130(13) 0.3596(4) 0.5803(11)
O5* O 0.7154(13) 0.6824(4) 0.6772(11)
O5A* O -0.7154(13) 0.6824(4) 0.3228(11)
O5D* O -0.7154(13) 0.3176(4) 0.3228(11)
O5E* O 0.7154(13) 0.3176(4) 0.6772(11)
O6* O 0.8445(14) 0.7370(4) 0.6266(12)
O6B O 0.3445(14) 0.2370(4) 0.6266(12)
O6C O 0.6555(14) 0.2370(4) 0.3734(12)
O6E* O 0.8445(14) 0.2630(4) 0.6266(12)
O6F O 0.6555(14) 0.7630(4) 0.3734(12)
O6G O 0.3445(14) 0.7630(4) 0.6266(12)
#END
