
#######################################################################
#
#                 Cambridge Crystallographic Data Centre
#                                CCDC
#
#######################################################################
#
# If this CIF has been generated from an entry in the Cambridge
# Structural Database, then it will include bibliographic, chemical,
# crystal, experimental, refinement or atomic coordinate data resulting
# from the CCDC's data processing and validation procedures.
#
#######################################################################

data_CSD_CIF_RIPRUF
_audit_creation_date 2013-12-03
_audit_creation_method CSD-ConQuest-V1
_database_code_CSD RIPRUF
_database_code_depnum_ccdc_archive 'CCDC 946284'
_chemical_formula_sum 'C23.25 H36.25 Co3 N12.75 O20.75 Tb1'
_chemical_formula_moiety
;
(C15 H3 Co3 N9 O18 Tb1 3-)n,3n(C2 H8 N1 1+),0.75n(C3 H7 N1 O1),2n(H2 O1)
;
_journal_coden_Cambridge 1290
_journal_year 2014
_journal_page_first 407
_journal_name_full 'Eur.J.Inorg.Chem. '
loop_
_publ_author_name
"Ji-Yong Zou"
"Wei Shi"
"Na Xu"
"Hong-Ling Gao"
"Jian-Zhong Cui"
"Peng Cheng"
_chemical_name_systematic
;
catena-[tris(Dimethylammonium) 
tris(\m~3~-4,5-dicarboxylato-1,2,3-triazolato)-tris(\m~2~-formato)-tri-cobalt-
terbium dimethylformamide solvate dihydrate]
;
_cell_volume   2228.519
_exptl_crystal_colour 'red'
_exptl_crystal_density_diffrn 1.324
_exptl_crystal_description 'block'
_diffrn_ambient_temperature 125.3
_refine_special_details
;
The SQUEEZE/PLATON program was used to model the disordered cations and 
solvent molecules.
;
#These two values have been output from a single CSD field.
_refine_ls_R_factor_gt 0.0502
_refine_ls_wR_factor_gt 0.0502
_symmetry_cell_setting hexagonal
_symmetry_space_group_name_H-M 'P -6 2 c'
_symmetry_Int_Tables_number 190
loop_
_symmetry_equiv_pos_site_id
_symmetry_equiv_pos_as_xyz
1 x,y,z
2 -x+y,-x,1/2-z
3 -y,x-y,z
4 x,y,1/2-z
5 -x+y,-x,z
6 -y,x-y,1/2-z
7 y,x,1/2+z
8 x-y,-y,-z
9 -x,-x+y,1/2+z
10 y,x,-z
11 x-y,-y,1/2+z
12 -x,-x+y,-z
_cell_length_a 14.2981(10)
_cell_length_b 14.2981(10)
_cell_length_c 12.5872(9)
_cell_angle_alpha 90
_cell_angle_beta 90
_cell_angle_gamma 120
_cell_formula_units_Z 2
loop_
_atom_type_symbol
_atom_type_radius_bond
C 0.68
H 0.23
Co 1.26
N 0.68
O 0.68
Tb 1.94
loop_
_atom_site_label
_atom_site_type_symbol
_atom_site_fract_x
_atom_site_fract_y
_atom_site_fract_z
Tb1 Tb 0.33330 0.66670 0.25000
Co1 Co 0.75249(11) 0.75249(11) 0.50000
O1 O 0.9115(8) 0.7761(9) 0.4987(6)
O2 O 0.5862(5) 0.7075(6) 0.4835(4)
O3 O 0.4610(6) 0.6815(6) 0.3702(5)
N1 N 0.7310(5) 0.7403(6) 0.3350(4)
N2 N 0.7862(9) 0.7526(8) 0.25000
C1 C 0.5547(6) 0.6998(7) 0.3915(6)
C2 C 1.00000 0.8547(7) 0.50000
H1 H 1.00000 0.91980 0.50000
C3 C 0.6324(7) 0.7181(7) 0.3064(6)
O1K O 1.0885(8) 0.8646(9) 0.5013(6)
O2C O 0.5862(5) 0.7075(6) 0.0165(4)
O3C O 0.4610(6) 0.6815(6) 0.1298(5)
N1C N 0.7310(5) 0.7403(6) 0.1650(4)
C1C C 0.5547(6) 0.6998(7) 0.1085(6)
C3C C 0.6324(7) 0.7181(7) 0.1936(6)
Co1A Co 0.00000(11) 0.24751(11) 0.00000
O1A O -0.1354(8) 0.0885(9) 0.0013(6)
O2A O 0.1213(5) 0.4138(6) 0.0165(4)
O3A O 0.2205(6) 0.5390(6) 0.1298(5)
N1A N 0.0093(5) 0.2690(6) 0.1650(4)
N2A N -0.0336(9) 0.2138(8) 0.25000
C1A C 0.1451(6) 0.4453(7) 0.1085(6)
C2A C -0.14530 0.0000(7) 0.00000
H1A H -0.08020 0.00000 0.00000
C3A C 0.0857(7) 0.3676(7) 0.1936(6)
O1F O -0.2239(8) -0.0885(9) -0.0013(6)
O2D O 0.1213(5) 0.4138(6) 0.4835(4)
O3D O 0.2205(6) 0.5390(6) 0.3702(5)
N1D N 0.0093(5) 0.2690(6) 0.3350(4)
C1D C 0.1451(6) 0.4453(7) 0.3915(6)
C3D C 0.0857(7) 0.3676(7) 0.3064(6)
Co1B Co 0.24751(11) 1.00000(11) 0.50000
O1B O 0.2239(8) 1.1354(9) 0.4987(6)
O2B O 0.2925(5) 0.8787(6) 0.4835(4)
O3B O 0.3185(6) 0.7795(6) 0.3702(5)
N1B N 0.2597(5) 0.9907(6) 0.3350(4)
N2B N 0.2474(9) 1.0336(8) 0.25000
C1B C 0.3002(6) 0.8549(7) 0.3915(6)
C2B C 0.14530 1.1453(7) 0.50000
H1B H 0.08020 1.08020 0.50000
C3B C 0.2819(7) 0.9143(7) 0.3064(6)
O1G O 0.1354(8) 1.2239(9) 0.5013(6)
O2E O 0.2925(5) 0.8787(6) 0.0165(4)
O3E O 0.3185(6) 0.7795(6) 0.1298(5)
N1E N 0.2597(5) 0.9907(6) 0.1650(4)
C1E C 0.3002(6) 0.8549(7) 0.1085(6)
C3E C 0.2819(7) 0.9143(7) 0.1936(6)
Co1B* Co 1.24751(11) 1.00000(11) 0.50000
Co1C Co -0.24751(11) -0.24751(11) 0.00000
Co1C* Co 0.75249(11) 0.75249(11) 0.00000
Co1D Co 0.00000(11) 0.24751(11) 0.50000
Co1D* Co 0.00000(11) 1.24751(11) 0.50000
Co1E Co 0.24751(11) 1.00000(11) 0.00000
O1I O 0.7761(8) 0.9115(9) 0.5013(6)
O1J O 0.1354(8) 0.2239(9) -0.0013(6)
O1K* O 0.0885(8) 0.8646(9) 0.5013(6)
O2I O 0.7075(5) 0.5862(6) 0.5165(4)
O2J O -0.1213(5) 0.2925(6) -0.0165(4)
O2K O 0.4138(5) 1.1213(6) 0.5165(4)
N1I N 0.7403(5) 0.7310(6) 0.6650(4)
N1J N -0.0093(5) 0.2597(6) -0.1650(4)
N1K N 0.2690(5) 1.0093(6) 0.6650(4)
#END
