
#######################################################################
#
#                 Cambridge Crystallographic Data Centre
#                                CCDC
#
#######################################################################
#
# If this CIF has been generated from an entry in the Cambridge
# Structural Database, then it will include bibliographic, chemical,
# crystal, experimental, refinement or atomic coordinate data resulting
# from the CCDC's data processing and validation procedures.
#
#######################################################################

data_CSD_CIF_RIPRIT
_audit_creation_date 2013-12-03
_audit_creation_method CSD-ConQuest-V1
_database_code_CSD RIPRIT
_database_code_depnum_ccdc_archive 'CCDC 946282'
_chemical_formula_sum 'C23.25 H36.25 Co3 Eu1 N12.75 O20.75'
_chemical_formula_moiety
;
(C15 H3 Co3 Eu1 N9 O18 3-)n,3n(C2 H8 N1 1+),0.75n(C3 H7 N1 O1),2n(H2 O1)
;
_journal_coden_Cambridge 1290
_journal_year 2014
_journal_page_first 407
_journal_name_full 'Eur.J.Inorg.Chem. '
loop_
_publ_author_name
"Ji-Yong Zou"
"Wei Shi"
"Na Xu"
"Hong-Ling Gao"
"Jian-Zhong Cui"
"Peng Cheng"
_chemical_name_systematic
;
catena-[tris(Dimethylammonium) 
tris(\m~3~-4,5-dicarboxylato-1,2,3-triazolato)-tris(\m~2~-formato)-tri-cobalt-
europium dimethylformamide solvate dihydrate]
;
_cell_volume   2245.009
_exptl_crystal_colour 'red'
_exptl_crystal_density_diffrn 1.299
_exptl_crystal_description 'block'
_diffrn_ambient_temperature 123.3
_refine_special_details
;
The SQUEEZE/PLATON program was used to model the disordered cations and 
solvent molecules.
;
#These two values have been output from a single CSD field.
_refine_ls_R_factor_gt 0.0494
_refine_ls_wR_factor_gt 0.0494
_symmetry_cell_setting hexagonal
_symmetry_space_group_name_H-M 'P -6 2 c'
_symmetry_Int_Tables_number 190
loop_
_symmetry_equiv_pos_site_id
_symmetry_equiv_pos_as_xyz
1 x,y,z
2 -x+y,-x,1/2-z
3 -y,x-y,z
4 x,y,1/2-z
5 -x+y,-x,z
6 -y,x-y,1/2-z
7 y,x,1/2+z
8 x-y,-y,-z
9 -x,-x+y,1/2+z
10 y,x,-z
11 x-y,-y,1/2+z
12 -x,-x+y,-z
_cell_length_a 14.346(1)
_cell_length_b 14.346(1)
_cell_length_c 12.5958(9)
_cell_angle_alpha 90
_cell_angle_beta 90
_cell_angle_gamma 120
_cell_formula_units_Z 2
loop_
_atom_type_symbol
_atom_type_radius_bond
C 0.68
H 0.23
Co 1.26
Eu 1.98
N 0.68
O 0.68
loop_
_atom_site_label
_atom_site_type_symbol
_atom_site_fract_x
_atom_site_fract_y
_atom_site_fract_z
Eu1 Eu 0.33330 0.66670 0.25000
Co1 Co 0.75337(10) 0.75337(10) 0.50000
O1 O 0.9146(10) 0.7847(11) 0.4990(8)
O2 O 0.5878(5) 0.7089(6) 0.4860(4)
O3 O 0.4618(6) 0.6821(6) 0.3718(6)
N1 N 0.7313(5) 0.7410(5) 0.3348(4)
N2 N 0.7886(8) 0.7516(8) 0.25000
C1 C 0.5556(7) 0.7028(7) 0.3909(6)
C2 C 1.00000 0.8559(7) 0.50000
H1 H 1.00000 0.92070 0.50000
C3 C 0.6321(6) 0.7174(7) 0.3055(6)
O1K O 1.0854(10) 0.8701(11) 0.5010(8)
O2C O 0.5878(5) 0.7089(6) 0.0140(4)
O3C O 0.4618(6) 0.6821(6) 0.1282(6)
N1C N 0.7313(5) 0.7410(5) 0.1652(4)
C1C C 0.5556(7) 0.7028(7) 0.1091(6)
C3C C 0.6321(6) 0.7174(7) 0.1945(6)
Co1A Co 0.0000(1) 0.24663(10) 0.00000
O1A O -0.1299(10) 0.0854(11) 0.0010(8)
O2A O 0.1211(5) 0.4122(6) 0.0140(4)
O3A O 0.2203(6) 0.5382(6) 0.1282(6)
N1A N 0.0097(5) 0.2687(5) 0.1652(4)
N2A N -0.0370(8) 0.2114(8) 0.25000
C1A C 0.1472(7) 0.4444(7) 0.1091(6)
C2A C -0.14410 0.0000(7) 0.00000
H1A H -0.07930 0.00000 0.00000
C3A C 0.0853(6) 0.3679(7) 0.1945(6)
O1F O -0.2153(10) -0.0854(11) -0.0010(8)
O2D O 0.1211(5) 0.4122(6) 0.4860(4)
O3D O 0.2203(6) 0.5382(6) 0.3718(6)
N1D N 0.0097(5) 0.2687(5) 0.3348(4)
C1D C 0.1472(7) 0.4444(7) 0.3909(6)
C3D C 0.0853(6) 0.3679(7) 0.3055(6)
Co1B Co 0.24663(10) 1.0000(1) 0.50000
O1B O 0.2153(10) 1.1299(11) 0.4990(8)
O2B O 0.2911(5) 0.8789(6) 0.4860(4)
O3B O 0.3179(6) 0.7797(6) 0.3718(6)
N1B N 0.2590(5) 0.9903(5) 0.3348(4)
N2B N 0.2484(8) 1.0370(8) 0.25000
C1B C 0.2972(7) 0.8528(7) 0.3909(6)
C2B C 0.14410 1.1441(7) 0.50000
H1B H 0.07930 1.07930 0.50000
C3B C 0.2826(6) 0.9147(7) 0.3055(6)
O1G O 0.1299(10) 1.2153(11) 0.5010(8)
O2E O 0.2911(5) 0.8789(6) 0.0140(4)
O3E O 0.3179(6) 0.7797(6) 0.1282(6)
N1E N 0.2590(5) 0.9903(5) 0.1652(4)
C1E C 0.2972(7) 0.8528(7) 0.1091(6)
C3E C 0.2826(6) 0.9147(7) 0.1945(6)
Co1B* Co 1.24663(10) 1.0000(1) 0.50000
Co1C Co -0.24663(10) -0.24663(10) 0.00000
Co1C* Co 0.75337(10) 0.75337(10) 0.00000
Co1D Co 0.0000(1) 0.24663(10) 0.50000
Co1D* Co 0.0000(1) 1.24663(10) 0.50000
Co1E Co 0.24663(10) 1.0000(1) 0.00000
O1I O 0.7847(10) 0.9146(11) 0.5010(8)
O1J O 0.1299(10) 0.2153(11) -0.0010(8)
O1K* O 0.0854(10) 0.8701(11) 0.5010(8)
O2I O 0.7089(5) 0.5878(6) 0.5140(4)
O2J O -0.1211(5) 0.2911(6) -0.0140(4)
O2K O 0.4122(5) 1.1211(6) 0.5140(4)
N1I N 0.7410(5) 0.7313(5) 0.6652(4)
N1J N -0.0097(5) 0.2590(5) -0.1652(4)
N1K N 0.2687(5) 1.0097(5) 0.6652(4)
#END
