
#######################################################################
#
#                 Cambridge Crystallographic Data Centre
#                                CCDC
#
#######################################################################
#
# If this CIF has been generated from an entry in the Cambridge
# Structural Database, then it will include bibliographic, chemical,
# crystal, experimental, refinement or atomic coordinate data resulting
# from the CCDC's data processing and validation procedures.
#
#######################################################################

data_CSD_CIF_RIPROZ
_audit_creation_date 2013-12-03
_audit_creation_method CSD-ConQuest-V1
_database_code_CSD RIPROZ
_database_code_depnum_ccdc_archive 'CCDC 946283'
_chemical_formula_sum 'C23.25 H36.25 Co3 Gd1 N12.75 O20.75'
_chemical_formula_moiety
;
(C15 H3 Co3 Gd1 N9 O18 3-)n,3n(C2 H8 N1 1+),0.75n(C3 H7 N1 O1),2n(H2 O1)
;
_journal_coden_Cambridge 1290
_journal_year 2014
_journal_page_first 407
_journal_name_full 'Eur.J.Inorg.Chem. '
loop_
_publ_author_name
"Ji-Yong Zou"
"Wei Shi"
"Na Xu"
"Hong-Ling Gao"
"Jian-Zhong Cui"
"Peng Cheng"
_chemical_name_systematic
;
catena-[tris(Dimethylammonium) 
tris(\m~3~-4,5-dicarboxylato-1,2,3-triazolato)-tris(\m~2~-formato)-tri-cobalt-
;
_cell_volume   2239.300
_exptl_crystal_colour 'red'
_exptl_crystal_density_diffrn 1.318
_exptl_crystal_description 'block'
_diffrn_ambient_temperature 125.0
_refine_special_details
;
The SQUEEZE/PLATON program was used to model the disordered cations and 
solvent molecules.
;
#These two values have been output from a single CSD field.
_refine_ls_R_factor_gt 0.0501
_refine_ls_wR_factor_gt 0.0501
_symmetry_cell_setting hexagonal
_symmetry_space_group_name_H-M 'P -6 2 c'
_symmetry_Int_Tables_number 190
loop_
_symmetry_equiv_pos_site_id
_symmetry_equiv_pos_as_xyz
1 x,y,z
2 -x+y,-x,1/2-z
3 -y,x-y,z
4 x,y,1/2-z
5 -x+y,-x,z
6 -y,x-y,1/2-z
7 y,x,1/2+z
8 x-y,-y,-z
9 -x,-x+y,1/2+z
10 y,x,-z
11 x-y,-y,1/2+z
12 -x,-x+y,-z
_cell_length_a 14.3327(10)
_cell_length_b 14.3327(10)
_cell_length_c 12.5871(9)
_cell_angle_alpha 90
_cell_angle_beta 90
_cell_angle_gamma 120
_cell_formula_units_Z 2
loop_
_atom_type_symbol
_atom_type_radius_bond
C 0.68
H 0.23
Co 1.26
Gd 1.96
N 0.68
O 0.68
loop_
_atom_site_label
_atom_site_type_symbol
_atom_site_fract_x
_atom_site_fract_y
_atom_site_fract_z
Gd1 Gd 0.33330 0.66670 0.25000
Co1 Co 0.75309(12) 0.75309(12) 0.50000
O1 O 0.9162(11) 0.7830(12) 0.5000(6)
O2 O 0.5894(6) 0.7097(6) 0.4854(4)
O3 O 0.4575(6) 0.6771(6) 0.3714(5)
N1 N 0.7303(6) 0.7418(6) 0.3352(4)
N2 N 0.7890(8) 0.7517(8) 0.25000
C1 C 0.5548(7) 0.7007(8) 0.3913(5)
C2 C 1.00000 0.8542(8) 0.50000
H1 H 1.00000 0.91910 0.50000
C3 C 0.6328(7) 0.7164(8) 0.3077(6)
O1K O 1.0838(11) 0.8668(12) 0.5000(6)
O2C O 0.5894(6) 0.7097(6) 0.0146(4)
O3C O 0.4575(6) 0.6771(6) 0.1286(5)
N1C N 0.7303(6) 0.7418(6) 0.1648(4)
C1C C 0.5548(7) 0.7007(8) 0.1087(5)
C3C C 0.6328(7) 0.7164(8) 0.1923(6)
Co1A Co 0.00000(12) 0.24691(12) 0.00000
O1A O -0.1332(11) 0.0838(12) 0.0000(6)
O2A O 0.1203(6) 0.4106(6) 0.0146(4)
O3A O 0.2196(6) 0.5425(6) 0.1286(5)
N1A N 0.0115(6) 0.2697(6) 0.1648(4)
N2A N -0.0373(8) 0.2110(8) 0.25000
C1A C 0.1459(7) 0.4452(8) 0.1087(5)
C2A C -0.14580 0.0000(8) 0.00000
H1A H -0.08090 0.00000 0.00000
C3A C 0.0836(7) 0.3672(8) 0.1923(6)
O1F O -0.2170(11) -0.0838(12) 0.0000(6)
O2D O 0.1203(6) 0.4106(6) 0.4854(4)
O3D O 0.2196(6) 0.5425(6) 0.3714(5)
N1D N 0.0115(6) 0.2697(6) 0.3352(4)
C1D C 0.1459(7) 0.4452(8) 0.3913(5)
C3D C 0.0836(7) 0.3672(8) 0.3077(6)
Co1B Co 0.24691(12) 1.00000(12) 0.50000
O1B O 0.2170(11) 1.1332(12) 0.5000(6)
O2B O 0.2903(6) 0.8797(6) 0.4854(4)
O3B O 0.3229(6) 0.7804(6) 0.3714(5)
N1B N 0.2582(6) 0.9885(6) 0.3352(4)
N2B N 0.2483(8) 1.0373(8) 0.25000
C1B C 0.2993(7) 0.8541(8) 0.3913(5)
C2B C 0.14580 1.1458(8) 0.50000
H1B H 0.08090 1.08090 0.50000
C3B C 0.2836(7) 0.9164(8) 0.3077(6)
O1G O 0.1332(11) 1.2170(12) 0.5000(6)
O2E O 0.2903(6) 0.8797(6) 0.0146(4)
O3E O 0.3229(6) 0.7804(6) 0.1286(5)
N1E N 0.2582(6) 0.9885(6) 0.1648(4)
C1E C 0.2993(7) 0.8541(8) 0.1087(5)
C3E C 0.2836(7) 0.9164(8) 0.1923(6)
Co1B* Co 1.24691(12) 1.00000(12) 0.50000
Co1C Co -0.24691(12) -0.24691(12) 0.00000
Co1C* Co 0.75309(12) 0.75309(12) 0.00000
Co1D Co 0.00000(12) 0.24691(12) 0.50000
Co1D* Co 0.00000(12) 1.24691(12) 0.50000
Co1E Co 0.24691(12) 1.00000(12) 0.00000
O1I O 0.7830(11) 0.9162(12) 0.5000(6)
O1J O 0.1332(11) 0.2170(12) 0.0000(6)
O1K* O 0.0838(11) 0.8668(12) 0.5000(6)
O2I O 0.7097(6) 0.5894(6) 0.5146(4)
O2J O -0.1203(6) 0.2903(6) -0.0146(4)
O2K O 0.4106(6) 1.1203(6) 0.5146(4)
N1I N 0.7418(6) 0.7303(6) 0.6648(4)
N1J N -0.0115(6) 0.2582(6) -0.1648(4)
N1K N 0.2697(6) 1.0115(6) 0.6648(4)
#END
