
#######################################################################
#
#                 Cambridge Crystallographic Data Centre
#                                CCDC
#
#######################################################################
#
# If this CIF has been generated from an entry in the Cambridge
# Structural Database, then it will include bibliographic, chemical,
# crystal, experimental, refinement or atomic coordinate data resulting
# from the CCDC's data processing and validation procedures.
#
#######################################################################

data_CSD_CIF_RIPSAM
_audit_creation_date 2013-12-03
_audit_creation_method CSD-ConQuest-V1
_database_code_CSD RIPSAM
_database_code_depnum_ccdc_archive 'CCDC 946285'
_chemical_formula_sum 'C23.25 H36.25 Co3 Dy1 N12.75 O20.75'
_chemical_formula_moiety
;
(C15 H3 Co3 Dy1 N9 O18 3-)n,3n(C2 H8 N1 1+),0.75n(C3 H7 N1 O1),2n(H2 O1)
;
_journal_coden_Cambridge 1290
_journal_year 2014
_journal_page_first 407
_journal_name_full 'Eur.J.Inorg.Chem. '
loop_
_publ_author_name
"Ji-Yong Zou"
"Wei Shi"
"Na Xu"
"Hong-Ling Gao"
"Jian-Zhong Cui"
"Peng Cheng"
_chemical_name_systematic
;
catena-[tris(Dimethylammonium) 
tris(\m~3~-4,5-dicarboxylato-1,2,3-triazolato)-tris(\m~2~-formato)-tri-cobalt-
;
_cell_volume   2221.159
_exptl_crystal_colour 'red'
_exptl_crystal_density_diffrn 1.329
_exptl_crystal_description 'block'
_diffrn_ambient_temperature 123.3
_refine_special_details
;
The SQUEEZE/PLATON program was used to model the disordered cations and 
solvent molecules.
;
#These two values have been output from a single CSD field.
_refine_ls_R_factor_gt 0.0659
_refine_ls_wR_factor_gt 0.0659
_symmetry_cell_setting hexagonal
_symmetry_space_group_name_H-M 'P -6 2 c'
_symmetry_Int_Tables_number 190
loop_
_symmetry_equiv_pos_site_id
_symmetry_equiv_pos_as_xyz
1 x,y,z
2 -x+y,-x,1/2-z
3 -y,x-y,z
4 x,y,1/2-z
5 -x+y,-x,z
6 -y,x-y,1/2-z
7 y,x,1/2+z
8 x-y,-y,-z
9 -x,-x+y,1/2+z
10 y,x,-z
11 x-y,-y,1/2+z
12 -x,-x+y,-z
_cell_length_a 14.2705(10)
_cell_length_b 14.2705(10)
_cell_length_c 12.5942(9)
_cell_angle_alpha 90
_cell_angle_beta 90
_cell_angle_gamma 120
_cell_formula_units_Z 2
loop_
_atom_type_symbol
_atom_type_radius_bond
C 0.68
H 0.23
Co 1.26
Dy 1.92
N 0.68
O 0.68
loop_
_atom_site_label
_atom_site_type_symbol
_atom_site_fract_x
_atom_site_fract_y
_atom_site_fract_z
Dy1 Dy 0.33330 0.66670 0.25000
Co1 Co 0.75166(17) 0.75166(17) 0.50000
O1 O 0.9149(16) 0.7849(19) 0.4983(10)
O2 O 0.5833(7) 0.7034(9) 0.4845(6)
O3 O 0.4581(8) 0.6779(9) 0.3666(7)
N1 N 0.7280(8) 0.7383(8) 0.3323(6)
N2 N 0.7875(13) 0.7477(11) 0.25000
C1 C 0.5534(11) 0.6993(11) 0.3886(9)
C2 C 1.00000 0.8518(13) 0.50000
H1 H 1.00000 0.91700 0.50000
C3 C 0.6295(10) 0.7159(11) 0.3034(8)
O1K O 1.0851(16) 0.8700(19) 0.5017(10)
O2C O 0.5833(7) 0.7034(9) 0.0155(6)
O3C O 0.4581(8) 0.6779(9) 0.1334(7)
N1C N 0.7280(8) 0.7383(8) 0.1677(6)
C1C C 0.5534(11) 0.6993(11) 0.1114(9)
C3C C 0.6295(10) 0.7159(11) 0.1966(8)
Co1A Co 0.00000(17) 0.24834(17) 0.00000
O1A O -0.1300(16) 0.0851(19) 0.0017(10)
O2A O 0.1201(7) 0.4167(9) 0.0155(6)
O3A O 0.2198(8) 0.5419(9) 0.1334(7)
N1A N 0.0103(8) 0.2720(8) 0.1677(6)
N2A N -0.0398(13) 0.2125(11) 0.25000
C1A C 0.1459(11) 0.4466(11) 0.1114(9)
C2A C -0.14820 0.0000(13) 0.00000
H1A H -0.08300 0.00000 0.00000
C3A C 0.0864(10) 0.3705(11) 0.1966(8)
O1F O -0.2151(16) -0.0851(19) -0.0017(10)
O2D O 0.1201(7) 0.4167(9) 0.4845(6)
O3D O 0.2198(8) 0.5419(9) 0.3666(7)
N1D N 0.0103(8) 0.2720(8) 0.3323(6)
C1D C 0.1459(11) 0.4466(11) 0.3886(9)
C3D C 0.0864(10) 0.3705(11) 0.3034(8)
Co1B Co 0.24834(17) 1.00000(17) 0.50000
O1B O 0.2151(16) 1.1300(19) 0.4983(10)
O2B O 0.2966(7) 0.8799(9) 0.4845(6)
O3B O 0.3221(8) 0.7802(9) 0.3666(7)
N1B N 0.2617(8) 0.9897(8) 0.3323(6)
N2B N 0.2523(13) 1.0398(11) 0.25000
C1B C 0.3007(11) 0.8541(11) 0.3886(9)
C2B C 0.14820 1.1482(13) 0.50000
H1B H 0.08300 1.08300 0.50000
C3B C 0.2841(10) 0.9136(11) 0.3034(8)
O1G O 0.1300(16) 1.2151(19) 0.5017(10)
O2E O 0.2966(7) 0.8799(9) 0.0155(6)
O3E O 0.3221(8) 0.7802(9) 0.1334(7)
N1E N 0.2617(8) 0.9897(8) 0.1677(6)
C1E C 0.3007(11) 0.8541(11) 0.1114(9)
C3E C 0.2841(10) 0.9136(11) 0.1966(8)
Co1B* Co 1.24834(17) 1.00000(17) 0.50000
Co1C Co -0.24834(17) -0.24834(17) 0.00000
Co1C* Co 0.75166(17) 0.75166(17) 0.00000
Co1D Co 0.00000(17) 0.24834(17) 0.50000
Co1D* Co 0.00000(17) 1.24834(17) 0.50000
Co1E Co 0.24834(17) 1.00000(17) 0.00000
O1I O 0.7849(16) 0.9149(19) 0.5017(10)
O1J O 0.1300(16) 0.2151(19) -0.0017(10)
O1K* O 0.0851(16) 0.8700(19) 0.5017(10)
O2I O 0.7034(7) 0.5833(9) 0.5155(6)
O2J O -0.1201(7) 0.2966(9) -0.0155(6)
O2K O 0.4167(7) 1.1201(9) 0.5155(6)
N1I N 0.7383(8) 0.7280(8) 0.6677(6)
N1J N -0.0103(8) 0.2617(8) -0.1677(6)
N1K N 0.2720(8) 1.0103(8) 0.6677(6)
#END
