
#######################################################################
#
#                 Cambridge Crystallographic Data Centre
#                                CCDC
#
#######################################################################
#
# If this CIF has been generated from an entry in the Cambridge
# Structural Database, then it will include bibliographic, chemical,
# crystal, experimental, refinement or atomic coordinate data resulting
# from the CCDC's data processing and validation procedures.
#
#######################################################################

data_CSD_CIF_RIPSIU
_audit_creation_date 2013-12-03
_audit_creation_method CSD-ConQuest-V1
_database_code_CSD RIPSIU
_database_code_depnum_ccdc_archive 'CCDC 954455'
_chemical_formula_sum 'C44 H82 Cu4 N8 O65 Si1 W12'
_chemical_formula_moiety
;
(C32 H36 Cu3 N4 O12 2+)n,9n(H2 O1),n(C12 H28 Cu1 N4 O44 Si1 W12 2-)
;
_journal_coden_Cambridge 1290
_journal_year 2014
_journal_page_first 345
_journal_name_full 'Eur.J.Inorg.Chem. '
loop_
_publ_author_name
"Mei-Lin Wei"
"Jing-Jing Sun"
"Xian-Ying Duan"
_chemical_name_systematic
;
catena-[bis(\m-2,2'-[hydrazine-1,2-diylidenedimethylylidene]bis(6-methoxypheno
lato))-tetraaqua-tri-copper 
hexacosakis(\m-oxo)-(\m-silicato)-tetrakis(N,N-dimethylformamide)-decaoxo-copp
er-dodeca-tungsten nonahydrate]
;
_cell_volume   2408.571
_exptl_crystal_colour 'red'
_exptl_crystal_density_diffrn 2.931
_exptl_crystal_description 'block'
_diffrn_ambient_temperature 296
_refine_special_details
;
The structure is disordered.

;
#These two values have been output from a single CSD field.
_refine_ls_R_factor_gt 0.0991
_refine_ls_wR_factor_gt 0.0991
_symmetry_cell_setting triclinic
_symmetry_space_group_name_H-M 'P -1'
_symmetry_Int_Tables_number 2
loop_
_symmetry_equiv_pos_site_id
_symmetry_equiv_pos_as_xyz
1 x,y,z
2 -x,-y,-z
_cell_length_a 13.4738(8)
_cell_length_b 14.0908(7)
_cell_length_c 14.5183(6)
_cell_angle_alpha 106.799(3)
_cell_angle_beta 90.433(3)
_cell_angle_gamma 112.880(3)
_cell_formula_units_Z 1
loop_
_atom_type_symbol
_atom_type_radius_bond
C 0.68
H 0.23
Cu 1.32
N 0.68
O 0.68
Si 1.20
W 1.62
loop_
_atom_site_label
_atom_site_type_symbol
_atom_site_fract_x
_atom_site_fract_y
_atom_site_fract_z
W1 W 0.67394(7) 0.13337(7) 0.72305(5)
O1 O 0.7577(15) 0.1960(13) 0.8286(11)
O2 O 0.7471(18) 0.0557(13) 0.6503(12)
O3 O 0.5628(13) 0.1802(13) 0.7525(16)
O4 O 0.7301(16) 0.2375(14) 0.6591(13)
O5 O 0.5825(13) -0.0001(14) 0.7393(16)
O6 O 0.6253(18) 0.0741(17) 0.5554(17)
W2 W 0.76019(7) -0.00381(8) 0.51683(6)
W3 W 0.41086(7) 0.13103(8) 0.70778(6)
W4 W 0.73524(6) 0.23946(6) 0.52861(6)
W5 W 0.44228(7) -0.11086(6) 0.69200(5)
Si1 Si 0.50000 0.00000 0.50000
O7 O 0.569(2) -0.0729(19) 0.4547(18)
O8 O 0.7902(15) 0.1367(14) 0.5029(13)
O9 O 0.8805(11) -0.0040(12) 0.5241(11)
O10 O 0.6724(17) -0.1416(16) 0.5227(14)
O11 O 0.7210(16) -0.0611(15) 0.3779(13)
O12 O 0.3902(11) 0.0003(13) 0.7254(15)
O13 O 0.3683(12) 0.1879(12) 0.8085(11)
O14 O 0.452(2) 0.2475(18) 0.6525(17)
O15 O 0.5501(16) 0.1024(16) 0.4673(15)
O16 O 0.8441(11) 0.3545(12) 0.5450(9)
O17 O 0.6274(13) 0.2938(14) 0.5481(12)
O18 O 0.6896(12) 0.1951(14) 0.3943(11)
O19 O 0.4156(14) -0.1603(15) 0.7851(12)
O20 O 0.5040(14) -0.1982(14) 0.6187(12)
W6 W 0.52558(7) -0.24423(6) 0.48189(7)
Cu1 Cu 1.00000 0.50000 0.50000
O21 O 0.5352(12) -0.3583(12) 0.4749(11)
O22 O 1.1041(11) 0.5289(12) 0.6097(10)
O23 O 1.0323(12) 0.3823(13) 0.4324(12)
C1 C 1.196(2) 0.5179(16) 0.5945(15)
C2 C 0.973(3) 0.305(3) 0.372(2)
N1 N 1.2682(15) 0.5441(15) 0.6661(14)
H1 H 1.20840 0.49100 0.53130
N2 N 0.9614(13) 0.2008(12) 0.3422(12)
H2 H 0.92320 0.31770 0.33740
C3 C 1.253(2) 0.583(2) 0.7660(16)
C4 C 1.368(3) 0.536(3) 0.645(3)
C5 C 1.035(2) 0.177(3) 0.401(3)
C6 C 0.889(2) 0.114(2) 0.263(3)
H3 H 1.18110 0.58140 0.76870
H4 H 1.30590 0.65540 0.79590
H5 H 1.26080 0.53630 0.80010
H6 H 1.36600 0.50860 0.57580
H7 H 1.37950 0.48800 0.67470
H8 H 1.42700 0.60680 0.66970
H9 H 1.07990 0.24210 0.45100
H10 H 1.07930 0.14960 0.35930
H11 H 0.99160 0.12330 0.42920
H12 H 0.84650 0.13950 0.23200
H13 H 0.84190 0.05750 0.28700
H14 H 0.93000 0.08570 0.21790
Cu2 Cu 0.00000 -0.50000 0.00000
Cu3 Cu 0.0236(2) -0.70560(19) 0.05271(17)
N3 N 0.0408(13) -0.4883(11) 0.1374(10)
N4 N 0.0783(15) -0.5640(11) 0.1517(11)
O24 O -0.0781(16) -0.2080(14) 0.0632(10)
O25 O -0.0064(10) -0.3581(10) 0.0484(8)
O26 O 0.0681(13) -0.7663(10) 0.1321(11)
O27 O 0.1515(14) -0.882(1) 0.1860(12)
O28 O -0.148(2) -0.8166(19) 0.0283(17)
O29 O -0.1987(18) -0.5840(17) 0.0116(16)
C7 C -0.109(3) -0.117(2) 0.0680(18)
H15 H -0.11760 -0.11270 0.00390
H16 H -0.05390 -0.05070 0.10910
H17 H -0.17690 -0.13000 0.09400
C8 C -0.0613(6) -0.2279(6) 0.1490(6)
C9 C -0.0885(12) -0.1797(8) 0.2376(4)
H18 H -0.11520 -0.12690 0.24260
C10 C -0.0759(7) -0.2102(6) 0.3185(7)
H19 H -0.09310 -0.17890 0.37840
C11 C -0.0361(7) -0.2902(7) 0.3046(7)
H20 H -0.02280 -0.30900 0.35830
C12 C -0.0151(12) -0.3439(9) 0.2150(4)
C13 C -0.0273(9) -0.3121(7) 0.1348(8)
C14 C 0.0238(14) -0.4265(15) 0.2140(13)
H21 H 0.03740 -0.43550 0.27310
C15 C 0.1569(15) -0.5362(15) 0.2182(14)
H22 H 0.19350 -0.46220 0.25040
C16 C 0.3302(7) -0.6153(4) 0.3468(10)
H23 H 0.38820 -0.58220 0.39660
C17 C 0.1931(7) -0.6021(6) 0.2473(8)
C18 C 0.2849(8) -0.5548(9) 0.3160(11)
H24 H 0.31730 -0.47960 0.34240
C19 C 0.2866(8) -0.7268(6) 0.3011(8)
H25 H 0.31700 -0.76880 0.31930
C20 C 0.1984(6) -0.7761(8) 0.2286(9)
C21 C 0.1529(10) -0.7135(6) 0.2014(10)
C22 C 0.194(2) -0.949(2) 0.211(2)
H26 H 0.15080 -1.02360 0.17460
H27 H 0.19350 -0.93980 0.27930
H28 H 0.26770 -0.92980 0.19690
O30 O -0.262(3) -1.002(3) 0.017(3)
O31 O -0.324(5) -0.542(5) -0.047(4)
O32 O -0.582(5) -1.151(5) 0.009(5)
O33? O -0.344(4) -1.018(3) 0.033(3)
O34? O -0.434(4) -1.142(4) -0.009(4)
O35? O -0.436(8) -1.282(8) -0.068(7)
O36? O -0.323(4) -0.433(4) 0.015(4)
O37? O -0.421(4) -0.556(4) -0.129(4)
O38? O -0.396(5) -0.444(5) -0.076(5)
O39? O 0.5043(17) 0.0266(17) 0.6140(16)
O6A O 0.3747(18) -0.0741(17) 0.4446(17)
O7A O 0.431(2) 0.0729(19) 0.5453(18)
O15A O 0.4499(16) -0.1024(16) 0.5327(15)
W1A W 0.32606(7) -0.13337(7) 0.27695(5)
O1A O 0.2423(15) -0.1960(13) 0.1714(11)
O2A O 0.2529(18) -0.0557(13) 0.3497(12)
O3A O 0.4372(13) -0.1802(13) 0.2475(16)
O4A O 0.2699(16) -0.2375(14) 0.3409(13)
O5A O 0.4175(13) 0.0001(14) 0.2607(16)
W2A W 0.23981(7) 0.00381(8) 0.48317(6)
W3A W 0.58914(7) -0.13103(8) 0.29222(6)
W4A W 0.26476(6) -0.23946(6) 0.47139(6)
W5A W 0.55772(7) 0.11086(6) 0.30800(5)
O8A O 0.2098(15) -0.1367(14) 0.4971(13)
O9A O 0.1195(11) 0.0040(12) 0.4759(11)
O10A O 0.3276(17) 0.1416(16) 0.4773(14)
O11A O 0.2790(16) 0.0611(15) 0.6221(13)
O12A O 0.6098(11) -0.0003(13) 0.2746(15)
O13A O 0.6317(12) -0.1879(12) 0.1915(11)
O14A O 0.548(2) -0.2475(18) 0.3475(17)
O16A O 0.1559(11) -0.3545(12) 0.4550(9)
O17A O 0.3726(13) -0.2938(14) 0.4519(12)
O18A O 0.3104(12) -0.1951(14) 0.6057(11)
O19A O 0.5844(14) 0.1603(15) 0.2149(12)
O20A O 0.4960(14) 0.1982(14) 0.3813(12)
W6A W 0.47442(7) 0.24423(6) 0.51811(7)
O21A O 0.4648(12) 0.3583(12) 0.5251(11)
O22A O 0.8959(11) 0.4711(12) 0.3903(10)
C1A C 0.804(2) 0.4821(16) 0.4055(15)
N1A N 0.7318(15) 0.4559(15) 0.3339(14)
H1A H 0.79160 0.50900 0.46870
C3A C 0.747(2) 0.417(2) 0.2340(16)
C4A C 0.632(3) 0.464(3) 0.355(3)
H3A H 0.81890 0.41860 0.23130
H4A H 0.69410 0.34460 0.20410
H5A H 0.73920 0.46370 0.19990
H6A H 0.63400 0.49140 0.42420
H7A H 0.62050 0.51200 0.32530
H8A H 0.57300 0.39320 0.33030
O23A O 0.9677(12) 0.6177(13) 0.5676(12)
C2A C 1.027(3) 0.695(3) 0.628(2)
N2A N 1.0386(13) 0.7992(12) 0.6578(12)
H2A H 1.07680 0.68230 0.66260
C5A C 0.965(2) 0.823(3) 0.599(3)
C6A C 1.111(2) 0.886(2) 0.737(3)
H9A H 0.92010 0.75790 0.54900
H10A H 0.92070 0.85040 0.64070
H11A H 1.00840 0.87670 0.57080
H12A H 1.15350 0.86050 0.76800
H13A H 1.15810 0.94250 0.71300
H14A H 1.07000 0.91430 0.78210
O16A* O 1.1559(11) 0.6455(12) 0.4550(9)
Cu1* Cu 0.00000 -0.50000 0.50000
Cu3A Cu -0.0236(2) -0.29440(19) -0.05271(17)
N3A N -0.0408(13) -0.5117(11) -0.1374(10)
N4A N -0.0783(15) -0.4360(11) -0.1517(11)
O24A O 0.0781(16) -0.7920(14) -0.0632(10)
O25A O 0.0064(10) -0.6419(10) -0.0484(8)
O26A O -0.0681(13) -0.2337(10) -0.1321(11)
O27A O -0.1515(14) -0.118(1) -0.1860(12)
O28A O 0.148(2) -0.1834(19) -0.0283(17)
O29A O 0.1987(18) -0.4160(17) -0.0116(16)
C7A C 0.109(3) -0.883(2) -0.0680(18)
H15A H 0.11760 -0.88730 -0.00390
H16A H 0.05390 -0.94930 -0.10910
H17A H 0.17690 -0.87000 -0.09400
C8A C 0.0613(6) -0.7721(6) -0.1490(6)
C9A C 0.0885(12) -0.8203(8) -0.2376(4)
H18A H 0.11520 -0.87310 -0.24260
C10A C 0.0759(7) -0.7898(6) -0.3185(7)
H19A H 0.09310 -0.82110 -0.37840
C11A C 0.0361(7) -0.7098(7) -0.3046(7)
H20A H 0.02280 -0.69100 -0.35830
C12A C 0.0151(12) -0.6561(9) -0.2150(4)
C13A C 0.0273(9) -0.6879(7) -0.1348(8)
C14A C -0.0238(14) -0.5735(15) -0.2140(13)
H21A H -0.03740 -0.56450 -0.27310
C15A C -0.1569(15) -0.4638(15) -0.2182(14)
H22A H -0.19350 -0.53780 -0.25040
C16A C -0.3302(7) -0.3847(4) -0.3468(10)
H23A H -0.38820 -0.41780 -0.39660
C17A C -0.1931(7) -0.3979(6) -0.2473(8)
C18A C -0.2849(8) -0.4452(9) -0.3160(11)
H24A H -0.31730 -0.52040 -0.34240
C19A C -0.2866(8) -0.2732(6) -0.3011(8)
H25A H -0.31700 -0.23120 -0.31930
C20A C -0.1984(6) -0.2239(8) -0.2286(9)
C21A C -0.1529(10) -0.2865(6) -0.2014(10)
C22A C -0.194(2) -0.051(2) -0.211(2)
H26A H -0.15080 0.02360 -0.17460
H27A H -0.19350 -0.06020 -0.27930
H28A H -0.26770 -0.07020 -0.19690
#END
