
#######################################################################
#
#                 Cambridge Crystallographic Data Centre
#                                CCDC
#
#######################################################################
#
# If this CIF has been generated from an entry in the Cambridge
# Structural Database, then it will include bibliographic, chemical,
# crystal, experimental, refinement or atomic coordinate data resulting
# from the CCDC's data processing and validation procedures.
#
#######################################################################

data_CSD_CIF_RIRSER
_audit_creation_date 2008-03-06
_audit_creation_method CSD-ConQuest-V1
_database_code_CSD RIRSER
_database_code_depnum_ccdc_archive 'CCDC 623380'
_chemical_formula_sum 'C6 H22 Fe2 N2 O16 P2'
_chemical_formula_moiety
;
(C2 H10 N2 2+)n,n(C4 H8 Fe2 O14 P2 2-),2n(H2 O1)
;
_journal_coden_Cambridge 211
_journal_volume 60
_journal_year 2007
_journal_page_first 2541
_journal_name_full 'J.Coord.Chem. '
loop_
_publ_author_name
"Zhen-Gang Sun"
"Da-Peng Dong"
"Jing Li"
"Lian-Yi Cui"
"Yan-Yu Zhu"
"Jing Zhang"
"Yan Zhao"
"Wan-Sheng You"
"Zai-Ming Zhu"
_chemical_name_systematic
;
catena-[Ethylenediaminium 
bis(\m~3~-2-hydroxyphosphonatoacetato-O,O',O'',O''',O'''')-diaqua-di-iron(ii) 
dihydrate]
;
_cell_volume    871.584
_exptl_crystal_colour 'colorless'
_exptl_crystal_density_diffrn 2.103
_exptl_crystal_description 'block'
_diffrn_ambient_temperature 295
#These two values have been output from a single CSD field.
_refine_ls_R_factor_gt 0.029
_refine_ls_wR_factor_gt 0.029
_symmetry_cell_setting monoclinic
_symmetry_space_group_name_H-M 'P 21/n'
_symmetry_Int_Tables_number 14
loop_
_symmetry_equiv_pos_site_id
_symmetry_equiv_pos_as_xyz
1 x,y,z
2 1/2-x,1/2+y,1/2-z
3 -x,-y,-z
4 -1/2+x,-1/2-y,-1/2+z
_cell_length_a 8.4523(8)
_cell_length_b 9.8196(9)
_cell_length_c 10.9217(10)
_cell_angle_alpha 90
_cell_angle_beta 105.950(1)
_cell_angle_gamma 90
_cell_formula_units_Z 2
loop_
_atom_type_symbol
_atom_type_radius_bond
C 0.68
H 0.23
Fe 1.34
N 0.68
O 0.68
P 1.05
loop_
_atom_site_label
_atom_site_type_symbol
_atom_site_fract_x
_atom_site_fract_y
_atom_site_fract_z
Fe1 Fe 0.05695(4) 0.29457(3) 0.66011(3)
P1 P -0.07113(6) 0.61809(5) 0.62371(5)
O1 O -0.1370(2) 0.71851(17) 0.70368(17)
O2 O -0.07951(19) 0.47295(16) 0.67011(16)
O3 O -0.15261(19) 0.63488(17) 0.48153(15)
O4 O 0.24168(19) 0.64564(16) 0.77621(15)
H1 H 0.24570 0.56540 0.79750
O5 O 0.2629(2) 0.88101(16) 0.67828(16)
O6 O 0.1045(2) 0.83032(18) 0.48523(16)
O7 O -0.0526(2) 0.18751(18) 0.78468(18)
H2 H -0.01380 0.10720 0.79570
H3 H -0.03130 0.22850 0.85590
C1 C 0.1483(3) 0.6581(2) 0.6457(2)
H4 H 0.19240 0.59300 0.59550
C2 C 0.1720(3) 0.8003(2) 0.5997(2)
O8 O 0.0188(3) 0.9286(2) 0.8715(2)
H5 H 0.05960 0.98340 0.82810
H6 H -0.08100 0.94960 0.86360
N1 N 0.7064(3) 0.9607(2) 0.6116(2)
H7 H 0.66790 0.95260 0.68080
H8 H 0.771(4) 1.024(3) 0.589(3)
H9 H 0.768(4) 0.888(4) 0.635(3)
C3 C 0.5521(3) 0.9361(2) 0.5107(2)
H10 H 0.49180 0.86190 0.53550
H11 H 0.57730 0.91060 0.43230
Fe1B Fe -0.05695(4) 0.70543(3) 0.33989(3)
Fe1A Fe 0.44305(4) 0.79457(3) 0.83989(3)
Fe1C Fe -0.44305(4) 0.20543(3) 0.16011(3)
P1B P 0.07113(6) 0.38191(5) 0.37629(5)
O1B O 0.1370(2) 0.28149(17) 0.29632(17)
O2B O 0.07951(19) 0.52705(16) 0.32989(16)
O3B O 0.15261(19) 0.36512(17) 0.51847(15)
O4B O -0.24168(19) 0.35436(16) 0.22379(15)
O4A O 0.25832(19) 0.14564(16) 0.72379(15)
O4C O -0.25832(19) 0.85436(16) 0.27621(15)
H1B H -0.24570 0.43460 0.20250
H1A H 0.25430 0.06540 0.70250
H1C H -0.25430 0.93460 0.29750
O5B O -0.2629(2) 0.11899(16) 0.32172(16)
O5A O 0.2371(2) 0.38101(16) 0.82172(16)
O5C O -0.2371(2) 0.61899(16) 0.17828(16)
O6B O -0.1045(2) 0.16968(18) 0.51477(16)
O7B O 0.0526(2) 0.81249(18) 0.21532(18)
H2B H 0.01380 0.89280 0.20430
H3B H 0.03130 0.77150 0.14410
C1B C -0.1483(3) 0.3419(2) 0.3543(2)
H4B H -0.19240 0.40700 0.40450
C2B C -0.1720(3) 0.1997(2) 0.4003(2)
N1B N 0.2936(3) 1.0393(2) 0.3884(2)
H7B H 0.33210 1.04740 0.31920
H8B H 0.229(4) 0.976(3) 0.411(3)
H9B H 0.232(4) 1.112(4) 0.365(3)
C3B C 0.4479(3) 1.0639(2) 0.4893(2)
H10B H 0.50820 1.13810 0.46450
H11B H 0.42270 1.08940 0.56770
#END
