
#######################################################################
#
#                 Cambridge Crystallographic Data Centre
#                                CCDC
#
#######################################################################
#
# If this CIF has been generated from an entry in the Cambridge
# Structural Database, then it will include bibliographic, chemical,
# crystal, experimental, refinement or atomic coordinate data resulting
# from the CCDC's data processing and validation procedures.
#
#######################################################################

data_CSD_CIF_RIVDEG
_audit_creation_date 2008-07-04
_audit_creation_method CSD-ConQuest-V1
_database_code_CSD RIVDEG
_database_code_depnum_ccdc_archive 'CCDC 633795'
_chemical_formula_sum 'C48 H44 As1 Cu3 Mo12 N8 O43 V2'
_chemical_formula_moiety
;
(C12 H12 N2 2+)n,n(C24 H20 As1 Cu2 Mo12 N4 O42 V2 2-),n(C12 H10 Cu1 N2),n(H2 
O1)
;
_journal_coden_Cambridge 9
_journal_volume 46
_journal_year 2007
_journal_page_first 11183
_journal_name_full 'Inorg.Chem. '
loop_
_publ_author_name
"Jing-quan Sha"
"Jun Peng"
"Hong-sheng Liu"
"Jing Chen"
"Ai-xiang Tian"
"Peng-peng Zhang"
_chemical_name_systematic
;
catena-(bis(4-pyridinium)ethylene 
(\m~12~-arsenato)-octakis(\m~3~-oxo)-bis(\m~2~-bis(4-pyridyl)ethylene)-octadec
akis(\m~2~-oxo)-dodecaoxo-di-copper-dodeca-molybdenum-di-vanadium 
(\m~2~-bis(4-pyridyl)ethylene)-copper monohydrate)
;
_cell_volume   1841.952
_exptl_crystal_colour 'black'
_exptl_crystal_density_diffrn 2.645
_exptl_crystal_description 'block'
_diffrn_ambient_temperature 293
_refine_special_details
;
Five keggin O atoms are disordered by symmetry with occupancy 0.50.

;
#These two values have been output from a single CSD field.
_refine_ls_R_factor_gt 0.0763
_refine_ls_wR_factor_gt 0.0763
_symmetry_cell_setting triclinic
_symmetry_space_group_name_H-M 'P -1'
_symmetry_Int_Tables_number 2
loop_
_symmetry_equiv_pos_site_id
_symmetry_equiv_pos_as_xyz
1 x,y,z
2 -x,-y,-z
_cell_length_a 12.274(4)
_cell_length_b 12.872(4)
_cell_length_c 13.108(4)
_cell_angle_alpha 93.971(5)
_cell_angle_beta 104.876(4)
_cell_angle_gamma 110.758(5)
_cell_formula_units_Z 1
loop_
_atom_type_symbol
_atom_type_radius_bond
C 0.68
H 0.23
As 1.21
Cu 1.52
Mo 1.32
N 0.68
O 0.68
V 0.98
loop_
_atom_site_label
_atom_site_type_symbol
_atom_site_fract_x
_atom_site_fract_y
_atom_site_fract_z
As1 As 0.50000 0.00000 0.50000
Mo1 Mo 0.47893(13) -0.06196(10) 0.75815(8)
Mo2 Mo 0.76772(11) 0.11445(10) 0.72555(8)
Mo3 Mo 0.21497(12) -0.17135(11) 0.53224(11)
Mo4 Mo 0.44194(13) -0.28162(10) 0.54838(11)
Mo5 Mo 0.53477(12) 0.21781(11) 0.70587(9)
Mo6 Mo 0.26554(12) 0.10591(11) 0.4821(1)
V1 V 0.6588(7) -0.1322(5) 0.7196(5)
Cu1 Cu 0.21933(18) 0.37145(15) 0.50604(11)
Cu2 Cu 0.00000 0.50000 0.50000
O1 O 0.4329(12) -0.1006(11) 0.5728(10)
O2 O 0.5525(15) 0.0483(12) 0.6234(11)
O3 O 0.6497(9) -0.0030(8) 0.7772(10)
O4 O 0.4179(9) -0.4120(7) 0.5677(7)
O5 O 0.8904(9) 0.1575(8) 0.8320(8)
O6 O 0.1548(9) 0.1548(8) 0.4708(7)
O7 O 0.0838(8) -0.2502(8) 0.5446(7)
O8 O 0.4210(9) -0.3012(13) 0.3991(9)
O9 O 0.4799(9) 0.0829(8) 0.7702(11)
O10 O 0.6921(11) 0.2118(9) 0.7482(11)
O11 O 0.4951(10) -0.1950(11) 0.6921(10)
O12 O 0.6178(9) -0.2151(12) 0.5675(9)
O13 O 0.8268(15) 0.1867(9) 0.6223(9)
O14 O 0.3477(15) -0.0339(12) 0.4521(11)
O15 O 0.5477(10) 0.3128(8) 0.7992(10)
O16 O 0.4690(11) -0.0934(10) 0.8783(8)
O17 O 0.2877(10) -0.2805(11) 0.5271(11)
O18 O 0.7798(14) -0.0207(8) 0.6581(10)
O19 O 0.3677(9) 0.1694(13) 0.6223(10)
O20 O 0.2029(16) -0.0318(9) 0.5337(10)
O21 O 0.3127(11) -0.1239(12) 0.6799(12)
O22 O 0.5266(13) -0.1192(12) 0.4695(10)
O23 O 0.722(2) -0.177(2) 0.817(2)
O24 O 0.270(3) 0.833(2) 0.9847(17)
O25 O 0.496(5) 0.694(3) -0.051(6)
N1 N 0.2364(9) 0.3727(8) 0.6528(8)
N2 N 0.7632(12) 0.9384(11) 0.2311(10)
N3 N 0.2028(10) 0.3680(8) 1.3596(7)
N4 N 0.0133(11) 0.5061(8) 0.6461(8)
C1 C 0.1171(14) 0.5746(11) 0.7239(10)
H1 H 0.18210 0.62130 0.70330
C2 C -0.0688(13) 0.4476(10) 0.7890(9)
H2 H -0.13320 0.40000 0.80980
C3 C 0.0955(12) 0.2991(10) 1.2816(8)
H3 H 0.02770 0.25880 1.30230
C4 C 0.1477(11) 0.306(1) 0.7881(9)
H4 H 0.08100 0.25760 0.80550
C5 C 0.0869(11) 0.2892(10) 1.1765(9)
H5 H 0.01270 0.24360 1.12650
C6 C -0.0822(15) 0.4439(11) 0.6783(9)
H6 H -0.15630 0.39890 0.62790
C7 C 0.1402(11) 0.3085(11) 0.6836(9)
H7 H 0.06700 0.26480 0.63140
C8 C 0.1872(11) 0.3459(10) 1.1405(8)
C9 C 0.8840(16) 0.9870(12) 0.2645(12)
H8 H 0.92430 1.01270 0.33740
C10 C 0.0329(10) 0.5168(10) 0.8654(10)
C11 C 0.1733(10) 0.3371(9) 1.0258(8)
H9 H 0.09570 0.29570 0.97860
C12 C 0.9516(15) 1.0003(12) 0.1925(16)
H10 H 1.03660 1.03070 0.21520
C13 C 0.2893(11) 0.4139(10) 1.2192(9)
H11 H 0.35720 0.45670 1.19970
C14 C 0.8826(18) 0.9645(13) 0.0808(13)
C15 C 0.2538(11) 0.3747(10) 0.8714(9)
C16 C 0.0443(11) 0.5276(10) 0.9785(10)
C17 C 0.2979(14) 0.4230(11) 1.3258(10)
H12 H 0.37180 0.46870 1.37600
C18 C 0.3496(12) 0.4394(16) 0.8383(9)
H13 H 0.42270 0.48520 0.88970
C19 C 0.9501(16) 0.9838(13) -0.0042(17)
H14 H 0.89930 0.96530 -0.07450
C20 C 0.1302(13) 0.5780(12) 0.8321(10)
H15 H 0.20500 0.62180 0.88230
C21 C 0.2625(12) 0.3835(11) 0.9841(9)
H16 H 0.33900 0.42640 1.03230
C22 C 0.7637(19) 0.9188(19) 0.0519(15)
H17 H 0.71860 0.89860 -0.02030
C23 C 0.707(2) 0.9013(19) 0.1284(17)
H18 H 0.62330 0.86030 0.10700
C24 C 0.3406(13) 0.4385(14) 0.7296(10)
H19 H 0.40730 0.48380 0.71010
Mo1A Mo 0.52107(13) 0.06196(10) 0.24185(8)
Mo2A Mo 0.23228(11) -0.11445(10) 0.27445(8)
Mo3A Mo 0.78503(12) 0.17135(11) 0.46776(11)
Mo4A Mo 0.55806(13) 0.28162(10) 0.45162(11)
Mo5A Mo 0.46523(12) -0.21781(11) 0.29413(9)
Mo6A Mo 0.73446(12) -0.10591(11) 0.5179(1)
V1A V 0.3412(7) 0.1322(5) 0.2804(5)
Cu1A Cu 0.78067(18) -0.37145(15) 0.49396(11)
Cu1* Cu 0.21933(18) 0.37145(15) 1.50604(11)
Cu1** Cu 0.21933(18) 0.37145(15) -0.49396(11)
Cu2* Cu 0.00000 0.50000 1.50000
O1A O 0.5671(12) 0.1006(11) 0.4272(10)
O2A O 0.4475(15) -0.0483(12) 0.3766(11)
O3A O 0.3503(9) 0.0030(8) 0.2228(10)
O4A O 0.5821(9) 0.4120(7) 0.4323(7)
O5A O 0.1096(9) -0.1575(8) 0.1680(8)
O6A O 0.8452(9) -0.1548(8) 0.5292(7)
O7A O 0.9162(8) 0.2502(8) 0.4554(7)
O8A O 0.5790(9) 0.3012(13) 0.6009(9)
O9A O 0.5201(9) -0.0829(8) 0.2298(11)
O10A O 0.3079(11) -0.2118(9) 0.2518(11)
O11A O 0.5049(10) 0.1950(11) 0.3079(10)
O12A O 0.3822(9) 0.2151(12) 0.4325(9)
O13A O 0.1732(15) -0.1867(9) 0.3777(9)
O14A O 0.6523(15) 0.0339(12) 0.5479(11)
O15A O 0.4523(10) -0.3128(8) 0.2008(10)
O16A O 0.5310(11) 0.0934(10) 0.1217(8)
O17A O 0.7123(10) 0.2805(11) 0.4729(11)
O18A O 0.2202(14) 0.0207(8) 0.3419(10)
O19A O 0.6323(9) -0.1694(13) 0.3777(10)
O20A O 0.7971(16) 0.0318(9) 0.4663(10)
O21A O 0.6873(11) 0.1239(12) 0.3201(12)
O22A O 0.4734(13) 0.1192(12) 0.5305(10)
O23A O 0.278(2) 0.177(2) 0.183(2)
N1* N 0.2364(9) 0.3727(8) -0.3472(8)
N1A N 0.7636(9) -0.3727(8) 0.3472(8)
N2A N 1.2368(12) 1.0616(11) -0.2311(10)
N3* N 0.2028(10) 0.3680(8) 0.3596(7)
N3A N 0.7972(10) -0.3680(8) 0.6404(7)
N4A N -0.0133(11) 0.4939(8) 1.3539(8)
N4A* N -0.0133(11) 0.4939(8) 0.3539(8)
C1A C -0.1171(14) 0.4254(11) 1.2761(10)
H1A H -0.18210 0.37870 1.29670
C2A C 0.0688(13) 0.5524(10) 1.2110(9)
H2A H 0.13320 0.60000 1.19020
C3* C 0.0955(12) 0.2991(10) 0.2816(8)
H3* H 0.02770 0.25880 0.30230
C4* C 0.1477(11) 0.306(1) -0.2119(9)
H4* H 0.08100 0.25760 -0.19450
C5* C 0.0869(11) 0.2892(10) 0.1765(9)
H5* H 0.01270 0.24360 0.12650
C6A C 0.0822(15) 0.5561(11) 1.3217(9)
H6A H 0.15630 0.60110 1.37210
C7* C 0.1402(11) 0.3085(11) -0.3164(9)
H7* H 0.06700 0.26480 -0.36860
C8* C 0.1872(11) 0.3459(10) 0.1405(8)
C9A C 1.1160(16) 1.0130(12) -0.2645(12)
H8A H 1.07570 0.98730 -0.33740
C10A C -0.0329(10) 0.4832(10) 1.1346(10)
C11* C 0.1733(10) 0.3371(9) 0.0258(8)
H9* H 0.09570 0.29570 -0.02140
C12A C 1.0484(15) 0.9997(12) -0.1925(16)
H10A H 0.96340 0.96930 -0.21520
C13* C 0.2893(11) 0.4139(10) 0.2192(9)
H11* H 0.35720 0.45670 0.19970
C14A C 1.1174(18) 1.0355(13) -0.0808(13)
C15* C 0.2538(11) 0.3747(10) -0.1286(9)
C16A C -0.0443(11) 0.4724(10) 1.0215(10)
C17* C 0.2979(14) 0.4230(11) 0.3258(10)
H12* H 0.37180 0.46870 0.37600
C18* C 0.3496(12) 0.4394(16) -0.1617(9)
H13* H 0.42270 0.48520 -0.11030
C19A C 1.0499(16) 1.0162(13) 0.0042(17)
H14A H 1.10070 1.03470 0.07450
C20A C -0.1302(13) 0.4220(12) 1.1679(10)
H15A H -0.20500 0.37820 1.11770
C21* C 0.2625(12) 0.3835(11) -0.0159(9)
H16* H 0.33900 0.42640 0.03230
C22A C 1.2363(19) 1.0812(19) -0.0519(15)
H17A H 1.28140 1.10140 0.02030
C23A C 1.293(2) 1.0987(19) -0.1284(17)
H18A H 1.37670 1.13970 -0.10700
C24* C 0.3406(13) 0.4385(14) -0.2704(10)
H19* H 0.40730 0.48380 -0.28990
#END
