
#######################################################################
#
#                 Cambridge Crystallographic Data Centre
#                                CCDC
#
#######################################################################
#
# If this CIF has been generated from an entry in the Cambridge
# Structural Database, then it will include bibliographic, chemical,
# crystal, experimental, refinement or atomic coordinate data resulting
# from the CCDC's data processing and validation procedures.
#
#######################################################################

data_CSD_CIF_RIWNAO
_audit_creation_date 2013-12-06
_audit_creation_method CSD-ConQuest-V1
_database_code_CSD RIWNAO
_database_code_depnum_ccdc_archive 'CCDC 933529'
_chemical_formula_sum 'C208 H303 Cd7 N23 Na2 O71'
_chemical_formula_moiety
;
(C64 H48 Cd3 Na1 O24 1-)2n,n(C32 H24 Cd1 O12 2-),4n(C2 H8 N1 1+),2n(C3 H7 N1 
O1),9n(H2 O1),17n(C2 H7 N1)
;
_journal_coden_Cambridge 1350
_journal_volume 16
_journal_year 2014
_journal_page_first 784
_journal_name_full 'CrystEngComm '
loop_
_publ_author_name
"Rui Luo"
"Heng Xu"
"Hao-Xue Gu"
"Xin Wang"
"Yan Xu"
"Xuan Shen"
"Weiwei Bao"
"Dun-Ru Zhu"
_chemical_name_systematic
;
catena-[tetrakis(dimethylammonium) 
bis(tetrakis(\m-2,2'-dimethoxybiphenyl-4,4'-dicarboxylato)-tri-cadmium-sodium)
 bis(\m-2,2'-dimethoxybiphenyl-4,4'-dicarboxylato)-cadmium dimethylamine 
N,N-dimethylformamide solvate nonahydrate]
;
_cell_volume  21053.009
_exptl_crystal_colour 'colorless'
_exptl_crystal_description 'block'
_diffrn_ambient_temperature 296
_refine_special_details
;
Disordered solvent molecules were not modelled and the disordered density was 
taken into account using the SQUEEZE/PLATON procedure.
;
#These two values have been output from a single CSD field.
_refine_ls_R_factor_gt 0.0565
_refine_ls_wR_factor_gt 0.0565
_symmetry_cell_setting tetragonal
_symmetry_space_group_name_H-M 'I -4 2 d'
_symmetry_Int_Tables_number 122
loop_
_symmetry_equiv_pos_site_id
_symmetry_equiv_pos_as_xyz
1 x,y,z
2 -x,-y,z
3 y,-x,-z
4 -y,x,-z
5 1/2-x,y,3/4-z
6 1/2+x,-y,3/4-z
7 1/2-y,-x,3/4+z
8 1/2+y,x,3/4+z
9 1/2+x,1/2+y,1/2+z
10 1/2-x,1/2-y,1/2+z
11 1/2+y,1/2-x,1/2-z
12 1/2-y,1/2+x,1/2-z
13 -x,1/2+y,1/4-z
14 x,1/2-y,1/4-z
15 -y,1/2-x,1/4+z
16 y,1/2+x,1/4+z
_cell_length_a 21.769(2)
_cell_length_b 21.769(2)
_cell_length_c 44.426(9)
_cell_angle_alpha 90
_cell_angle_beta 90
_cell_angle_gamma 90
_cell_formula_units_Z 4
loop_
_atom_type_symbol
_atom_type_radius_bond
C 0.68
H 0.23
Cd 1.44
N 0.68
Na 1.66
O 0.68
loop_
_atom_site_label
_atom_site_type_symbol
_atom_site_fract_x
_atom_site_fract_y
_atom_site_fract_z
Cd1 Cd -0.119549(14) -0.381783(14) -0.923975(6)
Cd2 Cd -0.12199(2) -0.25000 -0.87500
Na1 Na 0.00000 -0.50000 -0.92323(9)
O1 O -0.0747(2) -0.45961(19) -0.95409(9)
O2 O -0.1657(2) -0.4258(2) -0.96814(10)
O3 O -0.07913(19) -0.7956(2) -1.14698(11)
O4 O -0.17840(18) -0.80718(17) -1.14076(8)
O5 O -0.0510(3) -0.6560(3) -1.01662(15)
O6 O -0.2266(3) -0.6654(2) -1.05289(12)
O7 O -0.0442(2) -0.4248(2) -0.89132(11)
O8 O -0.05518(17) -0.32755(18) -0.88802(8)
O9 O 0.29894(18) -0.3893(2) -0.70124(8)
O10 O 0.21657(16) -0.3752(2) -0.67199(7)
O11 O 0.1378(4) -0.4625(3) -0.81632(19)
O12 O 0.0533(7) -0.3711(8) -0.7445(3)
C1 C -0.1174(3) -0.4621(2) -0.97032(12)
C2 C -0.1191(3) -0.5071(3) -0.99653(14)
C3 C -0.1654(3) -0.5074(3) -1.01766(14)
H1 H -0.19640 -0.47810 -1.01660
C4 C -0.1663(3) -0.5503(3) -1.04013(16)
H2 H -0.19800 -0.54890 -1.05420
C5 C -0.1225(3) -0.5951(3) -1.04285(15)
C6 C -0.0843(4) -0.6003(4) -1.01646(19)
C7 C -0.0796(4) -0.5566(4) -0.99653(17)
H3 H -0.04900 -0.55890 -0.98200
C8 C -0.1270(3) -0.6416(3) -1.06691(14)
C9 C -0.0774(3) -0.6527(3) -1.08388(16)
H4 H -0.04220 -0.62950 -1.08050
C10 C -0.0758(3) -0.6986(3) -1.10706(18)
H5 H -0.04050 -0.70450 -1.11850
C11 C -0.1274(3) -0.7338(2) -1.11205(13)
C12 C -0.1790(3) -0.7204(3) -1.09417(12)
H6 H -0.21560 -0.74090 -1.09800
C13 C -0.1770(3) -0.6771(3) -1.07081(14)
C14 C -0.1286(3) -0.7838(3) -1.13410(11)
C15 C -0.0082(6) -0.6691(7) -0.9878(3)
H7 H 0.01310 -0.70740 -0.99050
H8 H -0.03330 -0.67140 -0.97000
H9 H 0.02110 -0.63650 -0.98560
C16 C -0.2597(12) -0.6763(13) -1.0203(4)
H10 H -0.25840 -0.63890 -1.00890
H11 H -0.23850 -0.70810 -1.00960
H12 H -0.30170 -0.68820 -1.02340
C17 C -0.0295(2) -0.3737(3) -0.87922(12)
C18 C 0.0134(3) -0.3720(3) -0.85357(13)
C19 C 0.0498(4) -0.4238(4) -0.84663(19)
H13 H 0.04560 -0.46050 -0.85720
C20 C 0.0929(5) -0.4176(4) -0.8229(2)
C21 C 0.0908(4) -0.3715(4) -0.80279(16)
C22 C 0.0638(3) -0.3186(4) -0.81313(15)
H14 H 0.07340 -0.28140 -0.80400
C23 C 0.0217(3) -0.3196(3) -0.83723(14)
H15 H -0.00040 -0.28440 -0.84200
C24 C 0.1324(4) -0.3721(5) -0.77603(19)
C25 C 0.1075(5) -0.3641(6) -0.7473(2)
C26 C 0.1414(4) -0.3613(5) -0.7222(2)
H16 H 0.12390 -0.34940 -0.70400
C27 C 0.2038(3) -0.3767(4) -0.72396(14)
C28 C 0.2305(4) -0.3790(4) -0.75270(18)
H17 H 0.27300 -0.37830 -0.75470
C29 C 0.1942(4) -0.3823(5) -0.77761(18)
C30 C 0.2436(3) -0.3817(2) -0.69657(10)
C31 C 0.1704(12) -0.4846(12) -0.8451(4)
H18 H 0.19730 -0.51820 -0.84030
H19 H 0.19400 -0.45150 -0.85350
H20 H 0.14030 -0.49790 -0.85950
C32 C 0.016(1) -0.3488(13) -0.7207(4)
H21 H -0.01850 -0.32710 -0.72890
H22 H 0.03960 -0.32160 -0.70830
H23 H 0.00160 -0.38270 -0.70890
Cd3 Cd 0.00000 0.00000 -0.50000
O13 O 0.0314(3) -0.0867(3) -0.47462(13)
O14 O -0.0538(3) -0.0538(3) -0.45780(18)
O15 O 0.0833(3) -0.2641(3) -0.40571(16)
C33 C -0.0109(5) -0.0913(4) -0.45739(19)
C34 C -0.0149(4) -0.1370(4) -0.43146(18)
C35 C 0.0326(5) -0.1770(4) -0.43089(19)
H24 H 0.06260 -0.17360 -0.44570
C36 C 0.0389(5) -0.2241(4) -0.40873(17)
C37 C -0.0106(4) -0.2246(3) -0.38707(14)
C38 C -0.0567(4) -0.1840(4) -0.3899(2)
H25 H -0.08910 -0.18560 -0.37630
C39 C -0.0579(4) -0.1418(4) -0.41152(16)
H26 H -0.09080 -0.11470 -0.41230
C40 C 0.1421(6) -0.2569(7) -0.4210(3)
H27 H 0.16730 -0.29230 -0.41720
H28 H 0.16250 -0.22080 -0.41350
H29 H 0.13540 -0.25280 -0.44230
C41 C -0.2994(7) -0.4652(7) -0.9647(5)
H30 H -0.32280 -0.42820 -0.96210
H31 H -0.27990 -0.46470 -0.98400
H32 H -0.26870 -0.46780 -0.94920
C42 C -0.3217(11) -0.5809(7) -0.9785(5)
H33 H -0.35320 -0.59350 -0.99230
H34 H -0.31550 -0.61240 -0.96370
H35 H -0.28410 -0.57410 -0.98930
N1 N -0.3416(7) -0.5201(6) -0.9626(4)
H36 H -0.37830 -0.50900 -0.97020
H37 H -0.34730 -0.52860 -0.94300
C43? C -0.2819(5) -0.6994(6) -1.0578(3)
H38? H -0.29140 -0.69960 -1.07890
H39? H -0.31500 -0.68060 -1.04690
H40? H -0.27640 -0.74090 -1.05090
C44? C 0.1306(13) -0.5179(8) -0.8352(5)
H41? H 0.10590 -0.54750 -0.82470
H42? H 0.17030 -0.53520 -0.83930
H43? H 0.11100 -0.50700 -0.85380
C45? C 0.2948(8) -0.3974(10) -0.8097(4)
H44? H 0.30390 -0.40350 -0.83060
H45? H 0.30690 -0.43300 -0.79850
H46? H 0.31680 -0.36210 -0.80250
O16? O 0.2203(5) -0.3860(7) -0.8056(2)
N2? N 0.0080(8) -0.5553(7) -1.1185(5)
C46? C 0.00000 -0.50000 -1.1378(5)
H47? H -0.00130 -0.54560 -1.09930
H48? H -0.01820 -0.58480 -1.12460
C47? C 0.0724(7) -0.5794(14) -1.1199(10)
H49? H 0.09990 -0.55010 -1.11100
H50? H 0.07480 -0.61740 -1.10900
H51? H 0.08370 -0.58610 -1.14050
Cd1A Cd 0.119549(14) -0.618217(14) -0.923975(6)
O1A O 0.0747(2) -0.54039(19) -0.95409(9)
O2A O 0.1657(2) -0.5742(2) -0.96814(10)
O3A O 0.07913(19) -0.2044(2) -1.14698(11)
O4A O 0.17840(18) -0.19282(17) -1.14076(8)
O5A O 0.0510(3) -0.3440(3) -1.01662(15)
O6A O 0.2266(3) -0.3346(2) -1.05289(12)
O7A O 0.0442(2) -0.5752(2) -0.89132(11)
O8A O 0.05518(17) -0.67245(18) -0.88802(8)
O9A O -0.29894(18) -0.6107(2) -0.70124(8)
O10A O -0.21657(16) -0.6248(2) -0.67199(7)
O11A O -0.1378(4) -0.5375(3) -0.81632(19)
O12A O -0.0533(7) -0.6289(8) -0.7445(3)
C1A C 0.1174(3) -0.5379(2) -0.97032(12)
C2A C 0.1191(3) -0.4929(3) -0.99653(14)
C3A C 0.1654(3) -0.4926(3) -1.01766(14)
H1A H 0.19640 -0.52190 -1.01660
C4A C 0.1663(3) -0.4497(3) -1.04013(16)
H2A H 0.19800 -0.45110 -1.05420
C5A C 0.1225(3) -0.4049(3) -1.04285(15)
C6A C 0.0843(4) -0.3997(4) -1.01646(19)
C7A C 0.0796(4) -0.4434(4) -0.99653(17)
H3A H 0.04900 -0.44110 -0.98200
C8A C 0.1270(3) -0.3584(3) -1.06691(14)
C9A C 0.0774(3) -0.3473(3) -1.08388(16)
H4A H 0.04220 -0.37050 -1.08050
C10A C 0.0758(3) -0.3014(3) -1.10706(18)
H5A H 0.04050 -0.29550 -1.11850
C11A C 0.1274(3) -0.2662(2) -1.11205(13)
C12A C 0.1790(3) -0.2796(3) -1.09417(12)
H6A H 0.21560 -0.25910 -1.09800
C13A C 0.1770(3) -0.3229(3) -1.07081(14)
C14A C 0.1286(3) -0.2162(3) -1.13410(11)
C15A C 0.0082(6) -0.3309(7) -0.9878(3)
H7A H -0.01310 -0.29260 -0.99050
H8A H 0.03330 -0.32860 -0.97000
H9A H -0.02110 -0.36350 -0.98560
C16A C 0.2597(12) -0.3237(13) -1.0203(4)
H10A H 0.25840 -0.36110 -1.00890
H11A H 0.23850 -0.29190 -1.00960
H12A H 0.30170 -0.31180 -1.02340
C17A C 0.0295(2) -0.6263(3) -0.87922(12)
C18A C -0.0134(3) -0.6280(3) -0.85357(13)
C19A C -0.0498(4) -0.5762(4) -0.84663(19)
H13A H -0.04560 -0.53950 -0.85720
C20A C -0.0929(5) -0.5824(4) -0.8229(2)
C21A C -0.0908(4) -0.6285(4) -0.80279(16)
C22A C -0.0638(3) -0.6814(4) -0.81313(15)
H14A H -0.07340 -0.71860 -0.80400
C23A C -0.0217(3) -0.6804(3) -0.83723(14)
H15A H 0.00040 -0.71560 -0.84200
C24A C -0.1324(4) -0.6279(5) -0.77603(19)
C25A C -0.1075(5) -0.6359(6) -0.7473(2)
C26A C -0.1414(4) -0.6387(5) -0.7222(2)
H16A H -0.12390 -0.65060 -0.70400
C27A C -0.2038(3) -0.6233(4) -0.72396(14)
C28A C -0.2305(4) -0.6210(4) -0.75270(18)
H17A H -0.27300 -0.62170 -0.75470
C29A C -0.1942(4) -0.6177(5) -0.77761(18)
C30A C -0.2436(3) -0.6183(2) -0.69657(10)
C31A C -0.1704(12) -0.5154(12) -0.8451(4)
H18A H -0.19730 -0.48180 -0.84030
H19A H -0.19400 -0.54850 -0.85350
H20A H -0.14030 -0.50210 -0.85950
C32A C -0.016(1) -0.6512(13) -0.7207(4)
H21A H 0.01850 -0.67290 -0.72890
H22A H -0.03960 -0.67840 -0.70830
H23A H -0.00160 -0.61730 -0.70890
Cd1F Cd -0.118217(14) -0.880451(14) -1.173975(6)
Cd1G Cd 0.118217(14) -0.119549(14) -1.173975(6)
Cd1N Cd 0.381783(14) -0.380451(14) -0.673975(6)
Cd1O Cd -0.381783(14) -0.619549(14) -0.673975(6)
Cd2A Cd 0.12199(2) -0.75000 -0.87500
Cd2B Cd -0.25000(2) -0.87801 -1.12500
Cd2C Cd 0.25000(2) -0.12199 -1.12500
Cd2J Cd 0.25000(2) -0.37801 -0.62500
Cd2K Cd -0.25000(2) -0.62199 -0.62500
O3N O -0.20440(19) -0.42087(20) -0.89698(11)
O3O O 0.20440(19) -0.57913(20) -0.89698(11)
O4C O -0.19282(18) -0.17840(17) -0.85924(8)
O4N O -0.19282(18) -0.32160(17) -0.89076(8)
O4O O 0.19282(18) -0.67840(17) -0.89076(8)
O8M O -0.05518(17) -0.17245(18) -0.86198(8)
O9F O -0.11070(18) -0.29894(20) -0.95124(8)
O9G O 0.11070(18) -0.70106(20) -0.95124(8)
O10F O -0.12480(16) -0.21657(20) -0.92199(7)
O10K O -0.12480(16) -0.28343(20) -0.82801(7)
O13M O 0.0314(3) -0.4133(3) -0.27538(13)
O14M O -0.0538(3) -0.4462(3) -0.29220(18)
O15M O 0.0833(3) -0.2359(3) -0.34429(16)
C33M C -0.0109(5) -0.4087(4) -0.29261(19)
C34M C -0.0149(4) -0.3630(4) -0.31854(18)
C35M C 0.0326(5) -0.3230(4) -0.31911(19)
H24M H 0.06260 -0.32640 -0.30430
C36M C 0.0389(5) -0.2759(4) -0.34127(17)
C37M C -0.0106(4) -0.2754(3) -0.36293(14)
C38M C -0.0567(4) -0.3160(4) -0.3601(2)
H25M H -0.08910 -0.31440 -0.37370
C39M C -0.0579(4) -0.3582(4) -0.33848(16)
H26M H -0.09080 -0.38530 -0.33770
C40M C 0.1421(6) -0.2431(7) -0.3290(3)
H27M H 0.16730 -0.20770 -0.33280
H28M H 0.16250 -0.27920 -0.33650
H29M H 0.13540 -0.24720 -0.30770
O13A O -0.0314(3) 0.0867(3) -0.47462(13)
O14A O 0.0538(3) 0.0538(3) -0.45780(18)
O15A O -0.0833(3) 0.2641(3) -0.40571(16)
C33A C 0.0109(5) 0.0913(4) -0.45739(19)
C34A C 0.0149(4) 0.1370(4) -0.43146(18)
C35A C -0.0326(5) 0.1770(4) -0.43089(19)
H24A H -0.06260 0.17360 -0.44570
C36A C -0.0389(5) 0.2241(4) -0.40873(17)
C37A C 0.0106(4) 0.2246(3) -0.38707(14)
C38A C 0.0567(4) 0.1840(4) -0.3899(2)
H25A H 0.08910 0.18560 -0.37630
C39A C 0.0579(4) 0.1418(4) -0.41152(16)
H26A H 0.09080 0.11470 -0.41230
C40A C -0.1421(6) 0.2569(7) -0.4210(3)
H27A H -0.16730 0.29230 -0.41720
H28A H -0.16250 0.22080 -0.41350
H29A H -0.13540 0.25280 -0.44230
O13L O -0.0314(3) 0.4133(3) -0.27538(13)
O14L O 0.0538(3) 0.4462(3) -0.29220(18)
O15L O -0.0833(3) 0.2359(3) -0.34429(16)
C33L C 0.0109(5) 0.4087(4) -0.29261(19)
C34L C 0.0149(4) 0.3630(4) -0.31854(18)
C35L C -0.0326(5) 0.3230(4) -0.31911(19)
H24L H -0.06260 0.32640 -0.30430
C36L C -0.0389(5) 0.2759(4) -0.34127(17)
C37L C 0.0106(4) 0.2754(3) -0.36293(14)
C38L C 0.0567(4) 0.3160(4) -0.3601(2)
H25L H 0.08910 0.31440 -0.37370
C39L C 0.0579(4) 0.3582(4) -0.33848(16)
H26L H 0.09080 0.38530 -0.33770
C40L C -0.1421(6) 0.2431(7) -0.3290(3)
H27L H -0.16730 0.20770 -0.33280
H28L H -0.16250 0.27920 -0.33650
H29L H -0.13540 0.24720 -0.30770
Cd3L Cd 0.00000 -0.50000 -0.25000
Cd3L* Cd 0.00000 0.50000 -0.25000
O13B O -0.0867(3) -0.0314(3) -0.52538(13)
O13C O 0.0867(3) 0.0314(3) -0.52538(13)
O14B O -0.0538(3) 0.0538(3) -0.54220(18)
O14C O 0.0538(3) -0.0538(3) -0.54220(18)
#END
