
#######################################################################
#
#                 Cambridge Crystallographic Data Centre
#                                CCDC
#
#######################################################################
#
# If this CIF has been generated from an entry in the Cambridge
# Structural Database, then it will include bibliographic, chemical,
# crystal, experimental, refinement or atomic coordinate data resulting
# from the CCDC's data processing and validation procedures.
#
#######################################################################

data_CSD_CIF_RIWTUO
_audit_creation_date 2013-12-06
_audit_creation_method CSD-ConQuest-V1
_database_code_CSD RIWTUO
_database_code_depnum_ccdc_archive 'CCDC 939854'
_chemical_formula_sum 'C13 H8 N3 O7 U1'
_chemical_formula_moiety
;
(C12 H12 N4 2+)0.5n,n(C7 H2 N1 O7 U1 1-)
;
_journal_coden_Cambridge 9
_journal_volume 52
_journal_year 2013
_journal_page_first 12394
_journal_name_full 'Inorg.Chem. '
loop_
_publ_author_name
"Weiting Yang"
"Song Dang"
"Hao Wang"
"Tao Tian"
"Qing-Jiang Pan"
"Zhong-Ming Sun"
_chemical_name_systematic
;
catena-[hemikis(1,1'-(1,4-phenylene)bis(1H-imidazol-3-ium)) 
(\m~3~-4-oxidopyridine-2,6-dicarboxylato)-dioxo-uranium]
;
_cell_volume   1467.865
_exptl_crystal_density_diffrn 2.517
_diffrn_ambient_temperature 173
#These two values have been output from a single CSD field.
_refine_ls_R_factor_gt 0.0375
_refine_ls_wR_factor_gt 0.0375
_symmetry_cell_setting monoclinic
_symmetry_space_group_name_H-M 'P 21/n'
_symmetry_Int_Tables_number 14
loop_
_symmetry_equiv_pos_site_id
_symmetry_equiv_pos_as_xyz
1 x,y,z
2 1/2-x,1/2+y,1/2-z
3 -x,-y,-z
4 -1/2+x,-1/2-y,-1/2+z
_cell_length_a 9.2754(9)
_cell_length_b 12.4668(12)
_cell_length_c 12.7002(12)
_cell_angle_alpha 90
_cell_angle_beta 91.790(2)
_cell_angle_gamma 90
_cell_formula_units_Z 4
loop_
_atom_type_symbol
_atom_type_radius_bond
C 0.68
H 0.23
N 0.68
O 0.68
U 1.96
loop_
_atom_site_label
_atom_site_type_symbol
_atom_site_fract_x
_atom_site_fract_y
_atom_site_fract_z
U1 U 0.21611(4) -0.09566(3) 0.77548(2)
O1 O 0.3699(7) -0.0348(5) 0.7235(5)
O2 O 0.0643(7) -0.1578(5) 0.8297(5)
O3 O 0.1979(7) 0.2297(5) 0.7876(4)
O4 O 0.2297(7) 0.4849(4) 0.5569(4)
O5 O 0.1293(7) 0.4872(5) 0.3950(4)
O6 O 0.0958(7) 0.0709(4) 0.7619(4)
O7 O -0.1168(7) 0.1152(4) 0.3913(4)
C1 C 0.0889(9) 0.1963(7) 0.6201(6)
C2 C 0.0095(9) 0.1330(6) 0.5539(6)
H1 H -0.01580 0.06410 0.57450
C3 C -0.0353(10) 0.1723(7) 0.4523(7)
C4 C 0.0134(9) 0.2764(7) 0.4292(6)
H2 H -0.01160 0.30780 0.36480
C5 C 0.0975(9) 0.3316(6) 0.5015(6)
C6 C 0.1554(9) 0.4447(6) 0.4808(7)
C7 C 0.1329(10) 0.1613(7) 0.7320(7)
N1 N 0.1343(7) 0.2960(5) 0.5965(5)
C8 C 1.0571(10) 0.6036(7) 1.0014(7)
H3 H 1.09280 0.67330 1.00160
C9 C 0.7253(11) 0.7615(7) 0.7821(8)
H4 H 0.67960 0.78410 0.71970
C10 C 0.8094(10) 0.7622(6) 0.9466(7)
H5 H 0.83130 0.78330 1.01550
C11 C 0.8641(11) 0.4781(7) 0.9511(7)
H6 H 0.77440 0.46570 0.91870
C12 C 0.7902(11) 0.6673(7) 0.7997(7)
H7 H 0.79790 0.61150 0.75150
C13 C 0.9261(10) 0.5811(7) 0.9539(7)
N2 N 0.7398(8) 0.8192(5) 0.8759(6)
H8 H 0.70740 0.88290 0.88560
N3 N 0.8444(8) 0.6675(5) 0.9032(6)
U1A U 0.28389(4) 0.40434(3) 0.72452(2)
U1B U -0.21611(4) 0.09566(3) 0.22452(2)
O3A O 0.3021(7) -0.2703(5) 0.7124(4)
O4A O 0.2703(7) -0.0151(4) 0.9431(4)
O7B O 0.1168(7) -0.1152(4) 0.6087(4)
N1A N 0.3657(7) -0.2040(5) 0.9035(5)
C8B C 0.9429(10) 0.3964(7) 0.9986(7)
H3B H 0.90720 0.32670 0.99840
C9B C 1.2747(11) 0.2385(7) 1.2179(8)
H4B H 1.32040 0.21590 1.28030
C10B C 1.1906(10) 0.2378(6) 1.0534(7)
H5B H 1.16870 0.21670 0.98450
C11B C 1.1359(11) 0.5219(7) 1.0489(7)
H6B H 1.22560 0.53430 1.08130
C12B C 1.2098(11) 0.3327(7) 1.2003(7)
H7B H 1.20210 0.38850 1.24850
C13B C 1.0739(10) 0.4189(7) 1.0461(7)
N2B N 1.2602(8) 0.1808(5) 1.1241(6)
H8B H 1.29260 0.11710 1.11440
N3B N 1.1556(8) 0.3325(5) 1.0968(6)
#END
