
#######################################################################
#
#                 Cambridge Crystallographic Data Centre
#                                CCDC
#
#######################################################################
#
# If this CIF has been generated from an entry in the Cambridge
# Structural Database, then it will include bibliographic, chemical,
# crystal, experimental, refinement or atomic coordinate data resulting
# from the CCDC's data processing and validation procedures.
#
#######################################################################

data_CSD_CIF_RIWXOL
_audit_creation_date 2008-07-04
_audit_creation_method CSD-ConQuest-V1
_database_code_CSD RIWXOL
_database_code_depnum_ccdc_archive 'CCDC 600147'
_chemical_formula_sum 'C10 H16 Cu6 I5 N9'
_chemical_formula_moiety
;
(C4 H4 Cu6 I5 N6 1-)n,n(C6 H12 N3 1+)
;
_journal_coden_Cambridge 1147
_journal_volume 8
_journal_year 2008
_journal_page_first 568
_journal_name_full 'Cryst.Growth Des. '
loop_
_publ_author_name
"Tao Wu"
"Mian Li"
"Dan Li"
"Xiao-Chun Huang"
_chemical_name_systematic
;
catena-[1,3-Diethyltriazolium 
(\m~5~-iodo)-bis(\m~4~-iodo)-(\m~3~-iodo)-(\m~3~-triazolyl)-(\m~2~-iodo)-hexa-
copper(i)]
;
_cell_volume   2643.035
_exptl_crystal_colour 'pale green'
_exptl_crystal_density_diffrn 3.212
_exptl_special_details
;
Paper states there are one quadruply bridging and two triply bridging iodo 
ligands, but also that all Cu atoms are tetra-coordinated. To give the 
correct metal coordination requires two quadruply bridging and one triply 
bridging ligand
;
_exptl_crystal_description 'block'
_diffrn_ambient_temperature 293
#These two values have been output from a single CSD field.
_refine_ls_R_factor_gt 0.0617
_refine_ls_wR_factor_gt 0.0617
_symmetry_cell_setting monoclinic
_symmetry_space_group_name_H-M 'P 21/c'
_symmetry_Int_Tables_number 14
loop_
_symmetry_equiv_pos_site_id
_symmetry_equiv_pos_as_xyz
1 x,y,z
2 -x,1/2+y,1/2-z
3 -x,-y,-z
4 x,-1/2-y,-1/2+z
_cell_length_a 10.6931(10)
_cell_length_b 14.4122(15)
_cell_length_c 17.5869(17)
_cell_angle_alpha 90
_cell_angle_beta 102.795(2)
_cell_angle_gamma 90
_cell_formula_units_Z 4
loop_
_atom_type_symbol
_atom_type_radius_bond
C 0.68
H 0.23
Cu 1.12
I 1.42
N 0.68
loop_
_atom_site_label
_atom_site_type_symbol
_atom_site_fract_x
_atom_site_fract_y
_atom_site_fract_z
C1 C 0.392(2) 0.545(2) 0.3439(16)
H1 H 0.39430 0.53050 0.29030
H2 H 0.30390 0.55440 0.34790
I1 I 0.85806(9) 0.25419(5) 0.10501(5)
I2 I 1.02753(8) 0.49875(5) 0.25368(4)
I3 I 0.84987(10) 0.25360(5) 0.35634(5)
I4 I 1.21598(10) 0.25419(6) 0.28131(6)
I5 I 0.60765(10) 0.45035(8) 0.19456(6)
Cu1 Cu 0.96737(18) 0.30448(12) 0.24745(10)
Cu2 Cu 1.0602(2) 0.15157(12) 0.1831(1)
Cu3 Cu 0.81751(18) 0.42923(11) 0.14666(10)
Cu4 Cu 0.81189(19) 0.42912(12) 0.30341(10)
Cu5 Cu 0.9431(2) 0.65237(14) 0.16567(11)
Cu6 Cu 1.0387(3) 0.24925(12) 0.00549(13)
C2 C 0.8554(14) 0.5622(9) -0.0595(7)
H3 H 0.85400 0.56780 -0.11240
N1 N 0.8347(10) 0.5054(7) 0.0535(6)
N2 N 0.8841(10) 0.5898(6) 0.0642(5)
N3 N 0.895(1) 0.6275(7) -0.0036(6)
N4 N 1.1711(10) 0.0050(7) 0.0986(6)
N5 N 1.1053(11) 0.1256(7) 0.0266(6)
N6 N 1.1228(10) 0.0921(7) 0.0972(6)
C3 C 1.1876(13) -0.0138(9) 0.0280(7)
H4 H 1.22060 -0.06860 0.01250
C4 C 1.1481(13) 0.0605(9) -0.0177(8)
H5 H 1.14970 0.06620 -0.07020
C5 C 0.8177(15) 0.4863(10) -0.0231(8)
H6 H 0.78580 0.43110 -0.04710
N7 N 0.5521(17) 0.7301(13) 0.4422(10)
N8 N 0.4724(17) 0.6231(15) 0.3732(13)
N9 N 0.4703(18) 0.6603(16) 0.4413(12)
C6 C 0.578(3) 0.788(2) 0.5107(14)
H7 H 0.60950 0.84710 0.49580
H8 H 0.64830 0.75970 0.54790
C7 C 0.553(2) 0.6628(15) 0.3373(14)
H9 H 0.56950 0.64560 0.28940
C8 C 0.609(2) 0.7343(15) 0.3837(13)
H10 H 0.67170 0.77560 0.37560
C9 C 0.474(2) 0.809(2) 0.5535(18)
H11 H 0.40020 0.83370 0.51750
H12 H 0.50420 0.85410 0.59370
H13 H 0.45000 0.75330 0.57640
C10 C 0.456(4) 0.472(2) 0.399(2)
H14 H 0.53820 0.45740 0.38760
H15 H 0.40400 0.41680 0.39210
H16 H 0.46800 0.49360 0.45120
I2A I 0.97247(8) -0.00125(5) 0.24632(4)
I3A I 1.15013(10) 0.75360(5) 0.14366(5)
I3C I 0.84987(10) 0.24640(5) -0.14366(5)
I4A I 0.78402(10) 0.75419(6) 0.21869(6)
Cu2A Cu 0.9398(2) 0.65157(12) 0.3169(1)
Cu4A Cu 1.18811(19) -0.07088(12) 0.19659(10)
Cu5A Cu 1.0569(2) 0.15237(14) 0.33433(11)
Cu6C Cu 1.0387(3) 0.25075(12) 0.50549(13)
Cu6B Cu 0.9613(3) 0.75075(12) -0.00549(13)
N3B N 1.105(1) 0.3725(7) 0.0036(6)
N4A N 0.8289(10) 0.5050(7) 0.4014(6)
#END
