
#######################################################################
#
#                 Cambridge Crystallographic Data Centre
#                                CCDC
#
#######################################################################
#
# If this CIF has been generated from an entry in the Cambridge
# Structural Database, then it will include bibliographic, chemical,
# crystal, experimental, refinement or atomic coordinate data resulting
# from the CCDC's data processing and validation procedures.
#
#######################################################################

data_CSD_CIF_RIWXEB
_audit_creation_date 2008-07-04
_audit_creation_method CSD-ConQuest-V1
_database_code_CSD RIWXEB
_database_code_depnum_ccdc_archive 'CCDC 292466'
_chemical_formula_sum 'C68 H64 Cu19 I20 N30'
_chemical_formula_moiety
;
(C36 H24 Cu19 I16 N18 3-)n,4n(C8 H10 N3 1+),n(I1 1-),1.5n(I2)
;
_journal_coden_Cambridge 1147
_journal_volume 8
_journal_year 2008
_journal_page_first 568
_journal_name_full 'Cryst.Growth Des. '
loop_
_publ_author_name
"Tao Wu"
"Mian Li"
"Dan Li"
"Xiao-Chun Huang"
_chemical_name_systematic
;
catena-[tetrakis(1,3-Dimethylbenzotriazolium) 
tetrakis(\m~4~-iodo)-hexakis(\m~3~-benzotriazolyl)-decakis(\m~3~-iodo)-bis(\m~
2~-iodo)-nonadeca-copper(i) iodide sesquikis(iodine)]
;
_cell_volume  11349.647
_exptl_crystal_colour 'yellow-green'
_exptl_crystal_density_diffrn 2.954
_exptl_special_details
;
The quantity of iodine is given as x, where x is approximately 1.5

;
_exptl_crystal_description 'column'
_diffrn_ambient_temperature 293
_refine_special_details
;
Two Cu atoms and the iodide/iodine molecules are disordered by symmetry.

;
#These two values have been output from a single CSD field.
_refine_ls_R_factor_gt 0.0559
_refine_ls_wR_factor_gt 0.0559
_symmetry_cell_setting tetragonal
_symmetry_space_group_name_H-M 'P 42/n c m'
_symmetry_Int_Tables_number 138
loop_
_symmetry_equiv_pos_site_id
_symmetry_equiv_pos_as_xyz
1 x,y,z
2 1/2-y,x,1/2+z
3 y,1/2-x,1/2+z
4 1/2+y,1/2+x,-z
5 1/2-x,1/2-y,z
6 -x,1/2+y,1/2-z
7 1/2+x,-y,1/2-z
8 -y,-x,-z
9 -x,-y,-z
10 -1/2+y,-x,-1/2-z
11 -y,-1/2+x,-1/2-z
12 -1/2-y,-1/2-x,z
13 -1/2+x,-1/2+y,-z
14 x,-1/2-y,-1/2+z
15 -1/2-x,y,-1/2+z
16 y,x,z
_cell_length_a 28.4132(7)
_cell_length_b 28.4132(7)
_cell_length_c 14.0586(7)
_cell_angle_alpha 90
_cell_angle_beta 90
_cell_angle_gamma 90
_cell_formula_units_Z 4
loop_
_atom_type_symbol
_atom_type_radius_bond
C 0.68
H 0.23
Cu 1.11
I 1.34
N 0.68
loop_
_atom_site_label
_atom_site_type_symbol
_atom_site_fract_x
_atom_site_fract_y
_atom_site_fract_z
I1 I 0.550105(19) 0.550105(19) 0.31442(6)
I2 I 0.55299(2) 0.55299(2) 0.01757(6)
I3 I 0.69487(2) 0.69487(2) 0.31298(6)
I4 I 0.83020(2) 0.66980(2) 0.16159(9)
I5 I 0.69547(2) 0.69547(2) 0.01407(7)
I6 I 0.57672(2) 0.41944(2) 0.14991(4)
I7 I 0.44096(2) 0.44096(2) 0.30638(8)
Cu1 Cu 0.73931(5) 0.65315(4) 0.16236(10)
Cu2 Cu 0.59552(4) 0.50749(5) 0.17242(11)
Cu3 Cu 0.62446(4) 0.62446(4) 0.16378(13)
Cu4 Cu 0.53908(6) 0.46092(6) 0.00000
Cu5 Cu 0.45193(5) 0.53191(5) 0.29757(9)
Cu6 Cu 0.50000 0.50000 0.50000
N1 N 0.7171(2) 0.5867(2) 0.1674(5)
N2 N 0.4663(3) 0.7812(3) 0.4498(7)
N3 N 0.5357(3) 0.7998(3) 0.4224(6)
N4 N 0.4933(3) 0.8173(3) 0.4342(7)
N5 N 0.6707(2) 0.5773(2) 0.1665(5)
N6 N 0.6618(2) 0.5316(2) 0.1760(5)
N7 N 0.4531(2) 0.5469(2) 0.50000
N8 N 0.4315(2) 0.5618(2) 0.4213(5)
C1 C 0.7044(3) 0.5096(3) 0.1852(6)
C2 C 0.7390(3) 0.5442(3) 0.1785(6)
C3 C 0.7870(3) 0.5325(3) 0.1842(7)
H1 H 0.81030 0.55540 0.17880
C4 C 0.7631(4) 0.4518(3) 0.2045(8)
H2 H 0.77200 0.42060 0.21310
C5 C 0.7156(3) 0.4625(3) 0.1988(7)
H3 H 0.69250 0.43950 0.20390
C6 C 0.4906(3) 0.7390(4) 0.4483(6)
C7 C 0.5730(4) 0.7204(4) 0.4249(9)
H4 H 0.60420 0.72910 0.41470
C8 C 0.5586(5) 0.6733(4) 0.436(1)
H5 H 0.58130 0.64980 0.43170
C9 C 0.5367(3) 0.7521(3) 0.4307(7)
C10 C 0.4768(4) 0.6927(4) 0.4596(9)
H6 H 0.44580 0.68390 0.47090
C11 C 0.7983(3) 0.4862(4) 0.1978(8)
H7 H 0.82970 0.47750 0.20270
C12 C 0.4003(3) 0.5953(3) 0.4501(6)
C13 C 0.5136(5) 0.6605(4) 0.4526(10)
H8 H 0.50680 0.62860 0.45960
C14 C 0.3687(3) 0.6229(3) 0.3986(8)
H9 H 0.36600 0.62050 0.33280
C15 C 0.3422(4) 0.6536(4) 0.4496(9)
H10 H 0.32070 0.67260 0.41780
C16 C 0.5743(4) 0.8315(4) 0.4011(8)
H11 H 0.56260 0.85850 0.36760
H12 H 0.59710 0.81550 0.36220
H13 H 0.58900 0.84140 0.45930
C17 C 0.4154(4) 0.7863(5) 0.4629(12)
H14 H 0.40670 0.77510 0.52490
H15 H 0.39920 0.76830 0.41530
H16 H 0.40680 0.81890 0.45710
Cu7 Cu 0.72551(12) 0.77449(12) 0.2616(4)
Cu8 Cu 0.77522(14) 0.72478(14) 0.0623(6)
I8? I 0.25000 0.75000 0.25000
I9? I 0.30677(5) 0.82666(5) 0.31631(10)
I10 I 0.28645(5) 0.79446(5) 0.38567(11)
I11? I 0.27203(10) 0.77343(10) 0.4357(2)
I1H I 0.449895(19) 0.449895(19) -0.31442(6)
I2H I 0.44701(2) 0.44701(2) -0.01757(6)
I3K I 0.80513(2) 0.80513(2) 0.31298(6)
I4O I 0.66980(2) 0.83020(2) 0.16159(9)
I5K I 0.80453(2) 0.80453(2) 0.01407(7)
I6G I 0.58056(2) 0.42328(2) -0.14991(4)
I6O I 0.41944(2) 0.57672(2) 0.14991(4)
I6H I 0.42328(2) 0.58056(2) -0.14991(4)
I7H I 0.55904(2) 0.55904(2) -0.30638(8)
Cu1O Cu 0.65315(5) 0.73931(4) 0.16236(10)
Cu1K Cu 0.84685(5) 0.76069(4) 0.16236(10)
Cu1D Cu 0.76069(5) 0.84685(4) 0.16236(10)
Cu2O Cu 0.50749(4) 0.59552(5) 0.17242(11)
Cu2H Cu 0.40448(4) 0.49251(5) -0.17242(11)
Cu2G Cu 0.49251(4) 0.40448(5) -0.17242(11)
Cu2K Cu 0.99251(4) 0.90448(5) 0.17242(11)
Cu2D Cu 0.90448(4) 0.99251(5) 0.17242(11)
Cu3K Cu 0.87554(4) 0.87554(4) 0.16378(13)
Cu4O Cu 0.46092(6) 0.53908(6) 0.00000
Cu5O Cu 0.53191(5) 0.45193(5) 0.29757(9)
Cu5H Cu 0.54807(5) 0.46809(5) -0.29757(9)
Cu5G Cu 0.46809(5) 0.54807(5) -0.29757(9)
Cu5H* Cu 0.54807(5) 0.46809(5) 0.70243(9)
Cu5G* Cu 0.46809(5) 0.54807(5) 0.70243(9)
N1O N 0.5867(2) 0.7171(2) 0.1674(5)
N1K N 0.9133(2) 0.7829(2) 0.1674(5)
N1D N 0.7829(2) 0.9133(2) 0.1674(5)
N5O N 0.5773(2) 0.6707(2) 0.1665(5)
N5K N 0.9227(2) 0.8293(2) 0.1665(5)
N5D N 0.8293(2) 0.9227(2) 0.1665(5)
N6O N 0.5316(2) 0.6618(2) 0.1760(5)
N6H N 0.3382(2) 0.4684(2) -0.1760(5)
N6G N 0.4684(2) 0.3382(2) -0.1760(5)
N6K N 0.9684(2) 0.8382(2) 0.1760(5)
N6D N 0.8382(2) 0.9684(2) 0.1760(5)
N7O N 0.5469(2) 0.4531(2) 0.50000
N8G N 0.4382(2) 0.5685(2) 0.5787(5)
N8O N 0.5618(2) 0.4315(2) 0.4213(5)
N8H N 0.5685(2) 0.4382(2) -0.4213(5)
N8G* N 0.4382(2) 0.5685(2) -0.4213(5)
N8H* N 0.5685(2) 0.4382(2) 0.5787(5)
C1O C 0.5096(3) 0.7044(3) 0.1852(6)
C1K C 0.9904(3) 0.7956(3) 0.1852(6)
C1D C 0.7956(3) 0.9904(3) 0.1852(6)
C2O C 0.5442(3) 0.7390(3) 0.1785(6)
C2K C 0.9558(3) 0.7610(3) 0.1785(6)
C2D C 0.7610(3) 0.9558(3) 0.1785(6)
C3O C 0.5325(3) 0.7870(3) 0.1842(7)
C3K C 0.9675(3) 0.7130(3) 0.1842(7)
C3D C 0.7130(3) 0.9675(3) 0.1842(7)
H1O H 0.55540 0.81030 0.17880
H1K H 0.94460 0.68970 0.17880
H1D H 0.68970 0.94460 0.17880
C4O C 0.4518(4) 0.7631(3) 0.2045(8)
C4K C 1.0482(4) 0.7369(3) 0.2045(8)
C4D C 0.7369(4) 1.0482(3) 0.2045(8)
H2O H 0.42060 0.77200 0.21310
H2K H 1.07940 0.72800 0.21310
H2D H 0.72800 1.07940 0.21310
C5O C 0.4625(3) 0.7156(3) 0.1988(7)
C5K C 1.0375(3) 0.7844(3) 0.1988(7)
C5D C 0.7844(3) 1.0375(3) 0.1988(7)
H3O H 0.43950 0.69250 0.20390
H3K H 1.06050 0.80750 0.20390
H3D H 0.80750 1.06050 0.20390
C11O C 0.4862(3) 0.7983(4) 0.1978(8)
C11K C 1.0138(3) 0.7017(4) 0.1978(8)
C11D C 0.7017(3) 1.0138(4) 0.1978(8)
H7O H 0.47750 0.82970 0.20270
H7K H 1.02250 0.67030 0.20270
H7D H 0.67030 1.02250 0.20270
C12G C 0.4047(3) 0.5997(3) 0.5499(6)
C12O C 0.5953(3) 0.4003(3) 0.4501(6)
C12H C 0.5997(3) 0.4047(3) 0.5499(6)
C14G C 0.3771(3) 0.6313(3) 0.6014(8)
C14O C 0.6229(3) 0.3687(3) 0.3986(8)
C14H C 0.6313(3) 0.3771(3) 0.6014(8)
H9O H 0.62050 0.36600 0.33280
H9H H 0.63400 0.37950 0.66720
H9G H 0.37950 0.63400 0.66720
C15G C 0.3464(4) 0.6578(4) 0.5504(9)
C15O C 0.6536(4) 0.3422(4) 0.4496(9)
C15H C 0.6578(4) 0.3464(4) 0.5504(9)
H10G H 0.32740 0.67930 0.58220
H10O H 0.67260 0.32070 0.41780
H10H H 0.67930 0.32740 0.58220
Cu7O Cu 0.77449(12) 0.72551(12) 0.2616(4)
Cu8O Cu 0.72478(14) 0.77522(14) 0.0623(6)
#END
