
#######################################################################
#
#                 Cambridge Crystallographic Data Centre
#                                CCDC
#
#######################################################################
#
# If this CIF has been generated from an entry in the Cambridge
# Structural Database, then it will include bibliographic, chemical,
# crystal, experimental, refinement or atomic coordinate data resulting
# from the CCDC's data processing and validation procedures.
#
#######################################################################

data_CSD_CIF_RIZNIA
_audit_creation_date 2019-04-11
_audit_creation_method CSD-ConQuest-V1
_database_code_CSD RIZNIA
_database_code_depnum_ccdc_archive 'CCDC 1893701'
_chemical_formula_sum 'C52 H78 As4 Cu8 N30 Na6 O134 W36'
_chemical_formula_moiety
;
(C28 H44 As4 Cu8 N18 Na6 O132 W36 6-)n,6n(C4 H5 N2 1+),2n(H2 O1)
;
_journal_coden_Cambridge 1295
_journal_volume 103
_journal_year 2019
_journal_page_first 136
_journal_name_full 'Inorg.Chem.Commun. '
loop_
_publ_author_name
"Xiujuan Ma"
"Zhanhua Su"
"Zhifeng Zhao"
"Baibin Zhou"
"Kai Yu"
"Yongchen Shang"
"Meijia Wang"
"Yunyan Tian"
_chemical_name_systematic
;
catena-(hexakis(pyrazinium) 
tetrakis(\m-arsenito)-octakis(\m-hydroxo)-octacontakis(\m-oxo)-(\m-pyrazine)-d
otriacontaoxo-octa-copper-hexa-sodium-hexatriaconta-tungsten unknown solvate 
dihydrate)
;
_cell_volume  11114.324
_exptl_crystal_colour 'blue'
_exptl_crystal_density_diffrn 3.224
_exptl_special_details
;
Although the formula as written in the paper contains ligated imidazolium 
ligands, we have re-assigned the protons necessary for charge balance to 
hydroxo groups
;
_exptl_crystal_description 'block'
_diffrn_ambient_temperature 296.1
_refine_special_details
;
The structure is disordered. Some unidentified solvent was taken into account 
using PLATON/SQUEEZE.
;
#These two values have been output from a single CSD field.
_refine_ls_R_factor_gt 0.058
_refine_ls_wR_factor_gt 0.058
_symmetry_cell_setting tetragonal
_symmetry_space_group_name_H-M 'P 42/m n m'
_symmetry_Int_Tables_number 136
loop_
_symmetry_equiv_pos_site_id
_symmetry_equiv_pos_as_xyz
1 x,y,z
2 1/2-y,1/2+x,1/2+z
3 -x,-y,z
4 1/2+y,1/2-x,1/2+z
5 1/2+x,1/2-y,1/2-z
6 y,x,-z
7 1/2-x,1/2+y,1/2-z
8 -y,-x,-z
9 -x,-y,-z
10 -1/2+y,-1/2-x,-1/2-z
11 x,y,-z
12 -1/2-y,-1/2+x,-1/2-z
13 -1/2-x,-1/2+y,-1/2+z
14 -y,-x,z
15 -1/2+x,-1/2-y,-1/2+z
16 y,x,z
_cell_length_a 28.4437(14)
_cell_length_b 28.4437(14)
_cell_length_c 13.7376(14)
_cell_angle_alpha 90
_cell_angle_beta 90
_cell_angle_gamma 90
_cell_formula_units_Z 2
loop_
_atom_type_symbol
_atom_type_radius_bond
C 0.68
H 0.23
As 1.21
Cu 1.32
N 0.68
Na 1.66
O 0.68
W 1.62
loop_
_atom_site_label
_atom_site_type_symbol
_atom_site_fract_x
_atom_site_fract_y
_atom_site_fract_z
W1 W 0.57183(4) 0.86289(4) 0.50000
W2 W 0.66366(3) 0.81520(3) 0.62332(6)
W3 W 0.73587(3) 0.58505(3) 0.75512(6)
W4 W 0.78265(3) 0.49203(3) 0.63462(6)
W5 W 0.66441(3) 0.51147(3) 0.63308(7)
Cu1 Cu 0.59165(13) 0.59165(13) 0.50000
As1 As 0.59657(10) 0.7293(1) 0.50000
Cu2 Cu 0.69635(9) 0.69635(9) 0.6693(3)
Na1 Na 0.7561(5) 0.7561(5) 0.50000
Na2 Na 0.6159(3) 0.6159(3) 0.7317(10)
O1 O 0.6136(8) 0.7894(7) 0.50000
O2 O 0.6180(5) 0.8671(5) 0.5983(10)
O3 O 0.6920(7) 0.8348(7) 0.50000
O4 O 0.6913(5) 0.7584(5) 0.6142(10)
O5 O 0.6993(5) 0.6326(5) 0.7149(11)
O6 O 0.7764(5) 0.5287(5) 0.7492(10)
O7 O 0.8324(5) 0.5320(4) 0.5955(11)
O8 O 0.7769(6) 0.4757(7) 0.50000
O9 O 0.7203(5) 0.4692(5) 0.6524(11)
O10 O 0.6683(8) 0.4913(7) 0.50000
O11 O 0.6843(5) 0.5404(5) 0.7526(10)
O12 O 0.6310(5) 0.5620(5) 0.599(1)
O13 O 0.6239(6) 0.4732(6) 0.6780(13)
O14 O 0.8135(6) 0.4455(5) 0.6807(11)
O15 O 0.7908(5) 0.6185(5) 0.7124(11)
O16 O 0.7402(6) 0.5939(5) 0.8782(10)
O17 O 0.6995(5) 0.8463(5) 0.7018(12)
O18 O 0.5554(5) 0.7319(5) 0.4028(10)
O19 O 0.5484(7) 0.9205(7) 0.50000
N1 N 0.5348(8) 0.5348(8) 0.50000
C1 C 0.5180(14) 0.5180(14) 0.422(4)
Cu3 Cu 0.50000 1.00000 0.50000
C2 C 0.4155(7) 0.9941(6) 0.6312(17)
H1 H 0.40510 1.02438 0.61719
C3 C 0.3920(6) 0.9607(8) 0.6905(16)
H2 H 0.36351 0.96517 0.72221
N2 N 0.4198(7) 0.9192(6) 0.6930(14)
H3 H 0.41313 0.89380 0.72400
C4 C 0.4604(6) 0.9270(6) 0.6351(16)
H4 H 0.48452 0.90554 0.62418
N3 N 0.4578(6) 0.9733(7) 0.5969(13)
O20 O 0.5817(15) 0.4183(15) 0.227(5)
H5 H 0.55439 0.42728 0.21756
N4 N 0.8021(10) 0.637(1) 1.00000
N5 N 0.8771(10) 0.6945(11) 1.00000
C5 C 0.8220(8) 0.6522(8) 0.9179(3)
H6 H 0.80939 0.64255 0.85871
C6 C 0.8588(9) 0.6805(8) 0.9170(3)
H7 H 0.87174 0.69036 0.85828
N6 N 0.5126(11) 0.7789(12) 0.00000
C7 C 0.4915(10) 0.7874(9) -0.0816(3)
H8 H 0.50665 0.78132 -0.14025
C8 C 0.4492(10) 0.8044(10) -0.0816(3)
H9 H 0.43406 0.81045 -0.14024
N7 N 0.4281(11) 0.8128(14) 0.00000
H10? H 0.59542 0.43160 0.16988
O18J O 0.5554(5) 0.7319(5) 0.5972(10)
N1B N 0.4652(8) 0.4652(8) 0.50000
C1B C 0.4820(14) 0.4820(14) 0.422(4)
C1E C 0.5180(14) 0.5180(14) 0.578(4)
C1G C 0.4820(14) 0.4820(14) 0.578(4)
W1B W 0.42817(4) 0.13711(4) 0.50000
W2B W 0.33634(3) 0.18480(3) 0.62332(6)
W3B W 0.26413(3) 0.41495(3) 0.75512(6)
W4B W 0.21735(3) 0.50797(3) 0.63462(6)
W5B W 0.33559(3) 0.48853(3) 0.63308(7)
Cu1B Cu 0.40835(13) 0.40835(13) 0.50000
As1B As 0.40343(10) 0.2707(1) 0.50000
Cu2B Cu 0.30365(9) 0.30365(9) 0.6693(3)
Na1B Na 0.2439(5) 0.2439(5) 0.50000
Na2B Na 0.3841(3) 0.3841(3) 0.7317(10)
O1B O 0.3864(8) 0.2106(7) 0.50000
O2B O 0.3820(5) 0.1329(5) 0.5983(10)
O3B O 0.3080(7) 0.1652(7) 0.50000
O4B O 0.3087(5) 0.2416(5) 0.6142(10)
O5B O 0.3007(5) 0.3674(5) 0.7149(11)
O6B O 0.2236(5) 0.4713(5) 0.7492(10)
O7B O 0.1676(5) 0.4680(4) 0.5955(11)
O8B O 0.2231(6) 0.5243(7) 0.50000
O9B O 0.2797(5) 0.5308(5) 0.6524(11)
O10B O 0.3317(8) 0.5087(7) 0.50000
O11B O 0.3157(5) 0.4596(5) 0.7526(10)
O12B O 0.3690(5) 0.4380(5) 0.599(1)
O13B O 0.3761(6) 0.5268(6) 0.6780(13)
O14B O 0.1865(6) 0.5545(5) 0.6807(11)
O15B O 0.2092(5) 0.3815(5) 0.7124(11)
O16B O 0.2598(6) 0.4061(5) 0.8782(10)
O17B O 0.3005(5) 0.1537(5) 0.7018(12)
O18B O 0.4446(5) 0.2681(5) 0.4028(10)
O19B O 0.4516(7) 0.0795(7) 0.50000
Cu3* Cu 0.50000 0.00000 0.50000
C2B C 0.5845(7) 0.0059(6) 0.6312(17)
H1B H 0.59490 -0.02438 0.61719
C3B C 0.6080(6) 0.0393(8) 0.6905(16)
H2B H 0.63649 0.03483 0.72221
N2B N 0.5802(7) 0.0808(6) 0.6930(14)
H3B H 0.58687 0.10620 0.72400
C4B C 0.5396(6) 0.0730(6) 0.6351(16)
H4B H 0.51548 0.09446 0.62418
N3B N 0.5422(6) 0.0267(7) 0.5969(13)
O18H O 0.4446(5) 0.2681(5) 0.5972(10)
W1E W 0.86289(4) 0.57183(4) 0.50000
W2E W 0.81520(3) 0.66366(3) 0.37668(6)
W3E W 0.58505(3) 0.73587(3) 0.24488(6)
W4E W 0.49203(3) 0.78265(3) 0.36538(6)
W5E W 0.51147(3) 0.66441(3) 0.36692(7)
As1E As 0.7293(1) 0.59657(10) 0.50000
Cu2E Cu 0.69635(9) 0.69635(9) 0.3307(3)
Na2E Na 0.6159(3) 0.6159(3) 0.2683(10)
O1E O 0.7894(8) 0.6136(7) 0.50000
O2E O 0.8671(5) 0.6180(5) 0.4017(10)
O3E O 0.8348(7) 0.6920(7) 0.50000
O4E O 0.7584(5) 0.6913(5) 0.3858(10)
O5E O 0.6326(5) 0.6993(5) 0.2851(11)
O6E O 0.5287(5) 0.7764(5) 0.2508(10)
O7E O 0.5320(5) 0.8324(4) 0.4045(11)
O8E O 0.4757(6) 0.7769(7) 0.50000
O9E O 0.4692(5) 0.7203(5) 0.3476(11)
O10E O 0.4913(8) 0.6683(7) 0.50000
O11E O 0.5404(5) 0.6843(5) 0.2474(10)
O12E O 0.5620(5) 0.6310(5) 0.401(1)
O13E O 0.4732(6) 0.6239(6) 0.3220(13)
O14E O 0.4455(6) 0.8135(5) 0.3193(11)
O15E O 0.6185(5) 0.7908(5) 0.2876(11)
O16E O 0.5939(6) 0.7402(5) 0.1218(10)
O17E O 0.8463(5) 0.6995(5) 0.2982(12)
O18E O 0.7319(5) 0.5554(5) 0.5972(10)
O19E O 0.9205(7) 0.5484(7) 0.50000
O18O O 0.7319(5) 0.5554(5) 0.4028(10)
W1G W 0.13711(4) 0.42817(4) 0.50000
W2G W 0.18480(3) 0.33634(3) 0.37668(6)
W3G W 0.41495(3) 0.26413(3) 0.24488(6)
W4G W 0.50797(3) 0.21735(3) 0.36538(6)
W5G W 0.48853(3) 0.33559(3) 0.36692(7)
As1G As 0.2707(1) 0.40343(10) 0.50000
Cu2G Cu 0.30365(9) 0.30365(9) 0.3307(3)
Na2G Na 0.3841(3) 0.3841(3) 0.2683(10)
O1G O 0.2106(8) 0.3864(7) 0.50000
O2G O 0.1329(5) 0.3820(5) 0.4017(10)
O3G O 0.1652(7) 0.3080(7) 0.50000
O4G O 0.2416(5) 0.3087(5) 0.3858(10)
O5G O 0.3674(5) 0.3007(5) 0.2851(11)
O6G O 0.4713(5) 0.2236(5) 0.2508(10)
O7G O 0.4680(5) 0.1676(4) 0.4045(11)
O8G O 0.5243(6) 0.2231(7) 0.50000
O9G O 0.5308(5) 0.2797(5) 0.3476(11)
O10G O 0.5087(8) 0.3317(7) 0.50000
O11G O 0.4596(5) 0.3157(5) 0.2474(10)
O12G O 0.4380(5) 0.3690(5) 0.401(1)
O13G O 0.5268(6) 0.3761(6) 0.3220(13)
O14G O 0.5545(6) 0.1865(5) 0.3193(11)
O15G O 0.3815(5) 0.2092(5) 0.2876(11)
O16G O 0.4061(6) 0.2598(5) 0.1218(10)
O17G O 0.1537(5) 0.3005(5) 0.2982(12)
O18G O 0.2681(5) 0.4446(5) 0.5972(10)
O19G O 0.0795(7) 0.4516(7) 0.50000
O18M O 0.2681(5) 0.4446(5) 0.4028(10)
W2H W 0.33634(3) 0.18480(3) 0.37668(6)
W3H W 0.26413(3) 0.41495(3) 0.24488(6)
W4H W 0.21735(3) 0.50797(3) 0.36538(6)
W5H W 0.33559(3) 0.48853(3) 0.36692(7)
O2H O 0.3820(5) 0.1329(5) 0.4017(10)
O4H O 0.3087(5) 0.2416(5) 0.3858(10)
O5H O 0.3007(5) 0.3674(5) 0.2851(11)
O6H O 0.2236(5) 0.4713(5) 0.2508(10)
O7H O 0.1676(5) 0.4680(4) 0.4045(11)
O9H O 0.2797(5) 0.5308(5) 0.3476(11)
O11H O 0.3157(5) 0.4596(5) 0.2474(10)
O12H O 0.3690(5) 0.4380(5) 0.401(1)
O13H O 0.3761(6) 0.5268(6) 0.3220(13)
O14H O 0.1865(6) 0.5545(5) 0.3193(11)
O15H O 0.2092(5) 0.3815(5) 0.2876(11)
O16H O 0.2598(6) 0.4061(5) 0.1218(10)
O17H O 0.3005(5) 0.1537(5) 0.2982(12)
C2H C 0.5845(7) 0.0059(6) 0.3688(17)
H1H H 0.59490 -0.02438 0.38281
C3H C 0.6080(6) 0.0393(8) 0.3095(16)
H2H H 0.63649 0.03483 0.27779
N2H N 0.5802(7) 0.0808(6) 0.3070(14)
H3H H 0.58687 0.10620 0.27600
C4H C 0.5396(6) 0.0730(6) 0.3649(16)
H4H H 0.51548 0.09446 0.37582
N3H N 0.5422(6) 0.0267(7) 0.4031(13)
W2J W 0.66366(3) 0.81520(3) 0.37668(6)
W3J W 0.73587(3) 0.58505(3) 0.24488(6)
W4J W 0.78265(3) 0.49203(3) 0.36538(6)
W5J W 0.66441(3) 0.51147(3) 0.36692(7)
O2J O 0.6180(5) 0.8671(5) 0.4017(10)
O4J O 0.6913(5) 0.7584(5) 0.3858(10)
O5J O 0.6993(5) 0.6326(5) 0.2851(11)
O6J O 0.7764(5) 0.5287(5) 0.2508(10)
O7J O 0.8324(5) 0.5320(4) 0.4045(11)
O9J O 0.7203(5) 0.4692(5) 0.3476(11)
O11J O 0.6843(5) 0.5404(5) 0.2474(10)
O12J O 0.6310(5) 0.5620(5) 0.401(1)
O13J O 0.6239(6) 0.4732(6) 0.3220(13)
O14J O 0.8135(6) 0.4455(5) 0.3193(11)
O15J O 0.7908(5) 0.6185(5) 0.2876(11)
O16J O 0.7402(6) 0.5939(5) 0.1218(10)
O17J O 0.6995(5) 0.8463(5) 0.2982(12)
C2J C 0.4155(7) 0.9941(6) 0.3688(17)
H1J H 0.40510 1.02438 0.38281
C3J C 0.3920(6) 0.9607(8) 0.3095(16)
H2J H 0.36351 0.96517 0.27779
N2J N 0.4198(7) 0.9192(6) 0.3070(14)
H3J H 0.41313 0.89380 0.27600
C4J C 0.4604(6) 0.9270(6) 0.3649(16)
H4J H 0.48452 0.90554 0.37582
N3J N 0.4578(6) 0.9733(7) 0.4031(13)
W2M W 0.18480(3) 0.33634(3) 0.62332(6)
W3M W 0.41495(3) 0.26413(3) 0.75512(6)
W4M W 0.50797(3) 0.21735(3) 0.63462(6)
W5M W 0.48853(3) 0.33559(3) 0.63308(7)
O2M O 0.1329(5) 0.3820(5) 0.5983(10)
O4M O 0.2416(5) 0.3087(5) 0.6142(10)
O5M O 0.3674(5) 0.3007(5) 0.7149(11)
O6M O 0.4713(5) 0.2236(5) 0.7492(10)
O7M O 0.4680(5) 0.1676(4) 0.5955(11)
O9M O 0.5308(5) 0.2797(5) 0.6524(11)
O11M O 0.4596(5) 0.3157(5) 0.7526(10)
O12M O 0.4380(5) 0.3690(5) 0.599(1)
O13M O 0.5268(6) 0.3761(6) 0.6780(13)
O14M O 0.5545(6) 0.1865(5) 0.6807(11)
O15M O 0.3815(5) 0.2092(5) 0.7124(11)
O16M O 0.4061(6) 0.2598(5) 0.8782(10)
O17M O 0.1537(5) 0.3005(5) 0.7018(12)
W2O W 0.81520(3) 0.66366(3) 0.62332(6)
W3O W 0.58505(3) 0.73587(3) 0.75512(6)
W4O W 0.49203(3) 0.78265(3) 0.63462(6)
W5O W 0.51147(3) 0.66441(3) 0.63308(7)
O2O O 0.8671(5) 0.6180(5) 0.5983(10)
O4O O 0.7584(5) 0.6913(5) 0.6142(10)
O5O O 0.6326(5) 0.6993(5) 0.7149(11)
O6O O 0.5287(5) 0.7764(5) 0.7492(10)
O7O O 0.5320(5) 0.8324(4) 0.5955(11)
O9O O 0.4692(5) 0.7203(5) 0.6524(11)
O11O O 0.5404(5) 0.6843(5) 0.7526(10)
O12O O 0.5620(5) 0.6310(5) 0.599(1)
O13O O 0.4732(6) 0.6239(6) 0.6780(13)
O14O O 0.4455(6) 0.8135(5) 0.6807(11)
O15O O 0.6185(5) 0.7908(5) 0.7124(11)
O16O O 0.5939(6) 0.7402(5) 0.8782(10)
O17O O 0.8463(5) 0.6995(5) 0.7018(12)
C2B* C 0.5845(7) 1.0059(6) 0.6312(17)
H1B* H 0.59490 0.97562 0.61719
C3B* C 0.6080(6) 1.0393(8) 0.6905(16)
H2B* H 0.63649 1.03483 0.72221
N2B* N 0.5802(7) 1.0808(6) 0.6930(14)
H3B* H 0.58687 1.10620 0.72400
C4B* C 0.5396(6) 1.0730(6) 0.6351(16)
H4B* H 0.51548 1.09446 0.62418
N3B* N 0.5422(6) 1.0267(7) 0.5969(13)
C2H* C 0.5845(7) 1.0059(6) 0.3688(17)
H1H* H 0.59490 0.97562 0.38281
C3H* C 0.6080(6) 1.0393(8) 0.3095(16)
H2H* H 0.63649 1.03483 0.27779
N2H* N 0.5802(7) 1.0808(6) 0.3070(14)
H3H* H 0.58687 1.10620 0.27600
C4H* C 0.5396(6) 1.0730(6) 0.3649(16)
H4H* H 0.51548 1.09446 0.37582
N3H* N 0.5422(6) 1.0267(7) 0.4031(13)
C2J* C 0.4155(7) -0.0059(6) 0.3688(17)
H1J* H 0.40510 0.02438 0.38281
C3J* C 0.3920(6) -0.0393(8) 0.3095(16)
H2J* H 0.36351 -0.03483 0.27779
N2J* N 0.4198(7) -0.0808(6) 0.3070(14)
H3J* H 0.41313 -0.10620 0.27600
C4J* C 0.4604(6) -0.0730(6) 0.3649(16)
H4J* H 0.48452 -0.09446 0.37582
N3J* N 0.4578(6) -0.0267(7) 0.4031(13)
C2* C 0.4155(7) -0.0059(6) 0.6312(17)
H1* H 0.40510 0.02438 0.61719
C3* C 0.3920(6) -0.0393(8) 0.6905(16)
H2* H 0.36351 -0.03483 0.72221
N2* N 0.4198(7) -0.0808(6) 0.6930(14)
H3* H 0.41313 -0.10620 0.72400
C4* C 0.4604(6) -0.0730(6) 0.6351(16)
H4* H 0.48452 -0.09446 0.62418
N3* N 0.4578(6) -0.0267(7) 0.5969(13)
O19* O 0.5484(7) -0.0795(7) 0.50000
O19B* O 0.4516(7) 1.0795(7) 0.50000
Cu3E Cu 0.00000 0.50000 0.50000
Cu3E* Cu 1.00000 0.50000 0.50000
H5M H 0.57272 0.44561 0.21756
C5J C 0.8220(8) 0.6522(8) 1.0821(3)
H6J H 0.80939 0.64255 1.14129
C6J C 0.8588(9) 0.6805(8) 1.0830(3)
H7J H 0.87174 0.69036 1.14172
C7J C 0.4915(10) 0.7874(9) 0.0816(3)
H8J H 0.50665 0.78132 0.14025
C8J C 0.4492(10) 0.8044(10) 0.0816(3)
H9J H 0.43406 0.81045 0.14024
#END
