
#######################################################################
#
#                 Cambridge Crystallographic Data Centre
#                                CCDC
#
#######################################################################
#
# If this CIF has been generated from an entry in the Cambridge
# Structural Database, then it will include bibliographic, chemical,
# crystal, experimental, refinement or atomic coordinate data resulting
# from the CCDC's data processing and validation procedures.
#
#######################################################################

data_CSD_CIF_RODTAI
_audit_creation_date 2019-04-15
_audit_creation_method CSD-ConQuest-V1
_database_code_CSD RODTAI
_database_code_depnum_ccdc_archive 'CCDC 1814836'
_chemical_formula_sum 'C12 H11 Cu2 N3 O4 S2'
_chemical_formula_moiety
;
(C12 H7 Cu2 N2 O4 S2 1-)n,H4 N1 1+
;
_journal_coden_Cambridge 1490
_journal_volume 10
_journal_year 2019
_journal_page_first 1721
_journal_name_full 'Nat.Commun. '
loop_
_publ_author_name
"A.Pathak"
"Jing-Wen Shen"
"M.Usman"
"Ling-Fang Wei"
"S.Mendiratta"
"Yu-Shin Chang"
"B.Sainbileg"
"Chin-May Ngue"
"Ruei-San Chen"
"M.Hayashi"
"Tzuoo-Tsair Luo"
"Fu-Rong Chen"
"Kuei-Hsien Chen"
"Tien-Wen Tseng"
"Li-Chyong Chen"
"Kuang-Lieh Lu"
_chemical_name_systematic
;
catena-(ammonium 
(\m-6-sulfanylpyridine-3-carboxylato)-(\m-6-sulfanylpyridine-3-carboxylic 
acid)-di-copper)
;
_cell_volume   1358.188
_exptl_crystal_colour 'orange'
_exptl_crystal_density_diffrn 2.213
_exptl_crystal_description 'prism'
_diffrn_ambient_temperature 200
_diffrn_special_details
;
twin

;
#These two values have been output from a single CSD field.
_refine_ls_R_factor_gt 0.034
_refine_ls_wR_factor_gt 0.034
_symmetry_cell_setting orthorhombic
_symmetry_space_group_name_H-M 'P n a 21'
_symmetry_Int_Tables_number 33
loop_
_symmetry_equiv_pos_site_id
_symmetry_equiv_pos_as_xyz
1 x,y,z
2 -x,-y,1/2+z
3 1/2-x,1/2+y,1/2+z
4 1/2+x,1/2-y,z
_cell_length_a 11.3797(5)
_cell_length_b 3.8231(1)
_cell_length_c 31.2186(14)
_cell_angle_alpha 90
_cell_angle_beta 90
_cell_angle_gamma 90
_cell_formula_units_Z 4
loop_
_atom_type_symbol
_atom_type_radius_bond
C 0.68
H 0.23
Cu 1.32
N 0.68
O 0.68
S 1.02
loop_
_atom_site_label
_atom_site_type_symbol
_atom_site_fract_x
_atom_site_fract_y
_atom_site_fract_z
Cu1 Cu 0.44967(13) -0.2721(2) 0.07389(4)
Cu2 Cu 0.20163(13) -0.7119(3) 0.03165(3)
S1 S 0.4034(3) -0.7653(4) 0.03274(12)
S2 S 0.1519(3) -0.2215(4) 0.07160(12)
C1 C 0.3874(7) -0.104(2) 0.1624(3)
H1 H 0.46790 -0.15850 0.16690
C2 C 0.3284(7) 0.0477(18) 0.1961(3)
C3 C 0.3872(7) 0.102(2) 0.2378(3)
C4 C 0.2110(7) 0.138(2) 0.1892(3)
H2 H 0.16720 0.25080 0.21120
C5 C 0.1597(6) 0.0654(19) 0.1509(3)
H3 H 0.08050 0.13180 0.14580
C6 C 0.2242(6) -0.1097(17) 0.1186(3)
C7 C 0.4762(6) -0.6350(19) -0.0146(3)
C8 C 0.4130(7) -0.4494(18) -0.0452(3)
H4 H 0.33390 -0.38520 -0.03950
C9 C 0.4631(7) -0.358(2) -0.0834(3)
H5 H 0.42010 -0.23040 -0.10420
C10 C 0.5796(6) -0.459(2) -0.0910(3)
C11 C 0.6389(7) -0.392(2) -0.1328(3)
C12 C 0.6403(6) -0.6184(19) -0.0578(3)
H6 H 0.72120 -0.66870 -0.06200
N1 N 0.3423(8) -0.1821(18) 0.1236(4)
N2 N 0.5916(8) -0.7070(15) -0.0199(4)
O1 O 0.4935(5) 0.0365(16) 0.2427(3)
O2 O 0.3197(9) 0.2174(17) 0.2688(4)
O3 O 0.5741(9) -0.2702(14) -0.1627(4)
O4 O 0.7451(5) -0.4537(15) -0.1374(3)
H7 H 0.359(9) 0.26(2) 0.290(2)
N3 N 0.6231(11) -0.3324(14) 0.3030(5)
H8 H 0.667(5) -0.222(16) 0.3239(16)
H9 H 0.588(5) -0.161(14) 0.2868(18)
H10 H 0.567(4) -0.471(15) 0.3154(18)
H11 H 0.671(5) -0.464(16) 0.2860(17)
Cu1* Cu 0.44967(13) -1.2721(2) 0.07389(4)
Cu1C Cu -0.05033(13) -0.2279(2) 0.07389(4)
Cu2* Cu 0.20163(13) 0.2881(3) 0.03165(3)
Cu2C Cu 0.70163(13) -0.7881(3) 0.03165(3)
S1* S 0.4034(3) 0.2347(4) 0.03274(12)
S2* S 0.1519(3) -1.2215(4) 0.07160(12)
S2C S 0.6519(3) -0.2785(4) 0.07160(12)
N2C N 0.0916(8) -0.7930(15) -0.0199(4)
#END
