
#######################################################################
#
#                 Cambridge Crystallographic Data Centre
#                                CCDC
#
#######################################################################
#
# If this CIF has been generated from an entry in the Cambridge
# Structural Database, then it will include bibliographic, chemical,
# crystal, experimental, refinement or atomic coordinate data resulting
# from the CCDC's data processing and validation procedures.
#
#######################################################################

data_CSD_CIF_RODXOA
_audit_creation_date 2019-04-15
_audit_creation_method CSD-ConQuest-V1
_database_code_CSD RODXOA
_database_code_depnum_ccdc_archive 'CCDC 1868684'
_chemical_formula_sum 'C6 H12 Fe1 Mg1 Na1 O18'
_chemical_formula_moiety
;
(C6 Fe1 Na1 O12 2-)n,H12 Mg1 O6 2+
;
_journal_coden_Cambridge 1475
_journal_volume 10
_journal_year 2019
_journal_page_first 4923
_journal_name_full 'Chemical Science '
loop_
_publ_author_name
"I.Huskic"
"N.Novendra"
"Dae-Woon Lim"
"F.Topic"
"H.M.Titi"
"I.V.Pekov"
"S.V.Krivovichev"
"A.Navrotsky"
"H.Kitagawa"
"T.Friscic"
_chemical_name_systematic
;
catena-[hexaaqua-magnesium tris(\m-oxalato)-iron(iii)-sodium]
;
_cell_volume   2465.200
_exptl_crystal_colour 'dull green'
_exptl_crystal_density_diffrn 1.921
_exptl_special_details
;
moisture-sensitive, 
photo-sensitive,Moisture-sensitive,Deliquescent,Light-sensitive
;
_exptl_crystal_description 'rhombohedral'
_exptl_crystal_preparation 'dehydrated from nonahydrate'
_diffrn_ambient_temperature 100
_diffrn_special_details
;
twin

;
#These two values have been output from a single CSD field.
_refine_ls_R_factor_gt 0.0607
_refine_ls_wR_factor_gt 0.0607
_symmetry_cell_setting rhombohedral
_symmetry_space_group_name_H-M 'R 3'
_symmetry_Int_Tables_number 146
loop_
_symmetry_equiv_pos_site_id
_symmetry_equiv_pos_as_xyz
1 x,y,z
2 -y,x-y,z
3 -x+y,-x,z
4 2/3+x,1/3+y,1/3+z
5 2/3-y,1/3+x-y,1/3+z
6 2/3-x+y,1/3-x,1/3+z
7 1/3+x,2/3+y,2/3+z
8 1/3-y,2/3+x-y,2/3+z
9 1/3-x+y,2/3-x,2/3+z
_cell_length_a 9.77454(19)
_cell_length_b 9.77454(19)
_cell_length_c 29.7940(11)
_cell_angle_alpha 90
_cell_angle_beta 90
_cell_angle_gamma 120
_cell_formula_units_Z 6
loop_
_atom_type_symbol
_atom_type_radius_bond
C 0.68
H 0.23
Fe 1.52
Mg 1.41
Na 1.66
O 0.68
loop_
_atom_site_label
_atom_site_type_symbol
_atom_site_fract_x
_atom_site_fract_y
_atom_site_fract_z
Fe1 Fe 0.00000 0.00000 0.41242(3)
O1 O 0.1587(5) 0.1899(5) 0.37898(13)
O2 O 0.0033(4) 0.1690(5) 0.45258(14)
C1 C 0.2003(5) 0.3227(6) 0.39811(17)
C2 C 0.1072(5) 0.3143(6) 0.44125(17)
O3 O 0.3064(5) 0.4535(4) 0.38515(14)
O4 O 0.1309(5) 0.4317(5) 0.46126(15)
Na1 Na 0.33333 0.66667 0.43316(14)
Mg1 Mg 0.66667 0.33333 0.42073(15)
O5 O 0.4704(5) 0.2838(5) 0.45911(15)
H1 H 0.40241 0.30872 0.44540
H2 H 0.49588 0.33687 0.48565
O6 O 0.6125(5) 0.4752(5) 0.38232(14)
H3 H 0.69019 0.57442 0.38283
H4 H 0.52651 0.47386 0.39218
O7 O 0.3449(5) 0.4986(5) 0.55196(14)
C3 C 0.4517(5) 0.4678(5) 0.56489(16)
Na2 Na 0.66667 0.33333 0.58851(16)
Fe2 Fe 0.33333 0.66667 0.58757(3)
O8 O 0.4916(5) 0.6439(5) 0.62564(14)
C4 C 0.5405(5) 0.5561(5) 0.60811(18)
O9 O 0.4876(5) 0.3772(5) 0.54645(15)
O10 O 0.6495(5) 0.5396(4) 0.62241(14)
Mg2 Mg 1.00000 1.00000 0.58810(12)
O11 O 0.9482(4) 0.8037(5) 0.62616(14)
H5 H 0.84488 0.73508 0.62686
H6 H 0.97974 0.82909 0.65448
O12 O 1.0566(5) 1.1947(5) 0.54724(14)
H7 H 1.04983 1.17012 0.51844
H8 H 1.15411 1.27224 0.55219
O1A O -0.1899(5) -0.0312(5) 0.37898(13)
O2A O -0.1690(4) -0.1657(5) 0.45258(14)
O1B O 0.0312(5) -0.1587(5) 0.37898(13)
O2B O 0.1657(4) -0.0033(5) 0.45258(14)
C1A C -0.3227(5) -0.1224(6) 0.39811(17)
C2A C -0.3143(5) -0.2071(6) 0.44125(17)
C1B C 0.1224(5) -0.2003(6) 0.39811(17)
C2B C 0.2071(5) -0.1072(6) 0.44125(17)
O3A O -0.4535(5) -0.1471(4) 0.38515(14)
O4A O -0.4317(5) -0.3008(5) 0.46126(15)
O3B O 0.1471(5) -0.3064(4) 0.38515(14)
O4B O 0.3008(5) -0.1309(5) 0.46126(15)
Na1* Na -0.66667 -0.33333 0.43316(14)
Na1** Na 0.33333 -0.33333 0.43316(14)
O4A* O 0.5683(5) 0.6992(5) 0.46126(15)
O4B* O 0.3008(5) 0.8691(5) 0.46126(15)
O3A* O 0.5465(5) 0.8529(4) 0.38515(14)
O3B* O 0.1471(5) 0.6936(4) 0.38515(14)
O5A O 0.7162(5) 0.1866(5) 0.45911(15)
H1A H 0.69128 0.09369 0.44540
H2A H 0.66313 0.15901 0.48565
O6A O 0.5248(5) 0.1373(5) 0.38232(14)
H3A H 0.42558 0.11577 0.38283
H4A H 0.52614 0.05265 0.39218
O5B O 0.8134(5) 0.5296(5) 0.45911(15)
H1B H 0.90631 0.59759 0.44540
H2B H 0.84099 0.50412 0.48565
O6B O 0.8627(5) 0.3875(5) 0.38232(14)
H3B H 0.88423 0.30981 0.38283
H4B H 0.94735 0.47349 0.39218
O9A O 0.6228(5) 0.1104(5) 0.54645(15)
O10A O 0.4604(5) 0.1099(4) 0.62241(14)
O7B O 0.1537(5) 0.6551(5) 0.55196(14)
C3B C 0.0161(5) 0.5483(5) 0.56489(16)
O8B O 0.1523(5) 0.5084(5) 0.62564(14)
C4B C 0.0156(5) 0.4595(5) 0.60811(18)
O9B O -0.1104(5) 0.5124(5) 0.54645(15)
O10B O -0.1099(5) 0.3505(4) 0.62241(14)
O7A O 0.5014(5) 0.8463(5) 0.55196(14)
Na2* Na -0.33333 0.33333 0.58851(16)
O8A O 0.3561(5) 0.8477(5) 0.62564(14)
O9B* O 0.8896(5) 0.5124(5) 0.54645(15)
O10B* O 0.8901(5) 0.3505(4) 0.62241(14)
Na2** Na 0.66667 1.33333 0.58851(16)
O9A* O 0.6228(5) 1.1104(5) 0.54645(15)
C4A C 0.4439(5) 0.9844(5) 0.60811(18)
O10A* O 0.4604(5) 1.1099(4) 0.62241(14)
C3A C 0.5322(5) 0.9839(5) 0.56489(16)
O11A O 1.1963(4) 1.1445(5) 0.62616(14)
H5A H 1.26492 1.10980 0.62686
H6A H 1.17091 1.15065 0.65448
O12A O 0.8053(5) 0.8619(5) 0.54724(14)
H7A H 0.82988 0.87971 0.51844
H8A H 0.72776 0.88187 0.55219
O11B O 0.8555(4) 1.0518(5) 0.62616(14)
H5B H 0.89020 1.15512 0.62686
H6B H 0.84935 1.02026 0.65448
O12B O 1.1381(5) 0.9434(5) 0.54724(14)
H7B H 1.12029 0.95017 0.51844
H8B H 1.11813 0.84589 0.55219
#END
