
#######################################################################
#
#                 Cambridge Crystallographic Data Centre
#                                CCDC
#
#######################################################################
#
# If this CIF has been generated from an entry in the Cambridge
# Structural Database, then it will include bibliographic, chemical,
# crystal, experimental, refinement or atomic coordinate data resulting
# from the CCDC's data processing and validation procedures.
#
#######################################################################

data_CSD_CIF_RODYOB
_audit_creation_date 2019-04-15
_audit_creation_method CSD-ConQuest-V1
_database_code_CSD RODYOB
_database_code_depnum_ccdc_archive 'CCDC 1885054'
_chemical_formula_sum 'C32 H54 Co2 Mo10 N8 O52 Zn2'
_chemical_formula_moiety
;
(C16 H32 Co2 Mo10 N4 O48 Zn2 2-)n,n(C16 H18 N4 O2 2+),2n(H2 O1)
;
_journal_coden_Cambridge 222
_journal_volume 48
_journal_year 2019
_journal_page_first 5831
_journal_name_full 'Dalton Trans. '
loop_
_publ_author_name
"Feng-Cai Li"
"Li-Kun Tan"
"Xi-Li Li"
"Hua-Jie Kong"
"Li-Ming Ge"
"Ling-Yu Yue"
"Li-Feng Han"
_chemical_name_systematic
;
catena-((piperazine-1,4-diyl)bis[(pyridinium-3-yl)methanone] 
tetrakis(\m-hydroxo)-hexadecakis(\m-hydroxo)-(\m-(piperazine-1,4-diyl)bis[(pyr
idin-3-yl)methanone])-hexa-aqua-icosaoxo-di-cobalt-deca-molybdenum-di-zinc 
dihydrate)
;
_cell_volume   7187.368
_exptl_crystal_colour 'dark green'
_exptl_crystal_density_diffrn 2.355
_exptl_crystal_description 'block'
_diffrn_ambient_temperature 298.1
_refine_special_details
;
The MASK/OLEX2 program was used to model the disordered water molecules.

;
#These two values have been output from a single CSD field.
_refine_ls_R_factor_gt 0.0921
_refine_ls_wR_factor_gt 0.0921
_symmetry_cell_setting monoclinic
_symmetry_space_group_name_H-M 'C 2/c'
_symmetry_Int_Tables_number 15
loop_
_symmetry_equiv_pos_site_id
_symmetry_equiv_pos_as_xyz
1 x,y,z
2 -x,y,1/2-z
3 1/2+x,1/2+y,z
4 1/2-x,1/2+y,1/2-z
5 -x,-y,-z
6 x,-y,-1/2+z
7 -1/2-x,-1/2-y,-z
8 -1/2+x,-1/2-y,-1/2+z
_cell_length_a 21.544(2)
_cell_length_b 14.2328(12)
_cell_length_c 24.246(3)
_cell_angle_alpha 90
_cell_angle_beta 104.817(10)
_cell_angle_gamma 90
_cell_formula_units_Z 4
loop_
_atom_type_symbol
_atom_type_radius_bond
C 0.68
H 0.23
Co 1.26
Mo 1.54
N 0.68
O 0.68
Zn 1.22
loop_
_atom_site_label
_atom_site_type_symbol
_atom_site_fract_x
_atom_site_fract_y
_atom_site_fract_z
C1 C 0.6728(8) 0.1609(14) 0.4964(8)
H1 H 0.70990 0.12890 0.49450
C2 C 0.6700(9) 0.2008(18) 0.5470(8)
H2 H 0.70320 0.19120 0.57950
C3 C 0.6181(8) 0.2550(14) 0.5497(8)
H3 H 0.61700 0.28650 0.58310
C4 C 0.5678(7) 0.2614(11) 0.5016(7)
C5 C 0.5733(8) 0.2164(13) 0.4529(7)
H4 H 0.53960 0.22090 0.42020
C6 C 0.5053(8) 0.3115(12) 0.5008(7)
C7 C 0.5640(7) 0.4646(12) 0.5219(7)
H5 H 0.60020 0.42940 0.51580
H6 H 0.57500 0.48650 0.56110
C8 C 0.4489(8) 0.4518(12) 0.5180(7)
H7 H 0.45420 0.47260 0.55700
H8 H 0.41300 0.40850 0.50840
Co1 Co 0.43332(8) 0.53755(12) 0.23211(7)
Mo1 Mo 0.49114(6) 0.69455(9) 0.17973(5)
Mo2 Mo 0.64754(6) 0.69993(10) 0.22443(6)
Mo3 Mo 0.72452(5) 0.53691(9) 0.31182(5)
Mo4 Mo 0.63923(5) 0.37437(9) 0.35745(5)
Mo5 Mo 0.48266(5) 0.38455(8) 0.31336(5)
N1 N 0.6255(6) 0.1661(10) 0.4506(5)
N2 N 0.5083(6) 0.4041(10) 0.5123(6)
O1 O 0.4348(5) 0.6669(8) 0.1182(5)
O2 O 0.4864(6) 0.8141(9) 0.1841(5)
O3 O 0.5715(4) 0.6831(7) 0.1624(4)
O4 O 0.6435(5) 0.8192(9) 0.2362(5)
O5 O 0.7021(5) 0.6915(8) 0.1846(4)
O6 O 0.7004(5) 0.6660(7) 0.2993(4)
O7 O 0.7748(5) 0.5238(8) 0.2683(5)
O8 O 0.7727(5) 0.5472(9) 0.3779(5)
O9 O 0.6991(4) 0.4074(7) 0.3138(4)
O10 O 0.6855(4) 0.3850(8) 0.4252(4)
O11 O 0.6338(5) 0.2568(7) 0.3428(4)
O12 O 0.5585(4) 0.3973(7) 0.3732(4)
O13 O 0.4809(4) 0.2657(7) 0.3068(4)
O14 O 0.4239(5) 0.4130(7) 0.3461(4)
O15 O 0.4967(4) 0.5363(7) 0.3000(3)
O16 O 0.4378(4) 0.4065(7) 0.2323(4)
O17 O 0.3634(4) 0.5446(7) 0.2668(4)
O18 O 0.3671(4) 0.5268(6) 0.1593(4)
O19 O 0.4371(4) 0.6703(6) 0.2341(4)
O20 O 0.4553(5) 0.2670(9) 0.4901(6)
O21 O 0.5373(7) 0.1019(10) 0.3359(7)
H9 H 0.52870 0.08540 0.29880
H10 H 0.51700 0.15790 0.33370
O22 O 0.6368(9) 0.0560(14) 0.2917(9)
H11 H 0.60020 0.02180 0.27330
H12 H 0.66840 0.00980 0.29320
O23 O 0.7287(6) 0.1058(10) 0.3875(7)
H13 H 0.74200 0.10580 0.35520
H14 H 0.74530 0.05150 0.40360
O24 O 0.6283(9) -0.0307(13) 0.3996(8)
Zn1 Zn 0.63262(9) 0.11053(15) 0.37294(9)
C9 C 0.6607(7) 0.2378(13) 0.2120(7)
H15 H 0.64830 0.21180 0.24280
C10 C 0.6399(7) 0.1970(12) 0.1581(6)
H16 H 0.61420 0.14350 0.15180
C11 C 0.6592(7) 0.2401(12) 0.1153(6)
H17 H 0.64450 0.21640 0.07850
C12 C 0.6997(6) 0.3176(11) 0.1235(6)
C13 C 0.7187(7) 0.3503(12) 0.1769(7)
H18 H 0.74720 0.40060 0.18460
C14 C 0.7200(7) 0.3650(11) 0.0767(7)
C15 C 0.7749(9) 0.2206(12) 0.0570(7)
H19 H 0.76870 0.19960 0.09320
H20 H 0.82070 0.22610 0.06080
C16 C 0.7537(9) 0.3511(11) -0.0110(7)
H21 H 0.79900 0.36040 -0.00830
H22 H 0.73180 0.41090 -0.01930
N3 N 0.6980(6) 0.3134(10) 0.2198(5)
N4 N 0.7446(7) 0.3116(10) 0.0427(5)
O25 O 0.7076(5) 0.4479(8) 0.0689(5)
C1D C 0.3272(8) 0.8391(14) 0.5036(8)
H1D H 0.29010 0.87110 0.50550
C2D C 0.3300(9) 0.7992(18) 0.4530(8)
H2D H 0.29680 0.80880 0.42050
C3D C 0.3819(8) 0.7450(14) 0.4503(8)
H3D H 0.38300 0.71350 0.41690
C4D C 0.4322(7) 0.7386(11) 0.4984(7)
C5D C 0.4267(8) 0.7836(13) 0.5471(7)
H4D H 0.46040 0.77910 0.57980
C6D C 0.4947(8) 0.6885(12) 0.4992(7)
C7D C 0.4360(7) 0.5354(12) 0.4781(7)
H5D H 0.39980 0.57060 0.48420
H6D H 0.42500 0.51350 0.43890
C8D C 0.5511(8) 0.5482(12) 0.4820(7)
H7D H 0.54580 0.52740 0.44300
H8D H 0.58700 0.59150 0.49160
N1D N 0.3745(6) 0.8339(10) 0.5494(5)
N2D N 0.4917(6) 0.5959(10) 0.4877(6)
O20D O 0.5447(5) 0.7330(9) 0.5099(6)
Co1A Co 0.56668(8) 0.53755(12) 0.26789(7)
Mo1A Mo 0.50886(6) 0.69455(9) 0.32027(5)
Mo2A Mo 0.35246(6) 0.69993(10) 0.27557(6)
Mo3A Mo 0.27548(5) 0.53691(9) 0.18818(5)
Mo4A Mo 0.36077(5) 0.37437(9) 0.14255(5)
Mo5A Mo 0.51734(5) 0.38455(8) 0.18664(5)
O1A O 0.5652(5) 0.6669(8) 0.3818(5)
O2A O 0.5136(6) 0.8141(9) 0.3159(5)
O3A O 0.4285(4) 0.6831(7) 0.3376(4)
O4A O 0.3565(5) 0.8192(9) 0.2638(5)
O5A O 0.2979(5) 0.6915(8) 0.3154(4)
O6A O 0.2996(5) 0.6660(7) 0.2007(4)
O7A O 0.2252(5) 0.5238(8) 0.2317(5)
O8A O 0.2273(5) 0.5472(9) 0.1221(5)
O9A O 0.3009(4) 0.4074(7) 0.1862(4)
O10A O 0.3145(4) 0.3850(8) 0.0748(4)
O11A O 0.3662(5) 0.2568(7) 0.1572(4)
O12A O 0.4415(4) 0.3973(7) 0.1268(4)
O13A O 0.5191(4) 0.2657(7) 0.1932(4)
O14A O 0.5761(5) 0.4130(7) 0.1539(4)
O15A O 0.5033(4) 0.5363(7) 0.2000(3)
O16A O 0.5622(4) 0.4065(7) 0.2677(4)
O17A O 0.6366(4) 0.5446(7) 0.2332(4)
O18A O 0.6329(4) 0.5268(6) 0.3407(4)
O19A O 0.5629(4) 0.6703(6) 0.2659(4)
O21A O 0.4627(7) 0.1019(10) 0.1641(7)
H9A H 0.47130 0.08540 0.20120
H10A H 0.48300 0.15790 0.16630
O22A O 0.3632(9) 0.0560(14) 0.2083(9)
H11A H 0.39980 0.02180 0.22670
H12A H 0.33160 0.00980 0.20680
O23A O 0.2713(6) 0.1058(10) 0.1125(7)
H13A H 0.25800 0.10580 0.14480
H14A H 0.25470 0.05150 0.09640
O24A O 0.3717(9) -0.0307(13) 0.1004(8)
Zn1A Zn 0.36738(9) 0.11053(15) 0.12706(9)
N1A N 0.3745(6) 0.1661(10) 0.0494(5)
Zn1D Zn 0.36738(9) 0.88947(15) 0.62706(9)
C9F C 0.8393(7) 0.2622(13) -0.2120(7)
H15F H 0.85170 0.28820 -0.24280
C10F C 0.8601(7) 0.3030(12) -0.1581(6)
H16F H 0.88580 0.35650 -0.15180
C11F C 0.8408(7) 0.2599(12) -0.1153(6)
H17F H 0.85550 0.28360 -0.07850
C12F C 0.8003(6) 0.1824(11) -0.1235(6)
C13F C 0.7813(7) 0.1497(12) -0.1769(7)
H18F H 0.75280 0.09940 -0.18460
C14F C 0.7800(7) 0.1350(11) -0.0767(7)
C15F C 0.7251(9) 0.2794(12) -0.0570(7)
H19F H 0.73130 0.30040 -0.09320
H20F H 0.67930 0.27390 -0.06080
C16F C 0.7463(9) 0.1489(11) 0.0110(7)
H21F H 0.70100 0.13960 0.00830
H22F H 0.76820 0.08910 0.01930
N3F N 0.8020(6) 0.1866(10) -0.2198(5)
N4F N 0.7554(7) 0.1884(10) -0.0427(5)
O25F O 0.7924(5) 0.0521(8) -0.0689(5)
#END
