
#######################################################################
#
#                 Cambridge Crystallographic Data Centre
#                                CCDC
#
#######################################################################
#
# If this CIF has been generated from an entry in the Cambridge
# Structural Database, then it will include bibliographic, chemical,
# crystal, experimental, refinement or atomic coordinate data resulting
# from the CCDC's data processing and validation procedures.
#
#######################################################################

data_CSD_CIF_ROFYOD
_audit_creation_date 2019-04-16
_audit_creation_method CSD-ConQuest-V1
_database_code_CSD ROFYOD
_database_code_depnum_ccdc_archive 'CCDC 1895049'
_chemical_formula_sum 'C54 H66 Cd3 N42 O92 P2 W24'
_chemical_formula_moiety
;
(C18 H18 Cd1 N14 O2 2+)3n,2n(O40 P1 W12 3-),6n(H2 O1)
;
_journal_coden_Cambridge 1500
_journal_volume 9
_journal_year 2019
_journal_page_first 11932
_journal_name_full 'RSC Advances '
loop_
_publ_author_name
"Yingying Wu"
"Xuefei Li"
"Ying Liu"
"Ge Xiao"
"Yijiao Huang"
"Yamin Li"
"Dongbin Dang"
"Yan Bai"
_chemical_name_systematic
;
catena-(tris(bis(\m-2,6-bis(1H-1,2,4-triazol-1-yl)pyridine)-diaqua-cadmium(ii)
) bis(tetracosakis(\m-oxo)-(\m-phosphato)-dodecaoxo-dodeca-tungsten) 
hexahydrate)
;
_cell_volume  28025.209
_exptl_crystal_colour 'light yellow'
_exptl_crystal_density_diffrn 3.591
_exptl_crystal_description 'block'
_diffrn_ambient_temperature 293
_refine_special_details
;
The phosphate groups are disordered by symmetry.

;
#These two values have been output from a single CSD field.
_refine_ls_R_factor_gt 0.092
_refine_ls_wR_factor_gt 0.092
_symmetry_cell_setting cubic
_symmetry_space_group_name_H-M 'I a -3'
_symmetry_Int_Tables_number 206
loop_
_symmetry_equiv_pos_site_id
_symmetry_equiv_pos_as_xyz
1 x,y,z
2 1/2-x,-y,1/2+z
3 -x,1/2+y,1/2-z
4 1/2+x,1/2-y,-z
5 z,x,y
6 1/2+z,1/2-x,-y
7 1/2-z,-x,1/2+y
8 -z,1/2+x,1/2-y
9 y,z,x
10 -y,1/2+z,1/2-x
11 1/2+y,1/2-z,-x
12 1/2-y,-z,1/2+x
13 1/2+x,1/2+y,1/2+z
14 -x,1/2-y,z
15 1/2-x,y,-z
16 x,-y,1/2-z
17 1/2+z,1/2+x,1/2+y
18 z,-x,1/2-y
19 -z,1/2-x,y
20 1/2-z,x,-y
21 1/2+y,1/2+z,1/2+x
22 1/2-y,z,-x
23 y,-z,1/2-x
24 -y,1/2-z,x
25 -x,-y,-z
26 -1/2+x,y,-1/2-z
27 x,-1/2-y,-1/2+z
28 -1/2-x,-1/2+y,z
29 -z,-x,-y
30 -1/2-z,-1/2+x,y
31 -1/2+z,x,-1/2-y
32 z,-1/2-x,-1/2+y
33 -y,-z,-x
34 y,-1/2-z,-1/2+x
35 -1/2-y,-1/2+z,x
36 -1/2+y,z,-1/2-x
37 -1/2-x,-1/2-y,-1/2-z
38 x,-1/2+y,-z
39 -1/2+x,-y,z
40 -x,y,-1/2+z
41 -1/2-z,-1/2-x,-1/2-y
42 -z,x,-1/2+y
43 z,-1/2+x,-y
44 -1/2+z,-x,y
45 -1/2-y,-1/2-z,-1/2-x
46 -1/2+y,-z,x
47 -y,z,-1/2+x
48 y,-1/2+z,-x
_cell_length_a 30.375(4)
_cell_length_b 30.375(4)
_cell_length_c 30.375(4)
_cell_angle_alpha 90
_cell_angle_beta 90
_cell_angle_gamma 90
_cell_formula_units_Z 8
loop_
_atom_type_symbol
_atom_type_radius_bond
C 0.68
H 0.23
Cd 1.44
N 0.68
O 0.68
P 1.05
W 1.62
loop_
_atom_site_label
_atom_site_type_symbol
_atom_site_fract_x
_atom_site_fract_y
_atom_site_fract_z
Cd1 Cd 0.50000 -0.25000 -1.15665(11)
N1 N 0.3953(7) -0.3095(7) -1.0746(8)
N2 N 0.4474(7) -0.2703(7) -1.1060(7)
N3 N 0.4035(9) -0.2738(9) -1.0473(8)
N4 N 0.3251(6) -0.4365(6) -1.1181(7)
N5 N 0.2939(8) -0.4682(10) -1.1156(10)
N6 N 0.3580(8) -0.3732(7) -1.0947(7)
N7 N 0.3302(9) -0.4754(8) -1.1779(8)
C1 C 0.4231(9) -0.3052(8) -1.1092(8)
H1 H 0.42450 -0.32500 -1.13250
C2 C 0.3312(9) -0.4068(9) -1.0848(9)
C3 C 0.3091(10) -0.4101(10) -1.0438(10)
H2 H 0.29000 -0.43340 -1.03820
C4 C 0.3641(9) -0.3421(9) -1.0630(9)
C5 C 0.2986(10) -0.4917(10) -1.1522(11)
H3 H 0.28190 -0.51640 -1.15910
C6 C 0.3441(10) -0.3427(12) -1.0227(10)
H4 H 0.34850 -0.32020 -1.00230
C7 C 0.4333(13) -0.2521(10) -1.0666(11)
C8 C 0.3164(12) -0.3791(12) -1.0133(11)
H5 H 0.30320 -0.38150 -0.98580
C9 C 0.3455(8) -0.4414(8) -1.1555(8)
H6 H 0.36800 -0.42320 -1.16520
H7 H 0.44070 -0.23010 -1.05020
O1 O 0.4471(11) -0.2663(11) -1.2147(11)
W1 W -0.04016(4) 0.10912(4) -0.48330(4)
W2 W -0.03043(4) 0.06589(4) -0.59246(4)
O2 O -0.0243(7) 0.0929(6) -0.4259(7)
O3 O -0.0444(7) 0.0969(7) -0.6359(6)
O4 O -0.0494(7) 0.0989(11) -0.5451(7)
O5 O -0.0779(7) 0.0282(7) -0.5875(11)
O6 O 0.0017(7) 0.0191(7) -0.6182(11)
O7 O -0.0597(9) 0.1596(7) -0.4764(10)
O8 O -0.0019(10) 0.0491(10) -0.5161(10)
O9 O 0.0277(10) -0.0277(10) -0.5277(10)
P1 P 0.00000 0.00000 -0.50000
W3 W 0.27440(6) -0.15846(5) -0.81975(5)
W4 W 0.34479(6) -0.25197(5) -0.81888(5)
O10 O 0.3576(4) -0.2933(4) -0.7713(4)
O11 O 0.2906(13) -0.2265(13) -0.7746(13)
O12 O 0.2869(8) -0.1162(7) -0.8525(8)
O13 O 0.3145(14) -0.1495(8) -0.7732(10)
O14 O 0.3631(14) -0.2180(8) -0.7690(11)
O15 O 0.3130(13) -0.2009(8) -0.8401(13)
O16 O 0.3897(9) -0.2518(14) -0.8513(10)
O17 O 0.2256(10) -0.2256(10) -0.7256(10)
P2 P 0.25000 -0.25000 -0.75000
N1M N 0.6047(7) -0.1905(7) -1.0746(8)
N2M N 0.5526(7) -0.2297(7) -1.1060(7)
N3M N 0.5965(9) -0.2262(9) -1.0473(8)
N4M N 0.6749(6) -0.0635(6) -1.1181(7)
N5M N 0.7061(8) -0.0318(10) -1.1156(10)
N6M N 0.6420(8) -0.1268(7) -1.0947(7)
N7M N 0.6698(9) -0.0246(8) -1.1779(8)
C1M C 0.5769(9) -0.1948(8) -1.1092(8)
H1M H 0.57550 -0.17500 -1.13250
C2M C 0.6688(9) -0.0932(9) -1.0848(9)
C3M C 0.6909(10) -0.0899(10) -1.0438(10)
H2M H 0.71000 -0.06660 -1.03820
C4M C 0.6359(9) -0.1579(9) -1.0630(9)
C5M C 0.7014(10) -0.0083(10) -1.1522(11)
H3M H 0.71810 0.01640 -1.15910
C6M C 0.6559(10) -0.1573(12) -1.0227(10)
H4M H 0.65150 -0.17980 -1.00230
C7M C 0.5667(13) -0.2479(10) -1.0666(11)
C8M C 0.6836(12) -0.1209(12) -1.0133(11)
H5M H 0.69680 -0.11850 -0.98580
C9M C 0.6545(8) -0.0586(8) -1.1555(8)
H6M H 0.63200 -0.07680 -1.16520
H7M H 0.55930 -0.26990 -1.05020
O1M O 0.5529(11) -0.2337(11) -1.2147(11)
Cd1CA Cd 0.65665 0.00000 -1.25000(11)
Cd1DA Cd 0.34335 -0.50000 -1.25000(11)
N7GA N 0.5246(9) -0.3221(8) -1.1698(8)
N7TA N 0.4754(9) -0.1779(8) -1.1698(8)
O8F O 0.0161(10) 0.0019(10) -0.4509(10)
O8I O -0.0491(10) -0.0161(10) -0.4981(10)
O8X O 0.0019(10) -0.0491(10) -0.4839(10)
O9X O -0.0277(10) 0.0277(10) -0.4723(10)
O8DA O -0.0161(10) -0.0019(10) -0.5491(10)
O8GA O 0.0491(10) 0.0161(10) -0.5019(10)
W1F W -0.01670(4) 0.04016(4) -0.39088(4)
W2F W 0.09246(4) 0.03043(4) -0.43411(4)
O2F O -0.0741(7) 0.0243(6) -0.4071(7)
O3F O 0.1359(7) 0.0444(7) -0.4031(6)
O4F O 0.0451(7) 0.0494(11) -0.4011(7)
O5F O 0.0875(7) 0.0779(7) -0.4718(11)
O6F O 0.1182(7) -0.0017(7) -0.4809(11)
O7F O -0.0236(9) 0.0597(7) -0.3404(10)
W1I W -0.10912(4) 0.01670(4) -0.45984(4)
W2I W -0.06589(4) -0.09246(4) -0.46957(4)
O2I O -0.0929(7) 0.0741(6) -0.4757(7)
O3I O -0.0969(7) -0.1359(7) -0.4556(6)
O4I O -0.0989(7) -0.0451(11) -0.4506(7)
O5I O -0.0282(7) -0.0875(7) -0.4221(11)
O6I O -0.0191(7) -0.1182(7) -0.5017(11)
O7I O -0.1596(9) 0.0236(7) -0.4403(10)
W1X W 0.04016(4) -0.10912(4) -0.51670(4)
W2X W 0.03043(4) -0.06589(4) -0.40754(4)
O2X O 0.0243(7) -0.0929(6) -0.5741(7)
O3X O 0.0444(7) -0.0969(7) -0.3641(6)
O4X O 0.0494(7) -0.0989(11) -0.4549(7)
O5X O 0.0779(7) -0.0282(7) -0.4125(11)
O6X O -0.0017(7) -0.0191(7) -0.3818(11)
O7X O 0.0597(9) -0.1596(7) -0.5236(10)
W1DA W 0.01670(4) -0.04016(4) -0.60912(4)
W2DA W -0.09246(4) -0.03043(4) -0.56589(4)
O2DA O 0.0741(7) -0.0243(6) -0.5929(7)
O3DA O -0.1359(7) -0.0444(7) -0.5969(6)
O4DA O -0.0451(7) -0.0494(11) -0.5989(7)
O5DA O -0.0875(7) -0.0779(7) -0.5282(11)
O6DA O -0.1182(7) 0.0017(7) -0.5191(11)
O7DA O 0.0236(9) -0.0597(7) -0.6596(10)
W1GA W 0.10912(4) -0.01670(4) -0.54016(4)
W2GA W 0.06589(4) 0.09246(4) -0.53043(4)
O2GA O 0.0929(7) -0.0741(6) -0.5243(7)
O3GA O 0.0969(7) 0.1359(7) -0.5444(6)
O4GA O 0.0989(7) 0.0451(11) -0.5494(7)
O5GA O 0.0282(7) 0.0875(7) -0.5779(11)
O6GA O 0.0191(7) 0.1182(7) -0.4983(11)
O7GA O 0.1596(9) -0.0236(7) -0.5597(10)
O11F O 0.2746(13) -0.2906(13) -0.7265(13)
O11I O 0.2265(13) -0.2746(13) -0.7906(13)
O11JA O 0.2094(13) -0.2735(13) -0.7254(13)
O17JA O 0.2744(10) -0.2744(10) -0.7744(10)
O11PA O 0.2254(13) -0.2094(13) -0.7735(13)
O11SA O 0.2735(13) -0.2254(13) -0.7094(13)
W3F W 0.31975(6) -0.27440(5) -0.65846(5)
W4F W 0.31888(6) -0.34479(5) -0.75197(5)
O10F O 0.2713(4) -0.3576(4) -0.7933(4)
O12F O 0.3525(8) -0.2869(7) -0.6162(8)
O13F O 0.2732(14) -0.3145(8) -0.6495(10)
O14F O 0.2690(14) -0.3631(8) -0.7180(11)
O15F O 0.3401(13) -0.3130(8) -0.7009(13)
O16F O 0.3513(9) -0.3897(14) -0.7518(10)
W3I W 0.15846(6) -0.31975(5) -0.77440(5)
W4I W 0.25197(6) -0.31888(5) -0.84479(5)
O10I O 0.2933(4) -0.2713(4) -0.8576(4)
O12I O 0.1162(8) -0.3525(7) -0.7869(8)
O13I O 0.1495(14) -0.2732(8) -0.8145(10)
O14I O 0.2180(14) -0.2690(8) -0.8631(11)
O15I O 0.2009(13) -0.3401(8) -0.8130(13)
O16I O 0.2518(9) -0.3513(14) -0.8897(10)
W3JA W 0.22560(6) -0.34154(5) -0.68025(5)
W4JA W 0.15521(6) -0.24803(5) -0.68112(5)
O10JA O 0.1424(4) -0.2067(4) -0.7287(4)
O12JA O 0.2131(8) -0.3838(7) -0.6475(8)
O13JA O 0.1855(14) -0.3505(8) -0.7268(10)
O14JA O 0.1369(14) -0.2820(8) -0.7310(11)
O15JA O 0.1870(13) -0.2991(8) -0.6599(13)
O16JA O 0.1103(9) -0.2482(14) -0.6487(10)
W3PA W 0.18025(6) -0.22560(5) -0.84154(5)
W4PA W 0.18112(6) -0.15521(5) -0.74803(5)
O10PA O 0.2287(4) -0.1424(4) -0.7067(4)
O12PA O 0.1475(8) -0.2131(7) -0.8838(8)
O13PA O 0.2268(14) -0.1855(8) -0.8505(10)
O14PA O 0.2310(14) -0.1369(8) -0.7820(11)
O15PA O 0.1599(13) -0.1870(8) -0.7991(13)
O16PA O 0.1487(9) -0.1103(14) -0.7482(10)
W3SA W 0.34154(6) -0.18025(5) -0.72560(5)
W4SA W 0.24803(6) -0.18112(5) -0.65521(5)
O10SA O 0.2067(4) -0.2287(4) -0.6424(4)
O12SA O 0.3838(8) -0.1475(7) -0.7131(8)
O13SA O 0.3505(14) -0.2268(8) -0.6855(10)
O14SA O 0.2820(14) -0.2310(8) -0.6369(11)
O15SA O 0.2991(13) -0.1599(8) -0.6870(13)
O16SA O 0.2482(9) -0.1487(14) -0.6103(10)
#END
