
#######################################################################
#
#                 Cambridge Crystallographic Data Centre
#                                CCDC
#
#######################################################################
#
# If this CIF has been generated from an entry in the Cambridge
# Structural Database, then it will include bibliographic, chemical,
# crystal, experimental, refinement or atomic coordinate data resulting
# from the CCDC's data processing and validation procedures.
#
#######################################################################

data_CSD_CIF_ROFYIX
_audit_creation_date 2019-04-16
_audit_creation_method CSD-ConQuest-V1
_database_code_CSD ROFYIX
_database_code_depnum_ccdc_archive 'CCDC 1895048'
_chemical_formula_sum 'C36 H32 Co2 N28 O34 W10'
_chemical_formula_moiety
;
(C18 H14 Co1 N14 O32 W10 2-)n,n(C18 H18 Co1 N14 O2 2+)
;
_journal_coden_Cambridge 1500
_journal_volume 9
_journal_year 2019
_journal_page_first 11932
_journal_name_full 'RSC Advances '
loop_
_publ_author_name
"Yingying Wu"
"Xuefei Li"
"Ying Liu"
"Ge Xiao"
"Yijiao Huang"
"Yamin Li"
"Dongbin Dang"
"Yan Bai"
_chemical_name_systematic
;
catena-(bis(\m-2,6-bis(1H-1,2,4-triazol-1-yl)pyridine)-diaqua-cobalt(ii) 
tetracosakis(\m-oxo)-bis(\m-2,6-bis(1H-1,2,4-triazol-1-yl)pyridine)-octaoxo-co
balt-deca-tungsten)
;
_cell_volume   6353.064
_exptl_crystal_colour 'red'
_exptl_crystal_density_diffrn 3.51
_exptl_crystal_description 'granular'
_diffrn_ambient_temperature 296
#These two values have been output from a single CSD field.
_refine_ls_R_factor_gt 0.0305
_refine_ls_wR_factor_gt 0.0305
_symmetry_cell_setting orthorhombic
_symmetry_space_group_name_H-M 'C c c m'
_symmetry_Int_Tables_number 66
loop_
_symmetry_equiv_pos_site_id
_symmetry_equiv_pos_as_xyz
1 x,y,z
2 -x,-y,z
3 -x,y,1/2-z
4 x,-y,1/2-z
5 1/2+x,1/2+y,z
6 1/2-x,1/2-y,z
7 1/2-x,1/2+y,1/2-z
8 1/2+x,1/2-y,1/2-z
9 -x,-y,-z
10 x,y,-z
11 x,-y,-1/2+z
12 -x,y,-1/2+z
13 -1/2-x,-1/2-y,-z
14 -1/2+x,-1/2+y,-z
15 -1/2+x,-1/2-y,-1/2+z
16 -1/2-x,-1/2+y,-1/2+z
_cell_length_a 13.0024(8)
_cell_length_b 21.9573(13)
_cell_length_c 22.2526(14)
_cell_angle_alpha 90
_cell_angle_beta 90
_cell_angle_gamma 90
_cell_formula_units_Z 4
loop_
_atom_type_symbol
_atom_type_radius_bond
C 0.68
H 0.23
Co 1.26
N 0.68
O 0.68
W 1.62
loop_
_atom_site_label
_atom_site_type_symbol
_atom_site_fract_x
_atom_site_fract_y
_atom_site_fract_z
W1 W 0.18728(4) 0.07947(2) 0.00000
W2 W 0.14162(3) -0.02096(2) -0.10434(2)
W3 W -0.09526(4) 0.12312(2) 0.00000
W4 W 0.31641(4) -0.04821(2) 0.00000
O1 O 0.2298(6) 0.1539(3) 0.00000
O2 O 0.1463(6) -0.0195(3) 0.00000
O3 O 0.3185(6) 0.0401(4) 0.00000
O4 O 0.1754(4) 0.0623(2) 0.0834(2)
O5 O 0.0426(7) 0.0968(3) 0.00000
O6 O 0.00000 0.00000 -0.1014(3)
O7 O -0.1062(4) 0.1020(2) 0.0832(2)
O8 O 0.2855(4) -0.0403(3) 0.0842(3)
O9 O 0.1578(5) -0.0234(3) -0.1798(3)
O10 O -0.2465(7) 0.1239(4) 0.00000
O11 O -0.0782(7) 0.1994(4) 0.00000
O12 O 0.4421(7) -0.0678(4) 0.00000
N1 N 0.1393(5) 0.2606(3) 0.0679(3)
N2 N 0.0595(5) 0.2385(3) 0.1507(3)
N3 N 0.0239(7) 0.2943(4) 0.1349(3)
N4 N 0.00000 0.2380(4) 0.25000
C1 C 0.1281(7) 0.2197(4) 0.1116(4)
H1 H 0.16390 0.18310 0.11420
C2 C 0.0743(8) 0.3048(4) 0.0845(4)
H2 H 0.06530 0.34020 0.06220
C3 C 0.0251(7) 0.2048(4) 0.2023(4)
C4 C 0.0253(7) 0.1426(4) 0.1987(4)
H3 H 0.04170 0.12250 0.16320
C5 C 0.00000 0.1111(6) 0.25000
H4 H 0.00000 0.06870 0.25000
Co1 Co 0.25000 0.25000 0.00000
Co2 Co 0.00000 0.50000 0.25000
O13 O 0.00000 0.50000 0.1457(4)
N5 N 0.1109(6) 0.4327(3) 0.2473(3)
N6 N 0.1915(5) 0.3498(3) 0.2712(3)
N7 N 0.2256(7) 0.3641(4) 0.2145(3)
N8 N 0.25000 0.25000 0.2720(5)
C6 C 0.1228(7) 0.3909(4) 0.2887(4)
H5 H 0.08810 0.39020 0.32520
C7 C 0.1760(9) 0.4143(4) 0.2029(5)
H6 H 0.18440 0.43580 0.16720
C8 C 0.2239(7) 0.2983(4) 0.3053(4)
C9 C 0.2260(7) 0.3020(4) 0.3660(4)
H7 H 0.21180 0.33850 0.38560
C10 C 0.25000 0.25000 0.3982(6)
H8 H 0.25000 0.25000 0.44000
N1B N -0.1393(5) 0.2606(3) 0.4321(3)
N2B N -0.0595(5) 0.2385(3) 0.3493(3)
N3B N -0.0239(7) 0.2943(4) 0.3651(3)
C1B C -0.1281(7) 0.2197(4) 0.3884(4)
H1B H -0.16390 0.18310 0.38580
C2B C -0.0743(8) 0.3048(4) 0.4155(4)
H2B H -0.06530 0.34020 0.43780
C3B C -0.0251(7) 0.2048(4) 0.2977(4)
C4B C -0.0253(7) 0.1426(4) 0.3013(4)
H3B H -0.04170 0.12250 0.33680
W1A W -0.18728(4) -0.07947(2) 0.00000
W2A W -0.14162(3) 0.02096(2) -0.10434(2)
W3A W 0.09526(4) -0.12312(2) 0.00000
W4A W -0.31641(4) 0.04821(2) 0.00000
O1A O -0.2298(6) -0.1539(3) 0.00000
O2A O -0.1463(6) 0.0195(3) 0.00000
O3A O -0.3185(6) -0.0401(4) 0.00000
O4A O -0.1754(4) -0.0623(2) 0.0834(2)
O5A O -0.0426(7) -0.0968(3) 0.00000
O7A O 0.1062(4) -0.1020(2) 0.0832(2)
O8A O -0.2855(4) 0.0403(3) 0.0842(3)
O9A O -0.1578(5) 0.0234(3) -0.1798(3)
O10A O 0.2465(7) -0.1239(4) 0.00000
O11A O 0.0782(7) -0.1994(4) 0.00000
O12A O -0.4421(7) 0.0678(4) 0.00000
N1E N 0.3607(5) 0.2394(3) 0.0679(3)
N2E N 0.4405(5) 0.2615(3) 0.1507(3)
N3E N 0.4761(7) 0.2057(4) 0.1349(3)
N4E N 0.50000 0.2620(4) 0.25000
C1E C 0.3719(7) 0.2803(4) 0.1116(4)
H1E H 0.33610 0.31690 0.11420
C2E C 0.4257(8) 0.1952(4) 0.0845(4)
H2E H 0.43470 0.15980 0.06220
C3E C 0.4749(7) 0.2952(4) 0.2023(4)
C4E C 0.4747(7) 0.3574(4) 0.1987(4)
H3E H 0.45830 0.37750 0.16320
C5E C 0.50000 0.3889(6) 0.25000
H4E H 0.50000 0.43130 0.25000
N1G N 0.6393(5) 0.2394(3) 0.4321(3)
N2G N 0.5595(5) 0.2615(3) 0.3493(3)
N3G N 0.5239(7) 0.2057(4) 0.3651(3)
C1G C 0.6281(7) 0.2803(4) 0.3884(4)
H1G H 0.66390 0.31690 0.38580
C2G C 0.5743(8) 0.1952(4) 0.4155(4)
H2G H 0.56530 0.15980 0.43780
C3G C 0.5251(7) 0.2952(4) 0.2977(4)
C4G C 0.5253(7) 0.3574(4) 0.3013(4)
H3G H 0.54170 0.37750 0.33680
W2I W 0.14162(3) -0.02096(2) 0.10434(2)
O6H O 0.00000 0.00000 0.1014(3)
O9I O 0.1578(5) -0.0234(3) 0.1798(3)
W2H W -0.14162(3) 0.02096(2) 0.10434(2)
O9H O -0.1578(5) 0.0234(3) 0.1798(3)
O4I O 0.1754(4) 0.0623(2) -0.0834(2)
O7H O 0.1062(4) -0.1020(2) -0.0832(2)
O8I O 0.2855(4) -0.0403(3) -0.0842(3)
O4H O -0.1754(4) -0.0623(2) -0.0834(2)
O7I O -0.1062(4) 0.1020(2) -0.0832(2)
O8H O -0.2855(4) 0.0403(3) -0.0842(3)
O1E O 0.2702(6) 0.3461(3) 0.00000
N1I N 0.1393(5) 0.2606(3) -0.0679(3)
N1L N 0.3607(5) 0.2394(3) -0.0679(3)
Co1A Co -0.25000 -0.25000 0.00000
Co1B Co -0.25000 0.25000 0.50000
Co1B* Co 0.75000 0.25000 0.50000
N5E N 0.3891(6) 0.0673(3) 0.2473(3)
N6E N 0.3085(5) 0.1502(3) 0.2712(3)
N7E N 0.2744(7) 0.1359(4) 0.2145(3)
C6E C 0.3772(7) 0.1091(4) 0.2887(4)
H5E H 0.41190 0.10980 0.32520
C7E C 0.3240(9) 0.0857(4) 0.2029(5)
H6E H 0.31560 0.06420 0.16720
C8E C 0.2761(7) 0.2017(4) 0.3053(4)
C9E C 0.2740(7) 0.1980(4) 0.3660(4)
H7E H 0.28820 0.16150 0.38560
N5A N -0.1109(6) 0.5673(3) 0.2473(3)
N6A N -0.1915(5) 0.6502(3) 0.2712(3)
N7A N -0.2256(7) 0.6359(4) 0.2145(3)
N8A N -0.25000 0.75000 0.2720(5)
C6A C -0.1228(7) 0.6091(4) 0.2887(4)
H5A H -0.08810 0.60980 0.32520
C7A C -0.1760(9) 0.5857(4) 0.2029(5)
H6A H -0.18440 0.56420 0.16720
C8A C -0.2239(7) 0.7017(4) 0.3053(4)
C9A C -0.2260(7) 0.6980(4) 0.3660(4)
H7A H -0.21180 0.66150 0.38560
C10A C -0.25000 0.75000 0.3982(6)
H8A H -0.25000 0.75000 0.44000
N5D N -0.3891(6) 0.9327(3) 0.2473(3)
N6D N -0.3085(5) 0.8498(3) 0.2712(3)
N7D N -0.2744(7) 0.8641(4) 0.2145(3)
C6D C -0.3772(7) 0.8909(4) 0.2887(4)
H5D H -0.41190 0.89020 0.32520
C7D C -0.3240(9) 0.9143(4) 0.2029(5)
H6D H -0.31560 0.93580 0.16720
C8D C -0.2761(7) 0.7983(4) 0.3053(4)
C9D C -0.2740(7) 0.8020(4) 0.3660(4)
H7D H -0.28820 0.83850 0.38560
O13B O 0.00000 0.50000 0.3543(4)
Co2D Co -0.50000 1.00000 0.25000
Co2D* Co 0.50000 0.00000 0.25000
N5B N -0.1109(6) 0.4327(3) 0.2527(3)
N5C N 0.1109(6) 0.5673(3) 0.2527(3)
#END
