
#######################################################################
#
#                 Cambridge Crystallographic Data Centre
#                                CCDC
#
#######################################################################
#
# If this CIF has been generated from an entry in the Cambridge
# Structural Database, then it will include bibliographic, chemical,
# crystal, experimental, refinement or atomic coordinate data resulting
# from the CCDC's data processing and validation procedures.
#
#######################################################################

data_CSD_CIF_ROJKIN
_audit_creation_date 2019-04-17
_audit_creation_method CSD-ConQuest-V1
_database_code_CSD ROJKIN
_database_code_depnum_ccdc_archive 'CCDC 1894333'
_chemical_formula_sum 'C16 H16 Ag2 N6 O16'
_chemical_formula_moiety
;
(C12 Ag2 N4 O16 2-)n,2n(C2 H8 N1 1+)
;
_journal_coden_Cambridge 1350
_journal_volume 21
_journal_year 2019
_journal_page_first 2962
_journal_name_full 'CrystEngComm '
loop_
_publ_author_name
"V.Milasinovic"
"K.Molcanov"
_chemical_name_systematic
;
catena-(bis(dimethylammonium) bis(\m-nitranilato)-di-silver(i))
;
_cell_volume   1108.848
_exptl_crystal_colour 'orange'
_exptl_crystal_density_diffrn 2.288
_exptl_crystal_description 'prism'
_diffrn_ambient_temperature 293
#These two values have been output from a single CSD field.
_refine_ls_R_factor_gt 0.0355
_refine_ls_wR_factor_gt 0.0355
_symmetry_cell_setting triclinic
_symmetry_space_group_name_H-M 'P -1'
_symmetry_Int_Tables_number 2
loop_
_symmetry_equiv_pos_site_id
_symmetry_equiv_pos_as_xyz
1 x,y,z
2 -x,-y,-z
_cell_length_a 6.8003(2)
_cell_length_b 11.3128(3)
_cell_length_c 15.4766(5)
_cell_angle_alpha 108.407(3)
_cell_angle_beta 91.535(3)
_cell_angle_gamma 99.860(3)
_cell_formula_units_Z 2
loop_
_atom_type_symbol
_atom_type_radius_bond
C 0.68
H 0.23
Ag 1.45
N 0.68
O 0.68
loop_
_atom_site_label
_atom_site_type_symbol
_atom_site_fract_x
_atom_site_fract_y
_atom_site_fract_z
Ag1 Ag 0.53906(4) 0.56677(2) 0.26659(2)
Ag2 Ag -0.00990(4) 0.50714(2) 0.74647(2)
O1 O 0.3756(4) 0.4152(2) 0.33612(17)
O2 O 0.3504(4) 0.6599(2) 0.38719(17)
O3 O 0.1778(4) 0.6388(2) 0.67593(17)
O4 O 0.1238(4) 0.3877(2) 0.61125(17)
O5 O 0.2273(4) 0.8510(2) 0.52070(18)
O6 O 0.3702(4) 0.8561(2) 0.64966(18)
O7 O 0.1385(5) 0.1979(3) 0.35510(19)
O8 O 0.2758(4) 0.1976(2) 0.48379(19)
N1 N 0.2925(5) 0.7986(3) 0.5715(2)
N2 N 0.2169(5) 0.2518(3) 0.4330(2)
C1 C 0.3123(5) 0.4597(3) 0.4110(2)
C2 C 0.3137(5) 0.6047(3) 0.4446(2)
C3 C 0.2767(5) 0.6617(3) 0.5362(2)
C4 C 0.2184(5) 0.5927(3) 0.5960(2)
C5 C 0.1907(5) 0.4459(3) 0.5583(2)
C6 C 0.2408(5) 0.3899(3) 0.4695(2)
O9 O 0.7894(4) 0.6421(2) 0.18686(16)
O10 O 0.5763(4) 0.4084(2) 0.11798(17)
O11 O 0.7653(4) 0.3939(2) -0.17674(16)
O12 O 0.9451(4) 0.6363(2) -0.10826(17)
O13 O 0.6007(4) 0.1885(2) -0.01684(18)
O14 O 0.4939(4) 0.2092(2) -0.14337(17)
O15 O 0.8997(4) 0.8543(3) 0.02883(19)
O16 O 1.0473(4) 0.8294(2) 0.14617(17)
N3 N 0.5812(4) 0.2528(3) -0.0667(2)
N4 N 0.9395(5) 0.7882(3) 0.0739(2)
C7 C 0.7765(5) 0.5930(3) 0.1019(2)
C8 C 0.6657(5) 0.4534(3) 0.0624(2)
C9 C 0.6703(5) 0.3873(3) -0.0318(2)
C10 C 0.7575(5) 0.4463(3) -0.0933(2)
C11 C 0.8572(5) 0.5888(3) -0.0546(2)
C12 C 0.8505(5) 0.6533(3) 0.0391(2)
N5 N 0.4168(5) 0.8138(3) 0.8301(2)
H1 H 0.40233 0.75878 0.86083
H2 H 0.38493 0.77004 0.77113
C13 C 0.2748(7) 0.9023(4) 0.8612(3)
H3 H 0.14028 0.85472 0.85117
H4 H 0.30580 0.94844 0.92515
H5 H 0.28682 0.96073 0.82730
C14 C 0.6298(7) 0.8783(4) 0.8427(3)
H6 H 0.71292 0.81616 0.82140
H7 H 0.64767 0.93632 0.80851
H8 H 0.66666 0.92404 0.90635
N6 N 1.1012(5) 0.8241(3) 0.3301(2)
H9 H 1.06875 0.77150 0.27324
H10 H 1.10978 0.77732 0.36625
C15 C 0.9397(6) 0.8977(4) 0.3583(3)
H11 H 0.81541 0.84052 0.35422
H12 H 0.97197 0.95334 0.42015
H13 H 0.92723 0.94699 0.31872
C16 C 1.3007(6) 0.9053(3) 0.3342(3)
H14 H 1.39863 0.85251 0.31533
H15 H 1.29371 0.95466 0.29431
H16 H 1.33844 0.96102 0.39574
Ag1A Ag 0.46094(4) 0.43323(2) -0.26659(2)
Ag2* Ag 0.99010(4) 0.50714(2) -0.25353(2)
O11* O -0.2347(4) 0.3939(2) 0.82326(16)
O11A O 0.2347(4) 0.6061(2) 0.17674(16)
O12* O -0.0549(4) 0.6363(2) 0.89174(17)
#END
