
#######################################################################
#
#                 Cambridge Crystallographic Data Centre
#                                CCDC
#
#######################################################################
#
# If this CIF has been generated from an entry in the Cambridge
# Structural Database, then it will include bibliographic, chemical,
# crystal, experimental, refinement or atomic coordinate data resulting
# from the CCDC's data processing and validation procedures.
#
#######################################################################

data_CSD_CIF_ROLCEC09
_audit_creation_date 2014-10-10
_audit_creation_method CSD-ConQuest-V1
_database_code_CSD ROLCEC09
_database_code_depnum_ccdc_archive 'CCDC 998703'
_chemical_formula_sum 'C3 H7 Cu1 N1 O6'
_chemical_formula_moiety
;
(C3 H3 Cu1 O6 1-)n,H4 N1 1+
;
_journal_coden_Cambridge 1220
_journal_volume 20
_journal_year 2014
_journal_page_first 15872
_journal_name_full 'Chem.-Eur.J. '
loop_
_publ_author_name
"Ran Shang"
"Sa Chen"
"Zhe-Ming Wang"
"Song Gao"
_chemical_name_systematic
;
catena-(Ammonium tris(\m-formato)-copper)
;
_cell_volume    756.709
_exptl_crystal_colour 'blue'
_exptl_crystal_density_diffrn 1.902
_exptl_special_details
;
orthorhombic polymorph
Phase transition at 350 K

;
_exptl_crystal_description 'block'
_diffrn_ambient_temperature 330
#These two values have been output from a single CSD field.
_refine_ls_R_factor_gt 0.0301
_refine_ls_wR_factor_gt 0.0301
_symmetry_cell_setting orthorhombic
_symmetry_space_group_name_H-M 'P 21 21 21'
_symmetry_Int_Tables_number 19
loop_
_symmetry_equiv_pos_site_id
_symmetry_equiv_pos_as_xyz
1 x,y,z
2 1/2-x,-y,1/2+z
3 -x,1/2+y,1/2-z
4 1/2+x,1/2-y,-z
_cell_length_a 7.1958(2)
_cell_length_b 12.9227(5)
_cell_length_c 8.1376(3)
_cell_angle_alpha 90
_cell_angle_beta 90
_cell_angle_gamma 90
_cell_formula_units_Z 4
loop_
_atom_type_symbol
_atom_type_radius_bond
C 0.68
H 0.23
Cu 1.32
N 0.68
O 0.68
loop_
_atom_site_label
_atom_site_type_symbol
_atom_site_fract_x
_atom_site_fract_y
_atom_site_fract_z
Cu1 Cu 0.24445(4) 0.167759(19) 0.76208(3)
O1 O 0.3613(2) 0.30786(13) 0.5980(2)
O2 O 0.5211(2) 0.34783(13) 0.3746(2)
O3 O 0.1420(2) 0.28500(12) 0.88997(18)
O4 O -0.0396(2) 0.34393(13) 1.08673(19)
O5 O 0.3858(2) 0.06687(13) 0.6327(2)
O6 O 0.4242(3) -0.04473(13) 0.4307(2)
C1 C 0.4779(4) 0.2903(2) 0.4911(4)
H1 H 0.54020 0.22740 0.49800
C2 C 0.0134(3) 0.27533(18) 0.9916(3)
H2 H -0.04710 0.21180 0.99620
C3 C 0.3299(4) 0.01159(17) 0.5182(3)
H3 H 0.20300 0.01310 0.49660
N1 N 0.2519(3) 0.4954(2) 0.7658(2)
H4 H 0.277(3) 0.4612(12) 0.6724(13)
H5 H 0.220(3) 0.4503(10) 0.8431(16)
H6 H 0.3518(17) 0.5308(12) 0.796(3)
H7 H 0.1578(18) 0.5385(11) 0.747(3)
Cu1A Cu 0.25555(4) -0.167759(19) 0.26208(3)
Cu1C Cu -0.25555(4) 0.332241(19) 1.23792(3)
Cu1C* Cu 0.74445(4) 0.332241(19) 0.23792(3)
O2C O 0.0211(2) 0.15217(13) 0.6254(2)
O4C O 0.4604(2) 0.15607(13) 0.91327(19)
O6A O 0.0758(3) 0.04473(13) 0.9307(2)
#END
