
#######################################################################
#
#                 Cambridge Crystallographic Data Centre
#                                CCDC
#
#######################################################################
#
# If this CIF has been generated from an entry in the Cambridge
# Structural Database, then it will include bibliographic, chemical,
# crystal, experimental, refinement or atomic coordinate data resulting
# from the CCDC's data processing and validation procedures.
#
#######################################################################

data_CSD_CIF_ROLCEC
_audit_creation_date 2014-10-10
_audit_creation_method CSD-ConQuest-V1
_database_code_CSD ROLCEC
_database_code_depnum_ccdc_archive 'CCDC 998694'
_chemical_formula_sum 'C3 H7 Cu1 N1 O6'
_chemical_formula_moiety
;
(C3 H3 Cu1 O6 1-)n,H4 N1 1+
;
_journal_coden_Cambridge 1220
_journal_volume 20
_journal_year 2014
_journal_page_first 15872
_journal_name_full 'Chem.-Eur.J. '
loop_
_publ_author_name
"Ran Shang"
"Sa Chen"
"Zhe-Ming Wang"
"Song Gao"
_chemical_name_systematic
;
catena-(Ammonium tris(\m-formato)-copper)
;
_cell_volume    757.156
_exptl_crystal_colour 'blue'
_exptl_crystal_density_diffrn 1.9
_exptl_special_details
;
Magnetic properties
orthorhombic polymorph
Moisture-sensitive
Phase transition at 350 K
;
_exptl_crystal_description 'block'
_diffrn_ambient_temperature 94
#These two values have been output from a single CSD field.
_refine_ls_R_factor_gt 0.0259
_refine_ls_wR_factor_gt 0.0259
_symmetry_cell_setting orthorhombic
_symmetry_space_group_name_H-M 'P 21 21 21'
_symmetry_Int_Tables_number 19
loop_
_symmetry_equiv_pos_site_id
_symmetry_equiv_pos_as_xyz
1 x,y,z
2 1/2-x,-y,1/2+z
3 -x,1/2+y,1/2-z
4 1/2+x,1/2-y,-z
_cell_length_a 7.0201(2)
_cell_length_b 13.3688(3)
_cell_length_c 8.0677(2)
_cell_angle_alpha 90
_cell_angle_beta 90
_cell_angle_gamma 90
_cell_formula_units_Z 4
loop_
_atom_type_symbol
_atom_type_radius_bond
C 0.68
H 0.23
Cu 1.32
N 0.68
O 0.68
loop_
_atom_site_label
_atom_site_type_symbol
_atom_site_fract_x
_atom_site_fract_y
_atom_site_fract_z
Cu1 Cu 0.24800(3) 0.162052(15) 0.76283(2)
O1 O 0.37103(19) 0.29633(10) 0.60346(17)
O2 O 0.52841(18) 0.35349(10) 0.38422(16)
O3 O 0.13784(18) 0.27841(10) 0.88293(16)
O4 O -0.03942(18) 0.3470(1) 1.07745(16)
O5 O 0.39953(18) 0.06425(9) 0.63334(16)
O6 O 0.42668(18) -0.04649(10) 0.42920(16)
C1 C 0.4735(3) 0.28401(15) 0.4787(2)
H1 H 0.51300 0.21780 0.45320
C2 C 0.0211(3) 0.27238(14) 0.9996(2)
H2 H -0.02400 0.20810 1.03070
C3 C 0.3303(3) 0.00752(13) 0.5228(2)
H3 H 0.19570 0.00610 0.51050
N1 N 0.2516(2) 0.47489(12) 0.74939(15)
H4 H 0.2997(19) 0.4284(8) 0.6785(13)
H5 H 0.198(2) 0.4430(9) 0.8382(12)
H6 H 0.3452(14) 0.5161(8) 0.7847(17)
H7 H 0.1594(15) 0.5108(8) 0.6968(17)
Cu1A Cu 0.25200(3) -0.162052(15) 0.26283(2)
Cu1C Cu -0.25200(3) 0.337948(15) 1.23717(2)
Cu1C* Cu 0.74800(3) 0.337948(15) 0.23717(2)
O2C O 0.02841(18) 0.14651(10) 0.61578(16)
O4C O 0.46058(18) 0.1530(1) 0.92255(16)
O6A O 0.07332(18) 0.04649(10) 0.92920(16)
#END
