
#######################################################################
#
#                 Cambridge Crystallographic Data Centre
#                                CCDC
#
#######################################################################
#
# If this CIF has been generated from an entry in the Cambridge
# Structural Database, then it will include bibliographic, chemical,
# crystal, experimental, refinement or atomic coordinate data resulting
# from the CCDC's data processing and validation procedures.
#
#######################################################################

data_CSD_CIF_ROLCEC14
_audit_creation_date 2014-10-10
_audit_creation_method CSD-ConQuest-V1
_database_code_CSD ROLCEC14
_database_code_depnum_ccdc_archive 'CCDC 998708'
_chemical_formula_sum 'C3 H7 Cu1 N1 O6'
_chemical_formula_moiety
;
(C3 H3 Cu1 O6 1-)n,H4 N1 1+
;
_journal_coden_Cambridge 1220
_journal_volume 20
_journal_year 2014
_journal_page_first 15872
_journal_name_full 'Chem.-Eur.J. '
loop_
_publ_author_name
"Ran Shang"
"Sa Chen"
"Zhe-Ming Wang"
"Song Gao"
_chemical_name_systematic
;
catena-(Ammonium tris(\m-formato)-copper)
;
_cell_volume   1132.498
_exptl_crystal_colour 'blue'
_exptl_crystal_density_diffrn 1.906
_exptl_special_details
;
hexagonal polymorph
Phase transition at 350 K

;
_exptl_crystal_description 'block'
_diffrn_ambient_temperature 357.5
#These two values have been output from a single CSD field.
_refine_ls_R_factor_gt 0.0435
_refine_ls_wR_factor_gt 0.0435
_symmetry_cell_setting hexagonal
_symmetry_space_group_name_H-M 'P 61 2 2'
_symmetry_Int_Tables_number 178
loop_
_symmetry_equiv_pos_site_id
_symmetry_equiv_pos_as_xyz
1 x,y,z
2 -y,x-y,1/3+z
3 -x+y,-x,2/3+z
4 -x,-y,1/2+z
5 y,-x+y,5/6+z
6 x-y,x,1/6+z
7 y,x,1/3-z
8 x-y,-y,-z
9 -x,-x+y,2/3-z
10 -y,-x,5/6-z
11 -x+y,y,1/2-z
12 x,x-y,1/6-z
_cell_length_a 7.31795(10)
_cell_length_b 7.31795(10)
_cell_length_c 24.4190(6)
_cell_angle_alpha 90
_cell_angle_beta 90
_cell_angle_gamma 120
_cell_formula_units_Z 6
loop_
_atom_type_symbol
_atom_type_radius_bond
C 0.68
H 0.23
Cu 1.32
N 0.68
O 0.68
loop_
_atom_site_label
_atom_site_type_symbol
_atom_site_fract_x
_atom_site_fract_y
_atom_site_fract_z
Cu1 Cu 0.36480(11) 0.68240(6) 0.08330
O1 O 0.3384(6) 0.4508(6) 0.13215(14)
O2 O -0.0780(7) 0.2975(7) -0.0350(2)
O3 O 0.1405(8) 0.4183(9) 0.0340(2)
C1 C 0.4730(12) 0.4730(12) 0.16670
H1 H 0.60010 0.60010 0.16670
C2 C 0.0328(12) 0.4313(11) -0.0011(3)
H2 H 0.03340 0.55850 -0.00290
N1 N 0.0242(16) 0.0121(8) 0.08330
H3 H -0.1162(17) -0.0581(9) 0.08330
H4 H 0.071(2) 0.03(3) 0.0491(7)
H5? H 0.071(2) -0.059(15) 0.103(6)
H6? H 0.071(2) 0.139(11) 0.098(7)
O1F O 0.4508(6) 0.3384(6) 0.201183(140)
O2G O 0.6245(7) 0.7025(7) 0.0350(2)
O3G O 0.7222(8) 0.5817(9) -0.0340(2)
C2G C 0.6015(12) 0.5687(11) 0.0011(3)
H2G H 0.47490 0.44150 0.00290
Cu1D Cu -0.31760(11) 0.31760(6) -0.08337
Cu1D* Cu 0.68240(11) 0.31760(6) -0.08337
Cu1E Cu 0.68240(11) 0.36480(6) 0.24997
O1K O 0.3384(6) 0.8876(6) 0.034517(140)
O2E O 0.6245(7) 0.9220(7) 0.131667(200)
O3K O 0.1405(8) 0.7222(9) 0.132667(200)
H4K H 0.071(2) 0.041(30) 0.117567(700)
#END
