
#######################################################################
#
#                 Cambridge Crystallographic Data Centre
#                                CCDC
#
#######################################################################
#
# If this CIF has been generated from an entry in the Cambridge
# Structural Database, then it will include bibliographic, chemical,
# crystal, experimental, refinement or atomic coordinate data resulting
# from the CCDC's data processing and validation procedures.
#
#######################################################################

data_CSD_CIF_ROLCEC16
_audit_creation_date 2014-10-10
_audit_creation_method CSD-ConQuest-V1
_database_code_CSD ROLCEC16
_database_code_depnum_ccdc_archive 'CCDC 998710'
_chemical_formula_sum 'C3 H7 Cu1 N1 O6'
_chemical_formula_moiety
;
(C3 H3 Cu1 O6 1-)n,H4 N1 1+
;
_journal_coden_Cambridge 1220
_journal_volume 20
_journal_year 2014
_journal_page_first 15872
_journal_name_full 'Chem.-Eur.J. '
loop_
_publ_author_name
"Ran Shang"
"Sa Chen"
"Zhe-Ming Wang"
"Song Gao"
_chemical_name_systematic
;
catena-(Ammonium tris(\m-formato)-copper)
;
_cell_volume   1136.990
_exptl_crystal_colour 'blue'
_exptl_crystal_density_diffrn 1.898
_exptl_special_details
;
hexagonal polymorph
Phase transition at 350 K

;
_exptl_crystal_description 'block'
_diffrn_ambient_temperature 375
#These two values have been output from a single CSD field.
_refine_ls_R_factor_gt 0.0576
_refine_ls_wR_factor_gt 0.0576
_symmetry_cell_setting hexagonal
_symmetry_space_group_name_H-M 'P 61 2 2'
_symmetry_Int_Tables_number 178
loop_
_symmetry_equiv_pos_site_id
_symmetry_equiv_pos_as_xyz
1 x,y,z
2 -y,x-y,1/3+z
3 -x+y,-x,2/3+z
4 -x,-y,1/2+z
5 y,-x+y,5/6+z
6 x-y,x,1/6+z
7 y,x,1/3-z
8 x-y,-y,-z
9 -x,-x+y,2/3-z
10 -y,-x,5/6-z
11 -x+y,y,1/2-z
12 x,x-y,1/6-z
_cell_length_a 7.3338(11)
_cell_length_b 7.3338(11)
_cell_length_c 24.410(4)
_cell_angle_alpha 90
_cell_angle_beta 90
_cell_angle_gamma 120
_cell_formula_units_Z 6
loop_
_atom_type_symbol
_atom_type_radius_bond
C 0.68
H 0.23
Cu 1.32
N 0.68
O 0.68
loop_
_atom_site_label
_atom_site_type_symbol
_atom_site_fract_x
_atom_site_fract_y
_atom_site_fract_z
Cu1 Cu 0.36398(17) 0.68199(9) 0.08330
O1 O 0.3372(7) 0.4510(8) 0.1323(2)
O2 O -0.0800(9) 0.2995(10) -0.0354(3)
O3 O 0.1426(11) 0.4201(12) 0.0339(3)
C1 C 0.4740(15) 0.4740(15) 0.16670
H1 H 0.60080 0.60080 0.16670
C2 C 0.0317(17) 0.4335(15) -0.0007(4)
H2 H 0.02990 0.55930 -0.00150
N1 N 0.0204(19) 0.0102(10) 0.08330
H3 H -0.120(2) -0.0599(10) 0.08330
H4 H 0.067(2) 0.03(3) 0.0490(6)
H5? H 0.067(2) -0.062(15) 0.102(7)
H6? H 0.067(2) 0.136(12) 0.099(7)
O1F O 0.4510(7) 0.3372(8) 0.201033(200)
O2G O 0.6205(9) 0.7005(10) 0.0354(3)
O3G O 0.7225(11) 0.5799(12) -0.0339(3)
C2G C 0.5982(17) 0.5665(15) 0.0007(4)
H2G H 0.47060 0.44070 0.00150
Cu1D Cu -0.31801(17) 0.31801(9) -0.08337
Cu1D* Cu 0.68199(17) 0.31801(9) -0.08337
Cu1E Cu 0.68199(17) 0.36398(9) 0.24997
O1K O 0.3372(7) 0.8862(8) 0.034367(200)
O2E O 0.6205(9) 0.920(1) 0.131267(300)
O3K O 0.1426(11) 0.7225(12) 0.132767(300)
H4K H 0.067(2) 0.037(30) 0.117667(600)
#END
