
#######################################################################
#
#                 Cambridge Crystallographic Data Centre
#                                CCDC
#
#######################################################################
#
# If this CIF has been generated from an entry in the Cambridge
# Structural Database, then it will include bibliographic, chemical,
# crystal, experimental, refinement or atomic coordinate data resulting
# from the CCDC's data processing and validation procedures.
#
#######################################################################

data_CSD_CIF_ROLCEC08
_audit_creation_date 2014-10-10
_audit_creation_method CSD-ConQuest-V1
_database_code_CSD ROLCEC08
_database_code_depnum_ccdc_archive 'CCDC 998702'
_chemical_formula_sum 'C3 H7 Cu1 N1 O6'
_chemical_formula_moiety
;
(C3 H3 Cu1 O6 1-)n,H4 N1 1+
;
_journal_coden_Cambridge 1220
_journal_volume 20
_journal_year 2014
_journal_page_first 15872
_journal_name_full 'Chem.-Eur.J. '
loop_
_publ_author_name
"Ran Shang"
"Sa Chen"
"Zhe-Ming Wang"
"Song Gao"
_chemical_name_systematic
;
catena-(Ammonium tris(\m-formato)-copper)
;
_cell_volume    756.837
_exptl_crystal_colour 'blue'
_exptl_crystal_density_diffrn 1.901
_exptl_special_details
;
orthorhombic polymorph
Phase transition at 350 K

;
_exptl_crystal_description 'block'
_diffrn_ambient_temperature 310
#These two values have been output from a single CSD field.
_refine_ls_R_factor_gt 0.0302
_refine_ls_wR_factor_gt 0.0302
_symmetry_cell_setting orthorhombic
_symmetry_space_group_name_H-M 'P 21 21 21'
_symmetry_Int_Tables_number 19
loop_
_symmetry_equiv_pos_site_id
_symmetry_equiv_pos_as_xyz
1 x,y,z
2 1/2-x,-y,1/2+z
3 -x,1/2+y,1/2-z
4 1/2+x,1/2-y,-z
_cell_length_a 7.1805(1)
_cell_length_b 12.9483(3)
_cell_length_c 8.1402(2)
_cell_angle_alpha 90
_cell_angle_beta 90
_cell_angle_gamma 90
_cell_formula_units_Z 4
loop_
_atom_type_symbol
_atom_type_radius_bond
C 0.68
H 0.23
Cu 1.32
N 0.68
O 0.68
loop_
_atom_site_label
_atom_site_type_symbol
_atom_site_fract_x
_atom_site_fract_y
_atom_site_fract_z
Cu1 Cu 0.24444(3) 0.167465(18) 0.76217(3)
O1 O 0.3621(2) 0.30691(12) 0.5985(2)
O2 O 0.5211(2) 0.34805(12) 0.3750(2)
O3 O 0.1415(2) 0.28467(12) 0.88925(19)
O4 O -0.0395(2) 0.34416(12) 1.0858(2)
O5 O 0.3861(2) 0.06664(12) 0.6334(2)
O6 O 0.4242(2) -0.04494(12) 0.4304(2)
C1 C 0.4771(3) 0.28980(19) 0.4904(4)
H1 H 0.53800 0.22650 0.49520
C2 C 0.0138(3) 0.27528(17) 0.9919(3)
H2 H -0.04590 0.21160 0.99820
C3 C 0.3303(4) 0.01165(16) 0.5186(3)
H3 H 0.20310 0.01350 0.49700
N1 N 0.2515(3) 0.4945(2) 0.7662(2)
H4 H 0.286(3) 0.4604(12) 0.6753(14)
H5 H 0.218(3) 0.4497(10) 0.8428(17)
H6 H 0.3485(18) 0.5314(12) 0.801(3)
H7 H 0.1577(17) 0.5362(11) 0.742(3)
Cu1A Cu 0.25556(3) -0.167465(18) 0.26217(3)
Cu1C Cu -0.25556(3) 0.332535(18) 1.23783(3)
Cu1C* Cu 0.74444(3) 0.332535(18) 0.23783(3)
O2C O 0.0211(2) 0.15195(12) 0.6250(2)
O4C O 0.4605(2) 0.15584(12) 0.9142(2)
O6A O 0.0758(2) 0.04494(12) 0.9304(2)
#END
