
#######################################################################
#
#                 Cambridge Crystallographic Data Centre
#                                CCDC
#
#######################################################################
#
# If this CIF has been generated from an entry in the Cambridge
# Structural Database, then it will include bibliographic, chemical,
# crystal, experimental, refinement or atomic coordinate data resulting
# from the CCDC's data processing and validation procedures.
#
#######################################################################

data_CSD_CIF_ROLCEC03
_audit_creation_date 2014-10-10
_audit_creation_method CSD-ConQuest-V1
_database_code_CSD ROLCEC03
_database_code_depnum_ccdc_archive 'CCDC 998697'
_chemical_formula_sum 'C3 H7 Cu1 N1 O6'
_chemical_formula_moiety
;
(C3 H3 Cu1 O6 1-)n,H4 N1 1+
;
_journal_coden_Cambridge 1220
_journal_volume 20
_journal_year 2014
_journal_page_first 15872
_journal_name_full 'Chem.-Eur.J. '
loop_
_publ_author_name
"Ran Shang"
"Sa Chen"
"Zhe-Ming Wang"
"Song Gao"
_chemical_name_systematic
;
catena-(Ammonium tris(\m-formato)-copper)
;
_cell_volume    758.358
_exptl_crystal_colour 'blue'
_exptl_crystal_density_diffrn 1.897
_exptl_special_details
;
Magnetic properties
orthorhombic polymorph
Moisture-sensitive
Phase transition at 350 K
;
_exptl_crystal_description 'block'
_diffrn_ambient_temperature 200
#These two values have been output from a single CSD field.
_refine_ls_R_factor_gt 0.0259
_refine_ls_wR_factor_gt 0.0259
_symmetry_cell_setting orthorhombic
_symmetry_space_group_name_H-M 'P 21 21 21'
_symmetry_Int_Tables_number 19
loop_
_symmetry_equiv_pos_site_id
_symmetry_equiv_pos_as_xyz
1 x,y,z
2 1/2-x,-y,1/2+z
3 -x,1/2+y,1/2-z
4 1/2+x,1/2-y,-z
_cell_length_a 7.0647(2)
_cell_length_b 13.2472(4)
_cell_length_c 8.1032(3)
_cell_angle_alpha 90
_cell_angle_beta 90
_cell_angle_gamma 90
_cell_formula_units_Z 4
loop_
_atom_type_symbol
_atom_type_radius_bond
C 0.68
H 0.23
Cu 1.32
N 0.68
O 0.68
loop_
_atom_site_label
_atom_site_type_symbol
_atom_site_fract_x
_atom_site_fract_y
_atom_site_fract_z
Cu1 Cu 0.24604(4) 0.163475(15) 0.76297(2)
O1 O 0.3673(2) 0.29904(11) 0.60040(18)
O2 O 0.52484(19) 0.35278(10) 0.38112(17)
O3 O 0.1384(2) 0.28038(10) 0.88462(17)
O4 O -0.0399(2) 0.34624(10) 1.07960(17)
O5 O 0.3945(2) 0.06431(10) 0.63535(17)
O6 O 0.4268(2) -0.04576(10) 0.43049(18)
C1 C 0.4716(3) 0.28534(15) 0.4798(3)
H1 H 0.51490 0.21850 0.46030
C2 C 0.0184(3) 0.27331(14) 0.9970(3)
H2 H -0.03140 0.20840 1.02100
C3 C 0.3298(3) 0.00902(13) 0.5214(2)
H3 H 0.19680 0.00950 0.50410
N1 N 0.2522(2) 0.47964(14) 0.75375(17)
H4 H 0.306(2) 0.4340(8) 0.6834(15)
H5 H 0.196(2) 0.4453(9) 0.8377(13)
H6 H 0.3426(16) 0.5210(8) 0.7949(19)
H7 H 0.1640(17) 0.5160(9) 0.6981(18)
Cu1A Cu 0.25396(4) -0.163475(15) 0.26297(2)
Cu1C Cu -0.25396(4) 0.336525(15) 1.23703(2)
Cu1C* Cu 0.74604(4) 0.336525(15) 0.23703(2)
O2C O 0.02484(19) 0.14722(10) 0.61888(17)
O4C O 0.4601(2) 0.15376(10) 0.92040(17)
O6A O 0.0732(2) 0.04576(10) 0.93049(18)
#END
