
#######################################################################
#
#                 Cambridge Crystallographic Data Centre
#                                CCDC
#
#######################################################################
#
# If this CIF has been generated from an entry in the Cambridge
# Structural Database, then it will include bibliographic, chemical,
# crystal, experimental, refinement or atomic coordinate data resulting
# from the CCDC's data processing and validation procedures.
#
#######################################################################

data_CSD_CIF_ROLCEC02
_audit_creation_date 2014-10-10
_audit_creation_method CSD-ConQuest-V1
_database_code_CSD ROLCEC02
_database_code_depnum_ccdc_archive 'CCDC 998696'
_chemical_formula_sum 'C3 H7 Cu1 N1 O6'
_chemical_formula_moiety
;
(C3 H3 Cu1 O6 1-)n,H4 N1 1+
;
_journal_coden_Cambridge 1220
_journal_volume 20
_journal_year 2014
_journal_page_first 15872
_journal_name_full 'Chem.-Eur.J. '
loop_
_publ_author_name
"Ran Shang"
"Sa Chen"
"Zhe-Ming Wang"
"Song Gao"
_chemical_name_systematic
;
catena-(Ammonium tris(\m-formato)-copper)
;
_cell_volume    757.704
_exptl_crystal_colour 'blue'
_exptl_crystal_density_diffrn 1.899
_exptl_special_details
;
Magnetic properties
orthorhombic polymorph
Moisture-sensitive
Phase transition at 350 K
;
_exptl_crystal_description 'block'
_diffrn_ambient_temperature 180
#These two values have been output from a single CSD field.
_refine_ls_R_factor_gt 0.0274
_refine_ls_wR_factor_gt 0.0274
_symmetry_cell_setting orthorhombic
_symmetry_space_group_name_H-M 'P 21 21 21'
_symmetry_Int_Tables_number 19
loop_
_symmetry_equiv_pos_site_id
_symmetry_equiv_pos_as_xyz
1 x,y,z
2 1/2-x,-y,1/2+z
3 -x,1/2+y,1/2-z
4 1/2+x,1/2-y,-z
_cell_length_a 7.0460(2)
_cell_length_b 13.3011(4)
_cell_length_c 8.0848(2)
_cell_angle_alpha 90
_cell_angle_beta 90
_cell_angle_gamma 90
_cell_formula_units_Z 4
loop_
_atom_type_symbol
_atom_type_radius_bond
C 0.68
H 0.23
Cu 1.32
N 0.68
O 0.68
loop_
_atom_site_label
_atom_site_type_symbol
_atom_site_fract_x
_atom_site_fract_y
_atom_site_fract_z
Cu1 Cu 0.24677(3) 0.162861(16) 0.76296(2)
O1 O 0.3689(2) 0.29775(11) 0.60137(18)
O2 O 0.52618(19) 0.35312(10) 0.38243(17)
O3 O 0.1381(2) 0.27942(10) 0.88374(16)
O4 O -0.03990(19) 0.34644(10) 1.07859(17)
O5 O 0.39600(19) 0.06422(10) 0.63467(17)
O6 O 0.4266(2) -0.04578(10) 0.43032(18)
C1 C 0.4719(3) 0.28462(16) 0.4792(3)
H1 H 0.51320 0.21800 0.45680
C2 C 0.0194(3) 0.27295(15) 0.9979(3)
H2 H -0.02850 0.20820 1.02490
C3 C 0.3312(3) 0.00853(14) 0.5223(2)
H3 H 0.19750 0.00820 0.50690
N1 N 0.2520(2) 0.47767(14) 0.75152(16)
H4 H 0.301(2) 0.4319(8) 0.6793(14)
H5 H 0.200(2) 0.4441(9) 0.8392(13)
H6 H 0.3449(15) 0.5189(8) 0.7881(19)
H7 H 0.1596(16) 0.5138(9) 0.7003(18)
Cu1A Cu 0.25323(3) -0.162861(16) 0.26296(2)
Cu1C Cu -0.25323(3) 0.337139(16) 1.23704(2)
Cu1C* Cu 0.74677(3) 0.337139(16) 0.23704(2)
O2C O 0.02618(19) 0.14688(10) 0.61757(17)
O4C O 0.46010(19) 0.15356(10) 0.92141(17)
O6A O 0.0734(2) 0.04578(10) 0.93032(18)
#END
