
#######################################################################
#
#                 Cambridge Crystallographic Data Centre
#                                CCDC
#
#######################################################################
#
# If this CIF has been generated from an entry in the Cambridge
# Structural Database, then it will include bibliographic, chemical,
# crystal, experimental, refinement or atomic coordinate data resulting
# from the CCDC's data processing and validation procedures.
#
#######################################################################

data_CSD_CIF_ROLCEC13
_audit_creation_date 2014-10-10
_audit_creation_method CSD-ConQuest-V1
_database_code_CSD ROLCEC13
_database_code_depnum_ccdc_archive 'CCDC 998707'
_chemical_formula_sum 'C3 H7 Cu1 N1 O6'
_chemical_formula_moiety
;
(C3 H3 Cu1 O6 1-)n,H4 N1 1+
;
_journal_coden_Cambridge 1220
_journal_volume 20
_journal_year 2014
_journal_page_first 15872
_journal_name_full 'Chem.-Eur.J. '
loop_
_publ_author_name
"Ran Shang"
"Sa Chen"
"Zhe-Ming Wang"
"Song Gao"
_chemical_name_systematic
;
catena-(Ammonium tris(\m-formato)-copper)
;
_cell_volume   1131.122
_exptl_crystal_colour 'blue'
_exptl_crystal_density_diffrn 1.908
_exptl_special_details
;
hexagonal polymorph
Phase transition at 350 K

;
_exptl_crystal_description 'block'
_diffrn_ambient_temperature 355
#These two values have been output from a single CSD field.
_refine_ls_R_factor_gt 0.045
_refine_ls_wR_factor_gt 0.045
_symmetry_cell_setting hexagonal
_symmetry_space_group_name_H-M 'P 61 2 2'
_symmetry_Int_Tables_number 178
loop_
_symmetry_equiv_pos_site_id
_symmetry_equiv_pos_as_xyz
1 x,y,z
2 -y,x-y,1/3+z
3 -x+y,-x,2/3+z
4 -x,-y,1/2+z
5 y,-x+y,5/6+z
6 x-y,x,1/6+z
7 y,x,1/3-z
8 x-y,-y,-z
9 -x,-x+y,2/3-z
10 -y,-x,5/6-z
11 -x+y,y,1/2-z
12 x,x-y,1/6-z
_cell_length_a 7.3192(1)
_cell_length_b 7.3192(1)
_cell_length_c 24.3810(6)
_cell_angle_alpha 90
_cell_angle_beta 90
_cell_angle_gamma 120
_cell_formula_units_Z 6
loop_
_atom_type_symbol
_atom_type_radius_bond
C 0.68
H 0.23
Cu 1.32
N 0.68
O 0.68
loop_
_atom_site_label
_atom_site_type_symbol
_atom_site_fract_x
_atom_site_fract_y
_atom_site_fract_z
Cu1 Cu 0.36459(9) 0.68229(5) 0.08330
O1 O 0.3381(5) 0.4514(5) 0.13246(13)
O2 O -0.0788(6) 0.2979(6) -0.0356(2)
O3 O 0.1409(6) 0.4195(7) 0.03423(18)
C1 C 0.4727(10) 0.4727(10) 0.16670
H1 H 0.59970 0.59970 0.16670
C2 C 0.0314(10) 0.4311(9) -0.0010(3)
H2 H 0.02960 0.55720 -0.00220
N1 N 0.0228(13) 0.0114(7) 0.08330
H3 H -0.1175(15) -0.0587(7) 0.08330
H4 H 0.070(2) 0.04(2) 0.0490(6)
H5? H 0.070(2) -0.068(11) 0.099(7)
H6? H 0.070(2) 0.130(14) 0.102(6)
O1F O 0.4514(5) 0.3381(5) 0.200873(130)
O2G O 0.6233(6) 0.7021(6) 0.0356(2)
O3G O 0.7214(6) 0.5805(7) -0.03423(18)
C2G C 0.6003(10) 0.5689(9) 0.0010(3)
H2G H 0.47240 0.44280 0.00220
Cu1D Cu -0.31771(9) 0.31770(5) -0.08337
Cu1D* Cu 0.68229(9) 0.31770(5) -0.08337
Cu1E Cu 0.68230(9) 0.36459(5) 0.24997
O1K O 0.3381(5) 0.8867(5) 0.034207(130)
O2E O 0.6233(6) 0.9212(6) 0.131067(200)
O3K O 0.1409(6) 0.7214(7) 0.132437(180)
H4K H 0.070(2) 0.03(2) 0.117667(600)
#END
