
#######################################################################
#
#                 Cambridge Crystallographic Data Centre
#                                CCDC
#
#######################################################################
#
# If this CIF has been generated from an entry in the Cambridge
# Structural Database, then it will include bibliographic, chemical,
# crystal, experimental, refinement or atomic coordinate data resulting
# from the CCDC's data processing and validation procedures.
#
#######################################################################

data_CSD_CIF_ROLCEC17
_audit_creation_date 2014-10-10
_audit_creation_method CSD-ConQuest-V1
_database_code_CSD ROLCEC17
_database_code_depnum_ccdc_archive 'CCDC 998711'
_chemical_formula_sum 'C3 H7 Cu1 N1 O6'
_chemical_formula_moiety
;
(C3 H3 Cu1 O6 1-)n,H4 N1 1+
;
_journal_coden_Cambridge 1220
_journal_volume 20
_journal_year 2014
_journal_page_first 15872
_journal_name_full 'Chem.-Eur.J. '
loop_
_publ_author_name
"Ran Shang"
"Sa Chen"
"Zhe-Ming Wang"
"Song Gao"
_chemical_name_systematic
;
catena-(Ammonium tris(\m-formato)-copper)
;
_cell_volume    757.095
_exptl_crystal_colour 'blue'
_exptl_crystal_density_diffrn 1.901
_exptl_special_details
;
orthorhombic polymorph
Phase transition at 350 K

;
_exptl_crystal_description 'block'
_diffrn_ambient_temperature 340
#These two values have been output from a single CSD field.
_refine_ls_R_factor_gt 0.0294
_refine_ls_wR_factor_gt 0.0294
_symmetry_cell_setting orthorhombic
_symmetry_space_group_name_H-M 'P 21 21 21'
_symmetry_Int_Tables_number 19
loop_
_symmetry_equiv_pos_site_id
_symmetry_equiv_pos_as_xyz
1 x,y,z
2 1/2-x,-y,1/2+z
3 -x,1/2+y,1/2-z
4 1/2+x,1/2-y,-z
_cell_length_a 7.1963(2)
_cell_length_b 12.9303(3)
_cell_length_c 8.1364(2)
_cell_angle_alpha 90
_cell_angle_beta 90
_cell_angle_gamma 90
_cell_formula_units_Z 4
loop_
_atom_type_symbol
_atom_type_radius_bond
C 0.68
H 0.23
Cu 1.32
N 0.68
O 0.68
loop_
_atom_site_label
_atom_site_type_symbol
_atom_site_fract_x
_atom_site_fract_y
_atom_site_fract_z
Cu1 Cu 0.24447(4) 0.16789(2) 0.76199(3)
O1 O 0.3618(3) 0.30800(14) 0.5976(2)
O2 O 0.5213(2) 0.34762(14) 0.3746(2)
O3 O 0.1421(2) 0.28503(13) 0.8904(2)
O4 O -0.0389(2) 0.34414(14) 1.0871(2)
O5 O 0.3851(2) 0.06713(14) 0.6322(2)
O6 O 0.4235(3) -0.04463(14) 0.4303(2)
C1 C 0.4782(4) 0.2907(2) 0.4912(4)
H1 H 0.54120 0.22810 0.49870
C2 C 0.0141(3) 0.27565(19) 0.9905(4)
H2 H -0.04740 0.21240 0.99390
C3 C 0.3288(4) 0.01126(19) 0.5178(3)
H3 H 0.20170 0.01220 0.49690
N1 N 0.2521(3) 0.4960(2) 0.7657(2)
H4 H 0.284(3) 0.4595(13) 0.6765(16)
H5 H 0.215(3) 0.4529(12) 0.8440(18)
H6 H 0.3490(19) 0.5323(13) 0.800(3)
H7 H 0.159(2) 0.5382(12) 0.738(3)
Cu1A Cu 0.25553(4) -0.16789(2) 0.26199(3)
Cu1C Cu -0.25553(4) 0.33211(2) 1.23801(3)
Cu1C* Cu 0.74447(4) 0.33211(2) 0.23801(3)
O2C O 0.0213(2) 0.15238(14) 0.6254(2)
O4C O 0.4611(2) 0.15586(14) 0.9129(2)
O6A O 0.0765(3) 0.04463(14) 0.9303(2)
#END
