
#######################################################################
#
#                 Cambridge Crystallographic Data Centre
#                                CCDC
#
#######################################################################
#
# If this CIF has been generated from an entry in the Cambridge
# Structural Database, then it will include bibliographic, chemical,
# crystal, experimental, refinement or atomic coordinate data resulting
# from the CCDC's data processing and validation procedures.
#
#######################################################################

data_CSD_CIF_ROLCEC12
_audit_creation_date 2014-10-10
_audit_creation_method CSD-ConQuest-V1
_database_code_CSD ROLCEC12
_database_code_depnum_ccdc_archive 'CCDC 998706'
_chemical_formula_sum 'C3 H7 Cu1 N1 O6'
_chemical_formula_moiety
;
(C3 H3 Cu1 O6 1-)n,H4 N1 1+
;
_journal_coden_Cambridge 1220
_journal_volume 20
_journal_year 2014
_journal_page_first 15872
_journal_name_full 'Chem.-Eur.J. '
loop_
_publ_author_name
"Ran Shang"
"Sa Chen"
"Zhe-Ming Wang"
"Song Gao"
_chemical_name_systematic
;
catena-(Ammonium tris(\m-formato)-copper)
;
_cell_volume    757.480
_exptl_crystal_colour 'blue'
_exptl_crystal_density_diffrn 1.9
_exptl_special_details
;
orthorhombic polymorph
Phase transition at 350 K

;
_exptl_crystal_description 'block'
_diffrn_ambient_temperature 350
#These two values have been output from a single CSD field.
_refine_ls_R_factor_gt 0.0319
_refine_ls_wR_factor_gt 0.0319
_symmetry_cell_setting orthorhombic
_symmetry_space_group_name_H-M 'P 21 21 21'
_symmetry_Int_Tables_number 19
loop_
_symmetry_equiv_pos_site_id
_symmetry_equiv_pos_as_xyz
1 x,y,z
2 1/2-x,-y,1/2+z
3 -x,1/2+y,1/2-z
4 1/2+x,1/2-y,-z
_cell_length_a 7.2033(1)
_cell_length_b 12.9259(3)
_cell_length_c 8.1354(2)
_cell_angle_alpha 90
_cell_angle_beta 90
_cell_angle_gamma 90
_cell_formula_units_Z 4
loop_
_atom_type_symbol
_atom_type_radius_bond
C 0.68
H 0.23
Cu 1.32
N 0.68
O 0.68
loop_
_atom_site_label
_atom_site_type_symbol
_atom_site_fract_x
_atom_site_fract_y
_atom_site_fract_z
Cu1 Cu 0.24448(4) 0.167996(19) 0.76196(3)
O1 O 0.3616(2) 0.30831(13) 0.5975(2)
O2 O 0.5210(2) 0.34753(13) 0.3745(2)
O3 O 0.1423(2) 0.28528(12) 0.8902(2)
O4 O -0.0390(2) 0.34393(13) 1.0864(2)
O5 O 0.3851(2) 0.06719(13) 0.6324(2)
O6 O 0.4238(3) -0.04492(13) 0.4307(2)
C1 C 0.4791(4) 0.2910(2) 0.4927(4)
H1 H 0.54400 0.22910 0.50220
C2 C 0.0134(3) 0.27578(18) 0.9911(4)
H2 H -0.04790 0.21250 0.99480
C3 C 0.3298(4) 0.01172(18) 0.5183(3)
H3 H 0.20310 0.01320 0.49680
N1 N 0.2525(3) 0.4964(2) 0.7657(2)
H4 H 0.280(3) 0.4650(13) 0.6708(13)
H5 H 0.216(3) 0.4496(11) 0.8387(18)
H6 H 0.3532(18) 0.5286(13) 0.802(3)
H7 H 0.1620(19) 0.5419(11) 0.748(3)
Cu1A Cu 0.25552(4) -0.167996(19) 0.26196(3)
Cu1C Cu -0.25552(4) 0.332004(19) 1.23804(3)
Cu1C* Cu 0.74448(4) 0.332004(19) 0.23804(3)
O2C O 0.0210(2) 0.15247(13) 0.6255(2)
O4C O 0.4610(2) 0.15607(13) 0.9136(2)
O6A O 0.0762(3) 0.04492(13) 0.9307(2)
#END
