
#######################################################################
#
#                 Cambridge Crystallographic Data Centre
#                                CCDC
#
#######################################################################
#
# If this CIF has been generated from an entry in the Cambridge
# Structural Database, then it will include bibliographic, chemical,
# crystal, experimental, refinement or atomic coordinate data resulting
# from the CCDC's data processing and validation procedures.
#
#######################################################################

data_CSD_CIF_ROLCEC07
_audit_creation_date 2014-10-10
_audit_creation_method CSD-ConQuest-V1
_database_code_CSD ROLCEC07
_database_code_depnum_ccdc_archive 'CCDC 998701'
_chemical_formula_sum 'C3 H7 Cu1 N1 O6'
_chemical_formula_moiety
;
(C3 H3 Cu1 O6 1-)n,H4 N1 1+
;
_journal_coden_Cambridge 1220
_journal_volume 20
_journal_year 2014
_journal_page_first 15872
_journal_name_full 'Chem.-Eur.J. '
loop_
_publ_author_name
"Ran Shang"
"Sa Chen"
"Zhe-Ming Wang"
"Song Gao"
_chemical_name_systematic
;
catena-(Ammonium tris(\m-formato)-copper)
;
_cell_volume    756.985
_exptl_crystal_colour 'blue'
_exptl_crystal_density_diffrn 1.901
_exptl_special_details
;
orthorhombic polymorph
Phase transition at 350 K

;
_exptl_crystal_description 'block'
_diffrn_ambient_temperature 290
#These two values have been output from a single CSD field.
_refine_ls_R_factor_gt 0.0283
_refine_ls_wR_factor_gt 0.0283
_symmetry_cell_setting orthorhombic
_symmetry_space_group_name_H-M 'P 21 21 21'
_symmetry_Int_Tables_number 19
loop_
_symmetry_equiv_pos_site_id
_symmetry_equiv_pos_as_xyz
1 x,y,z
2 1/2-x,-y,1/2+z
3 -x,1/2+y,1/2-z
4 1/2+x,1/2-y,-z
_cell_length_a 7.1710(2)
_cell_length_b 12.9640(4)
_cell_length_c 8.1427(2)
_cell_angle_alpha 90
_cell_angle_beta 90
_cell_angle_gamma 90
_cell_formula_units_Z 4
loop_
_atom_type_symbol
_atom_type_radius_bond
C 0.68
H 0.23
Cu 1.32
N 0.68
O 0.68
loop_
_atom_site_label
_atom_site_type_symbol
_atom_site_fract_x
_atom_site_fract_y
_atom_site_fract_z
Cu1 Cu 0.24450(3) 0.167112(18) 0.76223(3)
O1 O 0.3621(2) 0.30654(12) 0.59856(19)
O2 O 0.52118(19) 0.34843(12) 0.37514(19)
O3 O 0.1414(2) 0.28466(11) 0.88880(17)
O4 O -0.0396(2) 0.34460(12) 1.08597(17)
O5 O 0.3870(2) 0.06627(11) 0.63347(18)
O6 O 0.4244(2) -0.04481(12) 0.43012(19)
C1 C 0.4767(3) 0.28915(19) 0.4901(3)
H1 H 0.53660 0.22560 0.49370
C2 C 0.0142(3) 0.27498(16) 0.9923(3)
H2 H -0.04460 0.21120 0.99980
C3 C 0.3293(4) 0.01147(16) 0.5180(3)
H3 H 0.20200 0.01340 0.49650
N1 N 0.2511(3) 0.49300(18) 0.7663(2)
H4 H 0.290(3) 0.4567(11) 0.6783(14)
H5 H 0.211(3) 0.4491(10) 0.8419(16)
H6 H 0.3459(17) 0.5296(11) 0.805(2)
H7 H 0.1594(17) 0.5342(11) 0.734(2)
Cu1A Cu 0.25550(3) -0.167112(18) 0.26223(3)
Cu1C Cu -0.25550(3) 0.332888(18) 1.23777(3)
Cu1C* Cu 0.74450(3) 0.332888(18) 0.23777(3)
O2C O 0.02118(19) 0.15157(12) 0.62486(19)
O4C O 0.4604(2) 0.15540(12) 0.91403(17)
O6A O 0.0756(2) 0.04481(12) 0.93012(19)
#END
