
#######################################################################
#
#                 Cambridge Crystallographic Data Centre
#                                CCDC
#
#######################################################################
#
# If this CIF has been generated from an entry in the Cambridge
# Structural Database, then it will include bibliographic, chemical,
# crystal, experimental, refinement or atomic coordinate data resulting
# from the CCDC's data processing and validation procedures.
#
#######################################################################

data_CSD_CIF_ROLCEC04
_audit_creation_date 2014-10-10
_audit_creation_method CSD-ConQuest-V1
_database_code_CSD ROLCEC04
_database_code_depnum_ccdc_archive 'CCDC 998698'
_chemical_formula_sum 'C3 H7 Cu1 N1 O6'
_chemical_formula_moiety
;
(C3 H3 Cu1 O6 1-)n,H4 N1 1+
;
_journal_coden_Cambridge 1220
_journal_volume 20
_journal_year 2014
_journal_page_first 15872
_journal_name_full 'Chem.-Eur.J. '
loop_
_publ_author_name
"Ran Shang"
"Sa Chen"
"Zhe-Ming Wang"
"Song Gao"
_chemical_name_systematic
;
catena-(Ammonium tris(\m-formato)-copper)
;
_cell_volume    757.671
_exptl_crystal_colour 'blue'
_exptl_crystal_density_diffrn 1.899
_exptl_special_details
;
Magnetic properties
orthorhombic polymorph
Moisture-sensitive
Phase transition at 350 K
;
_exptl_crystal_description 'block'
_diffrn_ambient_temperature 220
#These two values have been output from a single CSD field.
_refine_ls_R_factor_gt 0.0264
_refine_ls_wR_factor_gt 0.0264
_symmetry_cell_setting orthorhombic
_symmetry_space_group_name_H-M 'P 21 21 21'
_symmetry_Int_Tables_number 19
loop_
_symmetry_equiv_pos_site_id
_symmetry_equiv_pos_as_xyz
1 x,y,z
2 1/2-x,-y,1/2+z
3 -x,1/2+y,1/2-z
4 1/2+x,1/2-y,-z
_cell_length_a 7.0946(2)
_cell_length_b 13.1481(4)
_cell_length_c 8.1225(3)
_cell_angle_alpha 90
_cell_angle_beta 90
_cell_angle_gamma 90
_cell_formula_units_Z 4
loop_
_atom_type_symbol
_atom_type_radius_bond
C 0.68
H 0.23
Cu 1.32
N 0.68
O 0.68
loop_
_atom_site_label
_atom_site_type_symbol
_atom_site_fract_x
_atom_site_fract_y
_atom_site_fract_z
Cu1 Cu 0.24524(3) 0.164593(16) 0.76273(2)
O1 O 0.3650(2) 0.30083(11) 0.59942(19)
O2 O 0.52322(18) 0.35156(10) 0.37886(18)
O3 O 0.13931(19) 0.2817(1) 0.88574(17)
O4 O -0.04042(18) 0.34551(10) 1.08144(18)
O5 O 0.39149(18) 0.06442(10) 0.63567(18)
O6 O 0.4264(2) -0.04507(11) 0.43025(19)
C1 C 0.4724(3) 0.28591(16) 0.4822(3)
H1 H 0.52040 0.21970 0.46930
C2 C 0.0169(3) 0.27360(14) 0.9953(3)
H2 H -0.03530 0.20890 1.01410
C3 C 0.3300(3) 0.00997(14) 0.5203(2)
H3 H 0.19940 0.01130 0.50080
N1 N 0.2513(2) 0.48360(15) 0.75876(19)
H4 H 0.304(2) 0.4420(9) 0.6826(15)
H5 H 0.202(2) 0.4451(9) 0.8396(14)
H6 H 0.3407(16) 0.5243(9) 0.801(2)
H7 H 0.1604(17) 0.5206(9) 0.711(2)
Cu1A Cu 0.25476(3) -0.164593(16) 0.26273(2)
Cu1C Cu -0.25476(3) 0.335407(16) 1.23727(2)
Cu1C* Cu 0.74524(3) 0.335407(16) 0.23727(2)
O2C O 0.02322(18) 0.14844(10) 0.62114(18)
O4C O 0.45958(18) 0.15449(10) 0.91856(18)
O6A O 0.0736(2) 0.04507(11) 0.93025(19)
#END
