
#######################################################################
#
#                 Cambridge Crystallographic Data Centre
#                                CCDC
#
#######################################################################
#
# If this CIF has been generated from an entry in the Cambridge
# Structural Database, then it will include bibliographic, chemical,
# crystal, experimental, refinement or atomic coordinate data resulting
# from the CCDC's data processing and validation procedures.
#
#######################################################################

data_CSD_CIF_ROLCEC01
_audit_creation_date 2014-10-10
_audit_creation_method CSD-ConQuest-V1
_database_code_CSD ROLCEC01
_database_code_depnum_ccdc_archive 'CCDC 998695'
_chemical_formula_sum 'C3 H7 Cu1 N1 O6'
_chemical_formula_moiety
;
(C3 H3 Cu1 O6 1-)n,H4 N1 1+
;
_journal_coden_Cambridge 1220
_journal_volume 20
_journal_year 2014
_journal_page_first 15872
_journal_name_full 'Chem.-Eur.J. '
loop_
_publ_author_name
"Ran Shang"
"Sa Chen"
"Zhe-Ming Wang"
"Song Gao"
_chemical_name_systematic
;
catena-(Ammonium tris(\m-formato)-copper)
;
_cell_volume    757.995
_exptl_crystal_colour 'blue'
_exptl_crystal_density_diffrn 1.898
_exptl_special_details
;
Magnetic properties
orthorhombic polymorph
Moisture-sensitive
Phase transition at 350 K
;
_exptl_crystal_description 'block'
_diffrn_ambient_temperature 140
#These two values have been output from a single CSD field.
_refine_ls_R_factor_gt 0.0246
_refine_ls_wR_factor_gt 0.0246
_symmetry_cell_setting orthorhombic
_symmetry_space_group_name_H-M 'P 21 21 21'
_symmetry_Int_Tables_number 19
loop_
_symmetry_equiv_pos_site_id
_symmetry_equiv_pos_as_xyz
1 x,y,z
2 1/2-x,-y,1/2+z
3 -x,1/2+y,1/2-z
4 1/2+x,1/2-y,-z
_cell_length_a 7.0303(2)
_cell_length_b 13.3488(4)
_cell_length_c 8.0770(3)
_cell_angle_alpha 90
_cell_angle_beta 90
_cell_angle_gamma 90
_cell_formula_units_Z 4
loop_
_atom_type_symbol
_atom_type_radius_bond
C 0.68
H 0.23
Cu 1.32
N 0.68
O 0.68
loop_
_atom_site_label
_atom_site_type_symbol
_atom_site_fract_x
_atom_site_fract_y
_atom_site_fract_z
Cu1 Cu 0.24756(3) 0.162291(15) 0.76296(2)
O1 O 0.37049(19) 0.29675(10) 0.60247(18)
O2 O 0.52758(17) 0.35342(9) 0.38370(17)
O3 O 0.13776(18) 0.27852(9) 0.88333(17)
O4 O -0.03959(18) 0.34688(9) 1.07775(16)
O5 O 0.39833(17) 0.06445(9) 0.63437(17)
O6 O 0.42727(18) -0.04639(10) 0.42962(17)
C1 C 0.4722(3) 0.28453(14) 0.4792(2)
H1 H 0.51170 0.21810 0.45460
C2 C 0.0209(3) 0.27251(13) 0.9990(3)
H2 H -0.02470 0.20810 1.02910
C3 C 0.3311(3) 0.00789(12) 0.5228(2)
H3 H 0.19680 0.00680 0.50930
N1 N 0.2520(2) 0.47557(12) 0.74980(16)
H4 H 0.3007(19) 0.4290(8) 0.6789(13)
H5 H 0.1998(19) 0.4436(9) 0.8386(11)
H6 H 0.3454(14) 0.5173(7) 0.7842(17)
H7 H 0.1597(14) 0.5112(8) 0.6971(17)
Cu1A Cu 0.25244(3) -0.162291(15) 0.26296(2)
Cu1C Cu -0.25244(3) 0.337709(15) 1.23704(2)
Cu1C* Cu 0.74756(3) 0.337709(15) 0.23704(2)
O2C O 0.02758(17) 0.14658(9) 0.61630(17)
O4C O 0.46041(18) 0.15312(9) 0.92225(16)
O6A O 0.07273(18) 0.04639(10) 0.92962(17)
#END
