
#######################################################################
#
#                 Cambridge Crystallographic Data Centre
#                                CCDC
#
#######################################################################
#
# If this CIF has been generated from an entry in the Cambridge
# Structural Database, then it will include bibliographic, chemical,
# crystal, experimental, refinement or atomic coordinate data resulting
# from the CCDC's data processing and validation procedures.
#
#######################################################################

data_CSD_CIF_ROLCEC06
_audit_creation_date 2014-10-10
_audit_creation_method CSD-ConQuest-V1
_database_code_CSD ROLCEC06
_database_code_depnum_ccdc_archive 'CCDC 998700'
_chemical_formula_sum 'C3 H7 Cu1 N1 O6'
_chemical_formula_moiety
;
(C3 H3 Cu1 O6 1-)n,H4 N1 1+
;
_journal_coden_Cambridge 1220
_journal_volume 20
_journal_year 2014
_journal_page_first 15872
_journal_name_full 'Chem.-Eur.J. '
loop_
_publ_author_name
"Ran Shang"
"Sa Chen"
"Zhe-Ming Wang"
"Song Gao"
_chemical_name_systematic
;
catena-(Ammonium tris(\m-formato)-copper)
;
_cell_volume    757.131
_exptl_crystal_colour 'blue'
_exptl_crystal_density_diffrn 1.901
_exptl_special_details
;
orthorhombic polymorph
Phase transition at 350 K

;
_exptl_crystal_description 'block'
_diffrn_ambient_temperature 260
#These two values have been output from a single CSD field.
_refine_ls_R_factor_gt 0.0281
_refine_ls_wR_factor_gt 0.0281
_symmetry_cell_setting orthorhombic
_symmetry_space_group_name_H-M 'P 21 21 21'
_symmetry_Int_Tables_number 19
loop_
_symmetry_equiv_pos_site_id
_symmetry_equiv_pos_as_xyz
1 x,y,z
2 1/2-x,-y,1/2+z
3 -x,1/2+y,1/2-z
4 1/2+x,1/2-y,-z
_cell_length_a 7.1506(2)
_cell_length_b 12.9995(4)
_cell_length_c 8.1452(3)
_cell_angle_alpha 90
_cell_angle_beta 90
_cell_angle_gamma 90
_cell_formula_units_Z 4
loop_
_atom_type_symbol
_atom_type_radius_bond
C 0.68
H 0.23
Cu 1.32
N 0.68
O 0.68
loop_
_atom_site_label
_atom_site_type_symbol
_atom_site_fract_x
_atom_site_fract_y
_atom_site_fract_z
Cu1 Cu 0.24457(3) 0.166452(18) 0.76241(3)
O1 O 0.3625(2) 0.30469(12) 0.5987(2)
O2 O 0.52187(18) 0.34918(11) 0.37594(19)
O3 O 0.14086(19) 0.28368(11) 0.88826(18)
O4 O -0.04006(19) 0.34492(11) 1.08484(19)
O5 O 0.38803(19) 0.06555(11) 0.63432(19)
O6 O 0.4254(2) -0.04458(11) 0.42965(19)
C1 C 0.4756(3) 0.28809(18) 0.4881(3)
H1 H 0.53260 0.22380 0.48740
C2 C 0.0148(3) 0.27482(16) 0.9933(3)
H2 H -0.04230 0.21090 1.00370
C3 C 0.3297(3) 0.01115(15) 0.5183(3)
H3 H 0.20190 0.01310 0.49700
N1 N 0.2505(2) 0.49056(17) 0.7658(2)
H4 H 0.295(3) 0.4556(11) 0.6790(14)
H5 H 0.206(2) 0.4458(10) 0.8384(16)
H6 H 0.3433(17) 0.5264(10) 0.810(2)
H7 H 0.1604(16) 0.5322(10) 0.732(2)
Cu1A Cu 0.25543(3) -0.166452(18) 0.26241(3)
Cu1C Cu -0.25543(3) 0.333548(18) 1.23759(3)
Cu1C* Cu 0.74457(3) 0.333548(18) 0.23759(3)
O2C O 0.02187(18) 0.15082(11) 0.62406(19)
O4C O 0.45994(19) 0.15508(11) 0.91516(19)
O6A O 0.0746(2) 0.04458(11) 0.92965(19)
#END
