
#######################################################################
#
#                 Cambridge Crystallographic Data Centre
#                                CCDC
#
#######################################################################
#
# If this CIF has been generated from an entry in the Cambridge
# Structural Database, then it will include bibliographic, chemical,
# crystal, experimental, refinement or atomic coordinate data resulting
# from the CCDC's data processing and validation procedures.
#
#######################################################################

data_CSD_CIF_ROLKEL
_audit_creation_date 2019-08-15
_audit_creation_method CSD-ConQuest-V1
_database_code_CSD ROLKEL
_database_code_depnum_ccdc_archive 'CCDC 1910552'
_chemical_formula_sum 'C22.5 H29.5 N1.5 Na1 O17.5 Zn2'
_chemical_formula_moiety
;
(C20 H14 N1 O12 Zn2 1-)n,0.5(C3 H7 N1 O1),0.5(C2 H6 O1),Na1 1+,4.5(H2 O1)
;
_journal_coden_Cambridge 1295
_journal_volume 106
_journal_year 2019
_journal_page_first 111
_journal_name_full 'Inorg.Chem.Commun. '
loop_
_publ_author_name
"Ping Ju"
"En-sheng Zhang"
"Long Jiang"
_chemical_name_systematic
;
catena-[sodium 
(\m-[1,1'-biphenyl]-2,3',4,5',6-pentacarboxylato)-aqua-(N,N-dimethylformamide)
-di-zinc N,N-dimethylformamide ethanol solvate hydrate]
;
_cell_volume   1365.904
_exptl_crystal_colour 'colorless'
_exptl_crystal_density_diffrn 1.835
_exptl_crystal_description 'prism'
_diffrn_ambient_temperature 293.1
_refine_special_details
;
C21,C22,C23,C24,C25,N2,O12,O13 and O2W,O3W,O4W disordered over two sites with 
occupancies 0.50:0.50.
;
#These two values have been output from a single CSD field.
_refine_ls_R_factor_gt 0.0524
_refine_ls_wR_factor_gt 0.0524
_symmetry_cell_setting triclinic
_symmetry_space_group_name_H-M 'P -1'
_symmetry_Int_Tables_number 2
loop_
_symmetry_equiv_pos_site_id
_symmetry_equiv_pos_as_xyz
1 x,y,z
2 -x,-y,-z
_cell_length_a 9.1447(4)
_cell_length_b 11.2988(7)
_cell_length_c 13.5967(8)
_cell_angle_alpha 92.285(5)
_cell_angle_beta 100.380(4)
_cell_angle_gamma 97.856(5)
_cell_formula_units_Z 2
loop_
_atom_type_symbol
_atom_type_radius_bond
C 0.68
H 0.23
N 0.68
Na 1.66
O 0.68
Zn 1.22
loop_
_atom_site_label
_atom_site_type_symbol
_atom_site_fract_x
_atom_site_fract_y
_atom_site_fract_z
C1 C 0.4008(4) 0.8035(4) 0.2387(3)
C2 C 0.5358(4) 0.7965(4) 0.1910(3)
C3 C 0.6648(4) 0.7533(4) 0.2402(3)
C4 C 0.7821(5) 0.7477(4) 0.1876(3)
C5 C 0.9298(5) 0.7100(5) 0.2332(4)
C6 C 0.7705(5) 0.7835(4) 0.0903(3)
H1 H 0.84920 0.77780 0.05630
C7 C 0.6441(5) 0.8274(4) 0.0430(3)
C8 C 0.6377(6) 0.8701(4) -0.0600(3)
C9 C 0.5264(4) 0.8333(4) 0.0939(3)
H2 H 0.44030 0.86210 0.06280
C10 C 0.6754(4) 0.7158(4) 0.3447(3)
C11 C 0.6465(4) 0.7917(4) 0.4190(3)
H3 H 0.62240 0.86700 0.40370
C12 C 0.6532(5) 0.7564(4) 0.5165(3)
C13 C 0.6199(5) 0.8386(4) 0.5955(3)
C14 C 0.6899(5) 0.6440(4) 0.5388(3)
H4 H 0.69340 0.61950 0.60360
C15 C 0.7212(5) 0.5684(4) 0.4657(3)
C16 C 0.7606(6) 0.4467(4) 0.4914(4)
C17 C 0.7134(5) 0.6044(4) 0.3688(3)
H5 H 0.73400 0.55330 0.31940
O1 O 0.3484(3) 0.9003(3) 0.2405(2)
O2 O 0.3431(3) 0.7104(3) 0.2717(2)
O3 O 0.9791(5) 0.6316(5) 0.1892(4)
O4 O 0.9979(4) 0.7651(3) 0.3136(3)
O5 O 0.5107(4) 0.8765(3) -0.1116(2)
O6 O 0.7540(5) 0.8986(5) -0.0921(3)
O7 O 0.7557(6) 0.3675(4) 0.4263(3)
O8 O 0.7979(4) 0.4350(3) 0.5854(3)
O9 O 0.6138(4) 0.8000(3) 0.6805(2)
O10 O 0.5968(5) 0.9411(3) 0.5775(3)
Zn1 Zn 0.44710(5) 1.06848(4) 0.24403(3)
Zn2 Zn 0.19430(5) 0.71935(4) 0.35938(4)
O11 O 0.2830(5) 0.8450(4) 0.4674(3)
H6 H 0.27330 0.81790 0.52370
H7 H 0.23150 0.90230 0.46210
N1 N 0.9052(5) 1.0620(5) 0.2882(4)
O12 O 0.6655(3) 1.0681(3) 0.3042(3)
C18 C 0.7643(5) 1.0630(5) 0.2525(4)
H8 H 0.73450 1.05960 0.18320
C19 C 0.9616(8) 1.0617(10) 0.3915(6)
H9 H 1.01120 1.14030 0.41660
H10 H 1.03190 1.00560 0.40270
H11 H 0.88020 1.03890 0.42590
C20 C 1.0142(8) 1.0577(9) 0.2217(7)
H12 H 0.96490 1.06160 0.15360
H13 H 1.05600 0.98430 0.22850
H14 H 1.09330 1.12440 0.23950
Na1 Na 0.8790(4) 0.4276(3) 0.1400(2)
O13 O 0.6464(16) 0.4449(19) 0.1346(16)
N2 N 0.3989(17) 0.4527(19) 0.1199(15)
C21 C 0.255(2) 0.431(3) 0.153(3)
H15 H 0.27140 0.39390 0.21560
H16 H 0.21510 0.50390 0.16160
H17 H 0.18440 0.37710 0.10440
C22 C 0.370(4) 0.509(3) 0.0248(18)
H18 H 0.46640 0.52350 0.00500
H19 H 0.30160 0.45630 -0.02530
H20 H 0.33230 0.58310 0.03190
C23 C 0.525(2) 0.424(2) 0.1665(14)
H21 H 0.52550 0.38640 0.22610
O14 O 0.9588(12) 0.3808(9) 0.2907(8)
C24 C 0.9274(19) 0.0931(15) 0.0041(14)
C25 C 0.857(3) 0.182(2) -0.0539(13)
O15 O 0.873(3) 0.2947(17) -0.0033(18)
O16? O 0.674(3) 0.346(2) 0.2072(16)
O17? O 0.368(3) 0.454(2) 0.1925(17)
O18? O 0.786(2) 0.2612(16) 0.1005(13)
O19? O 0.086(3) 0.405(2) 0.1277(19)
O20? O 0.176(4) 0.524(3) 0.013(2)
O4* O -0.0021(4) 0.7651(3) 0.3136(3)
O5A O 0.4893(4) 1.1235(3) 0.1116(2)
O8A O 0.2021(4) 0.5650(3) 0.4146(3)
O9A O 0.3862(4) 1.2000(3) 0.3195(2)
O10A O 0.4032(5) 1.0589(3) 0.4225(3)
Zn1A Zn 0.55290(5) 0.93152(4) -0.24403(3)
Zn1A* Zn 0.55290(5) 0.93152(4) 0.75597(3)
Zn2* Zn 1.19430(5) 0.71935(4) 0.35938(4)
Zn2A Zn 0.80570(5) 0.28065(4) 0.64062(4)
#END
