
#######################################################################
#
#                 Cambridge Crystallographic Data Centre
#                                CCDC
#
#######################################################################
#
# If this CIF has been generated from an entry in the Cambridge
# Structural Database, then it will include bibliographic, chemical,
# crystal, experimental, refinement or atomic coordinate data resulting
# from the CCDC's data processing and validation procedures.
#
#######################################################################

data_CSD_CIF_ROLRES
_audit_creation_date 2019-08-15
_audit_creation_method CSD-ConQuest-V1
_database_code_CSD ROLRES
_database_code_depnum_ccdc_archive 'CCDC 1886114'
_chemical_formula_sum 'C64 H66 In2 N2 O22'
_chemical_formula_moiety
;
(C56 H30 In2 O16 2-)n,2(C4 H12 N1 1+),6(H2 O1)
;
_journal_coden_Cambridge 1350
_journal_volume 21
_journal_year 2019
_journal_page_first 5045
_journal_name_full 'CrystEngComm '
loop_
_publ_author_name
"Yujing Du"
"Li Zhong"
"Yue Hu"
"Qipeng Li"
"Jinjie Qian"
_chemical_name_systematic
;
catena-[bis(diethylammonium) 
bis(\m-4,4',4''-(benzene-1,3,5-triyl)tribenzoato)-(\m-oxalato)-di-indium 
hexahydrate]
;
_chemical_name_common
;
InOF-22
;
_cell_volume  11059.931
_exptl_crystal_colour 'colorless'
_exptl_crystal_density_diffrn 0.714
_exptl_crystal_description 'bulk'
_diffrn_ambient_temperature 173
_refine_special_details
;
Disordered cation and water molecules were not modelled and the disordered 
density was taken into account using the SQUEEZE/PLATON procedure.
;
#These two values have been output from a single CSD field.
_refine_ls_R_factor_gt 0.0641
_refine_ls_wR_factor_gt 0.0641
_symmetry_cell_setting monoclinic
_symmetry_space_group_name_H-M 'I 2/m'
_symmetry_Int_Tables_number 12
loop_
_symmetry_equiv_pos_site_id
_symmetry_equiv_pos_as_xyz
1 x,y,z
2 -x,y,-z
3 1/2+x,1/2+y,1/2+z
4 1/2-x,1/2+y,1/2-z
5 -x,-y,-z
6 x,-y,z
7 -1/2-x,-1/2-y,-1/2-z
8 -1/2+x,-1/2-y,-1/2+z
_cell_length_a 17.5673(3)
_cell_length_b 25.7031(5)
_cell_length_c 24.4991(4)
_cell_angle_alpha 90
_cell_angle_beta 91.155(1)
_cell_angle_gamma 90
_cell_formula_units_Z 4
loop_
_atom_type_symbol
_atom_type_radius_bond
C 0.68
H 0.23
In 1.42
O 0.68
loop_
_atom_site_label
_atom_site_type_symbol
_atom_site_fract_x
_atom_site_fract_y
_atom_site_fract_z
In1 In 0.246381(11) 0.388794(9) 0.126456(8)
O1 O 1.11289(17) 0.40086(16) 0.12383(12)
O2 O 0.38069(16) 0.41802(14) 0.13501(14)
O3 O 1.16913(13) 0.35463(11) 0.18832(11)
O4 O 0.33403(14) 0.34910(12) 0.17379(12)
O5 O 0.23842(14) 0.45738(10) 0.07322(9)
O6 O 0.24210(13) 0.45668(10) 0.18308(9)
C1 C 1.1092(2) 0.37277(17) 0.16650(14)
C2 C 0.3897(2) 0.37933(19) 0.16444(18)
C3 C 0.6073(2) 0.34044(19) 0.23507(18)
O7 O 0.7083(3) 0.1796(3) 0.57401(17)
C4 C 1.0347(2) 0.36130(15) 0.19002(14)
C5 C 0.2404(2) 0.50000 0.09649(17)
C6 C 0.4661(2) 0.36451(19) 0.18777(17)
C7 C 0.8940(2) 0.33811(17) 0.23696(15)
C8 C 0.6827(2) 0.2998(2) 0.31109(19)
H1 H 0.63600 0.29160 0.32800
C9 C 0.8195(2) 0.29710(19) 0.31074(17)
H2 H 0.86630 0.28560 0.32670
O8 O 0.8057(4) 0.1383(2) 0.54765(16)
C10 C 0.2423(2) 0.50000 0.16036(17)
C11 C 0.6814(2) 0.32658(19) 0.26152(17)
C12 C 1.0301(2) 0.3515(2) 0.24585(17)
H3 H 1.07530 0.35140 0.26790
C13 C 0.7507(2) 0.33956(18) 0.23781(17)
H4 H 0.75040 0.35810 0.20420
C14 C 0.8205(2) 0.32593(19) 0.26232(17)
C15 C 0.7514(2) 0.2554(2) 0.38821(19)
C16 C 0.9598(2) 0.3417(2) 0.26997(19)
H5 H 0.95680 0.33760 0.30840
C17 C 0.5281(3) 0.3978(2) 0.1826(2)
H6 H 0.52230 0.42920 0.16250
C18 C 0.7509(2) 0.2848(2) 0.33625(18)
C19 C 0.5974(3) 0.3860(2) 0.2062(2)
H7 H 0.63890 0.40930 0.20250
C20 C 0.8997(2) 0.3455(3) 0.18182(19)
H8 H 0.85520 0.34330 0.15920
C21 C 0.9692(2) 0.3560(2) 0.15846(18)
H9 H 0.97180 0.35970 0.12000
C22 C 0.4763(2) 0.3189(2) 0.2155(2)
H10 H 0.43470 0.29560 0.21920
C23 C 0.7530(3) 0.2016(2) 0.48725(19)
C24 C 0.7562(3) 0.1707(3) 0.5390(2)
C25 C 0.5467(2) 0.3064(2) 0.2385(2)
H11 H 0.55330 0.27400 0.25670
C26 C 0.8079(3) 0.1898(3) 0.4477(2)
H12 H 0.84590 0.16430 0.45500
C27 C 0.8057(3) 0.2160(3) 0.3975(2)
H13 H 0.84080 0.20730 0.37000
C28 C 0.7012(3) 0.2385(3) 0.4764(2)
H14 H 0.66400 0.24560 0.50300
C29 C 0.6993(3) 0.2665(4) 0.4285(2)
H15 H 0.66270 0.29320 0.42310
O5E O 0.23842(14) 0.54262(10) 0.07322(9)
O6E O 0.24210(13) 0.54332(10) 0.18308(9)
In1E In 0.246381(11) 0.611206(9) 0.126456(8)
O1E O 1.11289(17) 0.59914(16) 0.12383(12)
O2E O 0.38069(16) 0.58198(14) 0.13501(14)
O3E O 1.16913(13) 0.64537(11) 0.18832(11)
O4E O 0.33403(14) 0.65090(12) 0.17379(12)
C1E C 1.1092(2) 0.62723(17) 0.16650(14)
C2E C 0.3897(2) 0.62067(19) 0.16444(18)
C3E C 0.6073(2) 0.65956(19) 0.23507(18)
O7E O 0.7083(3) 0.8204(3) 0.57401(17)
C4E C 1.0347(2) 0.63870(15) 0.19002(14)
C6E C 0.4661(2) 0.63549(19) 0.18777(17)
C7E C 0.8940(2) 0.66189(17) 0.23696(15)
C8E C 0.6827(2) 0.7002(2) 0.31109(19)
H1E H 0.63600 0.70840 0.32800
C9E C 0.8195(2) 0.70290(19) 0.31074(17)
H2E H 0.86630 0.71440 0.32670
O8E O 0.8057(4) 0.8617(2) 0.54765(16)
C11E C 0.6814(2) 0.67342(19) 0.26152(17)
C12E C 1.0301(2) 0.6485(2) 0.24585(17)
H3E H 1.07530 0.64860 0.26790
C13E C 0.7507(2) 0.66044(18) 0.23781(17)
H4E H 0.75040 0.64190 0.20420
C14E C 0.8205(2) 0.67407(19) 0.26232(17)
C15E C 0.7514(2) 0.7446(2) 0.38821(19)
C16E C 0.9598(2) 0.6583(2) 0.26997(19)
H5E H 0.95680 0.66240 0.30840
C17E C 0.5281(3) 0.6022(2) 0.1826(2)
H6E H 0.52230 0.57080 0.16250
C18E C 0.7509(2) 0.7152(2) 0.33625(18)
C19E C 0.5974(3) 0.6140(2) 0.2062(2)
H7E H 0.63890 0.59070 0.20250
C20E C 0.8997(2) 0.6545(3) 0.18182(19)
H8E H 0.85520 0.65670 0.15920
C21E C 0.9692(2) 0.6440(2) 0.15846(18)
H9E H 0.97180 0.64030 0.12000
C22E C 0.4763(2) 0.6811(2) 0.2155(2)
H10E H 0.43470 0.70440 0.21920
C23E C 0.7530(3) 0.7984(2) 0.48725(19)
C24E C 0.7562(3) 0.8293(3) 0.5390(2)
C25E C 0.5467(2) 0.6936(2) 0.2385(2)
H11E H 0.55330 0.72600 0.25670
C26E C 0.8079(3) 0.8102(3) 0.4477(2)
H12E H 0.84590 0.83570 0.45500
C27E C 0.8057(3) 0.7840(3) 0.3975(2)
H13E H 0.84080 0.79270 0.37000
C28E C 0.7012(3) 0.7615(3) 0.4764(2)
H14E H 0.66400 0.75440 0.50300
C29E C 0.6993(3) 0.7335(4) 0.4285(2)
H15E H 0.66270 0.70680 0.42310
In1* In 1.246381(11) 0.388794(9) 0.126456(8)
In1B In 0.746381(11) 0.888794(9) 0.626456(8)
In1E* In 1.246381(11) 0.611206(9) 0.126456(8)
In1G In 0.746381(11) 0.111206(9) 0.626456(8)
O1* O 0.11289(17) 0.40086(16) 0.12383(12)
O1E* O 0.11289(17) 0.59914(16) 0.12383(12)
O3* O 0.16913(13) 0.35463(11) 0.18832(11)
O3E* O 0.16913(13) 0.64537(11) 0.18832(11)
O7B O 0.2083(3) 0.6796(3) 0.07401(17)
O7G O 0.2083(3) 0.3204(3) 0.07401(17)
O8B O 0.3057(4) 0.6383(2) 0.04765(16)
O8G O 0.3057(4) 0.3617(2) 0.04765(16)
#END
