
#######################################################################
#
#                 Cambridge Crystallographic Data Centre
#                                CCDC
#
#######################################################################
#
# If this CIF has been generated from an entry in the Cambridge
# Structural Database, then it will include bibliographic, chemical,
# crystal, experimental, refinement or atomic coordinate data resulting
# from the CCDC's data processing and validation procedures.
#
#######################################################################

data_CSD_CIF_ROLRIW
_audit_creation_date 2019-08-15
_audit_creation_method CSD-ConQuest-V1
_database_code_CSD ROLRIW
_database_code_depnum_ccdc_archive 'CCDC 1886115'
_chemical_formula_sum 'C79 H79 In2 N5 O20'
_chemical_formula_moiety
;
(C66 H38 In2 N2 O16 2-)n,2(C4 H12 N1 1+),C5 H11 N1 O1,3(H2 O1)
;
_journal_coden_Cambridge 1350
_journal_volume 21
_journal_year 2019
_journal_page_first 5045
_journal_name_full 'CrystEngComm '
loop_
_publ_author_name
"Yujing Du"
"Li Zhong"
"Yue Hu"
"Qipeng Li"
"Jinjie Qian"
_chemical_name_systematic
;
catena-[bis(diethylammonium) 
bis(\m-4,4',4''-(benzene-1,3,5-triyl)tribenzoato)-bis(pyridine-4-carboxylato)-
di-indium N,N-diethylformamide solvate trihydrate]
;
_chemical_name_common
;
InOF-21
;
_cell_volume   3639.032
_exptl_crystal_colour 'colorless'
_exptl_crystal_density_diffrn 1.227
_diffrn_ambient_temperature 173
_refine_special_details
;
Disordered cation and solvent molecules were not modelled and the disordered 
density was taken into account using the SQUEEZE/PLATON procedure.
;
#These two values have been output from a single CSD field.
_refine_ls_R_factor_gt 0.0907
_refine_ls_wR_factor_gt 0.0907
_symmetry_cell_setting triclinic
_symmetry_space_group_name_H-M 'P -1'
_symmetry_Int_Tables_number 2
loop_
_symmetry_equiv_pos_site_id
_symmetry_equiv_pos_as_xyz
1 x,y,z
2 -x,-y,-z
_cell_length_a 9.0282(2)
_cell_length_b 15.3282(3)
_cell_length_c 26.6329(5)
_cell_angle_alpha 90.906(2)
_cell_angle_beta 91.479(2)
_cell_angle_gamma 98.927(2)
_cell_formula_units_Z 2
loop_
_atom_type_symbol
_atom_type_radius_bond
C 0.68
H 0.23
In 1.42
N 0.68
O 0.68
loop_
_atom_site_label
_atom_site_type_symbol
_atom_site_fract_x
_atom_site_fract_y
_atom_site_fract_z
In1 In 0.80376(6) 0.90836(3) 0.349304(19)
In2 In 0.64490(6) 1.57840(3) -0.157015(19)
C1 C 0.1499(8) 0.8933(5) -0.0224(3)
C2 C 0.4916(9) 1.3623(5) -0.0203(3)
H1 H 0.50680 1.41680 -0.00200
C3 C 0.3942(9) 0.9529(5) 0.1597(3)
H2 H 0.29240 0.92860 0.15240
C4 C 0.4635(9) 0.9323(5) 0.2048(3)
H3 H 0.40910 0.89460 0.22820
C5 C 0.4379(9) 1.1075(5) 0.0531(3)
H4 H 0.50030 1.15530 0.06990
C6 C 0.5622(9) 1.4434(5) -0.0987(3)
C7 C 0.4982(9) 1.2796(5) -0.0980(3)
H5 H 0.51930 1.27790 -0.13270
N1 N 0.0889(8) 1.8074(5) -0.2419(3)
C8 C 0.3090(9) 0.9577(5) 0.0512(3)
H6 H 0.28500 0.90260 0.06720
C9 C 0.2821(9) 1.0482(5) -0.0197(3)
H7 H 0.24000 1.05620 -0.05210
C10 C 0.0860(9) 0.7367(5) -0.0409(3)
H8 H 0.10940 0.67850 -0.03870
C11 C -0.0409(9) 0.7514(5) -0.0683(3)
C12 C 0.3784(9) 1.1182(5) 0.0040(3)
C13 C -0.0688(9) 0.8383(5) -0.0748(3)
H9 H -0.15230 0.84930 -0.09480
C14 C 0.5173(9) 1.3609(5) -0.0712(3)
C15 C 0.4734(9) 1.0088(5) 0.1254(3)
C16 C 0.6145(9) 0.9681(5) 0.2149(3)
C17 C 0.4434(9) 1.2841(5) 0.0042(3)
H10 H 0.42530 1.28570 0.03920
C18 C 0.4038(9) 1.0256(5) 0.0764(3)
C19 C 0.2478(9) 0.9675(5) 0.0034(3)
C20 C 0.6881(9) 0.9461(5) 0.2619(3)
C21 C 0.4213(8) 1.2035(5) -0.0217(3)
C22 C 0.1779(9) 0.8060(6) -0.0171(3)
H11 H 0.26090 0.79480 0.00320
C23 C 0.0268(9) 0.9077(5) -0.0518(3)
H12 H 0.00790 0.96630 -0.05610
C24 C 0.3322(9) 1.7674(5) -0.2536(3)
H13 H 0.42060 1.77220 -0.27270
C25 C 0.3162(9) 1.7157(5) -0.2110(3)
C26 C 0.4484(9) 1.2025(5) -0.0731(3)
H14 H 0.43230 1.14790 -0.09140
C27 C 0.6926(9) 1.0225(5) 0.1803(3)
H15 H 0.79510 1.04570 0.18710
C28 C 0.6239(9) 1.0437(5) 0.1360(3)
H16 H 0.67870 1.08180 0.11280
C29 C 0.2154(10) 1.8118(6) -0.2675(3)
H17 H 0.22560 1.84700 -0.29660
C30 C 0.4398(10) 1.6684(5) -0.1950(3)
C31 C 0.0748(10) 1.7563(6) -0.2011(3)
H18 H -0.01530 1.75180 -0.18300
C32 C 0.1854(10) 1.7101(5) -0.1844(3)
H19 H 0.17220 1.67520 -0.15530
O1 O 0.5590(7) 1.5174(4) -0.0800(2)
O2 O 0.6126(6) 0.9102(4) 0.2975(2)
O3 O 0.8293(6) 0.9663(4) 0.2674(2)
O4 O 0.6090(7) 1.4372(4) -0.1440(2)
O5 O 0.5688(6) 1.6912(4) -0.2108(2)
O6 O 0.4128(7) 1.6032(4) -0.1641(2)
O7 O 1.5981(7) 1.8847(4) 0.4101(2)
O8 O 0.9248(6) 0.9752(3) 0.4193(2)
O9 O -0.2582(6) 0.6956(4) -0.1179(2)
O10 O 0.6294(6) 1.5181(4) 0.7597(2)
O11 O 0.8432(6) 1.5778(4) 0.7968(2)
O12 O 1.7211(6) 1.7835(4) 0.3806(2)
O13 O 1.0092(6) 0.8610(4) 0.3349(2)
O14 O 0.8238(7) 1.0510(4) 0.3628(2)
C33 C 0.9577(8) 1.1328(5) 0.4310(3)
C34 C 0.9023(9) 1.0487(5) 0.4033(3)
C35 C 0.9964(9) 1.1328(5) 0.4820(3)
H20 H 0.98750 1.07860 0.49920
C36 C 1.0476(9) 1.2109(5) 0.5075(3)
H21 H 1.07000 1.21040 0.54260
C37 C 1.1124(8) 1.3758(5) 0.5095(3)
C38 C 1.0347(9) 1.2898(5) 0.4304(3)
H22 H 1.05200 1.34320 0.41230
C39 C 1.0668(9) 1.2909(5) 0.4822(3)
C40 C 1.1860(8) 1.5409(5) 0.5576(3)
H23 H 1.21080 1.59680 0.57420
C41 C 1.0128(9) 1.4920(5) 0.6275(3)
C42 C 1.0887(8) 1.4732(5) 0.5802(3)
C43 C 1.2466(9) 1.5268(5) 0.5108(3)
C44 C 1.2075(8) 1.4446(5) 0.4872(3)
H24 H 1.24620 1.43480 0.45510
O15 O -0.1155(7) 0.6001(4) -0.0918(2)
C45 C 0.8644(9) 1.4500(5) 0.6333(3)
H25 H 0.81910 1.40790 0.60880
C46 C 1.0551(8) 1.3922(5) 0.5554(3)
H26 H 0.99000 1.34610 0.57070
C47 C 1.4561(9) 1.5810(5) 0.4541(3)
H27 H 1.47050 1.52140 0.44910
C48 C 1.3456(9) 1.5988(5) 0.4858(3)
C49 C 0.8536(9) 1.5246(5) 0.7124(3)
C50 C 0.7693(9) 1.5412(5) 0.7584(3)
C51 C -0.1427(8) 0.6769(5) -0.0937(3)
C52 C 1.3261(10) 1.6874(5) 0.4925(3)
H28 H 1.25140 1.70160 0.51440
C53 C 1.5459(9) 1.6464(5) 0.4296(3)
H29 H 1.62260 1.63210 0.40860
C54 C 1.4147(10) 1.7547(5) 0.4676(3)
H30 H 1.40070 1.81440 0.47230
C55 C 0.783(1) 1.4697(5) 0.6750(3)
H31 H 0.68010 1.44530 0.67730
C56 C 0.9776(9) 1.2113(5) 0.4054(3)
H32 H 0.95210 1.21140 0.37060
C57 C 1.0789(10) 1.5497(5) 0.6644(3)
H33 H 1.17870 1.57880 0.66050
O16 O 0.8595(6) 0.7769(4) 0.2800(2)
C58 C 1.0031(9) 1.5666(5) 0.7073(3)
H34 H 1.05100 1.60580 0.73280
C59 C 0.9850(9) 0.8021(5) 0.3007(3)
C60 C 1.2520(9) 0.7752(5) 0.3129(3)
H35 H 1.25990 0.80820 0.34370
C61 C 1.1148(9) 0.7139(5) 0.2397(3)
H36 H 1.02580 0.70270 0.21930
C62 C 1.5237(9) 1.7335(5) 0.4357(3)
C63 C 1.1185(10) 0.7626(5) 0.2845(3)
N2 N 1.3697(8) 0.6944(5) 0.2521(3)
C64 C 1.3722(10) 0.7392(6) 0.2959(3)
H37 H 1.46160 0.74640 0.31610
C65 C 1.6206(9) 1.8047(5) 0.4077(3)
C66 C 1.2434(10) 0.6822(6) 0.2255(3)
H38 H 1.24010 0.64970 0.19470
In1* In 1.80376(6) 1.90836(3) 0.349304(19)
In2* In -0.35510(6) 0.57840(3) -0.157015(19)
In2** In 0.64490(6) 1.57840(3) 0.842985(19)
O7* O 0.5981(7) 0.8847(4) 0.4101(2)
O9* O 0.7418(6) 1.6956(4) -0.1179(2)
O10* O 0.6294(6) 1.5181(4) -0.2403(2)
O11* O 0.8432(6) 1.5778(4) -0.2032(2)
O12* O 0.7211(6) 0.7835(4) 0.3806(2)
#END
