
#######################################################################
#
#                 Cambridge Crystallographic Data Centre
#                                CCDC
#
#######################################################################
#
# If this CIF has been generated from an entry in the Cambridge
# Structural Database, then it will include bibliographic, chemical,
# crystal, experimental, refinement or atomic coordinate data resulting
# from the CCDC's data processing and validation procedures.
#
#######################################################################

data_CSD_CIF_RONBAY
_audit_creation_date 2009-03-24
_audit_creation_method CSD-ConQuest-V1
_database_code_CSD RONBAY
_database_code_depnum_ccdc_archive 'CCDC 707306'
_chemical_formula_sum 'C44 H56 Cu2 F14 N10 O4 V4'
_chemical_formula_moiety
;
(C2 H8 N1 1+)2n,n(C40 H40 Cu2 F14 N8 O4 V4 2-)
;
_journal_coden_Cambridge 9
_journal_volume 47
_journal_year 2008
_journal_page_first 9097
_journal_name_full 'Inorg.Chem. '
loop_
_publ_author_name
"T.Mahenthirarajah"
"Yang Li"
"P.Lightfoot"
_chemical_name_systematic
;
catena-(bis(Dimethylammonium) 
decakis(\m~2~-fluoro)-tetrafluoro-tetraoxo-octakis(pyridine)-di-copper-tetra-v
anadium(iv) unknown solvate)
;
_cell_volume   1489.238
_exptl_crystal_colour 'blue'
_exptl_crystal_density_diffrn 1.545
_exptl_special_details
;
air-sensitive

;
_exptl_crystal_description 'prism'
_diffrn_ambient_temperature 93
_refine_special_details
;
There is some evidence from the x-ray refinement of some disordered solvent 
or guest moieties although these could not be conclusively assigned.
;
#These two values have been output from a single CSD field.
_refine_ls_R_factor_gt 0.1236
_refine_ls_wR_factor_gt 0.1236
_symmetry_cell_setting triclinic
_symmetry_space_group_name_H-M 'P -1'
_symmetry_Int_Tables_number 2
loop_
_symmetry_equiv_pos_site_id
_symmetry_equiv_pos_as_xyz
1 x,y,z
2 -x,-y,-z
_cell_length_a 8.981(3)
_cell_length_b 13.533(6)
_cell_length_c 13.545(6)
_cell_angle_alpha 89.15(3)
_cell_angle_beta 70.64(2)
_cell_angle_gamma 74.19(3)
_cell_formula_units_Z 1
loop_
_atom_type_symbol
_atom_type_radius_bond
C 0.68
H 0.23
Cu 1.52
F 0.68
N 0.68
O 0.68
V 1.25
loop_
_atom_site_label
_atom_site_type_symbol
_atom_site_fract_x
_atom_site_fract_y
_atom_site_fract_z
Cu1 Cu 0.50000 1.00000 0.50000
Cu2 Cu 0.50000 0.50000 1.00000
V1 V 0.69474(18) 0.72889(11) 0.62544(11)
V2 V 0.42514(18) 0.63141(11) 0.72743(11)
F1 F 0.8264(7) 0.6754(4) 0.4858(4)
F2 F 0.5975(6) 0.8548(4) 0.5757(4)
F3 F 0.4946(6) 0.7556(4) 0.7556(4)
F4 F 0.7064(7) 0.5886(4) 0.6657(4)
F5 F 0.4955(6) 0.6752(4) 0.5860(4)
F6 F 0.4447(7) 0.4980(4) 0.6713(4)
F7 F 0.4606(7) 0.5732(5) 0.8509(4)
O1 O 0.8171(9) 0.7610(6) 0.6731(6)
O2 O 0.2305(8) 0.6835(5) 0.7680(5)
N1 N 0.5194(9) 0.9112(6) 0.3722(6)
N2 N 0.7360(9) 1.0090(6) 0.4290(6)
N3 N 0.684(1) 0.3803(6) 0.9084(6)
N4 N 0.6717(10) 0.5758(6) 0.9920(6)
N5 N 0.7651(11) 0.4896(7) 0.4390(8)
H1 H 0.67200 0.49940 0.42400
H2 H 0.75230 0.54410 0.48150
C1 C 0.5256(12) 0.8107(7) 0.3773(8)
H3 H 0.53560 0.77870 0.43700
C2 C 0.5176(16) 0.7540(9) 0.2962(10)
H4 H 0.51750 0.68550 0.30270
C3 C 0.5099(16) 0.7986(10) 0.2074(11)
H5 H 0.50580 0.76070 0.15200
C4 C 0.5081(17) 0.9016(9) 0.1992(9)
H6 H 0.50170 0.93410 0.13920
C5 C 0.5161(14) 0.9541(8) 0.2836(8)
H7 H 0.51940 1.02210 0.27800
C6 C 0.8656(11) 0.9310(8) 0.4308(7)
H8 H 0.84780 0.87100 0.46040
C7 C 1.0270(12) 0.9388(8) 0.3888(8)
H9 H 1.11450 0.88560 0.39360
C8 C 1.0556(13) 1.0258(8) 0.3404(8)
H10 H 1.16220 1.03040 0.30880
C9 C 0.9221(14) 1.1054(9) 0.3402(10)
H11 H 0.93630 1.16630 0.31110
C10 C 0.7678(11) 1.0929(8) 0.3838(9)
H12 H 0.67890 1.14660 0.38170
C11 C 0.7383(16) 0.2925(9) 0.950(1)
H13 H 0.67950 0.28270 1.01840
C12 C 0.8774(19) 0.2176(11) 0.8946(12)
H14 H 0.91320 0.15730 0.92440
C13 C 0.9673(19) 0.2338(15) 0.7892(13)
H15 H 1.06700 0.18660 0.75160
C14 C 0.9084(16) 0.3148(10) 0.7471(11)
H16 H 0.96070 0.32290 0.67690
C15 C 0.7687(13) 0.3887(9) 0.8058(8)
H17 H 0.73000 0.44710 0.77430
C16 C 0.7453(11) 0.5671(7) 1.0632(8)
H18 H 0.71470 0.52820 1.11970
C17 C 0.8676(13) 0.6149(9) 1.0552(8)
H19 H 0.91820 0.60660 1.10580
C18 C 0.9140(14) 0.6737(9) 0.9740(9)
H20 H 0.99410 0.70690 0.96870
C19 C 0.8379(14) 0.6814(10) 0.9017(9)
H21 H 0.86740 0.72020 0.84490
C20 C 0.7194(16) 0.6337(10) 0.9104(8)
H22 H 0.66960 0.64080 0.85950
C21 C 0.9014(15) 0.4840(11) 0.3428(11)
H23 H 1.00210 0.44500 0.35180
H24 H 0.90740 0.55230 0.32620
H25 H 0.88500 0.45080 0.28670
C22 C 0.7914(14) 0.3948(11) 0.4947(10)
H26 H 0.77510 0.34030 0.45860
H27 H 0.71440 0.40750 0.56520
H28 H 0.90160 0.37520 0.49640
Cu2* Cu 0.50000 1.50000 0.00000
V1A V 0.30526(18) 1.27111(11) 0.37456(11)
V2A V 0.57486(18) 1.36859(11) 0.27257(11)
F1A F 0.1736(7) 1.3246(4) 0.5142(4)
F2A F 0.4025(6) 1.1452(4) 0.4243(4)
F3A F 0.5054(6) 1.2444(4) 0.2444(4)
F4A F 0.2936(7) 1.4114(4) 0.3343(4)
F5A F 0.5045(6) 1.3248(4) 0.4140(4)
F6A F 0.5553(7) 1.5020(4) 0.3287(4)
F7A F 0.5394(7) 1.4268(5) 0.1491(4)
F7A* F 0.5394(7) 0.4268(5) 1.1491(4)
O1A O 0.1829(9) 1.2390(6) 0.3269(6)
O2A O 0.7695(8) 1.3165(5) 0.2320(5)
N1A N 0.4806(9) 1.0888(6) 0.6278(6)
N2A N 0.2640(9) 0.9910(6) 0.5710(6)
N3A N 0.316(1) 0.6197(6) 1.0916(6)
N4A N 0.3283(10) 0.4242(6) 1.0080(6)
C1A C 0.4744(12) 1.1893(7) 0.6227(8)
H3A H 0.46440 1.22130 0.56300
C2A C 0.4824(16) 1.2460(9) 0.7038(10)
H4A H 0.48250 1.31450 0.69730
C3A C 0.4901(16) 1.2014(10) 0.7926(11)
H5A H 0.49420 1.23930 0.84800
C4A C 0.4919(17) 1.0984(9) 0.8008(9)
H6A H 0.49830 1.06590 0.86080
C5A C 0.4839(14) 1.0459(8) 0.7164(8)
H7A H 0.48060 0.97790 0.72200
C6A C 0.1344(11) 1.0690(8) 0.5692(7)
H8A H 0.15220 1.12900 0.53960
C7A C -0.0270(12) 1.0612(8) 0.6112(8)
H9A H -0.11450 1.11440 0.60640
C8A C -0.0556(13) 0.9742(8) 0.6596(8)
H10A H -0.16220 0.96960 0.69120
C9A C 0.0779(14) 0.8946(9) 0.6598(10)
H11A H 0.06370 0.83370 0.68890
C10A C 0.2322(11) 0.9071(8) 0.6162(9)
H12A H 0.32110 0.85340 0.61830
C11A C 0.2617(16) 0.7075(9) 1.050(1)
H13A H 0.32050 0.71730 0.98160
C12A C 0.1226(19) 0.7824(11) 1.1054(12)
H14A H 0.08680 0.84270 1.07560
C13A C 0.0327(19) 0.7662(15) 1.2108(13)
H15A H -0.06700 0.81340 1.24840
C14A C 0.0916(16) 0.6852(10) 1.2529(11)
H16A H 0.03930 0.67710 1.32310
C15A C 0.2313(13) 0.6113(9) 1.1942(8)
H17A H 0.27000 0.55290 1.22570
C16A C 0.2547(11) 0.4329(7) 0.9368(8)
H18A H 0.28530 0.47180 0.88030
C17A C 0.1324(13) 0.3851(9) 0.9448(8)
H19A H 0.08180 0.39340 0.89420
C18A C 0.0860(14) 0.3263(9) 1.0260(9)
H20A H 0.00590 0.29310 1.03130
C19A C 0.1621(14) 0.3186(10) 1.0983(9)
H21A H 0.13260 0.27980 1.15510
C20A C 0.2806(16) 0.3663(10) 1.0896(8)
H22A H 0.33040 0.35920 1.14050
#END
