
#######################################################################
#
#                 Cambridge Crystallographic Data Centre
#                                CCDC
#
#######################################################################
#
# If this CIF has been generated from an entry in the Cambridge
# Structural Database, then it will include bibliographic, chemical,
# crystal, experimental, refinement or atomic coordinate data resulting
# from the CCDC's data processing and validation procedures.
#
#######################################################################

data_CSD_CIF_RONHAG
_audit_creation_date 2019-08-15
_audit_creation_method CSD-ConQuest-V1
_database_code_CSD RONHAG
_database_code_depnum_ccdc_archive 'CCDC 1901773'
_chemical_formula_sum 'C47 H99 Cl1 N5 O35 Sr2 V12'
_chemical_formula_moiety
;
(C15 H27 N3 O35 Sr2 V12 1-)n,n(Cl1 1-),2n(C16 H36 N1 1+)
;
_journal_coden_Cambridge 9
_journal_volume 58
_journal_year 2019
_journal_page_first 11684
_journal_name_full 'Inorg.Chem. '
loop_
_publ_author_name
"B.Schwarz"
"Maximilian Durr"
"K.Kastner"
"N.Heber"
"I.Ivanovic-Burmazovic"
"C.Streb"
_chemical_name_systematic
;
catena-(bis(tetra-n-butylammonium) 
icosakis(\m-oxo)-tris(\m-N-methylpyrrolidin-2-one)-dodecaoxo-di-strontium-dode
ca-vanadium chloride)
;
_cell_volume   9154.712
_exptl_crystal_colour 'dark green'
_exptl_crystal_density_diffrn 1.535
_exptl_crystal_description 'block'
_exptl_crystal_preparation 'N-methylpyrrolidin-2-one / acetone'
_diffrn_ambient_temperature 150.0
_refine_special_details
;
The MASK/OLEX2 program was used to model some disordered solvent.

;
#These two values have been output from a single CSD field.
_refine_ls_R_factor_gt 0.0697
_refine_ls_wR_factor_gt 0.0697
_symmetry_cell_setting monoclinic
_symmetry_space_group_name_H-M 'P 21/c'
_symmetry_Int_Tables_number 14
loop_
_symmetry_equiv_pos_site_id
_symmetry_equiv_pos_as_xyz
1 x,y,z
2 -x,1/2+y,1/2-z
3 -x,-y,-z
4 x,-1/2-y,-1/2+z
_cell_length_a 10.9360(3)
_cell_length_b 29.5293(9)
_cell_length_c 28.4759(9)
_cell_angle_alpha 90
_cell_angle_beta 95.4177(9)
_cell_angle_gamma 90
_cell_formula_units_Z 4
loop_
_atom_type_symbol
_atom_type_radius_bond
C 0.68
H 0.23
Cl 0.99
N 0.68
O 0.68
Sr 1.95
V 1.53
loop_
_atom_site_label
_atom_site_type_symbol
_atom_site_fract_x
_atom_site_fract_y
_atom_site_fract_z
Sr1 Sr 0.26530(6) 0.30780(2) 0.25084(2)
Sr2 Sr -0.07490(6) 0.31060(2) 0.24688(2)
V1 V 0.42549(9) 0.21455(3) 0.21831(4)
V2 V 0.49456(9) 0.22406(3) 0.31853(4)
V3 V 0.73401(10) 0.20715(4) 0.27589(4)
V4 V 0.6962(1) 0.24487(4) 0.16264(4)
V5 V 0.43584(9) 0.28275(4) 0.14499(4)
V6 V 0.50321(10) 0.33251(4) 0.35851(4)
V7 V 0.79005(10) 0.27734(4) 0.34561(4)
V8 V 0.70938(10) 0.41153(4) 0.22237(4)
V9 V 0.43881(10) 0.39998(4) 0.28605(4)
V10 V 0.72653(10) 0.34176(4) 0.15144(4)
V11 V 0.44561(10) 0.39233(4) 0.18429(4)
V12 V 0.74569(10) 0.37408(4) 0.33584(4)
O1 O 0.3973(4) 0.34159(15) 0.15265(16)
O2 O 0.4652(4) 0.27340(14) 0.35328(15)
O3 O 0.5308(4) 0.22910(14) 0.17118(14)
O4 O 0.5617(4) 0.19856(13) 0.26193(14)
O5 O 0.6681(4) 0.23231(14) 0.33322(14)
O6 O 0.5450(4) 0.41805(14) 0.23995(16)
O7 O 0.6742(4) 0.31947(14) 0.36512(14)
O8 O 0.5759(4) 0.38759(14) 0.33080(15)
O9 O 0.7540(4) 0.21268(15) 0.21372(15)
O10 O 0.6097(4) 0.38528(14) 0.16728(15)
O11 O 0.3655(4) 0.23396(14) 0.27359(14)
O12 O 0.3750(4) 0.35135(14) 0.31663(15)
O13 O 0.7681(4) 0.40562(15) 0.28343(16)
O14 O 0.7882(4) 0.15851(15) 0.29084(16)
O15 O 0.8121(4) 0.28959(15) 0.17048(15)
O16 O 0.6027(4) 0.29817(14) 0.13518(15)
O17 O 0.8585(4) 0.33056(15) 0.32585(16)
O18 O 0.3431(4) 0.38391(15) 0.23242(16)
O19 O 0.8201(4) 0.37220(14) 0.19956(15)
O20 O 0.3899(4) 0.43394(15) 0.15395(16)
O21 O 0.8535(4) 0.24812(15) 0.29573(16)
O22 O 0.8054(4) 0.40384(16) 0.37858(17)
O23 O 0.4699(4) 0.34676(16) 0.40941(16)
O24 O 0.7308(4) 0.21631(16) 0.11843(15)
O25 O 0.4587(4) 0.18139(15) 0.34854(15)
O26 O 0.7469(4) 0.46061(15) 0.20709(18)
O27 O 0.8712(4) 0.26131(17) 0.39192(17)
O28 O 0.3751(4) 0.26872(17) 0.09396(15)
O29 O 0.3773(4) 0.44427(15) 0.30546(18)
O30 O 0.7753(4) 0.35734(18) 0.10305(17)
O31 O 0.3591(4) 0.16791(15) 0.20406(16)
O32 O 0.0883(5) 0.3259(2) 0.19031(18)
O33 O 0.1031(5) 0.3488(2) 0.2918(2)
O34 O 0.0925(5) 0.25175(17) 0.2570(3)
N1 N 0.0707(6) 0.1760(2) 0.2498(2)
C1 C 0.0971(6) 0.21460(18) 0.2788(3)
C2 C 0.1186(7) 0.1996(3) 0.3262(2)
H1 H 0.20240 0.20820 0.33940
H2 H 0.05880 0.21370 0.34580
C3 C 0.1054(8) 0.1517(3) 0.3265(3)
H3 H 0.03930 0.14300 0.34620
H4 H 0.18290 0.13740 0.33980
C4 C 0.0758(7) 0.13720(18) 0.2793(3)
H5 H 0.13910 0.11590 0.27000
H6 H -0.00450 0.12150 0.27640
C5 C 0.1325(7) 0.3551(2) 0.3787(2)
H7 H 0.06940 0.33300 0.38650
H8 H 0.21410 0.34050 0.38390
C6 C 0.1096(6) 0.3691(2) 0.3310(2)
N2 N 0.0916(6) 0.4167(2) 0.3304(2)
C7 C 0.1033(8) 0.4322(2) 0.3779(3)
H9 H 0.17090 0.45450 0.38260
H10 H 0.02630 0.44700 0.38530
C8 C 0.1286(9) 0.3941(3) 0.40769(18)
H11 H 0.20830 0.39820 0.42670
H12 H 0.06370 0.39070 0.42940
C9 C 0.0687(10) 0.4426(4) 0.2879(4)
H13 H 0.08570 0.42390 0.26080
H14 H 0.12230 0.46930 0.28950
H15 H -0.01730 0.45230 0.28420
C10 C 0.0477(10) 0.1776(4) 0.2015(4)
H16 H -0.03870 0.18540 0.19300
H17 H 0.06510 0.14790 0.18810
H18 H 0.10030 0.20060 0.18880
C11 C 0.0623(11) 0.2686(4) 0.1132(5)
H19 H -0.02370 0.26040 0.10430
H20 H 0.08660 0.25830 0.14540
H21 H 0.11460 0.25410 0.09140
N3 N 0.0757(6) 0.3161(3) 0.1107(3)
C12 C 0.0741(8) 0.3446(4) 0.07055(19)
H22 H 0.14520 0.33780 0.05270
H23 H -0.00210 0.33960 0.04950
C13 C 0.0798(9) 0.3902(3) 0.0864(3)
H24 H 0.00630 0.40700 0.07300
H25 H 0.15360 0.40530 0.07610
C14 C 0.0849(7) 0.3899(3) 0.1364(3)
H26 H 0.01390 0.40650 0.14700
H27 H 0.16120 0.40480 0.15010
C15 C 0.0824(6) 0.3441(3) 0.15147(19)
O35 O 0.3336(4) 0.26017(14) 0.18689(14)
Cl1 Cl 0.59646(17) 0.30847(5) 0.25017(5)
N4 N -0.4506(6) 0.05548(18) 0.2548(3)
C16 C -0.5513(7) 0.0272(2) 0.2277(3)
H28 H -0.51560 0.01240 0.20100
H29 H -0.57560 0.00290 0.24900
C17 C -0.3999(7) 0.0900(2) 0.2222(3)
H30 H -0.34040 0.10960 0.24120
H31 H -0.46820 0.10960 0.20900
C18 C -0.3516(8) 0.0238(2) 0.2752(3)
H32 H -0.38780 0.00370 0.29800
H33 H -0.32710 0.00440 0.24930
C19 C -0.5046(9) 0.0819(3) 0.2947(4)
H34 H -0.43830 0.10050 0.31110
H35 H -0.56790 0.10290 0.28030
C20 C -0.3367(9) 0.0699(3) 0.1817(4)
H36 H -0.27460 0.04750 0.19410
H37 H -0.39800 0.05400 0.15970
C21 C -0.6654(9) 0.0518(3) 0.2087(4)
H38 H -0.64250 0.07760 0.18910
H39 H -0.70730 0.06420 0.23530
C22 C -0.7521(9) 0.0210(3) 0.1795(4)
H40 H -0.71090 0.01020 0.15210
H41 H -0.76930 -0.00580 0.19870
C23 C -0.1501(10) 0.0096(3) 0.3183(5)
H42 H -0.18890 -0.00770 0.34270
H43 H -0.13690 -0.01170 0.29230
C24 C -0.2371(10) 0.0446(3) 0.2996(4)
H44 H -0.19750 0.06390 0.27700
H45 H -0.25940 0.06410 0.32580
C25 C -0.2761(10) 0.1063(4) 0.1560(4)
H46 H -0.21760 0.12260 0.17870
H47 H -0.33940 0.12820 0.14350
C26 C -0.5603(13) 0.0544(4) 0.3304(5)
H48 H -0.62900 0.03710 0.31390
H49 H -0.49810 0.03210 0.34300
C27 C -0.2083(11) 0.0897(4) 0.1159(5)
H50 H -0.26720 0.07810 0.09080
H51 H -0.15160 0.06550 0.12710
H52 H -0.16190 0.11480 0.10370
C28 C -0.0292(12) 0.0253(4) 0.3389(6)
H53 H 0.01300 0.04100 0.31480
H54 H 0.01990 -0.00080 0.35080
H55 H -0.04000 0.04610 0.36510
C29 C -0.6058(18) 0.0765(5) 0.3694(5)
H56 H -0.66340 0.10060 0.35720
H57 H -0.53620 0.09140 0.38810
C30 C -0.6695(19) 0.0471(5) 0.4012(5)
H58 H -0.72350 0.02610 0.38240
H59 H -0.71850 0.06580 0.42080
H60 H -0.60870 0.02990 0.42140
C31 C -0.8713(13) 0.0424(5) 0.1618(7)
H61 H -0.85540 0.07030 0.14470
H62 H -0.91800 0.04970 0.18860
H63 H -0.91870 0.02140 0.14060
C32 C -0.5327(8) 0.2785(3) -0.0453(3)
H64 H -0.56930 0.30440 -0.06370
H65 H -0.50820 0.25570 -0.06810
N5 N -0.4172(6) 0.2950(2) -0.0164(2)
C33 C -0.3523(8) 0.2572(3) 0.0104(2)
H66 H -0.40800 0.24500 0.03280
H67 H -0.28010 0.27010 0.02940
C34 C -0.4484(8) 0.3299(3) 0.0199(3)
H68 H -0.49320 0.31430 0.04390
H69 H -0.37050 0.34140 0.03610
C35 C -0.1701(19) 0.1493(6) -0.0155(5)
H70 H -0.13110 0.16130 -0.04250
H71 H -0.23740 0.12900 -0.02670
H72 H -0.10930 0.13260 0.00530
C36 C -0.2113(9) 0.3299(3) -0.0332(3)
H73 H -0.16240 0.30300 -0.02240
H74 H -0.21610 0.35050 -0.00610
C37 C -0.2188(16) 0.1869(4) 0.0108(3)
H75 H -0.14900 0.20540 0.02470
H76 H -0.26070 0.17420 0.03720
C38 C -0.3081(11) 0.2177(3) -0.0181(3)
H77 H -0.38000 0.19970 -0.03090
H78 H -0.26760 0.22980 -0.04510
C39 C -0.5234(12) 0.3694(4) 0.0017(4)
H79 H -0.60270 0.35880 -0.01420
H80 H -0.47930 0.38620 -0.02170
C40 C -0.3386(8) 0.3155(3) -0.0524(3)
H81 H -0.33110 0.29310 -0.07780
H82 H -0.38200 0.34220 -0.06680
C41 C -0.6314(9) 0.2577(4) -0.0181(3)
H83 H -0.60270 0.22810 -0.00490
H84 H -0.64760 0.27770 0.00850
C42 C -0.1503(9) 0.3540(4) -0.0723(3)
H85 H -0.15110 0.33370 -0.10000
H86 H -0.19860 0.38130 -0.08210
C43 C -0.7474(10) 0.2511(5) -0.0498(3)
H87 H -0.77530 0.28100 -0.06250
H88 H -0.72890 0.23200 -0.07680
C44 C -0.5465(14) 0.4006(4) 0.0427(4)
H89 H -0.59380 0.38310 0.06450
H90 H -0.46580 0.40750 0.05990
C45 C -0.0197(11) 0.3678(5) -0.0573(4)
H91 H 0.01720 0.38080 -0.08430
H92 H 0.02750 0.34120 -0.04580
H93 H -0.01900 0.39040 -0.03210
C46 C -0.8493(11) 0.2298(6) -0.0267(4)
H94 H -0.91810 0.22360 -0.05040
H95 H -0.87630 0.25040 -0.00280
H96 H -0.82060 0.20140 -0.01170
C47 C -0.610(2) 0.4436(6) 0.0333(6)
H97 H -0.56310 0.46260 0.01330
H98 H -0.61900 0.45930 0.06320
H99 H -0.69200 0.43790 0.01710
Sr2* Sr 0.92510(6) 0.31060(2) 0.24688(2)
O15* O -0.1879(4) 0.28959(15) 0.17048(15)
O17* O -0.1415(4) 0.33056(15) 0.32585(16)
O19* O -0.1799(4) 0.37220(14) 0.19956(15)
O21* O -0.1465(4) 0.24812(15) 0.29573(16)
#END
