
#######################################################################
#
#                 Cambridge Crystallographic Data Centre
#                                CCDC
#
#######################################################################
#
# If this CIF has been generated from an entry in the Cambridge
# Structural Database, then it will include bibliographic, chemical,
# crystal, experimental, refinement or atomic coordinate data resulting
# from the CCDC's data processing and validation procedures.
#
#######################################################################

data_CSD_CIF_RONSUK01
_audit_creation_date 2014-10-13
_audit_creation_method CSD-ConQuest-V1
_database_code_CSD RONSUK01
_database_code_depnum_ccdc_archive 'CCDC 1021008'
_chemical_formula_sum 'C10 H22 Fe1 N2 Na1 O12'
_chemical_formula_moiety
;
(C6 H6 Fe1 Na1 O12 2-)n,2n(C2 H8 N1 1+)
;
_journal_coden_Cambridge 222
_journal_volume 43
_journal_year 2014
_journal_page_first 17075
_journal_name_full 'Dalton Trans. '
loop_
_publ_author_name
"M.Maczka"
"A.Pietraszko"
"L.Macalik"
"A.Sieradzki"
"J.Trzmiel"
"A.Pikul"
_chemical_name_systematic
;
catena-[bis(dimethylammonium) hexakis(\m-formato)-iron-sodium]
;
_cell_volume   1399.329
_exptl_crystal_colour 'yellow'
_exptl_crystal_density_diffrn 1.57
_exptl_special_details
;
high-temperature polymorph
Upon cooling, a crystal structure deformation occurs near 167 K.
;
_exptl_crystal_description 'cubic'
_diffrn_ambient_temperature 293
_refine_special_details
;
N1 disordered by symmetry over three configurations with occupancy 0.33.

;
#These two values have been output from a single CSD field.
_refine_ls_R_factor_gt 0.0237
_refine_ls_wR_factor_gt 0.0237
_symmetry_cell_setting rhombohedral
_symmetry_space_group_name_H-M 'R -3'
_symmetry_Int_Tables_number 148
loop_
_symmetry_equiv_pos_site_id
_symmetry_equiv_pos_as_xyz
1 x,y,z
2 -y,x-y,z
3 -x+y,-x,z
4 2/3+x,1/3+y,1/3+z
5 2/3-y,1/3+x-y,1/3+z
6 2/3-x+y,1/3-x,1/3+z
7 1/3+x,2/3+y,2/3+z
8 1/3-y,2/3+x-y,2/3+z
9 1/3-x+y,2/3-x,2/3+z
10 -x,-y,-z
11 y,-x+y,-z
12 x-y,x,-z
13 -2/3-x,-1/3-y,-1/3-z
14 -2/3+y,-1/3-x+y,-1/3-z
15 -2/3+x-y,-1/3+x,-1/3-z
16 -1/3-x,-2/3-y,-2/3-z
17 -1/3+y,-2/3-x+y,-2/3-z
18 -1/3+x-y,-2/3+x,-2/3-z
_cell_length_a 8.3570(12)
_cell_length_b 8.3570(12)
_cell_length_c 23.136(5)
_cell_angle_alpha 90
_cell_angle_beta 90
_cell_angle_gamma 120
_cell_formula_units_Z 3
loop_
_atom_type_symbol
_atom_type_radius_bond
C 0.68
H 0.23
Fe 1.52
N 0.68
Na 1.66
O 0.68
loop_
_atom_site_label
_atom_site_type_symbol
_atom_site_fract_x
_atom_site_fract_y
_atom_site_fract_z
Na1 Na 0.33330 0.66670 0.66670
Fe1 Fe 0.66670 0.33330 0.83330
O1 O 0.46115(3) 0.31750(3) 0.783893(12)
O2 O 0.32529(4) 0.42806(4) 0.727524(15)
C1 C 0.45383(5) 0.44576(5) 0.756988(18)
H1 H 0.5596(7) 0.5687(7) 0.7625(2)
C2 C 0.66670 0.33330 1.12885(4)
C3 C 0.66670 0.33330 1.02411(5)
N1 N 0.59216(13) 0.25217(13) 1.07392(5)
H2 H 0.5591(10) 0.2269(10) 1.1379(3)
H3 H 0.5778(14) 0.2360(12) 1.0103(3)
H4 H 0.4812(13) 0.2368(18) 1.0698(7)
H5 H 0.589(2) 0.1479(15) 1.0687(10)
O1A O 0.68250(3) 0.14365(3) 0.783893(12)
O2A O 0.57194(4) -0.10277(4) 0.727524(15)
C1A C 0.55424(5) 0.00807(5) 0.756988(18)
H1A H 0.4313(7) -0.0091(7) 0.7625(2)
O1B O -0.14365(3) 0.53885(3) 0.783893(12)
O2B O 0.10277(4) 0.67471(4) 0.727524(15)
C1B C -0.00807(5) 0.54617(5) 0.756988(18)
H1B H 0.0091(7) 0.4404(7) 0.7625(2)
O1P O -0.015833(30) 0.189683(30) 0.549440(12)
O2P O 0.094727(40) 0.436103(40) 0.605809(15)
C1P C 0.112427(50) 0.325263(50) 0.576345(18)
H1P H 0.235367(700) 0.342433(700) 0.570833(200)
O1O O 0.205517(30) 1.015833(30) 0.549440(12)
O2O O 0.341377(40) 0.905273(40) 0.605809(15)
C1O C 0.212837(50) 0.887573(50) 0.576345(18)
H1O H 0.107067(700) 0.764633(700) 0.570833(200)
O1Q O 0.810317(30) 0.794483(30) 0.549440(12)
O2Q O 0.563897(40) 0.658623(40) 0.605809(15)
C1Q C 0.674737(50) 0.787163(50) 0.576345(18)
H1Q H 0.657567(700) 0.892933(700) 0.570833(200)
Na1* Na 0.33330 -0.33330 0.66670
Fe1* Fe -0.33330 0.33330 0.83330
Fe1F Fe 0.00003 -0.00003 0.49997
Fe1F* Fe 0.00003 0.99997 0.49997
Fe1F** Fe 1.00003 0.99997 0.49997
O1B* O 0.85635(3) 0.53885(3) 0.783893(12)
O1L O 0.872183(30) 0.349167(30) 0.882774(12)
O1M O 0.650833(30) 0.523017(30) 0.882774(12)
O1N O 0.476983(30) 0.127817(30) 0.882774(12)
O2A* O 0.57194(4) 0.89723(4) 0.727524(15)
N1A N 0.74783(13) 0.33999(13) 1.07392(5)
H2A H 0.7731(10) 0.3322(10) 1.1379(3)
H3A H 0.7640(14) 0.3418(12) 1.0103(3)
H4A H 0.7632(13) 0.2444(18) 1.0698(7)
H5A H 0.8521(20) 0.4411(15) 1.0687(10)
N1B N 0.66001(13) 0.40784(13) 1.07392(5)
H2B H 0.6678(10) 0.4409(10) 1.1379(3)
H3B H 0.6582(14) 0.4222(12) 1.0103(3)
H4B H 0.7556(13) 0.5188(18) 1.0698(7)
H5B H 0.5589(20) 0.4110(15) 1.0687(10)
#END
