
#######################################################################
#
#                 Cambridge Crystallographic Data Centre
#                                CCDC
#
#######################################################################
#
# If this CIF has been generated from an entry in the Cambridge
# Structural Database, then it will include bibliographic, chemical,
# crystal, experimental, refinement or atomic coordinate data resulting
# from the CCDC's data processing and validation procedures.
#
#######################################################################

data_CSD_CIF_RONYUR
_audit_creation_date 2019-08-16
_audit_creation_method CSD-ConQuest-V1
_database_code_CSD RONYUR
_database_code_depnum_ccdc_archive 'CCDC 1865490'
_chemical_formula_sum 'C32 H24 N10 O19 Zn6'
_chemical_formula_moiety
;
(C30 H16 N9 O19 Zn6 1-)n,C2 H8 N1 1+
;
_journal_coden_Cambridge 1220
_journal_volume 25
_journal_year 2019
_journal_page_first 10590
_journal_name_full 'Chem.-Eur.J. '
loop_
_publ_author_name
"Huajun Yang"
"J.Le"
"Andy Dinh"
"Xiang Zhao"
"Xitong Chen"
"Fang Peng"
"Pingyun Feng"
"Xianhui Bu"
_chemical_name_systematic
;
catena-[dimethylammonium 
tris(\m-2-hydroxy-5-oxidobenzene-1,4-dicarboxylato)-tris(\m-triazolyl)-(\m-hyd
roxo)-hexa-zinc(ii) unknown solvate]
;
_chemical_name_common
;
CPM-72
;
_cell_volume  18548.596
_exptl_crystal_colour 'yellow'
_exptl_crystal_density_diffrn 0.858
_exptl_crystal_description 'polyhedral'
_diffrn_ambient_temperature 296
_refine_special_details
;
Disordered solvent molecules were not modelled and the disordered density was 
taken into account using the SQUEEZE/PLATON procedure.
;
#These two values have been output from a single CSD field.
_refine_ls_R_factor_gt 0.0315
_refine_ls_wR_factor_gt 0.0315
_symmetry_cell_setting cubic
_symmetry_space_group_name_H-M 'P 41 3 2'
_symmetry_Int_Tables_number 213
loop_
_symmetry_equiv_pos_site_id
_symmetry_equiv_pos_as_xyz
1 x,y,z
2 1/2-x,-y,1/2+z
3 -x,1/2+y,1/2-z
4 1/2+x,1/2-y,-z
5 z,x,y
6 1/2+z,1/2-x,-y
7 1/2-z,-x,1/2+y
8 -z,1/2+x,1/2-y
9 y,z,x
10 -y,1/2+z,1/2-x
11 1/2+y,1/2-z,-x
12 1/2-y,-z,1/2+x
13 3/4+y,1/4+x,1/4-z
14 3/4-y,3/4-x,3/4-z
15 1/4+y,1/4-x,3/4+z
16 1/4-y,3/4+x,1/4+z
17 3/4+x,1/4+z,1/4-y
18 1/4-x,3/4+z,1/4+y
19 3/4-x,3/4-z,3/4-y
20 1/4+x,1/4-z,3/4+y
21 3/4+z,1/4+y,1/4-x
22 1/4+z,1/4-y,3/4+x
23 1/4-z,3/4+y,1/4+x
24 3/4-z,3/4-y,3/4-x
_cell_length_a 26.471(12)
_cell_length_b 26.471(12)
_cell_length_c 26.471(12)
_cell_angle_alpha 90
_cell_angle_beta 90
_cell_angle_gamma 90
_cell_formula_units_Z 8
loop_
_atom_type_symbol
_atom_type_radius_bond
C 0.68
H 0.23
N 0.68
O 0.68
Zn 1.22
loop_
_atom_site_label
_atom_site_type_symbol
_atom_site_fract_x
_atom_site_fract_y
_atom_site_fract_z
Zn1 Zn 0.46852(4) 0.63175(4) 0.08937(4)
C1 C 0.6793(5) 0.5998(5) 0.0629(5)
C2 C 0.4361(4) 0.7711(4) 0.0175(4)
H1 H 0.43998 0.79309 -0.00960
C3 C 0.4078(4) 0.7790(4) 0.0605(4)
H2 H 0.38956 0.80802 0.06802
Zn2 Zn 0.50703(4) 0.68346(5) -0.01686(4)
C4 C 0.7070(6) 0.6670(4) 0.0066(5)
N1 N 0.4112(3) 0.7371(3) 0.0902(3)
O1 O 0.5292(2) 0.6436(2) 0.0423(2)
O2 O 0.5688(2) 0.5190(3) 0.1390(3)
C5 C 0.5521(5) 0.5545(5) 0.1111(4)
O3 O 0.6920(2) 0.6995(3) -0.0270(3)
O4 O 0.4023(2) 0.5977(2) 0.0977(2)
C6 C 0.6398(4) 0.5738(4) 0.0907(4)
H3 H 0.64838 0.54885 0.11389
O5 O 0.5060(3) 0.5652(2) 0.1082(3)
C7 C 0.5758(4) 0.6293(4) 0.0506(4)
N2 N 0.4418(3) 0.7046(3) 0.0656(3)
N3 N 0.4570(3) 0.7247(3) 0.0228(3)
O6 O 0.7278(3) 0.5863(4) 0.0765(4)
H4 H 0.74782 0.59697 0.05541
O7 O 0.7529(3) 0.6596(3) 0.0151(4)
C8 C 0.6658(4) 0.6400(4) 0.0330(4)
C9 C 0.6156(4) 0.6528(4) 0.0268(4)
H5 H 0.60810 0.67917 0.00482
C10 C 0.5877(4) 0.5865(4) 0.0828(4)
Zn1F Zn 0.41063(4) 0.53148(4) 0.13175(4)
C1F C 0.4371(5) 0.3207(5) 0.0998(5)
C2F C 0.4825(4) 0.5639(4) 0.2711(4)
H1F H 0.50960 0.56002 0.29309
C3F C 0.4395(4) 0.5922(4) 0.2790(4)
H2F H 0.43198 0.61044 0.30802
Zn2F Zn 0.51686(4) 0.49297(5) 0.18346(4)
C4F C 0.4934(6) 0.2930(4) 0.1670(5)
N1F N 0.4098(3) 0.5888(3) 0.2371(3)
O1F O 0.4577(2) 0.4708(2) 0.1436(2)
O2F O 0.3610(2) 0.4312(3) 0.0190(3)
C5F C 0.3889(5) 0.4479(5) 0.0545(4)
O3F O 0.5270(2) 0.3080(3) 0.1995(3)
C6F C 0.4093(4) 0.3602(4) 0.0738(4)
H3F H 0.38611 0.35162 0.04885
O5F O 0.3918(3) 0.4940(2) 0.0652(3)
C7F C 0.4494(4) 0.4242(4) 0.1293(4)
N2F N 0.4344(3) 0.5582(3) 0.2046(3)
N3F N 0.4772(3) 0.5430(3) 0.2247(3)
O6F O 0.4235(3) 0.2722(4) 0.0863(4)
H4F H 0.44459 0.25218 0.09697
O7F O 0.4849(3) 0.2471(3) 0.1596(4)
C8F C 0.4670(4) 0.3342(4) 0.1400(4)
C9F C 0.4732(4) 0.3844(4) 0.1528(4)
H5F H 0.49518 0.39190 0.17917
C10F C 0.4172(4) 0.4123(4) 0.0865(4)
Zn1I Zn 0.36825(4) 0.58937(4) 0.03148(4)
C1I C 0.4002(5) 0.5629(5) -0.1793(5)
C2I C 0.2289(4) 0.5175(4) 0.0639(4)
H1I H 0.20691 0.49040 0.06002
C3I C 0.2210(4) 0.5605(4) 0.0922(4)
H2I H 0.19198 0.56802 0.11044
Zn2I Zn 0.31654(4) 0.48314(5) -0.00703(4)
C4I C 0.3330(6) 0.5066(4) -0.2070(5)
N1I N 0.2629(3) 0.5902(3) 0.0888(3)
O1I O 0.3564(2) 0.5423(2) -0.0292(2)
O2I O 0.4810(2) 0.6390(3) -0.0688(3)
C5I C 0.4455(5) 0.6111(5) -0.0521(4)
O3I O 0.3005(2) 0.4730(3) -0.1920(3)
C6I C 0.4262(4) 0.5907(4) -0.1398(4)
H3I H 0.45115 0.61389 -0.14838
O5I O 0.4348(3) 0.6082(2) -0.0060(3)
C7I C 0.3707(4) 0.5506(4) -0.0758(4)
N2I N 0.2954(3) 0.5656(3) 0.0582(3)
N3I N 0.2753(3) 0.5228(3) 0.0430(3)
O6I O 0.4137(3) 0.5765(4) -0.2278(4)
H4I H 0.40303 0.55541 -0.24782
O7I O 0.3404(3) 0.5151(3) -0.2529(4)
C8I C 0.3600(4) 0.5330(4) -0.1658(4)
C9I C 0.3472(4) 0.5268(4) -0.1156(4)
H5I H 0.32083 0.50482 -0.10810
C10I C 0.4135(4) 0.5828(4) -0.0877(4)
Zn1L Zn 0.38175(4) 0.71852(4) 0.16063(4)
Zn1R Zn 0.28148(4) 0.66063(4) 0.11825(4)
Zn1U Zn 0.33937(4) 0.61825(4) 0.21852(4)
Zn2O Zn 0.56654(4) 0.25703(5) 0.23314(4)
Zn2Q Zn 0.74297(4) 0.73314(5) -0.06654(4)
Zn2V Zn 0.26686(4) 0.43346(5) -0.24297(4)
N1L N 0.4871(3) 0.6612(3) 0.1598(3)
N1R N 0.3388(3) 0.6598(3) 0.0129(3)
N1U N 0.3402(3) 0.5129(3) 0.1612(3)
O3O O 0.5505(2) 0.4420(3) 0.2230(3)
O3Q O 0.5580(2) 0.7230(3) -0.0505(3)
O3V O 0.2770(2) 0.4495(3) -0.0580(3)
#END
