
#######################################################################
#
#                 Cambridge Crystallographic Data Centre
#                                CCDC
#
#######################################################################
#
# If this CIF has been generated from an entry in the Cambridge
# Structural Database, then it will include bibliographic, chemical,
# crystal, experimental, refinement or atomic coordinate data resulting
# from the CCDC's data processing and validation procedures.
#
#######################################################################

data_CSD_CIF_ROPLEQ
_audit_creation_date 2019-08-16
_audit_creation_method CSD-ConQuest-V1
_database_code_CSD ROPLEQ
_database_code_depnum_ccdc_archive 'CCDC 1919570'
_chemical_formula_sum 'C118 H126 Gd2 N16 O32 Zn2'
_chemical_formula_moiety
;
(C98 H50 Gd2 N8 O20 Zn2 4-)n,4n(C2 H8 N1 1+),4n(C3 H7 N1 O1),8n(H2 O1)
;
_journal_coden_Cambridge 1350
_journal_volume 21
_journal_year 2019
_journal_page_first 5216
_journal_name_full 'CrystEngComm '
loop_
_publ_author_name
"B.K.Tripuramallu"
"H.M.Titi"
"S.Goswami"
"N.Phukan"
_chemical_name_systematic
;
catena-(tetrakis(dimethylammonium) 
bis(\m-3,3'-[10,20-bis(4-carboxylatophenyl)porphyrin-5,15-diyl]dibenzoato)-bis
(\m-formato)-di-gadolinium-di-zinc dimethylformamide solvate octahydrate)
;
_cell_volume   6314.912
_exptl_crystal_colour 'dark red'
_exptl_special_details
;
Although the paper reports that there are 6 cations per unit as represented 
here, charge balance seems to suggest that there should be 4
;
_exptl_crystal_description 'plate'
_diffrn_ambient_temperature 110
_refine_special_details
;
The cations and solvent molecules were taken into account using 
PLATON/SQUEEZE.
;
#These two values have been output from a single CSD field.
_refine_ls_R_factor_gt 0.0892
_refine_ls_wR_factor_gt 0.0892
_symmetry_cell_setting monoclinic
_symmetry_space_group_name_H-M 'P 2/n'
_symmetry_Int_Tables_number 13
loop_
_symmetry_equiv_pos_site_id
_symmetry_equiv_pos_as_xyz
1 x,y,z
2 1/2-x,y,1/2-z
3 -x,-y,-z
4 -1/2+x,-y,-1/2+z
_cell_length_a 17.903(3)
_cell_length_b 16.7851(16)
_cell_length_c 21.149(2)
_cell_angle_alpha 90
_cell_angle_beta 96.467(4)
_cell_angle_gamma 90
_cell_formula_units_Z 2
loop_
_atom_type_symbol
_atom_type_radius_bond
C 0.68
H 0.23
Gd 1.96
N 0.68
O 0.68
Zn 1.22
loop_
_atom_site_label
_atom_site_type_symbol
_atom_site_fract_x
_atom_site_fract_y
_atom_site_fract_z
Gd1 Gd 0.72052(5) -0.05715(4) 0.08634(3)
Zn1 Zn 0.41359(8) 0.50360(7) 0.29163(6)
N1 N 0.4723(5) 0.4885(5) 0.2136(4)
N2 N 0.4028(5) 0.6235(5) 0.2687(4)
N3 N 0.3867(6) 0.5305(5) 0.3818(4)
N4 N 0.4574(5) 0.3973(5) 0.3264(4)
C1 C 0.5007(7) 0.4190(6) 0.1949(5)
C2 C 0.5243(8) 0.4292(7) 0.1320(5)
H1 H 0.54754 0.39008 0.10831
C3 C 0.5071(7) 0.5041(7) 0.1136(6)
H2 H 0.51400 0.52809 0.07405
C4 C 0.4767(7) 0.5395(6) 0.1652(5)
C5 C 0.4522(7) 0.6227(7) 0.1655(5)
C6 C 0.4226(7) 0.6595(6) 0.2161(5)
C7 C 0.4037(8) 0.7435(7) 0.2159(6)
H3 H 0.40912 0.78097 0.18303
C8 C 0.3768(9) 0.7574(7) 0.2716(6)
H4 H 0.36077 0.80730 0.28645
C9 C 0.3769(8) 0.6822(6) 0.3049(5)
C10 C 0.3506(8) 0.6723(7) 0.3655(6)
C11 C 0.3560(7) 0.6009(7) 0.4001(5)
C12 C 0.3325(8) 0.5919(7) 0.4627(6)
H5 H 0.30923 0.63109 0.48621
C13 C 0.3505(7) 0.5155(7) 0.4814(6)
H6 H 0.34141 0.49127 0.52043
C14 C 0.3854(7) 0.4791(6) 0.4313(5)
C15 C 0.4154(7) 0.4014(6) 0.4329(5)
C16 C 0.4517(7) 0.3654(7) 0.3851(5)
C17 C 0.4840(8) 0.2853(7) 0.3886(6)
H7 H 0.48412 0.24981 0.42359
C18 C 0.5129(8) 0.2704(8) 0.3348(6)
H8 H 0.54044 0.22472 0.32455
C19 C 0.4926(7) 0.3421(7) 0.2938(6)
C20 C 0.5132(7) 0.3528(6) 0.2315(6)
C21 C 0.4666(9) 0.6713(7) 0.1094(6)
C22 C 0.5220(9) 0.7225(7) 0.1108(6)
H9 H 0.55660 0.72539 0.14823
C23 C 0.5329(10) 0.7737(7) 0.0594(6)
C24 C 0.4879(11) 0.7687(9) 0.0059(7)
H10 H 0.49795 0.79931 -0.03000
C25 C 0.4271(12) 0.7198(10) 0.0021(7)
H11 H 0.39241 0.72106 -0.03533
C26 C 0.4139(11) 0.6680(8) 0.0509(7)
H12 H 0.37253 0.63219 0.04669
C27 C 0.6015(11) 0.8300(7) 0.0682(7)
O1 O 0.6100(7) 0.8815(6) 0.0241(4)
O2 O 0.6492(7) 0.8285(6) 0.1151(5)
C28 C 0.3288(10) 0.7421(7) 0.3995(6)
C29 C 0.3747(14) 0.7831(13) 0.4437(11)
H13 H 0.42554 0.76576 0.44970
C30 C 0.3580(14) 0.8445(12) 0.4800(11)
H14 H 0.39219 0.86195 0.51486
C31 C 0.2946(13) 0.8788(11) 0.4662(8)
C32 C 0.2401(14) 0.8471(14) 0.4215(10)
H15 H 0.19163 0.87034 0.41345
C33 C 0.2612(14) 0.7747(14) 0.3868(10)
H16 H 0.22584 0.75161 0.35515
C34 C 0.2685(13) 0.9549(11) 0.5019(9)
O3 O 0.2087(7) 0.9833(7) 0.4883(5)
O4 O 0.3214(8) 0.9839(8) 0.5441(6)
C35 C 0.4136(8) 0.3574(7) 0.4943(6)
C36 C 0.3668(8) 0.2893(6) 0.4981(6)
H17 H 0.33811 0.26867 0.46122
C37 C 0.3642(8) 0.2532(7) 0.5584(6)
C38 C 0.4093(10) 0.2829(9) 0.6105(6)
H18 H 0.40982 0.25783 0.65078
C39 C 0.4534(9) 0.3485(9) 0.6040(7)
H19 H 0.48303 0.36860 0.64054
C40 C 0.4563(8) 0.3849(9) 0.5489(6)
H20 H 0.48772 0.43021 0.54666
C41 C 0.3174(10) 0.1838(8) 0.5639(7)
O5 O 0.2748(7) 0.1586(5) 0.5180(4)
O6 O 0.3205(7) 0.1483(6) 0.6178(4)
C42 C 0.5491(9) 0.2800(7) 0.2041(6)
C43 C 0.5029(9) 0.2136(7) 0.1824(6)
H21 H 0.45034 0.21457 0.18523
C44 C 0.5353(9) 0.1492(8) 0.1576(6)
H22 H 0.50610 0.10434 0.14269
C45 C 0.6152(10) 0.1512(8) 0.1547(6)
C46 C 0.6576(10) 0.2137(8) 0.1744(7)
H23 H 0.71012 0.21324 0.17148
C47 C 0.6232(10) 0.2810(9) 0.1998(7)
H24 H 0.65249 0.32621 0.21361
C48 C 0.6503(11) 0.0779(10) 0.1258(8)
O7 O 0.6123(6) 0.0220(6) 0.1082(5)
O8 O 0.7217(7) 0.0814(6) 0.1235(6)
C49 C 0.75000 -0.0331(16) 0.25000
H25 H 0.75000 0.02348 0.25000
O9 O 0.7397(7) -0.0623(6) 0.1973(5)
C50 C 0.25000 0.4909(8) 0.25000
H26 H 0.25000 0.54751 0.25000
O10 O 0.3120(4) 0.4548(4) 0.2588(3)
O9A O 0.7603(7) -0.0623(6) 0.3027(5)
O10A O 0.1880(4) 0.4548(4) 0.2412(3)
Gd1A Gd -0.22052(5) -0.05715(4) 0.41366(3)
Zn1A Zn 0.08641(8) 0.50360(7) 0.20837(6)
N1A N 0.0277(5) 0.4885(5) 0.2864(4)
N2A N 0.0972(5) 0.6235(5) 0.2313(4)
N3A N 0.1133(6) 0.5305(5) 0.1182(4)
N4A N 0.0426(5) 0.3973(5) 0.1736(4)
C1A C -0.0007(7) 0.4190(6) 0.3051(5)
C2A C -0.0243(8) 0.4292(7) 0.3680(5)
H1A H -0.04754 0.39008 0.39169
C3A C -0.0071(7) 0.5041(7) 0.3864(6)
H2A H -0.01400 0.52809 0.42595
C4A C 0.0233(7) 0.5395(6) 0.3348(5)
C5A C 0.0478(7) 0.6227(7) 0.3345(5)
C6A C 0.0774(7) 0.6595(6) 0.2839(5)
C7A C 0.0963(8) 0.7435(7) 0.2841(6)
H3A H 0.09088 0.78097 0.31697
C8A C 0.1232(9) 0.7574(7) 0.2284(6)
H4A H 0.13923 0.80730 0.21355
C9A C 0.1231(8) 0.6822(6) 0.1951(5)
C10A C 0.1494(8) 0.6723(7) 0.1345(6)
C11A C 0.1440(7) 0.6009(7) 0.0999(5)
C12A C 0.1675(8) 0.5919(7) 0.0373(6)
H5A H 0.19077 0.63109 0.01379
C13A C 0.1495(7) 0.5155(7) 0.0186(6)
H6A H 0.15859 0.49127 -0.02043
C14A C 0.1146(7) 0.4791(6) 0.0687(5)
C15A C 0.0846(7) 0.4014(6) 0.0671(5)
C16A C 0.0483(7) 0.3654(7) 0.1149(5)
C17A C 0.0160(8) 0.2853(7) 0.1114(6)
H7A H 0.01588 0.24981 0.07641
C18A C -0.0129(8) 0.2704(8) 0.1652(6)
H8A H -0.04044 0.22472 0.17545
C19A C 0.0074(7) 0.3421(7) 0.2062(6)
C20A C -0.0132(7) 0.3528(6) 0.2685(6)
C21A C 0.0334(9) 0.6713(7) 0.3906(6)
C22A C -0.0220(9) 0.7225(7) 0.3892(6)
H9A H -0.05660 0.72539 0.35177
C23A C -0.0329(10) 0.7737(7) 0.4406(6)
C24A C 0.0121(11) 0.7687(9) 0.4941(7)
H10A H 0.00205 0.79931 0.53000
C25A C 0.0729(12) 0.7198(10) 0.4979(7)
H11A H 0.10759 0.72106 0.53533
C26A C 0.0861(11) 0.6680(8) 0.4491(7)
H12A H 0.12747 0.63219 0.45331
C27A C -0.1015(11) 0.8300(7) 0.4318(7)
O1A O -0.1100(7) 0.8815(6) 0.4759(4)
O2A O -0.1492(7) 0.8285(6) 0.3849(5)
C28A C 0.1712(10) 0.7421(7) 0.1005(6)
C29A C 0.1253(14) 0.7831(13) 0.0563(11)
H13A H 0.07446 0.76576 0.05030
C30A C 0.1420(14) 0.8445(12) 0.0200(11)
H14A H 0.10781 0.86195 -0.01486
C31A C 0.2054(13) 0.8788(11) 0.0338(8)
C32A C 0.2599(14) 0.8471(14) 0.0785(10)
H15A H 0.30837 0.87034 0.08655
C33A C 0.2388(14) 0.7747(14) 0.1132(10)
H16A H 0.27416 0.75161 0.14485
C34A C 0.2315(13) 0.9549(11) -0.0019(9)
O3A O 0.2913(7) 0.9833(7) 0.0117(5)
O4A O 0.1786(8) 0.9839(8) -0.0441(6)
C35A C 0.0864(8) 0.3574(7) 0.0057(6)
C36A C 0.1332(8) 0.2893(6) 0.0019(6)
H17A H 0.16189 0.26867 0.03878
C37A C 0.1358(8) 0.2532(7) -0.0584(6)
C38A C 0.0907(10) 0.2829(9) -0.1105(6)
H18A H 0.09018 0.25783 -0.15078
C39A C 0.0466(9) 0.3485(9) -0.1040(7)
H19A H 0.01697 0.36860 -0.14054
C40A C 0.0437(8) 0.3849(9) -0.0489(6)
H20A H 0.01228 0.43021 -0.04666
C41A C 0.1826(10) 0.1838(8) -0.0639(7)
O5A O 0.2252(7) 0.1586(5) -0.0180(4)
O6A O 0.1795(7) 0.1483(6) -0.1178(4)
C42A C -0.0491(9) 0.2800(7) 0.2959(6)
C43A C -0.0029(9) 0.2136(7) 0.3176(6)
H21A H 0.04966 0.21457 0.31477
C44A C -0.0353(9) 0.1492(8) 0.3424(6)
H22A H -0.00610 0.10434 0.35731
C45A C -0.1152(10) 0.1512(8) 0.3453(6)
C46A C -0.1576(10) 0.2137(8) 0.3256(7)
H23A H -0.21012 0.21324 0.32852
C47A C -0.1232(10) 0.2810(9) 0.3002(7)
H24A H -0.15249 0.32621 0.28639
C48A C -0.1503(11) 0.0779(10) 0.3742(8)
O7A O -0.1123(6) 0.0220(6) 0.3918(5)
O8A O -0.2217(7) 0.0814(6) 0.3765(6)
Gd1* Gd 0.72052(5) 0.94285(4) 0.08634(3)
Gd1A* Gd -0.22052(5) 0.94285(4) 0.41366(3)
Gd1A** Gd 0.77948(5) -0.05715(4) 0.41366(3)
Gd1B Gd 0.27948(5) 0.05715(4) -0.08634(3)
Gd1B* Gd 0.27948(5) 1.05715(4) -0.08634(3)
Gd1C Gd 0.22052(5) 0.05715(4) 0.58634(3)
Gd1C* Gd 0.22052(5) 1.05715(4) 0.58634(3)
O1* O 0.6100(7) -0.1185(6) 0.0241(4)
O1A* O -0.1100(7) -0.1185(6) 0.4759(4)
O2* O 0.6492(7) -0.1715(6) 0.1151(5)
O2A* O -0.1492(7) -0.1715(6) 0.3849(5)
O3B O -0.2087(7) 0.0167(7) 0.5117(5)
O3C O 0.7087(7) 0.0167(7) -0.0117(5)
O4B O -0.3214(8) 0.0161(8) 0.4559(6)
O4C O 0.8214(8) 0.0161(8) 0.0441(6)
O5B O -0.2748(7) -0.1586(5) 0.4820(4)
O5C O 0.7748(7) -0.1586(5) 0.0180(4)
O6B O -0.3205(7) -0.1483(6) 0.3822(4)
O6C O 0.8205(7) -0.1483(6) 0.1178(4)
O9A* O -0.2397(7) -0.0623(6) 0.3027(5)
#END
