
#######################################################################
#
#                 Cambridge Crystallographic Data Centre
#                                CCDC
#
#######################################################################
#
# If this CIF has been generated from an entry in the Cambridge
# Structural Database, then it will include bibliographic, chemical,
# crystal, experimental, refinement or atomic coordinate data resulting
# from the CCDC's data processing and validation procedures.
#
#######################################################################

data_CSD_CIF_ROQXOM
_audit_creation_date 2014-10-14
_audit_creation_method CSD-ConQuest-V1
_database_code_CSD ROQXOM
_database_code_depnum_ccdc_archive 'CCDC 965281'
_chemical_formula_sum 'C77 H83 Co4 N8 O28.5'
_chemical_formula_moiety
;
(C21 H21 Co1 N2 O9 1-)n,n(C21 H17 Co1 N2 O7 1-),n(C21 H18 Co1 N2 O7),n(C14 
H24 Co1 N2 O4 2+),1.5(H2 O1)
;
_journal_coden_Cambridge 1147
_journal_volume 14
_journal_year 2014
_journal_page_first 4011
_journal_name_full 'Cryst.Growth Des. '
loop_
_publ_author_name
"Szu-Yu Ke"
"Ya-Fan Chang"
"Hsin-Yu Wang"
"Ching-Chun Yang"
"Cheng-Wei Ni"
"Gu-Ying Lin"
"Tzu-Ting Chen"
"Mei-Lin Ho"
"Gene-Hsiang Lee"
"Yu-Chun Chuang"
"Chih-Chieh Wang"
_chemical_name_systematic
;
catena-((\m-4,4'-ethane-1,2-diyldipyridine)-triaqua-(ethanol)-cobalt 
(\m-4,4'-ethane-1,2-diyldipyridine)-(\m-5-carboxybenzene-1,3-dicarboxylato)-aq
ua-cobalt 
(\m-4,4'-ethane-1,2-diyldipyridine)-(\m-benzene-1,3,5-tricarboxylato)-aqua-cob
alt 
(\m-4,4'-ethane-1,2-diyldipyridine)-(benzene-1,3,5-tricarboxylato)-triaqua-cob
alt sesquihydrate)
;
_cell_volume   7659.974
_exptl_crystal_colour 'light red'
_exptl_crystal_density_diffrn 1.559
_exptl_crystal_description 'block'
_diffrn_ambient_temperature 150
_refine_special_details
;
The structure is disordered.

;
#These two values have been output from a single CSD field.
_refine_ls_R_factor_gt 0.0587
_refine_ls_wR_factor_gt 0.0587
_symmetry_cell_setting orthorhombic
_symmetry_space_group_name_H-M 'P n a 21'
_symmetry_Int_Tables_number 33
loop_
_symmetry_equiv_pos_site_id
_symmetry_equiv_pos_as_xyz
1 x,y,z
2 -x,-y,1/2+z
3 1/2+x,1/2-y,z
4 1/2-x,1/2+y,1/2+z
_cell_length_a 20.4932(8)
_cell_length_b 13.7177(6)
_cell_length_c 27.2481(11)
_cell_angle_alpha 90
_cell_angle_beta 90
_cell_angle_gamma 90
_cell_formula_units_Z 4
loop_
_atom_type_symbol
_atom_type_radius_bond
C 0.68
H 0.23
Co 1.26
N 0.68
O 0.68
loop_
_atom_site_label
_atom_site_type_symbol
_atom_site_fract_x
_atom_site_fract_y
_atom_site_fract_z
Co1 Co 0.72980(3) 1.24729(5) 0.68399(3)
O1 O 0.83326(16) 1.2627(2) 0.69573(12)
O2 O 0.79307(16) 1.2514(2) 0.62102(13)
N1 N 0.74323(19) 1.0893(3) 0.68791(17)
O3 O 0.69221(16) 1.2561(3) 0.75470(13)
O4 O 0.63952(16) 1.2369(2) 0.65248(13)
N2 N 0.7223(2) 1.4047(3) 0.67671(17)
C1 C 0.8415(2) 1.2587(3) 0.64954(18)
C2 C 0.7968(3) 1.0449(4) 0.7031(2)
C3 C 0.6945(3) 1.0307(4) 0.6737(2)
H1 H 0.71940 1.26290 0.77800
H2 H 0.65320 1.24740 0.75910
C4 C 0.9092(2) 1.2601(3) 0.62916(18)
H3 H 0.83170 1.08430 0.71460
C5 C 0.8055(3) 0.9446(4) 0.7033(2)
C6 C 0.6981(3) 0.9305(4) 0.6727(2)
H4 H 0.65480 1.06030 0.66360
C7 C 0.9177(3) 1.2557(3) 0.57825(19)
C8 C 0.9630(2) 1.2663(3) 0.65932(19)
H5 H 0.84550 0.91720 0.71440
C9 C 0.7555(2) 0.8845(3) 0.6872(2)
H6 H 0.66170 0.89300 0.66220
H7 H 0.88050 1.25540 0.55740
C10 C 0.9798(2) 1.2517(3) 0.55761(19)
C11 C 1.0260(2) 1.2637(3) 0.63988(19)
H8 H 0.95720 1.27240 0.69380
C12 C 0.7632(3) 0.7744(4) 0.6895(2)
C13 C 0.9878(3) 1.2425(4) 0.5028(2)
C14 C 1.0339(2) 1.2548(3) 0.58912(19)
C15 C 1.0845(2) 1.2701(3) 0.67300(19)
H9 H 0.80780 0.75740 0.67840
H10 H 0.75910 0.75350 0.72410
C16 C 0.7149(3) 0.7177(4) 0.6592(3)
O5 O 0.93782(19) 1.2526(3) 0.47739(14)
O6 O 1.04496(18) 1.2239(3) 0.48816(14)
H11 H 1.07660 1.25070 0.57570
O7 O 1.07589(17) 1.2832(3) 0.71795(14)
H12 H 0.72190 0.73350 0.62410
H13 H 0.67030 0.73900 0.66800
C17 C 0.7197(3) 0.6091(4) 0.6658(2)
C18 C 0.7170(3) 0.5458(4) 0.6255(2)
C19 C 0.7241(4) 0.5650(5) 0.7109(3)
C20 C 0.7181(3) 0.4467(4) 0.6324(2)
H14 H 0.71440 0.57170 0.59320
H15 H 0.72670 0.60390 0.73970
C21 C 0.7248(3) 0.4648(4) 0.7150(2)
H16 H 0.71570 0.40580 0.60430
H17 H 0.72720 0.43720 0.74690
Co2 Co 0.47158(3) 0.97861(5) 0.78297(2)
O8 O 0.57071(16) 0.9613(3) 0.78322(14)
O9 O 0.5795(9) 0.8099(13) 0.7983(7)
O10 O 0.74533(18) 1.1841(3) 0.83833(15)
O11 O 0.84699(17) 1.1270(3) 0.84271(15)
O12 O 0.88601(17) 0.7736(3) 0.83391(14)
O13 O 0.80452(17) 0.6724(3) 0.81482(15)
N3 N 0.4723(2) 0.9791(3) 0.86197(16)
N4 N 0.5340(2) 1.0099(3) 1.20394(16)
C22 C 0.4281(3) 0.9315(4) 0.88941(19)
H18 H 0.39500 0.89570 0.87300
C23 C 0.4283(3) 0.9319(4) 0.9390(2)
H19 H 0.39700 0.89370 0.95620
C24 C 0.4727(3) 0.9863(4) 0.9653(2)
C25 C 0.5179(3) 1.0354(4) 0.9369(2)
H20 H 0.55100 1.07280 0.95240
C26 C 0.5157(3) 1.0310(4) 0.8866(2)
H21 H 0.54700 1.06720 0.86850
C27 C 0.4696(3) 0.9901(4) 1.0200(2)
H22 H 0.44980 0.92880 1.03210
H23 H 0.44060 1.04430 1.02980
C28 C 0.5352(3) 1.0037(4) 1.04491(19)
H24 H 0.55420 1.06610 1.03370
H25 H 0.56470 0.95080 1.03410
C29 C 0.4789(3) 1.0048(4) 1.1779(2)
H26 H 0.43890 1.00360 1.19550
C30 C 0.4762(3) 1.0011(4) 1.1282(2)
H27 H 0.43510 0.99650 1.11220
C31 C 0.5328(3) 1.0040(4) 1.1006(2)
C32 C 0.5907(3) 1.0080(4) 1.12749(19)
H28 H 0.63140 1.00880 1.11080
C33 C 0.5894(2) 1.0108(4) 1.17756(19)
H29 H 0.62970 1.01340 1.19470
C34 C 0.6017(3) 0.8892(4) 0.7989(2)
C35 C 0.6726(2) 0.9063(4) 0.8110(2)
C36 C 0.6960(2) 0.9972(4) 0.8179(2)
H30 H 0.66730 1.05130 0.81450
C37 C 0.7622(2) 1.0140(4) 0.82996(19)
C38 C 0.7871(3) 1.1153(4) 0.83728(19)
C39 C 0.8033(2) 0.9340(4) 0.83230(19)
H31 H 0.84820 0.94390 0.83920
C40 C 0.7804(2) 0.8394(4) 0.82476(18)
C41 C 0.8268(3) 0.7545(4) 0.82504(19)
C42 C 0.7139(2) 0.8257(4) 0.8159(2)
H32 H 0.69670 0.76160 0.81320
O14 O 0.36905(16) 0.9914(3) 0.78576(13)
H33 H 0.35020 0.99300 0.81400
H34 H 0.34720 0.99280 0.76020
O15 O 0.46221(17) 0.8244(3) 0.77726(13)
H35 H 0.46040 0.78840 0.80350
H36 H 0.46020 0.79590 0.74980
O16 O 0.49083(17) 1.1301(2) 0.78600(13)
H37 H 0.49510 1.15880 0.81270
H38 H 0.49480 1.16180 0.75880
Co3 Co 0.74088(3) 0.78594(5) 0.48325(3)
O17 O 0.84599(16) 0.7981(2) 0.47176(12)
O18 O 0.80501(16) 0.7796(2) 0.54563(13)
O19 O 1.08747(17) 0.7422(3) 0.44917(13)
O20 O 1.15031(16) 0.7243(3) 0.51551(13)
O21 O 0.94709(17) 0.7447(3) 0.68925(14)
H39 H 0.91670 0.71290 0.67610
O22 O 1.05432(18) 0.7196(3) 0.68045(14)
N5 N 0.7483(2) 0.6270(3) 0.47678(18)
N6 N 0.73664(19) -0.0577(3) 0.48990(17)
C43 C 0.7561(3) 0.4223(4) 0.4677(2)
C44 C 0.7955(6) 0.5840(9) 0.4516(6)
H40 H 0.82630 0.62330 0.43470
C45 C 0.8012(7) 0.4842(10) 0.4489(5)
H41 H 0.83860 0.45740 0.43330
C46 C 0.7041(6) 0.4692(8) 0.4927(5)
H42 H 0.67140 0.43110 0.50830
C47 C 0.7007(5) 0.5694(7) 0.4948(4)
H43 H 0.66340 0.59890 0.50930
C48 C 0.7613(3) 0.3141(4) 0.4619(2)
H44 H 0.80800 0.29600 0.46080
H45 H 0.74150 0.29540 0.43010
C49 C 0.7285(3) 0.2563(4) 0.5024(2)
H46 H 0.70680 0.28690 0.52910
C50 C 0.7482(3) -0.0008(4) 0.4511(2)
H47 H 0.75740 -0.03100 0.42050
C51 C 0.7475(3) 0.1005(4) 0.4531(2)
H48 H 0.75710 0.13790 0.42460
C52 C 0.7327(2) 0.1465(4) 0.4974(2)
C53 C 0.7225(3) 0.0870(4) 0.5376(2)
H49 H 0.71400 0.11480 0.56890
C54 C 0.7249(3) -0.0122(4) 0.5323(2)
H50 H 0.71760 -0.05110 0.56060
C55 C 0.8538(2) 0.7848(3) 0.51805(18)
C56 C 0.9210(2) 0.7725(3) 0.53821(18)
C57 C 0.9757(2) 0.7643(3) 0.50817(19)
H51 H 0.97050 0.77010 0.47360
C58 C 1.0373(2) 0.7480(4) 0.52713(19)
C59 C 1.0956(2) 0.7372(3) 0.49464(19)
C60 C 1.0444(3) 0.7402(4) 0.57761(19)
H52 H 1.08650 0.72950 0.59120
C61 C 0.9901(2) 0.7479(4) 0.60871(19)
C62 C 1.0009(3) 0.7357(4) 0.66248(19)
C63 C 0.9290(2) 0.7634(4) 0.5892(2)
H53 H 0.89220 0.76780 0.61030
O23 O 0.70621(16) 0.7997(3) 0.41170(13)
H54 H 0.73260 0.80040 0.38840
H55 H 0.66520 0.79480 0.40630
Co4 Co 0.98015(3) 1.01924(5) 0.40269(3)
N7 N 0.9744(2) 1.0121(3) 0.48087(19)
N8 N 1.0192(2) 0.9833(3) 0.82438(18)
C64 C 1.0285(3) 0.9996(4) 0.5075(2)
H56 H 1.06870 0.99310 0.49040
C65 C 1.0303(3) 0.9956(4) 0.5581(2)
H57 H 1.07090 0.98820 0.57450
C66 C 0.9729(3) 1.0023(4) 0.5850(2)
C67 C 0.9165(3) 1.0154(4) 0.5571(2)
H58 H 0.87580 1.02150 0.57350
C68 C 0.9182(3) 1.0200(4) 0.5068(2)
H59 H 0.87840 1.02900 0.48950
C69 C 0.9699(3) 0.9991(4) 0.6397(2)
H60 H 0.94380 0.94160 0.64960
H61 H 0.94650 1.05780 0.65140
C70 C 1.0370(3) 0.9939(4) 0.6660(2)
H62 H 1.06090 0.93550 0.65450
H63 H 1.06300 1.05210 0.65730
C71 C 1.0296(3) 0.9891(4) 0.7208(2)
C72 C 1.0043(5) 1.0683(7) 0.7990(3)
H64 H 0.98880 1.12380 0.81640
C73 C 1.0118(7) 1.0727(10) 0.7484(5)
H65 H 1.00500 1.13290 0.73200
C74 C 1.0439(6) 0.9070(8) 0.7491(5)
H66 H 1.05830 0.84890 0.73350
C75 C 1.0371(5) 0.9097(8) 0.7999(4)
H67 H 1.04680 0.85180 0.81750
O24 O 1.05433(17) 1.1205(3) 0.40796(13)
H68 H 1.06680 1.14120 0.43530
H69 H 1.07080 1.14530 0.38160
O25 O 0.9133(2) 1.1324(4) 0.40535(16)
H70 H 0.89820 1.15550 0.43140
H71 H 0.90150 1.16310 0.37770
O26 O 1.05228(18) 0.9103(3) 0.40324(13)
H72 H 1.06420 0.88530 0.42910
H73 H 1.06840 0.89130 0.37550
O27 O 0.9060(2) 0.9128(3) 0.40060(15)
H74 H 0.88970 0.89820 0.42850
C76 C 0.8738(6) 0.8604(10) 0.3610(4)
H75 H 0.87990 0.89520 0.32950
H76 H 0.82650 0.85470 0.36760
C77 C 0.9060(6) 0.7567(11) 0.3586(5)
H77 H 0.88600 0.71910 0.33190
H78 H 0.89920 0.72290 0.38980
H79 H 0.95290 0.76350 0.35240
O28 O 0.8701(2) 0.3014(3) 0.79158(16)
H80 H 0.89680 0.23160 0.78330
H81 H 0.82890 0.28480 0.79620
O29 O 0.6902(4) 0.5894(6) 0.8426(3)
H82 H 0.73450 0.57290 0.84190
H83 H 0.67500 0.61610 0.81670
O30? O 0.5774(12) 0.8004(18) 0.8174(8)
C78? C 0.8086(7) 0.5746(9) 0.4830(7)
H84? H 0.84730 0.60820 0.49210
C79? C 0.8098(8) 0.4767(11) 0.4756(5)
H85? H 0.85090 0.44470 0.47610
C80? C 0.7004(6) 0.4744(9) 0.4568(5)
H86? H 0.66250 0.44200 0.44500
C81? C 0.7003(6) 0.5739(8) 0.4633(5)
H87? H 0.66030 0.60660 0.45700
C82? C 0.9785(12) 1.0276(15) 0.7977(7)
H88? H 0.94030 1.05210 0.81300
C83? C 0.9856(16) 1.044(2) 0.7456(13)
H89? H 0.96010 1.09180 0.72930
C84? C 1.0689(14) 0.9331(18) 0.7449(11)
H90? H 1.10070 0.89570 0.72780
C85? C 1.0646(12) 0.9272(19) 0.7971(10)
H91? H 1.09300 0.88420 0.81410
H92? H 0.89030 0.89050 0.42720
H93? H 0.89190 0.89210 0.37320
O4B O 1.13952(16) 1.2631(2) 0.65248(13)
Co1B Co 1.22980(3) 1.25271(5) 0.68399(3)
N2* N 0.7223(2) 0.4047(3) 0.67671(17)
Co1* Co 0.72980(3) 0.24729(5) 0.68399(3)
Co2A Co 0.52842(3) 1.02139(5) 1.28297(2)
N4A N 0.4660(2) 0.9901(3) 0.70394(16)
Co3* Co 0.74088(3) -0.21406(5) 0.48325(3)
Co3B Co 1.24088(3) 0.71406(5) 0.48325(3)
O20B O 0.65031(16) 0.7757(3) 0.51551(13)
N6* N 0.73664(19) 0.9423(3) 0.48990(17)
Co4A Co 1.01985(3) 0.98076(5) 0.90269(3)
N8A N 0.9808(2) 1.0167(3) 0.32438(18)
#END
