
#######################################################################
#
#                 Cambridge Crystallographic Data Centre
#                                CCDC
#
#######################################################################
#
# If this CIF has been generated from an entry in the Cambridge
# Structural Database, then it will include bibliographic, chemical,
# crystal, experimental, refinement or atomic coordinate data resulting
# from the CCDC's data processing and validation procedures.
#
#######################################################################

data_CSD_CIF_RORQUM
_audit_creation_date 2014-10-15
_audit_creation_method CSD-ConQuest-V1
_database_code_CSD RORQUM
_database_code_depnum_ccdc_archive 'CCDC 1007081'
_chemical_formula_sum 'C9 H17 Ni0.5 O12 U1'
_chemical_formula_moiety
;
(H12 Ni1 O6 2+)0.5n,n(C9 H9 O8 U1 1-),n(H2 O1)
;
_journal_coden_Cambridge 1147
_journal_volume 14
_journal_year 2014
_journal_page_first 4214
_journal_name_full 'Cryst.Growth Des. '
loop_
_publ_author_name
"P.Thuery"
"J.Harrowfield"
_chemical_name_systematic
;
catena-[hemikis(Hexa-aqua-nickel) 
(\m~3~-cis,cis-cyclohexane-1,3,5-tricarboxylato)-dioxo-uranium monohydrate]
;
_cell_volume   1566.791
_exptl_crystal_colour 'light yellow'
_exptl_crystal_density_diffrn 2.478
_exptl_special_details
;
Isomorphous with the Cu analogue.

;
_exptl_crystal_description 'platelet'
_diffrn_ambient_temperature 150
_refine_special_details
;
The structure is disordered.

;
#These two values have been output from a single CSD field.
_refine_ls_R_factor_gt 0.0322
_refine_ls_wR_factor_gt 0.0322
_symmetry_cell_setting orthorhombic
_symmetry_space_group_name_H-M 'P n n m'
_symmetry_Int_Tables_number 58
loop_
_symmetry_equiv_pos_site_id
_symmetry_equiv_pos_as_xyz
1 x,y,z
2 -x,-y,z
3 1/2-x,1/2+y,1/2-z
4 1/2+x,1/2-y,1/2-z
5 -x,-y,-z
6 x,y,-z
7 -1/2+x,-1/2-y,-1/2+z
8 -1/2-x,-1/2+y,-1/2+z
_cell_length_a 10.0413(2)
_cell_length_b 15.5554(3)
_cell_length_c 10.0309(2)
_cell_angle_alpha 90
_cell_angle_beta 90
_cell_angle_gamma 90
_cell_formula_units_Z 4
loop_
_atom_type_symbol
_atom_type_radius_bond
C 0.68
H 0.23
Ni 1.24
O 0.68
U 1.96
loop_
_atom_site_label
_atom_site_type_symbol
_atom_site_fract_x
_atom_site_fract_y
_atom_site_fract_z
U1 U 0.62714(3) 0.151755(18) 0.00000
O1 O 0.7719(6) 0.2168(4) 0.00000
O2 O 0.4772(6) 0.0930(4) 0.00000
O3 O 0.6322(5) 0.1615(3) 0.2442(4)
O4 O 0.5266(4) 0.2647(3) 0.1406(4)
O5 O 0.7516(5) 0.5320(3) 0.3916(5)
C1 C 0.5818(9) 0.2292(5) 0.50000
H1 H 0.67220 0.20380 0.50000
H2 H 0.51630 0.18160 0.50000
C2 C 0.5631(6) 0.2839(3) 0.3753(6)
H3 H 0.47130 0.30870 0.37890
C3 C 0.6617(6) 0.3597(4) 0.3742(6)
H4 H 0.75410 0.33770 0.37080
H5 H 0.64630 0.39570 0.29430
C4 C 0.6419(8) 0.4135(5) 0.50000
H6 H 0.54590 0.43060 0.50000
C5 C 0.5743(6) 0.2341(4) 0.2479(6)
C6 C 0.7201(9) 0.4970(6) 0.50000
Ni1 Ni 0.50000 0.50000 0.00000
O6 O 0.6633(7) 0.4214(4) 0.00000
H7 H 0.63040 0.36740 0.00000
H8 H 0.75210 0.44610 0.00000
O7 O 0.5887(5) 0.5742(3) -0.1433(6)
H9 H 0.52690 0.62400 -0.14350
H10 H 0.67920 0.57510 -0.12540
H11? H 0.63630 0.55120 -0.20180
H12? H 0.61630 0.61820 -0.08180
O8 O 0.130(3) 0.5133(17) 0.885(3)
O9? O 0.00000 0.50000 0.836(2)
O3E O 0.6322(5) 0.1615(3) 0.7558(4)
O4E O 0.5266(4) 0.2647(3) 0.8594(4)
O5E O 0.7516(5) 0.5320(3) 0.6084(5)
C2E C 0.5631(6) 0.2839(3) 0.6247(6)
H3E H 0.47130 0.30870 0.62110
C3E C 0.6617(6) 0.3597(4) 0.6258(6)
H4E H 0.75410 0.33770 0.62920
H5E H 0.64630 0.39570 0.70570
C5E C 0.5743(6) 0.2341(4) 0.7521(6)
U1* U 0.62714(3) 0.151755(18) 1.00000
U1B U 0.87286(3) 0.651755(18) 0.50000
O3E* O 0.6322(5) 0.1615(3) -0.2442(4)
O4E* O 0.5266(4) 0.2647(3) -0.1406(4)
O5B O 0.7484(5) 0.0320(3) 0.1084(5)
O5G O 0.7484(5) 0.0320(3) -0.1084(5)
O6A O 0.3367(7) 0.5786(4) 0.00000
H7A H 0.36960 0.63260 0.00000
H8A H 0.24790 0.55390 0.00000
O7A O 0.4113(5) 0.4258(3) -0.1433(6)
H9A H 0.47310 0.37600 -0.14350
H10A H 0.32080 0.42490 -0.12540
O7D O 0.4113(5) 0.4258(3) 0.1433(6)
H9D H 0.47310 0.37600 0.14350
H10D H 0.32080 0.42490 0.12540
O7E O 0.5887(5) 0.5742(3) 0.1433(6)
H9E H 0.52690 0.62400 0.14350
H10E H 0.67920 0.57510 0.12540
#END
