
#######################################################################
#
#                 Cambridge Crystallographic Data Centre
#                                CCDC
#
#######################################################################
#
# If this CIF has been generated from an entry in the Cambridge
# Structural Database, then it will include bibliographic, chemical,
# crystal, experimental, refinement or atomic coordinate data resulting
# from the CCDC's data processing and validation procedures.
#
#######################################################################

data_CSD_CIF_RORQIA
_audit_creation_date 2014-10-15
_audit_creation_method CSD-ConQuest-V1
_database_code_CSD RORQIA
_database_code_depnum_ccdc_archive 'CCDC 1007079'
_chemical_formula_sum 'C38 H46 N4 Ni1 O22 U2'
_chemical_formula_moiety
;
(C20 H20 N4 Ni1 O2 2+)n,2n(C9 H9 O8 U1 1-),4n(H2 O1)
;
_journal_coden_Cambridge 1147
_journal_volume 14
_journal_year 2014
_journal_page_first 4214
_journal_name_full 'Cryst.Growth Des. '
loop_
_publ_author_name
"P.Thuery"
"J.Harrowfield"
_chemical_name_systematic
;
catena-[(Diaqua-bis(2,2'-bipyridine)-nickel) 
bis((\m~3~-cis,cis-cyclohexane-1,3,5-tricarboxylato)-dioxo-uranium) 
tetrahydrate]
;
_cell_volume   4615.976
_exptl_crystal_colour 'light yellow'
_exptl_crystal_density_diffrn 2.08
_exptl_crystal_description 'lath'
_diffrn_ambient_temperature 150
#These two values have been output from a single CSD field.
_refine_ls_R_factor_gt 0.0482
_refine_ls_wR_factor_gt 0.0482
_symmetry_cell_setting orthorhombic
_symmetry_space_group_name_H-M 'P b c n'
_symmetry_Int_Tables_number 60
loop_
_symmetry_equiv_pos_site_id
_symmetry_equiv_pos_as_xyz
1 x,y,z
2 1/2-x,1/2-y,1/2+z
3 -x,y,1/2-z
4 1/2+x,1/2-y,-z
5 -x,-y,-z
6 -1/2+x,-1/2+y,-1/2-z
7 x,-y,-1/2+z
8 -1/2-x,-1/2+y,z
_cell_length_a 14.8810(13)
_cell_length_b 18.0065(15)
_cell_length_c 17.2267(8)
_cell_angle_alpha 90
_cell_angle_beta 90
_cell_angle_gamma 90
_cell_formula_units_Z 4
loop_
_atom_type_symbol
_atom_type_radius_bond
C 0.68
H 0.23
N 0.68
Ni 1.24
O 0.68
U 1.96
loop_
_atom_site_label
_atom_site_type_symbol
_atom_site_fract_x
_atom_site_fract_y
_atom_site_fract_z
U1 U 0.31952(3) 0.868025(18) 0.566891(16)
O1 O 0.4229(4) 0.8193(3) 0.5641(4)
O2 O 0.2157(5) 0.9155(4) 0.5670(3)
O3 O 0.2385(6) 0.7495(4) 0.5599(3)
O4 O 0.2690(5) 0.8025(3) 0.4499(3)
O5 O 0.2149(6) 0.6766(4) 0.1995(3)
O6 O 0.1306(5) 0.5772(4) 0.1905(3)
O7 O 0.1071(4) 0.4889(3) 0.5531(3)
O8 O 0.1486(4) 0.4358(3) 0.4455(3)
C1 C 0.1765(9) 0.6934(6) 0.4450(5)
H1 H 0.11380 0.71340 0.44520
C2 C 0.2030(7) 0.6877(5) 0.3595(5)
H2 H 0.19880 0.73720 0.33490
H3 H 0.26590 0.67030 0.35530
C3 C 0.1413(10) 0.6339(5) 0.3181(5)
H4 H 0.08000 0.65660 0.32050
C4 C 0.1333(8) 0.5616(5) 0.3545(5)
H5 H 0.19060 0.53440 0.34800
H6 H 0.08580 0.53300 0.32770
C5 C 0.1110(6) 0.5660(4) 0.4399(4)
H7 H 0.04700 0.58200 0.44530
C6 C 0.1715(7) 0.6224(5) 0.4851(5)
H8 H 0.14660 0.63000 0.53780
H9 H 0.23270 0.60150 0.49070
C7 C 0.2324(8) 0.7504(5) 0.4875(5)
C8 C 0.1647(8) 0.6281(5) 0.2313(5)
C9 C 0.1221(6) 0.4937(5) 0.4803(4)
Ni1 Ni 0.50000 0.38583(11) 0.75000
O9 O 0.5962(5) 0.3017(4) 0.7586(4)
H10 H 0.62880 0.28780 0.79440
H11 H 0.56860 0.26730 0.72730
N1 N 0.4855(6) 0.3901(5) 0.8709(5)
N2 N 0.4044(6) 0.4698(4) 0.7607(5)
C10 C 0.5151(9) 0.3408(8) 0.9201(8)
H12 H 0.55200 0.30200 0.90070
C11 C 0.4969(9) 0.3413(7) 0.9973(7)
H13 H 0.52060 0.30450 1.03110
C12 C 0.4432(8) 0.3966(7) 1.0242(7)
H14 H 0.42810 0.39810 1.07770
C13 C 0.4103(7) 0.4503(6) 0.9754(6)
H15 H 0.37510 0.49040 0.99450
C14 C 0.4310(7) 0.4437(6) 0.8951(6)
C15 C 0.3928(7) 0.4939(6) 0.8358(6)
C16 C 0.3441(7) 0.5577(6) 0.8524(6)
H16 H 0.33790 0.57450 0.90440
C17 C 0.3048(7) 0.5961(6) 0.7924(7)
H17 H 0.27150 0.63990 0.80310
C18 C 0.3132(8) 0.5716(7) 0.7163(7)
H18 H 0.28470 0.59670 0.67460
C19 C 0.3654(8) 0.5085(6) 0.7039(6)
H19 H 0.37370 0.49210 0.65200
O10 O 0.5862(6) 0.1838(5) 0.6689(5)
H20 H 0.53960 0.14810 0.66790
H21 H 0.61060 0.16410 0.63040
O11 O 0.0559(6) 0.5882(4) 0.6741(4)
H22 H 0.08400 0.54680 0.64930
H23 H 0.09910 0.59700 0.71230
U1A U 0.18048(3) 0.631975(18) 0.066891(16)
U1G U 0.18048(3) 0.368025(18) 0.566891(16)
O5A O 0.2851(6) 0.8234(4) 0.6995(3)
O6A O 0.3694(5) 0.9228(4) 0.6905(3)
O7G O 0.3929(4) 0.9889(3) 0.5531(3)
O8G O 0.3514(4) 0.9358(3) 0.4455(3)
O9B O 0.4038(5) 0.3017(4) 0.7414(4)
H10B H 0.37120 0.28780 0.70560
H11B H 0.43140 0.26730 0.77270
N1B N 0.5145(6) 0.3901(5) 0.6291(5)
N2B N 0.5956(6) 0.4698(4) 0.7393(5)
C10B C 0.4849(9) 0.3408(8) 0.5799(8)
H12B H 0.44800 0.30200 0.59930
C11B C 0.5031(9) 0.3413(7) 0.5027(7)
H13B H 0.47940 0.30450 0.46890
C12B C 0.5568(8) 0.3966(7) 0.4758(7)
H14B H 0.57190 0.39810 0.42230
C13B C 0.5897(7) 0.4503(6) 0.5246(6)
H15B H 0.62490 0.49040 0.50550
C14B C 0.5690(7) 0.4437(6) 0.6049(6)
C15B C 0.6072(7) 0.4939(6) 0.6642(6)
C16B C 0.6559(7) 0.5577(6) 0.6476(6)
H16B H 0.66210 0.57450 0.59560
C17B C 0.6952(7) 0.5961(6) 0.7076(7)
H17B H 0.72850 0.63990 0.69690
C18B C 0.6868(8) 0.5716(7) 0.7837(7)
H18B H 0.71530 0.59670 0.82540
C19B C 0.6346(8) 0.5085(6) 0.7961(6)
H19B H 0.62630 0.49210 0.84800
#END
