
#######################################################################
#
#                 Cambridge Crystallographic Data Centre
#                                CCDC
#
#######################################################################
#
# If this CIF has been generated from an entry in the Cambridge
# Structural Database, then it will include bibliographic, chemical,
# crystal, experimental, refinement or atomic coordinate data resulting
# from the CCDC's data processing and validation procedures.
#
#######################################################################

data_CSD_CIF_RORQOG
_audit_creation_date 2014-10-15
_audit_creation_method CSD-ConQuest-V1
_database_code_CSD RORQOG
_database_code_depnum_ccdc_archive 'CCDC 1007080'
_chemical_formula_sum 'C86 H90 N10 Ni2 O39 U4'
_chemical_formula_moiety
;
(C20 H20 N4 Ni1 O2 2+)n,n(C30 H24 N6 Ni1 2+),2n(C18 H18 O16 U2 2-),5n(H2 O1)
;
_journal_coden_Cambridge 1147
_journal_volume 14
_journal_year 2014
_journal_page_first 4214
_journal_name_full 'Cryst.Growth Des. '
loop_
_publ_author_name
"P.Thuery"
"J.Harrowfield"
_chemical_name_systematic
;
catena-[(Diaqua-bis(2,2'-bipyridine)-nickel) (tris(2,2'-bipyridine)-nickel) 
bis(bis(\m~3~-cis,cis-cyclohexane-1,3,5-tricarboxylato)-tetra-oxo-di-uranium) 
pentahydrate]
;
_cell_volume   4659.133
_exptl_crystal_colour 'light pink'
_exptl_crystal_density_diffrn 2.108
_exptl_crystal_description 'irregular'
_diffrn_ambient_temperature 150
#These two values have been output from a single CSD field.
_refine_ls_R_factor_gt 0.0502
_refine_ls_wR_factor_gt 0.0502
_symmetry_cell_setting monoclinic
_symmetry_space_group_name_H-M 'P 2/c'
_symmetry_Int_Tables_number 13
loop_
_symmetry_equiv_pos_site_id
_symmetry_equiv_pos_as_xyz
1 x,y,z
2 -x,y,1/2-z
3 -x,-y,-z
4 x,-y,-1/2+z
_cell_length_a 15.2580(4)
_cell_length_b 18.0513(10)
_cell_length_c 16.9899(8)
_cell_angle_alpha 90
_cell_angle_beta 95.344(3)
_cell_angle_gamma 90
_cell_formula_units_Z 2
loop_
_atom_type_symbol
_atom_type_radius_bond
C 0.68
H 0.23
N 0.68
Ni 1.24
O 0.68
U 1.96
loop_
_atom_site_label
_atom_site_type_symbol
_atom_site_fract_x
_atom_site_fract_y
_atom_site_fract_z
U1 U 0.67578(2) 0.633244(19) 0.90294(2)
U2 U 0.84032(2) 0.142432(19) 0.911898(19)
O1 O 0.5793(5) 0.6894(4) 0.8996(5)
O2 O 0.7732(4) 0.5798(4) 0.9089(4)
O3 O 0.7375(4) 0.1046(4) 0.8772(4)
O4 O 0.9441(4) 0.1801(4) 0.9461(4)
O5 O 0.6392(5) 0.5673(4) 1.0214(4)
O6 O 0.5929(5) 0.5170(4) 0.9083(4)
O7 O 0.7643(5) 0.2657(4) 0.9111(4)
O8 O 0.7737(5) 0.2013(4) 1.0201(4)
O9 O 0.6214(5) 0.4150(4) 1.2732(4)
O10 O 0.7156(5) 0.3224(4) 1.2717(4)
O11 O 0.7631(5) 0.7472(4) 0.9115(4)
O12 O 0.7360(5) 0.6968(4) 1.0241(4)
O13 O 0.8379(5) 1.0636(4) 1.0318(4)
O14 O 0.9016(5) 1.0179(4) 0.9324(4)
O15 O 0.8916(5) 0.9145(4) 1.2919(4)
O16 O 0.8524(5) 0.7969(4) 1.2834(4)
C1 C 0.6101(6) 0.4342(5) 1.0201(5)
H1 H 0.54950 0.41320 1.00920
C2 C 0.6749(6) 0.3845(5) 0.9811(6)
H2 H 0.65550 0.37920 0.92410
H3 H 0.73390 0.40790 0.98590
C3 C 0.6809(7) 0.3093(6) 1.0189(6)
H4 H 0.62090 0.28650 1.01110
C4 C 0.7069(6) 0.3129(5) 1.1080(5)
H5 H 0.76710 0.33340 1.11810
H6 H 0.70670 0.26240 1.13080
C5 C 0.6414(6) 0.3623(5) 1.1472(5)
H7 H 0.58250 0.33780 1.13840
C6 C 0.6320(6) 0.4395(5) 1.1094(5)
H8 H 0.58480 0.46720 1.13290
H9 H 0.68770 0.46730 1.12090
C7 C 0.6123(6) 0.5104(5) 0.9817(5)
C8 C 0.7444(6) 0.2570(6) 0.9809(5)
C9 C 0.6631(6) 0.3679(4) 1.2349(4)
C10 C 0.8287(6) 0.8045(5) 1.0304(5)
H10 H 0.89110 0.79090 1.02350
C11 C 0.8150(6) 0.8813(5) 0.9966(5)
H11 H 0.75440 0.89830 1.00340
H12 H 0.82240 0.88060 0.93930
C12 C 0.8820(6) 0.9348(5) 1.0392(5)
H13 H 0.94220 0.91560 1.03180
C13 C 0.8727(6) 0.9363(5) 1.1279(5)
H14 H 0.81380 0.95560 1.13730
H15 H 0.91750 0.96990 1.15440
C14 C 0.8845(7) 0.8578(5) 1.1634(6)
H16 H 0.94570 0.84090 1.15680
C15 C 0.8203(6) 0.8034(5) 1.1202(5)
H17 H 0.75940 0.81660 1.13020
H18 H 0.83250 0.75280 1.14090
C16 C 0.7720(6) 0.7462(5) 0.9867(5)
C17 C 0.8737(6) 1.0100(5) 1.0013(6)
C18 C 0.8719(7) 0.8570(5) 1.2509(5)
Ni1 Ni 0.50000 0.92537(11) 0.25000
N1 N 0.5336(6) 0.9216(5) 0.3734(6)
N2 N 0.4242(7) 0.8344(6) 0.2858(6)
N3 N 0.4159(6) 1.0136(5) 0.2608(5)
C19 C 0.5851(8) 0.9697(8) 0.4198(7)
H19 H 0.60640 1.01210 0.39450
C20 C 0.6091(9) 0.9622(8) 0.5011(7)
H20 H 0.64780 0.99620 0.52940
C21 C 0.5721(10) 0.9005(8) 0.5388(8)
H21 H 0.58470 0.89290 0.59400
C22 C 0.5179(9) 0.8520(7) 0.4944(8)
H22 H 0.49100 0.81180 0.51900
C23 C 0.5031(8) 0.8629(7) 0.4132(8)
C24 C 0.4509(8) 0.8098(7) 0.3635(7)
C25 C 0.4349(8) 0.7378(7) 0.3857(7)
H23 H 0.45180 0.72230 0.43830
C26 C 0.3937(8) 0.6875(7) 0.3311(8)
H24 H 0.38420 0.63730 0.34490
C27 C 0.3664(8) 0.7157(7) 0.2530(7)
H25 H 0.33680 0.68470 0.21400
C28 C 0.3836(8) 0.7864(7) 0.2368(7)
H26 H 0.36480 0.80360 0.18520
C29 C 0.4494(7) 1.0822(6) 0.2501(6)
C30 C 0.4000(8) 1.1438(7) 0.2389(7)
H27 H 0.42620 1.19040 0.23010
C31 C 0.3080(9) 1.1367(8) 0.2407(7)
H28 H 0.27080 1.17890 0.23370
C32 C 0.2729(8) 1.0676(8) 0.2528(7)
H29 H 0.21120 1.06160 0.25440
C33 C 0.3282(7) 1.0076(7) 0.2625(6)
H30 H 0.30370 0.96010 0.27070
Ni2 Ni 0.00000 0.38354(10) 0.25000
O17 O -0.0960(4) 0.3016(4) 0.2506(4)
H31 H -0.15220 0.31390 0.26280
H32 H -0.09290 0.26680 0.21910
N4 N 0.0946(5) 0.4674(5) 0.2721(5)
N5 N 0.0115(6) 0.3876(5) 0.3731(5)
C34 C 0.1311(6) 0.5063(6) 0.2176(6)
H33 H 0.12260 0.49010 0.16420
C35 C 0.1802(7) 0.5684(6) 0.2343(7)
H34 H 0.20540 0.59500 0.19360
C36 C 0.1925(7) 0.5918(6) 0.3127(7)
H35 H 0.22530 0.63540 0.32620
C37 C 0.1570(7) 0.5517(6) 0.3699(7)
H36 H 0.16580 0.56620 0.42380
C38 C 0.1069(6) 0.4883(5) 0.3473(6)
C39 C 0.0688(7) 0.4409(6) 0.4058(7)
C40 C 0.0872(7) 0.4469(6) 0.4862(6)
H37 H 0.12530 0.48480 0.50790
C41 C 0.0496(7) 0.3970(6) 0.5359(7)
H38 H 0.06340 0.39920 0.59150
C42 C -0.0086(8) 0.3437(7) 0.5022(7)
H39 H -0.03640 0.30960 0.53440
C43 C -0.0241(7) 0.3420(6) 0.4234(7)
H40 H -0.06380 0.30530 0.40130
O18 O 0.9596(6) 0.9122(5) 0.8272(5)
O19 O -0.1073(6) 0.1767(5) 0.1670(5)
O20 O 0.50000 0.4487(8) 0.75000
U1C U 0.67578(2) 0.366756(19) 1.40294(2)
U2* U 0.84032(2) 1.142432(19) 0.911898(19)
U2C U 0.84032(2) 0.857568(19) 1.411898(19)
O9C O 0.6214(5) 0.5850(4) 0.7732(4)
O10C O 0.7156(5) 0.6776(4) 0.7717(4)
O13* O 0.8379(5) 0.0636(4) 1.0318(4)
O14* O 0.9016(5) 0.0179(4) 0.9324(4)
O15C O 0.8916(5) 0.0855(4) 0.7919(4)
O16C O 0.8524(5) 0.2031(4) 0.7834(4)
N3A N 0.5841(6) 1.0136(5) 0.2392(5)
C29A C 0.5506(7) 1.0822(6) 0.2499(6)
C30A C 0.6000(8) 1.1438(7) 0.2611(7)
H27A H 0.57380 1.19040 0.26990
C31A C 0.6920(9) 1.1367(8) 0.2593(7)
H28A H 0.72920 1.17890 0.26630
C32A C 0.7271(8) 1.0676(8) 0.2472(7)
H29A H 0.78880 1.06160 0.24560
C33A C 0.6718(7) 1.0076(7) 0.2375(6)
H30A H 0.69630 0.96010 0.22930
N1A N 0.4664(6) 0.9216(5) 0.1266(6)
N2A N 0.5758(7) 0.8344(6) 0.2142(6)
C19A C 0.4149(8) 0.9697(8) 0.0802(7)
H19A H 0.39360 1.01210 0.10550
C20A C 0.3909(9) 0.9622(8) -0.0011(7)
H20A H 0.35220 0.99620 -0.02940
C21A C 0.4279(10) 0.9005(8) -0.0388(8)
H21A H 0.41530 0.89290 -0.09400
C22A C 0.4821(9) 0.8520(7) 0.0056(8)
H22A H 0.50900 0.81180 -0.01900
C23A C 0.4969(8) 0.8629(7) 0.0868(8)
C24A C 0.5491(8) 0.8098(7) 0.1365(7)
C25A C 0.5651(8) 0.7378(7) 0.1143(7)
H23A H 0.54820 0.72230 0.06170
C26A C 0.6063(8) 0.6875(7) 0.1689(8)
H24A H 0.61580 0.63730 0.15510
C27A C 0.6336(8) 0.7157(7) 0.2470(7)
H25A H 0.66320 0.68470 0.28600
C28A C 0.6164(8) 0.7864(7) 0.2632(7)
H26A H 0.63520 0.80360 0.31480
O17A O 0.0960(4) 0.3016(4) 0.2494(4)
H31A H 0.15220 0.31390 0.23720
H32A H 0.09290 0.26680 0.28090
N4A N -0.0946(5) 0.4674(5) 0.2279(5)
N5A N -0.0115(6) 0.3876(5) 0.1269(5)
C34A C -0.1311(6) 0.5063(6) 0.2824(6)
H33A H -0.12260 0.49010 0.33580
C35A C -0.1802(7) 0.5684(6) 0.2657(7)
H34A H -0.20540 0.59500 0.30640
C36A C -0.1925(7) 0.5918(6) 0.1873(7)
H35A H -0.22530 0.63540 0.17380
C37A C -0.1570(7) 0.5517(6) 0.1301(7)
H36A H -0.16580 0.56620 0.07620
C38A C -0.1069(6) 0.4883(5) 0.1527(6)
C39A C -0.0688(7) 0.4409(6) 0.0942(7)
C40A C -0.0872(7) 0.4469(6) 0.0138(6)
H37A H -0.12530 0.48480 -0.00790
C41A C -0.0496(7) 0.3970(6) -0.0359(7)
H38A H -0.06340 0.39920 -0.09150
C42A C 0.0086(8) 0.3437(7) -0.0022(7)
H39A H 0.03640 0.30960 -0.03440
C43A C 0.0241(7) 0.3420(6) 0.0766(7)
H40A H 0.06380 0.30530 0.09870
#END
