
#######################################################################
#
#                 Cambridge Crystallographic Data Centre
#                                CCDC
#
#######################################################################
#
# If this CIF has been generated from an entry in the Cambridge
# Structural Database, then it will include bibliographic, chemical,
# crystal, experimental, refinement or atomic coordinate data resulting
# from the CCDC's data processing and validation procedures.
#
#######################################################################

data_CSD_CIF_RORREX
_audit_creation_date 2014-10-15
_audit_creation_method CSD-ConQuest-V1
_database_code_CSD RORREX
_database_code_depnum_ccdc_archive 'CCDC 1007083'
_chemical_formula_sum 'C27 H59 O40 Tb1 U3'
_chemical_formula_moiety
;
(H16 O8 Tb1 3+)n,1.5n(C18 H18 O16 U2 2-),8n(H2 O1)
;
_journal_coden_Cambridge 1147
_journal_volume 14
_journal_year 2014
_journal_page_first 4214
_journal_name_full 'Cryst.Growth Des. '
loop_
_publ_author_name
"P.Thuery"
"J.Harrowfield"
_chemical_name_systematic
;
catena-[Octa-aqua-terbium(iii) 
sesquikis(bis(cis,cis-cyclohexane-1,3,5-tricarboxylato)-dioxo-uranium) 
octahydrate]
;
_cell_volume   5186.206
_exptl_crystal_colour 'light yellow'
_exptl_crystal_density_diffrn 2.429
_exptl_crystal_description 'platelet'
_diffrn_ambient_temperature 150
_refine_special_details
;
O26 and O27 disordered over two sites with occupancies 0.50:0.50.

;
#These two values have been output from a single CSD field.
_refine_ls_R_factor_gt 0.0385
_refine_ls_wR_factor_gt 0.0385
_symmetry_cell_setting orthorhombic
_symmetry_space_group_name_H-M 'P n m a'
_symmetry_Int_Tables_number 62
loop_
_symmetry_equiv_pos_site_id
_symmetry_equiv_pos_as_xyz
1 x,y,z
2 1/2-x,-y,1/2+z
3 -x,1/2+y,-z
4 1/2+x,1/2-y,1/2-z
5 -x,-y,-z
6 -1/2+x,y,-1/2-z
7 x,-1/2-y,z
8 -1/2-x,-1/2+y,-1/2+z
_cell_length_a 31.0331(13)
_cell_length_b 10.0992(3)
_cell_length_c 16.5477(7)
_cell_angle_alpha 90
_cell_angle_beta 90
_cell_angle_gamma 90
_cell_formula_units_Z 4
loop_
_atom_type_symbol
_atom_type_radius_bond
C 0.68
H 0.23
O 0.68
Tb 1.94
U 1.96
loop_
_atom_site_label
_atom_site_type_symbol
_atom_site_fract_x
_atom_site_fract_y
_atom_site_fract_z
U1 U 0.389552(12) -0.25000 0.312428(19)
O1 O 0.4433(2) -0.25000 0.3501(4)
O2 O 0.3355(2) -0.25000 0.2780(4)
O3 O 0.36700(18) -0.1098(4) 0.4264(3)
O4 O 0.39078(18) -0.0042(5) 0.3214(3)
O5 O 0.41314(17) -0.1418(4) 0.1868(2)
C1 C 0.3766(2) -0.0013(6) 0.3922(4)
C2 C 0.4212(3) -0.25000 0.1510(5)
C3 C 0.3683(3) 0.1274(7) 0.4356(4)
C4 C 0.4419(3) -0.25000 0.0666(5)
C5 C 0.3812(4) 0.25000 0.3889(5)
H1 H 0.33640 0.13310 0.44310
C6 C 0.3878(3) 0.1242(7) 0.5204(4)
H2 H 0.47380 -0.25000 0.07520
C7 C 0.4315(2) -0.1244(6) 0.0206(4)
H3 H 0.41280 0.25000 0.38010
H4 H 0.36690 0.25000 0.33550
H5 H 0.37590 0.04750 0.55030
H6 H 0.41940 0.11220 0.51620
C8 C 0.3784(5) 0.25000 0.5672(6)
H7 H 0.44060 -0.04640 0.05250
H8 H 0.40010 -0.11830 0.01130
C9 C 0.4557(2) -0.1259(6) -0.0619(3)
H9 H 0.34640 0.25000 0.57490
C10 C 0.3967(3) 0.25000 0.6517(6)
H10 H 0.48730 -0.12860 -0.05010
C11 C 0.4447(3) -0.25000 -0.1102(5)
C12 C 0.4466(2) 0.0024(6) -0.1056(3)
O6 O 0.40370(19) 0.1430(5) 0.6894(3)
H11 H 0.46110 -0.25000 -0.16150
H12 H 0.41360 -0.25000 -0.12350
O7 O 0.45776(16) 0.1120(4) -0.0739(3)
O8 O 0.42793(15) 0.0052(5) -0.1737(3)
U2 U 0.431819(10) 0.25000 0.813849(18)
O9 O 0.4844(2) 0.25000 0.7720(4)
O10 O 0.3792(2) 0.25000 0.8552(4)
U3 U 0.223458(10) 0.25000 0.554617(18)
O11 O 0.1694(2) 0.25000 0.5850(4)
O12 O 0.2772(2) 0.25000 0.5208(4)
O13 O 0.23029(19) 0.4931(5) 0.5418(3)
O14 O 0.20207(16) 0.3907(4) 0.4383(2)
O15 O 0.25362(16) 0.6424(4) 0.1810(2)
C13 C 0.2178(3) 0.75000 0.4778(5)
H13 H 0.24800 0.75000 0.49670
H14 H 0.19870 0.75000 0.52590
C14 C 0.2091(2) 0.6264(6) 0.4266(4)
H15 H 0.17810 0.63090 0.41040
C15 C 0.2352(2) 0.6251(7) 0.3476(4)
H16 H 0.26630 0.61960 0.36020
H17 H 0.22730 0.54610 0.31540
C16 C 0.2263(3) 0.75000 0.2985(6)
H18 H 0.19460 0.75000 0.28810
C17 C 0.2144(2) 0.4993(6) 0.4719(4)
C18 C 0.2468(3) 0.75000 0.2181(5)
Tb1 Tb 0.337072(14) 0.75000 0.69208(2)
O16 O 0.2734(2) 0.75000 0.7773(5)
H19 H 0.27100 0.75000 0.83660
H20 H 0.24670 0.75000 0.76900
O17 O 0.3334(2) 0.75000 0.5466(4)
O18 O 0.29598(18) 0.9304(5) 0.6443(3)
H21 H 0.27800 0.91930 0.59830
H22 H 0.29000 1.00510 0.67220
O19 O 0.34813(16) 0.9008(5) 0.8011(3)
O20 O 0.39665(15) 0.8853(5) 0.6616(3)
O21 O 0.1959(4) 0.75000 0.7137(7)
O22 O 0.4809(3) 0.8722(14) 0.6393(10)
O23 O 0.4186(4) 0.25000 1.0827(6)
O24 O 0.1454(2) -0.0651(8) 0.6328(6)
O25 O 0.4995(6) 1.0818(19) 0.5595(11)
O26 O 0.5336(5) 0.8957(19) 0.7943(10)
O27? O 0.5202(5) 0.957(2) 0.7333(12)
O5F O 0.41314(17) -0.3582(4) 0.1868(2)
O3F O 0.36700(18) -0.3902(4) 0.4264(3)
O4F O 0.39078(18) -0.4958(5) 0.3214(3)
C7F C 0.4315(2) -0.3756(6) 0.0206(4)
C3F C 0.3683(3) 0.3726(7) 0.4356(4)
H7F H 0.44060 -0.45360 0.05250
H8F H 0.40010 -0.38170 0.01130
C9F C 0.4557(2) -0.3741(6) -0.0619(3)
H1F H 0.33640 0.36690 0.44310
C6F C 0.3878(3) 0.3758(7) 0.5204(4)
C1F C 0.3766(2) 0.5013(6) 0.3922(4)
H10F H 0.48730 -0.37140 -0.05010
C12F C 0.4466(2) -0.5024(6) -0.1056(3)
H5F H 0.37590 0.45250 0.55030
H6F H 0.41940 0.38780 0.51620
O3F* O 0.36700(18) 0.6098(4) 0.4264(3)
O4F* O 0.39078(18) 0.5042(5) 0.3214(3)
O6F O 0.40370(19) 0.3570(5) 0.6894(3)
O7F O 0.45776(16) -0.6120(4) -0.0739(3)
O8F O 0.42793(15) -0.5052(5) -0.1737(3)
U1* U 0.389552(12) 0.75000 0.312428(19)
U2* U 0.431819(10) 0.25000 -0.186151(18)
U2** U 0.431819(10) -0.75000 -0.186151(18)
O7* O 0.45776(16) 0.1120(4) 0.9261(3)
O7F* O 0.45776(16) 0.3880(4) 0.9261(3)
O8* O 0.42793(15) 0.0052(5) 0.8263(3)
O8F* O 0.42793(15) 0.4948(5) 0.8263(3)
O13F O 0.23029(19) 1.0069(5) 0.5418(3)
O14F O 0.20207(16) 1.1093(4) 0.4383(2)
O15F O 0.25362(16) 0.8576(4) 0.1810(2)
C14F C 0.2091(2) 0.8736(6) 0.4266(4)
H15F H 0.17810 0.86910 0.41040
C15F C 0.2352(2) 0.8749(7) 0.3476(4)
H16F H 0.26630 0.88040 0.36020
H17F H 0.22730 0.95390 0.31540
C17F C 0.2144(2) 1.0007(6) 0.4719(4)
U3* U 0.223458(10) 1.25000 0.554617(18)
U3A U 0.276542(10) 0.75000 0.054617(18)
O13F* O 0.23029(19) 0.0069(5) 0.5418(3)
O14F* O 0.20207(16) 0.1093(4) 0.4383(2)
O15A O 0.24638(16) 0.3576(4) 0.6810(2)
O15G O 0.24638(16) 0.1424(4) 0.6810(2)
O14* O 0.20207(16) 1.3907(4) 0.4383(2)
C13* C 0.2178(3) 1.75000 0.4778(5)
H13* H 0.24800 1.75000 0.49670
C15F* C 0.2352(2) 1.8749(7) 0.3476(4)
H17F* H 0.22730 1.95390 0.31540
O15F* O 0.25362(16) 1.8576(4) 0.1810(2)
U3A* U 0.276542(10) 1.75000 0.054617(18)
O13* O 0.23029(19) 1.4931(5) 0.5418(3)
O15G* O 0.24638(16) 1.1424(4) 0.6810(2)
C15* C 0.2352(2) 1.6251(7) 0.3476(4)
H17* H 0.22730 1.54610 0.31540
C14* C 0.2091(2) 1.6264(6) 0.4266(4)
C17* C 0.2144(2) 1.4993(6) 0.4719(4)
O12* O 0.2772(2) 1.25000 0.5208(4)
O14F** O 0.20207(16) 2.1093(4) 0.4383(2)
C17F* C 0.2144(2) 2.0007(6) 0.4719(4)
C14F* C 0.2091(2) 1.8736(6) 0.4266(4)
H16* H 0.26630 1.61960 0.36020
O15A* O 0.24638(16) 1.3576(4) 0.6810(2)
O15* O 0.25362(16) 1.6424(4) 0.1810(2)
C18* C 0.2468(3) 1.75000 0.2181(5)
C16* C 0.2263(3) 1.75000 0.2985(6)
U3** U 0.223458(10) 2.25000 0.554617(18)
H16F* H 0.26630 1.88040 0.36020
H15* H 0.17810 1.63090 0.41040
O13F** O 0.23029(19) 2.0069(5) 0.5418(3)
H14* H 0.19870 1.75000 0.52590
O11* O 0.1694(2) 1.25000 0.5850(4)
H15F* H 0.17810 1.86910 0.41040
H18* H 0.19460 1.75000 0.28810
O18F O 0.29598(18) 0.5696(5) 0.6443(3)
H21F H 0.27800 0.58070 0.59830
H22F H 0.29000 0.49490 0.67220
O19F O 0.34813(16) 0.5992(5) 0.8011(3)
O20F O 0.39665(15) 0.6147(5) 0.6616(3)
#END
