
#######################################################################
#
#                 Cambridge Crystallographic Data Centre
#                                CCDC
#
#######################################################################
#
# If this CIF has been generated from an entry in the Cambridge
# Structural Database, then it will include bibliographic, chemical,
# crystal, experimental, refinement or atomic coordinate data resulting
# from the CCDC's data processing and validation procedures.
#
#######################################################################

data_CSD_CIF_RORRAT
_audit_creation_date 2014-10-15
_audit_creation_method CSD-ConQuest-V1
_database_code_CSD RORRAT
_database_code_depnum_ccdc_archive 'CCDC 1007082'
_chemical_formula_sum 'C9 H17 Cu0.5 O12 U1'
_chemical_formula_moiety
;
(H12 Cu1 O6 2+)0.5n,n(C9 H9 O8 U1 1-),n(H2 O1)
;
_journal_coden_Cambridge 1147
_journal_volume 14
_journal_year 2014
_journal_page_first 4214
_journal_name_full 'Cryst.Growth Des. '
loop_
_publ_author_name
"P.Thuery"
"J.Harrowfield"
_chemical_name_systematic
;
catena-[hemikis(Hexa-aqua-copper) 
(\m~3~-cis,cis-cyclohexane-1,3,5-tricarboxylato)-dioxo-uranium monohydrate]
;
_cell_volume   1592.689
_exptl_crystal_colour 'light yellow'
_exptl_crystal_density_diffrn 2.448
_exptl_special_details
;
Isomorphous with the Ni analogue.

;
_exptl_crystal_description 'platelet'
_diffrn_ambient_temperature 150
_refine_special_details
;
The solvent water molecule location is disordered.

;
#These two values have been output from a single CSD field.
_refine_ls_R_factor_gt 0.0322
_refine_ls_wR_factor_gt 0.0322
_symmetry_cell_setting orthorhombic
_symmetry_space_group_name_H-M 'P n n m'
_symmetry_Int_Tables_number 58
loop_
_symmetry_equiv_pos_site_id
_symmetry_equiv_pos_as_xyz
1 x,y,z
2 -x,-y,z
3 1/2-x,1/2+y,1/2-z
4 1/2+x,1/2-y,1/2-z
5 -x,-y,-z
6 x,y,-z
7 -1/2+x,-1/2-y,-1/2+z
8 -1/2-x,-1/2+y,-1/2+z
_cell_length_a 10.1436(5)
_cell_length_b 15.6398(7)
_cell_length_c 10.0394(4)
_cell_angle_alpha 90
_cell_angle_beta 90
_cell_angle_gamma 90
_cell_formula_units_Z 4
loop_
_atom_type_symbol
_atom_type_radius_bond
C 0.68
H 0.23
Cu 1.32
O 0.68
U 1.96
loop_
_atom_site_label
_atom_site_type_symbol
_atom_site_fract_x
_atom_site_fract_y
_atom_site_fract_z
U1 U 0.63037(2) 0.150791(15) 0.00000
O1 O 0.7775(5) 0.2094(4) 0.00000
O2 O 0.4797(5) 0.0971(3) 0.00000
O3 O 0.6338(4) 0.1606(2) 0.2446(4)
O4 O 0.5375(4) 0.2656(2) 0.1400(3)
O5 O 0.7572(5) 0.5292(2) 0.3923(4)
C1 C 0.5882(7) 0.2290(5) 0.50000
H1 H 0.67850 0.20490 0.50000
H2 H 0.52480 0.18090 0.50000
C2 C 0.5682(5) 0.2828(3) 0.3764(5)
H3 H 0.47690 0.30660 0.38030
C3 C 0.6648(6) 0.3593(3) 0.3740(5)
H4 H 0.75670 0.33820 0.36860
H5 H 0.64750 0.39530 0.29480
C4 C 0.6468(7) 0.4119(5) 0.50000
H6 H 0.55230 0.43010 0.50000
C5 C 0.5801(5) 0.2335(3) 0.2480(5)
C6 C 0.7267(9) 0.4945(5) 0.50000
Cu1 Cu 0.50000 0.50000 0.00000
O6 O 0.6494(6) 0.4206(4) 0.00000
H7 H 0.61650 0.36670 0.00000
H8 H 0.73820 0.44530 0.00000
O7 O 0.5944(6) 0.5758(3) -0.1489(7)
H9 H 0.53460 0.62420 -0.14910
H10 H 0.68500 0.57680 -0.13100
H11? H 0.64210 0.55290 -0.20740
H12? H 0.62210 0.61990 -0.08740
O8 O 0.140(2) 0.5109(17) 0.890(3)
O9? O 0.00000 0.50000 0.841(2)
O3E O 0.6338(4) 0.1606(2) 0.7554(4)
O4E O 0.5375(4) 0.2656(2) 0.8600(3)
O5E O 0.7572(5) 0.5292(2) 0.6077(4)
C2E C 0.5682(5) 0.2828(3) 0.6236(5)
H3E H 0.47690 0.30660 0.61970
C3E C 0.6648(6) 0.3593(3) 0.6260(5)
H4E H 0.75670 0.33820 0.63140
H5E H 0.64750 0.39530 0.70520
C5E C 0.5801(5) 0.2335(3) 0.7520(5)
U1* U 0.63037(2) 0.150791(15) 1.00000
U1B U 0.86963(2) 0.650791(15) 0.50000
O3E* O 0.6338(4) 0.1606(2) -0.2446(4)
O4E* O 0.5375(4) 0.2656(2) -0.1400(3)
O5B O 0.7428(5) 0.0292(2) 0.1077(4)
O5G O 0.7428(5) 0.0292(2) -0.1077(4)
O6A O 0.3506(6) 0.5794(4) 0.00000
H7A H 0.38350 0.63330 0.00000
H8A H 0.26180 0.55470 0.00000
O7A O 0.4056(6) 0.4242(3) -0.1489(7)
H9A H 0.46540 0.37580 -0.14910
H10A H 0.31500 0.42320 -0.13100
O7D O 0.4056(6) 0.4242(3) 0.1489(7)
H9D H 0.46540 0.37580 0.14910
H10D H 0.31500 0.42320 0.13100
O7E O 0.5944(6) 0.5758(3) 0.1489(7)
H9E H 0.53460 0.62420 0.14910
H10E H 0.68500 0.57680 0.13100
#END
