
#######################################################################
#
#                 Cambridge Crystallographic Data Centre
#                                CCDC
#
#######################################################################
#
# If this CIF has been generated from an entry in the Cambridge
# Structural Database, then it will include bibliographic, chemical,
# crystal, experimental, refinement or atomic coordinate data resulting
# from the CCDC's data processing and validation procedures.
#
#######################################################################

data_CSD_CIF_RORTAV
_audit_creation_date 2014-10-15
_audit_creation_method CSD-ConQuest-V1
_database_code_CSD RORTAV
_database_code_depnum_ccdc_archive 'CCDC 988934'
_chemical_formula_sum 'C144 H187 Cu4 N36 O171 P3 W36'
_chemical_formula_moiety
;
(H3 O1 1+)n,4n(C30 H24 Cu1 N6 O6 2+),3n(O40 P1 W12 3-),12n(C2 H3 N1),26n(H2 
O1)
;
_journal_coden_Cambridge 211
_journal_volume 67
_journal_year 2014
_journal_page_first 2809
_journal_name_full 'J.Coord.Chem. '
loop_
_publ_author_name
"Meilin Wei"
"Lin Chen"
"Xianying Duan"
_chemical_name_systematic
;
catena-[Oxonium tetrakis(tris(\m~2~-4,4'-bipyridine 1,1'-dioxide)-copper(ii)) 
tris((\m~12~-phosphato)-tetracosakis(\m~2~-oxo)-dodeca-oxo-dodeca-tungsten) 
acetonitrile solvate hexacosahydrate]
;
_cell_volume  12468.608
_exptl_crystal_colour 'red'
_exptl_crystal_density_diffrn 3.229
_exptl_crystal_description 'block'
_diffrn_ambient_temperature 293
_refine_special_details
;
The Keggin anion is disordered by symmetry. O3W disordered by symmetry over 
two configurations with occupancy 0.50.
;
#These two values have been output from a single CSD field.
_refine_ls_R_factor_gt 0.0629
_refine_ls_wR_factor_gt 0.0629
_symmetry_cell_setting cubic
_symmetry_space_group_name_H-M 'I m -3'
_symmetry_Int_Tables_number 204
loop_
_symmetry_equiv_pos_site_id
_symmetry_equiv_pos_as_xyz
1 x,y,z
2 -x,-y,z
3 -x,y,-z
4 x,-y,-z
5 z,x,y
6 z,-x,-y
7 -z,-x,y
8 -z,x,-y
9 y,z,x
10 -y,z,-x
11 y,-z,-x
12 -y,-z,x
13 1/2+x,1/2+y,1/2+z
14 1/2-x,1/2-y,1/2+z
15 1/2-x,1/2+y,1/2-z
16 1/2+x,1/2-y,1/2-z
17 1/2+z,1/2+x,1/2+y
18 1/2+z,1/2-x,1/2-y
19 1/2-z,1/2-x,1/2+y
20 1/2-z,1/2+x,1/2-y
21 1/2+y,1/2+z,1/2+x
22 1/2-y,1/2+z,1/2-x
23 1/2+y,1/2-z,1/2-x
24 1/2-y,1/2-z,1/2+x
25 -x,-y,-z
26 x,y,-z
27 x,-y,z
28 -x,y,z
29 -z,-x,-y
30 -z,x,y
31 z,x,-y
32 z,-x,y
33 -y,-z,-x
34 y,-z,x
35 -y,z,x
36 y,z,-x
37 -1/2-x,-1/2-y,-1/2-z
38 -1/2+x,-1/2+y,-1/2-z
39 -1/2+x,-1/2-y,-1/2+z
40 -1/2-x,-1/2+y,-1/2+z
41 -1/2-z,-1/2-x,-1/2-y
42 -1/2-z,-1/2+x,-1/2+y
43 -1/2+z,-1/2+x,-1/2-y
44 -1/2+z,-1/2-x,-1/2+y
45 -1/2-y,-1/2-z,-1/2-x
46 -1/2+y,-1/2-z,-1/2+x
47 -1/2-y,-1/2+z,-1/2+x
48 -1/2+y,-1/2+z,-1/2-x
_cell_length_a 23.1885(2)
_cell_length_b 23.1885(2)
_cell_length_c 23.1885(2)
_cell_angle_alpha 90
_cell_angle_beta 90
_cell_angle_gamma 90
_cell_formula_units_Z 2
loop_
_atom_type_symbol
_atom_type_radius_bond
C 0.68
H 0.23
Cu 1.32
N 0.68
O 0.68
P 1.05
W 1.62
loop_
_atom_site_label
_atom_site_type_symbol
_atom_site_fract_x
_atom_site_fract_y
_atom_site_fract_z
W1 W 0.423668(18) 0.108446(19) 0.076726(18)
W2 W 0.34700(3) 0.00000 0.00000
W3 W 0.50000 0.00000 0.15383(4)
P1 P 0.50000 0.00000 0.00000
O1 O 0.50000 0.0412(7) 0.0536(7)
O2 O 0.50000 0.00000 0.2263(6)
O3 O 0.4436(4) 0.0563(5) 0.1368(5)
O4 O 0.50000 0.1368(7) 0.0819(7)
O5 O 0.4197(6) 0.1345(6) 0.00000
O6 O 0.3649(4) 0.0571(4) 0.0569(3)
O7 O 0.3884(4) 0.1602(4) 0.1111(4)
O8 O 0.2761(7) 0.00000 0.00000
Cu1 Cu 0.25000 0.25000 0.25000
O9 O 0.3240(3) 0.2232(3) 0.2919(3)
N1 N 0.3240(4) 0.2210(4) 0.3492(4)
C1 C 0.3620(5) 0.2528(5) 0.3781(5)
H1 H 0.38760 0.27610 0.35780
C2 C 0.3641(5) 0.2520(5) 0.4359(5)
H2 H 0.39070 0.27510 0.45490
C3 C 0.3267(4) 0.2166(4) 0.4684(4)
C4 C 0.2898(5) 0.1828(4) 0.4369(4)
H3 H 0.26490 0.15820 0.45640
C5 C 0.2881(5) 0.1839(4) 0.3760(4)
H4 H 0.26330 0.16010 0.35540
N2 N 0.50000 0.2321(10) 0.3255(10)
C6 C 0.50000 0.1543(10) 0.2472(10)
H5 H 0.53380 0.13060 0.25030
H6 H 0.50000 0.17370 0.21070
C7 C 0.50000 0.1985(10) 0.2897(9)
O10 O 0.3981(6) 0.3981(6) 0.3981(6)
O11 O 0.50000 0.3339(7) 0.3969(11)
O12 O 0.50000 0.50000 0.50000
O13? O 0.4501(8) 0.0333(7) 0.00000
O14? O 0.463(2) 0.351(2) 0.50000
O1A O 0.50000 -0.0412(7) 0.0536(7)
O1B O 0.50000 0.0412(7) -0.0536(7)
O1C O 0.50000 -0.0412(7) -0.0536(7)
W1A W 0.576332(18) -0.108446(19) 0.076726(18)
W2A W 0.65300(3) 0.00000 0.00000
O3A O 0.5564(4) -0.0563(5) 0.1368(5)
O4A O 0.50000 -0.1368(7) 0.0819(7)
O5A O 0.5803(6) -0.1345(6) 0.00000
O6A O 0.6351(4) -0.0571(4) 0.0569(3)
O7A O 0.6116(4) -0.1602(4) 0.1111(4)
O8A O 0.7239(7) 0.00000 0.00000
W1B W 0.576332(18) 0.108446(19) -0.076726(18)
W3B W 0.50000 0.00000 -0.15383(4)
O2B O 0.50000 0.00000 -0.2263(6)
O3B O 0.5564(4) 0.0563(5) -0.1368(5)
O4B O 0.50000 0.1368(7) -0.0819(7)
O5B O 0.5803(6) 0.1345(6) 0.00000
O6B O 0.6351(4) 0.0571(4) -0.0569(3)
O7B O 0.6116(4) 0.1602(4) -0.1111(4)
W1C W 0.423668(18) -0.108446(19) -0.076726(18)
O3C O 0.4436(4) -0.0563(5) -0.1368(5)
O4C O 0.50000 -0.1368(7) -0.0819(7)
O5C O 0.4197(6) -0.1345(6) 0.00000
O6C O 0.3649(4) -0.0571(4) -0.0569(3)
O7C O 0.3884(4) -0.1602(4) -0.1111(4)
W1X W 0.576332(18) -0.108446(19) -0.076726(18)
O3X O 0.5564(4) -0.0563(5) -0.1368(5)
O6X O 0.6351(4) -0.0571(4) -0.0569(3)
O7X O 0.6116(4) -0.1602(4) -0.1111(4)
W1Y W 0.423668(18) 0.108446(19) -0.076726(18)
O3Y O 0.4436(4) 0.0563(5) -0.1368(5)
O6Y O 0.3649(4) 0.0571(4) -0.0569(3)
O7Y O 0.3884(4) 0.1602(4) -0.1111(4)
W1Z W 0.423668(18) -0.108446(19) 0.076726(18)
O3Z O 0.4436(4) -0.0563(5) 0.1368(5)
O6Z O 0.3649(4) -0.0571(4) 0.0569(3)
O7Z O 0.3884(4) -0.1602(4) 0.1111(4)
W1AA W 0.576332(18) 0.108446(19) 0.076726(18)
O3AA O 0.5564(4) 0.0563(5) 0.1368(5)
O6AA O 0.6351(4) 0.0571(4) 0.0569(3)
O7AA O 0.6116(4) 0.1602(4) 0.1111(4)
O9Y O 0.3240(3) 0.2232(3) 0.7081(3)
N1Y N 0.3240(4) 0.2210(4) 0.6508(4)
C1Y C 0.3620(5) 0.2528(5) 0.6219(5)
H1Y H 0.38760 0.27610 0.64220
C2Y C 0.3641(5) 0.2520(5) 0.5641(5)
H2Y H 0.39070 0.27510 0.54510
C3Y C 0.3267(4) 0.2166(4) 0.5316(4)
C4Y C 0.2898(5) 0.1828(4) 0.5631(4)
H3Y H 0.26490 0.15820 0.54360
C5Y C 0.2881(5) 0.1839(4) 0.6240(4)
H4Y H 0.26330 0.16010 0.64460
O9D O 0.2919(3) 0.3240(3) 0.2232(3)
N1D N 0.3492(4) 0.3240(4) 0.2210(4)
C1D C 0.3781(5) 0.3620(5) 0.2528(5)
H1D H 0.35780 0.38760 0.27610
C2D C 0.4359(5) 0.3641(5) 0.2520(5)
H2D H 0.45490 0.39070 0.27510
C3D C 0.4684(4) 0.3267(4) 0.2166(4)
C4D C 0.4369(5) 0.2898(4) 0.1828(4)
H3D H 0.45640 0.26490 0.15820
C5D C 0.3760(5) 0.2881(4) 0.1839(4)
H4D H 0.35540 0.26330 0.16010
O9CA O 0.7081(3) 0.3240(3) 0.2232(3)
N1CA N 0.6508(4) 0.3240(4) 0.2210(4)
C1CA C 0.6219(5) 0.3620(5) 0.2528(5)
H1CA H 0.64220 0.38760 0.27610
C2CA C 0.5641(5) 0.3641(5) 0.2520(5)
H2CA H 0.54510 0.39070 0.27510
C3CA C 0.5316(4) 0.3267(4) 0.2166(4)
C4CA C 0.5631(5) 0.2898(4) 0.1828(4)
H3CA H 0.54360 0.26490 0.15820
C5CA C 0.6240(5) 0.2881(4) 0.1839(4)
H4CA H 0.64460 0.26330 0.16010
O9H O 0.2232(3) 0.2919(3) 0.3240(3)
N1H N 0.2210(4) 0.3492(4) 0.3240(4)
C1H C 0.2528(5) 0.3781(5) 0.3620(5)
H1H H 0.27610 0.35780 0.38760
C2H C 0.2520(5) 0.4359(5) 0.3641(5)
H2H H 0.27510 0.45490 0.39070
C3H C 0.2166(4) 0.4684(4) 0.3267(4)
C4H C 0.1828(5) 0.4369(4) 0.2898(4)
H3H H 0.15820 0.45640 0.26490
C5H C 0.1839(5) 0.3760(4) 0.2881(4)
H4H H 0.16010 0.35540 0.26330
O9GA O 0.2232(3) 0.7081(3) 0.3240(3)
N1GA N 0.2210(4) 0.6508(4) 0.3240(4)
C1GA C 0.2528(5) 0.6219(5) 0.3620(5)
H1GA H 0.27610 0.64220 0.38760
C2GA C 0.2520(5) 0.5641(5) 0.3641(5)
H2GA H 0.27510 0.54510 0.39070
C3GA C 0.2166(4) 0.5316(4) 0.3267(4)
C4GA C 0.1828(5) 0.5631(4) 0.2898(4)
H3GA H 0.15820 0.54360 0.26490
C5GA C 0.1839(5) 0.6240(4) 0.2881(4)
H4GA H 0.16010 0.64460 0.26330
Cu1M Cu 0.25000 0.25000 0.75000
Cu1N Cu 0.25000 0.75000 0.25000
Cu1O Cu 0.75000 0.25000 0.25000
O9JA O 0.1760(3) 0.2768(3) 0.2081(3)
O9NA O 0.2081(3) 0.1760(3) 0.2768(3)
O9RA O 0.2768(3) 0.2081(3) 0.1760(3)
H5AA H 0.46620 0.13060 0.25030
#END
