
#######################################################################
#
#                 Cambridge Crystallographic Data Centre
#                                CCDC
#
#######################################################################
#
# If this CIF has been generated from an entry in the Cambridge
# Structural Database, then it will include bibliographic, chemical,
# crystal, experimental, refinement or atomic coordinate data resulting
# from the CCDC's data processing and validation procedures.
#
#######################################################################

data_CSD_CIF_ROSZOR
_audit_creation_date 2019-08-20
_audit_creation_method CSD-ConQuest-V1
_database_code_CSD ROSZOR
_database_code_depnum_ccdc_archive 'CCDC 1917762'
_chemical_formula_sum 'C20 H50 N2 O29 P4 Zn4'
_chemical_formula_moiety
;
(C18 H24 O22 P4 Zn4 2-)n,2n(C1 H6 N1 1+),7n(H2 O1)
;
_journal_coden_Cambridge 1147
_journal_volume 19
_journal_year 2019
_journal_page_first 5326
_journal_name_full 'Cryst.Growth Des. '
loop_
_publ_author_name
"Hao-Hao Liu"
"Jie Pan"
"Zhen-Zhen Xue"
"Song-De Han"
"Jin-Hua Li"
"Guo-Ming Wang"
_chemical_name_systematic
;
catena-(bis(methylammonium) 
(\m-biphenyl-4,4'-dicarboxylato)-bis(\m-1-hydroxyethylidene 
diphosphonato)-tetra-aqua-tetra-zinc heptahydrate)
;
_cell_volume   2101.226
_exptl_crystal_colour 'colorless'
_exptl_crystal_density_diffrn 1.846
_exptl_crystal_description 'block'
_diffrn_ambient_temperature 293
_refine_special_details
;
The water molecules were taken into account using PLATON/SQUEEZE.

;
#These two values have been output from a single CSD field.
_refine_ls_R_factor_gt 0.0546
_refine_ls_wR_factor_gt 0.0546
_symmetry_cell_setting monoclinic
_symmetry_space_group_name_H-M 'P 21/c'
_symmetry_Int_Tables_number 14
loop_
_symmetry_equiv_pos_site_id
_symmetry_equiv_pos_as_xyz
1 x,y,z
2 -x,1/2+y,1/2-z
3 -x,-y,-z
4 x,-1/2-y,-1/2+z
_cell_length_a 6.4394(6)
_cell_length_b 28.798(3)
_cell_length_c 11.7113(11)
_cell_angle_alpha 90
_cell_angle_beta 104.643(8)
_cell_angle_gamma 90
_cell_formula_units_Z 2
loop_
_atom_type_symbol
_atom_type_radius_bond
C 0.68
H 0.23
N 0.68
O 0.68
P 1.05
Zn 1.22
loop_
_atom_site_label
_atom_site_type_symbol
_atom_site_fract_x
_atom_site_fract_y
_atom_site_fract_z
C1 C 0.1918(2) 0.30661(5) 0.55024(11)
C2 C 0.2337(3) 0.35594(5) 0.58936(13)
H1 H 0.38068 0.35918 0.63315
H2 H 0.14101 0.36441 0.63852
H3 H 0.20650 0.37587 0.52149
C3 C -0.1020(2) 0.13432(5) 0.38004(12)
C4 C -0.2133(2) 0.09276(5) 0.41193(13)
C5 C -0.4160(4) 0.08280(8) 0.3538(2)
H4 H -0.48297 0.10054 0.28854
C6 C -0.5274(4) 0.04677(8) 0.3888(2)
H5 H -0.66922 0.04163 0.34782
C7 C -0.4376(3) 0.01874(5) 0.48048(13)
C8 C -0.2357(3) 0.02984(6) 0.54147(16)
H6 H -0.16950 0.01265 0.60796
C9 C -0.1270(3) 0.06601(6) 0.50682(15)
H7 H 0.01192 0.07238 0.55053
O1 O 0.22762(15) 0.21821(3) 0.62468(7)
O2 O 0.51136(14) 0.27408(4) 0.73358(8)
O3 O 0.14288(14) 0.27897(3) 0.76200(7)
O4 O -0.08973(14) 0.24818(3) 0.41240(7)
O5 O -0.15299(16) 0.33420(3) 0.37519(8)
O6 O -0.23157(14) 0.29794(3) 0.55420(7)
O7 O 0.31470(16) 0.29231(4) 0.46589(8)
H8 H 0.45069 0.28835 0.50362
O8 O 0.50623(15) 0.19454(4) 0.45838(8)
O9 O -0.17675(15) 0.29496(3) 0.16648(8)
O10 O 0.06404(15) 0.14832(3) 0.45161(9)
O11 O -0.18838(16) 0.15369(3) 0.28259(8)
P1 P 0.27643(5) 0.26702(2) 0.67615(3)
P2 P -0.09150(6) 0.29609(2) 0.46763(3)
Zn1 Zn 0.19368(2) 0.21062(2) 0.44284(2)
Zn2 Zn -0.18757(2) 0.22220(2) 0.22501(2)
C10 C 0.4811(4) 0.10599(7) 0.67567(18)
H9 H 0.58115 0.11967 0.63708
H10 H 0.35485 0.09636 0.61753
H11 H 0.54601 0.07954 0.72069
N1 N 0.4212(2) 0.14067(5) 0.75572(12)
H12 H 0.53757 0.14887 0.81111
H13 H 0.32506 0.12831 0.78961
H14 H 0.36520 0.16561 0.71437
C3B C -0.8980(2) -0.13432(5) 0.61996(12)
C4B C -0.7867(2) -0.09276(5) 0.58807(13)
C5B C -0.5840(4) -0.08280(8) 0.6462(2)
H4B H -0.51703 -0.10054 0.71145
C6B C -0.4726(4) -0.04677(8) 0.6112(2)
H5B H -0.33078 -0.04163 0.65217
C7B C -0.5624(3) -0.01874(5) 0.51952(13)
C8B C -0.7643(3) -0.02984(6) 0.45853(16)
H6B H -0.83050 -0.01265 0.39204
C9B C -0.8730(3) -0.06601(6) 0.49318(15)
H7B H -1.01192 -0.07238 0.44947
O10B O -1.06404(15) -0.14832(3) 0.54839(9)
O11B O -0.81162(16) -0.15369(3) 0.71741(8)
C1B C -1.1918(2) -0.30661(5) 0.44976(11)
C2B C -1.2337(3) -0.35594(5) 0.41064(13)
H1B H -1.38068 -0.35918 0.36685
H2B H -1.14101 -0.36441 0.36148
H3B H -1.20650 -0.37587 0.47851
O1B O -1.22762(15) -0.21821(3) 0.37532(7)
O2B O -1.51136(14) -0.27408(4) 0.26642(8)
O3B O -1.14288(14) -0.27897(3) 0.23800(7)
O4B O -0.91027(14) -0.24818(3) 0.58760(7)
O5B O -0.84701(16) -0.33420(3) 0.62481(8)
O6B O -0.76843(14) -0.29794(3) 0.44580(7)
O7B O -1.31470(16) -0.29231(4) 0.53411(8)
H8B H -1.45069 -0.28835 0.49638
O8B O -1.50623(15) -0.19454(4) 0.54162(8)
O9B O -0.82325(15) -0.29496(3) 0.83352(8)
P1B P -1.27643(5) -0.26702(2) 0.32385(3)
P2B P -0.90850(6) -0.29609(2) 0.53237(3)
Zn1B Zn -1.19368(2) -0.21062(2) 0.55716(2)
Zn2B Zn -0.81243(2) -0.22220(2) 0.77499(2)
O2A O -0.51136(14) -0.22592(4) 0.76642(8)
O2C O -0.48864(14) 0.22592(4) 0.23358(8)
O3A O -1.14288(14) -0.22103(3) 0.73800(7)
O3C O 0.14288(14) 0.22103(3) 0.26200(7)
O6A O -0.76843(14) -0.20206(3) 0.94580(7)
O6C O -0.23157(14) 0.20206(3) 0.05420(7)
Zn1A Zn -1.19368(2) -0.28938(2) 0.05716(2)
Zn1C Zn 0.19368(2) 0.28938(2) 0.94284(2)
Zn2A Zn -1.81243(2) -0.27780(2) 0.27499(2)
Zn2A* Zn -0.81243(2) -0.27780(2) 0.27499(2)
Zn2C Zn -0.18757(2) 0.27780(2) 0.72501(2)
Zn2C* Zn 0.81243(2) 0.27780(2) 0.72501(2)
#END
