
#######################################################################
#
#                 Cambridge Crystallographic Data Centre
#                                CCDC
#
#######################################################################
#
# If this CIF has been generated from an entry in the Cambridge
# Structural Database, then it will include bibliographic, chemical,
# crystal, experimental, refinement or atomic coordinate data resulting
# from the CCDC's data processing and validation procedures.
#
#######################################################################

data_CSD_CIF_ROVBOW
_audit_creation_date 2019-08-20
_audit_creation_method CSD-ConQuest-V1
_database_code_CSD ROVBOW
_database_code_depnum_ccdc_archive 'CCDC 1913184'
_chemical_formula_sum 'C54.5 H73.5 Cd2 N9.5 Na1 O17.5'
_chemical_formula_moiety
;
(C45 H48 Cd2 N6 Na1 O15 1-)n,2.5(C3 H7 N1 O1),C2 H8 N1 1+
;
_journal_coden_Cambridge 1350
_journal_volume 21
_journal_year 2019
_journal_page_first 5470
_journal_name_full 'CrystEngComm '
loop_
_publ_author_name
"P.Verma"
"U.P.Singh"
"R.J.Butcher"
_chemical_name_systematic
;
catena-[dimethylammonium 
bis(\m-N,N-dimethylformamide)-(\m-5,5',5''-[(2,4,6-trimethylbenzene-1,3,5-triy
l)tris(methyleneazanediyl)]tri(benzene-1,3-dicarboxylato))-(N,N-dimethylformam
;
_cell_volume   6375.202
_exptl_crystal_density_diffrn 1.448
_diffrn_ambient_temperature 296.1
_diffrn_special_details
;
twin

;
#These two values have been output from a single CSD field.
_refine_ls_R_factor_gt 0.0692
_refine_ls_wR_factor_gt 0.0692
_symmetry_cell_setting monoclinic
_symmetry_space_group_name_H-M 'P 21/c'
_symmetry_Int_Tables_number 14
loop_
_symmetry_equiv_pos_site_id
_symmetry_equiv_pos_as_xyz
1 x,y,z
2 -x,1/2+y,1/2-z
3 -x,-y,-z
4 x,-1/2-y,-1/2+z
_cell_length_a 16.8360(14)
_cell_length_b 24.094(2)
_cell_length_c 17.7653(15)
_cell_angle_alpha 90
_cell_angle_beta 117.791(3)
_cell_angle_gamma 90
_cell_formula_units_Z 4
loop_
_atom_type_symbol
_atom_type_radius_bond
C 0.68
H 0.23
Cd 1.44
N 0.68
Na 1.66
O 0.68
loop_
_atom_site_label
_atom_site_type_symbol
_atom_site_fract_x
_atom_site_fract_y
_atom_site_fract_z
Cd1 Cd 0.29425(3) 0.94347(2) 0.13676(3)
Cd2 Cd 1.15036(3) 0.60436(2) -0.06299(3)
Na1 Na 0.78909(19) 1.08156(13) -0.28117(17)
O1 O 0.2255(4) 0.6577(2) -0.1268(3)
O2 O 0.2045(3) 0.6936(2) -0.0238(3)
O3 O 0.3593(4) 0.8730(2) 0.1047(4)
O4 O 0.4775(4) 0.8987(2) 0.0874(4)
O5 O 0.3561(3) 0.9214(2) -0.7149(3)
O6 O 0.4228(3) 0.9858(2) -0.7541(3)
O7 O 0.7162(4) 1.0624(2) -0.5373(3)
O8 O 0.7742(3) 1.0329(2) -0.4052(3)
O9 O 0.6677(4) 0.5073(3) -0.5502(3)
O10 O 0.8051(4) 0.4797(3) -0.5069(4)
O11 O 1.0513(4) 0.5777(3) -0.2509(4)
O12 O 1.0105(3) 0.6024(3) -0.1538(3)
N1 N 0.4681(4) 0.7709(3) -0.1416(4)
H1 H 0.51855 0.78803 -0.12293
N2 N 0.5632(4) 0.8844(3) -0.4047(4)
H2 H 0.60008 0.88909 -0.35170
N3 N 0.6772(4) 0.6382(3) -0.3255(4)
H3 H 0.62153 0.62940 -0.35481
C1 C 0.4956(4) 0.7461(3) -0.2603(4)
C2 C 0.4756(5) 0.7909(3) -0.3171(4)
C3 C 0.5264(5) 0.7960(3) -0.3615(4)
C4 C 0.5975(5) 0.7600(3) -0.3459(4)
C5 C 0.6204(5) 0.7187(3) -0.2834(4)
C6 C 0.5682(5) 0.7102(3) -0.2420(4)
C7 C 0.4022(5) 0.8307(3) -0.3311(5)
H4 H 0.39374 0.83182 -0.28129
H5 H 0.34761 0.81878 -0.37899
H6 H 0.41796 0.86697 -0.34201
C8 C 0.6489(6) 0.7655(4) -0.3963(5)
H7 H 0.67839 0.73100 -0.39440
H8 H 0.69287 0.79437 -0.37209
H9 H 0.60800 0.77448 -0.45428
C9 C 0.5854(6) 0.6633(3) -0.1815(6)
H10 H 0.53082 0.64292 -0.19791
H11 H 0.60619 0.67773 -0.12505
H12 H 0.63018 0.63922 -0.18268
C10 C 0.4363(5) 0.7377(3) -0.2177(4)
H13 H 0.37507 0.74808 -0.25680
H14 H 0.43666 0.69886 -0.20329
C11 C 0.4182(5) 0.7756(3) -0.0982(4)
C12 C 0.3509(4) 0.7375(3) -0.1103(4)
H15 H 0.33639 0.70985 -0.15112
C13 C 0.3061(4) 0.7402(3) -0.0635(4)
C14 C 0.3259(5) 0.7824(3) -0.0038(4)
H16 H 0.29480 0.78462 0.02772
C15 C 0.3908(5) 0.8206(3) 0.0086(4)
C16 C 0.4368(5) 0.8171(3) -0.0378(4)
H17 H 0.48138 0.84294 -0.02867
C17 C 0.2404(5) 0.6950(3) -0.0736(5)
C18 C 0.4103(5) 0.8680(3) 0.0726(5)
C19 C 0.4999(5) 0.8392(3) -0.4319(5)
H18 H 0.49789 0.82197 -0.48206
H19 H 0.44039 0.85330 -0.44677
C20 C 0.5633(5) 0.9202(3) -0.4656(4)
C21 C 0.4941(4) 0.9203(3) -0.5504(4)
H20 H 0.44687 0.89533 -0.56633
C22 C 0.4948(4) 0.9563(3) -0.6097(4)
C23 C 0.5663(4) 0.9932(3) -0.5878(4)
H21 H 0.56766 1.01712 -0.62826
C24 C 0.6351(4) 0.9935(3) -0.5049(4)
C25 C 0.6323(5) 0.9574(3) -0.4456(4)
H22 H 0.67872 0.95841 -0.39015
C26 C 0.4198(5) 0.9546(3) -0.6979(4)
C27 C 0.7132(5) 1.0315(3) -0.4807(5)
C28 C 0.7020(5) 0.6833(3) -0.2647(5)
H23 H 0.74789 0.70597 -0.26812
H24 H 0.72648 0.66846 -0.20749
C29 C 0.7409(4) 0.6091(3) -0.3371(4)
C30 C 0.7164(5) 0.5737(3) -0.4065(4)
H25 H 0.65583 0.56969 -0.44475
C31 C 0.7790(5) 0.5443(3) -0.4207(4)
C32 C 0.8691(5) 0.5495(3) -0.3640(4)
H26 H 0.91176 0.53042 -0.37331
C33 C 0.8958(5) 0.5833(3) -0.2935(5)
C34 C 0.8330(5) 0.6121(3) -0.2790(5)
H27 H 0.85190 0.63370 -0.23028
C35 C 0.7475(5) 0.5080(3) -0.4974(5)
C36 C 0.9948(5) 0.5886(3) -0.2284(5)
O13 O 0.1885(4) 0.8796(3) 0.1381(4)
N4 N 0.1303(7) 0.7957(4) 0.1285(8)
C37 C 0.1883(8) 0.8335(4) 0.1254(8)
H28 H 0.23183 0.82038 0.11166
C38 C 0.1615(10) 0.7467(4) 0.1119(11)
H29 H 0.12525 0.71641 0.11346
H30 H 0.22269 0.74095 0.15415
H31 H 0.15842 0.74859 0.05665
C39 C 0.0508(9) 0.8108(7) 0.1339(12)
H32 H 0.00256 0.78646 0.09846
H33 H 0.03485 0.84836 0.11492
H34 H 0.06166 0.80758 0.19174
O14 O 1.1111(5) 0.5941(3) 0.0452(4)
N5 N 1.1606(7) 0.5913(6) 0.1884(5)
C40 C 1.1685(7) 0.6036(6) 0.1186(6)
H35 H 1.22138 0.62049 0.12632
C41 C 1.2252(10) 0.6047(9) 0.2724(7)
H36 H 1.28398 0.60430 0.27620
H37 H 1.22256 0.57787 0.31111
H38 H 1.21287 0.64095 0.28676
C42 C 1.0817(10) 0.5626(8) 0.1793(10)
H39 H 1.05000 0.58547 0.20067
H40 H 1.09892 0.52848 0.21078
H41 H 1.04339 0.55466 0.12022
O15 O 0.8026(4) 1.0032(3) -0.1839(4)
N6 N 0.9230(6) 0.9476(4) -0.1533(6)
C43 C 0.8704(6) 0.9800(4) -0.1321(7)
H42 H 0.88706 0.98473 -0.07469
C44 C 0.8993(10) 0.9383(6) -0.2406(8)
H43 H 0.94966 0.94685 -0.25002
H44 H 0.84958 0.96171 -0.27582
H45 H 0.88270 0.90014 -0.25467
C45 C 1.0005(8) 0.9210(6) -0.0881(10)
H46 H 1.04910 0.92312 -0.10199
H47 H 0.98690 0.88277 -0.08394
H48 H 1.01736 0.93920 -0.03475
O16 O 0.8983(8) 0.6961(4) -0.0048(8)
N7 N 0.8553(7) 0.6084(4) -0.0230(7)
C46 C 0.9013(9) 0.6515(5) -0.0311(8)
H49 H 0.93656 0.64611 -0.05809
C47 C 0.8019(10) 0.6107(7) 0.0175(9)
H50 H 0.74431 0.59462 -0.01858
H51 H 0.79418 0.64871 0.02908
H52 H 0.83024 0.59044 0.07003
C48 C 0.8657(12) 0.5554(5) -0.0557(11)
H53 H 0.80847 0.53728 -0.08410
H54 H 0.90663 0.53267 -0.00950
H55 H 0.88898 0.56119 -0.09522
O17 O 0.5659(6) 0.8798(4) -0.1362(6)
N8 N 0.7017(7) 0.8477(4) -0.1183(7)
C49 C 0.6281(7) 0.8800(5) -0.1529(8)
H56 H 0.62443 0.90519 -0.19412
C50 C 0.7154(11) 0.8088(6) -0.0549(8)
H57 H 0.77132 0.78997 -0.03833
H58 H 0.66723 0.78230 -0.07641
H59 H 0.71693 0.82743 -0.00645
C51 C 0.7680(9) 0.8469(7) -0.1469(10)
H60 H 0.77682 0.80944 -0.15988
H61 H 0.82346 0.86131 -0.10310
H62 H 0.74820 0.86938 -0.19706
O18 O 1.0699(14) 0.6737(9) 0.2660(12)
N9 N 0.9952(12) 0.7294(9) 0.3063(10)
C52 C 1.0684(13) 0.6973(10) 0.3252(13)
H63 H 1.11463 0.69380 0.38053
C53 C 0.9794(16) 0.7542(12) 0.3676(13)
H64 H 0.97193 0.72619 0.40215
H65 H 0.92590 0.77630 0.34085
H66 H 1.02939 0.77751 0.40259
C54 C 0.9250(17) 0.7306(14) 0.2198(12)
H67 H 0.94801 0.74577 0.18388
H68 H 0.87644 0.75327 0.21616
H69 H 0.90373 0.69356 0.20166
N10 N 0.5279(6) 1.0005(4) -0.8409(6)
H70 H 0.48927 1.01742 -0.82743
H71 H 0.50391 0.96821 -0.86529
C55 C 0.6113(8) 0.9904(5) -0.7640(7)
H72 H 0.59945 0.96817 -0.72550
H73 H 0.63715 1.02512 -0.73752
H74 H 0.65240 0.97109 -0.77826
C56 C 0.5426(9) 1.0352(5) -0.9019(8)
H75 H 0.48725 1.03867 -0.95367
H76 H 0.58698 1.01810 -0.91382
H77 H 0.56296 1.07129 -0.87778
Cd1* Cd 0.29425(3) 0.94347(2) -0.86324(3)
Cd1A Cd 0.70575(3) 0.44347(2) -0.63676(3)
Cd1B Cd 0.70575(3) 1.05653(2) -0.13676(3)
Cd2* Cd 0.15036(3) 0.60436(2) -0.06299(3)
Cd2A Cd 0.84964(3) 1.10436(2) -0.43701(3)
Na1A Na 0.21091(19) 0.58156(13) -0.21883(17)
Na1A* Na 1.21091(19) 0.58156(13) -0.21883(17)
Na1B Na 0.21091(19) 0.91844(13) -0.71883(17)
Na1B* Na 0.21091(19) 0.91844(13) 0.28117(17)
O1* O 1.2255(4) 0.6577(2) -0.1268(3)
O1A O 0.7745(4) 1.1577(2) -0.3732(3)
O2* O 1.2045(3) 0.6936(2) -0.0238(3)
O5* O 0.3561(3) 0.9214(2) 0.2851(3)
O5B O 0.6439(3) 1.0786(2) -0.2851(3)
O6* O 0.4228(3) 0.9858(2) 0.2459(3)
O7A O 1.2838(4) 0.5624(2) 0.0373(3)
O8A O 1.2258(3) 0.5329(2) -0.0948(3)
O9A O 0.3323(4) 1.0073(3) 0.0502(3)
O10A O 0.1949(4) 0.9797(3) 0.0069(4)
O11A O 0.9487(4) 1.0777(3) -0.2491(4)
O13B O 0.8115(4) 1.1204(3) -0.1381(4)
O15B O 0.1974(4) 0.9968(3) 0.1839(4)
#END
