
#######################################################################
#
#                 Cambridge Crystallographic Data Centre
#                                CCDC
#
#######################################################################
#
# If this CIF has been generated from an entry in the Cambridge
# Structural Database, then it will include bibliographic, chemical,
# crystal, experimental, refinement or atomic coordinate data resulting
# from the CCDC's data processing and validation procedures.
#
#######################################################################

data_CSD_CIF_ROVPEA
_audit_creation_date 2019-08-20
_audit_creation_method CSD-ConQuest-V1
_database_code_CSD ROVPEA
_database_code_depnum_ccdc_archive 'CCDC 1915563'
_chemical_formula_sum 'C104 H186 Cl16 Fe15 N24 O50'
_chemical_formula_moiety
;
2(C2 H8 N1 1+),n(C84 H114 Cl16 Fe15 N14 O34 2-),8(C2 H5 N1 O1),8(H2 O1)
;
_journal_coden_Cambridge 182
_journal_volume 55
_journal_year 2019
_journal_page_first 10729
_journal_name_full 'Chem.Commun. '
loop_
_publ_author_name
"Li-Dan Lin"
"Zhong Li"
"Dan Zhao"
"Jin-Hua Liu"
"Xin-Xiong Li"
"Shou-Tian Zheng"
_chemical_name_systematic
;
catena-[bis(dimethylammonium) 
bis(\m-oxido)-octakis(\m-2-(oxidomethyl)-2-(pyridin-4-yl)propane-1,3-bis(olato
))-hexakis(N-methylformamide)-bis(aqua)-hexadecakis(chloro)-dodeca-iron(iii)-t
ri-iron(ii) N-methylformamide solvate octahydrate]
;
_cell_volume   4283.121
_exptl_crystal_colour 'brown'
_exptl_crystal_description 'block'
_diffrn_ambient_temperature 175
_refine_special_details
;
The SQUEEZE/PLATON program has been used to model some disorder.

;
#These two values have been output from a single CSD field.
_refine_ls_R_factor_gt 0.0756
_refine_ls_wR_factor_gt 0.0756
_symmetry_cell_setting triclinic
_symmetry_space_group_name_H-M 'P -1'
_symmetry_Int_Tables_number 2
loop_
_symmetry_equiv_pos_site_id
_symmetry_equiv_pos_as_xyz
1 x,y,z
2 -x,-y,-z
_cell_length_a 11.4330(16)
_cell_length_b 14.879(2)
_cell_length_c 25.862(4)
_cell_angle_alpha 88.484(3)
_cell_angle_beta 84.890(3)
_cell_angle_gamma 77.817(3)
_cell_formula_units_Z 1
loop_
_atom_type_symbol
_atom_type_radius_bond
C 0.68
H 0.23
Cl 0.99
Fe 1.52
N 0.68
O 0.68
loop_
_atom_site_label
_atom_site_type_symbol
_atom_site_fract_x
_atom_site_fract_y
_atom_site_fract_z
Fe1 Fe 0.98645(8) 0.38978(6) 0.24721(3)
Fe2 Fe 0.93538(8) 0.24278(6) 0.33400(3)
Fe3 Fe 0.75214(8) 0.30627(6) 0.24797(3)
Fe4 Fe 0.50166(8) 0.74995(6) -0.00787(3)
Fe5 Fe 1.50000 0.50000 0.50000
Cl1 Cl 0.3789(2) 0.6436(2) -0.01170(11)
Cl2 Cl 0.91943(16) 0.24127(13) 0.42258(6)
Cl3 Cl 0.55238(14) 0.36710(12) 0.24778(7)
Cl4 Cl 1.02265(16) 0.53400(11) 0.24791(7)
Cl5 Cl 0.6257(2) 0.8564(2) -0.01065(11)
O1 O 1.6087(6) 0.3666(4) 0.5102(2)
H1 H 1.67880 0.34740 0.48870
H2 H 1.58610 0.32760 0.53610
O2 O 0.7447(3) 0.1715(3) 0.24838(15)
O3 O 0.7627(4) 0.2949(3) 0.32402(16)
O4 O 0.9031(4) 0.1188(3) 0.32373(17)
O5 O 0.8089(4) 0.4235(3) 0.24691(16)
O6 O 0.6140(6) 0.6653(3) -0.0660(2)
O7 O 0.4117(6) 0.8359(4) -0.0654(2)
O8 O 0.9928(3) 0.3751(3) 0.17055(15)
O9 O 0.9696(4) 0.3692(3) 0.32418(16)
O10 O 0.7915(4) 0.3005(3) 0.17125(16)
O11 O 1.1553(3) 0.3209(3) 0.24741(14)
O12 O 1.1111(4) 0.1939(3) 0.32318(16)
O13 O 1.3807(5) 0.4722(4) 0.5622(2)
N1 N 0.3327(6) 0.8643(5) -0.1411(2)
H3 H 0.29420 0.84400 -0.16380
N2 N 0.6014(5) 0.6693(4) 0.0520(2)
N3 N 0.7275(6) 0.6377(5) -0.1398(3)
H4 H 0.77730 0.65760 -0.16180
N4 N 0.4145(8) 0.0556(7) 0.4444(4)
N5 N 1.4019(5) 0.4411(4) 0.4448(2)
N6 N 1.2567(8) 0.5020(6) 0.6337(3)
H5 H 1.20470 0.54280 0.65110
C1 C 0.6948(9) 0.5526(7) -0.1509(4)
H6 H 0.76390 0.51050 -0.16620
H7 H 0.63330 0.56390 -0.17470
H8 H 0.66520 0.52650 -0.11930
C2 C 1.3039(9) 0.5287(6) 0.5900(3)
C3 C 0.538(2) 0.158(2) 0.4165(10)
H9 H 0.53200 0.22160 0.41810
C4 C 1.3444(13) 0.3775(11) 0.4610(6)
H10 H 1.34080 0.36040 0.49580
C5 C 1.2838(14) 0.3319(12) 0.4230(6)
H11 H 1.25870 0.27770 0.43210
C6 C 0.7923(6) 0.4647(4) 0.1541(2)
C7 C 1.3264(11) 0.4336(8) 0.3637(4)
H12 H 1.32660 0.45640 0.32980
C8 C 1.3884(11) 0.4684(8) 0.3988(4)
H13 H 1.42390 0.51700 0.38740
C9 C 0.5436(6) 0.6331(5) 0.0916(3)
H14 H 0.46050 0.65120 0.09650
C10 C 0.7200(7) 0.6465(6) 0.0478(3)
H15 H 0.76080 0.67360 0.02110
C11 C 0.7878(6) 0.5857(6) 0.0801(3)
H16 H 0.87130 0.57370 0.07570
C12 C 1.2281(6) 0.3466(5) 0.2846(2)
H17 H 1.23070 0.41100 0.27900
H18 H 1.30940 0.31120 0.27780
C13 C 1.0564(5) 0.3933(5) 0.3549(2)
H19 H 1.03240 0.38500 0.39130
H20 H 1.05810 0.45770 0.34920
C14 C 1.1867(5) 0.3330(5) 0.3412(2)
C15 C 1.1870(6) 0.2324(4) 0.3533(2)
H21 H 1.26850 0.19710 0.34730
H22 H 1.16150 0.22630 0.38980
C16 C 0.6566(5) 0.1437(4) 0.2843(2)
H23 H 0.65550 0.07990 0.27800
H24 H 0.57810 0.18030 0.27830
C17 C 0.8042(5) 0.0932(4) 0.3541(3)
H25 H 0.81500 0.09820 0.39060
H26 H 0.80420 0.02940 0.34730
C18 C 0.6746(6) 0.2549(4) 0.3543(2)
H27 H 0.59530 0.29010 0.34830
H28 H 0.68540 0.26020 0.39080
C19 C 0.6799(6) 0.1540(5) 0.3424(3)
C20 C 0.5858(6) 0.1186(5) 0.3769(3)
C21 C 0.9285(6) 0.4484(4) 0.1407(2)
H29 H 0.94630 0.43420 0.10410
H30 H 0.95560 0.50440 0.14690
C22 C 0.7603(6) 0.4954(4) 0.2110(2)
H31 H 0.79180 0.54970 0.21650
H32 H 0.67360 0.51160 0.21790
C23 C 0.7441(6) 0.3809(4) 0.1416(3)
H33 H 0.65730 0.39520 0.14810
H34 H 0.76320 0.36740 0.10500
C24 C 1.2664(6) 0.3687(5) 0.3769(3)
C25 C 0.7284(6) 0.5423(4) 0.1197(3)
C26 C 0.4343(14) 0.0321(11) 0.4003(7)
H35 H 0.39190 -0.00920 0.38870
C27 C 0.4847(18) 0.1070(14) 0.4661(8)
H36 H 0.49800 0.11100 0.50080
C28 C 0.6029(6) 0.5694(4) 0.1258(3)
H37 H 0.55940 0.54480 0.15260
C29 C 0.6858(8) 0.6871(5) -0.0983(3)
C30 C 1.2828(13) 0.4143(10) 0.6550(6)
H38 H 1.21080 0.39970 0.67190
H39 H 1.34100 0.41170 0.67980
H40 H 1.31470 0.37070 0.62790
C31 C 0.3553(9) 0.8139(6) -0.0993(3)
C32 C 0.5180(12) 0.0633(9) 0.3647(5)
H41 H 0.52540 0.04330 0.33050
C33 C 0.3678(9) 0.9504(7) -0.1520(4)
H42 H 0.30950 0.98910 -0.17180
H43 H 0.44480 0.93960 -0.17150
H44 H 0.37260 0.98000 -0.11990
Fe6 Fe 0.96708(7) 0.24797(6) 0.15920(3)
Fe7 Fe 1.14973(8) 0.18694(6) 0.24659(3)
Fe8 Fe 0.91418(8) 0.10280(6) 0.24674(3)
Cl6 Cl 0.87804(16) -0.04153(12) 0.24638(8)
O14 O 0.9369(4) 0.1209(3) 0.16997(16)
O15 O 1.0934(4) 0.0694(3) 0.24544(16)
Cl7 Cl 0.98363(17) 0.24969(14) 0.07118(7)
O16 O 1.1392(4) 0.1961(3) 0.17022(16)
O17 O 0.9500(3) 0.2469(3) 0.24755(15)
Cl8 Cl 1.34805(14) 0.12594(12) 0.24528(7)
C34 C 1.1542(6) -0.0001(4) 0.2094(3)
C35 C 1.1447(5) 0.0305(4) 0.1524(3)
H45 H 1.12040 -0.05440 0.21530
H46 H 1.23820 -0.01670 0.21600
C36 C 1.1965(6) 0.1170(4) 0.1396(2)
C37 C 1.0133(5) 0.0490(5) 0.1400(3)
H47 H 1.28130 0.10290 0.14500
H48 H 1.18900 0.13260 0.10330
H49 H 1.00930 0.06500 0.10340
H50 H 0.98330 -0.00700 0.14580
C38 C 1.2223(6) -0.0429(5) 0.1172(3)
C39 C 1.1802(6) -0.0864(6) 0.0789(3)
C40 C 1.2584(7) -0.1487(6) 0.0469(3)
H51 H 1.09880 -0.07390 0.07450
H52 H 1.37670 -0.04730 0.15180
N7 N 1.3762(5) -0.1709(4) 0.0514(2)
H53 H 1.22730 -0.17660 0.02110
C41 C 1.4177(6) -0.1340(5) 0.0909(3)
H54 H 1.49900 -0.15140 0.09580
C42 C 1.3446(6) -0.0709(5) 0.1247(3)
Fe1A Fe 2.01355(8) 0.61022(6) 0.75279(3)
Fe2A Fe 2.06462(8) 0.75722(6) 0.66600(3)
Fe3A Fe 2.24786(8) 0.69373(6) 0.75203(3)
Fe4A Fe 2.49834(8) 0.25005(6) 1.00787(3)
Cl1A Cl 2.6211(2) 0.3564(2) 1.01170(11)
Cl2A Cl 2.08057(16) 0.75873(13) 0.57742(6)
Cl3A Cl 2.44762(14) 0.63290(12) 0.75222(7)
Cl4A Cl 1.97735(16) 0.46600(11) 0.75209(7)
Cl5A Cl 2.3743(2) 0.1436(2) 1.01065(11)
O1A O 1.3913(6) 0.6334(4) 0.4898(2)
H1A H 1.32120 0.65260 0.51130
H2A H 1.41390 0.67240 0.46390
O2A O 2.2553(3) 0.8285(3) 0.75162(15)
O3A O 2.2373(4) 0.7051(3) 0.67598(16)
O4A O 2.0969(4) 0.8812(3) 0.67627(17)
O5A O 2.1911(4) 0.5765(3) 0.75309(16)
O6A O 2.3860(6) 0.3347(3) 1.0660(2)
O7A O 2.5883(6) 0.1641(4) 1.0654(2)
O8A O 2.0072(3) 0.6249(3) 0.82945(15)
O9A O 2.0304(4) 0.6308(3) 0.67582(16)
O10A O 2.2085(4) 0.6995(3) 0.82875(16)
O11A O 1.8447(3) 0.6791(3) 0.75259(14)
O12A O 1.8889(4) 0.8061(3) 0.67682(16)
O13A O 1.6193(5) 0.5278(4) 0.4378(2)
N1A N 2.6673(6) 0.1357(5) 1.1411(2)
H3A H 2.70580 0.15600 1.16380
N2A N 2.3986(5) 0.3307(4) 0.9480(2)
N3A N 2.2725(6) 0.3623(5) 1.1398(3)
H4A H 2.22270 0.34240 1.16180
N4A N 2.5855(8) 0.9444(7) 0.5556(4)
N5A N 1.5981(5) 0.5589(4) 0.5552(2)
N6A N 1.7433(8) 0.4980(6) 0.3663(3)
H5A H 1.79530 0.45720 0.34890
C1A C 2.3052(9) 0.4474(7) 1.1509(4)
H6A H 2.23610 0.48950 1.16620
H7A H 2.36670 0.43610 1.17470
H8A H 2.33480 0.47350 1.11930
C2A C 1.6961(9) 0.4713(6) 0.4100(3)
C3A C 2.462(2) 0.842(2) 0.5835(10)
H9A H 2.46800 0.77840 0.58190
C4A C 1.6556(13) 0.6225(11) 0.5390(6)
H10A H 1.65920 0.63960 0.50420
C5A C 1.7162(14) 0.6681(12) 0.5770(6)
H11A H 1.74130 0.72230 0.56790
C6A C 2.2077(6) 0.5353(4) 0.8459(2)
C7A C 1.6736(11) 0.5664(8) 0.6363(4)
H12A H 1.67340 0.54360 0.67020
C8A C 1.6116(11) 0.5316(8) 0.6012(4)
H13A H 1.57610 0.48300 0.61260
C9A C 2.4564(6) 0.3669(5) 0.9084(3)
H14A H 2.53950 0.34880 0.90350
C10A C 2.2800(7) 0.3535(6) 0.9522(3)
H15A H 2.23920 0.32640 0.97890
C11A C 2.2122(6) 0.4143(6) 0.9199(3)
H16A H 2.12870 0.42630 0.92430
C12A C 1.7719(6) 0.6534(5) 0.7154(2)
H17A H 1.76930 0.58900 0.72100
H18A H 1.69060 0.68880 0.72220
C13A C 1.9436(5) 0.6067(5) 0.6451(2)
H19A H 1.96760 0.61500 0.60870
H20A H 1.94190 0.54230 0.65080
C14A C 1.8133(5) 0.6670(5) 0.6588(2)
C15A C 1.8130(6) 0.7676(4) 0.6467(2)
H21A H 1.73150 0.80290 0.65270
H22A H 1.83850 0.77370 0.61020
C16A C 2.3434(5) 0.8563(4) 0.7157(2)
H23A H 2.34450 0.92010 0.72200
H24A H 2.42190 0.81970 0.72170
C17A C 2.1958(5) 0.9068(4) 0.6459(3)
H25A H 2.18500 0.90180 0.60940
H26A H 2.19580 0.97060 0.65270
C18A C 2.3254(6) 0.7451(4) 0.6457(2)
H27A H 2.40470 0.70990 0.65170
H28A H 2.31460 0.73980 0.60920
C19A C 2.3201(6) 0.8460(5) 0.6576(3)
C20A C 2.4142(6) 0.8814(5) 0.6231(3)
C21A C 2.0715(6) 0.5516(4) 0.8593(2)
H29A H 2.05370 0.56580 0.89590
H30A H 2.04440 0.49560 0.85310
C22A C 2.2397(6) 0.5046(4) 0.7890(2)
H31A H 2.20820 0.45030 0.78350
H32A H 2.32640 0.48840 0.78210
C23A C 2.2559(6) 0.6191(4) 0.8584(3)
H33A H 2.34270 0.60480 0.85190
H34A H 2.23680 0.63260 0.89500
C24A C 1.7336(6) 0.6313(5) 0.6231(3)
C25A C 2.2716(6) 0.4577(4) 0.8803(3)
C26A C 2.5657(14) 0.9679(11) 0.5997(7)
H35A H 2.60810 1.00920 0.61130
C27A C 2.5153(18) 0.8930(14) 0.5339(8)
H36A H 2.50200 0.88900 0.49920
C28A C 2.3971(6) 0.4306(4) 0.8742(3)
H37A H 2.44060 0.45520 0.84740
C29A C 2.3142(8) 0.3129(5) 1.0983(3)
C30A C 1.7172(13) 0.5857(10) 0.3450(6)
H38A H 1.78920 0.60030 0.32810
H39A H 1.65900 0.58830 0.32020
H40A H 1.68530 0.62930 0.37210
C31A C 2.6447(9) 0.1861(6) 1.0993(3)
C32A C 2.4820(12) 0.9367(9) 0.6353(5)
H41A H 2.47460 0.95670 0.66950
C33A C 2.6322(9) 0.0496(7) 1.1520(4)
H42A H 2.69050 0.01090 1.17180
H43A H 2.55520 0.06040 1.17150
H44A H 2.62740 0.02000 1.11990
Fe6A Fe 2.03292(7) 0.75203(6) 0.84080(3)
Fe7A Fe 1.85027(8) 0.81306(6) 0.75341(3)
Fe8A Fe 2.08582(8) 0.89720(6) 0.75326(3)
Cl6A Cl 2.12196(16) 1.04153(12) 0.75362(8)
O14A O 2.0631(4) 0.8791(3) 0.83003(16)
O15A O 1.9066(4) 0.9306(3) 0.75456(16)
Cl7A Cl 2.01637(17) 0.75031(14) 0.92882(7)
O16A O 1.8608(4) 0.8039(3) 0.82978(16)
O17A O 2.0500(3) 0.7531(3) 0.75245(15)
Cl8A Cl 1.65195(14) 0.87406(12) 0.75472(7)
C34A C 1.8458(6) 1.0001(4) 0.7906(3)
C35A C 1.8553(5) 0.9695(4) 0.8476(3)
H45A H 1.87960 1.05440 0.78470
H46A H 1.76180 1.01670 0.78400
C36A C 1.8035(6) 0.8830(4) 0.8604(2)
C37A C 1.9867(5) 0.9510(5) 0.8600(3)
H47A H 1.71870 0.89710 0.85500
H48A H 1.81100 0.86740 0.89670
H49A H 1.99070 0.93500 0.89660
H50A H 2.01670 1.00700 0.85420
C38A C 1.7777(6) 1.0429(5) 0.8828(3)
C39A C 1.8198(6) 1.0864(6) 0.9211(3)
C40A C 1.7416(7) 1.1487(6) 0.9531(3)
H51A H 1.90120 1.07390 0.92550
H52A H 1.62330 1.04730 0.84820
N7A N 1.6238(5) 1.1709(4) 0.9486(2)
H53A H 1.77270 1.17660 0.97890
C41A C 1.5823(6) 1.1340(5) 0.9091(3)
H54A H 1.50100 1.15140 0.90420
C42A C 1.6554(6) 1.0709(5) 0.8753(3)
Fe4* Fe 1.50166(8) -0.25005(6) -0.00787(3)
Fe4A* Fe 1.49834(8) 1.25005(6) 1.00787(3)
N7* N 0.3762(5) 0.8291(4) 0.0514(2)
N7A* N 2.6238(5) 0.1709(4) 0.9486(2)
#END
