
#######################################################################
#
#                 Cambridge Crystallographic Data Centre
#                                CCDC
#
#######################################################################
#
# If this CIF has been generated from an entry in the Cambridge
# Structural Database, then it will include bibliographic, chemical,
# crystal, experimental, refinement or atomic coordinate data resulting
# from the CCDC's data processing and validation procedures.
#
#######################################################################

data_CSD_CIF_ROZWAF
_audit_creation_date 2010-01-21
_audit_creation_method CSD-ConQuest-V1
_database_code_CSD ROZWAF
_database_code_depnum_ccdc_archive 'CCDC 716734'
_chemical_formula_sum 'C64 H126 Cd4 N16 O39 S4'
_chemical_formula_moiety
;
(C16 H28 Cd1 N4 O4 1+)2n,n(C16 H26 Cd1 N4 O7 S1 1+),n(C16 H24 Cd1 N4 O10 S2 
1-),n(O4 S1 2-),10n(H2 O1)
;
_journal_coden_Cambridge 119
_journal_volume 927
_journal_year 2009
_journal_page_first 101
_journal_name_full 'J.Mol.Struct. '
loop_
_publ_author_name
"G.A.Farnum"
"D.P.Martin"
"R.M.Supkowski"
"R.L.LaDuca"
_chemical_name_systematic
;
catena-(bis((\m~2~-1,4-bis(4-Pyridinylmethyl)piperazine-N,N')-tetra-aqua-cadmi
um) 
(\m~2~-1,4-bis(4-pyridinylmethyl)piperazine-N,N')-triaqua-(sulfato-O)-cadmium 
(\m~2~-1,4-bis(4-pyridinylmethyl)piperazine-N,N')-diaqua-bis(sulfato-O)-cadmiu
m sulfate decahydrate)
;
_cell_volume   4669.891
_exptl_crystal_colour 'colorless'
_exptl_crystal_density_diffrn 1.647
_exptl_special_details
;
luminescent

;
_exptl_crystal_description 'block'
_exptl_crystal_preparation 'water/acetone'
_diffrn_ambient_temperature 173
_diffrn_special_details
;
racemic twin

;
#These two values have been output from a single CSD field.
_refine_ls_R_factor_gt 0.0497
_refine_ls_wR_factor_gt 0.0497
_symmetry_cell_setting monoclinic
_symmetry_space_group_name_H-M 'P 21'
_symmetry_Int_Tables_number 4
loop_
_symmetry_equiv_pos_site_id
_symmetry_equiv_pos_as_xyz
1 x,y,z
2 -x,1/2+y,-z
_cell_length_a 17.110(3)
_cell_length_b 16.215(3)
_cell_length_c 17.317(3)
_cell_angle_alpha 90
_cell_angle_beta 103.590(2)
_cell_angle_gamma 90
_cell_formula_units_Z 2
loop_
_atom_type_symbol
_atom_type_radius_bond
C 0.68
H 0.23
Cd 1.44
N 0.68
O 0.68
S 1.02
loop_
_atom_site_label
_atom_site_type_symbol
_atom_site_fract_x
_atom_site_fract_y
_atom_site_fract_z
Cd1 Cd 0.74643(3) 0.71793(3) 0.97575(3)
Cd2 Cd 0.50418(3) 0.37834(3) 0.74459(3)
Cd3 Cd 1.00451(3) 0.96359(3) 0.25265(3)
Cd4 Cd 0.24041(3) 0.64228(3) 0.46904(3)
S1 S 0.78036(12) 0.75946(13) 1.18089(11)
S2 S 0.71103(11) 0.57527(12) 0.73147(12)
S3 S 0.28339(11) 0.58892(13) 0.67535(11)
S4 S 0.21339(9) 0.71040(11) 0.27099(9)
O1 O 0.7729(3) 0.7062(4) 1.1115(3)
O2 O 0.3795(3) 0.1392(4) 0.7217(3)
H1 H 0.338(3) 0.166(4) 0.732(4)
H2 H 0.366(4) 0.126(4) 0.6709(16)
O3 O 0.7114(4) 0.7507(4) 1.2153(4)
O4 O 0.6341(3) 1.1461(4) 0.8557(3)
H3 H 0.67520 1.15350 0.83690
H4 H 0.63330 1.09500 0.86630
O5 O 0.7827(3) 0.8472(4) 1.1529(3)
O6 O 0.8597(3) 0.7057(4) 0.6552(3)
H5 H 0.850(4) 0.681(4) 0.606(2)
H6 H 0.819(3) 0.682(4) 0.672(4)
O7 O 0.8549(4) 0.7403(5) 1.2353(3)
O8 O 0.1182(4) 0.7033(4) 0.7755(3)
H7 H 0.154(3) 0.680(5) 0.752(3)
H8 H 0.143(4) 0.697(5) 0.8255(15)
O9 O 0.7134(3) 0.7550(3) 0.8453(3)
H9 H 0.716(3) 0.7030(11) 0.820(2)
H10 H 0.72730 0.80680 0.83260
O10 O 0.8585(4) 0.8820(4) 0.6245(3)
H11 H 0.908(2) 0.902(4) 0.636(5)
H12 H 0.862(4) 0.8304(19) 0.640(4)
O11 O 0.6318(3) 0.9756(3) 0.8916(3)
H13 H 0.5848(11) 0.957(3) 0.866(2)
H14 H 0.67000 0.95150 0.87340
O12 O 0.7691(4) 0.5816(4) 0.9496(3)
H15 H 0.750(4) 0.565(4) 0.900(2)
H16 H 0.751(4) 0.631(2) 0.961(4)
O13 O 0.7204(4) 0.8566(4) 1.0006(4)
H17 H 0.730(5) 0.870(5) 1.0521(15)
H18 H 0.690(4) 0.896(3) 0.977(4)
O14 O 0.3362(4) 0.8127(4) 0.6126(3)
O15 O 1.1747(4) 1.0264(6) -0.1006(4)
H19 H 1.19220 1.04320 -0.05320
H20 H 1.1229(18) 1.017(7) -0.117(4)
O16 O 0.7186(3) 0.5230(3) 0.8032(3)
O17 O 0.7545(4) 0.9118(4) 0.8286(4)
O18 O 0.7631(3) 0.6478(3) 0.7523(3)
O19 O 0.7365(4) 0.5270(4) 0.6690(3)
O20 O 0.7519(4) 0.9792(4) 0.6865(4)
O21 O 0.4985(4) 0.5168(3) 0.7236(3)
H21 H 0.540(2) 0.550(3) 0.726(4)
H22 H 0.459(2) 0.550(3) 0.729(4)
O22 O 0.6277(3) 0.6012(4) 0.7067(4)
O23 O 0.3675(3) 0.3778(4) 0.7332(3)
H23 H 0.34110 0.41660 0.70580
H24 H 0.339(3) 0.347(3) 0.756(4)
O24 O 0.5094(4) 0.2393(3) 0.7620(4)
H25 H 0.479(3) 0.196(3) 0.745(4)
H26 H 0.551(3) 0.217(4) 0.796(4)
O25 O 0.6421(3) 0.3759(4) 0.7625(3)
H27 H 0.681(3) 0.342(3) 0.756(4)
H28 H 0.660(4) 0.4269(17) 0.760(5)
O26 O 0.8684(3) 0.9676(4) 0.2427(4)
H29 H 0.842(4) 0.921(2) 0.239(5)
H30 H 0.836(3) 1.010(3) 0.244(5)
O27 O 0.9900(3) 0.8229(3) 0.2286(4)
H31 H 0.990(4) 0.8756(13) 0.223(4)
H32 H 0.944(2) 0.801(4) 0.231(4)
O28 O 1.0141(4) 1.1037(3) 0.2680(4)
H33 H 0.972(2) 1.134(4) 0.262(4)
H34 H 1.057(2) 1.129(4) 0.296(4)
O29 O 1.1362(3) 0.9311(3) 0.2572(3)
H35 H 1.17550 0.96110 0.28020
H36 H 1.149(3) 0.8783(15) 0.254(4)
O30 O 0.2686(3) 0.6482(4) 0.6069(3)
O31 O 0.2825(3) 0.5032(3) 0.6448(3)
O32 O 0.2207(4) 0.6002(4) 0.7186(3)
O33 O 0.3635(4) 0.6053(4) 0.7269(3)
O34 O 0.2602(3) 0.7848(4) 0.4618(4)
H37 H 0.288(4) 0.808(4) 0.505(2)
H38 H 0.272(4) 0.810(4) 0.421(2)
O35 O 0.2144(4) 0.5033(4) 0.4883(3)
H39 H 0.214(4) 0.458(3) 0.463(3)
H40 H 0.239(4) 0.502(4) 0.5381(16)
O36 O 0.2066(2) 0.6473(3) 0.3315(2)
O37 O 0.2773(3) 0.7692(3) 0.3090(3)
O38 O 0.1369(3) 0.7529(4) 0.2446(3)
O39 O 0.2351(3) 0.6683(3) 0.2046(3)
N1 N 0.8814(4) 0.7402(4) 0.9769(4)
N2 N 1.1730(3) 0.7481(3) 0.9465(3)
N3 N 1.3193(3) 0.6508(4) 0.9743(3)
N4 N 1.6171(4) 0.6746(4) 0.9727(4)
N5 N 0.4807(4) 0.3585(4) 0.6081(3)
N6 N 0.4941(4) 0.3265(4) 0.3160(4)
N7 N 0.5236(4) 0.4108(4) 0.1779(3)
N8 N 0.5284(4) 0.4008(4) -0.1198(3)
N9 N 0.9855(4) 0.9847(4) 0.1170(4)
N10 N 1.0022(4) 1.0195(4) -0.1734(3)
N11 N 1.0221(4) 0.9346(4) -0.3143(4)
N12 N 1.0297(4) 0.9457(4) -0.6100(3)
N13 N 0.3719(3) 0.6117(4) 0.4662(3)
N14 N 0.6686(3) 0.5986(4) 0.4453(4)
N15 N 0.8148(3) 0.6947(4) 0.4853(4)
N16 N 1.1103(3) 0.6747(3) 0.4732(3)
C1 C 0.9090(4) 0.7311(5) 0.9112(4)
H41 H 0.87410 0.71250 0.86490
C2 C 0.9880(4) 0.7484(4) 0.9100(4)
H42 H 1.00570 0.74090 0.86370
C3 C 1.0402(4) 0.7769(4) 0.9780(4)
C4 C 1.0115(5) 0.7843(5) 1.0470(5)
H43 H 1.04540 0.80130 1.09460
C5 C 0.9326(5) 0.7658(5) 1.0429(4)
H44 H 0.91360 0.77150 1.08870
C6 C 1.1251(4) 0.8066(5) 0.9800(5)
H45 H 1.12180 0.85810 0.95100
H46 H 1.15250 0.81770 1.03480
C7 C 1.1831(4) 0.6715(4) 0.9922(4)
H47 H 1.13110 0.64520 0.98650
H48 H 1.20380 0.68420 1.04800
C8 C 1.2393(4) 0.6129(5) 0.9657(5)
H49 H 1.24430 0.56290 0.99730
H50 H 1.21760 0.59800 0.91060
C9 C 1.2538(4) 0.7852(5) 0.9533(5)
H51 H 1.27600 0.80110 1.00810
H52 H 1.24850 0.83470 0.92100
C10 C 1.3108(4) 0.7262(5) 0.9271(4)
H53 H 1.29040 0.71280 0.87140
H54 H 1.36290 0.75220 0.93310
C11 C 1.3725(4) 0.5921(4) 0.9459(4)
H55 H 1.35080 0.58160 0.88980
H56 H 1.37300 0.54020 0.97390
C12 C 1.5738(4) 0.6433(5) 0.9043(4)
H57 H 1.59780 0.63840 0.86160
C13 C 1.4951(4) 0.6180(5) 0.8948(4)
H58 H 1.46700 0.59770 0.84590
C14 C 1.4578(4) 0.6228(4) 0.9576(4)
C15 C 1.5025(4) 0.6522(5) 1.0277(4)
H59 H 1.48020 0.65530 1.07170
C16 C 1.5820(5) 0.6778(5) 1.0341(4)
H60 H 1.61140 0.69780 1.08260
C17 C 0.4161(5) 0.3842(5) 0.5551(4)
H61 H 0.37830 0.41450 0.57390
C18 C 0.4001(4) 0.3696(5) 0.4731(4)
H62 H 0.35500 0.39200 0.43890
C19 C 0.4538(4) 0.3205(4) 0.4442(4)
C20 C 0.5225(5) 0.2961(4) 0.4976(4)
H63 H 0.56130 0.26590 0.48020
C21 C 0.5347(5) 0.3163(5) 0.5776(4)
H64 H 0.58250 0.29980 0.61200
C22 C 0.4375(4) 0.2929(5) 0.3591(4)
H65 H 0.43970 0.23320 0.35770
H66 H 0.38340 0.30950 0.33230
C23 C 0.4782(5) 0.4163(5) 0.3007(4)
H67 H 0.48550 0.44510 0.35100
H68 H 0.42290 0.42390 0.27170
C24 C 0.5330(6) 0.4527(5) 0.2542(4)
H69 H 0.52100 0.51090 0.24520
H70 H 0.58830 0.44780 0.28430
C25 C 0.5411(5) 0.3239(5) 0.1917(5)
H71 H 0.59670 0.31730 0.22040
H72 H 0.53410 0.29570 0.14110
C26 C 0.4862(5) 0.2854(5) 0.2392(4)
H73 H 0.43080 0.28920 0.20900
H74 H 0.49940 0.22740 0.24790
C27 C 0.5772(5) 0.4480(5) 0.1328(4)
H75 H 0.63180 0.43070 0.15640
H76 H 0.57510 0.50740 0.13810
C28 C 0.5961(5) 0.4380(5) -0.0781(4)
H77 H 0.63360 0.45540 -0.10590
C29 C 0.6132(5) 0.4518(5) 0.0017(4)
H78 H 0.66110 0.47750 0.02680
C30 C 0.5582(5) 0.4269(4) 0.0458(4)
C31 C 0.4913(6) 0.3908(5) 0.0045(5)
H79 H 0.45290 0.37420 0.03140
C32 C 0.4766(5) 0.3771(5) -0.0759(4)
H80 H 0.42930 0.35040 -0.10100
C33 C 1.0416(5) 1.0246(5) 0.0886(5)
H81 H 1.08970 1.03830 0.12390
C34 C 1.0317(4) 1.0461(4) 0.0111(4)
H82 H 1.07220 1.07470 -0.00520
C35 C 0.9608(5) 1.0253(5) -0.0443(4)
C36 C 0.9048(4) 0.9816(4) -0.0162(4)
H83 H 0.85780 0.96410 -0.05120
C37 C 0.9176(5) 0.9635(5) 0.0638(4)
H84 H 0.87780 0.93550 0.08160
C38 C 0.9455(5) 1.0563(5) -0.1288(4)
H85 H 0.89080 1.04310 -0.15620
H86 H 0.95110 1.11590 -0.12830
C39 C 0.9796(5) 0.9329(5) -0.1883(5)
H87 H 0.92390 0.92920 -0.21740
H88 H 0.98520 0.90410 -0.13820
C40 C 1.0334(5) 0.8925(5) -0.2363(4)
H89 H 1.08920 0.89660 -0.20750
H90 H 1.01980 0.83460 -0.24430
C41 C 0.9919(5) 1.0626(5) -0.2512(4)
H91 H 1.00600 1.12030 -0.24230
H92 H 0.93610 1.05940 -0.28030
C42 C 1.0449(5) 1.0232(5) -0.2992(4)
H93 H 1.03890 1.05200 -0.34930
H94 H 1.10080 1.02710 -0.27050
C43 C 1.0747(6) 0.8949(5) -0.3591(4)
H95 H 1.07030 0.83560 -0.35370
H96 H 1.12980 0.91010 -0.33470
C44 C 0.9757(5) 0.9664(5) -0.5702(4)
H97 H 0.92800 0.99000 -0.59830
C45 C 0.9858(5) 0.9549(5) -0.4885(4)
H98 H 0.94710 0.97220 -0.46220
C46 C 1.0582(5) 0.9155(5) -0.4470(5)
C47 C 1.1122(5) 0.8940(4) -0.4895(4)
H99 H 1.16000 0.86850 -0.46400
C48 C 1.0974(5) 0.9096(5) -0.5701(5)
H100 H 1.13580 0.89440 -0.59750
C49 C 0.4237(4) 0.5870(5) 0.5334(4)
H101 H 0.40570 0.58480 0.58010
C50 C 0.5020(5) 0.5648(5) 0.5364(4)
H102 H 0.53520 0.54800 0.58440
C51 C 0.5318(4) 0.5671(4) 0.4691(4)
C52 C 0.4795(4) 0.5967(4) 0.3995(4)
H103 H 0.49760 0.60320 0.35330
C53 C 0.4012(4) 0.6161(4) 0.4004(4)
H104 H 0.36680 0.63320 0.35320
C54 C 0.6158(4) 0.5367(5) 0.4706(4)
H105 H 0.64100 0.51890 0.52420
H106 H 0.61180 0.48890 0.43620
C55 C 0.6750(4) 0.6719(4) 0.4965(4)
H107 H 0.69340 0.65590 0.55180
H108 H 0.62270 0.69780 0.48960
C56 C 0.7343(4) 0.7325(5) 0.4744(4)
H109 H 0.71500 0.74930 0.41940
H110 H 0.73810 0.78130 0.50740
C57 C 0.7491(4) 0.5608(5) 0.4552(5)
H111 H 0.74520 0.51220 0.42190
H112 H 0.76900 0.54370 0.51000
C58 C 0.8078(4) 0.6219(4) 0.4329(4)
H113 H 0.86010 0.59620 0.43870
H114 H 0.78860 0.63860 0.37790
C59 C 0.8685(4) 0.7565(5) 0.4629(4)
H115 H 0.87100 0.80410 0.49730
H116 H 0.84540 0.77450 0.40890
C60 C 1.0796(5) 0.6709(5) 0.5380(4)
H117 H 1.11220 0.65040 0.58470
C61 C 1.0036(4) 0.6955(5) 0.5393(4)
H118 H 0.98540 0.69220 0.58580
C62 C 0.9529(4) 0.7263(5) 0.4678(4)
C63 C 0.9835(4) 0.7288(5) 0.4020(4)
H119 H 0.95170 0.74770 0.35420
C64 C 1.0621(4) 0.7033(5) 0.4058(4)
H120 H 1.08180 0.70610 0.36020
Cd1* Cd 1.74643(3) 0.71793(3) 0.97575(3)
Cd2* Cd 0.50418(3) 0.37834(3) -0.25541(3)
Cd3* Cd 1.00451(3) 0.96359(3) -0.74735(3)
Cd4* Cd 1.24041(3) 0.64228(3) 0.46904(3)
N4* N 0.6171(4) 0.6746(4) 0.9727(4)
N8* N 0.5284(4) 0.4008(4) 0.8802(3)
N12* N 1.0297(4) 0.9457(4) 0.3900(3)
N16* N 0.1103(3) 0.6747(3) 0.4732(3)
#END
