
#######################################################################
#
#                 Cambridge Crystallographic Data Centre
#                                CCDC
#
#######################################################################
#
# If this CIF has been generated from an entry in the Cambridge
# Structural Database, then it will include bibliographic, chemical,
# crystal, experimental, refinement or atomic coordinate data resulting
# from the CCDC's data processing and validation procedures.
#
#######################################################################

data_CSD_CIF_RUBGOL
_audit_creation_date 2010-01-21
_audit_creation_method CSD-ConQuest-V1
_database_code_CSD RUBGOL
_database_code_depnum_ccdc_archive 'CCDC 652082'
_chemical_formula_sum 'C36 H24 Cu2 N6 O19 W6'
_chemical_formula_moiety
;
(C36 H24 Cu2 N6 2+)n,n(O19 W6 2-)
;
_journal_coden_Cambridge 971
_journal_volume 11
_journal_year 2009
_journal_page_first 417
_journal_name_full 'Solid State Sciences '
loop_
_publ_author_name
"Jingquan Sha"
"Lin Huang"
"Jun Peng"
"Haijun Pang"
"Aixiang Tian"
"Pengpeng Zhang"
"Yuan Chen"
"Min Zhu"
_chemical_name_systematic
;
catena-(tris(\m~2~-phenazine)-di-copper(i) hexatungstate(vi))
;
_chemical_name_common
;
catena-(tris(mu!2$-phenazine)-di-copper(i) 
(mu!6$-oxo)-dodecakis(mu!2$-oxo)-hexaoxo-hexa-tungsten(vi))
;
_cell_volume   3072.209
_exptl_crystal_density_diffrn 3.364
_exptl_special_details
;
isomorphous with the molybdenum analogue

;
_diffrn_ambient_temperature 293
#These two values have been output from a single CSD field.
_refine_ls_R_factor_gt 0.0485
_refine_ls_wR_factor_gt 0.0485
_symmetry_cell_setting rhombohedral
_symmetry_space_group_name_H-M 'R -3'
_symmetry_Int_Tables_number 148
loop_
_symmetry_equiv_pos_site_id
_symmetry_equiv_pos_as_xyz
1 x,y,z
2 -y,x-y,z
3 -x+y,-x,z
4 2/3+x,1/3+y,1/3+z
5 2/3-y,1/3+x-y,1/3+z
6 2/3-x+y,1/3-x,1/3+z
7 1/3+x,2/3+y,2/3+z
8 1/3-y,2/3+x-y,2/3+z
9 1/3-x+y,2/3-x,2/3+z
10 -x,-y,-z
11 y,-x+y,-z
12 x-y,x,-z
13 -2/3-x,-1/3-y,-1/3-z
14 -2/3+y,-1/3-x+y,-1/3-z
15 -2/3+x-y,-1/3+x,-1/3-z
16 -1/3-x,-2/3-y,-2/3-z
17 -1/3+y,-2/3-x+y,-2/3-z
18 -1/3+x-y,-2/3+x,-2/3-z
_cell_length_a 11.6582(16)
_cell_length_b 11.6582(16)
_cell_length_c 26.101(5)
_cell_angle_alpha 90
_cell_angle_beta 90
_cell_angle_gamma 120
_cell_formula_units_Z 3
loop_
_atom_type_symbol
_atom_type_radius_bond
C 0.68
H 0.23
Cu 1.32
N 0.68
O 0.64
W 1.44
loop_
_atom_site_label
_atom_site_type_symbol
_atom_site_fract_x
_atom_site_fract_y
_atom_site_fract_z
W1 W 0.16777(3) 0.66068(3) 0.218180(12)
Cu1 Cu -0.33330 0.33330 0.17109(7)
O1 O 0.0718(6) 0.5281(5) 0.1665(2)
C1 C -0.3269(7) 0.1536(7) 0.0856(4)
H1 H -0.37660 0.19580 0.08740
O2 O 0.3281(5) 0.7938(6) 0.2497(2)
O3 O 0.0454(6) 0.6566(7) 0.2548(3)
C2 C -0.1861(8) 0.0184(8) 0.0796(3)
H2 H -0.14100 -0.02840 0.07730
C3 C -0.3315(8) 0.0861(8) 0.0430(3)
H3 H -0.38080 0.08620 0.01500
C4 C -0.2462(8) 0.1608(8) 0.1281(3)
N1 N -0.2377(6) 0.2349(6) 0.1691(3)
C5 C -0.2618(8) 0.0147(8) 0.0401(3)
H4 H -0.26870 -0.03420 0.01100
O4 O 0.33330 0.66670 0.16670
C6 C -0.1733(8) 0.0922(7) 0.1251(3)
W1P W 0.327347(30) 0.826243(30) 0.115153(12)
W1Q W 0.173757(30) 0.501103(30) 0.115153(12)
W1A W 0.33932(3) 0.50709(3) 0.218180(12)
W1B W 0.49291(3) 0.83223(3) 0.218180(12)
W1O W 0.498897(30) 0.672653(30) 0.115153(12)
Cu1O Cu -0.00003 0.00003 0.162243(70)
Cu1P Cu -0.00003 0.99993 0.162243(70)
Cu1Q Cu -0.99993 0.00003 0.162243(70)
O1P O 0.194767(600) 0.789633(500) 0.166833(200)
O1B O 0.4563(6) 0.9282(5) 0.1665(2)
O1Q O 0.210367(600) 0.405133(500) 0.166833(200)
O1A O 0.4719(6) 0.5437(5) 0.1665(2)
O1O O 0.594867(600) 0.805233(500) 0.166833(200)
C1O C -0.006433(700) 0.179733(700) 0.247733(400)
C1A C -0.1536(7) 0.5195(7) 0.0856(4)
C1P C -0.179733(700) 0.813833(700) 0.247733(400)
C1B C -0.5195(7) 0.3269(7) 0.0856(4)
C1Q C -0.813833(700) 0.006433(700) 0.247733(400)
H1O H 0.04327 0.13753 0.24593
H1A H -0.19580 0.42760 0.08740
H1P H -0.13753 0.90573 0.24593
H1B H -0.42760 0.37660 0.08740
H1Q H -0.90573 -0.04327 0.24593
O2A O 0.2062(5) 0.5343(6) 0.2497(2)
O2P O 0.460467(500) 0.799033(600) 0.083633(200)
O2Q O 0.200967(500) 0.661433(600) 0.083633(200)
O2O O 0.338567(500) 0.539533(600) 0.083633(200)
O2B O 0.4657(5) 0.6719(6) 0.2497(2)
O3P O 0.323267(600) 0.944533(700) 0.078533(300)
O3Q O 0.055467(600) 0.378733(700) 0.078533(300)
O3A O 0.3434(6) 0.3888(7) 0.2548(3)
O3B O 0.6112(6) 0.9546(7) 0.2548(3)
O3O O 0.621267(600) 0.676733(700) 0.078533(300)
C2O C -0.147233(800) 0.314933(800) 0.253733(300)
C2A C -0.0184(8) 0.7955(8) 0.0796(3)
C2P C -0.314933(800) 0.537833(800) 0.253733(300)
C2B C -0.7955(8) 0.1861(8) 0.0796(3)
C2Q C -0.537833(800) 0.147233(800) 0.253733(300)
H2O H -0.19233 0.36173 0.25603
H2A H 0.02840 0.88740 0.07730
H2P H -0.36173 0.44593 0.25603
H2B H -0.88740 0.14100 0.07730
H2Q H -0.44593 0.19233 0.25603
C3O C -0.001833(800) 0.247233(800) 0.290333(300)
C3A C -0.0861(8) 0.5824(8) 0.0430(3)
C3P C -0.247233(800) 0.750933(800) 0.290333(300)
C3B C -0.5824(8) 0.3315(8) 0.0430(3)
C3Q C -0.750933(800) 0.001833(800) 0.290333(300)
H3O H 0.04747 0.24713 0.31833
H3A H -0.08620 0.53300 0.01500
H3P H -0.24713 0.80033 0.31833
H3B H -0.53300 0.38080 0.01500
H3Q H -0.80033 -0.04747 0.31833
C4O C -0.087133(800) 0.172533(800) 0.205233(300)
C4A C -0.1608(8) 0.5930(8) 0.1281(3)
C4P C -0.172533(800) 0.740333(800) 0.205233(300)
C4B C -0.5930(8) 0.2462(8) 0.1281(3)
C4Q C -0.740333(800) 0.087133(800) 0.205233(300)
N1O N -0.095633(600) 0.098433(600) 0.164233(300)
N1A N -0.2349(6) 0.5274(6) 0.1691(3)
N1P N -0.098433(600) 0.805933(600) 0.164233(300)
N1B N -0.5274(6) 0.2377(6) 0.1691(3)
N1Q N -0.805933(600) 0.095633(600) 0.164233(300)
N1P* N -0.098433(600) -0.194067(600) 0.164233(300)
N1Q* N 0.194067(600) 0.095633(600) 0.164233(300)
C5O C -0.071533(800) 0.318633(800) 0.293233(300)
C5A C -0.0147(8) 0.7235(8) 0.0401(3)
C5P C -0.318633(800) 0.609833(800) 0.293233(300)
C5B C -0.7235(8) 0.2618(8) 0.0401(3)
C5Q C -0.609833(800) 0.071533(800) 0.293233(300)
H4O H -0.06463 0.36753 0.32233
H4A H 0.03420 0.76550 0.01100
H4P H -0.36753 0.56783 0.32233
H4B H -0.76550 0.26870 0.01100
H4Q H -0.56783 0.06463 0.32233
C6O C -0.160033(800) 0.241133(700) 0.208233(300)
C6A C -0.0922(8) 0.7345(7) 0.1251(3)
C6P C -0.241133(800) 0.598833(700) 0.208233(300)
C6B C -0.7345(8) 0.1733(7) 0.1251(3)
C6Q C -0.598833(800) 0.160033(700) 0.208233(300)
#END
