
#######################################################################
#
#                 Cambridge Crystallographic Data Centre
#                                CCDC
#
#######################################################################
#
# If this CIF has been generated from an entry in the Cambridge
# Structural Database, then it will include bibliographic, chemical,
# crystal, experimental, refinement or atomic coordinate data resulting
# from the CCDC's data processing and validation procedures.
#
#######################################################################

data_CSD_CIF_RUBGUR
_audit_creation_date 2010-01-21
_audit_creation_method CSD-ConQuest-V1
_database_code_CSD RUBGUR
_database_code_depnum_ccdc_archive 'CCDC 654379'
_chemical_formula_sum 'C36 H24 Cu2 Mo6 N6 O19'
_chemical_formula_moiety
;
(C36 H24 Cu2 N6 2+)n,n(Mo6 O19 2-)
;
_journal_coden_Cambridge 971
_journal_volume 11
_journal_year 2009
_journal_page_first 417
_journal_name_full 'Solid State Sciences '
loop_
_publ_author_name
"Jingquan Sha"
"Lin Huang"
"Jun Peng"
"Haijun Pang"
"Aixiang Tian"
"Pengpeng Zhang"
"Yuan Chen"
"Min Zhu"
_chemical_name_systematic
;
catena-(tris(\m~2~-phenazine)-di-copper(i) 
(\m~6~-oxo)-dodecakis(\m~2~-oxo)-hexaoxo-hexa-molybdenum(vi))
;
_chemical_name_common
;
catena-(tris(mu!2$-phenazine)-di-copper(i) hexamolybdate(vi))
;
_cell_volume   3088.920
_exptl_special_details
;
isomorphous with the tungsten analogue
density is given as 1.137 with Z=3

;
_diffrn_ambient_temperature 293
#These two values have been output from a single CSD field.
_refine_ls_R_factor_gt 0.0271
_refine_ls_wR_factor_gt 0.0271
_symmetry_cell_setting rhombohedral
_symmetry_space_group_name_H-M 'R -3'
_symmetry_Int_Tables_number 148
loop_
_symmetry_equiv_pos_site_id
_symmetry_equiv_pos_as_xyz
1 x,y,z
2 -y,x-y,z
3 -x+y,-x,z
4 2/3+x,1/3+y,1/3+z
5 2/3-y,1/3+x-y,1/3+z
6 2/3-x+y,1/3-x,1/3+z
7 1/3+x,2/3+y,2/3+z
8 1/3-y,2/3+x-y,2/3+z
9 1/3-x+y,2/3-x,2/3+z
10 -x,-y,-z
11 y,-x+y,-z
12 x-y,x,-z
13 -2/3-x,-1/3-y,-1/3-z
14 -2/3+y,-1/3-x+y,-1/3-z
15 -2/3+x-y,-1/3+x,-1/3-z
16 -1/3-x,-2/3-y,-2/3-z
17 -1/3+y,-2/3-x+y,-2/3-z
18 -1/3+x-y,-2/3+x,-2/3-z
_cell_length_a 11.7022(17)
_cell_length_b 11.7022(17)
_cell_length_c 26.046(5)
_cell_angle_alpha 90
_cell_angle_beta 90
_cell_angle_gamma 120
_cell_formula_units_Z 3
loop_
_atom_type_symbol
_atom_type_radius_bond
C 0.68
H 0.23
Cu 1.32
Mo 1.43
N 0.68
O 0.65
loop_
_atom_site_label
_atom_site_type_symbol
_atom_site_fract_x
_atom_site_fract_y
_atom_site_fract_z
O1 O 1.00000 1.00000 0.00000
C1 C 0.1462(3) 0.4866(3) -0.08130(12)
H1 H 0.23780 0.52910 -0.07980
C2 C -0.0663(3) 0.4263(3) -0.04157(11)
C3 C 0.0744(3) 0.4949(3) -0.03902(11)
C4 C 0.0832(3) 0.4177(3) -0.12369(13)
H2 H 0.13190 0.41540 -0.15150
C5 C -0.1291(3) 0.3518(3) -0.08648(12)
H3 H -0.22070 0.30480 -0.08840
Mo1 Mo 0.83534(3) 0.84100(2) 0.051163(9)
O2 O 0.7389(2) 0.8775(2) 0.00021(9)
O3 O 0.8726(2) 1.0053(2) 0.08300(8)
O4 O 0.7141(3) 0.7240(3) 0.08748(9)
Cu1 Cu 0.33330 0.66670 0.00440(2)
N1 N 0.1387(2) 0.5680(2) 0.00253(9)
C6 C -0.0566(3) 0.3487(3) -0.12631(13)
H4 H -0.09880 0.30090 -0.15570
C1I C -0.1462(3) 0.5134(3) 0.08130(12)
C1A C 0.5134(3) 0.6596(3) -0.08130(12)
C1J C 0.4866(3) 0.3404(3) 0.08130(12)
C1B C 0.3404(3) 0.8538(3) -0.08130(12)
C1K C 0.6596(3) 1.1462(3) 0.08130(12)
H1I H -0.23780 0.47090 0.07980
H1A H 0.47090 0.70870 -0.07980
H1J H 0.52910 0.29130 0.07980
H1B H 0.29130 0.76220 -0.07980
H1K H 0.70870 1.23780 0.07980
C2I C 0.0663(3) 0.5737(3) 0.04157(11)
C2A C 0.5737(3) 0.5074(3) -0.04157(11)
C2J C 0.4263(3) 0.4926(3) 0.04157(11)
C2B C 0.4926(3) 1.0663(3) -0.04157(11)
C2K C 0.5074(3) 0.9337(3) 0.04157(11)
C3I C -0.0744(3) 0.5051(3) 0.03902(11)
C3A C 0.5051(3) 0.5795(3) -0.03902(11)
C3J C 0.4949(3) 0.4205(3) 0.03902(11)
C3B C 0.4205(3) 0.9256(3) -0.03902(11)
C3K C 0.5795(3) 1.0744(3) 0.03902(11)
C4I C -0.0832(3) 0.5823(3) 0.12369(13)
C4A C 0.5823(3) 0.6655(3) -0.12369(13)
C4J C 0.4177(3) 0.3345(3) 0.12369(13)
C4B C 0.3345(3) 0.9168(3) -0.12369(13)
C4K C 0.6655(3) 1.0832(3) 0.12369(13)
H2I H -0.13190 0.58460 0.15150
H2A H 0.58460 0.71650 -0.15150
H2J H 0.41540 0.28350 0.15150
H2B H 0.28350 0.86810 -0.15150
H2K H 0.71650 1.13190 0.15150
C5I C 0.1291(3) 0.6482(3) 0.08648(12)
C5A C 0.6482(3) 0.5191(3) -0.08648(12)
C5J C 0.3518(3) 0.4809(3) 0.08648(12)
C5B C 0.4809(3) 1.1291(3) -0.08648(12)
C5K C 0.5191(3) 0.8709(3) 0.08648(12)
H3I H 0.22070 0.69520 0.08840
H3A H 0.69520 0.47450 -0.08840
H3J H 0.30480 0.52550 0.08840
H3B H 0.52550 1.22070 -0.08840
H3K H 0.47450 0.77930 0.08840
Mo1A Mo 1.15900(3) 0.99434(2) 0.051163(9)
Mo1B Mo 1.00566(3) 1.16466(2) 0.051163(9)
Mo1I Mo 1.16466(3) 1.15900(2) -0.051163(9)
Mo1J Mo 0.84100(3) 1.00566(2) -0.051163(9)
Mo1K Mo 0.99434(3) 0.83534(2) -0.051163(9)
O2K O 0.8614(2) 0.7389(2) -0.00021(9)
O2A O 1.1225(2) 0.8614(2) 0.00021(9)
O2I O 1.2611(2) 1.1225(2) -0.00021(9)
O2B O 1.1386(2) 1.2611(2) 0.00021(9)
O2J O 0.8775(2) 1.1386(2) -0.00021(9)
O3A O 0.9947(2) 0.8673(2) 0.08300(8)
O3B O 1.1327(2) 1.1274(2) 0.08300(8)
O3I O 1.1274(2) 0.9947(2) -0.08300(8)
O3J O 1.0053(2) 1.1327(2) -0.08300(8)
O3K O 0.8673(2) 0.8726(2) -0.08300(8)
O4A O 1.2760(3) 0.9901(3) 0.08748(9)
O4B O 1.0099(3) 1.2859(3) 0.08748(9)
O4I O 1.2859(3) 1.2760(3) -0.08748(9)
O4J O 0.7240(3) 1.0099(3) -0.08748(9)
O4K O 0.9901(3) 0.7141(3) -0.08748(9)
Cu1I Cu -0.33330 0.33330 -0.00440(2)
Cu1J Cu 0.66670 0.33340 -0.00440(2)
Cu1K Cu 0.66660 1.33330 -0.00440(2)
N1I N -0.1387(2) 0.4320(2) -0.00253(9)
N1A N 0.4320(2) 0.5707(2) 0.00253(9)
N1J N 0.5680(2) 0.4293(2) -0.00253(9)
N1B N 0.4293(2) 0.8613(2) 0.00253(9)
N1K N 0.5707(2) 1.1387(2) -0.00253(9)
N1J* N -0.4320(2) 0.4293(2) -0.00253(9)
N1K* N -0.4293(2) 0.1387(2) -0.00253(9)
C6I C 0.0566(3) 0.6513(3) 0.12631(13)
C6A C 0.6513(3) 0.5947(3) -0.12631(13)
C6J C 0.3487(3) 0.4053(3) 0.12631(13)
C6B C 0.4053(3) 1.0566(3) -0.12631(13)
C6K C 0.5947(3) 0.9434(3) 0.12631(13)
H4I H 0.09880 0.69910 0.15570
H4A H 0.69910 0.60030 -0.15570
H4J H 0.30090 0.39970 0.15570
H4B H 0.39970 1.09880 -0.15570
H4K H 0.60030 0.90120 0.15570
#END
