
#######################################################################
#
#                 Cambridge Crystallographic Data Centre
#                                CCDC
#
#######################################################################
#
# If this CIF has been generated from an entry in the Cambridge
# Structural Database, then it will include bibliographic, chemical,
# crystal, experimental, refinement or atomic coordinate data resulting
# from the CCDC's data processing and validation procedures.
#
#######################################################################

data_CSD_CIF_RUCZUL
_audit_creation_date 2010-01-21
_audit_creation_method CSD-ConQuest-V1
_database_code_CSD RUCZUL
_database_code_depnum_ccdc_archive 'CCDC 712930'
_chemical_formula_sum 'C64 H86 N12 Nd2 O30'
_chemical_formula_moiety
;
(C64 H56 N12 Nd2 O16 2-)n,2n(H3 O1 1+),12n(H2 O1)
;
_journal_coden_Cambridge 1220
_journal_volume 15
_journal_year 2009
_journal_page_first 5273
_journal_name_full 'Chem.-Eur.J. '
loop_
_publ_author_name
"C.Marchal"
"Y.Filinchuk"
"Xiao-Yan Chen"
"D.Imbert"
"M.Mazzanti"
_chemical_name_systematic
;
catena-(Dioxonium 
bis(\m~2~-N,N,N',N'-tetrakis((6-carboxylatopyridin-2-yl)methyl)butane-1,4-diam
ine)-di-neodymium(iii) dodecahydrate)
;
_cell_volume   1840.545
_exptl_crystal_colour 'colorless'
_exptl_crystal_density_diffrn 1.617
_diffrn_ambient_temperature 100
_diffrn_radiation_probe x-ray
_diffrn_source synchrotron
#These two values have been output from a single CSD field.
_refine_ls_R_factor_gt 0.0407
_refine_ls_wR_factor_gt 0.0407
_symmetry_cell_setting triclinic
_symmetry_space_group_name_H-M 'P -1'
_symmetry_Int_Tables_number 2
loop_
_symmetry_equiv_pos_site_id
_symmetry_equiv_pos_as_xyz
1 x,y,z
2 -x,-y,-z
_cell_length_a 10.7533(10)
_cell_length_b 12.7831(11)
_cell_length_c 13.8556(16)
_cell_angle_alpha 81.976(8)
_cell_angle_beta 78.009(9)
_cell_angle_gamma 84.563(7)
_cell_formula_units_Z 1
loop_
_atom_type_symbol
_atom_type_radius_bond
C 0.68
H 0.23
N 0.68
Nd 2.01
O 0.68
loop_
_atom_site_label
_atom_site_type_symbol
_atom_site_fract_x
_atom_site_fract_y
_atom_site_fract_z
Nd1 Nd 0.15677(3) 0.20196(2) 0.70969(2)
N1 N 0.1507(5) 0.3038(4) 0.8976(4)
N2 N 0.3511(5) 0.1831(4) 0.8082(4)
N3 N 0.0152(4) 0.1221(4) 0.8844(3)
O1 O 0.2854(4) 0.0297(3) 0.7219(3)
O2 O 0.4671(4) -0.0657(3) 0.7340(3)
O3 O 0.0228(4) 0.0617(3) 0.7076(3)
O4 O -0.1173(4) -0.0601(4) 0.7730(3)
C1 C 0.0455(6) 0.4513(5) 1.0010(5)
H1 H 0.01630 0.40230 1.06190
H2 H 0.13120 0.47190 1.00320
C2 C 0.0534(6) 0.3942(5) 0.9090(5)
H3 H -0.03110 0.36800 0.91150
H4 H 0.07140 0.44670 0.84900
C3 C 0.2775(6) 0.3372(5) 0.8953(5)
H5 H 0.28660 0.34200 0.96420
H6 H 0.28590 0.40880 0.85770
C4 C 0.3837(6) 0.2631(5) 0.8486(5)
C5 C 0.5098(6) 0.2781(5) 0.8499(5)
H7 H 0.52990 0.33570 0.87910
C6 C 0.6059(6) 0.2080(5) 0.8082(5)
H8 H 0.69290 0.21960 0.80450
C7 C 0.5731(6) 0.1211(5) 0.7720(5)
H9 H 0.63650 0.06980 0.74620
C8 C 0.4439(6) 0.1108(4) 0.7743(4)
C9 C 0.3972(6) 0.0167(5) 0.7407(4)
C10 C 0.1195(6) 0.2160(5) 0.9799(5)
H10 H 0.19300 0.16300 0.97850
H11 H 0.10310 0.24450 1.04460
C11 C 0.0051(6) 0.1638(5) 0.9702(4)
C12 C -0.1045(7) 0.1558(5) 1.0445(5)
H12 H -0.11040 0.18640 1.10410
C13 C -0.2041(7) 0.1028(5) 1.0306(5)
H13 H -0.28060 0.09940 1.07930
C14 C -0.1923(6) 0.0548(5) 0.9457(5)
H14 H -0.25770 0.01450 0.93630
C15 C -0.0815(6) 0.0677(5) 0.8744(5)
C16 C -0.0590(6) 0.0188(5) 0.7773(4)
N4 N 0.2324(4) 0.1281(4) 0.5106(4)
N5 N 0.0489(4) 0.2947(3) 0.5562(4)
N6 N 0.3733(4) 0.2510(3) 0.5834(3)
O5 O -0.0482(4) 0.3004(3) 0.7486(3)
O6 O -0.2039(4) 0.4194(3) 0.7181(3)
O7 O 0.2260(4) 0.3860(3) 0.6886(3)
O8 O 0.3789(4) 0.4968(3) 0.6718(3)
C17 C 0.0307(5) 0.0534(4) 0.4923(4)
H15 H 0.02220 0.09210 0.42670
H16 H -0.01310 0.09740 0.54430
C18 C 0.1703(5) 0.0331(4) 0.4979(4)
H17 H 0.17840 -0.02230 0.55420
H18 H 0.21660 0.00510 0.43620
C19 C 0.2145(5) 0.2161(4) 0.4321(4)
H19 H 0.21170 0.18620 0.37040
H20 H 0.28900 0.25980 0.41800
C20 C 0.0948(6) 0.2863(4) 0.4593(5)
C21 C 0.0390(6) 0.3442(5) 0.3838(5)
H21 H 0.07310 0.33640 0.31600
C22 C -0.0664(6) 0.4126(5) 0.4093(5)
H22 H -0.10490 0.45360 0.35930
C23 C -0.1153(6) 0.4205(5) 0.5095(5)
H23 H -0.18830 0.46640 0.52890
C24 C -0.0563(5) 0.3607(4) 0.5800(5)
C25 C -0.1063(5) 0.3613(4) 0.6901(4)
C26 C 0.3711(5) 0.0985(4) 0.4990(4)
H24 H 0.40520 0.08110 0.43060
H25 H 0.38500 0.03450 0.54580
C27 C 0.4409(5) 0.1859(4) 0.5185(4)
C28 C 0.5641(6) 0.2030(5) 0.4710(5)
H26 H 0.60930 0.15610 0.42630
C29 C 0.6219(6) 0.2883(5) 0.4881(5)
H27 H 0.70830 0.29910 0.45800
C30 C 0.5519(6) 0.3585(5) 0.5504(5)
H28 H 0.58860 0.41920 0.56200
C31 C 0.4276(6) 0.3381(4) 0.5950(4)
C32 C 0.3385(5) 0.4125(4) 0.6572(4)
O9 O 0.2970(5) 0.5452(4) 1.0910(4)
H29 H 0.323(6) 0.466(6) 1.110(5)
H30 H 0.235(12) 0.56(1) 1.153(10)
O10 O 0.6143(5) 0.5757(4) 0.6734(4)
H31 H 0.547(7) 0.566(5) 0.670(5)
H32 H 0.67(1) 0.519(9) 0.693(8)
O11 O 0.1700(6) -0.1624(4) 0.7099(4)
H33 H 0.081(11) -0.140(8) 0.715(8)
H34 H 0.199(8) -0.118(7) 0.702(7)
O12 O 0.2357(5) 0.6358(4) 0.7877(4)
H35 H 0.288(8) 0.591(7) 0.738(6)
H36 H 0.223(6) 0.689(6) 0.759(5)
H37 H 0.308(11) 0.630(9) 0.855(10)
O13 O -0.3472(5) -0.1504(4) 0.8449(4)
H38 H -0.426(13) -0.111(11) 0.798(11)
O14 O 0.4086(5) 0.3476(4) 1.1506(4)
H39? H 0.476(4) 0.271(4) 1.218(3)
H40? H 0.331(15) 0.266(12) 1.145(11)
O15 O 0.3513(6) 0.6571(5) 0.9220(5)
H41 H 0.334(6) 0.611(6) 0.963(5)
H42 H 0.466(10) 0.634(7) 0.897(7)
Nd1A Nd -0.15677(3) 0.79804(2) 1.29031(2)
Nd1A* Nd -0.15677(3) -0.20196(2) 0.29031(2)
N1A N -0.1507(5) 0.6962(4) 1.1024(4)
N2A N -0.3511(5) 0.8169(4) 1.1918(4)
N3A N -0.0152(4) 0.8779(4) 1.1156(3)
O1A O -0.2854(4) 0.9703(3) 1.2781(3)
O2A O -0.4671(4) 1.0657(3) 1.2660(3)
O3A O -0.0228(4) 0.9383(3) 1.2924(3)
O4A O 0.1173(4) 1.0601(4) 1.2270(3)
C1A C -0.0455(6) 0.5487(5) 0.9990(5)
H1A H -0.01630 0.59770 0.93810
H2A H -0.13120 0.52810 0.99680
C2A C -0.0534(6) 0.6058(5) 1.0910(5)
H3A H 0.03110 0.63200 1.08850
H4A H -0.07140 0.55330 1.15100
C3A C -0.2775(6) 0.6628(5) 1.1047(5)
H5A H -0.28660 0.65800 1.03580
H6A H -0.28590 0.59120 1.14230
C4A C -0.3837(6) 0.7369(5) 1.1514(5)
C5A C -0.5098(6) 0.7219(5) 1.1501(5)
H7A H -0.52990 0.66430 1.12090
C6A C -0.6059(6) 0.7920(5) 1.1918(5)
H8A H -0.69290 0.78040 1.19550
C7A C -0.5731(6) 0.8789(5) 1.2280(5)
H9A H -0.63650 0.93020 1.25380
C8A C -0.4439(6) 0.8892(4) 1.2257(4)
C9A C -0.3972(6) 0.9833(5) 1.2593(4)
C10A C -0.1195(6) 0.7840(5) 1.0201(5)
H10A H -0.19300 0.83700 1.02150
H11A H -0.10310 0.75550 0.95540
C11A C -0.0051(6) 0.8362(5) 1.0298(4)
C12A C 0.1045(7) 0.8442(5) 0.9555(5)
H12A H 0.11040 0.81360 0.89590
C13A C 0.2041(7) 0.8972(5) 0.9694(5)
H13A H 0.28060 0.90060 0.92070
C14A C 0.1923(6) 0.9452(5) 1.0543(5)
H14A H 0.25770 0.98550 1.06370
C15A C 0.0815(6) 0.9323(5) 1.1256(5)
C16A C 0.0590(6) 0.9812(5) 1.2227(4)
N4A N -0.2324(4) -0.1281(4) 0.4894(4)
N4A* N -0.2324(4) 0.8719(4) 1.4894(4)
N5A N -0.0489(4) -0.2947(3) 0.4438(4)
N5A* N -0.0489(4) 0.7053(3) 1.4438(4)
N6A N -0.3733(4) -0.2510(3) 0.4166(3)
N6A* N -0.3733(4) 0.7490(3) 1.4166(3)
O5A O 0.0482(4) -0.3004(3) 0.2514(3)
O5A* O 0.0482(4) 0.6996(3) 1.2514(3)
O6A O 0.2039(4) -0.4194(3) 0.2819(3)
O7A O -0.2260(4) -0.3860(3) 0.3114(3)
O7A* O -0.2260(4) 0.6140(3) 1.3114(3)
O8A O -0.3789(4) -0.4968(3) 0.3282(3)
C17A C -0.0307(5) -0.0534(4) 0.5077(4)
H15A H -0.02220 -0.09210 0.57330
H16A H 0.01310 -0.09740 0.45570
C18A C -0.1703(5) -0.0331(4) 0.5021(4)
H17A H -0.17840 0.02230 0.44580
H18A H -0.21660 -0.00510 0.56380
C19A C -0.2145(5) -0.2161(4) 0.5679(4)
H19A H -0.21170 -0.18620 0.62960
H20A H -0.28900 -0.25980 0.58200
C20A C -0.0948(6) -0.2863(4) 0.5407(5)
C21A C -0.0390(6) -0.3442(5) 0.6162(5)
H21A H -0.07310 -0.33640 0.68400
C22A C 0.0664(6) -0.4126(5) 0.5907(5)
H22A H 0.10490 -0.45360 0.64070
C23A C 0.1153(6) -0.4205(5) 0.4905(5)
H23A H 0.18830 -0.46640 0.47110
C24A C 0.0563(5) -0.3607(4) 0.4200(5)
C25A C 0.1063(5) -0.3613(4) 0.3099(4)
C26A C -0.3711(5) -0.0985(4) 0.5010(4)
H24A H -0.40520 -0.08110 0.56940
H25A H -0.38500 -0.03450 0.45420
C27A C -0.4409(5) -0.1859(4) 0.4815(4)
C28A C -0.5641(6) -0.2030(5) 0.5290(5)
H26A H -0.60930 -0.15610 0.57370
C29A C -0.6219(6) -0.2883(5) 0.5119(5)
H27A H -0.70830 -0.29910 0.54200
C30A C -0.5519(6) -0.3585(5) 0.4496(5)
H28A H -0.58860 -0.41920 0.43800
C31A C -0.4276(6) -0.3381(4) 0.4050(4)
C32A C -0.3385(5) -0.4125(4) 0.3428(4)
#END
