
#######################################################################
#
#                 Cambridge Crystallographic Data Centre
#                                CCDC
#
#######################################################################
#
# If this CIF has been generated from an entry in the Cambridge
# Structural Database, then it will include bibliographic, chemical,
# crystal, experimental, refinement or atomic coordinate data resulting
# from the CCDC's data processing and validation procedures.
#
#######################################################################

data_CSD_CIF_RUDKEJ
_audit_creation_date 2019-12-18
_audit_creation_method CSD-ConQuest-V1
_database_code_CSD RUDKEJ
_database_code_depnum_ccdc_archive 'CCDC 1883034'
_chemical_formula_sum 'C32 H58 Co2 Mo8 N20 Na2 O35 S4'
_chemical_formula_moiety
;
2(C16 H20 Co1 N10 S2 1+),n(H8 Mo8 Na2 O30 2-),5(H2 O1)
;
_journal_coden_Cambridge 1295
_journal_volume 110
_journal_year 2019
_journal_page_first 107592
_journal_name_full 'Inorg.Chem.Commun. '
loop_
_publ_author_name
"Pei Pei Han"
"Jie Li"
"Cui Li Xing"
"Meng Zhao"
"Qiu Xia Han"
"Ming Xue Li"
_chemical_name_systematic
;
catena-[bis(bis(N-methyl-N'-(1-(pyrazin-2-yl)ethylidene)carbamohydrazonothioat
o)-cobalt(iii)) 
bis(\m-aqua)-octadecakis(\m-oxo)-diaqua-octa-oxo-octa-molybdenum-di-sodium 
pentahydrate]
;
_cell_volume   7030.925
_exptl_crystal_colour 'red'
_exptl_crystal_density_diffrn 2.2
_exptl_special_details
;
Isostructural with the iron analogue.

;
_exptl_crystal_description 'block'
_diffrn_ambient_temperature 296.1
#These two values have been output from a single CSD field.
_refine_ls_R_factor_gt 0.1014
_refine_ls_wR_factor_gt 0.1014
_symmetry_cell_setting monoclinic
_symmetry_space_group_name_H-M 'C 2/c'
_symmetry_Int_Tables_number 15
loop_
_symmetry_equiv_pos_site_id
_symmetry_equiv_pos_as_xyz
1 x,y,z
2 -x,y,1/2-z
3 1/2+x,1/2+y,z
4 1/2-x,1/2+y,1/2-z
5 -x,-y,-z
6 x,-y,-1/2+z
7 -1/2-x,-1/2-y,-z
8 -1/2+x,-1/2-y,-1/2+z
_cell_length_a 21.74(2)
_cell_length_b 12.062(12)
_cell_length_c 26.83(3)
_cell_angle_alpha 90
_cell_angle_beta 92.083(17)
_cell_angle_gamma 90
_cell_formula_units_Z 4
loop_
_atom_type_symbol
_atom_type_radius_bond
C 0.68
H 0.23
Co 1.26
Mo 1.54
N 0.68
Na 1.66
O 0.68
S 1.02
loop_
_atom_site_label
_atom_site_type_symbol
_atom_site_fract_x
_atom_site_fract_y
_atom_site_fract_z
Mo1 Mo 0.01579(4) 0.91606(7) 0.05356(3)
Mo2 Mo -0.08609(4) 0.83526(8) -0.02634(3)
Mo3 Mo 0.01205(5) 0.84154(8) -0.11463(4)
Mo4 Mo 0.11453(4) 0.92159(8) -0.03212(3)
O1 O 0.0126(3) 0.9744(7) 0.1125(2)
Na1 Na 0.0430(2) 0.6207(5) 0.0103(2)
O2 O -0.0724(3) 0.9048(6) 0.0400(3)
O3 O 0.0940(3) 0.9768(6) 0.0361(3)
O4 O 0.0334(3) 0.7815(6) 0.0635(3)
O5 O 0.0096(3) 0.9069(6) -0.0277(2)
O6 O -0.0725(3) 0.8405(6) -0.0955(3)
O7 O -0.1643(4) 0.8271(7) -0.0272(4)
O8 O -0.0600(4) 0.7063(7) -0.0124(3)
O9 O 0.0283(4) 0.7072(8) -0.1004(4)
O10 O 0.0067(5) 0.8460(9) -0.1775(3)
O11 O 0.0894(4) 0.9047(6) -0.0993(3)
O12 O 0.1242(4) 0.7872(7) -0.0158(3)
O13 O 0.1864(4) 0.9727(8) -0.0363(4)
O14 O 0.1416(4) 0.5636(8) 0.0213(4)
O15 O -0.0211(5) 0.5083(8) 0.0583(4)
Co1 Co 0.25799(6) 0.86974(12) -0.20232(5)
S1 S 0.32522(15) 0.7413(3) -0.22302(11)
S2 S 0.26228(13) 0.9483(3) -0.27629(9)
N1 N 0.4434(5) 0.7653(12) -0.2004(4)
H1 H 0.44698 0.70072 -0.21362
N2 N 0.3855(5) 0.9095(9) -0.1777(4)
N3 N 0.3261(4) 0.9492(7) -0.1762(3)
N4 N 0.2138(4) 0.9958(7) -0.1772(3)
N5 N 0.1757(5) 0.9098(8) -0.3453(3)
H2 H 0.14381 0.87538 -0.35722
N6 N 0.1657(4) 0.8090(7) -0.2739(3)
N7 N 0.1889(4) 0.7930(7) -0.2284(3)
N8 N 0.2412(4) 0.7858(7) -0.1429(3)
C1 C 0.4984(6) 0.8261(18) -0.1801(7)
H3 H 0.53465 0.78212 -0.18450
H4 H 0.50231 0.89523 -0.19741
H5 H 0.49385 0.84015 -0.14518
C2 C 0.3882(5) 0.8138(12) -0.1976(4)
C3 C 0.3150(5) 1.0439(9) -0.1541(4)
C4 C 0.3652(7) 1.1111(12) -0.1313(5)
H6 H 0.34830 1.17695 -0.11701
H7 H 0.38638 1.06890 -0.10570
H8 H 0.39346 1.13142 -0.15641
C5 C 0.2523(5) 1.0707(9) -0.1547(4)
C6 C 0.2264(7) 1.1639(11) -0.1352(5)
H9 H 0.25258 1.21666 -0.12070
N9 N 0.1662(5) 1.184(1) -0.1358(4)
C7 C 0.1301(6) 1.1109(11) -0.1587(5)
H10 H 0.08795 1.12380 -0.16093
C8 C 0.1530(5) 1.0170(9) -0.1792(4)
H11 H 0.12619 0.96676 -0.19492
C9 C 0.2030(6) 0.9890(11) -0.3755(5)
H12 H 0.18057 0.99341 -0.40690
H13 H 0.20230 1.05995 -0.35925
H14 H 0.24482 0.96818 -0.38094
C10 C 0.1962(5) 0.8844(9) -0.2993(4)
C11 C 0.1627(5) 0.7221(10) -0.1983(4)
C12 C 0.1084(6) 0.6535(11) -0.2137(5)
H15 H 0.09677 0.60792 -0.18622
H16 H 0.07467 0.70111 -0.22347
H17 H 0.11865 0.60722 -0.24126
C13 C 0.1930(5) 0.7190(9) -0.1495(3)
C14 C 0.1754(6) 0.6516(9) -0.1104(4)
H18 H 0.14091 0.60663 -0.11492
N10 N 0.2060(5) 0.6496(9) -0.0672(3)
C15 C 0.2552(6) 0.7161(10) -0.0628(4)
H19 H 0.27902 0.71521 -0.03333
C16 C 0.2711(5) 0.7838(9) -0.0998(4)
H20 H 0.30451 0.83106 -0.09460
O16 O -0.2079(6) 0.6223(11) 0.0015(5)
O17 O -0.1269(5) 0.6036(9) 0.0901(4)
O18 O 0.50000 0.540(3) -0.25000
H21? H 0.13404 0.77407 -0.28602
H22? H 0.41722 0.94545 -0.16642
Mo1D Mo -0.01579(4) 1.08394(7) -0.05356(3)
Mo2D Mo 0.08609(4) 1.16474(8) 0.02634(3)
Mo3D Mo -0.01205(5) 1.15846(8) 0.11463(4)
Mo4D Mo -0.11453(4) 1.07841(8) 0.03212(3)
O1D O -0.0126(3) 1.0256(7) -0.1125(2)
O2D O 0.0724(3) 1.0952(6) -0.0400(3)
O3D O -0.0940(3) 1.0232(6) -0.0361(3)
O4D O -0.0334(3) 1.2185(6) -0.0635(3)
O5D O -0.0096(3) 1.0931(6) 0.0277(2)
O6D O 0.0725(3) 1.1595(6) 0.0955(3)
O7D O 0.1643(4) 1.1729(7) 0.0272(4)
O8D O 0.0600(4) 1.2937(7) 0.0124(3)
O9D O -0.0283(4) 1.2928(8) 0.1004(4)
O10D O -0.0067(5) 1.1540(9) 0.1775(3)
O11D O -0.0894(4) 1.0953(6) 0.0993(3)
O12D O -0.1242(4) 1.2128(7) 0.0158(3)
O13D O -0.1864(4) 1.0273(8) 0.0363(4)
Na1D Na -0.0430(2) 0.3793(5) -0.0103(2)
O14D O -0.1416(4) 0.4364(8) -0.0213(4)
O15D O 0.0211(5) 0.4917(8) -0.0583(4)
Na1D* Na -0.0430(2) 1.3793(5) -0.0103(2)
O4D* O -0.0334(3) 0.2185(6) -0.0635(3)
O8D* O 0.0600(4) 0.2937(7) 0.0124(3)
O12D* O -0.1242(4) 0.2128(7) 0.0158(3)
#END
