
#######################################################################
#
#                 Cambridge Crystallographic Data Centre
#                                CCDC
#
#######################################################################
#
# If this CIF has been generated from an entry in the Cambridge
# Structural Database, then it will include bibliographic, chemical,
# crystal, experimental, refinement or atomic coordinate data resulting
# from the CCDC's data processing and validation procedures.
#
#######################################################################

data_CSD_CIF_RUFDUT
_audit_creation_date 2015-03-13
_audit_creation_method CSD-ConQuest-V1
_database_code_CSD RUFDUT
_database_code_depnum_ccdc_archive 'CCDC 1040904'
_chemical_formula_sum 'C18 H38 N4 Ni3 O18 P4'
_chemical_formula_moiety
;
(C2 H8 N1 1+)2n,n(C14 H18 N2 Ni3 O16 P4 2-),2n(H2 O1)
;
_journal_coden_Cambridge 1500
_journal_volume 5
_journal_year 2015
_journal_page_first 26410
_journal_name_full 'RSC Advances '
loop_
_publ_author_name
"Tong Sun"
"Cheng-Qi Jiao"
"Wen-Zhu Li"
"Zhen-Gang Sun"
"Chao Ma"
"Yan-Yu Zhu"
"Ming-Xue Ma"
"Hui Luo"
"Xiao-Wen Zhang"
"Mei-Ling Wang"
_chemical_name_systematic
;
catena-[bis(Dimethylammonium) 
bis(\m~5~-(1-hydroxy-2-(pyridin-3-yl)ethane-1,1-diyl)bis(phosphonato))-diaqua-
tri-nickel dihydrate]
;
_cell_volume   2928.081
_exptl_crystal_colour 'green'
_exptl_crystal_density_diffrn 2.038
_exptl_crystal_description 'plate'
_diffrn_ambient_temperature 295
#These two values have been output from a single CSD field.
_refine_ls_R_factor_gt 0.067
_refine_ls_wR_factor_gt 0.067
_symmetry_cell_setting orthorhombic
_symmetry_space_group_name_H-M 'P b c a'
_symmetry_Int_Tables_number 61
loop_
_symmetry_equiv_pos_site_id
_symmetry_equiv_pos_as_xyz
1 x,y,z
2 1/2-x,-y,1/2+z
3 -x,1/2+y,1/2-z
4 1/2+x,1/2-y,-z
5 -x,-y,-z
6 -1/2+x,y,-1/2-z
7 x,-1/2-y,-1/2+z
8 -1/2-x,-1/2+y,z
_cell_length_a 18.7958(9)
_cell_length_b 8.2622(4)
_cell_length_c 18.8550(8)
_cell_angle_alpha 90
_cell_angle_beta 90
_cell_angle_gamma 90
_cell_formula_units_Z 4
loop_
_atom_type_symbol
_atom_type_radius_bond
C 0.68
H 0.23
N 0.68
Ni 1.24
O 0.68
P 1.05
loop_
_atom_site_label
_atom_site_type_symbol
_atom_site_fract_x
_atom_site_fract_y
_atom_site_fract_z
Ni1 Ni 1.06364(4) -0.01364(10) 0.24743(5)
Ni2 Ni 1.00000 0.00000 0.50000
P1 P 0.97321(9) -0.2016(2) 0.36017(9)
P2 P 0.95890(9) 0.1629(2) 0.34609(9)
O1 O 0.9400(3) -0.3601(6) 0.3380(3)
O2 O 0.9641(3) -0.1846(6) 0.4408(3)
O3 O 1.0498(2) -0.1738(6) 0.3360(3)
O4 O 0.9118(3) 0.2985(6) 0.3197(2)
O5 O 1.0345(3) 0.1694(6) 0.3155(3)
O6 O 0.9590(3) 0.1597(6) 0.4267(3)
O7 O 0.94958(11) -0.0460(3) 0.24127(11)
H1 H 0.93930 -0.13730 0.22320
O8 O 1.10260(11) -0.0254(3) 0.45041(11)
H2 H 1.12800 -0.09040 0.47450
H3 H 1.09730 -0.06240 0.40870
N1 N 0.67120(11) 0.0386(3) 0.23347(11)
C1 C 0.92517(11) -0.0369(3) 0.31462(11)
C2 C 0.84451(11) -0.0596(3) 0.32209(11)
H4 H 0.84210 0.03520 0.35140
H5 H 0.82570 -0.12360 0.36030
C3 C 0.79429(11) 0.0189(3) 0.26917(11)
C4 C 0.81403(11) 0.1187(3) 0.21329(11)
H6 H 0.86300 0.14710 0.20590
C5 C 0.76085(11) 0.1769(3) 0.16790(11)
H7 H 0.77340 0.24480 0.12850
C6 C 0.69032(11) 0.1370(3) 0.17971(11)
H8 H 0.65430 0.18030 0.14900
C7 C 0.72272(11) -0.0181(3) 0.27660(11)
H9 H 0.70900 -0.08830 0.31480
O9 O 0.67926(11) 0.2956(3) 0.49275(11)
H10 H 0.69860 0.23550 0.52380
H11 H 0.64900 0.35740 0.51260
N2 N 0.89470(11) 0.4894(3) 0.47227(11)
H12 H 0.92810 0.43060 0.44980
H13 H 0.89230 0.58680 0.45110
C8 C 0.91573(11) 0.5112(3) 0.54782(11)
H14 H 0.96100 0.56470 0.55010
H15 H 0.88060 0.57550 0.57170
H16 H 0.91910 0.40730 0.57040
C9 C 0.82014(11) 0.4014(3) 0.46542(11)
H17 H 0.80820 0.38930 0.41620
H18 H 0.82280 0.29660 0.48730
H19 H 0.78420 0.46480 0.48860
Ni1D Ni 0.93636(4) 0.01364(10) 0.75257(5)
P1D P 1.02679(9) 0.2016(2) 0.63983(9)
P2D P 1.04110(9) -0.1629(2) 0.65391(9)
O1D O 1.0600(3) 0.3601(6) 0.6620(3)
O2D O 1.0359(3) 0.1846(6) 0.5592(3)
O3D O 0.9502(2) 0.1738(6) 0.6640(3)
O4D O 1.0882(3) -0.2985(6) 0.6803(2)
O5D O 0.9655(3) -0.1694(6) 0.6845(3)
O6D O 1.0410(3) -0.1597(6) 0.5733(3)
O7D O 1.05042(11) 0.0460(3) 0.75873(11)
H1D H 1.06070 0.13730 0.77680
O8D O 0.89740(11) 0.0254(3) 0.54959(11)
H2D H 0.87200 0.09040 0.52550
H3D H 0.90270 0.06240 0.59130
N1D N 1.32880(11) -0.0386(3) 0.76653(11)
C1D C 1.07483(11) 0.0369(3) 0.68538(11)
C2D C 1.15549(11) 0.0596(3) 0.67791(11)
H4D H 1.15790 -0.03520 0.64860
H5D H 1.17430 0.12360 0.63970
C3D C 1.20571(11) -0.0189(3) 0.73083(11)
C4D C 1.18597(11) -0.1187(3) 0.78671(11)
H6D H 1.13700 -0.14710 0.79410
C5D C 1.23915(11) -0.1769(3) 0.83210(11)
H7D H 1.22660 -0.24480 0.87150
C6D C 1.30968(11) -0.1370(3) 0.82029(11)
H8D H 1.34570 -0.18030 0.85100
C7D C 1.27728(11) 0.0181(3) 0.72340(11)
H9D H 1.29100 0.08830 0.68520
Ni1A Ni 1.43636(4) 0.01364(10) 0.74743(5)
Ni1B Ni 0.93636(4) -0.51364(10) 0.25257(5)
Ni1B* Ni 0.93636(4) 0.48636(10) 0.25257(5)
Ni1E Ni 0.56364(4) -0.01364(10) 0.25257(5)
Ni1F Ni 1.06364(4) -0.48636(10) 0.74743(5)
Ni1F* Ni 1.06364(4) 0.51364(10) 0.74743(5)
O1B O 1.0600(3) 0.1399(6) 0.1620(3)
O1F O 0.9400(3) -0.1399(6) 0.8380(3)
O4B O 1.0882(3) -0.2015(6) 0.1803(2)
O4F O 0.9118(3) 0.2015(6) 0.8197(2)
N1A N 0.82880(11) -0.0386(3) 0.73347(11)
N1E N 1.17120(11) 0.0386(3) 0.26653(11)
#END
