
#######################################################################
#
#                 Cambridge Crystallographic Data Centre
#                                CCDC
#
#######################################################################
#
# If this CIF has been generated from an entry in the Cambridge
# Structural Database, then it will include bibliographic, chemical,
# crystal, experimental, refinement or atomic coordinate data resulting
# from the CCDC's data processing and validation procedures.
#
#######################################################################

data_CSD_CIF_RUFSET
_audit_creation_date 2019-12-19
_audit_creation_method CSD-ConQuest-V1
_database_code_CSD RUFSET
_database_code_depnum_ccdc_archive 'CCDC 1958813'
_chemical_formula_sum 'C46 H40 N2 O16 U2'
_chemical_formula_moiety
;
(C42 H24 O16 U2 2-)n,2(C2 H8 N1 1+)
;
_journal_coden_Cambridge 222
_journal_volume 49
_journal_year 2020
_journal_page_first 817
_journal_name_full 'Dalton Trans. '
loop_
_publ_author_name
"P.Thuery"
"Y.Atoini"
"J.Harrowfield"
_chemical_name_systematic
;
catena-[bis(dimethylammonium) 
tris(\m-[1,1'-biphenyl]-2,2'-dicarboxylato)-tetrakis(oxido)-di-uranium(vi)]
;
_cell_volume   2224.578
_exptl_crystal_colour 'light yellow'
_exptl_crystal_density_diffrn 2.02
_exptl_crystal_description 'parallelepiped'
_diffrn_ambient_temperature 100
#These two values have been output from a single CSD field.
_refine_ls_R_factor_gt 0.0277
_refine_ls_wR_factor_gt 0.0277
_symmetry_cell_setting triclinic
_symmetry_space_group_name_H-M 'P -1'
_symmetry_Int_Tables_number 2
loop_
_symmetry_equiv_pos_site_id
_symmetry_equiv_pos_as_xyz
1 x,y,z
2 -x,-y,-z
_cell_length_a 9.3807(5)
_cell_length_b 15.4285(7)
_cell_length_c 16.3847(9)
_cell_angle_alpha 76.348(3)
_cell_angle_beta 74.879(3)
_cell_angle_gamma 86.421(3)
_cell_formula_units_Z 2
loop_
_atom_type_symbol
_atom_type_radius_bond
C 0.68
H 0.23
N 0.68
O 0.68
U 1.96
loop_
_atom_site_label
_atom_site_type_symbol
_atom_site_fract_x
_atom_site_fract_y
_atom_site_fract_z
U1 U 0.65210(2) 0.52717(2) 0.71610(2)
U2 U 0.74557(2) 0.93724(2) 0.26206(2)
O1 O 0.6064(3) 0.5073(2) 0.62401(19)
O2 O 0.6979(3) 0.5466(2) 0.80802(18)
O3 O 0.5693(3) 0.8868(2) 0.30690(19)
O4 O 0.9209(3) 0.9874(2) 0.21816(19)
O5 O 0.7578(3) 0.6711(2) 0.62623(19)
O6 O 0.9099(3) 0.5571(2) 0.6271(2)
O7 O 0.7108(3) 0.98813(19) 0.39941(18)
O8 O 0.8162(3) 0.8579(2) 0.39488(18)
O9 O 0.8057(3) 0.39073(19) 0.73555(18)
O10 O 0.5668(3) 0.37743(19) 0.79419(19)
O11 O 1.1399(3) 0.2081(2) 0.75074(19)
O12 O 1.2182(3) 0.1367(2) 0.86302(19)
O13 O 0.3849(3) 0.5228(2) 0.7969(2)
O14 O 0.4772(3) 0.65369(19) 0.72375(19)
O15 O 0.3457(3) 0.9738(2) 0.85815(19)
O16 O 0.3551(3) 0.90849(18) 0.75186(18)
C1 C 1.0030(5) 0.6974(3) 0.5347(3)
C2 C 0.9924(5) 0.7914(3) 0.5119(3)
C3 C 1.1029(5) 0.8379(3) 0.4436(3)
H1 H 1.09690 0.90110 0.42700
C4 C 1.2211(5) 0.7945(3) 0.3992(3)
H2 H 1.29390 0.82780 0.35250
C5 C 1.2329(5) 0.7030(3) 0.4228(3)
H3 H 1.31520 0.67320 0.39380
C6 C 1.1238(5) 0.6552(3) 0.4892(3)
H4 H 1.13100 0.59200 0.50440
C7 C 0.8805(4) 0.8451(3) 0.5621(3)
C8 C 0.7871(5) 0.9094(3) 0.5256(3)
C9 C 0.6978(5) 0.9633(3) 0.5760(3)
H5 H 0.63400 1.00570 0.55130
C10 C 0.7011(5) 0.9559(3) 0.6614(3)
H6 H 0.64140 0.99340 0.69510
C11 C 0.7925(5) 0.8931(3) 0.6966(3)
H7 H 0.79520 0.88750 0.75510
C12 C 0.8798(5) 0.8385(3) 0.6489(3)
H8 H 0.94080 0.79540 0.67530
C13 C 0.8843(5) 0.6397(3) 0.6004(3)
C14 C 0.7733(5) 0.9184(3) 0.4343(3)
C15 C 0.7135(4) 0.2510(3) 0.8334(3)
C16 C 0.8258(5) 0.2243(3) 0.8762(3)
C17 C 0.8339(5) 0.1342(3) 0.9169(3)
H9 H 0.91070 0.11510 0.94510
C18 C 0.7337(5) 0.0726(3) 0.9174(3)
H10 H 0.74140 0.01190 0.94580
C19 C 0.6205(5) 0.1000(3) 0.8759(3)
H11 H 0.55090 0.05780 0.87590
C20 C 0.6099(5) 0.1880(3) 0.8350(3)
H12 H 0.53200 0.20650 0.80760
C21 C 0.9284(5) 0.2894(3) 0.8863(3)
C22 C 1.0807(5) 0.2731(3) 0.8730(3)
C23 C 1.1715(5) 0.3295(3) 0.8919(3)
H13 H 1.27410 0.31710 0.88370
C24 C 1.1125(5) 0.4039(3) 0.9227(3)
H14 H 1.17440 0.44230 0.93580
C25 C 0.9626(5) 0.4218(3) 0.9342(3)
H15 H 0.92230 0.47340 0.95400
C26 C 0.8713(5) 0.3647(3) 0.9167(3)
H16 H 0.76870 0.37720 0.92560
C27 C 0.6969(5) 0.3435(3) 0.7853(3)
C28 C 1.1489(5) 0.2011(3) 0.8290(3)
C29 C 0.2349(5) 0.6525(3) 0.8166(3)
C30 C 0.2454(4) 0.7210(3) 0.8577(3)
C31 C 0.1176(4) 0.7711(3) 0.8825(3)
H17 H 0.12260 0.81920 0.90880
C32 C -0.0148(5) 0.7514(3) 0.8692(3)
H18 H -0.09950 0.78670 0.88540
C33 C -0.0256(5) 0.6803(3) 0.8325(3)
H19 H -0.11770 0.66550 0.82530
C34 C 0.0994(5) 0.6317(3) 0.8065(3)
H20 H 0.09280 0.58320 0.78120
C35 C 0.3798(5) 0.7373(3) 0.8832(3)
C36 C 0.4284(4) 0.8235(3) 0.8780(3)
C37 C 0.5344(5) 0.8355(3) 0.9207(3)
H21 H 0.56280 0.89400 0.91910
C38 C 0.5977(4) 0.7623(3) 0.9652(3)
H22 H 0.66850 0.77070 0.99480
C39 C 0.5587(5) 0.6779(3) 0.9669(3)
H23 H 0.60550 0.62770 0.99540
C40 C 0.4510(4) 0.6657(3) 0.9269(3)
H24 H 0.42430 0.60670 0.92910
C41 C 0.3719(5) 0.6063(3) 0.7779(3)
C42 C 0.3749(5) 0.9048(3) 0.8269(3)
N1 N 0.4064(4) 0.8099(2) 0.6214(2)
H25 H 0.42830 0.76900 0.66640
H26 H 0.43580 0.86430 0.62340
C43 C 0.2440(5) 0.8112(3) 0.6322(3)
H27 H 0.21940 0.85660 0.58490
H28 H 0.19420 0.82540 0.68800
H29 H 0.21150 0.75260 0.63080
C44 C 0.4897(5) 0.7879(3) 0.5383(3)
H30 H 0.45030 0.73300 0.53260
H31 H 0.59430 0.77950 0.53800
H32 H 0.47960 0.83690 0.48970
N2 N 1.1170(4) 0.3772(3) 0.6545(2)
H33 H 1.10510 0.32380 0.69360
H34 H 1.02850 0.39270 0.64210
C45 C 1.1581(6) 0.4440(3) 0.6943(3)
H35 H 1.25850 0.43210 0.70140
H36 H 1.08910 0.44130 0.75120
H37 H 1.15430 0.50350 0.65700
C46 C 1.2241(6) 0.3663(4) 0.5752(3)
H38 H 1.22820 0.42110 0.52990
H39 H 1.19440 0.31640 0.55580
H40 H 1.32170 0.35410 0.58660
U2A U 0.25443(2) 1.06276(2) 0.73794(2)
U2A* U 1.25443(2) 0.06276(2) 0.73794(2)
O11A O 0.8601(3) 0.7919(2) 0.24926(19)
O12A O 0.7818(3) 0.8633(2) 0.13698(19)
O15A O 0.6543(3) 1.0262(2) 0.14185(19)
O16A O 0.6449(3) 1.09151(18) 0.24814(18)
#END
