
#######################################################################
#
#                 Cambridge Crystallographic Data Centre
#                                CCDC
#
#######################################################################
#
# If this CIF has been generated from an entry in the Cambridge
# Structural Database, then it will include bibliographic, chemical,
# crystal, experimental, refinement or atomic coordinate data resulting
# from the CCDC's data processing and validation procedures.
#
#######################################################################

data_CSD_CIF_RUGJIO
_audit_creation_date 2015-03-13
_audit_creation_method CSD-ConQuest-V1
_database_code_CSD RUGJIO
_database_code_depnum_ccdc_archive 'CCDC 1053935'
_chemical_formula_sum 'C5 H9 N2 O8 Sm1'
_chemical_formula_moiety
;
(C4 H4 O8 Sm1 1-)n,C1 H5 N2 1+
;
_journal_coden_Cambridge 1147
_journal_volume 15
_journal_year 2015
_journal_page_first 1119
_journal_name_full 'Cryst.Growth Des. '
loop_
_publ_author_name
"P.Samarasekere"
"Xiqu Wang"
"W.Kaveevivitchai"
"A.J.Jacobson"
_chemical_name_systematic
;
catena-[aminomethaniminium tetrakis(\m~2~-formato)-samarium]
;
_cell_volume   1085.752
_exptl_crystal_colour 'pale yellow'
_exptl_crystal_density_diffrn 2.297
_exptl_crystal_description 'Prism'
_diffrn_ambient_temperature 293
#These two values have been output from a single CSD field.
_refine_ls_R_factor_gt 0.0323
_refine_ls_wR_factor_gt 0.0323
_symmetry_cell_setting orthorhombic
_symmetry_space_group_name_H-M 'C 2 2 21'
_symmetry_Int_Tables_number 20
loop_
_symmetry_equiv_pos_site_id
_symmetry_equiv_pos_as_xyz
1 x,y,z
2 x,-y,-z
3 -x,y,1/2-z
4 -x,-y,1/2+z
5 1/2+x,1/2+y,z
6 1/2+x,1/2-y,-z
7 1/2-x,1/2+y,1/2-z
8 1/2-x,1/2-y,1/2+z
_cell_length_a 6.7668(1)
_cell_length_b 18.7189(3)
_cell_length_c 8.5717(6)
_cell_angle_alpha 90
_cell_angle_beta 90
_cell_angle_gamma 90
_cell_formula_units_Z 4
loop_
_atom_type_symbol
_atom_type_radius_bond
C 0.68
H 0.23
N 0.68
O 0.68
Sm 1.98
loop_
_atom_site_label
_atom_site_type_symbol
_atom_site_fract_x
_atom_site_fract_y
_atom_site_fract_z
Sm1 Sm 0.00000 0.642498(6) 0.75000
O1 O -0.0157(7) 0.54905(13) 0.9327(3)
O2 O 0.3373(3) 0.59341(11) 0.7704(5)
O3 O -0.1771(4) 0.68295(12) 0.9844(3)
O4 O -0.3176(4) 0.75652(13) 1.1528(3)
C1 C 0.50000 0.62371(17) 0.75000
H1 H 0.50000 0.67340 0.75000
C2 C 0.0723(7) 0.50000 1.00000
H2 H 0.20980 0.50000 1.00000
C3 C -0.2334(5) 0.74251(16) 1.0277(4)
H3 H -0.21060 0.78050 0.96020
N1 N 0.1346(6) 0.9370(2) 0.8312(5)
H4 H 0.13880 0.98290 0.83380
H5 H 0.21980 0.91240 0.88270
C4 C 0.00000 0.90502(19) 0.75000
H6 H 0.00000 0.85530 0.75000
O1A O -0.0157(7) 0.45095(13) 1.0673(3)
O2B O 0.6627(3) 0.59341(11) 0.7296(5)
O3B O 0.1771(4) 0.68295(12) 0.5156(3)
O4B O 0.3176(4) 0.75652(13) 0.3472(3)
C3B C 0.2334(5) 0.74251(16) 0.4723(4)
H3B H 0.21060 0.78050 0.53980
Sm1* Sm 1.00000 0.642498(6) 0.75000
Sm1A Sm 0.00000 0.357502(6) 1.25000
Sm1E Sm -0.50000 0.857502(6) 1.25000
Sm1E* Sm 0.50000 0.857502(6) 0.25000
O1B O 0.0157(7) 0.54905(13) 0.5673(3)
O2B* O -0.3373(3) 0.59341(11) 0.7296(5)
O4E O 0.1824(4) 0.74348(13) 0.8472(3)
O4G O -0.1824(4) 0.74348(13) 0.6528(3)
N1B N -0.1346(6) 0.9370(2) 0.6688(5)
H4B H -0.13880 0.98290 0.66620
H5B H -0.21980 0.91240 0.61730
#END
