
#######################################################################
#
#                 Cambridge Crystallographic Data Centre
#                                CCDC
#
#######################################################################
#
# If this CIF has been generated from an entry in the Cambridge
# Structural Database, then it will include bibliographic, chemical,
# crystal, experimental, refinement or atomic coordinate data resulting
# from the CCDC's data processing and validation procedures.
#
#######################################################################

data_CSD_CIF_RUGJUA
_audit_creation_date 2015-03-13
_audit_creation_method CSD-ConQuest-V1
_database_code_CSD RUGJUA
_database_code_depnum_ccdc_archive 'CCDC 1053937'
_chemical_formula_sum 'C5 H9 N2 O8 Tm1'
_chemical_formula_moiety
;
(C4 H4 O8 Tm1 1-)n,C1 H5 N2 1+
;
_journal_coden_Cambridge 1147
_journal_volume 15
_journal_year 2015
_journal_page_first 1119
_journal_name_full 'Cryst.Growth Des. '
loop_
_publ_author_name
"P.Samarasekere"
"Xiqu Wang"
"W.Kaveevivitchai"
"A.J.Jacobson"
_chemical_name_systematic
;
catena-[aminomethaniminium tetrakis(\m~2~-formato)-thulium]
;
_cell_volume   1020.759
_exptl_crystal_colour 'pale yellow'
_exptl_crystal_density_diffrn 2.564
_exptl_crystal_description 'Prism'
_diffrn_ambient_temperature 296
#These two values have been output from a single CSD field.
_refine_ls_R_factor_gt 0.0204
_refine_ls_wR_factor_gt 0.0204
_symmetry_cell_setting orthorhombic
_symmetry_space_group_name_H-M 'C 2 2 21'
_symmetry_Int_Tables_number 20
loop_
_symmetry_equiv_pos_site_id
_symmetry_equiv_pos_as_xyz
1 x,y,z
2 -x,-y,1/2+z
3 -x,y,1/2-z
4 x,-y,-z
5 1/2+x,1/2+y,z
6 1/2-x,1/2-y,1/2+z
7 1/2-x,1/2+y,1/2-z
8 1/2+x,1/2-y,-z
_cell_length_a 6.6375(4)
_cell_length_b 18.2953(10)
_cell_length_c 8.4058(5)
_cell_angle_alpha 90
_cell_angle_beta 90
_cell_angle_gamma 90
_cell_formula_units_Z 4
loop_
_atom_type_symbol
_atom_type_radius_bond
C 0.68
H 0.23
N 0.68
O 0.68
Tm 1.90
loop_
_atom_site_label
_atom_site_type_symbol
_atom_site_fract_x
_atom_site_fract_y
_atom_site_fract_z
Tm1 Tm 0.00000 0.142815(9) 0.25000
O1 O 0.0147(10) 0.05000(18) 0.4292(4)
O2 O 0.3352(5) 0.09485(17) 0.2275(6)
O3 O 0.1795(5) 0.24207(18) 0.1531(4)
O4 O 0.3261(6) 0.31653(18) -0.0191(4)
C1 C 0.50000 0.1260(3) 0.25000
H1 H 0.50000 0.17690 0.25000
C2 C 0.2645(9) 0.2563(3) 0.0238(6)
H2 H 0.28290 0.21770 -0.04650
C3 C -0.0757(11) 0.00000 0.50000
H3 H -0.21580 0.00000 0.50000
C4 C 0.00000 0.4047(3) 0.25000
H4 H 0.00000 0.35390 0.25000
N1 N 0.1379(8) 0.4380(3) 0.1673(6)
H5 H 0.14160 0.48500 0.16510
H6 H 0.22530 0.41310 0.11480
O1C O 0.0147(10) -0.05000(18) 0.5708(4)
O2B O 0.6648(5) 0.09485(17) 0.2725(6)
O3B O -0.1795(5) 0.24207(18) 0.3469(4)
O4B O -0.3261(6) 0.31653(18) 0.5191(4)
C2B C -0.2645(9) 0.2563(3) 0.4762(6)
H2B H -0.28290 0.21770 0.54650
Tm1* Tm 1.00000 0.142815(9) 0.25000
Tm1A Tm 0.00000 -0.142815(9) 0.75000
Tm1E Tm -0.50000 0.357185(9) 0.75000
Tm1E* Tm 0.50000 0.357185(9) -0.25000
O1B O -0.0147(10) 0.05000(18) 0.0708(4)
O2B* O -0.3352(5) 0.09485(17) 0.2725(6)
O4E O 0.1739(6) 0.18347(18) 0.4809(4)
O4G O -0.1739(6) 0.18347(18) 0.0191(4)
N1B N -0.1379(8) 0.4380(3) 0.3327(6)
H5B H -0.14160 0.48500 0.33490
H6B H -0.22530 0.41310 0.38520
#END
