
#######################################################################
#
#                 Cambridge Crystallographic Data Centre
#                                CCDC
#
#######################################################################
#
# If this CIF has been generated from an entry in the Cambridge
# Structural Database, then it will include bibliographic, chemical,
# crystal, experimental, refinement or atomic coordinate data resulting
# from the CCDC's data processing and validation procedures.
#
#######################################################################

data_CSD_CIF_RUGKAH
_audit_creation_date 2015-03-13
_audit_creation_method CSD-ConQuest-V1
_database_code_CSD RUGKAH
_database_code_depnum_ccdc_archive 'CCDC 1053938'
_chemical_formula_sum 'C5 H9 Lu1 N2 O8'
_chemical_formula_moiety
;
(C4 H4 Lu1 O8 1-)n,C1 H5 N2 1+
;
_journal_coden_Cambridge 1147
_journal_volume 15
_journal_year 2015
_journal_page_first 1119
_journal_name_full 'Cryst.Growth Des. '
loop_
_publ_author_name
"P.Samarasekere"
"Xiqu Wang"
"W.Kaveevivitchai"
"A.J.Jacobson"
_chemical_name_systematic
;
catena-[aminomethaniminium tetrakis(\m~2~-formato)-lutetium]
;
_cell_volume   1008.982
_exptl_crystal_colour 'colorless'
_exptl_crystal_density_diffrn 2.634
_exptl_crystal_description 'Prism'
_diffrn_ambient_temperature 293
#These two values have been output from a single CSD field.
_refine_ls_R_factor_gt 0.0332
_refine_ls_wR_factor_gt 0.0332
_symmetry_cell_setting orthorhombic
_symmetry_space_group_name_H-M 'C 2 2 21'
_symmetry_Int_Tables_number 20
loop_
_symmetry_equiv_pos_site_id
_symmetry_equiv_pos_as_xyz
1 x,y,z
2 -x,-y,1/2+z
3 x,-y,-z
4 -x,y,1/2-z
5 1/2+x,1/2+y,z
6 1/2-x,1/2-y,1/2+z
7 1/2+x,1/2-y,-z
8 1/2-x,1/2+y,1/2-z
_cell_length_a 6.6174(9)
_cell_length_b 18.200(3)
_cell_length_c 8.3777(12)
_cell_angle_alpha 90
_cell_angle_beta 90
_cell_angle_gamma 90
_cell_formula_units_Z 4
loop_
_atom_type_symbol
_atom_type_radius_bond
C 0.68
H 0.23
Lu 1.87
N 0.68
O 0.68
loop_
_atom_site_label
_atom_site_type_symbol
_atom_site_fract_x
_atom_site_fract_y
_atom_site_fract_z
Lu1 Lu 0.00000 0.142781(12) 0.25000
O1 O 0.3337(7) 0.0955(3) 0.2703(9)
O2 O -0.0154(11) 0.0506(2) 0.4286(6)
O3 O 0.1737(8) 0.1841(3) 0.0203(7)
O4 O 0.3203(8) 0.2589(3) -0.1530(6)
C1 C 0.2361(11) 0.2440(4) -0.0227(8)
H1 H 0.21950 0.28270 0.04860
C2 C 0.50000 0.1260(5) 0.25000
H2 H 0.50000 0.17710 0.25000
C3 C 0.0765(15) 0.00000 0.50000
H3 H 0.21700 0.00000 0.50000
N1 N 0.6387(11) 0.0616(4) 0.6663(10)
H4 H 0.64170 0.01440 0.66450
H5 H 0.72660 0.08640 0.61330
C4 C 0.50000 0.0958(4) 0.75000
H6 H 0.50000 0.14690 0.75000
O1C O 0.6663(7) 0.0955(3) 0.2297(9)
O2B O -0.0154(11) -0.0506(2) 0.5714(6)
O3C O -0.1737(8) 0.1841(3) 0.4797(7)
O4C O -0.3203(8) 0.2589(3) 0.6530(6)
C1C C -0.2361(11) 0.2440(4) 0.5227(8)
H1C H -0.21950 0.28270 0.45140
Lu1* Lu 1.00000 0.142781(12) 0.25000
Lu1A Lu 0.00000 -0.142781(12) 0.75000
Lu1E Lu -0.50000 0.357219(12) 0.75000
Lu1E* Lu 0.50000 0.357219(12) -0.25000
O1C* O -0.3337(7) 0.0955(3) 0.2297(9)
O2C O 0.0154(11) 0.0506(2) 0.0714(6)
O4E O 0.1797(8) 0.2411(3) 0.3470(6)
O4F O -0.1797(8) 0.2411(3) 0.1530(6)
N1C N 0.3613(11) 0.0616(4) 0.8337(10)
H4C H 0.35830 0.01440 0.83550
H5C H 0.27340 0.08640 0.88670
#END
