
#######################################################################
#
#                 Cambridge Crystallographic Data Centre
#                                CCDC
#
#######################################################################
#
# If this CIF has been generated from an entry in the Cambridge
# Structural Database, then it will include bibliographic, chemical,
# crystal, experimental, refinement or atomic coordinate data resulting
# from the CCDC's data processing and validation procedures.
#
#######################################################################

data_CSD_CIF_RUGKIP
_audit_creation_date 2015-03-13
_audit_creation_method CSD-ConQuest-V1
_database_code_CSD RUGKIP
_database_code_depnum_ccdc_archive 'CCDC 1053940'
_chemical_formula_sum 'C66 H94 Cr2 F2 Mn2 N2 O38'
_chemical_formula_moiety
;
2(C20 H36 O6),n(C13 H4 Cr2 Mn2 O25 2-),2(C6 H7 F1 N1 1+),C1 H4 O1
;
_journal_coden_Cambridge 1147
_journal_volume 15
_journal_year 2015
_journal_page_first 1186
_journal_name_full 'Cryst.Growth Des. '
loop_
_publ_author_name
"Toru Endo"
"K.Kubo"
"M.Yoshitake"
"S.Noro"
"N.Hoshino"
"T.Akutagawa"
"T.Nakamura"
_chemical_name_systematic
;
catena-[bis(2-fluoroanilinium) bis(dicyclohexano[b,k]-18-crown-6) 
hexakis(\m~2~-oxalato)-(methanol)-di-chromium(iii)-di-manganese(ii) methanol 
solvate]
;
_cell_volume   7929.599
_exptl_crystal_density_diffrn 1.481
_diffrn_ambient_temperature 123
_refine_special_details
;
C63,O36 and C66,O38 disordered over two sites with occupancies 0.60:0.40.

;
#These two values have been output from a single CSD field.
_refine_ls_R_factor_gt 0.0588
_refine_ls_wR_factor_gt 0.0588
_symmetry_cell_setting monoclinic
_symmetry_space_group_name_H-M 'P 21/c'
_symmetry_Int_Tables_number 14
loop_
_symmetry_equiv_pos_site_id
_symmetry_equiv_pos_as_xyz
1 x,y,z
2 -x,1/2+y,1/2-z
3 -x,-y,-z
4 x,-1/2-y,-1/2+z
_cell_length_a 16.8907(6)
_cell_length_b 14.2315(4)
_cell_length_c 32.9968(10)
_cell_angle_alpha 90
_cell_angle_beta 91.3408(11)
_cell_angle_gamma 90
_cell_formula_units_Z 4
loop_
_atom_type_symbol
_atom_type_radius_bond
C 0.68
H 0.23
Cr 1.39
F 0.64
Mn 1.61
N 0.68
O 0.68
loop_
_atom_site_label
_atom_site_type_symbol
_atom_site_fract_x
_atom_site_fract_y
_atom_site_fract_z
Cr1 Cr -0.12771(3) 0.03388(4) 0.419050(17)
Cr2 Cr 0.37782(3) -0.21895(4) 0.317095(17)
O1 O -0.12756(19) 0.30335(19) 0.44453(8)
O2 O -0.13428(15) 0.16879(17) 0.41053(7)
O3 O 0.14834(14) -0.48429(17) 0.14008(7)
O4 O 0.24556(15) -0.47479(18) 0.07962(7)
O5 O -0.12191(15) 0.06955(18) 0.47723(7)
O6 O -0.01073(15) 0.03798(17) 0.41406(7)
O7 O -0.10655(14) -0.10295(17) 0.42726(7)
O8 O 0.09455(15) -0.05840(17) 0.41477(7)
O9 O -0.00557(15) -0.20596(17) 0.42363(7)
O10 O -0.13342(17) 0.1997(2) 0.51496(8)
O11 O 0.12188(17) -0.35841(18) 0.42333(8)
O12 O 0.26204(15) -0.21280(19) 0.42089(7)
O13 O 0.15805(14) -0.20263(18) 0.35721(7)
O14 O 0.26060(14) -0.20626(17) 0.31529(7)
O15 O 0.36072(14) -0.22780(18) 0.37649(7)
O16 O 0.39330(14) -0.08039(17) 0.32199(7)
O17 O 0.49485(14) -0.21898(17) 0.32231(8)
O18 O 0.38411(15) -0.21640(17) 0.25733(7)
O19 O 0.37254(14) -0.35716(17) 0.30757(7)
O20 O 0.38549(16) -0.31512(18) 0.20363(7)
O21 O 0.37515(14) -0.46107(17) 0.25626(7)
O22 O 0.25033(15) -0.48120(18) 0.18517(7)
O23 O 0.35019(15) -0.46199(19) 0.12288(7)
O24 O 0.49222(15) 0.02591(17) 0.32155(7)
O25 O 0.59657(14) -0.11819(18) 0.31473(8)
C1 C -0.1302(2) 0.2178(3) 0.44315(11)
C2 C 0.0230(2) -0.0422(2) 0.41723(10)
C3 C -0.0342(2) -0.1252(3) 0.42337(10)
C4 C -0.1286(2) 0.1584(3) 0.48228(10)
C5 C 0.0587(3) -0.4122(3) 0.40409(15)
H1 H 0.00870 -0.39840 0.41730
H2 H 0.07050 -0.47940 0.40660
H3 H 0.05430 -0.39530 0.37530
C6 C 0.2297(2) -0.2080(2) 0.35018(10)
C7 C 0.2887(2) -0.2175(3) 0.38640(11)
C8 C 0.4658(2) -0.0556(3) 0.32082(10)
C9 C 0.5256(2) -0.1372(3) 0.31879(11)
C10 C 0.3826(2) -0.2974(3) 0.24057(11)
C11 C 0.37588(19) -0.3803(3) 0.27014(10)
C12 C 0.2788(2) -0.4704(3) 0.11480(11)
C13 C 0.2213(2) -0.4789(2) 0.15023(11)
Mn1 Mn 0.12809(3) -0.20704(4) 0.421740(16)
Mn2 Mn 0.37981(3) -0.46507(4) 0.188790(16)
O26 O 0.28849(14) 0.09884(17) 0.24970(7)
O27 O 0.15971(14) 0.08136(17) 0.30107(7)
O28 O 0.01205(14) -0.00726(18) 0.27295(7)
O29 O -0.03965(14) 0.12424(17) 0.21541(7)
O30 O 0.09011(14) 0.24690(18) 0.19404(8)
O31 O 0.23672(14) 0.16560(18) 0.17378(7)
C14 C 0.3170(2) 0.1354(3) 0.18089(11)
H4 H 0.35220 0.17500 0.16390
C15 C 0.3217(2) 0.0346(3) 0.16562(12)
H5 H 0.30690 0.03300 0.13640
H6 H 0.28320 -0.00460 0.18020
C16 C 0.4046(2) -0.0065(3) 0.17180(13)
H7 H 0.44250 0.02820 0.15490
H8 H 0.40470 -0.07320 0.16330
C17 C 0.4301(2) 0.0008(3) 0.21648(12)
H9 H 0.39430 -0.03750 0.23320
H10 H 0.48450 -0.02400 0.22020
C18 C 0.4275(2) 0.1033(3) 0.23033(12)
H11 H 0.44420 0.10710 0.25920
H12 H 0.46530 0.14060 0.21450
C19 C 0.3446(2) 0.1452(3) 0.22497(11)
H13 H 0.34650 0.21340 0.23230
C20 C 0.2939(2) 0.1266(3) 0.29089(11)
H14 H 0.27860 0.19340 0.29350
H15 H 0.34910 0.11950 0.30120
C21 C 0.2399(2) 0.0664(3) 0.31495(11)
H16 H 0.25420 -0.00050 0.31170
H17 H 0.24520 0.08260 0.34410
C22 C 0.1035(2) 0.0350(3) 0.32598(11)
H18 H 0.10680 0.06090 0.35380
H19 H 0.11560 -0.03300 0.32740
C23 C 0.0216(2) 0.0492(3) 0.30847(11)
H20 H -0.01810 0.03120 0.32860
H21 H 0.01360 0.11630 0.30150
C24 C -0.0682(2) -0.0099(3) 0.25712(12)
H22 H -0.10320 -0.03160 0.27930
C25 C -0.0722(2) -0.0822(3) 0.22330(13)
H23 H -0.05450 -0.14410 0.23380
H24 H -0.03640 -0.06350 0.20140
C26 C -0.1572(3) -0.0902(3) 0.20627(14)
H25 H -0.15940 -0.13750 0.18430
H26 H -0.19280 -0.11110 0.22790
C27 C -0.1851(2) 0.0050(3) 0.18980(13)
H27 H -0.24070 0.00000 0.17980
H28 H -0.15200 0.02380 0.16680
C28 C -0.1792(2) 0.0794(3) 0.22318(12)
H29 H -0.19330 0.14140 0.21150
H30 H -0.21810 0.06460 0.24420
C29 C -0.0969(2) 0.0859(3) 0.24311(11)
H31 H -0.09980 0.12820 0.26720
C30 C -0.0431(2) 0.2248(3) 0.21570(11)
H32 H -0.02540 0.24860 0.24260
H33 H -0.09840 0.24570 0.21070
C31 C 0.0089(2) 0.2640(3) 0.18367(12)
H34 H -0.00450 0.23420 0.15730
H35 H -0.00030 0.33250 0.18100
C32 C 0.1408(2) 0.2849(3) 0.16427(12)
H36 H 0.13230 0.35360 0.16180
H37 H 0.12900 0.25580 0.13760
C33 C 0.2247(2) 0.2652(3) 0.17713(13)
H38 H 0.26160 0.29930 0.15950
H39 H 0.23430 0.28590 0.20550
O32 O 0.54772(17) 0.1922(2) 0.46207(10)
O33 O 0.42199(16) 0.06296(19) 0.44969(8)
O34 O 0.26954(16) 0.13088(18) 0.42665(8)
O35 O 0.22654(16) 0.2519(2) 0.48979(8)
O36 O 0.3621(4) 0.2739(4) 0.54588(18)
O37 O 0.49842(19) 0.3325(2) 0.51501(9)
C34 C 0.5739(3) 0.3372(4) 0.49870(14)
H40 H 0.61020 0.36710 0.51930
C35 C 0.5677(3) 0.4031(4) 0.46137(16)
H41 H 0.52780 0.37800 0.44170
H42 H 0.55010 0.46620 0.47000
C36 C 0.6485(3) 0.4111(4) 0.44076(17)
H43 H 0.64360 0.45260 0.41670
H44 H 0.68800 0.43900 0.45990
C37 C 0.6750(3) 0.3159(5) 0.42818(16)
H45 H 0.72600 0.32090 0.41420
H46 H 0.63550 0.28850 0.40890
C38 C 0.6849(3) 0.2503(4) 0.46584(16)
H47 H 0.70140 0.18690 0.45700
H48 H 0.72670 0.27550 0.48430
C39 C 0.6069(2) 0.2432(4) 0.48836(15)
H49 H 0.61610 0.20670 0.51390
C40 C 0.5586(2) 0.0926(3) 0.46417(13)
H50 H 0.55150 0.07100 0.49240
H51 H 0.61320 0.07670 0.45630
C41 C 0.5008(3) 0.0437(3) 0.43665(13)
H52 H 0.50700 0.06610 0.40850
H53 H 0.51070 -0.02480 0.43720
C42 C 0.3635(3) 0.0084(3) 0.42802(14)
H54 H 0.37180 -0.05930 0.43360
H55 H 0.36820 0.01870 0.39850
C43 C 0.2831(3) 0.0376(3) 0.44132(14)
H56 H 0.24230 -0.00570 0.43010
H57 H 0.28070 0.03620 0.47130
C44 C 0.1892(2) 0.1635(3) 0.42985(12)
H58 H 0.15320 0.11210 0.42010
C45 C 0.1790(3) 0.2465(3) 0.40098(12)
H59 H 0.21690 0.29680 0.40880
H60 H 0.19090 0.22620 0.37310
C46 C 0.0951(3) 0.2848(3) 0.40194(13)
H61 H 0.09030 0.34000 0.38380
H62 H 0.05740 0.23620 0.39200
C47 C 0.0749(3) 0.3130(3) 0.44477(14)
H63 H 0.01960 0.33600 0.44520
H64 H 0.11020 0.36480 0.45390
C48 C 0.0847(3) 0.2292(3) 0.47359(13)
H65 H 0.07280 0.24970 0.50150
H66 H 0.04590 0.18000 0.46570
C49 C 0.1680(2) 0.1872(3) 0.47343(12)
H67 H 0.16890 0.12830 0.49000
C50 C 0.2261(3) 0.2542(4) 0.53351(14)
C51 C 0.2846(5) 0.3079(6) 0.5547(3)
C52 C 0.4150(4) 0.3058(5) 0.56952(17)
C53 C 0.4961(3) 0.2934(4) 0.55421(13)
H68 H 0.53500 0.32540 0.57240
H69 H 0.50970 0.22580 0.55330
O38? O 0.3674(4) 0.2150(6) 0.5421(2)
C54? C 0.2854(7) 0.2012(7) 0.5517(3)
O39 O 0.1374(4) 0.5752(3) 0.49654(11)
H70 H 0.14000 0.62250 0.51170
C55 C 0.1275(6) 0.4964(4) 0.51944(19)
H71 H 0.14450 0.50920 0.54750
H72 H 0.15940 0.44520 0.50860
H73 H 0.07160 0.47830 0.51870
C56 C 0.1378(2) -0.0379(3) 0.20479(10)
C57 C 0.1130(2) -0.0625(3) 0.16630(12)
C58 C 0.1243(3) -0.1507(3) 0.15093(13)
H74 H 0.10660 -0.16640 0.12420
C59 C 0.1624(3) -0.2165(3) 0.17548(13)
H75 H 0.17080 -0.27840 0.16560
C60 C 0.1881(2) -0.1928(3) 0.21422(12)
H76 H 0.21440 -0.23830 0.23080
C61 C 0.1759(2) -0.1033(3) 0.22907(11)
H77 H 0.19370 -0.08710 0.25570
F1 F 0.07684(17) 0.00470(18) 0.14312(7)
N1 N 0.12591(17) 0.0586(2) 0.21815(9)
H78 H 0.14260 0.06440 0.24450
H79 H 0.07360 0.07330 0.21600
H80 H 0.15410 0.09820 0.20240
C62 C 0.3864(3) 0.3123(4) 0.42062(16)
C63 C 0.3651(3) 0.4014(4) 0.4189(2)
C64 C 0.3673(4) 0.4592(5) 0.3852(2)
H81 H 0.35150 0.52330 0.38600
C65 C 0.3930(4) 0.4186(5) 0.3515(3)
H82 H 0.39550 0.45520 0.32750
C66 C 0.4169(4) 0.3231(5) 0.35002(19)
H83 H 0.43350 0.29640 0.32520
C67 C 0.4159(3) 0.2702(4) 0.38425(13)
H84 H 0.43410 0.20710 0.38420
F2 F 0.3386(2) 0.4397(2) 0.45466(12)
N2 N 0.38425(19) 0.2587(2) 0.45821(10)
H85 H 0.41750 0.28540 0.47700
H86 H 0.39980 0.19850 0.45350
H87 H 0.33410 0.25870 0.46760
Cr1A Cr 0.12771(3) -0.46612(4) 0.080950(17)
O3A O -0.14834(14) 0.01571(17) 0.35992(7)
O4A O -0.24556(15) 0.02521(18) 0.42038(7)
O10B O 0.13342(17) -0.1997(2) 0.48504(8)
O24A O 0.50778(15) -0.47409(17) 0.17845(7)
O25A O 0.40343(14) -0.61819(18) 0.18527(8)
Mn1B Mn -0.12809(3) 0.20704(4) 0.578260(16)
Mn2A Mn 0.62019(3) 0.03493(4) 0.311210(16)
#END
