
#######################################################################
#
#                 Cambridge Crystallographic Data Centre
#                                CCDC
#
#######################################################################
#
# If this CIF has been generated from an entry in the Cambridge
# Structural Database, then it will include bibliographic, chemical,
# crystal, experimental, refinement or atomic coordinate data resulting
# from the CCDC's data processing and validation procedures.
#
#######################################################################

data_CSD_CIF_RUGQOC
_audit_creation_date 2019-12-19
_audit_creation_method CSD-ConQuest-V1
_database_code_CSD RUGQOC
_database_code_depnum_ccdc_archive 'CCDC 1947180'
_chemical_formula_sum 'C84 H84 N24 O54 U4'
_chemical_formula_moiety
;
(C36 H36 N24 O12)n,2n(C24 H12 O16 U2 2-),4n(H3 O1 1+),6n(H2 O1)
;
_journal_coden_Cambridge 9
_journal_volume 59
_journal_year 2020
_journal_page_first 943
_journal_name_full 'Inorg.Chem. '
loop_
_publ_author_name
"Shu-wen An"
"Lei Mei"
"Kong-qiu Hu"
"Zhi-hui Zhang"
"Chuan-qin Xia"
"Zhi-fang Chai"
"Wei-qun Shi"
_chemical_name_systematic
;
catena-(tetrakis(oxonium) tris(\m-terephthalato)-tetraoxo-di-uranium 
cucurbit[6]uril hexahydrate)
;
_cell_volume  11366.254
_exptl_crystal_colour 'yellow'
_exptl_crystal_density_diffrn 1.887
_exptl_special_details
;
It is not clear from the paper how the compound charge balances. We have 
assumed that some of the oxygen atoms are oxonium cations
;
_exptl_crystal_description 'block'
_diffrn_ambient_temperature 296.6
_refine_special_details
;
The SQUEEZE/PLATON program was used to model some disorder.

;
#These two values have been output from a single CSD field.
_refine_ls_R_factor_gt 0.0614
_refine_ls_wR_factor_gt 0.0614
_symmetry_cell_setting orthorhombic
_symmetry_space_group_name_H-M 'C m c a'
_symmetry_Int_Tables_number 64
loop_
_symmetry_equiv_pos_site_id
_symmetry_equiv_pos_as_xyz
1 x,y,z
2 -x,1/2-y,1/2+z
3 -x,1/2+y,1/2-z
4 x,-y,-z
5 1/2+x,1/2+y,z
6 1/2-x,-y,1/2+z
7 1/2-x,y,1/2-z
8 1/2+x,1/2-y,-z
9 -x,-y,-z
10 x,-1/2+y,-1/2-z
11 x,-1/2-y,-1/2+z
12 -x,y,z
13 -1/2-x,-1/2-y,-z
14 -1/2+x,y,-1/2-z
15 -1/2+x,-y,-1/2+z
16 -1/2-x,-1/2+y,z
_cell_length_a 21.6132(10)
_cell_length_b 19.1237(8)
_cell_length_c 27.4996(12)
_cell_angle_alpha 90
_cell_angle_beta 90
_cell_angle_gamma 90
_cell_formula_units_Z 4
loop_
_atom_type_symbol
_atom_type_radius_bond
C 0.68
H 0.23
N 0.68
O 0.68
U 1.96
loop_
_atom_site_label
_atom_site_type_symbol
_atom_site_fract_x
_atom_site_fract_y
_atom_site_fract_z
U1 U 0.62015(2) 0.60090(2) 0.31399(2)
O1 O 0.8393(4) 0.2175(4) 0.3033(4)
C1 C 0.7564(5) 0.2714(5) 0.3448(4)
O2 O 0.5771(4) 0.6285(4) 0.3644(3)
O3 O 0.7887(4) 0.1524(4) 0.3549(3)
C2 C 0.7176(5) 0.2716(5) 0.3847(4)
H1 H 0.71570 0.23270 0.40490
C3 C 0.6811(5) 0.3303(5) 0.3947(4)
H2 H 0.65420 0.32980 0.42110
O4 O 0.6110(8) 0.4524(6) 0.4102(5)
O5 O 0.6618(4) 0.5754(5) 0.2612(3)
O6 O 0.6635(4) 0.5079(4) 0.3545(4)
C4 C 0.7243(6) 0.3879(6) 0.3256(4)
H3 H 0.72650 0.42700 0.30560
O7 O 0.5512(4) 0.5091(4) 0.2988(3)
C5 C 0.7598(6) 0.3308(6) 0.3151(4)
H4 H 0.78620 0.33140 0.28830
O8 O 0.4489(4) 0.1572(3) 0.2384(3)
C6 C 0.6492(7) 0.4542(7) 0.3779(5)
C7 C 0.50000 0.4790(6) 0.2952(5)
C8 C 0.7962(5) 0.2118(6) 0.3339(5)
C9 C 0.6848(5) 0.3889(5) 0.3656(4)
C10 C 0.50000 0.4022(6) 0.2840(5)
C11 C 0.4447(4) 0.3676(5) 0.2775(4)
H5 H 0.40760 0.39150 0.28150
C12 C 0.4441(4) 0.2973(5) 0.2650(4)
H6 H 0.40680 0.27400 0.26080
C13 C 0.50000 0.2621(6) 0.2589(4)
C14 C 0.50000 0.1868(6) 0.2430(5)
N1 N 0.8119(7) 0.5874(8) 0.4574(5)
N2 N 0.8550(8) 0.5918(8) 0.3939(6)
O9 O 1.00000 0.3732(6) 0.3598(5)
C15 C 1.00000 0.4332(8) 0.3475(5)
N3 N 0.9487(5) 0.4735(5) 0.3396(3)
O10 O 0.8602(7) 0.3645(9) 0.4210(4)
N4 N 0.7910(7) 0.4661(9) 0.4432(5)
N5 N 0.8509(6) 0.4650(9) 0.3802(5)
C16 C 0.8867(6) 0.4439(10) 0.3388(5)
H7 H 0.86570 0.45880 0.30940
H8 H 0.88950 0.39330 0.33820
N6 N 0.9491(8) 0.5994(6) 0.3545(4)
C17 C 0.9643(9) 0.5418(7) 0.3210(4)
H9 H 0.94730 0.54960 0.28840
O11 O 1.00000 0.6866(10) 0.3951(8)
C18 C 1.00000 0.6330(12) 0.3708(8)
O12 O 0.8683(9) 0.6677(9) 0.4595(5)
C19 C 0.8514(11) 0.6258(13) 0.4394(8)
C20 C 0.7776(17) 0.5837(18) 0.5126(12)
H10 H 0.78160 0.63060 0.52580
H11 H 0.73390 0.57760 0.50580
C21 C 0.8876(8) 0.6276(13) 0.3601(9)
H12 H 0.89040 0.67640 0.36960
H13 H 0.86610 0.62540 0.32910
C22 C 0.7823(10) 0.5364(10) 0.4305(7)
H14 H 0.73850 0.54740 0.42520
C23 C 0.8183(8) 0.5337(9) 0.3832(6)
H15 H 0.79170 0.54190 0.35490
C24 C 0.8400(9) 0.4236(13) 0.4153(8)
O13 O 1.00000 0.2493(8) 0.4120(7)
O14 O 0.9256(9) 0.2824(7) 0.4757(4)
H16 H 0.92930 0.24710 0.45710
H17 H 0.88850 0.29570 0.47180
O15 O 0.6489(13) 0.6951(19) 0.4617(7)
O7K O 0.4488(4) 0.5091(4) 0.2988(3)
O8K O 0.5511(4) 0.1572(3) 0.2384(3)
C11K C 0.5553(4) 0.3676(5) 0.2775(4)
H5K H 0.59240 0.39150 0.28150
C12K C 0.5559(4) 0.2973(5) 0.2650(4)
H6K H 0.59320 0.27400 0.26080
U1K U 0.37985(2) 0.60090(2) 0.31399(2)
O1K O 0.1607(4) 0.2175(4) 0.3033(4)
C1K C 0.2436(5) 0.2714(5) 0.3448(4)
O2K O 0.4229(4) 0.6285(4) 0.3644(3)
O3K O 0.2113(4) 0.1524(4) 0.3549(3)
C2K C 0.2824(5) 0.2716(5) 0.3847(4)
H1K H 0.28430 0.23270 0.40490
C3K C 0.3189(5) 0.3303(5) 0.3947(4)
H2K H 0.34580 0.32980 0.42110
O4K O 0.3890(8) 0.4524(6) 0.4102(5)
O5K O 0.3382(4) 0.5754(5) 0.2612(3)
O6K O 0.3365(4) 0.5079(4) 0.3545(4)
C4K C 0.2757(6) 0.3879(6) 0.3256(4)
H3K H 0.27350 0.42700 0.30560
C5K C 0.2402(6) 0.3308(6) 0.3151(4)
H4K H 0.21380 0.33140 0.28830
C6K C 0.3508(7) 0.4542(7) 0.3779(5)
C8K C 0.2038(5) 0.2118(6) 0.3339(5)
C9K C 0.3152(5) 0.3889(5) 0.3656(4)
U1B U 0.37985(2) 0.10090(2) 0.18601(2)
U1D U 0.12015(2) 0.10090(2) 0.31399(2)
U1I U 0.62015(2) 0.10090(2) 0.18601(2)
U1O U 0.87985(2) 0.10090(2) 0.31399(2)
O1D O 0.3393(4) 0.7175(4) 0.3033(4)
O1O O 0.6607(4) 0.7175(4) 0.3033(4)
O3D O 0.2887(4) 0.6524(4) 0.3549(3)
O3O O 0.7113(4) 0.6524(4) 0.3549(3)
O8B O 0.5511(4) 0.6572(3) 0.2616(3)
O8I O 0.4489(4) 0.6572(3) 0.2616(3)
N1C N 0.8119(7) 0.4126(8) 0.5426(5)
N2C N 0.8550(8) 0.4082(8) 0.6061(6)
O9C O 1.00000 0.6268(6) 0.6402(5)
C15C C 1.00000 0.5668(8) 0.6525(5)
N3C N 0.9487(5) 0.5265(5) 0.6604(3)
O10C O 0.8602(7) 0.6355(9) 0.5790(4)
N4C N 0.7910(7) 0.5339(9) 0.5568(5)
N5C N 0.8509(6) 0.5350(9) 0.6198(5)
C16C C 0.8867(6) 0.5561(10) 0.6612(5)
H7C H 0.86570 0.54120 0.69060
H8C H 0.88950 0.60670 0.66180
N6C N 0.9491(8) 0.4006(6) 0.6455(4)
C17C C 0.9643(9) 0.4582(7) 0.6790(4)
H9C H 0.94730 0.45040 0.71160
O11C O 1.00000 0.3134(10) 0.6049(8)
C18C C 1.00000 0.3670(12) 0.6292(8)
O12C O 0.8683(9) 0.3323(9) 0.5405(5)
C19C C 0.8514(11) 0.3742(13) 0.5606(8)
C20C C 0.7776(17) 0.4163(18) 0.4874(12)
H10C H 0.78160 0.36940 0.47420
H11C H 0.73390 0.42240 0.49420
C21C C 0.8876(8) 0.3724(13) 0.6399(9)
H12C H 0.89040 0.32360 0.63040
H13C H 0.86610 0.37460 0.67090
C22C C 0.7823(10) 0.4636(10) 0.5695(7)
H14C H 0.73850 0.45260 0.57480
C23C C 0.8183(8) 0.4663(9) 0.6168(6)
H15C H 0.79170 0.45810 0.64510
C24C C 0.8400(9) 0.5764(13) 0.5847(8)
N1K N 1.1881(7) 0.5874(8) 0.4574(5)
N2K N 1.1450(8) 0.5918(8) 0.3939(6)
N3K N 1.0513(5) 0.4735(5) 0.3396(3)
O10K O 1.1398(7) 0.3645(9) 0.4210(4)
N4K N 1.2090(7) 0.4661(9) 0.4432(5)
N5K N 1.1491(6) 0.4650(9) 0.3802(5)
C16K C 1.1133(6) 0.4439(10) 0.3388(5)
H7K H 1.13430 0.45880 0.30940
H8K H 1.11050 0.39330 0.33820
N6K N 1.0509(8) 0.5994(6) 0.3545(4)
C17K C 1.0357(9) 0.5418(7) 0.3210(4)
H9K H 1.05270 0.54960 0.28840
O12K O 1.1317(9) 0.6677(9) 0.4595(5)
C19K C 1.1486(11) 0.6258(13) 0.4394(8)
C20K C 1.2224(17) 0.5837(18) 0.5126(12)
H10K H 1.21840 0.63060 0.52580
H11K H 1.26610 0.57760 0.50580
C21K C 1.1124(8) 0.6276(13) 0.3601(9)
H12K H 1.10960 0.67640 0.36960
H13K H 1.13390 0.62540 0.32910
C22K C 1.2177(10) 0.5364(10) 0.4305(7)
H14K H 1.26150 0.54740 0.42520
C23K C 1.1817(8) 0.5337(9) 0.3832(6)
H15K H 1.20830 0.54190 0.35490
C24K C 1.1600(9) 0.4236(13) 0.4153(8)
N1H N 1.1881(7) 0.4126(8) 0.5426(5)
N2H N 1.1450(8) 0.4082(8) 0.6061(6)
N3H N 1.0513(5) 0.5265(5) 0.6604(3)
O10H O 1.1398(7) 0.6355(9) 0.5790(4)
N4H N 1.2090(7) 0.5339(9) 0.5568(5)
N5H N 1.1491(6) 0.5350(9) 0.6198(5)
C16H C 1.1133(6) 0.5561(10) 0.6612(5)
H7H H 1.13430 0.54120 0.69060
H8H H 1.11050 0.60670 0.66180
N6H N 1.0509(8) 0.4006(6) 0.6455(4)
C17H C 1.0357(9) 0.4582(7) 0.6790(4)
H9H H 1.05270 0.45040 0.71160
O12H O 1.1317(9) 0.3323(9) 0.5405(5)
C19H C 1.1486(11) 0.3742(13) 0.5606(8)
C20H C 1.2224(17) 0.4163(18) 0.4874(12)
H10H H 1.21840 0.36940 0.47420
H11H H 1.26610 0.42240 0.49420
C21H C 1.1124(8) 0.3724(13) 0.6399(9)
H12H H 1.10960 0.32360 0.63040
H13H H 1.13390 0.37460 0.67090
C22H C 1.2177(10) 0.4636(10) 0.5695(7)
H14H H 1.26150 0.45260 0.57480
C23H C 1.1817(8) 0.4663(9) 0.6168(6)
H15H H 1.20830 0.45810 0.64510
C24H C 1.1600(9) 0.5764(13) 0.5847(8)
#END
