
#######################################################################
#
#                 Cambridge Crystallographic Data Centre
#                                CCDC
#
#######################################################################
#
# If this CIF has been generated from an entry in the Cambridge
# Structural Database, then it will include bibliographic, chemical,
# crystal, experimental, refinement or atomic coordinate data resulting
# from the CCDC's data processing and validation procedures.
#
#######################################################################

data_CSD_CIF_RUGRAP
_audit_creation_date 2019-12-19
_audit_creation_method CSD-ConQuest-V1
_database_code_CSD RUGRAP
_database_code_depnum_ccdc_archive 'CCDC 1947182'
_chemical_formula_sum 'C120 H110 Cs2 N48 O62 U4'
_chemical_formula_moiety
;
(C36 H40 Cs1 N24 O14 1+)2n,n(C48 H24 O32 U4 4-),2n(H3 O1 1+)
;
_journal_coden_Cambridge 9
_journal_volume 59
_journal_year 2020
_journal_page_first 943
_journal_name_full 'Inorg.Chem. '
loop_
_publ_author_name
"Shu-wen An"
"Lei Mei"
"Kong-qiu Hu"
"Zhi-hui Zhang"
"Chuan-qin Xia"
"Zhi-fang Chai"
"Wei-qun Shi"
_chemical_name_systematic
;
catena-(dioxonium bis(diaqua-(cucurbit[6]uril)-cesium) 
hexakis(\m-terephthalato)-octaoxo-tetra-uranium unknown solvate)
;
_cell_volume   9805.254
_exptl_crystal_colour 'yellow'
_exptl_crystal_density_diffrn 1.497
_exptl_special_details
;
It is not clear from the paper how the compound charge balances. We have 
assumed that the oxygen atoms are oxonium cations
;
_exptl_crystal_description 'block'
_diffrn_ambient_temperature 297.2
_refine_special_details
;
The cesium cation is equally disordered over two positions. The 
SQUEEZE/PLATON program was used to model some disorder.
;
#These two values have been output from a single CSD field.
_refine_ls_R_factor_gt 0.0636
_refine_ls_wR_factor_gt 0.0636
_symmetry_cell_setting monoclinic
_symmetry_space_group_name_H-M 'P 21/n'
_symmetry_Int_Tables_number 14
loop_
_symmetry_equiv_pos_site_id
_symmetry_equiv_pos_as_xyz
1 x,y,z
2 1/2-x,1/2+y,1/2-z
3 -x,-y,-z
4 -1/2+x,-1/2-y,-1/2+z
_cell_length_a 16.6776(5)
_cell_length_b 30.1430(11)
_cell_length_c 19.5111(6)
_cell_angle_alpha 90
_cell_angle_beta 91.470(1)
_cell_angle_gamma 90
_cell_formula_units_Z 2
loop_
_atom_type_symbol
_atom_type_radius_bond
C 0.68
H 0.23
Cs 2.44
N 0.68
O 0.68
U 1.96
loop_
_atom_site_label
_atom_site_type_symbol
_atom_site_fract_x
_atom_site_fract_y
_atom_site_fract_z
U1 U 0.32320(2) 0.55494(2) 0.02643(2)
C1 C 0.4154(7) 0.5535(4) 0.9051(6)
U2 U 0.67389(2) 0.54739(2) 0.53283(2)
C2 C 0.4619(6) 0.5524(3) 0.8434(5)
C3 C 0.5456(7) 0.5518(3) 0.8482(5)
H1 H 0.57140 0.55230 0.89100
C4 C 0.5897(6) 0.5503(3) 0.7899(5)
H2 H 0.64540 0.54900 0.79350
O1 O 0.1964(5) 0.5464(4) -0.0380(5)
C5 C 0.5515(6) 0.5508(3) 0.7244(5)
C6 C 0.4672(7) 0.5509(4) 0.7198(5)
H3 H 0.44110 0.54950 0.67720
O2 O 0.1875(5) 0.5460(4) 0.0735(4)
C7 C 0.4241(7) 0.5531(4) 0.7775(5)
H4 H 0.36850 0.55500 0.77380
O3 O 0.3321(5) 0.4964(3) 0.0333(4)
C8 C 0.5968(6) 0.5484(3) 0.6603(5)
O4 O 0.3152(6) 0.6132(3) 0.0215(5)
C9 C 0.5818(7) 0.5583(4) 0.4094(5)
C10 C 0.5343(6) 0.5614(3) 0.3452(5)
O5 O 0.4397(4) 0.5632(3) 0.1021(3)
C11 C 0.4531(6) 0.5610(4) 0.3450(5)
H5 H 0.42710 0.55990 0.38660
O6 O 0.3260(4) 0.5582(3) 0.1529(3)
O7 O 0.6871(6) 0.6058(3) 0.5410(5)
C12 C 0.4075(6) 0.5621(4) 0.2848(5)
H6 H 0.35180 0.56240 0.28590
O8 O 0.6710(4) 0.5435(3) 0.6595(3)
C13 C -0.0353(6) 0.4797(5) 0.0557(6)
H7 H -0.05890 0.46620 0.09300
C14 C 0.4016(6) 0.5610(3) 0.1566(5)
O9 O 0.5589(5) 0.5517(3) 0.6041(4)
C15 C 0.5742(7) 0.5611(4) 0.2821(5)
H8 H 0.62990 0.56030 0.28130
O10 O 0.5485(5) 0.5615(3) 0.4658(4)
C16 C 0.5298(6) 0.5621(4) 0.2227(5)
H9 H 0.55590 0.56240 0.18120
O11 O 0.6552(5) 0.5523(4) 0.4064(5)
C17 C 0.4465(6) 0.5626(3) 0.2225(5)
O12 O 0.6611(6) 0.4898(3) 0.5263(5)
O13 O 0.7972(6) 0.5399(5) 0.4697(5)
C18 C 0.0741(6) 0.5208(4) 0.0072(6)
O14 O 0.8111(5) 0.5328(4) 0.5801(4)
C19 C 0.0389(6) 0.5003(5) 0.0640(6)
H10 H 0.06510 0.50060 0.10660
O15 O 0.4477(5) 0.5595(3) 0.9629(4)
C20 C 0.1562(7) 0.5392(5) 0.0167(6)
O16 O 0.3405(5) 0.5476(4) 0.9010(5)
C21 C 0.8394(7) 0.5302(6) 0.5220(7)
C22 C 0.9776(7) 0.5122(6) 0.5645(6)
H11 H 0.96300 0.52110 0.60810
C23 C 0.9225(6) 0.5147(5) 0.5112(6)
C24 C 1.0534(7) 0.4969(6) 0.5548(6)
H12 H 1.08910 0.49420 0.59190
N1 N 0.5071(7) 0.7095(4) 0.0674(7)
N2 N 0.5394(7) 0.6978(4) -0.0512(6)
O17 O 0.6061(17) 0.7925(9) 0.2950(13)
Cs1 Cs 0.7244(5) 0.7623(2) 0.2181(3)
N3 N 0.5843(7) 0.6445(4) 0.0981(6)
O18 O 0.8503(19) 0.7361(10) 0.3552(15)
N4 N 0.6121(7) 0.6311(4) -0.0227(6)
N5 N 0.6900(7) 0.6087(4) 0.1296(6)
N6 N 0.7260(7) 0.5987(4) 0.0116(6)
N7 N 0.8338(7) 0.6072(4) 0.1585(6)
N8 N 0.8670(7) 0.5948(4) 0.0404(6)
N9 N 0.9882(7) 0.6249(4) 0.0572(7)
O19 O 0.7184(6) 0.6307(4) -0.0961(5)
O20 O 0.6112(7) 0.7259(4) -0.1410(5)
O21 O 0.6412(8) 0.6610(4) 0.2019(5)
O22 O 0.8411(7) 0.8519(4) 0.1984(5)
O23 O 0.9295(6) 0.6259(4) -0.0518(5)
O24 O 0.9459(8) 0.7536(4) 0.2448(6)
O25 O 1.0250(7) 0.7194(4) -0.0517(6)
O26 O 0.9178(8) 0.8157(4) -0.1020(6)
N10 N 0.9501(8) 0.6419(4) 0.1735(6)
N11 N 1.0542(7) 0.6950(4) 0.0576(6)
N12 N 1.0270(7) 0.7084(5) 0.1757(7)
N13 N 0.8685(8) 0.8679(5) -0.0306(7)
N14 N 0.9467(8) 0.8466(4) 0.1231(6)
N15 N 0.9780(9) 0.8320(4) 0.0029(7)
N16 N 1.0215(8) 0.7804(4) 0.1539(6)
N17 N 1.0525(7) 0.7667(4) 0.0382(6)
C25 C 0.6885(8) 0.6216(5) -0.0410(8)
N18 N 0.7261(8) 0.8689(4) -0.0543(7)
N19 N 0.8367(8) 0.8834(4) 0.0901(7)
O27 O 0.5371(9) 0.7581(4) 0.1595(7)
O28 O 0.8447(8) 0.6608(4) 0.2427(5)
C26 C 0.6387(9) 0.6402(5) 0.1477(6)
O29 O 0.7091(8) 0.8173(4) -0.1413(7)
C27 C 0.8922(10) 0.8904(5) 0.0347(8)
H13 H 0.90390 0.92200 0.02780
C28 C 0.5662(10) 0.7300(5) -0.0938(9)
C29 C 0.5951(8) 0.6121(4) 0.0448(6)
H14 H 0.54970 0.59150 0.04190
N20 N 0.6951(8) 0.8895(4) 0.0614(7)
N21 N 0.6069(8) 0.8383(4) -0.0736(7)
N22 N 0.5306(7) 0.7696(5) -0.0731(6)
N23 N 0.5785(9) 0.8523(5) 0.0449(8)
N24 N 0.5050(8) 0.7832(5) 0.0477(8)
C30 C 1.0590(9) 0.6496(5) 0.0414(8)
H15 H 1.10440 0.63680 0.06620
H16 H 1.06870 0.64660 -0.00720
C31 C 1.0410(8) 0.7261(5) 0.0083(9)
C32 C 0.4815(9) 0.7136(5) -0.0019(9)
H17 H 0.42900 0.69970 -0.00980
C33 C 0.8849(9) 0.5863(5) 0.1124(8)
H18 H 0.88840 0.55440 0.12150
C34 C 0.9922(11) 0.7480(6) 0.1987(9)
C35 C 0.5118(10) 0.6685(6) 0.1060(9)
H19 H 0.50590 0.67530 0.15420
H20 H 0.46710 0.64970 0.09190
C36 C 0.9283(8) 0.6152(4) 0.0092(7)
C37 C 0.9229(11) 0.8357(5) -0.0481(9)
C38 C 0.8057(10) 0.8831(5) -0.0755(8)
H21 H 0.81490 0.87200 -0.12130
H22 H 0.80710 0.91520 -0.07730
O30 O 0.6344(8) 0.8569(4) 0.1535(6)
C39 C 0.9675(9) 0.6090(5) 0.1246(7)
H23 H 1.00750 0.58800 0.14260
C40 C 0.5182(10) 0.7517(6) 0.0959(11)
C41 C 0.6713(8) 0.5885(4) 0.0664(7)
H24 H 0.66290 0.55640 0.07120
C42 C 0.7982(9) 0.5756(5) 0.0028(8)
H25 H 0.80980 0.57500 -0.04570
H26 H 0.79120 0.54520 0.01760
C43 C 0.8714(11) 0.8594(5) 0.1411(8)
C44 C 0.9678(10) 0.8640(5) 0.0583(8)
H27 H 1.01460 0.88360 0.06280
C45 C 1.0097(10) 0.6683(5) 0.2091(9)
H28 H 0.99120 0.67490 0.25470
H29 H 1.05880 0.65120 0.21420
C46 C 0.6837(11) 0.8389(5) -0.0950(8)
C47 C 1.0766(8) 0.7653(5) 0.1072(8)
H30 H 1.12920 0.77920 0.11470
C48 C 0.7639(10) 0.9086(5) 0.0960(8)
H31 H 0.75230 0.91190 0.14420
H32 H 0.77260 0.93810 0.07760
C49 C 0.8724(10) 0.6396(6) 0.1982(8)
C50 C 0.7548(9) 0.5920(5) 0.1759(7)
H33 H 0.74390 0.60140 0.22240
H34 H 0.75420 0.55990 0.17510
C51 C 0.4782(9) 0.7635(6) -0.0178(9)
H35 H 0.42350 0.77280 -0.03030
C52 C 0.5531(10) 0.6524(5) -0.0680(8)
H36 H 0.57130 0.65060 -0.11480
H37 H 0.50280 0.63630 -0.06580
C53 C 1.0795(10) 0.7150(6) 0.1234(9)
H38 H 1.13380 0.70560 0.13700
C54 C 1.0041(10) 0.8282(5) 0.1691(9)
H39 H 0.98470 0.83060 0.21540
H40 H 1.05340 0.84510 0.16680
C55 C 1.0488(11) 0.8064(5) -0.0031(10)
H41 H 1.09450 0.82490 0.00930
H42 H 1.05400 0.79800 -0.05080
C56 C 0.5456(10) 0.8118(6) -0.1046(9)
H43 H 0.55940 0.80660 -0.15200
H44 H 0.49610 0.82870 -0.10510
C57 C 0.5046(11) 0.8309(6) 0.0614(10)
H45 H 0.46110 0.84450 0.03490
H46 H 0.49430 0.83570 0.10960
C58 C 0.5919(13) 0.8703(6) -0.0212(10)
H47 H 0.54980 0.89130 -0.03530
C59 C 0.6763(11) 0.8940(5) -0.0095(9)
H48 H 0.67380 0.92520 -0.02310
C60 C 0.6368(11) 0.8660(6) 0.0925(8)
O31 O 0.7049(14) 0.7480(8) -0.2545(10)
Cs2? Cs 0.8373(2) 0.71737(12) -0.11923(18)
O1B O -0.1964(5) 0.4536(4) 0.0380(5)
O2B O -0.1875(5) 0.4540(4) -0.0735(4)
C13B C 0.0353(6) 0.5203(5) -0.0557(6)
H7B H 0.05890 0.53380 -0.09300
C18B C -0.0741(6) 0.4792(4) -0.0072(6)
C19B C -0.0389(6) 0.4997(5) -0.0640(6)
H10B H -0.06510 0.49940 -0.10660
C20B C -0.1562(7) 0.4608(5) -0.0167(6)
O13B O 1.2028(6) 0.4601(5) 0.5303(5)
O14B O 1.1889(5) 0.4672(4) 0.4199(4)
C21B C 1.1606(7) 0.4698(6) 0.4780(7)
C22B C 1.0224(7) 0.4878(6) 0.4355(6)
H11B H 1.03700 0.47890 0.39190
C23B C 1.0775(6) 0.4853(5) 0.4888(6)
C24B C 0.9466(7) 0.5031(6) 0.4452(6)
H12B H 0.91090 0.50580 0.40810
U1B U -0.32320(2) 0.44506(2) -0.02643(2)
C1B C -0.4154(7) 0.4465(4) -0.9051(6)
U2B U -0.67389(2) 0.45261(2) -0.53283(2)
C2B C -0.4619(6) 0.4476(3) -0.8434(5)
C3B C -0.5456(7) 0.4482(3) -0.8482(5)
H1B H -0.57140 0.44770 -0.89100
C4B C -0.5897(6) 0.4497(3) -0.7899(5)
H2B H -0.64540 0.45100 -0.79350
C5B C -0.5515(6) 0.4492(3) -0.7244(5)
C6B C -0.4672(7) 0.4491(4) -0.7198(5)
H3B H -0.44110 0.45050 -0.67720
C7B C -0.4241(7) 0.4469(4) -0.7775(5)
H4B H -0.36850 0.44500 -0.77380
O3B O -0.3321(5) 0.5036(3) -0.0333(4)
C8B C -0.5968(6) 0.4516(3) -0.6603(5)
O4B O -0.3152(6) 0.3868(3) -0.0215(5)
C9B C -0.5818(7) 0.4417(4) -0.4094(5)
C10B C -0.5343(6) 0.4386(3) -0.3452(5)
O5B O -0.4397(4) 0.4368(3) -0.1021(3)
C11B C -0.4531(6) 0.4390(4) -0.3450(5)
H5B H -0.42710 0.44010 -0.38660
O6B O -0.3260(4) 0.4418(3) -0.1529(3)
O7B O -0.6871(6) 0.3942(3) -0.5410(5)
C12B C -0.4075(6) 0.4379(4) -0.2848(5)
H6B H -0.35180 0.43760 -0.28590
O8B O -0.6710(4) 0.4565(3) -0.6595(3)
C14B C -0.4016(6) 0.4390(3) -0.1566(5)
O9B O -0.5589(5) 0.4483(3) -0.6041(4)
C15B C -0.5742(7) 0.4389(4) -0.2821(5)
H8B H -0.62990 0.43970 -0.28130
O10B O -0.5485(5) 0.4385(3) -0.4658(4)
C16B C -0.5298(6) 0.4379(4) -0.2227(5)
H9B H -0.55590 0.43760 -0.18120
O11B O -0.6552(5) 0.4477(4) -0.4064(5)
C17B C -0.4465(6) 0.4374(3) -0.2225(5)
O12B O -0.6611(6) 0.5102(3) -0.5263(5)
O15B O -0.4477(5) 0.4405(3) -0.9629(4)
O16B O -0.3405(5) 0.4524(4) -0.9010(5)
U1* U 0.32320(2) 0.55494(2) 1.02643(2)
U1B* U -0.32320(2) 0.44506(2) -1.02643(2)
U2B* U 1.32611(2) 0.45261(2) 0.46717(2)
O13B* O -0.7972(6) 0.4601(5) -0.4697(5)
O14B* O -0.8111(5) 0.4672(4) -0.5801(4)
O15* O 0.4477(5) 0.5595(3) -0.0371(4)
O15B* O -0.4477(5) 0.4405(3) 0.0371(4)
O16* O 0.3405(5) 0.5476(4) -0.0990(5)
O16B* O -0.3405(5) 0.4524(4) 0.0990(5)
#END
