
#######################################################################
#
#                 Cambridge Crystallographic Data Centre
#                                CCDC
#
#######################################################################
#
# If this CIF has been generated from an entry in the Cambridge
# Structural Database, then it will include bibliographic, chemical,
# crystal, experimental, refinement or atomic coordinate data resulting
# from the CCDC's data processing and validation procedures.
#
#######################################################################

data_CSD_CIF_RUGRIX
_audit_creation_date 2019-12-19
_audit_creation_method CSD-ConQuest-V1
_database_code_CSD RUGRIX
_database_code_depnum_ccdc_archive 'CCDC 1947184'
_chemical_formula_sum 'C208 H227 Cs1 N96 O112 U5'
_chemical_formula_moiety
;
(C24 H12 O16 U2 2-)2n,n(C16 H14 O12 U1 2-),15n(H2 O1),n(Cs1 1+),5n(H3 O1 
1+),3n(C48 H48 N32 O16)
;
_journal_coden_Cambridge 9
_journal_volume 59
_journal_year 2020
_journal_page_first 943
_journal_name_full 'Inorg.Chem. '
loop_
_publ_author_name
"Shu-wen An"
"Lei Mei"
"Kong-qiu Hu"
"Zhi-hui Zhang"
"Chuan-qin Xia"
"Zhi-fang Chai"
"Wei-qun Shi"
_chemical_name_systematic
;
catena-(cesium pentakis(oxonium) 
bis(\m-tris(\m-terephthalato)-tetraoxo-di-uranium) 
diaqua-dioxo-bis(terephthalato)-uranium tris(cucurbit[8]uril) unknown solvate 
pentadecahydrate)
;
_cell_volume   7324.083
_exptl_crystal_colour 'yellow'
_exptl_crystal_density_diffrn 1.615
_exptl_special_details
;
It is not clear from the paper how the compound charge balances. We have 
assumed that the oxygen atoms are oxonium cations
;
_exptl_crystal_description 'block'
_diffrn_ambient_temperature 170
_diffrn_special_details
;
twin

;
_refine_special_details
;
The SQUEEZE/PLATON program was used to model some disorder.

;
#These two values have been output from a single CSD field.
_refine_ls_R_factor_gt 0.1006
_refine_ls_wR_factor_gt 0.1006
_symmetry_cell_setting triclinic
_symmetry_space_group_name_H-M 'P -1'
_symmetry_Int_Tables_number 2
loop_
_symmetry_equiv_pos_site_id
_symmetry_equiv_pos_as_xyz
1 x,y,z
2 -x,-y,-z
_cell_length_a 19.774(12)
_cell_length_b 19.772(12)
_cell_length_c 22.270(13)
_cell_angle_alpha 76.69(2)
_cell_angle_beta 79.18(2)
_cell_angle_gamma 60.189(18)
_cell_formula_units_Z 1
loop_
_atom_type_symbol
_atom_type_radius_bond
C 0.68
H 0.23
Cs 2.44
N 0.68
O 0.68
U 1.96
loop_
_atom_site_label
_atom_site_type_symbol
_atom_site_fract_x
_atom_site_fract_y
_atom_site_fract_z
U1 U 0.63327(4) 0.06527(4) 0.92653(3)
U2 U -0.03169(4) 0.40193(4) 0.91712(4)
O1 O 0.5040(7) 0.0761(7) 0.9276(6)
O2 O -0.2471(7) 0.9362(7) 0.9262(6)
O3 O 0.6448(7) 0.1843(7) 0.9235(6)
O4 O 0.5056(7) 0.1858(7) 0.9288(7)
O5 O 0.6253(7) 0.0460(8) 1.0087(6)
O6 O -0.3577(7) 0.9369(7) 0.9213(6)
O7 O 0.0967(7) 0.3945(8) 0.9168(7)
O8 O -0.0434(9) 0.5312(9) 0.9154(9)
O9 O -0.0234(8) 0.4179(9) 0.8359(7)
O10 O 0.7552(7) 0.0732(7) 0.9241(6)
O11 O 0.8499(7) 0.3896(8) 0.9152(8)
O12 O -0.1538(8) 0.5274(9) 0.9218(9)
O13 O 0.9591(7) 0.2817(8) 0.9193(7)
O14 O 0.6399(7) 0.0843(7) 0.8439(6)
O15 O -0.0419(8) 0.3837(9) 0.9993(7)
C1 C 0.3404(10) 0.1529(11) 0.9297(8)
H1 H 0.36720 0.09690 0.93460
C2 C -0.2832(11) 0.9007(11) 0.9240(9)
C3 C 0.7631(10) 0.3125(11) 0.9183(9)
H2 H 0.73550 0.36780 0.91900
C4 C 0.4672(9) 0.1509(10) 0.9278(8)
C5 C -0.1609(11) 0.7719(11) 0.9282(9)
H3 H -0.13390 0.79850 0.93350
C6 C 0.8848(10) 0.3185(11) 0.9166(9)
C7 C -0.1601(11) 0.6514(12) 0.9206(10)
C8 C 0.8422(10) 0.2743(11) 0.9162(8)
C9 C 0.8847(11) 0.1936(11) 0.917(1)
H4 H 0.94010 0.16740 0.91660
C10 C 0.7618(10) 0.1912(10) 0.9199(8)
O16 O 0.0971(7) 0.2814(7) 0.9203(7)
C11 C -0.2416(11) 0.8133(11) 0.9223(9)
C12 C 0.2202(10) 0.2762(11) 0.9215(9)
C13 C 0.7223(10) 0.2737(10) 0.9195(8)
H5 H 0.66690 0.30200 0.92010
C14 C 0.1338(10) 0.3191(11) 0.919(1)
C15 C -0.1210(11) 0.6914(10) 0.9263(9)
H6 H -0.06600 0.66320 0.92890
C16 C 0.3816(9) 0.1936(10) 0.9251(8)
C17 C 0.7184(10) 0.1476(10) 0.9229(8)
C18 C -0.2826(13) 0.7750(13) 0.9124(12)
H7 H -0.33640 0.80400 0.90530
C19 C 0.3418(10) 0.2763(11) 0.9197(9)
H8 H 0.37000 0.30430 0.91710
C20 C -0.2415(12) 0.6944(13) 0.9137(12)
H9 H -0.26820 0.66710 0.90980
C21 C 0.8447(10) 0.1504(11) 0.9184(9)
H10 H 0.87280 0.09510 0.91820
C22 C -0.1164(12) 0.5680(12) 0.9193(12)
C23 C 0.2598(10) 0.1938(11) 0.9272(9)
H11 H 0.23150 0.16590 0.92940
C24 C 0.2615(10) 0.3166(11) 0.918(1)
H12 H 0.23450 0.37250 0.91450
N1 N 0.8824(9) -0.0166(9) 0.7789(7)
N2 N 0.959(1) 0.0331(9) 0.7854(8)
N3 N 0.8639(10) -0.2069(10) 0.5601(8)
N4 N 1.0373(10) 0.0959(10) 0.7343(8)
O17 O 0.9544(9) 0.2145(9) 0.6786(7)
O18 O 0.9850(8) -0.2697(9) 0.5092(7)
O19 O 0.8386(8) 0.1175(8) 0.7478(6)
N5 N 0.9197(9) -0.2001(10) 0.7490(8)
N6 N 0.8127(10) -0.0632(10) 0.7356(8)
C25 C 0.9998(11) -0.0481(11) 0.8164(10)
H13 H 1.01080 -0.05130 0.85920
O20 O 0.732(1) 0.0404(9) 0.6661(8)
N7 N 1.1926(11) 0.0138(10) 0.6373(8)
N8 N 0.7617(11) -0.053(1) 0.4644(9)
C26 C 0.7823(12) -0.1610(12) 0.5437(10)
H14 H 0.75370 -0.19270 0.55660
N9 N 0.7389(10) -0.0849(10) 0.5650(8)
C27 C 0.8067(11) -0.1643(11) 0.7032(9)
H15 H 0.77540 -0.19230 0.72170
O21 O 1.0124(8) -0.2836(9) 0.6831(7)
C28 C 0.8868(11) 0.0524(11) 0.7685(9)
C29 C 0.8094(11) -0.0147(12) 0.7779(10)
H16 H 0.76950 0.04060 0.76550
H17 H 0.79260 -0.03340 0.82030
N10 N 1.145(1) -0.0355(10) 0.7235(9)
N11 N 1.0699(9) -0.1000(9) 0.7805(8)
N12 N 0.9125(10) -0.1468(10) 0.3505(8)
N13 N 0.8747(10) -0.1835(10) 0.4584(8)
O22 O 1.2117(9) -0.1116(9) 0.6473(8)
C30 C 1.1424(12) -0.0974(12) 0.7719(11)
H18 H 1.18510 -0.13340 0.79590
N14 N 0.9925(9) -0.1517(9) 0.7876(8)
N15 N 0.7620(9) -0.0898(9) 0.6678(7)
C31 C 1.1192(12) 0.0442(11) 0.7346(10)
H19 H 1.13930 0.04270 0.77320
C32 C 1.0185(12) 0.1588(11) 0.6868(9)
O23 O 0.6923(12) 0.0465(10) 0.5242(8)
O24 O 1.1176(8) -0.2186(8) 0.7468(7)
C33 C 0.7294(15) -0.0244(13) 0.5172(11)
C34 C 1.0663(12) -0.1621(12) 0.7684(10)
C35 C 0.7061(13) -0.0764(14) 0.6287(10)
H20 H 0.66170 -0.02250 0.62960
H21 H 0.68560 -0.11430 0.64490
C36 C 0.9803(12) 0.0939(11) 0.7842(10)
H22 H 0.93260 0.14590 0.78060
H23 H 1.00120 0.08500 0.82400
C37 C 0.9154(12) -0.2249(12) 0.5094(10)
C38 C 0.7665(13) -0.0311(13) 0.6865(11)
C39 C 0.9453(12) -0.2380(12) 0.698(1)
C40 C 0.9438(11) -0.0811(11) 0.8164(9)
H24 H 0.92230 -0.09390 0.85930
C41 C 0.8841(12) -0.2560(12) 0.6216(9)
H25 H 0.84740 -0.27810 0.63600
H26 H 0.93740 -0.30090 0.61720
C42 C 0.8352(11) -0.1445(11) 0.7521(10)
H27 H 0.80980 -0.15490 0.79390
C43 C 0.7917(12) -0.1404(12) 0.4748(10)
H28 H 0.76140 -0.15490 0.45370
N16 N 0.8814(9) -0.2149(9) 0.6679(8)
C44 C 0.9043(13) -0.2060(12) 0.3978(10)
H29 H 0.95610 -0.25370 0.40120
H30 H 0.86880 -0.22060 0.38460
C45 C 1.1860(12) -0.0528(12) 0.6689(11)
C46 C 0.9712(12) -0.2146(12) 0.7937(10)
H31 H 1.01960 -0.26500 0.78920
H32 H 0.94560 -0.22080 0.83580
C47 C 1.2593(13) 0.0059(13) 0.594(1)
H33 H 1.31190 -0.02760 0.60380
C48 C 1.1570(12) 0.0767(11) 0.6765(9)
H34 H 1.19570 0.09030 0.68640
N17 N 0.3892(9) 0.4270(9) 0.8006(7)
O25 O 0.5023(8) 0.4078(8) 0.2416(7)
O26 O 0.7268(11) 0.2017(10) 0.5159(8)
O27 O 0.4339(9) 0.3158(9) 0.7579(7)
N18 N 0.4562(9) 0.5412(9) 0.2123(8)
N19 N 0.7020(9) 0.3762(9) 0.2557(7)
N20 N 0.6496(9) 0.2880(9) 0.7290(8)
C49 C 0.2937(10) 0.5727(10) 0.3126(8)
N21 N 0.5198(9) 0.3510(9) 0.7820(8)
O28 O 0.6464(9) 0.2204(8) 0.6586(7)
N22 N 0.7483(10) 0.2476(9) 0.6575(7)
C50 C 0.4888(10) 0.5937(10) 0.1795(9)
H35 H 0.46600 0.62200 0.13890
N23 N 0.8074(10) 0.2337(10) 0.5528(8)
N24 N 0.2727(9) 0.5132(9) 0.7473(7)
O29 O 0.2584(9) 0.4388(8) 0.6929(7)
O30 O 0.3049(9) 0.5080(8) 0.3252(7)
O31 O 0.2191(9) 0.5161(9) 0.5013(7)
N25 N 0.1921(10) 0.6423(10) 0.4515(8)
C51 C 0.7702(14) 0.2336(14) 0.5081(11)
C52 C 0.4451(11) 0.3617(11) 0.7776(8)
N26 N 0.1831(10) 0.6187(10) 0.5552(8)
C53 C 0.1645(13) 0.5809(14) 0.6160(9)
H36 H 0.10850 0.61310 0.62940
H37 H 0.17270 0.52830 0.61240
C54 C 0.1998(11) 0.5850(13) 0.5024(10)
N27 N 0.2114(10) 0.5717(10) 0.6624(8)
N28 N 0.7852(12) 0.2744(12) 0.4533(9)
C55 C 0.5764(11) 0.5388(10) 0.1704(9)
H38 H 0.59510 0.53710 0.12560
C56 C 0.5892(11) 0.2776(11) 0.7754(9)
H39 H 0.57530 0.24160 0.76260
H40 H 0.61120 0.25280 0.81600
N29 N 0.2410(9) 0.6375(9) 0.3418(7)
O32 O 0.6517(10) 0.3052(10) 0.3284(7)
C57 C 0.6965(12) 0.3329(11) 0.3119(9)
N30 N 0.5850(9) 0.4613(9) 0.2038(8)
C58 C 0.2399(11) 0.5962(11) 0.7491(9)
H41 H 0.20060 0.61250 0.78560
N31 N 0.3240(9) 0.6075(9) 0.2593(7)
C59 C 0.1559(13) 0.7031(13) 0.5398(9)
H42 H 0.10400 0.73430 0.56200
N32 N 0.7466(12) 0.3274(10) 0.3486(8)
C60 C 0.6561(11) 0.3897(11) 0.2055(9)
H43 H 0.68770 0.39030 0.16540
H44 H 0.64450 0.34530 0.21070
C61 C 0.1526(12) 0.7200(12) 0.4691(9)
H45 H 0.09730 0.75010 0.45790
C62 C 0.2480(12) 0.5017(12) 0.7004(9)
C63 C 0.6789(11) 0.2484(10) 0.6802(9)
C64 C 0.3072(11) 0.4521(11) 0.8007(9)
H46 H 0.27920 0.47310 0.83950
H47 H 0.30040 0.40610 0.79980
C65 C 0.3749(11) 0.5612(12) 0.2115(9)
H48 H 0.37120 0.51190 0.21750
H49 H 0.35680 0.59140 0.17040
C66 C 0.2310(12) 0.7116(11) 0.3092(9)
H50 H 0.17770 0.74560 0.29410
C67 C 0.5131(11) 0.4646(11) 0.2206(9)
C68 C 0.8053(13) 0.1945(12) 0.6151(10)
H51 H 0.83770 0.13960 0.62770
C69 C 0.7040(11) 0.3101(11) 0.7445(9)
H52 H 0.72520 0.28010 0.78530
C70 C 0.2026(11) 0.6383(11) 0.6880(9)
H53 H 0.14670 0.67920 0.69410
C71 C 0.1820(12) 0.6290(13) 0.3929(9)
H54 H 0.12850 0.66750 0.38100
H55 H 0.18790 0.57540 0.39800
C72 C 0.7796(16) 0.2568(14) 0.3954(11)
H56 H 0.79570 0.20510 0.38850
N33 N 0.4971(10) 0.011(1) 0.2189(7)
N34 N 0.4324(11) 0.2342(10) 0.6659(8)
N35 N 0.4589(11) 0.1260(11) 0.7363(9)
N36 N 0.3235(10) 0.3306(10) 0.4547(8)
N37 N 0.3066(11) 0.3129(10) 0.5587(8)
O33 O 0.3657(9) 0.0879(9) 0.2463(7)
N38 N 0.6333(9) -0.014(1) 0.2147(8)
C73 C 0.3585(13) 0.2505(12) 0.6987(9)
H57 H 0.33560 0.30050 0.71610
O34 O 0.2349(9) 0.2876(8) 0.5062(6)
O35 O 0.2798(9) 0.2620(9) 0.3198(8)
N39 N 0.4846(11) 0.2787(11) 0.3605(8)
C74 C 0.2839(12) 0.3080(11) 0.5055(9)
N40 N 0.3522(10) 0.3112(10) 0.3476(8)
N41 N 0.5848(10) 0.1129(10) 0.2179(9)
N42 N 0.3032(10) 0.251(1) 0.6662(7)
N43 N 0.5262(10) 0.223(1) 0.2755(8)
O36 O 0.5599(10) 0.1318(10) 0.6669(8)
C75 C 0.5855(12) 0.1822(12) 0.2262(11)
H58 H 0.57580 0.21950 0.18670
H59 H 0.63810 0.16730 0.23690
O37 O 0.2336(10) 0.1842(9) 0.6776(8)
C76 C 0.5011(14) 0.3093(16) 0.4048(11)
H60 H 0.48880 0.36490 0.38850
H61 H 0.55760 0.27870 0.41080
O38 O 0.6089(10) 0.1688(10) 0.3537(9)
C77 C 0.4198(12) 0.3232(12) 0.3235(9)
H62 H 0.40500 0.38050 0.31450
N44 N 0.3903(10) 0.2589(10) 0.2614(8)
N45 N 0.4320(11) 0.3089(11) 0.5648(8)
C78 C 0.3781(13) 0.1783(12) 0.7518(10)
H63 H 0.36890 0.19350 0.79360
C79 C 0.2602(13) 0.3130(12) 0.6179(9)
H64 H 0.23960 0.36460 0.63140
H65 H 0.21490 0.30740 0.61200
C80 C 0.3080(12) 0.0941(11) 0.7874(10)
H66 H 0.30190 0.10550 0.82970
H67 H 0.25760 0.10030 0.77920
C81 C 0.4484(14) 0.2955(12) 0.6286(10)
H68 H 0.50410 0.28030 0.62980
H69 H 0.41590 0.34500 0.64610
C82 C 0.5617(10) 0.0239(11) 0.1841(10)
H70 H 0.57170 0.01250 0.14080
N46 N 0.4558(12) 0.3059(13) 0.4648(9)
C83 C 0.3370(12) 0.2761(12) 0.3112(10)
C84 C 0.5320(9) 0.1110(11) 0.1851(10)
H71 H 0.53380 0.13880 0.14170
C85 C 0.3549(12) 0.3543(12) 0.5425(9)
H72 H 0.32620 0.40790 0.55490
C86 C 0.4303(13) 0.0820(13) 0.2283(10)
N47 N 0.3248(10) 0.1515(9) 0.7435(8)
C87 C 0.4924(14) -0.0601(12) 0.2197(9)
H73 H 0.46080 -0.06320 0.19420
O39 O 0.7043(9) 0.0258(9) 0.2560(8)
C88 C 0.4909(15) 0.1611(13) 0.6864(11)
C89 C 0.4489(12) 0.2852(12) 0.2624(10)
H74 H 0.44970 0.32390 0.22490
C90 C 0.3927(13) 0.2225(13) 0.2117(11)
H75 H 0.34110 0.22530 0.21290
H76 H 0.40020 0.25420 0.17210
C91 C 0.2812(12) 0.1946(11) 0.6921(9)
O40 O 0.5609(11) 0.2403(12) 0.5240(8)
C92 C 0.2936(13) 0.3540(13) 0.3954(9)
H77 H 0.27490 0.41130 0.38210
H78 H 0.24820 0.34450 0.39920
C93 C 0.5484(13) 0.2168(13) 0.3319(10)
N48 N 0.4515(8) 0.1422(10) 0.2112(8)
C94 C 0.3718(13) 0.3591(14) 0.4721(10)
H79 H 0.35810 0.41420 0.45090
C95 C 0.6473(13) 0.0392(12) 0.2324(10)
C96 C 0.4902(15) 0.2801(15) 0.5179(11)
Cs1 Cs 0.6584(3) 0.1389(3) 0.5874(2)
O41 O 0.8123(14) 0.0496(13) 0.5596(10)
O42 O 0.5505(14) 0.1039(14) 0.5595(11)
O43 O 0.6221(10) 0.3978(12) 0.0482(9)
C97 C 0.6438(6) 0.2013(9) 0.0702(7)
H80 H 0.59140 0.21410 0.06680
C98 C 0.7013(9) 0.1228(8) 0.0792(7)
H81 H 0.68830 0.08180 0.08190
C99 C 0.7780(8) 0.1041(7) 0.0841(7)
C100 C 0.7970(7) 0.1639(10) 0.0801(7)
H82 H 0.84940 0.15110 0.08350
C101 C 0.7394(9) 0.2425(8) 0.0712(7)
H83 H 0.75250 0.28340 0.06840
C102 C 0.6628(8) 0.2611(7) 0.0662(7)
C103 C 0.5969(15) 0.3437(18) 0.0635(12)
O44 O 0.8123(12) -0.0323(13) 0.1124(9)
O45 O 0.9103(12) -0.0035(13) 0.0860(12)
O46 O 0.5363(12) 0.3632(15) 0.0444(12)
C104 C 0.8387(12) 0.0189(9) 0.0942(11)
U3 U 0.50000 0.50000 0.00000
O47 O 0.4640(12) 0.5329(14) 0.0735(10)
O48 O 0.3953(14) 0.4685(18) 0.0174(13)
O49 O 0.5313(13) -0.1022(15) 0.9247(11)
O50 O 0.9202(13) -0.1728(11) 0.1525(11)
O51 O 0.4429(15) 0.2593(13) 0.0533(12)
O52 O 0.1096(16) 0.5480(18) 0.8677(16)
O53 O 0.2586(14) 0.5146(19) -0.0355(14)
O54 O 0.0964(18) 0.278(2) 0.7527(14)
O55 O 1.0230(17) -0.2125(14) 0.9409(12)
O56 O 0.1563(18) 0.657(2) 0.8924(11)
U1* U -0.36673(4) 1.06527(4) 0.92653(3)
U2* U 0.96831(4) 0.40193(4) 0.91712(4)
O2* O 0.7529(7) -0.0638(7) 0.9262(6)
O6* O 0.6423(7) -0.0631(7) 0.9213(6)
O11* O -0.1501(7) 0.3896(8) 0.9152(8)
O13* O -0.0409(7) 0.2817(8) 0.9193(7)
N1A N 1.1176(9) 0.0166(9) 0.2211(7)
N2A N 1.041(1) -0.0331(9) 0.2146(8)
N3A N 1.1361(10) 0.2069(10) 0.4399(8)
N4A N 0.9627(10) -0.0959(10) 0.2657(8)
O17A O 1.0456(9) -0.2145(9) 0.3214(7)
O18A O 1.0150(8) 0.2697(9) 0.4908(7)
O19A O 1.1614(8) -0.1175(8) 0.2522(6)
N5A N 1.0803(9) 0.2001(10) 0.2510(8)
N6A N 1.1873(10) 0.0632(10) 0.2644(8)
C25A C 1.0002(11) 0.0481(11) 0.1836(10)
H13A H 0.98920 0.05130 0.14080
O20A O 1.268(1) -0.0404(9) 0.3339(8)
N7A N 0.8074(11) -0.0138(10) 0.3627(8)
N8A N 1.2383(11) 0.053(1) 0.5356(9)
C26A C 1.2177(12) 0.1610(12) 0.4563(10)
H14A H 1.24630 0.19270 0.44340
N9A N 1.2611(10) 0.0849(10) 0.4350(8)
C27A C 1.1933(11) 0.1643(11) 0.2968(9)
H15A H 1.22460 0.19230 0.27830
O21A O 0.9876(8) 0.2836(9) 0.3169(7)
C28A C 1.1132(11) -0.0524(11) 0.2315(9)
C29A C 1.1906(11) 0.0147(12) 0.2221(10)
H16A H 1.23050 -0.04060 0.23450
H17A H 1.20740 0.03340 0.17970
N10A N 0.855(1) 0.0355(10) 0.2765(9)
N11A N 0.9301(9) 0.1000(9) 0.2195(8)
N12A N 1.0875(10) 0.1468(10) 0.6495(8)
N13A N 1.1253(10) 0.1835(10) 0.5416(8)
O22A O 0.7883(9) 0.1116(9) 0.3527(8)
C30A C 0.8576(12) 0.0974(12) 0.2281(11)
H18A H 0.81490 0.13340 0.20410
N14A N 1.0075(9) 0.1517(9) 0.2124(8)
N15A N 1.2380(9) 0.0898(9) 0.3322(7)
C31A C 0.8808(12) -0.0442(11) 0.2654(10)
H19A H 0.86070 -0.04270 0.22680
C32A C 0.9815(12) -0.1588(11) 0.3132(9)
O23A O 1.3077(12) -0.0465(10) 0.4758(8)
O24A O 0.8824(8) 0.2186(8) 0.2532(7)
C33A C 1.2706(15) 0.0244(13) 0.4828(11)
C34A C 0.9337(12) 0.1621(12) 0.2316(10)
C35A C 1.2939(13) 0.0764(14) 0.3713(10)
H20A H 1.33830 0.02250 0.37040
H21A H 1.31440 0.11430 0.35510
C36A C 1.0197(12) -0.0939(11) 0.2158(10)
H22A H 1.06740 -0.14590 0.21940
H23A H 0.99880 -0.08500 0.17600
C37A C 1.0846(12) 0.2249(12) 0.4906(10)
C38A C 1.2335(13) 0.0311(13) 0.3135(11)
C39A C 1.0547(12) 0.2380(12) 0.302(1)
C40A C 1.0562(11) 0.0811(11) 0.1836(9)
H24A H 1.07770 0.09390 0.14070
C41A C 1.1159(12) 0.2560(12) 0.3784(9)
H25A H 1.15260 0.27810 0.36400
H26A H 1.06260 0.30090 0.38280
C42A C 1.1648(11) 0.1445(11) 0.2479(10)
H27A H 1.19020 0.15490 0.20610
C43A C 1.2083(12) 0.1404(12) 0.5252(10)
H28A H 1.23860 0.15490 0.54630
N16A N 1.1186(9) 0.2149(9) 0.3321(8)
C44A C 1.0957(13) 0.2060(12) 0.6022(10)
H29A H 1.04390 0.25370 0.59880
H30A H 1.13120 0.22060 0.61540
C45A C 0.8140(12) 0.0528(12) 0.3311(11)
C46A C 1.0288(12) 0.2146(12) 0.2063(10)
H31A H 0.98040 0.26500 0.21080
H32A H 1.05440 0.22080 0.16420
C47A C 0.7407(13) -0.0059(13) 0.406(1)
H33A H 0.68810 0.02760 0.39620
C48A C 0.8430(12) -0.0767(11) 0.3235(9)
H34A H 0.80430 -0.09030 0.31360
N17A N 0.6108(9) 0.5730(9) 0.1994(7)
O25A O 0.4977(8) 0.5922(8) 0.7584(7)
O26A O 0.2732(11) 0.7983(10) 0.4841(8)
O27A O 0.5661(9) 0.6842(9) 0.2421(7)
N18A N 0.5438(9) 0.4588(9) 0.7877(8)
N19A N 0.2980(9) 0.6238(9) 0.7443(7)
N20A N 0.3504(9) 0.7120(9) 0.2710(8)
C49A C 0.7063(10) 0.4273(10) 0.6874(8)
N21A N 0.4802(9) 0.6490(9) 0.2180(8)
O28A O 0.3536(9) 0.7796(8) 0.3414(7)
N22A N 0.2517(10) 0.7524(9) 0.3425(7)
C50A C 0.5112(10) 0.4063(10) 0.8205(9)
H35A H 0.53400 0.37800 0.86110
N23A N 0.1926(10) 0.7663(10) 0.4472(8)
N24A N 0.7273(9) 0.4868(9) 0.2527(7)
O29A O 0.7416(9) 0.5612(8) 0.3071(7)
O30A O 0.6951(9) 0.4920(8) 0.6748(7)
O31A O 0.7809(9) 0.4839(9) 0.4987(7)
N25A N 0.8079(10) 0.3577(10) 0.5485(8)
C51A C 0.2298(14) 0.7664(14) 0.4919(11)
C52A C 0.5549(11) 0.6383(11) 0.2224(8)
N26A N 0.8169(10) 0.3813(10) 0.4448(8)
C53A C 0.8355(13) 0.4191(14) 0.3840(9)
H36A H 0.89150 0.38690 0.37060
H37A H 0.82730 0.47170 0.38760
C54A C 0.8002(11) 0.4150(13) 0.4976(10)
N27A N 0.7886(10) 0.4283(10) 0.3376(8)
N28A N 0.2148(12) 0.7256(12) 0.5467(9)
C55A C 0.4236(11) 0.4612(10) 0.8296(9)
H38A H 0.40490 0.46290 0.87440
C56A C 0.4108(11) 0.7224(11) 0.2246(9)
H39A H 0.42470 0.75840 0.23740
H40A H 0.38880 0.74720 0.18400
N29A N 0.7590(9) 0.3625(9) 0.6582(7)
O32A O 0.3483(10) 0.6948(10) 0.6716(7)
C57A C 0.3035(12) 0.6671(11) 0.6881(9)
N30A N 0.4150(9) 0.5387(9) 0.7962(8)
C58A C 0.7601(11) 0.4038(11) 0.2509(9)
H41A H 0.79940 0.38750 0.21440
N31A N 0.6760(9) 0.3925(9) 0.7407(7)
C59A C 0.8441(13) 0.2969(13) 0.4602(9)
H42A H 0.89600 0.26570 0.43800
N32A N 0.2534(12) 0.6726(10) 0.6514(8)
C60A C 0.3439(11) 0.6103(11) 0.7945(9)
H43A H 0.31230 0.60970 0.83460
H44A H 0.35550 0.65470 0.78930
C61A C 0.8474(12) 0.2800(12) 0.5309(9)
H45A H 0.90270 0.24990 0.54210
C62A C 0.7520(12) 0.4983(12) 0.2996(9)
C63A C 0.3211(11) 0.7516(10) 0.3198(9)
C64A C 0.6928(11) 0.5479(11) 0.1993(9)
H46A H 0.72080 0.52690 0.16050
H47A H 0.69960 0.59390 0.20020
C65A C 0.6251(11) 0.4388(12) 0.7885(9)
H48A H 0.62880 0.48810 0.78250
H49A H 0.64320 0.40860 0.82960
C66A C 0.7690(12) 0.2884(11) 0.6908(9)
H50A H 0.82230 0.25440 0.70590
C67A C 0.4869(11) 0.5354(11) 0.7794(9)
C68A C 0.1947(13) 0.8055(12) 0.3849(10)
H51A H 0.16230 0.86040 0.37230
C69A C 0.2960(11) 0.6899(11) 0.2555(9)
H52A H 0.27480 0.71990 0.21470
C70A C 0.7974(11) 0.3617(11) 0.3120(9)
H53A H 0.85330 0.32080 0.30590
C71A C 0.8180(12) 0.3710(13) 0.6071(9)
H54A H 0.87150 0.33250 0.61900
H55A H 0.81210 0.42460 0.60200
C72A C 0.2204(16) 0.7432(14) 0.6046(11)
H56A H 0.20430 0.79490 0.61150
N33A N 0.5029(10) -0.011(1) 0.7811(7)
N34A N 0.5676(11) -0.2342(10) 0.3341(8)
N35A N 0.5411(11) -0.1260(11) 0.2637(9)
N36A N 0.6765(10) -0.3306(10) 0.5453(8)
N37A N 0.6934(11) -0.3129(10) 0.4413(8)
O33A O 0.6343(9) -0.0879(9) 0.7537(7)
N38A N 0.3667(9) 0.014(1) 0.7853(8)
C73A C 0.6415(13) -0.2505(12) 0.3013(9)
H57A H 0.66440 -0.30050 0.28390
O34A O 0.7651(9) -0.2876(8) 0.4938(6)
O35A O 0.7202(9) -0.2620(9) 0.6802(8)
N39A N 0.5154(11) -0.2787(11) 0.6395(8)
C74A C 0.7161(12) -0.3080(11) 0.4945(9)
N40A N 0.6478(10) -0.3112(10) 0.6524(8)
N41A N 0.4152(10) -0.1129(10) 0.7821(9)
N42A N 0.6968(10) -0.251(1) 0.3338(7)
N43A N 0.4738(10) -0.223(1) 0.7245(8)
O36A O 0.4401(10) -0.1318(10) 0.3331(8)
C75A C 0.4145(12) -0.1822(12) 0.7738(11)
H58A H 0.42420 -0.21950 0.81330
H59A H 0.36190 -0.16730 0.76310
O37A O 0.7664(10) -0.1842(9) 0.3224(8)
C76A C 0.4989(14) -0.3093(16) 0.5952(11)
H60A H 0.51120 -0.36490 0.61150
H61A H 0.44240 -0.27870 0.58920
O38A O 0.3911(10) -0.1688(10) 0.6463(9)
C77A C 0.5802(12) -0.3232(12) 0.6765(9)
H62A H 0.59500 -0.38050 0.68550
N44A N 0.6097(10) -0.2589(10) 0.7386(8)
N45A N 0.5680(11) -0.3089(11) 0.4352(8)
C78A C 0.6219(13) -0.1783(12) 0.2482(10)
H63A H 0.63110 -0.19350 0.20640
C79A C 0.7398(13) -0.3130(12) 0.3821(9)
H64A H 0.76040 -0.36460 0.36860
H65A H 0.78510 -0.30740 0.38800
C80A C 0.6920(12) -0.0941(11) 0.2126(10)
H66A H 0.69810 -0.10550 0.17030
H67A H 0.74240 -0.10030 0.22080
C81A C 0.5516(14) -0.2955(12) 0.3714(10)
H68A H 0.49590 -0.28030 0.37020
H69A H 0.58410 -0.34500 0.35390
C82A C 0.4383(10) -0.0239(11) 0.8159(10)
H70A H 0.42830 -0.01250 0.85920
N46A N 0.5442(12) -0.3059(13) 0.5352(9)
C83A C 0.6630(12) -0.2761(12) 0.6888(10)
C84A C 0.4680(9) -0.1110(11) 0.8149(10)
H71A H 0.46620 -0.13880 0.85830
C85A C 0.6451(12) -0.3543(12) 0.4575(9)
H72A H 0.67380 -0.40790 0.44510
C86A C 0.5697(13) -0.0820(13) 0.7717(10)
N47A N 0.6752(10) -0.1515(9) 0.2565(8)
C87A C 0.5076(14) 0.0601(12) 0.7803(9)
H73A H 0.53920 0.06320 0.80580
O39A O 0.2957(9) -0.0258(9) 0.7440(8)
C88A C 0.5091(15) -0.1611(13) 0.3136(11)
C89A C 0.5511(12) -0.2852(12) 0.7376(10)
H74A H 0.55030 -0.32390 0.77510
C90A C 0.6073(13) -0.2225(13) 0.7883(11)
H75A H 0.65890 -0.22530 0.78710
H76A H 0.59980 -0.25420 0.82790
C91A C 0.7188(12) -0.1946(11) 0.3079(9)
O40A O 0.4391(11) -0.2403(12) 0.4760(8)
C92A C 0.7064(13) -0.3540(13) 0.6046(9)
H77A H 0.72510 -0.41130 0.61790
H78A H 0.75180 -0.34450 0.60080
C93A C 0.4516(13) -0.2168(13) 0.6681(10)
N48A N 0.5485(8) -0.1422(10) 0.7888(8)
C94A C 0.6282(13) -0.3591(14) 0.5279(10)
H79A H 0.64190 -0.41420 0.54910
C95A C 0.3527(13) -0.0392(12) 0.7676(10)
C96A C 0.5098(15) -0.2801(15) 0.4821(11)
O43A O 0.3779(10) 0.6022(12) -0.0482(9)
C97A C 0.3562(6) 0.7987(9) -0.0702(7)
H80A H 0.40860 0.78590 -0.06680
C98A C 0.2987(9) 0.8772(8) -0.0792(7)
H81A H 0.31170 0.91820 -0.08190
C99A C 0.2220(8) 0.8959(7) -0.0841(7)
C100A C 0.2030(7) 0.8361(10) -0.0801(7)
H82A H 0.15060 0.84890 -0.08350
C101A C 0.2606(9) 0.7575(8) -0.0712(7)
H83A H 0.24750 0.71660 -0.06840
C102A C 0.3372(8) 0.7389(7) -0.0662(7)
C103A C 0.4031(15) 0.6563(18) -0.0635(12)
O44A O 0.1877(12) 1.0323(13) -0.1124(9)
O45A O 0.0897(12) 1.0035(13) -0.0860(12)
O46A O 0.4637(12) 0.6368(15) -0.0444(12)
C104A C 0.1613(12) 0.9811(9) -0.0942(11)
O47A O 0.5360(12) 0.4671(14) -0.0735(10)
O48A O 0.6047(14) 0.5315(18) -0.0174(13)
#END
