
#######################################################################
#
#                 Cambridge Crystallographic Data Centre
#                                CCDC
#
#######################################################################
#
# If this CIF has been generated from an entry in the Cambridge
# Structural Database, then it will include bibliographic, chemical,
# crystal, experimental, refinement or atomic coordinate data resulting
# from the CCDC's data processing and validation procedures.
#
#######################################################################

data_CSD_CIF_RUGXIC
_audit_creation_date 2015-03-13
_audit_creation_method CSD-ConQuest-V1
_database_code_CSD RUGXIC
_database_code_depnum_ccdc_archive 'CCDC 1035659'
_chemical_formula_sum 'C27.75 H39.75 N4.25 O14.25 Zn2'
_chemical_formula_moiety
;
(C16 H9 O11 Zn2 1-)n,n(C2 H8 N1 1+),3.25n(C3 H7 N1 O1)
;
_journal_coden_Cambridge 1147
_journal_volume 15
_journal_year 2015
_journal_page_first 1452
_journal_name_full 'Cryst.Growth Des. '
loop_
_publ_author_name
"M.D.Hill"
"S.El-Hankari"
"M.Chiacchia"
"G.J.Tizzard"
"S.J.Coles"
"D.Bradshaw"
"J.A.Kitchen"
"T.D.Keene"
_chemical_name_systematic
;
catena-(Dimethylammonium 
(\m~4~-5-hydroxyisophthalato)-(\m~4~-5-oxyisophthalato)-aqua-di-zinc 
dimethylformamide solvate)
;
_cell_volume   7379.294
_exptl_crystal_colour 'colorless'
_exptl_crystal_density_diffrn 0.992
_exptl_special_details
;
Moisture-sensitive

;
_exptl_crystal_description 'Block'
_exptl_crystal_preparation 'dimethylformamide'
_diffrn_ambient_temperature 100
_refine_special_details
;
C21A,C22A,C23A,C24A,C25A,C26A,O21A and C21B,C22B,C23B, C24B,C25B,C26B,O21B 
disordered over two sites with occupancies 0.5:0.5. The SQUEEZE/PLATON 
program was used to take into account the dimethylformamide solvent 
molecules.
;
#These two values have been output from a single CSD field.
_refine_ls_R_factor_gt 0.0993
_refine_ls_wR_factor_gt 0.0993
_symmetry_cell_setting monoclinic
_symmetry_space_group_name_H-M 'C 2/c'
_symmetry_Int_Tables_number 15
loop_
_symmetry_equiv_pos_site_id
_symmetry_equiv_pos_as_xyz
1 x,y,z
2 -x,y,1/2-z
3 1/2+x,1/2+y,z
4 1/2-x,1/2+y,1/2-z
5 -x,-y,-z
6 x,-y,-1/2+z
7 -1/2-x,-1/2-y,-z
8 -1/2+x,-1/2-y,-1/2+z
_cell_length_a 23.6519(17)
_cell_length_b 13.0546(9)
_cell_length_c 26.4620(19)
_cell_angle_alpha 90
_cell_angle_beta 115.424(3)
_cell_angle_gamma 90
_cell_formula_units_Z 8
loop_
_atom_type_symbol
_atom_type_radius_bond
C 0.68
H 0.23
N 0.68
O 0.68
Zn 1.22
loop_
_atom_site_label
_atom_site_type_symbol
_atom_site_fract_x
_atom_site_fract_y
_atom_site_fract_z
O1 O 0.0068(9) 0.594(2) 0.1863(11)
C1 C 0.0684(7) 0.6199(16) 0.2026(8)
C2 C 0.1116(9) 0.5714(14) 0.2503(8)
H1 H 0.09790 0.52170 0.26890
C3 C 0.1748(8) 0.596(2) 0.2709(11)
C4 C 0.1948(8) 0.668(3) 0.2437(16)
H2 H 0.23800 0.68480 0.25780
C5 C 0.1515(12) 0.717(2) 0.1960(14)
C6 C 0.0883(11) 0.6926(17) 0.1755(8)
H3 H 0.05880 0.72570 0.14290
C7 C 0.2250(6) 0.5488(10) 0.3185(5)
C8 C 0.1705(5) 0.8079(11) 0.1678(4)
Zn1 Zn 0.25241(5) 0.36531(11) 0.38626(5)
Zn2 Zn 0.35934(5) 0.51385(10) 0.39631(5)
O2 O 0.3276(3) 0.4339(6) 0.4430(3)
O3 O 0.5493(3) 0.4819(6) 0.5777(3)
O4 O 0.2867(3) 0.2221(6) 0.5804(3)
O5 O 0.2205(4) 0.7883(6) 0.1630(3)
C9 C 0.5297(5) 0.4202(9) 0.6039(5)
O6 O 0.5667(4) 0.3787(7) 0.6500(3)
O7 O 0.3667(5) 0.6559(7) 0.4383(4)
C10 C 0.4623(5) 0.3958(8) 0.5777(4)
O8 O 0.2810(4) 0.5641(7) 0.3322(3)
C11 C 0.3415(5) 0.2495(10) 0.6059(4)
C12 C 0.3624(5) 0.4015(8) 0.4964(4)
O9 O 0.3722(5) 0.2224(11) 0.6576(4)
O10 O 0.1370(4) 0.8858(7) 0.1487(4)
C13 C 0.4347(5) 0.338(1) 0.6059(4)
H4 H 0.45950 0.31690 0.64330
C14 C 0.4261(4) 0.4257(8) 0.5241(4)
H5 H 0.44480 0.46440 0.50490
O11 O 0.2051(4) 0.4819(7) 0.3436(3)
C15 C 0.3351(5) 0.3438(8) 0.5258(4)
H6 H 0.29180 0.32730 0.50830
C16 C 0.3721(5) 0.3114(10) 0.5802(4)
O12? O 0.0201(9) 0.712(2) 0.2329(11)
C17? C 0.0761(8) 0.6948(16) 0.2373(8)
C18? C 0.1215(9) 0.6324(14) 0.2763(8)
H7? H 0.11210 0.59400 0.30220
C19? C 0.1808(8) 0.626(2) 0.2775(12)
C20? C 0.1946(9) 0.682(3) 0.2397(16)
H8? H 0.23510 0.67830 0.24050
C21? C 0.1492(12) 0.745(2) 0.2006(13)
C22? C 0.090(1) 0.7510(17) 0.1994(8)
H9? H 0.05890 0.79360 0.17270
N1 N 0.1434(17) 0.316(3) 0.1581(15)
H10 H 0.18200 0.35080 0.16120
H11 H 0.14330 0.24390 0.14700
C23 C 0.0811(18) 0.376(3) 0.1176(16)
H12 H 0.07850 0.37830 0.07960
H13 H 0.08250 0.44650 0.13130
H14 H 0.04430 0.34090 0.11710
C24 C 0.1318(17) 0.329(3) 0.2194(15)
H15 H 0.16650 0.29640 0.25080
H16 H 0.09230 0.29630 0.21380
H17 H 0.13020 0.40210 0.22770
Zn1C Zn 0.24759(5) 0.86531(11) 0.11374(5)
Zn1F Zn 0.24759(5) 0.13469(11) 0.61374(5)
Zn2C Zn 0.14066(5) 1.01385(10) 0.10369(5)
Zn2D Zn 0.64066(5) 0.48615(10) 0.60369(5)
O3D O 0.4507(3) 0.5181(6) 0.4223(3)
O4F O 0.2133(3) 0.2779(6) 0.4196(3)
O5C O 0.2795(4) 0.2883(6) 0.3370(3)
O10C O 0.3630(4) 0.3858(7) 0.3513(4)
O1A O -0.0068(9) 0.594(2) 0.3137(11)
C1A C -0.0684(7) 0.6199(16) 0.2974(8)
C2A C -0.1116(9) 0.5714(14) 0.2497(8)
H1A H -0.09790 0.52170 0.23110
C3A C -0.1748(8) 0.596(2) 0.2291(11)
C4A C -0.1948(8) 0.668(3) 0.2563(16)
H2A H -0.23800 0.68480 0.24220
C5A C -0.1515(12) 0.717(2) 0.3040(14)
C6A C -0.0883(11) 0.6926(17) 0.3245(8)
H3A H -0.05880 0.72570 0.35710
C7A C -0.2250(6) 0.5488(10) 0.1815(5)
C8A C -0.1705(5) 0.8079(11) 0.3322(4)
O5A O -0.2205(4) 0.7883(6) 0.3370(3)
O8A O -0.2810(4) 0.5641(7) 0.1678(3)
O10A O -0.1370(4) 0.8858(7) 0.3513(4)
O11A O -0.2051(4) 0.4819(7) 0.1564(3)
Zn1A Zn -0.25241(5) 0.36531(11) 0.11374(5)
Zn2A Zn -0.35934(5) 0.51385(10) 0.10369(5)
O2A O -0.3276(3) 0.4339(6) 0.0570(3)
O3A O -0.5493(3) 0.4819(6) -0.0777(3)
O4A O -0.2867(3) 0.2221(6) -0.0804(3)
C9A C -0.5297(5) 0.4202(9) -0.1039(5)
O6A O -0.5667(4) 0.3787(7) -0.1500(3)
O7A O -0.3667(5) 0.6559(7) 0.0617(4)
C10A C -0.4623(5) 0.3958(8) -0.0777(4)
C11A C -0.3415(5) 0.2495(10) -0.1059(4)
C12A C -0.3624(5) 0.4015(8) 0.0036(4)
O9A O -0.3722(5) 0.2224(11) -0.1576(4)
C13A C -0.4347(5) 0.338(1) -0.1059(4)
H4A H -0.45950 0.31690 -0.14330
C14A C -0.4261(4) 0.4257(8) -0.0241(4)
H5A H -0.44480 0.46440 -0.00490
C15A C -0.3351(5) 0.3438(8) -0.0258(4)
H6A H -0.29180 0.32730 -0.00830
C16A C -0.3721(5) 0.3114(10) -0.0802(4)
Zn1B Zn -0.24759(5) 0.86531(11) 0.38626(5)
Zn1G Zn -0.24759(5) 0.13469(11) -0.11374(5)
Zn2B Zn -0.14066(5) 1.01385(10) 0.39631(5)
Zn2E Zn -0.64066(5) 0.48615(10) -0.10369(5)
O3E O -0.4507(3) 0.5181(6) 0.0777(3)
O4G O -0.2133(3) 0.2779(6) 0.0804(3)
O5B O -0.2795(4) 0.2883(6) 0.1630(3)
O10B O -0.3630(4) 0.3858(7) 0.1487(4)
#END
