
#######################################################################
#
#                 Cambridge Crystallographic Data Centre
#                                CCDC
#
#######################################################################
#
# If this CIF has been generated from an entry in the Cambridge
# Structural Database, then it will include bibliographic, chemical,
# crystal, experimental, refinement or atomic coordinate data resulting
# from the CCDC's data processing and validation procedures.
#
#######################################################################

data_CSD_CIF_RUGXOI
_audit_creation_date 2015-03-13
_audit_creation_method CSD-ConQuest-V1
_database_code_CSD RUGXOI
_database_code_depnum_ccdc_archive 'CCDC 1035660'
_chemical_formula_sum 'C26 H36 N4 O12 Zn2'
_chemical_formula_moiety
;
(C16 H6 O10 Zn2 2-)n,2n(C2 H8 N1 1+),2n(C3 H7 N1 O1)
;
_journal_coden_Cambridge 1147
_journal_volume 15
_journal_year 2015
_journal_page_first 1452
_journal_name_full 'Cryst.Growth Des. '
loop_
_publ_author_name
"M.D.Hill"
"S.El-Hankari"
"M.Chiacchia"
"G.J.Tizzard"
"S.J.Coles"
"D.Bradshaw"
"J.A.Kitchen"
"T.D.Keene"
_chemical_name_systematic
;
catena-(bis(Dimethylammonium) 
(\m~4~-3,5-dicarboxylatophenolato-O,O,O',O'')-(\m~4~-3,5-dicarboxylatophenolat
o-O,O',O'',O''')-di-zinc dimethylformamide solvate)
;
_cell_volume   2727.882
_exptl_crystal_colour 'colorless'
_exptl_crystal_density_diffrn 1.415
_exptl_special_details
;
Luminescent
Moisture-sensitive

;
_exptl_crystal_description 'Block'
_exptl_crystal_preparation 'dimethylformamide'
_diffrn_ambient_temperature 100
_refine_special_details
;
The SQUEEZE/PLATON program may have been used.

;
#These two values have been output from a single CSD field.
_refine_ls_R_factor_gt 0.0631
_refine_ls_wR_factor_gt 0.0631
_symmetry_cell_setting monoclinic
_symmetry_space_group_name_H-M 'P 21/c'
_symmetry_Int_Tables_number 14
loop_
_symmetry_equiv_pos_site_id
_symmetry_equiv_pos_as_xyz
1 x,y,z
2 -x,1/2+y,1/2-z
3 -x,-y,-z
4 x,-1/2-y,-1/2+z
_cell_length_a 14.3288(9)
_cell_length_b 13.2643(8)
_cell_length_c 14.3563(10)
_cell_angle_alpha 90
_cell_angle_beta 91.296(6)
_cell_angle_gamma 90
_cell_formula_units_Z 4
loop_
_atom_type_symbol
_atom_type_radius_bond
C 0.68
H 0.23
N 0.68
O 0.68
Zn 1.22
loop_
_atom_site_label
_atom_site_type_symbol
_atom_site_fract_x
_atom_site_fract_y
_atom_site_fract_z
O1 O 0.5853(3) -0.3341(3) 0.3109(3)
O2 O 0.2305(3) -0.1012(3) 0.3230(3)
O3 O 0.2089(3) 0.0943(3) 0.1988(3)
O4 O 0.3666(3) -0.4881(3) 0.5480(3)
O5 O 0.3661(3) -0.0493(3) 0.2646(3)
O6 O 0.1325(3) 0.4202(3) -0.0795(3)
O7 O -0.0240(3) 0.4701(3) 0.2148(3)
C1 C 0.3152(4) -0.1118(4) 0.3079(4)
C2 C 0.4579(4) -0.3709(4) 0.4162(4)
H1 H 0.48850 -0.42970 0.43940
C3 C 0.1726(4) 0.1825(4) 0.1669(4)
C4 C 0.1995(4) 0.2224(4) 0.0822(4)
H2 H 0.24550 0.18890 0.04690
C5 C 0.5004(4) -0.3138(4) 0.3474(4)
O8 O -0.0355(4) 0.3405(4) 0.3126(4)
O9 O 0.2664(4) -0.3637(4) 0.5778(4)
C6 C 0.1076(4) 0.2356(4) 0.2201(4)
H3 H 0.08930 0.20950 0.27860
O10 O 0.2513(3) 0.3120(4) -0.0878(3)
C7 C 0.3634(4) -0.2040(4) 0.3468(4)
C8 C 0.0949(4) 0.3635(4) 0.1003(4)
H4 H 0.06780 0.42410 0.07690
C9 C 0.4508(4) -0.2285(5) 0.3140(5)
H5 H 0.47800 -0.18710 0.26790
C10 C 0.3230(4) -0.2599(5) 0.4165(4)
H6 H 0.26380 -0.24190 0.43980
C11 C 0.1591(4) 0.3121(4) 0.0484(4)
C12 C 0.0694(4) 0.3268(4) 0.1875(4)
C13 C 0.1845(4) 0.3494(4) -0.0477(4)
C14 C -0.0023(4) 0.3801(5) 0.2438(4)
C15 C 0.3302(5) -0.4004(5) 0.5307(5)
C16 C 0.3719(4) -0.3439(5) 0.4518(4)
Zn1 Zn 0.33592(4) 0.04960(5) 0.16657(4)
Zn2 Zn 0.15203(4) 0.01798(4) 0.29943(4)
N1 N 0.3470(4) 0.3179(5) 0.3035(4)
H7 H 0.29040 0.29750 0.32400
H8 H 0.37220 0.26600 0.27110
C17 C 0.4085(7) 0.3417(8) 0.3847(6)
H9 H 0.41530 0.28190 0.42440
H10 H 0.47000 0.36240 0.36310
H11 H 0.38110 0.39670 0.42060
C18 C 0.3338(8) 0.4070(7) 0.2397(8)
H12 H 0.29280 0.38800 0.18700
H13 H 0.30560 0.46260 0.27400
H14 H 0.39450 0.42830 0.21650
N2 N 0.1582(6) 0.7008(6) 0.1305(6)
H15 H 0.21370 0.72530 0.11090
H16 H 0.12350 0.75400 0.14990
C19 C 0.1087(6) 0.6511(6) 0.0507(6)
H17 H 0.09900 0.70000 0.00020
H18 H 0.14630 0.59470 0.02840
H19 H 0.04810 0.62590 0.07090
C20 C 0.1745(13) 0.6356(11) 0.2055(12)
H20 H 0.20710 0.67200 0.25590
H21 H 0.11480 0.61010 0.22780
H22 H 0.21300 0.57890 0.18530
O1A O 0.4147(3) 0.1659(3) 0.1891(3)
O4C O 0.3666(3) -0.0119(3) 0.0480(3)
O6C O 0.1325(3) 0.0798(3) 0.4205(3)
O7A O 0.0240(3) -0.0299(3) 0.2852(3)
Zn1A Zn 0.66408(4) -0.45040(5) 0.33343(4)
Zn1C Zn 0.33592(4) -0.54960(5) 0.66657(4)
Zn2A Zn -0.15203(4) 0.51798(4) 0.20057(4)
Zn2C Zn 0.15203(4) 0.48202(4) -0.20057(4)
#END
