
#######################################################################
#
#                 Cambridge Crystallographic Data Centre
#                                CCDC
#
#######################################################################
#
# If this CIF has been generated from an entry in the Cambridge
# Structural Database, then it will include bibliographic, chemical,
# crystal, experimental, refinement or atomic coordinate data resulting
# from the CCDC's data processing and validation procedures.
#
#######################################################################

data_CSD_CIF_RUGXUO
_audit_creation_date 2015-03-13
_audit_creation_method CSD-ConQuest-V1
_database_code_CSD RUGXUO
_database_code_depnum_ccdc_archive 'CCDC 1035661'
_chemical_formula_sum 'C110 H138 N12 O51 Zn8'
_chemical_formula_moiety
;
(C72 H32 O45 Zn8 6-)n,2n(C2 H8 N1 1+),4n(C4 H12 N1 1+),6n(C3 H7 N1 O1)
;
_journal_coden_Cambridge 1147
_journal_volume 15
_journal_year 2015
_journal_page_first 1452
_journal_name_full 'Cryst.Growth Des. '
loop_
_publ_author_name
"M.D.Hill"
"S.El-Hankari"
"M.Chiacchia"
"G.J.Tizzard"
"S.J.Coles"
"D.Bradshaw"
"J.A.Kitchen"
"T.D.Keene"
_chemical_name_systematic
;
catena-(tetrakis(Dimethylammonium) bis(tetramethylammonium) 
bis(\m~5~-3,5-dicarboxylatophenoxo)-bis(\m~4~-3,5-dicarboxylatophenoxo)-(\m~4~
-5-hydroxyisophthalato)-bis(\m~3~-5-hydroxyisophthalato)-bis(\m~2~-5-hydroxyis
ophthalato)-octa-zinc dimethylformamide solvate)
;
_cell_volume  13270.999
_exptl_crystal_colour 'colorless'
_exptl_crystal_density_diffrn 1.263
_exptl_special_details
;
Luminescent
Moisture-sensitive

;
_exptl_crystal_description 'Block'
_exptl_crystal_preparation 'dimethylformamide'
_diffrn_ambient_temperature 100
_refine_special_details
;
The SQUEEZE/PLATON program was used to model the disordered solvent 
;
#These two values have been output from a single CSD field.
_refine_ls_R_factor_gt 0.106
_refine_ls_wR_factor_gt 0.106
_symmetry_cell_setting orthorhombic
_symmetry_space_group_name_H-M 'C m c 21'
_symmetry_Int_Tables_number 36
loop_
_symmetry_equiv_pos_site_id
_symmetry_equiv_pos_as_xyz
1 x,y,z
2 -x,-y,1/2+z
3 -x,y,z
4 x,-y,1/2+z
5 1/2+x,1/2+y,z
6 1/2-x,1/2-y,1/2+z
7 1/2-x,1/2+y,z
8 1/2+x,1/2-y,1/2+z
_cell_length_a 54.076(4)
_cell_length_b 15.3088(6)
_cell_length_c 16.0309(6)
_cell_angle_alpha 90
_cell_angle_beta 90
_cell_angle_gamma 90
_cell_formula_units_Z 4
loop_
_atom_type_symbol
_atom_type_radius_bond
C 0.68
H 0.23
N 0.68
O 0.68
Zn 1.22
loop_
_atom_site_label
_atom_site_type_symbol
_atom_site_fract_x
_atom_site_fract_y
_atom_site_fract_z
Zn1 Zn 0.25296(3) 0.93899(9) 0.54909(10)
Zn2 Zn 0.20057(3) 0.94878(9) 0.65008(10)
Zn3 Zn 0.09555(4) 0.67407(12) 0.29350(16)
Zn4 Zn 0.07028(4) 0.84885(13) 0.33811(15)
O1 O 0.1009(2) 0.7787(7) 0.3619(7)
O2 O 0.1643(3) 0.9185(7) 0.1618(7)
O3 O 0.1841(2) 1.0066(6) 0.2464(6)
O4 O 0.1590(3) 0.8512(8) 0.5970(8)
O5 O 0.18693(19) 0.9333(7) 0.5390(6)
O6 O 0.22972(19) 1.0178(5) 0.6154(6)
O7 O 0.2433(2) 1.0439(5) 0.9297(5)
O8 O 0.2723(2) 1.1450(6) 0.9386(6)
O9 O 0.0721(3) 0.8552(8) 0.2173(9)
O10 O 0.0753(4) 1.0338(10) -0.1348(14)
O11 O 0.1349(3) 0.6506(9) 0.2460(9)
O12 O 0.0829(3) 0.7181(7) 0.1827(8)
O13 O 0.0651(2) 0.6339(7) 0.3503(9)
O14 O 0.0449(2) 0.7631(7) 0.3643(8)
O15 O 0.1072(3) 0.5512(8) 0.2722(10)
O16 O 0.2140(2) 0.4462(7) 0.0369(7)
O17 O 0.21648(19) 0.5609(6) 0.1183(6)
O18 O 0.2849(2) 1.3421(6) 0.7001(6)
O19 O 0.2620(2) 1.3228(6) 0.5845(6)
O20 O 0.1480(3) 0.2678(8) 0.2047(10)
O21 O 0.0718(4) 1.0774(10) -0.0095(12)
C1 C 0.1234(3) 0.8233(9) 0.3681(11)
C2 C 0.1344(3) 0.8571(9) 0.2986(10)
H1 H 0.12730 0.84810 0.24650
C3 C 0.1331(3) 0.832(1) 0.4452(12)
H2 H 0.12510 0.80880 0.49160
C4 C 0.1562(3) 0.9053(8) 0.3053(9)
C5 C 0.1556(3) 0.8773(9) 0.4535(9)
C6 C 0.1662(3) 0.9144(9) 0.3862(10)
H3 H 0.18060 0.94700 0.39330
C7 C 0.1682(3) 0.9435(10) 0.2302(10)
C8 C 0.1683(3) 0.8862(9) 0.5356(10)
C9 C 0.2401(3) 1.0781(8) 0.6709(9)
C10 C 0.2486(2) 1.1555(8) 0.6360(8)
H4 H 0.24650 1.16750 0.57960
C11 C 0.2423(3) 1.0599(8) 0.7516(8)
H5 H 0.23520 1.00880 0.77220
C12 C 0.2600(3) 1.2128(9) 0.6874(9)
C13 C 0.2547(3) 1.1148(8) 0.8059(8)
C14 C 0.2652(3) 1.1942(8) 0.7723(9)
H6 H 0.27480 1.23140 0.80480
C15 C 0.2571(3) 1.1011(10) 0.8957(10)
C16 C 0.2060(3) 0.4897(12) 0.0937(11)
C17 C 0.1828(3) 0.4678(9) 0.1382(11)
C18 C 0.0461(3) 0.6831(12) 0.3623(10)
C19 C 0.2701(3) 1.3013(9) 0.653(1)
C20 C 0.1757(3) 0.3775(9) 0.1448(12)
H7 H 0.18540 0.33510 0.11930
C21 C 0.0783(4) 0.7956(13) 0.1635(14)
C22 C 0.1675(3) 0.5287(9) 0.1710(9)
H8 H 0.17170 0.58740 0.16600
C23 C 0.1549(4) 0.3525(12) 0.1879(12)
C24 C 0.1271(4) 0.5734(12) 0.2443(13)
C25 C 0.1458(3) 0.5061(10) 0.212(1)
C26 C 0.1383(4) 0.4187(12) 0.2180(12)
H9 H 0.12300 0.40400 0.24080
C27 C 0.0827(6) 0.8200(14) 0.0762(14)
C28 C 0.0760(5) 0.9042(13) 0.0495(16)
H10 H 0.06850 0.94250 0.08670
C29 C 0.0908(5) 0.7615(13) 0.0185(18)
H11 H 0.09600 0.70650 0.03590
C30 C 0.0750(5) 1.0232(17) -0.0574(15)
C31 C 0.0917(6) 0.7821(19) -0.065(2)
C32 C 0.0805(8) 0.9297(18) -0.029(2)
O22 O 0.1017(7) 0.7263(18) -0.1280(17)
C33 C 0.0898(8) 0.8704(19) -0.086(2)
H12 H 0.09480 0.88950 -0.13840
O23 O 0.00000 0.409(3) 0.386(3)
C34 C 0.00000 0.498(5) 0.383(3)
C35 C 0.0195(16) 0.546(5) 0.374(4)
H13 H 0.03370 0.51800 0.35610
C36 C 0.0217(11) 0.639(4) 0.388(4)
C37 C 0.00000 0.676(5) 0.369(4)
H14 H 0.00000 0.72990 0.34160
N1 N 0.2055(3) 0.6776(8) 0.3554(8)
C38 C 0.2238(4) 0.6098(12) 0.3348(12)
H15 H 0.22700 0.57480 0.38330
H16 H 0.23880 0.63690 0.31650
H17 H 0.21740 0.57340 0.29100
C39 C 0.2140(4) 0.7342(12) 0.4256(12)
H18 H 0.21710 0.69880 0.47390
H19 H 0.20150 0.77650 0.43830
H20 H 0.22900 0.76380 0.40980
C40 C 0.2006(3) 0.7282(11) 0.2823(11)
H21 H 0.18850 0.77190 0.29490
H22 H 0.19450 0.69070 0.23900
H23 H 0.21560 0.75580 0.26390
C41 C 0.1822(6) 0.6331(19) 0.3855(18)
H24 H 0.18590 0.59880 0.43410
H25 H 0.17590 0.59580 0.34230
H26 H 0.17010 0.67640 0.39930
N2 N 0.1794(4) 0.8075(11) 0.9602(11)
C42 C 0.1820(5) 0.7593(14) 1.0411(14)
H27 H 0.18330 0.69780 1.03030
H28 H 0.16780 0.77030 1.07540
H29 H 0.19660 0.77890 1.06950
C43 C 0.1585(4) 0.8708(12) 0.9637(12)
H30 H 0.14570 0.85280 0.92570
H31 H 0.16430 0.92790 0.94840
H32 H 0.15190 0.87260 1.01930
C44 C 0.2028(5) 0.8627(16) 0.9406(17)
H33 H 0.21190 0.83530 0.89640
H34 H 0.21290 0.86650 0.98950
H35 H 0.19790 0.92030 0.92350
C45 C 0.1738(5) 0.7433(15) 0.8881(15)
H36 H 0.18890 0.71750 0.86900
H37 H 0.16610 0.77430 0.84300
H38 H 0.16290 0.69830 0.90750
C46 C 0.1092(7) 0.951(2) 0.685(2)
H39 H 0.12140 0.98310 0.65430
H40 H 0.11570 0.93680 0.73940
H41 H 0.09470 0.98670 0.69170
N3 N 0.1047(14) 0.894(5) 0.653(4)
H42 H 0.12000 0.86200 0.64660
H43 H 0.09950 0.91190 0.59800
C47 C 0.0869(13) 0.833(4) 0.682(5)
H44 H 0.07750 0.81230 0.63490
H45 H 0.07600 0.86120 0.72070
H46 H 0.09510 0.78530 0.70820
C48? C 0.00000 0.508(6) 0.419(6)
O24? O 0.00000 0.416(2) 0.436(2)
C49? C 0.0227(8) 0.545(2) 0.404(2)
H47? H 0.03770 0.51640 0.41310
C50? C 0.0204(13) 0.633(4) 0.371(3)
C51? C 0.00000 0.676(7) 0.382(5)
H48? H 0.00000 0.73480 0.39680
O13B O -0.0651(2) 0.6339(7) 0.3503(9)
O14B O -0.0449(2) 0.7631(7) 0.3643(8)
C18B C -0.0461(3) 0.6831(12) 0.3623(10)
C35B C -0.0195(16) 0.546(5) 0.374(4)
H13B H -0.03370 0.51800 0.35610
C36B C -0.0217(11) 0.639(4) 0.388(4)
Zn1B Zn -0.25296(3) 0.93899(9) 0.54909(10)
Zn2B Zn -0.20057(3) 0.94878(9) 0.65008(10)
Zn3B Zn -0.09555(4) 0.67407(12) 0.29350(16)
Zn4B Zn -0.07028(4) 0.84885(13) 0.33811(15)
O1B O -0.1009(2) 0.7787(7) 0.3619(7)
O2B O -0.1643(3) 0.9185(7) 0.1618(7)
O3B O -0.1841(2) 1.0066(6) 0.2464(6)
O4B O -0.1590(3) 0.8512(8) 0.5970(8)
O5B O -0.18693(19) 0.9333(7) 0.5390(6)
O6B O -0.22972(19) 1.0178(5) 0.6154(6)
O7B O -0.2433(2) 1.0439(5) 0.9297(5)
O8B O -0.2723(2) 1.1450(6) 0.9386(6)
O9B O -0.0721(3) 0.8552(8) 0.2173(9)
O10B O -0.0753(4) 1.0338(10) -0.1348(14)
O11B O -0.1349(3) 0.6506(9) 0.2460(9)
O12B O -0.0829(3) 0.7181(7) 0.1827(8)
O15B O -0.1072(3) 0.5512(8) 0.2722(10)
O16B O -0.2140(2) 0.4462(7) 0.0369(7)
O17B O -0.21648(19) 0.5609(6) 0.1183(6)
O18B O -0.2849(2) 1.3421(6) 0.7001(6)
O19B O -0.2620(2) 1.3228(6) 0.5845(6)
O20B O -0.1480(3) 0.2678(8) 0.2047(10)
O21B O -0.0718(4) 1.0774(10) -0.0095(12)
C1B C -0.1234(3) 0.8233(9) 0.3681(11)
C2B C -0.1344(3) 0.8571(9) 0.2986(10)
H1B H -0.12730 0.84810 0.24650
C3B C -0.1331(3) 0.832(1) 0.4452(12)
H2B H -0.12510 0.80880 0.49160
C4B C -0.1562(3) 0.9053(8) 0.3053(9)
C5B C -0.1556(3) 0.8773(9) 0.4535(9)
C6B C -0.1662(3) 0.9144(9) 0.3862(10)
H3B H -0.18060 0.94700 0.39330
C7B C -0.1682(3) 0.9435(10) 0.2302(10)
C8B C -0.1683(3) 0.8862(9) 0.5356(10)
C9B C -0.2401(3) 1.0781(8) 0.6709(9)
C10B C -0.2486(2) 1.1555(8) 0.6360(8)
H4B H -0.24650 1.16750 0.57960
C11B C -0.2423(3) 1.0599(8) 0.7516(8)
H5B H -0.23520 1.00880 0.77220
C12B C -0.2600(3) 1.2128(9) 0.6874(9)
C13B C -0.2547(3) 1.1148(8) 0.8059(8)
C14B C -0.2652(3) 1.1942(8) 0.7723(9)
H6B H -0.27480 1.23140 0.80480
C15B C -0.2571(3) 1.1011(10) 0.8957(10)
C16B C -0.2060(3) 0.4897(12) 0.0937(11)
C17B C -0.1828(3) 0.4678(9) 0.1382(11)
C19B C -0.2701(3) 1.3013(9) 0.653(1)
C20B C -0.1757(3) 0.3775(9) 0.1448(12)
H7B H -0.18540 0.33510 0.11930
C21B C -0.0783(4) 0.7956(13) 0.1635(14)
C22B C -0.1675(3) 0.5287(9) 0.1710(9)
H8B H -0.17170 0.58740 0.16600
C23B C -0.1549(4) 0.3525(12) 0.1879(12)
C24B C -0.1271(4) 0.5734(12) 0.2443(13)
C25B C -0.1458(3) 0.5061(10) 0.212(1)
C26B C -0.1383(4) 0.4187(12) 0.2180(12)
H9B H -0.12300 0.40400 0.24080
C27B C -0.0827(6) 0.8200(14) 0.0762(14)
C28B C -0.0760(5) 0.9042(13) 0.0495(16)
H10B H -0.06850 0.94250 0.08670
C29B C -0.0908(5) 0.7615(13) 0.0185(18)
H11B H -0.09600 0.70650 0.03590
C30B C -0.0750(5) 1.0232(17) -0.0574(15)
C31B C -0.0917(6) 0.7821(19) -0.065(2)
C32B C -0.0805(8) 0.9297(18) -0.029(2)
O22B O -0.1017(7) 0.7263(18) -0.1280(17)
C33B C -0.0898(8) 0.8704(19) -0.086(2)
H12B H -0.09480 0.88950 -0.13840
Zn1A Zn -0.25296(3) 1.06101(9) 1.04909(10)
Zn1C Zn 0.25296(3) 1.06101(9) 1.04909(10)
Zn1D Zn -0.24704(3) 1.43899(9) 0.54909(10)
Zn1E Zn 0.24704(3) 0.56101(9) 0.04909(10)
Zn1F Zn 0.24704(3) 1.43899(9) 0.54909(10)
Zn1G Zn -0.24704(3) 0.56101(9) 0.04909(10)
Zn2A Zn -0.20057(3) 1.05122(9) 0.15008(10)
Zn2C Zn 0.20057(3) 1.05122(9) 0.15008(10)
Zn2D Zn -0.29943(3) 1.44878(9) 0.65008(10)
Zn2F Zn 0.29943(3) 1.44878(9) 0.65008(10)
Zn4A Zn -0.07028(4) 1.15115(13) -0.16189(15)
Zn4C Zn 0.07028(4) 1.15115(13) -0.16189(15)
O3A O -0.1841(2) 0.9934(6) 0.7464(6)
O3C O 0.1841(2) 0.9934(6) 0.7464(6)
O7A O -0.2433(2) 0.9561(5) 0.4297(5)
O7C O 0.2433(2) 0.9561(5) 0.4297(5)
O8A O -0.2723(2) 0.8550(6) 0.4386(6)
O8C O 0.2723(2) 0.8550(6) 0.4386(6)
O10A O -0.0753(4) 0.9662(10) 0.3652(14)
O10C O 0.0753(4) 0.9662(10) 0.3652(14)
O16E O 0.2860(2) 1.0538(7) 0.5369(7)
O16G O -0.2860(2) 1.0538(7) 0.5369(7)
O17E O 0.28352(19) 0.9391(6) 0.6183(6)
O17G O -0.28352(19) 0.9391(6) 0.6183(6)
O18D O -0.2151(2) 0.8421(6) 0.7001(6)
O18F O 0.2151(2) 0.8421(6) 0.7001(6)
O19D O -0.2380(2) 0.8228(6) 0.5845(6)
O19F O 0.2380(2) 0.8228(6) 0.5845(6)
#END
