
#######################################################################
#
#                 Cambridge Crystallographic Data Centre
#                                CCDC
#
#######################################################################
#
# If this CIF has been generated from an entry in the Cambridge
# Structural Database, then it will include bibliographic, chemical,
# crystal, experimental, refinement or atomic coordinate data resulting
# from the CCDC's data processing and validation procedures.
#
#######################################################################

data_CSD_CIF_RUHWUP
_audit_creation_date 2020-05-19
_audit_creation_method CSD-ConQuest-V1
_database_code_CSD RUHWUP
_database_code_depnum_ccdc_archive 'CCDC 1993104'
_chemical_formula_sum 'C80 H109 Cl5 Cu8 N28 O80 Si1 W12'
_chemical_formula_moiety
;
(C72 H56 Cl5 Cu8 N24 O20 3+)n,H1 O40 Si1 W12 3-,4(C2 H3 N1),20(H2 O1)
;
_journal_coden_Cambridge 208
_journal_volume 287
_journal_year 2020
_journal_page_first 121384
_journal_name_full 'J.Solid State Chem. '
loop_
_publ_author_name
"Di-Ming Chen"
"Yin-Ping Zheng"
"Dong-Ying Shi"
"Shao-Ming Fang"
_chemical_name_systematic
;
catena-[octakis(\m-4-(4H-1,2,4-triazol-4-yl)benzoato)-(\m-chloro)-tetrachloro-
tetra-aqua-octa-copper(ii) 
(\m-silicato)-tricosakis(\m-oxo)-(\m-hydroxo)-dodecaoxo-dodeca-tungsten 
acetonitrile solvate hydrate]
;
_cell_volume   6682.518
_exptl_crystal_colour 'green'
_exptl_crystal_description 'block'
_diffrn_ambient_temperature 293
_refine_special_details
;
O9 disordered by symmetry over two configurations with occupancy 0.5; 
Disordered solvent molecules were not modelled and the disordered density was 
taken into account using the SQUEEZE/PLATON procedure.
;
#These two values have been output from a single CSD field.
_refine_ls_R_factor_gt 0.0701
_refine_ls_wR_factor_gt 0.0701
_symmetry_cell_setting tetragonal
_symmetry_space_group_name_H-M 'I 4/m'
_symmetry_Int_Tables_number 87
loop_
_symmetry_equiv_pos_site_id
_symmetry_equiv_pos_as_xyz
1 x,y,z
2 -x,-y,z
3 -y,x,z
4 y,-x,z
5 1/2+x,1/2+y,1/2+z
6 1/2-x,1/2-y,1/2+z
7 1/2-y,1/2+x,1/2+z
8 1/2+y,1/2-x,1/2+z
9 -x,-y,-z
10 x,y,-z
11 y,-x,-z
12 -y,x,-z
13 -1/2-x,-1/2-y,-1/2-z
14 -1/2+x,-1/2+y,-1/2-z
15 -1/2+y,-1/2-x,-1/2-z
16 -1/2-y,-1/2+x,-1/2-z
_cell_length_a 19.2098(5)
_cell_length_b 19.2098(5)
_cell_length_c 18.1090(8)
_cell_angle_alpha 90
_cell_angle_beta 90
_cell_angle_gamma 90
_cell_formula_units_Z 2
loop_
_atom_type_symbol
_atom_type_radius_bond
C 0.68
H 0.23
Cl 0.99
Cu 1.32
N 0.68
O 0.68
Si 1.20
W 1.62
loop_
_atom_site_label
_atom_site_type_symbol
_atom_site_fract_x
_atom_site_fract_y
_atom_site_fract_z
W1 W 0.53154(4) 0.68078(4) 0.50000
W2 W 0.42563(3) 0.60667(3) 0.36156(3)
Si1 Si 0.50000 0.50000 0.50000
O1 O 0.3899(6) 0.6557(6) 0.2937(6)
O2 O 0.5471(8) 0.7691(6) 0.50000
O3 O 0.4087(8) 0.5167(5) 0.3253(8)
O4 O 0.5962(7) 0.6481(9) 0.5702(8)
O5 O 0.4586(6) 0.6729(9) 0.4299(8)
O6 O 0.5124(6) 0.5681(7) 0.4477(7)
Cu1 Cu 0.40839(8) 0.59302(8) 0.00000
Cu2 Cu 0.57018(9) 1.00182(8) 0.50000
Cl1 Cl 0.50000 0.50000 0.00000
N1 N 0.4642(4) 0.6463(4) 0.0775(4)
N2 N 0.5363(4) 0.6440(4) 0.0780(4)
O7 O 0.5643(4) 0.9291(4) 0.4239(4)
O8 O 0.4468(4) 0.9280(4) 0.4223(4)
O9 O 0.3212(6) 0.6736(6) 0.00000
H1 H 0.30134 0.69193 0.03711
N3 N 0.5028(4) 0.7157(4) 0.1629(4)
C1 C 0.4456(5) 0.6895(5) 0.1288(5)
H2 H 0.39983 0.70079 0.14051
C2 C 0.5570(5) 0.6855(5) 0.1291(5)
H3 H 0.60343 0.69345 0.14103
C3 C 0.5047(5) 0.7662(5) 0.2223(5)
C4 C 0.5587(6) 0.7650(5) 0.2711(6)
H4 H 0.59393 0.73209 0.26610
C5 C 0.5055(5) 0.9098(5) 0.3995(5)
C6 C 0.5608(5) 0.8122(5) 0.3271(5)
H5 H 0.59843 0.81272 0.35943
C7 C 0.5061(6) 0.8601(5) 0.3359(5)
C8 C 0.4524(7) 0.8601(7) 0.2851(7)
H6 H 0.41521 0.89044 0.29145
C9 C 0.4531(7) 0.8162(7) 0.2257(7)
H7 H 0.41976 0.81990 0.18864
Cl2 Cl 0.6953(2) 1.0149(5) 0.50000
H8? H 0.30134 0.69193 0.03711
O6A O 0.4876(6) 0.4319(7) 0.4477(7)
O6B O 0.4319(6) 0.5124(7) 0.4477(7)
O6C O 0.5681(6) 0.4876(7) 0.4477(7)
O6H O 0.4876(6) 0.4319(7) 0.5523(7)
O6I O 0.5124(6) 0.5681(7) 0.5523(7)
O6J O 0.5681(6) 0.4876(7) 0.5523(7)
O6K O 0.4319(6) 0.5124(7) 0.5523(7)
W1A W 0.46846(4) 0.31922(4) 0.50000
W2A W 0.57437(3) 0.39333(3) 0.36156(3)
O1A O 0.6101(6) 0.3443(6) 0.2937(6)
O2A O 0.4529(8) 0.2309(6) 0.50000
O3A O 0.5913(8) 0.4833(5) 0.3253(8)
O4A O 0.4038(7) 0.3519(9) 0.5702(8)
O5A O 0.5414(6) 0.3271(9) 0.4299(8)
W1B W 0.31922(4) 0.53154(4) 0.50000
W2B W 0.39333(3) 0.42563(3) 0.36156(3)
O1B O 0.3443(6) 0.3899(6) 0.2937(6)
O2B O 0.2309(8) 0.5471(6) 0.50000
O3B O 0.4833(8) 0.4087(5) 0.3253(8)
O4B O 0.3519(7) 0.5962(9) 0.5702(8)
O5B O 0.3271(6) 0.4586(9) 0.4299(8)
W1C W 0.68078(4) 0.46846(4) 0.50000
W2C W 0.60667(3) 0.57437(3) 0.36156(3)
O1C O 0.6557(6) 0.6101(6) 0.2937(6)
O2C O 0.7691(8) 0.4529(6) 0.50000
O3C O 0.5167(8) 0.5913(5) 0.3253(8)
O4C O 0.6481(7) 0.4038(9) 0.5702(8)
O5C O 0.6729(6) 0.5414(9) 0.4299(8)
W2H W 0.57437(3) 0.39333(3) 0.63844(3)
O1H O 0.6101(6) 0.3443(6) 0.7063(6)
O3H O 0.5913(8) 0.4833(5) 0.6747(8)
O4H O 0.4038(7) 0.3519(9) 0.4298(8)
O5H O 0.5414(6) 0.3271(9) 0.5701(8)
W2I W 0.42563(3) 0.60667(3) 0.63844(3)
O1I O 0.3899(6) 0.6557(6) 0.7063(6)
O3I O 0.4087(8) 0.5167(5) 0.6747(8)
O4I O 0.5962(7) 0.6481(9) 0.4298(8)
O5I O 0.4586(6) 0.6729(9) 0.5701(8)
W2J W 0.60667(3) 0.57437(3) 0.63844(3)
O1J O 0.6557(6) 0.6101(6) 0.7063(6)
O3J O 0.5167(8) 0.5913(5) 0.6747(8)
O4J O 0.6481(7) 0.4038(9) 0.4298(8)
O5J O 0.6729(6) 0.5414(9) 0.5701(8)
W2K W 0.39333(3) 0.42563(3) 0.63844(3)
O1K O 0.3443(6) 0.3899(6) 0.7063(6)
O3K O 0.4833(8) 0.4087(5) 0.6747(8)
O4K O 0.3519(7) 0.5962(9) 0.4298(8)
O5K O 0.3271(6) 0.4586(9) 0.5701(8)
H1I H 0.30134 0.69193 -0.03711
Cu1A Cu 0.59161(8) 0.40698(8) 0.00000
Cu2A Cu 0.42982(9) -0.00182(8) 0.50000
N1A N 0.5358(4) 0.3537(4) 0.0775(4)
N2A N 0.4637(4) 0.3560(4) 0.0780(4)
O7A O 0.4357(4) 0.0709(4) 0.4239(4)
O8A O 0.5532(4) 0.0720(4) 0.4223(4)
O9A O 0.6788(6) 0.3264(6) 0.00000
H1A H 0.69866 0.30807 0.03711
N3A N 0.4972(4) 0.2843(4) 0.1629(4)
C1A C 0.5544(5) 0.3105(5) 0.1288(5)
H2A H 0.60017 0.29921 0.14051
C2A C 0.4430(5) 0.3145(5) 0.1291(5)
H3A H 0.39657 0.30655 0.14103
C3A C 0.4953(5) 0.2338(5) 0.2223(5)
C4A C 0.4413(6) 0.2350(5) 0.2711(6)
H4A H 0.40607 0.26791 0.26610
C5A C 0.4945(5) 0.0902(5) 0.3995(5)
C6A C 0.4392(5) 0.1878(5) 0.3271(5)
H5A H 0.40157 0.18728 0.35943
C7A C 0.4939(6) 0.1399(5) 0.3359(5)
C8A C 0.5476(7) 0.1399(7) 0.2851(7)
H6A H 0.58479 0.10956 0.29145
C9A C 0.5469(7) 0.1838(7) 0.2257(7)
H7A H 0.58024 0.18010 0.18864
Cl2A Cl 0.3047(2) -0.0149(5) 0.50000
H1H H 0.69866 0.30807 -0.03711
Cu1B Cu 0.40698(8) 0.40839(8) 0.00000
Cu2B Cu -0.00182(9) 0.57018(8) 0.50000
N1B N 0.3537(4) 0.4642(4) 0.0775(4)
N2B N 0.3560(4) 0.5363(4) 0.0780(4)
O7B O 0.0709(4) 0.5643(4) 0.4239(4)
O8B O 0.0720(4) 0.4468(4) 0.4223(4)
O9B O 0.3264(6) 0.3212(6) 0.00000
H1B H 0.30807 0.30134 0.03711
N3B N 0.2843(4) 0.5028(4) 0.1629(4)
C1B C 0.3105(5) 0.4456(5) 0.1288(5)
H2B H 0.29921 0.39983 0.14051
C2B C 0.3145(5) 0.5570(5) 0.1291(5)
H3B H 0.30655 0.60343 0.14103
C3B C 0.2338(5) 0.5047(5) 0.2223(5)
C4B C 0.2350(6) 0.5587(5) 0.2711(6)
H4B H 0.26791 0.59393 0.26610
C5B C 0.0902(5) 0.5055(5) 0.3995(5)
C6B C 0.1878(5) 0.5608(5) 0.3271(5)
H5B H 0.18728 0.59843 0.35943
C7B C 0.1399(6) 0.5061(5) 0.3359(5)
C8B C 0.1399(7) 0.4524(7) 0.2851(7)
H6B H 0.10956 0.41521 0.29145
C9B C 0.1838(7) 0.4531(7) 0.2257(7)
H7B H 0.18010 0.41976 0.18864
Cl2B Cl -0.0149(2) 0.6953(5) 0.50000
H1K H 0.30807 0.30134 -0.03711
Cu1C Cu 0.59302(8) 0.59161(8) 0.00000
Cu2C Cu 1.00182(9) 0.42982(8) 0.50000
N1C N 0.6463(4) 0.5358(4) 0.0775(4)
N2C N 0.6440(4) 0.4637(4) 0.0780(4)
O7C O 0.9291(4) 0.4357(4) 0.4239(4)
O8C O 0.9280(4) 0.5532(4) 0.4223(4)
O9C O 0.6736(6) 0.6788(6) 0.00000
H1C H 0.69193 0.69866 0.03711
N3C N 0.7157(4) 0.4972(4) 0.1629(4)
C1C C 0.6895(5) 0.5544(5) 0.1288(5)
H2C H 0.70079 0.60017 0.14051
C2C C 0.6855(5) 0.4430(5) 0.1291(5)
H3C H 0.69345 0.39657 0.14103
C3C C 0.7662(5) 0.4953(5) 0.2223(5)
C4C C 0.7650(6) 0.4413(5) 0.2711(6)
H4C H 0.73209 0.40607 0.26610
C5C C 0.9098(5) 0.4945(5) 0.3995(5)
C6C C 0.8122(5) 0.4392(5) 0.3271(5)
H5C H 0.81272 0.40157 0.35943
C7C C 0.8601(6) 0.4939(5) 0.3359(5)
C8C C 0.8601(7) 0.5476(7) 0.2851(7)
H6C H 0.89044 0.58479 0.29145
C9C C 0.8162(7) 0.5469(7) 0.2257(7)
H7C H 0.81990 0.58024 0.18864
Cl2C Cl 1.0149(2) 0.3047(5) 0.50000
H1J H 0.69193 0.69866 -0.03711
N1H N 0.5358(4) 0.3537(4) -0.0775(4)
N2H N 0.4637(4) 0.3560(4) -0.0780(4)
O7H O 0.4357(4) 0.0709(4) -0.4239(4)
O8H O 0.5532(4) 0.0720(4) -0.4223(4)
N3H N 0.4972(4) 0.2843(4) -0.1629(4)
C1H C 0.5544(5) 0.3105(5) -0.1288(5)
H2H H 0.60017 0.29921 -0.14051
C2H C 0.4430(5) 0.3145(5) -0.1291(5)
H3H H 0.39657 0.30655 -0.14103
C3H C 0.4953(5) 0.2338(5) -0.2223(5)
C4H C 0.4413(6) 0.2350(5) -0.2711(6)
H4H H 0.40607 0.26791 -0.26610
C5H C 0.4945(5) 0.0902(5) -0.3995(5)
C6H C 0.4392(5) 0.1878(5) -0.3271(5)
H5H H 0.40157 0.18728 -0.35943
C7H C 0.4939(6) 0.1399(5) -0.3359(5)
C8H C 0.5476(7) 0.1399(7) -0.2851(7)
H6H H 0.58479 0.10956 -0.29145
C9H C 0.5469(7) 0.1838(7) -0.2257(7)
H7H H 0.58024 0.18010 -0.18864
N1I N 0.4642(4) 0.6463(4) -0.0775(4)
N2I N 0.5363(4) 0.6440(4) -0.0780(4)
O7I O 0.5643(4) 0.9291(4) -0.4239(4)
O8I O 0.4468(4) 0.9280(4) -0.4223(4)
N3I N 0.5028(4) 0.7157(4) -0.1629(4)
C1I C 0.4456(5) 0.6895(5) -0.1288(5)
H2I H 0.39983 0.70079 -0.14051
C2I C 0.5570(5) 0.6855(5) -0.1291(5)
H3I H 0.60343 0.69345 -0.14103
C3I C 0.5047(5) 0.7662(5) -0.2223(5)
C4I C 0.5587(6) 0.7650(5) -0.2711(6)
H4I H 0.59393 0.73209 -0.26610
C5I C 0.5055(5) 0.9098(5) -0.3995(5)
C6I C 0.5608(5) 0.8122(5) -0.3271(5)
H5I H 0.59843 0.81272 -0.35943
C7I C 0.5061(6) 0.8601(5) -0.3359(5)
C8I C 0.4524(7) 0.8601(7) -0.2851(7)
H6I H 0.41521 0.89044 -0.29145
C9I C 0.4531(7) 0.8162(7) -0.2257(7)
H7I H 0.41976 0.81990 -0.18864
N1J N 0.6463(4) 0.5358(4) -0.0775(4)
N2J N 0.6440(4) 0.4637(4) -0.0780(4)
O7J O 0.9291(4) 0.4357(4) -0.4239(4)
O8J O 0.9280(4) 0.5532(4) -0.4223(4)
N3J N 0.7157(4) 0.4972(4) -0.1629(4)
C1J C 0.6895(5) 0.5544(5) -0.1288(5)
H2J H 0.70079 0.60017 -0.14051
C2J C 0.6855(5) 0.4430(5) -0.1291(5)
H3J H 0.69345 0.39657 -0.14103
C3J C 0.7662(5) 0.4953(5) -0.2223(5)
C4J C 0.7650(6) 0.4413(5) -0.2711(6)
H4J H 0.73209 0.40607 -0.26610
C5J C 0.9098(5) 0.4945(5) -0.3995(5)
C6J C 0.8122(5) 0.4392(5) -0.3271(5)
H5J H 0.81272 0.40157 -0.35943
C7J C 0.8601(6) 0.4939(5) -0.3359(5)
C8J C 0.8601(7) 0.5476(7) -0.2851(7)
H6J H 0.89044 0.58479 -0.29145
C9J C 0.8162(7) 0.5469(7) -0.2257(7)
H7J H 0.81990 0.58024 -0.18864
N1K N 0.3537(4) 0.4642(4) -0.0775(4)
N2K N 0.3560(4) 0.5363(4) -0.0780(4)
O7K O 0.0709(4) 0.5643(4) -0.4239(4)
O8K O 0.0720(4) 0.4468(4) -0.4223(4)
N3K N 0.2843(4) 0.5028(4) -0.1629(4)
C1K C 0.3105(5) 0.4456(5) -0.1288(5)
H2K H 0.29921 0.39983 -0.14051
C2K C 0.3145(5) 0.5570(5) -0.1291(5)
H3K H 0.30655 0.60343 -0.14103
C3K C 0.2338(5) 0.5047(5) -0.2223(5)
C4K C 0.2350(6) 0.5587(5) -0.2711(6)
H4K H 0.26791 0.59393 -0.26610
C5K C 0.0902(5) 0.5055(5) -0.3995(5)
C6K C 0.1878(5) 0.5608(5) -0.3271(5)
H5K H 0.18728 0.59843 -0.35943
C7K C 0.1399(6) 0.5061(5) -0.3359(5)
C8K C 0.1399(7) 0.4524(7) -0.2851(7)
H6K H 0.10956 0.41521 -0.29145
C9K C 0.1838(7) 0.4531(7) -0.2257(7)
H7K H 0.18010 0.41976 -0.18864
Cu2* Cu 0.57018(9) 0.00182(8) -0.50000
Cu2** Cu 0.57018(9) 0.00182(8) 0.50000
Cu2*** Cu 0.57018(9) 1.00182(8) -0.50000
Cu2A* Cu 0.42982(9) -0.00182(8) -0.50000
Cu2A** Cu 0.42982(9) 0.99818(8) -0.50000
Cu2A*** Cu 0.42982(9) 0.99818(8) 0.50000
Cu2B* Cu -0.00182(9) 0.57018(8) -0.50000
Cu2B** Cu 0.99818(9) 0.57018(8) -0.50000
Cu2B*** Cu 0.99818(9) 0.57018(8) 0.50000
Cu2C* Cu 0.00182(9) 0.42982(8) -0.50000
Cu2C** Cu 0.00182(9) 0.42982(8) 0.50000
Cu2C*** Cu 1.00182(9) 0.42982(8) -0.50000
O7H* O 0.4357(4) 0.0709(4) 0.5761(4)
O7I* O 0.5643(4) 0.9291(4) 0.5761(4)
O7J* O 0.9291(4) 0.4357(4) 0.5761(4)
O7K* O 0.0709(4) 0.5643(4) 0.5761(4)
O8* O 0.4468(4) -0.0720(4) 0.4223(4)
O8A* O 0.5532(4) 1.0720(4) 0.4223(4)
O8B* O 1.0720(4) 0.4468(4) 0.4223(4)
O8C* O -0.0720(4) 0.5532(4) 0.4223(4)
O8H* O 0.5532(4) 1.0720(4) 0.5777(4)
O8I* O 0.4468(4) -0.0720(4) 0.5777(4)
O8J* O -0.0720(4) 0.5532(4) 0.5777(4)
O8K* O 1.0720(4) 0.4468(4) 0.5777(4)
#END
