
#######################################################################
#
#                 Cambridge Crystallographic Data Centre
#                                CCDC
#
#######################################################################
#
# If this CIF has been generated from an entry in the Cambridge
# Structural Database, then it will include bibliographic, chemical,
# crystal, experimental, refinement or atomic coordinate data resulting
# from the CCDC's data processing and validation procedures.
#
#######################################################################

data_CSD_CIF_RUKZUT
_audit_creation_date 2010-03-19
_audit_creation_method CSD-ConQuest-V1
_database_code_CSD RUKZUT
_database_code_depnum_ccdc_archive 'CCDC 699707'
_chemical_formula_sum 'C12 H12 Ag1 K5 N2 O22 S4'
_chemical_formula_moiety
;
(H4 Ag1 O2 1+)n,n(C12 H8 K5 N2 O20 S4 1-)
;
_journal_coden_Cambridge 222
_journal_year 2009
_journal_page_first 3162
_journal_name_full 'Dalton Trans. '
loop_
_publ_author_name
"Hua Wu"
"Xian-Wu Dong"
"Jian-Fang Ma"
"Hai-Yan Liu"
"Jin Yang"
"Hong-Ye Bai"
_chemical_name_systematic
;
catena-(di-aqua-silver(i) 
bis(\m~12~-4-hydroxy-5-nitro-1,3-benzenedisulfonato)-bis(\m~2~-aquo)-penta-pot
assium)
;
_cell_volume    728.450
_exptl_crystal_colour 'yellow'
_exptl_crystal_density_diffrn 2.206
_exptl_special_details
;
luminescent
The text mentions the two oxygens coordinated to potassium are water 
;
_exptl_crystal_description 'block'
_diffrn_ambient_temperature 293
#These two values have been output from a single CSD field.
_refine_ls_R_factor_gt 0.0352
_refine_ls_wR_factor_gt 0.0352
_symmetry_cell_setting triclinic
_symmetry_space_group_name_H-M 'P -1'
_symmetry_Int_Tables_number 2
loop_
_symmetry_equiv_pos_site_id
_symmetry_equiv_pos_as_xyz
1 x,y,z
2 -x,-y,-z
_cell_length_a 7.2070(4)
_cell_length_b 9.390(5)
_cell_length_c 11.3820(6)
_cell_angle_alpha 87.482(1)
_cell_angle_beta 84.877(1)
_cell_angle_gamma 71.74(12)
_cell_formula_units_Z 1
loop_
_atom_type_symbol
_atom_type_radius_bond
C 0.68
H 0.23
Ag 1.45
K 1.99
N 0.68
O 0.90
S 0.85
loop_
_atom_site_label
_atom_site_type_symbol
_atom_site_fract_x
_atom_site_fract_y
_atom_site_fract_z
Ag1 Ag 0.00000 0.50000 1.00000
O1 O -0.1375(8) 0.4267(5) 0.8690(3)
H1 H -0.185(11) 0.349(7) 0.875(7)
H2 H -0.144(12) 0.455(8) 0.791(4)
K1 K 0.59289(9) 0.87249(7) 0.80920(5)
K2 K 1.24084(9) 0.00085(7) 1.53008(5)
K3 K 0.00000 1.00000 1.00000
C1 C 0.6812(4) 0.6076(3) 1.4251(2)
C2 C 0.5968(4) 0.7198(3) 1.3373(2)
C3 C 0.5936(4) 0.6534(3) 1.2238(2)
C4 C 0.6722(4) 0.5039(3) 1.2018(2)
H3 H 0.66130 0.46760 1.12880
C5 C 0.7701(4) 0.4037(3) 1.2891(2)
C6 C 0.7723(4) 0.4552(3) 1.3988(2)
H4 H 0.83450 0.38920 1.45690
N1 N 0.6792(3) 0.6470(3) 1.54526(19)
O2 O 0.5016(4) 0.6808(2) 1.00718(19)
O3 O 0.6303(4) 0.8657(2) 1.08013(19)
O4 O 0.3005(3) 0.8666(2) 1.14470(18)
O5 O 1.0188(3) 0.2267(2) 1.14305(18)
O6 O 1.0194(3) 0.1544(2) 1.35023(18)
O7 O 0.7614(3) 0.1382(2) 1.2362(2)
O8 O 0.7502(4) 0.5482(3) 1.61847(19)
O9 O 0.6028(3) 0.7784(2) 1.57611(17)
O10 O 0.5325(3) 0.8590(2) 1.35220(17)
O11 O 0.8945(4) 0.1954(3) 1.6342(2)
S1 S 0.50008(11) 0.77614(7) 1.10483(5)
S2 S 0.90149(9) 0.21670(7) 1.25222(5)
H5 H 0.835(6) 0.289(4) 1.637(4)
H6 H 0.849(8) 0.160(6) 1.694(4)
O1A O 0.1375(8) 0.5733(5) 1.1310(3)
H1A H 0.185(11) 0.651(7) 1.125(7)
H2A H 0.144(12) 0.545(8) 1.209(4)
K1A K 0.40711(9) 1.12751(7) 1.19080(5)
K1A* K 1.40711(9) 0.12751(7) 1.19080(5)
K1* K 1.59289(9) -0.12751(7) 1.80920(5)
K1** K -0.40711(9) 0.87249(7) 0.80920(5)
K1A** K 0.40711(9) 0.12751(7) 1.19080(5)
K1*** K 0.59289(9) 0.87249(7) 1.80920(5)
K1**** K -0.40711(9) 1.87249(7) 0.80920(5)
K1***** K 0.59289(9) 1.87249(7) 0.80920(5)
K1A*** K 0.40711(9) 1.12751(7) 0.19080(5)
K1A**** K -0.59289(9) 2.12751(7) 0.19080(5)
K2A K -0.24084(9) 1.99915(7) 0.46992(5)
K2A* K 0.75916(9) 0.99915(7) 0.46992(5)
K2* K 0.24084(9) 1.00085(7) 0.53008(5)
K2A** K 1.75916(9) -0.00085(7) 1.46992(5)
K2A*** K 0.75916(9) -0.00085(7) 1.46992(5)
K2** K 0.24084(9) 1.00085(7) 1.53008(5)
K2A**** K 0.75916(9) 0.99915(7) 1.46992(5)
K2*** K 0.24084(9) 2.00085(7) 0.53008(5)
K2**** K -0.75916(9) 2.00085(7) 0.53008(5)
K3* K 1.00000 1.00000 1.00000
K3** K 1.00000 0.00000 1.00000
K3*** K 0.00000 2.00000 1.00000
C1A C 0.3188(4) 1.3924(3) 0.5749(2)
C2A C 0.4032(4) 1.2802(3) 0.6627(2)
C3A C 0.4064(4) 1.3466(3) 0.7762(2)
C4A C 0.3278(4) 1.4961(3) 0.7982(2)
H3A H 0.33870 1.53240 0.87120
C5A C 0.2299(4) 1.5963(3) 0.7109(2)
C6A C 0.2277(4) 1.5448(3) 0.6012(2)
H4A H 0.16550 1.61080 0.54310
N1A N 0.3208(3) 1.3530(3) 0.45474(19)
O2A O 0.4984(4) 1.3192(2) 0.99282(19)
O3A O 0.3697(4) 1.1343(2) 0.91987(19)
O3* O -0.3697(4) 0.8657(2) 1.08013(19)
O4A O 0.6995(3) 1.1334(2) 0.85530(18)
O4A* O -0.3005(3) 1.1334(2) 0.85530(18)
O5A O -0.0188(3) 1.7733(2) 0.85695(18)
O5A* O 0.9812(3) 0.7733(2) 0.85695(18)
O5A** O -0.0188(3) 0.7733(2) 0.85695(18)
O5* O 0.0188(3) 1.2267(2) 1.14305(18)
O6A O -0.0194(3) 1.8456(2) 0.64977(18)
O6A* O 0.9806(3) 0.8456(2) 0.64977(18)
O6A** O 0.9806(3) -0.1544(2) 1.64977(18)
O6* O 0.0194(3) 1.1544(2) 1.35023(18)
O6** O 0.0194(3) 2.1544(2) 0.35023(18)
O7A O 0.2386(3) 1.8618(2) 0.7638(2)
O7A* O 0.2386(3) 0.8618(2) 0.7638(2)
O7A** O 1.2386(3) -0.1382(2) 1.7638(2)
O7* O -0.2386(3) 1.1382(2) 1.2362(2)
O7** O 0.7614(3) 1.1382(2) 1.2362(2)
O7*** O -0.2386(3) 2.1382(2) 0.2362(2)
O8A O 0.2498(4) 1.4518(3) 0.38153(19)
O9A O 0.3972(3) 1.2216(2) 0.42389(17)
O9* O 0.6028(3) 0.7784(2) 0.57611(17)
O9** O 1.6028(3) -0.2216(2) 1.57611(17)
O9A* O 1.3972(3) 0.2216(2) 1.42389(17)
O9A** O 0.3972(3) 1.2216(2) 1.42389(17)
O9A*** O -0.6028(3) 2.2216(2) 0.42389(17)
O9*** O -0.3972(3) 1.7784(2) 0.57611(17)
O10A O 0.4675(3) 1.1410(2) 0.64780(17)
O10* O 1.5325(3) -0.1410(2) 1.35220(17)
O10A* O 1.4675(3) 0.1410(2) 1.64780(17)
O10A** O -0.5325(3) 2.1410(2) 0.64780(17)
O10** O -0.4675(3) 1.8590(2) 0.35220(17)
O11A O 1.1055(4) -0.1954(3) 1.3658(2)
O11A* O 0.1055(4) 1.8046(3) 0.3658(2)
O11* O -0.1055(4) 2.1954(3) 0.6342(2)
S1A S 0.49992(11) 1.22386(7) 0.89517(5)
S2A S 0.09851(9) 1.78330(7) 0.74778(5)
H5A H 1.165(6) -0.289(4) 1.363(4)
H5A* H 0.165(6) 1.711(4) 0.363(4)
H5* H -0.165(6) 2.289(4) 0.637(4)
H6A H 1.151(8) -0.160(6) 1.306(4)
H6A* H 0.151(8) 1.840(6) 0.306(4)
H6* H -0.151(8) 2.160(6) 0.694(4)
#END
