
#######################################################################
#
#                 Cambridge Crystallographic Data Centre
#                                CCDC
#
#######################################################################
#
# If this CIF has been generated from an entry in the Cambridge
# Structural Database, then it will include bibliographic, chemical,
# crystal, experimental, refinement or atomic coordinate data resulting
# from the CCDC's data processing and validation procedures.
#
#######################################################################

data_CSD_CIF_RUKZON
_audit_creation_date 2010-03-19
_audit_creation_method CSD-ConQuest-V1
_database_code_CSD RUKZON
_database_code_depnum_ccdc_archive 'CCDC 699706'
_chemical_formula_sum 'C30 H35 Ag2 N9 O6 S1'
_chemical_formula_moiety
;
(C10 H14 Ag1 N4 1+)n,n(C20 H19 Ag1 N5 O5 S1 1-),n(H2 O1)
;
_journal_coden_Cambridge 222
_journal_year 2009
_journal_page_first 3162
_journal_name_full 'Dalton Trans. '
loop_
_publ_author_name
"Hua Wu"
"Xian-Wu Dong"
"Jian-Fang Ma"
"Hai-Yan Liu"
"Jin Yang"
"Hong-Ye Bai"
_chemical_name_systematic
;
catena-((\m~2~-1-(4-(1H-imidazol-1-yl-1\kN^3^)butyl)-1H-imidazole-2\kN^3^)-(2-
nitroso-4-sulfo-1-naphthalenolato-O)-silver(i) 
(\m~2~-1-(4-(1H-imidazol-1-yl-1\kN^3^)butyl)-1H-imidazole-2\kN^3^)-silver(i) 
monohydrate)
;
_cell_volume   3321.602
_exptl_crystal_colour 'yellow'
_exptl_crystal_density_diffrn 1.731
_exptl_special_details
;
luminescent

;
_exptl_crystal_description 'block'
_diffrn_ambient_temperature 293
#These two values have been output from a single CSD field.
_refine_ls_R_factor_gt 0.044
_refine_ls_wR_factor_gt 0.044
_symmetry_cell_setting monoclinic
_symmetry_space_group_name_H-M 'P 21/c'
_symmetry_Int_Tables_number 14
loop_
_symmetry_equiv_pos_site_id
_symmetry_equiv_pos_as_xyz
1 x,y,z
2 -x,1/2+y,1/2-z
3 -x,-y,-z
4 x,-1/2-y,-1/2+z
_cell_length_a 14.800(7)
_cell_length_b 13.999(8)
_cell_length_c 16.503(5)
_cell_angle_alpha 90
_cell_angle_beta 103.721(5)
_cell_angle_gamma 90
_cell_formula_units_Z 4
loop_
_atom_type_symbol
_atom_type_radius_bond
C 0.68
H 0.23
Ag 1.57
N 0.68
O 0.68
S 1.02
loop_
_atom_site_label
_atom_site_type_symbol
_atom_site_fract_x
_atom_site_fract_y
_atom_site_fract_z
Ag1 Ag 1.00861(2) 0.05735(2) 0.11372(2)
C1 C 0.7694(2) 0.2842(2) 0.0538(2)
C2 C 0.7678(2) 0.3300(3) -0.0181(2)
H1 H 0.77150 0.29400 -0.06450
C3 C 0.7604(3) 0.4322(3) -0.0264(3)
C4 C 0.7636(3) 0.4908(3) 0.0461(3)
C5 C 0.7725(3) 0.4910(3) 0.1986(3)
H2 H 0.77700 0.55720 0.19700
C6 C 0.7702(4) 0.4475(4) 0.2719(3)
H3 H 0.77320 0.48350 0.31980
C7 C 0.7634(4) 0.3493(4) 0.2740(3)
H4 H 0.75930 0.31940 0.32330
C8 C 0.7627(3) 0.2948(3) 0.2044(2)
H5 H 0.75960 0.22860 0.20770
C9 C 0.7667(2) 0.3374(2) 0.1289(2)
C10 C 0.7684(3) 0.4385(3) 0.1257(3)
C11 C 1.1557(3) -0.7759(3) 0.1432(3)
H6 H 1.20250 -0.81300 0.13030
C12 C 1.0269(3) -0.7332(2) 0.1680(2)
H7 H 0.96650 -0.73410 0.17510
C13 C 1.1627(3) -0.6823(3) 0.1613(3)
H8 H 1.21380 -0.64330 0.16220
C14 C 1.0557(3) -0.5586(2) 0.1972(3)
H9 H 1.10910 -0.52810 0.23350
H10 H 1.00640 -0.56150 0.22660
C15 C 1.0236(3) -0.4992(2) 0.1184(2)
H11 H 1.07050 -0.50130 0.08620
H12 H 0.96670 -0.52620 0.08450
C16 C 1.0066(3) -0.3960(3) 0.1396(2)
H13 H 0.95580 -0.39320 0.16740
H14 H 1.06190 -0.37050 0.17720
C17 C 0.9829(3) -0.3368(2) 0.0608(2)
H15 H 1.03600 -0.33530 0.03590
H16 H 0.93150 -0.36630 0.02120
C18 C 1.0067(3) -0.1603(2) 0.0755(2)
H17 H 1.06530 -0.15900 0.06420
C19 C 0.8785(3) -0.1170(3) 0.1045(2)
H18 H 0.83190 -0.07940 0.11720
C20 C 0.8752(3) -0.2129(3) 0.0959(2)
H19 H 0.82700 -0.25320 0.10140
N1 N 0.7498(3) 0.4755(3) -0.1013(3)
N2 N 0.9610(2) -0.0837(2) 0.0918(2)
N3 N 1.0699(2) -0.8084(2) 0.1466(2)
N4 N 1.0809(2) -0.6559(2) 0.17797(19)
N5 N 0.9574(2) -0.23881(19) 0.07746(18)
O1 O 0.84696(19) 0.12908(19) 0.12411(19)
O2 O 0.68312(19) 0.1257(2) 0.06334(19)
O3 O 0.7909(3) 0.1287(2) -0.0251(2)
O4 O 0.7605(2) 0.5796(2) 0.0450(2)
O5 O 0.7465(3) 0.4215(3) -0.1642(2)
S1 S 0.77334(6) 0.15683(6) 0.05371(6)
Ag2 Ag 0.54901(4) 0.07633(3) -0.09444(3)
C21 C 0.6545(3) 0.7953(3) -0.0351(3)
H20 H 0.70180 0.75120 -0.01660
C22 C 0.6642(3) 0.8906(3) -0.0423(3)
H21 H 0.72030 0.92350 -0.02920
C23 C 0.5201(3) 0.8596(3) -0.0812(3)
H22 H 0.45610 0.86650 -0.10050
C24 C 0.5198(3) 0.6821(3) -0.0592(3)
H23 H 0.45430 0.68980 -0.06080
H24 H 0.54880 0.64990 -0.00750
C25 C 0.5297(3) 0.6209(3) -0.1317(3)
H25 H 0.59420 0.62100 -0.13530
H26 H 0.49260 0.64780 -0.18300
C26 C 0.4990(3) 0.5190(3) -0.1228(3)
H27 H 0.53880 0.49080 -0.07340
H28 H 0.43590 0.51940 -0.11530
C27 C 0.5024(4) 0.4587(3) -0.1973(3)
H29 H 0.45810 0.48340 -0.24570
H30 H 0.56390 0.46340 -0.20800
C28 C 0.3967(3) 0.3181(3) -0.2039(4)
H31 H 0.34160 0.34810 -0.23060
C29 C 0.5401(3) 0.2906(3) -0.1499(3)
H32 H 0.60400 0.29940 -0.13210
C30 C 0.4055(3) 0.2277(3) -0.1770(3)
H33 H 0.35710 0.18420 -0.18100
N6 N 0.4974(3) 0.2099(2) -0.1425(2)
N7 N 0.4812(2) 0.3576(2) -0.1857(2)
N8 N 0.5623(2) 0.7767(2) -0.0601(2)
N9 N 0.5793(3) 0.9309(2) -0.0716(2)
O6 O 0.6829(3) 0.5176(2) -0.3130(2)
H34 H 0.700(5) 0.491(4) -0.269(2)
H35 H 0.684(5) 0.478(4) -0.347(3)
Ag1* Ag 1.00861(2) -0.94265(2) 0.11372(2)
N3* N 1.0699(2) 0.1916(2) 0.1466(2)
Ag2* Ag 0.54901(4) 1.07633(3) -0.09444(3)
N9* N 0.5793(3) -0.0691(2) -0.0716(2)
#END
