
#######################################################################
#
#                 Cambridge Crystallographic Data Centre
#                                CCDC
#
#######################################################################
#
# If this CIF has been generated from an entry in the Cambridge
# Structural Database, then it will include bibliographic, chemical,
# crystal, experimental, refinement or atomic coordinate data resulting
# from the CCDC's data processing and validation procedures.
#
#######################################################################

data_CSD_CIF_RUMRUO
_audit_creation_date 2015-08-07
_audit_creation_method CSD-ConQuest-V1
_database_code_CSD RUMRUO
_database_code_depnum_ccdc_archive 'CCDC 989617'
_chemical_formula_sum 'C6 H16 F5 N21 Zn4'
_chemical_formula_moiety
;
(C4 H8 F5 N20 Zn4 1-)n,C2 H8 N1 1+
;
_journal_coden_Cambridge 1147
_journal_volume 15
_journal_year 2015
_journal_page_first 4248
_journal_name_full 'Cryst.Growth Des. '
loop_
_publ_author_name
"V.Pimenta"
"J.Lhoste"
"A.Hemon-Ribaud"
"M.Leblanc"
"J.-M.Greneche"
"L.Jouffret"
"A.Martel"
"G.Dujardin"
"V.Maisonneuve"
_chemical_name_systematic
;
catena-[N,N-dimethylammonium 
tetrakis(\m~3~-5-amino-1H-tetrazol-1-yl)-pentakis(\m~2~-fluoro)-tetra-zinc]
;
_cell_volume    550.134
_exptl_crystal_colour 'white'
_exptl_crystal_density_diffrn 2.206
_exptl_crystal_description 'needle'
_diffrn_ambient_temperature 150
_refine_special_details
;
C3,N6 disordered by symmetry over four configurations with occupancies 
0.50,0.25.
;
#These two values have been output from a single CSD field.
_refine_ls_R_factor_gt 0.0557
_refine_ls_wR_factor_gt 0.0557
_symmetry_cell_setting monoclinic
_symmetry_space_group_name_H-M 'P 2/m'
_symmetry_Int_Tables_number 10
loop_
_symmetry_equiv_pos_site_id
_symmetry_equiv_pos_as_xyz
1 x,y,z
2 -x,y,-z
3 -x,-y,-z
4 x,-y,z
_cell_length_a 6.5576(4)
_cell_length_b 9.7150(6)
_cell_length_c 8.6358(6)
_cell_angle_alpha 90
_cell_angle_beta 90.579(4)
_cell_angle_gamma 90
_cell_formula_units_Z 1
loop_
_atom_type_symbol
_atom_type_radius_bond
C 0.68
H 0.23
F 0.64
N 0.68
Zn 1.22
loop_
_atom_site_label
_atom_site_type_symbol
_atom_site_fract_x
_atom_site_fract_y
_atom_site_fract_z
Zn1 Zn 0.29709(13) 0.50000 0.59708(10)
Zn2 Zn 0.00000 0.00000 1.00000
Zn3 Zn 0.50000 0.00000 1.00000
F1 F 0.2579(7) 0.00000 1.1383(5)
F2 F 0.3852(7) 0.50000 0.3822(6)
F3 F 0.00000 0.50000 0.50000
N1 N 0.1415(7) 0.1557(5) 0.8626(5)
N2 N 0.4157(7) 0.2550(5) 0.7767(6)
N3 N 0.3480(7) 0.1557(5) 0.8610(5)
N4 N 0.2530(7) 0.3241(4) 0.7171(5)
C1 C 0.0856(8) 0.2612(6) 0.7728(7)
N5 N -0.1095(8) 0.2952(6) 0.7376(7)
H1 H -0.20830 0.24720 0.77400
H2 H -0.13470 0.36470 0.67880
C2 C 0.5000(8) 0.0000(6) 1.5000(7)
C3 C 0.1570(8) 0.0000(6) 1.5067(7)
N6 N 0.3518(8) 0.0506(6) 1.4373(7)
Zn1A Zn -0.29709(13) 0.50000 0.40292(10)
F2A F -0.3852(7) 0.50000 0.6178(6)
N1A N -0.1415(7) 0.1557(5) 0.1374(5)
N2A N -0.4157(7) 0.2550(5) 0.2233(6)
N3A N -0.3480(7) 0.1557(5) 0.1390(5)
N4A N -0.2530(7) 0.3241(4) 0.2829(5)
C1A C -0.0856(8) 0.2612(6) 0.2272(7)
N5A N 0.1095(8) 0.2952(6) 0.2624(7)
H1A H 0.20830 0.24720 0.22600
H2A H 0.13470 0.36470 0.32120
N1C N 0.1415(7) -0.1557(5) 0.8626(5)
N2C N 0.4157(7) -0.2550(5) 0.7767(6)
N3C N 0.3480(7) -0.1557(5) 0.8610(5)
N4C N 0.2530(7) -0.3241(4) 0.7171(5)
C1C C 0.0856(8) -0.2612(6) 0.7728(7)
N5C N -0.1095(8) -0.2952(6) 0.7376(7)
H1C H -0.20830 -0.24720 0.77400
H2C H -0.13470 -0.36470 0.67880
N1C* N 0.1415(7) 0.8443(5) 0.8626(5)
N2C* N 0.4157(7) 0.7450(5) 0.7767(6)
N3C* N 0.3480(7) 0.8443(5) 0.8610(5)
N4C* N 0.2530(7) 0.6759(4) 0.7171(5)
C1C* C 0.0856(8) 0.7388(6) 0.7728(7)
N5C* N -0.1095(8) 0.7048(6) 0.7376(7)
H1C* H -0.20830 0.75280 0.77400
H2C* H -0.13470 0.63530 0.67880
F1A F -0.2579(7) 0.00000 0.8617(5)
Zn1* Zn -0.70291(13) 0.50000 0.59708(10)
Zn1** Zn 0.29709(13) -0.50000 0.59708(10)
Zn1A* Zn 0.70291(13) 0.50000 0.40292(10)
Zn2* Zn 0.00000 0.00000 0.00000
Zn2** Zn 0.00000 1.00000 1.00000
Zn3* Zn -0.50000 0.00000 0.00000
Zn3** Zn -0.50000 0.00000 1.00000
Zn3*** Zn 0.50000 1.00000 1.00000
F1A* F 0.7421(7) 0.00000 0.8617(5)
F2* F -0.6148(7) 0.50000 0.3822(6)
F2A* F 0.6148(7) 0.50000 0.6178(6)
N1A* N -0.1415(7) 0.1557(5) 1.1374(5)
N1B N -0.1415(7) -0.1557(5) 1.1374(5)
N3A* N 0.6520(7) 0.1557(5) 1.1390(5)
N3B N 0.6520(7) -0.1557(5) 1.1390(5)
N4B N -0.2530(7) 0.6759(4) 0.2829(5)
C3A C 0.8430(8) 0.0000(6) 1.4933(7)
N6A N 0.6482(8) 0.0506(6) 1.5627(7)
N6B N 0.6482(8) -0.0506(6) 1.5627(7)
N6C N 0.3518(8) -0.0506(6) 1.4373(7)
#END
