
#######################################################################
#
#                 Cambridge Crystallographic Data Centre
#                                CCDC
#
#######################################################################
#
# If this CIF has been generated from an entry in the Cambridge
# Structural Database, then it will include bibliographic, chemical,
# crystal, experimental, refinement or atomic coordinate data resulting
# from the CCDC's data processing and validation procedures.
#
#######################################################################

data_CSD_CIF_RUMRIC
_audit_creation_date 2015-08-07
_audit_creation_method CSD-ConQuest-V1
_database_code_CSD RUMRIC
_database_code_depnum_ccdc_archive 'CCDC 989615'
_chemical_formula_sum 'C4.5 H17 F5 Fe1 N13 Zn1'
_chemical_formula_moiety
;
(C2 H4 F5 Fe1 N10 Zn1 2-)n,C2 H8 N1 1+,0.5(C1 H6 N3 1+),0.5(H4 N1 1+)
;
_journal_coden_Cambridge 1147
_journal_volume 15
_journal_year 2015
_journal_page_first 4248
_journal_name_full 'Cryst.Growth Des. '
loop_
_publ_author_name
"V.Pimenta"
"J.Lhoste"
"A.Hemon-Ribaud"
"M.Leblanc"
"J.-M.Greneche"
"L.Jouffret"
"A.Martel"
"G.Dujardin"
"V.Maisonneuve"
_chemical_name_systematic
;
catena-[N,N-dimethylammonium hemiguanidinium hemiammonium 
bis(\m~3~-5-amino-1H-tetrazol-1-yl)-(\m~2~-fluoro)-tetrafluoro-iron-zinc]
;
_cell_volume   3265.464
_exptl_crystal_colour 'brown'
_exptl_crystal_density_diffrn 1.902
_exptl_crystal_description 'needle'
_diffrn_ambient_temperature 296
_refine_special_details
;
N14 disordered by symmetry over two configurations with occupancy 0.50.

;
#These two values have been output from a single CSD field.
_refine_ls_R_factor_gt 0.1369
_refine_ls_wR_factor_gt 0.1369
_symmetry_cell_setting monoclinic
_symmetry_space_group_name_H-M 'C 2/c'
_symmetry_Int_Tables_number 15
loop_
_symmetry_equiv_pos_site_id
_symmetry_equiv_pos_as_xyz
1 x,y,z
2 -x,y,1/2-z
3 1/2+x,1/2+y,z
4 1/2-x,1/2+y,1/2-z
5 -x,-y,-z
6 x,-y,-1/2+z
7 -1/2-x,-1/2-y,-z
8 -1/2+x,-1/2-y,-1/2+z
_cell_length_a 29.371(10)
_cell_length_b 6.645(2)
_cell_length_c 17.375(6)
_cell_angle_alpha 90
_cell_angle_beta 105.644(11)
_cell_angle_gamma 90
_cell_formula_units_Z 8
loop_
_atom_type_symbol
_atom_type_radius_bond
C 0.68
H 0.23
F 0.64
Fe 1.52
N 0.68
Zn 1.22
loop_
_atom_site_label
_atom_site_type_symbol
_atom_site_fract_x
_atom_site_fract_y
_atom_site_fract_z
Zn1 Zn 0.25186(6) 0.4937(2) 0.75123(9)
Fe1 Fe 0.40355(7) 0.1709(3) 0.56670(11)
F1 F 0.2495(3) 0.2444(11) 0.8172(4)
F2 F 0.4541(3) 0.1269(13) 0.6636(5)
F3 F 0.4161(3) 0.4537(11) 0.5754(4)
F4 F 0.4496(3) 0.1300(16) 0.5083(5)
F5 F 0.3844(4) -0.0975(13) 0.5580(5)
N1 N 0.1971(4) 0.1421(16) 0.6536(6)
N2 N 0.1988(4) 0.3466(15) 0.6566(6)
N3 N 0.1699(4) 0.4198(17) 0.5925(6)
N4 N 0.1483(4) 0.2671(15) 0.5465(6)
N5 N 0.1553(5) -0.0940(17) 0.5602(7)
H1 H 0.16930 -0.19230 0.58930
H2 H 0.13480 -0.11780 0.51540
C1 C 0.1654(4) 0.0957(19) 0.5844(7)
N6 N 0.3531(4) 0.2299(15) 0.6390(6)
N7 N 0.3312(4) 0.0692(15) 0.6642(6)
N8 N 0.3029(4) 0.1405(15) 0.7024(6)
N9 N 0.3048(4) 0.3471(15) 0.7054(6)
N10 N 0.3501(5) 0.5860(17) 0.6567(9)
H3 H 0.33770 0.68470 0.67580
H4 H 0.37090 0.60860 0.63110
C2 C 0.3366(4) 0.3926(19) 0.6667(7)
C3 C 0.00000 -0.130(3) 0.25000
N11 N 0.00000 0.065(4) 0.25000
H5 H 0.01690 0.13000 0.29050
N12 N 0.0265(6) -0.224(2) 0.3135(10)
H6 H 0.04320 -0.15630 0.35330
H7 H 0.02710 -0.35360 0.31480
N13 N 0.0432(7) 0.657(4) 0.5959(14)
H8 H 0.01390 0.62570 0.59850
H9 H 0.04840 0.58790 0.55460
C4 C 0.0436(14) 0.849(4) 0.579(2)
H10 H 0.04480 0.92730 0.62590
H11 H 0.01550 0.88270 0.53790
H12 H 0.07090 0.87900 0.56040
C5 C 0.0753(10) 0.586(5) 0.6665(17)
H13 H 0.10690 0.62220 0.66640
H14 H 0.07290 0.44170 0.66880
H15 H 0.06790 0.64420 0.71210
N14 N 0.2393(12) 0.628(8) 0.486(2)
H16? H 0.01690 0.13000 0.29050
Zn1C Zn 0.24814(6) -0.0063(2) 0.74877(9)
Fe1F Fe 0.09645(7) 0.3291(3) 0.43330(11)
F1C F 0.2505(3) 0.7444(11) 0.6828(4)
N1C N 0.3029(4) 0.6421(16) 0.8464(6)
N4F N 0.3517(4) 0.2329(15) 0.4535(6)
N8C N 0.1971(4) 0.6405(15) 0.7976(6)
H5A H -0.01690 0.13000 0.20950
N12A N -0.0265(6) -0.224(2) 0.1865(10)
H6A H -0.04320 -0.15630 0.14670
H7A H -0.02710 -0.35360 0.18520
#END
