
#######################################################################
#
#                 Cambridge Crystallographic Data Centre
#                                CCDC
#
#######################################################################
#
# If this CIF has been generated from an entry in the Cambridge
# Structural Database, then it will include bibliographic, chemical,
# crystal, experimental, refinement or atomic coordinate data resulting
# from the CCDC's data processing and validation procedures.
#
#######################################################################

data_CSD_CIF_RUMROI
_audit_creation_date 2015-08-07
_audit_creation_method CSD-ConQuest-V1
_database_code_CSD RUMROI
_database_code_depnum_ccdc_archive 'CCDC 989616'
_chemical_formula_sum 'C7 H22 F6 Fe1.4 N17 Zn1.6'
_chemical_formula_moiety
;
(C3 H6 F6 Fe1 N15 Zn2 2-)0.6n,2(C2 H8 N1 1+),0.4n(C3 H6 F6 Fe2 N15 Zn1 2-)
;
_journal_coden_Cambridge 1147
_journal_volume 15
_journal_year 2015
_journal_page_first 4248
_journal_name_full 'Cryst.Growth Des. '
loop_
_publ_author_name
"V.Pimenta"
"J.Lhoste"
"A.Hemon-Ribaud"
"M.Leblanc"
"J.-M.Greneche"
"L.Jouffret"
"A.Martel"
"G.Dujardin"
"V.Maisonneuve"
_chemical_name_systematic
;
catena-[bis(N,N-dimethylammonium) 
tris(\m~3~-5-amino-1H-tetrazol-1-yl)-bis(\m~2~-fluoro)-tetrafluoro-iron-di-zin
c tris(\m~3~-5-amino-1H-tetrazol-1-yl)-bis(\m~2~-fluoro)-tetrafluoro-di 
iron-zinc]
;
_cell_volume   1041.644
_exptl_crystal_colour 'brown yellow'
_exptl_crystal_density_diffrn 2.044
_exptl_crystal_description 'needle'
_diffrn_ambient_temperature 150
_refine_special_details
;
Zn1 and Fe1 disordered over two sites with occupancies 0.60:0.40.

;
#These two values have been output from a single CSD field.
_refine_ls_R_factor_gt 0.0399
_refine_ls_wR_factor_gt 0.0399
_symmetry_cell_setting monoclinic
_symmetry_space_group_name_H-M 'P 21'
_symmetry_Int_Tables_number 4
loop_
_symmetry_equiv_pos_site_id
_symmetry_equiv_pos_as_xyz
1 x,y,z
2 -x,1/2+y,-z
_cell_length_a 13.2928(6)
_cell_length_b 6.5700(3)
_cell_length_c 13.6461(9)
_cell_angle_alpha 90
_cell_angle_beta 119.069(3)
_cell_angle_gamma 90
_cell_formula_units_Z 2
loop_
_atom_type_symbol
_atom_type_radius_bond
C 0.68
H 0.23
F 0.64
Fe 1.52
N 0.68
Zn 1.22
loop_
_atom_site_label
_atom_site_type_symbol
_atom_site_fract_x
_atom_site_fract_y
_atom_site_fract_z
Fe1 Fe 1.24739(9) 0.24548(14) 0.49570(6)
Zn1 Zn 0.49483(7) 0.59155(6) -0.00549(6)
Zn2 Zn 0.95027(5) 0.40171(8) -0.00328(7)
F1 F 1.1076(4) 0.1489(6) 0.4862(3)
F2 F 1.1868(4) 0.5178(6) 0.4646(3)
F3 F 1.3077(4) -0.0230(6) 0.5233(3)
F4 F 1.3867(3) 0.3447(6) 0.5033(3)
F5 F 0.9701(5) 0.1560(6) -0.0771(3)
F6 F 0.4758(3) 0.3436(5) 0.0714(3)
N1 N 1.1755(5) 0.1872(9) 0.3188(4)
N2 N 1.1246(5) 0.3420(8) 0.2431(4)
N3 N 1.0771(5) 0.2639(8) 0.1439(4)
N4 N 1.0919(4) 0.0554(8) 0.1493(4)
N5 N 1.1892(5) -0.1731(9) 0.3013(4)
H1 H 1.17400 -0.27570 0.25720
H2 H 1.22800 -0.19000 0.37280
C1 C 1.1525(5) 0.0138(9) 0.2586(5)
N6 N 0.8031(4) 0.3564(6) 0.0013(5)
N7 N 0.7378(4) 0.5155(7) -0.0004(6)
N8 N 0.6490(4) 0.4449(6) 0.0050(5)
N9 N 0.6519(4) 0.2397(7) 0.0091(4)
N10 N 0.7843(6) -0.0088(9) 0.0124(7)
H3 H 0.74520 -0.10740 0.01870
H4 H 0.84660 -0.03370 0.01010
C2 C 0.7470(5) 0.1893(9) 0.0061(7)
N11 N 1.3152(4) 0.3043(7) 0.6682(4)
N12 N 1.3547(5) 0.1525(8) 0.7447(4)
N13 N 1.4033(4) 0.2330(8) 0.8441(4)
N14 N 1.3991(4) 0.4374(8) 0.8388(4)
N15 N 1.3183(5) 0.6698(9) 0.6835(5)
H5 H 1.33810 0.77450 0.72670
H6 H 1.28250 0.68530 0.61190
C3 C 1.3435(5) 0.4802(9) 0.7283(5)
Fe2? Fe 0.49483(7) 0.59155(6) -0.00549(6)
N16 N 0.9594(5) 0.5920(11) 0.3599(4)
H7 H 1.03590 0.57110 0.39440
H8 H 0.93910 0.61140 0.41330
C4 C 0.9318(6) 0.7793(13) 0.2899(7)
H9 H 0.95110 0.75830 0.23130
H10 H 0.97550 0.89160 0.33590
H11 H 0.85110 0.80850 0.25730
C5 C 0.9000(6) 0.4072(16) 0.2941(6)
H12 H 0.81850 0.43080 0.25390
H13 H 0.91630 0.29400 0.34410
H14 H 0.92700 0.37760 0.24190
N17 N 1.4641(5) 0.3798(10) 0.3588(4)
H15 H 1.54110 0.39240 0.39160
H16 H 1.44480 0.37410 0.41350
C6 C 1.4095(7) 0.5642(13) 0.2880(7)
H17 H 1.32730 0.55440 0.25480
H18 H 1.43030 0.57220 0.22980
H19 H 1.43580 0.68400 0.33380
C7 C 1.4295(7) 0.1874(13) 0.2945(8)
H20 H 1.35010 0.15980 0.27110
H21 H 1.47630 0.07810 0.34090
H22 H 1.43960 0.19950 0.22970
Zn1* Zn 1.49483(7) 0.59155(6) 0.99451(6)
Zn1A Zn 0.50517(7) 0.09155(6) 0.00549(6)
Zn1A* Zn 1.50517(7) 0.09155(6) 1.00549(6)
Zn2A Zn 1.04973(5) -0.09829(8) 0.00328(7)
F5A F 1.0299(5) 0.6560(6) 0.0771(3)
F6A F 0.5242(3) 0.8436(5) -0.0714(3)
N4A N 0.9081(4) 0.5554(8) -0.1493(4)
N9A N 0.3481(4) 0.7397(7) -0.0091(4)
N13A N 0.5967(4) 0.7330(8) 0.1559(4)
N14* N 0.3991(4) 0.4374(8) -0.1612(4)
#END
