
#######################################################################
#
#                 Cambridge Crystallographic Data Centre
#                                CCDC
#
#######################################################################
#
# If this CIF has been generated from an entry in the Cambridge
# Structural Database, then it will include bibliographic, chemical,
# crystal, experimental, refinement or atomic coordinate data resulting
# from the CCDC's data processing and validation procedures.
#
#######################################################################

data_CSD_CIF_RUPBIQ
_audit_creation_date 2020-05-22
_audit_creation_method CSD-ConQuest-V1
_database_code_CSD RUPBIQ
_database_code_depnum_ccdc_archive 'CCDC 1964952'
_chemical_formula_sum 'C12 H24 Cu2 Na2 O24'
_chemical_formula_moiety
;
(C12 H14 Cu2 O19 2-)n,5(H2 O1),2(Na1 1+)
;
_journal_coden_Cambridge 1853
_journal_volume 186
_journal_year 2019
_journal_page_first 231
_journal_name_full 'Optik: international j. light and electron optics '
loop_
_publ_author_name
"F.Daisy Selasteen"
"S.Alfred Cecil Raj"
"K.Karthickeyan"
"J.Inigo Valanarasi"
"A.John Samuel"
"P.Dorathy Rani"
"R.Vaishnavi"
"S.Roshini"
_chemical_name_systematic
;
catena-[di-sodium bis(\m-tartrato)-(tartrato)-di-copper(ii) pentahydrate]
;
_chemical_name_common
;
Copper sodium Tritartrate
;
_cell_volume   1146.961
_exptl_crystal_colour 'blue'
_exptl_crystal_density_diffrn 2.1
_exptl_special_details
;
Absolute configuration
Magnetic properties,Luminescent
Hygroscopic

;
_exptl_crystal_description 'block'
_exptl_crystal_preparation 'tartaric acid'
_diffrn_ambient_temperature 296
_diffrn_special_details
;
twin

;
#These two values have been output from a single CSD field.
_refine_ls_R_factor_gt 0.0263
_refine_ls_wR_factor_gt 0.0263
_symmetry_cell_setting monoclinic
_symmetry_space_group_name_H-M 'P 21'
_symmetry_Int_Tables_number 4
loop_
_symmetry_equiv_pos_site_id
_symmetry_equiv_pos_as_xyz
1 x,y,z
2 -x,1/2+y,-z
_cell_length_a 7.7230(5)
_cell_length_b 20.2964(11)
_cell_length_c 7.9896(5)
_cell_angle_alpha 90
_cell_angle_beta 113.675(2)
_cell_angle_gamma 90
_cell_formula_units_Z 2
loop_
_atom_type_symbol
_atom_type_radius_bond
C 0.68
H 0.23
Cu 1.32
Na 1.66
O 0.68
loop_
_atom_site_label
_atom_site_type_symbol
_atom_site_fract_x
_atom_site_fract_y
_atom_site_fract_z
Cu1 Cu 0.19868(4) 0.50188(2) 0.55739(4)
Cu2 Cu 0.56130(4) 0.61727(2) 0.19426(4)
C1 C 0.7071(4) 0.64399(14) 0.5733(4)
C2 C 0.6897(4) 0.56885(14) 0.5894(4)
H1 H 0.81730 0.55090 0.65350
C3 C 0.5763(3) 0.55297(13) 0.7026(3)
H2 H 0.62860 0.57710 0.81850
C4 C 0.5804(4) 0.47961(13) 0.7399(4)
C5 C -0.0572(3) 0.57050(13) 0.2422(3)
C6 C 0.0580(4) 0.54094(13) 0.1396(4)
H3 H -0.02950 0.51480 0.03750
C7 C 0.1507(3) 0.59167(13) 0.0601(3)
H4 H 0.05490 0.62280 -0.01720
C8 C 0.2393(4) 0.55552(13) -0.0555(3)
C9 C -0.0093(4) 0.38269(12) 0.3974(4)
C10 C -0.1474(4) 0.32911(13) 0.3991(4)
H5 H -0.24690 0.32460 0.27590
C11 C -0.0402(4) 0.26422(13) 0.4548(4)
H6 H -0.00540 0.24890 0.35610
C12 C -0.1659(4) 0.21296(13) 0.4899(4)
O1 O 0.6699(3) 0.66867(10) 0.4147(3)
O2 O 0.7593(3) 0.67734(11) 0.7151(3)
O3 O 0.6062(3) 0.53711(11) 0.4150(3)
H7 H 0.491(4) 0.536(2) 0.387(5)
O4 O 0.3842(3) 0.57269(9) 0.6006(3)
H8 H 0.340(4) 0.6058(14) 0.622(5)
O5 O 0.7342(3) 0.45268(11) 0.8265(3)
O6 O 0.4229(3) 0.44883(10) 0.6810(3)
O7 O -0.0128(3) 0.55793(10) 0.4075(2)
O8 O -0.2013(3) 0.60382(10) 0.1440(2)
O9 O 0.2024(3) 0.49769(10) 0.2530(3)
H9 H 0.15440 0.46690 0.28530
O10 O 0.1337(3) 0.52121(11) -0.1850(3)
O11 O 0.2994(3) 0.62684(10) 0.1976(3)
H10 H 0.255(5) 0.6545(15) 0.255(5)
O12 O 0.4153(3) 0.56255(11) -0.0121(3)
O13 O 0.5285(3) 0.71350(11) 0.0165(3)
H11 H 0.490(5) 0.7458(15) 0.060(4)
H12 H 0.452(5) 0.7080(18) -0.094(3)
O14 O 0.0583(3) 0.37956(10) 0.2794(3)
O15 O 0.0300(3) 0.42636(10) 0.5196(3)
O16 O -0.2301(3) 0.34747(10) 0.5204(3)
H13 H -0.33820 0.33290 0.48340
O17 O 0.1264(3) 0.27570(12) 0.6141(3)
H14 H 0.18640 0.24130 0.64570
O18 O -0.2958(3) 0.18903(11) 0.3487(3)
O19 O -0.1352(3) 0.19838(11) 0.6501(3)
Na1 Na 0.1458(2) 0.22936(10) 0.9183(2)
O20 O -0.0569(5) 0.29948(18) 0.9743(4)
H15 H -0.063(8) 0.2626(15) 1.027(7)
H16 H -0.057(8) 0.3282(19) 1.062(6)
Na2 Na 0.9809(2) 0.40305(8) 0.78569(19)
O21 O 1.2816(6) 0.3637(3) 0.9580(8)
H17 H 1.253(9) 0.395(3) 1.019(10)
H18 H 1.405(4) 0.362(4) 1.019(9)
O22 O -0.5976(4) 0.30399(15) 0.3844(5)
H19 H -0.663(6) 0.2671(14) 0.338(6)
H20 H -0.692(5) 0.3316(18) 0.372(7)
O23 O 0.6074(8) 0.4357(2) 0.1601(6)
H21 H 0.648(10) 0.474(2) 0.223(10)
H22 H 0.487(5) 0.446(4) 0.087(10)
O24 O 1.4468(4) 0.81217(15) 0.2150(4)
H23 H 1.341(5) 0.831(2) 0.143(5)
H24 H 1.448(6) 0.804(3) 0.313(4)
Cu1* Cu 0.19868(4) 0.50188(2) -0.44261(4)
Cu2* Cu -0.43870(4) 0.61727(2) 0.19426(4)
O8* O 0.7987(3) 0.60382(10) 0.1440(2)
O10* O 0.1337(3) 0.52121(11) 0.8150(3)
#END
