
#######################################################################
#
#                 Cambridge Crystallographic Data Centre
#                                CCDC
#
#######################################################################
#
# If this CIF has been generated from an entry in the Cambridge
# Structural Database, then it will include bibliographic, chemical,
# crystal, experimental, refinement or atomic coordinate data resulting
# from the CCDC's data processing and validation procedures.
#
#######################################################################

data_CSD_CIF_RUPBEJ
_audit_creation_date 1998-03-04
_audit_creation_method CSD-ConQuest-V1
_database_code_CSD RUPBEJ
_chemical_formula_sum 'C18 H28 Cr1 Mn1 N1 O12'
_chemical_formula_moiety
;
(C6 Cr1 Mn1 O12 1-)n,n(C12 H28 N1 1+)
;
_journal_coden_Cambridge 9
_journal_volume 36
_journal_year 1997
_journal_page_first 2301
_journal_name_full 'Inorg.Chem. '
loop_
_publ_author_name
"R.Pellaux"
"H.W.Schmalle"
"R.Huber"
"P.Fischer"
"T.Hauss"
"B.Ouladdiaf"
"S.Decurtins"
_chemical_name_systematic
;
catena-(Tetra-n-propylammonium 
tris(\m~2~-oxalato)-chromium(iii)-manganese(ii))
;
_cell_volume   3735.834
_exptl_crystal_colour 'red-blue'
_exptl_crystal_density_diffrn 1.486
_exptl_crystal_description 'plate'
_diffrn_ambient_temperature ?
_diffrn_special_details
;
The study was carried out at room temperature,in the range 283-303K

;
_refine_special_details
;
The axial propyl chains of the cation are disordered about the three-fold 
axis.
;
#These two values have been output from a single CSD field.
_refine_ls_R_factor_gt 0.068
_refine_ls_wR_factor_gt 0.068
_symmetry_cell_setting rhombohedral
_symmetry_space_group_name_H-M 'R 3 c'
_symmetry_Int_Tables_number 161
loop_
_symmetry_equiv_pos_site_id
_symmetry_equiv_pos_as_xyz
1 x,y,z
2 -y,x-y,z
3 -y,-x,1/2+z
4 -x+y,-x,z
5 x,x-y,1/2+z
6 -x+y,y,1/2+z
7 1/3+x,2/3+y,2/3+z
8 1/3-y,2/3+x-y,2/3+z
9 1/3-y,2/3-x,1/6+z
10 1/3-x+y,2/3-x,2/3+z
11 1/3+x,2/3+x-y,1/6+z
12 1/3-x+y,2/3+y,1/6+z
13 2/3+x,1/3+y,1/3+z
14 2/3-y,1/3+x-y,1/3+z
15 2/3-y,1/3-x,5/6+z
16 2/3-x+y,1/3-x,1/3+z
17 2/3+x,1/3+x-y,5/6+z
18 2/3-x+y,1/3+y,5/6+z
_cell_length_a 9.363(3)
_cell_length_b 9.363(3)
_cell_length_c 49.207(27)
_cell_angle_alpha 90
_cell_angle_beta 90
_cell_angle_gamma 120
_cell_formula_units_Z 6
loop_
_atom_type_symbol
_atom_type_radius_bond
C 0.68
H 0.23
Cr 1.35
Mn 1.35
N 0.68
O 0.68
loop_
_atom_site_label
_atom_site_type_symbol
_atom_site_fract_x
_atom_site_fract_y
_atom_site_fract_z
Mn1 Mn 0.66670 0.33330 0.9972(1)
Cr1 Cr 0.33340 -0.33330 0.9954(1)
O1 O 0.8742(6) 0.5194(6) 1.0193(1)
O2 O 0.8735(6) 0.3579(6) 0.9738(1)
O3 O 0.3514(5) -0.1462(6) 0.9735(1)
O4 O 0.5057(6) -0.1531(5) 1.0179(1)
C1 C 0.5431(8) -0.0087(7) 1.0092(2)
C2 C 0.4503(9) -0.0094(8) 0.9827(2)
N1 N 1.00000 1.00000 0.9337(2)
C3 C 0.9415(15) 0.8236(7) 0.9211(2)
C4 C 1.0312(4) 0.735(1) 0.9234(4)
C5 C 0.9529(23) 0.5614(14) 0.9132(4)
C6 C 1.0015(25) 1.0148(22) 0.9636(2)
C7 C 1.0186(33) 0.9154(29) 0.9855(2)
C8 C 0.9705(41) 0.9501(25) 1.0131(3)
H1 H 0.8324(15) 0.7510(7) 0.9284(2)
H2 H 0.9269(15) 0.8332(7) 0.9018(2)
H3 H 1.0571(14) 0.7338(10) 0.9424(4)
H4 H 1.1352(14) 0.7986(10) 0.9139(4)
H5 H 1.0264(23) 0.5193(14) 0.9161(4)
H6 H 0.9304(23) 0.5593(14) 0.8941(4)
H7 H 0.8516(23) 0.4942(14) 0.9228(4)
H8 H 0.8994(25) 1.0130(22) 0.9678(2)
H9 H 1.0886(25) 1.1268(22) 0.9672(2)
H10 H 1.1321(33) 0.9395(29) 0.9862(2)
H11 H 0.9495(33) 0.7992(29) 0.9813(2)
H12 H 0.9739(41) 0.8765(25) 1.0264(3)
H13 H 0.8609(41) 0.9337(25) 1.0122(3)
H14 H 1.0462(41) 1.0620(25) 1.0183(3)
O1A O 0.4806(6) 0.3548(6) 1.0193(1)
O2A O 0.6421(6) 0.5156(6) 0.9738(1)
O1C O 0.6452(6) 0.1258(6) 1.0193(1)
O2C O 0.4844(6) 0.1265(6) 0.9738(1)
O3A O 0.1462(5) -0.5024(6) 0.9735(1)
C2A C 0.0094(9) -0.5403(8) 0.9827(2)
O2* O -0.1265(6) -0.6421(6) 0.9738(1)
Mn1* Mn -0.33330 -0.66670 0.9972(1)
C1A C 0.0087(8) -0.4482(7) 1.0092(2)
O1* O -0.1258(6) -0.4806(6) 1.0193(1)
O4A O 0.1531(6) -0.3412(5) 1.0179(1)
O3C O 0.5024(5) -0.3514(6) 0.9735(1)
C2C C 0.5403(9) -0.4503(8) 0.9827(2)
O2A* O 0.6421(6) -0.4844(6) 0.9738(1)
Mn1A Mn 0.66670 -0.66660 0.9972(1)
O1A* O 0.4806(6) -0.6452(6) 1.0193(1)
C1C C 0.4482(8) -0.5431(7) 1.0092(2)
O4C O 0.3412(6) -0.5057(5) 1.0179(1)
C3A C 1.1764(15) 1.1179(7) 0.9211(2)
C4A C 1.2650(4) 1.2962(10) 0.9234(4)
C5A C 1.4386(23) 1.3915(14) 0.9132(4)
H5A H 1.4807(23) 1.5071(14) 0.9161(4)
H6A H 1.4407(23) 1.3711(14) 0.8941(4)
H7A H 1.5058(23) 1.3574(14) 0.9228(4)
H3A H 1.2662(14) 1.3233(10) 0.9424(4)
H4A H 1.2014(14) 1.3366(10) 0.9139(4)
H1A H 1.2490(15) 1.0814(7) 0.9284(2)
H2A H 1.1668(15) 1.0937(7) 0.9018(2)
C3C C 0.8821(15) 1.0585(7) 0.9211(2)
C4C C 0.7038(4) 0.9688(10) 0.9234(4)
C5C C 0.6085(23) 1.0471(14) 0.9132(4)
H5C H 0.4929(23) 0.9736(14) 0.9161(4)
H6C H 0.6289(23) 1.0696(14) 0.8941(4)
H7C H 0.6426(23) 1.1484(14) 0.9228(4)
H3C H 0.6767(14) 0.9429(10) 0.9424(4)
H4C H 0.6634(14) 0.8648(10) 0.9139(4)
H1C H 0.9186(15) 1.1676(7) 0.9284(2)
H2C H 0.9063(15) 1.0731(7) 0.9018(2)
C6A C 0.9852(25) 0.9867(22) 0.9636(2)
C6C C 1.0133(25) 0.9985(22) 0.9636(2)
C7C C 0.8968(33) 0.9814(29) 0.9855(2)
C7A C 1.0846(33) 1.1032(29) 0.9855(2)
C8C C 0.9796(41) 1.0295(25) 1.0131(3)
H8A H 0.9870(25) 0.8864(22) 0.9678(2)
H8C H 1.1136(25) 1.1006(22) 0.9678(2)
H9A H 0.8732(25) 0.9618(22) 0.9672(2)
C8A C 1.0499(41) 1.0204(25) 1.0131(3)
H9C H 1.0382(25) 0.9114(22) 0.9672(2)
H10A H 1.0605(33) 1.1926(29) 0.9862(2)
H11A H 1.2008(33) 1.1503(29) 0.9813(2)
H10C H 0.8074(33) 0.8679(29) 0.9862(2)
H11C H 0.8497(33) 1.0505(29) 0.9813(2)
H12A H 1.1235(41) 1.0974(25) 1.0264(3)
H14C H 1.0158(41) 0.9538(25) 1.0183(3)
H12C H 0.9026(41) 1.0261(25) 1.0264(3)
H14A H 0.9380(41) 0.9842(25) 1.0183(3)
H13A H 1.0663(41) 0.9272(25) 1.0122(3)
H13C H 1.0728(41) 1.1391(25) 1.0122(3)
#END
