
#######################################################################
#
#                 Cambridge Crystallographic Data Centre
#                                CCDC
#
#######################################################################
#
# If this CIF has been generated from an entry in the Cambridge
# Structural Database, then it will include bibliographic, chemical,
# crystal, experimental, refinement or atomic coordinate data resulting
# from the CCDC's data processing and validation procedures.
#
#######################################################################

data_CSD_CIF_RUPVAB
_audit_creation_date 2015-08-10
_audit_creation_method CSD-ConQuest-V1
_database_code_CSD RUPVAB
_database_code_depnum_ccdc_archive 'CCDC 1060331'
_chemical_formula_sum 'C74 H83 N7 O44 Zn9'
_chemical_formula_moiety
;
(C2 H8 N1 1+)4n,n(C54 H24 O41 Zn9 4-),3n(C4 H9 N1 O1)
;
_journal_coden_Cambridge 182
_journal_volume 51
_journal_year 2015
_journal_page_first 14211
_journal_name_full 'Chem.Commun. '
loop_
_publ_author_name
"Yun-Wu Li"
"Jian Xu"
"Da-Cheng Li"
"Jian-Min Dou"
"Hui Yan"
"Tong-Liang Hu"
"Xian-He Bu"
_chemical_name_systematic
;
catena-[tetrakis(Dimethylammonium) 
hexakis(\m~5~-benzene-1,3,5-tricarboxylato)-bis(\m~3~-oxo)-triaqua-nona-zinc 
N,N-dimethylacetamide solvate]
;
_cell_volume  12982.846
_diffrn_ambient_temperature 293
_refine_special_details
;
Disordered cation and solvent molecules were not modelled and the disordered 
density was taken into account using the SQUEEZE/PLATON procedure.
;
#These two values have been output from a single CSD field.
_refine_ls_R_factor_gt 0.0846
_refine_ls_wR_factor_gt 0.0846
_symmetry_cell_setting cubic
_symmetry_space_group_name_H-M 'I 2 3'
_symmetry_Int_Tables_number 197
loop_
_symmetry_equiv_pos_site_id
_symmetry_equiv_pos_as_xyz
1 x,y,z
2 -x,-y,z
3 x,-y,-z
4 -x,y,-z
5 z,x,y
6 -z,-x,y
7 z,-x,-y
8 -z,x,-y
9 y,z,x
10 y,-z,-x
11 -y,z,-x
12 -y,-z,x
13 1/2+x,1/2+y,1/2+z
14 1/2-x,1/2-y,1/2+z
15 1/2+x,1/2-y,1/2-z
16 1/2-x,1/2+y,1/2-z
17 1/2+z,1/2+x,1/2+y
18 1/2-z,1/2-x,1/2+y
19 1/2+z,1/2-x,1/2-y
20 1/2-z,1/2+x,1/2-y
21 1/2+y,1/2+z,1/2+x
22 1/2+y,1/2-z,1/2-x
23 1/2-y,1/2+z,1/2-x
24 1/2-y,1/2-z,1/2+x
_cell_length_a 23.503(3)
_cell_length_b 23.503(3)
_cell_length_c 23.503(3)
_cell_angle_alpha 90
_cell_angle_beta 90
_cell_angle_gamma 90
_cell_formula_units_Z 4
loop_
_atom_type_symbol
_atom_type_radius_bond
C 0.68
H 0.23
O 0.68
Zn 1.22
loop_
_atom_site_label
_atom_site_type_symbol
_atom_site_fract_x
_atom_site_fract_y
_atom_site_fract_z
Zn1 Zn 0.50000 1.00000 0.93640(5)
Zn2 Zn 0.76263(6) 0.70659(5) 0.82052(7)
O1 O 0.5637(3) 0.9441(3) 0.9525(3)
O2 O 0.50000 1.00000 0.8525(4)
O3 O 0.5573(3) 0.9350(3) 1.0477(3)
O4 O 0.7426(3) 0.7585(3) 0.8840(3)
O5 O 0.6979(4) 0.8310(3) 0.8439(3)
O6 O 0.6680(4) 0.7869(4) 1.1433(3)
O7 O 0.7294(5) 0.7335(6) 1.0981(5)
O8 O 0.7480(3) 0.7480(3) 0.7480(3)
C1 C 0.6224(4) 0.8759(4) 0.9976(4)
C2 C 0.6390(4) 0.8459(5) 1.0464(4)
H1 H 0.62250 0.85540 1.08110
C3 C 0.6780(5) 0.8037(4) 1.0447(4)
C4 C 0.7048(4) 0.7910(4) 0.9921(4)
H2 H 0.73390 0.76410 0.99040
C5 C 0.6877(4) 0.8184(4) 0.9446(4)
C6 C 0.6469(4) 0.8601(3) 0.9462(4)
H3 H 0.63560 0.87790 0.91270
C7 C 0.5774(4) 0.9233(4) 1.0007(6)
C8 C 0.7107(4) 0.8013(4) 0.8851(4)
C9 C 0.6938(6) 0.7738(6) 1.0976(5)
Zn2A Zn 0.23737(6) 1.29341(5) 0.82052(7)
O1A O 0.4363(3) 1.0559(3) 0.9525(3)
O3A O 0.4427(3) 1.0650(3) 1.0477(3)
O4A O 0.2574(3) 1.2415(3) 0.8840(3)
O5A O 0.3021(4) 1.1690(3) 0.8439(3)
O6A O 0.3320(4) 1.2131(4) 1.1433(3)
O7A O 0.2706(5) 1.2665(6) 1.0981(5)
C1A C 0.3776(4) 1.1241(4) 0.9976(4)
C2A C 0.3610(4) 1.1541(5) 1.0464(4)
H1A H 0.37750 1.14460 1.08110
C3A C 0.3220(5) 1.1963(4) 1.0447(4)
C4A C 0.2952(4) 1.2090(4) 0.9921(4)
H2A H 0.26610 1.23590 0.99040
C5A C 0.3123(4) 1.1816(4) 0.9446(4)
C6A C 0.3531(4) 1.1399(3) 0.9462(4)
H3A H 0.36440 1.12210 0.91270
C7A C 0.4226(4) 1.0767(4) 1.0007(6)
C8A C 0.2893(4) 1.1987(4) 0.8851(4)
C9A C 0.3062(6) 1.2262(6) 1.0976(5)
Zn1B Zn 0.50000 1.00000 1.06360(5)
Zn2B Zn 0.76263(6) 1.29341(5) 1.17948(7)
O1B O 0.5637(3) 1.0559(3) 1.0475(3)
O2B O 0.50000 1.00000 1.1475(4)
O3B O 0.5573(3) 1.0650(3) 0.9523(3)
O4B O 0.7426(3) 1.2415(3) 1.1160(3)
O5B O 0.6979(4) 1.1690(3) 1.1561(3)
O6B O 0.6680(4) 1.2131(4) 0.8567(3)
O7B O 0.7294(5) 1.2665(6) 0.9019(5)
O8B O 0.7480(3) 1.2520(3) 1.2520(3)
C1B C 0.6224(4) 1.1241(4) 1.0024(4)
C2B C 0.6390(4) 1.1541(5) 0.9536(4)
H1B H 0.62250 1.14460 0.91890
C3B C 0.6780(5) 1.1963(4) 0.9553(4)
C4B C 0.7048(4) 1.2090(4) 1.0079(4)
H2B H 0.73390 1.23590 1.00960
C5B C 0.6877(4) 1.1816(4) 1.0554(4)
C6B C 0.6469(4) 1.1399(3) 1.0538(4)
H3B H 0.63560 1.12210 1.08730
C7B C 0.5774(4) 1.0767(4) 0.9993(6)
C8B C 0.7107(4) 1.1987(4) 1.1149(4)
C9B C 0.6938(6) 1.2262(6) 0.9024(5)
Zn2C Zn 0.23737(6) 0.70659(5) 1.17948(7)
O1C O 0.4363(3) 0.9441(3) 1.0475(3)
O3C O 0.4427(3) 0.9350(3) 0.9523(3)
O4C O 0.2574(3) 0.7585(3) 1.1160(3)
O5C O 0.3021(4) 0.8310(3) 1.1561(3)
O6C O 0.3320(4) 0.7869(4) 0.8567(3)
O7C O 0.2706(5) 0.7335(6) 0.9019(5)
C1C C 0.3776(4) 0.8759(4) 1.0024(4)
C2C C 0.3610(4) 0.8459(5) 0.9536(4)
H1C H 0.37750 0.85540 0.91890
C3C C 0.3220(5) 0.8037(4) 0.9553(4)
C4C C 0.2952(4) 0.7910(4) 1.0079(4)
H2C H 0.26610 0.76410 1.00960
C5C C 0.3123(4) 0.8184(4) 1.0554(4)
C6C C 0.3531(4) 0.8601(3) 1.0538(4)
H3C H 0.36440 0.87790 1.08730
C7C C 0.4226(4) 0.9233(4) 0.9993(6)
C8C C 0.2893(4) 0.8013(4) 1.1149(4)
C9C C 0.3062(6) 0.7738(6) 0.9024(5)
Zn1D Zn 0.93640 0.50000 1.00000(5)
Zn2D Zn 0.82052(6) 0.76263(5) 0.70659(7)
O1D O 0.9525(3) 0.5637(3) 0.9441(3)
O2D O 0.85250 0.50000 1.0000(4)
O3D O 1.0477(3) 0.5573(3) 0.9350(3)
O4D O 0.8840(3) 0.7426(3) 0.7585(3)
O5D O 0.8439(4) 0.6979(3) 0.8310(3)
O6D O 1.1433(4) 0.6680(4) 0.7869(3)
O7D O 1.0981(5) 0.7294(6) 0.7335(5)
C1D C 0.9976(4) 0.6224(4) 0.8759(4)
C2D C 1.0464(4) 0.6390(5) 0.8459(4)
H1D H 1.08110 0.62250 0.85540
C3D C 1.0447(5) 0.6780(4) 0.8037(4)
C4D C 0.9921(4) 0.7048(4) 0.7910(4)
H2D H 0.99040 0.73390 0.76410
C5D C 0.9446(4) 0.6877(4) 0.8184(4)
C6D C 0.9462(4) 0.6469(3) 0.8601(4)
H3D H 0.91270 0.63560 0.87790
C7D C 1.0007(4) 0.5774(4) 0.9233(6)
C8D C 0.8851(4) 0.7107(4) 0.8013(4)
C9D C 1.0976(6) 0.6938(6) 0.7738(5)
Zn2G Zn 1.17948(6) 0.76263(5) 1.29341(7)
O1G O 1.0475(3) 0.5637(3) 1.0559(3)
O3G O 0.9523(3) 0.5573(3) 1.0650(3)
O4G O 1.1160(3) 0.7426(3) 1.2415(3)
O5G O 1.1561(4) 0.6979(3) 1.1690(3)
O6G O 0.8567(4) 0.6680(4) 1.2131(3)
O7G O 0.9019(5) 0.7294(6) 1.2665(5)
C1G C 1.0024(4) 0.6224(4) 1.1241(4)
C2G C 0.9536(4) 0.6390(5) 1.1541(4)
H1G H 0.91890 0.62250 1.14460
C3G C 0.9553(5) 0.6780(4) 1.1963(4)
C4G C 1.0079(4) 0.7048(4) 1.2090(4)
H2G H 1.00960 0.73390 1.23590
C5G C 1.0554(4) 0.6877(4) 1.1816(4)
C6G C 1.0538(4) 0.6469(3) 1.1399(4)
H3G H 1.08730 0.63560 1.12210
C7G C 0.9993(4) 0.5774(4) 1.0767(6)
C8G C 1.1149(4) 0.7107(4) 1.1987(4)
C9G C 0.9024(6) 0.6938(6) 1.2262(5)
Zn1E Zn 1.06360 0.50000 1.00000(5)
Zn2C* Zn 1.23737(6) 0.70659(5) 1.17948(7)
Zn2F Zn 0.82052(6) 1.23737(5) 1.29341(7)
Zn2H Zn 0.70659(6) 0.82052(5) 0.76263(7)
Zn2I Zn 0.70659(6) 1.17948(5) 1.23737(7)
Zn2J Zn 0.29341(6) 0.82052(5) 1.23737(7)
Zn2K Zn 0.29341(6) 1.17948(5) 0.76263(7)
Zn2P Zn 0.32052(6) 1.26263(5) 1.20659(7)
Zn2Q Zn 0.67948(6) 0.73737(5) 1.20659(7)
Zn2R Zn 0.32052(6) 0.73737(5) 0.79341(7)
Zn2S Zn 0.67948(6) 1.26263(5) 0.79341(7)
Zn2U Zn 1.20659(6) 0.67948(5) 0.73737(7)
Zn2W Zn 0.79341(6) 0.67948(5) 1.26263(7)
O1F O 0.9525(3) 0.4363(3) 1.0559(3)
O3E O 0.9523(3) 0.4427(3) 0.9350(3)
O5E O 0.1561(4) 1.3021(3) 0.8310(3)
O5F O 0.8439(4) 1.3021(3) 1.1690(3)
O5G* O 0.1561(4) 0.6979(3) 1.1690(3)
O5H O 0.8310(4) 0.8439(3) 0.6979(3)
O5J O 1.1690(4) 0.8439(3) 1.3021(3)
O6M O 0.8320(4) 0.7131(4) 0.6433(3)
O6N O 1.1680(4) 0.7131(4) 1.3567(3)
O6T O 0.2869(4) 0.6433(4) 1.1680(3)
O6U O 0.2869(4) 1.3567(4) 0.8320(3)
O6V O 0.7131(4) 0.6433(4) 0.8320(3)
O6W O 0.7131(4) 1.3567(4) 1.1680(3)
O8A O 0.2520(3) 1.2520(3) 0.7480(3)
O8C O 0.2520(3) 0.7480(3) 1.2520(3)
O8C* O 1.2520(3) 0.7480(3) 1.2520(3)
#END
