
#######################################################################
#
#                 Cambridge Crystallographic Data Centre
#                                CCDC
#
#######################################################################
#
# If this CIF has been generated from an entry in the Cambridge
# Structural Database, then it will include bibliographic, chemical,
# crystal, experimental, refinement or atomic coordinate data resulting
# from the CCDC's data processing and validation procedures.
#
#######################################################################

data_CSD_CIF_RUPYEH
_audit_creation_date 2010-03-19
_audit_creation_method CSD-ConQuest-V1
_database_code_CSD RUPYEH
_database_code_depnum_ccdc_archive 'CCDC 758772'
_chemical_formula_sum 'C26 H36 Co1 N4 O14'
_chemical_formula_moiety
;
(C16 H22 N4 2+)n,n(C10 H10 Co1 O12 2-),2n(H2 O1)
;
_journal_coeditor_code "IUCr HY2258"
_journal_coden_Cambridge 1370
_journal_volume 65
_journal_year 2009
_journal_page_first m1709
_journal_name_full 'Acta Crystallogr.,Sect.E:Struct.Rep.Online '
loop_
_publ_author_name
"L.K.Sposato"
"R.L.LaDuca"
_chemical_name_systematic
;
catena-(1,4-bis(pyridin-4-ylmethyl)piperazinediium 
(\m~2~-benzene-1,2,4,5-tetracarboxylato-1\kO^1^:2\kO^4^)-tetra-aqua-di-cobalta
te dihydrate)
;
_chemical_name_common
;
catena-(1,4-bis(4-pyridylmethyl)piperazinediium 
(mu!2$-pyromellitato)-tetra-aqua-cobalt(ii) dihydrate)
;
_cell_volume    709.438
_exptl_crystal_colour 'pink'
_exptl_crystal_density_diffrn 1.609
_exptl_crystal_description 'block'
_diffrn_ambient_temperature 173
#These two values have been output from a single CSD field.
_refine_ls_R_factor_gt 0.0503
_refine_ls_wR_factor_gt 0.0503
_symmetry_cell_setting triclinic
_symmetry_space_group_name_H-M 'P -1'
_symmetry_Int_Tables_number 2
loop_
_symmetry_equiv_pos_site_id
_symmetry_equiv_pos_as_xyz
1 x,y,z
2 -x,-y,-z
_cell_length_a 7.278(2)
_cell_length_b 9.752(3)
_cell_length_c 11.257(3)
_cell_angle_alpha 66.733(3)
_cell_angle_beta 75.168(3)
_cell_angle_gamma 83.359(3)
_cell_formula_units_Z 1
loop_
_atom_type_symbol
_atom_type_radius_bond
C 0.68
H 0.23
Co 1.26
N 0.68
O 0.68
loop_
_atom_site_label
_atom_site_type_symbol
_atom_site_fract_x
_atom_site_fract_y
_atom_site_fract_z
Co1 Co 1.00000 0.00000 0.50000
O1 O 0.8311(2) 0.19744(19) 0.45730(18)
O2 O 0.4690(3) -0.1576(2) 0.6340(2)
H1 H 0.437(4) -0.070(3) 0.639(3)
H2 H 0.375(4) -0.178(4) 0.607(3)
O3 O 0.9191(3) 0.2866(2) 0.58976(19)
O4 O 0.3143(3) 0.2159(2) 0.82962(18)
O5 O 0.5304(3) 0.1042(2) 0.7189(2)
O6 O 0.8431(3) -0.0690(2) 0.69373(18)
H3 H 0.829(4) -0.163(2) 0.748(3)
H4 H 0.742(3) -0.024(3) 0.718(3)
O7 O 0.8063(3) -0.0969(2) 0.44473(18)
H5 H 0.705(3) -0.132(3) 0.504(3)
H6 H 0.876(4) -0.166(3) 0.425(3)
N1 N 0.7991(3) -0.3648(3) 0.8552(2)
N2 N 0.8089(3) -0.9425(2) 1.0284(2)
H7 H 0.755(4) -1.033(2) 1.080(3)
C1 C 0.7611(4) -0.4408(3) 0.9870(3)
H8 H 0.76350 -0.38910 1.04260
C2 C 0.7185(4) -0.5911(3) 1.0460(3)
H9 H 0.69330 -0.64090 1.13990
C3 C 0.7131(4) -0.6683(3) 0.9661(3)
C4 C 0.7549(4) -0.5898(3) 0.8292(3)
H10 H 0.75440 -0.63840 0.77090
C5 C 0.7970(4) -0.4404(3) 0.7793(3)
H11 H 0.82610 -0.38830 0.68560
C6 C 0.6512(4) -0.8286(3) 1.0280(3)
H12 H 0.58050 -0.84970 1.12100
H13 H 0.56190 -0.84070 0.97980
C7 C 0.9515(4) -0.9366(3) 1.1004(3)
H14 H 0.88640 -0.94310 1.19120
H15 H 1.01920 -0.84070 1.05320
C8 C 0.9075(4) -0.9347(3) 0.8919(3)
H16 H 0.97490 -0.83890 0.84150
H17 H 0.81240 -0.93870 0.84430
C9 C 0.8099(3) 0.2813(3) 0.5227(2)
C10 C 0.6437(3) 0.3901(3) 0.5118(2)
C11 C 0.4741(4) 0.3639(3) 0.6092(2)
C12 C 0.6677(4) 0.5255(3) 0.4034(3)
H18 H 0.78270 0.54290 0.33670
C13 C 0.4396(3) 0.2173(3) 0.7278(3)
Co1* Co 0.00000 1.00000 0.50000
O1A O 0.1689(2) 0.80256(19) 0.54270(18)
O1A* O 1.1689(2) -0.19744(19) 0.54270(18)
O3A O 0.0809(3) 0.7134(2) 0.41024(19)
O4A O 0.6857(3) 0.7841(2) 0.17038(18)
O5A O 0.4696(3) 0.8958(2) 0.2811(2)
O6A O 1.1569(3) 0.0690(2) 0.30627(18)
H3A H 1.171(4) 0.163(2) 0.252(3)
H4A H 1.258(3) 0.024(3) 0.282(3)
O7A O 1.1937(3) 0.0969(2) 0.55527(18)
H5A H 1.295(3) 0.132(3) 0.496(3)
H6A H 1.124(4) 0.166(3) 0.575(3)
N1A N 1.2009(3) -1.6352(3) 1.1448(2)
N2A N 1.1911(3) -1.0575(2) 0.9716(2)
H7A H 1.245(4) -0.967(2) 0.920(3)
C1A C 1.2389(4) -1.5592(3) 1.0130(3)
H8A H 1.23650 -1.61090 0.95740
C2A C 1.2815(4) -1.4089(3) 0.9540(3)
H9A H 1.30670 -1.35910 0.86010
C3A C 1.2869(4) -1.3317(3) 1.0339(3)
C4A C 1.2451(4) -1.4102(3) 1.1708(3)
H10A H 1.24560 -1.36160 1.22910
C5A C 1.2030(4) -1.5596(3) 1.2207(3)
H11A H 1.17390 -1.61170 1.31440
C6A C 1.3488(4) -1.1714(3) 0.9720(3)
H12A H 1.41950 -1.15030 0.87900
H13A H 1.43810 -1.15930 1.02020
C7A C 1.0485(4) -1.0634(3) 0.8996(3)
H14A H 1.11360 -1.05690 0.80880
H15A H 0.98080 -1.15930 0.94680
C8A C 1.0925(4) -1.0653(3) 1.1081(3)
H16A H 1.02510 -1.16110 1.15850
H17A H 1.18760 -1.06130 1.15570
C9A C 0.1901(3) 0.7187(3) 0.4773(2)
C10A C 0.3563(3) 0.6099(3) 0.4882(2)
C11A C 0.5259(4) 0.6361(3) 0.3908(2)
C12A C 0.3323(4) 0.4745(3) 0.5966(3)
H18A H 0.21730 0.45710 0.66330
C13A C 0.5604(3) 0.7827(3) 0.2722(3)
#END
