
#######################################################################
#
#                 Cambridge Crystallographic Data Centre
#                                CCDC
#
#######################################################################
#
# If this CIF has been generated from an entry in the Cambridge
# Structural Database, then it will include bibliographic, chemical,
# crystal, experimental, refinement or atomic coordinate data resulting
# from the CCDC's data processing and validation procedures.
#
#######################################################################

data_CSD_CIF_RUQJOF
_audit_creation_date 2020-05-24
_audit_creation_method CSD-ConQuest-V1
_database_code_CSD RUQJOF
_database_code_depnum_ccdc_archive 'CCDC 1943663'
_chemical_formula_sum 'C6 H6 K1 Mo1 N1 O9'
_chemical_formula_moiety
;
(C6 H4 Mo1 N1 O8 1-)n,K1 1+,H2 O1
;
_journal_coden_Cambridge 580
_journal_volume 183
_journal_year 2020
_journal_page_first 114530
_journal_name_full 'Polyhedron '
loop_
_publ_author_name
"A.Slawinska"
"P.Serda"
"M.Oszajca"
"K.Pamin"
"J.Poltowicz"
"W.Lasocha"
_chemical_name_systematic
;
catena-[Potassium (\m-isonicotinato N-oxide)-molybdenum(vi) hydrate]
;
_cell_volume   1172.646
_exptl_crystal_colour 'yellow'
_exptl_special_details
;
powder data
Heat-sensitive

;
_exptl_crystal_description 'very fine powder'
_diffrn_ambient_temperature 293
#These two values have been output from a single CSD field.
_refine_ls_R_factor_gt 0.0644
_refine_ls_wR_factor_gt 0.0644
_symmetry_cell_setting monoclinic
_symmetry_space_group_name_H-M 'P 21/n'
_symmetry_Int_Tables_number 14
loop_
_symmetry_equiv_pos_site_id
_symmetry_equiv_pos_as_xyz
1 x,y,z
2 1/2-x,1/2+y,1/2-z
3 -x,-y,-z
4 -1/2+x,-1/2-y,-1/2+z
_cell_length_a 9.2477(3)
_cell_length_b 19.5475(5)
_cell_length_c 6.9631(2)
_cell_angle_alpha 90
_cell_angle_beta 111.311(3)
_cell_angle_gamma 90
_cell_formula_units_Z 4
loop_
_atom_type_symbol
_atom_type_radius_bond
C 0.68
H 0.23
K 2.03
Mo 1.54
N 0.68
O 0.68
loop_
_atom_site_label
_atom_site_type_symbol
_atom_site_fract_x
_atom_site_fract_y
_atom_site_fract_z
Mo1 Mo 0.3573(4) 0.07644(17) 0.2396(5)
O1 O 0.4045(11) 0.0503(6) 0.4768(13)
O2 O 0.4829(16) 0.1560(7) 0.2334(19)
O3 O 0.5536(15) 0.1003(7) 0.1883(19)
O4 O 0.3268(16) -0.0014(7) 0.062(2)
O5 O 0.1807(14) 0.0151(7) 0.050(2)
O6 O 0.1784(19) 0.1497(7) 0.179(2)
C1 C 0.0697(12) 0.1467(6) 0.2740(14)
O7 O 0.0353(18) 0.0836(7) 0.347(2)
C2 C -0.0115(11) 0.2110(5) 0.2993(10)
C3 C 0.0484(14) 0.2732(7) 0.2826(19)
C4 C -0.0263(16) 0.3309(6) 0.3054(18)
N1 N -0.1589(12) 0.3259(5) 0.3449(12)
C5 C -0.2160(14) 0.2650(7) 0.3605(19)
C6 C -0.1416(15) 0.2068(6) 0.3387(18)
O8 O -0.2369(16) 0.3862(7) 0.3699(16)
H1 H 0.01505 0.37507 0.29363
H2 H -0.31047 0.26163 0.38743
H3 H 0.14256 0.27643 0.25483
H4 H -0.18325 0.16286 0.35177
K1 K 0.8100(9) 0.0024(5) 0.3475(13)
O9 O 0.916(2) 0.1019(8) 0.736(3)
Mo1C Mo -0.1427(4) 0.42356(17) 0.7396(5)
O8C O 0.2631(16) 0.1138(7) -0.1301(16)
#END
