
#######################################################################
#
#                 Cambridge Crystallographic Data Centre
#                                CCDC
#
#######################################################################
#
# If this CIF has been generated from an entry in the Cambridge
# Structural Database, then it will include bibliographic, chemical,
# crystal, experimental, refinement or atomic coordinate data resulting
# from the CCDC's data processing and validation procedures.
#
#######################################################################

data_CSD_CIF_RUSBEP
_audit_creation_date 2020-05-26
_audit_creation_method CSD-ConQuest-V1
_database_code_CSD RUSBEP
_database_code_depnum_ccdc_archive 'CCDC 1989239'
_chemical_formula_sum 'C42 H30 N8 O12 Zn1'
_chemical_formula_moiety
;
(C16 H6 N2 O12 Zn1 2-)n,2(C13 H12 N3 1+)
;
_journal_coden_Cambridge 580
_journal_volume 185
_journal_year 2020
_journal_page_first 114604
_journal_name_full 'Polyhedron '
loop_
_publ_author_name
"M.A.Akram"
"Junwei Ye"
"Guangyao Wang"
"Lei Shi"
"Zhao Liu"
"Hao Lu"
"Siqi Zhang"
"Guiling Ning"
_chemical_name_systematic
;
catena-[bis(3,6-diaminoacridin-10-ium) 
bis(\m-3-carboxylato-5-nitrobenzoato)-zinc]
;
_cell_volume   3685.033
_exptl_crystal_colour 'red'
_exptl_crystal_density_diffrn 1.63
_exptl_crystal_description 'platelet'
_diffrn_ambient_temperature 293
#These two values have been output from a single CSD field.
_refine_ls_R_factor_gt 0.0412
_refine_ls_wR_factor_gt 0.0412
_symmetry_cell_setting orthorhombic
_symmetry_space_group_name_H-M 'P 21 21 21'
_symmetry_Int_Tables_number 19
loop_
_symmetry_equiv_pos_site_id
_symmetry_equiv_pos_as_xyz
1 x,y,z
2 1/2-x,-y,1/2+z
3 -x,1/2+y,1/2-z
4 1/2+x,1/2-y,-z
_cell_length_a 13.5127(6)
_cell_length_b 15.0918(6)
_cell_length_c 18.0700(7)
_cell_angle_alpha 90
_cell_angle_beta 90
_cell_angle_gamma 90
_cell_formula_units_Z 4
loop_
_atom_type_symbol
_atom_type_radius_bond
C 0.68
H 0.23
N 0.68
O 0.68
Zn 1.22
loop_
_atom_site_label
_atom_site_type_symbol
_atom_site_fract_x
_atom_site_fract_y
_atom_site_fract_z
Zn1 Zn 0.60683(8) -0.08635(5) 0.22237(5)
O1 O 0.5718(5) -0.1974(3) 0.1775(3)
O2 O 0.5610(5) -0.1565(3) 0.0584(3)
O3 O 0.5719(6) -0.3958(5) -0.1268(3)
O4 O 0.5839(8) -0.5331(5) -0.0931(4)
O5 O 0.5441(5) -0.6134(4) 0.1628(4)
O6 O 0.5051(5) -0.5090(3) 0.2453(3)
O7 O 0.7825(5) -0.0916(4) 0.1076(3)
O8 O 0.6803(5) 0.0009(3) 0.1647(3)
O9 O 0.7827(7) 0.3127(4) 0.1185(4)
O10 O 0.7624(6) 0.3523(4) 0.0071(4)
O11 O 0.8192(5) 0.1338(3) -0.1898(3)
O12 O 0.8166(5) -0.0080(4) -0.1573(3)
N1 N 0.5740(7) -0.4554(6) -0.0810(4)
N2 N 0.7719(7) 0.2966(5) 0.0538(5)
C1 C 0.5605(7) -0.3111(5) 0.0885(4)
C2 C 0.5655(7) -0.3378(5) 0.0142(4)
H1 H 0.56870 -0.29590 -0.02350
C3 C 0.5653(7) -0.4276(5) -0.0022(4)
C4 C 0.5599(7) -0.4921(6) 0.0500(4)
H2 H 0.56160 -0.55170 0.03720
C5 C 0.5516(7) -0.4654(5) 0.1241(5)
C6 C 0.5540(6) -0.3766(5) 0.1421(5)
H3 H 0.55120 -0.36020 0.19170
C7 C 0.5643(6) -0.2124(5) 0.1088(5)
C8 C 0.5337(7) -0.5365(6) 0.1809(5)
C9 C 0.7628(7) 0.0552(5) 0.0611(4)
C10 C 0.7577(6) 0.1418(5) 0.0828(4)
H4 H 0.74330 0.15680 0.13150
C11 C 0.7744(7) 0.2055(5) 0.0307(4)
C12 C 0.7909(7) 0.1862(5) -0.0410(4)
H5 H 0.80050 0.23160 -0.07500
C13 C 0.7937(6) 0.0997(5) -0.0637(4)
C14 C 0.7815(6) 0.0346(4) -0.0106(4)
H6 H 0.78620 -0.02460 -0.02440
C15 C 0.7422(7) -0.0177(5) 0.1153(4)
C16 C 0.8107(7) 0.0720(6) -0.1428(5)
N3 N -0.0048(7) 0.3172(5) -0.1528(4)
H7 H -0.00800 0.36110 -0.18310
H8 H -0.00930 0.26380 -0.16900
N4 N 0.0435(5) 0.5187(4) 0.0432(4)
H9 H 0.04290 0.56120 0.01150
N5 N 0.0823(6) 0.7347(5) 0.2373(4)
H10 H 0.07710 0.77780 0.20650
H11 H 0.09020 0.74530 0.28370
C17 C 0.0308(6) 0.4332(5) 0.0184(5)
C18 C 0.0138(7) 0.4170(7) -0.0563(5)
H12 H 0.00720 0.46370 -0.08950
C19 C 0.0071(8) 0.3323(6) -0.0797(5)
C20 C 0.0156(8) 0.2622(6) -0.0292(6)
H13 H 0.01160 0.20420 -0.04630
C21 C 0.0289(7) 0.2765(6) 0.0407(6)
H14 H 0.03340 0.22850 0.07280
C22 C 0.0368(7) 0.3632(5) 0.0692(5)
C23 C 0.0522(7) 0.3827(6) 0.1409(5)
H15 H 0.05710 0.33620 0.17450
C24 C 0.0615(7) 0.4697(6) 0.1677(5)
C25 C 0.0739(7) 0.4945(6) 0.2423(5)
H16 H 0.07780 0.45020 0.27800
C26 C 0.0801(6) 0.5782(7) 0.2637(4)
H17 H 0.08620 0.59060 0.31390
C27 C 0.0780(7) 0.6497(6) 0.2127(5)
C28 C 0.0655(7) 0.6283(6) 0.1395(5)
H18 H 0.06250 0.67290 0.10410
C29 C 0.0572(7) 0.5391(6) 0.1177(5)
N6 N 0.8274(6) 0.8105(5) -0.2147(4)
H19 H 0.82480 0.86630 -0.20540
H20 H 0.83400 0.79240 -0.25960
N7 N 0.8050(6) 0.7406(4) 0.0448(4)
H21 H 0.80170 0.79640 0.05440
N8 N 0.7950(7) 0.6874(5) 0.3056(4)
H22 H 0.79170 0.74340 0.31400
H23 H 0.79470 0.65060 0.34200
C30 C 0.8089(7) 0.7164(5) -0.0287(5)
C31 C 0.8107(7) 0.7783(5) -0.0859(5)
H24 H 0.80480 0.83830 -0.07500
C32 C 0.8213(7) 0.7513(6) -0.1589(5)
C33 C 0.8251(8) 0.6583(5) -0.1752(5)
H25 H 0.82920 0.63940 -0.22410
C34 C 0.8226(7) 0.5981(6) -0.1198(5)
H26 H 0.82600 0.53830 -0.13190
C35 C 0.8151(7) 0.6220(5) -0.0444(5)
C36 C 0.8152(7) 0.5637(5) 0.0151(5)
H27 H 0.81690 0.50330 0.00490
C37 C 0.8129(6) 0.5898(6) 0.0888(5)
C38 C 0.8141(7) 0.5327(5) 0.1499(5)
H28 H 0.81660 0.47180 0.14200
C39 C 0.8116(7) 0.5636(4) 0.2201(5)
H29 H 0.81670 0.52430 0.25950
C40 C 0.8011(7) 0.6566(5) 0.2341(5)
C41 C 0.8017(7) 0.7142(5) 0.1765(5)
H30 H 0.79940 0.77480 0.18580
C42 C 0.8059(7) 0.6841(5) 0.1032(5)
Zn1A Zn 0.89317(8) 0.08635(5) -0.27763(5)
Zn1B Zn 0.39317(8) -0.58635(5) 0.27763(5)
O6B O 0.4949(5) -0.0090(3) 0.2547(3)
O11A O 0.6808(5) -0.1338(3) 0.3102(3)
#END
