
#######################################################################
#
#                 Cambridge Crystallographic Data Centre
#                                CCDC
#
#######################################################################
#
# If this CIF has been generated from an entry in the Cambridge
# Structural Database, then it will include bibliographic, chemical,
# crystal, experimental, refinement or atomic coordinate data resulting
# from the CCDC's data processing and validation procedures.
#
#######################################################################

data_CSD_CIF_RUTBIU
_audit_creation_date 2020-09-14
_audit_creation_method CSD-ConQuest-V1
_database_code_CSD RUTBIU
_database_code_depnum_ccdc_archive 'CCDC 1811861'
_chemical_formula_sum 'C128 H213 Mo24 N9 O90 P2 Zn9'
_chemical_formula_moiety
;
(C48 H29 Mo24 N4 O88 P2 Zn9 5-)n,2(H2 O1),5(C16 H36 N1 1+)
;
_journal_coden_Cambridge 2091
_journal_volume 7
_journal_year 2019
_journal_page_first 53
_journal_name_full 'Journal lookup failed (CCDC Coden 2091).
Please contact <support@ccdc.cam.ac.uk> for details.'
loop_
_publ_author_name
"Qing Huang"
"Jiang Liu"
"Liang Feng"
"Qi Wang"
"Wei Guan"
"Long-Zhang Dong"
"Lei Zhang"
"Li-Kai Yan"
"Ya-Qian Lan"
"Hong-Cai Zhou"
_chemical_name_systematic
;
catena-[pentakis(tetra-n-butylammonium) 
bis(\m-phosphato)-pentakis(\m-hydroxo)-(\m-4,4',4'',4'''-(porphyrinato-5,10,15
,20-tetrayl)tetrabenzoato)-tritetracontakis(\m-oxo)-tetracosaoxo-hexadeca-moly
bdenum(v)-octa-molybdenum(vi)-nona-zinc(ii) dihydrate unknown solvate]
;
_chemical_name_common
;
NNU-14
;
_cell_volume   9157.477
_exptl_crystal_colour 'dull dark violet'
_exptl_special_details
;
The H atoms on hydroxy groups have not been located and have been placed 
arbitrarily in the 2D diagram
;
_exptl_crystal_description 'block'
_diffrn_ambient_temperature 296.1
_refine_special_details
;
Disordered tetra-n-butylammonium caeton and solvent molecules were not 
modelled and the disordered density was taken into account using the 
SQUEEZE/PLATON procedure.
;
#These two values have been output from a single CSD field.
_refine_ls_R_factor_gt 0.0574
_refine_ls_wR_factor_gt 0.0574
_symmetry_cell_setting monoclinic
_symmetry_space_group_name_H-M 'C 2/m'
_symmetry_Int_Tables_number 12
loop_
_symmetry_equiv_pos_site_id
_symmetry_equiv_pos_as_xyz
1 x,y,z
2 -x,y,-z
3 1/2+x,1/2+y,z
4 1/2-x,1/2+y,-z
5 -x,-y,-z
6 x,-y,z
7 -1/2-x,-1/2-y,-z
8 -1/2+x,-1/2-y,z
_cell_length_a 17.394(5)
_cell_length_b 23.588(6)
_cell_length_c 23.111(6)
_cell_angle_alpha 90
_cell_angle_beta 105.038(3)
_cell_angle_gamma 90
_cell_formula_units_Z 2
loop_
_atom_type_symbol
_atom_type_radius_bond
C 0.68
H 0.23
Mo 1.54
N 0.68
O 0.68
P 1.05
Zn 1.22
loop_
_atom_site_label
_atom_site_type_symbol
_atom_site_fract_x
_atom_site_fract_y
_atom_site_fract_z
Mo1 Mo 0.23134(6) 0.50000 0.70986(5)
Mo2 Mo 0.41384(6) 0.50000 0.70973(5)
Mo3 Mo 0.10629(4) 0.42608(3) 0.59533(3)
Mo4 Mo 0.15297(4) 0.36979(3) 0.51234(3)
Mo5 Mo 0.21511(4) 0.43184(3) 0.39851(3)
Mo6 Mo 0.45891(4) 0.57412(3) 0.59501(3)
Mo7 Mo 0.35554(4) 0.63011(3) 0.51220(3)
Zn1 Zn 0.30504(6) 0.37492(4) 0.66003(5)
Zn2 Zn 0.40051(8) 0.50000 0.44922(6)
Zn3 Zn 0.06468(8) 0.50000 0.44964(6)
Zn4 Zn 0.50000 0.00000 1.00000
P1 P 0.26774(16) 0.50000 0.55360(12)
O1 O 0.3704(10) 0.3139(5) 0.7125(6)
O2 O 0.2567(10) 0.3143(6) 0.7212(7)
O3 O 0.2411(6) 0.50000 0.7836(4)
O4 O 0.4557(6) 0.50000 0.7840(4)
O5 O 0.4649(3) 0.5582(3) 0.6815(3)
O6 O 0.3198(4) 0.4492(2) 0.7012(3)
O7 O 0.1619(4) 0.4420(3) 0.6818(3)
O8 O 0.1997(3) 0.3773(2) 0.5989(3)
O9 O 0.0352(4) 0.3816(3) 0.6046(3)
O10 O 0.2534(3) 0.3291(2) 0.5102(3)
O11 O 0.0898(4) 0.3147(3) 0.5038(3)
O12 O 0.5363(4) 0.6190(3) 0.6043(3)
O13 O 0.3563(5) 0.50000 0.5936(4)
O14 O 0.2079(5) 0.50000 0.5937(4)
O15 O 0.2546(3) 0.4457(2) 0.5136(3)
O16 O 0.0860(3) 0.4379(2) 0.5082(3)
O17 O 0.3029(3) 0.3888(2) 0.4261(3)
O18 O 0.1454(3) 0.3889(2) 0.4258(3)
O19 O 0.3688(4) 0.6221(2) 0.5984(3)
O20 O 0.4186(3) 0.5620(2) 0.5080(3)
O21 O 0.4814(4) 0.50000 0.4044(4)
O22 O 0.2873(5) 0.50000 0.4055(4)
O23 O 0.1466(5) 0.50000 0.4043(4)
O24 O -0.0480(5) 0.50000 0.4043(4)
O25 O 0.1890(4) 0.4205(3) 0.3239(3)
O26 O 0.4123(4) 0.6853(3) 0.5045(3)
N1 N 0.50000 0.0860(6) 1.00000
N2 N 0.4323(11) 0.00000 0.9124(6)
C1 C 0.4777(12) 0.1788(6) 0.9719(7)
H1 H 0.45903 0.21054 0.94870
C2 C 0.4639(11) 0.1211(5) 0.9537(7)
C3 C 0.4177(11) 0.1038(6) 0.8963(6)
C4 C 0.4019(10) 0.0470(5) 0.8782(5)
C5 C 0.3639(8) 0.0288(5) 0.8188(5)
H2 H 0.34296 0.05213 0.78608
C6 C 0.3441(8) 0.2415(4) 0.7740(6)
C7 C 0.2882(6) 0.2163(5) 0.7993(6)
H3 H 0.23677 0.23071 0.79119
C8 C 0.3093(7) 0.1695(5) 0.8367(6)
H4 H 0.27194 0.15270 0.85360
C9 C 0.3862(8) 0.1480(4) 0.8488(5)
C10 C 0.4420(6) 0.1732(5) 0.8235(6)
H5 H 0.49349 0.15874 0.83161
C11 C 0.4210(7) 0.2199(5) 0.7861(6)
H6 H 0.45833 0.23675 0.76920
C12 C 0.3212(16) 0.2906(8) 0.7322(10)
O27 O 0.3474(7) 0.00000 1.0024(4)
H7 H 0.32878 0.00000 1.03297
H8 H 0.30652 0.00000 0.97275
O15E O 0.2546(3) 0.5543(2) 0.5136(3)
O1A O 0.6296(10) 0.3139(5) 1.2875(6)
O2A O 0.7433(10) 0.3143(6) 1.2788(7)
N2A N 0.5677(11) 0.00000 1.0876(6)
C1A C 0.5223(12) 0.1788(6) 1.0281(7)
H1A H 0.54097 0.21054 1.05130
C2A C 0.5361(11) 0.1211(5) 1.0463(7)
C3A C 0.5823(11) 0.1038(6) 1.1037(6)
C4A C 0.5981(10) 0.0470(5) 1.1218(5)
C5A C 0.6361(8) 0.0288(5) 1.1812(5)
H2A H 0.65704 0.05213 1.21392
C6A C 0.6559(8) 0.2415(4) 1.2260(6)
C7A C 0.7118(6) 0.2163(5) 1.2007(6)
H3A H 0.76323 0.23071 1.20881
C8A C 0.6907(7) 0.1695(5) 1.1633(6)
H4A H 0.72806 0.15270 1.14640
C9A C 0.6138(8) 0.1480(4) 1.1512(5)
C10A C 0.5580(6) 0.1732(5) 1.1765(6)
H5A H 0.50651 0.15874 1.16839
C11A C 0.5790(7) 0.2199(5) 1.2139(6)
H6A H 0.54167 0.23675 1.23080
C12A C 0.6788(16) 0.2906(8) 1.2678(10)
O1E O 0.3704(10) -0.3139(5) 0.7125(6)
O2E O 0.2567(10) -0.3143(6) 0.7212(7)
N1D N 0.50000 -0.0860(6) 1.00000
C1E C 0.4777(12) -0.1788(6) 0.9719(7)
H1E H 0.45903 -0.21054 0.94870
C2E C 0.4639(11) -0.1211(5) 0.9537(7)
C3E C 0.4177(11) -0.1038(6) 0.8963(6)
C4E C 0.4019(10) -0.0470(5) 0.8782(5)
C5E C 0.3639(8) -0.0288(5) 0.8188(5)
H2E H 0.34296 -0.05213 0.78608
C6E C 0.3441(8) -0.2415(4) 0.7740(6)
C7E C 0.2882(6) -0.2163(5) 0.7993(6)
H3E H 0.23677 -0.23071 0.79119
C8E C 0.3093(7) -0.1695(5) 0.8367(6)
H4E H 0.27194 -0.15270 0.85360
C9E C 0.3862(8) -0.1480(4) 0.8488(5)
C10E C 0.4420(6) -0.1732(5) 0.8235(6)
H5E H 0.49349 -0.15874 0.83161
C11E C 0.4210(7) -0.2199(5) 0.7861(6)
H6E H 0.45833 -0.23675 0.76920
C12E C 0.3212(16) -0.2906(8) 0.7322(10)
O1D O 0.6296(10) -0.3139(5) 1.2875(6)
O2D O 0.7433(10) -0.3143(6) 1.2788(7)
C1D C 0.5223(12) -0.1788(6) 1.0281(7)
H1D H 0.54097 -0.21054 1.05130
C2D C 0.5361(11) -0.1211(5) 1.0463(7)
C3D C 0.5823(11) -0.1038(6) 1.1037(6)
C4D C 0.5981(10) -0.0470(5) 1.1218(5)
C5D C 0.6361(8) -0.0288(5) 1.1812(5)
H2D H 0.65704 -0.05213 1.21392
C6D C 0.6559(8) -0.2415(4) 1.2260(6)
C7D C 0.7118(6) -0.2163(5) 1.2007(6)
H3D H 0.76323 -0.23071 1.20881
C8D C 0.6907(7) -0.1695(5) 1.1633(6)
H4D H 0.72806 -0.15270 1.14640
C9D C 0.6138(8) -0.1480(4) 1.1512(5)
C10D C 0.5580(6) -0.1732(5) 1.1765(6)
H5D H 0.50651 -0.15874 1.16839
C11D C 0.5790(7) -0.2199(5) 1.2139(6)
H6D H 0.54167 -0.23675 1.23080
C12D C 0.6788(16) -0.2906(8) 1.2678(10)
Mo1A Mo -0.23134(6) 0.50000 0.29014(5)
Mo2A Mo -0.41384(6) 0.50000 0.29027(5)
Mo3A Mo -0.10629(4) 0.42608(3) 0.40467(3)
Mo4A Mo -0.15297(4) 0.36979(3) 0.48766(3)
Mo5A Mo -0.21511(4) 0.43184(3) 0.60149(3)
Mo6A Mo -0.45891(4) 0.57412(3) 0.40499(3)
Mo7A Mo -0.35554(4) 0.63011(3) 0.48780(3)
Zn1A Zn -0.30504(6) 0.37492(4) 0.33997(5)
Zn2A Zn -0.40051(8) 0.50000 0.55078(6)
Zn3A Zn -0.06468(8) 0.50000 0.55036(6)
P1A P -0.26774(16) 0.50000 0.44640(12)
O3A O -0.2411(6) 0.50000 0.2164(4)
O4A O -0.4557(6) 0.50000 0.2160(4)
O5A O -0.4649(3) 0.5582(3) 0.3185(3)
O6A O -0.3198(4) 0.4492(2) 0.2988(3)
O7A O -0.1619(4) 0.4420(3) 0.3182(3)
O8A O -0.1997(3) 0.3773(2) 0.4011(3)
O9A O -0.0352(4) 0.3816(3) 0.3954(3)
O10A O -0.2534(3) 0.3291(2) 0.4898(3)
O11A O -0.0898(4) 0.3147(3) 0.4962(3)
O12A O -0.5363(4) 0.6190(3) 0.3957(3)
O13A O -0.3563(5) 0.50000 0.4064(4)
O14A O -0.2079(5) 0.50000 0.4063(4)
O15A O -0.2546(3) 0.4457(2) 0.4864(3)
O16A O -0.0860(3) 0.4379(2) 0.4918(3)
O17A O -0.3029(3) 0.3888(2) 0.5739(3)
O18A O -0.1454(3) 0.3889(2) 0.5742(3)
O19A O -0.3688(4) 0.6221(2) 0.4016(3)
O20A O -0.4186(3) 0.5620(2) 0.4920(3)
O21A O -0.4814(4) 0.50000 0.5956(4)
O22A O -0.2873(5) 0.50000 0.5945(4)
O23A O -0.1466(5) 0.50000 0.5957(4)
O24A O 0.0480(5) 0.50000 0.5957(4)
O25A O -0.1890(4) 0.4205(3) 0.6761(3)
O26A O -0.4123(4) 0.6853(3) 0.4955(3)
O15D O -0.2546(3) 0.5543(2) 0.4864(3)
Mo3E Mo 0.10629(4) -0.42608(3) 0.59533(3)
Mo4E Mo 0.15297(4) -0.36979(3) 0.51234(3)
Mo5E Mo 0.21511(4) -0.43184(3) 0.39851(3)
Zn1E Zn 0.30504(6) -0.37492(4) 0.66003(5)
O6E O 0.3198(4) -0.4492(2) 0.7012(3)
O7E O 0.1619(4) -0.4420(3) 0.6818(3)
O8E O 0.1997(3) -0.3773(2) 0.5989(3)
O9E O 0.0352(4) -0.3816(3) 0.6046(3)
O10E O 0.2534(3) -0.3291(2) 0.5102(3)
O11E O 0.0898(4) -0.3147(3) 0.5038(3)
O16E O 0.0860(3) -0.4379(2) 0.5082(3)
O17E O 0.3029(3) -0.3888(2) 0.4261(3)
O18E O 0.1454(3) -0.3889(2) 0.4258(3)
O25E O 0.1890(4) -0.4205(3) 0.3239(3)
Mo3E* Mo 0.10629(4) 0.57392(3) 0.59533(3)
Mo4E* Mo 0.15297(4) 0.63021(3) 0.51234(3)
Mo5E* Mo 0.21511(4) 0.56816(3) 0.39851(3)
Zn1E* Zn 0.30504(6) 0.62508(4) 0.66003(5)
O6E* O 0.3198(4) 0.5508(2) 0.7012(3)
O7E* O 0.1619(4) 0.5580(3) 0.6818(3)
O8E* O 0.1997(3) 0.6227(2) 0.5989(3)
O9E* O 0.0352(4) 0.6184(3) 0.6046(3)
O10E* O 0.2534(3) 0.6709(2) 0.5102(3)
O11E* O 0.0898(4) 0.6853(3) 0.5038(3)
O16E* O 0.0860(3) 0.5621(2) 0.5082(3)
O17E* O 0.3029(3) 0.6112(2) 0.4261(3)
O18E* O 0.1454(3) 0.6111(2) 0.4258(3)
O25E* O 0.1890(4) 0.5795(3) 0.3239(3)
Mo6E Mo 0.45891(4) 0.42588(3) 0.59501(3)
Mo7E Mo 0.35554(4) 0.36989(3) 0.51220(3)
O5E O 0.4649(3) 0.4418(3) 0.6815(3)
O12E O 0.5363(4) 0.3810(3) 0.6043(3)
O19E O 0.3688(4) 0.3779(2) 0.5984(3)
O20E O 0.4186(3) 0.4380(2) 0.5080(3)
O26E O 0.4123(4) 0.3147(3) 0.5045(3)
Mo6D Mo 0.54109(4) 0.42588(3) 0.40499(3)
Mo7D Mo 0.64446(4) 0.36989(3) 0.48780(3)
O5D O 0.5351(3) 0.4418(3) 0.3185(3)
O12D O 0.4637(4) 0.3810(3) 0.3957(3)
O19D O 0.6312(4) 0.3779(2) 0.4016(3)
O20D O 0.5814(3) 0.4380(2) 0.4920(3)
O26D O 0.5877(4) 0.3147(3) 0.4955(3)
Mo1* Mo 0.23134(6) -0.50000 0.70986(5)
Mo2* Mo 0.41384(6) -0.50000 0.70973(5)
Mo2A* Mo 0.58616(6) 0.50000 0.29027(5)
Mo3D Mo -0.10629(4) 0.57392(3) 0.40467(3)
Mo4D Mo -0.15297(4) 0.63021(3) 0.48766(3)
Mo5D Mo -0.21511(4) 0.56816(3) 0.60149(3)
Mo6* Mo -0.54109(4) 0.57412(3) 0.59501(3)
Mo6A* Mo 0.54109(4) 0.57412(3) 0.40499(3)
Mo6D* Mo -0.45891(4) 0.42588(3) 0.40499(3)
Mo6E* Mo -0.54109(4) 0.42588(3) 0.59501(3)
Mo7* Mo 0.35554(4) -0.36989(3) 0.51220(3)
Mo7D* Mo -0.35554(4) 0.36989(3) 0.48780(3)
Zn1A* Zn 0.69496(6) 0.37492(4) 0.33997(5)
Zn1A** Zn 0.69496(6) 0.37492(4) 1.33997(5)
Zn1D Zn -0.30504(6) 0.62508(4) 0.33997(5)
Zn1D* Zn 0.69496(6) -0.37492(4) 1.33997(5)
Zn2A* Zn 0.59949(8) 0.50000 0.55078(6)
Zn3* Zn 0.06468(8) -0.50000 0.44964(6)
O1A* O -0.3704(10) 0.3139(5) 0.2875(6)
O1E* O 0.3704(10) 0.6861(5) 0.7125(6)
O2A* O -0.2567(10) 0.3143(6) 0.2788(7)
O2E* O 0.2567(10) 0.6857(6) 0.7212(7)
O5D* O -0.4649(3) 0.4418(3) 0.3185(3)
O6D O -0.3198(4) 0.5508(2) 0.2988(3)
O7D O -0.1619(4) 0.5580(3) 0.3182(3)
O10A* O 0.7466(3) 0.3291(2) 0.4898(3)
O10D O -0.2534(3) 0.6709(2) 0.4898(3)
O13A* O 0.6437(5) 0.50000 0.4064(4)
O14* O 0.2079(5) -0.50000 0.5937(4)
O15A* O 0.7454(3) 0.4457(2) 0.4864(3)
O15E* O 0.2546(3) -0.4457(2) 0.5136(3)
O16D O -0.0860(3) 0.5621(2) 0.4918(3)
O17A* O 0.6971(3) 0.3888(2) 0.5739(3)
O17D O -0.3029(3) 0.6112(2) 0.5739(3)
O19* O 0.3688(4) -0.3779(2) 0.5984(3)
O19D* O -0.3688(4) 0.3779(2) 0.4016(3)
O20D* O -0.4186(3) 0.4380(2) 0.4920(3)
O21* O -0.5186(4) 0.50000 0.4044(4)
O21A* O 0.5186(4) 0.50000 0.5956(4)
O22* O 0.2873(5) -0.50000 0.4055(4)
O23* O 0.1466(5) -0.50000 0.4043(4)
O24A* O 0.0480(5) -0.50000 0.5957(4)
#END
