
#######################################################################
#
#                 Cambridge Crystallographic Data Centre
#                                CCDC
#
#######################################################################
#
# If this CIF has been generated from an entry in the Cambridge
# Structural Database, then it will include bibliographic, chemical,
# crystal, experimental, refinement or atomic coordinate data resulting
# from the CCDC's data processing and validation procedures.
#
#######################################################################

data_CSD_CIF_RUVCAP
_audit_creation_date 2020-09-15
_audit_creation_method CSD-ConQuest-V1
_database_code_CSD RUVCAP
_database_code_depnum_ccdc_archive 'CCDC 1977239'
_chemical_formula_sum 'C6 H12 N1 O8 Y1'
_chemical_formula_moiety
;
C2 H8 N1 1+,n(C4 H4 O8 Y1 1-)
;
_journal_coden_Cambridge 979
_journal_year 2020
_journal_name_full 'J.Rare Earths '
loop_
_publ_author_name
"Min Liu"
"Zhifeng Li"
"Jianhui Xiong"
"Yefei Jiang"
"Ting Tang"
"Jinkai Qiu"
"Junwei Yao"
"Seik Weng Ng"
"Chenghui Zeng"
_chemical_name_systematic
;
catena-[dimethylammonium tetrakis(\m-formato)-yttrium(iii)]
;
_cell_volume   1056.109
_exptl_crystal_colour 'colorless'
_exptl_crystal_density_diffrn 1.982
_exptl_crystal_description 'prism'
_diffrn_ambient_temperature 293
#These two values have been output from a single CSD field.
_refine_ls_R_factor_gt 0.0375
_refine_ls_wR_factor_gt 0.0375
_symmetry_cell_setting orthorhombic
_symmetry_space_group_name_H-M 'P n a 21'
_symmetry_Int_Tables_number 33
loop_
_symmetry_equiv_pos_site_id
_symmetry_equiv_pos_as_xyz
1 x,y,z
2 -x,-y,1/2+z
3 1/2+x,1/2-y,z
4 1/2-x,1/2+y,1/2+z
_cell_length_a 8.7083(3)
_cell_length_b 18.1028(7)
_cell_length_c 6.6993(3)
_cell_angle_alpha 90
_cell_angle_beta 90
_cell_angle_gamma 90
_cell_formula_units_Z 4
loop_
_atom_type_symbol
_atom_type_radius_bond
C 0.68
H 0.23
N 0.68
O 0.68
Y 1.90
loop_
_atom_site_label
_atom_site_type_symbol
_atom_site_fract_x
_atom_site_fract_y
_atom_site_fract_z
Y1 Y 0.24435(4) 0.60562(2) 0.5000(3)
O1 O 0.1546(4) 0.5024(2) 0.6879(7)
O2 O -0.0064(4) 0.4294(2) 0.8554(6)
O3 O 0.2218(5) 0.6540(4) 0.8310(9)
O4 O 0.2522(4) 0.6517(4) 1.160(1)
O5 O 0.4407(4) 0.69158(19) 0.4921(9)
O6 O 0.6029(4) 0.78443(18) 0.5019(8)
O7 O 0.3544(4) 0.5106(2) 0.3188(7)
O8 O 0.5300(4) 0.4373(2) 0.1866(6)
C1 C 0.0271(7) 0.4793(3) 0.7401(10)
H1 H -0.05615 0.50356 0.68297
C2 C 0.2381(5) 0.6216(3) 0.998(2)
H2 H 0.23945 0.57025 0.99598
C3 C 0.4855(6) 0.7532(3) 0.4380(9)
H3 H 0.42725 0.77801 0.34289
C4 C 0.4877(8) 0.4961(4) 0.2591(11)
H4 H 0.56087 0.53328 0.27085
N1 N 0.3270(6) 0.3215(3) 0.3216(8)
H5 H 0.33130 0.27681 0.26657
H6 H 0.39005 0.35086 0.25341
C5 C 0.3801(10) 0.3167(4) 0.5257(13)
H7 H 0.48309 0.29788 0.52774
H8 H 0.37822 0.36497 0.58528
H9 H 0.31415 0.28421 0.59963
C6 C 0.1717(10) 0.3496(5) 0.3035(19)
H10 H 0.14328 0.35144 0.16518
H11 H 0.10249 0.31758 0.37393
H12 H 0.16656 0.39833 0.35957
Y1* Y 0.24435(4) 0.60562(2) 1.5000(3)
Y1A Y -0.24435(4) 0.39438(2) 1.0000(3)
Y1A* Y 0.75565(4) 0.39438(2) 0.0000(3)
Y1B Y 0.74435(4) 0.89438(2) 0.5000(3)
O2A O 0.0064(4) 0.5706(2) 0.3554(6)
O4* O 0.2522(4) 0.6517(4) 0.160(1)
O6B O 0.1029(4) 0.71557(18) 0.5019(8)
O8A O 0.4700(4) 0.5627(2) 0.6866(6)
#END
