
#######################################################################
#
#                 Cambridge Crystallographic Data Centre
#                                CCDC
#
#######################################################################
#
# If this CIF has been generated from an entry in the Cambridge
# Structural Database, then it will include bibliographic, chemical,
# crystal, experimental, refinement or atomic coordinate data resulting
# from the CCDC's data processing and validation procedures.
#
#######################################################################

data_CSD_CIF_RUVMOL
_audit_creation_date 2011-02-02
_audit_creation_method CSD-ConQuest-V1
_database_code_CSD RUVMOL
_database_code_depnum_ccdc_archive 'CCDC 768961'
_chemical_formula_sum 'C129 H113.4 Co1 N30 O53.7 Zn8'
_chemical_formula_moiety
;
(C45 H46 Co1 N18 O5 Zn2 6+)n,n(C84 H42 N12 O36 Zn6 6-),12.7n(H2 O1)
;
_journal_coden_Cambridge 1147
_journal_volume 10
_journal_year 2010
_journal_page_first 3515
_journal_name_full 'Cryst.Growth Des. '
loop_
_publ_author_name
"Zhi Su"
"Jian Fan"
"T.Okamura"
"Wei-Yin Sun"
"N.Ueyama"
_chemical_name_systematic
;
catena-[tris(\m~3~-1,3,5-tris(1H-Imidazol-1-yl)benzene-N^3^,N^3'^,N^3''^)-pent
a-aqua-cobalt(ii)-di-zinc(ii) 
hexakis(benzene-1,2,4-tricarboxylato)-bis(1,3,5-tris(1H-imidazol-1-yl)benzene-
N^3^,N^3'^,N^3''^)-hexa-zinc(ii) hydrate]
;
_cell_volume   6906.156
_exptl_crystal_colour 'purple'
_exptl_crystal_density_diffrn 1.695
_exptl_crystal_description 'column'
_diffrn_ambient_temperature 200
#These two values have been output from a single CSD field.
_refine_ls_R_factor_gt 0.0827
_refine_ls_wR_factor_gt 0.0827
_symmetry_cell_setting hexagonal
_symmetry_space_group_name_H-M 'P 63'
_symmetry_Int_Tables_number 173
loop_
_symmetry_equiv_pos_site_id
_symmetry_equiv_pos_as_xyz
1 x,y,z
2 x-y,x,1/2+z
3 -y,x-y,z
4 -x,-y,1/2+z
5 -x+y,-x,z
6 y,-x+y,1/2+z
_cell_length_a 19.910(3)
_cell_length_b 19.910(3)
_cell_length_c 20.117(3)
_cell_angle_alpha 90
_cell_angle_beta 90
_cell_angle_gamma 120
_cell_formula_units_Z 2
loop_
_atom_type_symbol
_atom_type_radius_bond
C 0.68
H 0.23
Co 1.26
N 0.68
O 0.68
Zn 1.22
loop_
_atom_site_label
_atom_site_type_symbol
_atom_site_fract_x
_atom_site_fract_y
_atom_site_fract_z
Zn1 Zn 0.66670 0.33330 0.27594(12)
Zn2 Zn 1.00000 1.00000 0.38593(11)
Zn3 Zn 0.05876(6) 0.29351(6) 0.51888(6)
Zn4 Zn 0.27477(5) 0.37214(6) 0.63917(6)
Co1 Co 0.33330 0.66670 0.24723(14)
O1 O 0.2990(4) 0.4104(4) 0.5483(4)
O2 O 0.3173(5) 0.4212(5) 0.4401(4)
O3 O 0.1518(4) 0.2898(4) 0.4921(4)
O4 O 0.0958(4) 0.1624(4) 0.4952(5)
O5 O 0.2521(4) 0.0354(4) 0.4773(3)
O6 O 0.3773(5) 0.1021(4) 0.5044(6)
O7 O 0.0335(4) 0.2535(4) 0.6091(4)
O8 O 0.0120(4) 0.2456(4) 0.7170(3)
O9 O 0.1815(4) 0.3765(3) 0.6680(4)
O10 O 0.2376(4) 0.5034(4) 0.6692(5)
O11 O 0.0819(4) 0.6307(4) 0.6808(4)
O12 O -0.0422(4) 0.5657(4) 0.6507(5)
O13 O 0.2387(5) 0.6469(5) 0.1808(5)
O14 O 0.66670 0.33330 0.1793(10)
O15 O 1.00000 1.00000 0.4812(8)
O16 O 0.4061(6) 0.4526(7) 0.3310(6)
O17 O 0.6950(8) 0.4807(8) 0.543(1)
O18 O 0.5407(8) 0.3630(8) 0.5875(8)
O19 O 0.2065(5) 0.2858(6) 0.3310(5)
O20 O 0.66670 0.33330 0.483(3)
N1 N 0.5446(4) 0.6987(4) 0.3248(5)
N2 N 0.4339(5) 0.6919(5) 0.2970(5)
N3 N 0.6278(4) 0.5092(4) 0.3342(5)
N4 N 0.6320(4) 0.4032(4) 0.3123(5)
N5 N 0.8186(4) 0.7841(4) 0.3291(4)
N6 N 0.9235(4) 0.8943(4) 0.3519(4)
N7 N 0.1876(4) 0.5302(4) 0.5037(4)
N8 N 0.0997(4) 0.4061(4) 0.5062(4)
N9 N 0.1458(4) 0.1342(4) 0.6546(4)
N10 N 0.2331(4) 0.2584(4) 0.6513(4)
C1 C 0.6051(5) 0.6812(5) 0.3277(5)
C2 C 0.5866(5) 0.6035(5) 0.3289(6)
H1 H 0.53430 0.56250 0.32800
C3 C 0.6478(5) 0.5883(5) 0.3313(5)
C4 C 0.7231(5) 0.6449(5) 0.3308(6)
H2 H 0.76350 0.63260 0.33170
C5 C 0.7400(5) 0.7229(5) 0.3288(5)
C6 C 0.6820(5) 0.7412(5) 0.3265(6)
H3 H 0.69410 0.79370 0.32400
C7 C 0.4774(6) 0.6593(6) 0.2893(6)
H4 H 0.46370 0.61480 0.26280
C8 C 0.4755(6) 0.7547(6) 0.3378(6)
H5 H 0.45810 0.78880 0.35230
C9 C 0.5454(6) 0.7617(6) 0.3546(5)
H6 H 0.58550 0.80090 0.38080
C10 C 0.6648(6) 0.4790(5) 0.2996(5)
H7 H 0.70760 0.50740 0.27070
C11 C 0.5718(8) 0.3839(7) 0.3537(8)
H8 H 0.53740 0.33330 0.37000
C12 C 0.5685(8) 0.4507(7) 0.3688(8)
H9 H 0.53250 0.45460 0.39730
C13 C 0.8475(5) 0.8525(5) 0.3592(5)
H10 H 0.81730 0.86920 0.38300
C14 C 0.9442(5) 0.8476(5) 0.3148(5)
H11 H 0.99530 0.86170 0.30120
C15 C 0.8804(5) 0.7804(6) 0.3018(5)
H12 H 0.87780 0.73780 0.27820
C16 C 0.2619(5) 0.6005(5) 0.5046(5)
C17 C 0.3296(5) 0.5944(5) 0.5052(5)
H13 H 0.32660 0.54530 0.50580
C18 C 0.0721(4) 0.0664(4) 0.6539(5)
C19 C 0.0672(5) -0.0051(5) 0.6538(5)
H14 H 0.11300 -0.00880 0.65360
C20 C 0.1748(5) 0.4587(5) 0.5111(5)
H15 H 0.21440 0.44630 0.51890
C21 C 0.0642(6) 0.4498(6) 0.4960(6)
H16 H 0.00990 0.42890 0.49170
C22 C 0.1155(5) 0.5236(5) 0.4931(6)
H17 H 0.10540 0.56480 0.48520
C23 C 0.1599(4) 0.2084(5) 0.6476(5)
H18 H 0.12070 0.22160 0.64090
C24 C 0.2713(5) 0.2172(5) 0.6612(5)
H19 H 0.32590 0.23910 0.66500
C25 C 0.2178(5) 0.1400(5) 0.6647(6)
H20 H 0.22780 0.09870 0.67240
C26 C 0.3017(5) 0.3068(6) 0.4903(5)
C27 C 0.2329(5) 0.2351(5) 0.4891(5)
C28 C 0.2397(6) 0.1688(6) 0.4865(6)
H21 H 0.19340 0.11980 0.48530
C29 C 0.3103(5) 0.1703(5) 0.4857(5)
C30 C 0.3775(6) 0.2436(6) 0.4852(6)
H22 H 0.42680 0.24690 0.48410
C31 C 0.3736(6) 0.3112(5) 0.4864(5)
H23 H 0.41970 0.36020 0.48450
C32 C 0.3046(5) 0.3839(5) 0.4930(6)
C33 C 0.1551(5) 0.2275(6) 0.4926(5)
C34 C 0.3166(6) 0.0992(5) 0.4879(5)
C35 C 0.0314(6) 0.3605(5) 0.6659(5)
C36 C 0.1007(5) 0.4314(5) 0.6698(5)
C37 C 0.0951(5) 0.4990(5) 0.6728(5)
H24 H 0.14090 0.54780 0.67840
C38 C 0.0234(5) 0.4961(5) 0.6678(5)
C39 C -0.0436(6) 0.4231(6) 0.6629(6)
H25 H -0.09290 0.41970 0.66030
C40 C -0.0396(6) 0.3575(6) 0.6617(6)
H26 H -0.08590 0.30870 0.65800
C41 C 0.0276(5) 0.2822(5) 0.6636(5)
C42 C 0.1799(6) 0.4380(6) 0.6695(5)
C43 C 0.0177(5) 0.5687(5) 0.6654(5)
Zn2* Zn 0.00000 0.00000 0.38593(11)
Zn2** Zn 1.00000 0.00000 0.38593(11)
Zn3B Zn -0.29351(6) -0.23475(6) 0.51888(6)
Zn3D Zn 0.23475(6) -0.05876(6) 0.51888(6)
Zn3B* Zn 0.70649(6) 0.76525(6) 0.51888(6)
Zn3D* Zn 0.23475(6) 0.94124(6) 0.51888(6)
Zn4B Zn -0.37214(5) -0.09737(6) 0.63917(6)
Zn4D Zn 0.09737(5) 0.72523(6) 0.63917(6)
Zn4D* Zn 0.09737(5) -0.27477(6) 0.63917(6)
Zn4B* Zn 0.62786(5) 0.90263(6) 0.63917(6)
Zn4* Zn -0.72523(5) -0.62786(6) 0.63917(6)
Co1B Co 0.33330 -0.33340 0.24723(14)
Co1D Co 1.33340 0.66670 0.24723(14)
O1B O -0.4104(4) -0.1114(4) 0.5483(4)
O1D O 0.1114(4) -0.2990(4) 0.5483(4)
O1D* O 0.1114(4) 0.7010(4) 0.5483(4)
O2B O -0.4212(5) -0.1039(5) 0.4401(4)
O2D O 0.1039(5) -0.3173(5) 0.4401(4)
O3B O -0.2898(4) -0.1380(4) 0.4921(4)
O3D O 0.1380(4) -0.1518(4) 0.4921(4)
O4B O -0.1624(4) -0.0666(4) 0.4952(5)
O4D O 0.0666(4) -0.0958(4) 0.4952(5)
O5B O -0.0354(4) 0.2167(4) 0.4773(3)
O5D O -0.2167(4) -0.2521(4) 0.4773(3)
O6B O -0.1021(5) 0.2752(4) 0.5044(6)
O6D O -0.2752(5) -0.3773(4) 0.5044(6)
O7B O 0.7465(4) 0.7800(4) 0.6091(4)
O7B* O -0.2535(4) -0.2200(4) 0.6091(4)
O7D O 0.2200(4) -0.0335(4) 0.6091(4)
O8B O 0.7544(4) 0.7664(4) 0.7170(3)
O8B* O -0.2456(4) -0.2336(4) 0.7170(3)
O9B O 0.6235(4) 0.8050(3) 0.6680(4)
O9B* O -0.3765(4) -0.1950(3) 0.6680(4)
O9D O 0.1950(4) 0.8185(3) 0.6680(4)
O10B O 0.4966(4) 0.7342(4) 0.6692(5)
O10B* O -0.5034(4) -0.2658(4) 0.6692(5)
O11B O 0.3693(4) 0.4512(4) 0.6808(4)
O11B* O -0.6307(4) -0.5488(4) 0.6808(4)
O11D O -0.4512(4) -0.0819(4) 0.6808(4)
O12B O 0.4343(4) 0.3921(4) 0.6507(5)
O12B* O -0.5657(4) -0.6079(4) 0.6507(5)
O13B O 0.3531(5) 0.5918(5) 0.1808(5)
O13D O 0.4082(5) 0.7613(5) 0.1808(5)
N1B N 0.3013(4) -0.1541(4) 0.3248(5)
N1D N 1.1541(4) 0.4554(4) 0.3248(5)
N2B N 0.3081(5) -0.2580(5) 0.2970(5)
N2D N 1.2580(5) 0.5661(5) 0.2970(5)
N2B* N 0.3081(5) 0.7420(5) 0.2970(5)
N2D* N 0.2580(5) 0.5661(5) 0.2970(5)
N3B N 0.4908(4) 0.1186(4) 0.3342(5)
N3D N 0.8814(4) 0.3722(4) 0.3342(5)
N4B N 0.5968(4) 0.2288(4) 0.3123(5)
N4D N 0.7712(4) 0.3680(4) 0.3123(5)
N5B N 0.2159(4) 0.0345(4) 0.3291(4)
N5D N 0.9655(4) 0.1814(4) 0.3291(4)
N6B N 0.1057(4) 0.0292(4) 0.3519(4)
N6D N 0.9708(4) 0.0765(4) 0.3519(4)
N6B* N 1.1057(4) 1.0292(4) 0.3519(4)
N6D* N 0.9708(4) 1.0765(4) 0.3519(4)
N7B N 0.4698(4) 0.6574(4) 0.5037(4)
N7D N 0.3426(4) 0.8124(4) 0.5037(4)
N8B N 0.5939(4) 0.6936(4) 0.5062(4)
N8D N 0.3064(4) 0.9003(4) 0.5062(4)
N8B* N -0.4061(4) -0.3064(4) 0.5062(4)
N8D* N 0.3064(4) -0.0997(4) 0.5062(4)
N9D N -0.0116(4) -0.1458(4) 0.6546(4)
N9B N -0.1342(4) 0.0116(4) 0.6546(4)
N10D N 0.0253(4) -0.2331(4) 0.6513(4)
N10B N -0.2584(4) -0.0253(4) 0.6513(4)
N10D* N 0.0253(4) 0.7669(4) 0.6513(4)
C1B C 0.3188(5) -0.0761(5) 0.3277(5)
C1D C 1.0761(5) 0.3949(5) 0.3277(5)
C2B C 0.3965(5) -0.0169(5) 0.3289(6)
C2D C 1.0169(5) 0.4134(5) 0.3289(6)
H1B H 0.43750 -0.02820 0.32800
H1D H 1.02820 0.46570 0.32800
C3B C 0.4117(5) 0.0595(5) 0.3313(5)
C3D C 0.9405(5) 0.3522(5) 0.3313(5)
C4B C 0.3551(5) 0.0782(5) 0.3308(6)
C4D C 0.9218(5) 0.2769(5) 0.3308(6)
H2B H 0.36740 0.13090 0.33170
H2D H 0.86910 0.23650 0.33170
C5B C 0.2771(5) 0.0171(5) 0.3288(5)
C5D C 0.9829(5) 0.2600(5) 0.3288(5)
C6B C 0.2588(5) -0.0592(5) 0.3265(6)
C6D C 1.0592(5) 0.3180(5) 0.3265(6)
H3B H 0.20630 -0.09960 0.32400
H3D H 1.09960 0.30590 0.32400
C7B C 0.3407(6) -0.1819(6) 0.2893(6)
C7D C 1.1819(6) 0.5226(6) 0.2893(6)
H4B H 0.38520 -0.15110 0.26280
H4D H 1.15110 0.53630 0.26280
C8B C 0.2453(6) -0.2792(6) 0.3378(6)
C8D C 1.2792(6) 0.5245(6) 0.3378(6)
H5B H 0.21120 -0.33070 0.35230
H5D H 1.33070 0.54190 0.35230
C9B C 0.2383(6) -0.2163(6) 0.3546(5)
C9D C 1.2163(6) 0.4546(6) 0.3546(5)
H6B H 0.19910 -0.21540 0.38080
H6D H 1.21540 0.41450 0.38080
C10B C 0.5210(6) 0.1858(5) 0.2996(5)
C10D C 0.8142(6) 0.3352(5) 0.2996(5)
H7B H 0.49260 0.20020 0.27070
H7D H 0.79980 0.29240 0.27070
C11B C 0.6161(8) 0.1879(7) 0.3537(8)
C11D C 0.8121(8) 0.4282(7) 0.3537(8)
H8B H 0.66670 0.20410 0.37000
H8D H 0.79590 0.46260 0.37000
C12B C 0.5493(8) 0.1178(7) 0.3688(8)
C12D C 0.8822(8) 0.4315(7) 0.3688(8)
H9B H 0.54540 0.07790 0.39730
H9D H 0.92210 0.46750 0.39730
C13B C 0.1475(5) -0.0050(5) 0.3592(5)
C13D C 1.0050(5) 0.1525(5) 0.3592(5)
H10B H 0.13080 -0.05190 0.38300
H10D H 1.05190 0.18270 0.38300
C14B C 0.1524(5) 0.0966(5) 0.3148(5)
C14D C 0.9034(5) 0.0558(5) 0.3148(5)
H11B H 0.13830 0.13360 0.30120
H11D H 0.86640 0.00470 0.30120
C15B C 0.2196(5) 0.1000(6) 0.3018(5)
C15D C 0.9000(5) 0.1196(6) 0.3018(5)
H12B H 0.26220 0.14000 0.27820
H12D H 0.86000 0.12220 0.27820
C16B C 0.3995(5) 0.6614(5) 0.5046(5)
C16D C 0.3386(5) 0.7381(5) 0.5046(5)
C17B C 0.4056(5) 0.7352(5) 0.5052(5)
C17D C 0.2648(5) 0.6704(5) 0.5052(5)
H13D H 0.21870 0.67340 0.50580
H13B H 0.45470 0.78130 0.50580
C18D C -0.0057(4) -0.0721(4) 0.6539(5)
C18B C -0.0664(4) 0.0057(4) 0.6539(5)
C19D C -0.0723(5) -0.0672(5) 0.6538(5)
C19B C 0.0051(5) 0.0723(5) 0.6538(5)
H14B H 0.00880 0.12180 0.65360
H14D H -0.12180 -0.11300 0.65360
C20B C 0.5413(5) 0.7161(5) 0.5111(5)
C20D C 0.2839(5) 0.8252(5) 0.5111(5)
H15B H 0.55370 0.76810 0.51890
H15D H 0.23190 0.78560 0.51890
C21B C 0.5502(6) 0.6144(6) 0.4960(6)
C21D C 0.3856(6) 0.9358(6) 0.4960(6)
H16B H 0.57110 0.58100 0.49170
H16D H 0.41900 0.99010 0.49170
C22B C 0.4764(5) 0.5919(5) 0.4931(6)
C22D C 0.4081(5) 0.8845(5) 0.4931(6)
H17B H 0.43520 0.54060 0.48520
H17D H 0.45940 0.89460 0.48520
C23D C 0.0485(4) -0.1599(5) 0.6476(5)
C23B C -0.2084(4) -0.0485(5) 0.6476(5)
H18D H 0.10090 -0.12070 0.64090
H18B H -0.22160 -0.10090 0.64090
C24D C -0.0541(5) -0.2713(5) 0.6612(5)
C24B C -0.2172(5) 0.0541(5) 0.6612(5)
H19D H -0.08680 -0.32590 0.66500
H19B H -0.23910 0.08680 0.66500
C25D C -0.0778(5) -0.2178(5) 0.6647(6)
C25B C -0.1400(5) 0.0778(5) 0.6647(6)
H20D H -0.12910 -0.22780 0.67240
H20B H -0.09870 0.12910 0.67240
C26B C -0.3068(5) -0.0051(6) 0.4903(5)
C26D C 0.0051(5) -0.3017(6) 0.4903(5)
C27B C -0.2351(5) -0.0022(5) 0.4891(5)
C27D C 0.0022(5) -0.2329(5) 0.4891(5)
C28B C -0.1688(6) 0.0709(6) 0.4865(6)
C28D C -0.0709(6) -0.2397(6) 0.4865(6)
H21B H -0.11980 0.07360 0.48530
H21D H -0.07360 -0.19340 0.48530
C29B C -0.1703(5) 0.1400(5) 0.4857(5)
C29D C -0.1400(5) -0.3103(5) 0.4857(5)
C30B C -0.2436(6) 0.1339(6) 0.4852(6)
C30D C -0.1339(6) -0.3775(6) 0.4852(6)
H22B H -0.24690 0.17990 0.48410
H22D H -0.17990 -0.42680 0.48410
C31B C -0.3112(6) 0.0624(5) 0.4864(5)
C31D C -0.0624(6) -0.3736(5) 0.4864(5)
H23B H -0.36020 0.05950 0.48450
H23D H -0.05950 -0.41970 0.48450
C32B C -0.3839(5) -0.0793(5) 0.4930(6)
C32D C 0.0793(5) -0.3046(5) 0.4930(6)
C33B C -0.2275(5) -0.0724(6) 0.4926(5)
C33D C 0.0724(5) -0.1551(6) 0.4926(5)
C34B C -0.0992(6) 0.2174(5) 0.4879(5)
C34D C -0.2174(6) -0.3166(5) 0.4879(5)
C35B C 0.6395(6) 0.6709(5) 0.6659(5)
C35B* C -0.3605(6) -0.3291(5) 0.6659(5)
C36B C 0.5686(5) 0.6693(5) 0.6698(5)
C36B* C -0.4314(5) -0.3307(5) 0.6698(5)
C37B C 0.5010(5) 0.5961(5) 0.6728(5)
C37B* C -0.4990(5) -0.4039(5) 0.6728(5)
H24B H 0.45220 0.59310 0.67840
H24B* H -0.54780 -0.40690 0.67840
C38B C 0.5039(5) 0.5273(5) 0.6678(5)
C38B* C -0.4961(5) -0.4727(5) 0.6678(5)
C39B C 0.5769(6) 0.5333(6) 0.6629(6)
C39B* C -0.4231(6) -0.4667(6) 0.6629(6)
H25B H 0.58030 0.48740 0.66030
H25B* H -0.41970 -0.51260 0.66030
C40B C 0.6425(6) 0.6029(6) 0.6617(6)
C40B* C -0.3575(6) -0.3971(6) 0.6617(6)
H26B H 0.69130 0.60540 0.65800
H26B* H -0.30870 -0.39460 0.65800
C41B C 0.7178(5) 0.7454(5) 0.6636(5)
C41B* C -0.2822(5) -0.2546(5) 0.6636(5)
C42B C 0.5620(6) 0.7419(6) 0.6695(5)
C42B* C -0.4380(6) -0.2581(6) 0.6695(5)
C43B C 0.4313(5) 0.4490(5) 0.6654(5)
C43B* C -0.5687(5) -0.5510(5) 0.6654(5)
#END
