
#######################################################################
#
#                 Cambridge Crystallographic Data Centre
#                                CCDC
#
#######################################################################
#
# If this CIF has been generated from an entry in the Cambridge
# Structural Database, then it will include bibliographic, chemical,
# crystal, experimental, refinement or atomic coordinate data resulting
# from the CCDC's data processing and validation procedures.
#
#######################################################################

data_CSD_CIF_RUVXOW
_audit_creation_date 2011-02-02
_audit_creation_method CSD-ConQuest-V1
_database_code_CSD RUVXOW
_database_code_depnum_ccdc_archive 'CCDC 751148'
_chemical_formula_sum 'C39 H62 N13 Na3 O122.5 P2 W24'
_chemical_formula_moiety
;
(C6 H6 N2 O4 2+)2.5n,n(C24 H16 N8 Na3 O97 P2 W24 5-),15.5n(H2 O1)
;
_journal_coden_Cambridge 1295
_journal_volume 13
_journal_year 2010
_journal_page_first 302
_journal_name_full 'Inorg.Chem.Commun. '
loop_
_publ_author_name
"Haiyan An"
"Tieqi Xu"
"Hui Zheng"
"Zhengbo Han"
_chemical_name_systematic
;
catena-[bis(2,3-Dicarboxypyrazinediium) 
bis(\m~12~-phosphato)-(\m~2~-2-carboxypyrazin-1-ium-3-carboxylato-N,O,O,O')-(\
m~2~-2-carboxypyrazin-1-ium-3-carboxylato-N,O,O)-dopentacontakis(\m~2~-oxo)-(\
m~2~-pyrazine-2,3-dicarboxylato-N,N',O,O')-aqua-(2-carboxypyrazin-1-ium-3-carb
oxylato-N,O)-icosa-oxo-tri-sodium(i)-tetracosa-tungsten(vi) hydrate]
;
_cell_volume  13054.659
_exptl_crystal_colour 'purple'
_exptl_crystal_density_diffrn 3.672
_exptl_crystal_description 'block'
_diffrn_ambient_temperature 293
_refine_special_details
;
The asymmetric unit contains 15.5 solvent water molecules. This has been 
modelled over 28 full and partial occupancy positions, some in close 
proximity to neighbouring solvent or exhibiting symmetry-related disorder.
;
#These two values have been output from a single CSD field.
_refine_ls_R_factor_gt 0.0559
_refine_ls_wR_factor_gt 0.0559
_symmetry_cell_setting monoclinic
_symmetry_space_group_name_H-M 'P 21/c'
_symmetry_Int_Tables_number 14
loop_
_symmetry_equiv_pos_site_id
_symmetry_equiv_pos_as_xyz
1 x,y,z
2 -x,1/2+y,1/2-z
3 -x,-y,-z
4 x,-1/2-y,-1/2+z
_cell_length_a 22.781(4)
_cell_length_b 22.022(3)
_cell_length_c 26.474(4)
_cell_angle_alpha 90
_cell_angle_beta 100.606(7)
_cell_angle_gamma 90
_cell_formula_units_Z 4
loop_
_atom_type_symbol
_atom_type_radius_bond
C 0.71
H 0.23
N 0.68
Na 1.62
O 0.68
P 1.05
W 1.39
loop_
_atom_site_label
_atom_site_type_symbol
_atom_site_fract_x
_atom_site_fract_y
_atom_site_fract_z
P1 P -0.5793(2) -0.22912(19) 0.09346(18)
P2 P -0.1448(2) -0.27917(19) -0.20765(18)
W1 W -0.29813(4) -0.27334(3) -0.19574(3)
W2 W -0.53109(4) -0.30757(4) -0.00902(3)
W3 W -0.62233(4) -0.31174(4) 0.19565(3)
W4 W -0.57946(4) -0.06776(3) 0.09574(3)
W5 W -0.24343(4) -0.18900(3) -0.29811(3)
W6 W -0.57667(4) -0.39014(3) 0.09879(3)
W7 W -0.47392(4) -0.14366(3) 0.18129(3)
W8 W -0.25042(4) -0.35627(3) -0.30236(3)
W9 W -0.42632(4) -0.23100(4) 0.07695(3)
W10 W -0.19448(4) -0.20183(4) -0.10531(3)
W11 W -0.52956(4) -0.15280(4) -0.00900(3)
W12 W -0.10210(4) -0.36164(4) -0.31041(3)
W13 W -0.15288(4) -0.43946(3) -0.21554(3)
W14 W -0.62049(4) -0.14406(4) 0.19558(3)
W15 W -0.47463(4) -0.31102(4) 0.18511(3)
W16 W -0.73345(4) -0.22717(4) 0.10226(3)
W17 W -0.68982(4) -0.15322(4) 0.00205(3)
W18 W -0.04058(4) -0.36228(4) -0.11745(3)
W19 W -0.20093(4) -0.35653(4) -0.10845(3)
W20 W -0.13962(4) -0.11721(3) -0.20780(3)
W21 W -0.68963(4) -0.30805(4) 0.00540(3)
W22 W 0.01021(4) -0.28455(4) -0.21244(3)
W23 W -0.09466(4) -0.19390(4) -0.30599(3)
W24 W -0.03412(4) -0.20727(4) -0.11392(3)
O1 O -0.5696(6) -0.1723(5) 0.1257(5)
O2 O -0.6439(6) -0.2284(5) 0.0639(4)
O3 O -0.5353(6) -0.2294(5) 0.0551(4)
O4 O -0.5687(6) -0.2859(5) 0.1281(5)
O5 O -0.7298(8) -0.3589(6) -0.0370(6)
O6 O -0.6511(7) -0.1165(6) 0.2434(6)
O7 O -0.7435(6) -0.2888(6) 0.0499(5)
O8 O -0.5378(7) -0.3608(5) 0.0475(5)
O9 O -0.5836(7) 0.0075(6) 0.0817(5)
O10 O -0.7336(7) -0.1079(6) -0.0413(6)
O11 O -0.8014(7) -0.2266(6) 0.1206(6)
O12 O -0.6138(6) -0.1580(5) -0.0212(5)
O13 O -0.7441(6) -0.1701(6) 0.0487(5)
O14 O -0.5302(7) -0.2297(6) -0.0424(5)
O15 O -0.6202(6) -0.0741(5) 0.1543(5)
O16 O -0.6889(6) -0.1690(5) 0.1467(5)
O17 O -0.4140(6) -0.1152(6) 0.2226(5)
O18 O -0.4740(5) -0.2271(5) 0.2001(5)
O19 O -0.4148(7) -0.3387(6) 0.2270(5)
O20 O -0.5373(6) -0.1322(5) 0.2200(5)
O21 O -0.3509(6) -0.2309(5) 0.0829(6)
O22 O -0.5811(7) -0.4656(5) 0.0878(5)
O23 O -0.5039(7) -0.3837(5) 0.1481(5)
O24 O -0.6110(6) -0.2272(5) 0.2125(5)
O25 O -0.6895(7) -0.2858(6) 0.1472(5)
O26 O -0.5181(7) -0.1066(6) -0.0569(5)
O27 O -0.7091(7) -0.2318(6) -0.0276(5)
O28 O -0.4403(7) -0.2875(5) 0.1267(5)
O29 O -0.5383(6) -0.3239(5) 0.2226(5)
O30 O -0.6468(6) -0.3610(5) 0.0574(5)
O31 O -0.6486(7) -0.0996(5) 0.0531(5)
O32 O -0.5051(6) -0.0733(5) 0.1433(5)
O33 O -0.6550(7) -0.3386(6) 0.2446(6)
O34 O -0.6143(6) -0.3040(5) -0.0190(5)
O35 O -0.5377(7) -0.0978(6) 0.0441(5)
O36 O -0.4490(6) -0.1704(5) 0.0231(5)
O37 O -0.6180(7) -0.3838(5) 0.1560(5)
O38 O -0.4502(7) -0.2904(5) 0.0242(5)
O39 O -0.5204(7) -0.3582(6) -0.0554(5)
O40 O -0.4414(7) -0.1707(5) 0.1257(5)
O41 O -0.0814(6) -0.2809(5) -0.1763(4)
O42 O -0.1514(5) -0.2209(5) -0.2407(4)
O43 O -0.1882(6) -0.2779(5) -0.1710(5)
O44 O -0.1580(6) -0.3344(5) -0.2435(5)
O45 O -0.1974(6) -0.2802(5) -0.0742(5)
O46 O -0.0625(7) -0.1663(6) -0.3533(5)
O47 O -0.0018(7) -0.4128(6) -0.0747(6)
O48 O 0.0166(7) -0.3460(6) -0.1602(5)
O49 O -0.2793(6) -0.3345(5) -0.1440(5)
O50 O -0.3000(7) -0.1563(6) -0.3400(5)
O51 O -0.1763(6) -0.1794(5) -0.3326(5)
O52 O -0.2065(7) -0.1521(6) -0.0584(5)
O53 O -0.0725(6) -0.1511(6) -0.1646(5)
O54 O -0.1106(6) -0.4333(5) -0.2724(5)
O55 O -0.2164(7) -0.4060(6) -0.0630(5)
O56 O 0.0215(6) -0.2255(5) -0.1576(5)
O57 O -0.1126(6) -0.2101(5) -0.0932(5)
O58 O -0.1158(6) -0.3558(6) -0.0970(5)
O59 O -0.0969(6) -0.1247(6) -0.2636(5)
O60 O -0.1348(6) -0.0423(6) -0.1933(5)
O61 O -0.2466(6) -0.2713(5) -0.3179(5)
O62 O -0.0354(7) -0.3389(6) -0.2596(5)
O63 O -0.1852(6) -0.1461(5) -0.1585(5)
O64 O -0.2241(6) -0.4299(5) -0.2655(5)
O65 O -0.2753(7) -0.2149(6) -0.1413(5)
O66 O -0.1848(7) -0.3688(6) -0.3378(5)
O67 O -0.3092(6) -0.3799(6) -0.3461(5)
O68 O 0.0802(8) -0.2865(6) -0.2274(6)
O69 O -0.0182(7) -0.2862(6) -0.0839(6)
O70 O -0.1945(6) -0.4094(5) -0.1642(5)
O71 O -0.0831(7) -0.4125(5) -0.1701(5)
O72 O -0.1085(7) -0.2765(5) -0.3252(5)
O73 O -0.0303(7) -0.2224(5) -0.2561(5)
O74 O 0.0090(6) -0.1617(6) -0.0696(5)
O75 O -0.2845(6) -0.3307(5) -0.2456(5)
O76 O -0.2117(6) -0.1190(5) -0.2574(5)
O77 O -0.3736(7) -0.2700(5) -0.2032(5)
O78 O -0.0700(7) -0.3884(6) -0.3588(6)
O79 O -0.1524(7) -0.5150(6) -0.2057(5)
O80 O -0.2801(6) -0.2127(6) -0.2434(5)
O81 O -0.3226(9) -0.3264(7) -0.0261(6)
O82 O -0.3757(9) -0.4009(8) -0.0654(8)
O83 O -0.3196(8) -0.2193(6) -0.0273(6)
O84 O -0.3662(7) -0.1415(7) -0.0694(6)
O85 O -0.470(1) 0.0516(8) -0.3408(8)
O86 O -0.430(1) -0.0001(8) -0.2736(8)
O87 O -0.5381(8) -0.0828(7) -0.1758(6)
O88 O -0.4576(8) -0.0530(6) -0.2041(6)
O89 O -0.1939(8) 0.1043(7) -0.1849(8)
O90 O -0.2271(9) 0.0659(7) -0.2614(8)
O91 O -0.1880(9) 0.0722(7) -0.0993(8)
O92 O -0.2229(12) 0.0063(9) -0.0525(8)
O93 O -0.1614(8) -0.0134(7) 0.0931(7)
O94 O -0.2012(8) -0.0809(7) 0.0400(6)
O95 O -0.1864(8) 0.0518(7) 0.1591(7)
O96 O -0.2636(8) 0.0787(7) 0.1925(7)
O97 O -0.9631(11) 0.1607(10) 0.4713(7)
O98 O -0.8927(10) 0.0944(9) 0.4645(8)
O99 O -0.9774(11) 0.2681(10) 0.4695(9)
O100 O -0.9235(11) 0.3518(11) 0.4715(8)
O101 O -0.1714(17) 0.1004(14) 0.6283(14)
O102 O -0.1416(16) 0.0867(14) 0.5627(13)
O103 O -1.0569(12) 0.4244(11) 0.3040(11)
O104 O -1.0853(12) 0.4414(10) 0.2145(10)
O105 O -1.0584(13) 0.4961(11) 0.1518(10)
O106 O -0.9761(12) 0.5521(10) 0.1397(9)
Na1 Na -0.4512(4) -0.1010(3) -0.1162(3)
Na2 Na -0.2788(5) -0.0837(4) -0.0354(3)
Na3 Na -0.6379(4) -0.3995(4) 0.3186(3)
C1 C -0.4027(10) -0.3034(9) -0.0960(7)
C2 C -0.4034(10) -0.2386(9) -0.0941(8)
C3 C -0.4843(12) -0.2400(9) -0.1586(9)
H1 H -0.51470 -0.21900 -0.17970
C4 C -0.4831(12) -0.3015(10) -0.1634(10)
H2 H -0.50950 -0.32140 -0.18910
C5 C -0.3624(11) -0.3486(10) -0.0602(9)
C6 C -0.3598(10) -0.1981(9) -0.0616(8)
C7 C -0.5342(11) 0.0143(9) -0.2896(8)
C8 C -0.5541(10) -0.0202(8) -0.2502(7)
C9 C -0.6536(12) 0.0067(9) -0.2795(9)
H3 H -0.69350 0.00500 -0.27600
C10 C -0.6356(13) 0.0419(9) -0.3192(8)
H4 H -0.66370 0.06260 -0.34290
C11 C -0.4737(14) 0.0249(12) -0.3039(11)
C12 C -0.5157(12) -0.0557(10) -0.2078(10)
C13 C -0.2567(9) 0.0139(8) -0.1936(8)
C14 C -0.2562(10) -0.0058(10) -0.1426(9)
C15 C -0.3191(11) -0.0835(10) -0.1693(9)
H5 H -0.34020 -0.11750 -0.16190
C16 C -0.3198(10) -0.0676(9) -0.2198(9)
H6 H -0.34170 -0.09070 -0.24610
C17 C -0.2245(13) 0.0658(12) -0.2157(13)
C18 C -0.2229(14) 0.0278(12) -0.0939(12)
C19 C -0.2661(11) -0.0258(8) 0.0803(8)
C20 C -0.2828(11) 0.0127(8) 0.1190(9)
C21 C -0.3819(12) -0.006(1) 0.089(1)
H7 H -0.42160 -0.00230 0.09240
C22 C -0.3681(12) -0.0397(9) 0.0500(9)
H8 H -0.39890 -0.05640 0.02610
C23 C -0.2061(11) -0.0417(10) 0.0724(9)
C24 C -0.2412(11) 0.0509(10) 0.1605(10)
C25 C -0.8770(12) 0.2597(13) 0.4587(8)
C26 C -0.8669(11) 0.1977(10) 0.4574(8)
C27 C -0.7730(12) 0.2177(11) 0.4404(9)
H9 H -0.73690 0.20240 0.43420
C28 C -0.7816(14) 0.2800(11) 0.440(1)
H10 H -0.75310 0.30760 0.43330
C29 C -0.9081(17) 0.1486(15) 0.4655(11)
C30 C -0.9332(18) 0.2987(17) 0.4686(14)
C31 C -0.1522(19) 0.1907(16) 0.5871(15)
C32 C -0.1730(18) 0.2726(16) 0.6328(14)
H11 H -0.18540 0.29140 0.66060
C33 C -0.153(3) 0.120(2) 0.598(2)
C34 C -1.0139(15) 0.5081(14) 0.2620(14)
C35 C -0.9960(15) 0.5360(13) 0.2233(12)
C36 C -0.9364(15) 0.6031(13) 0.2859(13)
H12 H -0.91040 0.63580 0.29280
C37 C -0.9569(16) 0.5744(15) 0.3234(14)
H13 H -0.94610 0.58770 0.35720
C38 C -1.0585(16) 0.4478(15) 0.2630(15)
C39 C -1.0091(19) 0.5290(16) 0.1634(14)
N1 N -0.4426(9) -0.3325(8) -0.1299(7)
H14 H -0.44260 -0.37160 -0.13060
N2 N -0.446(1) -0.2088(8) -0.1265(7)
N3 N -0.6119(8) -0.0236(7) -0.2473(7)
N4 N -0.578(1) 0.0445(8) -0.3216(8)
H15 H -0.56770 0.06690 -0.34500
N5 N -0.2898(8) -0.0195(7) -0.2312(7)
H16 H -0.29140 -0.00960 -0.26280
N6 N -0.2892(9) -0.0513(7) -0.1316(8)
N7 N -0.311(1) -0.0499(7) 0.0448(7)
N8 N -0.3411(10) 0.0213(8) 0.1215(7)
N9 N -0.8326(12) 0.2964(9) 0.4499(7)
H17 H -0.83900 0.33480 0.45110
N10 N -0.8144(10) 0.1793(9) 0.4492(7)
H18 H -0.80690 0.14100 0.44960
N11 N -0.1715(14) 0.2170(14) 0.6280(12)
H19 H -0.18290 0.19420 0.65080
N12 N -0.9951(14) 0.5240(11) 0.3120(11)
H20 H -1.00630 0.50350 0.33620
N13 N -0.9550(12) 0.5825(11) 0.2371(11)
H21 H -0.94030 0.59970 0.21300
O107 O -0.6349(12) -0.3052(11) 0.3647(9)
O108 O -0.7789(11) -0.2195(9) 0.2481(9)
O109 O -0.7909(11) 0.0576(9) 0.4620(8)
O110? O -1.0256(19) 0.5160(15) 0.0493(14)
O111 O -1.0673(17) 0.5003(13) 0.0589(12)
O112 O -0.8874(8) 0.6125(6) 0.1733(6)
O113 O -0.8388(7) -0.1417(6) 0.2822(6)
O114 O -0.8196(19) 0.6589(16) 0.2407(15)
O115 O -0.6973(18) 0.0185(16) 0.5065(14)
O116 O -0.9269(18) 0.0404(15) -0.0578(13)
O117 O -0.798(2) 0.0313(17) 0.3714(16)
O118 O -0.9368(16) 0.6945(14) 0.1334(12)
O119 O -0.5399(10) 0.4355(8) 0.0928(8)
O120 O -0.470(3) 0.497(3) 0.038(2)
O121 O -0.9096(17) 0.0528(14) 0.0540(13)
O122 O -0.6897(18) 0.0135(16) 0.3367(15)
O123 O -1.030(2) 0.032(2) -0.1073(18)
O124 O -0.957(2) 0.5315(18) 0.0302(16)
O125 O -0.263(2) 0.451(2) -0.0975(18)
O126 O -1.0815(19) 0.3188(16) 0.3517(15)
O127 O -0.6952(17) -0.1947(14) 0.3390(13)
O128 O -0.608(3) 0.073(2) 0.392(2)
O129 O -0.615(3) -0.029(3) 0.459(2)
O130 O -0.874(2) -0.0933(19) -0.0027(16)
O131 O -0.070(3) 0.336(3) 0.475(2)
O132 O -0.838(2) 0.595(2) 0.1074(18)
O133 O -0.6366(17) -0.0939(14) 0.3700(13)
C40 C -0.1364(17) 0.2268(16) 0.5507(14)
C41 C -0.153(2) 0.3076(19) 0.5902(16)
C42 C -0.110(2) 0.191(2) 0.4993(17)
H22 H -0.12060 0.29630 0.53040
H23 H -0.15400 0.34980 0.58970
N14 N -0.1348(14) 0.2765(13) 0.5535(12)
O134 O -0.1167(15) 0.1451(14) 0.4966(11)
O135 O -0.105(2) 0.2346(19) 0.4780(17)
O136? O -0.668(2) -0.0322(18) 0.3141(16)
O137? O -0.792(3) 0.651(2) 0.229(2)
O9B O -0.4164(7) -0.0075(6) -0.0817(5)
O87C O -0.5381(8) -0.4172(7) 0.3242(6)
O96A O -0.7364(8) -0.4213(7) 0.3075(7)
Na1B Na -0.5488(4) 0.1010(3) 0.1162(3)
Na3C Na -0.6379(4) -0.1005(4) -0.1814(3)
Na3A Na -0.3621(4) 0.1005(4) 0.1814(3)
N3C N -0.6119(8) -0.4764(7) 0.2527(7)
N8A N -0.6589(10) -0.4787(8) 0.3785(7)
#END
