
#######################################################################
#
#                 Cambridge Crystallographic Data Centre
#                                CCDC
#
#######################################################################
#
# If this CIF has been generated from an entry in the Cambridge
# Structural Database, then it will include bibliographic, chemical,
# crystal, experimental, refinement or atomic coordinate data resulting
# from the CCDC's data processing and validation procedures.
#
#######################################################################

data_CSD_CIF_RUVYUF
_audit_creation_date 2020-09-15
_audit_creation_method CSD-ConQuest-V1
_database_code_CSD RUVYUF
_database_code_depnum_ccdc_archive 'CCDC 1988343'
_chemical_formula_sum 'C90 H90 Ag8 Co2 I12 N18 O6'
_chemical_formula_moiety
;
2(C36 H24 Co1 N6 2+),n(Ag8 I12 4-),6(C3 H7 N1 O1)
;
_journal_coden_Cambridge 9
_journal_volume 59
_journal_year 2020
_journal_page_first 13962
_journal_name_full 'Inorg.Chem. '
loop_
_publ_author_name
"Chunying Tang"
"Jie Yao"
"Yueying Li"
"Zhuoran Xia"
"Jianbiao Liu"
"Chun-yang Zhang"
_chemical_name_systematic
;
catena-[bis(tris(1,10-phenanthroline)-cobalt(ii)) 
dodecakis(\m-iodo)-octa-silver(i) N,N-dimethylformamide unknown solvate]
;
_cell_volume  11787.079
_exptl_crystal_colour 'light orange'
_exptl_crystal_density_diffrn 2.267
_exptl_crystal_description 'block'
_diffrn_ambient_temperature 233.2
_refine_special_details
;
The SQUEEZE/PLATON program has been used to model some disorder. The unit 
cell was found to contain a total void space of 865 A$3! holding 199 
electrons.
;
#These two values have been output from a single CSD field.
_refine_ls_R_factor_gt 0.0478
_refine_ls_wR_factor_gt 0.0478
_symmetry_cell_setting monoclinic
_symmetry_space_group_name_H-M 'P 21/c'
_symmetry_Int_Tables_number 14
loop_
_symmetry_equiv_pos_site_id
_symmetry_equiv_pos_as_xyz
1 x,y,z
2 -x,1/2+y,1/2-z
3 -x,-y,-z
4 x,-1/2-y,-1/2+z
_cell_length_a 29.3489(7)
_cell_length_b 17.6229(3)
_cell_length_c 24.5156(6)
_cell_angle_alpha 90
_cell_angle_beta 111.628(3)
_cell_angle_gamma 90
_cell_formula_units_Z 4
loop_
_atom_type_symbol
_atom_type_radius_bond
C 0.68
H 0.23
Ag 1.45
Co 1.26
I 1.40
N 0.68
O 0.68
loop_
_atom_site_label
_atom_site_type_symbol
_atom_site_fract_x
_atom_site_fract_y
_atom_site_fract_z
I1 I 0.29885(2) 0.39702(3) 0.86713(3)
Ag1 Ag 0.20169(3) 0.39863(4) 0.76073(4)
Ag2 Ag 0.24369(3) 0.53150(5) 0.86882(3)
Ag3 Ag 0.21864(3) 0.35336(5) 0.89822(3)
I2 I 0.18456(2) 0.55768(3) 0.75003(2)
I3 I 0.13838(2) 0.30823(4) 0.79939(3)
I4 I 0.20083(3) 0.35296(4) 0.64868(3)
I5 I 0.17360(2) 0.49103(3) 0.92929(2)
I6 I 0.28680(2) 0.66833(4) 0.92504(3)
I7 I 0.25047(2) 0.25159(3) 0.99801(2)
Ag4 Ag 0.25383(3) 0.23811(4) 0.62066(4)
Ag5 Ag 0.23947(3) 0.40425(4) 1.02617(4)
Ag6 Ag 0.25027(3) 0.59363(5) 1.00047(4)
I8 I 0.32799(2) 0.49115(3) 1.07055(3)
I9 I 0.19367(2) 0.40118(3) 1.11221(3)
I10 I 0.21000(2) 0.67537(3) 1.07031(3)
I11 I 0.35385(3) 0.28171(4) 1.19378(3)
Ag7 Ag 0.24654(4) 0.54356(5) 1.12632(4)
Ag8 Ag 0.31260(4) 0.42001(5) 1.17082(4)
I12 I 0.31039(2) 0.53795(4) 1.24607(3)
Co1 Co 0.51393(3) 0.24128(5) 0.44108(4)
N1 N 0.4709(2) 0.1791(3) 0.3614(3)
N2 N 0.5657(2) 0.2240(3) 0.3989(3)
N3 N 0.5419(2) 0.1397(3) 0.4936(3)
N4 N 0.4614(2) 0.2236(3) 0.4807(3)
N5 N 0.5615(2) 0.3164(3) 0.5064(3)
N6 N 0.4888(2) 0.3507(3) 0.4039(3)
C1 C 0.4239(3) 0.1594(4) 0.3435(4)
H1 H 0.40440 0.17850 0.36400
C2 C 0.4022(3) 0.1111(5) 0.2950(4)
H2 H 0.36820 0.09970 0.28160
C3 C 0.4312(4) 0.0809(5) 0.2674(4)
H3 H 0.41780 0.04620 0.23590
C4 C 0.4806(3) 0.1015(4) 0.2862(4)
C5 C 0.5134(4) 0.0718(5) 0.2590(4)
H4 H 0.50150 0.03630 0.22770
C6 C 0.5604(4) 0.0943(5) 0.2780(4)
H5 H 0.58120 0.07380 0.25980
C7 C 0.5801(4) 0.1480(5) 0.3245(4)
C8 C 0.6287(4) 0.1744(6) 0.3449(5)
H6 H 0.65040 0.15740 0.32680
C9 C 0.6446(3) 0.2233(5) 0.3897(5)
H7 H 0.67740 0.24160 0.40320
C10 C 0.6121(3) 0.2473(5) 0.4165(4)
H8 H 0.62370 0.28160 0.44860
C11 C 0.5493(3) 0.1755(4) 0.3534(3)
C12 C 0.4993(3) 0.1514(4) 0.3334(3)
C13 C 0.5810(3) 0.0972(4) 0.4990(4)
H9 H 0.59950 0.10900 0.47540
C14 C 0.5956(4) 0.0371(5) 0.5372(4)
H10 H 0.62410 0.00920 0.54040
C15 C 0.5701(4) 0.0179(5) 0.5696(4)
H11 H 0.58050 -0.02380 0.59580
C16 C 0.5272(3) 0.0591(4) 0.5657(4)
C17 C 0.4980(4) 0.0422(5) 0.5983(4)
H12 H 0.50700 0.00120 0.62540
C18 C 0.4570(4) 0.0836(6) 0.5919(4)
H13 H 0.43810 0.07160 0.61490
C19 C 0.4423(3) 0.1450(5) 0.5508(4)
C20 C 0.4007(3) 0.1879(5) 0.5420(4)
H14 H 0.38030 0.17740 0.56340
C21 C 0.3891(3) 0.2467(5) 0.5012(4)
H15 H 0.35990 0.27540 0.49300
C22 C 0.4208(3) 0.2625(4) 0.4730(4)
H16 H 0.41310 0.30390 0.44630
C23 C 0.4724(3) 0.1635(4) 0.5195(3)
C24 C 0.5145(3) 0.1196(4) 0.5260(3)
C25 C 0.5969(3) 0.3001(5) 0.5575(4)
H17 H 0.60260 0.24850 0.56910
C26 C 0.6256(4) 0.3549(6) 0.5943(4)
H18 H 0.65040 0.34040 0.63040
C27 C 0.6189(4) 0.4289(5) 0.5797(4)
H19 H 0.63860 0.46690 0.60510
C28 C 0.5821(3) 0.4484(4) 0.5259(4)
C29 C 0.5717(4) 0.5270(5) 0.5060(4)
H20 H 0.59060 0.56730 0.52920
C30 C 0.5356(4) 0.5416(5) 0.4554(4)
H21 H 0.52940 0.59300 0.44320
C31 C 0.5059(3) 0.4849(4) 0.4187(4)
C32 C 0.4669(3) 0.4992(5) 0.3658(4)
H22 H 0.45900 0.54990 0.35240
C33 C 0.4404(3) 0.4407(5) 0.3335(4)
H23 H 0.41370 0.45010 0.29770
C34 C 0.4526(3) 0.3669(5) 0.3533(4)
H24 H 0.43450 0.32630 0.32980
C35 C 0.5156(3) 0.4087(4) 0.4357(3)
C36 C 0.5537(3) 0.3904(4) 0.4903(3)
Co2 Co 0.99079(3) 0.24677(4) 0.55995(4)
N7 N 0.9403(2) 0.3183(3) 0.4918(3)
N8 N 1.0131(2) 0.3582(3) 0.5929(3)
N9 N 1.0334(2) 0.1849(3) 0.6388(3)
N10 N 0.9383(2) 0.2294(3) 0.6016(3)
N11 N 0.9636(2) 0.1434(3) 0.5088(3)
N12 N 1.0432(2) 0.2281(3) 0.5198(3)
C37 C 0.9049(3) 0.2982(5) 0.4430(3)
H25 H 0.90160 0.24600 0.43260
C38 C 0.8717(3) 0.3498(5) 0.4055(4)
H26 H 0.84630 0.33260 0.37080
C39 C 0.8765(3) 0.4245(5) 0.4194(4)
H27 H 0.85490 0.46050 0.39400
C40 C 0.9138(3) 0.4485(4) 0.4720(3)
C41 C 0.9211(3) 0.5257(5) 0.4894(4)
H28 H 0.89960 0.56340 0.46600
C42 C 0.9581(3) 0.5461(4) 0.5389(4)
H29 H 0.96280 0.59820 0.54910
C43 C 0.9907(3) 0.4909(4) 0.5764(3)
C44 C 1.0297(3) 0.5080(4) 0.6290(4)
H30 H 1.03540 0.55920 0.64200
C45 C 1.0591(3) 0.4523(5) 0.6613(4)
H31 H 1.08600 0.46370 0.69640
C46 C 1.0489(3) 0.3770(4) 0.6414(3)
H32 H 1.06910 0.33770 0.66450
C47 C 0.9842(3) 0.4134(4) 0.5599(3)
C48 C 0.9452(3) 0.3930(4) 0.5068(3)
C49 C 1.0799(3) 0.1655(4) 0.6571(4)
H33 H 1.10020 0.18780 0.63890
C50 C 1.1009(4) 0.1130(5) 0.7028(4)
H34 H 1.13480 0.10090 0.71590
C51 C 1.0710(3) 0.0795(5) 0.7280(4)
H35 H 1.08360 0.04130 0.75700
C52 C 1.0223(3) 0.1019(4) 0.7108(4)
C53 C 0.9891(4) 0.0679(5) 0.7357(4)
H36 H 1.00030 0.02920 0.76450
C54 C 0.9427(4) 0.0916(5) 0.7175(4)
H37 H 0.92180 0.07060 0.73550
C55 C 0.9228(3) 0.1470(4) 0.6723(3)
C56 C 0.8740(3) 0.1731(5) 0.6507(4)
H38 H 0.85150 0.15390 0.66710
C57 C 0.8588(3) 0.2240(5) 0.6082(4)
H39 H 0.82600 0.24170 0.59420
C58 C 0.8923(3) 0.2514(4) 0.5837(4)
H40 H 0.88100 0.28750 0.55290
C59 C 0.9544(3) 0.1782(4) 0.6461(3)
C60 C 1.0047(3) 0.1549(4) 0.6659(3)
C61 C 0.9256(3) 0.0999(4) 0.5049(4)
H41 H 0.90820 0.11080 0.52980
C62 C 0.9099(3) 0.0387(5) 0.4661(4)
H42 H 0.88230 0.00940 0.46450
C63 C 0.9341(3) 0.0225(5) 0.4317(4)
H43 H 0.92350 -0.01850 0.40490
C64 C 0.9757(3) 0.0652(5) 0.4343(4)
C65 C 1.0046(4) 0.0504(5) 0.3994(4)
H44 H 0.99550 0.01060 0.37140
C66 C 1.0444(4) 0.0920(5) 0.4059(4)
H45 H 1.06280 0.08070 0.38210
C67 C 1.0602(3) 0.1526(5) 0.4471(3)
C68 C 1.1017(3) 0.1966(5) 0.4558(4)
H46 H 1.12150 0.18780 0.43340
C69 C 1.1134(3) 0.2523(5) 0.4970(4)
H47 H 1.14240 0.28130 0.50450
C70 C 1.0839(3) 0.2671(4) 0.5276(3)
H48 H 1.09280 0.30700 0.55570
C71 C 1.0319(3) 0.1693(4) 0.4804(3)
C72 C 0.9893(3) 0.1248(4) 0.4744(3)
N13 N 0.8584(5) 0.9718(8) 0.0872(6)
O1 O 0.9175(5) 1.0382(8) 0.1541(6)
C73 C 0.8815(8) 1.0345(12) 0.1111(9)
H49 H 0.86820 1.08100 0.09230
C74 C 0.8165(7) 0.9762(16) 0.0345(8)
H50 H 0.78700 0.96490 0.04280
H51 H 0.81970 0.93940 0.00610
H52 H 0.81400 1.02750 0.01810
C75 C 0.8772(8) 0.8968(8) 0.1124(8)
H53 H 0.90790 0.88610 0.10650
H54 H 0.85300 0.85770 0.09290
H55 H 0.88330 0.89690 0.15450
N14 N 0.8006(5) 0.1395(7) 0.2268(9)
O2 O 0.8458(9) 0.0405(12) 0.2576(17)
C76 C 0.8248(9) 0.0924(13) 0.2639(17)
H56 H 0.82610 0.10060 0.30280
C77 C 0.7878(11) 0.1275(16) 0.1626(12)
H57 H 0.79310 0.17470 0.14470
H58 H 0.75330 0.11240 0.14440
H59 H 0.80870 0.08750 0.15650
C78 C 0.7826(7) 0.2043(9) 0.2464(10)
H60 H 0.78140 0.19420 0.28520
H61 H 0.74950 0.21610 0.21870
H62 H 0.80430 0.24750 0.24900
N15 N 0.0264(4) 0.7214(5) 0.2065(4)
O3 O -0.0024(5) 0.8114(5) 0.1387(5)
C79 C -0.0071(5) 0.7685(6) 0.1729(5)
H63 H -0.03810 0.76760 0.17680
C80 C 0.0720(6) 0.7221(11) 0.1987(8)
H64 H 0.06820 0.69780 0.16130
H65 H 0.09650 0.69430 0.23090
H66 H 0.08290 0.77460 0.19850
C81 C 0.0166(7) 0.6716(7) 0.2443(6)
H67 H -0.01840 0.67350 0.23770
H68 H 0.03580 0.68580 0.28490
H69 H 0.02540 0.62000 0.23690
N16 N 0.2750(4) 0.3533(5) 0.3289(4)
O4 O 0.3469(4) 0.3814(6) 0.3944(5)
C82 C 0.3184(6) 0.3487(7) 0.3487(7)
H70 H 0.33300 0.31750 0.32810
C83 C 0.2455(5) 0.3168(10) 0.2727(6)
H71 H 0.24840 0.34610 0.24020
H72 H 0.21100 0.31510 0.26880
H73 H 0.25740 0.26510 0.27190
C84 C 0.2486(8) 0.3995(13) 0.3524(11)
H74 H 0.26970 0.41540 0.39200
H75 H 0.22040 0.37130 0.35430
H76 H 0.23700 0.44430 0.32750
N17 N 0.5250(4) 0.2170(6) 0.7035(5)
O5 O 0.5076(6) 0.3054(6) 0.6343(5)
C85 C 0.4965(8) 0.2652(9) 0.6691(7)
H77 H 0.46460 0.27080 0.67000
C86 C 0.5704(7) 0.2081(15) 0.7001(10)
H78 H 0.56660 0.18980 0.66090
H79 H 0.58940 0.17110 0.72960
H80 H 0.58760 0.25690 0.70740
C87 C 0.5095(9) 0.1722(9) 0.7398(7)
H81 H 0.47360 0.17250 0.72560
H82 H 0.52280 0.19230 0.77990
H83 H 0.52110 0.12010 0.73960
N18 N 0.6445(5) 0.9767(8) 0.9177(6)
O6 O 0.5872(5) 1.0376(7) 0.8437(5)
C88 C 0.6204(6) 1.0372(8) 0.8898(7)
H84 H 0.63060 1.08490 0.90830
C89 C 0.6295(10) 0.9014(10) 0.8927(10)
H85 H 0.60620 0.90640 0.85220
H86 H 0.61390 0.87420 0.91600
H87 H 0.65840 0.87310 0.89310
C90 C 0.6848(8) 0.9817(16) 0.9741(10)
H88 H 0.68560 1.03260 0.99040
H89 H 0.71580 0.97190 0.96880
H90 H 0.68020 0.94400 1.00100
Ag4C Ag 0.25383(3) 0.26189(4) 1.12066(4)
I4C I 0.20083(3) 0.14704(4) 1.14868(3)
#END
