
#######################################################################
#
#                 Cambridge Crystallographic Data Centre
#                                CCDC
#
#######################################################################
#
# If this CIF has been generated from an entry in the Cambridge
# Structural Database, then it will include bibliographic, chemical,
# crystal, experimental, refinement or atomic coordinate data resulting
# from the CCDC's data processing and validation procedures.
#
#######################################################################

data_CSD_CIF_RUVYOZ
_audit_creation_date 2020-09-15
_audit_creation_method CSD-ConQuest-V1
_database_code_CSD RUVYOZ
_database_code_depnum_ccdc_archive 'CCDC 1988344'
_chemical_formula_sum 'C90 H90 Ag8 I12 N18 Ni2 O6'
_chemical_formula_moiety
;
2(C36 H24 N6 Ni1 2+),n(Ag8 I12 4-),6(C3 H7 N1 O1)
;
_journal_coden_Cambridge 9
_journal_volume 59
_journal_year 2020
_journal_page_first 13962
_journal_name_full 'Inorg.Chem. '
loop_
_publ_author_name
"Chunying Tang"
"Jie Yao"
"Yueying Li"
"Zhuoran Xia"
"Jianbiao Liu"
"Chun-yang Zhang"
_chemical_name_systematic
;
catena-[bis(tris(1,10-phenanthroline)-nickel(ii)) 
dodecakis(\m-iodo)-octa-silver(i) N,N-dimethylformamide unknown solvate]
;
_cell_volume  11617.448
_exptl_crystal_colour 'light pink'
_exptl_crystal_density_diffrn 2.3
_exptl_crystal_description 'block'
_diffrn_ambient_temperature 233
_refine_special_details
;
The SQUEEZE/PLATON program has been used to model some disorder. The unit 
cell was found to contain a total void space of 986 A$3! holding 245 
electrons.
;
#These two values have been output from a single CSD field.
_refine_ls_R_factor_gt 0.0528
_refine_ls_wR_factor_gt 0.0528
_symmetry_cell_setting monoclinic
_symmetry_space_group_name_H-M 'P 21/c'
_symmetry_Int_Tables_number 14
loop_
_symmetry_equiv_pos_site_id
_symmetry_equiv_pos_as_xyz
1 x,y,z
2 -x,1/2+y,1/2-z
3 -x,-y,-z
4 x,-1/2-y,-1/2+z
_cell_length_a 29.0751(5)
_cell_length_b 17.5161(3)
_cell_length_c 24.5951(5)
_cell_angle_alpha 90
_cell_angle_beta 111.955(2)
_cell_angle_gamma 90
_cell_formula_units_Z 4
loop_
_atom_type_symbol
_atom_type_radius_bond
C 0.68
H 0.23
Ag 1.45
I 1.40
N 0.68
Ni 1.24
O 0.68
loop_
_atom_site_label
_atom_site_type_symbol
_atom_site_fract_x
_atom_site_fract_y
_atom_site_fract_z
Ag1 Ag 0.29918(3) 0.60301(5) 0.73749(4)
Ag2 Ag 0.28131(3) 0.64890(5) 0.60008(3)
Ag3 Ag 0.25694(3) 0.46917(5) 0.63090(4)
Ag4 Ag 0.24974(3) 0.40773(5) 0.49927(4)
Ag5 Ag 0.26044(3) 0.59649(5) 0.47400(4)
Ag6 Ag 0.24629(3) 0.73975(5) 0.37852(4)
Ag7 Ag 0.18669(4) 0.58100(5) 0.32930(4)
Ag8 Ag 0.25307(4) 0.45638(5) 0.37309(4)
I1 I 0.20100(2) 0.60392(4) 0.63128(3)
I2 I 0.36156(2) 0.69603(4) 0.69884(3)
I3 I 0.31698(2) 0.44338(3) 0.74923(2)
I4 I 0.30024(3) 0.64723(5) 0.84950(3)
I5 I 0.32736(2) 0.51011(3) 0.57096(2)
I6 I 0.24921(2) 0.75027(3) 0.50044(2)
I7 I 0.21314(2) 0.33252(4) 0.57418(3)
I8 I 0.17102(2) 0.51012(3) 0.42881(3)
I9 I 0.29008(2) 0.32499(3) 0.43018(3)
I10 I 0.30612(2) 0.59906(3) 0.38843(3)
I11 I 0.14528(2) 0.72018(4) 0.30561(3)
I12 I 0.18798(2) 0.46226(4) 0.25421(3)
Ni1 Ni 0.98546(3) 0.76129(5) 0.05976(4)
N1 N 1.0375(2) 0.7732(3) 0.0212(3)
N2 N 0.9586(2) 0.8599(3) 0.0096(3)
N3 N 0.9398(2) 0.6896(3) -0.0054(3)
N4 N 1.0105(2) 0.6559(3) 0.0984(3)
N5 N 0.9342(2) 0.7744(3) 0.0991(3)
N6 N 1.0280(2) 0.8238(3) 0.1346(3)
C1 C 1.0781(3) 0.7320(5) 0.0293(4)
H1 H 1.08539 0.69089 0.05572
C2 C 1.1099(3) 0.7469(5) 0.0005(4)
H2 H 1.13841 0.71684 0.00811
C3 C 1.0999(3) 0.8043(6) -0.0384(4)
H3 H 1.12140 0.81469 -0.05801
C4 C 1.0570(3) 0.8489(5) -0.0495(4)
C5 C 1.0431(4) 0.9106(5) -0.0902(4)
H4 H 1.06230 0.92200 -0.11255
C6 C 1.0027(4) 0.9527(6) -0.0966(4)
H5 H 0.99411 0.99292 -0.12392
C7 C 0.9724(3) 0.9388(5) -0.0637(4)
C8 C 0.9310(4) 0.9817(5) -0.0676(4)
H6 H 0.92144 1.02374 -0.09307
C9 C 0.9045(3) 0.9627(5) -0.0346(4)
H7 H 0.87571 0.99028 -0.03820
C10 C 0.9200(3) 0.9022(4) 0.0047(4)
H8 H 0.90216 0.89116 0.02868
C11 C 0.9849(3) 0.8778(4) -0.0241(3)
C12 C 1.0274(3) 0.8318(4) -0.0176(3)
C13 C 0.9054(3) 0.7057(5) -0.0573(3)
H9 H 0.89996 0.75715 -0.06881
C14 C 0.8775(3) 0.6509(5) -0.0949(4)
H10 H 0.85389 0.66534 -0.13152
C15 C 0.8835(3) 0.5762(5) -0.0800(4)
H11 H 0.86353 0.53865 -0.10515
C16 C 0.9204(3) 0.5561(4) -0.0257(3)
C17 C 0.9307(4) 0.4778(5) -0.0059(4)
H12 H 0.91212 0.43792 -0.02954
C18 C 0.9665(3) 0.4621(5) 0.0456(4)
H13 H 0.97284 0.41083 0.05727
C19 C 0.9956(3) 0.5204(4) 0.0837(3)
C20 C 1.0336(3) 0.5076(5) 0.1375(4)
H14 H 1.04181 0.45738 0.15127
C21 C 1.0588(3) 0.5666(5) 0.1697(4)
H15 H 1.08476 0.55794 0.20595
C22 C 1.0462(3) 0.6401(5) 0.1494(3)
H16 H 1.06382 0.68089 0.17279
C23 C 0.9851(3) 0.5970(4) 0.0654(3)
C24 C 0.9474(3) 0.6148(4) 0.0103(3)
C25 C 0.8875(3) 0.7503(5) 0.0827(4)
H17 H 0.87590 0.71509 0.05169
C26 C 0.8553(3) 0.7739(6) 0.1086(4)
H18 H 0.82248 0.75577 0.09442
C27 C 0.8707(3) 0.8227(5) 0.1540(4)
H19 H 0.84914 0.83830 0.17244
C28 C 0.9199(3) 0.8501(5) 0.1735(4)
C29 C 0.9392(4) 0.9034(5) 0.2211(4)
H20 H 0.91882 0.92187 0.24015
C30 C 0.9869(4) 0.9270(5) 0.2384(4)
H21 H 0.99914 0.96255 0.26909
C31 C 1.0190(3) 0.8992(4) 0.2111(3)
C32 C 1.0695(3) 0.9194(5) 0.2291(4)
H22 H 1.08374 0.95307 0.26077
C33 C 1.0972(3) 0.8902(5) 0.2007(4)
H23 H 1.13122 0.90131 0.21357
C34 C 1.0752(3) 0.8437(4) 0.1525(3)
H24 H 1.09436 0.82573 0.13182
C35 C 1.0004(3) 0.8493(4) 0.1640(3)
C36 C 0.9498(3) 0.8240(4) 0.1454(3)
Ni2 Ni 0.48950(3) 0.24405(5) 0.05978(4)
N7 N 0.4638(2) 0.1442(3) 0.0113(3)
N8 N 0.5413(2) 0.2314(3) 0.0206(2)
N9 N 0.4377(2) 0.2305(3) 0.0991(3)
N10 N 0.5319(2) 0.1825(3) 0.1348(2)
N11 N 0.4419(2) 0.3133(3) -0.0073(3)
N12 N 0.5122(2) 0.3517(3) 0.0950(2)
C37 C 0.4262(3) 0.0998(4) 0.0074(4)
H25 H 0.40923 0.11001 0.03255
C38 C 0.4097(3) 0.0388(5) -0.0312(4)
H26 H 0.38226 0.00931 -0.03267
C39 C 0.4344(3) 0.0235(5) -0.0664(4)
H27 H 0.42387 -0.01735 -0.09300
C40 C 0.4755(3) 0.0671(5) -0.0644(4)
C41 C 0.5044(4) 0.0536(6) -0.0985(4)
H28 H 0.49560 0.01348 -0.12587
C42 C 0.5443(4) 0.0966(5) -0.0931(4)
H29 H 0.56249 0.08592 -0.11670
C43 C 0.5594(3) 0.1583(5) -0.0521(3)
C44 C 0.6008(3) 0.2019(5) -0.0427(4)
H30 H 0.62085 0.19321 -0.06443
C45 C 0.6124(3) 0.2585(5) -0.0013(4)
H31 H 0.64126 0.28782 0.00634
C46 C 0.5818(3) 0.2726(5) 0.0295(3)
H32 H 0.58992 0.31226 0.05724
C47 C 0.5306(3) 0.1731(4) -0.0186(3)
C48 C 0.4892(3) 0.1274(4) -0.0235(3)
C49 C 0.3915(3) 0.2535(4) 0.0817(3)
H33 H 0.38029 0.28910 0.05092
C50 C 0.3586(3) 0.2284(5) 0.1060(4)
H34 H 0.32597 0.24721 0.09216
C51 C 0.3735(3) 0.1770(5) 0.1496(4)
H35 H 0.35113 0.15906 0.16613
C52 C 0.4221(3) 0.1503(4) 0.1702(3)
C53 C 0.4418(3) 0.0940(5) 0.2155(4)
H36 H 0.42104 0.07325 0.23321
C54 C 0.4889(3) 0.0702(5) 0.2333(4)
H37 H 0.50028 0.03241 0.26239
C55 C 0.5221(3) 0.1016(4) 0.2086(3)
C56 C 0.5715(3) 0.0802(5) 0.2251(3)
H38 H 0.58517 0.04401 0.25509
C57 C 0.5998(3) 0.1109(5) 0.1985(4)
H39 H 0.63337 0.09729 0.21042
C58 C 0.5791(3) 0.1631(4) 0.1533(3)
H40 H 0.59937 0.18509 0.13532
C59 C 0.5040(3) 0.1541(4) 0.1630(3)
C60 C 0.4536(3) 0.1786(4) 0.1436(3)
C61 C 0.4077(3) 0.2933(5) -0.0575(3)
H41 H 0.40458 0.24143 -0.06806
C62 C 0.3759(3) 0.3455(5) -0.0957(4)
H42 H 0.35177 0.32853 -0.13115
C63 C 0.3796(3) 0.4216(5) -0.0822(4)
H43 H 0.35831 0.45719 -0.10818
C64 C 0.4158(3) 0.4458(5) -0.0285(3)
C65 C 0.4241(3) 0.5224(5) -0.0099(4)
H44 H 0.40398 0.56100 -0.03362
C66 C 0.4600(3) 0.5411(5) 0.0406(4)
H45 H 0.46474 0.59276 0.05182
C67 C 0.4914(3) 0.4851(4) 0.0781(3)
C68 C 0.5299(3) 0.5026(5) 0.1321(4)
H46 H 0.53621 0.55353 0.14472
C69 C 0.5575(3) 0.4453(5) 0.1655(4)
H47 H 0.58301 0.45601 0.20174
C70 C 0.5477(3) 0.3701(5) 0.1455(4)
H48 H 0.56718 0.33082 0.16900
C71 C 0.4845(3) 0.4085(4) 0.0617(3)
C72 C 0.4465(3) 0.3883(4) 0.0074(3)
O1 O 0.3432(8) 0.4581(12) 0.2586(17)
N13 N 0.2989(4) 0.3600(7) 0.2277(8)
C73 C 0.3247(7) 0.4080(14) 0.2680(16)
H49 H 0.32764 0.39941 0.30692
C74 C 0.2796(7) 0.2954(10) 0.2475(10)
H50 H 0.29889 0.28683 0.28877
H51 H 0.28160 0.25071 0.22521
H52 H 0.24531 0.30481 0.24203
C75 C 0.2853(9) 0.3713(14) 0.1650(11)
H53 H 0.25672 0.40478 0.15028
H54 H 0.27727 0.32247 0.14508
H55 H 0.31289 0.39425 0.15785
O2 O 0.9120(4) 0.5391(6) 0.1590(4)
N14 N 0.8561(4) 0.4786(7) 0.0830(5)
C76 C 0.8807(6) 0.5371(8) 0.1121(6)
H56 H 0.87224 0.58432 0.09283
C77 C 0.8721(8) 0.4037(9) 0.1090(7)
H57 H 0.89222 0.37956 0.09004
H58 H 0.84327 0.37221 0.10361
H59 H 0.89146 0.40938 0.15050
C78 C 0.8175(6) 0.4788(13) 0.0271(8)
H60 H 0.78580 0.47383 0.03144
H61 H 0.82191 0.43635 0.00419
H62 H 0.81820 0.52636 0.00722
O3 O 0.4176(5) 0.4617(7) 0.1574(5)
N15 N 0.3584(4) 0.5278(7) 0.0885(5)
C79 C 0.3804(6) 0.4663(11) 0.1137(8)
H63 H 0.36590 0.42001 0.09627
C80 C 0.3778(6) 0.6024(7) 0.1140(7)
H64 H 0.37090 0.61038 0.14922
H65 H 0.36206 0.64235 0.08586
H66 H 0.41338 0.60390 0.12377
C81 C 0.3162(6) 0.5278(14) 0.0341(8)
H67 H 0.31180 0.47724 0.01685
H68 H 0.32156 0.56428 0.00734
H69 H 0.28674 0.54202 0.04133
O4 O 0.1526(3) 0.6128(5) 0.1057(5)
N16 N 0.2260(3) 0.6437(5) 0.1722(4)
C82 C 0.1793(5) 0.6467(7) 0.1511(6)
H70 H 0.16358 0.67632 0.17093
C83 C 0.2540(5) 0.6817(10) 0.2261(5)
H71 H 0.23164 0.70968 0.23979
H72 H 0.27723 0.71686 0.21965
H73 H 0.27208 0.64418 0.25528
C84 C 0.2518(8) 0.6016(13) 0.1455(10)
H74 H 0.22959 0.56543 0.11845
H75 H 0.27863 0.57431 0.17502
H76 H 0.26541 0.63568 0.12414
O5 O 0.9919(5) 0.6897(6) 0.8666(5)
N17 N 0.9743(4) 0.7805(6) 0.7969(4)
C85 C 1.0011(7) 0.7306(8) 0.8325(7)
H77 H 1.03310 0.72470 0.83199
C86 C 0.9270(7) 0.7906(15) 0.7984(10)
H78 H 0.90290 0.76280 0.76623
H79 H 0.91872 0.84451 0.79469
H80 H 0.92671 0.77159 0.83529
C87 C 0.9872(9) 0.8281(8) 0.7595(6)
H81 H 1.02232 0.83961 0.77682
H82 H 0.96830 0.87513 0.75352
H83 H 0.97983 0.80271 0.72217
O6 O 0.4993(5) 0.3136(6) 0.8626(4)
N18 N 0.4721(3) 0.2238(5) 0.7936(4)
C88 C 0.5059(5) 0.2703(7) 0.8265(6)
H84 H 0.53680 0.27113 0.82260
C89 C 0.4829(5) 0.1722(7) 0.7552(5)
H85 H 0.51477 0.18499 0.75348
H86 H 0.45732 0.17612 0.71627
H87 H 0.48385 0.12050 0.76963
C90 C 0.4246(5) 0.2185(12) 0.7973(7)
H88 H 0.42511 0.17892 0.82516
H89 H 0.40002 0.20587 0.75909
H90 H 0.41622 0.26698 0.81027
Ag6C Ag 0.24629(3) 0.76025(5) 0.87852(4)
I4C I 0.30024(3) 0.85277(5) 0.34950(3)
#END
