
#######################################################################
#
#                 Cambridge Crystallographic Data Centre
#                                CCDC
#
#######################################################################
#
# If this CIF has been generated from an entry in the Cambridge
# Structural Database, then it will include bibliographic, chemical,
# crystal, experimental, refinement or atomic coordinate data resulting
# from the CCDC's data processing and validation procedures.
#
#######################################################################

data_CSD_CIF_RUVZEQ
_audit_creation_date 2020-09-15
_audit_creation_method CSD-ConQuest-V1
_database_code_CSD RUVZEQ
_database_code_depnum_ccdc_archive 'CCDC 1988345'
_chemical_formula_sum 'C90 H90 Ag8 I12 N18 O6 Zn2'
_chemical_formula_moiety
;
2(C36 H24 N6 Zn1 2+),n(Ag8 I12 4-),6(C3 H7 N1 O1)
;
_journal_coden_Cambridge 9
_journal_volume 59
_journal_year 2020
_journal_page_first 13962
_journal_name_full 'Inorg.Chem. '
loop_
_publ_author_name
"Chunying Tang"
"Jie Yao"
"Yueying Li"
"Zhuoran Xia"
"Jianbiao Liu"
"Chun-yang Zhang"
_chemical_name_systematic
;
catena-[bis(tris(1,10-phenanthroline)-zinc(ii)) 
dodecakis(\m-iodo)-octa-silver(i) N,N-dimethylformamide unknown solvate]
;
_cell_volume  11654.565
_exptl_crystal_colour 'light yellow'
_exptl_crystal_density_diffrn 2.3
_exptl_crystal_description 'block'
_diffrn_ambient_temperature 233.2
_refine_special_details
;
The SQUEEZE/PLATON program has been used to model some disorder. The unit 
cell was found to contain a total void space of 973 A$3! holding 188 
electrons.
;
#These two values have been output from a single CSD field.
_refine_ls_R_factor_gt 0.0502
_refine_ls_wR_factor_gt 0.0502
_symmetry_cell_setting monoclinic
_symmetry_space_group_name_H-M 'P 21/c'
_symmetry_Int_Tables_number 14
loop_
_symmetry_equiv_pos_site_id
_symmetry_equiv_pos_as_xyz
1 x,y,z
2 -x,1/2+y,1/2-z
3 -x,-y,-z
4 x,-1/2-y,-1/2+z
_cell_length_a 29.1088(6)
_cell_length_b 17.5255(3)
_cell_length_c 24.6404(5)
_cell_angle_alpha 90
_cell_angle_beta 112.004(2)
_cell_angle_gamma 90
_cell_formula_units_Z 4
loop_
_atom_type_symbol
_atom_type_radius_bond
C 0.68
H 0.23
Ag 1.45
I 1.40
N 0.68
O 0.68
Zn 1.22
loop_
_atom_site_label
_atom_site_type_symbol
_atom_site_fract_x
_atom_site_fract_y
_atom_site_fract_z
Ag1 Ag 0.29926(3) 0.60283(5) 0.73741(4)
Ag2 Ag 0.28136(3) 0.64870(5) 0.60004(3)
Ag3 Ag 0.25674(3) 0.46817(5) 0.63049(4)
Ag4 Ag 0.24980(3) 0.40734(5) 0.49919(4)
Ag5 Ag 0.26063(3) 0.59651(4) 0.47382(4)
Ag6 Ag 0.24666(3) 0.73979(5) 0.37829(4)
Ag7 Ag 0.25279(4) 0.45625(5) 0.37356(4)
Ag8 Ag 0.18662(4) 0.58091(5) 0.32949(4)
I1 I 0.20118(2) 0.60328(3) 0.63090(3)
I2 I 0.36168(2) 0.69615(4) 0.69870(3)
I3 I 0.31718(2) 0.44305(3) 0.74895(2)
I4 I 0.30044(3) 0.64699(5) 0.84942(3)
I5 I 0.32736(2) 0.50982(3) 0.57079(2)
I6 I 0.24942(2) 0.75029(3) 0.50040(2)
I7 I 0.21312(2) 0.33146(4) 0.57360(3)
I8 I 0.17123(2) 0.50991(3) 0.42905(3)
I9 I 0.29005(2) 0.32453(3) 0.43009(3)
I10 I 0.30586(2) 0.59885(3) 0.38810(2)
I11 I 0.14520(3) 0.71981(4) 0.30559(3)
I12 I 0.18769(2) 0.46152(4) 0.25445(2)
Zn1 Zn 0.01420(3) 0.26130(5) 0.44036(4)
N1 N 0.0656(2) 0.2754(3) 0.4012(3)
N2 N -0.0280(2) 0.3237(3) 0.3659(3)
N3 N -0.0103(2) 0.1551(3) 0.4021(3)
N4 N 0.0600(2) 0.1896(3) 0.5055(2)
N5 N 0.0412(2) 0.3598(3) 0.4907(3)
N6 N -0.0378(2) 0.2728(3) 0.4792(3)
C1 C 0.1116(3) 0.2510(4) 0.4184(4)
H1 H 0.12290 0.21660 0.44990
C2 C 0.1448(3) 0.2737(5) 0.3923(4)
H2 H 0.17750 0.25520 0.40610
C3 C 0.1282(3) 0.3236(5) 0.3460(4)
H3 H 0.14980 0.33970 0.32790
C4 C 0.0800(3) 0.3501(4) 0.3257(4)
C5 C 0.0598(4) 0.4027(5) 0.2793(4)
H4 H 0.08030 0.42140 0.26050
C6 C 0.0132(4) 0.4268(5) 0.2613(4)
H5 H 0.00160 0.46220 0.23050
C7 C -0.0200(3) 0.3992(4) 0.2884(3)
C8 C -0.0702(3) 0.4191(5) 0.2708(4)
H6 H -0.08450 0.45260 0.23920
C9 C -0.0980(3) 0.3903(5) 0.2994(4)
H7 H -0.13190 0.40180 0.28710
C10 C -0.0752(3) 0.3436(4) 0.3470(3)
H8 H -0.09440 0.32470 0.36740
C11 C -0.0002(3) 0.3492(4) 0.3362(3)
C12 C 0.0498(3) 0.3246(4) 0.3554(3)
C13 C -0.0459(3) 0.1403(4) 0.3508(3)
H9 H -0.06350 0.18130 0.32780
C14 C -0.0585(3) 0.0659(5) 0.3297(4)
H10 H -0.08400 0.05720 0.29320
C15 C -0.0329(3) 0.0067(4) 0.3630(4)
H11 H -0.04080 -0.04370 0.34970
C16 C 0.0050(3) 0.0205(4) 0.4169(3)
C17 C 0.0342(3) -0.0378(4) 0.4544(4)
H12 H 0.02830 -0.08910 0.44260
C18 C 0.0696(3) -0.0214(5) 0.5055(4)
H13 H 0.08850 -0.06110 0.52900
C19 C 0.0796(3) 0.0559(4) 0.5257(3)
C20 C 0.1159(3) 0.0755(5) 0.5799(4)
H14 H 0.13540 0.03790 0.60540
C21 C 0.1220(3) 0.1515(5) 0.5949(4)
H15 H 0.14550 0.16630 0.63140
C22 C 0.0938(3) 0.2059(4) 0.5564(3)
H16 H 0.09920 0.25750 0.56740
C23 C 0.0524(3) 0.1142(4) 0.4895(3)
C24 C 0.0150(3) 0.0967(4) 0.4344(3)
C25 C 0.0802(3) 0.4024(4) 0.4959(4)
H17 H 0.09830 0.39130 0.47220
C26 C 0.0955(3) 0.4627(4) 0.5351(4)
H18 H 0.12390 0.49080 0.53830
C27 C 0.0694(3) 0.4810(5) 0.5686(4)
H19 H 0.07940 0.52210 0.59490
C28 C 0.0277(3) 0.4385(4) 0.5638(3)
C29 C -0.0026(4) 0.4531(5) 0.5967(4)
H20 H 0.00580 0.49350 0.62380
C30 C -0.0426(3) 0.4110(5) 0.5902(4)
H21 H -0.06140 0.42230 0.61300
C31 C -0.0576(3) 0.3492(4) 0.5494(3)
C32 C -0.0997(3) 0.3052(5) 0.5390(4)
H22 H -0.12080 0.31520 0.55920
C33 C -0.1100(3) 0.2472(5) 0.4993(4)
H23 H -0.13880 0.21770 0.49110
C34 C -0.0779(3) 0.2317(4) 0.4708(3)
H24 H -0.08490 0.19040 0.44460
C35 C -0.0276(3) 0.3320(4) 0.5179(3)
C36 C 0.0146(3) 0.3774(4) 0.5239(3)
Zn2 Zn 0.51056(3) 0.75618(4) 0.94031(4)
N7 N 0.4584(2) 0.7684(3) 0.9791(2)
N8 N 0.5366(2) 0.8559(3) 0.9891(2)
N9 N 0.4683(2) 0.8178(3) 0.8656(2)
N10 N 0.5622(2) 0.7701(3) 0.9007(2)
N11 N 0.4878(2) 0.6484(3) 0.9048(3)
N12 N 0.5580(2) 0.6873(3) 1.0073(2)
C37 C 0.4181(3) 0.7280(4) 0.9704(3)
H25 H 0.40990 0.68840 0.94270
C38 C 0.3877(3) 0.7415(5) 1.0004(4)
H26 H 0.35900 0.71200 0.99240
C39 C 0.3992(3) 0.7984(5) 1.0425(4)
H27 H 0.37950 0.80640 1.06470
C40 C 0.4405(3) 0.8430(4) 1.0511(3)
C41 C 0.4556(3) 0.9037(5) 1.0926(4)
H28 H 0.43750 0.91370 1.11630
C42 C 0.4952(3) 0.9465(5) 1.0984(4)
H29 H 0.50380 0.98640 1.12590
C43 C 0.5249(3) 0.9336(4) 1.0639(4)
C44 C 0.5656(3) 0.9774(5) 1.0670(4)
H30 H 0.57600 1.01820 1.09360
C45 C 0.5903(3) 0.9611(5) 1.0314(4)
H31 H 0.61760 0.99080 1.03270
C46 C 0.5747(3) 0.9000(4) 0.9928(3)
H32 H 0.59200 0.88930 0.96820
C47 C 0.5114(3) 0.8726(4) 1.0239(3)
C48 C 0.4691(3) 0.8269(4) 1.0182(3)
C49 C 0.4207(3) 0.8376(4) 0.8467(3)
H33 H 0.40060 0.81580 0.86480
C50 C 0.3997(3) 0.8887(5) 0.8016(4)
H34 H 0.36600 0.90150 0.78980
C51 C 0.4278(3) 0.9202(4) 0.7746(4)
H35 H 0.41400 0.95630 0.74460
C52 C 0.4780(3) 0.8984(4) 0.7917(3)
C53 C 0.5114(3) 0.9285(5) 0.7663(4)
H36 H 0.50000 0.96540 0.73660
C54 C 0.5575(4) 0.9051(5) 0.7839(4)
H37 H 0.57820 0.92570 0.76610
C55 C 0.5777(3) 0.8496(4) 0.8291(3)
C56 C 0.6261(3) 0.8233(5) 0.8501(4)
H38 H 0.64840 0.84130 0.83360
C57 C 0.6416(3) 0.7720(5) 0.8943(4)
H39 H 0.67440 0.75410 0.90840
C58 C 0.6085(3) 0.7461(4) 0.9188(3)
H40 H 0.61950 0.71020 0.94940
C59 C 0.5463(2) 0.8216(4) 0.8563(3)
C60 C 0.4962(3) 0.8453(4) 0.8372(3)
C61 C 0.4523(3) 0.6298(4) 0.8548(3)
H41 H 0.43270 0.66920 0.83170
C62 C 0.4422(3) 0.5554(4) 0.8344(4)
H42 H 0.41650 0.54490 0.79840
C63 C 0.4701(3) 0.4984(4) 0.8675(4)
H43 H 0.46380 0.44760 0.85470
C64 C 0.5083(3) 0.5150(4) 0.9207(3)
C65 C 0.5395(3) 0.4585(4) 0.9587(4)
H44 H 0.53460 0.40680 0.94790
C66 C 0.5762(3) 0.4780(4) 1.0103(4)
H45 H 0.59710 0.44020 1.03400
C67 C 0.5828(3) 0.5558(4) 1.0284(3)
C68 C 0.6197(3) 0.5784(5) 1.0818(4)
H46 H 0.64090 0.54230 1.10720
C69 C 0.6237(3) 0.6546(5) 1.0960(4)
H47 H 0.64770 0.67140 1.13160
C70 C 0.5917(3) 0.7069(4) 1.0570(3)
H48 H 0.59490 0.75880 1.06740
C71 C 0.5531(2) 0.6120(4) 0.9921(3)
C72 C 0.5157(3) 0.5917(4) 0.9385(3)
O1 O 0.0084(5) 0.1911(6) 0.6331(5)
N13 N 0.0249(4) 0.2811(5) 0.7023(4)
C73 C -0.0024(7) 0.2315(8) 0.6680(7)
H49 H -0.03410 0.22450 0.66900
C74 C 0.0735(8) 0.2916(14) 0.7037(10)
H50 H 0.09680 0.26370 0.73650
H51 H 0.08180 0.34550 0.70800
H52 H 0.07540 0.27290 0.66750
C75 C 0.0106(8) 0.3275(9) 0.7403(7)
H53 H -0.02440 0.33940 0.72200
H54 H 0.02970 0.37440 0.74820
H55 H 0.01680 0.30050 0.77670
O2 O 0.1518(4) 0.6105(6) 0.1061(5)
N14 N 0.2255(3) 0.6434(5) 0.1719(4)
C76 C 0.1794(6) 0.6443(7) 0.1515(6)
H56 H 0.16380 0.67300 0.17200
C77 C 0.2547(5) 0.6807(12) 0.2257(6)
H57 H 0.23380 0.71510 0.23720
H58 H 0.28100 0.70950 0.22020
H59 H 0.26890 0.64280 0.25610
C78 C 0.2522(9) 0.6028(13) 0.1453(11)
H60 H 0.23250 0.56030 0.12360
H61 H 0.28250 0.58370 0.17500
H62 H 0.26040 0.63600 0.11870
O3 O 0.5000(4) 0.6877(5) 0.1371(4)
N15 N 0.5269(3) 0.7766(4) 0.2065(4)
C79 C 0.4944(5) 0.7299(6) 0.1729(5)
H63 H 0.46350 0.72850 0.17670
C80 C 0.5759(6) 0.7795(13) 0.2030(8)
H64 H 0.58160 0.73300 0.18520
H65 H 0.60100 0.78460 0.24210
H66 H 0.57760 0.82300 0.17950
C81 C 0.5146(6) 0.8269(7) 0.2452(5)
H67 H 0.47940 0.83790 0.22890
H68 H 0.53310 0.87410 0.24960
H69 H 0.52310 0.80270 0.28310
O4 O 0.0880(4) 1.0386(5) 0.3412(4)
N16 N 0.1431(4) 0.9787(6) 0.4166(4)
C82 C 0.1208(5) 1.0371(7) 0.3891(5)
H70 H 0.13080 1.08440 0.40780
C83 C 0.1291(8) 0.9008(9) 0.3916(8)
H71 H 0.09360 0.89400 0.37990
H72 H 0.14630 0.86300 0.42090
H73 H 0.13810 0.89490 0.35780
C84 C 0.1832(8) 0.9794(15) 0.4733(9)
H74 H 0.21370 0.96360 0.46910
H75 H 0.17570 0.94440 0.49930
H76 H 0.18720 1.03050 0.48950
O5 O 0.5831(5) 0.5388(7) 0.8426(6)
N17 N 0.6414(4) 0.4721(7) 0.9117(5)
C85 C 0.6198(6) 0.534(1) 0.8871(7)
H77 H 0.63370 0.58010 0.90540
C86 C 0.6826(7) 0.4740(16) 0.9636(9)
H78 H 0.71050 0.45050 0.95750
H79 H 0.67560 0.44620 0.99360
H80 H 0.69060 0.52650 0.97580
C87 C 0.6242(6) 0.3965(8) 0.8877(6)
H81 H 0.59050 0.38890 0.88540
H82 H 0.64560 0.35790 0.91290
H83 H 0.62510 0.39260 0.84880
N18 N 0.2994(5) 0.3600(6) 0.2289(7)
C88 C 0.2779(7) 0.2941(9) 0.2452(10)
H84 H 0.24390 0.28810 0.21830
H85 H 0.27870 0.30080 0.28470
H86 H 0.29670 0.24900 0.24380
C89 C 0.2898(11) 0.3710(16) 0.1678(10)
H87 H 0.28990 0.32190 0.14960
H88 H 0.31530 0.40330 0.16360
H89 H 0.25770 0.39500 0.14900
C90 C 0.3237(7) 0.4064(12) 0.2694(11)
H90 H 0.32700 0.39990 0.30850
O6 O 0.3420(9) 0.4592(12) 0.2535(14)
Ag6C Ag 0.24666(3) 0.76021(5) 0.87829(4)
I4C I 0.30044(3) 0.85301(5) 0.34942(3)
#END
