
#######################################################################
#
#                 Cambridge Crystallographic Data Centre
#                                CCDC
#
#######################################################################
#
# If this CIF has been generated from an entry in the Cambridge
# Structural Database, then it will include bibliographic, chemical,
# crystal, experimental, refinement or atomic coordinate data resulting
# from the CCDC's data processing and validation procedures.
#
#######################################################################

data_CSD_CIF_RUWFOG
_audit_creation_date 2015-11-30
_audit_creation_method CSD-ConQuest-V1
_database_code_CSD RUWFOG
_database_code_depnum_ccdc_archive 'CCDC 1422767'
_chemical_formula_sum 'C12 H15 Cd3 Cl1 N6 O10'
_chemical_formula_moiety
;
(C12 H12 Cd3 Cl1 N6 O9 1-)n,n(H3 O1 1+)
;
_journal_coden_Cambridge 1500
_journal_volume 5
_journal_year 2015
_journal_page_first 102525
_journal_name_full 'RSC Advances '
loop_
_publ_author_name
"Jia Wang"
"Shuo Yao"
"Guanghua Li"
"Qisheng Huo"
"Lirong Zhang"
"Yunling Liu"
_chemical_name_systematic
;
catena-[oxonium 
tris(\m-4-carboxylatopyrazolato)-(\m-chloro)-triaqua-tri-cadmium(ii)]
;
_cell_volume   1776.236
_exptl_crystal_colour 'colorless'
_exptl_crystal_density_diffrn 2.176
_exptl_crystal_description 'block'
_diffrn_ambient_temperature 293
_refine_special_details
;
The structure is disordered.

;
#These two values have been output from a single CSD field.
_refine_ls_R_factor_gt 0.0279
_refine_ls_wR_factor_gt 0.0279
_symmetry_cell_setting rhombohedral
_symmetry_space_group_name_H-M 'R 3 m'
_symmetry_Int_Tables_number 160
loop_
_symmetry_equiv_pos_site_id
_symmetry_equiv_pos_as_xyz
1 x,y,z
2 -y,x-y,z
3 -x+y,-x,z
4 -y,-x,z
5 -x+y,y,z
6 x,x-y,z
7 2/3+x,1/3+y,1/3+z
8 2/3-y,1/3+x-y,1/3+z
9 2/3-x+y,1/3-x,1/3+z
10 2/3-y,1/3-x,1/3+z
11 2/3-x+y,1/3+y,1/3+z
12 2/3+x,1/3+x-y,1/3+z
13 1/3+x,2/3+y,2/3+z
14 1/3-y,2/3+x-y,2/3+z
15 1/3-x+y,2/3-x,2/3+z
16 1/3-y,2/3-x,2/3+z
17 1/3-x+y,2/3+y,2/3+z
18 1/3+x,2/3+x-y,2/3+z
_cell_length_a 14.6793(6)
_cell_length_b 14.6793(6)
_cell_length_c 9.5183(5)
_cell_angle_alpha 90
_cell_angle_beta 90
_cell_angle_gamma 120
_cell_formula_units_Z 3
loop_
_atom_type_symbol
_atom_type_radius_bond
C 0.68
H 0.23
Cd 1.44
Cl 0.99
N 0.68
O 0.68
loop_
_atom_site_label
_atom_site_type_symbol
_atom_site_fract_x
_atom_site_fract_y
_atom_site_fract_z
Cd1 Cd 0.575186(19) 0.424814(19) 0.66890
Cl1 Cl 0.66670 0.33330 0.5326(4)
O1 O 0.4639(4) 0.3869(4) 0.4714(5)
O2 O 0.4902(3) 0.5098(3) 0.7511(10)
H1 H 0.515(5) 0.585(2) 0.746(9)
N1 N 0.3845(5) 0.5216(5) 0.1330(6)
C1 C 0.4871(4) 0.5129(4) 0.2987(9)
C2 C 0.3899(6) 0.4609(5) 0.2316(7)
H2 H 0.33650 0.39320 0.25290
C3 C 0.5233(3) 0.4767(3) 0.4174(8)
O3 O 0.617(2) 0.234(4) 0.155(5)
O4? O 0.700(3) 0.300(3) 0.186(6)
O1C O 0.6131(4) 0.5361(4) 0.4714(5)
N1C N 0.4784(5) 0.6155(5) 0.1330(6)
C2C C 0.5391(6) 0.6101(5) 0.2316(7)
H2C H 0.60680 0.66350 0.25290
H1C H 0.415(5) 0.485(2) 0.746(9)
Cd1A Cd 0.575186(19) 0.150372(19) 0.66890
O1A O 0.6131(4) 0.0770(4) 0.4714(5)
O2A O 0.4902(3) -0.0196(3) 0.7511(10)
H1A H 0.415(5) -0.070(2) 0.746(9)
N1A N 0.4784(5) -0.1371(5) 0.1330(6)
C1A C 0.4871(4) -0.0258(4) 0.2987(9)
C2A C 0.5391(6) -0.0710(5) 0.2316(7)
H2A H 0.60680 -0.05670 0.25290
C3A C 0.5233(3) 0.0466(3) 0.4174(8)
O1E O 0.4639(4) 0.0770(4) 0.4714(5)
N1E N 0.3845(5) -0.1371(5) 0.1330(6)
C2E C 0.3899(6) -0.0710(5) 0.2316(7)
H2E H 0.33650 -0.05670 0.25290
H1E H 0.515(5) -0.070(2) 0.746(9)
Cd1B Cd 0.849628(19) 0.424814(19) 0.66890
O1B O 0.9230(4) 0.5361(4) 0.4714(5)
O2B O 1.0196(3) 0.5098(3) 0.7511(10)
H1B H 1.070(5) 0.485(2) 0.746(9)
N1B N 1.1371(5) 0.6155(5) 0.1330(6)
C1B C 1.0258(4) 0.5129(4) 0.2987(9)
C2B C 1.0710(6) 0.6101(5) 0.2316(7)
H2B H 1.05670 0.66350 0.25290
C3B C 0.9534(3) 0.4767(3) 0.4174(8)
O1D O 0.9230(4) 0.3869(4) 0.4714(5)
N1D N 1.1371(5) 0.5216(5) 0.1330(6)
C2D C 1.0710(6) 0.4609(5) 0.2316(7)
H2D H 1.05670 0.39320 0.25290
H1D H 1.070(5) 0.585(2) 0.746(9)
Cd1F Cd 0.241853(19) -0.241853(19) 0.00223
Cd1F* Cd 1.241853(19) 0.758147(19) 0.00223
Cd1G Cd 0.241853(19) 0.483705(19) 0.00223
Cd1G* Cd 1.241853(19) 0.483705(19) 0.00223
Cd1H Cd 0.516295(19) -0.241853(19) 0.00223
Cd1H* Cd 0.516295(19) 0.758147(19) 0.00223
N1L N 0.717833(500) 0.188267(500) 0.799667(600)
N1M N 0.811733(500) 0.529567(500) 0.799667(600)
N1N N 0.470433(500) 0.282167(500) 0.799667(600)
N1O N 0.811733(500) 0.282167(500) 0.799667(600)
N1P N 0.470433(500) 0.188267(500) 0.799667(600)
N1Q N 0.717833(500) 0.529567(500) 0.799667(600)
#END
