
#######################################################################
#
#                 Cambridge Crystallographic Data Centre
#                                CCDC
#
#######################################################################
#
# If this CIF has been generated from an entry in the Cambridge
# Structural Database, then it will include bibliographic, chemical,
# crystal, experimental, refinement or atomic coordinate data resulting
# from the CCDC's data processing and validation procedures.
#
#######################################################################

data_CSD_CIF_RUWYUG
_audit_creation_date 2020-09-16
_audit_creation_method CSD-ConQuest-V1
_database_code_CSD RUWYUG
_database_code_depnum_ccdc_archive 'CCDC 1882087'
_chemical_formula_sum 'C19 H59 K2 Lu1 N3 O50 P1 W11'
_chemical_formula_moiety
;
(C7 H17 K2 Lu1 O47 P1 W11 3-)n,3(C4 H12 N1 1+),3(H2 O1)
;
_journal_coden_Cambridge 315
_journal_volume 223
_journal_year 2019
_journal_page_first 117294
_journal_name_full 'Spectrochim.Acta,Part A '
loop_
_publ_author_name
"Hechen Wu"
"Minna Zhi"
"Hanhan Chen"
"Vikram Singh"
"Pengtao Ma"
"Jingping Wang"
"Jingyang Niu"
_chemical_name_systematic
;
catena-[tris(tetramethylammonium) 
(\m-phosphato)-octacosakis(\m-oxido)-(\m-benzoato)-hexa-aqua-hepta-oxo-lutetiu
m-undeca-tungsten-di-potassium trihydrate]
;
_cell_volume   3353.915
_exptl_crystal_colour 'colorless'
_exptl_crystal_density_diffrn 3.385
_exptl_crystal_description 'block'
_diffrn_ambient_temperature 296.1
#These two values have been output from a single CSD field.
_refine_ls_R_factor_gt 0.0618
_refine_ls_wR_factor_gt 0.0618
_symmetry_cell_setting triclinic
_symmetry_space_group_name_H-M 'P -1'
_symmetry_Int_Tables_number 2
loop_
_symmetry_equiv_pos_site_id
_symmetry_equiv_pos_as_xyz
1 x,y,z
2 -x,-y,-z
_cell_length_a 12.946(10)
_cell_length_b 13.602(10)
_cell_length_c 20.190(15)
_cell_angle_alpha 82.829(14)
_cell_angle_beta 78.213(14)
_cell_angle_gamma 75.131(14)
_cell_formula_units_Z 2
loop_
_atom_type_symbol
_atom_type_radius_bond
C 0.68
H 0.23
K 2.03
Lu 1.87
N 0.68
O 0.68
P 1.05
W 1.62
loop_
_atom_site_label
_atom_site_type_symbol
_atom_site_fract_x
_atom_site_fract_y
_atom_site_fract_z
W1 W 0.50303(8) 0.93543(8) 0.81458(5)
W2 W 0.46804(8) 0.84929(7) 0.66841(5)
W3 W 0.45869(8) 0.69608(8) 0.82261(5)
W4 W 0.67170(8) 0.48899(7) 0.73519(5)
W5 W 0.67741(8) 0.64657(7) 0.58465(5)
W6 W 0.91282(8) 0.53972(7) 0.64797(5)
W7 W 0.71684(9) 0.58992(8) 0.88834(5)
W8 W 0.95806(8) 0.64077(8) 0.79849(5)
W9 W 0.76008(9) 0.83258(8) 0.87802(5)
W10 W 0.95411(8) 0.80574(7) 0.63337(5)
W11 W 0.75761(8) 0.99320(7) 0.71070(5)
Lu1 Lu 0.71632(8) 0.92850(8) 0.54140(5)
P1 P 0.7163(5) 0.7448(4) 0.7311(3)
K1 K 1.0455(6) 0.2951(6) 0.5302(4)
K2 K 0.8041(7) 0.4501(7) 1.0744(4)
O1 O 0.4250(14) 1.0377(13) 0.8563(9)
O2 O 0.3546(13) 0.8839(12) 0.6288(8)
O3 O 0.3546(15) 0.6527(14) 0.8745(10)
O4 O 0.6389(14) 0.3740(13) 0.7559(9)
O5 O 0.6389(13) 0.6180(11) 0.5143(8)
O6 O 1.0261(14) 0.4528(12) 0.6106(8)
O7 O 0.6994(13) 0.5077(12) 0.9584(8)
O8 O 1.0874(14) 0.5907(12) 0.8150(9)
O9 O 0.7678(14) 0.8999(13) 0.9423(9)
O10 O 1.0881(13) 0.8039(12) 0.6016(8)
O11 O 0.7703(13) 1.1094(12) 0.7289(8)
O12 O 0.8245(12) 0.4483(11) 0.6965(8)
O13 O 0.7259(12) 1.0192(11) 0.6275(8)
O14 O 0.9478(12) 0.5532(10) 0.7350(7)
O15 O 0.6441(12) 0.5244(11) 0.6484(7)
O16 O 0.7271(12) 0.7611(11) 0.5574(8)
O17 O 0.5398(13) 0.5815(12) 0.7727(8)
O18 O 0.9056(13) 0.7458(12) 0.8616(8)
O19 O 0.5640(12) 0.9117(11) 0.6168(7)
O20 O 0.4315(12) 0.8291(11) 0.8576(8)
O21 O 0.5726(13) 0.6534(12) 0.8785(8)
O22 O 0.4038(13) 0.7575(12) 0.7477(8)
O23 O 0.7198(13) 0.7111(12) 0.9297(8)
O24 O 0.6094(12) 0.8808(11) 0.8702(8)
O25 O 0.7914(13) 0.9158(12) 0.8023(8)
O26 O 0.5395(12) 0.7204(11) 0.6326(8)
O27 O 0.4303(13) 0.9419(12) 0.7392(8)
O28 O 0.8739(13) 0.5629(12) 0.8666(8)
O29 O 0.9751(12) 0.7360(11) 0.7269(7)
O30 O 0.8920(13) 0.8570(11) 0.5628(8)
O31 O 0.9105(12) 0.9319(11) 0.6777(7)
O32 O 0.6125(12) 0.9928(11) 0.7564(7)
O33 O 0.7212(12) 0.5069(11) 0.8177(8)
O34 O 0.9510(12) 0.6675(11) 0.6186(7)
O35 O 0.8269(12) 0.5614(11) 0.5782(8)
O36 O 0.5909(12) 0.7875(10) 0.7511(7)
O37 O 0.7386(11) 0.6501(10) 0.6920(7)
O38 O 0.7643(12) 0.7121(11) 0.7962(8)
O39 O 0.7700(12) 0.8229(11) 0.6877(7)
O40 O 0.6151(14) 0.8980(12) 0.4599(9)
O41 O 0.7937(14) 0.8570(12) 0.4308(8)
C1 C 0.701(2) 0.8615(19) 0.4179(13)
C2 C 0.693(2) 0.8132(19) 0.3581(13)
C3 C 0.601(2) 0.828(2) 0.3345(15)
H1 H 0.53833 0.86902 0.35809
C4 C 0.592(2) 0.786(2) 0.2763(15)
H2 H 0.52576 0.79887 0.26138
C5 C 0.685(3) 0.726(2) 0.2423(16)
H3 H 0.68150 0.69779 0.20332
C6 C 0.787(3) 0.704(2) 0.2638(16)
H4 H 0.84933 0.66177 0.24090
C7 C 0.788(2) 0.748(2) 0.3197(15)
H5 H 0.85372 0.73646 0.33472
O42 O 0.8306(16) 1.0364(14) 0.4805(10)
O43 O 0.5995(12) 1.0876(11) 0.5148(8)
O44 O 0.9620(17) 0.0945(15) 0.5664(10)
O45 O 0.8274(17) 0.3534(15) 0.5494(10)
O46 O 0.941(3) 0.265(3) 1.0479(18)
O47 O 0.740(3) 0.662(3) 1.0667(19)
N1 N 0.3260(12) 0.5564(11) 0.6188(8)
C8 C 0.2216(15) 0.5319(18) 0.6134(12)
H6 H 0.16680 0.59407 0.60976
H7 H 0.23257 0.49540 0.57380
H8 H 0.19871 0.49057 0.65303
C9 C 0.4127(18) 0.4602(15) 0.6245(14)
H9 H 0.47901 0.47688 0.62801
H10 H 0.39040 0.41862 0.66423
H11 H 0.42426 0.42345 0.58500
C10 C 0.308(2) 0.6148(19) 0.6801(10)
H12 H 0.25288 0.67632 0.67632
H13 H 0.28640 0.57372 0.72017
H14 H 0.37487 0.63165 0.68315
C11 C 0.361(2) 0.6208(18) 0.5563(10)
H15 H 0.30567 0.68251 0.55242
H16 H 0.42751 0.63733 0.55943
H17 H 0.37219 0.58361 0.51696
N2 N 1.1038(16) 0.9719(14) 0.7899(10)
C12 C 0.9899(18) 1.007(2) 0.8268(16)
H18 H 0.94106 0.98543 0.80515
H19 H 0.98443 0.97902 0.87298
H20 H 0.97110 1.08050 0.82585
C13 C 1.132(3) 0.8581(15) 0.7902(18)
H21 H 1.08254 0.83710 0.76888
H22 H 1.20499 0.83537 0.76572
H23 H 1.12805 0.82868 0.83614
C14 C 1.181(3) 1.005(3) 0.8229(19)
H24 H 1.16200 1.07847 0.82245
H25 H 1.17659 0.97631 0.86888
H26 H 1.25353 0.98300 0.79846
C15 C 1.112(3) 1.016(3) 0.7175(12)
H27 H 1.06222 0.99487 0.69623
H28 H 1.09347 1.08949 0.71663
H29 H 1.18454 0.99322 0.69351
N3 N 0.6157(19) 0.2093(17) 0.9415(12)
C16 C 0.531(3) 0.155(3) 0.9782(19)
H30 H 0.55946 0.08241 0.97615
H31 H 0.51170 0.17078 1.02481
H32 H 0.46786 0.17588 0.95728
C17 C 0.650(3) 0.182(3) 0.8697(13)
H33 H 0.67778 0.10923 0.86889
H34 H 0.58855 0.20263 0.84705
H35 H 0.70546 0.21557 0.84700
C18 C 0.572(3) 0.3216(18) 0.945(2)
H36 H 0.55050 0.33763 0.99119
H37 H 0.62707 0.35624 0.92232
H38 H 0.51016 0.34330 0.92238
C19 C 0.713(3) 0.176(4) 0.977(2)
H39 H 0.74146 0.10421 0.97480
H40 H 0.76739 0.21147 0.95411
H41 H 0.69092 0.19286 1.02301
O48 O 0.667(2) 1.2531(19) 0.6054(13)
O49 O 0.9215(19) 0.2386(17) 0.6970(12)
O50 O 0.916(2) 0.321(2) 0.8273(15)
K1A K 0.9545(6) 0.7049(6) 0.4698(4)
K2A K 0.1959(7) 0.5499(7) 0.9256(4)
K2A* K 1.1959(7) 0.5499(7) 0.9256(4)
O3A O 0.6454(15) 0.3473(14) 1.1255(10)
O8A O 0.9126(14) 0.4093(12) 1.1850(9)
O16A O 1.2729(12) 0.2389(11) 0.4426(8)
O30A O 1.1080(13) 0.1430(11) 0.4372(8)
O34A O 1.0490(12) 0.3325(11) 0.3814(7)
O35A O 1.1731(12) 0.4386(11) 0.4218(8)
O41A O 1.2063(14) 0.1430(12) 0.5692(8)
#END
