
#######################################################################
#
#                 Cambridge Crystallographic Data Centre
#                                CCDC
#
#######################################################################
#
# If this CIF has been generated from an entry in the Cambridge
# Structural Database, then it will include bibliographic, chemical,
# crystal, experimental, refinement or atomic coordinate data resulting
# from the CCDC's data processing and validation procedures.
#
#######################################################################

data_CSD_CIF_RUWYOA
_audit_creation_date 2020-09-16
_audit_creation_method CSD-ConQuest-V1
_database_code_CSD RUWYOA
_database_code_depnum_ccdc_archive 'CCDC 1882086'
_chemical_formula_sum 'C19 H59 K2 N3 O50 P1 Tm1 W11'
_chemical_formula_moiety
;
(C7 H17 K2 O47 P1 Tm1 W11 3-)n,3(C4 H12 N1 1+),3(H2 O1)
;
_journal_coden_Cambridge 315
_journal_volume 223
_journal_year 2019
_journal_page_first 117294
_journal_name_full 'Spectrochim.Acta,Part A '
loop_
_publ_author_name
"Hechen Wu"
"Minna Zhi"
"Hanhan Chen"
"Vikram Singh"
"Pengtao Ma"
"Jingping Wang"
"Jingyang Niu"
_chemical_name_systematic
;
catena-[tris(tetramethylammonium) 
(\m-phosphato)-octacosakis(\m-oxido)-(\m-benzoato)-hexa-aqua-hepta-oxo-thulium
-undeca-tungsten-di-potassium trihydrate]
;
_cell_volume   3263.278
_exptl_crystal_colour 'colorless'
_exptl_crystal_density_diffrn 3.472
_exptl_crystal_description 'block'
_diffrn_ambient_temperature 296.1
#These two values have been output from a single CSD field.
_refine_ls_R_factor_gt 0.0638
_refine_ls_wR_factor_gt 0.0638
_symmetry_cell_setting triclinic
_symmetry_space_group_name_H-M 'P -1'
_symmetry_Int_Tables_number 2
loop_
_symmetry_equiv_pos_site_id
_symmetry_equiv_pos_as_xyz
1 x,y,z
2 -x,-y,-z
_cell_length_a 12.8403(14)
_cell_length_b 13.4246(15)
_cell_length_c 19.981(2)
_cell_angle_alpha 83.917(2)
_cell_angle_beta 78.657(2)
_cell_angle_gamma 75.480(2)
_cell_formula_units_Z 2
loop_
_atom_type_symbol
_atom_type_radius_bond
C 0.68
H 0.23
K 2.03
N 0.68
O 0.68
P 1.05
Tm 1.90
W 1.62
loop_
_atom_site_label
_atom_site_type_symbol
_atom_site_fract_x
_atom_site_fract_y
_atom_site_fract_z
W1 W 0.50394(6) 0.94362(6) 0.81712(4)
W2 W 0.46662(5) 0.85454(6) 0.67011(4)
W3 W 0.45698(6) 0.70294(6) 0.82446(4)
W4 W 0.66921(6) 0.49269(6) 0.73719(4)
W5 W 0.67539(6) 0.64870(5) 0.58619(4)
W6 W 0.91177(6) 0.54177(5) 0.65036(4)
W7 W 0.71581(6) 0.59704(6) 0.89115(4)
W8 W 0.95868(6) 0.64578(6) 0.80175(4)
W9 W 0.76180(6) 0.84074(6) 0.88159(4)
W10 W 0.95620(5) 0.80863(5) 0.63628(4)
W11 W 0.76021(6) 0.99886(5) 0.71403(4)
Tm1 Tm 0.71685(6) 0.93170(6) 0.54286(4)
P1 P 0.7166(3) 0.7491(3) 0.7332(2)
K1 K 1.0472(4) 0.2971(4) 0.5279(3)
K2 K 0.8060(6) 0.4439(7) 1.0713(4)
O1 O 0.4210(11) 1.0476(11) 0.8609(8)
O2 O 0.3535(10) 0.8901(9) 0.6308(7)
O3 O 0.3524(11) 0.660(1) 0.8746(8)
O4 O 0.6366(12) 0.3754(11) 0.7562(9)
O5 O 0.6391(11) 0.6192(11) 0.5166(8)
O6 O 1.0248(10) 0.4523(9) 0.6136(7)
O7 O 0.6979(11) 0.5175(10) 0.9623(8)
O8 O 1.0866(11) 0.5967(10) 0.8206(8)
O9 O 0.7719(12) 0.9091(11) 0.9467(9)
O10 O 1.0932(10) 0.8049(9) 0.6053(7)
O11 O 0.7732(11) 1.1167(11) 0.7320(8)
O12 O 0.8226(9) 0.4507(8) 0.6983(7)
O13 O 0.7273(9) 1.0258(9) 0.6294(7)
O14 O 0.9484(10) 0.5554(9) 0.7361(7)
O15 O 0.6381(10) 0.5278(9) 0.6488(7)
O16 O 0.7269(10) 0.7589(10) 0.5617(7)
O17 O 0.5365(9) 0.5854(9) 0.7752(7)
O18 O 0.9061(10) 0.7534(9) 0.8660(7)
O19 O 0.5614(10) 0.9174(9) 0.6188(7)
O20 O 0.4311(10) 0.8386(9) 0.8569(7)
O21 O 0.5699(10) 0.6608(9) 0.8798(7)
O22 O 0.4002(9) 0.7652(9) 0.7479(7)
O23 O 0.7202(11) 0.7185(10) 0.9332(8)
O24 O 0.6103(10) 0.888(1) 0.8749(8)
O25 O 0.7935(10) 0.9227(9) 0.8041(7)
O26 O 0.5396(9) 0.7235(9) 0.6333(7)
O27 O 0.4303(10) 0.9517(9) 0.7430(7)
O28 O 0.8724(10) 0.5679(10) 0.8689(8)
O29 O 0.9784(9) 0.7398(9) 0.7303(7)
O30 O 0.8942(9) 0.8606(9) 0.5638(7)
O31 O 0.9133(9) 0.9382(9) 0.6804(7)
O32 O 0.6123(9) 1.0012(9) 0.7594(7)
O33 O 0.7211(10) 0.5129(10) 0.8195(7)
O34 O 0.9508(9) 0.6698(9) 0.6223(7)
O35 O 0.8254(10) 0.5600(9) 0.5795(7)
O36 O 0.5929(9) 0.7934(8) 0.7528(6)
O37 O 0.7371(9) 0.6521(8) 0.6948(6)
O38 O 0.7636(9) 0.7185(9) 0.7986(7)
O39 O 0.7699(9) 0.8276(8) 0.6914(6)
O40 O 0.6154(11) 0.8982(10) 0.4594(8)
O41 O 0.7957(11) 0.8584(10) 0.4319(8)
C1 C 0.7050(15) 0.8568(15) 0.4177(11)
C2 C 0.6940(16) 0.8093(15) 0.3561(12)
C3 C 0.5983(17) 0.8246(16) 0.3350(12)
H1 H 0.53630 0.86497 0.36013
C4 C 0.588(2) 0.781(2) 0.2750(16)
H2 H 0.52127 0.79104 0.26078
C5 C 0.684(2) 0.723(2) 0.2391(18)
H3 H 0.68332 0.69677 0.19789
C6 C 0.782(2) 0.702(2) 0.2637(16)
H4 H 0.84269 0.65667 0.24143
C7 C 0.7899(18) 0.7472(16) 0.3202(13)
H5 H 0.85671 0.73716 0.33444
O42 O 0.8295(12) 1.0409(11) 0.4820(9)
O43 O 0.5989(11) 1.0928(10) 0.5157(8)
O44 O 0.9621(14) 0.0986(13) 0.5702(10)
O45 O 0.8311(16) 0.3542(15) 0.5472(12)
O46 O 0.950(4) 0.271(3) 1.033(3)
O47 O 0.752(4) 0.678(4) 1.059(3)
N1 N 0.3265(9) 0.5614(9) 0.6188(7)
C8 C 0.2218(11) 0.5327(14) 0.6154(11)
H6 H 0.16472 0.59421 0.61319
H7 H 0.23160 0.49524 0.57542
H8 H 0.20219 0.49052 0.65546
C9 C 0.4157(13) 0.4659(12) 0.6222(11)
H9 H 0.42535 0.42813 0.58236
H10 H 0.48247 0.48447 0.62409
H11 H 0.39642 0.42378 0.66242
C10 C 0.3110(19) 0.6207(17) 0.6809(10)
H12 H 0.25365 0.68189 0.67853
H13 H 0.29163 0.57869 0.72117
H14 H 0.37769 0.63937 0.68284
C11 C 0.3564(17) 0.6282(15) 0.5560(9)
H15 H 0.29896 0.68937 0.55395
H16 H 0.42309 0.64693 0.55804
H17 H 0.36638 0.59082 0.51589
N2 N 1.1057(14) 0.9846(14) 0.7980(11)
C12 C 0.9886(16) 1.024(2) 0.8305(17)
H18 H 0.94291 0.99191 0.81142
H19 H 0.98031 1.00745 0.87892
H20 H 0.96765 1.09720 0.82195
C13 C 1.137(3) 0.8704(15) 0.810(2)
H21 H 1.08955 0.84020 0.79085
H22 H 1.21107 0.84476 0.78836
H23 H 1.12930 0.85272 0.85815
C14 C 1.178(2) 1.033(3) 0.827(2)
H24 H 1.15653 1.10686 0.81903
H25 H 1.17040 1.01638 0.87543
H26 H 1.25217 1.00842 0.80564
C15 C 1.117(3) 1.012(3) 0.7223(11)
H27 H 1.07055 0.98089 0.70331
H28 H 1.09553 1.08574 0.71464
H29 H 1.19142 0.98762 0.70077
N3 N 0.6158(16) 0.2155(15) 0.9399(11)
C16 C 0.536(2) 0.157(2) 0.9799(15)
H30 H 0.57010 0.08496 0.98135
H31 H 0.51439 0.18005 1.02565
H32 H 0.47314 0.16974 0.95847
C17 C 0.655(3) 0.179(2) 0.8692(12)
H33 H 0.68726 0.10597 0.87170
H34 H 0.59403 0.19162 0.84551
H35 H 0.70806 0.21458 0.84492
C18 C 0.565(3) 0.3286(15) 0.937(2)
H36 H 0.54028 0.35139 0.98252
H37 H 0.61799 0.36498 0.91286
H38 H 0.50396 0.34202 0.91345
C19 C 0.713(3) 0.197(3) 0.976(2)
H39 H 0.74650 0.12410 0.97782
H40 H 0.76494 0.23331 0.95046
H41 H 0.68916 0.22013 1.02098
O48 O 0.6596(17) 1.2559(17) 0.6069(13)
O49 O 0.9234(18) 0.2449(17) 0.7022(13)
O50 O 0.914(2) 0.329(2) 0.8336(17)
K1A K 0.9528(4) 0.7029(4) 0.4721(3)
K2A K 0.1940(6) 0.5561(7) 0.9287(4)
K2A* K 1.1940(6) 0.5561(7) 0.9287(4)
O3A O 0.6476(11) 0.340(1) 1.1254(8)
O8A O 0.9134(11) 0.4033(10) 1.1794(8)
O16A O 1.2731(10) 0.2411(10) 0.4383(7)
O30A O 1.1058(9) 0.1394(9) 0.4362(7)
O34A O 1.0492(9) 0.3302(9) 0.3777(7)
O35A O 1.1746(10) 0.4400(9) 0.4205(7)
O41A O 1.2043(11) 0.1416(10) 0.5681(8)
#END
