
#######################################################################
#
#                 Cambridge Crystallographic Data Centre
#                                CCDC
#
#######################################################################
#
# If this CIF has been generated from an entry in the Cambridge
# Structural Database, then it will include bibliographic, chemical,
# crystal, experimental, refinement or atomic coordinate data resulting
# from the CCDC's data processing and validation procedures.
#
#######################################################################

data_CSD_CIF_RUWYIU
_audit_creation_date 2020-09-16
_audit_creation_method CSD-ConQuest-V1
_database_code_CSD RUWYIU
_database_code_depnum_ccdc_archive 'CCDC 1882085'
_chemical_formula_sum 'C19 H59 K2 N3 O50 P1 Tb1 W11'
_chemical_formula_moiety
;
(C7 H17 K2 O47 P1 Tb1 W11 3-)n,3(C4 H12 N1 1+),3(H2 O1)
;
_journal_coden_Cambridge 315
_journal_volume 223
_journal_year 2019
_journal_page_first 117294
_journal_name_full 'Spectrochim.Acta,Part A '
loop_
_publ_author_name
"Hechen Wu"
"Minna Zhi"
"Hanhan Chen"
"Vikram Singh"
"Pengtao Ma"
"Jingping Wang"
"Jingyang Niu"
_chemical_name_systematic
;
catena-[tris(tetramethylammonium) 
(\m-phosphato)-octacosakis(\m-oxido)-(\m-benzoato)-hexa-aqua-hepta-oxo-terbium
-undeca-tungsten-di-potassium trihydrate]
;
_cell_volume   3316.776
_exptl_crystal_colour 'colorless'
_exptl_crystal_density_diffrn 3.406
_exptl_crystal_description 'block'
_diffrn_ambient_temperature 296.1
#These two values have been output from a single CSD field.
_refine_ls_R_factor_gt 0.0682
_refine_ls_wR_factor_gt 0.0682
_symmetry_cell_setting triclinic
_symmetry_space_group_name_H-M 'P -1'
_symmetry_Int_Tables_number 2
loop_
_symmetry_equiv_pos_site_id
_symmetry_equiv_pos_as_xyz
1 x,y,z
2 -x,-y,-z
_cell_length_a 12.921(3)
_cell_length_b 13.504(3)
_cell_length_c 20.156(4)
_cell_angle_alpha 82.918(4)
_cell_angle_beta 78.077(4)
_cell_angle_gamma 75.141(3)
_cell_formula_units_Z 2
loop_
_atom_type_symbol
_atom_type_radius_bond
C 0.68
H 0.23
K 2.03
N 0.68
O 0.68
P 1.05
Tb 1.94
W 1.62
loop_
_atom_site_label
_atom_site_type_symbol
_atom_site_fract_x
_atom_site_fract_y
_atom_site_fract_z
W1 W 0.50428(8) 0.93249(9) 0.81460(5)
W2 W 0.46774(7) 0.84645(8) 0.66944(5)
W3 W 0.46017(8) 0.69272(9) 0.82277(5)
W4 W 0.67305(8) 0.48624(9) 0.73529(5)
W5 W 0.67753(7) 0.64414(8) 0.58525(5)
W6 W 0.91309(7) 0.53851(8) 0.64839(5)
W7 W 0.71791(8) 0.58657(9) 0.88797(5)
W8 W 0.95824(8) 0.63820(9) 0.79879(5)
W9 W 0.76070(8) 0.82928(9) 0.87808(5)
W10 W 0.95521(7) 0.80456(8) 0.63479(5)
W11 W 0.75828(8) 0.99214(8) 0.71242(5)
Tb1 Tb 0.71641(9) 0.93011(10) 0.54111(6)
P1 P 0.7170(4) 0.7414(5) 0.7317(3)
K1 K 1.0478(6) 0.2964(6) 0.5283(4)
K2 K 0.8063(7) 0.4504(8) 1.0735(4)
O1 O 0.4258(12) 1.0346(14) 0.8590(9)
O2 O 0.3575(13) 0.8841(14) 0.6287(9)
O3 O 0.3552(14) 0.6497(15) 0.8729(10)
O4 O 0.6425(15) 0.3690(17) 0.7511(11)
O5 O 0.6423(13) 0.6137(14) 0.5169(9)
O6 O 1.0233(13) 0.4525(14) 0.6110(9)
O7 O 0.7032(13) 0.5059(14) 0.9582(9)
O8 O 1.0870(13) 0.5847(14) 0.8133(9)
O9 O 0.7690(15) 0.8946(16) 0.9433(10)
O10 O 1.0898(12) 0.8006(13) 0.6060(8)
O11 O 0.7697(13) 1.1073(14) 0.7333(9)
O12 O 0.8260(12) 0.4486(13) 0.6953(8)
O13 O 0.7237(12) 1.0223(13) 0.6303(8)
O14 O 0.9490(12) 0.5526(13) 0.7342(8)
O15 O 0.6424(13) 0.5255(14) 0.6477(9)
O16 O 0.7257(12) 0.7570(14) 0.5575(9)
O17 O 0.5413(14) 0.5780(15) 0.7731(9)
O18 O 0.9079(11) 0.7452(13) 0.8625(8)
O19 O 0.5594(13) 0.9135(14) 0.6184(9)
O20 O 0.4345(11) 0.8263(12) 0.8562(8)
O21 O 0.5762(12) 0.6482(13) 0.8787(8)
O22 O 0.4031(12) 0.7561(13) 0.7463(8)
O23 O 0.7218(12) 0.7117(13) 0.9286(8)
O24 O 0.6110(13) 0.8764(14) 0.8712(9)
O25 O 0.7909(12) 0.9119(13) 0.8031(8)
O26 O 0.5420(12) 0.7178(13) 0.6336(8)
O27 O 0.4294(12) 0.9392(13) 0.7399(8)
O28 O 0.8753(12) 0.5569(13) 0.8661(8)
O29 O 0.9745(11) 0.7332(13) 0.7286(8)
O30 O 0.8918(11) 0.8560(12) 0.5635(8)
O31 O 0.9131(11) 0.9296(12) 0.6796(8)
O32 O 0.6124(12) 0.9893(13) 0.7576(8)
O33 O 0.7253(12) 0.5037(13) 0.8166(8)
O34 O 0.9513(12) 0.6673(13) 0.6197(8)
O35 O 0.8275(11) 0.5631(12) 0.5790(8)
O36 O 0.5945(11) 0.7853(12) 0.7488(7)
O37 O 0.7382(11) 0.6456(13) 0.6924(8)
O38 O 0.7652(11) 0.7093(12) 0.7985(8)
O39 O 0.7708(11) 0.8230(12) 0.6883(7)
O40 O 0.6178(13) 0.9001(14) 0.4566(9)
O41 O 0.7948(14) 0.8577(15) 0.4300(9)
C1 C 0.703(2) 0.862(2) 0.4167(13)
C2 C 0.6970(19) 0.814(2) 0.3545(13)
C3 C 0.606(2) 0.830(2) 0.3308(15)
H1 H 0.54625 0.87650 0.35304
C4 C 0.588(3) 0.785(3) 0.2762(17)
H2 H 0.51908 0.79444 0.26543
C5 C 0.681(2) 0.727(2) 0.2399(17)
H3 H 0.67759 0.70055 0.20031
C6 C 0.777(2) 0.708(3) 0.2608(16)
H4 H 0.83872 0.66695 0.23607
C7 C 0.786(2) 0.748(2) 0.3169(16)
H5 H 0.85334 0.73157 0.33106
O42 O 0.8376(15) 1.0416(16) 0.4788(10)
O43 O 0.5970(12) 1.0963(13) 0.5125(8)
O44 O 0.9584(17) 0.0939(18) 0.5687(12)
O45 O 0.8298(18) 0.3533(19) 0.5473(12)
O46 O 0.949(3) 0.265(3) 1.0442(19)
O47 O 0.750(3) 0.668(3) 1.064(2)
N1 N 0.3291(12) 0.5543(12) 0.6204(8)
C8 C 0.2256(14) 0.5275(19) 0.6144(13)
H6 H 0.23657 0.49468 0.57303
H7 H 0.20563 0.48172 0.65249
H8 H 0.16847 0.58903 0.61381
C9 C 0.4190(15) 0.4590(14) 0.6211(13)
H9 H 0.42991 0.42603 0.57978
H10 H 0.48485 0.47689 0.62455
H11 H 0.39983 0.41311 0.65927
C10 C 0.312(2) 0.606(2) 0.6848(11)
H12 H 0.25468 0.66666 0.68449
H13 H 0.29324 0.55948 0.72297
H14 H 0.37826 0.62327 0.68824
C11 C 0.3592(18) 0.6261(16) 0.5606(11)
H15 H 0.36989 0.59309 0.51931
H16 H 0.30167 0.68730 0.56018
H17 H 0.42518 0.64370 0.56401
N2 N 1.1026(14) 0.9730(15) 0.7893(10)
C12 C 0.9882(15) 1.005(2) 0.8265(14)
H18 H 0.94182 0.97497 0.80792
H19 H 0.98510 0.98277 0.87378
H20 H 0.96401 1.07874 0.82169
C13 C 1.139(3) 0.8585(15) 0.795(2)
H21 H 1.09186 0.82962 0.77659
H22 H 1.21236 0.83785 0.77046
H23 H 1.13729 0.83459 0.84214
C14 C 1.175(2) 1.020(3) 0.8178(19)
H24 H 1.15045 1.09310 0.81362
H25 H 1.17318 0.99627 0.86484
H26 H 1.24825 0.99953 0.79316
C15 C 1.106(3) 1.009(3) 0.7155(11)
H27 H 1.05974 0.97905 0.69702
H28 H 1.08218 1.08252 0.71114
H29 H 1.17975 0.98852 0.69122
N3 N 0.6116(19) 0.2100(19) 0.9385(13)
C16 C 0.527(4) 0.157(4) 0.979(2)
H30 H 0.55624 0.08393 0.97925
H31 H 0.50806 0.17771 1.02420
H32 H 0.46391 0.17518 0.95775
C17 C 0.644(4) 0.176(4) 0.8677(16)
H33 H 0.67281 0.10295 0.86934
H34 H 0.58214 0.19407 0.84583
H35 H 0.69938 0.20933 0.84260
C18 C 0.567(4) 0.3237(19) 0.937(3)
H36 H 0.54643 0.34444 0.98287
H37 H 0.62183 0.35751 0.91229
H38 H 0.50458 0.34225 0.91552
C19 C 0.710(3) 0.181(5) 0.972(3)
H39 H 0.73868 0.10846 0.97309
H40 H 0.76433 0.21541 0.94706
H41 H 0.68936 0.20239 1.01781
O48 O 0.663(2) 1.251(2) 0.6037(14)
O49 O 0.922(2) 0.237(2) 0.7001(15)
O50 O 0.922(3) 0.317(3) 0.8217(18)
K1A K 0.9522(6) 0.7036(6) 0.4717(4)
K2A K 0.1937(7) 0.5496(8) 0.9265(4)
K2A* K 1.1937(7) 0.5496(8) 0.9265(4)
O3A O 0.6448(14) 0.3503(15) 1.1271(10)
O8A O 0.9130(13) 0.4153(14) 1.1867(9)
O16A O 1.2743(12) 0.2430(14) 0.4425(9)
O30A O 1.1082(11) 0.1440(12) 0.4365(8)
O34A O 1.0487(12) 0.3327(13) 0.3803(8)
O35A O 1.1725(11) 0.4369(12) 0.4210(8)
O41A O 1.2052(14) 0.1423(15) 0.5700(9)
#END
