
#######################################################################
#
#                 Cambridge Crystallographic Data Centre
#                                CCDC
#
#######################################################################
#
# If this CIF has been generated from an entry in the Cambridge
# Structural Database, then it will include bibliographic, chemical,
# crystal, experimental, refinement or atomic coordinate data resulting
# from the CCDC's data processing and validation procedures.
#
#######################################################################

data_CSD_CIF_RUWYEQ
_audit_creation_date 2020-09-16
_audit_creation_method CSD-ConQuest-V1
_database_code_CSD RUWYEQ
_database_code_depnum_ccdc_archive 'CCDC 1882084'
_chemical_formula_sum 'C19 H59 Eu1 K2 N3 O50 P1 W11'
_chemical_formula_moiety
;
(C7 H15 Eu1 K2 O46 P1 W11 3-)n,3(C4 H12 N1 1+),4(H2 O1)
;
_journal_coden_Cambridge 315
_journal_volume 223
_journal_year 2019
_journal_page_first 117294
_journal_name_full 'Spectrochim.Acta,Part A '
loop_
_publ_author_name
"Hechen Wu"
"Minna Zhi"
"Hanhan Chen"
"Vikram Singh"
"Pengtao Ma"
"Jingping Wang"
"Jingyang Niu"
_chemical_name_systematic
;
catena-[tris(tetramethylammonium) 
(\m-phosphato)-octacosakis(\m-oxido)-(\m-benzoato)-penta-aqua-hepta-oxo-europi
um-undeca-tungsten-di-potassium tetrahydrate]
;
_cell_volume   3334.700
_exptl_crystal_colour 'colorless'
_exptl_crystal_density_diffrn 3.381
_exptl_crystal_description 'block'
_diffrn_ambient_temperature 296.1
#These two values have been output from a single CSD field.
_refine_ls_R_factor_gt 0.0422
_refine_ls_wR_factor_gt 0.0422
_symmetry_cell_setting triclinic
_symmetry_space_group_name_H-M 'P -1'
_symmetry_Int_Tables_number 2
loop_
_symmetry_equiv_pos_site_id
_symmetry_equiv_pos_as_xyz
1 x,y,z
2 -x,-y,-z
_cell_length_a 12.9454(14)
_cell_length_b 13.5128(14)
_cell_length_c 20.206(2)
_cell_angle_alpha 82.9783(18)
_cell_angle_beta 78.1714(18)
_cell_angle_gamma 75.1355(18)
_cell_formula_units_Z 2
loop_
_atom_type_symbol
_atom_type_radius_bond
C 0.68
H 0.23
Eu 1.98
K 2.03
N 0.68
O 0.68
P 1.05
W 1.62
loop_
_atom_site_label
_atom_site_type_symbol
_atom_site_fract_x
_atom_site_fract_y
_atom_site_fract_z
W1 W 0.50486(4) 0.93141(5) 0.81484(3)
W2 W 0.46770(4) 0.84563(4) 0.67003(3)
W3 W 0.46071(4) 0.69167(5) 0.82293(3)
W4 W 0.67365(4) 0.48533(4) 0.73539(3)
W5 W 0.67770(4) 0.64333(4) 0.58556(3)
W6 W 0.91320(4) 0.53805(4) 0.64863(3)
W7 W 0.71863(5) 0.58541(5) 0.88791(3)
W8 W 0.95847(4) 0.63740(4) 0.79887(3)
W9 W 0.76096(5) 0.82840(5) 0.87828(3)
W10 W 0.95551(4) 0.80401(4) 0.63541(3)
W11 W 0.75878(4) 0.99170(4) 0.71334(3)
Eu1 Eu 0.71657(5) 0.93070(5) 0.54107(3)
P1 P 0.7182(3) 0.7413(3) 0.73117(16)
K1 K 1.0466(3) 0.2967(3) 0.5282(2)
K2 K 0.8068(4) 0.4483(4) 1.0730(2)
O1 O 0.4265(8) 1.0322(8) 0.8589(5)
O2 O 0.3554(7) 0.8797(7) 0.6315(5)
O3 O 0.3573(8) 0.6464(8) 0.8730(5)
O4 O 0.6426(8) 0.3681(8) 0.7541(5)
O5 O 0.6418(8) 0.6114(8) 0.5158(5)
O6 O 1.0256(7) 0.4521(7) 0.6119(5)
O7 O 0.7007(8) 0.5040(8) 0.9601(5)
O8 O 1.0873(8) 0.5868(8) 0.8159(5)
O9 O 0.7702(8) 0.8962(8) 0.9431(5)
O10 O 1.0900(7) 0.8009(7) 0.6067(5)
O11 O 0.7716(8) 1.1070(8) 0.7336(5)
O12 O 0.8257(7) 0.4458(7) 0.6953(5)
O13 O 0.7261(7) 1.0214(7) 0.6306(5)
O14 O 0.9478(7) 0.5500(7) 0.7345(4)
O15 O 0.6445(7) 0.5213(7) 0.6498(5)
O16 O 0.7272(7) 0.7552(7) 0.5583(5)
O17 O 0.5422(7) 0.5756(7) 0.7731(5)
O18 O 0.9059(7) 0.7424(7) 0.8624(5)
O19 O 0.5606(7) 0.9108(7) 0.6186(5)
O20 O 0.4348(7) 0.8233(7) 0.8568(5)
O21 O 0.5736(7) 0.6484(7) 0.8772(5)
O22 O 0.4041(7) 0.7550(7) 0.7482(5)
O23 O 0.7217(7) 0.7052(7) 0.9282(5)
O24 O 0.6109(7) 0.8743(7) 0.8715(5)
O25 O 0.7904(7) 0.9124(7) 0.8020(5)
O26 O 0.5430(7) 0.7179(7) 0.6339(5)
O27 O 0.4317(7) 0.9382(7) 0.7419(5)
O28 O 0.8750(7) 0.5591(7) 0.8652(5)
O29 O 0.9747(7) 0.7351(7) 0.7287(4)
O30 O 0.8955(7) 0.8564(7) 0.5636(4)
O31 O 0.9112(6) 0.9289(6) 0.6799(4)
O32 O 0.6132(7) 0.9892(7) 0.7583(4)
O33 O 0.7218(7) 0.5043(7) 0.8166(5)
O34 O 0.9494(6) 0.6654(6) 0.6209(4)
O35 O 0.8274(6) 0.5593(6) 0.5793(4)
O36 O 0.5940(7) 0.7848(7) 0.7504(4)
O37 O 0.7374(6) 0.6463(6) 0.6927(4)
O38 O 0.7656(7) 0.7099(7) 0.7975(4)
O39 O 0.7705(6) 0.8225(6) 0.6883(4)
O40 O 0.6160(8) 0.9004(7) 0.4562(5)
O41 O 0.7943(8) 0.8562(8) 0.4284(5)
C1 C 0.7035(12) 0.8598(12) 0.4158(8)
C2 C 0.6930(12) 0.8120(12) 0.3539(8)
C3 C 0.5977(14) 0.8301(13) 0.3317(9)
H1 H 0.53645 0.87243 0.35553
C4 C 0.5878(15) 0.7878(14) 0.2746(9)
H2 H 0.52168 0.80028 0.26009
C5 C 0.6802(16) 0.7268(15) 0.2409(10)
H3 H 0.67730 0.69806 0.20196
C6 C 0.7761(15) 0.7074(15) 0.263(1)
H4 H 0.83685 0.66393 0.23967
C7 C 0.7859(13) 0.7492(12) 0.3177(8)
H5 H 0.85274 0.73680 0.33130
O42 O 0.8362(10) 1.0427(9) 0.4797(6)
O43 O 0.5971(7) 1.0973(7) 0.5135(5)
O44 O 0.962(1) 0.0984(10) 0.5686(7)
O45 O 0.8305(11) 0.3542(11) 0.5488(7)
O46 O 0.9429(17) 0.2648(17) 1.0491(11)
N1 N 0.3276(8) 0.5550(8) 0.6189(5)
C8 C 0.2229(9) 0.5283(12) 0.6159(8)
H6 H 0.23150 0.49423 0.57544
H7 H 0.20444 0.48362 0.65486
H8 H 0.16608 0.58990 0.61553
C9 C 0.4177(11) 0.4592(10) 0.6187(9)
H9 H 0.42627 0.42570 0.57804
H10 H 0.48417 0.47697 0.62059
H11 H 0.40003 0.41384 0.65745
C10 C 0.3134(14) 0.6081(13) 0.6822(7)
H12 H 0.37997 0.62539 0.68444
H13 H 0.25637 0.66955 0.68169
H14 H 0.29473 0.56327 0.72102
C11 C 0.3566(13) 0.6247(11) 0.5576(7)
H15 H 0.36554 0.59019 0.51728
H16 H 0.29946 0.68611 0.55692
H17 H 0.42315 0.64228 0.55953
N2 N 1.1037(9) 0.9735(9) 0.7884(6)
C12 C 0.9892(10) 1.0086(14) 0.8244(9)
H18 H 0.94217 0.98065 0.80485
H19 H 0.98430 0.98545 0.87153
H20 H 0.96753 1.08220 0.81993
C13 C 1.1365(17) 0.8591(10) 0.7913(12)
H21 H 1.08734 0.83399 0.77179
H22 H 1.20893 0.83747 0.76634
H23 H 1.13419 0.83228 0.83769
C14 C 1.1775(16) 1.0161(19) 0.8181(11)
H24 H 1.15430 1.08970 0.81546
H25 H 1.17554 0.99054 0.86469
H26 H 1.25029 0.99574 0.79335
C15 C 1.1113(16) 1.0117(16) 0.7147(7)
H27 H 1.06404 0.98477 0.69469
H28 H 1.08999 1.08534 0.71101
H29 H 1.18481 0.98929 0.69138
N3 N 0.6102(13) 0.2117(13) 0.9375(8)
C16 C 0.536(2) 0.151(2) 0.9784(13)
H30 H 0.51184 0.17443 1.02316
H31 H 0.47369 0.15873 0.95720
H32 H 0.57302 0.07954 0.98126
C17 C 0.648(2) 0.176(2) 0.8679(10)
H33 H 0.69591 0.21600 0.84201
H34 H 0.68568 0.10497 0.87039
H35 H 0.58635 0.18416 0.84633
C18 C 0.555(3) 0.3229(14) 0.9352(17)
H36 H 0.60450 0.36132 0.90865
H37 H 0.49201 0.33416 0.91504
H38 H 0.53455 0.34503 0.98042
C19 C 0.708(2) 0.195(3) 0.9709(17)
H39 H 0.75694 0.23396 0.94514
H40 H 0.68469 0.21730 1.01604
H41 H 0.74359 0.12349 0.97268
O47 O 0.6622(13) 1.2556(13) 0.6072(9)
O48 O 0.9208(11) 0.2344(11) 0.6979(7)
O49 O 0.9238(14) 0.3177(14) 0.8239(9)
O50 O 0.7708(17) 0.8492(17) 1.0809(11)
K1A K 0.9534(3) 0.7033(3) 0.4718(2)
K2A K 0.1932(4) 0.5517(4) 0.9270(2)
K2A* K 1.1932(4) 0.5517(4) 0.9270(2)
O3A O 0.6427(8) 0.3536(8) 1.1270(5)
O8A O 0.9127(8) 0.4132(8) 1.1841(5)
O16A O 1.2728(7) 0.2448(7) 0.4417(5)
O30A O 1.1045(7) 0.1436(7) 0.4364(4)
O34A O 1.0506(6) 0.3346(6) 0.3791(4)
O35A O 1.1726(6) 0.4407(6) 0.4207(4)
O41A O 1.2057(8) 0.1438(8) 0.5716(5)
#END
