
#######################################################################
#
#                 Cambridge Crystallographic Data Centre
#                                CCDC
#
#######################################################################
#
# If this CIF has been generated from an entry in the Cambridge
# Structural Database, then it will include bibliographic, chemical,
# crystal, experimental, refinement or atomic coordinate data resulting
# from the CCDC's data processing and validation procedures.
#
#######################################################################

data_CSD_CIF_RUYGEA
_audit_creation_date 2020-09-17
_audit_creation_method CSD-ConQuest-V1
_database_code_CSD RUYGEA
_database_code_depnum_ccdc_archive 'CCDC 1047922'
_chemical_formula_sum 'C24 H28 Cu1 N8 O11'
_chemical_formula_moiety
;
(C14 H6 Cu1 N2 O8 2-)n,2(C5 H8 N3 1+),3(H2 O1)
;
_journal_coden_Cambridge 1078
_journal_year 2020
_journal_name_full 'CSD Communication(Private Communication) '
loop_
_publ_author_name
"J.Baruah"
"K.Shankar"
_chemical_name_systematic
;
catena-[bis(2,3-diaminopyridin-1-ium) 
bis(\m-pyridine-2,3-dicarboxylato)-copper(ii) trihydrate]
;
_cell_volume   2700.773
_exptl_crystal_colour 'blue'
_exptl_crystal_density_diffrn 1.643
_exptl_crystal_description 'block'
_diffrn_ambient_temperature 296
#These two values have been output from a single CSD field.
_refine_ls_R_factor_gt 0.0496
_refine_ls_wR_factor_gt 0.0496
_symmetry_cell_setting monoclinic
_symmetry_space_group_name_H-M 'P 21/n'
_symmetry_Int_Tables_number 14
loop_
_symmetry_equiv_pos_site_id
_symmetry_equiv_pos_as_xyz
1 x,y,z
2 1/2-x,1/2+y,1/2-z
3 -x,-y,-z
4 -1/2+x,-1/2-y,-1/2+z
_cell_length_a 16.8200(8)
_cell_length_b 6.7100(3)
_cell_length_c 24.1462(10)
_cell_angle_alpha 90
_cell_angle_beta 97.676(5)
_cell_angle_gamma 90
_cell_formula_units_Z 4
loop_
_atom_type_symbol
_atom_type_radius_bond
C 0.68
H 0.23
Cu 1.32
N 0.68
O 0.68
loop_
_atom_site_label
_atom_site_type_symbol
_atom_site_fract_x
_atom_site_fract_y
_atom_site_fract_z
Cu1 Cu 0.39829(2) 0.21972(6) 0.625965(16)
O1 O 0.46223(12) 0.3861(3) 0.68296(8)
O2 O 0.33462(12) 0.0653(3) 0.56749(8)
N1 N 0.41749(14) 0.4397(3) 0.57614(10)
O3 O 0.52672(13) 1.0591(3) 0.61054(9)
O4 O 0.26500(13) -0.2149(3) 0.55240(9)
O5 O 0.62630(13) 0.8557(3) 0.59269(10)
O6 O 0.16312(13) -0.3871(3) 0.62923(10)
O7 O 0.25775(14) -0.6229(3) 0.6347(1)
N2 N 0.36996(15) 0.0012(4) 0.67437(10)
O8 O 0.53855(15) 0.6585(3) 0.69044(9)
C1 C 0.32211(17) -0.1376(4) 0.64581(12)
C2 C 0.49322(17) 0.7399(4) 0.57213(12)
C3 C 0.55412(19) 0.8976(5) 0.59543(12)
C4 C 0.46841(17) 0.5794(4) 0.60122(12)
C5 C 0.40911(18) 0.6149(4) 0.49066(13)
H1 H 0.38770 0.62690 0.45330
C6 C 0.46187(18) 0.7539(5) 0.51554(12)
H2 H 0.47720 0.85970 0.49440
C7 C 0.49258(18) 0.5414(5) 0.66308(12)
C8 C 0.30491(18) -0.0959(4) 0.58332(12)
C9 C 0.29302(17) -0.3011(4) 0.67260(12)
C10 C 0.38844(18) 0.4561(5) 0.52239(12)
H3 H 0.35360 0.35900 0.50580
C11 C 0.23347(19) -0.4501(5) 0.64224(12)
C12 C 0.36520(19) -0.1782(5) 0.75836(13)
H4 H 0.38070 -0.19040 0.79660
C13 C 0.39018(19) -0.0174(5) 0.72943(13)
H5 H 0.42180 0.08020 0.74880
C14 C 0.31690(19) -0.3204(5) 0.72966(13)
H6 H 0.30020 -0.43010 0.74860
O9 O 0.75044(17) 0.0803(4) 0.56064(13)
H7 H 0.738(2) 0.121(6) 0.5307(18)
H8 H 0.709(3) 0.028(6) 0.5696(18)
O10 O 0.5081(2) 0.4513(5) 0.80475(14)
H9 H 0.493(3) 0.435(7) 0.7723(19)
H10 H 0.467(3) 0.470(7) 0.815(2)
O11 O 0.8751(2) -0.0133(7) 0.36424(15)
H11 H 0.861(3) 0.095(8) 0.366(2)
H12 H 0.845(3) -0.080(8) 0.371(3)
N3 N 0.2626(2) 0.4892(6) 0.38306(14)
N4 N 0.12019(18) 0.5624(5) 0.25853(13)
N5 N 0.1557(2) 0.7827(5) 0.33155(17)
C15 C 0.16321(19) 0.6029(5) 0.30825(14)
C16 C 0.21661(19) 0.4530(5) 0.33276(14)
C17 C 0.2193(2) 0.2742(5) 0.30538(14)
H13 H 0.25350 0.17410 0.32100
C18 C 0.1230(2) 0.3868(6) 0.23072(16)
H14 H 0.09210 0.36790 0.19620
C19 C 0.1712(2) 0.2407(6) 0.25411(15)
H15 H 0.17270 0.11800 0.23630
H16 H 0.086(2) 0.664(6) 0.2416(18)
H17 H 0.303(3) 0.396(7) 0.3930(18)
H18 H 0.267(2) 0.604(6) 0.3938(17)
H19 H 0.185(3) 0.799(7) 0.365(2)
H20 H 0.111(3) 0.847(7) 0.317(2)
N6 N 0.88214(18) 0.4116(5) 0.48841(14)
N7 N 0.8177(2) 0.7156(6) 0.48269(15)
N8 N 0.9020(2) 0.8185(6) 0.58683(16)
C20 C 0.86865(19) 0.5866(5) 0.51162(14)
C21 C 0.9110(2) 0.6317(5) 0.56525(14)
C22 C 0.9633(2) 0.4926(6) 0.58979(16)
H21 H 0.99250 0.52040 0.62440
C23 C 0.9744(2) 0.3103(6) 0.56453(17)
H22 H 1.00950 0.21630 0.58240
C24 C 0.9334(2) 0.2714(6) 0.51343(17)
H23 H 0.94020 0.15070 0.49570
H24 H 0.857(3) 0.377(6) 0.4536(18)
H25 H 0.928(3) 0.839(6) 0.6172(18)
H26 H 0.856(2) 0.867(5) 0.5823(16)
H27 H 0.802(2) 0.823(6) 0.4994(17)
H28 H 0.793(2) 0.684(6) 0.4521(17)
Cu1* Cu 0.39829(2) -0.78028(6) 0.625965(16)
Cu1** Cu 0.39829(2) 1.21972(6) 0.625965(16)
O3* O 0.52672(13) 0.0591(3) 0.61054(9)
O7* O 0.25775(14) 0.3771(3) 0.6347(1)
#END
