
#######################################################################
#
#                 Cambridge Crystallographic Data Centre
#                                CCDC
#
#######################################################################
#
# If this CIF has been generated from an entry in the Cambridge
# Structural Database, then it will include bibliographic, chemical,
# crystal, experimental, refinement or atomic coordinate data resulting
# from the CCDC's data processing and validation procedures.
#
#######################################################################

data_CSD_CIF_RUZNUX
_audit_creation_date 2015-12-03
_audit_creation_method CSD-ConQuest-V1
_database_code_CSD RUZNUX
_database_code_depnum_ccdc_archive 'CCDC 1426675'
_chemical_formula_sum 'C114 H124 Gd2 N2 O47 P2 S8'
_chemical_formula_moiety
;
(C56 H47 Gd1 O36 S8 6-)n,2(C25 H22 O1 P1 1+),H16 Gd1 O8 3+,H2 O1,C8 H15 N2 1+
;
_journal_coden_Cambridge 1350
_journal_volume 18
_journal_year 2016
_journal_page_first 4929
_journal_name_full 'CrystEngComm '
loop_
_publ_author_name
"Irene Ling"
"A.N.Sobolev"
"C.L.Raston"
_chemical_name_systematic
;
catena-[bis((4-methoxyphenyl)(triphenyl)phosphonium) 
octa-aqua-gadolinium(iii) 3-butyl-1-methyl-1H-imidazol-3-ium 
(\m-5,11,17,23-tetra-sulfonate-25,26,27,28-tetrahydroxycalix(4)arene)-(\m-5,11
,17,23-tetra-sulfonate-25,26,27-trihydroxy-28-oxycalix(4)arene)-gadolinium 
monohydrate]
;
_cell_volume   6205.121
_exptl_crystal_colour 'colorless'
_exptl_crystal_density_diffrn 1.556
_exptl_crystal_description 'prism'
_diffrn_ambient_temperature 100
_refine_special_details
;
The structure is disordered.

;
#These two values have been output from a single CSD field.
_refine_ls_R_factor_gt 0.1027
_refine_ls_wR_factor_gt 0.1027
_symmetry_cell_setting orthorhombic
_symmetry_space_group_name_H-M 'P n n n'
_symmetry_Int_Tables_number 48
loop_
_symmetry_equiv_pos_site_id
_symmetry_equiv_pos_as_xyz
1 x,y,z
2 1/2-x,1/2-y,z
3 1/2-x,y,1/2-z
4 x,1/2-y,1/2-z
5 -x,-y,-z
6 -1/2+x,-1/2+y,-z
7 -1/2+x,-y,-1/2+z
8 -x,-1/2+y,-1/2+z
_cell_length_a 12.3714(3)
_cell_length_b 13.3655(2)
_cell_length_c 37.5272(6)
_cell_angle_alpha 90
_cell_angle_beta 90
_cell_angle_gamma 90
_cell_formula_units_Z 2
loop_
_atom_type_symbol
_atom_type_radius_bond
C 0.68
H 0.23
Gd 1.96
N 0.68
O 0.68
P 1.05
S 1.02
loop_
_atom_site_label
_atom_site_type_symbol
_atom_site_fract_x
_atom_site_fract_y
_atom_site_fract_z
Gd1 Gd 0.75000 0.25000 0.25000
O1 O 0.6189(10) 0.3659(8) 0.2698(3)
H1 H 0.576(10) 0.401(10) 0.2572(6)
H2 H 0.607(11) 0.385(11) 0.2911(7)
O2 O 0.3891(7) 0.1962(9) 0.4429(3)
H3 H 0.32660 0.17180 0.44220
C1 C 0.4441(8) 0.1688(11) 0.4132(3)
C2 C 0.5116(8) 0.2428(9) 0.3983(3)
C3 C 0.5746(8) 0.2168(8) 0.3693(3)
H4 H 0.62100 0.26490 0.35860
C4 C 0.5695(7) 0.1192(6) 0.3558(2)
C5 C 0.4997(8) 0.0503(8) 0.3704(3)
H5 H 0.49530 -0.01470 0.36020
C6 C 0.4367(8) 0.073(1) 0.3991(3)
S1 S 0.6520(2) 0.0848(2) 0.32014(8)
O3 O 0.6989(10) 0.1751(7) 0.3050(3)
O4 O 0.7334(8) 0.0150(9) 0.3342(3)
O5 O 0.5813(9) 0.0324(9) 0.2941(3)
C7 C 0.5194(9) 0.3503(10) 0.4114(4)
H6 H 0.59320 0.37540 0.40640
H7 H 0.50910 0.35080 0.43750
O6 O 0.3114(7) 0.3818(7) 0.4412(3)
C8 C 0.3344(10) 0.4315(10) 0.4113(4)
C9 C 0.2544(8) 0.4974(8) 0.3949(4)
C10 C 0.2778(10) 0.5468(11) 0.3644(4)
H8 H 0.22530 0.58910 0.35370
C11 C 0.3772(8) 0.5355(9) 0.3491(4)
C12 C 0.4542(11) 0.4759(10) 0.3643(4)
H9 H 0.52320 0.47140 0.35340
C13 C 0.4357(8) 0.4239(9) 0.3941(3)
S2 S 0.4067(4) 0.6010(4) 0.30995(16)
O7 O 0.4605(10) 0.6994(8) 0.3198(3)
O8 O 0.4841(10) 0.5419(10) 0.2875(3)
O9 O 0.3063(10) 0.6228(10) 0.2894(3)
C14 C 0.1425(11) 0.4996(10) 0.4146(4)
H10 H 0.15370 0.48370 0.44010
H11 H 0.11200 0.56800 0.41310
Gd2 Gd 0.75000 0.75000 0.25000
O10 O 0.5989(10) 0.8157(6) 0.2808(3)
H12 H 0.573(10) 0.873(5) 0.277(2)
H13 H 0.589(10) 0.807(9) 0.3030(9)
O11 O 0.6888(9) 0.6197(6) 0.2872(2)
H14 H 0.635(7) 0.583(8) 0.2817(16)
H15 H 0.684(11) 0.626(8) 0.3097(5)
O12 O 0.25000 0.75000 0.25000
P1 P 0.75000 0.25000 0.51142(7)
C15 C 0.6306(6) 0.2344(5) 0.53765(19)
C16 C 0.5429(6) 0.1877(6) 0.5224(2)
H16 H 0.54870 0.15970 0.49920
C17 C 0.4461(7) 0.1818(7) 0.5408(3)
H17 H 0.38530 0.15100 0.53000
C18 C 0.4373(8) 0.2204(7) 0.5750(3)
C19 C 0.524(1) 0.2696(7) 0.5908(3)
H18 H 0.51780 0.29750 0.61400
C20 C 0.6198(8) 0.2767(6) 0.5717(2)
H19 H 0.67950 0.31100 0.58200
C21 C 0.7301(5) 0.3595(5) 0.48447(19)
C22 C 0.6656(6) 0.4366(5) 0.49764(19)
H20 H 0.63070 0.42970 0.52010
C23 C 0.6525(7) 0.5236(5) 0.4778(2)
H21 H 0.60770 0.57570 0.48660
C24 C 0.7038(7) 0.5350(6) 0.4456(2)
H22 H 0.69440 0.59470 0.43230
C25 C 0.7695(6) 0.4588(6) 0.4326(2)
H23 H 0.80520 0.46690 0.41040
C26 C 0.7833(5) 0.3714(5) 0.45182(19)
H24 H 0.82850 0.31970 0.44290
C27 C 0.3379(19) 0.2503(19) 0.6319(5)
O13 O 0.3468(10) 0.2175(9) 0.5952(3)
O14? O 0.6517(10) 0.1743(7) 0.2962(3)
O15? O 0.7598(7) 0.0659(10) 0.3342(3)
O16? O 0.6018(10) 0.0000(7) 0.3024(3)
O17? O 0.400(3) 0.7109(8) 0.3162(5)
O18? O 0.5176(15) 0.573(2) 0.2971(6)
O19? O 0.326(2) 0.571(2) 0.2817(4)
H25? H 0.37140 0.21320 0.58780
C28? C 0.267(2) 0.226(2) 0.3395(7)
H26? H 0.34200 0.22720 0.34820
H27? H 0.24950 0.15890 0.33100
H28? H 0.21820 0.24480 0.35890
N1? N 0.2560(16) 0.2970(15) 0.3105(5)
C29? C 0.3276(16) 0.3085(15) 0.2836(5)
H29? H 0.39300 0.27240 0.28040
N2? N 0.2894(18) 0.3792(13) 0.2627(5)
C30? C 0.192(2) 0.4156(17) 0.2755(7)
H30? H 0.14770 0.46650 0.26540
C31? C 0.1722(16) 0.361(2) 0.3065(6)
H31? H 0.11160 0.36750 0.32180
C32? C 0.344(3) 0.415(2) 0.2298(6)
H32? H 0.42050 0.42860 0.23540
H33? H 0.31020 0.47900 0.22260
C33? C 0.3392(19) 0.344(3) 0.1988(6)
H34? H 0.39250 0.28970 0.20240
H35? H 0.35860 0.38010 0.17670
C34? C 0.228(2) 0.300(3) 0.1949(9)
H36? H 0.17410 0.35420 0.19450
H37? H 0.21270 0.25660 0.21570
C35? C 0.217(3) 0.238(4) 0.1608(9)
H38? H 0.14300 0.21150 0.15900
H39? H 0.26810 0.18160 0.16150
H40? H 0.23240 0.27970 0.14010
H41? H 0.27280 0.22130 0.64260
H42? H 0.33320 0.32340 0.63270
H43? H 0.40170 0.22820 0.64520
H44? H 0.216(10) 0.7111(7) 0.264(3)
H45? H 0.33510 0.32310 0.43970
O2A O 0.1109(7) 0.3038(9) 0.4429(3)
H3A H 0.17340 0.32820 0.44220
C1A C 0.0559(8) 0.3312(11) 0.4132(3)
C2A C -0.0116(8) 0.2572(9) 0.3983(3)
C3A C -0.0746(8) 0.2832(8) 0.3693(3)
H4A H -0.12100 0.23510 0.35860
C4A C -0.0695(7) 0.3808(6) 0.3558(2)
C5A C 0.0003(8) 0.4497(8) 0.3704(3)
H5A H 0.00470 0.51470 0.36020
C6A C 0.0633(8) 0.427(1) 0.3991(3)
S1A S -0.1520(2) 0.4152(2) 0.32014(8)
O3A O -0.1989(10) 0.3249(7) 0.3050(3)
O4A O -0.2334(8) 0.4850(9) 0.3342(3)
O5A O -0.0813(9) 0.4676(9) 0.2941(3)
C7A C -0.0194(9) 0.1497(10) 0.4114(4)
H6A H -0.09320 0.12460 0.40640
H7A H -0.00910 0.14920 0.43750
O6A O 0.1886(7) 0.1182(7) 0.4412(3)
C8A C 0.1656(10) 0.0685(10) 0.4113(4)
C9A C 0.2456(8) 0.0026(8) 0.3949(4)
C10A C 0.2222(10) -0.0468(11) 0.3644(4)
H8A H 0.27470 -0.08910 0.35370
C11A C 0.1228(8) -0.0355(9) 0.3491(4)
C12A C 0.0458(11) 0.0241(10) 0.3643(4)
H9A H -0.02320 0.02860 0.35340
C13A C 0.0643(8) 0.0761(9) 0.3941(3)
S2A S 0.0933(4) -0.1010(4) 0.30995(16)
O7A O 0.0395(10) -0.1994(8) 0.3198(3)
O8A O 0.0159(10) -0.0419(10) 0.2875(3)
O9A O 0.1937(10) -0.1228(10) 0.2894(3)
C14A C 0.3575(11) 0.0004(10) 0.4146(4)
H10A H 0.34630 0.01630 0.44010
H11A H 0.38800 -0.06800 0.41310
O2B O 0.1109(7) 0.1962(9) 0.0571(3)
H3B H 0.17340 0.17180 0.05780
C1B C 0.0559(8) 0.1688(11) 0.0868(3)
C2B C -0.0116(8) 0.2428(9) 0.1017(3)
C3B C -0.0746(8) 0.2168(8) 0.1307(3)
H4B H -0.12100 0.26490 0.14140
C4B C -0.0695(7) 0.1192(6) 0.1442(2)
C5B C 0.0003(8) 0.0503(8) 0.1296(3)
H5B H 0.00470 -0.01470 0.13980
C6B C 0.0633(8) 0.073(1) 0.1009(3)
S1B S -0.1520(2) 0.0848(2) 0.17986(8)
O3B O -0.1989(10) 0.1751(7) 0.1950(3)
O4B O -0.2334(8) 0.0150(9) 0.1658(3)
O5B O -0.0813(9) 0.0324(9) 0.2059(3)
C7B C -0.0194(9) 0.3503(10) 0.0886(4)
H6B H -0.09320 0.37540 0.09360
H7B H -0.00910 0.35080 0.06250
O6B O 0.1886(7) 0.3818(7) 0.0588(3)
C8B C 0.1656(10) 0.4315(10) 0.0887(4)
C9B C 0.2456(8) 0.4974(8) 0.1051(4)
C10B C 0.2222(10) 0.5468(11) 0.1356(4)
H8B H 0.27470 0.58910 0.14630
C11B C 0.1228(8) 0.5355(9) 0.1509(4)
C12B C 0.0458(11) 0.4759(10) 0.1357(4)
H9B H -0.02320 0.47140 0.14660
C13B C 0.0643(8) 0.4239(9) 0.1059(3)
S2B S 0.0933(4) 0.6010(4) 0.19005(16)
O7B O 0.0395(10) 0.6994(8) 0.1802(3)
O8B O 0.0159(10) 0.5419(10) 0.2125(3)
O9B O 0.1937(10) 0.6228(10) 0.2106(3)
C14B C 0.3575(11) 0.4996(10) 0.0854(4)
H10B H 0.34630 0.48370 0.05990
H11B H 0.38800 0.56800 0.08690
O2C O 0.3891(7) 0.3038(9) 0.0571(3)
H3C H 0.32660 0.32820 0.05780
C1C C 0.4441(8) 0.3312(11) 0.0868(3)
C2C C 0.5116(8) 0.2572(9) 0.1017(3)
C3C C 0.5746(8) 0.2832(8) 0.1307(3)
H4C H 0.62100 0.23510 0.14140
C4C C 0.5695(7) 0.3808(6) 0.1442(2)
C5C C 0.4997(8) 0.4497(8) 0.1296(3)
H5C H 0.49530 0.51470 0.13980
C6C C 0.4367(8) 0.427(1) 0.1009(3)
S1C S 0.6520(2) 0.4152(2) 0.17986(8)
O3C O 0.6989(10) 0.3249(7) 0.1950(3)
O4C O 0.7334(8) 0.4850(9) 0.1658(3)
O5C O 0.5813(9) 0.4676(9) 0.2059(3)
C7C C 0.5194(9) 0.1497(10) 0.0886(4)
H6C H 0.59320 0.12460 0.09360
H7C H 0.50910 0.14920 0.06250
O6C O 0.3114(7) 0.1182(7) 0.0588(3)
C8C C 0.3344(10) 0.0685(10) 0.0887(4)
C9C C 0.2544(8) 0.0026(8) 0.1051(4)
C10C C 0.2778(10) -0.0468(11) 0.1356(4)
H8C H 0.22530 -0.08910 0.14630
C11C C 0.3772(8) -0.0355(9) 0.1509(4)
C12C C 0.4542(11) 0.0241(10) 0.1357(4)
H9C H 0.52320 0.02860 0.14660
C13C C 0.4357(8) 0.0761(9) 0.1059(3)
S2C S 0.4067(4) -0.1010(4) 0.19005(16)
O7C O 0.4605(10) -0.1994(8) 0.1802(3)
O8C O 0.4841(10) -0.0419(10) 0.2125(3)
O9C O 0.3063(10) -0.1228(10) 0.2106(3)
C14C C 0.1425(11) 0.0004(10) 0.0854(4)
H10C H 0.15370 0.01630 0.05990
H11C H 0.11200 -0.06800 0.08690
O1C O 0.6189(10) 0.1341(8) 0.2302(3)
H1C H 0.576(10) 0.099(10) 0.2428(6)
H2C H 0.607(11) 0.115(11) 0.2089(7)
O1A O 0.8811(10) 0.1341(8) 0.2698(3)
H1A H 0.924(10) 0.099(10) 0.2572(6)
H2A H 0.893(11) 0.115(11) 0.2911(7)
O1B O 0.8811(10) 0.3659(8) 0.2302(3)
H1B H 0.924(10) 0.401(10) 0.2428(6)
H2B H 0.893(11) 0.385(11) 0.2089(7)
Gd1* Gd -0.25000 0.25000 0.25000
O3A* O 0.8011(10) 0.3249(7) 0.3050(3)
O3B* O 0.8011(10) 0.1751(7) 0.1950(3)
O10A O 0.9011(10) 0.6843(6) 0.2808(3)
H12A H 0.927(10) 0.627(5) 0.277(2)
H13A H 0.911(10) 0.693(9) 0.3030(9)
O11A O 0.8112(9) 0.8803(6) 0.2872(2)
H14A H 0.865(7) 0.917(8) 0.2817(16)
H15A H 0.816(11) 0.874(8) 0.3097(5)
O10B O 0.9011(10) 0.8157(6) 0.2192(3)
H12B H 0.927(10) 0.873(5) 0.223(2)
H13B H 0.911(10) 0.807(9) 0.1970(9)
O11B O 0.8112(9) 0.6197(6) 0.2128(2)
H14B H 0.865(7) 0.583(8) 0.2183(16)
H15B H 0.816(11) 0.626(8) 0.1903(5)
O10C O 0.5989(10) 0.6843(6) 0.2192(3)
H12C H 0.573(10) 0.627(5) 0.223(2)
H13C H 0.589(10) 0.693(9) 0.1970(9)
O11C O 0.6888(9) 0.8803(6) 0.2128(2)
H14C H 0.635(7) 0.917(8) 0.2183(16)
H15C H 0.684(11) 0.874(8) 0.1903(5)
C15A C 0.8694(6) 0.2656(5) 0.53765(19)
C16A C 0.9571(6) 0.3123(6) 0.5224(2)
H16A H 0.95130 0.34030 0.49920
C17A C 1.0539(7) 0.3182(7) 0.5408(3)
H17A H 1.11470 0.34900 0.53000
C18A C 1.0627(8) 0.2796(7) 0.5750(3)
C19A C 0.976(1) 0.2304(7) 0.5908(3)
H18A H 0.98220 0.20250 0.61400
C20A C 0.8802(8) 0.2233(6) 0.5717(2)
H19A H 0.82050 0.18900 0.58200
C21A C 0.7699(5) 0.1405(5) 0.48447(19)
C22A C 0.8344(6) 0.0634(5) 0.49764(19)
H20A H 0.86930 0.07030 0.52010
C23A C 0.8475(7) -0.0236(5) 0.4778(2)
H21A H 0.89230 -0.07570 0.48660
C24A C 0.7962(7) -0.0350(6) 0.4456(2)
H22A H 0.80560 -0.09470 0.43230
C25A C 0.7305(6) 0.0412(6) 0.4326(2)
H23A H 0.69480 0.03310 0.41040
C26A C 0.7167(5) 0.1286(5) 0.45182(19)
H24A H 0.67150 0.18030 0.44290
C27A C 1.1621(19) 0.2497(19) 0.6319(5)
O13A O 1.1532(10) 0.2825(9) 0.5952(3)
#END
