
#######################################################################
#
#                 Cambridge Crystallographic Data Centre
#                                CCDC
#
#######################################################################
#
# If this CIF has been generated from an entry in the Cambridge
# Structural Database, then it will include bibliographic, chemical,
# crystal, experimental, refinement or atomic coordinate data resulting
# from the CCDC's data processing and validation procedures.
#
#######################################################################

data_CSD_CIF_SABJOX
_audit_creation_date 2015-12-29
_audit_creation_method CSD-ConQuest-V1
_database_code_CSD SABJOX
_database_code_depnum_ccdc_archive 'CCDC 938725'
_chemical_formula_sum 'C36 H34 Br2 In2 N4 O12'
_chemical_formula_moiety
;
(C24 H12 Br2 In2 O12 2-)n,2(C6 H11 N2 1+)
;
_journal_coden_Cambridge 923
_journal_volume 46
_journal_year 2016
_journal_page_first 675
_journal_name_full 'Synth.React.Inorg.,Met.-Org.,Nano-Met.Chem. '
loop_
_publ_author_name
"Sa-Ying Li"
"Lu Du"
"Zhi-Hong Liu"
_chemical_name_systematic
;
catena-[bis(1-ethyl-3-methyl-1H-imidazol-3-ium) 
tris(\m-terephthalato)-dibromo-di-indium]
;
_cell_volume   2016.973
_exptl_crystal_density_diffrn 1.818
_diffrn_ambient_temperature 293
#These two values have been output from a single CSD field.
_refine_ls_R_factor_gt 0.0501
_refine_ls_wR_factor_gt 0.0501
_symmetry_cell_setting monoclinic
_symmetry_space_group_name_H-M 'P 21/c'
_symmetry_Int_Tables_number 14
loop_
_symmetry_equiv_pos_site_id
_symmetry_equiv_pos_as_xyz
1 x,y,z
2 -x,1/2+y,1/2-z
3 -x,-y,-z
4 x,-1/2-y,-1/2+z
_cell_length_a 7.5816(8)
_cell_length_b 19.2284(18)
_cell_length_c 14.9297(17)
_cell_angle_alpha 90
_cell_angle_beta 112.072(8)
_cell_angle_gamma 90
_cell_formula_units_Z 2
loop_
_atom_type_symbol
_atom_type_radius_bond
C 0.68
H 0.23
Br 1.21
In 1.42
N 0.68
O 0.68
loop_
_atom_site_label
_atom_site_type_symbol
_atom_site_fract_x
_atom_site_fract_y
_atom_site_fract_z
In1 In 0.18170 1.05080 0.29020
Br1 Br 0.2621(1) 1.07830 0.46510
O1 O 0.1999(4) 0.9274(1) 0.3009(2)
O2 O 0.4260(3) 0.9927(1) 0.2899(2)
O3 O 0.0092(3) 1.0313(1) 0.1304(2)
O4 O -0.1277(3) 1.0406(1) 0.2348(2)
O5 O 0.6914(4) 0.6350(1) 0.2516(2)
O6 O 0.9292(4) 0.6978(1) 0.2455(2)
C1 C 0.3578(6) 0.9331(2) 0.2936(2)
C2 C 0.4691(5) 0.8710(2) 0.2882(2)
C3 C 0.3920(5) 0.8055(2) 0.2812(2)
H1 H 0.27100 0.80010 0.28240
C4 C 0.4929(6) 0.7474(2) 0.2725(3)
H2 H 0.43990 0.70330 0.26810
C5 C 0.6509(5) 0.8785(2) 0.2884(3)
H3 H 0.70500 0.92250 0.29440
C6 C 0.7524(5) 0.8209(2) 0.2799(2)
H4 H 0.87470 0.82630 0.28050
C7 C -0.1386(5) 1.0298(2) 0.1492(2)
C8 C -0.3254(5) 1.0153(2) 0.0719(2)
C9 C -0.3386(5) 1.0014(2) -0.0219(2)
H5 H -0.22980 1.00250 -0.03660
C10 C -0.4883(5) 1.0139(2) 0.0930(2)
H6 H -0.48060 1.02340 0.15550
C11 C 0.7768(7) 0.6922(2) 0.2554(3)
C12 C 0.6735(5) 0.7554(2) 0.2704(2)
N1 N 0.2034(5) 0.6762(2) 0.0455(2)
N2 N 0.0798(6) 0.7779(2) 0.0362(3)
C13 C 0.2463(7) 0.6022(2) 0.0667(4)
H7 H 0.14260 0.57470 0.02450
H8 H 0.26360 0.59300 0.13260
H9 H 0.36060 0.59050 0.05660
C14 C 0.2811(10) 0.7160(4) -0.0025(4)
H10 H 0.37330 0.70240 -0.02600
C15 C 0.2033(12) 0.7787(4) -0.0107(5)
H11 H 0.22860 0.81660 -0.04280
C16 C 0.0857(6) 0.7145(2) 0.0694(3)
H12 H 0.01570 0.69890 0.10490
C17 C -0.0363(9) 0.8360(3) 0.0491(5)
H13 H 0.02300 0.85360 0.11450
H14 H -0.03670 0.87330 0.00530
C18 C -0.2317(9) 0.8169(3) 0.0319(4)
H15 H -0.23330 0.78290 0.07860
H16 H -0.29030 0.79790 -0.03200
H17 H -0.30070 0.85750 0.03750
O3B O -1.0092(3) 0.9687(1) -0.1304(2)
O4B O -0.8723(3) 0.9594(1) -0.2348(2)
C7B C -0.8614(5) 0.9702(2) -0.1492(2)
C8B C -0.6746(5) 0.9847(2) -0.0719(2)
C9B C -0.6614(5) 0.9986(2) 0.0219(2)
H5B H -0.77020 0.99750 0.03660
C10B C -0.5117(5) 0.9861(2) -0.0930(2)
H6B H -0.51940 0.97660 -0.15550
In1B In -1.18170 0.94920 -0.29020
Br1B Br -1.2621(1) 0.92170 -0.46510
O1B O -1.1999(4) 1.0726(1) -0.3009(2)
O2B O -1.4260(3) 1.0073(1) -0.2899(2)
O5B O -1.6914(4) 1.3650(1) -0.2516(2)
O6B O -1.9292(4) 1.3022(1) -0.2455(2)
C1B C -1.3578(6) 1.0669(2) -0.2936(2)
C2B C -1.4691(5) 1.1290(2) -0.2882(2)
C3B C -1.3920(5) 1.1945(2) -0.2812(2)
H1B H -1.27100 1.19990 -0.28240
C4B C -1.4929(6) 1.2526(2) -0.2725(3)
H2B H -1.43990 1.29670 -0.26810
C5B C -1.6509(5) 1.1215(2) -0.2884(3)
H3B H -1.70500 1.07750 -0.29440
C6B C -1.7524(5) 1.1791(2) -0.2799(2)
H4B H -1.87470 1.17370 -0.28050
C11B C -1.7768(7) 1.3078(2) -0.2554(3)
C12B C -1.6735(5) 1.2446(2) -0.2704(2)
In1A In 0.81830 0.55080 0.20980
In1C In -1.81830 1.44920 -0.20980
O5A O 0.3086(4) 1.1350(1) 0.2484(2)
O5C O -1.3086(4) 0.8650(1) -0.2484(2)
#END
