
#######################################################################
#
#                 Cambridge Crystallographic Data Centre
#                                CCDC
#
#######################################################################
#
# If this CIF has been generated from an entry in the Cambridge
# Structural Database, then it will include bibliographic, chemical,
# crystal, experimental, refinement or atomic coordinate data resulting
# from the CCDC's data processing and validation procedures.
#
#######################################################################

data_CSD_CIF_SADCUX
_audit_creation_date 2011-01-12
_audit_creation_method CSD-ConQuest-V1
_database_code_CSD SADCUX
_database_code_depnum_ccdc_archive 'CCDC 716759'
_chemical_formula_sum 'C32 H52 O54 Yb4'
_chemical_formula_moiety
;
(C4 H16 O16 Yb2 1+)n,n(C28 H24 O32 Yb2 1-),6n(H2 O1)
;
_journal_coden_Cambridge 1350
_journal_volume 12
_journal_year 2010
_journal_page_first 1809
_journal_name_full 'CrystEngComm '
loop_
_publ_author_name
"Zhen-Jie Zhang"
"Shi-Yuan Zhang"
"Yi Li"
"Zheng Niu"
"Wei Shi"
"Peng Cheng"
_chemical_name_systematic
;
catena-((bis(\m~2~-Oxalato)-octa-aqua-di-ytterbium) 
bis((\m~3~-4-oxo-4H-pyran-2,6-dicarboxylato)-(4-oxo-4H-pyran-2,6-dicarboxylato
))-octa-aqua-di-ytterbium hexahydrate)
;
_cell_volume   1351.114
_exptl_crystal_colour 'colorless'
_exptl_crystal_density_diffrn 2.449
_exptl_crystal_description 'prism'
_diffrn_ambient_temperature 113
#These two values have been output from a single CSD field.
_refine_ls_R_factor_gt 0.036
_refine_ls_wR_factor_gt 0.036
_symmetry_cell_setting triclinic
_symmetry_space_group_name_H-M 'P -1'
_symmetry_Int_Tables_number 2
loop_
_symmetry_equiv_pos_site_id
_symmetry_equiv_pos_as_xyz
1 x,y,z
2 -x,-y,-z
_cell_length_a 7.4895(15)
_cell_length_b 11.093(2)
_cell_length_c 16.875(3)
_cell_angle_alpha 86.68(3)
_cell_angle_beta 80.69(3)
_cell_angle_gamma 77.65(3)
_cell_formula_units_Z 1
loop_
_atom_type_symbol
_atom_type_radius_bond
C 0.68
H 0.23
O 0.68
Yb 1.87
loop_
_atom_site_label
_atom_site_type_symbol
_atom_site_fract_x
_atom_site_fract_y
_atom_site_fract_z
O1 O -0.2166(7) 1.0122(5) 0.4714(3)
Yb1 Yb 0.29726(4) 0.76792(3) 0.518300(18)
Yb2 Yb 0.47624(4) -0.28048(3) 0.167932(18)
C1 C 0.6524(10) -0.0228(7) 0.2114(5)
C2 C 0.6145(10) 0.0868(7) 0.1549(5)
C3 C 0.5738(10) 0.0790(7) 0.0808(5)
H1 H 0.56330 0.00310 0.06340
C4 C 0.5464(9) 0.1854(7) 0.0281(4)
C5 C 0.5493(10) 0.3006(7) 0.0638(5)
H2 H 0.52210 0.37480 0.03530
C6 C 0.5915(10) 0.2997(7) 0.1383(5)
C7 C 0.6079(10) 0.4142(7) 0.1796(4)
C8 C 0.2033(10) -0.0169(7) 0.2312(5)
C9 C 0.1367(10) 0.0843(7) 0.1721(5)
C10 C 0.0854(10) 0.0685(7) 0.1015(5)
H3 H 0.08140 -0.01040 0.08690
C11 C 0.0366(10) 0.1711(7) 0.0483(5)
C12 C 0.0362(10) 0.2903(7) 0.0801(5)
H4 H -0.00080 0.36230 0.05080
C13 C 0.0897(10) 0.2964(7) 0.1525(4)
C14 C 0.1152(10) 0.4161(7) 0.1839(5)
C15 C 0.5299(10) 0.5016(7) 0.5419(4)
C16 C -0.0594(10) 0.9594(7) 0.4855(4)
O2 O 0.7295(7) -0.0109(5) 0.2693(3)
O3 O 0.6040(7) -0.1172(5) 0.1921(3)
O4 O 0.6263(7) 0.1963(4) 0.1842(3)
O5 O 0.6758(7) 0.4011(5) 0.2426(3)
O6 O 0.5530(7) 0.5132(5) 0.1427(3)
O7 O 0.5221(7) 0.1764(4) -0.0425(3)
O8 O 0.6447(6) -0.3495(4) 0.2719(3)
H5 H 0.65130 -0.42270 0.29090
H6 H 0.74810 -0.33010 0.27300
O9 O 0.2915(7) -0.3742(5) 0.2743(3)
H7 H 0.22190 -0.42550 0.28820
H8 H 0.26010 -0.31640 0.30790
O10 O 0.7741(7) -0.3239(5) 0.0984(3)
H9 H 0.82310 -0.26810 0.07240
H10 H 0.85750 -0.38920 0.09840
O11 O 0.2428(7) -0.3218(5) 0.1077(3)
H11 H 0.21310 -0.39810 0.11400
H12 H 0.14830 -0.27350 0.09520
O12 O 0.2312(7) -0.1241(5) 0.2054(3)
O13 O 0.2256(7) 0.0131(5) 0.2975(3)
O14 O 0.0008(8) 0.1605(5) -0.0206(3)
O15 O 0.2101(7) 0.4098(5) 0.2378(3)
O16 O 0.0458(7) 0.5101(5) 0.1474(4)
O17 O 0.1408(7) 0.1969(5) 0.1980(3)
O18 O 0.2383(7) 0.2342(5) 0.3574(3)
H13 H 0.22650 0.20940 0.31210
H14 H 0.28560 0.29780 0.34880
O19 O 0.0870(7) 0.2477(5) 0.6983(4)
H15 H 0.09080 0.18960 0.73360
H16 H 0.07320 0.21880 0.65460
O20 O 0.122(1) 0.4000(5) 0.5650(4)
H17 H 0.01810 0.39840 0.55150
H18 H 0.20590 0.36180 0.52980
O21 O 0.4843(7) 0.6016(5) 0.5769(3)
O22 O 0.6223(7) 0.4013(5) 0.5662(3)
O23 O 0.3922(7) 0.8330(5) 0.3881(3)
H19 H 0.48880 0.79500 0.36430
H20 H 0.36760 0.88960 0.36500
O24 O 0.0098(7) 0.8471(5) 0.4799(3)
O25 O 0.5705(7) 0.8254(5) 0.5220(3)
O26 O 0.2390(7) 0.8047(5) 0.6530(3)
H21 H 0.23230 0.86910 0.67920
H22 H 0.25980 0.74270 0.68470
O27 O 0.0912(7) 0.6423(5) 0.5698(4)
O1A O 0.2166(7) 0.9878(5) 0.5286(3)
O1* O 0.7834(7) 0.0122(5) 0.4714(3)
Yb1A Yb 0.70274(4) 0.23208(3) 0.481700(18)
Yb1A* Yb -0.29726(4) 1.23208(3) 0.481700(18)
Yb2A Yb 0.52376(4) 0.28048(3) -0.167932(18)
Yb2* Yb 0.47624(4) 0.71952(3) 0.167932(18)
Yb2A* Yb 0.52376(4) -0.71952(3) -0.167932(18)
C1A C 0.3476(10) 0.0228(7) -0.2114(5)
C2A C 0.3855(10) -0.0868(7) -0.1549(5)
C3A C 0.4262(10) -0.0790(7) -0.0808(5)
H1A H 0.43670 -0.00310 -0.06340
C4A C 0.4536(9) -0.1854(7) -0.0281(4)
C5A C 0.4507(10) -0.3006(7) -0.0638(5)
H2A H 0.47790 -0.37480 -0.03530
C6A C 0.4085(10) -0.2997(7) -0.1383(5)
C7A C 0.3921(10) -0.4142(7) -0.1796(4)
C8A C 0.7967(10) 0.0169(7) -0.2312(5)
C9A C 0.8633(10) -0.0843(7) -0.1721(5)
C10A C 0.9146(10) -0.0685(7) -0.1015(5)
H3A H 0.91860 0.01040 -0.08690
C11A C 0.9634(10) -0.1711(7) -0.0483(5)
C12A C 0.9638(10) -0.2903(7) -0.0801(5)
H4A H 1.00080 -0.36230 -0.05080
C13A C 0.9103(10) -0.2964(7) -0.1525(4)
C14A C 0.8848(10) -0.4161(7) -0.1839(5)
C15A C 0.4701(10) 0.4984(7) 0.4581(4)
C16A C 0.0594(10) 1.0406(7) 0.5145(4)
O2A O 0.2705(7) 0.0109(5) -0.2693(3)
O3A O 0.3960(7) 0.1172(5) -0.1921(3)
O4A O 0.3737(7) -0.1963(4) -0.1842(3)
O5A O 0.3242(7) -0.4011(5) -0.2426(3)
O6A O 0.4470(7) -0.5132(5) -0.1427(3)
O6* O 0.5530(7) -0.4868(5) 0.1427(3)
O6A* O 0.4470(7) 0.4868(5) -0.1427(3)
O7A O 0.4779(7) -0.1764(4) 0.0425(3)
O8A O 0.3553(6) 0.3495(4) -0.2719(3)
H5A H 0.34870 0.42270 -0.29090
H6A H 0.25190 0.33010 -0.27300
O9A O 0.7085(7) 0.3742(5) -0.2743(3)
H7A H 0.77810 0.42550 -0.28820
H8A H 0.73990 0.31640 -0.30790
O10A O 0.2259(7) 0.3239(5) -0.0984(3)
H9A H 0.17690 0.26810 -0.07240
H10A H 0.14250 0.38920 -0.09840
O11A O 0.7572(7) 0.3218(5) -0.1077(3)
H11A H 0.78690 0.39810 -0.11400
H12A H 0.85170 0.27350 -0.09520
O12A O 0.7688(7) 0.1241(5) -0.2054(3)
O13A O 0.7744(7) -0.0131(5) -0.2975(3)
O14A O 0.9992(8) -0.1605(5) 0.0206(3)
O15A O 0.7899(7) -0.4098(5) -0.2378(3)
O16A O 0.9542(7) -0.5101(5) -0.1474(4)
O17A O 0.8592(7) -0.1969(5) -0.1980(3)
O21A O 0.5157(7) 0.3984(5) 0.4231(3)
O22A O 0.3777(7) 0.5987(5) 0.4338(3)
O23A O 0.6078(7) 0.1670(5) 0.6119(3)
H19A H 0.51120 0.20500 0.63570
H20A H 0.63240 0.11040 0.63500
O24A O -0.0098(7) 1.1529(5) 0.5201(3)
O24A* O 0.9902(7) 0.1529(5) 0.5201(3)
O25A O 0.4295(7) 0.1746(5) 0.4780(3)
O26A O 0.7610(7) 0.1953(5) 0.3470(3)
H21A H 0.76770 0.13090 0.32080
H22A H 0.74020 0.25730 0.31530
O27A O 0.9088(7) 0.3577(5) 0.4302(4)
#END
