
#######################################################################
#
#                 Cambridge Crystallographic Data Centre
#                                CCDC
#
#######################################################################
#
# If this CIF has been generated from an entry in the Cambridge
# Structural Database, then it will include bibliographic, chemical,
# crystal, experimental, refinement or atomic coordinate data resulting
# from the CCDC's data processing and validation procedures.
#
#######################################################################

data_CSD_CIF_SADJOZ
_audit_creation_date 2015-12-31
_audit_creation_method CSD-ConQuest-V1
_database_code_CSD SADJOZ
_database_code_depnum_ccdc_archive 'CCDC 1430969'
_chemical_formula_sum 'C12 H60 N12 O50 V10 Zn3'
_chemical_formula_moiety
;
C6 H28 N6 O10 Zn2 4+,O28 V10 6-,(C6 H16 N6 O4 Zn1 2+)n,8(H2 O1)
;
_journal_coden_Cambridge 208
_journal_volume 235
_journal_year 2016
_journal_page_first 175
_journal_name_full 'J.Solid State Chem. '
loop_
_publ_author_name
"Mo Wang"
"Wenlong Sun"
"Haijun Pang"
"Huiyuan Ma"
"Jia Yu"
"Zhuanfang Zhang"
"Ying Niu"
"Mingming Yin"
_chemical_name_systematic
;
catena-[(\m~2~-4,4'-ethane-1,2-diylbis(4H-1,2,4-triazole))-deca-aqua-di-zinc 
(\m~2~-4,4'-ethane-1,2-diylbis(4H-1,2,4-triazole))-tetra-aqua-zinc 
bis(\m~6~-oxido)-tetrakis(\m~3~-oxido)-tetradeca(\m~2~-oxido)-octaoxo-deca-van
adium octahydrate]
;
_cell_volume   1521.487
_exptl_crystal_colour 'yellow'
_exptl_crystal_description 'block'
_diffrn_ambient_temperature 296
#These two values have been output from a single CSD field.
_refine_ls_R_factor_gt 0.0601
_refine_ls_wR_factor_gt 0.0601
_symmetry_cell_setting triclinic
_symmetry_space_group_name_H-M 'P -1'
_symmetry_Int_Tables_number 2
loop_
_symmetry_equiv_pos_site_id
_symmetry_equiv_pos_as_xyz
1 x,y,z
2 -x,-y,-z
_cell_length_a 11.7187(9)
_cell_length_b 11.8894(9)
_cell_length_c 12.8895(10)
_cell_angle_alpha 76.098(1)
_cell_angle_beta 72.933(1)
_cell_angle_gamma 63.313(1)
_cell_formula_units_Z 1
loop_
_atom_type_symbol
_atom_type_radius_bond
C 0.68
H 0.23
N 0.68
O 0.68
V 1.53
Zn 1.22
loop_
_atom_site_label
_atom_site_type_symbol
_atom_site_fract_x
_atom_site_fract_y
_atom_site_fract_z
Zn1 Zn 1.29897(9) 1.43639(8) -0.34543(8)
O1 O 1.4955(6) 1.3821(6) -0.4150(7)
O2 O 1.2858(7) 1.5901(6) -0.2820(6)
O3 O 1.2907(7) 1.2868(6) -0.4003(6)
O4 O 1.2727(6) 1.5434(5) -0.5020(5)
O5 O 1.0960(6) 1.5108(6) -0.2990(5)
N1 N 1.4103(9) 1.1558(7) -0.0757(7)
N2 N 1.3508(7) 1.3161(7) -0.1996(6)
N3 N 1.4033(11) 1.3392(9) -0.1320(9)
C1 C 1.4284(10) 1.0338(9) 0.0004(9)
H1 H 1.39940 0.98240 -0.02470
H2 H 1.37850 1.05150 0.07380
C2 C 1.4392(11) 1.2442(9) -0.0517(9)
H3 H 1.47480 1.23980 0.00570
C3 C 1.3612(9) 1.1989(8) -0.1633(8)
H4 H 1.33680 1.15340 -0.19560
V1 V 1.17190(12) 0.87392(11) 0.32978(10)
V2 V 1.14085(13) 1.15529(12) 0.27729(10)
V3 V 0.93726(12) 0.81587(11) 0.47351(10)
V4 V 0.90441(11) 1.10021(10) 0.41875(9)
V5 V 0.68047(12) 1.03183(12) 0.56931(11)
O6 O 1.2112(5) 0.7621(5) 0.2603(4)
O7 O 0.9745(6) 0.7034(5) 0.4034(4)
O8 O 0.9201(5) 0.7361(4) 0.6144(4)
O9 O 0.5317(6) 1.0842(6) 0.5589(5)
O10 O 1.1549(6) 1.2496(5) 0.1669(5)
O11 O 1.3063(5) 1.0820(5) 0.3078(4)
O12 O 1.3260(5) 0.8444(5) 0.3610(4)
O13 O 1.1695(5) 1.0098(5) 0.2249(4)
O14 O 1.1017(4) 1.0255(4) 0.4378(4)
O15 O 0.7460(5) 1.1373(5) 0.4303(4)
O16 O 0.9490(5) 1.1906(4) 0.3037(4)
O17 O 0.7645(5) 0.9035(5) 0.4777(4)
O18 O 0.8829(5) 1.2076(4) 0.5207(4)
O19 O 0.9764(5) 0.9462(4) 0.3549(4)
O20 O 1.1766(9) 1.4594(7) -0.6343(8)
O21 O 1.3191(10) 0.9959(10) -0.2654(7)
O22 O 1.0989(6) 0.9605(5) -0.1599(4)
O23 O 0.8097(7) 1.0599(7) -0.0302(5)
N4 N 0.9834(8) 1.1877(6) -0.0391(5)
N5 N 0.9593(7) 1.3759(6) -0.0262(5)
N6 N 1.0004(10) 1.2560(8) -0.1398(7)
C4 C 0.9576(9) 1.2686(8) 0.0286(6)
H5 H 0.94070 1.25120 0.10450
C5 C 0.9874(8) 1.3690(7) -0.1340(6)
H6 H 0.99560 1.43120 -0.19150
C6 C 0.9371(9) 1.4902(7) 0.0142(7)
H7 H 0.90550 1.48270 0.09300
H8 H 0.87080 1.56320 -0.01820
Zn2 Zn 1.00000 1.00000 0.00000
O24 O 1.4927(11) 1.6530(13) -0.3434(12)
O25 O 0.6492(16) 1.310(2) 0.0332(15)
N1A N 1.5897(9) 0.8442(7) 0.0757(7)
N2A N 1.6492(7) 0.6839(7) 0.1996(6)
N3A N 1.5967(11) 0.6608(9) 0.1320(9)
C1A C 1.5716(10) 0.9662(9) -0.0004(9)
H1A H 1.60060 1.01760 0.02470
H2A H 1.62150 0.94850 -0.07380
C2A C 1.5608(11) 0.7558(9) 0.0517(9)
H3A H 1.52520 0.76020 -0.00570
C3A C 1.6388(9) 0.8011(8) 0.1633(8)
H4A H 1.66320 0.84660 0.19560
Zn1A Zn 1.70103(9) 0.56361(8) 0.34543(8)
O1A O 1.5045(6) 0.6179(6) 0.4150(7)
O2A O 1.7142(7) 0.4099(6) 0.2820(6)
O3A O 1.7093(7) 0.7132(6) 0.4003(6)
O4A O 1.7273(6) 0.4566(5) 0.5020(5)
O5A O 1.9040(6) 0.4892(6) 0.2990(5)
V1A V 0.82810(12) 1.12608(11) 0.67022(10)
V2A V 0.85915(13) 0.84471(12) 0.72271(10)
V3A V 1.06274(12) 1.18413(11) 0.52649(10)
V4A V 1.09559(11) 0.89979(10) 0.58125(9)
V5A V 1.31953(12) 0.96817(12) 0.43069(11)
O6A O 0.7888(5) 1.2379(5) 0.7397(4)
O7A O 1.0255(6) 1.2966(5) 0.5966(4)
O8A O 1.0799(5) 1.2639(4) 0.3856(4)
O9A O 1.4683(6) 0.9158(6) 0.4411(5)
O10A O 0.8451(6) 0.7504(5) 0.8331(5)
O11A O 0.6937(5) 0.9180(5) 0.6922(4)
O12A O 0.6740(5) 1.1556(5) 0.6390(4)
O13A O 0.8305(5) 0.9902(5) 0.7751(4)
O14A O 0.8983(4) 0.9745(4) 0.5622(4)
O15A O 1.2540(5) 0.8627(5) 0.5697(4)
O16A O 1.0510(5) 0.8094(4) 0.6963(4)
O17A O 1.2355(5) 1.0965(5) 0.5223(4)
O18A O 1.1171(5) 0.7924(4) 0.4793(4)
O19A O 1.0236(5) 1.0538(4) 0.6451(4)
N4A N 1.0166(8) 1.8123(6) 0.0391(5)
N5A N 1.0407(7) 1.6241(6) 0.0262(5)
N6A N 0.9996(10) 1.7440(8) 0.1398(7)
C4A C 1.0424(9) 1.7314(8) -0.0286(6)
H5A H 1.05930 1.74880 -0.10450
C5A C 1.0126(8) 1.6310(7) 0.1340(6)
H6A H 1.00440 1.56880 0.19150
C6A C 1.0629(9) 1.5098(7) -0.0142(7)
H7A H 1.09450 1.51730 -0.09300
H8A H 1.12920 1.43680 0.01820
O22A O 0.9011(6) 1.0395(5) 0.1599(4)
O23A O 1.1903(7) 0.9401(7) 0.0302(5)
N4A* N 1.0166(8) 0.8123(6) 0.0391(5)
Zn2* Zn 1.00000 2.00000 0.00000
#END
