
#######################################################################
#
#                 Cambridge Crystallographic Data Centre
#                                CCDC
#
#######################################################################
#
# If this CIF has been generated from an entry in the Cambridge
# Structural Database, then it will include bibliographic, chemical,
# crystal, experimental, refinement or atomic coordinate data resulting
# from the CCDC's data processing and validation procedures.
#
#######################################################################

data_CSD_CIF_SADJUF
_audit_creation_date 2015-12-31
_audit_creation_method CSD-ConQuest-V1
_database_code_CSD SADJUF
_database_code_depnum_ccdc_archive 'CCDC 1430970'
_chemical_formula_sum 'C28 H62 N24 O38 V10 Zn2'
_chemical_formula_moiety
;
(C28 H52 N24 O6 Zn2 4+)n,H2 O28 V10 4-,4(H2 O1)
;
_journal_coden_Cambridge 208
_journal_volume 235
_journal_year 2016
_journal_page_first 175
_journal_name_full 'J.Solid State Chem. '
loop_
_publ_author_name
"Mo Wang"
"Wenlong Sun"
"Haijun Pang"
"Huiyuan Ma"
"Jia Yu"
"Zhuanfang Zhang"
"Ying Niu"
"Mingming Yin"
_chemical_name_systematic
;
catena-[bis(\m~2~-4,4'-propane-1,3-diylbis(4H-1,2,4-triazole))-bis(4,4'-propan
e-1,3-diylbis(4H-1,2,4-triazole))-hexa-aqua-di-zinc 
bis(\m~6~-oxido)-tetrakis(\m~3~-oxido)-bis(\m~2~-hydroxo)-dodecakis(\m~2~-oxid
o)-octaoxo-deca-vanadium tetrahydrate]
;
_cell_volume   1615.473
_exptl_crystal_colour 'yellow'
_exptl_crystal_description 'block'
_diffrn_ambient_temperature 296
#These two values have been output from a single CSD field.
_refine_ls_R_factor_gt 0.0429
_refine_ls_wR_factor_gt 0.0429
_symmetry_cell_setting triclinic
_symmetry_space_group_name_H-M 'P -1'
_symmetry_Int_Tables_number 2
loop_
_symmetry_equiv_pos_site_id
_symmetry_equiv_pos_as_xyz
1 x,y,z
2 -x,-y,-z
_cell_length_a 9.951(5)
_cell_length_b 10.817(5)
_cell_length_c 15.729(5)
_cell_angle_alpha 78.366(5)
_cell_angle_beta 81.200(5)
_cell_angle_gamma 78.845(5)
_cell_formula_units_Z 1
loop_
_atom_type_symbol
_atom_type_radius_bond
C 0.68
H 0.23
N 0.68
O 0.68
V 1.53
Zn 1.22
loop_
_atom_site_label
_atom_site_type_symbol
_atom_site_fract_x
_atom_site_fract_y
_atom_site_fract_z
Zn1 Zn 0.50000 -0.50000 0.50000
Zn2 Zn 0.00000 -1.00000 1.00000
O1 O -0.2025(3) -1.0162(3) 0.9661(2)
O2 O 0.3960(3) -0.5229(4) 0.39938(19)
O3 O -0.0805(3) -0.8066(3) 1.0165(2)
C1 C -0.0190(5) -0.8522(5) 0.8167(3)
H1 H -0.11330 -0.82530 0.82950
N1 N 0.0607(4) -0.9323(4) 0.8713(2)
N2 N 0.0543(4) -0.8163(4) 0.7420(2)
N3 N 0.1844(6) -0.9440(7) 0.8245(4)
N4 N -0.0899(6) 0.1888(6) 0.2805(4)
N5 N 0.4884(4) -0.2974(4) 0.4516(2)
N6 N 0.0698(4) -0.3972(4) 0.5806(3)
N7 N 0.1179(4) 0.1283(4) 0.2434(3)
N8 N 0.1021(4) -0.4792(4) 0.6552(2)
N9 N 0.4375(5) -0.2125(5) 0.5056(3)
N10 N 0.4681(4) -0.1028(4) 0.3812(3)
N11 N 0.2985(4) -0.4566(4) 0.5750(2)
N12 N -0.0555(4) 0.2741(4) 0.2062(3)
C2 C 0.4233(5) -0.0933(4) 0.4645(3)
H2 H 0.38980 -0.01940 0.48800
C3 C 0.0062(6) -0.7306(4) 0.6630(3)
H3 H -0.04700 -0.77440 0.63550
H4 H 0.08540 -0.71080 0.62180
C4 C 0.3423(5) 0.0987(5) 0.3000(4)
H5 H 0.29070 0.10860 0.35650
H6 H 0.35900 0.18270 0.26960
C5 C 0.2389(5) -0.5146(5) 0.6513(3)
H7 H 0.28550 -0.57050 0.69450
C6 C 0.5074(5) -0.2248(4) 0.3749(3)
H8 H 0.54350 -0.25490 0.32330
C7 C 0.2582(5) 0.0485(5) 0.2492(4)
H9 H 0.30560 0.04650 0.19070
H10 H 0.24860 -0.03860 0.27660
C8 C -0.0814(5) -0.6078(5) 0.6836(3)
H11 H -0.11790 -0.55920 0.63080
H12 H -0.15910 -0.62860 0.72600
C9 C 0.4792(5) 0.0129(5) 0.3140(4)
H13 H 0.52110 -0.01310 0.25910
H14 H 0.54000 0.06150 0.33090
C10 C 0.0773(5) 0.2314(5) 0.1859(3)
H15 H 0.13340 0.26810 0.13850
C11 C -0.0064(5) -0.5243(5) 0.7194(3)
H16 H -0.07140 -0.45150 0.73600
H17 H 0.03300 -0.57280 0.77120
C12 C 0.0118(5) 0.1017(5) 0.3041(3)
H18 H 0.01190 0.03550 0.35210
C13 C 0.1915(5) -0.3879(5) 0.5355(3)
H19 H 0.20200 -0.33750 0.48030
C14 C 0.1828(5) -0.8726(5) 0.7432(3)
H20 H 0.25570 -0.86550 0.69880
V1 V 0.26604(7) -0.63305(6) 0.92272(4)
V2 V 0.43520(7) -0.31802(7) 1.16013(4)
V3 V 0.43052(7) -0.39546(6) 0.83744(4)
V4 V 0.50145(7) -0.24349(6) 0.96062(4)
V5 V 0.33848(6) -0.47323(6) 1.04319(4)
O4 O 0.4749(3) -0.4904(3) 1.22470(17)
O5 O 0.6763(3) -0.2388(3) 0.98984(18)
O6 O 0.4601(3) -0.5657(3) 0.94620(16)
O7 O 0.3468(3) -0.3276(3) 0.95001(17)
O8 O 0.5899(3) -0.3680(3) 0.88333(17)
O9 O 0.2805(3) -0.3880(3) 1.12459(18)
O10 O 0.2603(3) -0.4627(3) 0.84741(18)
O11 O 0.2025(3) -0.5228(3) 1.01797(18)
O12 O 0.3477(3) -0.2473(3) 1.2361(2)
O13 O 0.6128(3) -0.3007(3) 1.16282(18)
O14 O 0.4114(3) -0.1951(3) 1.06212(18)
O15 O 0.4732(3) -0.1145(3) 0.8908(2)
O16 O 0.1194(3) -0.6638(3) 0.9098(2)
O17 O 0.3984(3) -0.2682(3) 0.7666(2)
O18 O -0.2098(4) -0.3236(4) 0.5423(3)
O19 O -0.2348(5) -0.0830(5) 0.4481(3)
O1A O 0.2025(3) -0.9838(3) 1.0339(2)
O3A O 0.0805(3) -1.1934(3) 0.9835(2)
C1A C 0.0190(5) -1.1478(5) 1.1833(3)
H1A H 0.11330 -1.17470 1.17050
N1A N -0.0607(4) -1.0677(4) 1.1287(2)
N2A N -0.0543(4) -1.1837(4) 1.2580(2)
N3A N -0.1844(6) -1.0560(7) 1.1755(4)
N6A N -0.0698(4) -1.6028(4) 1.4194(3)
N8A N -0.1021(4) -1.5208(4) 1.3448(2)
N11A N -0.2985(4) -1.5434(4) 1.4250(2)
C3A C -0.0062(6) -1.2694(4) 1.3370(3)
H3A H 0.04700 -1.22560 1.36450
H4A H -0.08540 -1.28920 1.37820
C5A C -0.2389(5) -1.4854(5) 1.3487(3)
H7A H -0.28550 -1.42950 1.30550
C8A C 0.0814(5) -1.3922(5) 1.3164(3)
H11A H 0.11790 -1.44080 1.36920
H12A H 0.15910 -1.37140 1.27400
C11A C 0.0064(5) -1.4757(5) 1.2806(3)
H16A H 0.07140 -1.54850 1.26400
H17A H -0.03300 -1.42720 1.22880
C13A C -0.1915(5) -1.6121(5) 1.4645(3)
H19A H -0.20200 -1.66250 1.51970
C14A C -0.1828(5) -1.1274(5) 1.2568(3)
H20A H -0.25570 -1.13450 1.30120
N4A N 1.0899(6) -1.1888(6) 0.7195(4)
N5A N 0.5116(4) -0.7026(4) 0.5484(2)
N7A N 0.8821(4) -1.1283(4) 0.7566(3)
N9A N 0.5625(5) -0.7875(5) 0.4944(3)
N10A N 0.5319(4) -0.8972(4) 0.6188(3)
N12A N 1.0555(4) -1.2741(4) 0.7938(3)
C2A C 0.5767(5) -0.9067(4) 0.5355(3)
H2A H 0.61020 -0.98060 0.51200
C4A C 0.6577(5) -1.0987(5) 0.7000(4)
H5A H 0.70930 -1.10860 0.64350
H6A H 0.64100 -1.18270 0.73040
C6A C 0.4926(5) -0.7752(4) 0.6251(3)
H8A H 0.45650 -0.74510 0.67670
C7A C 0.7418(5) -1.0485(5) 0.7508(4)
H9A H 0.69440 -1.04650 0.80930
H10A H 0.75140 -0.96140 0.72340
C9A C 0.5208(5) -1.0129(5) 0.6860(4)
H13A H 0.47890 -0.98690 0.74090
H14A H 0.46000 -1.06150 0.66910
C10A C 0.9227(5) -1.2314(5) 0.8141(3)
H15A H 0.86660 -1.26810 0.86150
C12A C 0.9882(5) -1.1017(5) 0.6959(3)
H18A H 0.98810 -1.03550 0.64790
O2A O 0.6040(3) -0.4771(4) 0.60062(19)
Zn1* Zn -0.50000 -1.50000 1.50000
N11A* N 0.7015(4) -0.5434(4) 0.4250(2)
V1A V 0.73396(7) -0.36695(6) 1.07728(4)
V2A V 0.56480(7) -0.68198(7) 0.83987(4)
V3A V 0.56948(7) -0.60454(6) 1.16256(4)
V4A V 0.49855(7) -0.75651(6) 1.03938(4)
V5A V 0.66152(6) -0.52677(6) 0.95681(4)
O4A O 0.5251(3) -0.5096(3) 0.77530(17)
O5A O 0.3237(3) -0.7612(3) 1.01016(18)
O6A O 0.5399(3) -0.4343(3) 1.05380(16)
O7A O 0.6532(3) -0.6724(3) 1.04999(17)
O8A O 0.4101(3) -0.6320(3) 1.11667(17)
O9A O 0.7195(3) -0.6120(3) 0.87541(18)
O10A O 0.7397(3) -0.5373(3) 1.15259(18)
O11A O 0.7975(3) -0.4772(3) 0.98203(18)
O12A O 0.6523(3) -0.7527(3) 0.7639(2)
O13A O 0.3872(3) -0.6993(3) 0.83718(18)
O14A O 0.5886(3) -0.8049(3) 0.93788(18)
O15A O 0.5268(3) -0.8855(3) 1.1092(2)
O16A O 0.8806(3) -0.3362(3) 1.0902(2)
O17A O 0.6016(3) -0.7318(3) 1.2334(2)
#END
