
#######################################################################
#
#                 Cambridge Crystallographic Data Centre
#                                CCDC
#
#######################################################################
#
# If this CIF has been generated from an entry in the Cambridge
# Structural Database, then it will include bibliographic, chemical,
# crystal, experimental, refinement or atomic coordinate data resulting
# from the CCDC's data processing and validation procedures.
#
#######################################################################

data_CSD_CIF_SAGZEJ
_audit_creation_date 2020-10-26
_audit_creation_method CSD-ConQuest-V1
_database_code_CSD SAGZEJ
_database_code_depnum_ccdc_archive 'CCDC 1970067'
_chemical_formula_sum 'C106 H130 N10 O38 Zn4'
_chemical_formula_moiety
;
C12 H14 N2 2+,n(C70 H40 O20 Zn4 2-),8(C3 H7 N1 O1),10(H2 O1)
;
_journal_coden_Cambridge 169
_journal_volume 225
_journal_year 2021
_journal_page_first 414
_journal_name_full 'Faraday Discuss. '
loop_
_publ_author_name
"L.K.Cadman"
"M.F.Mahon"
"A.D.Burrows"
_chemical_name_systematic
;
catena-[(1,1'-dimethyl-4,4'-bipyridin-1-ium) 
pentakis(\m-biphenyl-4,4'-dicarboxylato)-tetra-zinc N,N-dimethylformamide 
solvate decahydrate]
;
_cell_volume  24209.237
_exptl_crystal_colour 'blue'
_exptl_crystal_density_diffrn 1.324
_exptl_crystal_description 'plate'
_diffrn_ambient_temperature 150
_refine_special_details
;
Disordered solvent water molecules were not modelled and the disordered 
density was taken into account using the SQUEEZE/PLATON procedure.
;
#These two values have been output from a single CSD field.
_refine_ls_R_factor_gt 0.0788
_refine_ls_wR_factor_gt 0.0788
_symmetry_cell_setting orthorhombic
_symmetry_space_group_name_H-M 'P c a 21'
_symmetry_Int_Tables_number 29
loop_
_symmetry_equiv_pos_site_id
_symmetry_equiv_pos_as_xyz
1 x,y,z
2 -x,-y,1/2+z
3 1/2-x,y,1/2+z
4 1/2+x,-y,z
_cell_length_a 36.4926(13)
_cell_length_b 14.6058(4)
_cell_length_c 45.4204(13)
_cell_angle_alpha 90
_cell_angle_beta 90
_cell_angle_gamma 90
_cell_formula_units_Z 8
loop_
_atom_type_symbol
_atom_type_radius_bond
C 0.68
H 0.23
N 0.68
O 0.68
Zn 1.22
loop_
_atom_site_label
_atom_site_type_symbol
_atom_site_fract_x
_atom_site_fract_y
_atom_site_fract_z
Zn1 Zn 0.45198(3) -0.07301(8) 0.28088(4)
O1 O 0.4747(2) -0.1777(5) 0.2622(2)
O2 O 0.4645(2) -0.0832(6) 0.32334(19)
O3 O 0.4644(2) 0.0540(4) 0.2727(2)
O4 O 0.39951(17) -0.0870(6) 0.2833(2)
C1 C 0.5035(3) -0.2222(6) 0.2678(3)
C2 C 0.4934(3) -0.0570(8) 0.3365(3)
O5 O 0.5343(2) -0.1856(5) 0.2747(2)
C3 C 0.5034(3) -0.3237(7) 0.2657(3)
O6 O 0.5231(2) -0.0414(7) 0.3255(2)
C4 C 0.4889(3) -0.0404(9) 0.3689(3)
Zn2 Zn 0.54529(3) -0.05919(8) 0.28578(4)
C5 C 0.4702(3) -0.3685(7) 0.2586(3)
C6 C 0.5343(3) -0.3744(8) 0.2709(3)
C7 C 0.4573(3) -0.0587(10) 0.3837(3)
C8 C 0.5179(4) -0.0081(18) 0.3844(4)
O7 O 0.5248(2) 0.0506(5) 0.2670(2)
O8 O 0.5967(2) -0.0364(7) 0.2969(2)
H1 H 0.44880 -0.33420 0.25420
C9 C 0.4695(3) -0.4623(8) 0.2582(3)
C10 C 0.5336(3) -0.4677(7) 0.2698(3)
H2 H 0.55660 -0.34400 0.27530
H3 H 0.43680 -0.08190 0.37320
C11 C 0.4542(3) -0.0446(11) 0.4135(3)
C12 C 0.5144(4) 0.0088(14) 0.4148(4)
H4 H 0.54060 0.00320 0.37480
C13 C 0.6111(3) -0.0326(8) 0.2723(3)
H5 H 0.44710 -0.49260 0.25370
C14 C 0.5004(3) -0.5141(6) 0.2639(3)
H6 H 0.55540 -0.50160 0.27300
H7 H 0.43180 -0.05990 0.42300
C15 C 0.4827(3) -0.0087(10) 0.4304(3)
H8 H 0.53480 0.03340 0.42500
O9 O 0.5934(2) -0.0533(7) 0.2499(2)
C16 C 0.6509(3) -0.0102(8) 0.2697(3)
C17 C 0.4989(3) -0.6150(7) 0.2650(3)
C18 C 0.4805(3) 0.0036(12) 0.4616(3)
C19 C 0.6683(4) -0.0043(13) 0.2433(3)
C20 C 0.6714(4) 0.0049(16) 0.2937(3)
C21 C 0.4662(3) -0.6607(7) 0.2720(3)
C22 C 0.5294(3) -0.6693(7) 0.2592(3)
C23 C 0.4477(4) 0.0307(10) 0.4753(4)
C24 C 0.5111(4) -0.0067(15) 0.4804(4)
H9 H 0.65450 -0.01500 0.22590
C25 C 0.7046(4) 0.0161(14) 0.2406(3)
C26 C 0.7082(4) 0.0266(18) 0.2920(3)
H10 H 0.66020 0.00050 0.31250
H11 H 0.44470 -0.62560 0.27570
C27 C 0.4641(3) -0.7551(7) 0.2735(3)
C28 C 0.5280(3) -0.7621(6) 0.2608(3)
H12 H 0.55180 -0.64060 0.25400
H13 H 0.42650 0.04110 0.46360
C29 C 0.4456(4) 0.0426(11) 0.5059(3)
C30 C 0.5086(4) 0.0073(13) 0.5096(3)
H14 H 0.53410 -0.02400 0.47220
H15 H 0.71530 0.02010 0.22160
C31 C 0.7260(3) 0.0312(9) 0.2654(3)
H16 H 0.72150 0.03860 0.30960
H17 H 0.44170 -0.78490 0.27820
C32 C 0.4972(3) -0.8075(7) 0.2676(2)
H18 H 0.54960 -0.79620 0.25680
H19 H 0.42310 0.05990 0.51480
C33 C 0.4763(3) 0.0290(9) 0.5231(3)
H20 H 0.53010 0.00190 0.52130
C34 C 0.7654(3) 0.0493(12) 0.2636(3)
C35 C 0.4946(3) -0.9081(7) 0.2694(3)
C36 C 0.4735(3) 0.0401(8) 0.5553(3)
C37 C 0.7839(3) 0.0523(14) 0.2367(3)
C38 C 0.7874(3) 0.0615(13) 0.2878(3)
O10 O 0.5028(2) 0.0163(8) 0.5694(2)
O11 O 0.4455(2) 0.0663(6) 0.5670(2)
H21 H 0.77020 0.04510 0.21910
C39 C 0.8216(3) 0.0654(13) 0.2346(3)
C40 C 0.8246(3) 0.0745(13) 0.2861(3)
H22 H 0.77630 0.06080 0.30670
Zn3 Zn 0.52382(4) 0.02953(10) 0.61003(4)
Zn4 Zn 0.43160(4) 0.05034(9) 0.60912(4)
H23 H 0.83310 0.06940 0.21590
C41 C 0.8420(3) 0.0725(13) 0.2601(3)
H24 H 0.83820 0.08520 0.30360
O12 O 0.5154(2) 0.1589(5) 0.6168(2)
O13 O 0.4999(3) -0.0756(6) 0.6276(2)
O14 O 0.5762(2) 0.0059(8) 0.5994(2)
O15 O 0.4572(3) 0.1513(6) 0.6291(2)
O16 O 0.3799(2) 0.0757(7) 0.6084(2)
O17 O 0.4403(2) -0.0797(5) 0.6143(2)
C42 C 0.8822(3) 0.0757(9) 0.2575(3)
C43 C 0.4847(3) 0.1960(8) 0.6227(3)
C44 C 0.3648(4) 0.0533(8) 0.6319(3)
O18 O 0.8998(2) 0.0622(7) 0.2347(2)
C45 C 0.4826(3) 0.2964(8) 0.6223(3)
O19 O 0.3822(3) 0.0310(8) 0.6536(3)
C46 C 0.3243(3) 0.0507(8) 0.6317(3)
C47 C 0.4495(3) 0.3409(8) 0.6270(3)
C48 C 0.5144(4) 0.3478(8) 0.6151(3)
C49 C 0.3034(4) 0.0865(11) 0.6083(4)
C50 C 0.3056(4) 0.0076(11) 0.6545(3)
H25 H 0.42810 0.30590 0.63100
C51 C 0.4471(4) 0.4375(8) 0.6258(3)
C52 C 0.5111(3) 0.4427(8) 0.6141(3)
H26 H 0.53710 0.31850 0.61120
H27 H 0.31560 0.11560 0.59230
C53 C 0.2654(3) 0.0801(10) 0.6079(3)
C54 C 0.2676(3) -0.0019(11) 0.6534(3)
H28 H 0.31880 -0.01560 0.67090
H29 H 0.42430 0.46720 0.62930
C55 C 0.4782(3) 0.4888(7) 0.6196(3)
H30 H 0.53230 0.47790 0.60940
H31 H 0.25190 0.10580 0.59200
C56 C 0.2475(4) 0.0370(8) 0.6304(3)
H32 H 0.25530 -0.03500 0.66850
C57 C 0.4767(3) 0.5900(8) 0.6187(3)
C58 C 0.2069(3) 0.0268(9) 0.6292(3)
C59 C 0.4429(3) 0.6349(8) 0.6140(3)
C60 C 0.5069(3) 0.6422(8) 0.6241(3)
C61 C 0.1879(4) 0.0275(12) 0.6027(3)
C62 C 0.1861(4) 0.0171(10) 0.6545(3)
H33 H 0.42130 0.60000 0.61080
C63 C 0.4412(3) 0.7295(8) 0.6140(3)
C64 C 0.5052(4) 0.7365(10) 0.6247(3)
H34 H 0.52970 0.61280 0.62760
H35 H 0.20120 0.03810 0.58500
C65 C 0.1507(3) 0.0135(10) 0.6008(3)
C66 C 0.1483(3) 0.0064(10) 0.6534(3)
H36 H 0.19790 0.01780 0.67310
H37 H 0.41850 0.75920 0.61030
C67 C 0.4733(3) 0.7829(8) 0.6195(3)
H38 H 0.52680 0.77030 0.62890
H39 H 0.13900 0.01110 0.58210
C68 C 0.1302(4) 0.0028(10) 0.6266(3)
H40 H 0.13470 0.00140 0.67110
C69 C 0.4710(3) 0.8839(8) 0.6204(3)
C70 C 0.0902(3) -0.0100(8) 0.6247(3)
O20 O 0.0716(2) -0.0234(7) 0.6475(2)
Zn5 Zn 0.67273(4) -0.53585(9) 0.53396(4)
Zn6 Zn 0.76516(4) -0.55447(9) 0.53063(4)
Zn7 Zn 0.71473(4) -0.43959(9) 0.85913(4)
Zn8 Zn 0.80706(4) -0.45596(8) 0.85467(4)
O21 O 0.6952(2) -0.4317(5) 0.5150(2)
O22 O 0.7543(2) -0.4252(5) 0.5260(2)
O23 O 0.7422(2) 0.3416(5) 0.5112(2)
O24 O 0.6830(2) 0.3363(5) 0.5259(2)
O25 O 0.7459(2) -0.5714(7) 0.5718(2)
O26 O 0.6892(2) -0.5198(7) 0.5755(2)
O27 O 0.7304(2) -0.4162(6) 0.81809(19)
O28 O 0.7880(3) -0.4710(8) 0.8140(2)
O29 O 0.6205(2) -0.5173(8) 0.5398(3)
O30 O 0.6235(2) -0.5269(9) 0.4913(3)
O31 O 0.3129(2) -0.4554(8) 0.4923(2)
O32 O 0.3172(2) -0.4304(6) 0.5396(2)
O33 O 0.7383(2) -0.3381(5) 0.8798(2)
O34 O 0.7975(2) -0.3304(5) 0.8660(2)
O35 O 0.7848(3) 0.4355(6) 0.8730(2)
O36 O 0.7247(2) 0.4299(5) 0.8634(2)
O37 O 0.6636(2) -0.4212(7) 0.8547(3)
O38 O 0.6651(2) -0.4605(7) 0.9019(3)
O39 O 0.3550(2) -0.5280(7) 0.8918(2)
O40 O 0.35909(19) -0.5277(7) 0.8442(2)
C71 C 0.7245(3) -0.3866(8) 0.5205(3)
C72 C 0.7225(4) -0.2864(7) 0.5197(3)
C73 C 0.6902(3) -0.2406(8) 0.5140(3)
H41 H 0.66850 -0.27470 0.51020
C74 C 0.6887(4) -0.1484(8) 0.5138(3)
H42 H 0.66630 -0.11890 0.50890
C75 C 0.7198(3) -0.0946(7) 0.5207(3)
C76 C 0.7525(3) -0.1395(7) 0.5268(3)
H43 H 0.77390 -0.10540 0.53130
C77 C 0.7535(3) -0.2341(7) 0.5263(3)
H44 H 0.77600 -0.26440 0.53050
C78 C 0.7180(3) 0.0073(7) 0.5203(3)
C79 C 0.6848(3) 0.0520(8) 0.5247(3)
H45 H 0.66320 0.01770 0.52830
C80 C 0.6835(3) 0.1471(8) 0.5239(3)
H46 H 0.66080 0.17760 0.52700
C81 C 0.7139(3) 0.1964(7) 0.5188(3)
C82 C 0.7474(3) 0.1535(7) 0.5138(3)
H47 H 0.76890 0.18840 0.51000
C83 C 0.7487(3) 0.0577(7) 0.5145(3)
H48 H 0.77120 0.02730 0.51080
C84 C 0.7138(3) 0.3000(7) 0.5183(3)
C85 C 0.7197(3) -0.5411(7) 0.5865(3)
C86 C 0.7251(3) -0.5312(8) 0.6183(3)
C87 C 0.7579(4) -0.5471(11) 0.6311(3)
H49 H 0.77790 -0.56870 0.61960
C88 C 0.7622(4) -0.5319(12) 0.6611(3)
H50 H 0.78590 -0.54060 0.66920
C89 C 0.7352(4) -0.5057(10) 0.6793(3)
C90 C 0.6993(5) -0.5039(19) 0.6668(4)
H51 H 0.67860 -0.49660 0.67920
C91 C 0.6942(4) -0.5127(17) 0.6367(4)
H52 H 0.67050 -0.50640 0.62840
C92 C 0.7406(4) -0.4890(15) 0.7104(4)
C93 C 0.7727(5) -0.5199(16) 0.7249(4)
H53 H 0.79080 -0.55270 0.71420
C94 C 0.7779(5) -0.5024(16) 0.7548(4)
H54 H 0.80040 -0.51990 0.76370
C95 C 0.7516(4) -0.4607(14) 0.7716(3)
C96 C 0.7201(4) -0.4345(13) 0.7579(3)
H55 H 0.70110 -0.40740 0.76930
C97 C 0.7148(4) -0.4461(13) 0.7277(3)
H56 H 0.69290 -0.42400 0.71890
C98 C 0.7575(4) -0.4474(7) 0.8030(3)
C99 C 0.6062(4) -0.5164(11) 0.5146(4)
C100 C 0.5645(3) -0.5068(11) 0.5129(3)
C101 C 0.5469(4) -0.4903(17) 0.4873(4)
H57 H 0.56070 -0.48850 0.46950
C102 C 0.5100(4) -0.4763(19) 0.4862(3)
H58 H 0.49880 -0.46350 0.46780
C103 C 0.4889(4) -0.4800(13) 0.5108(3)
C104 C 0.5064(4) -0.5015(15) 0.5369(4)
H59 H 0.49260 -0.50900 0.55440
C105 C 0.5446(5) -0.5121(18) 0.5374(4)
H60 H 0.55650 -0.52330 0.55560
C106 C 0.4494(4) -0.4666(13) 0.5111(3)
C107 C 0.4267(4) -0.4822(15) 0.4858(3)
H61 H 0.43790 -0.50000 0.46780
C108 C 0.3901(4) -0.4723(15) 0.4867(3)
H62 H 0.37610 -0.48180 0.46940
C109 C 0.3725(4) -0.4481(11) 0.5130(4)
C110 C 0.3922(3) -0.4323(13) 0.5372(3)
H63 H 0.38030 -0.41250 0.55470
C111 C 0.4313(3) -0.4449(15) 0.5372(3)
H64 H 0.44470 -0.43860 0.55500
C112 C 0.3318(5) -0.4448(12) 0.5139(3)
C113 C 0.7659(3) -0.2951(7) 0.8740(3)
C114 C 0.7654(3) -0.1920(8) 0.8751(3)
C115 C 0.7964(3) -0.1415(8) 0.8703(3)
H65 H 0.81900 -0.17200 0.86720
C116 C 0.7953(3) -0.0471(7) 0.8698(3)
H66 H 0.81710 -0.01290 0.86670
C117 C 0.7616(3) -0.0018(6) 0.8742(3)
C118 C 0.7303(3) -0.0547(7) 0.8787(3)
H67 H 0.70730 -0.02560 0.88140
C119 C 0.7325(3) -0.1485(8) 0.8794(3)
H68 H 0.71100 -0.18370 0.88280
C120 C 0.7597(3) 0.1003(6) 0.8729(2)
C121 C 0.7271(3) 0.1456(6) 0.8653(3)
H69 H 0.70570 0.11100 0.86100
C122 C 0.7258(3) 0.2409(6) 0.8640(3)
H70 H 0.70360 0.27090 0.85870
C123 C 0.7567(3) 0.2921(7) 0.8705(2)
C124 C 0.7891(3) 0.2466(7) 0.8779(3)
H71 H 0.81050 0.28150 0.88180
C125 C 0.7909(3) 0.1525(8) 0.8797(3)
H72 H 0.81300 0.12330 0.88550
C126 C 0.7551(3) 0.3938(7) 0.8687(3)
C127 C 0.6472(4) -0.4437(10) 0.8787(4)
C128 C 0.6065(4) -0.447(1) 0.8784(3)
C129 C 0.5877(4) -0.4813(15) 0.9019(4)
H73 H 0.60050 -0.49720 0.91940
C130 C 0.5498(3) -0.4930(14) 0.9006(3)
H74 H 0.53720 -0.52120 0.91650
C131 C 0.5298(4) -0.4629(14) 0.8754(4)
C132 C 0.5491(4) -0.4296(15) 0.8519(4)
H75 H 0.53640 -0.40870 0.83480
C133 C 0.5872(4) -0.4262(13) 0.8528(4)
H76 H 0.60030 -0.40920 0.83560
C134 C 0.4894(4) -0.4763(13) 0.8742(3)
C135 C 0.4687(4) -0.4788(11) 0.8995(3)
H77 H 0.48020 -0.47250 0.91820
C136 C 0.4306(4) -0.4905(12) 0.8979(3)
H78 H 0.41650 -0.48870 0.91550
C137 C 0.4137(3) -0.5042(11) 0.8719(3)
C138 C 0.4346(4) -0.5035(17) 0.8458(4)
H79 H 0.42330 -0.51360 0.82720
C139 C 0.4724(4) -0.4876(18) 0.8477(4)
H80 H 0.48660 -0.48460 0.83020
C140 C 0.3738(3) -0.5208(10) 0.8697(3)
O41 O 0.8433(4) -0.1540(11) 0.5368(4)
N1 N 0.8850(6) -0.2622(14) 0.5395(5)
C141 C 0.8696(6) -0.1908(16) 0.5473(6)
H81 H 0.88020 -0.16080 0.56380
C142 C 0.8640(8) -0.3178(19) 0.5176(7)
H82 H 0.85180 -0.36870 0.52760
H83 H 0.88090 -0.34200 0.50270
H84 H 0.84560 -0.27910 0.50800
C143 C 0.9194(7) -0.2960(17) 0.5514(6)
H85 H 0.93320 -0.24500 0.56010
H86 H 0.93390 -0.32360 0.53550
H87 H 0.91450 -0.34210 0.56650
O42 O 0.7750(7) -0.2262(19) 0.7633(7)
N2 N 0.8326(10) -0.266(2) 0.7785(9)
C144 C 0.7995(10) -0.227(3) 0.7876(11)
H88 H 0.79420 -0.20410 0.80680
C145 C 0.8445(8) -0.286(3) 0.7500(7)
H89 H 0.85660 -0.34550 0.74980
H90 H 0.86190 -0.23850 0.74350
H91 H 0.82350 -0.28660 0.73660
C146 C 0.8599(9) -0.256(3) 0.8038(7)
H92 H 0.84660 -0.24190 0.82200
H93 H 0.87350 -0.31310 0.80610
H94 H 0.87700 -0.20590 0.79940
O43 O 0.6222(3) -0.3325(10) 0.7782(3)
N3 N 0.6630(5) -0.2231(11) 0.7921(4)
C147 C 0.6466(5) -0.3043(12) 0.7947(5)
H95 H 0.65420 -0.34300 0.81040
C148 C 0.6469(6) -0.1578(15) 0.7728(5)
H96 H 0.62600 -0.18560 0.76270
H97 H 0.66510 -0.13790 0.75830
H98 H 0.63860 -0.10480 0.78420
C149 C 0.6947(6) -0.1940(15) 0.8100(5)
H99 H 0.69880 -0.23820 0.82580
H100 H 0.68980 -0.13350 0.81840
H101 H 0.71660 -0.19080 0.79750
O44 O 0.3771(4) -0.0706(11) 0.8760(3)
N4 N 0.4132(5) -0.1808(11) 0.8574(4)
C150 C 0.3977(5) -0.0983(12) 0.8563(4)
H102 H 0.40260 -0.05970 0.83990
C151 C 0.4016(6) -0.2496(15) 0.8783(5)
H103 H 0.40950 -0.23180 0.89810
H104 H 0.41260 -0.30860 0.87310
H105 H 0.37480 -0.25490 0.87790
C152 C 0.4379(6) -0.2162(17) 0.8352(5)
H106 H 0.43130 -0.19100 0.81600
H107 H 0.43620 -0.28310 0.83460
H108 H 0.46310 -0.19830 0.84010
O45 O 0.8618(3) -0.5162(9) 0.6219(3)
N5 N 0.8300(4) -0.3891(9) 0.6083(4)
C153 C 0.8416(4) -0.4748(10) 0.6045(4)
H109 H 0.83400 -0.50620 0.58720
C154 C 0.8426(6) -0.3300(13) 0.6317(4)
H110 H 0.82350 -0.32530 0.64690
H111 H 0.84780 -0.26900 0.62380
H112 H 0.86490 -0.35570 0.64040
C155 C 0.8039(5) -0.3500(13) 0.5878(5)
H113 H 0.79990 -0.39260 0.57150
H114 H 0.81340 -0.29200 0.58020
H115 H 0.78060 -0.33900 0.59800
O46 O 0.3924(5) -0.1780(14) 0.6997(4)
N6 N 0.3502(5) -0.2193(18) 0.6663(4)
C156 C 0.3825(6) -0.184(2) 0.6737(5)
H116 H 0.39840 -0.16230 0.65860
C157 C 0.3272(7) -0.261(2) 0.6886(6)
H117 H 0.32930 -0.32800 0.68730
H118 H 0.30160 -0.24330 0.68530
H119 H 0.33500 -0.24070 0.70810
C158 C 0.3411(7) -0.229(2) 0.6355(5)
H120 H 0.31580 -0.20850 0.63220
H121 H 0.34370 -0.29280 0.62960
H122 H 0.35780 -0.19060 0.62370
O47 O 0.7567(6) -0.2194(12) 0.9479(4)
N7 N 0.6952(6) -0.1871(11) 0.9524(4)
C159 C 0.7308(6) -0.1666(15) 0.9530(5)
H123 H 0.73710 -0.10520 0.95780
C160 C 0.6846(7) -0.2792(11) 0.9442(6)
H124 H 0.70620 -0.31300 0.93750
H125 H 0.66650 -0.27650 0.92830
H126 H 0.67390 -0.31020 0.96130
C161 C 0.6682(8) -0.1195(16) 0.9609(6)
H127 H 0.65820 -0.13510 0.98030
H128 H 0.64830 -0.11850 0.94640
H129 H 0.67970 -0.05900 0.96180
O48 O 0.4886(4) -0.4454(10) 0.6899(3)
N8 N 0.4288(4) -0.4861(10) 0.6965(3)
C162 C 0.4648(4) -0.5028(11) 0.6960(3)
H130 H 0.47270 -0.56310 0.70070
C163 C 0.4155(8) -0.3944(13) 0.6906(5)
H131 H 0.43630 -0.35200 0.68970
H132 H 0.39870 -0.37560 0.70630
H133 H 0.40260 -0.39380 0.67170
C164 C 0.4034(7) -0.5589(16) 0.7038(5)
H134 H 0.41710 -0.61370 0.70960
H135 H 0.38810 -0.57290 0.68670
H136 H 0.38770 -0.53930 0.72020
O49 O 0.6767(5) -0.2255(13) 0.6977(5)
N9 N 0.7368(9) -0.236(2) 0.6857(9)
C165 C 0.7109(7) -0.219(2) 0.7024(11)
H137 H 0.71760 -0.19660 0.72140
C166 C 0.7238(8) -0.271(2) 0.6528(6)
H138 H 0.70370 -0.31520 0.65480
H139 H 0.74450 -0.30050 0.64280
H140 H 0.71550 -0.21850 0.64120
C167 C 0.7736(7) -0.236(2) 0.6904(8)
H141 H 0.78240 -0.17290 0.69120
H142 H 0.78590 -0.26850 0.67430
H143 H 0.77900 -0.26700 0.70910
O50 O 0.5109(4) -0.6973(9) 0.6927(3)
N10 N 0.5726(4) -0.6745(8) 0.6816(4)
C168 C 0.5374(4) -0.6512(13) 0.6844(4)
H144 H 0.53190 -0.58970 0.67930
C169 C 0.5822(5) -0.7668(12) 0.6903(7)
H145 H 0.56150 -0.79450 0.70080
H146 H 0.60370 -0.76510 0.70320
H147 H 0.58780 -0.80320 0.67280
C170 C 0.5988(7) -0.6106(15) 0.6693(6)
H148 H 0.60410 -0.62750 0.64880
H149 H 0.62150 -0.61250 0.68080
H150 H 0.58850 -0.54860 0.66990
O51 O 0.8830(3) -0.5781(8) 0.7622(3)
N11 N 0.8525(4) -0.6881(8) 0.7872(3)
C171 C 0.8641(3) -0.6024(8) 0.7834(3)
H151 H 0.85760 -0.55770 0.79770
C172 C 0.8625(8) -0.7588(12) 0.7664(5)
H152 H 0.87490 -0.73090 0.74950
H153 H 0.84030 -0.79040 0.75970
H154 H 0.87890 -0.80270 0.77590
C173 C 0.8319(6) -0.7063(15) 0.8138(4)
H155 H 0.84430 -0.75400 0.82530
H156 H 0.80720 -0.72690 0.80860
H157 H 0.83030 -0.65020 0.82560
O52 O 0.6018(5) -0.0692(13) 0.5172(5)
N12 N 0.5754(7) -0.199(2) 0.5318(7)
C174 C 0.5847(8) -0.110(2) 0.5367(9)
H158 H 0.57820 -0.08010 0.55450
C175 C 0.5801(9) -0.248(2) 0.5054(8)
H159 H 0.55670 -0.25090 0.49490
H160 H 0.58850 -0.31040 0.50990
H161 H 0.59840 -0.21710 0.49320
C176 C 0.5524(9) -0.216(2) 0.5555(8)
H162 H 0.55670 -0.16970 0.57080
H163 H 0.55740 -0.27690 0.56350
H164 H 0.52690 -0.21270 0.54890
O53 O 0.8365(5) 0.1123(13) 0.4910(4)
N13 N 0.8490(6) 0.1264(17) 0.5389(5)
C177 C 0.8458(7) 0.078(2) 0.5141(6)
H165 H 0.85080 0.01380 0.51460
C178 C 0.8375(8) 0.2181(19) 0.5409(7)
H166 H 0.83720 0.24550 0.52120
H167 H 0.85440 0.25220 0.55360
H168 H 0.81280 0.22030 0.54940
C179 C 0.8571(9) 0.088(2) 0.5663(6)
H169 H 0.83430 0.06910 0.57590
H170 H 0.86950 0.13360 0.57860
H171 H 0.87300 0.03480 0.56360
O54 O 0.5949(3) -0.4209(10) 0.6293(3)
N14 N 0.6278(4) -0.3136(7) 0.6052(3)
C180 C 0.6151(4) -0.3987(9) 0.6086(4)
H172 H 0.62170 -0.44390 0.59450
C181 C 0.6192(8) -0.2447(14) 0.6270(5)
H173 H 0.59990 -0.26760 0.64010
H174 H 0.61060 -0.18900 0.61710
H175 H 0.64110 -0.23060 0.63850
C182 C 0.6518(6) -0.2880(16) 0.5811(5)
H176 H 0.66440 -0.34250 0.57370
H177 H 0.66990 -0.24350 0.58810
H178 H 0.63720 -0.26060 0.56530
O55 O 0.7390(6) -0.7856(16) 0.6637(5)
N15 N 0.7073(6) -0.7737(12) 0.6201(5)
C183 C 0.7084(10) -0.7706(19) 0.6501(6)
H179 H 0.68680 -0.75740 0.66100
C184 C 0.7410(8) -0.7957(17) 0.6044(8)
H180 H 0.73920 -0.85750 0.59610
H181 H 0.76180 -0.79300 0.61800
H182 H 0.74480 -0.75140 0.58850
C185 C 0.6724(7) -0.7599(14) 0.6065(6)
H183 H 0.66460 -0.81670 0.59690
H184 H 0.67440 -0.71110 0.59180
H185 H 0.65440 -0.74250 0.62150
O56 O 0.6461(4) 0.0121(13) 0.8615(4)
N16 N 0.6074(5) -0.1136(13) 0.8563(4)
C186 C 0.6209(5) -0.0314(14) 0.8497(5)
H186 H 0.60950 -0.00160 0.83350
C187 C 0.6265(6) -0.1563(18) 0.8806(5)
H187 H 0.64490 -0.19880 0.87290
H188 H 0.60890 -0.18980 0.89280
H189 H 0.63850 -0.10900 0.89250
C188 C 0.5773(5) -0.1488(18) 0.8389(5)
H190 H 0.57330 -0.10890 0.82190
H191 H 0.55500 -0.15050 0.85100
H192 H 0.58320 -0.21070 0.83210
N17 N 0.8035(4) -0.4491(9) 0.9451(3)
N18 N 0.6784(4) -0.8085(10) 0.9301(3)
C189 C 0.7672(4) -0.4280(13) 0.9438(4)
H193 H 0.75930 -0.36610 0.94340
C190 C 0.7420(5) -0.4996(12) 0.9432(4)
H194 H 0.71660 -0.48590 0.94340
C191 C 0.7531(4) -0.5901(10) 0.9424(3)
C192 C 0.7916(4) -0.6072(10) 0.9438(3)
H195 H 0.80070 -0.66810 0.94440
C193 C 0.8149(5) -0.5348(14) 0.9444(4)
H196 H 0.84050 -0.54630 0.94440
C194 C 0.8299(5) -0.3739(11) 0.9467(4)
H197 H 0.84720 -0.38540 0.96280
H198 H 0.81690 -0.31630 0.95030
H199 H 0.84340 -0.36980 0.92800
C195 C 0.7279(4) -0.6672(11) 0.9395(3)
C196 C 0.6907(4) -0.6504(11) 0.9303(4)
H200 H 0.68250 -0.58950 0.92700
C197 C 0.6679(5) -0.7203(10) 0.9264(4)
H201 H 0.64330 -0.70790 0.92080
C198 C 0.7133(6) -0.8290(12) 0.9398(4)
H202 H 0.72040 -0.89080 0.94300
C199 C 0.7380(5) -0.7586(11) 0.9446(3)
H203 H 0.76200 -0.77230 0.95140
C200 C 0.6535(5) -0.8841(13) 0.9247(4)
H204 H 0.64430 -0.90760 0.94350
H205 H 0.66650 -0.93300 0.91430
H206 H 0.63290 -0.86280 0.91270
N19 N 0.4594(3) 0.0802(9) 0.6972(2)
N20 N 0.5812(3) -0.2877(9) 0.7025(3)
C201 C 0.4455(4) -0.0066(9) 0.6966(3)
H207 H 0.41990 -0.01730 0.69610
C202 C 0.4705(4) -0.0794(10) 0.6968(3)
H208 H 0.46130 -0.14020 0.69610
C203 C 0.5079(4) -0.0659(9) 0.6981(3)
C204 C 0.5199(4) 0.0248(11) 0.6991(3)
H209 H 0.54540 0.03720 0.70060
C205 C 0.4963(4) 0.0946(12) 0.6981(4)
H210 H 0.50540 0.15560 0.69810
C206 C 0.4341(4) 0.1611(11) 0.6968(4)
H211 H 0.42740 0.17750 0.71700
H212 H 0.41190 0.14560 0.68560
H213 H 0.44640 0.21310 0.68740
C207 C 0.5330(3) -0.1428(10) 0.6984(3)
C208 C 0.5218(4) -0.2338(10) 0.6950(3)
H214 H 0.49680 -0.24710 0.69090
C209 C 0.5466(5) -0.3042(11) 0.6977(4)
H215 H 0.53840 -0.36570 0.69590
C210 C 0.5939(4) -0.2026(11) 0.7051(4)
H216 H 0.61940 -0.19290 0.70770
C211 C 0.5709(4) -0.1288(10) 0.7040(3)
H217 H 0.58020 -0.06870 0.70690
C212 C 0.6081(5) -0.3680(13) 0.7058(4)
H218 H 0.60240 -0.40200 0.72380
H219 H 0.63320 -0.34450 0.70680
H220 H 0.60570 -0.40880 0.68880
O7* O 0.5248(2) -0.9494(5) 0.2670(2)
O3* O 0.4644(2) -0.9460(4) 0.2727(2)
Zn2* Zn 0.54529(3) -1.05919(8) 0.28578(4)
Zn1* Zn 0.45198(3) -1.07301(8) 0.28088(4)
O4C O 0.89951(17) 0.0870(6) 0.2833(2)
Zn1C Zn 0.95198(3) 0.07301(8) 0.28088(4)
O13* O 0.4999(3) 0.9244(6) 0.6276(2)
O17* O 0.4403(2) 0.9203(5) 0.6143(2)
O14C O 0.0762(2) -0.0059(8) 0.5994(2)
Zn3* Zn 0.52382(4) 1.02953(10) 0.61003(4)
Zn4* Zn 0.43160(4) 1.05034(9) 0.60912(4)
Zn3C Zn 0.02382(4) -0.02953(10) 0.61003(4)
Zn5* Zn 0.67273(4) 0.46415(9) 0.53396(4)
Zn6* Zn 0.76516(4) 0.44553(9) 0.53063(4)
Zn6C Zn 0.26516(4) -0.44553(9) 0.53063(4)
Zn7* Zn 0.71473(4) 0.56041(9) 0.85913(4)
Zn8* Zn 0.80706(4) 0.54404(8) 0.85467(4)
Zn8C Zn 0.30706(4) -0.54404(8) 0.85467(4)
O23* O 0.7422(2) -0.6584(5) 0.5112(2)
O24* O 0.6830(2) -0.6637(5) 0.5259(2)
O32C O 0.8172(2) -0.5696(6) 0.5396(2)
O35* O 0.7848(3) -0.5645(6) 0.8730(2)
O36* O 0.7247(2) -0.5701(5) 0.8634(2)
O40C O 0.85909(19) -0.4723(7) 0.8442(2)
#END
