
#######################################################################
#
#                 Cambridge Crystallographic Data Centre
#                                CCDC
#
#######################################################################
#
# If this CIF has been generated from an entry in the Cambridge
# Structural Database, then it will include bibliographic, chemical,
# crystal, experimental, refinement or atomic coordinate data resulting
# from the CCDC's data processing and validation procedures.
#
#######################################################################

data_CSD_CIF_SAHBAF
_audit_creation_date 2004-12-07
_audit_creation_method CSD-ConQuest-V1
_database_code_CSD SAHBAF
_database_code_depnum_ccdc_archive 'CCDC 244750'
_chemical_formula_sum 'C6 H16 Cl2 Fe2 N2 O11'
_chemical_formula_moiety
;
(C1 H6 N1 1+)2n,n(C4 Cl2 Fe2 O9 2-),2n(H2 O1)
;
_journal_coden_Cambridge 9
_journal_volume 43
_journal_year 2004
_journal_page_first 5177
_journal_name_full 'Inorg.Chem. '
loop_
_publ_author_name
"D.Armentano"
"G.De Munno"
"T.F.Mastropietro"
"D.M.Proserpio"
"M.Julve"
"F.Lloret"
_chemical_name_systematic
;
catena-[bis(Methylammonium) 
bis(\m~2~-oxalato)-(\m~2~-oxo)-dichloro-di-iron(iii) dihydrate]
;
_cell_volume   3195.416
_exptl_crystal_colour 'red'
_exptl_crystal_density_diffrn 1.974
_exptl_special_details
;
magnetic properties
isostructural with the diammonium, bis(dimethylammonium) and 
bis(ethylammonium) analogues
;
_exptl_crystal_description 'prism'
_diffrn_ambient_temperature 293
_refine_special_details
;
The cation and water molecule are disordered and coordinates were determined 
but not refined.
;
#These two values have been output from a single CSD field.
_refine_ls_R_factor_gt 0.0611
_refine_ls_wR_factor_gt 0.0611
_symmetry_cell_setting orthorhombic
_symmetry_space_group_name_H-M 'F d d 2'
_symmetry_Int_Tables_number 43
loop_
_symmetry_equiv_pos_site_id
_symmetry_equiv_pos_as_xyz
1 x,y,z
2 -x,-y,z
3 1/4+x,1/4-y,1/4+z
4 1/4-x,1/4+y,1/4+z
5 x,1/2+y,1/2+z
6 -x,1/2-y,1/2+z
7 1/4+x,3/4-y,3/4+z
8 1/4-x,3/4+y,3/4+z
9 1/2+x,y,1/2+z
10 1/2-x,-y,1/2+z
11 3/4+x,1/4-y,3/4+z
12 3/4-x,1/4+y,3/4+z
13 1/2+x,1/2+y,z
14 1/2-x,1/2-y,z
15 3/4+x,3/4-y,1/4+z
16 3/4-x,3/4+y,1/4+z
_cell_length_a 14.956(7)
_cell_length_b 23.671(9)
_cell_length_c 9.026(4)
_cell_angle_alpha 90
_cell_angle_beta 90
_cell_angle_gamma 90
_cell_formula_units_Z 8
loop_
_atom_type_symbol
_atom_type_radius_bond
C 0.68
Cl 0.99
Fe 1.34
N 0.68
O 0.68
loop_
_atom_site_label
_atom_site_type_symbol
_atom_site_fract_x
_atom_site_fract_y
_atom_site_fract_z
Fe1 Fe -0.07549(7) -0.05570(4) -0.00061(13)
O1 O -0.25000 -0.25000 0.3271(10)
O2 O -0.1329(3) -0.0731(2) 0.1950(6)
O3 O -0.4122(3) -0.1241(2) 0.1959(5)
O4 O -0.5166(3) -0.0697(2) 0.3039(6)
O5 O -0.2321(3) -0.1298(2) 0.3030(6)
C1 C -0.1884(4) -0.1122(3) 0.1958(8)
C2 C -0.4560(4) -0.1079(3) 0.3020(9)
Cl1 Cl -0.43135(14) -0.25428(10) 0.1552(4)
N1 N 0.08910 -0.04350 0.31900
C3 C 0.16560 -0.07190 0.25700
O6 O 0.04120 -0.15200 0.38210
Fe1N Fe -0.32549(7) -0.19430(4) 0.24939(13)
O1F O 0.00000 0.00000 0.0771(10)
Fe1O Fe -0.17451(7) -0.30570(4) 0.24939(13)
O2N O -0.3829(3) -0.1769(2) 0.4450(6)
C1N C -0.4384(4) -0.1378(3) 0.4458(8)
O5N O -0.4821(3) -0.1202(2) 0.5530(6)
Fe1H Fe -0.57549(7) -0.05570(4) 0.49939(13)
O4F O -0.2666(3) -0.1803(2) 0.0539(6)
C2F C -0.2060(4) -0.1421(3) 0.0520(9)
O3F O -0.1622(3) -0.1259(2) -0.0541(5)
O4H O -0.0166(3) -0.0697(2) -0.1961(6)
O5F O 0.0179(3) -0.1202(2) 0.0530(6)
Cl1F Cl -0.18135(14) 0.00428(10) -0.0948(4)
#END
