
#######################################################################
#
#                 Cambridge Crystallographic Data Centre
#                                CCDC
#
#######################################################################
#
# If this CIF has been generated from an entry in the Cambridge
# Structural Database, then it will include bibliographic, chemical,
# crystal, experimental, refinement or atomic coordinate data resulting
# from the CCDC's data processing and validation procedures.
#
#######################################################################

data_CSD_CIF_SAHBEJ
_audit_creation_date 2004-12-07
_audit_creation_method CSD-ConQuest-V1
_database_code_CSD SAHBEJ
_database_code_depnum_ccdc_archive 'CCDC 244751'
_chemical_formula_sum 'C8 H20 Cl2 Fe2 N2 O11'
_chemical_formula_moiety
;
(C2 H8 N1 1+)2n,n(C4 Cl2 Fe2 O9 2-),2n(H2 O1)
;
_journal_coden_Cambridge 9
_journal_volume 43
_journal_year 2004
_journal_page_first 5177
_journal_name_full 'Inorg.Chem. '
loop_
_publ_author_name
"D.Armentano"
"G.De Munno"
"T.F.Mastropietro"
"D.M.Proserpio"
"M.Julve"
"F.Lloret"
_chemical_name_systematic
;
catena-[bis(Ethylammonium) 
bis(\m~2~-oxalato)-(\m~2~-oxo)-dichloro-di-iron(iii) dihydrate]
;
_cell_volume   3220.874
_exptl_crystal_colour 'red'
_exptl_crystal_density_diffrn 2.074
_exptl_special_details
;
magnetic properties
isostructural with the diammonium, bis(dimethylammonium) and 
bis(methylammonium) analogues
;
_exptl_crystal_description 'prism'
_diffrn_ambient_temperature 293
_refine_special_details
;
The cation is disordered and C atom coordinates were determined but not 
refined.
;
#These two values have been output from a single CSD field.
_refine_ls_R_factor_gt 0.0297
_refine_ls_wR_factor_gt 0.0297
_symmetry_cell_setting orthorhombic
_symmetry_space_group_name_H-M 'F d d 2'
_symmetry_Int_Tables_number 43
loop_
_symmetry_equiv_pos_site_id
_symmetry_equiv_pos_as_xyz
1 x,y,z
2 -x,-y,z
3 1/4+x,1/4-y,1/4+z
4 1/4-x,1/4+y,1/4+z
5 x,1/2+y,1/2+z
6 -x,1/2-y,1/2+z
7 1/4+x,3/4-y,3/4+z
8 1/4-x,3/4+y,3/4+z
9 1/2+x,y,1/2+z
10 1/2-x,-y,1/2+z
11 3/4+x,1/4-y,3/4+z
12 3/4-x,1/4+y,3/4+z
13 1/2+x,1/2+y,z
14 1/2-x,1/2-y,z
15 3/4+x,3/4-y,1/4+z
16 3/4-x,3/4+y,1/4+z
_cell_length_a 14.7790(7)
_cell_length_b 23.7540(11)
_cell_length_c 9.1747(4)
_cell_angle_alpha 90
_cell_angle_beta 90
_cell_angle_gamma 90
_cell_formula_units_Z 8
loop_
_atom_type_symbol
_atom_type_radius_bond
C 0.70
Cl 0.99
Fe 1.34
N 0.74
O 0.68
loop_
_atom_site_label
_atom_site_type_symbol
_atom_site_fract_x
_atom_site_fract_y
_atom_site_fract_z
Fe1 Fe 0.32330(3) -0.195740(15) 0.12751(4)
O1 O 0.00000 0.00000 0.3054(4)
O2 O 0.23125(14) -0.13086(9) 0.0730(2)
O3 O 0.01717(14) -0.07092(9) 0.5772(2)
O4 O -0.08687(14) -0.12519(10) 0.6843(3)
O5 O 0.13252(14) -0.07302(9) 0.1814(3)
C1 C 0.18811(18) -0.11227(12) 0.1812(4)
C2 C -0.04373(19) -0.10917(11) 0.5782(3)
Cl1 Cl 0.18422(6) 0.00396(4) 0.47423(15)
O6 O 0.6334(9) -0.1966(3) 0.3305(14)
N1 N 0.4652(7) -0.1511(3) 0.5019(11)
C3 C 0.37360 -0.18730 0.59490
C4 C 0.31450 -0.25310 0.58850
Fe1N Fe 0.07330(3) -0.054260(15) 0.37751(4)
O1F O 0.25000 -0.25000 0.0554(4)
Fe1C Fe -0.07330(3) 0.054260(15) 0.37751(4)
O2N O -0.01875(14) -0.11914(9) 0.3230(2)
C1N C -0.06189(18) -0.13773(12) 0.4312(4)
O5N O -0.11748(14) -0.17698(9) 0.4314(3)
Fe1H Fe -0.17670(3) -0.195740(15) 0.62751(4)
O4F O 0.16313(14) -0.12481(10) 0.4343(3)
C2F C 0.20627(19) -0.14083(11) 0.3282(3)
O3F O 0.26717(14) -0.17908(9) 0.3272(2)
O4H O 0.41313(14) -0.12519(10) 0.1843(3)
O5F O 0.38252(14) -0.17698(9) -0.0686(3)
Cl1F Cl 0.43422(6) -0.25396(4) 0.22423(15)
#END
