
#######################################################################
#
#                 Cambridge Crystallographic Data Centre
#                                CCDC
#
#######################################################################
#
# If this CIF has been generated from an entry in the Cambridge
# Structural Database, then it will include bibliographic, chemical,
# crystal, experimental, refinement or atomic coordinate data resulting
# from the CCDC's data processing and validation procedures.
#
#######################################################################

data_CSD_CIF_SAHDEO
_audit_creation_date 2020-10-26
_audit_creation_method CSD-ConQuest-V1
_database_code_CSD SAHDEO
_database_code_depnum_ccdc_archive 'CCDC 1984226'
_chemical_formula_sum 'C149 H160 N20 Ni3 O44 P12 Zn3'
_chemical_formula_moiety
;
(C132 H83 N12 Ni3 O36 P12 Zn3 7-)n,7(C2 H8 N1 1+),C3 H7 N1 O1,7(H2 O1)
;
_journal_coden_Cambridge 1220
_journal_volume 27
_journal_year 2020
_journal_page_first 1598
_journal_name_full 'Chem.-Eur.J. '
loop_
_publ_author_name
"Yulia Yu Enakieva"
"A.A.Sinelshchikova"
"M.S.Grigoriev"
"V.V.Chernyshev"
"K.A.Kovalenko"
"I.A.Stenina"
"A.B.Yaroslavtsev"
"Y.G.Gorbunova"
"A.Yu.Tsivadze"
_chemical_name_systematic
;
catena-[heptakis(dimethylammonium) [\m-pentahydrogen 
5,10,15,20-tetrakis(3-phosphonatophenyl)porphyrinato]-[\m-tetrahydrogen 
5,10,15,20-bis(3-phosphonatophenyl)porphyrinato]-[\m-dihydrogen 
5,10,15,20-bis(3-phosphonatophenyl)porphyrinato]-tri-nickel(ii)-tri-zinc(ii) 
N,N-dimethylformamide solvate heptahydrate]
;
_chemical_name_common
;
IPCE-2Ni
;
_cell_volume  15861.639
_exptl_crystal_colour 'dark red'
_exptl_crystal_density_diffrn 1.541
_exptl_special_details
;
Solvothermal synthesis,DMF/H2O, phenylphosphonic acid

;
_exptl_crystal_description 'block'
_diffrn_ambient_temperature 100.2
_diffrn_special_details
;
twin

;
_refine_special_details
;
Disordered solvent molecules (N,N-dimethylformamide / water) were not 
modelled and the disordered density was taken into account using the 
SQUEEZE/PLATON procedure.
;
#These two values have been output from a single CSD field.
_refine_ls_R_factor_gt 0.081
_refine_ls_wR_factor_gt 0.081
_symmetry_cell_setting orthorhombic
_symmetry_space_group_name_H-M 'P n a 21'
_symmetry_Int_Tables_number 33
loop_
_symmetry_equiv_pos_site_id
_symmetry_equiv_pos_as_xyz
1 x,y,z
2 -x,-y,1/2+z
3 1/2+x,1/2-y,z
4 1/2-x,1/2+y,1/2+z
_cell_length_a 32.727(3)
_cell_length_b 19.1590(16)
_cell_length_c 25.297(3)
_cell_angle_alpha 90
_cell_angle_beta 90
_cell_angle_gamma 90
_cell_formula_units_Z 4
loop_
_atom_type_symbol
_atom_type_radius_bond
C 0.68
H 0.23
N 0.68
Ni 1.24
O 0.68
P 1.05
Zn 1.22
loop_
_atom_site_label
_atom_site_type_symbol
_atom_site_fract_x
_atom_site_fract_y
_atom_site_fract_z
Zn1 Zn 0.98593(5) 0.87807(8) 0.25490(8)
Zn2 Zn 0.73146(6) 0.81623(8) 0.26433(7)
Zn3 Zn 0.73281(5) 0.68981(7) 0.39532(6)
Ni1 Ni 0.87633(4) 0.50624(7) 0.09773(6)
Ni2 Ni 0.98247(5) 0.33192(8) 0.35117(8)
Ni3 Ni 0.75229(5) 0.74295(9) 0.83093(8)
P1 P 1.02388(12) 0.73615(19) 0.29716(17)
P2 P 0.69229(11) 0.66911(18) 0.28151(14)
P3 P 0.72407(14) 0.33448(19) -0.12535(16)
P4 P 1.0526(3) 0.2704(5) -0.0440(4)
P5 P 0.81565(12) 0.60917(19) 0.40228(16)
P6 P 0.91335(16) 0.1011(2) 0.09142(19)
P7 P 1.14838(17) 0.6065(2) 0.2616(3)
P8 P 1.01439(17) 0.1126(2) 0.6284(2)
P9 P 0.71317(15) 0.6359(2) 0.51238(15)
P10 P 0.92972(17) 1.0496(3) 0.7685(3)
P11 P 0.74355(15) 0.8623(3) 1.14443(18)
P12 P 0.58628(17) 0.4177(3) 0.8413(2)
O1 O 0.9961(3) 0.7804(4) 0.2640(4)
O2 O 1.0240(4) 0.7548(6) 0.3560(5)
H1 H 0.99880 0.75570 0.36620
O3 O 1.0676(3) 0.7376(5) 0.2825(5)
O4 O 0.7184(3) 0.7203(4) 0.2510(4)
O5 O 0.6909(3) 0.6846(5) 0.3412(3)
O6 O 0.6493(3) 0.6673(5) 0.2612(4)
O7 O 0.7263(3) 0.3243(6) -0.1833(4)
O8 O 0.7491(3) 0.2841(5) -0.0917(4)
O9 O 0.6784(4) 0.3320(6) -0.1081(6)
O10 O 1.0493(7) 0.2303(11) -0.0937(8)
O11 O 1.0303(8) 0.2226(13) 0.0005(10)
H2 H 1.04810 0.19290 0.01200
O12 O 1.0972(8) 0.2720(17) -0.0305(15)
O13 O 0.7777(3) 0.6322(4) 0.3749(4)
O14 O 0.8543(3) 0.6275(6) 0.3760(5)
O15 O 0.8166(4) 0.6370(5) 0.4593(4)
O16 O 0.8690(4) 0.0792(6) 0.1042(5)
H3 H 0.85510 0.07980 0.07440
O17 O 0.9220(6) 0.0942(7) 0.0344(5)
O18 O 0.9415(5) 0.0573(6) 0.1267(8)
O19 O 1.1455(4) 0.6240(9) 0.2063(7)
O20 O 1.1847(5) 0.6350(7) 0.2904(7)
O21 O 1.1081(4) 0.6281(6) 0.2892(8)
H4 H 1.09400 0.65190 0.26380
O22 O 1.0347(6) 0.0595(6) 0.5921(6)
H5 H 1.04320 0.02590 0.61150
O23 O 1.0306(4) 0.1065(6) 0.6833(4)
O24 O 0.9683(4) 0.1098(9) 0.6263(7)
H6 H 0.96000 0.07500 0.64350
O25 O 0.7027(3) 0.6581(5) 0.4575(4)
O26 O 0.7566(4) 0.6079(5) 0.5176(4)
H7 H 0.77250 0.62830 0.49470
O27 O 0.6836(4) 0.5806(6) 0.5336(4)
O28 O 0.9706(3) 1.0720(6) 0.7779(7)
O29 O 0.8958(4) 1.0833(6) 0.8070(7)
H8 H 0.87850 1.10480 0.78840
O30 O 0.9219(7) 1.0669(15) 0.7088(6)
O31 O 0.7594(4) 0.9285(6) 1.1202(4)
O32 O 0.7545(4) 0.8552(6) 1.2016(4)
O33 O 0.6971(5) 0.8583(12) 1.1349(6)
H9 H 0.68480 0.86090 1.16400
O34 O 0.6307(4) 0.3948(7) 0.8295(8)
H10 H 0.64020 0.37710 0.85890
O35 O 0.5677(5) 0.3860(7) 0.8899(7)
H11 H 0.56640 0.34250 0.88630
O36 O 0.5606(4) 0.4126(8) 0.7908(6)
N1 N 0.9349(3) 0.5064(5) 0.1058(4)
N2 N 0.8713(3) 0.5189(5) 0.1731(4)
N3 N 0.8167(3) 0.5082(5) 0.0903(4)
N4 N 0.8829(3) 0.4916(5) 0.0222(4)
N5 N 0.9563(4) 0.3295(6) 0.4181(5)
N6 N 0.9305(3) 0.3323(5) 0.3175(5)
N7 N 1.0079(3) 0.3327(5) 0.2845(5)
N8 N 1.0333(4) 0.3347(5) 0.3853(5)
N9 N 0.7085(4) 0.7096(6) 0.7867(5)
N10 N 0.7804(4) 0.7806(6) 0.7691(6)
N11 N 0.7982(4) 0.7724(6) 0.8762(6)
N12 N 0.7238(3) 0.7097(5) 0.8928(5)
C1 C 0.9636(4) 0.4858(8) 0.0690(6)
C2 C 1.0045(4) 0.4889(9) 0.0895(6)
H12 H 1.02900 0.47590 0.07200
C3 C 1.0005(4) 0.5150(7) 0.1407(6)
H13 H 1.02200 0.52540 0.16470
C4 C 0.9580(4) 0.5230(6) 0.1501(5)
C5 C 0.9423(4) 0.5390(6) 0.1983(5)
C6 C 0.9701(3) 0.5591(6) 0.2424(5)
C7 C 0.9817(3) 0.6278(6) 0.2490(5)
H14 H 0.97290 0.66230 0.22450
C8 C 1.0060(4) 0.6461(6) 0.2910(5)
C9 C 1.0176(4) 0.5955(7) 0.3265(6)
H15 H 1.03390 0.60870 0.35590
C10 C 1.0070(4) 0.5285(8) 0.3214(6)
H16 H 1.01610 0.49510 0.34640
C11 C 0.9833(4) 0.5084(6) 0.2806(5)
H17 H 0.97530 0.46090 0.27710
C12 C 0.9002(4) 0.5341(6) 0.2097(5)
C13 C 0.8834(4) 0.5412(6) 0.2617(5)
H18 H 0.89810 0.55210 0.29300
C14 C 0.8440(4) 0.5300(7) 0.2582(5)
H19 H 0.82500 0.53060 0.28670
C15 C 0.8342(4) 0.5164(6) 0.2025(5)
C16 C 0.7960(4) 0.5098(6) 0.1823(5)
C17 C 0.7625(4) 0.5129(7) 0.2226(5)
C18 C 0.7423(4) 0.5755(6) 0.2299(5)
H20 H 0.74730 0.61310 0.20630
C19 C 0.7150(4) 0.5842(6) 0.2711(5)
C20 C 0.7073(4) 0.5294(6) 0.3056(5)
H21 H 0.68880 0.53560 0.33410
C21 C 0.7266(4) 0.4652(7) 0.2986(6)
H22 H 0.72090 0.42750 0.32180
C22 C 0.7546(4) 0.4569(6) 0.2569(5)
H23 H 0.76810 0.41350 0.25200
C23 C 0.7892(4) 0.5082(6) 0.1292(5)
C24 C 0.7477(4) 0.5082(7) 0.1059(6)
H24 H 0.72270 0.50680 0.12500
C25 C 0.7515(4) 0.5106(8) 0.0546(6)
H25 H 0.72990 0.51280 0.02960
C26 C 0.7946(4) 0.5093(7) 0.0428(5)
C27 C 0.8105(4) 0.5027(6) -0.0077(5)
C28 C 0.7829(4) 0.4954(6) -0.0531(5)
C29 C 0.7685(4) 0.4312(7) -0.0643(5)
H26 H 0.77500 0.39320 -0.04170
C30 C 0.7426(4) 0.4194(7) -0.1112(5)
C31 C 0.7331(4) 0.4759(7) -0.1409(5)
H27 H 0.71470 0.47030 -0.16970
C32 C 0.7489(5) 0.5411(8) -0.1312(6)
H28 H 0.74260 0.57870 -0.15410
C33 C 0.7744(5) 0.5522(7) -0.0874(6)
H29 H 0.78580 0.59690 -0.08090
C34 C 0.8518(5) 0.4931(6) -0.0160(5)
C35 C 0.8699(5) 0.4779(7) -0.0665(5)
H30 H 0.85580 0.47610 -0.09930
C36 C 0.9088(5) 0.4669(8) -0.0598(6)
H31 H 0.92810 0.45610 -0.08670
C37 C 0.9173(4) 0.4741(7) -0.0042(5)
C38 C 0.9554(5) 0.4700(8) 0.0163(6)
C39 C 0.9905(5) 0.4471(10) -0.0170(7)
C40 C 1.0010(5) 0.3810(11) -0.0165(7)
H32 H 0.98520 0.34890 0.00350
C41 C 1.0370(6) 0.3553(14) -0.0463(9)
C42 C 1.0568(7) 0.4022(15) -0.0725(10)
H33 H 1.08080 0.38750 -0.09030
C43 C 1.0456(8) 0.4764(16) -0.0774(11)
H34 H 1.05910 0.50880 -0.09980
C44 C 1.0127(6) 0.4929(12) -0.0447(8)
H35 H 1.00540 0.54070 -0.04200
C45 C 0.9727(5) 0.3116(8) 0.4665(6)
C46 C 0.9438(5) 0.3199(10) 0.5075(8)
H36 H 0.94740 0.30930 0.54390
C47 C 0.9100(5) 0.3461(8) 0.4846(7)
H37 H 0.88590 0.35990 0.50270
C48 C 0.9161(5) 0.3498(8) 0.4299(6)
C49 C 0.8877(4) 0.3689(7) 0.3914(6)
C50 C 0.8501(5) 0.4052(7) 0.4063(6)
C51 C 0.8496(4) 0.4767(7) 0.3993(6)
H38 H 0.87370 0.49990 0.38770
C52 C 0.8136(4) 0.5160(7) 0.4090(6)
C53 C 0.7790(4) 0.4821(7) 0.4270(6)
H39 H 0.75490 0.50780 0.43480
C54 C 0.7798(5) 0.4100(8) 0.4335(7)
H40 H 0.75580 0.38680 0.44520
C55 C 0.8142(5) 0.3713(8) 0.4233(7)
H41 H 0.81380 0.32210 0.42780
C56 C 0.8934(4) 0.3544(6) 0.3393(6)
C57 C 0.8629(5) 0.3522(7) 0.2995(7)
H42 H 0.83540 0.36690 0.30430
C58 C 0.8776(5) 0.3274(8) 0.2551(7)
H43 H 0.86310 0.31830 0.22330
C59 C 0.9220(5) 0.3163(6) 0.2654(7)
C60 C 0.9508(4) 0.3015(7) 0.2271(6)
C61 C 0.9370(5) 0.2821(8) 0.1735(7)
C62 C 0.9338(4) 0.2100(6) 0.1602(6)
H44 H 0.94100 0.17500 0.18510
C63 C 0.9195(5) 0.1916(7) 0.1088(6)
C64 C 0.9087(6) 0.2427(8) 0.0755(7)
H45 H 0.89860 0.22980 0.04160
C65 C 0.9113(7) 0.3110(9) 0.0869(7)
H46 H 0.90330 0.34510 0.06170
C66 C 0.9259(5) 0.3309(8) 0.1361(7)
H47 H 0.92840 0.37920 0.14420
C67 C 0.9914(5) 0.3139(7) 0.2344(6)
C68 C 1.0215(5) 0.3230(7) 0.1936(7)
H48 H 1.01870 0.31280 0.15710
C69 C 1.0557(5) 0.3501(8) 0.2192(7)
H49 H 1.08070 0.36260 0.20260
C70 C 1.0475(4) 0.3558(6) 0.2728(6)
C71 C 1.0776(5) 0.3735(7) 0.3080(9)
C72 C 1.1149(5) 0.4064(7) 0.2924(7)
C73 C 1.1137(4) 0.4781(8) 0.2838(6)
H50 H 1.08890 0.50300 0.28830
C74 C 1.1493(5) 0.5133(7) 0.2684(6)
C75 C 1.1849(4) 0.4771(8) 0.2586(8)
H51 H 1.20890 0.50170 0.24850
C76 C 1.1860(5) 0.4057(9) 0.2633(9)
H52 H 1.21000 0.38040 0.25420
C77 C 1.1506(5) 0.3701(9) 0.2822(9)
H53 H 1.15150 0.32110 0.28770
C78 C 1.0711(6) 0.3591(8) 0.3637(9)
C79 C 1.1025(5) 0.3527(8) 0.4027(8)
H54 H 1.13060 0.36360 0.39830
C80 C 1.0854(6) 0.3292(9) 0.4449(7)
H55 H 1.09930 0.32070 0.47730
C81 C 1.0436(5) 0.3178(7) 0.4369(7)
C82 C 1.0138(5) 0.3025(7) 0.4749(6)
C83 C 1.0286(4) 0.2803(8) 0.5288(6)
C84 C 1.0171(5) 0.2156(9) 0.5522(7)
H56 H 1.00040 0.18510 0.53210
C85 C 1.0288(5) 0.1940(8) 0.6023(6)
C86 C 1.0519(5) 0.2410(8) 0.6302(7)
H57 H 1.06030 0.22880 0.66500
C87 C 1.0641(5) 0.3073(7) 0.6097(6)
H58 H 1.08090 0.33720 0.63030
C88 C 1.0518(5) 0.3274(8) 0.5612(7)
H59 H 1.05840 0.37270 0.54840
C89 C 0.6735(5) 0.6726(8) 0.8012(7)
C90 C 0.6487(5) 0.6575(7) 0.7558(6)
H60 H 0.62350 0.63310 0.75630
C91 C 0.6675(5) 0.6839(8) 0.7120(7)
H61 H 0.65840 0.68150 0.67630
C92 C 0.7037(4) 0.7160(7) 0.7319(6)
C93 C 0.7319(6) 0.7539(8) 0.6992(7)
C94 C 0.7186(6) 0.7605(8) 0.6426(7)
C95 C 0.7200(5) 0.7047(8) 0.6085(6)
H62 H 0.72790 0.66050 0.62210
C96 C 0.7104(6) 0.7098(8) 0.5547(7)
C97 C 0.6984(5) 0.7755(7) 0.5372(6)
H63 H 0.69270 0.78170 0.50070
C98 C 0.6945(7) 0.8321(9) 0.5705(8)
H64 H 0.68440 0.87560 0.55790
C99 C 0.7056(6) 0.8237(8) 0.6217(7)
H65 H 0.70430 0.86310 0.64450
C100 C 0.7654(6) 0.7832(9) 0.7168(7)
C101 C 0.7952(7) 0.8144(10) 0.6826(8)
H66 H 0.79270 0.82230 0.64570
C102 C 0.8293(7) 0.8311(9) 0.7150(9)
H67 H 0.85430 0.85140 0.70380
C103 C 0.8187(5) 0.8119(8) 0.7661(8)
C104 C 0.8438(5) 0.8215(7) 0.8086(9)
C105 C 0.8857(5) 0.8562(8) 0.8005(8)
C106 C 0.8907(5) 0.9244(8) 0.7944(11)
H68 H 0.86720 0.95310 0.79860
C107 C 0.9254(5) 0.9556(9) 0.7830(11)
C108 C 0.9636(6) 0.9183(9) 0.7853(12)
H69 H 0.98960 0.94020 0.78480
C109 C 0.9576(6) 0.8445(10) 0.7885(15)
H70 H 0.98010 0.81440 0.78180
C110 C 0.9219(6) 0.8171(8) 0.8003(10)
H71 H 0.92060 0.76900 0.80910
C111 C 0.8339(5) 0.8023(8) 0.8596(8)
C112 C 0.8590(5) 0.8165(8) 0.9054(8)
H72 H 0.88530 0.83740 0.90550
C113 C 0.8388(5) 0.7954(10) 0.9463(9)
H73 H 0.84810 0.79800 0.98180
C114 C 0.8000(5) 0.7675(8) 0.9298(8)
C115 C 0.7713(5) 0.7395(8) 0.9639(7)
C116 C 0.7786(5) 0.7408(8) 1.0210(7)
C117 C 0.7609(4) 0.7900(8) 1.0517(6)
H74 H 0.74530 0.82540 1.03490
C118 C 0.7644(5) 0.7917(7) 1.1075(7)
C119 C 0.7862(6) 0.7387(10) 1.1312(7)
H75 H 0.78700 0.73630 1.16870
C120 C 0.8077(8) 0.6874(9) 1.101(1)
H76 H 0.82420 0.65290 1.11750
C121 C 0.8032(6) 0.6903(8) 1.0461(8)
H77 H 0.81710 0.65700 1.02500
C122 C 0.7360(5) 0.7120(8) 0.9444(7)
C123 C 0.7053(5) 0.6819(9) 0.9787(8)
H78 H 0.70670 0.67870 1.01610
C124 C 0.6748(5) 0.6599(10) 0.9486(7)
H79 H 0.65040 0.63820 0.96030
C125 C 0.6859(5) 0.6750(8) 0.8950(7)
C126 C 0.6611(5) 0.6585(7) 0.8531(7)
C127 C 0.6233(5) 0.6202(8) 0.8597(6)
C128 C 0.6207(5) 0.5491(8) 0.8533(6)
H80 H 0.64570 0.52510 0.84710
C129 C 0.5876(6) 0.5107(9) 0.8548(8)
C130 C 0.5534(6) 0.5468(11) 0.874(1)
H81 H 0.52890 0.52120 0.87910
C131 C 0.5531(7) 0.6182(11) 0.8861(14)
H82 H 0.52980 0.64060 0.90050
C132 C 0.5886(6) 0.6537(9) 0.8759(11)
H83 H 0.58910 0.70300 0.88010
N13 N 0.6584(7) 0.4661(10) 0.6724(15)
H84 H 0.67590 0.47470 0.64520
H85 H 0.63980 0.50150 0.67170
C133 C 0.6353(9) 0.4036(13) 0.6559(16)
H86 H 0.62240 0.41230 0.62150
H87 H 0.65400 0.36380 0.65300
H88 H 0.61420 0.39330 0.68220
C134 C 0.6815(13) 0.478(3) 0.7180(13)
H89 H 0.69300 0.52520 0.71690
H90 H 0.66390 0.47330 0.74920
H91 H 0.70370 0.44380 0.71990
N14 N 0.8463(12) 0.818(2) 0.4896(17)
H92 H 0.83890 0.80990 0.45550
H93 H 0.86880 0.79220 0.49670
C135 C 0.8577(17) 0.900(3) 0.496(2)
H94 H 0.88010 0.91130 0.47140
H95 H 0.83380 0.92830 0.48720
H96 H 0.86630 0.90900 0.53210
C136 C 0.8104(12) 0.794(2) 0.5271(16)
H97 H 0.80500 0.74450 0.52160
H98 H 0.81830 0.80200 0.56400
H99 H 0.78580 0.82130 0.51910
N15 N 0.8573(4) 0.7300(6) 0.3051(4)
H100 H 0.84860 0.76960 0.32150
H101 H 0.85460 0.69420 0.32850
C137 C 0.8306(5) 0.7164(8) 0.2595(6)
H102 H 0.80230 0.71180 0.27160
H103 H 0.83260 0.75530 0.23450
H104 H 0.83910 0.67310 0.24210
C138 C 0.9007(5) 0.7379(9) 0.2921(8)
H105 H 0.91630 0.74680 0.32450
H106 H 0.91070 0.69510 0.27540
H107 H 0.90420 0.77720 0.26770
N16 N 0.6068(11) 0.4859(19) 0.4717(15)
H108 H 0.62140 0.46260 0.49670
H109 H 0.59930 0.52720 0.48660
C139 C 0.6376(8) 0.5045(14) 0.4271(11)
H110 H 0.66040 0.53120 0.44200
H111 H 0.64810 0.46140 0.41110
H112 H 0.62380 0.53240 0.40000
C140 C 0.5677(14) 0.445(3) 0.4640(19)
H113 H 0.55360 0.43990 0.49800
H114 H 0.55000 0.46940 0.43900
H115 H 0.57430 0.39840 0.45010
N17 N 0.7995(6) 0.5188(11) 0.5811(8)
H116 H 0.78510 0.54750 0.55930
H117 H 0.78250 0.48500 0.59360
C141 C 0.8366(9) 0.4859(15) 0.5514(10)
H118 H 0.82670 0.45840 0.52130
H119 H 0.85460 0.52310 0.53860
H120 H 0.85180 0.45550 0.57560
C142 C 0.8175(10) 0.5575(14) 0.6238(11)
H121 H 0.79590 0.57990 0.64460
H122 H 0.83310 0.52570 0.64660
H123 H 0.83590 0.59320 0.60950
N18 N 1.1157(4) 0.7716(8) 0.3780(5)
H124 H 1.13740 0.79320 0.36270
H125 H 1.09650 0.76460 0.35250
C143 C 1.0985(6) 0.8179(12) 0.4195(8)
H126 H 1.09020 0.86240 0.40360
H127 H 1.07460 0.79550 0.43560
H128 H 1.11920 0.82650 0.44660
C144 C 1.1290(7) 0.7026(13) 0.3993(14)
H129 H 1.14010 0.67410 0.37040
H130 H 1.15020 0.70970 0.42620
H131 H 1.10560 0.67870 0.41510
N19 N 0.897(1) 0.2272(19) 0.6657(15)
H132 H 0.90850 0.18580 0.67510
H133 H 0.88780 0.24550 0.69670
C145 C 0.9341(11) 0.270(2) 0.6575(16)
H134 H 0.95140 0.26730 0.68910
H135 H 0.94930 0.25190 0.62700
H136 H 0.92630 0.31840 0.65100
C146 C 0.8586(11) 0.2026(18) 0.6432(15)
H137 H 0.84470 0.17240 0.66880
H138 H 0.84110 0.24260 0.63490
H139 H 0.86410 0.17610 0.61090
Zn1A Zn 1.01407(5) 0.12193(8) 0.75490(8)
Zn1A* Zn 1.01407(5) 1.12193(8) 0.75490(8)
Zn1C Zn 0.51407(5) 0.37807(8) 0.75490(8)
Zn2* Zn 0.73146(6) 0.81623(8) 1.26433(7)
Zn2B Zn 1.23146(6) 0.68377(8) 0.26433(7)
Zn2C Zn 0.76854(6) 0.31623(8) -0.23567(7)
Zn3C Zn 0.76719(5) 0.18981(7) -0.10468(6)
O7C O 0.7737(3) 0.8243(6) 0.3167(4)
O8C O 0.7509(3) 0.7841(5) 0.4083(4)
O20B O 0.6847(5) 0.8650(7) 0.2904(7)
O23A O 0.9694(4) 0.8935(6) 0.1833(4)
O28A O 1.0294(3) 0.9280(6) 0.2779(7)
O32* O 0.7545(4) 0.8552(6) 0.2016(4)
O36C O 0.9394(4) 0.9126(8) 0.2908(6)
#END
