
#######################################################################
#
#                 Cambridge Crystallographic Data Centre
#                                CCDC
#
#######################################################################
#
# If this CIF has been generated from an entry in the Cambridge
# Structural Database, then it will include bibliographic, chemical,
# crystal, experimental, refinement or atomic coordinate data resulting
# from the CCDC's data processing and validation procedures.
#
#######################################################################

data_CSD_CIF_SAHMOE
_audit_creation_date 2005-03-24
_audit_creation_method CSD-ConQuest-V1
_database_code_CSD SAHMOE
_database_code_depnum_ccdc_archive 'CCDC 256829'
_chemical_formula_sum 'C49 H41 Mo7 N12 Ni2 O30.5 P2'
_chemical_formula_moiety
;
(C48 H32 N12 Ni2 4+)n,n(C1 H2 Mo7 O27 P2 4-),3.5n(H2 O1)
;
_journal_coden_Cambridge 9
_journal_volume 43
_journal_year 2004
_journal_page_first 7014
_journal_name_full 'Inorg.Chem. '
loop_
_publ_author_name
"E.Burkholder"
"V.Golub"
"C.J.O'Connor"
"J.Zubieta"
_chemical_name_systematic
;
catena-(bis(\m~2~-2,3,5,6-tetrakis(2-Pyridyl)pyrazine)-di-nickel(ii) 
(\m~5~-methylene-diphosphonato)-bis(\m~3~-oxo)-octakis(\m~2~-oxo)-undecaoxo-he
pta-molybdenum(vi) hydrate)
;
_cell_volume   6261.645
_exptl_crystal_colour 'orange'
_exptl_crystal_density_diffrn 2.267
_exptl_crystal_description 'hexagonal'
_diffrn_ambient_temperature 90
#These two values have been output from a single CSD field.
_refine_ls_R_factor_gt 0.0508
_refine_ls_wR_factor_gt 0.0508
_symmetry_cell_setting monoclinic
_symmetry_space_group_name_H-M 'C c'
_symmetry_Int_Tables_number 9
loop_
_symmetry_equiv_pos_site_id
_symmetry_equiv_pos_as_xyz
1 x,y,z
2 x,-y,1/2+z
3 1/2+x,1/2+y,z
4 1/2+x,1/2-y,1/2+z
_cell_length_a 11.8055(14)
_cell_length_b 24.057(3)
_cell_length_c 22.381(3)
_cell_angle_alpha 90
_cell_angle_beta 99.901(2)
_cell_angle_gamma 90
_cell_formula_units_Z 4
loop_
_atom_type_symbol
_atom_type_radius_bond
C 0.68
H 0.23
Mo 1.36
N 0.68
Ni 1.50
O 0.68
P 1.05
loop_
_atom_site_label
_atom_site_type_symbol
_atom_site_fract_x
_atom_site_fract_y
_atom_site_fract_z
Mo1 Mo 0.82086(5) 0.46254(3) 0.05101(3)
Mo2 Mo 0.68350(6) 0.33268(3) 0.03453(3)
Mo3 Mo 0.86666(6) 0.24217(3) 0.09100(3)
Mo4 Mo 1.00355(5) 0.35694(3) 0.06958(3)
Mo5 Mo 1.01860(6) 0.27040(3) 0.22009(3)
Mo6 Mo 1.14801(6) 0.41315(3) 0.23260(3)
Mo7 Mo 0.98197(6) 0.52338(3) 0.20467(3)
Ni1 Ni 0.37995(9) 0.56470(4) 0.39974(5)
Ni2 Ni 0.62267(8) 0.31348(4) 0.39276(5)
P1 P 0.85803(17) 0.38896(8) 0.18725(9)
P2 P 0.70245(17) 0.48818(8) 0.16864(10)
O1 O 0.8527(5) 0.3886(2) 0.1178(2)
O2 O 0.8709(5) 0.3300(2) 0.2117(3)
O3 O 0.9543(5) 0.4281(2) 0.2168(2)
O4 O 0.8095(5) 0.5228(2) 0.1953(3)
O5 O 0.5951(5) 0.5131(2) 0.1826(3)
O6 O 0.6982(5) 0.4798(2) 0.0998(2)
O7 O 0.9211(5) 0.4961(2) 0.1062(3)
O8 O 0.9304(5) 0.4168(2) 0.0199(2)
O9 O 0.7858(5) 0.5102(2) -0.0049(3)
O10 O 0.7055(5) 0.4045(2) 0.0123(3)
O11 O 0.6098(5) 0.3380(2) 0.0931(3)
O12 O 0.5905(5) 0.3059(2) -0.0252(3)
O13 O 0.7157(5) 0.2448(3) 0.0730(3)
O14 O 0.8480(5) 0.3097(2) 0.0359(3)
O15 O 0.9123(6) 0.1889(2) 0.0516(3)
O16 O 0.8940(5) 0.2236(2) 0.1711(3)
O17 O 0.9992(5) 0.2922(2) 0.1224(2)
O18 O 1.0862(5) 0.3332(2) 0.0203(3)
O19 O 1.0961(5) 0.3927(2) 0.1256(3)
O20 O 1.1287(5) 0.2272(2) 0.2111(3)
O21 O 0.9929(5) 0.2535(2) 0.2904(3)
O22 O 1.1046(5) 0.3377(2) 0.2337(3)
O23 O 1.2878(5) 0.4073(2) 0.2242(3)
O24 O 1.1590(5) 0.4288(2) 0.3070(3)
O25 O 1.1193(5) 0.4875(2) 0.1973(2)
O26 O 0.9989(5) 0.5358(2) 0.2807(3)
O27 O 1.0032(5) 0.5875(2) 0.1756(3)
O28 O 0.9737(8) 0.6105(3) 0.3865(4)
O29 O 0.0202(8) 0.0788(3) 0.0634(5)
O30 O 0.5100(8) 0.4392(4) 0.2596(4)
O31 O 0.1530(13) 0.7729(7) 0.1987(7)
N1 N 0.3077(6) 0.5731(3) 0.3066(3)
N2 N 0.3000(6) 0.6402(3) 0.3965(3)
N3 N 0.4153(6) 0.5897(3) 0.4901(3)
N4 N 0.2589(6) 0.5119(3) 0.4311(4)
N5 N 0.4596(6) 0.4888(3) 0.4003(3)
N6 N 0.5364(6) 0.5845(3) 0.3733(3)
N7 N 0.7468(5) 0.3632(3) 0.3645(3)
N8 N 0.5525(5) 0.3896(3) 0.3947(3)
N9 N 0.4661(6) 0.2943(3) 0.4166(3)
N10 N 0.0487(6) 0.7801(3) 0.3078(3)
N11 N 0.2000(5) 0.7384(3) 0.3942(3)
N12 N 0.2282(6) 0.8134(3) 0.4792(3)
C1 C 0.7286(7) 0.4189(3) 0.2013(4)
H1 H 0.73100 0.42110 0.24560
H2 H 0.66370 0.39430 0.18430
C2 C 0.3360(7) 0.5422(3) 0.2621(4)
H3 H 0.36970 0.50680 0.27210
C3 C 0.3193(7) 0.5584(4) 0.2029(4)
H4 H 0.33750 0.53390 0.17260
C4 C 0.2755(7) 0.6107(4) 0.1870(4)
H5 H 0.26800 0.62390 0.14650
C5 C 0.2427(7) 0.6437(3) 0.2328(4)
H6 H 0.20940 0.67930 0.22360
C6 C 0.2593(7) 0.6237(3) 0.2917(4)
C7 C 0.3148(6) 0.6688(3) 0.4483(3)
C8 C 0.3612(6) 0.6373(3) 0.5029(4)
C9 C 0.3402(7) 0.6500(4) 0.5591(4)
H7 H 0.30200 0.68360 0.56570
C10 C 0.3754(8) 0.6130(4) 0.6073(4)
H8 H 0.36180 0.62100 0.64700
C11 C 0.4304(7) 0.5646(4) 0.5952(4)
H9 H 0.45370 0.53800 0.62620
C12 C 0.4507(7) 0.5558(3) 0.5364(4)
H10 H 0.49250 0.52350 0.52900
C13 C 0.1741(7) 0.5290(4) 0.4589(4)
H11 H 0.14360 0.56520 0.44970
C14 C 0.1276(8) 0.4974(4) 0.5002(5)
H12 H 0.06550 0.51110 0.51790
C15 C 0.1736(8) 0.4452(4) 0.5154(4)
H13 H 0.14490 0.42310 0.54450
C16 C 0.2618(7) 0.4258(3) 0.4876(4)
H14 H 0.29470 0.39020 0.49740
C17 C 0.3016(7) 0.4595(3) 0.4448(4)
C18 C 0.4011(7) 0.4450(3) 0.4165(4)
C19 C 0.5605(7) 0.4872(3) 0.3816(4)
C20 C 0.5955(6) 0.5397(3) 0.3578(4)
C21 C 0.6711(7) 0.5449(3) 0.3168(4)
H15 H 0.70750 0.51300 0.30380
C22 C 0.6933(7) 0.5976(3) 0.2948(4)
H16 H 0.74500 0.60220 0.26700
C23 C 0.6379(7) 0.6424(3) 0.3147(4)
H17 H 0.65450 0.67900 0.30260
C24 C 0.5592(7) 0.6344(3) 0.3517(4)
H18 H 0.51850 0.66580 0.36280
C25 C 0.8467(7) 0.3448(3) 0.3527(4)
H19 H 0.85420 0.30640 0.34410
C26 C 0.9396(7) 0.3792(3) 0.3526(4)
H20 H 1.00940 0.36490 0.34320
C27 C 0.9307(7) 0.4345(4) 0.3660(4)
H21 H 0.99450 0.45860 0.36660
C28 C 0.8272(7) 0.4548(3) 0.3790(3)
H22 H 0.82040 0.49260 0.39020
C29 C 0.7338(6) 0.4189(3) 0.3752(3)
C30 C 0.6162(7) 0.4342(3) 0.3839(3)
C31 C 0.4467(7) 0.3932(3) 0.4078(4)
C32 C 0.3908(6) 0.3371(3) 0.4082(3)
C33 C 0.2719(7) 0.3294(3) 0.3966(4)
H23 H 0.22120 0.36020 0.38940
C34 C 0.2302(7) 0.2762(3) 0.3959(4)
H24 H 0.14960 0.26980 0.38760
C35 C 0.3054(7) 0.2321(3) 0.4072(4)
H25 H 0.27770 0.19520 0.40860
C36 C 0.4226(7) 0.2430(3) 0.4165(4)
H26 H 0.47440 0.21260 0.42310
C37 C -0.0450(7) 0.8008(3) 0.2717(4)
H27 H -0.06190 0.83930 0.27440
C38 C -0.1169(7) 0.7684(4) 0.2312(4)
H28 H -0.18280 0.78430 0.20690
C39 C -0.0931(7) 0.7127(4) 0.2260(4)
H29 H -0.14300 0.68960 0.19880
C40 C 0.0048(7) 0.6909(3) 0.2612(4)
H30 H 0.02450 0.65290 0.25790
C41 C 0.0734(7) 0.7260(3) 0.3014(4)
C42 C 0.1747(7) 0.7058(3) 0.3454(4)
C43 C 0.2410(7) 0.6574(3) 0.3438(4)
C44 C 0.2733(6) 0.7251(3) 0.4447(4)
C45 C 0.3027(7) 0.7707(3) 0.4876(4)
C46 C 0.4043(7) 0.7727(3) 0.5312(4)
H31 H 0.45800 0.74290 0.53530
C47 C 0.4235(8) 0.8188(3) 0.5675(4)
H32 H 0.49130 0.82130 0.59720
C48 C 0.3437(8) 0.8623(4) 0.5610(4)
H33 H 0.35590 0.89420 0.58630
C49 C 0.2468(8) 0.8578(3) 0.5168(4)
H34 H 0.19130 0.88680 0.51270
N10B N 0.5487(6) 0.2801(3) 0.3078(3)
N11B N 0.7000(5) 0.2384(3) 0.3942(3)
N12B N 0.7282(6) 0.3134(3) 0.4792(3)
Ni2B Ni 0.12267(8) 0.81348(4) 0.39276(5)
#END
