
#######################################################################
#
#                 Cambridge Crystallographic Data Centre
#                                CCDC
#
#######################################################################
#
# If this CIF has been generated from an entry in the Cambridge
# Structural Database, then it will include bibliographic, chemical,
# crystal, experimental, refinement or atomic coordinate data resulting
# from the CCDC's data processing and validation procedures.
#
#######################################################################

data_CSD_CIF_SAHNIZ
_audit_creation_date 2005-03-24
_audit_creation_method CSD-ConQuest-V1
_database_code_CSD SAHNIZ
_database_code_depnum_ccdc_archive 'CCDC 239962'
_chemical_formula_sum 'C42 H114 Fe6 N6 Na12 O81'
_chemical_formula_moiety
;
(C42 H64 Fe6 N6 Na6 O56 6-)n,6n(Na1 1+),25n(H2 O1)
;
_journal_coden_Cambridge 9
_journal_volume 43
_journal_year 2004
_journal_page_first 7266
_journal_name_full 'Inorg.Chem. '
loop_
_publ_author_name
"G.J.T.Cooper"
"H.Abbas"
"P.Kogerler"
"De-Liang Long"
"L.Cronin"
_chemical_name_systematic
;
catena-(hexa-sodium 
bis(\m~9~-cis,cis-1,3,5-cyclohexanetriamine-N,N,N',N',N'',N''-hexaacetato)-tri
s(\m~4~-carbonato)-tris(\m~2~-carbonato)-pentakis(\m~2~-aqua)-tris(\m~2~-oxo)-
hexaaqua-hexa-iron(iii)-hexa-sodium hydrate)
;
_cell_volume   4982.986
_exptl_crystal_colour 'green'
_exptl_crystal_density_diffrn 1.74
_exptl_special_details
;
Paper indicates study at 150 K, cif gives 293 K

;
_exptl_crystal_description 'block'
_exptl_crystal_preparation 'ethanol'
_diffrn_ambient_temperature 150
_refine_special_details
;
Coordinates for the additional 6 disordered sodium ions are not deposited. 
Some water molecules are disordered.
;
#These two values have been output from a single CSD field.
_refine_ls_R_factor_gt 0.0633
_refine_ls_wR_factor_gt 0.0633
_symmetry_cell_setting hexagonal
_symmetry_space_group_name_H-M 'P 63/m'
_symmetry_Int_Tables_number 176
loop_
_symmetry_equiv_pos_site_id
_symmetry_equiv_pos_as_xyz
1 x,y,z
2 -y,x-y,z
3 -x+y,-x,z
4 x-y,x,1/2+z
5 y,-x+y,1/2+z
6 x,y,1/2-z
7 -x,-y,-z
8 y,-x+y,-z
9 x-y,x,-z
10 -x+y,-x,-1/2-z
11 -y,x-y,-1/2-z
12 -x,-y,-1/2+z
_cell_length_a 17.8474(4)
_cell_length_b 17.8474(4)
_cell_length_c 18.0638(4)
_cell_angle_alpha 90
_cell_angle_beta 90
_cell_angle_gamma 120
_cell_formula_units_Z 2
loop_
_atom_type_symbol
_atom_type_radius_bond
C 0.68
H 0.23
Fe 1.32
N 0.68
Na 1.44
O 0.68
loop_
_atom_site_label
_atom_site_type_symbol
_atom_site_fract_x
_atom_site_fract_y
_atom_site_fract_z
Fe1 Fe 0.72267(4) 0.12235(4) 0.16531(3)
Na1 Na 0.66736(14) 0.06167(13) -0.15882(10)
N1 N 0.6337(2) 0.1571(2) 0.1025(2)
C1 C 0.8740(4) 0.2671(4) 0.25000
C2 C 0.8022(6) 0.0365(6) 0.25000
O1 O 0.7707(2) 0.1414(2) 0.05792(17)
O2 O 0.7540(2) 0.1624(2) -0.06120(18)
O3 O 0.6132(2) 0.0022(2) 0.13341(19)
O4 O 0.4686(2) -0.0629(2) 0.1326(2)
O5 O 0.83498(19) 0.2323(2) 0.18742(17)
O6 O 0.9470(3) 0.3331(3) 0.25000
O7 O 0.7770(2) 0.0505(2) 0.1880(2)
O8 O 0.8716(9) 0.0282(9) 0.25000
O9? O 0.8326(8) -0.0183(8) 0.25000
O10 O 0.6720(3) 0.1259(3) 0.25000
O11 O 0.5923(4) 0.8851(3) 0.25000
O12 O 0.6670(4) -0.0390(3) -0.0791(3)
O13 O 0.66670 0.33330 0.8329(4)
O14 O 0.2253(3) 0.6736(3) 0.1027(3)
O15 O 0.7128(6) 0.1640(6) -0.25000
O16? O 0.7916(12) 0.1157(12) -0.25000
O17? O 0.6584(13) 0.1661(13) -0.25000
O18 O 0.7689(6) -0.3096(6) -0.0606(5)
O19? O 0.8092(8) -0.2632(8) -0.0629(6)
O20 O 0.8125(10) -0.1218(10) -0.0281(9)
O21? O 0.8170(14) -0.0799(14) -0.0781(12)
O22? O 0.7968(17) -0.1547(17) -0.0650(16)
O23 O 0.8663(7) -0.1750(7) -0.1235(6)
O24? O 0.9203(14) -0.1133(14) -0.1322(11)
O25 O 0.8282(14) 0.0058(15) -0.1678(11)
O26? O 0.8126(16) 0.0493(16) -0.1801(13)
O27? O 0.836(2) 0.021(2) -0.0848(18)
O28? O 0.578(2) 0.240(2) -0.25000
O29 O 0.6049(11) 0.2232(10) -0.25000
O30 O 0.00000 0.00000 0.170(4)
C3 C 0.7380(3) 0.3154(3) 0.0944(2)
C4 C 0.6492(3) 0.2451(3) 0.1222(2)
C5 C 0.6454(3) 0.1467(3) 0.0224(3)
H1 H 0.64220 0.19180 -0.00500
H2 H 0.59820 0.09150 0.00580
C6 C 0.7296(3) 0.1508(3) 0.0048(2)
C7 C 0.5475(3) 0.0902(3) 0.1268(3)
H3 H 0.50440 0.08740 0.09250
H4 H 0.53540 0.10530 0.17520
C8 C 0.5417(3) 0.0023(3) 0.1308(3)
C4A C 0.7549(3) 0.4041(3) 0.1222(2)
N1A N 0.8429(2) 0.4766(2) 0.1025(2)
C5A C 0.8533(3) 0.4987(3) 0.0224(3)
H1A H 0.80820 0.45040 -0.00500
H2A H 0.90850 0.50670 0.00580
C6A C 0.8492(3) 0.5788(3) 0.0048(2)
O1A O 0.8586(2) 0.6293(2) 0.05792(17)
O2A O 0.8376(2) 0.5916(2) -0.06120(18)
C7A C 0.9098(3) 0.4573(3) 0.1268(3)
H3A H 0.91260 0.41700 0.09250
H4A H 0.89470 0.43010 0.17520
C8A C 0.9977(3) 0.5394(3) 0.1308(3)
O3A O 0.9978(2) 0.6110(2) 0.13341(19)
O4A O 1.0629(2) 0.5315(2) 0.1326(2)
C3A C 0.6846(3) 0.4226(3) 0.0944(2)
C4B C 0.5959(3) 0.3508(3) 0.1222(2)
N1B N 0.5234(2) 0.3663(2) 0.1025(2)
C5B C 0.5013(3) 0.3546(3) 0.0224(3)
H1B H 0.54960 0.35780 -0.00500
H2B H 0.49330 0.40180 0.00580
C6B C 0.4212(3) 0.2704(3) 0.0048(2)
O1B O 0.3707(2) 0.2293(2) 0.05792(17)
O2B O 0.4084(2) 0.2460(2) -0.06120(18)
C7B C 0.5427(3) 0.4525(3) 0.1268(3)
H3B H 0.58300 0.49560 0.09250
H4B H 0.56990 0.46460 0.17520
C8B C 0.4606(3) 0.4583(3) 0.1308(3)
O3B O 0.3890(2) 0.3868(2) 0.13341(19)
O4B O 0.4685(2) 0.5314(2) 0.1326(2)
C3B C 0.5774(3) 0.2620(3) 0.0944(2)
O5E O 0.83498(19) 0.2323(2) 0.31258(17)
O7E O 0.7770(2) 0.0505(2) 0.3120(2)
Fe1A Fe 0.87765(4) 0.60032(4) 0.16531(3)
Fe1B Fe 0.39968(4) 0.27733(4) 0.16531(3)
Fe1E Fe 0.72267(4) 0.12235(4) 0.33469(3)
Na1A Na 0.93833(14) 0.60569(13) -0.15882(10)
Na1B Na 0.39431(14) 0.33264(13) -0.15882(10)
Na1F Na 0.33264(14) -0.06167(13) 0.15882(10)
Na1G Na 1.06167(14) 0.39431(13) 0.15882(10)
Na1H Na 0.60569(14) 0.66736(13) 0.15882(10)
N1F N 0.3663(2) -0.1571(2) -0.1025(2)
O1F O 0.2293(2) -0.1414(2) -0.05792(17)
O2F O 0.2460(2) -0.1624(2) 0.06120(18)
O3F O 0.3868(2) -0.0022(2) -0.13341(19)
O4F O 0.5314(2) 0.0629(2) -0.1326(2)
C3F C 0.2620(3) -0.3154(3) -0.0944(2)
C4F C 0.3508(3) -0.2451(3) -0.1222(2)
C5F C 0.3546(3) -0.1467(3) -0.0224(3)
H1F H 0.35780 -0.19180 0.00500
H2F H 0.40180 -0.09150 -0.00580
C6F C 0.2704(3) -0.1508(3) -0.0048(2)
C7F C 0.4525(3) -0.0902(3) -0.1268(3)
H3F H 0.49560 -0.08740 -0.09250
H4F H 0.46460 -0.10530 -0.17520
C8F C 0.4583(3) -0.0023(3) -0.1308(3)
C4G C 0.2451(3) -0.4041(3) -0.1222(2)
N1G N 0.1571(2) -0.4766(2) -0.1025(2)
C5G C 0.1467(3) -0.4987(3) -0.0224(3)
H1G H 0.19180 -0.45040 0.00500
H2G H 0.09150 -0.50670 -0.00580
C6G C 0.1508(3) -0.5788(3) -0.0048(2)
O1G O 0.1414(2) -0.6293(2) -0.05792(17)
O2G O 0.1624(2) -0.5916(2) 0.06120(18)
C7G C 0.0902(3) -0.4573(3) -0.1268(3)
H3G H 0.08740 -0.41700 -0.09250
H4G H 0.10530 -0.43010 -0.17520
C8G C 0.0023(3) -0.5394(3) -0.1308(3)
O3G O 0.0022(2) -0.6110(2) -0.13341(19)
O4G O -0.0629(2) -0.5315(2) -0.1326(2)
C3G C 0.3154(3) -0.4226(3) -0.0944(2)
C4H C 0.4041(3) -0.3508(3) -0.1222(2)
N1H N 0.4766(2) -0.3663(2) -0.1025(2)
C5H C 0.4987(3) -0.3546(3) -0.0224(3)
H1H H 0.45040 -0.35780 0.00500
H2H H 0.50670 -0.40180 -0.00580
C6H C 0.5788(3) -0.2704(3) -0.0048(2)
O1H O 0.6293(2) -0.2293(2) -0.05792(17)
O2H O 0.5916(2) -0.2460(2) 0.06120(18)
C7H C 0.4573(3) -0.4525(3) -0.1268(3)
H3H H 0.41700 -0.49560 -0.09250
H4H H 0.43010 -0.46460 -0.17520
C8H C 0.5394(3) -0.4583(3) -0.1308(3)
O3H O 0.6110(2) -0.3868(2) -0.13341(19)
O4H O 0.5315(2) -0.5314(2) -0.1326(2)
C3H C 0.4226(3) -0.2620(3) -0.0944(2)
C1C C 0.6069(4) -0.1260(4) -0.25000
O5C O 0.60268(19) -0.16502(20) -0.31258(17)
O6C O 0.6139(3) -0.0530(3) -0.25000
O5H O 0.60268(19) -0.16502(20) -0.18742(17)
C1A C 0.7329(4) 0.6069(4) 0.25000
O5A O 0.76770(19) 0.60268(20) 0.18742(17)
O6A O 0.6669(3) 0.6139(3) 0.25000
O5J O 0.76770(19) 0.60268(20) 0.31258(17)
C2A C 0.9635(6) 0.7657(6) 0.25000
O7A O 0.9495(2) 0.7265(2) 0.1880(2)
O8A O 0.9718(9) 0.8434(9) 0.25000
O7J O 0.9495(2) 0.7265(2) 0.3120(2)
O10A O 0.8741(3) 0.5461(3) 0.25000
C2B C 0.2343(6) 0.1978(6) 0.25000
O7B O 0.2735(2) 0.2230(2) 0.1880(2)
O8B O 0.1566(9) 0.1284(9) 0.25000
O7I O 0.2735(2) 0.2230(2) 0.3120(2)
O10B O 0.4539(3) 0.3280(3) 0.25000
O12A O 1.0390(4) 0.7060(3) -0.0791(3)
O15A O 0.8360(6) 0.5488(6) -0.25000
O12B O 0.2940(4) 0.3330(3) -0.0791(3)
O15B O 0.4512(6) 0.2872(6) -0.25000
O12F O 0.3330(4) 0.0390(3) 0.0791(3)
O12G O 0.9610(4) 0.2940(3) 0.0791(3)
O12H O 0.7060(4) 0.6670(3) 0.0791(3)
Fe1F Fe 0.27733(4) -0.12235(4) -0.16531(3)
Fe1G Fe 0.12235(4) -0.60032(4) -0.16531(3)
Na1D Na 1.06167(14) 0.39431(13) 0.34118(10)
Na1E Na 0.66736(14) 0.06167(13) -0.34118(10)
O5B O 0.39732(19) 0.16502(20) 0.18742(17)
N1E N 0.6337(2) 0.1571(2) 0.3975(2)
O1E O 0.7707(2) 0.1414(2) 0.44208(17)
O3E O 0.6132(2) 0.0022(2) 0.36659(19)
O4G* O 0.9371(2) 0.4685(2) -0.1326(2)
O6F O 1.0530(3) 0.6669(3) -0.25000
O4H* O 0.5315(2) 0.4686(2) -0.1326(2)
O6D O 0.3331(3) 0.3861(3) -0.25000
O6B O 0.3861(3) 0.0530(3) 0.25000
O15F O 0.2872(6) -0.1640(6) 0.25000
O2G* O 1.1624(2) 0.4084(2) 0.06120(18)
O15D O 1.1640(6) 0.4512(6) 0.25000
O2H* O 0.5916(2) 0.7540(2) 0.06120(18)
O15C O 0.5488(6) 0.7128(6) 0.25000
Na1G* Na 0.06167(14) -0.60569(13) 0.15882(10)
Na1A* Na -0.06167(14) -0.39431(13) -0.15882(10)
Fe1H Fe 0.60032(4) -0.27733(4) -0.16531(3)
Na1H* Na 0.60569(14) -0.33264(13) 0.15882(10)
Na1B* Na 0.39431(14) -0.66736(13) -0.15882(10)
Fe1C Fe 0.60032(4) -0.27733(4) -0.33469(3)
Na1C Na 0.60569(14) 0.66736(13) 0.34118(10)
Fe1J Fe 0.87765(4) 0.60032(4) 0.33469(3)
Fe1I Fe 0.39968(4) 0.27733(4) 0.33469(3)
Na1J Na 0.93833(14) 0.60569(13) -0.34118(10)
Na1I Na 0.39431(14) 0.33264(13) -0.34118(10)
O5F O 0.16502(19) -0.2323(2) -0.18742(17)
O7F O 0.2230(2) -0.0505(2) -0.1880(2)
O10F O 0.3280(3) -0.1259(3) -0.25000
O5G O 0.23230(19) -0.60268(20) -0.18742(17)
O7G O 0.0505(2) -0.7265(2) -0.1880(2)
O10D O 0.1259(3) -0.5461(3) -0.25000
#END
