
#######################################################################
#
#                 Cambridge Crystallographic Data Centre
#                                CCDC
#
#######################################################################
#
# If this CIF has been generated from an entry in the Cambridge
# Structural Database, then it will include bibliographic, chemical,
# crystal, experimental, refinement or atomic coordinate data resulting
# from the CCDC's data processing and validation procedures.
#
#######################################################################

data_CSD_CIF_SAJBOV
_audit_creation_date 2005-03-24
_audit_creation_method CSD-ConQuest-V1
_database_code_CSD SAJBOV
_database_code_depnum_ccdc_archive 'CCDC 235468'
_chemical_formula_sum 'C60 H46 Cd2 Cl6 N6 O18'
_chemical_formula_moiety
;
(H3 O1 1+)2n,n(C18 Cd2 Cl6 O12 2-),3n(C12 H8 N2),2n(C3 H6 O1),2n(H2 O1)
;
_journal_coden_Cambridge 1290
_journal_year 2004
_journal_page_first 4253
_journal_name_full 'Eur.J.Inorg.Chem. '
loop_
_publ_author_name
"Tzuoo-Tsair Luo"
"Yen-Hsiang Liu"
"Hui-Lien Tsai"
"Chan-Cheng Su"
"Chuen-HerUeng"
"Kuang-Lieh Lu"
_chemical_name_systematic
;
catena-(bis(oxonium) tris(\m~2~-chloranilato)-di-cadmium(ii) tris(phenazine) 
acetone solvate dihydrate)
;
_cell_volume   1544.704
_exptl_crystal_colour 'black'
_exptl_crystal_density_diffrn 1.695
_exptl_crystal_description 'prism'
_diffrn_ambient_temperature 293
_refine_special_details
;
The disordered solvent molecules could not be resolved.

;
#These two values have been output from a single CSD field.
_refine_ls_R_factor_gt 0.0477
_refine_ls_wR_factor_gt 0.0477
_symmetry_cell_setting hexagonal
_symmetry_space_group_name_H-M 'P -3 1 m'
_symmetry_Int_Tables_number 162
loop_
_symmetry_equiv_pos_site_id
_symmetry_equiv_pos_as_xyz
1 x,y,z
2 -y,x-y,z
3 -x+y,-x,z
4 x,x-y,-z
5 -x+y,y,-z
6 -y,-x,-z
7 -x,-y,-z
8 y,-x+y,-z
9 x-y,x,-z
10 -x,-x+y,z
11 x-y,-y,z
12 y,x,z
_cell_length_a 14.359(2)
_cell_length_b 14.359(2)
_cell_length_c 8.6510(17)
_cell_angle_alpha 90
_cell_angle_beta 90
_cell_angle_gamma 120
_cell_formula_units_Z 1
loop_
_atom_type_symbol
_atom_type_radius_bond
C 0.68
H 0.23
Cd 1.69
Cl 0.99
N 0.68
O 0.68
loop_
_atom_site_label
_atom_site_type_symbol
_atom_site_fract_x
_atom_site_fract_y
_atom_site_fract_z
C1 C 0.4660(3) 0.4085(3) -0.4162(4)
C2 C 0.4264(4) 0.3130(3) -0.3243(4)
H1 H 0.46310 0.27500 -0.32220
C3 C 0.3360(4) 0.2787(4) -0.2415(5)
H2 H 0.31030 0.21630 -0.18290
N1 N 0.55621(15) 0.44379(15) -0.50000
O1 O 0.66670 0.33330 -0.50000
H3 H 0.631(3) 0.369(3) -0.50000
Cd1 Cd 0.66670 0.33330 0.00000
Cl1 Cl 0.33091(8) 0.00000 -0.23658(15)
C4 C 0.5103(2) 0.0981(2) -0.0615(3)
C5 C 0.4236(3) 0.00000 -0.1077(5)
O2 O 0.5302(2) 0.1869(2) -0.1148(3)
C1K C 0.4085(3) 0.4660(3) -0.4162(4)
C2K C 0.3130(4) 0.4264(3) -0.3243(4)
H1K H 0.27500 0.46310 -0.32220
C3K C 0.2787(4) 0.3360(4) -0.2415(5)
C1E C 0.5915(3) 0.5340(3) -0.5838(4)
C1F C 0.5340(3) 0.5915(3) -0.5838(4)
C2E C 0.6870(4) 0.5736(3) -0.6757(4)
H1E H 0.72500 0.53690 -0.67780
C3E C 0.7213(4) 0.6640(4) -0.7585(5)
C3F C 0.6640(4) 0.7213(4) -0.7585(5)
C2F C 0.5736(4) 0.6870(3) -0.6757(4)
N1F N 0.44379(15) 0.55621(15) -0.50000
H1F H 0.53690 0.72500 -0.67780
H2F H 0.68970 0.78370 -0.81710
H2E H 0.78370 0.68970 -0.81710
H2K H 0.21630 0.31030 -0.18290
H3A H 0.631(3) 0.262(3) -0.50000
H3B H 0.738(3) 0.369(3) -0.50000
C4D C 0.5878(2) 0.0981(2) 0.0615(3)
C5D C 0.5764(3) 0.00000 0.1077(5)
Cl1D Cl 0.66909(8) 0.00000 0.23658(15)
C4F C 0.4897(2) -0.0981(2) 0.0615(3)
C4J C 0.4122(2) -0.0981(2) -0.0615(3)
O2J O 0.3433(2) -0.1869(2) -0.1148(3)
O2F O 0.4698(2) -0.1869(2) 0.1148(3)
O2D O 0.6567(2) 0.1869(2) 0.1148(3)
O2A O 0.8131(2) 0.3433(2) -0.1148(3)
O2E O 0.8131(2) 0.4698(2) 0.1148(3)
O2B O 0.6567(2) 0.4698(2) -0.1148(3)
O2C O 0.5302(2) 0.3433(2) 0.1148(3)
Cd1J Cd 0.33340 -0.33330 0.00000
Cl1I Cl 0.66909(8) -0.33091 -0.23658(15)
C4I C 0.4897(2) -0.4122(2) -0.0615(3)
C5I C 0.5764(3) -0.42360 -0.1077(5)
O2I O 0.4698(2) -0.3433(2) -0.1148(3)
C4H C 0.4122(2) -0.4897(2) 0.0615(3)
C5H C 0.4236(3) -0.57640 0.1077(5)
Cl1H Cl 0.33091(8) -0.66909 0.23658(15)
C4C C 0.5103(2) -0.5878(2) 0.0615(3)
C4B C 0.5878(2) -0.5103(2) -0.0615(3)
O2B* O 0.6567(2) -0.5302(2) -0.1148(3)
O2C* O 0.5302(2) -0.6567(2) 0.1148(3)
O2H O 0.3433(2) -0.4698(2) 0.1148(3)
Cl1K Cl 0.00000(8) -0.66909 -0.23658(15)
C4K C 0.0981(2) -0.4897(2) -0.0615(3)
C5K C 0.0000(3) -0.57640 -0.1077(5)
O2K O 0.1869(2) -0.4698(2) -0.1148(3)
C4G C 0.0981(2) -0.4122(2) 0.0615(3)
C5G C 0.0000(3) -0.42360 0.1077(5)
Cl1G Cl 0.00000(8) -0.33091 0.23658(15)
C4E C -0.0981(2) -0.5103(2) 0.0615(3)
C4A C -0.0981(2) -0.5878(2) -0.0615(3)
O2A* O -0.1869(2) -0.6567(2) -0.1148(3)
O2E* O -0.1869(2) -0.5302(2) 0.1148(3)
O2G O 0.1869(2) -0.3433(2) 0.1148(3)
Cd1* Cd 0.66670 -0.66670 0.00000
Cd1** Cd -0.33330 -0.66670 0.00000
#END
