
#######################################################################
#
#                 Cambridge Crystallographic Data Centre
#                                CCDC
#
#######################################################################
#
# If this CIF has been generated from an entry in the Cambridge
# Structural Database, then it will include bibliographic, chemical,
# crystal, experimental, refinement or atomic coordinate data resulting
# from the CCDC's data processing and validation procedures.
#
#######################################################################

data_CSD_CIF_SAJBUB
_audit_creation_date 2005-03-24
_audit_creation_method CSD-ConQuest-V1
_database_code_CSD SAJBUB
_database_code_depnum_ccdc_archive 'CCDC 235469'
_chemical_formula_sum 'C60 H46 Cl6 N6 O18 Zn2'
_chemical_formula_moiety
;
(H3 O1 1+)2n,n(C18 Cl6 O12 Zn2 2-),3n(C12 H8 N2),2n(C3 H6 O1),2n(H2 O1)
;
_journal_coden_Cambridge 1290
_journal_year 2004
_journal_page_first 4253
_journal_name_full 'Eur.J.Inorg.Chem. '
loop_
_publ_author_name
"Tzuoo-Tsair Luo"
"Yen-Hsiang Liu"
"Hui-Lien Tsai"
"Chan-Cheng Su"
"Chuen-HerUeng"
"Kuang-Lieh Lu"
_chemical_name_systematic
;
catena-(bis(oxonium) tris(\m~2~-chloranilato)-di-zinc(ii) tris(phenazine) 
acetone solvate dihydrate)
;
_cell_volume   1505.962
_exptl_crystal_colour 'black'
_exptl_crystal_density_diffrn 1.635
_exptl_crystal_description 'prism'
_diffrn_ambient_temperature 293
_refine_special_details
;
The disordered solvent molecules could not be resolved.

;
#These two values have been output from a single CSD field.
_refine_ls_R_factor_gt 0.0598
_refine_ls_wR_factor_gt 0.0598
_symmetry_cell_setting hexagonal
_symmetry_space_group_name_H-M 'P -3 1 m'
_symmetry_Int_Tables_number 162
loop_
_symmetry_equiv_pos_site_id
_symmetry_equiv_pos_as_xyz
1 x,y,z
2 -y,x-y,z
3 -x+y,-x,z
4 x,x-y,-z
5 -x+y,y,-z
6 -y,-x,-z
7 -x,-y,-z
8 y,-x+y,-z
9 x-y,x,-z
10 -x,-x+y,z
11 x-y,-y,z
12 y,x,z
_cell_length_a 13.7520(6)
_cell_length_b 13.7520(6)
_cell_length_c 9.1950(5)
_cell_angle_alpha 90
_cell_angle_beta 90
_cell_angle_gamma 120
_cell_formula_units_Z 1
loop_
_atom_type_symbol
_atom_type_radius_bond
C 0.68
H 0.23
Cl 0.99
N 0.68
O 0.68
Zn 1.45
loop_
_atom_site_label
_atom_site_type_symbol
_atom_site_fract_x
_atom_site_fract_y
_atom_site_fract_z
C1 C 0.0597(3) 0.5923(3) 0.4149(4)
C2 C 0.0586(5) 0.7201(5) 0.2385(5)
H1 H 0.09680 0.78190 0.17780
C3 C 0.1183(4) 0.6886(4) 0.3255(5)
H2 H 0.19630 0.72970 0.32630
N1 N 0.1165(4) 0.5583(2) 0.50000
O1 O 0.33330 0.66670 0.50000
H3 H 0.239(8) 0.620(4) 0.50000
Zn1 Zn 0.33330 0.66670 0.00000
Cl1 Cl 0.00000 0.33603(10) 0.24392(16)
O2 O 0.1963(2) 0.5383(2) 0.1122(3)
C4 C 0.1021(3) 0.5136(3) 0.0627(4)
C5 C 0.00000 0.4257(4) 0.1107(5)
C1I C -0.0597(3) 0.5326(3) 0.4149(4)
C3I C -0.1183(4) 0.5703(4) 0.3255(5)
C2I C -0.0586(5) 0.6615(5) 0.2385(5)
C1C C 0.0597(3) 0.4674(3) 0.5851(4)
C1F C -0.0597(3) 0.4077(3) 0.5851(4)
C3C C 0.1183(4) 0.4297(4) 0.6745(5)
C2C C 0.0586(5) 0.3385(5) 0.7615(5)
C2F C -0.0586(5) 0.2799(5) 0.7615(5)
H1F H -0.09680 0.21810 0.82220
C3F C -0.1183(4) 0.3114(4) 0.6745(5)
N1F N -0.1165(4) 0.4417(2) 0.50000
H2F H -0.19630 0.27030 0.67370
H1C H 0.09680 0.31490 0.82220
H2C H 0.19630 0.46660 0.67370
H1I H -0.09680 0.68510 0.17780
H2I H -0.19630 0.53340 0.32630
H3A H 0.380(8) 0.619(4) 0.50000
H3B H 0.381(8) 0.761(4) 0.50000
C4C C 0.1021(3) 0.5885(3) -0.0627(4)
O2C O 0.1963(2) 0.6580(2) -0.1122(3)
C5C C 0.00000 0.5743(4) -0.1107(5)
Cl1C Cl 0.00000 0.66397(10) -0.24392(16)
C4F C -0.1021(3) 0.4864(3) -0.0627(4)
O2F O -0.1963(2) 0.4617(2) -0.1122(3)
C4I C -0.1021(3) 0.4115(3) 0.0627(4)
O2I O -0.1963(2) 0.3420(2) 0.1122(3)
O2A O 0.4617(2) 0.6580(2) 0.1122(3)
O2D O 0.3420(2) 0.5383(2) -0.1122(3)
O2B O 0.3420(2) 0.8037(2) 0.1122(3)
O2E O 0.4617(2) 0.8037(2) -0.1122(3)
Zn1F Zn -0.33330 0.33330 0.00000
Cl1G Cl -0.66397 0.33603(10) -0.24392(16)
O2G O -0.4617(2) 0.3420(2) -0.1122(3)
C4G C -0.4864(3) 0.4115(3) -0.0627(4)
C5G C -0.57430 0.4257(4) -0.1107(5)
C4J C -0.4115(3) 0.4864(3) 0.0627(4)
O2J O -0.3420(2) 0.4617(2) 0.1122(3)
C5J C -0.42570 0.5743(4) 0.1107(5)
Cl1J Cl -0.33603 0.66397(10) 0.24392(16)
C4A C -0.5136(3) 0.5885(3) 0.0627(4)
O2A* O -0.5383(2) 0.6580(2) 0.1122(3)
C4D C -0.5885(3) 0.5136(3) -0.0627(4)
O2D* O -0.6580(2) 0.5383(2) -0.1122(3)
Cl1H Cl -0.33603 0.0000(1) -0.24392(16)
O2H O -0.3420(2) 0.1963(2) -0.1122(3)
C4H C -0.4115(3) 0.1021(3) -0.0627(4)
C5H C -0.42570 0.0000(4) -0.1107(5)
C4K C -0.4864(3) 0.1021(3) 0.0627(4)
O2K O -0.4617(2) 0.1963(2) 0.1122(3)
C5K C -0.57430 0.0000(4) 0.1107(5)
Cl1K Cl -0.66397 0.0000(1) 0.24392(16)
C4B C -0.5885(3) -0.1021(3) 0.0627(4)
O2B* O -0.6580(2) -0.1963(2) 0.1122(3)
C4E C -0.5136(3) -0.1021(3) -0.0627(4)
O2E* O -0.5383(2) -0.1963(2) -0.1122(3)
Zn1* Zn -0.66670 0.66670 0.00000
Zn1** Zn -0.66670 -0.33330 0.00000
#END
