
#######################################################################
#
#                 Cambridge Crystallographic Data Centre
#                                CCDC
#
#######################################################################
#
# If this CIF has been generated from an entry in the Cambridge
# Structural Database, then it will include bibliographic, chemical,
# crystal, experimental, refinement or atomic coordinate data resulting
# from the CCDC's data processing and validation procedures.
#
#######################################################################

data_CSD_CIF_SAJBEL
_audit_creation_date 2005-03-24
_audit_creation_method CSD-ConQuest-V1
_database_code_CSD SAJBEL
_database_code_depnum_ccdc_archive 'CCDC 235466'
_chemical_formula_sum 'C60 H46 Cl6 Cu2 N6 O18'
_chemical_formula_moiety
;
(H3 O1 1+)2n,n(C18 Cl6 Cu2 O12 2-),3n(C12 H8 N2),2n(C3 H6 O1),2n(H2 O1)
;
_journal_coden_Cambridge 1290
_journal_year 2004
_journal_page_first 4253
_journal_name_full 'Eur.J.Inorg.Chem. '
loop_
_publ_author_name
"Tzuoo-Tsair Luo"
"Yen-Hsiang Liu"
"Hui-Lien Tsai"
"Chan-Cheng Su"
"Chuen-HerUeng"
"Kuang-Lieh Lu"
_chemical_name_systematic
;
catena-(bis(oxonium) tris(\m~2~-chloranilato)-di-copper(ii) tris(phenazine) 
acetone solvate dihydrate)
;
_cell_volume   1506.233
_exptl_crystal_colour 'black'
_exptl_crystal_density_diffrn 1.63
_exptl_crystal_description 'prism'
_diffrn_ambient_temperature 293
_refine_special_details
;
The disordered solvent molecules could not be resolved.

;
#These two values have been output from a single CSD field.
_refine_ls_R_factor_gt 0.0522
_refine_ls_wR_factor_gt 0.0522
_symmetry_cell_setting hexagonal
_symmetry_space_group_name_H-M 'P -3 1 m'
_symmetry_Int_Tables_number 162
loop_
_symmetry_equiv_pos_site_id
_symmetry_equiv_pos_as_xyz
1 x,y,z
2 -y,x-y,z
3 -x+y,-x,z
4 x,x-y,-z
5 -x+y,y,-z
6 -y,-x,-z
7 -x,-y,-z
8 y,-x+y,-z
9 x-y,x,-z
10 -x,-x+y,z
11 x-y,-y,z
12 y,x,z
_cell_length_a 13.7593(2)
_cell_length_b 13.7593(2)
_cell_length_c 9.1869(2)
_cell_angle_alpha 90
_cell_angle_beta 90
_cell_angle_gamma 120
_cell_formula_units_Z 1
loop_
_atom_type_symbol
_atom_type_radius_bond
C 0.68
H 0.23
Cl 0.99
Cu 1.52
N 0.68
O 0.68
loop_
_atom_site_label
_atom_site_type_symbol
_atom_site_fract_x
_atom_site_fract_y
_atom_site_fract_z
C1 C 0.4674(3) 0.4073(3) -0.4151(3)
C2 C 0.4303(3) 0.3117(3) -0.3246(4)
H1 H 0.46810 0.27140 -0.32410
C3 C 0.3386(3) 0.2797(4) -0.2386(4)
H2 H 0.31450 0.21740 -0.17850
N1 N 0.55832(15) 0.44168(15) -0.50000
O1 O 0.66670 0.33330 -0.50000
H3 H 0.628(3) 0.372(3) -0.50000
Cu1 Cu 0.66670 0.33330 0.00000
Cl1 Cl 0.33580(9) 0.00000 -0.24230(15)
C4 C 0.5134(3) 0.1025(2) -0.0615(3)
C5 C 0.4256(3) 0.00000 -0.1100(5)
O2 O 0.5372(2) 0.1968(2) -0.1091(3)
C1K C 0.4073(3) 0.4674(3) -0.4151(3)
C2K C 0.3117(3) 0.4303(3) -0.3246(4)
H1K H 0.27140 0.46810 -0.32410
C3K C 0.2797(3) 0.3386(4) -0.2386(4)
C1E C 0.5927(3) 0.5326(3) -0.5849(3)
C1F C 0.5326(3) 0.5927(3) -0.5849(3)
C2E C 0.6883(3) 0.5697(3) -0.6754(4)
H1E H 0.72860 0.53190 -0.67590
C3E C 0.7203(3) 0.6614(4) -0.7614(4)
C3F C 0.6614(3) 0.7203(4) -0.7614(4)
C2F C 0.5697(3) 0.6883(3) -0.6754(4)
N1F N 0.44168(15) 0.55832(15) -0.50000
H1F H 0.53190 0.72860 -0.67590
H2F H 0.68550 0.78260 -0.82150
H2E H 0.78260 0.68550 -0.82150
H2K H 0.21740 0.31450 -0.17850
H3A H 0.628(3) 0.256(3) -0.50000
H3B H 0.744(3) 0.372(3) -0.50000
C4D C 0.5891(3) 0.1025(2) 0.0615(3)
C5D C 0.5744(3) 0.00000 0.1100(5)
Cl1D Cl 0.66420(9) 0.00000 0.24230(15)
C4F C 0.4866(3) -0.1025(2) 0.0615(3)
C4J C 0.4109(3) -0.1025(2) -0.0615(3)
O2J O 0.3404(2) -0.1968(2) -0.1091(3)
O2F O 0.4628(2) -0.1968(2) 0.1091(3)
O2D O 0.6596(2) 0.1968(2) 0.1091(3)
O2A O 0.8032(2) 0.3404(2) -0.1091(3)
O2E O 0.8032(2) 0.4628(2) 0.1091(3)
O2B O 0.6596(2) 0.4628(2) -0.1091(3)
O2C O 0.5372(2) 0.3404(2) 0.1091(3)
Cu1J Cu 0.33340 -0.33330 0.00000
Cl1I Cl 0.66420(9) -0.33580 -0.24230(15)
C4I C 0.4866(3) -0.4109(2) -0.0615(3)
C5I C 0.5744(3) -0.42560 -0.1100(5)
O2I O 0.4628(2) -0.3404(2) -0.1091(3)
C4H C 0.4109(3) -0.4866(2) 0.0615(3)
C5H C 0.4256(3) -0.57440 0.1100(5)
Cl1H Cl 0.33580(9) -0.66420 0.24230(15)
C4C C 0.5134(3) -0.5891(2) 0.0615(3)
C4B C 0.5891(3) -0.5134(2) -0.0615(3)
O2B* O 0.6596(2) -0.5372(2) -0.1091(3)
O2C* O 0.5372(2) -0.6596(2) 0.1091(3)
O2H O 0.3404(2) -0.4628(2) 0.1091(3)
Cl1K Cl 0.00000(9) -0.66420 -0.24230(15)
C4K C 0.1025(3) -0.4866(2) -0.0615(3)
C5K C 0.0000(3) -0.57440 -0.1100(5)
O2K O 0.1968(2) -0.4628(2) -0.1091(3)
C4G C 0.1025(3) -0.4109(2) 0.0615(3)
C5G C 0.0000(3) -0.42560 0.1100(5)
Cl1G Cl 0.00000(9) -0.33580 0.24230(15)
C4E C -0.1025(3) -0.5134(2) 0.0615(3)
C4A C -0.1025(3) -0.5891(2) -0.0615(3)
O2A* O -0.1968(2) -0.6596(2) -0.1091(3)
O2E* O -0.1968(2) -0.5372(2) 0.1091(3)
O2G O 0.1968(2) -0.3404(2) 0.1091(3)
Cu1* Cu 0.66670 -0.66670 0.00000
Cu1** Cu -0.33330 -0.66670 0.00000
#END
