
#######################################################################
#
#                 Cambridge Crystallographic Data Centre
#                                CCDC
#
#######################################################################
#
# If this CIF has been generated from an entry in the Cambridge
# Structural Database, then it will include bibliographic, chemical,
# crystal, experimental, refinement or atomic coordinate data resulting
# from the CCDC's data processing and validation procedures.
#
#######################################################################

data_CSD_CIF_SAJCAI
_audit_creation_date 2005-03-24
_audit_creation_method CSD-ConQuest-V1
_database_code_CSD SAJCAI
_database_code_depnum_ccdc_archive 'CCDC 235470'
_chemical_formula_sum 'C60 H46 Cl6 Co2 N6 O18'
_chemical_formula_moiety
;
(H3 O1 1+)2n,n(C18 Cl6 Co2 O12 2-),3n(C12 H8 N2),2n(C3 H6 O1),2n(H2 O1)
;
_journal_coden_Cambridge 1290
_journal_year 2004
_journal_page_first 4253
_journal_name_full 'Eur.J.Inorg.Chem. '
loop_
_publ_author_name
"Tzuoo-Tsair Luo"
"Yen-Hsiang Liu"
"Hui-Lien Tsai"
"Chan-Cheng Su"
"Chuen-HerUeng"
"Kuang-Lieh Lu"
_chemical_name_systematic
;
catena-(bis(oxonium) tris(\m~2~-chloranilato)-di-cobalt(ii) tris(phenazine) 
acetone solvate dihydrate)
;
_cell_volume   1504.411
_exptl_crystal_colour 'black'
_exptl_crystal_density_diffrn 1.723
_exptl_crystal_description 'prism'
_diffrn_ambient_temperature 293
_refine_special_details
;
The disordered solvent molecules could not be resolved.

;
#These two values have been output from a single CSD field.
_refine_ls_R_factor_gt 0.0669
_refine_ls_wR_factor_gt 0.0669
_symmetry_cell_setting hexagonal
_symmetry_space_group_name_H-M 'P -3 1 m'
_symmetry_Int_Tables_number 162
loop_
_symmetry_equiv_pos_site_id
_symmetry_equiv_pos_as_xyz
1 x,y,z
2 -y,x-y,z
3 -x+y,-x,z
4 x,x-y,-z
5 -x+y,y,-z
6 -y,-x,-z
7 -x,-y,-z
8 y,-x+y,-z
9 x-y,x,-z
10 -x,-x+y,z
11 x-y,-y,z
12 y,x,z
_cell_length_a 13.7930(8)
_cell_length_b 13.7930(8)
_cell_length_c 9.1310(7)
_cell_angle_alpha 90
_cell_angle_beta 90
_cell_angle_gamma 120
_cell_formula_units_Z 1
loop_
_atom_type_symbol
_atom_type_radius_bond
C 0.68
H 0.23
Cl 0.99
Co 1.33
N 0.68
O 0.68
loop_
_atom_site_label
_atom_site_type_symbol
_atom_site_fract_x
_atom_site_fract_y
_atom_site_fract_z
N1 N 0.55600 0.11200 0.50000
C1 C 0.5923(4) 0.0596(4) 0.4145(5)
C2 C 0.6880(5) 0.1183(4) 0.3240(6)
H1 H 0.72790 0.19620 0.32270
C3 C 0.7201(5) 0.0584(5) 0.2390(7)
H2 H 0.78270 0.09620 0.17930
O1 O 0.66670 0.33330 0.50000
H3 H 0.62100 0.24200 0.50000
Co1 Co 0.66670 0.33330 0.00000
Cl1 Cl 0.33499(12) 0.00000 0.24295(18)
O2 O 0.5367(3) 0.1968(2) 0.1102(3)
C4 C 0.5137(4) 0.1023(4) 0.0615(5)
C5 C 0.4261(5) 0.00000 0.1124(7)
C1J C 0.5327(4) -0.0596(4) 0.4145(5)
N1J N 0.44400 -0.11200 0.50000
C1F C 0.4077(4) -0.0596(4) 0.5855(5)
C1D C 0.4673(4) 0.0596(4) 0.5855(5)
C2D C 0.4303(5) 0.1183(4) 0.6760(6)
H1D H 0.46830 0.19620 0.67730
C3D C 0.3383(5) 0.0584(5) 0.7610(7)
C3F C 0.2799(5) -0.0584(5) 0.7610(7)
C2F C 0.3120(5) -0.1183(4) 0.6760(6)
H1F H 0.27210 -0.19620 0.67730
H2F H 0.21730 -0.09620 0.82070
H2D H 0.31350 0.09620 0.82070
C2J C 0.5697(5) -0.1183(4) 0.3240(6)
H1J H 0.53170 -0.19620 0.32270
C3J C 0.6617(5) -0.0584(5) 0.2390(7)
H2J H 0.68650 -0.09620 0.17930
H3A H 0.75800 0.37900 0.50000
H3B H 0.62100 0.37900 0.50000
C4D C 0.5886(4) 0.1023(4) -0.0615(5)
O2D O 0.6601(3) 0.1968(2) -0.1102(3)
C5D C 0.5739(5) 0.00000 -0.1124(7)
Cl1D Cl 0.66501(12) 0.00000 -0.24295(18)
C4F C 0.4863(4) -0.1023(4) -0.0615(5)
O2F O 0.4633(3) -0.1968(2) -0.1102(3)
C4J C 0.4114(4) -0.1023(4) 0.0615(5)
O2J O 0.3399(3) -0.1968(2) 0.1102(3)
O2A O 0.8032(3) 0.3399(2) 0.1102(3)
O2E O 0.8032(3) 0.4633(2) -0.1102(3)
O2B O 0.6601(3) 0.4633(2) 0.1102(3)
O2C O 0.5367(3) 0.3399(2) -0.1102(3)
Co1F Co 0.33330 -0.33330 0.00000
Cl1G Cl 0.00000(12) -0.33499 -0.24295(18)
O2G O 0.1968(3) -0.3399(2) -0.1102(3)
C4G C 0.1023(4) -0.4114(4) -0.0615(5)
C5G C 0.0000(5) -0.42610 -0.1124(7)
C4K C 0.1023(4) -0.4863(4) 0.0615(5)
O2K O 0.1968(3) -0.4633(2) 0.1102(3)
C5K C 0.0000(5) -0.57390 0.1124(7)
Cl1K Cl 0.00000(12) -0.66501 0.24295(18)
C4A C -0.1023(4) -0.5886(4) 0.0615(5)
O2A* O -0.1968(3) -0.6601(2) 0.1102(3)
C4E C -0.1023(4) -0.5137(4) -0.0615(5)
O2E* O -0.1968(3) -0.5367(2) -0.1102(3)
Cl1H Cl 0.33499(12) -0.66501 -0.24295(18)
O2H O 0.3399(3) -0.4633(2) -0.1102(3)
C4H C 0.4114(4) -0.4863(4) -0.0615(5)
C5H C 0.4261(5) -0.57390 -0.1124(7)
C4I C 0.4863(4) -0.4114(4) 0.0615(5)
O2I O 0.4633(3) -0.3399(2) 0.1102(3)
C5I C 0.5739(5) -0.42610 0.1124(7)
Cl1I Cl 0.66501(12) -0.33499 0.24295(18)
C4B C 0.5886(4) -0.5137(4) 0.0615(5)
O2B* O 0.6601(3) -0.5367(2) 0.1102(3)
C4C C 0.5137(4) -0.5886(4) -0.0615(5)
O2C* O 0.5367(3) -0.6601(2) -0.1102(3)
Co1* Co -0.33330 -0.66670 0.00000
Co1** Co 0.66670 -0.66670 0.00000
#END
