
#######################################################################
#
#                 Cambridge Crystallographic Data Centre
#                                CCDC
#
#######################################################################
#
# If this CIF has been generated from an entry in the Cambridge
# Structural Database, then it will include bibliographic, chemical,
# crystal, experimental, refinement or atomic coordinate data resulting
# from the CCDC's data processing and validation procedures.
#
#######################################################################

data_CSD_CIF_SAJSAA
_audit_creation_date 2017-02-08
_audit_creation_method CSD-ConQuest-V1
_database_code_CSD SAJSAA
_database_code_depnum_ccdc_archive 'CCDC 1486514'
_chemical_formula_sum 'C46 H49 Fe2 N4 Na3 O20'
_chemical_formula_moiety
;
(C40 H32 Fe2 N2 Na3 O19 1-)n,C4 H9 N1 O1,C2 H8 N1 1+
;
_journal_coden_Cambridge 182
_journal_volume 53
_journal_year 2017
_journal_page_first 2394
_journal_name_full 'Chem.Commun. '
loop_
_publ_author_name
"Yun-Wu Li"
"Hui Yan"
"Tong-Liang Hu"
"Hui-Yan Ma"
"Da-Cheng Li"
"Su-Na Wang"
"Qing-Xia Yao"
"Jian-Min Dou"
"Jian Xu"
"Xian-He Bu"
_chemical_name_systematic
;
catena-[dimethylammonium 
bis(\m-biphenyl-3,3',5,5'-tetracarboxylato)-aqua-bis(N,N-dimethylacetamide)-di
-iron(ii)-tri-sodium(i) N,N-dimethylacetamide solvate]
;
_chemical_name_common
;
LCU-102
;
_cell_volume   5075.036
_exptl_crystal_colour 'orange'
_exptl_crystal_density_diffrn 1.514
_exptl_crystal_description 'Rod'
_diffrn_ambient_temperature 298
#These two values have been output from a single CSD field.
_refine_ls_R_factor_gt 0.0891
_refine_ls_wR_factor_gt 0.0891
_symmetry_cell_setting monoclinic
_symmetry_space_group_name_H-M 'P 21/c'
_symmetry_Int_Tables_number 14
loop_
_symmetry_equiv_pos_site_id
_symmetry_equiv_pos_as_xyz
1 x,y,z
2 -x,1/2+y,1/2-z
3 -x,-y,-z
4 x,-1/2-y,-1/2+z
_cell_length_a 13.5430(12)
_cell_length_b 19.3401(17)
_cell_length_c 23.223(2)
_cell_angle_alpha 90
_cell_angle_beta 123.452(3)
_cell_angle_gamma 90
_cell_formula_units_Z 4
loop_
_atom_type_symbol
_atom_type_radius_bond
C 0.68
H 0.23
Fe 1.52
N 0.68
Na 1.66
O 0.68
loop_
_atom_site_label
_atom_site_type_symbol
_atom_site_fract_x
_atom_site_fract_y
_atom_site_fract_z
C1 C 0.136(2) 0.1288(14) -0.0540(12)
H1 H 0.20360 0.11340 -0.05390
H2 H 0.12760 0.17790 -0.06080
H3 H 0.06620 0.10620 -0.09060
C2 C 0.272(3) 0.1133(18) 0.0710(13)
H4 H 0.28250 0.07570 0.10090
H5 H 0.28530 0.15630 0.09500
H6 H 0.32640 0.10880 0.05730
N1 N 0.152(2) 0.1121(19) 0.0106(14)
H7 H 0.12260 0.06950 0.00710
H8 H 0.10870 0.14180 0.01760
C3 C 0.878(3) 0.099(2) -0.0697(12)
H9 H 0.83170 0.14010 -0.07940
H10 H 0.82730 0.06230 -0.09960
H11 H 0.93930 0.10710 -0.07740
C4 C 0.874(3) 0.061(2) 0.0910(13)
H12 H 0.89130 0.01210 0.10030
H13 H 0.81130 0.07280 0.09650
H14 H 0.94370 0.08680 0.12260
O1 O 1.043(2) 0.0797(18) 0.0489(14)
N2 N 0.838(2) 0.075(2) 0.0196(12)
C5 C 0.9306(19) 0.078(3) 0.0031(13)
C6 C 0.707(2) 0.074(2) -0.0284(16)
H15 H 0.67160 0.08230 -0.00300
H16 H 0.68280 0.03020 -0.05080
H17 H 0.68310 0.11000 -0.06250
Fe1 Fe 0.60984(11) 0.23067(7) 0.26542(6)
O2 O 0.9320(6) 0.6509(3) 0.1922(3)
O3 O 1.1076(7) 0.6062(4) 0.2536(4)
C7 C 1.002(1) 0.6020(5) 0.2271(5)
Fe2 Fe 1.12897(11) 0.23704(7) 0.28948(6)
C8 C 1.0950(8) 0.2295(5) 0.1488(5)
O4 O 0.2425(5) 0.2510(3) -0.0985(3)
O5 O 0.4914(5) 0.2549(4) 0.1533(3)
O6 O 0.3178(5) 0.2667(3) -0.1582(3)
O7 O 0.9757(6) 0.2951(3) 0.2662(3)
O8 O 0.6803(5) 0.2504(3) 0.2051(3)
O9 O 1.1151(6) 0.3484(3) 0.2677(4)
O10 O 0.5190(6) 0.6719(3) 0.2270(3)
C9 C 0.8719(8) 0.2633(5) -0.0366(4)
C10 C 0.8806(8) 0.2420(5) 0.0802(4)
H18 H 0.88410 0.23340 0.12070
C11 C 0.5595(8) 0.4304(4) 0.2677(5)
C12 C 1.0047(9) 0.4754(4) 0.2433(5)
H19 H 1.07310 0.47310 0.24310
O11 O 0.5739(6) 0.3137(3) 0.2981(4)
C13 C 0.7688(8) 0.2653(5) -0.0379(4)
H20 H 0.69680 0.27380 -0.07910
C14 C 0.9808(8) 0.2412(5) 0.0829(4)
O12 O 0.9630(6) 0.2751(4) -0.0975(3)
O13 O 0.4170(6) 0.6217(3) 0.2601(3)
O14 O 0.7737(6) 0.2845(4) -0.1551(3)
C15 C 0.5805(8) 0.2560(4) 0.1516(4)
C16 C 0.3316(8) 0.2578(5) -0.1020(4)
C17 C 0.8042(8) 0.4825(5) 0.2457(5)
C18 C 0.8609(8) 0.4209(5) 0.2528(5)
H21 H 0.83030 0.38050 0.25880
C19 C 0.9586(8) 0.4165(5) 0.2514(5)
C20 C 0.9522(8) 0.5375(5) 0.2356(5)
C21 C 0.7010(8) 0.4866(5) 0.2513(5)
C22 C 0.9785(8) 0.2514(5) 0.0239(4)
H22 H 1.04800 0.25020 0.02480
C23 C 0.4620(8) 0.2582(5) 0.0245(4)
H23 H 0.39450 0.25730 0.02580
C24 C 0.5695(8) 0.2597(5) 0.0843(4)
C25 C 0.6457(8) 0.5475(5) 0.2453(5)
H24 H 0.67350 0.58770 0.23690
C26 C 0.4500(8) 0.2578(5) -0.0378(5)
C27 C 0.6564(8) 0.4286(5) 0.2620(5)
H25 H 0.69200 0.38620 0.26570
O15 O 1.1878(6) 0.2435(4) 0.1532(3)
C28 C 1.0203(9) 0.3513(5) 0.2622(5)
C29 C 0.8513(8) 0.5402(5) 0.2360(5)
H26 H 0.81390 0.58250 0.22940
C30 C 0.4929(8) 0.6192(5) 0.2467(5)
C31 C 0.5509(8) 0.5517(5) 0.2512(5)
O16 O 1.0927(6) 0.2068(3) 0.1983(3)
C32 C 0.6684(8) 0.2594(5) 0.0818(4)
H27 H 0.74240 0.26070 0.12310
C33 C 0.5066(8) 0.4932(5) 0.2624(5)
H28 H 0.44200 0.49580 0.26630
O17 O 0.4128(7) 0.3682(4) 0.2687(5)
C34 C 0.5099(11) 0.3656(5) 0.2782(6)
C35 C 0.7725(8) 0.2547(5) 0.0215(4)
C36 C 0.8697(8) 0.2744(5) -0.1002(5)
C37 C 0.6629(8) 0.2573(5) 0.0218(5)
C38 C 0.5501(8) 0.2561(5) -0.0392(5)
H29 H 0.54270 0.25390 -0.08140
Na1 Na 0.8719(3) 0.21381(17) 0.28198(17)
Na2 Na 1.3535(3) 0.25600(18) 0.26014(17)
Na3 Na 0.8487(3) 0.65999(19) 0.05722(18)
O18 O 0.7461(7) 0.7136(5) -0.0653(4)
O19 O 0.6834(11) 0.5872(7) 0.0318(6)
C39 C 1.1782(17) 0.5464(10) 0.1407(10)
H30 H 1.22170 0.54740 0.11920
H31 H 1.23220 0.54080 0.18960
H32 H 1.13540 0.58890 0.13140
O20 O 0.9500(12) 0.5576(6) 0.0605(7)
N3 N 1.0916(14) 0.4861(8) 0.1119(7)
C40 C 1.1418(16) 0.4171(7) 0.1276(8)
H33 H 1.08930 0.38590 0.13030
H34 H 1.21700 0.41760 0.17100
H35 H 1.15240 0.40200 0.09200
C41 C 0.5884(16) 0.5599(9) -0.0899(8)
H36 H 0.60870 0.52380 -0.10990
H37 H 0.62510 0.60230 -0.09010
H38 H 0.50410 0.56570 -0.11630
N4 N 0.6170(17) 0.4834(10) -0.0059(12)
C42 C 0.8999(17) 0.4364(10) 0.0414(11)
H39 H 0.94120 0.39740 0.03880
H40 H 0.83520 0.44850 -0.00420
H41 H 0.87010 0.42470 0.06930
C43 C 0.6623(19) 0.4623(12) 0.0710(9)
H42 H 0.65420 0.50100 0.09400
H43 H 0.74400 0.44890 0.09520
H44 H 0.61600 0.42430 0.07030
C44 C 0.988(2) 0.4997(11) 0.0747(10)
C45 C 0.6324(16) 0.5407(13) -0.0153(12)
C46 C 0.5644(19) 0.4288(8) -0.0522(11)
H45 H 0.51370 0.40370 -0.04280
H46 H 0.62470 0.39850 -0.04740
H47 H 0.51850 0.44650 -0.09850
C47 C 0.368(3) 0.5734(12) 0.3655(15)
H48 H 0.38040 0.57190 0.32870
H49 H 0.44290 0.57370 0.40900
H50 H 0.32470 0.61450 0.36140
C48 C 0.344(3) 0.4470(13) 0.356(2)
H51 H 0.42870 0.44600 0.38560
H52 H 0.31930 0.43910 0.30940
H53 H 0.31180 0.41160 0.37040
N5 N 0.302(2) 0.5137(14) 0.362(2)
H54 H 0.22690 0.51880 0.32490
H55 H 0.29870 0.51330 0.39940
Fe1A Fe 0.39016(11) 0.73067(7) 0.23458(6)
Fe1C Fe 0.60984(11) 0.26933(7) -0.23458(6)
O2A O 1.0680(6) 0.1509(3) 0.3078(3)
O3A O 0.8924(7) 0.1062(4) 0.2464(4)
Fe2A Fe 0.87103(11) 0.73704(7) 0.21052(6)
Fe2C Fe 0.12897(11) 0.26296(7) -0.21052(6)
O4B O 0.7575(5) 0.7490(3) 0.0985(3)
O4C O 1.2425(5) 0.2490(3) 0.4015(3)
O6C O 1.3178(5) 0.2333(3) 0.3418(3)
O10A O 0.4810(6) 0.1719(3) 0.2730(3)
O10A* O 1.4810(6) 0.1719(3) 0.2730(3)
O11* O 1.5739(6) 0.3137(3) 0.2981(4)
O12B O 1.0370(6) 0.7249(4) 0.0975(3)
O12C O 0.9630(6) 0.2249(4) 0.4025(3)
O13A O 0.5830(6) 0.1217(3) 0.2399(3)
O14C O 0.7737(6) 0.2155(4) 0.3449(3)
O17* O 1.4128(7) 0.3682(4) 0.2687(5)
Na1A Na 1.1281(3) 0.71381(17) 0.21802(17)
Na1C Na 0.8719(3) 0.28619(17) -0.21802(17)
Na2* Na 0.3535(3) 0.25600(18) 0.26014(17)
Na2A Na 0.6465(3) 0.75600(18) 0.23986(17)
Na2C Na 0.3535(3) 0.24400(18) -0.23986(17)
Na3B Na 0.1513(3) 0.34001(19) -0.05722(18)
Na3B* Na 1.1513(3) 0.34001(19) -0.05722(18)
#END
