
#######################################################################
#
#                 Cambridge Crystallographic Data Centre
#                                CCDC
#
#######################################################################
#
# If this CIF has been generated from an entry in the Cambridge
# Structural Database, then it will include bibliographic, chemical,
# crystal, experimental, refinement or atomic coordinate data resulting
# from the CCDC's data processing and validation procedures.
#
#######################################################################

data_CSD_CIF_SAKSOO
_audit_creation_date 2012-03-30
_audit_creation_method CSD-ConQuest-V1
_database_code_CSD SAKSOO
_database_code_depnum_ccdc_archive 'CCDC 838865'
_chemical_formula_sum 'C29 H31 Cd1 N7 O7'
_chemical_formula_moiety
;
(C2 H8 N1 1+)n,n(C27 H21 Cd1 N6 O6 1-),n(H2 O1)
;
_journal_coden_Cambridge 182
_journal_volume 48
_journal_year 2012
_journal_page_first 531
_journal_name_full 'Chem.Commun. '
loop_
_publ_author_name
"Qilong Zhu"
"Chaojun Shen"
"Chunhong Tan"
"Tianlu Sheng"
"Shengmin Hu"
"Xintao Wu"
_chemical_name_systematic
;
catena-(Dimethylammonium 
(\m~4~-N,N',N''-1,3,5-triazine-2,4,6-triyl-tris(4-aminoethylbenzoato))-cadmium
 monohydrate)
;
_cell_volume   7714.470
_exptl_crystal_colour 'colorless'
_exptl_crystal_density_diffrn 1.209
_exptl_crystal_description 'octahedral'
_diffrn_ambient_temperature 293
#These two values have been output from a single CSD field.
_refine_ls_R_factor_gt 0.0758
_refine_ls_wR_factor_gt 0.0758
_symmetry_cell_setting monoclinic
_symmetry_space_group_name_H-M 'C 2/c'
_symmetry_Int_Tables_number 15
loop_
_symmetry_equiv_pos_site_id
_symmetry_equiv_pos_as_xyz
1 x,y,z
2 -x,y,1/2-z
3 1/2+x,1/2+y,z
4 1/2-x,1/2+y,1/2-z
5 -x,-y,-z
6 x,-y,-1/2+z
7 -1/2-x,-1/2-y,-z
8 -1/2+x,-1/2-y,-1/2+z
_cell_length_a 29.28(2)
_cell_length_b 14.524(10)
_cell_length_c 20.084(15)
_cell_angle_alpha 90
_cell_angle_beta 115.414(11)
_cell_angle_gamma 90
_cell_formula_units_Z 8
loop_
_atom_type_symbol
_atom_type_radius_bond
C 0.68
H 0.23
Cd 1.44
N 0.68
O 0.68
loop_
_atom_site_label
_atom_site_type_symbol
_atom_site_fract_x
_atom_site_fract_y
_atom_site_fract_z
Cd1 Cd 0.134426(16) 0.48068(3) 0.28729(2)
N1 N -0.2262(2) 0.3342(4) -0.2118(3)
N2 N -0.20083(18) 0.4569(4) -0.2684(3)
N3 N -0.28367(19) 0.3895(4) -0.3299(3)
N4 N -0.1474(2) 0.4010(4) -0.1530(3)
H1 H -0.12580 0.44190 -0.15190
N5 N -0.3057(2) 0.2733(4) -0.2739(3)
H2 H -0.29840 0.23670 -0.23710
N6 N -0.2604(2) 0.5111(5) -0.3811(3)
H3 H -0.24200 0.55920 -0.37580
N7 N 0.50000 0.2222(9) 0.75000
H4 H 0.47390 0.18550 0.72260
N8 N 0.00000 0.3537(10) -0.25000
H5 H 0.02730 0.39060 -0.23230
C1 C -0.1927(2) 0.3956(4) -0.2122(3)
C2 C -0.2701(2) 0.3338(4) -0.2720(3)
C3 C -0.2477(2) 0.4490(5) -0.3252(3)
C4 C -0.1349(3) 0.3384(6) -0.0914(3)
H6 H -0.16190 0.33850 -0.07550
H7 H -0.13150 0.27630 -0.10660
C5 C -0.3557(2) 0.2669(5) -0.3350(3)
H8 H -0.37740 0.23020 -0.32000
H9 H -0.37020 0.32800 -0.34730
C6 C -0.3051(4) 0.4960(8) -0.4497(5)
H10 H -0.30040 0.44110 -0.47370
H11 H -0.33410 0.48600 -0.43920
C7 C 0.0482(2) 0.4560(5) 0.1605(3)
C8 C -0.3569(3) 0.0926(7) -0.5967(4)
C9 C -0.3501(2) 0.8083(4) -0.6482(3)
C10 C -0.0853(2) 0.3678(5) -0.0273(3)
C11 C -0.0383(3) 0.3553(6) -0.0246(3)
H12 H -0.03580 0.32680 -0.06440
C12 C 0.0056(3) 0.3825(6) 0.0341(3)
H13 H 0.03710 0.37190 0.03460
C13 C 0.0008(2) 0.4272(5) 0.0935(3)
C14 C -0.0455(3) 0.4434(6) 0.0908(4)
H14 H -0.04820 0.47510 0.12920
C15 C -0.0889(3) 0.4134(6) 0.0318(4)
H15 H -0.12040 0.42350 0.03130
C16 C -0.3538(2) 0.2236(5) -0.4029(3)
C17 C -0.3289(3) 0.1406(6) -0.3987(4)
H16 H -0.31150 0.11220 -0.35320
C18 C -0.3297(3) 0.1006(6) -0.4604(4)
H17 H -0.31280 0.04510 -0.45590
C19 C -0.3546(3) 0.1393(6) -0.5292(4)
C20 C -0.3789(3) 0.2238(7) -0.5344(4)
H18 H -0.39650 0.25130 -0.58020
C21 C -0.3766(3) 0.2666(5) -0.4715(4)
H19 H -0.39060 0.32500 -0.47510
C22 C -0.3152(3) 0.5770(6) -0.5009(4)
C23 C -0.3603(3) 0.6210(7) -0.5245(4)
H20 H -0.38430 0.60110 -0.50880
C24 C -0.3710(3) 0.6971(6) -0.5728(4)
H21 H -0.40170 0.72770 -0.58740
C25 C -0.3380(3) 0.7259(5) -0.5980(3)
C26 C -0.2909(3) 0.6788(6) -0.5747(4)
H22 H -0.26740 0.69650 -0.59190
C27 C -0.2814(3) 0.6073(6) -0.5267(4)
H23 H -0.25040 0.57750 -0.51050
C28 C 0.4825(6) 0.2821(13) 0.8004(11)
H24 H 0.47370 0.24240 0.83120
H25 H 0.45370 0.31840 0.77000
H26 H 0.50960 0.32210 0.83070
C29 C -0.0004(6) 0.3080(12) -0.1894(9)
H27 H -0.00080 0.35230 -0.15410
H28 H 0.02940 0.27040 -0.16710
H29 H -0.02990 0.26990 -0.20500
O1 O 0.09078(17) 0.4364(4) 0.1629(2)
O2 O 0.3524(7) 0.5983(15) 0.714(1)
O3 O 0.0440(2) 0.4952(5) 0.2133(3)
O4 O -0.3842(3) 0.1210(5) -0.6588(3)
O5 O -0.3345(3) 0.0223(5) -0.5893(4)
O6 O -0.3931(2) 0.8401(4) -0.6747(3)
O7 O -0.31472(18) 0.8420(3) -0.6624(2)
Cd1D Cd -0.134426(16) 0.51932(3) -0.28729(2)
Cd1B Cd -0.365574(16) -0.01932(3) -0.71271(2)
Cd1B* Cd -0.365574(16) 0.98068(3) -0.71271(2)
N2D N 0.20083(18) 0.5431(4) 0.2684(3)
H4A H 0.52610 0.18550 0.77740
H5A H -0.02730 0.39060 -0.26770
C28A C 0.5175(6) 0.2821(13) 0.6996(11)
H24A H 0.52630 0.24240 0.66880
H25A H 0.54630 0.31840 0.73000
H26A H 0.49040 0.32210 0.66930
C29A C 0.0004(6) 0.3080(12) -0.3106(9)
H27A H 0.00080 0.35230 -0.34590
H28A H -0.02940 0.27040 -0.33290
H29A H 0.02990 0.26990 -0.29500
O4B O 0.1158(3) 0.6210(5) 0.3412(3)
O5B O 0.1655(3) 0.5223(5) 0.4107(4)
O6B O 0.1069(2) 0.3401(4) 0.3253(3)
O7B O 0.18528(18) 0.3420(3) 0.3376(2)
#END
