
#######################################################################
#
#                 Cambridge Crystallographic Data Centre
#                                CCDC
#
#######################################################################
#
# If this CIF has been generated from an entry in the Cambridge
# Structural Database, then it will include bibliographic, chemical,
# crystal, experimental, refinement or atomic coordinate data resulting
# from the CCDC's data processing and validation procedures.
#
#######################################################################

data_CSD_CIF_SAKSII
_audit_creation_date 2012-03-30
_audit_creation_method CSD-ConQuest-V1
_database_code_CSD SAKSII
_database_code_depnum_ccdc_archive 'CCDC 838864'
_chemical_formula_sum 'C29 H33 Cd1 N7 O8'
_chemical_formula_moiety
;
(C2 H8 N1 1+)n,n(C27 H21 Cd1 N6 O6 1-),2n(H2 O1)
;
_journal_coden_Cambridge 182
_journal_volume 48
_journal_year 2012
_journal_page_first 531
_journal_name_full 'Chem.Commun. '
loop_
_publ_author_name
"Qilong Zhu"
"Chaojun Shen"
"Chunhong Tan"
"Tianlu Sheng"
"Shengmin Hu"
"Xintao Wu"
_chemical_name_systematic
;
catena-(Dimethylammonium 
(\m~4~-N,N',N''-1,3,5-triazine-2,4,6-triyl-tris(4-aminoethylbenzoato))-cadmium
 dihydrate)
;
_cell_volume   3603.630
_exptl_crystal_colour 'colorless'
_exptl_crystal_density_diffrn 1.327
_exptl_crystal_description 'block'
_diffrn_ambient_temperature 293
_refine_special_details
;
The SQUEEZE/PLATON program may have been used.

;
#These two values have been output from a single CSD field.
_refine_ls_R_factor_gt 0.0522
_refine_ls_wR_factor_gt 0.0522
_symmetry_cell_setting monoclinic
_symmetry_space_group_name_H-M 'P 21/c'
_symmetry_Int_Tables_number 14
loop_
_symmetry_equiv_pos_site_id
_symmetry_equiv_pos_as_xyz
1 x,y,z
2 -x,1/2+y,1/2-z
3 -x,-y,-z
4 x,-1/2-y,-1/2+z
_cell_length_a 12.943(4)
_cell_length_b 12.329(3)
_cell_length_c 23.867(5)
_cell_angle_alpha 90
_cell_angle_beta 108.881(12)
_cell_angle_gamma 90
_cell_formula_units_Z 4
loop_
_atom_type_symbol
_atom_type_radius_bond
C 0.68
H 0.23
Cd 1.44
N 0.68
O 0.68
loop_
_atom_site_label
_atom_site_type_symbol
_atom_site_fract_x
_atom_site_fract_y
_atom_site_fract_z
Cd1 Cd 0.25767(2) 0.48046(2) -0.236148(12)
O1 O 0.1838(2) 0.3169(2) -0.21732(15)
O2 O 0.2854(2) 0.3050(2) -0.27600(14)
O3 O 0.1003(3) 0.0140(2) 0.17176(15)
O4 O 0.2496(2) -0.0768(3) 0.17902(13)
O5 O 0.5691(3) -0.5807(4) 0.18904(16)
O6 O 0.6011(3) -0.4309(3) 0.15020(18)
N1 N 0.1523(3) -0.2685(2) -0.25765(15)
H1 H 0.20770 -0.29410 -0.26560
N2 N 0.1716(2) -0.4056(2) -0.18775(14)
N3 N 0.0693(3) -0.2446(2) -0.18734(15)
N4 N 0.0841(3) -0.3812(2) -0.11410(14)
N5 N -0.0205(3) -0.2266(3) -0.12075(15)
H2 H -0.03830 -0.16370 -0.13650
N6 N 0.1840(3) -0.5339(3) -0.11548(17)
H3 H 0.22200 -0.57130 -0.13210
C1 C 0.1306(3) -0.3066(3) -0.20942(17)
C2 C 0.0468(3) -0.2867(3) -0.14116(16)
C3 C 0.1455(3) -0.4375(3) -0.13936(16)
C4 C 0.0838(4) -0.1851(3) -0.29692(19)
H4 H 0.01060 -0.18970 -0.29450
H5 H 0.07940 -0.20130 -0.33740
C5 C -0.0644(4) -0.2592(4) -0.0751(2)
H6 H -0.05690 -0.33720 -0.06990
H7 H -0.14170 -0.24210 -0.08770
C6 C 0.1686(4) -0.5787(4) -0.06314(18)
H8 H 0.15500 -0.65590 -0.06890
H9 H 0.10450 -0.54590 -0.05760
C7 C 0.2234(3) 0.2624(3) -0.2500(2)
C8 C 0.1529(3) -0.0504(3) 0.15079(17)
C9 C 0.5438(4) -0.5129(4) 0.1480(2)
C10 C 0.1248(3) -0.0700(3) -0.28273(17)
C11 C 0.1877(4) -0.0218(3) -0.3131(2)
H10 H 0.20700 -0.06140 -0.34140
C12 C 0.2222(3) 0.0851(3) -0.3016(2)
H11 H 0.26470 0.11640 -0.32210
C13 C 0.1939(3) 0.1451(3) -0.26004(19)
C14 C 0.1305(4) 0.0970(3) -0.2295(2)
H12 H 0.11140 0.13660 -0.20120
C15 C 0.0957(4) -0.0096(3) -0.2412(2)
H13 H 0.05260 -0.04070 -0.22100
C16 C -0.0085(3) -0.2046(4) -0.01620(19)
C17 C -0.0649(3) -0.1355(3) 0.0092(2)
H14 H -0.13870 -0.12240 -0.01000
C18 C -0.0133(3) -0.0859(3) 0.06227(19)
H15 H -0.05270 -0.04050 0.07890
C19 C 0.0974(3) -0.1027(3) 0.09161(17)
C20 C 0.1543(4) -0.1706(5) 0.0663(2)
H16 H 0.22830 -0.18280 0.08540
C21 C 0.1022(4) -0.2207(5) 0.0127(2)
H17 H 0.14170 -0.26560 -0.00420
C22 C 0.2653(3) -0.5613(3) -0.00782(19)
C23 C 0.3202(6) -0.4646(5) 0.0047(3)
H18 H 0.29610 -0.40690 -0.02130
C24 C 0.4088(6) -0.4497(5) 0.0540(3)
H19 H 0.44490 -0.38340 0.06000
C25 C 0.4450(4) -0.5302(4) 0.0943(2)
C26 C 0.3903(4) -0.6282(4) 0.0840(2)
H20 H 0.41270 -0.68430 0.11130
C27 C 0.3022(4) -0.6426(4) 0.0332(2)
H21 H 0.26680 -0.70930 0.02650
N7 N 0.4939(3) 0.2289(4) -0.2469(2)
H22 H 0.42530 0.25300 -0.26430
H23 H 0.50880 0.18050 -0.27150
C28 C 0.5007(6) 0.1746(9) -0.1908(4)
H24 H 0.44950 0.11570 -0.19850
H25 H 0.48390 0.22570 -0.16460
H26 H 0.57330 0.14710 -0.17260
O7 O 0.3657(8) -0.8920(7) 0.1228(5)
O8 O 0.3698(10) -0.1060(12) -0.0362(11)
C29 C 0.5693(6) 0.3198(7) -0.2383(5)
H27 H 0.56210 0.35250 -0.27580
H28 H 0.64280 0.29430 -0.22050
H29 H 0.55270 0.37250 -0.21280
Cd1C Cd 0.25767(2) 0.01954(2) 0.263852(12)
Cd1B Cd 0.74233(2) -0.48046(2) 0.236148(12)
Cd1* Cd 0.25767(2) -0.51954(2) -0.236148(12)
O3C O 0.1003(3) 0.4860(2) -0.32824(15)
O4C O 0.2496(2) 0.5768(3) -0.32098(13)
O5B O 0.4309(3) 0.5807(4) -0.18904(16)
O6B O 0.3989(3) 0.4309(3) -0.15020(18)
N2* N 0.1716(2) 0.5944(2) -0.18775(14)
#END
