
#######################################################################
#
#                 Cambridge Crystallographic Data Centre
#                                CCDC
#
#######################################################################
#
# If this CIF has been generated from an entry in the Cambridge
# Structural Database, then it will include bibliographic, chemical,
# crystal, experimental, refinement or atomic coordinate data resulting
# from the CCDC's data processing and validation procedures.
#
#######################################################################

data_CSD_CIF_SALBIR
_audit_creation_date 2005-03-24
_audit_creation_method CSD-ConQuest-V1
_database_code_CSD SALBIR
_database_code_depnum_ccdc_archive 'CCDC 226709'
_chemical_formula_sum 'C18 H22 Fe1 N4 O8'
_chemical_formula_moiety
;
(C2 H8 N1 1+)2n,n(C14 H6 Fe1 N2 O8 2-)
;
_journal_coden_Cambridge 1290
_journal_year 2004
_journal_page_first 4457
_journal_name_full 'Eur.J.Inorg.Chem. '
loop_
_publ_author_name
"Ying Xu"
"Lei Han"
"Zheng-Zhong Lin"
"Cai-Ping Liu"
"Da-Qiang Yuan"
"You-Fu Zhou"
"Mao-Chun Hong"
_chemical_name_systematic
;
catena-(bis(Dimethylammonium) 
bis(\m~2~-pyridine-2,5-dicarboxylato-N,O,O')-iron(ii))
;
_chemical_melting_point 537.15
_cell_volume   2091.553
_exptl_crystal_colour 'dark red'
_exptl_crystal_density_diffrn 1.519
_exptl_special_details
;
Melts with decomposition.

;
_exptl_crystal_description 'block'
_diffrn_ambient_temperature 293
#These two values have been output from a single CSD field.
_refine_ls_R_factor_gt 0.0443
_refine_ls_wR_factor_gt 0.0443
_symmetry_cell_setting monoclinic
_symmetry_space_group_name_H-M 'C 2/c'
_symmetry_Int_Tables_number 15
loop_
_symmetry_equiv_pos_site_id
_symmetry_equiv_pos_as_xyz
1 x,y,z
2 x,-y,1/2+z
3 1/2+x,1/2+y,z
4 1/2+x,1/2-y,1/2+z
5 -x,-y,-z
6 -x,y,-1/2-z
7 -1/2-x,-1/2-y,-z
8 -1/2-x,-1/2+y,-1/2-z
_cell_length_a 15.0657(9)
_cell_length_b 8.3054(5)
_cell_length_c 17.0198(10)
_cell_angle_alpha 90
_cell_angle_beta 100.851(2)
_cell_angle_gamma 90
_cell_formula_units_Z 4
loop_
_atom_type_symbol
_atom_type_radius_bond
C 0.68
H 0.23
Fe 1.34
N 0.68
O 0.68
loop_
_atom_site_label
_atom_site_type_symbol
_atom_site_fract_x
_atom_site_fract_y
_atom_site_fract_z
C1 C -0.1718(2) 0.2917(4) 0.26336(19)
H1 H -0.15490 0.27980 0.31850
C2 C -0.2560(2) 0.3562(4) 0.2330(2)
C3 C -0.2781(2) 0.3825(4) 0.1517(2)
H2 H -0.33340 0.42830 0.12940
C4 C -0.2177(2) 0.3406(5) 0.1034(2)
H3 H -0.23080 0.36090 0.04870
C5 C -0.1377(2) 0.2681(4) 0.13803(18)
C6 C -0.0718(2) 0.2004(5) 0.08889(19)
C7 C -0.3219(2) 0.3877(4) 0.2886(3)
C8 C -0.1226(3) 0.2857(8) 0.5069(3)
H4 H -0.14410 0.19530 0.47360
H5 H -0.09940 0.36610 0.47570
H6 H -0.17160 0.33020 0.52880
C9 C -0.0130(4) 0.3593(6) 0.6265(3)
H7 H 0.03340 0.31520 0.66730
H8 H -0.05960 0.40550 0.65080
H9 H 0.01250 0.44100 0.59760
N1 N -0.11347(15) 0.2457(3) 0.21711(15)
N2 N -0.0508(3) 0.2332(4) 0.5722(2)
H10 H -0.07300 0.15600 0.60020
H11 H -0.00610 0.18890 0.55090
O1 O -0.00684(14) 0.1179(3) 0.12693(13)
O2 O -0.08615(18) 0.2279(5) 0.01650(15)
O3 O -0.2936(2) 0.3940(4) 0.36091(19)
O4 O -0.40364(16) 0.4012(3) 0.25438(19)
Fe1 Fe 0.00000 0.08264(8) 0.25000
C1E C 0.1718(2) 0.2917(4) 0.23664(19)
H1E H 0.15490 0.27980 0.18150
C2E C 0.2560(2) 0.3562(4) 0.2670(2)
C3E C 0.2781(2) 0.3825(4) 0.3483(2)
H2E H 0.33340 0.42830 0.37060
C4E C 0.2177(2) 0.3406(5) 0.3966(2)
H3E H 0.23080 0.36090 0.45130
C5E C 0.1377(2) 0.2681(4) 0.36197(18)
C6E C 0.0718(2) 0.2004(5) 0.41111(19)
C7E C 0.3219(2) 0.3877(4) 0.2114(3)
N1E N 0.11347(15) 0.2457(3) 0.28289(15)
O1E O 0.00684(14) 0.1179(3) 0.37307(13)
O2E O 0.08615(18) 0.2279(5) 0.48350(15)
O3E O 0.2936(2) 0.3940(4) 0.13909(19)
O4E O 0.40364(16) 0.4012(3) 0.24562(19)
Fe1B Fe -0.50000 0.58264(8) 0.25000
O4B O 0.09636(16) -0.0988(3) 0.25438(19)
O4G O -0.09636(16) -0.0988(3) 0.24562(19)
Fe1B* Fe 0.50000 0.58264(8) 0.25000
#END
