
#######################################################################
#
#                 Cambridge Crystallographic Data Centre
#                                CCDC
#
#######################################################################
#
# If this CIF has been generated from an entry in the Cambridge
# Structural Database, then it will include bibliographic, chemical,
# crystal, experimental, refinement or atomic coordinate data resulting
# from the CCDC's data processing and validation procedures.
#
#######################################################################

data_CSD_CIF_SAMMEA
_audit_creation_date 2012-02-16
_audit_creation_method CSD-ConQuest-V1
_database_code_CSD SAMMEA
_database_code_depnum_ccdc_archive 'CCDC 836179'
_chemical_formula_sum 'C76 H64 Cu4 O28 S48'
_chemical_formula_moiety
;
(C12 Cu4 O24 4-)n,4n(C10 H8 S8 1+),2n(C10 H8 S8),4n(C1 H4 O1)
;
_journal_coden_Cambridge 182
_journal_volume 48
_journal_year 2012
_journal_page_first 197
_journal_name_full 'Chem.Commun. '
loop_
_publ_author_name
"Bin Zhang"
"Yan Zhang"
"Daoben Zhu"
_chemical_name_systematic
;
catena-[tris(bis(Ethylenedithio)tetrathiafulvalenium) 
hexakis(\m~2~-oxalato)-tetra-copper methanol solvate]
;
_cell_volume   2761.697
_exptl_crystal_colour 'black'
_exptl_crystal_density_diffrn 1.935
_exptl_crystal_description 'plate'
_diffrn_ambient_temperature 160
_refine_special_details
;
One solvent O atom is disordered over two sites with occupancies 0.736:0.264.

;
#These two values have been output from a single CSD field.
_refine_ls_R_factor_gt 0.047
_refine_ls_wR_factor_gt 0.047
_symmetry_cell_setting triclinic
_symmetry_space_group_name_H-M 'P -1'
_symmetry_Int_Tables_number 2
loop_
_symmetry_equiv_pos_site_id
_symmetry_equiv_pos_as_xyz
1 x,y,z
2 -x,-y,-z
_cell_length_a 8.6554(3)
_cell_length_b 16.9210(6)
_cell_length_c 20.0587(8)
_cell_angle_alpha 104.959(2)
_cell_angle_beta 102.301(2)
_cell_angle_gamma 91.736(2)
_cell_formula_units_Z 1
loop_
_atom_type_symbol
_atom_type_radius_bond
C 0.68
H 0.23
Cu 1.42
O 0.68
S 1.02
loop_
_atom_site_label
_atom_site_type_symbol
_atom_site_fract_x
_atom_site_fract_y
_atom_site_fract_z
Cu1 Cu 0.58786(7) 0.34899(4) 0.00684(3)
Cu2 Cu 0.08170(7) 0.16082(4) 0.01420(3)
O1 O 0.5186(4) 0.2667(2) 0.07936(18)
O2 O 0.3639(4) 0.30346(19) -0.04448(16)
O3 O 0.3045(4) 0.1827(2) 0.06795(16)
O4 O 0.1546(4) 0.22373(19) -0.04464(15)
O5 O 0.8117(4) 0.36837(19) 0.06352(15)
O6 O 0.6653(4) 0.25090(19) -0.04871(15)
O7 O 1.0109(4) 0.2905(2) 0.08472(16)
O8 O 0.8581(4) 0.16963(19) -0.03295(15)
O9 O 0.5104(4) 0.44456(19) 0.06385(15)
O10 O 0.4221(4) 0.56757(19) 0.06392(16)
O11 O 0.0199(4) 0.09131(18) 0.06939(14)
O12 O -0.0626(4) -0.03670(19) 0.06483(15)
C1 C 0.3838(7) 0.2344(3) 0.0491(2)
C2 C 0.2948(6) 0.2564(3) -0.0189(2)
C3 C 0.8837(6) 0.3043(3) 0.0509(2)
C4 C 0.7961(6) 0.2358(3) -0.0156(2)
C5 C 0.4813(6) 0.5044(3) 0.0375(2)
C6 C -0.0132(6) 0.0148(3) 0.0384(2)
S1 S 0.27528(16) -0.12332(7) 0.43997(6)
S2 S 0.11208(15) 0.01367(7) 0.40177(6)
S3 S 0.37284(15) -0.01678(7) 0.60353(6)
S4 S 0.21393(15) 0.12132(7) 0.56539(6)
S5 S 0.21710(16) -0.23141(7) 0.29628(6)
S6 S 0.03358(15) -0.06533(7) 0.24691(6)
S7 S 0.45956(15) 0.06174(7) 0.75752(6)
S8 S 0.27923(16) 0.23007(7) 0.70951(6)
C7 C 0.2206(5) -0.0243(3) 0.4683(2)
C8 C 0.2629(5) 0.0215(3) 0.5372(2)
C9 C 0.1911(5) -0.1359(3) 0.3499(2)
C10 C 0.1194(5) -0.0722(3) 0.3325(2)
C11 C 0.3684(6) 0.0700(3) 0.6730(2)
C12 C 0.2990(5) 0.1336(3) 0.6549(2)
C13 C 0.0941(6) -0.2290(3) 0.2115(2)
H1 H 0.11990 -0.27360 0.17370
H2 H -0.01870 -0.23990 0.21190
C14 C 0.1150(6) -0.1489(3) 0.1940(2)
H3 H 0.06390 -0.15620 0.14350
H4 H 0.22980 -0.13420 0.20040
C15 C 0.3948(6) 0.1504(3) 0.8132(2)
H5 H 0.28100 0.13930 0.81180
H6 H 0.45490 0.15880 0.86270
C16 C 0.4170(6) 0.2287(3) 0.7910(2)
H7 H 0.52690 0.23500 0.78490
H8 H 0.40350 0.27630 0.82950
S9 S 1.05987(15) 0.35119(7) 0.39462(6)
S10 S 0.90822(15) 0.21822(7) 0.43402(6)
S11 S 1.15205(15) 0.45708(7) 0.55754(6)
S12 S 0.99703(15) 0.32597(7) 0.59820(6)
S13 S 1.00925(15) 0.26149(7) 0.24220(6)
S14 S 0.83663(15) 0.10274(7) 0.29334(6)
S15 S 1.27234(16) 0.56179(7) 0.70118(6)
S16 S 1.08639(15) 0.40536(7) 0.75191(6)
C17 C 1.0131(5) 0.3148(3) 0.4618(2)
C18 C 1.0511(5) 0.3601(3) 0.5310(2)
C19 C 0.9898(5) 0.2606(3) 0.3269(2)
C20 C 0.9221(5) 0.1995(3) 0.3456(2)
C21 C 1.1673(6) 0.4697(3) 0.6479(2)
C22 C 1.0959(6) 0.4098(3) 0.6670(2)
C23 C 0.8477(5) 0.1861(3) 0.1891(2)
H9 H 0.74600 0.20720 0.19740
H10 H 0.84630 0.17850 0.13840
C24 C 0.8598(6) 0.1040(3) 0.2054(2)
H11 H 0.96460 0.08500 0.20000
H12 H 0.77770 0.06390 0.16980
C25 C 1.2217(7) 0.5659(3) 0.7851(2)
H13 H 1.29640 0.60780 0.82280
H14 H 1.11400 0.58470 0.78320
C26 C 1.2246(7) 0.4888(3) 0.8052(3)
H15 H 1.20840 0.50070 0.85410
H16 H 1.33240 0.47040 0.80670
S17 S 0.54964(15) 0.34817(7) 0.40392(6)
S18 S 0.39977(15) 0.21723(7) 0.44612(6)
S19 S 0.64003(15) 0.45803(7) 0.56731(6)
S20 S 0.49368(15) 0.32593(7) 0.60947(6)
S21 S 0.48263(15) 0.25936(7) 0.25098(6)
S22 S 0.30179(15) 0.10435(7) 0.30423(6)
S23 S 0.75560(16) 0.56529(7) 0.71088(6)
S24 S 0.59534(16) 0.40398(7) 0.76373(6)
C27 C 0.5015(5) 0.3139(3) 0.4720(2)
C28 C 0.5417(5) 0.3610(3) 0.5413(2)
C29 C 0.4675(5) 0.2596(3) 0.3370(2)
C30 C 0.3966(5) 0.1995(3) 0.3560(2)
C31 C 0.6579(6) 0.4714(3) 0.6580(2)
C32 C 0.5948(5) 0.4103(3) 0.6777(2)
C33 C 0.4521(6) 0.1496(3) 0.2095(2)
H17 H 0.45230 0.13950 0.15870
H18 H 0.54190 0.12300 0.23160
C34 C 0.3002(6) 0.1108(3) 0.2159(2)
H19 H 0.27910 0.05480 0.18320
H20 H 0.21230 0.14310 0.20090
C35 C 0.7092(6) 0.5686(3) 0.7955(2)
H21 H 0.77630 0.61430 0.83250
H22 H 0.59690 0.58010 0.79300
C36 C 0.7347(6) 0.4904(3) 0.8167(2)
H23 H 0.72820 0.50030 0.86680
H24 H 0.84340 0.47580 0.81370
O13 O 0.3648(6) -0.0453(3) 0.1047(2)
C37 C 0.4397(10) -0.0342(5) 0.0521(4)
O14 O -0.1333(8) -0.3905(4) 0.1020(3)
C38 C -0.0583(11) -0.4199(5) 0.0495(4)
O15? O 0.092(3) -0.3811(11) 0.0815(9)
Cu1A Cu 0.41214(7) 0.65101(4) -0.00684(3)
Cu1* Cu -0.41214(7) 0.34899(4) 0.00684(3)
Cu2* Cu 1.08170(7) 0.16082(4) 0.01420(3)
Cu2A Cu -0.08170(7) -0.16082(4) -0.01420(3)
Cu2A* Cu 0.91830(7) 0.83918(4) -0.01420(3)
O1A O 0.4814(4) 0.7333(2) -0.07936(18)
O2A O 0.6361(4) 0.69654(19) 0.04448(16)
O3A O 0.6955(4) 0.8173(2) -0.06795(16)
O3* O 1.3045(4) 0.1827(2) 0.06795(16)
O4A O 0.8454(4) 0.77627(19) 0.04464(15)
O4* O 1.1546(4) 0.22373(19) -0.04464(15)
O5* O -0.1883(4) 0.36837(19) 0.06352(15)
O5A O 0.1883(4) 0.63163(19) -0.06352(15)
O6* O -0.3347(4) 0.25090(19) -0.04871(15)
O6A O 0.3347(4) 0.74910(19) 0.04871(15)
O7* O 0.0109(4) 0.2905(2) 0.08472(16)
O8* O -0.1419(4) 0.16963(19) -0.03295(15)
O9A O 0.4896(4) 0.55544(19) -0.06385(15)
O10A O 0.5779(4) 0.43243(19) -0.06392(16)
O11A O -0.0199(4) -0.09131(18) -0.06939(14)
O11* O 1.0199(4) 0.09131(18) 0.06939(14)
O12A O 0.0626(4) 0.03670(19) -0.06483(15)
O12A* O 1.0626(4) 0.03670(19) -0.06483(15)
C1A C 0.6162(7) 0.7656(3) -0.0491(2)
C2A C 0.7052(6) 0.7436(3) 0.0189(2)
C3* C -0.1163(6) 0.3043(3) 0.0509(2)
C4* C -0.2039(6) 0.2358(3) -0.0156(2)
C5A C 0.5187(6) 0.4956(3) -0.0375(2)
C6A C 0.0132(6) -0.0148(3) -0.0384(2)
#END
