
#######################################################################
#
#                 Cambridge Crystallographic Data Centre
#                                CCDC
#
#######################################################################
#
# If this CIF has been generated from an entry in the Cambridge
# Structural Database, then it will include bibliographic, chemical,
# crystal, experimental, refinement or atomic coordinate data resulting
# from the CCDC's data processing and validation procedures.
#
#######################################################################

data_CSD_CIF_SAMMEA01
_audit_creation_date 2012-02-16
_audit_creation_method CSD-ConQuest-V1
_database_code_CSD SAMMEA01
_database_code_depnum_ccdc_archive 'CCDC 836180'
_chemical_formula_sum 'C76 H64 Cu4 O28 S48'
_chemical_formula_moiety
;
(C12 Cu4 O24 4-)n,4n(C10 H8 S8 1+),2n(C10 H8 S8),4n(C1 H4 O1)
;
_journal_coden_Cambridge 182
_journal_volume 48
_journal_year 2012
_journal_page_first 197
_journal_name_full 'Chem.Commun. '
loop_
_publ_author_name
"Bin Zhang"
"Yan Zhang"
"Daoben Zhu"
_chemical_name_systematic
;
catena-[tris(bis(Ethylenedithio)tetrathiafulvalenium) 
hexakis(\m~2~-oxalato)-tetra-copper methanol solvate]
;
_cell_volume   2801.703
_exptl_crystal_colour 'black'
_exptl_crystal_density_diffrn 1.907
_exptl_crystal_description 'plate'
_diffrn_ambient_temperature 290
_refine_special_details
;
One solvent O atom is disordered over two sites with occupancies 0.719:0.281.

;
#These two values have been output from a single CSD field.
_refine_ls_R_factor_gt 0.0464
_refine_ls_wR_factor_gt 0.0464
_symmetry_cell_setting triclinic
_symmetry_space_group_name_H-M 'P -1'
_symmetry_Int_Tables_number 2
loop_
_symmetry_equiv_pos_site_id
_symmetry_equiv_pos_as_xyz
1 x,y,z
2 -x,-y,-z
_cell_length_a 8.7501(3)
_cell_length_b 16.9319(6)
_cell_length_c 20.1421(8)
_cell_angle_alpha 105.127(1)
_cell_angle_beta 102.346(2)
_cell_angle_gamma 91.879(1)
_cell_formula_units_Z 1
loop_
_atom_type_symbol
_atom_type_radius_bond
C 0.68
H 0.23
Cu 1.40
O 0.68
S 1.02
loop_
_atom_site_label
_atom_site_type_symbol
_atom_site_fract_x
_atom_site_fract_y
_atom_site_fract_z
Cu1 Cu 0.58561(7) 0.34866(3) 0.00724(3)
Cu2 Cu 0.07797(7) 0.16155(3) 0.01343(3)
O1 O 0.5127(4) 0.2666(2) 0.07970(18)
O2 O 0.3633(4) 0.30247(19) -0.04351(15)
O3 O 0.2985(4) 0.1838(2) 0.06822(17)
O4 O 0.1544(4) 0.22378(19) -0.04431(15)
O5 O 0.8068(4) 0.36748(19) 0.06419(15)
O6 O 0.6630(4) 0.25078(19) -0.04813(15)
O7 O 0.0056(4) 0.2903(2) 0.08422(16)
O8 O -0.1430(4) 0.17092(19) -0.03462(15)
O9 O 0.5119(4) 0.44496(18) 0.06412(14)
O10 O 0.5745(4) 0.43145(19) -0.06396(15)
O11 O 0.0161(4) 0.09186(18) 0.06825(14)
O12 O 0.0610(4) 0.03617(19) -0.06469(16)
C1 C 0.3787(7) 0.2346(3) 0.0498(3)
C2 C 0.2927(7) 0.2560(3) -0.0178(2)
C3 C 0.8793(6) 0.3043(3) 0.0507(2)
C4 C 0.7944(6) 0.2356(3) -0.0164(2)
C5 C 0.4821(5) 0.5049(3) 0.0377(2)
C6 C -0.0129(6) 0.0156(3) 0.0381(2)
S1 S 0.27674(17) -0.12217(8) 0.43988(6)
S2 S 0.11249(16) 0.01344(7) 0.40213(6)
S3 S 0.37184(16) -0.01521(7) 0.60305(6)
S4 S 0.21317(17) 0.12171(8) 0.56518(6)
S5 S 0.21937(17) -0.23022(7) 0.29675(6)
S6 S 0.03254(16) -0.06666(8) 0.24792(6)
S7 S 0.45937(16) 0.06471(8) 0.75654(6)
S8 S 0.27787(17) 0.23098(7) 0.70871(6)
C7 C 0.2212(5) -0.0239(3) 0.4681(2)
C8 C 0.2624(5) 0.0221(3) 0.5370(2)
C9 C 0.1923(5) -0.1353(3) 0.3500(2)
C10 C 0.1203(5) -0.0721(3) 0.3328(2)
C11 C 0.3681(6) 0.0715(3) 0.6722(2)
C12 C 0.2989(6) 0.1348(3) 0.6544(2)
C13 C 0.0993(7) -0.2281(3) 0.2120(2)
H1 H 0.13010 -0.26970 0.17530
H2 H -0.00930 -0.24320 0.21090
C14 C 0.1084(7) -0.1494(3) 0.1952(2)
H3 H 0.05300 -0.15770 0.14640
H4 H 0.21780 -0.13350 0.19850
C15 C 0.3967(6) 0.1522(3) 0.8118(2)
H5 H 0.28780 0.14000 0.81220
H6 H 0.45840 0.16130 0.85970
C16 C 0.4103(7) 0.2298(3) 0.7903(2)
H7 H 0.51720 0.23940 0.78600
H8 H 0.39200 0.27510 0.82780
S9 S 1.05789(17) 0.35018(7) 0.39422(6)
S10 S 0.90809(17) 0.21759(7) 0.43322(6)
S11 S 1.15154(16) 0.45612(7) 0.55689(6)
S12 S 0.99752(16) 0.32566(7) 0.59711(6)
S13 S 1.00300(16) 0.26186(7) 0.24196(6)
S14 S 0.83161(15) 0.10302(7) 0.29243(6)
S15 S 1.27170(17) 0.56119(8) 0.70024(6)
S16 S 1.08572(16) 0.40576(7) 0.75036(6)
C17 C 1.0115(5) 0.3137(3) 0.4611(2)
C18 C 1.0508(5) 0.3595(3) 0.5304(2)
C19 C 0.9848(5) 0.2607(3) 0.3264(2)
C20 C 0.9178(5) 0.1995(3) 0.3449(2)
C21 C 1.1671(6) 0.4693(3) 0.6468(2)
C22 C 1.0955(5) 0.4103(3) 0.6656(2)
C23 C 0.8447(5) 0.1858(3) 0.1890(2)
H9 H 0.74580 0.20610 0.19670
H10 H 0.84400 0.17810 0.13950
C24 C 0.8564(6) 0.1037(3) 0.2052(2)
H11 H 0.95830 0.08530 0.20040
H12 H 0.77730 0.06410 0.17000
C25 C 1.2299(7) 0.5642(3) 0.7844(2)
H13 H 1.31310 0.59980 0.82070
H14 H 1.13350 0.59040 0.78660
C26 C 1.2139(9) 0.4912(4) 0.8024(3)
H15 H 1.18700 0.50560 0.84800
H16 H 1.31790 0.47210 0.80990
S17 S 0.54872(16) 0.34727(7) 0.40438(6)
S18 S 0.40141(17) 0.21658(8) 0.44611(6)
S19 S 0.64058(16) 0.45722(7) 0.56741(6)
S20 S 0.49468(16) 0.32569(7) 0.60898(6)
S21 S 0.48113(17) 0.25870(8) 0.25183(6)
S22 S 0.30263(16) 0.10373(8) 0.30442(6)
S23 S 0.75446(17) 0.56518(8) 0.71029(6)
S24 S 0.59295(17) 0.40494(7) 0.76281(6)
C27 C 0.5024(5) 0.3133(3) 0.4721(2)
C28 C 0.5424(5) 0.3602(3) 0.5413(2)
C29 C 0.4670(5) 0.2586(3) 0.3370(2)
C30 C 0.3982(5) 0.1987(3) 0.3561(2)
C31 C 0.6573(6) 0.4712(3) 0.6577(2)
C32 C 0.5945(6) 0.4104(3) 0.6775(2)
C33 C 0.4452(6) 0.1494(3) 0.2092(2)
H17 H 0.44180 0.14050 0.15930
H18 H 0.53310 0.12260 0.22880
C34 C 0.2993(6) 0.1099(3) 0.2162(2)
H19 H 0.28010 0.05480 0.18440
H20 H 0.21240 0.14040 0.20150
C35 C 0.7125(6) 0.5687(3) 0.7952(2)
H21 H 0.78210 0.61210 0.83130
H22 H 0.60560 0.58280 0.79430
C36 C 0.7304(6) 0.4913(3) 0.8152(2)
H23 H 0.72240 0.50150 0.86400
H24 H 0.83560 0.47610 0.81320
O13 O 0.3721(7) -0.0433(3) 0.1013(3)
C37 C 0.4552(16) -0.0387(7) 0.0487(6)
O14 O -0.1320(9) -0.3889(4) 0.1034(4)
C38 C -0.0634(15) -0.4220(7) 0.0492(6)
O15? O 0.064(5) -0.3886(15) 0.0805(14)
Cu1A Cu 0.41439(7) 0.65134(3) -0.00724(3)
Cu1* Cu -0.41439(7) 0.34866(3) 0.00724(3)
Cu1** Cu 1.58561(7) 0.34866(3) 0.00724(3)
Cu2* Cu 1.07797(7) 0.16155(3) 0.01343(3)
Cu2A Cu -0.07797(7) -0.16155(3) -0.01343(3)
O1A O 0.4873(4) 0.7334(2) -0.07970(18)
O1* O 1.5127(4) 0.2666(2) 0.07970(18)
O2A O 0.6367(4) 0.69753(19) 0.04351(15)
O2* O 1.3633(4) 0.30247(19) -0.04351(15)
O3* O 1.2985(4) 0.1838(2) 0.06822(17)
O4* O 1.1544(4) 0.22378(19) -0.04431(15)
O5* O -0.1932(4) 0.36748(19) 0.06419(15)
O5A O 0.1932(4) 0.63252(19) -0.06419(15)
O6* O -0.3370(4) 0.25078(19) -0.04813(15)
O6A O 0.3370(4) 0.74922(19) 0.04813(15)
O7* O 1.0056(4) 0.2903(2) 0.08422(16)
O8* O 0.8570(4) 0.17092(19) -0.03462(15)
O9A O 0.4881(4) 0.55504(18) -0.06412(14)
O10A O 0.4255(4) 0.56855(19) 0.06396(15)
O11A O -0.0161(4) -0.09186(18) -0.06825(14)
O11* O 1.0161(4) 0.09186(18) 0.06825(14)
O12A O -0.0610(4) -0.03617(19) 0.06469(16)
O12* O 1.0610(4) 0.03617(19) -0.06469(16)
C1* C 1.3787(7) 0.2346(3) 0.0498(3)
C2* C 1.2927(7) 0.2560(3) -0.0178(2)
C3* C -0.1207(6) 0.3043(3) 0.0507(2)
C4* C -0.2056(6) 0.2356(3) -0.0164(2)
C5A C 0.5179(5) 0.4951(3) -0.0377(2)
C6A C 0.0129(6) -0.0156(3) -0.0381(2)
#END
