
#######################################################################
#
#                 Cambridge Crystallographic Data Centre
#                                CCDC
#
#######################################################################
#
# If this CIF has been generated from an entry in the Cambridge
# Structural Database, then it will include bibliographic, chemical,
# crystal, experimental, refinement or atomic coordinate data resulting
# from the CCDC's data processing and validation procedures.
#
#######################################################################

data_CSD_CIF_SAMVEK
_audit_creation_date 2017-02-09
_audit_creation_method CSD-ConQuest-V1
_database_code_CSD SAMVEK
_database_code_depnum_ccdc_archive 'CCDC 1480250'
_chemical_formula_sum 'C28 H37 Mn2 N3 O12'
_chemical_formula_moiety
;
(C18 H11 Mn2 O10 1-)n,2n(C4 H9 N1 O1),n(C2 H8 N1 1+)
;
_journal_coden_Cambridge 1147
_journal_volume 17
_journal_year 2017
_journal_page_first 982
_journal_name_full 'Cryst.Growth Des. '
loop_
_publ_author_name
"K.S.Asha"
"R.Khoj"
"N.Ahmed"
"R.Nath"
"S.Mandal"
_chemical_name_systematic
;
catena-(dimethylammonium (\m-acetato)-bis(\m-terephthalato)-di-manganese 
dimethylacetamide solvate)
;
_cell_volume   3367.102
_exptl_crystal_colour 'colorless'
_exptl_crystal_description 'Needle'
_diffrn_ambient_temperature 150
#These two values have been output from a single CSD field.
_refine_ls_R_factor_gt 0.0557
_refine_ls_wR_factor_gt 0.0557
_symmetry_cell_setting orthorhombic
_symmetry_space_group_name_H-M 'P 21 21 21'
_symmetry_Int_Tables_number 19
loop_
_symmetry_equiv_pos_site_id
_symmetry_equiv_pos_as_xyz
1 x,y,z
2 1/2+x,1/2-y,-z
3 -x,1/2+y,1/2-z
4 1/2-x,-y,1/2+z
_cell_length_a 12.73(4)
_cell_length_b 15.81(5)
_cell_length_c 16.73(5)
_cell_angle_alpha 90
_cell_angle_beta 90
_cell_angle_gamma 90
_cell_formula_units_Z 4
loop_
_atom_type_symbol
_atom_type_radius_bond
C 0.68
H 0.23
Mn 1.61
N 0.68
O 0.68
loop_
_atom_site_label
_atom_site_type_symbol
_atom_site_fract_x
_atom_site_fract_y
_atom_site_fract_z
Mn1 Mn 0.73120(4) 0.75736(3) 0.11087(3)
Mn2 Mn 0.47918(4) 0.73553(3) 0.00016(3)
O1 O 0.6510(2) 0.71614(17) -0.00986(16)
O2 O 0.6121(2) 0.7079(2) 0.18312(18)
O3 O 0.4889(3) 0.65307(19) 0.1028(2)
O4 O 0.3617(2) 0.37246(17) 0.40967(19)
O5 O 0.5326(3) 0.34318(18) 0.41831(19)
O6 O 0.9812(3) 0.67022(19) 0.0914(2)
O7 O 0.8192(2) 0.6454(2) 0.1351(2)
O8 O 1.0350(3) 0.35979(19) 0.40621(19)
C1 C 0.7289(3) 0.7447(2) -0.0475(2)
O9 O 0.8061(2) 0.77478(17) -0.00955(16)
C2 C 0.5401(3) 0.6553(2) 0.1656(3)
C3 C 0.5178(3) 0.5881(3) 0.2285(3)
C4 C 0.4587(4) 0.3850(2) 0.3922(3)
C5 C 0.4795(3) 0.4578(3) 0.3362(3)
C6 C 0.5709(4) 0.5056(3) 0.3431(3)
H1 H 0.62020 0.49330 0.38250
C7 C 0.5873(3) 0.5723(3) 0.2898(3)
H2 H 0.64610 0.60670 0.29570
C8 C 0.4274(4) 0.5397(3) 0.2215(3)
H3 H 0.37970 0.55020 0.18050
C9 C 0.4090(4) 0.4757(3) 0.2761(3)
H4 H 0.34760 0.44410 0.27220
C10 C 0.9147(4) 0.6303(3) 0.1315(3)
C11 C 0.9561(3) 0.5583(2) 0.1826(2)
C12 C 0.8949(4) 0.5253(3) 0.2436(3)
H5 H 0.82660 0.54480 0.25060
C13 C 0.9342(3) 0.4634(3) 0.2944(3)
H6 H 0.89280 0.44230 0.33560
C14 C 1.0360(3) 0.4331(2) 0.2834(3)
C15 C 1.0955(3) 0.4636(3) 0.2205(3)
H7 H 1.16220 0.44170 0.21140
C16 C 1.0563(4) 0.5270(3) 0.1703(3)
H8 H 1.09750 0.54810 0.12890
C17 C 1.0823(3) 0.3701(3) 0.3424(3)
O10 O 1.1674(2) 0.3349(2) 0.32105(19)
C18 C 0.7314(4) 0.7424(4) -0.1381(3)
H9 H 0.79610 0.76660 -0.15670
H10 H 0.67340 0.77430 -0.15890
H11 H 0.72640 0.68490 -0.15600
C19 C 0.2945(6) 0.4254(4) 0.8983(4)
H12 H 0.24590 0.40930 0.85710
H13 H 0.32020 0.37560 0.92470
H14 H 0.35230 0.45560 0.87500
N1 N 0.2415(4) 0.4794(3) 0.9560(3)
C20 C 0.3049(6) 0.5096(4) 1.0231(4)
H15 H 0.26240 0.54440 1.05730
H16 H 0.36290 0.54210 1.00320
H17 H 0.33090 0.46220 1.05300
O11 O 0.9971(9) 0.7322(6) 0.3270(6)
C21 C 0.9220(12) 0.7728(5) 0.3829(5)
N2 N 0.9251(11) 0.8197(7) 0.4382(7)
C22 C 0.8703(6) 0.8526(5) 0.4821(4)
H18 H 0.91090 0.88630 0.51850
H19 H 0.83140 0.81090 0.51150
H20 H 0.82250 0.88830 0.45330
C23 C 1.0571(8) 0.8428(7) 0.4461(7)
H21 H 1.09540 0.81170 0.40640
H22 H 1.08160 0.82730 0.49830
H23 H 1.06760 0.90230 0.43800
C24 C 0.7927(8) 0.7472(7) 0.3761(7)
H24 H 0.78250 0.70890 0.33220
H25 H 0.75220 0.79750 0.36730
H26 H 0.77050 0.72070 0.42480
C25 C 0.4817(9) 0.3551(8) 1.0217(7)
C26 C 0.5294(12) 0.2845(8) 1.1487(8)
N3 N 0.5600(17) 0.3530(8) 1.0936(12)
C27 C 0.6322(12) 0.4699(8) 1.0215(8)
O12 O 0.6858(11) 0.4029(13) 1.1586(9)
C28 C 0.6019(13) 0.4047(9) 1.0715(9)
Mn1B Mn 0.26880(4) 0.25736(3) 0.38913(3)
Mn1B* Mn 1.26880(4) 0.25736(3) 0.38913(3)
Mn2A Mn 0.97918(4) 0.76447(3) -0.00016(3)
Mn2B Mn 0.52082(4) 0.23553(3) 0.49984(3)
Mn2C Mn 1.02082(4) 0.26447(3) 0.50016(3)
O4B O 0.6383(2) 0.87246(17) 0.09033(19)
O5B O 0.4674(3) 0.84318(18) 0.08169(19)
O6A O 0.4812(3) 0.82978(19) -0.0914(2)
O8C O 0.4650(3) 0.64021(19) -0.09379(19)
O9A O 0.3061(2) 0.72522(17) 0.00955(16)
O10B O 0.8326(2) 0.8349(2) 0.17895(19)
#END
