
#######################################################################
#
#                 Cambridge Crystallographic Data Centre
#                                CCDC
#
#######################################################################
#
# If this CIF has been generated from an entry in the Cambridge
# Structural Database, then it will include bibliographic, chemical,
# crystal, experimental, refinement or atomic coordinate data resulting
# from the CCDC's data processing and validation procedures.
#
#######################################################################

data_CSD_CIF_SANDER
_audit_creation_date 2005-03-24
_audit_creation_method CSD-ConQuest-V1
_database_code_CSD SANDER
_database_code_depnum_ccdc_archive 'CCDC 264019'
_chemical_formula_sum 'C16 H32 N2 O28 U5'
_chemical_formula_moiety
;
(C16 H24 O28 U5 2-)n,2n(H4 N1 1+)
;
_journal_coden_Cambridge 513
_journal_volume 46
_journal_year 2004
_journal_page_first 206
_journal_name_full 'Radiokhimiya(Russ.)(Radiochem.) '
loop_
_publ_author_name
"M.S.Grigor'ev"
"M.Yu.Antipin"
"N.N.Krot"
_chemical_name_systematic
;
catena-(bis(Ammonium) 
bis(\m~3~-oxo)-hexakis(\m~2~-acetato-O,O,O')-bis(\m~2~-acetato-O,O')-pentakis(
dioxo-uranium(vi)))
;
_cell_volume    923.005
_exptl_crystal_colour 'green-yellow'
_exptl_crystal_density_diffrn 3.401
_exptl_crystal_description 'parallelepiped'
_exptl_crystal_preparation 'wet acetonitrile at 140-145 deg.C'
_diffrn_ambient_temperature 295
#These two values have been output from a single CSD field.
_refine_ls_R_factor_gt 0.0451
_refine_ls_wR_factor_gt 0.0451
_symmetry_cell_setting triclinic
_symmetry_space_group_name_H-M 'P -1'
_symmetry_Int_Tables_number 2
loop_
_symmetry_equiv_pos_site_id
_symmetry_equiv_pos_as_xyz
1 x,y,z
2 -x,-y,-z
_cell_length_a 8.2056(19)
_cell_length_b 10.639(2)
_cell_length_c 10.934(3)
_cell_angle_alpha 87.28(2)
_cell_angle_beta 75.813(19)
_cell_angle_gamma 86.310(18)
_cell_formula_units_Z 1
loop_
_atom_type_symbol
_atom_type_radius_bond
C 0.68
H 0.23
N 0.68
O 0.65
U 1.60
loop_
_atom_site_label
_atom_site_type_symbol
_atom_site_fract_x
_atom_site_fract_y
_atom_site_fract_z
U1 U 0.00000 0.00000 1.00000
U2 U 0.37390(5) 0.28103(3) 0.74631(4)
U3 U 0.35818(5) 0.43556(3) 0.41247(4)
O1 O 0.1400(11) -0.1013(7) 1.0620(9)
O2 O 0.5459(11) 0.1790(8) 0.6724(9)
O3 O 0.1989(11) 0.3804(8) 0.8272(9)
O4 O 0.5169(11) 0.3249(8) 0.3335(10)
O5 O 0.1920(12) 0.5461(8) 0.4827(10)
O6 O 0.4445(11) 0.4263(7) 0.5937(8)
O7 O 0.4199(11) 0.2061(8) 0.9446(8)
O8 O 0.1576(10) 0.1646(7) 1.0398(8)
O9 O 0.2223(10) 0.0813(7) 0.7985(8)
O10 O 0.1323(12) -0.1060(7) 0.7986(9)
O11 O 0.5729(12) 0.4183(8) 0.7907(8)
O12 O 0.7676(12) 0.5510(9) 0.7798(9)
O13 O 0.2287(12) 0.2608(8) 0.5799(9)
O14 O 0.1250(11) 0.2826(8) 0.4168(8)
N1 N -0.0949(13) 0.3586(10) 0.2567(11)
C1 C 0.3146(17) 0.1652(10) 1.0350(11)
C2 C 0.369(2) 0.1174(14) 1.1518(12)
H1 H 0.41460 0.03230 1.14030
H2 H 0.27300 0.11970 1.22300
H3 H 0.45240 0.16970 1.16650
C3 C 0.2239(13) -0.0209(10) 0.7417(10)
C4 C 0.3331(16) -0.0414(12) 0.6157(10)
H4 H 0.30690 -0.11840 0.58430
H5 H 0.44870 -0.04680 0.62040
H6 H 0.31540 0.02770 0.55980
C5 C 0.6893(16) 0.4612(10) 0.8366(11)
C6 C 0.7206(19) 0.4041(12) 0.9568(13)
H7 H 0.83600 0.37310 0.94280
H8 H 0.69770 0.46680 1.02000
H9 H 0.64820 0.33570 0.98490
C7 C 0.1130(15) 0.2408(10) 0.5263(12)
C8 C -0.0380(17) 0.1752(14) 0.5958(15)
H10 H -0.01330 0.08580 0.59390
H11 H -0.12940 0.19640 0.55670
H12 H -0.06910 0.20100 0.68170
O1A O -0.1400(11) 0.1013(7) 0.9380(9)
O7A O -0.4199(11) -0.2061(8) 1.0554(8)
O8A O -0.1576(10) -0.1646(7) 0.9602(8)
C1A C -0.3146(17) -0.1652(10) 0.9650(11)
C2A C -0.369(2) -0.1174(14) 0.8482(12)
H1A H -0.41460 -0.03230 0.85970
H2A H -0.27300 -0.11970 0.77700
H3A H -0.45240 -0.16970 0.83350
O9A O -0.2223(10) -0.0813(7) 1.2015(8)
O10A O -0.1323(12) 0.1060(7) 1.2014(9)
C3A C -0.2239(13) 0.0209(10) 1.2583(10)
C4A C -0.3331(16) 0.0414(12) 1.3843(10)
H4A H -0.30690 0.11840 1.41570
H5A H -0.44870 0.04680 1.37960
H6A H -0.31540 -0.02770 1.44020
U2A U -0.37390(5) -0.28103(3) 1.25369(4)
O2A O -0.5459(11) -0.1790(8) 1.3276(9)
O3A O -0.1989(11) -0.3804(8) 1.1728(9)
O6A O -0.4445(11) -0.4263(7) 1.4063(8)
O11A O -0.5729(12) -0.4183(8) 1.2093(8)
O12A O -0.7676(12) -0.5510(9) 1.2202(9)
C5A C -0.6893(16) -0.4612(10) 1.1634(11)
C6A C -0.7206(19) -0.4041(12) 1.0432(13)
H7A H -0.83600 -0.37310 1.05720
H8A H -0.69770 -0.46680 0.98000
H9A H -0.64820 -0.33570 1.01510
O13A O -0.2287(12) -0.2608(8) 1.4201(9)
O14A O -0.1250(11) -0.2826(8) 1.5832(8)
C7A C -0.1130(15) -0.2408(10) 1.4737(12)
C8A C 0.0380(17) -0.1752(14) 1.4042(15)
H10A H 0.01330 -0.08580 1.40610
H11A H 0.12940 -0.19640 1.44330
H12A H 0.06910 -0.20100 1.31830
U3A U -0.35818(5) -0.43556(3) 1.58753(4)
O4A O -0.5169(11) -0.3249(8) 1.6665(10)
O5A O -0.1920(12) -0.5461(8) 1.5173(10)
O6A* O 0.5555(11) 0.5737(7) 0.4063(8)
O11A* O 0.4271(12) 0.5817(8) 0.2093(8)
O12A* O 0.2324(12) 0.4490(9) 0.2202(9)
U3A* U 0.64182(5) 0.56444(3) 0.58753(4)
U3* U -0.64182(5) -0.56444(3) 1.41247(4)
O6* O -0.5555(11) -0.5737(7) 1.5937(8)
O11* O -0.4271(12) -0.5817(8) 1.7907(8)
O12* O -0.2324(12) -0.4490(9) 1.7798(9)
#END
