
#######################################################################
#
#                 Cambridge Crystallographic Data Centre
#                                CCDC
#
#######################################################################
#
# If this CIF has been generated from an entry in the Cambridge
# Structural Database, then it will include bibliographic, chemical,
# crystal, experimental, refinement or atomic coordinate data resulting
# from the CCDC's data processing and validation procedures.
#
#######################################################################

data_CSD_CIF_SANLUQ
_audit_creation_date 2012-02-24
_audit_creation_method CSD-ConQuest-V1
_database_code_CSD SANLUQ
_database_code_depnum_ccdc_archive 'CCDC 817233'
_chemical_formula_sum 'C10 H20 N2 Ni2 O12'
_chemical_formula_moiety
;
(C4 H14 N2 2+)n,n(C6 H6 Ni2 O12 2-)
;
_journal_coden_Cambridge 920
_journal_volume 6
_journal_year 2011
_journal_page_first 3084
_journal_name_full 'Chem.Asian J. '
loop_
_publ_author_name
"Meng-Yuan Li"
"M.Kurmoo"
"Zhe-Ming Wang"
"Song Gao"
_chemical_name_systematic
;
catena-[1,2-bis(Methylammonio)ethane hexakis(\m~2~-formato-O,O')-nickel(ii)]
;
_cell_volume    826.246
_exptl_crystal_colour 'green'
_exptl_crystal_density_diffrn 1.92
_exptl_special_details
;
Isostructural with the Co, Fe, Mn and Zn analogues

;
_exptl_crystal_description 'hexagonal block'
_diffrn_ambient_temperature 293
_diffrn_special_details
;
twin

;
_refine_special_details
;
N1 disordered by symmetry over three sites with occupancy 0.33.

;
#These two values have been output from a single CSD field.
_refine_ls_R_factor_gt 0.0265
_refine_ls_wR_factor_gt 0.0265
_symmetry_cell_setting hexagonal
_symmetry_space_group_name_H-M 'P -3 1 c'
_symmetry_Int_Tables_number 163
loop_
_symmetry_equiv_pos_site_id
_symmetry_equiv_pos_as_xyz
1 x,y,z
2 -y,x-y,z
3 -x+y,-x,z
4 -y,-x,1/2-z
5 -x+y,y,1/2-z
6 x,x-y,1/2-z
7 -x,-y,-z
8 y,-x+y,-z
9 x-y,x,-z
10 y,x,-1/2+z
11 x-y,-y,-1/2+z
12 -x,-x+y,-1/2+z
_cell_length_a 8.1044(1)
_cell_length_b 8.1044(1)
_cell_length_c 14.5257(4)
_cell_angle_alpha 90
_cell_angle_beta 90
_cell_angle_gamma 120
_cell_formula_units_Z 2
loop_
_atom_type_symbol
_atom_type_radius_bond
C 0.68
H 0.23
N 0.68
Ni 1.24
O 0.68
loop_
_atom_site_label
_atom_site_type_symbol
_atom_site_fract_x
_atom_site_fract_y
_atom_site_fract_z
Ni1 Ni 0.00000 0.00000 0.00000
Ni2 Ni -0.33330 0.33330 -0.25000
O1 O 0.0092(2) 0.2161(3) -0.08006(11)
O2 O -0.1180(2) 0.3428(3) -0.16997(10)
C1 C -0.1199(3) 0.2072(4) -0.12852(14)
H1 H -0.22870 0.08830 -0.13470
C2 C 0.66670 0.33330 0.2963(4)
C3 C 0.66670 0.33330 0.4635(3)
N1 N 0.7445(9) 0.4147(9) 0.3701(4)
Ni2A Ni -0.33330 -0.66660 -0.25000
Ni2B Ni 0.66660 0.33330 -0.25000
Ni2F Ni 0.33330 -0.33330 0.25000
Ni2G Ni 0.33330 0.66660 0.25000
Ni2H Ni -0.66660 -0.33330 0.25000
O1A O -0.2161(2) -0.2069(3) -0.08006(11)
O1B O 0.2069(2) -0.0092(3) -0.08006(11)
O1F O -0.0092(2) -0.2161(3) 0.08006(11)
O1G O 0.2161(2) 0.2069(3) 0.08006(11)
O1H O -0.2069(2) 0.0092(3) 0.08006(11)
O2A O -0.3428(2) -0.4608(3) -0.16997(10)
O2B O 0.4608(2) 0.1180(3) -0.16997(10)
O2F O 0.1180(2) -0.3428(3) 0.16997(10)
O2G O 0.3428(2) 0.4608(3) 0.16997(10)
O2H O -0.4608(2) -0.1180(3) 0.16997(10)
O2A* O -0.3428(2) 0.5392(3) -0.16997(10)
O2B* O -0.5392(2) 0.1180(3) -0.16997(10)
O2C O -0.3428(2) 0.1180(3) -0.33003(10)
O2D O -0.5392(2) 0.3428(3) -0.33003(10)
O2E O -0.1180(2) 0.5392(3) -0.33003(10)
C1A C -0.2072(3) -0.3271(4) -0.12852(14)
C1B C 0.3271(3) 0.1199(4) -0.12852(14)
C1F C 0.1199(3) -0.2072(4) 0.12852(14)
C1G C 0.2072(3) 0.3271(4) 0.12852(14)
C1H C -0.3271(3) -0.1199(4) 0.12852(14)
H1A H -0.08830 -0.31700 -0.13470
H1B H 0.31700 0.22870 -0.13470
H1F H 0.22870 -0.08830 0.13470
H1G H 0.08830 0.31700 0.13470
H1H H -0.31700 -0.22870 0.13470
C2C C 0.66670 0.33330 0.2037(4)
C3C C 0.66670 0.33330 0.0365(3)
N1C N 0.5853(9) 0.2555(9) 0.1299(4)
N1D N 0.6702(9) 0.4147(9) 0.1299(4)
N1E N 0.7445(9) 0.3298(9) 0.1299(4)
N1A N 0.5853(9) 0.3298(9) 0.3701(4)
N1B N 0.6702(9) 0.2555(9) 0.3701(4)
#END
