
#######################################################################
#
#                 Cambridge Crystallographic Data Centre
#                                CCDC
#
#######################################################################
#
# If this CIF has been generated from an entry in the Cambridge
# Structural Database, then it will include bibliographic, chemical,
# crystal, experimental, refinement or atomic coordinate data resulting
# from the CCDC's data processing and validation procedures.
#
#######################################################################

data_CSD_CIF_SANLOK
_audit_creation_date 2012-02-24
_audit_creation_method CSD-ConQuest-V1
_database_code_CSD SANLOK
_database_code_depnum_ccdc_archive 'CCDC 817232'
_chemical_formula_sum 'C10 H20 Fe2 N2 O12'
_chemical_formula_moiety
;
(C4 H14 N2 2+)n,n(C6 H6 Fe2 O12 2-)
;
_journal_coden_Cambridge 920
_journal_volume 6
_journal_year 2011
_journal_page_first 3084
_journal_name_full 'Chem.Asian J. '
loop_
_publ_author_name
"Meng-Yuan Li"
"M.Kurmoo"
"Zhe-Ming Wang"
"Song Gao"
_chemical_name_systematic
;
catena-[1,2-bis(Methylammonio)ethane hexakis(\m~2~-formato-O,O')-iron(ii)]
;
_cell_volume    870.911
_exptl_crystal_colour 'pale green'
_exptl_crystal_density_diffrn 1.8
_exptl_special_details
;
Isostructural with the Co, Mn, Ni and Zn analogues

;
_exptl_crystal_description 'hexagonal block'
_diffrn_ambient_temperature 293
_diffrn_special_details
;
twin

;
_refine_special_details
;
N1 disordered by symmetry over three sites with occupancy 0.33.

;
#These two values have been output from a single CSD field.
_refine_ls_R_factor_gt 0.0258
_refine_ls_wR_factor_gt 0.0258
_symmetry_cell_setting hexagonal
_symmetry_space_group_name_H-M 'P -3 1 c'
_symmetry_Int_Tables_number 163
loop_
_symmetry_equiv_pos_site_id
_symmetry_equiv_pos_as_xyz
1 x,y,z
2 -y,x-y,z
3 -x+y,-x,z
4 -y,-x,1/2-z
5 -x+y,y,1/2-z
6 x,x-y,1/2-z
7 -x,-y,-z
8 y,-x+y,-z
9 x-y,x,-z
10 y,x,-1/2+z
11 x-y,-y,-1/2+z
12 -x,-x+y,-1/2+z
_cell_length_a 8.2311(2)
_cell_length_b 8.2311(2)
_cell_length_c 14.8432(4)
_cell_angle_alpha 90
_cell_angle_beta 90
_cell_angle_gamma 120
_cell_formula_units_Z 2
loop_
_atom_type_symbol
_atom_type_radius_bond
C 0.68
H 0.23
Fe 1.52
N 0.68
O 0.68
loop_
_atom_site_label
_atom_site_type_symbol
_atom_site_fract_x
_atom_site_fract_y
_atom_site_fract_z
Fe1 Fe 0.00000 0.00000 0.00000
Fe2 Fe -0.33330 0.33330 -0.25000
O1 O -0.2184(2) -0.0118(3) -0.08181(12)
O2 O -0.3432(2) 0.1146(3) -0.16892(11)
C1 C -0.2111(3) 0.1156(4) -0.12801(17)
H1 H -0.09470 0.22390 -0.13280
C2 C -0.33330 0.33330 0.4596(3)
C3 C -0.33330 0.33330 0.2967(4)
N1 N -0.2582(10) 0.3278(11) 0.3666(4)
Fe2B Fe 0.66660 0.33330 -0.25000
Fe2A Fe -0.33330 -0.66660 -0.25000
Fe2F Fe 0.33330 -0.33330 0.25000
Fe2G Fe 0.33330 0.66660 0.25000
Fe2H Fe -0.66660 -0.33330 0.25000
O1B O 0.2066(2) 0.2184(3) -0.08181(12)
O1A O 0.0118(2) -0.2066(3) -0.08181(12)
O1F O 0.2184(2) 0.0118(3) 0.08181(12)
O1G O -0.0118(2) 0.2066(3) 0.08181(12)
O1H O -0.2066(2) -0.2184(3) 0.08181(12)
O2B O 0.4578(2) 0.3432(3) -0.16892(11)
O2A O -0.1146(2) -0.4578(3) -0.16892(11)
O2F O 0.3432(2) -0.1146(3) 0.16892(11)
O2G O 0.1146(2) 0.4578(3) 0.16892(11)
O2H O -0.4578(2) -0.3432(3) 0.16892(11)
O2A* O -0.1146(2) 0.5422(3) -0.16892(11)
O2B* O -0.5422(2) 0.3432(3) -0.16892(11)
O2C O -0.1146(2) 0.3432(3) -0.33108(11)
O2D O -0.5422(2) 0.1146(3) -0.33108(11)
O2E O -0.3432(2) 0.5422(3) -0.33108(11)
C1B C 0.3267(3) 0.2111(4) -0.12801(17)
C1A C -0.1156(3) -0.3267(4) -0.12801(17)
C1F C 0.2111(3) -0.1156(4) 0.12801(17)
C1G C 0.1156(3) 0.3267(4) 0.12801(17)
C1H C -0.3267(3) -0.2111(4) 0.12801(17)
H1B H 0.31860 0.09470 -0.13280
H1A H -0.22390 -0.31860 -0.13280
H1F H 0.09470 -0.22390 0.13280
H1G H 0.22390 0.31860 0.13280
H1H H -0.31860 -0.09470 0.13280
C2C C -0.33330 0.33330 0.0404(3)
C3C C -0.33330 0.33330 0.2033(4)
N1C N -0.3278(10) 0.2582(11) 0.1334(4)
N1D N -0.414(1) 0.3278(11) 0.1334(4)
N1E N -0.2582(10) 0.4140(11) 0.1334(4)
N1A N -0.3278(10) 0.4140(11) 0.3666(4)
N1B N -0.414(1) 0.2582(11) 0.3666(4)
#END
