
#######################################################################
#
#                 Cambridge Crystallographic Data Centre
#                                CCDC
#
#######################################################################
#
# If this CIF has been generated from an entry in the Cambridge
# Structural Database, then it will include bibliographic, chemical,
# crystal, experimental, refinement or atomic coordinate data resulting
# from the CCDC's data processing and validation procedures.
#
#######################################################################

data_CSD_CIF_SANMAX
_audit_creation_date 2012-02-24
_audit_creation_method CSD-ConQuest-V1
_database_code_CSD SANMAX
_database_code_depnum_ccdc_archive 'CCDC 817234'
_chemical_formula_sum 'C10 H20 Cu2 N2 O12'
_chemical_formula_moiety
;
(C4 H14 N2 2+)n,n(C6 H6 Cu2 O12 2-)
;
_journal_coden_Cambridge 920
_journal_volume 6
_journal_year 2011
_journal_page_first 3084
_journal_name_full 'Chem.Asian J. '
loop_
_publ_author_name
"Meng-Yuan Li"
"M.Kurmoo"
"Zhe-Ming Wang"
"Song Gao"
_chemical_name_systematic
;
catena-[1,2-bis(Methylammonio)ethane hexakis(\m~2~-formato-O,O')-copper(ii)]
;
_cell_volume   1722.664
_exptl_crystal_colour 'blue'
_exptl_crystal_density_diffrn 1.879
_exptl_crystal_description 'rhombic plate'
_diffrn_ambient_temperature 293
#These two values have been output from a single CSD field.
_refine_ls_R_factor_gt 0.027
_refine_ls_wR_factor_gt 0.027
_symmetry_cell_setting monoclinic
_symmetry_space_group_name_H-M 'C 2/c'
_symmetry_Int_Tables_number 15
loop_
_symmetry_equiv_pos_site_id
_symmetry_equiv_pos_as_xyz
1 x,y,z
2 -x,y,1/2-z
3 1/2+x,1/2+y,z
4 1/2-x,1/2+y,1/2-z
5 -x,-y,-z
6 x,-y,-1/2+z
7 -1/2-x,-1/2-y,-z
8 -1/2+x,-1/2-y,-1/2+z
_cell_length_a 8.6614(2)
_cell_length_b 13.6399(3)
_cell_length_c 14.5832(5)
_cell_angle_alpha 90
_cell_angle_beta 90.882(1)
_cell_angle_gamma 90
_cell_formula_units_Z 4
loop_
_atom_type_symbol
_atom_type_radius_bond
C 0.68
H 0.23
Cu 1.45
N 0.68
O 0.68
loop_
_atom_site_label
_atom_site_type_symbol
_atom_site_fract_x
_atom_site_fract_y
_atom_site_fract_z
Cu1 Cu 0.50000 0.50000 0.50000
Cu2 Cu 0.00000 0.67668(2) 0.75000
O1 O 0.41496(16) 0.61081(10) 0.57032(10)
O2 O 0.24414(17) 0.68237(10) 0.65880(11)
O3 O 0.60306(15) 0.59724(10) 0.4208(1)
O4 O 0.60132(15) 0.72434(10) 0.32771(10)
O5 O 0.08564(16) 0.42994(10) 0.32562(10)
O6 O 0.27123(17) 0.50447(9) 0.40347(12)
C1 C 0.3003(2) 0.60940(15) 0.62028(16)
H1 H 0.25270 0.54920 0.62970
C2 C 0.5365(2) 0.65861(13) 0.37126(15)
H2 H 0.42950 0.65490 0.36650
C3 C 0.2167(2) 0.43184(15) 0.36277(15)
H3 H 0.27710 0.37560 0.35980
N1 N 0.4400(2) 0.84248(12) 0.62617(13)
H4 H 0.37620 0.89460 0.62610
H5 H 0.38180 0.78810 0.63060
C4 C 0.5449(2) 0.84849(15) 0.70716(15)
H6 H 0.60600 0.90800 0.70390
H7 H 0.61510 0.79300 0.70730
C5 C 0.5239(3) 0.84004(18) 0.53834(17)
H8 H 0.45100 0.83660 0.48820
H9 H 0.59010 0.78360 0.53720
H10 H 0.58510 0.89840 0.53270
Cu2F Cu 0.50000 0.82332(2) 0.25000
Cu2D Cu 0.00000 0.32332(2) 0.25000
Cu2D* Cu 1.00000 0.32332(2) 0.25000
Cu2B Cu 0.50000 0.17668(2) 0.75000
Cu2* Cu 1.00000 0.67668(2) 0.75000
O1D O 0.58504(16) 0.38919(10) 0.42968(10)
O2D O 0.75586(17) 0.31763(10) 0.34120(11)
O2A O -0.24414(17) 0.68237(10) 0.84120(11)
O3D O 0.39694(15) 0.40276(10) 0.5792(1)
O4D O 0.39868(15) 0.27566(10) 0.67229(10)
O4F O -0.10132(15) 0.77566(10) 0.67229(10)
O4G O 0.10132(15) 0.77566(10) 0.82771(10)
O5D O 0.91436(16) 0.57006(10) 0.67438(10)
O5D* O -0.08564(16) 0.57006(10) 0.67438(10)
O5E O 0.08564(16) 0.57006(10) 0.82562(10)
O6D O 0.72877(17) 0.49553(9) 0.59653(12)
C1D C 0.6997(2) 0.39060(15) 0.37972(16)
H1D H 0.74730 0.45080 0.37030
C2D C 0.4635(2) 0.34139(13) 0.62874(15)
H2D H 0.57050 0.34510 0.63350
C3D C 0.7833(2) 0.56816(15) 0.63723(15)
H3D H 0.72290 0.62440 0.64020
N1A N 0.5600(2) 0.84248(12) 0.87383(13)
H4A H 0.62380 0.89460 0.87390
H5A H 0.61820 0.78810 0.86940
C4A C 0.4551(2) 0.84849(15) 0.79284(15)
H6A H 0.39400 0.90800 0.79610
H7A H 0.38490 0.79300 0.79270
C5A C 0.4761(3) 0.84004(18) 0.96166(17)
H8A H 0.54900 0.83660 1.01180
H9A H 0.40990 0.78360 0.96280
H10A H 0.41490 0.89840 0.96730
#END
