
#######################################################################
#
#                 Cambridge Crystallographic Data Centre
#                                CCDC
#
#######################################################################
#
# If this CIF has been generated from an entry in the Cambridge
# Structural Database, then it will include bibliographic, chemical,
# crystal, experimental, refinement or atomic coordinate data resulting
# from the CCDC's data processing and validation procedures.
#
#######################################################################

data_CSD_CIF_SANMEB
_audit_creation_date 2012-02-24
_audit_creation_method CSD-ConQuest-V1
_database_code_CSD SANMEB
_database_code_depnum_ccdc_archive 'CCDC 817235'
_chemical_formula_sum 'C10 H20 N2 O12 Zn2'
_chemical_formula_moiety
;
(C4 H14 N2 2+)n,n(C6 H6 O12 Zn2 2-)
;
_journal_coden_Cambridge 920
_journal_volume 6
_journal_year 2011
_journal_page_first 3084
_journal_name_full 'Chem.Asian J. '
loop_
_publ_author_name
"Meng-Yuan Li"
"M.Kurmoo"
"Zhe-Ming Wang"
"Song Gao"
_chemical_name_systematic
;
catena-[1,2-bis(Methylammonio)ethane hexakis(\m~2~-formato-O,O')-zinc(ii)]
;
_cell_volume    851.459
_exptl_crystal_colour 'colorless'
_exptl_crystal_density_diffrn 1.915
_exptl_special_details
;
Isostructural with the Co, Fe, Mn and Ni analogues
Phase transition due to the order-disorder transition of the 
1,2-bis(methylammonio)ethane cation around 300 K
;
_exptl_crystal_description 'hexagonal bipyramid'
_diffrn_ambient_temperature 313
_diffrn_special_details
;
twin

;
_refine_special_details
;
N1 disordered by symmetry over three sites with occupancy 0.33.

;
#These two values have been output from a single CSD field.
_refine_ls_R_factor_gt 0.0272
_refine_ls_wR_factor_gt 0.0272
_symmetry_cell_setting hexagonal
_symmetry_space_group_name_H-M 'P -3 1 c'
_symmetry_Int_Tables_number 163
loop_
_symmetry_equiv_pos_site_id
_symmetry_equiv_pos_as_xyz
1 x,y,z
2 -y,x-y,z
3 -x+y,-x,z
4 -y,-x,1/2-z
5 -x+y,y,1/2-z
6 x,x-y,1/2-z
7 -x,-y,-z
8 y,-x+y,-z
9 x-y,x,-z
10 y,x,-1/2+z
11 x-y,-y,-1/2+z
12 -x,-x+y,-1/2+z
_cell_length_a 8.1794(2)
_cell_length_b 8.1794(2)
_cell_length_c 14.6957(4)
_cell_angle_alpha 90
_cell_angle_beta 90
_cell_angle_gamma 120
_cell_formula_units_Z 2
loop_
_atom_type_symbol
_atom_type_radius_bond
C 0.68
H 0.23
N 0.68
O 0.68
Zn 1.22
loop_
_atom_site_label
_atom_site_type_symbol
_atom_site_fract_x
_atom_site_fract_y
_atom_site_fract_z
Zn1 Zn 0.00000 0.00000 0.00000
Zn2 Zn -0.33330 0.33330 -0.25000
O1 O 0.0114(2) 0.2189(3) -0.08103(10)
O2 O -0.1152(2) 0.3438(3) -0.16946(10)
C1 C -0.1167(3) 0.2100(4) -0.12845(13)
H1 H -0.22480 0.09220 -0.13420
C2 C 0.66670 0.33330 0.2947(4)
C3 C 0.66670 0.33330 0.4617(3)
N1 N 0.7420(9) 0.4135(8) 0.3681(4)
Zn2B Zn 0.66660 0.33330 -0.25000
Zn2A Zn -0.33330 -0.66660 -0.25000
Zn2F Zn 0.33330 -0.33330 0.25000
Zn2G Zn 0.33330 0.66660 0.25000
Zn2H Zn -0.66660 -0.33330 0.25000
O1B O 0.2075(2) -0.0114(3) -0.08103(10)
O1A O -0.2189(2) -0.2075(3) -0.08103(10)
O1F O -0.0114(2) -0.2189(3) 0.08103(10)
O1G O 0.2189(2) 0.2075(3) 0.08103(10)
O1H O -0.2075(2) 0.0114(3) 0.08103(10)
O2B O 0.4590(2) 0.1152(3) -0.16946(10)
O2A O -0.3438(2) -0.4590(3) -0.16946(10)
O2F O 0.1152(2) -0.3438(3) 0.16946(10)
O2G O 0.3438(2) 0.4590(3) 0.16946(10)
O2H O -0.4590(2) -0.1152(3) 0.16946(10)
O2A* O -0.3438(2) 0.5410(3) -0.16946(10)
O2B* O -0.5410(2) 0.1152(3) -0.16946(10)
O2C O -0.3438(2) 0.1152(3) -0.33054(10)
O2D O -0.5410(2) 0.3438(3) -0.33054(10)
O2E O -0.1152(2) 0.5410(3) -0.33054(10)
C1B C 0.3267(3) 0.1167(4) -0.12845(13)
C1A C -0.2100(3) -0.3267(4) -0.12845(13)
C1F C 0.1167(3) -0.2100(4) 0.12845(13)
C1G C 0.2100(3) 0.3267(4) 0.12845(13)
C1H C -0.3267(3) -0.1167(4) 0.12845(13)
H1B H 0.31700 0.22480 -0.13420
H1A H -0.09220 -0.31700 -0.13420
H1F H 0.22480 -0.09220 0.13420
H1G H 0.09220 0.31700 0.13420
H1H H -0.31700 -0.22480 0.13420
C2C C 0.66670 0.33330 0.2053(4)
C3C C 0.66670 0.33330 0.0383(3)
N1A N 0.5865(9) 0.3285(8) 0.3681(4)
N1C N 0.5865(9) 0.2580(8) 0.1319(4)
N1D N 0.6715(9) 0.4135(8) 0.1319(4)
N1E N 0.7420(9) 0.3285(8) 0.1319(4)
N1B N 0.6715(9) 0.2580(8) 0.3681(4)
#END
