
#######################################################################
#
#                 Cambridge Crystallographic Data Centre
#                                CCDC
#
#######################################################################
#
# If this CIF has been generated from an entry in the Cambridge
# Structural Database, then it will include bibliographic, chemical,
# crystal, experimental, refinement or atomic coordinate data resulting
# from the CCDC's data processing and validation procedures.
#
#######################################################################

data_CSD_CIF_SAPBAP
_audit_creation_date 2017-02-10
_audit_creation_method CSD-ConQuest-V1
_database_code_CSD SAPBAP
_database_code_depnum_ccdc_archive 'CCDC 901262'
_chemical_formula_sum 'C3 H7 Mg1 N1 O6'
_chemical_formula_moiety
;
(C3 H3 Mg1 O6 1-)n,H4 N1 1+
;
_journal_coden_Cambridge 1078
_journal_year 2016
_journal_name_full 'CSD Communication(Private Communication) '
loop_
_publ_author_name
"Ran Shang"
"Zhe-Ming Wang"
"Song Gao"
_chemical_name_systematic
;
catena-[ammonium tris(\m-formato)-magnesium]
;
_cell_volume    377.181
_exptl_crystal_colour 'colorless'
_exptl_crystal_density_diffrn 1.562
_exptl_crystal_description 'hexagonal plate'
_diffrn_ambient_temperature 290
_refine_special_details
;
N1 disordered by symmetry over two sites with occupancy 0.50.

;
#These two values have been output from a single CSD field.
_refine_ls_R_factor_gt 0.0294
_refine_ls_wR_factor_gt 0.0294
_symmetry_cell_setting hexagonal
_symmetry_space_group_name_H-M 'P 63 2 2'
_symmetry_Int_Tables_number 182
loop_
_symmetry_equiv_pos_site_id
_symmetry_equiv_pos_as_xyz
1 x,y,z
2 -y,x-y,z
3 -x+y,-x,z
4 -x,-y,1/2+z
5 y,-x+y,1/2+z
6 x-y,x,1/2+z
7 y,x,-z
8 x-y,-y,-z
9 -x,-x+y,-z
10 -y,-x,1/2-z
11 -x+y,y,1/2-z
12 x,x-y,1/2-z
_cell_length_a 7.2840(2)
_cell_length_b 7.2840(2)
_cell_length_c 8.2088(4)
_cell_angle_alpha 90
_cell_angle_beta 90
_cell_angle_gamma 120
_cell_formula_units_Z 2
loop_
_atom_type_symbol
_atom_type_radius_bond
C 0.68
H 0.23
Mg 1.41
N 0.68
O 0.68
loop_
_atom_site_label
_atom_site_type_symbol
_atom_site_fract_x
_atom_site_fract_y
_atom_site_fract_z
Mg1 Mg 0.33330 0.66670 0.25000
O1 O 0.10957(15) 0.68966(16) 0.10591(11)
C1 C 0.00000 0.5606(3) 0.00000
H1 H 0.00000 0.43290 0.00000
N1 N 0.00000 1.00000 0.2182(11)
H2 H 0.036(6) 0.898(6) 0.188(3)
H3 H 0.00000 1.00000 0.332(4)
O1H O -0.10957(15) 0.58009(16) -0.10591(11)
O1A O 0.31034(15) 0.41991(16) 0.10591(11)
C1A C 0.43940 0.4394(3) 0.00000
H1A H 0.56710 0.56710 0.00000
O1G O 0.41991(15) 0.31034(16) -0.10591(11)
O1B O 0.58009(15) 0.89043(16) 0.10591(11)
C1B C 0.56060 1.0000(3) 0.00000
H1B H 0.43290 1.00000 0.00000
O1F O 0.68966(15) 1.10957(16) -0.10591(11)
Mg1C Mg -0.33330 0.33330 -0.25000
Mg1C* Mg 0.66670 0.33330 -0.25000
Mg1C** Mg 0.66670 1.33330 -0.25000
O1I O 0.31034(15) 0.89043(16) 0.39409(11)
O1J O 0.58009(15) 0.68966(16) 0.39409(11)
O1K O 0.10957(15) 0.41991(16) 0.39409(11)
H2A H 0.102(6) 1.138(6) 0.188(3)
H2B H -0.138(6) 0.964(6) 0.188(3)
N1I N 0.00000 1.00000 0.2818(11)
H2I H 0.102(6) 0.964(6) 0.312(3)
H3I H 0.00000 1.00000 0.168(4)
H2J H -0.138(6) 0.898(6) 0.312(3)
H2K H 0.036(6) 1.138(6) 0.312(3)
#END
