
#######################################################################
#
#                 Cambridge Crystallographic Data Centre
#                                CCDC
#
#######################################################################
#
# If this CIF has been generated from an entry in the Cambridge
# Structural Database, then it will include bibliographic, chemical,
# crystal, experimental, refinement or atomic coordinate data resulting
# from the CCDC's data processing and validation procedures.
#
#######################################################################

data_CSD_CIF_SAPBIW
_audit_creation_date 2012-02-14
_audit_creation_method CSD-ConQuest-V1
_database_code_CSD SAPBIW
_database_code_depnum_ccdc_archive 'CCDC 833315'
_chemical_formula_sum 'C129.5 H250.5 N36.5 O53 Zn4'
_chemical_formula_moiety
;
(C52 H32 N10 O13 Zn4 2-)n,2n(C2 H8 N1 1+),24.5n(C3 H7 N1 O1),15.5n(H2 O1)
;
_journal_coden_Cambridge 1490
_journal_volume 3
_journal_year 2012
_journal_page_first 604
_journal_name_full 'Nat.Commun. '
loop_
_publ_author_name
"Jihyun An"
"O.K.Farha"
"J.T.Hupp"
"E.Pohl"
"J.I.Yeh"
"N.L.Rosi"
_chemical_name_systematic
;
catena-(bis(dimethylammonium) 
bis(\m~4~-adeninato)-tris(\m~2~-biphenyl-4,4'-dicarboxylato)-(\m~2~-oxo)-tetra
-zinc N,N-dimethylformamide solvate hydrate)
;
_chemical_name_common
;
Bio-MOF-100
;
_cell_volume 330225.943
_exptl_crystal_density_diffrn 0.304
_diffrn_ambient_temperature 296
_refine_special_details
;
The ammonium cations, the solvent molecules and the water molecules were not 
modelled.
;
#These two values have been output from a single CSD field.
_refine_ls_R_factor_gt 0.1264
_refine_ls_wR_factor_gt 0.1264
_symmetry_cell_setting cubic
_symmetry_space_group_name_H-M 'I a 3 d'
_symmetry_Int_Tables_number 230
loop_
_symmetry_equiv_pos_site_id
_symmetry_equiv_pos_as_xyz
1 x,y,z
2 1/2-x,-y,1/2+z
3 -x,1/2+y,1/2-z
4 1/2+x,1/2-y,-z
5 z,x,y
6 1/2+z,1/2-x,-y
7 1/2-z,-x,1/2+y
8 -z,1/2+x,1/2-y
9 y,z,x
10 -y,1/2+z,1/2-x
11 1/2+y,1/2-z,-x
12 1/2-y,-z,1/2+x
13 3/4+y,1/4+x,1/4-z
14 3/4-y,3/4-x,3/4-z
15 1/4+y,1/4-x,3/4+z
16 1/4-y,3/4+x,1/4+z
17 3/4+x,1/4+z,1/4-y
18 1/4-x,3/4+z,1/4+y
19 3/4-x,3/4-z,3/4-y
20 1/4+x,1/4-z,3/4+y
21 3/4+z,1/4+y,1/4-x
22 1/4+z,1/4-y,3/4+x
23 1/4-z,3/4+y,1/4+x
24 3/4-z,3/4-y,3/4-x
25 1/2+x,1/2+y,1/2+z
26 -x,1/2-y,z
27 1/2-x,y,-z
28 x,-y,1/2-z
29 1/2+z,1/2+x,1/2+y
30 z,-x,1/2-y
31 -z,1/2-x,y
32 1/2-z,x,-y
33 1/2+y,1/2+z,1/2+x
34 1/2-y,z,-x
35 y,-z,1/2-x
36 -y,1/2-z,x
37 1/4+y,3/4+x,3/4-z
38 1/4-y,1/4-x,1/4-z
39 3/4+y,3/4-x,1/4+z
40 3/4-y,1/4+x,3/4+z
41 1/4+x,3/4+z,3/4-y
42 3/4-x,1/4+z,3/4+y
43 1/4-x,1/4-z,1/4-y
44 3/4+x,3/4-z,1/4+y
45 1/4+z,3/4+y,3/4-x
46 3/4+z,3/4-y,1/4+x
47 3/4-z,1/4+y,3/4+x
48 1/4-z,1/4-y,1/4-x
49 -x,-y,-z
50 -1/2+x,y,-1/2-z
51 x,-1/2-y,-1/2+z
52 -1/2-x,-1/2+y,z
53 -z,-x,-y
54 -1/2-z,-1/2+x,y
55 -1/2+z,x,-1/2-y
56 z,-1/2-x,-1/2+y
57 -y,-z,-x
58 y,-1/2-z,-1/2+x
59 -1/2-y,-1/2+z,x
60 -1/2+y,z,-1/2-x
61 -3/4-y,-1/4-x,-1/4+z
62 -3/4+y,-3/4+x,-3/4+z
63 -1/4-y,-1/4+x,-3/4-z
64 -1/4+y,-3/4-x,-1/4-z
65 -3/4-x,-1/4-z,-1/4+y
66 -1/4+x,-3/4-z,-1/4-y
67 -3/4+x,-3/4+z,-3/4+y
68 -1/4-x,-1/4+z,-3/4-y
69 -3/4-z,-1/4-y,-1/4+x
70 -1/4-z,-1/4+y,-3/4-x
71 -1/4+z,-3/4-y,-1/4-x
72 -3/4+z,-3/4+y,-3/4+x
73 -1/2-x,-1/2-y,-1/2-z
74 x,-1/2+y,-z
75 -1/2+x,-y,z
76 -x,y,-1/2+z
77 -1/2-z,-1/2-x,-1/2-y
78 -z,x,-1/2+y
79 z,-1/2+x,-y
80 -1/2+z,-x,y
81 -1/2-y,-1/2-z,-1/2-x
82 -1/2+y,-z,x
83 -y,z,-1/2+x
84 y,-1/2+z,-x
85 -1/4-y,-3/4-x,-3/4+z
86 -1/4+y,-1/4+x,-1/4+z
87 -3/4-y,-3/4+x,-1/4-z
88 -3/4+y,-1/4-x,-3/4-z
89 -1/4-x,-3/4-z,-3/4+y
90 -3/4+x,-1/4-z,-3/4-y
91 -1/4+x,-1/4+z,-1/4+y
92 -3/4-x,-3/4+z,-1/4-y
93 -1/4-z,-3/4-y,-3/4+x
94 -3/4-z,-3/4+y,-1/4-x
95 -3/4+z,-1/4-y,-3/4-x
96 -1/4+z,-1/4+y,-1/4+x
_cell_length_a 69.12(2)
_cell_length_b 69.12(2)
_cell_length_c 69.12(2)
_cell_angle_alpha 90
_cell_angle_beta 90
_cell_angle_gamma 90
_cell_formula_units_Z 48
loop_
_atom_type_symbol
_atom_type_radius_bond
C 0.68
H 0.23
N 0.68
O 0.68
Zn 1.22
loop_
_atom_site_label
_atom_site_type_symbol
_atom_site_fract_x
_atom_site_fract_y
_atom_site_fract_z
Zn1 Zn 0.48946(2) 0.22986(2) 0.18967(2)
Zn2 Zn 0.436884(18) 0.224604(18) 0.12422(2)
N1 N 0.45012(12) 0.24370(14) 0.14342(14)
C1 C 0.45954(14) 0.23611(17) 0.15833(16)
H1 H 0.45660 0.22330 0.16130
N2 N 0.47283(12) 0.24486(13) 0.16962(12)
C2 C 0.47555(16) 0.26318(16) 0.16400(18)
C3 C 0.46633(16) 0.27318(17) 0.14825(18)
C4 C 0.45317(19) 0.26317(19) 0.13844(19)
N3 N 0.47379(13) 0.29166(12) 0.14588(15)
C5 C 0.48642(17) 0.29169(18) 0.16084(17)
H2 H 0.49370 0.30270 0.16360
N4 N 0.48835(13) 0.27558(14) 0.17179(14)
N5 N 0.44332(13) 0.27191(12) 0.12346(15)
H3 H 0.44570 0.28380 0.12050
H4 H 0.43480 0.26550 0.11710
O1 O 0.50000 0.25000 0.20618(13)
C6 C 0.4709(2) 0.1973(2) 0.1955(2)
O2 O 0.47684(16) 0.21104(14) 0.20520(17)
O3 O 0.47244(17) 0.19581(15) 0.17792(16)
C7 C 0.45977(17) 0.18176(18) 0.2061(2)
C8 C 0.4512(2) 0.16717(18) 0.19656(19)
H5 H 0.45180 0.16680 0.18310
C9 C 0.4412(2) 0.15233(19) 0.20649(18)
H6 H 0.43560 0.14220 0.19950
C10 C 0.4395(2) 0.15267(18) 0.22581(19)
C11 C 0.4471(3) 0.1681(2) 0.2348(2)
H7 H 0.44470 0.16970 0.24800
C12 C 0.4584(3) 0.1821(2) 0.2254(2)
H8 H 0.46490 0.19160 0.23250
C13 C 0.3988(2) 0.0930(2) 0.2678(2)
O4 O 0.38807(12) 0.08232(10) 0.25832(11)
O5 O 0.3996(2) 0.09167(18) 0.28525(14)
C14 C 0.40962(17) 0.10843(17) 0.25668(19)
C15 C 0.4099(2) 0.10877(18) 0.23774(18)
H9 H 0.40340 0.09920 0.23080
C16 C 0.4198(2) 0.1235(2) 0.22766(19)
H10 H 0.42000 0.12320 0.21420
C17 C 0.4290(2) 0.13786(18) 0.2366(2)
C18 C 0.4296(3) 0.1369(2) 0.2560(2)
H11 H 0.43710 0.14560 0.26300
C19 C 0.4191(3) 0.1228(2) 0.2656(2)
H12 H 0.41850 0.12330 0.27910
C20 C 0.4252(2) 0.1952(2) 0.1457(2)
O6 O 0.43832(11) 0.19874(11) 0.13372(14)
O7 O 0.41450(14) 0.20772(12) 0.15138(18)
C21 C 0.42114(16) 0.17411(17) 0.15106(15)
C22 C 0.40605(19) 0.16913(18) 0.16246(18)
H13 H 0.39820 0.17880 0.16760
C23 C 0.40208(19) 0.14982(18) 0.1666(2)
H14 H 0.39150 0.14660 0.17430
C24 C 0.41367(18) 0.13582(16) 0.15948(17)
C25 C 0.42890(17) 0.14068(18) 0.14821(17)
H15 H 0.43690 0.13100 0.14340
C26 C 0.43270(17) 0.16000(16) 0.14380(18)
H16 H 0.44310 0.16320 0.13590
Zn1Y Zn 0.51054(2) 0.27014(2) 0.18967(2)
Zn1BC Zn 0.27014(2) 0.31033(2) 0.01054(2)
Zn2Y Zn 0.563116(18) 0.275396(18) 0.12422(2)
Zn2IC Zn 0.474604(18) 0.313116(18) 0.12578(2)
Zn2XB Zn 0.375780(18) 0.063116(18) 0.275396(20)
Zn2U Zn 0.374220(18) 0.025396(18) 0.186884(20)
Zn2JB Zn 0.525396(18) 0.186884(18) 0.12578(2)
N1Y N 0.54988(12) 0.25630(14) 0.14342(14)
C1Y C 0.54046(14) 0.26389(17) 0.15833(16)
H1Y H 0.54340 0.27670 0.16130
N2Y N 0.52717(12) 0.25514(13) 0.16962(12)
C2Y C 0.52445(16) 0.23682(16) 0.16400(18)
C3Y C 0.53367(16) 0.22682(17) 0.14825(18)
C4Y C 0.54683(19) 0.23683(19) 0.13844(19)
N3Y N 0.52621(13) 0.20834(12) 0.14588(15)
N3JB N 0.45834(13) 0.22379(12) 0.10412(15)
N3IC N 0.54166(13) 0.27621(12) 0.10412(15)
C5Y C 0.51358(17) 0.20831(18) 0.16084(17)
H2Y H 0.50630 0.19730 0.16360
N4Y N 0.51165(13) 0.22442(14) 0.17179(14)
N5Y N 0.55668(13) 0.22809(12) 0.12346(15)
H3Y H 0.55430 0.21620 0.12050
H4Y H 0.56520 0.23450 0.11710
C6BC C 0.3027(2) 0.3045(2) 0.0291(2)
O2BC O 0.28896(16) 0.29480(14) 0.02316(17)
O2Y O 0.52316(16) 0.28896(14) 0.20520(17)
O3BC O 0.30419(17) 0.32208(15) 0.02756(16)
C7BC C 0.31824(17) 0.29390(18) 0.04023(20)
C8BC C 0.33283(20) 0.30344(18) 0.04880(19)
H5BC H 0.33320 0.31690 0.04820
C9BC C 0.34767(20) 0.29351(19) 0.05880(18)
H6BC H 0.35780 0.30050 0.06440
C10BC C 0.34733(20) 0.27419(18) 0.06050(19)
C11BC C 0.3319(3) 0.2652(2) 0.0529(2)
H7BC H 0.33030 0.25200 0.05530
C12BC C 0.3179(3) 0.2746(2) 0.0416(2)
H8BC H 0.30840 0.26750 0.03510
C13BC C 0.4070(2) 0.2322(2) 0.1012(2)
O4BC O 0.41768(12) 0.24168(10) 0.11193(11)
O4GB O 0.58232(12) 0.25832(10) 0.11193(11)
O5BC O 0.40833(20) 0.21475(18) 0.10040(14)
C14BC C 0.39157(17) 0.24332(17) 0.09038(19)
C15BC C 0.39123(20) 0.26226(18) 0.09010(18)
H9BC H 0.40080 0.26920 0.09660
C16BC C 0.3765(2) 0.27234(20) 0.08020(19)
H10BC H 0.37680 0.28580 0.08000
C17BC C 0.36214(20) 0.26340(18) 0.0710(2)
C18BC C 0.3631(3) 0.2440(2) 0.0704(2)
H11BC H 0.35440 0.23700 0.06290
C19BC C 0.3772(3) 0.2344(2) 0.0809(2)
H12BC H 0.37670 0.22090 0.08150
C20U C 0.3957(2) 0.0548(2) 0.1752(2)
O6U O 0.38372(11) 0.05126(11) 0.18832(14)
O6Y O 0.56168(11) 0.30126(11) 0.13372(14)
O7U O 0.40138(14) 0.04228(12) 0.16450(18)
C21U C 0.40106(16) 0.07589(17) 0.17114(15)
C22U C 0.41246(19) 0.08087(18) 0.15605(18)
H13U H 0.41760 0.07120 0.14820
C23U C 0.41660(19) 0.10018(18) 0.15208(20)
H14U H 0.42430 0.10340 0.14150
C24U C 0.40948(18) 0.11418(16) 0.16367(17)
C25U C 0.39821(17) 0.10932(18) 0.17890(17)
H15U H 0.39340 0.11900 0.18690
C26U C 0.39380(17) 0.09000(16) 0.18270(18)
H16U H 0.38590 0.08680 0.19310
#END
