
#######################################################################
#
#                 Cambridge Crystallographic Data Centre
#                                CCDC
#
#######################################################################
#
# If this CIF has been generated from an entry in the Cambridge
# Structural Database, then it will include bibliographic, chemical,
# crystal, experimental, refinement or atomic coordinate data resulting
# from the CCDC's data processing and validation procedures.
#
#######################################################################

data_CSD_CIF_SAPHUP
_audit_creation_date 2017-02-10
_audit_creation_method CSD-ConQuest-V1
_database_code_CSD SAPHUP
_database_code_depnum_ccdc_archive 'CCDC 913420'
_chemical_formula_sum 'C24 H42 Ce2 Mn3 O39'
_chemical_formula_moiety
;
2(C12 H12 Ce1 Mn1 O15 1-)n,H12 Mn1 O6 2+,3(H2 O1)
;
_journal_coden_Cambridge 1736
_journal_volume 1
_journal_year 2013
_journal_page_first 24
_journal_name_full 'Commun.Inorg.Synth. '
loop_
_publ_author_name
"J.Torres"
"J.Gonzalez-Platas"
"S.Dominguez"
"C.Kremer"
_chemical_name_systematic
;
catena-(hexa-aqua-manganese bis(tris(\m~3~-oxydiacetato)-cerium-manganese) 
trihydrate)
;
_cell_volume  18481.619
_exptl_crystal_colour 'colorless'
_exptl_crystal_density_diffrn 2.012
_exptl_crystal_description 'prism'
_diffrn_ambient_temperature 293
_refine_special_details
;
H1W,H2W and H1WA,H2WA disordered over two sites with occupancies 
0.50,0.25:0.50,0.25; O2W disordered by symmetry over two configurations with 
occupancy 0.50.
;
#These two values have been output from a single CSD field.
_refine_ls_R_factor_gt 0.0616
_refine_ls_wR_factor_gt 0.0616
_symmetry_cell_setting cubic
_symmetry_space_group_name_H-M 'F d -3 c'
_symmetry_Int_Tables_number 228
loop_
_symmetry_equiv_pos_site_id
_symmetry_equiv_pos_as_xyz
1 x,y,z
2 1/4-x,3/4-y,1/2+z
3 3/4-x,1/2+y,1/4-z
4 1/2+x,1/4-y,3/4-z
5 z,x,y
6 1/2+z,1/4-x,3/4-y
7 1/4-z,3/4-x,1/2+y
8 3/4-z,1/2+x,1/4-y
9 y,z,x
10 3/4-y,1/2+z,1/4-x
11 1/2+y,1/4-z,3/4-x
12 1/4-y,3/4-z,1/2+x
13 3/4+y,1/4+x,-z
14 1/2-y,1/2-x,1/2-z
15 1/4+y,-x,3/4+z
16 -y,3/4+x,1/4+z
17 3/4+x,1/4+z,-y
18 -x,3/4+z,1/4+y
19 1/2-x,1/2-z,1/2-y
20 1/4+x,-z,3/4+y
21 3/4+z,1/4+y,-x
22 1/4+z,-y,3/4+x
23 -z,3/4+y,1/4+x
24 1/2-z,1/2-y,1/2-x
25 x,1/2+y,1/2+z
26 1/4-x,1/4-y,z
27 3/4-x,y,3/4-z
28 1/2+x,3/4-y,1/4-z
29 z,1/2+x,1/2+y
30 1/2+z,3/4-x,1/4-y
31 1/4-z,1/4-x,y
32 3/4-z,x,3/4-y
33 y,1/2+z,1/2+x
34 3/4-y,z,3/4-x
35 1/2+y,3/4-z,1/4-x
36 1/4-y,1/4-z,x
37 3/4+y,3/4+x,1/2-z
38 1/2-y,-x,-z
39 1/4+y,1/2-x,1/4+z
40 -y,1/4+x,3/4+z
41 3/4+x,3/4+z,1/2-y
42 -x,1/4+z,3/4+y
43 1/2-x,-z,-y
44 1/4+x,1/2-z,1/4+y
45 3/4+z,3/4+y,1/2-x
46 1/4+z,1/2-y,1/4+x
47 -z,1/4+y,3/4+x
48 1/2-z,-y,-x
49 1/2+x,y,1/2+z
50 3/4-x,3/4-y,z
51 1/4-x,1/2+y,3/4-z
52 x,1/4-y,1/4-z
53 1/2+z,x,1/2+y
54 z,1/4-x,1/4-y
55 3/4-z,3/4-x,y
56 1/4-z,1/2+x,3/4-y
57 1/2+y,z,1/2+x
58 1/4-y,1/2+z,3/4-x
59 y,1/4-z,1/4-x
60 3/4-y,3/4-z,x
61 1/4+y,1/4+x,1/2-z
62 -y,1/2-x,-z
63 3/4+y,-x,1/4+z
64 1/2-y,3/4+x,3/4+z
65 1/4+x,1/4+z,1/2-y
66 1/2-x,3/4+z,3/4+y
67 -x,1/2-z,-y
68 3/4+x,-z,1/4+y
69 1/4+z,1/4+y,1/2-x
70 3/4+z,-y,1/4+x
71 1/2-z,3/4+y,3/4+x
72 -z,1/2-y,-x
73 1/2+x,1/2+y,z
74 3/4-x,1/4-y,1/2+z
75 1/4-x,y,1/4-z
76 x,3/4-y,3/4-z
77 1/2+z,1/2+x,y
78 z,3/4-x,3/4-y
79 3/4-z,1/4-x,1/2+y
80 1/4-z,x,1/4-y
81 1/2+y,1/2+z,x
82 1/4-y,z,1/4-x
83 y,3/4-z,3/4-x
84 3/4-y,1/4-z,1/2+x
85 1/4+y,3/4+x,-z
86 -y,-x,1/2-z
87 3/4+y,1/2-x,3/4+z
88 1/2-y,1/4+x,1/4+z
89 1/4+x,3/4+z,-y
90 1/2-x,1/4+z,1/4+y
91 -x,-z,1/2-y
92 3/4+x,1/2-z,3/4+y
93 1/4+z,3/4+y,-x
94 3/4+z,1/2-y,3/4+x
95 1/2-z,1/4+y,1/4+x
96 -z,-y,1/2-x
97 -x,-y,-z
98 -1/4+x,-3/4+y,-1/2-z
99 -3/4+x,-1/2-y,-1/4+z
100 -1/2-x,-1/4+y,-3/4+z
101 -z,-x,-y
102 -1/2-z,-1/4+x,-3/4+y
103 -1/4+z,-3/4+x,-1/2-y
104 -3/4+z,-1/2-x,-1/4+y
105 -y,-z,-x
106 -3/4+y,-1/2-z,-1/4+x
107 -1/2-y,-1/4+z,-3/4+x
108 -1/4+y,-3/4+z,-1/2-x
109 -3/4-y,-1/4-x,z
110 -1/2+y,-1/2+x,-1/2+z
111 -1/4-y,x,-3/4-z
112 y,-3/4-x,-1/4-z
113 -3/4-x,-1/4-z,y
114 x,-3/4-z,-1/4-y
115 -1/2+x,-1/2+z,-1/2+y
116 -1/4-x,z,-3/4-y
117 -3/4-z,-1/4-y,x
118 -1/4-z,y,-3/4-x
119 z,-3/4-y,-1/4-x
120 -1/2+z,-1/2+y,-1/2+x
121 -x,-1/2-y,-1/2-z
122 -1/4+x,-1/4+y,-z
123 -3/4+x,-y,-3/4+z
124 -1/2-x,-3/4+y,-1/4+z
125 -z,-1/2-x,-1/2-y
126 -1/2-z,-3/4+x,-1/4+y
127 -1/4+z,-1/4+x,-y
128 -3/4+z,-x,-3/4+y
129 -y,-1/2-z,-1/2-x
130 -3/4+y,-z,-3/4+x
131 -1/2-y,-3/4+z,-1/4+x
132 -1/4+y,-1/4+z,-x
133 -3/4-y,-3/4-x,-1/2+z
134 -1/2+y,x,z
135 -1/4-y,-1/2+x,-1/4-z
136 y,-1/4-x,-3/4-z
137 -3/4-x,-3/4-z,-1/2+y
138 x,-1/4-z,-3/4-y
139 -1/2+x,z,y
140 -1/4-x,-1/2+z,-1/4-y
141 -3/4-z,-3/4-y,-1/2+x
142 -1/4-z,-1/2+y,-1/4-x
143 z,-1/4-y,-3/4-x
144 -1/2+z,y,x
145 -1/2-x,-y,-1/2-z
146 -3/4+x,-3/4+y,-z
147 -1/4+x,-1/2-y,-3/4+z
148 -x,-1/4+y,-1/4+z
149 -1/2-z,-x,-1/2-y
150 -z,-1/4+x,-1/4+y
151 -3/4+z,-3/4+x,-y
152 -1/4+z,-1/2-x,-3/4+y
153 -1/2-y,-z,-1/2-x
154 -1/4+y,-1/2-z,-3/4+x
155 -y,-1/4+z,-1/4+x
156 -3/4+y,-3/4+z,-x
157 -1/4-y,-1/4-x,-1/2+z
158 y,-1/2+x,z
159 -3/4-y,x,-1/4-z
160 -1/2+y,-3/4-x,-3/4-z
161 -1/4-x,-1/4-z,-1/2+y
162 -1/2+x,-3/4-z,-3/4-y
163 x,-1/2+z,y
164 -3/4-x,z,-1/4-y
165 -1/4-z,-1/4-y,-1/2+x
166 -3/4-z,y,-1/4-x
167 -1/2+z,-3/4-y,-3/4-x
168 z,-1/2+y,x
169 -1/2-x,-1/2-y,-z
170 -3/4+x,-1/4+y,-1/2-z
171 -1/4+x,-y,-1/4+z
172 -x,-3/4+y,-3/4+z
173 -1/2-z,-1/2-x,-y
174 -z,-3/4+x,-3/4+y
175 -3/4+z,-1/4+x,-1/2-y
176 -1/4+z,-x,-1/4+y
177 -1/2-y,-1/2-z,-x
178 -1/4+y,-z,-1/4+x
179 -y,-3/4+z,-3/4+x
180 -3/4+y,-1/4+z,-1/2-x
181 -1/4-y,-3/4-x,z
182 y,x,-1/2+z
183 -3/4-y,-1/2+x,-3/4-z
184 -1/2+y,-1/4-x,-1/4-z
185 -1/4-x,-3/4-z,y
186 -1/2+x,-1/4-z,-1/4-y
187 x,z,-1/2+y
188 -3/4-x,-1/2+z,-3/4-y
189 -1/4-z,-3/4-y,x
190 -3/4-z,-1/2+y,-3/4-x
191 -1/2+z,-1/4-y,-1/4-x
192 z,y,-1/2+x
_cell_length_a 26.4391(14)
_cell_length_b 26.4391(14)
_cell_length_c 26.4391(14)
_cell_angle_alpha 90
_cell_angle_beta 90
_cell_angle_gamma 90
_cell_formula_units_Z 16
loop_
_atom_type_symbol
_atom_type_radius_bond
C 0.68
H 0.23
Ce 2.04
Mn 1.61
O 0.68
loop_
_atom_site_label
_atom_site_type_symbol
_atom_site_fract_x
_atom_site_fract_y
_atom_site_fract_z
Ce1 Ce 0.25000 0.00000 0.00000
Mn1 Mn 0.50000 0.00000 0.00000
O1 O 0.3178(2) 0.0678(2) 0.00000
O2 O 0.3389(2) -0.0280(2) 0.0075(3)
O3 O 0.4212(3) -0.0174(3) 0.0118(3)
C1 C 0.3771(3) 0.0004(4) 0.0070(3)
C2 C 0.3701(4) 0.0567(4) 0.0033(5)
H1 H 0.38440 0.07300 0.03290
H2 H 0.38740 0.06950 -0.02640
Mn2 Mn 0.12500 0.12500 0.12500
O4 O 0.0419(5) 0.12500 0.12500
H3 H 0.02320 0.10030 0.10160
O5 O 0.3245(13) 0.12500 0.12500
H4 H 0.34140 0.11060 0.14830
H5? H 0.02320 0.15760 0.11540
H6? H 0.29850 0.10740 0.11810
O2FC O 0.2220(2) 0.0889(2) -0.0075(3)
O3FC O 0.2326(3) 0.1712(3) -0.0118(3)
C1FC C 0.2504(3) 0.1271(4) -0.0070(3)
C2FC C 0.3067(4) 0.1201(4) -0.0033(5)
H1FC H 0.32300 0.13440 -0.03290
H2FC H 0.31950 0.13740 0.02640
O1U O 0.2500(2) -0.0678(2) 0.06780
O2U O 0.2575(2) 0.0280(2) 0.0889(3)
O3U O 0.2618(3) 0.0174(3) 0.1712(3)
C1U C 0.2570(3) -0.0004(4) 0.1271(3)
C2U C 0.2533(4) -0.0567(4) 0.1201(5)
H1U H 0.28290 -0.07300 0.13440
H2U H 0.22360 -0.06950 0.13740
O2DA O 0.2425(2) -0.0889(2) -0.0280(3)
O3DA O 0.2382(3) -0.1712(3) -0.0174(3)
C1DA C 0.2430(3) -0.1271(4) 0.0004(3)
C2DA C 0.2467(4) -0.1201(4) 0.0567(5)
H1DA H 0.21710 -0.13440 0.07300
H2DA H 0.27640 -0.13740 0.06950
O1PA O 0.1822(2) 0.0000(2) -0.06780
O2PA O 0.1611(2) -0.0075(2) 0.0280(3)
O3PA O 0.0788(3) -0.0118(3) 0.0174(3)
C1PA C 0.1229(3) -0.0070(4) -0.0004(3)
C2PA C 0.1299(4) -0.0033(4) -0.0567(5)
H1PA H 0.11560 -0.03290 -0.07300
H2PA H 0.11260 0.02640 -0.06950
O2CC O 0.2780(2) 0.0075(2) -0.0889(3)
O3CC O 0.2674(3) 0.0118(3) -0.1712(3)
C1CC C 0.2496(3) 0.0070(4) -0.1271(3)
C2CC C 0.1933(4) 0.0033(4) -0.1201(5)
H1CC H 0.17700 0.03290 -0.13440
H2CC H 0.18050 -0.02640 -0.13740
Mn1K Mn 0.25000 -0.25000 0.00000
Mn1P Mn 0.25000 0.25000 0.00000
Mn1U Mn 0.25000 0.00000 0.25000
Mn1Z Mn 0.25000 0.00000 -0.25000
Mn1PA Mn 0.00000 0.00000 0.00000
O3DB O 0.4826(3) 0.0118(3) -0.0788(3)
O3XB O 0.5118(3) -0.0788(3) -0.0174(3)
O3RC O 0.5788(3) 0.0174(3) -0.0118(3)
O3VE O 0.5174(3) -0.0118(3) 0.0788(3)
O3PF O 0.4882(3) 0.0788(3) 0.0174(3)
H3YA H 0.02320 0.14970 0.14840
O4D O 0.1250(5) 0.04190 0.12500
H3D H 0.10160 0.02320 0.10030
H3AC H 0.14840 0.02320 0.14970
O4H O 0.1250(5) 0.12500 0.04190
H3H H 0.10030 0.10160 0.02320
H3IA H 0.14970 0.14840 0.02320
O4Y O 0.2081(5) 0.12500 0.12500
H3Y H 0.22680 0.14970 0.10160
H3VB H 0.22680 0.10030 0.14840
O4DA O 0.1250(5) 0.20810 0.12500
H3DA H 0.14840 0.22680 0.10030
H3AB H 0.10160 0.22680 0.14970
O4FB O 0.1250(5) 0.12500 0.20810
H3FB H 0.10030 0.14840 0.22680
H3CC H 0.14970 0.10160 0.22680
H4YA H 0.34140 0.13940 0.10170
#END
