
#######################################################################
#
#                 Cambridge Crystallographic Data Centre
#                                CCDC
#
#######################################################################
#
# If this CIF has been generated from an entry in the Cambridge
# Structural Database, then it will include bibliographic, chemical,
# crystal, experimental, refinement or atomic coordinate data resulting
# from the CCDC's data processing and validation procedures.
#
#######################################################################

data_CSD_CIF_SAPRAF
_audit_creation_date 2017-02-10
_audit_creation_method CSD-ConQuest-V1
_database_code_CSD SAPRAF
_database_code_depnum_ccdc_archive 'CCDC 1414445'
_chemical_formula_sum 'C69.3 H72.9 N15.3 O39.3 Sm3'
_chemical_formula_moiety
;
(C60 H42 N6 O30 Sm3 3-)n,3(C1 H4 N1 O1 1+),6.3(C1 H3 N1 O1)
;
_journal_coden_Cambridge 1350
_journal_volume 18
_journal_year 2016
_journal_page_first 1337
_journal_name_full 'CrystEngComm '
loop_
_publ_author_name
"A.Karmakar"
"S.Hazra"
"M.Fatima C.Guedes da Silva"
"Anup Paul"
"A.J.L.Pombeiro"
_chemical_name_systematic
;
catena-[tris(foraminium) 
hexakis(\m-2-(acetylamino)benzene-1,4-dicarboxylato)-tri-samarium(iii) 
formamide solvate]
;
_cell_volume  18944.693
_exptl_crystal_colour 'colorless'
_exptl_crystal_density_diffrn 1.543
_exptl_crystal_description 'block'
_diffrn_ambient_temperature 296
_refine_special_details
;
The SQUEEZE/PLATON program has been used to model some disordered cation and 
solvent molecules.
;
#These two values have been output from a single CSD field.
_refine_ls_R_factor_gt 0.0451
_refine_ls_wR_factor_gt 0.0451
_symmetry_cell_setting cubic
_symmetry_space_group_name_H-M 'I a -3'
_symmetry_Int_Tables_number 206
loop_
_symmetry_equiv_pos_site_id
_symmetry_equiv_pos_as_xyz
1 x,y,z
2 1/2-x,-y,1/2+z
3 -x,1/2+y,1/2-z
4 1/2+x,1/2-y,-z
5 z,x,y
6 1/2+z,1/2-x,-y
7 1/2-z,-x,1/2+y
8 -z,1/2+x,1/2-y
9 y,z,x
10 -y,1/2+z,1/2-x
11 1/2+y,1/2-z,-x
12 1/2-y,-z,1/2+x
13 1/2+x,1/2+y,1/2+z
14 -x,1/2-y,z
15 1/2-x,y,-z
16 x,-y,1/2-z
17 1/2+z,1/2+x,1/2+y
18 z,-x,1/2-y
19 -z,1/2-x,y
20 1/2-z,x,-y
21 1/2+y,1/2+z,1/2+x
22 1/2-y,z,-x
23 y,-z,1/2-x
24 -y,1/2-z,x
25 -x,-y,-z
26 -1/2+x,y,-1/2-z
27 x,-1/2-y,-1/2+z
28 -1/2-x,-1/2+y,z
29 -z,-x,-y
30 -1/2-z,-1/2+x,y
31 -1/2+z,x,-1/2-y
32 z,-1/2-x,-1/2+y
33 -y,-z,-x
34 y,-1/2-z,-1/2+x
35 -1/2-y,-1/2+z,x
36 -1/2+y,z,-1/2-x
37 -1/2-x,-1/2-y,-1/2-z
38 x,-1/2+y,-z
39 -1/2+x,-y,z
40 -x,y,-1/2+z
41 -1/2-z,-1/2-x,-1/2-y
42 -z,x,-1/2+y
43 z,-1/2+x,-y
44 -1/2+z,-x,y
45 -1/2-y,-1/2-z,-1/2-x
46 -1/2+y,-z,x
47 -y,z,-1/2+x
48 y,-1/2+z,-x
_cell_length_a 26.6581(12)
_cell_length_b 26.6581(12)
_cell_length_c 26.6581(12)
_cell_angle_alpha 90
_cell_angle_beta 90
_cell_angle_gamma 90
_cell_formula_units_Z 8
loop_
_atom_type_symbol
_atom_type_radius_bond
C 0.68
H 0.23
N 0.68
O 0.68
Sm 1.98
loop_
_atom_site_label
_atom_site_type_symbol
_atom_site_fract_x
_atom_site_fract_y
_atom_site_fract_z
Sm1 Sm 0.75000 0.25000 0.25000
Sm2 Sm 0.66585(2) 0.16585(2) 0.33415(2)
C1 C 0.64109(18) 0.27045(18) 0.2656(2)
C2 C 0.58922(18) 0.28896(19) 0.2769(2)
C3 C 0.57428(19) 0.2932(2) 0.3260(2)
H1 H 0.59690 0.28560 0.35150
C4 C 0.5257(2) 0.3088(2) 0.3384(2)
H2 H 0.51640 0.31290 0.37180
C5 C 0.49134(18) 0.31801(18) 0.2997(2)
C6 C 0.4382(2) 0.32869(19) 0.3117(2)
C7 C 0.5069(2) 0.3141(2) 0.2489(2)
H3 H 0.48450 0.32100 0.22310
C8 C 0.5558(2) 0.2999(2) 0.2381(2)
C9 C 0.5424(8) 0.3035(7) 0.1414(7)
C10 C 0.5741(7) 0.3010(6) 0.0941(7)
H4 H 0.59420 0.27110 0.09460
H5 H 0.59560 0.32990 0.09260
H6 H 0.55260 0.30060 0.06530
N1 N 0.5697(4) 0.2976(4) 0.1883(4)
H7 H 0.60110 0.29150 0.18410
O1 O 0.65945(13) 0.27441(14) 0.22279(14)
O2 O 0.66657(12) 0.25113(12) 0.30102(13)
O3 O 0.40641(13) 0.33445(13) 0.27672(14)
O4 O 0.42371(14) 0.33032(15) 0.35734(14)
O5 O 0.5028(6) 0.3224(6) 0.1454(6)
C1G C 0.73440(18) 0.14109(18) 0.22955(20)
C2G C 0.72310(18) 0.08922(19) 0.21104(20)
C3G C 0.67400(19) 0.07428(20) 0.2068(2)
H1G H 0.64850 0.09690 0.21440
C4G C 0.6616(2) 0.0257(2) 0.1912(2)
H2G H 0.62820 0.01640 0.18710
C5G C 0.70030(18) -0.00866(18) 0.18199(20)
C6G C 0.6883(2) -0.06180(19) 0.17131(20)
C7G C 0.7511(2) 0.0069(2) 0.1859(2)
H3G H 0.77690 -0.01550 0.17900
C8G C 0.7619(2) 0.0558(2) 0.2001(2)
C9G C 0.8586(8) 0.0424(7) 0.1965(7)
C10G C 0.9059(7) 0.0741(6) 0.1990(7)
H4G H 0.90540 0.09420 0.22890
H5G H 0.90740 0.09560 0.17010
H6G H 0.93470 0.05260 0.19940
N1G N 0.8117(4) 0.0697(4) 0.2024(4)
H7G H 0.81590 0.10110 0.20850
O1G O 0.77721(13) 0.15945(14) 0.22559(14)
O2G O 0.69898(12) 0.16657(12) 0.24887(13)
O3G O 0.72328(13) -0.09359(13) 0.16555(14)
O4G O 0.64266(14) -0.07629(15) 0.16968(14)
O5G O 0.8546(6) 0.0028(6) 0.1776(6)
C1J C 0.77045(18) 0.23440(18) 0.35891(20)
C2J C 0.78896(18) 0.22310(19) 0.41078(20)
C3J C 0.79320(19) 0.1740(2) 0.42572(20)
H1J H 0.78560 0.14850 0.40310
C4J C 0.8088(2) 0.1616(2) 0.4743(2)
H2J H 0.81290 0.12820 0.48360
C5J C 0.81801(18) 0.20030(18) 0.50866(20)
C6J C 0.82869(20) 0.18830(19) 0.5618(2)
C7J C 0.8141(2) 0.2511(2) 0.4931(2)
H3J H 0.82100 0.27690 0.51550
C8J C 0.7999(2) 0.2619(2) 0.4442(2)
C9J C 0.8035(8) 0.3586(7) 0.4576(7)
C10J C 0.8010(7) 0.4059(6) 0.4259(7)
H4J H 0.77110 0.40540 0.40580
H5J H 0.82990 0.40740 0.40440
H6J H 0.80060 0.43470 0.44740
N1J N 0.7976(4) 0.3117(4) 0.4303(4)
H7J H 0.79150 0.31590 0.39890
O1J O 0.77441(13) 0.27721(14) 0.34055(14)
O2J O 0.75113(12) 0.19898(12) 0.33343(13)
O3J O 0.83445(13) 0.22328(13) 0.59359(14)
O4J O 0.83032(14) 0.14266(15) 0.57629(14)
O5J O 0.8224(6) 0.3546(6) 0.4972(6)
Sm2JA Sm 0.83415(2) 0.33415(2) 0.16585(2)
C1JA C 0.85891(18) 0.22955(18) 0.2344(2)
C2JA C 0.91078(18) 0.21104(19) 0.2231(2)
C3JA C 0.92572(19) 0.2068(2) 0.1740(2)
H1JA H 0.90310 0.21440 0.14850
C4JA C 0.9743(2) 0.1912(2) 0.1616(2)
H2JA H 0.98360 0.18710 0.12820
C5JA C 1.00866(18) 0.18199(18) 0.2003(2)
C6JA C 1.0618(2) 0.17131(19) 0.1883(2)
C7JA C 0.9931(2) 0.1859(2) 0.2511(2)
H3JA H 1.01550 0.17900 0.27690
C8JA C 0.9442(2) 0.2001(2) 0.2619(2)
C9JA C 0.9576(8) 0.1965(7) 0.3586(7)
C10JA C 0.9259(7) 0.1990(6) 0.4059(7)
H4JA H 0.90580 0.22890 0.40540
H5JA H 0.90440 0.17010 0.40740
H6JA H 0.94740 0.19940 0.43470
N1JA N 0.9303(4) 0.2024(4) 0.3117(4)
H7JA H 0.89890 0.20850 0.31590
O1JA O 0.84055(13) 0.22559(14) 0.27721(14)
O2JA O 0.83343(12) 0.24887(12) 0.19898(13)
O3JA O 1.09359(13) 0.16555(13) 0.22328(14)
O4JA O 1.07629(14) 0.16968(15) 0.14266(14)
O5JA O 0.9972(6) 0.1776(6) 0.3546(6)
C1QA C 0.76560(18) 0.35891(18) 0.27045(20)
C2QA C 0.77690(18) 0.41078(19) 0.28896(20)
C3QA C 0.82600(19) 0.42572(20) 0.2932(2)
H1QA H 0.85150 0.40310 0.28560
C4QA C 0.8384(2) 0.4743(2) 0.3088(2)
H2QA H 0.87180 0.48360 0.31290
C5QA C 0.79970(18) 0.50866(18) 0.31801(20)
C6QA C 0.8117(2) 0.56180(19) 0.32869(20)
C7QA C 0.7489(2) 0.4931(2) 0.3141(2)
H3QA H 0.72310 0.51550 0.32100
C8QA C 0.7381(2) 0.4442(2) 0.2999(2)
C9QA C 0.6414(8) 0.4576(7) 0.3035(7)
C10QA C 0.5941(7) 0.4259(6) 0.3010(7)
H4QA H 0.59460 0.40580 0.27110
H5QA H 0.59260 0.40440 0.32990
H6QA H 0.56530 0.44740 0.30060
N1QA N 0.6883(4) 0.4303(4) 0.2976(4)
H7QA H 0.68410 0.39890 0.29150
O1QA O 0.72279(13) 0.34055(14) 0.27441(14)
O2QA O 0.80102(12) 0.33343(12) 0.25113(13)
O3QA O 0.77672(13) 0.59359(13) 0.33445(14)
O4QA O 0.85734(14) 0.57629(15) 0.33032(14)
O5QA O 0.6454(6) 0.4972(6) 0.3224(6)
C1TA C 0.72955(18) 0.26560(18) 0.14109(20)
C2TA C 0.71104(18) 0.27690(19) 0.08922(20)
C3TA C 0.70680(19) 0.3260(2) 0.07428(20)
H1TA H 0.71440 0.35150 0.09690
C4TA C 0.6912(2) 0.3384(2) 0.0257(2)
H2TA H 0.68710 0.37180 0.01640
C5TA C 0.68199(18) 0.29970(18) -0.00866(20)
C6TA C 0.67131(20) 0.31170(19) -0.0618(2)
C7TA C 0.6859(2) 0.2489(2) 0.0069(2)
H3TA H 0.67900 0.22310 -0.01550
C8TA C 0.7001(2) 0.2381(2) 0.0558(2)
C9TA C 0.6965(8) 0.1414(7) 0.0424(7)
C10TA C 0.6990(7) 0.0941(6) 0.0741(7)
H4TA H 0.72890 0.09460 0.09420
H5TA H 0.67010 0.09260 0.09560
H6TA H 0.69940 0.06530 0.05260
N1TA N 0.7024(4) 0.1883(4) 0.0697(4)
H7TA H 0.70850 0.18410 0.10110
O1TA O 0.72559(13) 0.22279(14) 0.15945(14)
O2TA O 0.74887(12) 0.30102(12) 0.16657(13)
O3TA O 0.66555(13) 0.27672(13) -0.09359(14)
O4TA O 0.66968(14) 0.35734(15) -0.07629(14)
O5TA O 0.6776(6) 0.1454(6) 0.0028(6)
Sm2M Sm 0.33415(2) 0.33415(2) 0.33415(2)
Sm2N Sm 0.83415(2) 0.16585(2) 0.66585(2)
Sm2O Sm 0.66585(2) -0.16585(2) 0.16585(2)
Sm2Y Sm 1.16585(2) 0.16585(2) 0.16585(2)
Sm2Z Sm 0.66585(2) 0.33415(2) -0.16585(2)
Sm2AA Sm 0.83415(2) 0.66585(2) 0.33415(2)
O3M O 0.59359(13) 0.16555(13) 0.27672(14)
O3R O 0.72328(13) 0.09359(13) 0.33445(14)
O3W O 0.66555(13) 0.22328(13) 0.40641(14)
O3Y O 0.90641(13) 0.33445(13) 0.22328(14)
O3DA O 0.77672(13) 0.40641(13) 0.16555(14)
O3IA O 0.83445(13) 0.27672(13) 0.09359(14)
O4M O 0.57629(14) 0.16968(15) 0.35734(14)
O4R O 0.64266(14) 0.07629(15) 0.33032(14)
O4W O 0.66968(14) 0.14266(15) 0.42371(14)
O4Y O 0.92371(14) 0.33032(15) 0.14266(14)
O4DA O 0.85734(14) 0.42371(15) 0.16968(14)
O4IA O 0.83032(14) 0.35734(15) 0.07629(14)
#END
