
#######################################################################
#
#                 Cambridge Crystallographic Data Centre
#                                CCDC
#
#######################################################################
#
# If this CIF has been generated from an entry in the Cambridge
# Structural Database, then it will include bibliographic, chemical,
# crystal, experimental, refinement or atomic coordinate data resulting
# from the CCDC's data processing and validation procedures.
#
#######################################################################

data_CSD_CIF_SAQSOU
_audit_creation_date 2012-08-03
_audit_creation_method CSD-ConQuest-V1
_database_code_CSD SAQSOU
_database_code_depnum_ccdc_archive 'CCDC 799107'
_chemical_formula_sum 'C61 H92 B2 Cu10 K1 N29 O6 S6 W2'
_chemical_formula_moiety
;
(C45 H58 B2 Cu10 N23 O2 S6 W2 1-)n,n(K1 1+),4n(C3 H7 N1 O1),2n(C2 H3 N1)
;
_journal_coden_Cambridge 182
_journal_volume 48
_journal_year 2012
_journal_page_first 4480
_journal_name_full 'Chem.Commun. '
loop_
_publ_author_name
"X.Chen"
"H.-X.Li"
"Z.-Y.Zhang"
"W.Zhao"
"J.-P.Lang"
"B.F.Abrahams"
_chemical_name_systematic
;
catena-[Potassium 
bis(\m~3~-dimethylformamide)-hexakis(\m~3~-sulfido)-nonakis(\m~2~-cyano)-bis(h
ydrogen tris(3,5-dimethylpyrazolyl)borato)-deca-copper-di-tungsten 
acetonitrile dimethylformamide solvate]
;
_cell_volume   9258.382
_exptl_crystal_colour 'black'
_exptl_crystal_description 'prism'
_diffrn_ambient_temperature 293
_refine_special_details
;
One cyano group is disordered by symmetry.

;
#These two values have been output from a single CSD field.
_refine_ls_R_factor_gt 0.0705
_refine_ls_wR_factor_gt 0.0705
_symmetry_cell_setting monoclinic
_symmetry_space_group_name_H-M 'C 2/c'
_symmetry_Int_Tables_number 15
loop_
_symmetry_equiv_pos_site_id
_symmetry_equiv_pos_as_xyz
1 x,y,z
2 -x,y,1/2-z
3 1/2+x,1/2+y,z
4 1/2-x,1/2+y,1/2-z
5 -x,-y,-z
6 x,-y,-1/2+z
7 -1/2-x,-1/2-y,-z
8 -1/2+x,-1/2-y,-1/2+z
_cell_length_a 15.165(3)
_cell_length_b 26.907(5)
_cell_length_c 23.715(5)
_cell_angle_alpha 90
_cell_angle_beta 106.91(3)
_cell_angle_gamma 90
_cell_formula_units_Z 4
loop_
_atom_type_symbol
_atom_type_radius_bond
C 0.62
H 0.23
B 0.83
Cu 1.09
K 1.09
N 0.78
O 0.93
S 1.02
W 1.16
loop_
_atom_site_label
_atom_site_type_symbol
_atom_site_fract_x
_atom_site_fract_y
_atom_site_fract_z
W1 W 0.36878(2) 0.620420(12) 0.543426(14)
Cu1 Cu 0.27167(8) 0.55000(4) 0.57722(5)
Cu2 Cu 0.26015(8) 0.65649(4) 0.60510(5)
Cu3 Cu 0.19231(8) 0.62327(4) 0.48064(5)
S1 S 0.28350(15) 0.55822(8) 0.48705(10)
Cu4 Cu 0.16079(8) 0.76883(4) 0.74164(5)
S2 S 0.37164(16) 0.60023(8) 0.63817(10)
S3 S 0.27451(16) 0.68886(8) 0.52167(11)
Cu5 Cu 0.13589(8) 0.39661(4) 0.63495(5)
O1 O 0.1282(5) 0.6049(3) 0.5760(3)
N1 N 0.5756(5) 0.5855(3) 0.5540(3)
N2 N 0.4852(5) 0.6767(3) 0.5856(3)
N3 N 0.5116(5) 0.6429(3) 0.4695(3)
N4 N 0.4927(5) 0.5685(3) 0.5578(3)
C1 C 0.0693(7) 0.6199(3) 0.4310(4)
N5 N 0.2166(6) 0.4918(3) 0.5981(4)
C2 C 0.1845(7) 0.4560(3) 0.6114(5)
N6 N 0.4185(5) 0.6395(3) 0.4640(3)
N7 N 0.5675(5) 0.6761(3) 0.5712(3)
N8 N 0.2416(6) 0.8208(3) 0.7842(4)
N9 N -0.0050(6) 0.6136(3) 0.4033(4)
N10 N 0.1979(6) 0.7218(3) 0.6921(4)
C3 C 0.2190(6) 0.6952(3) 0.6591(4)
C4 C 0.6424(6) 0.5513(3) 0.5730(4)
C5 C 0.2893(6) 0.8507(3) 0.8125(4)
C6 C 0.6013(6) 0.5093(3) 0.5879(4)
H1 H 0.62990 0.47910 0.60110
C7 C 0.5093(6) 0.5208(3) 0.5790(4)
C8 C 0.6239(7) 0.7121(4) 0.6015(5)
C9 C 0.5234(7) 0.6516(4) 0.4162(4)
C10 C 0.4404(7) 0.4860(3) 0.5900(4)
H2 H 0.41460 0.49990 0.61890
H3 H 0.46970 0.45490 0.60410
H4 H 0.39230 0.48050 0.55390
C11 C 0.3738(7) 0.6470(4) 0.4067(4)
C12 C 0.4378(7) 0.6554(4) 0.3761(4)
H5 H 0.42510 0.66230 0.33610
C13 C 0.4938(7) 0.7145(4) 0.6248(5)
C14 C 0.7408(7) 0.5589(4) 0.5750(5)
H6 H 0.74520 0.56170 0.53550
H7 H 0.77680 0.53100 0.59420
H8 H 0.76360 0.58870 0.59640
C15 C 0.4229(8) 0.7304(5) 0.6544(6)
H9 H 0.37160 0.74550 0.62580
H10 H 0.44990 0.75400 0.68490
H11 H 0.40200 0.70190 0.67120
C16 C 0.0373(6) 0.7684(3) 0.7479(4)
N11 N 0.0298(7) 0.5583(4) 0.6075(5)
B1 B 0.5844(8) 0.6376(4) 0.5286(5)
C17 C 0.2718(7) 0.6491(5) 0.3796(4)
H12 H 0.24650 0.61630 0.37830
H13 H 0.25830 0.66200 0.34020
H14 H 0.24500 0.67030 0.40270
C18 C 0.5791(7) 0.7356(4) 0.6352(5)
H15 H 0.60210 0.76170 0.66100
C19 C 0.6158(8) 0.6596(5) 0.4072(5)
H16 H 0.64220 0.68980 0.42640
H17 H 0.60920 0.66210 0.36580
H18 H 0.65540 0.63220 0.42350
C20 C 0.7179(7) 0.7210(4) 0.5938(5)
H19 H 0.73870 0.75370 0.60750
H20 H 0.71450 0.71800 0.55290
H21 H 0.76050 0.69680 0.61620
C21 C 0.0968(8) 0.5895(5) 0.6136(6)
H22 H 0.12380 0.60140 0.65150
C22 C -0.0017(10) 0.5418(6) 0.6572(7)
H23 H 0.04730 0.54570 0.69320
H24 H -0.01940 0.50750 0.65210
H25 H -0.05360 0.56150 0.65910
C23 C -0.0112(11) 0.5369(6) 0.5533(7)
H26 H 0.01440 0.55110 0.52440
H27 H -0.07640 0.54300 0.54210
H28 H -0.00020 0.50180 0.55560
K1 K 0.00000 0.65722(19) 0.75000
N12 N -0.0392(7) 0.6971(4) 0.5530(5)
O2 O -0.0711(7) 0.6684(4) 0.6334(4)
C24 C 0.0212(10) 0.7256(5) 0.5297(6)
H29 H 0.06120 0.74520 0.56050
H30 H -0.01430 0.74720 0.49920
H31 H 0.05750 0.70370 0.51350
C25 C -0.0306(8) 0.6950(5) 0.6097(6)
H32 H 0.01180 0.71660 0.63380
C26 C -0.3794(12) 0.6082(7) 0.7081(5)
H33 H -0.38180 0.64370 0.70300
H34 H -0.40510 0.59940 0.73920
H35 H -0.41430 0.59260 0.67210
C27 C -0.1044(11) 0.6644(6) 0.5120(6)
H36 H -0.07300 0.63490 0.50550
H37 H -0.12990 0.68130 0.47530
H38 H -0.15310 0.65540 0.52840
N13 N -0.2898(13) 0.5927(8) 0.7221(7)
O3 O -0.1435(14) 0.6063(7) 0.7358(8)
C28 C -0.2199(19) 0.6178(10) 0.7205(9)
H39 H -0.23190 0.64960 0.70490
C29 C -0.2712(16) 0.5373(9) 0.7414(9)
H40 H -0.29060 0.51610 0.70750
H41 H -0.30490 0.52900 0.76870
H42 H -0.20650 0.53260 0.76010
C30? C 0.00000 0.5894(18) 0.25000
N14? N 0.00000 0.6352(14) 0.25000
C31? C 0.118(2) 0.5517(9) 0.2857(12)
N15? N -0.50000 0.5014(15) 0.75000
C32? C -0.440(6) 0.4655(12) 0.747(3)
C33? C -0.399(5) 0.4132(14) 0.7652(18)
C34? C 0.0373(6) 0.7684(3) 0.7479(4)
W1D W -0.36878(2) 0.379580(12) 0.456574(14)
Cu1D Cu -0.27167(8) 0.45000(4) 0.42278(5)
Cu2D Cu -0.26015(8) 0.34351(4) 0.39490(5)
Cu2C Cu 0.23985(8) 0.15649(4) 0.89490(5)
Cu3D Cu -0.19231(8) 0.37673(4) 0.51936(5)
S1D S -0.28350(15) 0.44178(8) 0.51295(10)
Cu4C Cu 0.33921(8) 0.26883(4) 0.75836(5)
Cu4A Cu -0.16079(8) 0.76883(4) 0.75836(5)
S2D S -0.37164(16) 0.39977(8) 0.36183(10)
S3D S -0.27451(16) 0.31114(8) 0.47833(11)
Cu5D Cu -0.13589(8) 0.60339(4) 0.36505(5)
Cu5C Cu 0.36411(8) 0.89661(4) 0.86505(5)
O1D O -0.1282(5) 0.3951(3) 0.4240(3)
N1D N -0.5756(5) 0.4145(3) 0.4460(3)
N2D N -0.4852(5) 0.3233(3) 0.4144(3)
N3D N -0.5116(5) 0.3571(3) 0.5305(3)
N4D N -0.4927(5) 0.4315(3) 0.4422(3)
C1D C -0.0693(7) 0.3801(3) 0.5690(4)
N5D N -0.2166(6) 0.5082(3) 0.4019(4)
C2D C -0.1845(7) 0.5440(3) 0.3886(5)
N6D N -0.4185(5) 0.3605(3) 0.5360(3)
N7D N -0.5675(5) 0.3239(3) 0.4288(3)
N8C N 0.2584(6) 0.3208(3) 0.7158(4)
N9D N 0.0050(6) 0.3864(3) 0.5967(4)
N10C N 0.3021(6) 0.2218(3) 0.8079(4)
C3C C 0.2810(6) 0.1952(3) 0.8409(4)
C3D C -0.2190(6) 0.3048(3) 0.3409(4)
C4D C -0.6424(6) 0.4487(3) 0.4270(4)
C5C C 0.2107(6) 0.3507(3) 0.6875(4)
C5G C -0.2107(6) 0.6493(3) 0.3125(4)
C6D C -0.6013(6) 0.4907(3) 0.4121(4)
H1D H -0.62990 0.52090 0.39890
C7D C -0.5093(6) 0.4792(3) 0.4210(4)
C8D C -0.6239(7) 0.2879(4) 0.3985(5)
C9D C -0.5234(7) 0.3484(4) 0.5838(4)
C10D C -0.4404(7) 0.5140(3) 0.4100(4)
H2D H -0.41460 0.50010 0.38110
H3D H -0.46970 0.54510 0.39590
H4D H -0.39230 0.51950 0.44610
C11D C -0.3738(7) 0.3530(4) 0.5933(4)
C12D C -0.4378(7) 0.3446(4) 0.6239(4)
H5D H -0.42510 0.33770 0.66390
C13D C -0.4938(7) 0.2855(4) 0.3752(5)
C14D C -0.7408(7) 0.4411(4) 0.4250(5)
H6D H -0.74520 0.43830 0.46450
H7D H -0.77680 0.46900 0.40580
H8D H -0.76360 0.41130 0.40360
C15D C -0.4229(8) 0.2696(5) 0.3456(6)
H9D H -0.37160 0.25450 0.37420
H10D H -0.44990 0.24600 0.31510
H11D H -0.40200 0.29810 0.32880
C16A C -0.0373(6) 0.7684(3) 0.7521(4)
C16C C 0.4627(6) 0.2684(3) 0.7521(4)
N11D N -0.0298(7) 0.4417(4) 0.3925(5)
B1D B -0.5844(8) 0.3624(4) 0.4714(5)
C17D C -0.2718(7) 0.3509(5) 0.6204(4)
H12D H -0.24650 0.38370 0.62170
H13D H -0.25830 0.33800 0.65980
H14D H -0.24500 0.32970 0.59730
C18D C -0.5791(7) 0.2644(4) 0.3648(5)
H15D H -0.60210 0.23830 0.33900
C19D C -0.6158(8) 0.3404(5) 0.5928(5)
H16D H -0.64220 0.31020 0.57360
H17D H -0.60920 0.33790 0.63420
H18D H -0.65540 0.36780 0.57650
C20D C -0.7179(7) 0.2790(4) 0.4062(5)
H19D H -0.73870 0.24630 0.39250
H20D H -0.71450 0.28200 0.44710
H21D H -0.76050 0.30320 0.38380
C21D C -0.0968(8) 0.4105(5) 0.3864(6)
H22D H -0.12380 0.39860 0.34850
C22D C 0.0017(10) 0.4582(6) 0.3428(7)
H23D H -0.04730 0.45430 0.30680
H24D H 0.01940 0.49250 0.34790
H25D H 0.05360 0.43850 0.34090
C23D C 0.0112(11) 0.4631(6) 0.4467(7)
H26D H -0.01440 0.44890 0.47560
H27D H 0.07640 0.45700 0.45790
H28D H 0.00020 0.49820 0.44440
#END
