
#######################################################################
#
#                 Cambridge Crystallographic Data Centre
#                                CCDC
#
#######################################################################
#
# If this CIF has been generated from an entry in the Cambridge
# Structural Database, then it will include bibliographic, chemical,
# crystal, experimental, refinement or atomic coordinate data resulting
# from the CCDC's data processing and validation procedures.
#
#######################################################################

data_CSD_CIF_SASCUN
_audit_creation_date 2017-02-13
_audit_creation_method CSD-ConQuest-V1
_database_code_CSD SASCUN
_database_code_depnum_ccdc_archive 'CCDC 1436360'
_chemical_formula_sum 'C28 H46 Cu2 Mo8 N12 O35'
_chemical_formula_moiety
;
(C28 H38 Cu2 N12 O5 4+)n,n(Mo8 O26 4-),4n(H2 O1)
;
_journal_coden_Cambridge 440
_journal_volume 41
_journal_year 2017
_journal_page_first 2178
_journal_name_full 'New J.Chem. '
loop_
_publ_author_name
"Xiu-Li Wang"
"Shan Zhang"
"Xiang Wang"
"Hui-Xiu Zhang"
"Na Xu"
"Tian-Jiao Li"
_chemical_name_systematic
;
catena-(bis(\m-N,N'-cyclohexane-1,2-diylbis(1H-imidazole-4-carboxamide))-di-co
pper dodecakis(\m-oxo)-tetradecaoxo-octa-molybdenum tetrahydrate)
;
_cell_volume   5509.689
_exptl_crystal_colour 'blue'
_exptl_crystal_density_diffrn 2.418
_exptl_crystal_description 'block'
_diffrn_ambient_temperature 293
#These two values have been output from a single CSD field.
_refine_ls_R_factor_gt 0.0421
_refine_ls_wR_factor_gt 0.0421
_symmetry_cell_setting monoclinic
_symmetry_space_group_name_H-M 'P 21/c'
_symmetry_Int_Tables_number 14
loop_
_symmetry_equiv_pos_site_id
_symmetry_equiv_pos_as_xyz
1 x,y,z
2 -x,1/2+y,1/2-z
3 -x,-y,-z
4 x,-1/2-y,-1/2+z
_cell_length_a 10.4739(8)
_cell_length_b 24.6254(18)
_cell_length_c 21.3617(16)
_cell_angle_alpha 90
_cell_angle_beta 90.085(1)
_cell_angle_gamma 90
_cell_formula_units_Z 4
loop_
_atom_type_symbol
_atom_type_radius_bond
C 0.68
H 0.23
Cu 1.32
Mo 1.54
N 0.68
O 0.68
loop_
_atom_site_label
_atom_site_type_symbol
_atom_site_fract_x
_atom_site_fract_y
_atom_site_fract_z
Mo1 Mo 0.05319(6) 0.51636(3) 0.42214(3)
Mo2 Mo -0.00633(6) 0.38540(3) 0.48178(3)
Mo3 Mo -0.23826(6) 0.47624(3) 0.43918(3)
O1 O -0.0623(4) 0.45489(19) 0.4118(2)
Mo4 Mo 0.29207(6) 0.42428(3) 0.46440(3)
O2 O 0.3327(5) 0.3859(2) 0.5279(2)
O3 O 0.4024(5) 0.4102(2) 0.4096(2)
O4 O 0.0320(5) 0.3463(2) 0.5457(2)
O5 O 0.1473(4) 0.38230(19) 0.4358(2)
O6 O -0.3411(4) 0.5051(2) 0.5041(2)
O7 O -0.0982(5) 0.3446(2) 0.4364(2)
O8 O -0.0978(4) 0.53653(18) 0.4858(2)
O9 O -0.2754(5) 0.5171(2) 0.3779(2)
O10 O 0.1912(4) 0.4827(2) 0.3967(2)
O11 O 0.0111(4) 0.5566(2) 0.3613(2)
O12 O -0.1370(4) 0.43131(18) 0.5233(2)
O13 O -0.3126(4) 0.4168(2) 0.4233(2)
Cu1 Cu 0.42263(9) 0.23481(4) 0.72438(4)
O14 O 0.4798(5) 0.2377(2) 0.8120(2)
N1 N 0.4884(6) 0.1629(3) 0.7281(3)
C1 C 0.3215(8) 0.3487(3) 0.7533(4)
H1 H 0.35410 0.35490 0.79320
Cu2 Cu -0.05692(10) 0.23047(4) 0.72850(4)
O15 O 0.3600(5) 0.2271(2) 0.6380(2)
C2 C 0.2925(7) 0.2667(3) 0.6193(3)
N2 N 0.3455(6) 0.3053(3) 0.7191(3)
O16 O 0.8672(5) 0.2412(2) 0.8125(2)
N3 N 0.5481(6) 0.0790(3) 0.7252(3)
H2 H 0.56290 0.04700 0.71100
C3 C 0.2811(7) 0.3121(3) 0.6637(3)
C4 C 0.5318(7) 0.1937(3) 0.8307(3)
N4 N 0.2427(7) 0.3833(3) 0.7221(3)
O17 O 0.0203(5) 0.2202(2) 0.6448(2)
C5 C 0.5008(8) 0.1207(4) 0.6915(4)
H3 H 0.48030 0.11960 0.64910
N5 N 0.8491(6) 0.2967(3) 0.7086(3)
O18 O -0.1997(5) 0.1607(3) 0.7002(3)
N6 N 0.0681(6) 0.1753(3) 0.7531(3)
C6 C 0.0855(7) 0.1773(3) 0.6412(3)
N7 N 0.5854(6) 0.1882(2) 0.8857(3)
H4 H 0.61560 0.15670 0.89470
C7 C 0.5942(7) 0.2018(3) 0.9977(3)
H5 H 0.51020 0.18610 1.00390
H6 H 0.65630 0.17250 0.99870
N8 N 0.1714(7) 0.1032(3) 0.7819(3)
H7 H 0.20370 0.07850 0.80550
C8 C 0.6226(7) 0.2417(3) 1.0501(3)
H8 H 0.55700 0.26950 1.05110
H9 H 0.62150 0.22280 1.09000
N9 N 0.7289(7) 0.3646(3) 0.6785(3)
H10 H 0.69500 0.38910 0.65520
C9 C 0.5314(7) 0.1483(3) 0.7868(3)
N10 N 0.7221(5) 0.2912(2) 0.8658(3)
H11 H 0.67180 0.31880 0.86410
C10 C 0.5687(7) 0.0955(3) 0.7850(4)
H12 H 0.60150 0.07490 0.81780
C11 C 0.1810(8) 0.1051(4) 0.7181(4)
H13 H 0.22400 0.08070 0.69250
N11 N 0.2345(5) 0.2677(2) 0.5649(3)
H14 H 0.19300 0.29680 0.55560
C12 C 0.7512(7) 0.2981(3) 0.9784(3)
H15 H 0.68590 0.32610 0.97890
H16 H 0.83330 0.31570 0.97280
C13 C 0.1041(9) 0.1456(4) 0.8017(4)
H17 H 0.08520 0.15320 0.84330
C14 C 0.1158(7) 0.1494(3) 0.7000(3)
C15 C 0.2338(7) 0.2239(3) 0.5181(3)
H18 H 0.31220 0.20240 0.52230
C16 C 0.1070(7) 0.1444(3) 0.4758(3)
H19 H 0.17790 0.11920 0.47860
H20 H 0.02850 0.12410 0.48140
C17 C 0.1067(8) 0.1713(4) 0.4113(3)
H21 H 0.10460 0.14340 0.37930
H22 H 0.03050 0.19330 0.40690
C18 C 0.5992(7) 0.2304(3) 0.9333(3)
H23 H 0.52860 0.25630 0.92980
C19 C 0.2229(8) 0.2063(4) 0.4021(3)
H24 H 0.21890 0.22380 0.36140
H25 H 0.29920 0.18400 0.40340
C20 C 0.2290(7) 0.2489(3) 0.4530(3)
H26 H 0.15470 0.27230 0.44990
H27 H 0.30420 0.27130 0.44680
C21 C 0.1190(7) 0.1871(3) 0.5275(3)
H28 H 0.04150 0.20940 0.52810
C22 C 0.7269(7) 0.2600(3) 0.9248(3)
H29 H 0.79610 0.23330 0.92260
C23 C 0.8213(8) 0.3301(3) 0.6619(4)
H30 H 0.86060 0.32950 0.62290
C24 C 0.6985(8) 0.3538(4) 0.7390(4)
H31 H 0.63770 0.37200 0.76290
C25 C 0.2185(8) 0.3599(3) 0.6655(4)
H32 H 0.16800 0.37440 0.63370
C26 C 0.7711(7) 0.3126(3) 0.7582(3)
C27 C 0.7896(7) 0.2798(3) 0.8154(3)
N12 N 0.1306(5) 0.1581(2) 0.5880(3)
H33 H 0.16860 0.12720 0.58850
C28 C 0.7505(7) 0.2677(3) 1.0408(3)
H34 H 0.81660 0.24010 1.04080
H35 H 0.76780 0.29280 1.07480
O19 O 1.4286(6) 0.5646(3) 0.3924(3)
O20 O 1.1372(7) 0.9280(3) 0.2246(4)
Mo5 Mo 0.44147(6) 0.43615(3) 0.02534(3)
Mo6 Mo 0.49655(6) 0.55092(3) 0.12094(3)
Mo7 Mo 0.73255(6) 0.46664(3) 0.06496(3)
Mo8 Mo 0.20029(6) 0.52073(3) 0.08456(3)
O21 O 0.4804(5) 0.3695(2) 0.0239(2)
O22 O 0.0839(5) 0.4892(3) 0.1254(3)
O23 O 0.2984(4) 0.43742(19) 0.0689(2)
O24 O 0.1664(5) 0.5878(2) 0.0911(3)
O25 O 0.3406(4) 0.5202(2) 0.1457(2)
O26 O 0.4632(5) 0.6191(2) 0.1236(2)
O27 O 0.6336(4) 0.55402(18) 0.0567(2)
O28 O 0.8400(4) 0.4920(2) 0.0012(2)
O29 O 0.7999(5) 0.4905(2) 0.1313(2)
O30 O 0.7624(5) 0.3988(2) 0.0667(2)
O31 O 0.5503(4) 0.46197(18) 0.0934(2)
O32 O 0.5981(4) 0.46813(19) -0.0257(2)
O33 O 0.5819(5) 0.5388(2) 0.1876(2)
O34 O 0.9269(9) 0.5368(4) 0.2320(4)
O35 O 0.2942(13) 0.5044(4) 0.2754(4)
Mo1B Mo -0.05319(6) 0.48364(3) 0.57786(3)
Mo2B Mo 0.00633(6) 0.61460(3) 0.51822(3)
Mo3B Mo 0.23826(6) 0.52376(3) 0.56082(3)
O1B O 0.0623(4) 0.54511(19) 0.5882(2)
Mo4B Mo -0.29207(6) 0.57572(3) 0.53560(3)
O2B O -0.3327(5) 0.6141(2) 0.4721(2)
O3B O -0.4024(5) 0.5898(2) 0.5904(2)
O4B O -0.0320(5) 0.6537(2) 0.4543(2)
O5B O -0.1473(4) 0.61770(19) 0.5642(2)
O6B O 0.3411(4) 0.4949(2) 0.4959(2)
O7B O 0.0982(5) 0.6554(2) 0.5636(2)
O8B O 0.0978(4) 0.46347(18) 0.5142(2)
O9B O 0.2754(5) 0.4829(2) 0.6221(2)
O10B O -0.1912(4) 0.5173(2) 0.6033(2)
O11B O -0.0111(4) 0.4434(2) 0.6387(2)
O12B O 0.1370(4) 0.56869(18) 0.4767(2)
O13B O 0.3126(4) 0.5832(2) 0.5767(2)
Cu2* Cu 0.94308(10) 0.23047(4) 0.72850(4)
O16* O -0.1328(5) 0.2412(2) 0.8125(2)
N5* N -0.1509(6) 0.2967(3) 0.7086(3)
Mo5B Mo 0.55853(6) 0.56385(3) -0.02534(3)
Mo6B Mo 0.50345(6) 0.44908(3) -0.12094(3)
Mo7B Mo 0.26745(6) 0.53336(3) -0.06496(3)
Mo8B Mo 0.79971(6) 0.47927(3) -0.08456(3)
O21B O 0.5196(5) 0.6305(2) -0.0239(2)
O22B O 0.9161(5) 0.5108(3) -0.1254(3)
O23B O 0.7016(4) 0.56258(19) -0.0689(2)
O24B O 0.8336(5) 0.4122(2) -0.0911(3)
O25B O 0.6594(4) 0.4798(2) -0.1457(2)
O26B O 0.5368(5) 0.3809(2) -0.1236(2)
O27B O 0.3664(4) 0.44598(18) -0.0567(2)
O28B O 0.1600(4) 0.5080(2) -0.0012(2)
O29B O 0.2001(5) 0.5095(2) -0.1313(2)
O30B O 0.2376(5) 0.6012(2) -0.0667(2)
O31B O 0.4497(4) 0.53803(18) -0.0934(2)
O32B O 0.4019(4) 0.53187(19) 0.0257(2)
O33B O 0.4181(5) 0.4612(2) -0.1876(2)
#END
