
#######################################################################
#
#                 Cambridge Crystallographic Data Centre
#                                CCDC
#
#######################################################################
#
# If this CIF has been generated from an entry in the Cambridge
# Structural Database, then it will include bibliographic, chemical,
# crystal, experimental, refinement or atomic coordinate data resulting
# from the CCDC's data processing and validation procedures.
#
#######################################################################

data_CSD_CIF_SASDUO
_audit_creation_date 2017-02-13
_audit_creation_method CSD-ConQuest-V1
_database_code_CSD SASDUO
_database_code_depnum_ccdc_archive 'CCDC 1509226'
_chemical_formula_sum 'C22 H26 N6 O16 P4 Zn3'
_chemical_formula_moiety
;
(C4 H9 O15 P4 Zn3 3-)n,n(C18 H15 N6 3+),n(H2 O1)
;
_journal_coden_Cambridge 1350
_journal_volume 19
_journal_year 2017
_journal_page_first 1160
_journal_name_full 'CrystEngComm '
loop_
_publ_author_name
"Jin-Hua Li"
"Song-De Han"
"Jie Pan"
"Zhen-Zhen Xue"
"Guo-Ming Wang"
"Zong-Hua Wang"
"Zhen-Zhen Bao"
_chemical_name_systematic
;
catena-(2,4,6-tris(4-pyridinio)-1,3,5-triazine 
bis(\m-1,1-diphosphonatoethanol)-aqua-tri-zinc monohydrate)
;
_cell_volume   1645.141
_exptl_crystal_colour 'colorless'
_exptl_crystal_density_diffrn 1.919
_exptl_crystal_description 'block'
_diffrn_ambient_temperature 293
#These two values have been output from a single CSD field.
_refine_ls_R_factor_gt 0.0389
_refine_ls_wR_factor_gt 0.0389
_symmetry_cell_setting triclinic
_symmetry_space_group_name_H-M 'P -1'
_symmetry_Int_Tables_number 2
loop_
_symmetry_equiv_pos_site_id
_symmetry_equiv_pos_as_xyz
1 x,y,z
2 -x,-y,-z
_cell_length_a 8.0895(16)
_cell_length_b 11.829(2)
_cell_length_c 18.063(4)
_cell_angle_alpha 86.63(3)
_cell_angle_beta 77.32(3)
_cell_angle_gamma 77.33(3)
_cell_formula_units_Z 2
loop_
_atom_type_symbol
_atom_type_radius_bond
C 0.68
H 0.23
N 0.68
O 0.68
P 1.05
Zn 1.22
loop_
_atom_site_label
_atom_site_type_symbol
_atom_site_fract_x
_atom_site_fract_y
_atom_site_fract_z
C1 C -0.1578(4) 0.7602(3) 1.08953(18)
C2 C -0.2369(5) 0.7561(4) 1.1739(2)
H1 H -0.33110 0.71650 1.18180
H2 H -0.27930 0.83360 1.19270
H3 H -0.15040 0.71560 1.20040
C3 C 0.4137(4) 0.6203(3) 0.80010(18)
C4 C 0.3738(6) 0.5358(3) 0.7501(2)
H4 H 0.38400 0.56620 0.69920
H5 H 0.25780 0.52480 0.76920
H6 H 0.45420 0.46290 0.75030
O1 O -0.3308(3) 0.97173(19) 1.04818(14)
O2 O -0.4881(3) 0.81267(18) 1.06558(13)
O3 O -0.2377(3) 0.8040(2) 0.95315(13)
O4 O 0.0959(3) 0.82080(18) 0.98400(12)
O5 O 0.1765(3) 0.73150(18) 1.10390(12)
O6 O -0.0020(3) 0.93584(18) 1.10638(13)
O7 O 0.2023(3) 0.56773(19) 0.93270(13)
O8 O 0.4913(3) 0.4374(2) 0.88932(14)
O9 O 0.4773(3) 0.63329(19) 0.94058(13)
O10 O 0.0851(3) 0.7478(2) 0.82296(13)
O11 O 0.3264(3) 0.85230(18) 0.83032(13)
O12 O 0.2933(3) 0.7891(2) 0.70571(13)
O13 O 0.5920(3) 0.6334(2) 0.77177(16)
O14 O -0.0977(3) 0.64406(18) 1.05792(14)
O15 O -0.1431(3) 0.5659(2) 0.90271(15)
H7 H -0.11440 0.49000 0.92150
H8 H -0.26390 0.58100 0.92040
P1 P -0.31211(10) 0.84421(7) 1.03374(5)
P2 P 0.04099(10) 0.81761(7) 1.07102(5)
P3 P 0.39216(10) 0.56218(7) 0.89825(5)
P4 P 0.26834(11) 0.76135(7) 0.79292(5)
Zn1 Zn 0.41435(4) 0.68368(3) 1.04525(2)
Zn2 Zn 0.18677(5) 0.94008(3) 0.91789(2)
Zn3 Zn -0.01147(5) 0.69144(3) 0.92599(2)
C5 C 0.7919(5) 0.1243(3) 0.4790(2)
C6 C 0.8680(5) 0.2921(3) 0.4374(2)
C7 C 0.9935(4) 0.1295(3) 0.37215(19)
C8 C 1.1122(4) 0.0689(3) 0.3043(2)
C9 C 1.2109(5) 0.1281(4) 0.2506(2)
H9 H 1.20900 0.20590 0.25680
C10 C 1.3145(5) 0.0681(5) 0.1861(2)
H10 H 1.38330 0.10580 0.14910
C11 C 1.2230(6) -0.1004(5) 0.2287(3)
H11 H 1.22870 -0.17830 0.22090
C12 C 1.1194(6) -0.0472(4) 0.2932(2)
H12 H 1.05450 -0.08870 0.32910
C13 C 0.6844(4) 0.0588(3) 0.53522(19)
C14 C 0.7068(5) -0.0600(3) 0.5299(2)
H13 H 0.79090 -0.10080 0.49150
C15 C 0.6020(5) -0.1167(4) 0.5827(2)
H14 H 0.61900 -0.19680 0.57970
C16 C 0.4549(6) 0.0507(4) 0.6426(2)
H15 H 0.36740 0.08860 0.68100
C17 C 0.5549(5) 0.1156(4) 0.5932(2)
H16 H 0.53600 0.19540 0.59860
C18 C 0.8396(6) 0.4198(4) 0.4462(3)
C19 C 0.7305(10) 0.4725(5) 0.5094(4)
H17 H 0.67450 0.42910 0.54740
C20 C 0.8823(11) 0.6067(5) 0.4048(4)
H18 H 0.93540 0.65260 0.36760
C21 C 0.9170(8) 0.4876(4) 0.3934(3)
H19 H 0.99280 0.45530 0.34970
C22 C 0.7051(12) 0.5904(6) 0.5158(6)
H20 H 0.63030 0.62520 0.55900
N1 N 0.9859(4) 0.2419(3) 0.37821(17)
N2 N 0.9024(4) 0.0657(3) 0.42113(16)
N3 N 0.7683(4) 0.2370(3) 0.48966(19)
N4 N 0.7794(8) 0.6565(4) 0.4650(4)
H21 H 0.76120 0.73010 0.47100
N5 N 0.4784(4) -0.0623(3) 0.63750(18)
H22 H 0.41440 -0.10030 0.66920
N6 N 1.3140(4) -0.0416(4) 0.17822(19)
H23 H 1.37660 -0.07650 0.13790
O16 O 0.1593(7) 0.5980(5) 0.2434(3)
H24 H 0.16870 0.63370 0.19440
H25 H 0.17490 0.51680 0.23890
O1A O 0.3308(3) 1.02827(19) 0.95182(14)
O2* O 0.5119(3) 0.81267(18) 1.06558(13)
O6A O 0.0020(3) 1.06416(18) 0.89362(13)
O8A O 0.5087(3) 0.5626(2) 1.11068(14)
Zn1* Zn -0.58565(4) 0.68368(3) 1.04525(2)
Zn1A Zn 0.58565(4) 0.31632(3) 0.95475(2)
Zn2A Zn -0.18677(5) 1.05992(3) 1.08211(2)
#END
