
#######################################################################
#
#                 Cambridge Crystallographic Data Centre
#                                CCDC
#
#######################################################################
#
# If this CIF has been generated from an entry in the Cambridge
# Structural Database, then it will include bibliographic, chemical,
# crystal, experimental, refinement or atomic coordinate data resulting
# from the CCDC's data processing and validation procedures.
#
#######################################################################

data_CSD_CIF_SAVPIR
_audit_creation_date 2017-06-27
_audit_creation_method CSD-ConQuest-V1
_database_code_CSD SAVPIR
_database_code_depnum_ccdc_archive 'CCDC 1528238'
_chemical_formula_sum 'C6 H12 Cu1 N18'
_chemical_formula_moiety
;
(C6 H4 Cu1 N16 2-)n,2(H4 N1 1+)
;
_journal_coden_Cambridge 9
_journal_volume 56
_journal_year 2017
_journal_page_first 7936
_journal_name_full 'Inorg.Chem. '
loop_
_publ_author_name
"M.Freis"
"T.M.Klapotke"
"J.Stierstorfer"
"N.Szimhardt"
_chemical_name_systematic
;
catena-[di-ammonium bis(\m-5,5'-methylenebis(tetrazolyl))-copper(ii)]
;
_cell_volume    757.997
_exptl_crystal_colour 'blue'
_exptl_crystal_density_diffrn 1.752
_exptl_crystal_description 'plate'
_diffrn_ambient_temperature 173
#These two values have been output from a single CSD field.
_refine_ls_R_factor_gt 0.0301
_refine_ls_wR_factor_gt 0.0301
_symmetry_cell_setting monoclinic
_symmetry_space_group_name_H-M 'P 21/c'
_symmetry_Int_Tables_number 14
loop_
_symmetry_equiv_pos_site_id
_symmetry_equiv_pos_as_xyz
1 x,y,z
2 -x,1/2+y,1/2-z
3 -x,-y,-z
4 x,-1/2-y,-1/2+z
_cell_length_a 9.865(5)
_cell_length_b 9.841(5)
_cell_length_c 8.302(5)
_cell_angle_alpha 90
_cell_angle_beta 109.868(5)
_cell_angle_gamma 90
_cell_formula_units_Z 2
loop_
_atom_type_symbol
_atom_type_radius_bond
C 0.68
H 0.23
Cu 1.32
N 0.68
loop_
_atom_site_label
_atom_site_type_symbol
_atom_site_fract_x
_atom_site_fract_y
_atom_site_fract_z
C1 C 0.0572(2) 0.7496(3) 0.3215(3)
C2 C 0.1955(3) 0.6922(3) 0.3120(3)
H1 H 0.17450 0.63030 0.21570
H2 H 0.25500 0.76520 0.29440
C3 C 0.2753(2) 0.6180(2) 0.4745(3)
Cu1 Cu 0.00000 0.50000 0.50000
N1 N -0.0278(2) 0.6821(2) 0.3893(2)
N2 N -0.1361(2) 0.7680(2) 0.3808(3)
N3 N 0.0048(2) 0.8723(2) 0.2688(3)
N4 N 0.2133(2) 0.5318(2) 0.5529(3)
N5 N 0.3194(2) 0.4909(2) 0.6945(3)
N6 N 0.4147(2) 0.6319(2) 0.5619(3)
N7 N -0.1169(2) 0.8805(2) 0.3085(3)
N8 N 0.4394(2) 0.5500(2) 0.6999(3)
N9 N -0.3670(3) 0.8127(3) 0.5094(3)
H3 H -0.337(3) 0.866(3) 0.610(4)
H4 H -0.420(4) 0.872(4) 0.415(4)
H5 H -0.291(4) 0.774(4) 0.485(4)
H6 H -0.421(4) 0.746(4) 0.521(4)
C1B C -0.0572(2) 0.2504(3) 0.6785(3)
C2B C -0.1955(3) 0.3078(3) 0.6880(3)
H1B H -0.17450 0.36970 0.78430
H2B H -0.25500 0.23480 0.70560
C3B C -0.2753(2) 0.3820(2) 0.5255(3)
N1B N 0.0278(2) 0.3179(2) 0.6107(2)
N2B N 0.1361(2) 0.2320(2) 0.6192(3)
N3B N -0.0048(2) 0.1277(2) 0.7312(3)
N4B N -0.2133(2) 0.4682(2) 0.4471(3)
N5B N -0.3194(2) 0.5091(2) 0.3055(3)
N6B N -0.4147(2) 0.3681(2) 0.4381(3)
N7B N 0.1169(2) 0.1195(2) 0.6915(3)
N8B N -0.4394(2) 0.4500(2) 0.3001(3)
Cu1A Cu 0.00000 0.00000 1.00000
Cu1A* Cu 0.00000 1.00000 0.00000
N3A N -0.0048(2) 0.3723(2) 0.2312(3)
N3C N 0.0048(2) 0.6277(2) 0.7688(3)
#END
