
#######################################################################
#
#                 Cambridge Crystallographic Data Centre
#                                CCDC
#
#######################################################################
#
# If this CIF has been generated from an entry in the Cambridge
# Structural Database, then it will include bibliographic, chemical,
# crystal, experimental, refinement or atomic coordinate data resulting
# from the CCDC's data processing and validation procedures.
#
#######################################################################

data_CSD_CIF_SAXYOI
_audit_creation_date 2017-06-29
_audit_creation_method CSD-ConQuest-V1
_database_code_CSD SAXYOI
_database_code_depnum_ccdc_archive 'CCDC 1541852'
_chemical_formula_sum 'C60 H188.6 Cu8 N28 O84.3'
_chemical_formula_moiety
;
(C56 H54 Cu8 N24 O29 4-)n,4(C1 H6 N1 1+),55.3(H2 O1)
;
_journal_coden_Cambridge 4
_journal_volume 139
_journal_year 2017
_journal_page_first 8098
_journal_name_full 'J.Am.Chem.Soc. '
loop_
_publ_author_name
"M.Mon"
"J.Ferrando-Soria"
"M.Verdaguer"
"C.Train"
"C.Paillard"
"B.Dkhil"
"C.Versace"
"R.Bruno"
"D.Armentano"
"E.Pardo"
_chemical_name_systematic
;
catena-[tetrakis(methylammonium) 
tetrakis(\m-2-[(2-{[1-carboxylato-2-(imidazol-1-id-4-yl)ethyl]azanidyl}-1-oxid
anidyl-2-oxoethylidene)amino]-3-(1H-imidazol-4-yl)propanoato)-(\m-aqua)-tetra-
;
_cell_volume  43914.937
_exptl_crystal_colour 'green'
_exptl_crystal_density_diffrn 1.076
_exptl_special_details
;
, FERROELECTRIC BELOW 260 K

;
_exptl_crystal_description 'quasi-cubic'
_diffrn_ambient_temperature 90
_refine_special_details
;
Disordered solvent molecules were not modelled and the disordered density was 
taken into account using the SQUEEZE/PLATON procedure.
;
#These two values have been output from a single CSD field.
_refine_ls_R_factor_gt 0.0706
_refine_ls_wR_factor_gt 0.0706
_symmetry_cell_setting rhombohedral
_symmetry_space_group_name_H-M 'R 3'
_symmetry_Int_Tables_number 146
loop_
_symmetry_equiv_pos_site_id
_symmetry_equiv_pos_as_xyz
1 x,y,z
2 -y,x-y,z
3 -x+y,-x,z
4 2/3+x,1/3+y,1/3+z
5 2/3-y,1/3+x-y,1/3+z
6 2/3-x+y,1/3-x,1/3+z
7 1/3+x,2/3+y,2/3+z
8 1/3-y,2/3+x-y,2/3+z
9 1/3-x+y,2/3-x,2/3+z
_cell_length_a 38.2768(18)
_cell_length_b 38.2768(18)
_cell_length_c 34.6107(16)
_cell_angle_alpha 90
_cell_angle_beta 90
_cell_angle_gamma 120
_cell_formula_units_Z 9
loop_
_atom_type_symbol
_atom_type_radius_bond
C 0.68
H 0.23
Cu 1.32
N 0.68
O 0.68
loop_
_atom_site_label
_atom_site_type_symbol
_atom_site_fract_x
_atom_site_fract_y
_atom_site_fract_z
Cu1 Cu 0.59077(5) 0.05483(5) 0.88998(5)
Cu2 Cu 0.73185(5) 0.09150(6) 0.82910(5)
Cu3 Cu 0.44203(5) 0.04381(5) 0.82690(5)
Cu4 Cu 0.40694(6) 0.15181(6) 0.88192(5)
Cu5 Cu 0.60154(5) 0.02641(7) 0.69556(5)
Cu6 Cu 0.74269(5) 0.13082(5) 0.63469(5)
Cu7 Cu 0.48507(6) 0.07361(6) 0.64276(5)
Cu8 Cu 0.37734(5) 0.10869(5) 0.69780(5)
O1 O 0.7489(3) 0.0821(3) 0.5957(3)
O2 O 0.7439(5) 0.0430(4) 0.8543(4)
O3 O 0.5888(5) -0.0366(5) 0.6711(4)
O4 O 0.3216(4) 0.0593(3) 0.6649(3)
O5 O 0.3933(3) -0.0116(4) 0.8598(3)
N1 N 0.6510(4) 0.0866(3) 0.9038(3)
N2 N 0.6115(4) 0.0367(3) 0.8459(3)
N3 N 0.5380(3) 0.0345(3) 0.8617(3)
N4 N 0.4861(4) 0.0327(4) 0.8361(4)
N5 N 0.3572(6) 0.2156(4) 0.8363(3)
N6 N 0.4449(4) 0.1317(4) 0.8945(3)
N7 N 0.3843(4) 0.1062(4) 0.8441(3)
N8 N 0.7224(4) 0.0920(4) 0.6782(3)
N9 N 0.6834(4) 0.1033(4) 0.6198(4)
N10 N 0.7955(3) 0.1630(4) 0.6626(3)
N11 N 0.3722(3) 0.1712(3) 0.8613(4)
N12 N 0.5498(4) 0.0244(4) 0.6882(3)
N13 N 0.5057(4) 0.0397(3) 0.6629(3)
N14 N 0.4392(4) 0.0498(4) 0.6804(4)
N15 N 0.4661(4) 0.1119(4) 0.6307(3)
N16 N 0.8479(3) 0.2136(5) 0.6887(3)
N17 N 0.5769(4) 0.0781(4) 0.9340(3)
N18 N 0.5399(5) 0.0818(4) 0.9838(4)
H1 H 0.51900 0.07690 0.99820
N19 N 0.5204(4) 0.0908(5) 0.5976(4)
N20 N 0.552(1) 0.0925(11) 0.5441(6)
H2 H 0.56230 0.08460 0.52570
N21 N 0.4261(5) 0.1882(4) 0.9263(4)
N22 N 0.7574(4) 0.1683(4) 0.5894(4)
N23 N 0.7919(5) 0.2084(4) 0.5403(4)
H3 H 0.81200 0.22390 0.52480
N24 N 0.4247(9) 0.2149(7) 0.9825(6)
H4 H 0.41620 0.22400 1.00160
O6 O 0.7106(3) 0.1010(3) 0.8785(3)
O7 O 0.6738(3) 0.0516(4) 0.8200(4)
O8 O 0.7445(2) 0.0787(3) 0.7770(3)
O9 O 0.7305(3) 0.1254(4) 0.7532(2)
O10 O 0.6036(3) 0.0619(4) 0.7712(2)
O11 O 0.5895(3) 0.0019(3) 0.7474(3)
O12 O 0.4222(3) 0.0119(3) 0.7780(3)
O13 O 0.4731(3) 0.0716(3) 0.7545(2)
O14 O 0.4611(3) 0.0843(4) 0.8701(3)
O15 O 0.4026(3) 0.0623(3) 0.8173(3)
O16 O 0.4050(3) 0.1401(3) 0.7704(2)
O17 O 0.3450(3) 0.0889(3) 0.7464(3)
O18 O 0.6597(3) 0.0447(4) 0.7052(3)
O19 O 0.6230(3) 0.0568(4) 0.6460(3)
O20 O 0.3956(3) 0.0697(3) 0.7074(3)
O21 O 0.4171(4) 0.1272(3) 0.6540(3)
O22 O 0.4317(5) 0.0944(5) 0.5586(3)
O23 O 0.4720(5) 0.1557(5) 0.5357(4)
O24 O 0.6521(3) 0.0503(4) 0.9722(3)
O25 O 0.6796(5) 0.1098(5) 1.0050(5)
O26 O 0.6812(3) 0.0660(4) 0.5524(3)
O27 O 0.6546(5) 0.0986(5) 0.5188(4)
O28 O 0.4903(5) 0.1391(5) 0.9887(3)
O29 O 0.4263(4) 0.0991(5) 0.9660(3)
C1 C 0.6728(4) 0.0844(5) 0.8787(5)
C2 C 0.6492(5) 0.0548(5) 0.8462(4)
C3 C 0.6678(6) 0.1132(5) 0.9376(5)
H5 H 0.69690 0.13310 0.93280
C4 C 0.6642(5) 0.0874(7) 0.9744(5)
C5 C 0.6442(5) 0.1360(5) 0.9433(6)
H6 H 0.65840 0.15750 0.96280
H7 H 0.64450 0.14930 0.91860
C6 C 0.5900(4) 0.0078(5) 0.8160(4)
H8 H 0.60140 -0.01060 0.81550
C7 C 0.5944(4) 0.0240(5) 0.7753(5)
C8 C 0.5438(5) -0.0197(5) 0.8257(5)
H9 H 0.53000 -0.03790 0.80360
H10 H 0.54080 -0.03660 0.84850
C9 C 0.5249(4) 0.0049(4) 0.8336(4)
C10 C 0.4927(5) 0.0042(5) 0.8163(4)
H11 H 0.47760 -0.01220 0.79510
C11 C 0.5132(5) 0.0484(5) 0.8620(4)
H12 H 0.51520 0.06820 0.87970
C12 C 0.3328(6) 0.1795(4) 0.8198(4)
H13 H 0.31290 0.17410 0.80080
C13 C 0.7378(4) 0.0981(5) 0.7486(4)
C14 C 0.7427(4) 0.0840(6) 0.7067(4)
H14 H 0.73130 0.05410 0.70760
C15 C 0.7883(5) 0.1034(5) 0.6991(5)
H15 H 0.80140 0.09960 0.72210
H16 H 0.79270 0.08970 0.67700
C16 C 0.8074(4) 0.1473(4) 0.6906(4)
C17 C 0.6812(5) 0.0699(6) 0.6795(4)
C18 C 0.6605(5) 0.0781(6) 0.6454(5)
C19 C 0.6895(5) 0.1591(5) 0.5805(4)
H17 H 0.67500 0.16660 0.56150
H18 H 0.68990 0.17200 0.60540
C20 C 0.5548(8) 0.1261(10) 0.5477(7)
H19 H 0.57050 0.14860 0.53140
C21 C 0.4400(5) 0.1018(5) 0.8708(4)
C22 C 0.4074(4) 0.0888(5) 0.8418(4)
C23 C 0.4961(6) 0.1935(6) 0.9293(5)
H20 H 0.50640 0.20750 0.90430
H21 H 0.51880 0.20360 0.94790
C24 C 0.3524(4) 0.0949(4) 0.8148(4)
H22 H 0.33740 0.06480 0.81340
C25 C 0.3238(4) 0.1068(4) 0.8291(4)
H23 H 0.31260 0.09300 0.85400
H24 H 0.30110 0.09730 0.81060
C26 C 0.3417(4) 0.1524(4) 0.8351(4)
C27 C 0.3780(6) 0.2087(6) 0.8591(5)
H25 H 0.39780 0.22960 0.87480
C28 C 0.8200(5) 0.2021(6) 0.6614(4)
H26 H 0.81810 0.21990 0.64340
C29 C 0.5129(4) -0.0004(4) 0.7047(4)
H27 H 0.50760 -0.02030 0.72380
C30 C 0.5426(5) 0.0452(6) 0.6658(5)
H28 H 0.56380 0.06520 0.65060
C31 C 0.4850(4) 0.0081(4) 0.6895(4)
C32 C 0.4402(4) -0.0107(4) 0.6962(4)
H29 H 0.43160 -0.03220 0.71590
H30 H 0.42580 -0.02340 0.67180
C33 C 0.4280(4) 0.0196(4) 0.7095(4)
H31 H 0.39780 0.00470 0.71050
C34 C 0.4421(5) 0.0366(5) 0.7489(4)
C35 C 0.4219(5) 0.0753(4) 0.6837(4)
C36 C 0.4360(5) 0.1077(5) 0.6525(5)
C37 C 0.5279(6) 0.1617(5) 0.5941(6)
H32 H 0.53910 0.18460 0.57570
H33 H 0.54250 0.17110 0.61890
C38 C 0.6008(5) 0.1098(5) 0.9559(6)
C39 C 0.5400(5) 0.0609(5) 0.9548(5)
H34 H 0.51720 0.03580 0.94780
C40 C 0.5792(7) 0.1139(7) 0.9880(6)
H35 H 0.58930 0.13390 1.00760
C41 C 0.7326(5) 0.1756(4) 0.5668(6)
C42 C 0.7943(5) 0.1891(5) 0.5707(5)
H36 H 0.81820 0.18920 0.57860
C43 C 0.7528(6) 0.2007(5) 0.5367(6)
H37 H 0.74230 0.21060 0.51750
C44 C 0.6662(6) 0.1131(5) 0.5857(5)
H38 H 0.63720 0.10420 0.59110
C45 C 0.6685(4) 0.0919(5) 0.5500(5)
C46 C 0.4794(5) 0.1446(4) 0.6007(5)
H39 H 0.47580 0.16690 0.61140
C47 C 0.4578(9) 0.1312(6) 0.5637(6)
C48 C 0.5327(7) 0.1265(6) 0.5775(6)
C49 C 0.5291(6) 0.0701(8) 0.5753(7)
H40 H 0.52100 0.04250 0.57950
C50 C 0.4771(4) 0.1486(5) 0.9242(5)
H41 H 0.49900 0.14390 0.91450
C51 C 0.4630(8) 0.1261(10) 0.9608(7)
C52 C 0.8405(5) 0.1785(6) 0.7080(4)
H42 H 0.85540 0.17660 0.72910
C53 C 0.3682(5) 0.1099(5) 0.7747(5)
C54 C 0.4579(8) 0.2184(8) 0.9798(7)
H43 H 0.47880 0.23110 0.99850
C55 C 0.4612(7) 0.2012(7) 0.9455(6)
C56 C 0.4024(8) 0.1942(7) 0.9503(8)
H44 H 0.37480 0.18570 0.94600
N25 N 0.7810(4) 0.2058(5) 0.7741(4)
H45 H 0.80780 0.21530 0.77030
H46 H 0.76780 0.17830 0.77540
H47 H 0.77740 0.21580 0.79670
C57 C 0.7660(6) 0.2174(7) 0.7443(5)
H48 H 0.76440 0.24120 0.75200
H49 H 0.73900 0.19540 0.73770
H50 H 0.78380 0.22400 0.72190
N26 N 0.5525(4) 0.0924(4) 0.7487(4)
H51 H 0.55440 0.10650 0.72690
H52 H 0.52620 0.07410 0.75350
H53 H 0.56660 0.07930 0.74540
C58 C 0.5688(7) 0.1193(9) 0.7803(6)
H54 H 0.54770 0.11260 0.79970
H55 H 0.57900 0.14700 0.77130
H56 H 0.59090 0.11700 0.79180
N27 N 0.6688(7) 0.2582(7) 0.7261(7)
H57 H 0.65980 0.27220 0.74030
H58 H 0.65090 0.24460 0.70690
H59 H 0.69330 0.27550 0.71590
C59 C 0.6724(19) 0.2290(16) 0.7522(12)
H60 H 0.69370 0.24350 0.77100
H61 H 0.67910 0.21160 0.73630
H62 H 0.64670 0.21200 0.76520
N28 N 0.7480(16) 0.1947(17) 0.4242(17)
H63 H 0.74090 0.17090 0.43650
H64 H 0.74230 0.19150 0.39970
H65 H 0.73750 0.20790 0.43700
C60 C 0.7939(15) 0.2199(15) 0.4285(14)
H66 H 0.80400 0.24980 0.42450
H67 H 0.80880 0.21290 0.40970
H68 H 0.80390 0.21820 0.45480
O30 O 0.4779(3) 0.1440(3) 0.7630(4)
O31 O 0.4112(4) 0.1432(4) 0.4914(4)
O32 O 0.5274(5) 0.1882(4) 0.8246(5)
O33 O 0.3326(6) 0.9918(4) 0.6490(4)
O34 O 0.6678(6) 0.9942(5) 0.7628(6)
O35 O 0.3892(8) 0.0965(6) 0.0347(5)
O36 O 0.5774(6) 0.1631(5) 0.8697(5)
O37 O 0.7266(6) 0.2738(5) 0.5869(6)
O38 O 0.7544(5) 0.2492(6) 0.6538(4)
O39 O 0.5219(4) 0.1934(5) 0.6993(5)
O40 O 0.3536(4) 0.0609(5) 0.9296(4)
O41 O 0.3250(5) 0.9981(6) 0.8737(4)
O42 O 0.6771(5) 0.1933(6) 0.6858(6)
O43 O 0.2925(6) 0.9018(6) 0.8219(5)
O44 O 0.2920(5) 0.9381(5) 0.9285(4)
O45 O 0.6706(5) 0.9012(5) 0.6024(5)
O46 O 0.3249(5) 0.9311(5) 0.6981(6)
O47 O 0.2608(6) 0.9911(5) 0.8280(6)
O48 O 0.5582(10) 0.1897(9) 0.0053(9)
O49 O 0.4343(6) 0.9780(9) 0.5879(7)
O50 O 0.6053(5) 0.2121(5) 0.9368(6)
O51 O 0.2994(7) 0.0064(4) 0.7546(6)
O52 O 0.3081(9) 0.0998(7) 0.9372(7)
O53 O 0.7383(8) 0.3433(5) 0.6249(9)
O54 O 0.3397(4) 0.9647(8) 0.7696(5)
O55 O 0.6167(5) 0.1671(12) 0.6391(8)
O56 O 0.4704(4) 0.2175(5) 0.8418(4)
O57 O 0.5497(4) 0.1355(4) 0.6834(4)
O58 O 0.6637(6) 0.2564(6) 0.8016(7)
O59 O 0.5960(6) 0.2664(7) 0.8249(10)
O60 O 0.5682(6) 0.0043(6) 0.5870(6)
O61 O 0.7374(7) 0.3370(8) 0.7038(10)
O62 O 0.5955(7) 0.2715(6) 0.9031(10)
O63 O 0.6578(6) 0.1825(6) 0.8319(7)
O64 O 0.5251(7) 0.2290(7) 0.5273(13)
O65 O 0.4973(11) 0.2861(6) 0.8828(7)
O66 O 0.2854(9) 0.1512(7) 0.9137(9)
O67 O 0.5600(7) 0.3095(7) 0.9390(11)
O68 O 0.4849(9) 0.9525(9) 0.6112(10)
O69 O 0.2265(7) 0.9068(7) 0.8357(12)
O70 O 0.6442(6) 0.2240(6) 0.5843(12)
O71 O 0.3125(9) 0.0804(12) 0.0165(13)
O72 O 0.6628(6) 0.1273(7) 0.7249(9)
O73 O 0.6614(11) 0.9948(11) 0.596(3)
O74 O 0.66670 0.33330 0.5184(12)
O75 O 0.4772(4) 0.0779(3) 0.0334(4)
O76 O 0.1866(9) 0.9229(10) 0.8825(9)
O77 O 0.66670 0.33330 0.0003(15)
O78 O 0.8061(10) 0.0773(10) 0.8954(9)
O79 O 0.8316(16) 0.2828(15) 0.0811(15)
O80 O 0.5229(13) 0.0930(13) 0.0957(12)
O81 O 0.7904(15) 0.9888(15) 0.9186(14)
O82 O 0.4328(6) 0.9986(7) 0.9277(6)
O83 O 0.6435(7) 0.1614(7) 0.4902(6)
O84 O 0.6907(6) 0.1822(6) 0.0325(6)
O85 O 0.66670 0.33330 0.9276(13)
O86 O 0.66670 0.33330 0.581(2)
O87? O 0.507(3) 0.931(3) 0.632(2)
Cu1H Cu 0.797393(50) 0.075897(50) 0.556647(50)
Cu2B Cu 0.35965(5) 0.26815(6) 0.82910(5)
Cu8A Cu 0.89131(5) 0.26865(5) 0.69780(5)
O1D O 0.584567(300) 0.000133(300) 0.929033(300)
N5A N 0.7844(6) 0.1416(4) 0.8363(3)
N16B N 0.3657(3) 0.1521(5) 0.6887(3)
#END
