
#######################################################################
#
#                 Cambridge Crystallographic Data Centre
#                                CCDC
#
#######################################################################
#
# If this CIF has been generated from an entry in the Cambridge
# Structural Database, then it will include bibliographic, chemical,
# crystal, experimental, refinement or atomic coordinate data resulting
# from the CCDC's data processing and validation procedures.
#
#######################################################################

data_CSD_CIF_SAXYUO
_audit_creation_date 2017-06-29
_audit_creation_method CSD-ConQuest-V1
_database_code_CSD SAXYUO
_database_code_depnum_ccdc_archive 'CCDC 1541853'
_chemical_formula_sum 'C56 H184.6 Ca2 Cu8 N24 O95.8'
_chemical_formula_moiety
;
(C56 H55 Cu8 N24 O31 4-)n,H20 Ca2 O10 4+,54.8(H2 O1)
;
_journal_coden_Cambridge 4
_journal_volume 139
_journal_year 2017
_journal_page_first 8098
_journal_name_full 'J.Am.Chem.Soc. '
loop_
_publ_author_name
"M.Mon"
"J.Ferrando-Soria"
"M.Verdaguer"
"C.Train"
"C.Paillard"
"B.Dkhil"
"C.Versace"
"R.Bruno"
"D.Armentano"
"E.Pardo"
_chemical_name_systematic
;
catena-[tetrakis(methylammonium) 
tetrakis(\m-2-[(2-{[1-carboxylato-2-(imidazol-1-id-4-yl)ethyl]azanidyl}-1-oxid
anidyl-2-oxoethylidene)amino]-3-(1H-imidazol-4-yl)propanoato)-(\m-aqua)-tetra-
;
_cell_volume  44048.443
_exptl_crystal_colour 'green'
_exptl_crystal_density_diffrn 1.125
_exptl_crystal_description 'quasi-cubic'
_exptl_crystal_preparation 'slow diffusion in an H-shaped tube of aqueous solutions'
_diffrn_ambient_temperature 90
_refine_special_details
;
O54W and O54A disordered over two sites with occupancies 0.5:0.5; Disordered 
solvent molecules were not modelled and the disordered density was taken into 
account using the SQUEEZE/PLATON procedure.
;
#These two values have been output from a single CSD field.
_refine_ls_R_factor_gt 0.1301
_refine_ls_wR_factor_gt 0.1301
_symmetry_cell_setting rhombohedral
_symmetry_space_group_name_H-M 'R 3'
_symmetry_Int_Tables_number 146
loop_
_symmetry_equiv_pos_site_id
_symmetry_equiv_pos_as_xyz
1 x,y,z
2 -y,x-y,z
3 -x+y,-x,z
4 2/3+x,1/3+y,1/3+z
5 2/3-y,1/3+x-y,1/3+z
6 2/3-x+y,1/3-x,1/3+z
7 1/3+x,2/3+y,2/3+z
8 1/3-y,2/3+x-y,2/3+z
9 1/3-x+y,2/3-x,2/3+z
_cell_length_a 38.274(4)
_cell_length_b 38.274(4)
_cell_length_c 34.721(4)
_cell_angle_alpha 90
_cell_angle_beta 90
_cell_angle_gamma 120
_cell_formula_units_Z 9
loop_
_atom_type_symbol
_atom_type_radius_bond
C 0.68
H 0.23
Ca 1.76
Cu 1.32
N 0.68
O 0.68
loop_
_atom_site_label
_atom_site_type_symbol
_atom_site_fract_x
_atom_site_fract_y
_atom_site_fract_z
C1 C 0.4058(9) 0.8752(7) 0.5871(11)
N1 N 0.4192(14) 0.8788(12) 0.6258(9)
H1 H 0.40760 0.86060 0.64400
C2 C 0.4546(13) 0.9171(13) 0.6300(6)
H2 H 0.46990 0.92750 0.65290
C3 C 0.4630(7) 0.9371(7) 0.5939(8)
H3 H 0.48500 0.96330 0.58840
N2 N 0.4328(7) 0.9112(7) 0.5674(6)
Cu1 Cu 0.61116(8) 0.86947(9) 0.53146(8)
Cu2 Cu 0.5359(1) 0.94453(9) 0.27623(8)
Cu3 Cu 0.41054(11) 0.92708(10) 0.52371(8)
Cu4 Cu 0.25601(11) 0.84968(10) 0.28400(8)
Cu5 Cu 0.26723(9) 0.89064(8) 0.46881(7)
Cu6 Cu 0.39923(9) 0.95659(9) 0.33865(7)
Cu7 Cu 0.63965(11) 0.90648(10) 0.33733(9)
Cu8 Cu 0.57269(11) 0.97260(11) 0.47040(9)
O1 O 0.6672(4) 0.9180(4) 0.5706(4)
O2 O 0.2620(6) 0.9412(5) 0.5024(5)
O3 O 0.4052(9) 1.0141(8) 0.3062(7)
O4 O 0.7002(11) 0.9570(9) 0.3091(13)
O5 O 0.6234(12) 1.035(1) 0.5002(12)
O6 O 0.6129(6) 0.9549(7) 0.4626(6)
O7 O 0.5639(6) 0.9437(6) 0.5213(4)
O8 O 0.6131(9) 0.9362(7) 0.6126(5)
O9 O 0.5556(11) 0.9032(10) 0.6485(7)
O10 O 0.6016(4) 0.8719(4) 0.4137(4)
O11 O 0.6641(5) 0.9174(6) 0.3909(5)
O12 O 0.6236(7) 0.9473(8) 0.3484(6)
O13 O 0.6099(5) 0.8975(5) 0.2884(3)
O14 O 0.5830(4) 0.9955(5) 0.4181(4)
O15 O 0.5400(5) 0.9343(4) 0.3930(4)
O16 O 0.3763(6) 0.9160(7) 0.2960(4)
O17 O 0.3419(5) 0.9385(5) 0.3507(5)
O18 O 0.4130(5) 0.9880(5) 0.3891(4)
O19 O 0.4023(5) 0.9289(4) 0.4124(4)
O20 O 0.3531(10) 0.8562(12) 0.1810(7)
O21 O 0.3270(8) 0.8944(10) 0.1990(6)
O22 O 0.2545(5) 0.9080(5) 0.4197(4)
O23 O 0.2639(5) 0.8587(4) 0.3958(3)
O24 O 0.2915(7) 0.8752(5) 0.5122(4)
O25 O 0.3249(4) 0.9297(5) 0.4604(4)
O26 O 0.3171(12) 0.8414(15) 0.6313(7)
O27 O 0.3368(10) 0.8985(11) 0.6102(7)
O28 O 0.6017(6) 0.9469(7) 0.1955(5)
O29 O 0.5703(8) 0.8858(10) 0.1634(7)
N3 N 0.6294(6) 0.9075(6) 0.4883(5)
N4 N 0.6333(5) 0.8372(8) 0.5063(5)
N5 N 0.5778(8) 0.8929(7) 0.5488(6)
N6 N 0.5890(5) 0.8332(5) 0.5765(5)
N7 N 0.5826(7) 0.7934(7) 0.6263(6)
H4 H 0.58700 0.77830 0.64260
N8 N 0.5640(7) 0.9125(5) 0.2629(6)
N9 N 0.5757(7) 0.9625(6) 0.3213(6)
N10 N 0.4978(7) 0.9211(6) 0.2309(5)
N11 N 0.4604(6) 0.9186(6) 0.1859(9)
H5 H 0.44480 0.92390 0.17150
N12 N 0.5060(7) 0.9661(6) 0.3023(6)
N13 N 0.4533(6) 0.9683(6) 0.3290(6)
N14 N 0.3132(8) 0.8688(8) 0.2712(6)
N15 N 0.2794(7) 0.8951(5) 0.3233(4)
N16 N 0.2353(9) 0.8134(9) 0.2380(7)
N17 N 0.2134(15) 0.7890(14) 0.1865(7)
H6 H 0.20300 0.78910 0.16400
N18 N 0.2020(6) 0.8308(6) 0.3053(6)
N19 N 0.6367(8) 0.7877(6) 0.4806(6)
N20 N 0.3884(5) 0.9488(7) 0.4859(4)
N21 N 0.3505(9) 0.8886(7) 0.5377(6)
N22 N 0.4664(6) 0.9621(5) 0.5048(5)
N23 N 0.5251(7) 0.9786(8) 0.4811(6)
N24 N 0.1420(6) 0.7871(8) 0.3273(6)
C4 C 0.6122(10) 0.9336(14) 0.4868(7)
C5 C 0.5819(7) 0.9196(12) 0.5254(11)
C6 C 0.5515(9) 0.8869(11) 0.5780(7)
H7 H 0.53180 0.89560 0.57030
C7 C 0.5296(9) 0.8402(11) 0.5860(8)
H8 H 0.50830 0.83380 0.60530
H9 H 0.51600 0.82610 0.56190
C8 C 0.5533(7) 0.8233(9) 0.5990(11)
C9 C 0.5521(8) 0.8009(7) 0.6275(7)
H10 H 0.53190 0.79090 0.64700
C10 C 0.6040(8) 0.8118(9) 0.5975(10)
H11 H 0.62780 0.81140 0.59060
C11 C 0.5763(11) 0.9104(11) 0.6173(14)
C12 C 0.6180(7) 0.7981(8) 0.5072(7)
H12 H 0.59710 0.78000 0.52390
C13 C 0.6620(7) 0.8518(9) 0.4739(7)
C14 C 0.6861(7) 0.8983(8) 0.4692(5)
H13 H 0.70590 0.90470 0.44810
H14 H 0.70170 0.91000 0.49310
C15 C 0.6607(9) 0.9216(10) 0.4599(7)
H15 H 0.67770 0.95170 0.45850
C16 C 0.6385(9) 0.8995(9) 0.4179(8)
C17 C 0.5989(11) 0.9450(7) 0.3226(12)
C18 C 0.5904(8) 0.9142(9) 0.2902(7)
C19 C 0.5837(7) 0.9913(6) 0.3505(7)
H16 H 0.61360 1.00950 0.35150
C20 C 0.5639(9) 1.0188(7) 0.3385(7)
H17 H 0.56920 1.03880 0.35900
H18 H 0.57670 1.03370 0.31450
C21 C 0.5192(7) 0.9930(7) 0.3324(6)
C22 C 0.4894(9) 0.9964(6) 0.3482(7)
H19 H 0.49170 1.01410 0.36850
C23 C 0.4668(8) 0.9515(7) 0.3034(8)
H20 H 0.44890 0.93010 0.28700
C24 C 0.5691(8) 0.9729(6) 0.3938(7)
C25 C 0.5544(11) 0.8861(10) 0.2309(15)
H21 H 0.56430 0.86680 0.23550
C26 C 0.5083(9) 0.8625(7) 0.2221(9)
H22 H 0.50360 0.84410 0.20020
H23 H 0.49420 0.84550 0.24470
C27 C 0.4884(10) 0.8876(7) 0.2123(10)
C28 C 0.4661(9) 0.8835(9) 0.1775(14)
H24 H 0.45780 0.86500 0.15660
C29 C 0.4790(7) 0.9406(7) 0.2147(6)
H25 H 0.47990 0.96460 0.22310
C30 C 0.3383(8) 0.8986(8) 0.2924(6)
C31 C 0.3210(9) 0.9130(9) 0.3248(6)
C32 C 0.3298(9) 0.8484(10) 0.2462(8)
H26 H 0.35440 0.85040 0.25840
C33 C 0.3428(15) 0.877(2) 0.2069(8)
C34 C 0.2985(13) 0.8048(12) 0.2403(12)
H27 H 0.31040 0.79200 0.22430
H28 H 0.29180 0.79120 0.26570
C35 C 0.2642(17) 0.7982(15) 0.2236(9)
C36 C 0.231(2) 0.770(2) 0.192(2)
H29 H 0.22630 0.74590 0.18020
C37 C 0.2108(16) 0.8086(19) 0.2153(12)
H30 H 0.19190 0.81760 0.21780
C38 C 0.2164(6) 0.8916(8) 0.3374(6)
H31 H 0.20420 0.90010 0.35780
H32 H 0.21620 0.90550 0.31350
C39 C 0.1910(6) 0.8501(7) 0.3316(7)
C40 C 0.2601(6) 0.8891(7) 0.3896(5)
C41 C 0.6628(10) 0.8227(8) 0.4586(7)
H33 H 0.67790 0.82370 0.43640
C42 C 0.3448(8) 0.9238(5) 0.4842(6)
C43 C 0.3277(9) 0.8926(9) 0.5151(6)
C44 C 0.3344(11) 0.8549(10) 0.5654(11)
H34 H 0.30850 0.83320 0.55430
C45 C 0.3607(17) 0.8383(18) 0.5681(16)
H35 H 0.36520 0.83020 0.54230
H36 H 0.34860 0.81420 0.58500
C46 C 0.3248(13) 0.8663(13) 0.5995(12)
C47 C 0.4081(7) 0.9808(5) 0.4580(7)
H37 H 0.39160 0.99430 0.45630
C48 C 0.4063(7) 0.9623(7) 0.4170(7)
C49 C 0.4464(8) 1.0104(7) 0.4710(7)
H38 H 0.45350 1.03770 0.47530
C50 C 0.4772(6) 0.9939(5) 0.4778(6)
C51 C 0.4944(9) 0.953(1) 0.5027(6)
H39 H 0.49320 0.93050 0.51540
C52 C 0.5143(6) 1.0036(6) 0.4635(5)
H40 H 0.52960 1.02380 0.44490
C53 C 0.1559(8) 0.8241(11) 0.3454(6)
H41 H 0.14180 0.82950 0.36490
C54 C 0.1686(9) 0.7911(13) 0.3044(7)
H42 H 0.16670 0.77010 0.28820
C55 C 0.2584(7) 0.9065(6) 0.3479(7)
H43 H 0.27260 0.93670 0.34920
C56 C 0.5783(10) 0.9156(12) 0.1926(9)
O30 O 0.2566(8) 0.7952(6) 0.3273(7)
O31 O 0.4118(6) 0.8717(6) 0.4807(6)
Ca1 Ca 0.4757(4) 0.8054(4) 0.4558(4)
Ca2 Ca 0.4736(4) 0.8102(4) 0.3523(4)
O32 O 0.4905(7) 0.7707(8) 0.3988(7)
O33 O 0.4369(8) 0.8229(8) 0.4035(11)
O34 O 0.5427(13) 0.8182(13) 0.4756(12)
O35 O 0.4580(8) 0.8426(11) 0.5033(12)
O36 O 0.422(3) 0.737(2) 0.461(2)
O37 O 0.5301(8) 0.8696(9) 0.4418(10)
O38 O 0.407(2) 0.743(2) 0.3691(19)
O39 O 0.5362(10) 0.8616(9) 0.3696(14)
O40 O 0.5138(19) 0.7946(15) 0.3059(15)
O41 O 0.4854(9) 0.8763(8) 0.3292(10)
O42 O 0.3985(7) 0.9180(6) 0.1334(6)
O43 O 0.3741(11) 0.9779(11) 0.5712(6)
O44 O 0.3385(10) 0.0051(8) 0.5186(6)
O45 O 0.4576(7) 0.9016(7) 0.4048(14)
O46 O 0.2538(9) 0.0676(7) 0.0075(7)
O47 O 0.2927(9) 0.8987(17) 0.1294(11)
O48 O 0.2355(10) 0.9607(9) 0.0130(8)
O49 O 0.2923(7) 0.9384(8) 0.2371(6)
O50 O 0.6678(6) 0.0012(6) 0.4061(7)
O51 O 0.8027(9) 0.1830(14) 0.5833(10)
O52 O 0.2107(10) 0.9076(10) 0.2314(10)
O53 O 0.3266(12) 0.9973(16) 0.2912(8)
O54 O 0.5382(13) 0.0505(12) 0.5579(12)
O55 O 0.3262(9) 0.9326(8) 0.0108(11)
O56 O 0.5707(7) 0.7914(7) 0.4044(12)
O57 O 0.1728(10) 0.6764(18) 0.1263(8)
O58 O 0.7164(9) 0.0700(6) 0.4184(7)
O59 O 0.320(2) 0.7913(19) 0.1306(19)
O60 O 0.574(3) 0.104(3) 0.422(3)
O61 O 0.4555(13) 0.0265(13) 0.5806(12)
O62 O 0.4930(13) 0.8541(13) 0.6777(12)
O63 O 0.7685(9) 0.1006(8) 0.5634(8)
O64 O 0.5675(9) 0.0004(9) 0.5785(9)
O65 O 0.33330 0.66670 0.226(6)
O66 O 0.33330 0.66670 0.583(4)
O67 O 0.3932(12) 0.0673(10) 0.4663(10)
O68 O 0.3345(7) 0.8587(6) 0.3996(8)
O69 O 0.4524(9) 0.7537(9) 0.2424(13)
O70 O 0.4430(13) 0.760(2) 0.6523(13)
O71 O 0.7430(7) 0.9719(19) 0.4087(19)
O72 O 0.4235(10) 0.7808(9) 0.5642(10)
O73 O 0.3353(12) 0.8095(11) 0.3449(11)
O74 O 0.3315(12) 0.8071(10) 0.4689(17)
O75 O 0.2272(9) 0.9117(11) 0.1417(15)
O76 O 0.2308(10) 0.9014(9) 0.5712(8)
O77 O 0.6986(19) 0.0342(17) 0.4787(19)
O78 O 0.6431(15) 0.0724(14) 0.4283(14)
O79 O 0.389(4) 0.788(2) 0.229(8)
O80 O 0.470(3) 0.709(3) 0.623(2)
O81 O 0.3035(11) 0.0048(11) 0.0618(10)
O82 O 0.3421(11) 0.7384(13) 0.5485(16)
O83 O 0.196(2) 0.9637(12) 0.259(2)
O84 O 0.5194(12) 0.7395(12) 0.5008(16)
O85 O 0.6725(9) 0.9978(13) 0.2413(14)
O86 O 0.432(2) 0.0154(17) 0.655(3)
O87 O 0.4061(10) 0.8546(14) 0.313(2)
O88 O 0.255(2) 0.112(2) 0.0364(19)
O89 O 0.475(3) 0.895(3) 0.717(2)
O90 O 0.3304(19) 0.7334(19) 0.4712(17)
O91 O 0.655(3) 0.126(3) 0.548(2)
O92 O 0.3266(11) 0.7322(9) 0.275(2)
O93 O 0.54790 0.98190 0.66380
O94 O 0.4126(17) 0.8907(17) 0.0654(16)
O95 O 0.3400(11) 0.9742(11) 0.0804(10)
O96 O 0.733(2) 0.164(2) 0.638(2)
O97 O 0.225(2) 0.026(2) 0.188(2)
O98 O 0.728(3) 0.166(3) 0.510(2)
O99 O 0.2733(17) 0.8263(17) 0.0942(16)
O100 O 0.4398(13) 0.7752(11) 0.1743(17)
O101 O 0.188(2) 0.047(2) 0.321(2)
O102 O 0.212(2) 0.750(2) 0.069(2)
O103? O 0.388(2) 0.804(2) 0.226(2)
O104? O 0.7361(8) 0.0536(13) 0.3938(7)
Cu2D Cu 0.722137(100) 0.924703(90) 0.609563(80)
Cu5B Cu 0.62341(9) 0.73277(8) 0.46881(7)
Cu7A Cu 0.09352(11) 0.73317(10) 0.33733(9)
O1H O 0.584133(400) 0.999467(400) 0.237267(400)
N19A N 0.2123(8) 0.8490(6) 0.4806(6)
N24B N 0.6451(6) 0.8580(8) 0.3273(6)
#END
