
#######################################################################
#
#                 Cambridge Crystallographic Data Centre
#                                CCDC
#
#######################################################################
#
# If this CIF has been generated from an entry in the Cambridge
# Structural Database, then it will include bibliographic, chemical,
# crystal, experimental, refinement or atomic coordinate data resulting
# from the CCDC's data processing and validation procedures.
#
#######################################################################

data_CSD_CIF_SCNTAC10
_audit_creation_date 1974-01-30
_audit_creation_method CSD-ConQuest-V1
_database_code_CSD SCNTAC10
_database_code_depnum_ccdc_archive 'CCDC 1256000'
_chemical_formula_sum 'C6 H8 Cu1 N1 Na1 O7'
_chemical_formula_moiety
;
(C6 H6 Cu1 N1 O6 1-)n,n(Na1 1+),n(H2 O1)
;
_journal_coden_Cambridge 9
_journal_volume 12
_journal_year 1973
_journal_page_first 2286
_journal_name_full 'Inorg.Chem. '
loop_
_publ_author_name
"S.H.Whitlow"
_chemical_name_systematic
;
catena-[Sodium (\m-nitrilotriacetato)-copper(ii) monohydrate]
;
_cell_volume    938.827
_exptl_crystal_density_diffrn 2.07
_diffrn_ambient_temperature ?
_diffrn_special_details
;
The study was carried out at room temperature,in the range 283-303K

;
#These two values have been output from a single CSD field.
_refine_ls_R_factor_gt 0.032
_refine_ls_wR_factor_gt 0.032
_symmetry_cell_setting orthorhombic
_symmetry_space_group_name_H-M 'P 21 21 21'
_symmetry_Int_Tables_number 19
loop_
_symmetry_equiv_pos_site_id
_symmetry_equiv_pos_as_xyz
1 x,y,z
2 1/2+x,1/2-y,-z
3 -x,1/2+y,1/2-z
4 1/2-x,-y,1/2+z
_cell_length_a 9.899(5)
_cell_length_b 12.565(5)
_cell_length_c 7.548(5)
_cell_angle_alpha 90
_cell_angle_beta 90
_cell_angle_gamma 90
_cell_formula_units_Z 4
loop_
_atom_type_symbol
_atom_type_radius_bond
C 0.68
H 0.20
Cu 1.47
N 0.68
Na 0.97
O 0.68
loop_
_atom_site_label
_atom_site_type_symbol
_atom_site_fract_x
_atom_site_fract_y
_atom_site_fract_z
Cu1 Cu 0.30980 0.18060 0.07040
C1 C 0.57040 0.09600 0.19810
C2 C 0.61190 0.19570 0.09750
C3 C 0.37140 -0.00470 0.29570
C4 C 0.21670 0.00190 0.30930
C5 C 0.42030 0.17010 0.42100
C6 C 0.36280 0.28080 0.38590
H1 H 0.57200 0.05000 0.09600
H2 H 0.64000 0.09200 0.32200
H3 H 0.40000 -0.05500 0.19600
H4 H 0.40000 -0.03900 0.41700
H5 H 0.52000 0.17600 0.46500
H6 H 0.34000 0.14500 0.49600
N1 N 0.42710 0.10230 0.25930
O1 O 0.52750 0.24490 0.00720
O2 O 0.73710 0.22090 0.10670
O3 O 0.16110 0.07690 0.22790
O4 O 0.15440 -0.06810 0.39100
O5 O 0.29640 0.29480 0.24450
O6 O 0.37970 0.34900 0.50070
H7 H -0.16400 -0.09500 0.25200
H8 H -0.12800 -0.01600 0.08700
O7 O -0.10760 -0.04130 0.21010
Na1 Na -0.06230 0.13730 0.20760
O2A O 0.23710 0.27910 -0.10670
O4C O 0.34560 0.06810 -0.10900
Cu1A Cu 0.80980 0.31940 -0.07040
Cu1C Cu 0.19020 -0.18060 0.57040
#END
