
#######################################################################
#
#                 Cambridge Crystallographic Data Centre
#                                CCDC
#
#######################################################################
#
# If this CIF has been generated from an entry in the Cambridge
# Structural Database, then it will include bibliographic, chemical,
# crystal, experimental, refinement or atomic coordinate data resulting
# from the CCDC's data processing and validation procedures.
#
#######################################################################

data_CSD_CIF_SCNTAC13
_audit_creation_date 2012-02-16
_audit_creation_method CSD-ConQuest-V1
_database_code_CSD SCNTAC13
_database_code_depnum_ccdc_archive 'CCDC 750947 (not 740947 as published)'
_chemical_formula_sum 'C6 H8 Cu1 N1 Na1 O7'
_chemical_formula_moiety
;
(C6 H6 Cu1 N1 O6 1-)n,n(H2 O1),n(Na1 1+)
;
_journal_coden_Cambridge 580
_journal_volume 33
_journal_year 2012
_journal_page_first 425
_journal_name_full 'Polyhedron '
loop_
_publ_author_name
"N.Kumari"
"B.D.Ward"
"S.Kar"
"L.Mishra"
_chemical_name_systematic
;
catena-(sodium (\m~3~-2,2',2''-nitrilotriacetato)-copper(ii) monohydrate)
;
_cell_volume    938.590
_exptl_crystal_colour 'blue'
_exptl_crystal_density_diffrn 2.057
_exptl_crystal_description 'block'
_diffrn_ambient_temperature 293
#These two values have been output from a single CSD field.
_refine_ls_R_factor_gt 0.0282
_refine_ls_wR_factor_gt 0.0282
_symmetry_cell_setting orthorhombic
_symmetry_space_group_name_H-M 'P 21 21 21'
_symmetry_Int_Tables_number 19
loop_
_symmetry_equiv_pos_site_id
_symmetry_equiv_pos_as_xyz
1 x,y,z
2 1/2-x,-y,1/2+z
3 -x,1/2+y,1/2-z
4 1/2+x,1/2-y,-z
_cell_length_a 7.5469(1)
_cell_length_b 9.8929(2)
_cell_length_c 12.5714(2)
_cell_angle_alpha 90
_cell_angle_beta 90
_cell_angle_gamma 90
_cell_formula_units_Z 4
loop_
_atom_type_symbol
_atom_type_radius_bond
C 0.68
H 0.23
Cu 1.32
N 0.68
Na 1.16
O 0.68
loop_
_atom_site_label
_atom_site_type_symbol
_atom_site_fract_x
_atom_site_fract_y
_atom_site_fract_z
Cu1 Cu 0.07006(5) 0.69018(4) 0.68049(3)
O1 O -0.1065(3) 0.7635(2) 0.7801(2)
O2 O -0.0067(4) 0.9722(2) 0.7557(2)
N1 N -0.2594(4) 1.0709(3) 0.8969(2)
C1 C -0.0959(4) 0.8875(3) 0.8043(3)
O3 O -0.2440(3) 1.2023(3) 0.7050(2)
C2 C -0.3084(5) 1.2823(3) 0.9978(3)
O4 O -0.2263(4) 1.3391(2) 0.9243(2)
O5 O -0.3919(3) 1.3455(2) 1.0686(2)
O6 O -0.5015(4) 1.1201(4) 0.6515(2)
C3 C -0.3876(5) 1.1364(4) 0.7192(3)
O7 O -0.2094(5) 0.6098(3) 1.0415(2)
C4 C -0.1962(5) 0.9295(3) 0.9039(3)
H1 H -0.29680 0.86980 0.91400
H2 H -0.11910 0.92020 0.96530
C5 C -0.2949(5) 1.1280(3) 1.0046(3)
H3 H -0.19980 1.10310 1.05270
H4 H -0.40470 1.09120 1.03230
C6 C -0.41652(18) 1.08109(13) 0.82966(11)
H5 H -0.50230 1.13810 0.86550
H6 H -0.46840 0.99180 0.82330
Na1 Na -0.20694(18) 0.56230(13) 0.86281(11)
Cu1B Cu -0.07006(5) 1.19018(4) 0.81951(3)
Cu1A Cu -0.57006(5) 1.30982(4) 1.18049(3)
O2B O 0.0067(4) 0.4722(2) 0.7443(2)
N1B N 0.2594(4) 0.5709(3) 0.6031(2)
O3B O 0.2440(3) 0.7023(3) 0.7950(2)
O4B O 0.2263(4) 0.8391(2) 0.5757(2)
O5A O -0.1081(3) 0.6545(2) 0.5686(2)
#END
