
#######################################################################
#
#                 Cambridge Crystallographic Data Centre
#                                CCDC
#
#######################################################################
#
# If this CIF has been generated from an entry in the Cambridge
# Structural Database, then it will include bibliographic, chemical,
# crystal, experimental, refinement or atomic coordinate data resulting
# from the CCDC's data processing and validation procedures.
#
#######################################################################

data_CSD_CIF_SEBMIY
_audit_creation_date 2017-06-30
_audit_creation_method CSD-ConQuest-V1
_database_code_CSD SEBMIY
_database_code_depnum_ccdc_archive 'CCDC 1499036'
_chemical_formula_sum 'C12 H12 N1 O10 Pr1'
_chemical_formula_moiety
;
(C10 H6 O10 Pr1 1-)n,0.5(C4 H12 N2 2+)
;
_journal_coden_Cambridge 603
_journal_volume 36
_journal_year 2017
_journal_page_first 977
_journal_name_full 'Jiegou Huaxue(Chin.)(Chin.J.Struct.Chem.) '
loop_
_publ_author_name
"Xiaoqiang Liang"
"Zeng-lu Fan"
_chemical_name_systematic
;
catena-[hemikis(piperazinediium) 
(\m-benzene-1,2,4,5-tetracarboxylato)-diaqua-praseodymium(iii)]
;
_cell_volume   1317.692
_exptl_crystal_colour 'green'
_exptl_crystal_density_diffrn 2.375
_exptl_special_details
;
, proton conductivity

;
_exptl_crystal_description 'diamond'
_exptl_crystal_preparation 'hydrothermal reaction'
_diffrn_ambient_temperature 291
#These two values have been output from a single CSD field.
_refine_ls_R_factor_gt 0.0286
_refine_ls_wR_factor_gt 0.0286
_symmetry_cell_setting monoclinic
_symmetry_space_group_name_H-M 'P 21/n'
_symmetry_Int_Tables_number 14
loop_
_symmetry_equiv_pos_site_id
_symmetry_equiv_pos_as_xyz
1 x,y,z
2 1/2-x,1/2+y,1/2-z
3 -x,-y,-z
4 -1/2+x,-1/2-y,-1/2+z
_cell_length_a 11.023(5)
_cell_length_b 11.109(5)
_cell_length_c 11.456(5)
_cell_angle_alpha 90
_cell_angle_beta 110.065(5)
_cell_angle_gamma 90
_cell_formula_units_Z 4
loop_
_atom_type_symbol
_atom_type_radius_bond
C 0.68
H 0.23
N 0.68
O 0.68
Pr 2.03
loop_
_atom_site_label
_atom_site_type_symbol
_atom_site_fract_x
_atom_site_fract_y
_atom_site_fract_z
C1 C 0.0228(4) 0.5754(4) 0.2475(4)
C2 C -0.0746(4) 0.5095(3) 0.2889(3)
C3 C -0.1059(4) 0.5573(4) 0.3868(3)
H1 H -0.06130 0.62490 0.42740
C4 C -0.2006(4) 0.5089(4) 0.4266(3)
C5 C -0.2641(4) 0.4038(3) 0.3696(4)
C6 C -0.2273(4) 0.3509(4) 0.2761(4)
H2 H -0.26350 0.27740 0.24310
C7 C -0.1384(4) 0.4047(4) 0.2308(3)
C8 C -0.3824(4) 0.3524(4) 0.3902(4)
C9 C -0.1257(4) 0.3542(4) 0.1132(4)
C10 C -0.2347(4) 0.5747(4) 0.5255(4)
O1 O 0.0527(3) 0.5360(3) 0.1584(3)
O2 O 0.0678(3) 0.6720(3) 0.3025(3)
O3 O -0.3770(3) 0.2612(3) 0.4547(3)
O4 O -0.4876(3) 0.4010(3) 0.3285(3)
O5 O -0.3248(3) 0.5362(3) 0.5600(3)
O6 O -0.1762(3) 0.6723(3) 0.5669(3)
O7 O -0.1957(3) 0.4026(3) 0.0135(3)
O8 O -0.0579(3) 0.2635(3) 0.1143(3)
O9 O 0.2595(3) 0.8651(3) 0.3280(3)
H3 H 0.31890 0.91200 0.31470
H4 H 0.29780 0.81350 0.38900
O10 O 0.3382(3) 0.6323(3) 0.2610(3)
H5 H 0.31810 0.58650 0.31540
H6 H 0.40060 0.68350 0.30150
Pr1 Pr 0.14078(2) 0.749375(16) 0.131890(19)
C11 C 0.0442(5) 0.8832(4) 0.4780(4)
H7 H 0.11510 0.82760 0.48890
H8 H -0.03510 0.84300 0.42920
C12 C -0.0378(5) 1.0844(4) 0.3977(4)
H9 H -0.12100 1.05410 0.34490
H10 H -0.01790 1.15570 0.35870
N1 N 0.0630(4) 0.9912(3) 0.4104(3)
H11 H 0.06130 0.96920 0.33420
H12 H 0.14130 1.02300 0.45110
O3A O -0.1230(3) 0.7612(3) 0.0453(3)
O4A O -0.0124(3) 0.9010(3) 0.1715(3)
O5C O 0.1752(3) 0.9638(3) 0.0600(3)
O6C O 0.3238(3) 0.8277(3) 0.0669(3)
O7B O 0.1957(3) 0.5974(3) -0.0135(3)
O8B O 0.0579(3) 0.7365(3) -0.1143(3)
Pr1A Pr -0.64078(2) 0.249375(16) 0.368110(19)
Pr1B Pr -0.14078(2) 0.250625(16) -0.131890(19)
Pr1C Pr -0.35922(2) 0.750625(16) 0.631890(19)
C11B C -0.0442(5) 1.1168(4) 0.5220(4)
H7B H -0.11510 1.17240 0.51110
H8B H 0.03510 1.15700 0.57080
C12B C 0.0378(5) 0.9156(4) 0.6023(4)
H9B H 0.12100 0.94590 0.65510
H10B H 0.01790 0.84430 0.64130
N1B N -0.0630(4) 1.0088(3) 0.5896(3)
H11B H -0.06130 1.03080 0.66580
H12B H -0.14130 0.97700 0.54890
#END
