
#######################################################################
#
#                 Cambridge Crystallographic Data Centre
#                                CCDC
#
#######################################################################
#
# If this CIF has been generated from an entry in the Cambridge
# Structural Database, then it will include bibliographic, chemical,
# crystal, experimental, refinement or atomic coordinate data resulting
# from the CCDC's data processing and validation procedures.
#
#######################################################################

data_CSD_CIF_SECWUT
_audit_creation_date 2006-05-18
_audit_creation_method CSD-ConQuest-V1
_database_code_CSD SECWUT
_database_code_depnum_ccdc_archive 'CCDC 259629'
_chemical_formula_sum 'C40 H54 Mn1 N8 O24 P2 V2'
_chemical_formula_moiety
;
(C10 H9 N2 1+)2n,n(C10 H16 Mn1 N2 O4 2+),n(C10 H12 N2 O16 P2 V2 4-),4n(H2 O1)
;
_journal_coden_Cambridge 155
_journal_volume 359
_journal_year 2006
_journal_page_first 1147
_journal_name_full 'Inorg.Chim.Acta '
loop_
_publ_author_name
"Fa-Nian Shi"
"F.A.A.Paz"
"P.I.Girginova"
"V.S.Amaral"
"J.Rocha"
"J.Klinowski"
"T.Trindade"
_chemical_name_systematic
;
catena-(bis(4,4'-Bipyridinium) 
(\m~2~-4,4'-bipyridine)-tetra-aqua-manganese(ii) 
bis(\m~2~-N-(phosphonomethyl)iminodiacetato-N,O,O',O'')-dioxo-di-vanadium(iv) 
tetrahydrate)
;
_cell_volume   2529.446
_exptl_crystal_colour 'green'
_exptl_crystal_density_diffrn 1.641
_exptl_crystal_description 'block'
_diffrn_ambient_temperature 180
#These two values have been output from a single CSD field.
_refine_ls_R_factor_gt 0.0404
_refine_ls_wR_factor_gt 0.0404
_symmetry_cell_setting monoclinic
_symmetry_space_group_name_H-M 'P 2/c'
_symmetry_Int_Tables_number 13
loop_
_symmetry_equiv_pos_site_id
_symmetry_equiv_pos_as_xyz
1 x,y,z
2 -x,y,1/2-z
3 -x,-y,-z
4 x,-y,-1/2+z
_cell_length_a 10.821(2)
_cell_length_b 11.576(2)
_cell_length_c 20.641(4)
_cell_angle_alpha 90
_cell_angle_beta 101.96(3)
_cell_angle_gamma 90
_cell_formula_units_Z 2
loop_
_atom_type_symbol
_atom_type_radius_bond
C 0.68
H 0.23
Mn 1.35
N 0.69
O 0.68
P 1.05
V 1.31
loop_
_atom_site_label
_atom_site_type_symbol
_atom_site_fract_x
_atom_site_fract_y
_atom_site_fract_z
V1 V 0.79832(4) 0.62244(4) 0.991309(19)
N1 N 0.98063(18) 0.74208(18) 1.02441(9)
P1 P 1.04555(6) 0.54209(5) 1.09073(3)
C1 C 1.0937(2) 0.6695(2) 1.04963(12)
H1 H 1.15680 0.71440 1.08140
H2 H 1.13270 0.64540 1.01240
C2 C 0.9858(2) 0.8039(2) 0.96262(13)
H3 H 1.02560 0.75420 0.93360
H4 H 1.03710 0.87490 0.97270
C3 C 0.8520(3) 0.8349(2) 0.92758(13)
C4 C 0.9517(3) 0.8224(2) 1.07477(13)
H5 H 0.94090 0.90100 1.05550
H6 H 1.02470 0.82450 1.11270
C5 C 0.8351(3) 0.7912(3) 1.10007(13)
O1 O 0.66491(17) 0.55785(17) 0.9760(1)
O2 O 0.91018(15) 0.51975(15) 1.05367(8)
O3 O 1.13035(16) 0.43933(15) 1.08348(8)
O4 O 1.05396(18) 0.56993(16) 1.16341(8)
O5 O 0.76339(15) 0.77128(15) 0.93891(8)
O6 O 0.8372(2) 0.9185(2) 0.88967(14)
O7 O 0.76569(17) 0.70936(17) 1.07183(9)
O8 O 0.8124(2) 0.8492(2) 1.14733(10)
Mn1 Mn 0.50000 -0.06367(4) 0.25000
O9 O 0.31190(16) -0.07163(16) 0.18715(9)
H7 H 0.253(2) -0.120(2) 0.2002(14)
H8 H 0.271(2) -0.0128(19) 0.1594(13)
O10 O 0.57908(17) -0.06043(16) 0.16132(8)
H9 H 0.6602(13) -0.085(3) 0.1591(13)
H10 H 0.527(2) -0.065(3) 0.1189(7)
N2 N 0.50000 0.1289(2) 0.25000
N3 N 0.50000 0.7420(2) 0.25000
C6 C 0.4536(2) 0.1894(2) 0.19468(11)
H11 H 0.42110 0.14820 0.15500
C7 C 0.4510(2) 0.3085(2) 0.19286(11)
H12 H 0.41600 0.34750 0.15280
C8 C 0.50000 0.3713(3) 0.25000
C9 C 0.50000 0.4997(3) 0.25000
C10 C 0.4414(3) 0.5623(2) 0.19462(12)
H13 H 0.39960 0.52340 0.15570
C11 C 0.4443(3) 0.6812(2) 0.19673(12)
H14 H 0.40460 0.72250 0.15820
N4 N 0.8323(2) 0.4335(2) 0.24513(11)
H15 H 0.869(3) 0.481(3) 0.2819(16)
N5 N 0.5668(2) 0.1144(2) -0.03931(11)
C12 C 0.8310(3) 0.3189(3) 0.25030(13)
H16 H 0.86670 0.28330 0.29140
C13 C 0.7781(3) 0.2511(3) 0.19625(13)
H17 H 0.77750 0.16930 0.20000
C14 C 0.7259(2) 0.3044(3) 0.13645(12)
C15 C 0.7271(3) 0.4246(3) 0.13348(13)
H18 H 0.69010 0.46330 0.09360
C16 C 0.7821(3) 0.4870(3) 0.18861(13)
H19 H 0.78440 0.56890 0.18640
C17 C 0.6560(3) 0.0676(3) 0.00787(13)
H20 H 0.68450 -0.00820 0.00110
C18 C 0.7090(2) 0.1239(2) 0.06619(12)
H21 H 0.77090 0.08660 0.09890
C19 C 0.6703(2) 0.2359(2) 0.07626(12)
C20 C 0.5765(3) 0.2846(3) 0.02769(13)
H22 H 0.54620 0.36030 0.03290
C21 C 0.5282(3) 0.2205(3) -0.02841(14)
H23 H 0.46360 0.25430 -0.06110
O11 O 0.1529(3) 0.7741(2) 0.22233(11)
H24 H 0.117(4) 0.7025(19) 0.2073(17)
H25 H 0.138(4) 0.794(3) 0.2639(11)
O12 O 0.9796(4) 0.0633(4) 0.18563(19)
V1B V 1.20168(4) 0.37756(4) 1.008691(19)
N1B N 1.01937(18) 0.25792(18) 0.97559(9)
P1B P 0.95445(6) 0.45791(5) 0.90927(3)
C1B C 0.9063(2) 0.3305(2) 0.95037(12)
H1B H 0.84320 0.28560 0.91860
H2B H 0.86730 0.35460 0.98760
C2B C 1.0142(2) 0.1961(2) 1.03738(13)
H3B H 0.97440 0.24580 1.06640
H4B H 0.96290 0.12510 1.02730
C3B C 1.1480(3) 0.1651(2) 1.07242(13)
C4B C 1.0483(3) 0.1776(2) 0.92523(13)
H5B H 1.05910 0.09900 0.94450
H6B H 0.97530 0.17550 0.88730
C5B C 1.1649(3) 0.2088(3) 0.89993(13)
O1B O 1.33509(17) 0.44215(17) 1.0240(1)
O2B O 1.08982(15) 0.48025(15) 0.94633(8)
O3B O 0.86965(16) 0.56067(15) 0.91652(8)
O4B O 0.94604(18) 0.43007(16) 0.83659(8)
O5B O 1.23661(15) 0.22872(15) 1.06109(8)
O6B O 1.1628(2) 0.0815(2) 1.11033(14)
O7B O 1.23431(17) 0.29064(17) 0.92817(9)
O8B O 1.1876(2) 0.1508(2) 0.85267(10)
Mn1* Mn 0.50000 0.93633(4) 0.25000
O9A O 0.68810(16) -0.07163(16) 0.31285(9)
H7A H 0.747(2) -0.120(2) 0.2998(14)
H8A H 0.729(2) -0.0128(19) 0.3406(13)
O10A O 0.42092(17) -0.06043(16) 0.33868(8)
H9A H 0.3398(13) -0.085(3) 0.3409(13)
H10A H 0.473(2) -0.065(3) 0.3811(7)
N3* N 0.50000 -0.2580(2) 0.25000
C6A C 0.5464(2) 0.1894(2) 0.30532(11)
H11A H 0.57890 0.14820 0.34500
C7A C 0.5490(2) 0.3085(2) 0.30714(11)
H12A H 0.58400 0.34750 0.34720
C10A C 0.5586(3) 0.5623(2) 0.30538(12)
H13A H 0.60040 0.52340 0.34430
C11A C 0.5557(3) 0.6812(2) 0.30327(12)
H14A H 0.59540 0.72250 0.34180
#END
