
#######################################################################
#
#                 Cambridge Crystallographic Data Centre
#                                CCDC
#
#######################################################################
#
# If this CIF has been generated from an entry in the Cambridge
# Structural Database, then it will include bibliographic, chemical,
# crystal, experimental, refinement or atomic coordinate data resulting
# from the CCDC's data processing and validation procedures.
#
#######################################################################

data_CSD_CIF_SECXAA
_audit_creation_date 2006-05-18
_audit_creation_method CSD-ConQuest-V1
_database_code_CSD SECXAA
_database_code_depnum_ccdc_archive 'CCDC 259630'
_chemical_formula_sum 'C40 H54 Co1 N8 O24 P2 V2'
_chemical_formula_moiety
;
(C10 H9 N2 1+)2n,n(C10 H16 Co1 N2 O4 2+),n(C10 H12 N2 O16 P2 V2 4-),4n(H2 O1)
;
_journal_coden_Cambridge 155
_journal_volume 359
_journal_year 2006
_journal_page_first 1147
_journal_name_full 'Inorg.Chim.Acta '
loop_
_publ_author_name
"Fa-Nian Shi"
"F.A.A.Paz"
"P.I.Girginova"
"V.S.Amaral"
"J.Rocha"
"J.Klinowski"
"T.Trindade"
_chemical_name_systematic
;
catena-(bis(4,4'-Bipyridinium) (\m~2~-4,4'-bipyridine)-tetra-aqua-cobalt(ii) 
bis(\m~2~-N-(phosphonomethyl)iminodiacetato-N,O,O',O'')-dioxo-di-vanadium(iv) 
tetrahydrate)
;
_cell_volume   2483.088
_exptl_crystal_colour 'green'
_exptl_crystal_density_diffrn 1.677
_exptl_crystal_description 'block'
_diffrn_ambient_temperature 180
#These two values have been output from a single CSD field.
_refine_ls_R_factor_gt 0.0389
_refine_ls_wR_factor_gt 0.0389
_symmetry_cell_setting monoclinic
_symmetry_space_group_name_H-M 'P 2/c'
_symmetry_Int_Tables_number 13
loop_
_symmetry_equiv_pos_site_id
_symmetry_equiv_pos_as_xyz
1 x,y,z
2 -x,y,1/2-z
3 -x,-y,-z
4 x,-y,-1/2+z
_cell_length_a 10.797(2)
_cell_length_b 11.371(2)
_cell_length_c 20.680(4)
_cell_angle_alpha 90
_cell_angle_beta 102.04(3)
_cell_angle_gamma 90
_cell_formula_units_Z 2
loop_
_atom_type_symbol
_atom_type_radius_bond
C 0.68
H 0.23
Co 1.33
N 0.70
O 0.68
P 1.05
V 1.31
loop_
_atom_site_label
_atom_site_type_symbol
_atom_site_fract_x
_atom_site_fract_y
_atom_site_fract_z
V1 V 0.79715(3) 0.62294(4) 0.991740(19)
N1 N 0.97968(17) 0.74507(17) 1.02559(9)
P1 P 1.04485(6) 0.54039(5) 1.09110(3)
C1 C 1.0932(2) 0.6716(2) 1.05149(12)
H1 H 1.15520 0.71730 1.08390
H2 H 1.13410 0.64840 1.01480
C2 C 0.9860(2) 0.8065(2) 0.96389(12)
H3 H 1.02700 0.75540 0.93570
H4 H 1.03710 0.87900 0.97390
C3 C 0.8519(2) 0.8375(2) 0.92754(13)
C4 C 0.9495(2) 0.8265(2) 1.07550(13)
H5 H 0.93660 0.90620 1.05590
H6 H 1.02290 0.83030 1.11320
C5 C 0.8331(2) 0.7926(2) 1.10123(12)
O1 O 0.66342(16) 0.55637(16) 0.97590(9)
O2 O 0.90976(14) 0.51750(14) 1.05304(8)
O3 O 1.13099(15) 0.43698(14) 1.08354(8)
O4 O 1.05192(17) 0.56643(15) 1.16382(8)
O5 O 0.76196(15) 0.77498(15) 0.94012(8)
O6 O 0.8385(2) 0.9191(2) 0.88767(13)
O7 O 0.76490(16) 0.70938(16) 1.07285(9)
O8 O 0.81061(19) 0.8511(2) 1.14873(9)
Co1 Co 0.50000 -0.06332(4) 0.25000
O9 O 0.31725(15) -0.06967(15) 0.18973(9)
H7 H 0.260(2) -0.123(2) 0.2027(13)
H8 H 0.271(2) -0.0132(19) 0.1615(12)
O10 O 0.57636(16) -0.05883(15) 0.16490(8)
H9 H 0.6543(14) -0.093(2) 0.1624(12)
H10 H 0.5235(19) -0.065(2) 0.1226(7)
N2 N 0.50000 0.1237(2) 0.25000
N3 N 0.50000 0.7484(2) 0.25000
C6 C 0.4544(2) 0.1855(2) 0.19488(11)
H11 H 0.42250 0.14360 0.15520
C7 C 0.4513(2) 0.3064(2) 0.19287(11)
H12 H 0.41620 0.34600 0.15280
C8 C 0.50000 0.3705(3) 0.25000
C9 C 0.50000 0.5012(3) 0.25000
C10 C 0.4431(2) 0.5654(2) 0.19438(12)
H13 H 0.40260 0.52580 0.15520
C11 C 0.4457(2) 0.6866(2) 0.19643(12)
H14 H 0.40690 0.72860 0.15780
N4 N 0.8323(2) 0.4268(2) 0.24543(11)
H15 H 0.871(3) 0.474(3) 0.2808(16)
N5 N 0.5675(2) 0.1112(2) -0.04219(10)
C12 C 0.8305(3) 0.3094(3) 0.24954(13)
H16 H 0.86650 0.27200 0.29020
C13 C 0.7772(3) 0.2424(3) 0.19549(12)
H17 H 0.77590 0.15900 0.19870
C14 C 0.7249(2) 0.2981(2) 0.13589(11)
C15 C 0.7271(2) 0.4205(2) 0.13394(12)
H18 H 0.69040 0.46080 0.09430
C16 C 0.7823(3) 0.4826(3) 0.18924(13)
H19 H 0.78490 0.56610 0.18760
C17 C 0.6556(2) 0.0621(3) 0.00507(13)
H20 H 0.68380 -0.01500 -0.00220
C18 C 0.7081(2) 0.1173(2) 0.06396(12)
H21 H 0.76970 0.07830 0.09640
C19 C 0.6693(2) 0.2307(2) 0.07497(11)
C20 C 0.5762(2) 0.2818(2) 0.02665(12)
H22 H 0.54580 0.35860 0.03260
C21 C 0.5285(2) 0.2189(3) -0.03025(13)
H23 H 0.46420 0.25440 -0.06280
O11 O 0.1548(2) 0.7731(2) 0.22203(10)
H24 H 0.110(3) 0.705(2) 0.2045(16)
H25 H 0.143(4) 0.786(3) 0.2652(9)
O12 O 0.9845(4) 0.0616(5) 0.1910(3)
V1B V 1.20285(3) 0.37706(4) 1.008260(19)
N1B N 1.02032(17) 0.25493(17) 0.97441(9)
P1B P 0.95515(6) 0.45961(5) 0.90890(3)
C1B C 0.9068(2) 0.3284(2) 0.94851(12)
H1B H 0.84480 0.28270 0.91610
H2B H 0.86590 0.35160 0.98520
C2B C 1.0140(2) 0.1935(2) 1.03611(12)
H3B H 0.97300 0.24460 1.06430
H4B H 0.96290 0.12100 1.02610
C3B C 1.1481(2) 0.1625(2) 1.07246(13)
C4B C 1.0505(2) 0.1735(2) 0.92450(13)
H5B H 1.06340 0.09380 0.94410
H6B H 0.97710 0.16970 0.88680
C5B C 1.1669(2) 0.2074(2) 0.89877(12)
O1B O 1.33658(16) 0.44363(16) 1.02410(9)
O2B O 1.09024(14) 0.48250(14) 0.94696(8)
O3B O 0.86901(15) 0.56302(14) 0.91646(8)
O4B O 0.94808(17) 0.43357(15) 0.83618(8)
O5B O 1.23804(15) 0.22502(15) 1.05988(8)
O6B O 1.1615(2) 0.0809(2) 1.11233(13)
O7B O 1.23510(16) 0.29062(16) 0.92715(9)
O8B O 1.18939(19) 0.1489(2) 0.85127(9)
Co1* Co 0.50000 0.93668(4) 0.25000
O9A O 0.68275(15) -0.06967(15) 0.31027(9)
H7A H 0.740(2) -0.123(2) 0.2973(13)
H8A H 0.729(2) -0.0132(19) 0.3385(12)
O10A O 0.42364(16) -0.05883(15) 0.33510(8)
H9A H 0.3457(14) -0.093(2) 0.3376(12)
H10A H 0.4765(19) -0.065(2) 0.3774(7)
N3* N 0.50000 -0.2516(2) 0.25000
C6A C 0.5456(2) 0.1855(2) 0.30512(11)
H11A H 0.57750 0.14360 0.34480
C7A C 0.5487(2) 0.3064(2) 0.30713(11)
H12A H 0.58380 0.34600 0.34720
C10A C 0.5569(2) 0.5654(2) 0.30562(12)
H13A H 0.59740 0.52580 0.34480
C11A C 0.5543(2) 0.6866(2) 0.30357(12)
H14A H 0.59310 0.72860 0.34220
#END
