
#######################################################################
#
#                 Cambridge Crystallographic Data Centre
#                                CCDC
#
#######################################################################
#
# If this CIF has been generated from an entry in the Cambridge
# Structural Database, then it will include bibliographic, chemical,
# crystal, experimental, refinement or atomic coordinate data resulting
# from the CCDC's data processing and validation procedures.
#
#######################################################################

data_CSD_CIF_SEDJUH
_audit_creation_date 2006-05-18
_audit_creation_method CSD-ConQuest-V1
_database_code_CSD SEDJUH
_database_code_depnum_ccdc_archive 'CCDC 299357'
_chemical_formula_sum 'C40 H32 Cu3 N8 O40 P1 W12'
_chemical_formula_moiety
;
(C40 H32 Cu3 N8 3+)n,n(O40 P1 W12 3-)
;
_journal_coden_Cambridge 1147
_journal_volume 6
_journal_year 2006
_journal_page_first 572
_journal_name_full 'Cryst.Growth Des. '
loop_
_publ_author_name
"Yan-Ping Ren"
"Xiang-Jian Kong"
"La-Sheng Long"
"Rong-Bin Huang"
"Lan-Sun Zheng"
_chemical_name_systematic
;
catena-(tetrakis(\m~2~-2,4'-Bipyridine)-tri-copper(i) 
(\m~12~-phosphato)-tetracosakis(\m~2~-oxo)-dodecaoxo-dodeca-tungsten)
;
_chemical_name_common
;
catena-(tetrakis(mu!2$-2,4'-Bipyridine)-tri-copper(i) 
phosphato-dodecamolybdate)
;
_cell_volume   1659.711
_exptl_crystal_colour 'red'
_exptl_crystal_density_diffrn 3.694
_exptl_crystal_description 'needle'
_diffrn_ambient_temperature 123
_refine_special_details
;
The phosphate group is disordered by symmetry.

;
#These two values have been output from a single CSD field.
_refine_ls_R_factor_gt 0.0499
_refine_ls_wR_factor_gt 0.0499
_symmetry_cell_setting triclinic
_symmetry_space_group_name_H-M 'P -1'
_symmetry_Int_Tables_number 2
loop_
_symmetry_equiv_pos_site_id
_symmetry_equiv_pos_as_xyz
1 x,y,z
2 -x,-y,-z
_cell_length_a 11.2758(19)
_cell_length_b 12.141(2)
_cell_length_c 13.492(2)
_cell_angle_alpha 106.211(3)
_cell_angle_beta 101.978(3)
_cell_angle_gamma 102.460(3)
_cell_formula_units_Z 1
loop_
_atom_type_symbol
_atom_type_radius_bond
C 0.68
H 0.23
Cu 1.52
N 0.68
O 0.64
P 1.05
W 1.47
loop_
_atom_site_label
_atom_site_type_symbol
_atom_site_fract_x
_atom_site_fract_y
_atom_site_fract_z
W1 W 0.94831(4) 0.65575(4) 0.24547(3)
W2 W 0.69706(4) 0.42121(4) 0.04250(3)
W3 W 1.24930(4) 0.73961(4) 0.20000(3)
W4 W 1.26023(4) 0.43952(5) 0.15032(4)
W5 W 1.01491(4) 0.19906(4) -0.05395(4)
W6 W 0.95642(4) 0.35203(5) 0.18718(3)
P1 P 1.00000 0.50000 0.00000
O1 O 1.0375(10) 0.3992(7) 0.0451(9)
O2? O 1.0312(10) 0.6278(7) 0.0886(9)
O3? O 1.1473(6) 0.5484(10) 0.037(1)
O4 O 0.9109(7) 0.4843(10) 0.0716(8)
O5 O 0.7880(8) 0.3417(7) 0.1193(8)
O6 O 0.6767(11) 0.2894(9) -0.0856(7)
O7 O 0.6735(11) 0.5135(8) -0.0468(7)
O8 O 0.9314(8) 0.7601(8) 0.1657(8)
O9 O 1.3644(9) 0.8542(10) 0.2970(7)
O10 O 1.1237(8) 0.7150(8) 0.2745(8)
O11 O 1.2879(11) 0.6029(8) 0.2248(7)
O12 O 1.3809(8) 0.4105(8) 0.2233(7)
O13 O 0.9708(8) 0.5154(7) 0.2692(7)
O14 O 1.0215(8) 0.0584(8) -0.0827(7)
O15 O 0.9347(9) 0.2838(7) 0.2782(6)
O16 O 1.1764(9) 0.2915(13) 0.0409(9)
O17 O 0.9536(10) 0.2261(14) 0.0683(9)
O18 O 0.5560(8) 0.3809(9) 0.0645(9)
O19 O 1.1538(7) 0.8235(8) 0.1346(8)
O20 O 0.9259(10) 0.7293(12) 0.3617(8)
O21 O 0.7813(8) 0.5629(7) 0.1602(7)
O22 O 1.1355(8) 0.4006(13) 0.2200(9)
Cu1 Cu 1.00000 0.50000 0.50000
Cu2 Cu 0.46579(13) 0.07880(13) 0.22733(11)
N1 N 0.3701(8) 0.1805(8) 0.3089(7)
C1 C 0.2444(12) 0.1311(12) 0.2807(11)
H1 H 0.20480 0.06590 0.21510
C2 C 0.172(1) 0.1711(12) 0.3429(12)
H2 H 0.08330 0.13310 0.32050
C3 C 0.2235(12) 0.2626(13) 0.4347(13)
H3 H 0.17240 0.28960 0.47850
C4 C 0.3539(12) 0.3188(13) 0.4662(11)
H4 H 0.39270 0.38600 0.53040
C5 C 0.4249(10) 0.274(1) 0.4012(9)
C6 C 0.563(1) 0.3304(10) 0.4242(8)
C7 C 0.6419(12) 0.3606(12) 0.5268(9)
H5 H 0.60860 0.34770 0.58310
C8 C 0.7699(11) 0.4098(12) 0.5457(9)
H6 H 0.82440 0.42610 0.61530
C9 C 0.7424(10) 0.4136(11) 0.3737(9)
H7 H 0.77590 0.43620 0.32090
C10 C 0.6146(10) 0.3595(11) 0.3479(9)
H8 H 0.56190 0.34220 0.27740
N2 N 0.8218(9) 0.4360(9) 0.4709(8)
N3 N 0.3766(8) 0.0451(8) 0.0732(7)
C11 C 0.3768(13) -0.0505(11) -0.4083(10)
H9 H 0.43240 -0.08470 -0.44230
C12 C 0.2886(14) -0.0153(13) -0.4685(10)
H10 H 0.28100 -0.02660 -0.54230
C13 C 0.2116(15) 0.0372(16) -0.4167(11)
H11 H 0.14980 0.06420 -0.45490
C14 C 0.2232(14) 0.0509(13) -0.3112(11)
H12 H 0.17040 0.08740 -0.27510
C15 C 0.3128(10) 0.0108(10) -0.2583(9)
C16 C 0.3306(10) 0.0218(11) -0.1430(9)
C17 C 0.3464(11) 0.1297(10) -0.0660(9)
H13 H 0.34100 0.19770 -0.08630
C18 C 0.3698(11) 0.1387(11) 0.0394(10)
H14 H 0.38200 0.21430 0.09160
C19 C 0.3508(12) -0.0621(9) -0.0056(9)
H15 H 0.34810 -0.13160 0.01430
C20 C 0.3292(12) -0.0743(10) -0.1100(9)
H16 H 0.31270 -0.15130 -0.16170
N4 N 0.3901(8) -0.0403(8) -0.3063(7)
W1A W 1.05169(4) 0.34425(4) -0.24547(3)
W2A W 1.30294(4) 0.57879(4) -0.04250(3)
W3A W 0.75070(4) 0.26039(4) -0.20000(3)
W4A W 0.73977(4) 0.56048(5) -0.15032(4)
W5A W 0.98509(4) 0.80094(4) 0.05395(4)
W6A W 1.04358(4) 0.64797(5) -0.18718(3)
O1A O 0.9625(10) 0.6008(7) -0.0451(9)
O4A O 1.0891(7) 0.5157(10) -0.0716(8)
O5A O 1.2120(8) 0.6583(7) -0.1193(8)
O6A O 1.3233(11) 0.7106(9) 0.0856(7)
O7A O 1.3265(11) 0.4865(8) 0.0468(7)
O8A O 1.0686(8) 0.2399(8) -0.1657(8)
O9A O 0.6356(9) 0.1458(10) -0.2970(7)
O10A O 0.8763(8) 0.2850(8) -0.2745(8)
O11A O 0.7121(11) 0.3971(8) -0.2248(7)
O12A O 0.6191(8) 0.5895(8) -0.2233(7)
O13A O 1.0292(8) 0.4846(7) -0.2692(7)
O14A O 0.9785(8) 0.9416(8) 0.0827(7)
O15A O 1.0653(9) 0.7162(7) -0.2782(6)
O16A O 0.8236(9) 0.7085(13) -0.0409(9)
O17A O 1.0464(10) 0.7739(14) -0.0683(9)
O18A O 1.4440(8) 0.6191(9) -0.0645(9)
O19A O 0.8462(7) 0.1765(8) -0.1346(8)
O20A O 1.0741(10) 0.2707(12) -0.3617(8)
O21A O 1.2187(8) 0.4371(7) -0.1602(7)
O22A O 0.8645(8) 0.5994(13) -0.2200(9)
Cu2A Cu 1.53421(13) 0.92120(13) 0.77267(11)
Cu2A* Cu 0.53421(13) -0.07880(13) -0.22733(11)
N1A N 1.6299(8) 0.8195(8) 0.6911(7)
C1A C 1.7556(12) 0.8689(12) 0.7193(11)
H1A H 1.79520 0.93410 0.78490
C2A C 1.828(1) 0.8289(12) 0.6571(12)
H2A H 1.91670 0.86690 0.67950
C3A C 1.7765(12) 0.7374(13) 0.5653(13)
H3A H 1.82760 0.71040 0.52150
C4A C 1.6461(12) 0.6812(13) 0.5338(11)
H4A H 1.60730 0.61400 0.46960
C5A C 1.5751(10) 0.726(1) 0.5988(9)
C6A C 1.437(1) 0.6696(10) 0.5758(8)
C7A C 1.3581(12) 0.6394(12) 0.4732(9)
H5A H 1.39140 0.65230 0.41690
C8A C 1.2301(11) 0.5902(12) 0.4543(9)
H6A H 1.17560 0.57390 0.38470
C9A C 1.2576(10) 0.5864(11) 0.6263(9)
H7A H 1.22410 0.56380 0.67910
C10A C 1.3854(10) 0.6405(11) 0.6521(9)
H8A H 1.43810 0.65780 0.72260
N2A N 1.1782(9) 0.5640(9) 0.5291(8)
N3A N 0.6234(8) -0.0451(8) -0.0732(7)
N3A* N 1.6234(8) 0.9549(8) 0.9268(7)
C11A C 0.6232(13) 0.0505(11) 0.4083(10)
H9A H 0.56760 0.08470 0.44230
C12A C 0.7114(14) 0.0153(13) 0.4685(10)
H10A H 0.71900 0.02660 0.54230
C13A C 0.7884(15) -0.0372(16) 0.4167(11)
H11A H 0.85020 -0.06420 0.45490
C14A C 0.7768(14) -0.0509(13) 0.3112(11)
H12A H 0.82960 -0.08740 0.27510
C15A C 0.6872(10) -0.0108(10) 0.2583(9)
C16A C 0.6694(10) -0.0218(11) 0.1430(9)
C17A C 0.6536(11) -0.1297(10) 0.0660(9)
H13A H 0.65900 -0.19770 0.08630
C18A C 0.6302(11) -0.1387(11) -0.0394(10)
H14A H 0.61800 -0.21430 -0.09160
C19A C 0.6492(12) 0.0621(9) 0.0056(9)
H15A H 0.65190 0.13160 -0.01430
C20A C 0.6708(12) 0.0743(10) 0.1100(9)
H16A H 0.68730 0.15130 0.16170
N4A N 0.6099(8) 0.0403(8) 0.3063(7)
N4* N 1.3901(8) 0.9597(8) 0.6937(7)
#END
