
#######################################################################
#
#                 Cambridge Crystallographic Data Centre
#                                CCDC
#
#######################################################################
#
# If this CIF has been generated from an entry in the Cambridge
# Structural Database, then it will include bibliographic, chemical,
# crystal, experimental, refinement or atomic coordinate data resulting
# from the CCDC's data processing and validation procedures.
#
#######################################################################

data_CSD_CIF_SEDJIV
_audit_creation_date 2006-05-18
_audit_creation_method CSD-ConQuest-V1
_database_code_CSD SEDJIV
_database_code_depnum_ccdc_archive 'CCDC 299355'
_chemical_formula_sum 'C40 H32 Ag3 N8 O40 P1 W12'
_chemical_formula_moiety
;
(C40 H32 Ag3 N8 3+)n,n(O40 P1 W12 3-)
;
_journal_coden_Cambridge 1147
_journal_volume 6
_journal_year 2006
_journal_page_first 572
_journal_name_full 'Cryst.Growth Des. '
loop_
_publ_author_name
"Yan-Ping Ren"
"Xiang-Jian Kong"
"La-Sheng Long"
"Rong-Bin Huang"
"Lan-Sun Zheng"
_chemical_name_systematic
;
catena-(tetrakis(\m~2~-2,4'-Bipyridine)-tri-silver(i) 
(\m~12~-phosphato)-tetracosakis(\m~2~-oxo)-dodecaoxo-dodeca-tungsten)
;
_chemical_name_common
;
catena-(tetrakis(mu!2$-2,4'-Bipyridine)-tri-silver(i) 
phosphato-dodecamolybdate)
;
_cell_volume   1678.553
_exptl_crystal_colour 'pale yellow'
_exptl_crystal_density_diffrn 3.784
_exptl_crystal_description 'block'
_diffrn_ambient_temperature 123
_refine_special_details
;
The phosphate group is disordered by symmetry.

;
#These two values have been output from a single CSD field.
_refine_ls_R_factor_gt 0.0582
_refine_ls_wR_factor_gt 0.0582
_symmetry_cell_setting triclinic
_symmetry_space_group_name_H-M 'P -1'
_symmetry_Int_Tables_number 2
loop_
_symmetry_equiv_pos_site_id
_symmetry_equiv_pos_as_xyz
1 x,y,z
2 -x,-y,-z
_cell_length_a 11.4489(17)
_cell_length_b 12.2137(19)
_cell_length_c 13.357(2)
_cell_angle_alpha 105.404(2)
_cell_angle_beta 100.976(2)
_cell_angle_gamma 104.254(2)
_cell_formula_units_Z 1
loop_
_atom_type_symbol
_atom_type_radius_bond
C 0.68
H 0.23
Ag 1.59
N 0.68
O 0.67
P 1.05
W 1.43
loop_
_atom_site_label
_atom_site_type_symbol
_atom_site_fract_x
_atom_site_fract_y
_atom_site_fract_z
W1 W 0.95521(3) 0.65538(3) 0.24924(3)
W2 W 0.70066(3) 0.42064(3) 0.04997(3)
W3 W 1.25145(3) 0.74142(3) 0.19533(3)
W4 W 1.25681(3) 0.44155(4) 0.14875(3)
W5 W 0.98985(4) 0.79955(4) 0.05203(3)
W6 W 0.95599(4) 0.35248(4) 0.19223(3)
P1 P 1.00000 0.50000 0.00000
O1 O 1.0369(8) 0.4116(6) 0.0535(6)
O2? O 1.0354(9) 0.6174(6) 0.0886(6)
O3? O 1.0692(6) 0.5068(8) -0.0830(5)
O4 O 0.8608(5) 0.4507(8) -0.0488(7)
O5 O 0.7896(8) 0.3412(6) 0.1284(6)
O6 O 0.6811(9) 0.2904(7) -0.0766(5)
O7 O 0.6809(9) 0.5132(7) -0.0390(6)
O8 O 0.9412(7) 0.7585(7) 0.1666(7)
O9 O 1.3697(7) 0.8538(8) 0.2891(6)
O10 O 1.1292(6) 0.7157(6) 0.2746(7)
O11 O 1.2893(9) 0.6066(6) 0.2222(5)
O12 O 1.3762(6) 0.4166(6) 0.2219(5)
O13 O 0.9764(7) 0.5148(6) 0.2746(6)
O14 O 0.9857(6) 0.9401(6) 0.0809(6)
O15 O 0.9350(6) 0.2864(5) 0.2857(5)
O16 O 0.8302(9) 0.7056(10) -0.0394(8)
O17 O 1.0493(7) 0.7769(11) -0.0758(8)
O18 O 0.5622(7) 0.3802(7) 0.0733(8)
O19 O 1.1571(6) 0.8216(7) 0.1297(7)
O20 O 0.9354(7) 0.7305(9) 0.3670(6)
O21 O 0.7872(8) 0.5594(6) 0.1662(7)
O22 O 1.1338(7) 0.4013(11) 0.2203(8)
Ag1 Ag 1.00000 0.50000 0.50000
Ag2 Ag 0.46808(7) 0.06919(7) 0.23511(6)
N1 N 0.3523(7) 0.1840(7) 0.3085(6)
C1 C 0.2244(8) 0.1322(9) 0.2784(8)
H1 H 0.18710 0.06520 0.21420
C2 C 0.1485(9) 0.1722(8) 0.3363(9)
H2 H 0.06010 0.13690 0.31130
C3 C 0.2028(8) 0.2640(9) 0.4305(8)
H3 H 0.15260 0.29200 0.47400
C4 C 0.3342(9) 0.3179(9) 0.4642(8)
H4 H 0.37320 0.38310 0.52960
C5 C 0.4041(8) 0.2743(8) 0.4008(7)
C6 C 0.5431(8) 0.3295(8) 0.4261(7)
C7 C 0.6229(9) 0.3568(8) 0.5287(7)
H5 H 0.58880 0.34300 0.58530
C8 C 0.7477(8) 0.4023(8) 0.5477(7)
H6 H 0.80010 0.41650 0.61720
C9 C 0.7249(8) 0.4061(8) 0.3721(7)
H7 H 0.75950 0.42570 0.31750
C10 C 0.5968(8) 0.3548(8) 0.3476(7)
H8 H 0.54580 0.33700 0.27670
N2 N 0.8030(7) 0.4296(7) 0.4692(6)
N3 N 0.3687(7) 0.0421(7) 0.0628(6)
C11 C 0.3493(9) -0.0487(9) -0.4308(8)
H9 H 0.39690 -0.08690 -0.47070
C12 C 0.2613(10) -0.0079(10) -0.4822(9)
H10 H 0.25040 -0.01750 -0.55660
C13 C 0.1915(11) 0.0443(10) -0.4304(9)
H11 H 0.13150 0.07230 -0.46690
C14 C 0.2075(10) 0.0573(10) -0.3237(9)
H12 H 0.15770 0.09370 -0.28520
C15 C 0.2960(9) 0.0175(8) -0.2721(8)
C16 C 0.3199(8) 0.0257(9) -0.1559(8)
C17 C 0.3348(9) 0.1306(9) -0.0752(8)
H13 H 0.32750 0.19900 -0.09370
C18 C 0.3598(8) 0.1366(8) 0.0297(8)
H14 H 0.37170 0.21060 0.08300
C19 C 0.3458(9) -0.0633(8) -0.0200(7)
H15 H 0.34680 -0.13290 -0.00120
C20 C 0.3222(8) -0.0737(8) -0.1259(7)
H16 H 0.30740 -0.14860 -0.17900
N4 N 0.3687(7) -0.0353(7) -0.3249(6)
W1A W 1.04479(3) 0.34462(3) -0.24924(3)
W2A W 1.29934(3) 0.57936(3) -0.04997(3)
W3A W 0.74855(3) 0.25858(3) -0.19533(3)
W4A W 0.74319(3) 0.55845(4) -0.14875(3)
W5A W 1.01015(4) 0.20045(4) -0.05203(3)
W6A W 1.04401(4) 0.64752(4) -0.19223(3)
O1A O 0.9631(8) 0.5884(6) -0.0535(6)
O4A O 1.1392(5) 0.5493(8) 0.0488(7)
O5A O 1.2104(8) 0.6588(6) -0.1284(6)
O6A O 1.3189(9) 0.7096(7) 0.0766(5)
O7A O 1.3191(9) 0.4868(7) 0.0390(6)
O8A O 1.0588(7) 0.2415(7) -0.1666(7)
O9A O 0.6303(7) 0.1462(8) -0.2891(6)
O10A O 0.8708(6) 0.2843(6) -0.2746(7)
O11A O 0.7107(9) 0.3934(6) -0.2222(5)
O12A O 0.6238(6) 0.5834(6) -0.2219(5)
O13A O 1.0236(7) 0.4852(6) -0.2746(6)
O14A O 1.0143(6) 0.0599(6) -0.0809(6)
O15A O 1.0650(6) 0.7136(5) -0.2857(5)
O16A O 1.1698(9) 0.2944(10) 0.0394(8)
O17A O 0.9507(7) 0.2231(11) 0.0758(8)
O18A O 1.4378(7) 0.6198(7) -0.0733(8)
O19A O 0.8429(6) 0.1784(7) -0.1297(7)
O20A O 1.0646(7) 0.2695(9) -0.3670(6)
O21A O 1.2128(8) 0.4406(6) -0.1662(7)
O22A O 0.8662(7) 0.5987(11) -0.2203(8)
Ag2A Ag 1.53192(7) 0.93081(7) 0.76489(6)
Ag2A* Ag 0.53192(7) -0.06919(7) -0.23511(6)
N1A N 1.6477(7) 0.8160(7) 0.6915(6)
C1A C 1.7756(8) 0.8678(9) 0.7216(8)
H1A H 1.81290 0.93480 0.78580
C2A C 1.8515(9) 0.8278(8) 0.6637(9)
H2A H 1.93990 0.86310 0.68870
C3A C 1.7972(8) 0.7360(9) 0.5695(8)
H3A H 1.84740 0.70800 0.52600
C4A C 1.6658(9) 0.6821(9) 0.5358(8)
H4A H 1.62680 0.61690 0.47040
C5A C 1.5959(8) 0.7257(8) 0.5992(7)
C6A C 1.4569(8) 0.6705(8) 0.5739(7)
C7A C 1.3771(9) 0.6432(8) 0.4713(7)
H5A H 1.41120 0.65700 0.41470
C8A C 1.2523(8) 0.5977(8) 0.4523(7)
H6A H 1.19990 0.58350 0.38280
C9A C 1.2751(8) 0.5939(8) 0.6279(7)
H7A H 1.24050 0.57430 0.68250
C10A C 1.4032(8) 0.6452(8) 0.6524(7)
H8A H 1.45420 0.66300 0.72330
N2A N 1.1970(7) 0.5704(7) 0.5308(6)
N3A N 0.6313(7) -0.0421(7) -0.0628(6)
N3A* N 1.6313(7) 0.9579(7) 0.9372(6)
C11A C 0.6507(9) 0.0487(9) 0.4308(8)
H9A H 0.60310 0.08690 0.47070
C12A C 0.7387(10) 0.0079(10) 0.4822(9)
H10A H 0.74960 0.01750 0.55660
C13A C 0.8085(11) -0.0443(10) 0.4304(9)
H11A H 0.86850 -0.07230 0.46690
C14A C 0.7925(10) -0.0573(10) 0.3237(9)
H12A H 0.84230 -0.09370 0.28520
C15A C 0.7040(9) -0.0175(8) 0.2721(8)
C16A C 0.6801(8) -0.0257(9) 0.1559(8)
C17A C 0.6652(9) -0.1306(9) 0.0752(8)
H13A H 0.67250 -0.19900 0.09370
C18A C 0.6402(8) -0.1366(8) -0.0297(8)
H14A H 0.62830 -0.21060 -0.08300
C19A C 0.6542(9) 0.0633(8) 0.0200(7)
H15A H 0.65320 0.13290 0.00120
C20A C 0.6778(8) 0.0737(8) 0.1259(7)
H16A H 0.69260 0.14860 0.17900
N4A N 0.6313(7) 0.0353(7) 0.3249(6)
N4* N 1.3687(7) 0.9647(7) 0.6751(6)
#END
