
#######################################################################
#
#                 Cambridge Crystallographic Data Centre
#                                CCDC
#
#######################################################################
#
# If this CIF has been generated from an entry in the Cambridge
# Structural Database, then it will include bibliographic, chemical,
# crystal, experimental, refinement or atomic coordinate data resulting
# from the CCDC's data processing and validation procedures.
#
#######################################################################

data_CSD_CIF_SEDLET
_audit_creation_date 2006-05-18
_audit_creation_method CSD-ConQuest-V1
_database_code_CSD SEDLET
_database_code_depnum_ccdc_archive 'CCDC 284325'
_chemical_formula_sum 'C165 H149 Li1 N12 O10 P6 S12 Ti2'
_chemical_formula_moiety
;
(C51 H45 Li1 N7 O8 S12 Ti2 3-)n,3n(C36 H30 N1 P2 1+),2n(C3 H7 N1 O1)
;
_journal_coden_Cambridge 222
_journal_year 2006
_journal_page_first 769
_journal_name_full 'Dalton Trans. '
loop_
_publ_author_name
"F.E.Hahn"
"T.Kreickmann"
"T.Pape"
_chemical_name_systematic
;
catena-(tris(bis(Triphenylphosphoranylidene)ammonium) 
bis(\m~3~-N,N'-bis(2,3-dimercaptobenzoyl)ethane-1,2-diamine-O,S,S',S'',S''')-(
\m~2~-N,N'-bis(2,3-dimercaptobenzoyl)ethane-1,2-diamine-S,S',S'',S''')-aqua-(N
,N-dimethylformamide-O)-lithium-di-titanium(iv) N,N-dimethylformamide 
solvate)
;
_cell_volume  15426.607
_exptl_crystal_colour 'dark red'
_exptl_crystal_density_diffrn 1.349
_exptl_crystal_description 'needles'
_diffrn_ambient_temperature 150
#These two values have been output from a single CSD field.
_refine_ls_R_factor_gt 0.0522
_refine_ls_wR_factor_gt 0.0522
_symmetry_cell_setting monoclinic
_symmetry_space_group_name_H-M 'P 21/c'
_symmetry_Int_Tables_number 14
loop_
_symmetry_equiv_pos_site_id
_symmetry_equiv_pos_as_xyz
1 x,y,z
2 -x,1/2+y,1/2-z
3 -x,-y,-z
4 x,-1/2-y,-1/2+z
_cell_length_a 17.8522(4)
_cell_length_b 23.0986(5)
_cell_length_c 37.9215(9)
_cell_angle_alpha 90
_cell_angle_beta 99.417(2)
_cell_angle_gamma 90
_cell_formula_units_Z 4
loop_
_atom_type_symbol
_atom_type_radius_bond
C 0.68
H 0.23
Li 0.90
N 0.68
O 0.68
P 1.05
S 1.02
Ti 1.47
loop_
_atom_site_label
_atom_site_type_symbol
_atom_site_fract_x
_atom_site_fract_y
_atom_site_fract_z
Ti1 Ti 0.66611(3) 0.83444(3) 0.792731(16)
Ti2 Ti 0.94581(3) 0.83862(3) 0.563686(16)
S1 S 0.53368(5) 0.83090(4) 0.79265(2)
S2 S 0.62873(5) 0.78295(4) 0.73609(2)
S3 S 0.82274(5) 0.79573(4) 0.56919(2)
S4 S 0.92783(5) 0.78152(4) 0.51084(2)
N1 N 0.58921(17) 0.73182(14) 0.66185(8)
H1 H 0.61890 0.74940 0.67940
N2 N 0.66563(18) 0.75874(15) 0.57729(9)
H2 H 0.71320 0.76780 0.58540
O1 O 0.47384(15) 0.69557(12) 0.64185(7)
O2 O 0.58394(17) 0.72421(15) 0.53138(8)
C1 C 0.52974(19) 0.77143(14) 0.72867(9)
C2 C 0.4899(2) 0.78923(15) 0.75614(9)
C3 C 0.4130(2) 0.77611(17) 0.75445(11)
H3 H 0.38700 0.78890 0.77300
C4 C 0.3746(2) 0.74485(18) 0.72623(11)
H4 H 0.32290 0.73470 0.72580
C5 C 0.4119(2) 0.72843(15) 0.6986(1)
H5 H 0.38470 0.70770 0.67890
C6 C 0.48877(19) 0.74146(14) 0.69881(9)
C7 C 0.5173(2) 0.72108(14) 0.66551(9)
C8 C 0.6208(2) 0.71576(17) 0.63012(10)
H6 H 0.59530 0.68020 0.61970
H7 H 0.67550 0.70700 0.63720
C9 C 0.6115(2) 0.76344(17) 0.60167(11)
H8 H 0.55950 0.76160 0.58790
H9 H 0.61770 0.80160 0.61370
C10 C 0.6482(2) 0.74155(15) 0.54318(10)
C11 C 0.70854(19) 0.74287(14) 0.51965(9)
C12 C 0.6845(2) 0.72020(15) 0.48546(10)
H10 H 0.63430 0.70540 0.47970
C13 C 0.7309(2) 0.71861(16) 0.45971(10)
H11 H 0.71210 0.70400 0.43650
C14 C 0.8048(2) 0.73838(16) 0.46772(10)
H12 H 0.83710 0.73680 0.45020
C15 C 0.8318(2) 0.76063(14) 0.50166(9)
C16 C 0.78459(19) 0.76367(14) 0.52790(9)
S5 S 0.68593(5) 0.76298(4) 0.83837(2)
S6 S 0.79589(5) 0.80727(4) 0.78617(2)
S7 S 0.98905(5) 0.77500(4) 0.61431(2)
S8 S 1.07842(5) 0.84857(4) 0.56584(3)
N3 N 0.93767(19) 0.75055(16) 0.76642(9)
H13 H 0.88840 0.74870 0.75900
N4 N 1.02783(16) 0.72046(13) 0.68622(8)
H14 H 0.99710 0.72910 0.66630
O3 O 1.03089(15) 0.74315(14) 0.81284(8)
O4 O 1.14850(14) 0.70273(11) 0.71173(7)
C17 C 0.82976(19) 0.75683(14) 0.81985(9)
C18 C 0.7814(2) 0.74090(15) 0.84420(9)
C19 C 0.8091(2) 0.70613(16) 0.87382(10)
H15 H 0.77600 0.69480 0.88980
C20 C 0.8842(2) 0.68808(18) 0.88006(11)
H16 H 0.90290 0.66570 0.90060
C21 C 0.9311(2) 0.70286(16) 0.85623(10)
H17 H 0.98250 0.69020 0.86050
C22 C 0.9053(2) 0.73609(15) 0.82575(9)
C23 C 0.9624(2) 0.74401(14) 0.80108(10)
C24 C 0.9859(2) 0.76048(17) 0.73982(10)
H18 H 1.03670 0.77300 0.75190
H19 H 0.96410 0.79210 0.72370
C25 C 0.9943(2) 0.70616(16) 0.71762(9)
H20 H 1.02690 0.67770 0.73240
H21 H 0.94380 0.68830 0.71000
C26 C 1.10230(19) 0.72128(14) 0.68587(9)
C27 C 1.13146(19) 0.74685(14) 0.65409(9)
C28 C 1.2104(2) 0.74497(16) 0.65668(10)
H22 H 1.23930 0.72440 0.67590
C29 C 1.2475(2) 0.77199(18) 0.63220(11)
H23 H 1.30110 0.76880 0.63410
C30 C 1.2065(2) 0.80383(18) 0.60477(11)
H24 H 1.23220 0.82430 0.58860
C31 C 1.1276(2) 0.80594(16) 0.60078(10)
C32 C 1.08871(18) 0.77610(14) 0.62463(9)
S9 S 0.67365(5) 0.90377(4) 0.83909(2)
S10 S 0.68571(5) 0.92154(4) 0.75862(2)
S11 S 0.91948(6) 0.91292(4) 0.60647(2)
S12 S 0.92803(5) 0.91814(4) 0.52465(2)
N5 N 0.7244(2) 1.02100(14) 0.71537(9)
H25 H 0.70230 0.98730 0.71710
N6 N 0.8706(2) 1.00020(16) 0.65639(10)
H26 H 0.86760 0.96620 0.64570
O5 O 0.74460(16) 1.10988(11) 0.73787(7)
O6 O 0.91121(18) 1.09194(12) 0.65583(8)
C33 C 0.68466(19) 0.98300(15) 0.78571(9)
C34 C 0.67202(19) 0.97396(15) 0.82135(9)
C35 C 0.6634(2) 1.02071(16) 0.84365(10)
H27 H 0.65490 1.01380 0.86740
C36 C 0.6671(2) 1.07707(16) 0.83155(11)
H28 H 0.65830 1.10880 0.84630
C37 C 0.6838(2) 1.08653(16) 0.79769(11)
H29 H 0.68790 1.12520 0.78970
C38 C 0.6949(2) 1.04087(15) 0.77483(10)
C39 C 0.7221(2) 1.05908(15) 0.74098(10)
C40 C 0.7610(3) 1.03079(18) 0.68443(11)
H30 H 0.76370 1.07290 0.68000
H31 H 0.73010 1.01290 0.66310
C41 C 0.8406(3) 1.00544(19) 0.68974(12)
H32 H 0.87480 1.03040 0.70640
H33 H 0.83980 0.96670 0.70080
C42 C 0.9020(2) 1.04356(16) 0.64108(10)
C43 C 0.9224(2) 1.03471(16) 0.6046(1)
C44 C 0.9363(2) 1.08605(16) 0.58710(11)
H34 H 0.93750 1.12170 0.59970
C45 C 0.9484(2) 1.08615(16) 0.55198(12)
H35 H 0.95960 1.12130 0.54090
C46 C 0.9440(2) 1.03432(16) 0.53303(10)
H36 H 0.94820 1.03450 0.50840
C47 C 0.93347(19) 0.98200(15) 0.55016(10)
C48 C 0.92447(19) 0.98114(14) 0.58624(10)
N7 N 0.26513(17) 0.46241(13) 0.54212(8)
P1 P 0.17668(5) 0.47536(4) 0.53340(2)
P2 P 0.33979(5) 0.47330(4) 0.52597(2)
C49 C 0.1543(2) 0.54964(17) 0.54108(12)
C50 C 0.0932(3) 0.57925(18) 0.52173(16)
H37 H 0.06160 0.56060 0.50250
C51 C 0.0784(3) 0.6354(2) 0.5304(2)
H38 H 0.03740 0.65570 0.51660
C52 C 0.1224(4) 0.6627(2) 0.5589(2)
H39 H 0.11130 0.70140 0.56480
C53 C 0.1819(4) 0.6343(2) 0.57851(17)
H40 H 0.21220 0.65310 0.59810
C54 C 0.1982(3) 0.5773(2) 0.56986(13)
H41 H 0.23950 0.55740 0.58370
C55 C 0.1317(2) 0.43350(16) 0.56414(9)
C56 C 0.1730(2) 0.39388(17) 0.58624(10)
H42 H 0.22560 0.38890 0.58580
C57 C 0.1370(3) 0.36090(19) 0.60947(12)
H43 H 0.16560 0.33400 0.62520
C58 C 0.0610(2) 0.36727(18) 0.60954(11)
H44 H 0.03650 0.34350 0.62470
C59 C 0.0190(2) 0.4080(2) 0.58786(12)
H45 H -0.03370 0.41260 0.58830
C60 C 0.0552(2) 0.44186(19) 0.56546(12)
H46 H 0.02760 0.47080 0.55100
C61 C 0.1353(2) 0.45223(16) 0.48881(9)
C62 C 0.1165(2) 0.39413(17) 0.48426(10)
H47 H 0.12000 0.36950 0.50450
C63 C 0.0926(2) 0.37166(18) 0.45023(11)
H48 H 0.08130 0.33160 0.44710
C64 C 0.0856(2) 0.4081(2) 0.42104(11)
H49 H 0.06660 0.39350 0.39790
C65 C 0.1062(2) 0.4661(2) 0.42528(11)
H50 H 0.10250 0.49050 0.40490
C66 C 0.1322(2) 0.48837(18) 0.45905(11)
H51 H 0.14770 0.52770 0.46190
C67 C 0.33195(19) 0.46038(15) 0.47867(9)
C68 C 0.2980(2) 0.40891(16) 0.4652(1)
H52 H 0.27850 0.38280 0.48080
C69 C 0.2922(2) 0.39552(17) 0.42919(10)
H53 H 0.26840 0.36060 0.42000
C70 C 0.3217(2) 0.43367(19) 0.40685(10)
H54 H 0.31840 0.42460 0.38220
C71 C 0.3560(2) 0.48491(19) 0.41998(11)
H55 H 0.37580 0.51080 0.40440
C72 C 0.3612(2) 0.49829(17) 0.45593(10)
H56 H 0.38470 0.53330 0.46500
C73 C 0.3762(2) 0.54523(17) 0.53373(11)
C74 C 0.3350(3) 0.59161(19) 0.51706(14)
H57 H 0.28680 0.58490 0.50290
C75 C 0.3637(4) 0.6478(2) 0.52096(17)
H58 H 0.33520 0.67920 0.50940
C76 C 0.4330(3) 0.6576(2) 0.54148(19)
H59 H 0.45320 0.69570 0.54360
C77 C 0.4737(3) 0.6123(2) 0.55912(17)
H60 H 0.52080 0.61980 0.57410
C78 C 0.4464(2) 0.5558(2) 0.55515(14)
H61 H 0.47510 0.52470 0.56690
C79 C 0.4112(2) 0.42445(15) 0.54782(10)
C80 C 0.4101(2) 0.41050(17) 0.58359(10)
H62 H 0.37020 0.42410 0.59510
C81 C 0.4676(2) 0.37665(18) 0.60219(11)
H63 H 0.46760 0.36730 0.62660
C82 C 0.5253(2) 0.35653(18) 0.58484(12)
H64 H 0.56510 0.33380 0.59760
C83 C 0.5255(2) 0.36921(18) 0.54927(12)
H65 H 0.56480 0.35460 0.53760
C84 C 0.4681(2) 0.40342(16) 0.53048(11)
H66 H 0.46800 0.41220 0.50600
N8 N 0.46307(17) 0.49579(12) 0.11300(8)
P3 P 0.47695(5) 0.55797(4) 0.12948(2)
P4 P 0.41256(5) 0.43983(4) 0.11582(2)
C85 C 0.4453(2) 0.56979(15) 0.17171(10)
C86 C 0.3777(2) 0.59894(17) 0.17337(11)
H67 H 0.34960 0.61570 0.15240
C87 C 0.3517(3) 0.6034(2) 0.20577(12)
H68 H 0.30550 0.62310 0.20710
C88 C 0.3933(3) 0.5792(2) 0.23612(12)
H69 H 0.37540 0.58240 0.25830
C89 C 0.4607(3) 0.55027(19) 0.23478(11)
H70 H 0.48880 0.53390 0.25580
C90 C 0.4865(2) 0.54547(17) 0.2025(1)
H71 H 0.53250 0.52550 0.20130
C91 C 0.4323(2) 0.61086(15) 0.09798(10)
C92 C 0.3998(2) 0.59315(16) 0.06413(10)
H72 H 0.40000 0.55340 0.05780
C93 C 0.3667(3) 0.63399(18) 0.03949(11)
H73 H 0.34380 0.62190 0.01630
C94 C 0.3670(2) 0.69201(17) 0.04844(12)
H74 H 0.34460 0.71960 0.03130
C95 C 0.3999(2) 0.70989(16) 0.08235(11)
H75 H 0.40000 0.74970 0.08860
C96 C 0.4326(2) 0.66937(15) 0.10706(10)
H76 H 0.45530 0.68150 0.13030
C97 C 0.5772(2) 0.57355(14) 0.13507(9)
C98 C 0.6167(2) 0.55583(16) 0.10801(10)
H77 H 0.59190 0.53240 0.08900
C99 C 0.6918(2) 0.57222(17) 0.1087(1)
H78 H 0.71810 0.56070 0.09000
C100 C 0.7282(2) 0.60576(15) 0.13696(11)
H79 H 0.77940 0.61760 0.13750
C101 C 0.6897(2) 0.62192(15) 0.1644(1)
H80 H 0.71520 0.64370 0.18400
C102 C 0.6147(2) 0.60662(15) 0.16334(9)
H81 H 0.58850 0.61860 0.18190
C103 C 0.3129(2) 0.45042(16) 0.0986(1)
C104 C 0.2780(2) 0.50230(17) 0.10459(11)
H82 H 0.30680 0.53180 0.11800
C105 C 0.2015(2) 0.51200(19) 0.09129(11)
H83 H 0.17830 0.54760 0.09600
C106 C 0.1598(2) 0.4699(2) 0.07135(11)
H84 H 0.10780 0.47660 0.06200
C107 C 0.1937(2) 0.41757(19) 0.06475(11)
H85 H 0.16460 0.38840 0.05110
C108 C 0.2700(2) 0.40790(17) 0.07819(10)
H86 H 0.29300 0.37230 0.07350
C109 C 0.4214(2) 0.41183(15) 0.16054(10)
C110 C 0.3603(3) 0.39193(17) 0.17477(11)
H87 H 0.31030 0.39510 0.16160
C111 C 0.3723(3) 0.36693(19) 0.20881(12)
H88 H 0.33050 0.35250 0.21870
C112 C 0.4445(3) 0.36323(18) 0.22799(11)
H89 H 0.45210 0.34680 0.25130
C113 C 0.5061(3) 0.38309(19) 0.21372(12)
H90 H 0.55580 0.38010 0.22700
C114 C 0.4948(3) 0.40733(17) 0.17995(11)
H91 H 0.53700 0.42090 0.16990
C115 C 0.4450(2) 0.38366(15) 0.08924(10)
C116 C 0.4293(2) 0.32619(15) 0.09596(10)
H92 H 0.40500 0.31620 0.11560
C117 C 0.4499(2) 0.28339(16) 0.07337(11)
H93 H 0.43890 0.24400 0.07760
C118 C 0.4858(3) 0.29748(18) 0.04514(12)
H94 H 0.49910 0.26790 0.02990
C119 C 0.5026(3) 0.35510(18) 0.03891(11)
H95 H 0.52810 0.36480 0.01960
C120 C 0.4822(2) 0.39821(17) 0.06073(11)
H96 H 0.49340 0.43750 0.05640
N9 N 0.16095(17) 0.48038(12) 0.31413(8)
P5 P 0.21254(5) 0.43970(4) 0.29489(2)
P6 P 0.10696(5) 0.53491(4) 0.30842(3)
C121 C 0.20158(18) 0.36675(14) 0.31069(9)
C122 C 0.17611(18) 0.35971(14) 0.34333(9)
H97 H 0.16620 0.39280 0.35670
C123 C 0.16514(18) 0.30506(14) 0.35630(9)
H98 H 0.14760 0.30050 0.37850
C124 C 0.1800(2) 0.25659(14) 0.33666(9)
H99 H 0.17200 0.21890 0.34540
C125 C 0.2064(2) 0.26306(15) 0.30444(9)
H100 H 0.21700 0.22980 0.29140
C126 C 0.21725(19) 0.31798(15) 0.29127(9)
H101 H 0.23520 0.32240 0.26920
C127 C 0.1886(2) 0.43950(15) 0.24678(10)
C128 C 0.1203(2) 0.41306(16) 0.23159(11)
H102 H 0.09160 0.39170 0.24610
C129 C 0.0950(2) 0.41828(17) 0.19506(11)
H103 H 0.04920 0.40010 0.18440
C130 C 0.1369(3) 0.45000(19) 0.17436(11)
H104 H 0.11960 0.45360 0.14940
C131 C 0.2040(3) 0.4766(2) 0.18976(11)
H105 H 0.23220 0.49870 0.17530
C132 C 0.2300(2) 0.47115(17) 0.22615(11)
H106 H 0.27610 0.48920 0.23670
C133 C 0.31129(19) 0.45914(15) 0.30739(9)
C134 C 0.3691(2) 0.41858(17) 0.30806(11)
H107 H 0.35710 0.37970 0.30110
C135 C 0.4445(2) 0.43463(18) 0.31889(12)
H108 H 0.48380 0.40670 0.31950
C136 C 0.4621(2) 0.49135(18) 0.32882(11)
H109 H 0.51360 0.50240 0.33610
C137 C 0.4048(2) 0.53194(18) 0.32815(11)
H110 H 0.41710 0.57080 0.33500
C138 C 0.3292(2) 0.51607(16) 0.31743(10)
H111 H 0.29000 0.54400 0.31700
C139 C 0.1009(2) 0.57088(16) 0.26605(11)
C140 C 0.1516(2) 0.61528(18) 0.26104(13)
H112 H 0.18780 0.62830 0.28060
C141 C 0.1492(3) 0.6403(2) 0.22766(14)
H113 H 0.18290 0.67110 0.22450
C142 C 0.0974(3) 0.6204(2) 0.19882(14)
H114 H 0.09630 0.63710 0.17580
C143 C 0.0474(3) 0.5763(2) 0.20353(13)
H115 H 0.01220 0.56300 0.18370
C144 C 0.0483(3) 0.55128(18) 0.23714(12)
H116 H 0.01350 0.52130 0.24030
C145 C 0.1404(2) 0.58655(16) 0.34288(11)
C146 C 0.1120(2) 0.64275(17) 0.34174(14)
H117 H 0.07550 0.65500 0.32210
C147 C 0.1373(3) 0.68076(19) 0.36937(17)
H118 H 0.11810 0.71920 0.36860
C148 C 0.1904(3) 0.6629(2) 0.39802(16)
H119 H 0.20750 0.68930 0.41690
C149 C 0.2187(3) 0.60738(19) 0.39957(14)
H120 H 0.25500 0.59570 0.41950
C150 C 0.1945(2) 0.56844(17) 0.37228(11)
H121 H 0.21410 0.53010 0.37330
C151 C 0.0126(2) 0.51427(15) 0.31414(10)
C152 C -0.0470(2) 0.55435(17) 0.30961(12)
H122 H -0.03900 0.59230 0.30140
C153 C -0.1175(2) 0.53870(17) 0.31709(12)
H123 H -0.15780 0.56610 0.31410
C154 C -0.1295(2) 0.48345(19) 0.32888(12)
H124 H -0.17780 0.47320 0.33450
C155 C -0.0712(2) 0.44266(19) 0.33263(13)
H125 H -0.08010 0.40440 0.34020
C156 C -0.0002(2) 0.45790(16) 0.32539(12)
H126 H 0.03960 0.43020 0.32800
Li1 Li 1.1864(4) 0.6735(3) 0.75814(18)
N10 N 1.34375(19) 0.75100(15) 0.83151(10)
O7 O 1.24801(15) 0.73528(12) 0.78466(8)
C157 C 1.3035(2) 0.71890(18) 0.80594(11)
H127 H 1.31910 0.67990 0.80400
C158 C 1.4115(3) 0.7290(2) 0.85351(14)
H128 H 1.41920 0.68850 0.84730
H129 H 1.40590 0.73150 0.87870
H130 H 1.45540 0.75200 0.84940
C159 C 1.3246(3) 0.8113(2) 0.83542(16)
H131 H 1.27740 0.82030 0.81920
H132 H 1.36570 0.83580 0.82950
H133 H 1.31770 0.81870 0.86010
O8 O 1.11234(17) 0.65771(13) 0.78841(8)
N11 N 0.3324(2) 0.45327(15) 0.98638(10)
O9 O 0.41004(17) 0.53093(12) 0.98528(8)
C160 C 0.3989(2) 0.47857(17) 0.98494(10)
H134 H 0.44100 0.45410 0.98350
C161 C 0.3242(3) 0.3906(2) 0.98531(13)
H135 H 0.37070 0.37300 0.97960
H136 H 0.28110 0.37990 0.96700
H137 H 0.31520 0.37660 1.00870
C162 C 0.2664(3) 0.4870(2) 0.98881(16)
H138 H 0.25260 0.48230 1.01260
H139 H 0.22430 0.47390 0.97070
H140 H 0.27700 0.52790 0.98480
N12 N 0.1355(5) 0.7328(3) 0.4752(2)
O10 O 0.1747(5) 0.6375(3) 0.4696(2)
C163 C 0.1820(7) 0.6860(5) 0.4828(3)
H141 H 0.22560 0.69170 0.50050
C164 C 0.0701(5) 0.7363(5) 0.4496(2)
H142 H 0.08200 0.75590 0.42830
H143 H 0.03120 0.75840 0.45930
H144 H 0.05120 0.69730 0.44320
C165 C 0.1591(7) 0.7785(5) 0.4927(3)
H145 H 0.19580 0.76770 0.51380
H146 H 0.11600 0.79860 0.50020
H147 H 0.18370 0.80410 0.47740
N13 N 0.7203(3) 0.1542(3) 0.58487(18)
O11 O 0.6929(5) 0.2410(4) 0.5543(3)
C166 C 0.6874(5) 0.1907(5) 0.5583(3)
H148 H 0.65410 0.17210 0.53970
C167 C 0.7720(4) 0.1798(3) 0.6137(2)
H149 H 0.82400 0.16770 0.61210
H150 H 0.75900 0.16700 0.63660
H151 H 0.76840 0.22210 0.61200
C168 C 0.7076(7) 0.0995(5) 0.5842(4)
H152 H 0.66830 0.09020 0.56380
H153 H 0.69040 0.08780 0.60640
H154 H 0.75440 0.07870 0.58180
O5A O 1.25540(16) 0.60988(11) 0.76213(7)
Li1A Li 0.8136(4) 1.1735(3) 0.74186(18)
#END
