
#######################################################################
#
#                 Cambridge Crystallographic Data Centre
#                                CCDC
#
#######################################################################
#
# If this CIF has been generated from an entry in the Cambridge
# Structural Database, then it will include bibliographic, chemical,
# crystal, experimental, refinement or atomic coordinate data resulting
# from the CCDC's data processing and validation procedures.
#
#######################################################################

data_CSD_CIF_SEDZIL
_audit_creation_date 2006-05-18
_audit_creation_method CSD-ConQuest-V1
_database_code_CSD SEDZIL
_database_code_depnum_ccdc_archive 'CCDC 279857'
_chemical_formula_sum 'C30 H48 Fe6 N6 Na11 O48 P6'
_chemical_formula_moiety
;
(C30 H36 Fe6 N6 O42 P6 11-)n,11n(Na1 1+),6n(H2 O1)
;
_journal_coden_Cambridge 179
_journal_volume 45
_journal_year 2006
_journal_page_first 803
_journal_name_full 'Angew.Chem.,Int.Ed. '
loop_
_publ_author_name
"D.Cave"
"F.C.Coomer"
"E.Molinos"
"H.-H.Klauss"
"P.T.Wood"
_chemical_name_systematic
;
catena-(undecasodium 
hexakis((\m~3~-N-phosphinomethyliminodicarboxylato)-iron) hexahydrate)
;
_cell_volume   4719.927
_exptl_crystal_colour 'green-yellow'
_exptl_crystal_density_diffrn 2.147
_exptl_special_details
;
magnetic properties

;
_exptl_crystal_description 'octahedra'
_diffrn_ambient_temperature 200
#These two values have been output from a single CSD field.
_refine_ls_R_factor_gt 0.0367
_refine_ls_wR_factor_gt 0.0367
_symmetry_cell_setting rhombohedral
_symmetry_space_group_name_H-M 'R -3'
_symmetry_Int_Tables_number 148
loop_
_symmetry_equiv_pos_site_id
_symmetry_equiv_pos_as_xyz
1 x,y,z
2 -y,x-y,z
3 -x+y,-x,z
4 2/3+x,1/3+y,1/3+z
5 2/3-y,1/3+x-y,1/3+z
6 2/3-x+y,1/3-x,1/3+z
7 1/3+x,2/3+y,2/3+z
8 1/3-y,2/3+x-y,2/3+z
9 1/3-x+y,2/3-x,2/3+z
10 -x,-y,-z
11 y,-x+y,-z
12 x-y,x,-z
13 -2/3-x,-1/3-y,-1/3-z
14 -2/3+y,-1/3-x+y,-1/3-z
15 -2/3+x-y,-1/3+x,-1/3-z
16 -1/3-x,-2/3-y,-2/3-z
17 -1/3+y,-2/3-x+y,-2/3-z
18 -1/3+x-y,-2/3+x,-2/3-z
_cell_length_a 14.074(2)
_cell_length_b 14.074(2)
_cell_length_c 27.515(6)
_cell_angle_alpha 90
_cell_angle_beta 90
_cell_angle_gamma 120
_cell_formula_units_Z 3
loop_
_atom_type_symbol
_atom_type_radius_bond
C 0.68
H 0.23
Fe 1.34
N 0.68
Na 0.97
O 0.68
P 1.05
loop_
_atom_site_label
_atom_site_type_symbol
_atom_site_fract_x
_atom_site_fract_y
_atom_site_fract_z
Fe1 Fe 0.92983(2) 0.34552(2) 0.122679(11)
Na1 Na 1.06682(10) 0.60199(12) 0.08970(7)
Na2 Na 1.33330 0.66670 0.16670
Na3 Na 1.33330 0.66670 0.04446(6)
Na4 Na 0.66670 0.33330 0.07975(7)
N1 N 1.00906(16) 0.25166(15) 0.09285(7)
P1 P 0.98029(4) 0.19292(5) 0.18741(2)
O1 O 0.94607(14) 0.27957(14) 0.18731(6)
O2 O 1.09638(15) 0.24039(17) 0.20587(8)
O3 O 0.90313(15) 0.08961(15) 0.21515(7)
O4 O 1.09948(16) 0.46741(15) 0.12393(8)
O5 O 1.26670(15) 0.51229(15) 0.09989(7)
O6 O 0.9475(2) 0.3797(2) 0.04550(7)
O7 O 0.9863(2) 0.3306(2) -0.02547(7)
O8 O 1.3631(2) 0.8052(2) -0.01236(10)
H1 H 1.434(2) 0.868(3) -0.0176(18)
H2 H 1.318(4) 0.833(4) -0.0170(19)
C1 C 0.97526(19) 0.15479(18) 0.12409(8)
H3 H 1.02480 0.12480 0.11880
H4 H 0.89980 0.09720 0.11560
C2 C 1.1295(2) 0.3259(2) 0.09272(10)
H5 H 1.15770 0.32460 0.05990
H6 H 1.16270 0.29690 0.11580
C3 C 1.16757(19) 0.44465(19) 0.10618(9)
C4 C 0.9672(2) 0.2223(2) 0.04345(9)
H7 H 0.89140 0.15910 0.04430
H8 H 1.01330 0.20030 0.02490
C5 C 0.9677(2) 0.3185(2) 0.01853(9)
Fe1P Fe 1.012187(20) 0.749023(20) 0.210654(11)
Fe1O Fe 0.736837(20) -0.012187(20) 0.210654(11)
Fe1Q Fe 1.250977(20) 0.263163(20) 0.210654(11)
Fe1B Fe 0.41569(2) 0.07017(2) 0.122679(11)
Fe1A Fe 0.65448(2) 0.58431(2) 0.122679(11)
Fe1B* Fe 1.41569(2) 1.07017(2) 0.122679(11)
Fe1Q* Fe 1.250977(20) 1.263163(20) 0.210654(11)
Fe1O* Fe 0.736837(20) 0.987813(20) 0.210654(11)
Fe1A* Fe 0.65448(2) -0.41569(2) 0.122679(11)
Fe1P* Fe 1.012187(20) -0.250977(20) 0.210654(11)
N1P N 0.918327(160) 0.575933(150) 0.240483(70)
N1O N 0.657607(160) 0.081673(150) 0.240483(70)
N1B N 1.24260(16) 0.99094(15) 0.09285(7)
N1A N 0.74834(16) 0.75740(15) 0.09285(7)
N1A* N 0.74834(16) -0.24260(15) 0.09285(7)
N1Q N 1.424067(160) 0.342393(150) 0.240483(70)
N1B* N 0.24260(16) -0.00906(15) 0.09285(7)
P1P P 0.859587(40) 0.545963(50) 0.145923(20)
P1O P 0.686377(40) 0.140413(50) 0.145923(20)
P1B P 1.21263(4) 1.01971(5) 0.18741(2)
P1A P 0.80708(4) 0.78737(5) 0.18741(2)
P1A* P 0.80708(4) -0.21263(5) 0.18741(2)
O1P O 0.946237(140) 0.666833(140) 0.146023(60)
O1O O 0.720597(140) 0.053763(140) 0.146023(60)
O1B O 1.33350(14) 1.05393(14) 0.18731(6)
O1A O 0.72043(14) 0.66650(14) 0.18731(6)
O1A* O 0.72043(14) -0.33350(14) 0.18731(6)
O1Q O 1.333167(140) 0.279403(140) 0.146023(60)
O1B* O 0.33350(14) 0.05393(14) 0.18731(6)
O2P O 0.907057(150) 0.477343(170) 0.127463(80)
O2O O 0.570287(150) 0.092943(170) 0.127463(80)
O2B O 1.14401(15) 0.90362(17) 0.20587(8)
O2A O 0.75961(15) 0.85599(17) 0.20587(8)
O2A* O 0.75961(15) -0.14401(17) 0.20587(8)
O2Q O 0.522657(150) 0.429713(170) 0.127463(80)
O3P O 0.756277(150) 0.519813(150) 0.118183(70)
O3O O 0.763537(150) 0.243723(150) 0.118183(70)
O3B O 1.18648(15) 1.09687(15) 0.21515(7)
O3A O 0.91039(15) 0.81352(15) 0.21515(7)
O3A* O 0.91039(15) -0.18648(15) 0.21515(7)
O3B* O 1.18648(15) 0.09687(15) 0.21515(7)
O3Q O 0.480187(150) 0.236463(150) 0.118183(70)
O4P O 1.134077(160) 0.701263(150) 0.209403(80)
O4O O 0.567187(160) -0.134077(150) 0.209403(80)
O4B O 1.36793(16) 0.90052(15) 0.12393(8)
O4A O 0.53259(16) 0.63207(15) 0.12393(8)
O4A* O 0.53259(16) -0.36793(15) 0.12393(8)
O4Q O 1.298737(160) 0.432813(150) 0.209403(80)
O4B* O 0.36793(16) -0.09948(15) 0.12393(8)
O5P O 1.178957(150) 0.578923(150) 0.233443(70)
O5O O 0.399967(150) -0.178957(150) 0.233443(70)
O5B O 1.24559(15) 0.73330(15) 0.09989(7)
O5A O 0.48771(15) 0.75441(15) 0.09989(7)
O5A* O 0.48771(15) -0.24559(15) 0.09989(7)
O6P O 1.046367(200) 0.765533(200) 0.287833(70)
O6O O 0.719167(200) -0.046367(200) 0.287833(70)
O6B O 1.4322(2) 1.0525(2) 0.04550(7)
O6A O 0.6203(2) 0.5678(2) 0.04550(7)
O6A* O 0.6203(2) -0.4322(2) 0.04550(7)
O6Q O 1.234467(200) 0.280833(200) 0.287833(70)
O6B* O 0.4322(2) 0.0525(2) 0.04550(7)
O7P O 0.997267(200) 0.677633(200) 0.358803(70)
O7O O 0.680367(200) 0.002733(200) 0.358803(70)
O7B O 1.3443(2) 1.0137(2) -0.02547(7)
O7A O 0.6694(2) 0.6557(2) -0.02547(7)
O7A* O 0.6694(2) -0.3443(2) -0.02547(7)
C1P C 0.821457(190) 0.512863(180) 0.209243(80)
C1O C 0.691407(190) 0.178543(180) 0.209243(80)
C1B C 1.17953(19) 1.02474(18) 0.12409(8)
C1A C 0.84521(19) 0.82047(18) 0.12409(8)
C1A* C 0.84521(19) -0.17953(18) 0.12409(8)
H3P H 0.79147 0.43333 0.21453
H3O H 0.64187 0.20853 0.21453
H3B H 1.10000 0.97520 0.11880
H3A H 0.87520 0.90000 0.11880
H3A* H 0.87520 -0.10000 0.11880
H4P H 0.76387 0.53073 0.21773
H4O H 0.76687 0.23613 0.21773
H4B H 1.19740 1.10020 0.11560
H4A H 0.90280 0.80260 0.11560
H4A* H 0.90280 -0.19740 0.11560
C2P C 0.992567(200) 0.529733(200) 0.240613(100)
C2O C 0.537167(200) 0.007433(200) 0.240613(100)
C2B C 1.1964(2) 0.8705(2) 0.09272(10)
C2A C 0.6741(2) 0.8036(2) 0.09272(10)
C2A* C 0.6741(2) -0.1964(2) 0.09272(10)
H5P H 0.99127 0.50023 0.27343
H5O H 0.50897 0.00873 0.27343
H5B H 1.16690 0.84230 0.05990
H5A H 0.67540 0.83310 0.05990
H5A* H 0.67540 -0.16690 0.05990
H6P H 0.96357 0.46753 0.21753
H6O H 0.50397 0.03643 0.21753
H6B H 1.13420 0.83730 0.11580
H6A H 0.70310 0.86580 0.11580
H6A* H 0.70310 -0.13420 0.11580
C3P C 1.111317(190) 0.610413(190) 0.227153(90)
C3O C 0.499097(190) -0.111317(190) 0.227153(90)
C3B C 1.27708(19) 0.83243(19) 0.10618(9)
C3A C 0.55535(19) 0.72292(19) 0.10618(9)
C3A* C 0.55535(19) -0.27708(19) 0.10618(9)
C4P C 0.888967(200) 0.588433(200) 0.289883(90)
C4O C 0.699467(200) 0.111033(200) 0.289883(90)
C4B C 1.2551(2) 1.0328(2) 0.04345(9)
C4A C 0.7777(2) 0.7449(2) 0.04345(9)
C4A* C 0.7777(2) -0.2551(2) 0.04345(9)
H7P H 0.82577 0.60103 0.28903
H7O H 0.77527 0.17423 0.28903
H7B H 1.26770 1.10860 0.04430
H7A H 0.84090 0.73230 0.04430
H7A* H 0.84090 -0.26770 0.04430
H8P H 0.86697 0.52033 0.30843
H8O H 0.65337 0.13303 0.30843
H8B H 1.18700 0.98670 0.02490
H8A H 0.79970 0.81300 0.02490
H8A* H 0.79970 -0.18700 0.02490
C5P C 0.985167(200) 0.684133(200) 0.314803(90)
C5O C 0.698967(200) 0.014833(200) 0.314803(90)
C5B C 1.3508(2) 1.0323(2) 0.01853(9)
C5A C 0.6815(2) 0.6492(2) 0.01853(9)
C5A* C 0.6815(2) -0.3508(2) 0.01853(9)
#END
