
#######################################################################
#
#                 Cambridge Crystallographic Data Centre
#                                CCDC
#
#######################################################################
#
# If this CIF has been generated from an entry in the Cambridge
# Structural Database, then it will include bibliographic, chemical,
# crystal, experimental, refinement or atomic coordinate data resulting
# from the CCDC's data processing and validation procedures.
#
#######################################################################

data_CSD_CIF_SEGWAF
_audit_creation_date 2017-10-30
_audit_creation_method CSD-ConQuest-V1
_database_code_CSD SEGWAF
_database_code_depnum_ccdc_archive 'CCDC 1543307'
_chemical_formula_sum 'C54.5 H60.5 N6.5 O18 Zn3'
_chemical_formula_moiety
;
(C42 H27 N2 O14 Zn3 1-)n,3.5(C3 H7 N1 O1),C2 H8 N1 1+,0.5(H2 O1)
;
_journal_coden_Cambridge 9
_journal_volume 56
_journal_year 2017
_journal_page_first 13634
_journal_name_full 'Inorg.Chem. '
loop_
_publ_author_name
"Weidong Fan"
"Yutong Wang"
"Zhenyu Xiao"
"Liangliang Zhang"
"Yaqiong Gong"
"Fangna Dai"
"Rongming Wang"
"Daofeng Sun"
_chemical_name_systematic
;
catena-[dimethylammonium 
bis(\m-2^2^-amino[1^1^,2^1^:2^3^,3^1^-terphenyl]-1^4^,2^5^,3^4^-tricarboxylato
)-(\m-hydroxo)-aqua-tri-zinc N,N-dimethylformamide solvate hemihydrate]
;
_chemical_name_common
;
UPC-30
;
_cell_volume   5973.955
_exptl_crystal_colour 'colorless'
_exptl_crystal_density_diffrn 1.432
_exptl_crystal_description 'needle'
_diffrn_ambient_temperature 293
#These two values have been output from a single CSD field.
_refine_ls_R_factor_gt 0.0817
_refine_ls_wR_factor_gt 0.0817
_symmetry_cell_setting monoclinic
_symmetry_space_group_name_H-M 'P 21/c'
_symmetry_Int_Tables_number 14
loop_
_symmetry_equiv_pos_site_id
_symmetry_equiv_pos_as_xyz
1 x,y,z
2 -x,1/2+y,1/2-z
3 -x,-y,-z
4 x,-1/2-y,-1/2+z
_cell_length_a 13.613(3)
_cell_length_b 23.455(5)
_cell_length_c 18.857(4)
_cell_angle_alpha 90
_cell_angle_beta 97.16(3)
_cell_angle_gamma 90
_cell_formula_units_Z 4
loop_
_atom_type_symbol
_atom_type_radius_bond
C 0.68
H 0.23
N 0.68
O 0.68
Zn 1.22
loop_
_atom_site_label
_atom_site_type_symbol
_atom_site_fract_x
_atom_site_fract_y
_atom_site_fract_z
Zn1 Zn 0.67880(4) 0.07250(3) 0.84234(4)
Zn2 Zn 0.70185(4) -0.08172(3) 0.81857(4)
Zn3 Zn 0.87423(4) -0.00249(3) 0.88982(4)
O1 O 0.7581(2) 0.10909(18) 0.7748(2)
O2 O 0.7220(2) -0.00613(14) 0.86536(19)
O3 O 0.8921(3) 0.07179(17) 0.8377(2)
O4 O 1.0275(2) 0.00823(15) 0.9248(2)
O5 O 0.9115(3) -0.04993(17) 0.8034(2)
O6 O 0.7838(3) -0.09695(19) 0.7438(2)
C1 C 0.8754(4) -0.0836(2) 0.7555(3)
C2 C 1.0421(3) -0.0969(2) 0.7151(3)
H1 H 1.06530 -0.06640 0.74400
C3 C 0.9024(4) 0.2655(3) 0.6260(3)
N1 N 1.1380(3) -0.2013(2) 0.5976(3)
C4 C 1.2153(4) -0.1145(2) 0.6928(3)
C5 C 0.8806(3) 0.1837(2) 0.7067(3)
H2 H 0.81270 0.19010 0.69890
C6 C 0.9085(3) -0.1574(2) 0.6657(3)
H3 H 0.84180 -0.16700 0.66140
C7 C 0.8514(4) 0.1037(2) 0.7905(3)
C8 C 0.9414(4) -0.1115(2) 0.7090(3)
C9 C 0.9383(4) 0.3213(3) 0.6368(3)
H4 H 0.98620 0.32900 0.67520
C10 C 0.8276(4) 0.2558(2) 0.5709(3)
H5 H 0.80090 0.21940 0.56410
C11 C 0.9165(4) 0.1396(2) 0.7515(3)
C12 C 0.9429(4) 0.2185(2) 0.6732(3)
C13 C 1.0475(4) 0.2077(3) 0.6846(3)
C14 C 1.0180(4) 0.1290(2) 0.7623(3)
H6 H 1.04210 0.09940 0.79230
C15 C 1.1068(4) -0.1270(2) 0.6788(3)
C16 C 1.2603(4) -0.0703(3) 0.6611(3)
H7 H 1.22300 -0.04740 0.62760
C17 C 1.3617(4) -0.0593(3) 0.6789(3)
H8 H 1.39150 -0.02940 0.65720
C18 C 1.0736(4) -0.1730(2) 0.6339(3)
C19 C 0.9711(4) -0.1892(2) 0.6288(3)
N2 N 1.1111(4) 0.2404(3) 0.6525(4)
C20 C 1.1907(4) 0.1468(3) 0.7391(3)
C21 C 1.3441(4) 0.1288(3) 0.8151(3)
H9 H 1.37960 0.12840 0.86060
C22 C 1.0835(4) 0.1618(3) 0.7292(3)
C23 C 1.2449(4) 0.1458(3) 0.8066(3)
H10 H 1.21500 0.15640 0.84630
C24 C 1.2718(4) -0.1495(3) 0.7411(4)
H11 H 1.24240 -0.18030 0.76130
C25 C 1.2377(4) 0.1309(4) 0.6810(4)
H12 H 1.20280 0.13150 0.63540
C26 C 1.3727(4) -0.1387(3) 0.7597(3)
H13 H 1.41010 -0.16190 0.79280
C27 C 1.4171(4) -0.0933(2) 0.7287(3)
C28 C 1.5250(4) -0.0812(3) 0.7505(3)
O7 O 1.5677(3) -0.1112(2) 0.8025(2)
O8 O 1.5677(3) -0.0442(2) 0.7207(3)
C29 C 0.9337(3) -0.2386(2) 0.5851(3)
C30 C 0.8457(4) -0.2350(2) 0.5376(3)
H14 H 0.80910 -0.20140 0.53490
C31 C 0.9845(4) -0.2911(2) 0.5894(3)
H15 H 1.04120 -0.29520 0.62200
C32 C 0.9517(3) -0.3367(2) 0.5463(3)
H16 H 0.98700 -0.37080 0.54990
C33 C 0.8664(3) -0.3322(2) 0.4974(3)
C34 C 0.8351(3) -0.3797(2) 0.4470(3)
C35 C 0.8129(4) -0.2807(2) 0.4950(3)
H17 H 0.75430 -0.27740 0.46420
O9 O 0.8789(2) -0.42705(15) 0.45686(19)
O10 O 0.7684(3) -0.36763(16) 0.3962(2)
C36 C 0.7916(4) 0.3001(2) 0.5249(3)
H18 H 0.74090 0.29280 0.48820
C37 C 0.9034(4) 0.3654(2) 0.5911(3)
H19 H 0.92870 0.40200 0.59890
C38 C 0.8308(3) 0.3551(2) 0.5337(3)
C39 C 0.8000(4) 0.4003(2) 0.4793(3)
O11 O 0.8501(2) 0.44586(16) 0.4813(2)
O12 O 0.7260(3) 0.38884(17) 0.4344(2)
C40 C 1.3897(4) 0.1129(2) 0.7574(3)
C41 C 1.3365(4) 0.1140(3) 0.6902(4)
H20 H 1.36680 0.10330 0.65060
C42 C 1.4976(4) 0.0957(3) 0.7646(3)
O13 O 1.5395(3) 0.0892(2) 0.8282(3)
O14 O 1.5382(3) 0.0898(3) 0.7110(3)
H21 H 1.115(4) -0.224(3) 0.568(3)
H22 H 1.190(3) -0.184(3) 0.603(4)
H23 H 1.083(6) 0.265(3) 0.629(4)
H24 H 1.166(3) 0.227(4) 0.654(5)
H25 H 0.703(4) -0.021(2) 0.899(2)
N3 N 0.6789(4) 0.0023(2) 1.0986(3)
O15 O 0.6503(3) -0.0338(3) 0.9883(2)
C43 C 0.7027(4) -0.0261(3) 1.0439(3)
H26 H 0.76590 -0.04180 1.04800
C44 C 0.7482(5) 0.0096(3) 1.1632(4)
H27 H 0.71750 0.03170 1.19730
H28 H 0.80620 0.02910 1.15170
H29 H 0.76660 -0.02710 1.18320
C45 C 0.5809(6) 0.0276(4) 1.0966(5)
H30 H 0.57590 0.04690 1.14090
H31 H 0.53160 -0.00180 1.08960
H32 H 0.57070 0.05450 1.05790
O16 O 1.3397(3) -0.1845(3) 0.5555(3)
N4 N 1.4698(5) -0.2172(3) 0.6316(4)
C46 C 1.4242(5) -0.1803(4) 0.5858(5)
C47 C 1.4179(9) -0.2672(4) 0.6532(6)
H33 H 1.46170 -0.28920 0.68640
H34 H 1.39630 -0.29000 0.61190
H35 H 1.36160 -0.25540 0.67540
C48 C 1.5701(8) -0.2089(6) 0.6663(8)
H36 H 1.58880 -0.24050 0.69730
H37 H 1.57330 -0.17430 0.69370
H38 H 1.61460 -0.20630 0.63070
H39 H 1.462(6) -0.149(3) 0.578(5)
N5 N 1.0295(5) 0.0650(3) 0.5539(4)
O17 O 1.1771(5) 0.0328(4) 0.5262(4)
C49 C 1.0278(6) 0.0261(4) 0.6131(5)
H40 H 0.96830 0.03190 0.63470
H41 H 1.08430 0.03300 0.64790
H42 H 1.02970 -0.01240 0.59620
C50 C 1.1044(8) 0.0654(4) 0.5154(5)
H43 H 1.10270 0.09150 0.47810
C51 C 0.9453(9) 0.1021(4) 0.5360(6)
H44 H 0.89850 0.09620 0.56940
H45 H 0.91460 0.09360 0.48860
H46 H 0.96690 0.14110 0.53820
N6 N 0.6341(6) 0.0289(4) 0.6127(4)
H47 H 0.59880 0.03620 0.65330
H48 H 0.60510 -0.00440 0.58790
C52 C 0.7382(7) 0.0179(6) 0.6376(6)
H49 H 0.74340 -0.01440 0.66920
H50 H 0.76670 0.05070 0.66270
H51 H 0.77290 0.01010 0.59740
C53 C 0.6232(19) 0.0800(12) 0.5624(11)
H52 H 0.55430 0.08660 0.54680
H53 H 0.65700 0.07250 0.52170
H54 H 0.65130 0.11320 0.58700
O18 O 1.3953(8) 0.1754(6) 0.5167(7)
N7 N 1.4698(9) 0.2591(7) 0.5532(8)
C54 C 1.4856(17) 0.3158(9) 0.5412(12)
H55 H 1.44960 0.32680 0.49620
H56 H 1.55500 0.32230 0.54010
H57 H 1.46320 0.33800 0.57880
C55 C 1.4142(11) 0.222(1) 0.509(1)
C56 C 1.5144(19) 0.2377(10) 0.6139(15)
H58 H 1.55100 0.26720 0.64080
H59 H 1.55880 0.20790 0.60360
H60 H 1.46560 0.22240 0.64130
O19 O 1.3644(10) 0.0615(7) 0.4895(10)
H61 H 1.354(10) 0.0948(17) 0.497(8)
Zn1* Zn 1.67880(4) 0.07250(3) 0.84234(4)
Zn1C Zn 0.67880(4) 0.42750(3) 0.34234(4)
Zn2* Zn 1.70185(4) -0.08172(3) 0.81857(4)
Zn2C Zn 0.70185(4) -0.41828(3) 0.31857(4)
Zn3C Zn 0.87423(4) -0.49751(3) 0.38982(4)
Zn3C* Zn 0.87423(4) 0.50249(3) 0.38982(4)
O7* O 0.5677(3) -0.1112(2) 0.8025(2)
O9C O 0.8789(2) -0.07295(15) 0.95686(19)
O10C O 0.7684(3) -0.13237(16) 0.8962(2)
O11C O 0.8501(2) 0.05414(16) 0.9813(2)
O12C O 0.7260(3) 0.11116(17) 0.9344(2)
O13* O 0.5395(3) 0.0892(2) 0.8282(3)
#END
