
#######################################################################
#
#                 Cambridge Crystallographic Data Centre
#                                CCDC
#
#######################################################################
#
# If this CIF has been generated from an entry in the Cambridge
# Structural Database, then it will include bibliographic, chemical,
# crystal, experimental, refinement or atomic coordinate data resulting
# from the CCDC's data processing and validation procedures.
#
#######################################################################

data_CSD_CIF_SEHTIJ
_audit_creation_date 2006-10-10
_audit_creation_method CSD-ConQuest-V1
_database_code_CSD SEHTIJ
_database_code_depnum_ccdc_archive 'CCDC 612261'
_chemical_formula_sum 'C6 H26 Ga4 N6 S7'
_chemical_formula_moiety
;
(C2 H10 N2 2+)n,n(C4 H16 Ga4 N4 S7 2-)
;
_journal_coden_Cambridge 9
_journal_volume 45
_journal_year 2006
_journal_page_first 4150
_journal_name_full 'Inorg.Chem. '
loop_
_publ_author_name
"P.Vaqueiro"
_chemical_name_systematic
;
catena-(Ethylenediammonium 
heptakis(\m~2~-sulfido)-bis(ethylenediamine-N)-tetra-gallium)
;
_cell_volume   2170.780
_exptl_crystal_colour 'colorless'
_exptl_crystal_density_diffrn 2.067
_exptl_special_details
;
The published unit cell parameters differ slightly from those in the 
supplementary information, which we have used
;
_exptl_crystal_description 'plate'
_diffrn_ambient_temperature 293
#These two values have been output from a single CSD field.
_refine_ls_R_factor_gt 0.0201
_refine_ls_wR_factor_gt 0.0201
_symmetry_cell_setting monoclinic
_symmetry_space_group_name_H-M 'P 21/c'
_symmetry_Int_Tables_number 14
loop_
_symmetry_equiv_pos_site_id
_symmetry_equiv_pos_as_xyz
1 x,y,z
2 -x,1/2+y,1/2-z
3 -x,-y,-z
4 x,-1/2-y,-1/2+z
_cell_length_a 12.8518(6)
_cell_length_b 10.4640(5)
_cell_length_c 16.5329(8)
_cell_angle_alpha 90
_cell_angle_beta 102.486(2)
_cell_angle_gamma 90
_cell_formula_units_Z 4
loop_
_atom_type_symbol
_atom_type_radius_bond
C 0.68
H 0.23
Ga 1.22
N 0.68
S 1.02
loop_
_atom_site_label
_atom_site_type_symbol
_atom_site_fract_x
_atom_site_fract_y
_atom_site_fract_z
Ga1 Ga 0.32282(4) 0.22527(5) 0.76456(3)
Ga2 Ga 0.56414(4) 0.01851(5) 0.78552(3)
Ga3 Ga 0.18602(4) 0.51847(5) 0.77051(3)
Ga4 Ga 0.04010(4) 0.22832(5) 0.70583(3)
S1 S 0.44216(10) 0.09556(12) 0.85137(8)
S2 S 0.40517(10) 0.31484(12) 0.66935(8)
S3 S 0.70728(10) 0.14208(13) 0.78976(9)
S4 S 0.27837(9) 0.36731(11) 0.85642(7)
S5 S 0.11577(9) 0.64335(12) 0.86046(8)
S6 S 0.18140(9) 0.10348(12) 0.70333(8)
S7 S 0.05626(10) 0.43309(12) 0.66697(8)
N1 N 0.4973(3) 0.0094(4) 0.6636(2)
N2 N 0.4380(4) -0.1689(5) 0.5109(3)
N3 N 0.0384(3) 0.2310(4) 0.8268(2)
N4 N 0.0848(5) 0.3391(6) 0.9902(3)
N5 N 0.3125(4) -0.1478(5) 0.9046(3)
N6 N 0.1994(4) 0.1117(6) 1.0240(3)
C1 C 0.3995(4) -0.0718(6) 0.6403(3)
C2 C 0.3637(5) -0.0945(6) 0.5487(4)
C3 C -0.0368(4) 0.3193(5) 0.8543(4)
C4 C -0.0275(6) 0.3156(6) 0.9473(4)
C5 C 0.2915(5) -0.0742(7) 0.9783(4)
C6 C 0.2186(5) 0.0354(6) 0.9521(4)
H1 H 0.55170 -0.02520 0.63450
H2 H 0.47750 0.09830 0.64380
H3 H 0.11180 0.25420 0.85760
H4 H 0.02080 0.14260 0.84260
H5 H 0.41480 -0.15660 0.66830
H6 H 0.34030 -0.02890 0.66020
H7 H 0.29430 -0.14140 0.53880
H8 H 0.35310 -0.00950 0.52060
H9 H -0.02170 0.40830 0.83790
H10 H -0.11110 0.29510 0.82630
H11 H -0.07410 0.38310 0.96350
H12 H -0.05040 0.22980 0.96360
H13 H 0.25850 -0.13290 1.01330
H14 H 0.36070 -0.04120 1.01150
H15 H 0.14890 0.00200 0.92020
H16 H 0.25090 0.09270 0.91570
Ga2A Ga 0.43586(4) 0.51851(5) 0.71448(3)
Ga3A Ga 0.81398(4) 0.01847(5) 0.72949(3)
Ga4A Ga -0.04010(4) 0.72832(5) 0.79417(3)
S2A S 0.59483(10) -0.18516(12) 0.83065(8)
S3A S 0.29272(10) 0.64208(13) 0.71024(9)
S5A S -0.11577(9) 0.14335(12) 0.63954(8)
#END
