
#######################################################################
#
#                 Cambridge Crystallographic Data Centre
#                                CCDC
#
#######################################################################
#
# If this CIF has been generated from an entry in the Cambridge
# Structural Database, then it will include bibliographic, chemical,
# crystal, experimental, refinement or atomic coordinate data resulting
# from the CCDC's data processing and validation procedures.
#
#######################################################################

data_CSD_CIF_SEJTIN
_audit_creation_date 2017-10-31
_audit_creation_method CSD-ConQuest-V1
_database_code_CSD SEJTIN
_database_code_depnum_ccdc_archive 'CCDC 1057212'
_chemical_formula_sum 'C26 H20 Cu4 In1 N5 O8 S4'
_chemical_formula_moiety
;
(C24 H12 Cu4 In1 N4 O8 S4 1-)n,C2 H8 N1 1+
;
_journal_coden_Cambridge 1440
_journal_volume 8
_journal_year 2016
_journal_page_first 23331
_journal_name_full 'ACS Applied Materials and Interfaces '
loop_
_publ_author_name
"Yi Han"
"Hao Zheng"
"Kang Liu"
"Hongliang Huang"
"Lin-Hua Xie"
"Minjian Zhao"
"Lei Wang"
"Ya-Bo Xie"
"Jian-Rong Li"
_chemical_name_systematic
;
catena-[dimethylammonium 
tetrakis(\m-6-sulfidopyridine-3-carboxylato)-tetra-copper(i)-indium(iii) 
unknown solvate]
;
_chemical_name_common
;
BUT-52
;
_cell_volume  10718.432
_exptl_crystal_colour 'red'
_exptl_crystal_density_diffrn 0.955
_exptl_crystal_description 'block'
_diffrn_ambient_temperature 100
_refine_special_details
;
Disordered the dimethylammonium cation and solvent molecules were not 
modelled and the disordered density was taken into account using the 
SQUEEZE/PLATON procedure.
;
#These two values have been output from a single CSD field.
_refine_ls_R_factor_gt 0.0558
_refine_ls_wR_factor_gt 0.0558
_symmetry_cell_setting cubic
_symmetry_space_group_name_H-M 'P n -3 m'
_symmetry_Int_Tables_number 224
loop_
_symmetry_equiv_pos_site_id
_symmetry_equiv_pos_as_xyz
1 x,y,z
2 1/2-x,1/2-y,z
3 1/2-x,y,1/2-z
4 x,1/2-y,1/2-z
5 z,x,y
6 z,1/2-x,1/2-y
7 1/2-z,1/2-x,y
8 1/2-z,x,1/2-y
9 y,z,x
10 1/2-y,z,1/2-x
11 y,1/2-z,1/2-x
12 1/2-y,1/2-z,x
13 1/2+y,1/2+x,-z
14 -y,-x,-z
15 1/2+y,-x,1/2+z
16 -y,1/2+x,1/2+z
17 1/2+x,1/2+z,-y
18 -x,1/2+z,1/2+y
19 -x,-z,-y
20 1/2+x,-z,1/2+y
21 1/2+z,1/2+y,-x
22 1/2+z,-y,1/2+x
23 -z,1/2+y,1/2+x
24 -z,-y,-x
25 -x,-y,-z
26 -1/2+x,-1/2+y,-z
27 -1/2+x,-y,-1/2+z
28 -x,-1/2+y,-1/2+z
29 -z,-x,-y
30 -z,-1/2+x,-1/2+y
31 -1/2+z,-1/2+x,-y
32 -1/2+z,-x,-1/2+y
33 -y,-z,-x
34 -1/2+y,-z,-1/2+x
35 -y,-1/2+z,-1/2+x
36 -1/2+y,-1/2+z,-x
37 -1/2-y,-1/2-x,z
38 y,x,z
39 -1/2-y,x,-1/2-z
40 y,-1/2-x,-1/2-z
41 -1/2-x,-1/2-z,y
42 x,-1/2-z,-1/2-y
43 x,z,y
44 -1/2-x,z,-1/2-y
45 -1/2-z,-1/2-y,x
46 -1/2-z,y,-1/2-x
47 z,-1/2-y,-1/2-x
48 z,y,x
_cell_length_a 22.0484(2)
_cell_length_b 22.0484(2)
_cell_length_c 22.0484(2)
_cell_angle_alpha 90
_cell_angle_beta 90
_cell_angle_gamma 90
_cell_formula_units_Z 6
loop_
_atom_type_symbol
_atom_type_radius_bond
C 0.68
H 0.23
Cu 1.32
In 1.42
N 0.68
O 0.68
S 1.02
loop_
_atom_site_label
_atom_site_type_symbol
_atom_site_fract_x
_atom_site_fract_y
_atom_site_fract_z
In1 In 0.25000 0.75000 0.75000
Cu1 Cu 0.02964(3) 0.94065(2) 0.55935(2)
S1 S 0.13971(5) 1.01448(4) 0.48552(4)
N1 N 0.12132(18) 0.92935(12) 0.57065(12)
O1 O 0.17435(15) 0.80144(11) 0.69856(11)
O2 O 0.26956(16) 0.81976(10) 0.68024(10)
C1 C 0.2164(2) 0.82877(16) 0.67123(16)
C2 C 0.2421(2) 0.90864(17) 0.59136(17)
H1 H 0.28300 0.90130 0.59870
C3 C 0.1985(2) 0.87739(15) 0.62261(15)
C4 C 0.1389(2) 0.88944(16) 0.61056(16)
H2 H 0.10940 0.86810 0.63190
C5 C 0.1623(2) 0.96032(15) 0.53968(15)
C6 C 0.2251(2) 0.94989(18) 0.55011(18)
H3 H 0.25420 0.97150 0.52850
Cu1A Cu 0.47036(3) 0.55935(2) 0.55935(2)
S1A S 0.36029(5) 0.48552(4) 0.48552(4)
N1A N 0.37868(18) 0.57065(12) 0.57065(12)
O1A O 0.32565(15) 0.69856(11) 0.69856(11)
O2A O 0.23044(16) 0.68024(10) 0.68024(10)
C1A C 0.2836(2) 0.67123(16) 0.67123(16)
C2A C 0.2579(2) 0.59136(17) 0.59136(17)
H1A H 0.21700 0.59870 0.59870
C3A C 0.3015(2) 0.62261(15) 0.62261(15)
C4A C 0.3611(2) 0.61056(16) 0.61056(16)
H2A H 0.39060 0.63190 0.63190
C5A C 0.3377(2) 0.53968(15) 0.53968(15)
C6A C 0.2749(2) 0.55011(18) 0.55011(18)
H3A H 0.24580 0.52850 0.52850
Cu1B Cu 0.47036(3) 0.94065(2) 0.94065(2)
S1B S 0.36029(5) 1.01448(4) 1.01448(4)
N1B N 0.37868(18) 0.92935(12) 0.92935(12)
O1B O 0.32565(15) 0.80144(11) 0.80144(11)
O2B O 0.23044(16) 0.81976(10) 0.81976(10)
C1B C 0.2836(2) 0.82877(16) 0.82877(16)
C2B C 0.2579(2) 0.90864(17) 0.90864(17)
H1B H 0.21700 0.90130 0.90130
C3B C 0.3015(2) 0.87739(15) 0.87739(15)
C4B C 0.3611(2) 0.88944(16) 0.88944(16)
H2B H 0.39060 0.86810 0.86810
C5B C 0.3377(2) 0.96032(15) 0.96032(15)
C6B C 0.2749(2) 0.94989(18) 0.94989(18)
H3B H 0.24580 0.97150 0.97150
Cu1C Cu 0.02964(3) 0.55935(2) 0.94065(2)
S1C S 0.13971(5) 0.48552(4) 1.01448(4)
N1C N 0.12132(18) 0.57065(12) 0.92935(12)
O1C O 0.17435(15) 0.69856(11) 0.80144(11)
O2C O 0.26956(16) 0.68024(10) 0.81976(10)
C1C C 0.2164(2) 0.67123(16) 0.82877(16)
C2C C 0.2421(2) 0.59136(17) 0.90864(17)
H1C H 0.28300 0.59870 0.90130
C3C C 0.1985(2) 0.62261(15) 0.87739(15)
C4C C 0.1389(2) 0.61056(16) 0.88944(16)
H2C H 0.10940 0.63190 0.86810
C5C C 0.1623(2) 0.53968(15) 0.96032(15)
C6C C 0.2251(2) 0.55011(18) 0.94989(18)
H3C H 0.25420 0.52850 0.97150
Cu1D Cu 0.55935(3) 1.02964(2) 0.94065(2)
Cu1E Cu 0.55935(3) 0.47036(2) 0.55935(2)
Cu1F Cu -0.05935(3) 0.47036(2) 0.94065(2)
Cu1G Cu -0.05935(3) 1.02964(2) 0.55935(2)
Cu1H Cu -0.05935(3) 0.55935(2) 1.02964(2)
Cu1I Cu 0.55935(3) 0.55935(2) 0.47036(2)
Cu1J Cu -0.05935(3) 0.94065(2) 0.47036(2)
Cu1K Cu 0.55935(3) 0.94065(2) 1.02964(2)
Cu1L Cu 0.44065(3) 0.52964(2) 0.44065(2)
Cu1M Cu 0.05935(3) 0.97036(2) 0.44065(2)
Cu1N Cu 0.44065(3) 0.97036(2) 1.05935(2)
Cu1O Cu 0.05935(3) 0.52964(2) 1.05935(2)
Cu1T Cu 0.05935(3) 0.44065(2) 0.97036(2)
Cu1U Cu 0.05935(3) 1.05935(2) 0.52964(2)
Cu1V Cu 0.44065(3) 0.44065(2) 0.52964(2)
Cu1W Cu 0.44065(3) 1.05935(2) 0.97036(2)
S1L S 0.51448(5) 0.63971(4) 0.51448(4)
S1M S -0.01448(5) 0.86029(4) 0.51448(4)
S1N S 0.51448(5) 0.86029(4) 0.98552(4)
S1O S -0.01448(5) 0.63971(4) 0.98552(4)
S1T S -0.01448(5) 0.51448(4) 0.86029(4)
S1U S -0.01448(5) 0.98552(4) 0.63971(4)
S1V S 0.51448(5) 0.51448(4) 0.63971(4)
S1W S 0.51448(5) 0.98552(4) 0.86029(4)
#END
