
#######################################################################
#
#                 Cambridge Crystallographic Data Centre
#                                CCDC
#
#######################################################################
#
# If this CIF has been generated from an entry in the Cambridge
# Structural Database, then it will include bibliographic, chemical,
# crystal, experimental, refinement or atomic coordinate data resulting
# from the CCDC's data processing and validation procedures.
#
#######################################################################

data_CSD_CIF_SEJXAJ
_audit_creation_date 2017-10-31
_audit_creation_method CSD-ConQuest-V1
_database_code_CSD SEJXAJ
_database_code_depnum_ccdc_archive 'CCDC 1507714'
_chemical_formula_sum 'C76 H96 N28 O33 Zn7'
_chemical_formula_moiety
;
(C59 H35 N21 O26 Zn7 4-)n,3(C3 H7 N1 O1),4(C2 H8 N1 1+),4(H2 O1)
;
_journal_coden_Cambridge 155
_journal_volume 469
_journal_year 2018
_journal_page_first 306
_journal_name_full 'Inorg.Chim.Acta '
loop_
_publ_author_name
"E.A.Giles-Mazon"
"I.German-Ramos"
"F.Romero-Romero"
"E.Reinheimer"
"R.A.Toscano"
"N.Lopez"
"C.E.Barrera-Diaz"
"V.Varela-Guerrero"
"M.F.Ballesteros-Rivas"
_chemical_name_systematic
;
catena-[tetrakis(dimethylammonium) 
tetrakis(\m-adeninato)-tetrakis(\m-benzene-1,3,5-tricarboxylato)-(\m-oxo)-(N,N
-dimethylformamide)-hepta-zinc N,N-dimethylformamide solvate tetrahydrate]
;
_cell_volume   4999.993
_exptl_crystal_colour 'colorless'
_exptl_crystal_density_diffrn 1.586
_exptl_crystal_description 'block'
_diffrn_ambient_temperature 100
_diffrn_special_details
;
twin

;
_refine_special_details
;
The structure is disordered.

;
#These two values have been output from a single CSD field.
_refine_ls_R_factor_gt 0.0526
_refine_ls_wR_factor_gt 0.0526
_symmetry_cell_setting monoclinic
_symmetry_space_group_name_H-M 'P n'
_symmetry_Int_Tables_number 7
loop_
_symmetry_equiv_pos_site_id
_symmetry_equiv_pos_as_xyz
1 x,y,z
2 1/2+x,-y,1/2+z
_cell_length_a 20.8819(3)
_cell_length_b 9.5403(1)
_cell_length_c 25.6196(3)
_cell_angle_alpha 90
_cell_angle_beta 101.5825(6)
_cell_angle_gamma 90
_cell_formula_units_Z 2
loop_
_atom_type_symbol
_atom_type_radius_bond
C 0.68
H 0.23
N 0.68
O 0.68
Zn 1.22
loop_
_atom_site_label
_atom_site_type_symbol
_atom_site_fract_x
_atom_site_fract_y
_atom_site_fract_z
O1 O 0.1041(5) 0.4705(9) 0.4308(4)
H1 H 0.07090 0.49950 0.40800
H2 H 0.10230 0.38110 0.43360
O2 O 0.1702(11) 0.5942(14) 0.3812(7)
H3 H 0.20190 0.65760 0.37590
H4 H 0.12800 0.64810 0.39240
O3 O 0.4581(9) 0.4898(19) 0.7751(7)
H5 H 0.50030 0.52640 0.78400
H6 H 0.45030 0.48590 0.74060
N1 N 0.5558(6) 0.5350(13) 0.7212(6)
H7 H 0.56420 0.47090 0.69720
H8 H 0.52680 0.49840 0.73960
C1 C 0.5316(13) 0.671(2) 0.6946(10)
H9 H 0.49060 0.65500 0.66910
H10 H 0.52400 0.73870 0.72170
H11 H 0.56440 0.70910 0.67590
C2 C 0.6217(10) 0.586(2) 0.7604(10)
H12 H 0.64290 0.50540 0.78060
H13 H 0.65140 0.62670 0.73940
H14 H 0.61100 0.65630 0.78510
O4 O 0.8877(4) -0.1709(6) 0.5491(3)
C3 C 0.9120(7) -0.0676(12) 0.5699(5)
H15 H 0.94880 -0.03460 0.55690
N2 N 0.8963(7) 0.0075(12) 0.6076(5)
C4 C 0.9307(11) 0.1265(19) 0.6293(9)
H16 H 0.91000 0.16600 0.65710
H17 H 0.93040 0.19640 0.60120
H18 H 0.97600 0.10060 0.64480
C5 C 0.8437(10) -0.031(2) 0.6336(9)
H19 H 0.83990 0.03960 0.66070
H20 H 0.85280 -0.12250 0.65050
H21 H 0.80270 -0.03490 0.60720
Zn1 Zn 1.03507(5) -0.60014(9) 0.54554(4)
Zn2 Zn 0.93608(5) -0.55595(9) 0.42107(4)
Zn3 Zn 0.91957(4) -0.35898(8) 0.52128(4)
Zn4 Zn 0.83186(4) -0.42251(7) 0.73165(3)
Zn5 Zn 0.62404(4) -0.33464(7) 0.46701(3)
Zn6 Zn 0.89115(4) -0.86409(7) 0.95073(3)
Zn7 Zn 0.66225(4) 0.08060(7) 0.69375(3)
O5 O 0.9492(3) -0.5590(5) 0.4992(2)
O6 O 0.5667(3) -1.2109(6) 1.0394(3)
O7 O 0.6349(10) -1.2735(11) 0.9895(9)
O8 O 0.8142(3) -0.9183(7) 0.9794(3)
O9 O 0.7799(5) -0.7008(9) 0.9619(5)
O10 O 0.5889(3) -0.5509(6) 1.0264(3)
O11 O 0.5191(3) -0.7011(6) 1.0512(2)
O12 O 0.4537(3) -0.2557(6) 0.9010(3)
O13 O 0.5262(8) -0.3220(9) 0.8552(7)
O14 O 0.6088(3) 0.0338(6) 0.7458(2)
O15 O 0.6212(7) 0.2518(8) 0.7781(5)
O16 O 0.4903(4) 0.4043(6) 0.9044(3)
O17 O 0.4432(3) 0.2509(5) 0.9499(2)
O18 O 0.8917(3) -0.3655(5) 0.7972(2)
O19 O 0.8936(3) -0.1579(5) 0.7581(2)
O20 O 1.1483(3) -0.3539(5) 0.9742(2)
O21 O 1.0726(2) -0.5091(5) 0.9362(2)
O22 O 1.0880(2) 0.1506(4) 0.94621(19)
O23 O 1.0530(3) 0.2116(5) 0.8612(2)
O24 O 0.6079(2) 0.1465(5) 0.6271(2)
O25 O 0.6130(3) 0.3630(5) 0.6596(2)
O26 O 0.4441(2) 0.0278(5) 0.4720(2)
O27 O 0.3728(3) 0.1868(6) 0.4311(2)
O28 O 0.4382(2) 0.6913(5) 0.47103(19)
O29 O 0.4647(4) 0.7360(6) 0.5573(2)
N3 N 1.0380(5) -0.6802(11) 0.7087(4)
N4 N 1.0154(4) -0.5912(9) 0.6188(3)
N5 N 0.8905(3) -0.4559(6) 0.6792(2)
N6 N 0.9186(3) -0.4424(6) 0.5980(3)
N7 N 0.9761(4) -0.6266(8) 0.7709(3)
H22 H 1.00240 -0.67900 0.79420
H23 H 0.94290 -0.58350 0.78020
N8 N 0.6471(3) -0.3190(5) 0.5492(2)
N9 N 0.7196(3) -0.4436(5) 0.6174(2)
N10 N 0.6946(3) -0.1103(5) 0.6732(2)
N11 N 0.7564(3) -0.3037(6) 0.6964(2)
N12 N 0.6103(3) -0.0914(6) 0.5580(2)
H24 H 0.58980 -0.09320 0.52450
H25 H 0.60830 -0.01610 0.57750
N13 N 0.7423(5) -0.5485(12) 0.3321(3)
N14 N 0.8401(4) -0.5155(8) 0.3969(3)
N15 N 0.7152(3) -0.3502(6) 0.4499(2)
N16 N 0.8243(3) -0.3858(6) 0.4756(2)
N17 N 0.6423(5) -0.4496(12) 0.3380(3)
H26 H 0.62550 -0.48230 0.30600
H27 H 0.61790 -0.40100 0.35570
N18 N 0.8567(3) -0.8340(6) 0.8709(2)
N19 N 0.7784(3) -0.9507(6) 0.8032(2)
N20 N 0.7988(3) -0.6097(6) 0.7520(2)
N21 N 0.7391(3) -0.8046(6) 0.7261(2)
N22 N 0.8904(3) -0.6052(6) 0.8646(3)
H28 H 0.91460 -0.61300 0.89680
H29 H 0.88980 -0.52580 0.84700
C6 C 1.0485(6) -0.6665(15) 0.6600(5)
H30 H 1.08490 -0.71730 0.65280
C7 C 0.9633(4) -0.5250(9) 0.6319(4)
C8 C 0.9467(4) -0.5331(9) 0.6805(3)
C9 C 0.9867(5) -0.6125(10) 0.7211(4)
C10 C 0.8775(3) -0.4037(7) 0.6294(3)
H31 H 0.84150 -0.34310 0.61720
C11 C 0.6825(3) -0.4322(6) 0.5697(3)
H32 H 0.68030 -0.51200 0.54720
C12 C 0.7188(3) -0.3269(6) 0.6472(2)
C13 C 0.6815(3) -0.2079(6) 0.6322(2)
C14 C 0.6445(3) -0.2037(6) 0.5796(2)
C15 C 0.7400(3) -0.1744(7) 0.7098(3)
H33 H 0.75910 -0.13170 0.74280
C16 C 0.8051(5) -0.5607(13) 0.3507(4)
H34 H 0.82900 -0.60820 0.32820
C17 C 0.8043(4) -0.4462(8) 0.4264(3)
C18 C 0.7371(4) -0.4231(9) 0.4106(3)
C19 C 0.7059(5) -0.4742(12) 0.3598(3)
C20 C 0.7695(4) -0.3322(7) 0.4869(3)
H35 H 0.76920 -0.28410 0.51940
C21 C 0.8190(4) -0.9450(7) 0.8493(3)
H36 H 0.82270 -1.02790 0.87030
C22 C 0.7772(3) -0.8295(7) 0.7755(3)
C23 C 0.8142(3) -0.7108(6) 0.7918(3)
C24 C 0.8550(3) -0.7122(7) 0.8428(3)
C25 C 0.7544(4) -0.6742(7) 0.7149(3)
H37 H 0.73480 -0.62940 0.68250
C26 C 0.6346(5) -1.0356(9) 1.0182(5)
C27 C 0.6931(5) -1.0013(10) 1.0038(5)
H38 H 0.72160 -1.07510 0.99820
C28 C 0.7117(4) -0.8665(10) 0.9973(5)
C29 C 0.6718(4) -0.7587(9) 1.0096(4)
H39 H 0.68470 -0.66380 1.00730
C30 C 0.6137(4) -0.7896(9) 1.0251(4)
C31 C 0.5954(4) -0.9291(8) 1.0298(4)
H40 H 0.55580 -0.95040 1.04100
C32 C 0.6113(7) -1.1855(11) 1.0158(7)
C33 C 0.7738(5) -0.8256(10) 0.9790(4)
C34 C 0.5694(4) -0.6735(9) 1.0357(4)
C35 C 0.5096(5) -0.0797(9) 0.8657(4)
C36 C 0.5451(5) -0.0450(9) 0.8268(4)
H41 H 0.55910 -0.11680 0.80600
C37 C 0.5598(5) 0.0931(9) 0.8183(4)
C38 C 0.5377(5) 0.1978(8) 0.8484(4)
H42 H 0.54750 0.29300 0.84230
C39 C 0.5017(4) 0.1657(8) 0.8870(4)
C40 C 0.4889(5) 0.0257(8) 0.8957(4)
H43 H 0.46550 0.00190 0.92270
C41 C 0.4951(6) -0.2325(10) 0.8736(5)
C42 C 0.6002(6) 0.134(1) 0.7775(4)
C43 C 0.4766(4) 0.2796(8) 0.9172(3)
C44 C 0.9714(3) -0.2017(7) 0.8375(3)
C45 C 1.0053(3) -0.3058(6) 0.8698(3)
H44 H 0.99240 -0.40100 0.86420
C46 C 1.0578(3) -0.2716(7) 0.9100(3)
C47 C 1.0744(3) -0.1311(6) 0.9198(3)
H45 H 1.10850 -0.10660 0.94890
C48 C 1.0413(3) -0.0267(6) 0.8872(2)
C49 C 0.9901(3) -0.0627(7) 0.8453(3)
H46 H 0.96830 0.00790 0.82220
C50 C 0.9148(3) -0.2404(7) 0.7936(3)
C51 C 1.0966(3) -0.3838(7) 0.9432(3)
C52 C 1.0612(3) 0.1241(7) 0.8977(3)
C53 C 0.5401(3) 0.3201(7) 0.5782(3)
C54 C 0.5076(3) 0.2205(7) 0.5426(3)
H47 H 0.51890 0.12430 0.54760
C55 C 0.4586(3) 0.2604(7) 0.4998(3)
C56 C 0.4432(3) 0.4016(7) 0.4921(3)
H48 H 0.41030 0.43010 0.46280
C57 C 0.4764(3) 0.5024(7) 0.5276(3)
C58 C 0.5234(3) 0.4611(7) 0.5707(3)
H49 H 0.54450 0.52910 0.59540
C59 C 0.5905(3) 0.2774(7) 0.6252(3)
C60 C 0.4214(4) 0.1514(7) 0.4643(3)
C61 C 0.4585(3) 0.6565(7) 0.5191(3)
N23 N 0.8511(18) -0.240(5) 0.2920(19)
H50 H 0.86750 -0.22620 0.26210
H51 H 0.87550 -0.30460 0.31320
C62 C 0.845(3) -0.103(5) 0.321(3)
H52 H 0.88900 -0.06240 0.33310
H53 H 0.82620 -0.12210 0.35260
H54 H 0.81760 -0.03780 0.29760
C63 C 0.774(2) -0.281(7) 0.278(3)
H55 H 0.76800 -0.37010 0.25850
H56 H 0.74890 -0.20750 0.25640
H57 H 0.75750 -0.29180 0.31140
N24 N 0.753(2) 0.113(5) 0.257(2)
H58 H 0.73610 0.04740 0.23210
H59 H 0.73380 0.10250 0.28590
C64 C 0.745(3) 0.260(5) 0.235(3)
H60 H 0.69810 0.28080 0.22300
H61 H 0.76420 0.32670 0.26250
H62 H 0.76670 0.26740 0.20450
C65 C 0.832(2) 0.105(6) 0.273(3)
H63 H 0.84510 0.01300 0.28870
H64 H 0.85040 0.11910 0.24140
H65 H 0.84790 0.17840 0.29940
N25 N 0.787(3) 0.535(7) 0.068(2)
H66 H 0.77370 0.51250 0.03330
H67 H 0.81130 0.61460 0.07140
C66 C 0.730(3) 0.547(7) 0.096(3)
H68 H 0.70130 0.62210 0.08000
H69 H 0.74680 0.56790 0.13410
H70 H 0.70630 0.45800 0.09310
C67 C 0.827(3) 0.406(7) 0.102(3)
H71 H 0.86620 0.38550 0.08810
H72 H 0.79880 0.32290 0.09870
H73 H 0.83930 0.43280 0.13970
O30 O 0.3599(15) 0.674(3) 0.7161(12)
H74 H 0.37440 0.71680 0.74660
H75 H 0.33890 0.59680 0.71960
O31 O 0.5899(7) 0.3801(10) 0.2471(5)
C68 C 0.5922(8) 0.2592(12) 0.2591(5)
H76 H 0.61450 0.23630 0.29420
N26 N 0.5669(8) 0.1546(11) 0.2285(5)
C69 C 0.5245(11) 0.1756(17) 0.1800(6)
H77 H 0.51130 0.08480 0.16340
H78 H 0.48580 0.22650 0.18580
H79 H 0.54660 0.23050 0.15650
C70 C 0.5708(14) 0.0136(14) 0.2478(8)
H80 H 0.54930 -0.04930 0.21940
H81 H 0.61680 -0.01330 0.25900
H82 H 0.54900 0.00690 0.27820
O32 O 0.2346(18) 0.421(3) 0.4667(11)
C71 C 0.2548(14) 0.319(3) 0.4489(8)
H83 H 0.28060 0.26020 0.47490
N27 N 0.2478(10) 0.273(2) 0.4005(7)
C72 C 0.1968(9) 0.183(2) 0.3778(9)
H84 H 0.20030 0.16050 0.34110
H85 H 0.19960 0.09620 0.39870
H86 H 0.15480 0.22870 0.37760
C73 C 0.2738(12) 0.349(3) 0.3605(10)
H87 H 0.26370 0.29740 0.32670
H88 H 0.25410 0.44200 0.35580
H89 H 0.32140 0.35740 0.37190
O33? O 0.9492(13) 0.083(3) 0.5460(11)
H90? H 0.93210 0.10370 0.51430
H91? H 0.99430 0.14800 0.55380
O34? O 0.978(2) 1.046(4) 0.1629(17)
C74? C 0.937(2) 0.993(4) 0.1307(17)
H92? H 0.92210 1.04760 0.09970
N28? N 0.9092(19) 0.871(3) 0.1307(15)
C75? C 0.933(2) 0.764(4) 0.1658(18)
H93? H 0.90470 0.68200 0.15860
H94? H 0.93550 0.79560 0.20250
H95? H 0.97740 0.73820 0.16110
C76? C 0.856(2) 0.831(5) 0.089(2)
H96? H 0.84110 0.73600 0.09580
H97? H 0.86970 0.83220 0.05460
H98? H 0.81930 0.89670 0.08770
O35? O 0.8587(9) 0.260(2) 0.5089(11)
C77? C 0.8184(8) 0.267(2) 0.5363(8)
H99? H 0.82280 0.34140 0.56160
N29? N 0.7688(6) 0.1815(15) 0.5340(6)
C78? C 0.7574(11) 0.073(2) 0.4972(9)
H100? H 0.71850 0.02050 0.50160
H101? H 0.75050 0.11150 0.46100
H102? H 0.79530 0.00980 0.50290
C79? C 0.7227(8) 0.196(2) 0.5677(7)
H103? H 0.68980 0.12220 0.55970
H104? H 0.74530 0.18940 0.60500
H105? H 0.70140 0.28810 0.56150
O36? O 0.861(2) 0.255(7) 0.520(2)
C80? C 0.811(2) 0.238(5) 0.488(2)
H106? H 0.77710 0.30260 0.49050
N30? N 0.7974(17) 0.142(4) 0.4517(16)
C81? C 0.845(2) 0.056(8) 0.437(3)
H107? H 0.82450 -0.00820 0.40910
H108? H 0.87730 0.11440 0.42430
H109? H 0.86700 0.00250 0.46840
C82? C 0.7340(19) 0.129(6) 0.418(2)
H110? H 0.73380 0.05120 0.39350
H111? H 0.70160 0.11180 0.44050
H112? H 0.72300 0.21640 0.39820
O37? O 0.873(3) 0.951(4) 0.091(2)
C83? C 0.894(4) 0.850(5) 0.116(3)
H113? H 0.92920 0.86430 0.14560
N31? N 0.873(2) 0.720(4) 0.108(2)
C84? C 0.895(4) 0.613(5) 0.144(3)
H114? H 0.87440 0.52460 0.13090
H115? H 0.88420 0.63540 0.17870
H116? H 0.94290 0.60370 0.14870
C85? C 0.814(3) 0.688(6) 0.071(3)
H117? H 0.80700 0.58680 0.06980
H118? H 0.81840 0.72060 0.03510
H119? H 0.77750 0.73580 0.08140
O38? O 0.910(3) 1.043(4) 0.104(2)
C86? C 0.915(4) 0.940(4) 0.131(2)
H120? H 0.93740 0.94970 0.16680
N32? N 0.892(3) 0.815(4) 0.1167(19)
C87? C 0.902(3) 0.702(5) 0.152(2)
H121? H 0.88190 0.61760 0.13400
H122? H 0.88280 0.72260 0.18290
H123? H 0.94940 0.68590 0.16400
C88? C 0.839(3) 0.795(6) 0.072(2)
H124? H 0.82950 0.69430 0.06750
H125? H 0.85190 0.83090 0.03960
H126? H 0.80060 0.84460 0.07810
O39? O 0.8494(9) 0.229(2) 0.4891(8)
C89? C 0.7989(11) 0.213(2) 0.4588(11)
H127? H 0.76790 0.28610 0.45770
N33? N 0.7804(10) 0.107(2) 0.4267(9)
C90? C 0.8219(15) -0.003(3) 0.4208(14)
H128? H 0.79850 -0.07050 0.39490
H129? H 0.85990 0.03290 0.40800
H130? H 0.83650 -0.04970 0.45520
C91? C 0.7219(14) 0.115(4) 0.3863(14)
H131? H 0.71610 0.02630 0.36630
H132? H 0.68420 0.13010 0.40300
H133? H 0.72540 0.19220 0.36190
N34? N 0.696(6) 0.558(10) 0.145(3)
H134? H 0.65610 0.55880 0.12270
H135? H 0.72340 0.50050 0.13180
C92? C 0.724(6) 0.703(9) 0.156(4)
H136? H 0.73000 0.74620 0.12310
H137? H 0.76550 0.69790 0.18160
H138? H 0.69300 0.76070 0.17180
C93? C 0.690(7) 0.512(11) 0.205(4)
H139? H 0.67210 0.41710 0.20470
H140? H 0.66080 0.57750 0.21870
H141? H 0.73330 0.51470 0.22850
N35? N 0.791(5) -0.084(8) 0.328(3)
H142? H 0.81400 -0.14780 0.35040
H143? H 0.74710 -0.10000 0.32520
C94? C 0.810(5) -0.086(9) 0.274(3)
H144? H 0.80010 -0.17880 0.25740
H145? H 0.78440 -0.01490 0.25080
H146? H 0.85630 -0.06620 0.27800
C95? C 0.811(5) 0.076(8) 0.345(3)
H147? H 0.80120 0.09410 0.38070
H148? H 0.85760 0.08960 0.34660
H149? H 0.78560 0.14100 0.31950
N36? N 0.688(3) 0.332(5) 0.1684(17)
H150? H 0.70690 0.34240 0.13970
H151? H 0.64480 0.35660 0.15920
C96? C 0.696(4) 0.185(5) 0.191(3)
H152? H 0.67540 0.11810 0.16410
H153? H 0.67620 0.17910 0.22240
H154? H 0.74310 0.16390 0.20140
C97? C 0.726(3) 0.420(6) 0.220(2)
H155? H 0.72450 0.51980 0.21120
H156? H 0.77140 0.38820 0.22900
H157? H 0.70450 0.40340 0.25000
O40? O 0.7896(7) -0.1021(12) 0.5810(6)
C98? C 0.776(1) 0.0191(14) 0.5761(8)
H158? H 0.74060 0.04210 0.54790
N37? N 0.8034(8) 0.1244(13) 0.6047(7)
C99? C 0.8557(11) 0.107(2) 0.6474(8)
H159? H 0.86890 0.19900 0.66330
H160? H 0.84250 0.04640 0.67420
H161? H 0.89250 0.06480 0.63480
C100? C 0.7881(14) 0.2670(16) 0.5899(11)
H162? H 0.81380 0.32950 0.61650
H163? H 0.79850 0.28550 0.55500
H164? H 0.74140 0.28360 0.58830
Zn1A Zn 0.53507(5) -1.39986(9) 1.04554(4)
Zn1A* Zn 0.53507(5) -0.39986(9) 1.04554(4)
Zn2A Zn 0.43608(5) -0.44405(9) 0.92107(4)
Zn2A* Zn 0.43608(5) 0.55595(9) 0.92107(4)
Zn3A Zn 0.41957(4) -0.64102(8) 1.02128(4)
Zn3A* Zn 0.41957(4) 0.35898(8) 1.02128(4)
Zn5A Zn 1.12404(4) -0.66536(7) 0.96701(3)
Zn5A* Zn 1.12404(4) 0.33464(7) 0.96701(3)
Zn6A Zn 0.39115(4) -0.13591(7) 0.45073(3)
Zn6A* Zn 0.39115(4) 0.86409(7) 0.45073(3)
Zn7* Zn 0.66225(4) -0.91940(7) 0.69375(3)
O6A O 1.0667(3) -0.7891(6) 0.5394(3)
O10A O 1.0889(3) -0.4491(6) 0.5264(3)
O11A O 1.0191(3) -0.2989(6) 0.5512(2)
O12A O 0.9537(3) -0.7443(6) 0.4010(3)
O16A O 0.9903(4) -0.4043(6) 0.4044(3)
O17A O 0.9432(3) -0.2509(5) 0.4499(2)
O21A O 0.5726(2) -0.4909(5) 0.4362(2)
O22A O 0.5880(2) -0.1506(4) 0.44621(19)
O26A O 0.9441(2) -1.0278(5) 0.9720(2)
O28A O 0.9382(2) -0.6913(5) 0.97103(19)
N21* N 0.7391(3) 0.1954(6) 0.7261(2)
#END
