
#######################################################################
#
#                 Cambridge Crystallographic Data Centre
#                                CCDC
#
#######################################################################
#
# If this CIF has been generated from an entry in the Cambridge
# Structural Database, then it will include bibliographic, chemical,
# crystal, experimental, refinement or atomic coordinate data resulting
# from the CCDC's data processing and validation procedures.
#
#######################################################################

data_CSD_CIF_SEPJUV
_audit_creation_date 2017-11-01
_audit_creation_method CSD-ConQuest-V1
_database_code_CSD SEPJUV
_database_code_depnum_ccdc_archive 'CCDC 1583477'
_chemical_formula_sum 'C65 H96 N16 Na4 O36 S4'
_chemical_formula_moiety
;
(C62 H68 N16 Na2 O24 S4 2-)n,C3 H6 O1,2(Na1 1+),11(H2 O1)
;
_journal_coden_Cambridge 4
_journal_volume 139
_journal_year 2017
_journal_page_first 14954
_journal_name_full 'J.Am.Chem.Soc. '
loop_
_publ_author_name
"E.G.Shcherbakova"
"Ben Zhang"
"S.Gozem"
"T.Minami"
"Peter Y.Zavalij"
"M.Pushina"
"L.D.Isaacs"
"P.Anzenbacher Junior"
_chemical_name_systematic
;
catena-[di-sodium 
(\m-1,1':3',1'':3'',1''':3'''',1''''':3''''',1'''''':8,4':6',4'':6'',4''':6'''
,4'''':6'''',8'''''-octamethylene-bis(2,7-bis(3-sulfonatopropoxy)naphthalene)-
tetrakis(glycoluril)-7,7''',8,8'''-tetramethyl-2,2',2'',2''',5,5',5'',5'''-oct
one)-di-sodium acetone solvate undecahydrate]
;
_cell_volume   4607.140
_exptl_crystal_colour 'purple'
_exptl_crystal_density_diffrn 1.273
_exptl_special_details
;
The structure contains voids

;
_exptl_crystal_description 'plate'
_diffrn_ambient_temperature 150
_refine_special_details
;
The structure is disordered.
water of crystallization refined as partially occupied oxygen atoms; 2 of 4 
Na ions are also inluded above as it was not possible distinguish partially 
occuied Na ions from water molecules
;
#These two values have been output from a single CSD field.
_refine_ls_R_factor_gt 0.1452
_refine_ls_wR_factor_gt 0.1452
_symmetry_cell_setting triclinic
_symmetry_space_group_name_H-M 'P -1'
_symmetry_Int_Tables_number 2
loop_
_symmetry_equiv_pos_site_id
_symmetry_equiv_pos_as_xyz
1 x,y,z
2 -x,-y,-z
_cell_length_a 15.095(2)
_cell_length_b 18.214(3)
_cell_length_c 19.640(3)
_cell_angle_alpha 112.581(2)
_cell_angle_beta 109.186(2)
_cell_angle_gamma 93.104(2)
_cell_formula_units_Z 2
loop_
_atom_type_symbol
_atom_type_radius_bond
C 0.68
H 0.23
N 0.68
Na 1.66
O 0.68
S 1.02
loop_
_atom_site_label
_atom_site_type_symbol
_atom_site_fract_x
_atom_site_fract_y
_atom_site_fract_z
O1 O 0.671(3) 0.844(2) 0.7010(16)
C1 C 0.708(2) 0.8170(18) 0.6327(19)
C2 C 0.792(2) 0.874(3) 0.652(3)
C3 C 0.641(2) 0.7513(16) 0.5633(17)
Na1 Na 0.5950(3) 0.4795(3) 0.4614(3)
O2 O 0.8847(9) 1.4168(7) 1.2108(8)
O3 O 0.7713(8) 1.3218(8) 1.2114(7)
O4 O 0.8648(7) 1.2768(6) 1.1235(6)
S1 S 0.8194(4) 1.3394(3) 1.1608(3)
C4 C 0.7354(12) 1.3549(8) 1.0866(7)
H1 H 0.69100 1.38410 1.10910
H2 H 0.76920 1.39180 1.07280
C5 C 0.6778(15) 1.2847(10) 1.0128(10)
H3 H 0.64650 1.24520 1.02550
H4 H 0.72020 1.25790 0.98620
C6 C 0.6022(12) 1.3072(8) 0.9566(9)
H5 H 0.56640 1.34300 0.98470
H6 H 0.63120 1.33530 0.93250
O5 O 0.5390(8) 1.2297(7) 0.8958(7)
C7 C 0.5622(11) 1.1838(8) 0.8366(8)
C8 C 0.6364(15) 1.1994(11) 0.8089(12)
H7 H 0.67750 1.25160 0.83820
C9 C 0.6520(18) 1.1504(13) 0.7497(15)
H8 H 0.70440 1.16610 0.73810
C10 C 0.5928(14) 1.0739(11) 0.7018(12)
C11 C 0.6099(15) 1.0226(14) 0.6348(13)
H9 H 0.66640 1.03880 0.62850
C12 C 0.5495(15) 0.9505(12) 0.5782(12)
H10 H 0.56180 0.91950 0.53210
C13 C 0.5053(10) 1.1002(8) 0.7902(10)
C14 C 0.5157(10) 1.0469(9) 0.7197(10)
C15 C 0.4549(10) 0.9716(9) 0.6617(8)
C16 C 0.4691(11) 0.9234(9) 0.5896(9)
O6 O 0.4029(9) 0.8595(7) 0.5344(7)
C17 C 0.4148(13) 0.8064(13) 0.4618(10)
H11 H 0.47350 0.78420 0.47460
H12 H 0.41900 0.83610 0.42970
C18 C 0.3267(14) 0.7397(11) 0.418(1)
H13 H 0.34250 0.69170 0.42790
H14 H 0.27690 0.75800 0.43940
C19 C 0.2884(16) 0.716(2) 0.3326(10)
H15 H 0.32990 0.68240 0.31000
H16 H 0.29520 0.76610 0.32450
S2 S 0.1720(11) 0.6639(10) 0.2772(8)
O7 O 0.143(2) 0.6721(19) 0.2033(13)
O8 O 0.1659(19) 0.5772(12) 0.2700(15)
O9 O 0.1170(19) 0.7007(17) 0.3240(18)
C20 C 0.4413(10) 1.0764(10) 0.8260(11)
H17 H 0.45170 1.12240 0.87750
H18 H 0.37380 1.06750 0.79030
C21 C 0.3610(11) 0.9318(10) 0.6613(10)
H19 H 0.32450 0.97450 0.67730
H20 H 0.32150 0.89210 0.60610
N1 N 0.4544(8) 1.0065(7) 0.8393(7)
C22 C 0.3848(8) 0.9311(8) 0.7972(8)
C23 C 0.2865(9) 0.9431(10) 0.8011(10)
H21 H 0.29330 0.96960 0.85700
H22 H 0.24260 0.89020 0.77480
H23 H 0.26090 0.97730 0.77420
N2 N 0.3749(8) 0.8906(8) 0.7132(7)
O10 O 0.6133(6) 1.0503(6) 0.9197(6)
C24 C 0.5408(10) 0.9962(8) 0.8807(8)
C25 C 0.3864(8) 0.8137(9) 0.6940(8)
O11 O 0.3720(6) 0.7615(6) 0.6263(5)
N3 N 0.5332(7) 0.9182(6) 0.8734(6)
C26 C 0.4322(8) 0.8740(8) 0.8319(7)
N4 N 0.4148(6) 0.7988(6) 0.7604(6)
C27 C 0.3961(10) 0.8563(9) 0.8896(8)
H24 H 0.32780 0.83070 0.86250
H25 H 0.40520 0.90730 0.93580
H26 H 0.43220 0.81970 0.90760
C28 C 0.6088(9) 0.8954(8) 0.9240(7)
H27 H 0.66030 0.94410 0.96120
H28 H 0.58300 0.87680 0.95630
C29 C 0.4345(8) 0.7224(8) 0.7580(7)
H29 H 0.39360 0.67920 0.70500
H30 H 0.41630 0.71260 0.79830
N5 N 0.6495(7) 0.8327(6) 0.8819(5)
C30 C 0.6089(8) 0.7478(7) 0.8507(6)
H31 H 0.58830 0.73530 0.88920
N6 N 0.5331(7) 0.7156(6) 0.7724(5)
O12 O 0.7997(6) 0.9121(5) 0.9302(5)
C31 C 0.7470(8) 0.8459(9) 0.8967(7)
C32 C 0.5623(9) 0.6657(8) 0.7147(8)
O13 O 0.5122(5) 0.6276(5) 0.6433(5)
N7 N 0.7714(6) 0.7736(6) 0.8713(5)
C33 C 0.6914(8) 0.7058(7) 0.8358(6)
H32 H 0.70450 0.66710 0.86110
N8 N 0.6572(6) 0.6641(6) 0.7491(5)
C34 C 0.8693(8) 0.7645(8) 0.8847(7)
H33 H 0.91250 0.81530 0.92890
H34 H 0.88010 0.72020 0.90190
C35 C 0.7018(8) 0.6036(7) 0.7092(7)
H35 H 0.65320 0.56510 0.65690
H36 H 0.72510 0.57260 0.74100
N9 N 0.7813(6) 0.6365(6) 0.6965(5)
C36 C 0.8781(7) 0.6673(7) 0.7570(7)
H37 H 0.89880 0.62820 0.78050
N10 N 0.8947(6) 0.7471(6) 0.8170(5)
O14 O 0.7080(5) 0.5904(5) 0.5603(5)
C37 C 0.7781(9) 0.6212(7) 0.6220(8)
C38 C 0.9515(8) 0.8021(8) 0.8113(7)
O15 O 0.9781(5) 0.8745(5) 0.8557(4)
N11 N 0.8689(6) 0.6477(6) 0.6287(5)
C39 C 0.9384(8) 0.6769(7) 0.7093(6)
H38 H 0.99080 0.64560 0.71300
N12 N 0.9750(6) 0.7634(6) 0.7464(5)
C40 C 0.8960(8) 0.6221(7) 0.5603(7)
H39 H 0.94650 0.59020 0.56780
H40 H 0.83970 0.58580 0.51240
C41 C 1.0578(8) 0.7992(8) 0.7387(7)
H41 H 1.08600 0.85370 0.78350
H42 H 1.10660 0.76530 0.74340
N13 N 0.9305(7) 0.6879(6) 0.5466(6)
C42 C 1.0270(8) 0.7396(8) 0.5889(7)
C43 C 1.1037(9) 0.6903(8) 0.5999(8)
H43 H 1.16710 0.72580 0.62340
H44 H 1.09550 0.64720 0.54810
H45 H 1.09820 0.66600 0.63540
N14 N 1.0370(6) 0.8071(6) 0.6645(5)
O16 O 0.7916(6) 0.6716(6) 0.4428(5)
C44 C 0.8748(10) 0.7044(8) 0.4851(8)
C45 C 1.0532(8) 0.8819(9) 0.6653(8)
O17 O 1.0652(6) 0.9465(5) 0.7201(5)
N15 N 0.9292(7) 0.7634(7) 0.4821(5)
C46 C 1.0294(9) 0.7854(8) 0.5373(7)
C47 C 1.0968(10) 0.7628(9) 0.4916(8)
H46 H 1.08630 0.78880 0.45490
H47 H 1.08350 0.70370 0.46120
H48 H 1.16360 0.78160 0.52950
N16 N 1.0557(7) 0.8697(6) 0.5918(5)
C48 C 0.8923(10) 0.7986(9) 0.4245(7)
H49 H 0.85180 0.75410 0.37220
H50 H 0.94740 0.82290 0.41790
C49 C 1.0518(9) 0.9360(8) 0.5668(7)
H51 H 1.05230 0.91480 0.51240
H52 H 1.11060 0.97850 0.60270
O18 O 0.3272(10) 0.5316(14) 0.2056(14)
O19 O 0.4605(17) 0.4697(11) 0.2286(15)
O20 O 0.445(2) 0.5901(15) 0.3394(9)
S3 S 0.4271(7) 0.5499(7) 0.2557(6)
C50 C 0.4829(14) 0.6160(14) 0.2321(12)
H53 H 0.48230 0.58530 0.17790
H54 H 0.44390 0.65760 0.22960
C51 C 0.5813(15) 0.6581(19) 0.285(2)
H55 H 0.62430 0.61920 0.27680
H56 H 0.58640 0.67750 0.34100
C52 C 0.6143(11) 0.7290(9) 0.2721(9)
H57 H 0.61490 0.71070 0.21790
H58 H 0.57160 0.76830 0.27900
O21 O 0.7110(7) 0.7655(7) 0.3324(7)
C53 C 0.7329(9) 0.8375(9) 0.3922(8)
C54 C 0.6765(12) 0.8979(10) 0.4155(10)
H59 H 0.60990 0.88400 0.38360
C55 C 0.7074(13) 0.9674(13) 0.4741(12)
H60 H 0.66430 1.00240 0.48430
C56 C 0.8039(11) 0.9926(11) 0.5237(10)
C57 C 0.8356(13) 1.0718(11) 0.5854(11)
H61 H 0.78990 1.10520 0.59090
C58 C 0.9285(12) 1.1032(10) 0.6378(9)
H62 H 0.94580 1.15620 0.68000
C59 C 0.8342(8) 0.8629(9) 0.4471(8)
C60 C 0.8711(9) 0.9412(9) 0.5118(8)
C61 C 0.9670(8) 0.9743(7) 0.5667(7)
C62 C 0.9980(8) 1.0564(8) 0.6285(7)
O22 O 1.0898(6) 1.0858(5) 0.6731(5)
C63 C 1.1216(9) 1.1587(8) 0.7484(7)
H63 H 1.08580 1.15450 0.78140
H64 H 1.11170 1.20770 0.73870
C64 C 1.2264(9) 1.1632(9) 0.7892(7)
H65 H 1.23380 1.11710 0.80410
H66 H 1.25840 1.15730 0.75130
C65 C 1.2739(9) 1.2391(7) 0.8605(7)
H67 H 1.25260 1.28430 0.84770
H68 H 1.34370 1.24600 0.87270
S4 S 1.2562(4) 1.2491(3) 0.9456(2)
O23 O 1.3179(9) 1.3234(6) 1.0099(6)
O24 O 1.1494(8) 1.2450(9) 0.9284(7)
O25 O 1.2769(9) 1.1772(6) 0.9560(6)
Na2 Na 0.9072(3) 1.0196(3) 1.0401(3)
Na1A Na 0.4050(3) 0.5205(3) 0.5386(3)
O13A O 0.4878(5) 0.3724(5) 0.3567(5)
O15A O 1.0219(5) 1.1255(5) 1.1443(4)
Na2A Na 1.0928(3) 0.9804(3) 0.9599(3)
#END
