
#######################################################################
#
#                 Cambridge Crystallographic Data Centre
#                                CCDC
#
#######################################################################
#
# If this CIF has been generated from an entry in the Cambridge
# Structural Database, then it will include bibliographic, chemical,
# crystal, experimental, refinement or atomic coordinate data resulting
# from the CCDC's data processing and validation procedures.
#
#######################################################################

data_CSD_CIF_SEQMEJ
_audit_creation_date 2017-11-01
_audit_creation_method CSD-ConQuest-V1
_database_code_CSD SEQMEJ
_database_code_depnum_ccdc_archive 'CCDC 1578616'
_chemical_formula_sum 'C84 H76 N4 O38 Si3 U4'
_chemical_formula_moiety
;
(C84 H48 O32 Si3 U4 4-)n,4n(H4 N1 1+),6n(H2 O1)
;
_journal_coden_Cambridge 9
_journal_volume 56
_journal_year 2017
_journal_page_first 14147
_journal_name_full 'Inorg.Chem. '
loop_
_publ_author_name
"Chao Liu"
"Fang-Yuan Chen"
"Hong-Rui Tian"
"Jing Ai"
"Weiting Yang"
"Qing-Jiang Pan"
"Zhong-Ming Sun"
_chemical_name_systematic
;
catena-(tetrakis(ammonium) 
tris(\m-3,3',3'',3'''-silanetetrayltetrabenzoato)-octaoxo-tetra-uranium 
unknown solvate hexahydrate)
;
_cell_volume  40103.827
_exptl_crystal_colour 'yellow'
_exptl_crystal_density_diffrn 1.37
_exptl_crystal_description 'cube'
_diffrn_ambient_temperature 100
_refine_special_details
;
U1 and U1' disordered over two sites with occupancies 0.63:0.37; The 
MASK/OLEX2 program has been used to model some disorder.
;
#These two values have been output from a single CSD field.
_refine_ls_R_factor_gt 0.0376
_refine_ls_wR_factor_gt 0.0376
_symmetry_cell_setting rhombohedral
_symmetry_space_group_name_H-M 'R -3 c'
_symmetry_Int_Tables_number 167
loop_
_symmetry_equiv_pos_site_id
_symmetry_equiv_pos_as_xyz
1 x,y,z
2 -y,x-y,z
3 -x+y,-x,z
4 y,x,1/2-z
5 -x,-x+y,1/2-z
6 x-y,-y,1/2-z
7 2/3+x,1/3+y,1/3+z
8 2/3-y,1/3+x-y,1/3+z
9 2/3-x+y,1/3-x,1/3+z
10 2/3+y,1/3+x,5/6-z
11 2/3-x,1/3-x+y,5/6-z
12 2/3+x-y,1/3-y,5/6-z
13 1/3+x,2/3+y,2/3+z
14 1/3-y,2/3+x-y,2/3+z
15 1/3-x+y,2/3-x,2/3+z
16 1/3+y,2/3+x,1/6-z
17 1/3-x,2/3-x+y,1/6-z
18 1/3+x-y,2/3-y,1/6-z
19 -x,-y,-z
20 y,-x+y,-z
21 x-y,x,-z
22 -y,-x,-1/2+z
23 x,x-y,-1/2+z
24 -x+y,y,-1/2+z
25 -2/3-x,-1/3-y,-1/3-z
26 -2/3+y,-1/3-x+y,-1/3-z
27 -2/3+x-y,-1/3+x,-1/3-z
28 -2/3-y,-1/3-x,-5/6+z
29 -2/3+x,-1/3+x-y,-5/6+z
30 -2/3-x+y,-1/3+y,-5/6+z
31 -1/3-x,-2/3-y,-2/3-z
32 -1/3+y,-2/3-x+y,-2/3-z
33 -1/3+x-y,-2/3+x,-2/3-z
34 -1/3-y,-2/3-x,-1/6+z
35 -1/3+x,-2/3+x-y,-1/6+z
36 -1/3-x+y,-2/3+y,-1/6+z
_cell_length_a 26.8972(10)
_cell_length_b 26.8972(10)
_cell_length_c 64.009(6)
_cell_angle_alpha 90
_cell_angle_beta 90
_cell_angle_gamma 120
_cell_formula_units_Z 12
loop_
_atom_type_symbol
_atom_type_radius_bond
C 0.68
H 0.23
N 0.68
O 0.68
Si 1.20
U 1.96
loop_
_atom_site_label
_atom_site_type_symbol
_atom_site_fract_x
_atom_site_fract_y
_atom_site_fract_z
U1? U 0.33330 0.66670 0.47212(6)
U2 U 0.33330 0.66670 0.4758(2)
U3 U 0.90840(2) 0.78431(2) 0.42140(2)
Si1 Si 0.66232(6) 0.80232(6) 0.47468(2)
O1 O 0.33330 0.66670 0.5020(3)
O2 O 0.90124(19) 0.8130(2) 0.45742(7)
O3 O 0.82181(16) 0.99734(16) 0.43860(6)
O4 O 0.5872(2) 0.84417(18) 0.56524(7)
O5 O 0.79458(18) 1.00406(16) 0.40716(6)
O6 O 0.8910(2) 0.71600(19) 0.43111(7)
O7 O 0.39266(19) 0.62056(18) 0.47317(10)
O8 O 0.82422(19) 0.7754(2) 0.43801(7)
O9 O 0.5820(2) 0.76650(17) 0.55232(6)
O10 O 0.9282(2) 0.8531(2) 0.41239(7)
O11 O 0.43690(19) 0.7127(2) 0.47332(12)
O12 O 0.33330 0.66670 0.4466(2)
C1 C 0.7360(2) 0.9175(2) 0.42609(9)
C2 C 0.7487(2) 0.8097(2) 0.50344(9)
H1 H 0.72720 0.81380 0.51400
C3 C 0.7238(2) 0.8895(2) 0.44515(9)
H2 H 0.74920 0.90700 0.45620
C4 C 0.6169(3) 0.8479(2) 0.53005(9)
C5 C 0.8148(2) 0.7999(3) 0.47279(9)
C6 C 0.6995(3) 0.8905(2) 0.40943(9)
H3 H 0.70740 0.90810 0.39640
C7 C 0.5445(2) 0.7227(2) 0.47429(10)
H4 H 0.54140 0.75520 0.47670
C8 C 0.6256(2) 0.8189(2) 0.51368(9)
H5 H 0.61700 0.78130 0.51590
C9 C 0.4944(3) 0.6692(3) 0.47235(11)
C10 C 0.6514(3) 0.8377(3) 0.41222(10)
H6 H 0.62680 0.81970 0.40100
C11 C 0.7866(2) 0.9753(2) 0.42386(9)
C12 C 0.6015(3) 0.6792(3) 0.4690(1)
H7 H 0.63740 0.68230 0.46770
C13 C 0.4992(3) 0.6209(3) 0.46922(13)
H8 H 0.46660 0.58470 0.46850
C14 C 0.8473(3) 0.7955(3) 0.45535(10)
C15 C 0.7991(3) 0.8113(3) 0.50859(10)
H9 H 0.81070 0.81530 0.52250
C16 C 0.5981(2) 0.7283(2) 0.47277(9)
C17 C 0.7287(2) 0.8021(2) 0.48309(9)
C18 C 0.6394(3) 0.8113(3) 0.43134(10)
H10 H 0.60640 0.77570 0.43290
C19 C 0.6463(2) 0.8435(2) 0.49434(10)
C20 C 0.6755(2) 0.8365(2) 0.44845(9)
C21 C 0.7627(2) 0.7968(2) 0.46778(9)
H11 H 0.75040 0.79100 0.45400
C22 C 0.5947(3) 0.8191(2) 0.54969(10)
C23 C 0.5541(3) 0.6275(3) 0.46720(13)
H12 H 0.55770 0.59550 0.46460
C24 C 0.6282(3) 0.9030(3) 0.52651(11)
H13 H 0.62310 0.92340 0.53720
C25 C 0.6469(3) 0.9279(3) 0.50723(11)
H14 H 0.65330 0.96480 0.50480
C26 C 0.8323(3) 0.8070(3) 0.49331(10)
H15 H 0.86670 0.80890 0.49680
C27 C 0.6561(3) 0.8990(2) 0.49148(10)
H16 H 0.66930 0.91680 0.47860
C28 C 0.4393(3) 0.6678(3) 0.47300(14)
O13 O 0.6094(4) 0.9516(4) 0.39437(17)
N1 N 1.00000 1.00000 0.4247(3)
O14 O 0.5311(7) 0.5370(5) 0.51690(16)
N2 N 0.3582(5) 0.5252(5) 0.5005(2)
U3A U 0.21569(2) 1.12409(2) 0.42140(2)
Si1A Si 0.19768(6) 0.86000(6) 0.47468(2)
O2A O 0.18700(19) 1.08824(20) 0.45742(7)
O3A O 0.00266(16) 0.82447(16) 0.43860(6)
O4A O 0.15583(20) 0.74303(18) 0.56524(7)
O5A O -0.00406(18) 0.79052(16) 0.40716(6)
O6A O 0.2840(2) 1.17500(19) 0.43111(7)
O7A O 0.37944(19) 0.77210(18) 0.47317(10)
O8A O 0.22460(19) 1.04882(20) 0.43801(7)
O9A O 0.2335(2) 0.81550(17) 0.55232(6)
O10A O 0.1469(2) 1.0751(2) 0.41239(7)
O11A O 0.28730(19) 0.7242(2) 0.47332(12)
C1A C 0.0825(2) 0.8185(2) 0.42609(9)
C2A C 0.1903(2) 0.9390(2) 0.50344(9)
H1A H 0.18620 0.91340 0.51400
C3A C 0.1105(2) 0.8343(2) 0.44515(9)
H2A H 0.09300 0.84220 0.45620
C4A C 0.1521(3) 0.7690(2) 0.53005(9)
C5A C 0.2001(2) 1.0149(3) 0.47279(9)
C6A C 0.1095(3) 0.8090(2) 0.40943(9)
H3A H 0.09190 0.79930 0.39640
C7A C 0.2773(2) 0.8218(2) 0.47429(10)
H4A H 0.24480 0.78620 0.47670
C8A C 0.1811(2) 0.8067(2) 0.51368(9)
H5A H 0.21870 0.83570 0.51590
C9A C 0.3308(3) 0.8252(3) 0.47235(11)
C10A C 0.1623(3) 0.8137(3) 0.41222(10)
H6A H 0.18030 0.80710 0.40100
C11A C 0.0247(2) 0.8113(2) 0.42386(9)
C12A C 0.3208(3) 0.9223(3) 0.4690(1)
H7A H 0.31770 0.95510 0.46770
C13A C 0.3791(3) 0.8783(3) 0.46922(13)
H8A H 0.41530 0.88190 0.46850
C14A C 0.2045(3) 1.0518(3) 0.45535(10)
C15A C 0.1887(3) 0.9878(3) 0.50859(10)
H9A H 0.18470 0.99540 0.52250
C16A C 0.2717(2) 0.8698(2) 0.47277(9)
C17A C 0.1979(2) 0.9266(2) 0.48309(9)
C18A C 0.1887(3) 0.8281(3) 0.43134(10)
H10A H 0.22430 0.83070 0.43290
C19A C 0.1565(2) 0.8028(2) 0.49434(10)
C20A C 0.1635(2) 0.8390(2) 0.44845(9)
C21A C 0.2032(2) 0.9659(2) 0.46778(9)
H11A H 0.20900 0.95940 0.45400
C22A C 0.1809(3) 0.7756(2) 0.54969(10)
C23A C 0.3725(3) 0.9266(3) 0.46720(13)
H12A H 0.40450 0.96220 0.46460
C24A C 0.0970(3) 0.7252(3) 0.52651(11)
H13A H 0.07660 0.69970 0.53720
C25A C 0.0721(3) 0.7190(3) 0.50723(11)
H14A H 0.03520 0.68850 0.50480
C26A C 0.1930(3) 1.0253(3) 0.49331(10)
H15A H 0.19110 1.05780 0.49680
C27A C 0.1010(3) 0.7571(2) 0.49148(10)
H16A H 0.08320 0.75250 0.47860
C28A C 0.3322(3) 0.7715(3) 0.47300(14)
U3B U -0.12409(2) 0.09160(2) 0.42140(2)
Si1B Si 0.14000(6) 0.33768(6) 0.47468(2)
O2B O -0.08824(19) 0.09876(20) 0.45742(7)
O3B O 0.17553(16) 0.17819(16) 0.43860(6)
O4B O 0.25697(20) 0.41280(18) 0.56524(7)
O5B O 0.20948(18) 0.20542(16) 0.40716(6)
O6B O -0.1750(2) 0.10900(19) 0.43111(7)
O7B O 0.22790(19) 0.60734(18) 0.47317(10)
O8B O -0.04882(19) 0.17578(20) 0.43801(7)
O9B O 0.1845(2) 0.41800(17) 0.55232(6)
O10B O -0.0751(2) 0.0718(2) 0.41239(7)
O11B O 0.27580(19) 0.5631(2) 0.47332(12)
C1B C 0.1815(2) 0.2640(2) 0.42609(9)
C2B C 0.0610(2) 0.2513(2) 0.50344(9)
H1B H 0.08660 0.27280 0.51400
C3B C 0.1657(2) 0.2762(2) 0.44515(9)
H2B H 0.15780 0.25080 0.45620
C4B C 0.2310(3) 0.3831(2) 0.53005(9)
C5B C -0.0149(2) 0.1852(3) 0.47279(9)
C6B C 0.1910(3) 0.3005(2) 0.40943(9)
H3B H 0.20070 0.29260 0.39640
C7B C 0.1782(2) 0.4555(2) 0.47429(10)
H4B H 0.21380 0.45860 0.47670
C8B C 0.1933(2) 0.3744(2) 0.51368(9)
H5B H 0.16430 0.38300 0.51590
C9B C 0.1748(3) 0.5056(3) 0.47235(11)
C10B C 0.1863(3) 0.3486(3) 0.41222(10)
H6B H 0.19290 0.37320 0.40100
C11B C 0.1887(2) 0.2134(2) 0.42386(9)
C12B C 0.0777(3) 0.3985(3) 0.4690(1)
H7B H 0.04490 0.36260 0.46770
C13B C 0.1217(3) 0.5008(3) 0.46922(13)
H8B H 0.11810 0.53340 0.46850
C14B C -0.0518(3) 0.1527(3) 0.45535(10)
C15B C 0.0122(3) 0.2009(3) 0.50859(10)
H9B H 0.00460 0.18930 0.52250
C16B C 0.1302(2) 0.4019(2) 0.47277(9)
C17B C 0.0734(2) 0.2713(2) 0.48309(9)
C18B C 0.1719(3) 0.3606(3) 0.43134(10)
H10B H 0.16930 0.39360 0.43290
C19B C 0.1972(2) 0.3537(2) 0.49434(10)
C20B C 0.1610(2) 0.3245(2) 0.44845(9)
C21B C 0.0341(2) 0.2373(2) 0.46778(9)
H11B H 0.04060 0.24960 0.45400
C22B C 0.2244(3) 0.4053(2) 0.54969(10)
C23B C 0.0734(3) 0.4459(3) 0.46720(13)
H12B H 0.03780 0.44230 0.46460
C24B C 0.2748(3) 0.3718(3) 0.52651(11)
H13B H 0.30030 0.37690 0.53720
C25B C 0.2810(3) 0.3531(3) 0.50723(11)
H14B H 0.31150 0.34670 0.50480
C26B C -0.0253(3) 0.1677(3) 0.49331(10)
H15B H -0.05780 0.13330 0.49680
C27B C 0.2429(3) 0.3439(2) 0.49148(10)
H16B H 0.24750 0.33070 0.47860
C28B C 0.2285(3) 0.5607(3) 0.47300(14)
U3* U -0.09160(2) 0.78431(2) 0.42140(2)
U3A* U 0.21569(2) 0.12409(2) 0.42140(2)
U3B* U 0.87591(2) 1.09160(2) 0.42140(2)
U3AA U 0.549023(20) 0.758267(20) 0.588067(20)
U3BA U 0.241733(20) 0.790757(20) 0.588067(20)
U3CA U 0.209243(20) 0.450977(20) 0.588067(20)
O3* O -0.17819(16) -0.00266(16) 0.43860(6)
O3A* O 1.00266(16) 0.82447(16) 0.43860(6)
O3B* O 0.17553(16) 1.17819(16) 0.43860(6)
O4GA O 0.822497(200) 0.746133(180) 0.398573(70)
O4HA O 0.253867(200) 1.076363(180) 0.398573(70)
O4IA O -0.076363(200) 0.177503(180) 0.398573(70)
O5* O -0.20542(18) 0.00406(16) 0.40716(6)
O5A* O 0.99594(18) 0.79052(16) 0.40716(6)
O5B* O 0.20948(18) 1.20542(16) 0.40716(6)
O9GA O 0.900167(200) 0.751333(170) 0.385653(60)
O9HA O 0.248667(200) 1.148833(170) 0.385653(60)
O9IA O -0.148833(200) 0.099833(170) 0.385653(60)
#END
