
#######################################################################
#
#                 Cambridge Crystallographic Data Centre
#                                CCDC
#
#######################################################################
#
# If this CIF has been generated from an entry in the Cambridge
# Structural Database, then it will include bibliographic, chemical,
# crystal, experimental, refinement or atomic coordinate data resulting
# from the CCDC's data processing and validation procedures.
#
#######################################################################

data_CSD_CIF_SERCEA
_audit_creation_date 2018-03-14
_audit_creation_method CSD-ConQuest-V1
_database_code_CSD SERCEA
_database_code_depnum_ccdc_archive 'CCDC 1583062'
_chemical_formula_sum 'C60 H52 N6 O14 Zn1'
_chemical_formula_moiety
;
(C44 H24 O12 Zn1 2-)n,2(C5 H7 N2 1+),2(C3 H7 N1 O1)
;
_journal_coden_Cambridge 1878
_journal_volume 30
_journal_year 2017
_journal_page_first 488
_journal_name_full 'Supramol.Catal. '
loop_
_publ_author_name
"P.A.Julien"
"J.-C.Christopherson"
"H.M.Titi"
"R.D.Rogers"
"T.Friscic"
_chemical_name_systematic
;
catena-[bis(4-aminopyridin-1-ium) 
bis(\m-2,2'-dihydroxy[1,1'-binaphthalene]-3,3'-dicarboxylato)-zinc(ii) 
N,N-dimethylformamide solvate]
;
_cell_volume   5584.841
_exptl_crystal_colour 'colorless'
_exptl_crystal_density_diffrn 1.364
_exptl_crystal_description 'block'
_diffrn_ambient_temperature 298
#These two values have been output from a single CSD field.
_refine_ls_R_factor_gt 0.0813
_refine_ls_wR_factor_gt 0.0813
_symmetry_cell_setting monoclinic
_symmetry_space_group_name_H-M 'C 2/c'
_symmetry_Int_Tables_number 15
loop_
_symmetry_equiv_pos_site_id
_symmetry_equiv_pos_as_xyz
1 x,y,z
2 -x,y,1/2-z
3 1/2+x,1/2+y,z
4 1/2-x,1/2+y,1/2-z
5 -x,-y,-z
6 x,-y,-1/2+z
7 -1/2-x,-1/2-y,-z
8 -1/2+x,-1/2-y,-1/2+z
_cell_length_a 20.724(3)
_cell_length_b 11.1436(14)
_cell_length_c 24.187(4)
_cell_angle_alpha 90
_cell_angle_beta 91.031(6)
_cell_angle_gamma 90
_cell_formula_units_Z 4
loop_
_atom_type_symbol
_atom_type_radius_bond
C 0.68
H 0.23
N 0.68
O 0.68
Zn 1.22
loop_
_atom_site_label
_atom_site_type_symbol
_atom_site_fract_x
_atom_site_fract_y
_atom_site_fract_z
Zn1 Zn 1.00000 0.77623(7) 0.25000
O1 O 0.75943(14) 0.6806(3) 0.34308(17)
H1 H 0.77935 0.72540 0.32262
O2 O 0.67535(14) 0.4050(4) 0.32069(17)
H2 H 0.64384 0.38709 0.30142
O3 O 0.55742(15) 0.3682(4) 0.29781(17)
O4 O 0.94998(15) 0.6658(3) 0.29355(18)
O5 O 0.85812(15) 0.7692(3) 0.29417(18)
O6 O 0.47975(16) 0.4388(4) 0.3501(2)
C1 C 0.7975(2) 0.5869(4) 0.3579(2)
C2 C 0.7019(2) 0.5033(4) 0.4038(2)
C3 C 0.6831(2) 0.5561(4) 0.4540(2)
C4 C 0.7714(2) 0.4951(4) 0.3884(2)
C5 C 0.8914(2) 0.6801(5) 0.3066(2)
C6 C 0.6554(2) 0.4598(4) 0.3678(2)
C7 C 0.8635(2) 0.5814(4) 0.3406(2)
C8 C 0.8754(2) 0.3902(4) 0.3869(2)
C9 C 0.6161(2) 0.5678(4) 0.4665(2)
C10 C 0.5883(2) 0.4712(4) 0.3795(2)
C11 C 0.8101(2) 0.3946(4) 0.4039(2)
C12 C 0.9000(2) 0.4847(5) 0.3559(2)
H3 H 0.94289 0.48165 0.34526
C13 C 0.5371(2) 0.4244(5) 0.3406(3)
C14 C 0.7275(3) 0.5965(5) 0.4940(3)
H4 H 0.77132 0.59108 0.48672
C15 C 0.5704(2) 0.5251(4) 0.4269(3)
H5 H 0.52666 0.53445 0.43374
C16 C 0.5982(3) 0.6187(5) 0.5174(3)
H6 H 0.55468 0.62797 0.52529
C17 C 0.7864(3) 0.2968(5) 0.4340(3)
H7 H 0.74375 0.29758 0.44522
C18 C 0.9132(3) 0.2878(5) 0.4011(3)
H8 H 0.95595 0.28386 0.39011
C19 C 0.7088(3) 0.6435(6) 0.5433(3)
H9 H 0.73980 0.66849 0.56914
C20 C 0.6437(3) 0.6542(6) 0.5550(3)
H10 H 0.63120 0.68574 0.58877
C21 C 0.8240(3) 0.2017(5) 0.4471(3)
H11 H 0.80690 0.13884 0.46743
C22 C 0.8882(3) 0.1964(6) 0.4304(3)
H12 H 0.91351 0.13016 0.43949
N1 N 0.2913(2) 0.8624(4) 0.2540(2)
H13 H 0.25391 0.88312 0.26544
H14 H 0.31309 0.91085 0.23381
C23 C 0.3154(2) 0.7565(5) 0.2672(3)
C24 C 0.2819(3) 0.6766(5) 0.2994(3)
H15 H 0.24079 0.69611 0.31134
N2 N 0.3673(3) 0.5386(5) 0.2975(3)
H16 H 0.39200 0.47914 0.31181
C25 C 0.3777(3) 0.7190(7) 0.2496(3)
H17 H 0.40208 0.76841 0.22706
C26 C 0.4004(3) 0.6125(7) 0.2657(4)
H18 H 0.44108 0.58906 0.25428
C27 C 0.3088(3) 0.5688(6) 0.3139(3)
H19 H 0.28569 0.51582 0.33568
O7 O 0.3555(4) 0.9909(7) 0.1672(4)
N3 N 0.4091(4) 1.0582(6) 0.0950(3)
C28 C 0.3939(6) 1.0570(12) 0.1485(6)
H20 H 0.41458 1.11096 0.17217
C29 C 0.4560(7) 1.1476(13) 0.0756(7)
H21 H 0.46204 1.13767 0.03662
H22 H 0.43997 1.22683 0.08272
H23 H 0.49643 1.13644 0.09488
C30 C 0.3953(8) 0.9502(7) 0.0561(4)
H24 H 0.40974 0.96876 0.01962
H25 H 0.41786 0.88078 0.06984
H26 H 0.34979 0.93428 0.05490
O1A O 1.24057(14) 0.6806(3) 0.15692(17)
H1A H 1.22065 0.72540 0.17738
O2A O 1.32465(14) 0.4050(4) 0.17931(17)
H2A H 1.35616 0.38709 0.19858
O3A O 1.44258(15) 0.3682(4) 0.20219(17)
O4A O 1.05002(15) 0.6658(3) 0.20645(18)
O5A O 1.14188(15) 0.7692(3) 0.20583(18)
O6A O 1.52025(16) 0.4388(4) 0.1499(2)
C1A C 1.2025(2) 0.5869(4) 0.1421(2)
C2A C 1.2981(2) 0.5033(4) 0.0962(2)
C3A C 1.3169(2) 0.5561(4) 0.0460(2)
C4A C 1.2286(2) 0.4951(4) 0.1116(2)
C5A C 1.1086(2) 0.6801(5) 0.1934(2)
C6A C 1.3446(2) 0.4598(4) 0.1322(2)
C7A C 1.1365(2) 0.5814(4) 0.1594(2)
C8A C 1.1246(2) 0.3902(4) 0.1131(2)
C9A C 1.3839(2) 0.5678(4) 0.0335(2)
C10A C 1.4117(2) 0.4712(4) 0.1205(2)
C11A C 1.1899(2) 0.3946(4) 0.0961(2)
C12A C 1.1000(2) 0.4847(5) 0.1441(2)
H3A H 1.05710 0.48165 0.15474
C13A C 1.4629(2) 0.4244(5) 0.1594(3)
C14A C 1.2725(3) 0.5965(5) 0.0060(3)
H4A H 1.22868 0.59108 0.01328
C15A C 1.4296(2) 0.5251(4) 0.0731(3)
H5A H 1.47334 0.53445 0.06626
C16A C 1.4018(3) 0.6187(5) -0.0174(3)
H6A H 1.44532 0.62797 -0.02529
C17A C 1.2136(3) 0.2968(5) 0.0660(3)
H7A H 1.25625 0.29758 0.05478
C18A C 1.0868(3) 0.2878(5) 0.0989(3)
H8A H 1.04405 0.28386 0.10989
C19A C 1.2912(3) 0.6435(6) -0.0433(3)
H9A H 1.26020 0.66849 -0.06914
C20A C 1.3563(3) 0.6542(6) -0.0550(3)
H10A H 1.36880 0.68574 -0.08877
C21A C 1.1760(3) 0.2017(5) 0.0529(3)
H11A H 1.19310 0.13884 0.03257
C22A C 1.1118(3) 0.1964(6) 0.0696(3)
H12A H 1.08649 0.13016 0.06051
Zn1B Zn 0.50000 0.27623(7) 0.25000
Zn1B* Zn 1.50000 0.27623(7) 0.25000
O3B O 1.05742(15) 0.8682(4) 0.29781(17)
O3C O 0.94258(15) 0.8682(4) 0.20219(17)
#END
