
#######################################################################
#
#                 Cambridge Crystallographic Data Centre
#                                CCDC
#
#######################################################################
#
# If this CIF has been generated from an entry in the Cambridge
# Structural Database, then it will include bibliographic, chemical,
# crystal, experimental, refinement or atomic coordinate data resulting
# from the CCDC's data processing and validation procedures.
#
#######################################################################

data_CSD_CIF_SERCIE
_audit_creation_date 2018-03-14
_audit_creation_method CSD-ConQuest-V1
_database_code_CSD SERCIE
_database_code_depnum_ccdc_archive 'CCDC 1583063'
_chemical_formula_sum 'C60 H52 Cu1 N6 O14'
_chemical_formula_moiety
;
(C44 H24 Cu1 O12 2-)n,2(C5 H7 N2 1+),2(C3 H7 N1 O1)
;
_journal_coden_Cambridge 1878
_journal_volume 30
_journal_year 2017
_journal_page_first 488
_journal_name_full 'Supramol.Catal. '
loop_
_publ_author_name
"P.A.Julien"
"J.-C.Christopherson"
"H.M.Titi"
"R.D.Rogers"
"T.Friscic"
_chemical_name_systematic
;
catena-[bis(4-aminopyridin-1-ium) 
bis(\m-2,2'-dihydroxy[1,1'-binaphthalene]-3,3'-dicarboxylato)-copper(ii) 
N,N-dimethylformamide solvate]
;
_cell_volume   2661.112
_exptl_crystal_colour 'green'
_exptl_crystal_description 'plate'
_diffrn_ambient_temperature 273
_refine_special_details
;
O37 and C0AA,C1AA disordered over two sites with occupancies 0.5:0.5.

;
#These two values have been output from a single CSD field.
_refine_ls_R_factor_gt 0.0687
_refine_ls_wR_factor_gt 0.0687
_symmetry_cell_setting monoclinic
_symmetry_space_group_name_H-M 'P 21/c'
_symmetry_Int_Tables_number 14
loop_
_symmetry_equiv_pos_site_id
_symmetry_equiv_pos_as_xyz
1 x,y,z
2 -x,1/2+y,1/2-z
3 -x,-y,-z
4 x,-1/2-y,-1/2+z
_cell_length_a 13.189(3)
_cell_length_b 18.059(4)
_cell_length_c 11.436(2)
_cell_angle_alpha 90
_cell_angle_beta 102.319(5)
_cell_angle_gamma 90
_cell_formula_units_Z 2
loop_
_atom_type_symbol
_atom_type_radius_bond
C 0.68
H 0.23
Cu 1.32
N 0.68
O 0.68
loop_
_atom_site_label
_atom_site_type_symbol
_atom_site_fract_x
_atom_site_fract_y
_atom_site_fract_z
Cu1 Cu 0.00000 0.50000 1.00000
O1 O 0.1205(2) 0.55743(17) 0.6957(2)
H1 H 0.09162 0.55350 0.75211
O2 O 0.0765(2) 0.56417(17) 0.1263(2)
O3 O 0.1068(3) 0.46301(18) 0.2405(3)
O4 O 0.1000(2) 0.51853(18) 0.9020(3)
O5 O 0.1971(3) 0.47185(17) 0.4580(3)
H2 H 0.17110 0.45231 0.39390
O6 O 0.1988(3) 0.4270(2) 0.9930(3)
C1 C 0.2223(3) 0.5345(2) 0.7306(3)
C2 C 0.2569(3) 0.6657(2) 0.5274(3)
C3 C 0.1624(3) 0.5787(2) 0.3295(4)
C4 C 0.2534(3) 0.4935(2) 0.8381(4)
C5 C 0.1118(3) 0.5322(3) 0.2247(4)
C6 C 0.2033(3) 0.5458(2) 0.4425(4)
C7 C 0.3040(4) 0.7121(2) 0.6222(4)
H3 H 0.33290 0.69127 0.69623
C8 C 0.2500(3) 0.5882(2) 0.5399(3)
C9 C 0.1811(4) 0.4764(3) 0.9184(4)
C10 C 0.2141(4) 0.6996(2) 0.4140(4)
C11 C 0.3942(3) 0.5293(2) 0.6940(4)
C12 C 0.2887(3) 0.5506(2) 0.6573(3)
C13 C 0.4279(4) 0.4887(2) 0.8027(4)
C14 C 0.3546(4) 0.4711(2) 0.8702(4)
H4 H 0.37531 0.44310 0.93945
C15 C 0.1689(3) 0.6536(2) 0.3185(4)
H5 H 0.14210 0.67504 0.24440
C16 C 0.4705(4) 0.5481(3) 0.6276(4)
H6 H 0.45067 0.57418 0.55620
C17 C 0.2644(4) 0.8202(3) 0.4983(4)
H7 H 0.26626 0.87137 0.49052
C18 C 0.5330(4) 0.4690(3) 0.8383(4)
H8 H 0.55463 0.44149 0.90789
C19 C 0.3082(4) 0.7870(3) 0.6078(4)
H9 H 0.34072 0.81632 0.67178
C20 C 0.2195(4) 0.7782(3) 0.4040(4)
H10 H 0.19162 0.80088 0.33123
C21 C 0.6033(4) 0.4887(3) 0.7744(5)
H11 H 0.67270 0.47601 0.80138
C22 C 0.5724(4) 0.5286(3) 0.6670(5)
H12 H 0.62120 0.54168 0.62273
N1 N 0.0093(4) 0.1439(3) -0.0158(4)
C23 C 0.0682(4) 0.1312(3) 0.0919(5)
H13 H 0.07469 0.08304 0.12132
C24 C 0.1184(5) 0.1859(3) 0.1591(5)
H14 H 0.15891 0.17550 0.23432
C25 C 0.1098(5) 0.2593(3) 0.1158(5)
C26 C 0.0464(5) 0.2703(4) 0.0027(6)
H15 H 0.03734 0.31777 -0.02943
N2 N 0.1586(5) 0.3139(3) 0.1794(5)
H16 H 0.15209 0.35832 0.15180
H17 H 0.19704 0.30527 0.24879
C27 C -0.0011(5) 0.2130(3) -0.0596(6)
H18 H -0.04252 0.22122 -0.13511
H19 H -0.038(5) 0.112(3) -0.067(5)
O7 O 0.2828(7) 0.2876(4) 0.4057(6)
C28 C 0.3178(11) 0.2468(8) 0.4716(12)
H20 H 0.29337 0.20782 0.46754
C29 C 0.4251(16) 0.3241(10) 0.6216(18)
H21 H 0.38158 0.36257 0.58009
H22 H 0.49583 0.33323 0.61689
H23 H 0.41971 0.32332 0.70394
C30 C 0.4228(12) 0.1931(8) 0.6521(13)
H24 H 0.36982 0.15591 0.63373
H25 H 0.42936 0.20910 0.73345
H26 H 0.48769 0.17291 0.64194
N3 N 0.3942(5) 0.2575(4) 0.5701(5)
O1B O -0.1205(2) 0.44257(17) 0.3043(2)
H1B H -0.09162 0.44650 0.24789
O2B O -0.0765(2) 0.43583(17) 0.8737(2)
O3B O -0.1068(3) 0.53699(18) 0.7595(3)
O4B O -0.1000(2) 0.48147(18) 0.0980(3)
O5B O -0.1971(3) 0.52815(17) 0.5420(3)
H2B H -0.17110 0.54769 0.60610
O6B O -0.1988(3) 0.5730(2) 0.0070(3)
C1B C -0.2223(3) 0.4655(2) 0.2694(3)
C2B C -0.2569(3) 0.3343(2) 0.4726(3)
C3B C -0.1624(3) 0.4213(2) 0.6705(4)
C4B C -0.2534(3) 0.5065(2) 0.1619(4)
C5B C -0.1118(3) 0.4678(3) 0.7753(4)
C6B C -0.2033(3) 0.4542(2) 0.5575(4)
C7B C -0.3040(4) 0.2879(2) 0.3778(4)
H3B H -0.33290 0.30873 0.30377
C8B C -0.2500(3) 0.4118(2) 0.4601(3)
C9B C -0.1811(4) 0.5236(3) 0.0816(4)
C10B C -0.2141(4) 0.3004(2) 0.5860(4)
C11B C -0.3942(3) 0.4707(2) 0.3060(4)
C12B C -0.2887(3) 0.4494(2) 0.3427(3)
C13B C -0.4279(4) 0.5113(2) 0.1973(4)
C14B C -0.3546(4) 0.5289(2) 0.1298(4)
H4B H -0.37531 0.55690 0.06055
C15B C -0.1689(3) 0.3464(2) 0.6815(4)
H5B H -0.14210 0.32496 0.75560
C16B C -0.4705(4) 0.4519(3) 0.3724(4)
H6B H -0.45067 0.42582 0.44380
C17B C -0.2644(4) 0.1798(3) 0.5017(4)
H7B H -0.26626 0.12863 0.50948
C18B C -0.5330(4) 0.5310(3) 0.1617(4)
H8B H -0.55463 0.55851 0.09211
C19B C -0.3082(4) 0.2130(3) 0.3922(4)
H9B H -0.34072 0.18368 0.32822
C20B C -0.2195(4) 0.2218(3) 0.5960(4)
H10B H -0.19162 0.19912 0.66877
C21B C -0.6033(4) 0.5113(3) 0.2256(5)
H11B H -0.67270 0.52399 0.19862
C22B C -0.5724(4) 0.4714(3) 0.3330(5)
H12B H -0.62120 0.45832 0.37727
Cu1* Cu 0.00000 0.50000 0.00000
O2* O 0.0765(2) 0.56417(17) 1.1263(2)
O4B* O -0.1000(2) 0.48147(18) 1.0980(3)
#END
