
#######################################################################
#
#                 Cambridge Crystallographic Data Centre
#                                CCDC
#
#######################################################################
#
# If this CIF has been generated from an entry in the Cambridge
# Structural Database, then it will include bibliographic, chemical,
# crystal, experimental, refinement or atomic coordinate data resulting
# from the CCDC's data processing and validation procedures.
#
#######################################################################

data_CSD_CIF_SETHEH
_audit_creation_date 2018-03-15
_audit_creation_method CSD-ConQuest-V1
_database_code_CSD SETHEH
_database_code_depnum_ccdc_archive 'CCDC 1562794'
_chemical_formula_sum 'C24 H48 As2 Cu3 Mo6 N16 O34'
_chemical_formula_moiety
;
(C6 H12 As1 Cu1 Mo3 N4 O15 1-)2n,n(C12 H20 Cu1 N8 O2 2+),2n(H2 O1)
;
_journal_coden_Cambridge 211
_journal_volume 71
_journal_year 2018
_journal_page_first 411
_journal_name_full 'J.Coord.Chem. '
loop_
_publ_author_name
"Bowen Cong"
"Zhanhua Su"
"Zhifeng Zhao"
"Wenqi Zhao"
"Xiujuan Ma"
_chemical_name_systematic
;
catena-(diaqua-tetrakis(1H-pyrazole)-copper 
bis(\m-arsenato)-tris(\m-oxo)-diaqua-hexaoxo-bis(1H-pyrazole)-copper-tri-molyb
denum dihydrate)
;
_cell_volume   5639.283
_exptl_crystal_colour 'colorless'
_exptl_crystal_density_diffrn 2.38
_exptl_crystal_description 'block'
_diffrn_ambient_temperature 173
#These two values have been output from a single CSD field.
_refine_ls_R_factor_gt 0.0287
_refine_ls_wR_factor_gt 0.0287
_symmetry_cell_setting monoclinic
_symmetry_space_group_name_H-M 'C 2/c'
_symmetry_Int_Tables_number 15
loop_
_symmetry_equiv_pos_site_id
_symmetry_equiv_pos_as_xyz
1 x,y,z
2 -x,y,1/2-z
3 1/2+x,1/2+y,z
4 1/2-x,1/2+y,1/2-z
5 -x,-y,-z
6 x,-y,-1/2+z
7 -1/2-x,-1/2-y,-z
8 -1/2+x,-1/2-y,-1/2+z
_cell_length_a 28.8067(14)
_cell_length_b 10.1018(5)
_cell_length_c 19.6209(9)
_cell_angle_alpha 90
_cell_angle_beta 99.006(4)
_cell_angle_gamma 90
_cell_formula_units_Z 4
loop_
_atom_type_symbol
_atom_type_radius_bond
C 0.68
H 0.23
As 1.21
Cu 1.32
Mo 1.54
N 0.68
O 0.68
loop_
_atom_site_label
_atom_site_type_symbol
_atom_site_fract_x
_atom_site_fract_y
_atom_site_fract_z
Mo1 Mo 0.76209(2) 0.77124(3) 0.33800(2)
Mo2 Mo 0.65527(2) 0.76309(3) 0.38161(2)
Mo3 Mo 0.64367(2) 0.74790(3) 0.54476(2)
As1 As 0.74900(2) 0.57603(3) 0.49389(2)
Cu1 Cu 0.72664(2) 0.27903(4) 0.41625(2)
O1 O 0.78236(7) 0.6383(2) 0.43633(11)
O2 O 0.77275(7) 0.6191(2) 0.57588(11)
O3 O 0.69264(7) 0.6338(2) 0.47480(11)
O4 O 0.70352(7) 0.6824(2) 0.33955(12)
O5 O 0.63845(7) 0.8456(2) 0.46091(12)
O6 O 0.68278(7) 0.6480(2) 0.61325(12)
O7 O 0.62052(8) 0.8606(3) 0.59452(14)
O8 O 0.60007(8) 0.6343(3) 0.52282(14)
O9 O 0.63768(9) 0.8880(3) 0.32431(14)
O10 O 0.61356(8) 0.6439(3) 0.36365(14)
O11 O 0.74904(7) 0.4106(2) 0.48953(11)
O12 O 0.70392(8) 0.1291(2) 0.35163(12)
H1 H 0.70970 0.04980 0.36540
H2 H 0.71270 0.13950 0.31350
O13 O 0.70020(8) 0.4208(2) 0.32061(12)
H3 H 0.69490 0.49830 0.33140
H4 H 0.72090 0.41060 0.29450
O14 O 0.74414(8) 0.9005(2) 0.28349(12)
O15 O 0.78660(8) 0.6609(3) 0.28810(13)
N1 N 0.78855(10) 0.2749(3) 0.38371(16)
N2 N 0.81238(9) 0.3866(3) 0.37378(15)
H5 H 0.80530 0.46530 0.38850
N3 N 0.66408(10) 0.2718(3) 0.44623(16)
N4 N 0.64267(10) 0.3735(3) 0.47196(16)
H6 H 0.65260 0.45590 0.47220
C1 C 0.84778(13) 0.3637(4) 0.3391(2)
H7 H 0.86920 0.42700 0.32610
C2 C 0.84723(14) 0.2295(4) 0.3256(2)
H8 H 0.86810 0.18190 0.30160
C3 C 0.81032(12) 0.1788(4) 0.3541(2)
H9 H 0.80150 0.08810 0.35290
C4 C 0.60451(13) 0.3348(4) 0.4971(2)
H10 H 0.58390 0.38950 0.51810
C5 C 0.60065(14) 0.1996(5) 0.4867(2)
H11 H 0.57700 0.14250 0.49880
C6 C 0.63826(12) 0.1657(4) 0.4553(2)
H12 H 0.64500 0.07830 0.44180
Cu2 Cu 0.50000 0.10946(8) 0.25000
O16 O 0.58612(10) 0.1010(4) 0.2641(2)
H13 H 0.60510 0.04390 0.28450
H14 H 0.60260 0.17020 0.26260
N5 N 0.50567(13) 0.2515(4) 0.3222(2)
N6 N 0.53464(12) 0.3567(4) 0.3227(2)
H15 H 0.55630 0.36500 0.29590
N7 N 0.50047(13) -0.0310(4) 0.3217(2)
N8 N 0.53113(16) -0.0506(7) 0.3785(3)
H16 H 0.55600 -0.00080 0.39120
C7 C 0.52630(16) 0.4459(5) 0.3689(3)
H17 H 0.54240 0.52750 0.37860
C8 C 0.49022(16) 0.3993(6) 0.4004(3)
H18 H 0.47650 0.44110 0.43580
C9 C 0.47821(15) 0.2793(5) 0.3697(3)
H19 H 0.45380 0.22370 0.38050
C10 C 0.5196(3) -0.1566(10) 0.4146(5)
H20 H 0.53620 -0.18950 0.45690
C11 C 0.4814(3) -0.2041(8) 0.3796(5)
H21 H 0.46430 -0.27860 0.39180
C12 C 0.47006(19) -0.1277(6) 0.3222(4)
H22 H 0.44380 -0.14230 0.28730
O17 O 0.61411(11) 0.3606(4) 0.2429(2)
H23 H 0.61890 0.37640 0.20210
H24 H 0.63820 0.39160 0.26850
Mo1F Mo 0.73791(2) 0.72876(3) 0.66200(2)
Mo2F Mo 0.84473(2) 0.73691(3) 0.61839(2)
Mo3F Mo 0.85633(2) 0.75210(3) 0.45524(2)
Cu1F Cu 0.77336(2) 0.22097(4) 0.58375(2)
O1F O 0.71764(7) 0.8617(2) 0.56367(11)
O2F O 0.72725(7) 0.8809(2) 0.42412(11)
O6F O 0.81722(7) 0.8520(2) 0.38675(12)
O11F O 0.75096(7) 0.0894(2) 0.51047(11)
O16A O 0.41388(10) 0.1010(4) 0.2359(2)
H13A H 0.39490 0.04390 0.21550
H14A H 0.39740 0.17020 0.23740
N5A N 0.49433(13) 0.2515(4) 0.1778(2)
N6A N 0.46536(12) 0.3567(4) 0.1773(2)
H15A H 0.44370 0.36500 0.20410
N7A N 0.49953(13) -0.0310(4) 0.1783(2)
N8A N 0.46887(16) -0.0506(7) 0.1215(3)
H16A H 0.44400 -0.00080 0.10880
C7A C 0.47370(16) 0.4459(5) 0.1311(3)
H17A H 0.45760 0.52750 0.12140
C8A C 0.50978(16) 0.3993(6) 0.0996(3)
H18A H 0.52350 0.44110 0.06420
C9A C 0.52179(15) 0.2793(5) 0.1303(3)
H19A H 0.54620 0.22370 0.11950
C10A C 0.4804(3) -0.1566(10) 0.0854(5)
H20A H 0.46380 -0.18950 0.04310
C11A C 0.5186(3) -0.2041(8) 0.1204(5)
H21A H 0.53570 -0.27860 0.10820
C12A C 0.52994(19) -0.1277(6) 0.1778(4)
H22A H 0.55620 -0.14230 0.21270
#END
