
#######################################################################
#
#                 Cambridge Crystallographic Data Centre
#                                CCDC
#
#######################################################################
#
# If this CIF has been generated from an entry in the Cambridge
# Structural Database, then it will include bibliographic, chemical,
# crystal, experimental, refinement or atomic coordinate data resulting
# from the CCDC's data processing and validation procedures.
#
#######################################################################

data_CSD_CIF_SEYKOX
_audit_creation_date 2007-05-01
_audit_creation_method CSD-ConQuest-V1
_database_code_CSD SEYKOX
_database_code_depnum_ccdc_archive 'CCDC 639492'
_chemical_formula_sum 'C8 H16 Na2 O24 Yb2'
_chemical_formula_moiety
;
(C8 H4 O18 Yb2 2-)n,2n(Na1 1+),6n(H2 O1)
;
_journal_coden_Cambridge 208
_journal_volume 179
_journal_year 2006
_journal_page_first 4029
_journal_name_full 'J.Solid State Chem. '
loop_
_publ_author_name
"B.Chapelet-Arab"
"L.Duvieubourg"
"G.Nowogrocki"
"F.Abraham"
"S.Grandjean"
_chemical_name_systematic
;
catena-[di-sodium tetrakis(\m~2~-oxalato)-diaqua-ytterbium hexahydrate]
;
_cell_volume   1066.627
_exptl_crystal_colour 'colorless'
_exptl_crystal_density_diffrn 2.716
_exptl_crystal_description 'plate'
_diffrn_ambient_temperature 293
#These two values have been output from a single CSD field.
_refine_ls_R_factor_gt 0.0481
_refine_ls_wR_factor_gt 0.0481
_symmetry_cell_setting monoclinic
_symmetry_space_group_name_H-M 'P c'
_symmetry_Int_Tables_number 7
loop_
_symmetry_equiv_pos_site_id
_symmetry_equiv_pos_as_xyz
1 x,y,z
2 x,-y,1/2+z
_cell_length_a 8.5591(16)
_cell_length_b 8.5640(17)
_cell_length_c 14.938(3)
_cell_angle_alpha 90
_cell_angle_beta 103.062(3)
_cell_angle_gamma 90
_cell_formula_units_Z 2
loop_
_atom_type_symbol
_atom_type_radius_bond
C 0.68
Na 0.97
O 0.68
Yb 1.94
loop_
_atom_site_label
_atom_site_type_symbol
_atom_site_fract_x
_atom_site_fract_y
_atom_site_fract_z
Yb1 Yb 0.00000 0.09691(5) 0.00000
Yb2 Yb -0.47007(5) -0.40237(5) 0.06913(3)
C1 C -0.1726(16) -0.1731(14) 0.0812(8)
C2 C -0.2911(16) -0.1273(14) -0.0076(8)
O1 O -0.4243(10) -0.1943(8) -0.0266(6)
O2 O -0.2215(10) -0.2813(9) 0.1289(6)
O3 O -0.0412(12) -0.1056(8) 0.1016(7)
O4 O -0.2447(10) -0.0246(9) -0.0559(6)
C3 C 0.2362(15) 0.3768(14) 0.0788(9)
C4 C 0.2865(16) 0.3227(14) -0.0073(8)
O5 O 0.1247(11) 0.3029(9) 0.1028(6)
O6 O 0.4105(11) 0.381(1) -0.0247(7)
O7 O 0.3144(10) 0.4871(10) 0.1217(6)
O8 O 0.1981(10) 0.2227(9) -0.0561(6)
C5 C -0.2229(15) 0.3929(13) -0.0117(9)
C6 C -0.2410(15) 0.3093(14) 0.0765(8)
O9 O -0.1736(10) 0.1796(9) 0.0956(6)
O10 O -0.1399(11) 0.3245(10) -0.0584(6)
O11 O -0.3006(11) 0.5172(10) -0.0299(6)
O12 O -0.3175(12) 0.3791(10) 0.1280(7)
C7 C 0.2204(14) -0.1962(13) -0.0126(9)
C8 C 0.3083(17) -0.1127(13) 0.0746(9)
O13 O 0.4301(10) -0.1772(9) 0.1238(6)
O14 O 0.2475(10) 0.0145(10) 0.0935(6)
O15 O 0.0921(11) -0.1364(10) -0.0560(6)
O16 O 0.2861(11) -0.3175(9) -0.0350(6)
O17 O -0.057(2) 0.0953(10) -0.1708(11)
O18 O -0.3999(18) -0.4031(9) 0.2402(9)
Na1 Na 0.8910(7) 0.6245(6) 0.2851(4)
Na2 Na 0.1973(9) -0.3149(8) -0.2155(5)
O19 O 0.4857(13) -0.3028(10) -0.2098(7)
O20 O -0.3460(13) 0.0474(13) 0.2209(7)
O21 O 0.4925(12) 0.8351(12) 0.3467(7)
O22 O 0.2075(13) -0.0262(11) -0.2231(7)
O23 O 0.9225(16) 0.3421(13) 0.3033(9)
O24 O 1.1643(17) 0.5999(13) 0.2671(10)
Yb2* Yb 0.52993(5) 0.59763(5) 0.06913(3)
Yb2** Yb -0.47007(5) 0.59763(5) 0.06913(3)
Yb2*** Yb 0.52993(5) -0.40237(5) 0.06913(3)
O6* O -0.5895(11) -0.619(1) -0.0247(7)
O7* O -0.6856(10) -0.5129(10) 0.1217(6)
O11* O -0.3006(11) -0.4828(10) -0.0299(6)
O12* O -0.3175(12) -0.6209(10) 0.1280(7)
O13* O -0.5699(10) -0.1772(9) 0.1238(6)
O16* O -0.7139(11) -0.3175(9) -0.0350(6)
#END
