
#######################################################################
#
#                 Cambridge Crystallographic Data Centre
#                                CCDC
#
#######################################################################
#
# If this CIF has been generated from an entry in the Cambridge
# Structural Database, then it will include bibliographic, chemical,
# crystal, experimental, refinement or atomic coordinate data resulting
# from the CCDC's data processing and validation procedures.
#
#######################################################################

data_CSD_CIF_SEYLEQ
_audit_creation_date 2018-03-19
_audit_creation_method CSD-ConQuest-V1
_database_code_CSD SEYLEQ
_database_code_depnum_ccdc_archive 'CCDC 1572262'
_chemical_formula_sum 'C75 H59 N10 O27 Tb1 Zn3'
_chemical_formula_moiety
;
(C73 H41 N9 O22 Tb1 Zn3 1-)n,C2 H8 N1 1+,5(H2 O1)
;
_journal_coden_Cambridge 9
_journal_volume 57
_journal_year 2018
_journal_page_first 3833
_journal_name_full 'Inorg.Chem. '
loop_
_publ_author_name
"Zhi-Hang Zhou"
"Wen-Wen Dong"
"Ya-Pan Wu"
"Jun Zhao"
"Dong-Sheng Li"
"Tao Wu"
"Xian-hui Bu"
_chemical_name_systematic
;
catena-(dimethylammonium 
tris(\m-2-([1^2^,2^2^:2^6^,3^2^-terpyridin]-2^4^-yl)benzene-1,3,5-tricarboxyla
to)-diaqua-formato-terbium-tri-zinc pentahydrate)
;
_chemical_name_common
;
CTGU-8
;
_cell_volume   3652.833
_exptl_crystal_colour 'colorless'
_exptl_crystal_density_diffrn 1.716
_exptl_crystal_description 'block'
_diffrn_ambient_temperature 293
_refine_special_details
;
The MASK/OLEX2 program has been used to model some disorder.

;
#These two values have been output from a single CSD field.
_refine_ls_R_factor_gt 0.0451
_refine_ls_wR_factor_gt 0.0451
_symmetry_cell_setting triclinic
_symmetry_space_group_name_H-M 'P -1'
_symmetry_Int_Tables_number 2
loop_
_symmetry_equiv_pos_site_id
_symmetry_equiv_pos_as_xyz
1 x,y,z
2 -x,-y,-z
_cell_length_a 10.84312(9)
_cell_length_b 18.23895(14)
_cell_length_c 20.76839(16)
_cell_angle_alpha 115.6661(8)
_cell_angle_beta 95.3999(7)
_cell_angle_gamma 94.5121(6)
_cell_formula_units_Z 2
loop_
_atom_type_symbol
_atom_type_radius_bond
C 0.68
H 0.23
N 0.68
O 0.68
Tb 1.94
Zn 1.22
loop_
_atom_site_label
_atom_site_type_symbol
_atom_site_fract_x
_atom_site_fract_y
_atom_site_fract_z
Tb1 Tb 0.34465(2) 0.61120(2) -0.00586(2)
Zn1 Zn 0.82765(5) 1.02697(3) 0.40814(2)
Zn2 Zn 0.86991(5) 0.52084(3) 0.38152(3)
Zn3 Zn 0.19142(4) 0.10996(3) 0.08799(2)
O1 O 0.5176(3) 0.62863(16) 0.07536(15)
O2 O 0.5899(3) 0.51537(14) 0.07019(14)
O3 O 0.1461(3) 0.18778(16) 0.05175(15)
O4 O 0.3221(3) 0.16894(17) 0.17199(15)
O5 O 0.7963(3) 0.89924(16) 0.22779(15)
O6 O 0.1533(3) 0.51386(17) -0.04528(17)
O7 O 0.7824(3) 0.41169(17) 0.35414(16)
O8 O 0.2741(3) 0.52201(16) 0.04969(15)
O9 O -0.2550(3) 0.29881(17) -0.09054(15)
O10 O 0.8029(3) 0.91134(16) 0.34023(14)
O11 O 0.3380(3) 0.05877(17) 0.18964(16)
O12 O 0.8070(3) 0.57245(19) 0.32210(17)
N1 N 1.0631(3) 0.90179(18) 0.49157(16)
O13 O 0.3303(3) 0.2358(2) 0.0362(2)
N2 N 0.9799(3) 0.41907(18) 0.53655(16)
N3 N -0.1119(3) 0.00552(17) -0.07242(15)
O14 O 0.4532(3) 0.74288(18) 0.01817(16)
H1 H 0.52710 0.73800 0.00330
H2 H 0.46520 0.77600 0.06490
O15 O -0.1799(3) 0.19509(19) -0.17593(18)
O16 O 0.5841(3) 0.43270(17) 0.33575(18)
O17 O 0.9933(3) 0.6411(2) 0.3364(2)
N4 N -0.2825(3) -0.02344(19) -0.00239(17)
N5 N -0.0234(3) -0.13035(19) -0.14447(17)
N6 N 1.2645(3) 1.00151(19) 0.51401(17)
N7 N 0.9652(3) 0.52377(19) 0.66872(17)
N8 N 0.9958(3) 0.9330(2) 0.61652(16)
O18 O 0.7152(4) 0.0808(2) 0.36828(17)
C1 C 0.9269(4) 0.7993(2) 0.35939(19)
C2 C 0.6864(3) 0.6440(2) 0.16159(18)
C3 C 0.8545(4) 0.4829(2) 0.6285(2)
C4 C 0.3706(3) 0.1307(2) 0.20363(18)
C5 C 0.7122(4) 0.7284(2) 0.18295(18)
H3 H 0.67650 0.75070 0.15420
C6 C 0.8631(4) 0.4242(2) 0.55270(19)
C7 C -0.1673(3) 0.0703(2) -0.03459(19)
N9 N 1.2163(3) 0.4126(2) 0.51733(19)
C8 C 0.5909(4) 0.5915(2) 0.09680(18)
C9 C 1.0000(4) 0.3664(2) 0.47047(19)
O19 O 0.4118(4) 0.6027(2) -0.11509(18)
C10 C 0.8234(4) 0.6603(2) 0.26670(19)
O20 O 0.1872(4) 0.6591(2) -0.06685(19)
H4 H 0.11340 0.62540 -0.08220
H5 H 0.21250 0.66160 -0.10630
C11 C 0.2163(4) 0.2297(2) 0.0296(2)
C12 C 0.6315(4) 0.1913(2) 0.36119(19)
C13 C 1.2221(4) 0.9519(2) 0.44396(19)
C14 C 0.7900(4) 0.7790(2) 0.24643(19)
C15 C 0.8860(4) 0.8057(2) 0.42322(19)
H6 H 0.81220 0.77500 0.42180
C16 C 0.5354(3) 0.1455(2) 0.30469(19)
H7 H 0.50910 0.09140 0.29450
C17 C 0.8472(4) 0.7458(2) 0.28927(18)
C18 C -0.0284(4) 0.1571(2) -0.0623(2)
C19 C 0.6747(3) 0.2724(2) 0.37491(18)
C20 C 1.0387(4) 0.8451(2) 0.3638(2)
H8 H 1.06850 0.84150 0.32210
C21 C 1.1050(4) 0.8962(2) 0.43092(19)
C22 C 0.4790(3) 0.1795(2) 0.26380(18)
C23 C 0.1326(4) 0.3991(2) -0.0184(2)
C24 C -0.1296(4) 0.1474(2) -0.0291(2)
H9 H -0.17120 0.19170 -0.00390
C25 C -0.0393(4) 0.2885(2) -0.0733(2)
C26 C 0.0341(3) -0.0649(2) -0.14827(18)
C27 C 0.6208(3) 0.3054(2) 0.33127(18)
C28 C 0.1972(4) 0.3527(2) 0.0078(2)
H10 H 0.27590 0.37420 0.03490
C29 C 0.1886(4) 0.4835(2) -0.0029(2)
C30 C 0.0276(4) 0.2412(2) -0.0479(2)
C31 C -0.0183(3) 0.0131(2) -0.10818(18)
C32 C 0.9025(4) 0.3155(2) 0.4191(2)
H11 H 0.91840 0.27720 0.37450
C33 C 0.7424(4) 0.6112(2) 0.20378(19)
H12 H 0.72550 0.55520 0.18980
C34 C 0.8827(4) 0.6227(2) 0.31185(19)
C35 C 0.1446(4) 0.2740(2) -0.0063(2)
C36 C 0.6644(4) 0.3909(2) 0.3410(2)
C37 C -0.2651(4) 0.0543(2) 0.0053(2)
C38 C -0.1672(4) 0.2571(2) -0.1166(2)
C39 C 0.0151(4) 0.3670(2) -0.0587(2)
H13 H -0.02800 0.39820 -0.07630
C40 C 1.1324(4) 0.3701(2) 0.4579(2)
C41 C 0.9184(4) 0.8746(2) 0.56002(19)
C42 C 0.7609(4) 0.3771(2) 0.5014(2)
H14 H 0.68000 0.38310 0.51250
C43 C 0.7985(4) 0.8710(2) 0.2724(2)
C44 C 0.7808(4) 0.3215(2) 0.43378(19)
C45 C 0.9565(4) 0.8582(2) 0.48830(19)
C46 C -0.3284(4) 0.1145(2) 0.0489(2)
H15 H -0.31610 0.16700 0.05200
C47 C 0.5227(4) 0.2596(2) 0.27747(19)
H16 H 0.48500 0.28270 0.24980
O21 O 0.6995(6) 0.1857(3) 0.4701(2)
C48 C 0.0261(4) 0.0886(2) -0.10425(19)
H17 H 0.09090 0.09330 -0.12910
C49 C 0.1335(4) -0.0698(2) -0.1859(2)
H18 H 0.17090 -0.02380 -0.18860
C50 C 1.3630(4) 1.0587(3) 0.5308(2)
H19 H 1.38970 1.09470 0.57900
O22 O 0.3056(6) 0.6707(3) -0.1645(3)
C51 C 0.6900(4) 0.1517(2) 0.4043(2)
C52 C 0.1770(4) -0.1453(3) -0.2199(2)
H20 H 0.24390 -0.15040 -0.24590
C53 C 1.2827(4) 0.9553(3) 0.3896(2)
H21 H 1.25460 0.91920 0.34150
C54 C -0.4258(4) 0.0176(3) 0.0835(2)
H22 H -0.47790 0.00420 0.11100
C55 C -0.4114(4) 0.0961(3) 0.0887(2)
H23 H -0.45630 0.13580 0.11820
C56 C 0.1205(5) -0.2121(3) -0.2148(2)
H24 H 0.14860 -0.26290 -0.23660
C57 C 0.8109(4) 0.8365(3) 0.5687(2)
H25 H 0.76020 0.79500 0.52890
C58 C 0.9649(5) 0.5766(3) 0.7379(2)
H26 H 1.04080 0.60430 0.76620
C59 C 0.7442(5) 0.4949(3) 0.6560(2)
H27 H 0.66950 0.46550 0.62710
C60 C 0.9641(5) 0.9558(3) 0.6832(2)
H28 H 1.01650 0.99680 0.72250
C61 C 0.0213(5) -0.2020(3) -0.1767(2)
H29 H -0.01690 -0.24730 -0.17300
C62 C -0.3617(4) -0.0404(3) 0.0367(2)
H30 H -0.37380 -0.09360 0.03210
C63 C 1.4261(5) 1.0660(3) 0.4789(3)
H31 H 1.49480 1.10590 0.49200
C64 C 1.1666(5) 0.3349(3) 0.3899(3)
H32 H 1.10640 0.30560 0.34980
C65 C 0.7790(5) 0.8606(3) 0.6373(3)
H33 H 0.70570 0.83650 0.64410
C66 C 1.3866(5) 1.0139(3) 0.4082(3)
H34 H 1.42890 1.01750 0.37250
C67 C 0.8572(5) 0.9208(3) 0.6951(2)
H35 H 0.83810 0.93750 0.74170
C68 C 1.3363(4) 0.4195(3) 0.5081(3)
H36 H 1.39550 0.44840 0.54890
C69 C 1.2908(5) 0.3435(3) 0.3819(3)
H37 H 1.31530 0.32040 0.33620
C70 C 1.3773(5) 0.3864(4) 0.4418(3)
H38 H 1.46170 0.39310 0.43790
C71 C 0.8562(6) 0.5916(3) 0.7691(3)
H39 H 0.85910 0.62840 0.81740
C72 C 0.7441(6) 0.5509(3) 0.7270(3)
H40 H 0.66930 0.56090 0.74590
C73 C 0.3980(9) 0.6354(4) -0.1562(4)
H41 H 0.46160 0.63400 -0.18370
C74 C 0.2224(8) 0.6442(5) 0.2239(4)
H42 H 0.21140 0.62070 0.17220
H43 H 0.18480 0.69390 0.24270
H44 H 0.18340 0.60600 0.23870
C75 C 0.4277(11) 0.7333(7) 0.2619(6)
H45 H 0.46360 0.72410 0.21890
H46 H 0.49300 0.74440 0.30070
H47 H 0.38190 0.77940 0.27440
N10 N 0.3438(11) 0.6609(8) 0.2491(10)
H48 H 0.37810 0.61850 0.21940
H49 H 0.34990 0.65830 0.29110
O23 O -0.3706(4) 0.0658(2) -0.2302(2)
H50 H -0.35410 0.02960 -0.21650
H51 H -0.31880 0.10910 -0.20640
O24 O -0.5543(4) 0.1269(3) -0.1450(2)
H52 H -0.50100 0.11640 -0.17430
H53 H -0.62760 0.11170 -0.16860
O25 O 0.7600(4) 0.2800(3) 0.6106(2)
H54 H 0.83730 0.29610 0.62630
H55 H 0.75040 0.25060 0.56520
O26 O 0.5458(5) 0.5809(3) 0.3231(4)
H56 H 0.62380 0.57860 0.32290
H57 H 0.52330 0.61130 0.30380
O27 O 0.4020(5) 0.5047(3) 0.1660(2)
H58 H 0.46200 0.47650 0.15350
H59 H 0.36470 0.50780 0.12950
Tb1A Tb -0.34465(2) 0.38880(2) 0.00586(2)
Tb1A* Tb 0.65535(2) 0.38880(2) 0.00586(2)
Zn1* Zn 0.82765(5) 0.02697(3) 0.40814(2)
Zn1A Zn 1.17235(5) 0.97303(3) 0.59186(2)
Zn2A Zn 1.13009(5) 0.47916(3) 0.61848(3)
Zn3A Zn -0.19142(4) -0.10996(3) -0.08799(2)
O2A O 0.4101(3) 0.48463(14) -0.07019(14)
O9A O 0.2550(3) 0.70119(17) 0.09054(15)
N1A N 0.9369(3) 1.09821(18) 0.50843(16)
N2A N 1.0201(3) 0.58093(18) 0.46345(16)
N3A N 0.1119(3) -0.00552(17) 0.07242(15)
N4A N 0.2825(3) 0.02344(19) 0.00239(17)
N5A N 0.0234(3) 0.13035(19) 0.14447(17)
N6A N 0.7355(3) 0.99849(19) 0.48599(17)
N7A N 1.0348(3) 0.47623(19) 0.33128(17)
N8A N 1.0042(3) 1.0670(2) 0.38348(16)
O18* O 0.7152(4) 1.0808(2) 0.36828(17)
N9A N 0.7837(3) 0.5874(2) 0.48267(19)
#END
