
#######################################################################
#
#                 Cambridge Crystallographic Data Centre
#                                CCDC
#
#######################################################################
#
# If this CIF has been generated from an entry in the Cambridge
# Structural Database, then it will include bibliographic, chemical,
# crystal, experimental, refinement or atomic coordinate data resulting
# from the CCDC's data processing and validation procedures.
#
#######################################################################

data_CSD_CIF_SEZCAE
_audit_creation_date 2018-03-19
_audit_creation_method CSD-ConQuest-V1
_database_code_CSD SEZCAE
_database_code_depnum_ccdc_archive 'CCDC 1813090'
_chemical_formula_sum 'C32 H57 Ag27 N48 O91 Si2 W24'
_chemical_formula_moiety
;
3(H3 O1 1+),n(C32 H44 Ag27 N48 O86 Si2 W24 3-),2(H2 O1)
;
_journal_coden_Cambridge 9
_journal_volume 57
_journal_year 2018
_journal_page_first 3865
_journal_name_full 'Inorg.Chem. '
loop_
_publ_author_name
"Meng-Ting Li"
"Xi-Ya Yang"
"Ji-Sen Li"
"Ning Sheng"
"Guo-Dong Liu"
"Jing-Quan Sha"
"Ya-Qian Lan"
_chemical_name_systematic
;
catena-[tris(oxonium) 
bis(\m-silicato)-hexadecakis(\m-1,2,3-triazolyl)-octapentacontakis(\m-oxido)-h
exaaqua-tetradecakis(oxido)-tetradeca-tungsten(vi)-deca-tungsten(v)-heptacosa-
silver(i) dihydrate]
;
_cell_volume   3580.636
_exptl_crystal_colour 'black'
_exptl_special_details
;
Hydrogen atoms have been placed for charge balance

;
_exptl_crystal_description 'block'
_diffrn_ambient_temperature 296
#These two values have been output from a single CSD field.
_refine_ls_R_factor_gt 0.0756
_refine_ls_wR_factor_gt 0.0756
_symmetry_cell_setting triclinic
_symmetry_space_group_name_H-M 'P -1'
_symmetry_Int_Tables_number 2
loop_
_symmetry_equiv_pos_site_id
_symmetry_equiv_pos_as_xyz
1 x,y,z
2 -x,-y,-z
_cell_length_a 14.5877(15)
_cell_length_b 15.2710(16)
_cell_length_c 17.9614(19)
_cell_angle_alpha 89.120(2)
_cell_angle_beta 85.542(2)
_cell_angle_gamma 63.870(2)
_cell_formula_units_Z 1
loop_
_atom_type_symbol
_atom_type_radius_bond
C 0.68
Ag 1.45
N 0.68
O 0.68
Si 1.20
W 1.62
loop_
_atom_site_label
_atom_site_type_symbol
_atom_site_fract_x
_atom_site_fract_y
_atom_site_fract_z
C1 C 0.0433(19) 1.2656(18) 0.9543(14)
C2 C 0.435(2) 1.310(2) 1.1586(15)
C3 C 0.029(2) 1.180(2) 0.7373(15)
C4 C 0.203(3) 1.574(3) 0.7122(15)
C5 C 0.719(2) 1.720(2) 0.6592(16)
C6 C 0.179(3) 1.650(2) 0.6732(17)
C7 C 0.0839(19) 1.7868(18) 0.8899(16)
C8 C 0.167(2) 1.739(2) 0.9329(14)
C9 C 0.368(2) 1.270(2) 1.1366(13)
C10 C 0.784(2) 1.765(2) 0.6881(16)
C11 C 0.1607(19) 1.024(2) 0.5941(15)
C12 C 0.732(2) 1.554(2) 0.4899(15)
C13 C 0.198(2) 1.088(2) 0.6021(13)
C14 C 0.755(2) 1.476(2) 0.5254(16)
C15 C -0.035(2) 1.309(2) 0.9061(14)
C16 C 0.122(2) 1.136(2) 0.7818(16)
N1 N 0.0820(17) 1.1450(16) 0.5247(12)
N2 N 0.1459(15) 1.1663(15) 0.5566(11)
N3 N 0.1575(16) 1.2027(15) 0.7852(11)
N4 N 0.1793(17) 1.6523(16) 0.9419(13)
N5 N 0.8436(18) 1.4524(19) 0.5587(12)
N6 N 0.8236(18) 1.6182(18) 0.7384(11)
N7 N -0.0332(17) 1.3953(17) 0.8874(14)
N8 N 0.8727(17) 1.5245(17) 0.5437(11)
N9 N 0.4137(16) 1.3970(16) 1.1261(11)
N10 N 0.3382(16) 1.4117(15) 1.0821(12)
N11 N 0.7454(16) 1.6341(16) 0.6924(12)
N12 N 0.0539(16) 1.7192(16) 0.8716(13)
N13 N 0.3078(15) 1.3408(14) 1.0878(11)
N14 N 0.8052(19) 1.5853(17) 0.4982(13)
N15 N 0.1479(16) 1.5244(17) 0.6939(12)
N16 N 0.0905(16) 1.3209(15) 0.9594(12)
N17 N 0.1032(18) 1.2772(16) 0.7433(13)
N18 N 0.8435(16) 1.6942(15) 0.7346(12)
N19 N 0.1095(16) 1.6387(16) 0.9050(11)
N20 N 0.0292(15) 1.2670(18) 0.7141(12)
N21 N 0.1018(18) 1.6592(18) 0.6325(12)
N22 N 0.088(2) 1.0596(18) 0.5426(13)
N23 N 0.0849(18) 1.5850(18) 0.6450(12)
N24 N 0.0442(15) 1.4018(15) 0.9190(12)
O1 O 0.7939(12) 1.2921(14) 0.671(1)
O2 O 0.6458(12) 1.3550(12) 0.8589(8)
O3 O 0.6105(13) 1.3671(13) 1.0135(9)
O4 O 0.5450(12) 1.2241(12) 0.9897(8)
O5 O 0.6399(19) 1.3554(18) 1.2089(15)
O6 O 0.4494(13) 1.1055(14) 1.0116(10)
O7 O 0.6390(11) 1.0401(11) 0.9282(8)
O8 O 0.493(3) 1.665(3) 0.645(3)
O9 O 0.8518(12) 0.9055(12) 0.7852(8)
O10 O 0.5920(11) 0.9685(12) 0.6693(8)
O11 O 0.6872(12) 1.1398(13) 0.5874(9)
O12 O 0.6517(11) 1.2463(12) 0.7289(8)
O13 O 0.8227(13) 1.2218(13) 0.8101(9)
O14 O 0.6341(13) 1.3285(14) 0.5983(10)
O15 O 0.6134(13) 1.4302(13) 0.7228(9)
O16 O 0.7310(11) 1.0907(11) 0.7959(7)
O17 O 0.5070(13) 1.1307(12) 0.5985(9)
O18 O 0.7291(13) 1.1968(13) 0.9297(9)
O19 O 0.4519(13) 1.4016(12) 0.7701(9)
O20 O 0.9288(11) 1.0283(12) 0.7869(8)
O21 O 0.8460(12) 1.1032(15) 0.6587(9)
O22 O 0.9451(13) 1.1070(13) 0.9185(10)
O23 O 0.5605(11) 1.2197(11) 0.8443(8)
O24 O 0.5761(11) 1.1284(11) 0.7262(8)
O25 O 0.7700(12) 0.9810(13) 0.6582(9)
O26 O 0.4684(14) 1.3076(13) 0.6479(9)
O27 O 0.4617(12) 1.3865(12) 0.9177(8)
O28 O 0.6547(12) 0.9452(11) 0.8076(8)
O29 O 0.4780(11) 1.0811(11) 0.8551(8)
O30 O 0.7850(13) 0.8460(13) 0.9163(10)
O31 O 0.4788(14) 0.9210(14) 0.7799(9)
O32 O 0.9803(13) 0.9035(14) 0.6616(10)
O33 O 0.6756(15) 0.9742(17) 0.5302(10)
O34 O 0.8224(16) 1.2129(13) 0.5277(10)
O35 O 0.3042(14) 1.2591(15) 0.6313(10)
O36 O 0.4128(12) 1.1013(13) 0.7215(9)
O37 O 0.8337(12) 1.0016(12) 0.9088(8)
O38 O 0.7874(14) 1.4126(15) 0.7879(12)
O39 O 0.3750(12) 1.2806(12) 0.7669(8)
O40 O 0.3838(11) 1.2581(11) 0.9145(8)
O41 O 0.2728(14) 1.4398(15) 0.863(1)
O42 O 0.4488(16) 1.4936(15) 0.6360(12)
Si1 Si 0.6303(4) 1.1709(4) 0.7737(3)
Ag1 Ag 0.28241(17) 1.1898(2) 0.85122(14)
Ag2 Ag 0.97881(16) 1.55182(17) 0.59338(11)
Ag3 Ag 0.27529(17) 1.53283(16) 1.01036(12)
Ag4 Ag 0.94472(15) 1.71406(15) 0.80278(12)
Ag5 Ag 0.17971(18) 1.28578(17) 0.53601(12)
Ag6 Ag 0.88569(16) 1.50324(16) 0.81042(12)
Ag7 Ag 0.93089(16) 1.35358(17) 0.63764(12)
Ag8 Ag 0.20618(17) 1.32044(17) 1.02427(12)
Ag9 Ag 0.51563(18) 1.47027(17) 1.13136(14)
Ag10 Ag 0.08236(16) 1.51568(15) 0.90877(12)
Ag11 Ag -0.01726(18) 1.23458(17) 0.44617(12)
Ag12 Ag 0.00000 1.00000 0.50000
Ag13 Ag 0.13662(17) 1.39765(17) 0.72397(13)
Ag14 Ag 0.6484(2) 1.5606(2) 0.69190(17)
W1 W 0.75013(8) 0.94931(8) 0.86780(6)
W2 W 0.75557(9) 1.21435(10) 0.60930(7)
W3 W 0.87461(8) 0.98623(8) 0.70990(6)
W4 W 0.73225(9) 1.33816(9) 0.77031(7)
W5 W 0.64558(10) 1.03979(11) 0.61092(7)
W6 W 0.60146(9) 1.30094(9) 0.94127(6)
W7 W 0.39279(9) 1.35129(9) 0.84626(7)
W8 W 0.85118(9) 1.11006(9) 0.87046(7)
W9 W 0.50225(9) 1.14020(9) 0.93966(6)
W10 W 0.52177(9) 1.39115(10) 0.67503(8)
W11 W 0.52325(8) 1.00362(8) 0.76675(6)
W12 W 0.41549(9) 1.21515(10) 0.67366(6)
O43 O 0.306(2) 1.044(2) 0.9211(13)
O44 O 0.50000 1.50000 0.50000
O45 O 0.5703(11) 1.1385(11) 1.1043(8)
O46 O 1.151(2) 0.979(3) 0.929(2)
C1A C -0.0433(19) 0.7344(18) 0.0457(14)
C2A C -0.435(2) 0.690(2) -0.1586(15)
C3A C -0.029(2) 0.820(2) 0.2627(15)
C4A C -0.203(3) 0.426(3) 0.2878(15)
C5A C -0.719(2) 0.280(2) 0.3408(16)
C6A C -0.179(3) 0.350(2) 0.3268(17)
C7A C -0.0839(19) 0.2132(18) 0.1101(16)
C8A C -0.167(2) 0.261(2) 0.0671(14)
C9A C -0.368(2) 0.730(2) -0.1366(13)
C10A C -0.784(2) 0.235(2) 0.3119(16)
C11A C -0.1607(19) 0.976(2) 0.4059(15)
C12A C -0.732(2) 0.446(2) 0.5101(15)
C13A C -0.198(2) 0.912(2) 0.3979(13)
C14A C -0.755(2) 0.524(2) 0.4746(16)
C15A C 0.035(2) 0.691(2) 0.0939(14)
C16A C -0.122(2) 0.864(2) 0.2182(16)
N1A N -0.0820(17) 0.8550(16) 0.4753(12)
N2A N -0.1459(15) 0.8337(15) 0.4434(11)
N3A N -0.1575(16) 0.7973(15) 0.2148(11)
N4A N -0.1793(17) 0.3477(16) 0.0581(13)
N5A N -0.8436(18) 0.5476(19) 0.4413(12)
N6A N -0.8236(18) 0.3818(18) 0.2616(11)
N7A N 0.0332(17) 0.6047(17) 0.1126(14)
N8A N -0.8727(17) 0.4755(17) 0.4563(11)
N9A N -0.4137(16) 0.6030(16) -0.1261(11)
N10A N -0.3382(16) 0.5883(15) -0.0821(12)
N11A N -0.7454(16) 0.3659(16) 0.3076(12)
N12A N -0.0539(16) 0.2808(16) 0.1284(13)
N13A N -0.3078(15) 0.6592(14) -0.0878(11)
N14A N -0.8052(19) 0.4147(17) 0.5018(13)
N15A N -0.1479(16) 0.4756(17) 0.3061(12)
N16A N -0.0905(16) 0.6791(15) 0.0406(12)
N17A N -0.1032(18) 0.7228(16) 0.2567(13)
N18A N -0.8435(16) 0.3058(15) 0.2654(12)
N19A N -0.1095(16) 0.3613(16) 0.0950(11)
N20A N -0.0292(15) 0.7330(18) 0.2859(12)
N21A N -0.1018(18) 0.3408(18) 0.3675(12)
N22A N -0.088(2) 0.9404(18) 0.4574(13)
N23A N -0.0849(18) 0.4150(18) 0.3550(12)
N24A N -0.0442(15) 0.5982(15) 0.0810(12)
O1A O -0.7939(12) 0.7079(14) 0.329(1)
O2A O -0.6458(12) 0.6450(12) 0.1411(8)
O3A O -0.6105(13) 0.6329(13) -0.0135(9)
O4A O -0.5450(12) 0.7759(12) 0.0103(8)
O5A O -0.6399(19) 0.6446(18) -0.2089(15)
O6A O -0.4494(13) 0.8945(14) -0.0116(10)
O7A O -0.6390(11) 0.9599(11) 0.0718(8)
O8A O -0.493(3) 0.335(3) 0.355(3)
O9A O -0.8518(12) 1.0945(12) 0.2148(8)
O10A O -0.5920(11) 1.0315(12) 0.3307(8)
O11A O -0.6872(12) 0.8602(13) 0.4126(9)
O12A O -0.6517(11) 0.7537(12) 0.2711(8)
O13A O -0.8227(13) 0.7782(13) 0.1899(9)
O14A O -0.6341(13) 0.6715(14) 0.4017(10)
O15A O -0.6134(13) 0.5698(13) 0.2772(9)
O16A O -0.7310(11) 0.9093(11) 0.2041(7)
O17A O -0.5070(13) 0.8693(12) 0.4015(9)
O18A O -0.7291(13) 0.8032(13) 0.0703(9)
O19A O -0.4519(13) 0.5984(12) 0.2299(9)
O20A O -0.9288(11) 0.9717(12) 0.2131(8)
O21A O -0.8460(12) 0.8968(15) 0.3413(9)
O22A O -0.9451(13) 0.8930(13) 0.0815(10)
O23A O -0.5605(11) 0.7803(11) 0.1557(8)
O24A O -0.5761(11) 0.8716(11) 0.2738(8)
O25A O -0.7700(12) 1.0190(13) 0.3418(9)
O26A O -0.4684(14) 0.6924(13) 0.3521(9)
O27A O -0.4617(12) 0.6135(12) 0.0823(8)
O28A O -0.6547(12) 1.0548(11) 0.1924(8)
O29A O -0.4780(11) 0.9189(11) 0.1449(8)
O30A O -0.7850(13) 1.1540(13) 0.0837(10)
O31A O -0.4788(14) 1.0790(14) 0.2201(9)
O32A O -0.9803(13) 1.0965(14) 0.3384(10)
O33A O -0.6756(15) 1.0258(17) 0.4698(10)
O34A O -0.8224(16) 0.7871(13) 0.4723(10)
O35A O -0.3042(14) 0.7409(15) 0.3687(10)
O36A O -0.4128(12) 0.8987(13) 0.2785(9)
O37A O -0.8337(12) 0.9984(12) 0.0912(8)
O38A O -0.7874(14) 0.5874(15) 0.2121(12)
O39A O -0.3750(12) 0.7194(12) 0.2331(8)
O40A O -0.3838(11) 0.7419(11) 0.0855(8)
O41A O -0.2728(14) 0.5602(15) 0.137(1)
O42A O -0.4488(16) 0.5064(15) 0.3640(12)
Si1A Si -0.6303(4) 0.8291(4) 0.2263(3)
Ag1A Ag -0.28241(17) 0.8102(2) 0.14878(14)
Ag2A Ag -0.97881(16) 0.44818(17) 0.40662(11)
Ag3A Ag -0.27529(17) 0.46717(16) -0.01036(12)
Ag4A Ag -0.94472(15) 0.28594(15) 0.19722(12)
Ag5A Ag -0.17971(18) 0.71422(17) 0.46399(12)
Ag6A Ag -0.88569(16) 0.49676(16) 0.18958(12)
Ag7A Ag -0.93089(16) 0.64642(17) 0.36236(12)
Ag8A Ag -0.20618(17) 0.67956(17) -0.02427(12)
Ag9A Ag -0.51563(18) 0.52973(17) -0.13136(14)
Ag10A Ag -0.08236(16) 0.48432(15) 0.09123(12)
Ag11A Ag 0.01726(18) 0.76542(17) 0.55383(12)
Ag13A Ag -0.13662(17) 0.60235(17) 0.27603(13)
Ag14A Ag -0.6484(2) 0.4394(2) 0.30810(17)
W1A W -0.75013(8) 1.05069(8) 0.13220(6)
W2A W -0.75557(9) 0.78565(10) 0.39070(7)
W3A W -0.87461(8) 1.01377(8) 0.29010(6)
W4A W -0.73225(9) 0.66184(9) 0.22969(7)
W5A W -0.64558(10) 0.96021(11) 0.38908(7)
W6A W -0.60146(9) 0.69906(9) 0.05873(6)
W7A W -0.39279(9) 0.64871(9) 0.15374(7)
W8A W -0.85118(9) 0.88994(9) 0.12954(7)
W9A W -0.50225(9) 0.85980(9) 0.06034(6)
W10A W -0.52177(9) 0.60885(10) 0.32497(8)
W11A W -0.52325(8) 0.99638(8) 0.23325(6)
W12A W -0.41549(9) 0.78485(10) 0.32634(6)
O43A O -0.306(2) 0.956(2) 0.0789(13)
N7* N 0.9668(17) 1.3953(17) 0.8874(14)
N7A* N -0.9668(17) 0.6047(17) 0.1126(14)
N12* N 1.0539(16) 1.7192(16) 0.8716(13)
N12A* N -1.0539(16) 0.2808(16) 0.1284(13)
N14* N -0.1948(19) 0.5853(17) 0.4982(13)
N14A* N 0.1948(19) 1.4147(17) 0.5018(13)
N20* N 1.0292(15) 1.2670(18) 0.7141(12)
N20A* N -1.0292(15) 0.7330(18) 0.2859(12)
N21* N 0.1018(18) 0.6592(18) 0.6325(12)
N21A* N -0.1018(18) 1.3408(18) 0.3675(12)
N23* N 1.0849(18) 1.5850(18) 0.6450(12)
N23A* N -1.0849(18) 0.4150(18) 0.3550(12)
O2* O -0.3542(12) 0.3550(12) -0.1411(8)
O2A* O 0.3542(12) 1.6450(12) 1.1411(8)
O9* O 0.8518(12) 1.9055(12) 0.7852(8)
O9A* O -0.8518(12) 0.0945(12) 0.2148(8)
O27* O -0.5383(12) 0.3865(12) -0.0823(8)
O27A* O 0.5383(12) 1.6135(12) 1.0823(8)
O30* O -0.2150(13) 0.8460(13) -0.0837(10)
O30A* O 0.2150(13) 1.1540(13) 1.0837(10)
Ag2* Ag -0.02119(16) 1.55182(17) 0.59338(11)
Ag2A* Ag 0.02119(16) 0.44818(17) 0.40662(11)
Ag4* Ag -0.05528(15) 1.71406(15) 0.80278(12)
Ag4** Ag 0.94472(15) 0.71406(15) 0.80278(12)
Ag4A* Ag -0.94472(15) 1.28594(15) 0.19722(12)
Ag4A** Ag 0.05528(15) 0.28594(15) 0.19722(12)
Ag5* Ag -0.82029(18) 0.28578(17) 0.53601(12)
Ag5A* Ag 0.82029(18) 1.71422(17) 0.46399(12)
Ag6* Ag -0.11431(16) 1.50324(16) 0.81042(12)
Ag6A* Ag 0.11431(16) 0.49676(16) 0.18958(12)
Ag7* Ag -0.06911(16) 1.35358(17) 0.63764(12)
Ag7A* Ag 0.06911(16) 0.64642(17) 0.36236(12)
Ag8* Ag -0.79382(17) 1.32044(17) 0.02427(12)
Ag8A* Ag 0.79382(17) 0.67956(17) 0.97573(12)
Ag9* Ag -0.48437(18) 0.47027(17) 0.13136(14)
Ag9A* Ag 0.48437(18) 1.52973(17) 0.86864(14)
Ag11* Ag -0.01726(18) 0.23458(17) 0.44617(12)
Ag11A* Ag 0.01726(18) 1.76542(17) 0.55383(12)
#END
