
#######################################################################
#
#                 Cambridge Crystallographic Data Centre
#                                CCDC
#
#######################################################################
#
# If this CIF has been generated from an entry in the Cambridge
# Structural Database, then it will include bibliographic, chemical,
# crystal, experimental, refinement or atomic coordinate data resulting
# from the CCDC's data processing and validation procedures.
#
#######################################################################

data_CSD_CIF_SEZJIT
_audit_creation_date 2018-03-20
_audit_creation_method CSD-ConQuest-V1
_database_code_CSD SEZJIT
_database_code_depnum_ccdc_archive 'CCDC 1831079'
_chemical_formula_sum 'C72 H56 Fe2 I18 N12 O4 Pb6'
_chemical_formula_moiety
;
2(C36 H24 Fe1 N6 3+),n(I18 Pb6 6-),4(H2 O1)
;
_journal_coden_Cambridge 1078
_journal_year 2018
_journal_name_full 'CSD Communication(Private Communication) '
loop_
_publ_author_name
"Tingting Xu"
_chemical_name_systematic
;
catena-[bis(tris(1,10-phenanthroline)-iron) octadecakis(\m-iodo)-hexa-lead 
tetrahydrate]
;
_cell_volume  11683.382
_exptl_crystal_density_diffrn 2.72
_exptl_special_details
;
Department of Chemistry, University of Science and Technology of China, 96, 
Jinzhai road, Hefei, China, 230026
;
_diffrn_ambient_temperature 293
#These two values have been output from a single CSD field.
_refine_ls_R_factor_gt 0.0678
_refine_ls_wR_factor_gt 0.0678
_symmetry_cell_setting monoclinic
_symmetry_space_group_name_H-M 'C 2/c'
_symmetry_Int_Tables_number 15
loop_
_symmetry_equiv_pos_site_id
_symmetry_equiv_pos_as_xyz
1 x,y,z
2 -x,y,1/2-z
3 1/2+x,1/2+y,z
4 1/2-x,1/2+y,1/2-z
5 -x,-y,-z
6 x,-y,-1/2+z
7 -1/2-x,-1/2-y,-z
8 -1/2+x,-1/2-y,-1/2+z
_cell_length_a 24.4322(13)
_cell_length_b 20.9878(13)
_cell_length_c 24.0516(15)
_cell_angle_alpha 90
_cell_angle_beta 108.681(2)
_cell_angle_gamma 90
_cell_formula_units_Z 4
loop_
_atom_type_symbol
_atom_type_radius_bond
C 0.68
H 0.23
Fe 1.52
I 1.40
N 0.68
O 0.68
Pb 1.46
loop_
_atom_site_label
_atom_site_type_symbol
_atom_site_fract_x
_atom_site_fract_y
_atom_site_fract_z
Fe1 Fe 0.50000 0.46558(12) 0.25000
N1 N 0.4614(5) 0.5314(5) 0.2823(5)
N2 N 0.5357(5) 0.3946(5) 0.2199(5)
N3 N 0.4287(5) 0.4708(5) 0.1810(5)
C1 C 0.4133(7) 0.4396(7) 0.1309(6)
H1 H 0.43808 0.40945 0.12359
C2 C 0.5832(7) 0.2821(8) 0.1903(7)
H2 H 0.60025 0.24556 0.18154
C3 C 0.3369(7) 0.5277(8) 0.1473(8)
C4 C 0.5198(7) 0.2200(7) 0.2358(6)
H3 H 0.53369 0.18146 0.22671
C5 C 0.3208(10) 0.4935(9) 0.0965(9)
H4 H 0.28455 0.49892 0.06863
C6 C 0.3589(9) 0.4519(9) 0.0879(8)
H5 H 0.34937 0.43018 0.05240
C7 C 0.4503(11) 0.6074(9) 0.3530(9)
H6 H 0.46490 0.62621 0.38985
C8 C 0.3898(5) 0.5157(7) 0.1898(6)
C9 C 0.4084(7) 0.5483(7) 0.2452(7)
C10 C 0.3959(10) 0.6246(8) 0.313(1)
H7 H 0.37459 0.65661 0.32316
C11 C 0.3730(7) 0.5940(8) 0.2574(8)
C12 C 0.4798(8) 0.5619(7) 0.3345(7)
H8 H 0.51595 0.55058 0.36004
C13 C 0.3012(7) 0.5757(10) 0.1610(9)
H9 H 0.26539 0.58547 0.13404
C14 C 0.5981(7) 0.3420(8) 0.1756(7)
H10 H 0.62454 0.34624 0.15538
C15 C 0.3198(9) 0.6071(11) 0.2134(11)
H11 H 0.29630 0.63867 0.22058
C16 C 0.5408(7) 0.2786(7) 0.2194(6)
C17 C 0.5738(6) 0.3945(7) 0.1909(7)
H12 H 0.58475 0.43387 0.18019
C18 C 0.5198(5) 0.3359(6) 0.2349(6)
Fe2 Fe 0.00000 0.46815(12) 0.25000
N4 N 0.0608(5) 0.5324(5) 0.2768(5)
N5 N 0.0198(5) 0.4725(5) 0.1760(5)
N6 N 0.0553(5) 0.3976(5) 0.2776(5)
C19 C -0.0023(8) 0.4449(7) 0.1259(7)
H13 H -0.03449 0.41902 0.12082
C20 C 0.0891(5) 0.5428(7) 0.2373(6)
C21 C 0.1393(8) 0.5617(14) 0.1511(10)
H14 H 0.15587 0.56898 0.12181
C22 C 0.1549(8) 0.6173(9) 0.3004(9)
H15 H 0.18547 0.64602 0.30815
C23 C 0.0275(9) 0.2227(8) 0.2642(9)
H16 H 0.04659 0.18412 0.27504
C24 C 0.1192(9) 0.2844(8) 0.3098(8)
H17 H 0.14139 0.24761 0.31943
C25 C 0.1429(9) 0.3421(10) 0.3243(8)
H18 H 0.18154 0.34472 0.34721
C26 C 0.1613(7) 0.5929(13) 0.2003(10)
H19 H 0.19270 0.61991 0.20545
C27 C 0.0682(6) 0.5112(7) 0.1820(7)
C28 C 0.1120(7) 0.3985(8) 0.3065(7)
H20 H 0.13112 0.43734 0.31500
C29 C 0.0945(7) 0.5197(8) 0.1386(7)
C30 C 0.0808(7) 0.5639(7) 0.3291(7)
H21 H 0.06265 0.55702 0.35712
C31 C 0.1266(8) 0.6054(9) 0.3419(8)
H22 H 0.13891 0.62570 0.37813
C32 C 0.1356(6) 0.5846(9) 0.2476(8)
C33 C 0.0595(8) 0.2814(7) 0.2795(7)
C34 C 0.0193(10) 0.4515(8) 0.0781(7)
H23 H 0.00112 0.43178 0.04229
C35 C 0.0300(7) 0.3383(7) 0.2657(6)
C36 C 0.0685(10) 0.4884(9) 0.0862(9)
H24 H 0.08420 0.49201 0.05581
Pb1 Pb 0.41320(2) 0.24327(3) -0.00048(2)
Pb2 Pb 0.25000 0.25000 0.00000
Pb3 Pb 0.58077(3) 0.24349(3) 0.00648(3)
Pb4 Pb 0.75000 0.25000 0.00000
I1 I 0.36786(5) 0.27486(5) 0.10620(4)
I2 I 0.47321(5) 0.22032(5) -0.10396(4)
I3 I 0.49810(5) 0.36247(5) 0.02630(5)
I4 I 0.50997(5) 0.15571(5) 0.07513(4)
I5 I 0.70938(5) 0.26158(7) 0.11611(5)
I6 I 0.65896(5) 0.12910(6) -0.01822(5)
I7 I 0.31754(5) 0.12415(6) -0.02362(6)
I8 I 0.30337(5) 0.32832(6) -0.08571(5)
I9 I 0.63722(6) 0.33823(6) -0.06061(6)
O1 O 0.2705(8) 0.4619(7) 0.2873(6)
H25 H 0.25150 0.42773 0.27582
H26 H 0.27824 0.46567 0.32417
O2 O 0.223(2) 0.3758(15) 0.2000(13)
H27 H 0.24839 0.34620 0.20891
H28 H 0.23316 0.40406 0.18005
N2A N 0.4643(5) 0.3946(5) 0.2801(5)
C2A C 0.4168(7) 0.2821(8) 0.3097(7)
H2A H 0.39975 0.24556 0.31846
C4A C 0.4802(7) 0.2200(7) 0.2642(6)
H3A H 0.46631 0.18146 0.27329
C14A C 0.4019(7) 0.3420(8) 0.3244(7)
H10A H 0.37546 0.34624 0.34462
C16A C 0.4592(7) 0.2786(7) 0.2806(6)
C17A C 0.4262(6) 0.3945(7) 0.3091(7)
H12A H 0.41525 0.43387 0.31981
C18A C 0.4802(5) 0.3359(6) 0.2651(6)
N1A N 0.5386(5) 0.5314(5) 0.2177(5)
N3A N 0.5713(5) 0.4708(5) 0.3190(5)
C1A C 0.5867(7) 0.4396(7) 0.3691(6)
H1A H 0.56192 0.40945 0.37641
C3A C 0.6631(7) 0.5277(8) 0.3527(8)
C5A C 0.6792(10) 0.4935(9) 0.4035(9)
H4A H 0.71545 0.49892 0.43137
C6A C 0.6411(9) 0.4519(9) 0.4121(8)
H5A H 0.65063 0.43018 0.44760
C7A C 0.5497(11) 0.6074(9) 0.1470(9)
H6A H 0.53510 0.62621 0.11015
C8A C 0.6102(5) 0.5157(7) 0.3102(6)
C9A C 0.5916(7) 0.5483(7) 0.2548(7)
C10A C 0.6041(10) 0.6246(8) 0.187(1)
H7A H 0.62541 0.65661 0.17684
C11A C 0.6270(7) 0.5940(8) 0.2426(8)
C12A C 0.5202(8) 0.5619(7) 0.1655(7)
H8A H 0.48405 0.55058 0.13996
C13A C 0.6988(7) 0.5757(10) 0.3390(9)
H9A H 0.73461 0.58547 0.36596
C15A C 0.6802(9) 0.6071(11) 0.2866(11)
H11A H 0.70370 0.63867 0.27942
N6A N -0.0553(5) 0.3976(5) 0.2224(5)
C23A C -0.0275(9) 0.2227(8) 0.2358(9)
H16A H -0.04659 0.18412 0.22496
C24A C -0.1192(9) 0.2844(8) 0.1902(8)
H17A H -0.14139 0.24761 0.18057
C25A C -0.1429(9) 0.3421(10) 0.1757(8)
H18A H -0.18154 0.34472 0.15279
C28A C -0.1120(7) 0.3985(8) 0.1935(7)
H20A H -0.13112 0.43734 0.18500
C33A C -0.0595(8) 0.2814(7) 0.2205(7)
C35A C -0.0300(7) 0.3383(7) 0.2343(6)
N4A N -0.0608(5) 0.5324(5) 0.2232(5)
N5A N -0.0198(5) 0.4725(5) 0.3240(5)
C19A C 0.0023(8) 0.4449(7) 0.3741(7)
H13A H 0.03449 0.41902 0.37918
C20A C -0.0891(5) 0.5428(7) 0.2627(6)
C21A C -0.1393(8) 0.5617(14) 0.3489(10)
H14A H -0.15587 0.56898 0.37819
C22A C -0.1549(8) 0.6173(9) 0.1996(9)
H15A H -0.18547 0.64602 0.19185
C26A C -0.1613(7) 0.5929(13) 0.2997(10)
H19A H -0.19270 0.61991 0.29455
C27A C -0.0682(6) 0.5112(7) 0.3180(7)
C29A C -0.0945(7) 0.5197(8) 0.3614(7)
C30A C -0.0808(7) 0.5639(7) 0.1709(7)
H21A H -0.06265 0.55702 0.14288
C31A C -0.1266(8) 0.6054(9) 0.1581(8)
H22A H -0.13891 0.62570 0.12187
C32A C -0.1356(6) 0.5846(9) 0.2524(8)
C34A C -0.0193(10) 0.4515(8) 0.4219(7)
H23A H -0.00112 0.43178 0.45771
C36A C -0.0685(10) 0.4884(9) 0.4138(9)
H24A H -0.08420 0.49201 0.44419
Pb1F Pb 0.08680(2) 0.25673(3) 0.00048(2)
Pb3F Pb -0.08077(3) 0.25651(3) -0.00648(3)
I1F I 0.13214(5) 0.22514(5) -0.10620(4)
I2F I 0.02679(5) 0.27968(5) 0.10396(4)
I3F I 0.00190(5) 0.13753(5) -0.02630(5)
I4F I -0.00997(5) 0.34429(5) -0.07513(4)
I5F I -0.20938(5) 0.23842(7) -0.11611(5)
I6F I -0.15896(5) 0.37090(6) 0.01822(5)
I7F I 0.18246(5) 0.37585(6) 0.02362(6)
I8F I 0.19663(5) 0.17168(6) 0.08571(5)
I9F I -0.13722(6) 0.16177(6) 0.06061(6)
Pb4* Pb -0.25000 0.25000 0.00000
I5F* I 0.79062(5) 0.23842(7) -0.11611(5)
I6F* I 0.84104(5) 0.37090(6) 0.01822(5)
I9F* I 0.86278(6) 0.16177(6) 0.06061(6)
#END
