
#######################################################################
#
#                 Cambridge Crystallographic Data Centre
#                                CCDC
#
#######################################################################
#
# If this CIF has been generated from an entry in the Cambridge
# Structural Database, then it will include bibliographic, chemical,
# crystal, experimental, refinement or atomic coordinate data resulting
# from the CCDC's data processing and validation procedures.
#
#######################################################################

data_CSD_CIF_SEZJUF
_audit_creation_date 2018-03-20
_audit_creation_method CSD-ConQuest-V1
_database_code_CSD SEZJUF
_database_code_depnum_ccdc_archive 'CCDC 1831091'
_chemical_formula_sum 'C45 H45 Fe1 I6 N9 O3 Pb2'
_chemical_formula_moiety
;
C36 H24 Fe1 N6 2+,(I6 Pb2 2-)n,3(C3 H7 N1 O1)
;
_journal_coden_Cambridge 1078
_journal_year 2018
_journal_name_full 'CSD Communication(Private Communication) '
loop_
_publ_author_name
"Tingting Xu"
_chemical_name_systematic
;
catena-[tris(1,10-phenanthroline)-iron hexakis(\m-iodo)-di-lead 
N,N-dimethylformamide solvate]
;
_cell_volume  12690.908
_exptl_crystal_colour 'red'
_exptl_crystal_density_diffrn 2.085
_exptl_special_details
;
Department of Chemistry, University of Science and Technology of China, 96, 
Jinzhai road, Hefei, China, 230026
Study temperature given as 296 K and 273.1 K in the CIF
;
_exptl_crystal_description 'needle-like'
_diffrn_ambient_temperature 273.1
#These two values have been output from a single CSD field.
_refine_ls_R_factor_gt 0.0825
_refine_ls_wR_factor_gt 0.0825
_symmetry_cell_setting monoclinic
_symmetry_space_group_name_H-M 'C 2/c'
_symmetry_Int_Tables_number 15
loop_
_symmetry_equiv_pos_site_id
_symmetry_equiv_pos_as_xyz
1 x,y,z
2 -x,y,1/2-z
3 1/2+x,1/2+y,z
4 1/2-x,1/2+y,1/2-z
5 -x,-y,-z
6 x,-y,-1/2+z
7 -1/2-x,-1/2-y,-z
8 -1/2+x,-1/2-y,-1/2+z
_cell_length_a 40.460(3)
_cell_length_b 8.3384(6)
_cell_length_c 37.980(3)
_cell_angle_alpha 90
_cell_angle_beta 97.928(2)
_cell_angle_gamma 90
_cell_formula_units_Z 8
loop_
_atom_type_symbol
_atom_type_radius_bond
C 0.68
H 0.23
Fe 1.52
I 1.40
N 0.68
O 0.68
Pb 1.46
loop_
_atom_site_label
_atom_site_type_symbol
_atom_site_fract_x
_atom_site_fract_y
_atom_site_fract_z
C1 C 0.1253(3) 0.8676(12) 0.6972(2)
C2 C 0.1266(3) 0.8839(13) 0.7338(3)
C3 C 0.1398(4) 0.7614(16) 0.7563(2)
H1 H 0.14061 0.77229 0.78074
C4 C 0.1517(3) 0.6225(15) 0.7422(3)
H2 H 0.16052 0.54051 0.75721
C5 C 0.1505(3) 0.6062(12) 0.7056(3)
C6 C 0.1373(3) 0.7288(13) 0.6831(2)
Fe1 Fe 0.11422(5) 0.9138(2) 0.62380(5)
N1 N 0.1598(3) 0.9940(12) 0.6229(3)
N2 N 0.1187(3) 0.8453(11) 0.5751(3)
N3 N 0.0684(3) 0.8349(13) 0.6219(3)
N4 N 0.0908(3) 1.1030(14) 0.6024(3)
N5 N 0.1347(3) 0.7191(15) 0.6469(3)
N6 N 0.1128(3) 0.9831(13) 0.6734(3)
C7 C 0.1718(3) 0.9630(15) 0.5913(4)
C8 C 0.1486(3) 0.8842(16) 0.5655(3)
C9 C 0.0965(4) 0.7772(17) 0.5507(4)
H3 H 0.07571 0.75071 0.55670
C10 C 0.1811(4) 1.0592(16) 0.6487(4)
H4 H 0.17423 1.07834 0.67071
C11 C 0.0573(4) 1.0935(18) 0.5996(4)
C12 C 0.0447(4) 0.9456(19) 0.6109(4)
C13 C 0.0577(5) 0.694(2) 0.6329(5)
H5 H 0.07352 0.61885 0.64203
C14 C 0.1014(5) 1.116(2) 0.6864(5)
H6 H 0.09209 1.19504 0.67075
C15 C 0.1463(4) 0.5886(18) 0.6328(5)
H7 H 0.14399 0.58001 0.60820
C16 C 0.1582(4) 0.8526(18) 0.5316(4)
C17 C 0.1340(4) 0.7748(18) 0.5071(4)
H8 H 0.13911 0.74526 0.48485
C18 C 0.1029(4) 1.2353(18) 0.5896(4)
H9 H 0.12599 1.24664 0.59172
C19 C 0.2042(4) 1.0041(17) 0.5837(4)
C20 C 0.2117(4) 0.9675(19) 0.5508(4)
H10 H 0.23258 0.99670 0.54541
C21 C 0.2139(4) 1.1001(16) 0.6434(5)
H11 H 0.22837 1.14586 0.66175
C22 C 0.1031(4) 0.7431(18) 0.5159(4)
H12 H 0.08661 0.69945 0.49916
C23 C 0.0355(4) 1.213(2) 0.5840(5)
C24 C 0.0002(5) 1.180(3) 0.5834(6)
H13 H -0.01515 1.25751 0.57406
C25 C 0.0831(5) 1.359(2) 0.5731(5)
H14 H 0.09280 1.44669 0.56343
C26 C 0.1908(4) 0.8920(19) 0.5254(4)
H15 H 0.19787 0.86594 0.50385
C27 C 0.1610(5) 0.4689(19) 0.6524(5)
H16 H 0.17033 0.38399 0.64133
C28 C 0.1627(5) 0.470(2) 0.6884(6)
H17 H 0.17162 0.38263 0.70177
C29 C 0.2246(4) 1.071(2) 0.6102(5)
H18 H 0.24610 1.09974 0.60676
C30 C 0.0110(4) 0.919(2) 0.6082(5)
C31 C 0.1028(6) 1.142(3) 0.7225(7)
H19 H 0.09674 1.24102 0.73073
C32 C 0.0243(5) 0.656(3) 0.6311(6)
H20 H 0.01806 0.55327 0.63714
C33 C 0.0495(5) 1.349(2) 0.5714(6)
H21 H 0.03598 1.43230 0.56176
C34 C 0.0004(5) 0.769(3) 0.6207(6)
H22 H -0.02206 0.74780 0.62170
C35 C 0.1125(6) 1.029(3) 0.7453(5)
H23 H 0.11032 1.04220 0.76921
C36 C -0.0109(5) 1.044(3) 0.5957(6)
H24 H -0.03368 1.03169 0.59612
Pb1 Pb 0.14420(2) 0.93066(7) 0.38450(2)
Pb2 Pb 0.14406(2) 0.42850(7) 0.38467(2)
I1 I 0.09135(3) 0.68831(14) 0.41085(3)
I2 I 0.08845(3) 1.18129(15) 0.34812(3)
I3 I 0.19392(3) 1.18920(14) 0.35177(3)
I4 I 0.19726(3) 0.67882(14) 0.42481(3)
I5 I 0.14089(4) 0.67172(14) 0.31979(3)
I6 I 0.15181(4) 1.17467(14) 0.45023(3)
O1 O 0.1977(4) 0.1511(16) 0.7309(4)
C37 C 0.2066(5) 0.145(2) 0.7626(5)
H25 H 0.19411 0.08111 0.77584
N7 N 0.2318(5) 0.220(2) 0.7799(5)
C38 C 0.2409(7) 0.203(3) 0.8180(7)
H26 H 0.23785 0.30333 0.82936
H27 H 0.26388 0.17078 0.82305
H28 H 0.22705 0.12269 0.82672
C39 C 0.2537(10) 0.314(5) 0.7619(11)
H29 H 0.25375 0.27244 0.73830
H30 H 0.27587 0.30860 0.77465
H31 H 0.24619 0.42291 0.76061
N8 N 0.2133(4) 0.4559(18) 0.5513(4)
O2 O 0.1623(4) 0.419(2) 0.5651(4)
C40 C 0.1824(5) 0.408(2) 0.5458(5)
H32 H 0.17543 0.36083 0.52385
C41 C 0.2259(5) 0.526(3) 0.5852(5)
H33 H 0.22382 0.64020 0.58373
H34 H 0.24892 0.49759 0.59214
H35 H 0.21283 0.48560 0.60254
C42 C 0.2349(7) 0.441(4) 0.5251(7)
H36 H 0.22214 0.38614 0.50547
H37 H 0.25448 0.37975 0.53339
H38 H 0.24123 0.54480 0.51749
N9 N 0.0372(5) 0.239(2) 0.4785(5)
C43 C 0.0044(8) 0.230(4) 0.4794(8)
H39 H -0.00263 0.13337 0.48816
C44 C 0.0582(7) 0.096(3) 0.4898(8)
H40 H 0.05343 0.06052 0.51259
H41 H 0.08131 0.12476 0.49141
H42 H 0.05323 0.01204 0.47268
C45 C 0.0529(9) 0.378(4) 0.4676(10)
H43 H 0.05273 0.37500 0.44230
H44 H 0.07550 0.38181 0.47918
H45 H 0.04107 0.47107 0.47386
O3 O -0.0168(6) 0.322(3) 0.4712(6)
Pb2* Pb 0.14406(2) 1.42850(7) 0.38467(2)
I2* I 0.08845(3) 0.18129(15) 0.34812(3)
I3* I 0.19392(3) 0.18920(14) 0.35177(3)
I6* I 0.15181(4) 0.17467(14) 0.45023(3)
#END
