
#######################################################################
#
#                 Cambridge Crystallographic Data Centre
#                                CCDC
#
#######################################################################
#
# If this CIF has been generated from an entry in the Cambridge
# Structural Database, then it will include bibliographic, chemical,
# crystal, experimental, refinement or atomic coordinate data resulting
# from the CCDC's data processing and validation procedures.
#
#######################################################################

data_CSD_CIF_SICNEA
_audit_creation_date 2018-03-21
_audit_creation_method CSD-ConQuest-V1
_database_code_CSD SICNEA
_database_code_depnum_ccdc_archive 'CCDC 1818548'
_chemical_formula_sum 'C174 H219 Cd4 Mo36 N54 O142 P3'
_chemical_formula_moiety
;
(C39 H42 Cd1 N12 O3 2+)4n,2(Mo12 O40 P1 3-),H1 Mo12 O40 P1 2-,6(C3 H7 N1 
O1),4(H2 O1)
;
_journal_coden_Cambridge 222
_journal_volume 47
_journal_year 2018
_journal_page_first 5245
_journal_name_full 'Dalton Trans. '
loop_
_publ_author_name
"Min Liu"
"Xu-Feng Yang"
"Hai-Bin Zhu"
"Bao-Sheng Di"
"Yue Zhao"
_chemical_name_systematic
;
catena-[tetrakis((\m-1,3,5-tris(4-(4H-1,2,4-triazol-4-yl)phenyl)benzene)-tris(
N,N-dimethylformamide)-cadmium(ii)) 
bis((\m-phosphato)-tetracosakis(\m-oxido)-dodecakis(oxido)-dodeca-molybdenum) 
(\m-phosphato)-tricosakis(\m-oxido)-(\m-hydroxo)-dodecakis(oxido)-dodeca-molyb
denum N,N-dimethylformamide solvate tetrahydrate]
;
_cell_volume  27339.997
_exptl_crystal_colour 'dark green'
_exptl_special_details
;
H atom has been placed on the keggin for charge balance according to formula 
reported in the publication
;
_exptl_crystal_description 'block'
_diffrn_ambient_temperature 296
#These two values have been output from a single CSD field.
_refine_ls_R_factor_gt 0.0508
_refine_ls_wR_factor_gt 0.0508
_symmetry_cell_setting cubic
_symmetry_space_group_name_H-M 'I -4 3 d'
_symmetry_Int_Tables_number 220
loop_
_symmetry_equiv_pos_site_id
_symmetry_equiv_pos_as_xyz
1 x,y,z
2 1/2-x,-y,1/2+z
3 -x,1/2+y,1/2-z
4 1/2+x,1/2-y,-z
5 z,x,y
6 1/2+z,1/2-x,-y
7 1/2-z,-x,1/2+y
8 -z,1/2+x,1/2-y
9 y,z,x
10 -y,1/2+z,1/2-x
11 1/2+y,1/2-z,-x
12 1/2-y,-z,1/2+x
13 1/4+y,1/4+x,1/4+z
14 1/4-y,3/4-x,3/4+z
15 3/4+y,1/4-x,3/4-z
16 3/4-y,3/4+x,1/4-z
17 1/4+x,1/4+z,1/4+y
18 3/4-x,3/4+z,1/4-y
19 1/4-x,3/4-z,3/4+y
20 3/4+x,1/4-z,3/4-y
21 1/4+z,1/4+y,1/4+x
22 3/4+z,1/4-y,3/4-x
23 3/4-z,3/4+y,1/4-x
24 1/4-z,3/4-y,3/4+x
25 1/2+x,1/2+y,1/2+z
26 -x,1/2-y,z
27 1/2-x,y,-z
28 x,-y,1/2-z
29 1/2+z,1/2+x,1/2+y
30 z,-x,1/2-y
31 -z,1/2-x,y
32 1/2-z,x,-y
33 1/2+y,1/2+z,1/2+x
34 1/2-y,z,-x
35 y,-z,1/2-x
36 -y,1/2-z,x
37 3/4+y,3/4+x,3/4+z
38 3/4-y,1/4-x,1/4+z
39 1/4+y,3/4-x,1/4-z
40 1/4-y,1/4+x,3/4-z
41 3/4+x,3/4+z,3/4+y
42 1/4-x,1/4+z,3/4-y
43 3/4-x,1/4-z,1/4+y
44 1/4+x,3/4-z,1/4-y
45 3/4+z,3/4+y,3/4+x
46 1/4+z,3/4-y,1/4-x
47 1/4-z,1/4+y,3/4-x
48 3/4-z,1/4-y,1/4+x
_cell_length_a 30.1254(9)
_cell_length_b 30.1254(9)
_cell_length_c 30.1254(9)
_cell_angle_alpha 90
_cell_angle_beta 90
_cell_angle_gamma 90
_cell_formula_units_Z 4
loop_
_atom_type_symbol
_atom_type_radius_bond
C 0.68
H 0.23
Cd 1.44
Mo 1.54
N 0.68
O 0.68
P 1.05
loop_
_atom_site_label
_atom_site_type_symbol
_atom_site_fract_x
_atom_site_fract_y
_atom_site_fract_z
C1 C 0.0053(5) 0.1420(5) 0.0831(5)
H1 H 0.01115 0.15631 0.05638
C2 C -0.0164(6) 0.1282(6) 0.1481(6)
H2 H -0.02995 0.13111 0.17572
C3 C -0.0400(4) 0.2029(5) 0.1185(5)
C4 C -0.0435(7) 0.2227(7) 0.1582(5)
H3 H -0.02916 0.21046 0.18267
C5 C -0.0678(7) 0.2607(6) 0.1630(5)
H4 H -0.07299 0.27239 0.19113
C6 C -0.0846(5) 0.2817(5) 0.1257(5)
C7 C -0.0793(6) 0.2622(6) 0.0848(5)
H5 H -0.09048 0.27587 0.05951
C8 C -0.0563(5) 0.2207(5) 0.0814(5)
H6 H -0.05287 0.20662 0.05409
C9 C -0.1117(5) 0.3231(5) 0.1325(5)
C10 C -0.1041(5) 0.3514(5) 0.1684(5)
H7 H -0.08017 0.34608 0.18712
C11 C 0.0671(13) -0.0368(12) -0.0098(9)
H8 H 0.04035 -0.04683 0.00204
C12 C 0.1310(11) -0.0610(13) -0.0520(12)
H9 H 0.12755 -0.06253 -0.08363
H10 H 0.14918 -0.08522 -0.04210
H11 H 0.14487 -0.03340 -0.04413
C13 C 0.0759(14) -0.1114(9) -0.0362(12)
H12 H 0.07741 -0.12704 -0.00852
H13 H 0.09465 -0.12580 -0.05760
H14 H 0.04587 -0.11126 -0.04679
Cd1 Cd 0.04868(4) 0.04868(4) 0.04868(4)
N1 N 0.0184(4) 0.1019(5) 0.0922(4)
N2 N 0.0050(5) 0.0940(5) 0.1361(4)
N3 N -0.0175(4) 0.1602(4) 0.1162(4)
N4 N 0.0875(9) -0.0670(7) -0.0298(7)
O1 O 0.0727(8) -0.0020(7) -0.0028(8)
Mo1 Mo 0.82866(6) 0.04251(5) 0.97034(6)
Mo2 Mo 0.85503(6) 0.12780(5) 1.05364(7)
Mo3 Mo 0.82938(6) 0.20848(5) 0.97779(6)
O2 O 0.8696(4) 0.0049(4) 0.9681(6)
O3 O 0.8415(4) 0.0763(4) 0.9193(5)
O4 O 0.8545(4) 0.0877(4) 1.0050(4)
O5 O 0.9043(5) 0.1168(5) 1.0776(6)
O6 O 0.8716(4) 0.1743(4) 1.0127(5)
O7 O 0.8635(5) 0.2477(4) 0.9558(6)
O8 O 0.8124(4) 0.2361(3) 1.0332(4)
O9 O 0.7752(4) 0.2236(3) 0.9519(4)
O10 O 0.7873(4) 0.1546(3) 1.0197(3)
O11 O 0.8311(4) 0.1632(3) 0.9336(4)
P1 P 0.75000 0.12500 1.00000
C1G C -0.0831(5) 0.5053(5) 0.3580(5)
H1G H -0.05638 0.51115 0.34369
C2G C -0.1481(6) 0.4836(6) 0.3718(6)
H2G H -0.17572 0.47005 0.36889
C3G C -0.1185(4) 0.4600(5) 0.2971(5)
C4G C -0.1582(7) 0.4565(7) 0.2773(5)
H3G H -0.18267 0.47084 0.28954
C5G C -0.1630(7) 0.4322(6) 0.2393(5)
H4G H -0.19113 0.42701 0.22761
C6G C -0.1257(5) 0.4154(5) 0.2183(5)
C7G C -0.0848(6) 0.4207(6) 0.2378(5)
H5G H -0.05951 0.40952 0.22413
C8G C -0.0814(5) 0.4437(5) 0.2793(5)
H6G H -0.05409 0.44713 0.29338
C9G C -0.1325(5) 0.3883(5) 0.1769(5)
C10G C -0.1684(5) 0.3959(5) 0.1486(5)
H7G H -0.18712 0.41983 0.15392
N1G N -0.0922(4) 0.5184(5) 0.3981(4)
N2G N -0.1361(5) 0.5050(5) 0.4060(4)
N3G N -0.1162(4) 0.4825(4) 0.3398(4)
C1J C -0.3580(5) 0.4169(5) -0.0053(5)
H1J H -0.34369 0.44362 -0.01115
C2J C -0.3718(6) 0.3519(6) 0.0164(6)
H2J H -0.36889 0.32428 0.02995
C3J C -0.2971(4) 0.3815(5) 0.0400(5)
C4J C -0.2773(7) 0.3418(7) 0.0435(5)
H3J H -0.28954 0.31733 0.02916
C5J C -0.2393(7) 0.3370(6) 0.0678(5)
H4J H -0.22761 0.30887 0.07299
C6J C -0.2183(5) 0.3743(5) 0.0846(5)
C7J C -0.2378(6) 0.4152(6) 0.0793(5)
H5J H -0.22413 0.44049 0.09048
C8J C -0.2793(5) 0.4186(5) 0.0563(5)
H6J H -0.29338 0.44590 0.05287
C9J C -0.1769(5) 0.3675(5) 0.1117(5)
C10J C -0.1486(5) 0.3316(5) 0.1041(5)
H7J H -0.15392 0.31288 0.08017
N1J N -0.3981(4) 0.4078(5) -0.0184(4)
N2J N -0.4060(5) 0.3639(5) -0.0050(4)
N3J N -0.3398(4) 0.3838(4) 0.0175(4)
C11D C -0.0098(13) 0.0671(12) -0.0368(9)
H8D H 0.00204 0.04035 -0.04683
C12D C -0.0520(11) 0.1310(13) -0.0610(12)
H9D H -0.08363 0.12755 -0.06253
H10D H -0.04210 0.14918 -0.08522
H11D H -0.04413 0.14487 -0.03340
C13D C -0.0362(14) 0.0759(9) -0.1114(12)
H12D H -0.00852 0.07741 -0.12704
H13D H -0.05760 0.09465 -0.12580
H14D H -0.04679 0.04587 -0.11126
N4D N -0.0298(9) 0.0875(7) -0.0670(7)
O1D O -0.0028(8) 0.0727(7) -0.0020(8)
C11H C -0.0368(13) -0.0098(12) 0.0671(9)
H8H H -0.04683 0.00204 0.04035
C12H C -0.0610(11) -0.0520(13) 0.1310(12)
H9H H -0.06253 -0.08363 0.12755
H10H H -0.08522 -0.04210 0.14918
H11H H -0.03340 -0.04413 0.14487
C13H C -0.1114(14) -0.0362(9) 0.0759(12)
H12H H -0.12704 -0.00852 0.07741
H13H H -0.12580 -0.05760 0.09465
H14H H -0.11126 -0.04679 0.04587
N4H N -0.0670(9) -0.0298(7) 0.0875(7)
O1H O -0.0020(8) -0.0028(7) 0.0727(8)
Cd1B Cd -0.04868(4) 0.54868(4) 0.45132(4)
Cd1C Cd -0.45132(4) 0.45132(4) -0.04868(4)
N1D N 0.0922(4) 0.0184(5) 0.1019(4)
N1H N 0.1019(4) 0.0922(5) 0.0184(4)
O10U O 0.7697(4) 0.0954(3) 0.9627(3)
O10Z O 0.7127(4) 0.1546(3) 0.9803(3)
O10UA O 0.7303(4) 0.0954(3) 1.0373(3)
Mo1U Mo 0.72034(6) 0.20749(5) 0.92134(6)
Mo2U Mo 0.80364(6) 0.12220(5) 0.89497(7)
Mo3U Mo 0.72779(6) 0.04152(5) 0.92062(6)
O2U O 0.7181(4) 0.2451(4) 0.8804(6)
O3U O 0.6693(4) 0.1737(4) 0.9085(5)
O4U O 0.7550(4) 0.1623(4) 0.8955(4)
O5U O 0.8276(5) 0.1332(5) 0.8457(6)
O6U O 0.7627(4) 0.0757(4) 0.8784(5)
O7U O 0.7058(5) 0.0023(4) 0.8865(6)
O8U O 0.7832(4) 0.0139(3) 0.9376(4)
O9U O 0.7019(4) 0.0264(3) 0.9748(4)
O11U O 0.6836(4) 0.0868(3) 0.9189(4)
Mo1Z Mo 0.67134(6) 0.04251(5) 1.02966(6)
Mo2Z Mo 0.64497(6) 0.12780(5) 0.94636(7)
Mo3Z Mo 0.67062(6) 0.20848(5) 1.02221(6)
O2Z O 0.6304(4) 0.0049(4) 1.0319(6)
O3Z O 0.6585(4) 0.0763(4) 1.0807(5)
O4Z O 0.6455(4) 0.0877(4) 0.9950(4)
O5Z O 0.5957(5) 0.1168(5) 0.9224(6)
O6Z O 0.6284(4) 0.1743(4) 0.9873(5)
O7Z O 0.6365(5) 0.2477(4) 1.0442(6)
O8Z O 0.6876(4) 0.2361(3) 0.9668(4)
O9Z O 0.7248(4) 0.2236(3) 1.0481(4)
O11Z O 0.6689(4) 0.1632(3) 1.0664(4)
Mo1UA Mo 0.77966(6) 0.20749(5) 1.07866(6)
Mo2UA Mo 0.69636(6) 0.12220(5) 1.10503(7)
Mo3UA Mo 0.77221(6) 0.04152(5) 1.07938(6)
O2UA O 0.7819(4) 0.2451(4) 1.1196(6)
O3UA O 0.8307(4) 0.1737(4) 1.0915(5)
O4UA O 0.7450(4) 0.1623(4) 1.1045(4)
O5UA O 0.6724(5) 0.1332(5) 1.1543(6)
O6UA O 0.7373(4) 0.0757(4) 1.1216(5)
O7UA O 0.7942(5) 0.0023(4) 1.1135(6)
O8UA O 0.7168(4) 0.0139(3) 1.0624(4)
O9UA O 0.7981(4) 0.0264(3) 1.0252(4)
O11UA O 0.8164(4) 0.0868(3) 1.0811(4)
#END
