
#######################################################################
#
#                 Cambridge Crystallographic Data Centre
#                                CCDC
#
#######################################################################
#
# If this CIF has been generated from an entry in the Cambridge
# Structural Database, then it will include bibliographic, chemical,
# crystal, experimental, refinement or atomic coordinate data resulting
# from the CCDC's data processing and validation procedures.
#
#######################################################################

data_CSD_CIF_SICWIM
_audit_creation_date 2013-07-25
_audit_creation_method CSD-ConQuest-V1
_database_code_CSD SICWIM
_database_code_depnum_ccdc_archive 'CCDC 904659'
_chemical_formula_sum 'C64 H348 K16 N12 Na8 Ni18 O304 P12 W36'
_chemical_formula_moiety
;
(K1 1+)16n,8n(Na1 1+),n(C32 H54 N6 Ni9 O92 P6 W18 12-),n(C32 H54 N6 Ni9 O92 
P6 W18 12-),120n(H2 O1)
;
_journal_coden_Cambridge 1220
_journal_volume 19
_journal_year 2013
_journal_page_first 6753
_journal_name_full 'Chem.-Eur.J. '
loop_
_publ_author_name
"H.El Moll"
"G.Rousseau"
"A.Dolbecq"
"O.Oms"
"J.Marrot"
"M.Haouas"
"F.Taulelle"
"E.Riviere"
"W.Wernsdorfer"
"D.Lachkar"
"E.Lacote"
"B.Keita"
"P.Mialane"
_chemical_name_systematic
;
catena-[hexadecakis(Potassium) octakis(sodium) 
bis(\m~12~-phosphato)-bis(\m~5~-(4-(bis(pyridin-2-ylmethyl)amino)-1-oxidobutan
e-1,1-diyl)diphosphonato)-bis(\m~3~-hydroxo)-tetratetracontakis(\m~2~-oxo)-oct
a-aqua-hexadeca-oxo-nona-nickel-octadeca-tungsten 
bis(\m~12~-phosphato)-bis(\m~5~-(4-(bis(pyridin-2-ylmethyl)amino)-1-oxidobutan
e-1,1-diyl)diphosphonato)-bis(\m~3~-hydroxo)-tetratetracontakis(\m~2~-oxo)-oct
a-aqua-hexadeca-oxo-nona-nickel-octadeca-tungsten hydrate]
;
_cell_volume   8245.594
_exptl_crystal_colour 'colorless'
_exptl_crystal_density_diffrn 3.022
_exptl_special_details
;
The structure consists of two independent metal complexes; one with polymeric 
interactions, the second as an isolated unit
;
_exptl_crystal_description 'platelet'
_diffrn_ambient_temperature 200
_refine_special_details
;
The structure is disordered.

;
#These two values have been output from a single CSD field.
_refine_ls_R_factor_gt 0.0913
_refine_ls_wR_factor_gt 0.0913
_symmetry_cell_setting triclinic
_symmetry_space_group_name_H-M 'P -1'
_symmetry_Int_Tables_number 2
loop_
_symmetry_equiv_pos_site_id
_symmetry_equiv_pos_as_xyz
1 x,y,z
2 -x,-y,-z
_cell_length_a 18.2382(10)
_cell_length_b 20.1125(9)
_cell_length_c 23.3809(13)
_cell_angle_alpha 81.571(2)
_cell_angle_beta 88.151(2)
_cell_angle_gamma 76.390(2)
_cell_formula_units_Z 1
loop_
_atom_type_symbol
_atom_type_radius_bond
C 0.68
H 0.23
K 2.03
N 0.68
Na 1.66
Ni 1.24
O 0.68
P 1.05
W 1.62
loop_
_atom_site_label
_atom_site_type_symbol
_atom_site_fract_x
_atom_site_fract_y
_atom_site_fract_z
W1 W 0.89008(5) 0.41780(4) 0.61754(4)
W2 W 0.68945(6) 0.42104(4) 0.58937(5)
W3 W 0.80620(6) 0.48713(4) 0.47176(5)
W4 W 0.76279(7) 0.37499(4) 0.38547(5)
W5 W 0.94863(6) 0.37004(4) 0.41235(3)
W6 W 1.03173(5) 0.30261(3) 0.55442(3)
W7 W 0.92188(5) 0.24137(3) 0.66210(3)
W8 W 0.72509(5) 0.24428(4) 0.63557(4)
W9 W 0.64695(6) 0.31052(5) 0.50068(6)
Ni1 Ni 0.80340(15) 0.19540(11) 0.44412(11)
Ni2 Ni 0.97618(13) 0.18779(9) 0.46852(9)
Ni3 Ni 0.87495(13) 0.13037(10) 0.56788(9)
Ni4 Ni 1.00000 0.00000 0.50000
Ni5 Ni 0.94339(17) -0.16699(12) 0.21896(10)
P1 P 0.8410(2) 0.30238(18) 0.52520(17)
P2 P 0.9229(3) 0.0937(2) 0.38504(19)
P3 P 0.8232(3) 0.0390(2) 0.4786(2)
O1 O 0.8976(9) 0.4838(6) 0.6568(6)
O2 O 0.7874(8) 0.4172(5) 0.6234(5)
O3 O 0.9036(8) 0.3437(6) 0.6752(5)
O4 O 0.9900(7) 0.3887(5) 0.5896(5)
O5 O 0.8688(9) 0.4644(5) 0.5409(5)
O6 O 0.8997(7) 0.3095(5) 0.5706(5)
O7 O 0.6301(10) 0.4868(8) 0.6196(10)
O8 O 0.6285(9) 0.3943(7) 0.5447(7)
O9 O 0.6793(9) 0.3502(7) 0.6393(7)
O10 O 0.7273(8) 0.4702(5) 0.5113(8)
O11 O 0.7626(9) 0.3128(6) 0.5509(7)
O12 O 0.7848(10) 0.5768(6) 0.4617(7)
O13 O 0.7549(10) 0.4691(6) 0.4159(8)
O14 O 0.8964(8) 0.4672(5) 0.4308(6)
O15 O 0.8417(8) 0.3581(5) 0.4717(5)
O16 O 0.786(1) 0.2826(7) 0.3896(7)
O17 O 0.7177(13) 0.3990(8) 0.3232(9)
O18 O 0.6844(8) 0.3678(5) 0.4387(8)
O19 O 0.8696(10) 0.3827(7) 0.3631(7)
O20 O 1.0130(11) 0.3934(7) 0.3646(6)
O21 O 0.9681(7) 0.2785(5) 0.4161(5)
O22 O 0.9976(8) 0.3646(5) 0.4855(5)
O23 O 1.1289(8) 0.3022(6) 0.5550(7)
O24 O 1.0292(7) 0.2289(5) 0.5227(4)
O25 O 1.0152(8) 0.2592(5) 0.6300(5)
O26 O 0.9287(7) 0.1684(5) 0.6259(4)
O27 O 0.9580(7) 0.2017(5) 0.7323(4)
O28 O 0.8178(8) 0.2568(6) 0.6676(5)
O29 O 0.6816(8) 0.2067(7) 0.6922(8)
O30 O 0.7779(8) 0.1733(6) 0.6044(6)
O31 O 0.6425(8) 0.2611(6) 0.5813(7)
O32 O 0.5507(5) 0.3190(6) 0.4753(6)
O33 O 0.7026(8) 0.2335(8) 0.4755(7)
O34 O 0.8144(8) 0.1082(6) 0.5026(5)
O35 O 0.9093(7) 0.1580(5) 0.4133(5)
O36 O 0.8640(7) 0.2285(5) 0.5053(5)
O37 O 0.7730(9) 0.1323(6) 0.3866(6)
O38 O 1.0806(7) 0.1416(5) 0.4370(5)
O39 O 0.9725(7) 0.1001(5) 0.5256(4)
O40 O 0.8870(7) 0.0393(5) 0.6241(5)
O41 O 0.9869(7) 0.0376(5) 0.4133(4)
O42 O 0.8902(7) -0.0121(5) 0.5009(4)
O43 O 0.8995(8) -0.2406(6) 0.2698(6)
O44 O 0.9896(8) -0.2458(5) 0.1698(5)
O45 O 0.9315(8) 0.1089(6) 0.3195(5)
O46 O 0.7504(8) 0.0119(6) 0.4897(7)
C1 C 0.8334(9) 0.0648(8) 0.3993(8)
C2 C 0.8179(12) 0.0215(10) 0.3609(8)
H1 H 0.82170 0.04380 0.32070
H2 H 0.76550 0.01620 0.36720
C3 C 0.8725(11) -0.0508(9) 0.3692(8)
H3 H 0.86090 -0.07400 0.40760
H4 H 0.92370 -0.04290 0.37220
C4 C 0.8789(13) -0.1056(10) 0.3260(8)
H5 H 0.91630 -0.14800 0.34190
H6 H 0.82960 -0.11800 0.32500
N1 N 0.9019(10) -0.0831(8) 0.2629(7)
C5 C 0.9647(13) -0.0478(9) 0.2644(8)
H7 H 1.00340 -0.07470 0.29290
H8 H 0.94560 -0.00110 0.27530
C6 C 0.9994(13) -0.0427(9) 0.2015(10)
C7 C 1.0331(18) 0.0078(12) 0.1768(13)
H9 H 1.03620 0.04430 0.19760
C8 C 1.0639(15) 0.0065(12) 0.1199(9)
H10 H 1.08680 0.04170 0.10150
C9 C 1.0586(15) -0.0473(13) 0.0944(12)
H11 H 1.07630 -0.04850 0.05580
C10 C 1.0302(13) -0.0988(10) 0.1193(8)
H12 H 1.03210 -0.13780 0.10040
N2 N 0.9984(9) -0.0954(7) 0.1722(5)
C11 C 0.8372(15) -0.0316(13) 0.2282(11)
H13 H 0.85470 0.00840 0.20740
H14 H 0.79480 -0.01450 0.25390
C12 C 0.8126(18) -0.0748(12) 0.1844(11)
C13 C 0.7338(16) -0.0391(12) 0.1592(11)
H15 H 0.70430 0.00110 0.17260
C14 C 0.7094(16) -0.0667(12) 0.1185(9)
H16 H 0.66650 -0.04140 0.09630
C15 C 0.7427(15) -0.1277(14) 0.1080(12)
H17 H 0.72010 -0.15010 0.08280
C16 C 0.8118(18) -0.1604(11) 0.1337(10)
H18 H 0.83820 -0.20360 0.12340
N3 N 0.8430(9) -0.1308(6) 0.1745(7)
K1 K 1.00000 0.50000 0.50000
K2 K 0.7719(7) 0.3527(6) 0.7322(8)
O47 O 0.7662(14) 0.4789(9) 0.7406(9)
O48 O 0.8476(13) 0.3049(12) 0.8141(10)
Na1 Na 1.0414(9) 0.4685(7) 0.2713(6)
O49 O 1.0994(18) 0.5316(11) 0.1902(13)
W10 W 1.34632(5) 0.10887(3) 0.07969(3)
W11 W 1.25202(6) 0.17541(4) 0.21050(4)
W12 W 1.15099(5) 0.21584(4) 0.07046(5)
W13 W 1.11903(5) 0.39063(4) 0.08092(5)
W14 W 1.20670(5) 0.32904(4) -0.03997(4)
W15 W 1.39941(4) 0.22335(3) -0.02968(3)
W16 W 1.49482(5) 0.18518(3) 0.10044(3)
W17 W 1.40323(7) 0.25144(4) 0.22765(4)
W18 W 1.22134(6) 0.34992(4) 0.21879(4)
Ni6 Ni 1.28245(14) 0.45635(10) 0.09900(11)
Ni7 Ni 1.36160(13) 0.40272(9) -0.01291(10)
Ni8 Ni 1.45059(14) 0.36789(9) 0.10627(10)
Ni9 Ni 1.50000 0.50000 0.00000
Ni10 Ni 1.33580(15) 0.92277(10) 0.07724(10)
P4 P 1.3086(2) 0.29246(17) 0.09218(17)
P5 P 1.3217(3) 0.5643(2) 0.0032(2)
P6 P 1.4088(3) 0.5296(2) 0.1177(2)
O50 O 1.3478(8) 0.0222(5) 0.0830(6)
O51 O 1.2581(9) 0.1466(6) 0.0577(7)
O52 O 1.3727(7) 0.1329(5) 0.0032(5)
O53 O 1.4444(8) 0.1053(5) 0.1039(6)
O54 O 1.3206(7) 0.1232(5) 0.1601(5)
O55 O 1.3590(6) 0.2308(4) 0.0700(5)
O56 O 1.2256(10) 0.1100(6) 0.2571(6)
O57 O 1.2024(9) 0.2529(6) 0.2413(6)
O58 O 1.342(1) 0.1784(6) 0.2499(5)
O59 O 1.1784(5) 0.2007(6) 0.1555(4)
O60 O 1.2987(8) 0.2751(6) 0.1582(5)
O61 O 1.0863(8) 0.1674(6) 0.0660(8)
O62 O 1.1537(7) 0.2528(6) -0.0091(7)
O63 O 1.0862(9) 0.3000(6) 0.0835(9)
O64 O 1.2293(8) 0.3038(5) 0.0627(6)
O65 O 1.1506(7) 0.3587(5) 0.1559(7)
O66 O 1.0301(10) 0.4444(7) 0.0858(9)
O67 O 1.1791(7) 0.4490(5) 0.0779(7)
O68 O 1.1252(8) 0.3876(6) 0.0013(6)
O69 O 1.2618(7) 0.3890(6) -0.0393(6)
O70 O 1.1719(7) 0.3426(6) -0.1073(8)
O71 O 1.2909(10) 0.2568(7) -0.0392(7)
O72 O 1.4322(7) 0.2005(5) -0.0951(7)
O73 O 1.4096(6) 0.3073(5) -0.0314(5)
O74 O 1.4781(8) 0.1868(5) 0.0115(5)
O75 O 1.5928(6) 0.1414(7) 0.1164(6)
O76 O 1.4996(7) 0.2728(5) 0.0905(5)
O77 O 1.4502(9) 0.1914(6) 0.1750(6)
O78 O 1.4680(8) 0.2281(7) 0.2893(5)
O79 O 1.4314(8) 0.3228(5) 0.1874(5)
O80 O 1.3143(6) 0.3096(6) 0.2596(5)
O81 O 1.1708(10) 0.3891(7) 0.2755(7)
O82 O 1.2571(8) 0.4180(5) 0.1793(5)
O83 O 1.3049(7) 0.4923(5) 0.0165(5)
O84 O 1.2624(7) 0.5614(5) 0.1083(6)
O85 O 1.3895(7) 0.4589(5) 0.1258(5)
O86 O 1.3408(7) 0.3563(4) 0.0778(5)
O87 O 1.4591(6) 0.4105(5) 0.0224(4)
O88 O 1.3851(8) 0.4453(5) -0.0956(5)
O89 O 1.5572(8) 0.3800(6) 0.1264(6)
O90 O 1.4797(6) 0.5298(5) 0.0806(5)
O91 O 1.3965(7) 0.5642(5) -0.0267(5)
O92 O 1.4099(8) 0.9264(5) 0.0104(5)
O93 O 1.4299(8) 0.8847(6) 0.1335(6)
O94 O 1.2549(8) 0.6139(6) -0.0268(6)
O95 O 1.4133(8) 0.5552(5) 0.1745(5)
C17 C 1.3293(10) 0.5834(8) 0.0767(8)
C18 C 1.3154(11) 0.6638(8) 0.0808(9)
H19 H 1.30840 0.67010 0.12200
H20 H 1.26770 0.68800 0.06040
C19 C 1.3742(11) 0.6962(8) 0.0575(8)
H21 H 1.42340 0.66330 0.06680
H22 H 1.36910 0.70500 0.01490
C20 C 1.3753(10) 0.7657(8) 0.0796(8)
H23 H 1.42080 0.77990 0.06300
H24 H 1.38320 0.75490 0.12190
N4 N 1.3147(9) 0.8245(6) 0.0698(7)
C21 C 1.2449(11) 0.8199(7) 0.1082(8)
H25 H 1.24980 0.77150 0.12680
H26 H 1.19900 0.83310 0.08370
C22 C 1.2364(10) 0.8653(8) 0.1533(8)
C23 C 1.1933(9) 0.8480(9) 0.2052(8)
H27 H 1.17590 0.80660 0.21130
C24 C 1.1782(17) 0.8968(10) 0.2476(10)
H28 H 1.14700 0.89160 0.28050
C25 C 1.2158(17) 0.9542(10) 0.2343(10)
H29 H 1.21110 0.98620 0.26110
C26 C 1.2559(13) 0.9639(9) 0.1869(8)
H30 H 1.27860 1.00230 0.18070
N5 N 1.2653(9) 0.9195(6) 0.1464(5)
C27 C 1.2895(13) 0.8349(10) 0.0070(9)
H31 H 1.26320 0.79860 0.00110
H32 H 1.33420 0.83050 -0.01860
C28 C 1.2374(13) 0.9049(11) -0.0089(8)
C29 C 1.1837(15) 0.9176(9) -0.0486(10)
H33 H 1.17630 0.88150 -0.06830
C30 C 1.1401(14) 0.9813(12) -0.0609(9)
H34 H 1.10430 0.98900 -0.09120
C31 C 1.1426(17) 1.0322(13) -0.0355(10)
H35 H 1.10840 1.07590 -0.04500
C32 C 1.1964(16) 1.0217(10) 0.0062(9)
H36 H 1.19970 1.05890 0.02600
N6 N 1.2494(10) 0.9541(6) 0.0214(6)
K3 K 1.1529(3) 0.5310(3) -0.0337(3)
O96 O 1.0742(12) 0.6650(12) -0.0769(13)
O97 O 1.0204(14) 0.5853(11) 0.0561(14)
Na2 Na 1.4272(9) 0.0892(7) 0.2081(6)
O98 O 1.5166(18) -0.0273(11) 0.1670(13)
O99 O 0.8957(5) 0.2138(4) 0.0005(4)
O100 O 0.6655(6) 0.1190(5) 0.5494(5)
O101 O 0.0655(8) 0.2742(5) 0.3075(5)
O102 O 0.9181(8) 0.2525(6) 0.3015(6)
O103 O 0.6114(8) 0.5588(5) 0.7448(5)
O104 O 0.7306(9) 0.5626(8) 0.6628(7)
O105 O 0.7618(13) 0.9754(11) 0.6189(9)
O106 O 0.8687(17) 0.3564(11) 0.9200(11)
O107 O 0.6673(12) 0.9126(12) 0.3282(13)
O108 O 0.0773(15) 0.1338(11) 0.3180(9)
O109 O 0.5712(12) 0.2183(12) 0.7791(9)
O110 O 0.7673(13) 0.6776(9) 0.3766(10)
O111 O 0.8505(17) 0.1339(12) 0.2201(9)
O112 O 0.5460(13) 0.9649(10) 0.0578(13)
O113 O 0.3529(12) 0.7515(11) 0.8453(12)
O114 O 0.957(2) 0.781(2) 0.0575(11)
O115 O 0.8284(14) 0.6235(10) 0.5769(9)
O116 O 0.608(2) 0.6566(14) 0.1684(12)
O117 O 0.781(2) 0.2676(14) 0.0991(13)
O118 O 0.7448(14) 0.7779(17) 0.2867(11)
O119? O 0.9980(13) 0.4989(11) 0.2652(9)
W1A W 1.10992(5) -0.41780(4) 0.38246(4)
W2A W 1.31055(6) -0.42104(4) 0.41063(5)
W3A W 1.19380(6) -0.48713(4) 0.52824(5)
W4A W 1.23721(7) -0.37499(4) 0.61453(5)
W5A W 1.05137(6) -0.37004(4) 0.58765(3)
W6A W 0.96827(5) -0.30261(3) 0.44558(3)
W7A W 1.07812(5) -0.24137(3) 0.33790(3)
W8A W 1.27491(5) -0.24428(4) 0.36443(4)
W9A W 1.35305(6) -0.31052(5) 0.49932(6)
Ni1A Ni 1.19660(15) -0.19540(11) 0.55588(11)
Ni2A Ni 1.02382(13) -0.18779(9) 0.53148(9)
Ni3A Ni 1.12505(13) -0.13037(10) 0.43212(9)
Ni5A Ni 1.05661(17) 0.16699(12) 0.78104(10)
P1A P 1.1590(2) -0.30238(18) 0.47480(17)
P2A P 1.0771(3) -0.0937(2) 0.61496(19)
P3A P 1.1768(3) -0.0390(2) 0.5214(2)
O1A O 1.1024(9) -0.4838(6) 0.3432(6)
O2A O 1.2126(8) -0.4172(5) 0.3766(5)
O3A O 1.0964(8) -0.3437(6) 0.3248(5)
O4A O 1.0100(7) -0.3887(5) 0.4104(5)
O5A O 1.1312(9) -0.4644(5) 0.4591(5)
O6A O 1.1003(7) -0.3095(5) 0.4294(5)
O7A O 1.3699(10) -0.4868(8) 0.3804(10)
O8A O 1.3715(9) -0.3943(7) 0.4553(7)
O9A O 1.3207(9) -0.3502(7) 0.3607(7)
O10A O 1.2727(8) -0.4702(5) 0.4887(8)
O11A O 1.2374(9) -0.3128(6) 0.4491(7)
O12A O 1.2152(10) -0.5768(6) 0.5383(7)
O13A O 1.2451(10) -0.4691(6) 0.5841(8)
O14A O 1.1036(8) -0.4672(5) 0.5692(6)
O15A O 1.1583(8) -0.3581(5) 0.5283(5)
O16A O 1.214(1) -0.2826(7) 0.6104(7)
O17A O 1.2823(13) -0.3990(8) 0.6768(9)
O18A O 1.3156(8) -0.3678(5) 0.5613(8)
O19A O 1.1304(10) -0.3827(7) 0.6369(7)
O20A O 0.9870(11) -0.3934(7) 0.6354(6)
O21A O 1.0319(7) -0.2785(5) 0.5839(5)
O22A O 1.0024(8) -0.3646(5) 0.5145(5)
O23A O 0.8711(8) -0.3022(6) 0.4450(7)
O24A O 0.9708(7) -0.2289(5) 0.4773(4)
O25A O 0.9848(8) -0.2592(5) 0.3700(5)
O26A O 1.0713(7) -0.1684(5) 0.3741(4)
O27A O 1.0420(7) -0.2017(5) 0.2677(4)
O28A O 1.1822(8) -0.2568(6) 0.3324(5)
O29A O 1.3184(8) -0.2067(7) 0.3078(8)
O30A O 1.2221(8) -0.1733(6) 0.3956(6)
O31A O 1.3575(8) -0.2611(6) 0.4187(7)
O32A O 1.4493(5) -0.3190(6) 0.5247(6)
O33A O 1.2974(8) -0.2335(8) 0.5245(7)
O34A O 1.1856(8) -0.1082(6) 0.4974(5)
O35A O 1.0907(7) -0.1580(5) 0.5867(5)
O36A O 1.1360(7) -0.2285(5) 0.4947(5)
O37A O 1.2270(9) -0.1323(6) 0.6134(6)
O38A O 0.9194(7) -0.1416(5) 0.5630(5)
O39A O 1.0275(7) -0.1001(5) 0.4744(4)
O40A O 1.1130(7) -0.0393(5) 0.3759(5)
O41A O 1.0131(7) -0.0376(5) 0.5867(4)
O42A O 1.1098(7) 0.0121(5) 0.4991(4)
O43A O 1.1005(8) 0.2406(6) 0.7302(6)
O44A O 1.0104(8) 0.2458(5) 0.8302(5)
O45A O 1.0685(8) -0.1089(6) 0.6805(5)
O46A O 1.2496(8) -0.0119(6) 0.5103(7)
C1A C 1.1666(9) -0.0648(8) 0.6007(8)
C2A C 1.1821(12) -0.0215(10) 0.6391(8)
H1A H 1.17830 -0.04380 0.67930
H2A H 1.23450 -0.01620 0.63280
C3A C 1.1275(11) 0.0508(9) 0.6308(8)
H3A H 1.13910 0.07400 0.59240
H4A H 1.07630 0.04290 0.62780
C4A C 1.1211(13) 0.1056(10) 0.6740(8)
H5A H 1.08370 0.14800 0.65810
H6A H 1.17040 0.11800 0.67500
N1A N 1.0981(10) 0.0831(8) 0.7371(7)
C5A C 1.0353(13) 0.0478(9) 0.7356(8)
H7A H 0.99660 0.07470 0.70710
H8A H 1.05440 0.00110 0.72470
C6A C 1.0006(13) 0.0427(9) 0.7985(10)
C7A C 0.9669(18) -0.0078(12) 0.8232(13)
H9A H 0.96380 -0.04430 0.80240
C8A C 0.9361(15) -0.0065(12) 0.8801(9)
H10A H 0.91320 -0.04170 0.89850
C9A C 0.9414(15) 0.0473(13) 0.9056(12)
H11A H 0.92370 0.04850 0.94420
C10A C 0.9698(13) 0.0988(10) 0.8807(8)
H12A H 0.96790 0.13780 0.89960
N2A N 1.0016(9) 0.0954(7) 0.8278(5)
C11A C 1.1628(15) 0.0316(13) 0.7718(11)
H13A H 1.14530 -0.00840 0.79260
H14A H 1.20520 0.01450 0.74610
C12A C 1.1874(18) 0.0748(12) 0.8156(11)
C13A C 1.2662(16) 0.0391(12) 0.8408(11)
H15A H 1.29570 -0.00110 0.82740
C14A C 1.2906(16) 0.0667(12) 0.8815(9)
H16A H 1.33350 0.04140 0.90370
C15A C 1.2573(15) 0.1277(14) 0.8920(12)
H17A H 1.27990 0.15010 0.91720
C16A C 1.1882(18) 0.1604(11) 0.8663(10)
H18A H 1.16180 0.20360 0.87660
N3A N 1.1570(9) 0.1308(6) 0.8255(7)
W10A W 1.65368(5) 0.89113(3) -0.07969(3)
W11A W 1.74798(6) 0.82459(4) -0.21050(4)
W12A W 1.84901(5) 0.78416(4) -0.07046(5)
W13A W 1.88097(5) 0.60937(4) -0.08092(5)
W14A W 1.79330(5) 0.67096(4) 0.03997(4)
W15A W 1.60059(4) 0.77665(3) 0.02968(3)
W16A W 1.50518(5) 0.81482(3) -0.10044(3)
W17A W 1.59677(7) 0.74856(4) -0.22765(4)
W18A W 1.77866(6) 0.65008(4) -0.21879(4)
Ni6A Ni 1.71755(14) 0.54365(10) -0.09900(11)
Ni7A Ni 1.63840(13) 0.59728(9) 0.01291(10)
Ni8A Ni 1.54941(14) 0.63211(9) -0.10627(10)
Ni10A Ni 1.66420(15) 0.07723(10) -0.07724(10)
P4A P 1.6914(2) 0.70754(17) -0.09218(17)
P5A P 1.6783(3) 0.4357(2) -0.0032(2)
P6A P 1.5912(3) 0.4704(2) -0.1177(2)
O50A O 1.6522(8) 0.9778(5) -0.0830(6)
O51A O 1.7419(9) 0.8534(6) -0.0577(7)
O52A O 1.6273(7) 0.8671(5) -0.0032(5)
O53A O 1.5556(8) 0.8947(5) -0.1039(6)
O54A O 1.6794(7) 0.8768(5) -0.1601(5)
O55A O 1.6410(6) 0.7692(4) -0.0700(5)
O56A O 1.7744(10) 0.8900(6) -0.2571(6)
O57A O 1.7976(9) 0.7471(6) -0.2413(6)
O58A O 1.658(1) 0.8216(6) -0.2499(5)
O59A O 1.8216(5) 0.7993(6) -0.1555(4)
O60A O 1.7013(8) 0.7249(6) -0.1582(5)
O61A O 1.9137(8) 0.8326(6) -0.0660(8)
O62A O 1.8463(7) 0.7472(6) 0.0091(7)
O63A O 1.9138(9) 0.7000(6) -0.0835(9)
O64A O 1.7707(8) 0.6962(5) -0.0627(6)
O65A O 1.8494(7) 0.6413(5) -0.1559(7)
O66A O 1.9699(10) 0.5556(7) -0.0858(9)
O67A O 1.8209(7) 0.5510(5) -0.0779(7)
O68A O 1.8748(8) 0.6124(6) -0.0013(6)
O69A O 1.7382(7) 0.6110(6) 0.0393(6)
O70A O 1.8281(7) 0.6574(6) 0.1073(8)
O71A O 1.7091(10) 0.7432(7) 0.0392(7)
O72A O 1.5678(7) 0.7995(5) 0.0951(7)
O73A O 1.5904(6) 0.6927(5) 0.0314(5)
O74A O 1.5219(8) 0.8132(5) -0.0115(5)
O75A O 1.4072(6) 0.8586(7) -0.1164(6)
O76A O 1.5004(7) 0.7272(5) -0.0905(5)
O77A O 1.5498(9) 0.8086(6) -0.1750(6)
O78A O 1.5320(8) 0.7719(7) -0.2893(5)
O79A O 1.5686(8) 0.6772(5) -0.1874(5)
O80A O 1.6857(6) 0.6904(6) -0.2596(5)
O81A O 1.8292(10) 0.6109(7) -0.2755(7)
O82A O 1.7429(8) 0.5820(5) -0.1793(5)
O83A O 1.6951(7) 0.5077(5) -0.0165(5)
O84A O 1.7376(7) 0.4386(5) -0.1083(6)
O85A O 1.6105(7) 0.5411(5) -0.1258(5)
O86A O 1.6592(7) 0.6437(4) -0.0778(5)
O87A O 1.5409(6) 0.5895(5) -0.0224(4)
O88A O 1.6149(8) 0.5547(5) 0.0956(5)
O89A O 1.4428(8) 0.6200(6) -0.1264(6)
O90A O 1.5203(6) 0.4702(5) -0.0806(5)
O91A O 1.6035(7) 0.4358(5) 0.0267(5)
O92A O 1.5901(8) 0.0736(5) -0.0104(5)
O93A O 1.5701(8) 0.1153(6) -0.1335(6)
O94A O 1.7451(8) 0.3861(6) 0.0268(6)
O95A O 1.5867(8) 0.4448(5) -0.1745(5)
C17A C 1.6707(10) 0.4166(8) -0.0767(8)
C18A C 1.6846(11) 0.3362(8) -0.0808(9)
H19A H 1.69160 0.32990 -0.12200
H20A H 1.73230 0.31200 -0.06040
C19A C 1.6258(11) 0.3038(8) -0.0575(8)
H21A H 1.57660 0.33670 -0.06680
H22A H 1.63090 0.29500 -0.01490
C20A C 1.6247(10) 0.2343(8) -0.0796(8)
H23A H 1.57920 0.22010 -0.06300
H24A H 1.61680 0.24510 -0.12190
N4A N 1.6853(9) 0.1755(6) -0.0698(7)
C21A C 1.7551(11) 0.1801(7) -0.1082(8)
H25A H 1.75020 0.22850 -0.12680
H26A H 1.80100 0.16690 -0.08370
C22A C 1.7636(10) 0.1347(8) -0.1533(8)
C23A C 1.8067(9) 0.1520(9) -0.2052(8)
H27A H 1.82410 0.19340 -0.21130
C24A C 1.8218(17) 0.1032(10) -0.2476(10)
H28A H 1.85300 0.10840 -0.28050
C25A C 1.7842(17) 0.0458(10) -0.2343(10)
H29A H 1.78890 0.01380 -0.26110
C26A C 1.7441(13) 0.0361(9) -0.1869(8)
H30A H 1.72140 -0.00230 -0.18070
N5A N 1.7347(9) 0.0805(6) -0.1464(5)
C27A C 1.7105(13) 0.1651(10) -0.0070(9)
H31A H 1.73680 0.20140 -0.00110
H32A H 1.66580 0.16950 0.01860
C28A C 1.7626(13) 0.0951(11) 0.0089(8)
C29A C 1.8163(15) 0.0824(9) 0.0486(10)
H33A H 1.82370 0.11850 0.06830
C30A C 1.8599(14) 0.0187(12) 0.0609(9)
H34A H 1.89570 0.01100 0.09120
C31A C 1.8574(17) -0.0322(13) 0.0355(10)
H35A H 1.89160 -0.07590 0.04500
C32A C 1.8036(16) -0.0217(10) -0.0062(9)
H36A H 1.80030 -0.05890 -0.02600
N6A N 1.7506(10) 0.0459(6) -0.0214(6)
Ni10* Ni 1.33580(15) -0.07723(10) 0.07724(10)
Ni10A* Ni 1.66420(15) 1.07723(10) -0.07724(10)
O50* O 1.3478(8) 1.0222(5) 0.0830(6)
O50A* O 1.6522(8) -0.0222(5) -0.0830(6)
#END
