
#######################################################################
#
#                 Cambridge Crystallographic Data Centre
#                                CCDC
#
#######################################################################
#
# If this CIF has been generated from an entry in the Cambridge
# Structural Database, then it will include bibliographic, chemical,
# crystal, experimental, refinement or atomic coordinate data resulting
# from the CCDC's data processing and validation procedures.
#
#######################################################################

data_CSD_CIF_SIDCAL
_audit_creation_date 2013-07-25
_audit_creation_method CSD-ConQuest-V1
_database_code_CSD SIDCAL
_database_code_depnum_ccdc_archive 'CCDC 917908'
_chemical_formula_sum 'C116 H156 Cd6 N8 O36'
_chemical_formula_moiety
;
(C96 H96 Cd6 O32 4-)n,4n(C3 H7 N1 O1),4n(C2 H8 N1 1+)
;
_journal_coden_Cambridge 1350
_journal_volume 15
_journal_year 2013
_journal_page_first 9465
_journal_name_full 'CrystEngComm '
loop_
_publ_author_name
"A.K.Chaudhari"
"S.Mukherjee"
"S.S.Nagarkar"
"B.Joarder"
"S.K.Ghosh"
_chemical_name_systematic
;
catena-[tetrakis(dimethylammonium) 
tetrakis(\m~4~-5-t-Butylisophthalato)-tetrakis(\m~3~-5-t-butylisophthalato)-he
xa-cadmium(ii) N,N-dimethylformamide solvate]
;
_cell_volume   3753.139
_exptl_crystal_density_diffrn 1.289
_diffrn_ambient_temperature 200
_refine_special_details
;
Disordered solvent molecules were not modelled and the disordered density was 
taken into account using the SQUEEZE/PLATON procedure.
;
#These two values have been output from a single CSD field.
_refine_ls_R_factor_gt 0.0993
_refine_ls_wR_factor_gt 0.0993
_symmetry_cell_setting triclinic
_symmetry_space_group_name_H-M 'P -1'
_symmetry_Int_Tables_number 2
loop_
_symmetry_equiv_pos_site_id
_symmetry_equiv_pos_as_xyz
1 x,y,z
2 -x,-y,-z
_cell_length_a 9.8523(7)
_cell_length_b 19.5244(15)
_cell_length_c 19.6699(15)
_cell_angle_alpha 89.715(2)
_cell_angle_beta 83.058(2)
_cell_angle_gamma 87.776(2)
_cell_formula_units_Z 1
loop_
_atom_type_symbol
_atom_type_radius_bond
C 0.68
H 0.23
Cd 1.44
N 0.68
O 0.68
loop_
_atom_site_label
_atom_site_type_symbol
_atom_site_fract_x
_atom_site_fract_y
_atom_site_fract_z
Cd1 Cd 0.99924(7) 0.15416(4) 0.07684(4)
Cd2 Cd 1.06366(7) 0.57392(4) 0.34431(4)
Cd3 Cd 1.00000 0.00000 0.00000
Cd4 Cd 1.00000 0.50000 0.50000
C1 C 0.9839(12) 0.2223(6) 0.1960(6)
C2 C 0.9857(11) 0.2587(5) 0.2638(5)
C3 C 1.0055(11) 0.3293(5) 0.2663(5)
H1 H 1.01590 0.35530 0.22630
C4 C 1.0094(10) 0.3599(5) 0.3299(5)
C5 C 0.9971(11) 0.3201(5) 0.3902(5)
H2 H 1.00010 0.34110 0.43240
C6 C 0.9807(13) 0.2508(6) 0.3874(6)
C7 C 0.9707(13) 0.2204(6) 0.3237(6)
H3 H 0.95380 0.17400 0.32160
C8 C 1.0334(10) 0.4344(5) 0.3326(6)
C9 C 0.9744(18) 0.2076(6) 0.4524(6)
C10 C 0.984(2) 0.1321(7) 0.4426(10)
H4 H 1.06640 0.11970 0.41340
H5 H 0.90630 0.11790 0.42180
H6 H 0.98510 0.10990 0.48620
C11 C 1.092(2) 0.2221(14) 0.4916(13)
H7 H 1.09180 0.27030 0.50120
H8 H 1.17660 0.20840 0.46480
H9 H 1.08290 0.19700 0.53390
C12 C 0.846(2) 0.2274(13) 0.4970(13)
H10 H 0.84070 0.27630 0.50300
H11 H 0.84670 0.20550 0.54080
H12 H 0.76890 0.21330 0.47600
C13 C 0.7524(10) 0.0847(6) 0.0837(5)
C14 C 0.6261(9) 0.0448(6) 0.0894(5)
C15 C 0.5000(11) 0.0733(5) 0.0789(5)
H13 H 0.49210 0.11950 0.06760
C16 C 0.3872(10) 0.0348(6) 0.0849(5)
C17 C 0.4013(12) -0.0341(6) 0.1035(6)
H14 H 0.32410 -0.06050 0.10620
C18 C 0.5207(10) -0.0651(6) 0.1179(6)
C19 C 0.6375(10) -0.0251(6) 0.1082(5)
H15 H 0.72270 -0.04480 0.11410
C20 C 0.2488(12) 0.0628(6) 0.0736(5)
C21 C 0.407(2) -0.1679(13) 0.1703(12)
H16 H 0.33530 -0.15600 0.14280
H17 H 0.38390 -0.14890 0.21540
H18 H 0.41700 -0.21680 0.17340
C22 C 0.558(3) -0.1809(12) 0.0719(10)
H19 H 0.64160 -0.16730 0.04600
H20 H 0.48310 -0.17170 0.04580
H21 H 0.56450 -0.22900 0.08180
C23 C 0.668(2) -0.1667(13) 0.1583(13)
H22 H 0.74110 -0.14920 0.12680
H23 H 0.67250 -0.21590 0.15650
H24 H 0.67830 -0.15200 0.20380
C24 C 0.7948(11) 0.5827(5) 0.4120(6)
C25 C 0.6571(11) 0.5891(5) 0.4534(6)
C26 C 0.5405(10) 0.5777(5) 0.4240(6)
H25 H 0.54700 0.56580 0.37800
C27 C 0.4121(11) 0.5838(5) 0.4628(6)
C28 C 0.4048(12) 0.6040(6) 0.5324(6)
H26 H 0.31970 0.60740 0.55860
C29 C 0.5186(11) 0.6185(6) 0.5621(6)
C30 C 0.6511(12) 0.6080(6) 0.5214(6)
H27 H 0.73120 0.61410 0.54090
C31 C 0.2802(12) 0.5712(6) 0.4355(6)
C32 C 0.502(2) 0.6414(9) 0.6379(9)
C33 C 0.633(2) 0.6446(14) 0.6684(14)
H28 H 0.69320 0.60710 0.65150
H29 H 0.61450 0.64160 0.71740
H30 H 0.67490 0.68710 0.65600
C34 C 0.422(2) 0.5864(12) 0.6773(14)
H31 H 0.34150 0.57810 0.65630
H32 H 0.39680 0.60120 0.72370
H33 H 0.47810 0.54490 0.67700
C35 C 0.400(2) 0.6994(12) 0.6513(15)
H34 H 0.31460 0.68690 0.63740
H35 H 0.43250 0.73890 0.62580
H36 H 0.38820 0.71000 0.69930
C36 C 1.0668(11) 0.6934(6) 0.2740(5)
C37 C 1.0486(11) 0.7595(5) 0.2381(5)
C38 C 1.0341(14) 0.8196(6) 0.2757(6)
H37 H 1.03080 0.81650 0.32300
C39 C 1.0242(11) 0.8851(5) 0.2464(5)
C40 C 1.0425(10) 0.7642(5) 0.1680(5)
H38 H 1.05080 0.72480 0.14110
C41 C 1.0241(10) 0.8270(5) 0.1388(5)
C42 C 1.0161(11) 0.8859(5) 0.1750(5)
H39 H 1.00520 0.92750 0.15270
C43 C 1.0076(10) 0.8323(5) 0.0625(5)
C44 C 1.0111(15) 0.9501(6) 0.2884(7)
C45 C 1.119(2) 1.0002(11) 0.2593(12)
H40 H 1.11600 1.00500 0.21090
H41 H 1.20770 0.98290 0.26760
H42 H 1.09980 1.04400 0.28100
C46 C 0.889(3) 0.9935(14) 0.2779(15)
H43 H 0.88490 0.99950 0.22970
H44 H 0.89490 1.03740 0.29890
H45 H 0.80830 0.97180 0.29820
C47 C 1.012(3) 0.9443(10) 0.3601(9)
H46 H 1.09190 0.91820 0.36950
H47 H 0.93150 0.92160 0.37960
H48 H 1.01210 0.98920 0.37970
O1 O 0.9721(13) 0.1602(4) 0.1965(4)
O2 O 0.9970(9) 0.2564(4) 0.1411(4)
O3 O 1.0480(9) 0.4584(4) 0.3923(4)
O4 O 1.0455(8) 0.4713(4) 0.2812(4)
O5 O 0.7391(8) 0.1494(4) 0.0747(4)
O6 O 0.8691(7) 0.0544(4) 0.0885(4)
O7 O 0.1616(8) 0.0194(5) 0.0649(4)
O8 O 0.2247(9) 0.1272(5) 0.0728(4)
O9 O 0.7985(7) 0.5773(4) 0.3498(4)
O10 O 0.9007(7) 0.5864(4) 0.4436(4)
O11 O 0.1798(7) 0.5655(4) 0.4785(5)
O12 O 0.2761(8) 0.5696(4) 0.3704(5)
O13 O 1.0599(8) 0.6370(4) 0.2409(4)
O14 O 1.0739(11) 0.6935(4) 0.3368(4)
O15 O 1.0217(8) 0.7790(4) 0.0257(4)
O16 O 0.9826(8) 0.8907(4) 0.0377(4)
C48 C 0.5342(19) -0.1404(7) 0.1391(8)
C49 C 0.803(3) 0.6222(18) 0.1316(14)
H49 H 0.81880 0.67040 0.13220
H50 H 0.71290 0.61540 0.11930
H51 H 0.86980 0.59990 0.09860
N1 N 0.814(2) 0.5927(13) 0.2006(10)
H52 H 0.89770 0.59970 0.21240
H53 H 0.75190 0.61400 0.23160
C50 C 0.790(3) 0.5182(12) 0.2014(11)
H54 H 0.79580 0.50030 0.24660
H55 H 0.85780 0.49520 0.16940
H56 H 0.70060 0.51070 0.18870
C51 C 0.681(4) 0.2998(18) 0.0138(19)
H57 H 0.67970 0.25370 -0.00290
H58 H 0.73190 0.32740 -0.02020
H59 H 0.58950 0.31840 0.02330
C52 C 0.731(5) 0.3702(16) 0.106(3)
H60 H 0.76720 0.37120 0.14890
H61 H 0.63580 0.38370 0.11220
H62 H 0.77970 0.40120 0.07440
N2 N 0.748(4) 0.2994(17) 0.077(2)
H63 H 0.83740 0.28730 0.06800
H64 H 0.70840 0.26940 0.10760
C53 C 0.498(3) 0.6923(12) 0.2971(13)
H65 H 0.40560 0.68340 0.30070
C54 C 0.702(3) 0.7535(19) 0.342(2)
H66 H 0.70620 0.78160 0.38180
H67 H 0.73150 0.77890 0.30160
H68 H 0.76080 0.71340 0.34470
C55 C 0.475(5) 0.7650(18) 0.3980(16)
H69 H 0.52990 0.79120 0.42450
H70 H 0.43090 0.73010 0.42630
H71 H 0.40650 0.79470 0.38100
N3 N 0.561(2) 0.7330(9) 0.3404(11)
O17 O 0.586(3) 0.6707(13) 0.2540(14)
C56 C 0.531(5) 0.104(2) 0.267(2)
H72 H 0.45500 0.07890 0.28810
H73 H 0.58380 0.11910 0.30170
H74 H 0.58800 0.07420 0.23560
C57 C 0.332(3) 0.168(2) 0.2341(19)
H75 H 0.29300 0.12990 0.25950
H76 H 0.30550 0.16790 0.18870
H77 H 0.29870 0.21010 0.25670
C58 C 0.556(3) 0.2117(13) 0.1935(11)
H78 H 0.65060 0.20870 0.19090
N4 N 0.482(3) 0.1627(14) 0.2303(10)
O18 O 0.504(3) 0.2580(15) 0.1648(16)
Cd1A Cd 0.00076(7) -0.15416(4) -0.07684(4)
Cd2A Cd -0.06366(7) -0.57392(4) -0.34431(4)
C1A C 0.0161(12) -0.2223(6) -0.1960(6)
C2A C 0.0143(11) -0.2587(5) -0.2638(5)
C3A C -0.0055(11) -0.3293(5) -0.2663(5)
H1A H -0.01590 -0.35530 -0.22630
C4A C -0.0094(10) -0.3599(5) -0.3299(5)
C5A C 0.0029(11) -0.3201(5) -0.3902(5)
H2A H -0.00010 -0.34110 -0.43240
C6A C 0.0193(13) -0.2508(6) -0.3874(6)
C7A C 0.0293(13) -0.2204(6) -0.3237(6)
H3A H 0.04620 -0.17400 -0.32160
C8A C -0.0334(10) -0.4344(5) -0.3326(6)
C9A C 0.0256(18) -0.2076(6) -0.4524(6)
C10A C 0.016(2) -0.1321(7) -0.4426(10)
H4A H -0.06640 -0.11970 -0.41340
H5A H 0.09370 -0.11790 -0.42180
H6A H 0.01490 -0.10990 -0.48620
C11A C -0.092(2) -0.2221(14) -0.4916(13)
H7A H -0.09180 -0.27030 -0.50120
H8A H -0.17660 -0.20840 -0.46480
H9A H -0.08290 -0.19700 -0.53390
C12A C 0.154(2) -0.2274(13) -0.4970(13)
H10A H 0.15930 -0.27630 -0.50300
H11A H 0.15330 -0.20550 -0.54080
H12A H 0.23110 -0.21330 -0.47600
C13A C 0.2476(10) -0.0847(6) -0.0837(5)
C14A C 0.3739(9) -0.0448(6) -0.0894(5)
C15A C 0.5000(11) -0.0733(5) -0.0789(5)
H13A H 0.50790 -0.11950 -0.06760
C16A C 0.6128(10) -0.0348(6) -0.0849(5)
C17A C 0.5987(12) 0.0341(6) -0.1035(6)
H14A H 0.67590 0.06050 -0.10620
C18A C 0.4793(10) 0.0651(6) -0.1179(6)
C19A C 0.3625(10) 0.0251(6) -0.1082(5)
H15A H 0.27730 0.04480 -0.11410
C20A C 0.7512(12) -0.0628(6) -0.0736(5)
C21A C 0.593(2) 0.1679(13) -0.1703(12)
H16A H 0.66470 0.15600 -0.14280
H17A H 0.61610 0.14890 -0.21540
H18A H 0.58300 0.21680 -0.17340
C22A C 0.442(3) 0.1809(12) -0.0719(10)
H19A H 0.35840 0.16730 -0.04600
H20A H 0.51690 0.17170 -0.04580
H21A H 0.43550 0.22900 -0.08180
C23A C 0.332(2) 0.1667(13) -0.1583(13)
H22A H 0.25890 0.14920 -0.12680
H23A H 0.32750 0.21590 -0.15650
H24A H 0.32170 0.15200 -0.20380
C24A C 0.2052(11) -0.5827(5) -0.4120(6)
C25A C 0.3429(11) -0.5891(5) -0.4534(6)
C26A C 0.4595(10) -0.5777(5) -0.4240(6)
H25A H 0.45300 -0.56580 -0.37800
C27A C 0.5879(11) -0.5838(5) -0.4628(6)
C28A C 0.5952(12) -0.6040(6) -0.5324(6)
H26A H 0.68030 -0.60740 -0.55860
C29A C 0.4814(11) -0.6185(6) -0.5621(6)
C30A C 0.3489(12) -0.6080(6) -0.5214(6)
H27A H 0.26880 -0.61410 -0.54090
C31A C 0.7198(12) -0.5712(6) -0.4355(6)
C32A C 0.498(2) -0.6414(9) -0.6379(9)
C33A C 0.367(2) -0.6446(14) -0.6684(14)
H28A H 0.30680 -0.60710 -0.65150
H29A H 0.38550 -0.64160 -0.71740
H30A H 0.32510 -0.68710 -0.65600
C34A C 0.578(2) -0.5864(12) -0.6773(14)
H31A H 0.65850 -0.57810 -0.65630
H32A H 0.60320 -0.60120 -0.72370
H33A H 0.52190 -0.54490 -0.67700
C35A C 0.600(2) -0.6994(12) -0.6513(15)
H34A H 0.68540 -0.68690 -0.63740
H35A H 0.56750 -0.73890 -0.62580
H36A H 0.61180 -0.71000 -0.69930
C36A C -0.0668(11) -0.6934(6) -0.2740(5)
C37A C -0.0486(11) -0.7595(5) -0.2381(5)
C38A C -0.0341(14) -0.8196(6) -0.2757(6)
H37A H -0.03080 -0.81650 -0.32300
C39A C -0.0242(11) -0.8851(5) -0.2464(5)
C40A C -0.0425(10) -0.7642(5) -0.1680(5)
H38A H -0.05080 -0.72480 -0.14110
C41A C -0.0241(10) -0.8270(5) -0.1388(5)
C42A C -0.0161(11) -0.8859(5) -0.1750(5)
H39A H -0.00520 -0.92750 -0.15270
C43A C -0.0076(10) -0.8323(5) -0.0625(5)
C44A C -0.0111(15) -0.9501(6) -0.2884(7)
C45A C -0.119(2) -1.0002(11) -0.2593(12)
H40A H -0.11600 -1.00500 -0.21090
H41A H -0.20770 -0.98290 -0.26760
H42A H -0.09980 -1.04400 -0.28100
C46A C 0.111(3) -0.9935(14) -0.2779(15)
H43A H 0.11510 -0.99950 -0.22970
H44A H 0.10510 -1.03740 -0.29890
H45A H 0.19170 -0.97180 -0.29820
C47A C -0.012(3) -0.9443(10) -0.3601(9)
H46A H -0.09190 -0.91820 -0.36950
H47A H 0.06850 -0.92160 -0.37960
H48A H -0.01210 -0.98920 -0.37970
O1A O 0.0279(13) -0.1602(4) -0.1965(4)
O2A O 0.0030(9) -0.2564(4) -0.1411(4)
O3A O -0.0480(9) -0.4584(4) -0.3923(4)
O4A O -0.0455(8) -0.4713(4) -0.2812(4)
O5A O 0.2609(8) -0.1494(4) -0.0747(4)
O6A O 0.1309(7) -0.0544(4) -0.0885(4)
O7A O 0.8384(8) -0.0194(5) -0.0649(4)
O8A O 0.7753(9) -0.1272(5) -0.0728(4)
O9A O 0.2015(7) -0.5773(4) -0.3498(4)
O10A O 0.0993(7) -0.5864(4) -0.4436(4)
O11A O 0.8202(7) -0.5655(4) -0.4785(5)
O12A O 0.7239(8) -0.5696(4) -0.3704(5)
O13A O -0.0599(8) -0.6370(4) -0.2409(4)
O14A O -0.0739(11) -0.6935(4) -0.3368(4)
O15A O -0.0217(8) -0.7790(4) -0.0257(4)
O16A O 0.0174(8) -0.8907(4) -0.0377(4)
C48A C 0.4658(19) 0.1404(7) -0.1391(8)
Cd1* Cd -0.00076(7) -0.84584(4) 0.07684(4)
Cd1** Cd -0.00076(7) 0.15416(4) 0.07684(4)
Cd1A* Cd 1.00076(7) -0.15416(4) -0.07684(4)
Cd1A** Cd 1.00076(7) 0.84584(4) -0.07684(4)
Cd2* Cd 0.06366(7) 0.57392(4) 0.34431(4)
Cd2A* Cd 0.93634(7) -0.57392(4) -0.34431(4)
Cd3* Cd 0.00000 -1.00000 0.00000
Cd3** Cd 0.00000 0.00000 0.00000
Cd3*** Cd 1.00000 1.00000 0.00000
Cd4* Cd 0.00000 -0.50000 -0.50000
Cd4** Cd 0.00000 0.50000 0.50000
Cd4*** Cd 1.00000 -0.50000 -0.50000
O3A* O 0.9520(9) 0.5416(4) 0.6077(4)
O6A* O 1.1309(7) -0.0544(4) -0.0885(4)
O7* O 1.1616(8) 0.0194(5) 0.0649(4)
O8* O 1.2247(9) 0.1272(5) 0.0728(4)
O8A* O -0.2247(9) -0.1272(5) -0.0728(4)
O10A* O 1.0993(7) 0.4136(4) 0.5564(4)
O11* O 1.1798(7) 0.5655(4) 0.4785(5)
O11A* O 0.8202(7) 0.4345(4) 0.5215(5)
O12* O 1.2761(8) 0.5696(4) 0.3704(5)
O12A* O -0.2761(8) -0.5696(4) -0.3704(5)
O15* O 0.0217(8) -0.2210(4) 0.0257(4)
O15A* O 0.9783(8) 0.2210(4) -0.0257(4)
O16* O -0.0174(8) -0.1093(4) 0.0377(4)
O16** O 0.9826(8) -0.1093(4) 0.0377(4)
O16A* O 1.0174(8) 0.1093(4) -0.0377(4)
#END
