
#######################################################################
#
#                 Cambridge Crystallographic Data Centre
#                                CCDC
#
#######################################################################
#
# If this CIF has been generated from an entry in the Cambridge
# Structural Database, then it will include bibliographic, chemical,
# crystal, experimental, refinement or atomic coordinate data resulting
# from the CCDC's data processing and validation procedures.
#
#######################################################################

data_CSD_CIF_SIDJOF
_audit_creation_date 2007-08-28
_audit_creation_method CSD-ConQuest-V1
_database_code_CSD SIDJOF
_database_code_depnum_ccdc_archive 'CCDC 615832'
_chemical_formula_sum 'C30 H54 Mn3 N6 O33'
_chemical_formula_moiety
;
(C30 H36 Mn2 N6 O24 2-)n,n(H12 Mn1 O6 2+),3n(H2 O1)
;
_journal_coden_Cambridge 1147
_journal_volume 7
_journal_year 2007
_journal_page_first 890
_journal_name_full 'Cryst.Growth Des. '
loop_
_publ_author_name
"Ran Sun"
"Yi-Zhi Li"
"Junfeng Bai"
"Yi Pan"
_chemical_name_systematic
;
catena-(hexa-aqua-manganese(ii) 
bis(\m~3~-N,N',N''-tris(carboxymethyl)-1,3,5-benzenetricarboxamide)-hexa-aqua-
di-manganese(ii) trihydrate)
;
_cell_volume   2395.577
_exptl_crystal_colour 'colorless'
_exptl_crystal_density_diffrn 1.644
_exptl_special_details
;
Cell value c published incorrectly as 14.802, we have used 15.0984 from the 
deposited CIF
;
_exptl_crystal_description 'block'
_diffrn_ambient_temperature 298
_refine_special_details
;
The uncoordinated water molecules are disordered by symmetry.

;
#These two values have been output from a single CSD field.
_refine_ls_R_factor_gt 0.0472
_refine_ls_wR_factor_gt 0.0472
_symmetry_cell_setting hexagonal
_symmetry_space_group_name_H-M 'P -3 1 c'
_symmetry_Int_Tables_number 163
loop_
_symmetry_equiv_pos_site_id
_symmetry_equiv_pos_as_xyz
1 x,y,z
2 -y,x-y,z
3 -x+y,-x,z
4 x,x-y,1/2-z
5 -x+y,y,1/2-z
6 -y,-x,1/2-z
7 -x,-y,-z
8 y,-x+y,-z
9 x-y,x,-z
10 -x,-x+y,-1/2+z
11 x-y,-y,-1/2+z
12 y,x,-1/2+z
_cell_length_a 13.5355(12)
_cell_length_b 13.5355(12)
_cell_length_c 15.0984(18)
_cell_angle_alpha 90
_cell_angle_beta 90
_cell_angle_gamma 120
_cell_formula_units_Z 2
loop_
_atom_type_symbol
_atom_type_radius_bond
C 0.68
H 0.23
Mn 1.35
N 0.68
O 0.68
loop_
_atom_site_label
_atom_site_type_symbol
_atom_site_fract_x
_atom_site_fract_y
_atom_site_fract_z
Mn1 Mn 0.66670 0.33330 0.57848(5)
Mn2 Mn 0.66670 0.33330 0.25000
C1 C 1.0802(2) 0.1153(2) 0.37640(17)
H1 H 1.13430 0.19260 0.37610
C2 C 0.9658(2) 0.0812(2) 0.37662(16)
C3 C 0.9212(2) 0.1629(2) 0.38076(18)
C4 C 0.9537(2) 0.3469(2) 0.4272(2)
H2 H 0.92430 0.35690 0.37140
H3 H 1.01900 0.41980 0.44330
C5 C 0.8637(2) 0.31361(19) 0.49677(18)
N1 N 0.9921(2) 0.26421(19) 0.41440(17)
H4 H 1.06360 0.28230 0.42940
O1 O 0.81298(15) 0.37043(14) 0.49711(12)
O2 O 0.8447(2) 0.23584(18) 0.55026(14)
O3 O 0.82375(17) 0.13331(17) 0.35652(16)
O4 O 0.52476(17) 0.30457(19) 0.66774(14)
H5 H 0.46590 0.23910 0.65810
H6 H 0.50810 0.35700 0.65790
O5 O 0.66761(15) 0.20317(16) 0.33498(12)
H7 H 0.64830 0.21270 0.38730
H8 H 0.73400 0.21040 0.34000
O6? O 0.4731(16) 0.4298(14) 0.7801(5)
H9? H 0.40720 0.38450 0.80220
H10? H 0.47090 0.48380 0.75200
Mn1B Mn 1.66660 0.33330 0.57848(5)
Mn1* Mn 0.66670 -0.66670 0.57848(5)
Mn1** Mn 0.66670 1.33330 0.57848(5)
Mn1*** Mn 1.66670 1.33330 0.57848(5)
C1A C 0.8847(2) -0.0351(2) 0.37640(17)
C1B C 1.0351(2) -0.0802(2) 0.37640(17)
C1A* C 0.8847(2) 0.9649(2) 0.37640(17)
C1B* C 1.0351(2) 0.9198(2) 0.37640(17)
C1* C 1.0802(2) 1.1153(2) 0.37640(17)
H1A H 0.80740 -0.05830 0.37610
H1B H 1.05830 -0.13430 0.37610
H1A* H 0.80740 0.94170 0.37610
H1B* H 1.05830 0.86570 0.37610
H1* H 1.13430 1.19260 0.37610
C2A C 0.9188(2) -0.1154(2) 0.37662(16)
C2B C 1.1154(2) 0.0342(2) 0.37662(16)
C2A* C 0.9188(2) 0.8846(2) 0.37662(16)
C2B* C 1.1154(2) 1.0342(2) 0.37662(16)
C2* C 0.9658(2) 1.0812(2) 0.37662(16)
C3B C 1.2417(2) 0.0788(2) 0.38076(18)
C3A C 0.8371(2) -0.2417(2) 0.38076(18)
C3A* C 0.8371(2) 0.7583(2) 0.38076(18)
C3* C 0.9212(2) 1.1629(2) 0.38076(18)
C3B* C 1.2417(2) 1.0788(2) 0.38076(18)
C4B C 1.3932(2) 0.0463(2) 0.4272(2)
C4A C 0.6531(2) -0.3932(2) 0.4272(2)
C4A* C 0.6531(2) 0.6068(2) 0.4272(2)
C4* C 0.9537(2) 1.3469(2) 0.4272(2)
C4B* C 1.3932(2) 1.0463(2) 0.4272(2)
H2B H 1.43260 0.07570 0.37140
H2A H 0.64310 -0.43260 0.37140
H2A* H 0.64310 0.56740 0.37140
H2* H 0.92430 1.35690 0.37140
H2B* H 1.43260 1.07570 0.37140
H3B H 1.40080 -0.01900 0.44330
H3A H 0.58020 -0.40080 0.44330
H3A* H 0.58020 0.59920 0.44330
H3* H 1.01900 1.41980 0.44330
H3B* H 1.40080 0.98100 0.44330
C5B C 1.44991(20) 0.13630(19) 0.49677(18)
C5A C 0.68639(20) -0.44991(19) 0.49677(18)
C5A* C 0.68639(20) 0.55009(19) 0.49677(18)
C5* C 0.8637(2) 1.31361(19) 0.49677(18)
C5B* C 1.44991(20) 1.13630(19) 0.49677(18)
N1B N 1.27211(20) 0.00790(19) 0.41440(17)
N1A N 0.73579(20) -0.27211(19) 0.41440(17)
N1A* N 0.73579(20) 0.72789(19) 0.41440(17)
N1* N 0.9921(2) 1.26421(19) 0.41440(17)
N1B* N 1.27211(20) 1.00790(19) 0.41440(17)
H4B H 1.21870 -0.06360 0.42940
H4A H 0.71770 -0.21870 0.42940
H4A* H 0.71770 0.78130 0.42940
H4* H 1.06360 1.28230 0.42940
H4B* H 1.21870 0.93640 0.42940
O1B O 1.55745(15) 0.18702(14) 0.49711(12)
O1A O 0.62957(15) -0.55745(14) 0.49711(12)
O1A* O 0.62957(15) 0.44255(14) 0.49711(12)
O1* O 0.81298(15) 1.37043(14) 0.49711(12)
O1B* O 1.55745(15) 1.18702(14) 0.49711(12)
O1B** O 0.55745(15) 0.18702(14) 0.49711(12)
O1** O 1.81298(15) 0.37043(14) 0.49711(12)
O1A** O 1.62957(15) 0.44255(14) 0.49711(12)
O2B O 1.39114(20) 0.15530(18) 0.55026(14)
O2A O 0.76416(20) -0.39114(18) 0.55026(14)
O2A* O 0.76416(20) 0.60886(18) 0.55026(14)
O2* O 0.8447(2) 1.23584(18) 0.55026(14)
O2B* O 1.39114(20) 1.15530(18) 0.55026(14)
O3B O 1.30956(17) 0.17625(17) 0.35652(16)
O3A O 0.86669(17) -0.30956(17) 0.35652(16)
O3A* O 0.86669(17) 0.69044(17) 0.35652(16)
O3* O 0.82375(17) 1.13331(17) 0.35652(16)
O3B* O 1.30956(17) 1.17625(17) 0.35652(16)
O4A O 0.69543(17) 0.22019(19) 0.66774(14)
O4B O 0.77981(17) 0.47524(19) 0.66774(14)
O4B* O 1.77981(17) 0.47524(19) 0.66774(14)
O4* O 1.52476(17) 0.30457(19) 0.66774(14)
O4A* O 1.69543(17) 0.22019(19) 0.66774(14)
H5A H 0.76090 0.22680 0.65810
H5B H 0.77320 0.53410 0.65810
H5B* H 1.77320 0.53410 0.65810
H5* H 1.46590 0.23910 0.65810
H5A* H 1.76090 0.22680 0.65810
H6A H 0.64300 0.15110 0.65790
H6B H 0.84890 0.49190 0.65790
H6B* H 1.84890 0.49190 0.65790
H6* H 1.50810 0.35700 0.65790
H6A* H 1.64300 0.15110 0.65790
O5A O 0.79683(15) 0.46444(16) 0.33498(12)
O5B O 0.53556(15) 0.33239(16) 0.33498(12)
O5C O 0.66761(15) 0.46444(16) 0.16502(12)
O5D O 0.53556(15) 0.20317(16) 0.16502(12)
O5E O 0.79683(15) 0.33239(16) 0.16502(12)
H7A H 0.78730 0.43560 0.38730
H7B H 0.56440 0.35170 0.38730
H7C H 0.64830 0.43560 0.11270
H7D H 0.56440 0.21270 0.11270
H7E H 0.78730 0.35170 0.11270
H8A H 0.78960 0.52360 0.34000
H8B H 0.47640 0.26600 0.34000
H8C H 0.73400 0.52360 0.16000
H8D H 0.47640 0.21040 0.16000
H8E H 0.78960 0.26600 0.16000
#END
