
#######################################################################
#
#                 Cambridge Crystallographic Data Centre
#                                CCDC
#
#######################################################################
#
# If this CIF has been generated from an entry in the Cambridge
# Structural Database, then it will include bibliographic, chemical,
# crystal, experimental, refinement or atomic coordinate data resulting
# from the CCDC's data processing and validation procedures.
#
#######################################################################

data_CSD_CIF_SIDJUL
_audit_creation_date 2007-08-28
_audit_creation_method CSD-ConQuest-V1
_database_code_CSD SIDJUL
_database_code_depnum_ccdc_archive 'CCDC 615833'
_chemical_formula_sum 'C30 H54 N6 Ni3 O33'
_chemical_formula_moiety
;
(C30 H36 N6 Ni2 O24 2-)n,n(H12 Ni1 O6 2+),3n(H2 O1)
;
_journal_coden_Cambridge 1147
_journal_volume 7
_journal_year 2007
_journal_page_first 890
_journal_name_full 'Cryst.Growth Des. '
loop_
_publ_author_name
"Ran Sun"
"Yi-Zhi Li"
"Junfeng Bai"
"Yi Pan"
_chemical_name_systematic
;
catena-(hexa-aqua-nickel(ii) 
bis(\m~3~-N,N',N''-tris(carboxymethyl)-1,3,5-benzenetricarboxamide)-hexa-aqua-
di-nickel(ii) trihydrate)
;
_cell_volume   2304.856
_exptl_crystal_colour 'green'
_exptl_crystal_density_diffrn 1.725
_exptl_crystal_description 'block'
_diffrn_ambient_temperature 293
_refine_special_details
;
The uncoordinated water molecules are disordered by symmetry.

;
#These two values have been output from a single CSD field.
_refine_ls_R_factor_gt 0.0441
_refine_ls_wR_factor_gt 0.0441
_symmetry_cell_setting hexagonal
_symmetry_space_group_name_H-M 'P -3 1 c'
_symmetry_Int_Tables_number 163
loop_
_symmetry_equiv_pos_site_id
_symmetry_equiv_pos_as_xyz
1 x,y,z
2 -y,x-y,z
3 -x+y,-x,z
4 x,x-y,1/2-z
5 -x+y,y,1/2-z
6 -y,-x,1/2-z
7 -x,-y,-z
8 y,-x+y,-z
9 x-y,x,-z
10 -x,-x+y,-1/2+z
11 x-y,-y,-1/2+z
12 y,x,-1/2+z
_cell_length_a 13.409(2)
_cell_length_b 13.409(2)
_cell_length_c 14.802(3)
_cell_angle_alpha 90
_cell_angle_beta 90
_cell_angle_gamma 120
_cell_formula_units_Z 2
loop_
_atom_type_symbol
_atom_type_radius_bond
C 0.68
H 0.23
N 0.68
Ni 1.50
O 0.68
loop_
_atom_site_label
_atom_site_type_symbol
_atom_site_fract_x
_atom_site_fract_y
_atom_site_fract_z
Ni1 Ni 0.66670 0.33330 0.57910(5)
Ni2 Ni 0.66670 0.33330 0.25000
C1 C 1.0801(2) 0.1165(2) 0.3750(2)
H1 H 1.13410 0.19470 0.37470
C2 C 0.9645(2) 0.0806(2) 0.37522(19)
C3 C 0.9199(3) 0.1621(3) 0.3810(2)
C4 C 0.9517(3) 0.3481(3) 0.4273(3)
H2 H 0.92210 0.35850 0.37040
H3 H 1.01710 0.42170 0.44420
C5 C 0.8599(3) 0.3126(2) 0.4983(2)
N1 N 0.9908(2) 0.2655(2) 0.4141(2)
O1 O 0.80704(18) 0.36848(18) 0.49814(15)
O2 O 0.8423(2) 0.2354(2) 0.55232(19)
O3 O 0.8207(2) 0.1332(2) 0.3559(2)
O4 O 0.5311(2) 0.3090(2) 0.66611(19)
H4 H 0.47220 0.24350 0.65650
H5 H 0.51440 0.36140 0.65630
O5 O 0.66745(18) 0.20664(19) 0.33168(16)
H6 H 0.64820 0.21620 0.38400
H7 H 0.73390 0.21390 0.33670
O6? O 0.4702(15) 0.4285(15) 0.7836(8)
H8? H 0.40430 0.38310 0.80570
H9? H 0.46800 0.48250 0.75540
Ni1B Ni 1.66660 0.33330 0.57910(5)
Ni1* Ni 0.66670 -0.66670 0.57910(5)
Ni1** Ni 0.66670 1.33330 0.57910(5)
Ni1*** Ni 1.66670 1.33330 0.57910(5)
C1A C 0.8835(2) -0.0364(2) 0.3750(2)
C1B C 1.0364(2) -0.0801(2) 0.3750(2)
C1A* C 0.8835(2) 0.9636(2) 0.3750(2)
C1B* C 1.0364(2) 0.9199(2) 0.3750(2)
C1* C 1.0801(2) 1.1165(2) 0.3750(2)
H1A H 0.80530 -0.06060 0.37470
H1B H 1.06060 -0.13410 0.37470
H1A* H 0.80530 0.93940 0.37470
H1B* H 1.06060 0.86590 0.37470
H1* H 1.13410 1.19470 0.37470
C2A C 0.9194(2) -0.1161(2) 0.37522(19)
C2B C 1.1161(2) 0.0355(2) 0.37522(19)
C2A* C 0.9194(2) 0.8839(2) 0.37522(19)
C2B* C 1.1161(2) 1.0355(2) 0.37522(19)
C2* C 0.9645(2) 1.0806(2) 0.37522(19)
C3B C 1.2422(3) 0.0801(3) 0.3810(2)
C3A C 0.8379(3) -0.2422(3) 0.3810(2)
C3A* C 0.8379(3) 0.7578(3) 0.3810(2)
C3* C 0.9199(3) 1.1621(3) 0.3810(2)
C3B* C 1.2422(3) 1.0801(3) 0.3810(2)
C4B C 1.3964(3) 0.0483(3) 0.4273(3)
C4A C 0.6519(3) -0.3964(3) 0.4273(3)
C4A* C 0.6519(3) 0.6036(3) 0.4273(3)
C4* C 0.9517(3) 1.3481(3) 0.4273(3)
C4B* C 1.3964(3) 1.0483(3) 0.4273(3)
H2B H 1.43640 0.07790 0.37040
H2A H 0.64150 -0.43640 0.37040
H2A* H 0.64150 0.56360 0.37040
H2* H 0.92210 1.35850 0.37040
H2B* H 1.43640 1.07790 0.37040
H3B H 1.40460 -0.01710 0.44420
H3A H 0.57830 -0.40460 0.44420
H3A* H 0.57830 0.59540 0.44420
H3* H 1.01710 1.42170 0.44420
H3B* H 1.40460 0.98290 0.44420
C5B C 1.4527(3) 0.1401(2) 0.4983(2)
C5A C 0.6874(3) -0.4527(2) 0.4983(2)
C5A* C 0.6874(3) 0.5473(2) 0.4983(2)
C5* C 0.8599(3) 1.3126(2) 0.4983(2)
C5B* C 1.4527(3) 1.1401(2) 0.4983(2)
N1B N 1.2747(2) 0.0092(2) 0.4141(2)
N1A N 0.7345(2) -0.2747(2) 0.4141(2)
N1A* N 0.7345(2) 0.7253(2) 0.4141(2)
N1* N 0.9908(2) 1.2655(2) 0.4141(2)
N1B* N 1.2747(2) 1.0092(2) 0.4141(2)
O1B O 1.56144(18) 0.19296(18) 0.49814(15)
O1A O 0.63152(18) -0.56144(18) 0.49814(15)
O1A* O 0.63152(18) 0.43856(18) 0.49814(15)
O1* O 0.80704(18) 1.36848(18) 0.49814(15)
O1B* O 1.56144(18) 1.19296(18) 0.49814(15)
O1B** O 0.56144(18) 0.19296(18) 0.49814(15)
O1** O 1.80704(18) 0.36848(18) 0.49814(15)
O1A** O 1.63152(18) 0.43856(18) 0.49814(15)
O2B O 1.3931(2) 0.1577(2) 0.55232(19)
O2A O 0.7646(2) -0.3931(2) 0.55232(19)
O2A* O 0.7646(2) 0.6069(2) 0.55232(19)
O2* O 0.8423(2) 1.2354(2) 0.55232(19)
O2B* O 1.3931(2) 1.1577(2) 0.55232(19)
O3B O 1.3125(2) 0.1793(2) 0.3559(2)
O3A O 0.8668(2) -0.3125(2) 0.3559(2)
O3A* O 0.8668(2) 0.6875(2) 0.3559(2)
O3* O 0.8207(2) 1.1332(2) 0.3559(2)
O3B* O 1.3125(2) 1.1793(2) 0.3559(2)
O4A O 0.6910(2) 0.2221(2) 0.66611(19)
O4B O 0.7779(2) 0.4689(2) 0.66611(19)
O4B* O 1.7779(2) 0.4689(2) 0.66611(19)
O4* O 1.5311(2) 0.3090(2) 0.66611(19)
O4A* O 1.6910(2) 0.2221(2) 0.66611(19)
H4A H 0.75650 0.22870 0.65650
H4B H 0.77130 0.52780 0.65650
H4B* H 1.77130 0.52780 0.65650
H4* H 1.47220 0.24350 0.65650
H4A* H 1.75650 0.22870 0.65650
H5A H 0.63860 0.15300 0.65630
H5B H 0.84700 0.48560 0.65630
H5B* H 1.84700 0.48560 0.65630
H5* H 1.51440 0.36140 0.65630
H5A* H 1.63860 0.15300 0.65630
O5A O 0.79336(18) 0.46081(19) 0.33168(16)
O5B O 0.53919(18) 0.33255(19) 0.33168(16)
O5C O 0.66745(18) 0.46081(19) 0.16832(16)
O5D O 0.53919(18) 0.20664(19) 0.16832(16)
O5E O 0.79336(18) 0.33255(19) 0.16832(16)
H6A H 0.78380 0.43200 0.38400
H6B H 0.56800 0.35180 0.38400
H6C H 0.64820 0.43200 0.11600
H6D H 0.56800 0.21620 0.11600
H6E H 0.78380 0.35180 0.11600
H7A H 0.78610 0.52000 0.33670
H7B H 0.48000 0.26610 0.33670
H7C H 0.73390 0.52000 0.16330
H7D H 0.48000 0.21390 0.16330
H7E H 0.78610 0.26610 0.16330
#END
