
#######################################################################
#
#                 Cambridge Crystallographic Data Centre
#                                CCDC
#
#######################################################################
#
# If this CIF has been generated from an entry in the Cambridge
# Structural Database, then it will include bibliographic, chemical,
# crystal, experimental, refinement or atomic coordinate data resulting
# from the CCDC's data processing and validation procedures.
#
#######################################################################

data_CSD_CIF_SIDJIZ
_audit_creation_date 2007-08-28
_audit_creation_method CSD-ConQuest-V1
_database_code_CSD SIDJIZ
_database_code_depnum_ccdc_archive 'CCDC 615831'
_chemical_formula_sum 'C30 H54 N6 O33 Zn3'
_chemical_formula_moiety
;
(C30 H36 N6 O24 Zn2 2-)n,n(H12 O6 Zn1 2+),3n(H2 O1)
;
_journal_coden_Cambridge 1147
_journal_volume 7
_journal_year 2007
_journal_page_first 890
_journal_name_full 'Cryst.Growth Des. '
loop_
_publ_author_name
"Ran Sun"
"Yi-Zhi Li"
"Junfeng Bai"
"Yi Pan"
_chemical_name_systematic
;
catena-(hexa-aqua-zinc(ii) 
bis(\m~3~-N,N',N''-tris(carboxymethyl)-1,3,5-benzenetricarboxamide)-hexa-aqua-
di-zinc(ii) trihydrate)
;
_cell_volume   2319.889
_exptl_crystal_colour 'colorless'
_exptl_crystal_density_diffrn 1.742
_exptl_special_details
;
blue fluorescent

;
_exptl_crystal_description 'block'
_diffrn_ambient_temperature 293
#These two values have been output from a single CSD field.
_refine_ls_R_factor_gt 0.0412
_refine_ls_wR_factor_gt 0.0412
_symmetry_cell_setting hexagonal
_symmetry_space_group_name_H-M 'P -3 1 c'
_symmetry_Int_Tables_number 163
loop_
_symmetry_equiv_pos_site_id
_symmetry_equiv_pos_as_xyz
1 x,y,z
2 -y,x-y,z
3 -x+y,-x,z
4 -x+y,y,1/2-z
5 x,x-y,1/2-z
6 -y,-x,1/2-z
7 -x,-y,-z
8 y,-x+y,-z
9 x-y,x,-z
10 x-y,-y,-1/2+z
11 -x,-x+y,-1/2+z
12 y,x,-1/2+z
_cell_length_a 13.416(2)
_cell_length_b 13.416(2)
_cell_length_c 14.883(4)
_cell_angle_alpha 90
_cell_angle_beta 90
_cell_angle_gamma 120
_cell_formula_units_Z 2
loop_
_atom_type_symbol
_atom_type_radius_bond
C 0.68
H 0.23
N 0.68
O 0.68
Zn 1.45
loop_
_atom_site_label
_atom_site_type_symbol
_atom_site_fract_x
_atom_site_fract_y
_atom_site_fract_z
Zn1 Zn 0.66670 0.33330 0.57909(4)
Zn2 Zn 0.66670 0.33330 0.25000
C1 C 1.0801(3) 0.1161(3) 0.3752(2)
H1 H 1.13410 0.19420 0.37500
C2 C 0.9641(3) 0.0803(3) 0.3753(2)
C3 C 0.9196(3) 0.1623(3) 0.3806(2)
C4 C 0.9519(3) 0.3482(3) 0.4278(3)
H2 H 0.92240 0.35880 0.37120
H3 H 1.01730 0.42180 0.44460
C5 C 0.8598(3) 0.3125(3) 0.4984(2)
N1 N 0.9898(2) 0.2654(2) 0.4142(2)
H4 H 1.06240 0.28450 0.42880
O1 O 0.80699(18) 0.36832(18) 0.49803(15)
O2 O 0.8424(2) 0.2351(2) 0.55190(18)
O3 O 0.8209(2) 0.1333(2) 0.35603(18)
O4 O 0.5311(2) 0.3089(2) 0.66605(18)
H5 H 0.47220 0.24340 0.65650
H6 H 0.51440 0.36130 0.65630
O5 O 0.66731(18) 0.20661(19) 0.33179(15)
H7 H 0.64800 0.21610 0.38410
H8 H 0.73370 0.21390 0.33680
O6 O 0.4658(13) 0.4244(13) 0.7845(7)
H9? H 0.39990 0.37910 0.80660
H10? H 0.46360 0.47840 0.75630
Zn1B Zn 1.66660 0.33330 0.57909(4)
Zn1* Zn 0.66670 -0.66670 0.57909(4)
Zn1** Zn 0.66670 1.33330 0.57909(4)
Zn1*** Zn 1.66670 1.33330 0.57909(4)
C1A C 0.8839(3) -0.0360(3) 0.3752(2)
C1B C 1.0360(3) -0.0801(3) 0.3752(2)
C1A* C 0.8839(3) 0.9640(3) 0.3752(2)
C1B* C 1.0360(3) 0.9199(3) 0.3752(2)
C1* C 1.0801(3) 1.1161(3) 0.3752(2)
H1A H 0.80580 -0.06010 0.37500
H1B H 1.06010 -0.13410 0.37500
H1A* H 0.80580 0.93990 0.37500
H1B* H 1.06010 0.86590 0.37500
H1* H 1.13410 1.19420 0.37500
C2A C 0.9197(3) -0.1162(3) 0.3753(2)
C2B C 1.1162(3) 0.0359(3) 0.3753(2)
C2A* C 0.9197(3) 0.8838(3) 0.3753(2)
C2B* C 1.1162(3) 1.0359(3) 0.3753(2)
C2* C 0.9641(3) 1.0803(3) 0.3753(2)
C3B C 1.2427(3) 0.0804(3) 0.3806(2)
C3A C 0.8377(3) -0.2427(3) 0.3806(2)
C3A* C 0.8377(3) 0.7573(3) 0.3806(2)
C3* C 0.9196(3) 1.1623(3) 0.3806(2)
C3B* C 1.2427(3) 1.0804(3) 0.3806(2)
C4B C 1.3963(3) 0.0481(3) 0.4278(3)
C4A C 0.6518(3) -0.3963(3) 0.4278(3)
C4A* C 0.6518(3) 0.6037(3) 0.4278(3)
C4* C 0.9519(3) 1.3482(3) 0.4278(3)
C4B* C 1.3963(3) 1.0481(3) 0.4278(3)
H2B H 1.43640 0.07760 0.37120
H2A H 0.64120 -0.43640 0.37120
H2A* H 0.64120 0.56360 0.37120
H2* H 0.92240 1.35880 0.37120
H2B* H 1.43640 1.07760 0.37120
H3B H 1.40450 -0.01730 0.44460
H3A H 0.57820 -0.40450 0.44460
H3A* H 0.57820 0.59550 0.44460
H3* H 1.01730 1.42180 0.44460
H3B* H 1.40450 0.98270 0.44460
C5B C 1.4527(3) 0.1402(3) 0.4984(2)
C5A C 0.6875(3) -0.4527(3) 0.4984(2)
C5A* C 0.6875(3) 0.5473(3) 0.4984(2)
C5* C 0.8598(3) 1.3125(3) 0.4984(2)
C5B* C 1.4527(3) 1.1402(3) 0.4984(2)
N1B N 1.2756(2) 0.0102(2) 0.4142(2)
N1A N 0.7346(2) -0.2756(2) 0.4142(2)
N1A* N 0.7346(2) 0.7244(2) 0.4142(2)
N1* N 0.9898(2) 1.2654(2) 0.4142(2)
N1B* N 1.2756(2) 1.0102(2) 0.4142(2)
H4B H 1.22210 -0.06240 0.42880
H4A H 0.71550 -0.22210 0.42880
H4A* H 0.71550 0.77790 0.42880
H4* H 1.06240 1.28450 0.42880
H4B* H 1.22210 0.93760 0.42880
O1B O 1.56133(18) 0.19301(18) 0.49803(15)
O1A O 0.63168(18) -0.56133(18) 0.49803(15)
O1A* O 0.63168(18) 0.43867(18) 0.49803(15)
O1* O 0.80699(18) 1.36832(18) 0.49803(15)
O1B* O 1.56133(18) 1.19301(18) 0.49803(15)
O1B** O 0.56133(18) 0.19301(18) 0.49803(15)
O1** O 1.80699(18) 0.36832(18) 0.49803(15)
O1A** O 1.63168(18) 0.43867(18) 0.49803(15)
O2B O 1.3927(2) 0.1576(2) 0.55190(18)
O2A O 0.7649(2) -0.3927(2) 0.55190(18)
O2A* O 0.7649(2) 0.6073(2) 0.55190(18)
O2* O 0.8424(2) 1.2351(2) 0.55190(18)
O2B* O 1.3927(2) 1.1576(2) 0.55190(18)
O3B O 1.3124(2) 0.1791(2) 0.35603(18)
O3A O 0.8667(2) -0.3124(2) 0.35603(18)
O3A* O 0.8667(2) 0.6876(2) 0.35603(18)
O3* O 0.8209(2) 1.1333(2) 0.35603(18)
O3B* O 1.3124(2) 1.1791(2) 0.35603(18)
O4A O 0.6911(2) 0.2222(2) 0.66605(18)
O4B O 0.7778(2) 0.4689(2) 0.66605(18)
O4B* O 1.7778(2) 0.4689(2) 0.66605(18)
O4* O 1.5311(2) 0.3089(2) 0.66605(18)
O4A* O 1.6911(2) 0.2222(2) 0.66605(18)
H5A H 0.75660 0.22880 0.65650
H5B H 0.77120 0.52780 0.65650
H5B* H 1.77120 0.52780 0.65650
H5* H 1.47220 0.24340 0.65650
H5A* H 1.75660 0.22880 0.65650
H6A H 0.63870 0.15310 0.65630
H6B H 0.84690 0.48560 0.65630
H6B* H 1.84690 0.48560 0.65630
H6* H 1.51440 0.36130 0.65630
H6A* H 1.63870 0.15310 0.65630
O5A O 0.79339(18) 0.46070(19) 0.33179(15)
O5B O 0.53930(18) 0.33269(19) 0.33179(15)
O5C O 0.53930(18) 0.20661(19) 0.16821(15)
O5D O 0.66731(18) 0.46070(19) 0.16821(15)
O5E O 0.79339(18) 0.33269(19) 0.16821(15)
H7A H 0.78390 0.43190 0.38410
H7B H 0.56810 0.35200 0.38410
H7C H 0.56810 0.21610 0.11590
H7D H 0.64800 0.43190 0.11590
H7E H 0.78390 0.35200 0.11590
H8A H 0.78610 0.51980 0.33680
H8B H 0.48020 0.26630 0.33680
H8C H 0.48020 0.21390 0.16320
H8D H 0.73370 0.51980 0.16320
H8E H 0.78610 0.26630 0.16320
#END
