
#######################################################################
#
#                 Cambridge Crystallographic Data Centre
#                                CCDC
#
#######################################################################
#
# If this CIF has been generated from an entry in the Cambridge
# Structural Database, then it will include bibliographic, chemical,
# crystal, experimental, refinement or atomic coordinate data resulting
# from the CCDC's data processing and validation procedures.
#
#######################################################################

data_CSD_CIF_SIDKAS
_audit_creation_date 2007-08-28
_audit_creation_method CSD-ConQuest-V1
_database_code_CSD SIDKAS
_database_code_depnum_ccdc_archive 'CCDC 615834'
_chemical_formula_sum 'C30 H54 Co3 N6 O33'
_chemical_formula_moiety
;
(C30 H36 Co2 N6 O24 2-)n,n(H12 Co1 O6 2+),3n(H2 O1)
;
_journal_coden_Cambridge 1147
_journal_volume 7
_journal_year 2007
_journal_page_first 890
_journal_name_full 'Cryst.Growth Des. '
loop_
_publ_author_name
"Ran Sun"
"Yi-Zhi Li"
"Junfeng Bai"
"Yi Pan"
_chemical_name_systematic
;
catena-(hexa-aqua-cobalt(ii) 
bis(\m~3~-N,N',N''-tris(carboxymethyl)-1,3,5-benzenetricarboxamide)-hexa-aqua-
di-cobalt(ii) trihydrate)
;
_cell_volume   2350.172
_exptl_crystal_colour 'red'
_exptl_crystal_density_diffrn 1.692
_exptl_crystal_description 'block'
_diffrn_ambient_temperature 298
_refine_special_details
;
The uncoordinated water molecules are disordered by symmetry.

;
#These two values have been output from a single CSD field.
_refine_ls_R_factor_gt 0.0529
_refine_ls_wR_factor_gt 0.0529
_symmetry_cell_setting hexagonal
_symmetry_space_group_name_H-M 'P -3 1 c'
_symmetry_Int_Tables_number 163
loop_
_symmetry_equiv_pos_site_id
_symmetry_equiv_pos_as_xyz
1 x,y,z
2 -y,x-y,z
3 -x+y,-x,z
4 x,x-y,1/2-z
5 -x+y,y,1/2-z
6 -y,-x,1/2-z
7 -x,-y,-z
8 y,-x+y,-z
9 x-y,x,-z
10 -x,-x+y,-1/2+z
11 x-y,-y,-1/2+z
12 y,x,-1/2+z
_cell_length_a 13.4793(12)
_cell_length_b 13.4793(12)
_cell_length_c 14.936(3)
_cell_angle_alpha 90
_cell_angle_beta 90
_cell_angle_gamma 120
_cell_formula_units_Z 2
loop_
_atom_type_symbol
_atom_type_radius_bond
C 0.68
H 0.23
Co 1.33
N 0.68
O 0.68
loop_
_atom_site_label
_atom_site_type_symbol
_atom_site_fract_x
_atom_site_fract_y
_atom_site_fract_z
Co1 Co 0.66670 0.33330 0.57909(5)
Co2 Co 0.66670 0.33330 0.25000
C1 C 1.0801(3) 0.1165(3) 0.3749(2)
H1 H 1.13370 0.19430 0.37420
C2 C 0.9641(3) 0.0802(3) 0.3755(2)
C3 C 0.9195(3) 0.1622(3) 0.3809(2)
C4 C 0.9519(3) 0.3482(3) 0.4276(3)
H2 H 0.92270 0.35870 0.37120
H3 H 1.01700 0.42130 0.44450
C5 C 0.8596(3) 0.3124(3) 0.4984(2)
N1 N 0.9909(3) 0.2650(2) 0.4146(2)
H4 H 1.06280 0.28360 0.42950
O1 O 0.8075(2) 0.3689(2) 0.49802(17)
O2 O 0.8418(3) 0.2350(3) 0.5519(2)
O3 O 0.8208(2) 0.1331(2) 0.3560(2)
O4 O 0.5313(3) 0.3091(3) 0.6662(2)
H5 H 0.47240 0.24360 0.65660
H6 H 0.51460 0.36150 0.65640
O5 O 0.6676(2) 0.2066(2) 0.33183(17)
H7 H 0.64840 0.21610 0.38410
H8 H 0.73410 0.21390 0.33680
O6? O 0.4706(17) 0.4293(16) 0.7838(8)
H9? H 0.40470 0.38400 0.80590
H10? H 0.46840 0.48330 0.75570
Co1B Co 1.66660 0.33330 0.57909(5)
Co1* Co 0.66670 -0.66670 0.57909(5)
Co1** Co 0.66670 1.33330 0.57909(5)
Co1*** Co 1.66670 1.33330 0.57909(5)
C1A C 0.8835(3) -0.0364(3) 0.3749(2)
C1B C 1.0364(3) -0.0801(3) 0.3749(2)
C1A* C 0.8835(3) 0.9636(3) 0.3749(2)
C1B* C 1.0364(3) 0.9199(3) 0.3749(2)
C1* C 1.0801(3) 1.1165(3) 0.3749(2)
H1A H 0.80570 -0.06060 0.37420
H1B H 1.06060 -0.13370 0.37420
H1A* H 0.80570 0.93940 0.37420
H1B* H 1.06060 0.86630 0.37420
H1* H 1.13370 1.19430 0.37420
C2A C 0.9198(3) -0.1161(3) 0.3755(2)
C2B C 1.1161(3) 0.0359(3) 0.3755(2)
C2A* C 0.9198(3) 0.8839(3) 0.3755(2)
C2B* C 1.1161(3) 1.0359(3) 0.3755(2)
C2* C 0.9641(3) 1.0802(3) 0.3755(2)
C3B C 1.2427(3) 0.0805(3) 0.3809(2)
C3A C 0.8378(3) -0.2427(3) 0.3809(2)
C3A* C 0.8378(3) 0.7573(3) 0.3809(2)
C3* C 0.9195(3) 1.1622(3) 0.3809(2)
C3B* C 1.2427(3) 1.0805(3) 0.3809(2)
C4B C 1.3963(3) 0.0481(3) 0.4276(3)
C4A C 0.6518(3) -0.3963(3) 0.4276(3)
C4A* C 0.6518(3) 0.6037(3) 0.4276(3)
C4* C 0.9519(3) 1.3482(3) 0.4276(3)
C4B* C 1.3963(3) 1.0481(3) 0.4276(3)
H2B H 1.43600 0.07730 0.37120
H2A H 0.64130 -0.43600 0.37120
H2A* H 0.64130 0.56400 0.37120
H2* H 0.92270 1.35870 0.37120
H2B* H 1.43600 1.07730 0.37120
H3B H 1.40430 -0.01700 0.44450
H3A H 0.57870 -0.40430 0.44450
H3A* H 0.57870 0.59570 0.44450
H3* H 1.01700 1.42130 0.44450
H3B* H 1.40430 0.98300 0.44450
C5B C 1.4528(3) 0.1404(3) 0.4984(2)
C5A C 0.6876(3) -0.4528(3) 0.4984(2)
C5A* C 0.6876(3) 0.5472(3) 0.4984(2)
C5* C 0.8596(3) 1.3124(3) 0.4984(2)
C5B* C 1.4528(3) 1.1404(3) 0.4984(2)
N1B N 1.2741(3) 0.0091(2) 0.4146(2)
N1A N 0.7350(3) -0.2741(2) 0.4146(2)
N1A* N 0.7350(3) 0.7259(2) 0.4146(2)
N1* N 0.9909(3) 1.2650(2) 0.4146(2)
N1B* N 1.2741(3) 1.0091(2) 0.4146(2)
H4B H 1.22080 -0.06280 0.42950
H4A H 0.71640 -0.22080 0.42950
H4A* H 0.71640 0.77920 0.42950
H4* H 1.06280 1.28360 0.42950
H4B* H 1.22080 0.93720 0.42950
O1B O 1.5614(2) 0.1925(2) 0.49802(17)
O1A O 0.6311(2) -0.5614(2) 0.49802(17)
O1A* O 0.6311(2) 0.4386(2) 0.49802(17)
O1* O 0.8075(2) 1.3689(2) 0.49802(17)
O1B* O 1.5614(2) 1.1925(2) 0.49802(17)
O1B** O 0.5614(2) 0.1925(2) 0.49802(17)
O1** O 1.8075(2) 0.3689(2) 0.49802(17)
O1A** O 1.6311(2) 0.4386(2) 0.49802(17)
O2B O 1.3932(3) 0.1582(3) 0.5519(2)
O2A O 0.7650(3) -0.3932(3) 0.5519(2)
O2A* O 0.7650(3) 0.6068(3) 0.5519(2)
O2* O 0.8418(3) 1.2350(3) 0.5519(2)
O2B* O 1.3932(3) 1.1582(3) 0.5519(2)
O3B O 1.3123(2) 0.1792(2) 0.3560(2)
O3A O 0.8669(2) -0.3123(2) 0.3560(2)
O3A* O 0.8669(2) 0.6877(2) 0.3560(2)
O3* O 0.8208(2) 1.1331(2) 0.3560(2)
O3B* O 1.3123(2) 1.1792(2) 0.3560(2)
O4A O 0.6909(3) 0.2222(3) 0.6662(2)
O4B O 0.7778(3) 0.4687(3) 0.6662(2)
O4B* O 1.7778(3) 0.4687(3) 0.6662(2)
O4* O 1.5313(3) 0.3091(3) 0.6662(2)
O4A* O 1.6909(3) 0.2222(3) 0.6662(2)
H5A H 0.75640 0.22880 0.65660
H5B H 0.77120 0.52760 0.65660
H5B* H 1.77120 0.52760 0.65660
H5* H 1.47240 0.24360 0.65660
H5A* H 1.75640 0.22880 0.65660
H6A H 0.63850 0.15310 0.65640
H6B H 0.84690 0.48540 0.65640
H6B* H 1.84690 0.48540 0.65640
H6* H 1.51460 0.36150 0.65640
H6A* H 1.63850 0.15310 0.65640
O5A O 0.7934(2) 0.4610(2) 0.33183(17)
O5B O 0.5390(2) 0.3324(2) 0.33183(17)
O5C O 0.6676(2) 0.4610(2) 0.16817(17)
O5D O 0.5390(2) 0.2066(2) 0.16817(17)
O5E O 0.7934(2) 0.3324(2) 0.16817(17)
H7A H 0.78390 0.43230 0.38410
H7B H 0.56770 0.35160 0.38410
H7C H 0.64840 0.43230 0.11590
H7D H 0.56770 0.21610 0.11590
H7E H 0.78390 0.35160 0.11590
H8A H 0.78610 0.52020 0.33680
H8B H 0.47980 0.26590 0.33680
H8C H 0.73410 0.52020 0.16320
H8D H 0.47980 0.21390 0.16320
H8E H 0.78610 0.26590 0.16320
#END
