
#######################################################################
#
#                 Cambridge Crystallographic Data Centre
#                                CCDC
#
#######################################################################
#
# If this CIF has been generated from an entry in the Cambridge
# Structural Database, then it will include bibliographic, chemical,
# crystal, experimental, refinement or atomic coordinate data resulting
# from the CCDC's data processing and validation procedures.
#
#######################################################################

data_CSD_CIF_SIDRUU
_audit_creation_date 2013-07-25
_audit_creation_method CSD-ConQuest-V1
_database_code_CSD SIDRUU
_database_code_depnum_ccdc_archive 'CCDC 917702'
_chemical_formula_sum 'C36 H30 Ag14 K1 N28 O84.5 Si2 W24'
_chemical_formula_moiety
;
(C18 H10 Ag7 N14 O40 Si1 W12 1-)2n,n(K1 1+),3.5n(H2 O1),n(H3 O1 1+)
;
_journal_coden_Cambridge 920
_journal_volume 8
_journal_year 2013
_journal_page_first 2254
_journal_name_full 'Chem.Asian J. '
loop_
_publ_author_name
"Jingquan Sha"
"Mengting Li"
"Jingwen Sun"
"Pengfei Yan"
"Guangming Li"
"Lei Zhang"
_chemical_name_systematic
;
catena-[potassium oxonium 
(\m~12~-silicato)-bis(\m~6~-5-(pyridin-3-yl)-2H,2'H-3,3'-bi-1,2,4-triazole-2,2
'-diyl)-tetracosakis(\m~2~-oxo)-dodecaoxo-hepta-silver-dodeca-tungsten 
hydrate]
;
_cell_volume   5552.469
_exptl_crystal_colour 'red'
_exptl_crystal_density_diffrn 4.918
_diffrn_ambient_temperature 293
_refine_special_details
;
Ag1A,Ag4A and Ag1B,Ag4B disordered over two sites with occupancies 0.80:0.20; 
Ag2A,Ag7A and Ag2B,Ag7B disordered over two sites with occupancies 0.60:0.40.
;
#These two values have been output from a single CSD field.
_refine_ls_R_factor_gt 0.071
_refine_ls_wR_factor_gt 0.071
_symmetry_cell_setting monoclinic
_symmetry_space_group_name_H-M 'P 21/c'
_symmetry_Int_Tables_number 14
loop_
_symmetry_equiv_pos_site_id
_symmetry_equiv_pos_as_xyz
1 x,y,z
2 -x,1/2+y,1/2-z
3 -x,-y,-z
4 x,-1/2-y,-1/2+z
_cell_length_a 14.365(5)
_cell_length_b 22.807(5)
_cell_length_c 21.151(5)
_cell_angle_alpha 90
_cell_angle_beta 126.748(15)
_cell_angle_gamma 90
_cell_formula_units_Z 2
loop_
_atom_type_symbol
_atom_type_radius_bond
C 0.68
H 0.23
Ag 1.45
K 2.03
N 0.68
O 0.68
Si 1.20
W 1.62
loop_
_atom_site_label
_atom_site_type_symbol
_atom_site_fract_x
_atom_site_fract_y
_atom_site_fract_z
Ag1 Ag 0.9205(4) 0.26541(17) 0.3777(2)
Ag2 Ag 1.1110(6) 0.3678(3) 0.1949(3)
Ag3 Ag 0.6245(3) 0.31069(16) 0.1889(3)
Ag4 Ag 1.1038(4) 0.21396(17) 0.3801(3)
Ag5 Ag 1.0126(5) -0.0317(2) 0.2964(4)
Ag6 Ag 0.9610(3) -0.02519(12) 0.42852(18)
N1 N 1.482(3) 0.3808(15) 0.337(2)
N2 N 1.154(2) 0.3053(12) 0.3940(17)
N3 N 1.171(2) 0.3718(12) 0.3144(17)
N4 N 1.266(2) 0.3134(12) 0.4249(17)
N5 N 0.916(3) 0.3843(15) 0.214(2)
N6 N 0.891(2) 0.3230(12) 0.2865(17)
N7 N 0.940(4) 0.0831(17) 0.104(3)
N8 N 0.951(3) 0.0468(13) 0.306(2)
N9 N 0.971(2) 0.0548(12) 0.3792(17)
N10 N 0.976(3) 0.1410(13) 0.3383(18)
N11 N 1.031(2) 0.1098(11) 0.5245(16)
N12 N 0.998(3) 0.1966(13) 0.468(2)
O1 O 0.1767(17) 0.1630(9) 0.1669(13)
O2 O 0.751(2) -0.0233(11) 0.2814(15)
O3 O 0.706(2) 0.2087(9) 0.3045(15)
O4 O 0.251(2) 0.1010(9) 0.0354(13)
O5 O 0.382(2) 0.0262(11) 0.0167(16)
O6 O 0.7202(19) 0.1464(10) 0.4175(13)
O7 O 0.567(2) 0.2124(10) 0.4043(15)
O8 O 0.392(2) 0.1048(11) 0.4347(15)
O9 O 0.139(2) -0.0562(10) 0.1193(15)
O10 O 0.835(2) 0.0676(11) 0.5454(15)
O11 O 0.7598(19) 0.0346(10) 0.3949(14)
O12 O 0.354(2) 0.2132(11) 0.3709(16)
O13 O 0.409(2) 0.0079(11) 0.3672(15)
O14 O 0.7671(19) 0.2662(10) 0.4337(13)
O15 O 0.544(2) 0.1959(12) 0.5312(17)
O16 O 0.673(2) 0.0934(10) 0.2634(14)
O17 O 0.547(2) 0.2763(10) 0.2931(15)
O18 O 0.500(2) -0.1048(9) 0.3770(14)
O19 O 0.1296(19) 0.0601(10) 0.0870(16)
O20 O 0.356(2) 0.3169(10) 0.1538(15)
O21 O 0.2803(19) -0.0065(10) 0.0877(14)
O22 O 0.290(2) 0.2006(10) 0.1130(15)
O23 O 0.218(2) 0.0336(11) 0.2301(18)
O24 O 0.6052(19) 0.1069(12) 0.4680(15)
O25 O 0.5065(19) 0.2341(9) 0.1594(14)
O26 O 0.3487(18) 0.0837(9) 0.1834(13)
O27 O 0.137(2) 0.2469(12) 0.2414(17)
O28 O 0.6769(19) 0.1758(10) 0.1657(14)
O29 O 0.373(2) -0.0327(10) 0.2425(15)
O30 O 0.334(2) 0.2419(10) 0.2459(15)
O31 O 0.503(2) 0.1648(10) 0.2626(15)
O32 O 0.514(2) 0.0132(10) 0.1835(16)
O33 O 0.3859(19) 0.1262(10) 0.3118(15)
O34 O 0.599(2) -0.0462(10) 0.3147(15)
O35 O 0.6423(19) -0.0054(10) 0.4439(14)
O36 O 0.5448(18) 0.0581(11) 0.3225(14)
O37 O 0.0613(19) 0.1643(10) 0.0045(13)
O38 O 0.218(2) 0.0256(12) 0.3650(18)
Si1 Si 0.4474(7) 0.1090(4) 0.2701(6)
W1 W 0.61015(15) 0.16374(7) 0.20775(11)
W2 W 0.23361(14) 0.00052(7) 0.15659(10)
W3 W 0.40488(15) 0.25142(7) 0.19612(11)
W4 W 0.18516(13) 0.13721(7) 0.08276(10)
W5 W 0.38497(14) 0.05230(7) 0.09371(10)
W6 W 0.28716(15) 0.06124(8) 0.33673(12)
W7 W 0.24032(14) 0.19747(7) 0.26453(10)
W8 W 0.49172(14) 0.16574(7) 0.44067(10)
W9 W 0.65789(14) 0.21987(7) 0.37141(10)
W10 W 0.50542(15) -0.03387(7) 0.35040(11)
W11 W 0.70828(14) 0.07052(7) 0.45244(10)
W12 W 0.65598(14) 0.01557(7) 0.28739(10)
C1 C 0.970(3) 0.3492(17) 0.275(3)
C2 C 1.100(3) 0.3446(13) 0.332(2)
C3 C 1.274(3) 0.3507(14) 0.381(2)
C4 C 1.386(3) 0.3641(16) 0.3928(19)
C5 C 1.485(3) 0.3699(18) 0.468(2)
H1 H 1.48580 0.36800 0.51260
C6 C 1.381(3) 0.3740(17) 0.328(2)
H2 H 1.30980 0.37600 0.27860
C7 C 1.584(4) 0.383(2) 0.408(2)
H3 H 1.65400 0.38720 0.41470
C8 C 1.580(4) 0.3785(19) 0.471(3)
H4 H 1.65070 0.38180 0.52080
C9 C 1.002(3) 0.1390(14) 0.459(2)
C10 C 0.986(3) 0.1084(16) 0.394(2)
C11 C 0.955(3) 0.1002(15) 0.282(2)
C12 C 0.946(3) 0.1161(15) 0.216(2)
C13 C 0.907(3) 0.1686(16) 0.180(2)
H5 H 0.89090 0.19730 0.20400
C14 C 0.953(5) 0.076(2) 0.172(3)
H6 H 0.96910 0.03820 0.19130
C15 C 0.907(4) 0.1381(16) 0.076(3)
H7 H 0.89510 0.14710 0.02890
C16 C 0.890(4) 0.182(2) 0.112(2)
H8 H 0.86720 0.21890 0.08990
C17 C 1.032(4) 0.201(2) 0.536(3)
H9 H 1.04610 0.23780 0.55990
N13 N 0.788(3) 0.3425(15) 0.2195(19)
C18 C 0.808(3) 0.3803(17) 0.188(2)
H10 H 0.74980 0.40440 0.14810
N14 N 1.048(3) 0.1510(12) 0.5779(17)
O39 O 0.1933(18) 0.1306(9) 0.2935(13)
O40 O 0.4757(19) 0.1186(9) 0.1230(14)
Ag7 Ag 1.3913(3) 0.26026(16) 0.5268(2)
K1 K 0.50000 0.00000 0.50000
O41 O 1.277(2) 0.1609(11) 0.4917(15)
O42 O 0.707(3) 0.0343(15) 0.126(2)
O43 O -0.064(4) -0.0385(18) 0.096(3)
Ag8? Ag 0.8876(17) 0.2339(8) 0.3086(13)
Ag9? Ag 0.9911(7) 0.3667(4) 0.1502(5)
Ag10? Ag 1.1043(15) 0.2558(7) 0.4452(11)
Ag11? Ag 0.8721(6) -0.0380(3) 0.2321(4)
Ag2C Ag 1.1110(6) 0.1322(3) 0.6949(3)
Ag5A Ag 0.9874(5) 0.4683(2) 0.2036(4)
Ag6B Ag 1.0390(3) 0.02519(12) 0.57148(18)
N5A N 1.084(3) -0.1157(15) 0.286(2)
N11B N 0.969(2) -0.1098(11) 0.4755(16)
N14C N 1.048(3) 0.3490(12) 0.0779(17)
#END
