
#######################################################################
#
#                 Cambridge Crystallographic Data Centre
#                                CCDC
#
#######################################################################
#
# If this CIF has been generated from an entry in the Cambridge
# Structural Database, then it will include bibliographic, chemical,
# crystal, experimental, refinement or atomic coordinate data resulting
# from the CCDC's data processing and validation procedures.
#
#######################################################################

data_CSD_CIF_SIDZUD
_audit_creation_date 2018-08-10
_audit_creation_method CSD-ConQuest-V1
_database_code_CSD SIDZUD
_database_code_depnum_ccdc_archive 'CCDC 1445408'
_chemical_formula_sum 'C104 H192 Cu1 N11 O42 V12'
_chemical_formula_moiety
;
3(C16 H36 N1 1+),n(C36 H40 Cu1 N4 O38 V12 3-),4(C5 H11 N1 O1)
;
_journal_coden_Cambridge 9
_journal_volume 57
_journal_year 2018
_journal_page_first 10323
_journal_name_full 'Inorg.Chem. '
loop_
_publ_author_name
"Xin-Xiong Li"
"Lin-Jie Zhang"
"Cai-Yan Cui"
"Rui-Hu Wang"
"Guo-Yu Yang"
_chemical_name_systematic
;
catena-[tris(tetra-n-butylammonium) 
tetradecakis(\m-oxido)-tetrakis(\m-2-(oxidomethyl)-2-(pyridin-4-yl)propane-1,3
-bis(olato))-dodecakis(oxido)-copper(i)-dodeca-vanadium(v) 
N,N'-diethylformamide solvate]
;
_cell_volume   4287.036
_exptl_crystal_colour 'dark brown'
_exptl_crystal_density_diffrn 2.28
_exptl_crystal_description 'stick'
_diffrn_ambient_temperature 173
_refine_special_details
;
Disordered cation and solvent molecules were not modelled and the disordered 
density was taken into account using the SQUEEZE/PLATON procedure.
;
#These two values have been output from a single CSD field.
_refine_ls_R_factor_gt 0.0579
_refine_ls_wR_factor_gt 0.0579
_symmetry_cell_setting tetragonal
_symmetry_space_group_name_H-M 'P 42/n'
_symmetry_Int_Tables_number 86
loop_
_symmetry_equiv_pos_site_id
_symmetry_equiv_pos_as_xyz
1 x,y,z
2 -y,1/2+x,1/2+z
3 1/2-x,1/2-y,z
4 1/2+y,-x,1/2+z
5 -x,-y,-z
6 y,-1/2-x,-1/2-z
7 -1/2+x,-1/2+y,-z
8 -1/2-y,x,-1/2-z
_cell_length_a 20.8997(4)
_cell_length_b 20.8997(4)
_cell_length_c 9.8147(4)
_cell_angle_alpha 90
_cell_angle_beta 90
_cell_angle_gamma 90
_cell_formula_units_Z 2
loop_
_atom_type_symbol
_atom_type_radius_bond
C 0.68
H 0.23
Cu 1.32
N 0.68
O 0.68
V 1.53
loop_
_atom_site_label
_atom_site_type_symbol
_atom_site_fract_x
_atom_site_fract_y
_atom_site_fract_z
Cu1 Cu 0.75000 0.75000 -1.25000
V1 V 0.45729(3) 0.58151(3) -0.61895(7)
V2 V 0.53289(3) 0.44636(3) -0.68418(6)
V3 V 0.59374(3) 0.55018(3) -0.46488(6)
N1 N 0.70994(15) 0.68433(15) -1.1229(3)
O1 O 0.60905(12) 0.50173(12) -0.6414(3)
O2 O 0.50000 0.50000 -0.50000
O3 O 0.49905(12) 0.52783(12) -0.7661(2)
O4 O 0.38890(12) 0.52542(13) -0.6251(3)
O5 O 0.54807(12) 0.61141(12) -0.5905(3)
O6 O 0.54976(13) 0.58440(13) -0.3245(3)
O7 O 0.43852(13) 0.60966(13) -0.4479(3)
O8 O 0.66153(14) 0.58730(15) -0.4640(3)
O9 O 0.55931(16) 0.41612(14) -0.8242(3)
O10 O 0.43506(14) 0.63948(15) -0.7152(3)
C1 C 0.63677(17) 0.62062(17) -0.9230(4)
C2 C 0.61507(18) 0.62787(19) -1.0563(4)
H1 H 0.57470 0.61080 -1.08200
C3 C 0.58219(18) 0.63792(17) -0.7020(4)
H2 H 0.62250 0.65710 -0.66810
H3 H 0.55630 0.67250 -0.74340
C4 C 0.59821(17) 0.58755(17) -0.8123(3)
C5 C 0.53598(18) 0.55887(19) -0.8695(4)
H4 H 0.51010 0.59340 -0.91130
H5 H 0.54660 0.52760 -0.94170
C6 C 0.73209(18) 0.67531(18) -0.9955(4)
H6 H 0.77370 0.69050 -0.97410
C7 C 0.65199(18) 0.65977(19) -1.1516(4)
H7 H 0.63570 0.66460 -1.24130
C8 C 0.69754(18) 0.64512(19) -0.8944(4)
H8 H 0.71500 0.64100 -0.80550
C9 C 0.64013(17) 0.53366(17) -0.7512(4)
H9 H 0.65040 0.50220 -0.82330
H10 H 0.68090 0.55220 -0.71820
N2 N 0.2663(5) 0.5558(4) -0.6687(14)
O11 O 0.2084(4) 0.6536(4) -0.7427(11)
C10 C 0.2633(5) 0.6251(5) -0.7252(15)
H11 H 0.30180 0.64700 -0.74720
C11 C 0.2707(5) 0.5066(5) -0.9004(10)
H12 H 0.25400 0.47160 -0.95680
H13 H 0.31730 0.50270 -0.89290
H14 H 0.25990 0.54770 -0.94250
C12 C 0.2358(3) 0.5471(4) -0.5265(8)
H15 H 0.18910 0.55420 -0.53260
H16 H 0.24310 0.50280 -0.49450
C13 C 0.2648(3) 0.5941(5) -0.4246(9)
H17 H 0.24600 0.58700 -0.33450
H18 H 0.25580 0.63800 -0.45410
H19 H 0.31120 0.58770 -0.42000
C14 C 0.2412(3) 0.5030(4) -0.7604(10)
H20 H 0.25100 0.46090 -0.71910
H21 H 0.19410 0.50680 -0.76820
V1B V 1.04271(3) 0.91849(3) -0.61895(7)
V2B V 0.96711(3) 1.05364(3) -0.68418(6)
V3B V 0.90626(3) 0.94982(3) -0.46488(6)
N1B N 0.79006(15) 0.81567(15) -1.1229(3)
O1B O 0.89095(12) 0.99827(12) -0.6414(3)
O2B O 1.00000 1.00000 -0.50000
O3B O 1.00095(12) 0.97217(12) -0.7661(2)
O4B O 1.11110(12) 0.97458(13) -0.6251(3)
O5B O 0.95193(12) 0.88859(12) -0.5905(3)
O6B O 0.95024(13) 0.91560(13) -0.3245(3)
O7B O 1.06148(13) 0.89034(13) -0.4479(3)
O8B O 0.83847(14) 0.91270(15) -0.4640(3)
O9B O 0.94069(16) 1.08388(14) -0.8242(3)
O10B O 1.06494(14) 0.86052(15) -0.7152(3)
C1B C 0.86323(17) 0.87938(17) -0.9230(4)
C2B C 0.88493(18) 0.87213(19) -1.0563(4)
H1B H 0.92530 0.88920 -1.08200
C3B C 0.91781(18) 0.86208(17) -0.7020(4)
H2B H 0.87750 0.84290 -0.66810
H3B H 0.94370 0.82750 -0.74340
C4B C 0.90179(17) 0.91245(17) -0.8123(3)
C5B C 0.96402(18) 0.94113(19) -0.8695(4)
H4B H 0.98990 0.90660 -0.91130
H5B H 0.95340 0.97240 -0.94170
C6B C 0.76791(18) 0.82469(18) -0.9955(4)
H6B H 0.72630 0.80950 -0.97410
C7B C 0.84801(18) 0.84023(19) -1.1516(4)
H7B H 0.86430 0.83540 -1.24130
C8B C 0.80246(18) 0.85488(19) -0.8944(4)
H8B H 0.78500 0.85900 -0.80550
C9B C 0.85987(17) 0.96634(17) -0.7512(4)
H9B H 0.84960 0.99780 -0.82330
H10B H 0.81910 0.94780 -0.71820
V1E V 0.58151(3) 1.04271(3) -1.88105(7)
V2E V 0.44636(3) 0.96711(3) -1.81582(6)
V3E V 0.55018(3) 0.90626(3) -2.03512(6)
N1E N 0.68433(15) 0.79006(15) -1.3771(3)
O1E O 0.50173(12) 0.89095(12) -1.8586(3)
O3E O 0.52783(12) 1.00095(12) -1.7339(2)
O4E O 0.52542(12) 1.11110(13) -1.8749(3)
O5E O 0.61141(12) 0.95193(12) -1.9095(3)
O6E O 0.58440(13) 0.95024(13) -2.1755(3)
O7E O 0.60966(13) 1.06148(13) -2.0521(3)
O8E O 0.58730(14) 0.83847(15) -2.0360(3)
O9E O 0.41612(16) 0.94069(14) -1.6758(3)
O10E O 0.63948(14) 1.06494(15) -1.7848(3)
C1E C 0.62062(17) 0.86323(17) -1.5770(4)
C2E C 0.62787(18) 0.88493(19) -1.4437(4)
H1E H 0.61080 0.92530 -1.41800
C3E C 0.63792(18) 0.91781(17) -1.7980(4)
H2E H 0.65710 0.87750 -1.83190
H3E H 0.67250 0.94370 -1.75660
C4E C 0.58755(17) 0.90179(17) -1.6877(3)
C5E C 0.55887(18) 0.96402(19) -1.6305(4)
H4E H 0.59340 0.98990 -1.58870
H5E H 0.52760 0.95340 -1.55830
C6E C 0.67531(18) 0.76791(18) -1.5045(4)
H6E H 0.69050 0.72630 -1.52590
C7E C 0.65977(18) 0.84801(19) -1.3484(4)
H7E H 0.66460 0.86430 -1.25870
C8E C 0.64512(18) 0.80246(19) -1.6056(4)
H8E H 0.64100 0.78500 -1.69450
C9E C 0.53366(17) 0.85987(17) -1.7488(4)
H9E H 0.50220 0.84960 -1.67670
H10E H 0.55220 0.81910 -1.78180
V1G V 0.91849(3) 0.45729(3) -1.88105(7)
V2G V 1.05364(3) 0.53289(3) -1.81582(6)
V3G V 0.94982(3) 0.59374(3) -2.03512(6)
N1G N 0.81567(15) 0.70994(15) -1.3771(3)
O1G O 0.99827(12) 0.60905(12) -1.8586(3)
O3G O 0.97217(12) 0.49905(12) -1.7339(2)
O4G O 0.97458(12) 0.38890(13) -1.8749(3)
O5G O 0.88859(12) 0.54807(12) -1.9095(3)
O6G O 0.91560(13) 0.54976(13) -2.1755(3)
O7G O 0.89034(13) 0.43852(13) -2.0521(3)
O8G O 0.91270(14) 0.66153(15) -2.0360(3)
O9G O 1.08388(16) 0.55931(14) -1.6758(3)
O10G O 0.86052(14) 0.43506(15) -1.7848(3)
C1G C 0.87938(17) 0.63677(17) -1.5770(4)
C2G C 0.87213(18) 0.61507(19) -1.4437(4)
H1G H 0.88920 0.57470 -1.41800
C3G C 0.86208(18) 0.58219(17) -1.7980(4)
H2G H 0.84290 0.62250 -1.83190
H3G H 0.82750 0.55630 -1.75660
C4G C 0.91245(17) 0.59821(17) -1.6877(3)
C5G C 0.94113(18) 0.53598(19) -1.6305(4)
H4G H 0.90660 0.51010 -1.58870
H5G H 0.97240 0.54660 -1.55830
C6G C 0.82469(18) 0.73209(18) -1.5045(4)
H6G H 0.80950 0.77370 -1.52590
C7G C 0.84023(18) 0.65199(19) -1.3484(4)
H7G H 0.83540 0.63570 -1.25870
C8G C 0.85488(18) 0.69754(19) -1.6056(4)
H8G H 0.85900 0.71500 -1.69450
C9G C 0.96634(17) 0.64013(17) -1.7488(4)
H9G H 0.99780 0.65040 -1.67670
H10G H 0.94780 0.68090 -1.78180
V1D V 0.54271(3) 0.41849(3) -0.38105(7)
V1F V 0.95729(3) 1.08151(3) -0.38105(7)
V2A V 0.55364(3) 1.03289(3) -2.18418(6)
V2C V 0.94636(3) 0.46711(3) -2.18418(6)
V2D V 0.46711(3) 0.55364(3) -0.31582(6)
V2F V 1.03289(3) 0.94636(3) -0.31582(6)
V3A V 0.44982(3) 1.09374(3) -1.96488(6)
V3C V 1.05018(3) 0.40626(3) -1.96488(6)
V3D V 0.40626(3) 0.44982(3) -0.53512(6)
V3F V 1.09374(3) 1.05018(3) -0.53512(6)
O2A O 0.50000 1.00000 -2.00000
O2C O 1.00000 0.50000 -2.00000
O4A O 0.47458(12) 0.88890(13) -2.1251(3)
O4C O 1.02542(12) 0.61110(13) -2.1251(3)
O4D O 0.61110(12) 0.47458(13) -0.3749(3)
O4F O 0.88890(12) 1.02542(13) -0.3749(3)
O6A O 0.41560(13) 1.04976(13) -1.8245(3)
O6C O 1.08440(13) 0.45024(13) -1.8245(3)
O6D O 0.45024(13) 0.41560(13) -0.6755(3)
O6F O 1.04976(13) 1.08440(13) -0.6755(3)
O7A O 0.39034(13) 0.93852(13) -1.9479(3)
O7C O 1.10966(13) 0.56148(13) -1.9479(3)
O7D O 0.56148(13) 0.39034(13) -0.5521(3)
O7F O 0.93852(13) 1.10966(13) -0.5521(3)
#END
