
#######################################################################
#
#                 Cambridge Crystallographic Data Centre
#                                CCDC
#
#######################################################################
#
# If this CIF has been generated from an entry in the Cambridge
# Structural Database, then it will include bibliographic, chemical,
# crystal, experimental, refinement or atomic coordinate data resulting
# from the CCDC's data processing and validation procedures.
#
#######################################################################

data_CSD_CIF_SIHKUQ
_audit_creation_date 2007-12-12
_audit_creation_method CSD-ConQuest-V1
_database_code_CSD SIHKUQ
_database_code_depnum_ccdc_archive 'CCDC 656129'
_chemical_formula_sum 'C18 H30 Na2 O50 P2 Pr6'
_chemical_formula_moiety
;
(Na1 1+)2n,n(C18 H22 O46 P2 Pr6 2-),4n(H2 O1)
;
_journal_coden_Cambridge 1096
_journal_volume 19
_journal_year 2007
_journal_page_first 3232
_journal_name_full 'Chem.Mater. '
loop_
_publ_author_name
"Ya-Ling Huang"
"Meow-Yu Huang"
"Tsung-Han Chan"
"Bor-Chen Chang"
"Kwang-Hwa Lii"
_chemical_name_systematic
;
catena-(disodium 
bis(\m~4~-methylphosphonato)-(\m~4~-oxalato)-bis(\m~3~-oxalato)-pentakis(\m~2~
-oxalato)-octa-aqua-hexa-praseodymium(iii) tetrahydrate)
;
_cell_volume   1174.569
_exptl_crystal_colour 'green'
_exptl_crystal_density_diffrn 2.827
_exptl_special_details
;
photoluminescent
The authors state that the Na atom is coordinated by seven O atoms, 
comprising three water molecules and four oxalate O atoms. These Na bonds 
have not been represented due to the complexity of the structure
;
_exptl_crystal_description 'tablet'
_diffrn_ambient_temperature 296
#These two values have been output from a single CSD field.
_refine_ls_R_factor_gt 0.0308
_refine_ls_wR_factor_gt 0.0308
_symmetry_cell_setting triclinic
_symmetry_space_group_name_H-M 'P -1'
_symmetry_Int_Tables_number 2
loop_
_symmetry_equiv_pos_site_id
_symmetry_equiv_pos_as_xyz
1 x,y,z
2 -x,-y,-z
_cell_length_a 9.1254(11)
_cell_length_b 9.5493(12)
_cell_length_c 14.0728(17)
_cell_angle_alpha 75.086(2)
_cell_angle_beta 86.611(2)
_cell_angle_gamma 82.545(2)
_cell_formula_units_Z 1
loop_
_atom_type_symbol
_atom_type_radius_bond
C 0.68
H 0.23
Na 1.29
O 0.68
P 1.01
Pr 1.76
loop_
_atom_site_label
_atom_site_type_symbol
_atom_site_fract_x
_atom_site_fract_y
_atom_site_fract_z
Na1 Na 0.3806(3) 0.8437(3) -0.22409(18)
Pr1 Pr 0.22191(3) 0.43454(3) 0.15837(2)
Pr2 Pr -0.18757(3) 0.13786(3) -0.03810(2)
Pr3 Pr -0.26700(3) 0.22640(3) 0.49614(2)
P1 P 0.11090(14) 0.27921(14) -0.04635(10)
O1 O 0.1756(4) 0.3206(4) 0.0367(3)
O2 O -0.0465(4) 0.3557(4) -0.0725(3)
O3 O 0.0923(4) 0.1143(4) -0.0222(3)
O4 O -0.2062(4) 0.2927(4) 0.3142(3)
O5 O -0.0309(4) 0.3573(4) 0.2004(3)
O6 O 0.1417(4) 0.3894(5) 0.3357(3)
O7 O -0.0252(4) 0.3117(5) 0.4528(3)
O8 O 0.2913(5) 0.6585(4) 0.3584(3)
O9 O 0.2480(4) 0.6816(4) 0.1998(3)
O10 O 0.0787(4) 0.9316(4) 0.1934(3)
O11 O 0.1154(4) 0.9057(4) 0.3540(3)
O12 O -0.3848(4) 0.0316(4) -0.1051(3)
O13 O -0.6029(4) -0.0577(4) -0.0799(3)
O14 O 0.4826(4) 0.3514(4) 0.0994(3)
O15 O 0.6516(4) 0.3802(4) -0.0237(3)
O16 O -0.5280(4) 0.3176(4) 0.5321(3)
O17 O -0.6681(4) 0.5085(4) 0.5652(3)
O18 O -0.3855(4) 0.0119(4) 0.5915(3)
O19 O -0.5554(4) -0.1373(4) 0.5984(3)
O20 O 0.4333(4) 0.4168(5) 0.2801(3)
O21 O 0.3020(4) 0.1655(4) 0.2291(3)
O22 O -0.1415(4) 0.1526(4) 0.1346(3)
O23 O -0.1363(4) 0.0054(5) 0.4486(3)
O24 O 0.1004(6) -0.6636(6) 0.6258(4)
O25 O 0.3058(7) 1.1026(6) -0.3179(5)
C1 C -0.0812(5) 0.3302(6) 0.2871(4)
C2 C 0.0219(6) 0.3473(6) 0.3651(4)
C3 C 0.2318(6) 0.7222(6) 0.2791(4)
C4 C 0.1316(5) 0.8659(6) 0.2755(4)
C5 C -0.4968(5) -0.0063(6) -0.0541(4)
C6 C 0.5390(5) 0.4222(6) 0.0224(4)
C7 C -0.5561(6) 0.4484(6) 0.5280(4)
C8 C -0.4828(6) -0.0361(6) 0.5543(4)
C9 C 0.2310(6) 0.3205(7) -0.1498(4)
H1 H 0.31760 0.24980 -0.14180
H2 H 0.20430 0.29940 -0.20260
H3 H 0.29150 0.38370 -0.15500
Pr1A Pr -0.22191(3) 0.56546(3) -0.15837(2)
Pr1A* Pr 0.77809(3) 0.56546(3) -0.15837(2)
Pr2A Pr 0.18757(3) 0.86214(3) 0.03810(2)
Pr2A* Pr 0.18757(3) -0.13786(3) 0.03810(2)
Pr2A** Pr -0.81243(3) -0.13786(3) 0.03810(2)
Pr2* Pr 0.81243(3) 0.13786(3) -0.03810(2)
Pr2** Pr -0.18757(3) 1.13786(3) -0.03810(2)
Pr3A Pr 0.26700(3) 0.77360(3) 0.50386(2)
Pr3A* Pr -0.73300(3) 0.77360(3) 0.50386(2)
Pr3A** Pr -0.73300(3) -0.22640(3) 0.50386(2)
Pr3* Pr -0.26700(3) 0.22640(3) -0.50386(2)
Pr3A*** Pr 0.26700(3) 0.77360(3) -0.49614(2)
P1A P -0.11090(14) 0.72079(14) 0.04635(10)
O1A O -0.1756(4) 0.6794(4) -0.0367(3)
O2A O 0.0465(4) 0.6443(4) 0.0725(3)
O3A O -0.0923(4) 0.8857(4) 0.0222(3)
O3A* O -0.0923(4) -0.1143(4) 0.0222(3)
O3* O 0.0923(4) 1.1143(4) -0.0222(3)
O4A O 0.2062(4) 0.7073(4) -0.3142(3)
O4A* O 0.2062(4) 0.7073(4) 0.6858(3)
O5A O 0.0309(4) 0.6427(4) -0.2004(3)
O6A O -0.1417(4) 0.6106(5) -0.3357(3)
O7A O 0.0252(4) 0.6883(5) -0.4528(3)
O7A* O 0.0252(4) 0.6883(5) 0.5472(3)
O8A O -0.2913(5) 0.3415(4) -0.3584(3)
O8A* O -0.2913(5) 0.3415(4) 0.6416(3)
O9A O -0.2480(4) 0.3184(4) -0.1998(3)
O10A O -0.0787(4) 0.0684(4) -0.1934(3)
O11A O -0.1154(4) 0.0943(4) -0.3540(3)
O11A* O -0.1154(4) 0.0943(4) 0.6460(3)
O12A O -0.6152(4) -0.0316(4) 0.1051(3)
O12A* O 0.3848(4) 0.9684(4) 0.1051(3)
O13A O -0.3971(4) 0.0577(4) 0.0799(3)
O13* O 0.3971(4) 0.9423(4) -0.0799(3)
O14A O 0.5174(4) 0.6486(4) -0.0994(3)
O14A* O -0.4826(4) 0.6486(4) -0.0994(3)
O15A O 0.3484(4) 0.6198(4) 0.0237(3)
O15* O -0.3484(4) 0.3802(4) -0.0237(3)
O16A O -0.4720(4) 0.6824(4) 0.4679(3)
O16A* O 0.5280(4) 0.6824(4) 0.4679(3)
O17A O -0.3319(4) 0.4915(4) 0.4348(3)
O17* O 0.3319(4) 0.5085(4) 0.5652(3)
O18A O -0.6145(4) -0.0119(4) 0.4085(3)
O18A* O 0.3855(4) 0.9881(4) 0.4085(3)
O19A O -0.4446(4) 0.1373(4) 0.4016(3)
O19* O 0.4446(4) 0.8627(4) 0.5984(3)
O20A O -0.4333(4) 0.5832(5) -0.2801(3)
O21A O -0.3020(4) 0.8345(4) -0.2291(3)
O22A O 0.1415(4) 0.8474(4) -0.1346(3)
O23A O 0.1363(4) 0.9946(5) 0.5514(3)
C1A C 0.0812(5) 0.6698(6) -0.2871(4)
C2A C -0.0219(6) 0.6527(6) -0.3651(4)
C3A C -0.2318(6) 0.2778(6) -0.2791(4)
C4A C -0.1316(5) 0.1341(6) -0.2755(4)
C5A C -0.5032(5) 0.0063(6) 0.0541(4)
C6A C 0.4610(5) 0.5778(6) -0.0224(4)
C7A C -0.4439(6) 0.5516(6) 0.4720(4)
C8A C -0.5172(6) 0.0361(6) 0.4457(4)
C9A C -0.2310(6) 0.6795(7) 0.1498(4)
H1A H -0.31760 0.75020 0.14180
H2A H -0.20430 0.70060 0.20260
H3A H -0.29150 0.61630 0.15500
#END
