
#######################################################################
#
#                 Cambridge Crystallographic Data Centre
#                                CCDC
#
#######################################################################
#
# If this CIF has been generated from an entry in the Cambridge
# Structural Database, then it will include bibliographic, chemical,
# crystal, experimental, refinement or atomic coordinate data resulting
# from the CCDC's data processing and validation procedures.
#
#######################################################################

data_CSD_CIF_SIHKOK
_audit_creation_date 2007-12-12
_audit_creation_method CSD-ConQuest-V1
_database_code_CSD SIHKOK
_database_code_depnum_ccdc_archive 'CCDC 656128'
_chemical_formula_sum 'C18 H30 Na2 Nd6 O50 P2'
_chemical_formula_moiety
;
(Na1 1+)2n,n(C18 H22 Nd6 O46 P2 2-),4n(H2 O1)
;
_journal_coden_Cambridge 1096
_journal_volume 19
_journal_year 2007
_journal_page_first 3232
_journal_name_full 'Chem.Mater. '
loop_
_publ_author_name
"Ya-Ling Huang"
"Meow-Yu Huang"
"Tsung-Han Chan"
"Bor-Chen Chang"
"Kwang-Hwa Lii"
_chemical_name_systematic
;
catena-(disodium 
bis(\m~4~-methylphosphonato)-(\m~4~-oxalato)-bis(\m~3~-oxalato)-pentakis(\m~2~
-oxalato)-octa-aqua-hexa-neodymium(iii) tetrahydrate)
;
_cell_volume   1156.912
_exptl_crystal_colour 'pale pink'
_exptl_crystal_density_diffrn 2.899
_exptl_special_details
;
magnetic properties; photoluminescent
The authors state that the Na atom is coordinated by seven O atoms, 
comprising three water molecules and four oxalate O atoms. These Na bonds 
have not been represented due to the complexity of the structure
;
_exptl_crystal_description 'block'
_diffrn_ambient_temperature 296
#These two values have been output from a single CSD field.
_refine_ls_R_factor_gt 0.0172
_refine_ls_wR_factor_gt 0.0172
_symmetry_cell_setting triclinic
_symmetry_space_group_name_H-M 'P -1'
_symmetry_Int_Tables_number 2
loop_
_symmetry_equiv_pos_site_id
_symmetry_equiv_pos_as_xyz
1 x,y,z
2 -x,-y,-z
_cell_length_a 9.0682(2)
_cell_length_b 9.5114(3)
_cell_length_c 14.0066(4)
_cell_angle_alpha 74.975(2)
_cell_angle_beta 86.534(2)
_cell_angle_gamma 82.725(2)
_cell_formula_units_Z 1
loop_
_atom_type_symbol
_atom_type_radius_bond
C 0.68
H 0.23
Na 1.36
Nd 1.73
O 0.68
P 1.02
loop_
_atom_site_label
_atom_site_type_symbol
_atom_site_fract_x
_atom_site_fract_y
_atom_site_fract_z
Na1 Na 0.38021(15) 0.84584(18) -0.22409(11)
Nd1 Nd 0.222174(17) 0.435559(18) 0.158671(13)
Nd2 Nd -0.186940(17) 0.137850(18) -0.038450(13)
Nd3 Nd -0.267500(17) 0.226650(19) 0.496550(13)
P1 P 0.11107(8) 0.27961(9) -0.04589(7)
O1 O 0.1740(2) 0.3225(2) 0.03749(17)
O2 O -0.0469(2) 0.3563(2) -0.07312(17)
O3 O 0.0917(2) 0.1133(2) -0.02188(16)
O4 O -0.2072(2) 0.2926(3) 0.31506(17)
O5 O -0.0307(2) 0.3588(2) 0.20001(16)
O6 O 0.1444(2) 0.3875(3) 0.33637(18)
O7 O -0.0255(2) 0.3104(3) 0.45439(17)
O8 O 0.2898(3) 0.6585(3) 0.35875(18)
O9 O 0.2467(2) 0.6812(2) 0.20037(17)
O10 O 0.0782(2) 0.9324(2) 0.19334(17)
O11 O 0.1161(2) 0.9059(2) 0.35427(17)
O12 O -0.3844(2) 0.0327(2) -0.10517(17)
O13 O -0.6027(2) -0.0574(2) -0.07981(17)
O14 O 0.4809(2) 0.3499(2) 0.09866(17)
O15 O 0.6516(2) 0.3799(2) -0.02494(16)
O16 O -0.5284(2) 0.3168(2) 0.53419(19)
O17 O -0.6686(2) 0.5090(2) 0.56558(17)
O18 O -0.3857(2) 0.0130(2) 0.59208(17)
O19 O -0.5550(2) -0.1392(2) 0.59835(16)
O20 O 0.4343(2) 0.4190(3) 0.27693(19)
H1 H 0.42860 0.50160 0.30240
H2 H 0.46670 0.33480 0.31840
O21 O 0.2983(3) 0.1696(2) 0.22839(17)
H3 H 0.31120 0.10440 0.28720
H4 H 0.29680 0.09950 0.19690
O22 O -0.1425(2) 0.1547(2) 0.13260(16)
H5 H -0.07170 0.08240 0.16480
H6 H -0.12980 0.24040 0.14140
O23 O -0.1377(2) 0.0064(3) 0.45134(19)
H7 H -0.05980 -0.03590 0.43080
H8 H -0.19600 -0.00150 0.40240
O24 O 0.0965(3) -0.6636(3) 0.6294(2)
H9 H 0.18600 -0.61340 0.59960
H10 H 0.04530 -0.65480 0.56370
O25 O 0.3044(3) 1.0995(3) -0.3168(3)
H11 H 0.20390 1.16420 -0.32670
H12 H 0.37070 1.15970 -0.36580
C1 C -0.0823(3) 0.3320(3) 0.2869(3)
C2 C 0.0223(3) 0.3457(4) 0.3659(3)
C3 C 0.2319(3) 0.7222(3) 0.2793(3)
C4 C 0.1320(3) 0.8667(3) 0.2755(3)
C5 C -0.4967(3) -0.0072(3) -0.0533(2)
C6 C 0.5373(3) 0.4214(3) 0.0222(2)
C7 C -0.5571(3) 0.4490(4) 0.5288(2)
C8 C -0.4826(3) -0.0377(3) 0.5550(2)
C9 C 0.2371(4) 0.3207(4) -0.1499(3)
H13 H 0.34390 0.26040 -0.14420
H14 H 0.18080 0.32700 -0.20290
H15 H 0.27630 0.41920 -0.16160
Nd1A Nd -0.222174(17) 0.564441(18) -0.158671(13)
Nd1A* Nd 0.777826(17) 0.564441(18) -0.158671(13)
Nd2A Nd 0.186940(17) 0.862150(18) 0.038450(13)
Nd2A* Nd 0.186940(17) -0.137850(18) 0.038450(13)
Nd2A** Nd -0.813060(17) -0.137850(18) 0.038450(13)
Nd2* Nd 0.813060(17) 0.137850(18) -0.038450(13)
Nd2** Nd -0.186940(17) 1.137850(18) -0.038450(13)
Nd3A Nd 0.267500(17) 0.773350(19) 0.503450(13)
Nd3A* Nd -0.732500(17) 0.773350(19) 0.503450(13)
Nd3A** Nd -0.732500(17) -0.226650(19) 0.503450(13)
Nd3* Nd -0.267500(17) 0.226650(19) -0.503450(13)
Nd3A*** Nd 0.267500(17) 0.773350(19) -0.496550(13)
P1A P -0.11107(8) 0.72039(9) 0.04589(7)
O1A O -0.1740(2) 0.6775(2) -0.03749(17)
O2A O 0.0469(2) 0.6437(2) 0.07312(17)
O3A O -0.0917(2) 0.8867(2) 0.02188(16)
O3A* O -0.0917(2) -0.1133(2) 0.02188(16)
O3* O 0.0917(2) 1.1133(2) -0.02188(16)
O4A O 0.2072(2) 0.7074(3) -0.31506(17)
O4A* O 0.2072(2) 0.7074(3) 0.68494(17)
O5A O 0.0307(2) 0.6412(2) -0.20001(16)
O6A O -0.1444(2) 0.6125(3) -0.33637(18)
O7A O 0.0255(2) 0.6896(3) -0.45439(17)
O7A* O 0.0255(2) 0.6896(3) 0.54561(17)
O8A O -0.2898(3) 0.3415(3) -0.35875(18)
O8A* O -0.2898(3) 0.3415(3) 0.64125(18)
O9A O -0.2467(2) 0.3188(2) -0.20037(17)
O10A O -0.0782(2) 0.0676(2) -0.19334(17)
O11A O -0.1161(2) 0.0941(2) -0.35427(17)
O11A* O -0.1161(2) 0.0941(2) 0.64573(17)
O12A O -0.6156(2) -0.0327(2) 0.10517(17)
O12A* O 0.3844(2) 0.9673(2) 0.10517(17)
O13A O -0.3973(2) 0.0574(2) 0.07981(17)
O13* O 0.3973(2) 0.9426(2) -0.07981(17)
O14A O 0.5191(2) 0.6501(2) -0.09866(17)
O14A* O -0.4809(2) 0.6501(2) -0.09866(17)
O15A O 0.3484(2) 0.6201(2) 0.02494(16)
O15* O -0.3484(2) 0.3799(2) -0.02494(16)
O16A O -0.4716(2) 0.6832(2) 0.46581(19)
O16A* O 0.5284(2) 0.6832(2) 0.46581(19)
O17A O -0.3314(2) 0.4910(2) 0.43442(17)
O17* O 0.3314(2) 0.5090(2) 0.56558(17)
O18A O -0.6143(2) -0.0130(2) 0.40792(17)
O18A* O 0.3857(2) 0.9870(2) 0.40792(17)
O19A O -0.4450(2) 0.1392(2) 0.40165(16)
O19* O 0.4450(2) 0.8608(2) 0.59835(16)
O20A O -0.4343(2) 0.5810(3) -0.27693(19)
H1A H -0.42860 0.49840 -0.30240
H2A H -0.46670 0.66520 -0.31840
O21A O -0.2983(3) 0.8304(2) -0.22839(17)
H3A H -0.31120 0.89560 -0.28720
H4A H -0.29680 0.90050 -0.19690
O22A O 0.1425(2) 0.8453(2) -0.13260(16)
H5A H 0.07170 0.91760 -0.16480
H6A H 0.12980 0.75960 -0.14140
O23A O 0.1377(2) 0.9936(3) 0.54866(19)
H7A H 0.05980 1.03590 0.56920
H8A H 0.19600 1.00150 0.59760
C1A C 0.0823(3) 0.6680(3) -0.2869(3)
C2A C -0.0223(3) 0.6543(4) -0.3659(3)
C3A C -0.2319(3) 0.2778(3) -0.2793(3)
C4A C -0.1320(3) 0.1333(3) -0.2755(3)
C5A C -0.5033(3) 0.0072(3) 0.0533(2)
C6A C 0.4627(3) 0.5786(3) -0.0222(2)
C7A C -0.4429(3) 0.5510(4) 0.4712(2)
C8A C -0.5174(3) 0.0377(3) 0.4450(2)
C9A C -0.2371(4) 0.6793(4) 0.1499(3)
H13A H -0.34390 0.73960 0.14420
H14A H -0.18080 0.67300 0.20290
H15A H -0.27630 0.58080 0.16160
#END
