
#######################################################################
#
#                 Cambridge Crystallographic Data Centre
#                                CCDC
#
#######################################################################
#
# If this CIF has been generated from an entry in the Cambridge
# Structural Database, then it will include bibliographic, chemical,
# crystal, experimental, refinement or atomic coordinate data resulting
# from the CCDC's data processing and validation procedures.
#
#######################################################################

data_CSD_CIF_SIHROR
_audit_creation_date 2007-12-12
_audit_creation_method CSD-ConQuest-V1
_database_code_CSD SIHROR
_database_code_depnum_ccdc_archive 'CCDC 604135'
_chemical_formula_sum 'C16 H18 Cu12 Mo12 N24 O41 P1'
_chemical_formula_moiety
;
(Mo12 O40 P1 4-)n,n(C16 H16 Cu12 N24 4+),n(H2 O1)
;
_journal_coden_Cambridge 155
_journal_volume 360
_journal_year 2007
_journal_page_first 3484
_journal_name_full 'Inorg.Chim.Acta '
loop_
_publ_author_name
"Quanguo Zhai"
"Xiaoyuan Wu"
"Shumei Chen"
"Lijuan Chen"
"Canzhong Lu"
_chemical_name_systematic
;
catena-(\a-octakis(\m~3~-1,2,4-Triazolato)-dodeca-copper 
(\m~12~-phosphato)-tetracosakis(\m~2~-oxo)-dodecaoxo-dodeca-molybdenum 
monohydrate clathrate)
;
_cell_volume   6275.580
_exptl_crystal_colour 'black'
_exptl_crystal_density_diffrn 3.329
_exptl_crystal_description 'dodecahedron'
_diffrn_ambient_temperature 293
#These two values have been output from a single CSD field.
_refine_ls_R_factor_gt 0.0791
_refine_ls_wR_factor_gt 0.0791
_symmetry_cell_setting monoclinic
_symmetry_space_group_name_H-M 'C 2/c'
_symmetry_Int_Tables_number 15
loop_
_symmetry_equiv_pos_site_id
_symmetry_equiv_pos_as_xyz
1 x,y,z
2 1/2+x,1/2+y,z
3 -x,y,1/2-z
4 1/2-x,1/2+y,1/2-z
5 -x,-y,-z
6 -1/2-x,-1/2-y,-z
7 x,-y,-1/2+z
8 -1/2+x,-1/2-y,-1/2+z
_cell_length_a 24.9362(2)
_cell_length_b 14.5323(2)
_cell_length_c 17.4102(2)
_cell_angle_alpha 90
_cell_angle_beta 95.91
_cell_angle_gamma 90
_cell_formula_units_Z 4
loop_
_atom_type_symbol
_atom_type_radius_bond
C 0.68
H 0.23
Cu 1.31
Mo 1.37
N 0.68
O 0.69
P 1.05
loop_
_atom_site_label
_atom_site_type_symbol
_atom_site_fract_x
_atom_site_fract_y
_atom_site_fract_z
P1 P 0.50000 0.2556(3) 0.75000
Cu1 Cu 0.33392(11) 0.37707(16) 1.00047(13)
Cu2 Cu 0.22885(9) 0.14092(19) 0.8561(2)
Cu3 Cu 0.22787(9) 0.38475(15) 0.84502(13)
Cu4 Cu 0.33663(9) 0.13309(14) 1.00132(13)
Cu5 Cu 0.29161(9) 0.75821(13) 0.90932(13)
Cu6 Cu 0.53704(7) 0.25066(17) 1.16414(11)
Mo1 Mo 0.40949(5) 0.08143(10) 0.67619(8)
Mo2 Mo 0.36638(5) 0.2619(1) 0.80523(8)
Mo3 Mo 0.40620(5) 0.42889(9) 0.68582(8)
Mo4 Mo 0.46354(5) 0.08279(10) 0.88222(9)
Mo5 Mo 0.44557(6) 0.24881(10) 0.55320(7)
Mo6 Mo 0.45610(5) 0.42749(10) 0.87619(8)
C1 C 0.2575(6) -0.0533(11) 0.867(1)
H1 H 0.23280 -0.07090 0.82590
C2 C 0.1356(6) 0.1853(10) 0.7487(9)
H2 H 0.12620 0.12390 0.74030
C3 C 0.1342(6) 0.3284(11) 0.7445(10)
H3 H 0.12390 0.38870 0.73290
C4 C 0.2601(6) 0.5724(10) 0.8669(9)
H4 H 0.23580 0.59150 0.82590
C5 C 0.3178(7) -0.0575(11) 0.9590(9)
H5 H 0.34400 -0.07880 0.99660
C6 C 0.3191(6) 0.5718(11) 0.9608(9)
H6 H 0.34510 0.59100 0.99970
C7 C 0.4355(6) 0.1843(12) 1.0918(10)
H7 H 0.44510 0.12310 1.10090
C8 C 0.4369(6) 0.3269(10) 1.0876(8)
H8 H 0.44830 0.38760 1.09440
N1 N 0.3059(5) 0.0301(8) 0.9490(8)
N2 N 0.2887(5) -0.1128(8) 0.9099(8)
N3 N 0.2912(6) 0.6303(9) 0.9114(7)
N4 N 0.3062(5) 0.4859(9) 0.9486(7)
N5 N 0.1057(5) 0.2564(9) 0.7187(7)
N6 N 0.2654(5) 0.0324(9) 0.8890(7)
N7 N 0.1795(5) 0.2123(9) 0.7913(8)
N8 N 0.1786(5) 0.3072(8) 0.7882(7)
N9 N 0.2671(5) 0.4856(9) 0.8869(7)
N10 N 0.3912(4) 0.3044(7) 1.0509(7)
N11 N 0.3891(5) 0.2101(9) 1.0544(8)
N12 N 0.4667(4) 0.2545(9) 1.1150(7)
O1 O 0.3040(4) 0.2434(9) 0.8319(7)
O2 O 0.3703(4) 0.1755(7) 0.7242(6)
O3 O 0.3518(4) 0.3578(7) 0.7300(6)
O4 O 0.4095(4) 0.1764(8) 0.8680(6)
O5 O 0.4756(4) 0.4615(7) 0.6595(6)
O6 O 0.3915(4) 0.3566(8) 0.8771(6)
O7 O 0.3999(4) 0.1541(7) 0.5822(5)
O8 O 0.4376(4) 0.0483(8) 0.7768(6)
O9 O 0.4693(4) 0.0248(7) 0.6344(7)
O10 O 0.4210(4) 0.4862(7) 0.7845(6)
O11 O 0.4070(4) 0.3357(7) 0.6094(6)
O12 O 0.4814(4) 0.1943(6) 0.6808(5)
O13 O 0.4531(3) 0.3166(6) 0.7699(5)
O14 O 0.4353(5) 0.0030(9) 0.9339(8)
O15 O 0.5040(4) 0.3336(7) 0.5673(6)
O16 O 0.5020(4) 0.1551(7) 0.9609(6)
O17 O 0.3664(4) 0.5087(8) 0.6395(7)
O18 O 0.4188(5) 0.2681(9) 0.4625(6)
O19 O 0.4470(5) 0.5076(9) 0.9422(7)
O20 O 0.3613(4) 0.0011(8) 0.6545(7)
O21 O 0.25000 0.25000 1.00000
Cu1G Cu 0.83392(11) 0.12293(16) 1.50047(13)
Cu1* Cu 0.33392(11) 1.37707(16) 1.00047(13)
Cu2* Cu 0.22885(9) 1.14092(19) 0.8561(2)
Cu2G Cu 0.72885(9) 0.35908(19) 1.3561(2)
Cu3G Cu 0.72787(9) 0.11525(15) 1.34502(13)
Cu4* Cu 0.33663(9) 1.13309(14) 1.00132(13)
Cu5* Cu 0.29161(9) -0.24179(13) 0.90932(13)
Cu5G Cu 0.79161(9) -0.25821(13) 1.40932(13)
Cu6G Cu 0.03704(7) 0.24934(17) 0.66414(11)
Cu6* Cu 0.53704(7) 1.25066(17) 1.16414(11)
Mo1B Mo 0.59051(5) 0.08143(10) 0.82381(8)
Mo2B Mo 0.63362(5) 0.2619(1) 0.69477(8)
Mo3B Mo 0.59380(5) 0.42889(9) 0.81418(8)
Mo4B Mo 0.53646(5) 0.08279(10) 0.61778(9)
Mo5B Mo 0.55443(6) 0.24881(10) 0.94680(7)
Mo6B Mo 0.54390(5) 0.42749(10) 0.62381(8)
C1* C 0.2575(6) 0.9467(11) 0.867(1)
H1* H 0.23280 0.92910 0.82590
C2G C 0.6356(6) 0.3147(10) 1.2487(9)
H2G H 0.62620 0.37610 1.24030
C3G C 0.6342(6) 0.1716(11) 1.2445(10)
H3G H 0.62390 0.11130 1.23290
C4G C 0.7601(6) -0.0724(10) 1.3669(9)
H4G H 0.73580 -0.09150 1.32590
C5* C 0.3178(7) 0.9425(11) 0.9590(9)
H5* H 0.34400 0.92120 0.99660
C6G C 0.8191(6) -0.0718(11) 1.4608(9)
H6G H 0.84510 -0.09100 1.49970
C7* C 0.4355(6) 1.1843(12) 1.0918(10)
H7* H 0.44510 1.12310 1.10090
C8* C 0.4369(6) 1.3269(10) 1.0876(8)
H8* H 0.44830 1.38760 1.09440
N1* N 0.3059(5) 1.0301(8) 0.9490(8)
N2* N 0.2887(5) 0.8872(8) 0.9099(8)
N3G N 0.7912(6) -0.1303(9) 1.4114(7)
N3* N 0.2912(6) -0.3697(9) 0.9114(7)
N4G N 0.8062(5) 0.0141(9) 1.4486(7)
N5G N 0.6057(5) 0.2436(9) 1.2187(7)
N6* N 0.2654(5) 1.0324(9) 0.8890(7)
N7G N 0.6795(5) 0.2877(9) 1.2913(8)
N7* N 0.1795(5) 1.2123(9) 0.7913(8)
N8G N 0.6786(5) 0.1928(8) 1.2882(7)
N9G N 0.7671(5) 0.0144(9) 1.3869(7)
N10* N 0.3912(4) 1.3044(7) 1.0509(7)
N10G N 0.8912(4) 0.1956(7) 1.5509(7)
N11* N 0.3891(5) 1.2101(9) 1.0544(8)
N12* N 0.4667(4) 1.2545(9) 1.1150(7)
N12G N -0.0333(4) 0.2455(9) 0.6150(7)
O1B O 0.6960(4) 0.2434(9) 0.6681(7)
O2B O 0.6297(4) 0.1755(7) 0.7758(6)
O3B O 0.6482(4) 0.3578(7) 0.7700(6)
O4B O 0.5905(4) 0.1764(8) 0.6320(6)
O5B O 0.5244(4) 0.4615(7) 0.8405(6)
O6B O 0.6085(4) 0.3566(8) 0.6229(6)
O7B O 0.6001(4) 0.1541(7) 0.9178(5)
O8B O 0.5624(4) 0.0483(8) 0.7232(6)
O9B O 0.5307(4) 0.0248(7) 0.8656(7)
O10B O 0.5790(4) 0.4862(7) 0.7155(6)
O11B O 0.5930(4) 0.3357(7) 0.8906(6)
O12B O 0.5186(4) 0.1943(6) 0.8192(5)
O13B O 0.5469(3) 0.3166(6) 0.7301(5)
O14B O 0.5647(5) 0.0030(9) 0.5661(8)
O15B O 0.4960(4) 0.3336(7) 0.9327(6)
O16B O 0.4980(4) 0.1551(7) 0.5391(6)
O17B O 0.6336(4) 0.5087(8) 0.8605(7)
O18B O 0.5812(5) 0.2681(9) 1.0375(6)
O19B O 0.5530(5) 0.5076(9) 0.5578(7)
O20B O 0.6387(4) 0.0011(8) 0.8455(7)
#END
