
#######################################################################
#
#                 Cambridge Crystallographic Data Centre
#                                CCDC
#
#######################################################################
#
# If this CIF has been generated from an entry in the Cambridge
# Structural Database, then it will include bibliographic, chemical,
# crystal, experimental, refinement or atomic coordinate data resulting
# from the CCDC's data processing and validation procedures.
#
#######################################################################

data_CSD_CIF_SIHRIL
_audit_creation_date 2007-12-12
_audit_creation_method CSD-ConQuest-V1
_database_code_CSD SIHRIL
_database_code_depnum_ccdc_archive 'CCDC 604134'
_chemical_formula_sum 'C16 H20 Cu12 Mo12 N24 O42 P1'
_chemical_formula_moiety
;
(Mo12 O40 P1 4-)n,n(C16 H16 Cu12 N24 4+),2n(H2 O1)
;
_journal_coden_Cambridge 155
_journal_volume 360
_journal_year 2007
_journal_page_first 3484
_journal_name_full 'Inorg.Chim.Acta '
loop_
_publ_author_name
"Quanguo Zhai"
"Xiaoyuan Wu"
"Shumei Chen"
"Lijuan Chen"
"Canzhong Lu"
_chemical_name_systematic
;
catena-(\b-octakis(\m~3~-1,2,4-Triazolato)-dodeca-copper 
(\m~12~-phosphato)-tetracosakis(\m~2~-oxo)-dodecaoxo-dodeca-molybdenum 
dihydrate clathrate)
;
_cell_volume   3205.989
_exptl_crystal_colour 'black'
_exptl_crystal_density_diffrn 3.279
_exptl_crystal_description 'block'
_diffrn_ambient_temperature 293
_refine_special_details
;
The oxygen atoms of the phosphato moiety are equally disordered over two 
sites by symmetry.
;
#These two values have been output from a single CSD field.
_refine_ls_R_factor_gt 0.0323
_refine_ls_wR_factor_gt 0.0323
_symmetry_cell_setting monoclinic
_symmetry_space_group_name_H-M 'C 2/m'
_symmetry_Int_Tables_number 12
loop_
_symmetry_equiv_pos_site_id
_symmetry_equiv_pos_as_xyz
1 x,y,z
2 1/2+x,1/2+y,z
3 -x,y,-z
4 1/2-x,1/2+y,-z
5 -x,-y,-z
6 -1/2-x,-1/2-y,-z
7 x,-y,z
8 -1/2+x,-1/2-y,z
_cell_length_a 17.7379(12)
_cell_length_b 14.5650(9)
_cell_length_c 12.4096(7)
_cell_angle_alpha 90
_cell_angle_beta 90.358(4)
_cell_angle_gamma 90
_cell_formula_units_Z 2
loop_
_atom_type_symbol
_atom_type_radius_bond
C 0.68
H 0.23
Cu 1.23
Mo 1.45
N 0.68
O 0.61
P 1.05
loop_
_atom_site_label
_atom_site_type_symbol
_atom_site_fract_x
_atom_site_fract_y
_atom_site_fract_z
Mo1 Mo 0.91830(3) -0.50000 0.23953(4)
Mo2 Mo 1.05500(2) -0.33185(3) 0.30639(3)
Mo3 Mo 0.81246(3) -0.50000 0.60044(4)
Mo4 Mo 0.87245(2) -0.32065(3) 0.42573(3)
Cu1 Cu 0.59759(5) -0.50000 0.55521(6)
Cu2 Cu 0.74880(3) -0.37420(4) 0.18157(5)
Cu3 Cu 0.43304(3) -0.61896(4) 0.92825(5)
Cu4 Cu 0.81378(5) 0.00000 0.08283(7)
P1 P 1.00000 -0.50000 0.50000
C1 C 0.7775(3) -0.1877(3) 0.1369(4)
H1 H 0.73880 -0.17120 0.18320
C2 C 0.8540(3) -0.2656(3) 0.0464(4)
H2 H 0.87960 -0.31500 0.01640
C3 C 0.5270(3) -0.5722(3) 0.7460(3)
H3 H 0.53570 -0.63300 0.72670
C4 C 0.6585(2) -0.4278(3) 0.3576(3)
H4 H 0.65080 -0.36700 0.37770
N1 N 0.7963(2) -0.2744(3) 0.1151(3)
N2 N 0.5517(3) -0.50000 0.6897(4)
N3 N 0.6361(3) -0.50000 0.4160(4)
N4 N 0.8704(2) -0.1795(3) 0.0263(3)
N5 N 0.69256(19) -0.4529(2) 0.2681(3)
N6 N 0.8201(2) -0.1280(3) 0.0852(3)
N7 N 0.48879(19) -0.5471(2) 0.8324(3)
O1 O 0.9731(3) -0.4399(3) 0.4066(4)
O2 O 0.9347(3) -0.4380(4) 0.5382(4)
O3 O 0.9993(2) -0.5882(3) 0.2224(4)
O4 O 0.8081(3) -0.5916(4) 0.4988(3)
O5 O 1.1365(3) -0.4116(3) 0.3051(3)
O6 O 0.8638(2) -0.4087(4) 0.3057(4)
O7 O 0.8110(3) -0.2417(3) 0.3869(4)
O8 O 0.9620(2) -0.2816(3) 0.3598(4)
O9 O 1.0963(3) -0.2802(3) 0.4391(3)
O10 O 0.8792(4) -0.50000 0.1171(4)
O11 O 0.7272(3) -0.50000 0.6538(4)
O12 O 1.0816(3) -0.2516(2) 0.2174(3)
O13 O 0.6732(4) 0.00000 0.0952(5)
Mo1D Mo 1.08170(3) -0.50000 0.76047(4)
Mo2F Mo 1.05500(2) -0.66815(3) 0.30639(3)
Mo2D Mo 0.94500(2) -0.66815(3) 0.69361(3)
Mo2B Mo 0.94500(2) -0.33185(3) 0.69361(3)
Mo3D Mo 1.18754(3) -0.50000 0.39956(4)
Mo4F Mo 0.87245(2) -0.67935(3) 0.42573(3)
Mo4D Mo 1.12755(2) -0.67935(3) 0.57427(3)
Mo4B Mo 1.12755(2) -0.32065(3) 0.57427(3)
Cu1A Cu 1.09759(5) 0.00000 -0.44479(6)
Cu1A* Cu 0.09759(5) -1.00000 1.55521(6)
Cu2F Cu 0.74880(3) -0.62580(4) 0.18157(5)
Cu2A Cu 0.24880(3) -0.87420(4) 1.18157(5)
Cu2G Cu 0.24880(3) -0.12580(4) 1.18157(5)
Cu2G* Cu 0.24880(3) -1.12580(4) 1.18157(5)
Cu3F Cu 0.43304(3) -0.38104(4) 0.92825(5)
Cu3A Cu 0.93304(3) -0.11896(4) -0.07175(5)
Cu3G Cu 0.93304(3) -0.88104(4) -0.07175(5)
Cu3G* Cu 0.93304(3) 0.11896(4) -0.07175(5)
Cu4A Cu 0.31378(5) -0.50000 1.08283(7)
Cu4* Cu 0.81378(5) -1.00000 0.08283(7)
C1A C 0.2775(3) -0.6877(3) 1.1369(4)
C1F C 0.7775(3) -0.8123(3) 0.1369(4)
C1G C 0.2775(3) -0.3123(3) 1.1369(4)
H1A H 0.23880 -0.67120 1.18320
H1F H 0.73880 -0.82880 0.18320
H1G H 0.23880 -0.32880 1.18320
C2A C 0.3540(3) -0.7656(3) 1.0464(4)
C2F C 0.8540(3) -0.7344(3) 0.0464(4)
C2G C 0.3540(3) -0.2344(3) 1.0464(4)
H2A H 0.37960 -0.81500 1.01640
H2F H 0.87960 -0.68500 0.01640
H2G H 0.37960 -0.18500 1.01640
C3F C 0.5270(3) -0.4278(3) 0.7460(3)
C3A C 1.0270(3) -0.0722(3) -0.2540(3)
C3G C 1.0270(3) 0.0722(3) -0.2540(3)
H3F H 0.53570 -0.36700 0.72670
H3A H 1.03570 -0.13300 -0.27330
H3G H 1.03570 0.13300 -0.27330
C4F C 0.6585(2) -0.5722(3) 0.3576(3)
C4A C 0.1585(2) -0.9278(3) 1.3576(3)
C4G C 0.1585(2) -1.0722(3) 1.3576(3)
H4F H 0.65080 -0.63300 0.37770
H4A H 0.15080 -0.86700 1.37770
H4G H 0.15080 -1.13300 1.37770
N1A N 0.2963(2) -0.7744(3) 1.1151(3)
N1F N 0.7963(2) -0.7256(3) 0.1151(3)
N1G N 0.2963(2) -0.2256(3) 1.1151(3)
N2A N 1.0517(3) 0.00000 -0.3103(4)
N3A N 0.1361(3) -1.00000 1.4160(4)
N3A* N 1.1361(3) 0.00000 -0.5840(4)
N4A N 0.3704(2) -0.6795(3) 1.0263(3)
N4F N 0.8704(2) -0.8205(3) 0.0263(3)
N4G N 0.3704(2) -0.3205(3) 1.0263(3)
N5F N 0.69256(19) -0.5471(2) 0.2681(3)
N5A N 0.19256(19) -0.9529(2) 1.2681(3)
N5G N 0.19256(19) -1.0471(2) 1.2681(3)
N5G* N 0.19256(19) -0.0471(2) 1.2681(3)
N6A N 0.3201(2) -0.6280(3) 1.0852(3)
N6F N 0.8201(2) -0.8720(3) 0.0852(3)
N6G N 0.3201(2) -0.3720(3) 1.0852(3)
N6F* N 0.8201(2) 0.1280(3) 0.0852(3)
N7F N 0.48879(19) -0.4529(2) 0.8324(3)
N7A N 0.98879(19) -0.0471(2) -0.1676(3)
N7G N 0.98879(19) 0.0471(2) -0.1676(3)
N7G* N 0.98879(19) -0.9529(2) -0.1676(3)
O1F O 0.9731(3) -0.5601(3) 0.4066(4)
O1D O 1.0269(3) -0.5601(3) 0.5934(4)
O1B O 1.0269(3) -0.4399(3) 0.5934(4)
O2F O 0.9347(3) -0.5620(4) 0.5382(4)
O2D O 1.0653(3) -0.5620(4) 0.4618(4)
O2B O 1.0653(3) -0.4380(4) 0.4618(4)
O3F O 0.9993(2) -0.4118(3) 0.2224(4)
O3D O 1.0007(2) -0.4118(3) 0.7776(4)
O3B O 1.0007(2) -0.5882(3) 0.7776(4)
O4F O 0.8081(3) -0.4084(4) 0.4988(3)
O4D O 1.1919(3) -0.4084(4) 0.5012(3)
O4B O 1.1919(3) -0.5916(4) 0.5012(3)
O5B O 0.8635(3) -0.4116(3) 0.6949(3)
O5D O 0.8635(3) -0.5884(3) 0.6949(3)
O5F O 1.1365(3) -0.5884(3) 0.3051(3)
O6F O 0.8638(2) -0.5913(4) 0.3057(4)
O6D O 1.1362(2) -0.5913(4) 0.6943(4)
O6B O 1.1362(2) -0.4087(4) 0.6943(4)
O7F O 0.8110(3) -0.7583(3) 0.3869(4)
O7D O 1.1890(3) -0.7583(3) 0.6131(4)
O7B O 1.1890(3) -0.2417(3) 0.6131(4)
O8F O 0.9620(2) -0.7184(3) 0.3598(4)
O8D O 1.0380(2) -0.7184(3) 0.6402(4)
O8B O 1.0380(2) -0.2816(3) 0.6402(4)
O9B O 0.9037(3) -0.2802(3) 0.5609(3)
O9F O 1.0963(3) -0.7198(3) 0.4391(3)
O9D O 0.9037(3) -0.7198(3) 0.5609(3)
O10D O 1.1208(4) -0.50000 0.8829(4)
O11D O 1.2728(3) -0.50000 0.3462(4)
O12F O 1.0816(3) -0.7484(2) 0.2174(3)
O12D O 0.9184(3) -0.7484(2) 0.7826(3)
O12B O 0.9184(3) -0.2516(2) 0.7826(3)
#END
