
#######################################################################
#
#                 Cambridge Crystallographic Data Centre
#                                CCDC
#
#######################################################################
#
# If this CIF has been generated from an entry in the Cambridge
# Structural Database, then it will include bibliographic, chemical,
# crystal, experimental, refinement or atomic coordinate data resulting
# from the CCDC's data processing and validation procedures.
#
#######################################################################

data_CSD_CIF_SIJCUM
_audit_creation_date 2018-08-14
_audit_creation_method CSD-ConQuest-V1
_database_code_CSD SIJCUM
_database_code_depnum_ccdc_archive 'CCDC 1015112'
_chemical_formula_sum 'C84.3 H108.7 Cd4 N12.1 O32.1'
_chemical_formula_moiety
;
(C56 H24 Cd4 N4 O24 4-)n,4(C2 H8 N1 1+),4(C2 H6 O1),4.1(C3 H7 N1 O1)
;
_journal_coden_Cambridge 1350
_journal_volume 20
_journal_year 2018
_journal_page_first 6070
_journal_name_full 'CrystEngComm '
loop_
_publ_author_name
"Yiwen Zhang"
"Kongzhao Su"
"Miao Hao"
"Lin Liu"
"Zheng-Bo Han"
"Daqiang Yuan"
_chemical_name_systematic
;
catena-[tetrakis(dimethylammonium) 
tetrakis(\m-5-(5-carboxylatopyridin-3-yl)benzene-1,3-dicarboxylato)-tetra-cadm
ium(ii) N,N-dimethylformamide ethanol solvate]
;
_chemical_name_common
;
FJI-Y8
;
_cell_volume  10702.501
_exptl_crystal_colour 'colorless'
_exptl_crystal_density_diffrn 1.399
_exptl_crystal_description 'block'
_diffrn_ambient_temperature 173
_refine_special_details
;
Disordered dimethylammonium cations, N,N-dimethylformamide and ethanol 
solvent molecules were not modelled and the disordered density was taken into 
account using the SQUEEZE/PLATON procedure.
;
#These two values have been output from a single CSD field.
_refine_ls_R_factor_gt 0.0667
_refine_ls_wR_factor_gt 0.0667
_symmetry_cell_setting monoclinic
_symmetry_space_group_name_H-M 'C 2/c'
_symmetry_Int_Tables_number 15
loop_
_symmetry_equiv_pos_site_id
_symmetry_equiv_pos_as_xyz
1 x,y,z
2 -x,y,1/2-z
3 1/2+x,1/2+y,z
4 1/2-x,1/2+y,1/2-z
5 -x,-y,-z
6 x,-y,-1/2+z
7 -1/2-x,-1/2-y,-z
8 -1/2+x,-1/2-y,-1/2+z
_cell_length_a 26.4534(15)
_cell_length_b 24.3372(13)
_cell_length_c 17.6488(8)
_cell_angle_alpha 90
_cell_angle_beta 109.622(2)
_cell_angle_gamma 90
_cell_formula_units_Z 4
loop_
_atom_type_symbol
_atom_type_radius_bond
C 0.68
H 0.23
Cd 1.44
N 0.68
O 0.68
loop_
_atom_site_label
_atom_site_type_symbol
_atom_site_fract_x
_atom_site_fract_y
_atom_site_fract_z
Cd1 Cd 0.24309(2) 0.33654(3) 0.74401(4)
Cd2 Cd 0.00000 0.54193(4) 0.75000
Cd3 Cd 0.50000 0.37214(4) 1.25000
C1 C 0.3299(4) 0.2771(4) 0.8280(6)
C2 C 0.3819(4) 0.2450(3) 0.8692(5)
C3 C 0.4162(3) 0.2605(4) 0.9416(5)
H1 H 0.40693 0.29059 0.96874
C4 C 0.4654(4) 0.2332(4) 0.9779(5)
C5 C 0.4772(4) 0.1907(4) 0.9360(6)
H2 H 0.51078 0.17252 0.95771
C6 C 0.4414(4) 0.1734(4) 0.8623(5)
C7 C 0.3947(4) 0.2025(4) 0.8289(6)
H3 H 0.37104 0.19283 0.77689
C8 C 0.4556(4) 0.1252(4) 0.8193(6)
C9 C 0.5054(4) 0.2503(4) 1.0554(5)
C10 C 0.5565(4) 0.2291(4) 1.0842(6)
H4 H 0.56746 0.20278 1.05310
C11 C 0.5927(4) 0.2458(4) 1.1590(6)
C12 C 0.5752(4) 0.2849(4) 1.2033(6)
H5 H 0.59891 0.29557 1.25469
C13 C 0.4914(3) 0.2899(4) 1.1042(5)
H6 H 0.45607 0.30448 1.08585
C14 C 0.6473(4) 0.2228(4) 1.1940(7)
C15 C 0.0914(4) 0.4815(4) 0.8068(6)
C16 C 0.1455(4) 0.4552(4) 0.8375(6)
C17 C 0.1806(4) 0.4693(4) 0.9147(6)
H7 H 0.16863 0.49288 0.94820
C18 C 0.2328(4) 0.4488(4) 0.9420(6)
C19 C 0.2464(4) 0.4135(4) 0.8930(6)
H8 H 0.28209 0.39972 0.91096
C20 C 0.1638(4) 0.4191(3) 0.7924(6)
H9 H 0.14094 0.40982 0.73973
C21 C 0.2709(4) 0.4642(4) 1.0231(6)
C22 C 0.3170(4) 0.4348(4) 1.0617(6)
H10 H 0.32483 0.40308 1.03638
C23 C 0.3525(4) 0.4504(4) 1.1371(6)
C24 C 0.3405(4) 0.4961(4) 1.1756(6)
H11 H 0.36414 0.50652 1.22728
C25 C 0.2949(4) 0.5262(4) 1.1394(6)
C26 C 0.2609(4) 0.5113(4) 1.0633(6)
H12 H 0.23014 0.53320 1.03763
C27 C 0.4036(4) 0.4176(4) 1.1735(6)
C28 C 0.2830(4) 0.5759(4) 1.1814(6)
N1 N 0.5257(3) 0.3080(3) 1.1752(5)
N2 N 0.2134(3) 0.3965(3) 0.8208(4)
O1 O 0.3061(2) 0.2709(2) 0.7548(3)
O2 O 0.3122(3) 0.3079(3) 0.8721(4)
O3 O 0.4235(3) 0.1116(3) 0.7505(5)
O4 O 0.4986(3) 0.0997(3) 0.8513(5)
O5 O 0.6594(3) 0.1842(4) 1.1533(5)
O6 O 0.6775(3) 0.2363(3) 1.2619(5)
O7 O 0.4108(3) 0.3748(3) 1.1431(4)
O8 O 0.4361(3) 0.4367(3) 1.2374(5)
O9 O 0.2420(3) 0.6032(3) 1.1427(4)
O10 O 0.3105(3) 0.5867(3) 1.2508(4)
O11 O 0.0763(3) 0.5107(3) 0.8525(4)
O12 O 0.0626(2) 0.4728(3) 0.7357(4)
Cd1A Cd -0.24309(2) 0.33654(3) 0.75599(4)
C1A C -0.3299(4) 0.2771(4) 0.6720(6)
C2A C -0.3819(4) 0.2450(3) 0.6308(5)
C3A C -0.4162(3) 0.2605(4) 0.5584(5)
H1A H -0.40693 0.29059 0.53126
C4A C -0.4654(4) 0.2332(4) 0.5221(5)
C5A C -0.4772(4) 0.1907(4) 0.5640(6)
H2A H -0.51078 0.17252 0.54229
C6A C -0.4414(4) 0.1734(4) 0.6377(5)
C7A C -0.3947(4) 0.2025(4) 0.6711(6)
H3A H -0.37104 0.19283 0.72311
C8A C -0.4556(4) 0.1252(4) 0.6807(6)
C9A C -0.5054(4) 0.2503(4) 0.4446(5)
C10A C -0.5565(4) 0.2291(4) 0.4158(6)
H4A H -0.56746 0.20278 0.44690
C11A C -0.5927(4) 0.2458(4) 0.3410(6)
C12A C -0.5752(4) 0.2849(4) 0.2967(6)
H5A H -0.59891 0.29557 0.24531
C13A C -0.4914(3) 0.2899(4) 0.3958(5)
H6A H -0.45607 0.30448 0.41415
C14A C -0.6473(4) 0.2228(4) 0.3060(7)
C15A C -0.0914(4) 0.4815(4) 0.6932(6)
C16A C -0.1455(4) 0.4552(4) 0.6625(6)
C17A C -0.1806(4) 0.4693(4) 0.5853(6)
H7A H -0.16863 0.49288 0.55180
C18A C -0.2328(4) 0.4488(4) 0.5580(6)
C19A C -0.2464(4) 0.4135(4) 0.6070(6)
H8A H -0.28209 0.39972 0.58904
C20A C -0.1638(4) 0.4191(3) 0.7076(6)
H9A H -0.14094 0.40982 0.76027
C21A C -0.2709(4) 0.4642(4) 0.4769(6)
C22A C -0.3170(4) 0.4348(4) 0.4383(6)
H10A H -0.32483 0.40308 0.46362
C23A C -0.3525(4) 0.4504(4) 0.3629(6)
C24A C -0.3405(4) 0.4961(4) 0.3244(6)
H11A H -0.36414 0.50652 0.27272
C25A C -0.2949(4) 0.5262(4) 0.3606(6)
C26A C -0.2609(4) 0.5113(4) 0.4367(6)
H12A H -0.23014 0.53320 0.46237
C27A C -0.4036(4) 0.4176(4) 0.3265(6)
C28A C -0.2830(4) 0.5759(4) 0.3186(6)
N1A N -0.5257(3) 0.3080(3) 0.3248(5)
N2A N -0.2134(3) 0.3965(3) 0.6792(4)
O1A O -0.3061(2) 0.2709(2) 0.7452(3)
O2A O -0.3122(3) 0.3079(3) 0.6279(4)
O3A O -0.4235(3) 0.1116(3) 0.7495(5)
O4A O -0.4986(3) 0.0997(3) 0.6487(5)
O5A O -0.6594(3) 0.1842(4) 0.3467(5)
O6A O -0.6775(3) 0.2363(3) 0.2381(5)
O7A O -0.4108(3) 0.3748(3) 0.3569(4)
O8A O -0.4361(3) 0.4367(3) 0.2626(5)
O9A O -0.2420(3) 0.6032(3) 0.3573(4)
O10A O -0.3105(3) 0.5867(3) 0.2492(4)
O11A O -0.0763(3) 0.5107(3) 0.6475(4)
O12A O -0.0626(2) 0.4728(3) 0.7643(4)
Cd1D Cd -0.24309(2) 0.66346(3) 0.25599(4)
Cd1E Cd 0.24309(2) 0.66346(3) 1.24401(4)
Cd1F Cd -0.74309(2) 0.16346(3) 0.25599(4)
Cd1G Cd 0.74309(2) 0.16346(3) 1.24401(4)
Cd2B Cd -0.50000 0.04193(4) 0.75000
Cd2B* Cd 0.50000 0.04193(4) 0.75000
Cd3* Cd -0.50000 0.37214(4) 0.25000
N1A* N 0.4743(3) 0.3080(3) 1.3248(5)
O3B O -0.0765(3) 0.6116(3) 0.7505(5)
O3C O 0.0765(3) 0.6116(3) 0.7495(5)
O4B O -0.0014(3) 0.5997(3) 0.8513(5)
O4C O 0.0014(3) 0.5997(3) 0.6487(5)
O5F O -0.1594(3) 0.3158(4) 0.8467(5)
O5G O 0.1594(3) 0.3158(4) 0.6533(5)
O6F O -0.1775(3) 0.2637(3) 0.7381(5)
O6G O 0.1775(3) 0.2637(3) 0.7619(5)
O7A* O 0.5892(3) 0.3748(3) 1.3569(4)
O8A* O 0.5639(3) 0.4367(3) 1.2626(5)
O9D O -0.2420(3) 0.3968(3) 0.8573(4)
O9E O 0.2420(3) 0.3968(3) 0.6427(4)
O10D O -0.3105(3) 0.4133(3) 0.7492(4)
O10E O 0.3105(3) 0.4133(3) 0.7508(4)
#END
