
#######################################################################
#
#                 Cambridge Crystallographic Data Centre
#                                CCDC
#
#######################################################################
#
# If this CIF has been generated from an entry in the Cambridge
# Structural Database, then it will include bibliographic, chemical,
# crystal, experimental, refinement or atomic coordinate data resulting
# from the CCDC's data processing and validation procedures.
#
#######################################################################

data_CSD_CIF_SIJDUM
_audit_creation_date 2013-07-29
_audit_creation_method CSD-ConQuest-V1
_database_code_CSD SIJDUM
_database_code_depnum_ccdc_archive 'CCDC 940205'
_chemical_formula_sum 'C69 H51 N3 O30 Zn6'
_chemical_formula_moiety
;
(C63 H27 O30 Zn6 3-)n,3n(C2 H8 N1 1+)
;
_journal_coden_Cambridge 1350
_journal_volume 15
_journal_year 2013
_journal_page_first 9491
_journal_name_full 'CrystEngComm '
loop_
_publ_author_name
"Dongwook Kim"
"Myoung Soo Lah"
_chemical_name_systematic
;
catena-(tris(Dimethylammonium) 
(\m~6~-1,3,5-tris(4-carboxylatophenyl)benzene)-tris(\m~5~-benzene-1,3,5-tricar
boxylato)-(\m~3~-benzene-1,3,5-tricarboxylato)-hexa-zinc)
;
_cell_volume 247424.773
_exptl_crystal_colour 'colorless'
_exptl_crystal_density_diffrn 0.771
_exptl_crystal_description 'block'
_diffrn_ambient_temperature 100
_diffrn_radiation_probe x-ray
_diffrn_source synchrotron
_refine_special_details
;
The SQUEEZE/PLATON program was used to model the cations.

;
#These two values have been output from a single CSD field.
_refine_ls_R_factor_gt 0.085
_refine_ls_wR_factor_gt 0.085
_symmetry_cell_setting cubic
_symmetry_space_group_name_H-M 'F d -3 c'
_symmetry_Int_Tables_number 228
loop_
_symmetry_equiv_pos_site_id
_symmetry_equiv_pos_as_xyz
1 x,y,z
2 1/4-x,3/4-y,1/2+z
3 3/4-x,1/2+y,1/4-z
4 1/2+x,1/4-y,3/4-z
5 z,x,y
6 1/2+z,1/4-x,3/4-y
7 1/4-z,3/4-x,1/2+y
8 3/4-z,1/2+x,1/4-y
9 y,z,x
10 3/4-y,1/2+z,1/4-x
11 1/2+y,1/4-z,3/4-x
12 1/4-y,3/4-z,1/2+x
13 3/4+y,1/4+x,-z
14 1/2-y,1/2-x,1/2-z
15 1/4+y,-x,3/4+z
16 -y,3/4+x,1/4+z
17 3/4+x,1/4+z,-y
18 -x,3/4+z,1/4+y
19 1/2-x,1/2-z,1/2-y
20 1/4+x,-z,3/4+y
21 3/4+z,1/4+y,-x
22 1/4+z,-y,3/4+x
23 -z,3/4+y,1/4+x
24 1/2-z,1/2-y,1/2-x
25 x,1/2+y,1/2+z
26 1/4-x,1/4-y,z
27 3/4-x,y,3/4-z
28 1/2+x,3/4-y,1/4-z
29 z,1/2+x,1/2+y
30 1/2+z,3/4-x,1/4-y
31 1/4-z,1/4-x,y
32 3/4-z,x,3/4-y
33 y,1/2+z,1/2+x
34 3/4-y,z,3/4-x
35 1/2+y,3/4-z,1/4-x
36 1/4-y,1/4-z,x
37 3/4+y,3/4+x,1/2-z
38 1/2-y,-x,-z
39 1/4+y,1/2-x,1/4+z
40 -y,1/4+x,3/4+z
41 3/4+x,3/4+z,1/2-y
42 -x,1/4+z,3/4+y
43 1/2-x,-z,-y
44 1/4+x,1/2-z,1/4+y
45 3/4+z,3/4+y,1/2-x
46 1/4+z,1/2-y,1/4+x
47 -z,1/4+y,3/4+x
48 1/2-z,-y,-x
49 1/2+x,y,1/2+z
50 3/4-x,3/4-y,z
51 1/4-x,1/2+y,3/4-z
52 x,1/4-y,1/4-z
53 1/2+z,x,1/2+y
54 z,1/4-x,1/4-y
55 3/4-z,3/4-x,y
56 1/4-z,1/2+x,3/4-y
57 1/2+y,z,1/2+x
58 1/4-y,1/2+z,3/4-x
59 y,1/4-z,1/4-x
60 3/4-y,3/4-z,x
61 1/4+y,1/4+x,1/2-z
62 -y,1/2-x,-z
63 3/4+y,-x,1/4+z
64 1/2-y,3/4+x,3/4+z
65 1/4+x,1/4+z,1/2-y
66 1/2-x,3/4+z,3/4+y
67 -x,1/2-z,-y
68 3/4+x,-z,1/4+y
69 1/4+z,1/4+y,1/2-x
70 3/4+z,-y,1/4+x
71 1/2-z,3/4+y,3/4+x
72 -z,1/2-y,-x
73 1/2+x,1/2+y,z
74 3/4-x,1/4-y,1/2+z
75 1/4-x,y,1/4-z
76 x,3/4-y,3/4-z
77 1/2+z,1/2+x,y
78 z,3/4-x,3/4-y
79 3/4-z,1/4-x,1/2+y
80 1/4-z,x,1/4-y
81 1/2+y,1/2+z,x
82 1/4-y,z,1/4-x
83 y,3/4-z,3/4-x
84 3/4-y,1/4-z,1/2+x
85 1/4+y,3/4+x,-z
86 -y,-x,1/2-z
87 3/4+y,1/2-x,3/4+z
88 1/2-y,1/4+x,1/4+z
89 1/4+x,3/4+z,-y
90 1/2-x,1/4+z,1/4+y
91 -x,-z,1/2-y
92 3/4+x,1/2-z,3/4+y
93 1/4+z,3/4+y,-x
94 3/4+z,1/2-y,3/4+x
95 1/2-z,1/4+y,1/4+x
96 -z,-y,1/2-x
97 -x,-y,-z
98 -1/4+x,-3/4+y,-1/2-z
99 -3/4+x,-1/2-y,-1/4+z
100 -1/2-x,-1/4+y,-3/4+z
101 -z,-x,-y
102 -1/2-z,-1/4+x,-3/4+y
103 -1/4+z,-3/4+x,-1/2-y
104 -3/4+z,-1/2-x,-1/4+y
105 -y,-z,-x
106 -3/4+y,-1/2-z,-1/4+x
107 -1/2-y,-1/4+z,-3/4+x
108 -1/4+y,-3/4+z,-1/2-x
109 -3/4-y,-1/4-x,z
110 -1/2+y,-1/2+x,-1/2+z
111 -1/4-y,x,-3/4-z
112 y,-3/4-x,-1/4-z
113 -3/4-x,-1/4-z,y
114 x,-3/4-z,-1/4-y
115 -1/2+x,-1/2+z,-1/2+y
116 -1/4-x,z,-3/4-y
117 -3/4-z,-1/4-y,x
118 -1/4-z,y,-3/4-x
119 z,-3/4-y,-1/4-x
120 -1/2+z,-1/2+y,-1/2+x
121 -x,-1/2-y,-1/2-z
122 -1/4+x,-1/4+y,-z
123 -3/4+x,-y,-3/4+z
124 -1/2-x,-3/4+y,-1/4+z
125 -z,-1/2-x,-1/2-y
126 -1/2-z,-3/4+x,-1/4+y
127 -1/4+z,-1/4+x,-y
128 -3/4+z,-x,-3/4+y
129 -y,-1/2-z,-1/2-x
130 -3/4+y,-z,-3/4+x
131 -1/2-y,-3/4+z,-1/4+x
132 -1/4+y,-1/4+z,-x
133 -3/4-y,-3/4-x,-1/2+z
134 -1/2+y,x,z
135 -1/4-y,-1/2+x,-1/4-z
136 y,-1/4-x,-3/4-z
137 -3/4-x,-3/4-z,-1/2+y
138 x,-1/4-z,-3/4-y
139 -1/2+x,z,y
140 -1/4-x,-1/2+z,-1/4-y
141 -3/4-z,-3/4-y,-1/2+x
142 -1/4-z,-1/2+y,-1/4-x
143 z,-1/4-y,-3/4-x
144 -1/2+z,y,x
145 -1/2-x,-y,-1/2-z
146 -3/4+x,-3/4+y,-z
147 -1/4+x,-1/2-y,-3/4+z
148 -x,-1/4+y,-1/4+z
149 -1/2-z,-x,-1/2-y
150 -z,-1/4+x,-1/4+y
151 -3/4+z,-3/4+x,-y
152 -1/4+z,-1/2-x,-3/4+y
153 -1/2-y,-z,-1/2-x
154 -1/4+y,-1/2-z,-3/4+x
155 -y,-1/4+z,-1/4+x
156 -3/4+y,-3/4+z,-x
157 -1/4-y,-1/4-x,-1/2+z
158 y,-1/2+x,z
159 -3/4-y,x,-1/4-z
160 -1/2+y,-3/4-x,-3/4-z
161 -1/4-x,-1/4-z,-1/2+y
162 -1/2+x,-3/4-z,-3/4-y
163 x,-1/2+z,y
164 -3/4-x,z,-1/4-y
165 -1/4-z,-1/4-y,-1/2+x
166 -3/4-z,y,-1/4-x
167 -1/2+z,-3/4-y,-3/4-x
168 z,-1/2+y,x
169 -1/2-x,-1/2-y,-z
170 -3/4+x,-1/4+y,-1/2-z
171 -1/4+x,-y,-1/4+z
172 -x,-3/4+y,-3/4+z
173 -1/2-z,-1/2-x,-y
174 -z,-3/4+x,-3/4+y
175 -3/4+z,-1/4+x,-1/2-y
176 -1/4+z,-x,-1/4+y
177 -1/2-y,-1/2-z,-x
178 -1/4+y,-z,-1/4+x
179 -y,-3/4+z,-3/4+x
180 -3/4+y,-1/4+z,-1/2-x
181 -1/4-y,-3/4-x,z
182 y,x,-1/2+z
183 -3/4-y,-1/2+x,-3/4-z
184 -1/2+y,-1/4-x,-1/4-z
185 -1/4-x,-3/4-z,y
186 -1/2+x,-1/4-z,-1/4-y
187 x,z,-1/2+y
188 -3/4-x,-1/2+z,-3/4-y
189 -1/4-z,-3/4-y,x
190 -3/4-z,-1/2+y,-3/4-x
191 -1/2+z,-1/4-y,-1/4-x
192 z,y,-1/2+x
_cell_length_a 62.779(7)
_cell_length_b 62.779(7)
_cell_length_c 62.779(7)
_cell_angle_alpha 90
_cell_angle_beta 90
_cell_angle_gamma 90
_cell_formula_units_Z 64
loop_
_atom_type_symbol
_atom_type_radius_bond
C 0.68
H 0.23
O 0.68
Zn 1.22
loop_
_atom_site_label
_atom_site_type_symbol
_atom_site_fract_x
_atom_site_fract_y
_atom_site_fract_z
Zn1 Zn 0.668532(9) 0.288606(8) 0.034656(11)
Zn2 Zn 0.630794(11) 0.326385(10) 0.045467(13)
O1 O 0.66141(5) 0.29754(4) 0.00645(6)
O2 O 0.63684(7) 0.32126(8) 0.01486(7)
O3 O 0.59891(6) 0.36104(7) -0.03947(8)
O4 O 0.60604(8) 0.35708(9) -0.0718(1)
O5 O 0.66353(5) 0.30736(6) -0.09314(7)
O6 O 0.68586(5) 0.29696(7) -0.06758(6)
C1 C 0.64557(7) 0.31840(7) -0.02158(9)
C2 C 0.62916(8) 0.33267(7) -0.02674(10)
H1 H 0.62010 0.33840 -0.01600
C3 C 0.62666(8) 0.33794(9) -0.04750(11)
C4 C 0.63894(7) 0.32879(7) -0.06345(10)
H2 H 0.63640 0.33200 -0.07800
C5 C 0.65558(6) 0.31435(7) -0.05754(9)
C6 C 0.65850(6) 0.31009(7) -0.03616(9)
H3 H 0.66990 0.30110 -0.03180
C7 C 0.64787(8) 0.31183(9) 0.00162(12)
C8 C 0.6094(1) 0.35299(10) -0.05381(13)
C9 C 0.66969(7) 0.30557(8) -0.07393(10)
O7 O 0.61635(6) 0.30089(7) 0.05262(8)
O8 O 0.64438(8) 0.28042(6) 0.05235(7)
C10 C 0.61139(10) 0.26451(10) 0.05560(12)
C11 C 0.61977(12) 0.24471(11) 0.05148(12)
H4 H 0.63450 0.24300 0.04820
C12 C 0.60660(15) 0.22777(14) 0.05217(13)
H5 H 0.61180 0.21430 0.04760
C13 C 0.58613(16) 0.22929(13) 0.05914(14)
C14 C 0.57738(14) 0.24883(16) 0.06454(19)
H6 H 0.56290 0.25030 0.06860
C15 C 0.59076(14) 0.26566(14) 0.06361(17)
H7 H 0.58580 0.27900 0.06870
C16 C 0.6247(1) 0.28326(10) 0.05312(11)
C17 C 0.56944(15) 0.21067(16) 0.0578(2)
O9 O 0.69069(5) 0.26797(4) 0.04110(5)
O10 O 0.66956(5) 0.24880(5) 0.02016(6)
C18 C 0.5541(2) 0.20784(19) 0.07153(17)
H8 H 0.55320 0.21710 0.08350
C19 C 0.70253(5) 0.23375(5) 0.03216(5)
C20 C 0.70250(5) 0.21828(5) 0.01662(5)
H9 H 0.69170 0.21850 0.00600
C21 C 0.68637(6) 0.25179(7) 0.03047(7)
O7CA O 0.55262(6) 0.13365(7) -0.05089(8)
O8CA O 0.55235(8) 0.10562(6) -0.03042(7)
C10CA C 0.5556(1) 0.13861(10) -0.01451(12)
C11CA C 0.55148(12) 0.13023(11) 0.00529(12)
H4CA H 0.54820 0.11550 0.00700
C12CA C 0.55217(15) 0.14340(14) 0.02223(13)
H5CA H 0.54760 0.13820 0.03570
C13CA C 0.55914(16) 0.16387(13) 0.02071(14)
C14CA C 0.56454(14) 0.17262(16) 0.00117(19)
H6CA H 0.56860 0.18710 -0.00030
C15CA C 0.56361(14) 0.15924(14) -0.01566(17)
H7CA H 0.56870 0.16420 -0.02900
C16CA C 0.55312(10) 0.1253(1) -0.03326(11)
C17CA C 0.55780(15) 0.18056(16) 0.03933(20)
C18CA C 0.57153(20) 0.19590(19) 0.04216(17)
H8CA H 0.58350 0.19680 0.03290
O7EC O 0.44911(6) 0.19738(7) 0.11635(8)
O8EC O 0.46958(8) 0.19765(6) 0.14438(7)
C10EC C 0.48549(10) 0.1944(1) 0.11139(12)
C11EC C 0.50529(12) 0.19852(11) 0.11977(12)
H4EC H 0.50700 0.20180 0.13450
C12EC C 0.52223(15) 0.19783(14) 0.10660(13)
H5EC H 0.53570 0.20240 0.11180
C13EC C 0.52071(16) 0.19086(13) 0.08613(14)
C14EC C 0.50117(14) 0.18546(16) 0.07738(19)
H6EC H 0.49970 0.18140 0.06290
C15EC C 0.48434(14) 0.18639(14) 0.09076(17)
H7EC H 0.47100 0.18130 0.08580
C16EC C 0.46674(10) 0.19688(10) 0.12470(11)
C17EC C 0.53933(15) 0.19220(16) 0.06944(20)
C18EC C 0.54216(20) 0.17847(19) 0.05410(17)
H8EC H 0.53290 0.16650 0.05320
O9G O 0.70890(5) 0.19069(4) -0.01797(5)
O10G O 0.72984(5) 0.16956(5) 0.00120(6)
C19G C 0.71784(5) 0.20253(5) 0.01625(5)
C20G C 0.73338(5) 0.20250(5) 0.03172(5)
H9G H 0.74400 0.19170 0.03150
C21G C 0.71953(6) 0.18637(7) -0.00179(7)
O9J O 0.76797(5) 0.20890(4) 0.05931(5)
O10J O 0.74880(5) 0.22984(5) 0.08044(6)
C19J C 0.73375(5) 0.21784(5) 0.04747(5)
C20J C 0.71828(5) 0.23338(5) 0.04750(5)
H9J H 0.71850 0.24400 0.05830
C21J C 0.75179(6) 0.21953(7) 0.06363(7)
Zn1G Zn 0.715344(9) 0.168532(8) -0.038606(11)
Zn2G Zn 0.704533(11) 0.130794(10) -0.076385(13)
O1G O 0.74355(5) 0.16141(4) -0.04754(6)
O2G O 0.73514(7) 0.13684(8) -0.07126(7)
O3G O 0.78947(6) 0.09891(7) -0.11104(8)
O4G O 0.82180(8) 0.10604(9) -0.10708(10)
O5G O 0.84314(5) 0.16353(6) -0.05736(7)
O6G O 0.81758(5) 0.18586(7) -0.04696(6)
C1G C 0.77158(7) 0.14557(7) -0.06840(9)
C2G C 0.77674(8) 0.12916(7) -0.08267(10)
H1G H 0.76600 0.12010 -0.08840
C3G C 0.79750(8) 0.12666(9) -0.08794(11)
C4G C 0.81345(7) 0.13894(7) -0.07879(10)
H2G H 0.82800 0.13640 -0.08200
C5G C 0.80754(6) 0.15558(7) -0.06435(9)
C6G C 0.78616(6) 0.15850(7) -0.06009(9)
H3G H 0.78180 0.16990 -0.05110
C7G C 0.74838(8) 0.14787(9) -0.06183(12)
C8G C 0.80381(10) 0.1094(1) -0.10299(13)
C9G C 0.82393(7) 0.16969(8) -0.05557(10)
Zn1J Zn 0.788606(9) 0.215344(8) 0.081468(11)
Zn2J Zn 0.826385(11) 0.204533(10) 0.119206(13)
O1J O 0.79754(5) 0.24355(4) 0.08859(6)
O2J O 0.82126(7) 0.23514(8) 0.11316(7)
O3J O 0.86104(6) 0.28947(7) 0.15109(8)
O4J O 0.85708(8) 0.32180(9) 0.14396(10)
O5J O 0.80736(5) 0.34314(6) 0.08647(7)
O6J O 0.79696(5) 0.31758(7) 0.06414(6)
C1J C 0.81840(7) 0.27158(7) 0.10443(9)
C2J C 0.83267(8) 0.27674(7) 0.12084(10)
H1J H 0.83840 0.26600 0.12990
C3J C 0.83794(8) 0.29750(9) 0.12334(11)
C4J C 0.82879(7) 0.31345(7) 0.11106(10)
H2J H 0.83200 0.32800 0.11360
C5J C 0.81435(6) 0.30754(7) 0.09442(9)
C6J C 0.81009(6) 0.28616(7) 0.09150(9)
H3J H 0.80110 0.28180 0.08010
C7J C 0.81183(8) 0.24838(9) 0.10213(12)
C8J C 0.85299(10) 0.30381(10) 0.14060(13)
C9J C 0.80557(7) 0.32393(8) 0.08031(10)
Zn1CA Zn 0.534656(9) 0.081468(8) -0.038606(11)
Zn1EC Zn 0.461394(9) 0.215344(8) 0.168532(11)
Zn1LF Zn 0.831468(9) 0.211394(8) -0.034656(11)
Zn1SF Zn 0.784656(9) 0.331468(8) 0.038606(11)
Zn1VF Zn 0.711394(9) 0.284656(8) -0.081468(11)
Zn2CA Zn 0.545467(11) 0.119206(10) -0.076385(13)
Zn2RA Zn 0.795467(11) 0.076385(10) -0.130794(13)
Zn2LB Zn 0.880794(11) 0.295467(10) 0.173615(13)
Zn2EC Zn 0.423615(11) 0.204533(10) 0.130794(13)
Zn2FC Zn 0.576385(11) 0.380794(10) -0.045467(13)
Zn2LF Zn 0.869206(11) 0.173615(10) -0.045467(13)
Zn2SF Zn 0.795467(11) 0.369206(10) 0.076385(13)
Zn2VF Zn 0.673615(11) 0.295467(10) -0.119206(13)
O3RA O 0.71053(6) 0.11104(7) -0.09891(8)
O3LB O 0.84891(6) 0.21053(7) 0.13896(8)
O3FC O 0.61104(6) 0.34891(7) 0.03947(8)
O5LF O 0.83647(5) 0.19264(6) 0.09314(7)
O5SF O 0.65686(5) 0.33647(6) 0.05736(7)
O5VF O 0.69264(5) 0.15686(6) -0.08647(7)
O6LF O 0.81414(5) 0.20304(7) 0.06758(6)
O6SF O 0.68242(5) 0.31414(7) 0.04696(6)
O6VF O 0.70304(5) 0.18242(7) -0.06414(6)
O7G O 0.69738(6) 0.11635(7) -0.05089(8)
O7J O 0.80089(6) 0.19738(7) 0.13365(8)
O8G O 0.69765(8) 0.14438(6) -0.03042(7)
O8J O 0.78042(8) 0.19765(6) 0.10562(7)
#END
