
#######################################################################
#
#                 Cambridge Crystallographic Data Centre
#                                CCDC
#
#######################################################################
#
# If this CIF has been generated from an entry in the Cambridge
# Structural Database, then it will include bibliographic, chemical,
# crystal, experimental, refinement or atomic coordinate data resulting
# from the CCDC's data processing and validation procedures.
#
#######################################################################

data_CSD_CIF_SIJNOP
_audit_creation_date 2007-12-12
_audit_creation_method CSD-ConQuest-V1
_database_code_CSD SIJNOP
_database_code_depnum_ccdc_archive 'CCDC 635621'
_chemical_formula_sum 'C19 H20 N2 O8 Zn1'
_chemical_formula_moiety
;
(C3 H12 N2 2+)n,n(C16 H8 O8 Zn1 2-)
;
_journal_coden_Cambridge 971
_journal_volume 9
_journal_year 2007
_journal_page_first 491
_journal_name_full 'Solid State Sciences '
loop_
_publ_author_name
"M.Padmanabhan"
"K.C.Joseph"
"V.G.Puranik"
"Xiaoying Huang"
"Jing Li"
_chemical_name_systematic
;
catena-(propane-1,3-diammonium bis(\m~2~-phthalato)-zinc(ii))
;
_cell_volume   4004.566
_exptl_crystal_density_diffrn 1.558
_exptl_special_details
;
fluorescent

;
_exptl_crystal_description 'plate'
_diffrn_ambient_temperature 293
#These two values have been output from a single CSD field.
_refine_ls_R_factor_gt 0.0313
_refine_ls_wR_factor_gt 0.0313
_symmetry_cell_setting orthorhombic
_symmetry_space_group_name_H-M 'P b c a'
_symmetry_Int_Tables_number 61
loop_
_symmetry_equiv_pos_site_id
_symmetry_equiv_pos_as_xyz
1 x,y,z
2 1/2-x,-y,1/2+z
3 -x,1/2+y,1/2-z
4 1/2+x,1/2-y,-z
5 -x,-y,-z
6 -1/2+x,y,-1/2-z
7 x,-1/2-y,-1/2+z
8 -1/2-x,-1/2+y,z
_cell_length_a 10.8773(6)
_cell_length_b 17.9472(9)
_cell_length_c 20.5134(11)
_cell_angle_alpha 90
_cell_angle_beta 90
_cell_angle_gamma 90
_cell_formula_units_Z 8
loop_
_atom_type_symbol
_atom_type_radius_bond
C 0.68
H 0.23
N 0.68
O 0.68
Zn 1.45
loop_
_atom_site_label
_atom_site_type_symbol
_atom_site_fract_x
_atom_site_fract_y
_atom_site_fract_z
Zn1 Zn 0.98397(2) 0.127424(12) 0.740518(12)
O1 O 1.08081(14) 0.19826(8) 0.79344(7)
O2 O 1.12268(15) 0.10735(9) 0.86439(8)
O3 O 0.89062(14) 0.05140(8) 0.78987(7)
O4 O 0.85063(15) 0.13859(9) 0.86406(8)
O5 O 0.61262(14) 0.07858(9) 0.81098(8)
O6 O 0.46763(18) 0.01784(15) 0.86379(12)
O7 O 1.35577(15) 0.18090(9) 0.80837(8)
O8 O 1.49213(17) 0.25489(14) 0.85511(11)
N1 N 0.2595(2) 0.49216(14) 0.80867(14)
N2 N 0.2305(2) 0.25426(13) 0.69113(12)
C1 C 1.12405(19) 0.17297(13) 0.84773(10)
C2 C 1.1693(2) 0.23099(12) 0.89452(10)
C3 C 1.2906(2) 0.25695(13) 0.89611(11)
C4 C 1.3219(3) 0.30996(15) 0.94255(13)
H1 H 1.40210 0.32790 0.94410
C5 C 1.2368(3) 0.33648(18) 0.98633(15)
H2 H 1.25950 0.37210 1.01690
C6 C 1.1182(3) 0.31029(16) 0.98484(14)
H3 H 1.06080 0.32780 1.01470
C7 C 1.0844(2) 0.25811(14) 0.93907(12)
H4 H 1.00380 0.24090 0.93800
C8 C 0.84710(19) 0.07364(13) 0.84463(11)
C9 C 0.7982(2) 0.01463(12) 0.88958(10)
C10 C 0.8835(2) -0.02240(15) 0.92824(13)
H5 H 0.96690 -0.01300 0.92250
C11 C 0.8464(3) -0.07267(17) 0.97477(15)
H6 H 0.90440 -0.09710 1.00030
C12 C 0.7233(3) -0.08671(19) 0.98346(15)
H7 H 0.69780 -0.12000 1.01540
C13 C 0.6374(3) -0.05134(15) 0.94474(13)
H8 H 0.55430 -0.06160 0.95060
C14 C 0.6732(2) -0.00078(13) 0.89718(11)
C15 C 0.5762(2) 0.03415(14) 0.85552(12)
C16 C 1.3882(2) 0.22923(14) 0.85071(12)
C17 C 0.3262(2) 0.42752(12) 0.78330(13)
H9 H 0.36760 0.40220 0.81890
H10 H 0.38810 0.44400 0.75250
C18 C 0.2392(2) 0.37379(11) 0.74981(11)
H11 H 0.19370 0.34610 0.78250
H12 H 0.18060 0.40170 0.72390
C19 C 0.3075(2) 0.31971(13) 0.70627(13)
H13 H 0.33050 0.34450 0.66610
H14 H 0.38220 0.30350 0.72790
H15 H 0.208(3) 0.4779(16) 0.8422(15)
H16 H 0.310(3) 0.5250(18) 0.8302(15)
H17 H 0.214(4) 0.514(2) 0.773(2)
H18 H 0.206(3) 0.2346(19) 0.7264(18)
H19 H 0.160(3) 0.2662(14) 0.6665(13)
H20 H 0.272(3) 0.2200(16) 0.6670(14)
Zn1E Zn 0.48397(2) 0.127424(12) 0.759482(12)
Zn1E* Zn 1.48397(2) 0.127424(12) 0.759482(12)
O5E O 1.11262(14) 0.07858(9) 0.68902(8)
O7E O 0.85577(15) 0.18090(9) 0.69163(8)
#END
