
#######################################################################
#
#                 Cambridge Crystallographic Data Centre
#                                CCDC
#
#######################################################################
#
# If this CIF has been generated from an entry in the Cambridge
# Structural Database, then it will include bibliographic, chemical,
# crystal, experimental, refinement or atomic coordinate data resulting
# from the CCDC's data processing and validation procedures.
#
#######################################################################

data_CSD_CIF_SIKCIA
_audit_creation_date 2013-07-29
_audit_creation_method CSD-ConQuest-V1
_database_code_CSD SIKCIA
_database_code_depnum_ccdc_archive 'CCDC 938334'
_chemical_formula_sum 'C50 H43.5 N1 O15.25 Zn3'
_chemical_formula_moiety
;
(C44 H27 O15 Zn3 1-)n,n(C6 H16 N1 1+),0.25n(H2 O1)
;
_journal_coden_Cambridge 1350
_journal_volume 15
_journal_year 2013
_journal_page_first 6986
_journal_name_full 'CrystEngComm '
loop_
_publ_author_name
"Peng Du"
"Yan Yang"
"Jin Yang"
"Ying-Ying Liu"
"Wei-Qiu Kan"
"Jian-Fang Ma"
_chemical_name_systematic
;
catena-[triethylammonium 
(\m~6~-5-[(2'-carboxylatobiphenyl-4-yl)methoxy]benzene-1,3-dicarboxylato)-(\m~
4~-5-[(2'-carboxylatobiphenyl-4-yl)methoxy]benzene-1,3-dicarboxylato)-(\m~3~-h
ydroxo)-tri-zinc hydrate]
;
_cell_volume   4741.420
_exptl_crystal_colour 'colorless'
_exptl_crystal_density_diffrn 1.539
_exptl_crystal_description 'block'
_diffrn_ambient_temperature 293
_refine_special_details
;
C46,C47 and C46',C47' disordered over two sites with occupancies 0.60:0.40.

;
#These two values have been output from a single CSD field.
_refine_ls_R_factor_gt 0.0573
_refine_ls_wR_factor_gt 0.0573
_symmetry_cell_setting monoclinic
_symmetry_space_group_name_H-M 'P 21/n'
_symmetry_Int_Tables_number 14
loop_
_symmetry_equiv_pos_site_id
_symmetry_equiv_pos_as_xyz
1 x,y,z
2 1/2-x,1/2+y,1/2-z
3 -x,-y,-z
4 -1/2+x,-1/2-y,-1/2+z
_cell_length_a 13.1370(7)
_cell_length_b 15.3527(7)
_cell_length_c 24.3497(11)
_cell_angle_alpha 90
_cell_angle_beta 105.103(5)
_cell_angle_gamma 90
_cell_formula_units_Z 4
loop_
_atom_type_symbol
_atom_type_radius_bond
C 0.68
H 0.23
N 0.68
O 0.68
Zn 1.22
loop_
_atom_site_label
_atom_site_type_symbol
_atom_site_fract_x
_atom_site_fract_y
_atom_site_fract_z
Zn1 Zn 0.04532(5) 0.21272(4) 0.35398(2)
Zn2 Zn 0.00522(5) 0.34021(4) 0.25470(2)
Zn3 Zn 0.09453(5) 0.13817(4) 0.23398(2)
C1 C -0.2387(4) 0.3371(3) 0.35305(19)
C2 C -0.2885(4) 0.4094(4) 0.3250(2)
H1 H -0.25710 0.43980 0.30080
C3 C -0.3843(4) 0.4382(4) 0.3320(2)
C4 C -0.4314(4) 0.3923(3) 0.36734(19)
H2 H -0.49630 0.41010 0.37200
C5 C -0.3816(4) 0.3188(3) 0.3962(2)
C6 C -0.2842(4) 0.2919(3) 0.38965(19)
H3 H -0.25020 0.24400 0.40970
C7 C -0.1369(4) 0.3076(3) 0.3419(2)
C8 C -0.4358(5) 0.5183(4) 0.3006(2)
C9 C -0.3940(5) 0.2032(4) 0.4610(2)
H4 H -0.32980 0.21850 0.48940
H5 H -0.37710 0.15960 0.43600
C10 C -0.4737(4) 0.1678(4) 0.4895(2)
C11 C -0.5802(5) 0.1795(5) 0.4669(2)
H6 H -0.60350 0.21290 0.43420
C12 C -0.6533(5) 0.1429(4) 0.4918(2)
H7 H -0.72480 0.15210 0.47560
C13 C -0.6213(4) 0.0927(4) 0.54048(19)
C14 C -0.5141(5) 0.0811(4) 0.5635(2)
H8 H -0.49040 0.04820 0.59650
C15 C -0.4418(4) 0.1183(4) 0.5380(2)
H9 H -0.37010 0.10950 0.55400
C16 C -0.7013(4) 0.0498(4) 0.5646(2)
C17 C -0.7839(5) 0.0063(5) 0.5277(2)
H10 H -0.78760 0.00580 0.48910
C18 C -0.8606(6) -0.0360(5) 0.5466(3)
H11 H -0.91580 -0.06340 0.52060
C19 C -0.8559(5) -0.0380(5) 0.6033(3)
H12 H -0.90770 -0.06700 0.61590
C20 C -0.7752(5) 0.0025(4) 0.6411(2)
H13 H -0.77160 0.00020 0.67970
C21 C -0.6980(4) 0.0475(3) 0.62273(19)
C22 C -0.6204(4) 0.0963(4) 0.6669(2)
C23 C 0.1617(4) -0.0395(3) 0.35266(18)
C24 C 0.1059(4) -0.0877(3) 0.38371(19)
H14 H 0.05900 -0.05970 0.40050
C25 C 0.1197(4) -0.1757(3) 0.3896(2)
C26 C 0.1914(4) -0.2188(3) 0.36527(19)
H15 H 0.20230 -0.27850 0.37030
C27 C 0.2457(4) -0.1715(3) 0.33363(18)
C28 C 0.2310(4) -0.0820(3) 0.32757(18)
H16 H 0.26790 -0.05030 0.30650
C29 C 0.1444(4) 0.0558(3) 0.34513(19)
C30 C 0.3188(4) -0.2157(4) 0.30473(19)
C31 C -0.0235(5) -0.1931(4) 0.4319(2)
H17 H -0.07180 -0.16770 0.39870
H18 H -0.00030 -0.14730 0.45990
C32 C -0.0784(5) -0.2624(4) 0.4560(2)
C33 C -0.1855(5) -0.2701(4) 0.4377(2)
H19 H -0.22310 -0.23590 0.40770
C34 C -0.2377(5) -0.3283(4) 0.4634(2)
H20 H -0.31090 -0.33160 0.45120
C35 C -0.1846(5) -0.3821(4) 0.5071(2)
C36 C -0.0761(5) -0.3768(4) 0.5230(2)
H21 H -0.03780 -0.41390 0.55100
C37 C -0.0231(5) -0.3170(4) 0.4977(2)
H22 H 0.05020 -0.31400 0.50910
C38 C -0.2438(4) -0.4403(4) 0.5366(2)
C39 C -0.3131(5) -0.5003(4) 0.5051(2)
H23 H -0.32130 -0.50330 0.46600
C40 C -0.3702(5) -0.5557(4) 0.5297(2)
H24 H -0.41660 -0.59540 0.50750
C41 C -0.3586(5) -0.5523(4) 0.5873(2)
H25 H -0.39760 -0.58920 0.60430
C42 C -0.2891(4) -0.4941(4) 0.6195(2)
H26 H -0.28020 -0.49310 0.65870
C43 C -0.2319(4) -0.4368(3) 0.59547(19)
C44 C -0.1597(4) -0.3738(4) 0.6336(2)
O1 O -0.0889(3) 0.2447(2) 0.36996(13)
O2 O -0.1085(3) 0.3475(2) 0.30377(16)
O3 O -0.3869(4) 0.5607(3) 0.27241(19)
O4 O -0.5262(3) 0.5378(2) 0.30619(15)
O5 O -0.4371(3) 0.2784(3) 0.42914(15)
O6 O -0.5661(3) 0.0540(3) 0.71017(13)
O7 O -0.6118(3) 0.1759(3) 0.66530(15)
O8 O 0.0925(3) 0.0935(2) 0.37517(13)
O9 O 0.1823(3) 0.0938(2) 0.30892(14)
O10 O 0.3762(3) -0.1679(3) 0.28474(17)
O11 O 0.3166(3) -0.2976(2) 0.30302(14)
O12 O 0.0643(3) -0.2292(2) 0.41665(16)
O13 O -0.1090(3) -0.4012(2) 0.68092(14)
O14 O -0.1564(3) -0.2959(2) 0.61661(13)
O15 O 0.0046(3) 0.2100(2) 0.26900(13)
H27 H -0.050(3) 0.181(3) 0.2558(19)
C45 C -0.3365(7) 0.1505(6) 0.2471(3)
C46 C -0.3291(11) 0.2330(8) 0.2144(5)
C47 C -0.4899(11) 0.1678(8) 0.2828(6)
C48 C -0.5726(9) 0.1265(8) 0.3014(5)
C49 C -0.5049(6) 0.1019(5) 0.1810(4)
H28 H -0.57010 0.07090 0.17930
H29 H -0.52360 0.15960 0.16540
C50 C -0.4483(8) 0.0562(5) 0.1449(3)
H30 H -0.49220 0.05310 0.10670
H31 H -0.43100 -0.00160 0.15930
H32 H -0.38480 0.08730 0.14520
N1 N -0.4449(5) 0.1108(4) 0.2419(2)
C51? C -0.369(2) 0.2530(19) 0.2232(12)
C52? C -0.566(3) 0.136(2) 0.2528(13)
O16 O -0.527(3) -0.688(2) 0.6342(13)
H33 H -0.54(2) -0.645(10) 0.653(9)
Zn1B Zn -0.04532(5) -0.21272(4) 0.64602(2)
Zn2A Zn 0.49478(5) -0.15979(4) 0.24530(2)
Zn2B Zn -0.00522(5) -0.34021(4) 0.74530(2)
Zn2C Zn -0.49478(5) 0.15979(4) 0.75470(2)
Zn3A Zn -0.59453(5) 0.63817(4) 0.26602(2)
Zn3A* Zn 0.40547(5) -0.36183(4) 0.26602(2)
O4A O 0.0262(3) 0.0378(2) 0.19381(15)
O6C O -0.0661(3) 0.4460(3) 0.21017(13)
O7C O -0.1118(3) 0.3241(3) 0.16530(15)
O10A O 0.1238(3) 0.3321(3) 0.21526(17)
O11A O 0.1834(3) 0.2024(2) 0.19698(14)
O13B O 0.1090(3) 0.4012(2) 0.31908(14)
O14B O 0.1564(3) 0.2959(2) 0.38339(13)
#END
