
#######################################################################
#
#                 Cambridge Crystallographic Data Centre
#                                CCDC
#
#######################################################################
#
# If this CIF has been generated from an entry in the Cambridge
# Structural Database, then it will include bibliographic, chemical,
# crystal, experimental, refinement or atomic coordinate data resulting
# from the CCDC's data processing and validation procedures.
#
#######################################################################

data_CSD_CIF_SIMYIZ
_audit_creation_date 2018-08-16
_audit_creation_method CSD-ConQuest-V1
_database_code_CSD SIMYIZ
_database_code_depnum_ccdc_archive 'CCDC 1587947'
_chemical_formula_sum 'C45 H47 N9 O66 P2 W18 Zn2'
_chemical_formula_moiety
;
(C40 H33 N8 O62 P2 W18 Zn2 1-)n,C5 H6 N1 1+,4(H2 O1)
;
_journal_coden_Cambridge 9
_journal_volume 57
_journal_year 2018
_journal_page_first 11123
_journal_name_full 'Inorg.Chem. '
loop_
_publ_author_name
"Ying Lu"
"Xiao Zhang"
"Xiao-Bing Cui"
"Ji-Qing Xu"
_chemical_name_systematic
;
catena-[pyridin-1-ium 
(\m-hydroxo)-nonatriacontakis(\m-oxo)-bis(\m-phosphato)-tetrakis(2,2'-bipyridi
;
_cell_volume   4364.721
_exptl_crystal_colour 'green'
_exptl_crystal_density_diffrn 4.011
_exptl_crystal_description 'block'
_diffrn_ambient_temperature 296
_refine_special_details
;
O1W disordered by symmetry over two configurations with occupancy 0.5; O3W 
disordered by symmetry over two configurations with occupancy 0.5; O4W 
disordered by symmetry over two configurations with occupancy 0.5.
;
#These two values have been output from a single CSD field.
_refine_ls_R_factor_gt 0.0363
_refine_ls_wR_factor_gt 0.0363
_symmetry_cell_setting monoclinic
_symmetry_space_group_name_H-M 'P 21/m'
_symmetry_Int_Tables_number 11
loop_
_symmetry_equiv_pos_site_id
_symmetry_equiv_pos_as_xyz
1 x,y,z
2 -x,1/2+y,-z
3 -x,-y,-z
4 x,-1/2-y,z
_cell_length_a 13.8342(6)
_cell_length_b 22.8992(11)
_cell_length_c 14.7578(6)
_cell_angle_alpha 90
_cell_angle_beta 110.997(1)
_cell_angle_gamma 90
_cell_formula_units_Z 2
loop_
_atom_type_symbol
_atom_type_radius_bond
C 0.68
H 0.23
N 0.68
O 0.68
P 1.05
W 1.62
Zn 1.22
loop_
_atom_site_label
_atom_site_type_symbol
_atom_site_fract_x
_atom_site_fract_y
_atom_site_fract_z
W1 W 0.90224(3) 0.32381(2) 0.95157(3)
W2 W 0.65791(4) 0.40452(2) 0.84528(3)
W3 W 0.43578(4) 0.33065(2) 0.74656(3)
W4 W 0.46802(4) 0.33004(2) 0.50452(3)
W5 W 0.57608(5) 0.25000 0.34461(4)
W6 W 0.69085(4) 0.40388(2) 0.60387(3)
W7 W 0.93510(3) 0.32385(2) 0.71008(3)
W8 W 0.48780(5) 0.25000 0.97753(4)
W9 W 0.71230(3) 0.32337(2) 1.07579(3)
W10 W 0.79942(4) 0.32431(2) 0.44322(3)
P1 P 0.6991(3) 0.25000 0.6001(2)
P2 P 0.6642(3) 0.25000 0.8545(2)
Zn1 Zn 0.77826(12) 0.44807(6) 1.24581(11)
O1 O 0.9669(8) 0.25000 0.9986(7)
O2 O 0.5184(6) 0.3059(4) 0.4065(5)
O3 O 1.0042(8) 0.25000 0.7230(8)
O4 O 0.6395(6) 0.3052(3) 0.6045(5)
O5 O 0.8084(8) 0.25000 0.6768(7)
O6 O 0.7145(9) 0.25000 0.4985(7)
O7 O 0.5736(6) 0.3077(3) 1.0642(5)
O8 O 0.9370(6) 0.3152(4) 0.8389(6)
O9 O 0.6552(6) 0.4081(3) 0.7170(5)
O10 O 0.4394(9) 0.25000 0.5163(7)
O11 O 0.7805(8) 0.25000 0.8741(8)
O12 O 0.8335(6) 0.3179(3) 1.0459(5)
O13 O 0.7281(6) 0.3759(3) 0.4975(5)
O14 O 0.8991(6) 0.3198(3) 0.5697(6)
O15 O 0.7501(7) 0.25000 1.1421(7)
O16 O 0.6739(6) 0.3079(4) 0.3391(5)
O17 O 0.8561(6) 0.3708(4) 0.3854(6)
O18 O 0.7951(6) 0.3758(4) 0.8838(5)
O19 O 0.8222(6) 0.3766(4) 0.6827(6)
O20 O 0.4534(6) 0.3434(4) 0.6268(5)
O21 O 0.5474(6) 0.3998(3) 0.5248(5)
O22 O 0.6111(6) 0.3051(3) 0.8014(5)
O23 O 0.4534(6) 0.3059(3) 0.8773(5)
O24 O 0.9999(7) 0.3692(4) 1.0167(6)
O25 O 0.7490(6) 0.3698(4) 1.1742(5)
O26 O 0.3807(9) 0.25000 1.0078(8)
O27 O 0.6639(6) 0.3748(3) 0.9704(5)
O28 O 1.0398(6) 0.3691(4) 0.7346(6)
O29 O 0.8498(8) 0.25000 0.4162(8)
O30 O 0.6534(9) 0.25000 0.9565(7)
O31 O 0.6794(7) 0.4761(4) 0.8770(6)
N1 N 0.6434(8) 0.4455(4) 1.2759(7)
O32 O 0.5112(6) 0.4006(3) 0.8004(6)
O33 O 0.7140(7) 0.4764(4) 0.5955(6)
O34 O 0.4148(9) 0.25000 0.7170(8)
O35 O 0.3115(7) 0.3548(4) 0.7190(6)
O36 O 0.3506(7) 0.3552(4) 0.4299(6)
N2 N 0.9143(8) 0.4568(5) 1.2158(7)
O37 O 0.4885(10) 0.25000 0.2277(9)
N3 N 0.8146(9) 0.5068(5) 1.3609(8)
N4 N 0.7332(9) 0.5086(5) 1.1309(9)
C1 C 0.4657(11) 0.4573(7) 1.3189(10)
H1 H 0.40540 0.46180 1.33240
C2 C 0.5520(11) 0.4920(6) 1.3657(9)
H2 H 0.55040 0.51950 1.41150
C3 C 0.4705(11) 0.4163(7) 1.2528(10)
H3 H 0.41430 0.39210 1.22210
C4 C 0.6392(10) 0.4850(5) 1.3433(9)
C5 C 0.5599(10) 0.4117(6) 1.2329(9)
H4 H 0.56290 0.38410 1.18780
C6 C 0.7356(10) 0.5189(5) 1.3885(8)
C7 C 0.7432(12) 0.5617(6) 1.4584(9)
H5 H 0.68870 0.56850 1.47990
C8 C 0.9129(12) 0.4992(6) 1.1511(10)
C9 C 0.9007(11) 0.5378(6) 1.3961(10)
H6 H 0.95440 0.52990 1.37410
C10 C 0.8352(13) 0.5939(6) 1.4953(10)
H7 H 0.84210 0.62350 1.54050
C11 C 1.0032(12) 0.4266(7) 1.2603(11)
H8 H 1.00420 0.39670 1.30320
C12 C 0.6409(14) 0.5336(6) 1.0938(10)
H9 H 0.58720 0.51860 1.11060
C13 C 0.8088(12) 0.5301(6) 1.1075(10)
C14 C 0.9143(15) 0.5814(7) 1.4642(12)
H10 H 0.97640 0.60180 1.48830
C15 C 0.6206(16) 0.5808(8) 1.0313(12)
H11 H 0.55450 0.59670 1.00590
C16 C 0.7966(15) 0.5784(8) 1.0439(12)
H12 H 0.85150 0.59220 1.02760
C17 C 1.0009(15) 0.5132(7) 1.1315(12)
H13 H 0.99930 0.54250 1.08730
C18 C 1.0902(13) 0.4829(9) 1.1786(13)
H14 H 1.15010 0.49200 1.16660
C19 C 1.0924(14) 0.4400(9) 1.2422(13)
H15 H 1.15340 0.41960 1.27370
C20 C 0.701(2) 0.6037(8) 1.0074(13)
H16 H 0.68940 0.63610 0.96690
N5 N 1.060(2) 0.25000 0.3869(19)
C21 C 1.164(2) 0.25000 0.392(2)
H17 H 1.21770 0.25000 0.45190
C22 C 0.987(2) 0.25000 0.296(2)
H18 H 0.91760 0.25000 0.28980
C23 C 1.008(3) 0.25000 0.2235(18)
H19 H 0.95560 0.25000 0.16270
C24 C 1.109(4) 0.25000 0.231(4)
H20 H 1.12300 0.25000 0.17430
C25 C 1.187(4) 0.25000 0.313(4)
H21 H 1.25490 0.25000 0.31530
O38 O 1.1594(15) 0.25000 0.9553(18)
O39 O 0.2171(16) 0.2806(9) 0.8033(15)
O40 O 1.275(3) 0.2787(19) 0.146(3)
O41 O 1.149(3) 0.2744(14) 0.615(2)
O4C O 0.6395(6) 0.1948(3) 0.6045(5)
O22C O 0.6111(6) 0.1949(3) 0.8014(5)
W1C W 0.90224(3) 0.17619(2) 0.95157(3)
W2C W 0.65791(4) 0.09548(2) 0.84528(3)
W3C W 0.43578(4) 0.16935(2) 0.74656(3)
W4C W 0.46802(4) 0.16996(2) 0.50452(3)
W6C W 0.69085(4) 0.09612(2) 0.60387(3)
W7C W 0.93510(3) 0.17615(2) 0.71008(3)
W9C W 0.71230(3) 0.17663(2) 1.07579(3)
W10C W 0.79942(4) 0.17569(2) 0.44322(3)
Zn1C Zn 0.77826(12) 0.05193(6) 1.24581(11)
O2C O 0.5184(6) 0.1941(4) 0.4065(5)
O7C O 0.5736(6) 0.1923(3) 1.0642(5)
O8C O 0.9370(6) 0.1848(4) 0.8389(6)
O9C O 0.6552(6) 0.0919(3) 0.7170(5)
O12C O 0.8335(6) 0.1821(3) 1.0459(5)
O13C O 0.7281(6) 0.1241(3) 0.4975(5)
O14C O 0.8991(6) 0.1802(3) 0.5697(6)
O16C O 0.6739(6) 0.1921(4) 0.3391(5)
O17C O 0.8561(6) 0.1292(4) 0.3854(6)
O18C O 0.7951(6) 0.1242(4) 0.8838(5)
O19C O 0.8222(6) 0.1234(4) 0.6827(6)
O20C O 0.4534(6) 0.1566(4) 0.6268(5)
O21C O 0.5474(6) 0.1002(3) 0.5248(5)
O23C O 0.4534(6) 0.1941(3) 0.8773(5)
O24C O 0.9999(7) 0.1308(4) 1.0167(6)
O25C O 0.7490(6) 0.1302(4) 1.1742(5)
O27C O 0.6639(6) 0.1252(3) 0.9704(5)
O28C O 1.0398(6) 0.1309(4) 0.7346(6)
O31C O 0.6794(7) 0.0239(4) 0.8770(6)
N1C N 0.6434(8) 0.0545(4) 1.2759(7)
O32C O 0.5112(6) 0.0994(3) 0.8004(6)
O33C O 0.7140(7) 0.0236(4) 0.5955(6)
O35C O 0.3115(7) 0.1452(4) 0.7190(6)
O36C O 0.3506(7) 0.1448(4) 0.4299(6)
N2C N 0.9143(8) 0.0432(5) 1.2158(7)
N3C N 0.8146(9) -0.0068(5) 1.3609(8)
N4C N 0.7332(9) -0.0086(5) 1.1309(9)
C1C C 0.4657(11) 0.0427(7) 1.3189(10)
H1C H 0.40540 0.03820 1.33240
C2C C 0.5520(11) 0.0080(6) 1.3657(9)
H2C H 0.55040 -0.01950 1.41150
C3C C 0.4705(11) 0.0837(7) 1.2528(10)
H3C H 0.41430 0.10790 1.22210
C4C C 0.6392(10) 0.0150(5) 1.3433(9)
C5C C 0.5599(10) 0.0883(6) 1.2329(9)
H4C H 0.56290 0.11590 1.18780
C6C C 0.7356(10) -0.0189(5) 1.3885(8)
C7C C 0.7432(12) -0.0617(6) 1.4584(9)
H5C H 0.68870 -0.06850 1.47990
C8C C 0.9129(12) 0.0008(6) 1.1511(10)
C9C C 0.9007(11) -0.0378(6) 1.3961(10)
H6C H 0.95440 -0.02990 1.37410
C10C C 0.8352(13) -0.0939(6) 1.4953(10)
H7C H 0.84210 -0.12350 1.54050
C11C C 1.0032(12) 0.0734(7) 1.2603(11)
H8C H 1.00420 0.10330 1.30320
C12C C 0.6409(14) -0.0336(6) 1.0938(10)
H9C H 0.58720 -0.01860 1.11060
C13C C 0.8088(12) -0.0301(6) 1.1075(10)
C14C C 0.9143(15) -0.0814(7) 1.4642(12)
H10C H 0.97640 -0.10180 1.48830
C15C C 0.6206(16) -0.0808(8) 1.0313(12)
H11C H 0.55450 -0.09670 1.00590
C16C C 0.7966(15) -0.0784(8) 1.0439(12)
H12C H 0.85150 -0.09220 1.02760
C17C C 1.0009(15) -0.0132(7) 1.1315(12)
H13C H 0.99930 -0.04250 1.08730
C18C C 1.0902(13) 0.0171(9) 1.1786(13)
H14C H 1.15010 0.00800 1.16660
C19C C 1.0924(14) 0.0600(9) 1.2422(13)
H15C H 1.15340 0.08040 1.27370
C20C C 0.701(2) -0.1037(8) 1.0074(13)
H16C H 0.68940 -0.13610 0.96690
Zn1* Zn 0.77826(12) 0.44807(6) 0.24581(11)
Zn1C* Zn 0.77826(12) 0.05193(6) 0.24581(11)
O17* O 0.8561(6) 0.3708(4) 1.3854(6)
O17C* O 0.8561(6) 0.1292(4) 1.3854(6)
#END
