
#######################################################################
#
#                 Cambridge Crystallographic Data Centre
#                                CCDC
#
#######################################################################
#
# If this CIF has been generated from an entry in the Cambridge
# Structural Database, then it will include bibliographic, chemical,
# crystal, experimental, refinement or atomic coordinate data resulting
# from the CCDC's data processing and validation procedures.
#
#######################################################################

data_CSD_CIF_SINGUU
_audit_creation_date 2018-08-16
_audit_creation_method CSD-ConQuest-V1
_database_code_CSD SINGUU
_database_code_depnum_ccdc_archive 'CCDC 1587946'
_chemical_formula_sum 'C45 H43 Cu2 N9 O64 P2 W18'
_chemical_formula_moiety
;
(C40 H33 Cu2 N8 O62 P2 W18 1-)n,C5 H6 N1 1+,2(H2 O1)
;
_journal_coden_Cambridge 9
_journal_volume 57
_journal_year 2018
_journal_page_first 11123
_journal_name_full 'Inorg.Chem. '
loop_
_publ_author_name
"Ying Lu"
"Xiao Zhang"
"Xiao-Bing Cui"
"Ji-Qing Xu"
_chemical_name_systematic
;
catena-[pyridinium 
bis(\m-phosphato)-(\m-hydroxo)-nonatriacontakis(\m-oxo)-tetrakis(\m-2,2'-bipyr
idine)-tetradecaoxo-di-copper(ii)-octadeca-tungsten dihydrate]
;
_cell_volume   4348.355
_exptl_crystal_colour 'blue'
_exptl_crystal_density_diffrn 3.996
_exptl_crystal_description 'block'
_diffrn_ambient_temperature 293
#These two values have been output from a single CSD field.
_refine_ls_R_factor_gt 0.0443
_refine_ls_wR_factor_gt 0.0443
_symmetry_cell_setting monoclinic
_symmetry_space_group_name_H-M 'P 21/m'
_symmetry_Int_Tables_number 11
loop_
_symmetry_equiv_pos_site_id
_symmetry_equiv_pos_as_xyz
1 x,y,z
2 -x,1/2+y,-z
3 -x,-y,-z
4 x,-1/2-y,z
_cell_length_a 13.8225(3)
_cell_length_b 22.7652(4)
_cell_length_c 14.8050(3)
_cell_angle_alpha 90
_cell_angle_beta 111.032(2)
_cell_angle_gamma 90
_cell_formula_units_Z 2
loop_
_atom_type_symbol
_atom_type_radius_bond
C 0.68
H 0.23
Cu 1.32
N 0.68
O 0.68
P 1.05
W 1.62
loop_
_atom_site_label
_atom_site_type_symbol
_atom_site_fract_x
_atom_site_fract_y
_atom_site_fract_z
W1 W 1.03046(4) 0.66953(2) 0.49054(4)
W2 W 1.06231(4) 0.66885(2) 0.24928(4)
W3 W 0.56314(4) 0.67573(2) 0.28499(4)
W4 W 0.59469(3) 0.67576(2) 0.04413(4)
W5 W 0.92263(5) 0.75000 0.64994(5)
W6 W 0.83960(4) 0.59463(2) 0.15117(3)
W7 W 0.80743(4) 0.59500(2) 0.39190(3)
W8 W 0.78485(3) 0.67606(2) -0.07891(3)
W9 W 0.69871(4) 0.67554(2) 0.55086(4)
W10 W 1.00976(5) 0.75000 0.01915(5)
P1 P 0.8329(3) 0.75000 0.1410(3)
P2 P 0.7993(3) 0.75000 0.3951(3)
O1 O 0.6747(6) 0.6233(3) 0.3114(6)
O2 O 1.0617(8) 0.75000 0.4796(8)
O3 O 1.0093(9) 0.75000 0.7664(9)
O4 O 0.4948(7) 0.75000 0.2717(7)
O5 O 0.9800(6) 0.6938(4) 0.5891(5)
O6 O 0.7000(6) 0.6234(3) 0.1117(6)
O7 O 0.7153(8) 0.75000 0.1203(8)
O8 O 1.0461(6) 0.6935(3) 0.1188(6)
O9 O 0.6622(6) 0.6812(3) -0.0497(6)
O10 O 1.0827(9) 0.75000 0.2792(8)
O11 O 0.5303(8) 0.75000 -0.0018(7)
O12 O 0.6907(8) 0.75000 0.3178(7)
O13 O 0.7479(8) 0.75000 -0.1448(8)
O14 O 0.8203(7) 0.5229(4) 0.1213(7)
O15 O 1.0456(6) 0.6564(4) 0.3691(6)
O16 O 0.5610(6) 0.6843(3) 0.1557(6)
O17 O 0.8592(5) 0.6949(3) 0.3917(5)
O18 O 1.1478(7) 0.6445(4) 0.5643(6)
O19 O 0.9857(6) 0.5991(3) 0.1962(6)
O20 O 0.8252(6) 0.6921(4) 0.6561(5)
O21 O 0.4980(6) 0.6304(4) -0.0202(6)
O22 O 1.1867(6) 0.6441(4) 0.2778(6)
O23 O 0.6412(6) 0.6302(4) 0.6074(6)
O24 O 0.7834(7) 0.5225(4) 0.4004(7)
O25 O 0.8345(5) 0.6243(3) 0.0258(6)
O26 O 0.7483(6) 0.6287(3) -0.1757(5)
O27 O 0.8465(8) 0.75000 0.0391(7)
O28 O 0.8411(6) 0.5907(3) 0.2787(6)
O29 O 0.5991(6) 0.6797(4) 0.4237(6)
O30 O 0.7843(8) 0.75000 0.4957(8)
O31 O 0.9501(6) 0.5994(3) 0.4703(5)
O32 O 0.7713(6) 0.6231(3) 0.4970(6)
O33 O 0.9238(6) 0.6920(3) -0.0690(5)
O34 O 0.8849(6) 0.6940(3) 0.1943(5)
O35 O 0.4584(6) 0.6314(4) 0.2612(6)
O36 O 1.1173(9) 0.75000 -0.0119(9)
O37 O 0.6507(8) 0.75000 0.5784(8)
Cu1 Cu 0.72477(11) 0.55098(6) -0.24462(11)
N1 N 0.7774(9) 0.4905(5) -0.1233(8)
C1 C 0.8698(13) 0.4660(6) -0.0866(12)
H1 H 0.92430 0.48210 -0.10110
C2 C 0.8885(16) 0.4161(7) -0.0262(11)
H2 H 0.95390 0.39910 -0.00170
C3 C 0.8054(17) 0.3930(8) -0.0041(13)
H3 H 0.81500 0.36040 0.03610
C4 C 0.7143(15) 0.4180(7) -0.0410(12)
H4 H 0.65900 0.40320 -0.02630
C5 C 0.6983(13) 0.4685(6) -0.1049(11)
C6 C 0.5995(11) 0.4986(6) -0.1499(11)
C7 C 0.5078(13) 0.4857(7) -0.1310(12)
H5 H 0.50820 0.45640 -0.08710
C8 C 0.4218(14) 0.5158(8) -0.1763(13)
H6 H 0.36210 0.50680 -0.16400
C9 C 0.4186(12) 0.5599(8) -0.2410(14)
H7 H 0.35820 0.58150 -0.27010
C10 C 0.5063(10) 0.5718(8) -0.2622(13)
H8 H 0.50470 0.60010 -0.30810
N2 N 0.5969(8) 0.5410(4) -0.2139(7)
N3 N 0.8527(7) 0.5553(4) -0.2761(7)
C11 C 0.9338(9) 0.5900(6) -0.2327(9)
H9 H 0.92910 0.61820 -0.18900
C12 C 1.0254(10) 0.5853(6) -0.2511(9)
H10 H 1.08220 0.60900 -0.21910
C13 C 1.0297(11) 0.5439(6) -0.3191(10)
H11 H 1.08940 0.54010 -0.33390
C14 C 0.9457(10) 0.5088(6) -0.3637(10)
H12 H 0.94780 0.48080 -0.40870
C15 C 0.8591(10) 0.5155(5) -0.3414(8)
C16 C 0.762(1) 0.4805(5) -0.3867(8)
C17 C 0.7512(11) 0.4399(6) -0.458(1)
H13 H 0.80390 0.43400 -0.48220
C18 C 0.6604(12) 0.4077(7) -0.4931(11)
H14 H 0.65190 0.37900 -0.54010
C19 C 0.5837(14) 0.4186(8) -0.4581(11)
H15 H 0.52260 0.39700 -0.47990
C20 C 0.5977(10) 0.4628(6) -0.3888(10)
H16 H 0.54390 0.47200 -0.36760
N4 N 0.6867(9) 0.4917(5) -0.3530(8)
C21 C 0.388(3) 0.75000 -0.231(3)
H17 H 0.37360 0.75000 -0.17390
C22 C 0.312(3) 0.75000 -0.312(3)
H18 H 0.24370 0.75000 -0.31560
C23 C 0.340(2) 0.75000 -0.402(2)
H19 H 0.28860 0.75000 -0.46310
C24 C 0.440(2) 0.75000 -0.3901(17)
H20 H 0.45990 0.75000 -0.44360
N5 N 0.5131(19) 0.75000 -0.2974(19)
C25 C 0.490(2) 0.75000 -0.2253(18)
H21 H 0.54210 0.75000 -0.16470
O38 O 1.3429(14) 0.75000 0.0449(17)
O39 O 1.284(3) 0.75000 0.201(2)
O34C O 0.8849(6) 0.8060(3) 0.1943(5)
O17C O 0.8592(5) 0.8051(3) 0.3917(5)
W1C W 1.03046(4) 0.83047(2) 0.49054(4)
W2C W 1.06231(4) 0.83115(2) 0.24928(4)
W3C W 0.56314(4) 0.82427(2) 0.28499(4)
W4C W 0.59469(3) 0.82424(2) 0.04413(4)
W6C W 0.83960(4) 0.90537(2) 0.15117(3)
W7C W 0.80743(4) 0.90500(2) 0.39190(3)
W8C W 0.78485(3) 0.82394(2) -0.07891(3)
W9C W 0.69871(4) 0.82446(2) 0.55086(4)
O1C O 0.6747(6) 0.8767(3) 0.3114(6)
O5C O 0.9800(6) 0.8062(4) 0.5891(5)
O6C O 0.7000(6) 0.8766(3) 0.1117(6)
O8C O 1.0461(6) 0.8065(3) 0.1188(6)
O9C O 0.6622(6) 0.8188(3) -0.0497(6)
O14C O 0.8203(7) 0.9771(4) 0.1213(7)
O15C O 1.0456(6) 0.8436(4) 0.3691(6)
O16C O 0.5610(6) 0.8157(3) 0.1557(6)
O18C O 1.1478(7) 0.8555(4) 0.5643(6)
O19C O 0.9857(6) 0.9009(3) 0.1962(6)
O20C O 0.8252(6) 0.8079(4) 0.6561(5)
O21C O 0.4980(6) 0.8696(4) -0.0202(6)
O22C O 1.1867(6) 0.8559(4) 0.2778(6)
O23C O 0.6412(6) 0.8698(4) 0.6074(6)
O24C O 0.7834(7) 0.9775(4) 0.4004(7)
O25C O 0.8345(5) 0.8757(3) 0.0258(6)
O26C O 0.7483(6) 0.8713(3) -0.1757(5)
O28C O 0.8411(6) 0.9093(3) 0.2787(6)
O29C O 0.5991(6) 0.8203(4) 0.4237(6)
O31C O 0.9501(6) 0.9006(3) 0.4703(5)
O32C O 0.7713(6) 0.8769(3) 0.4970(6)
O33C O 0.9238(6) 0.8080(3) -0.0690(5)
O35C O 0.4584(6) 0.8686(4) 0.2612(6)
Cu1C Cu 0.72477(11) 0.94902(6) -0.24462(11)
N1C N 0.7774(9) 1.0095(5) -0.1233(8)
C1C C 0.8698(13) 1.0340(6) -0.0866(12)
H1C H 0.92430 1.01790 -0.10110
C2C C 0.8885(16) 1.0839(7) -0.0262(11)
H2C H 0.95390 1.10090 -0.00170
C3C C 0.8054(17) 1.1070(8) -0.0041(13)
H3C H 0.81500 1.13960 0.03610
C4C C 0.7143(15) 1.0820(7) -0.0410(12)
H4C H 0.65900 1.09680 -0.02630
C5C C 0.6983(13) 1.0315(6) -0.1049(11)
C6C C 0.5995(11) 1.0014(6) -0.1499(11)
C7C C 0.5078(13) 1.0143(7) -0.1310(12)
H5C H 0.50820 1.04360 -0.08710
C8C C 0.4218(14) 0.9842(8) -0.1763(13)
H6C H 0.36210 0.99320 -0.16400
C9C C 0.4186(12) 0.9401(8) -0.2410(14)
H7C H 0.35820 0.91850 -0.27010
C10C C 0.5063(10) 0.9282(8) -0.2622(13)
H8C H 0.50470 0.89990 -0.30810
N2C N 0.5969(8) 0.9590(4) -0.2139(7)
N3C N 0.8527(7) 0.9447(4) -0.2761(7)
C11C C 0.9338(9) 0.9100(6) -0.2327(9)
H9C H 0.92910 0.88180 -0.18900
C12C C 1.0254(10) 0.9147(6) -0.2511(9)
H10C H 1.08220 0.89100 -0.21910
C13C C 1.0297(11) 0.9561(6) -0.3191(10)
H11C H 1.08940 0.95990 -0.33390
C14C C 0.9457(10) 0.9912(6) -0.3637(10)
H12C H 0.94780 1.01920 -0.40870
C15C C 0.8591(10) 0.9845(5) -0.3414(8)
C16C C 0.762(1) 1.0195(5) -0.3867(8)
C17C C 0.7512(11) 1.0601(6) -0.458(1)
H13C H 0.80390 1.06600 -0.48220
C18C C 0.6604(12) 1.0923(7) -0.4931(11)
H14C H 0.65190 1.12100 -0.54010
C19C C 0.5837(14) 1.0814(8) -0.4581(11)
H15C H 0.52260 1.10300 -0.47990
C20C C 0.5977(10) 1.0372(6) -0.3888(10)
H16C H 0.54390 1.02800 -0.36760
N4C N 0.6867(9) 1.0083(5) -0.3530(8)
O23* O 0.6412(6) 0.6302(4) -0.3926(6)
O23C* O 0.6412(6) 0.8698(4) -0.3926(6)
Cu1* Cu 0.72477(11) 0.55098(6) 0.75538(11)
Cu1C* Cu 0.72477(11) 0.94902(6) 0.75538(11)
#END
