
#######################################################################
#
#                 Cambridge Crystallographic Data Centre
#                                CCDC
#
#######################################################################
#
# If this CIF has been generated from an entry in the Cambridge
# Structural Database, then it will include bibliographic, chemical,
# crystal, experimental, refinement or atomic coordinate data resulting
# from the CCDC's data processing and validation procedures.
#
#######################################################################

data_CSD_CIF_SIQCOM
_audit_creation_date 2013-12-16
_audit_creation_method CSD-ConQuest-V1
_database_code_CSD SIQCOM
_database_code_depnum_ccdc_archive 'CCDC 929947'
_chemical_formula_sum 'C43 H52 Cd2 Cs1 N3 O20'
_chemical_formula_moiety
;
(C3 H10 N1 O1 1+)2n,n(C35 H26 Cd2 Cs1 N1 O17 2-),n(C2 H6 O1)
;
_journal_coden_Cambridge 603
_journal_volume 32
_journal_year 2013
_journal_page_first 1509
_journal_name_full 'Jiegou Huaxue(Chin.)(Chin.J.Struct.Chem.) '
loop_
_publ_author_name
"Yue-Cheng Liu"
"Ping Lin"
"Shao-Wu Du"
_chemical_name_systematic
;
catena-[bis((L)-1-Hydroxypropan-2-ammonium) 
(\m~4~-isophthalato)-tris(\m~3~-isophthalato)-((L)-1-hydroxypropan-2-ammonium)
-di-cadmium-cesium ethanol solvate]
;
_cell_volume   2457.975
_exptl_crystal_colour 'colorless'
_exptl_crystal_density_diffrn 1.741
_exptl_crystal_description 'Prism'
_diffrn_ambient_temperature 293
#These two values have been output from a single CSD field.
_refine_ls_R_factor_gt 0.0442
_refine_ls_wR_factor_gt 0.0442
loop_
_citation_database_id_CSD
_citation_special_details
SIQCUS "is a stereoisomer of this entry"
_symmetry_cell_setting monoclinic
_symmetry_space_group_name_H-M 'P 21'
_symmetry_Int_Tables_number 4
loop_
_symmetry_equiv_pos_site_id
_symmetry_equiv_pos_as_xyz
1 x,y,z
2 -x,1/2+y,-z
_cell_length_a 13.079(4)
_cell_length_b 13.853(3)
_cell_length_c 14.263(4)
_cell_angle_alpha 90
_cell_angle_beta 107.983(5)
_cell_angle_gamma 90
_cell_formula_units_Z 2
loop_
_atom_type_symbol
_atom_type_radius_bond
C 0.68
H 0.23
Cd 1.44
Cs 2.44
N 0.68
O 0.68
loop_
_atom_site_label
_atom_site_type_symbol
_atom_site_fract_x
_atom_site_fract_y
_atom_site_fract_z
Cs1 Cs 0.25516(5) 0.89849(7) 0.26106(6)
Cd1 Cd 0.49763(5) 1.07175(4) 0.24330(4)
Cd2 Cd -0.01166(5) 0.72915(4) 0.26294(4)
C1 C 0.6025(9) 1.3611(7) 0.0720(7)
H1 H 0.52780 1.35790 0.04880
C2 C 0.6551(8) 1.4247(7) 0.0276(7)
C3 C 0.767(1) 1.4310(8) 0.0668(9)
H2 H 0.80500 1.47370 0.03980
C4 C 0.8218(9) 1.3726(9) 0.1473(9)
H3 H 0.89600 1.37800 0.17400
C5 C 0.7670(9) 1.3073(8) 0.1873(8)
H4 H 0.80440 1.26750 0.23890
C6 C 0.6578(8) 1.3016(7) 0.1506(7)
C7 C 0.5938(9) 1.4776(8) -0.0628(6)
C8 C 0.5962(6) 1.2265(7) 0.1869(6)
C9 C 0.5935(7) 0.7821(7) 0.5011(7)
H5 H 0.52390 0.79590 0.50100
C10 C 0.6380(7) 0.8327(7) 0.4375(6)
C11 C 0.7404(8) 0.8094(8) 0.4363(7)
H6 H 0.76970 0.84040 0.39270
C12 C 0.7984(8) 0.7410(9) 0.4992(8)
H7 H 0.86850 0.72730 0.50050
C13 C 0.7526(10) 0.6915(8) 0.5617(8)
H8 H 0.79230 0.64350 0.60250
C14 C 0.6534(8) 0.7109(7) 0.5647(6)
C15 C 0.5749(7) 0.9091(6) 0.3739(7)
C16 C 0.6039(9) 0.6603(7) 0.6355(6)
C17 C -0.1154(8) 0.4399(8) 0.4358(7)
H9 H -0.04070 0.43940 0.45590
C18 C -0.1708(7) 0.3781(7) 0.4791(6)
C19 C -0.2807(9) 0.3737(9) 0.4468(9)
H10 H -0.31690 0.32950 0.47400
C20 C -0.3385(9) 0.4374(10) 0.3713(10)
H11 H -0.41320 0.43540 0.34960
C21 C -0.2857(9) 0.5019(9) 0.3299(10)
H12 H -0.32390 0.54450 0.28130
C22 C -0.1720(8) 0.5026(7) 0.3622(7)
C23 C -0.1128(7) 0.5799(8) 0.3234(6)
C24 C -0.1097(8) 0.3172(7) 0.5632(7)
C25 C -0.0648(7) 1.0235(7) 0.0330(7)
H13 H 0.00210 0.99780 0.03690
C26 C -0.1191(8) 0.9860(7) 0.0921(6)
C27 C -0.2202(8) 1.0241(8) 0.0866(8)
H14 H -0.25790 0.99880 0.12650
C28 C -0.2648(9) 1.0991(8) 0.0221(8)
H15 H -0.33190 1.12440 0.01800
C29 C -0.2055(9) 1.1350(8) -0.0362(7)
H16 H -0.23460 1.18550 -0.07910
C30 C -0.1055(8) 1.0998(7) -0.0341(6)
C31 C -0.0432(8) 1.1352(8) -0.0993(6)
C32 C -0.0754(8) 0.9002(7) 0.1546(6)
C33 C 0.3754(9) 0.5968(11) 0.3391(8)
H17 H 0.44750 0.61820 0.37490
H18 H 0.38140 0.55050 0.29000
C34 C 0.3296(8) 0.5465(8) 0.4094(7)
H19 H 0.38280 0.50050 0.44820
C35 C 0.2249(11) 0.4919(10) 0.358(1)
H20 H 0.19820 0.46240 0.40670
H21 H 0.23880 0.44290 0.31590
H22 H 0.17230 0.53630 0.31930
N1 N 0.3090(7) 0.6203(7) 0.4768(6)
H23 H 0.36960 0.65180 0.50660
H24 H 0.28520 0.59150 0.52180
H25 H 0.25970 0.66190 0.44230
O1 O 0.4953(6) 1.4865(6) -0.0837(6)
O2 O 0.6463(6) 1.5100(6) -0.1175(5)
O3 O 0.6485(6) 1.1604(6) 0.2425(6)
O4 O 0.4928(5) 1.2261(6) 0.1579(5)
O5 O 0.4830(6) 0.9332(6) 0.3770(6)
O6 O 0.6145(6) 0.9527(5) 0.3139(5)
O7 O 0.6670(6) 0.6181(5) 0.7081(5)
O8 O 0.5058(5) 0.6643(5) 0.6190(5)
O9 O -0.1680(6) 0.6379(6) 0.2572(5)
O10 O -0.0157(5) 0.5851(7) 0.3559(6)
O11 O -0.0057(5) 0.3164(5) 0.5903(5)
O12 O -0.1579(6) 0.2722(6) 0.6130(5)
O13 O -0.1015(6) 1.1703(6) -0.1829(5)
O14 O 0.0527(6) 1.1328(6) -0.0715(5)
O15 O 0.0231(6) 0.8835(6) 0.1790(6)
O16 O -0.1390(5) 0.8458(5) 0.1812(5)
O17 O 0.3164(7) 0.6767(6) 0.2902(5)
H26 H 0.25420 0.65520 0.28540
C36 C 0.2835(10) 1.3595(10) 0.1234(9)
H27 H 0.32480 1.35240 0.07790
H28 H 0.25790 1.42560 0.11900
C37 C 0.1862(8) 1.2915(8) 0.0918(8)
H29 H 0.14330 1.30860 0.02450
C38 C 0.1130(13) 1.2957(13) 0.1573(13)
H30 H 0.05460 1.25110 0.13310
H31 H 0.08500 1.35990 0.15620
H32 H 0.15350 1.27880 0.22370
N2 N 0.2255(7) 1.1900(6) 0.0908(6)
H33 H 0.26770 1.18670 0.05240
H34 H 0.16960 1.15060 0.06750
H35 H 0.26260 1.17230 0.15180
O18 O 0.3510(9) 1.3426(8) 0.2193(8)
H36 H 0.40080 1.30750 0.21720
C39 C -0.3972(8) 0.6710(8) 0.0888(7)
H37 H -0.41260 0.60500 0.10270
H38 H -0.45300 0.69180 0.03000
C40 C -0.3989(7) 0.7350(7) 0.1748(6)
H39 H -0.35170 0.70600 0.23540
C41 C -0.5102(9) 0.7417(10) 0.1843(9)
H40 H -0.50870 0.78190 0.23950
H41 H -0.53470 0.67830 0.19420
H42 H -0.55820 0.76900 0.12520
N3 N -0.3566(6) 0.8324(6) 0.1643(6)
H43 H -0.35680 0.86870 0.21570
H44 H -0.39780 0.85980 0.10910
H45 H -0.28960 0.82720 0.16170
O19 O -0.2985(6) 0.6742(6) 0.0715(5)
H46 H -0.25030 0.66380 0.12310
C42 C 0.8790(11) 1.0493(16) 0.3668(11)
H47 H 0.81540 1.06380 0.31210
H48 H 0.89160 0.98040 0.36530
C43 C 0.9689(16) 1.098(2) 0.3495(13)
H49 H 0.97580 1.07790 0.28740
H50 H 1.03350 1.08290 0.40140
H51 H 0.95700 1.16680 0.34820
O20 O 0.8567(11) 1.0693(13) 0.4513(10)
H52 H 0.91280 1.07140 0.49730
Cs1A Cs -0.25516(5) 0.39849(7) 0.73894(6)
Cs1A* Cs 0.74484(5) 0.39849(7) 0.73894(6)
Cs1A** Cs 0.74484(5) 1.39849(7) -0.26106(6)
Cd1A Cd 0.50237(5) 0.57175(4) 0.75670(4)
Cd1A* Cd 0.50237(5) 1.57175(4) -0.24330(4)
Cd2A Cd 0.01166(5) 0.22915(4) 0.73706(4)
Cd2A* Cd 0.01166(5) 1.22915(4) -0.26294(4)
O1A O 0.5047(6) 0.9865(6) 0.0837(6)
O2A O 0.3537(6) 1.0100(6) 0.1175(5)
O7A O 0.3330(6) 1.1181(5) 0.2919(5)
O8A O 0.4942(5) 1.1643(5) 0.3810(5)
O11A O 0.0057(5) 0.8164(5) 0.4097(5)
O12A O 0.1579(6) 0.7722(6) 0.3870(5)
O13A O 0.1015(6) 0.6703(6) 0.1829(5)
#END
