
#######################################################################
#
#                 Cambridge Crystallographic Data Centre
#                                CCDC
#
#######################################################################
#
# If this CIF has been generated from an entry in the Cambridge
# Structural Database, then it will include bibliographic, chemical,
# crystal, experimental, refinement or atomic coordinate data resulting
# from the CCDC's data processing and validation procedures.
#
#######################################################################

data_CSD_CIF_SIQCED
_audit_creation_date 2018-08-17
_audit_creation_method CSD-ConQuest-V1
_database_code_CSD SIQCED
_database_code_depnum_ccdc_archive 'CCDC 1846945'
_chemical_formula_sum 'C63 H68.1 F1.5 K0.1 Mn3 N3 Na0.3 O26 P2'
_chemical_formula_moiety
;
1.1(H3 O1 1+),0.5(F1 1-),0.3(Na1 1+),0.1(K1 1+),n(C57 H35 F1 Mn3 N1 O15 P2 
1-),7.9(H2 O1),2(C3 H7 N1 O1)
;
_journal_coden_Cambridge 182
_journal_volume 54
_journal_year 2018
_journal_page_first 9937
_journal_name_full 'Chem.Commun. '
loop_
_publ_author_name
"J.E.Reynolds"
"K.M.Walsh"
"Bin Li"
"P.Kunal"
"Banglin Chen"
"S.M.Humphrey"
_chemical_name_systematic
;
catena-[oxonium sodium potassium 
(\m-fluoro)-bis(\m-tris(p-carboxylatophenylethynyl)phosphine)-(N,N-dimethylfor
mamide)-bis(aqua)-tri-manganese(ii) fluoride N,N-dimethylformamide solvate 
hydrate]
;
_chemical_name_common
;
PCM-48
;
_cell_volume   8053.128
_exptl_crystal_colour 'pale yellow'
_exptl_special_details
;
We calculate void space in the structure. The PCM-48 framework is 
monoanionic.  The structure is represented as described in the publication, 
with the presence of counterions supported by elemental analyses and TGA
;
_exptl_crystal_description 'prism'
_diffrn_ambient_temperature 100
_refine_special_details
;
C3,C3',C4,C5,C6,C6',C7,C8 and C4',C5',C7',C8' disordered over two sites with 
occupancies 0.624:0.376; C50,C51,N50,O50 disordered by symmetry over two 
configurations with occupancy 0.5.  The structure is disordered.
;
#These two values have been output from a single CSD field.
_refine_ls_R_factor_gt 0.0788
_refine_ls_wR_factor_gt 0.0788
_symmetry_cell_setting monoclinic
_symmetry_space_group_name_H-M 'C 2/c'
_symmetry_Int_Tables_number 15
loop_
_symmetry_equiv_pos_site_id
_symmetry_equiv_pos_as_xyz
1 x,y,z
2 -x,y,1/2-z
3 1/2+x,1/2+y,z
4 1/2-x,1/2+y,1/2-z
5 -x,-y,-z
6 x,-y,-1/2+z
7 -1/2-x,-1/2-y,-z
8 -1/2+x,-1/2-y,-1/2+z
_cell_length_a 17.796(3)
_cell_length_b 31.098(4)
_cell_length_c 15.1639(19)
_cell_angle_alpha 90
_cell_angle_beta 106.338(4)
_cell_angle_gamma 90
_cell_formula_units_Z 4
loop_
_atom_type_symbol
_atom_type_radius_bond
C 0.68
H 0.23
F 0.64
Mn 1.61
N 0.68
O 0.68
P 1.05
loop_
_atom_site_label
_atom_site_type_symbol
_atom_site_fract_x
_atom_site_fract_y
_atom_site_fract_z
Mn1 Mn 1.00000 0.36698(3) 0.75000
Mn2 Mn 1.04668(4) 0.46687(2) 0.65792(4)
P1 P 0.40075(11) 0.25804(4) 0.54989(10)
F1 F 1.00000 0.43481(11) 0.75000
O1 O 0.8970(3) 0.36673(14) 0.7938(3)
O2 O 0.8448(2) 0.42924(13) 0.8109(2)
O3 O 0.4820(2) 0.07453(10) 1.04273(19)
O4 O 0.4319(3) 0.12781(13) 1.1097(3)
O5 O 0.0517(2) 0.48823(10) 0.37737(19)
O6 O 0.1073(2) 0.48783(11) 0.2619(2)
O7 O 1.0917(2) 0.50437(10) 0.55991(19)
C1 C 0.4820(4) 0.2909(2) 0.6023(4)
C2 C 0.5406(4) 0.3105(2) 0.6341(5)
C3 C 0.6256(5) 0.3581(3) 0.7456(5)
H1 H 0.58450 0.36200 0.77340
C4 C 0.6978(4) 0.3790(3) 0.7815(4)
H2 H 0.70390 0.39850 0.83130
C5 C 0.7492(6) 0.3453(3) 0.6682(6)
H3 H 0.79130 0.34100 0.64210
C6 C 0.6778(5) 0.3257(3) 0.6300(6)
H4 H 0.67020 0.30800 0.57720
C7 C 0.6152(4) 0.33246(19) 0.6710(4)
C8 C 0.7590(4) 0.37182(18) 0.7466(4)
C9 C 0.8391(4) 0.3923(2) 0.7867(4)
C10 C 0.3856(4) 0.23346(17) 0.6477(4)
C11 C 0.3904(4) 0.21186(16) 0.7146(4)
C12 C 0.3988(3) 0.18568(15) 0.7957(3)
C13 C 0.4178(3) 0.14233(15) 0.7925(3)
H5 H 0.42070 0.12960 0.73660
C14 C 0.4324(3) 0.11825(15) 0.8718(3)
H6 H 0.44410 0.08850 0.86950
C15 C 0.4304(3) 0.13580(15) 0.9531(3)
C16 C 0.4089(4) 0.17827(17) 0.9552(4)
H7 H 0.40510 0.19030 1.01150
C17 C 0.3928(4) 0.20351(17) 0.8788(4)
H8 H 0.37780 0.23270 0.88150
C18 C 0.4491(4) 0.11096(17) 1.0418(3)
C19 C 0.3269(4) 0.29794(17) 0.5211(3)
C20 C 0.2851(4) 0.32759(17) 0.4872(3)
C21 C 0.2391(3) 0.36405(15) 0.4499(3)
C22 C 0.1748(3) 0.37553(15) 0.4806(3)
H9 H 0.16090 0.35840 0.52550
C23 C 0.1309(3) 0.41197(14) 0.4456(3)
H10 H 0.08790 0.42000 0.46760
C24 C 0.1498(3) 0.43650(14) 0.3787(3)
C25 C 0.2145(3) 0.42510(16) 0.3483(3)
H11 H 0.22790 0.44220 0.30300
C26 C 0.2597(3) 0.38905(17) 0.3837(3)
H12 H 0.30360 0.38160 0.36300
C27 C 0.0995(3) 0.47370(14) 0.3355(3)
O8 O 0.9803(12) 0.2979(2) 0.7351(11)
N1 N 0.8836(13) 0.2430(7) 0.7334(10)
C28 C 0.9287(10) 0.2788(4) 0.772(1)
H13 H 0.92240 0.29020 0.82760
C29 C 0.8366(12) 0.2234(11) 0.7761(14)
H14 H 0.81160 0.19850 0.73970
H15 H 0.79630 0.24360 0.78280
H16 H 0.86760 0.21370 0.83690
C30 C 0.883(2) 0.2307(8) 0.6438(18)
H17 H 0.85200 0.20430 0.62680
H18 H 0.93670 0.22550 0.64170
H19 H 0.85950 0.25370 0.60070
O9 O 0.2328(7) 0.5534(4) 0.4402(7)
O10 O 0.7382(4) 0.4928(3) 0.8383(7)
C31? C 0.6259(11) 0.3751(6) 0.6498(19)
H20? H 0.58470 0.39020 0.60750
C32? C 0.6962(11) 0.3958(6) 0.690(2)
H21? H 0.70210 0.42560 0.67960
C33? C 0.7457(9) 0.3314(5) 0.7747(14)
H22? H 0.78550 0.31710 0.82050
C34? C 0.6737(10) 0.3108(6) 0.7363(16)
H23? H 0.66500 0.28250 0.75470
C35? C 0.7590(4) 0.37182(18) 0.7466(4)
C36? C 0.6152(4) 0.33246(19) 0.6710(4)
O8A O 1.0197(12) 0.2979(2) 0.7649(11)
N1A N 1.1164(13) 0.2430(7) 0.7666(10)
C28A C 1.0713(10) 0.2788(4) 0.728(1)
H13A H 1.07760 0.29020 0.67240
C29A C 1.1634(12) 0.2234(11) 0.7239(14)
H14A H 1.18840 0.19850 0.76030
H15A H 1.20370 0.24360 0.71720
H16A H 1.13240 0.21370 0.66310
C30A C 1.117(2) 0.2307(8) 0.8562(18)
H17A H 1.14800 0.20430 0.87320
H18A H 1.06330 0.22550 0.85830
H19A H 1.14050 0.25370 0.89930
Mn2A Mn 0.95332(4) 0.46687(2) 0.84208(4)
P1A P 1.59925(11) 0.25804(4) 0.95011(10)
O1A O 1.1030(3) 0.36673(14) 0.7062(3)
O2A O 1.1552(2) 0.42924(13) 0.6891(2)
O3A O 1.5180(2) 0.07453(10) 0.45727(19)
O4A O 1.5681(3) 0.12781(13) 0.3903(3)
O5A O 1.9483(2) 0.48823(10) 1.12263(19)
O6A O 1.8927(2) 0.48783(11) 1.2381(2)
O7A O 0.9083(2) 0.50437(10) 0.94009(19)
C1A C 1.5180(4) 0.2909(2) 0.8977(4)
C2A C 1.4594(4) 0.3105(2) 0.8659(5)
C3A C 1.3744(5) 0.3581(3) 0.7544(5)
H1A H 1.41550 0.36200 0.72660
C4A C 1.3022(4) 0.3790(3) 0.7185(4)
H2A H 1.29610 0.39850 0.66870
C5A C 1.2508(6) 0.3453(3) 0.8318(6)
H3A H 1.20870 0.34100 0.85790
C6A C 1.3222(5) 0.3257(3) 0.8700(6)
H4A H 1.32980 0.30800 0.92280
C7A C 1.3848(4) 0.33246(19) 0.8290(4)
C8A C 1.2410(4) 0.37182(18) 0.7534(4)
C9A C 1.1609(4) 0.3923(2) 0.7133(4)
C10A C 1.6144(4) 0.23346(17) 0.8523(4)
C11A C 1.6096(4) 0.21186(16) 0.7854(4)
C12A C 1.6012(3) 0.18568(15) 0.7043(3)
C13A C 1.5822(3) 0.14233(15) 0.7075(3)
H5A H 1.57930 0.12960 0.76340
C14A C 1.5676(3) 0.11825(15) 0.6282(3)
H6A H 1.55590 0.08850 0.63050
C15A C 1.5696(3) 0.13580(15) 0.5469(3)
C16A C 1.5911(4) 0.17827(17) 0.5448(4)
H7A H 1.59490 0.19030 0.48850
C17A C 1.6072(4) 0.20351(17) 0.6212(4)
H8A H 1.62220 0.23270 0.61850
C18A C 1.5509(4) 0.11096(17) 0.4582(3)
C19A C 1.6731(4) 0.29794(17) 0.9789(3)
C20A C 1.7149(4) 0.32759(17) 1.0128(3)
C21A C 1.7609(3) 0.36405(15) 1.0501(3)
C22A C 1.8252(3) 0.37553(15) 1.0194(3)
H9A H 1.83910 0.35840 0.97450
C23A C 1.8691(3) 0.41197(14) 1.0544(3)
H10A H 1.91210 0.42000 1.03240
C24A C 1.8502(3) 0.43650(14) 1.1213(3)
C25A C 1.7855(3) 0.42510(16) 1.1517(3)
H11A H 1.77210 0.44220 1.19700
C26A C 1.7403(3) 0.38905(17) 1.1163(3)
H12A H 1.69640 0.38160 1.13700
C27A C 1.9005(3) 0.47370(14) 1.1645(3)
Mn1F Mn 0.50000 0.13302(3) 1.25000
Mn1F* Mn 1.50000 0.13302(3) 0.25000
Mn2D Mn -0.04668(4) 0.53313(2) 0.34208(4)
Mn2D* Mn 1.95332(4) 0.53313(2) 1.34208(4)
Mn2E Mn 0.04668(4) 0.53313(2) 0.15792(4)
Mn2E* Mn 2.04668(4) 0.53313(2) 1.15792(4)
Mn2F Mn 1.45332(4) 0.03313(2) 0.34208(4)
Mn2G Mn 0.54668(4) 0.03313(2) 1.15792(4)
O3F O 1.0180(2) 0.42547(10) 0.95727(19)
O3G O 0.9820(2) 0.42547(10) 0.54273(19)
O4F O 1.0681(3) 0.37219(13) 0.8903(3)
O4G O 0.9319(3) 0.37219(13) 0.6097(3)
O5D O 0.9483(2) 0.51177(10) 0.62263(19)
O5E O 1.0517(2) 0.51177(10) 0.87737(19)
O6D O 0.8927(2) 0.51217(11) 0.7381(2)
O6E O 1.1073(2) 0.51217(11) 0.7619(2)
#END
