
#######################################################################
#
#                 Cambridge Crystallographic Data Centre
#                                CCDC
#
#######################################################################
#
# If this CIF has been generated from an entry in the Cambridge
# Structural Database, then it will include bibliographic, chemical,
# crystal, experimental, refinement or atomic coordinate data resulting
# from the CCDC's data processing and validation procedures.
#
#######################################################################

data_CSD_CIF_SIQCUS
_audit_creation_date 2013-12-16
_audit_creation_method CSD-ConQuest-V1
_database_code_CSD SIQCUS
_database_code_depnum_ccdc_archive 'CCDC 929946'
_chemical_formula_sum 'C43 H52 Cd2 Cs1 N3 O20'
_chemical_formula_moiety
;
(C3 H10 N1 O1 1+)2n,n(C35 H26 Cd2 Cs1 N1 O17 2-),n(C2 H6 O1)
;
_journal_coden_Cambridge 603
_journal_volume 32
_journal_year 2013
_journal_page_first 1509
_journal_name_full 'Jiegou Huaxue(Chin.)(Chin.J.Struct.Chem.) '
loop_
_publ_author_name
"Yue-Cheng Liu"
"Ping Lin"
"Shao-Wu Du"
_chemical_name_systematic
;
catena-[bis((D)-1-Hydroxypropan-2-ammonium) 
(\m~4~-isophthalato)-tris(\m~3~-isophthalato)-((D)-1-hydroxypropan-2-ammonium)
-di-cadmium-cesium ethanol solvate]
;
_cell_volume   2457.007
_exptl_crystal_colour 'colorless'
_exptl_crystal_density_diffrn 1.742
_exptl_crystal_description 'Prism'
_diffrn_ambient_temperature 293
#These two values have been output from a single CSD field.
_refine_ls_R_factor_gt 0.0293
_refine_ls_wR_factor_gt 0.0293
loop_
_citation_database_id_CSD
_citation_special_details
SIQCOM "is a stereoisomer of this entry"
_symmetry_cell_setting monoclinic
_symmetry_space_group_name_H-M 'P 21'
_symmetry_Int_Tables_number 4
loop_
_symmetry_equiv_pos_site_id
_symmetry_equiv_pos_as_xyz
1 x,y,z
2 -x,1/2+y,-z
_cell_length_a 13.075(4)
_cell_length_b 13.860(3)
_cell_length_c 14.256(4)
_cell_angle_alpha 90
_cell_angle_beta 108.001(4)
_cell_angle_gamma 90
_cell_formula_units_Z 2
loop_
_atom_type_symbol
_atom_type_radius_bond
C 0.68
H 0.23
Cd 1.44
Cs 2.44
N 0.68
O 0.68
loop_
_atom_site_label
_atom_site_type_symbol
_atom_site_fract_x
_atom_site_fract_y
_atom_site_fract_z
Cs1 Cs 0.24495(2) 0.86458(3) 0.23917(3)
Cd1 Cd 0.00238(2) 0.691420(17) 0.256867(18)
Cd2 Cd 0.511671(19) 1.033896(16) 0.237274(18)
C1 C -0.1012(3) 0.4024(3) 0.4276(3)
H1 H -0.02650 0.40430 0.45070
C2 C -0.1566(3) 0.3400(3) 0.4715(3)
C3 C -0.2680(4) 0.3339(3) 0.4324(3)
H2 H -0.30600 0.29170 0.46000
C4 C -0.3219(4) 0.3901(4) 0.3533(4)
H3 H -0.39620 0.38450 0.32650
C5 C -0.2664(3) 0.4550(3) 0.3130(3)
H4 H -0.30420 0.49410 0.26080
C6 C -0.1563(3) 0.4622(3) 0.3494(3)
C7 C -0.0961(4) 0.2858(3) 0.5626(3)
C8 C -0.0962(3) 0.5375(3) 0.3124(3)
C9 C -0.0933(3) 0.9809(3) -0.0006(3)
H5 H -0.02360 0.96680 -0.00020
C10 C -0.1377(3) 0.9313(3) 0.0617(3)
C11 C -0.2411(3) 0.9533(3) 0.0629(3)
H6 H -0.27130 0.91990 0.10440
C12 C -0.2986(3) 1.0254(4) 0.0019(3)
H7 H -0.36660 1.04240 0.00420
C13 C -0.2550(3) 1.0721(3) -0.0625(3)
H8 H -0.29560 1.11800 -0.10570
C14 C -0.1519(3) 1.0516(3) -0.0636(3)
C15 C -0.0740(3) 0.8531(3) 0.1273(3)
C16 C -0.1053(3) 1.1013(3) -0.1350(3)
C17 C 0.6165(3) 1.3221(3) 0.0646(3)
H9 H 0.54170 1.32210 0.04440
C18 C 0.6709(3) 1.3855(3) 0.0214(3)
C19 C 0.7799(4) 1.3877(4) 0.0531(4)
H10 H 0.81630 1.43000 0.02400
C20 C 0.8384(4) 1.3268(4) 0.1293(4)
H11 H 0.91310 1.32990 0.15200
C21 C 0.7842(4) 1.2624(4) 0.1704(4)
H12 H 0.82270 1.22110 0.22030
C22 C 0.6732(3) 1.2586(3) 0.1379(3)
C23 C 0.6134(3) 1.1847(3) 0.1767(3)
C24 C 0.6066(3) 1.4467(3) -0.0641(3)
C25 C 0.5627(3) 0.7382(3) 0.4666(3)
H13 H 0.49450 0.76180 0.46130
C26 C 0.6203(3) 0.7775(3) 0.4093(3)
C27 C 0.7193(3) 0.7380(3) 0.4144(3)
H14 H 0.75760 0.76270 0.37460
C28 C 0.7620(3) 0.6625(3) 0.4777(3)
H15 H 0.82780 0.63570 0.47960
C29 C 0.7060(3) 0.6273(3) 0.5381(3)
H16 H 0.73610 0.57860 0.58310
C30 C 0.6060(3) 0.6635(3) 0.5325(3)
C31 C 0.5424(3) 0.6259(3) 0.5996(3)
C32 C 0.5751(3) 0.8632(3) 0.3445(3)
C33 C 0.1229(4) 1.1648(3) 0.1622(3)
H17 H 0.11630 1.20980 0.21210
H18 H 0.05120 1.14270 0.12580
C34 C 0.1707(3) 1.2164(3) 0.0927(3)
H19 H 0.11710 1.26220 0.05390
C35 C 0.2733(4) 1.2717(3) 0.1422(4)
H20 H 0.29890 1.30130 0.09290
H21 H 0.32680 1.22810 0.18100
H22 H 0.25910 1.32060 0.18420
N1 N 0.1925(3) 1.1432(3) 0.0229(2)
H23 H 0.13250 1.11070 -0.00660
H24 H 0.24320 1.10240 0.05650
H25 H 0.21480 1.17340 -0.02240
O1 O 0.0050(2) 0.2771(2) 0.5828(2)
O2 O -0.1463(2) 0.2524(2) 0.6173(2)
O3 O -0.1490(3) 0.6024(2) 0.2562(2)
O4 O 0.0056(2) 0.5379(2) 0.34176(19)
O5 O 0.0169(2) 0.8302(2) 0.1233(2)
O6 O -0.1157(3) 0.8103(2) 0.1855(2)
O7 O -0.1672(2) 1.1446(2) -0.20766(19)
O8 O -0.0045(2) 1.0980(2) -0.1185(2)
O9 O 0.6654(2) 1.1270(2) 0.2428(2)
O10 O 0.5137(2) 1.1787(3) 0.1429(2)
O11 O 0.5062(2) 1.4468(2) -0.0896(2)
O12 O 0.6584(2) 1.4941(2) -0.1118(2)
O13 O 0.5997(2) 0.5921(2) 0.6826(2)
O14 O 0.4452(2) 0.6294(2) 0.5716(2)
O15 O 0.4782(2) 0.8790(3) 0.3202(2)
O16 O 0.6386(2) 0.9167(2) 0.3182(2)
O17 O 0.1856(2) 1.0844(2) 0.2093(2)
H26 H 0.24600 1.10450 0.20660
C36 C 0.2169(4) 0.4042(3) 0.3768(3)
H27 H 0.24320 0.33830 0.38160
H28 H 0.17610 0.41120 0.42280
C37 C 0.3126(3) 0.4722(3) 0.4072(3)
H29 H 0.35560 0.45550 0.47460
C38 C 0.3860(4) 0.4658(5) 0.3421(5)
H30 H 0.44460 0.51030 0.36570
H31 H 0.34570 0.48170 0.27540
H32 H 0.41370 0.40140 0.34450
N2 N 0.2752(3) 0.5731(2) 0.4081(2)
H33 H 0.23270 0.57710 0.44610
H34 H 0.23880 0.59110 0.34700
H35 H 0.33170 0.61170 0.43180
O18 O 0.1492(3) 0.4197(3) 0.2823(3)
H36 H 0.09930 0.45460 0.28450
C39 C 0.8979(3) 1.0908(3) 0.4109(3)
H37 H 0.95360 1.06900 0.46930
H38 H 0.91440 1.15670 0.39790
C40 C 0.8994(3) 1.0289(3) 0.3254(3)
H39 H 0.85310 1.05880 0.26490
C41 C 1.0125(3) 1.0216(4) 0.3178(3)
H40 H 1.03880 1.08510 0.31100
H41 H 1.01130 0.98340 0.26130
H42 H 1.05880 0.99170 0.37630
N3 N 0.8563(3) 0.9302(2) 0.3344(2)
H43 H 0.78980 0.93520 0.33810
H44 H 0.89820 0.90160 0.38860
H45 H 0.85530 0.89520 0.28180
O19 O 0.7978(2) 1.0893(2) 0.4300(2)
H46 H 0.74920 1.10010 0.37880
C42 C -0.3786(5) 0.7150(7) 0.1309(4)
H47 H -0.39430 0.78350 0.12950
H48 H -0.31450 0.70410 0.18630
C43 C -0.4658(5) 0.6650(6) 0.1515(5)
H49 H -0.47280 0.68760 0.21290
H50 H -0.45130 0.59690 0.15590
H51 H -0.53150 0.67710 0.09940
O20 O -0.3542(4) 0.6939(5) 0.0480(4)
H52 H -0.40950 0.69210 0.00110
Cs1A Cs -0.24495(2) 0.36458(3) 0.76083(3)
Cs1A* Cs -0.24495(2) 1.36458(3) -0.23917(3)
Cs1A** Cs 0.75505(2) 1.36458(3) -0.23917(3)
Cd1A Cd -0.00238(2) 0.191420(17) 0.743133(18)
Cd1A* Cd -0.00238(2) 1.191420(17) -0.256867(18)
Cd2A Cd 0.488329(19) 0.533896(16) 0.762726(18)
Cd2A* Cd 0.488329(19) 1.533896(16) -0.237274(18)
O1A O -0.0050(2) 0.7771(2) 0.4172(2)
O2A O 0.1463(2) 0.7524(2) 0.3827(2)
O7A O 0.1672(2) 0.6446(2) 0.20766(19)
O8A O 0.0045(2) 0.5980(2) 0.1185(2)
O11A O 0.4938(2) 0.9468(2) 0.0896(2)
O12A O 0.3416(2) 0.9941(2) 0.1118(2)
O13A O 0.4003(2) 1.0921(2) 0.3174(2)
#END
