
#######################################################################
#
#                 Cambridge Crystallographic Data Centre
#                                CCDC
#
#######################################################################
#
# If this CIF has been generated from an entry in the Cambridge
# Structural Database, then it will include bibliographic, chemical,
# crystal, experimental, refinement or atomic coordinate data resulting
# from the CCDC's data processing and validation procedures.
#
#######################################################################

data_CSD_CIF_SIQPIU
_audit_creation_date 2018-08-17
_audit_creation_method CSD-ConQuest-V1
_database_code_CSD SIQPIU
_database_code_depnum_ccdc_archive 'CCDC 1852375'
_chemical_formula_sum 'C48 H70 Cl6 Fe2 N2 O15'
_chemical_formula_moiety
;
(C18 Cl6 Fe2 O12 2-)n,2(C12 H28 N1 1+),2(C3 H6 O1),H2 O1
;
_journal_coden_Cambridge 179
_journal_volume 57
_journal_year 2018
_journal_page_first 12043
_journal_name_full 'Angew.Chem.,Int.Ed. '
loop_
_publ_author_name
"Jian Chen"
"Y.Sekine"
"Y.Komatsumaru"
"S.Hayami"
"H.Miyasaka"
_chemical_name_systematic
;
catena-[bis(tetrapropylammonium) 
tris(\m-2,5-dichloro-3,6-dioxycyclohexa-2,5-diene-1,4-dione)-di-iron acetone 
solvate monohydrate]
;
_cell_volume   6031.508
_exptl_crystal_colour 'black'
_exptl_crystal_density_diffrn 1.365
_exptl_crystal_description 'hexagonal'
_diffrn_ambient_temperature 103
#These two values have been output from a single CSD field.
_refine_ls_R_factor_gt 0.0444
_refine_ls_wR_factor_gt 0.0444
_symmetry_cell_setting monoclinic
_symmetry_space_group_name_H-M 'P 21/c'
_symmetry_Int_Tables_number 14
loop_
_symmetry_equiv_pos_site_id
_symmetry_equiv_pos_as_xyz
1 x,y,z
2 -x,1/2+y,1/2-z
3 -x,-y,-z
4 x,-1/2-y,-1/2+z
_cell_length_a 20.1956(4)
_cell_length_b 21.8021(5)
_cell_length_c 14.4138(3)
_cell_angle_alpha 90
_cell_angle_beta 108.127(2)
_cell_angle_gamma 90
_cell_formula_units_Z 4
loop_
_atom_type_symbol
_atom_type_radius_bond
C 0.68
H 0.23
Cl 0.99
Fe 1.52
N 0.68
O 0.68
loop_
_atom_site_label
_atom_site_type_symbol
_atom_site_fract_x
_atom_site_fract_y
_atom_site_fract_z
Fe1 Fe 0.22127(2) 0.68050(2) -0.10549(2)
Fe2 Fe 0.24011(2) 0.31711(2) -0.09100(2)
Cl1 Cl 0.36356(3) 0.68408(3) 0.24788(4)
Cl2 Cl 0.08056(3) 0.82101(3) 0.03619(4)
Cl3 Cl 0.09302(3) 0.49166(3) -0.03179(5)
Cl4 Cl 0.37997(3) 0.50300(3) -0.12988(5)
Cl5 Cl 0.10352(3) 0.17404(3) 0.05213(4)
Cl6 Cl 0.38144(3) 0.31859(3) 0.26156(4)
O1 O 0.16506(8) 0.73769(7) -0.05215(11)
O2 O 0.28256(8) 0.68552(7) 0.03370(12)
O3 O 0.27745(8) 0.76391(7) 0.33914(11)
O4 O 0.16190(8) 0.81958(7) 0.25372(12)
O5 O 0.16768(8) 0.60411(8) -0.07915(12)
O6 O 0.18108(8) 0.38896(7) -0.06469(12)
O7 O 0.29876(8) 0.39309(7) -0.10399(12)
O8 O 0.28542(8) 0.60764(7) -0.11721(12)
O9 O 0.18605(8) 0.25770(7) -0.03872(11)
O10 O 0.18264(8) 0.18050(7) 0.26861(12)
O11 O 0.29627(8) 0.23852(8) 0.35409(11)
O12 O 0.30167(9) 0.31398(8) 0.04766(12)
C1 C 0.18991(11) 0.74728(10) 0.04134(16)
C2 C 0.25623(12) 0.71673(11) 0.09002(16)
C3 C 0.28622(12) 0.72239(11) 0.19084(17)
C4 C 0.25411(12) 0.75733(10) 0.24522(16)
C5 C 0.18817(12) 0.78903(10) 0.19645(16)
C6 C 0.15827(12) 0.78363(11) 0.09526(17)
C7 C 0.19588(12) 0.55252(11) -0.08040(16)
C8 C 0.16967(12) 0.49608(11) -0.06327(17)
C9 C 0.20299(12) 0.44186(11) -0.07335(16)
C10 C 0.27225(12) 0.44432(11) -0.09610(16)
C11 C 0.30061(12) 0.50076(11) -0.10659(18)
C12 C 0.26542(12) 0.55473(11) -0.10302(16)
C13 C 0.20991(12) 0.25064(10) 0.05519(16)
C14 C 0.17931(11) 0.21475(11) 0.11022(16)
C15 C 0.20845(12) 0.21099(10) 0.21120(16)
C16 C 0.27320(12) 0.24445(11) 0.26019(16)
C17 C 0.30489(12) 0.27922(11) 0.20539(17)
C18 C 0.27514(12) 0.28347(11) 0.10415(16)
O13 O 0.13321(17) 0.53517(13) 0.2729(3)
C19 C 0.17462(18) 0.57385(15) 0.2691(3)
C20 C 0.1857(2) 0.6292(2) 0.3322(4)
H1 H 0.22120 0.65540 0.31900
H2 H 0.14190 0.65210 0.31830
H3 H 0.20130 0.61680 0.40090
C21 C 0.2147(2) 0.56865(18) 0.1979(3)
H4 H 0.24580 0.60400 0.20510
H5 H 0.24230 0.53080 0.21060
H6 H 0.18220 0.56760 0.13130
O14 O 0.3329(3) 0.50386(17) -0.4175(4)
C22 C 0.2793(2) 0.50188(19) -0.3958(3)
C23 C 0.2527(2) 0.44176(19) -0.3740(3)
H7 H 0.20940 0.44810 -0.35800
H8 H 0.24350 0.41500 -0.43120
H9 H 0.28750 0.42260 -0.31850
C24 C 0.2419(3) 0.5587(2) -0.3836(4)
H10 H 0.20020 0.54770 -0.36620
H11 H 0.27270 0.58400 -0.33160
H12 H 0.22830 0.58190 -0.44490
O15 O 0.4857(6) 0.5699(11) 0.4799(13)
O16 O 0.4428(11) 0.4952(7) 0.4339(12)
N1 N 0.04761(11) 0.35173(10) 0.22871(15)
C25 C 0.01423(14) 0.37933(12) 0.29991(18)
H13 H -0.03100 0.35860 0.29080
H14 H 0.04440 0.37030 0.36710
C26 C 0.00170(16) 0.44764(13) 0.2909(2)
H15 H -0.03240 0.45710 0.22660
H16 H 0.04580 0.46900 0.29530
C27 C -0.0257(3) 0.47011(18) 0.3712(3)
H17 H -0.03360 0.51450 0.36460
H18 H -0.06970 0.44930 0.36630
H19 H 0.00840 0.46120 0.43480
C28 C 0.05888(13) 0.28325(12) 0.2495(2)
H20 H 0.08440 0.26650 0.20650
H21 H 0.08920 0.27820 0.31770
C29 C -0.00632(13) 0.24482(12) 0.23547(19)
H22 H -0.03980 0.25250 0.17000
H23 H -0.02890 0.25620 0.28500
C30 C 0.01410(15) 0.17705(13) 0.2459(2)
H24 H -0.02760 0.15190 0.23700
H25 H 0.03600 0.16610 0.19640
H26 H 0.04700 0.16970 0.31110
C31 C 0.11762(13) 0.38091(12) 0.2380(2)
H27 H 0.13980 0.35760 0.19660
H28 H 0.10940 0.42310 0.21160
C32 C 0.16835(15) 0.38402(15) 0.3406(2)
H29 H 0.17350 0.34290 0.37100
H30 H 0.15030 0.41230 0.38070
C33 C 0.23907(15) 0.40672(15) 0.3369(3)
H31 H 0.27180 0.40870 0.40330
H32 H 0.25700 0.37840 0.29770
H33 H 0.23380 0.44770 0.30740
C34 C -0.00114(13) 0.36296(12) 0.12624(18)
H34 H -0.04870 0.35080 0.12480
H35 H -0.00210 0.40760 0.11360
C35 C 0.01501(15) 0.33098(13) 0.0435(2)
H36 H 0.01530 0.28600 0.05300
H37 H 0.06140 0.34370 0.04080
C36 C -0.04141(16) 0.34877(14) -0.0511(2)
H38 H -0.03210 0.32850 -0.10650
H39 H -0.08710 0.33590 -0.04770
H40 H -0.04110 0.39330 -0.05980
N2 N 0.50884(10) 0.20066(10) 0.50786(15)
C37 C 0.44625(12) 0.24017(12) 0.50545(19)
H41 H 0.43120 0.26230 0.44240
H42 H 0.40760 0.21270 0.50700
C38 C 0.45701(15) 0.28662(15) 0.5866(2)
H43 H 0.49960 0.31090 0.59270
H44 H 0.46300 0.26530 0.64930
C39 C 0.39379(15) 0.32901(14) 0.5635(3)
H45 H 0.40050 0.35920 0.61590
H46 H 0.38840 0.35020 0.50160
H47 H 0.35190 0.30480 0.55810
C40 C 0.53134(14) 0.16185(12) 0.59985(18)
H48 H 0.57450 0.13970 0.60150
H49 H 0.54290 0.18960 0.65700
C41 C 0.47836(15) 0.11525(13) 0.6107(2)
H50 H 0.47370 0.08170 0.56280
H51 H 0.43230 0.13510 0.59780
C42 C 0.50225(16) 0.08921(14) 0.7140(2)
H52 H 0.46810 0.05910 0.72120
H53 H 0.54760 0.06930 0.72610
H54 H 0.50630 0.12250 0.76110
C43 C 0.48656(13) 0.16116(12) 0.41686(18)
H55 H 0.44390 0.13850 0.41620
H56 H 0.47410 0.18850 0.35910
C44 C 0.54010(15) 0.11530(13) 0.4063(2)
H57 H 0.54680 0.08280 0.45630
H58 H 0.58530 0.13610 0.41620
C45 C 0.51515(17) 0.08677(14) 0.3044(2)
H59 H 0.54980 0.05710 0.29750
H60 H 0.47060 0.06590 0.29510
H61 H 0.50910 0.11910 0.25510
C46 C 0.57139(12) 0.24014(12) 0.51004(19)
H62 H 0.58620 0.26270 0.57270
H63 H 0.61020 0.21260 0.50910
C47 C 0.56067(15) 0.28600(15) 0.4283(2)
H64 H 0.51790 0.31020 0.42140
H65 H 0.55500 0.26430 0.36600
C48 C 0.62366(15) 0.32865(14) 0.4511(3)
H66 H 0.61700 0.35850 0.39820
H67 H 0.62870 0.35030 0.51250
H68 H 0.66570 0.30450 0.45720
Fe1C Fe 0.22127(2) 0.81950(2) 0.39451(2)
Fe2C Fe 0.24011(2) 0.18289(2) 0.40900(2)
O3C O 0.27745(8) 0.73609(7) -0.16086(11)
O4C O 0.16190(8) 0.68042(7) -0.24628(12)
O10C O 0.18264(8) 0.31950(7) -0.23139(12)
O11C O 0.29627(8) 0.26148(8) -0.14591(11)
#END
