
#######################################################################
#
#                 Cambridge Crystallographic Data Centre
#                                CCDC
#
#######################################################################
#
# If this CIF has been generated from an entry in the Cambridge
# Structural Database, then it will include bibliographic, chemical,
# crystal, experimental, refinement or atomic coordinate data resulting
# from the CCDC's data processing and validation procedures.
#
#######################################################################

data_CSD_CIF_SIQPIU01
_audit_creation_date 2018-08-17
_audit_creation_method CSD-ConQuest-V1
_database_code_CSD SIQPIU01
_database_code_depnum_ccdc_archive 'CCDC 1852376'
_chemical_formula_sum 'C48 H70 Cl6 Fe2 N2 O15'
_chemical_formula_moiety
;
(C18 Cl6 Fe2 O12 2-)n,2(C12 H28 N1 1+),2(C3 H6 O1),H2 O1
;
_journal_coden_Cambridge 179
_journal_volume 57
_journal_year 2018
_journal_page_first 12043
_journal_name_full 'Angew.Chem.,Int.Ed. '
loop_
_publ_author_name
"Jian Chen"
"Y.Sekine"
"Y.Komatsumaru"
"S.Hayami"
"H.Miyasaka"
_chemical_name_systematic
;
catena-[bis(tetrapropylammonium) 
tris(\m-2,5-dichloro-3,6-dioxycyclohexa-2,5-diene-1,4-dione)-di-iron acetone 
solvate monohydrate]
;
_cell_volume   6181.809
_exptl_crystal_colour 'black'
_exptl_crystal_density_diffrn 1.332
_exptl_crystal_description 'hexagonal'
_diffrn_ambient_temperature 241
_refine_special_details
;
O15 and O16 disordered over two sites with occupancies 0.5:0.5.

;
#These two values have been output from a single CSD field.
_refine_ls_R_factor_gt 0.0598
_refine_ls_wR_factor_gt 0.0598
_symmetry_cell_setting monoclinic
_symmetry_space_group_name_H-M 'P 21/c'
_symmetry_Int_Tables_number 14
loop_
_symmetry_equiv_pos_site_id
_symmetry_equiv_pos_as_xyz
1 x,y,z
2 -x,1/2+y,1/2-z
3 -x,-y,-z
4 x,-1/2-y,-1/2+z
_cell_length_a 20.2284(8)
_cell_length_b 22.2315(9)
_cell_length_c 14.4275(6)
_cell_angle_alpha 90
_cell_angle_beta 107.677(4)
_cell_angle_gamma 90
_cell_formula_units_Z 4
loop_
_atom_type_symbol
_atom_type_radius_bond
C 0.68
H 0.23
Cl 0.99
Fe 1.52
N 0.68
O 0.68
loop_
_atom_site_label
_atom_site_type_symbol
_atom_site_fract_x
_atom_site_fract_y
_atom_site_fract_z
Fe1 Fe 0.22136(2) 0.32606(2) 0.39845(3)
Fe2 Fe 0.23953(2) 0.68296(2) 0.40625(3)
Cl1 Cl 0.36116(5) 0.31697(5) 0.75615(7)
Cl2 Cl 0.08230(5) 0.17902(5) 0.53679(7)
Cl3 Cl 0.09174(5) 0.51218(4) 0.46499(8)
Cl4 Cl 0.38089(5) 0.49983(4) 0.37457(9)
Cl5 Cl 0.10237(5) 0.82292(4) 0.55083(6)
Cl6 Cl 0.38139(5) 0.68468(5) 0.75714(6)
O1 O 0.16496(12) 0.26559(10) 0.45470(16)
O2 O 0.28122(12) 0.31875(11) 0.54440(17)
O3 O 0.27728(12) 0.2333(1) 0.84056(15)
O4 O 0.16244(12) 0.17704(10) 0.75122(16)
O5 O 0.16777(12) 0.4019(1) 0.42473(17)
O6 O 0.18049(12) 0.61296(10) 0.43291(16)
O7 O 0.29819(12) 0.60832(10) 0.39430(16)
O8 O 0.28632(12) 0.39768(10) 0.38683(17)
O9 O 0.18570(11) 0.74189(10) 0.45927(15)
O10 O 0.18199(11) 0.81809(10) 0.76626(15)
O11 O 0.29621(12) 0.76319(10) 0.85020(15)
O12 O 0.30095(12) 0.6874(1) 0.54451(15)
C1 C 0.18862(16) 0.25467(14) 0.5447(2)
C2 C 0.25599(17) 0.28672(15) 0.5976(2)
C3 C 0.28493(17) 0.27927(16) 0.6969(2)
C4 C 0.25413(16) 0.24212(15) 0.7497(2)
C5 C 0.18757(16) 0.20943(14) 0.6977(2)
C6 C 0.15855(17) 0.21704(15) 0.5974(2)
C7 C 0.19610(17) 0.45187(15) 0.4216(2)
C8 C 0.16945(18) 0.50798(15) 0.4361(3)
C9 C 0.20275(17) 0.56110(15) 0.4256(2)
C10 C 0.27208(17) 0.55820(16) 0.4040(2)
C11 C 0.30086(19) 0.50270(15) 0.3958(3)
C12 C 0.26568(17) 0.44955(16) 0.4000(2)
C13 C 0.20944(16) 0.74910(14) 0.5528(2)
C14 C 0.17860(16) 0.78407(15) 0.6081(2)
C15 C 0.20791(16) 0.78850(14) 0.7087(2)
C16 C 0.27289(17) 0.75680(15) 0.7566(2)
C17 C 0.30445(17) 0.72272(16) 0.7018(2)
C18 C 0.27477(16) 0.71762(15) 0.6015(2)
O13 O 0.1377(5) 0.4640(4) 0.7848(10)
C19 C 0.1787(5) 0.4275(4) 0.7759(10)
C20 C 0.2201(7) 0.4362(5) 0.7033(8)
H1 H 0.25050 0.40200 0.70680
H2 H 0.18820 0.43950 0.63800
H3 H 0.24760 0.47260 0.71940
C21 C 0.1954(6) 0.3784(5) 0.8435(9)
H4 H 0.22910 0.35240 0.82800
H5 H 0.21470 0.39390 0.90900
H6 H 0.15370 0.35560 0.83920
O14 O 0.2378(6) 0.4450(4) 1.1246(7)
C22 C 0.2623(10) 0.5037(7) 1.1004(11)
C23 C 0.2503(7) 0.5597(5) 1.1251(8)
H7 H 0.25490 0.58760 1.07570
H8 H 0.28370 0.56990 1.18710
H9 H 0.20370 0.56220 1.13040
C24 C 0.3171(9) 0.4947(5) 1.0845(11)
H10 H 0.30840 0.48640 1.01580
H11 H 0.34020 0.46050 1.12240
H12 H 0.34630 0.53000 1.10250
O15 O 0.550(2) 0.4986(17) 1.0595(19)
O16? O 0.5167(12) 0.5667(15) 1.017(2)
N1 N 0.04932(16) 0.64646(15) 0.7270(2)
C25 C 0.0182(2) 0.6189(2) 0.8003(3)
H13 H 0.04780 0.62930 0.86570
H14 H -0.02730 0.63740 0.79170
C26 C 0.0091(3) 0.5524(2) 0.7948(4)
H15 H -0.02320 0.54170 0.73130
H16 H 0.05390 0.53350 0.80010
C27 C -0.0177(5) 0.5280(4) 0.8726(6)
H17 H -0.02260 0.48470 0.86580
H18 H 0.01450 0.53760 0.93580
H19 H -0.06250 0.54590 0.86700
C28 C 0.0582(2) 0.7140(2) 0.7470(3)
H20 H 0.08920 0.71930 0.81340
H21 H 0.08180 0.73090 0.70290
C29 C -0.0059(2) 0.7506(2) 0.7369(3)
H22 H -0.04040 0.74170 0.67420
H23 H -0.02580 0.73960 0.78850
C30 C 0.0098(3) 0.8166(2) 0.7429(4)
H24 H -0.03250 0.83910 0.73610
H25 H 0.04340 0.82560 0.80530
H26 H 0.02880 0.82780 0.69110
C31 C 0.0000(2) 0.6347(2) 0.6263(3)
H27 H -0.00040 0.59130 0.61480
H28 H -0.04670 0.64590 0.62700
C32 C 0.0128(3) 0.6650(2) 0.5414(4)
H29 H 0.01180 0.70880 0.54970
H30 H 0.05880 0.65390 0.53780
C33 C -0.0406(3) 0.6475(3) 0.4502(3)
H31 H -0.03150 0.66760 0.39560
H32 H -0.03910 0.60430 0.44160
H33 H -0.08600 0.65900 0.45340
C34 C 0.1193(2) 0.6201(2) 0.7340(4)
H34 H 0.11240 0.57830 0.71160
H35 H 0.13820 0.64200 0.68880
C35 C 0.1721(3) 0.6207(3) 0.8313(5)
H36 H 0.15560 0.59630 0.87640
H37 H 0.17850 0.66200 0.85610
C36 C 0.2401(3) 0.5965(3) 0.8272(6)
H38 H 0.27340 0.59750 0.89180
H39 H 0.23410 0.55530 0.80380
H40 H 0.25700 0.62090 0.78340
N2 N 0.50904(15) 0.80092(15) 1.0029(2)
C37 C 0.44711(19) 0.76174(18) 1.0002(3)
H41 H 0.40880 0.78800 1.00290
H42 H 0.43250 0.74060 0.93770
C38 C 0.4587(2) 0.7159(2) 1.0801(3)
H43 H 0.46560 0.73620 1.14260
H44 H 0.50040 0.69230 1.08410
C39 C 0.3958(2) 0.6746(2) 1.0588(4)
H45 H 0.40300 0.64490 1.11010
H46 H 0.35480 0.69810 1.05550
H47 H 0.38950 0.65440 0.99710
C40 C 0.5305(2) 0.83917(18) 1.0940(3)
H48 H 0.54240 0.81230 1.15050
H49 H 0.57270 0.86110 1.09510
C41 C 0.4776(2) 0.8841(2) 1.1059(3)
H50 H 0.43260 0.86420 1.09470
H51 H 0.47200 0.91640 1.05770
C42 C 0.5010(3) 0.9107(2) 1.2076(4)
H52 H 0.46680 0.93950 1.21450
H53 H 0.50590 0.87880 1.25510
H54 H 0.54520 0.93080 1.21820
C43 C 0.4866(2) 0.83983(19) 0.9126(3)
H55 H 0.47440 0.81340 0.85560
H56 H 0.44450 0.86150 0.91270
C44 C 0.5391(2) 0.8852(2) 0.9007(3)
H57 H 0.58380 0.86530 0.90960
H58 H 0.54570 0.91660 0.95050
C45 C 0.5145(3) 0.9135(2) 0.8005(4)
H59 H 0.54860 0.94250 0.79380
H60 H 0.50860 0.88250 0.75140
H61 H 0.47050 0.93360 0.79220
C46 C 0.57159(19) 0.76316(18) 1.0052(3)
H62 H 0.60970 0.79020 1.00460
H63 H 0.58600 0.74110 1.06690
C47 C 0.5618(2) 0.7186(2) 0.9233(3)
H64 H 0.55620 0.74000 0.86210
H65 H 0.51970 0.69490 0.91640
C48 C 0.6241(2) 0.6770(2) 0.9443(4)
H66 H 0.61750 0.64840 0.89140
H67 H 0.66560 0.70050 0.95040
H68 H 0.62910 0.65540 1.00450
Fe1C Fe 0.22136(2) 0.17394(2) 0.89845(3)
Fe2C Fe 0.23953(2) 0.81704(2) 0.90625(3)
O3C O 0.27728(12) 0.2667(1) 0.34056(15)
O4C O 0.16244(12) 0.32296(10) 0.25122(16)
O10C O 0.18199(11) 0.68191(10) 0.26626(15)
O11C O 0.29621(12) 0.73681(10) 0.35020(15)
#END
