
#######################################################################
#
#                 Cambridge Crystallographic Data Centre
#                                CCDC
#
#######################################################################
#
# If this CIF has been generated from an entry in the Cambridge
# Structural Database, then it will include bibliographic, chemical,
# crystal, experimental, refinement or atomic coordinate data resulting
# from the CCDC's data processing and validation procedures.
#
#######################################################################

data_CSD_CIF_SIRBIG07
_audit_creation_date 2017-02-10
_audit_creation_method CSD-ConQuest-V1
_database_code_CSD SIRBIG07
_database_code_depnum_ccdc_archive 'CCDC 958258'
_chemical_formula_sum 'C5 H11 Mg1 N1 O6'
_chemical_formula_moiety
;
C2 H8 N1 1+,n(C3 H3 Mg1 O6 1-)
;
_journal_coden_Cambridge 1220
_journal_volume 20
_journal_year 2014
_journal_page_first 1146
_journal_name_full 'Chem.-Eur.J. '
loop_
_publ_author_name
"Ran Shang"
"Guan-Cheng Xu"
"Zhe-Ming Wang"
"Song Gao"
_chemical_name_systematic
;
catena-[ethylammonium tris(\m-formato)-magnesium(ii)]
;
_cell_volume    928.879
_exptl_crystal_colour 'colorless'
_exptl_crystal_density_diffrn 1.469
_exptl_crystal_description 'column'
_diffrn_ambient_temperature 430
#These two values have been output from a single CSD field.
_refine_ls_R_factor_gt 0.0924
_refine_ls_wR_factor_gt 0.0924
_symmetry_cell_setting orthorhombic
_symmetry_space_group_name_H-M 'I m m a'
_symmetry_Int_Tables_number 74
loop_
_symmetry_equiv_pos_site_id
_symmetry_equiv_pos_as_xyz
1 x,y,z
2 -x,1/2-y,z
3 -x,1/2+y,-z
4 x,-y,-z
5 1/2+x,1/2+y,1/2+z
6 1/2-x,-y,1/2+z
7 1/2-x,y,1/2-z
8 1/2+x,1/2-y,1/2-z
9 -x,-y,-z
10 x,-1/2+y,-z
11 x,-1/2-y,z
12 -x,y,z
13 -1/2-x,-1/2-y,-1/2-z
14 -1/2+x,y,-1/2-z
15 -1/2+x,-y,-1/2+z
16 -1/2-x,-1/2+y,-1/2+z
_cell_length_a 8.990(3)
_cell_length_b 12.140(4)
_cell_length_c 8.511(2)
_cell_angle_alpha 90
_cell_angle_beta 90
_cell_angle_gamma 90
_cell_formula_units_Z 4
loop_
_atom_type_symbol
_atom_type_radius_bond
C 0.68
Mg 1.41
N 0.68
O 0.68
loop_
_atom_site_label
_atom_site_type_symbol
_atom_site_fract_x
_atom_site_fract_y
_atom_site_fract_z
Mg1 Mg 0.00000 0.50000 0.00000
O1 O 0.00000 0.3399(4) 0.0810(6)
O2 O 0.1615(4) 0.5467(3) 0.1634(4)
C1 C 0.00000 0.25000 0.0544(16)
C2 C 0.25000 0.5015(4) 0.25000
N1 N 0.3057(17) 0.75000 0.113(3)
C3 C 0.434(3) 0.75000 0.021(4)
C4 C 0.50000 0.690(4) -0.017(3)
O1A O 0.00000 0.1601(4) 0.0810(6)
O2F O 0.3385(4) 0.5467(3) 0.3366(4)
O2K O -0.1615(4) 0.5467(3) 0.1634(4)
C2K C -0.25000 0.5015(4) 0.25000
O2M O -0.3385(4) 0.5467(3) 0.3366(4)
Mg1A Mg 0.00000 0.00000 0.00000
Mg1E Mg -0.50000 0.50000 0.50000
Mg1E* Mg 0.50000 0.50000 0.50000
O1C O 0.00000 0.6601(4) -0.0810(6)
O2C O 0.1615(4) 0.4533(3) -0.1634(4)
O2H O -0.1615(4) 0.4533(3) -0.1634(4)
N1A N 0.6943(17) 0.75000 0.113(3)
C3A C 0.566(3) 0.75000 0.021(4)
C4A C 0.50000 0.810(4) -0.017(3)
#END
