
#######################################################################
#
#                 Cambridge Crystallographic Data Centre
#                                CCDC
#
#######################################################################
#
# If this CIF has been generated from an entry in the Cambridge
# Structural Database, then it will include bibliographic, chemical,
# crystal, experimental, refinement or atomic coordinate data resulting
# from the CCDC's data processing and validation procedures.
#
#######################################################################

data_CSD_CIF_SIRBIG05
_audit_creation_date 2017-02-10
_audit_creation_method CSD-ConQuest-V1
_database_code_CSD SIRBIG05
_database_code_depnum_ccdc_archive 'CCDC 958256'
_chemical_formula_sum 'C5 H11 Mg1 N1 O6'
_chemical_formula_moiety
;
(C3 H3 Mg1 O6 1-)n,C2 H8 N1 1+
;
_journal_coden_Cambridge 1220
_journal_volume 20
_journal_year 2014
_journal_page_first 1146
_journal_name_full 'Chem.-Eur.J. '
loop_
_publ_author_name
"Ran Shang"
"Guan-Cheng Xu"
"Zhe-Ming Wang"
"Song Gao"
_chemical_name_systematic
;
catena-[ethylammonium tris(\m-formato)-magnesium(ii)]
;
_cell_volume    856.922
_exptl_crystal_colour 'colorless'
_exptl_crystal_density_diffrn 1.593
_exptl_crystal_description 'column'
_diffrn_ambient_temperature 330
#These two values have been output from a single CSD field.
_refine_ls_R_factor_gt 0.0293
_refine_ls_wR_factor_gt 0.0293
_symmetry_cell_setting orthorhombic
_symmetry_space_group_name_H-M 'P n a 21'
_symmetry_Int_Tables_number 33
loop_
_symmetry_equiv_pos_site_id
_symmetry_equiv_pos_as_xyz
1 x,y,z
2 -x,-y,1/2+z
3 1/2+x,1/2-y,z
4 1/2-x,1/2+y,1/2+z
_cell_length_a 8.9136(2)
_cell_length_b 8.1219(2)
_cell_length_c 11.8367(3)
_cell_angle_alpha 90
_cell_angle_beta 90
_cell_angle_gamma 90
_cell_formula_units_Z 4
loop_
_atom_type_symbol
_atom_type_radius_bond
C 0.68
H 0.23
Mg 1.41
N 0.68
O 0.68
loop_
_atom_site_label
_atom_site_type_symbol
_atom_site_fract_x
_atom_site_fract_y
_atom_site_fract_z
Mg1 Mg 0.52758(4) 0.50241(6) 0.49988(5)
O1 O 0.32471(10) 0.39560(11) 0.55954(8)
O2 O 0.14741(11) 0.20336(11) 0.55602(8)
O3 O 0.41280(11) 0.71163(11) 0.44319(8)
O4 O 0.22946(10) 0.89707(11) 0.43847(8)
O5 O 0.54556(12) 0.61704(13) 0.65906(8)
O6 O 0.50707(11) 0.61091(13) 0.84411(8)
C1 C 0.26828(15) 0.26328(16) 0.52493(11)
H1 H 0.32230 0.20490 0.47090
C2 C 0.29707(16) 0.77573(18) 0.47858(12)
H2 H 0.25490 0.72840 0.54270
C3 C 0.51334(18) 0.54535(15) 0.74959(14)
H3 H 0.49230 0.43330 0.74560
C4 C -0.0144(2) 0.4624(2) 0.71525(17)
H4 H -0.05520 0.50250 0.64440
H5 H -0.00580 0.34360 0.70990
C5 C -0.1184(2) 0.5045(2) 0.8079(2)
H6 H -0.07420 0.47420 0.87890
H7 H -0.21100 0.44590 0.79790
H8 H -0.13760 0.62080 0.80720
N1 N 0.13657(15) 0.53406(16) 0.73260(12)
H9 H 0.13050 0.64340 0.73050
H10 H 0.19790 0.49930 0.67830
H11 H 0.17200 0.50260 0.79950
Mg1A Mg 0.47242(4) 0.49759(6) 0.99988(5)
Mg1B Mg 0.02758(4) -0.00241(6) 0.49988(5)
Mg1B* Mg 0.02758(4) 0.99759(6) 0.49988(5)
O2B O 0.64741(11) 0.29664(11) 0.55602(8)
O4B O 0.72946(10) 0.60293(11) 0.43847(8)
O6A O 0.49293(11) 0.38909(13) 0.34411(8)
#END
