
#######################################################################
#
#                 Cambridge Crystallographic Data Centre
#                                CCDC
#
#######################################################################
#
# If this CIF has been generated from an entry in the Cambridge
# Structural Database, then it will include bibliographic, chemical,
# crystal, experimental, refinement or atomic coordinate data resulting
# from the CCDC's data processing and validation procedures.
#
#######################################################################

data_CSD_CIF_SIRBIG01
_audit_creation_date 2013-12-17
_audit_creation_method CSD-ConQuest-V1
_database_code_CSD SIRBIG01
_database_code_depnum_ccdc_archive 'CCDC 901264'
_chemical_formula_sum 'C5 H11 Mg1 N1 O6'
_chemical_formula_moiety
;
(C3 H3 Mg1 O6 1-)n,C2 H8 N1 1+
;
_journal_coden_Cambridge 1220
_journal_volume 20
_journal_year 2014
_journal_page_first 1146
_journal_name_full 'Chem.-Eur.J. '
loop_
_publ_author_name
"Ran Shang"
"Guan-Cheng Xu"
"Zhe-Ming Wang"
"Song Gao"
_chemical_name_systematic
;
catena-[Ethylammonium tris(\m~2~-formato)-magnesium(ii)]
;
_cell_volume    860.108
_exptl_crystal_colour 'colorless'
_exptl_crystal_density_diffrn 1.587
_exptl_special_details
;
Phase transitions at 374 K and 426 K.

;
_exptl_crystal_description 'column'
_diffrn_ambient_temperature 363
#These two values have been output from a single CSD field.
_refine_ls_R_factor_gt 0.0283
_refine_ls_wR_factor_gt 0.0283
_symmetry_cell_setting orthorhombic
_symmetry_space_group_name_H-M 'P n a 21'
_symmetry_Int_Tables_number 33
loop_
_symmetry_equiv_pos_site_id
_symmetry_equiv_pos_as_xyz
1 x,y,z
2 -x,-y,1/2+z
3 1/2+x,1/2-y,z
4 1/2-x,1/2+y,1/2+z
_cell_length_a 8.9261(2)
_cell_length_b 8.1266(2)
_cell_length_c 11.8572(3)
_cell_angle_alpha 90
_cell_angle_beta 90
_cell_angle_gamma 90
_cell_formula_units_Z 4
loop_
_atom_type_symbol
_atom_type_radius_bond
C 0.68
H 0.23
Mg 1.41
N 0.68
O 0.68
loop_
_atom_site_label
_atom_site_type_symbol
_atom_site_fract_x
_atom_site_fract_y
_atom_site_fract_z
Mg1 Mg 0.52629(4) 0.50234(6) 0.49990(5)
O1 O 0.32404(10) 0.39471(11) 0.55933(7)
O2 O 0.14668(10) 0.20364(11) 0.55530(7)
O3 O 0.41099(10) 0.71135(11) 0.44391(8)
O4 O 0.22805(10) 0.89644(11) 0.43882(8)
O5 O 0.54459(12) 0.61597(13) 0.65914(7)
O6 O 0.50798(11) 0.60998(12) 0.84389(8)
C1 C 0.26725(14) 0.26311(15) 0.52467(11)
H1 H 0.32100 0.20470 0.47070
C2 C 0.29543(15) 0.77516(17) 0.47866(12)
H2 H 0.25290 0.72740 0.54230
C3 C 0.51366(17) 0.54475(14) 0.74980(14)
H3 H 0.49310 0.43270 0.74600
C4 C -0.0131(2) 0.4637(2) 0.71544(17)
H4 H -0.05330 0.50490 0.64490
H5 H -0.00480 0.34500 0.70920
C5 C -0.1170(2) 0.5042(2) 0.8071(2)
H6 H -0.07200 0.47640 0.87820
H7 H -0.20810 0.44290 0.79780
H8 H -0.13880 0.61990 0.80550
N1 N 0.13754(15) 0.53410(16) 0.73343(12)
H9 H 0.13210 0.64340 0.73140
H10 H 0.19900 0.49910 0.67940
H11 H 0.17230 0.50220 0.80030
Mg1A Mg 0.47371(4) 0.49766(6) 0.99990(5)
Mg1B Mg 0.02629(4) -0.00234(6) 0.49990(5)
Mg1B* Mg 0.02629(4) 0.99766(6) 0.49990(5)
O2B O 0.64668(10) 0.29636(11) 0.55530(7)
O4B O 0.72805(10) 0.60356(11) 0.43882(8)
O6A O 0.49202(11) 0.39002(12) 0.34389(8)
#END
