
#######################################################################
#
#                 Cambridge Crystallographic Data Centre
#                                CCDC
#
#######################################################################
#
# If this CIF has been generated from an entry in the Cambridge
# Structural Database, then it will include bibliographic, chemical,
# crystal, experimental, refinement or atomic coordinate data resulting
# from the CCDC's data processing and validation procedures.
#
#######################################################################

data_CSD_CIF_SIRBIG03
_audit_creation_date 2017-02-10
_audit_creation_method CSD-ConQuest-V1
_database_code_CSD SIRBIG03
_database_code_depnum_ccdc_archive 'CCDC 958254'
_chemical_formula_sum 'C5 H11 Mg1 N1 O6'
_chemical_formula_moiety
;
(C3 H3 Mg1 O6 1-)n,C2 H8 N1 1+
;
_journal_coden_Cambridge 1220
_journal_volume 20
_journal_year 2014
_journal_page_first 1146
_journal_name_full 'Chem.-Eur.J. '
loop_
_publ_author_name
"Ran Shang"
"Guan-Cheng Xu"
"Zhe-Ming Wang"
"Song Gao"
_chemical_name_systematic
;
catena-[ethylammonium tris(\m-formato)-magnesium(ii)]
;
_cell_volume    840.020
_exptl_crystal_colour 'colorless'
_exptl_crystal_density_diffrn 1.625
_exptl_special_details
;
low-temperature polymorph

;
_exptl_crystal_description 'column'
_diffrn_ambient_temperature 93
#These two values have been output from a single CSD field.
_refine_ls_R_factor_gt 0.0252
_refine_ls_wR_factor_gt 0.0252
_symmetry_cell_setting orthorhombic
_symmetry_space_group_name_H-M 'P n a 21'
_symmetry_Int_Tables_number 33
loop_
_symmetry_equiv_pos_site_id
_symmetry_equiv_pos_as_xyz
1 x,y,z
2 -x,-y,1/2+z
3 1/2+x,1/2-y,z
4 1/2-x,1/2+y,1/2+z
_cell_length_a 8.8321(2)
_cell_length_b 8.0999(2)
_cell_length_c 11.7421(3)
_cell_angle_alpha 90
_cell_angle_beta 90
_cell_angle_gamma 90
_cell_formula_units_Z 4
loop_
_atom_type_symbol
_atom_type_radius_bond
C 0.68
H 0.23
Mg 1.41
N 0.68
O 0.68
loop_
_atom_site_label
_atom_site_type_symbol
_atom_site_fract_x
_atom_site_fract_y
_atom_site_fract_z
Mg1 Mg 0.53200(4) 0.50277(5) 0.49998(3)
O1 O 0.32592(8) 0.40007(9) 0.55951(6)
O2 O 0.14960(8) 0.20338(9) 0.55967(6)
O3 O 0.42038(8) 0.71194(9) 0.43864(6)
O4 O 0.23608(8) 0.90077(9) 0.43748(6)
O5 O 0.54811(8) 0.62209(10) 0.65874(6)
O6 O 0.50273(8) 0.61599(10) 0.84511(6)
C1 C 0.27079(12) 0.26466(13) 0.52579(9)
H1 H 0.32630 0.20480 0.47010
C2 C 0.30490(12) 0.77789(14) 0.47851(9)
H2 H 0.26460 0.73140 0.54630
C3 C 0.51076(14) 0.54951(13) 0.74944(10)
H3 H 0.48690 0.43540 0.74460
C4 C -0.02202(12) 0.45731(15) 0.71539(10)
H4 H -0.01240 0.33560 0.71200
H5 H -0.06550 0.49530 0.64220
C5 C -0.12705(13) 0.50351(15) 0.81086(11)
H6 H -0.08020 0.47480 0.88390
H7 H -0.22270 0.44340 0.80250
H8 H -0.14670 0.62250 0.80850
N1 N 0.13093(11) 0.53195(11) 0.73084(8)
H9 H 0.12390 0.64380 0.72550
H10 H 0.19440 0.49360 0.67580
H11 H 0.16780 0.50410 0.80060
Mg1A Mg 0.46800(4) 0.49723(5) 0.99998(3)
Mg1B Mg 0.03200(4) -0.00277(5) 0.49998(3)
Mg1B* Mg 0.03200(4) 0.99723(5) 0.49998(3)
O2B O 0.64960(8) 0.29662(9) 0.55967(6)
O4B O 0.73608(8) 0.59923(9) 0.43748(6)
O6A O 0.49727(8) 0.38401(10) 0.34511(6)
#END
