
#######################################################################
#
#                 Cambridge Crystallographic Data Centre
#                                CCDC
#
#######################################################################
#
# If this CIF has been generated from an entry in the Cambridge
# Structural Database, then it will include bibliographic, chemical,
# crystal, experimental, refinement or atomic coordinate data resulting
# from the CCDC's data processing and validation procedures.
#
#######################################################################

data_CSD_CIF_SIRBIG
_audit_creation_date 2013-12-17
_audit_creation_method CSD-ConQuest-V1
_database_code_CSD SIRBIG
_database_code_depnum_ccdc_archive 'CCDC 901263'
_chemical_formula_sum 'C5 H11 Mg1 N1 O6'
_chemical_formula_moiety
;
(C2 H8 N1 1+)n,n(C3 H3 Mg1 O6 1-)
;
_journal_coden_Cambridge 1220
_journal_volume 20
_journal_year 2014
_journal_page_first 1146
_journal_name_full 'Chem.-Eur.J. '
loop_
_publ_author_name
"Ran Shang"
"Guan-Cheng Xu"
"Zhe-Ming Wang"
"Song Gao"
_chemical_name_systematic
;
catena-[Ethylammonium tris(\m~2~-formato)-magnesium(ii)]
;
_cell_volume    853.135
_exptl_crystal_colour 'colorless'
_exptl_crystal_density_diffrn 1.6
_exptl_special_details
;
Phase transitions at 374 K and 426 K.

;
_exptl_crystal_description 'column'
_diffrn_ambient_temperature 292
#These two values have been output from a single CSD field.
_refine_ls_R_factor_gt 0.0272
_refine_ls_wR_factor_gt 0.0272
_symmetry_cell_setting orthorhombic
_symmetry_space_group_name_H-M 'P n a 21'
_symmetry_Int_Tables_number 33
loop_
_symmetry_equiv_pos_site_id
_symmetry_equiv_pos_as_xyz
1 x,y,z
2 -x,-y,1/2+z
3 1/2+x,1/2-y,z
4 1/2-x,1/2+y,1/2+z
_cell_length_a 8.8978(2)
_cell_length_b 8.1160(2)
_cell_length_c 11.8139(3)
_cell_angle_alpha 90
_cell_angle_beta 90
_cell_angle_gamma 90
_cell_formula_units_Z 4
loop_
_atom_type_symbol
_atom_type_radius_bond
C 0.68
H 0.23
Mg 1.41
N 0.68
O 0.68
loop_
_atom_site_label
_atom_site_type_symbol
_atom_site_fract_x
_atom_site_fract_y
_atom_site_fract_z
Mg1 Mg 0.52872(4) 0.50259(5) 0.49986(4)
O1 O 0.32532(9) 0.39656(10) 0.55966(7)
O2 O 0.14818(10) 0.20337(10) 0.55681(7)
O3 O 0.41442(10) 0.71163(10) 0.44232(7)
O4 O 0.23110(9) 0.89783(10) 0.43816(7)
O5 O 0.54636(10) 0.61817(12) 0.65898(7)
O6 O 0.50607(10) 0.61182(11) 0.84430(7)
C1 C 0.26921(13) 0.26366(14) 0.52528(10)
H1 H 0.32330 0.20520 0.47130
C2 C 0.29891(14) 0.77619(16) 0.47842(10)
H2 H 0.25720 0.72920 0.54300
C3 C 0.51305(16) 0.54624(13) 0.74956(12)
H3 H 0.49180 0.43420 0.74540
C4 C -0.01594(17) 0.4612(2) 0.71532(14)
H4 H -0.05700 0.50040 0.64420
H5 H -0.00720 0.34220 0.71060
C5 C -0.12016(19) 0.5045(2) 0.80829(18)
H6 H -0.07500 0.47660 0.87960
H7 H -0.21230 0.44430 0.79940
H8 H -0.14070 0.62050 0.80620
N1 N 0.13561(13) 0.53360(14) 0.73221(10)
H9 H 0.12930 0.64300 0.72980
H10 H 0.19690 0.49860 0.67780
H11 H 0.17150 0.50260 0.79920
Mg1A Mg 0.47128(4) 0.49741(5) 0.99986(4)
Mg1B Mg 0.02872(4) -0.00259(5) 0.49986(4)
Mg1B* Mg 0.02872(4) 0.99741(5) 0.49986(4)
O2B O 0.64818(10) 0.29663(10) 0.55681(7)
O4B O 0.73110(9) 0.60217(10) 0.43816(7)
O6A O 0.49393(10) 0.38818(11) 0.34430(7)
#END
