
#######################################################################
#
#                 Cambridge Crystallographic Data Centre
#                                CCDC
#
#######################################################################
#
# If this CIF has been generated from an entry in the Cambridge
# Structural Database, then it will include bibliographic, chemical,
# crystal, experimental, refinement or atomic coordinate data resulting
# from the CCDC's data processing and validation procedures.
#
#######################################################################

data_CSD_CIF_SISFIL
_audit_creation_date 2013-12-17
_audit_creation_method CSD-ConQuest-V1
_database_code_CSD SISFIL
_database_code_depnum_ccdc_archive 'CCDC 943749'
_chemical_formula_sum 'C14 H28 N2 Ni1 O19 Sr1'
_chemical_formula_moiety
;
(C14 H10 N2 Ni1 O10 2-)n,n(H12 O6 Sr1 2+),3n(H2 O1)
;
_journal_coden_Cambridge 1350
_journal_volume 16
_journal_year 2014
_journal_page_first 1091
_journal_name_full 'CrystEngComm '
loop_
_publ_author_name
"Yanmei Chen"
"Shixiong She"
"Qian Gao"
"Dandan Gao"
"Derong Wang"
"Yahong Li"
"Wei Liu"
"Wu Li"
_chemical_name_systematic
;
catena-(tris(\m~2~-Aqua)-triaqua-strontium 
diaqua-bis(pyridine-2,5-dicarboxylato-N,O)-nickel trihydrate)
;
_cell_volume   2765.099
_exptl_crystal_colour 'light blue'
_exptl_crystal_density_diffrn 1.621
_exptl_crystal_description 'rod'
_diffrn_ambient_temperature 296
_refine_special_details
;
H11A,H11B,O11 disordered over two configurations with occupancies 
0.25,0.50,0.50.
;
#These two values have been output from a single CSD field.
_refine_ls_R_factor_gt 0.0342
_refine_ls_wR_factor_gt 0.0342
_symmetry_cell_setting orthorhombic
_symmetry_space_group_name_H-M 'P n m a'
_symmetry_Int_Tables_number 62
loop_
_symmetry_equiv_pos_site_id
_symmetry_equiv_pos_as_xyz
1 x,y,z
2 1/2-x,-y,1/2+z
3 -x,1/2+y,-z
4 1/2+x,1/2-y,1/2-z
5 -x,-y,-z
6 -1/2+x,y,-1/2-z
7 x,-1/2-y,z
8 -1/2-x,-1/2+y,-1/2+z
_cell_length_a 7.323(4)
_cell_length_b 22.223(11)
_cell_length_c 16.991(9)
_cell_angle_alpha 90
_cell_angle_beta 90
_cell_angle_gamma 90
_cell_formula_units_Z 4
loop_
_atom_type_symbol
_atom_type_radius_bond
C 0.68
H 0.23
N 0.68
Ni 1.24
O 0.68
Sr 1.95
loop_
_atom_site_label
_atom_site_type_symbol
_atom_site_fract_x
_atom_site_fract_y
_atom_site_fract_z
Sr1 Sr -0.06009(7) 0.25000 0.18917(3)
O1 O 0.2333(4) 0.31905(12) 0.21570(16)
H1 H 0.27760 0.32910 0.17140
H2 H 0.20280 0.35260 0.23570
O2 O -0.1254(5) 0.34783(13) 0.11829(17)
H3 H -0.06210 0.36660 0.08430
H4 H -0.20370 0.37390 0.13230
O3 O 0.1046(7) 0.25000 0.0548(2)
H5 H 0.12340 0.28020 0.02520
O4 O -0.4130(6) 0.25000 0.1550(2)
H6 H -0.45090 0.27940 0.12740
N1 N -0.0243(4) 0.52053(15) 0.11551(18)
C1 C -0.0856(6) 0.57635(18) 0.1277(2)
O5 O -0.0877(4) 0.58583(13) -0.00976(16)
Ni1 Ni 0.00000 0.50000 0.00000
C2 C -0.1082(7) 0.5992(2) 0.2019(2)
H7 H -0.15000 0.63830 0.20920
O6 O -0.1911(6) 0.66130(15) 0.05939(19)
O7 O -0.0014(5) 0.47844(18) 0.38626(17)
C3 C -0.0679(6) 0.56328(19) 0.2654(2)
H8 H -0.08380 0.57770 0.31630
O8 O 0.1297(5) 0.41808(14) 0.30196(16)
C4 C -0.0041(5) 0.50598(17) 0.2532(2)
O9 O 0.2658(4) 0.53274(14) 0.00863(16)
H9 H 0.33880 0.52810 -0.02980
H10 H 0.32400 0.52140 0.04930
C5 C 0.0170(6) 0.48641(18) 0.1768(2)
H11 H 0.06190 0.44780 0.16800
C6 C -0.1248(6) 0.61106(19) 0.0542(2)
C7 C 0.0451(6) 0.4643(2) 0.3188(2)
O10 O 0.4241(5) 0.34658(15) 0.08006(19)
H12 H 0.43060 0.38370 0.09160
H13 H 0.36520 0.34450 0.03700
O11 O -0.706(4) 0.75000 0.0973(18)
O12 O -0.335(5) 0.75000 0.1893(17)
H14 H -0.26750 0.76280 0.15210
H15 H -0.44060 0.75000 0.16880
H5F H 0.12340 0.21980 0.02520
H6F H -0.45090 0.22060 0.12740
O1F O 0.2333(4) 0.18095(12) 0.21570(16)
H1F H 0.27760 0.17090 0.17140
H2F H 0.20280 0.14740 0.23570
O2F O -0.1254(5) 0.15217(13) 0.11829(17)
H3F H -0.06210 0.13340 0.08430
H4F H -0.20370 0.12610 0.13230
Sr1C Sr -0.56009(7) 0.25000 0.31083(3)
Sr1C* Sr 0.43991(7) 0.25000 0.31083(3)
O1C O -0.2667(4) 0.18095(12) 0.28430(16)
O1E O -0.2667(4) 0.31905(12) 0.28430(16)
O4C O 0.0870(6) 0.25000 0.3450(2)
N1D N 0.0243(4) 0.47947(15) -0.11551(18)
C1D C 0.0856(6) 0.42365(18) -0.1277(2)
O5D O 0.0877(4) 0.41417(13) 0.00976(16)
C2D C 0.1082(7) 0.4008(2) -0.2019(2)
H7D H 0.15000 0.36170 -0.20920
O6D O 0.1911(6) 0.33870(15) -0.05939(19)
O7D O 0.0014(5) 0.52156(18) -0.38626(17)
C3D C 0.0679(6) 0.43672(19) -0.2654(2)
H8D H 0.08380 0.42230 -0.31630
O8D O -0.1297(5) 0.58192(14) -0.30196(16)
C4D C 0.0041(5) 0.49402(17) -0.2532(2)
O9D O -0.2658(4) 0.46726(14) -0.00863(16)
H9D H -0.33880 0.47190 0.02980
H10D H -0.32400 0.47860 -0.04930
C5D C -0.0170(6) 0.51359(18) -0.1768(2)
H11D H -0.06190 0.55220 -0.16800
C6D C 0.1248(6) 0.38894(19) -0.0542(2)
C7D C -0.0451(6) 0.5357(2) -0.3188(2)
#END
