
#######################################################################
#
#                 Cambridge Crystallographic Data Centre
#                                CCDC
#
#######################################################################
#
# If this CIF has been generated from an entry in the Cambridge
# Structural Database, then it will include bibliographic, chemical,
# crystal, experimental, refinement or atomic coordinate data resulting
# from the CCDC's data processing and validation procedures.
#
#######################################################################

data_CSD_CIF_SITQOC
_audit_creation_date 2008-06-20
_audit_creation_method CSD-ConQuest-V1
_database_code_CSD SITQOC
_database_code_depnum_ccdc_archive 'CCDC 624829'
_chemical_formula_sum 'C72 H48 Ag4 Mo12 N12 O40 P1'
_chemical_formula_moiety
;
(C24 H16 Ag1 N4 1+)2n,n(C24 H16 Ag2 Mo12 N4 O40 P1 2-)
;
_journal_coden_Cambridge 208
_journal_volume 181
_journal_year 2008
_journal_page_first 313
_journal_name_full 'J.Solid State Chem. '
loop_
_publ_author_name
"Jian Lu"
"Fu-Xian Xiao"
"Lin-Xi Shi"
"Rong Cao"
_chemical_name_systematic
;
catena-(bis(bis(1,10-Phenanthroline)-silver(i)) 
(\m~12~-phosphato)-tetrakis(\m~3~-oxo)-icosakis(\m~2~-oxo)-bis(1,10-phenanthro
line)-dodecaoxo-di-silver-dodeca-molybdenum)
;
_cell_volume   8550.150
_exptl_crystal_colour 'brown'
_exptl_crystal_density_diffrn 2.591
_exptl_special_details
;
luminescent

;
_exptl_crystal_description 'block'
_diffrn_ambient_temperature 293
#These two values have been output from a single CSD field.
_refine_ls_R_factor_gt 0.0725
_refine_ls_wR_factor_gt 0.0725
_symmetry_cell_setting monoclinic
_symmetry_space_group_name_H-M 'C 2/c'
_symmetry_Int_Tables_number 15
loop_
_symmetry_equiv_pos_site_id
_symmetry_equiv_pos_as_xyz
1 x,y,z
2 1/2+x,1/2+y,z
3 -x,y,1/2-z
4 1/2-x,1/2+y,1/2-z
5 -x,-y,-z
6 -1/2-x,-1/2-y,-z
7 x,-y,-1/2+z
8 -1/2+x,-1/2-y,-1/2+z
_cell_length_a 10.9134(5)
_cell_length_b 47.545(2)
_cell_length_c 17.1692(8)
_cell_angle_alpha 90
_cell_angle_beta 106.311(1)
_cell_angle_gamma 90
_cell_formula_units_Z 4
loop_
_atom_type_symbol
_atom_type_radius_bond
C 0.68
H 0.23
Ag 1.53
Mo 1.36
N 0.68
O 0.68
P 1.05
loop_
_atom_site_label
_atom_site_type_symbol
_atom_site_fract_x
_atom_site_fract_y
_atom_site_fract_z
Ag1 Ag 0.65050(14) 0.11163(2) 0.22927(8)
N1 N 0.7022(11) 0.1503(2) 0.1505(7)
N2 N 0.6539(11) 0.1511(2) 0.2998(6)
N3 N 0.5856(11) 0.0809(2) 0.1146(7)
N4 N 0.6721(10) 0.0665(2) 0.2776(7)
C1 C 0.7207(15) 0.1505(4) 0.0772(11)
H1 H 0.73480 0.13340 0.05440
C2 C 0.720(2) 0.1746(6) 0.0339(13)
H2 H 0.72990 0.17370 -0.01810
C3 C 0.7047(16) 0.1994(5) 0.0651(14)
H3 H 0.70380 0.21580 0.03520
C4 C 0.6900(13) 0.2008(3) 0.1439(11)
C5 C 0.6755(15) 0.2264(4) 0.1808(13)
H4 H 0.67590 0.24320 0.15310
C6 C 0.6610(15) 0.2269(3) 0.2559(14)
H5 H 0.65590 0.24420 0.28040
C7 C 0.6531(13) 0.2019(3) 0.2988(10)
C8 C 0.6351(15) 0.2015(4) 0.3758(11)
H6 H 0.63020 0.21830 0.40220
C9 C 0.6248(15) 0.1773(5) 0.4121(10)
H7 H 0.61110 0.17700 0.46310
C10 C 0.6349(14) 0.1525(3) 0.3726(9)
H8 H 0.62800 0.13570 0.39880
C11 C 0.6638(12) 0.1758(3) 0.2627(8)
C12 C 0.6861(13) 0.1752(3) 0.1843(9)
C13 C 0.5551(15) 0.0883(3) 0.0368(9)
H9 H 0.53090 0.10670 0.02260
C14 C 0.5580(15) 0.0692(4) -0.0238(9)
H10 H 0.53820 0.07520 -0.07750
C15 C 0.5893(13) 0.0423(3) -0.0054(9)
H11 H 0.59470 0.02970 -0.04560
C16 C 0.6138(13) 0.0335(3) 0.0760(9)
C17 C 0.6400(15) 0.0053(3) 0.1006(10)
H12 H 0.64180 -0.00810 0.06160
C18 C 0.6623(14) -0.0029(3) 0.1780(11)
H13 H 0.67120 -0.02190 0.19120
C19 C 0.6724(13) 0.0179(3) 0.2410(9)
C20 C 0.7000(14) 0.0106(3) 0.3236(9)
H14 H 0.70660 -0.00810 0.33940
C21 C 0.7166(14) 0.0312(3) 0.3793(8)
H15 H 0.73760 0.02680 0.43430
C22 C 0.7021(15) 0.0594(3) 0.3544(8)
H16 H 0.71420 0.07350 0.39350
C23 C 0.6550(12) 0.0461(2) 0.2198(8)
C24 C 0.6189(12) 0.0541(2) 0.1347(7)
Ag2 Ag 0.00000 0.02852(3) 0.75000
Ag3 Ag 0.50000 0.19917(3) 0.75000
Mo1 Mo 0.01495(11) 0.13232(2) 0.95858(6)
Mo2 Mo 0.15789(11) 0.08008(2) 0.88348(6)
Mo3 Mo 0.34109(10) 0.13720(2) 0.82113(7)
Mo4 Mo 0.16885(11) 0.08398(2) 0.66923(6)
Mo5 Mo 0.18023(11) 0.18485(2) 0.67858(7)
Mo6 Mo 0.16839(10) 0.18969(2) 0.87303(6)
P1 P 0.00000 0.13443(7) 0.75000
O1 O 0.2794(8) 0.11111(15) 0.7264(4)
O2 O 0.4972(8) 0.13050(16) 0.8508(5)
O3 O 0.1204(7) 0.15296(13) 0.7712(4)
O4 O 0.2663(8) 0.05905(15) 0.6511(5)
O5 O 0.2560(9) 0.05529(16) 0.9365(5)
O6 O 0.2373(8) 0.20882(15) 0.6270(5)
O7 O 0.0049(7) 0.19700(14) 0.6575(4)
O8 O 0.2257(8) 0.21457(15) 0.9429(4)
O9 O 0.0000(7) 0.11575(13) 0.8230(4)
O10 O -0.0046(8) 0.06375(14) 0.8711(5)
O11 O 0.1246(7) 0.15921(14) 0.9401(4)
O12 O 0.0120(8) 0.13841(15) 1.0539(4)
O13 O -0.1233(7) 0.15745(13) 0.8967(4)
O14 O 0.2767(7) 0.10969(14) 0.8761(4)
O15 O 0.3249(7) 0.16651(15) 0.8871(4)
O16 O 0.2023(7) 0.20507(14) 0.7824(4)
O17 O 0.1297(8) 0.10235(14) 0.9723(4)
O18 O 0.3327(7) 0.16509(14) 0.7342(5)
O19 O 0.1236(8) 0.10383(14) 0.5725(4)
O20 O 0.1537(8) 0.07155(15) 0.7754(5)
N5 N -0.0301(10) -0.0107(2) 0.6663(6)
N6 N 0.5137(9) 0.2384(2) 0.6719(7)
C25 C -0.0605(15) -0.0106(3) 0.5863(8)
H17 H -0.07130 0.00660 0.55930
C26 C -0.0771(16) -0.0355(4) 0.5404(9)
H18 H -0.09910 -0.03480 0.48410
C27 C -0.0607(16) -0.0601(4) 0.5791(11)
H19 H -0.06970 -0.07660 0.54920
C28 C -0.0304(14) -0.0616(3) 0.6640(9)
C29 C -0.0144(18) -0.0869(3) 0.7092(10)
H20 H -0.02390 -0.10400 0.68170
C30 C 0.5082(15) 0.3150(3) 0.7133(9)
H21 H 0.51400 0.33210 0.68810
C31 C 0.5174(11) 0.2890(2) 0.6713(8)
C32 C 0.5287(13) 0.2884(3) 0.5927(9)
H22 H 0.53190 0.30510 0.56510
C33 C 0.5350(14) 0.2631(3) 0.5567(10)
H23 H 0.54480 0.26240 0.50460
C34 C 0.5269(13) 0.2386(3) 0.5971(10)
H24 H 0.53080 0.22150 0.57150
C35 C 0.5072(11) 0.2633(2) 0.7084(7)
C36 C -0.0152(12) -0.0354(2) 0.7069(7)
Ag3* Ag -0.50000 0.19917(3) 0.75000
Mo1B Mo -0.01495(11) 0.13232(2) 0.54142(6)
Mo2B Mo -0.15789(11) 0.08008(2) 0.61652(6)
Mo3B Mo -0.34109(10) 0.13720(2) 0.67887(7)
Mo4B Mo -0.16885(11) 0.08398(2) 0.83077(6)
Mo5B Mo -0.18023(11) 0.18485(2) 0.82142(7)
Mo6B Mo -0.16839(10) 0.18969(2) 0.62697(6)
O1B O -0.2794(8) 0.11111(15) 0.7736(4)
O2B O -0.4972(8) 0.13050(16) 0.6492(5)
O3B O -0.1204(7) 0.15296(13) 0.7288(4)
O4B O -0.2663(8) 0.05905(15) 0.8489(5)
O5B O -0.2560(9) 0.05529(16) 0.5635(5)
O6B O -0.2373(8) 0.20882(15) 0.8730(5)
O7B O -0.0049(7) 0.19700(14) 0.8425(4)
O8B O -0.2257(8) 0.21457(15) 0.5571(4)
O9B O 0.0000(7) 0.11575(13) 0.6770(4)
O10B O 0.0046(8) 0.06375(14) 0.6289(5)
O11B O -0.1246(7) 0.15921(14) 0.5599(4)
O12B O -0.0120(8) 0.13841(15) 0.4461(4)
O13B O 0.1233(7) 0.15745(13) 0.6033(4)
O14B O -0.2767(7) 0.10969(14) 0.6239(4)
O15B O -0.3249(7) 0.16651(15) 0.6129(4)
O16B O -0.2023(7) 0.20507(14) 0.7176(4)
O17B O -0.1297(8) 0.10235(14) 0.5277(4)
O18B O -0.3327(7) 0.16509(14) 0.7658(5)
O18B* O 0.6673(7) 0.16509(14) 0.7658(5)
O19B O -0.1236(8) 0.10383(14) 0.9275(4)
O20B O -0.1537(8) 0.07155(15) 0.7246(5)
N5B N 0.0301(10) -0.0107(2) 0.8337(6)
N6B N 0.4863(9) 0.2384(2) 0.8281(7)
C25B C 0.0605(15) -0.0106(3) 0.9137(8)
H17B H 0.07130 0.00660 0.94070
C26B C 0.0771(16) -0.0355(4) 0.9596(9)
H18B H 0.09910 -0.03480 1.01590
C27B C 0.0607(16) -0.0601(4) 0.9209(11)
H19B H 0.06970 -0.07660 0.95080
C28B C 0.0304(14) -0.0616(3) 0.8360(9)
C29B C 0.0144(18) -0.0869(3) 0.7908(10)
H20B H 0.02390 -0.10400 0.81830
C30B C 0.4918(15) 0.3150(3) 0.7867(9)
H21B H 0.48600 0.33210 0.81190
C31B C 0.4826(11) 0.2890(2) 0.8287(8)
C32B C 0.4713(13) 0.2884(3) 0.9073(9)
H22B H 0.46810 0.30510 0.93490
C33B C 0.4650(14) 0.2631(3) 0.9433(10)
H23B H 0.45520 0.26240 0.99540
C34B C 0.4731(13) 0.2386(3) 0.9029(10)
H24B H 0.46920 0.22150 0.92850
C35B C 0.4928(11) 0.2633(2) 0.7916(7)
C36B C 0.0152(12) -0.0354(2) 0.7931(7)
#END
