
#######################################################################
#
#                 Cambridge Crystallographic Data Centre
#                                CCDC
#
#######################################################################
#
# If this CIF has been generated from an entry in the Cambridge
# Structural Database, then it will include bibliographic, chemical,
# crystal, experimental, refinement or atomic coordinate data resulting
# from the CCDC's data processing and validation procedures.
#
#######################################################################

data_CSD_CIF_SIWPUL08
_audit_creation_date 2015-09-26
_audit_creation_method CSD-ConQuest-V1
_database_code_CSD SIWPUL08
_database_code_depnum_ccdc_archive 'CCDC 1400256'
_chemical_formula_sum 'C3 H8 Mn1 N2 O6'
_chemical_formula_moiety
;
(C3 H3 Mn1 O6 1-)n,H5 N2 1+
;
_journal_coden_Cambridge 179
_journal_volume 54
_journal_year 2015
_journal_page_first 11093
_journal_name_full 'Angew.Chem.,Int.Ed. '
loop_
_publ_author_name
"Sa Chen"
"Ran Shang"
"Bing-Wu Wang"
"Zhe-Ming Wang"
"Song Gao"
_chemical_name_systematic
;
catena-(Hydrazinium tris(\m~2~-formato)-manganese)
;
_cell_volume    831.008
_exptl_crystal_colour 'colorless'
_exptl_crystal_density_diffrn 1.783
_exptl_special_details
;
Pnma polymorph

;
_exptl_crystal_description 'block'
_diffrn_ambient_temperature 360
_refine_special_details
;
N2 disordered by symmetry over two configurations with occupancy 0.50.

;
#These two values have been output from a single CSD field.
_refine_ls_R_factor_gt 0.0449
_refine_ls_wR_factor_gt 0.0449
_symmetry_cell_setting orthorhombic
_symmetry_space_group_name_H-M 'P n m a'
_symmetry_Int_Tables_number 62
loop_
_symmetry_equiv_pos_site_id
_symmetry_equiv_pos_as_xyz
1 x,y,z
2 1/2-x,-y,1/2+z
3 -x,1/2+y,-z
4 1/2+x,1/2-y,1/2-z
5 -x,-y,-z
6 -1/2+x,y,-1/2-z
7 x,-1/2-y,z
8 -1/2-x,-1/2+y,-1/2+z
_cell_length_a 8.8677(5)
_cell_length_b 11.8618(6)
_cell_length_c 7.9003(4)
_cell_angle_alpha 90
_cell_angle_beta 90
_cell_angle_gamma 90
_cell_formula_units_Z 4
loop_
_atom_type_symbol
_atom_type_radius_bond
C 0.68
H 0.23
Mn 1.61
N 0.68
O 0.68
loop_
_atom_site_label
_atom_site_type_symbol
_atom_site_fract_x
_atom_site_fract_y
_atom_site_fract_z
Mn1 Mn 0.50000 0.00000 0.50000
O1 O 0.4629(3) 0.15726(16) 0.3623(2)
O2 O 0.4025(2) 0.06887(16) 0.7316(2)
O3 O 0.2174(2) 0.06857(17) 0.9184(2)
C1 C 0.4690(5) 0.25000 0.4330(5)
H1 H 0.47910 0.25000 0.55020
C2 C 0.2812(4) 0.0349(3) 0.7890(4)
H2 H 0.23290 -0.02190 0.72850
N1 N 0.4295(6) 0.25000 1.0105(4)
H3 H 0.4164(17) 0.221(3) 1.115(2)
H4 H 0.403(2) 0.197(3) 0.935(4)
H5 H 0.3661(11) 0.3083(11) 0.998(6)
N2 N 0.5797(8) 0.2841(7) 0.9859(9)
H6 H 0.5866(16) 0.3585(7) 0.973(3)
H7 H 0.6208(16) 0.25000 0.897(2)
O1F O 0.4629(3) 0.34274(16) 0.3623(2)
O2D O 0.5975(2) -0.06887(16) 0.2684(2)
O3D O 0.7826(2) -0.06857(17) 0.0816(2)
C2D C 0.7188(4) -0.0349(3) 0.2110(4)
H2D H 0.76710 0.02190 0.27150
Mn1A Mn 0.00000 0.00000 1.00000
Mn1A* Mn 1.00000 0.00000 0.00000
Mn1B Mn 0.50000 0.50000 0.50000
O1D O 0.5371(3) -0.15726(16) 0.6377(2)
O3A O 0.2826(2) -0.06857(17) 0.4184(2)
O3E O 0.7174(2) 0.06857(17) 0.5816(2)
H3F H 0.4164(17) 0.279(3) 1.115(2)
H4F H 0.403(2) 0.303(3) 0.935(4)
H5F H 0.3661(11) 0.1917(11) 0.998(6)
N2F N 0.5797(8) 0.2159(7) 0.9859(9)
H6F H 0.5866(16) 0.1415(7) 0.973(3)
#END
