
#######################################################################
#
#                 Cambridge Crystallographic Data Centre
#                                CCDC
#
#######################################################################
#
# If this CIF has been generated from an entry in the Cambridge
# Structural Database, then it will include bibliographic, chemical,
# crystal, experimental, refinement or atomic coordinate data resulting
# from the CCDC's data processing and validation procedures.
#
#######################################################################

data_CSD_CIF_SIWPUL10
_audit_creation_date 2016-11-14
_audit_creation_method CSD-ConQuest-V1
_database_code_CSD SIWPUL10
_database_code_depnum_ccdc_archive 'CCDC 1506142'
_chemical_formula_sum 'C3 H8 Mn1 N2 O6'
_chemical_formula_moiety
;
(C3 H3 Mn1 O6 1-)n,n(H5 N2 1+)
;
_journal_coden_Cambridge 1326
_journal_volume 18
_journal_year 2016
_journal_page_first 31653
_journal_name_full 'Phys.Chem.Chem.Phys.(PCCP) '
loop_
_publ_author_name
"M.Maczka"
"K.Pasinska"
"M.Ptak"
"W.Paraguassu"
"T.A.da Silva"
"A.Sieradzki"
"A.Pikul"
_chemical_name_systematic
;
catena-(hydrazinium tris(\m-formato)-manganese)
;
_cell_volume    431.411
_exptl_crystal_colour 'colorless'
_exptl_crystal_density_diffrn 1.717
_exptl_special_details
;
P63 polymorph

;
_exptl_crystal_description 'block'
_diffrn_ambient_temperature 310
_refine_special_details
;
N1,N2 disordered by symmetry over three configurations with occupancy 0.3333.

;
#These two values have been output from a single CSD field.
_refine_ls_R_factor_gt 0.0171
_refine_ls_wR_factor_gt 0.0171
_symmetry_cell_setting hexagonal
_symmetry_space_group_name_H-M 'P 63'
_symmetry_Int_Tables_number 173
loop_
_symmetry_equiv_pos_site_id
_symmetry_equiv_pos_as_xyz
1 x,y,z
2 x-y,x,1/2+z
3 -y,x-y,z
4 -x,-y,1/2+z
5 -x+y,-x,z
6 y,-x+y,1/2+z
_cell_length_a 7.988(3)
_cell_length_b 7.988(3)
_cell_length_c 7.807(3)
_cell_angle_alpha 90
_cell_angle_beta 90
_cell_angle_gamma 120
_cell_formula_units_Z 2
loop_
_atom_type_symbol
_atom_type_radius_bond
C 0.68
H 0.23
Mn 1.61
N 0.68
O 0.68
loop_
_atom_site_label
_atom_site_type_symbol
_atom_site_fract_x
_atom_site_fract_y
_atom_site_fract_z
Mn1 Mn -0.33330 -0.66670 -0.27200(19)
O1 O -0.3130(3) -0.4305(3) -0.4260(3)
O2 O -0.4303(3) -0.3131(3) -0.6181(3)
C1 C -0.4401(4) -0.4397(4) -0.5222(6)
H1 H -0.55670 -0.55600 -0.52210
N1 N -0.065(6) -0.024(9) -0.343(4)
H2 H -0.16500 -0.13220 -0.37050
H3 H -0.10100 0.05350 -0.30350
N2 N 0.042(4) -0.030(8) -0.214(3)
H4 H 0.14850 -0.02450 -0.25540
H5 H -0.02570 -0.13990 -0.15550
H6 H 0.07480 0.06970 -0.14400
O1B O -0.5695(3) -0.8825(3) -0.4260(3)
O2B O -0.6869(3) -1.1172(3) -0.6181(3)
C1B C -0.5603(4) -1.0004(4) -0.5222(6)
H1B H -0.44400 -1.00070 -0.52210
O1D O -0.1175(3) -0.6870(3) -0.4260(3)
O2D O 0.1172(3) -0.5697(3) -0.6181(3)
C1D C 0.0004(4) -0.5599(4) -0.5222(6)
H1D H 0.00070 -0.44330 -0.52210
Mn1A Mn -0.66660 -1.33330 -0.77200(19)
Mn1A* Mn -0.66660 -0.33330 -0.77200(19)
Mn1A** Mn 0.33340 -0.33330 -0.77200(19)
O2A O -0.1172(3) -0.4303(3) -0.1181(3)
O2C O -0.5697(3) -0.6869(3) -0.1181(3)
O2E O -0.3131(3) -0.8828(3) -0.1181(3)
N1B N 0.024(6) -0.041(9) -0.343(4)
H2B H 0.13220 -0.03280 -0.37050
H3B H -0.05350 -0.15450 -0.30350
N2B N 0.030(4) 0.072(8) -0.214(3)
H4B H 0.02450 0.17300 -0.25540
H5B H 0.13990 0.11420 -0.15550
H6B H -0.06970 0.00510 -0.14400
N1D N 0.041(6) 0.065(9) -0.343(4)
H2D H 0.03280 0.16500 -0.37050
H3D H 0.15450 0.10100 -0.30350
N2D N -0.072(4) -0.042(8) -0.214(3)
H4D H -0.17300 -0.14850 -0.25540
H5D H -0.11420 0.02570 -0.15550
H6D H -0.00510 -0.07480 -0.14400
#END
