
#######################################################################
#
#                 Cambridge Crystallographic Data Centre
#                                CCDC
#
#######################################################################
#
# If this CIF has been generated from an entry in the Cambridge
# Structural Database, then it will include bibliographic, chemical,
# crystal, experimental, refinement or atomic coordinate data resulting
# from the CCDC's data processing and validation procedures.
#
#######################################################################

data_CSD_CIF_SIWPUL09
_audit_creation_date 2015-09-26
_audit_creation_method CSD-ConQuest-V1
_database_code_CSD SIWPUL09
_database_code_depnum_ccdc_archive 'CCDC 1400257'
_chemical_formula_sum 'C3 H8 Mn1 N2 O6'
_chemical_formula_moiety
;
(C3 H3 Mn1 O6 1-)n,H5 N2 1+
;
_journal_coden_Cambridge 179
_journal_volume 54
_journal_year 2015
_journal_page_first 11093
_journal_name_full 'Angew.Chem.,Int.Ed. '
loop_
_publ_author_name
"Sa Chen"
"Ran Shang"
"Bing-Wu Wang"
"Zhe-Ming Wang"
"Song Gao"
_chemical_name_systematic
;
catena-(Hydrazinium tris(\m~2~-formato)-manganese)
;
_cell_volume    832.816
_exptl_crystal_colour 'colorless'
_exptl_crystal_density_diffrn 1.779
_exptl_special_details
;
Pnma polymorph

;
_exptl_crystal_description 'block'
_diffrn_ambient_temperature 400
_refine_special_details
;
N2 disordered by symmetry over two configurations with occupancy 0.50.

;
#These two values have been output from a single CSD field.
_refine_ls_R_factor_gt 0.0316
_refine_ls_wR_factor_gt 0.0316
_symmetry_cell_setting orthorhombic
_symmetry_space_group_name_H-M 'P n m a'
_symmetry_Int_Tables_number 62
loop_
_symmetry_equiv_pos_site_id
_symmetry_equiv_pos_as_xyz
1 x,y,z
2 1/2-x,-y,1/2+z
3 -x,1/2+y,-z
4 1/2+x,1/2-y,1/2-z
5 -x,-y,-z
6 -1/2+x,y,-1/2-z
7 x,-1/2-y,z
8 -1/2-x,-1/2+y,-1/2+z
_cell_length_a 8.8538(5)
_cell_length_b 11.8792(7)
_cell_length_c 7.9183(4)
_cell_angle_alpha 90
_cell_angle_beta 90
_cell_angle_gamma 90
_cell_formula_units_Z 4
loop_
_atom_type_symbol
_atom_type_radius_bond
C 0.68
H 0.23
Mn 1.61
N 0.68
O 0.68
loop_
_atom_site_label
_atom_site_type_symbol
_atom_site_fract_x
_atom_site_fract_y
_atom_site_fract_z
Mn1 Mn 0.50000 0.00000 0.50000
O1 O 0.46313(18) 0.15740(11) 0.36350(17)
O2 O 0.40226(16) 0.06844(11) 0.73120(16)
O3 O 0.21803(16) 0.06796(11) 0.91808(17)
C1 C 0.4699(3) 0.25000 0.4337(4)
H1 H 0.48120 0.25000 0.55040
C2 C 0.2818(3) 0.0342(2) 0.7890(3)
H2 H 0.23380 -0.02300 0.72940
N1 N 0.4287(4) 0.25000 1.0117(3)
H3 H 0.4151(13) 0.223(3) 1.1166(16)
H4 H 0.3994(17) 0.196(2) 0.939(3)
H5 H 0.3653(10) 0.3085(10) 0.999(4)
N2 N 0.5784(6) 0.2817(6) 0.9839(6)
H6 H 0.5895(16) 0.3561(7) 0.977(3)
H7 H 0.6171(14) 0.25000 0.8914(17)
O1F O 0.46313(18) 0.34260(11) 0.36350(17)
O2D O 0.59774(16) -0.06844(11) 0.26880(16)
O3D O 0.78197(16) -0.06796(11) 0.08192(17)
C2D C 0.7182(3) -0.0342(2) 0.2110(3)
H2D H 0.76620 0.02300 0.27060
Mn1A Mn 0.00000 0.00000 1.00000
Mn1A* Mn 1.00000 0.00000 0.00000
Mn1B Mn 0.50000 0.50000 0.50000
O1D O 0.53687(18) -0.15740(11) 0.63650(17)
O3A O 0.28197(16) -0.06796(11) 0.41808(17)
O3E O 0.71803(16) 0.06796(11) 0.58192(17)
H3F H 0.4151(13) 0.277(3) 1.1166(16)
H4F H 0.3994(17) 0.304(2) 0.939(3)
H5F H 0.3653(10) 0.1915(10) 0.999(4)
N2F N 0.5784(6) 0.2183(6) 0.9839(6)
H6F H 0.5895(16) 0.1439(7) 0.977(3)
#END
