
#######################################################################
#
#                 Cambridge Crystallographic Data Centre
#                                CCDC
#
#######################################################################
#
# If this CIF has been generated from an entry in the Cambridge
# Structural Database, then it will include bibliographic, chemical,
# crystal, experimental, refinement or atomic coordinate data resulting
# from the CCDC's data processing and validation procedures.
#
#######################################################################

data_CSD_CIF_SIWPUL05
_audit_creation_date 2015-09-26
_audit_creation_method CSD-ConQuest-V1
_database_code_CSD SIWPUL05
_database_code_depnum_ccdc_archive 'CCDC 1400253'
_chemical_formula_sum 'C3 H8 Mn1 N2 O6'
_chemical_formula_moiety
;
(C3 H3 Mn1 O6 1-)n,n(H5 N2 1+)
;
_journal_coden_Cambridge 179
_journal_volume 54
_journal_year 2015
_journal_page_first 11093
_journal_name_full 'Angew.Chem.,Int.Ed. '
loop_
_publ_author_name
"Sa Chen"
"Ran Shang"
"Bing-Wu Wang"
"Zhe-Ming Wang"
"Song Gao"
_chemical_name_systematic
;
catena-(Hydrazinium tris(\m~2~-formato)-manganese)
;
_cell_volume    817.796
_exptl_crystal_colour 'colorless'
_exptl_crystal_density_diffrn 1.812
_exptl_special_details
;
Pna21 polymorph

;
_exptl_crystal_description 'block'
_diffrn_ambient_temperature 180
#These two values have been output from a single CSD field.
_refine_ls_R_factor_gt 0.0176
_refine_ls_wR_factor_gt 0.0176
_symmetry_cell_setting orthorhombic
_symmetry_space_group_name_H-M 'P n a 21'
_symmetry_Int_Tables_number 33
loop_
_symmetry_equiv_pos_site_id
_symmetry_equiv_pos_as_xyz
1 x,y,z
2 -x,-y,1/2+z
3 1/2+x,1/2-y,z
4 1/2-x,1/2+y,1/2+z
_cell_length_a 8.9387(3)
_cell_length_b 7.8164(3)
_cell_length_c 11.7048(4)
_cell_angle_alpha 90
_cell_angle_beta 90
_cell_angle_gamma 90
_cell_formula_units_Z 4
loop_
_atom_type_symbol
_atom_type_radius_bond
C 0.68
H 0.23
Mn 1.61
N 0.68
O 0.68
loop_
_atom_site_label
_atom_site_type_symbol
_atom_site_fract_x
_atom_site_fract_y
_atom_site_fract_z
Mn1 Mn 0.534112(18) 0.49928(2) 0.11109(4)
O1 O 0.31927(10) 0.42013(12) 0.18162(8)
O2 O 0.13163(10) 0.23459(12) 0.18006(8)
O3 O 0.43378(10) 0.73006(12) 0.03980(8)
O4 O 0.24692(10) 0.91695(12) 0.03746(8)
O5 O 0.56229(11) 0.64727(13) 0.26881(8)
O6 O 0.51298(12) 0.64137(13) 0.45459(8)
C1 C 0.26317(15) 0.27931(18) 0.15639(12)
H1 H 0.32420 0.19990 0.11630
C2 C 0.31668(17) 0.79263(19) 0.07898(11)
H2 H 0.27670 0.74190 0.14610
C3 C 0.53808(15) 0.57031(16) 0.36152(13)
H3 H 0.53910 0.44880 0.36020
N1 N 0.0682(3) 0.50509(13) 0.34182(15)
H4 H 0.08100 0.61000 0.30950
H5 H 0.08120 0.42260 0.28790
H6 H 0.13640 0.49050 0.39870
N2 N -0.0812(3) 0.49274(16) 0.38859(19)
H7 H -0.0997(16) 0.5893(14) 0.4306(13)
H8 H -0.0857(16) 0.3999(14) 0.4351(13)
Mn1A Mn 0.465888(18) 0.50072(2) 0.61109(4)
Mn1B Mn 0.034112(18) 0.00072(2) 0.11109(4)
Mn1B* Mn 0.034112(18) 1.00072(2) 0.11109(4)
O2B O 0.63163(10) 0.26541(12) 0.18006(8)
O4B O 0.74692(10) 0.58305(12) 0.03746(8)
O6A O 0.48702(12) 0.35863(13) -0.04541(8)
#END
