
#######################################################################
#
#                 Cambridge Crystallographic Data Centre
#                                CCDC
#
#######################################################################
#
# If this CIF has been generated from an entry in the Cambridge
# Structural Database, then it will include bibliographic, chemical,
# crystal, experimental, refinement or atomic coordinate data resulting
# from the CCDC's data processing and validation procedures.
#
#######################################################################

data_CSD_CIF_SIWPUL11
_audit_creation_date 2016-11-14
_audit_creation_method CSD-ConQuest-V1
_database_code_CSD SIWPUL11
_database_code_depnum_ccdc_archive 'CCDC 1506145'
_chemical_formula_sum 'C12 H32 Mn4 N8 O24'
_chemical_formula_moiety
;
(C12 H12 Mn4 O24 4-)n,4n(H5 N2 1+)
;
_journal_coden_Cambridge 1326
_journal_volume 18
_journal_year 2016
_journal_page_first 31653
_journal_name_full 'Phys.Chem.Chem.Phys.(PCCP) '
loop_
_publ_author_name
"M.Maczka"
"K.Pasinska"
"M.Ptak"
"W.Paraguassu"
"T.A.da Silva"
"A.Sieradzki"
"A.Pikul"
_chemical_name_systematic
;
catena-(tetrakis(hydrazinium) dodecakis(\m-formato)-tetra-manganese)
;
_cell_volume   1715.640
_exptl_crystal_colour 'colorless'
_exptl_crystal_density_diffrn 1.727
_exptl_special_details
;
P21 polymorph

;
_exptl_crystal_description 'block'
_diffrn_ambient_temperature 100
_diffrn_special_details
;
twin

;
_refine_special_details
;
N7,N8 and N10,N9 and N11,N12 disordered over three sites with occupancies 
0.3333:0.3333:0.3333.
;
#These two values have been output from a single CSD field.
_refine_ls_R_factor_gt 0.0294
_refine_ls_wR_factor_gt 0.0294
_symmetry_cell_setting monoclinic
_symmetry_space_group_name_H-M 'P 21'
_symmetry_Int_Tables_number 4
loop_
_symmetry_equiv_pos_site_id
_symmetry_equiv_pos_as_xyz
1 x,y,z
2 -x,1/2+y,-z
_cell_length_a 16.137(5)
_cell_length_b 7.605(3)
_cell_length_c 16.140(5)
_cell_angle_alpha 90
_cell_angle_beta 119.984(3)
_cell_angle_gamma 90
_cell_formula_units_Z 2
loop_
_atom_type_symbol
_atom_type_radius_bond
C 0.68
H 0.23
Mn 1.61
N 0.68
O 0.68
loop_
_atom_site_label
_atom_site_type_symbol
_atom_site_fract_x
_atom_site_fract_y
_atom_site_fract_z
Mn1 Mn 1.18312(9) 0.3767(2) 0.33396(10)
Mn2 Mn 1.3340(1) 0.8766(2) 0.15101(9)
Mn3 Mn 0.84923(9) 0.87659(11) 0.18289(9)
Mn4 Mn 0.66678(10) 0.35722(10) 0.33332(10)
C1 C 1.0145(6) 0.6125(10) 0.2890(6)
H1 H 0.99670 0.57820 0.22560
C2 C 1.2265(6) 0.6319(10) 0.2169(6)
H2 H 1.28830 0.62460 0.27210
C3 C 0.7397(5) 0.6026(10) 0.2361(5)
H3 H 0.79680 0.59500 0.29630
C4 C 1.3005(6) 0.6058(10) 0.5075(5)
H4 H 1.24230 0.59310 0.50830
C5 C 1.2742(5) 0.6118(10) -0.0139(5)
H5 H 1.22910 0.57730 0.00430
C6 C 0.4957(5) 0.6037(10) 0.2604(6)
H6 H 0.49760 0.59410 0.20260
C7 C 1.0117(5) 0.1315(9) 0.2279(6)
H7 H 1.02000 0.12190 0.29030
C8 C 0.7938(5) 1.1055(11) 0.2988(5)
H8 H 0.73570 1.09500 0.23970
C9 C 0.7829(6) 0.630(1) 0.0105(6)
H9 H 0.72880 0.61810 0.01870
C10 C 0.5067(5) 0.1057(10) 0.2074(5)
H10 H 0.50690 0.09420 0.26610
C11 C 0.7654(6) 0.6032(11) 0.5057(6)
H11 H 0.70630 0.59250 0.50480
C12 C 1.2888(5) 1.1127(9) 0.2740(5)
H12 H 1.22530 1.07950 0.22800
O1 O 1.2185(4) 0.7240(8) 0.1482(4)
O2 O 1.0820(4) 0.5306(8) 0.3563(3)
O3 O 0.7398(3) 0.7057(7) 0.1752(3)
O4 O 0.9684(3) 0.7366(6) 0.2989(3)
O5 O 0.6718(3) 0.5103(8) 0.2243(3)
O6 O 1.1614(4) 0.5507(8) 0.2188(4)
O7 O 1.0704(4) 0.2238(8) 0.2184(4)
O8 O 0.7760(3) 0.5115(7) 0.4478(4)
O9 O 0.8645(4) 1.0218(8) 0.3073(3)
O10 O 0.5692(4) 0.2037(7) 0.2069(3)
O11 O 1.3562(4) 1.0308(8) 0.2746(4)
O12 O 1.3072(4) 0.5224(8) 0.4432(4)
O13 O 0.8520(4) 0.7240(7) 0.0702(4)
O14 O 1.3307(4) 0.7368(7) 0.0312(3)
O15 O 1.2746(4) 0.5309(7) -0.0815(4)
O16 O 0.7928(3) 1.2029(7) 0.3619(3)
O17 O 0.4434(3) 0.0211(7) 0.1362(3)
O18 O 0.5527(4) 0.5121(7) 0.3281(3)
O19 O 0.9426(4) 0.0502(8) 0.1616(4)
O20 O 0.7813(3) 0.5531(8) -0.0577(4)
O21 O 1.3620(3) 0.7021(7) 0.5692(4)
O22 O 0.8245(3) 0.7065(7) 0.5642(3)
O23 O 0.4360(4) 0.7075(8) 0.2603(4)
O24 O 1.2994(3) 1.2367(7) 0.3305(4)
N1 N 1.0361(3) 0.8564(9) 0.4868(3)
H13 H 1.09250 0.82710 0.53310
H14 H 1.03300 0.83100 0.43260
N2 N 0.9602(3) 0.7664(7) 0.4934(3)
H15 H 0.95660 0.80940 0.54410
H16 H 0.97310 0.64920 0.50170
H17 H 0.90360 0.78430 0.43870
N3 N 0.4863(3) 0.3561(7) 0.4502(3)
H18 H 0.42730 0.33720 0.39860
H19 H 0.53190 0.31530 0.43770
H20 H 0.49490 0.47340 0.46280
N4 N 0.4937(4) 0.2642(6) 0.5327(3)
H21 H 0.54660 0.29650 0.58380
H22 H 0.44580 0.28410 0.54300
N5 N 0.5486(3) 0.3563(7) 0.0349(3)
H23 H 0.60040 0.33580 0.02800
H24 H 0.56090 0.31750 0.09330
H25 H 0.53610 0.47370 0.02990
N6 N 0.4664(4) 0.2634(7) -0.0393(3)
H26 H 0.465(4) 0.313(8) -0.084(4)
H27 H 0.416(4) 0.324(8) -0.036(4)
N7 N 1.0365(12) 0.175(2) 0.0316(11)
H28 H 1.03120 0.07560 -0.00240
H29 H 1.00780 0.15680 0.06720
H30 H 1.09940 0.20010 0.07100
N8 N 0.9904(16) 0.320(2) -0.0336(15)
H31 H 0.93090 0.29480 -0.07570
H32 H 1.00480 0.41530 0.00000
H33? H 0.98980 0.41120 -0.00100
N9? N 0.9686(11) 0.175(2) 0.0045(13)
H34? H 0.93180 0.16270 -0.06000
H35? H 0.93050 0.19870 0.02980
H36? H 1.00130 0.07330 0.03020
N10? N 1.0356(14) 0.318(2) 0.0261(14)
H37? H 1.07260 0.29470 0.00240
N11? N 0.9734(16) 0.317(2) 0.0103(15)
H38? H 0.91260 0.32120 -0.01100
H39? H 1.00290 0.30000 0.07120
N12? N 0.9951(11) 0.177(2) -0.0366(11)
H40? H 0.95870 0.18950 -0.10120
H41? H 0.98210 0.07120 -0.01910
H42? H 1.05810 0.18150 -0.01910
Mn1* Mn 1.18312(9) 1.3767(2) 0.33396(10)
Mn1A Mn 0.81688(9) 0.8767(2) 0.66604(10)
Mn2* Mn 0.3340(1) -0.1234(2) 0.15101(9)
Mn2** Mn 0.3340(1) 0.8766(2) 0.15101(9)
Mn2A Mn 0.6660(1) 0.3766(2) -0.15101(9)
Mn3* Mn 0.84923(9) -0.12341(11) 0.18289(9)
Mn3A Mn 1.15077(9) 0.37659(11) -0.18289(9)
Mn4* Mn 0.66678(10) 1.35722(10) 0.33332(10)
Mn4A Mn 1.33322(10) 0.85722(10) 0.66668(10)
O15A O 0.7254(4) 1.0309(7) 0.0815(4)
O16* O 0.7928(3) 0.2029(7) 0.3619(3)
O17* O 1.4434(3) 1.0211(7) 0.1362(3)
O19* O 0.9426(4) 1.0502(8) 0.1616(4)
O20A O 1.2187(3) 1.0531(8) 0.0577(4)
O21A O 0.6380(3) 0.2021(7) 0.4308(4)
O22A O 1.1755(3) 0.2065(7) 0.4358(3)
O23* O 1.4360(4) 0.7075(8) 0.2603(4)
O24* O 1.2994(3) 0.2367(7) 0.3305(4)
#END
