
#######################################################################
#
#                 Cambridge Crystallographic Data Centre
#                                CCDC
#
#######################################################################
#
# If this CIF has been generated from an entry in the Cambridge
# Structural Database, then it will include bibliographic, chemical,
# crystal, experimental, refinement or atomic coordinate data resulting
# from the CCDC's data processing and validation procedures.
#
#######################################################################

data_CSD_CIF_SIWPUL04
_audit_creation_date 2015-09-26
_audit_creation_method CSD-ConQuest-V1
_database_code_CSD SIWPUL04
_database_code_depnum_ccdc_archive 'CCDC 1400252'
_chemical_formula_sum 'C3 H8 Mn1 N2 O6'
_chemical_formula_moiety
;
(C3 H3 Mn1 O6 1-)n,n(H5 N2 1+)
;
_journal_coden_Cambridge 179
_journal_volume 54
_journal_year 2015
_journal_page_first 11093
_journal_name_full 'Angew.Chem.,Int.Ed. '
loop_
_publ_author_name
"Sa Chen"
"Ran Shang"
"Bing-Wu Wang"
"Zhe-Ming Wang"
"Song Gao"
_chemical_name_systematic
;
catena-(Hydrazinium tris(\m~2~-formato-O,O')-manganese)
;
_cell_volume    813.253
_exptl_crystal_colour 'colorless'
_exptl_crystal_density_diffrn 1.822
_exptl_special_details
;
Pna21 polymorph

;
_exptl_crystal_description 'block'
_diffrn_ambient_temperature 95
#These two values have been output from a single CSD field.
_refine_ls_R_factor_gt 0.0163
_refine_ls_wR_factor_gt 0.0163
_symmetry_cell_setting orthorhombic
_symmetry_space_group_name_H-M 'P n a 21'
_symmetry_Int_Tables_number 33
loop_
_symmetry_equiv_pos_site_id
_symmetry_equiv_pos_as_xyz
1 x,y,z
2 -x,-y,1/2+z
3 1/2+x,1/2-y,z
4 1/2-x,1/2+y,1/2+z
_cell_length_a 8.9151(3)
_cell_length_b 7.8115(3)
_cell_length_c 11.6779(4)
_cell_angle_alpha 90
_cell_angle_beta 90
_cell_angle_gamma 90
_cell_formula_units_Z 4
loop_
_atom_type_symbol
_atom_type_radius_bond
C 0.68
H 0.23
Mn 1.61
N 0.68
O 0.68
loop_
_atom_site_label
_atom_site_type_symbol
_atom_site_fract_x
_atom_site_fract_y
_atom_site_fract_z
Mn1 Mn 0.535085(16) 0.49913(2) 0.11101(4)
O1 O 0.31960(9) 0.42131(11) 0.18244(7)
O2 O 0.13185(9) 0.23487(11) 0.18052(7)
O3 O 0.43515(9) 0.72995(11) 0.03881(8)
O4 O 0.24839(9) 0.91806(11) 0.03720(8)
O5 O 0.56309(10) 0.64848(11) 0.26832(7)
O6 O 0.51311(10) 0.64258(11) 0.45489(7)
C1 C 0.26453(13) 0.27913(16) 0.15737(10)
H1 H 0.32650 0.19920 0.11840
C2 C 0.31797(14) 0.79273(16) 0.07893(10)
H2 H 0.27810 0.74200 0.14630
C3 C 0.53923(13) 0.57077(15) 0.36134(11)
H3 H 0.54130 0.44920 0.36020
N1 N 0.0671(2) 0.50499(12) 0.34174(13)
H4 H 0.08020 0.60990 0.30930
H5 H 0.07940 0.42240 0.28760
H6 H 0.13580 0.48990 0.39850
N2 N -0.0828(2) 0.49351(13) 0.38933(15)
H7 H -0.0996(14) 0.5914(12) 0.4310(12)
H8 H -0.0854(15) 0.4021(13) 0.4370(12)
Mn1A Mn 0.464915(16) 0.50087(2) 0.61101(4)
Mn1B Mn 0.035085(16) 0.00087(2) 0.11101(4)
Mn1B* Mn 0.035085(16) 1.00087(2) 0.11101(4)
O2B O 0.63185(9) 0.26513(11) 0.18052(7)
O4B O 0.74839(9) 0.58194(11) 0.03720(8)
O6A O 0.48689(10) 0.35742(11) -0.04511(7)
#END
