
#######################################################################
#
#                 Cambridge Crystallographic Data Centre
#                                CCDC
#
#######################################################################
#
# If this CIF has been generated from an entry in the Cambridge
# Structural Database, then it will include bibliographic, chemical,
# crystal, experimental, refinement or atomic coordinate data resulting
# from the CCDC's data processing and validation procedures.
#
#######################################################################

data_CSD_CIF_SIWPUL01
_audit_creation_date 2013-12-21
_audit_creation_method CSD-ConQuest-V1
_database_code_CSD SIWPUL01
_database_code_depnum_ccdc_archive 'CCDC 958453'
_chemical_formula_sum 'C3 H8 Mn1 N2 O6'
_chemical_formula_moiety
;
(C3 H3 Mn1 O6 1-)n,H5 N2 1+
;
_journal_coden_Cambridge 1747
_journal_volume 1
_journal_year 2014
_journal_page_first 83
_journal_name_full 'Inorg.Chem.Front. '
loop_
_publ_author_name
"Sa Chen"
"Ran Shang"
"Ke-Li Hu"
"Zhe-Ming Wang"
"Song Gao"
_chemical_name_systematic
;
catena-(hydrazinium tris(\m-formato)-manganese)
;
_cell_volume    820.368
_exptl_crystal_colour 'colorless'
_exptl_crystal_density_diffrn 1.806
_exptl_special_details
;
Pna21 polymorph

;
_exptl_crystal_description 'block'
_diffrn_ambient_temperature 200
#These two values have been output from a single CSD field.
_refine_ls_R_factor_gt 0.0243
_refine_ls_wR_factor_gt 0.0243
_symmetry_cell_setting orthorhombic
_symmetry_space_group_name_H-M 'P n a 21'
_symmetry_Int_Tables_number 33
loop_
_symmetry_equiv_pos_site_id
_symmetry_equiv_pos_as_xyz
1 x,y,z
2 -x,-y,1/2+z
3 1/2+x,1/2-y,z
4 1/2-x,1/2+y,1/2+z
_cell_length_a 8.9503(3)
_cell_length_b 7.8214(2)
_cell_length_c 11.7189(5)
_cell_angle_alpha 90
_cell_angle_beta 90
_cell_angle_gamma 90
_cell_formula_units_Z 4
loop_
_atom_type_symbol
_atom_type_radius_bond
C 0.68
H 0.23
Mn 1.61
N 0.68
O 0.68
loop_
_atom_site_label
_atom_site_type_symbol
_atom_site_fract_x
_atom_site_fract_y
_atom_site_fract_z
Mn1 Mn 0.53371(3) 0.49939(5) 0.11121(6)
O1 O 0.31902(15) 0.41987(19) 0.18139(15)
O2 O 0.13123(15) 0.23482(18) 0.17986(14)
O3 O 0.43348(16) 0.73024(18) 0.03992(14)
O4 O 0.24640(15) 0.91657(18) 0.03761(15)
O5 O 0.56163(16) 0.6471(2) 0.26898(13)
O6 O 0.51291(18) 0.6408(2) 0.45460(14)
C1 C 0.2630(3) 0.2789(3) 0.1556(2)
H1 H 0.32350 0.19980 0.11500
C2 C 0.3166(3) 0.7924(3) 0.07878(19)
H2 H 0.27670 0.74140 0.14570
C3 C 0.5376(2) 0.5701(3) 0.3615(3)
H3 H 0.53850 0.44870 0.36010
N1 N 0.0681(3) 0.5051(2) 0.3419(2)
H4 H 0.08210 0.61160 0.31250
H5 H 0.08040 0.42580 0.28580
H6 H 0.13590 0.48610 0.39840
N2 N -0.0813(3) 0.4919(2) 0.3880(3)
H7 H -0.1023(18) 0.5912(16) 0.4255(19)
H8 H -0.0854(18) 0.4023(19) 0.4369(17)
Mn1A Mn 0.46629(3) 0.50061(5) 0.61121(6)
Mn1B Mn 0.03371(3) 0.00061(5) 0.11121(6)
Mn1B* Mn 0.03371(3) 1.00061(5) 0.11121(6)
O2B O 0.63123(15) 0.26518(18) 0.17986(14)
O4B O 0.74640(15) 0.58343(18) 0.03761(15)
O6A O 0.48709(18) 0.3592(2) -0.04540(14)
#END
