
#######################################################################
#
#                 Cambridge Crystallographic Data Centre
#                                CCDC
#
#######################################################################
#
# If this CIF has been generated from an entry in the Cambridge
# Structural Database, then it will include bibliographic, chemical,
# crystal, experimental, refinement or atomic coordinate data resulting
# from the CCDC's data processing and validation procedures.
#
#######################################################################

data_CSD_CIF_SIWPUL07
_audit_creation_date 2015-09-26
_audit_creation_method CSD-ConQuest-V1
_database_code_CSD SIWPUL07
_database_code_depnum_ccdc_archive 'CCDC 1400255'
_chemical_formula_sum 'C3 H8 Mn1 N2 O6'
_chemical_formula_moiety
;
(C3 H3 Mn1 O6 1-)n,n(H5 N2 1+)
;
_journal_coden_Cambridge 179
_journal_volume 54
_journal_year 2015
_journal_page_first 11093
_journal_name_full 'Angew.Chem.,Int.Ed. '
loop_
_publ_author_name
"Sa Chen"
"Ran Shang"
"Bing-Wu Wang"
"Zhe-Ming Wang"
"Song Gao"
_chemical_name_systematic
;
catena-(Hydrazinium tris(\m~2~-formato)-manganese)
;
_cell_volume    829.395
_exptl_crystal_colour 'colorless'
_exptl_crystal_density_diffrn 1.786
_exptl_special_details
;
Pna21 polymorph

;
_exptl_crystal_description 'block'
_diffrn_ambient_temperature 350
#These two values have been output from a single CSD field.
_refine_ls_R_factor_gt 0.0271
_refine_ls_wR_factor_gt 0.0271
_symmetry_cell_setting orthorhombic
_symmetry_space_group_name_H-M 'P n a 21'
_symmetry_Int_Tables_number 33
loop_
_symmetry_equiv_pos_site_id
_symmetry_equiv_pos_as_xyz
1 x,y,z
2 -x,-y,1/2+z
3 1/2+x,1/2-y,z
4 1/2-x,1/2+y,1/2+z
_cell_length_a 8.8888(4)
_cell_length_b 7.8832(4)
_cell_length_c 11.8363(6)
_cell_angle_alpha 90
_cell_angle_beta 90
_cell_angle_gamma 90
_cell_formula_units_Z 4
loop_
_atom_type_symbol
_atom_type_radius_bond
C 0.68
H 0.23
Mn 1.61
N 0.68
O 0.68
loop_
_atom_site_label
_atom_site_type_symbol
_atom_site_fract_x
_atom_site_fract_y
_atom_site_fract_z
Mn1 Mn 0.51630(3) 0.49997(5) 0.11092(10)
O1 O 0.29914(18) 0.4186(2) 0.17905(17)
O2 O 0.11386(18) 0.2322(2) 0.17962(16)
O3 O 0.41782(19) 0.7311(2) 0.04176(16)
O4 O 0.23241(18) 0.9178(2) 0.04087(17)
O5 O 0.5489(3) 0.6395(3) 0.26904(14)
O6 O 0.5251(2) 0.6378(3) 0.45430(16)
C1 C 0.2392(3) 0.2847(4) 0.1493(3)
H1 H 0.29300 0.21670 0.09940
C2 C 0.3000(3) 0.7920(3) 0.0785(2)
H2 H 0.25730 0.73840 0.14070
C3 C 0.5322(2) 0.5672(3) 0.3613(3)
H3 H 0.52420 0.44960 0.36030
N1 N 0.0711(4) 0.5089(2) 0.3483(3)
H4 H 0.08290 0.61300 0.32060
H5 H 0.09670 0.43300 0.29600
H6 H 0.12940 0.49590 0.40880
N2 N -0.0765(6) 0.4852(4) 0.3783(8)
H7 H -0.112(3) 0.567(3) 0.423(4)
H8 H -0.095(2) 0.384(2) 0.408(4)
Mn1A Mn 0.48370(3) 0.50003(5) 0.61092(10)
Mn1B Mn 0.01630(3) 0.00003(5) 0.11092(10)
Mn1B* Mn 0.01630(3) 1.00003(5) 0.11092(10)
O2B O 0.61386(18) 0.2678(2) 0.17962(16)
O4B O 0.73241(18) 0.5822(2) 0.04087(17)
O6A O 0.4749(2) 0.3622(3) -0.04570(16)
#END
