
#######################################################################
#
#                 Cambridge Crystallographic Data Centre
#                                CCDC
#
#######################################################################
#
# If this CIF has been generated from an entry in the Cambridge
# Structural Database, then it will include bibliographic, chemical,
# crystal, experimental, refinement or atomic coordinate data resulting
# from the CCDC's data processing and validation procedures.
#
#######################################################################

data_CSD_CIF_SIWQIA03
_audit_creation_date 2015-09-09
_audit_creation_method CSD-ConQuest-V1
_database_code_CSD SIWQIA03
_database_code_depnum_ccdc_archive 'CCDC 1414792'
_chemical_formula_sum 'C3 H8 N2 O6 Zn1'
_chemical_formula_moiety
;
(C3 H3 O6 Zn1 1-)n,H5 N2 1+
;
_journal_coden_Cambridge 182
_journal_volume 51
_journal_year 2015
_journal_page_first 15538
_journal_name_full 'Chem.Commun. '
loop_
_publ_author_name
"G.Kieslich"
"S.Kumagai"
"K.T.Butler"
"T.Okamura"
"C.H.Hendon"
"Shijing Sun"
"M.Yamashita"
"A.Walsh"
"A.K.Cheetham"
_chemical_name_systematic
;
catena-(Hydrazinium tris(\m~2~-formato-O,O')-zinc)
;
_cell_volume    801.690
_exptl_crystal_colour 'colorless'
_exptl_crystal_density_diffrn 1.934
_exptl_special_details
;
P212121 polymorph
Moisture-sensitive

;
_exptl_crystal_description 'block'
_diffrn_ambient_temperature 120
#These two values have been output from a single CSD field.
_refine_ls_R_factor_gt 0.0144
_refine_ls_wR_factor_gt 0.0144
_symmetry_cell_setting orthorhombic
_symmetry_space_group_name_H-M 'P 21 21 21'
_symmetry_Int_Tables_number 19
loop_
_symmetry_equiv_pos_site_id
_symmetry_equiv_pos_as_xyz
1 x,y,z
2 1/2-x,-y,1/2+z
3 1/2+x,1/2-y,-z
4 -x,1/2+y,1/2-z
_cell_length_a 7.29731(6)
_cell_length_b 7.94804(7)
_cell_length_c 13.82240(12)
_cell_angle_alpha 90
_cell_angle_beta 90
_cell_angle_gamma 90
_cell_formula_units_Z 4
loop_
_atom_type_symbol
_atom_type_radius_bond
C 0.68
H 0.23
N 0.68
O 0.68
Zn 1.22
loop_
_atom_site_label
_atom_site_type_symbol
_atom_site_fract_x
_atom_site_fract_y
_atom_site_fract_z
Zn1 Zn 0.75924(2) 0.71943(2) 0.66453(2)
O1 O 0.58650(12) 0.92540(11) 0.66291(7)
O2 O 0.90375(12) 0.80618(11) 0.78854(6)
O3 O 0.39130(13) 1.10502(12) 0.72797(7)
O4 O 0.61923(12) 0.61081(11) 0.54686(6)
O5 O 0.41920(12) 0.63018(11) 0.42659(6)
O6 O 1.07713(12) 1.00424(11) 0.85627(6)
C1 C 0.50866(15) 0.69260(13) 0.49474(8)
H1 H 0.49250 0.80890 0.50820
C2 C 0.50097(17) 0.98458(15) 0.73352(8)
H2 H 0.52050 0.93500 0.79520
C3 C 0.99169(16) 0.94291(15) 0.78645(8)
H3 H 0.99290 1.00370 0.72730
N1 N 0.68452(14) 0.21299(14) 0.53830(8)
N2 N 0.76572(14) 0.31745(12) 0.46381(7)
H4 H 0.72310 0.28490 0.40490
H5 H 0.88980 0.30610 0.46540
H6 H 0.73530 0.42690 0.47440
H7 H 0.7222(15) 0.2522(11) 0.59524(10)
H8 H 0.7263(15) 0.1088(4) 0.5301(6)
Zn1B Zn 0.25924(2) 0.78057(2) 0.33547(2)
Zn1C Zn 0.24076(2) 1.21943(2) 0.83547(2)
Zn1C* Zn 1.24076(2) 1.21943(2) 0.83547(2)
O3C O 0.60870(13) 0.60502(12) 0.77203(7)
O5B O 0.91920(12) 0.86982(11) 0.57341(6)
O6C O 0.92287(12) 0.50424(11) 0.64373(6)
#END
