
#######################################################################
#
#                 Cambridge Crystallographic Data Centre
#                                CCDC
#
#######################################################################
#
# If this CIF has been generated from an entry in the Cambridge
# Structural Database, then it will include bibliographic, chemical,
# crystal, experimental, refinement or atomic coordinate data resulting
# from the CCDC's data processing and validation procedures.
#
#######################################################################

data_CSD_CIF_SIWZOP02
_audit_creation_date 2013-12-21
_audit_creation_method CSD-ConQuest-V1
_database_code_CSD SIWZOP02
_database_code_depnum_ccdc_archive 'CCDC 958466'
_chemical_formula_sum 'C3 H8 Mg1 N2 O6'
_chemical_formula_moiety
;
(C3 H3 Mg1 O6 1-)n,H5 N2 1+
;
_journal_coden_Cambridge 1747
_journal_volume 1
_journal_year 2014
_journal_page_first 83
_journal_name_full 'Inorg.Chem.Front. '
loop_
_publ_author_name
"Sa Chen"
"Ran Shang"
"Ke-Li Hu"
"Zhe-Ming Wang"
"Song Gao"
_chemical_name_systematic
;
catena-(Hydrazinium tris(\m~2~-formato-O,O')-magnesium)
;
_cell_volume    807.638
_exptl_crystal_colour 'colorless'
_exptl_crystal_density_diffrn 1.583
_exptl_special_details
;
P212121 polymorph

;
_exptl_crystal_description 'block'
_diffrn_ambient_temperature 292
#These two values have been output from a single CSD field.
_refine_ls_R_factor_gt 0.0307
_refine_ls_wR_factor_gt 0.0307
_symmetry_cell_setting orthorhombic
_symmetry_space_group_name_H-M 'P 21 21 21'
_symmetry_Int_Tables_number 19
loop_
_symmetry_equiv_pos_site_id
_symmetry_equiv_pos_as_xyz
1 x,y,z
2 1/2-x,-y,1/2+z
3 -x,1/2+y,1/2-z
4 1/2+x,1/2-y,-z
_cell_length_a 7.8888(2)
_cell_length_b 13.7799(4)
_cell_length_c 7.4295(2)
_cell_angle_alpha 90
_cell_angle_beta 90
_cell_angle_gamma 90
_cell_formula_units_Z 4
loop_
_atom_type_symbol
_atom_type_radius_bond
C 0.68
H 0.23
Mg 1.41
N 0.68
O 0.68
loop_
_atom_site_label
_atom_site_type_symbol
_atom_site_fract_x
_atom_site_fract_y
_atom_site_fract_z
Mg1 Mg 0.22587(6) 0.16461(4) 0.25858(7)
O1 O 0.10763(17) 0.26988(9) 0.10834(18)
O2 O -0.06702(16) 0.33405(9) -0.09051(16)
O3 O 0.31596(15) 0.28520(9) 0.40169(17)
O4 O 0.51044(16) 0.35145(9) 0.57951(17)
O5 O 0.12016(15) 0.04889(9) 0.11786(18)
O6 O 0.13351(16) -0.07040(9) -0.08168(18)
C1 C -0.0069(2) 0.26561(12) -0.0042(3)
H1 H -0.05280 0.20460 -0.02630
C2 C 0.4470(2) 0.28398(13) 0.4951(3)
H2 H 0.50360 0.22490 0.50180
C3 C 0.1936(2) -0.00158(12) 0.0030(3)
H3 H 0.30580 0.01430 -0.02160
N1 N 0.1790(2) 0.46373(13) 0.2393(3)
H4 H 0.07220 0.47400 0.27290
H5 H 0.20990 0.40390 0.27030
H6 H 0.18760 0.47050 0.12050
N2 N 0.2867(3) 0.53212(19) 0.3259(4)
H7 H 0.3949(10) 0.5146(14) 0.297(4)
H8 H 0.270(3) 0.5894(7) 0.264(3)
Mg1A Mg 0.27413(6) -0.16461(4) -0.24142(7)
Mg1C Mg -0.27413(6) 0.33539(4) -0.25858(7)
Mg1C* Mg 0.72587(6) 0.33539(4) 0.74142(7)
O2C O 0.43298(16) 0.16595(9) 0.09051(16)
O4C O 0.01044(16) 0.14855(9) 0.42049(17)
O6A O 0.36649(16) 0.07040(9) 0.41832(18)
#END
