
#######################################################################
#
#                 Cambridge Crystallographic Data Centre
#                                CCDC
#
#######################################################################
#
# If this CIF has been generated from an entry in the Cambridge
# Structural Database, then it will include bibliographic, chemical,
# crystal, experimental, refinement or atomic coordinate data resulting
# from the CCDC's data processing and validation procedures.
#
#######################################################################

data_CSD_CIF_SIWZOP
_audit_creation_date 2013-12-21
_audit_creation_method CSD-ConQuest-V1
_database_code_CSD SIWZOP
_database_code_depnum_ccdc_archive 'CCDC 958464'
_chemical_formula_sum 'C3 H8 Mg1 N2 O6'
_chemical_formula_moiety
;
(C3 H3 Mg1 O6 1-)n,H5 N2 1+
;
_journal_coden_Cambridge 1747
_journal_volume 1
_journal_year 2014
_journal_page_first 83
_journal_name_full 'Inorg.Chem.Front. '
loop_
_publ_author_name
"Sa Chen"
"Ran Shang"
"Ke-Li Hu"
"Zhe-Ming Wang"
"Song Gao"
_chemical_name_systematic
;
catena-(Hydrazinium tris(\m~2~-formato-O,O')-magnesium)
;
_cell_volume    801.987
_exptl_crystal_colour 'colorless'
_exptl_crystal_density_diffrn 1.594
_exptl_special_details
;
P212121 polymorph

;
_exptl_crystal_description 'block'
_diffrn_ambient_temperature 110
#These two values have been output from a single CSD field.
_refine_ls_R_factor_gt 0.0249
_refine_ls_wR_factor_gt 0.0249
_symmetry_cell_setting orthorhombic
_symmetry_space_group_name_H-M 'P 21 21 21'
_symmetry_Int_Tables_number 19
loop_
_symmetry_equiv_pos_site_id
_symmetry_equiv_pos_as_xyz
1 x,y,z
2 1/2-x,-y,1/2+z
3 -x,1/2+y,1/2-z
4 1/2+x,1/2-y,-z
_cell_length_a 7.8999(2)
_cell_length_b 13.7505(4)
_cell_length_c 7.3829(2)
_cell_angle_alpha 90
_cell_angle_beta 90
_cell_angle_gamma 90
_cell_formula_units_Z 4
loop_
_atom_type_symbol
_atom_type_radius_bond
C 0.68
H 0.23
Mg 1.41
N 0.68
O 0.68
loop_
_atom_site_label
_atom_site_type_symbol
_atom_site_fract_x
_atom_site_fract_y
_atom_site_fract_z
Mg1 Mg 0.22098(6) 0.16484(3) 0.26001(6)
O1 O 0.10328(14) 0.26967(8) 0.10864(15)
O2 O -0.07224(13) 0.33370(8) -0.09239(14)
O3 O 0.30787(12) 0.28667(7) 0.40332(14)
O4 O 0.50494(13) 0.35375(7) 0.57942(15)
O5 O 0.11756(13) 0.04786(8) 0.11992(15)
O6 O 0.13469(13) -0.07215(7) -0.08066(15)
C1 C -0.01279(19) 0.26418(10) -0.0047(2)
H1 H -0.06010 0.20170 -0.02630
C2 C 0.44413(18) 0.28509(11) 0.4922(2)
H2 H 0.50590 0.22580 0.49230
C3 C 0.19567(18) -0.00285(10) 0.0055(2)
H3 H 0.31080 0.01310 -0.01690
N1 N 0.18059(15) 0.46369(9) 0.2400(2)
H4 H 0.07050 0.47360 0.27110
H5 H 0.21440 0.40410 0.27980
H6 H 0.19130 0.46660 0.11740
N2 N 0.28515(19) 0.53817(11) 0.3222(2)
H7 H 0.3929(10) 0.5303(10) 0.273(2)
H8 H 0.2451(18) 0.5968(6) 0.277(2)
Mg1A Mg 0.27902(6) -0.16484(3) -0.23999(6)
Mg1C Mg -0.27902(6) 0.33516(3) -0.26001(6)
Mg1C* Mg 0.72098(6) 0.33516(3) 0.73999(6)
O2C O 0.42776(13) 0.16630(8) 0.09239(14)
O4C O 0.00494(13) 0.14625(7) 0.42058(15)
O6A O 0.36531(13) 0.07215(7) 0.41934(15)
#END
