
#######################################################################
#
#                 Cambridge Crystallographic Data Centre
#                                CCDC
#
#######################################################################
#
# If this CIF has been generated from an entry in the Cambridge
# Structural Database, then it will include bibliographic, chemical,
# crystal, experimental, refinement or atomic coordinate data resulting
# from the CCDC's data processing and validation procedures.
#
#######################################################################

data_CSD_CIF_SIWZOP01
_audit_creation_date 2013-12-21
_audit_creation_method CSD-ConQuest-V1
_database_code_CSD SIWZOP01
_database_code_depnum_ccdc_archive 'CCDC 958465'
_chemical_formula_sum 'C3 H8 Mg1 N2 O6'
_chemical_formula_moiety
;
(C3 H3 Mg1 O6 1-)n,H5 N2 1+
;
_journal_coden_Cambridge 1747
_journal_volume 1
_journal_year 2014
_journal_page_first 83
_journal_name_full 'Inorg.Chem.Front. '
loop_
_publ_author_name
"Sa Chen"
"Ran Shang"
"Ke-Li Hu"
"Zhe-Ming Wang"
"Song Gao"
_chemical_name_systematic
;
catena-(Hydrazinium tris(\m~2~-formato-O,O')-magnesium)
;
_cell_volume    804.296
_exptl_crystal_colour 'colorless'
_exptl_crystal_density_diffrn 1.589
_exptl_special_details
;
P212121 polymorph

;
_exptl_crystal_description 'block'
_diffrn_ambient_temperature 200
#These two values have been output from a single CSD field.
_refine_ls_R_factor_gt 0.0283
_refine_ls_wR_factor_gt 0.0283
_symmetry_cell_setting orthorhombic
_symmetry_space_group_name_H-M 'P 21 21 21'
_symmetry_Int_Tables_number 19
loop_
_symmetry_equiv_pos_site_id
_symmetry_equiv_pos_as_xyz
1 x,y,z
2 1/2-x,-y,1/2+z
3 -x,1/2+y,1/2-z
4 1/2+x,1/2-y,-z
_cell_length_a 7.8928(2)
_cell_length_b 13.7693(4)
_cell_length_c 7.4007(2)
_cell_angle_alpha 90
_cell_angle_beta 90
_cell_angle_gamma 90
_cell_formula_units_Z 4
loop_
_atom_type_symbol
_atom_type_radius_bond
C 0.68
H 0.23
Mg 1.41
N 0.68
O 0.68
loop_
_atom_site_label
_atom_site_type_symbol
_atom_site_fract_x
_atom_site_fract_y
_atom_site_fract_z
Mg1 Mg 0.22279(6) 0.16466(4) 0.25959(7)
O1 O 0.10437(16) 0.26952(9) 0.10876(17)
O2 O -0.07053(15) 0.33374(9) -0.09137(16)
O3 O 0.31092(14) 0.28599(8) 0.40248(16)
O4 O 0.50720(15) 0.35290(8) 0.57870(16)
O5 O 0.11838(14) 0.04813(8) 0.11935(17)
O6 O 0.13429(15) -0.07149(8) -0.08074(17)
C1 C -0.0104(2) 0.26463(11) -0.0044(2)
H1 H -0.05700 0.20220 -0.02710
C2 C 0.4452(2) 0.28458(12) 0.4938(2)
H2 H 0.50500 0.22470 0.49780
C3 C 0.1940(2) -0.00213(11) 0.0037(2)
H3 H 0.30830 0.01470 -0.02160
N1 N 0.18001(18) 0.46340(11) 0.2407(2)
H4 H 0.07040 0.47300 0.27410
H5 H 0.21390 0.40320 0.27630
H6 H 0.18890 0.46830 0.11840
N2 N 0.2859(2) 0.53572(14) 0.3248(3)
H7 H 0.3943(11) 0.5270(12) 0.279(3)
H8 H 0.249(2) 0.5955(6) 0.278(3)
Mg1A Mg 0.27721(6) -0.16466(4) -0.24041(7)
Mg1C Mg -0.27721(6) 0.33534(4) -0.25959(7)
Mg1C* Mg 0.72279(6) 0.33534(4) 0.74041(7)
O2C O 0.42947(15) 0.16626(9) 0.09137(16)
O4C O 0.00720(15) 0.14710(8) 0.42130(16)
O6A O 0.36571(15) 0.07149(8) 0.41926(17)
#END
