
#######################################################################
#
#                 Cambridge Crystallographic Data Centre
#                                CCDC
#
#######################################################################
#
# If this CIF has been generated from an entry in the Cambridge
# Structural Database, then it will include bibliographic, chemical,
# crystal, experimental, refinement or atomic coordinate data resulting
# from the CCDC's data processing and validation procedures.
#
#######################################################################

data_CSD_CIF_SIWZIH
_audit_creation_date 1991-10-24
_audit_creation_method CSD-ConQuest-V1
_database_code_CSD SIWZIH
_chemical_formula_sum 'C13 H20 Cd1 N3 Na1 O5 S3'
_chemical_formula_moiety
;
(C10 H20 Na1 O5 1+)n,n(C3 Cd1 N3 S3 1-)
;
_journal_coden_Cambridge 603
_journal_volume 10
_journal_year 1991
_journal_page_first 13
_journal_name_full 'Jiegou Huaxue(Chin.)(Chin.J.Struct.Chem.) '
loop_
_publ_author_name
"Lu Cheng-Xue"
"Zhang Yun-Ming"
"Wei Yun-He"
"Ma Shun-Li"
"Fan Yue-Peng"
_chemical_name_systematic
;
catena(15-Crown-5-sodium tris(\m~2~-thiocyanato-N,S)-cadmium)
;
_cell_volume   2198.999
_exptl_crystal_colour 'colorless'
_exptl_crystal_density_diffrn 1.6
_diffrn_ambient_temperature ?
_diffrn_special_details
;
The study was carried out at room temperature,in the range 283-303K

;
#These two values have been output from a single CSD field.
_refine_ls_R_factor_gt 0.064
_refine_ls_wR_factor_gt 0.064
_symmetry_cell_setting monoclinic
_symmetry_space_group_name_H-M 'P 21/c'
_symmetry_Int_Tables_number 14
loop_
_symmetry_equiv_pos_site_id
_symmetry_equiv_pos_as_xyz
1 x,y,z
2 -x,1/2+y,1/2-z
3 -x,-y,-z
4 x,-1/2-y,-1/2+z
_cell_length_a 10.219(2)
_cell_length_b 10.575(2)
_cell_length_c 20.572(2)
_cell_angle_alpha 90
_cell_angle_beta 98.45(1)
_cell_angle_gamma 90
_cell_formula_units_Z 4
loop_
_atom_type_symbol
_atom_type_radius_bond
C 0.68
Cd 1.61
N 0.68
Na 1.91
O 0.68
S 1.02
loop_
_atom_site_label
_atom_site_type_symbol
_atom_site_fract_x
_atom_site_fract_y
_atom_site_fract_z
Cd1 Cd -0.0050(1) 0.00983(8) -0.27566(5)
S1 S -0.2416(4) 0.1334(3) -0.3083(2)
S2 S 0.1003(5) 0.3660(3) -0.1180(2)
S3 S 0.1401(4) 0.1435(3) -0.3495(2)
Na1 Na -0.774(1) 0.630(1) -0.3655(6)
O1 O -0.500(3) 0.547(3) -0.366(2)
O2 O -0.537(2) 0.781(2) -0.326(1)
O3 O -0.699(2) 0.862(2) -0.439(1)
O4 O -0.884(3) 0.654(3) -0.512(1)
O5 O -0.6789(3) 0.404(3) -0.450(1)
N1 N -0.166(1) 0.368(1) -0.2536(7)
N2 N 0.058(1) 0.139(1) -0.1869(6)
N3 N 0.115(1) 0.382(1) -0.2967(6)
C1 C -0.196(1) 0.272(1) -0.2764(7)
C2 C 0.077(1) 0.233(1) -0.1585(6)
C3 C 0.125(1) 0.284(1) -0.3182(7)
C4 C -0.531(4) 0.436(4) -0.344(2)
C5 C -0.407(3) 0.596(3) -0.323(2)
C6 C -0.418(3) 0.713(4) -0.344(2)
C7 C -0.533(3) 0.888(3) -0.363(2)
C8 C -0.595(3) 0.935(3) -0.424(2)
C9 C -0.775(3) 0.889(4) -0.497(2)
C10 C -0.846(3) 0.779(3) -0.537(2)
C11 C -0.820(3) 0.545(3) -0.530(2)
C12 C -0.689(3) 0.525(3) -0.476(2)
C13 C -0.569(2) 0.372(2) -0.4057(9)
N1A N 0.166(1) -0.132(1) -0.2464(7)
Cd1A Cd 0.0050(1) 0.50983(8) -0.22434(5)
S2A S -0.1003(5) -0.1340(3) -0.3820(2)
N3A N -0.115(1) -0.118(1) -0.2033(6)
#END
