
#######################################################################
#
#                 Cambridge Crystallographic Data Centre
#                                CCDC
#
#######################################################################
#
# If this CIF has been generated from an entry in the Cambridge
# Structural Database, then it will include bibliographic, chemical,
# crystal, experimental, refinement or atomic coordinate data resulting
# from the CCDC's data processing and validation procedures.
#
#######################################################################

data_CSD_CIF_SIWZOP03
_audit_creation_date 2013-12-21
_audit_creation_method CSD-ConQuest-V1
_database_code_CSD SIWZOP03
_database_code_depnum_ccdc_archive 'CCDC 958467'
_chemical_formula_sum 'C3 H8 Mg1 N2 O6'
_chemical_formula_moiety
;
(C3 H3 Mg1 O6 1-)n,n(H5 N2 1+)
;
_journal_coden_Cambridge 1747
_journal_volume 1
_journal_year 2014
_journal_page_first 83
_journal_name_full 'Inorg.Chem.Front. '
loop_
_publ_author_name
"Sa Chen"
"Ran Shang"
"Ke-Li Hu"
"Zhe-Ming Wang"
"Song Gao"
_chemical_name_systematic
;
catena-(Hydrazinium tris(\m~2~-formato-O,O')-magnesium)
;
_cell_volume    406.962
_exptl_crystal_colour 'colorless'
_exptl_crystal_density_diffrn 1.57
_exptl_special_details
;
P63 polymorph

;
_exptl_crystal_description 'block'
_diffrn_ambient_temperature 400
_refine_special_details
;
N1,N2 disordered by symmetry over three configurations with occupancy 0.33.

;
#These two values have been output from a single CSD field.
_refine_ls_R_factor_gt 0.026
_refine_ls_wR_factor_gt 0.026
_symmetry_cell_setting hexagonal
_symmetry_space_group_name_H-M 'P 63'
_symmetry_Int_Tables_number 173
loop_
_symmetry_equiv_pos_site_id
_symmetry_equiv_pos_as_xyz
1 x,y,z
2 x-y,x,1/2+z
3 -y,x-y,z
4 -x,-y,1/2+z
5 -x+y,-x,z
6 y,-x+y,1/2+z
_cell_length_a 7.8798(3)
_cell_length_b 7.8798(3)
_cell_length_c 7.5682(4)
_cell_angle_alpha 90
_cell_angle_beta 90
_cell_angle_gamma 120
_cell_formula_units_Z 2
loop_
_atom_type_symbol
_atom_type_radius_bond
C 0.68
H 0.23
Mg 1.41
N 0.68
O 0.68
loop_
_atom_site_label
_atom_site_type_symbol
_atom_site_fract_x
_atom_site_fract_y
_atom_site_fract_z
Mg1 Mg 0.33330 0.66670 0.23208(19)
O1 O 0.32024(17) 0.44120(16) 0.07915(17)
O2 O 0.44111(16) 0.32033(17) -0.11546(14)
C1 C 0.4482(2) 0.4482(2) -0.0178(4)
H1 H 0.56640 0.56600 -0.01740
N1 N 0.082(2) 0.036(2) 0.174(3)
H2 H 0.172(9) 0.155(4) 0.132(11)
H3 H 0.156(10) -0.014(13) 0.219(5)
H4 H 0.026(4) -0.039(13) 0.076(6)
N2 N -0.046(2) 0.038(2) 0.290(3)
H5 H -0.008(6) 0.067(16) 0.401(4)
H6 H -0.168(4) -0.061(11) 0.285(11)
O1B O 0.55880(17) 0.87904(16) 0.07915(17)
O2B O 0.67967(16) 1.12078(17) -0.11546(14)
C1B C 0.5518(2) 1.0000(2) -0.0178(4)
H1B H 0.43400 1.00040 -0.01740
O1D O 0.12096(17) 0.67976(16) 0.07915(17)
O2D O -0.12078(16) 0.55889(17) -0.11546(14)
C1D C 0.0000(2) 0.5518(2) -0.0178(4)
H1D H -0.00040 0.43360 -0.01740
Mg1A Mg -0.33340 0.33330 -0.26792(19)
Mg1A* Mg 0.66660 0.33330 -0.26792(19)
Mg1A** Mg 0.66660 1.33330 -0.26792(19)
O2A O 0.12078(16) 0.44111(17) 0.38454(14)
O2C O 0.55889(16) 0.67967(17) 0.38454(14)
O2E O 0.32033(16) 0.87922(17) 0.38454(14)
N1B N -0.036(2) 0.046(2) 0.174(3)
H2B H -0.155(9) 0.017(4) 0.132(11)
H3B H 0.014(10) 0.170(13) 0.219(5)
H4B H 0.039(4) 0.065(13) 0.076(6)
N2B N -0.038(2) -0.084(2) 0.290(3)
H5B H -0.067(6) -0.075(16) 0.401(4)
H6B H 0.061(4) -0.107(11) 0.285(11)
N1D N -0.046(2) -0.082(2) 0.174(3)
H2D H -0.017(9) -0.172(4) 0.132(11)
H3D H -0.17(1) -0.156(13) 0.219(5)
H4D H -0.065(4) -0.026(13) 0.076(6)
N2D N 0.084(2) 0.046(2) 0.290(3)
H5D H 0.075(6) 0.008(16) 0.401(4)
H6D H 0.107(4) 0.168(11) 0.285(11)
#END
