
#######################################################################
#
#                 Cambridge Crystallographic Data Centre
#                                CCDC
#
#######################################################################
#
# If this CIF has been generated from an entry in the Cambridge
# Structural Database, then it will include bibliographic, chemical,
# crystal, experimental, refinement or atomic coordinate data resulting
# from the CCDC's data processing and validation procedures.
#
#######################################################################

data_CSD_CIF_SIXYUU
_audit_creation_date 2008-06-20
_audit_creation_method CSD-ConQuest-V1
_database_code_CSD SIXYUU
_database_code_depnum_ccdc_archive 'CCDC 641556'
_chemical_formula_sum 'C24 H28 Cd1 N6 O8'
_chemical_formula_moiety
;
(C10 H12 Cd1 O8 2-)n,2n(C7 H8 N3 1+)
;
_journal_coden_Cambridge 119
_journal_volume 876
_journal_year 2008
_journal_page_first 268
_journal_name_full 'J.Mol.Struct. '
loop_
_publ_author_name
"Xui-Guang Wang"
"Jian Li"
"Bin Ding"
"En-Cui Yang"
"Xiao-Jun Zhao"
_chemical_name_systematic
;
catena-(bis(2-Aminobenzimidazolium) 
(\m~2~-glutarato-O,O',O'',O''')-(\m~2~-glutarato-O,O',O'')-cadmium(ii))
;
_cell_volume   1303.008
_exptl_crystal_colour 'colorless'
_exptl_crystal_density_diffrn 1.634
_exptl_special_details
;
The space group is P-1, not P1 as given in the paper

;
_exptl_crystal_description 'block'
_diffrn_ambient_temperature 293
#These two values have been output from a single CSD field.
_refine_ls_R_factor_gt 0.0464
_refine_ls_wR_factor_gt 0.0464
_symmetry_cell_setting triclinic
_symmetry_space_group_name_H-M 'P -1'
_symmetry_Int_Tables_number 2
loop_
_symmetry_equiv_pos_site_id
_symmetry_equiv_pos_as_xyz
1 x,y,z
2 -x,-y,-z
_cell_length_a 9.240(7)
_cell_length_b 10.383(8)
_cell_length_c 14.721(12)
_cell_angle_alpha 76.200(9)
_cell_angle_beta 88.463(10)
_cell_angle_gamma 72.035(10)
_cell_formula_units_Z 2
loop_
_atom_type_symbol
_atom_type_radius_bond
C 0.68
H 0.23
Cd 1.60
N 0.68
O 0.68
loop_
_atom_site_label
_atom_site_type_symbol
_atom_site_fract_x
_atom_site_fract_y
_atom_site_fract_z
Cd1 Cd 1.04171(5) 0.10953(4) 0.21150(3)
O1 O 1.0860(4) 0.2876(4) 0.1029(3)
O2 O 1.0489(5) 0.3419(4) 0.2379(3)
O3 O 1.0290(5) 0.8555(4) 0.2343(3)
O4 O 1.0954(4) 0.9772(4) 0.1069(2)
O5 O 0.7640(5) 0.1603(4) 0.1788(3)
O6 O 0.8552(5) 0.1341(4) 0.3189(3)
O7 O 0.3567(4) 0.0482(4) 0.2269(3)
O8 O 0.2010(4) 0.0179(4) 0.3397(3)
N1 N 0.5727(5) 0.8951(5) 0.1373(3)
H1 H 0.53350 0.95510 0.16960
N2 N 0.7010(6) 0.7977(5) 0.0320(3)
H2 H 0.75660 0.78550 -0.01500
N3 N 0.7145(6) 1.0202(5) 0.0391(3)
H3 H 0.68630 1.08840 0.06590
H4 H 0.77470 1.02310 -0.00650
N4 N 0.0224(6) 0.2442(5) 0.5850(3)
H5 H -0.00670 0.21810 0.64050
N5 N 0.0442(5) 0.2754(5) 0.4350(3)
H6 H 0.03100 0.27280 0.37790
N6 N -0.1229(6) 0.1534(5) 0.5031(4)
H7 H -0.16560 0.12190 0.55230
H8 H -0.14520 0.14210 0.44970
C1 C 1.0793(6) 0.3689(5) 0.1551(4)
C2 C 1.1133(7) 0.5045(5) 0.1115(4)
H9 H 1.22270 0.48280 0.10730
H10 H 1.06870 0.53850 0.04810
C3 C 1.0595(7) 0.6209(5) 0.1598(4)
H11 H 1.10730 0.59130 0.22230
H12 H 0.95010 0.64410 0.16550
C4 C 1.0977(6) 0.7480(5) 0.1056(3)
H13 H 1.03810 0.78330 0.04660
H14 H 1.20420 0.71920 0.09110
C5 C 1.0709(6) 0.8665(5) 0.1534(4)
C6 C 0.7474(7) 0.1528(6) 0.2634(5)
C7 C 0.5955(7) 0.1570(6) 0.3044(5)
H15 H 0.51530 0.19550 0.25520
H16 H 0.57390 0.21540 0.34880
C8 C 0.6022(7) 0.0066(7) 0.3542(4)
H17 H 0.64110 -0.05340 0.31190
H18 H 0.67330 -0.02560 0.40820
C9 C 0.4509(7) -0.0072(7) 0.3858(4)
H19 H 0.46770 -0.10130 0.42380
H20 H 0.41140 0.05600 0.42600
C10 C 0.3307(7) 0.0208(5) 0.3114(4)
C11 C 0.5483(6) 0.7664(6) 0.1497(4)
C12 C 0.6323(7) 0.7032(6) 0.0837(4)
C13 C 0.6367(8) 0.5726(7) 0.0801(5)
H21 H 0.69390 0.52940 0.03650
C14 C 0.5540(8) 0.5055(7) 0.1430(5)
H22 H 0.55370 0.41660 0.14120
C15 C 0.4727(8) 0.5686(7) 0.2080(5)
H23 H 0.41910 0.52100 0.25030
C16 C 0.4676(7) 0.7008(7) 0.2127(4)
H24 H 0.41160 0.74340 0.25690
C17 C 0.6659(6) 0.9116(6) 0.0676(4)
C18 C 0.1250(7) 0.3195(6) 0.5625(4)
C19 C 0.1387(7) 0.3387(6) 0.4662(4)
C20 C 0.2316(8) 0.4078(7) 0.4197(5)
H25 H 0.24260 0.41800 0.35560
C21 C 0.3077(9) 0.4611(8) 0.4705(6)
H26 H 0.37120 0.51000 0.44010
C22 C 0.2945(8) 0.4457(7) 0.5672(6)
H27 H 0.34850 0.48380 0.60000
C23 C 0.2005(7) 0.3731(7) 0.6136(4)
H28 H 0.18950 0.36150 0.67780
C24 C -0.0237(7) 0.2187(6) 0.5093(4)
Cd1* Cd 1.04171(5) 1.10953(4) 0.21150(3)
Cd1** Cd 0.04171(5) 0.10953(4) 0.21150(3)
O3* O 1.0290(5) -0.1445(4) 0.2343(3)
O4* O 1.0954(4) -0.0228(4) 0.1069(2)
O8* O 1.2010(4) 0.0179(4) 0.3397(3)
#END
