
#######################################################################
#
#                 Cambridge Crystallographic Data Centre
#                                CCDC
#
#######################################################################
#
# If this CIF has been generated from an entry in the Cambridge
# Structural Database, then it will include bibliographic, chemical,
# crystal, experimental, refinement or atomic coordinate data resulting
# from the CCDC's data processing and validation procedures.
#
#######################################################################

data_CSD_CIF_SIXYII
_audit_creation_date 2008-06-20
_audit_creation_method CSD-ConQuest-V1
_database_code_CSD SIXYII
_database_code_depnum_ccdc_archive 'CCDC 641554'
_chemical_formula_sum 'C60 H61 Cd2 N18 O17.5'
_chemical_formula_moiety
;
(C46 H34 Cd2 N12 O12 2-)n,2n(C7 H8 N3 1+),5.5n(H2 O1)
;
_journal_coden_Cambridge 119
_journal_volume 876
_journal_year 2008
_journal_page_first 268
_journal_name_full 'J.Mol.Struct. '
loop_
_publ_author_name
"Xui-Guang Wang"
"Jian Li"
"Bin Ding"
"En-Cui Yang"
"Xiao-Jun Zhao"
_chemical_name_systematic
;
catena-(bis(2-Aminobenzimidazolium) 
(\m~2~-trimesato-O,O',O'',O''')-(\m~2~-trimesato-O,O',O'')-tetrakis(2-aminoben
zimidazole-N)-di-cadmium(ii) hydrate)
;
_cell_volume   3295.013
_exptl_crystal_colour 'colorless'
_exptl_crystal_density_diffrn 1.551
_exptl_special_details
;
The space group is P-1 as given in the cif, not P1 as given in the paper

;
_exptl_crystal_description 'block'
_diffrn_ambient_temperature 293
#These two values have been output from a single CSD field.
_refine_ls_R_factor_gt 0.057
_refine_ls_wR_factor_gt 0.057
_symmetry_cell_setting triclinic
_symmetry_space_group_name_H-M 'P -1'
_symmetry_Int_Tables_number 2
loop_
_symmetry_equiv_pos_site_id
_symmetry_equiv_pos_as_xyz
1 x,y,z
2 -x,-y,-z
_cell_length_a 12.842(3)
_cell_length_b 17.134(3)
_cell_length_c 17.386(4)
_cell_angle_alpha 66.845(3)
_cell_angle_beta 85.878(3)
_cell_angle_gamma 69.933(3)
_cell_formula_units_Z 2
loop_
_atom_type_symbol
_atom_type_radius_bond
C 0.68
H 0.23
Cd 1.61
N 0.68
O 0.68
loop_
_atom_site_label
_atom_site_type_symbol
_atom_site_fract_x
_atom_site_fract_y
_atom_site_fract_z
Cd1 Cd 0.39152(4) 0.83441(3) 0.49136(3)
Cd2 Cd 0.79301(4) 0.78318(3) 0.96123(3)
O1 O 0.4654(4) 0.8135(3) 0.6222(3)
O2 O 0.4233(5) 0.6997(3) 0.6244(3)
O3 O 0.6251(4) 0.3950(3) 0.9816(3)
O4 O 0.4943(5) 0.4252(4) 0.8882(4)
O5 O 0.7293(4) 0.6545(3) 0.9779(3)
O6 O 0.6818(4) 0.7794(3) 0.8652(3)
O7 O 0.5674(5) 0.7780(5) 0.4616(4)
O8 O 0.4694(5) 0.8388(5) 0.3473(4)
O9 O 0.9699(4) 0.6181(4) 0.4797(3)
O10 O 1.0586(4) 0.6385(3) 0.3621(3)
O11 O 0.8307(5) 0.7391(4) 0.0987(3)
O12 O 0.6520(4) 0.8140(3) 0.0877(3)
N1 N 0.2551(4) 0.8103(4) 0.4457(3)
N2 N 0.1745(5) 0.7345(4) 0.4074(4)
H1 H 0.15830 0.68970 0.40780
N3 N 0.2973(5) 0.6542(4) 0.5284(4)
H2 H 0.34340 0.65380 0.56220
H3 H 0.28560 0.60520 0.53620
N4 N 0.3474(4) 0.9822(3) 0.4531(3)
N5 N 0.3579(5) 1.1188(4) 0.4166(4)
H4 H 0.38380 1.16240 0.39670
N6 N 0.5068(5) 1.0092(4) 0.3899(4)
H5 H 0.53530 0.95530 0.39120
H6 H 0.54200 1.04660 0.36920
N7 N 0.7367(4) 0.9336(4) 0.9055(4)
N8 N 0.6665(6) 1.0779(5) 0.8193(5)
H7 H 0.62850 1.12520 0.77750
N9 N 0.6210(5) 0.9705(5) 0.7891(4)
H8 H 0.62690 0.91510 0.80250
H9 H 0.58100 1.01210 0.74480
N10 N 0.9713(4) 0.7299(4) 0.9383(4)
N11 N 1.1559(5) 0.6649(4) 0.9568(5)
H10 H 1.22160 0.63930 0.98160
N12 N 1.0595(6) 0.6909(5) 1.0686(4)
H11 H 0.99730 0.71240 1.08770
H12 H 1.12030 0.66720 1.09980
C1 C 0.4648(5) 0.7336(5) 0.6607(4)
C2 C 0.5157(5) 0.6806(4) 0.7479(4)
C3 C 0.5137(5) 0.5934(4) 0.7909(4)
H13 H 0.47740 0.57000 0.76560
C4 C 0.5655(5) 0.5406(4) 0.8716(4)
C5 C 0.5630(6) 0.4455(5) 0.9180(5)
C6 C 0.6180(5) 0.5768(4) 0.9087(4)
H14 H 0.65180 0.54240 0.96270
C7 C 0.6209(5) 0.6637(4) 0.8667(4)
C8 C 0.6805(6) 0.7007(5) 0.9068(5)
C9 C 0.5695(5) 0.7141(4) 0.7871(4)
H15 H 0.57100 0.77230 0.75880
C10 C 0.5596(6) 0.7933(5) 0.3870(5)
C11 C 0.6619(5) 0.7611(4) 0.3449(4)
C12 C 0.7631(6) 0.7178(4) 0.3900(4)
H16 H 0.76690 0.70540 0.44700
C13 C 0.8587(5) 0.6928(4) 0.3520(4)
C14 C 0.9705(6) 0.6463(4) 0.4015(5)
C15 C 0.8531(5) 0.7094(4) 0.2664(4)
H17 H 0.91780 0.69280 0.24010
C16 C 0.7507(6) 0.7506(4) 0.2211(4)
C17 C 0.7430(6) 0.7703(5) 0.1289(4)
C18 C 0.6557(5) 0.7757(4) 0.2607(4)
H18 H 0.58680 0.80280 0.23070
C19 C 0.1845(5) 0.8709(5) 0.3727(4)
C20 C 0.1597(6) 0.9621(5) 0.3288(5)
H19 H 0.19340 0.99440 0.34440
C21 C 0.0836(6) 1.0039(6) 0.2614(5)
H20 H 0.06610 1.06550 0.23020
C22 C 0.0322(7) 0.9569(7) 0.2386(6)
H21 H -0.02060 0.98780 0.19320
C23 C 0.0569(7) 0.8665(7) 0.2809(6)
H22 H 0.02290 0.83500 0.26440
C24 C 0.1333(6) 0.8230(6) 0.3484(5)
C25 C 0.2436(6) 0.7312(5) 0.4636(5)
C26 C 0.2522(6) 1.0374(4) 0.4742(4)
C27 C 0.1576(6) 1.0192(5) 0.5088(5)
H23 H 0.14960 0.96360 0.52150
C28 C 0.0755(7) 1.0896(7) 0.5236(6)
H24 H 0.01240 1.08000 0.54930
C29 C 0.0867(9) 1.1734(6) 0.5004(6)
H25 H 0.03020 1.21870 0.51070
C30 C 0.1761(8) 1.1919(6) 0.4637(6)
H26 H 0.18230 1.24860 0.44810
C31 C 0.2570(7) 1.1232(5) 0.4508(5)
C32 C 0.4089(6) 1.0344(5) 0.4198(4)
C33 C 0.7724(6) 0.9859(6) 0.9335(5)
C34 C 0.8392(8) 0.9610(8) 1.0029(7)
H27 H 0.86760 0.90060 1.03950
C35 C 0.8648(11) 1.0275(11) 1.0186(9)
H28 H 0.90780 1.01230 1.06660
C36 C 0.8240(14) 1.1165(13) 0.9602(13)
H29 H 0.84470 1.15990 0.96820
C37 C 0.7557(12) 1.1423(8) 0.8928(10)
H30 H 0.72680 1.20260 0.85620
C38 C 0.7293(9) 1.0759(6) 0.8791(7)
C39 C 0.6739(6) 0.9918(5) 0.8370(5)
C40 C 1.0134(6) 0.7219(5) 0.8645(5)
C41 C 0.9595(9) 0.7515(6) 0.7876(6)
H31 H 0.88260 0.77890 0.77900
C42 C 1.0264(13) 0.7384(8) 0.7212(7)
H32 H 0.99210 0.75630 0.66880
C43 C 1.1385(13) 0.7006(9) 0.7332(9)
H33 H 1.17980 0.69550 0.68820
C44 C 1.192(1) 0.6699(7) 0.8098(9)
H34 H 1.26870 0.64120 0.81840
C45 C 1.1290(7) 0.6828(5) 0.8740(6)
C46 C 1.0616(6) 0.6943(5) 0.9911(5)
N13 N 0.1750(6) 0.4883(4) 0.7187(5)
H35 H 0.17910 0.49570 0.66680
N14 N 0.2273(7) 0.4528(4) 0.8505(5)
H36 H 0.26850 0.43430 0.89540
N15 N 0.3702(6) 0.4368(5) 0.7579(5)
H37 H 0.38910 0.44140 0.70820
H38 H 0.42040 0.41820 0.79740
C47 C 0.0771(8) 0.5050(5) 0.7595(6)
C48 C -0.0292(10) 0.5363(6) 0.7263(9)
H39 H -0.04790 0.54920 0.67080
C49 C -0.1109(11) 0.5475(8) 0.7881(11)
H40 H -0.18630 0.57070 0.77150
C50 C -0.0798(11) 0.5256(8) 0.8663(10)
H41 H -0.13500 0.53170 0.90340
C51 C 0.0318(10) 0.4933(6) 0.8978(8)
H42 H 0.05140 0.47950 0.95320
C52 C 0.1077(8) 0.4838(6) 0.8419(6)
C53 C 0.2615(8) 0.4587(5) 0.7739(6)
N16 N 0.3861(5) 0.7780(4) 0.9356(4)
H43 H 0.38290 0.72460 0.95190
N17 N 0.4280(5) 0.8917(4) 0.9344(5)
H44 H 0.45590 0.92320 0.94900
N18 N 0.4917(5) 0.7537(4) 1.0532(5)
H45 H 0.52410 0.77490 1.07770
H46 H 0.49390 0.69860 1.07720
C54 C 0.3380(6) 0.8494(5) 0.8604(5)
C55 C 0.2765(7) 0.8572(6) 0.7965(6)
H47 H 0.25910 0.80830 0.79770
C56 C 0.2402(9) 0.9383(7) 0.7300(6)
H48 H 0.19860 0.94430 0.68500
C57 C 0.2636(9) 1.0100(8) 0.7280(7)
H49 H 0.23640 1.06470 0.68210
C58 C 0.3271(8) 1.0043(6) 0.7927(8)
H50 H 0.34390 1.05370 0.79070
C59 C 0.3641(6) 0.9222(5) 0.8600(6)
C60 C 0.4385(6) 0.8055(5) 0.9790(6)
O13 O 0.1772(5) 0.5272(4) 0.5510(4)
O14 O 0.50000 0.00000 0.00000
O15 O 0.1871(7) 0.4564(5) 0.4335(6)
O16 O 0.5309(7) 0.5685(7) 0.3949(6)
O17 O 0.5992(8) 0.5650(6) 0.5550(7)
O18 O 0.2039(12) 0.6359(10) 0.2282(7)
O19 O 0.3877(15) 0.7239(11) 0.2787(12)
Cd2* Cd 0.79301(4) 0.78318(3) -0.03877(3)
O11* O 0.8307(5) 0.7391(4) 1.0987(3)
#END
