
#######################################################################
#
#                 Cambridge Crystallographic Data Centre
#                                CCDC
#
#######################################################################
#
# If this CIF has been generated from an entry in the Cambridge
# Structural Database, then it will include bibliographic, chemical,
# crystal, experimental, refinement or atomic coordinate data resulting
# from the CCDC's data processing and validation procedures.
#
#######################################################################

data_CSD_CIF_SIXZAB
_audit_creation_date 2008-06-20
_audit_creation_method CSD-ConQuest-V1
_database_code_CSD SIXZAB
_database_code_depnum_ccdc_archive 'CCDC 641557'
_chemical_formula_sum 'C30 H26 Cd1 N6 O9'
_chemical_formula_moiety
;
(C16 H8 Cd1 O8 2-)n,2n(C7 H8 N3 1+),n(H2 O1)
;
_journal_coden_Cambridge 119
_journal_volume 876
_journal_year 2008
_journal_page_first 268
_journal_name_full 'J.Mol.Struct. '
loop_
_publ_author_name
"Xui-Guang Wang"
"Jian Li"
"Bin Ding"
"En-Cui Yang"
"Xiao-Jun Zhao"
_chemical_name_systematic
;
catena-(bis(2-Aminobenzimidazolium) 
bis(\m~2~-isophthalato-O,O',O'')-cadmium(ii) monohydrate)
;
_cell_volume   3174.777
_exptl_crystal_colour 'pink'
_exptl_crystal_density_diffrn 1.521
_exptl_crystal_description 'block'
_diffrn_ambient_temperature 293
_refine_special_details
;
The water molecule is disordered by symmetry.

;
#These two values have been output from a single CSD field.
_refine_ls_R_factor_gt 0.0258
_refine_ls_wR_factor_gt 0.0258
_symmetry_cell_setting monoclinic
_symmetry_space_group_name_H-M 'C 2/c'
_symmetry_Int_Tables_number 15
loop_
_symmetry_equiv_pos_site_id
_symmetry_equiv_pos_as_xyz
1 x,y,z
2 1/2+x,1/2+y,z
3 -x,y,1/2-z
4 1/2-x,1/2+y,1/2-z
5 -x,-y,-z
6 -1/2-x,-1/2-y,-z
7 x,-y,-1/2+z
8 -1/2+x,-1/2-y,-1/2+z
_cell_length_a 15.5812(10)
_cell_length_b 13.3064(9)
_cell_length_c 15.4063(10)
_cell_angle_alpha 90
_cell_angle_beta 96.319(1)
_cell_angle_gamma 90
_cell_formula_units_Z 4
loop_
_atom_type_symbol
_atom_type_radius_bond
C 0.68
H 0.23
Cd 1.55
N 0.68
O 0.68
loop_
_atom_site_label
_atom_site_type_symbol
_atom_site_fract_x
_atom_site_fract_y
_atom_site_fract_z
Cd1 Cd 0.00000 0.52127(2) 0.25000
O1 O 0.08161(13) 0.44217(17) 0.36980(14)
O2 O 0.11090(15) 0.3944(2) 0.24000(14)
O3 O 0.35589(17) 0.1439(2) 0.22978(15)
O4 O 0.44786(15) 0.12355(18) 0.34733(15)
N1 N 0.18593(18) 0.3929(2) 0.09080(17)
H1 H 0.17050 0.40100 0.14230
N2 N 0.17907(17) 0.36930(19) -0.05004(16)
H2 H 0.15850 0.35970 -0.10350
N3 N 0.04761(17) 0.3838(2) 0.01250(18)
H3 H 0.02250 0.39230 0.05900
H4 H 0.01720 0.37640 -0.03720
C1 C 0.12927(19) 0.3977(2) 0.3219(2)
C2 C 0.21170(19) 0.3509(2) 0.3624(2)
C3 C 0.25730(19) 0.2825(2) 0.3168(2)
H5 H 0.23570 0.26350 0.26050
C4 C 0.33489(19) 0.2423(2) 0.3548(2)
C5 C 0.3822(2) 0.1649(2) 0.3065(2)
C6 C 0.3679(2) 0.2739(2) 0.4379(2)
H6 H 0.42030 0.24820 0.46330
C7 C 0.3239(2) 0.3431(3) 0.4833(2)
H7 H 0.34700 0.36490 0.53830
C8 C 0.2448(2) 0.3800(2) 0.4462(2)
H8 H 0.21380 0.42440 0.47750
C9 C 0.2712(2) 0.3888(2) 0.0704(2)
C10 C 0.2666(2) 0.3741(2) -0.0191(2)
C11 C 0.3404(2) 0.3706(3) -0.0617(3)
H9 H 0.33730 0.36160 -0.12180
C12 C 0.4180(3) 0.3810(3) -0.0116(3)
H10 H 0.46870 0.37890 -0.03820
C13 C 0.4227(3) 0.3946(4) 0.0782(3)
H11 H 0.47650 0.40150 0.11030
C14 C 0.3491(2) 0.3980(3) 0.1211(3)
H12 H 0.35230 0.40620 0.18130
C15 C 0.1321(2) 0.3822(2) 0.0174(2)
O5 O 1.0072(11) 0.1786(10) 0.2127(10)
Cd1A Cd 0.50000 0.02127(2) 0.25000
Cd1A* Cd -0.50000 0.02127(2) 0.25000
O1B O -0.08161(13) 0.44217(17) 0.13020(14)
O2B O -0.11090(15) 0.3944(2) 0.26000(14)
O3B O -0.35589(17) 0.1439(2) 0.27022(15)
O4B O -0.44786(15) 0.12355(18) 0.15267(15)
O4A O -0.05214(15) 0.62355(18) 0.34733(15)
O4C O 0.05214(15) 0.62355(18) 0.15267(15)
C1B C -0.12927(19) 0.3977(2) 0.1781(2)
C2B C -0.21170(19) 0.3509(2) 0.1376(2)
C3B C -0.25730(19) 0.2825(2) 0.1832(2)
H5B H -0.23570 0.26350 0.23950
C4B C -0.33489(19) 0.2423(2) 0.1452(2)
C5B C -0.3822(2) 0.1649(2) 0.1935(2)
C6B C -0.3679(2) 0.2739(2) 0.0621(2)
H6B H -0.42030 0.24820 0.03670
C7B C -0.3239(2) 0.3431(3) 0.0167(2)
H7B H -0.34700 0.36490 -0.03830
C8B C -0.2448(2) 0.3800(2) 0.0538(2)
H8B H -0.21380 0.42440 0.02250
O5B O 0.9928(11) 0.1786(10) 0.2873(10)
#END
