
#######################################################################
#
#                 Cambridge Crystallographic Data Centre
#                                CCDC
#
#######################################################################
#
# If this CIF has been generated from an entry in the Cambridge
# Structural Database, then it will include bibliographic, chemical,
# crystal, experimental, refinement or atomic coordinate data resulting
# from the CCDC's data processing and validation procedures.
#
#######################################################################

data_CSD_CIF_SIYXUW
_audit_creation_date 2019-01-07
_audit_creation_method CSD-ConQuest-V1
_database_code_CSD SIYXUW
_database_code_depnum_ccdc_archive 'CCDC 1520194'
_chemical_formula_sum 'C16 H28 Cu1 N8 O3'
_chemical_formula_moiety
;
C12 H28 N1 1+,(C4 Cu1 N7 O3 1-)n
;
_journal_coden_Cambridge 1096
_journal_volume 30
_journal_year 2018
_journal_page_first 8732
_journal_name_full 'Chem.Mater. '
loop_
_publ_author_name
"Li-Jun Ji"
"Yan Qin"
"Di Gui"
"Wei Li"
"Yanchun Li"
"Xiaodong Li"
"Peixiang Lu"
_chemical_name_systematic
;
catena-[tetra-propylammonium bis(\m-dicyanoazanide)-nitrato-copper(ii)]
;
_cell_volume   2271.669
_exptl_crystal_colour 'green'
_exptl_crystal_density_diffrn 1.298
_exptl_crystal_description 'block'
_diffrn_ambient_temperature 300
_refine_special_details
;
C1,C10,C11,C12,C2,C3,C4,C5,C6,C7,C8,C9 and 
C10A,C11A,C12A,C1A,C2A,C3A,C4A,C5A,C6A,C7A,C8A,C9A disordered over two sites 
with occupancies 
0.786,0.788,0.788,0.788,0.786,0.786,0.797,0.797,0.797,0.792,0.792,0.792:0.212,
0.212,0.212,0.214,0.214,0.214,0.203,0.203,0.203,0.208,0.208,0.208.
;
#These two values have been output from a single CSD field.
_refine_ls_R_factor_gt 0.0416
_refine_ls_wR_factor_gt 0.0416
_symmetry_cell_setting monoclinic
_symmetry_space_group_name_H-M 'P 21/c'
_symmetry_Int_Tables_number 14
loop_
_symmetry_equiv_pos_site_id
_symmetry_equiv_pos_as_xyz
1 x,y,z
2 -x,1/2+y,1/2-z
3 -x,-y,-z
4 x,-1/2-y,-1/2+z
_cell_length_a 10.9601(4)
_cell_length_b 13.1817(4)
_cell_length_c 16.0836(4)
_cell_angle_alpha 90
_cell_angle_beta 102.141(3)
_cell_angle_gamma 90
_cell_formula_units_Z 4
loop_
_atom_type_symbol
_atom_type_radius_bond
C 0.68
H 0.23
Cu 1.32
N 0.68
O 0.68
loop_
_atom_site_label
_atom_site_type_symbol
_atom_site_fract_x
_atom_site_fract_y
_atom_site_fract_z
Cu1 Cu 1.27457(3) 0.23421(3) 0.68936(2)
N1 N 1.2750(3) 0.2166(2) 1.07379(16)
O1 O 1.0886(3) 0.27253(19) 0.67025(18)
N2 N 1.2674(3) 0.1804(2) 0.80217(16)
C1 C 1.2888(3) 0.1805(3) 1.01330(18)
C2 C 1.2856(3) 0.1622(2) 0.87231(18)
N3 N 1.4273(3) 0.1494(2) 0.6902(2)
N4 N 1.6568(3) -0.1204(2) 0.75979(18)
C3 C 1.5126(3) 0.1004(2) 0.7042(2)
C4 C 1.6326(3) -0.0393(3) 0.7411(2)
N5 N 1.3092(5) 0.1297(3) 0.94931(18)
N6 N 1.6178(3) 0.0546(3) 0.7170(4)
O2 O 0.9196(3) 0.2045(3) 0.6056(2)
N7 N 1.03188(19) 0.20258(19) 0.63451(11)
O3 O 1.0895(3) 0.1246(2) 0.62653(17)
N8 N 0.8291(2) 0.30853(17) 0.83985(13)
C5 C 0.7461(4) 0.3019(3) 0.7495(2)
H1 H 0.79210 0.26530 0.71370
H2 H 0.67310 0.26170 0.75260
C6 C 0.7022(5) 0.4007(4) 0.7060(3)
H3 H 0.65440 0.43790 0.74030
H4 H 0.77400 0.44150 0.70120
C7 C 0.6256(13) 0.3841(9) 0.6221(8)
H5 H 0.59920 0.44830 0.59620
H6 H 0.67310 0.34830 0.58760
H7 H 0.55370 0.34470 0.62670
C8 C 0.7556(4) 0.3644(4) 0.8986(2)
H8 H 0.80800 0.36710 0.95530
H9 H 0.74190 0.43370 0.87860
C9 C 0.6306(4) 0.3199(4) 0.9058(3)
H10 H 0.57690 0.31590 0.84960
H11 H 0.64280 0.25160 0.92850
C10 C 0.5711(14) 0.3808(14) 0.9603(7)
H12 H 0.49240 0.35110 0.96360
H13 H 0.62360 0.38390 1.01610
H14 H 0.55770 0.44810 0.93730
C11 C 0.8531(4) 0.2014(3) 0.8729(3)
H15 H 0.89430 0.20460 0.93240
H16 H 0.77330 0.16810 0.86970
C12 C 0.9310(4) 0.1364(4) 0.8268(3)
H17 H 1.00540 0.17390 0.82190
H18 H 0.88390 0.12320 0.76970
C13 C 0.970(2) 0.0364(15) 0.8702(14)
H19 H 1.01870 -0.00110 0.83790
H20 H 1.01810 0.04870 0.92630
H21 H 0.89650 -0.00200 0.87410
C14 C 0.9435(3) 0.3661(3) 0.8361(3)
H22 H 0.92020 0.43530 0.81950
H23 H 0.98100 0.33680 0.79210
C15 C 1.0408(4) 0.3685(4) 0.9186(3)
H24 H 1.00480 0.40100 0.96190
H25 H 1.06110 0.29920 0.93680
C16 C 1.1604(13) 0.4231(10) 0.9131(9)
H26 H 1.21670 0.42120 0.96760
H27 H 1.19830 0.39040 0.87160
H28 H 1.14190 0.49240 0.89670
C17? C 0.8031(14) 0.3624(11) 0.7572(8)
H29? H 0.79010 0.43400 0.76650
H30? H 0.87420 0.35600 0.73050
C18? C 0.6913(17) 0.3200(14) 0.7005(12)
H31? H 0.62090 0.32800 0.72770
H32? H 0.70410 0.24780 0.69430
C19? C 0.655(6) 0.371(5) 0.605(3)
H33? H 0.58150 0.33930 0.57230
H34? H 0.63950 0.44260 0.60960
H35? H 0.72290 0.36220 0.57610
C20? C 0.7425(15) 0.2973(15) 0.8916(9)
H36? H 0.78590 0.27340 0.94700
H37? H 0.68290 0.24540 0.86720
C21? C 0.6739(19) 0.3898(17) 0.9032(12)
H38? H 0.61480 0.40530 0.85090
H39? H 0.73190 0.44610 0.91570
C22? C 0.594(5) 0.377(5) 0.985(3)
H40? H 0.55050 0.43840 0.99140
H41? H 0.53580 0.32180 0.97270
H42? H 0.65290 0.36260 1.03750
C23? C 0.8912(15) 0.2007(12) 0.823(1)
H43? H 0.82860 0.16200 0.78410
H44? H 0.95840 0.21450 0.79380
C24? C 0.9422(17) 0.1343(12) 0.8974(12)
H45? H 1.02770 0.15440 0.92070
H46? H 0.89450 0.14600 0.94100
C25? C 0.940(7) 0.031(5) 0.879(5)
H47? H 0.97450 -0.00630 0.93040
H48? H 0.85580 0.00920 0.85790
H49? H 0.98920 0.01760 0.83760
C26? C 0.9529(14) 0.3681(10) 0.8945(10)
H50? H 0.92600 0.43580 0.90590
H51? H 0.97610 0.33400 0.94900
C27? C 1.0702(14) 0.3799(13) 0.8612(11)
H52? H 1.10910 0.31360 0.86350
H53? H 1.04540 0.39810 0.80160
C28? C 1.154(4) 0.442(4) 0.895(4)
H54? H 1.22160 0.43980 0.86610
H55? H 1.11930 0.50930 0.89150
H56? H 1.18340 0.42430 0.95380
Cu1A Cu 1.72543(3) -0.26579(3) 0.81064(2)
Cu1C Cu 1.27457(3) 0.26579(3) 1.18936(2)
N1C N 1.2750(3) 0.2834(2) 0.57379(16)
N4A N 1.3432(3) 0.3796(2) 0.74021(18)
#END
