
#######################################################################
#
#                 Cambridge Crystallographic Data Centre
#                                CCDC
#
#######################################################################
#
# If this CIF has been generated from an entry in the Cambridge
# Structural Database, then it will include bibliographic, chemical,
# crystal, experimental, refinement or atomic coordinate data resulting
# from the CCDC's data processing and validation procedures.
#
#######################################################################

data_CSD_CIF_SIYXIH10
_audit_creation_date 1992-04-28
_audit_creation_method CSD-ConQuest-V1
_database_code_CSD SIYXIH10
_database_code_depnum_ccdc_archive 'CCDC 1260549'
_database_code_depnum_ccdc_fiz 'CSD 320172'
_chemical_formula_sum 'C7 H5 Fe1 O6'
_chemical_formula_moiety
;
(C7 H2 Fe1 O5 1-)n,n(H3 O1 1+)
;
_journal_coden_Cambridge 29
_journal_volume 598
_journal_year 1991
_journal_page_first 371
_journal_name_full 'Z.Anorg.Allg.Chem. '
loop_
_publ_author_name
"C.-H.Wunderlich"
"R.Weber"
"G.Bergerhoff"
_chemical_name_systematic
;
catena(Oxonium (\m~4~-3,4,5-trihydroxybenzoato)-iron(ii))
;
_cell_volume    706.053
_exptl_crystal_colour 'black'
_diffrn_ambient_temperature ?
_diffrn_special_details
;
The study was carried out at room temperature,in the range 283-303K

;
#These two values have been output from a single CSD field.
_refine_ls_R_factor_gt 0.044
_refine_ls_wR_factor_gt 0.044
_symmetry_cell_setting hexagonal
_symmetry_space_group_name_H-M 'P 31 2 1'
_symmetry_Int_Tables_number 152
loop_
_symmetry_equiv_pos_site_id
_symmetry_equiv_pos_as_xyz
1 x,y,z
2 -y,x-y,1/3+z
3 -x+y,-x,2/3+z
4 y,x,-z
5 x-y,-y,2/3-z
6 -x,-x+y,1/3-z
_cell_length_a 8.664(2)
_cell_length_b 8.664(2)
_cell_length_c 10.861(2)
_cell_angle_alpha 90
_cell_angle_beta 90
_cell_angle_gamma 120
_cell_formula_units_Z 3
loop_
_atom_type_symbol
_atom_type_radius_bond
C 0.68
Fe 1.34
O 0.68
loop_
_atom_site_label
_atom_site_type_symbol
_atom_site_fract_x
_atom_site_fract_y
_atom_site_fract_z
Fe1 Fe 0.00000(9) -0.05597(9) -0.33333
O1 O -0.18876(46) -0.02208(49) -0.06537(30)
O2 O -0.80613(44) -0.11792(42) -0.36293(29)
O3 O -0.8867(4) 0.00000 -0.16667
C1 C -0.24420(76) 0.00000 -0.16666
C2 C -0.41782(77) 0.00000 -0.16666
C3 C -0.52164(64) -0.05751(62) -0.27323(42)
C4 C -0.68512(64) -0.05994(64) -0.27117(43)
C5 C -0.7305(8) 0.00000 -0.16667
O4 O 0.5224(20) 0.7132(20) 0.1013(11)
O1D O -0.16668(46) 0.02208(49) -0.267963(300)
Fe1A Fe 0.05597(9) 0.05597(9) 0.00000
O1B O 0.16668(46) 0.18876(49) -0.398703(300)
O3B O -0.1133(4) -0.11330 -0.50000
O2E O -0.19387(44) -0.31179(42) -0.303737(290)
O2* O 0.19387(44) -0.11792(42) -0.36293(29)
C3D C -0.46413(64) 0.05751(62) -0.060103(420)
C4D C -0.62518(64) 0.05994(64) -0.062163(430)
O2D O -0.68821(44) 0.11792(42) 0.029597(290)
Fe1* Fe -1.00000(9) -0.05597(9) -0.33333
O3* O 0.1133(4) 0.00000 -0.16667
Fe1A* Fe -0.94403(9) 0.05597(9) 0.00000
#END
