
#######################################################################
#
#                 Cambridge Crystallographic Data Centre
#                                CCDC
#
#######################################################################
#
# If this CIF has been generated from an entry in the Cambridge
# Structural Database, then it will include bibliographic, chemical,
# crystal, experimental, refinement or atomic coordinate data resulting
# from the CCDC's data processing and validation procedures.
#
#######################################################################

data_CSD_CIF_SIZGEO
_audit_creation_date 2008-10-28
_audit_creation_method CSD-ConQuest-V1
_database_code_CSD SIZGEO
_database_code_depnum_ccdc_archive 'CCDC 659182'
_chemical_formula_sum 'C15 H14 Cd2 Cl2 N2 O6'
_chemical_formula_moiety
;
(C6 H11 N2 1+)n,n(C9 H3 Cd2 Cl2 O6 1-)
;
_journal_coden_Cambridge 9
_journal_volume 47
_journal_year 2008
_journal_page_first 1907
_journal_name_full 'Inorg.Chem. '
loop_
_publ_author_name
"Ling Xu"
"Eun-Young Choi"
"Young-Uk Kwon"
_chemical_name_systematic
;
catena-(1-Ethyl-3-methylimidazolium 
(\m~6~-benzene-1,3,5-tricarboxylato)-bis(\m~2~-chloro)-di-cadmium)
;
_cell_volume    924.293
_exptl_crystal_colour 'colorless'
_exptl_crystal_density_diffrn 2.206
_exptl_crystal_description 'prismatic'
_diffrn_ambient_temperature 223
#These two values have been output from a single CSD field.
_refine_ls_R_factor_gt 0.049
_refine_ls_wR_factor_gt 0.049
_symmetry_cell_setting triclinic
_symmetry_space_group_name_H-M 'P -1'
_symmetry_Int_Tables_number 2
loop_
_symmetry_equiv_pos_site_id
_symmetry_equiv_pos_as_xyz
1 x,y,z
2 -x,-y,-z
_cell_length_a 9.3803(5)
_cell_length_b 10.1395(5)
_cell_length_c 10.9816(6)
_cell_angle_alpha 87.659(1)
_cell_angle_beta 81.273(1)
_cell_angle_gamma 63.599(1)
_cell_formula_units_Z 2
loop_
_atom_type_symbol
_atom_type_radius_bond
C 0.68
H 0.23
Cd 1.53
Cl 0.99
N 0.68
O 0.68
loop_
_atom_site_label
_atom_site_type_symbol
_atom_site_fract_x
_atom_site_fract_y
_atom_site_fract_z
Cd1 Cd 0.201886(10) 0.376024(10) 0.379990(13)
Cd2 Cd 0.401465(12) 0.100631(13) 0.150324(14)
C1 C -0.02784(14) 0.06691(14) 0.34456(16)
C2 C 0.02899(15) -0.08499(15) 0.34987(17)
H1 H 0.14040 -0.14620 0.33680
C3 C -0.07788(15) -0.14740(15) 0.37436(17)
C4 C -0.24343(15) -0.05647(15) 0.38615(17)
H2 H -0.31610 -0.09800 0.39880
C5 C -0.30069(15) 0.09563(15) 0.37913(17)
C6 C -0.19267(15) 0.15757(15) 0.36346(17)
H3 H -0.23150 0.26050 0.36570
C7 C 0.09148(15) 0.12950(15) 0.31092(17)
C8 C -0.01322(17) -0.31099(16) 0.38585(18)
C9 C -0.47711(15) 0.19233(16) 0.38266(18)
O1 O 0.21803(12) 0.04463(13) 0.24434(14)
O2 O 0.05511(11) 0.25630(11) 0.34903(13)
O3 O -0.10943(12) -0.36727(11) 0.41712(13)
O4 O 0.13660(13) -0.38715(12) 0.36056(15)
O5 O -0.53600(12) 0.32602(13) 0.41155(16)
O6 O -0.56413(11) 0.13482(12) 0.35384(13)
Cl1 Cl 0.29976(5) 0.37051(5) 0.12957(5)
Cl2 Cl 0.68164(5) -0.05437(7) 0.06398(6)
C10 C -0.0838(3) 0.3722(3) 0.0769(3)
H4 H 0.02340 0.33980 0.03880
C11 C -0.1603(3) 0.4702(3) 0.1721(3)
H5 H -0.11580 0.51900 0.21330
C12 C -0.3296(3) 0.4019(3) 0.1205(3)
H6 H -0.42530 0.39420 0.11740
C13 C -0.1679(5) 0.2300(3) -0.0575(4)
H7 H -0.26420 0.21720 -0.05860
H8 H -0.07820 0.13510 -0.04840
H9 H -0.14410 0.27240 -0.13400
C14 C -0.4346(4) 0.5785(3) 0.2954(4)
H10 H -0.52740 0.55670 0.30380
H11 H -0.39070 0.55540 0.37330
C15 C -0.4864(4) 0.7296(3) 0.2741(4)
H12 H -0.56870 0.78690 0.34130
H13 H -0.53030 0.75330 0.19720
H14 H -0.39590 0.75270 0.26920
N1 N -0.1940(2) 0.3294(2) 0.0472(2)
N2 N -0.3136(2) 0.4857(2) 0.1978(2)
Cd1A Cd -0.201886(10) -0.376024(10) 0.620010(13)
Cd1* Cd 0.201886(10) -0.623976(10) 0.379990(13)
Cd1** Cd -0.798114(10) 0.376024(10) 0.379990(13)
Cd2* Cd -0.598535(12) 0.100631(13) 0.150324(14)
Cd2A Cd 0.598535(12) -0.100631(13) -0.150324(14)
O3A O 0.10943(12) 0.36727(11) 0.58288(13)
O4* O 0.13660(13) 0.61285(12) 0.36056(15)
O5* O 0.46400(12) 0.32602(13) 0.41155(16)
O6* O 0.43587(11) 0.13482(12) 0.35384(13)
Cl2A Cl 0.31836(5) 0.05437(7) -0.06398(6)
#END
