
#######################################################################
#
#                 Cambridge Crystallographic Data Centre
#                                CCDC
#
#######################################################################
#
# If this CIF has been generated from an entry in the Cambridge
# Structural Database, then it will include bibliographic, chemical,
# crystal, experimental, refinement or atomic coordinate data resulting
# from the CCDC's data processing and validation procedures.
#
#######################################################################

data_CSD_CIF_SIZKAO
_audit_creation_date 2008-10-28
_audit_creation_method CSD-ConQuest-V1
_database_code_CSD SIZKAO
_database_code_depnum_ccdc_archive 'CCDC 615682'
_chemical_formula_sum 'C11 H68 Mo10 N10 O55'
_chemical_formula_moiety
;
(C11 H14 Mo10 N2 O44 8-)n,8n(H4 N1 1+),11n(H2 O1)
;
_journal_coden_Cambridge 9
_journal_volume 47
_journal_year 2008
_journal_page_first 3402
_journal_name_full 'Inorg.Chem. '
loop_
_publ_author_name
"Guang-Gang Gao"
"Lin Xu"
"Xiao-Shu Qu"
"Hong Liu"
"Yan-Yan Yang"
_chemical_name_systematic
;
catena-(octakis(Ammonium) 
tris(\m~4~-oxo)-tetrakis(\m~3~-oxo)-(\m~2~-propane-1,3-diaminetetra-acetato-N,
N',O,O',O'',O''')-undecakis(\m~2~-oxo)-octadecaoxo-deca-molybdenum(vi) 
undecahydrate)
;
_cell_volume   3067.573
_exptl_crystal_colour 'white'
_exptl_special_details
;
There appears to be a discrepancy in the number of water molecules between 
the paper and the deposited .cif
;
_exptl_crystal_description 'prism'
_diffrn_ambient_temperature 293
#These two values have been output from a single CSD field.
_refine_ls_R_factor_gt 0.0474
_refine_ls_wR_factor_gt 0.0474
_symmetry_cell_setting triclinic
_symmetry_space_group_name_H-M 'P -1'
_symmetry_Int_Tables_number 2
loop_
_symmetry_equiv_pos_site_id
_symmetry_equiv_pos_as_xyz
1 x,y,z
2 -x,-y,-z
_cell_length_a 10.481(3)
_cell_length_b 13.605(4)
_cell_length_c 23.413(7)
_cell_angle_alpha 73.694(4)
_cell_angle_beta 79.384(4)
_cell_angle_gamma 74.610(4)
_cell_formula_units_Z 2
loop_
_atom_type_symbol
_atom_type_radius_bond
C 0.68
H 0.23
Mo 1.39
N 0.68
O 0.68
loop_
_atom_site_label
_atom_site_type_symbol
_atom_site_fract_x
_atom_site_fract_y
_atom_site_fract_z
Mo1 Mo 0.39408(9) 1.03735(7) 0.56025(4)
Mo2 Mo 1.00981(8) 0.41420(7) 0.95645(4)
Mo3 Mo 0.76897(9) 0.62261(7) 0.94021(4)
Mo4 Mo 0.63880(9) 1.02889(7) 0.63845(4)
Mo5 Mo 1.30080(9) 0.50539(7) 0.92235(4)
Mo6 Mo 1.09287(9) 0.57993(7) 0.82469(4)
Mo7 Mo 0.62504(10) 1.19718(7) 0.50974(4)
Mo8 Mo 0.41925(9) 1.01702(7) 0.77405(4)
Mo9 Mo 0.57421(9) 0.79846(7) 0.58349(4)
Mo10 Mo 0.99411(9) 0.46597(8) 0.72725(4)
O1 O 1.1532(6) 0.4336(5) 0.8961(3)
O2 O 0.4778(6) 1.1271(5) 0.5823(3)
O3 O 0.4823(7) 1.0017(5) 0.6987(3)
O4 O 0.5646(6) 1.0804(5) 0.4763(3)
O5 O 0.8728(6) 0.4878(5) 1.0074(3)
O6 O 0.6751(6) 0.5584(6) 0.9191(3)
O7 O 1.0036(6) 0.4864(5) 0.8000(3)
O8 O 1.1826(6) 0.6219(5) 0.8740(3)
O9 O 0.5672(6) 0.9293(5) 0.5991(3)
O10 O 0.6485(7) 1.1296(6) 0.6669(3)
O11 O 0.9273(7) 0.3459(5) 0.9323(3)
O12 O 0.4646(6) 1.2712(5) 0.4718(3)
O13 O 0.9375(6) 0.5662(5) 0.9006(3)
O14 O 1.3706(7) 0.5770(6) 0.9505(3)
O15 O 1.2258(7) 0.5554(6) 0.7729(3)
O16 O 0.6641(6) 0.6287(5) 1.0182(3)
O17 O 0.7304(6) 1.0745(5) 0.5609(3)
O18 O 1.0949(6) 0.3195(5) 1.0129(3)
O19 O 0.2772(7) 1.0058(5) 0.6172(3)
O20 O 1.4198(6) 0.4626(6) 0.8688(3)
O21 O 0.1051(7) 0.9099(6) 0.7378(4)
O22 O 0.9267(7) 0.3212(5) 0.7809(3)
O23 O 0.9998(7) 0.6983(5) 0.7902(3)
O24 O 0.3020(6) 1.1308(5) 0.5055(3)
O25 O 0.7472(7) 1.2141(6) 0.4507(3)
O26 O 0.9987(7) 0.5879(6) 0.6806(3)
O27 O 0.2253(7) 1.0024(6) 0.7603(3)
O28 O 0.7289(7) 0.7508(5) 0.8998(3)
O29 O 0.4649(7) 0.7509(5) 0.6412(3)
O30 O 0.7590(7) 0.9252(6) 0.6684(3)
O31 O 0.7273(7) 0.7232(5) 0.6012(3)
O32 O 0.6200(7) 1.2905(5) 0.5455(3)
O33 O 0.3183(8) 0.9803(6) 0.8632(4)
O34 O 1.1434(7) 0.3864(6) 0.7097(4)
O35 O 0.7802(8) 0.2566(6) 0.8529(4)
O36 O 0.3556(8) 1.1499(5) 0.7664(3)
O37 O 0.5644(7) 0.9905(6) 0.8051(3)
O38 O 0.9102(8) 0.4241(6) 0.6643(4)
O39 O 0.2894(10) 0.8635(7) 0.9483(4)
O40 O 0.7299(9) 0.4113(7) 0.6305(4)
O41 O 0.991(3) 0.106(2) 0.9937(15)
O42 O 1.0100(18) 0.0913(14) 0.8746(9)
O43 O 0.984(2) 0.7208(18) 0.5402(11)
O44 O 0.3557(9) 0.5709(7) 0.6563(4)
O45 O 0.4144(18) 0.8801(14) 0.1209(9)
O46 O 0.3924(10) 0.4785(7) 0.4784(5)
O47 O 0.8998(13) 0.2244(12) 0.5936(7)
O48 O 0.1774(11) 0.2504(9) 0.8480(5)
O49 O 0.8487(10) 0.9046(8) 0.8036(6)
O50 O 0.258(2) 1.0189(19) 1.0158(12)
O51 O 0.8002(15) 1.1326(12) 0.7559(7)
O52 O 0.011(3) 1.023(2) 0.6047(12)
O53 O 0.943(2) 0.9200(18) 0.5286(11)
O54 O 0.9673(12) 0.1727(9) 0.1051(6)
O55 O 1.046(3) 0.413(2) 0.5392(14)
N1 N 0.4219(8) 0.8368(6) 0.7969(4)
N2 N 0.7633(8) 0.5132(6) 0.7532(4)
N3 N 0.6295(9) 0.3224(7) 0.9606(4)
N4 N 0.4515(11) 0.3346(9) 0.6673(6)
N5 N 0.2057(13) 0.5547(10) 0.5724(6)
N6 N 0.6471(13) 0.8073(9) 0.0581(6)
N7 N 0.2637(13) 0.2989(10) 0.5974(7)
N8 N 0.4498(13) 0.3354(10) 0.7880(6)
N9 N 0.0713(14) 0.7949(9) 0.6587(6)
N10 N 0.0707(12) 0.1880(8) 0.6902(6)
C1 C 0.5583(9) 0.7805(7) 0.7755(5)
H1 H 0.62190 0.79050 0.79750
H2 H 0.57920 0.81410 0.73360
C2 C 0.3961(11) 0.7986(8) 0.8634(5)
H3 H 0.47980 0.76170 0.87920
H4 H 0.33920 0.74910 0.87280
C3 C 0.3300(12) 0.8878(10) 0.8941(6)
C4 C 0.6899(10) 0.5000(8) 0.7070(5)
H5 H 0.64730 0.56890 0.68450
H6 H 0.62050 0.46300 0.72730
C5 C 0.7809(14) 0.4401(9) 0.6640(5)
C6 C 0.7347(9) 0.4410(7) 0.8123(5)
H7 H 0.64110 0.43940 0.81900
H8 H 0.75320 0.46690 0.84380
C7 C 0.8194(11) 0.3303(8) 0.8148(5)
C8 C 0.2072(11) 0.9179(9) 0.7538(5)
C9 C 0.3216(10) 0.8228(7) 0.7651(5)
H9 H 0.28670 0.76250 0.78850
H10 H 0.36430 0.80820 0.72700
C10 C 0.5798(9) 0.6637(7) 0.7814(5)
H11 H 0.56150 0.62730 0.82290
H12 H 0.52120 0.65090 0.75800
C11 C 0.7240(9) 0.6258(7) 0.7581(5)
H13 H 0.74270 0.67080 0.71880
H14 H 0.77990 0.63410 0.78440
Mo1A Mo 0.60592(9) 0.96265(7) 0.43975(4)
Mo2A Mo 0.99019(8) 0.58580(7) 1.04355(4)
Mo3A Mo 1.23103(9) 0.37739(7) 1.05979(4)
Mo5A Mo 0.69920(9) 0.49461(7) 1.07765(4)
Mo9A Mo 0.42579(9) 1.20154(7) 0.41651(4)
O4A O 0.4354(6) 0.9196(5) 0.5237(3)
O5A O 1.1272(6) 0.5122(5) 0.9926(3)
O12A O 0.5354(6) 0.7288(5) 0.5282(3)
O16A O 1.3359(6) 0.3713(5) 0.9818(3)
O18A O 0.9051(6) 0.6805(5) 0.9871(3)
O24A O 0.6980(6) 0.8692(5) 0.4945(3)
#END
