
#######################################################################
#
#                 Cambridge Crystallographic Data Centre
#                                CCDC
#
#######################################################################
#
# If this CIF has been generated from an entry in the Cambridge
# Structural Database, then it will include bibliographic, chemical,
# crystal, experimental, refinement or atomic coordinate data resulting
# from the CCDC's data processing and validation procedures.
#
#######################################################################

data_CSD_CIF_SOCPEI
_audit_creation_date 2019-05-20
_audit_creation_method CSD-ConQuest-V1
_database_code_CSD SOCPEI
_database_code_depnum_ccdc_archive 'CCDC 1904351'
_chemical_formula_sum 'C53 H80 N8 Ni1 O24 P4 Zn1'
_chemical_formula_moiety
;
3(C2 H8 N1 1+),n(C44 H27 N4 Ni1 O12 P4 Zn1 3-),C3 H7 N1 O1,11(H2 O1)
;
_journal_coden_Cambridge 1220
_journal_volume 25
_journal_year 2019
_journal_page_first 10552
_journal_name_full 'Chem.-Eur.J. '
loop_
_publ_author_name
"Yulia Yu Enakieva"
"A.A.Sinelshchikova"
"M.S.Grigoriev"
"V.V.Chernyshev"
"K.A.Kovalenko"
"I.A.Stenina"
"A.B.Yaroslavtsev"
"Y.G.Gorbunova"
"A.Yu.Tsivadze"
_chemical_name_systematic
;
catena-[tris(dimethylammonium) (\m-trihydrogen 
5,10,15,20-tetrakis(4-phosphonatophenyl)porphyrinato)-nickel(ii)-zinc(ii) 
N,N-dimethylformamide solvate undecahydrate]
;
_chemical_name_common
;
IPCE-1Ni
;
_cell_volume  12833.269
_exptl_crystal_colour 'dark violet'
_exptl_crystal_density_diffrn 1.513
_exptl_crystal_description 'needle'
_exptl_crystal_preparation 'N,N-dimethylformamide/water'
_diffrn_ambient_temperature 100
_refine_special_details
;
Disordered cation and solvent molecules were not modelled and the disordered 
density was taken into account using the SQUEEZE/PLATON procedure.
;
#These two values have been output from a single CSD field.
_refine_ls_R_factor_gt 0.0637
_refine_ls_wR_factor_gt 0.0637
_symmetry_cell_setting monoclinic
_symmetry_space_group_name_H-M 'C 2/c'
_symmetry_Int_Tables_number 15
loop_
_symmetry_equiv_pos_site_id
_symmetry_equiv_pos_as_xyz
1 x,y,z
2 -x,y,1/2-z
3 1/2+x,1/2+y,z
4 1/2-x,1/2+y,1/2-z
5 -x,-y,-z
6 x,-y,-1/2+z
7 -1/2-x,-1/2-y,-z
8 -1/2+x,-1/2-y,-1/2+z
_cell_length_a 31.250(3)
_cell_length_b 24.893(2)
_cell_length_c 18.6983(15)
_cell_angle_alpha 90
_cell_angle_beta 118.081(4)
_cell_angle_gamma 90
_cell_formula_units_Z 8
loop_
_atom_type_symbol
_atom_type_radius_bond
C 0.68
H 0.23
N 0.68
Ni 1.24
O 0.68
P 1.05
Zn 1.22
loop_
_atom_site_label
_atom_site_type_symbol
_atom_site_fract_x
_atom_site_fract_y
_atom_site_fract_z
Zn1 Zn 0.77950(3) 0.30213(3) 0.61653(4)
O1 O 0.74786(14) 0.30757(17) 0.6843(2)
O2 O 0.73847(14) 0.32923(16) 0.5082(2)
O3 O 0.78785(14) 0.22492(16) 0.6194(2)
O4 O 0.83662(14) 0.34665(16) 0.6548(2)
P1 P 0.74000(6) 0.34778(7) 0.73711(10)
O5 O 0.72374(15) 0.31998(17) 0.7931(2)
O6 O 0.78499(14) 0.38278(17) 0.7856(2)
C1 C 0.6929(2) 0.3917(2) 0.6713(4)
H1 H 0.80270 0.37610 0.83300
C2 C 0.6606(2) 0.4146(3) 0.6942(4)
C3 C 0.6864(3) 0.4049(3) 0.5952(4)
C4 C 0.6255(2) 0.4498(3) 0.6430(4)
H2 H 0.66270 0.40600 0.74530
H3 H 0.70720 0.38890 0.57700
C5 C 0.6510(3) 0.4403(3) 0.5440(4)
C6 C 0.6205(2) 0.4642(2) 0.5687(3)
H4 H 0.60390 0.46480 0.66010
H5 H 0.64790 0.44800 0.49200
C7 C 0.5822(2) 0.5019(2) 0.5139(3)
C8 C 0.5417(2) 0.4816(2) 0.4495(3)
C9 C 0.5872(2) 0.5555(2) 0.5335(3)
N1 N 0.50686(15) 0.51214(19) 0.3882(3)
C10 C 0.5289(2) 0.4260(2) 0.4380(4)
N2 N 0.55322(16) 0.59453(19) 0.4904(3)
C11 C 0.6237(2) 0.5775(2) 0.6082(3)
Ni1 Ni 0.49952(3) 0.58887(3) 0.38283(4)
C12 C 0.4740(2) 0.4750(2) 0.3370(3)
C13 C 0.4868(2) 0.4217(3) 0.3705(4)
H6 H 0.54700 0.39730 0.47240
C14 C 0.5668(2) 0.6384(2) 0.5405(3)
H7 H 0.65200 0.55950 0.64680
C15 C 0.6109(2) 0.6281(3) 0.6140(3)
N3 N 0.48747(17) 0.66483(19) 0.3821(3)
N4 N 0.44920(16) 0.5843(2) 0.2717(3)
C16 C 0.4361(2) 0.4864(2) 0.2604(3)
H8 H 0.46880 0.38980 0.34860
C17 C 0.5420(2) 0.6863(2) 0.5245(3)
H9 H 0.62770 0.65230 0.65780
C18 C 0.4570(2) 0.6968(3) 0.3169(3)
C19 C 0.5044(2) 0.6995(3) 0.4480(3)
C20 C 0.4290(2) 0.6261(3) 0.2180(3)
C21 C 0.42818(19) 0.5381(2) 0.2283(3)
C22 C 0.4040(2) 0.4420(2) 0.2108(3)
C23 C 0.5570(2) 0.7266(2) 0.5920(3)
C24 C 0.4320(2) 0.6794(3) 0.2377(3)
C25 C 0.4544(2) 0.7493(3) 0.3435(4)
C26 C 0.4825(2) 0.7512(3) 0.4240(4)
C27 C 0.3974(2) 0.6049(3) 0.1383(3)
C28 C 0.3964(2) 0.5513(3) 0.1464(3)
C29 C 0.3547(2) 0.4422(3) 0.1881(3)
C30 C 0.4214(2) 0.3984(3) 0.1868(4)
C31 C 0.5962(2) 0.7602(3) 0.6141(4)
C32 C 0.5331(2) 0.7279(3) 0.6385(4)
C33 C 0.4035(2) 0.7194(3) 0.1733(3)
H10 H 0.43590 0.77820 0.31010
H11 H 0.48700 0.78120 0.45840
H12 H 0.38060 0.62500 0.08960
H13 H 0.37770 0.52660 0.10450
H14 H 0.34130 0.47170 0.20300
C34 C 0.3250(2) 0.4003(3) 0.1444(3)
C35 C 0.3921(2) 0.3573(3) 0.1431(4)
H15 H 0.45490 0.39700 0.20140
H16 H 0.61260 0.76060 0.58240
C36 C 0.6122(2) 0.7931(3) 0.6803(4)
C37 C 0.5495(2) 0.7600(3) 0.7059(4)
H17 H 0.50510 0.70640 0.62340
C38 C 0.4256(2) 0.7518(3) 0.1428(4)
C39 C 0.3550(3) 0.7250(4) 0.1466(5)
H18 H 0.29160 0.40120 0.13070
C40 C 0.3426(2) 0.3574(3) 0.1204(3)
H19 H 0.40550 0.32800 0.12770
H20 H 0.63920 0.81600 0.69370
C41 C 0.5894(2) 0.7930(3) 0.7272(3)
H21 H 0.53340 0.75960 0.73820
H22 H 0.45940 0.74820 0.16150
C42 C 0.3997(3) 0.7905(3) 0.0847(4)
C43 C 0.3293(3) 0.7632(4) 0.0893(5)
H23 H 0.33890 0.70260 0.16770
P2 P 0.30424(6) 0.30319(7) 0.06371(10)
P3 P 0.61018(6) 0.83486(8) 0.81573(10)
H24 H 0.41590 0.81250 0.06350
C44 C 0.3511(2) 0.7969(3) 0.0579(4)
H25 H 0.29540 0.76640 0.07070
O7 O 0.33356(15) 0.26599(17) 0.0386(2)
O8 O 0.57927(16) 0.88398(19) 0.7955(3)
O9 O 0.60212(15) 0.80150(19) 0.8785(2)
P4 P 0.31809(8) 0.85072(9) -0.01042(12)
H26 H 0.61470 0.78030 0.91640
O10 O 0.34015(16) 0.8580(2) -0.0681(3)
O11 O 0.26500(16) 0.8340(2) -0.0560(3)
O12 O 0.3245(2) 0.8997(2) 0.0413(3)
H27 H 0.24940 0.84580 -0.10150
N5 N 0.3188(3) 0.7850(3) 0.4034(4)
H28 H 0.31950 0.76410 0.44390
H29 H 0.28980 0.77910 0.35870
C45 C 0.3202(4) 0.8434(4) 0.4280(6)
H30 H 0.29560 0.84940 0.44580
H31 H 0.31340 0.86660 0.38160
H32 H 0.35240 0.85180 0.47260
C46 C 0.3567(4) 0.7665(4) 0.3858(7)
H33 H 0.38780 0.78220 0.42490
H34 H 0.34930 0.77760 0.33090
H35 H 0.35880 0.72730 0.38980
N6 N 0.496(1) 0.907(1) 0.6574(12)
H36 H 0.52660 0.89880 0.69590
H37 H 0.47540 0.89870 0.67750
C47 C 0.4930(13) 0.9668(9) 0.6399(19)
H38 H 0.45980 0.97280 0.62090
H39 H 0.51390 0.96980 0.63790
H40 H 0.50200 0.97570 0.71010
C48 C 0.4837(4) 0.8747(5) 0.5851(7)
H41 H 0.48560 0.83650 0.59900
H42 H 0.50660 0.88260 0.56440
H43 H 0.45070 0.88340 0.54350
O2A O 0.26153(14) 0.32923(16) -0.0082(2)
O3G O 0.28785(14) 0.27508(16) 0.1194(2)
O4C O 0.66338(14) 0.84665(16) 0.8452(2)
Zn1A Zn 0.22050(3) 0.30213(3) -0.11653(4)
Zn1G Zn 0.27950(3) 0.19787(3) 0.11653(4)
Zn1C Zn 0.72050(3) 0.80213(3) 0.88347(4)
#END
