
#######################################################################
#
#                 Cambridge Crystallographic Data Centre
#                                CCDC
#
#######################################################################
#
# If this CIF has been generated from an entry in the Cambridge
# Structural Database, then it will include bibliographic, chemical,
# crystal, experimental, refinement or atomic coordinate data resulting
# from the CCDC's data processing and validation procedures.
#
#######################################################################

data_CSD_CIF_SODRUB
_audit_creation_date 2019-05-21
_audit_creation_method CSD-ConQuest-V1
_database_code_CSD SODRUB
_database_code_depnum_ccdc_archive 'CCDC 1906273'
_chemical_formula_sum 'C76 H72 N2 O38 Tb6'
_chemical_formula_moiety
;
(C72 H56 O38 Tb6 2-)n,2n(C2 H8 N1 1+)
;
_journal_coden_Cambridge 86
_journal_volume 552
_journal_year 2019
_journal_page_first 372
_journal_name_full 'J.Colloid Interface Sci. '
loop_
_publ_author_name
"Erlong Ning"
"Lingyi Yang"
"Binbin Tu"
"Qingqing Pang"
"Xiaomin Li"
"Huoshu Xu"
"Yi Qi"
"Qiaowei Li"
_chemical_name_systematic
;
catena-(bis(dimethylammonium) 
octakis(\m-hydroxo)-hexakis(\m-naphthalene-2,6-dicarboxylato)-hexa-aqua-hexa-t
erbium unknown solvate)
;
_chemical_name_common
;
FDM-34
;
_cell_volume  14830.365
_exptl_crystal_colour 'colorless'
_exptl_crystal_description 'octahedral'
_diffrn_ambient_temperature 173
_refine_special_details
;
The SQUEEZE/PLATON program was used to model the disordered cations and some 
unidentified solvent.
;
#These two values have been output from a single CSD field.
_refine_ls_R_factor_gt 0.0873
_refine_ls_wR_factor_gt 0.0873
_symmetry_cell_setting cubic
_symmetry_space_group_name_H-M 'P n -3'
_symmetry_Int_Tables_number 201
loop_
_symmetry_equiv_pos_site_id
_symmetry_equiv_pos_as_xyz
1 x,y,z
2 1/2-x,1/2-y,z
3 1/2-x,y,1/2-z
4 x,1/2-y,1/2-z
5 z,x,y
6 z,1/2-x,1/2-y
7 1/2-z,1/2-x,y
8 1/2-z,x,1/2-y
9 y,z,x
10 1/2-y,z,1/2-x
11 y,1/2-z,1/2-x
12 1/2-y,1/2-z,x
13 -x,-y,-z
14 -1/2+x,-1/2+y,-z
15 -1/2+x,-y,-1/2+z
16 -x,-1/2+y,-1/2+z
17 -z,-x,-y
18 -z,-1/2+x,-1/2+y
19 -1/2+z,-1/2+x,-y
20 -1/2+z,-x,-1/2+y
21 -y,-z,-x
22 -1/2+y,-z,-1/2+x
23 -y,-1/2+z,-1/2+x
24 -1/2+y,-1/2+z,-x
_cell_length_a 24.5688(2)
_cell_length_b 24.5688(2)
_cell_length_c 24.5688(2)
_cell_angle_alpha 90
_cell_angle_beta 90
_cell_angle_gamma 90
_cell_formula_units_Z 4
loop_
_atom_type_symbol
_atom_type_radius_bond
C 0.68
H 0.23
O 0.68
Tb 1.94
loop_
_atom_site_label
_atom_site_type_symbol
_atom_site_fract_x
_atom_site_fract_y
_atom_site_fract_z
Tb1 Tb 0.50555(2) 0.387393(18) 1.00560(2)
C1 C 0.3719(11) 0.3560(7) 1.0011(9)
C2 C 0.3322(7) 0.3126(8) 0.9995(9)
C3 C 0.2801(9) 0.3200(7) 0.997(1)
H1 H 0.26740 0.35640 0.99340
C4 C 0.2400(6) 0.2777(6) 0.9994(12)
C5 C 0.5078(7) 0.3126(8) 0.8312(8)
C6 C 0.5081(7) 0.3580(8) 0.8714(10)
C7 C 0.5137(15) 0.2510(19) 0.8536(19)
H2 H 0.51650 0.24480 0.89170
C8 C 0.5097(9) 0.3229(7) 0.7784(7)
H3 H 0.51120 0.35950 0.76580
C9 C 0.5093(8) 0.2762(7) 0.7376(7)
C10 C 0.515(2) 0.204(2) 0.815(2)
H4 H 0.51880 0.16630 0.82520
C11 C 0.1832(9) 0.2863(8) 0.9998(17)
H5 H 0.16940 0.32230 0.99640
C12 C 0.3545(18) 0.2586(19) 1.0053(14)
H6 H 0.39210 0.25280 1.01240
O1 O 0.4482(2) 0.4482(2) 1.0518(2)
O2 O 0.55686(19) 0.4485(2) 0.9530(2)
O3 O 0.5095(4) 0.3412(4) 0.9225(4)
O4 O 0.5094(4) 0.4055(4) 0.8510(4)
O5 O 0.4225(4) 0.3408(4) 1.0044(5)
O6 O 0.3512(4) 0.4053(5) 0.9962(5)
O7 O 0.525(3) 0.2790(13) 1.0148(14)
C1A C 0.1281(11) 0.1440(7) 1.0011(9)
C2A C 0.1678(7) 0.1874(8) 0.9995(9)
C3A C 0.2199(9) 0.1800(7) 0.997(1)
H1A H 0.23260 0.14360 0.99340
C4A C 0.2600(6) 0.2223(6) 0.9994(12)
C11A C 0.3168(9) 0.2137(8) 0.9998(17)
H5A H 0.33060 0.17770 0.99640
C12A C 0.1455(18) 0.2414(19) 1.0053(14)
H6A H 0.10790 0.24720 1.01240
O5A O 0.0775(4) 0.1592(4) 1.0044(5)
O6A O 0.1488(4) 0.0947(5) 0.9962(5)
C5C C 0.5078(7) 0.1874(8) 0.6688(8)
C6C C 0.5081(7) 0.1420(8) 0.6286(10)
C7C C 0.5137(15) 0.2490(19) 0.6464(19)
H2C H 0.51650 0.25520 0.60830
C8C C 0.5097(9) 0.1771(7) 0.7216(7)
H3C H 0.51120 0.14050 0.73420
C9C C 0.5093(8) 0.2238(7) 0.7624(7)
C10C C 0.515(2) 0.296(2) 0.685(2)
H4C H 0.51880 0.33370 0.67480
O3C O 0.5095(4) 0.1588(4) 0.5775(4)
O4C O 0.5094(4) 0.0945(4) 0.6490(4)
Tb1A Tb -0.00555(2) 0.112607(18) 1.00560(2)
C5A C -0.0078(7) 0.1874(8) 0.8312(8)
C6A C -0.0081(7) 0.1420(8) 0.8714(10)
C7A C -0.0137(15) 0.2490(19) 0.8536(19)
H2A H -0.01650 0.25520 0.89170
C8A C -0.0097(9) 0.1771(7) 0.7784(7)
H3A H -0.01120 0.14050 0.76580
C9A C -0.0093(8) 0.2238(7) 0.7376(7)
C10A C -0.015(2) 0.296(2) 0.815(2)
H4A H -0.01880 0.33370 0.82520
O1A O 0.0518(2) 0.0518(2) 1.0518(2)
O2A O -0.05686(19) 0.0515(2) 0.9530(2)
O3A O -0.0095(4) 0.1588(4) 0.9225(4)
O4A O -0.0094(4) 0.0945(4) 0.8510(4)
C5B C -0.0078(7) 0.3126(8) 0.6688(8)
C6B C -0.0081(7) 0.3580(8) 0.6286(10)
C7B C -0.0137(15) 0.2510(19) 0.6464(19)
H2B H -0.01650 0.24480 0.60830
C8B C -0.0097(9) 0.3229(7) 0.7216(7)
H3B H -0.01120 0.35950 0.73420
C9B C -0.0093(8) 0.2762(7) 0.7624(7)
C10B C -0.015(2) 0.204(2) 0.685(2)
H4B H -0.01880 0.16630 0.67480
O3B O -0.0095(4) 0.3412(4) 0.5775(4)
O4B O -0.0094(4) 0.4055(4) 0.6490(4)
O7A O -0.025(3) 0.2210(13) 1.0148(14)
Tb1B Tb -0.00555(2) 0.387393(18) 0.49440(2)
C1B C 0.1281(11) 0.3560(7) 0.4989(9)
C2B C 0.1678(7) 0.3126(8) 0.5005(9)
C3B C 0.2199(9) 0.3200(7) 0.503(1)
H1B H 0.23260 0.35640 0.50660
C4B C 0.2600(6) 0.2777(6) 0.5006(12)
C11B C 0.3168(9) 0.2863(8) 0.5002(17)
H5B H 0.33060 0.32230 0.50360
C12B C 0.1455(18) 0.2586(19) 0.4947(14)
H6B H 0.10790 0.25280 0.48760
O2B O -0.05686(19) 0.4485(2) 0.5470(2)
O5B O 0.0775(4) 0.3408(4) 0.4956(5)
O6B O 0.1488(4) 0.4053(5) 0.5038(5)
C1C C 0.3719(11) 0.1440(7) 0.4989(9)
C2C C 0.3322(7) 0.1874(8) 0.5005(9)
C3C C 0.2801(9) 0.1800(7) 0.503(1)
H1C H 0.26740 0.14360 0.50660
C4C C 0.2400(6) 0.2223(6) 0.5006(12)
C11C C 0.1832(9) 0.2137(8) 0.5002(17)
H5C H 0.16940 0.17770 0.50360
C12C C 0.3545(18) 0.2414(19) 0.4947(14)
H6C H 0.39210 0.24720 0.48760
O5C O 0.4225(4) 0.1592(4) 0.4956(5)
O6C O 0.3512(4) 0.0947(5) 0.5038(5)
O7B O -0.025(3) 0.2790(13) 0.4852(14)
Tb1C Tb 0.50555(2) 0.112607(18) 0.49440(2)
O2C O 0.55686(19) 0.0515(2) 0.5470(2)
O7C O 0.525(3) 0.2210(13) 0.4852(14)
Tb1P Tb -0.00560(2) 0.494450(18) 0.612607(20)
C1P C -0.0011(11) 0.6281(7) 0.6440(9)
C2P C 0.0005(7) 0.6678(8) 0.6874(9)
C3P C 0.0030(9) 0.7199(7) 0.680(1)
H1P H 0.00660 0.73260 0.64360
C4P C 0.0006(6) 0.7600(6) 0.7223(12)
C5P C 0.1688(7) 0.4922(8) 0.6874(8)
C6P C 0.1286(7) 0.4919(8) 0.642(1)
C7P C 0.1464(15) 0.4863(19) 0.7490(19)
H2P H 0.10830 0.48350 0.75520
C8P C 0.2216(9) 0.4903(7) 0.6771(7)
H3P H 0.23420 0.48880 0.64050
C9P C 0.2624(8) 0.4907(7) 0.7238(7)
C10P C 0.185(2) 0.485(2) 0.796(2)
H4P H 0.17480 0.48120 0.83370
C11P C 0.0002(9) 0.8168(8) 0.7137(17)
H5P H 0.00360 0.83060 0.67770
C12P C -0.0053(18) 0.6455(19) 0.7414(14)
H6P H -0.01240 0.60790 0.74720
O2P O 0.04700(19) 0.44314(20) 0.5515(2)
O3P O 0.0775(4) 0.4905(4) 0.6588(4)
O4P O 0.1490(4) 0.4906(4) 0.5945(4)
O5P O -0.0044(4) 0.5775(4) 0.6592(5)
O6P O 0.0038(4) 0.6488(5) 0.5947(5)
C1Q C -0.0011(11) 0.8719(7) 0.8560(9)
C2Q C 0.0005(7) 0.8322(8) 0.8126(9)
C3Q C 0.0030(9) 0.7801(7) 0.820(1)
H1Q H 0.00660 0.76740 0.85640
C4Q C 0.0006(6) 0.7400(6) 0.7777(12)
C11Q C 0.0002(9) 0.6832(8) 0.7863(17)
H5Q H 0.00360 0.66940 0.82230
C12Q C -0.0053(18) 0.8545(19) 0.7586(14)
H6Q H -0.01240 0.89210 0.75280
O5Q O -0.0044(4) 0.9225(4) 0.8408(5)
O6Q O 0.0038(4) 0.8512(5) 0.9053(5)
C5S C 0.3312(7) 0.4922(8) 0.8126(8)
C6S C 0.3714(7) 0.4919(8) 0.858(1)
C7S C 0.3536(15) 0.4863(19) 0.7510(19)
H2S H 0.39170 0.48350 0.74480
C8S C 0.2784(9) 0.4903(7) 0.8229(7)
H3S H 0.26580 0.48880 0.85950
C9S C 0.2376(8) 0.4907(7) 0.7762(7)
C10S C 0.315(2) 0.485(2) 0.704(2)
H4S H 0.32520 0.48120 0.66630
O3S O 0.4225(4) 0.4905(4) 0.8412(4)
O4S O 0.3510(4) 0.4906(4) 0.9055(4)
O7P O -0.0148(30) 0.4750(13) 0.7210(14)
Tb1Q Tb -0.00560(2) 0.005550(18) 0.887393(20)
O2Q O 0.04700(19) 0.05686(20) 0.9485(2)
O7Q O -0.0148(30) 0.0250(13) 0.7790(14)
Tb1E Tb 0.00560(2) -0.005550(18) 1.112607(20)
Tb1G Tb 0.49440(2) 0.505550(18) 1.112607(20)
Tb1H Tb 0.387393(20) 0.005600(18) 0.50555(2)
Tb1I Tb 0.112607(20) 0.005600(18) 0.99445(2)
Tb1J Tb 0.387393(20) 0.494400(18) 0.99445(2)
Tb1K Tb 0.112607(20) 0.494400(18) 0.50555(2)
Tb1M Tb 0.00555(2) 0.887393(18) 0.99440(2)
Tb1N Tb 0.00555(2) 0.612607(18) 0.50560(2)
Tb1Q* Tb -0.00560(2) 1.005550(18) 0.887393(20)
Tb1R Tb 0.50560(2) 0.005550(18) 0.612607(20)
Tb1S Tb 0.50560(2) 0.494450(18) 0.887393(20)
Tb1T Tb 0.612607(20) -0.005600(18) 0.49445(2)
Tb1U Tb -0.112607(20) -0.005600(18) 1.00555(2)
Tb1V Tb 0.612607(20) 0.505600(18) 1.00555(2)
Tb1W Tb -0.112607(20) 0.505600(18) 0.49445(2)
O1B O 0.0518(2) 0.4482(2) 0.4482(2)
O1C O 0.4482(2) 0.0518(2) 0.4482(2)
O1M O -0.0518(2) -0.0518(2) 0.9482(2)
O1N O -0.0518(2) 0.5518(2) 0.5518(2)
O2I O 0.05150(19) -0.0470(2) 0.94314(20)
O2K O 0.05150(19) 0.5470(2) 0.55686(20)
O2R O 0.45300(19) 0.05686(20) 0.5515(2)
O2S O 0.45300(19) 0.44314(20) 0.9485(2)
O2T O 0.55150(19) 0.0470(2) 0.44314(20)
O2U O -0.05150(19) 0.0470(2) 1.05686(20)
O2V O 0.55150(19) 0.4530(2) 1.05686(20)
O2W O -0.05150(19) 0.4530(2) 0.44314(20)
O3Q O 0.0775(4) 0.0095(4) 0.8412(4)
O4T O 0.5945(4) 0.1490(4) 0.4906(4)
O4U O -0.0945(4) 0.1490(4) 1.0094(4)
O4V O 0.5945(4) 0.3510(4) 1.0094(4)
O4W O -0.0945(4) 0.3510(4) 0.4906(4)
O5Q* O -0.0044(4) -0.0775(4) 0.8408(5)
O6D O -0.0038(4) 0.3512(5) 0.4053(5)
O6E O -0.0038(4) 0.1488(5) 1.0947(5)
O6F O 0.5038(4) 0.1488(5) 0.4053(5)
O6G O 0.5038(4) 0.3512(5) 1.0947(5)
O6U O -0.0947(4) 0.0038(5) 0.8512(5)
O6W O -0.0947(4) 0.4962(5) 0.6488(5)
#END
