
#######################################################################
#
#                 Cambridge Crystallographic Data Centre
#                                CCDC
#
#######################################################################
#
# If this CIF has been generated from an entry in the Cambridge
# Structural Database, then it will include bibliographic, chemical,
# crystal, experimental, refinement or atomic coordinate data resulting
# from the CCDC's data processing and validation procedures.
#
#######################################################################

data_CSD_CIF_SOGWUI
_audit_creation_date 2014-06-02
_audit_creation_method CSD-ConQuest-V1
_database_code_CSD SOGWUI
_database_code_depnum_ccdc_archive 'CCDC 974685'
_chemical_formula_sum 'C50 H56 Cu4 N20 O52 W12'
_chemical_formula_moiety
;
(C30 H22 Cu2 N16 2+)n,n(H2 O44 W12 6-),2n(C10 H12 Cu1 N2 O2 2+),4n(H2 O1)
;
_journal_coden_Cambridge 1295
_journal_volume 44
_journal_year 2014
_journal_page_first 15
_journal_name_full 'Inorg.Chem.Commun. '
loop_
_publ_author_name
"Shaobin Li"
"Huiyuan Ma"
"Haijun Pang"
"Li Zhang"
"Zhuanfang Zhang"
"Huangding Lin"
_chemical_name_systematic
;
catena-(bis(\m~2~-5-(Pyrimidin-2-yl)tetrazolato)-bis(4,4'-bipyridine)-di-coppe
r bis((\m~2~-4,4'-bipyridine)-diaqua-copper) 
octakis(\m~3~-oxo)-bis(\m~2~-hydroxo)-docosakis(\m~2~-oxo)-dodecaoxo-dodeca-tu
ngsten tetrahydrate)
;
_cell_volume   8681.358
_exptl_crystal_colour 'blue'
_exptl_crystal_density_diffrn 3.149
_exptl_crystal_description 'block'
_diffrn_ambient_temperature 293
_refine_special_details
;
The SQUEEZE/PLATON program has been used to model some disordered water 
molecules.
;
#These two values have been output from a single CSD field.
_refine_ls_R_factor_gt 0.0894
_refine_ls_wR_factor_gt 0.0894
_symmetry_cell_setting orthorhombic
_symmetry_space_group_name_H-M 'P c c n'
_symmetry_Int_Tables_number 56
loop_
_symmetry_equiv_pos_site_id
_symmetry_equiv_pos_as_xyz
1 x,y,z
2 1/2-x,1/2-y,z
3 1/2+x,-y,1/2-z
4 -x,1/2+y,1/2-z
5 -x,-y,-z
6 -1/2+x,-1/2+y,-z
7 -1/2-x,y,-1/2+z
8 x,-1/2-y,-1/2+z
_cell_length_a 25.018(5)
_cell_length_b 15.588(5)
_cell_length_c 22.261(5)
_cell_angle_alpha 90
_cell_angle_beta 90
_cell_angle_gamma 90
_cell_formula_units_Z 4
loop_
_atom_type_symbol
_atom_type_radius_bond
C 0.68
H 0.23
Cu 1.32
N 0.68
O 0.68
W 1.62
loop_
_atom_site_label
_atom_site_type_symbol
_atom_site_fract_x
_atom_site_fract_y
_atom_site_fract_z
W1 W 0.58916(4) -0.04128(5) 0.61737(3)
W2 W 0.45924(3) -0.12928(5) 0.61879(3)
W3 W 0.39586(3) 0.14443(5) 0.52061(4)
W4 W 0.52868(3) 0.21724(4) 0.52405(4)
W5 W 0.63092(4) 0.07304(6) 0.49191(4)
W6 W 0.47811(3) 0.09108(5) 0.64125(3)
O1 O 0.4992(7) -0.0117(12) 0.5763(8)
O2 O 0.5493(7) 0.0459(11) 0.6546(8)
O3 O 0.4489(7) -0.0167(12) 0.6562(8)
O4 O 0.4149(8) 0.1254(13) 0.6039(9)
O5 O 0.4847(8) 0.0935(13) 0.5431(9)
O6 O 0.5158(9) 0.1845(14) 0.6036(10)
O7 O 0.5397(8) 0.0920(13) 0.4758(9)
O8 O 0.5754(9) -0.0254(15) 0.5186(11)
O9 O 0.4498(8) 0.2211(12) 0.5121(9)
O10 O 0.5420(6) 0.3241(10) 0.5352(7)
O11 O 0.5977(9) 0.1757(14) 0.5266(10)
O12 O 0.6945(5) 0.1175(8) 0.4958(6)
O13 O 0.6417(10) 0.0354(16) 0.5825(11)
O14 O 0.6308(7) -0.0644(10) 0.6735(7)
O15 O 0.5320(7) -0.1201(11) 0.6344(8)
O16 O 0.4396(7) -0.1907(11) 0.6794(8)
O17 O 0.4691(10) -0.2287(16) 0.5663(11)
O18 O 0.3905(8) -0.1090(13) 0.5846(9)
O19 O 0.4709(6) 0.1342(10) 0.7102(7)
O20 O 0.3702(10) 0.0345(16) 0.5377(11)
O21 O 0.3796(11) 0.1332(17) 0.4322(12)
O22 O 0.3428(4) 0.2110(7) 0.5301(5)
Cu1 Cu 0.25000 0.25000 0.52593(12)
N1 N 0.25000 0.25000 0.1170(9)
N2 N 0.25000 0.25000 0.4354(11)
O23 O 0.2337(5) 0.1260(8) 0.5262(5)
C1 C 0.2932(8) 0.2683(12) 0.4055(9)
H1 H 0.32440 0.28010 0.42660
C2 C 0.2772(7) 0.3064(11) 0.1491(8)
H2 H 0.29650 0.34770 0.12820
C3 C 0.2793(6) 0.3088(10) 0.2099(7)
H3 H 0.30010 0.34940 0.22970
C4 C 0.25000 0.25000 0.2411(12)
C5 C 0.25000 0.25000 0.3092(11)
C6 C 0.2941(8) 0.2707(13) 0.3429(9)
H4 H 0.32540 0.28680 0.32350
Cu2 Cu 0.75000 0.25000 0.50023(12)
N3 N 0.75000 0.25000 0.410(1)
N4 N 0.75000 0.25000 0.0917(9)
O24 O 0.6812(5) 0.3143(9) 0.5069(6)
C7 C 0.7971(7) 0.2572(12) 0.3787(8)
H5 H 0.82910 0.26210 0.39980
C8 C 0.7980(7) 0.2572(11) 0.3168(7)
H6 H 0.83060 0.26210 0.29690
C9 C 0.75000 0.25000 0.2825(12)
C10 C 0.7101(7) 0.2837(11) 0.1232(7)
H7 H 0.68150 0.30710 0.10210
C11 C 0.7085(7) 0.2861(11) 0.1845(8)
H8 H 0.67990 0.31150 0.20440
C12 C 0.75000 0.25000 0.2161(13)
Cu3 Cu 0.51891(9) 0.46137(15) 0.58398(10)
N5 N 0.4675(6) 0.3953(10) 0.6433(7)
N6 N 0.4546(6) 0.4513(10) 0.5319(7)
N7 N 0.4393(6) 0.4756(10) 0.4757(8)
N8 N 0.3898(7) 0.4462(11) 0.4699(8)
N9 N 0.3727(6) 0.406(1) 0.5184(7)
N10 N 0.3878(8) 0.3071(12) 0.7059(9)
N11 N 0.5798(6) 0.4627(9) 0.6419(7)
N12 N 0.7989(8) 0.4774(12) 0.8404(8)
C13 C 0.4772(11) 0.3647(17) 0.6968(12)
H9 H 0.51060 0.37250 0.71440
C14 C 0.4385(8) 0.3215(12) 0.7268(9)
H10 H 0.44710 0.30000 0.76460
C15 C 0.3795(10) 0.3375(15) 0.650(1)
H11 H 0.34630 0.32910 0.63210
C16 C 0.4192(7) 0.3814(11) 0.6179(8)
C17 C 0.4136(8) 0.4089(12) 0.5566(8)
C18 C 0.6261(8) 0.4226(13) 0.6298(9)
H12 H 0.62720 0.38900 0.59530
C19 C 0.6708(9) 0.4264(14) 0.6628(10)
H13 H 0.70210 0.39940 0.65030
C20 C 0.6686(7) 0.4733(11) 0.7178(8)
C21 C 0.6203(8) 0.5180(13) 0.7284(9)
H14 H 0.61780 0.55350 0.76180
C22 C 0.5775(8) 0.5108(13) 0.6914(9)
H15 H 0.54610 0.53980 0.70060
C23 C 0.7131(7) 0.4773(11) 0.7616(8)
C24 C 0.7652(9) 0.4860(15) 0.7391(11)
H16 H 0.77200 0.49270 0.69830
C25 C 0.806(1) 0.4840(15) 0.7814(11)
H17 H 0.84100 0.48760 0.76740
C26 C 0.7465(8) 0.4721(12) 0.8598(9)
H18 H 0.74030 0.46850 0.90100
C27 C 0.7038(8) 0.4718(12) 0.8226(8)
H19 H 0.66910 0.46800 0.83760
O25 O 0.4851(14) 0.581(2) 0.6126(16)
W1D W 0.41084(4) 0.04128(5) 0.38263(3)
W2D W 0.54076(3) 0.12928(5) 0.38121(3)
W3D W 0.60414(3) -0.14443(5) 0.47939(4)
W4D W 0.47132(3) -0.21724(4) 0.47595(4)
W5D W 0.36908(4) -0.07304(6) 0.50809(4)
W6D W 0.52189(3) -0.09108(5) 0.35875(3)
O1D O 0.5008(7) 0.0117(12) 0.4237(8)
O2D O 0.4507(7) -0.0459(11) 0.3454(8)
O3D O 0.5511(7) 0.0167(12) 0.3438(8)
O4D O 0.5851(8) -0.1254(13) 0.3961(9)
O5D O 0.5153(8) -0.0935(13) 0.4569(9)
O6D O 0.4842(9) -0.1845(14) 0.3964(10)
O7D O 0.4603(8) -0.0920(13) 0.5242(9)
O8D O 0.4246(9) 0.0254(15) 0.4814(11)
O9D O 0.5502(8) -0.2211(12) 0.4879(9)
O10D O 0.4580(6) -0.3241(10) 0.4648(7)
O11D O 0.4023(9) -0.1757(14) 0.4734(10)
O12D O 0.3055(5) -0.1175(8) 0.5042(6)
O13D O 0.3583(10) -0.0354(16) 0.4175(11)
O14D O 0.3692(7) 0.0644(10) 0.3265(7)
O15D O 0.4680(7) 0.1201(11) 0.3656(8)
O16D O 0.5604(7) 0.1907(11) 0.3206(8)
O17D O 0.5309(10) 0.2287(16) 0.4337(11)
O18D O 0.6095(8) 0.1090(13) 0.4154(9)
O19D O 0.5291(6) -0.1342(10) 0.2898(7)
O20D O 0.6298(10) -0.0345(16) 0.4623(11)
O21D O 0.6204(11) -0.1332(17) 0.5678(12)
O22D O 0.6572(4) -0.2110(7) 0.4699(5)
C1A C 0.2068(8) 0.2317(12) 0.4055(9)
H1A H 0.17560 0.21990 0.42660
C2A C 0.2228(7) 0.1936(11) 0.1491(8)
H2A H 0.20350 0.15230 0.12820
C3A C 0.2207(6) 0.1912(10) 0.2099(7)
H3A H 0.19990 0.15060 0.22970
C6A C 0.2059(8) 0.2293(13) 0.3429(9)
H4A H 0.17460 0.21320 0.32350
O23A O 0.2663(5) 0.3740(8) 0.5262(5)
Cu1F Cu 0.25000 0.25000 0.02593(12)
N1F N 0.25000 0.25000 0.6170(9)
C7A C 0.7029(7) 0.2428(12) 0.3787(8)
H5A H 0.67090 0.23790 0.39980
C8A C 0.7020(7) 0.2428(11) 0.3168(7)
H6A H 0.66940 0.23790 0.29690
C10A C 0.7899(7) 0.2163(11) 0.1232(7)
H7A H 0.81850 0.19290 0.10210
C11A C 0.7915(7) 0.2139(11) 0.1845(8)
H8A H 0.82010 0.18850 0.20440
O24A O 0.8188(5) 0.1857(9) 0.5069(6)
Cu2F Cu 0.75000 0.25000 0.00023(12)
N4F N 0.75000 0.25000 0.5917(9)
Cu3D Cu 0.48109(9) 0.53863(15) 0.41602(10)
N5D N 0.5325(6) 0.6047(10) 0.3567(7)
N6D N 0.5454(6) 0.5487(10) 0.4681(7)
N7D N 0.5607(6) 0.5244(10) 0.5243(8)
N8D N 0.6102(7) 0.5538(11) 0.5301(8)
N9D N 0.6273(6) 0.594(1) 0.4816(7)
N10D N 0.6122(8) 0.6929(12) 0.2941(9)
N11D N 0.4202(6) 0.5373(9) 0.3581(7)
N12D N 0.2011(8) 0.5226(12) 0.1596(8)
C13D C 0.5228(11) 0.6353(17) 0.3032(12)
H9D H 0.48940 0.62750 0.28560
C14D C 0.5615(8) 0.6785(12) 0.2732(9)
H10D H 0.55290 0.70000 0.23540
C15D C 0.6205(10) 0.6625(15) 0.350(1)
H11D H 0.65370 0.67090 0.36790
C16D C 0.5808(7) 0.6186(11) 0.3821(8)
C17D C 0.5864(8) 0.5911(12) 0.4434(8)
C18D C 0.3739(8) 0.5774(13) 0.3702(9)
H12D H 0.37280 0.61100 0.40470
C19D C 0.3292(9) 0.5736(14) 0.3372(10)
H13D H 0.29790 0.60060 0.34970
C20D C 0.3314(7) 0.5267(11) 0.2822(8)
C21D C 0.3797(8) 0.4820(13) 0.2716(9)
H14D H 0.38220 0.44650 0.23820
C22D C 0.4225(8) 0.4892(13) 0.3086(9)
H15D H 0.45390 0.46020 0.29940
C23D C 0.2869(7) 0.5227(11) 0.2384(8)
C24D C 0.2348(9) 0.5140(15) 0.2609(11)
H16D H 0.22800 0.50730 0.30170
C25D C 0.194(1) 0.5160(15) 0.2186(11)
H17D H 0.15900 0.51240 0.23260
C26D C 0.2535(8) 0.5279(12) 0.1402(9)
H18D H 0.25970 0.53150 0.09900
C27D C 0.2962(8) 0.5282(12) 0.1774(8)
H19D H 0.33090 0.53200 0.16240
#END
