
#######################################################################
#
#                 Cambridge Crystallographic Data Centre
#                                CCDC
#
#######################################################################
#
# If this CIF has been generated from an entry in the Cambridge
# Structural Database, then it will include bibliographic, chemical,
# crystal, experimental, refinement or atomic coordinate data resulting
# from the CCDC's data processing and validation procedures.
#
#######################################################################

data_CSD_CIF_SOGWIV
_audit_creation_date 2009-03-18
_audit_creation_method CSD-ConQuest-V1
_database_code_CSD SOGWIV
_database_code_depnum_ccdc_archive 'CCDC 648461'
_chemical_formula_sum 'C12 H32 Cd2 O26'
_chemical_formula_moiety
;
(H2 O1)2n,n(C8 H4 Cd2 O18 4-),4n(H3 O1 1+),2n(C2 H6 O1)
;
_journal_coden_Cambridge 1295
_journal_volume 11
_journal_year 2008
_journal_page_first 951
_journal_name_full 'Inorg.Chem.Commun. '
loop_
_publ_author_name
"Rui-Qin Zhong"
"Ru-Qiang Zou"
"D.S.Pandey"
"T.Kiyobayashi"
"Qiang Xu"
_chemical_name_systematic
;
catena-(tetrakis(\m~2~-Oxalato)-diaqua-di-cadmium tetrakis(oxonium) 
bis(ethanol) dihydrate clathrate)
;
_cell_volume   1372.507
_exptl_crystal_colour 'colorless'
_exptl_crystal_density_diffrn 1.977
_exptl_crystal_description 'block'
_diffrn_ambient_temperature 183
#These two values have been output from a single CSD field.
_refine_ls_R_factor_gt 0.0365
_refine_ls_wR_factor_gt 0.0365
_symmetry_cell_setting monoclinic
_symmetry_space_group_name_H-M 'P 21/n'
_symmetry_Int_Tables_number 14
loop_
_symmetry_equiv_pos_site_id
_symmetry_equiv_pos_as_xyz
1 x,y,z
2 1/2-x,1/2+y,1/2-z
3 -x,-y,-z
4 -1/2+x,-1/2-y,-1/2+z
_cell_length_a 9.6172(5)
_cell_length_b 11.7826(6)
_cell_length_c 12.2734(6)
_cell_angle_alpha 90
_cell_angle_beta 99.295(1)
_cell_angle_gamma 90
_cell_formula_units_Z 2
loop_
_atom_type_symbol
_atom_type_radius_bond
C 0.68
H 0.23
Cd 1.76
O 0.71
loop_
_atom_site_label
_atom_site_type_symbol
_atom_site_fract_x
_atom_site_fract_y
_atom_site_fract_z
C1 C 0.2003(6) 0.2515(5) 0.7824(5)
C2 C 0.2996(6) 0.2087(5) 0.7047(5)
C3 C 0.5058(6) -0.0656(5) 1.0012(5)
C4 C -0.0632(7) -0.0007(5) 0.9529(5)
O1 O 0.3131(5) 0.1035(4) 0.6966(4)
O2 O 0.3611(5) 0.2828(4) 0.6564(4)
O3 O 0.1943(5) 0.3562(4) 0.7969(4)
O4 O 0.1319(5) 0.1790(4) 0.8262(3)
O5 O -0.0355(5) -0.0159(4) 0.8572(4)
O6 O -0.1828(5) 0.0130(4) 0.9769(4)
O7 O 0.4187(5) -0.1188(4) 0.9327(4)
O8 O 0.6002(5) -0.1077(4) 1.0688(4)
O9 O 0.0433(5) -0.0251(4) 0.6520(4)
H1 H 0.05400 -0.06800 0.60040
H2 H 0.00700 0.03500 0.62610
Cd1 Cd 0.21337(3) -0.01752(3) 0.82941(2)
C5 C 0.3499(10) 0.1264(11) 0.2410(8)
H3 H 0.37340 0.04740 0.22670
H4 H 0.43230 0.16380 0.28350
H5 H 0.32240 0.16620 0.17070
C6 C 0.2315(6) 0.1290(6) 0.3048(5)
O10 O 0.1938(12) 0.2497(10) 0.3275(9)
H6 H 0.12660 0.25020 0.36360
O11 O 0.9194(7) 0.1582(5) 0.5345(5)
H7 H 0.91270 0.10990 0.48470
H8 H 0.95330 0.21700 0.51290
O12 O 0.9135(8) 0.7191(5) 0.9692(5)
H9 H 0.99440 0.69470 0.99410
H10 H 0.89580 0.76340 1.01790
H11 H 0.92660 0.76390 0.91950
O13 O 0.3299(9) 0.0036(5) 0.4914(5)
H12 H 0.35410 0.03540 0.55120
H13 H 0.38570 0.02450 0.45090
H14 H 0.35510 -0.06190 0.51030
C1A C 0.2997(6) -0.2485(5) 0.7176(5)
C2A C 0.2004(6) -0.2913(5) 0.7953(5)
C3B C 0.4942(6) 0.0656(5) 0.9988(5)
C4B C 0.0632(7) 0.0007(5) 1.0471(5)
O1A O 0.1869(5) -0.3965(4) 0.8034(4)
O2A O 0.1389(5) -0.2172(4) 0.8436(4)
O2* O 0.3611(5) -0.7172(4) 0.6564(4)
O3A O 0.3057(5) -0.1438(4) 0.7031(4)
O3* O 0.1943(5) -0.6438(4) 0.7969(4)
O4A O 0.3681(5) -0.3210(4) 0.6738(3)
O5B O 0.0355(5) 0.0159(4) 1.1428(4)
O5A O 0.5355(5) -0.5159(4) 0.6428(4)
O6B O 0.1828(5) -0.0130(4) 1.0231(4)
O6C O 0.3172(5) -0.5130(4) 0.4769(4)
O7B O 0.5813(5) 0.1188(4) 1.0673(4)
O7A O 0.0813(5) -0.6188(4) 0.5673(4)
O8B O 0.3998(5) 0.1077(4) 0.9312(4)
O8C O 0.1002(5) -0.3923(4) 0.5688(4)
O9A O 0.4567(5) -0.5251(4) 0.8480(4)
H1A H 0.44600 -0.56800 0.89960
H2A H 0.49300 -0.46500 0.87390
Cd1A Cd 0.28663(3) -0.51752(3) 0.67059(2)
Cd1A* Cd 0.28663(3) 0.48248(3) 0.67059(2)
Cd1B Cd -0.21337(3) 0.01752(3) 1.17059(2)
Cd1B* Cd 0.78663(3) 0.01752(3) 1.17059(2)
#END
