
#######################################################################
#
#                 Cambridge Crystallographic Data Centre
#                                CCDC
#
#######################################################################
#
# If this CIF has been generated from an entry in the Cambridge
# Structural Database, then it will include bibliographic, chemical,
# crystal, experimental, refinement or atomic coordinate data resulting
# from the CCDC's data processing and validation procedures.
#
#######################################################################

data_CSD_CIF_SOGXEU
_audit_creation_date 2019-05-21
_audit_creation_method CSD-ConQuest-V1
_database_code_CSD SOGXEU
_database_code_depnum_ccdc_archive 'CCDC 1556298'
_chemical_formula_sum 'C66 H150 Cu4 K1 N24 O134 P5 W30'
_chemical_formula_moiety
;
(C44 H90 Cu4 N16 O120 P5 W30 1-)n,2(C11 H16 N4),K1 1+,14(H2 O1)
;
_journal_coden_Cambridge 369
_journal_volume 44
_journal_year 2019
_journal_page_first 303
_journal_name_full 'Transition Met.Chem. '
loop_
_publ_author_name
"Ai-Xiang Tian"
"Yan Yang"
"Huai-Ping Ni"
"Gui-Ying Liu"
"Yu-Bo Fu"
"Meng-Le Yang"
"Guo-Cheng Liu"
"Jun Ying"
_chemical_name_systematic
;
catena-[potassium 
pentakis(\m-phosphato)-hexakis(\m-hydroxo)-tetrakis(4,4'-methylenebis(3,5-dime
thyl-1H-pyrazole))-octapentacontakis(\m-oxo)-hexacosaoxo-deca-aqua-tetra-coppe
r-triaconta-tungsten 4,4'-methylenebis(3,5-dimethyl-1H-pyrazole) 
tetradecahydrate]
;
_cell_volume   9296.965
_exptl_crystal_colour 'green'
_exptl_crystal_description 'irregular'
_diffrn_ambient_temperature 173.2
_refine_special_details
;
C32,C33,C34,C35,C36,N11,N12 and C32A,C33A,C34A,C35A,C36A,N11A,N12A disordered 
over two sites with occupancies 0.5:0.5; Disordered water solvent molecules 
were not modelled and the disordered density was taken into account using the 
SQUEEZE/PLATON procedure.
;
#These two values have been output from a single CSD field.
_refine_ls_R_factor_gt 0.0514
_refine_ls_wR_factor_gt 0.0514
_symmetry_cell_setting monoclinic
_symmetry_space_group_name_H-M 'P 21/m'
_symmetry_Int_Tables_number 11
loop_
_symmetry_equiv_pos_site_id
_symmetry_equiv_pos_as_xyz
1 x,y,z
2 -x,1/2+y,-z
3 -x,-y,-z
4 x,-1/2-y,z
_cell_length_a 14.8817(4)
_cell_length_b 29.4062(9)
_cell_length_c 21.2835(6)
_cell_angle_alpha 90
_cell_angle_beta 93.462(1)
_cell_angle_gamma 90
_cell_formula_units_Z 2
loop_
_atom_type_symbol
_atom_type_radius_bond
C 0.68
H 0.23
Cu 1.32
K 2.03
N 0.68
O 0.68
P 1.05
W 1.62
loop_
_atom_site_label
_atom_site_type_symbol
_atom_site_fract_x
_atom_site_fract_y
_atom_site_fract_z
W1 W 0.63157(5) 0.58162(3) 0.89388(3)
O1 O 0.6399(6) 0.5467(3) 0.8174(5)
O2 O 0.5541(6) 0.6206(3) 0.8432(4)
O3 O 0.7473(6) 0.6217(3) 0.8526(5)
O4 O 0.7412(7) 0.5560(4) 0.9297(5)
O5 O 0.6382(6) 0.6303(4) 0.9562(5)
O6 O 0.5535(7) 0.5484(4) 0.9287(5)
W2 W 0.63715(5) 0.54226(2) 0.72644(4)
W3 W 0.52207(4) 0.64812(2) 0.76448(3)
W4 W 0.85432(5) 0.58192(3) 0.90861(4)
P1 P 0.7496(3) 0.63807(13) 0.78341(18)
W5 W 0.62733(5) 0.68587(3) 0.99873(3)
O7 O 0.5588(6) 0.5928(3) 0.7251(4)
O8 O 0.7507(6) 0.5944(3) 0.7410(4)
O9 O 0.7498(7) 0.5085(3) 0.7323(5)
O10 O 0.6542(6) 0.5510(3) 0.6386(5)
O11 O 0.5661(7) 0.4967(4) 0.7180(5)
O12 O 0.5167(6) 0.7054(3) 0.8031(4)
O13 O 0.5216(6) 0.6783(3) 0.6863(4)
O14 O 0.6662(6) 0.6661(3) 0.7660(4)
O15 O 0.4081(6) 0.6368(3) 0.7616(4)
O16 O 0.9377(7) 0.6200(4) 0.8696(5)
O17 O 0.8526(7) 0.5451(4) 0.8313(5)
O18 O 0.8433(7) 0.6289(4) 0.9720(5)
O19 O 0.9258(7) 0.5472(4) 0.9525(5)
O20 O 0.8351(6) 0.6665(3) 0.7745(4)
O21 O 0.6315(9) 0.75000 1.0206(6)
O22 O 0.7426(6) 0.7075(3) 0.9395(4)
O23 O 0.5493(6) 0.7049(3) 0.9289(4)
O24 O 0.7370(7) 0.6756(4) 1.0502(4)
O25 O 0.5504(7) 0.6707(4) 1.0521(5)
W6 W 0.86062(5) 0.54148(2) 0.74151(4)
W7 W 0.64964(5) 0.58238(2) 0.55682(4)
W8 W 0.51491(6) 0.75000 0.86808(4)
W9 W 0.52859(4) 0.68616(2) 0.59724(3)
Cu1 Cu 0.25349(13) 0.62746(6) 0.77545(8)
W10 W 0.97872(4) 0.64591(2) 0.79369(3)
W11 W 0.85067(5) 0.68613(3) 1.01291(3)
P2 P 0.7441(4) 0.75000 0.8957(2)
O26 O 0.9416(6) 0.5923(3) 0.7520(4)
O27 O 0.8571(7) 0.5521(3) 0.6547(5)
O28 O 0.9319(7) 0.4954(3) 0.7442(5)
O29 O 0.7591(6) 0.6280(3) 0.6029(4)
O30 O 0.5696(6) 0.6245(3) 0.5892(4)
O31 O 0.6618(6) 0.6229(3) 0.4876(4)
O32 O 0.7628(7) 0.5546(3) 0.5414(5)
O33 O 0.5815(7) 0.5445(4) 0.5167(5)
O34 O 0.6605(9) 0.75000 0.8510(6)
O35 O 0.4000(9) 0.75000 0.8790(6)
O36 O 0.5720(6) 0.6970(3) 0.5164(4)
O37 O 0.6764(6) 0.6980(3) 0.6292(4)
O38 O 0.5249(9) 0.75000 0.6096(6)
O39 O 0.4176(7) 0.6764(3) 0.5756(5)
O40 O 0.2284(7) 0.6821(3) 0.7209(5)
N1 N 0.2493(8) 0.5877(4) 0.6978(6)
N2 N 0.2637(8) 0.5762(4) 0.8362(6)
O41 O 0.2746(7) 0.6712(3) 0.8508(5)
O42 O 0.0917(7) 0.6328(4) 0.8051(4)
O43 O 0.9813(6) 0.7053(3) 0.8340(5)
O44 O 0.9860(6) 0.6779(3) 0.7159(4)
O45 O 0.8447(9) 0.75000 1.0383(7)
O46 O 0.9334(6) 0.7053(3) 0.9550(4)
O47 O 0.9197(7) 0.6707(4) 1.0778(5)
O48 O 0.8312(9) 0.75000 0.8614(6)
W12 W 0.87388(5) 0.58214(2) 0.57295(4)
P3 P 0.7614(3) 0.68091(13) 0.60175(17)
W13 W 0.65624(5) 0.68541(3) 0.45485(3)
N3 N 0.3190(9) 0.5919(4) 0.6602(6)
C1 C 0.2039(11) 0.5516(5) 0.6805(7)
N4 N 0.2146(10) 0.5783(5) 0.8884(6)
C2 C 0.3205(10) 0.5408(5) 0.8456(7)
W14 W 0.97308(6) 0.75000 0.89627(4)
W15 W 0.99101(4) 0.68597(2) 0.62849(3)
O49 O 0.8714(7) 0.6236(3) 0.5002(5)
O50 O 0.9523(6) 0.6244(3) 0.6149(4)
O51 O 0.9435(8) 0.5410(4) 0.5444(5)
O52 O 0.7650(6) 0.6959(3) 0.5324(4)
O53 O 0.8445(6) 0.6985(3) 0.6405(4)
O54 O 0.7725(7) 0.6774(3) 0.4184(4)
O55 O 0.6677(9) 0.75000 0.4428(6)
O56 O 0.5863(7) 0.6753(3) 0.3891(4)
C3 C 0.3182(11) 0.5562(5) 0.6203(7)
C4 C 0.2444(10) 0.5306(5) 0.6308(7)
C5 C 0.1222(11) 0.5374(5) 0.7093(8)
C6 C 0.2401(12) 0.5451(6) 0.9286(8)
C7 C 0.3076(11) 0.5217(5) 0.9014(7)
C8 C 0.3862(11) 0.5291(5) 0.7976(7)
O57 O 1.0839(10) 0.75000 0.9252(7)
O58 O 0.9592(6) 0.6960(3) 0.5409(4)
O59 O 0.9985(9) 0.75000 0.6402(6)
O60 O 1.1049(6) 0.6755(4) 0.6241(4)
W16 W 0.88134(4) 0.68499(3) 0.46919(3)
C9 C 0.3898(13) 0.5505(6) 0.5754(9)
C10 C 0.2130(12) 0.4880(5) 0.5964(7)
H1 H 0.13400 0.50930 0.73320
H2 H 0.07440 0.53200 0.67650
H3 H 0.10330 0.56130 0.73780
C11 C 0.1946(18) 0.5400(8) 0.9909(10)
C12 C 0.3570(11) 0.4817(5) 0.9339(7)
H4 H 0.43330 0.50930 0.81670
H5 H 0.41350 0.55700 0.78240
H6 H 0.35480 0.51330 0.76220
O61 O 0.8743(9) 0.75000 0.4564(6)
O62 O 0.9573(7) 0.6748(4) 0.4129(5)
H7 H 0.39150 0.57730 0.54820
H8 H 0.37720 0.52340 0.54940
H9 H 0.44810 0.54690 0.59880
H10 H 0.15370 0.49420 0.57440
H11 H 0.25580 0.48100 0.56390
C13 C 0.2043(11) 0.4465(5) 0.6370(7)
H12 H 0.21440 0.56470 1.01950
H13 H 0.21130 0.51070 1.01010
H14 H 0.12910 0.54140 0.98300
C14 C 0.3739(12) 0.4432(5) 0.8915(7)
H15 H 0.41540 0.49260 0.95290
H16 H 0.32100 0.47060 0.96840
C15 C 0.2726(12) 0.4224(6) 0.6710(8)
C16 C 0.1290(12) 0.4248(6) 0.6512(8)
C17 C 0.4558(14) 0.4227(6) 0.8744(8)
C18 C 0.3045(13) 0.4158(6) 0.8558(8)
N5 N 0.2397(10) 0.3898(5) 0.7055(6)
C19 C 0.3749(11) 0.4311(6) 0.6697(9)
N6 N 0.1484(10) 0.3905(5) 0.6935(7)
C20 C 0.0306(11) 0.4343(6) 0.6297(8)
N7 N 0.4429(13) 0.3910(6) 0.8329(8)
C21 C 0.5511(14) 0.4374(7) 0.8967(10)
N8 N 0.3507(13) 0.3838(5) 0.8238(7)
C22 C 0.2046(13) 0.4195(7) 0.8579(9)
Cu2 Cu 0.2916(2) 0.34113(8) 0.76197(11)
H17 H 0.40680 0.41300 0.70270
H18 H 0.38730 0.46340 0.67710
H19 H 0.39540 0.42230 0.62850
H20 H -0.00610 0.40750 0.63760
H21 H 0.02650 0.44130 0.58460
H22 H 0.00860 0.46030 0.65330
H23 H 0.58930 0.41040 0.90290
H24 H 0.54920 0.45390 0.93660
H25 H 0.57590 0.45720 0.86500
H26 H 0.18130 0.44020 0.82470
H27 H 0.18950 0.43130 0.89900
H28 H 0.17740 0.38940 0.85140
O63 O 0.2288(11) 0.2954(4) 0.7032(6)
O64 O 0.2541(12) 0.2937(5) 0.8288(6)
O65 O 0.4164(14) 0.3062(6) 0.7506(9)
K1 K 0.8619(6) 0.75000 0.7404(4)
K2 K 0.6466(6) 0.75000 0.7258(4)
C23 C 0.2582(15) 0.6088(7) 0.4431(9)
C24 C 0.1904(16) 0.5835(7) 0.4659(10)
N9 N 0.2049(16) 0.5396(6) 0.4444(9)
H29 H 0.17030 0.51610 0.45170
N10 N 0.2793(17) 0.5376(6) 0.4111(10)
C25 C 0.3177(19) 0.5792(7) 0.4103(12)
C26 C 0.4002(19) 0.5841(9) 0.3809(14)
H30 H 0.38730 0.59970 0.34070
H31 H 0.42240 0.55330 0.37310
H32 H 0.44600 0.60110 0.40630
C27 C 0.1174(14) 0.5957(8) 0.5091(10)
H33 H 0.14090 0.61750 0.54070
H34 H 0.09720 0.56820 0.53010
H35 H 0.06650 0.60930 0.48440
C28 C 0.2770(14) 0.6586(6) 0.4516(9)
H36 H 0.23020 0.67180 0.47710
H37 H 0.33570 0.66210 0.47560
C29 C 0.151(2) 0.6485(13) 0.322(2)
H38 H 0.16000 0.61920 0.34370
H39 H 0.14840 0.64380 0.27670
H40 H 0.09530 0.66240 0.33460
C30 C 0.2237(16) 0.6772(8) 0.3396(13)
C31 C 0.2795(19) 0.6834(8) 0.3954(10)
C32 C 0.3401(15) 0.7196(8) 0.3848(10)
N11 N 0.3217(15) 0.7356(7) 0.3224(11)
H41 H 0.34990 0.75790 0.30430
N12 N 0.2497(16) 0.7094(9) 0.2945(8)
C33 C 0.409(2) 0.7351(12) 0.4316(16)
H42 H 0.38170 0.75450 0.46250
H43 H 0.45510 0.75240 0.41060
H44 H 0.43730 0.70870 0.45300
H45? H 0.32710 0.66670 0.42510
H46? H 0.29830 0.66370 0.49600
C34? C 0.143(4) 0.675(2) 0.308(3)
H47? H 0.18380 0.64900 0.30900
H48? H 0.16040 0.69700 0.27650
H49? H 0.08110 0.66450 0.29730
N13? N 0.1051(18) 0.753(1) 0.4492(16)
C35? C 0.172(2) 0.7248(13) 0.4795(12)
C36? C 0.1978(19) 0.6918(9) 0.4354(19)
C37? C 0.147(2) 0.6995(10) 0.3778(14)
N14? N 0.0894(17) 0.7373(11) 0.3864(14)
H50? H 0.05100 0.74900 0.35770
C38? C 0.210(3) 0.7368(18) 0.5451(16)
H51? H 0.21920 0.70890 0.56970
H52? H 0.16680 0.75650 0.56550
H53? H 0.26690 0.75290 0.54240
W5C W 0.62733(5) 0.81413(3) 0.99873(3)
O23C O 0.5493(6) 0.7951(3) 0.9289(4)
O12C O 0.5167(6) 0.7946(3) 0.8031(4)
O42* O 1.0917(7) 0.6328(4) 0.8051(4)
O22C O 0.7426(6) 0.7925(3) 0.9395(4)
O24C O 0.7370(7) 0.8244(4) 1.0502(4)
O25C O 0.5504(7) 0.8293(4) 1.0521(5)
O5C O 0.6382(6) 0.8697(4) 0.9562(5)
W3C W 0.52207(4) 0.85188(2) 0.76448(3)
W9C W 0.52859(4) 0.81384(2) 0.59724(3)
Cu1* Cu 1.25349(13) 0.62746(6) 0.77545(8)
W11C W 0.85067(5) 0.81387(3) 1.01291(3)
W1C W 0.63157(5) 0.91838(3) 0.89388(3)
O7C O 0.5588(6) 0.9072(3) 0.7251(4)
O2C O 0.5541(6) 0.8794(3) 0.8432(4)
O13C O 0.5216(6) 0.8217(3) 0.6863(4)
O14C O 0.6662(6) 0.8339(3) 0.7660(4)
O15C O 0.4081(6) 0.8632(3) 0.7616(4)
O30C O 0.5696(6) 0.8755(3) 0.5892(4)
O36C O 0.5720(6) 0.8030(3) 0.5164(4)
O37C O 0.6764(6) 0.8020(3) 0.6292(4)
O39C O 0.4176(7) 0.8236(3) 0.5756(5)
O46C O 0.9334(6) 0.7947(3) 0.9550(4)
O43C O 0.9813(6) 0.7947(3) 0.8340(5)
O47C O 0.9197(7) 0.8293(4) 1.0778(5)
O18C O 0.8433(7) 0.8711(4) 0.9720(5)
O1C O 0.6399(6) 0.9533(3) 0.8174(5)
O3C O 0.7473(6) 0.8783(3) 0.8526(5)
O4C O 0.7412(7) 0.9440(4) 0.9297(5)
O6C O 0.5535(7) 0.9516(4) 0.9287(5)
W13C W 0.65624(5) 0.81459(3) 0.45485(3)
W2C W 0.63715(5) 0.95774(2) 0.72644(4)
P1C P 0.7496(3) 0.86193(13) 0.78341(18)
Cu1C Cu 0.25349(13) 0.87254(6) 0.77545(8)
W7C W 0.64964(5) 0.91762(2) 0.55682(4)
P3C P 0.7614(3) 0.81909(13) 0.60175(17)
W10C W 0.97872(4) 0.85409(2) 0.79369(3)
W15C W 0.99101(4) 0.81403(2) 0.62849(3)
W4C W 0.85432(5) 0.91808(3) 0.90861(4)
O31C O 0.6618(6) 0.8771(3) 0.4876(4)
O52C O 0.7650(6) 0.8041(3) 0.5324(4)
O54C O 0.7725(7) 0.8226(3) 0.4184(4)
O56C O 0.5863(7) 0.8247(3) 0.3891(4)
O8C O 0.7507(6) 0.9056(3) 0.7410(4)
O9C O 0.7498(7) 0.9915(3) 0.7323(5)
O10C O 0.6542(6) 0.9490(3) 0.6386(5)
O11C O 0.5661(7) 1.0033(4) 0.7180(5)
O20C O 0.8351(6) 0.8335(3) 0.7745(4)
O40C O 0.2284(7) 0.8179(3) 0.7209(5)
N1C N 0.2493(8) 0.9123(4) 0.6978(6)
N2C N 0.2637(8) 0.9238(4) 0.8362(6)
O41C O 0.2746(7) 0.8288(3) 0.8508(5)
O42C O 0.0917(7) 0.8672(4) 0.8051(4)
O29C O 0.7591(6) 0.8720(3) 0.6029(4)
O32C O 0.7628(7) 0.9454(3) 0.5414(5)
O33C O 0.5815(7) 0.9555(4) 0.5167(5)
O53C O 0.8445(6) 0.8015(3) 0.6405(4)
O16C O 0.9377(7) 0.8800(4) 0.8696(5)
O26C O 0.9416(6) 0.9077(3) 0.7520(4)
O44C O 0.9860(6) 0.8221(3) 0.7159(4)
O42C* O 1.0917(7) 0.8672(4) 0.8051(4)
O58C O 0.9592(6) 0.8040(3) 0.5409(4)
O50C O 0.9523(6) 0.8756(3) 0.6149(4)
O60C O 1.1049(6) 0.8245(4) 0.6241(4)
O17C O 0.8526(7) 0.9549(4) 0.8313(5)
O19C O 0.9258(7) 0.9528(4) 0.9525(5)
W16C W 0.88134(4) 0.81501(3) 0.46919(3)
W6C W 0.86062(5) 0.95852(2) 0.74151(4)
N3C N 0.3190(9) 0.9081(4) 0.6602(6)
C1C C 0.2039(11) 0.9484(5) 0.6805(7)
N4C N 0.2146(10) 0.9217(5) 0.8884(6)
C2C C 0.3205(10) 0.9592(5) 0.8456(7)
W12C W 0.87388(5) 0.91786(2) 0.57295(4)
Cu1C* Cu 1.25349(13) 0.87254(6) 0.77545(8)
O49C O 0.8714(7) 0.8764(3) 0.5002(5)
O62C O 0.9573(7) 0.8252(4) 0.4129(5)
O27C O 0.8571(7) 0.9479(3) 0.6547(5)
O28C O 0.9319(7) 1.0046(3) 0.7442(5)
C3C C 0.3182(11) 0.9438(5) 0.6203(7)
C4C C 0.2444(10) 0.9694(5) 0.6308(7)
C5C C 0.1222(11) 0.9626(5) 0.7093(8)
C6C C 0.2401(12) 0.9549(6) 0.9286(8)
C7C C 0.3076(11) 0.9783(5) 0.9014(7)
C8C C 0.3862(11) 0.9709(5) 0.7976(7)
O51C O 0.9435(8) 0.9590(4) 0.5444(5)
C9C C 0.3898(13) 0.9495(6) 0.5754(9)
C10C C 0.2130(12) 1.0120(5) 0.5964(7)
H1C H 0.13400 0.99070 0.73320
H2C H 0.07440 0.96800 0.67650
H3C H 0.10330 0.93870 0.73780
C11C C 0.1946(18) 0.9600(8) 0.9909(10)
C12C C 0.3570(11) 1.0183(5) 0.9339(7)
H4C H 0.43330 0.99070 0.81670
H5C H 0.41350 0.94300 0.78240
H6C H 0.35480 0.98670 0.76220
H7C H 0.39150 0.92270 0.54820
H8C H 0.37720 0.97660 0.54940
H9C H 0.44810 0.95310 0.59880
H10C H 0.15370 1.00580 0.57440
H11C H 0.25580 1.01900 0.56390
C13C C 0.2043(11) 1.0535(5) 0.6370(7)
H12C H 0.21440 0.93530 1.01950
H13C H 0.21130 0.98930 1.01010
H14C H 0.12910 0.95860 0.98300
C14C C 0.3739(12) 1.0568(5) 0.8915(7)
H15C H 0.41540 1.00740 0.95290
H16C H 0.32100 1.02940 0.96840
C15C C 0.2726(12) 1.0776(6) 0.6710(8)
C16C C 0.1290(12) 1.0752(6) 0.6512(8)
C17C C 0.4558(14) 1.0773(6) 0.8744(8)
C18C C 0.3045(13) 1.0842(6) 0.8558(8)
N5C N 0.2397(10) 1.1102(5) 0.7055(6)
C19C C 0.3749(11) 1.0689(6) 0.6697(9)
N6C N 0.1484(10) 1.1095(5) 0.6935(7)
C20C C 0.0306(11) 1.0657(6) 0.6297(8)
N7C N 0.4429(13) 1.1090(6) 0.8329(8)
C21C C 0.5511(14) 1.0626(7) 0.8967(10)
N8C N 0.3507(13) 1.1162(5) 0.8238(7)
C22C C 0.2046(13) 1.0805(7) 0.8579(9)
Cu2C Cu 0.2916(2) 1.15887(8) 0.76197(11)
H17C H 0.40680 1.08700 0.70270
H18C H 0.38730 1.03660 0.67710
H19C H 0.39540 1.07770 0.62850
H20C H -0.00610 1.09250 0.63760
H21C H 0.02650 1.05870 0.58460
H22C H 0.00860 1.03970 0.65330
H23C H 0.58930 1.08960 0.90290
H24C H 0.54920 1.04610 0.93660
H25C H 0.57590 1.04280 0.86500
H26C H 0.18130 1.05980 0.82470
H27C H 0.18950 1.06870 0.89900
H28C H 0.17740 1.11060 0.85140
O63C O 0.2288(11) 1.2046(4) 0.7032(6)
O64C O 0.2541(12) 1.2063(5) 0.8288(6)
O65C O 0.4164(14) 1.1938(6) 0.7506(9)
C23C C 0.2582(15) 0.8912(7) 0.4431(9)
C24C C 0.1904(16) 0.9165(7) 0.4659(10)
N9C N 0.2049(16) 0.9604(6) 0.4444(9)
H29C H 0.17030 0.98390 0.45170
N10C N 0.2793(17) 0.9624(6) 0.4111(10)
C25C C 0.3177(19) 0.9208(7) 0.4103(12)
C26C C 0.4002(19) 0.9159(9) 0.3809(14)
H30C H 0.38730 0.90030 0.34070
H31C H 0.42240 0.94670 0.37310
H32C H 0.44600 0.89890 0.40630
C27C C 0.1174(14) 0.9043(8) 0.5091(10)
H33C H 0.14090 0.88250 0.54070
H34C H 0.09720 0.93180 0.53010
H35C H 0.06650 0.89070 0.48440
C28C C 0.2770(14) 0.8414(6) 0.4516(9)
H36C H 0.23020 0.82820 0.47710
H37C H 0.33570 0.83790 0.47560
C29C C 0.151(2) 0.8515(13) 0.322(2)
H38C H 0.16000 0.88080 0.34370
H39C H 0.14840 0.85620 0.27670
H40C H 0.09530 0.83760 0.33460
C30C C 0.2237(16) 0.8228(8) 0.3396(13)
C31C C 0.2795(19) 0.8166(8) 0.3954(10)
C32C C 0.3401(15) 0.7804(8) 0.3848(10)
N11C N 0.3217(15) 0.7644(7) 0.3224(11)
H41C H 0.34990 0.74210 0.30430
N12C N 0.2497(16) 0.7906(9) 0.2945(8)
C33C C 0.409(2) 0.7649(12) 0.4316(16)
H42C H 0.38170 0.74550 0.46250
H43C H 0.45510 0.74760 0.41060
H44C H 0.43730 0.79130 0.45300
#END
