
#######################################################################
#
#                 Cambridge Crystallographic Data Centre
#                                CCDC
#
#######################################################################
#
# If this CIF has been generated from an entry in the Cambridge
# Structural Database, then it will include bibliographic, chemical,
# crystal, experimental, refinement or atomic coordinate data resulting
# from the CCDC's data processing and validation procedures.
#
#######################################################################

data_CSD_CIF_SOJKOT01
_audit_creation_date 2013-12-21
_audit_creation_method CSD-ConQuest-V1
_database_code_CSD SOJKOT01
_database_code_depnum_ccdc_archive 'CCDC 958460'
_chemical_formula_sum 'C3 H8 Co1 N2 O6'
_chemical_formula_moiety
;
(C3 H3 Co1 O6 1-)n,n(H5 N2 1+)
;
_journal_coden_Cambridge 1747
_journal_volume 1
_journal_year 2014
_journal_page_first 83
_journal_name_full 'Inorg.Chem.Front. '
loop_
_publ_author_name
"Sa Chen"
"Ran Shang"
"Ke-Li Hu"
"Zhe-Ming Wang"
"Song Gao"
_chemical_name_systematic
;
catena-(Hydrazinium tris(\m~2~-formato-O,O')-cobalt)
;
_cell_volume    802.370
_exptl_crystal_colour 'violet'
_exptl_crystal_density_diffrn 1.88
_exptl_special_details
;
P212121 polymorph

;
_exptl_crystal_description 'block'
_diffrn_ambient_temperature 110
#These two values have been output from a single CSD field.
_refine_ls_R_factor_gt 0.0244
_refine_ls_wR_factor_gt 0.0244
_symmetry_cell_setting orthorhombic
_symmetry_space_group_name_H-M 'P 21 21 21'
_symmetry_Int_Tables_number 19
loop_
_symmetry_equiv_pos_site_id
_symmetry_equiv_pos_as_xyz
1 x,y,z
2 1/2-x,-y,1/2+z
3 -x,1/2+y,1/2-z
4 1/2+x,1/2-y,-z
_cell_length_a 7.9435(2)
_cell_length_b 13.8339(4)
_cell_length_c 7.3016(2)
_cell_angle_alpha 90
_cell_angle_beta 90
_cell_angle_gamma 90
_cell_formula_units_Z 4
loop_
_atom_type_symbol
_atom_type_radius_bond
C 0.68
H 0.23
Co 1.26
N 0.68
O 0.68
loop_
_atom_site_label
_atom_site_type_symbol
_atom_site_fract_x
_atom_site_fract_y
_atom_site_fract_z
Co1 Co 0.21919(3) 0.335406(18) 0.75969(3)
O1 O 0.10451(18) 0.22848(10) 0.60839(19)
O2 O -0.07429(17) 0.16384(10) 0.41139(17)
O3 O 0.30674(17) 0.21147(10) 0.90291(18)
O4 O 0.50341(17) 0.14450(9) 1.07831(18)
O5 O 0.11168(19) 0.45314(10) 0.61960(18)
O6 O 0.13201(17) 0.57273(10) 0.41822(18)
C1 C -0.0156(2) 0.23405(15) 0.4987(3)
H1 H -0.06580 0.29560 0.48020
C2 C 0.4428(3) 0.21412(15) 0.9910(3)
H2 H 0.50380 0.27320 0.99120
C3 C 0.1941(3) 0.50501(13) 0.5094(2)
H3 H 0.31070 0.49180 0.49470
N1 N 0.18208(19) 0.03644(12) 0.7343(2)
H4 H 0.07270 0.02620 0.76590
H5 H 0.19240 0.03440 0.61030
H6 H 0.21540 0.09540 0.77590
N2 N 0.2874(2) -0.03841(13) 0.8159(2)
H7 H 0.3944(10) -0.0305(10) 0.778(3)
H8 H 0.2471(18) -0.0964(6) 0.769(2)
Co1A Co 0.28081(3) 0.664594(18) 0.25969(3)
Co1C Co -0.28081(3) 0.164594(18) 0.24031(3)
Co1C* Co 0.71919(3) 0.164594(18) 1.24031(3)
O2C O 0.42571(17) 0.33616(10) 0.58861(17)
O4C O 0.00341(17) 0.35550(9) 0.92169(18)
O6A O 0.36799(17) 0.42727(10) 0.91822(18)
#END
