
#######################################################################
#
#                 Cambridge Crystallographic Data Centre
#                                CCDC
#
#######################################################################
#
# If this CIF has been generated from an entry in the Cambridge
# Structural Database, then it will include bibliographic, chemical,
# crystal, experimental, refinement or atomic coordinate data resulting
# from the CCDC's data processing and validation procedures.
#
#######################################################################

data_CSD_CIF_SOJKOT07
_audit_creation_date 2017-09-14
_audit_creation_method CSD-ConQuest-V1
_database_code_CSD SOJKOT07
_database_code_depnum_ccdc_archive 'CCDC 1565712'
_chemical_formula_sum 'C3 H8 Co1 N2 O6'
_chemical_formula_moiety
;
(C3 H3 Co1 O6 1-)n,H5 N2 1+
;
_journal_coden_Cambridge 222
_journal_volume 46
_journal_year 2017
_journal_page_first 13342
_journal_name_full 'Dalton Trans. '
loop_
_publ_author_name
"W.D.C.B.Gunatilleke"
"Kaya Wei"
"Zheng Niu"
"L.Wojtas"
"G.Nolas"
"Shengqian Ma"
_chemical_name_systematic
;
catena-[hydrazinium tris(\m-formato)-cobalt(ii)]
;
_cell_volume    782.056
_exptl_crystal_colour 'pink'
_exptl_crystal_density_diffrn 1.928
_exptl_crystal_description 'block'
_diffrn_ambient_temperature 353
_refine_special_details
;
N7,N8 disordered by symmetry over two configurations with occupancy 0.5.

;
#These two values have been output from a single CSD field.
_refine_ls_R_factor_gt 0.0278
_refine_ls_wR_factor_gt 0.0278
_symmetry_cell_setting orthorhombic
_symmetry_space_group_name_H-M 'P n m a'
_symmetry_Int_Tables_number 62
loop_
_symmetry_equiv_pos_site_id
_symmetry_equiv_pos_as_xyz
1 x,y,z
2 1/2-x,-y,1/2+z
3 -x,1/2+y,-z
4 1/2+x,1/2-y,1/2-z
5 -x,-y,-z
6 -1/2+x,y,-1/2-z
7 x,-1/2-y,z
8 -1/2-x,-1/2+y,-1/2+z
_cell_length_a 8.5725(2)
_cell_length_b 11.6308(3)
_cell_length_c 7.8437(2)
_cell_angle_alpha 90
_cell_angle_beta 90
_cell_angle_gamma 90
_cell_formula_units_Z 4
loop_
_atom_type_symbol
_atom_type_radius_bond
C 0.68
H 0.23
Co 1.26
N 0.68
O 0.68
loop_
_atom_site_label
_atom_site_type_symbol
_atom_site_fract_x
_atom_site_fract_y
_atom_site_fract_z
Co1 Co 0.50000 0.50000 0.50000
O1 O 0.40427(16) 0.56764(12) 0.27461(17)
O2 O 0.53164(17) 0.34463(11) 0.36727(17)
O3 O 0.21719(16) 0.56512(12) 0.08168(17)
C1 C 0.5232(3) 0.25000 0.4405(4)
H1 H 0.50958 0.25000 0.55816
C2 C 0.2801(3) 0.53124(19) 0.2150(2)
H2 H 0.22944 0.47343 0.27538
N1 N 0.4329(5) 0.761(3) -0.0135(4)
H3 H 0.42657 0.78621 -0.12065
H4 H 0.41264 0.81923 0.05741
H5 H 0.36383 0.70535 0.00286
N2 N 0.5853(7) 0.7191(6) 0.0180(7)
H6 H 0.588(5) 0.685(5) 0.124(4)
H7 H 0.614(6) 0.666(4) -0.062(4)
O2F O 0.53164(17) 0.15537(11) 0.36727(17)
O1D O 0.59573(16) 0.43236(12) 0.72539(17)
O3D O 0.78281(16) 0.43488(12) 0.91832(17)
C2D C 0.7199(3) 0.46876(19) 0.7850(2)
H2D H 0.77056 0.52657 0.72462
Co1A Co 0.00000 0.50000 0.00000
Co1A* Co 1.00000 0.50000 1.00000
Co1B Co 0.50000 0.00000 0.50000
O2D O 0.46836(17) 0.65537(11) 0.63273(17)
O3A O 0.28281(16) 0.43488(12) 0.58168(17)
O3E O 0.71719(16) 0.56512(12) 0.41832(17)
N1F N 0.4329(5) 0.739(3) -0.0135(4)
H3F H 0.42657 0.71379 -0.12065
H4F H 0.41264 0.68077 0.05741
H5F H 0.36383 0.79465 0.00286
N2F N 0.5853(7) 0.7809(6) 0.0180(7)
H6F H 0.588(5) 0.815(5) 0.124(4)
H7F H 0.614(6) 0.834(4) -0.062(4)
#END
