
#######################################################################
#
#                 Cambridge Crystallographic Data Centre
#                                CCDC
#
#######################################################################
#
# If this CIF has been generated from an entry in the Cambridge
# Structural Database, then it will include bibliographic, chemical,
# crystal, experimental, refinement or atomic coordinate data resulting
# from the CCDC's data processing and validation procedures.
#
#######################################################################

data_CSD_CIF_SOJKOT04
_audit_creation_date 2013-12-21
_audit_creation_method CSD-ConQuest-V1
_database_code_CSD SOJKOT04
_database_code_depnum_ccdc_archive 'CCDC 958463'
_chemical_formula_sum 'C3 H8 Co1 N2 O6'
_chemical_formula_moiety
;
(C3 H3 Co1 O6 1-)n,n(H5 N2 1+)
;
_journal_coden_Cambridge 1747
_journal_volume 1
_journal_year 2014
_journal_page_first 83
_journal_name_full 'Inorg.Chem.Front. '
loop_
_publ_author_name
"Sa Chen"
"Ran Shang"
"Ke-Li Hu"
"Zhe-Ming Wang"
"Song Gao"
_chemical_name_systematic
;
catena-(Hydrazinium tris(\m~2~-formato-O,O')-cobalt)
;
_cell_volume    406.088
_exptl_crystal_colour 'violet'
_exptl_crystal_density_diffrn 1.857
_exptl_special_details
;
P63 polymorph

;
_exptl_crystal_description 'block'
_diffrn_ambient_temperature 405
_refine_special_details
;
N1,N2 disordered by symmetry over three configurations with occupancy 0.33.

;
#These two values have been output from a single CSD field.
_refine_ls_R_factor_gt 0.0157
_refine_ls_wR_factor_gt 0.0157
_symmetry_cell_setting hexagonal
_symmetry_space_group_name_H-M 'P 63'
_symmetry_Int_Tables_number 173
loop_
_symmetry_equiv_pos_site_id
_symmetry_equiv_pos_as_xyz
1 x,y,z
2 x-y,x,1/2+z
3 -y,x-y,z
4 -x,-y,1/2+z
5 -x+y,-x,z
6 y,-x+y,1/2+z
_cell_length_a 7.9157(3)
_cell_length_b 7.9157(3)
_cell_length_c 7.4836(3)
_cell_angle_alpha 90
_cell_angle_beta 90
_cell_angle_gamma 120
_cell_formula_units_Z 2
loop_
_atom_type_symbol
_atom_type_radius_bond
C 0.68
H 0.23
Co 1.26
N 0.68
O 0.68
loop_
_atom_site_label
_atom_site_type_symbol
_atom_site_fract_x
_atom_site_fract_y
_atom_site_fract_z
Co1 Co 0.33330 0.66670 0.26906(16)
O1 O 0.3159(2) 0.4376(2) 0.42257(17)
O2 O 0.4377(2) 0.3159(2) 0.61523(17)
C1 C 0.4471(2) 0.4472(3) 0.5185(4)
H1 H 0.56460 0.56460 0.51810
N1 N 0.088(2) 0.037(2) 0.3133(17)
H2 H 0.187(7) 0.160(3) 0.329(11)
H3 H 0.144(11) -0.033(12) 0.274(8)
H4 H 0.042(5) -0.010(15) 0.424(5)
N2 N -0.053(2) 0.025(3) 0.200(2)
H5 H -0.079(10) -0.058(12) 0.109(8)
H6 H -0.166(5) -0.008(14) 0.254(4)
O1B O 0.5624(2) 0.8783(2) 0.42257(17)
O2B O 0.6841(2) 1.1218(2) 0.61523(17)
C1B C 0.5528(2) 0.9999(3) 0.5185(4)
H1B H 0.43540 1.00000 0.51810
O1D O 0.1217(2) 0.6841(2) 0.42257(17)
O2D O -0.1218(2) 0.5623(2) 0.61523(17)
C1D C 0.0001(2) 0.5529(3) 0.5185(4)
H1D H 0.00000 0.43540 0.51810
Co1A Co -0.33340 0.33330 0.76906(16)
Co1A* Co 0.66660 0.33330 0.76906(16)
Co1A** Co 0.66660 1.33330 0.76906(16)
O2A O 0.1218(2) 0.4377(2) 0.11523(17)
O2C O 0.5623(2) 0.6841(2) 0.11523(17)
O2E O 0.3159(2) 0.8782(2) 0.11523(17)
N1B N -0.037(2) 0.051(2) 0.3133(17)
H2B H -0.160(7) 0.027(3) 0.329(11)
H3B H 0.033(11) 0.177(12) 0.274(8)
H4B H 0.010(5) 0.052(15) 0.424(5)
N2B N -0.025(2) -0.078(3) 0.200(2)
H5B H 0.058(10) -0.021(12) 0.109(8)
H6B H 0.008(5) -0.158(14) 0.254(4)
N1D N -0.051(2) -0.088(2) 0.3133(17)
H2D H -0.027(7) -0.187(3) 0.329(11)
H3D H -0.177(11) -0.144(12) 0.274(8)
H4D H -0.052(5) -0.042(15) 0.424(5)
N2D N 0.078(2) 0.053(3) 0.200(2)
H5D H 0.021(10) 0.079(12) 0.109(8)
H6D H 0.158(5) 0.166(14) 0.254(4)
#END
