
#######################################################################
#
#                 Cambridge Crystallographic Data Centre
#                                CCDC
#
#######################################################################
#
# If this CIF has been generated from an entry in the Cambridge
# Structural Database, then it will include bibliographic, chemical,
# crystal, experimental, refinement or atomic coordinate data resulting
# from the CCDC's data processing and validation procedures.
#
#######################################################################

data_CSD_CIF_SOJKOT02
_audit_creation_date 2013-12-21
_audit_creation_method CSD-ConQuest-V1
_database_code_CSD SOJKOT02
_database_code_depnum_ccdc_archive 'CCDC 958461'
_chemical_formula_sum 'C3 H8 Co1 N2 O6'
_chemical_formula_moiety
;
(C3 H3 Co1 O6 1-)n,H5 N2 1+
;
_journal_coden_Cambridge 1747
_journal_volume 1
_journal_year 2014
_journal_page_first 83
_journal_name_full 'Inorg.Chem.Front. '
loop_
_publ_author_name
"Sa Chen"
"Ran Shang"
"Ke-Li Hu"
"Zhe-Ming Wang"
"Song Gao"
_chemical_name_systematic
;
catena-(Hydrazinium tris(\m~2~-formato-O,O')-cobalt)
;
_cell_volume    803.826
_exptl_crystal_colour 'violet'
_exptl_crystal_density_diffrn 1.876
_exptl_special_details
;
P212121 polymorph

;
_exptl_crystal_description 'block'
_diffrn_ambient_temperature 200
#These two values have been output from a single CSD field.
_refine_ls_R_factor_gt 0.0263
_refine_ls_wR_factor_gt 0.0263
_symmetry_cell_setting orthorhombic
_symmetry_space_group_name_H-M 'P 21 21 21'
_symmetry_Int_Tables_number 19
loop_
_symmetry_equiv_pos_site_id
_symmetry_equiv_pos_as_xyz
1 x,y,z
2 1/2-x,-y,1/2+z
3 -x,1/2+y,1/2-z
4 1/2+x,1/2-y,-z
_cell_length_a 7.9415(2)
_cell_length_b 13.8460(5)
_cell_length_c 7.3103(2)
_cell_angle_alpha 90
_cell_angle_beta 90
_cell_angle_gamma 90
_cell_formula_units_Z 4
loop_
_atom_type_symbol
_atom_type_radius_bond
C 0.68
Co 1.26
N 0.68
O 0.68
loop_
_atom_site_label
_atom_site_type_symbol
_atom_site_fract_x
_atom_site_fract_y
_atom_site_fract_z
Co1 Co 0.22060(3) 0.335451(19) 0.75941(4)
O1 O 0.1052(2) 0.22859(11) 0.6081(2)
O2 O 0.30884(19) 0.21194(10) 0.9026(2)
O3 O 0.1121(2) 0.45290(11) 0.6190(2)
O4 O 0.42690(19) 0.33598(11) 0.5880(2)
O5 O 0.00562(18) 0.35476(10) 0.9227(2)
O6 O 0.36839(18) 0.42758(11) 0.9189(2)
C1 C -0.0141(3) 0.23363(16) 0.4984(4)
C2 C 0.4435(3) 0.21428(17) 0.9917(3)
C3 C 0.1933(3) 0.50449(15) 0.5087(3)
N1 N 0.1815(2) 0.03653(13) 0.7342(3)
N2 N 0.2878(3) -0.03641(16) 0.8169(3)
O4C O -0.07310(19) 0.16402(11) 0.4120(2)
O5C O 0.50562(18) 0.14524(10) 1.0773(2)
O6A O 0.13161(18) 0.57242(11) 0.4189(2)
Co1C Co -0.27940(3) 0.164549(19) 0.24059(4)
Co1C* Co 0.72060(3) 0.164549(19) 1.24059(4)
Co1A Co 0.27940(3) 0.664549(19) 0.25941(4)
#END
