
#######################################################################
#
#                 Cambridge Crystallographic Data Centre
#                                CCDC
#
#######################################################################
#
# If this CIF has been generated from an entry in the Cambridge
# Structural Database, then it will include bibliographic, chemical,
# crystal, experimental, refinement or atomic coordinate data resulting
# from the CCDC's data processing and validation procedures.
#
#######################################################################

data_CSD_CIF_SOJKOT03
_audit_creation_date 2013-12-21
_audit_creation_method CSD-ConQuest-V1
_database_code_CSD SOJKOT03
_database_code_depnum_ccdc_archive 'CCDC 958462'
_chemical_formula_sum 'C3 H8 Co1 N2 O6'
_chemical_formula_moiety
;
(C3 H3 Co1 O6 1-)n,H5 N2 1+
;
_journal_coden_Cambridge 1747
_journal_volume 1
_journal_year 2014
_journal_page_first 83
_journal_name_full 'Inorg.Chem.Front. '
loop_
_publ_author_name
"Sa Chen"
"Ran Shang"
"Ke-Li Hu"
"Zhe-Ming Wang"
"Song Gao"
_chemical_name_systematic
;
catena-(Hydrazinium tris(\m~2~-formato-O,O')-cobalt)
;
_cell_volume    807.291
_exptl_crystal_colour 'violet'
_exptl_crystal_density_diffrn 1.868
_exptl_special_details
;
P212121 polymorph

;
_exptl_crystal_description 'block'
_diffrn_ambient_temperature 290
#These two values have been output from a single CSD field.
_refine_ls_R_factor_gt 0.0279
_refine_ls_wR_factor_gt 0.0279
_symmetry_cell_setting orthorhombic
_symmetry_space_group_name_H-M 'P 21 21 21'
_symmetry_Int_Tables_number 19
loop_
_symmetry_equiv_pos_site_id
_symmetry_equiv_pos_as_xyz
1 x,y,z
2 1/2-x,-y,1/2+z
3 -x,1/2+y,1/2-z
4 1/2+x,1/2-y,-z
_cell_length_a 7.9341(3)
_cell_length_b 13.8697(7)
_cell_length_c 7.3361(3)
_cell_angle_alpha 90
_cell_angle_beta 90
_cell_angle_gamma 90
_cell_formula_units_Z 4
loop_
_atom_type_symbol
_atom_type_radius_bond
C 0.68
Co 1.26
N 0.68
O 0.68
loop_
_atom_site_label
_atom_site_type_symbol
_atom_site_fract_x
_atom_site_fract_y
_atom_site_fract_z
Co1 Co 0.22306(3) 0.33545(2) 0.75887(4)
O1 O 0.1072(2) 0.22871(12) 0.6083(2)
O2 O 0.3128(2) 0.21260(12) 0.9014(2)
O3 O 0.1133(2) 0.45227(13) 0.6178(2)
O4 O 0.4293(2) 0.33609(12) 0.5867(2)
O5 O 0.0084(2) 0.35374(11) 0.9229(2)
O6 O 0.3694(2) 0.42848(12) 0.9185(2)
C1 C -0.0111(3) 0.23298(18) 0.4987(4)
C2 C 0.4452(3) 0.21476(18) 0.9933(4)
C3 C 0.1917(3) 0.50414(16) 0.5073(3)
N1 N 0.1802(2) 0.03632(15) 0.7334(3)
N2 N 0.2884(3) -0.0336(2) 0.8179(3)
O4C O -0.0707(2) 0.16391(12) 0.4133(2)
O5C O 0.5084(2) 0.14626(11) 1.0771(2)
O6A O 0.1306(2) 0.57152(12) 0.4185(2)
Co1C Co -0.27694(3) 0.16455(2) 0.24113(4)
Co1C* Co 0.72306(3) 0.16455(2) 1.24113(4)
Co1A Co 0.27694(3) 0.66455(2) 0.25887(4)
#END
