
#######################################################################
#
#                 Cambridge Crystallographic Data Centre
#                                CCDC
#
#######################################################################
#
# If this CIF has been generated from an entry in the Cambridge
# Structural Database, then it will include bibliographic, chemical,
# crystal, experimental, refinement or atomic coordinate data resulting
# from the CCDC's data processing and validation procedures.
#
#######################################################################

data_CSD_CIF_SOJKOT06
_audit_creation_date 2017-09-14
_audit_creation_method CSD-ConQuest-V1
_database_code_CSD SOJKOT06
_database_code_depnum_ccdc_archive 'CCDC 1565714'
_chemical_formula_sum 'C3 H8 Co1 N2 O6'
_chemical_formula_moiety
;
(C3 H3 Co1 O6 1-)n,H5 N2 1+
;
_journal_coden_Cambridge 222
_journal_volume 46
_journal_year 2017
_journal_page_first 13342
_journal_name_full 'Dalton Trans. '
loop_
_publ_author_name
"W.D.C.B.Gunatilleke"
"Kaya Wei"
"Zheng Niu"
"L.Wojtas"
"G.Nolas"
"Shengqian Ma"
_chemical_name_systematic
;
catena-[hydrazinium tris(\m-formato)-cobalt(ii)]
;
_cell_volume    776.705
_exptl_crystal_colour 'pink'
_exptl_crystal_density_diffrn 1.942
_exptl_crystal_description 'block'
_diffrn_ambient_temperature 298.0
_diffrn_special_details
;
twin

;
#These two values have been output from a single CSD field.
_refine_ls_R_factor_gt 0.0388
_refine_ls_wR_factor_gt 0.0388
_symmetry_cell_setting orthorhombic
_symmetry_space_group_name_H-M 'P n a 21'
_symmetry_Int_Tables_number 33
loop_
_symmetry_equiv_pos_site_id
_symmetry_equiv_pos_as_xyz
1 x,y,z
2 -x,-y,1/2+z
3 1/2-x,1/2+y,1/2+z
4 1/2+x,1/2-y,z
_cell_length_a 8.6592(3)
_cell_length_b 7.7641(2)
_cell_length_c 11.5528(4)
_cell_angle_alpha 90
_cell_angle_beta 90
_cell_angle_gamma 90
_cell_formula_units_Z 4
loop_
_atom_type_symbol
_atom_type_radius_bond
C 0.68
Co 1.26
N 0.68
O 0.68
loop_
_atom_site_label
_atom_site_type_symbol
_atom_site_fract_x
_atom_site_fract_y
_atom_site_fract_z
Co1 Co 0.47612(8) 0.49995(18) 0.5066(2)
O1 O 0.3796(5) 0.7276(6) 0.4409(4)
O2 O 0.4499(6) 0.3617(8) 0.3519(4)
O3 O 0.2637(5) 0.4157(6) 0.5773(5)
O4 O 0.6910(5) 0.5805(6) 0.4435(5)
O5 O 0.5142(6) 0.6348(8) 0.6627(5)
O6 O 0.5734(5) 0.2742(6) 0.5765(5)
C1 C 0.2486(9) 0.7779(10) 0.4695(7)
C2 C 0.4729(8) 0.4386(8) 0.2570(9)
C3 C 0.1937(8) 0.2885(9) 0.5361(6)
N1 N 0.5880(12) -0.0089(11) 0.228(1)
N2 N 0.4355(10) 0.0087(8) 0.2737(8)
O4C O 0.1910(5) 0.9195(6) 0.4435(5)
O5A O 0.4858(6) 0.3652(8) 0.1627(5)
O6C O 0.0734(5) 0.2258(6) 0.5765(5)
Co1C Co -0.02388(8) 1.00005(18) 0.5066(2)
Co1A Co 0.52388(8) 0.50005(18) 0.0066(2)
Co1C* Co -0.02388(8) 0.00005(18) 0.5066(2)
#END
