
#######################################################################
#
#                 Cambridge Crystallographic Data Centre
#                                CCDC
#
#######################################################################
#
# If this CIF has been generated from an entry in the Cambridge
# Structural Database, then it will include bibliographic, chemical,
# crystal, experimental, refinement or atomic coordinate data resulting
# from the CCDC's data processing and validation procedures.
#
#######################################################################

data_CSD_CIF_SOJTOC
_audit_creation_date 2014-06-03
_audit_creation_method CSD-ConQuest-V1
_database_code_CSD SOJTOC
_database_code_depnum_ccdc_archive 'CCDC 963231'
_chemical_formula_sum 'C30 H46 K2 O20 Zn2'
_chemical_formula_moiety
;
(C30 H38 O16 Zn2 2-)n,2n(K1 1+),4n(H2 O1)
;
_journal_coden_Cambridge 1147
_journal_volume 14
_journal_year 2014
_journal_page_first 1331
_journal_name_full 'Cryst.Growth Des. '
loop_
_publ_author_name
"Mithun Paul"
"N.N.Adarsh"
"P.Dastidar"
_chemical_name_systematic
;
catena-(Di-potassium 
bis(\m~3~-2,4,6-trimethylbenzene-1,3,5-triacetato)-tetra-aqua-di-zinc 
tetrahydrate)
;
_cell_volume   4065.365
_exptl_crystal_colour 'colorless'
_exptl_crystal_density_diffrn 1.529
_exptl_crystal_description 'plate'
_diffrn_ambient_temperature 293
#These two values have been output from a single CSD field.
_refine_ls_R_factor_gt 0.0627
_refine_ls_wR_factor_gt 0.0627
_symmetry_cell_setting monoclinic
_symmetry_space_group_name_H-M 'C 2/c'
_symmetry_Int_Tables_number 15
loop_
_symmetry_equiv_pos_site_id
_symmetry_equiv_pos_as_xyz
1 x,y,z
2 -x,y,1/2-z
3 1/2+x,1/2+y,z
4 1/2-x,1/2+y,1/2-z
5 -x,-y,-z
6 x,-y,-1/2+z
7 -1/2-x,-1/2-y,-z
8 -1/2+x,-1/2-y,-1/2+z
_cell_length_a 15.437(5)
_cell_length_b 15.985(5)
_cell_length_c 16.475(6)
_cell_angle_alpha 90
_cell_angle_beta 90.145(13)
_cell_angle_gamma 90
_cell_formula_units_Z 4
loop_
_atom_type_symbol
_atom_type_radius_bond
C 0.68
H 0.23
K 2.03
O 0.68
Zn 1.22
loop_
_atom_site_label
_atom_site_type_symbol
_atom_site_fract_x
_atom_site_fract_y
_atom_site_fract_z
C1 C 0.4555(7) 0.7662(7) -0.1514(5)
H1 H 0.44030 0.71860 -0.18390
H2 H 0.51740 0.77040 -0.14760
H3 H 0.43270 0.81600 -0.17610
C2 C 0.4177(5) 0.7563(5) -0.0674(5)
C3 C 0.4419(5) 0.8104(5) -0.0039(5)
C4 C 0.5015(6) 0.8816(5) -0.0206(6)
H4 H 0.49040 0.92490 0.01940
H5 H 0.48660 0.90460 -0.07330
C5 C 0.5977(6) 0.8631(6) -0.0200(6)
C6 C 0.4429(7) 0.8495(6) 0.1418(6)
H6 H 0.49980 0.87010 0.12980
H7 H 0.44470 0.81710 0.19090
H8 H 0.40400 0.89580 0.14870
C7 C 0.4118(5) 0.7956(5) 0.0733(5)
C8 C 0.3549(5) 0.7301(5) 0.0895(4)
C9 C 0.3293(5) 0.6751(4) 0.0255(4)
C10 C 0.3616(5) 0.6898(5) -0.0516(4)
C11 C 0.2739(6) 0.6000(6) 0.0435(6)
H9 H 0.28010 0.55960 0.00080
H10 H 0.21440 0.61680 0.04730
H11 H 0.29190 0.57550 0.09410
C12 C 0.3382(6) 0.6319(5) -0.1214(5)
H12 H 0.28570 0.60170 -0.10760
H13 H 0.32610 0.66540 -0.16920
C13 C 0.4089(5) 0.5695(5) -0.1412(5)
C14 C 0.3790(5) 0.6529(5) 0.2227(4)
C15 C 0.3223(6) 0.7134(5) 0.1754(4)
H14 H 0.31960 0.76610 0.20470
H15 H 0.26400 0.69100 0.17240
O1 O 0.6224(4) 0.7918(3) 0.0020(3)
O2 O 0.6461(4) 0.9215(4) -0.0398(5)
O3 O 0.4584(4) 0.5441(3) -0.0903(3)
O4 O 0.4088(4) 0.5466(3) -0.2163(3)
O5 O 0.4315(3) 0.6087(3) 0.1825(3)
O6 O 0.7975(4) 0.8757(3) 0.0091(3)
O7 O 0.7509(4) 0.7396(4) 0.1271(3)
O8 O 0.3697(4) 0.6489(4) 0.2972(3)
Zn1 Zn 0.50000 0.46868(7) -0.25000
Zn2 Zn 0.75000 0.75000 0.00000
K1 K 0.53422(11) 0.62756(11) 0.04738(10)
O9 O 0.7809(5) 0.9049(5) 0.1796(4)
O10 O 0.1962(8) 0.5406(7) 0.2928(7)
C1A C 0.5445(7) 0.7662(7) -0.3486(5)
H1A H 0.55970 0.71860 -0.31610
H2A H 0.48260 0.77040 -0.35240
H3A H 0.56730 0.81600 -0.32390
C2A C 0.5823(5) 0.7563(5) -0.4326(5)
C3A C 0.5581(5) 0.8104(5) -0.4961(5)
C4A C 0.4985(6) 0.8816(5) -0.4794(6)
H4A H 0.50960 0.92490 -0.51940
H5A H 0.51340 0.90460 -0.42670
C5A C 0.4023(6) 0.8631(6) -0.4800(6)
C6A C 0.5571(7) 0.8495(6) -0.6418(6)
H6A H 0.50020 0.87010 -0.62980
H7A H 0.55530 0.81710 -0.69090
H8A H 0.59600 0.89580 -0.64870
C7A C 0.5882(5) 0.7956(5) -0.5733(5)
C8A C 0.6451(5) 0.7301(5) -0.5895(4)
C9A C 0.6707(5) 0.6751(4) -0.5255(4)
C10A C 0.6384(5) 0.6898(5) -0.4484(4)
C11A C 0.7261(6) 0.6000(6) -0.5435(6)
H9A H 0.71990 0.55960 -0.50080
H10A H 0.78560 0.61680 -0.54730
H11A H 0.70810 0.57550 -0.59410
C12A C 0.6618(6) 0.6319(5) -0.3786(5)
H12A H 0.71430 0.60170 -0.39240
H13A H 0.67390 0.66540 -0.33080
C13A C 0.5911(5) 0.5695(5) -0.3588(5)
C14A C 0.6210(5) 0.6529(5) -0.7227(4)
C15A C 0.6777(6) 0.7134(5) -0.6754(4)
H14A H 0.68040 0.76610 -0.70470
H15A H 0.73600 0.69100 -0.67240
O1A O 0.3776(4) 0.7918(3) -0.5020(3)
O2A O 0.3539(4) 0.9215(4) -0.4602(5)
O3A O 0.5416(4) 0.5441(3) -0.4097(3)
O4A O 0.5912(4) 0.5466(3) -0.2837(3)
O5A O 0.5685(3) 0.6087(3) -0.6825(3)
O8A O 0.6303(4) 0.6489(4) -0.7972(3)
O6F O 0.7025(4) 0.6243(3) -0.0091(3)
O7F O 0.7491(4) 0.7604(4) -0.1271(3)
O1F O 0.8776(4) 0.7082(3) -0.0020(3)
O5D O 0.5685(3) 0.3913(3) -0.1825(3)
O5E O 0.4315(3) 0.3913(3) -0.3175(3)
Zn1D Zn 0.50000 0.53132(7) -0.75000
Zn1D* Zn 0.50000 0.53132(7) 0.25000
Zn2A Zn 0.25000 0.75000 -0.50000
#END
