
#######################################################################
#
#                 Cambridge Crystallographic Data Centre
#                                CCDC
#
#######################################################################
#
# If this CIF has been generated from an entry in the Cambridge
# Structural Database, then it will include bibliographic, chemical,
# crystal, experimental, refinement or atomic coordinate data resulting
# from the CCDC's data processing and validation procedures.
#
#######################################################################

data_CSD_CIF_SOKKUZ
_audit_creation_date 2009-03-18
_audit_creation_method CSD-ConQuest-V1
_database_code_CSD SOKKUZ
_database_code_depnum_ccdc_archive 'CCDC 709881'
_chemical_formula_sum 'C17 H19 In1 N2 O9 S2'
_chemical_formula_moiety
;
(C2 H8 N1 1+)n,n(C12 H4 In1 O8 S2 1-),n(C3 H7 N1 O1)
;
_journal_coden_Cambridge 4
_journal_volume 130
_journal_year 2008
_journal_page_first 12882
_journal_name_full 'J.Am.Chem.Soc. '
loop_
_publ_author_name
"Jian Zhang"
"Shumei Chen"
"Tao Wu"
"Pingyun Feng"
"Xianhui Bu"
_chemical_name_systematic
;
catena-[Dimethylammonium 
(P)-bis(\m~2~-thiophene-2,5-dicarboxylato-O,O',O'',O''')-indium(iii) 
dimethylformamide solvate]
;
_chemical_name_common
;
ATF-1P
;
_cell_volume   2852.695
_exptl_crystal_colour 'brown'
_exptl_special_details
;
Absolute configuration
Homochiral framework produced by adding (-)-cinchonidine as a chiral catalyst
Bulk homochirality was shown by determining the structure and Flack parameter 
for 10 crystals
;
_diffrn_ambient_temperature 293
_refine_special_details
;
The authors state disordered dimethylformamide solvent is present in the 
structure. No details are given on the stoichiometry of the solvent, or how 
the disordered solvent was treated in the refinement. We calculate the 
structure contains 33% void space.
;
#These two values have been output from a single CSD field.
_refine_ls_R_factor_gt 0.0488
_refine_ls_wR_factor_gt 0.0488
loop_
_citation_database_id_CSD
_citation_special_details
SOMFAC "is a stereoisomer of this entry"
SOMFEG "is a racemate of this entry"
_symmetry_cell_setting tetragonal
_symmetry_space_group_name_H-M 'P 41 2 2'
_symmetry_Int_Tables_number 91
loop_
_symmetry_equiv_pos_site_id
_symmetry_equiv_pos_as_xyz
1 x,y,z
2 -x,-y,1/2+z
3 -y,x,1/4+z
4 y,-x,3/4+z
5 -x,y,-z
6 x,-y,1/2-z
7 y,x,3/4-z
8 -y,-x,1/4-z
_cell_length_a 13.565(5)
_cell_length_b 13.565(5)
_cell_length_c 15.503(13)
_cell_angle_alpha 90
_cell_angle_beta 90
_cell_angle_gamma 90
_cell_formula_units_Z 4
loop_
_atom_type_symbol
_atom_type_radius_bond
C 0.68
H 0.23
In 1.52
N 0.68
O 0.68
S 1.02
loop_
_atom_site_label
_atom_site_type_symbol
_atom_site_fract_x
_atom_site_fract_y
_atom_site_fract_z
C1 C 0.5587(16) 0.1947(17) 0.0604(15)
N1 N 0.50000 0.155(2) 0.00000
In1 In 0.42366(5) 0.00000 0.25000
S1 S 0.22329(17) 0.28493(17) 0.10762(14)
O1 O 0.3071(4) 0.1063(4) 0.2900(3)
O2 O 0.3520(4) 0.1139(4) 0.1556(3)
O3 O 0.0263(3) 0.4978(4) 0.1228(3)
O4 O 0.1209(4) 0.4526(4) 0.0153(4)
C2 C 0.2304(6) 0.2255(5) 0.2044(5)
C3 C 0.1668(7) 0.2635(6) 0.2625(5)
H1 H 0.15810 0.23840 0.31780
C4 C 0.1147(6) 0.3462(7) 0.2295(5)
H2 H 0.07030 0.38340 0.26150
C5 C 0.1371(6) 0.3645(6) 0.1466(5)
C6 C 0.2984(6) 0.1439(6) 0.2167(5)
C7 C 0.0932(6) 0.4430(6) 0.0903(5)
C1D C 0.4413(16) 0.1947(17) -0.0604(15)
In1C In 0.00000(5) 0.57634 0.00000
In1B In 1.00000(5) 0.42366 0.50000
S1B S 0.71507(17) 0.22329(17) 0.35762(14)
O1B O 0.8937(4) 0.3071(4) 0.5400(3)
O1E O 0.3071(4) -0.1063(4) 0.2100(3)
O2B O 0.8861(4) 0.3520(4) 0.4056(3)
O2E O 0.3520(4) -0.1139(4) 0.3444(3)
O3B O 0.5022(3) 0.0263(4) 0.3728(3)
O3G O 0.5022(3) -0.0263(4) 0.1272(3)
O4B O 0.5474(4) 0.1209(4) 0.2653(4)
O4G O 0.5474(4) -0.1209(4) 0.2347(4)
C2B C 0.7745(6) 0.2304(5) 0.4544(5)
C3B C 0.7365(7) 0.1668(6) 0.5125(5)
H1B H 0.76160 0.15810 0.56780
C4B C 0.6538(6) 0.1147(7) 0.4795(5)
H2B H 0.61660 0.07030 0.51150
C5B C 0.6355(6) 0.1371(6) 0.3966(5)
C6B C 0.8561(6) 0.2984(6) 0.4667(5)
C7B C 0.5570(6) 0.0932(6) 0.3403(5)
#END
