
#######################################################################
#
#                 Cambridge Crystallographic Data Centre
#                                CCDC
#
#######################################################################
#
# If this CIF has been generated from an entry in the Cambridge
# Structural Database, then it will include bibliographic, chemical,
# crystal, experimental, refinement or atomic coordinate data resulting
# from the CCDC's data processing and validation procedures.
#
#######################################################################

data_CSD_CIF_SOKKOT
_audit_creation_date 2009-03-18
_audit_creation_method CSD-ConQuest-V1
_database_code_CSD SOKKOT
_database_code_depnum_ccdc_archive 'CCDC 671546'
_chemical_formula_sum 'C21 H27 In1 N2 O9 S2'
_chemical_formula_moiety
;
(C4 H12 N1 1+)n,n(C12 H4 In1 O8 S2 1-),n(C5 H11 N1 O1)
;
_journal_coden_Cambridge 4
_journal_volume 130
_journal_year 2008
_journal_page_first 12882
_journal_name_full 'J.Am.Chem.Soc. '
loop_
_publ_author_name
"Jian Zhang"
"Shumei Chen"
"Tao Wu"
"Pingyun Feng"
"Xianhui Bu"
_chemical_name_systematic
;
catena-[Diethylammonium 
rac-bis(\m~2~-thiophene-2,5-dicarboxylato-O,O',O'',O''')-indium(iii) 
diethylformamide solvate]
;
_chemical_name_common
;
ATF-2
;
_cell_volume   2901.953
_exptl_crystal_colour 'colorless'
_diffrn_ambient_temperature 293
_refine_special_details
;
The authors state disordered diethylformamide solvent is present in the 
structure. No details are given on the stoichiometry of the solvent, or how 
the disordered solvent was treated in the refinement. We calculate the 
structure contains 29% void space.
;
#These two values have been output from a single CSD field.
_refine_ls_R_factor_gt 0.0597
_refine_ls_wR_factor_gt 0.0597
loop_
_citation_database_id_CSD
_citation_special_details
SOMFIK "is a stereoisomer of this entry"
_symmetry_cell_setting tetragonal
_symmetry_space_group_name_H-M 'P 43 2 2'
_symmetry_Int_Tables_number 95
loop_
_symmetry_equiv_pos_site_id
_symmetry_equiv_pos_as_xyz
1 x,y,z
2 -y,x,3/4+z
3 -x,-y,1/2+z
4 y,-x,1/4+z
5 x,-y,1/2-z
6 y,x,1/4-z
7 -x,y,-z
8 -y,-x,3/4-z
_cell_length_a 13.5065(2)
_cell_length_b 13.5065(2)
_cell_length_c 15.9076(4)
_cell_angle_alpha 90
_cell_angle_beta 90
_cell_angle_gamma 90
_cell_formula_units_Z 4
loop_
_atom_type_symbol
_atom_type_radius_bond
C 0.68
H 0.23
In 1.54
N 0.68
O 0.68
S 1.02
loop_
_atom_site_label
_atom_site_type_symbol
_atom_site_fract_x
_atom_site_fract_y
_atom_site_fract_z
In1 In 0.00000 0.58199(8) 0.50000
S1 S 0.2211(2) 0.2867(3) 0.3902(2)
O1 O 0.1211(6) 0.4561(6) 0.4836(5)
O2 O 0.0249(5) 0.5027(6) 0.3803(5)
O3 O 0.2996(7) 0.1061(7) 0.2071(5)
O4 O 0.3485(7) 0.1139(5) 0.3400(5)
C1 C 0.2262(9) 0.2289(9) 0.2938(7)
C2 C 0.1349(9) 0.3661(8) 0.3560(7)
C3 C 0.0929(9) 0.4485(9) 0.4097(8)
C4 C 0.2911(10) 0.1474(10) 0.2798(9)
C5 C 0.1110(9) 0.3533(10) 0.2715(7)
H1 H 0.06900 0.39450 0.24110
C6 C 0.1595(11) 0.2686(10) 0.2381(8)
H2 H 0.14750 0.24300 0.18480
N1 N 0.50000 0.165(2) 0.50000
C7 C 0.446(4) 0.216(3) 0.571(2)
C8 C 0.429(5) 0.328(3) 0.552(3)
In1A In 0.41801 0.00000(8) 0.25000
In1C In 0.58199 1.00000(8) 0.75000
S1C S 0.2867(2) 0.7789(3) 0.6402(2)
O1C O 0.4561(6) 0.8789(6) 0.7336(5)
O1F O -0.1211(6) 0.4561(6) 0.5164(5)
O2C O 0.5027(5) 0.9751(6) 0.6303(5)
O2F O -0.0249(5) 0.5027(6) 0.6197(5)
O3C O 0.1061(7) 0.7004(7) 0.4571(5)
O3G O -0.1061(7) 0.7004(7) 0.5429(5)
O4C O 0.1139(7) 0.6515(5) 0.5900(5)
O4G O -0.1139(7) 0.6515(5) 0.4100(5)
C1C C 0.2289(9) 0.7738(9) 0.5438(7)
C2C C 0.3661(9) 0.8651(8) 0.6060(7)
C3C C 0.4485(9) 0.9071(9) 0.6597(8)
C4C C 0.1474(10) 0.7089(10) 0.5298(9)
C5C C 0.3533(9) 0.889(1) 0.5215(7)
H1C H 0.39450 0.93100 0.49110
C6C C 0.2686(11) 0.8405(10) 0.4881(8)
H2C H 0.24300 0.85250 0.43480
C7F C 0.554(4) 0.216(3) 0.429(2)
C8F C 0.571(5) 0.328(3) 0.448(3)
#END
