
#######################################################################
#
#                 Cambridge Crystallographic Data Centre
#                                CCDC
#
#######################################################################
#
# If this CIF has been generated from an entry in the Cambridge
# Structural Database, then it will include bibliographic, chemical,
# crystal, experimental, refinement or atomic coordinate data resulting
# from the CCDC's data processing and validation procedures.
#
#######################################################################

data_CSD_CIF_SOKSIX
_audit_creation_date 2019-05-23
_audit_creation_method CSD-ConQuest-V1
_database_code_CSD SOKSIX
_database_code_depnum_ccdc_archive 'CCDC 1893019'
_chemical_formula_sum 'C138 H112 O42 P4 S6 U4'
_chemical_formula_moiety
;
(C42 H28 O40 S6 U4 4-)n,4n(C24 H20 P1 1+),2n(H2 O1)
;
_journal_coden_Cambridge 222
_journal_volume 48
_journal_year 2019
_journal_page_first 8756
_journal_name_full 'Dalton Trans. '
loop_
_publ_author_name
"P.Thuery"
"Y.Atoini"
"J.Harrowfield"
_chemical_name_systematic
;
catena-(tetrakis(tetraphenylphosphonium) 
hexakis(\m-2-sulfonatobenzoato)-diaqua-octaoxo-tetra-uranium dihydrate)
;
_cell_volume   6817.762
_exptl_crystal_colour 'light yellow'
_exptl_crystal_density_diffrn 1.808
_exptl_crystal_description 'platelet'
_diffrn_ambient_temperature 100
#These two values have been output from a single CSD field.
_refine_ls_R_factor_gt 0.0333
_refine_ls_wR_factor_gt 0.0333
_symmetry_cell_setting triclinic
_symmetry_space_group_name_H-M 'P -1'
_symmetry_Int_Tables_number 2
loop_
_symmetry_equiv_pos_site_id
_symmetry_equiv_pos_as_xyz
1 x,y,z
2 -x,-y,-z
_cell_length_a 19.5550(8)
_cell_length_b 19.7854(7)
_cell_length_c 22.8580(8)
_cell_angle_alpha 67.635(3)
_cell_angle_beta 65.121(2)
_cell_angle_gamma 60.589(2)
_cell_formula_units_Z 2
loop_
_atom_type_symbol
_atom_type_radius_bond
C 0.68
H 0.23
O 0.68
P 1.05
S 1.02
U 1.96
loop_
_atom_site_label
_atom_site_type_symbol
_atom_site_fract_x
_atom_site_fract_y
_atom_site_fract_z
U1 U 1.08734(2) 0.31978(2) -0.14189(2)
U2 U 0.90245(2) 0.20259(2) 0.12396(2)
U3 U 0.59509(2) 0.28053(2) 0.36872(2)
U4 U 0.40172(2) 0.22347(2) 0.62278(2)
S1 S 0.72868(8) 0.38731(7) 0.09295(6)
S2 S 1.25910(7) 0.13174(7) -0.11220(6)
S3 S 1.05102(8) 0.49971(7) -0.27027(6)
S4 S 0.95148(8) 0.02741(7) 0.25573(6)
S5 S 0.52675(9) 0.01484(7) 0.65448(6)
S6 S 0.47990(8) 0.49292(7) 0.33957(6)
O1 O 1.12368(19) 0.36583(17) -0.11608(15)
O2 O 1.05372(19) 0.27183(17) -0.16861(14)
O3 O 0.92685(19) 0.25555(17) 0.15380(14)
O4 O 0.8757(2) 0.15187(17) 0.09364(15)
O5 O 0.65046(19) 0.27456(17) 0.41557(15)
O6 O 0.54121(19) 0.28329(17) 0.32157(14)
O7 O 0.4537(2) 0.22122(18) 0.67070(15)
O8 O 0.3466(2) 0.22833(18) 0.57585(15)
O9 O 0.95445(19) 0.37416(16) -0.06916(15)
O10 O 0.90747(18) 0.29424(17) 0.02104(14)
O11 O 0.77061(18) 0.30619(16) 0.12848(14)
O12 O 0.7257(2) 0.38738(18) 0.03051(15)
O13 O 0.65047(19) 0.42552(17) 0.13780(15)
O14 O 1.08336(18) 0.22790(16) -0.03865(14)
O15 O 1.03880(19) 0.15241(17) 0.05652(14)
O16 O 1.21736(19) 0.21167(17) -0.14920(15)
O17 O 1.2653(2) 0.13399(18) -0.05250(15)
O18 O 1.33572(18) 0.09059(17) -0.15664(15)
O19 O 1.18491(19) 0.32822(17) -0.25131(14)
O20 O 1.2909(2) 0.33812(17) -0.33786(15)
O21 O 1.02651(19) 0.44598(17) -0.20665(14)
O22 O 0.98865(19) 0.57994(17) -0.27315(15)
O23 O 1.0768(2) 0.46675(18) -0.32631(14)
O24 O 0.80337(19) 0.18697(17) 0.23121(14)
O25 O 0.70746(19) 0.17068(17) 0.32552(15)
O26 O 0.96894(19) 0.07841(17) 0.18886(14)
O27 O 0.92167(19) 0.06905(17) 0.30702(15)
O28 O 1.02134(19) -0.04771(17) 0.26062(15)
O29 O 0.5728(2) 0.16620(17) 0.44163(15)
O30 O 0.5249(2) 0.16368(17) 0.54816(15)
O31 O 0.44505(19) 0.08235(17) 0.65641(15)
O32 O 0.5858(2) 0.03598(19) 0.65722(16)
O33 O 0.5163(2) -0.05474(19) 0.70297(15)
O34 O 0.47087(19) 0.34244(16) 0.44073(14)
O35 O 0.4265(2) 0.33496(18) 0.54836(15)
O36 O 0.55762(18) 0.42111(16) 0.33862(14)
O37 O 0.41803(19) 0.48033(17) 0.33117(14)
O38 O 0.4966(2) 0.56111(17) 0.29447(15)
O39 O 0.68513(19) 0.32800(17) 0.26358(14)
H1 H 0.73900 0.30790 0.23110
H2 H 0.66030 0.36720 0.23860
O40 O 0.30334(19) 0.17995(17) 0.72221(14)
H3 H 0.26560 0.22810 0.73500
H4 H 0.32270 0.14950 0.75520
C1 C 0.9112(3) 0.3615(3) -0.0103(2)
C2 C 0.8649(3) 0.4288(2) 0.0240(2)
C3 C 0.7894(3) 0.4403(3) 0.0744(2)
C4 C 0.7550(3) 0.5015(3) 0.1071(2)
H5 H 0.70370 0.50990 0.14040
C5 C 0.7956(3) 0.5502(3) 0.0913(2)
H6 H 0.77270 0.59080 0.11460
C6 C 0.8693(3) 0.5398(3) 0.0416(2)
H7 H 0.89660 0.57360 0.03040
C7 C 0.9033(3) 0.4795(2) 0.0081(2)
H8 H 0.95350 0.47290 -0.02630
C8 C 1.0806(3) 0.1621(2) -0.0037(2)
C9 C 1.1236(3) 0.0918(3) -0.0344(2)
C10 C 1.1969(3) 0.0797(3) -0.0881(2)
C11 C 1.2268(3) 0.0172(3) -0.1185(2)
H9 H 1.27550 0.00900 -0.15460
C12 C 1.1859(3) -0.0333(3) -0.0965(2)
H10 H 1.20580 -0.07460 -0.11830
C13 C 1.1169(3) -0.0230(3) -0.0431(2)
H11 H 1.08970 -0.05800 -0.02740
C14 C 1.0865(3) 0.0386(3) -0.0120(2)
H12 H 1.03930 0.04430 0.02540
C15 C 1.2310(3) 0.3648(3) -0.2910(2)
C16 C 1.2164(3) 0.4424(3) -0.2811(2)
C17 C 1.1395(3) 0.5045(3) -0.2695(2)
C18 C 1.1312(3) 0.5732(3) -0.2600(2)
H13 H 1.07860 0.61520 -0.25160
C19 C 1.1986(3) 0.5820(3) -0.2624(2)
H14 H 1.19210 0.62950 -0.25540
C20 C 1.2761(3) 0.5205(3) -0.2751(2)
H15 H 1.32280 0.52580 -0.27720
C21 C 1.2841(3) 0.4514(3) -0.2848(2)
H16 H 1.33690 0.40970 -0.29420
C22 C 0.7664(3) 0.1448(3) 0.2775(2)
C23 C 0.7889(3) 0.0618(3) 0.2745(2)
C24 C 0.8698(3) 0.0058(3) 0.2626(2)
C25 C 0.8856(3) -0.0706(3) 0.2604(2)
H17 H 0.94010 -0.10990 0.25400
C26 C 0.8226(3) -0.0891(3) 0.2676(2)
H18 H 0.83420 -0.14010 0.26380
C27 C 0.7423(3) -0.0330(3) 0.2802(2)
H19 H 0.69900 -0.04620 0.28590
C28 C 0.7253(3) 0.0409(3) 0.2846(2)
H20 H 0.67010 0.07840 0.29460
C29 C 0.5555(3) 0.1304(3) 0.5007(2)
C30 C 0.5742(3) 0.0434(3) 0.5129(2)
C31 C 0.5637(3) -0.0092(3) 0.5756(2)
C32 C 0.5848(3) -0.0881(3) 0.5787(2)
H21 H 0.57770 -0.12350 0.62070
C33 C 0.6160(3) -0.1170(3) 0.5219(2)
H22 H 0.63060 -0.17140 0.52520
C34 C 0.6256(3) -0.0659(3) 0.4611(2)
H23 H 0.64640 -0.08470 0.42200
C35 C 0.6048(3) 0.0130(3) 0.4571(2)
H24 H 0.61170 0.04770 0.41470
C36 C 0.4402(3) 0.3732(3) 0.4896(2)
C37 C 0.4203(3) 0.4600(3) 0.4811(2)
C38 C 0.4393(3) 0.5131(3) 0.4207(2)
C39 C 0.4237(3) 0.5891(3) 0.4212(2)
H25 H 0.43800 0.62450 0.38080
C40 C 0.3872(3) 0.6141(3) 0.4805(3)
H26 H 0.37620 0.66660 0.48010
C41 C 0.3669(3) 0.5642(3) 0.5390(2)
H27 H 0.34180 0.58150 0.57930
C42 C 0.3836(3) 0.4881(3) 0.5388(2)
H28 H 0.36940 0.45340 0.57970
P1 P 0.11679(8) 0.14747(7) 0.40069(6)
C43 C 0.1211(3) 0.1255(3) 0.3301(2)
C44 C 0.0598(3) 0.1706(3) 0.2986(3)
H29 H 0.01380 0.21490 0.31450
C45 C 0.0660(4) 0.1507(3) 0.2437(3)
H30 H 0.02420 0.18160 0.22220
C46 C 0.1317(4) 0.0872(4) 0.2206(3)
H31 H 0.13500 0.07440 0.18320
C47 C 0.1944(4) 0.0406(3) 0.2509(3)
H32 H 0.24010 -0.00330 0.23430
C48 C 0.1888(3) 0.0595(3) 0.3061(2)
H33 H 0.23060 0.02800 0.32750
C49 C 0.0148(3) 0.2097(3) 0.4390(2)
C50 C -0.0200(3) 0.2896(3) 0.4066(2)
H34 H 0.01070 0.31060 0.36490
C51 C -0.0989(3) 0.3371(3) 0.4358(3)
H35 H -0.12240 0.39080 0.41370
C52 C -0.1442(3) 0.3081(3) 0.4964(3)
H36 H -0.19860 0.34170 0.51580
C53 C -0.1106(3) 0.2302(3) 0.5290(3)
H37 H -0.14170 0.21040 0.57100
C54 C -0.0312(3) 0.1808(3) 0.5004(2)
H38 H -0.00840 0.12710 0.52280
C55 C 0.1500(3) 0.0557(3) 0.4579(2)
C56 C 0.1200(3) -0.0010(3) 0.4699(2)
H39 H 0.08540 0.00850 0.44590
C57 C 0.1407(3) -0.0711(3) 0.5170(2)
H40 H 0.12060 -0.10980 0.52510
C58 C 0.1909(3) -0.0845(3) 0.5521(2)
H41 H 0.20490 -0.13250 0.58440
C59 C 0.2206(3) -0.0286(3) 0.5405(2)
H42 H 0.25460 -0.03810 0.56510
C60 C 0.2013(3) 0.0408(3) 0.4934(2)
H43 H 0.22270 0.07860 0.48490
C61 C 0.1817(3) 0.1998(3) 0.3762(2)
C62 C 0.2540(3) 0.1833(3) 0.3249(2)
H44 H 0.27020 0.14360 0.30250
C63 C 0.3025(3) 0.2247(3) 0.3065(3)
H45 H 0.35130 0.21410 0.27070
C64 C 0.2809(3) 0.2811(3) 0.3394(3)
H46 H 0.31440 0.30960 0.32600
C65 C 0.2100(3) 0.2962(3) 0.3923(3)
H47 H 0.19560 0.33370 0.41620
C66 C 0.1606(3) 0.2560(3) 0.4097(2)
H48 H 0.11150 0.26700 0.44520
P2 P 0.34086(8) 0.25435(7) 0.04249(6)
C67 C 0.3811(3) 0.2657(3) -0.0455(2)
C68 C 0.3773(3) 0.2193(3) -0.0764(2)
H49 H 0.35690 0.17900 -0.05040
C69 C 0.4029(3) 0.2315(3) -0.1442(2)
H50 H 0.39970 0.19980 -0.16470
C70 C 0.4334(3) 0.2898(3) -0.1826(2)
H51 H 0.44990 0.29870 -0.22940
C71 C 0.4398(3) 0.3350(3) -0.1533(2)
H52 H 0.46200 0.37390 -0.17980
C72 C 0.4135(3) 0.3234(3) -0.0852(2)
H53 H 0.41760 0.35480 -0.06500
C73 C 0.2313(3) 0.2837(3) 0.0702(2)
C74 C 0.1833(3) 0.3301(3) 0.1175(2)
H54 H 0.20840 0.34590 0.13480
C75 C 0.0990(3) 0.3531(3) 0.1392(2)
H55 H 0.06640 0.38520 0.17100
C76 C 0.0619(3) 0.3300(3) 0.1149(2)
H56 H 0.00400 0.34590 0.12990
C77 C 0.1101(3) 0.2830(3) 0.0682(2)
H57 H 0.08490 0.26650 0.05170
C78 C 0.1939(3) 0.2602(3) 0.0458(2)
H58 H 0.22620 0.22850 0.01370
C79 C 0.3890(3) 0.1524(3) 0.0827(2)
C80 C 0.3516(3) 0.1275(3) 0.1493(2)
H59 H 0.29750 0.16010 0.17010
C81 C 0.3940(3) 0.0548(3) 0.1850(2)
H60 H 0.36900 0.03770 0.23050
C82 C 0.4714(3) 0.0079(3) 0.1549(2)
H61 H 0.50060 -0.04110 0.18000
C83 C 0.5080(3) 0.0306(3) 0.0883(2)
H62 H 0.56100 -0.00360 0.06730
C84 C 0.4669(3) 0.1040(3) 0.0522(2)
H63 H 0.49220 0.12070 0.00670
C85 C 0.3609(3) 0.3152(3) 0.0697(2)
C86 C 0.4003(3) 0.2825(3) 0.1182(2)
H64 H 0.42230 0.22650 0.13410
C87 C 0.4077(3) 0.3307(3) 0.1435(2)
H65 H 0.43440 0.30760 0.17710
C88 C 0.3770(3) 0.4120(3) 0.1209(2)
H66 H 0.38220 0.44460 0.13900
C89 C 0.3385(3) 0.4464(3) 0.0717(2)
H67 H 0.31870 0.50240 0.05510
C90 C 0.3289(3) 0.3981(3) 0.0465(2)
H68 H 0.30090 0.42130 0.01390
P3 P 0.32144(8) 0.78299(7) 0.03246(6)
C91 C 0.3591(3) 0.7951(3) -0.0563(2)
C92 C 0.3543(3) 0.7479(3) -0.0852(2)
H69 H 0.33230 0.70880 -0.05850
C93 C 0.3819(3) 0.7583(3) -0.1535(2)
H70 H 0.37800 0.72680 -0.17370
C94 C 0.4152(3) 0.8144(3) -0.1921(2)
H71 H 0.43430 0.82100 -0.23880
C95 C 0.4207(3) 0.8605(3) -0.1637(2)
H72 H 0.44370 0.89880 -0.19070
C96 C 0.3929(3) 0.8512(3) -0.0952(2)
H73 H 0.39690 0.88290 -0.07530
C97 C 0.2131(3) 0.8075(3) 0.0631(2)
C98 C 0.1627(3) 0.8609(3) 0.1053(2)
H74 H 0.18610 0.88380 0.11750
C99 C 0.0791(3) 0.8802(3) 0.1291(2)
H75 H 0.04510 0.91770 0.15650
C100 C 0.0446(3) 0.8452(3) 0.1134(2)
H76 H -0.01270 0.85750 0.13090
C101 C 0.0931(3) 0.7926(3) 0.0724(2)
H77 H 0.06930 0.76880 0.06150
C102 C 0.1766(3) 0.7742(3) 0.0469(2)
H78 H 0.20950 0.73840 0.01790
C103 C 0.3737(3) 0.6824(3) 0.0710(2)
C104 C 0.3432(3) 0.6563(3) 0.1389(2)
H79 H 0.29200 0.68960 0.16280
C105 C 0.3865(3) 0.5831(3) 0.1713(2)
H80 H 0.36570 0.56620 0.21770
C106 C 0.4604(3) 0.5335(3) 0.1368(2)
H81 H 0.49060 0.48280 0.15950
C107 C 0.4904(3) 0.5578(3) 0.0694(2)
H82 H 0.54060 0.52320 0.04570
C108 C 0.4477(3) 0.6325(3) 0.0359(2)
H83 H 0.46880 0.64930 -0.01040
C109 C 0.3387(3) 0.8479(3) 0.0576(2)
C110 C 0.3848(3) 0.8169(3) 0.1013(2)
H84 H 0.41080 0.76100 0.11580
C111 C 0.3924(3) 0.8685(3) 0.1234(2)
H85 H 0.42450 0.84780 0.15270
C112 C 0.3533(3) 0.9501(3) 0.1030(2)
H86 H 0.35780 0.98510 0.11920
C113 C 0.3077(3) 0.9809(3) 0.0591(2)
H87 H 0.28150 1.03690 0.04490
C114 C 0.3004(3) 0.9307(3) 0.0364(2)
H88 H 0.26940 0.95190 0.00620
P4 P 0.87383(8) 0.37962(7) 0.66380(6)
C115 C 0.8425(3) 0.4584(3) 0.5966(2)
C116 C 0.7645(3) 0.5197(3) 0.6093(3)
H89 H 0.73110 0.52150 0.65370
C117 C 0.7354(4) 0.5780(3) 0.5575(3)
H90 H 0.68190 0.61890 0.56620
C118 C 0.7851(4) 0.5757(3) 0.4934(3)
H91 H 0.76540 0.61500 0.45780
C119 C 0.8635(4) 0.5167(3) 0.4802(3)
H92 H 0.89770 0.51690 0.43590
C120 C 0.8923(3) 0.4574(3) 0.5315(2)
H93 H 0.94560 0.41650 0.52240
C121 C 0.8208(3) 0.3149(3) 0.6895(2)
C122 C 0.7442(3) 0.3458(3) 0.6801(2)
H94 H 0.72050 0.40030 0.65960
C123 C 0.7023(3) 0.2965(3) 0.7008(2)
H95 H 0.64970 0.31740 0.69500
C124 C 0.7377(3) 0.2173(3) 0.7298(2)
H96 H 0.70960 0.18350 0.74350
C125 C 0.8136(3) 0.1869(3) 0.7390(2)
H97 H 0.83730 0.13230 0.75920
C126 C 0.8554(3) 0.2347(3) 0.7193(2)
H98 H 0.90760 0.21310 0.72590
C127 C 0.9827(3) 0.3222(3) 0.6388(2)
C128 C 1.0144(3) 0.2636(3) 0.6046(2)
H99 H 0.97890 0.25230 0.59480
C129 C 1.0987(3) 0.2217(3) 0.5847(2)
H100 H 1.12120 0.18120 0.56140
C130 C 1.1500(3) 0.2390(3) 0.5988(2)
H101 H 1.20770 0.21060 0.58460
C131 C 1.1186(3) 0.2967(3) 0.6331(3)
H102 H 1.15420 0.30810 0.64260
C132 C 1.0345(3) 0.3382(3) 0.6538(2)
H103 H 1.01220 0.37750 0.67830
C133 C 0.8516(3) 0.4224(3) 0.7287(2)
C134 C 0.8455(3) 0.3773(3) 0.7939(2)
H104 H 0.84580 0.32580 0.80490
C135 C 0.8392(3) 0.4078(3) 0.8419(2)
H105 H 0.83520 0.37720 0.88590
C136 C 0.8387(3) 0.4823(3) 0.8263(2)
H106 H 0.83570 0.50220 0.85950
C137 C 0.8424(3) 0.5282(3) 0.7636(2)
H107 H 0.84030 0.58030 0.75360
C138 C 0.8493(3) 0.4985(3) 0.7149(2)
H108 H 0.85260 0.53020 0.67130
O41 O 0.4063(2) 0.3892(2) 0.26684(17)
H109 H 0.44590 0.34040 0.28070
H110 H 0.41710 0.41200 0.28590
O42 O 1.0409(2) -0.0288(2) 0.38090(17)
H111 H 1.00170 0.01820 0.35830
H112 H 1.08060 -0.05760 0.34540
U4* U 1.40172(2) 0.22347(2) -0.37722(2)
O20* O 0.2909(2) 0.33812(17) 0.66214(15)
#END
