
#######################################################################
#
#                 Cambridge Crystallographic Data Centre
#                                CCDC
#
#######################################################################
#
# If this CIF has been generated from an entry in the Cambridge
# Structural Database, then it will include bibliographic, chemical,
# crystal, experimental, refinement or atomic coordinate data resulting
# from the CCDC's data processing and validation procedures.
#
#######################################################################

data_CSD_CIF_SOKTEU
_audit_creation_date 2019-05-23
_audit_creation_method CSD-ConQuest-V1
_database_code_CSD SOKTEU
_database_code_depnum_ccdc_archive 'CCDC 1893023'
_chemical_formula_sum 'C76 H88 O32 P2 S4 U1'
_chemical_formula_moiety
;
(C28 H26 O21 S4 U1 2-)n,2n(C24 H20 P1 1+),11n(H2 O1)
;
_journal_coden_Cambridge 222
_journal_volume 48
_journal_year 2019
_journal_page_first 8756
_journal_name_full 'Dalton Trans. '
loop_
_publ_author_name
"P.Thuery"
"Y.Atoini"
"J.Harrowfield"
_chemical_name_systematic
;
catena-(bis(tetraphenylphosphonium) 
(\m-25,26,27,28-tetrahydroxycalix(4)arene-5,11,27,23-tetrasulfonate)-triaqua-d
ioxo-uranium undecahydrate)
;
_cell_volume   4016.991
_exptl_crystal_colour 'light yellow'
_exptl_crystal_density_diffrn 1.605
_exptl_crystal_description 'platelet'
_diffrn_ambient_temperature 100
#These two values have been output from a single CSD field.
_refine_ls_R_factor_gt 0.0387
_refine_ls_wR_factor_gt 0.0387
_symmetry_cell_setting triclinic
_symmetry_space_group_name_H-M 'P -1'
_symmetry_Int_Tables_number 2
loop_
_symmetry_equiv_pos_site_id
_symmetry_equiv_pos_as_xyz
1 x,y,z
2 -x,-y,-z
_cell_length_a 13.7110(9)
_cell_length_b 13.9471(6)
_cell_length_c 22.3786(16)
_cell_angle_alpha 105.108(4)
_cell_angle_beta 100.002(3)
_cell_angle_gamma 96.077(4)
_cell_formula_units_Z 2
loop_
_atom_type_symbol
_atom_type_radius_bond
C 0.68
H 0.23
O 0.68
P 1.05
S 1.02
U 1.96
loop_
_atom_site_label
_atom_site_type_symbol
_atom_site_fract_x
_atom_site_fract_y
_atom_site_fract_z
U1 U 0.95413(2) 0.25133(2) 0.80717(2)
S1 S 0.80606(8) 0.44701(7) 0.77158(5)
S2 S 0.97953(8) 0.99519(8) 0.82010(5)
S3 S 0.44984(8) 0.97965(8) 0.81052(5)
S4 S 0.30873(8) 0.47049(8) 0.82056(5)
O1 O 0.9809(2) 0.32835(19) 0.88608(13)
O2 O 0.9236(2) 0.17383(19) 0.72859(13)
O3 O 0.8321(2) 0.34860(19) 0.77723(13)
O4 O 0.8814(2) 0.4973(2) 0.74642(14)
O5 O 0.7045(2) 0.4332(2) 0.73578(14)
O6 O 0.9962(2) 1.10692(19) 0.83860(13)
O7 O 0.8955(2) 0.9520(2) 0.76726(13)
O8 O 1.0709(2) 0.9560(2) 0.80968(14)
O9 O 0.3613(2) 0.9032(2) 0.78439(15)
O10 O 0.4238(2) 1.0808(2) 0.83122(14)
O11 O 0.5194(2) 0.9772(2) 0.76826(14)
O12 O 0.2787(2) 0.5376(2) 0.78312(15)
O13 O 0.2254(2) 0.4396(2) 0.84921(14)
O14 O 0.3482(2) 0.3846(2) 0.78732(14)
O15 O 0.8123(2) 0.6891(2) 1.03141(13)
H1 H 0.85830 0.74320 1.03530
O16 O 0.8441(2) 0.8816(2) 1.03094(13)
H2 H 0.79450 0.90880 1.04240
O17 O 0.6603(2) 0.9184(2) 1.04707(13)
H3 H 0.64590 0.85910 1.04900
O18 O 0.6222(2) 0.7180(2) 1.03720(13)
H4 H 0.67950 0.70400 1.03800
O19 O 0.8063(2) 0.1847(2) 0.83024(15)
H5 H 0.76440 0.13280 0.80880
H6 H 0.76980 0.20700 0.85900
O20 O 1.1304(2) 0.2512(2) 0.81307(13)
H7 H 1.17940 0.30710 0.82850
H8 H 1.16340 0.21280 0.82620
O21 O 1.0351(2) 0.3927(2) 0.77491(14)
H9 H 0.99410 0.43880 0.77070
H10 H 1.10260 0.43380 0.78950
C1 C 0.8098(3) 0.5209(3) 0.8491(2)
C2 C 0.8823(3) 0.6058(3) 0.8771(2)
H11 H 0.93010 0.62410 0.85440
C3 C 0.8850(3) 0.6647(3) 0.9388(2)
C4 C 0.8127(3) 0.6345(3) 0.97029(19)
C5 C 0.7394(3) 0.5491(3) 0.9424(2)
C6 C 0.7401(3) 0.4922(3) 0.8816(2)
H12 H 0.69220 0.43290 0.86200
C7 C 0.9659(3) 0.7567(3) 0.9678(2)
H13 H 0.97920 0.77120 1.01450
H14 H 1.02860 0.74130 0.95390
C8 C 0.9386(3) 0.8497(3) 0.95036(19)
C9 C 0.9736(3) 0.8791(3) 0.90186(18)
H15 H 1.01690 0.84140 0.87990
C10 C 0.9457(3) 0.9623(3) 0.88569(19)
C11 C 0.8806(3) 1.0172(3) 0.91574(19)
H16 H 0.86060 1.07330 0.90300
C12 C 0.8445(3) 0.9904(3) 0.96426(18)
C13 C 0.8752(3) 0.9080(3) 0.98167(18)
C14 C 0.7676(3) 1.0468(3) 0.99387(19)
H17 H 0.77460 1.11540 0.98880
H18 H 0.78040 1.05300 1.03970
C15 C 0.6610(3) 0.9920(3) 0.96296(19)
C16 C 0.6112(3) 1.0041(3) 0.9066(2)
H19 H 0.64390 1.04670 0.88670
C17 C 0.5142(3) 0.9547(3) 0.8790(2)
C18 C 0.4659(3) 0.8921(3) 0.9076(2)
H20 H 0.39930 0.85900 0.88840
C19 C 0.5133(3) 0.8770(3) 0.9637(2)
C20 C 0.6112(3) 0.9279(3) 0.99064(19)
C21 C 0.4588(3) 0.8090(3) 0.9942(2)
H21 H 0.38700 0.81650 0.98800
H22 H 0.48710 0.82940 1.04030
C22 C 0.4681(3) 0.6989(3) 0.96583(19)
C23 C 0.3944(3) 0.6397(3) 0.91447(19)
H23 H 0.33730 0.66660 0.89960
C24 C 0.4047(3) 0.5417(3) 0.8851(2)
C25 C 0.4875(3) 0.5025(3) 0.90625(19)
H24 H 0.49290 0.43490 0.88600
C26 C 0.5635(3) 0.5595(3) 0.9565(2)
C27 C 0.5508(3) 0.6581(3) 0.98595(19)
C28 C 0.6582(3) 0.5192(3) 0.9759(2)
H25 H 0.64340 0.44500 0.96530
H26 H 0.68280 0.54600 1.02230
P1 P 0.54222(9) 0.61533(9) 0.63812(5)
C29 C 0.4602(4) 0.5000(3) 0.6270(2)
C30 C 0.3674(4) 0.5076(4) 0.6432(2)
H27 H 0.34520 0.57110 0.65350
C31 C 0.3067(4) 0.4210(4) 0.6442(2)
H28 H 0.24420 0.42540 0.65690
C32 C 0.3387(4) 0.3287(4) 0.6267(2)
H29 H 0.29750 0.26990 0.62740
C33 C 0.4292(4) 0.3203(4) 0.6081(2)
H30 H 0.44920 0.25620 0.59510
C34 C 0.4907(4) 0.4067(3) 0.6088(2)
H31 H 0.55360 0.40200 0.59690
C35 C 0.5943(3) 0.6685(3) 0.7209(2)
C36 C 0.5486(3) 0.6421(3) 0.7660(2)
H32 H 0.48800 0.59540 0.75340
C37 C 0.5915(3) 0.6838(3) 0.8294(2)
H33 H 0.56100 0.66470 0.86040
C38 C 0.6785(3) 0.7533(3) 0.8480(2)
H34 H 0.70690 0.78260 0.89170
C39 C 0.7243(4) 0.7802(3) 0.8033(2)
H35 H 0.78470 0.82720 0.81630
C40 C 0.6827(3) 0.7391(3) 0.7400(2)
H36 H 0.71370 0.75840 0.70930
C41 C 0.4738(3) 0.6984(3) 0.6049(2)
C42 C 0.4865(4) 0.7996(3) 0.6371(2)
H37 H 0.52660 0.82430 0.67870
C43 C 0.4407(4) 0.8641(4) 0.6084(3)
H38 H 0.45020 0.93370 0.63030
C44 C 0.3812(4) 0.8294(4) 0.5485(3)
H39 H 0.35070 0.87470 0.52890
C45 C 0.3662(4) 0.7267(4) 0.5166(2)
H40 H 0.32460 0.70170 0.47550
C46 C 0.4118(4) 0.6619(3) 0.5450(2)
H41 H 0.40080 0.59200 0.52360
C47 C 0.6467(3) 0.5926(3) 0.5993(2)
C48 C 0.7156(4) 0.5380(3) 0.6227(2)
H42 H 0.70760 0.51430 0.65800
C49 C 0.7962(4) 0.5183(3) 0.5938(2)
H43 H 0.84280 0.47960 0.60870
C50 C 0.8082(4) 0.5554(3) 0.5432(2)
H44 H 0.86280 0.54160 0.52310
C51 C 0.7409(4) 0.6123(3) 0.5223(2)
H45 H 0.75060 0.63870 0.48830
C52 C 0.6592(3) 0.6318(3) 0.5498(2)
H46 H 0.61300 0.67100 0.53510
P2 P 1.00635(9) 0.85342(8) 0.57741(6)
C53 C 1.0184(4) 0.7583(3) 0.6178(2)
C54 C 0.9734(4) 0.7586(4) 0.6688(2)
H47 H 0.93070 0.80630 0.68090
C55 C 0.9911(5) 0.6888(4) 0.7021(3)
H48 H 0.95990 0.68840 0.73670
C56 C 1.0536(5) 0.6204(4) 0.6851(3)
H49 H 1.06610 0.57380 0.70870
C57 C 1.0976(5) 0.6185(4) 0.6353(3)
H50 H 1.14050 0.57070 0.62390
C58 C 1.0797(4) 0.6872(4) 0.6008(3)
H51 H 1.10970 0.68530 0.56540
C59 C 0.8819(3) 0.8853(3) 0.5643(2)
C60 C 0.8396(4) 0.9265(4) 0.6169(2)
H52 H 0.87650 0.93720 0.65880
C61 C 0.7445(4) 0.9511(5) 0.6070(3)
H53 H 0.71580 0.97820 0.64220
C62 C 0.6901(4) 0.9364(4) 0.5457(3)
H54 H 0.62340 0.95060 0.53910
C63 C 0.7338(4) 0.9010(3) 0.4948(2)
H55 H 0.69850 0.89510 0.45320
C64 C 0.8285(4) 0.8741(3) 0.5035(2)
H56 H 0.85690 0.84810 0.46800
C65 C 1.0938(3) 0.9641(3) 0.6231(2)
C66 C 1.0675(3) 1.0595(3) 0.6315(2)
H57 H 1.00200 1.06760 0.61350
C67 C 1.1384(4) 1.1431(3) 0.6669(2)
H58 H 1.12060 1.20850 0.67310
C68 C 1.2337(4) 1.1326(3) 0.6928(2)
H59 H 1.28140 1.19020 0.71670
C69 C 1.2594(4) 1.0370(3) 0.6837(2)
H60 H 1.32550 1.02940 0.70110
C70 C 1.1902(4) 0.9529(3) 0.6498(2)
H61 H 1.20810 0.88770 0.64470
C71 C 1.0384(3) 0.8046(3) 0.5017(2)
C72 C 1.1179(3) 0.8538(3) 0.4850(2)
H62 H 1.15490 0.91540 0.51280
C73 C 1.1434(4) 0.8123(4) 0.4272(2)
H63 H 1.19800 0.84580 0.41560
C74 C 1.0898(4) 0.7228(3) 0.3867(2)
H64 H 1.10770 0.69490 0.34740
C75 C 1.0108(4) 0.6741(3) 0.4031(2)
H65 H 0.97410 0.61250 0.37510
C76 C 0.9844(4) 0.7144(3) 0.4603(2)
H66 H 0.92950 0.68060 0.47150
O22 O 0.5292(3) 0.3282(2) 0.76098(15)
H67 H 0.57730 0.37670 0.75170
H68 H 0.48980 0.36670 0.76140
O23 O 0.7078(3) 0.0140(3) 0.75510(16)
H69 H 0.76250 -0.02430 0.76320
H70 H 0.63990 -0.02050 0.75050
O24 O 1.2303(2) 0.1173(2) 0.84381(14)
H71 H 1.18750 0.05050 0.82920
H72 H 1.29680 0.10920 0.83780
O25 O 1.2020(3) 0.8311(3) 0.83589(17)
H73 H 1.25420 0.84400 0.81300
H74 H 1.17790 0.76380 0.81270
O26 O 0.5611(3) 1.2596(2) 0.86748(17)
H75 H 0.50880 1.20240 0.85880
H76 H 0.55820 1.28660 0.83450
O27 O 0.1566(3) 0.5929(3) 0.9574(2)
H77 H 0.14320 0.64280 0.94360
H78 H 0.10680 0.55750 0.97180
O28 O 0.7440(3) 0.2554(2) 0.93449(17)
O29 O 0.1271(3) 0.6455(3) 0.84407(17)
O30 O 0.6571(4) 0.2150(4) 0.6364(3)
O31 O 0.5139(4) 1.1248(3) 0.6889(2)
O32 O 1.00000 0.50000 1.00000
O33 O 0.3255(5) 0.7008(4) 0.7234(3)
U1* U 0.95413(2) 1.25133(2) 0.80717(2)
O6* O 0.9962(2) 0.10692(19) 0.83860(13)
#END
