
#######################################################################
#
#                 Cambridge Crystallographic Data Centre
#                                CCDC
#
#######################################################################
#
# If this CIF has been generated from an entry in the Cambridge
# Structural Database, then it will include bibliographic, chemical,
# crystal, experimental, refinement or atomic coordinate data resulting
# from the CCDC's data processing and validation procedures.
#
#######################################################################

data_CSD_CIF_SOKWOG
_audit_creation_date 2014-06-04
_audit_creation_method CSD-ConQuest-V1
_database_code_CSD SOKWOG
_database_code_depnum_ccdc_archive 'CCDC 974098'
_chemical_formula_sum 'C22 H20 N2 O9 U1'
_chemical_formula_moiety
;
(C12 H9 O8 U1 1-)n,n(C10 H9 N2 1+),n(H2 O1)
;
_journal_coden_Cambridge 1147
_journal_volume 14
_journal_year 2014
_journal_page_first 1314
_journal_name_full 'Cryst.Growth Des. '
loop_
_publ_author_name
"P.Thuery"
"J.Harrowfield"
_chemical_name_systematic
;
catena-[2-(pyridin-2-yl)pyridinium 
(\m~3~-2,2',2''-benzene-1,3,5-triyltriacetato)-dioxo-uranium monohydrate]
;
_cell_volume   1071.646
_exptl_crystal_colour 'light yellow'
_exptl_crystal_density_diffrn 2.152
_exptl_crystal_description 'parallelepiped'
_diffrn_ambient_temperature 150
#These two values have been output from a single CSD field.
_refine_ls_R_factor_gt 0.0248
_refine_ls_wR_factor_gt 0.0248
_symmetry_cell_setting triclinic
_symmetry_space_group_name_H-M 'P -1'
_symmetry_Int_Tables_number 2
loop_
_symmetry_equiv_pos_site_id
_symmetry_equiv_pos_as_xyz
1 x,y,z
2 -x,-y,-z
_cell_length_a 11.1750(6)
_cell_length_b 11.2003(5)
_cell_length_c 11.2336(6)
_cell_angle_alpha 61.510(3)
_cell_angle_beta 66.654(2)
_cell_angle_gamma 62.995(3)
_cell_formula_units_Z 2
loop_
_atom_type_symbol
_atom_type_radius_bond
C 0.68
H 0.23
N 0.68
O 0.68
U 1.96
loop_
_atom_site_label
_atom_site_type_symbol
_atom_site_fract_x
_atom_site_fract_y
_atom_site_fract_z
U1 U 0.701583(9) 0.737318(10) 0.216593(10)
O1 O 0.7201(2) 0.6742(2) 0.3882(2)
O2 O 0.6790(2) 0.8012(2) 0.0461(2)
O3 O 0.4778(2) 0.6935(2) 0.3155(2)
O4 O 0.6599(2) 0.5166(2) 0.2728(2)
O5 O -0.0935(2) 0.5479(2) 0.1644(2)
O6 O -0.0567(2) 0.7427(2) 0.1202(2)
O7 O 0.2930(2) 1.0309(2) -0.1800(2)
O8 O 0.5006(2) 1.0424(2) -0.2429(2)
C1 C 0.3913(3) 0.5740(3) 0.1714(3)
C2 C 0.2828(3) 0.5455(3) 0.1692(3)
H1 H 0.23630 0.48860 0.25290
C3 C 0.2420(3) 0.5994(3) 0.0460(3)
C4 C 0.3058(3) 0.6879(3) -0.0742(3)
H2 H 0.27650 0.72720 -0.15790
C5 C 0.4130(3) 0.7202(3) -0.0740(3)
C6 C 0.4554(3) 0.6609(3) 0.0481(3)
H3 H 0.53020 0.67970 0.04800
C7 C 0.4403(3) 0.5031(3) 0.3048(3)
H4 H 0.35930 0.50900 0.38410
H5 H 0.49300 0.40020 0.32020
C8 C 0.5304(3) 0.5735(3) 0.3003(3)
C9 C 0.1338(3) 0.5547(3) 0.0443(4)
H6 H 0.13680 0.57980 -0.05390
H7 H 0.15950 0.44880 0.08960
C10 C -0.0117(3) 0.6193(3) 0.1137(3)
C11 C 0.4824(3) 0.8182(3) -0.2035(3)
H8 H 0.47200 0.81700 -0.28640
H9 H 0.58220 0.78140 -0.20690
C12 C 0.4226(3) 0.9716(3) -0.2087(3)
O9 O 0.3435(3) 0.8234(3) 0.5429(3)
H10 H 0.40460 0.78050 0.48470
H11 H 0.32960 0.92400 0.48680
N1 N 0.7846(2) 0.9885(3) -0.2399(3)
H12 H 0.69910 1.00260 -0.25980
N2 N 0.8127(3) 0.8655(3) -0.4071(3)
C13 C 0.7564(3) 1.0650(3) -0.1639(3)
H13 H 0.66340 1.11210 -0.12660
C14 C 0.8631(3) 1.0749(3) -0.1401(3)
H14 H 0.84440 1.13030 -0.08800
C15 C 0.9968(3) 1.0034(4) -0.1928(3)
H15 H 1.07120 1.00820 -0.17610
C16 C 1.0237(3) 0.9240(3) -0.2706(3)
H16 H 1.11610 0.87480 -0.30730
C17 C 0.9149(3) 0.9173(3) -0.2941(3)
C18 C 0.9289(3) 0.8376(3) -0.3754(3)
C19 C 1.0539(3) 0.7397(4) -0.4144(4)
H17 H 1.13390 0.72000 -0.38810
C20 C 1.0590(4) 0.6724(4) -0.4918(4)
H18 H 1.14340 0.60530 -0.52000
C21 C 0.9409(3) 0.7021(4) -0.5291(4)
H19 H 0.94280 0.65840 -0.58490
C22 C 0.8204(3) 0.7980(4) -0.4815(4)
H20 H 0.73820 0.81670 -0.50340
U1* U -0.298417(9) 0.737318(10) 0.216593(10)
U1A U 0.298417(9) 1.262682(10) -0.216593(10)
O5* O 0.9065(2) 0.5479(2) 0.1644(2)
O6* O 0.9433(2) 0.7427(2) 0.1202(2)
O7A O 0.7070(2) 0.9691(2) 0.1800(2)
O8A O 0.4994(2) 0.9576(2) 0.2429(2)
#END
