
#######################################################################
#
#                 Cambridge Crystallographic Data Centre
#                                CCDC
#
#######################################################################
#
# If this CIF has been generated from an entry in the Cambridge
# Structural Database, then it will include bibliographic, chemical,
# crystal, experimental, refinement or atomic coordinate data resulting
# from the CCDC's data processing and validation procedures.
#
#######################################################################

data_CSD_CIF_SOLMOX
_audit_creation_date 2014-06-04
_audit_creation_method CSD-ConQuest-V1
_database_code_CSD SOLMOX
_database_code_depnum_ccdc_archive 'CCDC 1006792'
_chemical_formula_sum 'C120 H87 Cd8.5 Cl2 N12 O43.5'
_chemical_formula_moiety
;
(C54 H30 Cd7 O42 4-)n,1.5n(C44 H36 Cd1 N8 4+),2n(Cl1 1-),1.5n(H2 O1)
;
_journal_coden_Cambridge 1147
_journal_volume 14
_journal_year 2014
_journal_page_first 1526
_journal_name_full 'Cryst.Growth Des. '
loop_
_publ_author_name
"Zhenjie Zhang"
"L.Wojtas"
"M.J.Zaworotko"
_chemical_name_systematic
;
catena-(sesquikis((5,10,15,20-tetrakis(N-Methylpyridinium-4-yl)porphyrinato)-c
admium) 
tris(\m~5~-benzene-1,3,5-tricarboxylato)-tris(\m~4~-benzene-1,3,5-tricarboxyla
to)-hexa-aqua-hepta-cadmium dichloride sesquihydrate)
;
_chemical_name_common
;
porph@MOM-12
;
_cell_volume   8104.947
_exptl_crystal_density_diffrn 1.395
_exptl_special_details
;
The terminal ligands of the cation and the solvent molecules are not 
identified; we have represented them as water
;
_exptl_crystal_description 'prism'
_diffrn_ambient_temperature 100
_refine_special_details
;
The structure is disordered, partly by symmetry. The SQUEEZE/PLATON program 
was used to model some disorder.
;
#These two values have been output from a single CSD field.
_refine_ls_R_factor_gt 0.0863
_refine_ls_wR_factor_gt 0.0863
_symmetry_cell_setting hexagonal
_symmetry_space_group_name_H-M 'P -3'
_symmetry_Int_Tables_number 147
loop_
_symmetry_equiv_pos_site_id
_symmetry_equiv_pos_as_xyz
1 x,y,z
2 -y,x-y,z
3 -x+y,-x,z
4 -x,-y,-z
5 y,-x+y,-z
6 x-y,x,-z
_cell_length_a 30.4643(6)
_cell_length_b 30.4643(6)
_cell_length_c 10.0841(4)
_cell_angle_alpha 90
_cell_angle_beta 90
_cell_angle_gamma 120
_cell_formula_units_Z 2
loop_
_atom_type_symbol
_atom_type_radius_bond
C 0.68
H 0.23
Cd 1.44
Cl 0.99
N 0.68
O 0.68
loop_
_atom_site_label
_atom_site_type_symbol
_atom_site_fract_x
_atom_site_fract_y
_atom_site_fract_z
O1 O -0.0499(7) 0.1949(7) 0.8571(14)
C1 C -0.0626(4) 0.2019(5) 1.4573(9)
C2 C -0.0368(3) 0.2132(4) 1.3254(9)
C3 C -0.0647(3) 0.2022(4) 1.2089(10)
H1 H -0.09990 0.19150 1.21250
C4 C -0.0413(3) 0.2069(5) 1.0873(9)
C5 C 0.0100(3) 0.2226(4) 1.0821(8)
H2 H 0.02600 0.22580 0.99900
C6 C 0.0380(3) 0.2336(3) 1.1986(8)
C7 C 0.0146(3) 0.2289(4) 1.3202(8)
H3 H 0.03370 0.23640 1.39990
C8 C 0.0942(3) 0.2557(3) 1.1848(10)
C9 C -0.0710(9) 0.1893(11) 0.959(2)
O2 O -0.0341(9) 0.2063(8) 1.555(2)
O3 O -0.1066(7) 0.1932(10) 1.4625(14)
O4 O 0.1193(7) 0.2542(6) 1.2883(14)
O5 O 0.1166(5) 0.2806(5) 1.0753(12)
O6 O -0.1167(7) 0.1628(6) 0.9613(14)
Cd1 Cd 0.1868(4) 0.36543(14) 1.0248(3)
Cd2 Cd -0.10641(6) 0.19996(9) 1.69489(13)
C10 C 0.2759(4) 0.5678(5) 1.5261(11)
C11 C 0.2513(3) 0.5093(3) 1.5272(7)
C12 C 0.2121(3) 0.4335(3) 1.6602(6)
C13 C 0.2318(3) 0.4855(3) 1.6480(6)
H4 H 0.23190 0.50470 1.72220
C14 C 0.2361(7) 0.4892(8) 1.416(2)
H5 H 0.24140 0.50820 1.33740
C15 C 0.2102(8) 0.4353(8) 1.4186(19)
C16 C 0.2021(10) 0.4080(9) 1.539(2)
H6 H 0.19010 0.37260 1.53720
C17 C 0.1966(8) 0.4096(9) 1.288(2)
C18 C 0.1938(4) 0.4082(4) 1.7876(9)
O7 O 0.2756(3) 0.5917(3) 1.6249(8)
O8 O 0.2999(4) 0.5881(3) 1.4164(7)
O9 O 0.2038(4) 0.4362(3) 1.8919(7)
O10 O 0.1684(3) 0.3610(3) 1.7957(6)
O11 O 0.1711(6) 0.3637(6) 1.2891(12)
O12 O 0.2107(8) 0.4313(8) 1.1857(15)
Cd3 Cd 0.33330 0.66670 1.5125(8)
O13 O 0.2696(12) 0.3751(23) 0.982(3)
O14 O -0.1085(31) 0.2827(19) 1.679(3)
O15 O 0.0900(8) 0.1980(11) 1.310(2)
O16 O 0.0920(8) 0.3703(8) 1.0686(15)
Cd4 Cd 0.50005(7) -0.01286(7) 0.42495(19)
C19 C 0.6094(4) 0.0629(5) 0.3774(12)
C20 C 0.6374(4) 0.1032(5) 0.2907(12)
H7 H 0.67080 0.11430 0.25910
C21 C 0.6064(8) 0.1241(7) 0.2591(19)
H8 H 0.61590 0.15230 0.20220
C22 C 0.5597(6) 0.0972(6) 0.3235(15)
C23 C 0.5198(6) 0.1047(6) 0.3056(17)
C24 C 0.5253(6) 0.1459(6) 0.2170(15)
C25 C 0.5631(6) 0.1946(6) 0.2348(13)
H9 H 0.58650 0.20190 0.30500
C26 C 0.5687(6) 0.2330(6) 0.1569(13)
H10 H 0.59610 0.26650 0.17000
C27 C 0.5412(6) 0.2665(7) -0.0282(17)
H11 H 0.56400 0.29930 0.01320
H12 H 0.50790 0.26330 -0.04200
H13 H 0.55520 0.26440 -0.11380
C28 C 0.4944(7) 0.1761(6) 0.0464(17)
H14 H 0.46840 0.17110 -0.01400
C29 C 0.4910(7) 0.1361(7) 0.118(2)
H15 H 0.46540 0.10240 0.09870
C30 C 0.4712(7) 0.0753(6) 0.3654(17)
C31 C 0.4283(7) 0.0850(7) 0.3688(19)
H16 H 0.42750 0.11240 0.32630
C32 C 0.3896(7) 0.0479(7) 0.4433(19)
H17 H 0.35810 0.04560 0.46390
C33 C 0.4068(8) 0.0126(6) 0.4848(17)
C34 C 0.3787(7) -0.0309(7) 0.5633(16)
C35 C 0.3171(8) -0.0239(8) 0.708(2)
H18 H 0.34470 -0.00420 0.76620
C36 C 0.3261(6) -0.0432(5) 0.5956(17)
C37 C 0.2837(9) -0.0725(8) 0.521(2)
H19 H 0.28600 -0.08530 0.43710
C38 C 0.2315(8) -0.0841(8) 0.579(2)
H20 H 0.20120 -0.10820 0.53590
N1 N 0.2289(5) -0.0639(5) 0.6733(18)
C39 C 0.2692(9) -0.0319(9) 0.742(2)
H21 H 0.26550 -0.01420 0.81500
C40 C 0.1795(6) -0.0746(7) 0.708(2)
H22 H 0.16690 -0.09860 0.78210
H23 H 0.15690 -0.08940 0.63160
H24 H 0.18050 -0.04310 0.73420
N2 N 0.5357(5) 0.2232(5) 0.0633(12)
N3 N 0.5610(5) 0.0589(4) 0.3973(13)
N4 N 0.4548(5) 0.0295(5) 0.4394(13)
O17 O 0.4969(4) -0.0622(4) 0.2184(9)
Cl1 Cl 0.66670 0.33330 0.999(3)
Cl2 Cl 0.6205(10) 0.1807(11) 0.720(3)
Cl3 Cl 0.6257(11) 0.2314(11) 0.880(3)
C41? C 0.2511(4) 0.4811(4) 1.4186(6)
H25? H 0.26440 0.49740 1.33600
C42? C 0.2315(6) 0.4291(4) 1.4308(8)
C43? C 0.2120(5) 0.4053(3) 1.5516(9)
H26? H 0.19850 0.36980 1.55990
C44? C -0.0708(3) 0.2203(6) 1.2186(14)
H27? H -0.10660 0.20080 1.22580
C45? C -0.0485(4) 0.2439(6) 1.0994(11)
C46? C 0.0039(5) 0.2725(6) 1.0889(10)
H28? H 0.01910 0.28860 1.00740
C47? C 0.0342(3) 0.2775(6) 1.1975(11)
C48? C 0.0119(4) 0.2539(5) 1.3167(10)
H29? H 0.03260 0.25740 1.39100
C49? C 0.0898(6) 0.3086(7) 1.1885(16)
C50? C -0.0805(7) 0.2316(9) 0.9759(17)
O18? O 0.2299(5) 0.3598(4) 1.3183(11)
O19? O 0.2258(7) 0.4144(7) 1.1987(16)
O20? O -0.0361(10) 0.2231(8) 1.563(3)
O21? O -0.1105(7) 0.1624(5) 1.4623(15)
O22? O 0.1179(4) 0.3095(4) 1.2798(10)
O23? O 0.1063(5) 0.3333(6) 1.0809(13)
O24? O -0.0577(6) 0.2340(8) 0.8719(13)
O25? O -0.1216(6) 0.2293(5) 0.9869(13)
Cl4? Cl 0.3323(20) 0.4106(24) 1.170(4)
Cd5? Cd 0.1645(5) 0.36535(15) 1.0387(3)
C51? C 0.2284(6) 0.3943(6) 1.3077(15)
Cd6? Cd -0.10754(5) 0.16468(7) 1.69465(11)
C52? C -0.0405(5) 0.2253(6) 1.3272(11)
Cd7? Cd 0.33330 0.66670 1.433(3)
O1A O 0.8051(7) 0.7552(7) 0.8571(14)
C1A C 0.7981(4) 0.7355(5) 1.4573(9)
C2A C 0.7868(3) 0.7500(4) 1.3254(9)
C3A C 0.7978(3) 0.7331(4) 1.2089(10)
H1A H 0.80850 0.70860 1.21250
C4A C 0.7931(3) 0.7518(5) 1.0873(9)
C5A C 0.7774(3) 0.7874(4) 1.0821(8)
H2A H 0.77420 0.80020 0.99900
C6A C 0.7664(3) 0.8044(3) 1.1986(8)
C7A C 0.7711(3) 0.7857(4) 1.3202(8)
H3A H 0.76360 0.79730 1.39990
C8A C 0.7443(3) 0.8385(3) 1.1848(10)
C9A C 0.8107(9) 0.7397(11) 0.959(2)
O2A O 0.7937(9) 0.7596(8) 1.555(2)
O3A O 0.8068(7) 0.7002(10) 1.4625(14)
O4A O 0.7458(7) 0.8651(6) 1.2883(14)
O5A O 0.7194(5) 0.8360(5) 1.0753(12)
O6A O 0.8372(7) 0.7205(6) 0.9613(14)
Cd1A Cd 0.63457(40) 0.82137(14) 1.0248(3)
Cd2A Cd 0.80004(6) 0.69363(9) 1.69489(13)
C10A C 0.4322(4) 0.7081(5) 1.5261(11)
C11A C 0.4907(3) 0.7420(3) 1.5272(7)
C12A C 0.5665(3) 0.7786(3) 1.6602(6)
C13A C 0.5145(3) 0.7463(3) 1.6480(6)
H4A H 0.49530 0.72720 1.72220
C14A C 0.5108(7) 0.7469(8) 1.416(2)
H5A H 0.49180 0.73320 1.33740
C15A C 0.5647(8) 0.7749(8) 1.4186(19)
C16A C 0.592(1) 0.7941(9) 1.539(2)
H6A H 0.62740 0.81750 1.53720
C17A C 0.5904(8) 0.7870(9) 1.288(2)
C18A C 0.5918(4) 0.7856(4) 1.7876(9)
O7A O 0.4083(3) 0.6839(3) 1.6249(8)
O8A O 0.4119(4) 0.7118(3) 1.4164(7)
O9A O 0.5638(4) 0.7676(3) 1.8919(7)
O10A O 0.6390(3) 0.8074(3) 1.7957(6)
O11A O 0.6363(6) 0.8074(6) 1.2891(12)
O12A O 0.5687(8) 0.7794(8) 1.1857(15)
O13A O 0.6249(12) 0.8945(23) 0.982(3)
O14A O 0.7173(31) 0.6088(19) 1.679(3)
O1B O 0.2448(7) 1.0499(7) 0.8571(14)
C1B C 0.2645(4) 1.0626(5) 1.4573(9)
C2B C 0.2500(3) 1.0368(4) 1.3254(9)
C3B C 0.2669(3) 1.0647(4) 1.2089(10)
H1B H 0.29140 1.09990 1.21250
C4B C 0.2482(3) 1.0413(5) 1.0873(9)
C5B C 0.2126(3) 0.9900(4) 1.0821(8)
H2B H 0.19980 0.97400 0.99900
C6B C 0.1956(3) 0.9620(3) 1.1986(8)
C7B C 0.2143(3) 0.9854(4) 1.3202(8)
H3B H 0.20270 0.96630 1.39990
C8B C 0.1615(3) 0.9058(3) 1.1848(10)
C9B C 0.2603(9) 1.0710(11) 0.959(2)
O2B O 0.2404(9) 1.0341(8) 1.555(2)
O3B O 0.2998(7) 1.1066(10) 1.4625(14)
O4B O 0.1349(7) 0.8807(6) 1.2883(14)
O5B O 0.1640(5) 0.8834(5) 1.0753(12)
O6B O 0.2795(7) 1.1167(6) 0.9613(14)
Cd1B Cd 0.17863(40) 0.81320(14) 1.0248(3)
Cd2B Cd 0.30637(6) 1.10641(9) 1.69489(13)
C10B C 0.2919(4) 0.7241(5) 1.5261(11)
C11B C 0.2580(3) 0.7487(3) 1.5272(7)
C12B C 0.2214(3) 0.7879(3) 1.6602(6)
C13B C 0.2537(3) 0.7682(3) 1.6480(6)
H4B H 0.27280 0.76810 1.72220
C14B C 0.2531(7) 0.7639(8) 1.416(2)
H5B H 0.26680 0.75860 1.33740
C15B C 0.2251(8) 0.7898(8) 1.4186(19)
C16B C 0.2059(10) 0.7979(9) 1.539(2)
H6B H 0.18250 0.80990 1.53720
C17B C 0.2130(8) 0.8034(9) 1.288(2)
C18B C 0.2144(4) 0.8062(4) 1.7876(9)
O7B O 0.3161(3) 0.7244(3) 1.6249(8)
O8B O 0.2882(4) 0.7001(3) 1.4164(7)
O9B O 0.2324(4) 0.7962(3) 1.8919(7)
O10B O 0.1926(3) 0.8316(3) 1.7957(6)
O11B O 0.1926(6) 0.8289(6) 1.2891(12)
O12B O 0.2206(8) 0.7893(8) 1.1857(15)
O13B O 0.1055(12) 0.7304(23) 0.982(3)
O14B O 0.3912(31) 1.1085(19) 1.679(3)
O1* O -0.0499(7) 0.1949(7) 1.8571(14)
O1A* O 0.8051(7) 0.7552(7) 1.8571(14)
O1B* O 0.2448(7) 1.0499(7) 1.8571(14)
O4C O 0.8807(7) 0.7458(6) 1.7117(14)
O4D O 0.2542(7) 1.1349(6) 1.7117(14)
O4E O -0.1349(7) 0.1193(6) 1.7117(14)
O6C O 0.1167(7) 0.8372(6) 1.0387(14)
O6D O 0.1628(7) 0.2795(6) 1.0387(14)
O6E O 0.7205(7) 0.8833(6) 1.0387(14)
Cd1* Cd 0.1868(4) 0.36543(14) 2.0248(3)
Cd1A* Cd 0.63457(40) 0.82137(14) 2.0248(3)
Cd1B* Cd 0.17863(40) 0.81320(14) 2.0248(3)
Cd1C Cd 0.8132(4) 0.63457(14) 0.9752(3)
Cd1D Cd 0.36543(40) 1.17863(14) 0.9752(3)
Cd1E Cd -0.17863(40) 0.18680(14) 0.9752(3)
Cd2* Cd -0.10641(6) 0.19996(9) 0.69489(13)
Cd2A* Cd 0.80004(6) 0.69363(9) 0.69489(13)
Cd2B* Cd 0.30637(6) 1.10641(9) 0.69489(13)
Cd2C Cd 0.10641(6) 0.80004(9) 1.30511(13)
Cd2D Cd 0.19996(6) 0.30637(9) 1.30511(13)
Cd2E Cd 0.69363(6) 0.89359(9) 1.30511(13)
O9* O 0.2038(4) 0.4362(3) 0.8919(7)
O9A* O 0.5638(4) 0.7676(3) 0.8919(7)
O9B* O 0.2324(4) 0.7962(3) 0.8919(7)
O10* O 0.1684(3) 0.3610(3) 0.7957(6)
O10A* O 0.6390(3) 0.8074(3) 0.7957(6)
O10B* O 0.1926(3) 0.8316(3) 0.7957(6)
O11C O 0.8289(6) 0.6363(6) 1.7109(12)
O11D O 0.3637(6) 1.1926(6) 1.7109(12)
O11E O -0.1926(6) 0.1711(6) 1.7109(12)
C19C C 0.3906(4) -0.0629(5) 0.6226(12)
C20C C 0.3626(4) -0.1032(5) 0.7093(12)
H7C H 0.32920 -0.11430 0.74090
C21C C 0.3936(8) -0.1241(7) 0.7409(19)
H8C H 0.38410 -0.15230 0.79780
C22C C 0.4403(6) -0.0972(6) 0.6765(15)
C23C C 0.4802(6) -0.1047(6) 0.6944(17)
C24C C 0.4747(6) -0.1459(6) 0.7830(15)
C25C C 0.4369(6) -0.1946(6) 0.7652(13)
H9C H 0.41350 -0.20190 0.69500
C26C C 0.4313(6) -0.2330(6) 0.8431(13)
H10C H 0.40390 -0.26650 0.83000
C27C C 0.4588(6) -0.2665(7) 1.0282(17)
H11C H 0.43600 -0.29930 0.98680
H12C H 0.49210 -0.26330 1.04200
H13C H 0.44480 -0.26440 1.11380
C28C C 0.5056(7) -0.1761(6) 0.9536(17)
H14C H 0.53160 -0.17110 1.01400
C29C C 0.5090(7) -0.1361(7) 0.882(2)
H15C H 0.53460 -0.10240 0.90130
C30C C 0.5288(7) -0.0753(6) 0.6346(17)
C31C C 0.5717(7) -0.0850(7) 0.6312(19)
H16C H 0.57250 -0.11240 0.67370
C32C C 0.6104(7) -0.0479(7) 0.5567(19)
H17C H 0.64190 -0.04560 0.53610
C33C C 0.5932(8) -0.0126(6) 0.5152(17)
C34C C 0.6213(7) 0.0309(7) 0.4367(16)
C35C C 0.6829(8) 0.0239(8) 0.292(2)
H18C H 0.65530 0.00420 0.23380
C36C C 0.6739(6) 0.0432(5) 0.4044(17)
C37C C 0.7163(9) 0.0725(8) 0.479(2)
H19C H 0.71400 0.08530 0.56290
C38C C 0.7685(8) 0.0841(8) 0.421(2)
H20C H 0.79880 0.10820 0.46410
N1C N 0.7711(5) 0.0639(5) 0.3267(18)
C39C C 0.7308(9) 0.0319(9) 0.258(2)
H21C H 0.73450 0.01420 0.18500
C40C C 0.8205(6) 0.0746(7) 0.292(2)
H22C H 0.83310 0.09860 0.21790
H23C H 0.84310 0.08940 0.36840
H24C H 0.81950 0.04310 0.26580
N2C N 0.4643(5) -0.2232(5) 0.9367(12)
N3C N 0.4390(5) -0.0589(4) 0.6027(13)
N4C N 0.5452(5) -0.0295(5) 0.5606(13)
Cd4C Cd 0.49995(7) 0.01286(7) 0.57505(19)
O17C O 0.5031(4) 0.0622(4) 0.7816(9)
#END
