
#######################################################################
#
#                 Cambridge Crystallographic Data Centre
#                                CCDC
#
#######################################################################
#
# If this CIF has been generated from an entry in the Cambridge
# Structural Database, then it will include bibliographic, chemical,
# crystal, experimental, refinement or atomic coordinate data resulting
# from the CCDC's data processing and validation procedures.
#
#######################################################################

data_CSD_CIF_SOMFIK
_audit_creation_date 2009-03-18
_audit_creation_method CSD-ConQuest-V1
_database_code_CSD SOMFIK
_database_code_depnum_ccdc_archive 'CCDC 709884'
_chemical_formula_sum 'C21 H27 In1 N2 O9 S2'
_chemical_formula_moiety
;
(C4 H12 N1 1+)n,n(C12 H4 In1 O8 S2 1-),n(C5 H11 N1 O1)
;
_journal_coden_Cambridge 4
_journal_volume 130
_journal_year 2008
_journal_page_first 12882
_journal_name_full 'J.Am.Chem.Soc. '
loop_
_publ_author_name
"Jian Zhang"
"Shumei Chen"
"Tao Wu"
"Pingyun Feng"
"Xianhui Bu"
_chemical_name_systematic
;
catena-[Diethylammonium 
(P)-bis(\m~2~-thiophene-2,5-dicarboxylato-O,O',O'',O''')-indium(iii) 
diethylformamide solvate]
;
_chemical_name_common
;
ATF-2P
;
_cell_volume   2932.806
_exptl_crystal_colour 'brown'
_exptl_special_details
;
Homochiral framework produced by adding (-)-cinchonidine as a chiral catalyst

;
_diffrn_ambient_temperature 293
_refine_special_details
;
The diethylammonium cation is disordered by symmetry. The authors state 
disordered diethylformamide solvent is present in the structure. No details 
are given on the stoichiometry of the solvent, or how the disordered solvent 
was treated in the refinement. We calculate the structure contains 27% void 
space.
;
#These two values have been output from a single CSD field.
_refine_ls_R_factor_gt 0.0526
_refine_ls_wR_factor_gt 0.0526
loop_
_citation_database_id_CSD
_citation_special_details
SOKKOT "is a stereoisomer of this entry"
_symmetry_cell_setting tetragonal
_symmetry_space_group_name_H-M 'P 41 2 2'
_symmetry_Int_Tables_number 91
loop_
_symmetry_equiv_pos_site_id
_symmetry_equiv_pos_as_xyz
1 x,y,z
2 -y,x,1/4+z
3 -x,-y,1/2+z
4 y,-x,3/4+z
5 x,-y,1/2-z
6 y,x,3/4-z
7 -x,y,-z
8 -y,-x,1/4-z
_cell_length_a 13.5100(1)
_cell_length_b 13.5100(1)
_cell_length_c 16.0684(3)
_cell_angle_alpha 90
_cell_angle_beta 90
_cell_angle_gamma 90
_cell_formula_units_Z 4
loop_
_atom_type_symbol
_atom_type_radius_bond
C 0.90
H 0.23
In 1.28
N 0.61
O 0.68
S 1.02
loop_
_atom_site_label
_atom_site_type_symbol
_atom_site_fract_x
_atom_site_fract_y
_atom_site_fract_z
In1 In 0.58169(6) 0.00000 0.25000
S1 S 0.2862(2) 0.2218(2) 0.13937(16)
O1 O 0.4555(6) 0.1239(6) 0.2330(4)
O2 O 0.5020(6) 0.0260(5) 0.1324(4)
O3 O 0.1073(6) 0.3008(6) -0.0418(4)
O4 O 0.1146(5) 0.3472(5) 0.0883(4)
C1 C 0.3681(7) 0.1371(8) 0.1050(6)
C2 C 0.3540(8) 0.1149(9) 0.0229(6)
H1 H 0.39480 0.07210 -0.00670
C3 C 0.2722(8) 0.1625(9) -0.0125(6)
H2 H 0.24940 0.15190 -0.06640
C4 C 0.2301(7) 0.2275(7) 0.0436(6)
C5 C 0.4475(8) 0.0937(8) 0.1605(7)
C6 C 0.1468(7) 0.2941(7) 0.0288(6)
C7 C 0.555(2) -0.186(3) -0.064(2)
H3 H 0.56800 -0.25510 -0.07480
H4 H 0.58200 -0.13800 -0.10330
C8 C 0.711(3) -0.146(4) -0.095(3)
N1 N 0.471(3) -0.157(2) -0.010(3)
In1C In 0.00000(6) 0.41831 0.00000
In1A In 0.00000(6) -0.41831 0.50000
S1D S 0.2862(2) -0.2218(2) 0.36063(16)
O1D O 0.4555(6) -0.1239(6) 0.2670(4)
O2D O 0.5020(6) -0.0260(5) 0.3676(4)
O3D O 0.1073(6) -0.3008(6) 0.5418(4)
O3A O 0.6992(6) 0.1073(6) 0.2082(4)
O3G O 0.6992(6) -0.1073(6) 0.2918(4)
O4D O 0.1146(5) -0.3472(5) 0.4117(4)
O4A O 0.6528(5) 0.1146(5) 0.3383(4)
O4G O 0.6528(5) -0.1146(5) 0.1617(4)
C1D C 0.3681(7) -0.1371(8) 0.3950(6)
C2D C 0.3540(8) -0.1149(9) 0.4771(6)
H1D H 0.39480 -0.07210 0.50670
C3D C 0.2722(8) -0.1625(9) 0.5125(6)
H2D H 0.24940 -0.15190 0.56640
C4D C 0.2301(7) -0.2275(7) 0.4564(6)
C5D C 0.4475(8) -0.0937(8) 0.3395(7)
C6D C 0.1468(7) -0.2941(7) 0.4712(6)
C7F C 0.445(2) -0.186(3) 0.064(2)
H3F H 0.43200 -0.25510 0.07480
H4F H 0.41800 -0.13800 0.10330
C8F C 0.289(3) -0.146(4) 0.095(3)
N1F N 0.529(3) -0.157(2) 0.010(3)
#END
