
#######################################################################
#
#                 Cambridge Crystallographic Data Centre
#                                CCDC
#
#######################################################################
#
# If this CIF has been generated from an entry in the Cambridge
# Structural Database, then it will include bibliographic, chemical,
# crystal, experimental, refinement or atomic coordinate data resulting
# from the CCDC's data processing and validation procedures.
#
#######################################################################

data_CSD_CIF_SOMVEY
_audit_creation_date 2019-05-24
_audit_creation_method CSD-ConQuest-V1
_database_code_CSD SOMVEY
_database_code_depnum_ccdc_archive 'CCDC 1898167'
_chemical_formula_sum 'C35 H35 Cl1 In1 N1 O6'
_chemical_formula_moiety
;
(C27 H15 Cl1 In1 O6 1-)n,n(C8 H20 N1 1+)
;
_journal_coden_Cambridge 1147
_journal_volume 19
_journal_year 2019
_journal_page_first 3124
_journal_name_full 'Cryst.Growth Des. '
loop_
_publ_author_name
"S.Springer"
"J.J.Mihaly"
"N.Amirmokhtari"
"A.B.Crom"
"M.Zeller"
"J.I.Feldblyum"
"D.T.Genna"
_chemical_name_systematic
;
catena-(tetraethylammonium 
(\m-1,3,5-tris(4-carboxylatophenyl)benzene)-chloro-indium unknown solvate)
;
_chemical_name_common
;
YCM-32 TEACl
;
_cell_volume   7126.882
_exptl_crystal_colour 'colorless'
_diffrn_ambient_temperature 100
_refine_special_details
;
C28,C29,C30,C31 and C28B,C29B,C30B,C31B disordered over two sites with 
occupancies 0.544:0.456. The SQUEEZE/PLATON program was used to model some 
disordered solvent.
;
#These two values have been output from a single CSD field.
_refine_ls_R_factor_gt 0.05
_refine_ls_wR_factor_gt 0.05
_symmetry_cell_setting monoclinic
_symmetry_space_group_name_H-M 'C 2/c'
_symmetry_Int_Tables_number 15
loop_
_symmetry_equiv_pos_site_id
_symmetry_equiv_pos_as_xyz
1 x,y,z
2 -x,y,1/2-z
3 1/2+x,1/2+y,z
4 1/2-x,1/2+y,1/2-z
5 -x,-y,-z
6 x,-y,-1/2+z
7 -1/2-x,-1/2-y,-z
8 -1/2+x,-1/2-y,-1/2+z
_cell_length_a 32.6605(18)
_cell_length_b 11.9586(5)
_cell_length_c 18.655(1)
_cell_angle_alpha 90
_cell_angle_beta 102.002(3)
_cell_angle_gamma 90
_cell_formula_units_Z 8
loop_
_atom_type_symbol
_atom_type_radius_bond
C 0.68
H 0.23
Cl 0.99
In 1.42
N 0.68
O 0.68
loop_
_atom_site_label
_atom_site_type_symbol
_atom_site_fract_x
_atom_site_fract_y
_atom_site_fract_z
In1 In 0.63993(2) 1.01176(2) 0.53702(2)
Cl1 Cl 0.63878(4) 1.05952(10) 0.66146(6)
O1 O 0.56884(8) 0.9747(2) 0.51321(16)
C1 C 0.57761(12) 0.8718(3) 0.5101(2)
O2 O 0.61413(9) 0.8391(2) 0.52438(15)
C2 C 0.54234(11) 0.7911(3) 0.4855(2)
O3 O 0.20015(8) 0.4245(2) 0.53843(16)
C3 C 0.50090(12) 0.8269(3) 0.4783(2)
H1 H 0.49520 0.90190 0.48990
O4 O 0.20282(9) 0.6064(2) 0.53694(17)
C4 C 0.46795(12) 0.7532(3) 0.4542(2)
H2 H 0.43990 0.77780 0.44980
O5 O 0.38472(8) 0.1711(2) 0.02162(14)
C5 C 0.47611(11) 0.6429(3) 0.43657(19)
O6 O 0.36993(9) 0.0292(2) 0.08554(14)
C6 C 0.51781(11) 0.6089(3) 0.4424(2)
H3 H 0.52370 0.53480 0.42930
C7 C 0.55034(12) 0.6825(3) 0.4670(2)
H4 H 0.57840 0.65830 0.47120
C8 C 0.44087(11) 0.5642(3) 0.4124(2)
C9 C 0.40609(12) 0.5691(3) 0.4451(2)
H5 H 0.40460 0.62590 0.48010
C10 C 0.37345(12) 0.4920(3) 0.4273(2)
C11 C 0.37548(12) 0.4122(3) 0.3739(2)
H6 H 0.35350 0.35910 0.36140
C12 C 0.40896(12) 0.4081(3) 0.3383(2)
C13 C 0.44186(12) 0.4845(3) 0.3585(2)
H7 H 0.46510 0.48170 0.33510
C14 C 0.21950(11) 0.5122(3) 0.5324(2)
C15 C 0.26210(12) 0.5071(3) 0.5142(2)
C16 C 0.28448(12) 0.6045(3) 0.5064(2)
H8 H 0.27420 0.67480 0.51860
C17 C 0.32120(12) 0.5997(3) 0.4811(2)
H9 H 0.33630 0.66630 0.47690
C18 C 0.33630(12) 0.4971(3) 0.4617(2)
C19 C 0.31556(13) 0.3989(3) 0.4740(2)
H10 H 0.32670 0.32820 0.46500
C20 C 0.27876(13) 0.4048(3) 0.4993(2)
H11 H 0.26460 0.33780 0.50670
C21 C 0.38214(11) 0.1283(3) 0.0810(2)
C22 C 0.39284(12) 0.1966(3) 0.15012(19)
C23 C 0.38380(13) 0.1563(3) 0.2149(2)
H12 H 0.37280 0.08300 0.21660
C24 C 0.39083(13) 0.2232(3) 0.2773(2)
H13 H 0.38470 0.19520 0.32150
C25 C 0.40682(12) 0.3311(3) 0.2753(2)
C26 C 0.41749(15) 0.3690(3) 0.2107(2)
H14 H 0.42970 0.44080 0.20930
C27 C 0.41023(15) 0.3019(3) 0.1489(2)
H15 H 0.41730 0.32860 0.10500
N1 N 0.50000 0.9179(5) 0.25000
C28 C 0.4764(3) 0.9873(8) 0.2949(5)
H16 H 0.46600 0.93790 0.32990
H17 H 0.45170 1.02080 0.26200
C29 C 0.5028(7) 1.0812(16) 0.3380(12)
H18 H 0.52290 1.04890 0.37920
H19 H 0.48440 1.13360 0.35660
H20 H 0.51790 1.12100 0.30560
C30 C 0.5308(3) 0.8436(9) 0.3019(5)
H21 H 0.54100 0.88780 0.34690
H22 H 0.51430 0.78080 0.31610
C31 C 0.5686(5) 0.7933(18) 0.2803(11)
H23 H 0.56740 0.80740 0.22810
H24 H 0.56900 0.71250 0.28910
H25 H 0.59400 0.82720 0.30940
C32? C 0.4770(3) 0.9934(9) 0.1880(4)
H26? H 0.46150 0.94540 0.14830
H27? H 0.45610 1.03850 0.20690
C33? C 0.5044(8) 1.0714(13) 0.1559(10)
H28? H 0.51630 1.12780 0.19250
H29? H 0.48770 1.10860 0.11280
H30? H 0.52700 1.02890 0.14150
C34? C 0.4693(3) 0.8474(10) 0.2798(7)
H31? H 0.44310 0.89040 0.27680
H32? H 0.48090 0.83160 0.33220
C35? C 0.4588(8) 0.7351(13) 0.2388(10)
H33? H 0.44390 0.68640 0.26700
H34? H 0.48480 0.69860 0.23300
H35? H 0.44110 0.74920 0.19040
In1A In 0.36007(2) 0.01176(2) -0.03702(2)
In1B In 0.13993(2) 0.51176(2) 0.53702(2)
O3B O 0.70015(8) 0.9245(2) 0.53843(16)
O4B O 0.70282(9) 1.1064(2) 0.53694(17)
O5A O 0.61528(8) 1.1711(2) 0.47838(14)
O6A O 0.63007(9) 1.0292(2) 0.41446(14)
C28A C 0.5236(3) 0.9873(8) 0.2051(5)
H16A H 0.53400 0.93790 0.17010
H17A H 0.54830 1.02080 0.23800
C29A C 0.4972(7) 1.0812(16) 0.1620(12)
H18A H 0.47710 1.04890 0.12080
H19A H 0.51560 1.13360 0.14340
H20A H 0.48210 1.12100 0.19440
C30A C 0.4692(3) 0.8436(9) 0.1981(5)
H21A H 0.45900 0.88780 0.15310
H22A H 0.48570 0.78080 0.18390
C31A C 0.4314(5) 0.7933(18) 0.2197(11)
H23A H 0.43260 0.80740 0.27190
H24A H 0.43100 0.71250 0.21090
H25A H 0.40600 0.82720 0.19060
#END
