
#######################################################################
#
#                 Cambridge Crystallographic Data Centre
#                                CCDC
#
#######################################################################
#
# If this CIF has been generated from an entry in the Cambridge
# Structural Database, then it will include bibliographic, chemical,
# crystal, experimental, refinement or atomic coordinate data resulting
# from the CCDC's data processing and validation procedures.
#
#######################################################################

data_CSD_CIF_SOMVOI
_audit_creation_date 2019-05-24
_audit_creation_method CSD-ConQuest-V1
_database_code_CSD SOMVOI
_database_code_depnum_ccdc_archive 'CCDC 1898169'
_chemical_formula_sum 'C114 H84 In3 N3 O24'
_chemical_formula_moiety
;
(C108 H60 In3 O24 3-)n,3n(C2 H8 N1 1+)
;
_journal_coden_Cambridge 1147
_journal_volume 19
_journal_year 2019
_journal_page_first 3124
_journal_name_full 'Cryst.Growth Des. '
loop_
_publ_author_name
"S.Springer"
"J.J.Mihaly"
"N.Amirmokhtari"
"A.B.Crom"
"M.Zeller"
"J.I.Feldblyum"
"D.T.Genna"
_chemical_name_systematic
;
catena-(tris(dimethylammonium) 
tetrakis(\m-1,3,5-tris(4-carboxylatophenyl)benzene)-tri-indium unknown 
solvate)
;
_chemical_name_common
;
ZJU-28'
;
_cell_volume  13242.269
_exptl_crystal_colour 'colorless'
_exptl_crystal_description 'plate'
_diffrn_ambient_temperature 200
_diffrn_special_details
;
twin

;
_refine_special_details
;
The SQUEEZE/PLATON program was used to model some cations (likely 
dimethylammonium) and solvent molecules.
;
#These two values have been output from a single CSD field.
_refine_ls_R_factor_gt 0.1146
_refine_ls_wR_factor_gt 0.1146
_symmetry_cell_setting triclinic
_symmetry_space_group_name_H-M 'P -1'
_symmetry_Int_Tables_number 2
loop_
_symmetry_equiv_pos_site_id
_symmetry_equiv_pos_as_xyz
1 x,y,z
2 -x,-y,-z
_cell_length_a 23.5316(11)
_cell_length_b 25.9161(12)
_cell_length_c 27.8566(13)
_cell_angle_alpha 62.3204(18)
_cell_angle_beta 65.0687(19)
_cell_angle_gamma 89.840(2)
_cell_formula_units_Z 2
loop_
_atom_type_symbol
_atom_type_radius_bond
C 0.68
H 0.23
In 1.42
O 0.68
loop_
_atom_site_label
_atom_site_type_symbol
_atom_site_fract_x
_atom_site_fract_y
_atom_site_fract_z
In1 In -0.15625(3) 0.35200(3) -0.44764(3)
In2 In -0.65593(3) 0.85276(3) -0.44867(3)
In3 In 0.09835(4) 1.10519(4) -0.95164(3)
O1 O -0.1602(3) 0.4324(3) -0.5244(3)
O2 O -0.2230(3) 0.4165(3) -0.4324(3)
O3 O -0.5865(3) 0.7842(3) -0.4278(3)
O4 O -0.5694(3) 0.8499(3) -0.5210(3)
O5 O 0.0043(4) 1.0433(3) -0.9030(3)
O6 O 0.0701(4) 1.0012(3) -0.8725(3)
O7 O -0.2451(3) 0.2772(3) -0.3649(3)
O8 O -0.2225(3) 0.2970(3) -0.4580(3)
O9 O -0.5873(3) -0.0760(3) -0.4575(3)
O10 O -0.6593(3) -0.1461(3) -0.3658(3)
O11 O -0.8726(4) 0.0768(3) -0.0295(4)
O12 O -0.8087(4) 0.0875(4) 0.0056(3)
O13 O -0.1007(3) 0.2767(3) -0.4380(3)
O14 O -0.0758(3) 0.3526(3) -0.5296(3)
O15 O 0.0541(4) 0.1333(4) -0.8764(3)
O16 O 0.1489(4) 0.1209(3) -0.9068(3)
O17 O 0.3414(3) -0.0719(3) -0.5320(3)
O18 O 0.2670(3) -0.0942(3) -0.4399(3)
O19 O -0.0795(3) 0.4166(3) -0.4579(3)
O20 O -0.1476(3) 0.3434(2) -0.3655(3)
O21 O 0.0477(4) 0.1661(3) 0.0034(3)
O22 O 0.1468(4) 0.2064(3) -0.0309(3)
O23 O 0.2658(3) 0.7692(3) -0.3653(3)
O24 O 0.2859(3) 0.7900(3) -0.4573(3)
C1 C -0.1998(5) 0.4498(4) -0.4896(5)
C2 C -0.2111(5) 0.5096(4) -0.5169(5)
C3 C -0.1791(5) 0.5482(4) -0.5805(5)
H1 H -0.15050 0.53530 -0.60660
C4 C -0.1891(5) 0.6046(5) -0.6050(5)
H2 H -0.16560 0.63110 -0.64830
C5 C -0.2320(6) 0.6247(5) -0.5694(5)
C6 C -0.2641(6) 0.5860(5) -0.5084(5)
H3 H -0.29390 0.59920 -0.48330
C7 C -0.2562(6) 0.5244(5) -0.4776(5)
H4 H -0.28020 0.49740 -0.43440
C8 C -0.5534(5) 0.8101(4) -0.4853(5)
C9 C -0.4922(5) 0.7938(4) -0.5136(5)
C10 C -0.4743(5) 0.7479(5) -0.4753(5)
H5 H -0.50110 0.72530 -0.43190
C11 C -0.4143(6) 0.7366(5) -0.5039(5)
H6 H -0.39990 0.70650 -0.47890
C12 C -0.3752(6) 0.7677(5) -0.5676(5)
C13 C -0.3958(5) 0.8118(5) -0.6038(5)
H7 H -0.37010 0.83290 -0.64730
C14 C -0.4543(5) 0.8260(5) -0.5771(5)
H8 H -0.46780 0.85710 -0.60220
C15 C 0.0153(6) 0.9994(5) -0.8677(5)
C16 C -0.0378(5) 0.9456(5) -0.8204(5)
C17 C -0.0285(6) 0.8942(5) -0.7777(5)
H9 H 0.01360 0.89310 -0.78180
C18 C -0.0794(6) 0.8452(5) -0.7299(5)
H10 H -0.07200 0.81110 -0.70150
C19 C -0.1417(5) 0.8454(4) -0.7233(5)
C20 C -0.1499(5) 0.8959(4) -0.7658(5)
H11 H -0.19150 0.89690 -0.76300
C21 C -0.0989(5) 0.9452(5) -0.8124(5)
H12 H -0.10680 0.97990 -0.83960
C22 C -0.2395(6) 0.6869(5) -0.5958(5)
C23 C -0.2986(6) 0.6979(5) -0.5709(5)
H13 H -0.33370 0.66500 -0.53670
C24 C -0.3097(6) 0.7567(5) -0.5940(5)
C25 C -0.2569(5) 0.8044(5) -0.6459(5)
H14 H -0.26280 0.84400 -0.66310
C26 C -0.1967(5) 0.7941(4) -0.6720(5)
C27 C -0.1882(5) 0.7347(4) -0.6455(5)
H15 H -0.14650 0.72780 -0.66210
C28 C -0.2574(5) 0.2690(4) -0.4014(5)
C29 C -0.3164(5) 0.2196(4) -0.3725(4)
C30 C -0.3315(5) 0.2061(4) -0.4083(4)
H16 H -0.30310 0.22510 -0.45130
C31 C -0.3883(5) 0.1648(4) -0.3819(4)
H17 H -0.39910 0.15690 -0.40750
C32 C -0.4292(4) 0.1351(4) -0.3199(4)
C33 C -0.4127(5) 0.1485(4) -0.2837(4)
H18 H -0.44160 0.12960 -0.24090
C34 C -0.3547(5) 0.1890(4) -0.3086(4)
H19 H -0.34220 0.19530 -0.28310
C35 C -0.6135(4) -0.0990(4) -0.4007(5)
C36 C -0.5971(4) -0.0701(4) -0.3723(4)
C37 C -0.5484(4) -0.0162(4) -0.4090(4)
H20 H -0.52450 -0.00040 -0.45220
C38 C -0.5347(4) 0.0138(4) -0.3837(4)
H21 H -0.50170 0.04990 -0.40920
C39 C -0.5698(5) -0.0093(4) -0.3205(4)
C40 C -0.6156(5) -0.0631(4) -0.2845(4)
H22 H -0.63800 -0.08040 -0.24110
C41 C -0.6293(5) -0.0920(4) -0.3106(4)
H23 H -0.66210 -0.12820 -0.28490
C42 C -0.8185(6) 0.0787(4) -0.0321(5)
C43 C -0.7676(5) 0.0695(5) -0.0784(5)
C44 C -0.7763(5) 0.0615(5) -0.1205(5)
H24 H -0.81730 0.06010 -0.11910
C45 C -0.7249(5) 0.0554(4) -0.1654(5)
H25 H -0.73200 0.04780 -0.19290
C46 C -0.6629(5) 0.0602(4) -0.1704(4)
C47 C -0.6546(5) 0.0694(5) -0.1271(5)
H26 H -0.61340 0.07310 -0.12900
C48 C -0.7090(5) 0.0730(5) -0.0809(5)
H27 H -0.70400 0.07810 -0.05110
C49 C -0.4916(5) 0.0945(4) -0.2929(4)
C50 C -0.4983(5) 0.0595(4) -0.3171(4)
H28 H -0.46190 0.05930 -0.34960
C51 C -0.5603(5) 0.0242(4) -0.2922(4)
C52 C -0.6120(5) 0.0241(4) -0.2451(4)
H29 H -0.65320 -0.00020 -0.22820
C53 C -0.6051(5) 0.0598(4) -0.2207(4)
C54 C -0.5453(5) 0.0929(4) -0.2444(4)
H30 H -0.54010 0.11570 -0.22720
C55 C -0.0695(5) 0.3043(5) -0.4970(5)
C56 C -0.0249(6) 0.2715(5) -0.5239(5)
C57 C 0.0078(6) 0.2962(5) -0.5854(5)
H31 H 0.00390 0.33460 -0.61110
C58 C 0.0460(6) 0.2675(5) -0.6114(5)
H32 H 0.06850 0.28580 -0.65500
C59 C 0.0521(6) 0.2131(5) -0.5757(5)
C60 C 0.0241(6) 0.1899(5) -0.5146(5)
H33 H 0.03180 0.15350 -0.48960
C61 C -0.0156(6) 0.2181(5) -0.4878(5)
H34 H -0.03650 0.20060 -0.44430
C62 C 0.1022(7) 0.1339(5) -0.8722(5)
C63 C 0.1094(6) 0.1413(5) -0.8265(5)
C64 C 0.0615(6) 0.1535(6) -0.7866(5)
H35 H 0.02420 0.16060 -0.79160
C65 C 0.0649(6) 0.1558(5) -0.7406(5)
H36 H 0.02870 0.16120 -0.71210
C66 C 0.1206(6) 0.1505(5) -0.7338(5)
C67 C 0.1712(6) 0.1451(6) -0.7779(5)
H37 H 0.21160 0.14530 -0.77800
C68 C 0.1649(6) 0.1393(5) -0.8221(5)
H38 H 0.20060 0.13370 -0.85070
C69 C 0.2931(5) -0.0628(4) -0.4981(5)
C70 C 0.2614(5) -0.0145(4) -0.5263(5)
C71 C 0.2848(6) 0.0187(5) -0.5895(5)
H39 H 0.32270 0.01310 -0.61590
C72 C 0.2528(6) 0.0604(5) -0.6147(5)
H40 H 0.26910 0.08210 -0.65810
C73 C 0.1996(6) 0.0708(5) -0.5793(5)
C74 C 0.1776(6) 0.0398(5) -0.5172(5)
H41 H 0.14060 0.04740 -0.49200
C75 C 0.2072(6) -0.0034(5) -0.4881(5)
H42 H 0.19100 -0.02380 -0.44470
C76 C 0.0924(6) 0.1781(5) -0.6052(5)
C77 C 0.0904(6) 0.1807(5) -0.6543(5)
H43 H 0.06480 0.20400 -0.67050
C78 C 0.1251(6) 0.1497(5) -0.6806(5)
C79 C 0.1583(6) 0.1141(5) -0.6542(5)
H44 H 0.18030 0.09110 -0.67130
C80 C 0.1620(6) 0.1092(5) -0.6051(5)
C81 C 0.1269(6) 0.1420(5) -0.5803(5)
H45 H 0.12690 0.13930 -0.54510
C82 C -0.1010(5) 0.3883(4) -0.3998(5)
C83 C -0.0717(4) 0.4100(4) -0.3721(4)
C84 C -0.0216(4) 0.4605(4) -0.4083(4)
H46 H -0.00810 0.48500 -0.45110
C85 C 0.0086(5) 0.4752(4) -0.3825(4)
H47 H 0.04320 0.51000 -0.40810
C86 C -0.0092(4) 0.4415(4) -0.3204(4)
C87 C -0.0618(5) 0.3920(4) -0.2845(4)
H48 H -0.07660 0.36860 -0.24140
C88 C -0.0927(4) 0.3762(4) -0.3095(4)
H49 H -0.12820 0.34230 -0.28400
C89 C 0.0967(7) 0.2133(5) -0.0357(5)
C90 C 0.0877(6) 0.2665(5) -0.0788(5)
C91 C 0.1391(6) 0.3164(5) -0.1205(5)
H50 H 0.17800 0.31670 -0.11770
C92 C 0.1332(5) 0.3667(4) -0.1670(5)
H51 H 0.16850 0.40090 -0.19610
C93 C 0.0756(5) 0.3666(4) -0.1706(5)
C94 C 0.0241(5) 0.3165(4) -0.1260(5)
H52 H -0.01510 0.31600 -0.12810
C95 C 0.0281(6) 0.2684(4) -0.0797(5)
H53 H -0.00880 0.23620 -0.04810
C96 C 0.2559(5) 0.7560(4) -0.3993(5)
C97 C 0.2109(5) 0.6994(4) -0.3738(4)
C98 C 0.1804(5) 0.6595(4) -0.3098(4)
H54 H 0.18570 0.67070 -0.28360
C99 C 0.1425(5) 0.6035(4) -0.2849(4)
H55 H 0.12400 0.57590 -0.24190
C100 C 0.1311(4) 0.5873(4) -0.3208(4)
C101 C 0.1570(5) 0.6275(4) -0.3829(4)
H56 H 0.14750 0.61760 -0.40790
C102 C 0.1976(5) 0.6834(4) -0.4092(4)
H57 H 0.21620 0.71060 -0.45240
C103 C 0.0282(4) 0.4557(4) -0.2947(4)
C104 C 0.0345(4) 0.4079(4) -0.2466(4)
H58 H 0.01440 0.36790 -0.23120
C105 C 0.0687(5) 0.4180(4) -0.2218(4)
C106 C 0.0993(5) 0.4770(4) -0.2454(4)
H59 H 0.12280 0.48430 -0.22770
C107 C 0.0957(4) 0.5256(4) -0.2949(4)
C108 C 0.0603(4) 0.5141(4) -0.3189(4)
H60 H 0.05770 0.54640 -0.35250
In2* In -0.65593(3) -0.14724(3) -0.44867(3)
In2** In 0.34407(3) -0.14724(3) -0.44867(3)
In2*** In 0.34407(3) 0.85276(3) -0.44867(3)
In3* In -0.90165(4) 0.10519(4) 0.04836(3)
In3** In 0.09835(4) 0.10519(4) -0.95164(3)
In3*** In 0.09835(4) 0.10519(4) 0.04836(3)
O9* O -0.5873(3) 0.9240(3) -0.4575(3)
O10* O -0.6593(3) 0.8539(3) -0.3658(3)
O11* O 0.1274(4) 1.0768(3) -1.0295(4)
O12* O 0.1913(4) 1.0875(4) -0.9944(3)
O15* O 0.0541(4) 1.1333(4) -0.8764(3)
O16* O 0.1489(4) 1.1209(3) -0.9068(3)
O17* O -0.6586(3) 0.9281(3) -0.5320(3)
O18* O -0.7330(3) 0.9058(3) -0.4399(3)
O21* O 0.0477(4) 1.1661(3) -0.9966(3)
O22* O 0.1468(4) 1.2064(3) -1.0309(3)
O23* O -0.7342(3) 0.7692(3) -0.3653(3)
O24* O -0.7141(3) 0.7900(3) -0.4573(3)
#END
