
#######################################################################
#
#                 Cambridge Crystallographic Data Centre
#                                CCDC
#
#######################################################################
#
# If this CIF has been generated from an entry in the Cambridge
# Structural Database, then it will include bibliographic, chemical,
# crystal, experimental, refinement or atomic coordinate data resulting
# from the CCDC's data processing and validation procedures.
#
#######################################################################

data_CSD_CIF_SORYUW
_audit_creation_date 2019-09-15
_audit_creation_method CSD-ConQuest-V1
_database_code_CSD SORYUW
_database_code_depnum_ccdc_archive 'CCDC 1945185'
_chemical_formula_sum 'C42 H51 Eu3 N6 O39'
_chemical_formula_moiety
;
(C42 H21 Eu3 N6 O25 2-)n,2(H3 O1 1+),12(H2 O1)
;
_journal_coden_Cambridge 208
_journal_volume 279
_journal_year 2019
_journal_page_first 120931
_journal_name_full 'J.Solid State Chem. '
loop_
_publ_author_name
"Yanmei Chen"
"Shanshan Liu"
"Rui Gao"
"Yang Wang"
"Wanju Zhang"
"Zhenghua Ju"
_chemical_name_systematic
;
catena-[bis(oxonium) 
tetrakis(\m-pyridine-2,4-dicarboxylato)-bis(pyridine-2,4-dicarboxylato)-(oxoni
um)-tri-europium dodecahydrate]
;
_cell_volume   4647.982
_exptl_crystal_colour 'colorless'
_exptl_crystal_density_diffrn 2.458
_exptl_special_details
;
Luminescent

;
_exptl_crystal_description 'prism'
_diffrn_ambient_temperature 173
_refine_special_details
;
Disordered water solvent molecules were not modelled and the disordered 
density was taken into account using the SQUEEZE/PLATON procedure.
;
#These two values have been output from a single CSD field.
_refine_ls_R_factor_gt 0.0875
_refine_ls_wR_factor_gt 0.0875
_symmetry_cell_setting tetragonal
_symmetry_space_group_name_H-M 'P 41 21 2'
_symmetry_Int_Tables_number 92
loop_
_symmetry_equiv_pos_site_id
_symmetry_equiv_pos_as_xyz
1 x,y,z
2 -x,-y,1/2+z
3 1/2+x,1/2-y,3/4-z
4 1/2-x,1/2+y,1/4-z
5 -y,-x,1/2-z
6 y,x,-z
7 1/2+y,1/2-x,3/4+z
8 1/2-y,1/2+x,1/4+z
_cell_length_a 9.483(4)
_cell_length_b 9.483(4)
_cell_length_c 51.686(19)
_cell_angle_alpha 90
_cell_angle_beta 90
_cell_angle_gamma 90
_cell_formula_units_Z 4
loop_
_atom_type_symbol
_atom_type_radius_bond
C 0.68
H 0.23
Eu 1.98
N 0.68
O 0.68
loop_
_atom_site_label
_atom_site_type_symbol
_atom_site_fract_x
_atom_site_fract_y
_atom_site_fract_z
Eu1 Eu -0.61020(11) 0.62504(11) 0.16314(2)
N1 N -0.606(3) 0.887(2) 0.1780(4)
O1 O -0.728(2) 0.7904(19) 0.1350(3)
C1 C -0.665(3) 0.984(3) 0.1610(4)
Eu2 Eu -0.52708(11) 0.52708(11) 0.25000
N2 N -0.872(2) 0.642(3) 0.1778(4)
C2 C -0.669(3) 1.114(3) 0.1665(5)
H1 H -0.70986 1.17690 0.15433
O2 O -0.774(2) 1.0046(18) 0.1208(3)
C3 C -0.614(3) 1.171(3) 0.1900(5)
O3 O -0.686(2) 1.4051(19) 0.1815(3)
C4 C -0.552(3) 1.071(3) 0.2073(5)
H2 H -0.51012 1.09991 0.22318
O4 O -0.559(2) 1.3612(18) 0.2168(3)
O5 O -0.6603(18) 0.642(2) 0.2111(3)
C5 C -0.555(3) 0.933(3) 0.1999(5)
H3 H -0.51640 0.86526 0.21146
C6 C -0.724(3) 0.921(3) 0.1367(4)
O6 O -0.7914(19) 0.547(2) 0.2416(3)
C7 C -0.614(3) 1.322(3) 0.1967(5)
O7 O -1.3327(18) 0.614(2) 0.2254(3)
C8 C -0.907(3) 0.618(3) 0.2029(5)
O8 O -1.3921(19) 0.650(2) 0.1844(3)
C9 C -1.043(3) 0.621(3) 0.2111(5)
H4 H -1.06297 0.61321 0.22908
O9 O -0.450(5) 0.427(4) 0.1560(8)
C10 C -1.150(3) 0.636(3) 0.1941(5)
O10 O -0.324(5) 0.302(4) 0.1318(9)
C11 C -1.120(3) 0.653(3) 0.1685(5)
H5 H -1.19257 0.66068 0.15595
O11 O -0.288(5) 0.468(4) 0.0419(9)
C12 C -0.980(3) 0.658(3) 0.1615(5)
H6 H -0.95913 0.67409 0.14382
O12 O -0.311(5) 0.692(4) 0.0322(8)
O13 O -0.341(2) 0.341(2) 0.25000
C13 C -0.778(3) 0.605(3) 0.2196(5)
C14 C -1.308(3) 0.635(3) 0.2020(5)
N3 N -0.437(4) 0.648(4) 0.1240(6)
C15 C -0.378(5) 0.520(4) 0.1169(7)
C16 C -0.327(5) 0.501(4) 0.0919(8)
H7 H -0.28593 0.41321 0.08707
C17 C -0.336(5) 0.610(5) 0.0740(6)
C18 C -0.395(5) 0.738(4) 0.0811(7)
H8 H -0.40133 0.81264 0.06891
C19 C -0.446(4) 0.757(3) 0.1061(8)
H9 H -0.48699 0.84469 0.11096
C20 C -0.398(7) 0.414(4) 0.1336(9)
C21 C -0.300(7) 0.595(4) 0.0491(6)
O14 O -0.216(4) 0.443(4) -0.0039(7)
H10 H -0.19866 0.51634 -0.01290
H11 H -0.30080 0.42054 -0.00722
H12 H -0.21471 0.46961 0.01180
H13? H -0.28345 0.35576 0.26235
H14? H -0.37871 0.26092 0.25195
H15? H -0.29664 0.34262 0.23570
Eu1D Eu -0.62504(11) 0.61020(11) 0.33686(2)
N1D N -0.887(3) 0.606(2) 0.3220(4)
O1D O -0.7904(20) 0.7280(19) 0.3650(3)
C1D C -0.984(3) 0.665(3) 0.3390(4)
N2D N -0.642(2) 0.872(3) 0.3222(4)
C2D C -1.114(3) 0.669(3) 0.3335(5)
H1D H -1.17690 0.70986 0.34567
O2D O -1.0046(20) 0.7740(18) 0.3792(3)
C3D C -1.171(3) 0.614(3) 0.3100(5)
O3D O -1.4051(20) 0.6860(19) 0.3185(3)
C4D C -1.071(3) 0.552(3) 0.2927(5)
H2D H -1.09991 0.51012 0.27682
O4D O -1.3612(20) 0.5590(18) 0.2832(3)
O5D O -0.6420(18) 0.6603(20) 0.2889(3)
C5D C -0.933(3) 0.555(3) 0.3001(5)
H3D H -0.86526 0.51640 0.28854
C6D C -0.921(3) 0.724(3) 0.3633(4)
O6D O -0.5470(19) 0.7914(20) 0.2584(3)
C7D C -1.322(3) 0.614(3) 0.3033(5)
O7D O -0.6140(18) 1.3327(20) 0.2746(3)
C8D C -0.618(3) 0.907(3) 0.2971(5)
O8D O -0.6500(19) 1.3921(20) 0.3156(3)
C9D C -0.621(3) 1.043(3) 0.2889(5)
H4D H -0.61321 1.06297 0.27092
O9D O -0.427(5) 0.450(4) 0.3440(8)
C10D C -0.636(3) 1.150(3) 0.3059(5)
O10D O -0.302(5) 0.324(4) 0.3682(9)
C11D C -0.653(3) 1.120(3) 0.3315(5)
H5D H -0.66068 1.19257 0.34405
O11D O -0.468(5) 0.288(4) 0.4581(9)
C12D C -0.658(3) 0.980(3) 0.3385(5)
H6D H -0.67409 0.95913 0.35618
O12D O -0.692(5) 0.311(4) 0.4678(8)
C13D C -0.605(3) 0.778(3) 0.2804(5)
C14D C -0.635(3) 1.308(3) 0.2980(5)
N3D N -0.648(4) 0.437(4) 0.3760(6)
C15D C -0.520(5) 0.378(4) 0.3831(7)
C16D C -0.501(5) 0.327(4) 0.4081(8)
H7D H -0.41321 0.28593 0.41293
C17D C -0.610(5) 0.336(5) 0.4260(6)
C18D C -0.738(5) 0.395(4) 0.4189(7)
H8D H -0.81264 0.40133 0.43109
C19D C -0.757(4) 0.446(3) 0.3939(8)
H9D H -0.84469 0.48699 0.38904
C20D C -0.414(7) 0.398(4) 0.3664(9)
C21D C -0.595(7) 0.300(4) 0.4509(6)
Eu1* Eu -1.61020(11) 0.62504(11) 0.16314(2)
Eu1** Eu -0.61020(11) 1.62504(11) 0.16314(2)
Eu1C Eu -0.88980(11) 1.12504(11) 0.08686(2)
Eu1D* Eu -1.62504(11) 0.61020(11) 0.33686(2)
Eu1D** Eu -0.62504(11) 1.61020(11) 0.33686(2)
Eu1G Eu -1.12504(11) 0.88980(11) 0.41314(2)
Eu2* Eu -1.52708(11) 0.52708(11) 0.25000
Eu2** Eu -0.52708(11) 1.52708(11) 0.25000
O2C O -0.726(2) 0.5046(18) 0.1292(3)
O2G O -0.5046(20) 0.7260(18) 0.3708(3)
O3* O -0.686(2) 0.4051(19) 0.1815(3)
O3D* O -0.4051(20) 0.6860(19) 0.3185(3)
O4* O -0.559(2) 0.3612(18) 0.2168(3)
O4D* O -0.3612(20) 0.5590(18) 0.2832(3)
O7* O -0.3327(18) 0.614(2) 0.2254(3)
O7D* O -0.6140(18) 0.3327(20) 0.2746(3)
O8* O -0.3921(19) 0.650(2) 0.1844(3)
O8D* O -0.6500(19) 0.3921(20) 0.3156(3)
#END
