
#######################################################################
#
#                 Cambridge Crystallographic Data Centre
#                                CCDC
#
#######################################################################
#
# If this CIF has been generated from an entry in the Cambridge
# Structural Database, then it will include bibliographic, chemical,
# crystal, experimental, refinement or atomic coordinate data resulting
# from the CCDC's data processing and validation procedures.
#
#######################################################################

data_CSD_CIF_SOSYOQ
_audit_creation_date 2014-11-04
_audit_creation_method CSD-ConQuest-V1
_database_code_CSD SOSYOQ
_database_code_depnum_ccdc_archive 'CCDC 967393'
_chemical_formula_sum 'C30 H27 Ag2 Mn1 Mo11 N6 O39 P1'
_chemical_formula_moiety
;
(C20 H17 Ag2 Mn1 Mo11 N4 O39 P1 2-)n,n(C10 H10 N2 2+)
;
_journal_coden_Cambridge 971
_journal_volume 35
_journal_year 2014
_journal_page_first 33
_journal_name_full 'Solid State Sciences '
loop_
_publ_author_name
"Chun-Jing Zhang"
"Nan-Nan Huang"
"Da-Yu Yang"
"Ya-Guang Chen"
"Hai-Jun Pang"
_chemical_name_systematic
;
catena-[(\m~12~-phosphato)-bis(\m~3~-oxido)-bis(\m~2~-4,4'-bipyridine)-tricosa
kis(\m~2~-oxido)-(\m~2~-hydroxo)-nonaoxo-manganese-undeca-molybdenum-di-silver
 4,4'-bipyridinium]
;
_cell_volume   1370.129
_exptl_crystal_colour 'brown'
_exptl_crystal_density_diffrn 2.969
_exptl_crystal_description 'block'
_diffrn_ambient_temperature 293
#These two values have been output from a single CSD field.
_refine_ls_R_factor_gt 0.0619
_refine_ls_wR_factor_gt 0.0619
_symmetry_cell_setting triclinic
_symmetry_space_group_name_H-M 'P 1'
_symmetry_Int_Tables_number 1
loop_
_symmetry_equiv_pos_site_id
_symmetry_equiv_pos_as_xyz
1 x,y,z
_cell_length_a 10.815(5)
_cell_length_b 11.302(5)
_cell_length_c 12.496(6)
_cell_angle_alpha 97.223(6)
_cell_angle_beta 108.296(7)
_cell_angle_gamma 104.348(6)
_cell_formula_units_Z 1
loop_
_atom_type_symbol
_atom_type_radius_bond
C 0.68
H 0.23
Ag 1.45
Mn 1.61
Mo 1.54
N 0.68
O 0.68
P 1.05
loop_
_atom_site_label
_atom_site_type_symbol
_atom_site_fract_x
_atom_site_fract_y
_atom_site_fract_z
Mn1 Mn 0.1355(5) -0.0755(4) 0.9029(4)
Mo1 Mo -0.5122(3) -0.0789(3) 0.9030(2)
Mo2 Mo 0.0823(3) -0.0770(3) 1.1503(3)
Mo3 Mo 0.0465(3) 0.1947(3) 0.8594(3)
Mo4 Mo -0.4303(3) -0.0615(3) 0.6376(3)
Mo5 Mo -0.2836(3) 0.2085(3) 0.8808(3)
Mo6 Mo -0.1169(3) -0.0913(3) 0.6360(3)
Mo7 Mo -0.0656(3) -0.3351(3) 0.9257(3)
Mo8 Mo -0.3556(3) -0.3368(3) 0.6744(2)
Mo9 Mo -0.2492(3) -0.0514(3) 1.1576(3)
Mo10 Mo -0.0090(3) 0.2131(3) 1.1188(2)
Mo11 Mo -0.4014(3) -0.3327(3) 0.9507(3)
P1 P -0.1772(15) -0.0660(13) 0.9001(12)
O1 O -0.425(3) -0.037(2) 1.066(2)
O2 O -0.418(3) 0.098(2) 0.910(2)
O3 O -0.430(2) -0.3527(17) 0.7874(17)
O4 O 0.020(2) -0.257(2) 1.0918(19)
O5 O -0.235(3) -0.357(2) 0.967(2)
O6 O 0.075(3) 0.090(2) 1.155(2)
O7 O -0.111(3) 0.274(2) 0.8399(19)
O8 O -0.158(3) 0.269(3) 1.037(2)
O9 O 0.140(3) 0.312(2) 0.827(2)
O10 O -0.533(3) -0.248(2) 0.906(2)
O11 O 0.029(3) -0.112(2) 0.736(2)
O12 O 0.081(2) 0.2668(19) 1.0263(18)
O13 O -0.354(3) -0.243(2) 1.095(2)
O14 O -0.189(3) -0.361(3) 0.781(2)
O15 O -0.665(3) -0.055(2) 0.886(2)
O16 O -0.503(2) -0.474(2) 0.9503(19)
O17 O -0.093(2) -0.0993(19) 1.1747(17)
O18 O -0.230(3) -0.258(2) 0.596(2)
O19 O -0.295(2) -0.1090(18) 0.9504(16)
O20 O 0.076(3) -0.261(3) 0.892(3)
O21 O -0.063(2) -0.1199(18) 0.9470(17)
O22 O -0.341(2) 0.1026(18) 0.7318(19)
O23 O -0.508(2) -0.0937(18) 0.7557(18)
O24 O -0.060(3) 0.085(2) 0.716(2)
O25 O 0.182(2) -0.0662(19) 1.2897(18)
O26 O 0.060(3) 0.322(2) 1.239(2)
O27 O -0.052(3) -0.473(2) 0.931(3)
O28 O 0.162(4) 0.096(2) 0.912(2)
O29 O -0.293(2) -0.0483(19) 0.5740(18)
O30 O 0.197(3) -0.050(2) 1.074(2)
O31 O -0.163(2) 0.1052(18) 1.157(2)
O32 O -0.346(3) 0.331(2) 0.854(2)
O33 O -0.559(2) -0.0460(19) 0.5326(18)
O34 O -0.266(3) -0.035(2) 1.288(2)
O35 O -0.075(3) -0.079(2) 0.5183(19)
O36 O -0.462(3) -0.245(2) 0.604(2)
O37 O -0.242(2) -0.1195(16) 0.7687(16)
O38 O -0.435(2) -0.478(2) 0.5767(18)
O39 O -0.128(2) 0.0749(16) 0.9257(17)
Ag1 Ag 0.4421(4) -0.0403(3) 1.2239(3)
C1 C 0.439(4) -0.791(3) 1.128(3)
H1 H 0.43310 -0.83860 1.05910
C2 C 0.410(5) -0.479(4) 1.221(4)
C3 C 0.500(4) -0.375(3) 1.318(3)
H2 H 0.55930 -0.39040 1.38270
C4 C 0.434(4) -0.684(3) 1.136(3)
H3 H 0.44130 -0.64790 1.07370
C5 C 0.420(4) -0.605(3) 1.228(3)
C6 C 0.340(4) -0.449(3) 1.131(3)
H4 H 0.29210 -0.50700 1.06150
C7 C 0.439(4) -0.776(4) 1.318(3)
H5 H 0.43350 -0.81120 1.38060
C8 C 0.339(4) -0.325(3) 1.141(3)
H6 H 0.27080 -0.30870 1.08340
C9 C 0.429(3) -0.662(3) 1.326(3)
H7 H 0.42860 -0.61810 1.39360
C10 C 0.499(4) -0.262(4) 1.315(3)
H8 H 0.55350 -0.19980 1.38080
N1 N 0.454(3) -0.846(3) 1.236(3)
N2 N 0.424(3) -0.229(3) 1.225(3)
Ag2 Ag -0.7891(4) -0.0950(3) 0.5949(4)
C11 C -0.786(5) 0.656(4) 0.489(5)
H9 H -0.78290 0.69260 0.42720
C12 C -0.691(4) 0.193(4) 0.690(3)
H10 H -0.65040 0.17280 0.76040
C13 C -0.769(4) 0.530(3) 0.497(3)
H11 H -0.75080 0.48750 0.43780
C14 C -0.837(4) 0.125(4) 0.493(4)
H12 H -0.89420 0.06100 0.42840
C15 C -0.778(4) 0.471(4) 0.588(3)
C16 C -0.824(5) 0.260(4) 0.490(5)
H13 H -0.85630 0.28280 0.41970
C17 C -0.816(4) 0.669(3) 0.658(3)
H14 H -0.83270 0.71650 0.71460
C18 C -0.802(4) 0.539(3) 0.674(3)
H15 H -0.80930 0.50850 0.73820
C19 C -0.771(5) 0.342(4) 0.582(4)
C20 C -0.678(4) 0.317(4) 0.687(3)
H16 H -0.61480 0.38150 0.74800
N3 N -0.763(4) 0.098(3) 0.593(3)
N4 N -0.806(4) 0.711(3) 0.583(3)
C21 C -0.184(4) -0.609(4) 0.437(3)
C22 C -0.186(4) -0.493(3) 0.169(3)
H17 H -0.22540 -0.53260 0.09120
C23 C -0.168(4) -0.554(4) 0.557(3)
H18 H -0.12880 -0.46910 0.59020
C24 C -0.132(4) -0.317(4) 0.320(3)
H19 H -0.11210 -0.23160 0.34630
C25 C -0.148(5) -0.393(4) 0.391(3)
H20 H -0.14330 -0.36120 0.46500
C26 C -0.162(4) -0.557(4) 0.256(3)
H21 H -0.13640 -0.62840 0.24190
C27 C -0.189(5) -0.804(5) 0.489(4)
H22 H -0.16830 -0.87910 0.47930
C28 C -0.198(4) -0.733(4) 0.404(4)
H23 H -0.21230 -0.76820 0.32830
C29 C -0.220(4) -0.645(3) 0.616(3)
H24 H -0.25500 -0.62580 0.67280
C30 C -0.172(5) -0.528(4) 0.353(4)
N5 N -0.145(4) -0.365(3) 0.207(3)
N6 N -0.211(3) -0.762(3) 0.581(3)
Mn1* Mn -0.8645(5) -0.0755(4) 0.9029(4)
O1* O 0.575(3) -0.037(2) 1.066(2)
O15* O 0.335(3) -0.055(2) 0.886(2)
Ag1* Ag -0.5579(4) -0.0403(3) 1.2239(3)
Ag1** Ag 0.4421(4) -1.0403(3) 1.2239(3)
N1* N 0.454(3) 0.154(3) 1.236(3)
Ag2* Ag -0.7891(4) 0.9050(3) 0.5949(4)
N4* N -0.806(4) -0.289(3) 0.583(3)
#END
