
#######################################################################
#
#                 Cambridge Crystallographic Data Centre
#                                CCDC
#
#######################################################################
#
# If this CIF has been generated from an entry in the Cambridge
# Structural Database, then it will include bibliographic, chemical,
# crystal, experimental, refinement or atomic coordinate data resulting
# from the CCDC's data processing and validation procedures.
#
#######################################################################

data_CSD_CIF_SOXXUY
_audit_creation_date 1992-10-18
_audit_creation_method CSD-ConQuest-V1
_database_code_CSD SOXXUY
_database_code_depnum_ccdc_archive 'CCDC 1262925'
_chemical_formula_sum 'C10 H18 Bi1 N3 O9'
_chemical_formula_moiety
;
(C10 H12 Bi1 N2 O8 1-)n,n(H4 N1 1+),n(H2 O1)
;
_journal_coden_Cambridge 367
_journal_volume 17
_journal_year 1991
_journal_page_first 253
_journal_name_full 'Koord.Khim.(Russ.)(Coord.Chem.) '
loop_
_publ_author_name
"L.M.Shkol'nikova"
"K.D.Suyarov"
"R.L.Davidovich"
"V.S.Fundamenskii"
"N.M.Dyatlova"
_chemical_name_systematic
;
catena(Ammonium 
(\m~3~-ethylenediaminetetra-acetato-N,N',O,O,O',O',O'',O''')-bismuth(iii) 
monohydrate)
;
_cell_volume   1534.261
_diffrn_ambient_temperature ?
_diffrn_special_details
;
The study was carried out at room temperature,in the range 283-303K

;
#These two values have been output from a single CSD field.
_refine_ls_R_factor_gt 0.042
_refine_ls_wR_factor_gt 0.042
_symmetry_cell_setting monoclinic
_symmetry_space_group_name_H-M 'P 21/c'
_symmetry_Int_Tables_number 14
loop_
_symmetry_equiv_pos_site_id
_symmetry_equiv_pos_as_xyz
1 x,y,z
2 -x,1/2+y,1/2-z
3 -x,-y,-z
4 x,-1/2-y,-1/2+z
_cell_length_a 12.792(11)
_cell_length_b 9.165(7)
_cell_length_c 13.094(11)
_cell_angle_alpha 90
_cell_angle_beta 91.92(1)
_cell_angle_gamma 90
_cell_formula_units_Z 4
loop_
_atom_type_symbol
_atom_type_radius_bond
C 0.68
H 0.23
Bi 1.74
N 0.68
O 0.68
loop_
_atom_site_label
_atom_site_type_symbol
_atom_site_fract_x
_atom_site_fract_y
_atom_site_fract_z
Bi1 Bi 0.15906(4) 0.22053(4) 0.20111(3)
O1 O 0.1083(6) 0.2603(7) 0.3695(6)
O2 O 0.1174(7) 0.4033(8) 0.5081(6)
O3 O 0.1773(7) 0.4720(9) 0.1311(7)
O4 O 0.2837(7) 0.6616(8) 0.1095(7)
O5 O 0.3109(7) 0.1735(9) 0.1194(7)
O6 O 0.4490(9) 0.0332(11) 0.1026(10)
O7 O 0.0781(7) -0.0228(8) 0.2184(6)
O8 O 0.0521(7) -0.2078(9) 0.3276(7)
N1 N 0.2950(8) 0.3691(9) 0.2937(8)
N2 N 0.2680(7) 0.0536(9) 0.3089(7)
C1 C 0.2360(11) 0.4508(13) 0.3771(10)
C2 C 0.1478(9) 0.3646(11) 0.4235(9)
C3 C 0.341(1) 0.4755(1) 0.2234(10)
C4 C 0.2617(10) 0.5407(11) 0.1512(9)
C5 C 0.3771(9) 0.2731(13) 0.3417(9)
C6 C 0.3325(9) 0.1377(12) 0.3869(9)
C7 C 0.3354(11) -0.0260(12) 0.2342(10)
C8 C 0.3685(11) 0.0684(13) 0.1447(10)
C9 C 0.1989(11) -0.0521(14) 0.3607(9)
C10 C 0.1023(9) -0.0966(11) 0.2974(9)
H1 H 0.212(10) 0.527(12) 0.379(9)
H2 H 0.283(9) 0.478(11) 0.428(9)
H3 H 0.385(9) 0.426(12) 0.184(9)
H4 H 0.370(9) 0.551(12) 0.241(9)
H5 H 0.418(9) 0.304(12) 0.410(9)
H6 H 0.422(9) 0.249(11) 0.313(9)
H7 H 0.322(11) 0.123(10) 0.454(9)
H8 H 0.394(9) 0.080(11) 0.407(9)
H9 H 0.295(10) -0.114(11) 0.196(9)
H10 H 0.388(10) -0.059(12) 0.255(9)
H11 H 0.179(10) -0.013(9) 0.420(11)
H12 H 0.237(11) -0.134(9) 0.377(11)
O9 O 0.5684(11) 0.220(2) 0.5506(12)
H13 H 0.501(10) 0.293(11) 0.574(10)
H14 H 0.595(9) 0.242(10) 0.490(11)
N3 N 0.9084(11) 0.2825(13) 0.4627(10)
H15 H 0.897(8) 0.372(9) 0.477(11)
H16 H 0.845(10) 0.240(9) 0.463(10)
H17 H 0.966(9) 0.278(9) 0.405(11)
H18 H 0.931(10) 0.248(9) 0.53(1)
O2C O 0.1174(7) 0.0967(8) 0.0081(6)
O8A O -0.0521(7) 0.2922(9) 0.1724(7)
Bi1C Bi 0.15906(4) 0.27947(4) 0.70111(3)
Bi1A Bi -0.15906(4) -0.27947(4) 0.29889(3)
#END
