
#######################################################################
#
#                 Cambridge Crystallographic Data Centre
#                                CCDC
#
#######################################################################
#
# If this CIF has been generated from an entry in the Cambridge
# Structural Database, then it will include bibliographic, chemical,
# crystal, experimental, refinement or atomic coordinate data resulting
# from the CCDC's data processing and validation procedures.
#
#######################################################################

data_CSD_CIF_SOYCEP
_audit_creation_date 2009-07-30
_audit_creation_method CSD-ConQuest-V1
_database_code_CSD SOYCEP
_chemical_formula_sum 'C59 H108 Er1 K4 N7 O26 S7'
_chemical_formula_moiety
;
(C30 H48 Er1 K2 N6 O12 S6 1-)n,2n(C14 H30 K1 O7 1+),n(C1 N1 S1 1-)
;
_journal_coden_Cambridge 367
_journal_volume 34
_journal_year 2008
_journal_page_first 856
_journal_name_full 'Koord.Khim.(Russ.)(Coord.Chem.) '
loop_
_publ_author_name
"A.N.Chekhlov"
_chemical_name_systematic
;
catena-(bis((18-Crown-6)-(ethanol)-potassium) 
bis(\m~2~-18-crown-6)-bis(\m~2~-thiocyanato-N,S)-tetrakis(isothiocyanato-N)-er
bium(iii)-di-potassium thiocyanate)
;
_cell_volume   4489.593
_exptl_crystal_colour 'light pink'
_exptl_crystal_density_diffrn 1.39
_exptl_crystal_description 'prism'
_exptl_crystal_preparation 'ethanol'
_diffrn_ambient_temperature 295
_refine_special_details
;
An 18-crown-6 ring is disordered over two sites with occupancies 0.909:0.091. 
A C atom from the ethanol group is disordered over two sites with occupancies 
0.70:0.30. The thiocyanate anion is disordered by symmetry.
;
#These two values have been output from a single CSD field.
_refine_ls_R_factor_gt 0.028
_refine_ls_wR_factor_gt 0.028
_symmetry_cell_setting monoclinic
_symmetry_space_group_name_H-M 'P 21/c'
_symmetry_Int_Tables_number 14
loop_
_symmetry_equiv_pos_site_id
_symmetry_equiv_pos_as_xyz
1 x,y,z
2 -x,1/2+y,1/2-z
3 -x,-y,-z
4 x,-1/2-y,-1/2+z
_cell_length_a 14.473(3)
_cell_length_b 15.494(3)
_cell_length_c 20.078(3)
_cell_angle_alpha 90
_cell_angle_beta 94.32(2)
_cell_angle_gamma 90
_cell_formula_units_Z 2
loop_
_atom_type_symbol
_atom_type_radius_bond
C 0.64
H 0.23
Er 1.87
K 1.88
N 0.65
O 0.68
S 1.31
loop_
_atom_site_label
_atom_site_type_symbol
_atom_site_fract_x
_atom_site_fract_y
_atom_site_fract_z
Er1 Er 0.50000 0.50000 0.00000
S1 S 0.48908(8) 0.26277(7) 0.17359(6)
C1 C 0.4914(2) 0.3352(2) 0.1164(2)
N1 N 0.4925(2) 0.3878(2) 0.0758(2)
S2 S 0.28307(9) 0.66487(9) 0.13788(6)
C2 C 0.3566(3) 0.6165(2) 0.0945(2)
N2 N 0.4066(3) 0.5815(2) 0.0634(2)
S3 S 0.21237(9) 0.39483(9) -0.13488(6)
C3 C 0.3042(3) 0.4265(2) -0.0921(2)
N3 N 0.3694(2) 0.4485(2) -0.0606(2)
S4 S -0.0403(8) 0.0625(6) 0.0277(3)
C4 C 0.0078(14) -0.0158(12) -0.0113(10)
N4 N -0.0375(19) 0.0665(14) 0.0463(11)
O1 O -0.0078(5) 0.1533(4) 0.1728(4)
H1 H -0.02900 0.12440 0.13410
C5 C 0.0201(7) 0.1085(9) 0.2313(6)
C6? C -0.0494(26) 0.0941(22) 0.2289(17)
C7 C -0.0370(9) 0.0745(9) 0.2837(7)
K1 K 0.46354(5) 0.07649(5) 0.07987(4)
O2 O 0.5455(2) 0.1088(2) -0.0451(1)
C8 C 0.4872(3) 0.1557(3) -0.0919(2)
C9 C 0.4201(3) 0.2137(2) -0.0613(2)
O3 O 0.3599(2) 0.1628(2) -0.0257(1)
C10 C 0.2933(3) 0.2140(3) 0.0032(2)
C11 C 0.2322(3) 0.1562(4) 0.0399(3)
O4 O 0.2870(2) 0.1182(3) 0.0934(2)
C12 C 0.2331(5) 0.0744(6) 0.1383(4)
C13 C 0.2943(5) 0.0561(7) 0.1997(4)
O5 O 0.3786(3) 0.0143(3) 0.1877(2)
C14 C 0.4362(3) -0.0175(4) 0.2418(2)
C15 C 0.5274(4) 0.0269(4) 0.2498(2)
O6 O 0.5738(2) 0.0195(2) 0.1908(2)
C16 C 0.6600(3) 0.0629(3) 0.1954(3)
C17 C 0.7041(4) 0.0542(4) 0.1311(2)
O7 O 0.6502(2) 0.0971(2) 0.0798(2)
C18 C 0.6884(4) 0.0946(5) 0.0170(2)
C19 C 0.6311(3) 0.1511(3) -0.0298(2)
K2 K 0.00233(6) 0.33163(8) 0.17687(4)
O8 O -0.0270(2) 0.3762(2) 0.0433(1)
C20 C -0.1044(2) 0.3322(3) 0.0133(2)
C21 C -0.1873(2) 0.3532(3) 0.0501(2)
O9 O -0.1742(2) 0.3198(2) 0.1158(1)
C22 C -0.2476(2) 0.3429(3) 0.1549(2)
C23 C -0.2290(3) 0.3087(3) 0.2234(2)
O10 O -0.1499(2) 0.3497(2) 0.2548(1)
C24 C -0.1324(3) 0.3231(4) 0.3216(2)
C25 C -0.0457(3) 0.3620(4) 0.3512(2)
O11 O 0.0287(2) 0.3348(2) 0.3144(1)
C26 C 0.1154(3) 0.3568(4) 0.3466(2)
C27 C 0.1896(3) 0.3289(4) 0.3041(2)
O12 O 0.1798(2) 0.3743(2) 0.2426(2)
C28 C 0.2511(3) 0.3522(3) 0.2013(2)
C29 C 0.2351(2) 0.4008(3) 0.1375(2)
O13 O 0.1536(2) 0.3679(2) 0.1026(2)
C30 C 0.1310(3) 0.4148(4) 0.0434(2)
C31 C 0.0518(2) 0.3710(4) 0.0056(2)
O14? O 0.6266(18) 0.0758(18) 0.0024(14)
C32? C 0.6165(25) 0.1285(25) -0.0551(20)
C33? C 0.5517(25) 0.2025(25) -0.0501(20)
O15? O 0.4929(18) 0.1700(18) -0.0407(14)
C34? C 0.3959(25) 0.2351(25) -0.0361(20)
C35? C 0.3028(25) 0.1958(25) -0.0307(20)
O16? O 0.3065(18) 0.1421(18) 0.0264(14)
C36? C 0.2214(25) 0.1008(25) 0.0361(20)
C37? C 0.2218(25) 0.0826(25) 0.1084(20)
O17? O 0.3003(18) 0.0354(18) 0.1338(14)
C38? C 0.3035(25) 0.0240(25) 0.2036(20)
C39? C 0.3924(25) -0.0093(25) 0.2305(20)
O18? O 0.4723(18) 0.0328(18) 0.2153(14)
C40? C 0.5564(25) -0.0096(25) 0.2318(20)
C41? C 0.6388(25) 0.0387(25) 0.2107(20)
O19? O 0.6313(18) 0.0448(18) 0.1412(14)
C42? C 0.7121(25) 0.0453(25) 0.1064(20)
C43? C 0.7011(25) 0.1029(25) 0.0475(20)
S1B S 0.51092(8) 0.73723(7) -0.17359(6)
S1B* S 0.51092(8) -0.26277(7) -0.17359(6)
C1B C 0.5086(2) 0.6648(2) -0.1164(2)
N1B N 0.5075(2) 0.6122(2) -0.0758(2)
S2B S 0.71693(9) 0.33513(9) -0.13788(6)
C2B C 0.6434(3) 0.3835(2) -0.0945(2)
N2B N 0.5934(3) 0.4185(2) -0.0634(2)
S3B S 0.78763(9) 0.60517(9) 0.13488(6)
C3B C 0.6958(3) 0.5735(2) 0.0921(2)
N3B N 0.6306(2) 0.5515(2) 0.0606(2)
S4B S 0.0403(8) -0.0625(6) -0.0277(3)
C4B C -0.0078(14) 0.0158(12) 0.0113(10)
N4B N 0.0375(19) -0.0665(14) -0.0463(11)
K1B K 0.53646(5) 0.92351(5) -0.07987(4)
K1B* K 0.53646(5) -0.07649(5) -0.07987(4)
O2B O 0.4545(2) -0.1088(2) 0.0451(1)
C8B C 0.5128(3) -0.1557(3) 0.0919(2)
C9B C 0.5799(3) -0.2137(2) 0.0613(2)
O3B O 0.6401(2) -0.1628(2) 0.0257(1)
C10B C 0.7067(3) -0.2140(3) -0.0032(2)
C11B C 0.7678(3) -0.1562(4) -0.0399(3)
O4B O 0.7130(2) -0.1182(3) -0.0934(2)
C12B C 0.7669(5) -0.0744(6) -0.1383(4)
C13B C 0.7057(5) -0.0561(7) -0.1997(4)
O5B O 0.6214(3) -0.0143(3) -0.1877(2)
C14B C 0.5638(3) 0.0175(4) -0.2418(2)
C15B C 0.4726(4) -0.0269(4) -0.2498(2)
O6B O 0.4262(2) -0.0195(2) -0.1908(2)
C16B C 0.3400(3) -0.0629(3) -0.1954(3)
C17B C 0.2959(4) -0.0542(4) -0.1311(2)
O7B O 0.3498(2) -0.0971(2) -0.0798(2)
C18B C 0.3116(4) -0.0946(5) -0.0170(2)
C19B C 0.3689(3) -0.1511(3) 0.0298(2)
#END
