
#######################################################################
#
#                 Cambridge Crystallographic Data Centre
#                                CCDC
#
#######################################################################
#
# If this CIF has been generated from an entry in the Cambridge
# Structural Database, then it will include bibliographic, chemical,
# crystal, experimental, refinement or atomic coordinate data resulting
# from the CCDC's data processing and validation procedures.
#
#######################################################################

data_CSD_CIF_SOZYAH
_audit_creation_date 1992-11-25
_audit_creation_method CSD-ConQuest-V1
_database_code_CSD SOZYAH
_chemical_formula_sum 'C23 H68 Cu4 Gd2 N6 O47'
_chemical_formula_moiety
;
(C23 H28 Cu3 Gd2 N6 O27 2-)n,n(H10 Cu1 O5 2+),15n(H2 O1)
;
_journal_coden_Cambridge 9
_journal_volume 31
_journal_year 1992
_journal_page_first 110
_journal_name_full 'Inorg.Chem. '
loop_
_publ_author_name
"O.Guillou"
"P.Bergerat"
"O.Kahn"
"E.Bakalbassis"
"K.Boubekeur"
"P.Batail"
"M.Guillot"
_chemical_name_systematic
;
catena-(Penta-aqua-copper(ii) 
tris(\m~2~-1,3-propylene-bis(oxamato-O,O',N,N'))-(\m~2~-oxalato-O,O',O'',O''')
-pentaaqua-tri-copper-di-gadolinium(iii)) pentadecahydrate
;
_cell_volume   6735.689
_exptl_crystal_colour 'blue'
_exptl_crystal_density_diffrn 1.726
_exptl_special_details
;
Air-sensitive

;
_diffrn_ambient_temperature ?
_diffrn_special_details
;
The study was carried out at room temperature,in the range 283-303K

;
_refine_special_details
;
The penta-aqua cations are disordered over two sets of positions with 0.5 
occupancies. The Cu(pba) group between the strands is disordered (O21-23, 
C23-25) with O21 and O22 a mixture of oxygen and nitrogen atoms.
;
#These two values have been output from a single CSD field.
_refine_ls_R_factor_gt 0.052
_refine_ls_wR_factor_gt 0.052
_symmetry_cell_setting monoclinic
_symmetry_space_group_name_H-M 'C 2/m'
_symmetry_Int_Tables_number 12
loop_
_symmetry_equiv_pos_site_id
_symmetry_equiv_pos_as_xyz
1 x,y,z
2 1/2+x,1/2+y,z
3 -x,y,-z
4 1/2-x,1/2+y,-z
5 -x,-y,-z
6 -1/2-x,-1/2-y,-z
7 x,-y,z
8 -1/2+x,-1/2-y,z
_cell_length_a 21.186(7)
_cell_length_b 21.098(2)
_cell_length_c 15.079(1)
_cell_angle_alpha 90
_cell_angle_beta 92.06(2)
_cell_angle_gamma 90
_cell_formula_units_Z 4
loop_
_atom_type_symbol
_atom_type_radius_bond
C 0.70
Cu 1.50
Gd 1.79
N 0.68
O 0.68
loop_
_atom_site_label
_atom_site_type_symbol
_atom_site_fract_x
_atom_site_fract_y
_atom_site_fract_z
Gd1 Gd 0.24095(2) 0.15001(2) 0.35286(3)
Cu1 Cu 0.48967(6) 0.25788(6) 0.3780(1)
Cu2 Cu 0.25000 0.25000 0.00000
O1 O 0.2543(3) 0.0530(3) 0.4328(5)
O2 O 0.2266(4) 0.0537(4) 0.2613(5)
O3 O 0.3537(3) 0.1321(3) 0.3888(5)
O4 O 0.3021(3) 0.2474(3) 0.3658(6)
O5 O 0.3047(4) 0.1616(4) 0.2196(5)
O6 O 0.1826(4) 0.1888(4) 0.2251(6)
O7 O 0.1319(3) 0.1196(3) 0.3773(5)
O8 O 0.1741(3) 0.2386(3) 0.3954(6)
O9 O 0.2504(4) 0.1644(4) 0.5145(5)
O10 O 0.5756(3) 0.2255(3) 0.3983(6)
O11 O 0.4506(3) 0.1740(4) 0.3928(6)
O12 O 0.4975(8) 0.2376(9) 0.220(1)
N1 N 0.5300(4) 0.3393(4) 0.3763(7)
N2 N 0.4040(4) 0.2884(4) 0.3725(7)
O13 O 0.3068(5) 0.2071(7) 0.0847(7)
O14 O 0.1874(5) 0.2317(7) 0.0860(7)
O15 O 0.281(2) 0.367(1) 0.082(2)
C1 C 0.2488(6) 0.00000 0.394(1)
C2 C 0.2318(7) 0.00000 0.296(1)
C3 C 0.3908(4) 0.1774(5) 0.3857(7)
C4 C 0.3621(4) 0.2445(5) 0.3732(7)
C5 C 0.1151(5) 0.2310(5) 0.3912(7)
C6 C 0.0913(4) 0.1634(5) 0.3800(7)
C7 C 0.3849(5) 0.3551(5) 0.360(1)
C8 C 0.4354(6) 0.3938(6) 0.321(1)
C9 C 0.4980(5) 0.4014(5) 0.361(1)
C10 C 0.2109(5) 0.2045(6) 0.1563(9)
C11 C 0.2811(6) 0.1888(6) 0.1562(9)
C12 C 0.373(2) 0.199(2) 0.073(3)
C13 C 0.402(5) 0.248(4) 0.038(6)
C14 C 0.123(2) 0.255(2) 0.076(3)
Cu3? Cu 0.4592(3) 0.00000 0.5797(5)
Cu4 Cu 0.5820(3) 0.00000 0.3786(6)
O16? O 0.516(3) 0.063(3) 0.305(4)
O17? O 0.419(3) 0.00000 0.386(4)
O18? O 0.50000 0.076(2) 0.50000
O19 O 0.608(2) 0.00000 0.541(3)
O20 O 0.631(2) 0.095(2) 0.406(2)
O21 O 0.498(3) 0.070(4) 0.411(4)
O22 O 0.294(2) 0.50000 0.391(2)
O23 O 0.725(1) 0.153(1) 0.249(2)
O24 O 0.8876(7) 0.00000 0.523(1)
O25 O 0.403(2) 0.078(2) 0.196(2)
O26 O 0.095(1) 0.074(2) 0.161(2)
O27 O 0.233(2) -0.054(2) 0.061(3)
O28 O 0.191(3) 0.00000 0.805(3)
O29 O -0.003(3) 0.143(2) 0.086(3)
O13E O 0.1932(5) 0.2929(7) -0.0847(7)
O14E O 0.3126(5) 0.2683(7) -0.0860(7)
C5G C 0.6151(5) 0.2690(5) 0.3912(7)
C6G C 0.5913(4) 0.3366(5) 0.3800(7)
O1F O 0.2543(3) -0.0530(3) 0.4328(5)
O2F O 0.2266(4) -0.0537(4) 0.2613(5)
O10G O 0.0756(3) 0.2745(3) 0.3983(6)
N1G N 0.0300(4) 0.1607(4) 0.3763(7)
C14E C 0.377(2) 0.245(2) -0.076(3)
C13E C 0.098(5) 0.252(4) -0.038(6)
O20F O 0.631(2) -0.095(2) 0.406(2)
O21F O 0.498(3) -0.070(4) 0.411(4)
#END
