
#######################################################################
#
#                 Cambridge Crystallographic Data Centre
#                                CCDC
#
#######################################################################
#
# If this CIF has been generated from an entry in the Cambridge
# Structural Database, then it will include bibliographic, chemical,
# crystal, experimental, refinement or atomic coordinate data resulting
# from the CCDC's data processing and validation procedures.
#
#######################################################################

data_CSD_CIF_SRPHCU
_audit_creation_date 1978-06-15
_audit_creation_method CSD-ConQuest-V1
_database_code_CSD SRPHCU
_database_code_depnum_ccdc_archive 'CCDC 1263242'
_chemical_formula_sum 'C16 H14 Cu1 O11 Sr1'
_chemical_formula_moiety
;
(C16 H8 Cu1 O8 2-)n,n(Sr1 2+),3n(H2 O1)
;
_journal_coeditor_code "IUCr A15784"
_journal_coden_Cambridge 107
_journal_volume 34
_journal_year 1978
_journal_page_first 406
_journal_name_full 'Acta Crystallogr.,Sect.B:Struct.Crystallogr.Cryst.Chem. '
loop_
_publ_author_name
"M.B.Cingi"
"A.M.M.Lanfredi"
"A.Tiripicchio"
"M.Tiripicchio Camellini"
_chemical_name_systematic
;
catena-(Strontium bis(\m~2~-o-phthalato)- copper(ii) trihydrate)
;
_cell_volume   1783.300
_exptl_crystal_density_diffrn 1.99
_diffrn_ambient_temperature ?
_diffrn_special_details
;
The study was carried out at room temperature,in the range 283-303K

;
#These two values have been output from a single CSD field.
_refine_ls_R_factor_gt 0.037
_refine_ls_wR_factor_gt 0.037
_symmetry_cell_setting monoclinic
_symmetry_space_group_name_H-M 'C 2/c'
_symmetry_Int_Tables_number 15
loop_
_symmetry_equiv_pos_site_id
_symmetry_equiv_pos_as_xyz
1 x,y,z
2 1/2+x,1/2+y,z
3 -x,y,1/2-z
4 1/2-x,1/2+y,1/2-z
5 -x,-y,-z
6 -1/2-x,-1/2-y,-z
7 x,-y,-1/2+z
8 -1/2+x,-1/2-y,-1/2+z
_cell_length_a 22.144(18)
_cell_length_b 9.122(9)
_cell_length_c 9.083(8)
_cell_angle_alpha 90
_cell_angle_beta 103.6(1)
_cell_angle_gamma 90
_cell_formula_units_Z 4
loop_
_atom_type_symbol
_atom_type_radius_bond
C 0.68
H 0.23
Cu 1.52
O 0.68
Sr 1.12
loop_
_atom_site_label
_atom_site_type_symbol
_atom_site_fract_x
_atom_site_fract_y
_atom_site_fract_z
Cu1 Cu 0.00000 0.00000 0.50000
O1 O -0.04030 0.19260 0.46390
O2 O -0.10040 0.35850 0.53090
O3 O -0.06580 -0.07820 0.26360
O4 O -0.06550 0.08850 0.08510
C1 C -0.14930 0.19830 0.33520
C2 C -0.14550 0.10330 0.21570
C3 C -0.19940 0.06640 0.11010
C4 C -0.25700 0.11860 0.12440
C5 C -0.26090 0.20880 0.24300
C6 C -0.20770 0.24880 0.34680
C7 C -0.09360 0.25110 0.45220
C8 C -0.08690 0.03080 0.19120
H1 H -0.20000 0.00600 0.01800
H2 H -0.29900 0.07200 0.06200
H3 H -0.29900 0.23500 0.26000
H4 H -0.21200 0.31800 0.42600
Sr1 Sr 0.00000 -0.31410 0.25000
O5 O 0.00000 0.40650 0.25000
H5 H 0.01100 0.35200 0.19400
O6 O 0.07860 -0.36370 0.08520
H6 H 0.09200 -0.43800 0.03800
H7 H 0.07800 -0.29000 0.04200
Cu1B Cu 0.00000 0.00000 0.00000
O1D O 0.04030 -0.19260 0.53610
C7D C 0.09360 -0.25110 0.54780
O2D O 0.10040 -0.35850 0.46910
C1D C 0.14930 -0.19830 0.66480
C2D C 0.14550 -0.10330 0.78430
C3D C 0.19940 -0.06640 0.88990
C4D C 0.25700 -0.11860 0.87560
C5D C 0.26090 -0.20880 0.75700
C6D C 0.20770 -0.24880 0.65320
H4D H 0.21200 -0.31800 0.57400
H3D H 0.29900 -0.23500 0.74000
H2D H 0.29900 -0.07200 0.93800
H1D H 0.20000 -0.00600 0.98200
C8D C 0.08690 -0.03080 0.80880
O3D O 0.06580 0.07820 0.73640
O4B O 0.06550 0.08850 0.41490
O4F O -0.06550 -0.08850 0.58510
O4D O 0.06550 -0.08850 0.91490
Cu1B* Cu 0.00000 0.00000 1.00000
H5B H -0.01100 0.35200 0.30600
#END
