
#######################################################################
#
#                 Cambridge Crystallographic Data Centre
#                                CCDC
#
#######################################################################
#
# If this CIF has been generated from an entry in the Cambridge
# Structural Database, then it will include bibliographic, chemical,
# crystal, experimental, refinement or atomic coordinate data resulting
# from the CCDC's data processing and validation procedures.
#
#######################################################################

data_CSD_CIF_SUDBOI
_audit_creation_date 1992-11-16
_audit_creation_method CSD-ConQuest-V1
_database_code_CSD SUDBOI
_database_code_depnum_ccdc_fiz 'CSD 55296'
_chemical_formula_sum 'C10 H20 Na2 O17 Zn1'
_chemical_formula_moiety
;
(C10 H2 O8 Zn1 2-)n,2n(Na1 1+),9n(H2 O1)
;
_journal_coden_Cambridge 287
_journal_volume 27
_journal_year 1992
_journal_page_first 99
_journal_name_full 'Mater.Res.Bull. '
loop_
_publ_author_name
"C.Robl"
_chemical_name_systematic
;
catena(Di-sodium (\m~2~-pyromellitato-O,O',O'',O''')-zinc nonahydrate)
;
_cell_volume   1950.672
_exptl_crystal_colour 'colorless'
_exptl_crystal_density_diffrn 1.78
_diffrn_ambient_temperature ?
_diffrn_special_details
;
The study was carried out at room temperature,in the range 283-303K

;
#These two values have been output from a single CSD field.
_refine_ls_R_factor_gt 0.027
_refine_ls_wR_factor_gt 0.027
_symmetry_cell_setting monoclinic
_symmetry_space_group_name_H-M 'P 21/n'
_symmetry_Int_Tables_number 14
loop_
_symmetry_equiv_pos_site_id
_symmetry_equiv_pos_as_xyz
1 x,y,z
2 1/2-x,1/2+y,1/2-z
3 -x,-y,-z
4 -1/2+x,-1/2-y,-1/2+z
_cell_length_a 10.926(1)
_cell_length_b 13.917(1)
_cell_length_c 13.122(1)
_cell_angle_alpha 90
_cell_angle_beta 102.14(1)
_cell_angle_gamma 90
_cell_formula_units_Z 4
loop_
_atom_type_symbol
_atom_type_radius_bond
C 0.68
H 0.23
Na 0.97
O 0.68
Zn 1.45
loop_
_atom_site_label
_atom_site_type_symbol
_atom_site_fract_x
_atom_site_fract_y
_atom_site_fract_z
Zn1 Zn -0.25220(2) -0.53528(2) -0.50018(2)
Na1 Na 0.4182(1) 0.0483(1) -0.7181(1)
Na2 Na 0.5054(1) 0.2652(1) -0.7581(1)
O1 O 0.5897(2) 0.1052(1) -0.7852(1)
O2 O 0.2442(2) 0.0012(2) -0.6489(2)
O3 O 0.5031(2) 0.1845(1) -0.5939(2)
O4 O 0.5426(3) 0.9515(2) -0.5911(2)
O5 O 0.4947(2) 0.2976(1) -0.9363(2)
O6 O 0.4308(2) 0.4150(1) -0.6957(1)
O7 O 0.2178(2) 0.1391(2) -0.4989(2)
O8 O 0.2556(2) 0.3689(2) -0.0159(2)
O9 O 0.3274(3) 0.4787(2) -0.1830(2)
O10 O 0.1239(1) -0.0452(1) -0.0965(1)
O11 O 0.1252(1) -0.1649(1) 0.0177(1)
O12 O -0.1410(1) -0.1143(1) -0.0666(1)
O13 O -0.2979(1) -0.1793(1) -0.1835(1)
O14 O -0.1097(1) -0.3631(1) -0.5068(1)
O15 O -0.1403(1) -0.4670(1) -0.3859(1)
O16 O 0.1456(1) -0.4037(1) -0.4191(1)
O17 O 0.2984(1) -0.3392(1) -0.3007(1)
C1 C 0.0408(2) -0.1952(1) -0.1611(2)
C2 C -0.0870(2) -0.2141(2) -0.1947(2)
C3 C -0.1250(2) -0.2776(2) -0.2768(2)
C4 C -0.0399(2) -0.3219(1) -0.3271(2)
C5 C 0.0877(2) -0.3031(2) -0.2935(2)
C6 C 0.1257(2) -0.2401(2) -0.2110(2)
C7 C 0.0975(2) -0.1307(2) -0.0711(2)
C8 C -0.1851(2) -0.1666(2) -0.1454(2)
C9 C -0.0971(2) -0.3886(2) -0.4154(2)
C10 C 0.1865(2) -0.3510(2) -0.3406(2)
H1 H -0.2145(19) -0.2896(15) -0.3036(16)
H2 H 0.2154(19) -0.2308(15) -0.1831(16)
H3 H 0.6527(36) 0.0798(30) -0.7441(31)
H4 H 0.5849(39) 0.0927(32) -0.8372(30)
H5 H 0.1826(37) -0.0161(30) -0.6968(32)
H6 H 0.2468(40) -0.0364(31) -0.6060(33)
H7 H 0.4728(39) 0.2169(31) -0.5674(33)
H8 H 0.5785(36) 0.1768(29) -0.5585(30)
H9 H 0.6067(37) 0.9345(34) -0.5797(36)
H10 H 0.5225(49) 0.9405(37) -0.5582(38)
H11 H 0.5038(43) 0.2551(31) -0.9558(34)
H12 H 0.5484(36) 0.3468(28) -0.9686(30)
H13 H 0.4931(36) 0.4548(28) -0.6660(32)
H14 H 0.4100(38) 0.4014(30) -0.6478(32)
H15 H 0.2346(39) 0.1909(30) -0.5155(32)
H16 H 0.1980(34) 0.0774(30) -0.5748(30)
H17 H 0.261(4) 0.4069(30) -0.0605(32)
H18 H 0.3390(38) 0.3426(28) 0.0124(30)
H19 H 0.3056(41) 0.5354(29) -0.1866(35)
H20 H 0.3807(39) 0.4945(34) -0.1382(33)
Zn1A Zn -0.24780(2) -0.03528(2) 0.00018(2)
Zn1C Zn 0.24780(2) 0.03528(2) -0.00018(2)
Zn1B Zn 0.25220(2) -0.46472(2) -0.49982(2)
O10C O -0.3761(1) -0.4548(1) -0.5965(1)
O12A O -0.3590(1) -0.6143(1) -0.4334(1)
O16B O -0.1456(1) -0.5963(1) -0.5809(1)
#END
