
#######################################################################
#
#                 Cambridge Crystallographic Data Centre
#                                CCDC
#
#######################################################################
#
# If this CIF has been generated from an entry in the Cambridge
# Structural Database, then it will include bibliographic, chemical,
# crystal, experimental, refinement or atomic coordinate data resulting
# from the CCDC's data processing and validation procedures.
#
#######################################################################

data_CSD_CIF_SUFHIM
_audit_creation_date 2015-03-22
_audit_creation_method CSD-ConQuest-V1
_database_code_CSD SUFHIM
_database_code_depnum_ccdc_archive 'CCDC 991281'
_chemical_formula_sum 'C12 H7 Na2 O11.5 Zn1'
_chemical_formula_moiety
;
(C12 H4 O10 Zn1 2-)n,1.5n(H2 O1),2n(Na1 1+)
;
_journal_coden_Cambridge 179
_journal_volume 54
_journal_year 2015
_journal_page_first 5966
_journal_name_full 'Angew.Chem.,Int.Ed. '
loop_
_publ_author_name
"Hao Wang"
"Jian Xu"
"Da-Shuai Zhang"
"Qiang Chen"
"Rong-Mei Wen"
"Ze Chang"
"Xian-He Bu"
_chemical_name_systematic
;
catena-(Di-sodium bis(\m~2~-furan-2,5-dicarboxylato)-zinc unknown solvate 
sesquihydrate)
;
_cell_volume  11786.383
_exptl_crystal_colour 'colorless'
_exptl_crystal_density_diffrn 1.131
_exptl_crystal_description 'block'
_diffrn_ambient_temperature 293
_refine_special_details
;
H1W,O1W disordered by symmetry over two configurations with occupancies 
0.25,0.50; O2W disordered by symmetry over two configurations with occupancy 
0.50. The SQUEEZE/PLATON program was used to model some unidentified 
disordered solvent.
;
#These two values have been output from a single CSD field.
_refine_ls_R_factor_gt 0.068
_refine_ls_wR_factor_gt 0.068
_symmetry_cell_setting rhombohedral
_symmetry_space_group_name_H-M 'R -3 c'
_symmetry_Int_Tables_number 167
loop_
_symmetry_equiv_pos_site_id
_symmetry_equiv_pos_as_xyz
1 x,y,z
2 -y,x-y,z
3 -x+y,-x,z
4 y,x,1/2-z
5 -x,-x+y,1/2-z
6 x-y,-y,1/2-z
7 2/3+x,1/3+y,1/3+z
8 2/3-y,1/3+x-y,1/3+z
9 2/3-x+y,1/3-x,1/3+z
10 2/3+y,1/3+x,5/6-z
11 2/3-x,1/3-x+y,5/6-z
12 2/3+x-y,1/3-y,5/6-z
13 1/3+x,2/3+y,2/3+z
14 1/3-y,2/3+x-y,2/3+z
15 1/3-x+y,2/3-x,2/3+z
16 1/3+y,2/3+x,1/6-z
17 1/3-x,2/3-x+y,1/6-z
18 1/3+x-y,2/3-y,1/6-z
19 -x,-y,-z
20 y,-x+y,-z
21 x-y,x,-z
22 -y,-x,-1/2+z
23 x,x-y,-1/2+z
24 -x+y,y,-1/2+z
25 -2/3-x,-1/3-y,-1/3-z
26 -2/3+y,-1/3-x+y,-1/3-z
27 -2/3+x-y,-1/3+x,-1/3-z
28 -2/3-y,-1/3-x,-5/6+z
29 -2/3+x,-1/3+x-y,-5/6+z
30 -2/3-x+y,-1/3+y,-5/6+z
31 -1/3-x,-2/3-y,-2/3-z
32 -1/3+y,-2/3-x+y,-2/3-z
33 -1/3+x-y,-2/3+x,-2/3-z
34 -1/3-y,-2/3-x,-1/6+z
35 -1/3+x,-2/3+x-y,-1/6+z
36 -1/3-x+y,-2/3+y,-1/6+z
_cell_length_a 29.007(10)
_cell_length_b 29.007(10)
_cell_length_c 16.175(6)
_cell_angle_alpha 90
_cell_angle_beta 90
_cell_angle_gamma 120
_cell_formula_units_Z 18
loop_
_atom_type_symbol
_atom_type_radius_bond
C 0.68
H 0.23
Na 1.66
O 0.68
Zn 1.22
loop_
_atom_site_label
_atom_site_type_symbol
_atom_site_fract_x
_atom_site_fract_y
_atom_site_fract_z
Na1 Na 0.99836(8) 0.33169(8) -0.08330
C1 C 0.96418(15) 0.25099(16) 0.0899(2)
C2 C 0.79566(16) 0.08822(16) 0.0675(2)
C3 C 0.84626(15) 0.12430(16) 0.1099(2)
C4 C 0.86750(18) 0.12319(18) 0.1847(2)
H1 H 0.85240 0.09620 0.22400
C5 C 0.91643(17) 0.17060(17) 0.1906(2)
H2 H 0.94010 0.18100 0.23470
C6 C 0.92295(15) 0.19853(16) 0.1202(2)
O1 O 1.00466(11) 0.27581(11) 0.13881(16)
O2 O 0.95907(13) 0.26754(13) 0.02236(18)
O3 O 0.79271(11) 0.10228(12) -0.00678(16)
O4 O 0.76119(11) 0.04867(12) 0.10397(18)
O5 O 0.87985(10) 0.17064(11) 0.06943(15)
Zn1 Zn 1.06646(2) 0.33330 0.08330
Na2 Na 0.85426(13) 0.18760(13) -0.08330
O6 O 0.8447(4) 0.2591(3) -0.0532(4)
H3 H 0.8110(8) 0.239(2) -0.050(5)
H4 H 0.864(2) 0.268(3) -0.015(3)
O7 O 0.7759(3) 0.00000 0.25000
H5 H 0.762(6) 0.017(6) 0.236(11)
C1Q C 1.046523(150) 0.415677(160) 0.076767(200)
C2Q C 1.040773(160) 0.578447(160) 0.099167(200)
C3Q C 1.055293(150) 0.542367(160) 0.056767(200)
C4Q C 1.077643(180) 0.543477(180) -0.018033(200)
H1Q H 1.08953 0.57047 -0.05733
C5Q C 1.079163(170) 0.496067(170) -0.023933(200)
H2Q H 1.09243 0.48567 -0.06803
C6Q C 1.057753(150) 0.468137(160) 0.046467(200)
O1Q O 1.062183(110) 0.390857(110) 0.027857(160)
O2Q O 1.024863(130) 0.399127(130) 0.144307(180)
O3Q O 1.023763(110) 0.564387(120) 0.173447(160)
O4Q O 1.045853(110) 0.617997(120) 0.062697(180)
O5Q O 1.042543(100) 0.496027(110) 0.097237(150)
O3S O 1.10228(11) 0.30957(12) 0.00678(16)
O3BA O 1.126043(110) 0.357097(120) 0.159887(160)
Zn1T Zn 0.73316(2) 0.06646 -0.08330
Zn1EA Zn 0.999967(20) 0.60017 0.25003
H5E H 0.745(6) -0.017(6) 0.264(11)
#END
