
#######################################################################
#
#                 Cambridge Crystallographic Data Centre
#                                CCDC
#
#######################################################################
#
# If this CIF has been generated from an entry in the Cambridge
# Structural Database, then it will include bibliographic, chemical,
# crystal, experimental, refinement or atomic coordinate data resulting
# from the CCDC's data processing and validation procedures.
#
#######################################################################

data_CSD_CIF_SUHMEP
_audit_creation_date 2015-03-25
_audit_creation_method CSD-ConQuest-V1
_database_code_CSD SUHMEP
_database_code_depnum_ccdc_archive 'CCDC 1056127'
_chemical_formula_sum 'C72 H102 Cl2 Co10 N12 O36 P6'
_chemical_formula_moiety
;
(C36 H18 Cl2 Co10 O36 P6 12-)n,6n(C6 H14 N2 2+)
;
_journal_coden_Cambridge 9
_journal_volume 54
_journal_year 2015
_journal_page_first 1209
_journal_name_full 'Inorg.Chem. '
loop_
_publ_author_name
"Qing-Rong Ding"
"Li-Ming Li"
"Lei Zhang"
"Jian Zhang"
_chemical_name_systematic
;
catena-[hexakis(1,4-diazoniabicyclo[2.2.2]octane) 
tris(\m-naphthalene-2,6-dicarboxylato)-hexakis(\m-phosphato)-dichloro-deca-cob
alt unknown solvate]
;
_cell_volume   4954.893
_exptl_crystal_colour 'violet'
_exptl_crystal_density_diffrn 1.714
_exptl_crystal_description 'prism'
_diffrn_ambient_temperature 293
_refine_special_details
;
Disordered solvent molecules were not modelled and the disordered density was 
taken into account using the SQUEEZE/PLATON procedure.
;
#These two values have been output from a single CSD field.
_refine_ls_R_factor_gt 0.0486
_refine_ls_wR_factor_gt 0.0486
_symmetry_cell_setting hexagonal
_symmetry_space_group_name_H-M 'P -3 c 1'
_symmetry_Int_Tables_number 165
loop_
_symmetry_equiv_pos_site_id
_symmetry_equiv_pos_as_xyz
1 x,y,z
2 -y,x-y,z
3 -x+y,-x,z
4 y,x,1/2-z
5 x-y,-y,1/2-z
6 -x,-x+y,1/2-z
7 -x,-y,-z
8 y,-x+y,-z
9 x-y,x,-z
10 -y,-x,-1/2+z
11 -x+y,y,-1/2+z
12 x,x-y,-1/2+z
_cell_length_a 13.809
_cell_length_b 13.809
_cell_length_c 30.004
_cell_angle_alpha 90
_cell_angle_beta 90
_cell_angle_gamma 120
_cell_formula_units_Z 2
loop_
_atom_type_symbol
_atom_type_radius_bond
C 0.68
H 0.23
Cl 0.99
Co 1.26
N 0.68
O 0.68
P 1.05
loop_
_atom_site_label
_atom_site_type_symbol
_atom_site_fract_x
_atom_site_fract_y
_atom_site_fract_z
Co1 Co 0.64226(4) 0.09780(4) 0.462948(16)
Co2 Co 0.66670 0.33330 0.42564(3)
Co3 Co 0.66670 0.33330 0.56486(3)
P1 P 0.47785(9) 0.15884(8) 0.50138(3)
Cl1 Cl 0.66670 0.33330 0.64154(7)
O1 O 0.5675(2) 0.1895(2) 0.46468(9)
O2 O 0.7008(3) 0.2334(3) 0.38245(10)
O3 O 0.6297(3) 0.0543(3) 0.40001(9)
C1 C 0.6382(4) 0.0999(4) 0.32393(14)
O4 O 0.4009(2) 0.0327(2) 0.5005(1)
C2 C 0.6577(4) 0.1326(4) 0.37229(14)
O5 O 0.4083(3) 0.2138(3) 0.49064(12)
C3 C 0.5805(4) -0.0096(4) 0.31176(14)
H1 H 0.55230 -0.06440 0.33370
O6 O 0.5353(3) 0.1965(3) 0.54655(10)
C4 C 0.6797(4) 0.1843(4) 0.29080(14)
H2 H 0.71950 0.25920 0.29900
C5 C 0.5624(4) -0.0419(4) 0.26668(13)
C6 C 0.6614(4) 0.1558(4) 0.24680(15)
H3 H 0.68660 0.21180 0.22530
C7 C 1.0447(9) 0.3981(8) 0.3955(3)
H4 H 1.10810 0.47310 0.39230
H5 H 0.98690 0.40250 0.41220
N1 N 1.0780(9) 0.3290(8) 0.4185(2)
H6 H 1.10330 0.35770 0.44610
N2 N 1.0106(11) 0.2462(11) 0.3441(4)
H7 H 0.98950 0.21790 0.31610
C8 C 1.1299(10) 0.2742(16) 0.3538(5)
H8 H 1.13340 0.20580 0.35510
H9 H 1.17880 0.32030 0.33010
C9 C 1.1653(9) 0.3304(14) 0.3938(4)
H10 H 1.22200 0.40730 0.38810
H11 H 1.19930 0.29650 0.41150
C10 C 1.001(2) 0.3482(16) 0.3503(8)
H12 H 0.92350 0.32890 0.34750
H13 H 1.04360 0.40250 0.32730
C11 C 0.985(2) 0.2109(15) 0.4227(8)
H14 H 0.92190 0.20880 0.43740
H15 H 1.01000 0.16860 0.44050
C12 C 0.9522(13) 0.1606(13) 0.3775(8)
H16 H 0.97060 0.10180 0.37410
H17 H 0.87210 0.12790 0.37370
O2D O 0.4674(3) -0.2334(3) 0.11755(10)
O3D O 0.5754(3) -0.0543(3) 0.09999(9)
C1D C 0.5383(4) -0.0999(4) 0.17607(14)
C2D C 0.5251(4) -0.1326(4) 0.12771(14)
C3D C 0.5901(4) 0.0096(4) 0.18824(14)
H1D H 0.61670 0.06440 0.16630
C4D C 0.4954(4) -0.1843(4) 0.20920(14)
H2D H 0.46030 -0.25920 0.20100
C5D C 0.6043(4) 0.0419(4) 0.23332(13)
C6D C 0.5056(4) -0.1558(4) 0.25320(15)
H3D H 0.47480 -0.21180 0.27470
Co1A Co 0.90220(4) 0.54446(4) 0.462948(16)
P1A P 0.84116(9) 0.31901(8) 0.50138(3)
O1A O 0.8105(2) 0.3780(2) 0.46468(9)
O2A O 0.7666(3) 0.4674(3) 0.38245(10)
O3A O 0.9457(3) 0.5754(3) 0.40001(9)
C1A C 0.9001(4) 0.5383(4) 0.32393(14)
O4A O 0.9673(2) 0.3682(2) 0.5005(1)
C2A C 0.8674(4) 0.5251(4) 0.37229(14)
O5A O 0.7862(3) 0.1945(3) 0.49064(12)
C3A C 1.0096(4) 0.5901(4) 0.31176(14)
H1A H 1.06440 0.61670 0.33370
O6A O 0.8035(3) 0.3388(3) 0.54655(10)
C4A C 0.8157(4) 0.4954(4) 0.29080(14)
H2A H 0.74080 0.46030 0.29900
C5A C 1.0419(4) 0.6043(4) 0.26668(13)
C6A C 0.8442(4) 0.5056(4) 0.24680(15)
H3A H 0.78820 0.47480 0.22530
O2C O 1.2334(3) 0.7008(3) 0.11755(10)
O3C O 1.0543(3) 0.6297(3) 0.09999(9)
C1C C 1.0999(4) 0.6382(4) 0.17607(14)
C2C C 1.1326(4) 0.6577(4) 0.12771(14)
C3C C 0.9904(4) 0.5805(4) 0.18824(14)
H1C H 0.93560 0.55230 0.16630
C4C C 1.1843(4) 0.6797(4) 0.20920(14)
H2C H 1.25920 0.71950 0.20100
C5C C 0.9581(4) 0.5624(4) 0.23332(13)
C6C C 1.1558(4) 0.6614(4) 0.25320(15)
H3C H 1.21180 0.68660 0.27470
Co1B Co 0.45554(4) 0.35774(4) 0.462948(16)
P1B P 0.68099(9) 0.52215(8) 0.50138(3)
O1B O 0.6220(2) 0.4325(2) 0.46468(9)
O2B O 0.5326(3) 0.2992(3) 0.38245(10)
O3B O 0.4246(3) 0.3703(3) 0.40001(9)
C1B C 0.4617(4) 0.3618(4) 0.32393(14)
O4B O 0.6318(2) 0.5991(2) 0.5005(1)
C2B C 0.4749(4) 0.3423(4) 0.37229(14)
O5B O 0.8055(3) 0.5917(3) 0.49064(12)
C3B C 0.4099(4) 0.4195(4) 0.31176(14)
H1B H 0.38330 0.44770 0.33370
O6B O 0.6612(3) 0.4647(3) 0.54655(10)
C4B C 0.5046(4) 0.3203(4) 0.29080(14)
H2B H 0.53970 0.28050 0.29900
C5B C 0.3957(4) 0.4376(4) 0.26668(13)
C6B C 0.4944(4) 0.3386(4) 0.24680(15)
H3B H 0.52520 0.31340 0.22530
O2E O 0.2992(3) 0.5326(3) 0.11755(10)
O3E O 0.3703(3) 0.4246(3) 0.09999(9)
C1E C 0.3618(4) 0.4617(4) 0.17607(14)
C2E C 0.3423(4) 0.4749(4) 0.12771(14)
C3E C 0.4195(4) 0.4099(4) 0.18824(14)
H1E H 0.44770 0.38330 0.16630
C4E C 0.3203(4) 0.5046(4) 0.20920(14)
H2E H 0.28050 0.53970 0.20100
C5E C 0.4376(4) 0.3957(4) 0.23332(13)
C6E C 0.3386(4) 0.4944(4) 0.25320(15)
H3E H 0.31340 0.52520 0.27470
Co1F Co 0.35774(4) -0.09780(4) 0.537052(16)
Co2F Co 0.33330 -0.33330 0.57436(3)
Co3F Co 0.33330 -0.33330 0.43514(3)
P1F P 0.52215(9) -0.15884(8) 0.49862(3)
Cl1F Cl 0.33330 -0.33330 0.35846(7)
O1F O 0.4325(2) -0.1895(2) 0.53532(9)
O4F O 0.5991(2) -0.0327(2) 0.4995(1)
O5F O 0.5917(3) -0.2138(3) 0.50936(12)
O6F O 0.4647(3) -0.1965(3) 0.45345(10)
Co1G Co 0.09780(4) -0.54446(4) 0.537052(16)
P1G P 0.15884(9) -0.31901(8) 0.49862(3)
O1G O 0.1895(2) -0.3780(2) 0.53532(9)
O4G O 0.0327(2) -0.3682(2) 0.4995(1)
O5G O 0.2138(3) -0.1945(3) 0.50936(12)
O6G O 0.1965(3) -0.3388(3) 0.45345(10)
Co1H Co 0.54446(4) -0.35774(4) 0.537052(16)
P1H P 0.31901(9) -0.52215(8) 0.49862(3)
O1H O 0.3780(2) -0.4325(2) 0.53532(9)
O4H O 0.3682(2) -0.5991(2) 0.4995(1)
O5H O 0.1945(3) -0.5917(3) 0.50936(12)
O6H O 0.3388(3) -0.4647(3) 0.45345(10)
Co1A* Co -0.09780(4) -0.45554(4) 0.462948(16)
Co1B* Co 0.45554(4) -0.64226(4) 0.462948(16)
Co1C Co 1.09780(4) 0.64226(4) 0.037052(16)
Co1D Co 0.54446(4) -0.09780(4) 0.037052(16)
Co1E Co 0.35774(4) 0.45554(4) 0.037052(16)
Co1G* Co 1.09780(4) 0.45554(4) 0.537052(16)
Co1H* Co 0.54446(4) 0.64226(4) 0.537052(16)
Co2C Co 0.33330 -0.33330 0.07436(3)
Co2C* Co 0.33330 0.66670 0.07436(3)
Co2C** Co 1.33330 0.66670 0.07436(3)
O2F O 0.2992(3) -0.2334(3) 0.61755(10)
O2G O 0.2334(3) -0.4674(3) 0.61755(10)
O2H O 0.4674(3) -0.2992(3) 0.61755(10)
O3F O 0.3703(3) -0.0543(3) 0.59999(9)
O3G O 0.0543(3) -0.5754(3) 0.59999(9)
O3H O 0.5754(3) -0.3703(3) 0.59999(9)
O4A* O -0.0327(2) -0.6318(2) 0.5005(1)
O4B* O 0.6318(2) -0.4009(2) 0.5005(1)
O4G* O 1.0327(2) 0.6318(2) 0.4995(1)
O4H* O 0.3682(2) 0.4009(2) 0.4995(1)
#END
