
#######################################################################
#
#                 Cambridge Crystallographic Data Centre
#                                CCDC
#
#######################################################################
#
# If this CIF has been generated from an entry in the Cambridge
# Structural Database, then it will include bibliographic, chemical,
# crystal, experimental, refinement or atomic coordinate data resulting
# from the CCDC's data processing and validation procedures.
#
#######################################################################

data_CSD_CIF_SUHMAL
_audit_creation_date 2015-03-25
_audit_creation_method CSD-ConQuest-V1
_database_code_CSD SUHMAL
_database_code_depnum_ccdc_archive 'CCDC 1056126'
_chemical_formula_sum 'C20 H23 Co1 N2 O8 P1'
_chemical_formula_moiety
;
(C14 H9 Co1 O8 P1 2-)n,n(C6 H14 N2 2+)
;
_journal_coden_Cambridge 9
_journal_volume 54
_journal_year 2015
_journal_page_first 1209
_journal_name_full 'Inorg.Chem. '
loop_
_publ_author_name
"Qing-Rong Ding"
"Li-Ming Li"
"Lei Zhang"
"Jian Zhang"
_chemical_name_systematic
;
catena-[1,4-diazoniabicyclo[2.2.2]octane (\m-hydrogen 
phosphato)-(biphenyl-4,4'-dicarboxylato)-cobalt]
;
_cell_volume   2102.476
_exptl_crystal_colour 'blue'
_exptl_crystal_density_diffrn 1.609
_exptl_crystal_description 'block'
_diffrn_ambient_temperature 293
#These two values have been output from a single CSD field.
_refine_ls_R_factor_gt 0.0759
_refine_ls_wR_factor_gt 0.0759
_symmetry_cell_setting monoclinic
_symmetry_space_group_name_H-M 'P 21/c'
_symmetry_Int_Tables_number 14
loop_
_symmetry_equiv_pos_site_id
_symmetry_equiv_pos_as_xyz
1 x,y,z
2 -x,1/2+y,1/2-z
3 -x,-y,-z
4 x,-1/2-y,-1/2+z
_cell_length_a 20.1740(16)
_cell_length_b 9.7329(7)
_cell_length_c 10.7371(7)
_cell_angle_alpha 90
_cell_angle_beta 94.240(7)
_cell_angle_gamma 90
_cell_formula_units_Z 4
loop_
_atom_type_symbol
_atom_type_radius_bond
C 0.68
H 0.23
Co 1.26
N 0.68
O 0.68
P 1.05
loop_
_atom_site_label
_atom_site_type_symbol
_atom_site_fract_x
_atom_site_fract_y
_atom_site_fract_z
Co1 Co 0.44973(4) 0.32785(7) 0.09701(7)
P1 P 0.48621(7) 0.38040(15) -0.17362(12)
O1 O 0.4813(2) 0.2811(4) -0.0654(4)
O2 O 0.5422(2) 0.4830(4) -0.1495(4)
O3 O 0.4986(2) 0.3059(4) -0.2947(4)
O4 O 0.3546(2) 0.2936(5) 0.1021(5)
C1 C 0.2406(3) 0.3464(7) 0.0743(6)
C2 C 0.3096(3) 0.3544(6) 0.0327(7)
O5 O 0.3194(3) 0.4166(6) -0.0650(6)
C3 C 0.1131(4) 0.3416(9) 0.1572(7)
C4 C 0.2269(4) 0.2655(8) 0.1762(7)
H1 H 0.26040 0.21340 0.21720
C5 C -0.1485(4) 0.3417(11) 0.3352(8)
C6 C 0.1633(4) 0.2627(11) 0.2166(8)
H2 H 0.15420 0.20760 0.28390
C7 C 0.1904(3) 0.4260(9) 0.0131(8)
H3 H 0.19910 0.47960 -0.05550
C8 C 0.1268(4) 0.4234(10) 0.0568(9)
H4 H 0.09320 0.47730 0.01790
O6 O -0.1553(3) 0.4083(11) 0.4352(9)
O7 O 0.4196(2) 0.4618(5) -0.1945(4)
H5 H 0.39330 0.43420 -0.14550
O8 O -0.1946(4) 0.2951(19) 0.2826(11)
C9 C 0.0458(4) 0.3373(11) 0.2037(8)
C10 C -0.0818(4) 0.340(1) 0.2897(7)
C11 C -0.0088(6) 0.3190(11) 0.1247(12)
H6 H -0.00370 0.30530 0.04020
C12 C -0.0730(6) 0.3200(12) 0.1669(13)
H7 H -0.10960 0.30680 0.11040
C13 C -0.0296(10) 0.3441(18) 0.368(2)
H8 H -0.03460 0.34500 0.45350
C14 C 0.0384(13) 0.347(2) 0.321(2)
H9 H 0.07550 0.35660 0.37760
N1 N 0.6135(3) 0.3853(6) 0.5965(6)
H10 H 0.57350 0.38090 0.63000
C15 C 0.7255(4) 0.4773(9) 0.6216(8)
H11 H 0.73510 0.57250 0.60340
H12 H 0.76060 0.44310 0.68000
C16 C 0.6397(4) 0.2425(8) 0.5828(8)
H13 H 0.61020 0.19010 0.52540
H14 H 0.64290 0.19610 0.66300
C17 C 0.6043(4) 0.4484(8) 0.4699(8)
H15 H 0.58650 0.54060 0.47550
H16 H 0.57370 0.39410 0.41630
C18 C 0.6719(4) 0.4524(9) 0.4179(7)
H17 H 0.67080 0.39850 0.34180
H18 H 0.68270 0.54640 0.39720
C19 C 0.7074(4) 0.2541(8) 0.5333(10)
H19 H 0.74060 0.21640 0.59380
H20 H 0.70840 0.20110 0.45690
C20 C 0.6600(5) 0.4683(12) 0.6797(8)
H21 H 0.66610 0.42550 0.76130
H22 H 0.64190 0.55970 0.69000
N2 N 0.7237(3) 0.3979(6) 0.5080(6)
H23 H 0.76390 0.40250 0.47500
Co1B Co 0.55027(4) 0.67215(7) -0.09701(7)
Co1C Co 0.44973(4) 0.17215(7) -0.40299(7)
O2B O 0.4578(2) 0.5170(4) 0.1495(4)
O3C O 0.4986(2) 0.1941(4) 0.2053(4)
#END
