
#######################################################################
#
#                 Cambridge Crystallographic Data Centre
#                                CCDC
#
#######################################################################
#
# If this CIF has been generated from an entry in the Cambridge
# Structural Database, then it will include bibliographic, chemical,
# crystal, experimental, refinement or atomic coordinate data resulting
# from the CCDC's data processing and validation procedures.
#
#######################################################################

data_CSD_CIF_SUKHEN
_audit_creation_date 2015-08-26
_audit_creation_method CSD-ConQuest-V1
_database_code_CSD SUKHEN
_database_code_depnum_ccdc_archive 'CCDC 1405302'
_chemical_formula_sum 'C6 H4 Fe1 Li3 N1 O12'
_chemical_formula_moiety
;
(C6 Fe1 Li3 O12 1-)n,n(H4 N1 1+)
;
_journal_coden_Cambridge 971
_journal_volume 48
_journal_year 2015
_journal_page_first 225
_journal_name_full 'Solid State Sciences '
loop_
_publ_author_name
"Jin-Hua Li"
"Hui Liu"
"Li Wei"
"Guo-Ming Wang"
_chemical_name_systematic
;
catena-(Ammonium tris(\m~4~-oxalato)-iron-tri-lithium)
;
_cell_volume   1745.592
_exptl_crystal_colour 'yellow'
_exptl_crystal_density_diffrn 2.048
_exptl_crystal_description 'block'
_diffrn_ambient_temperature 293
#These two values have been output from a single CSD field.
_refine_ls_R_factor_gt 0.056
_refine_ls_wR_factor_gt 0.056
_symmetry_cell_setting rhombohedral
_symmetry_space_group_name_H-M 'R -3 c'
_symmetry_Int_Tables_number 167
loop_
_symmetry_equiv_pos_site_id
_symmetry_equiv_pos_as_xyz
1 x,y,z
2 -y,x-y,z
3 -x+y,-x,z
4 y,x,1/2-z
5 x-y,-y,1/2-z
6 -x,-x+y,1/2-z
7 2/3+x,1/3+y,1/3+z
8 2/3-y,1/3+x-y,1/3+z
9 2/3-x+y,1/3-x,1/3+z
10 2/3+y,1/3+x,5/6-z
11 2/3+x-y,1/3-y,5/6-z
12 2/3-x,1/3-x+y,5/6-z
13 1/3+x,2/3+y,2/3+z
14 1/3-y,2/3+x-y,2/3+z
15 1/3-x+y,2/3-x,2/3+z
16 1/3+y,2/3+x,1/6-z
17 1/3+x-y,2/3-y,1/6-z
18 1/3-x,2/3-x+y,1/6-z
19 -x,-y,-z
20 y,-x+y,-z
21 x-y,x,-z
22 -y,-x,-1/2+z
23 -x+y,y,-1/2+z
24 x,x-y,-1/2+z
25 -2/3-x,-1/3-y,-1/3-z
26 -2/3+y,-1/3-x+y,-1/3-z
27 -2/3+x-y,-1/3+x,-1/3-z
28 -2/3-y,-1/3-x,-5/6+z
29 -2/3-x+y,-1/3+y,-5/6+z
30 -2/3+x,-1/3+x-y,-5/6+z
31 -1/3-x,-2/3-y,-2/3-z
32 -1/3+y,-2/3-x+y,-2/3-z
33 -1/3+x-y,-2/3+x,-2/3-z
34 -1/3-y,-2/3-x,-1/6+z
35 -1/3-x+y,-2/3+y,-1/6+z
36 -1/3+x,-2/3+x-y,-1/6+z
_cell_length_a 11.5273(16)
_cell_length_b 11.5273(16)
_cell_length_c 15.169(3)
_cell_angle_alpha 90
_cell_angle_beta 90
_cell_angle_gamma 120
_cell_formula_units_Z 6
loop_
_atom_type_symbol
_atom_type_radius_bond
C 0.68
Fe 1.52
Li 1.28
N 0.68
O 0.68
loop_
_atom_site_label
_atom_site_type_symbol
_atom_site_fract_x
_atom_site_fract_y
_atom_site_fract_z
C1 C 0.0476(4) 0.2643(5) 0.2096(3)
Fe1 Fe 0.00000 0.00000 0.25000
O1 O 0.0927(3) 0.3818(3) 0.1838(2)
O2 O 0.0723(3) 0.1785(3) 0.17470(19)
Li1 Li 0.00000 0.4660(11) 0.25000
N1 N 0.33330 0.66670 0.16670
C1E C -0.0476(4) 0.2167(5) 0.2904(3)
O1E O -0.0927(3) 0.2891(3) 0.3162(2)
O2E O -0.0723(3) 0.1062(3) 0.32530(19)
C1A C -0.2643(4) -0.2167(5) 0.2096(3)
O1A O -0.3818(3) -0.2891(3) 0.1838(2)
O2A O -0.1785(3) -0.1062(3) 0.17470(19)
Li1A Li -0.46600 -0.4660(11) 0.25000
C1D C -0.2167(4) -0.2643(5) 0.2904(3)
O1D O -0.2891(3) -0.3818(3) 0.3162(2)
O2D O -0.1062(3) -0.1785(3) 0.32530(19)
C1B C 0.2167(4) -0.0476(5) 0.2096(3)
O1B O 0.2891(3) -0.0927(3) 0.1838(2)
O2B O 0.1062(3) -0.0723(3) 0.17470(19)
Li1B Li 0.46600 0.0000(11) 0.25000
C1C C 0.2643(4) 0.0476(5) 0.2904(3)
O1C O 0.3818(3) 0.0927(3) 0.3162(2)
O2C O 0.1785(3) 0.0723(3) 0.32530(19)
O1DA O 0.573967(300) -0.048467(300) 0.149533(200)
O1EA O 0.048467(300) 0.622433(300) 0.149533(200)
O1FA O -0.622433(300) -0.573967(300) 0.149533(200)
O1AA O -0.048467(300) 0.573967(300) 0.350467(200)
O1BA O 0.622433(300) 0.048467(300) 0.350467(200)
O1CA O -0.573967(300) -0.622433(300) 0.350467(200)
O2DA O 0.594367(300) 0.154833(300) 0.158633(190)
O2EA O -0.154833(300) 0.439533(300) 0.158633(190)
O2FA O -0.439533(300) -0.594367(300) 0.158633(190)
O2AA O 0.154833(300) 0.594367(300) 0.341367(190)
O2BA O 0.439533(300) -0.154833(300) 0.341367(190)
O2CA O -0.594367(300) -0.439533(300) 0.341367(190)
Li1DA Li -0.33333 -0.132667(1100) 0.08333
Li1EA Li 0.13267 -0.200667(1100) 0.08333
Li1FA Li 0.20067 0.333333(1100) 0.08333
Li1X Li 0.33333 0.200667(1100) 0.41667
Li1Y Li -0.20067 0.132667(1100) 0.41667
Li1Z Li -0.13267 -0.333333(1100) 0.41667
#END
