
#######################################################################
#
#                 Cambridge Crystallographic Data Centre
#                                CCDC
#
#######################################################################
#
# If this CIF has been generated from an entry in the Cambridge
# Structural Database, then it will include bibliographic, chemical,
# crystal, experimental, refinement or atomic coordinate data resulting
# from the CCDC's data processing and validation procedures.
#
#######################################################################

data_CSD_CIF_SULVOM
_audit_creation_date 2015-08-27
_audit_creation_method CSD-ConQuest-V1
_database_code_CSD SULVOM
_database_code_depnum_ccdc_archive 'CCDC 1402127'
_chemical_formula_sum 'C18 H24 Au2 N6 S4'
_chemical_formula_moiety
;
(C8 Au2 N4 S4 2-)n,2(C5 H12 N1 1+)
;
_journal_coden_Cambridge 182
_journal_volume 51
_journal_year 2015
_journal_page_first 14299
_journal_name_full 'Chem.Commun. '
loop_
_publ_author_name
"R.J.Roberts"
"D.Le"
"D.B.Leznoff"
_chemical_name_systematic
;
catena-(bis(piperidinium) bis(\m-2,2-dicyanoethene-1,1-dithiolato)-di-gold)
;
_cell_volume   2407.010
_exptl_crystal_colour 'red'
_exptl_crystal_density_diffrn 2.336
_exptl_special_details
;
Luminescent

;
_exptl_crystal_description 'needle'
_exptl_crystal_preparation 'Re-crystallisation from solvent'
_diffrn_ambient_temperature 150
_diffrn_radiation_probe x-ray
_diffrn_source synchrotron
#These two values have been output from a single CSD field.
_refine_ls_R_factor_gt 0.0294
_refine_ls_wR_factor_gt 0.0294
_symmetry_cell_setting monoclinic
_symmetry_space_group_name_H-M 'P 21/c'
_symmetry_Int_Tables_number 14
loop_
_symmetry_equiv_pos_site_id
_symmetry_equiv_pos_as_xyz
1 x,y,z
2 -x,1/2+y,1/2-z
3 -x,-y,-z
4 x,-1/2-y,-1/2+z
_cell_length_a 9.6338(19)
_cell_length_b 22.019(4)
_cell_length_c 11.351(2)
_cell_angle_alpha 90
_cell_angle_beta 91.513(3)
_cell_angle_gamma 90
_cell_formula_units_Z 4
loop_
_atom_type_symbol
_atom_type_radius_bond
C 0.68
H 0.23
Au 1.36
N 0.68
S 1.02
loop_
_atom_site_label
_atom_site_type_symbol
_atom_site_fract_x
_atom_site_fract_y
_atom_site_fract_z
Au1 Au 0.89003(3) 0.75142(2) 0.51009(2)
S1 S 0.73022(16) 0.82859(6) 0.51336(12)
N1 N 0.6450(5) 0.9809(2) 0.5919(4)
C1 C 0.7349(5) 0.8706(2) 0.3850(4)
Au2 Au 0.86941(3) 0.74773(2) 0.26552(2)
S2 S 0.80394(16) 0.84847(6) 0.25328(12)
N2 N 0.6041(5) 0.9928(2) 0.2101(4)
C2 C 0.6759(6) 0.9287(2) 0.3916(5)
N3 N 1.2113(5) 0.5294(2) 0.5841(4)
S3 S 1.04925(15) 0.67386(6) 0.51687(12)
C3 C 0.6555(6) 0.9570(2) 0.5030(5)
C4 C 1.0802(6) 0.5697(2) 0.3999(5)
C5 C 1.0222(5) 0.6278(2) 0.3958(5)
N4 N 1.0516(5) 0.4973(2) 0.2243(5)
S4 S 0.93179(15) 0.64640(6) 0.26644(12)
C6 C 0.6390(6) 0.9638(2) 0.2900(5)
C7 C 1.0656(6) 0.5298(2) 0.3032(5)
C8 C 1.1525(6) 0.5479(2) 0.5032(5)
N5 N 0.8362(6) 1.0846(2) 0.6485(4)
H1 H 0.76390 1.05260 0.65010
H2 H 0.91630 1.07060 0.69770
C9 C 0.7800(7) 1.1414(3) 0.6997(6)
H3 H 0.85350 1.17280 0.70360
H4 H 0.74920 1.13360 0.78080
C10 C 0.6579(7) 1.1641(3) 0.6239(5)
H5 H 0.58130 1.13420 0.62600
H6 H 0.62370 1.20290 0.65620
C11 C 0.7003(7) 1.1735(3) 0.4975(6)
H7 H 0.61810 1.18570 0.44890
H8 H 0.76950 1.20670 0.49440
C12 C 0.7614(7) 1.1166(3) 0.4479(6)
H9 H 0.79410 1.12490 0.36760
H10 H 0.68840 1.08500 0.44180
C13 C 0.8817(7) 1.0929(3) 0.5238(6)
H11 H 0.91400 1.05360 0.49220
H12 H 0.96000 1.12200 0.52220
N6 N 0.3887(5) 1.0848(2) 0.1507(4)
H13 H 0.30200 1.07250 0.18910
H14 H 0.45040 1.04890 0.14870
C14 C 0.4579(6) 1.1335(3) 0.2224(5)
H15 H 0.48230 1.11780 0.30200
H16 H 0.39370 1.16830 0.23110
C15 C 0.3545(6) 1.1045(3) 0.0262(5)
H17 H 0.28620 1.13810 0.02680
H18 H 0.31290 1.07020 -0.01870
C16 C 0.4850(6) 1.1254(3) -0.0318(5)
H19 H 0.46180 1.13980 -0.11250
H20 H 0.54980 1.09070 -0.03800
C17 C 0.5549(7) 1.1758(3) 0.0372(5)
H21 H 0.49320 1.21180 0.03880
H22 H 0.64200 1.18770 -0.00100
C18 C 0.5869(6) 1.1542(3) 0.1628(5)
H23 H 0.65410 1.12020 0.16080
H24 H 0.63020 1.18770 0.20870
Au1C Au 0.89003(3) 0.74858(2) 0.01009(2)
Au2C Au 0.86941(3) 0.75227(2) 0.76552(2)
#END
