
#######################################################################
#
#                 Cambridge Crystallographic Data Centre
#                                CCDC
#
#######################################################################
#
# If this CIF has been generated from an entry in the Cambridge
# Structural Database, then it will include bibliographic, chemical,
# crystal, experimental, refinement or atomic coordinate data resulting
# from the CCDC's data processing and validation procedures.
#
#######################################################################

data_CSD_CIF_SULWAA
_audit_creation_date 2020-01-24
_audit_creation_method CSD-ConQuest-V1
_database_code_CSD SULWAA
_database_code_depnum_ccdc_archive 'CCDC 1946307'
_chemical_formula_sum 'C37 H35 Cu1 Mo5 N5 O22 P2'
_chemical_formula_moiety
;
(C22 H18 Cu1 Mo5 N2 O21 P2 3-)n,1.5n(C10 H10 N2 2+),n(H2 O1)
;
_journal_coden_Cambridge 9
_journal_volume 59
_journal_year 2020
_journal_page_first 1702
_journal_name_full 'Inorg.Chem. '
loop_
_publ_author_name
"Borong Lu"
"Shaobin Li"
"Jing Pan"
"Li Zhang"
"Jianjiao Xin"
"Yue Chen"
"Xiaoguo Tan"
_chemical_name_systematic
;
catena-(sesquikis(4,4'-bipyridinium) 
(\m-4,4'-bipyridine)-hexakis(\m-oxo)-bis(\m-phenylphosphonato)-copper-penta-mo
lybdenum unknown solvate monohydrate)
;
_cell_volume   2283.095
_exptl_crystal_colour 'yellow'
_exptl_crystal_density_diffrn 2.183
_exptl_crystal_description 'block'
_diffrn_ambient_temperature 296
_refine_special_details
;
The SQUEEZE/PLATON program was used to model some disordered solvent.

;
#These two values have been output from a single CSD field.
_refine_ls_R_factor_gt 0.0502
_refine_ls_wR_factor_gt 0.0502
_symmetry_cell_setting triclinic
_symmetry_space_group_name_H-M 'P -1'
_symmetry_Int_Tables_number 2
loop_
_symmetry_equiv_pos_site_id
_symmetry_equiv_pos_as_xyz
1 x,y,z
2 -x,-y,-z
_cell_length_a 10.6350(6)
_cell_length_b 10.8843(6)
_cell_length_c 20.2362(11)
_cell_angle_alpha 83.038(1)
_cell_angle_beta 87.489(1)
_cell_angle_gamma 79.154(1)
_cell_formula_units_Z 2
loop_
_atom_type_symbol
_atom_type_radius_bond
C 0.68
H 0.23
Cu 1.32
Mo 1.54
N 0.68
O 0.68
P 1.05
loop_
_atom_site_label
_atom_site_type_symbol
_atom_site_fract_x
_atom_site_fract_y
_atom_site_fract_z
Mo1 Mo 0.74043(5) 0.89276(5) 0.30550(2)
Mo2 Mo 1.04091(5) 0.67946(5) 0.09985(2)
Mo3 Mo 0.91975(5) 0.62063(5) 0.37071(2)
Mo4 Mo 0.76833(5) 0.89561(5) 0.12352(2)
Mo5 Mo 1.11618(5) 0.50231(5) 0.24714(3)
P1 P 0.79848(15) 0.62096(14) 0.21646(7)
P2 P 1.03272(14) 0.82783(14) 0.24199(7)
O1 O 0.8485(4) 0.7910(4) 0.37705(18)
O2 O 1.1633(4) 0.5976(4) 0.16738(18)
O3 O 0.9370(4) 0.9233(4) 0.27501(18)
O4 O 0.9324(4) 0.5755(4) 0.18738(18)
O5 O 1.0584(4) 0.6978(4) 0.28352(18)
O6 O 0.6283(4) 0.9254(4) 0.08256(19)
O7 O 0.8047(4) 0.6854(3) 0.27975(18)
O8 O 0.9861(4) 0.8175(4) 0.17196(18)
O9 O 0.8755(4) 0.7745(4) 0.07367(18)
O10 O 0.6003(4) 0.8443(4) 0.3292(2)
O11 O 0.7193(4) 0.9322(4) 0.21074(18)
O12 O 0.9875(4) 0.4835(4) 0.31729(18)
O13 O 1.0369(5) 0.5561(4) 0.0561(2)
O14 O 1.2500(4) 0.4879(4) 0.2927(2)
O15 O 0.7155(4) 0.7108(4) 0.16572(18)
O16 O 0.8090(4) 0.5462(4) 0.4153(2)
O17 O 0.7182(4) 1.0351(4) 0.3351(2)
O18 O 0.8351(4) 1.0252(4) 0.0945(2)
C1 C 1.1805(5) 0.8874(5) 0.2322(3)
C2 C 0.7246(6) 0.4850(6) 0.2389(3)
C3 C 1.1771(6) 1.0141(6) 0.2353(3)
H1 H 1.09928 1.06659 0.24249
Cu1 Cu 0.70672(10) 0.53292(8) 0.53841(5)
O19 O 1.0455(4) 0.5977(4) 0.42340(19)
O20 O 1.1265(5) 0.3564(4) 0.2234(2)
N1 N 0.6855(5) 0.7089(5) 0.5439(3)
N2 N 0.6854(5) 1.3639(5) 0.5390(3)
C4 C 1.2970(6) 0.8096(6) 0.2219(3)
H2 H 1.30070 0.72395 0.22022
C5 C 0.6504(6) 0.9161(6) 0.4871(3)
H3 H 0.63047 0.96779 0.44749
C6 C 0.6586(6) 0.7893(6) 0.4882(3)
H4 H 0.64509 0.75725 0.44903
C7 C 0.6710(5) 1.1074(5) 0.5417(3)
C8 C 0.6708(6) 0.9697(5) 0.5430(3)
C9 C 1.4045(6) 0.9855(6) 0.2174(3)
H5 H 1.47979 1.01786 0.21288
C10 C 1.2893(6) 1.0642(6) 0.2276(3)
H6 H 1.28625 1.14971 0.22938
C11 C 0.6927(7) 0.8877(6) 0.6013(3)
H7 H 0.70123 0.91892 0.64138
C12 C 0.6852(7) 1.1601(6) 0.5996(3)
H8 H 0.68976 1.11097 0.64063
C13 C 0.6616(6) 1.1891(6) 0.4830(3)
H9 H 0.64971 1.15900 0.44307
C14 C 0.7017(7) 0.7599(6) 0.5997(3)
H10 H 0.71970 0.70649 0.63897
C15 C 0.6695(7) 1.3132(6) 0.4832(3)
H11 H 0.66375 1.36485 0.44288
C16 C 1.4085(6) 0.8601(7) 0.2139(3)
H12 H 1.48633 0.80803 0.20618
C17 C 0.6926(7) 1.2869(6) 0.5953(3)
H13 H 0.70323 1.32001 0.63453
C18 C 0.7743(8) 0.3723(6) 0.2154(3)
H14 H 0.85039 0.36313 0.19054
C19 C 0.6128(7) 0.4976(7) 0.2771(4)
H15 H 0.57983 0.57340 0.29373
C20 C 0.710(1) 0.2725(7) 0.2291(4)
H16 H 0.74343 0.19584 0.21346
C21 C 0.599(1) 0.2855(9) 0.2651(6)
H17 H 0.55520 0.21854 0.27280
C22 C 0.5506(8) 0.3964(9) 0.2903(5)
H18 H 0.47584 0.40368 0.31624
O21 O 1.1401(4) 0.7617(4) 0.0515(2)
N3 N 0.9638(5) 0.2697(5) 0.3833(2)
C23 C 0.9638(6) 0.0514(6) 0.4088(3)
H19 H 0.95489 -0.02464 0.39470
C24 C 0.9493(6) 0.1592(6) 0.3653(3)
H20 H 0.92864 0.15542 0.32146
C25 C 0.9925(6) 0.0577(5) 0.4754(3)
C26 C 1.0038(6) 0.1742(5) 0.4927(3)
H21 H 1.02055 0.18207 0.53656
C27 C 0.9910(6) 0.2771(6) 0.4468(3)
H22 H 1.00112 0.35393 0.45937
C28 C 0.2768(6) 0.2046(6) 0.0726(3)
C29 C 0.3884(6) 0.2688(6) 0.0724(3)
C30 C 0.1531(7) 0.2704(7) 0.0805(3)
H23 H 0.14001 0.35605 0.08469
N4 N 0.5914(6) 0.3934(7) 0.0689(3)
C31 C 0.3820(8) 0.3745(8) 0.1054(4)
H24 H 0.30840 0.40460 0.12940
C32 C 0.4858(9) 0.4347(8) 0.1024(4)
H25 H 0.48112 0.50570 0.12444
C33 C 0.5009(7) 0.2263(8) 0.0387(4)
H26 H 0.50920 0.15456 0.01700
C34 C 0.6007(8) 0.2908(9) 0.0376(4)
H27 H 0.67617 0.26235 0.01459
C35 C 0.2931(8) 0.0777(6) 0.0662(3)
H28 H 0.37459 0.03092 0.06023
C36 C 0.0505(7) 0.2115(9) 0.0822(3)
H29 H -0.03214 0.25661 0.08686
C37 C 0.1869(9) 0.0213(8) 0.0689(3)
H30 H 0.19749 -0.06422 0.06482
N5 N 0.0706(7) 0.0866(7) 0.0770(3)
O22 O 0.7666(5) 0.5383(6) 0.0519(3)
Cu1* Cu 0.70672(10) 1.53292(8) 0.53841(5)
N2* N 0.6854(5) 0.3639(5) 0.5390(3)
N3A N 1.0362(5) -0.2697(5) 0.6167(2)
C23A C 1.0362(6) -0.0514(6) 0.5912(3)
H19A H 1.04511 0.02464 0.60530
C24A C 1.0507(6) -0.1592(6) 0.6347(3)
H20A H 1.07136 -0.15542 0.67854
C25A C 1.0075(6) -0.0577(5) 0.5246(3)
C26A C 0.9962(6) -0.1742(5) 0.5073(3)
H21A H 0.97945 -0.18207 0.46344
C27A C 1.0090(6) -0.2771(6) 0.5532(3)
H22A H 0.99888 -0.35393 0.54063
#END
