
#######################################################################
#
#                 Cambridge Crystallographic Data Centre
#                                CCDC
#
#######################################################################
#
# If this CIF has been generated from an entry in the Cambridge
# Structural Database, then it will include bibliographic, chemical,
# crystal, experimental, refinement or atomic coordinate data resulting
# from the CCDC's data processing and validation procedures.
#
#######################################################################

data_CSD_CIF_SULWII
_audit_creation_date 2020-01-24
_audit_creation_method CSD-ConQuest-V1
_database_code_CSD SULWII
_database_code_depnum_ccdc_archive 'CCDC 1946309'
_chemical_formula_sum 'C64 H82 Cu5 Mo10 N8 Na2 O57 P4'
_chemical_formula_moiety
;
(C64 H52 Cu5 Mo10 N8 O42 P4 2-)n,2n(Na1 1+),15n(H2 O1)
;
_journal_coden_Cambridge 9
_journal_volume 59
_journal_year 2020
_journal_page_first 1702
_journal_name_full 'Inorg.Chem. '
loop_
_publ_author_name
"Borong Lu"
"Shaobin Li"
"Jing Pan"
"Li Zhang"
"Jianjiao Xin"
"Yue Chen"
"Xiaoguo Tan"
_chemical_name_systematic
;
catena-(di-sodium 
bis(\m-4,4'-bipyridine)-icosakis(\m-oxo)-tetrakis(\m-phenylphosphonato)-bis(4,
4'-bipyridine)-decaoxo-penta-copper-deca-molybdenum pentadecahydrate)
;
_cell_volume   2229.271
_exptl_crystal_colour 'brown'
_exptl_crystal_description 'block'
_diffrn_ambient_temperature 296
_refine_special_details
;
The SQUEEZE/PLATON program was used to model the disordered water molecules.

;
#These two values have been output from a single CSD field.
_refine_ls_R_factor_gt 0.0497
_refine_ls_wR_factor_gt 0.0497
_symmetry_cell_setting triclinic
_symmetry_space_group_name_H-M 'P -1'
_symmetry_Int_Tables_number 2
loop_
_symmetry_equiv_pos_site_id
_symmetry_equiv_pos_as_xyz
1 x,y,z
2 -x,-y,-z
_cell_length_a 10.9346(5)
_cell_length_b 11.3168(4)
_cell_length_c 18.4420(7)
_cell_angle_alpha 79.969(1)
_cell_angle_beta 89.303(1)
_cell_angle_gamma 82.777(1)
_cell_formula_units_Z 1
loop_
_atom_type_symbol
_atom_type_radius_bond
C 0.68
H 0.23
Cu 1.32
Mo 1.54
N 0.68
Na 1.66
O 0.68
P 1.05
loop_
_atom_site_label
_atom_site_type_symbol
_atom_site_fract_x
_atom_site_fract_y
_atom_site_fract_z
Mo1 Mo 0.19905(6) 0.26804(6) 0.17157(4)
Mo2 Mo 0.24683(6) -0.03229(6) 0.11744(3)
Mo3 Mo 0.44663(6) -0.20395(6) 0.24687(4)
Mo4 Mo 0.45075(6) -0.05395(6) 0.39064(4)
Mo5 Mo 0.28971(6) 0.22118(6) 0.34938(4)
Cu1 Cu 0.50000 0.00000 0.00000
Cu2 Cu 0.16838(10) 0.61374(13) 0.06057(7)
P1 P 0.46424(17) 0.10186(17) 0.21035(10)
P2 P 0.18133(17) -0.01786(17) 0.29024(10)
Cu3 Cu 0.57898(12) 0.18921(13) 0.42714(7)
O1 O 0.1971(5) 0.1328(5) 0.1193(3)
O2 O 0.2021(5) 0.1155(5) 0.2786(3)
O3 O 0.3973(5) 0.2128(5) 0.1633(3)
O4 O 0.1389(5) -0.0473(5) 0.2177(3)
O5 O 0.2980(5) -0.1023(5) 0.3200(3)
O6 O 0.4161(5) -0.0122(4) 0.1923(3)
O7 O 0.4513(5) 0.1080(5) 0.2926(3)
O8 O 0.3180(5) 0.0617(5) 0.4083(3)
O9 O 0.2638(5) 0.3243(5) 0.2554(3)
O10 O 0.3535(5) -0.0160(5) 0.0464(3)
O11 O 0.0466(5) 0.2913(5) 0.1923(3)
O12 O 0.5682(5) 0.0119(6) 0.4237(3)
O13 O 0.4053(5) 0.2854(6) 0.3857(3)
O14 O 0.1269(5) -0.0752(5) 0.0751(3)
O15 O 0.1595(5) 0.2716(6) 0.3927(3)
O16 O 0.2104(5) 0.3885(5) 0.1015(3)
O17 O 0.4290(6) -0.1734(5) 0.4601(3)
O18 O 0.5729(6) -0.2441(5) 0.1972(3)
O19 O 0.5321(5) -0.1392(5) 0.3193(3)
O20 O 0.3155(5) -0.1879(5) 0.1730(3)
N1 N 0.3425(6) 0.6207(7) 0.0591(4)
C1 C 0.6230(7) 0.0975(7) 0.1845(4)
N2 N 0.9923(7) 0.6268(7) 0.0615(4)
C2 C 0.0572(7) -0.0437(7) 0.3521(4)
O21 O 0.4142(6) -0.3362(6) 0.2984(4)
N3 N 0.6810(7) 0.3056(7) 0.3733(4)
C3 C 0.5992(8) 0.6244(7) 0.0613(4)
C4 C 0.7348(7) 0.6271(7) 0.0626(4)
C5 C 0.3970(8) 0.6993(9) 0.0102(5)
H1 H 0.34794 0.75394 -0.02445
C6 C 0.7885(8) 0.7325(8) 0.0426(5)
H2 H 0.73897 0.80600 0.02921
C7 C 0.5229(8) 0.7024(9) 0.0091(6)
H3 H 0.55695 0.75694 -0.02674
C8 C 0.8145(8) 0.5214(8) 0.0840(5)
H4 H 0.78341 0.44823 0.09883
C9 C 0.5414(8) 0.5425(8) 0.1111(5)
H5 H 0.58821 0.48712 0.14641
C10 C 0.6801(8) 0.0232(8) 0.1394(5)
H6 H 0.63953 -0.03837 0.12752
C11 C 0.9393(8) 0.5256(9) 0.0831(5)
H7 H 0.99060 0.45376 0.09843
C12 C 0.6846(8) 0.1891(8) 0.2023(5)
H8 H 0.64596 0.24207 0.23123
C13 C 0.9139(8) 0.7287(8) 0.0424(5)
H9 H 0.94698 0.80090 0.02824
C14 C 0.8380(8) 0.4668(7) 0.3039(4)
C15 C 0.9232(8) 0.5559(8) 0.2738(5)
C16 C 0.8810(8) 0.3554(8) 0.3433(6)
H10 H 0.96568 0.33248 0.34781
C17 C 0.7953(8) 0.0372(9) 0.1115(5)
H11 H 0.83042 -0.01210 0.07939
C18 C 0.8593(8) 0.1259(9) 0.1315(5)
H12 H 0.93867 0.13404 0.11445
C19 C -0.0613(9) -0.0179(10) 0.3259(5)
H13 H -0.07502 0.01569 0.27649
C20 C 0.8034(8) 0.2019(9) 0.1772(5)
H14 H 0.84536 0.26127 0.19089
C21 C 0.8044(10) 0.2784(9) 0.3758(6)
H15 H 0.83820 0.20312 0.40098
C22 C 0.6356(8) 0.4130(8) 0.3336(5)
H16 H 0.55060 0.43343 0.32944
C23 C 0.7104(8) 0.4935(8) 0.2990(6)
H17 H 0.67541 0.56682 0.27191
C24 C 1.0496(9) 0.5203(9) 0.2775(6)
H18 H 1.07963 0.44102 0.29777
C25 C 0.8817(12) 0.6771(9) 0.2438(6)
H19 H 0.79807 0.70532 0.23936
C26 C -0.1615(9) -0.0401(10) 0.3704(6)
H20 H -0.24090 -0.02081 0.35078
C27 C -0.1445(10) -0.0901(12) 0.4426(6)
H21 H -0.21142 -0.10445 0.47310
N4 N 1.0907(10) 0.7158(9) 0.2256(5)
C28 C 0.9701(14) 0.7530(9) 0.2212(7)
H22 H 0.94399 0.83363 0.20194
C29 C 1.1312(11) 0.6011(11) 0.2515(6)
H23 H 1.21530 0.57481 0.25210
C30 C 0.4167(9) 0.5430(9) 0.1085(5)
H24 H 0.38108 0.48694 0.14243
C31 C -0.0269(13) -0.1185(16) 0.4692(8)
H25 H -0.01428 -0.15545 0.51812
C32 C 0.0749(11) -0.0942(14) 0.4259(6)
H26 H 0.15400 -0.11161 0.44613
Na1 Na 0.4585(3) 0.5450(5) 0.4821(2)
Mo1A Mo 0.80095(6) -0.26804(6) -0.17157(4)
Mo2A Mo 0.75317(6) 0.03229(6) -0.11744(3)
Mo3A Mo 0.55337(6) 0.20395(6) -0.24687(4)
Mo4A Mo 0.54925(6) 0.05395(6) -0.39064(4)
Mo5A Mo 0.71029(6) -0.22118(6) -0.34938(4)
Cu2A Cu 0.83162(10) -0.61374(13) -0.06057(7)
P1A P 0.53576(17) -0.10186(17) -0.21035(10)
P2A P 0.81867(17) 0.01786(17) -0.29024(10)
Cu3A Cu 0.42102(12) -0.18921(13) -0.42714(7)
O1A O 0.8029(5) -0.1328(5) -0.1193(3)
O2A O 0.7979(5) -0.1155(5) -0.2786(3)
O3A O 0.6027(5) -0.2128(5) -0.1633(3)
O4A O 0.8611(5) 0.0473(5) -0.2177(3)
O5A O 0.7020(5) 0.1023(5) -0.3200(3)
O6A O 0.5839(5) 0.0122(4) -0.1923(3)
O7A O 0.5487(5) -0.1080(5) -0.2926(3)
O8A O 0.6820(5) -0.0617(5) -0.4083(3)
O9A O 0.7362(5) -0.3243(5) -0.2554(3)
O10A O 0.6465(5) 0.0160(5) -0.0464(3)
O11A O 0.9534(5) -0.2913(5) -0.1923(3)
O12A O 0.4318(5) -0.0119(6) -0.4237(3)
O13A O 0.5947(5) -0.2854(6) -0.3857(3)
O14A O 0.8731(5) 0.0752(5) -0.0751(3)
O15A O 0.8405(5) -0.2716(6) -0.3927(3)
O16A O 0.7896(5) -0.3885(5) -0.1015(3)
O17A O 0.5710(6) 0.1734(5) -0.4601(3)
O18A O 0.4271(6) 0.2441(5) -0.1972(3)
O19A O 0.4679(5) 0.1392(5) -0.3193(3)
O20A O 0.6845(5) 0.1879(5) -0.1730(3)
N1A N 0.6575(6) -0.6207(7) -0.0591(4)
C1A C 0.3770(7) -0.0975(7) -0.1845(4)
N2A N 0.0077(7) -0.6268(7) -0.0615(4)
C2A C 0.9428(7) 0.0437(7) -0.3521(4)
O21A O 0.5858(6) 0.3362(6) -0.2984(4)
N3A N 0.3190(7) -0.3056(7) -0.3733(4)
C3A C 0.4008(8) -0.6244(7) -0.0613(4)
C4A C 0.2652(7) -0.6271(7) -0.0626(4)
C5A C 0.6030(8) -0.6993(9) -0.0102(5)
H1A H 0.65206 -0.75394 0.02445
C6A C 0.2115(8) -0.7325(8) -0.0426(5)
H2A H 0.26103 -0.80600 -0.02921
C7A C 0.4771(8) -0.7024(9) -0.0091(6)
H3A H 0.44305 -0.75694 0.02674
C8A C 0.1855(8) -0.5214(8) -0.0840(5)
H4A H 0.21659 -0.44823 -0.09883
C9A C 0.4586(8) -0.5425(8) -0.1111(5)
H5A H 0.41179 -0.48712 -0.14641
C10A C 0.3199(8) -0.0232(8) -0.1394(5)
H6A H 0.36047 0.03837 -0.12752
C11A C 0.0607(8) -0.5256(9) -0.0831(5)
H7A H 0.00940 -0.45376 -0.09843
C12A C 0.3154(8) -0.1891(8) -0.2023(5)
H8A H 0.35404 -0.24207 -0.23123
C13A C 0.0861(8) -0.7287(8) -0.0424(5)
H9A H 0.05302 -0.80090 -0.02824
C14A C 0.1620(8) -0.4668(7) -0.3039(4)
C15A C 0.0768(8) -0.5559(8) -0.2738(5)
C16A C 0.1190(8) -0.3554(8) -0.3433(6)
H10A H 0.03432 -0.33248 -0.34781
C17A C 0.2047(8) -0.0372(9) -0.1115(5)
H11A H 0.16958 0.01210 -0.07939
C18A C 0.1407(8) -0.1259(9) -0.1315(5)
H12A H 0.06133 -0.13404 -0.11445
C19A C 1.0613(9) 0.0179(10) -0.3259(5)
H13A H 1.07502 -0.01569 -0.27649
C20A C 0.1966(8) -0.2019(9) -0.1772(5)
H14A H 0.15464 -0.26127 -0.19089
C21A C 0.1956(10) -0.2784(9) -0.3758(6)
H15A H 0.16180 -0.20312 -0.40098
C22A C 0.3644(8) -0.4130(8) -0.3336(5)
H16A H 0.44940 -0.43343 -0.32944
C23A C 0.2896(8) -0.4935(8) -0.2990(6)
H17A H 0.32459 -0.56682 -0.27191
C24A C -0.0496(9) -0.5203(9) -0.2775(6)
H18A H -0.07963 -0.44102 -0.29777
C25A C 0.1183(12) -0.6771(9) -0.2438(6)
H19A H 0.20193 -0.70532 -0.23936
C26A C 1.1615(9) 0.0401(10) -0.3704(6)
H20A H 1.24090 0.02081 -0.35078
C27A C 1.1445(10) 0.0901(12) -0.4426(6)
H21A H 1.21142 0.10445 -0.47310
N4A N -0.0907(10) -0.7158(9) -0.2256(5)
C28A C 0.0299(14) -0.7530(9) -0.2212(7)
H22A H 0.05601 -0.83363 -0.20194
C29A C -0.1312(11) -0.6011(11) -0.2515(6)
H23A H -0.21530 -0.57481 -0.25210
C30A C 0.5833(9) -0.5430(9) -0.1085(5)
H24A H 0.61892 -0.48694 -0.14243
C31A C 1.0269(13) 0.1185(16) -0.4692(8)
H25A H 1.01428 0.15545 -0.51812
C32A C 0.9251(11) 0.0942(14) -0.4259(6)
H26A H 0.84600 0.11161 -0.44613
Cu2* Cu 1.16838(10) 0.61374(13) 0.06057(7)
Cu2A* Cu -0.16838(10) -0.61374(13) -0.06057(7)
Cu3* Cu 0.57898(12) 0.18921(13) -0.57286(7)
Cu3A* Cu 0.42102(12) -0.18921(13) 0.57286(7)
O17* O 0.4290(6) -0.1734(5) -0.5399(3)
O17A* O 0.5710(6) 0.1734(5) 0.5399(3)
N2* N -0.0077(7) 0.6268(7) 0.0615(4)
N2A* N 1.0077(7) -0.6268(7) -0.0615(4)
#END
