
#######################################################################
#
#                 Cambridge Crystallographic Data Centre
#                                CCDC
#
#######################################################################
#
# If this CIF has been generated from an entry in the Cambridge
# Structural Database, then it will include bibliographic, chemical,
# crystal, experimental, refinement or atomic coordinate data resulting
# from the CCDC's data processing and validation procedures.
#
#######################################################################

data_CSD_CIF_SUMPIC
_audit_creation_date 2020-06-23
_audit_creation_method CSD-ConQuest-V1
_database_code_CSD SUMPIC
_database_code_depnum_ccdc_archive 'CCDC 1587086'
_chemical_formula_sum 'C6 H9 Co1 N1 O7'
_chemical_formula_moiety
;
(C6 H6 Co1 N1 O6 1-)n,H3 O1 1+
;
_journal_coden_Cambridge 1003
_journal_volume 50
_journal_year 2020
_journal_page_first 133
_journal_name_full 'J.Chem.Cryst. '
loop_
_publ_author_name
"Han Xue"
"Hong-Shu Xu"
"Dan-Feng He"
"Zhong-Xin Jin"
"Hong-Sheng Liu"
_chemical_name_systematic
;
catena-[oxonium (\m-[bis(carboxylatomethyl)amino]acetato)]
;
_cell_volume    959.227
_exptl_crystal_colour 'red'
_exptl_crystal_density_diffrn 1.842
_exptl_crystal_description 'block'
_diffrn_ambient_temperature 296
#These two values have been output from a single CSD field.
_refine_ls_R_factor_gt 0.0276
_refine_ls_wR_factor_gt 0.0276
_symmetry_cell_setting orthorhombic
_symmetry_space_group_name_H-M 'P 21 21 21'
_symmetry_Int_Tables_number 19
loop_
_symmetry_equiv_pos_site_id
_symmetry_equiv_pos_as_xyz
1 x,y,z
2 1/2-x,-y,1/2+z
3 -x,1/2+y,1/2-z
4 1/2+x,1/2-y,-z
_cell_length_a 8.403(4)
_cell_length_b 10.165(5)
_cell_length_c 11.230(6)
_cell_angle_alpha 90
_cell_angle_beta 90
_cell_angle_gamma 90
_cell_formula_units_Z 4
loop_
_atom_type_symbol
_atom_type_radius_bond
C 0.68
H 0.23
Co 1.26
N 0.68
O 0.68
loop_
_atom_site_label
_atom_site_type_symbol
_atom_site_fract_x
_atom_site_fract_y
_atom_site_fract_z
O1 O 0.0826(4) 0.3044(3) 0.7345(3)
C1 C 0.1036(6) 0.4243(4) 0.7116(4)
O2 O 0.4368(4) 0.8524(3) 0.4552(3)
Co1 Co 0.09555(7) 0.70669(6) 0.68193(5)
O3 O 0.0351(4) 0.5190(3) 0.7592(3)
O4 O 0.2509(4) 0.7516(3) 0.8169(3)
O5 O 0.2204(4) 0.8368(3) 0.5666(3)
O6 O 0.4886(4) 0.7134(4) 0.8889(3)
C2 C 0.4139(6) 0.5949(5) 0.7158(5)
H1 H 0.42656 0.50998 0.75201
H2 H 0.51281 0.61672 0.67782
C3 C 0.3824(5) 0.6950(5) 0.8142(4)
C4 C 0.3360(5) 0.7870(5) 0.5109(4)
N1 N 0.2900(4) 0.5849(3) 0.6241(3)
C5 C 0.3429(7) 0.6374(5) 0.5087(4)
H3 H 0.44970 0.60873 0.49281
H4 H 0.27551 0.60471 0.44633
C6 C 0.2257(6) 0.4516(4) 0.6149(4)
H5 H 0.17603 0.44096 0.53846
H6 H 0.31113 0.38926 0.62045
O7 O 0.7822(5) 0.6141(4) 0.9442(4)
H7 H 0.83582 0.66224 0.89703
H8 H 0.81152 0.62876 1.01539
H9 H 0.79497 0.53381 0.92547
O1B O -0.0826(4) 0.8044(3) 0.7655(3)
O2C O -0.0632(4) 0.6476(3) 0.5448(3)
Co1B Co -0.09555(7) 0.20669(6) 0.81807(5)
Co1C Co 0.59555(7) 0.79331(6) 0.31807(5)
#END
