
#######################################################################
#
#                 Cambridge Crystallographic Data Centre
#                                CCDC
#
#######################################################################
#
# If this CIF has been generated from an entry in the Cambridge
# Structural Database, then it will include bibliographic, chemical,
# crystal, experimental, refinement or atomic coordinate data resulting
# from the CCDC's data processing and validation procedures.
#
#######################################################################

data_CSD_CIF_SUMPOH
_audit_creation_date 2015-08-27
_audit_creation_method CSD-ConQuest-V1
_database_code_CSD SUMPOH
_database_code_depnum_ccdc_archive 'CCDC 1039208'
_chemical_formula_sum 'C14 H22 B1 N1 O13 Zn2'
_chemical_formula_moiety
;
(C6 H16 N1 1+)n,n(C8 H6 B1 O13 Zn2 1-)
;
_journal_coden_Cambridge 1133
_journal_volume 26
_journal_year 2015
_journal_page_first 1801
_journal_name_full 'J.Cluster Sci. '
loop_
_publ_author_name
"Ang Yin"
"Qi Wei"
"Wei-Hui Fang"
"Guo-Yu Yang"
_chemical_name_systematic
;
catena-[Triethylammonium 
(\m~5~-1,4,6,9-tetraoxa-5-borataspiro[4.4]nonan-5-ium-2,3,7,8-tetracarboxylato
)-aqua-zinc]
;
_cell_volume   1880.972
_exptl_crystal_colour 'colorless'
_exptl_crystal_density_diffrn 1.956
_exptl_crystal_description 'Prism'
_diffrn_ambient_temperature 293
#These two values have been output from a single CSD field.
_refine_ls_R_factor_gt 0.0455
_refine_ls_wR_factor_gt 0.0455
_symmetry_cell_setting monoclinic
_symmetry_space_group_name_H-M 'P 21/c'
_symmetry_Int_Tables_number 14
loop_
_symmetry_equiv_pos_site_id
_symmetry_equiv_pos_as_xyz
1 x,y,z
2 -x,1/2+y,1/2-z
3 -x,-y,-z
4 x,-1/2-y,-1/2+z
_cell_length_a 14.0368(9)
_cell_length_b 7.9837(3)
_cell_length_c 17.5127(11)
_cell_angle_alpha 90
_cell_angle_beta 106.580(3)
_cell_angle_gamma 90
_cell_formula_units_Z 4
loop_
_atom_type_symbol
_atom_type_radius_bond
C 0.68
H 0.23
B 0.83
N 0.68
O 0.68
Zn 1.22
loop_
_atom_site_label
_atom_site_type_symbol
_atom_site_fract_x
_atom_site_fract_y
_atom_site_fract_z
Zn1 Zn 0.34491(3) -0.66621(5) 0.46919(2)
Zn2 Zn 0.10121(3) -0.13364(5) 0.32783(2)
O1 O 0.07929(19) -0.7837(4) 0.50052(17)
O2 O 0.23945(17) -0.7218(3) 0.52383(14)
O3 O 0.21340(16) -0.5668(3) 0.38450(13)
O4 O 0.13180(16) -0.3407(3) 0.42260(14)
O5 O 0.0081(2) -0.3206(4) 0.27544(17)
O6 O -0.07111(17) -0.5538(3) 0.28604(15)
O7 O 0.54145(17) -0.3341(3) 0.42373(14)
O8 O 0.43659(17) -0.5476(3) 0.41377(14)
O9 O 0.31408(16) -0.3660(3) 0.47531(13)
O10 O 0.24281(16) -0.2774(3) 0.34426(13)
O11 O 0.20675(17) 0.0288(3) 0.38813(16)
O12 O 0.36698(17) 0.0989(3) 0.43074(15)
O13 O 0.0040(2) -0.0393(3) 0.38816(19)
H1 H 0.03630 -0.01730 0.43600
H2 H -0.04040 -0.11200 0.38770
C1 C 0.1495(2) -0.7180(4) 0.4812(2)
C2 C 0.1258(2) -0.6299(4) 0.40035(19)
H3 H 0.09150 -0.70740 0.35800
C3 C 0.0615(2) -0.4726(4) 0.39821(19)
H4 H 0.02180 -0.48420 0.43570
C4 C -0.0062(2) -0.4445(4) 0.3136(2)
C5 C 0.4608(2) -0.3965(4) 0.42791(17)
C6 C 0.3877(2) -0.2776(4) 0.45083(18)
H5 H 0.42370 -0.20150 0.49320
C7 C 0.3281(2) -0.1766(4) 0.37801(18)
H6 H 0.36700 -0.16450 0.33990
C8 C 0.2978(2) -0.0025(4) 0.40112(19)
B1 B 0.2261(3) -0.3880(4) 0.4076(2)
C9 C 0.4458(6) 0.6387(13) 0.1849(5)
H7 H 0.49650 0.68410 0.16390
H8 H 0.47580 0.56840 0.22980
H9 H 0.41070 0.72860 0.20140
C10 C 0.3771(4) 0.5411(8) 0.1240(4)
H10 H 0.41420 0.45370 0.10670
H11 H 0.34910 0.61330 0.07860
C11 C 0.1850(6) 0.7099(10) 0.1076(5)
H12 H 0.14310 0.78510 0.12620
H13 H 0.14670 0.65580 0.05980
H14 H 0.23840 0.77180 0.09690
C12 C 0.2268(5) 0.5807(9) 0.1702(4)
H15 H 0.26340 0.63690 0.21880
H16 H 0.17230 0.52040 0.18130
C13 C 0.2597(6) 0.2123(9) 0.2202(4)
H17 H 0.28960 0.13410 0.26170
H18 H 0.23350 0.15310 0.17090
H19 H 0.20680 0.27080 0.23350
C14 C 0.3340(7) 0.3319(10) 0.2116(4)
H20 H 0.38760 0.27190 0.19880
H21 H 0.36170 0.38870 0.26200
N1 N 0.2925(3) 0.4604(4) 0.14779(19)
H22 H 0.25510 0.40400 0.10440
Zn1* Zn 0.34491(3) 0.33379(5) 0.46919(2)
Zn1B Zn 0.65509(3) -0.33379(5) 0.53081(2)
Zn2A Zn -0.10121(3) -0.63364(5) 0.17217(2)
O6A O 0.07111(17) -0.0538(3) 0.21396(15)
O7B O 0.45855(17) -0.6659(3) 0.57627(14)
O12* O 0.36698(17) -0.9011(3) 0.43074(15)
#END
