
#######################################################################
#
#                 Cambridge Crystallographic Data Centre
#                                CCDC
#
#######################################################################
#
# If this CIF has been generated from an entry in the Cambridge
# Structural Database, then it will include bibliographic, chemical,
# crystal, experimental, refinement or atomic coordinate data resulting
# from the CCDC's data processing and validation procedures.
#
#######################################################################

data_CSD_CIF_SUMPIB
_audit_creation_date 2015-08-27
_audit_creation_method CSD-ConQuest-V1
_database_code_CSD SUMPIB
_database_code_depnum_ccdc_archive 'CCDC 1039207'
_chemical_formula_sum 'C28 H47 B2 N2 O27.5 Zn4'
_chemical_formula_moiety
;
(C6 H16 N1 1+)2n,n(C16 H14 B2 O27 Zn4 2-),0.5n(H2 O1)
;
_journal_coden_Cambridge 1133
_journal_volume 26
_journal_year 2015
_journal_page_first 1801
_journal_name_full 'J.Cluster Sci. '
loop_
_publ_author_name
"Ang Yin"
"Qi Wei"
"Wei-Hui Fang"
"Guo-Yu Yang"
_chemical_name_systematic
;
catena-[bis(Triethylammonium) 
(\m~5~-1,4,6,9-tetraoxa-5-borataspiro[4.4]nonan-5-ium-2,3,7,8-tetracarboxylato
)-(\m~4~-1,4,6,9-tetraoxa-5-borataspiro[4.4]nonan-5-ium-2,3,7,8-tetracarboxyla
to)-tetra-zinc hemihydrate]
;
_cell_volume   2034.275
_exptl_crystal_colour 'colorless'
_exptl_crystal_density_diffrn 1.853
_exptl_crystal_description 'Prism'
_diffrn_ambient_temperature 293
#These two values have been output from a single CSD field.
_refine_ls_R_factor_gt 0.0423
_refine_ls_wR_factor_gt 0.0423
_symmetry_cell_setting triclinic
_symmetry_space_group_name_H-M 'P -1'
_symmetry_Int_Tables_number 2
loop_
_symmetry_equiv_pos_site_id
_symmetry_equiv_pos_as_xyz
1 x,y,z
2 -x,-y,-z
_cell_length_a 7.9322(4)
_cell_length_b 14.6250(7)
_cell_length_c 18.0381(10)
_cell_angle_alpha 77.355(7)
_cell_angle_beta 88.457(8)
_cell_angle_gamma 85.098(7)
_cell_formula_units_Z 2
loop_
_atom_type_symbol
_atom_type_radius_bond
C 0.68
H 0.23
B 0.83
N 0.68
O 0.68
Zn 1.22
loop_
_atom_site_label
_atom_site_type_symbol
_atom_site_fract_x
_atom_site_fract_y
_atom_site_fract_z
Zn1 Zn 0.71308(5) -0.30934(3) 0.19741(2)
Zn2 Zn 0.14160(5) -0.06224(3) 0.20614(3)
Zn3 Zn 0.61193(5) 0.14975(3) 0.24834(3)
Zn4 Zn 1.10077(5) 0.38894(3) 0.27990(2)
O1 O 0.4011(3) -0.44993(19) 0.35641(15)
O2 O 0.6148(3) -0.37690(18) 0.29610(14)
O3 O 0.4187(3) -0.28026(16) 0.18038(13)
O4 O 0.3056(3) -0.18848(17) 0.26370(14)
O5 O -0.0011(3) -0.16942(18) 0.20212(16)
O6 O -0.0468(3) -0.32041(17) 0.24389(15)
O7 O 0.8027(4) -0.07903(19) 0.03572(16)
O8 O 0.7611(3) -0.22495(17) 0.09547(14)
O9 O 0.5975(3) -0.16929(16) 0.21208(13)
O10 O 0.3626(3) -0.10801(16) 0.13586(14)
O11 O 0.3126(4) 0.0329(2) 0.2068(2)
O12 O 0.5392(3) 0.10207(17) 0.15714(15)
O13 O 1.0481(3) -0.01983(18) 0.29984(16)
O14 O 0.8205(4) 0.0605(2) 0.24188(18)
O15 O 0.8050(3) 0.18710(17) 0.32793(14)
O16 O 1.0261(3) 0.25708(16) 0.25533(13)
O17 O 1.1664(4) 0.29513(18) 0.37666(15)
O18 O 1.2708(4) 0.1477(2) 0.41963(16)
O19 O 0.3357(3) 0.40427(18) 0.23206(16)
O20 O 0.4295(3) 0.25238(18) 0.25778(17)
O21 O 0.7365(3) 0.28343(17) 0.20372(14)
O22 O 0.8095(3) 0.35915(16) 0.29826(13)
O23 O 0.9728(3) 0.47383(19) 0.19054(16)
O24 O 0.7417(3) 0.56860(17) 0.15474(15)
O25 O 0.0381(4) 0.0130(2) 0.10378(16)
H1 H 0.02340 -0.02470 0.07520
H2 H 0.10550 0.05300 0.08220
O26 O 0.5093(4) 0.0579(2) 0.33849(19)
H3 H 0.54970 0.05060 0.38280
H4 H 0.42690 0.02750 0.33130
O27 O 1.0913(3) 0.49882(18) 0.33482(16)
H5 H 1.18890 0.51910 0.33350
H6 H 1.02100 0.54270 0.31250
C1 C 0.4612(4) -0.3935(2) 0.3027(2)
C2 C 0.3372(4) -0.3397(2) 0.24125(19)
H7 H 0.27270 -0.38370 0.22200
C3 C 0.2164(4) -0.2708(2) 0.2755(2)
H8 H 0.20200 -0.29590 0.33010
C4 C 0.0439(4) -0.2513(2) 0.2374(2)
C5 C 0.7443(5) -0.1365(3) 0.0895(2)
C6 C 0.6512(4) -0.0971(2) 0.1521(2)
H9 H 0.72380 -0.05730 0.17200
C7 C 0.4856(4) -0.0400(2) 0.1218(2)
H10 H 0.49550 -0.01340 0.06720
C8 C 0.4407(5) 0.0380(3) 0.1650(2)
C9 C 0.9339(5) 0.0475(2) 0.2898(2)
C10 C 0.9472(5) 0.1208(3) 0.3383(2)
H11 H 0.96100 0.09020 0.39210
C11 C 1.0986(5) 0.1789(2) 0.3089(2)
H12 H 1.18100 0.14200 0.28350
C12 C 1.1847(5) 0.2100(3) 0.3734(2)
C13 C 0.4483(4) 0.3376(3) 0.2326(2)
C14 C 0.6215(4) 0.3650(2) 0.1999(2)
H13 H 0.60930 0.39930 0.14700
C15 C 0.7082(4) 0.4247(2) 0.2456(2)
H14 H 0.62320 0.45850 0.27230
C16 C 0.8164(5) 0.4945(3) 0.1933(2)
B1 B 0.4211(5) -0.1868(3) 0.1977(2)
B2 B 0.8460(5) 0.2715(3) 0.2718(2)
O28 O 0.7673(18) -0.0544(15) 0.4330(11)
H15 H 0.84130 -0.04670 0.39770
H16 H 0.79810 -0.05630 0.47810
C17 C 1.1286(8) -0.2265(4) -0.0462(3)
H17 H 1.20510 -0.25930 -0.07640
H18 H 1.05230 -0.18300 -0.08080
C18 C 1.2293(8) -0.1719(4) -0.0048(3)
H19 H 1.29040 -0.12810 -0.04080
H20 H 1.30770 -0.21430 0.02840
H21 H 1.15440 -0.13830 0.02450
C19 C 1.1345(8) -0.3614(4) 0.0637(3)
H22 H 1.06330 -0.40500 0.09570
H23 H 1.18090 -0.32450 0.09560
C20 C 1.2763(10) -0.4168(5) 0.0349(5)
H24 H 1.33750 -0.45590 0.07700
H25 H 1.35080 -0.37490 0.00450
H26 H 1.23260 -0.45550 0.00450
C21 C 0.9253(9) -0.3479(6) -0.0373(5)
H27 H 0.99680 -0.36600 -0.07710
H28 H 0.89420 -0.40520 -0.00340
C22 C 0.7712(10) -0.2964(7) -0.0724(4)
H29 H 0.71570 -0.33520 -0.09900
H30 H 0.79980 -0.24020 -0.10740
H31 H 0.69680 -0.27980 -0.03360
N1 N 1.0265(5) -0.2973(3) 0.0061(2)
H32 H 0.95180 -0.26430 0.03150
C23 C 0.5540(7) 0.3183(4) 0.4434(3)
H33 H 0.48770 0.36220 0.40470
H34 H 0.61370 0.27190 0.41910
C24 C 0.6833(10) 0.3714(7) 0.4736(4)
H35 H 0.75420 0.40010 0.43260
H36 H 0.75160 0.32840 0.51120
H37 H 0.62590 0.41910 0.49620
C25 C 0.5321(14) 0.2009(7) 0.5625(4)
H38 H 0.45090 0.16460 0.59500
H39 H 0.58960 0.23500 0.59330
C26 C 0.6663(15) 0.1308(8) 0.5333(7)
H40 H 0.72150 0.08920 0.57600
H41 H 0.74880 0.16570 0.50190
H42 H 0.61040 0.09470 0.50430
C27 C 0.3197(9) 0.3428(9) 0.5276(4)
H43 H 0.27240 0.38910 0.48470
H44 H 0.37810 0.37480 0.55980
C28 C 0.1747(14) 0.2849(10) 0.5743(6)
H45 H 0.09370 0.32720 0.59300
H46 H 0.22400 0.23930 0.61620
H47 H 0.11920 0.25340 0.54160
N2 N 0.4380(7) 0.2704(4) 0.5011(2)
H48 H 0.37360 0.23710 0.47740
Zn1* Zn -0.28692(5) -0.30934(3) 0.19741(2)
Zn1** Zn 0.71308(5) 0.69066(3) 0.19741(2)
Zn2* Zn 1.14160(5) -0.06224(3) 0.20614(3)
Zn4* Zn 0.10077(5) 0.38894(3) 0.27990(2)
O6* O 0.9532(3) -0.32041(17) 0.24389(15)
O13* O 0.0481(3) -0.01983(18) 0.29984(16)
O19* O 1.3357(3) 0.40427(18) 0.23206(16)
O24* O 0.7417(3) -0.43140(17) 0.15474(15)
#END
