
#######################################################################
#
#                 Cambridge Crystallographic Data Centre
#                                CCDC
#
#######################################################################
#
# If this CIF has been generated from an entry in the Cambridge
# Structural Database, then it will include bibliographic, chemical,
# crystal, experimental, refinement or atomic coordinate data resulting
# from the CCDC's data processing and validation procedures.
#
#######################################################################

data_CSD_CIF_SUMZIL
_audit_creation_date 2015-08-27
_audit_creation_method CSD-ConQuest-V1
_database_code_CSD SUMZIL
_database_code_depnum_ccdc_archive 'CCDC 1011702'
_chemical_formula_sum 'C66 H124 Mo12 N3 O48 P1 Zn4'
_chemical_formula_moiety
;
(C16 H36 N1 1+)3n,n(C18 H16 Mo12 O48 P1 Zn4 3-)
;
_journal_coden_Cambridge 1133
_journal_volume 26
_journal_year 2015
_journal_page_first 1595
_journal_name_full 'J.Cluster Sci. '
loop_
_publ_author_name
"Bao-xia Dong"
"Lu Chen"
"Shi-yang Zhang"
"Jun Ge"
"Liang Song"
"Hui Tian"
"Yun-lei Teng"
"Wen-long Liu"
_chemical_name_systematic
;
catena-[tris(Tetra-n-butylammonium) 
(\m~12~-phosphato)-dodecakis(\m~3~-oxo)-bis(\m~2~-5-methylbenzene-1,3-dicarbox
ylato)-tetrakis(\m~2~-hydroxo)-octakis(\m~2~-oxo)-dodeca-oxo-octa-molybdenum(v
)-tetra-molybdenum(vi)-tetra-zinc]
;
_cell_volume  10721.193
_exptl_crystal_colour 'dark blue'
_exptl_crystal_density_diffrn 1.965
_exptl_special_details
;
Electrochemical properties

;
_exptl_crystal_description 'block'
_diffrn_ambient_temperature 296
_diffrn_special_details
;
twin

;
#These two values have been output from a single CSD field.
_refine_ls_R_factor_gt 0.0368
_refine_ls_wR_factor_gt 0.0368
_symmetry_cell_setting orthorhombic
_symmetry_space_group_name_H-M 'P n a 21'
_symmetry_Int_Tables_number 33
loop_
_symmetry_equiv_pos_site_id
_symmetry_equiv_pos_as_xyz
1 x,y,z
2 -x,-y,1/2+z
3 1/2+x,1/2-y,z
4 1/2-x,1/2+y,1/2+z
_cell_length_a 21.734(3)
_cell_length_b 20.951(3)
_cell_length_c 23.545(3)
_cell_angle_alpha 90
_cell_angle_beta 90
_cell_angle_gamma 90
_cell_formula_units_Z 4
loop_
_atom_type_symbol
_atom_type_radius_bond
C 0.68
H 0.23
Mo 1.54
N 0.68
O 0.68
P 1.05
Zn 1.22
loop_
_atom_site_label
_atom_site_type_symbol
_atom_site_fract_x
_atom_site_fract_y
_atom_site_fract_z
Mo1 Mo 0.79662(3) 0.17162(3) 0.96947(3)
Mo2 Mo 0.70798(3) 0.17398(3) 1.07642(3)
Mo3 Mo 0.73264(4) 0.05778(4) 1.17612(3)
Mo4 Mo 0.60037(3) 0.05420(4) 1.08429(3)
Mo5 Mo 0.58974(3) -0.03566(4) 1.00835(4)
Mo6 Mo 0.90559(3) 0.05325(4) 0.96557(4)
Mo7 Mo 0.69707(3) -0.15451(3) 0.98803(3)
Mo8 Mo 0.68975(3) -0.03733(4) 0.88676(3)
Mo9 Mo 0.81281(3) -0.15176(3) 1.07080(3)
Mo10 Mo 0.77308(4) 0.05101(4) 0.87354(3)
Mo11 Mo 0.81734(4) -0.02907(4) 1.16601(3)
Mo12 Mo 0.91793(3) -0.03254(4) 1.04494(4)
Zn1 Zn 0.86110(4) 0.12170(5) 1.09801(5)
Zn2 Zn 0.83380(5) -0.10037(5) 0.92984(4)
Zn3 Zn 0.67383(5) -0.09684(5) 1.12559(5)
Zn4 Zn 0.64511(4) 0.11632(5) 0.94976(5)
P1 P 0.75361(10) 0.01041(7) 1.02589(11)
O1 O 0.7890(3) 0.0515(3) 0.9821(3)
O2 O 0.7069(3) -0.0325(3) 0.9933(3)
O3 O 0.7171(3) 0.0526(2) 1.0683(2)
O4 O 0.8008(3) -0.0304(3) 1.0595(2)
O5 O 0.6034(3) -0.0352(3) 0.9226(3)
O6 O 0.7751(3) 0.1420(3) 0.8995(3)
O7 O 0.7285(3) 0.1480(3) 1.1475(3)
O8 O 0.8665(3) 0.0487(3) 0.8856(3)
O9 O 0.7885(3) -0.1462(3) 0.9882(3)
O10 O 0.8237(3) -0.2304(3) 1.0786(3)
O11 O 0.9034(3) 0.0598(3) 1.0481(3)
O12 O 0.9941(3) -0.0433(3) 1.0438(4)
O13 O 0.5136(3) -0.0480(3) 1.0090(4)
O14 O 0.7339(4) 0.0696(4) 1.2457(3)
O15 O 0.7709(4) 0.0594(4) 0.8032(3)
O16 O 0.6867(3) -0.2341(3) 0.9828(3)
O17 O 0.6701(4) -0.0499(4) 0.8189(3)
O18 O 0.8369(4) -0.0363(4) 1.2339(3)
O19 O 0.7019(3) 0.2538(3) 1.0836(3)
O20 O 0.8022(3) 0.2511(3) 0.9596(3)
O21 O 0.6022(3) 0.0565(3) 1.0022(3)
O22 O 0.9784(3) 0.0641(3) 0.9462(4)
O23 O 0.5265(3) 0.0641(3) 1.1033(3)
O24 O 0.8181(3) 0.0627(3) 1.1502(3)
O25 O 0.6886(3) 0.0550(3) 0.8993(3)
O26 O 0.6295(2) 0.1446(3) 1.0777(3)
O27 O 0.6390(3) 0.0531(3) 1.1642(3)
O28 O 0.8884(3) -0.1231(3) 1.0496(3)
O29 O 0.7277(3) -0.0342(3) 1.1645(3)
O30 O 0.7206(3) -0.1447(3) 1.0697(3)
O31 O 0.6209(3) -0.1254(3) 1.0069(3)
O32 O 0.7078(2) 0.1637(3) 0.9915(3)
O33 O 0.6169(3) -0.0376(3) 1.0868(3)
O34 O 0.8762(2) 0.1441(3) 0.9690(3)
O35 O 0.8911(3) -0.0390(3) 0.9660(3)
O36 O 0.9034(3) -0.0288(3) 1.1311(3)
O37 O 0.7787(3) -0.0402(3) 0.8887(3)
O38 O 0.7975(3) 0.1663(3) 1.0542(3)
O39 O 0.6953(3) -0.1276(3) 0.9144(3)
O40 O 0.8136(3) -0.1209(3) 1.1429(3)
O41 O 0.5940(4) -0.0517(4) 1.2151(4)
O42 O 0.6335(3) -0.1435(3) 1.1833(3)
O43 O 0.4490(4) -0.0646(3) 1.3792(4)
O44 O 0.4165(3) -0.1612(3) 1.4057(3)
O45 O 0.8704(3) -0.1514(3) 0.8707(3)
O46 O 0.9071(4) -0.0599(4) 0.8354(4)
O47 O 1.0790(3) -0.1691(4) 0.6417(3)
O48 O 1.0460(4) -0.0735(4) 0.6727(4)
C1 C 0.5890(5) -0.3090(5) 1.3348(5)
H1 H 0.56700 -0.32560 1.36690
H2 H 0.63210 -0.30680 1.34360
H3 H 0.58300 -0.33650 1.30260
C2 C 0.5658(4) -0.2438(5) 1.3211(4)
C3 C 0.5195(4) -0.2161(5) 1.3531(4)
H4 H 0.50090 -0.23960 1.38190
C4 C 0.5005(4) -0.1542(4) 1.3431(4)
C5 C 0.4517(4) -0.1243(4) 1.3771(4)
C6 C 0.5272(4) -0.1197(5) 1.2985(4)
H5 H 0.51450 -0.07820 1.29090
C7 C 0.5725(4) -0.1479(5) 1.2658(4)
C8 C 0.6011(4) -0.1102(5) 1.2185(5)
C9 C 0.5903(4) -0.2097(5) 1.2763(4)
H6 H 0.61940 -0.22890 1.25290
C10 C 0.9062(5) -0.3187(5) 0.7167(5)
H7 H 0.87410 -0.32930 0.74310
H8 H 0.93910 -0.34910 0.72010
H9 H 0.89010 -0.31990 0.67870
C11 C 0.9298(4) -0.2536(5) 0.7292(4)
C12 C 0.9051(4) -0.2174(5) 0.7738(4)
H10 H 0.87470 -0.23530 0.79660
C13 C 0.9252(4) -0.1553(5) 0.7849(4)
C14 C 0.8990(4) -0.1180(5) 0.8336(4)
C15 C 0.9698(4) -0.1283(5) 0.7507(4)
H11 H 0.98200 -0.08630 0.75640
C16 C 0.9960(4) -0.1641(4) 0.7082(4)
C17 C 1.0441(5) -0.1326(5) 0.6713(5)
C18 C 0.9760(4) -0.2251(5) 0.6977(4)
H12 H 0.99420 -0.24810 0.66840
C19 C 0.5253(6) -0.1980(6) 0.9191(5)
H13 H 0.51710 -0.15480 0.93170
H14 H 0.56930 -0.20480 0.92190
C20 C 0.5076(7) -0.2027(7) 0.8578(6)
H15 H 0.46310 -0.20310 0.85460
H16 H 0.52300 -0.24250 0.84230
C21 C 0.5331(7) -0.1473(6) 0.8235(6)
H17 H 0.57600 -0.14080 0.83360
H18 H 0.53150 -0.15800 0.78340
C22 C 0.4985(9) -0.0865(8) 0.8331(9)
H19 H 0.51600 -0.05320 0.81010
H20 H 0.50130 -0.07470 0.87250
H21 H 0.45610 -0.09240 0.82300
C23 C 0.5202(7) -0.2317(7) 1.0181(6)
H22 H 0.56420 -0.23930 1.01660
H23 H 0.51420 -0.18710 1.02750
C24 C 0.4943(8) -0.2706(9) 1.0643(7)
H24 H 0.49700 -0.31540 1.05400
H25 H 0.45110 -0.26010 1.06900
C25 C 0.5268(9) -0.2606(10) 1.1198(8)
H26 H 0.49830 -0.26630 1.15110
H27 H 0.54330 -0.21760 1.12160
C26 C 0.578(2) -0.308(3) 1.124(3)
H28 H 0.59900 -0.30300 1.15970
H29 H 0.60660 -0.30170 1.09350
H30 H 0.56150 -0.35070 1.12180
C27 C 0.5042(7) -0.3138(7) 0.9406(6)
H31 H 0.48170 -0.34170 0.96610
H32 H 0.48710 -0.31920 0.90290
C28 C 0.5693(8) -0.3341(8) 0.9396(8)
H33 H 0.58550 -0.33580 0.97800
H34 H 0.59370 -0.30400 0.91790
C29 C 0.5723(11) -0.3989(9) 0.9128(11)
H35 H 0.54230 -0.42660 0.93070
H36 H 0.56190 -0.39540 0.87290
C30 C 0.6349(13) -0.4277(18) 0.9186(17)
H37 H 0.63470 -0.47010 0.90300
H38 H 0.64600 -0.42970 0.95810
H39 H 0.66430 -0.40200 0.89860
C31 C 0.4238(6) -0.2338(7) 0.9590(6)
H40 H 0.40930 -0.24100 0.92060
H41 H 0.40530 -0.26620 0.98290
C32 C 0.4005(8) -0.1693(9) 0.9784(9)
H42 H 0.42160 -0.13570 0.95790
H43 H 0.40850 -0.16380 1.01860
C33 C 0.3320(8) -0.1658(9) 0.9671(9)
H44 H 0.32470 -0.16220 0.92660
H45 H 0.31230 -0.20450 0.98040
C34 C 0.305(2) -0.1093(16) 0.997(2)
H46 H 0.26150 -0.10750 0.98970
H47 H 0.32400 -0.07100 0.98330
H48 H 0.31180 -0.11320 1.03710
N1 N 0.4940(5) -0.2433(5) 0.9598(5)
C35 C 0.3633(7) 0.0646(7) 1.1794(7)
H49 H 0.40300 0.08330 1.18820
H50 H 0.34690 0.04780 1.21460
C36 C 0.3742(10) 0.0111(10) 1.1421(9)
H51 H 0.39560 0.02500 1.10810
H52 H 0.33550 -0.00820 1.13090
C37 C 0.4135(15) -0.0370(13) 1.1751(13)
H53 H 0.44840 -0.01440 1.19090
H54 H 0.38930 -0.05280 1.20660
C38 C 0.4376(17) -0.0934(16) 1.1428(16)
H55 H 0.46360 -0.11840 1.16710
H56 H 0.46080 -0.07890 1.11060
H57 H 0.40370 -0.11910 1.13010
C39 C 0.2573(6) 0.0969(8) 1.1502(7)
H58 H 0.23350 0.13300 1.13660
H59 H 0.25760 0.06500 1.12030
C40 C 0.2264(9) 0.0700(11) 1.1999(8)
H60 H 0.22100 0.10240 1.22890
H61 H 0.25050 0.03530 1.21570
C41 C 0.1634(14) 0.0452(13) 1.1795(12)
H62 H 0.13770 0.04060 1.21300
H63 H 0.14520 0.07880 1.15660
C42 C 0.1579(17) -0.0144(15) 1.1469(15)
H64 H 0.11530 -0.02250 1.13860
H65 H 0.17430 -0.04910 1.16870
H66 H 0.18040 -0.01050 1.11200
C43 C 0.3427(7) 0.1442(8) 1.1048(6)
H67 H 0.33930 0.11040 1.07690
H68 H 0.31410 0.17760 1.09360
C44 C 0.4055(8) 0.1707(8) 1.1009(8)
H69 H 0.40840 0.20630 1.12710
H70 H 0.43410 0.13830 1.11370
C45 C 0.4255(10) 0.1928(10) 1.0447(9)
H71 H 0.46590 0.21230 1.04790
H72 H 0.39710 0.22500 1.03100
C46 C 0.428(2) 0.1396(18) 1.0033(18)
H73 H 0.44090 0.15580 0.96690
H74 H 0.38840 0.12030 1.00000
H75 H 0.45750 0.10840 1.01610
C47 C 0.3256(9) 0.1668(9) 1.2091(8)
H76 H 0.31630 0.14380 1.24380
H77 H 0.36840 0.17960 1.21160
C48 C 0.2913(11) 0.2218(11) 1.2103(9)
H78 H 0.25080 0.21140 1.19590
H79 H 0.30980 0.25140 1.18360
C49 C 0.2826(11) 0.2571(12) 1.2655(9)
H80 H 0.25200 0.29070 1.26280
H81 H 0.27290 0.22880 1.29690
C50 C 0.3458(15) 0.282(2) 1.2686(18)
H82 H 0.35150 0.30420 1.30400
H83 H 0.35260 0.31130 1.23770
H84 H 0.37460 0.24760 1.26610
N2 N 0.3213(5) 0.1182(5) 1.1605(4)
C51 C 0.6226(10) 0.3959(12) 0.8478(11)
H85 H 0.60600 0.41170 0.88340
H86 H 0.64340 0.43150 0.82980
C52 C 0.5692(8) 0.3793(10) 0.8111(8)
H87 H 0.54290 0.34780 0.82910
H88 H 0.58250 0.36330 0.77450
C53 C 0.5363(10) 0.4439(10) 0.8055(10)
H89 H 0.51350 0.45370 0.83980
H90 H 0.56580 0.47780 0.79870
C54 C 0.4927(11) 0.4371(12) 0.7549(10)
H91 H 0.47590 0.47810 0.74550
H92 H 0.46000 0.40840 0.76470
H93 H 0.51500 0.42050 0.72290
C55 C 0.645(1) 0.3122(10) 0.9120(8)
H94 H 0.67380 0.27890 0.92240
H95 H 0.60800 0.29110 0.89860
C56 C 0.6280(12) 0.3476(12) 0.9662(9)
H96 H 0.66290 0.35020 0.99190
H97 H 0.61350 0.39040 0.95800
C57 C 0.5775(19) 0.3072(18) 0.9910(17)
H98 H 0.54040 0.30800 0.96810
H99 H 0.59030 0.26340 0.99730
C58 C 0.5706(18) 0.3435(19) 1.0451(14)
H100 H 0.53840 0.32480 1.06750
H101 H 0.56040 0.38710 1.03670
H102 H 0.60850 0.34210 1.06590
C59 C 0.7133(11) 0.2637(12) 0.8170(9)
H103 H 0.74040 0.27310 0.84870
H104 H 0.69670 0.22080 0.82010
C60 C 0.7410(15) 0.2781(16) 0.7599(14)
H105 H 0.71930 0.31170 0.73990
H106 H 0.78450 0.28810 0.76220
C61 C 0.7294(19) 0.214(2) 0.7356(16)
H107 H 0.73820 0.21470 0.69560
H108 H 0.68700 0.20270 0.74130
H109 H 0.75530 0.18330 0.75390
C62 C 0.7362(15) 0.376(3) 0.8619(16)
H110 H 0.72890 0.41350 0.88490
H111 H 0.73680 0.39200 0.82330
C63 C 0.8070(18) 0.3678(18) 0.8720(14)
H112 H 0.82840 0.34290 0.84340
H113 H 0.81870 0.35570 0.91020
C64 C 0.8051(19) 0.4415(19) 0.8605(13)
H114 H 0.81070 0.45260 0.82090
H115 H 0.76880 0.46220 0.87590
C65 C 0.861(2) 0.452(2) 0.896(2)
H116 H 0.87400 0.49540 0.89300
H117 H 0.89380 0.42440 0.88220
H118 H 0.85240 0.44140 0.93460
N3 N 0.6719(10) 0.3471(10) 0.8629(9)
C66 C 0.6623(10) 0.3170(12) 0.8062(10)
H119 H 0.67240 0.34520 0.77490
H120 H 0.62130 0.29950 0.80150
Zn1A Zn 1.13890(4) -0.12170(5) 0.59801(5)
Zn4A Zn 0.35489(4) -0.11632(5) 1.44976(5)
O44A O 0.5835(3) 0.1612(3) 0.9057(3)
O47A O 0.9210(3) 0.1691(4) 1.1417(3)
#END
