
#######################################################################
#
#                 Cambridge Crystallographic Data Centre
#                                CCDC
#
#######################################################################
#
# If this CIF has been generated from an entry in the Cambridge
# Structural Database, then it will include bibliographic, chemical,
# crystal, experimental, refinement or atomic coordinate data resulting
# from the CCDC's data processing and validation procedures.
#
#######################################################################

data_CSD_CIF_SUNHAL
_audit_creation_date 2010-03-10
_audit_creation_method CSD-ConQuest-V1
_database_code_CSD SUNHAL
_database_code_depnum_ccdc_archive 'CCDC 707671'
_chemical_formula_sum 'C34 H48 Cl2 In2 N2 O18'
_chemical_formula_moiety
;
(C5 H14 N1 O1 1+)2n,n(C24 H16 Cl2 In2 O14 2-),2n(H2 O1)
;
_journal_coden_Cambridge 179
_journal_volume 48
_journal_year 2009
_journal_page_first 3486
_journal_name_full 'Angew.Chem.,Int.Ed. '
loop_
_publ_author_name
"Jian Zhang"
"Tao Wu"
"Shumei Chen"
"Pingyun Feng"
"Xianhui Bu"
_chemical_name_systematic
;
catena-(bis(Choline) 
(\m~2~-benzene-1,4-dicarboxylato-O,O',O'',O''')-bis(\m~2~-benzene-1,4-dicarbox
;
_cell_volume   2092.631
_exptl_crystal_density_diffrn 1.703
_diffrn_ambient_temperature 293
#These two values have been output from a single CSD field.
_refine_ls_R_factor_gt 0.0538
_refine_ls_wR_factor_gt 0.0538
_symmetry_cell_setting monoclinic
_symmetry_space_group_name_H-M 'P 21/c'
_symmetry_Int_Tables_number 14
loop_
_symmetry_equiv_pos_site_id
_symmetry_equiv_pos_as_xyz
1 x,y,z
2 -x,1/2+y,1/2-z
3 -x,-y,-z
4 x,-1/2-y,-1/2+z
_cell_length_a 10.6925(2)
_cell_length_b 17.6168(4)
_cell_length_c 12.1630(3)
_cell_angle_alpha 90
_cell_angle_beta 114.025(2)
_cell_angle_gamma 90
_cell_formula_units_Z 2
loop_
_atom_type_symbol
_atom_type_radius_bond
C 0.68
H 0.23
Cl 0.99
In 1.42
N 0.75
O 0.68
loop_
_atom_site_label
_atom_site_type_symbol
_atom_site_fract_x
_atom_site_fract_y
_atom_site_fract_z
In1 In 0.24719(4) 0.27286(2) -0.01762(4)
Cl1 Cl 0.0413(2) 0.34605(17) -0.13953(18)
O1 O 0.3143(6) 0.2728(3) -0.1675(5)
O2 O 0.3931(5) 0.3816(3) 0.0440(4)
O3 O 0.2714(5) 0.3431(2) 0.1413(4)
O4 O 0.4800(6) 0.6656(3) 0.5140(5)
O5 O 0.5866(5) 0.7053(3) 0.4002(4)
O6 O 0.1296(5) 0.1962(3) 0.0603(4)
O7 O 0.1570(5) 0.1563(3) -0.0996(4)
N1 N 0.8078(10) 0.1675(5) 0.5763(8)
C1 C 0.4020(7) 0.4564(3) 0.2111(5)
C2 C 0.5047(8) 0.5031(4) 0.2089(6)
H1 H 0.54840 0.49180 0.15860
C3 C 0.5422(7) 0.5668(4) 0.2819(6)
H2 H 0.61240 0.59760 0.28080
C4 C 0.4782(7) 0.5857(4) 0.3557(6)
C5 C 0.3769(7) 0.5372(4) 0.3611(6)
H3 H 0.33480 0.54820 0.41270
C6 C 0.3395(7) 0.4728(4) 0.2892(6)
H4 H 0.27260 0.44050 0.29300
C7 C 0.3531(7) 0.3904(4) 0.1277(6)
C8 C 0.5164(7) 0.6571(4) 0.4314(6)
C9 C 0.0571(7) 0.0702(4) -0.0076(6)
C10 C 0.0470(8) 0.0126(4) -0.0891(6)
H5 H 0.07940 0.02090 -0.14850
C11 C 0.0103(7) 0.0566(4) 0.0830(6)
H6 H 0.01790 0.09420 0.13900
C12 C 0.1170(7) 0.1445(4) -0.0163(6)
C13 C 0.853(3) 0.2651(12) 0.615(2)
C14 C 0.736(3) 0.1550(14) 0.657(2)
C15 C 0.729(2) 0.1834(13) 0.4463(17)
C16 C 0.9414(12) 0.1354(7) 0.6130(11)
H7 H 0.99110 0.13520 0.69980
H8 H 0.99510 0.16090 0.57620
C17 C 0.895(3) 0.0490(19) 0.558(3)
H9 H 0.86530 0.04870 0.47140
H10 H 0.97000 0.01360 0.59350
O8 O 0.722(3) 0.3037(18) 0.416(3)
O9 O 0.782(3) 0.0288(17) 0.590(3)
In1A In 0.75281(4) 0.77286(2) 0.51762(4)
In1B In -0.24719(4) -0.27286(2) 0.01762(4)
In1C In -0.75281(4) -0.77286(2) -0.51762(4)
Cl1B Cl -0.0413(2) -0.34605(17) 0.13953(18)
O1B O -0.3143(6) -0.2728(3) 0.1675(5)
O2B O -0.3931(5) -0.3816(3) -0.0440(4)
O3B O -0.2714(5) -0.3431(2) -0.1413(4)
O4B O -0.4800(6) -0.6656(3) -0.5140(5)
O5A O 0.4134(5) 0.2053(3) 0.0998(4)
O5C O -0.4134(5) -0.2053(3) -0.0998(4)
O5B O -0.5866(5) -0.7053(3) -0.4002(4)
O6B O -0.1296(5) -0.1962(3) -0.0603(4)
O7B O -0.1570(5) -0.1563(3) 0.0996(4)
C1B C -0.4020(7) -0.4564(3) -0.2111(5)
C2B C -0.5047(8) -0.5031(4) -0.2089(6)
H1B H -0.54840 -0.49180 -0.15860
C3B C -0.5422(7) -0.5668(4) -0.2819(6)
H2B H -0.61240 -0.59760 -0.28080
C4B C -0.4782(7) -0.5857(4) -0.3557(6)
C5B C -0.3769(7) -0.5372(4) -0.3611(6)
H3B H -0.33480 -0.54820 -0.41270
C6B C -0.3395(7) -0.4728(4) -0.2892(6)
H4B H -0.27260 -0.44050 -0.29300
C7B C -0.3531(7) -0.3904(4) -0.1277(6)
C8B C -0.5164(7) -0.6571(4) -0.4314(6)
C9B C -0.0571(7) -0.0702(4) 0.0076(6)
C10B C -0.0470(8) -0.0126(4) 0.0891(6)
H5B H -0.07940 -0.02090 0.14850
C11B C -0.0103(7) -0.0566(4) -0.0830(6)
H6B H -0.01790 -0.09420 -0.13900
C12B C -0.1170(7) -0.1445(4) 0.0163(6)
#END
