
#######################################################################
#
#                 Cambridge Crystallographic Data Centre
#                                CCDC
#
#######################################################################
#
# If this CIF has been generated from an entry in the Cambridge
# Structural Database, then it will include bibliographic, chemical,
# crystal, experimental, refinement or atomic coordinate data resulting
# from the CCDC's data processing and validation procedures.
#
#######################################################################

data_CSD_CIF_SUNHEP
_audit_creation_date 2010-03-10
_audit_creation_method CSD-ConQuest-V1
_database_code_CSD SUNHEP
_database_code_depnum_ccdc_archive 'CCDC 707672'
_chemical_formula_sum 'C44 H52 N6 O20 Yb2'
_chemical_formula_moiety
;
(C34 H24 N4 O18 Yb2 2-)n,2n(C5 H14 N1 O1 1+)
;
_journal_coden_Cambridge 179
_journal_volume 48
_journal_year 2009
_journal_page_first 3486
_journal_name_full 'Angew.Chem.,Int.Ed. '
loop_
_publ_author_name
"Jian Zhang"
"Tao Wu"
"Shumei Chen"
"Pingyun Feng"
"Xianhui Bu"
_chemical_name_systematic
;
catena-(bis(Choline) 
bis(\m~3~-benzene-1,4-dicarboxylato-O,O',O'')-bis(\m~2~-benzene-1,4-dicarboxyl
ato-O,O',O'',O''')-bis(urea-O)-di-ytterbium(iii))
;
_cell_volume   1173.460
_exptl_crystal_colour 'colorless'
_exptl_crystal_density_diffrn 1.883
_exptl_special_details
;
isostructural with the samarium and yttrium analogues

;
_exptl_crystal_description 'prism'
_diffrn_ambient_temperature 293
#These two values have been output from a single CSD field.
_refine_ls_R_factor_gt 0.0191
_refine_ls_wR_factor_gt 0.0191
_symmetry_cell_setting triclinic
_symmetry_space_group_name_H-M 'P -1'
_symmetry_Int_Tables_number 2
loop_
_symmetry_equiv_pos_site_id
_symmetry_equiv_pos_as_xyz
1 x,y,z
2 -x,-y,-z
_cell_length_a 8.4034(1)
_cell_length_b 10.5334(1)
_cell_length_c 14.3515(1)
_cell_angle_alpha 100.83
_cell_angle_beta 103.41
_cell_angle_gamma 101.56
_cell_formula_units_Z 1
loop_
_atom_type_symbol
_atom_type_radius_bond
C 0.68
H 0.23
N 0.68
O 0.68
Yb 1.87
loop_
_atom_site_label
_atom_site_type_symbol
_atom_site_fract_x
_atom_site_fract_y
_atom_site_fract_z
Yb1 Yb 0.154343(14) 1.159480(11) 0.170179(8)
O1 O 0.1524(3) 0.9525(2) 0.09604(15)
O2 O -0.0305(3) 0.7904(2) -0.02817(15)
O3 O 0.0752(3) 0.3260(2) 0.25876(16)
O4 O 0.2198(4) 0.4956(2) 0.38750(17)
O5 O 0.1672(3) 1.0759(2) 0.31692(16)
O6 O 0.4069(3) 1.1451(2) 0.28506(16)
O7 O 0.3543(3) 1.3608(2) 0.18849(16)
O8 O 0.3765(3) 1.1917(2) 0.08062(15)
O9 O -0.1171(3) 1.0530(2) 0.15139(16)
O10 O 0.1029(4) 0.0835(3) 0.6375(2)
H1 H 0.12060 0.01120 0.64340
N1 N -0.2630(4) 1.1684(3) 0.2325(2)
H2 H -0.17140 1.22350 0.27130
H3 H -0.35960 1.17760 0.23880
N2 N -0.3996(3) 0.9828(3) 0.1067(2)
H4 H -0.39750 0.91590 0.06270
H5 H -0.49470 0.99400 0.11450
N3 N 0.2266(4) 0.3654(3) 0.6011(2)
C1 C 0.0859(4) 0.7340(3) 0.1208(2)
C2 C 0.2116(4) 0.7689(3) 0.2105(2)
H6 H 0.28620 0.85350 0.23160
C3 C 0.2254(4) 0.6783(3) 0.2678(2)
H7 H 0.30620 0.70420 0.32900
C4 C 0.1209(4) 0.5486(3) 0.2363(2)
C5 C -0.0032(4) 0.5134(3) 0.1460(2)
H8 H -0.07380 0.42730 0.12310
C6 C -0.0217(4) 0.6066(3) 0.0899(2)
H9 H -0.10750 0.58300 0.03080
C7 C 0.0672(4) 0.8337(3) 0.0583(2)
C8 C 0.1432(4) 0.4504(3) 0.2997(2)
C9 C 0.4161(4) 1.0447(3) 0.4212(2)
C10 C 0.3267(4) 0.9792(3) 0.4767(2)
H10 H 0.20980 0.96530 0.46140
C11 C 0.3247(4) 1.0915(3) 0.3371(2)
C12 C 0.4581(4) 1.4119(3) 0.0563(2)
C13 C 0.5315(4) 1.3746(3) -0.0179(2)
H11 H 0.55270 1.29060 -0.03010
C14 C 0.4266(4) 1.5370(3) 0.0742(2)
H12 H 0.37730 1.56200 0.12420
C15 C 0.3970(4) 1.3156(3) 0.1124(2)
C16 C -0.2551(4) 1.0695(3) 0.1629(2)
C17 C 0.0710(5) 0.2871(5) 0.5198(3)
H13 H 0.07590 0.31310 0.45970
H14 H -0.02740 0.30470 0.53730
H15 H 0.06480 0.19340 0.51040
C18 C 0.3777(5) 0.3489(5) 0.5687(4)
H16 H 0.37240 0.37560 0.50790
H17 H 0.38100 0.25680 0.55870
H18 H 0.47790 0.40340 0.61840
C19 C 0.2284(6) 0.5090(4) 0.6188(4)
H19 H 0.23160 0.53860 0.55980
H20 H 0.32650 0.56000 0.67160
H21 H 0.12820 0.52130 0.63660
C20 C 0.2223(7) 0.3245(5) 0.6964(3)
H22 H 0.11670 0.33370 0.70970
H23 H 0.31300 0.38790 0.74940
C21 C 0.2382(6) 0.1876(5) 0.7020(3)
H24 H 0.34230 0.17640 0.68740
H25 H 0.24720 0.17980 0.76920
C22 C 0.5901(4) 1.0650(3) 0.4461(2)
H26 H 0.65170 1.10900 0.41030
Yb1A Yb -0.154343(14) 0.840520(11) -0.170179(8)
Yb1* Yb 0.154343(14) 0.159480(11) 0.170179(8)
Yb1A* Yb 0.845657(14) 0.840520(11) 0.829821(8)
Yb1A** Yb 0.845657(14) 1.840520(11) -0.170179(8)
Yb1A*** Yb -0.154343(14) 1.840520(11) -0.170179(8)
O1A O -0.1524(3) 1.0475(2) -0.09604(15)
O2A O 0.0305(3) 1.2096(2) 0.02817(15)
O3A O -0.0752(3) 1.6740(2) -0.25876(16)
O3* O 0.0752(3) 1.3260(2) 0.25876(16)
O3A* O -0.0752(3) 0.6740(2) -0.25876(16)
O4A O -0.2198(4) 1.5044(2) -0.38750(17)
O5A O 0.8328(3) 0.9241(2) 0.68308(16)
O5A* O -0.1672(3) 0.9241(2) -0.31692(16)
O6A O 0.5931(3) 0.8549(2) 0.71494(16)
O6A* O -0.4069(3) 0.8549(2) -0.28506(16)
O7A O 0.6457(3) 1.6392(2) -0.18849(16)
O7A* O -0.3543(3) 0.6392(2) -0.18849(16)
O8A O 0.6235(3) 1.8083(2) -0.08062(15)
O8A* O -0.3765(3) 0.8083(2) -0.08062(15)
O9A O 0.1171(3) 0.9470(2) -0.15139(16)
N1A N 0.2630(4) 0.8316(3) -0.2325(2)
H2A H 0.17140 0.77650 -0.27130
H3A H 0.35960 0.82240 -0.23880
N2A N 0.3996(3) 1.0172(3) -0.1067(2)
H4A H 0.39750 1.08410 -0.06270
H5A H 0.49470 1.00600 -0.11450
C1A C -0.0859(4) 1.2660(3) -0.1208(2)
C2A C -0.2116(4) 1.2311(3) -0.2105(2)
H6A H -0.28620 1.14650 -0.23160
C3A C -0.2254(4) 1.3217(3) -0.2678(2)
H7A H -0.30620 1.29580 -0.32900
C4A C -0.1209(4) 1.4514(3) -0.2363(2)
C5A C 0.0032(4) 1.4866(3) -0.1460(2)
H8A H 0.07380 1.57270 -0.12310
C6A C 0.0217(4) 1.3934(3) -0.0899(2)
H9A H 0.10750 1.41700 -0.03080
C7A C -0.0672(4) 1.1663(3) -0.0583(2)
C8A C -0.1432(4) 1.5496(3) -0.2997(2)
C9A C 0.5839(4) 0.9553(3) 0.5788(2)
C10A C 0.6733(4) 1.0208(3) 0.5233(2)
H10A H 0.79020 1.03470 0.53860
C11A C 0.6753(4) 0.9085(3) 0.6629(2)
C12A C 0.5419(4) 1.5881(3) -0.0563(2)
C13A C 0.4685(4) 1.6254(3) 0.0179(2)
H11A H 0.44730 1.70940 0.03010
C14A C 0.5734(4) 1.4630(3) -0.0742(2)
H12A H 0.62270 1.43800 -0.12420
C15A C 0.6030(4) 1.6844(3) -0.1124(2)
C16A C 0.2551(4) 0.9305(3) -0.1629(2)
C22A C 0.4099(4) 0.9350(3) 0.5539(2)
H26A H 0.34830 0.89100 0.58970
#END
