
#######################################################################
#
#                 Cambridge Crystallographic Data Centre
#                                CCDC
#
#######################################################################
#
# If this CIF has been generated from an entry in the Cambridge
# Structural Database, then it will include bibliographic, chemical,
# crystal, experimental, refinement or atomic coordinate data resulting
# from the CCDC's data processing and validation procedures.
#
#######################################################################

data_CSD_CIF_SUNHOZ
_audit_creation_date 2010-03-10
_audit_creation_method CSD-ConQuest-V1
_database_code_CSD SUNHOZ
_database_code_depnum_ccdc_archive 'CCDC 707674'
_chemical_formula_sum 'C44 H52 N6 O20 Y2'
_chemical_formula_moiety
;
(C34 H24 N4 O18 Y2 2-)n,2n(C5 H14 N1 O1 1+)
;
_journal_coden_Cambridge 179
_journal_volume 48
_journal_year 2009
_journal_page_first 3486
_journal_name_full 'Angew.Chem.,Int.Ed. '
loop_
_publ_author_name
"Jian Zhang"
"Tao Wu"
"Shumei Chen"
"Pingyun Feng"
"Xianhui Bu"
_chemical_name_systematic
;
catena-(bis(Choline) 
bis(\m~3~-benzene-1,4-dicarboxylato-O,O',O'')-bis(\m~2~-benzene-1,4-dicarboxyl
ato-O,O',O'',O''')-bis(urea-O)-di-yttrium(iii))
;
_cell_volume   1164.304
_exptl_crystal_density_diffrn 1.658
_exptl_special_details
;
isostructural with the samarium and ytterbium analogues

;
_diffrn_ambient_temperature 293
#These two values have been output from a single CSD field.
_refine_ls_R_factor_gt 0.039
_refine_ls_wR_factor_gt 0.039
_symmetry_cell_setting triclinic
_symmetry_space_group_name_H-M 'P -1'
_symmetry_Int_Tables_number 2
loop_
_symmetry_equiv_pos_site_id
_symmetry_equiv_pos_as_xyz
1 x,y,z
2 -x,-y,-z
_cell_length_a 8.3734(2)
_cell_length_b 10.5740(2)
_cell_length_c 14.3077(3)
_cell_angle_alpha 101.478(1)
_cell_angle_beta 103.120(1)
_cell_angle_gamma 102.247(1)
_cell_formula_units_Z 1
loop_
_atom_type_symbol
_atom_type_radius_bond
C 0.68
H 0.23
N 0.68
O 0.68
Y 1.64
loop_
_atom_site_label
_atom_site_type_symbol
_atom_site_fract_x
_atom_site_fract_y
_atom_site_fract_z
Y1 Y -0.34336(4) 0.66015(3) 0.17072(2)
O1 O -0.4222(3) -0.1714(2) 0.26190(17)
O2 O -0.2715(3) 0.0021(2) 0.39170(18)
O3 O -0.3457(3) 0.4494(2) 0.09558(16)
O4 O -0.5356(3) 0.2847(2) -0.02744(17)
O5 O -0.1344(3) 0.8643(2) 0.19330(17)
O6 O -0.1184(3) 0.6931(2) 0.08238(17)
O7 O -0.0912(3) 0.6470(2) 0.28734(17)
O8 O -0.3341(3) 0.5751(2) 0.31856(17)
O9 O -0.6214(3) 0.5521(2) 0.14930(17)
N1 N -0.7647(4) 0.6687(3) 0.2340(2)
H1 H -0.67180 0.72470 0.27250
H2 H -0.86120 0.67740 0.24140
N2 N -0.9065(3) 0.4803(3) 0.1058(2)
H3 H -0.90550 0.41350 0.06070
H4 H -1.00160 0.49080 0.11460
O10 O -0.6049(3) 0.4234(3) 0.36723(19)
H5 H -0.62520 0.49440 0.36140
C1 C -0.7591(4) 0.5685(4) 0.1628(3)
N3 N -0.7177(4) 0.1370(3) 0.4001(2)
C2 C -0.3747(4) 0.0502(3) 0.2382(2)
C3 C -0.5013(4) 0.0120(4) 0.1484(3)
H6 H -0.57280 -0.07470 0.12630
C4 C -0.5216(4) 0.1028(4) 0.0915(2)
H7 H -0.60860 0.07640 0.03230
C5 C -0.4142(4) 0.2323(3) 0.1213(2)
C6 C -0.2854(4) 0.2700(4) 0.2113(3)
H8 H -0.21070 0.35540 0.23210
C7 C -0.2685(4) 0.1808(3) 0.2699(2)
H9 H -0.18570 0.20830 0.33080
C8 C -0.3515(4) -0.0452(4) 0.3028(3)
C9 C -0.4337(4) 0.3301(4) 0.0585(3)
C10 C -0.0384(4) 0.9129(3) 0.0573(2)
C11 C 0.0307(4) 0.8746(4) -0.0191(3)
H10 H 0.05150 0.79070 -0.03210
C12 C -0.0688(4) 1.0388(4) 0.0762(3)
H11 H -0.11520 1.06460 0.12780
C13 C -0.0957(4) 0.8178(4) 0.1152(3)
C14 C -0.0846(4) 0.5437(3) 0.4218(2)
C15 C 0.0903(4) 0.5590(4) 0.4432(2)
H12 H 0.15150 0.59890 0.40510
C16 C -0.1735(4) 0.4841(4) 0.4799(2)
H13 H -0.29030 0.47330 0.46660
C17 C -0.1736(5) 0.5917(3) 0.3385(3)
C18 C -0.8735(5) 0.1504(4) 0.4309(3)
H14 H -0.87040 0.12290 0.49110
H15 H -0.97280 0.09480 0.37950
H16 H -0.87730 0.24220 0.44180
C19 C -0.7205(5) -0.0076(4) 0.3813(3)
H17 H -0.72380 -0.03680 0.44050
H18 H -0.62000 -0.01940 0.36330
H19 H -0.81950 -0.05960 0.32820
C20 C -0.5634(5) 0.2157(4) 0.4832(3)
H20 H -0.56970 0.18750 0.54240
H21 H -0.55780 0.30930 0.49470
H22 H -0.46340 0.20080 0.46590
C21 C -0.7130(5) 0.1790(4) 0.3049(3)
H23 H -0.60420 0.17540 0.29310
H24 H -0.80060 0.11260 0.25060
C22 C -0.7368(5) 0.3154(4) 0.2997(3)
H25 H -0.74410 0.32420 0.23270
H26 H -0.84400 0.32130 0.31280
Y1* Y -0.34336(4) -0.33985(3) 0.17072(2)
Y1A Y -0.65664(4) 1.33985(3) -0.17072(2)
Y1A* Y 0.34336(4) 1.33985(3) -0.17072(2)
Y1A** Y 0.34336(4) 0.33985(3) 0.82928(2)
Y1A*** Y -0.65664(4) 0.33985(3) -0.17072(2)
O1* O -0.4222(3) 0.8286(2) 0.26190(17)
O1A O -0.5778(3) 1.1714(2) -0.26190(17)
O1A* O -0.5778(3) 0.1714(2) -0.26190(17)
O2A O -0.7285(3) 0.9979(2) -0.39170(18)
O3A O -0.6543(3) 0.5506(2) -0.09558(16)
O4A O -0.4644(3) 0.7153(2) 0.02744(17)
O5A O 0.1344(3) 1.1357(2) -0.19330(17)
O5A* O -0.8656(3) 0.1357(2) -0.19330(17)
O6A O 0.1184(3) 1.3069(2) -0.08238(17)
O6A* O -0.8816(3) 0.3069(2) -0.08238(17)
O7A O 0.0912(3) 0.3530(2) 0.71266(17)
O7A* O -0.9088(3) 0.3530(2) -0.28734(17)
O8A O 0.3341(3) 0.4249(2) 0.68144(17)
O8A* O -0.6659(3) 0.4249(2) -0.31856(17)
O9A O -0.3786(3) 0.4479(2) -0.14930(17)
N1A N -0.2353(4) 0.3313(3) -0.2340(2)
H1A H -0.32820 0.27530 -0.27250
H2A H -0.13880 0.32260 -0.24140
N2A N -0.0935(3) 0.5197(3) -0.1058(2)
H3A H -0.09450 0.58650 -0.06070
H4A H 0.00160 0.50920 -0.11460
C1A C -0.2409(4) 0.4315(4) -0.1628(3)
C2A C -0.6253(4) 0.9498(3) -0.2382(2)
C3A C -0.4987(4) 0.9880(4) -0.1484(3)
H6A H -0.42720 1.07470 -0.12630
C4A C -0.4784(4) 0.8972(4) -0.0915(2)
H7A H -0.39140 0.92360 -0.03230
C5A C -0.5858(4) 0.7677(3) -0.1213(2)
C6A C -0.7146(4) 0.7300(4) -0.2113(3)
H8A H -0.78930 0.64460 -0.23210
C7A C -0.7315(4) 0.8192(3) -0.2699(2)
H9A H -0.81430 0.79170 -0.33080
C8A C -0.6485(4) 1.0452(4) -0.3028(3)
C9A C -0.5663(4) 0.6699(4) -0.0585(3)
C10A C 0.0384(4) 1.0871(3) -0.0573(2)
C11A C -0.0307(4) 1.1254(4) 0.0191(3)
H10A H -0.05150 1.20930 0.03210
C12A C 0.0688(4) 0.9612(4) -0.0762(3)
H11A H 0.11520 0.93540 -0.12780
C13A C 0.0957(4) 1.1822(4) -0.1152(3)
C14A C 0.0846(4) 0.4563(3) 0.5782(2)
C15A C -0.0903(4) 0.4410(4) 0.5568(2)
H12A H -0.15150 0.40110 0.59490
C16A C 0.1735(4) 0.5159(4) 0.5201(2)
H13A H 0.29030 0.52670 0.53340
C17A C 0.1736(5) 0.4083(3) 0.6615(3)
#END
