
#######################################################################
#
#                 Cambridge Crystallographic Data Centre
#                                CCDC
#
#######################################################################
#
# If this CIF has been generated from an entry in the Cambridge
# Structural Database, then it will include bibliographic, chemical,
# crystal, experimental, refinement or atomic coordinate data resulting
# from the CCDC's data processing and validation procedures.
#
#######################################################################

data_CSD_CIF_SUNHIT
_audit_creation_date 2010-03-10
_audit_creation_method CSD-ConQuest-V1
_database_code_CSD SUNHIT
_database_code_depnum_ccdc_archive 'CCDC 707673'
_chemical_formula_sum 'C44 H52 N6 O20 Sm2'
_chemical_formula_moiety
;
(C34 H24 N4 O18 Sm2 2-)n,2n(C5 H14 N1 O1 1+)
;
_journal_coden_Cambridge 179
_journal_volume 48
_journal_year 2009
_journal_page_first 3486
_journal_name_full 'Angew.Chem.,Int.Ed. '
loop_
_publ_author_name
"Jian Zhang"
"Tao Wu"
"Shumei Chen"
"Pingyun Feng"
"Xianhui Bu"
_chemical_name_systematic
;
catena-(bis(Choline) 
bis(\m~3~-benzene-1,4-dicarboxylato-O,O',O'')-bis(\m~2~-benzene-1,4-dicarboxyl
ato-O,O',O'',O''')-bis(urea-O)-di-samarium(iii))
;
_cell_volume   1178.192
_exptl_crystal_colour 'colorless'
_exptl_crystal_density_diffrn 1.812
_exptl_special_details
;
isostructural with the ytterbium and yttrium analogues

;
_exptl_crystal_description 'prism'
_diffrn_ambient_temperature 293
#These two values have been output from a single CSD field.
_refine_ls_R_factor_gt 0.0206
_refine_ls_wR_factor_gt 0.0206
_symmetry_cell_setting triclinic
_symmetry_space_group_name_H-M 'P -1'
_symmetry_Int_Tables_number 2
loop_
_symmetry_equiv_pos_site_id
_symmetry_equiv_pos_as_xyz
1 x,y,z
2 -x,-y,-z
_cell_length_a 8.3898(1)
_cell_length_b 10.6559(2)
_cell_length_c 14.3877(2)
_cell_angle_alpha 101.964(1)
_cell_angle_beta 102.864(1)
_cell_angle_gamma 102.681(1)
_cell_formula_units_Z 1
loop_
_atom_type_symbol
_atom_type_radius_bond
C 0.68
H 0.23
N 0.68
O 0.68
Sm 1.69
loop_
_atom_site_label
_atom_site_type_symbol
_atom_site_fract_x
_atom_site_fract_y
_atom_site_fract_z
Sm1 Sm 0.342501(11) 0.339378(9) 0.329083(7)
O1 O 0.33948(18) 0.55500(14) 0.40484(11)
O2 O 0.53618(19) 0.71927(15) 0.52487(11)
O3 O 0.2713(2) 0.99305(15) 0.10739(12)
O4 O 0.42426(17) 1.16695(14) 0.23588(11)
O5 O 0.08809(18) 0.35191(15) 0.20852(11)
O6 O 0.33346(17) 0.42642(15) 0.17883(11)
O7 O 0.12455(18) 0.13114(14) 0.30410(11)
O8 O 0.10955(18) 0.30249(14) 0.41526(11)
O9 O 0.62758(17) 0.45177(15) 0.35174(12)
O10 O 0.3951(2) 1.42091(17) -0.13024(13)
H1 H 0.37520 1.49150 -0.13560
N1 N 0.9134(2) 0.52346(18) 0.39443(15)
H2 H 0.91370 0.59000 0.44010
H3 H 1.00790 0.51300 0.38510
N2 N 0.7684(2) 0.33557(19) 0.26569(15)
H4 H 0.67480 0.27980 0.22750
H5 H 0.86420 0.32670 0.25750
N3 N 0.2824(2) 1.13591(18) -0.09908(14)
C1 C 0.4112(2) 0.76999(19) 0.37746(15)
C2 C 0.2823(2) 0.73057(19) 0.28861(15)
H6 H 0.20640 0.64570 0.26900
C3 C 0.2662(3) 0.81707(19) 0.22894(15)
H7 H 0.18390 0.78800 0.16800
C4 C 0.3737(2) 0.94798(19) 0.26042(14)
C5 C 0.5008(2) 0.98815(19) 0.34971(15)
H8 H 0.57220 1.07490 0.37140
C6 C 0.5216(2) 0.89899(19) 0.40694(15)
H9 H 0.60980 0.92560 0.46530
C7 C 0.4316(2) 0.67448(19) 0.44056(15)
C8 C 0.3517(2) 1.04135(19) 0.19519(15)
C9 C 0.0839(2) 0.45597(18) 0.07663(14)
C10 C -0.0906(2) 0.4415(2) 0.05740(15)
H10 H -0.15110 0.40230 0.09580
C11 C 0.1742(2) 0.5149(2) 0.01870(15)
H11 H 0.29050 0.52480 0.03120
C12 C 0.1734(2) 0.40810(19) 0.15877(15)
C13 C 0.0360(2) 0.08549(19) 0.44180(15)
C14 C 0.0687(3) -0.0389(2) 0.42287(15)
H12 H 0.11440 -0.06480 0.37110
C15 C -0.0330(3) 0.1240(2) 0.51860(15)
H13 H -0.05520 0.20670 0.53090
C16 C 0.0886(2) 0.17848(19) 0.38260(15)
C17 C 0.7652(2) 0.4358(2) 0.33767(15)
C18 C 0.4382(3) 1.2156(3) -0.01623(19)
H14 H 0.43230 1.18820 0.04270
H15 H 0.44440 1.30880 -0.00450
H16 H 0.53770 1.20080 -0.03390
C19 C 0.1270(3) 1.1491(3) -0.0682(2)
H17 H 0.13030 1.12270 -0.00810
H18 H 0.02750 1.09270 -0.11930
H19 H 0.12350 1.24030 -0.05740
C20 C 0.2776(3) 0.9913(2) -0.1187(2)
H20 H 0.27500 0.96280 -0.05980
H21 H 0.37710 0.97920 -0.13760
H22 H 0.17760 0.93930 -0.17110
C21 C 0.2860(3) 1.1766(2) -0.19425(17)
H23 H 0.19740 1.11010 -0.24820
H24 H 0.39410 1.17320 -0.20680
C22 C 0.2628(3) 1.3131(2) -0.19764(18)
H25 H 0.25470 1.32210 -0.26410
H26 H 0.15610 1.31830 -0.18380
Sm1A Sm 0.657499(11) 0.660622(9) 0.670917(7)
Sm1* Sm 0.342501(11) 1.339378(9) 0.329083(7)
Sm1A* Sm -0.342501(11) 0.660622(9) -0.329083(7)
Sm1A** Sm -0.342501(11) -0.339378(9) 0.670917(7)
Sm1A*** Sm 0.657499(11) -0.339378(9) 0.670917(7)
O1A O 0.66052(18) 0.44500(14) 0.59516(11)
O2A O 0.46382(19) 0.28073(15) 0.47513(11)
O3A O 0.7287(2) 0.00695(15) 0.89261(12)
O4A O 0.57574(17) -0.16695(14) 0.76412(11)
O4* O 0.42426(17) 0.16695(14) 0.23588(11)
O4A* O 0.57574(17) 0.83305(14) 0.76412(11)
O5A O -0.08809(18) 0.64809(15) -0.20852(11)
O5A* O 0.91191(18) 0.64809(15) 0.79148(11)
O6A O -0.33346(17) 0.57358(15) -0.17883(11)
O6A* O 0.66654(17) 0.57358(15) 0.82117(11)
O7A O -0.12455(18) -0.13114(14) 0.69590(11)
O7A* O 0.87545(18) 0.86886(14) 0.69590(11)
O8A O -0.10955(18) -0.30249(14) 0.58474(11)
O8A* O 0.89045(18) 0.69751(14) 0.58474(11)
O9A O 0.37242(17) 0.54823(15) 0.64826(12)
N1A N 0.0866(2) 0.47654(18) 0.60557(15)
H2A H 0.08630 0.41000 0.55990
H3A H -0.00790 0.48700 0.61490
N2A N 0.2316(2) 0.66443(19) 0.73431(15)
H4A H 0.32520 0.72020 0.77250
H5A H 0.13580 0.67330 0.74250
C1A C 0.5888(2) 0.23001(19) 0.62254(15)
C2A C 0.7177(2) 0.26943(19) 0.71139(15)
H6A H 0.79360 0.35430 0.73100
C3A C 0.7338(3) 0.18293(19) 0.77106(15)
H7A H 0.81610 0.21200 0.83200
C4A C 0.6263(2) 0.05202(19) 0.73958(14)
C5A C 0.4992(2) 0.01185(19) 0.65029(15)
H8A H 0.42780 -0.07490 0.62860
C6A C 0.4784(2) 0.10101(19) 0.59306(15)
H9A H 0.39020 0.07440 0.53470
C7A C 0.5684(2) 0.32552(19) 0.55944(15)
C8A C 0.6483(2) -0.04135(19) 0.80481(15)
C9A C -0.0839(2) 0.54403(18) -0.07663(14)
C10A C 0.0906(2) 0.5585(2) -0.05740(15)
H10A H 0.15110 0.59770 -0.09580
C11A C -0.1742(2) 0.4851(2) -0.01870(15)
H11A H -0.29050 0.47520 -0.03120
C12A C -0.1734(2) 0.59190(19) -0.15877(15)
C13A C -0.0360(2) -0.08549(19) 0.55820(15)
C14A C -0.0687(3) 0.0389(2) 0.57713(15)
H12A H -0.11440 0.06480 0.62890
C15A C 0.0330(3) -0.1240(2) 0.48140(15)
H13A H 0.05520 -0.20670 0.46910
C16A C -0.0886(2) -0.17848(19) 0.61740(15)
C17A C 0.2348(2) 0.5642(2) 0.66233(15)
#END
