
#######################################################################
#
#                 Cambridge Crystallographic Data Centre
#                                CCDC
#
#######################################################################
#
# If this CIF has been generated from an entry in the Cambridge
# Structural Database, then it will include bibliographic, chemical,
# crystal, experimental, refinement or atomic coordinate data resulting
# from the CCDC's data processing and validation procedures.
#
#######################################################################

data_CSD_CIF_SUNTED
_audit_creation_date 2020-06-23
_audit_creation_method CSD-ConQuest-V1
_database_code_CSD SUNTED
_database_code_depnum_ccdc_archive 'CCDC 2006488'
_chemical_formula_sum 'C16 H20 Cd1 N10'
_chemical_formula_moiety
;
C10 H20 N1 1+,(C6 Cd1 N9 1-)n
;
_journal_coden_Cambridge 222
_journal_volume 49
_journal_year 2020
_journal_page_first 10740
_journal_name_full 'Dalton Trans. '
loop_
_publ_author_name
"S.Burger"
"S.Kronawitter"
"H.Bostrom"
"J.K.Zareba"
"G.Kieslich"
_chemical_name_systematic
;
catena-(6-azoniaspiro[5.5]undecane tris(\m-dicyanamide)-cadmium(ii))
;
_cell_volume   1963.724
_exptl_crystal_colour 'colorless'
_exptl_crystal_density_diffrn 1.572
_exptl_special_details
;
suitable crystal prepared in perfluoroether oil

;
_exptl_crystal_description 'block'
_exptl_crystal_preparation 'mild solution approach'
_diffrn_ambient_temperature 100.0
_diffrn_special_details
;
twin

;
#These two values have been output from a single CSD field.
_refine_ls_R_factor_gt 0.0153
_refine_ls_wR_factor_gt 0.0153
_symmetry_cell_setting orthorhombic
_symmetry_space_group_name_H-M 'P n a 21'
_symmetry_Int_Tables_number 33
loop_
_symmetry_equiv_pos_site_id
_symmetry_equiv_pos_as_xyz
1 x,y,z
2 -x,-y,1/2+z
3 1/2+x,1/2-y,z
4 1/2-x,1/2+y,1/2+z
_cell_length_a 17.1022(9)
_cell_length_b 10.7274(5)
_cell_length_c 10.7037(5)
_cell_angle_alpha 90
_cell_angle_beta 90
_cell_angle_gamma 90
_cell_formula_units_Z 4
loop_
_atom_type_symbol
_atom_type_radius_bond
C 0.68
H 0.23
Cd 1.44
N 0.68
loop_
_atom_site_label
_atom_site_type_symbol
_atom_site_fract_x
_atom_site_fract_y
_atom_site_fract_z
Cd1 Cd 0.34423(2) 0.73561(2) 0.39008(3)
N1 N 0.23836(15) 0.4016(2) 0.5486(2)
C1 C 0.52649(16) 0.8371(2) 0.4371(3)
N2 N 0.34393(14) 0.5517(3) 0.5068(2)
N3 N 0.58966(13) 0.9034(2) 0.4226(3)
C2 C 0.65411(13) 0.8523(2) 0.3808(5)
C3 C 0.29360(17) 0.4835(3) 0.5310(2)
C4 C 0.19932(16) 0.3998(2) 0.6532(3)
N4 N 0.46742(14) 0.7885(2) 0.4545(2)
N5 N 0.71296(13) 0.8175(3) 0.3431(3)
N6 N 0.15985(14) 0.3899(2) 0.7408(2)
N7 N 0.29155(15) 0.8482(2) 0.5511(2)
C5 C 0.23797(17) 0.8779(3) 0.6096(3)
C6 C 0.15085(15) 1.0096(3) 0.7004(3)
N8 N 0.17649(17) 0.8978(2) 0.6789(3)
N9 N 0.12007(14) 1.1025(2) 0.7262(2)
N10 N 0.51898(12) 0.25041(18) 0.3764(4)
C7 C 0.38273(16) 0.1615(3) 0.3990(4)
H1 H 0.34659 0.09855 0.36372
H2 H 0.35737 0.24413 0.39167
C8 C 0.55105(15) 0.4775(2) 0.4030(4)
H3 H 0.56050 0.46709 0.49362
H4 H 0.53041 0.56257 0.38907
C9 C 0.49144(16) 0.3832(2) 0.3603(2)
H5 H 0.47939 0.39792 0.27103
H6 H 0.44258 0.39516 0.40842
C10 C 0.59395(16) 0.2350(3) 0.3026(3)
H7 H 0.58242 0.24576 0.21259
H8 H 0.61408 0.14935 0.31481
C11 C 0.39692(19) 0.1326(3) 0.5362(3)
H9 H 0.41412 0.04494 0.54518
H10 H 0.34763 0.14308 0.58350
C12 C 0.4594(2) 0.2195(3) 0.5893(3)
H11 H 0.43895 0.30579 0.59123
H12 H 0.47155 0.19441 0.67622
C13 C 0.45798(17) 0.1617(3) 0.3238(3)
H13 H 0.44611 0.18584 0.23660
H14 H 0.47981 0.07623 0.32248
C14 C 0.65668(16) 0.3277(3) 0.3408(3)
H15 H 0.70278 0.31727 0.28583
H16 H 0.67328 0.30988 0.42757
C15 C 0.62790(19) 0.4622(3) 0.3325(3)
H17 H 0.66771 0.51876 0.36859
H18 H 0.62031 0.48538 0.24382
C16 C 0.53346(18) 0.2156(3) 0.5117(3)
H19 H 0.57222 0.27383 0.54790
H20 H 0.55589 0.13058 0.51531
Cd1B Cd 0.84423(2) 0.76439(2) 0.39008(3)
Cd1C Cd 0.15577(2) 0.23561(2) 0.89008(3)
Cd1C* Cd 0.15577(2) 1.23561(2) 0.89008(3)
N5B N 0.21296(13) 0.6825(3) 0.3431(3)
N6C N 0.34015(14) 0.8899(2) 0.2408(2)
N9C N 0.37993(14) 0.6025(2) 0.2262(2)
#END
