
#######################################################################
#
#                 Cambridge Crystallographic Data Centre
#                                CCDC
#
#######################################################################
#
# If this CIF has been generated from an entry in the Cambridge
# Structural Database, then it will include bibliographic, chemical,
# crystal, experimental, refinement or atomic coordinate data resulting
# from the CCDC's data processing and validation procedures.
#
#######################################################################

data_CSD_CIF_SUPGIW
_audit_creation_date 2020-06-23
_audit_creation_method CSD-ConQuest-V1
_database_code_CSD SUPGIW
_database_code_depnum_ccdc_archive 'CCDC 1978665'
_chemical_formula_sum 'C46 H38 Cd3 N4 O18'
_chemical_formula_moiety
;
(C42 H22 Cd3 N2 O18 2-)n,2n(C2 H8 N1 1+)
;
_journal_coden_Cambridge 1695
_journal_volume 8
_journal_year 2020
_journal_page_first 9427
_journal_name_full 'J.Mater.Chem.C '
loop_
_publ_author_name
"Xianglong Qu"
"Bing Yan"
_chemical_name_systematic
;
catena-(bis(dimethylammonium) 
bis(\m-aqua)-bis(\m-4,4'-(pyridine-3,5-diyl)bis(benzene-1,3-dicarboxylato))-tr
i-cadmium unknown solvate)
;
_cell_volume   3064.371
_exptl_crystal_colour 'colorless'
_exptl_crystal_description 'block'
_diffrn_ambient_temperature 293
_refine_special_details
;
The SQUEEZE/PLATON program was used to model the cations and some disordered 
solvent.
;
#These two values have been output from a single CSD field.
_refine_ls_R_factor_gt 0.0252
_refine_ls_wR_factor_gt 0.0252
_symmetry_cell_setting monoclinic
_symmetry_space_group_name_H-M 'P 21/n'
_symmetry_Int_Tables_number 14
loop_
_symmetry_equiv_pos_site_id
_symmetry_equiv_pos_as_xyz
1 x,y,z
2 1/2-x,1/2+y,1/2-z
3 -x,-y,-z
4 -1/2+x,-1/2-y,-1/2+z
_cell_length_a 14.423(3)
_cell_length_b 13.066(2)
_cell_length_c 16.263(3)
_cell_angle_alpha 90
_cell_angle_beta 90.933(5)
_cell_angle_gamma 90
_cell_formula_units_Z 2
loop_
_atom_type_symbol
_atom_type_radius_bond
C 0.68
H 0.23
Cd 1.44
N 0.68
O 0.68
loop_
_atom_site_label
_atom_site_type_symbol
_atom_site_fract_x
_atom_site_fract_y
_atom_site_fract_z
Cd1 Cd 0.24844(2) 1.02067(2) 0.49172(2)
Cd2 Cd 0.50000 0.50000 0.00000
O1 O 0.30768(12) 0.93624(14) 0.60873(10)
O2 O 0.45208(14) 0.53630(16) 0.12495(11)
O3 O 0.30646(12) 0.59490(15) 0.12620(11)
O4 O 0.12774(11) 0.89327(14) 0.50763(11)
O5 O 0.26897(16) 0.6544(2) 0.91276(13)
O6 O 0.31122(12) 0.89893(14) 0.41002(11)
O7 O 0.21087(13) 0.77067(17) 0.39888(15)
N1 N 0.60504(13) 0.90858(16) 0.51989(12)
O8 O 0.20675(12) 0.81336(17) 0.63866(13)
C1 C 0.48632(15) 0.83225(19) 0.60099(14)
C2 C 0.44760(15) 0.78950(18) 0.52975(14)
H1 H 0.39440 0.74959 0.53306
C3 C 0.48770(15) 0.80600(18) 0.45421(14)
O9 O 0.4108(2) 0.6264(3) 0.95302(15)
C4 C 0.36392(15) 0.74794(17) 0.34972(14)
C5 C 0.45656(15) 0.75297(19) 0.37736(14)
C6 C 0.45038(16) 0.8056(2) 0.68357(14)
C7 C 0.56562(16) 0.8913(2) 0.59250(14)
H2 H 0.59254 0.92022 0.63938
C8 C 0.41003(16) 0.64382(19) 0.23354(14)
C9 C 0.28862(15) 0.81031(19) 0.39054(14)
C10 C 0.28500(15) 0.85656(19) 0.64442(14)
C11 C 0.35556(15) 0.80735(18) 0.70170(13)
C12 C 0.32573(15) 0.76423(19) 0.77496(14)
H3 H 0.26278 0.76422 0.78646
C13 C 0.34195(15) 0.69241(18) 0.27883(14)
H4 H 0.28034 0.68777 0.26145
C14 C 0.38770(17) 0.7213(2) 0.83112(15)
C15 C 0.38719(17) 0.58727(18) 0.15446(14)
C16 C 0.56617(16) 0.8669(2) 0.45259(14)
H5 H 0.59327 0.87950 0.40209
C17 C 0.52407(17) 0.7032(2) 0.33163(16)
H6 H 0.58568 0.70613 0.34926
C18 C 0.3523(2) 0.6631(2) 0.90453(15)
C19 C 0.50157(17) 0.6497(2) 0.26077(16)
H7 H 0.54792 0.61756 0.23123
C20 C 0.48162(19) 0.7256(3) 0.81557(17)
H8 H 0.52415 0.70071 0.85422
C21 C 0.51237(18) 0.7670(3) 0.74253(17)
H9 H 0.57566 0.76905 0.73258
Cd1B Cd 0.75156(2) -0.02067(2) -0.49172(2)
O1B O 0.69232(12) 0.06376(14) -0.60873(10)
O2B O 0.54792(14) 0.46370(16) -0.12495(11)
O3B O 0.69354(12) 0.40510(15) -0.12620(11)
O4B O 0.87226(11) 0.10673(14) -0.50763(11)
O5B O 0.73103(16) 0.3456(2) -0.91276(13)
O6B O 0.68878(12) 0.10107(14) -0.41002(11)
O7B O 0.78913(13) 0.22933(17) -0.39888(15)
N1B N 0.39496(13) 0.09142(16) -0.51989(12)
O8B O 0.79325(12) 0.18664(17) -0.63866(13)
C1B C 0.51368(15) 0.16775(19) -0.60099(14)
C2B C 0.55240(15) 0.21050(18) -0.52975(14)
H1B H 0.60560 0.25041 -0.53306
C3B C 0.51230(15) 0.19400(18) -0.45421(14)
O9B O 0.5892(2) 0.3736(3) -0.95302(15)
C4B C 0.63608(15) 0.25206(17) -0.34972(14)
C5B C 0.54344(15) 0.24703(19) -0.37736(14)
C6B C 0.54962(16) 0.1944(2) -0.68357(14)
C7B C 0.43438(16) 0.1087(2) -0.59250(14)
H2B H 0.40746 0.07978 -0.63938
C8B C 0.58997(16) 0.35618(19) -0.23354(14)
C9B C 0.71138(15) 0.18969(19) -0.39054(14)
C10B C 0.71500(15) 0.14344(19) -0.64442(14)
C11B C 0.64444(15) 0.19265(18) -0.70170(13)
C12B C 0.67427(15) 0.23577(19) -0.77496(14)
H3B H 0.73722 0.23578 -0.78646
C13B C 0.65805(15) 0.30759(18) -0.27883(14)
H4B H 0.71966 0.31223 -0.26145
C14B C 0.61230(17) 0.2787(2) -0.83112(15)
C15B C 0.61281(17) 0.41273(18) -0.15446(14)
C16B C 0.43383(16) 0.1331(2) -0.45259(14)
H5B H 0.40673 0.12050 -0.40209
C17B C 0.47593(17) 0.2968(2) -0.33163(16)
H6B H 0.41432 0.29387 -0.34926
C18B C 0.6477(2) 0.3369(2) -0.90453(15)
C19B C 0.49843(17) 0.3503(2) -0.26077(16)
H7B H 0.45208 0.38244 -0.23123
C20B C 0.51838(19) 0.2744(3) -0.81557(17)
H8B H 0.47585 0.29929 -0.85422
C21B C 0.48763(18) 0.2330(3) -0.74253(17)
H9B H 0.42434 0.23095 -0.73258
Cd1* Cd 0.24844(2) 0.02067(2) -0.50828(2)
Cd1A Cd 0.25156(2) 0.52067(2) 0.00828(2)
Cd1A* Cd 0.25156(2) 0.52067(2) 1.00828(2)
Cd1B* Cd 0.75156(2) 0.97933(2) 0.50828(2)
Cd1C Cd 0.74844(2) 0.47933(2) -1.00828(2)
Cd1C* Cd 0.74844(2) 0.47933(2) -0.00828(2)
Cd2* Cd 0.50000 0.50000 -1.00000
Cd2** Cd 0.50000 0.50000 1.00000
Cd2A Cd 0.00000 1.00000 0.50000
Cd2A* Cd 1.00000 0.00000 -0.50000
O3A O 0.19354(12) 1.09490(15) 0.37380(11)
O3C O 0.80646(12) -0.09490(15) -0.37380(11)
O4A O 0.37226(11) 0.39327(14) -0.00763(11)
O4C O 0.62774(11) 0.60673(14) 0.00763(11)
O5A O 0.23103(16) 1.1544(2) 0.58724(13)
O5C O 0.76897(16) -0.1544(2) -0.58724(13)
N1* N 0.60504(13) -0.09142(16) -0.48011(12)
N1B* N 0.39496(13) 1.09142(16) 0.48011(12)
O9* O 0.4108(2) 0.6264(3) -0.04698(15)
O9B* O 0.5892(2) 0.3736(3) 0.04698(15)
#END
