
#######################################################################
#
#                 Cambridge Crystallographic Data Centre
#                                CCDC
#
#######################################################################
#
# If this CIF has been generated from an entry in the Cambridge
# Structural Database, then it will include bibliographic, chemical,
# crystal, experimental, refinement or atomic coordinate data resulting
# from the CCDC's data processing and validation procedures.
#
#######################################################################

data_CSD_CIF_SUQZAI
_audit_creation_date 2020-06-24
_audit_creation_method CSD-ConQuest-V1
_database_code_CSD SUQZAI
_database_code_depnum_ccdc_archive 'CCDC 1963555'
_chemical_formula_sum 'C6 H8 K3 O16 Sc1'
_chemical_formula_moiety
;
(C6 O12 Sc1 3-)n,4n(H2 O1),3n(K1 1+)
;
_journal_coden_Cambridge 1048
_journal_volume 22
_journal_year 2020
_journal_page_first 4364
_journal_name_full 'Green Chemistry '
loop_
_publ_author_name
"I.Huskic"
"M.Arhangelskis"
"T.Friscic"
_chemical_name_systematic
;
catena-(tri-potassium (\m-oxalato)-bis(oxalato)-scandium tetrahydrate)
;
_cell_volume   1532.019
_exptl_crystal_colour 'colorless'
_exptl_crystal_density_diffrn 2.161
_exptl_crystal_description 'monoclinic block'
_exptl_crystal_preparation 'water'
_diffrn_ambient_temperature 100
#These two values have been output from a single CSD field.
_refine_ls_R_factor_gt 0.018
_refine_ls_wR_factor_gt 0.018
_symmetry_cell_setting monoclinic
_symmetry_space_group_name_H-M 'C 2/c'
_symmetry_Int_Tables_number 15
loop_
_symmetry_equiv_pos_site_id
_symmetry_equiv_pos_as_xyz
1 x,y,z
2 -x,y,1/2-z
3 1/2+x,1/2+y,z
4 1/2-x,1/2+y,1/2-z
5 -x,-y,-z
6 x,-y,-1/2+z
7 -1/2-x,-1/2-y,-z
8 -1/2+x,-1/2-y,-1/2+z
_cell_length_a 11.4151(8)
_cell_length_b 12.6781(9)
_cell_length_c 11.4093(8)
_cell_angle_alpha 90
_cell_angle_beta 111.900(2)
_cell_angle_gamma 90
_cell_formula_units_Z 4
loop_
_atom_type_symbol
_atom_type_radius_bond
C 0.68
H 0.23
K 2.03
O 0.68
Sc 1.70
loop_
_atom_site_label
_atom_site_type_symbol
_atom_site_fract_x
_atom_site_fract_y
_atom_site_fract_z
Sc1 Sc 0.50000 0.56058(2) 0.75000
O1 O 0.46675(7) 0.42628(6) 0.61277(7)
C1 C 0.48083(9) 0.44380(7) 0.51031(10)
O2 O 0.46548(7) 0.38015(6) 0.42208(7)
C2 C 0.2580(1) 0.68673(9) 0.65758(9)
O3 O 0.30588(7) 0.50597(6) 0.70645(7)
C3 C 0.21698(10) 0.57230(9) 0.67231(10)
O4 O 0.37563(7) 0.69729(6) 0.68176(7)
O5 O 0.17768(8) 0.75776(7) 0.62596(8)
O6 O 0.10405(8) 0.55406(6) 0.65353(8)
K1 K -0.02092(2) 0.66527(2) 0.41175(2)
K2 K 0.50000 0.23448(2) 0.75000
H1 H 0.7303(19) 0.1081(15) 0.3853(19)
H2 H 0.663(2) 0.0376(17) 0.317(2)
O7 O 0.68034(10) 0.06552(7) 0.38664(10)
O8 O 0.31270(9) 0.14710(7) 0.53583(9)
H3 H 0.314(2) 0.0813(18) 0.549(2)
H4 H 0.244(3) 0.159(2) 0.494(3)
O1D O 0.53325(7) 0.57372(6) 0.38723(7)
C1D C 0.51917(9) 0.55620(7) 0.48969(10)
O2D O 0.53452(7) 0.61985(6) 0.57792(7)
C2A C 0.7420(1) 0.68673(9) 0.84242(9)
O3A O 0.69412(7) 0.50597(6) 0.79355(7)
C3A C 0.78302(10) 0.57230(9) 0.82769(10)
O4A O 0.62437(7) 0.69729(6) 0.81824(7)
O5A O 0.82232(8) 0.75776(7) 0.87404(8)
O6A O 0.89595(8) 0.55406(6) 0.84647(8)
Sc1D Sc 0.50000 0.43942(2) 0.25000
O1A O 0.53325(7) 0.42628(6) 0.88723(7)
O2E O 0.46548(7) 0.61985(6) 0.92208(7)
#END
