
#######################################################################
#
#                 Cambridge Crystallographic Data Centre
#                                CCDC
#
#######################################################################
#
# If this CIF has been generated from an entry in the Cambridge
# Structural Database, then it will include bibliographic, chemical,
# crystal, experimental, refinement or atomic coordinate data resulting
# from the CCDC's data processing and validation procedures.
#
#######################################################################

data_CSD_CIF_SUVDOF
_audit_creation_date 2020-06-26
_audit_creation_method CSD-ConQuest-V1
_database_code_CSD SUVDOF
_database_code_depnum_ccdc_archive 'CCDC 1996451'
_chemical_formula_sum 'C32 H26 In3 Na1 O26'
_chemical_formula_moiety
;
(C32 H18 In3 O22 1-)n,Na1 1+,4(H2 O1)
;
_journal_coden_Cambridge 1695
_journal_volume 8
_journal_year 2020
_journal_page_first 9724
_journal_name_full 'J.Mater.Chem.C '
loop_
_publ_author_name
"S.Kamal"
"Kuan Ru Chiou"
"B.Sainbileg"
"A.I.Inamdar"
"M.Usman"
"A.Pathak"
"Tzuoo-Tsair Luo"
"Jenq-Wei Chen"
"M.Hayashi"
"Chen-Hsiung Hung"
"Kuang-Lieh Lu"
_chemical_name_systematic
;
catena-[sodium 
bis(\m-4,4'-oxybis(benzene-1,2-dicarboxylato))-bis(\m-hydroxo)-diaqua-tri-indi
um(iii) tetrahydrate]
;
_cell_volume    981.170
_exptl_crystal_colour 'colorless'
_exptl_crystal_density_diffrn 2.021
_exptl_crystal_description 'prism'
_diffrn_ambient_temperature 200
_refine_special_details
;
O15 and O14 disordered over two sites with occupancies 0.5:0.5.

;
#These two values have been output from a single CSD field.
_refine_ls_R_factor_gt 0.0331
_refine_ls_wR_factor_gt 0.0331
_symmetry_cell_setting triclinic
_symmetry_space_group_name_H-M 'P -1'
_symmetry_Int_Tables_number 2
loop_
_symmetry_equiv_pos_site_id
_symmetry_equiv_pos_as_xyz
1 x,y,z
2 -x,-y,-z
_cell_length_a 7.4109(4)
_cell_length_b 10.7283(8)
_cell_length_c 13.1626(7)
_cell_angle_alpha 104.069(2)
_cell_angle_beta 90.383(2)
_cell_angle_gamma 104.303(2)
_cell_formula_units_Z 1
loop_
_atom_type_symbol
_atom_type_radius_bond
C 0.68
H 0.23
In 1.42
Na 1.66
O 0.68
loop_
_atom_site_label
_atom_site_type_symbol
_atom_site_fract_x
_atom_site_fract_y
_atom_site_fract_z
In1 In 0.24800(4) 0.30688(3) 0.79580(2)
In2 In 0.00000 0.50000 1.00000
C1 C 0.4780(6) 0.7546(5) 0.8766(4)
C2 C 0.6050(7) 0.8330(5) 0.9610(4)
C3 C 0.7133(7) 0.9554(5) 0.9528(4)
H1 H 0.79840 1.00984 1.00991
C4 C 0.7004(7) 0.9999(5) 0.8642(4)
H2 H 0.77626 1.08366 0.85973
C5 C 0.5741(7) 0.9201(5) 0.7809(4)
C6 C 0.4628(6) 0.7987(5) 0.7876(4)
H3 H 0.37582 0.74569 0.73085
C7 C 0.3477(6) 0.6227(5) 0.8800(4)
C8 C 0.6374(6) 0.7843(5) 1.0537(4)
C9 C 0.4315(7) 0.9088(5) 0.6140(4)
C10 C 0.4798(7) 0.8465(5) 0.5173(4)
H4 H 0.60283 0.83578 0.50920
C11 C 0.3492(6) 0.7995(5) 0.4322(4)
C12 C 0.1683(7) 0.8154(5) 0.4465(4)
C13 C 0.1219(7) 0.8772(5) 0.5447(4)
H5 H -0.00106 0.88756 0.55391
C14 C 0.2547(7) 0.9240(5) 0.6295(4)
H6 H 0.22342 0.96561 0.69698
C15 C 0.4077(7) 0.7385(5) 0.3264(4)
C16 C 0.0175(6) 0.7694(5) 0.3583(4)
O1 O 0.3827(5) 0.5199(3) 0.8235(3)
O2 O 0.2132(5) 0.6299(3) 0.9357(3)
O3 O 0.5880(4) 0.6589(3) 1.0471(3)
O4 O 0.7235(5) 0.8620(3) 1.1368(3)
O5 O -0.0796(5) 0.6494(4) 0.3341(3)
O6 O -0.0202(5) 0.8513(3) 0.3135(3)
O7 O 0.5753(5) 0.7286(4) 0.3265(3)
O8 O 0.2969(5) 0.6995(4) 0.2474(3)
O9 O 0.5749(5) 0.9689(3) 0.6940(3)
O10 O 0.0212(4) 0.3329(3) 0.8876(3)
O11 O 0.2172(5) 0.4719(4) 1.0997(3)
H7 H -0.071(6) 0.296(6) 0.848(4)
H8 H 0.272(8) 0.539(4) 1.143(4)
H9 H 0.301(6) 0.451(6) 1.066(4)
Na1 Na -0.0600(19) 0.4518(14) 0.4084(10)
O12 O 0.069(2) 0.3018(18) 0.2559(13)
O13 O 0.381(3) 0.4447(19) 0.3729(15)
O14? O 0.539(3) 0.485(2) 0.4194(15)
O15? O 0.062(3) 0.461(2) 0.3915(14)
In1A In -0.24800(4) 0.69312(3) 0.20420(2)
C1A C -0.4780(6) 0.2454(5) 0.1234(4)
C2A C -0.6050(7) 0.1670(5) 0.0390(4)
C3A C -0.7133(7) 0.0446(5) 0.0472(4)
H1A H -0.79840 -0.00984 -0.00991
C4A C -0.7004(7) 0.0001(5) 0.1358(4)
H2A H -0.77626 -0.08366 0.14027
C5A C -0.5741(7) 0.0799(5) 0.2191(4)
C6A C -0.4628(6) 0.2013(5) 0.2124(4)
H3A H -0.37582 0.25431 0.26915
C7A C -0.3477(6) 0.3773(5) 0.1200(4)
C8A C -0.6374(6) 0.2157(5) -0.0537(4)
C9A C -0.4315(7) 0.0912(5) 0.3860(4)
C10A C -0.4798(7) 0.1535(5) 0.4827(4)
H4A H -0.60283 0.16422 0.49080
C11A C -0.3492(6) 0.2005(5) 0.5678(4)
C12A C -0.1683(7) 0.1846(5) 0.5535(4)
C13A C -0.1219(7) 0.1228(5) 0.4553(4)
H5A H 0.00106 0.11244 0.44609
C14A C -0.2547(7) 0.0760(5) 0.3705(4)
H6A H -0.22342 0.03439 0.30302
C15A C -0.4077(7) 0.2615(5) 0.6736(4)
C16A C -0.0175(6) 0.2306(5) 0.6417(4)
O1A O -0.3827(5) 0.4801(3) 0.1765(3)
O2A O -0.2132(5) 0.3701(3) 0.0643(3)
O3A O -0.5880(4) 0.3411(3) -0.0471(3)
O4A O -0.7235(5) 0.1380(3) -0.1368(3)
O5A O 0.0796(5) 0.3506(4) 0.6659(3)
O6A O 0.0202(5) 0.1487(3) 0.6865(3)
O7A O -0.5753(5) 0.2714(4) 0.6735(3)
O8A O -0.2969(5) 0.3005(4) 0.7526(3)
O9A O -0.5749(5) 0.0311(3) 0.3060(3)
O10A O -0.0212(4) 0.6671(3) 0.1124(3)
H7A H 0.071(6) 0.704(6) 0.152(4)
O11A O -0.2172(5) 0.5281(4) 0.9003(3)
H8A H -0.272(8) 0.461(4) 0.857(4)
H9A H -0.301(6) 0.549(6) 0.934(4)
In1* In -0.75200(4) 0.30688(3) -0.20420(2)
In1** In -0.75200(4) 0.30688(3) 0.79580(2)
In1A* In 0.75200(4) 0.69312(3) 0.20420(2)
In1A** In 0.75200(4) 0.69312(3) 1.20420(2)
In2* In 0.00000 0.50000 0.00000
O2A* O -0.2132(5) 0.3701(3) 1.0643(3)
O3* O -0.4120(4) 0.6589(3) 0.0471(3)
O3A* O 0.4120(4) 0.3411(3) 0.9529(3)
O4* O -0.2765(5) 0.8620(3) 0.1368(3)
O4A* O 0.2765(5) 0.1380(3) 0.8632(3)
O7* O -0.4247(5) 0.7286(4) 0.3265(3)
O7A* O 0.4247(5) 0.2714(4) 0.6735(3)
O10A* O -0.0212(4) 0.6671(3) 1.1124(3)
#END
