
#######################################################################
#
#                 Cambridge Crystallographic Data Centre
#                                CCDC
#
#######################################################################
#
# If this CIF has been generated from an entry in the Cambridge
# Structural Database, then it will include bibliographic, chemical,
# crystal, experimental, refinement or atomic coordinate data resulting
# from the CCDC's data processing and validation procedures.
#
#######################################################################

data_CSD_CIF_SUVFEU
_audit_creation_date 2001-11-29
_audit_creation_method CSD-ConQuest-V1
_database_code_CSD SUVFEU
_database_code_depnum_ccdc_journal 1145/201
_chemical_formula_sum 'C6 H16 Na2 O16 P2 V2'
_chemical_formula_moiety
;
(Na1 1+)2n,n(C6 H8 O12 P2 V2 2-),4n(H2 O1)
;
_journal_coden_Cambridge 1145
_journal_volume 10
_journal_year 2000
_journal_page_first 745
_journal_name_full 'J.Mater.Chem. '
loop_
_publ_author_name
"M.Riou-Cavellec"
"M.Sanselme"
"G.Ferey"
_chemical_name_systematic
;
catena-(Di-sodium 
bis(\m~4~-(2-carboxyethyl)phosphonato-O,O',O'',O''',O'''')-dioxo-di-vanadium(i
v) tetrahydrate)
;
_cell_volume    868.043
_exptl_crystal_density_diffrn 2.12
_exptl_crystal_description 'thin needle'
_diffrn_ambient_temperature ?
_diffrn_special_details
;
The study was carried out at room temperature,in the range 283-303K

;
#These two values have been output from a single CSD field.
_refine_ls_R_factor_gt 0.0628
_refine_ls_wR_factor_gt 0.0628
_symmetry_cell_setting monoclinic
_symmetry_space_group_name_H-M 'P 21'
_symmetry_Int_Tables_number 4
loop_
_symmetry_equiv_pos_site_id
_symmetry_equiv_pos_as_xyz
1 x,y,z
2 -x,1/2+y,-z
_cell_length_a 6.4041(3)
_cell_length_b 17.6252(8)
_cell_length_c 7.7271(3)
_cell_angle_alpha 90
_cell_angle_beta 95.586(2)
_cell_angle_gamma 90
_cell_formula_units_Z 2
loop_
_atom_type_symbol
_atom_type_radius_bond
C 0.68
H 0.23
Na 0.97
O 0.68
P 1.05
V 1.29
loop_
_atom_site_label
_atom_site_type_symbol
_atom_site_fract_x
_atom_site_fract_y
_atom_site_fract_z
V1 V 0.4884(4) 0.4333(1) 0.6821(4)
V2 V 1.0161(4) 0.2511(1) 0.8187(3)
P1 P 1.0061(5) 0.4299(3) 0.7553(6)
P2 P 0.5030(5) 0.2551(2) 0.7435(5)
O1 O 1.0475(17) 0.3604(7) 0.8740(17)
O2 O 0.4638(17) 0.3244(7) 0.6237(17)
O3 O 0.7951(12) 0.4264(6) 0.6488(14)
O4 O 0.7122(17) 0.2580(7) 0.8536(14)
O5 O 1.1711(17) 0.4426(7) 0.6313(14)
O6 O 0.3262(13) 0.2470(7) 0.8635(14)
O7 O 0.9759(20) 0.7175(8) 0.8787(20)
O8 O 0.9966(20) 0.6409(7) 1.1017(17)
O9 O 0.5090(19) 0.4464(8) 0.8853(16)
O10 O 0.5319(21) -0.0356(7) 0.6177(17)
O11 O 0.5036(19) 0.0442(8) 0.4045(19)
O12 O 0.9989(17) 0.2429(9) 0.6109(16)
C1 C 1.0085(24) 0.5088(9) 0.9018(23)
C2 C 0.4981(30) 0.1744(10) 0.5995(24)
C3 C 0.5139(26) 0.0953(10) 0.6875(19)
C4 C 0.9911(24) 0.5841(9) 0.8095(24)
C5 C 0.5129(23) 0.0317(10) 0.5648(26)
C6 C 0.9814(26) 0.6510(11) 0.9359(28)
O13 O 0.3338(18) 0.3726(10) 0.1245(19)
O14 O -0.1656(20) 0.3986(9) 0.3495(15)
O15 O -0.0325(25) 0.5266(13) 0.3372(26)
O16 O 0.4765(27) 0.6691(11) 0.8351(20)
Na1 Na 0.1505(15) 0.3210(8) 0.3540(16)
Na2 Na -0.3407(18) 0.2986(9) 0.1706(17)
H1 H 0.8926(24) 0.5037(9) 0.9730(23)
H2 H 1.1377(24) 0.5078(9) 0.9786(23)
H3 H 0.3689(30) 0.1762(10) 0.5229(24)
H4 H 0.6134(30) 0.1794(10) 0.5276(24)
H5 H 0.6421(26) 0.0932(10) 0.7653(19)
H6 H 0.3971(26) 0.0893(10) 0.7573(19)
H7 H 0.8658(24) 0.5842(9) 0.7282(24)
H8 H 1.1111(24) 0.5906(9) 0.7434(24)
O5* O 0.1711(17) 0.4426(7) 0.6313(14)
O10A O 0.4681(21) 0.4644(7) 0.3823(17)
O11A O 0.4964(19) 0.5442(8) 0.5955(19)
O6* O 1.3262(13) 0.2470(7) 0.8635(14)
O7A O 1.0241(20) 0.2175(8) 1.1213(20)
O8A O 1.0034(20) 0.1409(7) 0.8983(17)
V1* V 1.4884(4) 0.4333(1) 0.6821(4)
V2* V 0.0161(4) 0.2511(1) 0.8187(3)
V2A V 0.9839(4) 0.7511(1) 1.1813(3)
V1A V 0.5116(4) -0.0667(1) 0.3179(4)
#END
