
#######################################################################
#
#                 Cambridge Crystallographic Data Centre
#                                CCDC
#
#######################################################################
#
# If this CIF has been generated from an entry in the Cambridge
# Structural Database, then it will include bibliographic, chemical,
# crystal, experimental, refinement or atomic coordinate data resulting
# from the CCDC's data processing and validation procedures.
#
#######################################################################

data_CSD_CIF_SUWPIM
_audit_creation_date 2020-06-27
_audit_creation_method CSD-ConQuest-V1
_database_code_CSD SUWPIM
_database_code_depnum_ccdc_archive 'CCDC 2012523'
_chemical_formula_sum 'C48 H52 Gd2 N2 O24'
_chemical_formula_moiety
;
(C44 H28 Gd2 O20 2-)n,2(C2 H8 N1 1+),4(H2 O1)
;
_journal_coden_Cambridge 1078
_journal_year 2020
_journal_name_full 'CSD Communication(Private Communication) '
loop_
_publ_author_name
"haitao Yuan"
_chemical_name_systematic
;
catena-[bis(dimethylammonium) 
bis(\m-[1^1^,2^1^:2^4^,3^1^-terphenyl]-1^2^,1^5^,3^2^,3^5^-tetracarboxylato)-t
etra-aqua-di-gadolinium tetrahydrate]
;
_cell_volume   1979.553
_exptl_crystal_colour 'colorless'
_exptl_crystal_density_diffrn 1.992
_exptl_special_details
;
Cations and free water molecules have not been modelled. These have been 
included to agree with the paper and to charge balance the structure
;
_exptl_crystal_description 'block'
_diffrn_ambient_temperature 296.1
#These two values have been output from a single CSD field.
_refine_ls_R_factor_gt 0.0474
_refine_ls_wR_factor_gt 0.0474
_symmetry_cell_setting monoclinic
_symmetry_space_group_name_H-M 'P 21/n'
_symmetry_Int_Tables_number 14
loop_
_symmetry_equiv_pos_site_id
_symmetry_equiv_pos_as_xyz
1 x,y,z
2 1/2-x,1/2+y,1/2-z
3 -x,-y,-z
4 -1/2+x,-1/2-y,-1/2+z
_cell_length_a 11.8123(3)
_cell_length_b 9.9675(2)
_cell_length_c 16.9632(5)
_cell_angle_alpha 90
_cell_angle_beta 97.629(1)
_cell_angle_gamma 90
_cell_formula_units_Z 2
loop_
_atom_type_symbol
_atom_type_radius_bond
C 0.68
H 0.23
Gd 1.96
O 0.68
loop_
_atom_site_label
_atom_site_type_symbol
_atom_site_fract_x
_atom_site_fract_y
_atom_site_fract_z
C1 C 0.4673(7) 1.1718(8) -0.1381(5)
C2 C 0.4145(7) 1.1471(8) -0.0652(4)
C3 C 0.4176(7) 1.2370(8) -0.0034(5)
C4 C 0.3738(7) 1.2019(8) 0.0646(5)
H1 H 0.37585 1.26324 0.10604
C5 C 0.3279(7) 1.0799(7) 0.0721(5)
C6 C 0.3239(7) 0.9903(8) 0.0111(5)
H2 H 0.29292 0.90541 0.01612
C7 C 0.3655(7) 1.0257(8) -0.0576(5)
H3 H 0.36008 0.96533 -0.09970
C8 C 0.2836(7) 1.0482(8) 0.1476(5)
C9 C 0.4628(7) 1.3708(8) -0.0037(5)
C10 C 0.4667(8) 1.5830(9) -0.0597(5)
H4 H 0.44248 1.64063 -0.10165
C11 C -0.0009(8) 0.7640(9) 0.1913(5)
C12 C -0.0605(7) 0.6940(8) 0.1210(5)
C13 C -0.1021(8) 0.5712(9) 0.1341(5)
H5 H -0.10146 0.54110 0.18609
C14 C -0.1443(8) 0.4919(9) 0.0736(5)
H6 H -0.17107 0.40687 0.08415
C15 C -0.1485(7) 0.5341(8) -0.0036(5)
C16 C -0.1121(7) 0.6600(8) -0.0175(5)
H7 H -0.11784 0.69134 -0.06951
C17 C -0.0673(7) 0.7415(8) 0.0433(5)
C18 C -0.1903(7) 0.4465(8) -0.0703(5)
C19 C -0.0300(8) 0.8732(8) 0.0228(5)
C20 C -0.0178(9) 1.1042(9) 0.0455(6)
H8 H -0.03062 1.17634 0.07792
O1 O 0.4264(6) 1.1160(7) -0.2004(3)
O2 O 0.5510(5) 1.2463(6) -0.1315(3)
O3 O 0.2670(6) 0.9332(6) 0.1628(4)
O4 O 0.2639(6) 1.1423(6) 0.1897(3)
O5 O 0.4169(5) 0.8212(6) 0.2925(3)
H9 H 0.40273 0.89722 0.30641
H10 H 0.48245 0.82042 0.27888
O6 O 0.4112(6) 0.5342(6) 0.2243(4)
O7 O 0.0990(5) 0.7885(7) 0.1936(4)
O8 O -0.0538(8) 0.7850(11) 0.2490(5)
O9 O -0.2279(6) 0.3357(6) -0.0557(3)
O10 O -0.1872(6) 0.4817(6) -0.1398(3)
Gd1 Gd 0.28546(4) 0.71603(4) 0.19277(2)
C21 C 0.4319(7) 1.4570(8) -0.0629(5)
H11 H 0.38442 1.42749 -0.10766
C22 C -0.0461(7) 0.9821(7) 0.0659(5)
H12 H -0.07862 0.97136 0.11250
C1B C 0.5327(7) 1.8282(8) 0.1381(5)
C2B C 0.5855(7) 1.8529(8) 0.0652(4)
C3B C 0.5824(7) 1.7630(8) 0.0034(5)
C4B C 0.6262(7) 1.7981(8) -0.0646(5)
H1B H 0.62415 1.73676 -0.10604
C5B C 0.6721(7) 1.9201(7) -0.0721(5)
C6B C 0.6761(7) 2.0097(8) -0.0111(5)
H2B H 0.70708 2.09459 -0.01612
C7B C 0.6345(7) 1.9743(8) 0.0576(5)
H3B H 0.63992 2.03467 0.09970
C8B C 0.7164(7) 1.9518(8) -0.1476(5)
C9B C 0.5372(7) 1.6292(8) 0.0037(5)
C10B C 0.5333(8) 1.4170(9) 0.0597(5)
H4B H 0.55752 1.35937 0.10165
O1B O 0.5736(6) 1.8840(7) 0.2004(3)
O2B O 0.4490(5) 1.7537(6) 0.1315(3)
O3B O 0.7330(6) 2.0668(6) -0.1628(4)
O4B O 0.7361(6) 1.8577(6) -0.1897(3)
C21B C 0.5681(7) 1.5430(8) 0.0629(5)
H11B H 0.61557 1.57251 0.10766
C11B C 0.0009(8) 1.2360(9) -0.1913(5)
C12B C 0.0605(7) 1.3060(8) -0.1210(5)
C13B C 0.1021(8) 1.4288(9) -0.1341(5)
H5B H 0.10146 1.45890 -0.18609
C14B C 0.1443(8) 1.5081(9) -0.0736(5)
H6B H 0.17107 1.59313 -0.08415
C15B C 0.1485(7) 1.4659(8) 0.0036(5)
C16B C 0.1121(7) 1.3400(8) 0.0175(5)
H7B H 0.11784 1.30866 0.06951
C17B C 0.0673(7) 1.2585(8) -0.0433(5)
C18B C 0.1903(7) 1.5535(8) 0.0703(5)
C19B C 0.0300(8) 1.1268(8) -0.0228(5)
C20B C 0.0178(9) 0.8958(9) -0.0455(6)
H8B H 0.03062 0.82366 -0.07792
O7B O -0.0990(5) 1.2115(7) -0.1936(4)
O8B O 0.0538(8) 1.2150(11) -0.2490(5)
O9B O 0.2279(6) 1.6643(6) 0.0557(3)
O10B O 0.1872(6) 1.5183(6) 0.1398(3)
C22B C 0.0461(7) 1.0179(7) -0.0659(5)
H12B H 0.07862 1.02864 -0.11250
O5B O -0.4169(5) 0.1788(6) -0.2925(3)
H9B H -0.40273 0.10278 -0.30641
H10B H -0.48245 0.17958 -0.27888
O6B O -0.4112(6) 0.4658(6) -0.2243(4)
Gd1B Gd -0.28546(4) 0.28397(4) -0.19277(2)
O2* O -0.4490(5) 0.2463(6) -0.1315(3)
O2B* O 0.4490(5) 0.7537(6) 0.1315(3)
O3B* O -0.2670(6) 0.0668(6) -0.1628(4)
O4A O 0.2361(6) 0.6423(6) 0.3103(3)
O4C O -0.2361(6) 0.3577(6) -0.3103(3)
O7B* O -0.0990(5) 0.2115(7) -0.1936(4)
O9B* O 0.2279(6) 0.6643(6) 0.0557(3)
O10B* O 0.1872(6) 0.5183(6) 0.1398(3)
Gd1* Gd 0.28546(4) 1.71603(4) 0.19277(2)
Gd1A Gd 0.21454(4) 1.21603(4) 0.30723(2)
Gd1B* Gd -0.28546(4) 1.28397(4) -0.19277(2)
Gd1B** Gd 0.71454(4) 1.28397(4) -0.19277(2)
Gd1B*** Gd 0.71454(4) 2.28397(4) -0.19277(2)
Gd1C Gd 0.78546(4) 1.78397(4) -0.30723(2)
#END
