
#######################################################################
#
#                 Cambridge Crystallographic Data Centre
#                                CCDC
#
#######################################################################
#
# If this CIF has been generated from an entry in the Cambridge
# Structural Database, then it will include bibliographic, chemical,
# crystal, experimental, refinement or atomic coordinate data resulting
# from the CCDC's data processing and validation procedures.
#
#######################################################################

data_CSD_CIF_TABDOR
_audit_creation_date 2011-03-15
_audit_creation_method CSD-ConQuest-V1
_database_code_CSD TABDOR
_database_code_depnum_ccdc_archive 'CCDC 775259'
_chemical_formula_sum 'C26 H22 La1 N1 O14'
_chemical_formula_moiety
;
(C20 H12 La1 O12 1-)n,0.5n(C12 H12 N2 2+),2n(H2 O1)
;
_journal_coden_Cambridge 1350
_journal_volume 12
_journal_year 2010
_journal_page_first 3914
_journal_name_full 'CrystEngComm '
loop_
_publ_author_name
"H.M.Titi"
"I.Goldberg"
_chemical_name_systematic
;
catena-(hemikis(1,2-bis(4-pyridinio)ethene) 
(\m~3~-1-benzofuran-2,3-dicarboxylato)-(\m~2~-1-benzofuran-2,3-dicarboxylato)-
diaqua-lanthanum dihydrate)
;
_cell_volume   1261.842
_exptl_crystal_colour 'colorless'
_exptl_crystal_density_diffrn 1.867
_exptl_crystal_description 'plate'
_diffrn_ambient_temperature 110
_refine_special_details
;
O41A and O41B disordered over two sites with occupancies 0.72:0.28.

;
#These two values have been output from a single CSD field.
_refine_ls_R_factor_gt 0.0508
_refine_ls_wR_factor_gt 0.0508
_symmetry_cell_setting triclinic
_symmetry_space_group_name_H-M 'P -1'
_symmetry_Int_Tables_number 2
loop_
_symmetry_equiv_pos_site_id
_symmetry_equiv_pos_as_xyz
1 x,y,z
2 -x,-y,-z
_cell_length_a 7.9491(1)
_cell_length_b 12.8013(3)
_cell_length_c 13.5316(4)
_cell_angle_alpha 97.5992(8)
_cell_angle_beta 105.3403(8)
_cell_angle_gamma 103.7083(15)
_cell_formula_units_Z 2
loop_
_atom_type_symbol
_atom_type_radius_bond
C 0.68
H 0.23
La 1.84
N 0.68
O 0.68
loop_
_atom_site_label
_atom_site_type_symbol
_atom_site_fract_x
_atom_site_fract_y
_atom_site_fract_z
La1 La 0.26784(3) 0.05330(2) -0.04456(2)
O1 O 0.5967(5) 0.1055(3) 0.3853(3)
C1 C 0.4837(7) 0.0657(4) 0.2823(4)
C2 C 0.3078(6) 0.0531(4) 0.2781(4)
C3 C 0.2992(7) 0.0832(4) 0.3804(4)
C4 C 0.1760(11) 0.0952(8) 0.4340(6)
H1 H 0.05010 0.07790 0.39680
C5 C 0.2375(13) 0.1330(8) 0.5433(7)
H2 H 0.15220 0.13990 0.57970
C6 C 0.4222(12) 0.1604(8) 0.5990(7)
H3 H 0.45940 0.18450 0.67300
C7 C 0.5427(13) 0.1543(6) 0.5539(5)
H4 H 0.66830 0.17460 0.59260
C8 C 0.4822(9) 0.1163(5) 0.4451(4)
C9 C 0.5722(6) 0.0408(4) 0.2024(4)
O2 O 0.4713(4) -0.0033(3) 0.1079(3)
O3 O 0.7410(5) 0.0600(3) 0.2287(3)
C10 C 0.1365(6) 0.0109(4) 0.1881(4)
O4 O 0.0004(5) -0.0458(4) 0.2063(3)
O5 O 0.1269(5) 0.0356(3) 0.1000(3)
O6 O 0.0085(5) -0.5227(3) -0.1389(3)
C11 C 0.1494(6) -0.4323(4) -0.0754(4)
C12 C 0.1425(6) -0.3388(4) -0.1107(4)
C13 C -0.0146(6) -0.3702(4) -0.2049(4)
C14 C -0.0916(7) -0.3154(5) -0.2799(4)
H5 H -0.04230 -0.23880 -0.27410
C15 C -0.2414(7) -0.3765(5) -0.3627(4)
H6 H -0.29740 -0.34090 -0.41390
C16 C -0.3132(7) -0.4906(5) -0.3728(4)
H7 H -0.41530 -0.53040 -0.43130
C17 C -0.2389(7) -0.5457(5) -0.3001(4)
H8 H -0.28770 -0.62230 -0.30600
C18 C -0.0884(6) -0.4829(4) -0.2175(4)
C19 C 0.2618(6) -0.2237(4) -0.0683(4)
O7 O 0.1779(4) -0.1521(3) -0.0579(3)
O8 O 0.4314(4) -0.2048(3) -0.0491(3)
C20 C 0.2745(6) -0.4567(4) 0.0174(4)
O9 O 0.3702(5) -0.3770(3) 0.0895(3)
O10 O 0.2737(5) -0.5552(3) 0.0157(3)
N1 N -0.4782(6) -0.5564(4) 0.1940(3)
H9 H -0.56390 -0.54310 0.14070
C21 C -0.3525(8) -0.4611(5) 0.2416(5)
H10 H -0.35630 -0.39800 0.21220
C22 C -0.2167(7) -0.4523(5) 0.3332(5)
H11 H -0.12970 -0.38340 0.36700
C23 C -0.2079(7) -0.5452(4) 0.3757(4)
C24 C -0.3420(7) -0.6442(5) 0.3223(4)
H12 H -0.34060 -0.70930 0.34870
C25 C -0.4758(7) -0.6476(5) 0.2319(4)
H13 H -0.56620 -0.71480 0.19640
C26 C -0.0667(7) -0.5442(5) 0.4711(4)
H14 H -0.07050 -0.61190 0.49340
O11 O 0.1591(5) 0.2186(3) 0.0162(3)
H15 H 0.06030 0.21330 0.03680
H16 H 0.19530 0.29020 0.01550
O12 O 0.3476(5) 0.1920(3) -0.1528(3)
H17 H 0.44390 0.25490 -0.13150
H18 H 0.26170 0.20370 -0.20100
O13 O 0.7700(8) 0.2177(6) -0.1646(6)
H19 H 0.79780 0.15350 -0.13380
H20 H 0.78920 0.26720 -0.10710
O14 O 0.0303(15) 0.2388(16) 0.730(2)
O15? O 0.076(3) 0.2808(18) 0.798(2)
La1A La 0.73216(3) -0.05330(2) 0.04456(2)
La1A* La -0.26784(3) -0.05330(2) 0.04456(2)
O2A O 0.5287(4) 0.0033(3) -0.1079(3)
O3A O 0.2590(5) -0.0600(3) -0.2287(3)
O4A O -0.0004(5) 0.0458(4) -0.2063(3)
O8A O 0.5686(4) 0.2048(3) 0.0491(3)
N1A N 0.4782(6) -0.4436(4) 0.8060(3)
H9A H 0.56390 -0.45690 0.85930
C21A C 0.3525(8) -0.5389(5) 0.7584(5)
H10A H 0.35630 -0.60200 0.78780
C22A C 0.2167(7) -0.5477(5) 0.6668(5)
H11A H 0.12970 -0.61660 0.63300
C23A C 0.2079(7) -0.4548(4) 0.6243(4)
C24A C 0.3420(7) -0.3558(5) 0.6777(4)
H12A H 0.34060 -0.29070 0.65130
C25A C 0.4758(7) -0.3524(5) 0.7681(4)
H13A H 0.56620 -0.28520 0.80360
C26A C 0.0667(7) -0.4558(5) 0.5289(4)
H14A H 0.07050 -0.38810 0.50660
#END
