
#######################################################################
#
#                 Cambridge Crystallographic Data Centre
#                                CCDC
#
#######################################################################
#
# If this CIF has been generated from an entry in the Cambridge
# Structural Database, then it will include bibliographic, chemical,
# crystal, experimental, refinement or atomic coordinate data resulting
# from the CCDC's data processing and validation procedures.
#
#######################################################################

data_CSD_CIF_TACHUD
_audit_creation_date 2016-02-09
_audit_creation_method CSD-ConQuest-V1
_database_code_CSD TACHUD
_database_code_depnum_ccdc_archive 'CCDC 1452374'
_chemical_formula_sum 'C36 H34 Cl2 Co3 N4 O12'
_chemical_formula_moiety
;
(C24 H12 Cl2 Co3 O12 2-)n,2n(C6 H11 N2 1+)
;
_journal_coden_Cambridge 208
_journal_volume 238
_journal_year 2016
_journal_page_first 217
_journal_name_full 'J.Solid State Chem. '
loop_
_publ_author_name
"Zong-Hui Zhang"
"Ling Xu"
"Huan Jiao"
_chemical_name_systematic
;
catena-[bis(1-ethyl-3-methyl-1H-imidazol-3-ium) 
tris(\m-terephthalato)-dichloro-tri-cobalt]
;
_cell_volume   2088.274
_exptl_crystal_colour 'blue'
_exptl_crystal_density_diffrn 1.53
_exptl_crystal_description 'prism'
_diffrn_ambient_temperature 293
#These two values have been output from a single CSD field.
_refine_ls_R_factor_gt 0.0389
_refine_ls_wR_factor_gt 0.0389
_symmetry_cell_setting monoclinic
_symmetry_space_group_name_H-M 'P 21/n'
_symmetry_Int_Tables_number 14
loop_
_symmetry_equiv_pos_site_id
_symmetry_equiv_pos_as_xyz
1 x,y,z
2 1/2-x,1/2+y,1/2-z
3 -x,-y,-z
4 -1/2+x,-1/2-y,-1/2+z
_cell_length_a 12.7664(5)
_cell_length_b 9.5245(4)
_cell_length_c 18.0566(7)
_cell_angle_alpha 90
_cell_angle_beta 107.986(4)
_cell_angle_gamma 90
_cell_formula_units_Z 2
loop_
_atom_type_symbol
_atom_type_radius_bond
C 0.68
H 0.23
Cl 0.99
Co 1.26
N 0.68
O 0.68
loop_
_atom_site_label
_atom_site_type_symbol
_atom_site_fract_x
_atom_site_fract_y
_atom_site_fract_z
Co1 Co 0.79860(2) 0.96040(3) 0.072739(16)
Co2 Co 1.00000 1.00000 0.00000
Cl1 Cl 0.66008(6) 0.84743(10) 0.09945(5)
O1 O 1.27501(14) 0.9154(2) 0.0145(1)
O2 O 1.12950(14) 0.8734(2) 0.05448(11)
O3 O 1.61116(14) 0.5673(2) 0.3370(1)
O4 O 1.47708(16) 0.5844(2) 0.39176(10)
C1 C 1.30226(19) 0.7909(3) 0.13109(14)
C2 C 1.4136(2) 0.7770(3) 0.14071(15)
H1 H 1.44220 0.81100 0.10270
C3 C 1.4822(2) 0.7134(3) 0.20599(15)
H2 H 1.55670 0.70340 0.21160
C4 C 1.4409(2) 0.6640(3) 0.26354(14)
C5 C 1.3290(2) 0.6771(4) 0.25364(15)
H3 H 1.30040 0.64350 0.29180
C6 C 1.2604(2) 0.7394(4) 0.18795(16)
H4 H 1.18550 0.74710 0.18160
C7 C 1.22948(19) 0.8657(3) 0.06154(14)
C8 C 1.5150(2) 0.6000(3) 0.33682(14)
O5 O 0.89114(13) 0.84432(17) 0.02656(9)
O6 O 0.93710(19) 0.7369(2) 0.14078(11)
C9 C 0.9680(2) 0.6152(3) 0.03474(15)
C10 C 1.0238(2) 0.5059(3) 0.08051(17)
H5 H 1.04010 0.50980 0.13440
C11 C 1.0555(2) 0.3902(3) 0.04555(16)
H6 H 1.09260 0.31610 0.07610
C12 C 0.9320(2) 0.7384(3) 0.07194(15)
N1 N 0.3027(3) 0.5953(4) -0.1684(2)
N2 N 0.4407(3) 0.7339(4) -0.14616(19)
C13 C 0.3762(4) 0.6474(5) -0.1971(2)
H7 H 0.38220 0.62670 -0.24600
C14 C 0.3197(5) 0.6497(8) -0.0987(3)
H8 H 0.27930 0.63030 -0.06500
C15 C 0.4037(5) 0.7363(7) -0.0848(3)
H9 H 0.43240 0.78990 -0.04000
C16 C 0.2154(5) 0.4964(7) -0.2050(4)
H10 H 0.22000 0.47090 -0.25540
H11 H 0.14520 0.53910 -0.21070
H12 H 0.22330 0.41390 -0.17320
C17 C 0.5370(5) 0.8074(9) -0.1534(4)
H13 H 0.52620 0.82660 -0.20800
H14 H 0.54360 0.89690 -0.12660
C18 C 0.6370(5) 0.7315(11) -0.1225(5)
H15 H 0.69680 0.78470 -0.12980
H16 H 0.63150 0.64310 -0.14900
H17 H 0.64990 0.71530 -0.06790
O5B O 1.10886(13) 0.15568(17) -0.02656(9)
O6B O 1.06290(19) 0.2631(2) -0.14078(11)
C9B C 1.0320(2) 0.3848(3) -0.03474(15)
C10B C 0.9762(2) 0.4941(3) -0.08051(17)
H5B H 0.95990 0.49020 -0.13440
C11B C 0.9445(2) 0.6098(3) -0.04555(16)
H6B H 0.90740 0.68390 -0.07610
C12B C 1.0680(2) 0.2616(3) -0.07194(15)
Co1B Co 1.20140(2) 0.03960(3) -0.072739(16)
Cl1B Cl 1.33992(6) 0.15257(10) -0.09945(5)
O1B O 0.72499(14) 1.0846(2) -0.0145(1)
O2B O 0.87050(14) 1.1266(2) -0.05448(11)
O3B O 0.38884(14) 1.4327(2) -0.3370(1)
O4B O 0.52292(16) 1.4156(2) -0.39176(10)
C1B C 0.69774(19) 1.2091(3) -0.13109(14)
C2B C 0.5864(2) 1.2230(3) -0.14071(15)
H1B H 0.55780 1.18900 -0.10270
C3B C 0.5178(2) 1.2866(3) -0.20599(15)
H2B H 0.44330 1.29660 -0.21160
C4B C 0.5591(2) 1.3360(3) -0.26354(14)
C5B C 0.6710(2) 1.3229(4) -0.25364(15)
H3B H 0.69960 1.35650 -0.29180
C6B C 0.7396(2) 1.2606(4) -0.18795(16)
H4B H 0.81450 1.25290 -0.18160
C7B C 0.77052(19) 1.1343(3) -0.06154(14)
C8B C 0.4850(2) 1.4000(3) -0.33682(14)
Co1A Co 1.70140(2) 0.46040(3) 0.427261(16)
Co1B* Co 1.20140(2) 1.03960(3) -0.072739(16)
Co1C Co 0.29860(2) 1.53960(3) -0.427261(16)
Co2* Co 1.00000 0.00000 0.00000
Co2A Co 0.50000 1.50000 -0.50000
Co2A* Co 1.50000 0.50000 0.50000
O1* O 1.27501(14) -0.0846(2) 0.0145(1)
O3A O 0.88884(14) 1.0673(2) 0.1630(1)
O3C O 1.11116(14) -0.0673(2) -0.1630(1)
O4A O 1.02292(16) 1.0844(2) 0.10824(10)
O4C O 0.97708(16) 0.9156(2) -0.10824(10)
O5B* O 1.10886(13) 1.15568(17) -0.02656(9)
#END
