
#######################################################################
#
#                 Cambridge Crystallographic Data Centre
#                                CCDC
#
#######################################################################
#
# If this CIF has been generated from an entry in the Cambridge
# Structural Database, then it will include bibliographic, chemical,
# crystal, experimental, refinement or atomic coordinate data resulting
# from the CCDC's data processing and validation procedures.
#
#######################################################################

data_CSD_CIF_TACJIT
_audit_creation_date 2016-02-09
_audit_creation_method CSD-ConQuest-V1
_database_code_CSD TACJIT
_database_code_depnum_ccdc_archive 'CCDC 1452377'
_chemical_formula_sum 'C42 H46 Cl2 Co3 N4 O12'
_chemical_formula_moiety
;
(C24 H12 Cl2 Co3 O12 2-)n,2n(C9 H17 N2 1+)
;
_journal_coden_Cambridge 208
_journal_volume 238
_journal_year 2016
_journal_page_first 217
_journal_name_full 'J.Solid State Chem. '
loop_
_publ_author_name
"Zong-Hui Zhang"
"Ling Xu"
"Huan Jiao"
_chemical_name_systematic
;
catena-[bis(1-methyl-3-pentyl-1H-imidazol-3-ium) 
tris(\m-terephthalato)-dichloro-tri-cobalt]
;
_cell_volume   2314.117
_exptl_crystal_colour 'blue'
_exptl_crystal_density_diffrn 1.502
_exptl_crystal_description 'block'
_diffrn_ambient_temperature 293
#These two values have been output from a single CSD field.
_refine_ls_R_factor_gt 0.0867
_refine_ls_wR_factor_gt 0.0867
_symmetry_cell_setting monoclinic
_symmetry_space_group_name_H-M 'P 21/n'
_symmetry_Int_Tables_number 14
loop_
_symmetry_equiv_pos_site_id
_symmetry_equiv_pos_as_xyz
1 x,y,z
2 1/2-x,1/2+y,1/2-z
3 -x,-y,-z
4 -1/2+x,-1/2-y,-1/2+z
_cell_length_a 13.8593(19)
_cell_length_b 9.8845(11)
_cell_length_c 18.253(3)
_cell_angle_alpha 90
_cell_angle_beta 112.263(18)
_cell_angle_gamma 90
_cell_formula_units_Z 2
loop_
_atom_type_symbol
_atom_type_radius_bond
C 0.68
H 0.23
Cl 0.99
Co 1.26
N 0.68
O 0.68
loop_
_atom_site_label
_atom_site_type_symbol
_atom_site_fract_x
_atom_site_fract_y
_atom_site_fract_z
Co1 Co 0.32922(5) 0.05226(6) 0.07512(3)
Co2 Co 0.50000 0.00000 0.00000
Cl1 Cl 0.21480(14) 0.15609(19) 0.11564(9)
O1 O 0.7341(2) -0.4478(4) 0.48273(19)
O2 O 0.8702(2) -0.3794(3) 0.45759(18)
O3 O 0.4175(2) -0.0675(4) 0.15863(19)
O4 O 0.5469(3) -0.0730(3) 0.11300(17)
C1 C 0.7048(3) -0.3141(5) 0.3689(3)
C2 C 0.5987(4) -0.3052(7) 0.3533(3)
H1 H 0.57070 -0.34600 0.38670
C3 C 0.5351(4) -0.2336(7) 0.2862(3)
H2 H 0.46440 -0.22400 0.27580
C4 C 0.5765(3) -0.1769(5) 0.2352(3)
C5 C 0.6813(4) -0.1900(6) 0.2519(3)
H3 H 0.70960 -0.15280 0.21770
C6 C 0.7453(4) -0.2575(6) 0.3189(3)
H4 H 0.81630 -0.26430 0.32990
C7 C 0.7768(3) -0.3869(5) 0.4418(3)
C8 C 0.5068(3) -0.1005(5) 0.1636(3)
O5 O 0.4080(2) 0.1622(3) 0.02439(17)
O6 O 0.4669(3) 0.2607(4) 0.14145(19)
C9 C 0.4772(4) 0.3834(5) 0.0349(3)
C10 C 0.4535(4) 0.3897(5) -0.0473(3)
H5 H 0.42330 0.31580 -0.07940
C11 C 0.5247(4) 0.4944(5) 0.0798(3)
H6 H 0.54260 0.49080 0.13430
C12 C 0.4521(4) 0.2634(5) 0.0705(3)
N1 N -0.0277(4) -0.1957(7) 0.1508(3)
N2 N 0.1249(5) -0.2016(8) 0.1615(4)
C13 C 0.0669(5) -0.2225(10) 0.1986(5)
H7 H 0.08770 -0.25170 0.25070
C14 C -0.0218(5) -0.1517(8) 0.0817(4)
H8 H -0.07780 -0.12610 0.03630
C15 C 0.0726(5) -0.1516(8) 0.0900(4)
H9 H 0.10000 -0.12230 0.05350
C16 C -0.1186(9) -0.2083(15) 0.1703(7)
H10 H -0.09890 -0.24470 0.22270
H11 H -0.16800 -0.26770 0.13310
H12 H -0.14980 -0.12080 0.16810
C17 C 0.2302(10) -0.2647(16) 0.1748(8)
H13 H 0.25010 -0.23470 0.13190
H14 H 0.28020 -0.22580 0.22300
C18 C 0.2444(13) -0.4128(19) 0.1810(9)
H15 H 0.22390 -0.44660 0.22280
H16 H 0.31750 -0.43420 0.19470
C19 C 0.1760(18) -0.486(3) 0.0990(13)
H17 H 0.10350 -0.45890 0.08180
H18 H 0.18040 -0.58340 0.10500
C20 C 0.2277(12) -0.4346(18) 0.0331(10)
H19 H 0.20950 -0.34130 0.01750
H20 H 0.30300 -0.44360 0.05490
C21 C 0.1741(10) -0.5382(13) -0.0424(7)
H21 H 0.19160 -0.50940 -0.08600
H22 H 0.09970 -0.53720 -0.05790
H23 H 0.19970 -0.62830 -0.02710
O5B O 0.5920(2) 0.8378(3) -0.02439(17)
O6B O 0.5331(3) 0.7393(4) -0.14145(19)
C9B C 0.5228(4) 0.6166(5) -0.0349(3)
C10B C 0.5465(4) 0.6103(5) 0.0473(3)
H5B H 0.57670 0.68420 0.07940
C11B C 0.4753(4) 0.5056(5) -0.0798(3)
H6B H 0.45740 0.50920 -0.13430
C12B C 0.5479(4) 0.7366(5) -0.0705(3)
Co1B Co 0.67078(5) -0.05226(6) -0.07512(3)
Cl1B Cl 0.78520(14) -0.15609(19) -0.11564(9)
O1B O 0.2659(2) 0.4478(4) -0.48273(19)
O2B O 0.1298(2) 0.3794(3) -0.45759(18)
O3B O 0.5825(2) 0.0675(4) -0.15863(19)
O4B O 0.4531(3) 0.0730(3) -0.11300(17)
C1B C 0.2952(3) 0.3141(5) -0.3689(3)
C2B C 0.4013(4) 0.3052(7) -0.3533(3)
H1B H 0.42930 0.34600 -0.38670
C3B C 0.4649(4) 0.2336(7) -0.2862(3)
H2B H 0.53560 0.22400 -0.27580
C4B C 0.4235(3) 0.1769(5) -0.2352(3)
C5B C 0.3187(4) 0.1900(6) -0.2519(3)
H3B H 0.29040 0.15280 -0.21770
C6B C 0.2547(4) 0.2575(6) -0.3189(3)
H4B H 0.18370 0.26430 -0.32990
C7B C 0.2232(3) 0.3869(5) -0.4418(3)
C8B C 0.4932(3) 0.1005(5) -0.1636(3)
Co1A Co 0.17078(5) 0.55226(6) -0.57512(3)
Co1B* Co 0.67078(5) 0.94774(6) -0.07512(3)
Co1C Co 0.82922(5) -0.55226(6) 0.57512(3)
Co2* Co 0.50000 1.00000 0.00000
Co2A Co 0.00000 0.50000 -0.50000
Co2A* Co 1.00000 -0.50000 0.50000
O1A O 0.7659(2) 0.0522(4) 0.01727(19)
O1C O 0.2341(2) -0.0522(4) -0.01727(19)
O2A O 0.6298(2) 0.1206(3) 0.04241(18)
O2C O 0.3702(2) -0.1206(3) -0.04241(18)
O5B* O 0.5920(2) -0.1622(3) -0.02439(17)
#END
