
#######################################################################
#
#                 Cambridge Crystallographic Data Centre
#                                CCDC
#
#######################################################################
#
# If this CIF has been generated from an entry in the Cambridge
# Structural Database, then it will include bibliographic, chemical,
# crystal, experimental, refinement or atomic coordinate data resulting
# from the CCDC's data processing and validation procedures.
#
#######################################################################

data_CSD_CIF_TACJAL
_audit_creation_date 2016-02-09
_audit_creation_method CSD-ConQuest-V1
_database_code_CSD TACJAL
_database_code_depnum_ccdc_archive 'CCDC 1452375'
_chemical_formula_sum 'C38 H38 Cl2 Co3 N4 O12'
_chemical_formula_moiety
;
(C24 H12 Cl2 Co3 O12 2-)n,2n(C7 H13 N2 1+)
;
_journal_coden_Cambridge 208
_journal_volume 238
_journal_year 2016
_journal_page_first 217
_journal_name_full 'J.Solid State Chem. '
loop_
_publ_author_name
"Zong-Hui Zhang"
"Ling Xu"
"Huan Jiao"
_chemical_name_systematic
;
catena-[bis(1-methyl-3-propyl-1H-imidazol-3-ium) 
tris(\m-terephthalato)-dichloro-tri-cobalt]
;
_cell_volume   2106.839
_exptl_crystal_colour 'blue'
_exptl_crystal_density_diffrn 1.561
_exptl_crystal_description 'block'
_diffrn_ambient_temperature 293
#These two values have been output from a single CSD field.
_refine_ls_R_factor_gt 0.0399
_refine_ls_wR_factor_gt 0.0399
_symmetry_cell_setting monoclinic
_symmetry_space_group_name_H-M 'P 21/n'
_symmetry_Int_Tables_number 14
loop_
_symmetry_equiv_pos_site_id
_symmetry_equiv_pos_as_xyz
1 x,y,z
2 1/2-x,1/2+y,1/2-z
3 -x,-y,-z
4 -1/2+x,-1/2-y,-1/2+z
_cell_length_a 12.8090(9)
_cell_length_b 9.6002(5)
_cell_length_c 18.0191(9)
_cell_angle_alpha 90
_cell_angle_beta 108.042(7)
_cell_angle_gamma 90
_cell_formula_units_Z 2
loop_
_atom_type_symbol
_atom_type_radius_bond
C 0.68
H 0.23
Cl 0.99
Co 1.26
N 0.68
O 0.68
loop_
_atom_site_label
_atom_site_type_symbol
_atom_site_fract_x
_atom_site_fract_y
_atom_site_fract_z
Co1 Co 0.30134(3) 0.04108(5) 0.07382(2)
Co2 Co 0.50000 0.00000 0.00000
Cl1 Cl 0.16377(9) 0.14606(13) 0.10501(7)
O1 O 0.2241(2) -0.0770(3) -0.01535(13)
O2 O 0.37021(19) -0.1263(3) -0.05308(15)
O3 O -0.1087(2) -0.4317(3) -0.33714(13)
O4 O 0.0259(2) -0.4171(3) -0.39130(13)
C1 C 0.1966(3) -0.2013(4) -0.13237(18)
C2 C 0.2397(3) -0.2561(4) -0.1876(2)
H1 H 0.31480 -0.25040 -0.18030
C3 C 0.1714(3) -0.3192(5) -0.2536(2)
H2 H 0.20040 -0.35500 -0.29100
C4 C 0.0601(3) -0.3297(4) -0.26449(18)
C5 C 0.0172(3) -0.2768(4) -0.20884(19)
H3 H -0.05750 -0.28490 -0.21540
C6 C 0.0853(3) -0.2118(4) -0.1434(2)
H4 H 0.05600 -0.17470 -0.10650
C7 C 0.2703(3) -0.1294(4) -0.06144(18)
C8 C -0.0128(3) -0.3984(4) -0.33698(18)
O5 O 0.39262(18) 0.1566(2) 0.02673(12)
O6 O 0.4388(3) 0.2634(3) 0.14123(15)
C9 C 0.4695(3) 0.3842(4) 0.0350(2)
C10 C 0.5208(3) 0.4966(4) 0.0799(2)
H5 H 0.53490 0.49460 0.13370
C11 C 0.5510(3) 0.6109(4) 0.0456(2)
H6 H 0.58540 0.68570 0.07630
C12 C 0.4340(3) 0.2622(4) 0.0722(2)
N1 N 0.2984(4) 0.0982(5) 0.3323(3)
N2 N 0.4338(4) 0.2387(5) 0.3534(2)
C13 C 0.3743(5) 0.1471(6) 0.3038(3)
H7 H 0.38410 0.12120 0.25660
C14 C 0.3114(6) 0.1629(9) 0.4002(4)
H8 H 0.26860 0.14900 0.43290
C15 C 0.3944(6) 0.2494(7) 0.4132(3)
H9 H 0.42070 0.30750 0.45620
C16 C 0.2171(6) -0.0081(8) 0.2983(4)
H10 H 0.22490 -0.03810 0.24950
H11 H 0.14490 0.02950 0.28970
H12 H 0.22780 -0.08600 0.33320
C17 C 0.5324(7) 0.3093(8) 0.3461(4)
H13 H 0.52000 0.33490 0.29200
H14 H 0.54460 0.39430 0.37680
C18 C 0.6312(8) 0.2214(15) 0.3726(6)
H15 H 0.65070 0.20360 0.32560
H16 H 0.68750 0.28340 0.40380
C19 C 0.6504(10) 0.1006(13) 0.4112(8)
H17 H 0.72790 0.08240 0.42850
H18 H 0.61310 0.02690 0.37730
H19 H 0.62410 0.10570 0.45550
O5B O 0.60738(18) 0.8434(2) -0.02673(12)
O6B O 0.5612(3) 0.7366(3) -0.14123(15)
C9B C 0.5305(3) 0.6158(4) -0.0350(2)
C10B C 0.4792(3) 0.5034(4) -0.0799(2)
H5B H 0.46510 0.50540 -0.13370
C11B C 0.4490(3) 0.3891(4) -0.0456(2)
H6B H 0.41460 0.31430 -0.07630
C12B C 0.5660(3) 0.7378(4) -0.0722(2)
Co1B Co 0.69866(3) -0.04108(5) -0.07382(2)
Cl1B Cl 0.83623(9) -0.14606(13) -0.10501(7)
O1B O 0.7759(2) 0.0770(3) 0.01535(13)
O2B O 0.62979(19) 0.1263(3) 0.05308(15)
O3B O 1.1087(2) 0.4317(3) 0.33714(13)
O4B O 0.9741(2) 0.4171(3) 0.39130(13)
C1B C 0.8034(3) 0.2013(4) 0.13237(18)
C2B C 0.7603(3) 0.2561(4) 0.1876(2)
H1B H 0.68520 0.25040 0.18030
C3B C 0.8286(3) 0.3192(5) 0.2536(2)
H2B H 0.79960 0.35500 0.29100
C4B C 0.9399(3) 0.3297(4) 0.26449(18)
C5B C 0.9828(3) 0.2768(4) 0.20884(19)
H3B H 1.05750 0.28490 0.21540
C6B C 0.9147(3) 0.2118(4) 0.1434(2)
H4B H 0.94400 0.17470 0.10650
C7B C 0.7297(3) 0.1294(4) 0.06144(18)
C8B C 1.0128(3) 0.3984(4) 0.33698(18)
Co1A Co 1.19866(3) 0.54108(5) 0.42618(2)
Co1B* Co 0.69866(3) 0.95892(5) -0.07382(2)
Co1C Co -0.19866(3) -0.54108(5) -0.42618(2)
Co2* Co 0.50000 1.00000 0.00000
Co2A Co 0.00000 -0.50000 -0.50000
Co2A* Co 1.00000 0.50000 0.50000
O3A O 0.6087(2) 0.0683(3) -0.16286(13)
O3C O 0.3913(2) -0.0683(3) 0.16286(13)
O4A O 0.4741(2) 0.0829(3) -0.10870(13)
O4C O 0.5259(2) -0.0829(3) 0.10870(13)
O5B* O 0.60738(18) -0.1566(2) -0.02673(12)
#END
