
#######################################################################
#
#                 Cambridge Crystallographic Data Centre
#                                CCDC
#
#######################################################################
#
# If this CIF has been generated from an entry in the Cambridge
# Structural Database, then it will include bibliographic, chemical,
# crystal, experimental, refinement or atomic coordinate data resulting
# from the CCDC's data processing and validation procedures.
#
#######################################################################

data_CSD_CIF_TACKAM
_audit_creation_date 2016-02-09
_audit_creation_method CSD-ConQuest-V1
_database_code_CSD TACKAM
_database_code_depnum_ccdc_archive 'CCDC 1452380'
_chemical_formula_sum 'C40 H42 Co3 I2 N4 O12'
_chemical_formula_moiety
;
(C24 H12 Co3 I2 O12 2-)n,2n(C8 H15 N2 1+)
;
_journal_coden_Cambridge 208
_journal_volume 238
_journal_year 2016
_journal_page_first 217
_journal_name_full 'J.Solid State Chem. '
loop_
_publ_author_name
"Zong-Hui Zhang"
"Ling Xu"
"Huan Jiao"
_chemical_name_systematic
;
catena-[bis(1-butyl-3-methyl-1H-imidazol-3-ium) 
tris(\m-terephthalato)-diiodo-tri-cobalt]
;
_cell_volume   2267.387
_exptl_crystal_colour 'blue'
_exptl_crystal_density_diffrn 1.788
_exptl_crystal_description 'block'
_diffrn_ambient_temperature 293
#These two values have been output from a single CSD field.
_refine_ls_R_factor_gt 0.0877
_refine_ls_wR_factor_gt 0.0877
_symmetry_cell_setting monoclinic
_symmetry_space_group_name_H-M 'P 21/c'
_symmetry_Int_Tables_number 14
loop_
_symmetry_equiv_pos_site_id
_symmetry_equiv_pos_as_xyz
1 x,y,z
2 -x,1/2+y,1/2-z
3 -x,-y,-z
4 x,-1/2-y,-1/2+z
_cell_length_a 13.4078(6)
_cell_length_b 9.6411(5)
_cell_length_c 18.5041(10)
_cell_angle_alpha 90
_cell_angle_beta 108.572(5)
_cell_angle_gamma 90
_cell_formula_units_Z 2
loop_
_atom_type_symbol
_atom_type_radius_bond
C 0.68
H 0.23
Co 1.26
I 1.40
N 0.68
O 0.68
loop_
_atom_site_label
_atom_site_type_symbol
_atom_site_fract_x
_atom_site_fract_y
_atom_site_fract_z
Co1 Co 0.25382(2) 0.04581(4) 0.059133(18)
Co2 Co 0.00000 0.00000 0.00000
I1 I 0.43659(2) 0.16046(5) 0.07604(2)
O1 O 0.24154(16) -0.0837(3) -0.02575(11)
O2 O 0.06864(15) -0.1199(2) -0.06153(11)
O3 O 0.26126(16) -0.4379(2) -0.34909(11)
O4 O 0.08720(19) -0.4166(3) -0.39666(12)
C1 C 0.1689(2) -0.3297(3) -0.27425(14)
C2 C 0.0757(2) -0.3181(4) -0.25804(17)
H1 H 0.01430 -0.35390 -0.29230
C3 C 0.0713(2) -0.2557(4) -0.19345(18)
H2 H 0.00750 -0.25120 -0.18370
C4 C 0.1609(2) -0.1985(3) -0.14156(14)
C5 C 0.2561(2) -0.2088(4) -0.15732(16)
H3 H 0.31710 -0.17090 -0.12370
C6 C 0.2596(2) -0.2752(3) -0.22264(16)
H4 H 0.32340 -0.28340 -0.23210
C7 C 0.1733(2) -0.4014(3) -0.34493(15)
C8 C 0.1579(2) -0.1274(3) -0.07107(15)
O5 O 0.12194(15) 0.1559(2) 0.01479(11)
O6 O 0.2024(2) 0.2706(3) 0.12043(16)
C9 C 0.0623(2) 0.3844(3) 0.02788(15)
C10 C 0.0003(3) 0.3889(4) -0.04713(18)
H5 H -0.00040 0.31420 -0.07900
C11 C -0.0607(3) 0.5037(3) -0.07533(18)
H6 H -0.10130 0.50670 -0.12650
C12 C 0.1334(2) 0.2653(3) 0.05873(18)
N1 N 0.3675(4) -0.3927(5) 0.0777(3)
N2 N 0.5022(6) -0.2909(7) 0.1664(4)
C13 C 0.4420(4) -0.2838(6) 0.0963(4)
H7 H 0.44710 -0.21540 0.06220
C14 C 0.3994(11) -0.4782(15) 0.1401(7)
H8 H 0.37430 -0.56720 0.14330
C15 C 0.4740(7) -0.4106(10) 0.1967(5)
H9 H 0.50150 -0.43970 0.24710
C16 C 0.3040(8) -0.4368(12) 0.0074(6)
H10 H 0.29560 -0.36310 -0.02900
H11 H 0.23650 -0.46270 0.01060
H12 H 0.33580 -0.51530 -0.00860
C17 C 0.5778(7) -0.1914(10) 0.2003(5)
H13 H 0.54230 -0.10260 0.19560
H14 H 0.60530 -0.21260 0.25430
C18 C 0.6538(7) -0.1764(9) 0.1769(5)
H15 H 0.69460 -0.09830 0.20380
H16 H 0.62670 -0.15090 0.12350
C19 C 0.7289(10) -0.2973(18) 0.1836(4)
H17 H 0.76060 -0.30720 0.23830
H18 H 0.68160 -0.37580 0.16820
C20 C 0.8113(18) -0.333(3) 0.1562(12)
H19 H 0.83250 -0.42690 0.17030
H20 H 0.86980 -0.27190 0.17790
H21 H 0.78830 -0.32450 0.10170
O5B O -0.12194(15) 0.8441(2) -0.01479(11)
O6B O -0.2024(2) 0.7294(3) -0.12043(16)
C9B C -0.0623(2) 0.6156(3) -0.02788(15)
C10B C -0.0003(3) 0.6111(4) 0.04713(18)
H5B H 0.00040 0.68580 0.07900
C11B C 0.0607(3) 0.4963(3) 0.07533(18)
H6B H 0.10130 0.49330 0.12650
C12B C -0.1334(2) 0.7347(3) -0.05873(18)
Co1B Co -0.25382(2) -0.04581(4) -0.059133(18)
I1B I -0.43659(2) -0.16046(5) -0.07604(2)
O1B O -0.24154(16) 0.0837(3) 0.02575(11)
O2B O -0.06864(15) 0.1199(2) 0.06153(11)
O3B O -0.26126(16) 0.4379(2) 0.34909(11)
O4B O -0.08720(19) 0.4166(3) 0.39666(12)
C1B C -0.1689(2) 0.3297(3) 0.27425(14)
C2B C -0.0757(2) 0.3181(4) 0.25804(17)
H1B H -0.01430 0.35390 0.29230
C3B C -0.0713(2) 0.2557(4) 0.19345(18)
H2B H -0.00750 0.25120 0.18370
C4B C -0.1609(2) 0.1985(3) 0.14156(14)
C5B C -0.2561(2) 0.2088(4) 0.15732(16)
H3B H -0.31710 0.17090 0.12370
C6B C -0.2596(2) 0.2752(3) 0.22264(16)
H4B H -0.32340 0.28340 0.23210
C7B C -0.1733(2) 0.4014(3) 0.34493(15)
C8B C -0.1579(2) 0.1274(3) 0.07107(15)
Co1A Co -0.25382(2) 0.54581(4) 0.440867(18)
Co1B* Co -0.25382(2) 0.95419(4) -0.059133(18)
Co1C Co 0.25382(2) -0.54581(4) -0.440867(18)
Co2* Co 0.00000 1.00000 0.00000
Co2A Co 0.00000 -0.50000 -0.50000
Co2A* Co 0.00000 0.50000 0.50000
O3A O -0.26126(16) 0.0621(2) -0.15091(11)
O3C O 0.26126(16) -0.0621(2) 0.15091(11)
O4A O -0.08720(19) 0.0834(3) -0.10334(12)
O4C O 0.08720(19) -0.0834(3) 0.10334(12)
O5B* O -0.12194(15) -0.1559(2) -0.01479(11)
#END
