
#######################################################################
#
#                 Cambridge Crystallographic Data Centre
#                                CCDC
#
#######################################################################
#
# If this CIF has been generated from an entry in the Cambridge
# Structural Database, then it will include bibliographic, chemical,
# crystal, experimental, refinement or atomic coordinate data resulting
# from the CCDC's data processing and validation procedures.
#
#######################################################################

data_CSD_CIF_TACYED
_audit_creation_date 2011-03-15
_audit_creation_method CSD-ConQuest-V1
_database_code_CSD TACYED
_database_code_depnum_ccdc_archive 'CCDC 762629'
_chemical_formula_sum 'C60 H60 In3 N3 O24'
_chemical_formula_moiety
;
(C48 H24 In3 O24 3-)n,3n(C4 H12 N1 1+)
;
_journal_coden_Cambridge 1350
_journal_volume 12
_journal_year 2010
_journal_page_first 3385
_journal_name_full 'CrystEngComm '
loop_
_publ_author_name
"Fei Bu"
"Shou-Jun Xiao"
_chemical_name_systematic
;
catena-[tris(Tetramethylammonium) 
hexakis(\m~2~-benzene-1,3-dicarboxylato)-tri-indium(iii)]
;
_cell_volume   2166.390
_exptl_crystal_density_diffrn 1.189
_diffrn_ambient_temperature 296
_refine_special_details
;
The cation is disordered by symmetry.

;
#These two values have been output from a single CSD field.
_refine_ls_R_factor_gt 0.0547
_refine_ls_wR_factor_gt 0.0547
_symmetry_cell_setting hexagonal
_symmetry_space_group_name_H-M 'P -6'
_symmetry_Int_Tables_number 174
loop_
_symmetry_equiv_pos_site_id
_symmetry_equiv_pos_as_xyz
1 x,y,z
2 -x+y,-x,-z
3 -y,x-y,z
4 x,y,-z
5 -x+y,-x,z
6 -y,x-y,-z
_cell_length_a 15.8818(5)
_cell_length_b 15.8818(5)
_cell_length_c 9.9176(7)
_cell_angle_alpha 90
_cell_angle_beta 90
_cell_angle_gamma 120
_cell_formula_units_Z 1
loop_
_atom_type_symbol
_atom_type_radius_bond
C 0.68
H 0.23
In 1.46
N 0.68
O 0.68
loop_
_atom_site_label
_atom_site_type_symbol
_atom_site_fract_x
_atom_site_fract_y
_atom_site_fract_z
In1 In 0.28350(4) 0.36037(4) 0.00000
O1 O 0.4066(8) 0.3265(7) 0.00000
O2 O 0.2552(6) 0.2089(6) 0.00000
O3 O 0.2606(10) -0.1814(8) 0.00000
O4 O 0.1591(6) -0.1298(6) 0.00000
O5 O 0.3715(5) 0.4803(5) 0.1406(5)
O6 O 0.2733(4) 0.3451(4) 0.2432(4)
C1 C 0.3722(9) 0.1594(8) 0.00000
C2 C 0.2988(9) 0.0609(9) 0.00000
H1 H 0.23370 0.04430 0.00000
C3 C 0.3234(11) -0.0104(9) 0.00000
C4 C 0.4209(12) 0.0134(12) 0.00000
H2 H 0.43720 -0.03530 0.00000
C5 C 0.4932(13) 0.1108(16) 0.00000
H3 H 0.55860 0.12850 0.00000
C6 C 0.4658(11) 0.1800(12) 0.00000
H4 H 0.51440 0.24500 0.00000
C7 C 0.3432(9) 0.2330(8) 0.00000
C8 C 0.2433(11) -0.1138(9) 0.00000
C9 C 0.3749(6) 0.4794(6) 0.3792(6)
C10 C 0.3393(8) 0.4346(9) 0.50000
H5 H 0.28850 0.37060 0.50000
C11 C 0.4530(8) 0.5798(8) 0.3809(8)
H6 H 0.47880 0.61240 0.30020
C12 C 0.4887(12) 0.6263(11) 0.50000
H7 H 0.53820 0.69100 0.50000
C13 C 0.3370(6) 0.4310(7) 0.2490(6)
N1 N 0.352(3) 0.627(3) 0.00000
C14 C 0.33330 0.66670 0.1223(19)
In1B In -0.36037(4) -0.07687(4) 0.00000
In1A In 0.07687(4) -0.28350(4) 0.00000
In1* In 0.28350(4) 0.36037(4) 1.00000
In1** In 0.28350(4) 0.36037(4) -1.00000
In1B* In -0.36037(4) -0.07687(4) 1.00000
O1B O -0.3265(8) 0.0801(7) 0.00000
O1A O -0.0801(8) -0.4066(7) 0.00000
O2B O -0.2089(6) 0.0463(6) 0.00000
O2A O -0.0463(6) -0.2552(6) 0.00000
O3B O 0.1814(10) 0.4420(8) 0.00000
O3A O -0.442(1) -0.2606(8) 0.00000
O4B O 0.1298(6) 0.2889(6) 0.00000
O4A O -0.2889(6) -0.1591(6) 0.00000
O5C O 0.3715(5) 0.4803(5) 0.8594(5)
O5C* O 0.3715(5) 0.4803(5) -0.1406(5)
O5* O 0.3715(5) 0.4803(5) -0.8594(5)
O5B O -0.4803(5) -0.1088(5) 0.1406(5)
O5E O -0.4803(5) -0.1088(5) 0.8594(5)
O5E* O -0.4803(5) -0.1088(5) -0.1406(5)
O5D O 0.1088(5) -0.3715(5) 0.1406(5)
O5A O 0.1088(5) -0.3715(5) -0.1406(5)
O6C O 0.2733(4) 0.3451(4) 0.7568(4)
O6C* O 0.2733(4) 0.3451(4) -0.2432(4)
O6* O 0.2733(4) 0.3451(4) -0.7568(4)
O6B O -0.3451(4) -0.0718(4) 0.2432(4)
O6E O -0.3451(4) -0.0718(4) 0.7568(4)
O6E* O -0.3451(4) -0.0718(4) -0.2432(4)
O6D O 0.0718(4) -0.2733(4) 0.2432(4)
O6A O 0.0718(4) -0.2733(4) -0.2432(4)
C1B C -0.1594(9) 0.2128(8) 0.00000
C1A C -0.2128(9) -0.3722(8) 0.00000
C2B C -0.0609(9) 0.2379(9) 0.00000
C2A C -0.2379(9) -0.2988(9) 0.00000
H1B H -0.04430 0.18940 0.00000
H1A H -0.18940 -0.23370 0.00000
C3B C 0.0104(11) 0.3338(9) 0.00000
C3A C -0.3338(11) -0.3234(9) 0.00000
C4B C -0.0134(12) 0.4075(12) 0.00000
C4A C -0.4075(12) -0.4209(12) 0.00000
H2B H 0.03530 0.47250 0.00000
H2A H -0.47250 -0.43720 0.00000
C5B C -0.1108(13) 0.3824(16) 0.00000
C5A C -0.3824(13) -0.4932(16) 0.00000
H3B H -0.12850 0.43010 0.00000
H3A H -0.43010 -0.55860 0.00000
C6B C -0.1800(11) 0.2858(12) 0.00000
C6A C -0.2858(11) -0.4658(12) 0.00000
H4B H -0.24500 0.26940 0.00000
H4A H -0.26940 -0.51440 0.00000
C7B C -0.2330(9) 0.1102(8) 0.00000
C7A C -0.1102(9) -0.3432(8) 0.00000
C8B C 0.1138(11) 0.3571(9) 0.00000
C8A C -0.3571(11) -0.2433(9) 0.00000
C9C C 0.3749(6) 0.4794(6) 0.6208(6)
C9C* C 0.3749(6) 0.4794(6) -0.3792(6)
C9* C 0.3749(6) 0.4794(6) -0.6208(6)
C9B C -0.4794(6) -0.1045(6) 0.3792(6)
C9E C -0.4794(6) -0.1045(6) 0.6208(6)
C10* C 0.3393(8) 0.4346(9) -0.50000
C10B C -0.4346(8) -0.0953(9) 0.50000
H5* H 0.28850 0.37060 -0.50000
H5B H -0.37060 -0.08210 0.50000
C11C C 0.4530(8) 0.5798(8) 0.6191(8)
C11C* C 0.4530(8) 0.5798(8) -0.3809(8)
C11* C 0.4530(8) 0.5798(8) -0.6191(8)
C11B C -0.5798(8) -0.1268(8) 0.3809(8)
C11E C -0.5798(8) -0.1268(8) 0.6191(8)
H6C H 0.47880 0.61240 0.69980
H6C* H 0.47880 0.61240 -0.30020
H6* H 0.47880 0.61240 -0.69980
H6B H -0.61240 -0.13360 0.30020
H6E H -0.61240 -0.13360 0.69980
C12* C 0.4887(12) 0.6263(11) -0.50000
C12B C -0.6263(12) -0.1376(11) 0.50000
H7* H 0.53820 0.69100 -0.50000
H7B H -0.69100 -0.15280 0.50000
C13C C 0.3370(6) 0.4310(7) 0.7510(6)
C13C* C 0.3370(6) 0.4310(7) -0.2490(6)
C13* C 0.3370(6) 0.4310(7) -0.7510(6)
C13B C -0.4310(6) -0.0940(7) 0.2490(6)
C13E C -0.4310(6) -0.0940(7) 0.7510(6)
N1B N 0.373(3) 0.725(3) 0.00000
N1A N 0.275(3) 0.648(3) 0.00000
C14E C 0.33330 0.66660 -0.1223(19)
#END
