
#######################################################################
#
#                 Cambridge Crystallographic Data Centre
#                                CCDC
#
#######################################################################
#
# If this CIF has been generated from an entry in the Cambridge
# Structural Database, then it will include bibliographic, chemical,
# crystal, experimental, refinement or atomic coordinate data resulting
# from the CCDC's data processing and validation procedures.
#
#######################################################################

data_CSD_CIF_TADDAH
_audit_creation_date 2020-11-16
_audit_creation_method CSD-ConQuest-V1
_database_code_CSD TADDAH
_database_code_depnum_ccdc_archive 'CCDC 1842587'
_chemical_formula_sum 'C83 H101 Cu10 N16 Nd1 O33'
_chemical_formula_moiety
;
(C74 H74 Cu10 N14 Nd1 O30 1-)n,C6 H16 N1 1+,C3 H7 N1 O1,2(H2 O1)
;
_journal_coden_Cambridge 1078
_journal_year 2020
_journal_name_full 'CSD Communication(Private Communication) '
loop_
_publ_author_name
"niu xueli"
_chemical_name_systematic
;
catena-[triethylammonium 
octakis(\m-N,2-dioxidobenzene-1-carboximidato)-hexakis(N,N-dimethylformamide)-
deca-copper(ii)-neodymium(iii) N,N-dimethylformamide solvate dihydrate]
;
_cell_volume   9539.100
_exptl_crystal_colour 'black'
_exptl_crystal_density_diffrn 1.832
_exptl_crystal_description 'block'
_diffrn_ambient_temperature 298
#These two values have been output from a single CSD field.
_refine_ls_R_factor_gt 0.0945
_refine_ls_wR_factor_gt 0.0945
_symmetry_cell_setting monoclinic
_symmetry_space_group_name_H-M 'P 21/c'
_symmetry_Int_Tables_number 14
loop_
_symmetry_equiv_pos_site_id
_symmetry_equiv_pos_as_xyz
1 x,y,z
2 -x,1/2+y,1/2-z
3 -x,-y,-z
4 x,-1/2-y,-1/2+z
_cell_length_a 20.4785(19)
_cell_length_b 19.3907(18)
_cell_length_c 24.394(2)
_cell_angle_alpha 90
_cell_angle_beta 100.014(2)
_cell_angle_gamma 90
_cell_formula_units_Z 4
loop_
_atom_type_symbol
_atom_type_radius_bond
C 0.68
H 0.23
Cu 1.32
N 0.68
Nd 2.01
O 0.68
loop_
_atom_site_label
_atom_site_type_symbol
_atom_site_fract_x
_atom_site_fract_y
_atom_site_fract_z
Nd1 Nd 0.23907(4) 0.23631(4) 0.09764(3)
Cu1 Cu 0.07398(9) -0.09255(7) 0.08898(6)
Cu2 Cu 0.08043(9) 0.13859(8) 0.04566(6)
Cu3 Cu 0.07058(8) -0.00307(7) -0.02599(6)
Cu4 Cu 0.07731(9) -0.14405(8) -0.09549(7)
Cu5 Cu 0.07124(9) 0.08690(8) -0.14044(6)
Cu6 Cu 0.43070(9) -0.09393(8) 0.13718(7)
Cu7 Cu 0.43745(9) -0.14550(8) -0.04645(7)
Cu8 Cu 0.42885(9) -0.00416(8) 0.02325(7)
Cu9 Cu 0.39115(9) 0.13325(8) 0.08811(7)
Cu10 Cu 0.42159(9) 0.08532(8) -0.09167(7)
N1 N 0.0720(5) 0.0072(5) 0.0910(5)
N2 N 0.0808(5) -0.1488(5) -0.0164(5)
N3 N 0.0819(5) -0.0124(5) -0.1407(4)
N4 N 0.0712(5) 0.1436(5) -0.0338(4)
N5 N 0.4372(5) -0.1507(5) 0.0308(4)
N6 N 0.4146(5) 0.0041(6) 0.1369(5)
N7 N 0.4009(6) 0.1372(5) 0.0107(5)
N8 N 0.4317(5) -0.0130(5) -0.0934(5)
N9 N 0.2404(6) 0.4574(6) 0.1692(6)
N10 N 0.0926(6) 0.2543(5) 0.2240(5)
N11 N 0.3942(6) 0.2527(5) 0.2617(5)
N12 N 0.2506(6) 0.0338(7) 0.1954(6)
N13 N 0.2401(7) 0.0881(8) -0.0542(7)
N14 N 0.2473(7) 0.3785(7) -0.0567(6)
O1 O 0.0692(5) -0.0979(4) 0.1654(4)
O2 O 0.0823(4) 0.1181(4) 0.1231(4)
O3 O 0.0627(4) 0.0430(4) 0.0404(4)
O4 O 0.1181(5) 0.2294(4) 0.0530(4)
O5 O 0.0590(5) 0.0825(4) -0.0649(4)
O6 O 0.0819(4) 0.1857(4) -0.1187(4)
O7 O 0.0796(4) 0.0933(4) -0.2158(3)
O8 O 0.0768(4) -0.1216(4) -0.1731(4)
O9 O 0.0873(4) -0.0462(4) -0.0899(4)
O10 O 0.0708(5) -0.2394(4) -0.1026(4)
O11 O 0.0815(4) -0.1904(4) 0.0714(4)
O12 O 0.0838(5) -0.0853(4) 0.0136(4)
O13 O 0.4231(5) -0.2399(4) -0.0561(4)
O14 O 0.4228(4) -0.1910(4) 0.1164(4)
O15 O 0.4515(4) -0.0874(4) 0.0635(4)
O16 O 0.4198(5) -0.1014(4) 0.2113(4)
O17 O 0.4026(5) 0.0372(4) 0.0847(4)
O18 O 0.3994(5) 0.1123(4) 0.1668(4)
O19 O 0.3584(5) 0.2278(4) 0.0845(4)
O20 O 0.4023(5) 0.0753(4) -0.0179(4)
O21 O 0.4068(4) 0.1829(4) -0.0738(4)
O22 O 0.4277(5) 0.0916(4) -0.1678(4)
O23 O 0.4476(5) -0.0482(4) -0.0416(4)
O24 O 0.4331(5) -0.1217(5) -0.1247(4)
O25 O 0.2421(5) 0.3610(5) 0.1165(4)
O26 O 0.1704(5) 0.2519(5) 0.1682(4)
O27 O 0.3113(5) 0.2485(5) 0.1876(4)
O28 O 0.2419(5) 0.1216(5) 0.1360(5)
O29 O 0.2363(5) 0.1469(5) 0.0251(4)
O30 O 0.2419(5) 0.2956(5) 0.0074(4)
C1 C 0.0806(6) -0.0456(6) 0.2011(5)
C2 C 0.0834(6) -0.0629(6) 0.2594(5)
H1 H 0.07891 -0.10879 0.26904
C3 C 0.0926(7) -0.0141(7) 0.3008(6)
H2 H 0.09493 -0.02697 0.33786
C4 C 0.0982(7) 0.0536(7) 0.2869(6)
H3 H 0.10446 0.08680 0.31485
C5 C 0.0948(6) 0.0736(6) 0.2332(6)
H4 H 0.09887 0.12005 0.22489
C6 C 0.0849(6) 0.0241(6) 0.1894(5)
C7 C 0.0784(6) 0.0505(6) 0.1331(6)
C8 C 0.0967(6) 0.2779(6) 0.0136(5)
C9 C 0.0951(6) 0.3470(6) 0.0329(6)
H5 H 0.10243 0.35575 0.07097
C10 C 0.0832(7) 0.3999(7) -0.0032(7)
H6 H 0.08277 0.44458 0.01058
C11 C 0.0710(7) 0.3894(6) -0.0622(6)
H7 H 0.06102 0.42590 -0.08695
C12 C 0.0749(7) 0.3210(6) -0.0811(6)
H8 H 0.07139 0.31244 -0.11901
C13 C 0.0839(6) 0.2661(6) -0.0437(5)
C14 C 0.0792(6) 0.1956(6) -0.0668(5)
C15 C 0.0766(6) 0.0413(6) -0.2520(5)
C16 C 0.0730(7) 0.0591(8) -0.3068(6)
H9 H 0.07404 0.10553 -0.31623
C17 C 0.0679(7) 0.0103(7) -0.3486(6)
H10 H 0.06617 0.02373 -0.38540
C18 C 0.0655(7) -0.0571(7) -0.3355(6)
H11 H 0.05886 -0.08979 -0.36381
C19 C 0.0724(7) -0.0781(7) -0.2819(6)
H12 H 0.07443 -0.12486 -0.27339
C20 C 0.0772(6) -0.0546(6) -0.1817(5)
C21 C 0.0772(7) -0.2848(6) -0.0621(6)
C22 C 0.0775(7) -0.3548(6) -0.0800(6)
H13 H 0.07087 -0.36492 -0.11783
C23 C 0.0877(7) -0.4075(8) -0.0417(7)
H14 H 0.09162 -0.45274 -0.05334
C24 C 0.0921(7) -0.3922(7) 0.0166(6)
H15 H 0.09718 -0.42750 0.04288
C25 C 0.0886(6) -0.3244(6) 0.0328(5)
H16 H 0.09027 -0.31464 0.07038
C26 C 0.0830(6) -0.2714(7) -0.0041(6)
C27 C 0.0802(7) -0.2021(7) 0.0188(6)
C28 C 0.4250(6) -0.2003(7) 0.0637(6)
C29 C 0.4162(7) -0.2701(6) 0.0393(6)
C30 C 0.4065(7) -0.3241(7) 0.0756(6)
H17 H 0.40505 -0.31365 0.11254
C31 C 0.3990(8) -0.3928(8) 0.0582(7)
H18 H 0.39587 -0.42818 0.08335
C32 C 0.3963(8) -0.4068(8) 0.0002(7)
H19 H 0.38842 -0.45138 -0.01344
C33 C 0.4051(7) -0.3551(7) -0.0344(7)
H20 H 0.40473 -0.36569 -0.07167
C34 C 0.4151(7) -0.2850(6) -0.0174(6)
C35 C 0.4285(6) -0.0573(6) -0.1350(6)
C36 C 0.4194(6) -0.0309(6) -0.1919(5)
C37 C 0.4111(7) -0.0797(7) -0.2345(6)
H21 H 0.40910 -0.12623 -0.22570
C38 C 0.4059(7) -0.0601(7) -0.2893(6)
H22 H 0.40120 -0.09306 -0.31736
C39 C 0.4079(7) 0.0099(7) -0.3021(6)
H23 H 0.40412 0.02434 -0.33892
C40 C 0.4154(7) 0.0566(8) -0.2601(6)
H24 H 0.41786 0.10302 -0.26931
C41 C 0.4198(6) 0.0397(7) -0.2040(6)
C42 C 0.4031(7) 0.1922(7) -0.0231(6)
C43 C 0.4028(6) 0.2604(6) 0.0015(5)
C44 C 0.4229(7) 0.3146(7) -0.0277(6)
H25 H 0.43445 0.30526 -0.06216
C45 C 0.4270(7) 0.3814(8) -0.0094(6)
H26 H 0.43897 0.41656 -0.03162
C46 C 0.4129(7) 0.3955(7) 0.0435(6)
H27 H 0.41850 0.43997 0.05796
C47 C 0.3901(6) 0.3422(6) 0.0752(6)
H28 H 0.37872 0.35186 0.10973
C48 C 0.3846(7) 0.2727(7) 0.0534(6)
C49 C 0.4111(6) 0.0464(7) 0.1783(6)
C50 C 0.4180(7) 0.0206(7) 0.2347(6)
C51 C 0.4196(7) 0.0689(7) 0.2764(6)
H29 H 0.41580 0.11533 0.26677
C52 C 0.4266(8) 0.0510(8) 0.3315(7)
H30 H 0.42819 0.08453 0.35896
C53 C 0.4314(8) -0.0184(8) 0.3452(7)
H31 H 0.43831 -0.03153 0.38247
C54 C 0.4260(7) -0.0681(7) 0.3045(6)
H32 H 0.42476 -0.11433 0.31448
C55 C 0.4223(6) -0.0506(7) 0.2472(6)
C56 C 0.2432(7) 0.3864(7) 0.1633(6)
H33 H 0.24586 0.35796 0.19432
C57 C 0.2446(9) 0.4826(9) 0.2270(7)
H34 H 0.24224 0.53202 0.22696
H35 H 0.20837 0.46401 0.24259
H36 H 0.28578 0.46798 0.24893
C58 C 0.2370(9) 0.5003(8) 0.1201(8)
H37 H 0.23530 0.54795 0.13049
H38 H 0.27545 0.49245 0.10345
H39 H 0.19782 0.48891 0.09391
C59 C 0.1100(8) 0.2525(7) 0.1754(6)
H40 H 0.07682 0.25174 0.14405
C60 C 0.0263(7) 0.2541(7) 0.2313(6)
H41 H 0.02443 0.25559 0.27030
H42 H 0.00407 0.29375 0.21323
H43 H 0.00496 0.21295 0.21528
C61 C 0.1464(7) 0.2544(7) 0.2747(6)
H44 H 0.12667 0.25578 0.30763
H45 H 0.17270 0.21339 0.27501
H46 H 0.17411 0.29421 0.27382
C62 C 0.3712(8) 0.2480(6) 0.2072(6)
H47 H 0.40141 0.24423 0.18302
C63 C 0.3497(8) 0.2533(9) 0.3009(6)
H48 H 0.37463 0.25689 0.33798
H49 H 0.32025 0.29198 0.29357
H50 H 0.32436 0.21136 0.29758
C64 C 0.4653(8) 0.2529(7) 0.2832(7)
H51 H 0.47256 0.25654 0.32301
H52 H 0.48453 0.21077 0.27272
H53 H 0.48548 0.29137 0.26789
C65 C 0.2472(7) 0.0995(8) 0.1834(8)
H54 H 0.24891 0.13096 0.21241
C66 C 0.2475(9) -0.0167(9) 0.1531(9)
H55 H 0.25076 -0.06181 0.16962
H56 H 0.20613 -0.01265 0.12787
H57 H 0.28349 -0.00996 0.13318
C67 C 0.2555(10) 0.0142(11) 0.2529(9)
H58 H 0.25764 -0.03512 0.25600
H59 H 0.29483 0.03401 0.27427
H60 H 0.21730 0.03072 0.26681
C68 C 0.2375(7) 0.1456(8) -0.0241(7)
H61 H 0.23646 0.18767 -0.04262
C69 C 0.2446(11) 0.0928(11) -0.1124(9)
H62 H 0.24604 0.04726 -0.12759
H63 H 0.20666 0.11694 -0.13191
H64 H 0.28423 0.11733 -0.11647
C70 C 0.2446(8) 0.0227(9) -0.0282(9)
H65 H 0.24600 -0.01251 -0.05565
H66 H 0.28425 0.02061 -0.00070
H67 H 0.20668 0.01564 -0.01067
C71 C 0.2443(7) 0.3542(9) -0.0049(7)
H68 H 0.24416 0.38658 0.02315
C72 C 0.2499(9) 0.3288(10) -0.1016(8)
H69 H 0.25189 0.35314 -0.13556
H70 H 0.28860 0.30034 -0.09215
H71 H 0.21096 0.30036 -0.10654
C73 C 0.2507(10) 0.4525(10) -0.0679(9)
H72 H 0.25254 0.45956 -0.10652
H73 H 0.21213 0.47489 -0.05889
H74 H 0.28976 0.47154 -0.04548
C74 C 0.0767(6) -0.0280(6) -0.2383(5)
N15 N 0.2520(8) 0.7843(10) 0.0418(8)
O31 O 0.2419(8) 0.7814(8) -0.0521(7)
C75 C 0.2443(9) 0.7507(11) -0.0053(10)
H75 H 0.24057 0.70293 -0.00488
C76 C 0.2488(11) 0.7461(12) 0.0917(10)
H76 H 0.25517 0.77696 0.12300
H77 H 0.20626 0.72431 0.08858
H78 H 0.28296 0.71163 0.09696
C77 C 0.2566(11) 0.8565(12) 0.0426(10)
H79 H 0.26199 0.87262 0.08030
H80 H 0.29405 0.87050 0.02646
H81 H 0.21685 0.87583 0.02145
N16 N 0.2441(7) 0.7475(7) 0.3387(6)
H82 H 0.23478 0.74067 0.37644
C78 C 0.2848(12) 0.8072(13) 0.3419(12)
H83 H 0.29704 0.81603 0.30590
H84 H 0.32519 0.79951 0.36859
C79 C 0.2462(9) 0.8731(9) 0.3607(9)
H85 H 0.27427 0.91301 0.36272
H86 H 0.20656 0.88107 0.33406
H87 H 0.23466 0.86458 0.39663
C80 C 0.2823(12) 0.6871(14) 0.3273(12)
H88 H 0.32540 0.68858 0.35121
H89 H 0.28935 0.68925 0.28906
C81 C 0.2488(9) 0.6190(9) 0.3364(9)
H90 H 0.27614 0.58152 0.32830
H91 H 0.24257 0.61601 0.37448
H92 H 0.20650 0.61668 0.31228
C82 C 0.1760(11) 0.7517(12) 0.3009(11)
H93 H 0.15106 0.78933 0.31345
H94 H 0.15194 0.70936 0.30453
C83 C 0.1798(14) 0.7631(14) 0.2384(12)
H95 H 0.13577 0.76519 0.21714
H96 H 0.20256 0.80550 0.23422
H97 H 0.20345 0.72547 0.22530
O32 O 0.5247(7) 0.2532(6) 0.1595(5)
H98 H 0.53613 0.26717 0.12952
H99 H 0.53207 0.21004 0.16189
O33 O 0.3626(9) 0.7670(8) 0.2335(9)
H100 H 0.37397 0.80586 0.22218
H101 H 0.38944 0.75679 0.26311
Cu1B Cu -0.07398(9) 0.09255(7) -0.08898(6)
Cu3B Cu -0.07058(8) 0.00307(7) 0.02599(6)
Cu8B Cu 0.57115(9) 0.00416(8) -0.02325(7)
Cu10B Cu 0.57841(9) -0.08532(8) 0.09167(7)
O3B O -0.0627(4) -0.0430(4) -0.0404(4)
O5B O -0.0590(5) -0.0825(4) 0.0649(4)
O15B O 0.5485(4) 0.0874(4) -0.0635(4)
O23B O 0.5524(5) 0.0482(4) 0.0416(4)
#END
