
#######################################################################
#
#                 Cambridge Crystallographic Data Centre
#                                CCDC
#
#######################################################################
#
# If this CIF has been generated from an entry in the Cambridge
# Structural Database, then it will include bibliographic, chemical,
# crystal, experimental, refinement or atomic coordinate data resulting
# from the CCDC's data processing and validation procedures.
#
#######################################################################

data_CSD_CIF_TADXUT
_audit_creation_date 2011-03-15
_audit_creation_method CSD-ConQuest-V1
_database_code_CSD TADXUT
_database_code_depnum_ccdc_archive 'CCDC 753741'
_chemical_formula_sum 'C12 H29 Gd1 N3 O13'
_chemical_formula_moiety
;
(C11 H16 Gd1 N2 O9 1-)n,0.5n(C2 H10 N2 2+),4n(H2 O1)
;
_journal_coden_Cambridge 211
_journal_volume 63
_journal_year 2010
_journal_page_first 3897
_journal_name_full 'J.Coord.Chem. '
loop_
_publ_author_name
"Xia Chen"
"Dan Li"
"Jun Wang"
"Bin Liu"
"Yumei Kong"
"Dan Wang"
"Xiangdong Zhang"
_chemical_name_systematic
;
catena-(hemikis(Ethylenediammonium) 
(\m~2~-1,3-propylenediamine-N,N,N',N'-tetra-acetato)-aqua-gadolinium(iii) 
tetrahydrate)
;
_cell_volume   4170.598
_exptl_crystal_colour 'colorless'
_exptl_crystal_density_diffrn 1.849
_exptl_crystal_description 'block'
_diffrn_ambient_temperature 93
#These two values have been output from a single CSD field.
_refine_ls_R_factor_gt 0.0178
_refine_ls_wR_factor_gt 0.0178
_symmetry_cell_setting monoclinic
_symmetry_space_group_name_H-M 'C 2/c'
_symmetry_Int_Tables_number 15
loop_
_symmetry_equiv_pos_site_id
_symmetry_equiv_pos_as_xyz
1 x,y,z
2 -x,y,1/2-z
3 1/2+x,1/2+y,z
4 1/2-x,1/2+y,1/2-z
5 -x,-y,-z
6 x,-y,-1/2+z
7 -1/2-x,-1/2-y,-z
8 -1/2+x,-1/2-y,-1/2+z
_cell_length_a 18.171(3)
_cell_length_b 9.2651(13)
_cell_length_c 25.200(4)
_cell_angle_alpha 90
_cell_angle_beta 100.569(2)
_cell_angle_gamma 90
_cell_formula_units_Z 8
loop_
_atom_type_symbol
_atom_type_radius_bond
C 0.68
H 0.23
Gd 1.96
N 0.68
O 0.68
loop_
_atom_site_label
_atom_site_type_symbol
_atom_site_fract_x
_atom_site_fract_y
_atom_site_fract_z
Gd1 Gd 0.737619(5) 0.696018(9) 0.317687(3)
O1 O 0.67023(7) 0.68182(14) 0.38855(5)
O2 O 0.61756(8) 0.54565(15) 0.44430(6)
O3 O 0.72749(8) 0.46016(15) 0.28179(5)
O4 O 0.77498(8) 0.23979(15) 0.27621(5)
O5 O 0.69728(7) 0.93687(14) 0.32452(5)
O6 O 0.66980(7) 1.10839(15) 0.38010(5)
O7 O 0.86667(7) 0.71439(14) 0.30890(5)
O8 O 0.96465(7) 0.86282(15) 0.31264(6)
O9 O 0.60847(8) 0.68393(17) 0.27797(6)
N1 N 0.78549(9) 0.48705(17) 0.38823(6)
N2 N 0.82093(9) 0.85089(17) 0.39184(6)
C1 C 0.71501(11) 0.4411(2) 0.40539(8)
H1 H 0.72780 0.38530 0.43930
H2 H 0.68720 0.37620 0.37750
C2 C 0.66431(11) 0.5661(2) 0.41427(7)
C3 C 0.81227(11) 0.3675(2) 0.35780(8)
H3 H 0.80890 0.27580 0.37740
H4 H 0.86560 0.38390 0.35590
C4 C 0.76732(11) 0.3543(2) 0.30100(8)
C5 C 0.84418(12) 0.5143(2) 0.43720(8)
H5 H 0.89390 0.50770 0.42660
H6 H 0.84130 0.43650 0.46370
C6 C 0.83889(11) 0.6589(2) 0.46496(8)
H7 H 0.86480 0.65150 0.50300
H8 H 0.78560 0.68080 0.46500
C7 C 0.87296(11) 0.7829(2) 0.43794(8)
H9 H 0.89010 0.85810 0.46540
H10 H 0.91750 0.74670 0.42460
C8 C 0.77134(10) 0.9526(2) 0.41325(8)
H11 H 0.80080 1.03700 0.42920
H12 H 0.75000 0.90490 0.44220
C9 C 0.70833(10) 1.0031(2) 0.36917(8)
C10 C 0.8674(1) 0.9322(2) 0.35970(8)
H13 H 0.90680 0.98610 0.38420
H14 H 0.83580 1.00270 0.33630
C11 C 0.90347(11) 0.8288(2) 0.32508(8)
N3 N 0.57229(10) 1.16300(19) 0.28752(7)
C12 C 0.52406(11) 1.0316(2) 0.27792(8)
H15 H 0.49140 1.02720 0.30530
H16 H 0.55620 0.94460 0.28220
O10 O 0.53997(9) 1.05601(18) 0.42374(7)
O11 O 0.48392(8) 0.65678(17) 0.32151(6)
O12 O 0.50568(9) 0.75167(17) 0.42676(6)
O13 O 0.58134(10) 0.29385(18) 0.49680(7)
H17 H 0.5436(14) 1.242(3) 0.2932(10)
H18 H 0.5957(14) 1.180(3) 0.2619(11)
H19 H 0.6085(15) 1.151(3) 0.3183(12)
H20 H 0.5919(13) 0.679(3) 0.2458(4)
H21 H 0.5743(10) 0.679(3) 0.2950(8)
H22 H 0.5316(14) 0.9691(13) 0.4271(12)
H23 H 0.5792(10) 1.062(3) 0.4118(12)
H24 H 0.4821(15) 0.5681(10) 0.3216(9)
H25 H 0.4838(16) 0.687(2) 0.3521(6)
H26 H 0.5431(15) 0.692(3) 0.4335(13)
H27 H 0.4791(14) 0.729(3) 0.4488(13)
H28 H 0.5900(16) 0.3679(16) 0.4814(9)
H29 H 0.5658(15) 0.2318(19) 0.4747(8)
Gd1C Gd 0.762381(5) 0.196018(9) 0.182313(3)
O4C O 0.72502(8) 0.73979(15) 0.22379(5)
N3A N 0.42771(10) 1.16300(19) 0.21248(7)
C12A C 0.47594(11) 1.0316(2) 0.22208(8)
H15A H 0.50860 1.02720 0.19470
H16A H 0.44380 0.94460 0.21780
H17A H 0.4564(14) 1.242(3) 0.2068(10)
H18A H 0.4043(14) 1.180(3) 0.2381(11)
H19A H 0.3915(15) 1.151(3) 0.1817(12)
#END
