
#######################################################################
#
#                 Cambridge Crystallographic Data Centre
#                                CCDC
#
#######################################################################
#
# If this CIF has been generated from an entry in the Cambridge
# Structural Database, then it will include bibliographic, chemical,
# crystal, experimental, refinement or atomic coordinate data resulting
# from the CCDC's data processing and validation procedures.
#
#######################################################################

data_CSD_CIF_TAFPOG
_audit_creation_date 2003-10-23
_audit_creation_method CSD-ConQuest-V1
_database_code_CSD TAFPOG
_database_code_depnum_ccdc_archive 'CCDC 214006'
_chemical_formula_sum 'C8 H29.66 Al4 N4 O28.83 P6'
_chemical_formula_moiety
;
(C3 H12 N2 2+)2n,n(C2 H4 Al4 O28 P6 4-),0.83n(H2 O1)
;
_journal_coden_Cambridge 1096
_journal_volume 15
_journal_year 2003
_journal_page_first 1734
_journal_name_full 'Chem.Mater. '
loop_
_publ_author_name
"N.Rajic"
"N.Z.Logar"
"G.Mali"
"V.Kaucic"
_chemical_name_systematic
;
catena-(bis(Propane-1,2-diammonium) bis(\m~3~-hydrogen 
phosphato)-bis(\m~3~-phosphato)-bis(\m~2~-hydrogen 
phosphato)-(\m~2~-oxalato)-tetra-aluminium hydrate)
;
_cell_volume    787.908
_exptl_crystal_colour 'colorless'
_exptl_crystal_density_diffrn 1.977
_exptl_crystal_description 'prismatic'
_diffrn_ambient_temperature 293
#These two values have been output from a single CSD field.
_refine_ls_R_factor_gt 0.039
_refine_ls_wR_factor_gt 0.039
_symmetry_cell_setting triclinic
_symmetry_space_group_name_H-M 'P -1'
_symmetry_Int_Tables_number 2
loop_
_symmetry_equiv_pos_site_id
_symmetry_equiv_pos_as_xyz
1 x,y,z
2 -x,-y,-z
_cell_length_a 8.611(1)
_cell_length_b 9.096(1)
_cell_length_c 11.371(1)
_cell_angle_alpha 104.811(1)
_cell_angle_beta 111.368(1)
_cell_angle_gamma 94.248(1)
_cell_formula_units_Z 1
loop_
_atom_type_symbol
_atom_type_radius_bond
C 0.68
H 0.23
Al 1.35
N 0.68
O 0.68
P 1.05
loop_
_atom_site_label
_atom_site_type_symbol
_atom_site_fract_x
_atom_site_fract_y
_atom_site_fract_z
P1 P 0.17090(9) 0.48318(8) 0.18037(7)
P2 P 0.22918(9) 0.46388(8) 0.66575(7)
P3 P -0.1407(1) -0.00776(9) 0.20976(9)
Al1 Al 0.04841(11) 0.32627(10) 0.35600(8)
Al2 Al 0.17332(10) 0.36380(9) -0.10345(8)
O1 O 0.1904(2) 0.3684(2) 0.0657(2)
O2 O 0.0261(3) 0.5667(2) 0.1378(2)
O3 O 0.3325(3) 0.6120(3) 0.2576(2)
O4 O 0.1553(3) 0.3956(3) 0.2742(2)
O5 O 0.4180(2) 0.5225(2) 0.7338(2)
O6 O 0.1795(3) 0.3693(3) 0.5206(2)
O7 O 0.1679(3) 0.3572(2) 0.7302(2)
O8 O 0.1395(3) 0.6044(2) 0.6688(2)
O9 O -0.0766(2) -0.1540(2) 0.1656(2)
O10 O 0.0129(3) 0.1244(2) 0.2921(2)
O11 O -0.2250(5) -0.0335(4) 0.3061(4)
O12 O -0.2672(3) 0.0331(3) 0.0990(3)
O13 O 0.4088(2) 0.3068(2) -0.0573(2)
O14 O 0.6838(2) 0.4241(2) 0.0260(2)
C1 C 0.5263(3) 0.4219(3) -0.0092(3)
C2 C 0.3538(6) -0.0636(5) 0.2188(5)
C3 C 0.3799(5) 0.1105(4) 0.2481(4)
C4 C 0.4862(9) 0.1900(6) 0.3930(5)
N1 N 0.2141(5) -0.1483(4) 0.0895(5)
N2 N 0.4639(4) 0.1607(4) 0.1671(3)
O15 O 0.1288(14) -0.1083(15) 0.4583(9)
H1 H 0.403(8) 0.581(7) 0.265(6)
H2 H -0.177(14) 0.038(11) 0.371(9)
H3 H 0.227(6) -0.103(6) 0.024(5)
H4 H 0.225(7) -0.239(7) 0.063(5)
H5 H 0.125(9) -0.150(8) 0.102(7)
H6 H 0.557(5) 0.125(4) 0.175(4)
H7 H 0.393(7) 0.125(6) 0.077(6)
H8 H 0.494(5) 0.263(5) 0.197(4)
H9 H 0.322(6) -0.089(6) 0.289(5)
H10 H 0.453(6) -0.099(6) 0.217(5)
H11 H 0.270(6) 0.142(5) 0.221(5)
H12 H 0.507(6) 0.304(6) 0.421(5)
H13 H 0.421(7) 0.172(7) 0.442(6)
H14 H 0.606(8) 0.166(7) 0.423(6)
C1A C 0.4737(3) 0.5781(3) 0.0092(3)
O13A O 0.5912(2) 0.6932(2) 0.0573(2)
O14A O 0.3162(2) 0.5759(2) -0.0260(2)
P2A P -0.22918(9) 0.53612(8) 0.33425(7)
O5A O -0.4180(2) 0.4775(2) 0.2662(2)
O6A O -0.1795(3) 0.6307(3) 0.4794(2)
O7A O -0.1679(3) 0.6428(2) 0.2698(2)
O8A O -0.1395(3) 0.3956(2) 0.3312(2)
Al1A Al -0.04841(11) 0.67373(10) 0.64400(8)
Al2A Al -0.17332(10) 0.63620(9) 0.10345(8)
P1A P -0.17090(9) 0.51682(8) -0.18037(7)
O1A O -0.1904(2) 0.6316(2) -0.0657(2)
O2A O -0.0261(3) 0.4333(2) -0.1378(2)
O3A O -0.3325(3) 0.3880(3) -0.2576(2)
O4A O -0.1553(3) 0.6044(3) -0.2742(2)
H1A H -0.403(8) 0.419(7) -0.265(6)
P3A P 0.1407(1) 0.00776(9) -0.20976(9)
O9A O 0.0766(2) 0.1540(2) -0.1656(2)
O10A O -0.0129(3) -0.1244(2) -0.2921(2)
O11A O 0.2250(5) 0.0335(4) -0.3061(4)
O12A O 0.2672(3) -0.0331(3) -0.0990(3)
H2A H 0.177(14) -0.038(11) -0.371(9)
O7* O 0.1679(3) 0.3572(2) -0.2698(2)
Al2* Al 0.17332(10) 0.36380(9) 0.89655(8)
Al2A* Al -0.17332(10) -0.36380(9) 0.10345(8)
Al2A** Al 0.82668(10) 0.63620(9) 0.10345(8)
O4A* O -0.1553(3) 0.6044(3) 0.7258(2)
O10A* O -0.0129(3) 0.8756(2) 0.7079(2)
O9* O -0.0766(2) 0.8460(2) 0.1656(2)
O13A* O -0.4088(2) 0.6932(2) 0.0573(2)
O14* O -0.3162(2) 0.4241(2) 0.0260(2)
Al1A* Al -0.04841(11) 0.67373(10) -0.35600(8)
Al1A** Al -0.04841(11) -0.32627(10) -0.35600(8)
#END
