
#######################################################################
#
#                 Cambridge Crystallographic Data Centre
#                                CCDC
#
#######################################################################
#
# If this CIF has been generated from an entry in the Cambridge
# Structural Database, then it will include bibliographic, chemical,
# crystal, experimental, refinement or atomic coordinate data resulting
# from the CCDC's data processing and validation procedures.
#
#######################################################################

data_CSD_CIF_TAFSIE
_audit_creation_date 2011-07-18
_audit_creation_method CSD-ConQuest-V1
_database_code_CSD TAFSIE
_database_code_depnum_ccdc_archive 'CCDC 756090'
_chemical_formula_sum 'C43 H62 Al1 Cu4 N10 O42 W12'
_chemical_formula_moiety
;
(C39 H42 Al1 Cu3 N6 O40 W12 2-)n,n(C4 H18 Cu1 N4 O1 2+),n(H2 O1)
;
_journal_coden_Cambridge 155
_journal_volume 363
_journal_year 2010
_journal_page_first 3897
_journal_name_full 'Inorg.Chim.Acta '
loop_
_publ_author_name
"Ying Chen"
"Baibin Zhou"
"Jingxiang Zhao"
"Yangguang Li"
"Zhanhua Su"
"Zhifeng Zhao"
_chemical_name_systematic
;
catena-(tetrakis(\m~4~-oxo)-(\m~3~-oxo)-tris(\m~2~-1,3-bis(4-pyridyl)propane)-
tetracosakis(\m~2~-oxo)-undecaoxo-tri-copper-aluminium-dodeca-tungsten 
bis(ethylenediamine)-aqua-copper monohydrate)
;
_cell_volume   3773.606
_exptl_crystal_colour 'red'
_exptl_crystal_density_diffrn 3.409
_exptl_crystal_description 'block'
_diffrn_ambient_temperature 273
#These two values have been output from a single CSD field.
_refine_ls_R_factor_gt 0.055
_refine_ls_wR_factor_gt 0.055
_symmetry_cell_setting triclinic
_symmetry_space_group_name_H-M 'P -1'
_symmetry_Int_Tables_number 2
loop_
_symmetry_equiv_pos_site_id
_symmetry_equiv_pos_as_xyz
1 x,y,z
2 -x,-y,-z
_cell_length_a 13.1941(8)
_cell_length_b 13.7376(9)
_cell_length_c 22.6554(15)
_cell_angle_alpha 102.040(1)
_cell_angle_beta 92.487(1)
_cell_angle_gamma 108.840(1)
_cell_formula_units_Z 2
loop_
_atom_type_symbol
_atom_type_radius_bond
C 0.68
H 0.23
Al 1.21
Cu 1.38
N 0.68
O 0.68
W 1.32
loop_
_atom_site_label
_atom_site_type_symbol
_atom_site_fract_x
_atom_site_fract_y
_atom_site_fract_z
O1 O 0.6821(11) -0.7951(8) 0.7297(5)
Cu1 Cu 0.8230(2) -0.1925(3) 1.00112(13)
Cu2 Cu 0.8692(2) 0.1399(2) 0.69428(11)
Cu3 Cu 0.28202(18) 0.61198(17) 0.58500(9)
O2 O 0.8773(10) -0.6405(9) 0.5734(5)
O3 O 0.3452(9) -0.4566(10) 0.7441(5)
O4 O 0.5677(9) -0.2895(9) 0.5699(5)
O5 O 0.4438(9) -0.5724(8) 0.6679(4)
O6 O 0.8242(9) -0.6164(8) 0.8099(5)
Al1 Al 0.7526(3) -0.3980(3) 0.73931(17)
W1 W 1.02666(5) -0.36046(5) 0.73606(3)
W2 W 0.47511(5) -0.44239(5) 0.73088(3)
W3 W 0.60825(5) -0.34325(5) 0.62430(3)
W4 W 0.80005(6) -0.12980(5) 0.74539(3)
W5 W 0.93119(5) -0.18944(5) 0.85258(3)
Cu4 Cu 0.7135(4) 0.1056(3) 0.17502(14)
W6 W 0.70631(6) -0.66062(5) 0.74713(3)
W7 W 0.85377(5) -0.54630(5) 0.62807(3)
W8 W 0.61656(6) -0.51300(6) 0.85181(3)
W9 W 0.87691(5) -0.47113(5) 0.85498(3)
W10 W 0.56064(5) -0.59409(5) 0.62612(3)
W11 W 0.90329(5) -0.29292(5) 0.62880(3)
O7 O 0.6024(9) -0.6475(8) 0.6896(4)
O8 O 0.6316(8) -0.4332(8) 0.6935(4)
O9 O 0.8565(7) -0.4005(7) 0.6940(4)
O10 O 0.7495(7) -0.3353(8) 0.6060(4)
O11 O 0.6585(6) -0.3709(6) 0.8744(3)
O12 O 0.5172(8) -0.5124(10) 0.7864(5)
O13 O 0.7812(7) -0.2714(6) 0.7850(4)
O14 O 0.9657(10) -0.4818(9) 0.9092(5)
O15 O 0.7413(7) -0.4838(8) 0.7860(4)
O16 O 0.5524(8) -0.4897(8) 0.5819(5)
O17 O 0.9200(8) -0.0844(7) 0.8089(4)
O18 O 0.6813(8) -0.2166(8) 0.6895(5)
O19 O 0.8944(8) -0.4324(8) 0.5844(4)
O20 O 0.7068(8) -0.1202(8) 0.8066(5)
O21 O 0.8075(9) -0.6175(8) 0.6894(4)
W12 W 0.66978(5) -0.23100(5) 0.85105(3)
O22 O 0.7523(9) -0.4935(8) 0.8973(4)
O23 O 0.8145(7) -0.1718(8) 0.8964(4)
O24 O 0.9687(8) -0.4406(8) 0.7924(4)
O25 O 0.9534(9) -0.2270(9) 0.5748(5)
O26 O 0.4943(10) -0.7059(9) 0.5714(5)
O27 O 0.6086(9) -0.6510(8) 0.8077(4)
O28 O 0.9017(8) -0.3220(8) 0.8747(4)
O29 O 0.4803(8) -0.3670(8) 0.6669(4)
O30 O 0.9987(8) -0.4860(8) 0.6717(4)
O31 O 1.0368(9) -0.1086(9) 0.9062(5)
O32 O 1.0052(8) -0.2446(8) 0.7909(4)
O33 O 1.1603(9) -0.3341(9) 0.7507(5)
O34 O 0.8843(8) -0.1847(8) 0.6907(4)
O35 O 0.8158(10) -0.0093(8) 0.7293(5)
O36 O 0.5518(9) -0.3135(8) 0.7826(5)
O37 O 0.7065(8) -0.5691(8) 0.6053(4)
O38 O 0.6029(9) -0.1747(9) 0.9012(5)
O39 O 1.0350(8) -0.2814(8) 0.6724(4)
O40 O 0.5342(11) -0.5452(11) 0.9061(5)
N1 N 0.2032(11) 0.5026(11) 0.6275(6)
H1 H 0.24710 0.50010 0.65830
H2 H 0.14660 0.51750 0.64280
O41 O 0.1019(10) 0.5964(12) 0.5438(5)
H3 H 0.10700 0.63530 0.52030
N2 N 0.3506(12) 0.7198(12) 0.5375(6)
H4 H 0.40940 0.70830 0.52330
H5 H 0.30380 0.71240 0.50540
N3 N 0.2999(13) 0.4894(11) 0.5250(6)
H6 H 0.26460 0.48150 0.48850
H7 H 0.37020 0.50250 0.52080
N4 N 0.9630(11) -0.1952(12) 1.0215(6)
N5 N 0.9772(12) 0.2278(11) 0.7600(6)
C1 C 1.1519(14) -0.1762(14) 1.0917(8)
C2 C 1.1340(14) -0.0919(13) 1.0783(7)
H8 H 1.18690 -0.02550 1.09120
N6 N 0.2882(14) 0.7379(12) 0.6511(7)
H9 H 0.22560 0.72550 0.66740
H10 H 0.34190 0.75110 0.68070
C3 C 1.1749(14) 0.3467(14) 0.8306(7)
C4 C 1.1186(14) 0.2419(14) 0.8314(7)
H11 H 1.14560 0.20780 0.85630
C5 C 0.8315(17) 0.0294(13) 0.2497(8)
H12 H 0.88900 0.08870 0.24740
C6 C 0.9835(16) -0.2820(15) 1.0296(7)
H13 H 0.93480 -0.34880 1.01120
N7 N 1.6907(14) -0.1782(19) 1.0213(7)
N8 N 0.8201(15) 0.0753(14) 0.6115(7)
C7 C 1.0261(15) 0.1923(15) 0.7963(8)
H14 H 0.99180 0.12240 0.79790
C8 C 1.0293(17) 0.3330(14) 0.7609(9)
H15 H 0.99790 0.36610 0.73740
N9 N 0.735(2) 0.0112(16) 0.2175(7)
C9 C 1.0371(15) -0.1020(16) 1.0454(8)
H16 H 1.02470 -0.04130 1.04020
N10 N 1.2906(17) 0.7970(16) 0.8710(8)
C10 C 0.8485(15) -0.0316(13) 0.2841(7)
H17 H 0.91580 -0.01330 0.30610
C11 C 1.1262(14) 0.3894(14) 0.7956(8)
H18 H 1.15920 0.46000 0.79480
C12 C 1.6817(16) -0.080(2) 1.0335(8)
H19 H 1.74310 -0.02250 1.03350
C13 C 0.1649(16) 0.3978(14) 0.5805(8)
H20 H 0.14210 0.33940 0.60030
H21 H 0.10440 0.39390 0.55320
C14 C 0.765(2) -0.1246(14) 0.2876(8)
C15 C 1.2845(15) 0.4075(15) 0.8658(8)
H22 H 1.32070 0.46540 0.84760
H23 H 1.32700 0.36110 0.86270
C16 C 1.280(2) 0.4518(16) 0.9324(9)
H24 H 1.30930 0.42810 0.96230
C17 C 0.2573(17) 0.3922(15) 0.5464(8)
H25 H 0.31300 0.38470 0.57250
H26 H 0.23370 0.33140 0.51200
C18 C 0.8668(17) 0.1206(18) 0.5687(10)
H27 H 0.91990 0.18700 0.58070
C19 C 1.0759(17) -0.2732(15) 1.0649(8)
H28 H 1.08690 -0.33430 1.07070
C20 C 1.5011(16) -0.1375(16) 1.0547(8)
C21 C 1.3577(18) 0.6658(15) 0.8947(10)
H29 H 1.41180 0.63580 0.89210
C22 C 1.5881(17) -0.0596(18) 1.0457(8)
H30 H 1.58490 0.00760 1.04780
C23 C 1.2490(16) -0.1617(18) 1.1356(8)
H31 H 1.27780 -0.08780 1.15720
H32 H 1.22420 -0.20290 1.16530
C24 C 1.3604(15) 0.7474(16) 0.8677(8)
H33 H 1.41710 0.76930 0.84510
C25 C 1.3962(18) -0.123(2) 1.0682(11)
H34 H 1.35020 -0.14000 1.03030
H35 H 1.40960 -0.04940 1.08750
C26 C 0.789(2) -0.1905(17) 0.3312(9)
H36 H 0.72520 -0.25130 0.32970
H37 H 0.84630 -0.21630 0.31740
C27 C 0.7415(18) -0.0263(18) 0.5913(10)
H38 H 0.70680 -0.06070 0.61990
C28 C 1.3377(17) -0.1914(17) 1.109(1)
H39 H 1.30880 -0.26430 1.08570
H40 H 1.38950 -0.18810 1.14170
C29 C 1.6047(17) -0.254(2) 1.0280(11)
H41 H 1.60540 -0.32270 1.01990
C30 C 1.269(2) 0.6303(17) 0.9263(9)
C31 C 0.7648(19) -0.0263(18) 0.4877(8)
C32 C 1.5135(19) -0.2354(19) 1.0465(12)
H42 H 1.45750 -0.29140 1.05390
C33 C 0.734(2) -0.0858(17) 0.4207(9)
H43 H 0.72170 -0.03930 0.39650
H44 H 0.66800 -0.14580 0.41630
C34 C 1.194(2) 0.682(2) 0.9304(12)
H45 H 1.13520 0.66200 0.95160
C35 C 0.6532(18) -0.080(2) 0.2230(12)
H46 H 0.58500 -0.09570 0.20290
C36 C 0.715(2) -0.0760(16) 0.5307(9)
H47 H 0.66330 -0.14330 0.51880
C37 C 0.8402(19) 0.0733(18) 0.5064(10)
H48 H 0.87340 0.10910 0.47800
C38 C 0.824(3) -0.1235(18) 0.3990(9)
H49 H 0.88870 -0.06340 0.40130
H50 H 0.83880 -0.16680 0.42470
C39 C 0.3820(19) 0.8294(17) 0.5759(10)
H51 H 0.45560 0.85190 0.59510
H52 H 0.37770 0.87790 0.55110
O42 O 0.475(2) 0.875(2) 0.7560(11)
C40 C 0.308(2) 0.8297(18) 0.6224(11)
H53 H 0.23960 0.82840 0.60390
H54 H 0.33760 0.89480 0.65370
C41 C 1.234(2) 0.525(2) 0.9476(12)
H55 H 1.17830 0.51240 0.97190
C42 C 0.668(2) -0.150(2) 0.2571(12)
H56 H 0.61220 -0.21170 0.25820
C43 C 1.211(2) 0.763(2) 0.9019(13)
H57 H 1.16060 0.79730 0.90480
O43 O 0.566(3) 0.991(3) 0.7067(18)
Cu1* Cu 1.8230(2) -0.1925(3) 1.00112(13)
Cu4A Cu 1.2865(4) 0.8944(3) 0.82498(14)
N7* N 0.6907(14) -0.1782(19) 1.0213(7)
N10A N 0.7094(17) 0.2030(16) 0.1290(8)
#END
