
#######################################################################
#
#                 Cambridge Crystallographic Data Centre
#                                CCDC
#
#######################################################################
#
# If this CIF has been generated from an entry in the Cambridge
# Structural Database, then it will include bibliographic, chemical,
# crystal, experimental, refinement or atomic coordinate data resulting
# from the CCDC's data processing and validation procedures.
#
#######################################################################

data_CSD_CIF_TAFWUV
_audit_creation_date 2016-02-10
_audit_creation_method CSD-ConQuest-V1
_database_code_CSD TAFWUV
_database_code_depnum_ccdc_archive 'CCDC 1420105'
_chemical_formula_sum 'C35 H48 N1 O31.5 Zn5'
_chemical_formula_moiety
;
(C33 H31 O27 Zn5 1-)n,C2 H8 N1 1+,4.5(H2 O1)
;
_journal_coden_Cambridge 211
_journal_volume 69
_journal_year 2016
_journal_page_first 1812
_journal_name_full 'J.Coord.Chem. '
loop_
_publ_author_name
"Zhong-Xuan Xua"
"Yu Xiao"
"Jian Zhang"
_chemical_name_systematic
;
catena-[dimethylammonium 
tris(\m-(S)-5-(1-carboxylatoethoxy)isophthalato)-bis(\m-hydroxo)-tetra-aqua-pe
nta-zinc hydrate]
;
_cell_volume   4707.919
_exptl_crystal_colour 'colorless'
_exptl_crystal_density_diffrn 1.838
_exptl_crystal_description 'block'
_diffrn_ambient_temperature 291.5
#These two values have been output from a single CSD field.
_refine_ls_R_factor_gt 0.0297
_refine_ls_wR_factor_gt 0.0297
loop_
_citation_database_id_CSD
_citation_special_details
TAFWOP "is a stereoisomer of this entry"
_symmetry_cell_setting monoclinic
_symmetry_space_group_name_H-M 'C 2'
_symmetry_Int_Tables_number 5
loop_
_symmetry_equiv_pos_site_id
_symmetry_equiv_pos_as_xyz
1 x,y,z
2 -x,y,-z
3 1/2+x,1/2+y,z
4 1/2-x,1/2+y,-z
_cell_length_a 31.8327(8)
_cell_length_b 16.8078(4)
_cell_length_c 8.8200(2)
_cell_angle_alpha 90
_cell_angle_beta 93.933(2)
_cell_angle_gamma 90
_cell_formula_units_Z 4
loop_
_atom_type_symbol
_atom_type_radius_bond
C 0.68
H 0.23
N 0.68
O 0.68
Zn 1.22
loop_
_atom_site_label
_atom_site_type_symbol
_atom_site_fract_x
_atom_site_fract_y
_atom_site_fract_z
Zn1 Zn 0.509018(16) 0.48515(3) 1.18142(6)
Zn2 Zn 0.680821(16) 0.16311(3) 0.91793(6)
Zn3 Zn 0.582561(15) 0.55419(3) 0.97738(6)
Zn4 Zn 0.635268(16) -0.00690(3) 0.99740(7)
Zn5 Zn 0.623499(16) 0.14848(3) 1.22550(6)
O1 O 0.62811(9) 0.10950(18) 0.9948(3)
O2 O 0.80921(9) 0.4430(2) 1.0357(4)
O3 O 0.43884(9) -0.3499(2) 1.1193(4)
O4 O 0.54129(9) 0.47055(18) 0.9829(3)
O5 O 0.66945(9) 0.56040(19) 1.3892(3)
O6 O 0.50475(10) -0.3926(2) 1.1761(4)
O7 O 0.62413(11) -0.0580(2) 1.1942(4)
C1 C 0.66777(13) 0.2979(3) 1.1278(5)
C2 C 0.72684(13) 0.5181(3) 1.2615(5)
H1 H 0.74000 0.56570 1.29080
O8 O 0.75557(10) 0.33005(19) 0.5703(4)
O9 O 0.63604(9) 0.5324(2) 0.8968(4)
O10 O 0.67149(11) 0.27617(19) 0.9928(4)
C3 C 0.62798(11) 0.5494(3) 1.4410(4)
H2 H 0.62750 0.50130 1.50360
O11 O 0.57910(9) -0.15362(19) 1.3848(4)
O12 O 0.80795(9) 0.5472(2) 1.1870(4)
O13 O 0.67702(10) 0.2028(2) 0.6943(4)
O14 O 0.77971(9) 0.6294(2) 0.9067(4)
O15 O 0.52414(14) 0.3645(3) 1.2386(6)
O16 O 0.56179(9) 0.5061(2) 1.3332(4)
C4 C 0.69820(13) 0.4015(3) 0.6812(5)
H3 H 0.67860 0.36170 0.65680
C5 C 0.73990(13) 0.3949(3) 0.6395(5)
C6 C 0.66791(12) 0.4287(3) 1.2687(5)
H4 H 0.64220 0.41500 1.30560
C7 C 0.68809(13) 0.3764(3) 1.1739(5)
C8 C 0.59441(12) 0.5432(3) 1.3093(5)
C9 C 0.74733(12) 0.4649(3) 1.1730(5)
O17 O 0.45231(11) 0.0199(2) 1.1780(5)
O18 O 0.40457(10) -0.0733(2) 1.1214(4)
C10 C 0.68689(12) 0.4692(3) 0.7600(5)
C11 C 0.44148(14) -0.0516(3) 1.1664(5)
O19 O 0.82222(9) 0.5852(2) 0.7318(4)
C12 C 0.68663(12) 0.5015(3) 1.3075(4)
C13 C 0.47686(13) -0.3397(3) 1.1639(5)
O20 O 0.64814(10) 0.26173(19) 1.2249(4)
C14 C 0.59228(14) -0.0747(3) 1.4278(5)
H5 H 0.57010 -0.04850 1.48130
C15 C 0.78830(12) 0.5845(3) 0.7993(5)
O21 O 0.74011(11) 0.2209(2) 0.8040(4)
C16 C 0.46078(14) -0.1941(3) 1.1740(5)
H6 H 0.43410 -0.20520 1.12960
O22 O 0.61661(11) 0.1762(2) 1.4606(4)
H7 H 0.63990 0.18120 1.50500
C17 C 0.71551(12) 0.5282(3) 0.7984(5)
H8 H 0.70770 0.57160 0.85550
O23 O 0.59013(9) 0.0455(2) 1.2870(4)
O24 O 0.56389(10) 0.1979(2) 1.1681(5)
H9 H 0.56580 0.23110 1.10090
C18 C 0.64240(12) 0.4762(3) 0.8050(5)
C19 C 0.53947(12) -0.1612(3) 1.3114(5)
C20 C 0.60274(12) -0.0246(3) 1.2914(5)
C21 C 0.52868(14) -0.2399(3) 1.2746(5)
H10 H 0.54780 -0.28090 1.29530
C22 C 0.79071(12) 0.4863(3) 1.1302(5)
C23 C 0.76807(13) 0.4566(3) 0.6707(5)
H11 H 0.79510 0.45350 0.63710
O25 O 0.46407(11) 0.4777(3) 1.3507(4)
H12 H 0.44130 0.46300 1.31120
C24 C 0.48901(13) -0.2558(3) 1.2068(5)
O26 O 0.60244(10) 0.5787(2) 1.1880(3)
O27 O 0.61471(10) 0.4300(2) 0.7500(4)
C25 C 0.75652(12) 0.5228(3) 0.7510(5)
C26 C 0.47212(13) -0.1166(3) 1.2068(5)
C27 C 0.51217(13) -0.0995(3) 1.2756(5)
H13 H 0.52010 -0.04720 1.29680
C28 C 0.71449(15) 0.2276(3) 0.6914(5)
C29 C 0.72837(14) 0.2628(3) 0.5424(5)
H14 H 0.70360 0.27870 0.47730
C30 C 0.72726(13) 0.3942(3) 1.1231(5)
H15 H 0.74000 0.36000 1.05730
C31 C 0.61948(15) 0.6215(3) 1.5367(6)
H16 H 0.64070 0.62540 1.61900
H17 H 0.59230 0.61630 1.57680
H18 H 0.62000 0.66850 1.47510
C32 C 0.75336(19) 0.2017(3) 0.4618(6)
H19 H 0.76190 0.22360 0.36830
H20 H 0.73630 0.15550 0.44060
H21 H 0.77780 0.18710 0.52540
C33 C 0.63178(15) -0.0847(4) 1.5358(6)
H22 H 0.62510 -0.11630 1.62150
H23 H 0.64160 -0.03330 1.57030
H24 H 0.65340 -0.11060 1.48330
H25 H 0.464(2) 0.490(5) 1.444(3)
H26 H 0.5516(18) 0.4248(18) 0.985(7)
H27 H 0.5446(15) 0.172(4) 1.121(6)
H28 H 0.6083(13) 0.119(4) 0.931(5)
H29 H 0.5056(12) 0.345(3) 1.176(5)
O28 O 0.42456(15) 0.3103(3) 1.0585(6)
H30 H 0.4320(16) 0.287(3) 1.143(4)
O29 O 0.50000 0.1115(3) 1.00000
H31 H 0.488(3) 0.072(3) 1.04(1)
O30 O 0.41004(14) 0.3386(3) 1.5200(5)
N1 N 0.18324(16) 0.2800(3) 1.0850(7)
H32 H 0.20380 0.31170 1.10940
C34 C 0.1525(2) 0.2577(5) 1.1873(10)
H33 H 0.15860 0.28330 1.28360
H34 H 0.15300 0.20110 1.20100
H35 H 0.12510 0.27380 1.14630
C35 C 0.1764(3) 0.2438(7) 0.9345(9)
H36 H 0.19780 0.26150 0.87090
H37 H 0.14920 0.25930 0.89000
H38 H 0.17750 0.18700 0.94390
O31 O 0.46416(18) 0.2681(4) 1.3295(7)
O32 O 0.45967(19) 0.1125(4) 1.4245(7)
Zn1* Zn 0.509018(16) -0.51485(3) 1.18142(6)
Zn1A Zn 0.490982(16) 0.48515(3) 0.81858(6)
Zn2C Zn 0.819179(16) 0.66311(3) 1.08207(6)
Zn3A Zn 0.417439(15) -0.44581(3) 1.02262(6)
Zn4A Zn 0.364732(16) -0.00690(3) 1.00260(7)
Zn4C Zn 0.864732(16) 0.49310(3) 1.00260(7)
Zn5C Zn 0.876501(16) 0.64848(3) 0.77450(6)
O2C O 0.69079(9) -0.0570(2) 0.9643(4)
O3A O 0.56116(9) 0.6501(2) 0.8807(4)
O4A O 0.45871(9) 0.47055(18) 1.0171(3)
O6* O 0.50475(10) 0.6074(2) 1.1761(4)
O12C O 0.69205(9) 0.0472(2) 0.8130(4)
O14C O 0.72029(9) 0.1294(2) 1.0933(4)
O18A O 0.59543(10) -0.0733(2) 0.8786(4)
O19C O 0.67778(9) 0.0852(2) 1.2682(4)
H31A H 0.512(3) 0.072(3) 0.96(1)
#END
