
#######################################################################
#
#                 Cambridge Crystallographic Data Centre
#                                CCDC
#
#######################################################################
#
# If this CIF has been generated from an entry in the Cambridge
# Structural Database, then it will include bibliographic, chemical,
# crystal, experimental, refinement or atomic coordinate data resulting
# from the CCDC's data processing and validation procedures.
#
#######################################################################

data_CSD_CIF_TAFWOP
_audit_creation_date 2016-02-10
_audit_creation_method CSD-ConQuest-V1
_database_code_CSD TAFWOP
_database_code_depnum_ccdc_archive 'CCDC 1420104'
_chemical_formula_sum 'C35 H48 N1 O31.5 Zn5'
_chemical_formula_moiety
;
(C33 H31 O27 Zn5 1-)n,C2 H8 N1 1+,4.5(H2 O1)
;
_journal_coden_Cambridge 211
_journal_volume 69
_journal_year 2016
_journal_page_first 1812
_journal_name_full 'J.Coord.Chem. '
loop_
_publ_author_name
"Zhong-Xuan Xua"
"Yu Xiao"
"Jian Zhang"
_chemical_name_systematic
;
catena-[dimethylammonium 
tris(\m-(R)-5-(1-carboxylatoethoxy)isophthalato)-bis(\m-hydroxo)-tetra-aqua-pe
nta-zinc hydrate]
;
_cell_volume   4711.445
_exptl_crystal_colour 'colorless'
_exptl_crystal_density_diffrn 1.831
_exptl_crystal_description 'block'
_diffrn_ambient_temperature 293
#These two values have been output from a single CSD field.
_refine_ls_R_factor_gt 0.0298
_refine_ls_wR_factor_gt 0.0298
loop_
_citation_database_id_CSD
_citation_special_details
TAFWUV "is a stereoisomer of this entry"
_symmetry_cell_setting monoclinic
_symmetry_space_group_name_H-M 'C 2'
_symmetry_Int_Tables_number 5
loop_
_symmetry_equiv_pos_site_id
_symmetry_equiv_pos_as_xyz
1 x,y,z
2 -x,y,-z
3 1/2+x,1/2+y,z
4 1/2-x,1/2+y,-z
_cell_length_a 31.8387(8)
_cell_length_b 16.8072(4)
_cell_length_c 8.8262(3)
_cell_angle_alpha 90
_cell_angle_beta 94.021(2)
_cell_angle_gamma 90
_cell_formula_units_Z 4
loop_
_atom_type_symbol
_atom_type_radius_bond
C 0.68
H 0.23
N 0.68
O 0.68
Zn 1.22
loop_
_atom_site_label
_atom_site_type_symbol
_atom_site_fract_x
_atom_site_fract_y
_atom_site_fract_z
Zn1 Zn 0.635242(14) 0.41086(3) 0.99806(5)
Zn2 Zn 0.680788(14) 0.24087(3) 0.91917(5)
Zn3 Zn 0.990789(13) 0.41893(3) 0.81893(5)
Zn4 Zn 0.917411(13) 0.34977(3) 1.02318(5)
Zn5 Zn 0.623678(13) 0.25554(3) 1.22646(5)
O1 O 0.62787(8) 0.29443(17) 0.9946(3)
O2 O 0.69091(9) 0.46103(19) 0.9644(3)
O3 O 0.87598(10) -0.0383(2) 0.8058(3)
O4 O 1.06105(9) 0.2533(2) 0.8805(4)
O5 O 0.83021(8) 0.34294(18) 0.6123(3)
O6 O 0.99551(9) 0.29620(19) 0.8243(4)
O7 O 0.95875(8) 0.43348(17) 1.0170(3)
O8 O 0.63606(9) -0.12847(19) 0.8961(3)
O9 O 0.97629(12) 0.5390(2) 0.7623(4)
C1 C 0.75233(12) 0.4395(2) 0.8296(4)
O10 O 0.69212(9) 0.3566(2) 0.8150(3)
C2 C 0.77284(12) 0.3853(3) 0.7395(4)
H1 H 0.75980 0.33780 0.71000
C3 C 0.83202(12) 0.6063(2) 0.8709(4)
O11 O 0.75562(9) 0.07411(18) 0.5721(3)
C4 C 0.87142(11) 0.3539(3) 0.5612(4)
H2 H 0.87190 0.40210 0.49890
O12 O 0.67718(9) 0.20137(19) 0.6953(3)
C5 C 0.81159(12) 0.5283(2) 0.8253(4)
O13 O 1.0477(1) -0.11505(19) 0.8238(4)
O14 O 0.93788(9) 0.3975(2) 0.6683(3)
O15 O 0.92095(8) 0.05729(18) 0.6169(3)
C6 C 0.71545(12) -0.1239(2) 0.7957(4)
H3 H 0.70760 -0.16800 0.85070
C7 C 0.90498(12) 0.3598(3) 0.6925(4)
C8 C 0.64237(12) -0.0723(3) 0.8028(4)
C9 C 0.81284(12) 0.4028(2) 0.6941(4)
O16 O 0.89741(9) 0.32508(19) 0.8131(3)
C10 C 0.97162(13) 0.1433(3) 0.7269(5)
H4 H 0.95250 0.18440 0.70640
O17 O 1.09528(9) -0.02273(19) 0.8792(3)
O18 O 0.82199(9) -0.18134(18) 0.7315(3)
C11 C 0.69825(12) 0.0020(3) 0.6816(4)
H5 H 0.67880 0.04200 0.65690
C12 C 0.96037(12) 0.0654(3) 0.6891(4)
C13 C 0.73993(12) 0.0088(2) 0.6402(4)
C14 C 1.02324(12) 0.2434(3) 0.8370(4)
O19 O 0.74006(10) 0.1830(2) 0.8050(3)
C15 C 0.76808(12) -0.0523(3) 0.6714(4)
H6 H 0.79520 -0.04890 0.63880
O20 O 0.90965(9) -0.1416(2) 0.7119(4)
C16 C 0.90747(13) -0.0213(3) 0.5728(4)
H7 H 0.92960 -0.04730 0.51890
C17 C 1.05901(13) -0.0445(3) 0.8352(4)
C18 C 0.83177(12) 0.4747(2) 0.7334(4)
H8 H 0.85790 0.48740 0.69880
C19 C 0.70926(11) 0.4179(3) 0.8728(4)
O21 O 0.56413(10) 0.2058(2) 1.1679(4)
O22 O 0.77984(9) -0.22562(18) 0.9052(3)
O23 O 0.85120(9) 0.64203(18) 0.7745(3)
C20 C 1.01056(13) 0.1598(2) 0.7940(5)
O24 O 1.03552(10) 0.4267(2) 0.6512(4)
C21 C 0.68649(11) -0.0648(2) 0.7593(4)
O25 O 0.82845(10) 0.62779(18) 1.0066(3)
C22 C 0.89747(12) -0.0716(3) 0.7085(5)
O26 O 0.61756(10) 0.2278(2) 1.4617(4)
C23 C 0.75638(11) -0.1181(2) 0.7504(4)
C24 C 1.03911(13) 0.0986(3) 0.8272(5)
H9 H 1.06580 0.11010 0.87090
C25 C 0.71412(14) 0.1765(3) 0.6924(5)
C26 C 1.02790(13) 0.0207(3) 0.7954(4)
O27 O 0.61449(9) -0.0273(2) 0.7463(4)
C27 C 0.98817(12) 0.0030(3) 0.7264(4)
H10 H 0.98040 -0.04940 0.70560
C28 C 0.77235(12) 0.5093(2) 0.8781(4)
H11 H 0.75980 0.54310 0.94520
C29 C 0.72810(14) 0.1411(3) 0.5449(4)
H12 H 0.70340 0.12500 0.47990
C30 C 0.78818(12) -0.1802(2) 0.7995(4)
C31 C 0.87994(15) 0.2823(3) 0.4655(5)
H13 H 0.85880 0.27870 0.38260
H14 H 0.87920 0.23510 0.52660
H15 H 0.90720 0.28740 0.42630
C32 C 0.86832(14) -0.0107(3) 0.4648(5)
H16 H 0.87520 0.02090 0.37940
H17 H 0.84680 0.01550 0.51700
H18 H 0.85830 -0.06190 0.43000
C33 C 0.75317(17) 0.2027(3) 0.4628(5)
H19 H 0.76180 0.18050 0.36980
H20 H 0.77760 0.21790 0.52630
H21 H 0.73590 0.24870 0.44060
H22 H 0.5436(12) 0.231(3) 1.121(5)
H23 H 0.9460(13) 0.4765(17) 1.018(5)
H24 H 1.0396(16) 0.413(3) 0.566(3)
H25 H 0.5699(15) 0.167(2) 1.117(5)
O28 O 1.00000 0.7927(3) 1.00000
O29 O 0.92411(13) 0.5933(3) 1.0572(5)
H26 H 0.9304(17) 0.620(3) 1.140(4)
O30 O 0.91001(12) 0.5650(2) 0.5196(4)
N1 N 0.68351(15) 0.6245(3) 1.0831(5)
H27 H 0.70450 0.59380 1.10690
C34 C 0.6529(2) 0.6447(5) 1.1855(8)
H28 H 0.65920 0.61800 1.28050
H29 H 0.62560 0.62860 1.14370
H30 H 0.65320 0.70120 1.20170
C35 C 0.6760(2) 0.6605(5) 0.9342(8)
H31 H 0.69770 0.64420 0.87040
H32 H 0.67640 0.71740 0.94400
H33 H 0.64910 0.64390 0.88970
O31 O 0.46379(15) 1.1361(3) 1.3329(5)
O32 O 0.96012(16) 0.7919(3) 1.4252(6)
Zn1B Zn 1.135242(14) -0.08914(3) 0.99806(5)
Zn1C Zn 0.864758(14) -0.08914(3) 1.00194(5)
Zn2C Zn 0.819212(14) -0.25913(3) 1.08083(5)
Zn2C* Zn 0.819212(14) 0.74087(3) 1.08083(5)
Zn3A Zn 1.009211(13) 0.41893(3) 1.18107(5)
Zn4A Zn 1.082589(13) 0.34977(3) 0.97682(5)
Zn4C Zn 0.582589(13) -0.15023(3) 0.97682(5)
Zn5C Zn 0.876322(13) -0.24446(3) 0.77354(5)
Zn5C* Zn 0.876322(13) 0.75554(3) 0.77354(5)
O3C O 0.62402(10) 0.4617(2) 1.1942(3)
O4A O 0.93895(9) 0.2533(2) 1.1195(4)
O7A O 1.04125(8) 0.43348(17) 0.9830(3)
O8C O 0.86394(9) 0.37153(19) 1.1039(3)
O17B O 0.59528(9) 0.47727(19) 0.8792(3)
O18C O 0.67801(9) 0.31866(18) 1.2685(3)
O20C O 0.59035(9) 0.3584(2) 1.2881(4)
O22C O 0.72016(9) 0.27438(18) 1.0948(3)
O23C O 0.64880(9) 0.14203(18) 1.2255(3)
O25C O 0.67155(10) 0.12779(18) 0.9934(3)
#END
