
#######################################################################
#
#                 Cambridge Crystallographic Data Centre
#                                CCDC
#
#######################################################################
#
# If this CIF has been generated from an entry in the Cambridge
# Structural Database, then it will include bibliographic, chemical,
# crystal, experimental, refinement or atomic coordinate data resulting
# from the CCDC's data processing and validation procedures.
#
#######################################################################

data_CSD_CIF_TAFYEG
_audit_creation_date 2011-08-04
_audit_creation_method CSD-ConQuest-V1
_database_code_CSD TAFYEG
_database_code_depnum_ccdc_archive 'CCDC 757959'
_chemical_formula_sum 'C36 H64 Co2 Mo16 N12 O66'
_chemical_formula_moiety
;
(C36 H40 Co1 Mo8 N12 O28 2-)n,n(Mo8 O26),n(H12 Co1 O6 2+),6n(H2 O1)
;
_journal_coden_Cambridge 1350
_journal_volume 12
_journal_year 2010
_journal_page_first 3684
_journal_name_full 'CrystEngComm '
loop_
_publ_author_name
"Hong-Ying Zang"
"K.Tan"
"Wei Guan"
"Shun-Li Li"
"Guang-Sheng Yang"
"Kui-Zhan Shao"
"Li-Kai Yan"
"Zhong-Min Su"
_chemical_name_systematic
;
catena-(hexaaqua-cobalt 
bis(\m~5~-oxo)-tetrakis(\m~3~-oxo)-hexakis(\m~2~-oxo)-tetradecaoxo-octa-molybd
enum 
bis(\m~4~-oxo)-tetrakis(\m~3~-oxo)-bis(\m~2~-1,1'-bis(pyridin-3-ylmethyl)-1H,1
'H-2,2'-biimidazole)-octakis(\m~2~-oxo)-diaqua-dodecaoxo-octa-molybdenum-cobal
t hexahydrate)
;
_cell_volume   2116.151
_exptl_crystal_colour 'pink'
_exptl_crystal_density_diffrn 2.625
_exptl_crystal_description 'block'
_diffrn_ambient_temperature 293
#These two values have been output from a single CSD field.
_refine_ls_R_factor_gt 0.039
_refine_ls_wR_factor_gt 0.039
_symmetry_cell_setting triclinic
_symmetry_space_group_name_H-M 'P -1'
_symmetry_Int_Tables_number 2
loop_
_symmetry_equiv_pos_site_id
_symmetry_equiv_pos_as_xyz
1 x,y,z
2 -x,-y,-z
_cell_length_a 10.467(6)
_cell_length_b 13.725(8)
_cell_length_c 15.932(1)
_cell_angle_alpha 85.217(1)
_cell_angle_beta 76.214(1)
_cell_angle_gamma 72.187(1)
_cell_formula_units_Z 1
loop_
_atom_type_symbol
_atom_type_radius_bond
C 0.68
H 0.23
Co 1.26
Mo 1.36
N 0.68
O 0.70
loop_
_atom_site_label
_atom_site_type_symbol
_atom_site_fract_x
_atom_site_fract_y
_atom_site_fract_z
C1 C 0.8825(7) 0.8173(5) 0.6657(5)
H1 H 0.80420 0.83960 0.70970
C2 C 1.0076(7) 0.8243(5) 0.6656(5)
H2 H 1.03140 0.85220 0.70880
C3 C 1.0183(6) 0.7509(4) 0.5450(4)
C4 C 1.0823(6) 0.7014(4) 0.4605(4)
C5 C 1.2190(7) 0.6726(5) 0.3311(5)
H3 H 1.27280 0.68090 0.27700
C6 C 1.1967(7) 0.5849(5) 0.3663(4)
H4 H 1.23410 0.52140 0.33970
C7 C 1.2439(6) 0.7643(5) 0.5710(5)
H5 H 1.26350 0.82780 0.57680
H6 H 1.28430 0.74110 0.51200
C8 C 1.3072(6) 0.6846(5) 0.6328(5)
C9 C 1.3269(9) 0.5838(7) 0.6250(7)
H7 H 1.30330 0.56090 0.57920
C10 C 1.3462(7) 0.7154(6) 0.6996(5)
H8 H 1.33370 0.78460 0.70680
C11 C 1.3822(11) 0.5135(7) 0.6847(7)
H9 H 1.39100 0.44430 0.68110
C12 C 1.4218(8) 0.5469(7) 0.7466(6)
H10 H 1.46380 0.50040 0.78500
C13 C 1.1280(7) 0.8562(5) 0.3728(4)
H11 H 1.21620 0.86980 0.36140
H12 H 1.06860 0.89550 0.42270
C14 C 1.0644(6) 0.8881(4) 0.2955(4)
C15 C 0.9491(7) 0.8619(5) 0.2914(5)
H13 H 0.91240 0.82320 0.33590
C16 C 1.1192(7) 0.9406(6) 0.2256(5)
H14 H 1.19870 0.95770 0.22510
C17 C 1.0574(9) 0.9680(6) 0.1564(6)
H15 H 1.09510 1.00380 0.10990
C18 C 0.9388(8) 0.9426(6) 0.1558(5)
H16 H 0.89610 0.96050 0.10940
O1 O 1.0590(5) 0.5052(4) 0.6155(3)
O2 O 0.0433(4) 0.3945(3) 0.0044(3)
O3 O 0.4968(8) 0.6714(9) 0.8944(6)
O4 O -0.2203(4) 0.3989(4) 0.0729(3)
O5 O 0.4757(8) 0.7599(6) 0.1843(5)
O6 O -0.1571(4) 0.5047(3) -0.0782(3)
O7 O 0.3375(11) 0.7479(10) 0.0565(8)
O8 O 0.0984(6) 0.3989(4) 0.2389(3)
O9 O 0.3764(18) 0.5581(16) 0.1226(18)
O10 O -0.0222(5) 0.2966(4) 0.1520(3)
O11 O 0.3775(8) 0.9197(6) 0.9659(6)
O12 O 0.2556(5) 0.2818(4) 0.1026(3)
O13 O 0.5988(7) 0.8824(6) 1.0720(5)
O14 O -0.0975(4) 0.5145(3) 0.1433(3)
O15 O 0.6521(7) 0.9395(5) 0.8896(4)
O16 O -0.3288(5) 0.6053(4) 0.0736(3)
O17 O -0.0817(5) 0.2873(3) -0.0636(3)
O18 O 0.1869(5) 0.2712(4) -0.1519(3)
O19 O -0.0233(5) 0.3732(4) -0.2263(3)
O20 O 0.4190(5) 0.9254(4) 0.7662(3)
O21 O 0.6174(4) 1.0186(4) 0.7246(3)
O22 O 0.6364(4) 0.8719(3) 0.3034(3)
O23 O 0.4562(4) 0.7555(4) 0.3725(3)
O24 O 0.7286(4) 0.6722(3) 0.3563(3)
O25 O 0.4798(4) 0.9331(3) 0.4463(3)
O26 O 0.6710(4) 1.0280(3) 0.3842(3)
O27 O 0.7415(4) 0.8293(3) 0.4540(3)
O28 O 0.5606(4) 0.7370(3) 0.5180(3)
O29 O 0.6147(4) 0.8903(3) 0.6025(3)
O30 O 0.6497(5) 0.7034(3) 0.6744(3)
O31 O 0.8260(4) 0.6224(3) 0.5282(3)
O32 O 0.1068(5) 0.1587(4) 0.0196(4)
O33 O -0.1608(6) 0.1783(4) 0.0896(4)
O34 O 0.8159(4) 0.9919(3) 0.5086(3)
Co1 Co 1.00000 0.50000 0.50000
Co2 Co 0.50000 1.00000 1.00000
Mo1 Mo 0.59660(5) 0.77658(4) 0.39528(4)
Mo2 Mo 0.67790(5) 0.96929(4) 0.48534(3)
Mo3 Mo 0.49410(5) 0.99173(4) 0.68438(4)
Mo4 Mo -0.17786(5) 0.51239(4) 0.04581(4)
Mo5 Mo 0.70451(5) 0.73370(4) 0.57022(4)
Mo6 Mo 0.03240(6) 0.36260(4) -0.13350(4)
Mo7 Mo 0.10158(6) 0.37459(4) 0.13565(4)
Mo8 Mo -0.05040(6) 0.24796(5) 0.04979(5)
N1 N 0.8881(5) 0.7722(4) 0.5904(3)
N2 N 1.0941(5) 0.7823(4) 0.5894(4)
N3 N 1.1111(5) 0.6023(4) 0.4467(3)
N4 N 1.1472(5) 0.7465(4) 0.3907(3)
N5 N 1.4023(6) 0.6461(6) 0.7547(4)
H17 H 1.42650 0.66630 0.79650
N6 N 0.8888(5) 0.8916(4) 0.2240(4)
H18 H 0.81430 0.87680 0.22510
C1A C 0.1175(7) 1.1827(5) 0.3343(5)
H1A H 0.19580 1.16040 0.29030
C2A C -0.0076(7) 1.1757(5) 0.3344(5)
H2A H -0.03140 1.14780 0.29120
C3A C -0.0183(6) 1.2491(4) 0.4550(4)
C4A C -0.0823(6) 1.2986(4) 0.5395(4)
C5A C -0.2190(7) 1.3274(5) 0.6689(5)
H3A H -0.27280 1.31910 0.72300
C6A C -0.1967(7) 1.4151(5) 0.6337(4)
H4A H -0.23410 1.47860 0.66030
C7A C -0.2439(6) 1.2357(5) 0.4290(5)
H5A H -0.26350 1.17220 0.42320
H6A H -0.28430 1.25890 0.48800
C8A C -0.3072(6) 1.3154(5) 0.3672(5)
C9A C -0.3269(9) 1.4162(7) 0.3750(7)
H7A H -0.30330 1.43910 0.42080
C10A C -0.3462(7) 1.2846(6) 0.3004(5)
H8A H -0.33370 1.21540 0.29320
C11A C -0.3822(11) 1.4865(7) 0.3153(7)
H9A H -0.39100 1.55570 0.31890
C12A C -0.4218(8) 1.4531(7) 0.2534(6)
H10A H -0.46380 1.49960 0.21500
C13A C -0.1280(7) 1.1438(5) 0.6272(4)
H11A H -0.21620 1.13020 0.63860
H12A H -0.06860 1.10450 0.57730
C14A C -0.0644(6) 1.1119(4) 0.7045(4)
C15A C 0.0509(7) 1.1381(5) 0.7086(5)
H13A H 0.08760 1.17680 0.66410
C16A C -0.1192(7) 1.0594(6) 0.7744(5)
H14A H -0.19870 1.04230 0.77490
C17A C -0.0574(9) 1.0320(6) 0.8436(6)
H15A H -0.09510 0.99620 0.89010
C18A C 0.0612(8) 1.0574(6) 0.8442(5)
H16A H 0.10390 1.03950 0.89060
O1A O 0.9410(5) 0.4948(4) 0.3845(3)
O2A O -0.0433(4) 0.6055(3) -0.0044(3)
O4A O 0.2203(4) 0.6011(4) -0.0729(3)
O6A O 0.1571(4) 0.4953(3) 0.0782(3)
O8A O -0.0984(6) 0.6011(4) -0.2389(3)
O10A O 0.0222(5) 0.7034(4) -0.1520(3)
O11A O 0.6225(8) 1.0803(6) 1.0341(6)
O12A O -0.2556(5) 0.7182(4) -0.1026(3)
O13A O 0.4012(7) 1.1176(6) 0.9280(5)
O14A O 0.0975(4) 0.4855(3) -0.1433(3)
O15A O 0.3479(7) 1.0605(5) 1.1104(4)
O16A O 0.3288(5) 0.3947(4) -0.0736(3)
O17A O 0.0817(5) 0.7127(3) 0.0636(3)
O18A O -0.1869(5) 0.7288(4) 0.1519(3)
O19A O 0.0233(5) 0.6268(4) 0.2263(3)
O20A O 0.5810(5) 1.0746(4) 0.2338(3)
O21A O 0.3826(4) 0.9814(4) 0.2754(3)
O22A O 0.3636(4) 1.1281(3) 0.6966(3)
O23A O 0.5438(4) 1.2445(4) 0.6275(3)
O24A O 0.2714(4) 1.3278(3) 0.6437(3)
O25A O 0.5202(4) 1.0669(3) 0.5537(3)
O26A O 0.3290(4) 0.9720(3) 0.6158(3)
O27A O 0.2585(4) 1.1707(3) 0.5460(3)
O28A O 0.4394(4) 1.2630(3) 0.4820(3)
O29A O 0.3853(4) 1.1097(3) 0.3975(3)
O30A O 0.3503(5) 1.2966(3) 0.3256(3)
O31A O 0.1740(4) 1.3776(3) 0.4718(3)
O31A* O 1.1740(4) 0.3776(3) 0.4718(3)
O32A O -0.1068(5) 0.8413(4) -0.0196(4)
O33A O 0.1608(6) 0.8217(4) -0.0896(4)
O34A O 0.1841(4) 1.0081(3) 0.4914(3)
Co1* Co 0.00000 1.50000 0.50000
Mo1A Mo 0.40340(5) 1.22342(4) 0.60472(4)
Mo2A Mo 0.32210(5) 1.03071(4) 0.51466(3)
Mo3A Mo 0.50590(5) 1.00827(4) 0.31562(4)
Mo4A Mo 0.17786(5) 0.48761(4) -0.04581(4)
Mo5A Mo 0.29549(5) 1.26630(4) 0.42978(4)
Mo6A Mo -0.03240(6) 0.63740(4) 0.13350(4)
Mo7A Mo -0.10158(6) 0.62541(4) -0.13565(4)
Mo8A Mo 0.05040(6) 0.75204(5) -0.04979(5)
N1A N 0.1119(5) 1.2278(4) 0.4096(3)
N2A N -0.0941(5) 1.2177(4) 0.4106(4)
N3A N -0.1111(5) 1.3977(4) 0.5533(3)
N3A* N 0.8889(5) 0.3977(4) 0.5533(3)
N4A N -0.1472(5) 1.2535(4) 0.6093(3)
N5A N -0.4023(6) 1.3539(6) 0.2453(4)
H17A H -0.42650 1.33370 0.20350
N6A N 0.1112(5) 1.1084(4) 0.7760(4)
H18A H 0.18570 1.12320 0.77490
#END
