
#######################################################################
#
#                 Cambridge Crystallographic Data Centre
#                                CCDC
#
#######################################################################
#
# If this CIF has been generated from an entry in the Cambridge
# Structural Database, then it will include bibliographic, chemical,
# crystal, experimental, refinement or atomic coordinate data resulting
# from the CCDC's data processing and validation procedures.
#
#######################################################################

data_CSD_CIF_TAGNEW
_audit_creation_date 2011-03-15
_audit_creation_method CSD-ConQuest-V1
_database_code_CSD TAGNEW
_database_code_depnum_ccdc_archive 'CCDC 755456'
_chemical_formula_sum 'C50 H38 Ag4 N11 O41 Si1 W12'
_chemical_formula_moiety
;
(C16 H14 Ag2 N4 O41 Si1 W12 2-)n,0.5n(C36 H24 Ag2 N6 2+),n(C16 H12 Ag1 N4 1+)
;
_journal_coden_Cambridge 155
_journal_volume 363
_journal_year 2010
_journal_page_first 3832
_journal_name_full 'Inorg.Chim.Acta '
loop_
_publ_author_name
"Min Zhu"
"Jun Peng"
"Hai-Jun Pang"
"Peng-Peng Zhang"
"Yuan Chen"
"Dan-Dan Wang"
"Ming-Guan Liu"
"Yong-Hui Wang"
_chemical_name_systematic
;
catena-(hemikis((\m~2~-phenazine)-bis(phenazine)-di-silver) 
(phenazine)-(pyrazine)-silver 
(\m~12~-silicato)-hexacosakis(\m~2~-oxo)-(\m~2~-phenazine)-(\m~2~-pyrazine)-aq
ua-decaoxo-di-silver-dodeca-tungsten)
;
_cell_volume  14572.620
_exptl_crystal_colour 'yellow'
_exptl_crystal_density_diffrn 3.749
_exptl_crystal_description 'block'
_diffrn_ambient_temperature 293
#These two values have been output from a single CSD field.
_refine_ls_R_factor_gt 0.0334
_refine_ls_wR_factor_gt 0.0334
_symmetry_cell_setting orthorhombic
_symmetry_space_group_name_H-M 'P b c a'
_symmetry_Int_Tables_number 61
loop_
_symmetry_equiv_pos_site_id
_symmetry_equiv_pos_as_xyz
1 x,y,z
2 1/2-x,-y,1/2+z
3 1/2+x,1/2-y,-z
4 -x,1/2+y,1/2-z
5 -x,-y,-z
6 -1/2+x,y,-1/2-z
7 -1/2-x,-1/2+y,z
8 x,-1/2-y,-1/2+z
_cell_length_a 24.018(5)
_cell_length_b 20.361(5)
_cell_length_c 29.799(5)
_cell_angle_alpha 90
_cell_angle_beta 90
_cell_angle_gamma 90
_cell_formula_units_Z 8
loop_
_atom_type_symbol
_atom_type_radius_bond
C 0.68
H 0.23
Ag 1.63
N 0.68
O 0.68
Si 1.20
W 1.37
loop_
_atom_site_label
_atom_site_type_symbol
_atom_site_fract_x
_atom_site_fract_y
_atom_site_fract_z
W1 W 0.448500(13) -0.11971(2) -0.067640(11)
W2 W 0.365820(13) -0.40217(2) -0.077700(12)
W3 W 0.335160(13) -0.11577(2) -0.134640(12)
W4 W 0.463590(13) -0.11221(2) -0.180200(11)
W5 W 0.383520(13) -0.39420(2) -0.200530(11)
W6 W 0.554340(12) -0.25765(2) -0.173870(11)
W7 W 0.394520(13) -0.26940(2) -0.014160(11)
W8 W 0.535980(13) -0.26746(2) -0.061810(11)
W9 W 0.283390(13) -0.26857(2) -0.083690(12)
W10 W 0.432990(13) -0.25699(2) -0.249490(11)
W11 W 0.506530(13) -0.39772(2) -0.126910(11)
W12 W 0.303030(13) -0.25870(2) -0.205750(11)
Ag1 Ag 0.31793(3) -0.56405(6) -0.24302(3)
Ag2 Ag 0.63633(3) -0.49601(5) -0.04490(3)
Ag3 Ag 0.12322(4) -0.47801(5) -0.01369(3)
Ag4 Ag 0.53085(3) -0.56950(5) -0.18935(3)
Si1 Si 0.41721(8) -0.26065(12) -0.13141(7)
O1 O 0.3147(2) -0.3496(3) -0.21538(17)
O2 O 0.2408(2) -0.2506(4) -0.23235(18)
O3 O 0.3710(2) -0.4688(4) -0.2242(2)
O4 O 0.2847(2) -0.0594(3) -0.13673(19)
O5 O 0.3483(2) -0.4786(3) -0.06025(19)
O6 O 0.4531(2) -0.2441(4) -0.30355(17)
O7 O 0.4164(2) -0.1819(3) -0.12928(17)
O8 O 0.3929(2) -0.2860(3) -0.17939(17)
O9 O 0.5364(2) -0.4734(4) -0.12697(18)
O10 O 0.4943(2) -0.0512(3) -0.2111(2)
O11 O 0.3035(2) -0.1815(3) -0.09698(18)
O12 O 0.5848(2) -0.2605(4) -0.02095(17)
O13 O 0.4672(2) -0.0617(3) -0.02988(19)
O14 O 0.3158(2) -0.1738(3) -0.18339(18)
O15 O 0.3967(2) -0.2648(4) 0.04235(17)
O16 O 0.4807(2) -0.2884(3) -0.12573(16)
O17 O 0.5232(2) -0.1726(3) -0.17226(18)
O18 O 0.37865(19) -0.2910(3) -0.09137(16)
O19 O 0.4715(2) -0.2873(3) -0.02883(17)
O20 O 0.2157(2) -0.2621(4) -0.06952(18)
O21 O 0.3575(2) -0.4087(3) -0.14180(18)
O22 O 0.4430(2) -0.4113(3) -0.08889(17)
O23 O 0.5019(2) -0.2751(4) -0.22114(18)
O24 O 0.5437(2) -0.3578(3) -0.07583(17)
O25 O 0.5570(2) -0.3505(3) -0.16544(17)
O26 O 0.3534(2) -0.2432(4) -0.25385(17)
O27 O 0.3905(2) -0.0772(4) -0.17396(18)
O28 O 0.4561(2) -0.4062(3) -0.17552(17)
O29 O 0.2931(2) -0.3606(3) -0.07605(18)
O30 O 0.5089(2) -0.1793(3) -0.06551(18)
O31 O 0.4094(2) -0.1818(3) -0.03195(18)
O32 O 0.3825(2) -0.3621(3) -0.02061(17)
O33 O 0.4177(2) -0.3479(4) -0.25023(18)
O34 O 0.4784(2) -0.0807(3) -0.12135(18)
O35 O 0.3171(2) -0.2573(4) -0.02535(17)
O36 O 0.6140(2) -0.2458(4) -0.20281(18)
O37 O 0.2802(2) -0.2819(4) -0.14621(19)
O38 O 0.3776(2) -0.0823(3) -0.08456(18)
O39 O 0.4385(2) -0.1710(3) -0.22579(18)
O40 O 0.5813(2) -0.2482(4) -0.11402(17)
C1 C 0.4243(4) -0.6517(6) -0.2049(3)
H1 H 0.44770 -0.67470 -0.22410
C2 C 0.0502(5) -0.3675(7) -0.0475(4)
H2 H 0.02950 -0.37930 -0.02240
C3 C 0.1280(4) -0.3761(7) -0.0896(4)
H3 H 0.16250 -0.39550 -0.09480
C4 C 0.0288(5) -0.3197(7) -0.0747(5)
H4 H -0.00540 -0.30050 -0.06830
C5 C 0.1115(7) -0.3277(7) -0.1182(4)
H5 H 0.13440 -0.31320 -0.14130
C6 C 0.5348(4) -0.5957(6) -0.0603(3)
H6 H 0.57120 -0.59580 -0.07100
C7 C 0.0713(4) -0.5359(6) 0.0791(4)
H7 H 0.05940 -0.50100 0.06140
C8 C 0.7978(3) -0.5578(6) -0.1002(3)
C9 C 0.1187(4) -0.5723(5) 0.0669(3)
C10 C 0.8371(4) -0.6052(7) -0.0876(3)
H8 H 0.87070 -0.60760 -0.10310
C11 C 0.2122(3) -0.6061(6) -0.2953(3)
C12 C 0.7484(3) -0.5512(5) -0.0746(3)
C13 C 0.1547(3) -0.6023(6) -0.3127(3)
C14 C 0.7198(3) -0.4649(5) -0.1188(3)
C15 C 0.7707(3) -0.4708(5) -0.1441(3)
C16 C 0.6817(4) -0.4144(6) -0.1303(3)
H9 H 0.64810 -0.41090 -0.11490
C17 C 0.2128(4) -0.6445(6) 0.0508(3)
C18 C 0.7400(4) -0.5952(6) -0.0378(3)
H10 H 0.70760 -0.59260 -0.02090
C19 C 0.1365(4) -0.6255(6) 0.0946(3)
C20 C 0.7792(5) -0.6404(7) -0.0276(3)
H11 H 0.77400 -0.66760 -0.00280
C21 C 0.2629(4) -0.6784(5) 0.0415(3)
H12 H 0.27420 -0.71250 0.06020
C22 C 0.7801(4) -0.4276(6) -0.1812(3)
H13 H 0.81020 -0.43480 -0.20020
C23 C 0.0611(4) -0.6031(7) 0.1452(3)
H14 H 0.04180 -0.61160 0.17170
C24 C 0.1052(4) -0.6399(6) 0.1354(3)
H15 H 0.11590 -0.67420 0.15420
C25 C 0.1384(4) -0.5135(6) -0.2677(3)
C26 C 0.3704(4) -0.6697(5) -0.2016(3)
H16 H 0.35680 -0.70370 -0.21940
C27 C 0.2298(4) -0.5744(6) -0.0156(3)
H17 H 0.21930 -0.54120 -0.03530
C28 C 0.1966(3) -0.5895(6) 0.0222(3)
C29 C 0.7453(4) -0.3760(7) -0.1889(3)
H18 H 0.75450 -0.34430 -0.21010
C30 C 0.1029(4) -0.4626(7) -0.2554(4)
H19 H 0.06660 -0.46120 -0.26630
C31 C 0.6936(4) -0.3710(6) -0.1636(4)
H20 H 0.66850 -0.33770 -0.17030
C32 C 0.8277(4) -0.6473(7) -0.0537(4)
H21 H 0.85290 -0.68070 -0.04750
C33 C 0.2943(4) -0.6614(7) 0.0057(3)
H22 H 0.32710 -0.68400 -0.00030
C34 C 0.2774(4) -0.6093(8) -0.0226(4)
H23 H 0.29970 -0.59850 -0.04700
C35 C 0.2118(4) -0.4678(7) -0.2203(3)
H24 H 0.24680 -0.47040 -0.20720
C36 C 0.0425(4) -0.5524(6) 0.1177(3)
H25 H 0.01040 -0.52950 0.12530
C37 C 0.1771(5) -0.4173(8) -0.2099(4)
H26 H 0.18940 -0.38360 -0.19130
C38 C 0.1216(5) -0.4157(8) -0.2276(4)
H27 H 0.09800 -0.38140 -0.21970
C39 C 0.3563(4) -0.5872(6) -0.1470(3)
H28 H 0.33360 -0.56540 -0.12660
C40 C 0.1938(4) -0.5176(6) -0.2518(3)
C41 C 0.2314(5) -0.6951(6) -0.3457(3)
H29 H 0.25570 -0.72610 -0.35770
C42 C 0.2474(4) -0.6547(6) -0.3134(3)
H30 H 0.28340 -0.65850 -0.30220
C43 C 0.1397(4) -0.6494(6) -0.3460(3)
H31 H 0.10320 -0.65070 -0.35640
C44 C 0.1751(5) -0.6896(6) -0.3619(3)
H32 H 0.16400 -0.71690 -0.38520
C45 C 0.5184(3) -0.5448(5) -0.0299(3)
C46 C 0.5714(4) -0.4024(6) 0.0267(3)
H33 H 0.60740 -0.40000 0.01530
C47 C 0.5362(3) -0.4544(5) 0.0125(3)
C48 C 0.5005(4) -0.6429(6) -0.0739(3)
H34 H 0.51240 -0.67460 -0.09430
C49 C 0.4114(4) -0.5680(5) -0.1521(3)
H35 H 0.42500 -0.53270 -0.13570
C50 C 0.5543(4) -0.3561(6) 0.0567(3)
H36 H 0.57890 -0.32350 0.06590
N1 N 0.8080(3) -0.5176(4) -0.1349(2)
N2 N 0.2287(3) -0.5622(5) -0.2643(3)
N3 N 0.7105(3) -0.5047(4) -0.0835(2)
N4 N 0.1192(3) -0.5570(5) -0.2970(2)
N5 N 0.1830(3) -0.6605(4) 0.0864(3)
N6 N 0.3350(4) -0.6380(6) -0.1718(3)
N7 N 0.0978(3) -0.3982(5) -0.0541(2)
N8 N 0.5546(2) -0.4982(4) -0.0169(2)
N9 N 0.4451(3) -0.6001(5) -0.1806(2)
N10 N 0.1493(3) -0.5552(5) 0.0297(3)
N11 N 0.0584(7) -0.3007(7) -0.1112(4)
O41 O 0.3831(2) -0.5664(4) -0.3011(2)
Ag2D Ag 0.36367(3) -0.50399(5) 0.04490(3)
Ag4E Ag 0.03085(3) -0.56950(5) -0.31065(3)
C6D C 0.4652(4) -0.4043(6) 0.0603(3)
H6D H 0.42880 -0.40420 0.07100
C8D C 0.2022(3) -0.4422(6) 0.1002(3)
C10D C 0.1629(4) -0.3948(7) 0.0876(3)
H8D H 0.12930 -0.39240 0.10310
C12D C 0.2516(3) -0.4488(5) 0.0746(3)
C14D C 0.2802(3) -0.5351(5) 0.1188(3)
C15D C 0.2293(3) -0.5292(5) 0.1441(3)
C16D C 0.3183(4) -0.5856(6) 0.1303(3)
H9D H 0.35190 -0.58910 0.11490
C18D C 0.2600(4) -0.4048(6) 0.0378(3)
H10D H 0.29240 -0.40740 0.02090
C20D C 0.2208(5) -0.3596(7) 0.0276(3)
H11D H 0.22600 -0.33240 0.00280
C22D C 0.2199(4) -0.5724(6) 0.1812(3)
H13D H 0.18980 -0.56520 0.20020
C29D C 0.2547(4) -0.6240(7) 0.1889(3)
H18D H 0.24550 -0.65570 0.21010
C31D C 0.3064(4) -0.6290(6) 0.1636(4)
H20D H 0.33150 -0.66230 0.17030
C32D C 0.1723(4) -0.3527(7) 0.0537(4)
H21D H 0.14710 -0.31930 0.04750
C45D C 0.4816(3) -0.4552(5) 0.0299(3)
C46D C 0.4286(4) -0.5976(6) -0.0267(3)
H33D H 0.39260 -0.60000 -0.01530
C47D C 0.4638(3) -0.5456(5) -0.0125(3)
C48D C 0.4995(4) -0.3571(6) 0.0739(3)
H34D H 0.48760 -0.32540 0.09430
C50D C 0.4457(4) -0.6439(6) -0.0567(3)
H36D H 0.42110 -0.67650 -0.06590
N1D N 0.1920(3) -0.4824(4) 0.1349(2)
N3D N 0.2895(3) -0.4953(4) 0.0835(2)
N4E N 0.6192(3) -0.5570(5) -0.2030(2)
N8D N 0.4454(2) -0.5018(4) 0.0169(2)
#END
