
#######################################################################
#
#                 Cambridge Crystallographic Data Centre
#                                CCDC
#
#######################################################################
#
# If this CIF has been generated from an entry in the Cambridge
# Structural Database, then it will include bibliographic, chemical,
# crystal, experimental, refinement or atomic coordinate data resulting
# from the CCDC's data processing and validation procedures.
#
#######################################################################

data_CSD_CIF_TAGTIH
_audit_creation_date 2016-02-11
_audit_creation_method CSD-ConQuest-V1
_database_code_CSD TAGTIH
_database_code_depnum_ccdc_archive 'CCDC 1408965'
_chemical_formula_sum 'C20 H21 Mg3 N1 O19'
_chemical_formula_moiety
;
(C2 H8 N1 1+)n,n(C18 H13 Mg3 O19 1-)
;
_journal_coden_Cambridge 1147
_journal_volume 16
_journal_year 2016
_journal_page_first 1261
_journal_name_full 'Cryst.Growth Des. '
loop_
_publ_author_name
"Quan-Guo Zhai"
"Xianhui Bu"
"Xiang Zhao"
"Chengyu Mao"
"Fei Bu"
"Xitong Chen"
"Pingyun Feng"
_chemical_name_systematic
;
catena-[dimethylammonium 
tris(\m-furan-2,5-dicarboxylato)-(\m-hydroxo)-triaqua-tri-magnesium unknown 
solvate]
;
_chemical_name_common
;
CPM-203
;
_cell_volume   3731.824
_exptl_crystal_colour 'colorless'
_exptl_crystal_density_diffrn 0.871
_exptl_crystal_description 'block'
_diffrn_ambient_temperature 293
_refine_special_details
;
Disordered cation and solvent molecules were not modelled and the disordered 
density was taken into account using the SQUEEZE/PLATON procedure.
;
#These two values have been output from a single CSD field.
_refine_ls_R_factor_gt 0.0869
_refine_ls_wR_factor_gt 0.0869
_symmetry_cell_setting rhombohedral
_symmetry_space_group_name_H-M 'R 3 2'
_symmetry_Int_Tables_number 155
loop_
_symmetry_equiv_pos_site_id
_symmetry_equiv_pos_as_xyz
1 x,y,z
2 -y,x-y,z
3 -x+y,-x,z
4 y,x,-z
5 -x,-x+y,-z
6 x-y,-y,-z
7 2/3+x,1/3+y,1/3+z
8 2/3-y,1/3+x-y,1/3+z
9 2/3-x+y,1/3-x,1/3+z
10 2/3+y,1/3+x,1/3-z
11 2/3-x,1/3-x+y,1/3-z
12 2/3+x-y,1/3-y,1/3-z
13 1/3+x,2/3+y,2/3+z
14 1/3-y,2/3+x-y,2/3+z
15 1/3-x+y,2/3-x,2/3+z
16 1/3+y,2/3+x,2/3-z
17 1/3-x,2/3-x+y,2/3-z
18 1/3+x-y,2/3-y,2/3-z
_cell_length_a 14.1381(9)
_cell_length_b 14.1381(9)
_cell_length_c 21.558(4)
_cell_angle_alpha 90
_cell_angle_beta 90
_cell_angle_gamma 120
_cell_formula_units_Z 3
loop_
_atom_type_symbol
_atom_type_radius_bond
C 0.68
H 0.23
Mg 1.41
O 0.68
loop_
_atom_site_label
_atom_site_type_symbol
_atom_site_fract_x
_atom_site_fract_y
_atom_site_fract_z
Mg1 Mg 0.14289(15) 0.14289(15) 0.00000
C1 C 0.1935(4) 0.0032(4) 0.0848(2)
C2 C 0.2708(4) -0.0010(4) 0.1311(2)
C3 C 0.2955(5) -0.0814(5) 0.1442(3)
H1 H 0.26520 -0.14960 0.12540
O1 O 0.2023(3) 0.0939(3) 0.07557(17)
O2 O 0.1299(3) -0.0838(3) 0.06100(18)
O3 O 0.33330 0.0872(3) 0.16670
O4 O 0.2901(4) 0.2901(4) 0.00000
O5 O 0.00000 0.00000 0.00000
C1J C 0.473167(400) 0.143033(400) 0.248533(200)
C2J C 0.395867(400) 0.061533(400) 0.202233(200)
C3J C 0.371167(500) -0.043567(500) 0.189133(300)
H1J H 0.40147 -0.08147 0.20793
O1J O 0.464367(300) 0.224933(300) 0.257763(170)
O2J O 0.536767(300) 0.119633(300) 0.272333(180)
Mg1A Mg -0.14289(15) 0.00000(15) 0.00000
C1A C -0.0032(4) 0.1903(4) 0.0848(2)
C2A C 0.0010(4) 0.2718(4) 0.1311(2)
C3A C 0.0814(5) 0.3769(5) 0.1442(3)
H1A H 0.14960 0.41480 0.12540
O1A O -0.0939(3) 0.1084(3) 0.07557(17)
O2A O 0.0838(3) 0.2137(3) 0.06100(18)
O3A O -0.08720 0.2461(3) 0.16670
O4A O -0.2901(4) 0.0000(4) 0.00000
C1K C -0.143033(400) 0.330133(400) 0.248533(200)
C2K C -0.061533(400) 0.334333(400) 0.202233(200)
C3K C 0.043567(500) 0.414733(500) 0.189133(300)
H1K H 0.08147 0.48293 0.20793
O1K O -0.224933(300) 0.239433(300) 0.257763(170)
O2K O -0.119633(300) 0.417133(300) 0.272333(180)
Mg1B Mg 0.00000(15) -0.14289(15) 0.00000
C1B C -0.1903(4) -0.1935(4) 0.0848(2)
C2B C -0.2718(4) -0.2708(4) 0.1311(2)
C3B C -0.3769(5) -0.2955(5) 0.1442(3)
H1B H -0.41480 -0.26520 0.12540
O1B O -0.1084(3) -0.2023(3) 0.07557(17)
O2B O -0.2137(3) -0.1299(3) 0.06100(18)
O3B O -0.24610 -0.3333(3) 0.16670
O4B O 0.0000(4) -0.2901(4) 0.00000
C1I C -0.330133(400) -0.473167(400) 0.248533(200)
C2I C -0.334333(400) -0.395867(400) 0.202233(200)
C3I C -0.414733(500) -0.371167(500) 0.189133(300)
H1I H -0.48293 -0.40147 0.20793
O1I O -0.239433(300) -0.464367(300) 0.257763(170)
O2I O -0.417133(300) -0.536767(300) 0.272333(180)
Mg1F Mg -0.190443(150) -0.523777(150) 0.33333
Mg1F* Mg -0.190443(150) 0.476223(150) 0.33333
Mg1G Mg -0.476223(150) -0.666667(150) 0.33333
Mg1G* Mg 0.523777(150) 0.333333(150) 0.33333
Mg1H Mg -0.333333(150) 0.190443(150) 0.33333
Mg1H* Mg 0.666667(150) 0.190443(150) 0.33333
O1C O 0.0939(3) 0.2023(3) -0.07557(17)
O1D O -0.2023(3) -0.1084(3) -0.07557(17)
O1E O 0.1084(3) -0.0939(3) -0.07557(17)
O2C O -0.0838(3) 0.1299(3) -0.06100(18)
O2D O -0.1299(3) -0.2137(3) -0.06100(18)
O2E O 0.2137(3) 0.0838(3) -0.06100(18)
#END
