
#######################################################################
#
#                 Cambridge Crystallographic Data Centre
#                                CCDC
#
#######################################################################
#
# If this CIF has been generated from an entry in the Cambridge
# Structural Database, then it will include bibliographic, chemical,
# crystal, experimental, refinement or atomic coordinate data resulting
# from the CCDC's data processing and validation procedures.
#
#######################################################################

data_CSD_CIF_TAGZAE
_audit_creation_date 2011-03-15
_audit_creation_method CSD-ConQuest-V1
_database_code_CSD TAGZAE
_database_code_depnum_ccdc_archive 'CCDC 705473'
_chemical_formula_sum 'C40 H76 Cu2 N8 O62 P1 W12'
_chemical_formula_moiety
;
(C40 H40 Cu2 N8 O4 4+)n,n(O40 P1 W12 4-),18n(H2 O1)
;
_journal_coden_Cambridge 1290
_journal_year 2010
_journal_page_first 4526
_journal_name_full 'Eur.J.Inorg.Chem. '
loop_
_publ_author_name
"Fan Yu"
"Pei-Qing Zheng"
"Yu-Xiang Long"
"Yan-Ping Ren"
"Xiang-Jian Kong"
"La-Sheng Long"
"You-Zhu Yuan"
"Rong-Bin Huang"
"Lan-Sun Zheng"
_chemical_name_systematic
;
catena-(tetrakis(\m~2~-4,4'-bipyridine)-tetraaqua-di-copper 
(\m~12~-phosphato)-tetracosakis(\m~2~-oxo)-dodecaoxo-dodeca-tungsten 
octadecahydrate)
;
_cell_volume   8849.467
_exptl_crystal_colour 'blue'
_exptl_crystal_description 'needle'
_diffrn_ambient_temperature 298
_refine_special_details
;
O1,O2,O3,O4 disordered by symmetry over two sites with occupancy 0.50. The 
disordered water molecules were not modelled and the disordered density was 
taken into account using the SQUEEZE/PLATON procedure.
;
#These two values have been output from a single CSD field.
_refine_ls_R_factor_gt 0.0793
_refine_ls_wR_factor_gt 0.0793
_symmetry_cell_setting orthorhombic
_symmetry_space_group_name_H-M 'C c c m'
_symmetry_Int_Tables_number 66
loop_
_symmetry_equiv_pos_site_id
_symmetry_equiv_pos_as_xyz
1 x,y,z
2 -x,-y,z
3 -x,y,1/2-z
4 x,-y,1/2-z
5 1/2+x,1/2+y,z
6 1/2-x,1/2-y,z
7 1/2-x,1/2+y,1/2-z
8 1/2+x,1/2-y,1/2-z
9 -x,-y,-z
10 x,y,-z
11 x,-y,-1/2+z
12 -x,y,-1/2+z
13 -1/2-x,-1/2-y,-z
14 -1/2+x,-1/2+y,-z
15 -1/2+x,-1/2-y,-1/2+z
16 -1/2-x,-1/2+y,-1/2+z
_cell_length_a 17.965(4)
_cell_length_b 22.164(4)
_cell_length_c 22.225(4)
_cell_angle_alpha 90
_cell_angle_beta 90
_cell_angle_gamma 90
_cell_formula_units_Z 4
loop_
_atom_type_symbol
_atom_type_radius_bond
C 0.68
H 0.23
Cu 1.74
N 0.68
O 0.62
P 1.05
W 1.47
loop_
_atom_site_label
_atom_site_type_symbol
_atom_site_fract_x
_atom_site_fract_y
_atom_site_fract_z
W1 W 0.40131(5) 0.18534(4) 0.57888(4)
W2 W 0.42603(8) 0.32261(6) 0.50000
W3 W 0.27484(6) 0.38690(5) 0.57969(7)
W4 W 0.25000 0.25000 0.34165(6)
P1 P 0.25000 0.25000 0.50000
O1 O 0.286(2) 0.1900(9) 0.50000
O2 O 0.25000 0.25000 0.4269(4)
O3 O 0.3330(6) 0.244(2) 0.50000
O4 O 0.293(2) 0.3074(12) 0.50000
O5 O 0.3722(10) 0.3668(14) 0.5576(12)
O6 O 0.2624(19) 0.4080(17) 0.50000
O7 O 0.3302(13) 0.1241(10) 0.5794(10)
O8 O 0.3473(9) 0.2249(10) 0.6397(10)
O9 O 0.5128(13) 0.3552(12) 0.50000
O10 O 0.4739(9) 0.1521(9) 0.6152(8)
O11 O 0.25000 0.25000 0.2614(16)
O12 O 0.2845(14) 0.4552(13) 0.6188(19)
O13 O 0.4413(19) 0.2609(8) 0.5594(7)
O14 O 0.425(3) 0.1645(11) 0.50000
O15 O 0.2805(10) 0.3278(12) 0.6441(12)
Cu1 Cu 0.00000 0.50000 0.75000
Cu2 Cu 0.00000 0.00000 0.75000
N1 N 0.00000 0.4082(10) 0.75000
C1 C 0.0618(14) 0.3778(8) 0.7564(8)
H1 H 0.10560 0.39970 0.76080
C2 C 0.0671(11) 0.3155(8) 0.7571(8)
H2 H 0.11280 0.29640 0.76190
C3 C 0.00000 0.2815(9) 0.75000
C4 C 0.00000 0.2168(11) 0.75000
C5 C 0.0518(14) 0.1837(8) 0.7151(14)
H3 H 0.08840 0.20360 0.69320
C6 C 0.0472(14) 0.1224(11) 0.7141(12)
H4 H 0.07780 0.10150 0.68750
N2 N 0.00000 0.0899(12) 0.75000
N3 N 0.00000 0.50000 0.6587(10)
C7 C 0.054(2) 0.4815(16) 0.6279(10)
H5 H 0.09400 0.46540 0.64940
C8 C 0.0622(18) 0.4821(14) 0.5646(10)
H6 H 0.10610 0.47130 0.54520
C9 C 0.00000 0.50000 0.5345(11)
N4 N 0.00000 0.00000 0.6572(18)
C10 C -0.0551(15) 0.0274(13) 0.630(2)
H7 H -0.09140 0.04810 0.65200
C11 C -0.0571(19) 0.0239(17) 0.564(2)
H8 H -0.09870 0.03850 0.54390
C12 C 0.00000 0.00000 0.532(2)
O16 O -0.1372(14) 0.00000 0.75000
O17 O 0.1550(17) 0.50000 0.75000
W1E W 0.09869(5) 0.31466(4) 0.57888(4)
W1I W 0.40131(5) 0.18534(4) 0.42112(4)
W1L W 0.09869(5) 0.31466(4) 0.42112(4)
W2E W 0.07397(8) 0.17739(6) 0.50000
W3E W 0.22516(6) 0.11310(5) 0.57969(7)
W3I W 0.27484(6) 0.38690(5) 0.42031(7)
W3L W 0.22516(6) 0.11310(5) 0.42031(7)
W4I W 0.25000 0.25000 0.65835(6)
O1E O 0.214(2) 0.3100(9) 0.50000
O2I O 0.25000 0.25000 0.5731(4)
O3E O 0.1670(6) 0.256(2) 0.50000
O4E O 0.207(2) 0.1926(12) 0.50000
O5I O 0.3722(10) 0.3668(14) 0.4424(12)
O5E O 0.1278(10) 0.1332(14) 0.5576(12)
O5L O 0.1278(10) 0.1332(14) 0.4424(12)
O6E O 0.2376(19) 0.0920(17) 0.50000
O7E O 0.1698(13) 0.3759(10) 0.5794(10)
O7I O 0.3302(13) 0.1241(10) 0.4206(10)
O7L O 0.1698(13) 0.3759(10) 0.4206(10)
O8I O 0.3473(9) 0.2249(10) 0.3603(10)
O8L O 0.1527(9) 0.2751(10) 0.3603(10)
O8E O 0.1527(9) 0.2751(10) 0.6397(10)
O9E O -0.0128(13) 0.1448(12) 0.50000
O10E O 0.0261(9) 0.3479(9) 0.6152(8)
O10I O 0.4739(9) 0.1521(9) 0.3848(8)
O10L O 0.0261(9) 0.3479(9) 0.3848(8)
O11I O 0.25000 0.25000 0.7386(16)
O12E O 0.2155(14) 0.0448(13) 0.6188(19)
O12I O 0.2845(14) 0.4552(13) 0.3812(19)
O12L O 0.2155(14) 0.0448(13) 0.3812(19)
O13I O 0.4413(19) 0.2609(8) 0.4406(7)
O13E O 0.0587(19) 0.2391(8) 0.5594(7)
O13L O 0.0587(19) 0.2391(8) 0.4406(7)
O14E O 0.075(3) 0.3355(11) 0.50000
O15L O 0.2195(10) 0.1722(12) 0.3559(12)
O15I O 0.2805(10) 0.3278(12) 0.3559(12)
O15E O 0.2195(10) 0.1722(12) 0.6441(12)
Cu1H Cu 0.00000 0.50000 0.25000
Cu2H Cu 0.00000 0.00000 0.25000
Cu2* Cu 0.00000 1.00000 0.75000
N1A N 0.00000 0.5918(10) 0.75000
C1B C -0.0618(14) 0.3778(8) 0.7436(8)
C1A C -0.0618(14) 0.6222(8) 0.7564(8)
C1C C 0.0618(14) 0.6222(8) 0.7436(8)
H1B H -0.10560 0.39970 0.73920
H1A H -0.10560 0.60030 0.76080
H1C H 0.10560 0.60030 0.73920
C2B C -0.0671(11) 0.3155(8) 0.7429(8)
C2A C -0.0671(11) 0.6845(8) 0.7571(8)
C2C C 0.0671(11) 0.6845(8) 0.7429(8)
H2B H -0.11280 0.29640 0.73810
H2A H -0.11280 0.70360 0.76190
H2C H 0.11280 0.70360 0.73810
C3A C 0.00000 0.7185(9) 0.75000
C4A C 0.00000 0.7832(11) 0.75000
C5B C -0.0518(14) 0.1837(8) 0.7849(14)
C5A C -0.0518(14) 0.8163(8) 0.7151(14)
C5C C 0.0518(14) 0.8163(8) 0.7849(14)
H3B H -0.08840 0.20360 0.80680
H3A H -0.08840 0.79640 0.69320
H3C H 0.08840 0.79640 0.80680
C6B C -0.0472(14) 0.1224(11) 0.7859(12)
C6A C -0.0472(14) 0.8776(11) 0.7141(12)
C6C C 0.0472(14) 0.8776(11) 0.7859(12)
H4B H -0.07780 0.10150 0.81250
H4A H -0.07780 0.89850 0.68750
H4C H 0.07780 0.89850 0.81250
N2A N 0.00000 0.9101(12) 0.75000
N2A* N 0.00000 -0.0899(12) 0.75000
N3H N 0.00000 0.50000 0.3413(10)
N3B N 0.00000 0.50000 0.8413(10)
C7A C -0.054(2) 0.5185(16) 0.6279(10)
C7H C -0.054(2) 0.5185(16) 0.3721(10)
C7I C 0.054(2) 0.4815(16) 0.3721(10)
H5A H -0.09400 0.53460 0.64940
H5I H 0.09400 0.46540 0.35060
H5H H -0.09400 0.53460 0.35060
C8A C -0.0622(18) 0.5179(14) 0.5646(10)
C8H C -0.0622(18) 0.5179(14) 0.4354(10)
C8I C 0.0622(18) 0.4821(14) 0.4354(10)
H6A H -0.10610 0.52870 0.54520
H6I H 0.10610 0.47130 0.45480
H6H H -0.10610 0.52870 0.45480
C9H C 0.00000 0.50000 0.4655(11)
N4H N 0.00000 0.00000 0.3428(18)
N4B N 0.00000 0.00000 0.8428(18)
C10A C 0.0551(15) -0.0274(13) 0.630(2)
C10H C 0.0551(15) -0.0274(13) 0.370(2)
C10I C -0.0551(15) 0.0274(13) 0.370(2)
H7A H 0.09140 -0.04810 0.65200
H7I H -0.09140 0.04810 0.34800
H7H H 0.09140 -0.04810 0.34800
C11A C 0.0571(19) -0.0239(17) 0.564(2)
C11H C 0.0571(19) -0.0239(17) 0.436(2)
C11I C -0.0571(19) 0.0239(17) 0.436(2)
H8A H 0.09870 -0.03850 0.54390
H8I H -0.09870 0.03850 0.45610
H8H H 0.09870 -0.03850 0.45610
C12H C 0.00000 0.00000 0.468(2)
O16A O 0.1372(14) 0.00000 0.75000
O17A O -0.1550(17) 0.50000 0.75000
#END
