
#######################################################################
#
#                 Cambridge Crystallographic Data Centre
#                                CCDC
#
#######################################################################
#
# If this CIF has been generated from an entry in the Cambridge
# Structural Database, then it will include bibliographic, chemical,
# crystal, experimental, refinement or atomic coordinate data resulting
# from the CCDC's data processing and validation procedures.
#
#######################################################################

data_CSD_CIF_TAGZEI
_audit_creation_date 2011-03-15
_audit_creation_method CSD-ConQuest-V1
_database_code_CSD TAGZEI
_database_code_depnum_ccdc_archive 'CCDC 705474'
_chemical_formula_sum 'C40 H76 Cu2 Mo12 N8 O62 P1'
_chemical_formula_moiety
;
(C40 H40 Cu2 N8 O4 4+)n,n(Mo12 O40 P1 4-),18n(H2 O1)
;
_journal_coden_Cambridge 1290
_journal_year 2010
_journal_page_first 4526
_journal_name_full 'Eur.J.Inorg.Chem. '
loop_
_publ_author_name
"Fan Yu"
"Pei-Qing Zheng"
"Yu-Xiang Long"
"Yan-Ping Ren"
"Xiang-Jian Kong"
"La-Sheng Long"
"You-Zhu Yuan"
"Rong-Bin Huang"
"Lan-Sun Zheng"
_chemical_name_systematic
;
catena-(tetrakis(\m~2~-4,4'-bipyridine)-tetraaqua-di-copper 
(\m~12~-phosphato)-tetracosakis(\m~2~-oxo)-dodecaoxo-dodeca-molybdenum 
octadecahydrate)
;
_cell_volume   8820.247
_exptl_crystal_colour 'blue'
_exptl_crystal_description 'needle'
_diffrn_ambient_temperature 173
_refine_special_details
;
O1,O1,O2,O3 disordered by symmetry over two sites with occupancy 0.50. The 
disordered water molecules were not modelled and the disordered density was 
taken into account using the SQUEEZE/PLATON procedure.
;
#These two values have been output from a single CSD field.
_refine_ls_R_factor_gt 0.0769
_refine_ls_wR_factor_gt 0.0769
_symmetry_cell_setting orthorhombic
_symmetry_space_group_name_H-M 'C c c m'
_symmetry_Int_Tables_number 66
loop_
_symmetry_equiv_pos_site_id
_symmetry_equiv_pos_as_xyz
1 x,y,z
2 -x,-y,z
3 -x,y,1/2-z
4 x,-y,1/2-z
5 1/2+x,1/2+y,z
6 1/2-x,1/2-y,z
7 1/2-x,1/2+y,1/2-z
8 1/2+x,1/2-y,1/2-z
9 -x,-y,-z
10 x,y,-z
11 x,-y,-1/2+z
12 -x,y,-1/2+z
13 -1/2-x,-1/2-y,-z
14 -1/2+x,-1/2+y,-z
15 -1/2+x,-1/2-y,-1/2+z
16 -1/2-x,-1/2+y,-1/2+z
_cell_length_a 17.847(4)
_cell_length_b 22.178(4)
_cell_length_c 22.284(5)
_cell_angle_alpha 90
_cell_angle_beta 90
_cell_angle_gamma 90
_cell_formula_units_Z 4
loop_
_atom_type_symbol
_atom_type_radius_bond
C 0.68
H 0.23
Cu 1.72
Mo 1.40
N 0.68
O 0.68
P 1.05
loop_
_atom_site_label
_atom_site_type_symbol
_atom_site_fract_x
_atom_site_fract_y
_atom_site_fract_z
Mo1 Mo 0.25000 0.25000 -0.15734(6)
Mo2 Mo 0.07150(12) 0.18157(9) 0.00000
Mo3 Mo 0.22021(8) 0.11375(5) -0.07886(6)
Mo4 Mo 0.10077(8) 0.31841(6) -0.07854(5)
P1 P 0.25000 0.25000 0.00000
O1 O 0.2660(7) 0.2184(5) -0.0587(4)
O2 O 0.1633(5) 0.2630(7) 0.00000
O3 O 0.2155(9) 0.1866(5) 0.00000
O4 O 0.0600(13) 0.2417(5) -0.0590(4)
O5 O 0.3466(4) 0.2224(4) -0.1407(5)
O6 O 0.2857(5) 0.3299(4) -0.1414(5)
O7 O -0.0131(7) 0.1494(6) 0.00000
O8 O 0.1221(6) 0.1350(7) -0.0600(5)
O9 O 0.0853(15) 0.3428(6) 0.00000
O10 O 0.2343(7) 0.0863(10) 0.00000
O11 O 0.0276(5) 0.3495(4) -0.1162(4)
O12 O 0.25000 0.25000 -0.2347(7)
O13 O 0.3267(5) 0.1198(4) -0.0842(5)
O14 O 0.2078(7) 0.0487(5) -0.1175(5)
Cu1 Cu 0.00000 0.00000 -0.25000
Cu2 Cu 0.00000 0.50000 -0.25000
N1 N 0.00000 0.0910(5) -0.25000
C1 C -0.0461(6) 0.1240(5) -0.2868(5)
H1 H -0.07920 0.10280 -0.31280
C2 C -0.0471(6) 0.1839(4) -0.2882(5)
H2 H -0.07950 0.20470 -0.31500
C3 C 0.00000 0.2157(6) -0.25000
C4 C 0.00000 0.2845(6) -0.25000
C5 C -0.0621(6) 0.3165(5) -0.2388(4)
H3 H -0.10790 0.29610 -0.23100
C6 C -0.0607(6) 0.3778(5) -0.2386(5)
H4 H -0.10520 0.39950 -0.22970
N2 N 0.00000 0.4071(5) -0.25000
N3 N 0.00000 0.00000 -0.1595(5)
C7 C -0.0540(7) 0.0260(6) -0.1264(5)
H5 H -0.09410 0.04420 -0.14770
C8 C -0.0570(7) 0.0288(6) -0.0668(5)
H6 H -0.09680 0.04980 -0.04790
C9 C 0.00000 0.00000 -0.0308(7)
N4 N 0.00000 0.50000 -0.1593(6)
C10 C 0.0611(9) 0.4918(6) -0.1291(6)
H7 H 0.10650 0.48640 -0.15060
C11 C 0.0637(8) 0.4906(6) -0.0645(5)
H8 H 0.10980 0.48330 -0.04440
C12 C 0.00000 0.50000 -0.0324(7)
O15 O 0.1400(6) 0.00000 -0.25000
O16 O -0.1587(7) 0.50000 -0.25000
Mo1I Mo 0.25000 0.25000 0.15734(6)
Mo2E Mo 0.42850(12) 0.31843(9) 0.00000
Mo3E Mo 0.27979(8) 0.38625(5) -0.07886(6)
Mo3I Mo 0.22021(8) 0.11375(5) 0.07886(6)
Mo3L Mo 0.27979(8) 0.38625(5) 0.07886(6)
Mo4E Mo 0.39923(8) 0.18159(6) -0.07854(5)
Mo4I Mo 0.10077(8) 0.31841(6) 0.07854(5)
Mo4L Mo 0.39923(8) 0.18159(6) 0.07854(5)
O1E O 0.2340(7) 0.2816(5) -0.0587(4)
O1I O 0.2660(7) 0.2184(5) 0.0587(4)
O1L O 0.2340(7) 0.2816(5) 0.0587(4)
O2E O 0.3367(5) 0.2370(7) 0.00000
O3E O 0.2845(9) 0.3134(5) 0.00000
O4I O 0.0600(13) 0.2417(5) 0.0590(4)
O4E O 0.4400(13) 0.2583(5) -0.0590(4)
O4L O 0.4400(13) 0.2583(5) 0.0590(4)
O5E O 0.1534(4) 0.2776(4) -0.1407(5)
O5I O 0.3466(4) 0.2224(4) 0.1407(5)
O5L O 0.1534(4) 0.2776(4) 0.1407(5)
O6E O 0.2143(5) 0.1701(4) -0.1414(5)
O6I O 0.2857(5) 0.3299(4) 0.1414(5)
O6L O 0.2143(5) 0.1701(4) 0.1414(5)
O7E O 0.5131(7) 0.3506(6) 0.00000
O8I O 0.1221(6) 0.1350(7) 0.0600(5)
O8E O 0.3779(6) 0.3650(7) -0.0600(5)
O8L O 0.3779(6) 0.3650(7) 0.0600(5)
O9E O 0.4147(15) 0.1572(6) 0.00000
O10E O 0.2657(7) 0.4137(10) 0.00000
O11E O 0.4724(5) 0.1505(4) -0.1162(4)
O11I O 0.0276(5) 0.3495(4) 0.1162(4)
O11L O 0.4724(5) 0.1505(4) 0.1162(4)
O12I O 0.25000 0.25000 0.2347(7)
O13E O 0.1733(5) 0.3802(4) -0.0842(5)
O13I O 0.3267(5) 0.1198(4) 0.0842(5)
O13L O 0.1733(5) 0.3802(4) 0.0842(5)
O14E O 0.2922(7) 0.4513(5) -0.1175(5)
O14I O 0.2078(7) 0.0487(5) 0.1175(5)
O14L O 0.2922(7) 0.4513(5) 0.1175(5)
Cu1H Cu 0.00000 0.00000 0.25000
Cu2H Cu 0.00000 0.50000 0.25000
Cu2* Cu 0.00000 -0.50000 -0.25000
N1A N 0.00000 -0.0910(5) -0.25000
C1B C 0.0461(6) 0.1240(5) -0.2132(5)
C1A C 0.0461(6) -0.1240(5) -0.2868(5)
C1C C -0.0461(6) -0.1240(5) -0.2132(5)
H1B H 0.07920 0.10280 -0.18720
H1A H 0.07920 -0.10280 -0.31280
H1C H -0.07920 -0.10280 -0.18720
C2B C 0.0471(6) 0.1839(4) -0.2118(5)
C2A C 0.0471(6) -0.1839(4) -0.2882(5)
C2C C -0.0471(6) -0.1839(4) -0.2118(5)
H2B H 0.07950 0.20470 -0.18500
H2A H 0.07950 -0.20470 -0.31500
H2C H -0.07950 -0.20470 -0.18500
C3A C 0.00000 -0.2157(6) -0.25000
C4A C 0.00000 -0.2845(6) -0.25000
C5B C 0.0621(6) 0.3165(5) -0.2612(4)
C5A C 0.0621(6) -0.3165(5) -0.2388(4)
C5C C -0.0621(6) -0.3165(5) -0.2612(4)
H3B H 0.10790 0.29610 -0.26900
H3A H 0.10790 -0.29610 -0.23100
H3C H -0.10790 -0.29610 -0.26900
C6B C 0.0607(6) 0.3778(5) -0.2614(5)
C6A C 0.0607(6) -0.3778(5) -0.2386(5)
C6C C -0.0607(6) -0.3778(5) -0.2614(5)
H4B H 0.10520 0.39950 -0.27030
H4A H 0.10520 -0.39950 -0.22970
H4C H -0.10520 -0.39950 -0.27030
N2A N 0.00000 -0.4071(5) -0.25000
N2A* N 0.00000 0.5929(5) -0.25000
N3H N 0.00000 0.00000 0.1595(5)
N3B N 0.00000 0.00000 -0.3405(5)
C7A C 0.0540(7) -0.0260(6) -0.1264(5)
C7H C 0.0540(7) -0.0260(6) 0.1264(5)
C7I C -0.0540(7) 0.0260(6) 0.1264(5)
H5A H 0.09410 -0.04420 -0.14770
H5I H -0.09410 0.04420 0.14770
H5H H 0.09410 -0.04420 0.14770
C8A C 0.0570(7) -0.0288(6) -0.0668(5)
C8H C 0.0570(7) -0.0288(6) 0.0668(5)
C8I C -0.0570(7) 0.0288(6) 0.0668(5)
H6A H 0.09680 -0.04980 -0.04790
H6I H -0.09680 0.04980 0.04790
H6H H 0.09680 -0.04980 0.04790
C9H C 0.00000 0.00000 0.0308(7)
N4H N 0.00000 0.50000 0.1593(6)
N4B N 0.00000 0.50000 -0.3407(6)
C10A C -0.0611(9) 0.5082(6) -0.1291(6)
C10H C -0.0611(9) 0.5082(6) 0.1291(6)
C10I C 0.0611(9) 0.4918(6) 0.1291(6)
H7A H -0.10650 0.51360 -0.15060
H7I H 0.10650 0.48640 0.15060
H7H H -0.10650 0.51360 0.15060
C11A C -0.0637(8) 0.5094(6) -0.0645(5)
C11H C -0.0637(8) 0.5094(6) 0.0645(5)
C11I C 0.0637(8) 0.4906(6) 0.0645(5)
H8A H -0.10980 0.51670 -0.04440
H8I H 0.10980 0.48330 0.04440
H8H H -0.10980 0.51670 0.04440
C12H C 0.00000 0.50000 0.0324(7)
O15A O -0.1400(6) 0.00000 -0.25000
O16A O 0.1587(7) 0.50000 -0.25000
#END
