
#######################################################################
#
#                 Cambridge Crystallographic Data Centre
#                                CCDC
#
#######################################################################
#
# If this CIF has been generated from an entry in the Cambridge
# Structural Database, then it will include bibliographic, chemical,
# crystal, experimental, refinement or atomic coordinate data resulting
# from the CCDC's data processing and validation procedures.
#
#######################################################################

data_CSD_CIF_TAHHIU
_audit_creation_date 2003-10-23
_audit_creation_method CSD-ConQuest-V1
_database_code_CSD TAHHIU
_database_code_depnum_ccdc_archive 'CCDC 199671'
_chemical_formula_sum 'C12 H49 La3 Mo11 N1 O51'
_chemical_formula_moiety
;
(C4 H12 N1 1+)n,n(C8 H29 La3 Mo11 O47 1-),4n(H2 O1)
;
_journal_coden_Cambridge 1220
_journal_volume 9
_journal_year 2003
_journal_page_first 2914
_journal_name_full 'Chem.-Eur.J. '
loop_
_publ_author_name
"A.Dolbecq"
"P.Mialane"
"L.Lisnard"
"J.Marrot"
"F.Secheresse"
_chemical_name_systematic
;
catena-(Diethylammonium 
bis(\m~3~-hydroxo)-hexadecakis(\m~3~-oxo)-bis(\m~2~-acetato-O,O')-bis(\m~2~-ac
etato-O,O,O')-heptakis(\m~2~-hydroxo)-tetra-aqua-decaoxo-tri-lanthanum-undeca-
molybdenum tetrahydrate)
;
_cell_volume  14585.372
_exptl_crystal_colour 'red'
_exptl_crystal_density_diffrn 2.279
_exptl_special_details
;
The cell parameters differ from those published in the paper and have been 
provided by the authors, from a further refinement; the hydroxo protons have 
been arbitrarily assigned in the diagram
;
_exptl_crystal_description 'parallelepiped'
_diffrn_ambient_temperature 293
_refine_special_details
;
The structure appears to be disordered.

;
#These two values have been output from a single CSD field.
_refine_ls_R_factor_gt 0.0548
_refine_ls_wR_factor_gt 0.0548
_symmetry_cell_setting orthorhombic
_symmetry_space_group_name_H-M 'C m c a'
_symmetry_Int_Tables_number 64
loop_
_symmetry_equiv_pos_site_id
_symmetry_equiv_pos_as_xyz
1 x,y,z
2 1/2+x,1/2+y,z
3 -x,1/2-y,1/2+z
4 -x,1/2+y,1/2-z
5 x,-y,-z
6 1/2-x,-y,1/2+z
7 1/2-x,y,1/2-z
8 1/2+x,1/2-y,-z
9 -x,-y,-z
10 -1/2-x,-1/2-y,-z
11 x,-1/2+y,-1/2-z
12 x,-1/2-y,-1/2+z
13 -x,y,z
14 -1/2+x,y,-1/2-z
15 -1/2+x,-y,-1/2+z
16 -1/2-x,-1/2+y,z
_cell_length_a 22.3044(3)
_cell_length_b 26.4499(1)
_cell_length_c 24.7231(3)
_cell_angle_alpha 90
_cell_angle_beta 90
_cell_angle_gamma 90
_cell_formula_units_Z 8
loop_
_atom_type_symbol
_atom_type_radius_bond
C 0.68
H 0.23
La 1.82
Mo 1.20
N 0.68
O 0.75
loop_
_atom_site_label
_atom_site_type_symbol
_atom_site_fract_x
_atom_site_fract_y
_atom_site_fract_z
La1 La 0.50000 0.006685(8) 0.156587(10)
O1 O 0.50000 0.00203(9) 0.05877(11)
O2 O 0.56855(9) 0.07390(7) 0.11590(8)
O3 O 0.56976(9) -0.06333(7) 0.12388(8)
O4 O 0.50000 -0.05109(13) 0.23983(14)
O5 O 0.50000 0.0718(2) 0.23435(18)
O6 O 0.4052(2) 0.01471(19) 0.21940(17)
Mo1 Mo 0.442993(14) 0.00000 0.00000
Mo2 Mo 0.579670(11) 0.147110(9) 0.119920(11)
Mo3 Mo 0.639840(11) 0.076220(9) 0.06974(1)
Mo4 Mo 0.640160(11) -0.070360(9) 0.07698(1)
Mo5 Mo 0.579440(11) -0.136160(9) 0.134010(11)
O7 O 0.37340(9) 0.00209(7) 0.05614(9)
O8 O 0.42474(9) 0.06845(7) -0.00293(8)
O9 O 0.50000 0.15151(10) 0.06171(12)
O10 O 0.62477(10) 0.15705(9) 0.17299(9)
O11 O 0.63209(9) 0.14890(7) 0.05635(9)
O12 O 0.50000 0.14992(11) 0.16505(12)
O13 O 0.56264(9) 0.22356(7) 0.10277(9)
O14 O 0.69961(10) 0.07000(8) 0.11011(10)
O15 O 0.69025(9) 0.07851(9) -0.00390(8)
O16 O 0.62965(9) -0.14344(7) 0.07017(9)
O17 O 0.70066(10) -0.06182(8) 0.11626(9)
O18 O 0.56123(9) -0.21381(7) 0.12550(9)
O19 O 0.50000 -0.14606(10) 0.07675(11)
O20 O 0.50000 -0.13496(11) 0.17938(12)
O21 O 0.62469(11) -0.14329(9) 0.1878(1)
Mo6 Mo 0.50000 0.236194(13) 0.041510(16)
La2 La 0.676440(8) 0.204210(7) -0.010490(8)
Mo7 Mo 0.50000 -0.231630(13) 0.063720(15)
O22 O 0.56363(9) 0.22188(8) -0.01056(8)
O23 O 0.50000 0.29885(11) 0.04900(14)
O24 O 0.66072(11) 0.26789(9) 0.06323(11)
O25 O 0.76934(12) 0.20769(10) 0.04271(11)
O26 O 0.84135(12) 0.23761(10) 0.09246(12)
O27 O 0.73981(12) 0.31817(11) 0.07109(12)
O28 O 0.50000 -0.29325(11) 0.07762(14)
C1 C 0.6893(2) 0.30384(17) 0.08350(18)
C2 C 0.79924(17) 0.20812(14) 0.08677(17)
C3 C 0.6612(3) 0.3302(3) 0.1288(3)
C4 C 0.7822(3) 0.1730(3) 0.1317(3)
H1 H 0.66790 0.36590 0.12530
H2 H 0.61890 0.32360 0.12880
H3 H 0.67830 0.31850 0.16210
H4 H 0.81380 0.17210 0.15810
H5 H 0.74600 0.18470 0.14850
H6 H 0.77600 0.13960 0.11740
N1 N 0.00000 0.2527(4) 0.2386(4)
H7 H 0.00000 0.24360 0.20360
H8 H 0.00000 0.28680 0.23740
C5 C 0.0642(3) 0.2456(4) 0.2491(5)
H9 H 0.06160 0.20960 0.25610
H10 H 0.06370 0.26030 0.28500
C6 C 0.1313(4) 0.2467(5) 0.2427(6)
H11 H 0.14600 0.21290 0.23760
H12 H 0.14910 0.26090 0.27460
H13 H 0.14170 0.26700 0.21190
O29 O 0.25000 0.4180(6) 0.25000
O30 O 0.25000 0.0796(7) 0.25000
O31 O 0.3141(7) 0.5003(4) 0.1231(6)
O32 O 0.50000 0.4082(19) -0.0306(19)
O33 O 0.5997(14) 0.3970(11) -0.0390(12)
O34 O 0.4051(8) 0.0854(7) 0.3003(7)
O35 O 0.2240(3) 0.00000 0.00000
O36? O 0.4347(4) 0.0571(3) 0.2461(4)
O37? O 0.2742(7) 0.0055(4) 0.2346(6)
O38? O 0.573(3) 0.432(3) -0.010(2)
O39? O 0.1986(10) 0.4482(7) 0.2527(9)
O2L O 0.43145(9) 0.07390(7) 0.11590(8)
O3L O 0.43024(9) -0.06333(7) 0.12388(8)
O6L O 0.5948(2) 0.01471(19) 0.21940(17)
Mo2L Mo 0.420330(11) 0.147110(9) 0.119920(11)
Mo3L Mo 0.360160(11) 0.076220(9) 0.06974(1)
Mo4L Mo 0.359840(11) -0.070360(9) 0.07698(1)
Mo5L Mo 0.420560(11) -0.136160(9) 0.134010(11)
O7L O 0.62660(9) 0.00209(7) 0.05614(9)
O8L O 0.57526(9) 0.06845(7) -0.00293(8)
O10L O 0.37523(10) 0.15705(9) 0.17299(9)
O11L O 0.36791(9) 0.14890(7) 0.05635(9)
O13L O 0.43736(9) 0.22356(7) 0.10277(9)
O14L O 0.30039(10) 0.07000(8) 0.11011(10)
O15L O 0.30975(9) 0.07851(9) -0.00390(8)
O16L O 0.37035(9) -0.14344(7) 0.07017(9)
O17L O 0.29934(10) -0.06182(8) 0.11626(9)
O18L O 0.43877(9) -0.21381(7) 0.12550(9)
O21L O 0.37531(11) -0.14329(9) 0.1878(1)
La2L La 0.323560(8) 0.204210(7) -0.010490(8)
O22L O 0.43637(9) 0.22188(8) -0.01056(8)
O24L O 0.33928(11) 0.26789(9) 0.06323(11)
O25L O 0.23066(12) 0.20769(10) 0.04271(11)
O26L O 0.15865(12) 0.23761(10) 0.09246(12)
O27L O 0.26019(12) 0.31817(11) 0.07109(12)
C1L C 0.3107(2) 0.30384(17) 0.08350(18)
C2L C 0.20076(17) 0.20812(14) 0.08677(17)
C3L C 0.3388(3) 0.3302(3) 0.1288(3)
C4L C 0.2178(3) 0.1730(3) 0.1317(3)
H1L H 0.33210 0.36590 0.12530
H2L H 0.38110 0.32360 0.12880
H3L H 0.32170 0.31850 0.16210
H4L H 0.18620 0.17210 0.15810
H5L H 0.25400 0.18470 0.14850
H6L H 0.22400 0.13960 0.11740
O1H O 0.50000 -0.00203(9) -0.05877(11)
Mo1L Mo 0.557007(14) 0.00000 0.00000
Mo4H Mo 0.359840(11) 0.070360(9) -0.07698(1)
Mo4D Mo 0.640160(11) 0.070360(9) -0.07698(1)
O7D O 0.37340(9) -0.00209(7) -0.05614(9)
O8H O 0.57526(9) -0.06845(7) 0.00293(8)
O8D O 0.42474(9) -0.06845(7) 0.00293(8)
O15H O 0.30975(9) -0.07851(9) 0.00390(8)
O15D O 0.69025(9) -0.07851(9) 0.00390(8)
O16H O 0.37035(9) 0.14344(7) -0.07017(9)
O16D O 0.62965(9) 0.14344(7) -0.07017(9)
La2H La 0.323560(8) -0.204210(7) 0.010490(8)
La2I La 0.823560(8) 0.295790(7) 0.010490(8)
La2D La 0.676440(8) -0.204210(7) 0.010490(8)
La2G La 0.176440(8) 0.295790(7) 0.010490(8)
Mo7H Mo 0.50000 0.231630(13) -0.063720(15)
O22H O 0.43637(9) -0.22188(8) 0.01056(8)
O22D O 0.56363(9) -0.22188(8) 0.01056(8)
O25I O 0.73066(12) 0.29231(10) -0.04271(11)
O25G O 0.26934(12) 0.29231(10) -0.04271(11)
O26I O 0.65865(12) 0.26239(10) -0.09246(12)
O26G O 0.34135(12) 0.26239(10) -0.09246(12)
O27I O 0.76019(12) 0.18183(11) -0.07109(12)
O27G O 0.23981(12) 0.18183(11) -0.07109(12)
C5L C -0.0642(3) 0.2456(4) 0.2491(5)
H9L H -0.06160 0.20960 0.25610
H10L H -0.06370 0.26030 0.28500
C6L C -0.1313(4) 0.2467(5) 0.2427(6)
H11L H -0.14600 0.21290 0.23760
H12L H -0.14910 0.26090 0.27460
H13L H -0.14170 0.26700 0.21190
#END
