
#######################################################################
#
#                 Cambridge Crystallographic Data Centre
#                                CCDC
#
#######################################################################
#
# If this CIF has been generated from an entry in the Cambridge
# Structural Database, then it will include bibliographic, chemical,
# crystal, experimental, refinement or atomic coordinate data resulting
# from the CCDC's data processing and validation procedures.
#
#######################################################################

data_CSD_CIF_TAHSII
_audit_creation_date 2020-11-17
_audit_creation_method CSD-ConQuest-V1
_database_code_CSD TAHSII
_database_code_depnum_ccdc_archive 'CCDC 1570412'
_chemical_formula_sum 'C2 H8 Co2 F4 N2 O4'
_chemical_formula_moiety
;
2(H4 N1 1+),n(C2 Co2 F4 O4 2-)
;
_journal_coden_Cambridge 9
_journal_volume 59
_journal_year 2020
_journal_page_first 16936
_journal_name_full 'Inorg.Chem. '
loop_
_publ_author_name
"Jinghua Cai"
"Yuanqi Lan"
"Haiyan He"
"Xinyuan Zhang"
"A.Robert Armstrong"
"Wenjiao Yao"
"Philip Lightfoot"
"Yongbing Tang"
_chemical_name_systematic
;
catena-[ammonium tetrakis(\m-fluoro)-(\m-oxalato)-di-cobalt(ii)]
;
_cell_volume    402.754
_exptl_crystal_colour 'purple'
_exptl_crystal_density_diffrn 2.622
_exptl_crystal_description 'Block'
_diffrn_ambient_temperature 173
#These two values have been output from a single CSD field.
_refine_ls_R_factor_gt 0.0169
_refine_ls_wR_factor_gt 0.0169
_symmetry_cell_setting orthorhombic
_symmetry_space_group_name_H-M 'C m m m'
_symmetry_Int_Tables_number 65
loop_
_symmetry_equiv_pos_site_id
_symmetry_equiv_pos_as_xyz
1 x,y,z
2 -x,-y,z
3 -x,y,-z
4 x,-y,-z
5 1/2+x,1/2+y,z
6 1/2-x,1/2-y,z
7 1/2-x,1/2+y,-z
8 1/2+x,1/2-y,-z
9 -x,-y,-z
10 x,y,-z
11 x,-y,z
12 -x,y,z
13 -1/2-x,-1/2-y,-z
14 -1/2+x,-1/2+y,-z
15 -1/2+x,-1/2-y,z
16 -1/2-x,-1/2+y,z
_cell_length_a 6.1074(5)
_cell_length_b 16.3644(14)
_cell_length_c 4.0298(3)
_cell_angle_alpha 90
_cell_angle_beta 90
_cell_angle_gamma 90
_cell_formula_units_Z 2
loop_
_atom_type_symbol
_atom_type_radius_bond
C 0.68
H 0.23
Co 1.26
F 0.64
N 0.68
O 0.68
loop_
_atom_site_label
_atom_site_type_symbol
_atom_site_fract_x
_atom_site_fract_y
_atom_site_fract_z
Co1 Co 0.50000 0.33243(2) 0.50000
F1 F 0.25000 0.25000 0.50000
F2 F 0.50000 0.32950(13) 0.00000
O1 O 0.7202(3) 0.43173(9) 0.50000
C1 C 0.6286(5) 0.50000 0.50000
N1 N 0.50000 0.1492(2) 0.00000
H1 H 0.50000 0.117(4) -0.152(16)
H2 H 0.405(9) 0.173(3) 0.00000
O1A O 0.2798(3) 0.56827(9) 0.50000
C1A C 0.3714(5) 0.50000 0.50000
O1B O 0.2798(3) 0.43173(9) 0.50000
O1C O 0.7202(3) 0.56827(9) 0.50000
Co1A Co 0.50000 0.66757(2) 0.50000
F1A F 0.75000 0.75000 0.50000
F2A F 0.50000 0.67050(13) 0.00000
Co1* Co 0.50000 0.33243(2) -0.50000
Co1A* Co 0.50000 0.66757(2) -0.50000
Co1D Co 1.00000 0.83243(2) 0.50000
Co1E Co 0.00000 0.16757(2) 0.50000
F1B F 0.75000 0.25000 0.50000
F1C F 0.25000 0.75000 0.50000
F2* F 0.50000 0.32950(13) 1.00000
F2A* F 0.50000 0.67050(13) 1.00000
H1B H 0.50000 0.117(4) 0.152(16)
H2B H 0.595(9) 0.173(3) 0.00000
#END
