
#######################################################################
#
#                 Cambridge Crystallographic Data Centre
#                                CCDC
#
#######################################################################
#
# If this CIF has been generated from an entry in the Cambridge
# Structural Database, then it will include bibliographic, chemical,
# crystal, experimental, refinement or atomic coordinate data resulting
# from the CCDC's data processing and validation procedures.
#
#######################################################################

data_CSD_CIF_TAJPUR
_audit_creation_date 2011-03-31
_audit_creation_method CSD-ConQuest-V1
_database_code_CSD TAJPUR
_database_code_depnum_ccdc_archive 'CCDC 778871'
_chemical_formula_sum 'C8 H11 N1 O7 P2 V1'
_chemical_formula_moiety
;
(C6 H5 O7 P2 V1 1-)n,0.5n(C4 H12 N2 2+)
;
_journal_coden_Cambridge 155
_journal_volume 363
_journal_year 2010
_journal_page_first 4065
_journal_name_full 'Inorg.Chim.Acta '
loop_
_publ_author_name
"P.DeBurgomaster"
"Hongxue Liu"
"W.Ouellette"
"C.J.O'Connor"
"J.Zubieta"
_chemical_name_systematic
;
catena-(hemikis(piperazine-1,4-diium) (\m~4~-1,4-phenylene 
hydrogenbis(phosphonato))-oxo-vanadium)
;
_cell_volume   2342.676
_exptl_crystal_colour 'blue'
_exptl_crystal_density_diffrn 1.962
_exptl_crystal_description 'needle'
_diffrn_ambient_temperature 90
#These two values have been output from a single CSD field.
_refine_ls_R_factor_gt 0.0455
_refine_ls_wR_factor_gt 0.0455
_symmetry_cell_setting orthorhombic
_symmetry_space_group_name_H-M 'P b c a'
_symmetry_Int_Tables_number 61
loop_
_symmetry_equiv_pos_site_id
_symmetry_equiv_pos_as_xyz
1 x,y,z
2 1/2+x,1/2-y,-z
3 -x,1/2+y,1/2-z
4 1/2-x,-y,1/2+z
5 -x,-y,-z
6 -1/2-x,-1/2+y,z
7 x,-1/2-y,-1/2+z
8 -1/2+x,y,-1/2-z
_cell_length_a 13.7599(9)
_cell_length_b 6.0567(5)
_cell_length_c 28.110(2)
_cell_angle_alpha 90
_cell_angle_beta 90
_cell_angle_gamma 90
_cell_formula_units_Z 8
loop_
_atom_type_symbol
_atom_type_radius_bond
C 0.68
H 0.23
N 0.68
O 0.68
P 1.05
V 1.29
loop_
_atom_site_label
_atom_site_type_symbol
_atom_site_fract_x
_atom_site_fract_y
_atom_site_fract_z
V1 V -0.13027(5) 0.10806(17) 0.38508(3)
P1 P 0.10989(8) 0.0518(3) 0.38658(5)
P2 P 0.14800(9) 0.1107(3) 0.16023(5)
O1 O 0.1435(2) -0.1769(7) 0.40125(12)
O2 O 0.1773(2) 0.2400(7) 0.40603(12)
O3 O 0.0105(2) 0.1165(6) 0.40619(12)
O4 O 0.2581(2) 0.1144(6) 0.15714(12)
O5 O 0.1033(2) -0.0866(6) 0.13454(12)
O6 O 0.0984(2) 0.3205(7) 0.14073(12)
O7 O -0.1796(2) 0.0926(7) 0.43597(12)
N1 N 0.4700(3) 0.4541(9) 0.95214(16)
H1 H 0.44560 0.35770 0.92990
H2 H 0.48090 0.58750 0.93740
C1 C 0.1128(3) 0.0653(11) 0.32328(19)
C2 C 0.1465(3) -0.113(1) 0.29628(19)
H3 H 0.16590 -0.24490 0.31190
C3 C 0.1522(3) -0.1006(10) 0.24702(19)
H4 H 0.17470 -0.22420 0.22940
C4 C 0.1248(3) 0.0934(10) 0.22305(19)
C5 C 0.0896(3) 0.2721(11) 0.24941(19)
H5 H 0.06930 0.40280 0.23360
C6 C 0.0842(3) 0.2593(11) 0.29906(18)
H6 H 0.06100 0.38230 0.31670
C7 C 0.5632(4) 0.3667(11) 0.97126(19)
H7 H 0.61110 0.35340 0.94510
H8 H 0.55240 0.21790 0.98480
C8 C 0.3978(4) 0.4837(12) 0.9912(2)
H9 H 0.33710 0.54680 0.97810
H10 H 0.38220 0.33840 1.00540
V1G V 0.36973(5) 0.10806(17) 0.11492(3)
V1B V 0.13027(5) -0.39194(17) 0.11492(3)
V1B* V 0.13027(5) 0.60806(17) 0.11492(3)
O4G O -0.2419(2) 0.1144(6) 0.34286(12)
O5B O -0.1033(2) 0.4134(6) 0.36546(12)
O6B O -0.0984(2) -0.1795(7) 0.35927(12)
N1D N 0.5300(3) 0.5459(9) 1.04786(16)
H1D H 0.55440 0.64230 1.07010
H2D H 0.51910 0.41250 1.06260
C7D C 0.4368(4) 0.6333(11) 1.02874(19)
H7D H 0.38890 0.64660 1.05490
H8D H 0.44760 0.78210 1.01520
C8D C 0.6022(4) 0.5163(12) 1.0088(2)
H9D H 0.66290 0.45320 1.02190
H10D H 0.61780 0.66160 0.99460
#END
