
#######################################################################
#
#                 Cambridge Crystallographic Data Centre
#                                CCDC
#
#######################################################################
#
# If this CIF has been generated from an entry in the Cambridge
# Structural Database, then it will include bibliographic, chemical,
# crystal, experimental, refinement or atomic coordinate data resulting
# from the CCDC's data processing and validation procedures.
#
#######################################################################

data_CSD_CIF_TAJPOL
_audit_creation_date 2011-03-31
_audit_creation_method CSD-ConQuest-V1
_database_code_CSD TAJPOL
_database_code_depnum_ccdc_archive 'CCDC 778870'
_chemical_formula_sum 'C7 H10 N1 O7 P2 V1'
_chemical_formula_moiety
;
(C6 H5 O7 P2 V1 1-)n,0.5n(C2 H10 N2 2+)
;
_journal_coden_Cambridge 155
_journal_volume 363
_journal_year 2010
_journal_page_first 4065
_journal_name_full 'Inorg.Chim.Acta '
loop_
_publ_author_name
"P.DeBurgomaster"
"Hongxue Liu"
"W.Ouellette"
"C.J.O'Connor"
"J.Zubieta"
_chemical_name_systematic
;
catena-(hemikis(ethane-1,2-diaminium) (\m~4~-1,4-phenylene 
hydrogenbis(phosphonato))-oxo-vanadium)
;
_cell_volume   2163.960
_exptl_crystal_colour 'green'
_exptl_crystal_density_diffrn 2.044
_exptl_crystal_description 'needle'
_diffrn_ambient_temperature 90
#These two values have been output from a single CSD field.
_refine_ls_R_factor_gt 0.0267
_refine_ls_wR_factor_gt 0.0267
_symmetry_cell_setting orthorhombic
_symmetry_space_group_name_H-M 'P b c a'
_symmetry_Int_Tables_number 61
loop_
_symmetry_equiv_pos_site_id
_symmetry_equiv_pos_as_xyz
1 x,y,z
2 1/2+x,1/2-y,-z
3 -x,1/2+y,1/2-z
4 1/2-x,-y,1/2+z
5 -x,-y,-z
6 -1/2-x,-1/2+y,z
7 x,-1/2-y,-1/2+z
8 -1/2+x,y,-1/2-z
_cell_length_a 13.9612(4)
_cell_length_b 6.0122(1)
_cell_length_c 25.7806(7)
_cell_angle_alpha 90
_cell_angle_beta 90
_cell_angle_gamma 90
_cell_formula_units_Z 8
loop_
_atom_type_symbol
_atom_type_radius_bond
C 0.68
H 0.23
N 0.68
O 0.68
P 1.05
V 1.32
loop_
_atom_site_label
_atom_site_type_symbol
_atom_site_fract_x
_atom_site_fract_y
_atom_site_fract_z
V1 V 0.87117(3) 0.05918(6) 0.104179(14)
P1 P 0.84923(4) 0.55771(8) 0.15388(2)
P2 P 0.88991(4) 0.53864(9) 0.40046(2)
O1 O 0.89769(11) 0.3524(3) 0.13114(6)
O2 O 0.74104(11) 0.5566(2) 0.14978(6)
O3 O 0.89543(11) 0.7601(2) 0.12806(6)
O4 O 0.99202(11) 0.5634(2) 0.41879(6)
O5 O 0.85732(11) 0.2972(3) 0.41605(7)
O6 O 0.82260(11) 0.7118(3) 0.42215(6)
O7 O 0.82204(11) 0.0683(3) 0.04788(6)
N1 N 0.36713(14) 0.5290(3) 0.49492(8)
H1 H 0.35580 0.38160 0.50020
H2 H 0.32910 0.57930 0.46880
H3 H 0.35390 0.60570 0.52450
C1 C 0.87267(15) 0.5610(3) 0.22246(8)
C2 C 0.84431(16) 0.7448(4) 0.25179(9)
H4 H 0.82070 0.87420 0.23490
C3 C 0.85037(16) 0.7395(4) 0.30548(9)
H5 H 0.83120 0.86530 0.32520
C4 C 0.88470(15) 0.5494(3) 0.33067(9)
C5 C 0.91475(16) 0.3671(4) 0.30110(9)
H6 H 0.93920 0.23830 0.31790
C6 C 0.90909(16) 0.3732(4) 0.24753(9)
H7 H 0.93010 0.24920 0.22770
C7 C 0.46936(16) 0.5620(4) 0.48067(9)
H8 H 0.48530 0.72240 0.48130
H9 H 0.48130 0.50490 0.44520
V1E V 0.62883(3) 0.55918(6) 0.104179(14)
V1* V 0.87117(3) 1.05918(6) 0.104179(14)
V1B V 1.12883(3) 0.55918(6) 0.395821(14)
O2E O 0.75896(11) 0.0566(2) 0.14978(6)
O3* O 0.89543(11) -0.2399(2) 0.12806(6)
O4B O 1.00798(11) 0.0634(2) 0.08121(6)
N1D N 0.63287(14) 0.4710(3) 0.50508(8)
H1D H 0.64420 0.61840 0.49980
H2D H 0.67090 0.42070 0.53120
H3D H 0.64610 0.39430 0.47550
C7D C 0.53064(16) 0.4380(4) 0.51933(9)
H8D H 0.51470 0.27760 0.51870
H9D H 0.51870 0.49510 0.55480
#END
