
#######################################################################
#
#                 Cambridge Crystallographic Data Centre
#                                CCDC
#
#######################################################################
#
# If this CIF has been generated from an entry in the Cambridge
# Structural Database, then it will include bibliographic, chemical,
# crystal, experimental, refinement or atomic coordinate data resulting
# from the CCDC's data processing and validation procedures.
#
#######################################################################

data_CSD_CIF_TAJQEC
_audit_creation_date 2011-03-31
_audit_creation_method CSD-ConQuest-V1
_database_code_CSD TAJQEC
_database_code_depnum_ccdc_archive 'CCDC 778873'
_chemical_formula_sum 'C24 H42 F6 N4 O18 P4 V4'
_chemical_formula_moiety
;
(C12 H14 F6 O18 P4 V4 4-)n,2n(C6 H14 N2 2+)
;
_journal_coden_Cambridge 155
_journal_volume 363
_journal_year 2010
_journal_page_first 4065
_journal_name_full 'Inorg.Chim.Acta '
loop_
_publ_author_name
"P.DeBurgomaster"
"Hongxue Liu"
"W.Ouellette"
"C.J.O'Connor"
"J.Zubieta"
_chemical_name_systematic
;
catena-(bis(1,4-Diazoniabicyclo[2.2.2]octane) 
bis(\m~4~-1,4-phenylenebis(phosphonato))-tetrakis(\m~2~-fluoro)-diaqua-difluor
o-tetra-oxo-tetra-vanadium)
;
_cell_volume   1826.305
_exptl_crystal_colour 'green'
_exptl_crystal_density_diffrn 2.03
_exptl_crystal_description 'plate'
_diffrn_ambient_temperature 90
#These two values have been output from a single CSD field.
_refine_ls_R_factor_gt 0.0436
_refine_ls_wR_factor_gt 0.0436
_symmetry_cell_setting monoclinic
_symmetry_space_group_name_H-M 'P 21/c'
_symmetry_Int_Tables_number 14
loop_
_symmetry_equiv_pos_site_id
_symmetry_equiv_pos_as_xyz
1 x,y,z
2 -x,1/2+y,1/2-z
3 -x,-y,-z
4 x,-1/2-y,-1/2+z
_cell_length_a 10.0173(9)
_cell_length_b 19.8278(17)
_cell_length_c 10.0473(9)
_cell_angle_alpha 90
_cell_angle_beta 113.771(2)
_cell_angle_gamma 90
_cell_formula_units_Z 2
loop_
_atom_type_symbol
_atom_type_radius_bond
C 0.68
H 0.23
F 0.64
N 0.68
O 0.68
P 1.05
V 1.31
loop_
_atom_site_label
_atom_site_type_symbol
_atom_site_fract_x
_atom_site_fract_y
_atom_site_fract_z
C1 C 0.4660(3) 0.06193(14) 1.0442(3)
V1 V 0.28701(5) 0.25997(2) 0.73871(5)
V2 V 0.26825(5) 0.10894(2) 0.49708(5)
P1 P 0.00944(7) 0.36448(3) 0.67902(7)
P2 P 0.51163(7) 0.13468(3) 0.82832(7)
F1 F 0.19426(17) 0.19330(8) 0.58641(17)
F2 F 0.34077(17) 0.31324(8) 0.91588(17)
F3 F 0.19739(18) 0.05531(9) 0.59976(19)
O1 O 0.1065(2) 0.31496(10) 0.6437(2)
O2 O -0.1481(2) 0.34022(10) 0.6302(2)
O3 O 0.0651(2) 0.37979(10) 0.8422(2)
O4 O 0.4635(2) 0.11777(9) 0.6670(2)
O5 O 0.6718(2) 0.15704(10) 0.8810(2)
O6 O 0.4159(2) 0.18663(10) 0.8586(2)
O7 O 0.3924(2) 0.29648(10) 0.6764(2)
O8 O 0.3240(2) 0.05220(9) 0.4058(2)
O9 O 0.1441(3) 0.20963(12) 0.8501(2)
N1 N 0.6781(3) 0.12884(12) 0.5695(3)
N2 N 0.8745(3) 0.12646(12) 0.4769(3)
C2 C 0.0059(3) 0.44103(13) 0.5802(3)
C3 C 0.1038(3) 0.45093(14) 0.5150(3)
H1 H 0.17530 0.41760 0.52510
C4 C -0.0978(3) 0.49089(14) 0.5645(3)
H2 H -0.16490 0.48500 0.60860
C5 C 0.5029(3) 0.05911(13) 0.9238(3)
C6 C 0.4624(3) 0.00349(14) 1.1195(3)
H3 H 0.43640 0.00600 1.20050
H4 H 0.44310 0.10410 1.07470
C7 C 0.6248(3) 0.09079(14) 0.4283(3)
H5 H 0.52850 0.10830 0.36140
H6 H 0.61420 0.04230 0.44570
C8 C 0.7146(3) 0.19976(14) 0.5462(3)
H7 H 0.73340 0.22710 0.63450
H8 H 0.63240 0.22030 0.46390
C9 C 0.8110(3) 0.09531(15) 0.6802(3)
H9 H 0.78380 0.05190 0.71130
H10 H 0.85570 0.12460 0.76690
C10 C 0.8517(3) 0.19760(14) 0.5131(3)
H11 H 0.83890 0.22760 0.43000
H12 H 0.93760 0.21330 0.59870
C11 C 0.7365(3) 0.10010(15) 0.3613(3)
H13 H 0.75510 0.05650 0.32400
H14 H 0.69890 0.13240 0.27920
C12 C 0.9193(3) 0.08309(15) 0.6099(3)
H15 H 1.01930 0.09490 0.67900
H16 H 0.91810 0.03500 0.58310
H17 H 0.747(8) 0.162(4) 0.988(7)
H18 H 0.607(4) 0.1291(18) 0.599(4)
H19 H 0.936(5) 0.129(2) 0.446(5)
H20 H 0.124(7) 0.236(3) 0.908(7)
H21 H 0.206(5) 0.182(3) 0.907(5)
C1B C 0.5340(3) -0.06193(14) 0.9558(3)
V1B V -0.28701(5) 0.74003(2) 0.26129(5)
V1B* V 0.71299(5) -0.25997(2) 1.26129(5)
V1C V 0.28701(5) 0.24003(2) 0.23871(5)
V2B V 0.73175(5) -0.10894(2) 1.50292(5)
V2C V 0.26825(5) 0.39106(2) 0.99708(5)
V2A V -0.26825(5) 0.60894(2) 0.00292(5)
V2B* V -0.26825(5) 0.89106(2) 0.50292(5)
P1B P -0.00944(7) 0.63552(3) 0.32098(7)
P2B P 0.48837(7) -0.13468(3) 1.17168(7)
F1B F -0.19426(17) 0.80670(8) 0.41359(17)
F1B* F 0.80574(17) -0.19330(8) 1.41359(17)
F2C F 0.34077(17) 0.18676(8) 0.41588(17)
F2B F -0.34077(17) 0.68676(8) 0.08412(17)
F2A F 0.65923(17) -0.18676(8) 1.58412(17)
F3B F 0.80261(18) -0.05531(9) 1.40024(19)
O1B O -0.1065(2) 0.68504(10) 0.3563(2)
O2B O 0.1481(2) 0.65978(10) 0.3698(2)
O3B O -0.0651(2) 0.62021(10) 0.1578(2)
O3C O 0.0651(2) 0.12021(10) 0.3422(2)
O3A O 0.9349(2) -0.12021(10) 1.6578(2)
O4B O 0.5365(2) -0.11777(9) 1.3330(2)
O5B O 0.3282(2) -0.15704(10) 1.1190(2)
O6B O 0.5841(2) -0.18663(10) 1.1414(2)
O6B* O -0.4159(2) 0.81337(10) 0.1414(2)
O7B O -0.3924(2) 0.70352(10) 0.3236(2)
O8B O 0.6760(2) -0.05220(9) 1.5942(2)
O9B O -0.1441(3) 0.79037(12) 0.1499(2)
C2B C -0.0059(3) 0.55897(13) 0.4198(3)
C3B C -0.1038(3) 0.54907(14) 0.4850(3)
H1B H -0.17530 0.58240 0.47490
C4B C 0.0978(3) 0.50911(14) 0.4355(3)
H2B H 0.16490 0.51500 0.39140
C5B C 0.4971(3) -0.05911(13) 1.0762(3)
C6B C 0.5376(3) -0.00349(14) 0.8805(3)
H3B H 0.56360 -0.00600 0.79950
H4B H 0.55690 -0.10410 0.92530
H17B H 0.253(8) -0.162(4) 1.012(7)
H20B H -0.124(7) 0.764(3) 0.092(7)
H21B H -0.206(5) 0.818(3) 0.093(5)
#END
