
#######################################################################
#
#                 Cambridge Crystallographic Data Centre
#                                CCDC
#
#######################################################################
#
# If this CIF has been generated from an entry in the Cambridge
# Structural Database, then it will include bibliographic, chemical,
# crystal, experimental, refinement or atomic coordinate data resulting
# from the CCDC's data processing and validation procedures.
#
#######################################################################

data_CSD_CIF_TAKSOR
_audit_creation_date 2020-11-17
_audit_creation_method CSD-ConQuest-V1
_database_code_CSD TAKSOR
_database_code_depnum_ccdc_archive 'CCDC 1982994'
_chemical_formula_sum 'C92 H50 Cl4 Cr1 F32 N4 O16 Ru4'
_chemical_formula_moiety
;
(C68 H12 F32 N4 O16 Ru4 1-)n,C20 H30 Cr1 1+,2(C2 H4 Cl2)
;
_journal_coden_Cambridge 1220
_journal_volume 26
_journal_year 2020
_journal_page_first 16755
_journal_name_full 'Chem.-Eur.J. '
loop_
_publ_author_name
"H.Fukunaga"
"W.Kosaka"
"H.Nemoto"
"Kouji Taniguchi"
"S.Kawaguchi"
"K.Sugimoto"
"H.Miyasaka"
_chemical_name_systematic
;
catena-[decamethylchromocenium 
(\m-2,2'-(cyclohexa-2,5-diene-1,4-diylidene)dipropanedinitrile radical 
anion)-octakis(\m-2,3,5,6-tetrafluorobenzoato)-tetra-ruthenium(ii) 
1,2-dichloroethane solvate]
;
_cell_volume   2349.069
_exptl_crystal_colour 'brown'
_exptl_crystal_density_diffrn 1.88
_exptl_special_details
;
Isostructural with the ferrocene and cobaltocene analogues.

;
_exptl_crystal_description 'platelet'
_diffrn_ambient_temperature 98
_refine_special_details
;
1,2-dichloroethane molecule is disordered over two positions.

;
#These two values have been output from a single CSD field.
_refine_ls_R_factor_gt 0.086
_refine_ls_wR_factor_gt 0.086
_symmetry_cell_setting triclinic
_symmetry_space_group_name_H-M 'P -1'
_symmetry_Int_Tables_number 2
loop_
_symmetry_equiv_pos_site_id
_symmetry_equiv_pos_as_xyz
1 x,y,z
2 -x,-y,-z
_cell_length_a 10.654(2)
_cell_length_b 14.302(3)
_cell_length_c 16.197(3)
_cell_angle_alpha 81.839(8)
_cell_angle_beta 77.445(7)
_cell_angle_gamma 78.639(8)
_cell_formula_units_Z 1
loop_
_atom_type_symbol
_atom_type_radius_bond
C 0.68
H 0.23
Cl 0.99
Cr 1.39
F 0.64
N 0.68
O 0.68
Ru 1.46
loop_
_atom_site_label
_atom_site_type_symbol
_atom_site_fract_x
_atom_site_fract_y
_atom_site_fract_z
Ru1 Ru 0.53029(6) 0.06508(4) 0.45573(4)
Ru2 Ru 0.51081(6) 0.49541(4) 0.06943(3)
F1 F 0.8327(5) -0.1904(3) 0.6613(3)
F2 F 1.0461(5) -0.1986(3) 0.7214(3)
F3 F 1.0837(5) 0.1150(3) 0.5951(3)
F4 F 0.8688(5) 0.1290(3) 0.5381(3)
F5 F 0.4216(6) -0.2113(4) 0.3404(3)
F6 F 0.4761(8) -0.3264(4) 0.2184(3)
F7 F 0.8960(7) -0.2420(5) 0.1276(4)
F8 F 0.8446(5) -0.1276(4) 0.2521(3)
F9 F 0.6897(9) 0.1849(4) 0.1278(4)
F10 F 0.8049(9) 0.0069(4) 0.1120(5)
F11 F 0.8876(10) 0.0717(6) -0.1845(5)
F12 F 0.7731(8) 0.2517(6) -0.1711(4)
F13 F 0.0552(5) 0.5497(3) 0.1306(4)
F14 F -0.1814(5) 0.4981(4) 0.1778(4)
F15 F -0.0076(6) 0.1984(4) 0.0723(4)
F16 F 0.2286(5) 0.2494(3) 0.0255(3)
O1 O 0.7027(5) 0.0422(3) 0.5005(3)
O2 O 0.6433(5) -0.0833(3) 0.5893(3)
O3 O 0.6140(5) -0.0196(3) 0.3571(3)
O4 O 0.5526(5) -0.1468(3) 0.4441(3)
O5 O 0.6237(5) 0.3599(4) 0.0570(3)
O6 O 0.5982(5) 0.3688(4) -0.0779(3)
O7 O 0.3372(5) 0.4411(4) 0.1068(3)
O8 O 0.3187(5) 0.4472(4) -0.0300(3)
N1 N 0.5820(6) 0.2046(4) 0.3807(4)
N2 N 0.5328(5) 0.4679(4) 0.2080(3)
C1 C 0.7196(8) -0.0234(5) 0.5593(5)
C2 C 0.8400(8) -0.0300(5) 0.5961(5)
C3 C 0.8905(8) -0.1123(5) 0.6446(5)
C4 C 1.0021(8) -0.1161(6) 0.6762(5)
C5 C 1.0689(8) -0.0413(6) 0.6613(5)
C6 C 1.0212(8) 0.0395(6) 0.6144(5)
C7 C 0.9085(8) 0.0464(5) 0.5821(5)
C8 C 0.5971(8) -0.1061(5) 0.3735(5)
C9 C 0.6334(8) -0.1670(5) 0.3007(5)
C10 C 0.5403(10) -0.2195(5) 0.2899(5)
C11 C 0.5689(12) -0.2778(6) 0.2251(5)
C12 C 0.6853(13) -0.2873(6) 0.1705(6)
C13 C 0.7771(11) -0.2351(6) 0.1799(5)
C14 C 0.7517(10) -0.1754(6) 0.2440(5)
C15 C 0.6397(8) 0.3265(5) -0.0132(5)
C16 C 0.7174(8) 0.2266(6) -0.0213(5)
C17 C 0.7355(11) 0.1599(7) 0.0486(6)
C18 C 0.7964(11) 0.0667(6) 0.0395(7)
C19 C 0.8439(10) 0.0347(7) -0.0365(8)
C20 C 0.8355(12) 0.0995(8) -0.1056(7)
C21 C 0.774(1) 0.1939(7) -0.0994(6)
C22 C 0.2799(8) 0.4319(5) 0.0483(4)
C23 C 0.1475(8) 0.4006(5) 0.0768(4)
C24 C 0.0407(9) 0.4624(6) 0.1157(5)
C25 C -0.0804(8) 0.4359(6) 0.1393(5)
C26 C -0.1004(8) 0.3482(6) 0.1244(5)
C27 C 0.0069(9) 0.2870(6) 0.0860(5)
C28 C 0.1278(8) 0.3121(6) 0.0628(5)
C29 C 0.5636(7) 0.2879(5) 0.3712(4)
C30 C 0.5403(6) 0.3889(5) 0.3600(4)
C31 C 0.5355(6) 0.4329(5) 0.2760(4)
C32 C 0.5189(6) 0.4446(4) 0.4305(4)
C33 C 0.5299(6) 0.4003(5) 0.5136(4)
C34 C 0.5116(6) 0.4532(5) 0.5807(4)
H1 H 1.14609 -0.04545 0.68283
H2 H 0.70373 -0.32876 0.12684
H3 H 0.88189 -0.03057 -0.04199
H4 H -0.18439 0.33045 0.13980
H5 H 0.55031 0.33244 0.52277
H6 H 0.51937 0.42148 0.63548
Cr1 Cr 1.00000 0.50000 0.50000
C35 C 1.1537(6) 0.5716(5) 0.5186(5)
C36 C 1.1285(8) 0.6571(6) 0.5688(6)
C37 C 1.1794(6) 0.4731(5) 0.5505(4)
C38 C 1.1832(8) 0.4348(7) 0.6413(5)
C39 C 1.1986(6) 0.4159(5) 0.4822(5)
C40 C 1.2258(8) 0.3087(6) 0.4890(6)
C41 C 1.1849(6) 0.4794(5) 0.4073(4)
C42 C 1.1975(8) 0.4505(8) 0.3197(5)
C43 C 1.1581(6) 0.5753(5) 0.4293(5)
C44 C 1.1403(8) 0.6659(6) 0.3686(6)
H7 H 1.11375 0.71629 0.53078
H8 H 1.20421 0.65683 0.59405
H9 H 1.05113 0.65376 0.61393
H10 H 1.16724 0.48838 0.67596
H11 H 1.26917 0.39620 0.64465
H12 H 1.11574 0.39487 0.66252
H13 H 1.23496 0.28724 0.43286
H14 H 1.30688 0.28507 0.51035
H15 H 1.15350 0.28350 0.52839
H16 H 1.18360 0.50801 0.27971
H17 H 1.28501 0.41399 0.30169
H18 H 1.13206 0.41065 0.32063
H19 H 1.12296 0.72214 0.40017
H20 H 1.21993 0.66767 0.32502
H21 H 1.06663 0.66635 0.34125
Cl1 Cl 0.5019(9) -0.0605(6) 0.1050(8)
Cl2 Cl 0.3979(5) 0.2270(4) 0.1852(4)
C45 C 0.446(2) 0.0983(15) 0.2081(12)
C46 C 0.463(2) 0.040(2) 0.135(3)
C47? C 0.3527(17) 0.1183(12) 0.1412(11)
Cl3? Cl 0.3559(14) 0.0159(13) 0.1981(9)
N1A N 0.4180(6) 0.7954(4) 0.6193(4)
N2A N 0.4672(5) 0.5321(4) 0.7920(3)
C29A C 0.4364(7) 0.7121(5) 0.6288(4)
C30A C 0.4597(6) 0.6111(5) 0.6400(4)
C31A C 0.4645(6) 0.5671(5) 0.7240(4)
C32A C 0.4811(6) 0.5554(4) 0.5695(4)
C33A C 0.4701(6) 0.5997(5) 0.4864(4)
C34A C 0.4884(6) 0.5468(5) 0.4193(4)
H5A H 0.44969 0.66756 0.47723
H6A H 0.48063 0.57852 0.36452
Ru1A Ru 0.46971(6) -0.06508(4) 0.54427(4)
F1A F 0.1673(5) 0.1904(3) 0.3387(3)
F2A F -0.0461(5) 0.1986(3) 0.2786(3)
F3A F -0.0837(5) -0.1150(3) 0.4049(3)
F4A F 0.1312(5) -0.1290(3) 0.4619(3)
F5A F 0.5784(6) 0.2113(4) 0.6596(3)
F6A F 0.5239(8) 0.3264(4) 0.7816(3)
F7A F 0.1040(7) 0.2420(5) 0.8724(4)
F8A F 0.1554(5) 0.1276(4) 0.7479(3)
O1A O 0.2973(5) -0.0422(3) 0.4995(3)
O2A O 0.3567(5) 0.0833(3) 0.4107(3)
O3A O 0.3860(5) 0.0196(3) 0.6429(3)
O4A O 0.4474(5) 0.1468(3) 0.5559(3)
C1A C 0.2804(8) 0.0234(5) 0.4407(5)
C2A C 0.1600(8) 0.0300(5) 0.4039(5)
C3A C 0.1095(8) 0.1123(5) 0.3554(5)
C4A C -0.0021(8) 0.1161(6) 0.3238(5)
C5A C -0.0689(8) 0.0413(6) 0.3387(5)
C6A C -0.0212(8) -0.0395(6) 0.3856(5)
C7A C 0.0915(8) -0.0464(5) 0.4179(5)
C8A C 0.4029(8) 0.1061(5) 0.6265(5)
C9A C 0.3666(8) 0.1670(5) 0.6993(5)
C10A C 0.4597(10) 0.2195(5) 0.7101(5)
C11A C 0.4311(12) 0.2778(6) 0.7749(5)
C12A C 0.3147(13) 0.2873(6) 0.8295(6)
C13A C 0.2229(11) 0.2351(6) 0.8201(5)
C14A C 0.2483(10) 0.1754(6) 0.7560(5)
H1A H -0.14609 0.04545 0.31717
H2A H 0.29627 0.32876 0.87316
Ru2A Ru 0.48919(6) 0.50459(4) -0.06943(3)
F9A F 0.3103(9) 0.8151(4) -0.1278(4)
F10A F 0.1951(9) 0.9931(4) -0.1120(5)
F11A F 0.1124(10) 0.9283(6) 0.1845(5)
F12A F 0.2269(8) 0.7483(6) 0.1711(4)
F13A F 0.9448(5) 0.4503(3) -0.1306(4)
F14A F 1.1814(5) 0.5019(4) -0.1778(4)
F15A F 1.0076(6) 0.8016(4) -0.0723(4)
F16A F 0.7714(5) 0.7506(3) -0.0255(3)
O5A O 0.3763(5) 0.6401(4) -0.0570(3)
O6A O 0.4018(5) 0.6312(4) 0.0779(3)
O7A O 0.6628(5) 0.5589(4) -0.1068(3)
O8A O 0.6813(5) 0.5528(4) 0.0300(3)
C15A C 0.3603(8) 0.6735(5) 0.0132(5)
C16A C 0.2826(8) 0.7734(6) 0.0213(5)
C17A C 0.2645(11) 0.8401(7) -0.0486(6)
C18A C 0.2036(11) 0.9333(6) -0.0395(7)
C19A C 0.1561(10) 0.9653(7) 0.0365(8)
C20A C 0.1645(12) 0.9005(8) 0.1056(7)
C21A C 0.226(1) 0.8061(7) 0.0994(6)
C22A C 0.7201(8) 0.5681(5) -0.0483(4)
C23A C 0.8525(8) 0.5994(5) -0.0768(4)
C24A C 0.9593(9) 0.5376(6) -0.1157(5)
C25A C 1.0804(8) 0.5641(6) -0.1393(5)
C26A C 1.1004(8) 0.6518(6) -0.1244(5)
C27A C 0.9931(9) 0.7130(6) -0.0860(5)
C28A C 0.8722(8) 0.6879(6) -0.0628(5)
H3A H 0.11811 1.03057 0.04199
H4A H 1.18439 0.66955 -0.13980
Ru1A* Ru 0.46971(6) 0.93492(4) 0.54427(4)
Ru2A* Ru 0.48919(6) 0.50459(4) 0.93057(3)
N1A* N 0.4180(6) -0.2046(4) 0.6193(4)
N2A* N 0.4672(5) 0.5321(4) -0.2080(3)
C35A C 0.8463(6) 0.4284(5) 0.4814(5)
C36A C 0.8715(8) 0.3429(6) 0.4312(6)
C37A C 0.8206(6) 0.5269(5) 0.4495(4)
C38A C 0.8168(8) 0.5652(7) 0.3587(5)
C39A C 0.8014(6) 0.5841(5) 0.5178(5)
C40A C 0.7742(8) 0.6913(6) 0.5110(6)
C41A C 0.8151(6) 0.5206(5) 0.5927(4)
C42A C 0.8025(8) 0.5495(8) 0.6803(5)
C43A C 0.8419(6) 0.4247(5) 0.5707(5)
C44A C 0.8597(8) 0.3341(6) 0.6314(6)
H7A H 0.88625 0.28371 0.46922
H8A H 0.79579 0.34317 0.40595
H9A H 0.94887 0.34624 0.38607
H10A H 0.83276 0.51162 0.32404
H11A H 0.73083 0.60380 0.35535
H12A H 0.88426 0.60513 0.33748
H13A H 0.76504 0.71276 0.56714
H14A H 0.69312 0.71493 0.48965
H15A H 0.84650 0.71650 0.47161
H16A H 0.81640 0.49199 0.72029
H17A H 0.71499 0.58601 0.69831
H18A H 0.86794 0.58935 0.67937
H19A H 0.87704 0.27786 0.59983
H20A H 0.78007 0.33233 0.67498
H21A H 0.93337 0.33365 0.65875
#END
