
#######################################################################
#
#                 Cambridge Crystallographic Data Centre
#                                CCDC
#
#######################################################################
#
# If this CIF has been generated from an entry in the Cambridge
# Structural Database, then it will include bibliographic, chemical,
# crystal, experimental, refinement or atomic coordinate data resulting
# from the CCDC's data processing and validation procedures.
#
#######################################################################

data_CSD_CIF_TAKSIL
_audit_creation_date 2020-11-17
_audit_creation_method CSD-ConQuest-V1
_database_code_CSD TAKSIL
_database_code_depnum_ccdc_archive 'CCDC 1982993'
_chemical_formula_sum 'C92 H50 Cl4 Co1 F32 N4 O16 Ru4'
_chemical_formula_moiety
;
(C68 H12 F32 N4 O16 Ru4 1-)n,C20 H30 Co1 1+,2(C2 H4 Cl2)
;
_journal_coden_Cambridge 1220
_journal_volume 26
_journal_year 2020
_journal_page_first 16755
_journal_name_full 'Chem.-Eur.J. '
loop_
_publ_author_name
"H.Fukunaga"
"W.Kosaka"
"H.Nemoto"
"Kouji Taniguchi"
"S.Kawaguchi"
"K.Sugimoto"
"H.Miyasaka"
_chemical_name_systematic
;
catena-[decamethylcobaltocenium 
(\m-2,2'-(cyclohexa-2,5-diene-1,4-diylidene)dipropanedinitrile radical 
anion)-octakis(\m-2,3,5,6-tetrafluorobenzoato)-tetra-ruthenium(ii) 
1,2-dichloroethane solvate]
;
_cell_volume   2329.399
_exptl_crystal_colour 'brown'
_exptl_crystal_density_diffrn 1.911
_exptl_special_details
;
Isostructural with the ferrocene and chromocene analogues.

;
_exptl_crystal_description 'block'
_diffrn_ambient_temperature 112
#These two values have been output from a single CSD field.
_refine_ls_R_factor_gt 0.0823
_refine_ls_wR_factor_gt 0.0823
_symmetry_cell_setting triclinic
_symmetry_space_group_name_H-M 'P -1'
_symmetry_Int_Tables_number 2
loop_
_symmetry_equiv_pos_site_id
_symmetry_equiv_pos_as_xyz
1 x,y,z
2 -x,-y,-z
_cell_length_a 10.565(2)
_cell_length_b 14.374(3)
_cell_length_c 16.153(4)
_cell_angle_alpha 82.137(9)
_cell_angle_beta 76.944(7)
_cell_angle_gamma 78.315(9)
_cell_formula_units_Z 1
loop_
_atom_type_symbol
_atom_type_radius_bond
C 0.68
H 0.23
Cl 0.99
Co 1.26
F 0.64
N 0.68
O 0.68
Ru 1.46
loop_
_atom_site_label
_atom_site_type_symbol
_atom_site_fract_x
_atom_site_fract_y
_atom_site_fract_z
Ru1 Ru 0.52982(6) 0.06477(4) 0.45583(4)
Ru2 Ru 0.51039(7) 0.49490(4) 0.06962(3)
F1 F 0.8319(5) -0.1867(3) 0.6618(4)
F2 F 1.0489(6) -0.1958(4) 0.7213(4)
F3 F 1.0864(6) 0.1159(4) 0.5949(4)
F4 F 0.8682(6) 0.1299(3) 0.5395(4)
F5 F 0.4315(8) -0.2167(4) 0.3407(4)
F6 F 0.4920(11) -0.3322(5) 0.2181(4)
F7 F 0.9081(9) -0.2385(6) 0.1237(4)
F8 F 0.8521(6) -0.1245(5) 0.2485(4)
F9 F 0.6962(10) 0.1888(5) 0.1262(4)
F10 F 0.811(1) 0.0098(5) 0.1114(6)
F11 F 0.8728(12) 0.0647(7) -0.1861(6)
F12 F 0.7611(10) 0.2456(6) -0.1739(4)
F13 F 0.0474(6) 0.5489(4) 0.1302(4)
F14 F -0.1891(5) 0.4952(5) 0.1805(4)
F15 F -0.0059(7) 0.1971(4) 0.0761(5)
F16 F 0.2316(6) 0.2494(4) 0.0263(4)
O1 O 0.7013(6) 0.0444(4) 0.5010(3)
O2 O 0.6435(6) -0.0814(4) 0.5898(4)
O3 O 0.6179(6) -0.0196(4) 0.3569(4)
O4 O 0.5578(6) -0.1474(3) 0.4439(4)
O5 O 0.6224(6) 0.3593(4) 0.0558(4)
O6 O 0.5984(6) 0.3690(4) -0.0795(4)
O7 O 0.3338(6) 0.4427(4) 0.1065(3)
O8 O 0.3166(6) 0.4493(4) -0.0301(3)
N1 N 0.5790(7) 0.2048(5) 0.3825(4)
N2 N 0.5290(7) 0.4639(5) 0.2086(4)
C1 C 0.7191(8) -0.0205(5) 0.5609(5)
C2 C 0.8391(8) -0.0275(5) 0.5973(5)
C3 C 0.8897(9) -0.1095(5) 0.6457(5)
C4 C 1.0046(9) -0.1138(6) 0.6764(6)
C5 C 1.0715(9) -0.0399(6) 0.6614(6)
C6 C 1.0212(9) 0.0411(6) 0.6153(6)
C7 C 0.9097(8) 0.0478(6) 0.5848(6)
C8 C 0.6039(8) -0.1066(6) 0.3727(5)
C9 C 0.6406(10) -0.1680(5) 0.2995(5)
C10 C 0.5522(13) -0.2224(6) 0.2894(6)
C11 C 0.5840(16) -0.2819(7) 0.2241(6)
C12 C 0.6983(17) -0.2879(7) 0.1691(7)
C13 C 0.7914(15) -0.2340(8) 0.1774(6)
C14 C 0.7615(11) -0.1743(7) 0.2415(6)
C15 C 0.6388(10) 0.3267(6) -0.0151(5)
C16 C 0.7139(10) 0.2255(6) -0.0233(6)
C17 C 0.7353(12) 0.1622(8) 0.0468(7)
C18 C 0.7966(13) 0.0664(7) 0.0375(8)
C19 C 0.8398(11) 0.0323(8) -0.0379(9)
C20 C 0.8266(13) 0.0947(9) -0.1084(9)
C21 C 0.7676(12) 0.1907(7) -0.1013(7)
C22 C 0.2757(8) 0.4334(6) 0.0483(5)
C23 C 0.1461(9) 0.4005(6) 0.0766(5)
C24 C 0.0349(9) 0.4618(6) 0.1170(5)
C25 C -0.0873(9) 0.4338(7) 0.1410(5)
C26 C -0.1038(10) 0.3458(7) 0.1265(6)
C27 C 0.0064(10) 0.2843(6) 0.0879(6)
C28 C 0.129(1) 0.3117(6) 0.0641(5)
C29 C 0.5621(7) 0.2879(5) 0.3722(5)
C30 C 0.5397(7) 0.3869(5) 0.3603(4)
C31 C 0.5323(7) 0.4301(5) 0.2765(5)
C32 C 0.5186(7) 0.4443(5) 0.4314(4)
C33 C 0.5289(7) 0.4009(5) 0.5145(4)
C34 C 0.5112(7) 0.4542(5) 0.5809(4)
H1 H 1.15007 -0.04414 0.68199
H2 H 0.71738 -0.32826 0.12426
H3 H 0.87833 -0.03299 -0.04279
H4 H -0.18798 0.32726 0.14236
H5 H 0.54844 0.33329 0.52390
H6 H 0.51880 0.42352 0.63591
Co1 Co 1.00000 0.50000 0.50000
C35 C 1.1430(7) 0.5702(5) 0.5208(6)
C36 C 1.1203(10) 0.6552(7) 0.5683(7)
C37 C 1.1632(8) 0.4714(6) 0.5528(5)
C38 C 1.1685(9) 0.4372(8) 0.6446(6)
C39 C 1.1839(7) 0.4138(5) 0.4858(5)
C40 C 1.2135(9) 0.3068(6) 0.4928(7)
C41 C 1.1718(7) 0.4760(6) 0.4084(5)
C42 C 1.1856(10) 0.4441(9) 0.3218(6)
C43 C 1.1456(7) 0.5721(6) 0.4299(5)
C44 C 1.1339(8) 0.6599(7) 0.3690(6)
H7 H 1.10991 0.71316 0.52882
H8 H 1.19590 0.65337 0.59455
H9 H 1.04007 0.65547 0.61283
H10 H 1.15033 0.49231 0.67786
H11 H 1.25653 0.40062 0.64783
H12 H 1.10221 0.39657 0.66778
H13 H 1.22351 0.28470 0.43647
H14 H 1.29549 0.28408 0.51378
H15 H 1.14078 0.28163 0.53261
H16 H 1.20343 0.37422 0.32538
H17 H 1.10355 0.46833 0.30109
H18 H 1.25876 0.46894 0.28214
H19 H 1.11558 0.71647 0.40037
H20 H 1.21678 0.65958 0.32682
H21 H 1.06164 0.66130 0.33972
Cl1 Cl 0.5088(10) -0.0618(6) 0.1093(7)
Cl2 Cl 0.3983(6) 0.2290(5) 0.1870(4)
C45 C 0.416(3) 0.035(2) 0.175(2)
C46 C 0.370(3) 0.1132(18) 0.139(2)
H22 H 0.34137 0.01091 0.21518
H23 H 0.47494 0.04843 0.21039
H24 H 0.27448 0.11664 0.14324
H25 H 0.41251 0.11538 0.07723
N1A N 0.4210(7) 0.7952(5) 0.6175(4)
N2A N 0.4710(7) 0.5361(5) 0.7914(4)
C29A C 0.4379(7) 0.7121(5) 0.6278(5)
C30A C 0.4603(7) 0.6131(5) 0.6397(4)
C31A C 0.4677(7) 0.5699(5) 0.7235(5)
C32A C 0.4814(7) 0.5557(5) 0.5686(4)
C33A C 0.4711(7) 0.5991(5) 0.4855(4)
C34A C 0.4888(7) 0.5458(5) 0.4191(4)
H5A H 0.45156 0.66671 0.47610
H6A H 0.48120 0.57648 0.36409
Ru1A Ru 0.47018(6) -0.06477(4) 0.54417(4)
F1A F 0.1681(5) 0.1867(3) 0.3382(4)
F2A F -0.0489(6) 0.1958(4) 0.2787(4)
F3A F -0.0864(6) -0.1159(4) 0.4051(4)
F4A F 0.1318(6) -0.1299(3) 0.4605(4)
F5A F 0.5685(8) 0.2167(4) 0.6593(4)
F6A F 0.5080(11) 0.3322(5) 0.7819(4)
F7A F 0.0919(9) 0.2385(6) 0.8763(4)
F8A F 0.1479(6) 0.1245(5) 0.7515(4)
O1A O 0.2987(6) -0.0444(4) 0.4990(3)
O2A O 0.3565(6) 0.0814(4) 0.4102(4)
O3A O 0.3821(6) 0.0196(4) 0.6431(4)
O4A O 0.4422(6) 0.1474(3) 0.5561(4)
C1A C 0.2809(8) 0.0205(5) 0.4391(5)
C2A C 0.1609(8) 0.0275(5) 0.4027(5)
C3A C 0.1103(9) 0.1095(5) 0.3543(5)
C4A C -0.0046(9) 0.1138(6) 0.3236(6)
C5A C -0.0715(9) 0.0399(6) 0.3386(6)
C6A C -0.0212(9) -0.0411(6) 0.3847(6)
C7A C 0.0903(8) -0.0478(6) 0.4152(6)
C8A C 0.3961(8) 0.1066(6) 0.6273(5)
C9A C 0.3594(10) 0.1680(5) 0.7005(5)
C10A C 0.4478(13) 0.2224(6) 0.7106(6)
C11A C 0.4160(16) 0.2819(7) 0.7759(6)
C12A C 0.3017(17) 0.2879(7) 0.8309(7)
C13A C 0.2086(15) 0.2340(8) 0.8226(6)
C14A C 0.2385(11) 0.1743(7) 0.7585(6)
H1A H -0.15007 0.04414 0.31801
H2A H 0.28262 0.32826 0.87574
Ru2A Ru 0.48961(7) 0.50510(4) -0.06962(3)
F9A F 0.3038(10) 0.8112(5) -0.1262(4)
F10A F 0.189(1) 0.9902(5) -0.1114(6)
F11A F 0.1272(12) 0.9353(7) 0.1861(6)
F12A F 0.2389(10) 0.7544(6) 0.1739(4)
F13A F 0.9526(6) 0.4511(4) -0.1302(4)
F14A F 1.1891(5) 0.5048(5) -0.1805(4)
F15A F 1.0059(7) 0.8029(4) -0.0761(5)
F16A F 0.7684(6) 0.7506(4) -0.0263(4)
O5A O 0.3776(6) 0.6407(4) -0.0558(4)
O6A O 0.4016(6) 0.6310(4) 0.0795(4)
O7A O 0.6662(6) 0.5573(4) -0.1065(3)
O8A O 0.6834(6) 0.5507(4) 0.0301(3)
C15A C 0.3612(10) 0.6733(6) 0.0151(5)
C16A C 0.2861(10) 0.7745(6) 0.0233(6)
C17A C 0.2647(12) 0.8378(8) -0.0468(7)
C18A C 0.2034(13) 0.9336(7) -0.0375(8)
C19A C 0.1602(11) 0.9677(8) 0.0379(9)
C20A C 0.1734(13) 0.9053(9) 0.1084(9)
C21A C 0.2324(12) 0.8093(7) 0.1013(7)
C22A C 0.7243(8) 0.5666(6) -0.0483(5)
C23A C 0.8539(9) 0.5995(6) -0.0766(5)
C24A C 0.9651(9) 0.5382(6) -0.1170(5)
C25A C 1.0873(9) 0.5662(7) -0.1410(5)
C26A C 1.1038(10) 0.6542(7) -0.1265(6)
C27A C 0.9936(10) 0.7157(6) -0.0879(6)
C28A C 0.871(1) 0.6883(6) -0.0641(5)
H3A H 0.12167 1.03299 0.04279
H4A H 1.18798 0.67274 -0.14236
Ru1A* Ru 0.47018(6) 0.93523(4) 0.54417(4)
Ru2A* Ru 0.48961(7) 0.50510(4) 0.93038(3)
N1A* N 0.4210(7) -0.2048(5) 0.6175(4)
N2A* N 0.4710(7) 0.5361(5) -0.2086(4)
C35A C 0.8570(7) 0.4298(5) 0.4792(6)
C36A C 0.8797(10) 0.3448(7) 0.4317(7)
C37A C 0.8368(8) 0.5286(6) 0.4472(5)
C38A C 0.8315(9) 0.5628(8) 0.3554(6)
C39A C 0.8161(7) 0.5862(5) 0.5142(5)
C40A C 0.7865(9) 0.6932(6) 0.5072(7)
C41A C 0.8282(7) 0.5240(6) 0.5916(5)
C42A C 0.8144(10) 0.5559(9) 0.6782(6)
C43A C 0.8544(7) 0.4279(6) 0.5701(5)
C44A C 0.8661(8) 0.3401(7) 0.6310(6)
H7A H 0.89009 0.28684 0.47118
H8A H 0.80410 0.34663 0.40545
H9A H 0.95993 0.34453 0.38717
H10A H 0.84967 0.50769 0.32214
H11A H 0.74347 0.59938 0.35217
H12A H 0.89779 0.60343 0.33222
H13A H 0.77649 0.71530 0.56353
H14A H 0.70451 0.71592 0.48622
H15A H 0.85922 0.71837 0.46739
H16A H 0.79657 0.62578 0.67462
H17A H 0.89645 0.53167 0.69891
H18A H 0.74124 0.53106 0.71786
H19A H 0.88442 0.28353 0.59963
H20A H 0.78322 0.34042 0.67318
H21A H 0.93836 0.33870 0.66028
#END
