
#######################################################################
#
#                 Cambridge Crystallographic Data Centre
#                                CCDC
#
#######################################################################
#
# If this CIF has been generated from an entry in the Cambridge
# Structural Database, then it will include bibliographic, chemical,
# crystal, experimental, refinement or atomic coordinate data resulting
# from the CCDC's data processing and validation procedures.
#
#######################################################################

data_CSD_CIF_TAKSUX
_audit_creation_date 2020-11-17
_audit_creation_method CSD-ConQuest-V1
_database_code_CSD TAKSUX
_database_code_depnum_ccdc_archive 'CCDC 1982995'
_chemical_formula_sum 'C88 H42 F32 Fe1 N4 O16 Ru4'
_chemical_formula_moiety
;
(C68 H12 F32 N4 O16 Ru4 1-)n,C20 H30 Fe1 1+
;
_journal_coden_Cambridge 1220
_journal_volume 26
_journal_year 2020
_journal_page_first 16755
_journal_name_full 'Chem.-Eur.J. '
loop_
_publ_author_name
"H.Fukunaga"
"W.Kosaka"
"H.Nemoto"
"Kouji Taniguchi"
"S.Kawaguchi"
"K.Sugimoto"
"H.Miyasaka"
_chemical_name_systematic
;
catena-[decamethylferrocenium 
(\m-2,2'-(cyclohexa-2,5-diene-1,4-diylidene)dipropanedinitrile radical 
anion)-octakis(\m-2,3,5,6-tetrafluorobenzoato)-tetra-ruthenium(ii)]
;
_cell_volume   2152.386
_exptl_crystal_colour 'brown'
_exptl_crystal_density_diffrn 1.913
_exptl_special_details
;
Isostructural with the cobaltocene and chromocene analogues.

;
_exptl_crystal_description 'block'
_diffrn_ambient_temperature 134
#These two values have been output from a single CSD field.
_refine_ls_R_factor_gt 0.0714
_refine_ls_wR_factor_gt 0.0714
_symmetry_cell_setting triclinic
_symmetry_space_group_name_H-M 'P -1'
_symmetry_Int_Tables_number 2
loop_
_symmetry_equiv_pos_site_id
_symmetry_equiv_pos_as_xyz
1 x,y,z
2 -x,-y,-z
_cell_length_a 10.2874(6)
_cell_length_b 14.1735(9)
_cell_length_c 16.0789(10)
_cell_angle_alpha 96.322(5)
_cell_angle_beta 108.525(5)
_cell_angle_gamma 100.242(5)
_cell_formula_units_Z 1
loop_
_atom_type_symbol
_atom_type_radius_bond
C 0.68
H 0.23
F 0.64
Fe 1.52
N 0.68
O 0.68
Ru 1.46
loop_
_atom_site_label
_atom_site_type_symbol
_atom_site_fract_x
_atom_site_fract_y
_atom_site_fract_z
Ru1 Ru 0.49537(6) 0.92994(4) 0.45614(4)
Ru2 Ru 0.48873(7) 0.49810(4) 0.06809(4)
F1 F 0.9166(5) 0.8820(3) 0.5518(4)
F2 F 1.1857(5) 0.8966(4) 0.6213(4)
F3 F 1.2506(5) 1.2273(4) 0.7290(4)
F4 F 0.9796(5) 1.2160(3) 0.6578(3)
F5 F 0.5674(5) 1.0619(4) 0.2156(3)
F6 F 0.4924(6) 1.1479(4) 0.0756(3)
F7 F 0.2223(6) 1.3090(4) 0.2009(3)
F8 F 0.2817(5) 1.2152(3) 0.3367(3)
F9 F 0.4199(6) 0.8058(4) 0.1124(3)
F10 F 0.2969(6) 0.9548(4) 0.0862(4)
F11 F 0.0372(7) 0.8025(5) -0.2077(4)
F12 F 0.1492(6) 0.6487(4) -0.1803(4)
F13 F 0.2026(5) 0.1675(4) -0.0911(4)
F14 F -0.0559(6) 0.0526(4) -0.1666(4)
F15 F -0.2416(6) 0.3273(5) -0.2157(4)
F16 F 0.0164(6) 0.4417(4) -0.1431(4)
O1 O 0.7106(5) 0.9636(4) 0.5014(3)
O2 O 0.7209(5) 1.0989(4) 0.5892(3)
O3 O 0.4753(5) 1.0011(4) 0.3489(3)
O4 O 0.4883(5) 1.1396(3) 0.4350(3)
O5 O 0.3830(6) 0.6087(4) 0.0488(3)
O6 O 0.4055(5) 0.6129(4) -0.0840(3)
O7 O 0.3018(5) 0.3975(4) 0.0097(3)
O8 O 0.3217(6) 0.4021(4) -0.1243(3)
N1 N 0.4983(6) 0.7843(5) 0.3825(4)
N2 N 0.4619(7) 0.5153(4) 0.2038(4)
C1 C 0.7766(8) 1.0370(5) 0.5605(5)
C2 C 0.9314(8) 1.0474(6) 0.6022(5)
C3 C 0.9950(9) 0.9702(6) 0.5960(6)
C4 C 1.1358(9) 0.9773(6) 0.6339(6)
C5 C 1.2265(9) 1.0653(6) 0.6785(6)
H1 H 1.32540 1.07180 0.70260
C6 C 1.1675(9) 1.1401(6) 0.6855(5)
C7 C 1.0266(8) 1.1336(6) 0.6486(5)
C8 C 0.4673(8) 1.0869(5) 0.3611(5)
C9 C 0.4290(8) 1.1366(5) 0.2830(5)
C10 C 0.4813(9) 1.1209(6) 0.2142(5)
C11 C 0.4434(10) 1.1686(7) 0.1417(5)
C12 C 0.3577(10) 1.2318(6) 0.1367(6)
H2 H 0.33550 1.26560 0.08800
C13 C 0.3051(9) 1.2452(6) 0.2021(6)
C14 C 0.3409(8) 1.1997(6) 0.2752(5)
C15 C 0.3642(8) 0.6407(5) -0.0223(5)
C16 C 0.2905(8) 0.7234(6) -0.0330(5)
C17 C 0.3221(9) 0.8022(6) 0.0330(5)
C18 C 0.2606(10) 0.8795(6) 0.0191(6)
C19 C 0.1655(10) 0.8806(7) -0.0616(7)
H3 H 0.12520 0.93550 -0.07160
C20 C 0.1292(10) 0.8029(8) -0.1275(7)
C21 C 0.1901(10) 0.7247(6) -0.1137(6)
C22 C 0.2577(8) 0.3733(5) -0.0744(5)
C23 C 0.1151(8) 0.3081(6) -0.1155(5)
C24 C 0.0926(9) 0.2079(7) -0.1221(5)
C25 C -0.0403(10) 0.1493(6) -0.1604(6)
C26 C -0.1553(10) 0.1874(7) -0.1928(6)
H4 H -0.24700 0.14660 -0.21950
C27 C -0.1339(9) 0.2849(8) -0.1854(6)
C28 C -0.0017(9) 0.3459(6) -0.1483(5)
C29 C 0.4941(7) 0.7032(6) 0.3693(4)
C30 C 0.4859(7) 0.6026(5) 0.3568(5)
C31 C 0.4702(7) 0.5538(5) 0.2712(5)
C32 C 0.4944(7) 0.5509(5) 0.4291(4)
C33 C 0.5186(7) 0.6008(5) 0.5151(4)
H5 H 0.53140 0.66960 0.52540
C34 C 0.5240(7) 0.5514(5) 0.5841(5)
H6 H 0.54040 0.58640 0.64170
Fe1 Fe 1.00000 0.50000 0.50000
C35 C 0.8170(9) 0.4216(7) 0.5108(7)
C36 C 0.8015(12) 0.3311(10) 0.5476(14)
H7 H 0.70450 0.31090 0.54620
H8 H 0.86630 0.34270 0.60930
H9 H 0.82320 0.27970 0.51170
C37 C 0.8496(8) 0.520(1) 0.5549(6)
C38 C 0.8766(11) 0.5543(10) 0.6515(7)
H10 H 0.95750 0.61010 0.67480
H11 H 0.89670 0.50150 0.68450
H12 H 0.79340 0.57390 0.65830
C39 C 0.8482(8) 0.5779(6) 0.4876(7)
C40 C 0.8706(11) 0.6850(8) 0.5024(9)
H13 H 0.92890 0.71170 0.46900
H14 H 0.91820 0.71130 0.56610
H15 H 0.77950 0.70320 0.48190
C41 C 0.816(1) 0.5161(10) 0.4084(7)
C42 C 0.8074(12) 0.5482(11) 0.3218(8)
H16 H 0.90060 0.55860 0.31600
H17 H 0.77490 0.60910 0.32010
H18 H 0.74100 0.49780 0.27260
C43 C 0.7969(9) 0.4244(8) 0.4232(7)
C44 C 0.7563(11) 0.3308(8) 0.3528(8)
H19 H 0.72810 0.34730 0.29300
H20 H 0.67770 0.28500 0.35890
H21 H 0.83720 0.30060 0.36200
N1A N 0.5017(6) 0.2157(5) 0.6175(4)
N2A N 0.5381(7) 0.4847(4) 0.7962(4)
C29A C 0.5059(7) 0.2968(6) 0.6307(4)
C30A C 0.5141(7) 0.3974(5) 0.6432(5)
C31A C 0.5298(7) 0.4462(5) 0.7288(5)
C32A C 0.5056(7) 0.4491(5) 0.5709(4)
C33A C 0.4814(7) 0.3992(5) 0.4849(4)
H5A H 0.46860 0.33040 0.47460
C34A C 0.4760(7) 0.4486(5) 0.4159(5)
H6A H 0.45960 0.41360 0.35830
Ru2A Ru 0.51127(7) 0.50190(4) -0.06809(4)
F9A F 0.5801(6) 0.1942(4) -0.1124(3)
F10A F 0.7031(6) 0.0452(4) -0.0862(4)
F11A F 0.9628(7) 0.1975(5) 0.2077(4)
F12A F 0.8508(6) 0.3513(4) 0.1803(4)
F13A F 0.7974(5) 0.8325(4) 0.0911(4)
F14A F 1.0559(6) 0.9474(4) 0.1666(4)
F15A F 1.2416(6) 0.6727(5) 0.2157(4)
F16A F 0.9836(6) 0.5583(4) 0.1431(4)
O5A O 0.6170(6) 0.3913(4) -0.0488(3)
O6A O 0.5945(5) 0.3871(4) 0.0840(3)
O7A O 0.6982(5) 0.6025(4) -0.0097(3)
O8A O 0.6783(6) 0.5979(4) 0.1243(3)
C15A C 0.6358(8) 0.3593(5) 0.0223(5)
C16A C 0.7095(8) 0.2766(6) 0.0330(5)
C17A C 0.6779(9) 0.1978(6) -0.0330(5)
C18A C 0.7394(10) 0.1205(6) -0.0191(6)
C19A C 0.8345(10) 0.1194(7) 0.0616(7)
H3A H 0.87480 0.06450 0.07160
C20A C 0.8708(10) 0.1971(8) 0.1275(7)
C21A C 0.8099(10) 0.2753(6) 0.1137(6)
C22A C 0.7423(8) 0.6267(5) 0.0744(5)
C23A C 0.8849(8) 0.6919(6) 0.1155(5)
C24A C 0.9074(9) 0.7921(7) 0.1221(5)
C25A C 1.0403(10) 0.8507(6) 0.1604(6)
C26A C 1.1553(10) 0.8126(7) 0.1928(6)
H4A H 1.24700 0.85340 0.21950
C27A C 1.1339(9) 0.7151(8) 0.1854(6)
C28A C 1.0017(9) 0.6541(6) 0.1483(5)
Ru1A Ru 0.50463(6) 1.07006(4) 0.54386(4)
F1A F 0.0834(5) 1.1180(3) 0.4482(4)
F2A F -0.1857(5) 1.1034(4) 0.3787(4)
F3A F -0.2506(5) 0.7727(4) 0.2710(4)
F4A F 0.0204(5) 0.7840(3) 0.3422(3)
F5A F 0.4326(5) 0.9381(4) 0.7844(3)
F6A F 0.5076(6) 0.8521(4) 0.9244(3)
F7A F 0.7777(6) 0.6910(4) 0.7991(3)
F8A F 0.7183(5) 0.7848(3) 0.6633(3)
O1A O 0.2894(5) 1.0364(4) 0.4986(3)
O2A O 0.2791(5) 0.9011(4) 0.4108(3)
O3A O 0.5247(5) 0.9989(4) 0.6511(3)
O4A O 0.5117(5) 0.8604(3) 0.5650(3)
C1A C 0.2234(8) 0.9630(5) 0.4395(5)
C2A C 0.0686(8) 0.9526(6) 0.3978(5)
C3A C 0.0050(9) 1.0298(6) 0.4040(6)
C4A C -0.1358(9) 1.0227(6) 0.3661(6)
C5A C -0.2265(9) 0.9347(6) 0.3215(6)
H1A H -0.32540 0.92820 0.29740
C6A C -0.1675(9) 0.8599(6) 0.3145(5)
C7A C -0.0266(8) 0.8664(6) 0.3514(5)
C8A C 0.5327(8) 0.9131(5) 0.6389(5)
C9A C 0.5710(8) 0.8634(5) 0.7170(5)
C10A C 0.5187(9) 0.8791(6) 0.7858(5)
C11A C 0.5566(10) 0.8314(7) 0.8583(5)
C12A C 0.6423(10) 0.7682(6) 0.8633(6)
H2A H 0.66450 0.73440 0.91200
C13A C 0.6949(9) 0.7548(6) 0.7979(6)
C14A C 0.6591(8) 0.8003(6) 0.7248(5)
Ru1A* Ru 0.50463(6) 0.07006(4) 0.54386(4)
Ru2A* Ru 0.51127(7) 0.50190(4) 0.93191(4)
N1A* N 0.5017(6) 1.2157(5) 0.6175(4)
N2A* N 0.5381(7) 0.4847(4) -0.2038(4)
C35A C 1.1830(9) 0.5784(7) 0.4892(7)
C36A C 1.1985(12) 0.6689(10) 0.4524(14)
H7A H 1.29550 0.68910 0.45380
H8A H 1.13370 0.65730 0.39070
H9A H 1.17680 0.72030 0.48830
C37A C 1.1504(8) 0.480(1) 0.4451(6)
C38A C 1.1234(11) 0.4457(10) 0.3485(7)
H10A H 1.04250 0.38990 0.32520
H11A H 1.10330 0.49850 0.31550
H12A H 1.20660 0.42610 0.34170
C39A C 1.1518(8) 0.4221(6) 0.5124(7)
C40A C 1.1294(11) 0.3150(8) 0.4976(9)
H13A H 1.07110 0.28830 0.53100
H14A H 1.08180 0.28870 0.43390
H15A H 1.22050 0.29680 0.51810
C41A C 1.184(1) 0.4839(10) 0.5916(7)
C42A C 1.1926(12) 0.4518(11) 0.6782(8)
H16A H 1.09940 0.44140 0.68400
H17A H 1.22510 0.39090 0.67990
H18A H 1.25900 0.50220 0.72740
C43A C 1.2031(9) 0.5756(8) 0.5768(7)
C44A C 1.2437(11) 0.6692(8) 0.6472(8)
H19A H 1.27190 0.65270 0.70700
H20A H 1.32230 0.71500 0.64110
H21A H 1.16280 0.69940 0.63800
#END
