
#######################################################################
#
#                 Cambridge Crystallographic Data Centre
#                                CCDC
#
#######################################################################
#
# If this CIF has been generated from an entry in the Cambridge
# Structural Database, then it will include bibliographic, chemical,
# crystal, experimental, refinement or atomic coordinate data resulting
# from the CCDC's data processing and validation procedures.
#
#######################################################################

data_CSD_CIF_TAMVUB
_audit_creation_date 2017-03-27
_audit_creation_method CSD-ConQuest-V1
_database_code_CSD TAMVUB
_database_code_depnum_ccdc_archive 'CCDC 1040828'
_chemical_formula_sum 'C32 H92 Cu2 N4 O30'
_chemical_formula_moiety
;
(C8 Cu2 O16 4-)n,4(C6 H16 N1 1+),14(H2 O1)
;
_journal_coden_Cambridge 1078
_journal_year 2017
_journal_name_full 'CSD Communication(Private Communication) '
loop_
_publ_author_name
"Bin Zhang"
_chemical_name_systematic
;
catena-[tetrakis(diisopropylammonium) bis(\m-oxalato)-dioxalato-di-copper(ii) 
tetradecahydrate]
;
_cell_volume   2840.736
_exptl_crystal_colour 'light blue'
_exptl_crystal_density_diffrn 1.333
_exptl_crystal_description 'rod'
_diffrn_ambient_temperature 100
#These two values have been output from a single CSD field.
_refine_ls_R_factor_gt 0.0552
_refine_ls_wR_factor_gt 0.0552
_symmetry_cell_setting monoclinic
_symmetry_space_group_name_H-M 'P 21/n'
_symmetry_Int_Tables_number 14
loop_
_symmetry_equiv_pos_site_id
_symmetry_equiv_pos_as_xyz
1 x,y,z
2 1/2-x,1/2+y,1/2-z
3 -x,-y,-z
4 -1/2+x,-1/2-y,-1/2+z
_cell_length_a 13.062(2)
_cell_length_b 8.8536(14)
_cell_length_c 24.687(4)
_cell_angle_alpha 90
_cell_angle_beta 95.719(2)
_cell_angle_gamma 90
_cell_formula_units_Z 2
loop_
_atom_type_symbol
_atom_type_radius_bond
C 0.68
H 0.23
Cu 1.32
N 0.68
O 0.68
loop_
_atom_site_label
_atom_site_type_symbol
_atom_site_fract_x
_atom_site_fract_y
_atom_site_fract_z
O1 O 0.48003(18) 0.6912(4) 0.16413(9)
H1 H 0.476(3) 0.675(5) 0.1294(5)
H2 H 0.5433(13) 0.683(5) 0.1782(13)
O2 O 0.70141(16) 0.6786(2) 0.19668(8)
H3 H 0.717(3) 0.683(4) 0.1634(6)
H4 H 0.737(3) 0.608(3) 0.2143(12)
O3 O 0.17943(16) 0.4350(2) 0.20061(8)
H5 H 0.203(3) 0.408(4) 0.1702(9)
H6 H 0.218(2) 0.509(3) 0.2142(13)
O4 O -0.03651(16) 0.4694(3) 0.17303(9)
H7 H 0.0300(9) 0.466(4) 0.1807(15)
H8 H -0.050(3) 0.544(3) 0.1504(13)
O5 O 0.83374(15) 0.4543(2) 0.25051(8)
H9 H 0.824(3) 0.366(2) 0.2643(14)
H10 H 0.881(2) 0.449(4) 0.2285(13)
N1 N 0.59763(16) 0.1369(2) 0.15859(8)
H11 H 0.61210 0.06990 0.18620
H12 H 0.58490 0.08230 0.12740
C1 C 0.6924(2) 0.2302(3) 0.15373(11)
H13 H 0.70950 0.28580 0.18870
C2 C 0.6747(2) 0.3440(3) 0.10843(12)
H14 H 0.65310 0.29170 0.07420
H15 H 0.73860 0.39940 0.10490
H16 H 0.62090 0.41500 0.11680
C3 C 0.7804(2) 0.1247(4) 0.14520(13)
H17 H 0.78840 0.05080 0.17490
H18 H 0.84410 0.18310 0.14480
H19 H 0.76590 0.07180 0.11040
C4 C 0.5004(2) 0.2186(3) 0.16851(11)
H20 H 0.47950 0.28500 0.13650
C5 C 0.4175(2) 0.1008(4) 0.17310(14)
H21 H 0.40880 0.04090 0.13960
H22 H 0.35250 0.15110 0.17860
H23 H 0.43760 0.03440 0.20410
C6 C 0.5172(3) 0.3159(4) 0.21919(13)
H24 H 0.45270 0.36650 0.22540
H25 H 0.57010 0.39180 0.21430
H26 H 0.53970 0.25220 0.25060
H27 H 0.319(3) 0.742(2) 0.2509(15)
O6 O 0.33060(18) 0.6542(3) 0.23684(9)
H28 H 0.374(2) 0.666(4) 0.2127(12)
O7 O 0.74822(19) 0.6339(3) -0.10247(10)
H29 H 0.799(2) 0.575(3) -0.1071(17)
H30 H 0.701(2) 0.588(4) -0.0861(15)
N2 N -0.09919(16) 0.1297(2) -0.06918(9)
H31 H -0.03500 0.16580 -0.07280
H32 H -0.09370 0.06560 -0.04020
C7 C -0.1654(2) 0.2606(3) -0.05552(12)
H33 H -0.16730 0.33620 -0.08570
C8 C -0.1161(3) 0.3326(4) -0.00428(14)
H34 H -0.11370 0.25960 0.02560
H35 H -0.15650 0.42080 0.00470
H36 H -0.04600 0.36440 -0.00980
C9 C -0.2741(2) 0.2074(4) -0.05004(18)
H37 H -0.30480 0.16920 -0.08520
H38 H -0.31520 0.29200 -0.03850
H39 H -0.27260 0.12660 -0.02280
C10 C -0.1328(2) 0.0391(3) -0.11913(11)
H40 H -0.20040 -0.00960 -0.11430
C11 C -0.0541(2) -0.0825(4) -0.12446(14)
H41 H 0.01280 -0.03600 -0.12850
H42 H -0.07500 -0.14450 -0.15650
H43 H -0.04870 -0.14610 -0.09180
C12 C -0.1463(4) 0.1412(4) -0.16828(13)
H44 H -0.20090 0.21470 -0.16380
H45 H -0.16490 0.08060 -0.20100
H46 H -0.08170 0.19470 -0.17200
Cu1 Cu 0.62576(2) 0.74838(3) 0.02296(2)
O8 O 0.74115(13) 0.8394(2) -0.01025(7)
O9 O 0.73346(13) 0.6975(2) 0.08343(7)
O10 O 0.90379(14) 0.9077(2) 0.01335(8)
O11 O 0.90456(14) 0.7202(2) 0.10222(8)
O12 O 0.57419(14) 0.9695(2) 0.06217(7)
O13 O 0.39159(13) 0.4623(2) 0.03349(7)
O14 O 0.51518(13) 0.63364(19) 0.05321(7)
O15 O 0.47234(13) 1.1637(2) 0.03611(7)
C13 C 0.82449(19) 0.8393(3) 0.02158(10)
C14 C 0.82267(19) 0.7442(3) 0.07405(10)
C15 C 0.51318(18) 1.0379(3) 0.02814(9)
C16 C 0.47272(18) 0.5266(3) 0.02485(10)
O12B O 0.42581(14) 1.0305(2) -0.06217(7)
C15B C 0.48682(18) 0.9621(3) -0.02814(9)
O15B O 0.52766(13) 0.8363(2) -0.03611(7)
O14B O 0.48482(13) 0.36636(19) -0.05321(7)
C16B C 0.52728(18) 0.4734(3) -0.02485(10)
O13B O 0.60841(13) 0.5377(2) -0.03349(7)
Cu1B Cu 0.37424(2) 0.25162(3) -0.02296(2)
O8B O 0.25885(13) 0.1606(2) 0.01025(7)
O9B O 0.26654(13) 0.3025(2) -0.08343(7)
O10B O 0.09621(14) 0.0923(2) -0.01335(8)
O11B O 0.09544(14) 0.2798(2) -0.10222(8)
C13B C 0.17551(19) 0.1607(3) -0.02158(10)
C14B C 0.17733(19) 0.2558(3) -0.07405(10)
Cu1B* Cu 0.37424(2) 1.25162(3) -0.02296(2)
O12B* O 0.42581(14) 0.0305(2) -0.06217(7)
O15* O 0.47234(13) 0.1637(2) 0.03611(7)
#END
