
#######################################################################
#
#                 Cambridge Crystallographic Data Centre
#                                CCDC
#
#######################################################################
#
# If this CIF has been generated from an entry in the Cambridge
# Structural Database, then it will include bibliographic, chemical,
# crystal, experimental, refinement or atomic coordinate data resulting
# from the CCDC's data processing and validation procedures.
#
#######################################################################

data_CSD_CIF_TAPWIR
_audit_creation_date 2005-09-14
_audit_creation_method CSD-ConQuest-V1
_database_code_CSD TAPWIR
_database_code_depnum_ccdc_archive 'CCDC 245560'
_chemical_formula_sum 'C28 H36 Co1 F4 N6 Na1 O9'
_chemical_formula_moiety
;
(C21 H14 F3 Na1 O7 2-)n,n(H18 Co1 N6 3+),n(C7 H4 F1 O2 1-)
;
_journal_coeditor_code "IUCr BG1006"
_journal_coden_Cambridge 591
_journal_volume 61
_journal_year 2005
_journal_page_first m356
_journal_name_full 'Acta Crystallogr.,Sect.C:Cryst.Struct.Commun. '
loop_
_publ_author_name
"R.P.Sharma"
"R.Bala"
"R.Sharma"
"A.D.Bond"
_chemical_name_systematic
;
catena-(Hexa-ammine-cobalt(iii) 
(\m~2~-4-fluorobenzoato-O,O')-bis(4-fluorobenzoato-O)-aqua-sodium 
4-fluorobenzoate)
;
_chemical_melting_point 478
_cell_volume   3264.767
_exptl_crystal_colour 'orange'
_exptl_crystal_density_diffrn 1.543
_exptl_crystal_description 'block'
_diffrn_ambient_temperature 180
#These two values have been output from a single CSD field.
_refine_ls_R_factor_gt 0.0293
_refine_ls_wR_factor_gt 0.0293
_symmetry_cell_setting monoclinic
_symmetry_space_group_name_H-M 'C 2/c'
_symmetry_Int_Tables_number 15
loop_
_symmetry_equiv_pos_site_id
_symmetry_equiv_pos_as_xyz
1 x,y,z
2 1/2+x,1/2+y,z
3 -x,y,1/2-z
4 1/2-x,1/2+y,1/2-z
5 -x,-y,-z
6 -1/2-x,-1/2-y,-z
7 x,-y,-1/2+z
8 -1/2+x,-1/2-y,-1/2+z
_cell_length_a 16.1930(4)
_cell_length_b 33.4500(9)
_cell_length_c 6.5169(2)
_cell_angle_alpha 90
_cell_angle_beta 112.349(1)
_cell_angle_gamma 90
_cell_formula_units_Z 4
loop_
_atom_type_symbol
_atom_type_radius_bond
C 0.68
H 0.23
Co 1.33
F 0.64
N 0.68
Na 1.41
O 0.68
loop_
_atom_site_label
_atom_site_type_symbol
_atom_site_fract_x
_atom_site_fract_y
_atom_site_fract_z
Na1 Na 0.00000 0.30706(2) 0.75000
Co1 Co 0.25000 0.25000 0.50000
N1 N 0.32012(8) 0.24780(3) 0.3142(2)
H1 H 0.3743(8) 0.2401(5) 0.395(3)
H2 H 0.3206(14) 0.2701(4) 0.245(3)
H3 H 0.2979(11) 0.2295(4) 0.211(3)
N2 N 0.25725(8) 0.30863(4) 0.50156(18)
H4 H 0.2136(10) 0.3202(5) 0.393(3)
H5 H 0.3084(9) 0.3156(5) 0.495(3)
H6 H 0.2581(13) 0.3179(5) 0.628(2)
N3 N 0.14240(8) 0.25011(3) 0.2282(2)
H7 H 0.1394(12) 0.2721(4) 0.152(3)
H8 H 0.1425(12) 0.2301(4) 0.141(3)
H9 H 0.0940(11) 0.2476(5) 0.254(4)
O1 O 0.27698(7) 0.31719(3) 0.97414(17)
O2 O 0.14494(7) 0.32681(3) 1.00023(17)
O3 O 0.03594(7) 0.30544(3) 0.43393(16)
O4 O 0.45223(7) 0.30789(3) 0.57339(18)
F1 F 0.27048(9) 0.50546(3) 1.01595(18)
F2 F 0.00000 0.49109(4) 0.25000
F3 F 0.50000 0.49354(4) 0.75000
C1 C 0.2167(1) 0.33954(4) 0.9896(2)
C2 C 0.23177(10) 0.38393(4) 0.9968(2)
C3 C 0.17330(11) 0.40959(5) 1.0425(3)
H10 H 0.12390 0.39890 1.06880
C4 C 0.18627(12) 0.45061(5) 1.0503(3)
H11 H 0.14690 0.46810 1.08360
C5 C 0.25735(11) 0.46525(5) 1.0087(2)
C6 C 0.31642(12) 0.44119(5) 0.9612(3)
H12 H 0.36480 0.45230 0.93210
C7 C 0.30349(11) 0.40006(5) 0.9568(3)
H13 H 0.34400 0.38280 0.92620
C8 C 0.00000 0.32280(6) 0.25000
C9 C 0.00000 0.36805(6) 0.25000
C10 C 0.05339(10) 0.38922(5) 0.4370(2)
H14 H 0.08970 0.37510 0.56620
C11 C 0.05441(12) 0.43078(5) 0.4381(3)
H15 H 0.09160 0.44520 0.56500
C12 C 0.00000 0.45025(7) 0.25000
C13 C 0.50000 0.32551(6) 0.75000
C14 C 0.50000 0.37072(6) 0.75000
C15 C 0.45117(11) 0.39170(5) 0.5582(3)
H16 H 0.41780 0.37750 0.42630
C16 C 0.45067(12) 0.43336(5) 0.5578(3)
H17 H 0.41690 0.44790 0.42740
C17 C 0.50000 0.45281(7) 0.75000
O5 O 0.00000 0.23282(5) 0.75000
H18 H 0.0088(14) 0.2167(6) 0.662(3)
Na1* Na 0.00000 0.30706(2) -0.25000
N1E N 0.17988(8) 0.25220(3) 0.6858(2)
H1E H 0.1257(8) 0.2599(5) 0.605(3)
H2E H 0.1794(14) 0.2299(4) 0.755(3)
H3E H 0.2021(11) 0.2705(4) 0.789(3)
N2E N 0.24275(8) 0.19137(4) 0.49844(18)
H4E H 0.2864(10) 0.1798(5) 0.607(3)
H5E H 0.1916(9) 0.1844(5) 0.505(3)
H6E H 0.2419(13) 0.1821(5) 0.372(2)
N3E N 0.35760(8) 0.24989(3) 0.7718(2)
H7E H 0.3606(12) 0.2279(4) 0.848(3)
H8E H 0.3575(12) 0.2699(4) 0.859(3)
H9E H 0.4060(11) 0.2524(5) 0.746(4)
O1B O -0.27698(7) 0.31719(3) 0.52586(17)
O2B O -0.14494(7) 0.32681(3) 0.49977(17)
O3B O -0.03594(7) 0.30544(3) 0.06607(16)
O3B* O -0.03594(7) 0.30544(3) 1.06607(16)
O4B O 0.54777(7) 0.30789(3) 0.92661(18)
F1B F -0.27048(9) 0.50546(3) 0.48405(18)
C1B C -0.2167(1) 0.33954(4) 0.5104(2)
C2B C -0.23177(10) 0.38393(4) 0.5032(2)
C3B C -0.17330(11) 0.40959(5) 0.4575(3)
H10B H -0.12390 0.39890 0.43120
C4B C -0.18627(12) 0.45061(5) 0.4497(3)
H11B H -0.14690 0.46810 0.41640
C5B C -0.25735(11) 0.46525(5) 0.4913(2)
C6B C -0.31642(12) 0.44119(5) 0.5388(3)
H12B H -0.36480 0.45230 0.56790
C7B C -0.30349(11) 0.40006(5) 0.5432(3)
H13B H -0.34400 0.38280 0.57380
C10B C -0.05339(10) 0.38922(5) 0.0630(2)
H14B H -0.08970 0.37510 -0.06620
C11B C -0.05441(12) 0.43078(5) 0.0619(3)
H15B H -0.09160 0.44520 -0.06500
C15B C 0.54883(11) 0.39170(5) 0.9418(3)
H16B H 0.58220 0.37750 1.07370
C16B C 0.54933(12) 0.43336(5) 0.9422(3)
H17B H 0.58310 0.44790 1.07260
H18B H -0.0088(14) 0.2167(6) 0.838(3)
#END
