
#######################################################################
#
#                 Cambridge Crystallographic Data Centre
#                                CCDC
#
#######################################################################
#
# If this CIF has been generated from an entry in the Cambridge
# Structural Database, then it will include bibliographic, chemical,
# crystal, experimental, refinement or atomic coordinate data resulting
# from the CCDC's data processing and validation procedures.
#
#######################################################################

data_CSD_CIF_TAPXEP
_audit_creation_date 2012-04-10
_audit_creation_method CSD-ConQuest-V1
_database_code_CSD TAPXEP
_database_code_depnum_ccdc_archive 'CCDC 869476'
_chemical_formula_sum 'C56 H48 N2 O24 Yb2'
_chemical_formula_moiety
;
(C56 H40 O24 Yb2 2-)n,2n(H4 N1 1+)
;
_journal_coden_Cambridge 9
_journal_volume 49
_journal_year 2010
_journal_page_first 2316
_journal_name_full 'Inorg.Chem. '
loop_
_publ_author_name
"You-Wen Lin"
"Bo-Ren Jian"
"Sin-Chiang Huang"
"Chin-Her Huang"
"Keui-Fang Hsu"
_chemical_name_systematic
;
catena-(Diammonium 
bis((\m~2~-4,4'-oxydibenzoato)-(4-(4-carboxyphenoxy)benzoato))-tetra-aqua-di-y
tterbium)
;
_cell_volume   5400.604
_exptl_crystal_colour 'colorless'
_exptl_crystal_density_diffrn 1.819
_exptl_crystal_description 'lamellar'
_diffrn_ambient_temperature 293
#These two values have been output from a single CSD field.
_refine_ls_R_factor_gt 0.0348
_refine_ls_wR_factor_gt 0.0348
_symmetry_cell_setting orthorhombic
_symmetry_space_group_name_H-M 'P b c a'
_symmetry_Int_Tables_number 61
loop_
_symmetry_equiv_pos_site_id
_symmetry_equiv_pos_as_xyz
1 x,y,z
2 1/2-x,-y,1/2+z
3 -x,1/2+y,1/2-z
4 1/2+x,1/2-y,-z
5 -x,-y,-z
6 -1/2+x,y,-1/2-z
7 x,-1/2-y,-1/2+z
8 -1/2-x,-1/2+y,z
_cell_length_a 9.9772(6)
_cell_length_b 19.1646(12)
_cell_length_c 28.2445(18)
_cell_angle_alpha 90
_cell_angle_beta 90
_cell_angle_gamma 90
_cell_formula_units_Z 4
loop_
_atom_type_symbol
_atom_type_radius_bond
C 0.68
H 0.23
N 0.68
O 0.68
Yb 1.87
loop_
_atom_site_label
_atom_site_type_symbol
_atom_site_fract_x
_atom_site_fract_y
_atom_site_fract_z
Yb1 Yb 0.085684(15) 0.115738(8) 0.495599(5)
O1 O 0.2415(3) 0.15200(14) 0.55485(9)
O2 O 0.0542(3) 0.21091(14) 0.54831(9)
O3 O 0.2939(3) 0.35389(15) 0.73277(9)
O4 O 0.2250(3) 0.20092(13) 0.93077(9)
O5 O 0.1957(3) 0.31096(14) 0.95185(9)
O6 O 0.0250(3) 0.06362(13) 0.42752(9)
O7 O -0.0038(3) -0.04472(14) 0.45255(8)
O8 O -0.0345(4) -0.10577(14) 0.23494(10)
O9 O 0.2031(3) 0.05993(16) 0.05997(10)
O10 O -0.0128(3) 0.06429(18) 0.04352(12)
O11 O -0.1339(3) 0.15280(15) 0.48671(9)
H1 H -0.14810 0.18860 0.50420
H2 H -0.14740 0.16510 0.45770
O12 O 0.2500(3) 0.03421(15) 0.48783(9)
H3 H 0.31420 0.04340 0.50680
H4 H 0.21850 -0.00620 0.49510
C1 C 0.1642(4) 0.19975(19) 0.56959(12)
C2 C 0.2002(4) 0.24063(19) 0.61241(12)
C3 C 0.1121(4) 0.2894(2) 0.63018(14)
H5 H 0.03170 0.29800 0.61460
C4 C 0.3193(4) 0.2282(3) 0.63603(15)
H6 H 0.37890 0.19490 0.62450
C5 C 0.1429(5) 0.3254(2) 0.67105(14)
H7 H 0.08290 0.35800 0.68320
C6 C 0.3500(5) 0.2650(3) 0.67651(16)
H8 H 0.43060 0.25710 0.69210
C7 C 0.2616(4) 0.3132(2) 0.69353(12)
C8 C 0.2710(4) 0.32824(19) 0.77770(12)
C9 C 0.2844(4) 0.37636(18) 0.81381(14)
H9 H 0.30600 0.42240 0.80680
C10 C 0.2385(5) 0.2598(2) 0.78769(13)
H10 H 0.22730 0.22760 0.76340
C11 C 0.2659(4) 0.35616(18) 0.85998(13)
H11 H 0.27350 0.38890 0.88410
C12 C 0.2227(4) 0.23971(19) 0.83443(13)
H12 H 0.20280 0.19340 0.84140
C13 C 0.2360(4) 0.28753(18) 0.87098(11)
C14 C 0.2184(3) 0.26418(18) 0.92121(12)
C15 C 0.0119(3) -0.00061(17) 0.41978(12)
C16 C 0.0123(3) -0.02625(18) 0.37022(11)
C17 C -0.0016(4) 0.02020(19) 0.33264(12)
H13 H -0.00320 0.06800 0.33830
C18 C 0.0189(4) -0.09728(19) 0.36104(13)
H14 H 0.03130 -0.12840 0.38590
C19 C -0.0130(4) -0.00491(18) 0.28656(13)
H15 H -0.02230 0.02590 0.26130
C20 C 0.0074(4) -0.12241(18) 0.31541(13)
H16 H 0.01160 -0.17010 0.30950
C21 C -0.0105(4) -0.07578(19) 0.27867(12)
C22 C -0.0035(4) -0.06709(19) 0.19451(12)
C23 C 0.1239(5) -0.0437(3) 0.18684(15)
H17 H 0.19070 -0.05140 0.20920
C24 C -0.1046(4) -0.05688(19) 0.16230(14)
H18 H -0.19060 -0.07340 0.16820
C25 C 0.1523(4) -0.0085(3) 0.14525(14)
H19 H 0.23890 0.00740 0.13960
C26 C -0.0756(4) -0.0215(2) 0.12078(14)
H20 H -0.14290 -0.01440 0.09850
C27 C 0.0525(4) 0.00340(19) 0.11201(12)
C28 C 0.0841(4) 0.0455(2) 0.06881(13)
N1 N -0.0032(4) 0.17360(18) 0.98614(13)
H21 H 0.01170 0.12500 0.99730
H22 H 0.01500 0.20430 1.00560
H23 H 0.07070 0.17820 0.96170
H24 H -0.08550 0.15520 0.98130
Yb1D Yb -0.085684(15) -0.115738(8) 0.504401(5)
Yb1B Yb -0.085684(15) -0.384262(8) 0.004401(5)
Yb1F Yb 0.085684(15) 0.384262(8) 0.995599(5)
O1D O -0.2415(3) -0.15200(14) 0.44515(9)
O2D O -0.0542(3) -0.21091(14) 0.45169(9)
O3D O -0.2939(3) -0.35389(15) 0.26723(9)
O4D O -0.2250(3) -0.20092(13) 0.06923(9)
O5D O -0.1957(3) -0.31096(14) 0.04815(9)
O5B O -0.1957(3) -0.18904(14) 0.54815(9)
O5F O 0.1957(3) 0.18904(14) 0.45185(9)
O6D O -0.0250(3) -0.06362(13) 0.57248(9)
O7D O 0.0038(3) 0.04472(14) 0.54745(8)
O8D O 0.0345(4) 0.10577(14) 0.76506(10)
O9D O -0.2031(3) -0.05993(16) 0.94003(10)
O10D O 0.0128(3) -0.06429(18) 0.95648(12)
O11D O 0.1339(3) -0.15280(15) 0.51329(9)
H1D H 0.14810 -0.18860 0.49580
H2D H 0.14740 -0.16510 0.54230
O12D O -0.2500(3) -0.03421(15) 0.51217(9)
H3D H -0.31420 -0.04340 0.49320
H4D H -0.21850 0.00620 0.50490
C1D C -0.1642(4) -0.19975(19) 0.43041(12)
C2D C -0.2002(4) -0.24063(19) 0.38759(12)
C3D C -0.1121(4) -0.2894(2) 0.36982(14)
H5D H -0.03170 -0.29800 0.38540
C4D C -0.3193(4) -0.2282(3) 0.36397(15)
H6D H -0.37890 -0.19490 0.37550
C5D C -0.1429(5) -0.3254(2) 0.32895(14)
H7D H -0.08290 -0.35800 0.31680
C6D C -0.3500(5) -0.2650(3) 0.32349(16)
H8D H -0.43060 -0.25710 0.30790
C7D C -0.2616(4) -0.3132(2) 0.30647(12)
C8D C -0.2710(4) -0.32824(19) 0.22230(12)
C9D C -0.2844(4) -0.37636(18) 0.18619(14)
H9D H -0.30600 -0.42240 0.19320
C10D C -0.2385(5) -0.2598(2) 0.21231(13)
H10D H -0.22730 -0.22760 0.23660
C11D C -0.2659(4) -0.35616(18) 0.14002(13)
H11D H -0.27350 -0.38890 0.11590
C12D C -0.2227(4) -0.23971(19) 0.16557(13)
H12D H -0.20280 -0.19340 0.15860
C13D C -0.2360(4) -0.28753(18) 0.12902(11)
C14D C -0.2184(3) -0.26418(18) 0.07879(12)
C15D C -0.0119(3) 0.00061(17) 0.58022(12)
C16D C -0.0123(3) 0.02625(18) 0.62978(11)
C17D C 0.0016(4) -0.02020(19) 0.66736(12)
H13D H 0.00320 -0.06800 0.66170
C18D C -0.0189(4) 0.09728(19) 0.63896(13)
H14D H -0.03130 0.12840 0.61410
C19D C 0.0130(4) 0.00491(18) 0.71344(13)
H15D H 0.02230 -0.02590 0.73870
C20D C -0.0074(4) 0.12241(18) 0.68459(13)
H16D H -0.01160 0.17010 0.69050
C21D C 0.0105(4) 0.07578(19) 0.72133(12)
C22D C 0.0035(4) 0.06709(19) 0.80549(12)
C23D C -0.1239(5) 0.0437(3) 0.81316(15)
H17D H -0.19070 0.05140 0.79080
C24D C 0.1046(4) 0.05688(19) 0.83770(14)
H18D H 0.19060 0.07340 0.83180
C25D C -0.1523(4) 0.0085(3) 0.85475(14)
H19D H -0.23890 -0.00740 0.86040
C26D C 0.0756(4) 0.0215(2) 0.87922(14)
H20D H 0.14290 0.01440 0.90150
C27D C -0.0525(4) -0.00340(19) 0.88799(12)
C28D C -0.0841(4) -0.0455(2) 0.93119(13)
#END
