
#######################################################################
#
#                 Cambridge Crystallographic Data Centre
#                                CCDC
#
#######################################################################
#
# If this CIF has been generated from an entry in the Cambridge
# Structural Database, then it will include bibliographic, chemical,
# crystal, experimental, refinement or atomic coordinate data resulting
# from the CCDC's data processing and validation procedures.
#
#######################################################################

data_CSD_CIF_TAPXAL
_audit_creation_date 2012-04-10
_audit_creation_method CSD-ConQuest-V1
_database_code_CSD TAPXAL
_database_code_depnum_ccdc_archive 'CCDC 869475'
_chemical_formula_sum 'C58 H46 N2 O22 Yb2'
_chemical_formula_moiety
;
(C2 H10 N2 2+)n,n(C56 H36 O22 Yb2 2-)
;
_journal_coden_Cambridge 9
_journal_volume 49
_journal_year 2010
_journal_page_first 2316
_journal_name_full 'Inorg.Chem. '
loop_
_publ_author_name
"You-Wen Lin"
"Bo-Ren Jian"
"Sin-Chiang Huang"
"Chin-Her Huang"
"Keui-Fang Hsu"
_chemical_name_systematic
;
catena-(Ethane-1,2-diammonium 
bis((\m~3~-4,4'-oxydibenzoato)-(\m~2~-4,4'-oxydibenzoato)-aqua)-di-ytterbium)
;
_cell_volume   1349.483
_exptl_crystal_colour 'colorless'
_exptl_crystal_density_diffrn 1.808
_exptl_crystal_description 'plate'
_diffrn_ambient_temperature 293
#These two values have been output from a single CSD field.
_refine_ls_R_factor_gt 0.0236
_refine_ls_wR_factor_gt 0.0236
_symmetry_cell_setting triclinic
_symmetry_space_group_name_H-M 'P -1'
_symmetry_Int_Tables_number 2
loop_
_symmetry_equiv_pos_site_id
_symmetry_equiv_pos_as_xyz
1 x,y,z
2 -x,-y,-z
_cell_length_a 9.5795(2)
_cell_length_b 10.4344(2)
_cell_length_c 14.6343(3)
_cell_angle_alpha 71.945(1)
_cell_angle_beta 76.259(1)
_cell_angle_gamma 88.254(1)
_cell_formula_units_Z 1
loop_
_atom_type_symbol
_atom_type_radius_bond
C 0.68
H 0.23
N 0.68
O 0.68
Yb 1.87
loop_
_atom_site_label
_atom_site_type_symbol
_atom_site_fract_x
_atom_site_fract_y
_atom_site_fract_z
Yb1 Yb 0.719819(11) 0.632388(10) 0.507022(7)
O1 O 0.8288(2) 0.6596(2) 0.61527(14)
O2 O 0.7818(2) 0.8023(2) 0.70334(16)
O3 O 0.8537(3) 0.2639(2) 1.03673(16)
O4 O 0.6493(2) 0.2296(2) 1.48919(16)
O5 O 0.4371(2) 0.2192(2) 1.45486(15)
O6 O 0.6400(2) 0.6080(2) 0.38624(14)
O7 O 0.4513(2) 0.5033(2) 0.37533(15)
O8 O 0.6158(2) 0.8885(2) -0.06101(14)
O9 O 1.18226(19) 1.15787(19) -0.38705(14)
O10 O 1.03690(19) 1.32436(19) -0.41186(14)
O11 O 0.8091(2) 0.4244(2) 0.50997(17)
C1 C 0.8080(3) 0.6878(3) 0.6964(2)
C2 C 0.8190(3) 0.5761(3) 0.7867(2)
C3 C 0.7590(3) 0.5878(3) 0.8804(2)
H1 H 0.71230 0.66560 0.88570
C4 C 0.8897(3) 0.4595(3) 0.7804(2)
H2 H 0.92930 0.44970 0.71860
C5 C 0.7679(3) 0.4862(3) 0.9651(2)
H3 H 0.72660 0.49480 1.02710
C6 C 0.9017(4) 0.3587(3) 0.8645(2)
H4 H 0.95160 0.28230 0.85950
C7 C 0.8390(3) 0.3715(3) 0.9570(2)
C8 C 0.7807(3) 0.2632(3) 1.1322(2)
C9 C 0.8494(3) 0.3139(4) 1.1860(2)
H5 H 0.94050 0.35610 1.15750
C10 C 0.6446(4) 0.2018(4) 1.1719(2)
H6 H 0.59950 0.16670 1.13460
C11 C 0.7829(3) 0.3023(3) 1.2831(2)
H7 H 0.83050 0.33490 1.32050
C12 C 0.5771(3) 0.1935(4) 1.2680(2)
H8 H 0.48430 0.15490 1.29490
C13 C 0.6454(3) 0.2421(3) 1.3255(2)
C14 C 0.5735(3) 0.2302(3) 1.4309(2)
C15 C 0.5564(3) 0.5866(3) 0.33866(19)
C16 C 0.5824(3) 0.6633(3) 0.23141(19)
C17 C 0.6770(3) 0.7773(3) 0.1899(2)
H9 H 0.72880 0.80200 0.22860
C18 C 0.5088(3) 0.6264(3) 0.1720(2)
H10 H 0.44620 0.55060 0.19880
C19 C 0.6941(3) 0.8539(3) 0.0912(2)
H11 H 0.75590 0.93030 0.06380
C20 C 0.5272(3) 0.7009(3) 0.0737(2)
H12 H 0.47850 0.67450 0.03410
C21 C 0.6180(3) 0.8147(3) 0.03449(19)
C22 C 0.7322(3) 0.9661(3) -0.12788(19)
C23 C 0.8731(3) 0.9313(3) -0.1328(2)
H13 H 0.89620 0.85730 -0.08480
C24 C 0.6964(3) 1.0790(3) -0.1962(2)
H14 H 0.60080 1.10160 -0.19130
C25 C 0.9797(3) 1.0087(3) -0.2107(2)
H15 H 1.07480 0.98440 -0.21670
C26 C 0.8034(3) 1.1574(3) -0.2716(2)
H16 H 0.78030 1.23430 -0.31720
C27 C 0.9457(3) 1.1223(3) -0.27986(19)
C28 C 1.0607(3) 1.2053(3) -0.36344(19)
C29 C 0.9468(3) 0.0531(3) 1.4836(2)
N1 N 0.7982(3) -0.0073(2) 1.52482(19)
H17 H 0.77290 -0.04060 1.48170
H18 H 0.73810 0.05580 1.53630
H19 H 0.79440 -0.07320 1.58130
Yb1A Yb 0.280181(11) 0.367612(10) 0.492978(7)
Yb1* Yb -0.280181(11) -0.367612(10) 1.507022(7)
Yb1** Yb 0.719819(11) 0.632388(10) -0.492978(7)
Yb1A* Yb 0.280181(11) 0.367612(10) 1.492978(7)
Yb1A** Yb 1.280181(11) 1.367612(10) -0.507022(7)
O1A O 0.1712(2) 0.3404(2) 0.38473(14)
O2A O 0.2182(2) 0.1977(2) 0.29666(16)
O3A O 0.1463(3) 0.7361(2) -0.03673(16)
O4A O 0.3507(2) 0.7704(2) -0.48919(16)
O5A O 0.5629(2) 0.7808(2) -0.45486(15)
O5* O 0.4371(2) 0.2192(2) 0.45486(15)
O5A* O 0.5629(2) 0.7808(2) 0.54514(15)
O6A O 0.3600(2) 0.3920(2) 0.61376(14)
O7A O 0.5487(2) 0.4967(2) 0.62467(15)
O8A O 0.3842(2) 0.1115(2) 1.06101(14)
O9A O -0.18226(19) -0.15787(19) 1.38705(14)
O9* O 0.18226(19) 0.15787(19) 0.61295(14)
O9A* O 0.81774(19) 0.84213(19) 0.38705(14)
O10A O -0.03690(19) -0.32436(19) 1.41186(14)
O10* O 0.03690(19) 0.32436(19) 0.58814(14)
O10A* O 0.96310(19) 0.67564(19) 0.41186(14)
O11A O 0.1909(2) 0.5756(2) 0.49003(17)
C1A C 0.1920(3) 0.3122(3) 0.3036(2)
C2A C 0.1810(3) 0.4239(3) 0.2133(2)
C3A C 0.2410(3) 0.4122(3) 0.1196(2)
H1A H 0.28770 0.33440 0.11430
C4A C 0.1103(3) 0.5405(3) 0.2196(2)
H2A H 0.07070 0.55030 0.28140
C5A C 0.2321(3) 0.5138(3) 0.0349(2)
H3A H 0.27340 0.50520 -0.02710
C6A C 0.0983(4) 0.6413(3) 0.1355(2)
H4A H 0.04840 0.71770 0.14050
C7A C 0.1610(3) 0.6285(3) 0.0430(2)
C8A C 0.2193(3) 0.7368(3) -0.1322(2)
C9A C 0.1506(3) 0.6861(4) -0.1860(2)
H5A H 0.05950 0.64390 -0.15750
C10A C 0.3554(4) 0.7982(4) -0.1719(2)
H6A H 0.40050 0.83330 -0.13460
C11A C 0.2171(3) 0.6977(3) -0.2831(2)
H7A H 0.16950 0.66510 -0.32050
C12A C 0.4229(3) 0.8065(4) -0.2680(2)
H8A H 0.51570 0.84510 -0.29490
C13A C 0.3546(3) 0.7579(3) -0.3255(2)
C14A C 0.4265(3) 0.7698(3) -0.4309(2)
C15A C 0.4436(3) 0.4134(3) 0.66134(19)
C16A C 0.4176(3) 0.3367(3) 0.76859(19)
C17A C 0.3230(3) 0.2227(3) 0.8101(2)
H9A H 0.27120 0.19800 0.77140
C18A C 0.4912(3) 0.3736(3) 0.8280(2)
H10A H 0.55380 0.44940 0.80120
C19A C 0.3059(3) 0.1461(3) 0.9088(2)
H11A H 0.24410 0.06970 0.93620
C20A C 0.4728(3) 0.2991(3) 0.9263(2)
H12A H 0.52150 0.32550 0.96590
C21A C 0.3820(3) 0.1853(3) 0.96551(19)
C22A C 0.2678(3) 0.0339(3) 1.12788(19)
C23A C 0.1269(3) 0.0687(3) 1.1328(2)
H13A H 0.10380 0.14270 1.08480
C24A C 0.3036(3) -0.0790(3) 1.1962(2)
H14A H 0.39920 -0.10160 1.19130
C25A C 0.0203(3) -0.0087(3) 1.2107(2)
H15A H -0.07480 0.01560 1.21670
C26A C 0.1966(3) -0.1574(3) 1.2716(2)
H16A H 0.21970 -0.23430 1.31720
C27A C 0.0543(3) -0.1223(3) 1.27986(19)
C28A C -0.0607(3) -0.2053(3) 1.36344(19)
C28* C 0.0607(3) 0.2053(3) 0.63656(19)
C28A* C 0.9393(3) 0.7947(3) 0.36344(19)
C29A C 1.0532(3) -0.0531(3) 1.5164(2)
N1A N 1.2018(3) 0.0073(2) 1.47518(19)
H17A H 1.22710 0.04060 1.51830
H18A H 1.26190 -0.05580 1.46370
H19A H 1.20560 0.07320 1.41870
#END
