
#######################################################################
#
#                 Cambridge Crystallographic Data Centre
#                                CCDC
#
#######################################################################
#
# If this CIF has been generated from an entry in the Cambridge
# Structural Database, then it will include bibliographic, chemical,
# crystal, experimental, refinement or atomic coordinate data resulting
# from the CCDC's data processing and validation procedures.
#
#######################################################################

data_CSD_CIF_TARDOH
_audit_creation_date 2012-04-25
_audit_creation_method CSD-ConQuest-V1
_database_code_CSD TARDOH
_database_code_depnum_ccdc_archive 'CCDC 846247'
_chemical_formula_sum 'C24 H39 N4 O61 P1 Sr2 W12'
_chemical_formula_moiety
;
(C24 H34 N4 O59 P1 Sr2 W12 1-)n,n(H3 O1 1+),n(H2 O1)
;
_journal_coden_Cambridge 211
_journal_volume 64
_journal_year 2011
_journal_page_first 4318
_journal_name_full 'J.Coord.Chem. '
loop_
_publ_author_name
"Meilin Wei"
"Huihua Li"
"Guangjie He"
_chemical_name_systematic
;
catena-(Oxonium 
(\m~12~-phosphato)-(\m~2~-aqua)-hexacosakis(\m~2~-oxo)-hexa-aqua-tetrakis(ison
icotinic acid N-oxide)-decaoxo-strontium-dodeca-tungsten monohydrate)
;
_cell_volume   3192.337
_exptl_crystal_colour 'colorless'
_exptl_crystal_description 'block'
_diffrn_ambient_temperature 293
_refine_special_details
;
The oxygen atoms of the phosphate moiety are disordered by symmetry. One of 
the water molecules is disordered by symmetry. The two sites represented as 
strontium are each 50:50 mixed strontium:void sites. The sum formula is C24 
H39 N4 O61 P Sr W12.
;
#These two values have been output from a single CSD field.
_refine_ls_R_factor_gt 0.0705
_refine_ls_wR_factor_gt 0.0705
_symmetry_cell_setting orthorhombic
_symmetry_space_group_name_H-M 'P n n m'
_symmetry_Int_Tables_number 58
loop_
_symmetry_equiv_pos_site_id
_symmetry_equiv_pos_as_xyz
1 x,y,z
2 -x,-y,z
3 1/2-x,1/2+y,1/2-z
4 1/2+x,1/2-y,1/2-z
5 -x,-y,-z
6 x,y,-z
7 -1/2+x,-1/2-y,-1/2+z
8 -1/2-x,-1/2+y,-1/2+z
_cell_length_a 10.474(10)
_cell_length_b 15.770(15)
_cell_length_c 19.327(19)
_cell_angle_alpha 90
_cell_angle_beta 90
_cell_angle_gamma 90
_cell_formula_units_Z 2
loop_
_atom_type_symbol
_atom_type_radius_bond
C 0.68
H 0.23
N 0.68
O 0.68
P 1.05
Sr 1.83
W 1.40
loop_
_atom_site_label
_atom_site_type_symbol
_atom_site_fract_x
_atom_site_fract_y
_atom_site_fract_z
W1 W 0.21661(5) 0.55520(4) 0.59177(3)
W2 W 0.23237(8) 0.36076(5) 0.50000
W3 W 0.48465(6) 0.69449(4) 0.59202(3)
W4 W 0.50000 0.50000 0.68367(4)
P1 P 0.50000 0.50000 0.50000
O1 O 0.4504(14) 0.5433(10) 0.5650(7)
O2 O 0.3598(19) 0.4925(14) 0.50000
O3? O 0.458(2) 0.4126(16) 0.50000
O4 O 0.1704(13) 0.5821(9) 0.50000
O5 O 0.0874(10) 0.5789(6) 0.6366(5)
O6 O 0.1831(11) 0.4379(7) 0.5675(5)
O7 O 0.3255(10) 0.5156(7) 0.6636(5)
O8 O 0.3109(10) 0.6606(7) 0.5963(6)
O9 O 0.1140(14) 0.2931(10) 0.50000
O10 O 0.3388(10) 0.3168(7) 0.4339(5)
O11 O 0.480(1) 0.7848(7) 0.6356(5)
O12 O 0.5189(9) 0.6161(7) 0.6634(6)
O13 O 0.4528(12) 0.7255(12) 0.50000
O14 O 0.50000 0.50000 0.7678(7)
Sr1 Sr 0.0947(3) 0.1163(2) 0.50000
O15 O -0.1282(17) 0.2049(13) 0.50000
O16 O 0.326(3) 0.112(2) 0.50000
O17 O 0.00000 0.00000 0.5831(11)
O18 O 0.1490(11) 0.1592(8) 0.6279(5)
O19 O 0.2242(12) 0.4589(9) 0.8400(6)
O20 O 0.2882(10) 0.1074(7) 0.7062(5)
H1 H 0.27200 0.06350 0.68520
N1 N 0.2288(12) 0.3941(8) 0.7982(6)
C1 C 0.1552(14) 0.3919(11) 0.7430(8)
H2 H 0.10610 0.43850 0.73030
C2 C 0.1533(12) 0.3125(9) 0.7017(7)
H3 H 0.09980 0.30750 0.66360
C3 C 0.2291(12) 0.2483(10) 0.7199(7)
C4 C 0.3094(14) 0.2546(11) 0.7723(7)
H4 H 0.36570 0.21060 0.78220
C5 C 0.3087(16) 0.3261(9) 0.8118(7)
H5 H 0.36400 0.32940 0.84930
C6 C 0.2187(15) 0.1699(9) 0.6808(7)
O21 O 0.3466(8) -0.0948(8) 0.50000
O22 O 0.1915(12) -0.0107(11) 0.50000
O23? O 0.029(6) 0.506(7) 0.081(2)
W1A W 0.78339(5) 0.44480(4) 0.59177(3)
W1E W 0.21661(5) 0.55520(4) 0.40823(3)
W1D W 0.78339(5) 0.44480(4) 0.40823(3)
W2A W 0.76763(8) 0.63924(5) 0.50000
W3A W 0.51535(6) 0.30551(4) 0.59202(3)
W3E W 0.48465(6) 0.69449(4) 0.40798(3)
W3D W 0.51535(6) 0.30551(4) 0.40798(3)
W4D W 0.50000 0.50000 0.31633(4)
O1A O 0.5496(14) 0.4567(10) 0.5650(7)
O1E O 0.4504(14) 0.5433(10) 0.4350(7)
O1D O 0.5496(14) 0.4567(10) 0.4350(7)
O2A O 0.6402(19) 0.5075(14) 0.50000
O4A O 0.8296(13) 0.4179(9) 0.50000
O5A O 0.9126(10) 0.4211(6) 0.6366(5)
O5E O 0.0874(10) 0.5789(6) 0.3634(5)
O5D O 0.9126(10) 0.4211(6) 0.3634(5)
O6E O 0.1831(11) 0.4379(7) 0.4325(5)
O6A O 0.8169(11) 0.5621(7) 0.5675(5)
O6D O 0.8169(11) 0.5621(7) 0.4325(5)
O7A O 0.6745(10) 0.4844(7) 0.6636(5)
O7D O 0.6745(10) 0.4844(7) 0.3364(5)
O7E O 0.3255(10) 0.5156(7) 0.3364(5)
O8A O 0.6891(10) 0.3394(7) 0.5963(6)
O8E O 0.3109(10) 0.6606(7) 0.4037(6)
O8D O 0.6891(10) 0.3394(7) 0.4037(6)
O9A O 0.8860(14) 0.7069(10) 0.50000
O10E O 0.3388(10) 0.3168(7) 0.5661(5)
O10D O 0.6612(10) 0.6832(7) 0.5661(5)
O10A O 0.6612(10) 0.6832(7) 0.4339(5)
O11A O 0.520(1) 0.2152(7) 0.6356(5)
O11E O 0.480(1) 0.7848(7) 0.3644(5)
O11D O 0.520(1) 0.2152(7) 0.3644(5)
O12A O 0.4811(9) 0.3839(7) 0.6634(6)
O12E O 0.5189(9) 0.6161(7) 0.3366(6)
O12D O 0.4811(9) 0.3839(7) 0.3366(6)
O13A O 0.5472(12) 0.2745(12) 0.50000
O14D O 0.50000 0.50000 0.2322(7)
Sr1A Sr 0.9053(3) 0.8837(2) 0.50000
Sr1A* Sr -0.0947(3) -0.1163(2) 0.50000
O15A O 1.1282(17) 0.7951(13) 0.50000
O16A O 0.674(3) 0.888(2) 0.50000
O17D O 0.00000 0.00000 0.4169(11)
O17* O 1.00000 1.00000 0.5831(11)
O17D* O 1.00000 1.00000 0.4169(11)
O18E O 0.1490(11) 0.1592(8) 0.3721(5)
O18A O 0.8510(11) 0.8408(8) 0.6279(5)
O18D O 0.8510(11) 0.8408(8) 0.3721(5)
O19E O 0.2242(12) 0.4589(9) 0.1600(6)
O19A O 0.7758(12) 0.5411(9) 0.8400(6)
O19D O 0.7758(12) 0.5411(9) 0.1600(6)
O20E O 0.2882(10) 0.1074(7) 0.2938(5)
O20A O 0.7118(10) 0.8926(7) 0.7062(5)
O20D O 0.7118(10) 0.8926(7) 0.2938(5)
H1E H 0.27200 0.06350 0.31480
H1A H 0.72800 0.93650 0.68520
H1D H 0.72800 0.93650 0.31480
N1E N 0.2288(12) 0.3941(8) 0.2018(6)
N1A N 0.7712(12) 0.6059(8) 0.7982(6)
N1D N 0.7712(12) 0.6059(8) 0.2018(6)
C1E C 0.1552(14) 0.3919(11) 0.2570(8)
C1A C 0.8448(14) 0.6081(11) 0.7430(8)
C1D C 0.8448(14) 0.6081(11) 0.2570(8)
H2E H 0.10610 0.43850 0.26970
H2A H 0.89390 0.56150 0.73030
H2D H 0.89390 0.56150 0.26970
C2E C 0.1533(12) 0.3125(9) 0.2983(7)
C2A C 0.8467(12) 0.6875(9) 0.7017(7)
C2D C 0.8467(12) 0.6875(9) 0.2983(7)
H3E H 0.09980 0.30750 0.33640
H3A H 0.90020 0.69250 0.66360
H3D H 0.90020 0.69250 0.33640
C3E C 0.2291(12) 0.2483(10) 0.2801(7)
C3A C 0.7709(12) 0.7517(10) 0.7199(7)
C3D C 0.7709(12) 0.7517(10) 0.2801(7)
C4E C 0.3094(14) 0.2546(11) 0.2277(7)
C4A C 0.6906(14) 0.7454(11) 0.7723(7)
C4D C 0.6906(14) 0.7454(11) 0.2277(7)
H4E H 0.36570 0.21060 0.21780
H4A H 0.63430 0.78940 0.78220
H4D H 0.63430 0.78940 0.21780
C5E C 0.3087(16) 0.3261(9) 0.1882(7)
C5A C 0.6913(16) 0.6739(9) 0.8118(7)
C5D C 0.6913(16) 0.6739(9) 0.1882(7)
H5E H 0.36400 0.32940 0.15070
H5A H 0.63600 0.67060 0.84930
H5D H 0.63600 0.67060 0.15070
C6E C 0.2187(15) 0.1699(9) 0.3192(7)
C6A C 0.7813(15) 0.8301(9) 0.6808(7)
C6D C 0.7813(15) 0.8301(9) 0.3192(7)
O22A O 0.8085(12) 1.0107(11) 0.50000
#END
