
#######################################################################
#
#                 Cambridge Crystallographic Data Centre
#                                CCDC
#
#######################################################################
#
# If this CIF has been generated from an entry in the Cambridge
# Structural Database, then it will include bibliographic, chemical,
# crystal, experimental, refinement or atomic coordinate data resulting
# from the CCDC's data processing and validation procedures.
#
#######################################################################

data_CSD_CIF_TASCOH
_audit_creation_date 2012-04-25
_audit_creation_method CSD-ConQuest-V1
_database_code_CSD TASCOH
_database_code_depnum_ccdc_archive 'CCDC 772481'
_chemical_formula_sum 'C21 H44 Mn1 N14 O45 W12'
_chemical_formula_moiety
;
(C3 H5 N2 1+)6n,n(C3 H10 Mn1 N2 O43 W12 6-),2n(H2 O1)
;
_journal_coden_Cambridge 155
_journal_volume 379
_journal_year 2011
_journal_page_first 151
_journal_name_full 'Inorg.Chim.Acta '
loop_
_publ_author_name
"Song Gao"
"Jingxiang Zhao"
"Baibin Zhou"
"Kai Yu"
"Zhanhua Su"
"Lu Wang"
"Yongkui Yin"
"Zhifeng Zhao"
"Yang Yu"
"Ying Chen"
_chemical_name_systematic
;
catena-[hexakis(Imidazolium) 
hexakis(\m~3~-oxo)-tetrakis(\m~2~-hydroxo)-octadecakis(\m~2~-oxo)-aqua-(imidaz
ole-N^3^)-tetradeca-oxo-manganese-dodeca-tungsten dihydrate]
;
_cell_volume   3691.736
_exptl_crystal_colour 'yellow'
_exptl_crystal_density_diffrn 3.111
_exptl_special_details
;
We calculate 7.1% void space in the structure. The four hydride required for 
charge balance on the polytungstate cluster were not located from the 
diffraction data
;
_exptl_crystal_description 'block'
_diffrn_ambient_temperature 273
_refine_special_details
;
The imidazole ligand is disordered by symmetry.

;
#These two values have been output from a single CSD field.
_refine_ls_R_factor_gt 0.0429
_refine_ls_wR_factor_gt 0.0429
_symmetry_cell_setting monoclinic
_symmetry_space_group_name_H-M 'P 21/m'
_symmetry_Int_Tables_number 11
loop_
_symmetry_equiv_pos_site_id
_symmetry_equiv_pos_as_xyz
1 x,y,z
2 -x,1/2+y,-z
3 -x,-y,-z
4 x,-1/2-y,z
_cell_length_a 11.7985(8)
_cell_length_b 23.3231(17)
_cell_length_c 14.2971(10)
_cell_angle_alpha 90
_cell_angle_beta 110.222(1)
_cell_angle_gamma 90
_cell_formula_units_Z 2
loop_
_atom_type_symbol
_atom_type_radius_bond
C 0.68
H 0.23
Mn 1.61
N 0.68
O 0.68
W 1.43
loop_
_atom_site_label
_atom_site_type_symbol
_atom_site_fract_x
_atom_site_fract_y
_atom_site_fract_z
O1 O -0.1792(9) 0.4057(4) -0.4125(7)
O2 O -0.3739(9) 0.4921(4) -0.3541(7)
W1 W -0.11816(5) 0.389626(19) -0.28622(3)
W2 W 0.19418(4) 0.384790(19) 0.13336(4)
W3 W -0.09337(4) 0.388421(18) -0.02127(3)
W4 W 0.16272(4) 0.394726(19) -0.13328(4)
W5 W -0.00354(4) 0.465990(18) 0.19185(3)
W6 W -0.31265(4) 0.47232(2) -0.22677(4)
Mn1 Mn 0.0365(3) 0.25000 -0.2172(2)
O3 O -0.0178(7) 0.3867(3) -0.1191(6)
O4 O -0.0980(7) 0.4023(3) 0.1128(6)
O5 O 0.0534(7) 0.4518(3) 0.0589(6)
O6 O 0.1301(8) 0.4031(3) 0.2303(6)
O7 O 0.1134(7) 0.4826(3) -0.1191(6)
O8 O -0.2608(8) 0.3949(3) -0.2531(6)
O9 O -0.1268(7) 0.4808(3) -0.2365(6)
O10 O -0.1950(7) 0.4476(3) -0.0754(6)
O11 O 0.2281(7) 0.3947(3) 0.0059(6)
O12 O 0.0603(8) 0.3419(3) 0.0611(6)
O13 O -0.0449(8) 0.4559(4) 0.2952(6)
O14 O -0.1871(8) 0.3299(3) -0.0497(7)
O15 O 0.1623(8) 0.3198(4) -0.1532(7)
O16 O -0.4410(8) 0.4495(4) -0.2040(7)
O17 O 0.2950(8) 0.4544(3) 0.1723(7)
O18 O 0.0449(8) 0.4084(4) -0.2682(6)
O19 O 0.2905(8) 0.4159(4) -0.1586(7)
O20 O -0.1068(8) 0.3146(3) -0.2836(7)
O21 O 0.0145(17) 0.25000 -0.0725(12)
H1 H 0.00140 0.21720 -0.05820
O22 O 0.3026(9) 0.3337(4) 0.1912(7)
N1 N 0.089(2) 0.25000 -0.3474(16)
C1 C 0.111(2) 0.2952(8) -0.3953(15)
H2 H 0.10250 0.33310 -0.37880
N2 N 0.149(2) 0.2791(9) -0.4712(14)
C2 C 0.2781(13) 0.4795(6) 0.5032(11)
H3 H 0.29990 0.49160 0.44990
C3 C 0.1615(14) 0.4702(7) 0.4991(11)
H4 H 0.09070 0.47430 0.44460
C4 C 0.2924(16) 0.4536(7) 0.6510(11)
H5 H 0.32550 0.44480 0.71850
N3 N 0.1738(18) 0.4533(7) 0.5950(13)
N4 N 0.3533(17) 0.4689(9) 0.5920(19)
C5 C 0.5262(13) 0.5760(6) 0.9401(10)
H6 H 0.60830 0.58390 0.95960
C6 C 0.3523(13) 0.5570(7) 0.9461(12)
H7 H 0.29060 0.54880 0.97050
N5 N 0.4652(15) 0.5660(7) 1.0013(13)
N6 N 0.3381(16) 0.5613(9) 0.8480(19)
C7 C 0.4485(15) 0.5729(8) 0.8447(13)
H8 H 0.46800 0.57790 0.78750
N7 N 0.0814(17) 0.7963(5) 0.7956(11)
C8 C 0.093(3) 0.7783(8) 0.7085(17)
H9 H 0.09920 0.80180 0.65800
C9 C 0.077(3) 0.75000 0.847(2)
H10 H 0.07060 0.75000 0.91020
O23 O 0.1748(18) 0.6089(8) 0.6042(15)
O24 O 0.274(3) 0.3519(10) 0.4142(16)
C10 C 0.489(3) 0.7792(14) 0.351(3)
H11 H 0.54730 0.80340 0.39340
N8 N 0.382(2) 0.7951(10) 0.2730(19)
C11 C 0.303(4) 0.75000 0.229(3)
H12? H 0.34190 0.82080 0.29710
H13? H 0.40240 0.81280 0.22520
H14? H 0.23180 0.75000 0.24860
H15? H 0.27900 0.75000 0.15720
O1B O 0.1792(9) 0.5943(4) 0.4125(7)
O2B O 0.3739(9) 0.5079(4) 0.3541(7)
W1B W 0.11816(5) 0.610374(19) 0.28622(3)
W2B W -0.19418(4) 0.615210(19) -0.13336(4)
W3B W 0.09337(4) 0.611579(18) 0.02127(3)
W4B W -0.16272(4) 0.605274(19) 0.13328(4)
W5B W 0.00354(4) 0.534010(18) -0.19185(3)
W6B W 0.31265(4) 0.52768(2) 0.22677(4)
Mn1A Mn -0.0365(3) 0.75000 0.2172(2)
O3B O 0.0178(7) 0.6133(3) 0.1191(6)
O4B O 0.0980(7) 0.5977(3) -0.1128(6)
O5B O -0.0534(7) 0.5482(3) -0.0589(6)
O6B O -0.1301(8) 0.5969(3) -0.2303(6)
O7B O -0.1134(7) 0.5174(3) 0.1191(6)
O8B O 0.2608(8) 0.6051(3) 0.2531(6)
O9B O 0.1268(7) 0.5192(3) 0.2365(6)
O10B O 0.1950(7) 0.5524(3) 0.0754(6)
O11B O -0.2281(7) 0.6053(3) -0.0059(6)
O12B O -0.0603(8) 0.6581(3) -0.0611(6)
O13B O 0.0449(8) 0.5441(4) -0.2952(6)
O14B O 0.1871(8) 0.6701(3) 0.0497(7)
O15B O -0.1623(8) 0.6802(4) 0.1532(7)
O15C O 0.1623(8) 0.1802(4) -0.1532(7)
O16B O 0.4410(8) 0.5505(4) 0.2040(7)
O17B O -0.2950(8) 0.5456(3) -0.1723(7)
O18B O -0.0449(8) 0.5916(4) 0.2682(6)
O19B O -0.2905(8) 0.5841(4) 0.1586(7)
O20B O 0.1068(8) 0.6854(3) 0.2836(7)
O20C O -0.1068(8) 0.1854(3) -0.2836(7)
H1C H 0.00140 0.28280 -0.05820
O22B O -0.3026(9) 0.6663(4) -0.1912(7)
C1C C 0.111(2) 0.2048(8) -0.3953(15)
H2C H 0.10250 0.16690 -0.37880
N2C N 0.149(2) 0.2209(9) -0.4712(14)
N7C N 0.0814(17) 0.7037(5) 0.7956(11)
C8C C 0.093(3) 0.7217(8) 0.7085(17)
H9C H 0.09920 0.69820 0.65800
C10C C 0.489(3) 0.7208(14) 0.351(3)
H11C H 0.54730 0.69660 0.39340
N8C N 0.382(2) 0.7049(10) 0.2730(19)
#END
