
#######################################################################
#
#                 Cambridge Crystallographic Data Centre
#                                CCDC
#
#######################################################################
#
# If this CIF has been generated from an entry in the Cambridge
# Structural Database, then it will include bibliographic, chemical,
# crystal, experimental, refinement or atomic coordinate data resulting
# from the CCDC's data processing and validation procedures.
#
#######################################################################

data_CSD_CIF_TASHEC
_audit_creation_date 2012-08-03
_audit_creation_method CSD-ConQuest-V1
_database_code_CSD TASHEC
_database_code_depnum_ccdc_archive 'CCDC 852826'
_chemical_formula_sum 'C13 H16 Ag3 N17'
_chemical_formula_moiety
;
(C2 H8 Ag1 N2 1+)n,n(C11 H8 Ag2 N15 1-)
;
_journal_coden_Cambridge 1290
_journal_year 2012
_journal_page_first 978
_journal_name_full 'Eur.J.Inorg.Chem. '
loop_
_publ_author_name
"C.Clauss"
"U.Bohme"
"A.Schwarzer"
"E.Kroke"
_chemical_name_systematic
;
catena-((N,N'',N''''-1,3,4,6,7,9,9b-heptaazaphenalene-2,5,8-triyltricarbodiimi
do)-(\m~2~-1,2-diaminoethane)-di-silver (\m~2~-1,2-diaminoethane)-silver)
;
_cell_volume    984.904
_exptl_crystal_colour 'pale pink'
_exptl_crystal_density_diffrn 2.475
_exptl_crystal_description 'needle'
_diffrn_ambient_temperature 100
_refine_special_details
;
C12A,C13A,N16A,N17A and C12B,C13B,N16B,N17B disordered over two sites with 
occupancies 0.562:0.438.
;
#These two values have been output from a single CSD field.
_refine_ls_R_factor_gt 0.0404
_refine_ls_wR_factor_gt 0.0404
_symmetry_cell_setting triclinic
_symmetry_space_group_name_H-M 'P -1'
_symmetry_Int_Tables_number 2
loop_
_symmetry_equiv_pos_site_id
_symmetry_equiv_pos_as_xyz
1 x,y,z
2 -x,-y,-z
_cell_length_a 7.5499(4)
_cell_length_b 11.3438(6)
_cell_length_c 12.5741(7)
_cell_angle_alpha 72.138(4)
_cell_angle_beta 80.148(4)
_cell_angle_gamma 74.945(4)
_cell_formula_units_Z 2
loop_
_atom_type_symbol
_atom_type_radius_bond
C 0.68
H 0.23
Ag 1.34
N 0.68
loop_
_atom_site_label
_atom_site_type_symbol
_atom_site_fract_x
_atom_site_fract_y
_atom_site_fract_z
Ag1 Ag 0.50346(6) 0.31554(4) 0.46955(4)
Ag2 Ag 1.30830(6) 0.20577(4) 0.16415(4)
Ag3 Ag 0.91121(7) 0.88907(4) -0.03071(4)
N1 N 1.3341(6) 0.7151(4) -0.2707(4)
N2 N 1.5275(6) 0.5175(4) -0.2483(4)
N3 N 1.4953(6) 0.3540(4) -0.0748(4)
N4 N 1.2787(6) 0.3976(4) 0.0685(4)
N5 N 1.0825(6) 0.6071(4) 0.0466(4)
N6 N 1.1097(7) 0.7618(4) -0.1187(4)
N7 N 1.3045(6) 0.5588(4) -0.0988(4)
N8 N 1.1177(7) 0.9093(4) -0.2888(4)
N9 N 1.2469(8) 0.9845(5) -0.4875(4)
N10 N 1.7141(6) 0.3207(4) -0.2260(4)
N11 N 1.8412(8) 0.1057(5) -0.1104(5)
N12 N 1.0599(6) 0.4413(5) 0.2092(4)
N13 N 0.8022(7) 0.5875(5) 0.2889(4)
C1 C 1.1910(8) 0.7930(5) -0.2277(5)
C2 C 1.3922(7) 0.5976(5) -0.2091(4)
C3 C 1.5754(7) 0.3996(5) -0.1822(4)
C4 C 1.3620(7) 0.4334(5) -0.0356(4)
C5 C 1.1404(7) 0.4850(5) 0.1064(4)
C6 C 1.1649(8) 0.6438(5) -0.0565(5)
C7 C 1.1921(9) 0.9433(5) -0.3941(5)
C8 C 1.7747(8) 0.2074(5) -0.1595(5)
C9 C 0.9257(8) 0.5246(6) 0.2473(5)
N14 N 0.7344(6) 0.3657(5) 0.5139(4)
H1 H 0.73480 0.44930 0.47700
H2 H 0.72030 0.35720 0.58990
N15 N 1.2534(6) 0.2683(4) 0.4459(4)
H3 H 1.24460 0.28920 0.36990
H4 H 1.26640 0.18180 0.47320
C10 C 0.9128(7) 0.2844(5) 0.4844(5)
H5 H 0.91900 0.28340 0.40540
H6 H 0.91900 0.19630 0.53240
C11 C 1.0782(7) 0.3295(6) 0.4986(5)
H7 H 1.05750 0.42260 0.46530
H8 H 1.08830 0.31180 0.57980
N16 N 1.3308(7) 0.0136(5) 0.2659(4)
H9 H 1.27980 -0.02900 0.23170
H10 H 1.26350 0.01380 0.33420
N17 N 1.6671(16) -0.1296(9) 0.1110(7)
H11 H 1.67680 -0.21340 0.15100
H12 H 1.55700 -0.10130 0.07960
C12 C 1.5209(12) -0.0552(17) 0.2851(9)
H13 H 1.56140 -0.02160 0.33860
H14 H 1.51780 -0.14510 0.32350
C13 C 1.6711(15) -0.0543(10) 0.1864(8)
H15 H 1.79230 -0.08490 0.21710
H16 H 1.66370 0.03490 0.14090
C14? C 1.491(2) 0.078(2) -0.2701(11)
C15? C 1.4149(16) 0.0512(12) -0.1463(11)
H17? H 1.40990 0.06250 -0.31590
H18? H 1.50780 0.16630 -0.30080
H19? H 1.40920 -0.03940 -0.11530
H20? H 1.49520 0.07040 -0.10230
H21? H 1.75020 0.01960 -0.24290
H22? H 1.71110 -0.01660 -0.33840
H23? H 1.15860 0.11460 -0.18330
H24? H 1.23810 0.21580 -0.17090
N18? N 1.6692(7) -0.0136(5) -0.2659(4)
N19? N 1.2296(17) 0.1324(12) -0.1402(12)
Ag1* Ag 1.50346(6) 0.31554(4) 0.46955(4)
Ag3* Ag 1.91121(7) -0.11093(4) -0.03071(4)
N11* N 0.8412(8) 1.1057(5) -0.1104(5)
N15* N 0.2534(6) 0.2683(4) 0.4459(4)
H3* H 0.24460 0.28920 0.36990
H4* H 0.26640 0.18180 0.47320
N17* N 0.6671(16) 0.8704(9) 0.1110(7)
H11* H 0.67680 0.78660 0.15100
H12* H 0.55700 0.89870 0.07960
#END
