
#######################################################################
#
#                 Cambridge Crystallographic Data Centre
#                                CCDC
#
#######################################################################
#
# If this CIF has been generated from an entry in the Cambridge
# Structural Database, then it will include bibliographic, chemical,
# crystal, experimental, refinement or atomic coordinate data resulting
# from the CCDC's data processing and validation procedures.
#
#######################################################################

data_CSD_CIF_TATXEU
_audit_creation_date 2017-03-30
_audit_creation_method CSD-ConQuest-V1
_database_code_CSD TATXEU
_database_code_depnum_ccdc_archive 'CCDC 1514615'
_chemical_formula_sum 'C40 H52 Cu2 N4 O26 S2'
_chemical_formula_moiety
;
(C28 H24 Cu2 N2 O18 S2 2-)n,C12 H12 N2 2+,8(H2 O1)
;
_journal_coden_Cambridge 9
_journal_volume 56
_journal_year 2017
_journal_page_first 1581
_journal_name_full 'Inorg.Chem. '
loop_
_publ_author_name
"D.K.Maity"
"K.Otake"
"S.Ghosh"
"H.Kitagawa"
"D.Ghoshal"
_chemical_name_systematic
;
catena-[4,4'-ethane-1,2-diyldipyridinium 
(\m-4,4'-ethane-1,2-diyldipyridine)-bis(\m-5-sulfonatobenzene-1,3-dicarboxylat
o)-tetra-aqua-di-copper(ii) octahydrate]
;
_cell_volume   1233.944
_exptl_crystal_colour 'blue'
_exptl_crystal_density_diffrn 1.593
_exptl_crystal_description 'Block'
_diffrn_ambient_temperature 298
#These two values have been output from a single CSD field.
_refine_ls_R_factor_gt 0.0455
_refine_ls_wR_factor_gt 0.0455
_symmetry_cell_setting triclinic
_symmetry_space_group_name_H-M 'P -1'
_symmetry_Int_Tables_number 2
loop_
_symmetry_equiv_pos_site_id
_symmetry_equiv_pos_as_xyz
1 x,y,z
2 -x,-y,-z
_cell_length_a 9.272(5)
_cell_length_b 10.787(5)
_cell_length_c 13.409(5)
_cell_angle_alpha 106.404(5)
_cell_angle_beta 99.515(5)
_cell_angle_gamma 100.001(5)
_cell_formula_units_Z 1
loop_
_atom_type_symbol
_atom_type_radius_bond
C 0.68
H 0.23
Cu 1.32
N 0.68
O 0.68
S 1.02
loop_
_atom_site_label
_atom_site_type_symbol
_atom_site_fract_x
_atom_site_fract_y
_atom_site_fract_z
Cu1 Cu 0.41828(4) 0.11567(3) 0.66185(3)
S1 S 1.28718(7) 0.39619(6) 0.73832(6)
O1 O 0.7207(3) 0.1213(2) 0.64363(19)
O2 O 1.2648(2) 0.2542(2) 0.7120(2)
O3 O 1.3401(3) 0.4494(3) 0.6605(2)
C1 C 1.0920(3) 0.5590(2) 0.7662(2)
H1 H 1.17713 0.62850 0.78834
O4 O 0.5823(2) 0.26727(19) 0.69207(18)
O5 O 1.0517(3) 0.81708(19) 0.8301(2)
C2 C 0.7046(3) 0.2363(3) 0.6769(2)
O6 O 1.3781(3) 0.4669(3) 0.8447(2)
C3 C 0.0832(3) -0.3109(3) 0.5509(2)
C4 C -0.0205(3) -0.4428(3) 0.5086(2)
H2 H -0.12288 -0.44620 0.49258
O7 O 0.8077(3) 0.7490(2) 0.7572(2)
C5 C 0.1254(3) -0.0741(3) 0.5944(3)
H3 H 0.08654 0.00055 0.59830
N1 N 0.2736(3) -0.0577(2) 0.62420(19)
C6 C 0.8385(3) 0.3504(2) 0.7059(2)
C7 C 0.0272(3) -0.1975(3) 0.5578(2)
H4 H -0.07565 -0.20497 0.53791
C8 C 0.9809(3) 0.3247(2) 0.7095(2)
H5 H 0.99179 0.23760 0.69181
C9 C 0.9311(3) 0.7276(2) 0.7826(2)
C10 C 0.9495(3) 0.5855(2) 0.7597(2)
C11 C 1.1060(3) 0.4287(3) 0.7394(2)
C12 C 0.2379(3) -0.2923(3) 0.5835(2)
H6 H 0.28031 -0.36480 0.58126
C13 C 0.8234(3) 0.4812(3) 0.7297(2)
H7 H 0.72821 0.49874 0.72547
C14 C 0.3274(3) -0.1659(3) 0.6191(2)
H8 H 0.43064 -0.15509 0.64084
O8 O 0.4919(3) 0.1033(3) 0.8051(2)
O9 O 0.3625(4) 0.1082(2) 0.51168(19)
H9 H 0.37747 0.18701 0.50747
H10 H 0.26923 0.06978 0.48591
H11 H 0.460(5) 0.049(5) 0.828(3)
H12 H 0.517(6) 0.164(5) 0.840(4)
N2 N 1.0216(4) 1.0582(3) 0.8900(2)
C15 C 1.0271(6) 1.3226(3) 0.9635(3)
C16 C 0.8928(5) 1.0954(4) 0.8814(3)
H13 H 0.80246 1.03224 0.85050
C17 C 1.1569(5) 1.2784(4) 0.9720(3)
H14 H 1.24892 1.33919 1.00303
C18 C 1.1524(5) 1.1468(4) 0.9355(3)
H15 H 1.24131 1.11792 0.94225
C19 C 0.8932(5) 1.2288(4) 0.9187(3)
H16 H 0.80275 1.25537 0.91356
C20 C 1.0509(6) 1.4694(4) 1.0015(3)
H17 H 1.14916 1.51941 1.02981
H18 H 1.018(6) 0.973(5) 0.865(4)
O10 O 0.4054(4) 0.3274(2) 0.45152(18)
O11 O 0.3703(4) -0.0857(2) 0.8845(2)
O12 O 0.5404(3) 0.72716(18) 0.8316(2)
H19 H 0.54551 0.68143 0.76976
H20 H 0.62155 0.78649 0.86072
O13 O 0.5713(3) 0.3480(3) 0.9474(2)
C3A C -0.0832(3) -0.6891(3) 0.4491(2)
C4A C 0.0205(3) -0.5572(3) 0.4914(2)
H2A H 0.12288 -0.55380 0.50741
C5A C -0.1254(3) -0.9259(3) 0.4056(3)
H3A H -0.08654 -1.00055 0.40170
N1A N -0.2736(3) -0.9423(2) 0.37580(19)
C7A C -0.0272(3) -0.8025(3) 0.4422(2)
H4A H 0.07565 -0.79503 0.46209
C12A C -0.2379(3) -0.7077(3) 0.4165(2)
H6A H -0.28031 -0.63520 0.41874
C14A C -0.3274(3) -0.8341(3) 0.3809(2)
H8A H -0.43064 -0.84491 0.35916
Cu1A Cu -0.41828(4) -1.11567(3) 0.33815(3)
S1A S -1.28718(7) -1.39619(6) 0.26168(6)
O1A O -0.7207(3) -1.1213(2) 0.35637(19)
O2A O -1.2648(2) -1.2542(2) 0.2880(2)
O3A O -1.3401(3) -1.4494(3) 0.3395(2)
C1A C -1.0920(3) -1.5590(2) 0.2338(2)
H1A H -1.17713 -1.62850 0.21166
O4A O -0.5823(2) -1.26727(19) 0.30793(18)
O5A O -1.0517(3) -1.81708(19) 0.1699(2)
C2A C -0.7046(3) -1.2363(3) 0.3231(2)
O6A O -1.3781(3) -1.4669(3) 0.1553(2)
O7A O -0.8077(3) -1.7490(2) 0.2428(2)
C6A C -0.8385(3) -1.3504(2) 0.2941(2)
C8A C -0.9809(3) -1.3247(2) 0.2905(2)
H5A H -0.99179 -1.23760 0.30819
C9A C -0.9311(3) -1.7276(2) 0.2174(2)
C10A C -0.9495(3) -1.5855(2) 0.2403(2)
C11A C -1.1060(3) -1.4287(3) 0.2606(2)
C13A C -0.8234(3) -1.4812(3) 0.2703(2)
H7A H -0.72821 -1.49874 0.27453
O8A O -0.4919(3) -1.1033(3) 0.1949(2)
O9A O -0.3625(4) -1.1082(2) 0.48832(19)
H9A H -0.37747 -1.18701 0.49253
H10A H -0.26923 -1.06978 0.51409
H11A H -0.460(5) -1.049(5) 0.172(3)
H12A H -0.517(6) -1.164(5) 0.160(4)
Cu1* Cu 1.41828(4) 0.11567(3) 0.66185(3)
Cu1A* Cu -1.41828(4) -1.11567(3) 0.33815(3)
O2* O 0.2648(2) 0.2542(2) 0.7120(2)
O2A* O -0.2648(2) -1.2542(2) 0.2880(2)
N2A N 0.9784(4) 1.9418(3) 1.1100(2)
C15A C 0.9729(6) 1.6774(3) 1.0365(3)
C16A C 1.1072(5) 1.9046(4) 1.1186(3)
H13A H 1.19754 1.96776 1.14950
C17A C 0.8431(5) 1.7216(4) 1.0280(3)
H14A H 0.75108 1.66081 0.99697
C18A C 0.8476(5) 1.8532(4) 1.0645(3)
H15A H 0.75869 1.88208 1.05775
C19A C 1.1068(5) 1.7712(4) 1.0813(3)
H16A H 1.19725 1.74463 1.08644
C20A C 0.9491(6) 1.5306(4) 0.9985(3)
H17A H 0.85084 1.48059 0.97019
H18A H 0.982(6) 2.027(5) 1.135(4)
#END
