
#######################################################################
#
#                 Cambridge Crystallographic Data Centre
#                                CCDC
#
#######################################################################
#
# If this CIF has been generated from an entry in the Cambridge
# Structural Database, then it will include bibliographic, chemical,
# crystal, experimental, refinement or atomic coordinate data resulting
# from the CCDC's data processing and validation procedures.
#
#######################################################################

data_CSD_CIF_TATYUL
_audit_creation_date 2017-03-30
_audit_creation_method CSD-ConQuest-V1
_database_code_CSD TATYUL
_database_code_depnum_ccdc_archive 'CCDC 1519914'
_chemical_formula_sum 'C14 H18 Ca3 K2 O17'
_chemical_formula_moiety
;
(C14 H8 Ca3 O12 2-)n,2(K1 1+),5(H2 O1)
;
_journal_coden_Cambridge 1700
_journal_volume 5
_journal_year 2017
_journal_page_first 2813
_journal_name_full 'J.Mater.Chem.B '
loop_
_publ_author_name
"T.Hidalgo"
"L.Cooper"
"M.Gorman"
"T.Lozano-Fernandez"
"R.Simon-Vazquez"
"G.Mouchaham"
"J.Marrot"
"N.Guillou"
"C.Serre"
"P.Fertey"
"A.Gonzalez-Fernandez"
"T.Devic"
"P.Horcajada"
_chemical_name_systematic
;
catena-[di-potassium 
bis(\m-3,4,5-trioxidobenzoato)-bis(\m-aqua)-tri-calcium(ii) pentahydrate]
;
_chemical_name_common
;
MIL-156
;
_cell_volume   2381.517
_exptl_crystal_colour 'brown'
_exptl_crystal_density_diffrn 1.832
_exptl_crystal_description 'parallelepiped'
_diffrn_ambient_temperature 297
#These two values have been output from a single CSD field.
_refine_ls_R_factor_gt 0.0665
_refine_ls_wR_factor_gt 0.0665
_symmetry_cell_setting orthorhombic
_symmetry_space_group_name_H-M 'P c c n'
_symmetry_Int_Tables_number 56
loop_
_symmetry_equiv_pos_site_id
_symmetry_equiv_pos_as_xyz
1 x,y,z
2 1/2-x,1/2-y,z
3 -x,1/2+y,1/2-z
4 1/2+x,-y,1/2-z
5 -x,-y,-z
6 -1/2+x,-1/2+y,-z
7 x,-1/2-y,-1/2+z
8 -1/2-x,y,-1/2+z
_cell_length_a 17.3088(16)
_cell_length_b 17.4277(15)
_cell_length_c 7.8949(7)
_cell_angle_alpha 90
_cell_angle_beta 90
_cell_angle_gamma 90
_cell_formula_units_Z 4
loop_
_atom_type_symbol
_atom_type_radius_bond
C 0.68
H 0.23
Ca 1.76
K 2.03
O 0.68
loop_
_atom_site_label
_atom_site_type_symbol
_atom_site_fract_x
_atom_site_fract_y
_atom_site_fract_z
Ca1 Ca 0.91951(5) 0.30382(5) 1.17959(10)
Ca2 Ca 0.75000 0.25000 0.93378(13)
O1 O 0.9275(2) 0.6277(2) 0.5477(5)
O2 O 0.9782(2) 0.6103(2) 0.8041(4)
O3 O 0.84327(18) 0.36129(17) 0.9834(4)
O4 O 0.82114(19) 0.28608(18) 0.6846(3)
O5 O 0.84481(18) 0.35802(17) 0.3831(4)
C1 C 0.9412(3) 0.5857(3) 0.6780(5)
C2 C 0.9102(3) 0.5063(3) 0.6800(5)
C3 C 0.8956(3) 0.4699(3) 0.8356(6)
H1 H 0.90760 0.49470 0.93650
C4 C 0.8630(2) 0.3963(3) 0.8387(5)
C5 C 0.8492(2) 0.3584(2) 0.6822(5)
C6 C 0.8633(2) 0.3947(2) 0.5268(5)
C7 C 0.8943(3) 0.4690(3) 0.5279(6)
H2 H 0.90440 0.49370 0.42590
O6 O 0.9924(2) 0.25510(18) 0.9266(4)
K1 K 0.78394(8) 0.48207(7) 1.18251(14)
O7 O 0.7324(3) 0.5918(3) 0.9416(6)
O8 O 1.0644(3) 0.3912(3) 0.8041(5)
O9 O 0.8333(7) 0.7151(9) 0.878(4)
Ca1A Ca 0.58049(5) 0.19618(5) 1.17959(10)
O1A O 0.5725(2) -0.1277(2) 0.5477(5)
O2A O 0.5218(2) -0.1103(2) 0.8041(4)
O3A O 0.65673(18) 0.13871(17) 0.9834(4)
O4A O 0.67886(19) 0.21392(18) 0.6846(3)
O5A O 0.65519(18) 0.14198(17) 0.3831(4)
C1A C 0.5588(3) -0.0857(3) 0.6780(5)
C2A C 0.5898(3) -0.0063(3) 0.6800(5)
C3A C 0.6044(3) 0.0301(3) 0.8356(6)
H1A H 0.59240 0.00530 0.93650
C4A C 0.6370(2) 0.1037(3) 0.8387(5)
C5A C 0.6508(2) 0.1416(2) 0.6822(5)
C6A C 0.6367(2) 0.1053(2) 0.5268(5)
C7A C 0.6057(3) 0.0310(3) 0.5279(6)
H2A H 0.59560 0.00630 0.42590
O6A O 0.5076(2) 0.24490(18) 0.9266(4)
Ca1* Ca 0.91951(5) 0.30382(5) 0.17959(10)
Ca1A* Ca 0.58049(5) 0.19618(5) 0.17959(10)
Ca1D Ca 1.08049(5) 0.69618(5) 0.82041(10)
Ca1E Ca 0.41951(5) -0.19618(5) 0.82041(10)
Ca1F Ca 0.91951(5) 0.19618(5) 0.67959(10)
Ca1G Ca 0.58049(5) 0.30382(5) 0.67959(10)
Ca2F Ca 0.75000 0.25000 0.43378(13)
O2D O 1.0218(2) 0.3897(2) 1.1959(4)
O2E O 0.4782(2) 0.1103(2) 1.1959(4)
O4F O 0.82114(19) 0.21392(18) 1.1846(3)
O4G O 0.67886(19) 0.28608(18) 1.1846(3)
O5* O 0.84481(18) 0.35802(17) 1.3831(4)
O5A* O 0.65519(18) 0.14198(17) 1.3831(4)
O5F O 0.84481(18) 0.14198(17) 0.8831(4)
O5G O 0.65519(18) 0.35802(17) 0.8831(4)
O6F O 0.9924(2) 0.24490(18) 1.4266(4)
O6G O 0.5076(2) 0.25510(18) 1.4266(4)
#END
