
#######################################################################
#
#                 Cambridge Crystallographic Data Centre
#                                CCDC
#
#######################################################################
#
# If this CIF has been generated from an entry in the Cambridge
# Structural Database, then it will include bibliographic, chemical,
# crystal, experimental, refinement or atomic coordinate data resulting
# from the CCDC's data processing and validation procedures.
#
#######################################################################

data_CSD_CIF_TAVSOZ
_audit_creation_date 2005-12-15
_audit_creation_method CSD-ConQuest-V1
_database_code_CSD TAVSOZ
_database_code_depnum_ccdc_archive 'CCDC 256619'
_chemical_formula_sum 'C22 H32 Cd1 N4 O9'
_chemical_formula_moiety
;
(C2 H8 N1 1+)2n,n(C18 H14 Cd1 N2 O8 2-),n(H2 O1)
;
_journal_coden_Cambridge 155
_journal_volume 358
_journal_year 2005
_journal_page_first 3905
_journal_name_full 'Inorg.Chim.Acta '
loop_
_publ_author_name
"Guo-Ping Yong"
"Shu Qiao"
"Zhi-Yong Wang"
"Yong Cui"
_chemical_name_systematic
;
catena-[bis(Dimethylammonium) 
bis(\m~2~-N-carboxymethylanthaniloato)-cadmium(ii) monohydrate]
;
_cell_volume   2492.905
_exptl_crystal_colour 'colorless'
_exptl_special_details
;
photoluminescent

;
_diffrn_ambient_temperature 273
#These two values have been output from a single CSD field.
_refine_ls_R_factor_gt 0.0991
_refine_ls_wR_factor_gt 0.0991
_symmetry_cell_setting monoclinic
_symmetry_space_group_name_H-M 'C 2/c'
_symmetry_Int_Tables_number 15
loop_
_symmetry_equiv_pos_site_id
_symmetry_equiv_pos_as_xyz
1 x,y,z
2 1/2+x,1/2+y,z
3 -x,y,1/2-z
4 1/2-x,1/2+y,1/2-z
5 -x,-y,-z
6 -1/2-x,-1/2-y,-z
7 x,-y,-1/2+z
8 -1/2+x,-1/2-y,-1/2+z
_cell_length_a 20.641(3)
_cell_length_b 9.1379(12)
_cell_length_c 13.4597(18)
_cell_angle_alpha 90
_cell_angle_beta 100.900(4)
_cell_angle_gamma 90
_cell_formula_units_Z 4
loop_
_atom_type_symbol
_atom_type_radius_bond
C 0.68
H 0.23
Cd 1.64
N 0.68
O 0.68
loop_
_atom_site_label
_atom_site_type_symbol
_atom_site_fract_x
_atom_site_fract_y
_atom_site_fract_z
Cd1 Cd 0.50000 0.45064(14) 0.25000
O1 O 0.4094(4) 0.2671(9) 0.1933(5)
O2 O 0.4382(3) 0.3378(9) 0.3504(5)
O3 O 0.4501(3) 0.4201(8) 0.6025(5)
O4 O 0.4185(4) 0.3463(10) 0.7421(5)
N1 N 0.3705(4) 0.2431(11) 0.4844(6)
H1 H 0.39490 0.31060 0.46630
C1 C 0.4015(5) 0.2616(11) 0.2833(8)
C2 C 0.3498(4) 0.1654(11) 0.3090(7)
C3 C 0.3132(5) 0.0790(12) 0.2354(7)
H2 H 0.32120 0.08550 0.16980
C4 C 0.2657(5) -0.0159(14) 0.2540(8)
H3 H 0.24250 -0.07460 0.20290
C5 C 0.2530(5) -0.0219(13) 0.3520(9)
H4 H 0.22010 -0.08410 0.36570
C6 C 0.2869(4) 0.0595(13) 0.4270(7)
H5 H 0.27760 0.05090 0.49170
C7 C 0.3363(4) 0.1575(10) 0.4104(7)
C8 C 0.3696(5) 0.2307(12) 0.5909(7)
H6 H 0.38340 0.13310 0.61430
H7 H 0.32510 0.24620 0.60230
C9 C 0.4154(5) 0.3426(11) 0.6494(7)
C10 C 0.3567(6) 0.3487(17) 0.9428(9)
H8 H 0.34890 0.45220 0.94360
H9 H 0.33610 0.30180 0.99260
H10 H 0.33850 0.31030 0.87700
N2 N 0.4265(5) 0.3215(11) 0.9653(7)
H11 H 0.45500 0.39100 0.97640
C11 C 0.4452(6) 0.1706(14) 0.9681(10)
H12 H 0.49240 0.16300 0.98470
H13 H 0.42960 0.12700 0.90310
H14 H 0.42620 0.12060 1.01850
O5 O 0.50000 0.015(8) 0.75000
Cd1F Cd 0.50000 0.54936(14) 0.75000
Cd1F* Cd 0.50000 0.54936(14) -0.25000
O1B O 0.5906(4) 0.2671(9) 0.3067(5)
O2B O 0.5618(3) 0.3378(9) 0.1496(5)
O3B O 0.5499(3) 0.4201(8) -0.1025(5)
O3F O 0.4501(3) 0.5799(8) 0.1025(5)
O3D O 0.5499(3) 0.5799(8) 0.3975(5)
O4B O 0.5815(4) 0.3463(10) -0.2421(5)
O4F O 0.4185(4) 0.6537(10) 0.2421(5)
O4D O 0.5815(4) 0.6537(10) 0.2579(5)
N1B N 0.6295(4) 0.2431(11) 0.0156(6)
H1B H 0.60510 0.31060 0.03370
C1B C 0.5985(5) 0.2616(11) 0.2167(8)
C2B C 0.6502(4) 0.1654(11) 0.1910(7)
C3B C 0.6868(5) 0.0790(12) 0.2646(7)
H2B H 0.67880 0.08550 0.33020
C4B C 0.7343(5) -0.0159(14) 0.2460(8)
H3B H 0.75750 -0.07460 0.29710
C5B C 0.7470(5) -0.0219(13) 0.1480(9)
H4B H 0.77990 -0.08410 0.13430
C6B C 0.7131(4) 0.0595(13) 0.0730(7)
H5B H 0.72240 0.05090 0.00830
C7B C 0.6637(4) 0.1575(10) 0.0896(7)
C8B C 0.6304(5) 0.2307(12) -0.0909(7)
H6B H 0.61660 0.13310 -0.11430
H7B H 0.67490 0.24620 -0.10230
C9B C 0.5846(5) 0.3426(11) -0.1494(7)
#END
