
#######################################################################
#
#                 Cambridge Crystallographic Data Centre
#                                CCDC
#
#######################################################################
#
# If this CIF has been generated from an entry in the Cambridge
# Structural Database, then it will include bibliographic, chemical,
# crystal, experimental, refinement or atomic coordinate data resulting
# from the CCDC's data processing and validation procedures.
#
#######################################################################

data_CSD_CIF_TAXFII
_audit_creation_date 2006-03-28
_audit_creation_method CSD-ConQuest-V1
_database_code_CSD TAXFII
_database_code_depnum_ccdc_archive 'CCDC 273335'
_chemical_formula_sum 'C48 H27 Co6 Na3 O27'
_chemical_formula_moiety
;
(Na1 1+)3n,n(C48 H25 Co6 O26 3-),n(H2 O1)
;
_journal_coden_Cambridge 179
_journal_volume 44
_journal_year 2005
_journal_page_first 6488
_journal_name_full 'Angew.Chem.,Int.Ed. '
loop_
_publ_author_name
"C.Livage"
"N.Guillou"
"J.Chaigneau"
"P.Rabu"
"M.Drillon"
"G.Ferey"
_chemical_name_systematic
;
catena-(Tri-sodium 
hexakis(\m~4~-isophthalato-O,O,O',O'',O''')-(\m~3~-hydroxo)-(\m~3~-oxo)-hexa-c
obalt monohydrate)
;
_chemical_name_common
;
MIL-104
;
_cell_volume   7356.292
_exptl_crystal_colour 'violet'
_exptl_crystal_density_diffrn 1.973
_diffrn_ambient_temperature 293
#These two values have been output from a single CSD field.
_refine_ls_R_factor_gt 0.0339
_refine_ls_wR_factor_gt 0.0339
_symmetry_cell_setting rhombohedral
_symmetry_space_group_name_H-M 'R -3 c'
_symmetry_Int_Tables_number 167
loop_
_symmetry_equiv_pos_site_id
_symmetry_equiv_pos_as_xyz
1 x,y,z
2 -y,x-y,z
3 -x+y,-x,z
4 y,x,1/2-z
5 2/3+x,1/3+y,1/3+z
6 2/3-y,1/3+x-y,1/3+z
7 2/3-x+y,1/3-x,1/3+z
8 2/3+y,1/3+x,5/6-z
9 1/3+x,2/3+y,2/3+z
10 1/3+y,2/3+x,1/6-z
11 x-y,-y,1/2-z
12 -x,-x+y,1/2-z
13 1/3-y,2/3+x-y,2/3+z
14 1/3-x+y,2/3-x,2/3+z
15 1/3+x-y,2/3-y,1/6-z
16 1/3-x,2/3-x+y,1/6-z
17 2/3+x-y,1/3-y,5/6-z
18 2/3-x,1/3-x+y,5/6-z
19 -x,-y,-z
20 y,-x+y,-z
21 x-y,x,-z
22 -y,-x,-1/2+z
23 -2/3-x,-1/3-y,-1/3-z
24 -2/3+y,-1/3-x+y,-1/3-z
25 -2/3+x-y,-1/3+x,-1/3-z
26 -2/3-y,-1/3-x,-5/6+z
27 -1/3-x,-2/3-y,-2/3-z
28 -1/3-y,-2/3-x,-1/6+z
29 -x+y,y,-1/2+z
30 x,x-y,-1/2+z
31 -1/3+y,-2/3-x+y,-2/3-z
32 -1/3+x-y,-2/3+x,-2/3-z
33 -1/3-x+y,-2/3+y,-1/6+z
34 -1/3+x,-2/3+x-y,-1/6+z
35 -2/3-x+y,-1/3+y,-5/6+z
36 -2/3+x,-1/3+x-y,-5/6+z
_cell_length_a 14.0998(12)
_cell_length_b 14.0998(12)
_cell_length_c 42.727(5)
_cell_angle_alpha 90
_cell_angle_beta 90
_cell_angle_gamma 120
_cell_formula_units_Z 6
loop_
_atom_type_symbol
_atom_type_radius_bond
C 0.68
H 0.23
Co 1.05
Na 1.03
O 0.81
loop_
_atom_site_label
_atom_site_type_symbol
_atom_site_fract_x
_atom_site_fract_y
_atom_site_fract_z
Co1 Co 0.05639(3) 0.90188(2) 0.037627(7)
O1 O 0.09075(13) 0.76794(13) 0.03068(3)
O2 O -0.00842(13) 0.79695(13) -0.00318(4)
O3 O -0.12343(14) 0.39806(14) -0.09746(4)
O4 O -0.17801(14) 0.52148(13) -0.09112(4)
O5 O 0.00000 1.00000 0.02879(6)
Na1 Na 0.10282(12) 0.76949(12) 0.08330
C1 C 0.04059(17) 0.74609(17) 0.00483(5)
C2 C -0.11761(18) 0.48125(18) -0.08474(5)
C3 C 0.04322(18) 0.66317(18) -0.01646(5)
C4 C 0.1271(2) 0.6389(2) -0.01362(7)
C5 C 0.1321(3) 0.5654(3) -0.03378(8)
C6 C 0.0530(2) 0.5157(2) -0.05692(8)
C7 C -0.03188(18) 0.53752(18) -0.05979(5)
C8 C -0.03612(19) 0.61242(18) -0.03952(5)
O6 O 0.00000 1.00000 0.1271(3)
H1 H 0.178(3) 0.669(3) 0.0012(9)
H2 H 0.061(3) 0.471(3) -0.0707(8)
H3 H 0.195(4) 0.554(4) -0.0320(11)
H4 H -0.090(3) 0.626(3) -0.0410(7)
Co1T Co 0.15451(3) 1.05639(2) -0.037627(7)
Co1Y Co -0.568547(30) 0.610277(20) 0.204294(7)
Co1S Co -0.09812(3) 0.84549(2) -0.037627(7)
Co1AA Co -0.235213(30) 0.276943(20) -0.129040(7)
Co1GA Co -0.276943(30) 0.487843(20) -0.129040(7)
Co1A Co 0.09812(3) 1.15451(2) 0.037627(7)
Co1B Co -0.15451(3) 0.94361(2) 0.037627(7)
Co1N Co 0.487843(30) 0.764787(20) 0.129040(7)
Co1I Co 0.235213(30) 0.723057(20) 0.129040(7)
Co1N* Co -0.512157(30) 0.764787(20) 0.129040(7)
Co1O Co -0.723057(30) 0.512157(20) 0.129040(7)
Co1HA Co -0.821177(30) 0.568547(20) 0.204294(7)
Co1IA Co -0.610277(30) 0.821177(20) 0.204294(7)
Co1DA Co -0.431453(30) 0.178823(20) 0.295706(7)
Co1Z Co -0.389723(30) 0.431453(20) 0.295706(7)
Co1F Co -0.487843(30) 0.276943(20) 0.370960(7)
Co1D Co -0.276943(30) 1.235213(20) 0.370960(7)
Co1DA* Co -0.431453(30) 1.178823(20) 0.295706(7)
O1T O 0.32281(13) 1.09075(13) -0.03068(3)
O1Y O -0.434607(130) 0.575917(130) 0.197347(30)
O1O O -0.757417(130) 0.343857(130) 0.135987(30)
O1F O -0.656143(130) 0.242583(130) 0.364013(30)
O1D O -0.242583(130) 1.101273(130) 0.364013(30)
O1DA O -0.565393(130) 0.010523(130) 0.302653(30)
O2T O 0.19463(13) 0.99158(13) 0.00318(4)
O2Y O -0.463617(130) 0.675087(130) 0.163487(40)
O2A O 0.20305(13) 1.19463(13) -0.00318(4)
O2O O -0.658247(130) 0.472037(130) 0.169847(40)
O2F O -0.527963(130) 0.341753(130) 0.330153(40)
O2D O -0.341753(130) 1.130283(130) 0.330153(40)
O2HA O -0.861297(130) 0.463617(130) 0.163487(40)
O2EA O -0.138703(130) 1.324913(130) 0.336513(40)
O2D* O -0.341753(130) 0.130283(130) 0.330153(40)
O2DA O -0.536383(130) 0.138703(130) 0.336513(40)
O3T O 0.47851(14) 0.87657(14) 0.09746(4)
O3Y O -0.064727(140) 0.790097(140) 0.069207(40)
O3P O 0.145177(140) 0.935273(140) -0.069207(40)
O3D O -0.456763(140) 0.731393(140) 0.235873(40)
O3O O -0.543237(140) 0.188157(140) 0.264127(40)
O3F O -0.811843(140) 0.456763(140) 0.235873(40)
O3S O -0.60194(14) 0.52149(14) 0.09746(4)
O3U O -0.39806(14) 1.12343(14) 0.40254(4)
O4T O 0.30051(14) 0.82199(13) 0.09112(4)
O4Y O -0.188147(140) 0.844677(130) 0.075547(40)
O4IA O 0.155323(140) 0.967177(130) 0.075547(40)
O4G O 0.188147(140) 1.155323(130) -0.075547(40)
O4F O -0.633843(140) 0.511343(130) 0.242213(40)
O4O O -0.488657(140) 0.366157(130) 0.257787(40)
O4D O -0.511343(140) 0.854813(130) 0.242213(40)
O4R O -0.82199(14) 0.47852(13) 0.09112(4)
O4CA O -0.17801(14) 1.30051(13) 0.40888(4)
O4N O -0.366157(140) 0.145187(130) 0.257787(40)
O5R O 0.00000 1.00000 -0.02879(6)
O5HA O -0.66667 0.66667 0.195457(60)
O5I O -0.66667 0.66667 0.137877(60)
O5D O -0.33333 1.33333 0.362123(60)
O5DA O -0.33333 0.33333 0.304543(60)
C1T C 0.29450(17) 1.04059(17) -0.00483(5)
C1Y C -0.412757(170) 0.626077(170) 0.171497(50)
C1O C -0.707257(170) 0.372167(170) 0.161837(50)
C1F C -0.627833(170) 0.292743(170) 0.338163(50)
C1D C -0.292743(170) 1.079423(170) 0.338163(50)
C2T C 0.40114(18) 0.88239(18) 0.08474(5)
C2Y C -0.147917(180) 0.784277(180) 0.081927(50)
C2F C -0.734473(180) 0.450943(180) 0.248593(50)
C2D C -0.450943(180) 0.814583(180) 0.248593(50)
C2O C -0.549057(180) 0.265527(180) 0.251407(50)
C3T C 0.38005(18) 1.04322(18) 0.01646(5)
C3Y C -0.329837(180) 0.623447(180) 0.150207(50)
C3O C -0.709887(180) 0.286617(180) 0.183127(50)
C3F C -0.713383(180) 0.290113(180) 0.316873(50)
C3D C -0.290113(180) 0.996503(180) 0.316873(50)
C4T C 0.4882(2) 1.1271(2) 0.01362(7)
C4Y C -0.305567(200) 0.539567(200) 0.153047(70)
C4O C -0.793767(200) 0.178467(200) 0.180287(70)
C4F C -0.821533(200) 0.206233(200) 0.319713(70)
C4D C -0.206233(200) 0.972233(200) 0.319713(70)
C5T C 0.5667(3) 1.1321(3) 0.03378(8)
C5Y C -0.232067(300) 0.534567(300) 0.132887(80)
C5O C -0.798767(300) 0.099967(300) 0.200447(80)
C5F C -0.900033(300) 0.201233(300) 0.299553(80)
C5D C -0.201233(300) 0.898733(300) 0.299553(80)
C6T C 0.5373(2) 1.0530(2) 0.05692(8)
C6Y C -0.182367(200) 0.613667(200) 0.109747(80)
C6O C -0.719667(200) 0.129367(200) 0.223587(80)
C6F C -0.870633(200) 0.280333(200) 0.276413(80)
C6D C -0.280333(200) 0.849033(200) 0.276413(80)
C7T C 0.43060(18) 0.96812(18) 0.05979(5)
C7Y C -0.204187(180) 0.698547(180) 0.106877(50)
C7O C -0.634787(180) 0.236067(180) 0.226457(50)
C7F C -0.763933(180) 0.365213(180) 0.273543(50)
C7D C -0.365213(180) 0.870853(180) 0.273543(50)
C8T C 0.35146(19) 0.96388(18) 0.03952(5)
C8Y C -0.279087(190) 0.702787(180) 0.127147(50)
C8O C -0.630547(190) 0.315207(180) 0.206187(50)
C8F C -0.684793(190) 0.369453(180) 0.293813(50)
C8D C -0.369453(190) 0.945753(180) 0.293813(50)
H1T H 0.509(3) 1.178(3) -0.0012(9)
H1Y H -0.335667(3000) 0.488667(3000) 0.167867(900)
H1O H -0.844667(3000) 0.157667(3000) 0.165467(900)
H1D H -0.155333(3000) 1.002333(3000) 0.334533(900)
H1F H -0.842333(3000) 0.155333(3000) 0.334533(900)
H2T H 0.590(3) 1.061(3) 0.0707(8)
H2Y H -0.137667(3000) 0.605667(3000) 0.095967(800)
H2O H -0.727667(3000) 0.076667(3000) 0.237367(800)
H2F H -0.923333(3000) 0.272333(3000) 0.262633(800)
H2D H -0.272333(3000) 0.804333(3000) 0.262633(800)
H3T H 0.641(4) 1.195(4) 0.0320(11)
H3Y H -0.220667(4000) 0.471667(4000) 0.134667(1100)
H3O H -0.861667(4000) 0.025667(4000) 0.198667(1100)
H3F H -0.974333(4000) 0.138333(4000) 0.301333(1100)
H3D H -0.138333(4000) 0.887333(4000) 0.301333(1100)
H4T H 0.284(3) 0.910(3) 0.0410(7)
H4Y H -0.292667(3000) 0.756667(3000) 0.125667(700)
H4O H -0.576667(3000) 0.382667(3000) 0.207667(700)
H4F H -0.617333(3000) 0.423333(3000) 0.292333(700)
H4D H -0.423333(3000) 0.959333(3000) 0.292333(700)
#END
