
#######################################################################
#
#                 Cambridge Crystallographic Data Centre
#                                CCDC
#
#######################################################################
#
# If this CIF has been generated from an entry in the Cambridge
# Structural Database, then it will include bibliographic, chemical,
# crystal, experimental, refinement or atomic coordinate data resulting
# from the CCDC's data processing and validation procedures.
#
#######################################################################

data_CSD_CIF_TAXLIQ01
_audit_creation_date 2018-08-14
_audit_creation_method CSD-ConQuest-V1
_database_code_CSD TAXLIQ01
_database_code_depnum_ccdc_archive 'CCDC 1015111'
_chemical_formula_sum 'C79 H97.8 N13 O32.4 Zn4'
_chemical_formula_moiety
;
(C56 H24 N4 O24 Zn4 4-)n,5(C3 H7 N1 O1),3.4(H2 O1),4(C2 H8 N1 1+)
;
_journal_coden_Cambridge 1350
_journal_volume 20
_journal_year 2018
_journal_page_first 6070
_journal_name_full 'CrystEngComm '
loop_
_publ_author_name
"Yiwen Zhang"
"Kongzhao Su"
"Miao Hao"
"Lin Liu"
"Zheng-Bo Han"
"Daqiang Yuan"
_chemical_name_systematic
;
catena-[tetrakis(dimethylammonium) 
tetrakis(\m-5-(5-carboxylatopyridin-3-yl)benzene-1,3-dicarboxylato)-tetra-zinc
;
_chemical_name_common
;
FJI-Y7
;
_cell_volume  10267.558
_exptl_crystal_colour 'colorless'
_exptl_crystal_density_diffrn 1.3
_exptl_crystal_description 'needle'
_diffrn_ambient_temperature 173
_refine_special_details
;
Disordered dimethylammonium cations, N,N-dimethylformamide and water solvent 
molecules were not modelled and the disordered density was taken into account 
using the SQUEEZE/PLATON procedure.
;
#These two values have been output from a single CSD field.
_refine_ls_R_factor_gt 0.0798
_refine_ls_wR_factor_gt 0.0798
_symmetry_cell_setting monoclinic
_symmetry_space_group_name_H-M 'C 2/c'
_symmetry_Int_Tables_number 15
loop_
_symmetry_equiv_pos_site_id
_symmetry_equiv_pos_as_xyz
1 x,y,z
2 -x,y,1/2-z
3 1/2+x,1/2+y,z
4 1/2-x,1/2+y,1/2-z
5 -x,-y,-z
6 x,-y,-1/2+z
7 -1/2-x,-1/2-y,-z
8 -1/2+x,-1/2-y,-1/2+z
_cell_length_a 25.386(3)
_cell_length_b 25.150(3)
_cell_length_c 17.6282(17)
_cell_angle_alpha 90
_cell_angle_beta 114.178(3)
_cell_angle_gamma 90
_cell_formula_units_Z 4
loop_
_atom_type_symbol
_atom_type_radius_bond
C 0.68
H 0.23
N 0.68
O 0.68
Zn 1.22
loop_
_atom_site_label
_atom_site_type_symbol
_atom_site_fract_x
_atom_site_fract_y
_atom_site_fract_z
Zn1 Zn -0.25175(3) 0.14361(4) 0.24273(5)
Zn2 Zn 0.00000 0.44679(5) 0.25000
Zn3 Zn 0.00000 0.15772(5) 0.75000
C1 C 0.1572(3) 0.2923(4) 0.7143(5)
C2 C 0.0965(3) 0.2678(3) 0.6702(5)
C3 C 0.0601(3) 0.2820(3) 0.5900(5)
H1 H 0.07236 0.30620 0.55921
C4 C 0.0044(4) 0.2596(3) 0.5551(5)
C5 C -0.0103(3) 0.2257(3) 0.6040(5)
H2 H -0.04818 0.21126 0.58122
C6 C 0.0781(4) 0.2325(3) 0.7143(5)
H3 H 0.10390 0.22318 0.76920
C7 C -0.0364(3) 0.2716(3) 0.4684(5)
C8 C -0.0841(4) 0.2380(3) 0.4270(5)
H4 H -0.09001 0.20816 0.45572
C9 C -0.1227(3) 0.2474(4) 0.3451(5)
C10 C -0.1138(3) 0.2903(3) 0.3040(5)
H5 H -0.13967 0.29647 0.24785
C11 C -0.0680(3) 0.3248(3) 0.3421(5)
C12 C -0.0296(3) 0.3149(3) 0.4254(5)
H6 H 0.00168 0.33863 0.45240
C13 C -0.1711(4) 0.2097(4) 0.3020(7)
C14 C -0.0590(4) 0.3704(4) 0.2943(5)
C15 C -0.4125(4) 0.0125(3) 0.2788(6)
C16 C -0.3532(3) 0.0387(3) 0.3222(5)
C17 C -0.3199(3) 0.0294(3) 0.4059(5)
H7 H -0.33463 0.00900 0.43831
C18 C -0.2625(3) 0.0512(3) 0.4426(5)
C19 C -0.2463(3) 0.0834(3) 0.3937(4)
H8 H -0.20909 0.09920 0.41743
C20 C -0.3320(3) 0.0717(3) 0.2794(5)
H9 H -0.35550 0.07877 0.22258
C21 C -0.2241(3) 0.0412(3) 0.5327(4)
C22 C -0.1773(3) 0.0747(3) 0.5730(5)
H10 H -0.17147 0.10477 0.54471
C23 C -0.1390(3) 0.0644(3) 0.6547(5)
C24 C -0.1478(3) 0.0212(3) 0.6960(5)
H11 H -0.12084 0.01360 0.75103
C25 C -0.1958(3) -0.0116(3) 0.6581(5)
C26 C -0.2325(3) -0.0019(3) 0.5737(5)
H12 H -0.26346 -0.02563 0.54524
C27 C -0.0885(3) 0.1003(3) 0.6957(5)
C28 C -0.2043(4) -0.0596(4) 0.7030(6)
N1 N 0.0252(2) 0.2110(2) 0.6825(4)
N2 N -0.2804(3) 0.0942(3) 0.3132(4)
O1 O 0.1715(2) 0.3248(2) 0.6715(3)
O2 O 0.1878(3) 0.2786(3) 0.7850(4)
O3 O -0.0122(2) 0.3970(2) 0.3303(3)
O4 O -0.0948(3) 0.3788(3) 0.2249(4)
O5 O -0.1990(3) 0.2110(3) 0.2253(4)
O6 O -0.1826(2) 0.1759(2) 0.3471(4)
O7 O -0.4317(2) -0.0123(2) 0.3257(3)
O8 O -0.4366(3) 0.0168(3) 0.2018(4)
O9 O -0.2452(2) -0.0904(2) 0.6632(3)
O10 O -0.1712(3) -0.0656(3) 0.7764(4)
O11 O -0.0532(2) 0.0908(2) 0.7701(3)
O12 O -0.0796(2) 0.1385(2) 0.6546(3)
Zn1A Zn 0.25175(3) 0.14361(4) 0.25727(5)
C1A C -0.1572(3) 0.2923(4) -0.2143(5)
C2A C -0.0965(3) 0.2678(3) -0.1702(5)
C3A C -0.0601(3) 0.2820(3) -0.0900(5)
H1A H -0.07236 0.30620 -0.05921
C4A C -0.0044(4) 0.2596(3) -0.0551(5)
C5A C 0.0103(3) 0.2257(3) -0.1040(5)
H2A H 0.04818 0.21126 -0.08122
C6A C -0.0781(4) 0.2325(3) -0.2143(5)
H3A H -0.10390 0.22318 -0.26920
C7A C 0.0364(3) 0.2716(3) 0.0316(5)
C8A C 0.0841(4) 0.2380(3) 0.0730(5)
H4A H 0.09001 0.20816 0.04428
C9A C 0.1227(3) 0.2474(4) 0.1549(5)
C10A C 0.1138(3) 0.2903(3) 0.1960(5)
H5A H 0.13967 0.29647 0.25215
C11A C 0.0680(3) 0.3248(3) 0.1579(5)
C12A C 0.0296(3) 0.3149(3) 0.0746(5)
H6A H -0.00168 0.33863 0.04760
C13A C 0.1711(4) 0.2097(4) 0.1980(7)
C14A C 0.0590(4) 0.3704(4) 0.2057(5)
C15A C 0.4125(4) 0.0125(3) 0.2212(6)
C16A C 0.3532(3) 0.0387(3) 0.1778(5)
C17A C 0.3199(3) 0.0294(3) 0.0941(5)
H7A H 0.33463 0.00900 0.06169
C18A C 0.2625(3) 0.0512(3) 0.0574(5)
C19A C 0.2463(3) 0.0834(3) 0.1063(4)
H8A H 0.20909 0.09920 0.08257
C20A C 0.3320(3) 0.0717(3) 0.2206(5)
H9A H 0.35550 0.07877 0.27742
C21A C 0.2241(3) 0.0412(3) -0.0327(4)
C22A C 0.1773(3) 0.0747(3) -0.0730(5)
H10A H 0.17147 0.10477 -0.04471
C23A C 0.1390(3) 0.0644(3) -0.1547(5)
C24A C 0.1478(3) 0.0212(3) -0.1960(5)
H11A H 0.12084 0.01360 -0.25103
C25A C 0.1958(3) -0.0116(3) -0.1581(5)
C26A C 0.2325(3) -0.0019(3) -0.0737(5)
H12A H 0.26346 -0.02563 -0.04524
C27A C 0.0885(3) 0.1003(3) -0.1957(5)
C28A C 0.2043(4) -0.0596(4) -0.2030(6)
N1A N -0.0252(2) 0.2110(2) -0.1825(4)
N2A N 0.2804(3) 0.0942(3) 0.1868(4)
O1A O -0.1715(2) 0.3248(2) -0.1715(3)
O2A O -0.1878(3) 0.2786(3) -0.2850(4)
O3A O 0.0122(2) 0.3970(2) 0.1697(3)
O4A O 0.0948(3) 0.3788(3) 0.2751(4)
O5A O 0.1990(3) 0.2110(3) 0.2747(4)
O6A O 0.1826(2) 0.1759(2) 0.1529(4)
O7A O 0.4317(2) -0.0123(2) 0.1743(3)
O8A O 0.4366(3) 0.0168(3) 0.2982(4)
O9A O 0.2452(2) -0.0904(2) -0.1632(3)
O10A O 0.1712(3) -0.0656(3) -0.2764(4)
O11A O 0.0532(2) 0.0908(2) -0.2701(3)
O12A O 0.0796(2) 0.1385(2) -0.1546(3)
Zn1D Zn 0.25175(3) -0.14361(4) -0.24273(5)
Zn1E Zn -0.25175(3) -0.14361(4) 0.74273(5)
Zn1F Zn -0.24825(3) 0.35639(4) -0.24273(5)
Zn1G Zn 0.24825(3) 0.35639(4) 0.74273(5)
Zn2B Zn -0.50000 -0.05321(5) 0.25000
Zn2B* Zn 0.50000 -0.05321(5) 0.25000
Zn3* Zn 0.00000 0.15772(5) -0.25000
N1A* N -0.0252(2) 0.2110(2) 0.8175(4)
O1F O 0.3285(2) 0.1752(2) 0.3285(3)
O1G O -0.3285(2) 0.1752(2) 0.1715(3)
O7B O 0.0683(2) 0.4877(2) 0.3257(3)
O7C O -0.0683(2) 0.4877(2) 0.1743(3)
O9D O 0.2452(2) 0.0904(2) 0.3368(3)
O9E O -0.2452(2) 0.0904(2) 0.1632(3)
O11A* O 0.0532(2) 0.0908(2) 0.7299(3)
O12A* O 0.0796(2) 0.1385(2) 0.8454(3)
#END
