
#######################################################################
#
#                 Cambridge Crystallographic Data Centre
#                                CCDC
#
#######################################################################
#
# If this CIF has been generated from an entry in the Cambridge
# Structural Database, then it will include bibliographic, chemical,
# crystal, experimental, refinement or atomic coordinate data resulting
# from the CCDC's data processing and validation procedures.
#
#######################################################################

data_CSD_CIF_TAXVAP
_audit_creation_date 1997-01-23
_audit_creation_method CSD-ConQuest-V1
_database_code_CSD TAXVAP
_database_code_depnum_ccdc_archive 'CCDC 1267212; CCDC 404667'
_database_code_depnum_ccdc_fiz 'CSD 404667'
_chemical_formula_sum 'C60 H76 Li4 N6 O20 Ti2'
_chemical_formula_moiety
;
(C48 H48 Li3 N2 O16 Ti2 1-)n,n(C12 H28 Li1 N4 O4 1+)
;
_journal_coden_Cambridge 179
_journal_volume 35
_journal_year 1996
_journal_page_first 1208
_journal_name_full 'Angew.Chem.,Int.Ed. '
loop_
_publ_author_name
"M.Albrecht"
"S.Kotila"
_chemical_name_systematic
;
catena-(tetrakis(Dimethylformamide)-lithium 
(\m~7~-1,2-bis(2,3-dihydroxyphenyl)ethane)-bis(\m~4~-1,2-bis(2,3-dihydroxyphen
yl)ethane)-bis(dimethylformamido)-diaqua-tri-lithium-di-titanium)
;
_cell_volume   6337.947
_exptl_crystal_colour 'brown-yellow'
_exptl_crystal_density_diffrn 1.388
_diffrn_ambient_temperature 173
_refine_special_details
;
C(51), C(52) and associated hydrogens are disordered over two sites with 
occupancies of 0.591:0.409.
;
#These two values have been output from a single CSD field.
_refine_ls_R_factor_gt 0.05
_refine_ls_wR_factor_gt 0.05
_symmetry_cell_setting monoclinic
_symmetry_space_group_name_H-M 'C 2/c'
_symmetry_Int_Tables_number 15
loop_
_symmetry_equiv_pos_site_id
_symmetry_equiv_pos_as_xyz
1 x,y,z
2 -x,y,1/2-z
3 1/2+x,1/2+y,z
4 1/2-x,1/2+y,1/2-z
5 -x,-y,-z
6 x,-y,-1/2+z
7 -1/2-x,-1/2-y,-z
8 -1/2+x,-1/2-y,-1/2+z
_cell_length_a 12.087(2)
_cell_length_b 22.800(3)
_cell_length_c 23.372(2)
_cell_angle_alpha 90
_cell_angle_beta 100.26(1)
_cell_angle_gamma 90
_cell_formula_units_Z 4
loop_
_atom_type_symbol
_atom_type_radius_bond
C 0.68
H 0.23
Li 1.19
N 0.68
O 0.68
Ti 1.47
loop_
_atom_site_label
_atom_site_type_symbol
_atom_site_fract_x
_atom_site_fract_y
_atom_site_fract_z
Ti1 Ti 0.01045(6) 0.03770(3) 0.11358(3)
C1 C 0.0550(3) -0.1346(2) 0.17635(15)
C2 C 0.0371(3) -0.0828(2) 0.14410(14)
O1 O 0.0125(2) -0.0301(1) 0.16552(10)
C3 C 0.0429(3) -0.0825(2) 0.08445(14)
O2 O 0.0306(2) -0.02814(10) 0.05983(9)
C4 C 0.0583(3) -0.1335(2) 0.05563(15)
H1 H 0.0605(3) -0.1332(2) 0.01520(15)
C5 C 0.0707(4) -0.1857(2) 0.0870(2)
H2 H 0.0801(4) -0.2215(2) 0.0676(2)
C6 C 0.0694(4) -0.1859(2) 0.1466(2)
H3 H 0.0786(4) -0.2220(2) 0.1672(2)
C7 C 0.0581(3) -0.1352(2) 0.2415(2)
H4 H 0.1002(3) -0.1004(2) 0.2588(2)
H5 H 0.0995(3) -0.1705(2) 0.2581(2)
C8 C -0.2511(3) 0.1404(2) 0.15359(15)
C9 C -0.1790(3) 0.1044(2) 0.12968(15)
O3 O -0.0773(2) 0.08592(11) 0.15716(10)
C10 C -0.2092(3) 0.0825(2) 0.0721(2)
O4 O -0.1321(2) 0.04498(11) 0.05751(9)
C11 C -0.3076(3) 0.0998(2) 0.0374(2)
H6 H -0.3268(3) 0.0862(2) -0.0015(2)
C12 C -0.3784(4) 0.1377(2) 0.0605(2)
H7 H -0.4466(4) 0.1503(2) 0.0369(2)
C13 C -0.3512(4) 0.1576(2) 0.1175(2)
H8 H -0.4014(4) 0.1832(2) 0.1322(2)
C14 C -0.2234(3) 0.1591(2) 0.21686(15)
H9 H -0.2229(3) 0.2025(2) 0.21912(15)
H10 H -0.1472(3) 0.1450(2) 0.23402(15)
C15 C -0.2761(3) 0.1462(2) 0.3170(2)
C16 C -0.1969(3) 0.1120(2) 0.35101(14)
O5 O -0.1433(2) 0.06527(11) 0.33258(9)
C17 C -0.1634(3) 0.1228(2) 0.41120(15)
O6 O -0.0821(2) 0.08629(11) 0.43824(10)
C18 C -0.2131(4) 0.1674(2) 0.4369(2)
H11 H -0.1915(4) 0.1747(2) 0.4774(2)
C19 C -0.2942(4) 0.2014(2) 0.4039(2)
H12 H -0.3290(4) 0.2321(2) 0.4218(2)
C20 C -0.3258(4) 0.1914(2) 0.3442(2)
H13 H -0.3816(4) 0.2155(2) 0.3219(2)
C21 C -0.3089(3) 0.1348(2) 0.25202(14)
H14 H -0.3832(3) 0.1528(2) 0.23774(14)
H15 H -0.3165(3) 0.0919(2) 0.24538(14)
Li1 Li 0.00000 -0.0179(4) 0.25000
O7 O -0.1594(3) 0.00539(13) 0.23181(11)
H16 H -0.1616(40) 0.0335(14) 0.2090(17)
H17 H -0.1714(38) 0.0258(17) 0.2596(13)
Li2 Li -0.1229(6) -0.0103(3) -0.0068(3)
O8 O -0.2790(2) -0.02124(13) -0.03580(12)
C22 C -0.3570(4) -0.0368(2) -0.0739(2)
H18 H -0.3992(4) -0.0700(2) -0.0660(2)
N1 N -0.3875(3) -0.0110(2) -0.12532(15)
C23 C -0.3253(4) 0.0378(2) -0.1421(2)
H19 H -0.3769(5) 0.0703(5) -0.1549(13)
H20 H -0.2875(21) 0.0260(4) -0.1740(9)
H21 H -0.2691(17) 0.0504(9) -0.1088(4)
C24 C -0.4763(4) -0.0357(2) -0.1685(2)
H22 H -0.5291(15) -0.0047(3) -0.1843(10)
H23 H -0.5162(18) -0.066(1) -0.1504(4)
H24 H -0.4436(5) -0.0532(12) -0.2000(7)
Li3 Li 0.00000 0.3586(5) 0.25000
O9 O -0.1184(3) 0.31306(14) 0.20369(13)
C25 C -0.1370(4) 0.2984(2) 0.1519(2)
H25 H -0.2003(4) 0.3157(2) 0.1279(2)
N2 N -0.0774(3) 0.2612(2) 0.12693(14)
C26 C 0.0179(4) 0.2304(2) 0.1602(2)
H26 H 0.0830(8) 0.2345(11) 0.1408(7)
H27 H -0.0007(10) 0.1888(3) 0.1629(11)
H28 H 0.0358(17) 0.2472(9) 0.1994(5)
C27 C -0.1105(5) 0.2449(2) 0.0660(2)
H29 H -0.1289(29) 0.2030(4) 0.0633(2)
H30 H -0.0484(11) 0.2528(15) 0.0453(4)
H31 H -0.1766(18) 0.2677(11) 0.0485(4)
O10 O 0.0681(3) 0.3941(2) 0.19213(15)
C28 C 0.1445(4) 0.3832(3) 0.1717(2)
H32 H 0.2000(4) 0.3612(3) 0.1968(2)
N3 N 0.1723(3) 0.3945(2) 0.1213(2)
C29 C 0.1314(14) 0.4461(5) 0.0922(5)
H33 H 0.1926(24) 0.4658(25) 0.0773(41)
H34 H 0.1022(86) 0.4722(21) 0.1193(13)
H35 H 0.0711(62) 0.4364(7) 0.0597(30)
C30 C 0.2541(11) 0.3623(6) 0.0966(6)
H36 H 0.2191(23) 0.3466(37) 0.0587(19)
H37 H 0.2831(59) 0.3299(26) 0.1225(20)
H38 H 0.3162(41) 0.3885(12) 0.0918(40)
C31? C 0.0804(11) 0.3856(11) 0.0739(5)
H39? H 0.0815(74) 0.4163(39) 0.0446(30)
H40? H 0.0092(12) 0.3873(64) 0.0884(12)
H41? H 0.0879(67) 0.3471(29) 0.0563(40)
C32? C 0.275(1) 0.4107(12) 0.1041(7)
H42? H 0.2592(12) 0.4358(50) 0.0695(36)
H43? H 0.3148(54) 0.3753(12) 0.0950(57)
H44? H 0.3220(49) 0.4322(53) 0.1357(23)
C7A C -0.0581(3) -0.1352(2) 0.2585(2)
C1A C -0.0550(3) -0.1346(2) 0.32365(15)
C2A C -0.0371(3) -0.0828(2) 0.35590(14)
O1A O -0.0125(2) -0.0301(1) 0.33448(10)
C3A C -0.0429(3) -0.0825(2) 0.41555(14)
O2A O -0.0306(2) -0.02814(10) 0.44017(9)
C4A C -0.0583(3) -0.1335(2) 0.44437(15)
H1A H -0.0605(3) -0.1332(2) 0.48480(15)
C5A C -0.0707(4) -0.1857(2) 0.4130(2)
H2A H -0.0801(4) -0.2215(2) 0.4324(2)
C6A C -0.0694(4) -0.1859(2) 0.3534(2)
H3A H -0.0786(4) -0.2220(2) 0.3328(2)
H4A H -0.1002(3) -0.1004(2) 0.2412(2)
H5A H -0.0995(3) -0.1705(2) 0.2419(2)
O7A O 0.1594(3) 0.00539(13) 0.26819(11)
H16A H 0.1616(40) 0.0335(14) 0.2910(17)
H17A H 0.1714(38) 0.0258(17) 0.2404(13)
Ti1A Ti -0.01045(6) 0.03770(3) 0.38642(3)
Li2A Li 0.1229(6) -0.0103(3) 0.5068(3)
C8A C 0.2511(3) 0.1404(2) 0.34641(15)
C9A C 0.1790(3) 0.1044(2) 0.37032(15)
O3A O 0.0773(2) 0.08592(11) 0.34284(10)
C10A C 0.2092(3) 0.0825(2) 0.4279(2)
O4A O 0.1321(2) 0.04498(11) 0.44249(9)
C11A C 0.3076(3) 0.0998(2) 0.4626(2)
H6A H 0.3268(3) 0.0862(2) 0.5015(2)
C12A C 0.3784(4) 0.1377(2) 0.4395(2)
H7A H 0.4466(4) 0.1503(2) 0.4631(2)
C13A C 0.3512(4) 0.1576(2) 0.3825(2)
H8A H 0.4014(4) 0.1832(2) 0.3678(2)
C14A C 0.2234(3) 0.1591(2) 0.28314(15)
H9A H 0.2229(3) 0.2025(2) 0.28088(15)
H10A H 0.1472(3) 0.1450(2) 0.26598(15)
C15A C 0.2761(3) 0.1462(2) 0.1830(2)
C16A C 0.1969(3) 0.1120(2) 0.14899(14)
O5A O 0.1433(2) 0.06527(11) 0.16742(9)
C17A C 0.1634(3) 0.1228(2) 0.08880(15)
O6A O 0.0821(2) 0.08629(11) 0.06176(10)
C18A C 0.2131(4) 0.1674(2) 0.0631(2)
H11A H 0.1915(4) 0.1747(2) 0.0226(2)
C19A C 0.2942(4) 0.2014(2) 0.0961(2)
H12A H 0.3290(4) 0.2321(2) 0.0782(2)
C20A C 0.3258(4) 0.1914(2) 0.1558(2)
H13A H 0.3816(4) 0.2155(2) 0.1781(2)
C21A C 0.3089(3) 0.1348(2) 0.24798(14)
H14A H 0.3832(3) 0.1528(2) 0.26226(14)
H15A H 0.3165(3) 0.0919(2) 0.25462(14)
O8A O 0.2790(2) -0.02124(13) 0.53580(12)
C22A C 0.3570(4) -0.0368(2) 0.5739(2)
H18A H 0.3992(4) -0.0700(2) 0.5660(2)
N1A N 0.3875(3) -0.0110(2) 0.62532(15)
C23A C 0.3253(4) 0.0378(2) 0.6421(2)
H19A H 0.3769(5) 0.0703(5) 0.6549(13)
H20A H 0.2875(21) 0.0260(4) 0.6740(9)
H21A H 0.2691(17) 0.0504(9) 0.6088(4)
C24A C 0.4763(4) -0.0357(2) 0.6685(2)
H22A H 0.5291(15) -0.0047(3) 0.6843(10)
H23A H 0.5162(18) -0.066(1) 0.6504(4)
H24A H 0.4436(5) -0.0532(12) 0.7000(7)
Li2D Li 0.1229(6) 0.0103(3) 0.0068(3)
Li2E Li -0.1229(6) 0.0103(3) 0.4932(3)
O2D O -0.0306(2) 0.02814(10) -0.05983(9)
O6E O -0.0821(2) -0.08629(11) -0.06176(10)
O2E O 0.0306(2) 0.02814(10) 0.55983(9)
O6D O 0.0821(2) -0.08629(11) 0.56176(10)
O9A O 0.1184(3) 0.31306(14) 0.29631(13)
C25A C 0.1370(4) 0.2984(2) 0.3481(2)
H25A H 0.2003(4) 0.3157(2) 0.3721(2)
N2A N 0.0774(3) 0.2612(2) 0.37307(14)
C26A C -0.0179(4) 0.2304(2) 0.3398(2)
H26A H -0.0830(8) 0.2345(11) 0.3592(7)
H27A H 0.0007(10) 0.1888(3) 0.3371(11)
H28A H -0.0358(17) 0.2472(9) 0.3006(5)
C27A C 0.1105(5) 0.2449(2) 0.4340(2)
H29A H 0.1289(29) 0.2030(4) 0.4367(2)
H30A H 0.0484(11) 0.2528(15) 0.4547(4)
H31A H 0.1766(18) 0.2677(11) 0.4515(4)
O10A O -0.0681(3) 0.3941(2) 0.30787(15)
C28A C -0.1445(4) 0.3832(3) 0.3283(2)
H32A H -0.2000(4) 0.3612(3) 0.3032(2)
N3A N -0.1723(3) 0.3945(2) 0.3787(2)
C29A C -0.1314(14) 0.4461(5) 0.4078(5)
H33A H -0.1926(24) 0.4658(25) 0.4227(41)
H34A H -0.1022(86) 0.4722(21) 0.3807(13)
H35A H -0.0711(62) 0.4364(7) 0.4403(30)
C30A C -0.2541(11) 0.3623(6) 0.4034(6)
H36A H -0.2191(23) 0.3466(37) 0.4413(19)
H37A H -0.2831(59) 0.3299(26) 0.3775(20)
H38A H -0.3162(41) 0.3885(12) 0.4082(40)
#END
