
#######################################################################
#
#                 Cambridge Crystallographic Data Centre
#                                CCDC
#
#######################################################################
#
# If this CIF has been generated from an entry in the Cambridge
# Structural Database, then it will include bibliographic, chemical,
# crystal, experimental, refinement or atomic coordinate data resulting
# from the CCDC's data processing and validation procedures.
#
#######################################################################

data_CSD_CIF_TEBDOW
_audit_creation_date 2017-08-10
_audit_creation_method CSD-ConQuest-V1
_database_code_CSD TEBDOW
_database_code_depnum_ccdc_archive 'CCDC 1568065'
_chemical_formula_sum 'C180 H121.9 Bi2 N12 O48.94 P6'
_chemical_formula_moiety
;
(C36 Bi2 N12 O48 6-)n,6(C24 H20 P1 1+),0.94(H2 O1)
;
_journal_coden_Cambridge 1078
_journal_year 2017
_journal_name_full 'CSD Communication(Private Communication) '
loop_
_publ_author_name
"C.J.Kingsbury"
"B.F.Abrahams"
"R.Robson"
_chemical_name_systematic
;
catena-(hexakis(tetraphenylphosphonium) 
bis(\m-2,5-dioxy-3,6-dinitrocyclohexa-2,5-diene-1,4-dione)-tetrakis(3,6-dinitr
o-4,5-dioxocyclohexa-2,6-diene-1,2-diolate)-di-bismuth(iii) hydrate)
;
_chemical_name_common
;
catena-(hexakis(tetraphenylphosphonium) 
bis(mu-2,5-dioxy-3,6-dinitro-1,4-benzoquinone)-tetrakis(2,5-dioxy-3,6-dinitro-
1,4-benzoquinone)-di-bismuth(iii) hydrate)
;
_cell_volume   4159.005
_exptl_crystal_colour 'orange'
_exptl_crystal_density_diffrn 1.533
_exptl_crystal_description 'rod'
_diffrn_ambient_temperature 130.0
#These two values have been output from a single CSD field.
_refine_ls_R_factor_gt 0.0945
_refine_ls_wR_factor_gt 0.0945
_symmetry_cell_setting triclinic
_symmetry_space_group_name_H-M 'P -1'
_symmetry_Int_Tables_number 2
loop_
_symmetry_equiv_pos_site_id
_symmetry_equiv_pos_as_xyz
1 x,y,z
2 -x,-y,-z
_cell_length_a 14.6330(6)
_cell_length_b 16.2486(9)
_cell_length_c 19.7829(9)
_cell_angle_alpha 79.313(4)
_cell_angle_beta 85.485(3)
_cell_angle_gamma 64.133(4)
_cell_formula_units_Z 1
loop_
_atom_type_symbol
_atom_type_radius_bond
C 0.68
H 0.23
Bi 1.48
N 0.68
O 0.68
P 1.05
loop_
_atom_site_label
_atom_site_type_symbol
_atom_site_fract_x
_atom_site_fract_y
_atom_site_fract_z
Bi1 Bi 0.72942(3) 0.08758(3) 0.86830(2)
O1 O 0.6716(5) 0.2456(5) 0.8669(3)
O2 O 0.6162(5) 0.1776(5) 0.7750(4)
O3 O 0.5069(5) 0.5480(5) 0.7449(4)
O4 O 0.4437(7) 0.4809(5) 0.6510(4)
O5 O 0.4094(7) 0.3222(6) 0.6432(5)
O6 O 0.5657(7) 0.2300(6) 0.6291(5)
O7 O 0.5870(9) 0.4601(9) 0.9019(5)
O8 O 0.7187(9) 0.4315(10) 0.8425(7)
O9 O 0.8174(5) 0.1232(4) 0.9491(3)
O10 O 1.0973(5) 0.0418(5) 1.0895(4)
O11 O 0.8952(6) 0.1843(5) 1.1044(4)
O12 O 0.8745(6) 0.2488(5) 0.9971(4)
O13 O 0.8375(5) 0.1247(5) 0.7947(3)
O14 O 0.8342(7) 0.0588(6) 0.5377(4)
O15 O 0.7749(5) 0.0016(5) 0.7762(3)
O16 O 0.8996(7) 0.1832(6) 0.5592(4)
O17 O 0.7237(7) -0.0409(7) 0.6029(5)
O18 O 0.8308(8) -0.1307(7) 0.6813(5)
O19 O 1.0065(7) 0.1969(7) 0.6676(5)
O20 O 0.8732(7) 0.2752(6) 0.7246(5)
C1 C 0.5903(7) 0.2635(7) 0.7634(5)
C2 C 0.5301(7) 0.3262(7) 0.7090(5)
C3 C 0.4971(9) 0.4245(8) 0.6990(6)
C4 C 0.5340(8) 0.4641(8) 0.7514(6)
C5 C 0.5982(8) 0.3959(7) 0.8052(5)
C6 C 0.6219(8) 0.3039(7) 0.8158(5)
C7 C 0.9040(7) 0.0684(6) 0.9731(5)
C8 C 0.9494(7) 0.0892(7) 1.0241(5)
C9 C 1.0475(7) 0.0259(7) 1.0485(5)
C10 C 0.8405(7) 0.1104(7) 0.7328(5)
C11 C 0.8742(8) 0.1547(7) 0.6779(5)
C12 C 0.8740(8) 0.1401(8) 0.6092(5)
C13 C 0.8348(8) 0.0699(7) 0.5971(5)
C14 C 0.8078(8) 0.0216(7) 0.6568(5)
C15 C 0.8020(7) 0.0389(7) 0.7226(5)
N1 N 0.5005(8) 0.2906(6) 0.6563(5)
N2 N 0.6364(8) 0.4313(6) 0.8554(6)
N3 N 0.9024(6) 0.1818(6) 1.0436(4)
N4 N 0.9222(8) 0.2157(7) 0.6914(4)
N5 N 0.7843(7) -0.0544(7) 0.6462(4)
O21 O 0.5698(5) 0.1287(5) 0.9505(4)
O22 O 0.3357(5) 0.0428(5) 1.0829(4)
O23 O 0.4472(6) 0.2078(5) 1.0683(4)
O24 O 0.3113(6) 0.2317(5) 1.0169(4)
C16 C 0.5347(7) 0.0720(7) 0.9751(5)
C17 C 0.4500(7) 0.0900(7) 1.0170(5)
C18 C 0.4095(8) 0.0263(7) 1.0449(5)
N6 N 0.3989(6) 0.1845(5) 1.0365(4)
P1 P 0.1486(2) 0.5593(2) 0.78058(15)
C19 C 0.0488(8) 0.6335(7) 0.8306(5)
C20 C 0.0249(9) 0.5961(8) 0.8946(6)
H1 H 0.06020 0.53310 0.91170
C21 C -0.0524(10) 0.6537(9) 0.9329(7)
H2 H -0.07000 0.62910 0.97540
C22 C -0.1037(9) 0.7486(9) 0.9076(6)
H3 H -0.15580 0.78720 0.93300
C23 C -0.0765(9) 0.7838(8) 0.8454(6)
H4 H -0.10960 0.84710 0.82890
C24 C -0.0011(9) 0.7275(8) 0.8066(6)
H5 H 0.01620 0.75270 0.76430
C25 C 0.1803(8) 0.6294(7) 0.7096(5)
C26 C 0.2693(9) 0.6382(8) 0.7109(6)
H6 H 0.31330 0.60790 0.74820
C27 C 0.2935(9) 0.6930(9) 0.6558(6)
H7 H 0.35320 0.70010 0.65590
C28 C 0.1375(10) 0.7271(9) 0.6000(6)
H8 H 0.09310 0.75760 0.56290
C29 C 0.1149(10) 0.6718(9) 0.6545(6)
H9 H 0.05600 0.66340 0.65370
C30 C 0.1087(9) 0.4869(8) 0.7443(6)
C31 C 0.1634(11) 0.4480(9) 0.6881(7)
H10 H 0.21610 0.46210 0.66930
C32 C 0.1372(14) 0.387(1) 0.6605(8)
H11 H 0.17240 0.36040 0.62310
C33 C 0.0603(14) 0.3678(10) 0.6893(8)
H12 H 0.04340 0.32750 0.67100
C34 C 0.0061(13) 0.4057(11) 0.7444(8)
H13 H -0.04660 0.39110 0.76280
C35 C 0.0299(11) 0.4651(9) 0.7724(7)
H14 H -0.00640 0.49080 0.80990
C36 C 0.2536(7) 0.4861(7) 0.8393(6)
C37 C 0.3122(9) 0.3942(9) 0.8306(7)
H15 H 0.29940 0.37180 0.79410
C38 C 0.3883(10) 0.3379(10) 0.8763(8)
H16 H 0.42720 0.27640 0.87130
C39 C 0.4078(9) 0.3705(11) 0.9287(8)
H17 H 0.45900 0.33070 0.96010
C40 C 0.3534(9) 0.4615(10) 0.9364(7)
H18 H 0.36920 0.48330 0.97210
C41 C 0.2743(9) 0.5218(9) 0.8909(7)
H19 H 0.23700 0.58380 0.89540
C42 C 0.226(1) 0.7364(9) 0.6015(6)
H20 H 0.24110 0.77310 0.56460
P2 P 0.7037(2) 0.6661(2) 0.59754(15)
C43 C 0.5883(8) 0.7695(8) 0.5710(6)
C44 C 0.5172(10) 0.7713(9) 0.5277(6)
H21 H 0.52610 0.71820 0.51120
C45 C 0.4314(10) 0.8555(10) 0.5094(7)
H22 H 0.38280 0.85830 0.48030
C46 C 0.418(1) 0.9331(10) 0.5337(6)
H23 H 0.36090 0.98850 0.52080
C47 C 0.4898(11) 0.9296(10) 0.5777(6)
H24 H 0.47970 0.98260 0.59460
C48 C 0.5751(10) 0.8488(9) 0.5964(6)
H25 H 0.62330 0.84670 0.62550
C49 C 0.8112(9) 0.6766(8) 0.5535(6)
C50 C 0.9048(9) 0.5977(9) 0.5613(6)
H26 H 0.90900 0.54270 0.58810
C51 C 0.9905(10) 0.6017(9) 0.5294(6)
H27 H 1.05290 0.55000 0.53590
C52 C 0.9835(10) 0.6819(9) 0.4881(6)
H28 H 1.04090 0.68360 0.46530
C53 C 0.8950(13) 0.7580(11) 0.4804(8)
H29 H 0.89180 0.81280 0.45390
C54 C 0.8058(11) 0.7550(9) 0.5124(7)
H30 H 0.74370 0.80700 0.50520
C55 C 0.7164(8) 0.6595(8) 0.6881(6)
C56 C 0.6388(9) 0.6558(9) 0.7312(6)
H31 H 0.58310 0.65400 0.71320
C57 C 0.6433(10) 0.6549(9) 0.7999(6)
H32 H 0.59200 0.64980 0.82870
C58 C 0.7225(9) 0.6616(10) 0.8268(7)
H33 H 0.72480 0.66230 0.87350
C59 C 0.7978(10) 0.6673(13) 0.7842(7)
H34 H 0.85180 0.67160 0.80250
C60 C 0.7962(10) 0.6668(12) 0.7144(7)
H35 H 0.84810 0.67140 0.68590
C61 C 0.7000(9) 0.5649(8) 0.5775(6)
C62 C 0.6923(9) 0.5581(9) 0.5102(6)
H36 H 0.68890 0.60700 0.47600
C63 C 0.6894(10) 0.4827(10) 0.4915(7)
H37 H 0.68160 0.48070 0.44570
C64 C 0.6986(10) 0.4086(9) 0.5435(7)
H38 H 0.69780 0.35600 0.53190
C65 C 0.7087(9) 0.4114(9) 0.6117(6)
H39 H 0.71390 0.36140 0.64550
C66 C 0.7109(8) 0.4886(8) 0.6293(6)
H40 H 0.71940 0.49050 0.67500
P3 P 0.7292(2) 0.0387(2) 0.20496(14)
C67 C 0.8000(7) 0.0405(7) 0.2742(5)
C68 C 0.7807(9) 0.0112(8) 0.3427(5)
H41 H 0.73130 -0.01070 0.35270
C69 C 0.8342(9) 0.0146(8) 0.3950(6)
H42 H 0.82120 -0.00490 0.44050
C70 C 0.9075(9) 0.0472(8) 0.3802(6)
H43 H 0.94420 0.04910 0.41580
C71 C 0.9270(9) 0.0775(8) 0.3122(6)
H44 H 0.97580 0.10010 0.30210
C72 C 0.8721(8) 0.0733(8) 0.2600(6)
H45 H 0.88460 0.09320 0.21450
C73 C 0.6234(8) 0.0137(8) 0.2366(5)
C74 C 0.5241(8) 0.0764(8) 0.2216(6)
H46 H 0.51000 0.13550 0.19770
C75 C 0.4449(10) 0.052(1) 0.2418(7)
H47 H 0.37810 0.09490 0.23180
C76 C 0.4654(9) -0.0363(10) 0.2770(7)
H48 H 0.41280 -0.05340 0.29050
C77 C 0.5663(11) -0.0993(11) 0.2918(8)
H49 H 0.58100 -0.15830 0.31640
C78 C 0.6435(9) -0.0752(9) 0.2707(6)
H50 H 0.71040 -0.11880 0.27910
C79 C 0.6843(7) 0.1500(7) 0.1514(5)
C80 C 0.6835(7) 0.1596(6) 0.0814(5)
H51 H 0.70760 0.10730 0.06050
C81 C 0.6470(8) 0.2470(8) 0.0416(6)
H52 H 0.64860 0.25280 -0.00610
C82 C 0.6090(8) 0.3242(7) 0.0709(6)
H53 H 0.58370 0.38260 0.04360
C83 C 0.6080(9) 0.3158(8) 0.1417(6)
H54 H 0.58110 0.36880 0.16210
C84 C 0.6466(8) 0.2296(8) 0.1822(6)
H55 H 0.64770 0.22400 0.22980
C85 C 0.8079(7) -0.0529(7) 0.1593(5)
C86 C 0.7612(8) -0.0830(8) 0.1166(6)
H56 H 0.69120 -0.05310 0.11030
C87 C 0.8205(10) -0.1586(9) 0.0835(6)
H57 H 0.79000 -0.18030 0.05600
C88 C 0.9217(9) -0.1993(8) 0.0918(6)
H58 H 0.96040 -0.24870 0.06900
C89 C 0.9703(8) -0.1711(7) 0.1322(5)
H59 H 1.04050 -0.20130 0.13770
C90 C 0.9114(8) -0.0952(7) 0.1655(5)
H60 H 0.94320 -0.07360 0.19190
O25 O 1.1215(13) -0.4368(14) 0.0703(9)
H61 H 1.165(5) -0.438(14) 0.041(4)
H62 H 1.135(9) -0.450(19) 0.1119(14)
O9A O 1.1826(5) -0.1232(4) 1.0509(3)
O10A O 0.9027(5) -0.0418(5) 0.9105(4)
O11A O 1.1048(6) -0.1843(5) 0.8956(4)
O12A O 1.1255(6) -0.2488(5) 1.0029(4)
C7A C 1.0960(7) -0.0684(6) 1.0269(5)
C8A C 1.0506(7) -0.0892(7) 0.9759(5)
C9A C 0.9525(7) -0.0259(7) 0.9515(5)
N3A N 1.0976(6) -0.1818(6) 0.9564(4)
O21A O 0.4302(5) -0.1287(5) 1.0495(4)
O22A O 0.6643(5) -0.0428(5) 0.9171(4)
O23A O 0.5528(6) -0.2078(5) 0.9317(4)
O24A O 0.6887(6) -0.2317(5) 0.9831(4)
C16A C 0.4653(7) -0.0720(7) 1.0249(5)
C17A C 0.5500(7) -0.0900(7) 0.9830(5)
C18A C 0.5905(8) -0.0263(7) 0.9551(5)
N6A N 0.6011(6) -0.1845(5) 0.9635(4)
Bi1A Bi 0.27058(3) -0.08758(3) 1.13170(2)
O1A O 0.3284(5) -0.2456(5) 1.1331(3)
O2A O 0.3838(5) -0.1776(5) 1.2250(4)
O3A O 0.4931(5) -0.5480(5) 1.2551(4)
O4A O 0.5563(7) -0.4809(5) 1.3490(4)
O5A O 0.5906(7) -0.3222(6) 1.3568(5)
O6A O 0.4343(7) -0.2300(6) 1.3709(5)
O7A O 0.4130(9) -0.4601(9) 1.0981(5)
O8A O 0.2813(9) -0.4315(10) 1.1575(7)
O13A O 0.1625(5) -0.1247(5) 1.2053(3)
O14A O 0.1658(7) -0.0588(6) 1.4623(4)
O15A O 0.2251(5) -0.0016(5) 1.2238(3)
O16A O 0.1004(7) -0.1832(6) 1.4408(4)
O17A O 0.2763(7) 0.0409(7) 1.3971(5)
O18A O 0.1692(8) 0.1307(7) 1.3187(5)
O19A O -0.0065(7) -0.1969(7) 1.3324(5)
O20A O 0.1268(7) -0.2752(6) 1.2754(5)
C1A C 0.4097(7) -0.2635(7) 1.2366(5)
C2A C 0.4699(7) -0.3262(7) 1.2910(5)
C3A C 0.5029(9) -0.4245(8) 1.3010(6)
C4A C 0.4660(8) -0.4641(8) 1.2486(6)
C5A C 0.4018(8) -0.3959(7) 1.1948(5)
C6A C 0.3781(8) -0.3039(7) 1.1842(5)
C10A C 0.1595(7) -0.1104(7) 1.2672(5)
C11A C 0.1258(8) -0.1547(7) 1.3221(5)
C12A C 0.1260(8) -0.1401(8) 1.3908(5)
C13A C 0.1652(8) -0.0699(7) 1.4029(5)
C14A C 0.1922(8) -0.0216(7) 1.3432(5)
C15A C 0.1980(7) -0.0389(7) 1.2774(5)
N1A N 0.4995(8) -0.2906(6) 1.3437(5)
N2A N 0.3636(8) -0.4313(6) 1.1446(6)
N4A N 0.0778(8) -0.2157(7) 1.3086(4)
N5A N 0.2157(7) 0.0544(7) 1.3538(4)
Bi1A* Bi 1.27058(3) -0.08758(3) 1.13170(2)
O9A* O 0.1826(5) -0.1232(4) 1.0509(3)
O10* O 0.0973(5) 0.0418(5) 1.0895(4)
#END
