
#######################################################################
#
#                 Cambridge Crystallographic Data Centre
#                                CCDC
#
#######################################################################
#
# If this CIF has been generated from an entry in the Cambridge
# Structural Database, then it will include bibliographic, chemical,
# crystal, experimental, refinement or atomic coordinate data resulting
# from the CCDC's data processing and validation procedures.
#
#######################################################################

data_CSD_CIF_TEDGUG
_audit_creation_date 2012-11-07
_audit_creation_method CSD-ConQuest-V1
_database_code_CSD TEDGUG
_database_code_depnum_ccdc_archive 'CCDC 867610'
_chemical_formula_sum 'C131 H204 N90 O23 Zn7'
_chemical_formula_moiety
;
(C54 H22 N72 Zn6 2-)n,n(C24 H54 N6 O6 Zn1 2+),12n(C4 H9 N1 O1),5n(C1 H4 O1)
;
_journal_coden_Cambridge 1145
_journal_volume 22
_journal_year 2012
_journal_page_first 17947
_journal_name_full 'J.Mater.Chem. '
loop_
_publ_author_name
"Guang-Sheng Yang"
"Mei-Na Li"
"Shun-Li Li"
"Ya-Qian Lan"
"Wen-Wen He"
"Xin-Long Wang"
"Jun-Sheng Qin"
"Zhong-Min Su"
_chemical_name_systematic
;
catena-(hexakis(N,N-dimethylacetamide)-zinc(ii) 
tetrakis(\m~4~-5,5'-(5-(2H-tetrazol-5-yl)-1,3-phenylene)-bis(tetrazolato))-bis
(\m~4~-5,5',5''-(benzene-1,3,5-triyl)-tris(tetrazolato))-hexa-zinc(ii) 
N,N-dimethylacetamide methanol solvate)
;
_chemical_name_common
;
IFMC-7
;
_cell_volume  16891.462
_exptl_crystal_density_diffrn 1.14
_diffrn_ambient_temperature 293
_refine_special_details
;
Disordered solvent molecules were not modelled and the disordered density was 
taken into account using the SQUEEZE/PLATON procedure.
;
#These two values have been output from a single CSD field.
_refine_ls_R_factor_gt 0.1147
_refine_ls_wR_factor_gt 0.1147
_symmetry_cell_setting rhombohedral
_symmetry_space_group_name_H-M 'R -3'
_symmetry_Int_Tables_number 148
loop_
_symmetry_equiv_pos_site_id
_symmetry_equiv_pos_as_xyz
1 x,y,z
2 -y,x-y,z
3 -x+y,-x,z
4 2/3+x,1/3+y,1/3+z
5 2/3-y,1/3+x-y,1/3+z
6 2/3-x+y,1/3-x,1/3+z
7 1/3+x,2/3+y,2/3+z
8 1/3-y,2/3+x-y,2/3+z
9 1/3-x+y,2/3-x,2/3+z
10 -x,-y,-z
11 y,-x+y,-z
12 x-y,x,-z
13 -2/3-x,-1/3-y,-1/3-z
14 -2/3+y,-1/3-x+y,-1/3-z
15 -2/3+x-y,-1/3+x,-1/3-z
16 -1/3-x,-2/3-y,-2/3-z
17 -1/3+y,-2/3-x+y,-2/3-z
18 -1/3+x-y,-2/3+x,-2/3-z
_cell_length_a 29.667(4)
_cell_length_b 29.667(4)
_cell_length_c 22.161(6)
_cell_angle_alpha 90
_cell_angle_beta 90
_cell_angle_gamma 120
_cell_formula_units_Z 3
loop_
_atom_type_symbol
_atom_type_radius_bond
C 0.68
H 0.23
N 0.68
O 0.68
Zn 1.22
loop_
_atom_site_label
_atom_site_type_symbol
_atom_site_fract_x
_atom_site_fract_y
_atom_site_fract_z
Zn1 Zn 0.43538(4) 0.00002(4) 0.00000(5)
Zn2 Zn 0.66670 0.33330 0.83330
N1 N 0.3635(3) 0.2193(3) -0.2109(3)
C1 C 0.3890(5) 0.1948(4) -0.1153(4)
C2 C 0.4151(4) 0.1670(4) -0.0266(4)
C3 C 0.4149(4) 0.2481(4) -0.0265(4)
N2 N 0.4316(3) 0.0627(3) 0.0191(4)
N3 N 0.4155(3) 0.0848(3) -0.0225(4)
N4 N 0.3642(3) 0.1444(3) -0.2111(3)
C4 C 0.3981(5) 0.1584(4) -0.0859(4)
H1 H 0.39280 0.12860 -0.10610
N5 N 0.3487(3) 0.1518(3) -0.2644(3)
C5 C 0.3980(4) 0.2394(4) -0.0855(5)
H2 H 0.39260 0.26380 -0.10550
N6 N 0.3485(3) 0.1969(3) -0.2646(3)
C6 C 0.3722(4) 0.1862(4) -0.1796(5)
C7 C 0.4241(4) 0.2118(4) 0.0032(4)
H3 H 0.43630 0.21780 0.04270
N7 N 0.4444(5) 0.1335(4) 0.0585(4)
C8 C 0.4251(5) 0.1280(4) 0.0038(5)
N8 N 0.4489(5) 0.0920(4) 0.0674(4)
N9 N 0.4156(3) 0.3308(3) -0.0225(3)
C9 C 0.4247(4) 0.2971(4) 0.0033(4)
N10 N 0.4448(4) 0.3112(4) 0.0585(4)
N11 N 0.4311(3) 0.3691(3) 0.0187(4)
N12 N 0.4486(4) 0.3570(4) 0.0675(5)
O1 O 0.7026(6) 0.2985(6) 0.7800(7)
N13 N 0.7385(9) 0.2701(8) 0.7238(8)
C10 C 0.714(3) 0.2620(17) 0.770(2)
C11 C 0.672(3) 0.212(3) 0.744(3)
H4 H 0.64060 0.20000 0.76790
H5 H 0.68220 0.18600 0.74550
H6 H 0.66480 0.21690 0.70330
C12 C 0.7585(12) 0.2375(11) 0.6969(11)
H7 H 0.79000 0.25930 0.67510
H8 H 0.73300 0.21250 0.66990
H9 H 0.76550 0.21970 0.72850
C13 C 0.783(4) 0.323(2) 0.707(4)
H10 H 0.80430 0.31900 0.67680
H11 H 0.80390 0.33950 0.74190
H12 H 0.76980 0.34410 0.69080
Zn1J Zn 0.00002(4) -0.43536(4) 0.00000(5)
Zn1K Zn 0.43536(4) 0.43538(4) 0.00000(5)
Zn1A Zn -0.00002(4) 0.43536(4) 0.00000(5)
Zn1B Zn -0.43536(4) -0.43538(4) 0.00000(5)
Zn1I Zn -0.43538(4) -0.00002(4) 0.00000(5)
Zn1C Zn 0.102047(40) 0.333353(40) 0.333333(50)
Zn1D Zn -0.333353(40) -0.231307(40) 0.333333(50)
Zn1E Zn 0.231307(40) -0.102047(40) 0.333333(50)
Zn1F Zn -0.231287(40) -0.333313(40) -0.333333(50)
Zn1G Zn 0.333313(40) 0.102027(40) -0.333333(50)
Zn1H Zn -0.102027(40) 0.231287(40) -0.333333(50)
Zn1O Zn 0.231287(40) 0.333313(40) 0.333333(50)
Zn1P Zn -0.333313(40) -0.102027(40) 0.333333(50)
Zn1Q Zn 0.102027(40) -0.231287(40) 0.333333(50)
Zn1L Zn -0.102047(40) -0.333353(40) -0.333333(50)
Zn1M Zn 0.333353(40) 0.231307(40) -0.333333(50)
Zn1N Zn -0.231307(40) 0.102047(40) -0.333333(50)
N1J N 0.2193(3) -0.1442(3) 0.2109(3)
N1K N 0.1442(3) 0.3635(3) 0.2109(3)
N1A N -0.2193(3) 0.1442(3) -0.2109(3)
N1B N -0.1442(3) -0.3635(3) -0.2109(3)
N1I N -0.3635(3) -0.2193(3) 0.2109(3)
C1J C 0.1948(5) -0.1942(4) 0.1153(4)
C1K C 0.1942(5) 0.3890(4) 0.1153(4)
C1A C -0.1948(5) 0.1942(4) -0.1153(4)
C1B C -0.1942(5) -0.3890(4) -0.1153(4)
C1I C -0.3890(5) -0.1948(4) 0.1153(4)
C2J C 0.1670(4) -0.2481(4) 0.0266(4)
C2K C 0.2481(4) 0.4151(4) 0.0266(4)
C2A C -0.1670(4) 0.2481(4) -0.0266(4)
C2B C -0.2481(4) -0.4151(4) -0.0266(4)
C2I C -0.4151(4) -0.1670(4) 0.0266(4)
C3J C 0.2481(4) -0.1668(4) 0.0265(4)
C3K C 0.1668(4) 0.4149(4) 0.0265(4)
C3A C -0.2481(4) 0.1668(4) -0.0265(4)
C3B C -0.1668(4) -0.4149(4) -0.0265(4)
C3I C -0.4149(4) -0.2481(4) 0.0265(4)
N2J N 0.0627(3) -0.3689(3) -0.0191(4)
N2K N 0.3689(3) 0.4316(3) -0.0191(4)
N2A N -0.0627(3) 0.3689(3) 0.0191(4)
N2B N -0.3689(3) -0.4316(3) 0.0191(4)
N2I N -0.4316(3) -0.0627(3) -0.0191(4)
N3J N 0.0848(3) -0.3307(3) 0.0225(4)
N3K N 0.3307(3) 0.4155(3) 0.0225(4)
N3A N -0.0848(3) 0.3307(3) -0.0225(4)
N3B N -0.3307(3) -0.4155(3) -0.0225(4)
N3I N -0.4155(3) -0.0848(3) 0.0225(4)
N4J N 0.1444(3) -0.2198(3) 0.2111(3)
N4K N 0.2198(3) 0.3642(3) 0.2111(3)
N4A N -0.1444(3) 0.2198(3) -0.2111(3)
N4B N -0.2198(3) -0.3642(3) -0.2111(3)
N4I N -0.3642(3) -0.1444(3) 0.2111(3)
C4J C 0.1584(5) -0.2397(4) 0.0859(4)
C4K C 0.2397(5) 0.3981(4) 0.0859(4)
C4A C -0.1584(5) 0.2397(4) -0.0859(4)
C4B C -0.2397(5) -0.3981(4) -0.0859(4)
C4I C -0.3981(5) -0.1584(4) 0.0859(4)
H1J H 0.12860 -0.26420 0.10610
H1K H 0.26420 0.39280 0.10610
H1A H -0.12860 0.26420 -0.10610
H1B H -0.26420 -0.39280 -0.10610
H1I H -0.39280 -0.12860 0.10610
N5J N 0.1518(3) -0.1969(3) 0.2644(3)
N5K N 0.1969(3) 0.3487(3) 0.2644(3)
N5A N -0.1518(3) 0.1969(3) -0.2644(3)
N5B N -0.1969(3) -0.3487(3) -0.2644(3)
N5I N -0.3487(3) -0.1518(3) 0.2644(3)
N5C N 0.015367(300) 0.485133(300) 0.068933(300)
N5D N -0.485133(300) -0.469767(300) 0.068933(300)
N5E N 0.469767(300) -0.015367(300) 0.068933(300)
N5L N -0.015367(300) -0.485133(300) -0.068933(300)
N5M N 0.485133(300) 0.469767(300) -0.068933(300)
N5N N -0.469767(300) 0.015367(300) -0.068933(300)
C5J C 0.2394(4) -0.1586(4) 0.0855(5)
C5K C 0.1586(4) 0.3980(4) 0.0855(5)
C5A C -0.2394(4) 0.1586(4) -0.0855(5)
C5B C -0.1586(4) -0.3980(4) -0.0855(5)
C5I C -0.3980(4) -0.2394(4) 0.0855(5)
H2J H 0.26380 -0.12880 0.10550
H2K H 0.12880 0.39260 0.10550
H2A H -0.26380 0.12880 -0.10550
H2B H -0.12880 -0.39260 -0.10550
H2I H -0.39260 -0.26380 0.10550
N6J N 0.1969(3) -0.1516(3) 0.2646(3)
N6K N 0.1516(3) 0.3485(3) 0.2646(3)
N6A N -0.1969(3) 0.1516(3) -0.2646(3)
N6B N -0.1516(3) -0.3485(3) -0.2646(3)
N6I N -0.3485(3) -0.1969(3) 0.2646(3)
N6C N 0.015167(300) -0.469767(300) 0.068733(300)
N6D N 0.469767(300) 0.484933(300) 0.068733(300)
N6E N -0.484933(300) -0.015167(300) 0.068733(300)
N6L N -0.015167(300) 0.469767(300) -0.068733(300)
N6M N -0.469767(300) -0.484933(300) -0.068733(300)
N6N N 0.484933(300) 0.015167(300) -0.068733(300)
C6J C 0.1862(4) -0.1860(4) 0.1796(5)
C6K C 0.1860(4) 0.3722(4) 0.1796(5)
C6A C -0.1862(4) 0.1860(4) -0.1796(5)
C6B C -0.1860(4) -0.3722(4) -0.1796(5)
C6I C -0.3722(4) -0.1862(4) 0.1796(5)
C7J C 0.2118(4) -0.2123(4) -0.0032(4)
C7K C 0.2123(4) 0.4241(4) -0.0032(4)
C7A C -0.2118(4) 0.2123(4) 0.0032(4)
C7B C -0.2123(4) -0.4241(4) 0.0032(4)
C7I C -0.4241(4) -0.2118(4) -0.0032(4)
H3J H 0.21780 -0.21850 -0.04270
H3K H 0.21850 0.43630 -0.04270
H3A H -0.21780 0.21850 0.04270
H3B H -0.21850 -0.43630 0.04270
H3I H -0.43630 -0.21780 -0.04270
N7J N 0.1335(5) -0.3109(4) -0.0585(4)
N7K N 0.3109(5) 0.4444(4) -0.0585(4)
N7A N -0.1335(5) 0.3109(4) 0.0585(4)
N7B N -0.3109(5) -0.4444(4) 0.0585(4)
N7I N -0.4444(5) -0.1335(4) -0.0585(4)
C8J C 0.1280(5) -0.2971(4) -0.0038(5)
C8K C 0.2971(5) 0.4251(4) -0.0038(5)
C8A C -0.1280(5) 0.2971(4) 0.0038(5)
C8B C -0.2971(5) -0.4251(4) 0.0038(5)
C8I C -0.4251(5) -0.1280(4) -0.0038(5)
N8J N 0.0920(5) -0.3569(4) -0.0674(4)
N8K N 0.3569(5) 0.4489(4) -0.0674(4)
N8A N -0.0920(5) 0.3569(4) 0.0674(4)
N8B N -0.3569(5) -0.4489(4) 0.0674(4)
N8I N -0.4489(5) -0.0920(4) -0.0674(4)
N9J N 0.3308(3) -0.0848(3) 0.0225(3)
N9K N 0.0848(3) 0.4156(3) 0.0225(3)
N9A N -0.3308(3) 0.0848(3) -0.0225(3)
N9B N -0.0848(3) -0.4156(3) -0.0225(3)
N9I N -0.4156(3) -0.3308(3) 0.0225(3)
C9J C 0.2971(4) -0.1276(4) -0.0033(4)
C9K C 0.1276(4) 0.4247(4) -0.0033(4)
C9A C -0.2971(4) 0.1276(4) 0.0033(4)
C9B C -0.1276(4) -0.4247(4) 0.0033(4)
C9I C -0.4247(4) -0.2971(4) -0.0033(4)
N10J N 0.3112(4) -0.1336(4) -0.0585(4)
N10K N 0.1336(4) 0.4448(4) -0.0585(4)
N10A N -0.3112(4) 0.1336(4) 0.0585(4)
N10B N -0.1336(4) -0.4448(4) 0.0585(4)
N10I N -0.4448(4) -0.3112(4) -0.0585(4)
N11J N 0.3691(3) -0.0620(3) -0.0187(4)
N11K N 0.0620(3) 0.4311(3) -0.0187(4)
N11A N -0.3691(3) 0.0620(3) 0.0187(4)
N11B N -0.0620(3) -0.4311(3) 0.0187(4)
N11I N -0.4311(3) -0.3691(3) -0.0187(4)
N12J N 0.3570(4) -0.0916(4) -0.0675(5)
N12K N 0.0916(4) 0.4486(4) -0.0675(5)
N12A N -0.3570(4) 0.0916(4) 0.0675(5)
N12B N -0.0916(4) -0.4486(4) 0.0675(5)
N12I N -0.4486(4) -0.3570(4) -0.0675(5)
O1A O 0.7015(6) 0.4041(6) 0.7800(7)
O1B O 0.5959(6) 0.2974(6) 0.7800(7)
O1L O 0.630733(600) 0.368167(600) 0.886667(700)
O1M O 0.631833(600) 0.262567(600) 0.886667(700)
O1N O 0.737433(600) 0.369267(600) 0.886667(700)
N13A N 0.7299(9) 0.4684(8) 0.7238(8)
N13B N 0.5316(9) 0.2615(8) 0.7238(8)
N13L N 0.594833(900) 0.396567(800) 0.942867(800)
N13M N 0.603433(900) 0.198267(800) 0.942867(800)
N13N N 0.801733(900) 0.405167(800) 0.942867(800)
C10A C 0.738(3) 0.4520(17) 0.770(2)
C10B C 0.548(3) 0.2860(17) 0.770(2)
C10L C 0.619333(3000) 0.404667(1700) 0.896667(2000)
C10M C 0.595333(3000) 0.214667(1700) 0.896667(2000)
C10N C 0.785333(3000) 0.380667(1700) 0.896667(2000)
C11A C 0.788(3) 0.460(3) 0.744(3)
C11B C 0.540(3) 0.328(3) 0.744(3)
C11L C 0.661333(3000) 0.454667(3000) 0.922667(3000)
C11M C 0.545333(3000) 0.206667(3000) 0.922667(3000)
C11N C 0.793333(3000) 0.338667(3000) 0.922667(3000)
H4A H 0.80000 0.44060 0.76790
H4B H 0.55940 0.35940 0.76790
H4L H 0.69273 0.46667 0.89877
H4M H 0.53333 0.22607 0.89877
H4N H 0.77393 0.30727 0.89877
H5A H 0.81400 0.49620 0.74550
H5B H 0.50380 0.31780 0.74550
H5L H 0.65113 0.48067 0.92117
H5M H 0.51933 0.17047 0.92117
H5N H 0.82953 0.34887 0.92117
H6A H 0.78310 0.44790 0.70330
H6B H 0.55210 0.33520 0.70330
H6L H 0.66853 0.44977 0.96337
H6M H 0.55023 0.21877 0.96337
H6N H 0.78123 0.33147 0.96337
C12A C 0.7625(12) 0.5210(11) 0.6969(11)
C12B C 0.4790(12) 0.2415(11) 0.6969(11)
C12L C 0.574833(1200) 0.429167(1100) 0.969767(1100)
C12M C 0.570833(1200) 0.145667(1100) 0.969767(1100)
C12N C 0.854333(1200) 0.425167(1100) 0.969767(1100)
H7A H 0.74070 0.53070 0.67510
H7B H 0.46930 0.21000 0.67510
H7L H 0.54333 0.40737 0.99157
H7M H 0.59263 0.13597 0.99157
H7N H 0.86403 0.45667 0.99157
H8A H 0.78750 0.52050 0.66990
H8B H 0.47950 0.26700 0.66990
H8L H 0.60033 0.45417 0.99677
H8M H 0.54583 0.14617 0.99677
H8N H 0.85383 0.39967 0.99677
H9A H 0.78030 0.54580 0.72850
H9B H 0.45420 0.23450 0.72850
H9L H 0.56783 0.44697 0.93817
H9M H 0.55303 0.12087 0.93817
H9N H 0.87913 0.43217 0.93817
C13A C 0.677(4) 0.460(2) 0.707(4)
C13B C 0.540(4) 0.217(2) 0.707(4)
C13L C 0.550333(4000) 0.343667(2000) 0.959667(4000)
C13M C 0.656333(4000) 0.206667(2000) 0.959667(4000)
C13N C 0.793333(4000) 0.449667(2000) 0.959667(4000)
H10A H 0.68100 0.48530 0.67680
H10B H 0.51470 0.19570 0.67680
H10L H 0.52903 0.34767 0.98987
H10M H 0.65233 0.18137 0.98987
H10N H 0.81863 0.47097 0.98987
H11A H 0.66050 0.46440 0.74190
H11B H 0.53560 0.19610 0.74190
H11L H 0.52943 0.32717 0.92477
H11M H 0.67283 0.20227 0.92477
H11N H 0.79773 0.47057 0.92477
H12A H 0.65590 0.42570 0.69080
H12B H 0.57430 0.23020 0.69080
H12L H 0.56353 0.32257 0.97587
H12M H 0.67743 0.24097 0.97587
H12N H 0.75903 0.43647 0.97587
#END
