
#######################################################################
#
#                 Cambridge Crystallographic Data Centre
#                                CCDC
#
#######################################################################
#
# If this CIF has been generated from an entry in the Cambridge
# Structural Database, then it will include bibliographic, chemical,
# crystal, experimental, refinement or atomic coordinate data resulting
# from the CCDC's data processing and validation procedures.
#
#######################################################################

data_CSD_CIF_TEHWEK
_audit_creation_date 2012-11-07
_audit_creation_method CSD-ConQuest-V1
_database_code_CSD TEHWEK
_database_code_depnum_ccdc_archive 'CCDC 896228'
_chemical_formula_sum 'C12 H16 Cd1 Cl1 N1 O4'
_chemical_formula_moiety
;
(C4 H12 N1 1+)n,n(C8 H4 Cd1 Cl1 O4 1-)
;
_journal_coden_Cambridge 1295
_journal_volume 20
_journal_year 2012
_journal_page_first 30
_journal_name_full 'Inorg.Chem.Commun. '
loop_
_publ_author_name
"Hui Yang"
"Tie hu Li"
"Yao Kang"
"Fei Wang"
_chemical_name_systematic
;
catena-[Tetramethylammonium (\m~2~-chloro)-(\m~2~-terephthalato)-cadmium(ii)]
;
_cell_volume   6745.757
_exptl_crystal_colour 'colorless'
_exptl_crystal_density_diffrn 1.521
_exptl_special_details
;
We calculate 5.8% void space in the structure

;
_exptl_crystal_description 'block'
_diffrn_ambient_temperature 273
#These two values have been output from a single CSD field.
_refine_ls_R_factor_gt 0.0533
_refine_ls_wR_factor_gt 0.0533
_symmetry_cell_setting orthorhombic
_symmetry_space_group_name_H-M 'F d d d'
_symmetry_Int_Tables_number 70
loop_
_symmetry_equiv_pos_site_id
_symmetry_equiv_pos_as_xyz
1 x,y,z
2 3/4-x,3/4-y,z
3 3/4-x,y,3/4-z
4 x,3/4-y,3/4-z
5 x,1/2+y,1/2+z
6 3/4-x,1/4-y,1/2+z
7 3/4-x,1/2+y,1/4-z
8 x,1/4-y,1/4-z
9 1/2+x,y,1/2+z
10 1/4-x,3/4-y,1/2+z
11 1/4-x,y,1/4-z
12 1/2+x,3/4-y,1/4-z
13 1/2+x,1/2+y,z
14 1/4-x,1/4-y,z
15 1/4-x,1/2+y,3/4-z
16 1/2+x,1/4-y,3/4-z
17 -x,-y,-z
18 -3/4+x,-3/4+y,-z
19 -3/4+x,-y,-3/4+z
20 -x,-3/4+y,-3/4+z
21 -x,-1/2-y,-1/2-z
22 -3/4+x,-1/4+y,-1/2-z
23 -3/4+x,-1/2-y,-1/4+z
24 -x,-1/4+y,-1/4+z
25 -1/2-x,-y,-1/2-z
26 -1/4+x,-3/4+y,-1/2-z
27 -1/4+x,-y,-1/4+z
28 -1/2-x,-3/4+y,-1/4+z
29 -1/2-x,-1/2-y,-z
30 -1/4+x,-1/4+y,-z
31 -1/4+x,-1/2-y,-3/4+z
32 -1/2-x,-1/4+y,-3/4+z
_cell_length_a 15.0412(4)
_cell_length_b 15.8919(4)
_cell_length_c 28.2210(7)
_cell_angle_alpha 90
_cell_angle_beta 90
_cell_angle_gamma 90
_cell_formula_units_Z 16
loop_
_atom_type_symbol
_atom_type_radius_bond
C 0.68
H 0.23
Cd 1.44
Cl 0.99
N 0.68
O 0.68
loop_
_atom_site_label
_atom_site_type_symbol
_atom_site_fract_x
_atom_site_fract_y
_atom_site_fract_z
Cd1 Cd 0.00310(3) 0.12500 0.12500
C1 C -0.1820(3) 0.2232(3) 0.03052(17)
C2 C 0.1313(4) 0.0490(3) 0.2595(2)
H1 H 0.13520 -0.00040 0.27890
H2 H 0.18340 0.05310 0.23990
H3 H 0.07950 0.04560 0.23980
C3 C -0.1116(3) 0.1936(3) 0.06385(17)
C4 C -0.2305(3) 0.2957(3) 0.04093(19)
H4 H -0.21750 0.32660 0.06810
C5 C 0.0447(4) 0.1183(4) 0.3207(2)
H5 H 0.04040 0.16730 0.34050
H6 H 0.04900 0.06900 0.34010
H7 H -0.00720 0.11450 0.30100
C6 C -0.2016(3) 0.1780(3) -0.01064(18)
H8 H -0.16910 0.12990 -0.01790
O1 O -0.0578(2) 0.1366(2) 0.05000(12)
O2 O -0.1085(2) 0.2243(2) 0.10476(13)
N1 N 0.12500 0.12500 0.2904(2)
Cl1 Cl 0.12500 0.01262(10) 0.12500
Cd1J Cd 0.24690(3) 0.12500 0.12500
Cd1AA Cd -0.50310(3) 0.37500 -0.12500
C1BA C -0.3180(3) 0.2768(3) -0.03052(17)
C2M C 0.1187(4) 0.2010(3) 0.2595(2)
H1M H 0.11480 0.25040 0.27890
H2M H 0.06660 0.19690 0.23990
H3M H 0.17050 0.20440 0.23980
C3BA C -0.3884(3) 0.3064(3) -0.06385(17)
C4BA C -0.2695(3) 0.2043(3) -0.04093(19)
H4BA H -0.28250 0.17340 -0.06810
C5M C 0.2053(4) 0.1317(4) 0.3207(2)
H5M H 0.20960 0.08270 0.34050
H6M H 0.20100 0.18100 0.34010
H7M H 0.25720 0.13550 0.30100
C6BA C -0.2984(3) 0.3220(3) 0.01064(18)
H8BA H -0.33090 0.37010 0.01790
O1BA O -0.4422(2) 0.3634(2) -0.05000(12)
O1G O -0.0578(2) 0.1134(2) 0.20000(12)
O2BA O -0.3915(2) 0.2757(2) -0.10476(13)
O2G O -0.1085(2) 0.0257(2) 0.14524(13)
Cl1G Cl 0.12500 0.23738(10) 0.12500
#END
