
#######################################################################
#
#                 Cambridge Crystallographic Data Centre
#                                CCDC
#
#######################################################################
#
# If this CIF has been generated from an entry in the Cambridge
# Structural Database, then it will include bibliographic, chemical,
# crystal, experimental, refinement or atomic coordinate data resulting
# from the CCDC's data processing and validation procedures.
#
#######################################################################

data_CSD_CIF_TEJBOB
_audit_creation_date 2012-11-07
_audit_creation_method CSD-ConQuest-V1
_database_code_CSD TEJBOB
_database_code_depnum_ccdc_archive 'CCDC 857703'
_chemical_formula_sum 'C54 H42 Ag3 Mo5 N18 O19.5'
_chemical_formula_moiety
;
(H3 O1 1+)n,3n(C18 H12 Ag1 N6 1+),n(Mo5 O17 4-),1.5n(H2 O1)
;
_journal_coden_Cambridge 1295
_journal_volume 20
_journal_year 2012
_journal_page_first 131
_journal_name_full 'Inorg.Chem.Commun. '
loop_
_publ_author_name
"Shi-Zhou"
"Zhi-Guo Kong"
"Qing-Wei Wang"
"Chuan-Bi Li"
_chemical_name_systematic
;
catena-[Oxonium 
tris((\m~3~-2,4,6-tri(pyridin-4-yl)-1,3,5-triazine)-silver(i)) 
(\m~4~-oxo)-bis(\m~3~-oxo)-tetrakis(\m~2~-oxo)-deca-oxo-penta-molybdenum 
sesquihydrate]
;
_cell_volume   6389.915
_exptl_crystal_density_diffrn 2.14
_diffrn_ambient_temperature 293
#These two values have been output from a single CSD field.
_refine_ls_R_factor_gt 0.0535
_refine_ls_wR_factor_gt 0.0535
_symmetry_cell_setting monoclinic
_symmetry_space_group_name_H-M 'C c'
_symmetry_Int_Tables_number 9
loop_
_symmetry_equiv_pos_site_id
_symmetry_equiv_pos_as_xyz
1 x,y,z
2 x,-y,1/2+z
3 1/2+x,1/2+y,z
4 1/2+x,1/2-y,1/2+z
_cell_length_a 11.084(5)
_cell_length_b 24.944(5)
_cell_length_c 23.284(5)
_cell_angle_alpha 90
_cell_angle_beta 96.974(5)
_cell_angle_gamma 90
_cell_formula_units_Z 4
loop_
_atom_type_symbol
_atom_type_radius_bond
C 0.68
H 0.23
Ag 1.45
Mo 1.36
N 0.68
O 0.68
loop_
_atom_site_label
_atom_site_type_symbol
_atom_site_fract_x
_atom_site_fract_y
_atom_site_fract_z
Ag1 Ag 1.24532(10) 0.87136(4) 0.90730(5)
Ag2 Ag 0.91618(10) 0.86186(4) 0.88651(5)
Ag3 Ag 0.61941(10) 0.86325(4) 0.94374(5)
Mo1 Mo 0.66391(10) 0.66688(4) 0.66807(5)
Mo2 Mo 0.86104(10) 0.56622(4) 0.68490(6)
Mo3 Mo 0.86305(13) 0.57120(5) 0.81929(6)
Mo4 Mo 0.67017(14) 0.67401(5) 0.80334(6)
Mo5 Mo 0.57448(11) 0.54935(4) 0.73701(6)
C1 C 1.2334(12) 0.9085(5) 0.7791(6)
H1 H 1.26770 0.93870 0.79800
C2 C 1.2058(12) 0.9099(5) 0.7184(6)
H2 H 1.22270 0.94040 0.69780
C3 C 1.1529(11) 0.8653(5) 0.6894(6)
C4 C 1.1360(12) 0.8197(5) 0.7218(6)
H3 H 1.10370 0.78860 0.70400
C5 C 1.1681(13) 0.8216(5) 0.7807(6)
H4 H 1.15860 0.79030 0.80150
C6 C 1.1968(12) 1.0541(5) 0.5111(6)
H5 H 1.22270 1.08460 0.53180
C7 C 1.1725(13) 1.0079(5) 0.5410(6)
H6 H 1.18050 1.00790 0.58130
C8 C 1.1368(11) 0.9624(5) 0.5108(6)
C9 C 1.1250(13) 0.9634(5) 0.4518(6)
H7 H 1.10250 0.93260 0.43070
C10 C 1.1472(12) 1.0122(5) 0.4226(7)
H8 H 1.13610 1.01360 0.38230
C11 C 0.8821(13) 0.7402(5) 0.4269(6)
H9 H 0.85900 0.74180 0.38720
C12 C 0.9359(12) 0.7838(5) 0.4551(6)
H10 H 0.94940 0.81460 0.43420
C13 C 0.9700(11) 0.7826(5) 0.5138(6)
C14 C 0.9474(11) 0.7377(5) 0.5431(6)
H11 H 0.96700 0.73600 0.58300
C15 C 0.8935(11) 0.6935(5) 0.5123(6)
H12 H 0.87980 0.66230 0.53260
C16 C 1.0313(11) 0.8291(5) 0.5436(6)
C17 C 1.119(1) 0.8668(4) 0.6278(6)
C18 C 1.1112(10) 0.9124(5) 0.5421(6)
C19 C 0.8855(12) 0.9096(5) 0.7603(6)
H13 H 0.91950 0.93900 0.78080
C20 C 0.8560(13) 0.9153(5) 0.7016(6)
H14 H 0.86550 0.94800 0.68350
C21 C 0.8116(10) 0.8707(4) 0.6702(6)
C22 C 0.7993(11) 0.8237(5) 0.7006(6)
H15 H 0.76950 0.79300 0.68100
C23 C 0.8299(12) 0.8221(5) 0.7578(6)
H16 H 0.82360 0.78950 0.77640
C24 C 0.8849(13) 1.0606(5) 0.4927(7)
H17 H 0.91890 1.08990 0.51350
C25 C 0.8580(12) 1.0136(5) 0.5229(6)
H18 H 0.87260 1.01230 0.56300
C26 C 0.8101(10) 0.9700(5) 0.4922(5)
C27 C 0.7887(12) 0.9732(6) 0.4334(6)
H19 H 0.75430 0.94440 0.41190
C28 C 0.8187(13) 1.0197(5) 0.4061(7)
H20 H 0.80810 1.02060 0.36590
C29 C 0.5378(12) 0.7521(5) 0.4051(6)
H21 H 0.51120 0.75470 0.36570
C30 C 0.5955(11) 0.7956(5) 0.4329(6)
H22 H 0.60750 0.82650 0.41200
C31 C 0.6347(10) 0.7937(5) 0.4901(6)
C32 C 0.6144(13) 0.7457(5) 0.5189(6)
H23 H 0.63920 0.74200 0.55830
C33 C 0.5562(11) 0.7038(5) 0.4870(6)
H24 H 0.54360 0.67200 0.50620
C34 C 0.6969(10) 0.8383(4) 0.5229(5)
C35 C 0.7819(11) 0.8744(4) 0.6073(6)
C36 C 0.7810(11) 0.9210(5) 0.5229(6)
C37 C 0.5358(12) 0.8244(5) 0.8166(7)
H25 H 0.53360 0.79210 0.83650
C38 C 0.5108(12) 0.8233(5) 0.7581(6)
H26 H 0.49310 0.79110 0.73870
C39 C 0.5124(11) 0.8718(5) 0.7273(5)
C40 C 0.5418(13) 0.9174(5) 0.7573(6)
H27 H 0.54390 0.95000 0.73820
C41 C 0.5687(12) 0.9146(5) 0.8174(6)
H28 H 0.59160 0.94580 0.83780
C42 C 0.5945(13) 1.0586(5) 0.5504(6)
H29 H 0.63740 1.08580 0.57100
C43 C 0.5687(12) 1.0121(5) 0.5794(6)
H30 H 0.59000 1.00910 0.61910
C44 C 0.5127(10) 0.9717(4) 0.5491(5)
C45 C 0.4786(12) 0.9758(5) 0.4911(6)
H31 H 0.44140 0.94770 0.46960
C46 C 0.5027(13) 1.0250(5) 0.4658(6)
H32 H 0.47710 1.02980 0.42660
C47 C 0.2406(13) 0.7496(5) 0.4605(6)
H33 H 0.21340 0.75170 0.42120
C48 C 0.3020(11) 0.7945(5) 0.4883(6)
H34 H 0.32000 0.82430 0.46680
C49 C 0.3351(10) 0.7933(4) 0.5490(6)
C50 C 0.3105(12) 0.7465(5) 0.5774(6)
H35 H 0.33240 0.74290 0.61700
C51 C 0.2516(12) 0.7048(5) 0.5449(6)
H36 H 0.23260 0.67430 0.56490
C52 C 0.3972(11) 0.8382(5) 0.5795(6)
C53 C 0.4853(11) 0.8732(5) 0.6639(6)
C54 C 0.4831(10) 0.9192(4) 0.5803(6)
N1 N 1.2118(9) 0.8647(4) 0.8109(5)
N2 N 1.1840(9) 1.0558(4) 0.4533(5)
N3 N 0.8619(10) 0.6945(4) 0.4562(5)
N4 N 1.0616(9) 0.8238(4) 0.6007(5)
N5 N 1.1485(9) 0.9111(4) 0.5989(5)
N6 N 1.0553(9) 0.8727(4) 0.5128(4)
N7 N 0.8692(10) 0.8648(4) 0.7903(5)
N8 N 0.8628(10) 1.0638(4) 0.4351(5)
N9 N 0.5189(9) 0.7065(4) 0.4324(5)
N10 N 0.7218(8) 0.8332(4) 0.5792(4)
N11 N 0.8140(9) 0.9193(4) 0.5803(5)
N12 N 0.7251(9) 0.8815(4) 0.4918(5)
N13 N 0.5628(10) 0.8681(4) 0.8470(4)
N14 N 0.5607(9) 1.0654(4) 0.4952(5)
N15 N 0.2210(9) 0.7050(4) 0.4886(5)
N16 N 0.4253(10) 0.8323(4) 0.6361(5)
N17 N 0.5188(9) 0.9171(4) 0.6367(4)
N18 N 0.4225(8) 0.8814(4) 0.5486(5)
O1 O 0.5350(9) 0.6735(4) 0.6221(5)
O2 O 0.7695(9) 0.7023(3) 0.6371(5)
O3 O 0.7090(8) 0.5952(3) 0.6505(4)
O4 O 0.9608(9) 0.6047(4) 0.6536(5)
O5 O 0.8642(9) 0.5058(4) 0.6517(5)
O6 O 0.9585(9) 0.5539(4) 0.7564(5)
O7 O 0.7366(8) 0.5335(3) 0.7472(4)
O8 O 0.9681(13) 0.6099(6) 0.8591(6)
O9 O 0.8612(11) 0.5130(4) 0.8582(5)
O10 O 0.7170(11) 0.6050(4) 0.8350(4)
O11 O 0.5624(8) 0.6225(3) 0.7340(5)
O12 O 0.5449(13) 0.6877(4) 0.8353(6)
O13 O 0.7825(12) 0.7128(4) 0.8398(5)
O14 O 0.6472(10) 0.7142(3) 0.7317(5)
O15 O 0.8133(8) 0.6389(3) 0.7456(4)
O16 O 0.5031(12) 0.5248(4) 0.7935(6)
O17 O 0.5027(9) 0.5224(4) 0.6749(5)
O18 O 1.0228(19) 0.6975(8) 0.7573(11)
H37 H 0.95750 0.67930 0.75400
H38 H 1.05270 0.69540 0.72550
O19 O 1.105(3) 0.6921(10) 0.6669(14)
H39 H 1.04690 0.66990 0.66340
H40 H 1.17040 0.67470 0.66400
O20 O 1.300(3) 0.6044(19) 0.6537(15)
H41 H 1.24480 0.62740 0.65770
H42 H 1.36210 0.62130 0.64550
O21 O 1.2072(17) 0.5493(11) 0.7710(19)
H43 H 1.13000 0.55050 0.76670
H44 H 1.23170 0.56380 0.74140
H45 H 1.24770 0.54330 0.80160
Ag1A Ag 1.24532(10) 1.12864(4) 0.40730(5)
Ag1C Ag 0.74532(10) 0.62864(4) 0.40730(5)
Ag2A Ag 0.91618(10) 1.13814(4) 0.38651(5)
Ag2C Ag 0.41618(10) 0.63814(4) 0.38651(5)
Ag3A Ag 0.61941(10) 1.13675(4) 0.44374(5)
Ag3C Ag 0.11941(10) 0.63675(4) 0.44374(5)
N2A N 1.1840(9) 0.9442(4) 0.9533(5)
N3C N 1.3619(10) 0.8055(4) 0.9562(5)
N8A N 0.8628(10) 0.9362(4) 0.9351(5)
N9C N 1.0189(9) 0.7935(4) 0.9324(5)
N14A N 0.5607(9) 0.9346(4) 0.9952(5)
N15C N 0.7210(9) 0.7950(4) 0.9886(5)
#END
