
#######################################################################
#
#                 Cambridge Crystallographic Data Centre
#                                CCDC
#
#######################################################################
#
# If this CIF has been generated from an entry in the Cambridge
# Structural Database, then it will include bibliographic, chemical,
# crystal, experimental, refinement or atomic coordinate data resulting
# from the CCDC's data processing and validation procedures.
#
#######################################################################

data_CSD_CIF_TEJPAB
_audit_creation_date 2012-11-07
_audit_creation_method CSD-ConQuest-V1
_database_code_CSD TEJPAB
_database_code_depnum_ccdc_archive 'CCDC 866535'
_chemical_formula_sum 'C50 H70 Eu2 N4 O36 S4'
_chemical_formula_moiety
;
(C13 H15 N2 1+)2n,n(C24 H24 Eu2 O28 S4 2-),8n(H2 O1)
;
_journal_coden_Cambridge 1295
_journal_volume 20
_journal_year 2012
_journal_page_first 299
_journal_name_full 'Inorg.Chem.Commun. '
loop_
_publ_author_name
"Ning Zhang"
"Qing-Yan Liu"
"Yu-Ling Wang"
"Li-Li Chen"
"Zu-Biao Wen"
_chemical_name_systematic
;
catena-[bis(4-(3-(Pyridin-4-yl)propyl)pyridinium) 
bis(\m~4~-4,8-disulfonatonaphthalene-2,6-dicarboxylato)-octa-aqua-di-europium(
iii) octahydrate]
;
_cell_volume   1745.372
_exptl_crystal_colour 'colorless'
_exptl_crystal_density_diffrn 1.651
_exptl_crystal_description 'block'
_diffrn_ambient_temperature 296
#These two values have been output from a single CSD field.
_refine_ls_R_factor_gt 0.0785
_refine_ls_wR_factor_gt 0.0785
_symmetry_cell_setting triclinic
_symmetry_space_group_name_H-M 'P -1'
_symmetry_Int_Tables_number 2
loop_
_symmetry_equiv_pos_site_id
_symmetry_equiv_pos_as_xyz
1 x,y,z
2 -x,-y,-z
_cell_length_a 11.645(4)
_cell_length_b 12.785(4)
_cell_length_c 13.366(8)
_cell_angle_alpha 99.028(5)
_cell_angle_beta 96.595(5)
_cell_angle_gamma 114.932(4)
_cell_formula_units_Z 1
loop_
_atom_type_symbol
_atom_type_radius_bond
C 0.68
H 0.23
Eu 1.98
N 0.68
O 0.68
S 1.02
loop_
_atom_site_label
_atom_site_type_symbol
_atom_site_fract_x
_atom_site_fract_y
_atom_site_fract_z
Eu1 Eu 0.29288(9) 0.45370(9) 0.48568(8)
S1 S 0.1749(5) 0.2988(7) -0.0718(5)
S2 S 0.1972(5) -0.1498(5) 0.5572(5)
O1 O 0.3718(12) 0.4391(10) 0.3289(8)
O2 O 0.1155(13) 0.1243(12) -0.3396(11)
O3 O 0.5962(12) 0.5313(11) 0.3531(9)
O4 O -0.0240(12) 0.3024(14) 0.1612(10)
O5 O 0.0894(12) 0.2459(14) -0.0011(10)
O6 O 0.0706(13) 0.5025(12) 0.7429(10)
O7 O 0.1342(12) 0.3614(16) -0.1341(12)
O8 O -0.2139(17) 0.0664(18) 0.1498(14)
O9 O 0.1998(15) 0.2040(16) -0.1372(12)
O10 O 0.3062(10) 0.2708(10) 0.4763(9)
O11 O 0.5213(10) 0.3695(11) 0.4874(8)
O12 O 0.1083(11) -0.0980(11) 0.5814(10)
O13 O 0.1429(12) -0.2504(11) 0.4646(11)
O14 O 0.2462(12) -0.1859(14) 0.6452(12)
O15 O 0.2087(13) 0.5706(11) 0.5911(9)
O16 O 0.1319(10) 0.3262(9) 0.5791(8)
O17 O 0.0906(9) 0.3046(10) 0.3594(8)
O18 O 0.2186(10) 0.5638(10) 0.3801(8)
C1 C 0.5728(17) 0.5406(16) 0.1430(13)
H1 H 0.65150 0.58880 0.18810
C2 C 0.4648(16) 0.4759(16) 0.1802(13)
C3 C 0.3412(16) 0.4075(16) 0.1147(13)
H2 H 0.26900 0.36790 0.14200
C4 C 0.3302(16) 0.4007(16) 0.0077(14)
C5 C 0.4382(13) 0.4676(16) -0.0342(13)
C6 C 0.477(2) 0.4821(18) 0.2985(14)
C7 C 0.5425(16) 0.1520(16) 0.4835(12)
H3 H 0.61220 0.21690 0.47270
C8 C 0.4277(17) 0.1610(15) 0.4939(13)
C9 C 0.3246(16) 0.0658(16) 0.5131(12)
H4 H 0.24770 0.07030 0.51760
C10 C 0.3342(14) -0.0343(14) 0.5255(12)
C11 C 0.4446(14) -0.0475(14) 0.5111(12)
C12 C 0.4130(19) 0.2738(15) 0.4851(11)
C13 C 0.485(2) 0.150(2) 0.1968(15)
H5 H 0.52850 0.22670 0.24470
H6 H 0.53430 0.10630 0.21000
C14 C 0.4847(18) 0.167(2) 0.0876(16)
H7 H 0.45250 0.09080 0.04000
H8 H 0.42660 0.20120 0.07110
C15 C 0.614(2) 0.245(2) 0.0741(16)
H9 H 0.67110 0.21040 0.09230
H10 H 0.64500 0.32030 0.12280
C16 C 0.625(3) 0.269(2) -0.0353(19)
C17 C 0.753(3) 0.330(2) -0.051(2)
H11 H 0.82450 0.35200 0.00090
C18 C 0.767(3) 0.357(2) -0.150(2)
H12 H 0.85120 0.40080 -0.15860
C19 C 0.559(3) 0.265(2) -0.2116(18)
H13 H 0.49080 0.23840 -0.26740
C20 C 0.533(2) 0.238(2) -0.1195(19)
H14 H 0.44660 0.19590 -0.11480
C21 C 0.349(2) 0.083(3) 0.2169(18)
C22 C 0.271(3) 0.136(2) 0.236(2)
H15 H 0.29620 0.21470 0.23530
C23 C 0.159(3) 0.067(3) 0.256(2)
H16 H 0.10210 0.10050 0.26480
C24 C 0.199(3) -0.099(2) 0.247(2)
H17 H 0.17330 -0.17690 0.25080
C25 C 0.319(2) -0.033(3) 0.222(2)
H18 H 0.37510 -0.06550 0.21070
N1 N 0.678(2) 0.328(2) -0.2260(16)
H19 H 0.69280 0.34730 -0.28370
N2 N 0.1182(18) -0.045(2) 0.2642(15)
Eu1A Eu 0.70712(9) 0.54630(9) -0.48568(8)
Eu1A* Eu 0.70712(9) 0.54630(9) 0.51432(8)
Eu1* Eu 0.29288(9) 0.45370(9) -0.51432(8)
Eu1A** Eu 0.70712(9) -0.45370(9) 0.51432(8)
Eu1** Eu 0.29288(9) -0.54630(9) 0.48568(8)
S1A S 0.8251(5) 0.7012(7) 0.0718(5)
S2A S 0.8028(5) 0.1498(5) 0.4428(5)
O1A O 0.6282(12) 0.5609(10) -0.3289(8)
O3A O 0.4038(12) 0.4687(11) -0.3531(9)
O3A* O 0.4038(12) 0.4687(11) 0.6469(9)
O3* O 0.5962(12) 0.5313(11) -0.6469(9)
O5A O 0.9106(12) 0.7541(14) 0.0011(10)
O7A O 0.8658(12) 0.6386(16) 0.1341(12)
O9A O 0.8002(15) 0.7960(16) 0.1372(12)
O10A O 0.6938(10) -0.2708(10) 0.5237(9)
O10A* O 0.6938(10) 0.7292(10) -0.4763(9)
O11A O 0.4787(10) -0.3695(11) 0.5126(8)
O11A* O 0.4787(10) 0.6305(11) 0.5126(8)
O11* O 0.5213(10) 0.3695(11) -0.5126(8)
O12A O 0.8917(11) 0.0980(11) 0.4186(10)
O13A O 0.8571(12) 0.2504(11) 0.5354(11)
O14A O 0.7538(12) 0.1859(14) 0.3548(12)
O15A O 0.7913(13) 0.4294(11) -0.5911(9)
O16A O 0.8681(10) 0.6738(9) -0.5791(8)
O17A O 0.9094(9) 0.6954(10) -0.3594(8)
O18A O 0.7814(10) 0.4362(10) -0.3801(8)
C1A C 0.4272(17) 0.4594(16) -0.1430(13)
H1A H 0.34850 0.41120 -0.18810
C2A C 0.5352(16) 0.5241(16) -0.1802(13)
C3A C 0.6588(16) 0.5925(16) -0.1147(13)
H2A H 0.73100 0.63210 -0.14200
C4A C 0.6698(16) 0.5993(16) -0.0077(14)
C5A C 0.5618(13) 0.5324(16) 0.0342(13)
C6A C 0.523(2) 0.5179(18) -0.2985(14)
C7A C 0.4575(16) -0.1520(16) 0.5165(12)
H3A H 0.38780 -0.21690 0.52730
C8A C 0.5723(17) -0.1610(15) 0.5061(13)
C9A C 0.6754(16) -0.0658(16) 0.4869(12)
H4A H 0.75230 -0.07030 0.48240
C10A C 0.6658(14) 0.0343(14) 0.4745(12)
C11A C 0.5554(14) 0.0475(14) 0.4889(12)
C12A C 0.5870(19) -0.2738(15) 0.5149(11)
#END
