
#######################################################################
#
#                 Cambridge Crystallographic Data Centre
#                                CCDC
#
#######################################################################
#
# If this CIF has been generated from an entry in the Cambridge
# Structural Database, then it will include bibliographic, chemical,
# crystal, experimental, refinement or atomic coordinate data resulting
# from the CCDC's data processing and validation procedures.
#
#######################################################################

data_CSD_CIF_TEMPIM
_audit_creation_date 2013-04-23
_audit_creation_method CSD-ConQuest-V1
_database_code_CSD TEMPIM
_database_code_depnum_ccdc_archive 'CCDC 863398'
_chemical_formula_sum 'C12 H26 Cu1 N2 O9'
_chemical_formula_moiety
;
(C4 H12 N1 1+)2n,n(C4 Cu1 O8 2-),n(H2 O1)
;
_journal_coden_Cambridge 261
_journal_volume 15
_journal_year 2012
_journal_page_first 856
_journal_name_full 'Comptes Rendus Chimie '
loop_
_publ_author_name
"R.S.Vilela"
"T.L.Oliveira"
"F.T.Martins"
"J.A.Ellena"
"F.Lloret"
"M.Julve"
"D.Cangussu"
_chemical_name_systematic
;
catena-(bis(tetramethylammonium) (\m~2~-oxalato)-(oxalato)-copper(ii) 
monohydrate)
;
_cell_volume   3555.778
_exptl_crystal_colour 'blue'
_exptl_crystal_density_diffrn 1.516
_exptl_crystal_description 'prism'
_diffrn_ambient_temperature 298
#These two values have been output from a single CSD field.
_refine_ls_R_factor_gt 0.04
_refine_ls_wR_factor_gt 0.04
_symmetry_cell_setting orthorhombic
_symmetry_space_group_name_H-M 'P b c a'
_symmetry_Int_Tables_number 61
loop_
_symmetry_equiv_pos_site_id
_symmetry_equiv_pos_as_xyz
1 x,y,z
2 1/2-x,-y,1/2+z
3 1/2+x,1/2-y,-z
4 -x,1/2+y,1/2-z
5 -x,-y,-z
6 -1/2+x,y,-1/2-z
7 -1/2-x,-1/2+y,z
8 x,-1/2-y,-1/2+z
_cell_length_a 11.2757(2)
_cell_length_b 10.1540(2)
_cell_length_c 31.0566(7)
_cell_angle_alpha 90
_cell_angle_beta 90
_cell_angle_gamma 90
_cell_formula_units_Z 8
loop_
_atom_type_symbol
_atom_type_radius_bond
C 0.68
H 0.23
Cu 1.38
N 0.68
O 0.68
loop_
_atom_site_label
_atom_site_type_symbol
_atom_site_fract_x
_atom_site_fract_y
_atom_site_fract_z
Cu1 Cu 0.35371(2) 0.24625(2) 0.112412(8)
O1 O 0.23252(13) 0.13722(15) 0.08323(5)
C1 C 0.28133(19) -0.0319(2) 0.13505(6)
O2 O 0.16830(13) -0.06577(16) 0.07053(5)
O3 O 0.26326(14) -0.15067(16) 0.14554(5)
O4 O 0.34192(12) 0.04691(17) 0.15591(5)
C2 C 0.22243(17) 0.0165(2) 0.09221(7)
C3 C 0.5867(2) 0.2775(3) 0.13317(7)
C4 C 0.5807(2) 0.1739(2) 0.09681(7)
O5 O 0.48797(14) 0.32758(17) 0.14391(5)
O6 O 0.47911(13) 0.15692(17) 0.08012(5)
O7 O 0.68416(16) 0.3028(2) 0.14939(6)
O8 O 0.67143(15) 0.1161(2) 0.08591(7)
N1 N 0.44107(17) 0.2262(2) -0.04265(6)
C5 C 0.4387(3) 0.2216(3) -0.09063(8)
H1 H 0.43740 0.13160 -0.10000
H2 H 0.50820 0.26440 -0.10180
H3 H 0.36910 0.26600 -0.10100
C6 C 0.3332(2) 0.1589(3) -0.02492(9)
H4 H 0.33220 0.06880 -0.03430
H5 H 0.26330 0.20290 -0.03510
H6 H 0.33520 0.16200 0.00600
C7 C 0.5496(2) 0.1553(3) -0.02771(8)
H7 H 0.54670 0.06560 -0.03740
H8 H 0.55300 0.15730 0.00320
H9 H 0.61870 0.19750 -0.03930
C8 C 0.4432(3) 0.3639(3) -0.02801(10)
H10 H 0.44460 0.36630 0.00290
H11 H 0.37370 0.40860 -0.03830
H12 H 0.51270 0.40680 -0.03910
N2 N 0.47042(17) 0.72333(19) 0.22835(6)
C9 C 0.4221(2) 0.6186(3) 0.19984(9)
H13 H 0.37340 0.56000 0.21640
H14 H 0.48640 0.57010 0.18720
H15 H 0.37530 0.65810 0.17750
C10 C 0.5455(2) 0.8140(3) 0.20249(8)
H16 H 0.57640 0.88210 0.22080
H17 H 0.49860 0.85290 0.18000
H18 H 0.61000 0.76560 0.19000
C11 C 0.3699(2) 0.8008(3) 0.24736(9)
H19 H 0.32060 0.74340 0.26420
H20 H 0.32380 0.83930 0.22460
H21 H 0.40110 0.86920 0.26540
C12 C 0.5431(2) 0.6640(3) 0.26370(8)
H22 H 0.49450 0.60570 0.28050
H23 H 0.57360 0.73270 0.28180
H24 H 0.60790 0.61540 0.25150
O9 O 0.74226(19) 0.5442(2) 0.18618(6)
H25 H 0.723(3) 0.469(3) 0.1722(9)
H26 H 0.760(3) 0.604(3) 0.1647(9)
Cu1F Cu 0.14629(2) -0.25375(2) 0.112412(8)
O2F O 0.33170(13) 0.43423(16) 0.07053(5)
O3F O 0.23674(14) 0.34933(16) 0.14554(5)
#END
