
#######################################################################
#
#                 Cambridge Crystallographic Data Centre
#                                CCDC
#
#######################################################################
#
# If this CIF has been generated from an entry in the Cambridge
# Structural Database, then it will include bibliographic, chemical,
# crystal, experimental, refinement or atomic coordinate data resulting
# from the CCDC's data processing and validation procedures.
#
#######################################################################

data_CSD_CIF_TENRAH
_audit_creation_date 2013-04-24
_audit_creation_method CSD-ConQuest-V1
_database_code_CSD TENRAH
_database_code_depnum_ccdc_archive 'CCDC 761950'
_chemical_formula_sum 'C48 H66 I18 La2 N6 O18 Pb6'
_chemical_formula_moiety
;
(I18 Pb6 6-)n,2n(C24 H33 La1 N3 O9 3+)
;
_journal_coden_Cambridge 119
_journal_volume 1035
_journal_year 2013
_journal_page_first 109
_journal_name_full 'J.Mol.Struct. '
loop_
_publ_author_name
"An-Weng Gong"
"Hong-Yan Wu"
"Zhao-Xun Lian"
"Hai-Jun Dong"
"Hao-Hong Li"
"Zhi-Rong Chen"
_chemical_name_systematic
;
catena-(bis(tris(\m~2~-1-ethylpyridinium-4-carboxylato)-triaqua-lanthanum(iii)
) hexadecakis(\m~2~-iodo)-diiodo-hexa-lead(ii))
;
_cell_volume  10157.530
_exptl_crystal_colour 'yellow'
_exptl_crystal_density_diffrn 3.144
_exptl_crystal_description 'prism'
_diffrn_ambient_temperature 293
_refine_special_details
;
OW2A and OW2B disordered over two sites with occupancies 0.50:0.50.

;
#These two values have been output from a single CSD field.
_refine_ls_R_factor_gt 0.0673
_refine_ls_wR_factor_gt 0.0673
_symmetry_cell_setting monoclinic
_symmetry_space_group_name_H-M 'C 2/c'
_symmetry_Int_Tables_number 15
loop_
_symmetry_equiv_pos_site_id
_symmetry_equiv_pos_as_xyz
1 x,y,z
2 -x,y,1/2-z
3 1/2+x,1/2+y,z
4 1/2-x,1/2+y,1/2-z
5 -x,-y,-z
6 x,-y,-1/2+z
7 -1/2-x,-1/2-y,-z
8 -1/2+x,-1/2-y,-1/2+z
_cell_length_a 32.388(7)
_cell_length_b 10.055(2)
_cell_length_c 32.600(7)
_cell_angle_alpha 90
_cell_angle_beta 106.91(3)
_cell_angle_gamma 90
_cell_formula_units_Z 4
loop_
_atom_type_symbol
_atom_type_radius_bond
C 0.68
H 0.23
I 1.40
La 2.07
N 0.68
O 0.68
Pb 1.55
loop_
_atom_site_label
_atom_site_type_symbol
_atom_site_fract_x
_atom_site_fract_y
_atom_site_fract_z
Pb1 Pb 0.25000 0.75000 0.00000
Pb2 Pb 0.376697(19) 0.73972(7) 0.063710(19)
Pb3 Pb 0.50669(2) 0.76841(6) 0.12623(2)
Pb4 Pb 0.50000 0.74908(10) 0.25000
La1 La 0.27555(3) 0.69831(7) 0.23725(3)
I1 I 0.29958(4) 0.53606(13) 0.07322(4)
I2 I 0.33219(4) 0.71276(12) -0.03675(3)
I3 I 0.30390(4) 0.96514(13) 0.06710(4)
I4 I 0.43991(4) 0.97940(12) 0.06924(5)
I5 I 0.45666(4) 0.56247(13) 0.05556(5)
I6 I 0.41749(3) 0.71105(11) 0.16775(3)
I7 I 0.58077(4) 0.80778(13) 0.09029(5)
I8 I 0.54731(4) 0.54229(13) 0.20206(4)
I9 I 0.54166(5) 0.98053(14) 0.20470(4)
N1 N 0.1905(5) 0.2664(16) 0.0498(4)
N2 N 0.0956(7) 0.7268(18) 0.3143(9)
N3 N 0.4281(5) 0.2837(17) 0.4004(6)
O1 O 0.2362(5) 0.5352(12) 0.1823(4)
O2 O 0.2241(5) 0.3364(16) 0.2035(5)
O3 O 0.2223(5) 0.6015(12) 0.2679(5)
O4 O 0.1983(5) 0.4139(12) 0.2844(5)
O5 O 0.3160(3) 0.5296(12) 0.2925(4)
O6 O 0.2897(4) 0.3278(12) 0.2902(5)
O7 O 0.3562(5) 0.755(2) 0.276(1)
O8 O 0.3187(8) 0.600(3) 0.1891(8)
O9 O 0.2755(12) 0.747(3) 0.1546(11)
C1 C 0.2257(7) 0.4180(18) 0.1760(5)
C2 C 0.2125(4) 0.3659(14) 0.1310(5)
C3 C 0.1975(5) 0.4493(16) 0.0972(5)
H1 H 0.19500 0.54000 0.10160
C4 C 0.1860(6) 0.3974(17) 0.0561(5)
H2 H 0.17510 0.45320 0.03270
C5 C 0.2140(6) 0.2340(17) 0.1238(5)
H3 H 0.22180 0.17510 0.14670
C6 C 0.2039(6) 0.186(2) 0.0817(7)
H4 H 0.20690 0.09620 0.07680
C7 C 0.1796(8) 0.215(2) 0.0049(7)
H5 H 0.18810 0.27960 -0.01320
H6 H 0.19510 0.13310 0.00430
C8 C 0.1327(8) 0.191(3) -0.0113(8)
H7 H 0.12570 0.15810 -0.04010
H8 H 0.11750 0.27250 -0.01080
H9 H 0.12450 0.12630 0.00660
C9 C 0.1968(5) 0.5372(17) 0.2811(6)
C10 C 0.1624(6) 0.6040(16) 0.2949(6)
C11 C 0.1573(8) 0.7392(18) 0.2896(8)
H10 H 0.17650 0.78920 0.27960
C12 C 0.1230(9) 0.799(2) 0.2994(11)
H11 H 0.11880 0.89060 0.29580
C13 C 0.1345(6) 0.5347(15) 0.3111(6)
H12 H 0.13810 0.44350 0.31530
C14 C 0.1017(8) 0.597(2) 0.3211(7)
H13 H 0.08340 0.54920 0.33280
C15 C 0.0521(9) 0.795(3) 0.3167(9)
H14 H 0.04580 0.87590 0.30010
H15 H 0.02760 0.73450 0.30790
C16 C 0.0639(10) 0.818(3) 0.3593(10)
H16 H 0.04060 0.86060 0.36690
H17 H 0.08880 0.87510 0.36680
H18 H 0.07080 0.73550 0.37450
C17 C 0.3165(6) 0.4124(16) 0.3036(6)
C18 C 0.3555(5) 0.3689(14) 0.3396(5)
C19 C 0.3670(6) 0.2388(17) 0.3432(7)
H19 H 0.34920 0.17700 0.32530
C20 C 0.4042(8) 0.196(2) 0.3727(8)
H20 H 0.41260 0.10700 0.37340
C21 C 0.3810(5) 0.4533(17) 0.3679(6)
H21 H 0.37450 0.54360 0.36620
C22 C 0.4163(6) 0.4087(19) 0.3991(7)
H22 H 0.43210 0.46770 0.41970
C23 C 0.4705(7) 0.235(3) 0.4329(9)
H23 H 0.48580 0.17760 0.41840
H24 H 0.48870 0.31110 0.44410
C24 C 0.4621(8) 0.166(3) 0.4666(7)
H25 H 0.48890 0.13640 0.48610
H26 H 0.44420 0.09070 0.45560
H27 H 0.44770 0.22370 0.48150
O10? O 0.3415(10) 0.597(3) 0.2191(13)
Pb2F Pb 0.123303(19) 0.76028(7) -0.063710(19)
Pb3F Pb -0.00669(2) 0.73159(6) -0.12623(2)
Pb3A Pb 0.49331(2) 0.76841(6) 0.37377(2)
Pb4F Pb 0.00000 0.75092(10) -0.25000
La1C La 0.22445(3) 0.19831(7) 0.26275(3)
I1F I 0.20042(4) 0.96394(13) -0.07322(4)
I2F I 0.16781(4) 0.78724(12) 0.03675(3)
I3F I 0.19610(4) 0.53486(13) -0.06710(4)
I4F I 0.06009(4) 0.52060(12) -0.06924(5)
I5F I 0.04334(4) 0.93753(13) -0.05556(5)
I6F I 0.08251(3) 0.78895(11) -0.16775(3)
I6A I 0.58251(3) 0.71105(11) 0.33225(3)
I7F I -0.08077(4) 0.69222(13) -0.09029(5)
I8A I 0.45269(4) 0.54229(13) 0.29794(4)
I8F I -0.04731(4) 0.95771(13) -0.20206(4)
I9A I 0.45834(5) 0.98053(14) 0.29530(4)
I9F I -0.04166(5) 0.51947(14) -0.20470(4)
O2C O 0.2759(5) 0.8364(16) 0.2965(5)
O4C O 0.3017(5) 0.9139(12) 0.2156(5)
O6C O 0.2103(4) 0.8278(12) 0.2098(5)
#END
