
#######################################################################
#
#                 Cambridge Crystallographic Data Centre
#                                CCDC
#
#######################################################################
#
# If this CIF has been generated from an entry in the Cambridge
# Structural Database, then it will include bibliographic, chemical,
# crystal, experimental, refinement or atomic coordinate data resulting
# from the CCDC's data processing and validation procedures.
#
#######################################################################

data_CSD_CIF_TEPPIP
_audit_creation_date 2013-04-24
_audit_creation_method CSD-ConQuest-V1
_database_code_CSD TEPPIP
_database_code_depnum_ccdc_archive 'CCDC 896254'
_chemical_formula_sum 'C54 H106 Mn7 N12 O51 P6'
_chemical_formula_moiety
;
(C54 H60 Mn7 N12 O30 P6 4-)n,17n(H2 O1),4n(H3 O1 1+)
;
_journal_coden_Cambridge 1350
_journal_volume 15
_journal_year 2013
_journal_page_first 802
_journal_name_full 'CrystEngComm '
loop_
_publ_author_name
"Ruibiao Fu"
"Shengmin Hu"
"Xintao Wu"
_chemical_name_systematic
;
catena-(tetrakis(Oxonium) 
hexakis(\m~5~-(carboxylatomethyl(4-pyridylmethyl)aminomethyl)phosphonato)-hept
a-manganese heptadecahydrate)
;
_cell_volume   5805.392
_exptl_crystal_colour 'colorless'
_exptl_crystal_density_diffrn 1.982
_exptl_crystal_description 'prism'
_diffrn_ambient_temperature 293
_refine_special_details
;
The structure appears to be disordered.

;
#These two values have been output from a single CSD field.
_refine_ls_R_factor_gt 0.0791
_refine_ls_wR_factor_gt 0.0791
_symmetry_cell_setting rhombohedral
_symmetry_space_group_name_H-M 'R -3'
_symmetry_Int_Tables_number 148
loop_
_symmetry_equiv_pos_site_id
_symmetry_equiv_pos_as_xyz
1 x,y,z
2 -y,x-y,z
3 -x+y,-x,z
4 2/3+x,1/3+y,1/3+z
5 2/3-y,1/3+x-y,1/3+z
6 2/3-x+y,1/3-x,1/3+z
7 1/3+x,2/3+y,2/3+z
8 1/3-y,2/3+x-y,2/3+z
9 1/3-x+y,2/3-x,2/3+z
10 -x,-y,-z
11 y,-x+y,-z
12 x-y,x,-z
13 -2/3-x,-1/3-y,-1/3-z
14 -2/3+y,-1/3-x+y,-1/3-z
15 -2/3+x-y,-1/3+x,-1/3-z
16 -1/3-x,-2/3-y,-2/3-z
17 -1/3+y,-2/3-x+y,-2/3-z
18 -1/3+x-y,-2/3+x,-2/3-z
_cell_length_a 22.5060(13)
_cell_length_b 22.5060(13)
_cell_length_c 13.2344(13)
_cell_angle_alpha 90
_cell_angle_beta 90
_cell_angle_gamma 120
_cell_formula_units_Z 3
loop_
_atom_type_symbol
_atom_type_radius_bond
C 0.68
H 0.23
Mn 1.61
N 0.68
O 0.68
P 1.05
loop_
_atom_site_label
_atom_site_type_symbol
_atom_site_fract_x
_atom_site_fract_y
_atom_site_fract_z
Mn1 Mn 0.21312(4) -0.27963(4) 0.03039(7)
Mn2 Mn 0.33330 -0.33330 0.16670
P1 P 0.37728(7) -0.18330(7) 0.05649(11)
O1 O 0.32030(18) -0.25831(18) 0.0725(3)
O2 O 0.1798(2) -0.3812(3) 0.0064(4)
O3 O 0.1991(2) -0.2729(2) 0.1836(3)
O4 O 0.2255(3) -0.2728(3) -0.1424(4)
O5 O 0.2172(3) -0.2155(3) -0.2738(4)
N1 N 0.2727(2) -0.1643(2) -0.0176(4)
N2 N 0.4032(3) 0.1004(3) 0.0047(4)
C1 C 0.3436(3) -0.1503(3) -0.0389(4)
H1 H 0.37380 -0.10110 -0.04440
H2 H 0.34380 -0.17040 -0.10360
C2 C 0.2276(3) -0.2209(4) -0.1833(5)
C3 C 0.2412(3) -0.1613(3) -0.1133(5)
H3 H 0.27130 -0.11830 -0.14700
H4 H 0.19820 -0.16270 -0.09920
C4 C 0.2704(3) -0.1181(3) 0.0602(5)
H5 H 0.28370 -0.12870 0.12450
H6 H 0.22330 -0.12830 0.06680
C5 C 0.3155(3) -0.0414(3) 0.0407(5)
C6 C 0.2919(3) -0.0021(3) -0.0051(5)
H7 H 0.24620 -0.02200 -0.02500
C7 C 0.3366(3) 0.0678(3) -0.0217(6)
H8 H 0.31940 0.09310 -0.05270
C8 C 0.3842(3) -0.0080(3) 0.0692(6)
H9 H 0.40240 -0.03220 0.10110
C9 C 0.4255(4) 0.0616(3) 0.0500(6)
H10 H 0.47130 0.08270 0.06960
O6 O 0.33330 -0.33330 -0.33330
O7 O 0.2740(5) -0.2610(5) -0.4144(7)
O8 O 0.33330 -0.33330 -0.5820(12)
O9? O 0.3654(3) -0.2678(3) -0.4148(5)
O10? O 0.3152(11) -0.2653(11) -0.4947(16)
Mn1A Mn 0.27963(4) -0.50725(4) 0.03039(7)
Mn1B Mn 0.50725(4) -0.21312(4) 0.03039(7)
Mn1O Mn 0.453547(40) -0.387037(40) 0.302943(70)
Mn1P Mn 0.387037(40) -0.159417(40) 0.302943(70)
Mn1Q Mn 0.159417(40) -0.453547(40) 0.302943(70)
Mn1K Mn 0.49275(4) 0.21312(4) -0.03039(7)
Mn1I Mn -0.21312(4) -0.72037(4) -0.03039(7)
Mn1J Mn 0.72037(4) -0.49275(4) -0.03039(7)
Mn1E Mn 0.173917(40) -0.879787(40) 0.363723(70)
Mn1C Mn 0.879787(40) 0.053703(40) 0.363723(70)
Mn1D Mn -0.053703(40) -0.173917(40) 0.363723(70)
P1A P 0.18330(7) -0.43942(7) 0.05649(11)
P1Q P 0.227247(70) -0.289387(70) 0.276843(110)
P1B P 0.43942(7) -0.37728(7) 0.05649(11)
P1O P 0.289387(70) -0.483367(70) 0.276843(110)
P1P P 0.483367(70) -0.227247(70) 0.276843(110)
O1A O 0.25831(18) -0.42139(18) 0.0725(3)
O1B O 0.42139(18) -0.32030(18) 0.0725(3)
O1O O 0.346367(180) -0.408357(180) 0.260833(300)
O1P O 0.408357(180) -0.245277(180) 0.260833(300)
O1Q O 0.245277(180) -0.346367(180) 0.260833(300)
O2B O 0.4390(2) -0.1798(3) 0.0064(4)
O2P O 0.285467(200) -0.227667(300) 0.326933(400)
O2A O 0.3812(2) -0.4390(3) 0.0064(4)
O2O O 0.486867(200) -0.285467(300) 0.326933(400)
O2Q O 0.227667(200) -0.486867(300) 0.326933(400)
O3P O 0.393767(200) -0.138667(200) 0.149733(300)
O3Q O 0.138667(200) -0.467567(200) 0.149733(300)
O3A O 0.2729(2) -0.5280(2) 0.1836(3)
O3B O 0.5280(2) -0.1991(2) 0.1836(3)
O3O O 0.467567(200) -0.393767(200) 0.149733(300)
O4A O 0.2728(3) -0.5017(3) -0.1424(4)
O4B O 0.5017(3) -0.2255(3) -0.1424(4)
O4O O 0.441167(300) -0.393867(300) 0.475733(400)
O4P O 0.393867(300) -0.164967(300) 0.475733(400)
O4Q O 0.164967(300) -0.441167(300) 0.475733(400)
O5A O 0.2155(3) -0.5673(3) -0.2738(4)
O5B O 0.5673(3) -0.2172(3) -0.2738(4)
O5O O 0.449467(300) -0.451167(300) 0.607133(400)
O5P O 0.451167(300) -0.099367(300) 0.607133(400)
O5Q O 0.099367(300) -0.449467(300) 0.607133(400)
N1A N 0.1643(2) -0.5630(2) -0.0176(4)
N1B N 0.5630(2) -0.2727(2) -0.0176(4)
N1O N 0.393967(200) -0.502367(200) 0.350933(400)
N1P N 0.502367(200) -0.103667(200) 0.350933(400)
N1Q N 0.103667(200) -0.393967(200) 0.350933(400)
N2J N 0.1004(3) -0.3028(3) -0.0047(4)
N2K N 0.3028(3) -0.5968(3) -0.0047(4)
N2I N 0.5968(3) -0.1004(3) -0.0047(4)
N2D N 0.566267(300) -0.363867(300) 0.338033(400)
N2E N 0.363867(300) -0.069867(300) 0.338033(400)
N2C N 0.069867(300) -0.566267(300) 0.338033(400)
N2A N -0.1004(3) -0.6972(3) 0.0047(4)
N2B N 0.6972(3) -0.4032(3) 0.0047(4)
N2O N 0.263467(300) -0.767067(300) 0.328633(400)
N2P N 0.767067(300) 0.030533(300) 0.328633(400)
N2Q N -0.030533(300) -0.263467(300) 0.328633(400)
C1A C 0.1503(3) -0.5061(3) -0.0389(4)
C1Q C 0.160567(300) -0.323067(300) 0.372233(400)
C1B C 0.5061(3) -0.3436(3) -0.0389(4)
C1O C 0.323067(300) -0.516367(300) 0.372233(400)
C1P C 0.516367(300) -0.160567(300) 0.372233(400)
H1A H 0.10110 -0.52510 -0.04440
H1Q H 0.14157 -0.29287 0.37773
H1B H 0.52510 -0.37380 -0.04440
H1O H 0.29287 -0.56557 0.37773
H1P H 0.56557 -0.14157 0.37773
H2A H 0.17040 -0.48580 -0.10360
H2Q H 0.18087 -0.32287 0.43693
H2B H 0.48580 -0.34380 -0.10360
H2O H 0.32287 -0.49627 0.43693
H2P H 0.49627 -0.18087 0.43693
C2A C 0.2209(3) -0.5515(4) -0.1833(5)
C2B C 0.5515(3) -0.2276(4) -0.1833(5)
C2O C 0.439067(300) -0.445767(400) 0.516633(500)
C2P C 0.445767(300) -0.115167(400) 0.516633(500)
C2Q C 0.115167(300) -0.439067(400) 0.516633(500)
C3A C 0.1613(3) -0.5975(3) -0.1133(5)
C3B C 0.5975(3) -0.2412(3) -0.1133(5)
C3O C 0.425467(300) -0.505367(300) 0.446633(500)
C3P C 0.505367(300) -0.069167(300) 0.446633(500)
C3Q C 0.069167(300) -0.425467(300) 0.446633(500)
H3A H 0.11830 -0.61040 -0.14700
H3B H 0.61040 -0.27130 -0.14700
H3O H 0.39537 -0.54837 0.48033
H3P H 0.54837 -0.05627 0.48033
H3Q H 0.05627 -0.39537 0.48033
H4A H 0.16270 -0.63910 -0.09920
H4B H 0.63910 -0.19820 -0.09920
H4O H 0.46847 -0.50397 0.43253
H4P H 0.50397 -0.02757 0.43253
H4Q H 0.02757 -0.46847 0.43253
C4A C 0.1181(3) -0.6115(3) 0.0602(5)
C4B C 0.6115(3) -0.2704(3) 0.0602(5)
C4O C 0.396267(300) -0.548567(300) 0.273133(500)
C4P C 0.548567(300) -0.055167(300) 0.273133(500)
C4Q C 0.055167(300) -0.396267(300) 0.273133(500)
H5A H 0.12870 -0.58760 0.12450
H5B H 0.58760 -0.28370 0.12450
H5O H 0.38297 -0.53797 0.20883
H5P H 0.53797 -0.07907 0.20883
H5Q H 0.07907 -0.38297 0.20883
H6A H 0.12830 -0.64840 0.06680
H6B H 0.64840 -0.22330 0.06680
H6O H 0.44337 -0.53837 0.26653
H6P H 0.53837 -0.01827 0.26653
H6Q H 0.01827 -0.44337 0.26653
C5A C 0.0414(3) -0.6431(3) 0.0407(5)
C5B C 0.6431(3) -0.3155(3) 0.0407(5)
C5O C 0.351167(300) -0.625267(300) 0.292633(500)
C5P C 0.625267(300) -0.023567(300) 0.292633(500)
C5Q C 0.023567(300) -0.351167(300) 0.292633(500)
C6A C 0.0021(3) -0.7060(3) -0.0051(5)
C6B C 0.7060(3) -0.2919(3) -0.0051(5)
C6O C 0.374767(300) -0.664567(300) 0.338433(500)
C6P C 0.664567(300) 0.039333(300) 0.338433(500)
C6Q C -0.039333(300) -0.374767(300) 0.338433(500)
H7A H 0.02200 -0.73180 -0.02500
H7B H 0.73180 -0.24620 -0.02500
H7O H 0.42047 -0.64467 0.35833
H7P H 0.64467 0.06513 0.35833
H7Q H -0.06513 -0.42047 0.35833
C7A C -0.0678(3) -0.7312(3) -0.0217(6)
C7B C 0.7312(3) -0.3366(3) -0.0217(6)
C7O C 0.330067(300) -0.734467(300) 0.355033(600)
C7P C 0.734467(300) 0.064533(300) 0.355033(600)
C7Q C -0.064533(300) -0.330067(300) 0.355033(600)
H8A H -0.09310 -0.77370 -0.05270
H8B H 0.77370 -0.31940 -0.05270
H8O H 0.34727 -0.75977 0.38603
H8P H 0.75977 0.10703 0.38603
H8Q H -0.10703 -0.34727 0.38603
C8A C 0.0080(3) -0.6078(3) 0.0692(6)
C8B C 0.6078(3) -0.3842(3) 0.0692(6)
C8O C 0.282467(300) -0.658667(300) 0.264133(600)
C8P C 0.658667(300) -0.058867(300) 0.264133(600)
C8Q C 0.058867(300) -0.282467(300) 0.264133(600)
H9A H 0.03220 -0.56540 0.10110
H9B H 0.56540 -0.40240 0.10110
H9O H 0.26427 -0.63447 0.23223
H9P H 0.63447 -0.10127 0.23223
H9Q H 0.10127 -0.26427 0.23223
C9A C -0.0616(4) -0.6361(3) 0.0500(6)
C9B C 0.6361(4) -0.4255(3) 0.0500(6)
C9O C 0.241167(400) -0.728267(300) 0.283333(600)
C9P C 0.728267(400) -0.030567(300) 0.283333(600)
C9Q C 0.030567(400) -0.241167(300) 0.283333(600)
H10A H -0.08270 -0.61140 0.06960
H10B H 0.61140 -0.47130 0.06960
H10O H 0.19537 -0.74937 0.26373
H10P H 0.74937 -0.05527 0.26373
H10Q H 0.05527 -0.19537 0.26373
#END
