
#######################################################################
#
#                 Cambridge Crystallographic Data Centre
#                                CCDC
#
#######################################################################
#
# If this CIF has been generated from an entry in the Cambridge
# Structural Database, then it will include bibliographic, chemical,
# crystal, experimental, refinement or atomic coordinate data resulting
# from the CCDC's data processing and validation procedures.
#
#######################################################################

data_CSD_CIF_TEPPEL
_audit_creation_date 2013-04-24
_audit_creation_method CSD-ConQuest-V1
_database_code_CSD TEPPEL
_database_code_depnum_ccdc_archive 'CCDC 896253'
_chemical_formula_sum 'C54 H104 Cd7 N12 O50 P6'
_chemical_formula_moiety
;
(C54 H60 Cd7 N12 O30 P6 4-)n,16n(H2 O1),4n(H3 O1 1+)
;
_journal_coden_Cambridge 1350
_journal_volume 15
_journal_year 2013
_journal_page_first 802
_journal_name_full 'CrystEngComm '
loop_
_publ_author_name
"Ruibiao Fu"
"Shengmin Hu"
"Xintao Wu"
_chemical_name_systematic
;
catena-(tetrakis(Oxonium) 
hexakis(\m~5~-(carboxylatomethyl(4-pyridylmethyl)aminomethyl)phosphonato)-hept
a-cadmium hexadecahydrate)
;
_cell_volume   5952.208
_exptl_crystal_colour 'colorless'
_exptl_crystal_density_diffrn 2.255
_exptl_crystal_description 'prism'
_diffrn_ambient_temperature 293
_refine_special_details
;
The structure appears to be disordered.

;
#These two values have been output from a single CSD field.
_refine_ls_R_factor_gt 0.0443
_refine_ls_wR_factor_gt 0.0443
_symmetry_cell_setting rhombohedral
_symmetry_space_group_name_H-M 'R -3'
_symmetry_Int_Tables_number 148
loop_
_symmetry_equiv_pos_site_id
_symmetry_equiv_pos_as_xyz
1 x,y,z
2 -y,x-y,z
3 -x+y,-x,z
4 2/3+x,1/3+y,1/3+z
5 2/3-y,1/3+x-y,1/3+z
6 2/3-x+y,1/3-x,1/3+z
7 1/3+x,2/3+y,2/3+z
8 1/3-y,2/3+x-y,2/3+z
9 1/3-x+y,2/3-x,2/3+z
10 -x,-y,-z
11 y,-x+y,-z
12 x-y,x,-z
13 -2/3-x,-1/3-y,-1/3-z
14 -2/3+y,-1/3-x+y,-1/3-z
15 -2/3+x-y,-1/3+x,-1/3-z
16 -1/3-x,-2/3-y,-2/3-z
17 -1/3+y,-2/3-x+y,-2/3-z
18 -1/3+x-y,-2/3+x,-2/3-z
_cell_length_a 22.891(2)
_cell_length_b 22.891(2)
_cell_length_c 13.1165(11)
_cell_angle_alpha 90
_cell_angle_beta 90
_cell_angle_gamma 120
_cell_formula_units_Z 3
loop_
_atom_type_symbol
_atom_type_radius_bond
C 0.68
H 0.23
Cd 1.44
N 0.68
O 0.68
P 1.05
loop_
_atom_site_label
_atom_site_type_symbol
_atom_site_fract_x
_atom_site_fract_y
_atom_site_fract_z
Cd1 Cd 0.054643(16) -0.121987(16) 0.13530(3)
Cd2 Cd 0.00000 0.00000 0.00000
P1 P 0.15010(6) 0.04401(6) 0.11891(10)
O1 O 0.07808(17) -0.01186(16) 0.0954(3)
O2 O 0.1495(2) 0.1011(2) 0.1765(4)
O3 O 0.1971(2) 0.0660(2) 0.0291(3)
O4 O 0.0621(2) -0.1129(3) 0.3188(4)
O5 O 0.1224(2) -0.1173(2) 0.4476(3)
N1 N 0.16996(19) -0.05953(19) 0.1900(3)
N2 N 0.4295(2) 0.0696(2) 0.1687(4)
C1 C 0.1810(2) 0.0086(2) 0.2131(4)
H1 H 0.22900 0.03900 0.22170
H2 H 0.15950 0.00660 0.27770
C2 C 0.1147(3) -0.1085(3) 0.3569(4)
C3 C 0.1734(2) -0.0921(3) 0.2853(4)
H3 H 0.21550 -0.06240 0.32000
H4 H 0.17340 -0.13340 0.26870
C4 C 0.2165(2) -0.0597(2) 0.1104(4)
H5 H 0.20620 -0.04560 0.04640
H6 H 0.20700 -0.10570 0.10160
C5 C 0.2910(2) -0.0155(2) 0.1314(4)
C6 C 0.3300(3) -0.0397(3) 0.1749(4)
H7 H 0.31060 -0.08500 0.19210
C7 C 0.3983(3) 0.0042(3) 0.1927(5)
H8 H 0.42340 -0.01290 0.22290
C8 C 0.3234(3) 0.0524(3) 0.1072(5)
H9 H 0.29920 0.07090 0.07810
C9 C 0.3914(3) 0.0927(3) 0.1261(6)
H10 H 0.41200 0.13810 0.10870
O6 O 0.36328(12) 0.62981(12) 0.09290(18)
O7 O 0.2709(3) 0.5300(3) 0.0830(5)
O8 O 0.33330 0.66670 -0.0543(6)
O9? O 0.32115(17) 0.58524(18) 0.0097(3)
Cd1A Cd 0.121987(16) 0.176630(16) 0.13530(3)
Cd1B Cd -0.176630(16) -0.054643(16) 0.13530(3)
Cd1I Cd -0.054643(16) 0.121987(16) -0.13530(3)
Cd1J Cd -0.121987(16) -0.176630(16) -0.13530(3)
Cd1K Cd 0.176630(16) 0.054643(16) -0.13530(3)
Cd1P Cd 0.544680(16) 0.156703(16) 0.198033(30)
Cd1Q Cd -0.156703(16) 0.387976(16) 0.198033(30)
Cd1O Cd -0.387976(16) -0.544680(16) 0.198033(30)
Cd1G Cd -0.544680(16) -0.156703(16) -0.198033(30)
Cd1H Cd 0.156703(16) -0.387976(16) -0.198033(30)
Cd1F Cd 0.387976(16) 0.544680(16) -0.198033(30)
P1A P -0.04401(6) 0.10609(6) 0.11891(10)
P1B P -0.10609(6) -0.15010(6) 0.11891(10)
P1I P -0.15010(6) -0.04401(6) -0.11891(10)
P1J P 0.04401(6) -0.10609(6) -0.11891(10)
P1K P 0.10609(6) 0.15010(6) -0.11891(10)
O1A O 0.01186(17) 0.08994(16) 0.0954(3)
O1B O -0.08994(17) -0.07808(16) 0.0954(3)
O1I O -0.07808(17) 0.01186(16) -0.0954(3)
O1J O -0.01186(17) -0.08994(16) -0.0954(3)
O1K O 0.08994(17) 0.07808(16) -0.0954(3)
O2A O -0.1011(2) 0.0484(2) 0.1765(4)
O2B O -0.0484(2) -0.1495(2) 0.1765(4)
O2I O -0.1495(2) -0.1011(2) -0.1765(4)
O2J O 0.1011(2) -0.0484(2) -0.1765(4)
O2K O 0.0484(2) 0.1495(2) -0.1765(4)
O3A O -0.0660(2) 0.1311(2) 0.0291(3)
O3B O -0.1311(2) -0.1971(2) 0.0291(3)
O3I O -0.1971(2) -0.0660(2) -0.0291(3)
O3J O 0.0660(2) -0.1311(2) -0.0291(3)
O3K O 0.1311(2) 0.1971(2) -0.0291(3)
O4A O 0.1129(2) 0.1750(3) 0.3188(4)
O4B O -0.1750(2) -0.0621(3) 0.3188(4)
O4I O -0.0621(2) 0.1129(3) -0.3188(4)
O4J O -0.1129(2) -0.1750(3) -0.3188(4)
O4K O 0.1750(2) 0.0621(3) -0.3188(4)
O5A O 0.1173(2) 0.2397(2) 0.4476(3)
O5B O -0.2397(2) -0.1224(2) 0.4476(3)
O5I O -0.1224(2) 0.1173(2) -0.4476(3)
O5J O -0.1173(2) -0.2397(2) -0.4476(3)
O5K O 0.2397(2) 0.1224(2) -0.4476(3)
N1A N 0.05953(19) 0.22949(19) 0.1900(3)
N1B N -0.22949(19) -0.16996(19) 0.1900(3)
N1I N -0.16996(19) 0.05953(19) -0.1900(3)
N1J N -0.05953(19) -0.22949(19) -0.1900(3)
N1K N 0.22949(19) 0.16996(19) -0.1900(3)
N2A N -0.0696(2) 0.3599(2) 0.1687(4)
N2B N -0.3599(2) -0.4295(2) 0.1687(4)
N2I N -0.4295(2) -0.0696(2) -0.1687(4)
N2J N 0.0696(2) -0.3599(2) -0.1687(4)
N2K N 0.3599(2) 0.4295(2) -0.1687(4)
N2Q N 0.026567(200) -0.237167(200) 0.164633(400)
N2O N 0.237167(200) 0.263733(200) 0.164633(400)
N2P N -0.263733(200) -0.026567(200) 0.164633(400)
N2H N -0.026567(200) 0.237167(200) -0.164633(400)
N2F N -0.237167(200) -0.263733(200) -0.164633(400)
N2G N 0.263733(200) 0.026567(200) -0.164633(400)
C1A C -0.0086(2) 0.1724(2) 0.2131(4)
C1B C -0.1724(2) -0.1810(2) 0.2131(4)
C1I C -0.1810(2) -0.0086(2) -0.2131(4)
C1J C 0.0086(2) -0.1724(2) -0.2131(4)
C1K C 0.1724(2) 0.1810(2) -0.2131(4)
H1A H -0.03900 0.19000 0.22170
H1B H -0.19000 -0.22900 0.22170
H1I H -0.22900 -0.03900 -0.22170
H1J H 0.03900 -0.19000 -0.22170
H1K H 0.19000 0.22900 -0.22170
H2A H -0.00660 0.15290 0.27770
H2B H -0.15290 -0.15950 0.27770
H2I H -0.15950 -0.00660 -0.27770
H2J H 0.00660 -0.15290 -0.27770
H2K H 0.15290 0.15950 -0.27770
C2A C 0.1085(3) 0.2232(3) 0.3569(4)
C2B C -0.2232(3) -0.1147(3) 0.3569(4)
C2I C -0.1147(3) 0.1085(3) -0.3569(4)
C2J C -0.1085(3) -0.2232(3) -0.3569(4)
C2K C 0.2232(3) 0.1147(3) -0.3569(4)
C3A C 0.0921(2) 0.2655(3) 0.2853(4)
C3B C -0.2655(2) -0.1734(3) 0.2853(4)
C3I C -0.1734(2) 0.0921(3) -0.2853(4)
C3J C -0.0921(2) -0.2655(3) -0.2853(4)
C3K C 0.2655(2) 0.1734(3) -0.2853(4)
H3A H 0.06240 0.27790 0.32000
H3B H -0.27790 -0.21550 0.32000
H3I H -0.21550 0.06240 -0.32000
H3J H -0.06240 -0.27790 -0.32000
H3K H 0.27790 0.21550 -0.32000
H4A H 0.13340 0.30680 0.26870
H4B H -0.30680 -0.17340 0.26870
H4I H -0.17340 0.13340 -0.26870
H4J H -0.13340 -0.30680 -0.26870
H4K H 0.30680 0.17340 -0.26870
C4A C 0.0597(2) 0.2762(2) 0.1104(4)
C4B C -0.2762(2) -0.2165(2) 0.1104(4)
C4I C -0.2165(2) 0.0597(2) -0.1104(4)
C4J C -0.0597(2) -0.2762(2) -0.1104(4)
C4K C 0.2762(2) 0.2165(2) -0.1104(4)
H5A H 0.04560 0.25180 0.04640
H5B H -0.25180 -0.20620 0.04640
H5I H -0.20620 0.04560 -0.04640
H5J H -0.04560 -0.25180 -0.04640
H5K H 0.25180 0.20620 -0.04640
H6A H 0.10570 0.31270 0.10160
H6B H -0.31270 -0.20700 0.10160
H6I H -0.20700 0.10570 -0.10160
H6J H -0.10570 -0.31270 -0.10160
H6K H 0.31270 0.20700 -0.10160
C5A C 0.0155(2) 0.3065(2) 0.1314(4)
C5B C -0.3065(2) -0.2910(2) 0.1314(4)
C5I C -0.2910(2) 0.0155(2) -0.1314(4)
C5J C -0.0155(2) -0.3065(2) -0.1314(4)
C5K C 0.3065(2) 0.2910(2) -0.1314(4)
C6A C 0.0397(3) 0.3697(3) 0.1749(4)
C6B C -0.3697(3) -0.3300(3) 0.1749(4)
C6I C -0.3300(3) 0.0397(3) -0.1749(4)
C6J C -0.0397(3) -0.3697(3) -0.1749(4)
C6K C 0.3697(3) 0.3300(3) -0.1749(4)
H7A H 0.08500 0.39560 0.19210
H7B H -0.39560 -0.31060 0.19210
H7I H -0.31060 0.08500 -0.19210
H7J H -0.08500 -0.39560 -0.19210
H7K H 0.39560 0.31060 -0.19210
C7A C -0.0042(3) 0.3941(3) 0.1927(5)
C7B C -0.3941(3) -0.3983(3) 0.1927(5)
C7I C -0.3983(3) -0.0042(3) -0.1927(5)
C7J C 0.0042(3) -0.3941(3) -0.1927(5)
C7K C 0.3941(3) 0.3983(3) -0.1927(5)
H8A H 0.01290 0.43630 0.22290
H8B H -0.43630 -0.42340 0.22290
H8I H -0.42340 0.01290 -0.22290
H8J H -0.01290 -0.43630 -0.22290
H8K H 0.43630 0.42340 -0.22290
C8A C -0.0524(3) 0.2710(3) 0.1072(5)
C8B C -0.2710(3) -0.3234(3) 0.1072(5)
C8I C -0.3234(3) -0.0524(3) -0.1072(5)
C8J C 0.0524(3) -0.2710(3) -0.1072(5)
C8K C 0.2710(3) 0.3234(3) -0.1072(5)
H9A H -0.07090 0.22830 0.07810
H9B H -0.22830 -0.29920 0.07810
H9I H -0.29920 -0.07090 -0.07810
H9J H 0.07090 -0.22830 -0.07810
H9K H 0.22830 0.29920 -0.07810
C9A C -0.0927(3) 0.2987(3) 0.1261(6)
C9B C -0.2987(3) -0.3914(3) 0.1261(6)
C9I C -0.3914(3) -0.0927(3) -0.1261(6)
C9J C 0.0927(3) -0.2987(3) -0.1261(6)
C9K C 0.2987(3) 0.3914(3) -0.1261(6)
H10A H -0.13810 0.27390 0.10870
H10B H -0.27390 -0.41200 0.10870
H10I H -0.41200 -0.13810 -0.10870
H10J H 0.13810 -0.27390 -0.10870
H10K H 0.27390 0.41200 -0.10870
#END
