
#######################################################################
#
#                 Cambridge Crystallographic Data Centre
#                                CCDC
#
#######################################################################
#
# If this CIF has been generated from an entry in the Cambridge
# Structural Database, then it will include bibliographic, chemical,
# crystal, experimental, refinement or atomic coordinate data resulting
# from the CCDC's data processing and validation procedures.
#
#######################################################################

data_CSD_CIF_TEQJUV
_audit_creation_date 2007-02-21
_audit_creation_method CSD-ConQuest-V1
_database_code_CSD TEQJUV
_database_code_depnum_ccdc_archive 'CCDC 269146'
_chemical_formula_sum 'C32 H34 N2 O6 Sn1'
_chemical_formula_moiety
;
(C6 H16 N1 1+)n,n(C26 H18 N1 O6 Sn1 1-)
;
_journal_coden_Cambridge 211
_journal_volume 59
_journal_year 2006
_journal_page_first 1891
_journal_name_full 'J.Coord.Chem. '
loop_
_publ_author_name
"Chunlin Ma"
"Jikun Li"
"Rufen Zhang"
_chemical_name_systematic
;
catena-(triethylammonium (\m~2~-5-nitroisophthalato)-triphenyl-tin(iv))
;
_chemical_melting_point 493.15
_cell_volume   3043.343
_exptl_crystal_density_diffrn 1.448
_exptl_special_details
;
Melts above 493.15K

;
_diffrn_ambient_temperature 295
#These two values have been output from a single CSD field.
_refine_ls_R_factor_gt 0.0347
_refine_ls_wR_factor_gt 0.0347
_symmetry_cell_setting monoclinic
_symmetry_space_group_name_H-M 'P 21/c'
_symmetry_Int_Tables_number 14
loop_
_symmetry_equiv_pos_site_id
_symmetry_equiv_pos_as_xyz
1 x,y,z
2 -x,1/2+y,1/2-z
3 -x,-y,-z
4 x,-1/2-y,-1/2+z
_cell_length_a 10.5179(9)
_cell_length_b 16.3427(14)
_cell_length_c 20.1897(14)
_cell_angle_alpha 90
_cell_angle_beta 118.725(3)
_cell_angle_gamma 90
_cell_formula_units_Z 4
loop_
_atom_type_symbol
_atom_type_radius_bond
C 0.68
H 0.23
N 0.68
O 0.68
Sn 1.46
loop_
_atom_site_label
_atom_site_type_symbol
_atom_site_fract_x
_atom_site_fract_y
_atom_site_fract_z
Sn1 Sn 0.055636(18) 0.731632(10) 0.779453(10)
N1 N 0.2765(3) 0.48625(17) 0.50180(14)
N2 N 0.4128(3) 0.8191(2) 0.68908(19)
H1 H 0.36690 0.77040 0.68370
O1 O 0.0935(2) 0.63000(11) 0.71742(11)
O2 O 0.2676(2) 0.68314(12) 0.69759(13)
O3 O -0.0051(2) 0.33566(11) 0.66867(11)
O4 O -0.0400(3) 0.29148(13) 0.55623(13)
O5 O 0.2629(4) 0.42508(19) 0.46552(17)
O6 O 0.3417(4) 0.54673(18) 0.49970(18)
C1 C 0.1661(3) 0.55555(15) 0.64237(14)
C2 C 0.0926(3) 0.48652(14) 0.64586(13)
H2 H 0.05240 0.48630 0.67810
C3 C 0.0778(3) 0.41782(14) 0.60228(13)
C4 C 0.1364(3) 0.41860(15) 0.55363(13)
H3 H 0.12560 0.37390 0.52280
C5 C 0.2111(3) 0.48721(16) 0.55216(14)
C6 C 0.2284(3) 0.55548(15) 0.59522(14)
H4 H 0.28030 0.60050 0.59300
C7 C 0.1792(3) 0.62999(15) 0.68935(15)
C8 C 0.0028(3) 0.34110(15) 0.60712(15)
C9 C 0.0025(3) 0.81292(17) 0.68629(16)
C10 C 0.0118(4) 0.89740(18) 0.6955(2)
H5 H 0.04610 0.91980 0.74340
C11 C -0.0299(4) 0.9487(2) 0.6334(3)
H6 H -0.02390 1.00510 0.64020
C12 C -0.0796(4) 0.9172(3) 0.5624(2)
H7 H -0.10750 0.95200 0.52120
C13 C -0.0880(4) 0.8341(2) 0.5523(2)
H8 H -0.12060 0.81230 0.50420
C14 C -0.0479(3) 0.7828(2) 0.61334(18)
H9 H -0.05460 0.72650 0.60560
C15 C -0.1250(3) 0.66169(16) 0.76909(16)
C16 C -0.1591(4) 0.65417(19) 0.82731(19)
H10 H -0.09770 0.67620 0.87450
C17 C -0.2842(4) 0.6140(2) 0.8153(2)
H11 H -0.30600 0.60970 0.85470
C18 C -0.3756(4) 0.5807(2) 0.7473(3)
H12 H -0.46080 0.55540 0.73960
C19 C -0.3408(4) 0.5848(2) 0.6897(2)
H13 H -0.40110 0.56060 0.64330
C20 C -0.2161(4) 0.6249(2) 0.70087(19)
H14 H -0.19320 0.62710 0.66180
C21 C 0.2666(3) 0.71507(19) 0.87224(17)
C22 C 0.3378(4) 0.7792(3) 0.9219(2)
H15 H 0.29210 0.82960 0.91460
C23 C 0.4751(5) 0.7687(4) 0.9815(2)
H16 H 0.52120 0.81220 1.01400
C24 C 0.5434(5) 0.6965(5) 0.9932(3)
H17 H 0.63630 0.69030 1.03360
C25 C 0.4767(5) 0.6320(4) 0.9460(3)
H18 H 0.52440 0.58200 0.95460
C26 C 0.3374(4) 0.6406(3) 0.8849(2)
H19 H 0.29240 0.59650 0.85300
C27 C 0.4556(6) 0.8538(3) 0.7715(3)
H20 H 0.50170 0.90680 0.77810
H21 H 0.36830 0.86120 0.77570
C28 C 0.5540(6) 0.7986(4) 0.8313(3)
H22 H 0.57800 0.82160 0.87970
H23 H 0.64090 0.79130 0.82760
H24 H 0.50760 0.74650 0.82590
C29 C 0.5442(4) 0.8032(3) 0.6808(2)
H25 H 0.60860 0.76720 0.72130
H26 H 0.51490 0.77480 0.63350
C30 C 0.6255(4) 0.8781(3) 0.6823(3)
H27 H 0.70790 0.86310 0.67640
H28 H 0.65780 0.90580 0.72960
H29 H 0.56340 0.91370 0.64170
C31 C 0.3054(5) 0.8772(3) 0.6342(3)
H30 H 0.22340 0.88210 0.64350
H31 H 0.34930 0.93090 0.64050
C32 C 0.2557(5) 0.8480(5) 0.5570(3)
H32 H 0.18730 0.88620 0.52180
H33 H 0.21020 0.79560 0.55070
H34 H 0.33710 0.84310 0.54800
Sn1A Sn -0.055636(18) 0.231632(10) 0.720547(10)
O3A O 0.0051(2) 0.83566(11) 0.83133(11)
#END
