
#######################################################################
#
#                 Cambridge Crystallographic Data Centre
#                                CCDC
#
#######################################################################
#
# If this CIF has been generated from an entry in the Cambridge
# Structural Database, then it will include bibliographic, chemical,
# crystal, experimental, refinement or atomic coordinate data resulting
# from the CCDC's data processing and validation procedures.
#
#######################################################################

data_CSD_CIF_TEVFAD01
_audit_creation_date 2013-07-29
_audit_creation_method CSD-ConQuest-V1
_database_code_CSD TEVFAD01
_database_code_depnum_ccdc_archive 'CCDC 938333'
_chemical_formula_sum 'C44 H31 Na1 O19 Zn5'
_chemical_formula_moiety
;
(C44 H31 O19 Zn5 1-)n,n(Na1 1+)
;
_journal_coden_Cambridge 1350
_journal_volume 15
_journal_year 2013
_journal_page_first 6986
_journal_name_full 'CrystEngComm '
loop_
_publ_author_name
"Peng Du"
"Yan Yang"
"Jin Yang"
"Ying-Ying Liu"
"Wei-Qiu Kan"
"Jian-Fang Ma"
_chemical_name_systematic
;
catena-[sodium 
(\m~6~-5-[(2'-carboxylatobiphenyl-4-yl)methoxy]benzene-1,3-dicarboxylato)-(\m~
5~-5-[(2'-carboxylatobiphenyl-4-yl)methoxy]benzene-1,3-dicarboxylato)-tris(\m~
3~-hydroxo)-bis(\m~2~-hydroxo)-penta-zinc unknown solvate]
;
_cell_volume   2328.458
_exptl_crystal_colour 'colorless'
_exptl_crystal_density_diffrn 1.698
_exptl_crystal_description 'prism'
_diffrn_ambient_temperature 293
_refine_special_details
;
Disordered sodium cation and unknown solvent molecules were not modelled and 
the disordered density was taken into account using the SQUEEZE/PLATON 
procedure.
;
#These two values have been output from a single CSD field.
_refine_ls_R_factor_gt 0.0607
_refine_ls_wR_factor_gt 0.0607
_symmetry_cell_setting triclinic
_symmetry_space_group_name_H-M 'P -1'
_symmetry_Int_Tables_number 2
loop_
_symmetry_equiv_pos_site_id
_symmetry_equiv_pos_as_xyz
1 x,y,z
2 -x,-y,-z
_cell_length_a 10.3320(9)
_cell_length_b 13.7920(11)
_cell_length_c 17.3310(14)
_cell_angle_alpha 70.708(7)
_cell_angle_beta 88.355(7)
_cell_angle_gamma 87.483(7)
_cell_formula_units_Z 2
loop_
_atom_type_symbol
_atom_type_radius_bond
C 0.68
H 0.23
O 0.68
Zn 1.22
loop_
_atom_site_label
_atom_site_type_symbol
_atom_site_fract_x
_atom_site_fract_y
_atom_site_fract_z
Zn1 Zn 0.72801(7) 0.25007(7) 0.50817(5)
Zn2 Zn 0.56806(7) 0.17860(6) 0.37224(4)
Zn3 Zn 0.38065(7) 0.14920(6) 0.24617(5)
Zn4 Zn 0.55098(7) 0.04300(6) 0.56625(4)
Zn5 Zn -0.25746(7) 0.08446(7) 0.70936(5)
C1 C 0.3477(6) 0.1469(5) 0.7453(4)
C2 C 0.2295(6) 0.1192(5) 0.7223(4)
H1 H 0.22950 0.08170 0.68650
C3 C 0.1133(6) 0.1468(5) 0.7521(4)
C4 C 0.1136(6) 0.2047(6) 0.8055(4)
H2 H 0.03590 0.22530 0.82490
C5 C 0.2307(6) 0.2306(6) 0.8289(4)
C6 C 0.3459(6) 0.2036(6) 0.7984(4)
H3 H 0.42350 0.22360 0.81340
C7 C 0.4718(6) 0.1155(5) 0.7141(4)
C8 C -0.0126(6) 0.1168(6) 0.7259(4)
C9 C 0.3423(7) 0.3169(7) 0.9031(5)
H4 H 0.38200 0.36390 0.85450
H5 H 0.40060 0.25730 0.92410
C10 C 0.3206(7) 0.3689(6) 0.9666(4)
C11 C 0.2091(7) 0.4213(6) 0.9770(4)
H6 H 0.13740 0.42380 0.94510
C12 C 0.2036(7) 0.4707(6) 1.0356(4)
H7 H 0.12900 0.50880 1.04040
C13 C 0.3053(7) 0.4645(5) 1.0862(4)
C14 C 0.4183(7) 0.4119(6) 1.0731(4)
H8 H 0.49060 0.40990 1.10440
C15 C 0.4260(7) 0.3637(6) 1.0163(4)
H9 H 0.50150 0.32720 1.01050
C16 C 0.3009(6) 0.5130(5) 1.1520(4)
C17 C 0.2618(8) 0.6157(6) 1.1319(5)
H10 H 0.23300 0.65100 1.07940
C18 C 0.2646(10) 0.6665(7) 1.1883(6)
H11 H 0.23900 0.73560 1.17370
C19 C 0.3059(10) 0.6136(8) 1.2665(6)
H12 H 0.30340 0.64580 1.30600
C20 C 0.3505(9) 0.5138(7) 1.2859(5)
H13 H 0.38330 0.48000 1.33770
C21 C 0.3477(6) 0.4616(5) 1.2293(4)
C22 C 0.3857(6) 0.3490(6) 1.2579(4)
C23 C 1.3370(6) 0.3164(5) 0.5353(4)
C24 C 1.2242(6) 0.2818(5) 0.5127(4)
H14 H 1.22960 0.23630 0.48320
C25 C 1.1060(6) 0.3142(5) 0.5335(4)
C26 C 1.0966(6) 0.3815(5) 0.5775(4)
H15 H 1.01550 0.40410 0.59060
C27 C 1.2070(6) 0.4153(5) 0.6021(4)
C28 C 1.3272(6) 0.3832(6) 0.5803(4)
H16 H 1.40190 0.40660 0.59590
C29 C 1.4673(6) 0.2735(5) 0.5181(4)
C30 C 0.9822(7) 0.2753(6) 0.5116(4)
C31 C 1.0873(7) 0.4957(6) 0.6836(5)
H17 H 1.05430 0.43040 0.71770
H18 H 1.02480 0.52780 0.64120
C32 C 1.1046(7) 0.5634(6) 0.7342(4)
C33 C 0.9978(7) 0.6181(7) 0.7514(6)
H19 H 0.91750 0.61250 0.73060
C34 C 1.0081(7) 0.6796(7) 0.7980(6)
H20 H 0.93390 0.71130 0.81170
C35 C 1.1290(7) 0.6962(6) 0.8259(4)
C36 C 1.2320(7) 0.6390(6) 0.8113(4)
H21 H 1.31250 0.64440 0.83190
C37 C 1.2202(7) 0.5726(6) 0.7665(4)
H22 H 1.29230 0.53410 0.75850
C38 C 1.1398(7) 0.7698(6) 0.8713(4)
C39 C 1.0463(8) 0.7746(7) 0.9278(5)
H23 H 0.97620 0.73200 0.93640
C40 C 1.0528(9) 0.8405(9) 0.9724(6)
H24 H 0.98800 0.84170 1.01040
C41 C 1.1533(10) 0.9032(7) 0.9607(5)
H25 H 1.15670 0.94890 0.98980
C42 C 1.2499(8) 0.8995(6) 0.9062(5)
H26 H 1.32170 0.93960 0.90110
C43 C 1.2429(7) 0.8372(6) 0.8583(4)
C44 C 1.3486(7) 0.8430(5) 0.7959(4)
O1 O 0.5755(4) 0.1400(4) 0.7380(3)
O2 O 0.4648(4) 0.0669(4) 0.6666(3)
O3 O -0.0103(5) 0.0635(5) 0.6800(4)
O4 O -0.1166(4) 0.1459(4) 0.7515(3)
O5 O 0.2228(4) 0.2858(5) 0.8829(3)
O6 O 0.3143(4) 0.2903(4) 1.2357(3)
O7 O 0.4851(4) 0.3191(4) 1.3004(3)
O8 O 0.8783(4) 0.3131(4) 0.5301(3)
O9 O 0.9887(5) 0.2078(5) 0.4780(4)
O10 O 1.4711(4) 0.1981(4) 0.4919(3)
O11 O 1.5658(4) 0.3139(4) 0.5341(3)
O12 O 1.2062(4) 0.4792(4) 0.6478(3)
O13 O 1.3198(4) 0.8490(4) 0.7247(3)
O14 O 1.4632(5) 0.8440(4) 0.8202(3)
O15 O 0.7275(4) 0.1064(3) 0.5887(3)
O16 O 0.6124(4) 0.0331(3) 0.4568(3)
O17 O 0.7188(4) 0.2443(4) 0.3989(3)
O18 O 0.3998(4) 0.1058(3) 0.3654(2)
O19 O 0.2556(4) 0.0630(4) 0.2254(3)
Zn1* Zn 1.72801(7) 0.25007(7) 0.50817(5)
Zn2* Zn 0.56806(7) 0.17860(6) 1.37224(4)
Zn2** Zn 1.56806(7) 0.17860(6) 0.37224(4)
Zn2A Zn 1.43194(7) 0.82140(6) 0.62776(4)
Zn3* Zn 0.38065(7) 0.14920(6) 1.24617(5)
Zn3A Zn 1.61935(7) 0.85080(6) 0.75383(5)
Zn4* Zn 1.55098(7) 0.04300(6) 0.56625(4)
Zn4A Zn 0.44902(7) -0.04300(6) 0.43375(4)
Zn5* Zn 0.74254(7) 0.08446(7) 0.70936(5)
Zn5A Zn 0.25746(7) -0.08446(7) 0.29064(5)
O1* O -0.4245(4) 0.1400(4) 0.7380(3)
O6* O 0.3143(4) 0.2903(4) 0.2357(3)
O7* O 0.4851(4) 0.3191(4) 0.3004(3)
O10* O 0.4711(4) 0.1981(4) 0.4919(3)
O11* O 0.5658(4) 0.3139(4) 0.5341(3)
O13A O 0.6802(4) 0.1510(4) 0.2753(3)
O14A O 0.5368(5) 0.1560(4) 0.1798(3)
O15* O -0.2725(4) 0.1064(3) 0.5887(3)
O16A O 0.3876(4) -0.0331(3) 0.5432(3)
O18A O 0.6002(4) -0.1058(3) 0.6346(2)
O19A O -0.2556(4) -0.0630(4) 0.7746(3)
#END
