
#######################################################################
#
#                 Cambridge Crystallographic Data Centre
#                                CCDC
#
#######################################################################
#
# If this CIF has been generated from an entry in the Cambridge
# Structural Database, then it will include bibliographic, chemical,
# crystal, experimental, refinement or atomic coordinate data resulting
# from the CCDC's data processing and validation procedures.
#
#######################################################################

data_CSD_CIF_TEVFAD
_audit_creation_date 2013-04-23
_audit_creation_method CSD-ConQuest-V1
_database_code_CSD TEVFAD
_database_code_depnum_ccdc_archive 'CCDC 898015'
_chemical_formula_sum 'C46 H37 Na1 O21 Zn5'
_chemical_formula_moiety
;
(C46 H33 O19 Zn5 1-)n,n(Na1 1+),2n(H2 O1)
;
_journal_coden_Cambridge 222
_journal_volume 42
_journal_year 2013
_journal_page_first 1567
_journal_name_full 'Dalton Trans. '
loop_
_publ_author_name
"Peng Du"
"Yan Yang"
"Jin Yang"
"Bing-Kun Liu"
"Jian-Fang Ma"
_chemical_name_systematic
;
catena-(sodium 
bis(\m~5~-5-((2'-carboxybiphenyl-4-yl)methoxy)isophthalato)-(\m~3~-hydroxo)-bi
s(\m~3~-oxo)-(\m~2~-ethanol)-(\m~2~-oxo)-penta-zinc dihydrate)
;
_cell_volume   2344.852
_exptl_crystal_colour 'colorless'
_exptl_crystal_density_diffrn 1.8
_exptl_crystal_description 'block'
_diffrn_ambient_temperature 293
#These two values have been output from a single CSD field.
_refine_ls_R_factor_gt 0.0548
_refine_ls_wR_factor_gt 0.0548
_symmetry_cell_setting triclinic
_symmetry_space_group_name_H-M 'P -1'
_symmetry_Int_Tables_number 2
loop_
_symmetry_equiv_pos_site_id
_symmetry_equiv_pos_as_xyz
1 x,y,z
2 -x,-y,-z
_cell_length_a 10.3450(3)
_cell_length_b 13.7360(5)
_cell_length_c 17.5020(7)
_cell_angle_alpha 70.636(3)
_cell_angle_beta 88.437(3)
_cell_angle_gamma 88.257(2)
_cell_formula_units_Z 2
loop_
_atom_type_symbol
_atom_type_radius_bond
C 0.68
H 0.23
Na 0.96
O 0.68
Zn 1.22
loop_
_atom_site_label
_atom_site_type_symbol
_atom_site_fract_x
_atom_site_fract_y
_atom_site_fract_z
Zn1 Zn 0.27369(7) -0.25336(5) -0.50611(4)
Zn2 Zn 0.57197(7) -0.82368(5) -0.62793(4)
Zn3 Zn 0.45350(6) -0.04513(5) -0.56411(4)
Zn4 Zn 0.38701(7) -0.85718(5) -0.75101(4)
Zn5 Zn 0.25986(6) -0.09168(5) -0.70554(4)
C1 C 0.6627(5) -0.3150(4) -0.5339(4)
C2 C 0.7757(5) -0.2835(4) -0.5094(3)
H1 H 0.77110 -0.23960 -0.47880
C3 C 0.8941(5) -0.3163(4) -0.5297(3)
C4 C 0.9020(6) -0.3816(5) -0.5749(4)
H2 H 0.98250 -0.40400 -0.58840
C5 C 0.7903(6) -0.4140(4) -0.6004(4)
C6 C 0.6712(6) -0.3827(5) -0.5785(4)
H3 H 0.59610 -0.40670 -0.59360
C7 C 0.5358(6) -0.2736(4) -0.5176(3)
C8 C 1.0176(6) -0.2784(5) -0.5072(4)
C9 C 0.9124(6) -0.4899(5) -0.6830(4)
H4 H 0.97330 -0.52450 -0.64080
H5 H 0.94700 -0.42350 -0.71450
C10 C 0.8946(6) -0.5539(5) -0.7368(4)
C11 C 1.0025(7) -0.6038(5) -0.7558(4)
H6 H 1.08310 -0.59450 -0.73730
C12 C 0.9915(6) -0.6682(5) -0.8026(4)
H7 H 1.06520 -0.69940 -0.81660
C13 C 0.8706(6) -0.6861(5) -0.8284(3)
C14 C 0.7657(6) -0.6327(5) -0.8109(4)
H8 H 0.68500 -0.64050 -0.83010
C15 C 0.7768(6) -0.5680(4) -0.7657(4)
H9 H 0.70370 -0.53350 -0.75470
C16 C 0.8598(6) -0.7602(5) -0.8733(4)
C17 C 0.9485(7) -0.7576(5) -0.9344(4)
H10 H 1.01410 -0.70970 -0.94600
C18 C 0.9429(7) -0.8232(6) -0.9781(4)
H11 H 1.00420 -0.81970 -1.01870
C19 C 0.8473(8) -0.8940(6) -0.9622(5)
H12 H 0.84450 -0.94010 -0.99080
C20 C 0.7556(7) -0.8966(5) -0.9035(4)
H13 H 0.68790 -0.94230 -0.89480
C21 C 0.7615(6) -0.8326(5) -0.8569(4)
C22 C 0.6603(6) -0.8436(5) -0.7918(4)
C23 C 0.1144(6) -0.8494(4) -1.2519(4)
C24 C 0.1152(6) -0.7946(5) -1.1985(4)
H14 H 0.03760 -0.77590 -1.17850
C25 C 0.2319(6) -0.7675(5) -1.1746(4)
C26 C 0.3471(6) -0.7949(4) -1.2041(4)
H15 H 0.42510 -0.77630 -1.18830
C27 C 0.3466(5) -0.8508(4) -1.2581(3)
C28 C 0.2301(6) -0.8785(4) -1.2798(4)
H16 H 0.22930 -0.91770 -1.31410
C29 C 0.4714(6) -0.8810(5) -1.2890(3)
C30 C -0.0119(6) -0.8790(5) -1.2787(4)
C31 C 0.3444(6) -0.6846(5) -1.0983(4)
H17 H 0.38610 -0.63690 -1.14570
H18 H 0.40050 -0.74510 -1.07800
C32 C 0.3256(6) -0.6338(5) -1.0340(4)
C33 C 0.2166(6) -0.5787(5) -1.0259(4)
H19 H 0.14750 -0.57250 -1.06030
C34 C 0.2089(6) -0.5321(5) -0.9667(4)
H20 H 0.13410 -0.49540 -0.96140
C35 C 0.3101(6) -0.5394(4) -0.9156(4)
C36 C 0.4204(6) -0.5940(5) -0.9261(4)
H21 H 0.49090 -0.59810 -0.89320
C37 C 0.4292(6) -0.6421(5) -0.9833(4)
H22 H 0.50340 -0.67970 -0.98800
C38 C 0.3056(6) -0.4909(4) -0.8509(4)
C39 C 0.2632(7) -0.3883(5) -0.8691(4)
H23 H 0.23400 -0.35240 -0.92090
C40 C 0.2636(8) -0.3396(6) -0.8123(5)
H24 H 0.23450 -0.27140 -0.82560
C41 C 0.3069(9) -0.3915(6) -0.7356(5)
H25 H 0.30680 -0.35830 -0.69720
C42 C 0.3509(7) -0.4935(5) -0.7152(4)
H26 H 0.38210 -0.52850 -0.66370
C43 C 0.3473(6) -0.5422(5) -0.7734(4)
C44 C 0.3879(6) -0.6557(5) -0.7445(4)
C45 C 0.2176(11) -0.9159(8) -0.8540(7)
H27 H 0.13600 -0.94870 -0.85420
H28 H 0.20200 -0.84180 -0.87450
C46 C 0.3133(14) -0.9455(11) -0.9115(7)
H29 H 0.27820 -0.92440 -0.96490
H30 H 0.39370 -0.91180 -0.91300
H31 H 0.32780 -1.01900 -0.89260
O1 O 0.4359(4) -0.3157(3) -0.5321(3)
O2 O 0.5314(4) -0.1972(3) -0.4922(2)
O3 O 1.0143(4) -0.2119(3) -0.4729(3)
O4 O 1.1208(4) -0.3168(3) -0.5262(3)
O5 O 0.7918(4) -0.4758(3) -0.6477(3)
O6 O 0.6904(4) -0.8491(3) -0.7215(2)
O7 O 0.5444(4) -0.8452(3) -0.8152(2)
O8 O -0.0091(4) -0.9331(4) -1.3236(3)
O9 O -0.1169(4) -0.8474(3) -1.2550(3)
O10 O 0.4662(4) -0.9344(3) -1.3339(3)
O11 O 0.5748(4) -0.8493(3) -1.2693(2)
O12 O 0.2240(4) -0.7141(4) -1.1206(3)
O13 O 0.3152(4) -0.7165(3) -0.7646(2)
O14 O 0.4868(4) -0.6829(3) -0.7029(2)
O15 O 0.2854(4) -0.2523(3) -0.3962(2)
O16 O 0.2760(4) -0.1103(3) -0.5880(3)
O17 O 0.6131(4) -0.9654(3) -0.5437(2)
O18 O 0.4023(4) -0.8962(3) -0.6337(2)
O19 O 0.2607(4) -0.9444(3) -0.7709(2)
H32 H 0.228(6) -0.084(5) -0.574(4)
Na1 Na 0.1088(3) -0.1646(2) -0.36814(17)
O20 O 0.1215(4) 0.0194(3) -0.4464(3)
O21 O -0.1015(5) -0.1291(4) -0.3393(4)
Zn1* Zn 1.27369(7) -0.25336(5) -0.50611(4)
Zn2A Zn 0.42803(7) -0.17632(5) -0.37207(4)
Zn3A Zn 0.54650(6) -0.95487(5) -1.43589(4)
Zn3* Zn 0.45350(6) -1.04513(5) -0.56411(4)
Zn3A* Zn 0.54650(6) -0.95487(5) -0.43589(4)
Zn5A Zn -0.25986(6) -0.90832(5) -1.29446(4)
Zn5A* Zn 0.74014(6) -0.90832(5) -1.29446(4)
Zn5* Zn 0.25986(6) -1.09168(5) -0.70554(4)
O4* O 0.1208(4) -0.3168(3) -0.5262(3)
O9A O 0.1169(4) -0.1526(3) -0.7450(3)
O10A O 0.5338(4) -0.0656(3) -0.6661(3)
O11A O 0.4252(4) -0.1507(3) -0.7307(2)
O15A O 0.7146(4) -0.7477(3) -0.6038(2)
O17* O 0.6131(4) 0.0346(3) -0.5437(2)
O17A O 0.3869(4) -0.0346(3) -0.4563(2)
O18* O 0.4023(4) 0.1038(3) -0.6337(2)
O19* O 0.2607(4) 0.0556(3) -0.7709(2)
#END
