
#######################################################################
#
#                 Cambridge Crystallographic Data Centre
#                                CCDC
#
#######################################################################
#
# If this CIF has been generated from an entry in the Cambridge
# Structural Database, then it will include bibliographic, chemical,
# crystal, experimental, refinement or atomic coordinate data resulting
# from the CCDC's data processing and validation procedures.
#
#######################################################################

data_CSD_CIF_TEWGUY
_audit_creation_date 2007-05-24
_audit_creation_method CSD-ConQuest-V1
_database_code_CSD TEWGUY
_database_code_depnum_ccdc_archive 'CCDC 285850'
_chemical_formula_sum 'C94 H60 Cu4 N33 P3'
_chemical_formula_moiety
;
(C24 H20 P1 1+)3n,n(C22 Cu4 N33 3-)
;
_journal_coden_Cambridge 261
_journal_volume 10
_journal_year 2007
_journal_page_first 101
_journal_name_full 'Comptes Rendus Chimie '
loop_
_publ_author_name
"J.A.Schlueter"
"J.L.Manson"
"U.Geiser"
_chemical_name_systematic
;
catena-(tris(Tetraphenylphosphonium) 
undecakis(\m~2~-dicyanamide)-tetra-copper(ii))
;
_cell_volume   4610.212
_exptl_crystal_colour 'green'
_exptl_crystal_density_diffrn 1.44
_exptl_crystal_description 'rod'
_diffrn_ambient_temperature 298
#These two values have been output from a single CSD field.
_refine_ls_R_factor_gt 0.0558
_refine_ls_wR_factor_gt 0.0558
_symmetry_cell_setting monoclinic
_symmetry_space_group_name_H-M 'P 21'
_symmetry_Int_Tables_number 4
loop_
_symmetry_equiv_pos_site_id
_symmetry_equiv_pos_as_xyz
1 x,y,z
2 -x,1/2+y,-z
_cell_length_a 7.1911(4)
_cell_length_b 55.050(3)
_cell_length_c 11.7964(7)
_cell_angle_alpha 90
_cell_angle_beta 99.166(3)
_cell_angle_gamma 90
_cell_formula_units_Z 2
loop_
_atom_type_symbol
_atom_type_radius_bond
C 0.68
H 0.23
Cu 1.70
N 0.68
P 1.05
loop_
_atom_site_label
_atom_site_type_symbol
_atom_site_fract_x
_atom_site_fract_y
_atom_site_fract_z
Cu1 Cu 0.64769(12) 0.471184(16) 0.41986(8)
Cu2 Cu 0.79149(14) 0.320611(16) 0.42650(8)
Cu3 Cu 0.72590(14) 0.172684(16) 0.4029(1)
Cu4 Cu 0.55000(12) 0.022820(16) 0.39221(8)
N1 N 0.6379(10) 0.43377(13) 0.3677(7)
N2 N 0.5557(12) 0.39158(14) 0.3179(8)
N3 N 0.7154(11) 0.35410(13) 0.3778(6)
N4 N 0.8590(11) 0.28638(14) 0.4684(7)
N5 N 0.9575(12) 0.24510(16) 0.4708(9)
N6 N 0.8184(10) 0.20565(13) 0.4288(6)
N7 N 0.6317(11) 0.13948(13) 0.3668(6)
N8 N 0.4560(11) 0.10307(14) 0.3062(8)
N9 N 0.5387(10) 0.06037(13) 0.3392(6)
N10 N 0.4228(10) 0.48201(11) 0.3132(6)
N11 N 0.0974(10) 0.49110(15) 0.2235(6)
N12 N -0.1821(9) 0.48321(12) 0.3159(6)
N13 N 0.8757(10) 0.46804(13) 0.5363(6)
N14 N 1.1926(9) 0.45262(14) 0.6063(6)
N15 N 1.4767(10) 0.46686(14) 0.5365(6)
N16 N 0.5466(10) 0.30934(12) 0.3510(6)
N17 N 0.2433(14) 0.29264(16) 0.2701(9)
N18 N -0.0653(12) 0.31248(15) 0.2304(8)
N19 N 1.0441(10) 0.33139(13) 0.4928(7)
N20 N 1.3456(12) 0.34832(16) 0.5869(9)
N21 N 1.6567(11) 0.33014(14) 0.6058(6)
N22 N 0.4815(12) 0.18461(15) 0.3242(7)
N23 N 0.1706(15) 0.1981(2) 0.2362(10)
N24 N -0.1203(13) 0.17554(18) 0.1974(8)
N25 N 0.9735(12) 0.16004(12) 0.4757(7)
N26 N 1.2795(13) 0.14769(16) 0.5729(8)
N27 N 1.5764(13) 0.17055(17) 0.5907(7)
N28 N 0.3236(11) 0.01258(13) 0.2830(7)
N29 N -0.0008(10) 0.00211(15) 0.1981(6)
N30 N -0.277(1) 0.01011(12) 0.2909(6)
N31 N 0.7768(10) 0.02645(15) 0.5113(6)
N32 N 1.0967(10) 0.04063(13) 0.5826(7)
N33 N 1.3806(9) 0.02692(12) 0.5078(6)
C1 C 0.6081(11) 0.41336(16) 0.3493(7)
C2 C 0.6483(12) 0.37204(16) 0.3577(8)
C3 C 0.8936(12) 0.26678(18) 0.4642(8)
C4 C 0.8737(12) 0.22546(18) 0.4472(9)
C5 C 0.5562(12) 0.12153(17) 0.3427(8)
C6 C 0.5062(12) 0.08041(18) 0.3304(7)
C7 C 0.2677(13) 0.48638(14) 0.2745(7)
C8 C -0.0460(12) 0.48680(12) 0.2779(7)
C9 C 1.0249(13) 0.46189(16) 0.5661(7)
C10 C 1.3424(13) 0.46064(14) 0.5667(7)
C11 C 0.3992(16) 0.30339(18) 0.3142(8)
C12 C 0.0819(15) 0.3051(2) 0.2486(9)
C13 C 1.1904(15) 0.33819(17) 0.5335(8)
C14 C 1.5075(15) 0.33781(17) 0.5957(8)
C15 C 0.3320(16) 0.18941(18) 0.2813(8)
C16 C 0.0217(19) 0.1843(2) 0.2135(9)
C17 C 1.1193(17) 0.15526(15) 0.5191(8)
C18 C 1.4317(17) 0.16042(19) 0.5802(8)
C19 C 0.1697(15) 0.00838(16) 0.2498(8)
C20 C -0.1440(12) 0.00703(14) 0.2514(7)
C21 C 0.9292(13) 0.03327(14) 0.5396(7)
C22 C 1.2423(13) 0.03287(14) 0.5396(7)
P1 P 0.8142(3) 0.24991(4) 0.85521(17)
C23 C 0.6373(11) 0.25148(13) 0.7317(7)
C24 C 0.5157(12) 0.27172(14) 0.7165(8)
H1 H 0.52350 0.28360 0.77320
C25 C 0.3871(12) 0.27397(17) 0.6191(9)
H2 H 0.30650 0.28730 0.60990
C26 C 0.3757(13) 0.2566(2) 0.5338(9)
H3 H 0.29370 0.25870 0.46520
C27 C 0.4845(13) 0.2362(2) 0.5501(8)
H4 H 0.46680 0.22390 0.49570
C28 C 0.6225(11) 0.23360(16) 0.6472(8)
H5 H 0.70250 0.22020 0.65520
C29 C 0.6990(11) 0.24755(15) 0.9785(6)
C30 C 0.5595(13) 0.23063(16) 0.9780(8)
H6 H 0.52680 0.22070 0.91420
C31 C 0.4683(14) 0.22823(17) 1.0701(9)
H7 H 0.37470 0.21650 1.06820
C32 C 0.5112(15) 0.24281(19) 1.1665(8)
H8 H 0.45100 0.24070 1.23010
C33 C 0.6465(15) 0.26055(17) 1.1648(8)
H9 H 0.67360 0.27110 1.22670
C34 C 0.7423(12) 0.26286(15) 1.0728(8)
H10 H 0.83550 0.27460 1.07390
C35 C 0.9651(11) 0.27596(13) 0.8627(7)
C36 C 0.9399(12) 0.29456(14) 0.7818(7)
H11 H 0.83870 0.29410 0.72200
C37 C 1.0636(12) 0.31353(14) 0.7903(8)
H12 H 1.04480 0.32600 0.73660
C38 C 1.2157(13) 0.31440(15) 0.8771(8)
H13 H 1.29940 0.32740 0.88100
C39 C 1.2447(13) 0.29650(16) 0.9570(8)
H14 H 1.34610 0.29730 1.01660
C40 C 1.1208(12) 0.27682(15) 0.9489(8)
H15 H 1.14280 0.26420 1.00170
C41 C 0.9590(11) 0.22377(13) 0.8460(7)
C42 C 1.0685(12) 0.22301(15) 0.7596(8)
H16 H 1.07220 0.23630 0.71150
C43 C 1.1726(13) 0.20244(18) 0.7449(8)
H17 H 1.24060 0.20150 0.68430
C44 C 1.1744(14) 0.18378(18) 0.8196(10)
H18 H 1.24590 0.17010 0.80960
C45 C 1.0758(14) 0.18427(16) 0.9088(10)
H19 H 1.08190 0.17130 0.95970
C46 C 0.9664(12) 0.20436(15) 0.9225(7)
H20 H 0.89760 0.20490 0.98280
P2 P 0.3024(3) 0.40309(4) 0.96578(18)
C47 C 0.4526(11) 0.37666(13) 0.9672(7)
C48 C 0.5543(12) 0.37362(15) 0.8784(7)
H21 H 0.53710 0.38430 0.81640
C49 C 0.6812(12) 0.35480(17) 0.8818(8)
H22 H 0.74670 0.35240 0.82080
C50 C 0.7109(12) 0.33960(15) 0.9752(8)
H23 H 0.79800 0.32710 0.97740
C51 C 0.6129(12) 0.34270(14) 1.0662(8)
H24 H 0.63470 0.33250 1.12960
C52 C 0.4828(12) 0.36114(15) 1.0614(7)
H25 H 0.41480 0.36320 1.12150
C53 C 0.1930(11) 0.40326(15) 1.0925(6)
C54 C 0.2201(11) 0.42185(16) 1.1718(7)
H26 H 0.29030 0.43540 1.15730
C55 C 0.1448(12) 0.42074(17) 1.2720(8)
H27 H 0.16140 0.43360 1.32390
C56 C 0.0450(12) 0.40052(19) 1.2943(7)
H28 H -0.00320 0.39940 1.36280
C57 C 0.0163(13) 0.38214(19) 1.2170(9)
H29 H -0.05040 0.36850 1.23360
C58 C 0.0855(12) 0.38334(16) 1.1120(8)
H30 H 0.05960 0.37110 1.05740
C59 C 0.4537(11) 0.42961(13) 0.9667(7)
C60 C 0.6142(12) 0.42963(15) 1.0486(7)
H31 H 0.64210 0.41670 1.09890
C61 C 0.7330(12) 0.44976(16) 1.0531(8)
H32 H 0.84270 0.45030 1.10680
C62 C 0.6887(13) 0.46832(17) 0.9799(8)
H33 H 0.76880 0.48170 0.98420
C63 C 0.5314(14) 0.46819(18) 0.9002(9)
H34 H 0.50360 0.48140 0.85110
C64 C 0.4118(12) 0.44837(15) 0.8917(7)
H35 H 0.30480 0.44790 0.83590
C65 C 0.1148(11) 0.40303(16) 0.8451(7)
C66 C -0.0198(12) 0.42179(16) 0.8387(8)
H36 H -0.01000 0.43350 0.89600
C67 C -0.1665(14) 0.42281(17) 0.7472(8)
H37 H -0.25700 0.43500 0.74350
C68 C -0.1768(13) 0.4057(2) 0.6625(8)
H38 H -0.27470 0.40630 0.60080
C69 C -0.0455(15) 0.38776(17) 0.6673(8)
H39 H -0.05810 0.37600 0.60990
C70 C 0.1041(13) 0.38654(15) 0.7543(7)
H40 H 0.19750 0.37490 0.75320
P3 P 0.2013(3) 0.09026(4) 0.94189(19)
C71 C 0.3537(11) 0.11620(14) 0.9473(7)
C72 C 0.4518(12) 0.11947(16) 0.8556(8)
H41 H 0.43030 0.10940 0.79160
C73 C 0.5832(13) 0.13828(17) 0.8626(9)
H42 H 0.65480 0.14020 0.80410
C74 C 0.6087(14) 0.15375(18) 0.9518(10)
H43 H 0.69290 0.16660 0.95330
C75 C 0.5096(14) 0.15041(18) 1.0405(9)
H44 H 0.52950 0.16100 1.10280
C76 C 0.3809(13) 0.13181(14) 1.0399(7)
H45 H 0.31400 0.12980 1.10050
C77 C 0.0925(11) 0.08968(16) 1.0690(7)
C78 C 0.1260(11) 0.07075(14) 1.1483(7)
H46 H 0.19850 0.05750 1.13360
C79 C 0.0509(12) 0.07193(17) 1.2482(8)
H47 H 0.06970 0.05930 1.30130
C80 C -0.0535(12) 0.09221(19) 1.2690(8)
H48 H -0.10170 0.09320 1.33750
C81 C -0.0868(14) 0.11059(17) 1.1918(9)
H49 H -0.15770 0.12400 1.20710
C82 C -0.0162(12) 0.10929(16) 1.0925(8)
H50 H -0.04090 0.12180 1.03900
C83 C 0.0183(11) 0.08966(15) 0.8202(7)
C84 C 0.0032(14) 0.10814(19) 0.7352(8)
H51 H 0.09290 0.12040 0.74040
C85 C -0.1473(16) 0.1078(2) 0.6434(9)
H52 H -0.16020 0.12000 0.58800
C86 C -0.2765(15) 0.0890(2) 0.6374(8)
H53 H -0.37300 0.08780 0.57500
C87 C -0.2621(14) 0.0724(2) 0.7215(9)
H54 H -0.35350 0.06040 0.71820
C88 C -0.1167(13) 0.07261(18) 0.8125(8)
H55 H -0.11180 0.06080 0.86940
C89 C 0.3504(11) 0.06429(14) 0.9423(6)
C90 C 0.5146(13) 0.06356(16) 1.0223(7)
H56 H 0.54220 0.07650 1.07300
C91 C 0.6337(12) 0.04485(16) 1.0286(8)
H57 H 0.74230 0.04490 1.08330
C92 C 0.5957(14) 0.02501(17) 0.9527(9)
H58 H 0.67500 0.01160 0.95860
C93 C 0.4393(13) 0.02607(16) 0.8703(8)
H59 H 0.41530 0.01350 0.81720
C94 C 0.3147(12) 0.04565(16) 0.8641(8)
H60 H 0.20850 0.04610 0.80770
Cu1* Cu -0.35231(12) 0.471184(16) 0.41986(8)
Cu1** Cu 1.64769(12) 0.471184(16) 0.41986(8)
Cu2* Cu -0.20851(14) 0.320611(16) 0.42650(8)
Cu2** Cu 1.79149(14) 0.320611(16) 0.42650(8)
Cu3* Cu -0.27410(14) 0.172684(16) 0.4029(1)
Cu3** Cu 1.72590(14) 0.172684(16) 0.4029(1)
Cu4* Cu -0.45000(12) 0.022820(16) 0.39221(8)
Cu4** Cu 1.55000(12) 0.022820(16) 0.39221(8)
N12* N 0.8179(9) 0.48321(12) 0.3159(6)
N15* N 0.4767(10) 0.46686(14) 0.5365(6)
N18* N 0.9347(12) 0.31248(15) 0.2304(8)
N21* N 0.6567(11) 0.33014(14) 0.6058(6)
N24* N 0.8797(13) 0.17554(18) 0.1974(8)
N27* N 0.5764(13) 0.17055(17) 0.5907(7)
N30* N 0.723(1) 0.01011(12) 0.2909(6)
N33* N 0.3806(9) 0.02692(12) 0.5078(6)
#END
