
#######################################################################
#
#                 Cambridge Crystallographic Data Centre
#                                CCDC
#
#######################################################################
#
# If this CIF has been generated from an entry in the Cambridge
# Structural Database, then it will include bibliographic, chemical,
# crystal, experimental, refinement or atomic coordinate data resulting
# from the CCDC's data processing and validation procedures.
#
#######################################################################

data_CSD_CIF_TEXVOJ
_audit_creation_date 2013-05-24
_audit_creation_method CSD-ConQuest-V1
_database_code_CSD TEXVOJ
_database_code_depnum_ccdc_archive 'CCDC 855419'
_chemical_formula_sum 'C16 H38 Br5 Cd6 N41 O1'
_chemical_formula_moiety
;
(C8 H20 N1 1+)n,n(C8 H16 Br5 Cd6 N40 1-),n(H2 O1)
;
_journal_coden_Cambridge 1350
_journal_volume 15
_journal_year 2013
_journal_page_first 903
_journal_name_full 'CrystEngComm '
loop_
_publ_author_name
"Jian-Di Lin"
"Shuai-Hua Wang"
"Li-Zhen Cai"
"Fa-Kun Zheng"
"Guo-Cong Guo"
"Jin-Shun Huang"
_chemical_name_systematic
;
catena-[Tetraethylammonium 
tris(\m~4~-5-aminotetrazolyl)-tetrakis(\m~3~-5-aminotetrazolyl)-(\m~2~-5-amino
tetrazolyl)-pentakis(\m~2~-bromo)-hexa-cadmium(ii) monohydrate]
;
_cell_volume   9948.461
_exptl_crystal_colour 'colorless'
_exptl_crystal_density_diffrn 2.53
_exptl_crystal_description 'prism'
_diffrn_ambient_temperature 293
#These two values have been output from a single CSD field.
_refine_ls_R_factor_gt 0.0366
_refine_ls_wR_factor_gt 0.0366
_symmetry_cell_setting orthorhombic
_symmetry_space_group_name_H-M 'P b c a'
_symmetry_Int_Tables_number 61
loop_
_symmetry_equiv_pos_site_id
_symmetry_equiv_pos_as_xyz
1 x,y,z
2 1/2-x,-y,1/2+z
3 -x,1/2+y,1/2-z
4 1/2+x,1/2-y,-z
5 -x,-y,-z
6 -1/2+x,y,-1/2-z
7 x,-1/2-y,-1/2+z
8 -1/2-x,-1/2+y,z
_cell_length_a 19.052(2)
_cell_length_b 18.588(2)
_cell_length_c 28.092(4)
_cell_angle_alpha 90
_cell_angle_beta 90
_cell_angle_gamma 90
_cell_formula_units_Z 8
loop_
_atom_type_symbol
_atom_type_radius_bond
C 0.68
H 0.23
Br 1.21
Cd 1.44
N 0.68
O 0.68
loop_
_atom_site_label
_atom_site_type_symbol
_atom_site_fract_x
_atom_site_fract_y
_atom_site_fract_z
Cd1 Cd -0.230721(9) -0.358769(9) 0.585225(6)
Cd2 Cd -0.148156(9) -0.294056(9) 0.466579(6)
Cd3 Cd -0.229149(10) -0.117116(9) 0.417845(6)
Cd4 Cd -0.328926(9) 0.047292(9) 0.365545(6)
Cd5 Cd -0.231922(10) 0.118333(10) 0.252215(6)
Cd6 Cd -0.144055(9) 0.191778(9) 0.135367(6)
Br1 Br -0.097292(14) -0.340853(17) 0.551079(10)
Br2 Br -0.099749(14) -0.157371(14) 0.453133(10)
Br3 Br -0.369025(14) -0.087333(14) 0.388554(10)
Br4 Br -0.366674(15) 0.059207(17) 0.273126(10)
Br5 Br -0.102016(15) 0.180335(16) 0.229677(10)
N1 N -0.21616(12) -0.46148(11) 0.63104(7)
N2 N -0.18477(12) -0.52127(11) 0.61449(7)
N3 N -0.18987(11) -0.57163(11) 0.64582(7)
N4 N -0.22402(12) -0.54703(12) 0.68500(8)
N5 N -0.27390(15) -0.43334(13) 0.70411(9)
H1 H -0.28240 -0.38990 0.69540
H2 H -0.28730 -0.44810 0.73170
N6 N -0.30958(11) -0.19337(11) 0.55901(7)
N7 N -0.26265(11) -0.24434(11) 0.54611(7)
N8 N -0.24222(11) -0.23297(11) 0.50309(7)
N9 N -0.27387(11) -0.17324(11) 0.48556(7)
N10 N -0.35919(12) -0.09302(12) 0.51735(8)
H3 H -0.36120 -0.06870 0.49140
H4 H -0.38480 -0.08100 0.54130
N11 N -0.06694(11) -0.40409(12) 0.39326(8)
N12 N -0.06351(11) -0.34338(12) 0.41921(8)
N13 N -0.00060(11) -0.31688(12) 0.41826(8)
N14 N 0.03976(11) -0.35968(12) 0.39129(8)
N15 N 0.01910(13) -0.46907(14) 0.34898(10)
H5 H -0.01050 -0.50180 0.34090
H6 H 0.06200 -0.47170 0.33950
N16 N -0.23402(11) -0.00563(11) 0.45882(7)
N17 N -0.27349(11) 0.04917(11) 0.44169(7)
N18 N -0.28086(11) 0.09804(11) 0.47363(7)
N19 N -0.24689(11) 0.07838(11) 0.51390(7)
N20 N -0.17998(12) -0.02639(12) 0.53403(8)
H7 H -0.16350 -0.06740 0.52520
H8 H -0.17190 -0.01080 0.56230
N21 N -0.12768(12) -0.06613(12) 0.32813(9)
N22 N -0.18654(11) -0.05366(11) 0.35296(8)
N23 N -0.21864(11) 0.00279(11) 0.33664(8)
N24 N -0.18234(12) 0.02970(12) 0.29982(8)
N25 N -0.07474(16) -0.00498(16) 0.26322(11)
H9 H -0.07650 0.02990 0.24310
H10 H -0.04010 -0.03460 0.26260
N26 N -0.26223(11) 0.27880(11) 0.37250(7)
N27 N -0.28875(11) 0.21714(11) 0.39043(7)
N28 N -0.28013(11) 0.16567(11) 0.35958(7)
N29 N -0.24813(12) 0.19148(11) 0.32062(7)
N30 N -0.20729(13) 0.30806(12) 0.29857(8)
H11 H -0.19370 0.29350 0.27100
H12 H -0.20180 0.35240 0.30660
N31 N -0.28345(12) 0.21002(12) 0.20920(8)
N32 N -0.25460(11) 0.23365(12) 0.16818(8)
N33 N -0.29144(12) 0.28753(12) 0.15252(8)
N34 N -0.34582(12) 0.30134(13) 0.18166(8)
N35 N -0.38417(14) 0.24688(16) 0.25367(9)
H13 H -0.41880 0.27620 0.25630
H14 H -0.37770 0.21410 0.27480
N36 N -0.10934(12) 0.31198(12) 0.12681(8)
N37 N -0.14798(12) 0.35828(12) 0.10651(9)
N38 N -0.11815(13) 0.42192(13) 0.10503(10)
N39 N -0.05494(13) 0.41621(13) 0.12533(10)
N40 N 0.00535(12) 0.32001(14) 0.16352(9)
H15 H 0.03980 0.34760 0.17130
H16 H 0.00600 0.27530 0.17140
C1 C -0.23928(16) -0.47869(14) 0.67442(9)
C2 C -0.31569(13) -0.15029(13) 0.52065(8)
C3 C -0.00168(13) -0.41359(15) 0.37656(10)
C4 C -0.21871(13) 0.01373(13) 0.50322(9)
C5 C -0.12638(16) -0.01321(16) 0.29579(11)
C6 C -0.23720(13) 0.26117(14) 0.32937(9)
C7 C -0.33944(14) 0.25230(16) 0.21583(10)
C8 C -0.05095(14) 0.34757(15) 0.13847(10)
N41 N -0.52014(13) 0.14600(14) 0.10060(9)
C9 C -0.53633(19) 0.18905(19) 0.05622(13)
H17 H -0.51330 0.16640 0.02930
H18 H -0.51670 0.23690 0.05980
C10 C -0.6145(3) 0.1959(3) 0.0453(2)
H19 H -0.62070 0.22370 0.01680
H20 H -0.63760 0.21950 0.07130
H21 H -0.63430 0.14890 0.04090
C11 C -0.44111(17) 0.1435(2) 0.10267(13)
H22 H -0.42450 0.12200 0.07330
H23 H -0.42410 0.19270 0.10320
C12 C -0.4082(3) 0.1048(3) 0.14250(18)
H24 H -0.35800 0.10750 0.13950
H25 H -0.42260 0.05540 0.14190
H26 H -0.42230 0.12640 0.17200
C13 C -0.5503(2) 0.0700(2) 0.09653(16)
H27 H -0.53450 0.04210 0.12370
H28 H -0.60100 0.07300 0.09820
C14 C -0.5304(3) 0.0305(2) 0.05179(18)
H29 H -0.55140 -0.01650 0.05200
H30 H -0.48030 0.02590 0.05020
H31 H -0.54690 0.05690 0.02460
C15 C -0.5507(3) 0.1796(2) 0.14422(15)
H32 H -0.54050 0.14880 0.17120
H33 H -0.60130 0.18130 0.14060
C16 C -0.5251(2) 0.2541(2) 0.15545(16)
H34 H -0.54760 0.27110 0.18390
H35 H -0.53610 0.28570 0.12950
H36 H -0.47520 0.25310 0.16020
O1 O -0.0602(2) 0.3871(2) 0.25184(14)
H37 H -0.0838(4) 0.3485(3) 0.2518(7)
H38 H -0.0310(4) 0.3837(11) 0.2746(3)
Cd1A Cd -0.269279(9) 0.358769(9) 0.085225(6)
Cd1G Cd -0.269279(9) 0.141231(9) 0.585225(6)
Cd2G Cd -0.351844(9) 0.205944(9) 0.466579(6)
Cd3G Cd -0.270851(10) 0.382884(9) 0.417845(6)
Cd4G Cd -0.171074(9) -0.452708(9) 0.365545(6)
Cd5F Cd -0.231922(10) -0.618333(10) 0.752215(6)
Cd6A Cd -0.355945(9) -0.191778(9) 0.635367(6)
Cd6B Cd 0.144055(9) -0.308222(9) 0.364633(6)
Cd6F Cd -0.144055(9) -0.691778(9) 0.635367(6)
N3F N -0.18987(11) 0.07163(11) 0.14582(7)
N4F N -0.22402(12) 0.04703(12) 0.18500(8)
N6A N -0.19042(11) 0.19337(11) 0.05901(7)
N11G N -0.43306(11) 0.09591(12) 0.39326(8)
N14B N -0.03976(11) 0.14032(12) 0.10871(8)
N18G N -0.21914(11) -0.40196(11) 0.47363(7)
N19G N -0.25311(11) -0.42162(11) 0.51390(7)
N26G N -0.23777(11) -0.22120(11) 0.37250(7)
N27G N -0.21125(11) -0.28286(11) 0.39043(7)
N33A N -0.20856(12) -0.28753(12) 0.65252(8)
N37A N -0.35202(12) -0.35828(12) 0.60651(9)
#END
