
#######################################################################
#
#                 Cambridge Crystallographic Data Centre
#                                CCDC
#
#######################################################################
#
# If this CIF has been generated from an entry in the Cambridge
# Structural Database, then it will include bibliographic, chemical,
# crystal, experimental, refinement or atomic coordinate data resulting
# from the CCDC's data processing and validation procedures.
#
#######################################################################

data_CSD_CIF_TEYLEQ
_audit_creation_date 2013-05-24
_audit_creation_method CSD-ConQuest-V1
_database_code_CSD TEYLEQ
_database_code_depnum_ccdc_archive 'CCDC 853827'
_chemical_formula_sum 'C38 H35 N4 Na1 O11 V1'
_chemical_formula_moiety
;
(C31 H19 N1 Na1 O10 V1 1-)n,n(C4 H9 N2 1+),n(C3 H7 N1 O1)
;
_journal_coden_Cambridge 222
_journal_volume 42
_journal_year 2013
_journal_page_first 9699
_journal_name_full 'Dalton Trans. '
loop_
_publ_author_name
"Shizhen Du"
"Jun Feng"
"Xiaoming Lu"
"Guo Wang"
_chemical_name_systematic
;
catena-[3,4,5,6-tetrahydropyrimidin-1-ium 
bis(\m~3~-9,10-dioxo-9,10-dihydroanthracene-1,2-diolato)-(N,N-dimethylformamid
e)-oxo-sodium-vanadium N,N-dimethylformamide solvate]
;
_cell_volume   3603.979
_exptl_crystal_density_diffrn 1.47
_diffrn_ambient_temperature 298
#These two values have been output from a single CSD field.
_refine_ls_R_factor_gt 0.0987
_refine_ls_wR_factor_gt 0.0987
_symmetry_cell_setting monoclinic
_symmetry_space_group_name_H-M 'P 21/c'
_symmetry_Int_Tables_number 14
loop_
_symmetry_equiv_pos_site_id
_symmetry_equiv_pos_as_xyz
1 x,y,z
2 -x,1/2+y,1/2-z
3 -x,-y,-z
4 x,-1/2-y,-1/2+z
_cell_length_a 10.0680(11)
_cell_length_b 12.8419(14)
_cell_length_c 29.029(3)
_cell_angle_alpha 90
_cell_angle_beta 106.212(2)
_cell_angle_gamma 90
_cell_formula_units_Z 4
loop_
_atom_type_symbol
_atom_type_radius_bond
C 0.68
H 0.23
N 0.68
Na 1.66
O 0.68
V 1.53
loop_
_atom_site_label
_atom_site_type_symbol
_atom_site_fract_x
_atom_site_fract_y
_atom_site_fract_z
V1 V 0.81273(16) 0.59756(12) 0.66961(5)
Na1 Na 0.4569(4) 0.6477(3) 0.62984(12)
N1 N 0.0159(19) 0.7613(15) 0.5680(8)
O1 O 0.6743(6) 0.6348(4) 0.61014(19)
O2 O 0.8967(6) 0.5329(5) 0.62426(19)
O3 O 0.4402(7) 0.7056(5) 0.5474(2)
O4 O 0.5881(7) 0.5206(5) 0.4044(2)
O5 O 0.6538(6) 0.5876(5) 0.6951(2)
O6 O 0.8694(6) 0.4763(5) 0.7108(2)
O7 O 0.3950(7) 0.6071(5) 0.7053(3)
O8 O 0.5124(8) 0.3170(5) 0.8425(3)
O9 O 0.9014(7) 0.6966(5) 0.6938(2)
O10 O 0.2017(14) 0.6590(11) 0.6032(5)
C1 C 0.7005(8) 0.5989(6) 0.5710(3)
C2 C 0.8239(9) 0.5411(7) 0.5785(3)
C3 C 0.8622(9) 0.4996(7) 0.5405(3)
H1 H 0.94610 0.46480 0.54550
C4 C 0.7739(9) 0.5103(7) 0.4948(3)
H2 H 0.79740 0.47940 0.46910
C5 C 0.6531(9) 0.5650(7) 0.4862(3)
C6 C 0.6137(9) 0.6127(6) 0.5245(3)
C7 C 0.4853(9) 0.6701(7) 0.5152(3)
C8 C 0.4069(10) 0.6886(7) 0.4639(3)
C9 C 0.4442(10) 0.6401(7) 0.4276(3)
C10 C 0.5630(9) 0.5696(7) 0.4366(3)
C11 C 0.2937(10) 0.7535(8) 0.4537(4)
H3 H 0.26760 0.78510 0.47870
C12 C 0.2177(12) 0.7725(9) 0.4065(4)
H4 H 0.14330 0.81840 0.39950
C13 C 0.2557(12) 0.7217(9) 0.3708(4)
H5 H 0.20320 0.73100 0.33920
C14 C 0.3671(11) 0.6583(8) 0.3801(4)
H6 H 0.39260 0.62690 0.35500
C15 C 0.6608(9) 0.5133(6) 0.7276(3)
C16 C 0.7860(9) 0.4529(6) 0.7369(3)
C17 C 0.8086(10) 0.3734(7) 0.7706(3)
H7 H 0.88900 0.33370 0.77730
C18 C 0.7104(10) 0.3551(7) 0.7937(3)
H8 H 0.72560 0.30130 0.81610
C19 C 0.5900(9) 0.4115(7) 0.7861(3)
C20 C 0.5625(9) 0.4913(6) 0.7509(3)
C21 C 0.4306(9) 0.5465(7) 0.7395(3)
C22 C 0.3382(10) 0.5274(7) 0.7695(3)
C23 C 0.367(1) 0.4518(7) 0.8055(3)
C24 C 0.4931(10) 0.3870(7) 0.8131(3)
C25 C 0.2161(10) 0.5850(8) 0.7624(4)
H9 H 0.19590 0.63750 0.73940
C26 C 0.1276(11) 0.5650(9) 0.7886(4)
H10 H 0.04560 0.60270 0.78250
C27 C 0.1543(11) 0.4921(9) 0.8234(4)
H11 H 0.09220 0.48070 0.84140
C28 C 0.2745(11) 0.4348(8) 0.8321(4)
H12 H 0.29350 0.38440 0.85600
C29 C 0.100(2) 0.7068(18) 0.6030(9)
H13 H 0.07530 0.70540 0.63160
C30 C 0.028(2) 0.7531(19) 0.5210(9)
H14 H 0.11900 0.72870 0.52210
H15 H 0.01310 0.82010 0.50580
H16 H -0.03960 0.70480 0.50310
C31 C -0.086(2) 0.8153(17) 0.5820(8)
H17 H -0.10960 0.77780 0.60730
H18 H -0.16680 0.82210 0.55520
H19 H -0.05240 0.88320 0.59330
N2 N 0.0998(11) 0.3845(8) 0.6640(5)
H20 H 0.01130 0.37740 0.64630
N3 N 0.2161(13) 0.2660(9) 0.7262(4)
H21 H 0.17530 0.20860 0.73360
C32 C 0.1816(15) 0.3542(12) 0.6331(5)
H22 H 0.19900 0.41400 0.61520
H23 H 0.13290 0.30210 0.61040
C33 C 0.3161(15) 0.3106(13) 0.6635(6)
H24 H 0.36510 0.28070 0.64230
H25 H 0.37150 0.36800 0.68030
C34 C 0.3083(16) 0.2301(12) 0.6996(6)
H26 H 0.27450 0.16510 0.68360
H27 H 0.39950 0.21810 0.72130
C35 C 0.1088(13) 0.3382(11) 0.7076(5)
H28 H 0.04530 0.35420 0.72440
N4 N 0.301(9) 0.034(8) 0.569(3)
O11 O 0.121(5) 0.064(4) 0.5952(18)
C36 C 0.20(1) -0.001(11) 0.585(4)
H29 H 0.18770 -0.07240 0.58920
C37 C 0.405(6) -0.035(4) 0.5572(19)
H30 H 0.39030 -0.10510 0.56580
H31 H 0.49610 -0.01260 0.57470
H32 H 0.39520 -0.03090 0.52340
C38 C 0.349(5) 0.143(5) 0.5752(18)
H33 H 0.28810 0.18580 0.55130
H34 H 0.44110 0.14740 0.57160
H35 H 0.34970 0.16740 0.60650
Na1A Na 0.5431(4) 0.1477(3) 0.87016(12)
Na1B Na 0.5431(4) 0.3523(3) 0.37016(12)
O4B O 0.4119(7) 0.4794(5) 0.5956(2)
O8A O 0.4876(8) 0.8170(5) 0.6575(3)
#END
