
#######################################################################
#
#                 Cambridge Crystallographic Data Centre
#                                CCDC
#
#######################################################################
#
# If this CIF has been generated from an entry in the Cambridge
# Structural Database, then it will include bibliographic, chemical,
# crystal, experimental, refinement or atomic coordinate data resulting
# from the CCDC's data processing and validation procedures.
#
#######################################################################

data_CSD_CIF_TEYMOC
_audit_creation_date 2018-05-03
_audit_creation_method CSD-ConQuest-V1
_database_code_CSD TEYMOC
_database_code_depnum_ccdc_archive 'CCDC 1582011'
_chemical_formula_sum 'C79.94 H24 Cl3 Fe13 N96 O15.88'
_chemical_formula_moiety
;
Fe1 3+,n(C72 H24 Cl3 Fe12 N96 3-),7.94(C1 O2)
;
_journal_coden_Cambridge 1475
_journal_volume 9
_journal_year 2018
_journal_page_first 4579
_journal_name_full 'Chemical Science '
loop_
_publ_author_name
"M.Asgari"
"S.Jawahery"
"E.D.Bloch"
"M.R.Hudson"
"R.Flacau"
"B.Vlaisavljevich"
"J.R.Long"
"C.M.Brown"
"W.L.Queen"
_chemical_name_systematic
;
catena-[iron 
octakis(\m-5,5',5''-(benzene-1,3,5-triyl)tris(tetrazolato))-tris(\m-chloro)-do
deca-iron octakis(carbon dioxide) clathrate]
;
_cell_volume   6751.783
_exptl_special_details
;
powder data
The full structure and nature of the disorder modelled is unclear in the 
;
_diffrn_ambient_temperature 10
_diffrn_radiation_probe 'neutron'
_refine_special_details
;
The structure is disordered. The authors state that the isolated metal cation 
included in the structure is surrounded by solvent molecules that could not 
be modelled from the diffraction data.
;
#These two values have been output from a single CSD field.
_refine_ls_R_factor_gt 0.0235
_refine_ls_wR_factor_gt 0.0235
_symmetry_cell_setting cubic
_symmetry_space_group_name_H-M 'P m -3 m'
_symmetry_Int_Tables_number 221
loop_
_symmetry_equiv_pos_site_id
_symmetry_equiv_pos_as_xyz
1 x,y,z
2 z,x,y
3 y,z,x
4 -z,x,-y
5 -y,-z,x
6 y,-z,-x
7 -x,y,-z
8 -z,-x,y
9 x,-y,-z
10 y,x,-z
11 -z,y,x
12 x,-z,y
13 -x,-y,z
14 z,-x,-y
15 -y,z,-x
16 -y,-x,-z
17 -z,-y,-x
18 -x,-z,-y
19 z,-y,x
20 x,z,-y
21 -x,z,y
22 y,-x,z
23 z,y,-x
24 -y,x,z
25 -x,-y,-z
26 -z,-x,-y
27 -y,-z,-x
28 z,-x,y
29 y,z,-x
30 -y,z,x
31 x,-y,z
32 z,x,-y
33 -x,y,z
34 -y,-x,z
35 z,-y,-x
36 -x,z,-y
37 x,y,-z
38 -z,x,y
39 y,-z,x
40 y,x,z
41 z,y,x
42 x,z,y
43 -z,y,-x
44 -x,-z,y
45 x,-z,-y
46 -y,x,-z
47 -z,-y,x
48 y,-x,-z
_cell_length_a 18.90048(32)
_cell_length_b 18.90048
_cell_length_c 18.90048
_cell_angle_alpha 90
_cell_angle_beta 90
_cell_angle_gamma 90
_cell_formula_units_Z 1
loop_
_atom_type_symbol
_atom_type_radius_bond
C 0.68
H 0.23
Cl 0.99
Fe 1.52
N 0.68
O 0.68
loop_
_atom_site_label
_atom_site_type_symbol
_atom_site_fract_x
_atom_site_fract_y
_atom_site_fract_z
Fe1 Fe 0.1331(4) 0.50000 0.00000
C1 C 0.15171(32) 0.3369(4) -0.15171(32)
C2 C 0.18118(30) 0.2724(4) -0.18118(30)
C3 C 0.24214(27) 0.24214(27) -0.1470(4)
Cl1 Cl 0.00000 0.50000 0.00000
N1 N 0.13058(21) 0.42070(19) -0.08111(22)
N2 N 0.17655(22) 0.36792(21) -0.09175(21)
H1 H 0.2633(5) 0.2633(5) -0.1073(6)
Fe2 Fe 0.2678(27) 0.00000 0.00000
C4? C 0.00000 0.135(4) 0.135(4)
O1? O 0.00000 0.076(5) 0.118(5)
O2? O 0.00000 0.194(5) 0.153(5)
C5? C 0.00000 0.2854(17) 0.0404(19)
O3? O 0.00000 0.240(5) 0.081(6)
O4? O 0.00000 0.3308(4) 0.00000
C6? C 0.3013(10) 0.50000 0.0538(10)
H2? H 0.2772(19) 0.50000 0.1009(9)
H3? H 0.3296(14) 0.4532(8) 0.0489(17)
O5? O 0.2482(6) 0.50000 0.00000
O6? O 0.2582(15) 0.50000 0.00000
O7? O 0.3078(32) 0.3881(17) 0.00000
C7? C 0.2849(20) 0.4448(12) 0.00000
C1C C 0.15171(32) 0.15171(40) -0.33690(32)
C2C C 0.18118(30) 0.18118(40) -0.2724(3)
C3C C 0.14700(27) 0.24214(27) -0.24214(40)
N1C N 0.08111(21) 0.13058(19) -0.42070(22)
N2C N 0.09175(22) 0.17655(21) -0.36792(21)
H1C H 0.1073(5) 0.2633(5) -0.2633(6)
C1E C 0.33690(32) 0.15171(40) -0.15171(32)
C2E C 0.2724(3) 0.18118(40) -0.18118(30)
C3E C 0.24214(27) 0.14700(27) -0.24214(40)
N1E N 0.42070(21) 0.08111(19) -0.13058(22)
N2E N 0.36792(22) 0.09175(21) -0.17655(21)
H1E H 0.2633(5) 0.1073(5) -0.2633(6)
N1MA N 0.42070(21) 0.13058(19) -0.08111(22)
N2MA N 0.36792(22) 0.17655(21) -0.09175(21)
N1PA N 0.08111(21) 0.42070(19) -0.13058(22)
N2PA N 0.09175(22) 0.36792(21) -0.17655(21)
N1RA N 0.13058(21) 0.08111(19) -0.42070(22)
N2RA N 0.17655(22) 0.09175(21) -0.36792(21)
C1JA C 0.15171(32) 0.3369(4) 0.15171(32)
C2JA C 0.18118(30) 0.2724(4) 0.18118(30)
C3JA C 0.24214(27) 0.24214(27) 0.1470(4)
N1JA N 0.13058(21) 0.42070(19) 0.08111(22)
N2JA N 0.17655(22) 0.36792(21) 0.09175(21)
H1JA H 0.2633(5) 0.2633(5) 0.1073(6)
C1KA C 0.15171(32) 0.15171(40) 0.33690(32)
C2KA C 0.18118(30) 0.18118(40) 0.2724(3)
C3KA C 0.14700(27) 0.24214(27) 0.24214(40)
N1KA N 0.08111(21) 0.13058(19) 0.42070(22)
N2KA N 0.09175(22) 0.17655(21) 0.36792(21)
H1KA H 0.1073(5) 0.2633(5) 0.2633(6)
C1LA C 0.33690(32) 0.15171(40) 0.15171(32)
C2LA C 0.2724(3) 0.18118(40) 0.18118(30)
C3LA C 0.24214(27) 0.14700(27) 0.24214(40)
N1LA N 0.42070(21) 0.08111(19) 0.13058(22)
N2LA N 0.36792(22) 0.09175(21) 0.17655(21)
H1LA H 0.2633(5) 0.1073(5) 0.2633(6)
N1I N 0.42070(21) 0.13058(19) 0.08111(22)
N2I N 0.36792(22) 0.17655(21) 0.09175(21)
N1J N 0.08111(21) 0.42070(19) 0.13058(22)
N2J N 0.09175(22) 0.36792(21) 0.17655(21)
N1K N 0.13058(21) 0.08111(19) 0.42070(22)
N2K N 0.17655(22) 0.09175(21) 0.36792(21)
Fe1A Fe 0.0000(4) 0.13310 0.50000
Cl1A Cl 0.00000 0.00000 0.50000
Fe1B Fe 0.5000(4) 0.00000 0.13310
Cl1B Cl 0.50000 0.00000 0.00000
Fe1A* Fe 0.0000(4) 0.13310 -0.50000
Fe1B* Fe -0.5000(4) 0.00000 0.13310
C1D C -0.33690(32) 0.15171(40) 0.15171(32)
C2D C -0.2724(3) 0.18118(40) 0.18118(30)
C3D C -0.24214(27) 0.14700(27) 0.24214(40)
N1D N -0.42070(21) 0.08111(19) 0.13058(22)
N2D N -0.36792(22) 0.09175(21) 0.17655(21)
H1D H -0.2633(5) 0.1073(5) 0.2633(6)
C1F C -0.15171(32) 0.3369(4) 0.15171(32)
C2F C -0.18118(30) 0.2724(4) 0.18118(30)
C3F C -0.24214(27) 0.24214(27) 0.1470(4)
N1F N -0.13058(21) 0.42070(19) 0.08111(22)
N2F N -0.17655(22) 0.36792(21) 0.09175(21)
H1F H -0.2633(5) 0.2633(5) 0.1073(6)
C1A C -0.15171(32) 0.15171(40) 0.33690(32)
C2A C -0.18118(30) 0.18118(40) 0.2724(3)
C3A C -0.14700(27) 0.24214(27) 0.24214(40)
N1A N -0.08111(21) 0.13058(19) 0.42070(22)
N2A N -0.09175(22) 0.17655(21) 0.36792(21)
H1A H -0.1073(5) 0.2633(5) 0.2633(6)
N1QA N -0.13058(21) 0.08111(19) 0.42070(22)
N2QA N -0.17655(22) 0.09175(21) 0.36792(21)
N1SA N -0.42070(21) 0.13058(19) 0.08111(22)
N2SA N -0.36792(22) 0.17655(21) 0.09175(21)
N1NA N -0.08111(21) 0.42070(19) 0.13058(22)
N2NA N -0.09175(22) 0.36792(21) 0.17655(21)
Fe1E Fe 0.5000(4) 0.00000 -0.13310
Fe1F Fe -0.1331(4) 0.50000 0.00000
Fe1G Fe 0.0000(4) -0.13310 0.50000
C1G C 0.15171(32) -0.15171(40) 0.33690(32)
C2G C 0.18118(30) -0.18118(40) 0.2724(3)
C3G C 0.14700(27) -0.24214(27) 0.24214(40)
N1G N 0.08111(21) -0.13058(19) 0.42070(22)
N2G N 0.09175(22) -0.17655(21) 0.36792(21)
H1G H 0.1073(5) -0.2633(5) 0.2633(6)
C1B C 0.33690(32) -0.15171(40) 0.15171(32)
C2B C 0.2724(3) -0.18118(40) 0.18118(30)
C3B C 0.24214(27) -0.14700(27) 0.24214(40)
N1B N 0.42070(21) -0.08111(19) 0.13058(22)
N2B N 0.36792(22) -0.09175(21) 0.17655(21)
H1B H 0.2633(5) -0.1073(5) 0.2633(6)
C1H C 0.15171(32) -0.3369(4) 0.15171(32)
C2H C 0.18118(30) -0.2724(4) 0.18118(30)
C3H C 0.24214(27) -0.24214(27) 0.1470(4)
N1H N 0.13058(21) -0.42070(19) 0.08111(22)
N2H N 0.17655(22) -0.36792(21) 0.09175(21)
H1H H 0.2633(5) -0.2633(5) 0.1073(6)
N1TA N 0.08111(21) -0.42070(19) 0.13058(22)
N2TA N 0.09175(22) -0.36792(21) 0.17655(21)
N1OA N 0.13058(21) -0.08111(19) 0.42070(22)
N2OA N 0.17655(22) -0.09175(21) 0.36792(21)
N1UA N 0.42070(21) -0.13058(19) 0.08111(22)
N2UA N 0.36792(22) -0.17655(21) 0.09175(21)
Fe1MA Fe 0.5000(4) 0.13310 0.00000
Fe1NA Fe 0.0000(4) 0.50000 0.13310
Fe1PA Fe 0.0000(4) 0.50000 -0.13310
C1Y C 0.15171(32) -0.15171(40) -0.33690(32)
C2Y C 0.18118(30) -0.18118(40) -0.2724(3)
C3Y C 0.14700(27) -0.24214(27) -0.24214(40)
N1Y N 0.08111(21) -0.13058(19) -0.42070(22)
N2Y N 0.09175(22) -0.17655(21) -0.36792(21)
H1Y H 0.1073(5) -0.2633(5) -0.2633(6)
C1BA C 0.33690(32) -0.15171(40) -0.15171(32)
C2BA C 0.2724(3) -0.18118(40) -0.18118(30)
C3BA C 0.24214(27) -0.14700(27) -0.24214(40)
N1BA N 0.42070(21) -0.08111(19) -0.13058(22)
N2BA N 0.36792(22) -0.09175(21) -0.17655(21)
H1BA H 0.2633(5) -0.1073(5) -0.2633(6)
C1DA C 0.15171(32) -0.3369(4) -0.15171(32)
C2DA C 0.18118(30) -0.2724(4) -0.18118(30)
C3DA C 0.24214(27) -0.24214(27) -0.1470(4)
N1DA N 0.13058(21) -0.42070(19) -0.08111(22)
N2DA N 0.17655(22) -0.36792(21) -0.09175(21)
H1DA H 0.2633(5) -0.2633(5) -0.1073(6)
N1P N 0.08111(21) -0.42070(19) -0.13058(22)
N2P N 0.09175(22) -0.36792(21) -0.17655(21)
N1S N 0.13058(21) -0.08111(19) -0.42070(22)
N2S N 0.17655(22) -0.09175(21) -0.36792(21)
N1U N 0.42070(21) -0.13058(19) -0.08111(22)
N2U N 0.36792(22) -0.17655(21) -0.09175(21)
C1Z C -0.33690(32) 0.15171(40) -0.15171(32)
C2Z C -0.2724(3) 0.18118(40) -0.18118(30)
C3Z C -0.24214(27) 0.14700(27) -0.24214(40)
N1Z N -0.42070(21) 0.08111(19) -0.13058(22)
N2Z N -0.36792(22) 0.09175(21) -0.17655(21)
H1Z H -0.2633(5) 0.1073(5) -0.2633(6)
C1FA C -0.15171(32) 0.3369(4) -0.15171(32)
C2FA C -0.18118(30) 0.2724(4) -0.18118(30)
C3FA C -0.24214(27) 0.24214(27) -0.1470(4)
N1FA N -0.13058(21) 0.42070(19) -0.08111(22)
N2FA N -0.17655(22) 0.36792(21) -0.09175(21)
H1FA H -0.2633(5) 0.2633(5) -0.1073(6)
C1EA C -0.15171(32) 0.15171(40) -0.33690(32)
C2EA C -0.18118(30) 0.18118(40) -0.2724(3)
C3EA C -0.14700(27) 0.24214(27) -0.24214(40)
N1EA N -0.08111(21) 0.13058(19) -0.42070(22)
N2EA N -0.09175(22) 0.17655(21) -0.36792(21)
H1EA H -0.1073(5) 0.2633(5) -0.2633(6)
N1Q N -0.13058(21) 0.08111(19) -0.42070(22)
N2Q N -0.17655(22) 0.09175(21) -0.36792(21)
N1W N -0.42070(21) 0.13058(19) -0.08111(22)
N2W N -0.36792(22) 0.17655(21) -0.09175(21)
N1V N -0.08111(21) 0.42070(19) -0.13058(22)
N2V N -0.09175(22) 0.36792(21) -0.17655(21)
C1L C -0.15171(32) -0.3369(4) -0.15171(32)
C2L C -0.18118(30) -0.2724(4) -0.18118(30)
C3L C -0.24214(27) -0.24214(27) -0.1470(4)
N1L N -0.13058(21) -0.42070(19) -0.08111(22)
N2L N -0.17655(22) -0.36792(21) -0.09175(21)
H1L H -0.2633(5) -0.2633(5) -0.1073(6)
C1M C -0.15171(32) -0.15171(40) -0.33690(32)
C2M C -0.18118(30) -0.18118(40) -0.2724(3)
C3M C -0.14700(27) -0.24214(27) -0.24214(40)
N1M N -0.08111(21) -0.13058(19) -0.42070(22)
N2M N -0.09175(22) -0.17655(21) -0.36792(21)
H1M H -0.1073(5) -0.2633(5) -0.2633(6)
C1N C -0.33690(32) -0.15171(40) -0.15171(32)
C2N C -0.2724(3) -0.18118(40) -0.18118(30)
C3N C -0.24214(27) -0.14700(27) -0.24214(40)
N1N N -0.42070(21) -0.08111(19) -0.13058(22)
N2N N -0.36792(22) -0.09175(21) -0.17655(21)
H1N H -0.2633(5) -0.1073(5) -0.2633(6)
N1GA N -0.42070(21) -0.13058(19) -0.08111(22)
N2GA N -0.36792(22) -0.17655(21) -0.09175(21)
N1HA N -0.08111(21) -0.42070(19) -0.13058(22)
N2HA N -0.09175(22) -0.36792(21) -0.17655(21)
N1IA N -0.13058(21) -0.08111(19) -0.42070(22)
N2IA N -0.17655(22) -0.09175(21) -0.36792(21)
Fe1UA Fe -0.5000(4) -0.13310 0.00000
C1X C -0.15171(32) -0.3369(4) 0.15171(32)
C2X C -0.18118(30) -0.2724(4) 0.18118(30)
C3X C -0.24214(27) -0.24214(27) 0.1470(4)
N1X N -0.13058(21) -0.42070(19) 0.08111(22)
N2X N -0.17655(22) -0.36792(21) 0.09175(21)
H1X H -0.2633(5) -0.2633(5) 0.1073(6)
C1AA C -0.15171(32) -0.15171(40) 0.33690(32)
C2AA C -0.18118(30) -0.18118(40) 0.2724(3)
C3AA C -0.14700(27) -0.24214(27) 0.24214(40)
N1AA N -0.08111(21) -0.13058(19) 0.42070(22)
N2AA N -0.09175(22) -0.17655(21) 0.36792(21)
H1AA H -0.1073(5) -0.2633(5) 0.2633(6)
C1CA C -0.33690(32) -0.15171(40) 0.15171(32)
C2CA C -0.2724(3) -0.18118(40) 0.18118(30)
C3CA C -0.24214(27) -0.14700(27) 0.24214(40)
N1CA N -0.42070(21) -0.08111(19) 0.13058(22)
N2CA N -0.36792(22) -0.09175(21) 0.17655(21)
H1CA H -0.2633(5) -0.1073(5) 0.2633(6)
N1O N -0.42070(21) -0.13058(19) 0.08111(22)
N2O N -0.36792(22) -0.17655(21) 0.09175(21)
N1R N -0.08111(21) -0.42070(19) 0.13058(22)
N2R N -0.09175(22) -0.36792(21) 0.17655(21)
N1T N -0.13058(21) -0.08111(19) 0.42070(22)
N2T N -0.17655(22) -0.09175(21) 0.36792(21)
Fe1* Fe 0.1331(4) -0.50000 0.00000
Fe1E* Fe -0.5000(4) 0.00000 -0.13310
Fe1F* Fe -0.1331(4) -0.50000 0.00000
Fe1G* Fe 0.0000(4) -0.13310 -0.50000
Fe1MA* Fe -0.5000(4) 0.13310 0.00000
Fe1NA* Fe 0.0000(4) -0.50000 0.13310
Fe1OA Fe 0.1331(4) 0.00000 -0.50000
Fe1OA* Fe 0.1331(4) 0.00000 0.50000
Fe1PA* Fe 0.0000(4) -0.50000 -0.13310
Fe1QA Fe -0.1331(4) 0.00000 -0.50000
Fe1QA* Fe -0.1331(4) 0.00000 0.50000
Fe1UA* Fe 0.5000(4) -0.13310 0.00000
Cl1A* Cl 0.00000 0.00000 -0.50000
Cl1B* Cl -0.50000 0.00000 0.00000
N1A* N -0.08111(21) 0.13058(19) -0.57930(22)
N1B* N -0.57930(21) -0.08111(19) 0.13058(22)
N1KA* N 0.08111(21) 0.13058(19) -0.57930(22)
N1LA* N -0.57930(21) 0.08111(19) 0.13058(22)
N1C* N 0.08111(21) 0.13058(19) 0.57930(22)
N1D* N 0.57930(21) 0.08111(19) 0.13058(22)
N1H* N 0.13058(21) 0.57930(19) 0.08111(22)
N1SA* N 0.57930(21) 0.13058(19) 0.08111(22)
N1TA* N 0.08111(21) 0.57930(19) 0.13058(22)
N1UA* N -0.57930(21) -0.13058(19) 0.08111(22)
N1X* N -0.13058(21) 0.57930(19) 0.08111(22)
N1Y* N 0.08111(21) -0.13058(19) 0.57930(22)
N1Z* N 0.57930(21) 0.08111(19) -0.13058(22)
N1L* N -0.13058(21) 0.57930(19) -0.08111(22)
N1M* N -0.08111(21) -0.13058(19) 0.57930(22)
N1N* N 0.57930(21) -0.08111(19) -0.13058(22)
N1CA* N 0.57930(21) -0.08111(19) 0.13058(22)
N1DA* N 0.13058(21) 0.57930(19) -0.08111(22)
N1EA* N -0.08111(21) 0.13058(19) 0.57930(22)
N1P* N 0.08111(21) 0.57930(19) -0.13058(22)
N1HA* N -0.08111(21) 0.57930(19) -0.13058(22)
N1R* N -0.08111(21) 0.57930(19) 0.13058(22)
N1U* N -0.57930(21) -0.13058(19) -0.08111(22)
N1W* N 0.57930(21) 0.13058(19) -0.08111(22)
#END
