
#######################################################################
#
#                 Cambridge Crystallographic Data Centre
#                                CCDC
#
#######################################################################
#
# If this CIF has been generated from an entry in the Cambridge
# Structural Database, then it will include bibliographic, chemical,
# crystal, experimental, refinement or atomic coordinate data resulting
# from the CCDC's data processing and validation procedures.
#
#######################################################################

data_CSD_CIF_TEYSAT
_audit_creation_date 2013-05-24
_audit_creation_method CSD-ConQuest-V1
_database_code_CSD TEYSAT
_database_code_depnum_ccdc_archive 'CCDC 853512'
_chemical_formula_sum 'C134 H80 Dy4 Fe1 N20 O56'
_chemical_formula_moiety
;
(C49 H28 Dy2 N7 O28 1-)2n,n(C36 H24 Fe1 N6 2+)
;
_journal_coden_Cambridge 154
_journal_volume 65
_journal_year 2012
_journal_page_first 1436
_journal_name_full 'Aust.J.Chem. '
loop_
_publ_author_name
"Feng Luo"
"Yu-Mei Song"
"Hai-Xiao Huang"
"Xiao-Zhao Tian"
"Gong-Ming Sun"
"Yan Zhu"
"Xue-Feng Feng"
_chemical_name_systematic
;
catena-(bis(heptakis(\m~2~-3-nitrobenzoato)-tetra-dysprosium(iii)) 
tris(1,10-phenanthroline)-iron)
;
_cell_volume  13493.634
_exptl_crystal_colour 'red'
_exptl_crystal_density_diffrn 1.757
_exptl_crystal_description 'Block'
_diffrn_ambient_temperature 296
_refine_special_details
;
The structure is disordered.

;
#These two values have been output from a single CSD field.
_refine_ls_R_factor_gt 0.0311
_refine_ls_wR_factor_gt 0.0311
_symmetry_cell_setting monoclinic
_symmetry_space_group_name_H-M 'C 2/c'
_symmetry_Int_Tables_number 15
loop_
_symmetry_equiv_pos_site_id
_symmetry_equiv_pos_as_xyz
1 x,y,z
2 -x,y,1/2-z
3 1/2+x,1/2+y,z
4 1/2-x,1/2+y,1/2-z
5 -x,-y,-z
6 x,-y,-1/2+z
7 -1/2-x,-1/2-y,-z
8 -1/2+x,-1/2-y,-1/2+z
_cell_length_a 34.8229(5)
_cell_length_b 14.4775(2)
_cell_length_c 27.4317(4)
_cell_angle_alpha 90
_cell_angle_beta 102.656(1)
_cell_angle_gamma 90
_cell_formula_units_Z 4
loop_
_atom_type_symbol
_atom_type_radius_bond
C 0.68
H 0.23
Dy 1.92
Fe 1.52
N 0.68
O 0.68
loop_
_atom_site_label
_atom_site_type_symbol
_atom_site_fract_x
_atom_site_fract_y
_atom_site_fract_z
C1 C 0.00090(18) 0.7100(3) 0.12208(19)
H1 H -0.00010 0.75290 0.09660
C2 C -0.03328(15) 0.6641(3) 0.12750(17)
C3 C -0.02978(13) 0.6014(3) 0.16722(16)
C4 C -0.07166(18) 0.6739(4) 0.09521(19)
H2 H -0.07490 0.71450 0.06830
C5 C 0.01260(13) 0.3879(3) 0.15886(19)
H3 H 0.01480 0.44510 0.14420
C6 C 0.00341(14) 0.3022(3) 0.22543(17)
C7 C 0.00644(18) 0.2194(4) 0.2005(3)
C8 C 0.01543(14) 0.3092(4) 0.1308(2)
H4 H 0.01960 0.31380 0.09850
C9 C -0.06225(13) 0.5528(3) 0.17540(16)
C10 C -0.09947(15) 0.5646(3) 0.14322(18)
C11 C -0.13090(15) 0.5150(4) 0.1540(2)
H5 H -0.15590 0.52030 0.13360
C12 C -0.12464(15) 0.4586(4) 0.1948(2)
H6 H -0.14550 0.42610 0.20280
C13 C -0.08672(14) 0.4501(3) 0.22467(19)
H7 H -0.08300 0.41080 0.25210
C14 C -0.10290(17) 0.6263(4) 0.1028(2)
H8 H -0.12720 0.63410 0.08090
C15 C 0.03657(15) 0.6284(3) 0.19311(18)
H9 H 0.06060 0.61760 0.21510
C16 C 0.03541(16) 0.6913(3) 0.15427(19)
H10 H 0.05840 0.72040 0.15050
C17 C 0.0028(3) 0.1352(4) 0.2269(3)
H11 H 0.00430 0.07900 0.21100
C18 C 0.01193(19) 0.2249(4) 0.1518(3)
H12 H 0.01320 0.17130 0.13360
Fe1 Fe 0.00000 0.48910(5) 0.25000
N1 N -0.05624(10) 0.4947(2) 0.21580(13)
N2 N 0.00692(10) 0.3868(2) 0.20522(14)
N3 N 0.00505(10) 0.5831(2) 0.20018(13)
C19 C 0.61096(11) 0.2554(3) 0.54038(16)
C20 C 0.46862(11) 0.3381(3) 0.50705(15)
C21 C 0.47392(12) 0.4793(3) 0.40446(16)
C22 C 0.44847(11) 0.4622(3) 0.35365(15)
C23 C 0.46291(14) 0.4158(3) 0.31739(16)
H13 H 0.48910 0.39680 0.32410
C24 C 0.44905(12) 0.2462(3) 0.50976(16)
C25 C 0.46193(12) 0.1685(3) 0.48822(16)
H14 H 0.48310 0.17210 0.47280
C26 C 0.44262(14) 0.0860(3) 0.49021(19)
C27 C 0.62455(12) 0.2282(3) 0.59400(16)
C28 C 0.63398(12) 0.4818(3) 0.38314(15)
C29 C 0.62114(12) 0.4110(3) 0.41667(15)
C30 C 0.61183(13) 0.5594(3) 0.36902(16)
H15 H 0.58840 0.56900 0.37920
C31 C 0.77266(13) 0.4168(3) 0.49038(17)
C32 C 0.73847(13) 0.2248(3) 0.40374(17)
C33 C 0.73153(12) 0.1973(3) 0.34968(16)
C34 C 0.69333(13) 0.1983(3) 0.32052(18)
H16 H 0.67230 0.21860 0.33350
C35 C 0.41776(13) 0.2379(3) 0.53283(19)
H17 H 0.40830 0.29000 0.54620
C36 C 0.70853(12) 0.5485(3) 0.60272(17)
H18 H 0.72510 0.50230 0.59570
C37 C 0.66927(11) 0.5502(3) 0.57939(16)
C38 C 0.65146(12) 0.4756(3) 0.54398(17)
C39 C 0.66922(12) 0.4701(3) 0.36797(17)
H19 H 0.68420 0.41740 0.37780
C40 C 0.62549(16) 0.6230(3) 0.33906(18)
C41 C 0.76976(12) 0.5163(3) 0.47678(17)
C42 C 0.73411(13) 0.5617(3) 0.47028(16)
H20 H 0.71190 0.53160 0.47610
C43 C 0.80232(14) 0.5633(3) 0.4686(2)
H21 H 0.82620 0.53250 0.47270
C44 C 0.72259(15) 0.6173(4) 0.63675(19)
C45 C 0.64569(13) 0.6214(3) 0.58916(18)
H22 H 0.61940 0.62380 0.57240
C46 C 0.65447(12) 0.1661(3) 0.60818(17)
H23 H 0.66540 0.13690 0.58420
C47 C 0.43872(18) 0.3973(4) 0.27105(19)
C48 C 0.40949(12) 0.4894(3) 0.34285(17)
H24 H 0.39920 0.52140 0.36650
C49 C 0.41253(15) 0.0768(3) 0.5147(2)
H25 H 0.40070 0.01970 0.51650
C50 C 0.76187(14) 0.1680(3) 0.32893(18)
H26 H 0.78740 0.16850 0.34820
C51 C 0.68239(15) 0.5348(4) 0.33880(19)
H27 H 0.70610 0.52620 0.32920
C52 C 0.6997(2) 0.6865(4) 0.6477(2)
H28 H 0.71020 0.73130 0.67110
C53 C 0.73224(16) 0.6517(4) 0.45514(19)
C54 C 0.7644(2) 0.6989(4) 0.4469(2)
H29 H 0.76210 0.76010 0.43630
C55 C 0.7176(2) 0.1378(4) 0.2509(2)
H30 H 0.71260 0.11770 0.21790
C56 C 0.68773(18) 0.1685(4) 0.2721(2)
C57 C 0.60862(16) 0.2694(4) 0.6298(2)
H31 H 0.58760 0.31000 0.62030
C58 C 0.66841(16) 0.1471(4) 0.6581(2)
C59 C 0.66033(17) 0.6118(4) 0.32411(18)
H32 H 0.66880 0.65610 0.30420
C60 C 0.40016(15) 0.1529(4) 0.5363(2)
H33 H 0.37990 0.14770 0.55340
C61 C 0.40055(19) 0.4248(4) 0.2609(2)
H34 H 0.38440 0.41370 0.22970
C62 C 0.38599(16) 0.4689(5) 0.2970(2)
C63 C 0.75519(19) 0.1375(4) 0.2797(2)
H35 H 0.77610 0.11710 0.26640
C64 C 0.8001(2) 0.6543(4) 0.4545(3)
H36 H 0.82250 0.68550 0.45010
C65 C 0.66082(19) 0.6896(4) 0.6238(2)
H37 H 0.64470 0.73690 0.63060
C66 C 0.6533(2) 0.1905(5) 0.6944(2)
H38 H 0.66320 0.17840 0.72810
C67 C 0.6231(2) 0.2518(5) 0.6794(2)
H39 H 0.61230 0.28180 0.70330
Dy1 Dy 0.553622(5) 0.434127(12) 0.489185(7)
Dy2 Dy 0.689636(5) 0.282020(13) 0.493361(8)
N4 N 0.64720(19) 0.1686(5) 0.2416(2)
N5 N 0.60234(18) 0.7065(3) 0.32416(19)
N6 N 0.69403(18) 0.6998(4) 0.4464(2)
N7 N 0.76508(17) 0.6154(5) 0.6609(2)
N8 N 0.7026(2) 0.0844(4) 0.6724(3)
N9 N 0.45494(16) 0.0061(3) 0.4647(2)
N10 N 0.3460(3) 0.4760(11) 0.2881(4)
O1 O 0.49981(7) 0.33927(18) 0.49154(11)
O2 O 0.50822(8) 0.4478(2) 0.41238(10)
O3 O 0.45956(8) 0.5238(2) 0.43514(11)
O4 O 0.45217(8) 0.40803(19) 0.52052(11)
O5 O 0.57913(8) 0.29929(19) 0.52701(11)
O6 O 0.63258(7) 0.23209(19) 0.51191(10)
O7 O 0.61528(8) 0.4774(2) 0.52917(13)
O8 O 0.67394(9) 0.4159(2) 0.53319(14)
O9 O 0.77355(8) 0.2337(2) 0.42678(11)
O10 O 0.80614(8) 0.37975(19) 0.50011(12)
O11 O 0.58851(8) 0.4202(2) 0.42747(11)
O12 O 0.64496(8) 0.3467(2) 0.43066(11)
O13 O 0.70855(8) 0.2360(2) 0.42117(11)
O14 O 0.74129(8) 0.3746(2) 0.49072(12)
O15 O 0.77818(14) 0.6843(4) 0.68462(19)
O16 O 0.78342(14) 0.5474(4) 0.6551(3)
O17 O 0.7164(2) 0.0757(4) 0.7160(2)
O18 O 0.7131(2) 0.0426(5) 0.6414(2)
O19 O 0.48082(14) 0.0156(3) 0.44185(16)
O20 O 0.43902(15) -0.0680(3) 0.4682(2)
O21 O 0.62110(15) 0.1997(4) 0.2599(2)
O22 O 0.64177(16) 0.1367(4) 0.19947(19)
O23 O 0.57990(15) 0.7336(3) 0.34932(19)
O24 O 0.60660(18) 0.7464(3) 0.28711(18)
O25 O 0.66804(13) 0.6643(4) 0.4625(2)
O26 O 0.69087(17) 0.7737(3) 0.42458(19)
O27 O 0.3239(3) 0.4256(9) 0.2566(4)
O28 O 0.3334(3) 0.5326(10) 0.3114(5)
N11? N 0.4493(3) 0.3433(7) 0.2351(4)
O29? O 0.4788(3) 0.2989(6) 0.2469(3)
O30? O 0.4303(3) 0.3433(7) 0.1925(3)
C5A C -0.01260(13) 0.3879(3) 0.34114(19)
H3A H -0.01480 0.44510 0.35580
C6A C -0.00341(14) 0.3022(3) 0.27457(17)
C7A C -0.00644(18) 0.2194(4) 0.2995(3)
C8A C -0.01543(14) 0.3092(4) 0.3692(2)
H4A H -0.01960 0.31380 0.40150
C17A C -0.0028(3) 0.1352(4) 0.2731(3)
H11A H -0.00430 0.07900 0.28900
C18A C -0.01193(19) 0.2249(4) 0.3482(3)
H12A H -0.01320 0.17130 0.36640
N2A N -0.00692(10) 0.3868(2) 0.29478(14)
C1A C -0.00090(18) 0.7100(3) 0.37792(19)
H1A H 0.00010 0.75290 0.40340
C2A C 0.03328(15) 0.6641(3) 0.37250(17)
C3A C 0.02978(13) 0.6014(3) 0.33278(16)
C4A C 0.07166(18) 0.6739(4) 0.40479(19)
H2A H 0.07490 0.71450 0.43170
C9A C 0.06225(13) 0.5528(3) 0.32460(16)
C10A C 0.09947(15) 0.5646(3) 0.35678(18)
C11A C 0.13090(15) 0.5150(4) 0.3460(2)
H5A H 0.15590 0.52030 0.36640
C12A C 0.12464(15) 0.4586(4) 0.3052(2)
H6A H 0.14550 0.42610 0.29720
C13A C 0.08672(14) 0.4501(3) 0.27533(19)
H7A H 0.08300 0.41080 0.24790
C14A C 0.10290(17) 0.6263(4) 0.3972(2)
H8A H 0.12720 0.63410 0.41910
C15A C -0.03657(15) 0.6284(3) 0.30689(18)
H9A H -0.06060 0.61760 0.28490
C16A C -0.03541(16) 0.6913(3) 0.34573(19)
H10A H -0.05840 0.72040 0.34950
N1A N 0.05624(10) 0.4947(2) 0.28420(13)
N3A N -0.00505(10) 0.5831(2) 0.29982(13)
Dy1D Dy 0.446378(5) 0.565873(12) 0.510815(7)
Dy2F Dy 0.810364(5) 0.217980(13) 0.506639(8)
O3D O 0.54044(8) 0.4762(2) 0.56486(11)
O4D O 0.54783(8) 0.59197(19) 0.47948(11)
O9F O 0.72645(8) 0.2663(2) 0.57322(11)
O10F O 0.69386(8) 0.12025(19) 0.49989(12)
#END
