
#######################################################################
#
#                 Cambridge Crystallographic Data Centre
#                                CCDC
#
#######################################################################
#
# If this CIF has been generated from an entry in the Cambridge
# Structural Database, then it will include bibliographic, chemical,
# crystal, experimental, refinement or atomic coordinate data resulting
# from the CCDC's data processing and validation procedures.
#
#######################################################################

data_CSD_CIF_TIBXUZ
_audit_creation_date 2013-05-24
_audit_creation_method CSD-ConQuest-V1
_database_code_CSD TIBXUZ
_database_code_depnum_ccdc_archive 'CCDC 848726'
_chemical_formula_sum 'C56 H96 Cu1 Mo8 N14 O26'
_chemical_formula_moiety
;
(C24 H24 Cu1 Mo8 N12 O26 2-)n,2n(C16 H36 N1 1+)
;
_journal_coden_Cambridge 179
_journal_volume 51
_journal_year 2012
_journal_page_first 7985
_journal_name_full 'Angew.Chem.,Int.Ed. '
loop_
_publ_author_name
"H.Fu"
"C.Qin"
"Y.Lu"
"Z.-M.Zhang"
"Y.-G.Li"
"Z.-M.Su"
"W.-L.Li"
"E.-B.Wang"
_chemical_name_systematic
;
catena-(bis(Tetra-n-butylammonium) 
hexakis(\m~3~-oxo)-bis(\m~2~-1,4-bis(1,2,4-triazol-1-ylmethyl)benzene)-octakis
(\m~2~-oxo)-dodecaoxo-copper-octa-molybdenum)
;
_cell_volume   7881.620
_exptl_crystal_colour 'light blue'
_exptl_crystal_density_diffrn 1.865
_exptl_special_details
;
The structures of compounds 2 and 3 in the paper are reported to contain the 
same alpha-octamolybdate unit, although there appear to be some long bonds in 
the case of compound 3, so the representations are slightly different
;
_exptl_crystal_description 'block'
_diffrn_ambient_temperature 153
#These two values have been output from a single CSD field.
_refine_ls_R_factor_gt 0.0527
_refine_ls_wR_factor_gt 0.0527
_symmetry_cell_setting monoclinic
_symmetry_space_group_name_H-M 'C 2/c'
_symmetry_Int_Tables_number 15
loop_
_symmetry_equiv_pos_site_id
_symmetry_equiv_pos_as_xyz
1 x,y,z
2 -x,y,1/2-z
3 1/2+x,1/2+y,z
4 1/2-x,1/2+y,1/2-z
5 -x,-y,-z
6 x,-y,-1/2+z
7 -1/2-x,-1/2-y,-z
8 -1/2+x,-1/2-y,-1/2+z
_cell_length_a 22.374(5)
_cell_length_b 26.008(5)
_cell_length_c 13.675(3)
_cell_angle_alpha 90
_cell_angle_beta 97.92(3)
_cell_angle_gamma 90
_cell_formula_units_Z 4
loop_
_atom_type_symbol
_atom_type_radius_bond
C 0.68
H 0.23
Cu 1.32
Mo 1.54
N 0.68
O 0.68
loop_
_atom_site_label
_atom_site_type_symbol
_atom_site_fract_x
_atom_site_fract_y
_atom_site_fract_z
Cu1 Cu 0.00000 0.25011(5) 0.25000
N1 N 0.0065(2) 0.1976(2) 0.3563(4)
N2 N 0.0391(2) 0.1593(2) 0.4949(4)
N3 N 0.0028(3) 0.3051(2) 0.3543(4)
C1 C 0.0347(3) 0.1455(3) 0.6724(5)
N4 N 0.0340(3) 0.3640(2) 0.4602(5)
C2 C 0.0464(3) 0.3381(3) 0.3816(5)
H1 H 0.08130 0.34270 0.35010
N5 N -0.0051(3) 0.1283(3) 0.4489(5)
N6 N -0.0197(3) 0.3483(3) 0.4854(5)
C3 C 0.0453(3) 0.1993(3) 0.4383(5)
H2 H 0.07400 0.22590 0.45440
C4 C -0.0371(4) 0.3124(3) 0.4194(6)
H3 H -0.07370 0.29360 0.41750
C5 C -0.0233(4) 0.1533(3) 0.3658(5)
H4 H -0.05450 0.14100 0.31730
C6 C 0.0731(3) 0.1453(3) 0.5896(5)
H5 H 0.10690 0.16990 0.60570
H6 H 0.09060 0.11060 0.58450
C7 C 0.0684(4) 0.4047(4) 0.5169(7)
H7 H 0.10760 0.40940 0.49210
H8 H 0.07660 0.39450 0.58720
C8 C 0.0401(4) 0.4894(4) 0.4355(7)
H9 H 0.06750 0.48240 0.39000
C9 C 0.0341(3) 0.4548(3) 0.5084(7)
C10 C 0.0171(5) 0.1013(3) 0.7116(7)
H10 H 0.02850 0.06940 0.68570
C11 C -0.0069(4) 0.4651(4) 0.5736(7)
H11 H -0.01230 0.44130 0.62420
C12 C 0.0171(5) 0.1907(4) 0.7115(7)
H12 H 0.02850 0.22250 0.68530
Mo1 Mo 0.19027(3) 0.27583(3) 0.27903(4)
Mo2 Mo 0.20340(3) 0.14589(2) 0.36212(4)
Mo3 Mo 0.30587(2) 0.23383(2) 0.42862(4)
Mo4 Mo 0.24465(3) 0.37756(2) 0.40745(5)
O1 O 0.2823(2) 0.16765(18) 0.4601(3)
O2 O 0.27430(19) 0.29410(19) 0.3676(3)
O3 O 0.1769(2) 0.34070(19) 0.3359(4)
O4 O 0.1159(2) 0.2565(2) 0.2591(4)
O5 O 0.1881(2) 0.12308(19) 0.4872(3)
O6 O 0.3758(2) 0.2275(2) 0.3959(4)
O7 O 0.2830(2) 0.3993(2) 0.3164(4)
O8 O 0.2051(2) 0.4299(2) 0.4370(4)
O9 O 0.2355(2) 0.2094(2) 0.3048(3)
O10 O 0.1313(2) 0.1511(2) 0.3066(4)
O11 O 0.3171(2) 0.25777(19) 0.5496(3)
O12 O 0.2065(3) 0.2921(2) 0.1657(4)
O13 O 0.2329(3) 0.0963(2) 0.3059(4)
N7 N 0.2437(4) 0.0789(3) 0.9859(6)
C13 C 0.2805(5) 0.0716(4) 0.9000(7)
H13 H 0.25230 0.07260 0.83760
H14 H 0.30810 0.10140 0.89940
C14 C 0.1985(5) 0.0381(5) 0.9914(10)
H15 H 0.17390 0.04780 1.04330
H16 H 0.22040 0.00620 1.01390
C15 C 0.2121(5) 0.1301(4) 0.9650(9)
H17 H 0.24340 0.15670 0.96220
H18 H 0.18810 0.12810 0.89860
C16 C 0.2851(5) 0.0805(5) 1.0835(7)
H19 H 0.25950 0.08490 1.13650
H20 H 0.30480 0.04650 1.09350
C17 C 0.3164(6) 0.0246(5) 0.9005(8)
H21 H 0.28940 -0.00560 0.89890
H22 H 0.34520 0.02300 0.96230
C18 C 0.4167(6) 0.1554(6) 1.216(1)
H23 H 0.43860 0.15150 1.28280
H24 H 0.39880 0.18980 1.20880
H25 H 0.44480 0.15090 1.16760
C19 C 0.3504(5) 0.0224(5) 0.8146(7)
H26 H 0.37040 -0.01160 0.81510
H27 H 0.32090 0.02420 0.75380
C20 C 0.3330(6) 0.1202(5) 1.0980(9)
H28 H 0.31440 0.15480 1.08920
H29 H 0.36030 0.11590 1.04740
C21 C 0.3690(6) 0.1165(7) 1.1992(8)
H30 H 0.34140 0.12060 1.24950
H31 H 0.38730 0.08190 1.20770
C22 C 0.0925(11) -0.0188(7) 0.868(3)
H32 H 0.10400 -0.05510 0.85900
H33 H 0.06040 -0.00720 0.81550
C23 C 0.3968(6) 0.0622(5) 0.8078(8)
H34 H 0.41510 0.05700 0.74750
H35 H 0.42800 0.05980 0.86540
H36 H 0.37800 0.09630 0.80610
C24 C 0.1544(8) 0.0249(8) 0.8961(15)
H37 H 0.18170 0.01590 0.84760
H38 H 0.13690 0.05860 0.87440
C25 C 0.1730(8) 0.1470(8) 1.0329(14)
H39 H 0.19720 0.15590 1.09680
H40 H 0.14490 0.11900 1.04450
C26 C 0.1302(11) 0.2032(9) 0.983(2)
H41 H 0.08840 0.19260 0.95790
H42 H 0.12840 0.22850 1.03670
C27 C 0.1518(12) 0.2222(12) 0.920(2)
H43 H 0.13690 0.25750 0.91050
H44 H 0.14100 0.20260 0.85900
H45 H 0.19580 0.22270 0.93750
C28 C 0.080(2) -0.0012(18) 0.997(3)
H46 H 0.04700 -0.02140 1.01630
H47 H 0.07080 0.03550 0.99980
H48 H 0.11730 -0.00840 1.04270
N1A N -0.0065(2) 0.1976(2) 1.1437(4)
N2A N -0.0391(2) 0.1593(2) 1.0051(4)
C1A C -0.0347(3) 0.1455(3) 0.8276(5)
N5A N 0.0051(3) 0.1283(3) 1.0511(5)
C3A C -0.0453(3) 0.1993(3) 1.0617(5)
H2A H -0.07400 0.22590 1.04560
C5A C 0.0233(4) 0.1533(3) 1.1342(5)
H4A H 0.05450 0.14100 1.18270
C6A C -0.0731(3) 0.1453(3) 0.9104(5)
H5A H -0.10690 0.16990 0.89430
H6A H -0.09060 0.11060 0.91550
C10A C -0.0171(5) 0.1013(3) 0.7884(7)
H10A H -0.02850 0.06940 0.81430
C12A C -0.0171(5) 0.1907(4) 0.7885(7)
H12A H -0.02850 0.22250 0.81470
N3D N -0.0028(3) 0.6949(2) 0.6457(4)
N4D N -0.0340(3) 0.6360(2) 0.5398(5)
C2D C -0.0464(3) 0.6619(3) 0.6184(5)
H1D H -0.08130 0.65730 0.64990
N6D N 0.0197(3) 0.6517(3) 0.5146(5)
C4D C 0.0371(4) 0.6876(3) 0.5806(6)
H3D H 0.07370 0.70640 0.58250
C7D C -0.0684(4) 0.5953(4) 0.4831(7)
H7D H -0.10760 0.59060 0.50790
H8D H -0.07660 0.60550 0.41280
C8D C -0.0401(4) 0.5106(4) 0.5645(7)
H9D H -0.06750 0.51760 0.61000
C9D C -0.0341(3) 0.5452(3) 0.4916(7)
C11D C 0.0069(4) 0.5349(4) 0.4264(7)
H11D H 0.01230 0.55870 0.37580
Mo1A Mo -0.19027(3) 0.27583(3) 0.22097(4)
Mo2A Mo -0.20340(3) 0.14589(2) 0.13788(4)
Mo3A Mo -0.30587(2) 0.23383(2) 0.07138(4)
Mo4A Mo -0.24465(3) 0.37756(2) 0.09255(5)
O1A O -0.2823(2) 0.16765(18) 0.0399(3)
O2A O -0.27430(19) 0.29410(19) 0.1324(3)
O3A O -0.1769(2) 0.34070(19) 0.1641(4)
O4A O -0.1159(2) 0.2565(2) 0.2409(4)
O5A O -0.1881(2) 0.12308(19) 0.0128(3)
O6A O -0.3758(2) 0.2275(2) 0.1041(4)
O7A O -0.2830(2) 0.3993(2) 0.1836(4)
O8A O -0.2051(2) 0.4299(2) 0.0630(4)
O9A O -0.2355(2) 0.2094(2) 0.1952(3)
O10A O -0.1313(2) 0.1511(2) 0.1934(4)
O11A O -0.3171(2) 0.25777(19) -0.0496(3)
O12A O -0.2065(3) 0.2921(2) 0.3343(4)
O13A O -0.2329(3) 0.0963(2) 0.1941(4)
Cu1* Cu 0.00000 0.25011(5) 1.25000
Cu1D Cu 0.00000 0.74989(5) 0.75000
N1A* N -0.0065(2) 0.1976(2) 0.1437(4)
N3A N -0.0028(3) 0.3051(2) 0.1457(4)
Mo1F Mo 0.30973(3) 0.22417(3) 0.72097(4)
Mo1G Mo -0.30973(3) 0.22417(3) -0.22097(4)
Mo4F Mo 0.25535(3) 0.12244(2) 0.59255(5)
Mo4G Mo -0.25535(3) 0.12244(2) -0.09255(5)
O1F O 0.2177(2) 0.33235(18) 0.5399(3)
O1G O -0.2177(2) 0.33235(18) -0.0399(3)
O5F O 0.3119(2) 0.37692(19) 0.5128(3)
O5G O -0.3119(2) 0.37692(19) -0.0128(3)
O11F O 0.1829(2) 0.24223(19) 0.4504(3)
O11G O -0.1829(2) 0.24223(19) 0.0496(3)
#END
