
#######################################################################
#
#                 Cambridge Crystallographic Data Centre
#                                CCDC
#
#######################################################################
#
# If this CIF has been generated from an entry in the Cambridge
# Structural Database, then it will include bibliographic, chemical,
# crystal, experimental, refinement or atomic coordinate data resulting
# from the CCDC's data processing and validation procedures.
#
#######################################################################

data_CSD_CIF_TIBXOT
_audit_creation_date 2013-05-24
_audit_creation_method CSD-ConQuest-V1
_database_code_CSD TIBXOT
_database_code_depnum_ccdc_archive 'CCDC 848727'
_chemical_formula_sum 'C112 H192 Cu2 Mo16 N28 O52'
_chemical_formula_moiety
;
(C48 H48 Cu2 Mo16 N24 O52 4-)n,4n(C16 H36 N1 1+)
;
_journal_coden_Cambridge 179
_journal_volume 51
_journal_year 2012
_journal_page_first 7985
_journal_name_full 'Angew.Chem.,Int.Ed. '
loop_
_publ_author_name
"H.Fu"
"C.Qin"
"Y.Lu"
"Z.-M.Zhang"
"Y.-G.Li"
"Z.-M.Su"
"W.-L.Li"
"E.-B.Wang"
_chemical_name_systematic
;
catena-(tetrakis(Tetra-n-butylammonium) 
tetrakis(\m~3~-oxo)-tetrakis(\m~2~-1,4-bis(1,2,4-triazol-1-ylmethyl)benzene)-t
etracosakis(\m~2~-oxo)-tetracosaoxo-di-copper-hexadeca-molybdenum)
;
_cell_volume   7938.322
_exptl_crystal_colour 'light blue'
_exptl_crystal_density_diffrn 1.851
_exptl_special_details
;
The structures of compounds 2 and 3 in the paper are reported to contain the 
same alpha-octamolybdate unit, although there appear to be some long bonds in 
the case of compound 3, so the representations are slightly different
;
_exptl_crystal_description 'block'
_diffrn_ambient_temperature 153
#These two values have been output from a single CSD field.
_refine_ls_R_factor_gt 0.0872
_refine_ls_wR_factor_gt 0.0872
_symmetry_cell_setting monoclinic
_symmetry_space_group_name_H-M 'P 21/c'
_symmetry_Int_Tables_number 14
loop_
_symmetry_equiv_pos_site_id
_symmetry_equiv_pos_as_xyz
1 x,y,z
2 -x,1/2+y,1/2-z
3 -x,-y,-z
4 x,-1/2-y,-1/2+z
_cell_length_a 21.785(4)
_cell_length_b 24.800(5)
_cell_length_c 14.725(3)
_cell_angle_alpha 90
_cell_angle_beta 93.76(3)
_cell_angle_gamma 90
_cell_formula_units_Z 2
loop_
_atom_type_symbol
_atom_type_radius_bond
C 0.68
H 0.23
Cu 1.32
Mo 1.54
N 0.68
O 0.68
loop_
_atom_site_label
_atom_site_type_symbol
_atom_site_fract_x
_atom_site_fract_y
_atom_site_fract_z
Mo1 Mo 0.19058(7) 0.51861(5) 0.03928(11)
Mo2 Mo 0.17694(7) 0.52440(6) 0.29806(11)
Mo3 Mo 0.32600(7) 0.51393(5) 0.19827(11)
Mo4 Mo 0.30800(7) 0.51581(5) 0.46382(12)
Mo5 Mo 0.28861(7) 0.63168(5) 0.34877(11)
Mo6 Mo 0.22035(7) 0.40322(5) 0.14787(11)
Mo7 Mo 0.26205(7) 0.39040(6) 0.38205(11)
Mo8 Mo 0.22440(7) 0.64376(6) 0.13094(12)
Cu1 Cu 0.00000 0.50000 0.00000
Cu2 Cu 0.50000 0.50000 0.50000
O1 O 0.2305(5) 0.4503(4) 0.0460(7)
O2 O 0.1004(5) 0.5219(5) 0.3107(9)
O3 O 0.3856(5) 0.5272(4) 0.4772(8)
O4 O 0.1750(6) 0.6919(4) 0.1629(9)
O5 O 0.4023(5) 0.5224(5) 0.1820(9)
O6 O 0.2816(5) 0.5460(4) 0.1067(8)
O7 O 0.2087(5) 0.5375(4) -0.0667(8)
O8 O 0.2654(5) 0.3503(4) 0.1242(8)
O9 O 0.1144(5) 0.4988(4) 0.0259(7)
O10 O 0.2749(4) 0.5855(4) 0.4507(7)
O11 O 0.2513(5) 0.6870(4) 0.3805(8)
O12 O 0.2881(6) 0.5009(5) 0.5694(8)
O13 O 0.1486(5) 0.3817(4) 0.1159(8)
O14 O 0.3110(5) 0.5431(4) 0.3073(7)
O15 O 0.1976(4) 0.5922(4) 0.2932(8)
O16 O 0.3188(5) 0.4418(4) 0.4137(8)
O17 O 0.3096(5) 0.4455(4) 0.2040(9)
O18 O 0.1722(4) 0.5881(4) 0.0924(8)
O19 O 0.3644(5) 0.6467(4) 0.3750(8)
O20 O 0.2163(5) 0.4920(4) 0.3929(7)
O21 O 0.1901(5) 0.4901(3) 0.1928(7)
O22 O 0.2105(5) 0.3953(4) 0.2773(7)
O23 O 0.3068(5) 0.3365(4) 0.3653(8)
O24 O 0.2548(5) 0.6673(5) 0.0378(9)
O25 O 0.2895(5) 0.6419(4) 0.2174(8)
O26 O 0.2195(5) 0.3751(4) 0.4689(8)
N1 N 0.0085(6) 0.4296(5) -0.0645(9)
N2 N -0.0102(6) 0.0361(5) -0.3807(9)
N3 N 0.5044(6) 0.9474(5) 0.1029(9)
N4 N 0.5209(6) 0.5552(5) 0.411(1)
N5 N -0.0051(6) 0.3690(5) -0.1668(10)
N6 N 0.0569(7) 0.3664(6) -0.1433(12)
N7 N 0.0161(7) 0.0786(5) -0.2571(10)
N8 N -0.0461(7) 0.0685(6) -0.2532(11)
N9 N 0.5071(6) 0.6059(5) 0.2922(10)
N10 N 0.5691(7) 0.5985(6) 0.3010(12)
N11 N 0.5350(6) 0.8946(5) 0.2153(10)
N12 N 0.4752(8) 0.9054(6) 0.2290(11)
C1 C 0.0346(8) 0.0587(6) -0.3297(14)
H1 H 0.07520 0.05990 -0.34520
C2 C -0.0312(8) 0.4062(6) -0.1232(11)
H2 H -0.07250 0.41550 -0.13170
C3 C 0.5742(8) 0.5688(7) 0.3706(13)
H3 H 0.61240 0.55640 0.39380
C4 C 0.4805(10) 0.5811(7) 0.3551(14)
H4 H 0.43820 0.58120 0.36090
C5 C 0.5023(7) 0.6979(6) 0.2359(12)
C6 C 0.5489(8) 0.7170(7) 0.1855(13)
H5 H 0.56550 0.69500 0.14240
C7 C 0.4776(9) 0.7313(8) 0.2996(13)
H6 H 0.44520 0.71930 0.33230
C8 C 0.4788(8) 0.6404(6) 0.2190(12)
H7 H 0.43430 0.63940 0.21980
H8 H 0.49020 0.62770 0.16010
C9 C 0.5509(8) 0.9202(6) 0.1426(12)
H9 H 0.59020 0.91940 0.12160
C10 C 0.4578(8) 0.9371(7) 0.1613(14)
H10 H 0.41840 0.95140 0.15280
C11 C 0.0603(8) 0.4041(6) -0.0816(13)
H11 H 0.09750 0.41280 -0.05060
C12 C 0.5011(8) 0.7818(6) 0.3140(11)
H12 H 0.48620 0.80360 0.35910
C13 C 0.5707(8) 0.7686(7) 0.1988(12)
H13 H 0.60180 0.78160 0.16450
C14 C 0.5690(8) 0.8578(6) 0.2785(12)
H14 H 0.61260 0.85980 0.26910
H15 H 0.56320 0.86850 0.34070
C15 C 0.5462(8) 0.8004(7) 0.2627(13)
C16 C -0.0135(8) 0.1916(7) -0.1484(13)
H16 H -0.03140 0.17040 -0.10520
C17 C -0.0590(9) 0.0431(7) -0.3293(12)
H17 H -0.09840 0.03080 -0.34690
C18 C 0.0327(8) 0.1698(7) -0.2007(14)
C19 C -0.0305(8) 0.3334(6) -0.2426(12)
H18 H -0.01680 0.34630 -0.30000
H19 H -0.07510 0.33480 -0.24580
C20 C 0.0347(8) 0.2547(6) -0.2769(13)
H20 H 0.05160 0.27600 -0.32070
C21 C -0.0095(7) 0.2756(6) -0.2275(12)
C22 C 0.0490(8) 0.1118(6) -0.1874(11)
H21 H 0.09300 0.10720 -0.19090
H22 H 0.03830 0.10030 -0.12750
C23 C -0.0322(7) 0.2446(7) -0.1615(13)
H23 H -0.06080 0.25920 -0.12440
C24 C 0.0554(8) 0.2026(7) -0.2642(13)
H24 H 0.08580 0.18950 -0.30010
N13 N 0.7439(6) 0.3377(5) 0.2705(9)
C25 C 0.8618(8) 0.3828(7) 0.4635(12)
H25 H 0.89080 0.39780 0.42300
H26 H 0.83680 0.41230 0.48370
C26 C 0.8200(8) 0.3430(7) 0.4097(12)
H27 H 0.84480 0.31620 0.38100
H28 H 0.79390 0.32450 0.45060
C27 C 0.8975(9) 0.3592(7) 0.5452(13)
H29 H 0.92250 0.38680 0.57490
H30 H 0.92350 0.33070 0.52600
H31 H 0.86940 0.34520 0.58690
C28 C 0.7061(7) 0.3770(6) 0.2081(12)
H32 H 0.68430 0.40100 0.24680
H33 H 0.73490 0.39890 0.17670
C29 C 0.6602(8) 0.3547(7) 0.1380(12)
H34 H 0.68040 0.32950 0.09940
H35 H 0.62840 0.33540 0.16770
C30 C 0.7811(8) 0.3724(6) 0.3389(12)
H36 H 0.80760 0.39560 0.30580
H37 H 0.75290 0.39540 0.36940
C31 C 0.7861(8) 0.3044(6) 0.2134(12)
H38 H 0.80560 0.27700 0.25240
H39 H 0.76060 0.28580 0.16680
C32 C 0.8357(8) 0.3337(6) 0.1674(11)
H40 H 0.81770 0.36230 0.12950
H41 H 0.86440 0.34980 0.21280
C33 C 0.6210(8) 0.2749(8) 0.4191(13)
H42 H 0.61080 0.24670 0.37510
H43 H 0.64850 0.25980 0.46700
C34 C 0.7031(8) 0.2980(6) 0.3194(13)
H44 H 0.68410 0.27380 0.27400
H45 H 0.72960 0.27630 0.36040
C35 C 0.5650(12) 0.294(1) 0.4579(19)
H46 H 0.54510 0.26450 0.48610
H47 H 0.53770 0.30890 0.41050
H48 H 0.57520 0.32130 0.50260
C36 C 0.6537(8) 0.3211(7) 0.3724(13)
H49 H 0.62440 0.34060 0.33220
H50 H 0.67120 0.34610 0.41780
C37 C 0.8689(8) 0.2949(6) 0.1104(13)
H51 H 0.84040 0.28060 0.06310
H52 H 0.88400 0.26500 0.14810
C38 C 0.6319(8) 0.3991(7) 0.0814(13)
H53 H 0.66460 0.42000 0.05670
H54 H 0.61010 0.42280 0.12060
C39 C 0.9230(9) 0.3212(8) 0.0664(14)
H55 H 0.94300 0.29490 0.03080
H56 H 0.95170 0.33500 0.11300
H57 H 0.90810 0.35030 0.02780
C40 C 0.5880(11) 0.3814(9) 0.0037(15)
H58 H 0.57220 0.41250 -0.02890
H59 H 0.55460 0.36160 0.02710
H60 H 0.60930 0.35870 -0.03680
N14 N 0.2432(7) 0.1475(5) 0.2584(12)
C41 C 0.1815(8) 0.1380(7) 0.2050(13)
H61 H 0.14920 0.14600 0.24530
H62 H 0.17800 0.16420 0.15600
C42 C 0.2930(7) 0.2060(6) 0.1381(12)
H63 H 0.29430 0.23610 0.18040
H64 H 0.25610 0.20930 0.09790
C43 C 0.3508(7) 0.2066(6) 0.0820(13)
H65 H 0.38690 0.20130 0.12310
H66 H 0.34830 0.17650 0.04000
C44 C 0.2366(9) 0.1977(7) 0.3149(13)
H67 H 0.27730 0.20930 0.33760
H68 H 0.21930 0.22610 0.27570
C45 C 0.2923(8) 0.1545(6) 0.1883(12)
H69 H 0.33240 0.14980 0.21990
H70 H 0.28700 0.12560 0.14410
C46 C 0.1976(9) 0.1917(7) 0.3937(13)
H71 H 0.22080 0.17380 0.44330
H72 H 0.16190 0.16990 0.37610
C47 C 0.1774(9) 0.2463(7) 0.4242(14)
H73 H 0.15500 0.26410 0.37350
H74 H 0.21350 0.26780 0.44110
C48 C 0.2590(8) 0.0983(7) 0.3164(13)
H75 H 0.22400 0.08970 0.35130
H76 H 0.26560 0.06800 0.27660
C49 C 0.3148(8) 0.1049(7) 0.3811(12)
H77 H 0.30260 0.12160 0.43670
H78 H 0.34370 0.12890 0.35400
C50 C 0.1042(11) 0.0850(8) 0.1066(16)
H79 H 0.07170 0.09310 0.14640
H80 H 0.10460 0.11330 0.06110
C51 C 0.3466(9) 0.0517(7) 0.4043(14)
H81 H 0.31700 0.02680 0.42750
H82 H 0.36140 0.03620 0.34940
C52 C 0.1688(9) 0.0846(7) 0.1650(15)
H83 H 0.16780 0.05790 0.21300
H84 H 0.20130 0.07480 0.12620
C53 C 0.4001(11) 0.0583(9) 0.4745(16)
H85 H 0.41890 0.02380 0.48670
H86 H 0.38550 0.07270 0.52960
H87 H 0.42980 0.08250 0.45150
C54 C 0.1371(9) 0.2443(7) 0.5036(14)
H88 H 0.12550 0.28020 0.51960
H89 H 0.15930 0.22760 0.55470
H90 H 0.10080 0.22360 0.48710
C55 C 0.3593(9) 0.2583(7) 0.0280(13)
H91 H 0.39590 0.25550 -0.00470
H92 H 0.36290 0.28840 0.06890
H93 H 0.32440 0.26350 -0.01440
C56 C 0.0906(11) 0.0329(10) 0.0607(18)
H94 H 0.05140 0.03490 0.02720
H95 H 0.08980 0.00480 0.10540
H96 H 0.12200 0.02520 0.01960
Mo1B Mo -0.19058(7) 0.48139(5) -0.03928(11)
Mo2B Mo -0.17694(7) 0.47560(6) -0.29806(11)
Mo3B Mo -0.32600(7) 0.48607(5) -0.19827(11)
Mo4B Mo -0.30800(7) 0.48419(5) -0.46382(12)
Mo5B Mo -0.28861(7) 0.36832(5) -0.34877(11)
Mo6B Mo -0.22035(7) 0.59678(5) -0.14787(11)
Mo7B Mo -0.26205(7) 0.60960(6) -0.38205(11)
Mo8B Mo -0.22440(7) 0.35624(6) -0.13094(12)
O1B O -0.2305(5) 0.5497(4) -0.0460(7)
O2B O -0.1004(5) 0.4781(5) -0.3107(9)
O3B O -0.3856(5) 0.4728(4) -0.4772(8)
O4B O -0.1750(6) 0.3081(4) -0.1629(9)
O5B O -0.4023(5) 0.4776(5) -0.1820(9)
O6B O -0.2816(5) 0.4540(4) -0.1067(8)
O7B O -0.2087(5) 0.4625(4) 0.0667(8)
O8B O -0.2654(5) 0.6497(4) -0.1242(8)
O9B O -0.1144(5) 0.5012(4) -0.0259(7)
O10B O -0.2749(4) 0.4145(4) -0.4507(7)
O11B O -0.2513(5) 0.3130(4) -0.3805(8)
O12B O -0.2881(6) 0.4991(5) -0.5694(8)
O13B O -0.1486(5) 0.6183(4) -0.1159(8)
O14B O -0.3110(5) 0.4569(4) -0.3073(7)
O15B O -0.1976(4) 0.4078(4) -0.2932(8)
O16B O -0.3188(5) 0.5582(4) -0.4137(8)
O17B O -0.3096(5) 0.5545(4) -0.2040(9)
O18B O -0.1722(4) 0.4119(4) -0.0924(8)
O19B O -0.3644(5) 0.3533(4) -0.3750(8)
O20B O -0.2163(5) 0.5080(4) -0.3929(7)
O21B O -0.1901(5) 0.5099(3) -0.1928(7)
O22B O -0.2105(5) 0.6047(4) -0.2773(7)
O23B O -0.3068(5) 0.6635(4) -0.3653(8)
O24B O -0.2548(5) 0.3327(5) -0.0378(9)
O25B O -0.2895(5) 0.3581(4) -0.2174(8)
O26B O -0.2195(5) 0.6249(4) -0.4689(8)
N1B N -0.0085(6) 0.5704(5) 0.0645(9)
N2B N 0.0102(6) 0.9639(5) 0.3807(9)
N5B N 0.0051(6) 0.6310(5) 0.1668(10)
N6B N -0.0569(7) 0.6336(6) 0.1433(12)
N7B N -0.0161(7) 0.9214(5) 0.2571(10)
N8B N 0.0461(7) 0.9315(6) 0.2532(11)
C1B C -0.0346(8) 0.9413(6) 0.3297(14)
H1B H -0.07520 0.94010 0.34520
C2B C 0.0312(8) 0.5938(6) 0.1232(11)
H2B H 0.07250 0.58450 0.13170
C11B C -0.0603(8) 0.5959(6) 0.0816(13)
H11B H -0.09750 0.58720 0.05060
C16B C 0.0135(8) 0.8084(7) 0.1484(13)
H16B H 0.03140 0.82960 0.10520
C17B C 0.0590(9) 0.9569(7) 0.3293(12)
H17B H 0.09840 0.96920 0.34690
C18B C -0.0327(8) 0.8302(7) 0.2007(14)
C19B C 0.0305(8) 0.6666(6) 0.2426(12)
H18B H 0.01680 0.65370 0.30000
H19B H 0.07510 0.66520 0.24580
C20B C -0.0347(8) 0.7453(6) 0.2769(13)
H20B H -0.05160 0.72400 0.32070
C21B C 0.0095(7) 0.7244(6) 0.2275(12)
C22B C -0.0490(8) 0.8882(6) 0.1874(11)
H21B H -0.09300 0.89280 0.19090
H22B H -0.03830 0.89970 0.12750
C23B C 0.0322(7) 0.7554(7) 0.1615(13)
H23B H 0.06080 0.74080 0.12440
C24B C -0.0554(8) 0.7974(7) 0.2642(13)
H24B H -0.08580 0.81050 0.30010
N3C N 0.5044(6) 0.5526(5) 0.6029(9)
N4C N 0.5209(6) 0.9448(5) 0.911(1)
N9C N 0.5071(6) 0.8941(5) 0.7922(10)
N10C N 0.5691(7) 0.9015(6) 0.8010(12)
N11C N 0.5350(6) 0.6054(5) 0.7153(10)
N12C N 0.4752(8) 0.5946(6) 0.7290(11)
C3C C 0.5742(8) 0.9312(7) 0.8706(13)
H3C H 0.61240 0.94360 0.89380
C4C C 0.4805(10) 0.9189(7) 0.8551(14)
H4C H 0.43820 0.91880 0.86090
C5C C 0.5023(7) 0.8021(6) 0.7359(12)
C6C C 0.5489(8) 0.7830(7) 0.6855(13)
H5C H 0.56550 0.80500 0.64240
C7C C 0.4776(9) 0.7687(8) 0.7996(13)
H6C H 0.44520 0.78070 0.83230
C8C C 0.4788(8) 0.8596(6) 0.7190(12)
H7C H 0.43430 0.86060 0.71980
H8C H 0.49020 0.87230 0.66010
C9C C 0.5509(8) 0.5798(6) 0.6426(12)
H9C H 0.59020 0.58060 0.62160
C10C C 0.4578(8) 0.5629(7) 0.6613(14)
H10C H 0.41840 0.54860 0.65280
C12C C 0.5011(8) 0.7182(6) 0.8140(11)
H12C H 0.48620 0.69640 0.85910
C13C C 0.5707(8) 0.7314(7) 0.6988(12)
H13C H 0.60180 0.71840 0.66450
C14C C 0.5690(8) 0.6422(6) 0.7785(12)
H14C H 0.61260 0.64020 0.76910
H15C H 0.56320 0.63150 0.84070
C15C C 0.5462(8) 0.6996(7) 0.7627(13)
Cu1A Cu 0.00000 0.00000 -0.50000
Cu1A* Cu 0.00000 1.00000 0.50000
Cu2* Cu -0.50000 0.50000 -0.50000
Cu2A Cu 0.50000 1.00000 0.00000
Cu2A* Cu 0.50000 1.00000 1.00000
O3B* O 0.6144(5) 0.4728(4) 0.5228(8)
N2A N 0.0102(6) 0.5361(5) -0.1193(9)
N2C N -0.0102(6) 0.4639(5) 0.1193(9)
N3A N 0.4956(6) 0.4474(5) 0.3971(9)
N4B N 0.4791(6) 0.4448(5) 0.589(1)
#END
