
#######################################################################
#
#                 Cambridge Crystallographic Data Centre
#                                CCDC
#
#######################################################################
#
# If this CIF has been generated from an entry in the Cambridge
# Structural Database, then it will include bibliographic, chemical,
# crystal, experimental, refinement or atomic coordinate data resulting
# from the CCDC's data processing and validation procedures.
#
#######################################################################

data_CSD_CIF_TIBYAG
_audit_creation_date 2013-05-24
_audit_creation_method CSD-ConQuest-V1
_database_code_CSD TIBYAG
_database_code_depnum_ccdc_archive 'CCDC 848725'
_chemical_formula_sum 'C56 H96 Cu1 Mo8 N14 O26'
_chemical_formula_moiety
;
(C24 H24 Cu1 Mo8 N12 O26 2-)n,2n(C16 H36 N1 1+)
;
_journal_coden_Cambridge 179
_journal_volume 51
_journal_year 2012
_journal_page_first 7985
_journal_name_full 'Angew.Chem.,Int.Ed. '
loop_
_publ_author_name
"H.Fu"
"C.Qin"
"Y.Lu"
"Z.-M.Zhang"
"Y.-G.Li"
"Z.-M.Su"
"W.-L.Li"
"E.-B.Wang"
_chemical_name_systematic
;
catena-(bis(Tetra-n-butylammonium) 
bis(\m~5~-oxo)-tetrakis(\m~3~-oxo)-bis(\m~2~-1,4-bis(1,2,4-triazol-1-ylmethyl)
benzene)-octakis(\m~2~-oxo)-dodecaoxo-copper-octa-molybdenum)
;
_cell_volume   4026.123
_exptl_crystal_colour 'light blue'
_exptl_crystal_density_diffrn 1.825
_exptl_crystal_description 'block'
_diffrn_ambient_temperature 153
#These two values have been output from a single CSD field.
_refine_ls_R_factor_gt 0.0421
_refine_ls_wR_factor_gt 0.0421
_symmetry_cell_setting monoclinic
_symmetry_space_group_name_H-M 'P 21/c'
_symmetry_Int_Tables_number 14
loop_
_symmetry_equiv_pos_site_id
_symmetry_equiv_pos_as_xyz
1 x,y,z
2 -x,1/2+y,1/2-z
3 -x,-y,-z
4 x,-1/2-y,-1/2+z
_cell_length_a 13.758(3)
_cell_length_b 17.565(4)
_cell_length_c 16.921(3)
_cell_angle_alpha 90
_cell_angle_beta 100.07(3)
_cell_angle_gamma 90
_cell_formula_units_Z 2
loop_
_atom_type_symbol
_atom_type_radius_bond
C 0.68
H 0.23
Cu 1.32
Mo 1.54
N 0.68
O 0.68
loop_
_atom_site_label
_atom_site_type_symbol
_atom_site_fract_x
_atom_site_fract_y
_atom_site_fract_z
Mo1 Mo 0.86260(3) 0.11948(2) 0.96184(3)
Mo2 Mo 0.77771(3) 0.01241(3) 1.09450(3)
Mo3 Mo 0.88367(3) -0.13174(2) 1.01641(3)
Mo4 Mo 0.96796(3) -0.02070(2) 0.89507(3)
Cu1 Cu 0.50000 0.00000 1.00000
O1 O 0.7838(3) -0.1405(2) 0.9419(2)
O2 O 0.7402(3) 0.0292(2) 1.1825(2)
O3 O 0.8994(3) -0.00286(19) 0.9963(2)
O4 O 0.8236(3) -0.0898(2) 1.1003(2)
O5 O 1.0671(3) -0.0281(2) 0.8432(2)
O6 O 0.9692(2) 0.08911(19) 0.9021(2)
O7 O 0.9857(2) -0.11927(18) 0.9471(2)
O8 O 0.7639(3) 0.0970(2) 0.8907(2)
O9 O 0.8065(3) 0.11118(19) 1.0574(2)
O10 O 0.8674(3) -0.0363(2) 0.8239(2)
O11 O 0.8750(3) 0.2149(2) 0.9541(2)
O12 O 0.6698(3) -0.0033(2) 1.0276(2)
N1 N 0.5156(3) 0.0104(3) 0.8830(3)
O13 O 0.9075(3) -0.2207(2) 1.0513(2)
N2 N 0.5830(3) 0.0180(3) 0.7765(3)
N3 N 0.4997(3) -0.3852(3) 0.4910(3)
C1 C 0.4975(3) 0.0569(3) 0.7580(3)
H1 H 0.47180 0.08250 0.70940
N4 N 0.5431(4) -0.2692(3) 0.4732(3)
C2 C 0.6545(4) 0.0163(3) 0.7222(3)
H2 H 0.72100 0.00850 0.75440
H3 H 0.65420 0.06660 0.69580
C3 C 0.4478(4) -0.2651(3) 0.4787(4)
H4 H 0.40730 -0.22100 0.47540
C4 C 0.5741(4) -0.3407(3) 0.4811(4)
H5 H 0.63950 -0.35740 0.47980
N5 N 0.4586(4) 0.0511(3) 0.8228(4)
C5 C 0.6369(4) -0.0438(3) 0.6586(3)
C6 C 0.5491(4) -0.0480(3) 0.6044(3)
H6 H 0.49600 -0.01530 0.61080
C7 C 0.5932(4) -0.0084(3) 0.8505(3)
H7 H 0.64820 -0.03690 0.87680
C8 C 0.6129(4) -0.1480(3) 0.5311(4)
C9 C 0.6022(5) -0.2015(3) 0.4610(4)
H8 H 0.57010 -0.17450 0.41200
H9 H 0.66840 -0.21800 0.45270
C10 C 0.7005(5) -0.1457(4) 0.5860(4)
H10 H 0.75260 -0.17970 0.58060
N6 N 0.4227(4) -0.3359(4) 0.4898(4)
C11 C 0.5371(4) -0.0989(3) 0.5415(4)
H11 H 0.47640 -0.10040 0.50480
C12 C 0.7118(5) -0.0938(4) 0.6489(4)
H12 H 0.77220 -0.09250 0.68600
N7 N 1.1069(4) -0.2216(3) 1.2994(3)
C13 C 1.2375(5) -0.1290(4) 1.4986(4)
H13 H 1.19360 -0.15210 1.53260
H14 H 1.29820 -0.16030 1.50440
C14 C 1.1838(5) -0.2071(3) 1.2475(3)
H15 H 1.19850 -0.15190 1.24850
H16 H 1.15530 -0.22080 1.19150
C15 C 1.1860(5) -0.1310(4) 1.4115(4)
H17 H 1.12890 -0.09570 1.40410
H18 H 1.23220 -0.11370 1.37650
C16 C 1.1507(5) -0.2107(4) 1.3877(3)
H19 H 1.10030 -0.22530 1.42010
H20 H 1.20710 -0.24610 1.40170
C17 C 1.2648(5) -0.0494(4) 1.5286(4)
H21 H 1.29730 -0.05160 1.58490
H22 H 1.20490 -0.01830 1.52400
H23 H 1.30980 -0.02670 1.49630
C18 C 1.0215(5) -0.1660(4) 1.2739(4)
H24 H 1.04680 -0.11330 1.28190
H25 H 0.99600 -0.17280 1.21590
C19 C 1.2808(6) -0.2505(4) 1.2717(4)
H26 H 1.31780 -0.22830 1.32190
H27 H 1.26620 -0.30430 1.28260
C20 C 0.9368(6) -0.1767(5) 1.3204(5)
H28 H 0.90670 -0.22750 1.30810
H29 H 0.96310 -0.17480 1.37870
C21 C 1.0715(6) -0.3037(3) 1.2892(4)
H30 H 1.12960 -0.33750 1.30240
H31 H 1.02790 -0.31390 1.32870
C22 C 1.3440(6) -0.2476(5) 1.2079(5)
H32 H 1.35930 -0.19380 1.19760
H33 H 1.30650 -0.26900 1.15750
C23 C 0.9941(6) -0.4128(4) 1.0881(4)
H34 H 1.02920 -0.45480 1.06730
H35 H 0.98560 -0.37090 1.04930
H36 H 0.92930 -0.43050 1.09670
C24 C 0.8595(6) -0.1169(5) 1.2999(5)
H37 H 0.83740 -0.11620 1.24100
H38 H 0.88870 -0.06660 1.31610
C25 C 1.0162(6) -0.3249(4) 1.2064(5)
H39 H 0.94740 -0.33740 1.21130
H40 H 1.01380 -0.27940 1.17160
C26 C 1.0537(8) -0.3852(6) 1.1674(5)
H41 H 1.06300 -0.42900 1.20480
H42 H 1.11990 -0.37020 1.15750
C27 C 0.7707(7) -0.1295(6) 1.3401(6)
H43 H 0.72260 -0.08870 1.32460
H44 H 0.79180 -0.12930 1.39850
H45 H 0.74040 -0.17870 1.32320
C28 C 1.4404(7) -0.2917(6) 1.2309(6)
H46 H 1.47880 -0.28800 1.18740
H47 H 1.42570 -0.34520 1.24000
H48 H 1.47850 -0.27000 1.28010
Mo1B Mo 0.13740(3) -0.11948(2) 1.03816(3)
Mo2B Mo 0.22229(3) -0.01241(3) 0.90550(3)
Mo3B Mo 0.11633(3) 0.13174(2) 0.98359(3)
Mo4B Mo 0.03204(3) 0.02070(2) 1.10493(3)
O1B O 0.2162(3) 0.1405(2) 1.0581(2)
O2B O 0.2598(3) -0.0292(2) 0.8175(2)
O3B O 0.1006(3) 0.00286(19) 1.0037(2)
O4B O 0.1764(3) 0.0898(2) 0.8997(2)
O5B O -0.0671(3) 0.0281(2) 1.1568(2)
O6B O 0.0308(2) -0.08911(19) 1.0979(2)
O7B O 0.0143(2) 0.11927(18) 1.0529(2)
O8B O 0.2361(3) -0.0970(2) 1.1093(2)
O9B O 0.1935(3) -0.11118(19) 0.9426(2)
O10B O 0.1326(3) 0.0363(2) 1.1761(2)
O11B O 0.1250(3) -0.2149(2) 1.0459(2)
O12B O 0.3302(3) 0.0033(2) 0.9724(2)
N1B N 0.4844(3) -0.0104(3) 1.1170(3)
O13B O 0.0925(3) 0.2207(2) 0.9487(2)
N2B N 0.4170(3) -0.0180(3) 1.2235(3)
N3B N 0.5003(3) 0.3852(3) 1.5090(3)
C1B C 0.5025(3) -0.0569(3) 1.2420(3)
H1B H 0.52820 -0.08250 1.29060
N4B N 0.4569(4) 0.2692(3) 1.5268(3)
C2B C 0.3455(4) -0.0163(3) 1.2778(3)
H2B H 0.27900 -0.00850 1.24560
H3B H 0.34580 -0.06660 1.30420
C3B C 0.5522(4) 0.2651(3) 1.5213(4)
H4B H 0.59270 0.22100 1.52460
C4B C 0.4259(4) 0.3407(3) 1.5189(4)
H5B H 0.36050 0.35740 1.52020
N5B N 0.5414(4) -0.0511(3) 1.1772(4)
C5B C 0.3631(4) 0.0438(3) 1.3414(3)
C6B C 0.4509(4) 0.0480(3) 1.3956(3)
H6B H 0.50400 0.01530 1.38920
C7B C 0.4068(4) 0.0084(3) 1.1495(3)
H7B H 0.35180 0.03690 1.12320
C8B C 0.3871(4) 0.1480(3) 1.4689(4)
C9B C 0.3978(5) 0.2015(3) 1.5390(4)
H8B H 0.42990 0.17450 1.58800
H9B H 0.33160 0.21800 1.54730
C10B C 0.2995(5) 0.1457(4) 1.4140(4)
H10B H 0.24740 0.17970 1.41940
N6B N 0.5773(4) 0.3359(4) 1.5102(4)
C11B C 0.4629(4) 0.0989(3) 1.4585(4)
H11B H 0.52360 0.10040 1.49520
C12B C 0.2882(5) 0.0938(4) 1.3511(4)
H12B H 0.22780 0.09250 1.31400
Mo1* Mo -0.13740(3) 0.11948(2) 0.96184(3)
Mo1B* Mo 1.13740(3) -0.11948(2) 1.03816(3)
Mo2* Mo -0.22229(3) 0.01241(3) 1.09450(3)
Mo2B* Mo 1.22229(3) -0.01241(3) 0.90550(3)
Mo3* Mo -0.11633(3) -0.13174(2) 1.01641(3)
Mo3B* Mo 1.11633(3) 0.13174(2) 0.98359(3)
Mo4* Mo -0.03204(3) -0.02070(2) 0.89507(3)
Mo4B* Mo 1.03204(3) 0.02070(2) 1.10493(3)
Cu1A Cu 0.50000 -0.50000 0.50000
Cu1A* Cu 0.50000 0.50000 1.50000
O3* O -0.1006(3) -0.00286(19) 0.9963(2)
O3B* O 1.1006(3) 0.00286(19) 1.0037(2)
O5* O 0.0671(3) -0.0281(2) 0.8432(2)
O5B* O 0.9329(3) 0.0281(2) 1.1568(2)
O6* O -0.0308(2) 0.08911(19) 0.9021(2)
O6B* O 1.0308(2) -0.08911(19) 1.0979(2)
O7* O -0.0143(2) -0.11927(18) 0.9471(2)
O7B* O 1.0143(2) 0.11927(18) 1.0529(2)
N3A N 0.5003(3) 0.1148(3) 1.0090(3)
N3C N 0.4997(3) -0.1148(3) 0.9910(3)
#END
