
#######################################################################
#
#                 Cambridge Crystallographic Data Centre
#                                CCDC
#
#######################################################################
#
# If this CIF has been generated from an entry in the Cambridge
# Structural Database, then it will include bibliographic, chemical,
# crystal, experimental, refinement or atomic coordinate data resulting
# from the CCDC's data processing and validation procedures.
#
#######################################################################

data_CSD_CIF_TICJIZ
_audit_creation_date 2007-09-25
_audit_creation_method CSD-ConQuest-V1
_database_code_CSD TICJIZ
_database_code_depnum_ccdc_archive 'CCDC 296079'
_chemical_formula_sum 'C19 H12 Ag2 N2 O6'
_chemical_formula_moiety
;
(C10 H8 Ag1 N2 1+)n,n(C9 H4 Ag1 O6 1-)
;
_journal_coden_Cambridge 155
_journal_volume 360
_journal_year 2007
_journal_page_first 2704
_journal_name_full 'Inorg.Chim.Acta '
loop_
_publ_author_name
"Shuai Zhang"
"Zhen Wang"
"Hanhui Zhang"
"Yanning Cao"
"Yanxiang Sun"
"Yiping Chen"
"Changcang Huang"
"Xiaohong Yu"
_chemical_name_systematic
;
catena-((\m~2~-4,4'-Bipyridine)-silver 
(\m~3~-2-carboxybenzene-1,4-dicarboxylato)-silver)
;
_cell_volume    847.575
_exptl_crystal_colour 'colorless'
_exptl_crystal_density_diffrn 2.273
_exptl_special_details
;
fluorescent

;
_exptl_crystal_description 'block'
_diffrn_ambient_temperature 298
_refine_special_details
;
A silver atom is disordered over two sites with occupancies of 0.88:0.12.

;
#These two values have been output from a single CSD field.
_refine_ls_R_factor_gt 0.034
_refine_ls_wR_factor_gt 0.034
_symmetry_cell_setting triclinic
_symmetry_space_group_name_H-M 'P -1'
_symmetry_Int_Tables_number 2
loop_
_symmetry_equiv_pos_site_id
_symmetry_equiv_pos_as_xyz
1 x,y,z
2 -x,-y,-z
_cell_length_a 8.055(5)
_cell_length_b 9.869(5)
_cell_length_c 11.322(7)
_cell_angle_alpha 76.52(2)
_cell_angle_beta 79.83(3)
_cell_angle_gamma 77.73(2)
_cell_formula_units_Z 2
loop_
_atom_type_symbol
_atom_type_radius_bond
C 0.68
H 0.23
Ag 1.51
N 0.68
O 0.77
loop_
_atom_site_label
_atom_site_type_symbol
_atom_site_fract_x
_atom_site_fract_y
_atom_site_fract_z
Ag1 Ag 0.64124(4) 0.53427(3) 0.09955(3)
Ag2 Ag 0.55596(9) -0.05901(7) 0.36296(7)
Ag3? Ag 0.4994(8) -0.0882(7) 0.4062(6)
O1 O 0.4438(3) 0.4143(3) 0.3183(2)
H1 H 0.41510 0.38610 0.39170
O2 O 0.3445(4) 0.4349(3) 0.1457(2)
O3 O 0.3645(4) 0.1366(3) 0.3240(3)
O4 O 0.2201(5) 0.0395(3) 0.4973(3)
O5 O -0.2331(4) 0.7644(3) 0.2906(3)
O6 O -0.3969(3) 0.6686(3) 0.4523(3)
N1 N 0.8293(4) 0.3440(3) 0.1054(3)
N2 N 1.4740(4) -0.2645(3) 0.0970(3)
C1 C 1.3851(5) -0.2352(4) 0.2021(4)
H2 H 1.41070 -0.29660 0.27500
C2 C 1.2564(5) -0.1175(4) 0.2078(3)
H3 H 1.19810 -0.10060 0.28300
C3 C 1.2159(4) -0.0249(3) 0.0992(3)
C4 C 1.3093(5) -0.0553(4) -0.0100(3)
H4 H 1.28680 0.00430 -0.08440
C5 C 1.4354(5) -0.1741(4) -0.0072(4)
H5 H 1.49690 -0.19270 -0.08110
C6 C 1.0804(4) 0.1014(4) 0.1017(3)
C7 C 0.9513(5) 0.1111(4) 0.2014(3)
H6 H 0.94770 0.03600 0.26840
C8 C 0.8300(5) 0.2322(4) 0.1994(3)
H7 H 0.74460 0.23710 0.26600
C9 C 0.9507(5) 0.3344(4) 0.0090(4)
H8 H 0.95050 0.41070 -0.05710
C10 C 1.0761(5) 0.2158(4) 0.0036(3)
H9 H 1.15750 0.21260 -0.06550
C11 C 0.2392(5) 0.1371(4) 0.4087(4)
C12 C 0.1067(5) 0.2714(4) 0.3974(3)
C13 C -0.0609(5) 0.2722(4) 0.4576(4)
H10 H -0.09150 0.18790 0.50400
C14 C -0.1816(5) 0.3947(4) 0.4497(4)
H11 H -0.29180 0.39210 0.49100
C15 C -0.1402(4) 0.5220(4) 0.3807(3)
C16 C -0.2640(5) 0.6610(4) 0.3730(3)
C17 C 0.0255(4) 0.5220(4) 0.3179(3)
H12 H 0.05450 0.60590 0.26970
C18 C 0.1472(4) 0.3989(4) 0.3262(3)
C19 C 0.3210(4) 0.4117(4) 0.2568(3)
Ag1* Ag 1.64124(4) -0.46573(3) 0.09955(3)
Ag2A Ag 0.44404(9) 0.05901(7) 0.63704(7)
Ag2* Ag -0.44404(9) 0.94099(7) 0.36296(7)
O4A O 0.7799(5) -0.0395(3) 0.5027(3)
O5* O 0.7669(4) -0.2356(3) 0.2906(3)
O6* O 0.6031(3) -0.3314(3) 0.4523(3)
N2* N 0.4740(4) 0.7355(3) 0.0970(3)
#END
