
#######################################################################
#
#                 Cambridge Crystallographic Data Centre
#                                CCDC
#
#######################################################################
#
# If this CIF has been generated from an entry in the Cambridge
# Structural Database, then it will include bibliographic, chemical,
# crystal, experimental, refinement or atomic coordinate data resulting
# from the CCDC's data processing and validation procedures.
#
#######################################################################

data_CSD_CIF_TIFCUI
_audit_creation_date 2013-05-26
_audit_creation_method CSD-ConQuest-V1
_database_code_CSD TIFCUI
_database_code_depnum_ccdc_archive 'CCDC 844748'
_chemical_formula_sum 'C24 H16 Ag7 N20 O40 P1 W12'
_chemical_formula_moiety
;
(Ag1 O40 P1 W12 2-)n,2n(C12 H8 Ag3 N10 1+)
;
_journal_coden_Cambridge 1350
_journal_volume 14
_journal_year 2012
_journal_page_first 5053
_journal_name_full 'CrystEngComm '
loop_
_publ_author_name
"Jing-Quan Sha"
"Jing-Wen Sun"
"Cheng Wang"
"Guang-Ming Li"
"Peng-Fei Yan"
"Meng-Ting Li"
"Ming-Yuan Liu"
_chemical_name_systematic
;
catena-[bis((\m~5~-5-(pyridin-3-yl)tetrazolato)-(\m~3~-5-(pyridin-3-yl)tetrazo
lato)-tri-silver(i)) 
(\m~12~-phospato)-tetrakis(\m~3~-oxo)-icosakis(\m~2~-oxo)-dodecaoxo-silver-dod
eca-tungsten]
;
_cell_volume   1599.635
_exptl_crystal_colour 'red'
_exptl_crystal_density_diffrn 4.377
_diffrn_ambient_temperature 293
_refine_special_details
;
The structure is disordered by symmetry.

;
#These two values have been output from a single CSD field.
_refine_ls_R_factor_gt 0.0623
_refine_ls_wR_factor_gt 0.0623
_symmetry_cell_setting triclinic
_symmetry_space_group_name_H-M 'P -1'
_symmetry_Int_Tables_number 2
loop_
_symmetry_equiv_pos_site_id
_symmetry_equiv_pos_as_xyz
1 x,y,z
2 -x,-y,-z
_cell_length_a 10.231(5)
_cell_length_b 12.979(5)
_cell_length_c 13.330(5)
_cell_angle_alpha 96.035(5)
_cell_angle_beta 112.394(5)
_cell_angle_gamma 97.434(5)
_cell_formula_units_Z 1
loop_
_atom_type_symbol
_atom_type_radius_bond
C 0.68
H 0.23
Ag 1.45
N 0.68
O 0.68
P 1.05
W 1.62
loop_
_atom_site_label
_atom_site_type_symbol
_atom_site_fract_x
_atom_site_fract_y
_atom_site_fract_z
C1 C 0.631(3) 0.841(2) 0.652(2)
H1 H 0.71360 0.81540 0.69030
C2 C 0.469(3) 0.954(2) 0.645(2)
H2 H 0.44050 1.00350 0.68360
C3 C 0.434(3) 0.856(2) 0.482(2)
H3 H 0.38950 0.84150 0.40510
C4 C 0.586(3) 0.9148(18) 0.7010(19)
C5 C 0.658(2) 0.9546(18) 0.8242(19)
C6 C 0.121(3) 0.821(2) 0.622(2)
C7 C 0.187(3) 0.739(2) 0.597(2)
C8 C 0.298(3) 0.707(2) 0.677(2)
H4 H 0.33780 0.74360 0.74850
C9 C 0.143(4) 0.688(2) 0.489(3)
H5 H 0.07070 0.71070 0.43390
C10 C 0.298(4) 0.576(2) 0.539(3)
H6 H 0.33860 0.52150 0.51910
C11 C 0.546(3) 0.803(2) 0.538(2)
H7 H 0.56290 0.74460 0.50150
C12 C 0.351(4) 0.621(2) 0.652(3)
H8 H 0.41800 0.59270 0.70560
N1 N 0.812(2) 0.9922(18) 0.9883(16)
N2 N 0.799(2) 0.9623(16) 0.8810(17)
N3 N 0.056(2) 0.9397(17) 0.7096(18)
N4 N -0.031(2) 0.9236(17) 0.6010(18)
N5 N 0.002(2) 0.8523(19) 0.5446(17)
N6 N 0.391(2) 0.9253(17) 0.5348(17)
N7 N 0.690(2) 1.0002(16) 0.9878(16)
N8 N 0.155(2) 0.8775(15) 0.7207(15)
N9 N 0.198(3) 0.607(2) 0.461(2)
N10 N 0.585(2) 0.9732(16) 0.8805(16)
Ag1 Ag -0.0063(2) 0.97860(19) 0.84881(17)
Ag2 Ag 0.3611(2) 0.94814(19) 0.86413(17)
Ag3 Ag -0.2076(3) 1.0064(2) 0.54591(19)
O1 O 0.111(2) 0.3126(16) 0.3380(16)
O2 O 0.244(2) 0.6764(15) 0.2491(16)
O3 O 0.355(2) 0.4474(15) 0.1435(17)
O4 O -0.269(2) 0.616(2) 0.0661(18)
O5 O 0.281(2) 0.5749(18) -0.096(2)
O6 O 0.191(2) 0.7723(17) 0.0749(19)
O7 O -0.362(2) 0.7574(15) -0.0802(17)
O8 O 0.166(2) 0.3001(18) 0.1557(18)
O9 O -0.019(2) 0.6694(18) 0.2272(18)
O10 O 0.373(2) 0.6428(15) 0.1180(16)
O11 O 0.058(4) 0.548(3) -0.069(3)
O12 O -0.243(2) 0.5767(15) 0.2690(15)
O13 O -0.034(2) 0.4701(16) 0.2584(17)
O14 O 0.103(2) 0.7097(18) -0.135(2)
O15 O 0.230(3) 0.4847(15) 0.281(2)
O16 O 0.142(2) 0.8652(14) 0.2568(16)
O17 O 0.500(2) 0.6033(16) 0.3310(16)
O18 O 0.393(2) 0.7894(14) -0.0146(18)
O19 O -0.074(2) 0.7587(19) 0.0560(18)
O20 O -0.054(3) 0.591(2) 0.054(2)
O21 O 0.113(3) 0.463(2) 0.084(2)
P1 P 0.00000 0.50000 0.00000
Ag4 Ag -0.50000 0.50000 0.00000
W1 W 0.09642(12) 0.74896(8) 0.17069(9)
W2 W 0.34032(12) 0.57031(9) 0.22399(9)
W3 W 0.26796(12) 0.69613(8) -0.00901(10)
W4 W -0.24442(13) 0.67783(9) -0.05016(11)
W5 W 0.07285(14) 0.36974(9) 0.23001(10)
W6 W -0.16533(14) 0.55183(11) 0.18534(10)
O22 O 0.120(3) 0.586(2) 0.060(3)
N1A N 0.188(2) 1.0078(18) 1.0117(16)
N2* N -0.201(2) 0.9623(16) 0.8810(17)
N6A N -0.391(2) 1.0747(17) 0.4652(17)
N7A N 0.310(2) 0.9998(16) 1.0122(16)
Ag1* Ag 0.9937(2) 0.97860(19) 0.84881(17)
Ag1A Ag 1.0063(2) 1.02140(19) 1.15119(17)
Ag2A Ag 0.6389(2) 1.05186(19) 1.13587(17)
Ag3A Ag 0.2076(3) 0.9936(2) 0.45409(19)
O11A O -0.058(4) 0.452(3) 0.069(3)
O20A O 0.054(3) 0.409(2) -0.054(2)
O21A O -0.113(3) 0.537(2) -0.084(2)
O22A O -0.120(3) 0.414(2) -0.060(3)
O1A O -1.111(2) 0.6874(16) -0.3380(16)
O2A O -1.244(2) 0.3236(15) -0.2491(16)
O3A O -1.355(2) 0.5526(15) -0.1435(17)
O4A O -0.731(2) 0.384(2) -0.0661(18)
O5A O -1.281(2) 0.4251(18) 0.096(2)
O6A O -1.191(2) 0.2277(17) -0.0749(19)
O7A O -0.638(2) 0.2426(15) 0.0802(17)
O8A O -1.166(2) 0.6999(18) -0.1557(18)
O9A O -0.981(2) 0.3306(18) -0.2272(18)
O10A O -1.373(2) 0.3572(15) -0.1180(16)
O12A O -0.757(2) 0.4233(15) -0.2690(15)
O13A O -0.966(2) 0.5299(16) -0.2584(17)
O14A O -1.103(2) 0.2903(18) 0.135(2)
O15A O -1.230(3) 0.5153(15) -0.281(2)
O16A O -1.142(2) 0.1348(14) -0.2568(16)
O17A O -1.500(2) 0.3967(16) -0.3310(16)
O18A O -1.393(2) 0.2106(14) 0.0146(18)
O19A O -0.926(2) 0.2413(19) -0.0560(18)
W1A W -1.09642(12) 0.25104(8) -0.17069(9)
W2A W -1.34032(12) 0.42969(9) -0.22399(9)
W3A W -1.26796(12) 0.30387(8) 0.00901(10)
W4A W -0.75558(13) 0.32217(9) 0.05016(11)
W5A W -1.07285(14) 0.63026(9) -0.23001(10)
W6A W -0.83467(14) 0.44817(11) -0.18534(10)
O3* O -0.645(2) 0.4474(15) 0.1435(17)
O3A* O -0.355(2) 0.5526(15) -0.1435(17)
O5* O -0.719(2) 0.5749(18) -0.096(2)
O5A* O -0.281(2) 0.4251(18) 0.096(2)
O8* O -0.834(2) 0.3001(18) 0.1557(18)
O8A* O -0.166(2) 0.6999(18) -0.1557(18)
O11* O -0.942(4) 0.548(3) -0.069(3)
O11A* O -1.058(4) 0.452(3) 0.069(3)
O14* O -0.897(2) 0.7097(18) -0.135(2)
O14A* O -0.103(2) 0.2903(18) 0.135(2)
O20A* O -0.946(3) 0.409(2) -0.054(2)
O21A* O -1.113(3) 0.537(2) -0.084(2)
Ag4* Ag -1.50000 0.50000 0.00000
Ag4** Ag 0.50000 0.50000 0.00000
W1A* W -0.09642(12) 0.25104(8) -0.17069(9)
W2A* W -0.34032(12) 0.42969(9) -0.22399(9)
W3A* W -0.26796(12) 0.30387(8) 0.00901(10)
W4* W -1.24442(13) 0.67783(9) -0.05016(11)
W4A* W 0.24442(13) 0.32217(9) 0.05016(11)
W5* W -0.92715(14) 0.36974(9) 0.23001(10)
W5A* W -0.07285(14) 0.63026(9) -0.23001(10)
W6* W -1.16533(14) 0.55183(11) 0.18534(10)
W6A* W 0.16533(14) 0.44817(11) -0.18534(10)
O22A* O -1.120(3) 0.414(2) -0.060(3)
#END
