
#######################################################################
#
#                 Cambridge Crystallographic Data Centre
#                                CCDC
#
#######################################################################
#
# If this CIF has been generated from an entry in the Cambridge
# Structural Database, then it will include bibliographic, chemical,
# crystal, experimental, refinement or atomic coordinate data resulting
# from the CCDC's data processing and validation procedures.
#
#######################################################################

data_CSD_CIF_TIGKEB
_audit_creation_date 2013-05-26
_audit_creation_method CSD-ConQuest-V1
_database_code_CSD TIGKEB
_database_code_depnum_ccdc_archive 'CCDC 840687'
_chemical_formula_sum 'C50 H34 Cd1 N4 O17'
_chemical_formula_moiety
;
(C32 H18 Cd1 O17 2-)n,n(C18 H16 N4 2+)
;
_journal_coden_Cambridge 222
_journal_volume 40
_journal_year 2011
_journal_page_first 11856
_journal_name_full 'Dalton Trans. '
loop_
_publ_author_name
"Feng Wang"
"Xiaohuan Ke"
"Jinbo Zhao"
"Kejian Deng"
"Xiaoke Leng"
"Zhengfang Tian"
"Lili Wen"
"Dongfeng Li"
_chemical_name_systematic
;
catena-(1,1'-Biphenyl-4,4'-diylbis(1H-imidazol-3-ium) bis(\m~2~-dihydrogen 
biphenyl-3,3',4,4'-tetracarboxylato)-aqua-cadmium)
;
_cell_volume   4149.016
_exptl_crystal_colour 'colorless'
_exptl_crystal_density_diffrn 1.721
_exptl_crystal_description 'block'
_diffrn_ambient_temperature 298
#These two values have been output from a single CSD field.
_refine_ls_R_factor_gt 0.045
_refine_ls_wR_factor_gt 0.045
_symmetry_cell_setting monoclinic
_symmetry_space_group_name_H-M 'C 2/c'
_symmetry_Int_Tables_number 15
loop_
_symmetry_equiv_pos_site_id
_symmetry_equiv_pos_as_xyz
1 x,y,z
2 -x,y,1/2-z
3 1/2+x,1/2+y,z
4 1/2-x,1/2+y,1/2-z
5 -x,-y,-z
6 x,-y,-1/2+z
7 -1/2-x,-1/2-y,-z
8 -1/2+x,-1/2-y,-1/2+z
_cell_length_a 28.498(3)
_cell_length_b 11.7312(11)
_cell_length_c 12.4676(12)
_cell_angle_alpha 90
_cell_angle_beta 95.487(2)
_cell_angle_gamma 90
_cell_formula_units_Z 4
loop_
_atom_type_symbol
_atom_type_radius_bond
C 0.68
H 0.23
Cd 1.44
N 0.68
O 0.68
loop_
_atom_site_label
_atom_site_type_symbol
_atom_site_fract_x
_atom_site_fract_y
_atom_site_fract_z
Cd1 Cd 0.00000 0.09019(3) -0.25000
C1 C 0.07636(10) 0.1320(3) -0.0530(2)
C2 C 0.12101(10) 0.1001(2) 0.0162(2)
C3 C 0.07614(10) -0.0115(2) 0.1491(2)
C4 C 0.12092(10) 0.0306(2) 0.1069(2)
C5 C 0.16348(10) 0.0023(2) 0.1643(2)
H1 H 0.16330 -0.04370 0.22500
C6 C 0.20629(10) 0.0405(2) 0.1337(2)
C7 C 0.20588(10) 0.1085(2) 0.0427(2)
H2 H 0.23420 0.13450 0.02030
C8 C 0.16378(10) 0.1382(2) -0.0151(2)
H3 H 0.16410 0.18430 -0.07570
C9 C 0.25115(9) 0.0032(2) 0.1945(2)
C10 C 0.25506(10) -0.1074(2) 0.2349(2)
H4 H 0.22910 -0.15570 0.22730
C11 C 0.29716(10) -0.1459(3) 0.2859(2)
H5 H 0.29920 -0.22050 0.31110
C12 C 0.37944(10) -0.1323(2) 0.3573(3)
C13 C 0.33639(10) -0.0762(2) 0.3007(2)
C14 C 0.37409(11) 0.1149(3) 0.2841(2)
C15 C 0.33298(10) 0.0355(2) 0.2629(2)
C16 C 0.29042(10) 0.0733(2) 0.2100(2)
H6 H 0.28830 0.14780 0.18440
O1 O 0.05263(7) 0.05354(17) -0.09813(17)
O2 O 0.06715(7) 0.23645(17) -0.06575(17)
O3 O 0.07353(7) -0.11558(16) 0.17460(18)
O4 O 0.04388(7) 0.05747(16) 0.16208(17)
O5 O 0.40530(8) -0.1916(2) 0.31014(18)
O6 O 0.38211(8) -0.12071(18) 0.46177(19)
H7 H 0.3999(10) -0.169(2) 0.491(3)
O7 O 0.41301(8) 0.08249(19) 0.3159(2)
O8 O 0.36252(8) 0.22333(18) 0.26807(19)
H8 H 0.3849(8) 0.265(2) 0.286(3)
O9 O 0.00000 0.2821(3) -0.25000
H9 H -0.0257(7) 0.312(3) -0.254(4)
C17 C 0.15417(11) 0.6270(3) 0.9811(2)
H10 H 0.14020 0.55710 0.99350
C18 C 0.20162(10) 0.6405(3) 1.0050(2)
H11 H 0.21940 0.57950 1.03420
C19 C 0.22417(10) 0.7430(2) 0.9868(2)
C20 C 0.19585(11) 0.8303(3) 0.9394(3)
H12 H 0.20980 0.89900 0.92310
C21 C 0.14775(11) 0.8175(3) 0.9161(3)
H13 H 0.12970 0.87720 0.88530
C22 C 0.12673(10) 0.7160(2) 0.9387(2)
C23 C 0.05344(12) 0.5974(3) 0.9072(3)
H14 H 0.06730 0.52560 0.91340
C24 C 0.04432(11) 0.7828(3) 0.9035(3)
H15 H 0.05020 0.86070 0.90690
C25 C 0.00753(12) 0.6197(3) 0.8860(3)
H16 H -0.01660 0.56640 0.87510
N1 N 0.07660(8) 0.7009(2) 0.9182(2)
N2 N 0.00280(9) 0.7351(2) 0.8834(2)
H17 H -0.0237(6) 0.770(2) 0.874(3)
H9A H 0.0257(7) 0.312(3) -0.246(4)
C1A C -0.07636(10) 0.1320(3) -0.4470(2)
C2A C -0.12101(10) 0.1001(2) -0.5162(2)
C3A C -0.07614(10) -0.0115(2) -0.6491(2)
C4A C -0.12092(10) 0.0306(2) -0.6069(2)
C5A C -0.16348(10) 0.0023(2) -0.6643(2)
H1A H -0.16330 -0.04370 -0.72500
C6A C -0.20629(10) 0.0405(2) -0.6337(2)
C7A C -0.20588(10) 0.1085(2) -0.5427(2)
H2A H -0.23420 0.13450 -0.52030
C8A C -0.16378(10) 0.1382(2) -0.4849(2)
H3A H -0.16410 0.18430 -0.42430
C9A C -0.25115(9) 0.0032(2) -0.6945(2)
C10A C -0.25506(10) -0.1074(2) -0.7349(2)
H4A H -0.22910 -0.15570 -0.72730
C11A C -0.29716(10) -0.1459(3) -0.7859(2)
H5A H -0.29920 -0.22050 -0.81110
C12A C -0.37944(10) -0.1323(2) -0.8573(3)
C13A C -0.33639(10) -0.0762(2) -0.8007(2)
C14A C -0.37409(11) 0.1149(3) -0.7841(2)
C15A C -0.33298(10) 0.0355(2) -0.7629(2)
C16A C -0.29042(10) 0.0733(2) -0.7100(2)
H6A H -0.28830 0.14780 -0.68440
O1A O -0.05263(7) 0.05354(17) -0.40187(17)
O2A O -0.06715(7) 0.23645(17) -0.43425(17)
O3A O -0.07353(7) -0.11558(16) -0.67460(18)
O4A O -0.04388(7) 0.05747(16) -0.66208(17)
O5A O -0.40530(8) -0.1916(2) -0.81014(18)
O6A O -0.38211(8) -0.12071(18) -0.96177(19)
H7A H -0.3999(10) -0.169(2) -0.991(3)
O7A O -0.41301(8) 0.08249(19) -0.8159(2)
O8A O -0.36252(8) 0.22333(18) -0.76807(19)
H8A H -0.3849(8) 0.265(2) -0.786(3)
Cd1D Cd 0.00000 -0.09019(3) -0.75000
Cd1D* Cd 0.00000 -0.09019(3) 0.25000
O3D O -0.07353(7) 0.11558(16) -0.17460(18)
O3E O 0.07353(7) 0.11558(16) -0.32540(18)
O4D O -0.04388(7) -0.05747(16) -0.16208(17)
O4E O 0.04388(7) -0.05747(16) -0.33792(17)
C17F C 0.34583(11) 0.8730(3) 1.0189(2)
H10F H 0.35980 0.94290 1.00650
C18F C 0.29838(10) 0.8595(3) 0.9950(2)
H11F H 0.28060 0.92050 0.96580
C19F C 0.27583(10) 0.7570(2) 1.0132(2)
C20F C 0.30415(11) 0.6697(3) 1.0606(3)
H12F H 0.29020 0.60100 1.07690
C21F C 0.35225(11) 0.6825(3) 1.0839(3)
H13F H 0.37030 0.62280 1.11470
C22F C 0.37327(10) 0.7840(2) 1.0613(2)
C23F C 0.44656(12) 0.9026(3) 1.0928(3)
H14F H 0.43270 0.97440 1.08660
C24F C 0.45568(11) 0.7172(3) 1.0965(3)
H15F H 0.44980 0.63930 1.09310
C25F C 0.49247(12) 0.8803(3) 1.1140(3)
H16F H 0.51660 0.93360 1.12490
N1F N 0.42340(8) 0.7991(2) 1.0818(2)
N2F N 0.49720(9) 0.7649(2) 1.1166(2)
H17F H 0.5237(6) 0.730(2) 1.126(3)
#END
