
#######################################################################
#
#                 Cambridge Crystallographic Data Centre
#                                CCDC
#
#######################################################################
#
# If this CIF has been generated from an entry in the Cambridge
# Structural Database, then it will include bibliographic, chemical,
# crystal, experimental, refinement or atomic coordinate data resulting
# from the CCDC's data processing and validation procedures.
#
#######################################################################

data_CSD_CIF_TIGZAN
_audit_creation_date 2018-10-09
_audit_creation_method CSD-ConQuest-V1
_database_code_CSD TIGZAN
_database_code_depnum_ccdc_archive 'CCDC 1530779; not CCDC 1033958 as published'
_chemical_formula_sum 'C62 H48 N4 O16 Sr3'
_chemical_formula_moiety
;
C14 H24 N4 2+,n(C48 H24 O16 Sr3 2-)
;
_journal_coden_Cambridge 367
_journal_volume 44
_journal_year 2018
_journal_page_first 425
_journal_name_full 'Koord.Khim.(Russ.)(Coord.Chem.) '
loop_
_publ_author_name
"W.J.Zhu"
"Z.J.Qin"
"Y.Bai"
"D.B.Dang"
_chemical_name_systematic
;
catena-[(3,3'-(hexane-1,6-diyl)bis(1-methyl-1H-imidazol-3-ium)) 
tetrakis(\m-naphthalene-1,4-dicarboxylato)-tri-strontium]
;
_cell_volume   2823.006
_exptl_crystal_colour 'yellow'
_exptl_crystal_density_diffrn 1.609
_exptl_crystal_description 'block'
_diffrn_ambient_temperature 296
#These two values have been output from a single CSD field.
_refine_ls_R_factor_gt 0.0699
_refine_ls_wR_factor_gt 0.0699
_symmetry_cell_setting monoclinic
_symmetry_space_group_name_H-M 'P 21/n'
_symmetry_Int_Tables_number 14
loop_
_symmetry_equiv_pos_site_id
_symmetry_equiv_pos_as_xyz
1 x,y,z
2 1/2-x,1/2+y,1/2-z
3 -x,-y,-z
4 -1/2+x,-1/2-y,-1/2+z
_cell_length_a 12.8639(8)
_cell_length_b 13.9067(8)
_cell_length_c 16.0119(10)
_cell_angle_alpha 90
_cell_angle_beta 99.757(1)
_cell_angle_gamma 90
_cell_formula_units_Z 2
loop_
_atom_type_symbol
_atom_type_radius_bond
C 0.68
H 0.23
N 0.68
O 0.68
Sr 1.95
loop_
_atom_site_label
_atom_site_type_symbol
_atom_site_fract_x
_atom_site_fract_y
_atom_site_fract_z
Sr1 Sr 1.00000 0.50000 0.00000
Sr2 Sr 1.34057(6) 0.50935(5) 0.00854(4)
O1 O 1.1007(5) 0.5611(4) 0.1362(3)
O2 O 1.2679(5) 0.5216(5) 0.1423(4)
O3 O 1.2449(6) 0.8548(4) 0.4941(4)
O4 O 1.4139(5) 0.8389(4) 0.4772(4)
C1 C 1.1945(7) 0.5630(6) 0.1699(5)
C2 C 1.3166(8) 0.8180(6) 0.4609(5)
C3 C 1.2264(5) 0.6222(5) 0.2503(4)
C4 C 1.3119(6) 0.6796(6) 0.2564(5)
H1 H 1.35200 0.67900 0.21320
C5 C 1.3415(6) 0.7396(6) 0.3260(5)
H2 H 1.40060 0.77860 0.32770
C6 C 1.2868(6) 0.7428(5) 0.3911(5)
C7 C 1.1989(6) 0.6804(5) 0.3904(4)
C8 C 1.1385(7) 0.6746(6) 0.4573(5)
H3 H 1.15710 0.71270 0.50530
C9 C 1.0537(8) 0.6140(7) 0.4521(6)
H4 H 1.01330 0.61350 0.49500
C10 C 1.0281(8) 0.5537(7) 0.3833(7)
H5 H 0.97160 0.51160 0.38110
C11 C 1.0832(6) 0.5550(6) 0.3199(5)
H6 H 1.06480 0.51250 0.27500
C12 C 1.1691(5) 0.6191(5) 0.3182(4)
O5 O 0.8534(4) 0.4291(4) 0.0728(4)
O6 O 0.7048(6) 0.3779(7) 0.1094(7)
O7 O 1.0824(7) 0.1742(6) 0.4312(5)
O8 O 0.9659(6) 0.0584(6) 0.4135(5)
C13 C 0.8032(8) 0.3754(7) 0.1141(6)
C14 C 0.9992(9) 0.1325(10) 0.3921(8)
C15 C 0.8567(6) 0.3030(6) 0.1756(6)
C16 C 0.9162(7) 0.3375(7) 0.2460(7)
H7 H 0.92900 0.40330 0.24880
C17 C 0.9583(8) 0.2842(8) 0.3123(7)
H8 H 0.99920 0.31360 0.35880
C18 C 0.9431(7) 0.1909(8) 0.3133(6)
C19 C 0.8807(7) 0.1426(6) 0.2421(8)
C20 C 0.8593(10) 0.0458(9) 0.236(1)
H9 H 0.88570 0.00530 0.28080
C21 C 0.8023(10) 0.0102(8) 0.1677(10)
H10 H 0.79310 -0.05610 0.16640
C22 C 0.7514(9) 0.0637(12) 0.093(1)
H11 H 0.70900 0.03450 0.04720
C23 C 0.7727(8) 0.1652(9) 0.0968(8)
H12 H 0.74490 0.20500 0.05180
C24 C 0.8355(7) 0.2030(6) 0.1685(6)
N1 N 1.0554(5) 0.2547(5) -0.2078(5)
N2 N 0.9245(5) 0.1701(5) -0.1821(4)
C25 C 1.1409(7) 0.3251(8) -0.1991(7)
H13 H 1.14520 0.35800 -0.14600
H14 H 1.12730 0.37080 -0.24460
H15 H 1.20630 0.29270 -0.20110
C26 C 0.9925(6) 0.2364(6) -0.1520(5)
H16 H 0.99630 0.26610 -0.09950
C27 C 1.0258(8) 0.1955(7) -0.2759(6)
H17 H 1.05630 0.19230 -0.32450
C28 C 0.9443(8) 0.1430(7) -0.2590(6)
H18 H 0.90790 0.09630 -0.29400
C29 C 0.8484(7) 0.1272(7) -0.1367(6)
H19 H 0.78360 0.11490 -0.17590
H20 H 0.83250 0.17210 -0.09430
C30 C 0.8877(7) 0.0337(6) -0.0937(6)
H21 H 0.90650 -0.01000 -0.13600
H22 H 0.83070 0.00430 -0.07000
C31 C 0.9838(6) 0.0462(6) -0.0225(6)
H23 H 1.04260 0.07120 -0.04660
H24 H 0.96680 0.09290 0.01820
Sr2B Sr 0.65943(6) 0.49065(5) -0.00854(4)
O1B O 0.8993(5) 0.4389(4) -0.1362(3)
O2B O 0.7321(5) 0.4784(5) -0.1423(4)
O3B O 0.7551(6) 0.1452(4) -0.4941(4)
O4B O 0.5861(5) 0.1611(4) -0.4772(4)
C1B C 0.8055(7) 0.4370(6) -0.1699(5)
C2B C 0.6834(8) 0.1820(6) -0.4609(5)
C3B C 0.7736(5) 0.3778(5) -0.2503(4)
C4B C 0.6881(6) 0.3204(6) -0.2564(5)
H1B H 0.64800 0.32100 -0.21320
C5B C 0.6585(6) 0.2604(6) -0.3260(5)
H2B H 0.59940 0.22140 -0.32770
C6B C 0.7132(6) 0.2572(5) -0.3911(5)
C7B C 0.8011(6) 0.3196(5) -0.3904(4)
C8B C 0.8615(7) 0.3254(6) -0.4573(5)
H3B H 0.84290 0.28730 -0.50530
C9B C 0.9463(8) 0.3860(7) -0.4521(6)
H4B H 0.98670 0.38650 -0.49500
C10B C 0.9719(8) 0.4463(7) -0.3833(7)
H5B H 1.02840 0.48840 -0.38110
C11B C 0.9168(6) 0.4450(6) -0.3199(5)
H6B H 0.93520 0.48750 -0.27500
C12B C 0.8309(5) 0.3809(5) -0.3182(4)
O5B O 1.1466(4) 0.5709(4) -0.0728(4)
O6B O 1.2952(6) 0.6221(7) -0.1094(7)
O7B O 0.9176(7) 0.8258(6) -0.4312(5)
O8B O 1.0341(6) 0.9416(6) -0.4135(5)
C13B C 1.1968(8) 0.6246(7) -0.1141(6)
C14B C 1.0008(9) 0.8675(10) -0.3921(8)
C15B C 1.1433(6) 0.6970(6) -0.1756(6)
C16B C 1.0838(7) 0.6625(7) -0.2460(7)
H7B H 1.07100 0.59670 -0.24880
C17B C 1.0417(8) 0.7158(8) -0.3123(7)
H8B H 1.00080 0.68640 -0.35880
C18B C 1.0569(7) 0.8091(8) -0.3133(6)
C19B C 1.1193(7) 0.8574(6) -0.2421(8)
C20B C 1.1407(10) 0.9542(9) -0.236(1)
H9B H 1.11430 0.99470 -0.28080
C21B C 1.1977(10) 0.9898(8) -0.1677(10)
H10B H 1.20690 1.05610 -0.16640
C22B C 1.2486(9) 0.9363(12) -0.093(1)
H11B H 1.29100 0.96550 -0.04720
C23B C 1.2273(8) 0.8348(9) -0.0968(8)
H12B H 1.25510 0.79500 -0.05180
C24B C 1.1645(7) 0.7970(6) -0.1685(6)
Sr1A Sr 0.50000 0.00000 -0.50000
Sr1A* Sr 1.50000 1.00000 0.50000
Sr2A Sr 1.15943(6) 0.00935(5) 0.49146(4)
Sr2A* Sr 1.15943(6) 1.00935(5) -0.50854(4)
Sr2A** Sr 1.15943(6) 1.00935(5) 0.49146(4)
Sr2C Sr 0.84057(6) -0.00935(5) -0.49146(4)
Sr2C* Sr 0.84057(6) -0.00935(5) 0.50854(4)
Sr2C** Sr 0.84057(6) 0.99065(5) -0.49146(4)
O3A O 1.2551(6) 0.3548(4) 0.0059(4)
O3C O 0.7449(6) 0.6452(4) -0.0059(4)
O4A O 1.0861(5) 0.3389(4) 0.0228(4)
O4C O 0.9139(5) 0.6611(4) -0.0228(4)
O7A O 1.4176(7) 0.6742(6) 0.0688(5)
O7C O 0.5824(7) 0.3258(6) -0.0688(5)
O8A O 0.5341(6) 0.5584(6) 0.0865(5)
O8A* O 1.5341(6) 0.5584(6) 0.0865(5)
O8C O 0.4659(6) 0.4416(6) -0.0865(5)
O8C* O 1.4659(6) 0.4416(6) -0.0865(5)
N1B N 0.9446(5) -0.2547(5) 0.2078(5)
N2B N 1.0755(5) -0.1701(5) 0.1821(4)
C25B C 0.8591(7) -0.3251(8) 0.1991(7)
H13B H 0.85480 -0.35800 0.14600
H14B H 0.87270 -0.37080 0.24460
H15B H 0.79370 -0.29270 0.20110
C26B C 1.0075(6) -0.2364(6) 0.1520(5)
H16B H 1.00370 -0.26610 0.09950
C27B C 0.9742(8) -0.1955(7) 0.2759(6)
H17B H 0.94370 -0.19230 0.32450
C28B C 1.0557(8) -0.1430(7) 0.2590(6)
H18B H 1.09210 -0.09630 0.29400
C29B C 1.1516(7) -0.1272(7) 0.1367(6)
H19B H 1.21640 -0.11490 0.17590
H20B H 1.16750 -0.17210 0.09430
C30B C 1.1123(7) -0.0337(6) 0.0937(6)
H21B H 1.09350 0.01000 0.13600
H22B H 1.16930 -0.00430 0.07000
C31B C 1.0162(6) -0.0462(6) 0.0225(6)
H23B H 0.95740 -0.07120 0.04660
H24B H 1.03320 -0.09290 -0.01820
#END
