
#######################################################################
#
#                 Cambridge Crystallographic Data Centre
#                                CCDC
#
#######################################################################
#
# If this CIF has been generated from an entry in the Cambridge
# Structural Database, then it will include bibliographic, chemical,
# crystal, experimental, refinement or atomic coordinate data resulting
# from the CCDC's data processing and validation procedures.
#
#######################################################################

data_CSD_CIF_TIHROU
_audit_creation_date 2018-10-09
_audit_creation_method CSD-ConQuest-V1
_database_code_CSD TIHROU
_database_code_depnum_ccdc_archive 'CCDC 1831030'
_chemical_formula_sum 'C94 H62 Eu2 N8 O42'
_chemical_formula_moiety
;
(C90 H42 Eu2 N6 O40 2-)n,2(C2 H8 N1 1+),2(H2 O1)
;
_journal_coden_Cambridge 9
_journal_volume 57
_journal_year 2018
_journal_page_first 13772
_journal_name_full 'Inorg.Chem. '
loop_
_publ_author_name
"H.T.D.Nguyen"
"Y.B.N.Tran"
"H.N.Nguyen"
"T.C.Nguyen"
"F.Gandara"
"P.T.K.Nguyen"
_chemical_name_systematic
;
catena-[bis(dimethylammonium) 
bis(\m-3,3'-(1,3,6,8-tetraoxo-1,3,6,8-tetrahydrobenzo[lmn][3,8]phenanthroline-
2,7-diyl)bis(5-carboxybenzoato))-(\m-5,5'-(1,3,6,8-tetraoxo-1,3,6,8-tetrahydro
benzo[lmn][3,8]phenanthroline-2,7-diyl)bis(benzene-1,3-dicarboxylato))-tetraaq
ua-di-europium unknown solvate dihydrate]
;
_chemical_name_common
;
MOF-591
;
_cell_volume   3258.821
_exptl_crystal_colour 'light yellow'
_exptl_crystal_density_diffrn 1.162
_exptl_crystal_description 'block'
_diffrn_ambient_temperature 100
_refine_special_details
;
Disordered solvent molecules were not modelled and the disordered density was 
taken into account using the MASK/OLEX2 procedure.
;
#These two values have been output from a single CSD field.
_refine_ls_R_factor_gt 0.0871
_refine_ls_wR_factor_gt 0.0871
_symmetry_cell_setting triclinic
_symmetry_space_group_name_H-M 'P -1'
_symmetry_Int_Tables_number 2
loop_
_symmetry_equiv_pos_site_id
_symmetry_equiv_pos_as_xyz
1 x,y,z
2 -x,-y,-z
_cell_length_a 10.6709(12)
_cell_length_b 18.1669(19)
_cell_length_c 18.767(2)
_cell_angle_alpha 109.774(2)
_cell_angle_beta 102.201(2)
_cell_angle_gamma 97.897(2)
_cell_formula_units_Z 1
loop_
_atom_type_symbol
_atom_type_radius_bond
C 0.68
H 0.23
Eu 1.98
N 0.68
O 0.68
loop_
_atom_site_label
_atom_site_type_symbol
_atom_site_fract_x
_atom_site_fract_y
_atom_site_fract_z
Eu1 Eu 0.97439(10) 0.94095(6) 1.10539(6)
O1 O 0.9725(10) 0.9219(6) 0.8685(6)
O2 O 0.2175(10) 0.9802(7) 1.1323(6)
O3 O 0.2125(11) 0.5671(7) 0.0654(6)
H1 H 0.16953 0.58994 0.03986
O4 O 0.1645(12) 0.1896(6) -0.0363(7)
O5 O 0.1201(11) 0.4576(6) -0.0446(7)
O6 O 1.0256(10) 0.9087(6) 0.9837(7)
O7 O 1.1047(11) 0.6465(6) 0.9855(7)
O8 O 0.9723(12) 0.5804(6) 0.6336(6)
O9 O 0.6398(11) 0.6942(7) 0.6996(7)
O10 O 0.8272(12) 0.9647(6) 1.1739(7)
O11 O 0.2809(11) 0.5360(6) 0.3006(7)
O12 O 0.7887(10) 0.9616(6) 1.0185(6)
H2 H 0.81829 0.98635 0.99005
H3 H 0.74917 0.99567 1.04643
N1 N 0.8092(13) 0.6379(7) 0.6674(8)
N2 N 0.4879(12) 0.7040(8) 1.0662(8)
O13 O 0.1311(11) 0.8560(6) 1.1123(6)
O14 O 0.6035(11) 0.4069(6) 0.2404(6)
O15 O 1.0373(11) 0.5404(7) 0.8716(6)
H4 H 1.05926 0.51542 0.90090
O16 O 0.3235(11) 0.1894(6) 0.0634(7)
O17 O 0.3743(11) 0.6866(6) 0.9458(7)
O18 O 0.6010(12) 0.7213(7) 1.1924(8)
N3 N 0.4424(13) 0.4725(7) 0.2674(8)
C1 C 0.9928(15) 0.8825(11) 0.9104(10)
O19 O 0.7198(10) 1.0605(6) 1.2160(7)
C2 C 0.5879(17) 0.5392(9) 0.4308(10)
C3 C 0.2209(15) 0.3603(10) 0.0296(10)
H5 H 0.16736 0.33573 -0.02331
C4 C 0.6364(18) 0.4846(10) 0.3742(10)
O20 O 1.0731(11) 0.9732(8) 1.2437(7)
H6 H 1.02929 0.96349 1.28312
H7 H 1.16745 0.99916 1.27501
C5 C 0.2749(16) 0.3141(10) 0.0683(10)
C6 C 1.0030(15) 0.662(1) 0.8681(10)
C7 C 0.3666(15) 0.5201(9) 0.8858(10)
H8 H 0.31795 0.54090 0.85162
C8 C 0.4952(16) 0.5411(9) 1.0122(11)
C9 C 0.4292(16) 0.5722(10) 0.9610(11)
C10 C 0.9100(14) 0.7587(10) 0.7891(10)
H9 H 0.88215 0.79091 0.76086
C11 C 0.3468(15) 0.3514(10) 0.1466(10)
H10 H 0.38271 0.32008 0.17376
C12 C 1.0198(14) 0.7456(9) 0.9096(10)
H11 H 1.05992 0.76946 0.96481
C13 C 0.5499(17) 0.6778(10) 1.1215(13)
C14 C 0.3675(16) 0.4337(10) 0.1862(10)
C15 C 0.2462(15) 0.4429(10) 0.0695(10)
C16 C 0.388(2) 0.5227(10) 0.3211(11)
C17 C 0.3636(17) 0.8075(10) 1.098(1)
H12 H 0.28592 0.76681 1.08253
C18 C 0.4288(17) 0.6574(10) 0.9898(12)
C19 C 0.859(2) 0.5884(10) 0.6130(11)
C20 C 0.4650(17) 0.5583(9) 0.405(1)
C21 C 0.2562(19) 0.2250(11) 0.0301(12)
C22 C 1.0545(15) 0.6161(11) 0.9145(12)
C23 C 0.4845(17) 0.7871(10) 1.096(1)
C24 C 0.686(2) 0.6544(11) 0.6504(12)
C25 C 0.5995(17) 0.8477(10) 1.1217(10)
H13 H 0.68130 0.83332 1.11936
C26 C 0.9756(15) 0.7934(10) 0.867(1)
C27 C 0.6622(18) 0.5698(9) 0.5096(11)
C28 C 0.7509(17) 0.460(1) 0.3954(10)
H14 H 0.78152 0.42223 0.35800
C29 C 0.3209(15) 0.4814(10) 0.1487(9)
H15 H 0.33823 0.53803 0.17511
C30 C 0.5627(16) 0.5903(10) 1.0929(11)
C31 C 0.5958(17) 0.9274(10) 1.1501(10)
C32 C 0.4222(17) 0.6129(9) 0.4591(10)
H16 H 0.34348 0.62900 0.44299
C33 C 0.8841(15) 0.6754(10) 0.751(1)
C34 C 0.6185(18) 0.6235(10) 0.5644(11)
C35 C 0.8193(17) 0.4949(9) 0.4765(10)
H17 H 0.89693 0.47777 0.49254
C36 C 0.4960(17) 0.6457(9) 0.5397(10)
H18 H 0.46482 0.68250 0.57763
C37 C 0.7296(18) 0.9882(11) 1.1819(10)
C38 C 0.2286(18) 0.9087(11) 1.1242(9)
C39 C 0.9343(15) 0.6259(10) 0.7897(10)
H19 H 0.92062 0.56971 0.76211
C40 C 0.7844(18) 0.5512(10) 0.5341(11)
C41 C 0.1861(16) 0.4895(11) 0.0230(12)
C42 C 0.5633(19) 0.4515(11) 0.2894(11)
C43 C 0.3580(18) 0.888(1) 1.1229(10)
C44 C 0.4752(16) 0.9466(10) 1.1488(10)
H20 H 0.47140 1.00158 1.16625
C45 C 0.6324(16) 0.5605(10) 1.1450(11)
H21 H 0.67652 0.59367 1.19834
O21 O 0.3859(16) 0.1371(9) 0.2073(10)
H22 H 0.37318 0.12822 0.24824
H23 H 0.31953 0.10907 0.16642
N4 N 0.5910(19) 0.1830(18) 0.1431(13)
H24 H 0.52910 0.20926 0.12945
H25 H 0.55601 0.15212 0.16659
C46 C 0.607(2) 0.1282(12) 0.0699(14)
H26 H 0.52065 0.09796 0.03370
H27 H 0.65870 0.09072 0.08126
H28 H 0.65359 0.15903 0.04548
C47 C 0.700(2) 0.2424(12) 0.2019(14)
H29 H 0.74960 0.27074 0.17703
H30 H 0.75684 0.21640 0.22877
H31 H 0.66689 0.28078 0.24027
O2A O 0.7825(10) 0.0198(7) 0.8677(6)
O10A O 0.1728(12) 0.0353(6) 0.8261(7)
N2A N 0.5121(12) 0.2960(8) 0.9338(8)
O13A O 0.8689(11) 0.1440(6) 0.8877(6)
O17A O 0.6257(11) 0.3134(6) 1.0542(7)
O18A O 0.3990(12) 0.2787(7) 0.8076(8)
O19A O 0.2802(10) -0.0605(6) 0.7840(7)
C7A C 0.6334(15) 0.4799(9) 1.1142(10)
H8A H 0.68205 0.45910 1.14838
C8A C 0.5048(16) 0.4589(9) 0.9878(11)
C9A C 0.5708(16) 0.4278(10) 1.0390(11)
C13A C 0.4501(17) 0.3222(10) 0.8785(13)
C17A C 0.6364(17) 0.1925(10) 0.902(1)
H12A H 0.71408 0.23319 0.91747
C18A C 0.5712(17) 0.3426(10) 1.0102(12)
C23A C 0.5155(17) 0.2129(10) 0.904(1)
C25A C 0.4005(17) 0.1523(10) 0.8783(10)
H13A H 0.31870 0.16668 0.88064
C30A C 0.4373(16) 0.4097(10) 0.9071(11)
C31A C 0.4042(17) 0.0726(10) 0.8499(10)
C37A C 0.2704(18) 0.0118(11) 0.8181(10)
C38A C 0.7714(18) 0.0913(11) 0.8758(9)
C43A C 0.6420(18) 0.112(1) 0.8771(10)
C44A C 0.5248(16) 0.0534(10) 0.8512(10)
H20A H 0.52860 -0.00158 0.83375
C45A C 0.3676(16) 0.4395(10) 0.8550(11)
H21A H 0.32348 0.40633 0.80166
Eu1A Eu 0.02561(10) 0.05905(6) -0.10539(6)
O1A O 0.0275(10) 0.0781(6) 0.1315(6)
O3A O 0.7875(11) 0.4329(7) 0.9346(6)
H1A H 0.83047 0.41006 0.96014
O4A O 0.8355(12) 0.8104(6) 1.0363(7)
O5A O 0.8799(11) 0.5424(6) 1.0446(7)
O6A O -0.0256(10) 0.0913(6) 0.0163(7)
O7A O -0.1047(11) 0.3535(6) 0.0145(7)
O8A O 0.0277(12) 0.4196(6) 0.3664(6)
O9A O 0.3602(11) 0.3058(7) 0.3004(7)
O11A O 0.7191(11) 0.4640(6) 0.6994(7)
O12A O 0.2113(10) 0.0384(6) -0.0185(6)
H2A H 0.18171 0.01365 0.00995
H3A H 0.25083 0.00433 -0.04643
N1A N 0.1908(13) 0.3621(7) 0.3326(8)
O14A O 0.3965(11) 0.5931(6) 0.7596(6)
O15A O -0.0373(11) 0.4596(7) 0.1284(6)
H4A H -0.05926 0.48458 0.09910
O16A O 0.6765(11) 0.8106(6) 0.9366(7)
N3A N 0.5576(13) 0.5275(7) 0.7326(8)
C1A C 0.0072(15) 0.1175(11) 0.0896(10)
C2A C 0.4121(17) 0.4608(9) 0.5692(10)
C3A C 0.7791(15) 0.6397(10) 0.9704(10)
H5A H 0.83264 0.66427 1.02331
C4A C 0.3636(18) 0.5154(10) 0.6258(10)
O20A O -0.0731(11) 0.0268(8) -0.2437(7)
H6A H -0.02929 0.03651 -0.28312
H7A H -0.16745 0.00084 -0.27501
C5A C 0.7251(16) 0.6859(10) 0.9317(10)
C6A C -0.0030(15) 0.338(1) 0.1319(10)
C10A C 0.0900(14) 0.2413(10) 0.2109(10)
H9A H 0.11785 0.20909 0.23914
C11A C 0.6532(15) 0.6486(10) 0.8534(10)
H10A H 0.61729 0.67992 0.82624
C12A C -0.0198(14) 0.2544(9) 0.0904(10)
H11A H -0.05992 0.23054 0.03519
C14A C 0.6325(16) 0.5663(10) 0.8138(10)
C15A C 0.7538(15) 0.5571(10) 0.9305(10)
C16A C 0.612(2) 0.4773(10) 0.6789(11)
C19A C 0.141(2) 0.4116(10) 0.3870(11)
C20A C 0.5350(17) 0.4417(9) 0.595(1)
C21A C 0.7438(19) 0.7750(11) 0.9699(12)
C22A C -0.0545(15) 0.3839(11) 0.0855(12)
C24A C 0.314(2) 0.3456(11) 0.3496(12)
C26A C 0.0244(15) 0.2066(10) 0.133(1)
C27A C 0.3378(18) 0.4302(9) 0.4904(11)
C28A C 0.2491(17) 0.540(1) 0.6046(10)
H14A H 0.21848 0.57777 0.64200
C29A C 0.6791(15) 0.5186(10) 0.8513(9)
H15A H 0.66177 0.46197 0.82489
C32A C 0.5778(17) 0.3871(9) 0.5409(10)
H16A H 0.65651 0.37100 0.55701
C33A C 0.1159(15) 0.3246(10) 0.249(1)
C34A C 0.3815(18) 0.3765(10) 0.4356(11)
C35A C 0.1807(17) 0.5051(9) 0.5235(10)
H17A H 0.10307 0.52223 0.50746
C36A C 0.5040(17) 0.3543(9) 0.4603(10)
H18A H 0.53518 0.31750 0.42237
C39A C 0.0657(15) 0.3741(10) 0.2103(10)
H19A H 0.07938 0.43029 0.23789
C40A C 0.2156(18) 0.4488(10) 0.4659(11)
C41A C 0.8139(16) 0.5105(11) 0.9770(12)
C42A C 0.4367(19) 0.5485(11) 0.7106(11)
Eu1* Eu -0.02561(10) -0.05905(6) 0.10539(6)
Eu1** Eu -0.02561(10) 0.94095(6) 1.10539(6)
Eu1A* Eu 0.02561(10) 0.05905(6) 0.89461(6)
Eu1A** Eu 1.02561(10) 0.05905(6) 0.89461(6)
Eu1A*** Eu 1.02561(10) 1.05905(6) 0.89461(6)
O1* O -0.0275(10) -0.0781(6) -0.1315(6)
O1A* O 1.0275(10) 1.0781(6) 1.1315(6)
O2* O 1.2175(10) 0.9802(7) 1.1323(6)
O2A* O -0.2175(10) 0.0198(7) -0.1323(6)
O10A* O 0.1728(12) 0.0353(6) -0.1739(7)
O13* O 1.1311(11) 0.8560(6) 1.1123(6)
O13A* O -0.1311(11) 0.1440(6) -0.1123(6)
#END
