
#######################################################################
#
#                 Cambridge Crystallographic Data Centre
#                                CCDC
#
#######################################################################
#
# If this CIF has been generated from an entry in the Cambridge
# Structural Database, then it will include bibliographic, chemical,
# crystal, experimental, refinement or atomic coordinate data resulting
# from the CCDC's data processing and validation procedures.
#
#######################################################################

data_CSD_CIF_TIHRUA
_audit_creation_date 2018-10-09
_audit_creation_method CSD-ConQuest-V1
_database_code_CSD TIHRUA
_database_code_depnum_ccdc_archive 'CCDC 1831031'
_chemical_formula_sum 'C106 H86 N12 O44 Tb2'
_chemical_formula_moiety
;
(C102 H66 N10 O42 Tb2 2-)n,2(C2 H8 N1 1+),2(H2 O1)
;
_journal_coden_Cambridge 9
_journal_volume 57
_journal_year 2018
_journal_page_first 13772
_journal_name_full 'Inorg.Chem. '
loop_
_publ_author_name
"H.T.D.Nguyen"
"Y.B.N.Tran"
"H.N.Nguyen"
"T.C.Nguyen"
"F.Gandara"
"P.T.K.Nguyen"
_chemical_name_systematic
;
catena-[bis(dimethylammonium) 
bis(\m-3,3'-(1,3,6,8-tetraoxo-1,3,6,8-tetrahydrobenzo[lmn][3,8]phenanthroline-
2,7-diyl)bis(5-carboxybenzoato))-(\m- 
5,5'-(1,3,6,8-tetraoxo-1,3,6,8-tetrahydrobenzo[lmn][3,8]phenanthroline-2,7-diy
l)di(benzene-1,3-dicarboxylato))-diaqua-tetrakis(N,N-dimethylformamide)-di-ter
bium unknown solvate dihydrate]
;
_chemical_name_common
;
MOF-592
;
_cell_volume   3309.533
_exptl_crystal_colour 'light yellow'
_exptl_crystal_density_diffrn 1.264
_exptl_special_details
;
Solvent thermal synthesis

;
_exptl_crystal_description 'block'
_diffrn_ambient_temperature 296.1
_refine_special_details
;
Disordered solvent molecules were not modelled and the disordered density was 
taken into account using the MASK/OLEX2 procedure.
;
#These two values have been output from a single CSD field.
_refine_ls_R_factor_gt 0.0566
_refine_ls_wR_factor_gt 0.0566
_symmetry_cell_setting triclinic
_symmetry_space_group_name_H-M 'P -1'
_symmetry_Int_Tables_number 2
loop_
_symmetry_equiv_pos_site_id
_symmetry_equiv_pos_as_xyz
1 x,y,z
2 -x,-y,-z
_cell_length_a 10.6566(3)
_cell_length_b 18.1300(5)
_cell_length_c 19.5006(5)
_cell_angle_alpha 65.601(2)
_cell_angle_beta 74.964(2)
_cell_angle_gamma 81.317(2)
_cell_formula_units_Z 1
loop_
_atom_type_symbol
_atom_type_radius_bond
C 0.68
H 0.23
N 0.68
O 0.68
Tb 1.94
loop_
_atom_site_label
_atom_site_type_symbol
_atom_site_fract_x
_atom_site_fract_y
_atom_site_fract_z
Tb1 Tb 0.89279(3) 0.55878(2) 0.10741(2)
O1 O 0.8150(4) -0.3094(2) 1.03330(19)
O2 O 0.0499(4) 0.6410(2) 0.1095(2)
O3 O 0.8420(4) 0.0717(2) 0.9323(2)
O4 O 0.7741(4) 0.5381(2) 0.0230(2)
H1 H 0.82371 0.51050 -0.00450
H2 H 0.75584 0.58545 -0.01432
O5 O 0.9297(4) 0.4223(2) 0.12483(19)
O6 O 0.9583(4) 0.4129(2) 0.01173(19)
O7 O 0.4456(4) 0.8088(2) -0.0558(2)
O8 O 0.8339(4) 0.0429(2) 0.1231(2)
O9 O 0.8756(4) 0.1493(2) 0.0113(2)
O10 O 0.6890(4) 0.5229(2) 0.1798(2)
O11 O 1.0024(4) 0.0375(2) 0.7089(2)
O12 O 1.0640(4) 0.1880(3) 0.3084(2)
O13 O 0.6692(4) 0.0921(3) 0.3471(2)
O14 O 0.7427(4) -0.3084(2) 0.9348(2)
O15 O 0.8296(4) -0.0392(2) 1.0418(2)
O16 O 0.6318(4) -0.0837(2) 0.7453(2)
N1 N 0.8193(4) -0.0260(2) 0.7284(2)
N2 N 0.8683(4) 0.1398(2) 0.3260(2)
O17 O 0.4418(5) 0.7772(2) 0.1881(2)
O18 O 0.1246(4) 0.5157(2) 0.1274(2)
N3 N 0.4450(4) 0.7927(2) 0.0660(2)
O19 O 0.5456(4) 0.4296(2) 0.2176(3)
C1 C 0.9077(5) 0.2941(3) 0.1254(3)
C2 C 0.8603(5) 0.1178(3) 0.0827(3)
C3 C 0.8711(5) 0.1669(3) 0.1258(3)
C4 C 0.5107(5) 1.0418(3) -0.0134(3)
C5 C 0.8004(5) -0.1469(3) 0.8490(3)
H3 H 0.79545 -0.17788 0.82190
C6 C 0.5228(5) 1.0740(3) 0.0397(3)
C7 C 0.7953(5) -0.1839(3) 0.9279(3)
C8 C 0.4806(5) 0.9087(3) 0.0925(3)
C9 C 0.8957(5) 0.2490(3) 0.0851(3)
H4 H 0.90384 0.27299 0.03194
C10 C 0.8128(5) -0.0635(3) 0.8106(3)
C11 C 0.8310(5) -0.0051(3) 0.9715(3)
C12 C 0.4169(5) 0.7075(3) 0.0948(3)
C13 C 0.8742(5) 0.1767(3) 0.2441(3)
C14 C 0.7563(5) 0.0541(3) 0.4571(3)
C15 C 0.9316(5) 0.0582(3) 0.5972(3)
C16 C 0.7236(5) -0.0441(3) 0.7006(3)
C17 C 0.9683(5) 0.1539(3) 0.3528(3)
C18 C 0.9239(5) 0.0239(3) 0.6813(3)
C19 C 0.8499(5) 0.0726(3) 0.4870(3)
C20 C 0.2975(5) 0.6881(3) 0.0948(3)
H5 H 0.23561 0.72898 0.07685
C21 C 0.8169(5) -0.0543(3) 0.9291(3)
C22 C 0.3619(5) 0.5469(3) 0.1503(3)
H6 H 0.34328 0.49266 0.16925
C23 C 0.8945(5) 0.2583(3) 0.2054(3)
H7 H 0.89949 0.28945 0.23229
C24 C 0.8399(5) 0.0389(3) 0.5677(3)
C25 C 0.8192(5) -0.0165(3) 0.8502(3)
H8 H 0.82491 0.03936 0.82471
C26 C 0.4555(5) 0.8393(3) -0.0129(3)
C27 C 0.5146(5) 1.0233(3) 0.1166(3)
H9 H 0.52486 1.04400 0.15111
C28 C 0.8068(5) -0.1379(3) 0.9680(3)
H10 H 0.80773 -0.16270 1.02023
C29 C 0.7386(5) -0.0129(3) 0.6164(3)
C30 C 0.8621(5) 0.1294(3) 0.2055(3)
H11 H 0.84831 0.07432 0.23194
C31 C 0.2693(6) 0.6071(3) 0.1219(3)
C32 C 1.0318(6) 0.1079(3) 0.5481(3)
H12 H 1.09227 0.11997 0.56835
C33 C 0.9534(5) 0.1225(3) 0.4373(3)
C34 C 0.4807(5) 0.5672(3) 0.1507(3)
C35 C 0.4914(5) 0.9418(3) 0.1425(3)
H13 H 0.48291 0.90902 0.19470
C36 C 0.4551(6) 0.8221(3) 0.1213(3)
C37 C 0.5097(6) 0.6479(3) 0.1219(3)
H14 H 0.59088 0.66168 0.12093
C38 C 0.7837(5) -0.2752(3) 0.9691(3)
C39 C 0.9347(5) 0.3839(3) 0.0835(3)
C40 C 0.5791(6) 0.5014(3) 0.1847(3)
C41 C 1.0426(6) 0.1402(3) 0.4683(3)
H15 H 1.11006 0.17366 0.43582
C42 C 0.1403(6) 0.5854(3) 0.1203(3)
C43 C 0.6539(6) -0.0327(3) 0.5855(3)
H16 H 0.58948 -0.06870 0.61797
C44 C 0.6627(6) 0.0006(3) 0.5052(3)
H17 H 0.60484 -0.01381 0.48490
C45 C 0.7581(6) 0.0951(3) 0.3742(3)
O20 O 0.7968(8) 0.6446(5) 0.1923(4)
C46 C 0.9323(16) 0.5035(10) 0.2937(10)
O21 O 0.9021(7) 0.4992(6) 0.2423(3)
N4 N 0.7806(11) 0.7573(7) 0.2196(6)
C47 C 0.859(2) 0.8255(12) 0.2095(12)
N5 N 0.9700(15) 0.4452(10) 0.3639(9)
C48 C 0.6783(18) 0.7210(12) 0.2929(10)
C49 C 0.9958(18) 0.3562(11) 0.3791(11)
C50 C 0.8405(12) 0.7162(7) 0.1752(7)
C51 C 0.959(4) 0.476(2) 0.4259(19)
H18 H 0.846(10) 0.095(6) 0.965(5)
O22 O 0.2071(6) 0.3562(3) 0.2073(4)
H19 H 0.18166 0.40348 0.17971
H20 H 0.131(5) 0.338(6) 0.222(6)
C52 C 0.5320(8) 0.3714(4) 0.0732(4)
H21 H 0.47918 0.39858 0.03584
H22 H 0.60769 0.34590 0.05107
H23 H 0.55833 0.41015 0.08786
N6 N 0.4589(7) 0.3114(5) 0.1396(4)
H24 H 0.39742 0.33713 0.16344
H25 H 0.41863 0.28429 0.12319
C53 C 0.5252(8) 0.2534(4) 0.1957(4)
H26 H 0.58724 0.22141 0.17251
H27 H 0.46347 0.21860 0.23777
H28 H 0.56961 0.28093 0.21447
O2A O 0.9501(4) 1.3590(2) -0.1095(2)
O7A O 0.5544(4) 1.1912(2) 0.0558(2)
O10A O 0.3110(4) 1.4771(2) -0.1798(2)
O17A O 0.5582(5) 1.2228(2) -0.1881(2)
O18A O 0.8754(4) 1.4843(2) -0.1274(2)
N3A N 0.5550(4) 1.2073(2) -0.0660(2)
O19A O 0.4544(4) 1.5704(2) -0.2176(3)
C4A C 0.4893(5) 0.9582(3) 0.0134(3)
C6A C 0.4772(5) 0.9260(3) -0.0397(3)
C8A C 0.5194(5) 1.0913(3) -0.0925(3)
C12A C 0.5831(5) 1.2925(3) -0.0948(3)
C20A C 0.7025(5) 1.3119(3) -0.0948(3)
H5A H 0.76439 1.27102 -0.07685
C22A C 0.6381(5) 1.4531(3) -0.1503(3)
H6A H 0.65672 1.50734 -0.16925
C26A C 0.5445(5) 1.1607(3) 0.0129(3)
C27A C 0.4854(5) 0.9767(3) -0.1166(3)
H9A H 0.47514 0.95600 -0.15111
C31A C 0.7307(6) 1.3929(3) -0.1219(3)
C34A C 0.5193(5) 1.4328(3) -0.1507(3)
C35A C 0.5086(5) 1.0582(3) -0.1425(3)
H13A H 0.51709 1.09098 -0.19470
C36A C 0.5449(6) 1.1779(3) -0.1213(3)
C37A C 0.4903(6) 1.3521(3) -0.1219(3)
H14A H 0.40912 1.33832 -0.12093
C40A C 0.4209(6) 1.4986(3) -0.1847(3)
C42A C 0.8597(6) 1.4146(3) -0.1203(3)
Tb1A Tb 0.10721(3) 1.44122(2) -0.10741(2)
O1A O 0.1850(4) 2.3094(2) -1.03330(19)
O3A O 0.1580(4) 1.9283(2) -0.9323(2)
O4A O 0.2259(4) 1.4619(2) -0.0230(2)
H1A H 0.17629 1.48950 0.00450
H2A H 0.24416 1.41455 0.01432
O5A O 0.0703(4) 1.5777(2) -0.12483(19)
O6A O 0.0417(4) 1.5871(2) -0.01173(19)
O8A O 0.1661(4) 1.9571(2) -0.1231(2)
O9A O 0.1244(4) 1.8507(2) -0.0113(2)
O11A O -0.0024(4) 1.9625(2) -0.7089(2)
O12A O -0.0640(4) 1.8120(3) -0.3084(2)
O13A O 0.3308(4) 1.9079(3) -0.3471(2)
O14A O 0.2573(4) 2.3084(2) -0.9348(2)
O15A O 0.1704(4) 2.0392(2) -1.0418(2)
O16A O 0.3682(4) 2.0837(2) -0.7453(2)
N1A N 0.1807(4) 2.0260(2) -0.7284(2)
N2A N 0.1317(4) 1.8602(2) -0.3260(2)
C1A C 0.0923(5) 1.7059(3) -0.1254(3)
C2A C 0.1397(5) 1.8822(3) -0.0827(3)
C3A C 0.1289(5) 1.8331(3) -0.1258(3)
C5A C 0.1996(5) 2.1469(3) -0.8490(3)
H3A H 0.20455 2.17788 -0.82190
C7A C 0.2047(5) 2.1839(3) -0.9279(3)
C9A C 0.1043(5) 1.7510(3) -0.0851(3)
H4A H 0.09616 1.72701 -0.03194
C10A C 0.1872(5) 2.0635(3) -0.8106(3)
C11A C 0.1690(5) 2.0051(3) -0.9715(3)
C13A C 0.1258(5) 1.8233(3) -0.2441(3)
C14A C 0.2437(5) 1.9459(3) -0.4571(3)
C15A C 0.0684(5) 1.9418(3) -0.5972(3)
C16A C 0.2764(5) 2.0441(3) -0.7006(3)
C17A C 0.0317(5) 1.8461(3) -0.3528(3)
C18A C 0.0761(5) 1.9761(3) -0.6813(3)
C19A C 0.1501(5) 1.9274(3) -0.4870(3)
C21A C 0.1831(5) 2.0543(3) -0.9291(3)
C23A C 0.1055(5) 1.7417(3) -0.2054(3)
H7A H 0.10051 1.71056 -0.23229
C24A C 0.1601(5) 1.9611(3) -0.5677(3)
C25A C 0.1808(5) 2.0165(3) -0.8502(3)
H8A H 0.17509 1.96064 -0.82471
C28A C 0.1932(5) 2.1379(3) -0.9680(3)
H10A H 0.19227 2.16270 -1.02023
C29A C 0.2614(5) 2.0129(3) -0.6164(3)
C30A C 0.1379(5) 1.8706(3) -0.2055(3)
H11A H 0.15169 1.92568 -0.23194
C32A C -0.0318(6) 1.8921(3) -0.5481(3)
H12A H -0.09227 1.88003 -0.56835
C33A C 0.0466(5) 1.8775(3) -0.4373(3)
C38A C 0.2163(5) 2.2752(3) -0.9691(3)
C39A C 0.0653(5) 1.6161(3) -0.0835(3)
C41A C -0.0426(6) 1.8598(3) -0.4683(3)
H15A H -0.11006 1.82634 -0.43582
C43A C 0.3461(6) 2.0327(3) -0.5855(3)
H16A H 0.41052 2.06870 -0.61797
C44A C 0.3373(6) 1.9994(3) -0.5052(3)
H17A H 0.39516 2.01381 -0.48490
C45A C 0.2419(6) 1.9049(3) -0.3742(3)
O20A O 0.2032(8) 1.3554(5) -0.1923(4)
C46A C 0.0677(16) 1.4965(10) -0.2937(10)
O21A O 0.0979(7) 1.5008(6) -0.2423(3)
N4A N 0.2194(11) 1.2427(7) -0.2196(6)
C47A C 0.141(2) 1.1745(12) -0.2095(12)
N5A N 0.0300(15) 1.5548(10) -0.3639(9)
C48A C 0.3217(18) 1.2790(12) -0.2929(10)
C49A C 0.0042(18) 1.6438(11) -0.3791(11)
C50A C 0.1595(12) 1.2838(7) -0.1752(7)
C51A C 0.041(4) 1.524(2) -0.4259(19)
H18A H 0.154(10) 1.905(6) -0.965(5)
Tb1* Tb -0.10721(3) 0.55878(2) 0.10741(2)
Tb1** Tb -0.10721(3) 1.55878(2) 0.10741(2)
Tb1*** Tb 0.89279(3) -0.44122(2) 1.10741(2)
Tb1A* Tb 0.10721(3) 2.44122(2) -1.10741(2)
Tb1A** Tb 1.10721(3) 0.44122(2) -0.10741(2)
Tb1A*** Tb 1.10721(3) 1.44122(2) -0.10741(2)
O1* O 0.8150(4) 0.6906(2) 0.03330(19)
O1A* O 0.1850(4) 1.3094(2) -0.03330(19)
O2* O 1.0499(4) 0.6410(2) 0.1095(2)
O2A* O -0.0499(4) 1.3590(2) -0.1095(2)
O6* O -0.0417(4) 1.4129(2) 0.01173(19)
O6A* O 1.0417(4) 0.5871(2) -0.01173(19)
O18* O 1.1246(4) 0.5157(2) 0.1274(2)
O18A* O -0.1246(4) 1.4843(2) -0.1274(2)
#END
