
#######################################################################
#
#                 Cambridge Crystallographic Data Centre
#                                CCDC
#
#######################################################################
#
# If this CIF has been generated from an entry in the Cambridge
# Structural Database, then it will include bibliographic, chemical,
# crystal, experimental, refinement or atomic coordinate data resulting
# from the CCDC's data processing and validation procedures.
#
#######################################################################

data_CSD_CIF_TIJNAE
_audit_creation_date 2018-10-10
_audit_creation_method CSD-ConQuest-V1
_database_code_CSD TIJNAE
_database_code_depnum_ccdc_archive 'CCDC 1012874'
_chemical_formula_sum 'C13 H11 K3 N22 O23'
_chemical_formula_moiety
;
(C12 K3 N16 O22 1-)n,C1 H9 N6 1+,H2 O1
;
_journal_coden_Cambridge 1415
_journal_volume 31
_journal_year 2017
_journal_page_first 253
_journal_name_full 'Bull.Chem.Soc.Ethiop. '
loop_
_publ_author_name
"Li-Li An"
"Qian-Qian Yu"
_chemical_name_systematic
;
catena-[triaminoguanidinium bis(\m-bis(gem-dinitro)furazan)-tri-potassium 
monohydrate]
;
_cell_volume   3323.918
_exptl_crystal_colour 'pale yellow'
_exptl_crystal_description 'block'
_diffrn_ambient_temperature 296
#These two values have been output from a single CSD field.
_refine_ls_R_factor_gt 0.0806
_refine_ls_wR_factor_gt 0.0806
_symmetry_cell_setting monoclinic
_symmetry_space_group_name_H-M 'P 21/c'
_symmetry_Int_Tables_number 14
loop_
_symmetry_equiv_pos_site_id
_symmetry_equiv_pos_as_xyz
1 x,y,z
2 -x,1/2+y,1/2-z
3 -x,-y,-z
4 x,-1/2-y,-1/2+z
_cell_length_a 16.224(2)
_cell_length_b 12.6924(15)
_cell_length_c 16.2788(19)
_cell_angle_alpha 90
_cell_angle_beta 97.442(2)
_cell_angle_gamma 90
_cell_formula_units_Z 4
loop_
_atom_type_symbol
_atom_type_radius_bond
C 0.68
H 0.23
K 2.03
N 0.68
O 0.68
loop_
_atom_site_label
_atom_site_type_symbol
_atom_site_fract_x
_atom_site_fract_y
_atom_site_fract_z
K1 K 0.40677(9) 1.02656(12) 0.09149(9)
K2 K 0.34084(11) 0.71692(15) 0.05534(9)
K3 K 0.48837(10) 0.39560(15) 0.12503(10)
N1 N 0.5884(4) 1.1133(5) 0.2284(3)
N2 N 0.6321(4) 1.0885(4) 0.0951(3)
N3 N 0.7883(5) 1.1347(5) 0.2481(5)
N4 N 0.8455(4) 0.9692(5) 0.2618(4)
N5 N 0.7890(3) 0.7569(5) 0.2954(3)
N6 N 0.6866(4) 0.6317(4) 0.2721(4)
N7 N 0.5705(4) 0.6355(5) 0.1080(4)
N8 N 0.5475(3) 0.8098(4) 0.1598(3)
N9 N 0.6965(3) 0.7574(5) -0.0233(3)
N10 N 0.7463(4) 0.5801(5) -0.0423(4)
N11 N 0.8862(4) 0.7749(5) 0.0265(4)
N12 N 0.9401(4) 0.6920(4) 0.1466(3)
N13 N 0.9463(4) 0.5144(5) 0.2425(4)
N14 N 0.8840(3) 0.3733(5) 0.2948(4)
N15 N 0.7179(3) 0.3552(4) 0.1394(3)
N16 N 0.6935(3) 0.3798(4) 0.2811(3)
O1 O 0.5172(3) 1.1392(5) 0.2010(3)
O2 O 0.6104(4) 1.1040(6) 0.3047(3)
O3 O 0.5613(3) 1.0938(5) 0.0574(3)
O4 O 0.6934(3) 1.0791(5) 0.0556(3)
O5 O 0.8587(3) 1.0756(4) 0.2769(4)
O6 O 0.7311(3) 0.8780(3) 0.1938(3)
O7 O 0.7619(3) 0.6578(4) 0.3178(3)
O8 O 0.5654(3) 0.8714(4) 0.2191(3)
O9 O 0.4931(3) 0.8316(4) 0.1015(3)
O10 O 0.5063(3) 0.6368(4) 0.0565(3)
O11 O 0.6155(4) 0.5551(4) 0.1141(4)
O12 O 0.7108(3) 0.8438(4) 0.0118(3)
O13 O 0.6319(3) 0.7437(4) -0.0720(3)
O14 O 0.6791(4) 0.5470(5) -0.0760(5)
O15 O 0.8101(4) 0.5238(4) -0.0343(4)
O16 O 0.9515(3) 0.7716(4) 0.0897(3)
O17 O 0.8300(3) 0.5708(4) 0.1504(3)
O18 O 0.9563(3) 0.4316(4) 0.2985(3)
O19 O 0.7711(3) 0.3592(5) 0.0908(3)
O20 O 0.6462(3) 0.3236(4) 0.1152(3)
O21 O 0.6189(3) 0.3583(6) 0.2664(3)
O22 O 0.7245(3) 0.4015(4) 0.3543(3)
C1 C 0.6493(4) 1.0926(5) 0.1792(4)
C2 C 0.7336(4) 1.0663(6) 0.2165(4)
C3 C 0.7707(4) 0.9650(5) 0.2265(4)
C4 C 0.7311(4) 0.7872(5) 0.2385(4)
C5 C 0.6675(4) 0.7098(5) 0.2215(4)
C6 C 0.5930(4) 0.7165(5) 0.1612(4)
C7 C 0.7558(4) 0.6795(5) -0.0078(4)
C8 C 0.8349(4) 0.7005(5) 0.0419(4)
C9 C 0.8699(4) 0.6504(5) 0.1163(4)
C10 C 0.8702(4) 0.5062(5) 0.2084(4)
C11 C 0.8293(4) 0.4191(5) 0.2403(4)
C12 C 0.7445(4) 0.3851(5) 0.2209(4)
N17 N 0.1439(4) 0.6971(5) 0.0593(4)
H1 H 0.12470 0.67650 0.10350
N18 N 0.0920(4) 0.7216(5) -0.0095(4)
H2 H 0.06070 0.67360 -0.03450
N19 N 0.1338(5) 0.9972(5) -0.0256(5)
H3 H 0.10510 1.01390 -0.07190
H4 H 0.16300 1.04420 0.00300
N20 N 0.1330(4) 0.8949(5) 0.0030(4)
H5 H 0.16200 0.87920 0.04940
N21 N -0.0003(6) 0.7723(8) -0.1631(5)
H6 H 0.00570 0.70600 -0.15330
H7 H -0.03120 0.79360 -0.20680
N22 N 0.0385(4) 0.8426(7) -0.1101(4)
H8 H 0.03080 0.90810 -0.12220
C13 C 0.0887(4) 0.8200(7) -0.0392(4)
O23 O 0.0132(6) 0.4535(7) 0.0735(6)
K1A K 0.59323(9) 0.52656(12) 0.40851(9)
K1B K 0.59323(9) 0.97344(12) -0.09149(9)
K2A K 0.65916(11) 1.21692(15) 0.44466(9)
K2B K 0.65916(11) 0.28308(15) -0.05534(9)
K3A K 0.51163(10) 0.89560(15) 0.37497(10)
K3B K 0.51163(10) 0.60440(15) -0.12503(10)
O2A O 0.3896(4) 0.6040(6) 0.1953(3)
O3B O 0.4387(3) 0.9062(5) -0.0574(3)
O8A O 0.4346(3) 0.3714(4) 0.2809(3)
O10B O 0.4937(3) 0.3632(4) -0.0565(3)
O12B O 0.2892(3) 1.1562(4) -0.0118(3)
O13B O 0.3681(3) 0.2563(4) 0.0720(3)
O13B* O 0.3681(3) 1.2563(4) 0.0720(3)
O14B O 0.3209(4) 0.4530(5) 0.0760(5)
O19B O 0.2289(3) 0.6408(5) -0.0908(3)
O20B O 0.3538(3) 0.6764(4) -0.1152(3)
O22A O 0.2755(3) 0.9015(4) 0.1457(3)
#END
