
#######################################################################
#
#                 Cambridge Crystallographic Data Centre
#                                CCDC
#
#######################################################################
#
# If this CIF has been generated from an entry in the Cambridge
# Structural Database, then it will include bibliographic, chemical,
# crystal, experimental, refinement or atomic coordinate data resulting
# from the CCDC's data processing and validation procedures.
#
#######################################################################

data_CSD_CIF_TILBOG
_audit_creation_date 2008-01-10
_audit_creation_method CSD-ConQuest-V1
_database_code_CSD TILBOG
_database_code_depnum_ccdc_archive 'CCDC 626366'
_chemical_formula_sum 'C60 H56 Cl2 Cu6 N12 O44 Si1 W12'
_chemical_formula_moiety
;
(C60 H48 Cl2 Cu6 N12 4+)n,n(O40 Si1 W12 4-),4n(H2 O1)
;
_journal_coden_Cambridge 119
_journal_volume 843
_journal_year 2007
_journal_page_first 87
_journal_name_full 'J.Mol.Struct. '
loop_
_publ_author_name
"Yu Wang"
"Dongrong Xiao"
"Linlin Fan"
"Enbo Wang"
"Jia Liu"
_chemical_name_systematic
;
catena-(bis(\m~3~-chloro)-hexakis(\m~2~-4,4'-bipyridine)-hexa-copper(i) 
(\m~12~-silicato)-tetracosakis(\m~2~-oxo)-dodecaoxo-dodeca-tungsten(vi) 
tetrahydrate)
;
_cell_volume   2189.291
_exptl_crystal_colour 'red black'
_exptl_crystal_density_diffrn 3.288
_exptl_crystal_description 'block'
_diffrn_ambient_temperature 293
_refine_special_details
;
Four anion O atoms are disordered by symmetry.

;
#These two values have been output from a single CSD field.
_refine_ls_R_factor_gt 0.0467
_refine_ls_wR_factor_gt 0.0467
_symmetry_cell_setting triclinic
_symmetry_space_group_name_H-M 'P -1'
_symmetry_Int_Tables_number 2
loop_
_symmetry_equiv_pos_site_id
_symmetry_equiv_pos_as_xyz
1 x,y,z
2 -x,-y,-z
_cell_length_a 10.904(2)
_cell_length_b 15.087(3)
_cell_length_c 15.303(3)
_cell_angle_alpha 116.23(3)
_cell_angle_beta 100.08(3)
_cell_angle_gamma 94.40(3)
_cell_formula_units_Z 1
loop_
_atom_type_symbol
_atom_type_radius_bond
C 0.68
H 0.23
Cl 0.99
Cu 1.52
N 0.68
O 0.68
Si 1.20
W 1.37
loop_
_atom_site_label
_atom_site_type_symbol
_atom_site_fract_x
_atom_site_fract_y
_atom_site_fract_z
Cu1 Cu 0.10971(17) -0.4354(3) 0.1620(2)
Cu2 Cu 0.17094(15) -0.44888(18) 0.3942(2)
Cu3 Cu 0.17027(13) -0.13040(17) 0.36580(16)
W1 W 0.15412(4) -0.12887(4) -0.19269(4)
W2 W -0.08441(4) -0.26161(4) -0.14463(5)
W3 W 0.08466(4) -0.15770(4) 0.10582(4)
W4 W -0.23608(4) -0.13333(4) 0.05048(4)
W5 W 0.16596(4) 0.10476(4) 0.25258(4)
W6 W 0.32109(4) -0.02148(4) 0.05994(4)
Si1 Si 0.00000 0.00000 0.00000
O1 O -0.0859(9) -0.1546(11) 0.1133(10)
O2 O 0.4482(14) -0.1676(14) -0.3555(15)
O3 O -0.1743(8) -0.2209(9) -0.2324(10)
O4 O 0.4451(14) -0.2640(13) -0.1521(15)
O5 O 0.2999(12) 0.0724(7) 0.1885(10)
O6 O -0.2119(9) -0.2357(10) -0.0724(10)
O7 O 0.0279(9) -0.2493(11) -0.0307(10)
O8 O 0.0634(9) -0.2356(9) -0.1855(11)
O9 O 0.1233(10) -0.0299(7) 0.2227(8)
O10 O 0.2744(12) -0.1090(7) -0.0791(9)
O11 O 0.1302(11) -0.0035(9) -0.0302(10)
O12 O 0.0158(11) 0.0914(10) 0.1136(11)
O13 O -0.3364(11) -0.0875(7) -0.0299(8)
O14 O -0.0481(14) -0.1061(12) 0.0041(13)
O15 O 0.2385(11) -0.1250(7) 0.0779(10)
O16 O 0.2440(8) 0.1553(8) 0.3738(8)
O17 O 0.2127(10) 0.0062(7) -0.1598(8)
O18 O 0.2237(9) -0.1913(8) -0.2858(8)
O19 O 0.4711(8) -0.0293(8) 0.0916(10)
O20 O -0.1099(11) 0.0114(9) -0.0768(11)
O21 O -0.1192(7) -0.3857(6) -0.2127(7)
O22 O -0.3456(8) -0.1979(8) 0.0734(8)
O23 O 0.0003(8) -0.1209(9) -0.2679(11)
O24 O 0.1284(8) -0.2305(7) 0.1591(9)
N1 N 0.3487(9) -0.4584(9) 0.4018(12)
N2 N -0.0713(10) -0.4498(13) 0.1344(12)
N3 N -0.7242(11) -0.4471(13) 0.1407(11)
N4 N 0.0009(8) -0.1130(9) 0.3793(9)
N5 N -0.6503(8) -0.1085(8) 0.3759(9)
N6 N 1.0009(10) -0.458(1) 0.4154(12)
C1 C -0.6470(15) -0.3691(16) 0.1538(18)
H1 H -0.67920 -0.31020 0.16800
C2 C 0.4321(13) -0.3775(12) 0.4450(16)
H2 H 0.40440 -0.31630 0.47320
C3 C 0.3950(13) -0.5459(12) 0.3638(13)
H3 H 0.33800 -0.60590 0.33360
C4 C -0.0636(12) -0.1668(15) 0.4108(15)
H4 H -0.02220 -0.20830 0.43140
C5 C 0.5603(11) -0.3761(12) 0.4518(17)
H5 H 0.61550 -0.31490 0.48590
C6 C -0.5189(13) -0.3669(13) 0.1481(16)
H6 H -0.47130 -0.30960 0.15440
C7 C -0.4674(10) -0.4476(11) 0.1338(11)
C8 C 0.9143(12) -0.5359(14) 0.3496(14)
H7 H 0.93930 -0.59020 0.30100
C9 C 0.5196(12) -0.5502(13) 0.3677(12)
H8 H 0.54690 -0.61170 0.34220
C10 C -0.1251(15) -0.3683(15) 0.1540(17)
H9 H -0.07380 -0.30910 0.16830
C11 C -0.1480(14) -0.5302(15) 0.1137(16)
H10 H -0.11470 -0.58860 0.10020
C12 C -0.2779(12) -0.5349(12) 0.1102(15)
H11 H -0.32750 -0.59550 0.09390
C13 C -0.6719(13) -0.5255(17) 0.1232(17)
H12 H -0.72270 -0.58260 0.11440
C14 C 0.9623(10) -0.3807(11) 0.4824(13)
H13 H 1.02220 -0.32440 0.52790
C15 C 0.8373(11) -0.3798(11) 0.4877(13)
H14 H 0.81540 -0.32580 0.53870
C16 C -0.4445(11) -0.1279(10) 0.4471(11)
H15 H -0.39540 -0.14280 0.49330
C17 C 0.6063(11) -0.4603(12) 0.4108(13)
C18 C -0.5486(13) -0.5329(13) 0.1165(17)
H16 H -0.51990 -0.59340 0.10070
C19 C -0.1912(11) -0.1641(12) 0.4145(13)
H17 H -0.23240 -0.20310 0.43730
C20 C 0.7878(13) -0.5397(12) 0.3506(13)
H18 H 0.73080 -0.59780 0.30520
C21 C 0.7439(11) -0.4601(10) 0.4165(12)
C22 C -0.2508(12) -0.3657(13) 0.1546(16)
H19 H -0.28130 -0.30580 0.17130
C23 C -0.3315(10) -0.4528(9) 0.1301(11)
C24 C -0.469(1) -0.083(1) 0.3137(10)
H20 H -0.43610 -0.06690 0.26940
C25 C -0.3925(9) -0.1048(9) 0.3819(10)
C26 C -0.2539(9) -0.1045(10) 0.3847(10)
C27 C -0.5735(11) -0.1280(11) 0.4403(12)
H21 H -0.60870 -0.14280 0.48440
C28 C -0.0598(11) -0.0525(12) 0.3543(12)
H22 H -0.01590 -0.01220 0.33430
C29 C -0.1870(11) -0.0453(11) 0.3560(12)
H23 H -0.22530 -0.00100 0.33790
C30 C -0.598(1) -0.0862(11) 0.3143(12)
H24 H -0.64990 -0.07190 0.26880
Cl1 Cl 0.1616(3) -0.3120(3) 0.3459(4)
Cu1* Cu 1.10971(17) -0.4354(3) 0.1620(2)
Cu1** Cu -0.89029(17) -0.4354(3) 0.1620(2)
Cu2* Cu -0.82906(15) -0.44888(18) 0.3942(2)
Cu2** Cu 1.17094(15) -0.44888(18) 0.3942(2)
Cu3* Cu 1.17027(13) -0.13040(17) 0.36580(16)
Cu3** Cu -0.82973(13) -0.13040(17) 0.36580(16)
W1A W -0.15412(4) 0.12887(4) 0.19269(4)
W2A W 0.08441(4) 0.26161(4) 0.14463(5)
W3A W -0.08466(4) 0.15770(4) -0.10582(4)
W4A W 0.23608(4) 0.13333(4) -0.05048(4)
W5A W -0.16596(4) -0.10476(4) -0.25258(4)
W6A W -0.32109(4) 0.02148(4) -0.05994(4)
O1A O 0.0859(9) 0.1546(11) -0.1133(10)
O3A O 0.1743(8) 0.2209(9) 0.2324(10)
O5A O -0.2999(12) -0.0724(7) -0.1885(10)
O6A O 0.2119(9) 0.2357(10) 0.0724(10)
O7A O -0.0279(9) 0.2493(11) 0.0307(10)
O8A O -0.0634(9) 0.2356(9) 0.1855(11)
O9A O -0.1233(10) 0.0299(7) -0.2227(8)
O10A O -0.2744(12) 0.1090(7) 0.0791(9)
O11A O -0.1302(11) 0.0035(9) 0.0302(10)
O12A O -0.0158(11) -0.0914(10) -0.1136(11)
O13A O 0.3364(11) 0.0875(7) 0.0299(8)
O14A O 0.0481(14) 0.1061(12) -0.0041(13)
O15A O -0.2385(11) 0.1250(7) -0.0779(10)
O16A O -0.2440(8) -0.1553(8) -0.3738(8)
O17A O -0.2127(10) -0.0062(7) 0.1598(8)
O18A O -0.2237(9) 0.1913(8) 0.2858(8)
O19A O -0.4711(8) 0.0293(8) -0.0916(10)
O20A O 0.1099(11) -0.0114(9) 0.0768(11)
O21A O 0.1192(7) 0.3857(6) 0.2127(7)
O22A O 0.3456(8) 0.1979(8) -0.0734(8)
O23A O -0.0003(8) 0.1209(9) 0.2679(11)
O24A O -0.1284(8) 0.2305(7) -0.1591(9)
N1* N -0.6513(9) -0.4584(9) 0.4018(12)
N2* N 0.9287(10) -0.4498(13) 0.1344(12)
N3* N 0.2758(11) -0.4471(13) 0.1407(11)
N3** N 1.2758(11) -0.4471(13) 0.1407(11)
N4* N 1.0009(8) -0.1130(9) 0.3793(9)
N5* N 0.3497(8) -0.1085(8) 0.3759(9)
N5** N 1.3497(8) -0.1085(8) 0.3759(9)
N6* N 0.0009(10) -0.458(1) 0.4154(12)
N6** N -0.9991(10) -0.458(1) 0.4154(12)
C1* C 0.3530(15) -0.3691(16) 0.1538(18)
H1* H 0.32080 -0.31020 0.16800
C2* C -0.5679(13) -0.3775(12) 0.4450(16)
H2* H -0.59560 -0.31630 0.47320
C3* C -0.6050(13) -0.5459(12) 0.3638(13)
H3* H -0.66200 -0.60590 0.33360
C4* C 0.9364(12) -0.1668(15) 0.4108(15)
H4* H 0.97780 -0.20830 0.43140
C5* C -0.4397(11) -0.3761(12) 0.4518(17)
H5* H -0.38450 -0.31490 0.48590
C6* C 0.4811(13) -0.3669(13) 0.1481(16)
H6* H 0.52870 -0.30960 0.15440
C7* C 0.5326(10) -0.4476(11) 0.1338(11)
C8* C -0.0857(12) -0.5359(14) 0.3496(14)
H7* H -0.06070 -0.59020 0.30100
C9* C -0.4804(12) -0.5502(13) 0.3677(12)
H8* H -0.45310 -0.61170 0.34220
C10* C 0.8749(15) -0.3683(15) 0.1540(17)
H9* H 0.92620 -0.30910 0.16830
C11* C 0.8520(14) -0.5302(15) 0.1137(16)
H10* H 0.88530 -0.58860 0.10020
C12* C 0.7221(12) -0.5349(12) 0.1102(15)
H11* H 0.67250 -0.59550 0.09390
C13* C 0.3281(13) -0.5255(17) 0.1232(17)
H12* H 0.27730 -0.58260 0.11440
C14* C -0.0377(10) -0.3807(11) 0.4824(13)
H13* H 0.02220 -0.32440 0.52790
C15* C -0.1627(11) -0.3798(11) 0.4877(13)
H14* H -0.18460 -0.32580 0.53870
C16* C 0.5555(11) -0.1279(10) 0.4471(11)
H15* H 0.60460 -0.14280 0.49330
C17* C -0.3937(11) -0.4603(12) 0.4108(13)
C18* C 0.4514(13) -0.5329(13) 0.1165(17)
H16* H 0.48010 -0.59340 0.10070
C19* C 0.8088(11) -0.1641(12) 0.4145(13)
H17* H 0.76760 -0.20310 0.43730
C20* C -0.2122(13) -0.5397(12) 0.3506(13)
H18* H -0.26920 -0.59780 0.30520
C21* C -0.2561(11) -0.4601(10) 0.4165(12)
C22* C 0.7492(12) -0.3657(13) 0.1546(16)
H19* H 0.71870 -0.30580 0.17130
C23* C 0.6685(10) -0.4528(9) 0.1301(11)
C24* C 0.531(1) -0.083(1) 0.3137(10)
H20* H 0.56390 -0.06690 0.26940
C25* C 0.6075(9) -0.1048(9) 0.3819(10)
C26* C 0.7461(9) -0.1045(10) 0.3847(10)
C27* C 0.4265(11) -0.1280(11) 0.4403(12)
H21* H 0.39130 -0.14280 0.48440
C28* C 0.9402(11) -0.0525(12) 0.3543(12)
H22* H 0.98410 -0.01220 0.33430
C29* C 0.8130(11) -0.0453(11) 0.3560(12)
H23* H 0.77470 -0.00100 0.33790
C30* C 0.402(1) -0.0862(11) 0.3143(12)
H24* H 0.35010 -0.07190 0.26880
Cl1* Cl 1.1616(3) -0.3120(3) 0.3459(4)
Cl1** Cl -0.8384(3) -0.3120(3) 0.3459(4)
#END
