
#######################################################################
#
#                 Cambridge Crystallographic Data Centre
#                                CCDC
#
#######################################################################
#
# If this CIF has been generated from an entry in the Cambridge
# Structural Database, then it will include bibliographic, chemical,
# crystal, experimental, refinement or atomic coordinate data resulting
# from the CCDC's data processing and validation procedures.
#
#######################################################################

data_CSD_CIF_TILBIB01
_audit_creation_date 2013-10-09
_audit_creation_method CSD-ConQuest-V1
_database_code_CSD TILBIB01
_database_code_depnum_ccdc_archive 'CCDC 932322'
_chemical_formula_sum 'C174 H185 Cl22 Fe3 N24 O85 Pr8 S5 Sb24'
_chemical_formula_moiety
;
(C30 H12 Cl22 O57 Pr8 S5 Sb24 3-)n,3(C36 H24 Fe1 N6),3(C6 H8 N1 1+),3(C6 H7 
N1),28(H2 O1)
;
_journal_coden_Cambridge 1220
_journal_volume 19
_journal_year 2013
_journal_page_first 15396
_journal_name_full 'Chem.-Eur.J. '
loop_
_publ_author_name
"Guo-Dong Zou"
"Gui-Gang Zhang"
"Bing Hu"
"Jian-Rong Li"
"Mei-Ling Feng"
"Xin-Chen Wang"
"Xiao-Ying Huang"
_chemical_name_systematic
;
catena-[tris(2-methylpyridinium) tris(tris(1,10-phenanthroline)-iron) 
pentakis(\m-thiophene-2,5-dicarboxylato)-pentatriacontakis(\m-oxo)-(\m-hydroxo
)-dodecakis(\m-chloro)-hydroxo-decachloro-octa-praseodymium-tetracosa-antimony
 2-methylpyridine solvate octacosahydrate]
;
_cell_volume  12472.165
_exptl_crystal_colour 'dark red'
_exptl_crystal_density_diffrn 2.413
_exptl_crystal_description 'sheet'
_diffrn_ambient_temperature 100
_refine_special_details
;
The structure is disordered. The authors' sum of formula is C171 H184 Cl22 
Fe3 N24 O84 Pr8 S4.50 Sb24.
;
#These two values have been output from a single CSD field.
_refine_ls_R_factor_gt 0.0431
_refine_ls_wR_factor_gt 0.0431
_symmetry_cell_setting triclinic
_symmetry_space_group_name_H-M 'P -1'
_symmetry_Int_Tables_number 2
loop_
_symmetry_equiv_pos_site_id
_symmetry_equiv_pos_as_xyz
1 x,y,z
2 -x,-y,-z
_cell_length_a 18.6427(2)
_cell_length_b 27.5425(3)
_cell_length_c 29.4131(3)
_cell_angle_alpha 62.575(1)
_cell_angle_beta 89.207(1)
_cell_angle_gamma 70.639(1)
_cell_formula_units_Z 2
loop_
_atom_type_symbol
_atom_type_radius_bond
C 0.68
H 0.23
Cl 0.99
Fe 1.52
N 0.68
O 0.68
Pr 2.03
S 1.02
Sb 1.39
loop_
_atom_site_label
_atom_site_type_symbol
_atom_site_fract_x
_atom_site_fract_y
_atom_site_fract_z
Pr1 Pr 0.61680(2) 0.179357(15) 0.123389(14)
Pr2 Pr 0.34176(2) 0.235534(15) 0.122643(14)
Pr3 Pr 0.44105(2) 0.353435(15) -0.021733(13)
Pr4 Pr 0.47538(2) 0.348252(15) 0.142443(13)
Pr5 Pr 0.90192(2) 0.247269(17) 0.609351(15)
Pr6 Pr 0.75108(2) 0.413462(19) 0.446401(16)
Pr7 Pr 0.95093(2) 0.424623(16) 0.535398(15)
Pr8 Pr 0.71897(3) 0.42282(2) 0.605775(19)
Sb1 Sb 0.65385(3) 0.292797(19) 0.006777(17)
Sb2 Sb 0.68099(2) 0.286887(19) 0.132361(17)
Sb3 Sb 0.60696(3) 0.197940(19) 0.240685(17)
Sb4 Sb 0.50594(3) 0.113053(18) 0.225768(17)
Sb5 Sb 0.48049(3) 0.117516(18) 0.101559(18)
Sb6 Sb 0.55349(3) 0.20744(2) -0.009080(18)
Sb7 Sb 0.55204(3) 0.418947(18) 0.021472(17)
Sb8 Sb 0.40066(3) 0.240816(19) 0.240088(17)
Sb9 Sb 0.34762(3) 0.248052(19) -0.007918(17)
Sb10 Sb 0.34103(3) 0.463466(18) 0.019308(18)
Sb11 Sb 0.26720(3) 0.374574(19) 0.128837(18)
Sb12 Sb 0.24131(3) 0.377390(19) 0.006017(18)
Sb13 Sb 1.05761(3) 0.28490(2) 0.541018(19)
Sb14 Sb 0.86254(3) 0.28497(3) 0.714916(19)
Sb15 Sb 0.70992(3) 0.27531(3) 0.64760(2)
Sb16 Sb 0.73078(3) 0.27067(3) 0.52699(2)
Sb17 Sb 0.94814(3) 0.40748(2) 0.417153(19)
Sb18 Sb 0.80849(3) 0.53998(2) 0.416540(18)
Sb19 Sb 0.89711(3) 0.42046(2) 0.660623(19)
Sb20 Sb 0.63442(3) 0.53782(3) 0.46934(2)
Sb21 Sb 0.59452(3) 0.39919(3) 0.52743(2)
Sb22 Sb 0.90797(3) 0.27262(2) 0.47287(2)
Sb23 Sb 0.78640(3) 0.54866(2) 0.53370(2)
Sb24 Sb 1.03690(3) 0.29273(2) 0.659095(18)
Cl1 Cl 0.46735(9) 0.27829(6) 0.09178(6)
Cl2 Cl 0.72494(10) 0.15599(8) 0.05242(8)
Cl3 Cl 0.75712(10) 0.15368(8) 0.19179(7)
Cl4 Cl 0.36437(10) 0.10658(7) 0.17639(7)
Cl5 Cl 0.20814(10) 0.25108(8) 0.06277(7)
Cl6 Cl 0.23551(10) 0.25123(7) 0.19217(7)
Cl7 Cl 0.42012(11) 0.48082(8) -0.08069(7)
Cl8 Cl 0.71642(10) 0.37116(7) 0.02550(7)
Cl9 Cl 0.52339(11) 0.13129(7) 0.32189(6)
Cl10 Cl 0.44873(12) 0.14079(8) -0.01211(7)
Cl11 Cl 0.17241(10) 0.47964(8) 0.02497(8)
Cl12 Cl 0.82876(9) 0.37856(7) 0.54893(6)
Cl13 Cl 0.89515(13) 0.16376(11) 0.57402(10)
Cl14 Cl 0.86941(15) 0.16684(11) 0.70912(9)
Cl15 Cl 0.5862(5) 0.4917(5) 0.4023(3)
Cl16 Cl 0.99148(11) 0.50400(8) 0.56001(7)
Cl17 Cl 1.11791(10) 0.35851(8) 0.57766(7)
Cl18 Cl 0.5487(3) 0.4846(3) 0.5721(2)
Cl19 Cl 0.68902(13) 0.63345(9) 0.42911(9)
Cl20 Cl 0.97887(12) 0.30905(10) 0.75767(7)
Cl21 Cl 1.06418(12) 0.28738(10) 0.43801(8)
Cl22 Cl 0.59035(14) 0.27602(13) 0.58080(11)
O1 O 0.5713(3) 0.25900(19) 0.01622(18)
O2 O 0.6661(3) 0.25874(19) 0.08297(17)
O3 O 0.6029(3) 0.25270(19) 0.16571(17)
O4 O 0.5859(3) 0.14888(19) 0.21429(18)
O5 O 0.4991(3) 0.14578(19) 0.14940(17)
O6 O 0.5531(3) 0.15582(19) 0.06534(18)
O7 O 0.5629(3) 0.36354(18) -0.00515(17)
O8 O 0.5870(3) 0.36040(18) 0.09599(17)
O9 O 0.4994(3) 0.2540(2) 0.22588(18)
O10 O 0.4207(3) 0.18896(19) 0.20713(18)
O11 O 0.3903(3) 0.19124(18) 0.06672(17)
O12 O 0.4446(3) 0.26298(19) -0.02488(17)
O13 O 0.4512(3) 0.40816(19) 0.03850(18)
O14 O 0.3642(3) 0.30496(19) 0.16636(18)
O15 O 0.3308(3) 0.30668(18) 0.01682(17)
O16 O 0.3220(3) 0.41205(19) -0.00464(18)
O17 O 0.3398(3) 0.41237(19) 0.09391(18)
O18 O 0.2652(3) 0.34008(19) 0.08297(18)
O19 O 0.4614(3) 0.4558(2) 0.1079(2)
O20 O 0.9703(3) 0.2620(2) 0.5349(2)
O21 O 0.9975(3) 0.3054(2) 0.59075(18)
O22 O 0.9485(3) 0.2650(2) 0.67860(19)
O23 O 0.7961(3) 0.3011(3) 0.6531(2)
O24 O 0.7661(3) 0.2578(3) 0.5961(2)
O25 O 0.8179(3) 0.2983(3) 0.5052(2)
O26 O 0.6729(3) 0.3555(3) 0.5004(2)
O27 O 0.8825(3) 0.3593(2) 0.4323(2)
O28 O 0.8679(3) 0.4542(2) 0.44166(18)
O29 O 0.6562(3) 0.4504(3) 0.5075(2)
O30 O 0.7200(3) 0.5135(2) 0.43473(19)
O31 O 0.9998(3) 0.36864(19) 0.49112(18)
O32 O 0.9706(3) 0.3774(2) 0.63073(18)
O33 O 0.8393(3) 0.4652(2) 0.5886(2)
O34 O 0.8434(3) 0.5167(2) 0.48931(19)
O35 O 0.8330(3) 0.3722(2) 0.6748(2)
O36 O 0.6581(3) 0.3596(2) 0.5969(2)
O37 O 0.7027(3) 0.5209(3) 0.5307(2)
S1 S 0.75936(10) -0.08052(7) 0.28341(7)
O38 O 0.6727(3) 0.07699(19) 0.16621(19)
O39 O 0.6132(3) 0.0219(2) 0.2219(2)
O40 O 0.9731(3) -0.1703(2) 0.3520(2)
O41 O 0.8750(4) -0.1984(3) 0.3495(3)
C1 C 0.6720(4) 0.0327(3) 0.2066(3)
C2 C 0.7486(4) -0.0106(3) 0.2382(3)
C3 C 0.8169(5) -0.0020(3) 0.2373(4)
H1 H 0.82220 0.03440 0.21510
C4 C 0.8781(5) -0.0526(3) 0.2725(4)
H2 H 0.92950 -0.05430 0.27660
C5 C 0.8559(4) -0.0985(3) 0.2999(3)
C6 C 0.9062(5) -0.1608(3) 0.3377(3)
C7 C 0.3702(4) 0.3776(3) 0.2293(3)
C8 C 0.3518(3) 0.4108(2) 0.25911(19)
C9 C 0.3202(4) 0.4632(3) 0.3086(3)
S2 S 0.3162(3) 0.39557(17) 0.31450(14)
O42 O 0.3971(6) 0.3902(4) 0.1913(3)
O43 O 0.3605(7) 0.3277(4) 0.2585(3)
O44 O 0.2899(9) 0.5161(6) 0.3535(6)
O45 O 0.2655(8) 0.4338(5) 0.3926(4)
C10 C 0.3647(6) 0.4633(4) 0.2405(4)
H3 H 0.38490 0.47790 0.20910
C11 C 0.3482(6) 0.4940(5) 0.2678(4)
H4 H 0.35530 0.52970 0.25930
C12 C 0.2903(6) 0.4689(5) 0.3569(4)
S3 S 0.72306(13) 0.29835(11) 0.31362(9)
O46 O 0.5672(4) 0.3500(2) 0.1980(2)
O47 O 0.6827(4) 0.2805(4) 0.2273(3)
O48 O 0.8016(4) 0.2900(4) 0.4061(3)
O49 O 0.7159(4) 0.3701(4) 0.4013(3)
C13 C 0.6301(5) 0.3227(4) 0.2267(3)
C14 C 0.6451(5) 0.3410(4) 0.2650(3)
C15 C 0.5994(7) 0.3898(5) 0.2678(4)
H5 H 0.55310 0.41870 0.24470
C16 C 0.6316(7) 0.3903(6) 0.3102(5)
H6 H 0.60820 0.42100 0.31830
C17 C 0.6963(6) 0.3460(5) 0.3384(4)
C18 C 0.7426(6) 0.3329(6) 0.3870(4)
S4 S 0.7689(4) 0.5752(3) 0.21745(15)
O50 O 0.7513(6) 0.4849(5) 0.3566(4)
O51 O 0.8625(5) 0.4860(4) 0.3285(3)
O52 O 0.6645(7) 0.6079(5) 0.0872(5)
O53 O 0.7293(7) 0.6568(4) 0.1000(4)
C19 C 0.7897(6) 0.5016(6) 0.3213(4)
C20 C 0.7438(6) 0.5233(3) 0.2680(4)
C21 C 0.6865(7) 0.5127(5) 0.2493(4)
H7 H 0.66410 0.48560 0.27120
C22 C 0.6644(7) 0.5449(5) 0.1958(4)
H8 H 0.62570 0.54250 0.17720
C23 C 0.7053(6) 0.5804(4) 0.1732(3)
C24 C 0.7018(9) 0.6173(5) 0.1154(3)
S5 S 0.6317(3) 0.3099(2) 0.81742(16)
O54 O 0.662(1) 0.3954(7) 0.6745(5)
O55 O 0.7106(13) 0.2994(6) 0.7330(8)
O56 O 0.5006(8) 0.3665(5) 0.9020(5)
O57 O 0.5856(9) 0.2794(5) 0.9150(5)
C25 C 0.6614(8) 0.3507(6) 0.7145(5)
C26 C 0.6172(6) 0.3646(5) 0.7548(3)
C27 C 0.5670(9) 0.4138(9) 0.7497(7)
H9 H 0.55220 0.44880 0.71710
C28 C 0.5366(9) 0.4142(8) 0.7917(6)
H10 H 0.50010 0.44750 0.79220
C29 C 0.5672(6) 0.3584(5) 0.8335(4)
C30 C 0.5528(8) 0.3342(6) 0.8903(5)
Fe1 Fe 0.72831(6) 0.79087(4) 0.18402(4)
N1 N 0.7694(4) 0.7832(3) 0.1246(2)
N2 N 0.8097(4) 0.7121(3) 0.2242(2)
N3 N 0.6536(4) 0.7539(3) 0.1860(2)
N4 N 0.6900(4) 0.7896(3) 0.2475(2)
N5 N 0.7937(4) 0.8353(3) 0.1824(2)
N6 N 0.6519(4) 0.8709(3) 0.1384(2)
C31 C 0.7499(5) 0.8213(4) 0.0735(3)
H11 H 0.71080 0.85880 0.06220
C32 C 0.7846(5) 0.8082(4) 0.0359(3)
H12 H 0.77010 0.83670 0.00020
C33 C 0.8400(5) 0.7536(4) 0.0514(3)
H13 H 0.86320 0.74380 0.02630
C34 C 0.8616(5) 0.7129(4) 0.1037(3)
C35 C 0.9195(5) 0.6548(4) 0.1243(4)
H14 H 0.94510 0.64260 0.10100
C36 C 0.9381(5) 0.6177(4) 0.1754(4)
H15 H 0.97510 0.57910 0.18740
C37 C 0.9044(5) 0.6340(3) 0.2124(4)
C38 C 0.9218(5) 0.5982(4) 0.2664(3)
H16 H 0.95740 0.55880 0.28140
C39 C 0.8868(5) 0.6206(4) 0.2973(3)
H17 H 0.90130 0.59780 0.33400
C40 C 0.8304(5) 0.6764(3) 0.2756(3)
H18 H 0.80520 0.69000 0.29820
C41 C 0.8468(4) 0.6909(3) 0.1930(3)
C42 C 0.8260(5) 0.7296(3) 0.1393(3)
C43 C 0.6378(5) 0.7345(4) 0.1547(3)
H19 H 0.66520 0.73870 0.12650
C44 C 0.5832(7) 0.7084(6) 0.1614(5)
H20 H 0.57340 0.69550 0.13820
C45 C 0.5441(9) 0.7019(8) 0.2020(6)
H21 H 0.50580 0.68510 0.20680
C46 C 0.5608(7) 0.7203(6) 0.2374(5)
C47 C 0.5223(9) 0.7161(7) 0.2816(5)
H22 H 0.48240 0.70070 0.28800
C48 C 0.5423(7) 0.7337(6) 0.3139(5)
H23 H 0.51850 0.72830 0.34370
C49 C 0.5988(6) 0.7604(4) 0.3035(4)
C50 C 0.6246(6) 0.7787(4) 0.3355(3)
H24 H 0.60110 0.77660 0.36490
C51 C 0.6820(6) 0.7989(4) 0.3247(3)
H25 H 0.70110 0.80940 0.34720
C52 C 0.7139(6) 0.8046(3) 0.2802(3)
H26 H 0.75420 0.81970 0.27280
C53 C 0.6341(5) 0.7671(4) 0.2597(3)
C54 C 0.6147(6) 0.7471(4) 0.2263(4)
C55 C 0.8662(5) 0.8159(4) 0.2048(3)
H27 H 0.89370 0.77460 0.22340
C56 C 0.9041(6) 0.8528(4) 0.2022(4)
H28 H 0.95500 0.83700 0.22040
C57 C 0.8660(7) 0.9124(4) 0.1728(4)
H29 H 0.89160 0.93810 0.16990
C58 C 0.7916(6) 0.9357(4) 0.1475(4)
C59 C 0.7473(8) 0.9957(4) 0.1158(4)
H30 H 0.76870 1.02410 0.11170
C60 C 0.6758(7) 1.0143(4) 0.0910(4)
H31 H 0.64870 1.05520 0.06930
C61 C 0.6392(6) 0.9744(4) 0.0964(3)
C62 C 0.5659(7) 0.9894(4) 0.0718(4)
H32 H 0.53580 1.02950 0.04870
C63 C 0.5364(6) 0.9454(5) 0.0810(4)
H33 H 0.48620 0.95550 0.06460
C64 C 0.5820(6) 0.8864(4) 0.1147(4)
H34 H 0.56200 0.85680 0.12070
C65 C 0.6799(5) 0.9139(3) 0.1295(3)
C66 C 0.7565(5) 0.8950(3) 0.1534(3)
Fe2 Fe 0.46562(6) 0.92375(4) 0.38839(4)
N7 N 0.5640(3) 0.9349(2) 0.3907(2)
N8 N 0.5319(4) 0.8393(3) 0.4258(2)
N9 N 0.4539(4) 0.9252(2) 0.4550(2)
N10 N 0.4033(3) 1.0075(2) 0.3591(2)
N11 N 0.4730(4) 0.9265(3) 0.3199(2)
N12 N 0.3728(4) 0.9067(3) 0.3827(2)
C67 C 0.5790(4) 0.9838(3) 0.3699(3)
H35 H 0.53770 1.02050 0.35090
C68 C 0.6543(5) 0.9831(3) 0.3751(3)
H36 H 0.66300 1.01910 0.35890
C69 C 0.7151(5) 0.9314(4) 0.4030(4)
H37 H 0.76590 0.93100 0.40650
C70 C 0.7007(5) 0.8794(4) 0.4264(4)
C71 C 0.7576(5) 0.8213(4) 0.4587(5)
H38 H 0.80920 0.81740 0.46630
C72 C 0.7406(5) 0.7732(4) 0.4780(5)
H39 H 0.78020 0.73610 0.49900
C73 C 0.6636(5) 0.7756(4) 0.4682(4)
C74 C 0.6427(5) 0.7262(4) 0.4862(4)
H40 H 0.67960 0.68760 0.50650
C75 C 0.5663(5) 0.7355(4) 0.4731(4)
H41 H 0.55040 0.70300 0.48450
C76 C 0.5133(5) 0.7919(3) 0.4436(3)
H42 H 0.46120 0.79700 0.43560
C77 C 0.6070(4) 0.8312(3) 0.4378(3)
C78 C 0.6246(4) 0.8828(3) 0.4180(3)
C79 C 0.4808(5) 0.8820(3) 0.5038(3)
H43 H 0.50610 0.84290 0.50970
C80 C 0.4734(5) 0.8919(4) 0.5468(3)
H44 H 0.49410 0.86000 0.58100
C81 C 0.4366(5) 0.9471(4) 0.5392(3)
H45 H 0.43110 0.95400 0.56810
C82 C 0.4066(5) 0.9939(4) 0.4888(3)
C83 C 0.3656(6) 1.0543(4) 0.4757(4)
H46 H 0.35790 1.06450 0.50270
C84 C 0.3379(5) 1.0967(4) 0.4260(4)
H47 H 0.31200 1.13620 0.41880
C85 C 0.3465(5) 1.0841(3) 0.3840(3)
C86 C 0.3168(5) 1.1256(3) 0.3318(3)
H48 H 0.28840 1.16560 0.32190
C87 C 0.3299(5) 1.1070(3) 0.2951(3)
H49 H 0.30980 1.13450 0.25950
C88 C 0.3722(4) 1.0483(3) 0.3098(3)
H50 H 0.37930 1.03680 0.28370
C89 C 0.3883(4) 1.0258(3) 0.3956(3)
C90 C 0.4178(5) 0.9808(3) 0.4481(3)
C91 C 0.5227(5) 0.9387(3) 0.2877(3)
H51 H 0.56230 0.94840 0.29730
C92 C 0.5201(6) 0.9382(4) 0.2407(3)
H52 H 0.55650 0.94810 0.21860
C93 C 0.4641(6) 0.9231(4) 0.2265(3)
H53 H 0.46220 0.92160 0.19500
C94 C 0.4104(6) 0.9101(4) 0.2587(3)
C95 C 0.3476(7) 0.8951(5) 0.2485(4)
H54 H 0.34270 0.89150 0.21820
C96 C 0.2956(6) 0.8861(5) 0.2806(4)
H55 H 0.25420 0.87740 0.27180
C97 C 0.3011(5) 0.8890(4) 0.3269(3)
C98 C 0.2484(5) 0.8805(4) 0.3621(4)
H56 H 0.20670 0.87050 0.35620
C99 C 0.2581(5) 0.8869(4) 0.4045(4)
H57 H 0.22180 0.88290 0.42770
C100 C 0.3217(5) 0.8993(3) 0.4142(3)
H58 H 0.32810 0.90250 0.44450
C101 C 0.3624(4) 0.9023(3) 0.3386(3)
C102 C 0.4166(5) 0.9130(3) 0.3052(3)
Fe3 Fe 0.96829(6) 0.25741(6) 0.17879(5)
N13 N 1.0571(4) 0.1868(4) 0.1915(3)
N14 N 0.9300(4) 0.1996(3) 0.2318(3)
N15 N 0.9232(4) 0.2540(3) 0.1201(3)
N16 N 1.0052(4) 0.3132(3) 0.1238(3)
N17 N 1.0110(4) 0.2655(4) 0.2348(3)
N18 N 0.8790(4) 0.3244(3) 0.1725(3)
C103 C 1.1185(5) 0.1817(5) 0.1685(4)
H59 H 1.12380 0.21660 0.14250
C104 C 1.1757(6) 0.1283(6) 0.1801(6)
H60 H 1.21800 0.12650 0.16170
C105 C 1.1692(7) 0.0776(7) 0.2193(7)
H61 H 1.20850 0.04050 0.22930
C106 C 1.1052(7) 0.0813(6) 0.2441(6)
C107 C 1.0904(9) 0.0310(7) 0.2835(7)
H62 H 1.12660 -0.00750 0.29390
C108 C 1.0265(9) 0.0374(6) 0.3057(6)
H63 H 1.01960 0.00360 0.33240
C109 C 0.9684(7) 0.0950(6) 0.2894(5)
C110 C 0.8987(8) 0.1068(6) 0.3098(5)
H64 H 0.88770 0.07530 0.33660
C111 C 0.8487(6) 0.1621(5) 0.2911(4)
H65 H 0.80250 0.17010 0.30500
C112 C 0.8648(5) 0.2075(5) 0.2513(3)
H66 H 0.82760 0.24630 0.23730
C113 C 0.9812(5) 0.1444(4) 0.2508(4)
C114 C 1.0495(6) 0.1367(5) 0.2284(4)
C115 C 0.8853(5) 0.2214(4) 0.1200(4)
H67 H 0.87430 0.19600 0.15210
C116 C 0.8606(5) 0.2226(4) 0.0749(4)
H68 H 0.83360 0.19810 0.07660
C117 C 0.8750(5) 0.2588(4) 0.0283(4)
H69 H 0.85910 0.25910 -0.00240
C118 C 0.9137(5) 0.2958(4) 0.0259(4)
C119 C 0.9302(6) 0.3386(5) -0.0205(4)
H70 H 0.91390 0.34310 -0.05320
C120 C 0.9675(6) 0.3722(5) -0.0192(4)
H71 H 0.97660 0.39990 -0.05080
C121 C 0.9940(5) 0.3670(4) 0.0288(4)
C122 C 1.0338(5) 0.3994(5) 0.0345(4)
H72 H 1.04370 0.42900 0.00470
C123 C 1.0582(5) 0.3883(5) 0.0822(4)
H73 H 1.08540 0.41020 0.08600
C124 C 1.0444(5) 0.3457(5) 0.1256(4)
H74 H 1.06350 0.33880 0.15870
C125 C 0.9810(4) 0.3237(4) 0.0755(4)
C126 C 0.9389(4) 0.2900(4) 0.0739(3)
C127 C 1.0808(6) 0.2373(6) 0.2637(4)
H75 H 1.11940 0.21090 0.25580
C128 C 1.0993(7) 0.2450(7) 0.3052(5)
H76 H 1.15020 0.22500 0.32430
C129 C 1.0442(8) 0.2812(7) 0.3184(5)
H77 H 1.05610 0.28450 0.34790
C130 C 0.9694(6) 0.3137(6) 0.2882(4)
C131 C 0.9071(7) 0.3547(7) 0.2960(5)
H78 H 0.91370 0.35930 0.32550
C132 C 0.8396(7) 0.3869(6) 0.2634(5)
H79 H 0.80050 0.41490 0.26930
C133 C 0.8258(6) 0.3791(5) 0.2184(5)
C134 C 0.7591(6) 0.4108(5) 0.1813(6)
H80 H 0.71710 0.43980 0.18410
C135 C 0.7545(5) 0.3998(4) 0.1406(4)
H81 H 0.70960 0.42190 0.11470
C136 C 0.8151(5) 0.3565(4) 0.1372(4)
H82 H 0.81100 0.34950 0.10870
C137 C 0.8857(5) 0.3365(4) 0.2120(4)
C138 C 0.9572(5) 0.3037(5) 0.2467(4)
N19 N 0.2604(7) 0.5974(5) 0.1328(5)
C139 C 0.2153(6) 0.5678(4) 0.1374(4)
C140 C 0.1556(8) 0.5697(6) 0.1658(4)
H83 H 0.12570 0.54710 0.16750
C141 C 0.1364(9) 0.6017(6) 0.1918(6)
H84 H 0.09480 0.60200 0.21080
C142 C 0.1822(8) 0.6335(7) 0.1880(6)
H85 H 0.17540 0.65740 0.20410
C143 C 0.2390(9) 0.6268(7) 0.1584(5)
H86 H 0.27020 0.64880 0.15600
C144 C 0.2279(8) 0.5301(6) 0.1110(5)
H87 H 0.27160 0.53260 0.09240
H88 H 0.18140 0.54420 0.08650
H89 H 0.23870 0.48910 0.13730
N20 N 0.926(1) 0.0593(7) 0.1232(9)
C145 C 0.9439(12) 0.0342(8) 0.0934(8)
C146 C 1.0103(13) -0.0151(9) 0.110(1)
H90 H 1.02700 -0.03540 0.09070
C147 C 1.0501(12) -0.0321(10) 0.1573(10)
H91 H 1.09610 -0.06610 0.17050
C148 C 1.0299(14) -0.0048(11) 0.1872(10)
H92 H 1.06130 -0.01940 0.21920
C149 C 0.9628(14) 0.0445(10) 0.1695(9)
H93 H 0.94470 0.06550 0.18800
C150 C 0.8946(17) 0.0574(13) 0.0413(9)
H94 H 0.84980 0.09240 0.03440
H95 H 0.87700 0.02700 0.04270
H96 H 0.92540 0.06750 0.01350
N21 N 1.1823(12) 0.0164(9) 0.5413(10)
C151 C 1.1892(10) -0.0133(8) 0.5929(10)
C152 C 1.1461(15) 0.0090(11) 0.6230(13)
H97 H 1.15370 -0.01450 0.65970
C153 C 1.0916(19) 0.0663(11) 0.5984(17)
H98 H 1.06130 0.08310 0.61730
C154 C 1.0843(19) 0.0973(16) 0.5445(17)
H99 H 1.04800 0.13650 0.52580
C155 C 1.1301(12) 0.0711(10) 0.5178(16)
H100 H 1.12370 0.09340 0.48110
C156 C 1.2486(11) -0.0772(7) 0.6231(12)
H101 H 1.27550 -0.08850 0.59870
H102 H 1.22170 -0.10390 0.64200
H103 H 1.28610 -0.07960 0.64780
O58 O 0.7498(15) 0.0657(11) 0.4993(10)
N22 N 0.3829(10) 0.7408(9) 0.5529(8)
H104 H 0.36520 0.73580 0.52840
C157 C 0.4436(9) 0.6974(8) 0.5870(6)
C158 C 0.4758(12) 0.701(1) 0.6270(7)
H105 H 0.51940 0.67090 0.65230
C159 C 0.4364(12) 0.7541(9) 0.6254(9)
H106 H 0.45540 0.75940 0.65190
C160 C 0.3725(12) 0.8008(12) 0.5903(8)
H107 H 0.34890 0.83610 0.59200
C161 C 0.3467(15) 0.7910(11) 0.5526(10)
H108 H 0.30320 0.82010 0.52670
C162 C 0.4810(13) 0.6403(9) 0.5836(9)
H109 H 0.45310 0.64350 0.55370
H110 H 0.47860 0.60680 0.61550
H111 H 0.53490 0.63430 0.57930
N23 N -0.0020(13) 0.8467(10) 0.6125(8)
C163 C -0.0460(12) 0.9001(9) 0.6020(7)
C164 C -0.0225(15) 0.9466(12) 0.5725(8)
H112 H -0.05130 0.98630 0.56340
C165 C 0.0480(15) 0.9282(14) 0.5578(10)
H113 H 0.06710 0.95820 0.53740
C166 C 0.0947(19) 0.8713(12) 0.569(1)
H114 H 0.14260 0.86270 0.55710
C167 C 0.0653(14) 0.8287(14) 0.5987(9)
H115 H 0.09220 0.78840 0.60870
C168 C -0.1238(12) 0.9147(12) 0.6208(10)
H116 H -0.13370 0.87850 0.64150
H117 H -0.16500 0.94180 0.59070
H118 H -0.12230 0.93320 0.64220
N24 N 0.9901(9) 0.7911(8) 0.0371(6)
C169 C 0.9473(8) 0.8441(7) -0.0003(6)
C170 C 0.9133(12) 0.8907(10) 0.0097(8)
H119 H 0.88240 0.92900 -0.01670
C171 C 0.9280(14) 0.8769(11) 0.0612(8)
H120 H 0.90710 0.90590 0.07170
C172 C 0.9739(12) 0.8199(10) 0.0968(10)
H121 H 0.98300 0.81180 0.13180
C173 C 1.0075(12) 0.7738(10) 0.0872(7)
H122 H 1.03880 0.73500 0.11270
C174 C 0.9319(12) 0.8577(10) -0.0572(6)
H123 H 0.95820 0.82200 -0.05980
H124 H 0.95130 0.88840 -0.07950
H125 H 0.87630 0.87140 -0.06850
N25 N 0.9235(12) 0.5830(8) 0.8014(11)
H126 H 0.91560 0.58640 0.82950
C175 C 0.9933(13) 0.5471(7) 0.8055(9)
C176 C 1.0102(18) 0.539(1) 0.7633(10)
H127 H 1.05850 0.51440 0.76140
C177 C 0.9469(15) 0.5719(9) 0.7237(13)
H128 H 0.95570 0.56750 0.69370
C178 C 0.8728(16) 0.6103(10) 0.7192(13)
H129 H 0.83430 0.63050 0.68930
C179 C 0.8623(17) 0.6153(11) 0.7640(11)
H130 H 0.81540 0.63980 0.76750
C180 C 1.0549(15) 0.5148(9) 0.8541(10)
H131 H 1.03370 0.52550 0.88030
H132 H 1.09990 0.52600 0.84500
H133 H 1.07030 0.47220 0.86810
N26 N 0.793(2) 0.1904(13) 0.8488(12)
C181 C 0.7780(16) 0.1763(10) 0.8969(12)
C182 C 0.7206(19) 0.1539(14) 0.9182(13)
H134 H 0.71390 0.14510 0.95290
C183 C 0.673(2) 0.1442(16) 0.8893(18)
H135 H 0.63410 0.12890 0.90240
C184 C 0.689(3) 0.1592(15) 0.8391(19)
H136 H 0.66020 0.15440 0.81630
C185 C 0.748(2) 0.1810(15) 0.822(2)
H137 H 0.75580 0.19020 0.78720
C186 C 0.826(2) 0.1847(18) 0.9336(16)
H138 H 0.86440 0.20010 0.91570
H139 H 0.85190 0.14680 0.96480
H140 H 0.79150 0.21250 0.94360
N27 N 0.6825(18) -0.0332(12) 0.9664(14)
C187 C 0.7395(16) -0.013(1) 0.9554(11)
C188 C 0.774(2) -0.0039(14) 0.9110(12)
H141 H 0.81420 0.01070 0.90540
C189 C 0.748(2) -0.0165(14) 0.8753(17)
H142 H 0.76870 -0.01130 0.84450
C190 C 0.688(2) -0.0375(13) 0.8884(16)
H143 H 0.66740 -0.04690 0.86540
C191 C 0.656(3) -0.0455(15) 0.9333(14)
H144 H 0.61530 -0.05990 0.94010
C192 C 0.773(3) 0.0024(18) 0.9931(15)
H145 H 0.74590 -0.00580 1.02310
H146 H 0.76550 0.04420 0.97490
H147 H 0.82790 -0.02140 1.00490
O59 O 0.4036(8) 0.5472(5) 0.1207(6)
O60 O 0.2241(14) 0.2301(10) 0.3966(9)
O61 O 0.2092(19) 0.3369(14) 0.3935(13)
O62 O 0.345(2) 0.2505(15) 0.3802(14)
O63 O 0.904(3) 0.0545(18) 0.5434(17)
O64? O 0.6149(10) 0.4704(12) 0.3952(9)
O65? O 0.5631(11) 0.5040(8) 0.5768(7)
S6? S 0.2722(4) 0.4483(3) 0.2716(3)
O66? O 0.4270(9) 0.3720(13) 0.2068(9)
O67? O 0.3035(7) 0.3841(10) 0.2113(8)
O68? O 0.3106(16) 0.5227(17) 0.3504(17)
O69? O 0.2052(15) 0.5129(11) 0.3262(10)
C193? C 0.4143(12) 0.4125(9) 0.2829(6)
H148? H 0.46560 0.39340 0.28000
C194? C 0.3993(7) 0.4429(8) 0.3109(8)
H149? H 0.43600 0.44860 0.32820
C195? C 0.2762(15) 0.5021(5) 0.3320(7)
S7? S 0.8017(4) 0.5443(4) 0.2146(2)
O70? O 0.7486(11) 0.4611(7) 0.3571(7)
O71? O 0.7993(14) 0.5305(9) 0.3307(7)
O72? O 0.6475(7) 0.6217(9) 0.0914(8)
O73? O 0.7750(7) 0.5957(8) 0.0954(5)
C196? C 0.7803(14) 0.4930(9) 0.3252(6)
C197? C 0.7525(10) 0.5269(4) 0.2660(6)
C198? C 0.6757(11) 0.5359(7) 0.2572(6)
H150? H 0.64070 0.52860 0.28100
C199? C 0.6642(11) 0.5584(7) 0.2042(6)
H151? H 0.61400 0.56880 0.18760
C200? C 0.7196(7) 0.5670(6) 0.1736(5)
C201? C 0.7151(8) 0.5969(11) 0.1151(4)
Cl23? Cl 0.5370(5) 0.3416(3) -0.1009(3)
Cl24? Cl 0.6741(7) 0.3496(7) 0.7078(6)
N28? N 1.1361(14) 0.0212(11) 0.5940(11)
C202? C 1.1727(10) 0.0186(9) 0.5554(10)
C203? C 1.1657(14) 0.0679(9) 0.5077(11)
H152? H 1.19230 0.06530 0.48060
C204? C 1.1165(14) 0.1212(12) 0.5032(16)
H153? H 1.10790 0.15710 0.47230
C205? C 1.0801(18) 0.1205(15) 0.5453(14)
H154? H 1.04690 0.15720 0.54160
C206? C 1.0887(18) 0.0704(11) 0.5922(15)
H155? H 1.06330 0.07130 0.62020
C207? C 1.2271(13) -0.0413(8) 0.5616(13)
H156? H 1.22820 -0.07290 0.59610
H157? H 1.27930 -0.04090 0.55780
H158? H 1.20830 -0.04810 0.53490
N29? N 0.6223(13) 0.0781(10) 0.8758(8)
C208? C 0.6640(12) 0.0283(9) 0.9160(9)
C209? C 0.6929(16) 0.0302(12) 0.9577(9)
H159? H 0.72370 -0.00390 0.98840
C210? C 0.6731(17) 0.0863(12) 0.9509(11)
H160? H 0.69080 0.09170 0.97770
C211? C 0.6279(16) 0.1347(11) 0.9058(12)
H161? H 0.61610 0.17200 0.90390
C212? C 0.5983(16) 0.1344(9) 0.8635(10)
H162? H 0.56740 0.16740 0.83220
C213? C 0.682(2) -0.0315(10) 0.9184(14)
H163? H 0.65560 -0.02580 0.88660
H164? H 0.66380 -0.05660 0.94860
H165? H 0.73760 -0.05050 0.92140
O74? O 0.2776(16) 0.2622(11) 0.3435(10)
Pr3* Pr 0.44105(2) 0.353435(15) 0.978267(13)
Pr3A Pr 0.55895(2) 0.646565(15) 0.021733(13)
Pr5A Pr 1.09808(2) -0.247269(17) 0.390649(15)
Pr7A Pr 1.04907(2) 0.575377(16) 0.464602(15)
Pr8A Pr 0.28103(3) 0.57718(2) 0.394225(19)
Sb6* Sb 0.55349(3) 0.20744(2) 0.990920(18)
Sb23A Sb 0.21360(3) 0.45134(2) 0.46630(2)
Cl16A Cl 1.00852(11) 0.49600(8) 0.43999(7)
O40A O 1.0269(3) 0.1703(2) 0.6480(2)
O44A O 0.7101(9) 0.4839(6) 0.6465(6)
O45A O 0.7345(8) 0.5662(5) 0.6074(4)
O52A O 0.3355(7) 0.3921(5) -0.0872(5)
O56* O 0.5006(8) 0.3665(5) -0.0980(5)
O57* O 0.5856(9) 0.2794(5) -0.0850(5)
#END
