
#######################################################################
#
#                 Cambridge Crystallographic Data Centre
#                                CCDC
#
#######################################################################
#
# If this CIF has been generated from an entry in the Cambridge
# Structural Database, then it will include bibliographic, chemical,
# crystal, experimental, refinement or atomic coordinate data resulting
# from the CCDC's data processing and validation procedures.
#
#######################################################################

data_CSD_CIF_TILHAY
_audit_creation_date 2008-01-10
_audit_creation_method CSD-ConQuest-V1
_database_code_CSD TILHAY
_database_code_depnum_ccdc_archive 'CCDC 296111'
_chemical_formula_sum 'C18 H16 Cd1 N1 Na1 O8'
_chemical_formula_moiety
;
(C2 H8 N1 1+)n,n(C16 H8 Cd1 Na1 O8 1-)
;
_journal_coden_Cambridge 211
_journal_volume 60
_journal_year 2007
_journal_page_first 1997
_journal_name_full 'J.Coord.Chem. '
loop_
_publ_author_name
"Guang-Bo Che"
"Chun-Bo Liu"
"Liang Wang"
"Yun-Cheng Cui"
_chemical_name_systematic
;
catena-(dimethylammonium 
bis(\m~5~-benzene-1,3-dicarboxylato)-cadmium(ii)-sodium(i))
;
_cell_volume   2089.072
_exptl_crystal_colour 'colorless'
_exptl_crystal_density_diffrn 1.621
_exptl_special_details
;
luminescent
Isostructural with the Co analogue

;
_exptl_crystal_description 'rod'
_diffrn_ambient_temperature 293
_refine_special_details
;
The cation is disordered by symmetry.

;
#These two values have been output from a single CSD field.
_refine_ls_R_factor_gt 0.0221
_refine_ls_wR_factor_gt 0.0221
_symmetry_cell_setting monoclinic
_symmetry_space_group_name_H-M 'C 2/c'
_symmetry_Int_Tables_number 15
loop_
_symmetry_equiv_pos_site_id
_symmetry_equiv_pos_as_xyz
1 x,y,z
2 1/2+x,1/2+y,z
3 -x,y,1/2-z
4 1/2-x,1/2+y,1/2-z
5 -x,-y,-z
6 -1/2-x,-1/2-y,-z
7 x,-y,-1/2+z
8 -1/2+x,-1/2-y,-1/2+z
_cell_length_a 14.7366(19)
_cell_length_b 13.5985(17)
_cell_length_c 11.3369(14)
_cell_angle_alpha 90
_cell_angle_beta 113.141(2)
_cell_angle_gamma 90
_cell_formula_units_Z 4
loop_
_atom_type_symbol
_atom_type_radius_bond
C 0.68
H 0.23
Cd 1.24
N 0.68
Na 1.52
O 0.85
loop_
_atom_site_label
_atom_site_type_symbol
_atom_site_fract_x
_atom_site_fract_y
_atom_site_fract_z
C1 C 0.3469(3) -0.5153(3) 0.1543(4)
C2 C 0.2603(3) -0.5765(3) 0.0703(4)
C3 C 0.2127(4) -0.6375(3) 0.1259(5)
H1 H 0.23310 -0.63850 0.21460
C4 C 0.1349(3) -0.6970(3) 0.0507(4)
C5 C 0.0851(4) -0.7651(3) 0.1115(5)
C6 C 0.1039(4) -0.6940(4) -0.0820(5)
H2 H 0.05220 -0.73400 -0.13330
C7 C 0.2281(4) -0.5731(4) -0.0625(5)
H3 H 0.25900 -0.53190 -0.10060
C8 C 0.1496(5) -0.6316(4) -0.1377(5)
H4 H 0.12760 -0.62880 -0.22660
C9 C 0.8122(6) -0.2969(7) 0.4694(8)
N1 N 0.7610(9) -0.2127(9) 0.4769(9)
O1 O 0.3853(2) -0.4588(2) 0.0960(3)
O2 O 0.3767(3) -0.5190(3) 0.2730(3)
O3 O 0.0249(3) -0.8270(3) 0.0446(4)
O4 O 0.1053(3) -0.7567(3) 0.2293(4)
Na1 Na 0.50000 -0.50000 0.00000
Cd1 Cd 0.50000 -0.37233(3) 0.25000
C1D C 0.6531(3) -0.4847(3) -0.1543(4)
C2D C 0.7397(3) -0.4235(3) -0.0703(4)
C3D C 0.7873(4) -0.3625(3) -0.1259(5)
H1D H 0.76690 -0.36150 -0.21460
C4D C 0.8651(3) -0.3030(3) -0.0507(4)
C5D C 0.9149(4) -0.2349(3) -0.1115(5)
C6D C 0.8961(4) -0.3060(4) 0.0820(5)
H2D H 0.94780 -0.26600 0.13330
C7D C 0.7719(4) -0.4269(4) 0.0625(5)
H3D H 0.74100 -0.46810 0.10060
C8D C 0.8504(5) -0.3684(4) 0.1377(5)
H4D H 0.87240 -0.37120 0.22660
C9E C 0.6878(6) -0.2031(7) 0.5306(8)
N1E N 0.7390(9) -0.2873(9) 0.5231(9)
O1D O 0.6147(2) -0.5412(2) -0.0960(3)
O1B O 0.6147(2) -0.4588(2) 0.4040(3)
O2D O 0.6233(3) -0.4810(3) -0.2730(3)
O2F O 0.3767(3) -0.4810(3) -0.2270(3)
O2B O 0.6233(3) -0.5190(3) 0.2270(3)
O3D O 0.9751(3) -0.1730(3) -0.0446(4)
O3A O 0.5249(3) -0.3270(3) 0.0446(4)
O3E O 0.4751(3) -0.6730(3) -0.0446(4)
O4D O 0.8947(3) -0.2433(3) -0.2293(4)
O4A O 0.6053(3) -0.2567(3) 0.2293(4)
O4C O 0.3947(3) -0.2567(3) 0.2707(4)
Na1F Na 0.50000 -0.50000 0.50000
Na1A Na 0.00000 -1.00000 0.00000
Na1F* Na 0.50000 -0.50000 -0.50000
Na1A* Na 1.00000 0.00000 0.00000
Cd1A Cd 0.00000 -0.87233(3) 0.25000
Cd1F Cd 0.50000 -0.62767(3) -0.25000
Cd1G Cd 1.00000 -0.12767(3) -0.25000
#END
