
#######################################################################
#
#                 Cambridge Crystallographic Data Centre
#                                CCDC
#
#######################################################################
#
# If this CIF has been generated from an entry in the Cambridge
# Structural Database, then it will include bibliographic, chemical,
# crystal, experimental, refinement or atomic coordinate data resulting
# from the CCDC's data processing and validation procedures.
#
#######################################################################

data_CSD_CIF_TILHEC
_audit_creation_date 2008-01-10
_audit_creation_method CSD-ConQuest-V1
_database_code_CSD TILHEC
_database_code_depnum_ccdc_archive 'CCDC 296112'
_chemical_formula_sum 'C18 H16 Co1 N1 Na1 O8'
_chemical_formula_moiety
;
(C2 H8 N1 1+)n,n(C16 H8 Co1 Na1 O8 1-)
;
_journal_coden_Cambridge 211
_journal_volume 60
_journal_year 2007
_journal_page_first 1997
_journal_name_full 'J.Coord.Chem. '
loop_
_publ_author_name
"Guang-Bo Che"
"Chun-Bo Liu"
"Liang Wang"
"Yun-Cheng Cui"
_chemical_name_systematic
;
catena-(dimethylammonium 
bis(\m~5~-benzene-1,3-dicarboxylato)-cobalt(ii)-sodium(i))
;
_cell_volume   2027.313
_exptl_crystal_colour 'pink'
_exptl_crystal_density_diffrn 1.495
_exptl_special_details
;
luminescent
Isostructural with the Cd analogue

;
_exptl_crystal_description 'block'
_diffrn_ambient_temperature 293
_refine_special_details
;
The cation is disordered by symmetry.

;
#These two values have been output from a single CSD field.
_refine_ls_R_factor_gt 0.0654
_refine_ls_wR_factor_gt 0.0654
_symmetry_cell_setting monoclinic
_symmetry_space_group_name_H-M 'C 2/c'
_symmetry_Int_Tables_number 15
loop_
_symmetry_equiv_pos_site_id
_symmetry_equiv_pos_as_xyz
1 x,y,z
2 1/2+x,1/2+y,z
3 -x,y,1/2-z
4 1/2-x,1/2+y,1/2-z
5 -x,-y,-z
6 -1/2-x,-1/2-y,-z
7 x,-y,-1/2+z
8 -1/2+x,-1/2-y,-1/2+z
_cell_length_a 13.3751(12)
_cell_length_b 14.3847(12)
_cell_length_c 11.3178(8)
_cell_angle_alpha 90
_cell_angle_beta 111.405(7)
_cell_angle_gamma 90
_cell_formula_units_Z 4
loop_
_atom_type_symbol
_atom_type_radius_bond
C 0.68
H 0.23
Co 1.33
N 0.68
Na 1.37
O 0.68
loop_
_atom_site_label
_atom_site_type_symbol
_atom_site_fract_x
_atom_site_fract_y
_atom_site_fract_z
Co1 Co 1.00000 0.11366(6) 0.25000
Na1 Na 1.00000 0.00000 0.50000
O1 O 0.8656(3) -0.0261(4) 0.2914(4)
O2 O 0.8898(3) 0.0335(3) 0.1238(4)
C1 C 0.8430(4) -0.0217(4) 0.1756(5)
C2 C 0.7566(4) -0.0825(3) 0.0880(4)
C3 C 0.7070(4) -0.1501(4) 0.1356(5)
H1 H 0.72610 -0.15590 0.22290
C4 C 0.5799(6) -0.2824(5) 0.1130(12)
C5 C 0.7259(4) -0.0740(4) -0.0431(5)
H2 H 0.75770 -0.02920 -0.07720
C6 C 0.6306(4) -0.2084(4) 0.0563(7)
C7 C 0.6014(5) -0.2000(5) -0.0736(7)
H3 H 0.55030 -0.23990 -0.12760
O3 O 0.6023(6) -0.2843(4) 0.2285(9)
O4 O 0.5164(5) -0.3372(4) 0.0415(10)
C8 C 0.6479(5) -0.1327(5) -0.1229(6)
H4 H 0.62700 -0.12640 -0.21040
C9 C 0.6955(15) -0.1985(15) 0.552(2)
N1 N 0.7230(12) -0.2794(14) 0.5199(12)
C10 C 0.6771(15) -0.1777(13) 0.467(2)
Co1A Co 0.50000 -0.38634(6) 0.25000
Co1A* Co 1.50000 -0.38634(6) 0.25000
Na1F Na 1.00000 0.00000 0.00000
Na1G Na 0.50000 -0.50000 0.00000
Na1A Na 1.50000 -0.50000 0.50000
O1B O 1.1344(3) -0.0261(4) 0.2086(4)
O1D O 1.1344(3) 0.0261(4) 0.7086(4)
O2B O 1.1102(3) 0.0335(3) 0.3762(4)
O2F O 0.8898(3) -0.0335(3) 0.6238(4)
C1B C 1.1570(4) -0.0217(4) 0.3244(5)
C2B C 1.2434(4) -0.0825(3) 0.4120(4)
C3B C 1.2930(4) -0.1501(4) 0.3644(5)
H1B H 1.27390 -0.15590 0.27710
C4B C 1.4201(6) -0.2824(5) 0.3870(12)
C5B C 1.2741(4) -0.0740(4) 0.5431(5)
H2B H 1.24230 -0.02920 0.57720
C6B C 1.3694(4) -0.2084(4) 0.4437(7)
C7B C 1.3986(5) -0.2000(5) 0.5736(7)
H3B H 1.44970 -0.23990 0.62760
O3B O 1.3977(6) -0.2843(4) 0.2715(9)
O3A O 1.1023(6) 0.2157(4) 0.2285(9)
O3C O 0.8977(6) 0.2157(4) 0.2715(9)
O4B O 1.4836(5) -0.3372(4) 0.4585(10)
O4G O 1.0164(5) -0.1628(4) 0.5415(10)
O4C O 0.9836(5) 0.1628(4) 0.4585(10)
C8B C 1.3521(5) -0.1327(5) 0.6229(6)
H4B H 1.37300 -0.12640 0.71040
C9E C 0.8045(15) -0.3015(15) 0.448(2)
N1E N 0.7770(12) -0.2206(14) 0.4801(12)
C10E C 0.8229(15) -0.3223(13) 0.533(2)
#END
