
#######################################################################
#
#                 Cambridge Crystallographic Data Centre
#                                CCDC
#
#######################################################################
#
# If this CIF has been generated from an entry in the Cambridge
# Structural Database, then it will include bibliographic, chemical,
# crystal, experimental, refinement or atomic coordinate data resulting
# from the CCDC's data processing and validation procedures.
#
#######################################################################

data_CSD_CIF_TIMBIB
_audit_creation_date 2008-01-10
_audit_creation_method CSD-ConQuest-V1
_database_code_CSD TIMBIB
_database_code_depnum_ccdc_archive 'CCDC 643463'
_chemical_formula_sum 'C22 H44 N2 O20 U4'
_chemical_formula_moiety
;
(C8 H20 N1 1+)2n,n(C6 H4 O20 U4 2-)
;
_journal_coden_Cambridge 9
_journal_volume 46
_journal_year 2007
_journal_page_first 6607
_journal_name_full 'Inorg.Chem. '
loop_
_publ_author_name
"K.E.Knope"
"C.L.Cahill"
_chemical_name_systematic
;
catena-(bis(Tetraethylammonium) 
bis(\m~4~-glycolato)-bis(\m~3~-oxo)-(\m~2~-oxalato)-octaoxo-tetra-uranium)
;
_cell_volume   1835.835
_exptl_crystal_colour 'yellow-orange'
_exptl_crystal_density_diffrn 2.91
_exptl_crystal_description 'plate'
_diffrn_ambient_temperature 295
#These two values have been output from a single CSD field.
_refine_ls_R_factor_gt 0.0227
_refine_ls_wR_factor_gt 0.0227
_symmetry_cell_setting monoclinic
_symmetry_space_group_name_H-M 'P 21/n'
_symmetry_Int_Tables_number 14
loop_
_symmetry_equiv_pos_site_id
_symmetry_equiv_pos_as_xyz
1 x,y,z
2 1/2-x,1/2+y,1/2-z
3 -x,-y,-z
4 -1/2+x,-1/2-y,-1/2+z
_cell_length_a 7.9230(8)
_cell_length_b 13.3793(13)
_cell_length_c 17.4141(18)
_cell_angle_alpha 90
_cell_angle_beta 96.006(2)
_cell_angle_gamma 90
_cell_formula_units_Z 2
loop_
_atom_type_symbol
_atom_type_radius_bond
C 0.68
H 0.23
N 0.68
O 0.73
U 1.47
loop_
_atom_site_label
_atom_site_type_symbol
_atom_site_fract_x
_atom_site_fract_y
_atom_site_fract_z
U1 U -0.523820(17) 0.26197(1) 0.015860(9)
U2 U 0.272830(17) -0.02632(1) 0.001610(8)
O1 O 0.2318(4) -0.0160(2) -0.10058(18)
O2 O 0.0348(3) 0.0980(2) 0.00898(18)
O3 O -0.7111(4) -0.0380(2) 0.10428(18)
O4 O -0.4649(4) 0.2711(2) 0.11710(18)
O5 O -0.5844(4) 0.2640(2) -0.0850(2)
O6 O -0.6732(4) 0.4258(2) 0.0167(2)
O7 O -0.3448(4) 0.4094(2) -0.0039(2)
C1 C -0.9458(5) 0.1872(3) 0.0333(2)
O8 O -0.2478(3) 0.2040(2) 0.00680(17)
O9 O -0.5317(3) 0.0960(2) 0.01030(17)
O10 O -0.8051(4) 0.2285(2) 0.0483(2)
N1 N -0.5468(5) 0.1074(3) 0.2988(2)
C2 C -0.6970(6) 0.1401(4) 0.2432(3)
H1 H -0.65930 0.19220 0.21010
H2 H -0.73360 0.08380 0.21050
C3 C -0.4106(7) 0.0732(4) 0.2492(3)
H3 H -0.45950 0.02310 0.21320
H4 H -0.37820 0.12970 0.21910
C4 C -0.4846(7) 0.1927(4) 0.3511(3)
H5 H -0.38830 0.16930 0.38540
H6 H -0.57380 0.21000 0.38290
C5 C -0.5960(9) 0.0237(5) 0.3509(3)
H7 H -0.49660 0.00450 0.38500
H8 H -0.67980 0.04900 0.38280
C6 C -0.4317(9) 0.2872(5) 0.3110(4)
H9 H -0.39460 0.33660 0.34910
H10 H -0.52670 0.31270 0.27800
H11 H -0.34070 0.27190 0.28070
C7 C -0.2518(9) 0.0300(5) 0.2928(4)
H12 H -0.17390 0.01060 0.25680
H13 H -0.28120 -0.02740 0.32160
H14 H -0.19970 0.07940 0.32750
C8 C -0.8477(8) 0.1788(6) 0.2806(4)
H15 H -0.93590 0.19790 0.24130
H16 H -0.81400 0.23570 0.31210
H17 H -0.88900 0.12720 0.31210
C9 C -0.6668(12) -0.0678(5) 0.3090(4)
H18 H -0.69320 -0.11720 0.34580
H19 H -0.58430 -0.09420 0.27780
H20 H -0.76800 -0.05030 0.27660
C10 C -0.5940(5) 0.5045(3) 0.0055(3)
C11 C -0.1028(5) 0.2445(3) 0.0483(3)
H21 H -0.09050 0.31380 0.03350
H22 H -0.11570 0.24280 0.10310
U1B U -0.476180(17) 0.73803(1) -0.015860(9)
U1* U -1.523820(17) 0.26197(1) 0.015860(9)
U1B* U 0.523820(17) -0.26197(1) -0.015860(9)
U1** U 0.476180(17) 0.26197(1) 0.015860(9)
U2B U -0.272830(17) 0.02632(1) -0.001610(8)
U2* U -0.727170(17) -0.02632(1) 0.001610(8)
U2B* U -1.272830(17) 0.02632(1) -0.001610(8)
U2B** U 0.727170(17) 0.02632(1) -0.001610(8)
O1* O -0.7682(4) -0.0160(2) -0.10058(18)
O2B O -0.0348(3) -0.0980(2) -0.00898(18)
O2* O -0.9652(3) 0.0980(2) 0.00898(18)
O2B* O -1.0348(3) -0.0980(2) -0.00898(18)
O3* O 0.2889(4) -0.0380(2) 0.10428(18)
O4B O -0.5351(4) 0.7289(2) -0.11710(18)
O5B O -0.4156(4) 0.7360(2) 0.0850(2)
O6B O -0.3268(4) 0.5742(2) -0.0167(2)
O7B O -0.6552(4) 0.5906(2) 0.0039(2)
C1* C 0.0542(5) 0.1872(3) 0.0333(2)
O8* O -1.2478(3) 0.2040(2) 0.00680(17)
O8B O -0.7522(3) -0.2040(2) -0.00680(17)
O8B* O 0.2478(3) -0.2040(2) -0.00680(17)
O8B** O -0.7522(3) 0.7960(2) -0.00680(17)
O9B O -0.4683(3) -0.0960(2) -0.01030(17)
O9B* O 0.5317(3) -0.0960(2) -0.01030(17)
O9* O 0.4683(3) 0.0960(2) 0.01030(17)
O9B** O -0.4683(3) 0.9040(2) -0.01030(17)
O10B O -0.1949(4) 0.7715(2) -0.0483(2)
O10* O 0.1949(4) 0.2285(2) 0.0483(2)
C10B C -0.4060(5) 0.4955(3) -0.0055(3)
C11* C -1.1028(5) 0.2445(3) 0.0483(3)
H21* H -1.09050 0.31380 0.03350
H22* H -1.11570 0.24280 0.10310
#END
