
#######################################################################
#
#                 Cambridge Crystallographic Data Centre
#                                CCDC
#
#######################################################################
#
# If this CIF has been generated from an entry in the Cambridge
# Structural Database, then it will include bibliographic, chemical,
# crystal, experimental, refinement or atomic coordinate data resulting
# from the CCDC's data processing and validation procedures.
#
#######################################################################

data_CSD_CIF_TIMSOY
_audit_creation_date 2008-01-10
_audit_creation_method CSD-ConQuest-V1
_database_code_CSD TIMSOY
_database_code_depnum_ccdc_archive 'CCDC 638628'
_chemical_formula_sum 'C66 H66 Ag3 Cl1 Mo3 N14 Ni2 O4 S12'
_chemical_formula_moiety
;
(C30 H24 N6 Ni1 2+)2n,n(Ag3 Mo3 S12 3-),n(Cl1 1-),2n(C3 H7 N1 O1),2n(H2 O1)
;
_journal_coden_Cambridge 1295
_journal_volume 10
_journal_year 2007
_journal_page_first 1214
_journal_name_full 'Inorg.Chem.Commun. '
loop_
_publ_author_name
"Yuan Cao"
"Jin-Fang Zhang"
"Feng-Li Bei"
"Chi Zhang"
"Jun-Yi Yang"
"Ying-Lin Song"
_chemical_name_systematic
;
catena-(bis(tris(2,2'-Bipyridyl)-nickel(ii)) 
bis(\m~3~-sulfido)-octakis(\m~2~-sulfido)-disulfido-tri-molybdenum-tri-silver 
chloride dimethylformamide solvate dihydrate)
;
_cell_volume   4110.072
_exptl_crystal_colour 'black red'
_exptl_crystal_density_diffrn 1.83
_exptl_crystal_description 'cuboid'
_diffrn_ambient_temperature 293
#These two values have been output from a single CSD field.
_refine_ls_R_factor_gt 0.0486
_refine_ls_wR_factor_gt 0.0486
_symmetry_cell_setting orthorhombic
_symmetry_space_group_name_H-M 'P 2 2 21'
_symmetry_Int_Tables_number 17
loop_
_symmetry_equiv_pos_site_id
_symmetry_equiv_pos_as_xyz
1 x,y,z
2 -x,-y,1/2+z
3 -x,y,1/2-z
4 x,-y,-z
_cell_length_a 13.447(3)
_cell_length_b 13.579(3)
_cell_length_c 22.509(5)
_cell_angle_alpha 90
_cell_angle_beta 90
_cell_angle_gamma 90
_cell_formula_units_Z 2
loop_
_atom_type_symbol
_atom_type_radius_bond
C 0.68
H 0.23
Ag 1.59
Cl 0.99
Mo 1.47
N 0.68
Ni 1.50
O 0.68
S 1.02
loop_
_atom_site_label
_atom_site_type_symbol
_atom_site_fract_x
_atom_site_fract_y
_atom_site_fract_z
Ni1 Ni 0.53227(12) 0.27785(10) 0.09689(7)
N1 N 0.4398(8) 0.3110(7) 0.0253(4)
N2 N 0.6138(8) 0.2166(7) 0.0263(5)
N3 N 0.6044(7) 0.4136(7) 0.0985(4)
N4 N 0.6296(8) 0.2113(8) 0.1576(4)
N5 N 0.4590(7) 0.1445(7) 0.1120(5)
N6 N 0.4449(7) 0.3582(7) 0.1566(5)
C1 C 0.6895(10) 0.4350(11) 0.0698(6)
H1 H 0.71590 0.38960 0.04320
C2 C 0.719(1) 0.2428(11) 0.1723(6)
H2 H 0.73650 0.30650 0.16130
C3 C 0.7387(10) 0.5238(11) 0.0793(7)
H3 H 0.79820 0.53710 0.05980
C4 C 0.2882(11) 0.3618(11) -0.0201(7)
H4 H 0.22640 0.39160 -0.01570
C5 C 0.4096(10) 0.2819(10) -0.0775(6)
H5 H 0.43220 0.25850 -0.11390
C6 C 0.3690(11) 0.1167(11) 0.0926(7)
H6 H 0.33390 0.15980 0.06830
C7 C 0.3265(13) 0.0294(11) 0.1065(9)
H7 H 0.26690 0.01030 0.08890
C8 C 0.6069(12) 0.1141(11) 0.1706(6)
C9 C 0.6999(10) 0.5894(11) 0.1164(7)
H8 H 0.73250 0.64880 0.12300
C10 C 0.4094(10) 0.5190(12) 0.1918(6)
H9 H 0.42920 0.58440 0.19530
C11 C 0.4644(12) -0.0047(11) 0.1665(6)
H10 H 0.49900 -0.04790 0.19100
C12 C 0.7033(10) 0.1742(10) 0.0282(6)
H11 H 0.73740 0.17370 0.06410
C13 C 0.7026(11) 0.1380(11) -0.0745(7)
H12 H 0.73270 0.11160 -0.10810
C14 C 0.2929(9) 0.3924(11) 0.2098(5)
H13 H 0.23270 0.36900 0.22440
C15 C 0.3575(10) 0.3332(11) 0.1817(6)
H14 H 0.33980 0.26710 0.17920
C16 C 0.7481(11) 0.1309(11) -0.0207(7)
H15 H 0.80810 0.09750 -0.01690
C17 C 0.3205(9) 0.4898(11) 0.2157(6)
H16 H 0.27980 0.53440 0.23550
C18 C 0.5062(11) 0.0836(9) 0.1508(5)
C19 C 0.4696(10) 0.4534(9) 0.1630(5)
C20 C 0.5666(9) 0.2226(8) -0.0281(5)
C21 C 0.4706(9) 0.2726(8) -0.0268(5)
C22 C 0.5626(8) 0.4812(8) 0.1353(5)
C23 C 0.3520(12) 0.3538(11) 0.0265(6)
H17 H 0.33190 0.38100 0.06250
C24 C 0.3182(11) 0.3244(12) -0.0739(7)
H18 H 0.27700 0.32800 -0.10700
C25 C 0.6746(13) 0.0579(11) 0.2005(6)
H19 H 0.65860 -0.00680 0.21010
C26 C 0.7872(11) 0.1887(12) 0.2024(6)
H20 H 0.84810 0.21590 0.21320
C27 C 0.6130(11) 0.5702(9) 0.1447(7)
H21 H 0.58650 0.61660 0.17060
C28 C 0.7651(13) 0.0942(13) 0.2166(7)
H22 H 0.81060 0.05500 0.23680
C29 C 0.6103(10) 0.1852(10) -0.0790(6)
H23 H 0.57880 0.19140 -0.11560
C30 C 0.3722(14) -0.0291(12) 0.1462(8)
H24 H 0.34110 -0.08600 0.15970
O1 O 0.1668(16) -0.3122(14) 0.2255(8)
N7 N 0.0452(11) -0.2366(11) 0.1727(6)
C31 C -0.0417(15) -0.2585(14) 0.1358(8)
H25 H -0.09880 -0.22470 0.15140
H26 H -0.05380 -0.32820 0.13600
H27 H -0.02960 -0.23700 0.09590
C32 C 0.0905(16) -0.1431(15) 0.1837(9)
H28 H 0.11230 -0.11500 0.14680
H29 H 0.14650 -0.15150 0.20960
H30 H 0.04300 -0.09990 0.20210
C33 C 0.089(2) -0.315(2) 0.1969(11)
H31 H 0.05870 -0.37640 0.19180
Ag1 Ag 0.02741(9) 0.19028(8) 0.05779(6)
Ag2 Ag 0.02433(11) 0.50000 0.00000
Mo1 Mo 0.04575(11) 0.00000 0.00000
Mo2 Mo 0.01385(8) 0.38413(7) 0.11356(5)
S1 S 0.0896(4) 0.2582(3) 0.1542(2)
S2 S -0.0841(3) 0.4432(4) 0.17879(18)
S3 S 0.1433(3) 0.1255(3) -0.0216(2)
S4 S -0.0748(3) 0.3441(2) 0.03142(16)
S5 S 0.1270(3) 0.4959(3) 0.09489(16)
S6 S -0.0525(3) 0.0259(3) 0.07647(17)
O2 O 0.7153(11) -0.1782(11) 0.2148(6)
Cl1 Cl 0.50000 -0.2351(4) 0.25000
Ag1C Ag 0.02741(9) 0.80972(8) -0.05779(6)
Ag1C* Ag 0.02741(9) -0.19028(8) -0.05779(6)
Mo1* Mo 0.04575(11) 1.00000 0.00000
Mo2C Mo 0.01385(8) 0.61587(7) -0.11356(5)
S1C S 0.0896(4) 0.7418(3) -0.1542(2)
S2C S -0.0841(3) 0.5568(4) -0.17879(18)
S3C S 0.1433(3) 0.8745(3) 0.0216(2)
S3C* S 0.1433(3) -0.1255(3) 0.0216(2)
S4C S -0.0748(3) 0.6559(2) -0.03142(16)
S5C S 0.1270(3) 0.5041(3) -0.09489(16)
S6C S -0.0525(3) 0.9741(3) -0.07647(17)
S6C* S -0.0525(3) -0.0259(3) -0.07647(17)
#END
