
#######################################################################
#
#                 Cambridge Crystallographic Data Centre
#                                CCDC
#
#######################################################################
#
# If this CIF has been generated from an entry in the Cambridge
# Structural Database, then it will include bibliographic, chemical,
# crystal, experimental, refinement or atomic coordinate data resulting
# from the CCDC's data processing and validation procedures.
#
#######################################################################

data_CSD_CIF_TIMSUE
_audit_creation_date 2008-01-10
_audit_creation_method CSD-ConQuest-V1
_database_code_CSD TIMSUE
_database_code_depnum_ccdc_archive 'CCDC 638629'
_chemical_formula_sum 'C33 H31 Ag2 N7 Ni1 O1 S8 W2'
_chemical_formula_moiety
;
(C30 H24 N6 Ni1 2+)n,n(Ag2 S8 W2 2-),n(C3 H7 N1 O1)
;
_journal_coden_Cambridge 1295
_journal_volume 10
_journal_year 2007
_journal_page_first 1214
_journal_name_full 'Inorg.Chem.Commun. '
loop_
_publ_author_name
"Yuan Cao"
"Jin-Fang Zhang"
"Feng-Li Bei"
"Chi Zhang"
"Jun-Yi Yang"
"Ying-Lin Song"
_chemical_name_systematic
;
catena-(tris(2,2'-Bipyridyl)-nickel(ii) 
(\m~3~-sulfido)-hexakis(\m~2~-sulfido)-sulfido-di-silver-di-tungsten 
dimethylformamide solvate)
;
_cell_volume   4216.676
_exptl_crystal_colour 'orange'
_exptl_crystal_density_diffrn 2.269
_exptl_crystal_description 'prism'
_diffrn_ambient_temperature 293
#These two values have been output from a single CSD field.
_refine_ls_R_factor_gt 0.0543
_refine_ls_wR_factor_gt 0.0543
_symmetry_cell_setting monoclinic
_symmetry_space_group_name_H-M 'P 21/c'
_symmetry_Int_Tables_number 14
loop_
_symmetry_equiv_pos_site_id
_symmetry_equiv_pos_as_xyz
1 x,y,z
2 -x,1/2+y,1/2-z
3 -x,-y,-z
4 x,-1/2-y,-1/2+z
_cell_length_a 13.025(3)
_cell_length_b 16.879(3)
_cell_length_c 19.198(4)
_cell_angle_alpha 90
_cell_angle_beta 92.49(3)
_cell_angle_gamma 90
_cell_formula_units_Z 4
loop_
_atom_type_symbol
_atom_type_radius_bond
C 0.68
H 0.23
Ag 1.59
N 0.68
Ni 1.50
O 0.68
S 1.02
W 1.37
loop_
_atom_site_label
_atom_site_type_symbol
_atom_site_fract_x
_atom_site_fract_y
_atom_site_fract_z
Ni1 Ni 0.15472(13) 0.26773(11) 0.01121(8)
W1 W 0.31596(4) 0.54973(3) 0.18204(3)
W2 W 0.33849(5) 0.76931(3) -0.05561(3)
Ag1 Ag 0.31904(12) 0.67769(8) 0.07581(6)
Ag2 Ag 0.32848(11) 0.64832(8) 0.30900(6)
S1 S 0.2565(3) 0.8129(2) 0.03592(19)
S2 S 0.4110(3) 0.4513(3) 0.1590(2)
S3 S 0.2359(4) 0.5210(3) 0.2778(2)
S4 S 0.4288(4) 0.6625(2) -0.0339(2)
S5 S 0.1994(3) 0.5608(3) 0.0970(2)
S6 S 0.4191(3) 0.6568(2) 0.19240(18)
S7 S 0.2240(3) 0.7582(3) 0.3592(2)
S8 S 0.4483(3) 0.6385(2) 0.4167(2)
N1 N 0.0767(8) 0.2730(7) -0.0861(5)
N2 N 0.2310(8) 0.2760(6) 0.1086(5)
N3 N 0.0830(9) 0.1624(7) 0.0411(5)
N4 N 0.2273(8) 0.3599(7) -0.0353(6)
N5 N 0.2590(9) 0.1843(7) -0.0245(5)
N6 N 0.0577(9) 0.3432(6) 0.0634(5)
N7 N 0.3293(2) 0.55878(16) -0.29375(14)
C1 C -0.0599(2) 0.24196(16) -0.16920(14)
H1 H -0.11980 0.21340 -0.17940
C2 C -0.0230(2) 0.38010(16) 0.03384(14)
H2 H -0.04200 0.37060 -0.01270
C3 C 0.4132(2) 0.14265(16) -0.07712(14)
H3 H 0.47450 0.15590 -0.09720
C4 C -0.0203(2) 0.29299(16) -0.21761(14)
H4 H -0.05180 0.29770 -0.26180
C5 C 0.1161(2) 0.02226(16) 0.05432(14)
H5 H 0.15330 -0.02300 0.04430
C6 C 0.1804(2) 0.31502(16) 0.15756(14)
C7 C 0.3197(2) 0.23966(16) 0.12475(14)
H6 H 0.35560 0.21500 0.08990
C8 C -0.0815(2) 0.43535(16) 0.07446(14)
H7 H -0.13830 0.46210 0.05510
C9 C 0.3026(2) 0.40385(16) -0.00864(14)
H8 H 0.31360 0.40370 0.03960
C10 C 0.2634(2) 0.41205(16) -0.15005(14)
H9 H 0.24860 0.41400 -0.19780
C11 C 0.3059(2) 0.27666(16) 0.24459(14)
H10 H 0.33180 0.27680 0.29050
C12 C 0.3443(2) 0.20005(16) -0.05446(14)
H11 H 0.36080 0.25300 -0.06130
C13 C 0.3674(2) 0.45086(16) -0.04800(14)
H12 H 0.42260 0.47710 -0.02610
C14 C 0.0342(2) 0.40933(16) 0.17330(14)
H13 H 0.05520 0.41880 0.21950
C15 C -0.0497(2) 0.44598(16) 0.14180(14)
H14 H -0.08720 0.48050 0.16860
C16 C -0.0100(2) 0.23503(16) -0.10793(14)
H15 H -0.03780 0.20010 -0.07640
C17 C 0.2129(2) 0.31565(16) 0.22826(14)
H16 H 0.17510 0.34030 0.26210
C18 C 0.2956(2) 0.04597(16) -0.03218(14)
H17 H 0.27770 -0.00610 -0.02270
C19 C 0.3820(2) 0.06184(16) -0.06698(14)
H18 H 0.42090 0.02060 -0.08420
C20 C -0.0004(2) 0.15816(16) 0.07821(14)
H19 H -0.03850 0.20350 0.08670
C21 C 0.3600(2) 0.23820(16) 0.19474(14)
H20 H 0.42110 0.21200 0.20650
C22 C 0.0681(2) 0.33780(16) -0.19941(14)
H21 H 0.09460 0.37480 -0.22970
C23 C 0.2061(2) 0.36626(16) -0.10608(14)
C24 C 0.3499(2) 0.45795(16) -0.11687(14)
H22 H 0.39060 0.49060 -0.14320
C25 C 0.1418(2) 0.09652(16) 0.02993(14)
C26 C 0.2332(2) 0.10874(16) -0.01064(14)
C27 C 0.0864(2) 0.35597(16) 0.13026(14)
C28 C 0.0278(2) 0.02042(16) 0.09609(14)
H23 H 0.01200 -0.02710 0.11770
C29 C 0.1140(2) 0.32376(16) -0.13348(14)
C30 C -0.0319(2) 0.08089(16) 0.10578(14)
H24 H -0.09240 0.07550 0.12930
C31 C 0.2295(2) 0.55773(16) -0.27066(14)
H25 H 0.20730 0.59970 -0.24380
C32 C 0.3716(2) 0.49656(16) -0.33026(14)
H26 H 0.32210 0.45460 -0.33560
H27 H 0.43180 0.47730 -0.30500
H28 H 0.39000 0.51480 -0.37540
C33 C 0.3867(2) 0.62893(16) -0.27864(14)
H29 H 0.45410 0.62390 -0.29660
H30 H 0.39260 0.63670 -0.22910
H31 H 0.35230 0.67350 -0.30010
O1 O 0.1716(2) 0.50481(16) -0.28423(14)
W2C W 0.33849(5) 0.73069(3) 0.44439(3)
Ag2C Ag 0.32848(11) 0.85168(8) -0.19100(6)
S7C S 0.2240(3) 0.7418(3) -0.1408(2)
S8C S 0.4483(3) 0.8615(2) -0.0833(2)
#END
