
#######################################################################
#
#                 Cambridge Crystallographic Data Centre
#                                CCDC
#
#######################################################################
#
# If this CIF has been generated from an entry in the Cambridge
# Structural Database, then it will include bibliographic, chemical,
# crystal, experimental, refinement or atomic coordinate data resulting
# from the CCDC's data processing and validation procedures.
#
#######################################################################

data_CSD_CIF_TINFAZ
_audit_creation_date 2013-10-10
_audit_creation_method CSD-ConQuest-V1
_database_code_CSD TINFAZ
_database_code_depnum_ccdc_archive 'CCDC 956701'
_chemical_formula_sum 'C13 H18 N2 O7 U1'
_chemical_formula_moiety
;
(C6 H16 N1 1+)n,n(C7 H2 N1 O7 U1 1-)
;
_journal_coden_Cambridge 1350
_journal_volume 15
_journal_year 2013
_journal_page_first 9039
_journal_name_full 'CrystEngComm '
loop_
_publ_author_name
"P.M.Cantos"
"S.J.A.Pope"
"C.L.Cahill"
_chemical_name_systematic
;
catena-[triethylammonium 
(\m~3~-4-oxidopyridine-2,6-dicarboxylato)-dioxo-uranium]
;
_cell_volume   1564.334
_exptl_crystal_colour 'yellow'
_exptl_crystal_description 'cubes'
_diffrn_ambient_temperature 100
#These two values have been output from a single CSD field.
_refine_ls_R_factor_gt 0.0137
_refine_ls_wR_factor_gt 0.0137
_symmetry_cell_setting monoclinic
_symmetry_space_group_name_H-M 'P 21/n'
_symmetry_Int_Tables_number 14
loop_
_symmetry_equiv_pos_site_id
_symmetry_equiv_pos_as_xyz
1 x,y,z
2 1/2-x,1/2+y,1/2-z
3 -x,-y,-z
4 -1/2+x,-1/2-y,-1/2+z
_cell_length_a 9.3588(13)
_cell_length_b 12.8986(18)
_cell_length_c 13.0717(19)
_cell_angle_alpha 90
_cell_angle_beta 97.534(2)
_cell_angle_gamma 90
_cell_formula_units_Z 4
loop_
_atom_type_symbol
_atom_type_radius_bond
C 0.68
H 0.23
N 0.68
O 0.68
U 1.96
loop_
_atom_site_label
_atom_site_type_symbol
_atom_site_fract_x
_atom_site_fract_y
_atom_site_fract_z
C1 C 0.36610(19) 0.69573(14) 0.39688(14)
C2 C 0.42472(19) 0.63147(15) 0.47501(14)
H1 H 0.38260 0.56760 0.48500
C3 C 0.54224(19) 0.81895(15) 0.43748(14)
C4 C 0.61018(19) 0.75952(15) 0.51764(14)
H2 H 0.69470 0.78280 0.55610
C5 C 0.5990(2) 0.92110(15) 0.40455(15)
C6 C 0.23690(19) 0.66726(15) 0.32115(14)
C7 C 0.54986(19) 0.66326(15) 0.54040(14)
N1 N 0.42030(16) 0.78951(13) 0.37795(12)
O1 O 0.40872(15) 0.85763(11) 0.15215(11)
O2 O 0.18595(15) 0.95894(12) 0.32814(11)
O3 O 0.60314(15) 0.60356(11) 0.61634(11)
O4 O 0.18448(15) 0.57736(10) 0.32624(11)
O5 O 0.51050(15) 0.97201(11) 0.33977(11)
O6 O 0.72358(15) 0.94847(12) 0.43598(11)
O7 O 0.19019(14) 0.73617(11) 0.25752(10)
U1 U 0.298063(7) 0.908502(5) 0.240831(5)
C8 C 0.5667(3) 0.6721(2) 0.0215(2)
C9 C 0.5624(2) 0.63843(18) 0.13155(18)
C10 C 0.8244(2) 0.68896(17) 0.18107(18)
C11 C 0.7985(3) 0.79174(18) 0.2308(2)
C12 C 0.6885(2) 0.58378(18) 0.29876(18)
C13 C 0.8261(3) 0.5565(2) 0.36710(19)
N2 N 0.70783(19) 0.61038(14) 0.18913(14)
H3 H 0.802(3) 0.538(3) 0.434(3)
H4 H 0.893(3) 0.615(3) 0.379(2)
H5 H 0.877(3) 0.504(3) 0.339(2)
H6 H 0.641(3) 0.645(2) 0.325(2)
H7 H 0.618(3) 0.532(2) 0.2946(19)
H8 H 0.796(3) 0.785(2) 0.302(2)
H9 H 0.709(4) 0.824(3) 0.197(3)
H10 H 0.876(3) 0.836(2) 0.222(2)
H11 H 0.911(3) 0.658(2) 0.211(2)
H12 H 0.827(3) 0.696(2) 0.111(2)
H13 H 0.609(3) 0.744(3) 0.020(2)
H14 H 0.617(3) 0.621(3) -0.012(2)
H15 H 0.734(3) 0.557(3) 0.157(3)
H16 H 0.509(3) 0.581(2) 0.134(2)
H17 H 0.522(3) 0.692(2) 0.173(2)
H18 H 0.468(3) 0.670(3) -0.012(2)
O3C O 0.10314(15) 0.89644(11) 0.11634(11)
O4A O 0.31552(15) 1.07736(10) 0.17376(11)
U1A U 0.201937(7) 0.408502(5) 0.259169(5)
U1C U 0.798063(7) 0.591498(5) 0.740831(5)
#END
