
#######################################################################
#
#                 Cambridge Crystallographic Data Centre
#                                CCDC
#
#######################################################################
#
# If this CIF has been generated from an entry in the Cambridge
# Structural Database, then it will include bibliographic, chemical,
# crystal, experimental, refinement or atomic coordinate data resulting
# from the CCDC's data processing and validation procedures.
#
#######################################################################

data_CSD_CIF_TIPWAT
_audit_creation_date 2018-10-12
_audit_creation_method CSD-ConQuest-V1
_database_code_CSD TIPWAT
_database_code_depnum_ccdc_archive 'CCDC 1850749'
_chemical_formula_sum 'C29 H35 N3 O36 U6'
_chemical_formula_moiety
;
(C19 H23 N1 O36 U6 2-)n,2(C5 H6 N1 1+)
;
_journal_coden_Cambridge 1500
_journal_volume 8
_journal_year 2018
_journal_page_first 34947
_journal_name_full 'RSC Advances '
loop_
_publ_author_name
"Jie Ling"
"Huangjie Lu"
"Yaxing Wang"
"K.Johnson"
"Shuao Wang"
_chemical_name_systematic
;
catena-[bis(pyridinium) 
tetrakis(\m-hydroxo)-tetrakis(\m-oxido)-tetradecakis(\m-formato)-pyridine-hexa
-uranium(iv)]
;
_cell_volume   4799.779
_exptl_crystal_colour 'green'
_exptl_crystal_density_diffrn 3.36
_exptl_crystal_description 'Rodlike'
_diffrn_ambient_temperature 296
#These two values have been output from a single CSD field.
_refine_ls_R_factor_gt 0.0296
_refine_ls_wR_factor_gt 0.0296
_symmetry_cell_setting monoclinic
_symmetry_space_group_name_H-M 'C 2/c'
_symmetry_Int_Tables_number 15
loop_
_symmetry_equiv_pos_site_id
_symmetry_equiv_pos_as_xyz
1 x,y,z
2 -x,y,1/2-z
3 1/2+x,1/2+y,z
4 1/2-x,1/2+y,1/2-z
5 -x,-y,-z
6 x,-y,-1/2+z
7 -1/2-x,-1/2-y,-z
8 -1/2+x,-1/2-y,-1/2+z
_cell_length_a 20.458(3)
_cell_length_b 15.473(3)
_cell_length_c 15.918(2)
_cell_angle_alpha 90
_cell_angle_beta 107.718(10)
_cell_angle_gamma 90
_cell_formula_units_Z 4
loop_
_atom_type_symbol
_atom_type_radius_bond
C 0.68
H 0.23
N 0.68
O 0.68
U 1.96
loop_
_atom_site_label
_atom_site_type_symbol
_atom_site_fract_x
_atom_site_fract_y
_atom_site_fract_z
U1 U 0.50000 0.03966(2) 0.25000
U2 U 0.61971(2) -0.13354(2) 0.21193(2)
U3 U 0.42954(2) -0.13565(2) 0.07628(2)
U4 U 0.50000 -0.31107(2) 0.25000
O1 O 0.3992(2) 0.0005(3) -0.0059(3)
O2 O 0.3130(2) -0.1372(3) -0.0004(3)
O3 O 0.5275(2) -0.0364(3) 0.1314(3)
H1 H 0.53780 0.00020 0.08680
O4 O 0.4141(3) -0.2738(3) 0.0003(3)
O5 O 0.5977(2) -0.3731(3) 0.2156(3)
O6 O 0.5203(2) 0.1272(3) 0.0407(3)
O7 O 0.7309(2) -0.1361(3) 0.3073(3)
O8 O 0.4510(2) -0.3744(3) 0.1058(3)
O9 O 0.5214(2) -0.2049(3) 0.1618(3)
O10 O 0.4627(2) 0.1478(3) 0.1360(3)
O11 O 0.4197(2) -0.0597(3) 0.1912(3)
O12 O 0.3520(2) 0.1203(3) -0.0763(3)
O13 O 0.3934(2) -0.2291(3) 0.1732(3)
H2 H 0.35330 -0.26490 0.14480
O14 O 0.6035(2) 0.1107(3) 0.2404(3)
O15 O 0.6646(2) -0.2720(3) 0.1825(3)
O16 O 0.6730(2) 0.0095(3) 0.2125(3)
O17 O 0.2067(3) -0.1577(3) -0.0873(4)
N1 N 0.50000 -0.4901(5) 0.25000
C1 C 0.4246(4) -0.3502(4) 0.0280(5)
H3 H 0.41100 -0.39350 -0.01420
C2 C 0.3560(4) 0.0578(5) -0.0222(4)
H4 H 0.32310 0.05580 0.00730
C3 C 0.4827(3) 0.1708(5) 0.0725(5)
H5 H 0.46840 0.22450 0.04730
C4 C 0.2671(4) -0.1766(5) -0.0604(5)
H6 H 0.28110 -0.22440 -0.08600
C5 C 0.6555(4) 0.0861(5) 0.2222(5)
H7 H 0.68490 0.12930 0.21480
O18 O 0.8223(3) -0.0489(4) 0.3465(4)
C6 C 0.6489(4) -0.3483(5) 0.1962(5)
H8 H 0.67930 -0.39110 0.19110
C7 C 0.5191(4) -0.5350(5) 0.1907(5)
H9 H 0.53250 -0.50480 0.14810
C8 C 0.7724(4) -0.0840(6) 0.3600(5)
H10 H 0.76420 -0.07160 0.41310
C9 C 0.5202(4) -0.6246(5) 0.1884(5)
H11 H 0.53450 -0.65290 0.14560
C10 C 0.50000 -0.6715(7) 0.25000
H12 H 0.50000 -0.73160 0.25000
C11 C 0.8230(3) 0.0955(5) 0.6797(5)
H13 H 0.82090 0.06940 0.73150
C12 C 0.8167(4) 0.1801(6) 0.6734(6)
H14 H 0.80740 0.21130 0.71840
N2 N 0.8237(4) 0.2236(6) 0.5997(6)
C13 C 0.8390(5) 0.0833(7) 0.5419(6)
H15 H 0.84700 0.04930 0.49780
C14 C 0.8321(5) 0.0451(6) 0.6168(6)
H16 H 0.83380 -0.01470 0.62320
C15 C 0.8340(4) 0.1724(7) 0.5319(6)
H17 H 0.83730 0.19820 0.48050
C7A C 0.4809(4) -0.5350(5) 0.3093(5)
H9A H 0.46750 -0.50480 0.35190
C9A C 0.4798(4) -0.6246(5) 0.3116(5)
H11A H 0.46550 -0.65290 0.35440
U2A U 0.38029(2) -0.13354(2) 0.28807(2)
U3A U 0.57046(2) -0.13565(2) 0.42372(2)
O1A O 0.6008(2) 0.0005(3) 0.5059(3)
O2A O 0.6870(2) -0.1372(3) 0.5004(3)
O3A O 0.4725(2) -0.0364(3) 0.3686(3)
H1A H 0.46220 0.00020 0.41320
O4A O 0.5859(3) -0.2738(3) 0.4997(3)
O5A O 0.4023(2) -0.3731(3) 0.2844(3)
O6A O 0.4797(2) 0.1272(3) 0.4593(3)
O7A O 0.2691(2) -0.1361(3) 0.1927(3)
O8A O 0.5490(2) -0.3744(3) 0.3942(3)
O9A O 0.4786(2) -0.2049(3) 0.3382(3)
O10A O 0.5373(2) 0.1478(3) 0.3640(3)
O11A O 0.5803(2) -0.0597(3) 0.3088(3)
O12A O 0.6480(2) 0.1203(3) 0.5763(3)
O13A O 0.6066(2) -0.2291(3) 0.3268(3)
H2A H 0.64670 -0.26490 0.35520
O14A O 0.3965(2) 0.1107(3) 0.2596(3)
O15A O 0.3354(2) -0.2720(3) 0.3175(3)
O16A O 0.3270(2) 0.0095(3) 0.2875(3)
O17A O 0.7933(3) -0.1577(3) 0.5873(4)
C1A C 0.5754(4) -0.3502(4) 0.4720(5)
H3A H 0.58900 -0.39350 0.51420
C2A C 0.6440(4) 0.0578(5) 0.5222(4)
H4A H 0.67690 0.05580 0.49270
C3A C 0.5173(3) 0.1708(5) 0.4275(5)
H5A H 0.53160 0.22450 0.45270
C4A C 0.7329(4) -0.1766(5) 0.5604(5)
H6A H 0.71890 -0.22440 0.58600
C5A C 0.3445(4) 0.0861(5) 0.2778(5)
H7A H 0.31510 0.12930 0.28520
O18A O 0.1777(3) -0.0489(4) 0.1535(4)
C6A C 0.3511(4) -0.3483(5) 0.3038(5)
H8A H 0.32070 -0.39110 0.30890
C8A C 0.2276(4) -0.0840(6) 0.1400(5)
H10A H 0.23580 -0.07160 0.08690
U2D U 0.38029(2) 0.13354(2) -0.21193(2)
U2E U 0.61971(2) 0.13354(2) 0.71193(2)
U3D U 0.57046(2) 0.13565(2) -0.07628(2)
U3E U 0.42954(2) 0.13565(2) 0.57628(2)
O6D O 0.4797(2) -0.1272(3) -0.0407(3)
O6E O 0.5203(2) -0.1272(3) 0.5407(3)
O12D O 0.6480(2) -0.1203(3) 0.0763(3)
O12E O 0.3520(2) -0.1203(3) 0.4237(3)
#END
