
#######################################################################
#
#                 Cambridge Crystallographic Data Centre
#                                CCDC
#
#######################################################################
#
# If this CIF has been generated from an entry in the Cambridge
# Structural Database, then it will include bibliographic, chemical,
# crystal, experimental, refinement or atomic coordinate data resulting
# from the CCDC's data processing and validation procedures.
#
#######################################################################

data_CSD_CIF_TITBUV
_audit_creation_date 2014-02-17
_audit_creation_method CSD-ConQuest-V1
_database_code_CSD TITBUV
_database_code_depnum_ccdc_archive 'CCDC 987144'
_chemical_formula_sum 'C35 H35 N15 O9 Zn3'
_chemical_formula_moiety
;
(C28 H12 N12 O8 Zn3 2-)n,n(C3 H7 N1 O1),2n(C2 H8 N1 1+)
;
_journal_coden_Cambridge 9
_journal_volume 53
_journal_year 2014
_journal_page_first 1500
_journal_name_full 'Inorg.Chem. '
loop_
_publ_author_name
"Juan Liu"
"Hua-Bin Zhang"
"Yan-Xi Tan"
"Fei Wang"
"Yao Kang"
"Jian Zhang"
_chemical_name_systematic
;
catena-[bis(dimethylammonium) 
tetrakis(\m~3~-5-carboxylato-1H-benzotriazol-1-yl)-tri-zinc 
N,N-dimethylformamide solvate]
;
_cell_volume   2550.270
_exptl_crystal_colour 'colorless'
_exptl_special_details
;
The cations and solvent molecules have been added according to the paper for 
the SQUEEZE routine
;
_exptl_crystal_description 'block'
_diffrn_ambient_temperature 293
_refine_special_details
;
The SQUEEZE/PLATON program has been used to model some disorder.

;
#These two values have been output from a single CSD field.
_refine_ls_R_factor_gt 0.0597
_refine_ls_wR_factor_gt 0.0597
_symmetry_cell_setting monoclinic
_symmetry_space_group_name_H-M 'P 21'
_symmetry_Int_Tables_number 4
loop_
_symmetry_equiv_pos_site_id
_symmetry_equiv_pos_as_xyz
1 x,y,z
2 -x,1/2+y,-z
_cell_length_a 10.1264(10)
_cell_length_b 15.0101(8)
_cell_length_c 17.4862(18)
_cell_angle_alpha 90
_cell_angle_beta 106.359(6)
_cell_angle_gamma 90
_cell_formula_units_Z 2
loop_
_atom_type_symbol
_atom_type_radius_bond
C 0.68
H 0.23
N 0.68
O 0.68
Zn 1.22
loop_
_atom_site_label
_atom_site_type_symbol
_atom_site_fract_x
_atom_site_fract_y
_atom_site_fract_z
Zn1 Zn 1.09807(7) 1.55096(5) 0.84164(4)
Zn2 Zn 1.41104(7) 1.23888(5) 1.16927(4)
Zn3 Zn 1.22740(7) 1.58213(5) 1.54309(4)
N1 N 1.3553(6) 1.6435(4) 0.8469(4)
O1 O 1.4218(6) 1.3519(4) 1.1132(3)
N2 N 1.1530(6) 1.1547(4) 1.1766(4)
O2 O 1.0893(6) 1.4520(4) 0.9087(3)
N3 N 1.2998(5) 1.5824(4) 0.8860(3)
O3 O 0.8654(6) 1.1621(3) 0.5433(3)
N4 N 1.0143(6) 1.1524(4) 1.1384(3)
O4 O 0.9322(6) 1.2368(4) 0.4510(3)
O5 O 1.3205(6) 1.4807(4) 1.5123(3)
N5 N 1.2022(6) 1.2188(4) 1.1347(3)
N6 N 1.4905(6) 1.6459(5) 0.8763(3)
N7 N 1.0723(6) 1.5186(4) 0.7281(3)
C1 C 1.4061(6) 1.5431(5) 0.9417(4)
C2 C 1.5291(7) 1.5822(6) 0.9345(4)
N8 N 1.5775(6) 1.1635(4) 1.3149(3)
N9 N 1.6140(6) 1.1621(4) 1.3928(3)
N10 N 1.4793(6) 1.2265(4) 1.2853(3)
C3 C 0.9751(8) 1.4195(5) 0.9113(5)
C4 C 0.8533(7) 1.2431(7) 1.0300(6)
H1 H 0.77130 1.21600 1.03130
O6 O 1.6530(6) 1.3491(5) 1.1442(4)
C5 C 1.5385(8) 1.3804(5) 1.1077(4)
C6 C 1.1029(7) 1.2592(5) 1.0813(4)
N11 N 1.1299(5) 1.5710(4) 0.6828(3)
O7 O 0.8656(6) 1.4455(5) 0.8667(3)
C7 C 0.9783(8) 1.3504(5) 0.9747(4)
C8 C 1.4553(6) 1.2671(4) 1.3521(4)
C9 C 1.6581(8) 1.5500(7) 0.9834(5)
H2 H 1.74060 1.57500 0.98050
C10 C 1.0266(7) 1.3792(5) 0.5581(4)
H3 H 1.04490 1.38370 0.50900
C11 C 0.9808(7) 1.2172(5) 1.0845(4)
C12 C 0.9621(8) 1.3049(5) 0.5775(4)
C13 C 0.9185(7) 1.2314(5) 0.5169(4)
C14 C 1.4075(7) 1.4779(5) 0.9975(4)
H4 H 1.32610 1.45300 1.00230
C15 C 1.1046(7) 1.3261(5) 1.0243(4)
H5 H 1.18600 1.35200 1.02060
N12 N 1.1217(6) 1.5295(4) 0.6138(3)
C16 C 1.5327(7) 1.4508(6) 1.0457(4)
C17 C 0.8544(8) 1.3065(6) 0.9776(4)
H6 H 0.77170 1.32320 0.94140
C18 C 1.6568(8) 1.4847(6) 1.0324(5)
H7 H 1.74010 1.45890 1.05990
C19 C 1.0640(7) 1.4482(4) 0.6151(4)
C20 C 1.3672(7) 1.3356(5) 1.3609(4)
H8 H 1.30520 1.36040 1.31640
C21 C 1.2851(8) 1.4391(5) 1.4493(5)
C22 C 1.3728(8) 1.3650(5) 1.4333(5)
C23 C 1.5444(7) 1.2270(5) 1.4184(4)
C24 C 1.0265(7) 1.4430(5) 0.6853(4)
C25 C 0.9649(9) 1.3661(6) 0.7072(5)
H9 H 0.95000 1.36060 0.75710
C26 C 1.4636(9) 1.3267(6) 1.5017(5)
H10 H 1.46710 1.34970 1.55160
C27 C 1.5494(8) 1.2544(6) 1.4964(5)
H11 H 1.60570 1.22660 1.54130
O8 O 1.1795(9) 1.4552(6) 1.3931(4)
C28 C 0.9284(8) 1.3000(6) 0.6511(4)
H12 H 0.88040 1.25070 0.66140
Zn1A Zn 0.90193(7) 1.05096(5) 1.15836(4)
Zn2A Zn 1.58896(7) 1.73888(5) 0.83073(4)
Zn3* Zn 1.22740(7) 1.58213(5) 0.54309(4)
Zn3A Zn 0.77260(7) 1.08213(5) 0.45691(4)
Zn3A* Zn 1.77260(7) 1.08213(5) 1.45691(4)
O3A O 1.1346(6) 1.6621(3) 1.4567(3)
N4A N 0.9857(6) 1.6524(4) 0.8616(3)
N6A N 1.5095(6) 1.1459(5) 1.1237(3)
N9A N 1.3860(6) 1.6621(4) 1.6072(3)
N12* N 1.1217(6) 1.5295(4) 1.6138(3)
#END
