
#######################################################################
#
#                 Cambridge Crystallographic Data Centre
#                                CCDC
#
#######################################################################
#
# If this CIF has been generated from an entry in the Cambridge
# Structural Database, then it will include bibliographic, chemical,
# crystal, experimental, refinement or atomic coordinate data resulting
# from the CCDC's data processing and validation procedures.
#
#######################################################################

data_CSD_CIF_TIVCIK
_audit_creation_date 1997-04-03
_audit_creation_method CSD-ConQuest-V1
_database_code_CSD TIVCIK
_database_code_depnum_ccdc_journal 186/49
_chemical_formula_sum 'C12 H22 Bi2 Na2 O21'
_chemical_formula_moiety
;
(C12 H8 Bi2 O14 2-)n,2n(Na1 1+),7n(H2 O1)
;
_journal_coden_Cambridge 186
_journal_year 1996
_journal_page_first 2417
_journal_name_full 'J.Chem.Soc.,Dalton Trans. '
loop_
_publ_author_name
"P.J.Barrie"
"M.I.Djuran"
"M.A.Mazid"
"M.McPartlin"
"P.J.Sadler"
"I.J.Scowen"
"Hongzhe Sun"
_chemical_name_systematic
;
catena-(Di-sodium bis(3-carboxy-3-hydroxypentane-1,5-dioic acid)-di-bismuth 
heptahydrate)
;
_cell_volume   2271.097
_diffrn_ambient_temperature ?
_diffrn_special_details
;
The study was carried out at room temperature,in the range 283-303K

;
_refine_special_details
;
Na2 is disordered over two positions.

;
#These two values have been output from a single CSD field.
_refine_ls_R_factor_gt 0.043
_refine_ls_wR_factor_gt 0.043
_symmetry_cell_setting monoclinic
_symmetry_space_group_name_H-M 'C 2/c'
_symmetry_Int_Tables_number 15
loop_
_symmetry_equiv_pos_site_id
_symmetry_equiv_pos_as_xyz
1 x,y,z
2 -x,y,1/2-z
3 1/2+x,1/2+y,z
4 1/2-x,1/2+y,1/2-z
5 -x,-y,-z
6 x,-y,-1/2+z
7 -1/2-x,-1/2-y,-z
8 -1/2+x,-1/2-y,-1/2+z
_cell_length_a 15.723(3)
_cell_length_b 13.899(3)
_cell_length_c 10.423(2)
_cell_angle_alpha 90
_cell_angle_beta 94.39(2)
_cell_angle_gamma 90
_cell_formula_units_Z 4
loop_
_atom_type_symbol
_atom_type_radius_bond
C 0.68
H 0.23
Bi 1.75
Na 0.93
O 0.68
loop_
_atom_site_label
_atom_site_type_symbol
_atom_site_fract_x
_atom_site_fract_y
_atom_site_fract_z
Bi1 Bi -0.10616(4) 0.11700(4) 0.48790(6)
O1 O -0.2624(7) 0.1447(9) 0.4537(11)
O2 O -0.1286(7) 0.2659(8) 0.6165(10)
O3 O 0.0366(7) 0.0733(8) 0.4165(11)
O4 O 0.0209(7) 0.2186(8) 0.4950(11)
O5 O -0.1442(7) 0.0045(8) 0.3319(10)
O6 O -0.2238(8) -0.0034(9) 0.1462(13)
O7 O -0.1201(7) 0.1944(7) 0.3123(10)
O8 O -0.0219(10) 0.4157(10) 0.8946(15)
C1 C -0.2698(11) 0.2007(12) 0.2332(16)
C2 C -0.1803(10) 0.1549(12) 0.2181(15)
C3 C -0.1540(9) 0.1829(11) 0.0832(15)
C4 C 0.0667(9) 0.1543(12) 0.4434(15)
C5 C -0.3002(10) 0.1938(11) 0.3659(16)
C6 C -0.1845(11) 0.0431(12) 0.2312(17)
Na1 Na 0.00000 0.2778(8) 0.75000
Na2 Na 0.1314(13) 0.4646(15) 0.0381(21)
O9 O 0.00000 0.1047(12) 0.75000
O10 O 0.0569(19) 0.3767(22) 0.1868(29)
O11 O 0.1725(20) 0.5656(23) -0.1156(31)
O12? O 0.3652(22) 0.9572(24) 0.0742(32)
O13? O 0.1176(16) 0.3906(18) 0.1704(23)
H1 H -0.31570 0.16490 0.16710
H2 H -0.26640 0.27580 0.20790
H3 H -0.15890 0.26010 0.07330
H4 H -0.19790 0.14890 0.01250
O2F O -0.3714(7) 0.2341(8) 0.3835(10)
Bi1F Bi -0.39384(4) 0.38300(4) 0.51210(6)
C4A C -0.0667(9) 0.1543(12) 0.0566(15)
O3A O -0.0366(7) 0.0733(8) 0.0835(11)
Bi1A Bi 0.10616(4) 0.11700(4) 0.01210(6)
O1A O 0.2624(7) 0.1447(9) 0.0463(11)
C5A C 0.3002(10) 0.1938(11) 0.1341(16)
O2G O 0.3714(7) 0.2341(8) 0.1165(10)
Bi1G Bi 0.39384(4) 0.38300(4) -0.01210(6)
O2A O 0.1286(7) 0.2659(8) -0.1165(10)
O4A O -0.0209(7) 0.2186(8) 0.0050(11)
O5A O 0.1442(7) 0.0045(8) 0.1681(10)
C6A C 0.1845(11) 0.0431(12) 0.2688(17)
O6A O 0.2238(8) -0.0034(9) 0.3538(13)
C2A C 0.1803(10) 0.1549(12) 0.2819(15)
O7A O 0.1201(7) 0.1944(7) 0.1877(10)
C1A C 0.2698(11) 0.2007(12) 0.2668(16)
H1A H 0.31570 0.16490 0.33290
H2A H 0.26640 0.27580 0.29210
C3A C 0.1540(9) 0.1829(11) 0.4168(15)
H3A H 0.15890 0.26010 0.42670
H4A H 0.19790 0.14890 0.48750
#END
