
#######################################################################
#
#                 Cambridge Crystallographic Data Centre
#                                CCDC
#
#######################################################################
#
# If this CIF has been generated from an entry in the Cambridge
# Structural Database, then it will include bibliographic, chemical,
# crystal, experimental, refinement or atomic coordinate data resulting
# from the CCDC's data processing and validation procedures.
#
#######################################################################

data_CSD_CIF_TIVLOA
_audit_creation_date 2008-07-29
_audit_creation_method CSD-ConQuest-V1
_database_code_CSD TIVLOA
_database_code_depnum_ccdc_archive 'CCDC 633796'
_chemical_formula_sum 'C36 H30 Cu3 Ge1 Mo12 N6 O42 V2'
_chemical_formula_moiety
;
(C24 H20 Cu2 Ge1 Mo12 N4 O42 V2 1-)n,n(C12 H10 Cu1 N2 1+)
;
_journal_coden_Cambridge 1147
_journal_volume 7
_journal_year 2007
_journal_page_first 2535
_journal_name_full 'Cryst.Growth Des. '
loop_
_publ_author_name
"Jingquan Sha"
"Jun Peng"
"Aixiang Tian"
"Hongsheng Liu"
"Jing Chen"
"Pengpeng Zhang"
"Zhongmin Su"
_chemical_name_systematic
;
catena-((\m~2~-1,2-bis(4-Pyridyl)ethene)-copper(i) 
(\m~12~-germato)-octakis(\m~3~-oxo)-octadecakis(\m~2~-oxo)-bis(\m~2~-1,2-bis(4
-pyridyl)ethene)-dodecaoxo-di-copper(i)-dodeca-molybdenum-di-vanadium)
;
_cell_volume   1856.867
_exptl_crystal_colour 'black'
_exptl_crystal_density_diffrn 2.446
_exptl_crystal_description 'block'
_diffrn_ambient_temperature 293
_refine_special_details
;
The germanate moiety is disordered by symmetry.

;
#These two values have been output from a single CSD field.
_refine_ls_R_factor_gt 0.0585
_refine_ls_wR_factor_gt 0.0585
_symmetry_cell_setting triclinic
_symmetry_space_group_name_H-M 'P -1'
_symmetry_Int_Tables_number 2
loop_
_symmetry_equiv_pos_site_id
_symmetry_equiv_pos_as_xyz
1 x,y,z
2 -x,-y,-z
_cell_length_a 11.7978(9)
_cell_length_b 13.1675(10)
_cell_length_c 13.6598(10)
_cell_angle_alpha 79.137(1)
_cell_angle_beta 78.573(2)
_cell_angle_gamma 63.993(1)
_cell_formula_units_Z 1
loop_
_atom_type_symbol
_atom_type_radius_bond
C 0.68
H 0.23
Cu 1.54
Ge 1.17
Mo 1.34
N 0.68
O 0.68
V 1.23
loop_
_atom_site_label
_atom_site_type_symbol
_atom_site_fract_x
_atom_site_fract_y
_atom_site_fract_z
Ge1 Ge 0.50000 0.00000 0.50000
Mo1 Mo 0.30247(11) 0.00972(9) 0.32442(7)
Mo2 Mo 0.17490(9) 0.05057(8) 0.57424(7)
Mo3 Mo 0.53139(9) -0.25155(7) 0.41468(6)
Mo4 Mo 0.26914(9) 0.26222(7) 0.40117(6)
Mo5 Mo 0.62281(10) -0.03908(7) 0.24685(6)
Mo6 Mo 0.40766(12) -0.20752(8) 0.66584(7)
Cu1 Cu 0.50000 0.00000 0.00000
Cu2 Cu 0.84262(16) -0.08991(11) -0.04453(15)
V1 V 0.18894(17) 0.26572(14) 0.63674(11)
O1 O 0.3543(12) 0.0641(9) 0.4586(9)
O2 O 0.4075(11) 0.2758(9) 0.3301(8)
O3 O 0.4871(13) -0.0533(9) 0.3982(8)
O4 O 0.0850(13) 0.3511(9) 0.6993(10)
O5 O 0.3874(13) -0.0228(9) 0.6015(9)
O6 O 0.6071(13) 0.1034(7) 0.2459(9)
O7 O 0.2461(13) -0.0954(7) 0.6277(9)
O8 O 0.2193(13) 0.1030(8) 0.6839(8)
O9 O 0.5618(8) -0.3725(6) 0.3716(6)
O10 O 0.1693(11) 0.2058(8) 0.5202(6)
O11 O 0.4556(9) 0.0013(8) 0.2353(8)
O12 O 0.1529(9) 0.3854(6) 0.3699(5)
O13 O 0.4461(10) -0.2635(9) 0.5389(8)
O14 O 0.0218(8) 0.0879(7) 0.6131(6)
O15 O 0.1922(11) 0.0175(7) 0.4485(6)
O16 O 0.4622(12) 0.1435(10) 0.4671(7)
O17 O 0.3884(8) -0.1511(7) 0.3552(8)
O18 O 0.6958(11) -0.3039(11) 0.4744(6)
O19 O 0.2610(11) 0.1696(7) 0.3250(6)
O20 O 0.2191(9) 0.0183(7) 0.2422(5)
O21 O 0.6429(8) -0.1946(8) 0.3082(7)
O22 O 0.3686(8) -0.3004(7) 0.7422(5)
O23 O 0.6904(7) -0.0661(6) 0.1292(5)
N1 N 0.8586(8) 0.0482(7) -0.0517(7)
N2 N 0.4892(9) 0.1505(6) -0.0105(7)
N3 N 0.8487(8) 0.7644(7) -0.0403(8)
C1 C 0.9187(12) 0.1919(9) -0.1423(9)
H1 H 0.96020 0.21590 -0.20080
C2 C 0.8728(11) 0.3700(9) -0.0806(11)
H2 H 0.90070 0.39380 -0.14560
C3 C 0.8414(12) 0.4352(11) -0.0175(11)
H3 H 0.80890 0.41250 0.04620
C4 C 0.8822(11) 0.6047(9) -0.1213(9)
H4 H 0.90630 0.56960 -0.17970
C5 C 0.9083(12) 0.0955(10) -0.1375(9)
H5 H 0.93580 0.05790 -0.19470
C6 C 0.8211(11) 0.2088(9) 0.0243(10)
H6 H 0.79260 0.24470 0.08250
C7 C 0.8203(11) 0.6041(8) 0.0506(9)
H7 H 0.79860 0.56950 0.11280
C8 C 0.8496(10) 0.5491(8) -0.0315(9)
C9 C 0.8704(11) 0.2599(8) -0.0637(9)
C10 C 0.8148(11) 0.1111(9) 0.0250(9)
H8 H 0.77680 0.08370 0.08370
C11 C 0.5249(12) 0.3068(8) -0.1095(8)
H9 H 0.54580 0.33960 -0.17290
C12 C 0.5230(11) 0.2008(8) -0.0983(8)
H10 H 0.54650 0.16280 -0.15480
C13 C 0.504(1) 0.4704(8) -0.0356(7)
H11 H 0.51720 0.50240 -0.10130
C14 C 0.4953(9) 0.3643(7) -0.0256(7)
C15 C 0.8213(11) 0.7076(8) 0.0457(9)
H12 H 0.80210 0.74020 0.10500
C16 C 0.8795(10) 0.7123(8) -0.1258(9)
H13 H 0.89890 0.74920 -0.18740
C17 C 0.4585(9) 0.3127(7) 0.0619(7)
H14 H 0.43610 0.34880 0.11960
C18 C 0.4526(10) 0.2072(8) 0.0700(8)
H15 H 0.42320 0.17670 0.13130
Mo1A Mo 0.69753(11) -0.00972(9) 0.67558(7)
Mo2A Mo 0.82510(9) -0.05057(8) 0.42576(7)
Mo3A Mo 0.46861(9) 0.25155(7) 0.58532(6)
Mo4A Mo 0.73086(9) -0.26222(7) 0.59883(6)
Mo5A Mo 0.37719(10) 0.03908(7) 0.75315(6)
Mo6A Mo 0.59234(12) 0.20752(8) 0.33416(7)
Cu1* Cu 0.50000 1.00000 0.00000
Cu2A Cu 0.15738(16) 0.08991(11) 1.04453(15)
Cu2* Cu 0.84262(16) 0.91009(11) -0.04453(15)
Cu2** Cu 0.84262(16) -1.08991(11) -0.04453(15)
V1A V 0.81106(17) -0.26572(14) 0.36326(11)
O1A O 0.6457(12) -0.0641(9) 0.5414(9)
O2A O 0.5925(11) -0.2758(9) 0.6699(8)
O3A O 0.5129(13) 0.0533(9) 0.6018(8)
O4A O 0.9150(13) -0.3511(9) 0.3007(10)
O5A O 0.6126(13) 0.0228(9) 0.3985(9)
O6A O 0.3929(13) -0.1034(7) 0.7541(9)
O7A O 0.7539(13) 0.0954(7) 0.3723(9)
O8A O 0.7807(13) -0.1030(8) 0.3161(8)
O9A O 0.4382(8) 0.3725(6) 0.6284(6)
O10A O 0.8307(11) -0.2058(8) 0.4798(6)
O11A O 0.5444(9) -0.0013(8) 0.7647(8)
O12A O 0.8471(9) -0.3854(6) 0.6301(5)
O13A O 0.5539(10) 0.2635(9) 0.4611(8)
O14A O 0.9782(8) -0.0879(7) 0.3869(6)
O15A O 0.8078(11) -0.0175(7) 0.5515(6)
O16A O 0.5378(12) -0.1435(10) 0.5329(7)
O17A O 0.6116(8) 0.1511(7) 0.6448(8)
O18A O 0.3042(11) 0.3039(11) 0.5256(6)
O19A O 0.7390(11) -0.1696(7) 0.6750(6)
O20A O 0.7809(9) -0.0183(7) 0.7578(5)
O21A O 0.3571(8) 0.1946(8) 0.6918(7)
O22A O 0.6314(8) 0.3004(7) 0.2578(5)
O23A O 0.3096(7) 0.0661(6) 0.8708(5)
N1* N 0.8586(8) -0.9518(7) -0.0517(7)
N1A N 0.1414(8) -0.0482(7) 1.0517(7)
N2A N 0.5108(9) 0.8495(6) 0.0105(7)
N2A* N 0.5108(9) -0.1505(6) 0.0105(7)
N3* N 0.8487(8) -0.2356(7) -0.0403(8)
N3A N 0.1513(8) 0.2356(7) 1.0403(8)
C1* C 0.9187(12) -0.8081(9) -0.1423(9)
H1* H 0.96020 -0.78410 -0.20080
C2* C 0.8728(11) -0.6300(9) -0.0806(11)
H2* H 0.90070 -0.60620 -0.14560
C3* C 0.8414(12) -0.5648(11) -0.0175(11)
H3* H 0.80890 -0.58750 0.04620
C4* C 0.8822(11) -0.3953(9) -0.1213(9)
H4* H 0.90630 -0.43040 -0.17970
C5* C 0.9083(12) -0.9045(10) -0.1375(9)
H5* H 0.93580 -0.94210 -0.19470
C6* C 0.8211(11) -0.7912(9) 0.0243(10)
H6* H 0.79260 -0.75530 0.08250
C7* C 0.8203(11) -0.3959(8) 0.0506(9)
H7* H 0.79860 -0.43050 0.11280
C8* C 0.8496(10) -0.4509(8) -0.0315(9)
C9* C 0.8704(11) -0.7401(8) -0.0637(9)
C10* C 0.8148(11) -0.8889(9) 0.0250(9)
H8* H 0.77680 -0.91630 0.08370
C11A C 0.4751(12) 0.6932(8) 0.1095(8)
H9A H 0.45420 0.66040 0.17290
C12A C 0.4770(11) 0.7992(8) 0.0983(8)
H10A H 0.45350 0.83720 0.15480
C13A C 0.496(1) 0.5296(8) 0.0356(7)
H11A H 0.48280 0.49760 0.10130
C14A C 0.5047(9) 0.6357(7) 0.0256(7)
C15* C 0.8213(11) -0.2924(8) 0.0457(9)
H12* H 0.80210 -0.25980 0.10500
C16* C 0.8795(10) -0.2877(8) -0.1258(9)
H13* H 0.89890 -0.25080 -0.18740
C17A C 0.5415(9) 0.6873(7) -0.0619(7)
H14A H 0.56390 0.65120 -0.11960
C18A C 0.5474(10) 0.7928(8) -0.0700(8)
H15A H 0.57680 0.82330 -0.13130
#END
