
#######################################################################
#
#                 Cambridge Crystallographic Data Centre
#                                CCDC
#
#######################################################################
#
# If this CIF has been generated from an entry in the Cambridge
# Structural Database, then it will include bibliographic, chemical,
# crystal, experimental, refinement or atomic coordinate data resulting
# from the CCDC's data processing and validation procedures.
#
#######################################################################

data_CSD_CIF_TIVLIU
_audit_creation_date 2008-07-29
_audit_creation_method CSD-ConQuest-V1
_database_code_CSD TIVLIU
_database_code_depnum_ccdc_archive 'CCDC 631798'
_chemical_formula_sum 'C30 H32 Cu3 N6 O23 W6'
_chemical_formula_moiety
;
(C20 H16 Cu2 N4 O19 W6 1-)n,n(C10 H8 Cu1 N2 1+),4n(H2 O1)
;
_journal_coden_Cambridge 1147
_journal_volume 7
_journal_year 2007
_journal_page_first 2535
_journal_name_full 'Cryst.Growth Des. '
loop_
_publ_author_name
"Jingquan Sha"
"Jun Peng"
"Aixiang Tian"
"Hongsheng Liu"
"Jing Chen"
"Pengpeng Zhang"
"Zhongmin Su"
_chemical_name_systematic
;
catena-((\m~6~-Oxo)-bis(\m~3~-oxo)-bis(\m~2~-4,4'-bipyridyl)-dodecakis(\m~2~-o
xo)-tetraoxo-di-copper(i)-hexa-tungsten (\m~2~-4,4'-bipyridyl)-copper(i) 
tetrahydrate)
;
_chemical_name_common
;
catena-((mu!4$-Polyoxohexatungstate)-bis(mu!2$-4,4'-bipyridyl)-di-copper(i) 
(mu!2$-4,4'-bipyridyl)-copper(i) tetrahydrate)
;
_cell_volume   1062.565
_exptl_crystal_colour 'brown-yellow'
_exptl_crystal_density_diffrn 3.341
_exptl_crystal_description 'block'
_diffrn_ambient_temperature 293
#These two values have been output from a single CSD field.
_refine_ls_R_factor_gt 0.0524
_refine_ls_wR_factor_gt 0.0524
_symmetry_cell_setting triclinic
_symmetry_space_group_name_H-M 'P -1'
_symmetry_Int_Tables_number 2
loop_
_symmetry_equiv_pos_site_id
_symmetry_equiv_pos_as_xyz
1 x,y,z
2 -x,-y,-z
_cell_length_a 9.6447(4)
_cell_length_b 10.8758(4)
_cell_length_c 11.1261(4)
_cell_angle_alpha 89.599(1)
_cell_angle_beta 65.678(1)
_cell_angle_gamma 87.704(1)
_cell_formula_units_Z 1
loop_
_atom_type_symbol
_atom_type_radius_bond
C 0.68
H 0.23
Cu 1.62
N 0.63
O 0.68
W 1.37
loop_
_atom_site_label
_atom_site_type_symbol
_atom_site_fract_x
_atom_site_fract_y
_atom_site_fract_z
W1 W -0.16822(6) 0.48378(5) 0.71813(5)
W2 W 0.04436(6) 0.28893(4) 0.48641(5)
W3 W 0.19820(7) 0.52097(5) 0.56251(6)
O1 O 0.3406(12) 0.5370(9) 0.6104(10)
O2 O 0.2035(17) -0.0461(15) 0.2455(14)
O3 O 0.00000 0.50000 0.50000
O4 O 0.2352(15) -0.0517(13) 0.5685(13)
O5 O -0.2910(13) 0.4728(9) 0.8781(10)
O6 O 0.0733(12) 0.1321(8) 0.4791(10)
O7 O -0.1695(10) 0.6581(7) 0.6883(8)
O8 O -0.1267(11) 0.3132(7) 0.4390(9)
O9 O -0.1036(10) 0.3161(7) 0.6659(9)
O10 O -0.2972(10) 0.4735(8) 0.6245(8)
O11 O 0.0229(10) 0.5029(7) 0.7265(8)
O12 O 0.1922(10) 0.3449(7) 0.5447(9)
Cu1 Cu 0.00000 0.50000 1.00000
Cu2 Cu -0.5813(2) 0.51882(15) 0.8106(3)
N1 N 0.0105(15) 0.3252(10) 0.9973(12)
N2 N -0.5878(13) 0.3443(10) 0.8160(13)
N3 N -0.5753(13) -0.3072(10) 0.8167(13)
C1 C -0.5771(13) 0.0871(11) 0.8163(13)
C2 C -0.020(2) 0.2625(13) 1.1075(15)
H1 H -0.03570 0.30600 1.18410
C3 C -0.5490(18) 0.1520(12) 0.7019(15)
H2 H -0.52530 0.11000 0.62290
C4 C -0.5059(17) -0.1190(12) 0.6997(14)
H3 H -0.46000 -0.07990 0.61900
C5 C -0.6136(16) 0.1551(12) 0.9312(14)
H4 H -0.63450 0.11490 1.01050
C6 C -0.5560(18) 0.2795(12) 0.7048(16)
H5 H -0.53810 0.32170 0.62710
C7 C 0.0453(16) 0.1341(11) 0.8816(13)
H6 H 0.07210 0.09320 0.80160
C8 C 0.0450(16) 0.2608(11) 0.8857(15)
H7 H 0.06990 0.30360 0.80740
C9 C -0.6189(17) 0.2804(13) 0.9283(15)
H8 H -0.64500 0.32380 1.00690
C10 C -0.6391(16) -0.1148(11) 0.9311(13)
H9 H -0.68320 -0.07290 1.01140
C11 C -0.5728(14) -0.0496(11) 0.8156(13)
C12 C -0.5077(17) -0.2454(12) 0.7044(15)
H10 H -0.45970 -0.28990 0.62600
C13 C -0.6404(17) -0.2414(12) 0.9279(16)
H11 H -0.68880 -0.28260 1.00690
C14 C 0.0054(13) 0.0678(9) 0.9976(11)
C15 C -0.0282(19) 0.1363(12) 1.1142(13)
H12 H -0.05570 0.09670 1.19470
W1A W 0.16822(6) 0.51622(5) 0.28187(5)
W2A W -0.04436(6) 0.71107(4) 0.51359(5)
W3A W -0.19820(7) 0.47903(5) 0.43749(6)
O1* O -0.6594(12) 0.5370(9) 0.6104(10)
O1A O -0.3406(12) 0.4630(9) 0.3896(10)
O5A O 0.2910(13) 0.5272(9) 0.1219(10)
O6A O -0.0733(12) 0.8679(8) 0.5209(10)
O7A O 0.1695(10) 0.3419(7) 0.3117(8)
O8A O 0.1267(11) 0.6868(7) 0.5610(9)
O9A O 0.1036(10) 0.6839(7) 0.3341(9)
O10A O 0.2972(10) 0.5265(8) 0.3755(8)
O10* O 0.7028(10) 0.4735(8) 0.6245(8)
O11A O -0.0229(10) 0.4971(7) 0.2735(8)
O12A O -0.1922(10) 0.6551(7) 0.4553(9)
Cu1* Cu 0.00000 -0.50000 1.00000
Cu2* Cu 0.4187(2) 0.51882(15) 0.8106(3)
Cu2** Cu -0.5813(2) -0.48118(15) 0.8106(3)
Cu2A Cu 0.5813(2) 0.48118(15) 0.1894(3)
Cu2*** Cu -0.5813(2) 1.51882(15) 0.8106(3)
Cu2A* Cu -0.4187(2) 0.48118(15) 0.1894(3)
N1A N -0.0105(15) -0.3252(10) 1.0027(12)
N1A* N -0.0105(15) 0.6748(10) 1.0027(12)
N2* N -0.5878(13) 1.3443(10) 0.8160(13)
N2** N 0.4122(13) 0.3443(10) 0.8160(13)
N3* N -0.5753(13) 0.6928(10) 0.8167(13)
N3** N 0.4247(13) 0.6928(10) 0.8167(13)
C1* C -0.5771(13) 1.0871(11) 0.8163(13)
C2A C 0.020(2) -0.2625(13) 0.8925(15)
H1A H 0.03570 -0.30600 0.81590
C3* C -0.5490(18) 1.1520(12) 0.7019(15)
H2* H -0.52530 1.11000 0.62290
C4* C -0.5059(17) 0.8810(12) 0.6997(14)
H3* H -0.46000 0.92010 0.61900
C5* C -0.6136(16) 1.1551(12) 0.9312(14)
H4* H -0.63450 1.11490 1.01050
C6* C -0.5560(18) 1.2795(12) 0.7048(16)
H5* H -0.53810 1.32170 0.62710
C7A C -0.0453(16) -0.1341(11) 1.1184(13)
H6A H -0.07210 -0.09320 1.19840
C8A C -0.0450(16) -0.2608(11) 1.1143(15)
H7A H -0.06990 -0.30360 1.19260
C9* C -0.6189(17) 1.2804(13) 0.9283(15)
H8* H -0.64500 1.32380 1.00690
C10* C -0.6391(16) 0.8852(11) 0.9311(13)
H9* H -0.68320 0.92710 1.01140
C11* C -0.5728(14) 0.9504(11) 0.8156(13)
C12* C -0.5077(17) 0.7546(12) 0.7044(15)
H10* H -0.45970 0.71010 0.62600
C13* C -0.6404(17) 0.7586(12) 0.9279(16)
H11* H -0.68880 0.71740 1.00690
C14A C -0.0054(13) -0.0678(9) 1.0024(11)
C15A C 0.0282(19) -0.1363(12) 0.8858(13)
H12A H 0.05570 -0.09670 0.80530
#END
