
#######################################################################
#
#                 Cambridge Crystallographic Data Centre
#                                CCDC
#
#######################################################################
#
# If this CIF has been generated from an entry in the Cambridge
# Structural Database, then it will include bibliographic, chemical,
# crystal, experimental, refinement or atomic coordinate data resulting
# from the CCDC's data processing and validation procedures.
#
#######################################################################

data_CSD_CIF_TIVYUT
_audit_creation_date 2008-07-29
_audit_creation_method CSD-ConQuest-V1
_database_code_CSD TIVYUT
_database_code_depnum_ccdc_archive 'CCDC 644473'
_chemical_formula_sum 'C35.33 H36.66 Cl6 Mn2 N7 Nb3 O8'
_chemical_formula_moiety
;
(C19 H14 Cl6 Mn1 N5 Nb3 O2 2-)n,n(C16 H16 Mn1 N2 O3 2+),0.33n(C1 H4 
O1),2.67n(H2 O1)
;
_journal_coden_Cambridge 1147
_journal_volume 8
_journal_year 2008
_journal_page_first 172
_journal_name_full 'Cryst.Growth Des. '
loop_
_publ_author_name
"Jian-Jun Zhang"
"Yue Zhao"
"S.A.Gamboa"
"A.Lachgar"
_chemical_name_systematic
;
catena-(Aqua-(N,N'-bis(salicylidenealdiminato)ethylenediamine)-manganese(iii) 
hexakis(\m~2~-chloro)-bis(\m~2~-cyano)-cyano-(N,N'-bis(salicylidenealdiminato)
ethylenediamine)-manganese(iii)-tri-niobium methanol solvate hydrate)
;
_cell_volume   4531.771
_exptl_crystal_colour 'brown'
_exptl_crystal_density_diffrn 1.889
_exptl_crystal_description 'hexagonal plate'
_diffrn_ambient_temperature 193
_refine_special_details
;
Some water molecules are disordered.

;
#These two values have been output from a single CSD field.
_refine_ls_R_factor_gt 0.0473
_refine_ls_wR_factor_gt 0.0473
_symmetry_cell_setting monoclinic
_symmetry_space_group_name_H-M 'P 21/c'
_symmetry_Int_Tables_number 14
loop_
_symmetry_equiv_pos_site_id
_symmetry_equiv_pos_as_xyz
1 x,y,z
2 -x,1/2+y,1/2-z
3 -x,-y,-z
4 x,-1/2-y,-1/2+z
_cell_length_a 14.949(4)
_cell_length_b 13.373(4)
_cell_length_c 22.736(6)
_cell_angle_alpha 90
_cell_angle_beta 94.409(4)
_cell_angle_gamma 90
_cell_formula_units_Z 4
loop_
_atom_type_symbol
_atom_type_radius_bond
C 0.68
H 0.23
Cl 0.99
Mn 1.35
N 0.68
Nb 1.48
O 0.68
loop_
_atom_site_label
_atom_site_type_symbol
_atom_site_fract_x
_atom_site_fract_y
_atom_site_fract_z
Nb1 Nb 0.40383(3) 0.09903(3) 0.462535(16)
Nb2 Nb 0.56178(3) 0.11656(3) 0.546370(16)
Nb3 Nb 0.57958(2) 0.02537(3) 0.430751(16)
Cl1 Cl 0.45923(7) 0.25303(8) 0.51245(5)
Cl2 Cl 0.66534(7) 0.16972(8) 0.47253(4)
Cl3 Cl 0.48008(7) 0.10733(8) 0.63640(4)
Cl4 Cl 0.48029(7) 0.14398(8) 0.37411(4)
Cl5 Cl 0.29256(7) 0.08394(8) 0.53693(5)
Cl6 Cl 0.31472(7) -0.02135(8) 0.40095(5)
Mn1 Mn 0.70547(4) 0.12776(5) 0.21807(3)
N1 N 0.7067(3) 0.0705(3) 0.31450(16)
N2 N 0.2520(3) 0.2672(3) 0.39801(19)
N3 N 0.6720(3) 0.3001(3) 0.62754(17)
N4 N 0.5869(2) 0.1870(3) 0.23497(15)
N5 N 0.7485(2) 0.2606(3) 0.24702(15)
C1 C 0.6664(3) 0.0538(3) 0.35401(19)
C2 C 0.3007(3) 0.2091(3) 0.4200(2)
C3 C 0.6332(3) 0.2422(3) 0.59858(19)
C4 C 0.5669(3) -0.0005(3) 0.1656(2)
C5 C 0.5461(3) -0.0795(3) 0.1263(2)
H1 H 0.59270 -0.12120 0.11410
C6 C 0.4586(3) -0.0971(4) 0.1052(2)
H2 H 0.44550 -0.15160 0.07910
C7 C 0.3899(3) -0.0370(4) 0.1213(2)
H3 H 0.32970 -0.05090 0.10710
C8 C 0.4084(3) 0.0426(4) 0.1579(2)
H4 H 0.36090 0.08460 0.16840
C9 C 0.4969(3) 0.0634(3) 0.1802(2)
C10 C 0.5107(3) 0.1510(4) 0.2164(2)
H5 H 0.45880 0.18500 0.22750
C11 C 0.5958(3) 0.2783(3) 0.2704(2)
H6 H 0.60600 0.26150 0.31280
H7 H 0.54060 0.31910 0.26460
C12 C 0.6755(3) 0.3354(3) 0.2498(2)
H8 H 0.66040 0.36540 0.21050
H9 H 0.69380 0.38940 0.27800
C13 C 0.8986(3) 0.1179(3) 0.23974(19)
C14 C 0.9745(3) 0.0578(4) 0.2456(2)
H10 H 0.97220 -0.00750 0.22910
C15 C 1.0531(3) 0.0909(4) 0.2749(2)
H11 H 1.10370 0.04770 0.27880
C16 C 1.0596(3) 0.1859(4) 0.2986(2)
H12 H 1.11450 0.20850 0.31790
C17 C 0.9862(3) 0.2470(4) 0.2940(2)
H13 H 0.99030 0.31220 0.31060
C18 C 0.9044(3) 0.2148(3) 0.2650(2)
C19 C 0.8297(3) 0.2828(3) 0.2646(2)
H14 H 0.84140 0.34900 0.27830
O1 O 0.6517(2) 0.0096(2) 0.18746(14)
O2 O 0.82473(19) 0.0836(2) 0.20895(13)
Mn2 Mn 0.93364(5) -0.00635(6) 0.06193(3)
N6 N 0.8604(3) -0.0980(3) 0.01036(17)
N7 N 0.8306(3) 0.0815(3) 0.04671(18)
C20 C 1.0336(3) -0.1855(4) 0.0538(2)
C21 C 1.1098(3) -0.2378(4) 0.0745(2)
H15 H 1.16160 -0.20200 0.08940
C22 C 1.1117(4) -0.3406(4) 0.0737(2)
H16 H 1.16400 -0.37500 0.08900
C23 C 1.0384(4) -0.3940(4) 0.0509(3)
H17 H 1.04040 -0.46500 0.05040
C24 C 0.9628(4) -0.3453(4) 0.0292(2)
H18 H 0.91270 -0.38290 0.01330
C25 C 0.9580(3) -0.2403(4) 0.0300(2)
C26 C 0.8775(3) -0.1916(4) 0.0051(2)
H19 H 0.83420 -0.23160 -0.01670
C27 C 0.7794(4) -0.0526(4) -0.0182(2)
H20 H 0.73170 -0.10350 -0.02490
H21 H 0.79230 -0.02390 -0.05680
C28 C 0.7492(3) 0.0293(4) 0.0222(2)
H22 H 0.70870 0.07670 -0.00020
H23 H 0.71670 0.00000 0.05440
C29 C 0.9838(4) 0.1895(4) 0.1088(2)
C30 C 1.0477(4) 0.2496(4) 0.1384(2)
H24 H 1.10280 0.22130 0.15400
C31 C 1.0319(5) 0.3509(4) 0.1455(3)
H25 H 1.07610 0.39130 0.16620
C32 C 0.9521(5) 0.3937(4) 0.1226(3)
H26 H 0.94160 0.46310 0.12760
C33 C 0.8897(4) 0.3358(4) 0.0931(3)
H27 H 0.83530 0.36550 0.07740
C34 C 0.9030(4) 0.2331(4) 0.0850(2)
C35 C 0.8313(4) 0.1767(4) 0.0553(2)
H28 H 0.77960 0.21300 0.04080
O3 O 1.0351(2) -0.0854(3) 0.05401(18)
O4 O 1.0020(2) 0.0917(2) 0.10228(15)
O5 O 0.8715(2) -0.0736(3) 0.13643(16)
H29 H 0.851(4) -0.036(4) 0.156(2)
H30 H 0.836(4) -0.113(4) 0.129(2)
O6 O 1.1735(3) 0.0069(3) 0.1630(2)
H31 H 1.187(6) 0.047(6) 0.180(4)
H32 H 1.126(5) 0.035(5) 0.149(3)
O7 O 1.2472(12) 0.1869(14) 0.1986(9)
C36 C 1.2678(19) 0.263(2) 0.1483(13)
O8 O 1.2777(8) 0.1208(10) 0.2656(6)
O9 O 1.2760(13) 0.3299(14) 0.2281(9)
O10? O 1.315(1) 0.3104(11) 0.2597(7)
O11? O 1.2761(10) 0.1885(13) 0.2487(7)
Nb1B Nb 0.59617(3) -0.09903(3) 0.537465(16)
Nb2B Nb 0.43822(3) -0.11656(3) 0.453630(16)
Nb3B Nb 0.42042(2) -0.02537(3) 0.569249(16)
Cl3B Cl 0.51992(7) -0.10733(8) 0.36360(4)
Cl5B Cl 0.70744(7) -0.08394(8) 0.46307(5)
Cl6B Cl 0.68528(7) 0.02135(8) 0.59905(5)
Mn1C Mn 0.70547(4) 0.37224(5) 0.71807(3)
N3C N 0.6720(3) 0.1999(3) 0.12754(17)
#END
