
#######################################################################
#
#                 Cambridge Crystallographic Data Centre
#                                CCDC
#
#######################################################################
#
# If this CIF has been generated from an entry in the Cambridge
# Structural Database, then it will include bibliographic, chemical,
# crystal, experimental, refinement or atomic coordinate data resulting
# from the CCDC's data processing and validation procedures.
#
#######################################################################

data_CSD_CIF_TIVZEE
_audit_creation_date 2008-07-29
_audit_creation_method CSD-ConQuest-V1
_database_code_CSD TIVZEE
_database_code_depnum_ccdc_archive 'CCDC 644475'
_chemical_formula_sum 'C102 H88 Cl12 Mn4 N20 Nb6 O16'
_chemical_formula_moiety
;
(C48 H36 Cl12 Mn2 N12 Nb6 O6 4-)n,n(C44 H44 Mn2 N6 O8 2+),n(C10 H8 N2 O2 2+)
;
_journal_coden_Cambridge 1147
_journal_volume 8
_journal_year 2008
_journal_page_first 172
_journal_name_full 'Cryst.Growth Des. '
loop_
_publ_author_name
"Jian-Jun Zhang"
"Yue Zhao"
"S.A.Gamboa"
"A.Lachgar"
_chemical_name_systematic
;
catena-(4,4'-Bipyridinedi-ium N,N'-dioxide (\m~2~-4,4'-bipyridinedi-ium 
N,N'-dioxido)-bis(N,N'-bis(salicylidenealdiminato)ethylenediamine)-bis(methano
l)-di-manganese(iii) 
dodecakis(\m~2~-chloro)-bis(\m~2~-cyano)-(\m~2~-4,4'-bipyridinedi-ium 
N,N'-dioxido)-tetracyano-bis(N,N'-bis(salicylidenealdiminato)ethylenediamine)-
di-manganese(iii)-hexa-niobium)
;
_cell_volume  11118.710
_exptl_crystal_colour 'red-brown'
_exptl_crystal_density_diffrn 1.824
_exptl_crystal_description 'plate'
_diffrn_ambient_temperature 193
#These two values have been output from a single CSD field.
_refine_ls_R_factor_gt 0.047
_refine_ls_wR_factor_gt 0.047
_symmetry_cell_setting orthorhombic
_symmetry_space_group_name_H-M 'P b c n'
_symmetry_Int_Tables_number 60
loop_
_symmetry_equiv_pos_site_id
_symmetry_equiv_pos_as_xyz
1 x,y,z
2 1/2-x,1/2-y,1/2+z
3 -x,y,1/2-z
4 1/2+x,1/2-y,-z
5 -x,-y,-z
6 -1/2+x,-1/2+y,-1/2-z
7 x,-y,-1/2+z
8 -1/2-x,-1/2+y,z
_cell_length_a 21.822(4)
_cell_length_b 17.499(3)
_cell_length_c 29.117(6)
_cell_angle_alpha 90
_cell_angle_beta 90
_cell_angle_gamma 90
_cell_formula_units_Z 4
loop_
_atom_type_symbol
_atom_type_radius_bond
C 0.68
H 0.23
Cl 0.99
Mn 1.35
N 0.68
Nb 1.48
O 0.68
loop_
_atom_site_label
_atom_site_type_symbol
_atom_site_fract_x
_atom_site_fract_y
_atom_site_fract_z
Nb1 Nb 0.558737(17) 0.58506(2) 0.022044(13)
Nb2 Nb 0.476210(17) 0.56644(2) -0.056430(13)
Nb3 Nb 0.570440(17) 0.45143(2) -0.037620(13)
Cl1 Cl 0.65277(5) 0.54287(6) -0.01799(4)
Cl2 Cl 0.54103(5) 0.67887(6) -0.04020(4)
Cl3 Cl 0.59732(5) 0.52187(6) 0.09178(4)
Cl4 Cl 0.48638(5) 0.65786(6) 0.07006(4)
Cl5 Cl 0.55529(5) 0.52109(7) -0.11014(4)
Cl6 Cl 0.38850(5) 0.63541(6) -0.02204(4)
Mn1 Mn 0.79168(3) 0.37515(4) -0.10760(2)
Mn2 Mn 0.15321(3) 0.57937(4) -0.18287(2)
O1 O 0.79854(15) 0.48218(19) -0.11500(11)
O2 O 0.79289(14) 0.35339(18) -0.17055(10)
O3 O 0.09544(14) 0.59465(18) -0.23029(11)
O4 O 0.12665(16) 0.47969(19) -0.16849(12)
O5 O 0.89696(14) 0.3676(2) -0.10294(10)
O6 O 0.08965(16) 0.62888(19) -0.13121(11)
O7 O 0.2138(2) 0.9087(2) -0.20793(16)
O8 O 0.22362(18) 0.5318(2) -0.23346(13)
H1 H 0.241(3) 0.489(4) -0.228(2)
N1 N 0.79277(18) 0.3844(2) -0.03980(14)
N2 N 0.18884(18) 0.6817(2) -0.19283(13)
N3 N 0.79347(18) 0.2645(2) -0.09218(14)
N4 N 0.22413(19) 0.5718(2) -0.13951(14)
N5 N 0.92546(17) 0.3675(2) -0.14332(13)
N6 N 0.06388(18) 0.5935(2) -0.09596(14)
N7 N 0.1553(2) 0.9110(3) -0.21938(19)
N8 N 0.68900(18) 0.3812(2) -0.10128(14)
N9 N 0.6542(2) 0.7229(2) 0.06227(15)
N10 N 0.4375(2) 0.6626(3) -0.15375(16)
C1 C 0.8211(2) 0.5312(3) -0.08516(18)
C2 C 0.8395(3) 0.6035(3) -0.1005(2)
H2 H 0.83490 0.61630 -0.13200
C3 C 0.8640(3) 0.6565(4) -0.0707(2)
H3 H 0.87550 0.70540 -0.08200
C4 C 0.8724(3) 0.6399(4) -0.0243(2)
H4 H 0.89100 0.67590 -0.00430
C5 C 0.8534(3) 0.5715(4) -0.0088(2)
H5 H 0.85690 0.56070 0.02310
C6 C 0.8285(2) 0.5154(3) -0.03789(17)
C7 C 0.8095(2) 0.4447(3) -0.01740(18)
H6 H 0.80920 0.44190 0.01520
C8 C 0.7693(3) 0.3152(3) -0.01714(18)
H7 H 0.78420 0.31320 0.01500
H8 H 0.72400 0.31630 -0.01660
C9 C 0.7905(3) 0.2469(3) -0.04238(18)
H9 H 0.83160 0.23160 -0.03120
H10 H 0.76190 0.20390 -0.03700
C10 C 0.8072(2) 0.2104(3) -0.12010(18)
H11 H 0.80870 0.15990 -0.10810
C11 C 0.8204(2) 0.2202(3) -0.16834(18)
C12 C 0.8445(3) 0.1571(3) -0.1923(2)
H12 H 0.84920 0.10940 -0.17720
C13 C 0.8615(3) 0.1648(3) -0.2382(2)
H13 H 0.87890 0.12280 -0.25410
C14 C 0.8530(2) 0.2327(3) -0.26005(18)
H14 H 0.86410 0.23720 -0.29150
C15 C 0.8289(2) 0.2949(3) -0.23774(16)
H15 H 0.82300 0.34140 -0.25400
C16 C 0.8130(2) 0.2905(3) -0.19150(17)
C17 C 0.1501(2) 0.4304(3) -0.13867(17)
C18 C 0.1196(3) 0.3613(3) -0.13184(19)
H16 H 0.08250 0.35210 -0.14790
C19 C 0.1415(3) 0.3063(3) -0.10259(19)
H17 H 0.11960 0.25990 -0.09850
C20 C 0.1956(3) 0.3184(3) -0.07907(18)
H18 H 0.21130 0.28010 -0.05920
C21 C 0.2263(3) 0.3856(3) -0.08452(18)
H19 H 0.26350 0.39360 -0.06830
C22 C 0.2043(2) 0.4431(3) -0.11357(16)
C23 C 0.2386(2) 0.5131(3) -0.11602(16)
H20 H 0.27530 0.51590 -0.09850
C24 C 0.2675(2) 0.6367(3) -0.1424(2)
H21 H 0.29960 0.62630 -0.16560
H22 H 0.28760 0.64520 -0.11230
C25 C 0.2305(2) 0.7061(3) -0.15593(18)
H23 H 0.20690 0.72540 -0.12930
H24 H 0.25790 0.74730 -0.16690
C26 C 0.1818(2) 0.7227(3) -0.22912(17)
H25 H 0.20740 0.76630 -0.23240
C27 C 0.1387(2) 0.7081(3) -0.26482(17)
C28 C 0.1359(3) 0.7607(3) -0.30094(19)
H26 H 0.16650 0.79920 -0.30330
C29 C 0.0897(3) 0.7579(3) -0.33312(19)
H27 H 0.08860 0.79350 -0.35770
C30 C 0.0448(3) 0.7020(3) -0.32896(18)
H28 H 0.01170 0.70130 -0.35010
C31 C 0.0474(2) 0.6480(3) -0.29518(16)
H29 H 0.01690 0.60920 -0.29390
C32 C 0.0944(2) 0.6490(3) -0.26218(16)
C33 C 0.9558(2) 0.3046(3) -0.15734(16)
H30 H 0.95690 0.26090 -0.13800
C34 C 0.9851(2) 0.3025(3) -0.19897(16)
H31 H 1.00600 0.25740 -0.20830
C35 C 0.98430(19) 0.3660(3) -0.22756(15)
C36 C 0.9527(2) 0.4299(3) -0.21249(16)
H32 H 0.95100 0.47420 -0.23130
C37 C 0.9235(2) 0.4300(3) -0.17051(16)
H33 H 0.90190 0.47420 -0.16060
C38 C 0.0709(3) 0.6230(3) -0.05386(19)
H34 H 0.09330 0.66910 -0.05000
C39 C 0.0459(2) 0.5874(3) -0.01614(18)
H35 H 0.05160 0.60920 0.01350
C40 C 0.0127(2) 0.5206(3) -0.02054(17)
C41 C 0.0045(3) 0.4941(3) -0.06462(17)
H36 H -0.01940 0.44950 -0.06950
C42 C 0.0298(2) 0.5307(3) -0.10170(18)
H37 H 0.02310 0.51120 -0.13170
C43 C 0.1376(4) 0.9372(4) -0.2601(3)
H38 H 0.16750 0.95710 -0.28060
C44 C 0.0770(4) 0.9364(4) -0.2732(3)
H39 H 0.06580 0.95330 -0.30310
C45 C 0.0324(3) 0.9111(4) -0.2433(2)
C46 C 0.0520(3) 0.8838(4) -0.2008(2)
H40 H 0.02280 0.86530 -0.17930
C47 C 0.1133(3) 0.8835(4) -0.1899(2)
H41 H 0.12620 0.86350 -0.16110
C48 C 0.2149(3) 0.5286(3) -0.28117(18)
H42 H 0.22300 0.47660 -0.29210
H43 H 0.24300 0.56430 -0.29630
H44 H 0.17250 0.54260 -0.28850
C49 C 0.6481(2) 0.4013(3) -0.08060(16)
C50 C 0.6225(2) 0.6772(3) 0.04819(16)
C51 C 0.4510(2) 0.6338(3) -0.11985(17)
Nb1D Nb 0.441263(17) 0.41494(2) -0.022044(13)
Nb2D Nb 0.523790(17) 0.43356(2) 0.056430(13)
Nb3D Nb 0.429560(17) 0.54857(2) 0.037620(13)
Cl1D Cl 0.34723(5) 0.45713(6) 0.01799(4)
Cl2D Cl 0.45897(5) 0.32113(6) 0.04020(4)
Cl3D Cl 0.40268(5) 0.47813(6) -0.09178(4)
Cl4D Cl 0.51362(5) 0.34214(6) -0.07006(4)
Cl5D Cl 0.44471(5) 0.47891(7) 0.11014(4)
Cl6D Cl 0.61150(5) 0.36459(6) 0.02204(4)
Mn1D Mn 0.20832(3) 0.62485(4) 0.10760(2)
Mn1B Mn 1.20832(3) 0.37515(4) -0.39240(2)
Mn2D Mn -0.15321(3) 0.42063(4) 0.18287(2)
O1D O 0.20146(15) 0.51782(19) 0.11500(11)
O2D O 0.20711(14) 0.64661(18) 0.17055(10)
O3D O -0.09544(14) 0.40535(18) 0.23029(11)
O4D O -0.12665(16) 0.52031(19) 0.16849(12)
O5B O 1.10304(14) 0.3676(2) -0.39706(10)
O5D O 0.10304(14) 0.6324(2) 0.10294(10)
O6D O -0.08965(16) 0.37112(19) 0.13121(11)
O7B O -0.2138(2) 0.9087(2) -0.29207(16)
O8D O -0.22362(18) 0.4682(2) 0.23346(13)
H1D H -0.241(3) 0.511(4) 0.228(2)
N1D N 0.20723(18) 0.6156(2) 0.03980(14)
N2D N -0.18884(18) 0.3183(2) 0.19283(13)
N3D N 0.20653(18) 0.7355(2) 0.09218(14)
N4D N -0.22413(19) 0.4282(2) 0.13951(14)
N5B N 1.07454(17) 0.3675(2) -0.35668(13)
N6D N -0.06388(18) 0.4065(2) 0.09596(14)
N7B N -0.1553(2) 0.9110(3) -0.28062(19)
N8D N 0.31100(18) 0.6188(2) 0.10128(14)
N9D N 0.3458(2) 0.2771(2) -0.06227(15)
N10D N 0.5625(2) 0.3374(3) 0.15375(16)
C1D C 0.1789(2) 0.4688(3) 0.08516(18)
C2D C 0.1605(3) 0.3965(3) 0.1005(2)
H2D H 0.16510 0.38370 0.13200
C3D C 0.1360(3) 0.3435(4) 0.0707(2)
H3D H 0.12450 0.29460 0.08200
C4D C 0.1276(3) 0.3601(4) 0.0243(2)
H4D H 0.10900 0.32410 0.00430
C5D C 0.1466(3) 0.4285(4) 0.0088(2)
H5D H 0.14310 0.43930 -0.02310
C6D C 0.1715(2) 0.4846(3) 0.03789(17)
C7D C 0.1905(2) 0.5553(3) 0.01740(18)
H6D H 0.19080 0.55810 -0.01520
C8D C 0.2307(3) 0.6848(3) 0.01714(18)
H7D H 0.21580 0.68680 -0.01500
H8D H 0.27600 0.68370 0.01660
C9D C 0.2095(3) 0.7531(3) 0.04238(18)
H9D H 0.16840 0.76840 0.03120
H10D H 0.23810 0.79610 0.03700
C10D C 0.1928(2) 0.7896(3) 0.12010(18)
H11D H 0.19130 0.84010 0.10810
C11D C 0.1796(2) 0.7798(3) 0.16834(18)
C12D C 0.1555(3) 0.8429(3) 0.1923(2)
H12D H 0.15080 0.89060 0.17720
C13D C 0.1385(3) 0.8352(3) 0.2382(2)
H13D H 0.12110 0.87720 0.25410
C14D C 0.1470(2) 0.7673(3) 0.26005(18)
H14D H 0.13590 0.76280 0.29150
C15D C 0.1711(2) 0.7051(3) 0.23774(16)
H15D H 0.17700 0.65860 0.25400
C16D C 0.1870(2) 0.7095(3) 0.19150(17)
C17D C -0.1501(2) 0.5696(3) 0.13867(17)
C18D C -0.1196(3) 0.6387(3) 0.13184(19)
H16D H -0.08250 0.64790 0.14790
C19D C -0.1415(3) 0.6937(3) 0.10259(19)
H17D H -0.11960 0.74010 0.09850
C20D C -0.1956(3) 0.6816(3) 0.07907(18)
H18D H -0.21130 0.71990 0.05920
C21D C -0.2263(3) 0.6144(3) 0.08452(18)
H19D H -0.26350 0.60640 0.06830
C22D C -0.2043(2) 0.5569(3) 0.11357(16)
C23D C -0.2386(2) 0.4869(3) 0.11602(16)
H20D H -0.27530 0.48410 0.09850
C24D C -0.2675(2) 0.3633(3) 0.1424(2)
H21D H -0.29960 0.37370 0.16560
H22D H -0.28760 0.35480 0.11230
C25D C -0.2305(2) 0.2939(3) 0.15593(18)
H23D H -0.20690 0.27460 0.12930
H24D H -0.25790 0.25270 0.16690
C26D C -0.1818(2) 0.2773(3) 0.22912(17)
H25D H -0.20740 0.23370 0.23240
C27D C -0.1387(2) 0.2919(3) 0.26482(17)
C28D C -0.1359(3) 0.2393(3) 0.30094(19)
H26D H -0.16650 0.20080 0.30330
C29D C -0.0897(3) 0.2421(3) 0.33312(19)
H27D H -0.08860 0.20650 0.35770
C30D C -0.0448(3) 0.2980(3) 0.32896(18)
H28D H -0.01170 0.29870 0.35010
C31D C -0.0474(2) 0.3520(3) 0.29518(16)
H29D H -0.01690 0.39080 0.29390
C32D C -0.0944(2) 0.3510(3) 0.26218(16)
C33B C 1.0442(2) 0.3046(3) -0.34266(16)
H30B H 1.04310 0.26090 -0.36200
C34B C 1.0149(2) 0.3025(3) -0.30103(16)
H31B H 0.99400 0.25740 -0.29170
C35B C 1.01570(19) 0.3660(3) -0.27244(15)
C36B C 1.0473(2) 0.4299(3) -0.28751(16)
H32B H 1.04900 0.47420 -0.26870
C37B C 1.0765(2) 0.4300(3) -0.32949(16)
H33B H 1.09810 0.47420 -0.33940
C38D C -0.0709(3) 0.3770(3) 0.05386(19)
H34D H -0.09330 0.33090 0.05000
C39D C -0.0459(2) 0.4126(3) 0.01614(18)
H35D H -0.05160 0.39080 -0.01350
C40D C -0.0127(2) 0.4794(3) 0.02054(17)
C41D C -0.0045(3) 0.5059(3) 0.06462(17)
H36D H 0.01940 0.55050 0.06950
C42D C -0.0298(2) 0.4693(3) 0.10170(18)
H37D H -0.02310 0.48880 0.13170
C43B C -0.1376(4) 0.9372(4) -0.2399(3)
H38B H -0.16750 0.95710 -0.21940
C44B C -0.0770(4) 0.9364(4) -0.2268(3)
H39B H -0.06580 0.95330 -0.19690
C45B C -0.0324(3) 0.9111(4) -0.2567(2)
C46B C -0.0520(3) 0.8838(4) -0.2992(2)
H40B H -0.02280 0.86530 -0.32070
C47B C -0.1133(3) 0.8835(4) -0.3101(2)
H41B H -0.12620 0.86350 -0.33890
C48D C -0.2149(3) 0.4714(3) 0.28117(18)
H42D H -0.22300 0.52340 0.29210
H43D H -0.24300 0.43570 0.29630
H44D H -0.17250 0.45740 0.28850
C49D C 0.3519(2) 0.5987(3) 0.08060(16)
C50D C 0.3775(2) 0.3228(3) -0.04819(16)
C51D C 0.5490(2) 0.3662(3) 0.11985(17)
#END
