
#######################################################################
#
#                 Cambridge Crystallographic Data Centre
#                                CCDC
#
#######################################################################
#
# If this CIF has been generated from an entry in the Cambridge
# Structural Database, then it will include bibliographic, chemical,
# crystal, experimental, refinement or atomic coordinate data resulting
# from the CCDC's data processing and validation procedures.
#
#######################################################################

data_CSD_CIF_TIWSIC
_audit_creation_date 2008-07-28
_audit_creation_method CSD-ConQuest-V1
_database_code_CSD TIWSIC
_database_code_depnum_ccdc_archive 'CCDC 637535'
_chemical_formula_sum 'C48 H38 Cu4 K2 Mo14 N8 O50'
_chemical_formula_moiety
;
(K1 1+)2n,2n(H3 O1 1+),n(C48 H32 Cu4 Mo14 N8 O48 4-)
;
_journal_coden_Cambridge 1295
_journal_volume 11
_journal_year 2008
_journal_page_first 334
_journal_name_full 'Inorg.Chem.Commun. '
loop_
_publ_author_name
"Zhan-Hua Su"
"Bai-Bin Zhou"
"Zhi-Feng Zhao"
"Xu Zhang"
_chemical_name_systematic
;
catena-(Dipotassium dioxonium 
bis(\m~5~-oxo)-decakis(\m~3~-oxo)-hexadecakis(\m~2~-oxo)-tetrakis(1,10-phenant
hroline)-icosaoxo-tetra-copper-tetradeca-molybdenum)
;
_cell_volume   1852.062
_exptl_crystal_colour 'green'
_exptl_crystal_density_diffrn 2.871
_exptl_special_details
;
weakly ferromagnetic

;
_exptl_crystal_description 'block'
_diffrn_ambient_temperature 273
#These two values have been output from a single CSD field.
_refine_ls_R_factor_gt 0.0252
_refine_ls_wR_factor_gt 0.0252
_symmetry_cell_setting triclinic
_symmetry_space_group_name_H-M 'P -1'
_symmetry_Int_Tables_number 2
loop_
_symmetry_equiv_pos_site_id
_symmetry_equiv_pos_as_xyz
1 x,y,z
2 -x,-y,-z
_cell_length_a 10.7825(6)
_cell_length_b 13.4970(7)
_cell_length_c 14.2316(7)
_cell_angle_alpha 83.835(1)
_cell_angle_beta 70.859(1)
_cell_angle_gamma 71.183(1)
_cell_formula_units_Z 1
loop_
_atom_type_symbol
_atom_type_radius_bond
C 0.68
H 0.23
Cu 1.32
K 1.33
Mo 1.34
N 0.68
O 0.72
loop_
_atom_site_label
_atom_site_type_symbol
_atom_site_fract_x
_atom_site_fract_y
_atom_site_fract_z
Cu1 Cu -0.34904(5) -0.27495(3) 0.10441(3)
Cu2 Cu -0.74317(5) -0.09949(4) 0.25074(3)
Mo1 Mo -0.67583(3) -0.43593(2) 0.56323(2)
Mo2 Mo -0.71787(3) -0.57634(2) 0.39352(2)
Mo3 Mo -0.52647(3) -0.70636(2) 0.52800(2)
Mo4 Mo -0.48235(3) -0.56951(2) 0.69431(2)
Mo5 Mo -0.36079(3) -0.10199(2) -0.07557(2)
Mo6 Mo -0.65743(3) -0.14124(2) 0.02672(2)
Mo7 Mo -0.26374(3) -0.05484(2) 0.12066(2)
C1 C -0.3587(5) -0.4096(3) -0.0476(3)
C2 C -0.2107(4) -0.4841(3) 0.0444(2)
C3 C -0.1536(4) -0.4687(3) 0.1174(3)
C4 C -0.1486(4) -0.3545(3) 0.2245(3)
C5 C -0.0521(4) -0.4336(3) 0.2577(3)
C6 C -0.0573(4) -0.5530(3) 0.1470(3)
C7 C -0.1705(4) -0.5826(3) 0.0019(3)
C8 C -0.2312(4) -0.5920(3) -0.0691(3)
C9 C -0.0703(4) -0.6669(3) 0.0324(3)
C10 C -0.3250(5) -0.5056(3) -0.0930(3)
C11 C -0.0185(4) -0.6523(3) 0.1023(3)
C12 C -0.0063(4) -0.5325(3) 0.2195(3)
C13 C -0.7885(4) -0.0562(3) 0.4484(3)
C14 C -0.8626(4) -0.1282(3) 0.4527(3)
C15 C -0.0816(4) 0.2322(3) -0.3650(3)
C16 C -0.0020(5) 0.2662(4) -0.4538(4)
C17 C 0.0087(5) 0.2300(3) -0.5429(3)
C18 C -0.0604(4) 0.1585(3) -0.5448(3)
C19 C -0.6430(4) 0.0328(3) 0.3482(3)
C20 C -0.6344(5) 0.0731(4) 0.4313(4)
C21 C -0.7068(5) 0.0486(4) 0.5246(4)
C22 C -0.7888(4) -0.0173(3) 0.5357(3)
C23 C -0.1303(5) 0.0491(4) -0.6288(3)
C24 C -0.0588(5) 0.1151(4) -0.6334(3)
H1 H -0.017(5) -0.419(4) 0.299(4)
H2 H 0.060(5) -0.589(4) 0.240(4)
H3 H 0.038(5) -0.710(4) 0.117(4)
H4 H -0.047(5) -0.731(4) 0.010(4)
H5 H -0.206(5) -0.657(4) -0.100(3)
H6 H -0.371(6) -0.510(4) -0.135(4)
H7 H -0.425(5) -0.359(4) -0.062(4)
H8 H 0.035(5) 0.308(4) -0.449(4)
H9 H 0.065(5) 0.252(4) -0.611(4)
H10 H -0.013(5) 0.134(4) -0.687(4)
H11 H -0.127(6) 0.025(4) -0.674(4)
H12 H -0.292(6) -0.077(5) -0.583(4)
H13 H -0.424(5) -0.120(4) -0.414(4)
H14 H -0.593(5) 0.048(4) 0.288(4)
H15 H -0.087(4) 0.256(3) -0.302(3)
H16 H -0.180(4) -0.288(3) 0.244(3)
N1 N -0.3043(3) -0.3991(2) 0.0209(2)
N2 N -0.1987(3) -0.3710(2) 0.1560(2)
N3 N -0.8530(3) -0.1642(2) 0.3643(2)
N4 N -0.7174(3) -0.0307(2) 0.3556(2)
O1 O -0.6290(2) -0.56673(19) 0.63588(17)
O2 O -0.3774(2) -0.65896(19) 0.54613(17)
O3 O -0.6982(3) -0.6689(2) 0.50534(19)
O4 O -0.3089(3) -0.5528(2) 0.67215(18)
O5 O -0.4725(3) -0.6849(2) 0.76010(19)
O6 O -0.4728(3) -0.18535(19) 0.03245(18)
O7 O -0.2388(3) -0.14629(19) -0.00717(18)
O8 O -0.6980(3) 0.1900(2) 0.1678(2)
O9 O -0.6840(3) -0.0113(2) 0.14042(18)
O10 O -0.4394(3) 0.03302(19) 0.05849(18)
O11 O -0.3351(3) 0.0279(2) 0.2197(2)
O12 O -0.2004(3) 0.0364(2) 0.01315(19)
O13 O -0.3595(3) 0.2367(2) 0.0493(2)
O14 O -0.7483(3) -0.1787(2) 0.14649(19)
O15 O -0.6249(3) 0.15306(19) -0.18038(18)
O16 O -0.7701(3) -0.3498(2) 0.65760(19)
O17 O -0.7967(3) -0.4636(2) 0.52254(18)
O18 O -0.5838(3) -0.4739(2) 0.77962(19)
O19 O -0.5492(3) -0.7926(2) 0.6247(2)
O20 O -0.4741(2) -0.44624(19) 0.56481(17)
O21 O -0.1086(3) -0.1268(2) 0.1323(2)
O22 O -0.6096(3) -0.6612(2) 0.3004(2)
O23 O -0.8785(3) -0.5663(2) 0.3941(2)
O24 O -0.4240(3) -0.7831(2) 0.42727(19)
K1 K -0.68631(16) -0.24480(12) 0.77394(10)
O25 O -0.9579(4) -0.0969(3) 0.8689(3)
Cu1A Cu -0.65096(5) -0.72505(3) 0.89559(3)
Cu1A* Cu -0.65096(5) 0.27495(3) -0.10441(3)
Cu2A Cu -0.25683(5) 0.09949(4) -0.25074(3)
Mo1A Mo -0.32417(3) -0.56407(2) 0.43677(2)
Mo2A Mo -0.28213(3) -0.42366(2) 0.60648(2)
Mo3A Mo -0.47353(3) -0.29364(2) 0.47200(2)
Mo4A Mo -0.51765(3) -0.43049(2) 0.30569(2)
Mo5A Mo -0.63921(3) 0.10199(2) 0.07557(2)
Mo6A Mo -0.34257(3) 0.14124(2) -0.02672(2)
Mo7A Mo -0.73626(3) 0.05484(2) -0.12066(2)
C1A C -0.6413(5) 0.4096(3) 0.0476(3)
C2A C -0.7893(4) 0.4841(3) -0.0444(2)
C3A C -0.8464(4) 0.4687(3) -0.1174(3)
C4A C -0.8514(4) 0.3545(3) -0.2245(3)
C5A C -0.9479(4) 0.4336(3) -0.2577(3)
C6A C -0.9427(4) 0.5530(3) -0.1470(3)
C7A C -0.8295(4) 0.5826(3) -0.0019(3)
C8A C -0.7688(4) 0.5920(3) 0.0691(3)
C9A C -0.9297(4) 0.6669(3) -0.0324(3)
C10A C -0.6750(5) 0.5056(3) 0.0930(3)
C11A C -0.9815(4) 0.6523(3) -0.1023(3)
C12A C -0.9937(4) 0.5325(3) -0.2195(3)
C13A C -0.2115(4) 0.0562(3) -0.4484(3)
C14A C -0.1374(4) 0.1282(3) -0.4527(3)
C15A C -0.9184(4) -0.2322(3) 0.3650(3)
C16A C -0.9980(5) -0.2662(4) 0.4538(4)
C17A C -1.0087(5) -0.2300(3) 0.5429(3)
C18A C -0.9396(4) -0.1585(3) 0.5448(3)
C19A C -0.3570(4) -0.0328(3) -0.3482(3)
C20A C -0.3656(5) -0.0731(4) -0.4313(4)
C21A C -0.2932(5) -0.0486(4) -0.5246(4)
C22A C -0.2112(4) 0.0173(3) -0.5357(3)
C23A C -0.8697(5) -0.0491(4) 0.6288(3)
C24A C -0.9412(5) -0.1151(4) 0.6334(3)
H1A H -0.983(5) 0.419(4) -0.299(4)
H2A H -1.060(5) 0.589(4) -0.240(4)
H3A H -1.038(5) 0.710(4) -0.117(4)
H4A H -0.953(5) 0.731(4) -0.010(4)
H5A H -0.794(5) 0.657(4) 0.100(3)
H6A H -0.629(6) 0.510(4) 0.135(4)
H7A H -0.575(5) 0.359(4) 0.062(4)
H8A H -1.035(5) -0.308(4) 0.449(4)
H9A H -1.065(5) -0.252(4) 0.611(4)
H10A H -0.987(5) -0.134(4) 0.687(4)
H11A H -0.873(6) -0.025(4) 0.674(4)
H12A H -0.708(6) 0.077(5) 0.583(4)
H13A H -0.576(5) 0.120(4) 0.414(4)
H14A H -0.407(5) -0.048(4) -0.288(4)
H15A H -0.913(4) -0.256(3) 0.302(3)
H16A H -0.820(4) 0.288(3) -0.244(3)
N1A N -0.6957(3) 0.3991(2) -0.0209(2)
N2A N -0.8013(3) 0.3710(2) -0.1560(2)
N3A N -0.1470(3) 0.1642(2) -0.3643(2)
N4A N -0.2826(3) 0.0307(2) -0.3556(2)
O1A O -0.3710(2) -0.43327(19) 0.36412(17)
O2A O -0.6226(2) -0.34104(19) 0.45387(17)
O3A O -0.3018(3) -0.3311(2) 0.49466(19)
O4A O -0.6911(3) -0.4472(2) 0.32785(18)
O5A O -0.5275(3) -0.3151(2) 0.23990(19)
O5* O -0.4725(3) 0.3151(2) -0.23990(19)
O6A O -0.5272(3) 0.18535(19) -0.03245(18)
O7A O -0.7612(3) 0.14629(19) 0.00717(18)
O8A O -0.3020(3) -0.1900(2) -0.1678(2)
O9A O -0.3160(3) 0.0113(2) -0.14042(18)
O10A O -0.5606(3) -0.03302(19) -0.05849(18)
O11A O -0.6649(3) -0.0279(2) -0.2197(2)
O12A O -0.7996(3) -0.0364(2) -0.01315(19)
O13A O -0.6405(3) -0.2367(2) -0.0493(2)
O14A O -0.2517(3) 0.1787(2) -0.14649(19)
O15A O -0.3751(3) -0.15306(19) 0.18038(18)
O16A O -0.2299(3) -0.6502(2) 0.34240(19)
O17A O -0.2033(3) -0.5364(2) 0.47746(18)
O18A O -0.4162(3) -0.5261(2) 0.22038(19)
O19A O -0.4508(3) -0.2074(2) 0.3753(2)
O20A O -0.5259(2) -0.55376(19) 0.43519(17)
O21A O -0.8914(3) 0.1268(2) -0.1323(2)
O22A O -0.3904(3) -0.3388(2) 0.6996(2)
O23A O -0.1215(3) -0.4337(2) 0.6059(2)
O24A O -0.5760(3) -0.2169(2) 0.57273(19)
#END
