
#######################################################################
#
#                 Cambridge Crystallographic Data Centre
#                                CCDC
#
#######################################################################
#
# If this CIF has been generated from an entry in the Cambridge
# Structural Database, then it will include bibliographic, chemical,
# crystal, experimental, refinement or atomic coordinate data resulting
# from the CCDC's data processing and validation procedures.
#
#######################################################################

data_CSD_CIF_TIXCUB
_audit_creation_date 2019-02-11
_audit_creation_method CSD-ConQuest-V1
_database_code_CSD TIXCUB
_database_code_depnum_ccdc_archive 'CCDC 1873905'
_chemical_formula_sum 'C30.5 H26.5 Cl1 In1 N1.5 O6.5'
_chemical_formula_moiety
;
(C27 H15 Cl1 In1 O6 1-)n,n(C2 H8 N1 1+),0.5n(C3 H7 N1 O1)
;
_journal_coden_Cambridge 222
_journal_volume 48
_journal_year 2019
_journal_page_first 2988
_journal_name_full 'Dalton Trans. '
loop_
_publ_author_name
"D.Reinares-Fisac"
"Lina M Aguirre-Diaz"
"M.Iglesias"
"E.Gutierrez-Puebla"
"F.Gandara"
"M.Angeles Monge"
_chemical_name_systematic
;
catena-(dimethylammonium 
(\m-1,3,5-tris(4-carboxylatophenyl)benzene)-chloro-indium dimethylformamide 
solvate)
;
_chemical_name_common
;
InPF-51
;
_cell_volume   5863.933
_exptl_crystal_colour 'colorless'
_exptl_crystal_density_diffrn 1.505
_exptl_special_details
;
Solvothermal synthesis

;
_exptl_crystal_description 'prism'
_diffrn_ambient_temperature 150
_refine_special_details
;
C022,C024,C025 disordered over three configurations with occupancy 0.6667.

;
#These two values have been output from a single CSD field.
_refine_ls_R_factor_gt 0.0671
_refine_ls_wR_factor_gt 0.0671
_symmetry_cell_setting monoclinic
_symmetry_space_group_name_H-M 'P 21/n'
_symmetry_Int_Tables_number 14
loop_
_symmetry_equiv_pos_site_id
_symmetry_equiv_pos_as_xyz
1 x,y,z
2 1/2-x,1/2+y,1/2-z
3 -x,-y,-z
4 -1/2+x,-1/2-y,-1/2+z
_cell_length_a 17.3589(6)
_cell_length_b 13.0410(6)
_cell_length_c 25.9082(9)
_cell_angle_alpha 90
_cell_angle_beta 91.109(2)
_cell_angle_gamma 90
_cell_formula_units_Z 8
loop_
_atom_type_symbol
_atom_type_radius_bond
C 0.68
H 0.23
Cl 0.99
In 1.42
N 0.68
O 0.68
loop_
_atom_site_label
_atom_site_type_symbol
_atom_site_fract_x
_atom_site_fract_y
_atom_site_fract_z
In1 In 1.24842(2) 0.53380(4) 0.03748(2)
Cl1 Cl 1.24279(16) 0.3573(2) 0.06215(14)
O1 O 0.7449(2) 0.9790(4) 0.45307(17)
O2 O 0.3841(3) 0.5202(4) 0.03028(19)
O3 O 0.3298(2) 0.6055(5) 0.09227(17)
O4 O 1.1182(3) 0.5594(4) 0.02327(18)
O5 O 0.7683(3) 0.8271(4) 0.48470(17)
O6 O 1.1733(3) 0.5997(6) 0.09560(19)
C1 C 0.9002(3) 0.6258(5) 0.0861(2)
H1 H 0.85440 0.61290 0.06800
C2 C 0.7561(4) 0.8430(5) 0.3931(2)
C3 C 0.6824(3) 0.6904(5) 0.1597(2)
C4 C 0.8231(3) 0.6826(5) 0.1626(2)
C5 C 0.8214(3) 0.7089(5) 0.2142(2)
H2 H 0.86730 0.71050 0.23330
C6 C 0.7533(3) 0.7696(6) 0.2925(2)
C7 C 0.4657(3) 0.6097(6) 0.0907(2)
C8 C 1.0380(3) 0.6249(6) 0.0895(2)
C9 C 0.6080(4) 0.6687(6) 0.1329(3)
C10 C 0.7525(4) 0.6732(5) 0.1358(2)
H3 H 0.75240 0.65490 0.10110
C11 C 0.7563(3) 0.8851(5) 0.4462(2)
C12 C 0.6042(4) 0.5982(5) 0.0929(3)
H4 H 0.64930 0.57040 0.08010
C13 C 0.8972(3) 0.6655(5) 0.1361(2)
C14 C 0.9692(4) 0.6053(5) 0.0629(2)
H5 H 0.96970 0.57850 0.02960
C15 C 0.7531(4) 0.7331(5) 0.2382(3)
C16 C 0.6839(4) 0.7246(5) 0.2111(3)
H6 H 0.63810 0.74170 0.22700
C17 C 0.3901(4) 0.5753(6) 0.0699(2)
C18 C 0.7213(4) 0.9001(6) 0.3537(2)
H7 H 0.70010 0.96380 0.36100
C19 C 0.7182(4) 0.8631(6) 0.3040(3)
H8 H 0.69290 0.90020 0.27810
C20 C 0.7882(4) 0.7485(6) 0.3822(3)
H9 H 0.80960 0.70900 0.40870
C21 C 0.7886(4) 0.7128(6) 0.3318(3)
H10 H 0.81250 0.65090 0.32430
C22 C 0.5335(4) 0.5689(6) 0.0719(3)
H11 H 0.53150 0.52150 0.04510
C23 C 0.4693(4) 0.6822(6) 0.1297(3)
H12 H 0.42410 0.71030 0.14230
C24 C 0.9665(4) 0.6923(7) 0.1602(3)
H13 H 0.96610 0.72440 0.19220
C25 C 0.5404(4) 0.7132(6) 0.1501(3)
H14 H 0.54260 0.76390 0.17530
C26 C 1.0357(4) 0.6718(7) 0.1373(3)
H15 H 1.08150 0.68980 0.15420
C27 C 1.1129(4) 0.5929(6) 0.0678(3)
In2 In -0.02048(3) 0.49322(4) 0.67978(2)
Cl2 Cl -0.00602(13) 0.30826(17) 0.67875(9)
O7 O 0.0946(3) 0.5354(5) 0.6617(2)
O8 O 0.9046(3) 0.5623(5) 0.6195(2)
O9 O 0.8468(3) 0.4742(5) 0.6770(3)
O10 O 0.4508(3) 0.8662(5) 0.2269(2)
O11 O 0.5039(4) 0.9974(5) 0.2634(2)
O12 O 0.0599(3) 0.4670(5) 0.5865(2)
C28 C 0.4086(4) 0.6164(5) 0.5336(3)
C29 C 0.3334(4) 0.5859(5) 0.5568(3)
C30 C 0.5487(4) 0.6276(5) 0.5385(3)
C31 C 0.4779(4) 0.6982(6) 0.4649(3)
C32 C 0.5463(4) 0.6778(6) 0.4905(3)
H16 H 0.59220 0.69780 0.47570
C33 C 0.6233(4) 0.6071(6) 0.5662(3)
C34 C 0.4770(4) 0.7538(6) 0.4144(3)
C35 C 0.4089(4) 0.6666(5) 0.4864(3)
H17 H 0.36260 0.67930 0.46890
C36 C 0.7666(4) 0.5606(6) 0.6146(3)
C37 C 0.4788(4) 0.5983(5) 0.5594(3)
H18 H 0.47870 0.56590 0.59140
C38 C 0.1877(4) 0.5346(6) 0.5971(3)
C39 C 0.4764(4) 0.8556(6) 0.3185(3)
C40 C 0.3200(4) 0.5864(6) 0.6094(3)
H19 H 0.36030 0.60270 0.63220
C41 C 0.2721(5) 0.5514(6) 0.5241(3)
H20 H 0.27990 0.54680 0.48870
C42 C 0.2485(5) 0.5635(6) 0.6289(3)
H21 H 0.24120 0.56760 0.66430
C43 C 0.8427(4) 0.5317(6) 0.6380(3)
C44 C 0.4769(4) 0.9073(6) 0.2677(3)
C45 C 0.1083(5) 0.5110(6) 0.6158(3)
C46 C 0.6901(5) 0.6602(7) 0.5538(3)
H22 H 0.68740 0.71280 0.52960
C47 C 0.5218(4) 0.8909(6) 0.3586(3)
H23 H 0.55190 0.94910 0.35430
C48 C 0.7602(5) 0.6364(7) 0.5767(3)
H24 H 0.80410 0.67150 0.56670
C49 C 0.5228(4) 0.8398(6) 0.4055(3)
H25 H 0.55510 0.86360 0.43190
C50 C 0.6997(5) 0.5146(8) 0.6297(4)
H26 H 0.70140 0.46650 0.65620
C51 C 0.2012(5) 0.5247(7) 0.5434(3)
H27 H 0.16250 0.50040 0.52130
C52 C 0.6295(5) 0.5385(8) 0.6061(3)
H28 H 0.58520 0.50680 0.61780
C53 C 0.4250(5) 0.7271(8) 0.3736(3)
H29 H 0.38880 0.67580 0.37910
C54 C 0.4265(6) 0.7754(7) 0.3259(3)
H30 H 0.39400 0.75370 0.29910
N1 N -0.0110(5) 0.3018(6) 0.5412(3)
H31 H 0.01780 0.34730 0.56470
C55 C 0.0138(8) 0.1944(9) 0.5519(4)
H32 H -0.01910 0.14780 0.53310
H33 H 0.01050 0.18090 0.58820
H34 H 0.06600 0.18540 0.54120
C56 C 0.0035(8) 0.3348(10) 0.4876(4)
H35 H 0.05750 0.32820 0.48070
H36 H -0.01180 0.40510 0.48330
H37 H -0.02560 0.29250 0.46400
N2 N 0.5338(9) 0.4945(10) 0.2444(6)
O13 O 0.4084(7) 0.5371(11) 0.2471(5)
C57 C 0.5972(10) 0.4479(12) 0.2249(8)
H38 H 0.61110 0.39020 0.24620
H39 H 0.63930 0.49570 0.22460
H40 H 0.58610 0.42490 0.19040
C58 C 0.4645(13) 0.4922(15) 0.2284(8)
H41 H 0.45430 0.45240 0.19930
C59 C 0.5523(11) 0.5641(17) 0.2923(8)
H42 H 0.58260 0.52610 0.31710
H43 H 0.50500 0.58540 0.30770
H44 H 0.58050 0.62330 0.28150
N3 N 0.2725(8) 0.5778(13) 0.1949(4)
H45 H 0.28110 0.57880 0.16120
H46 H 0.31560 0.55650 0.21070
C60 C 0.2124(11) 0.5047(18) 0.2047(7)
H47 H 0.22700 0.43880 0.19160
H48 H 0.16550 0.52660 0.18770
H49 H 0.20450 0.49990 0.24110
C61 C 0.2554(11) 0.6880(19) 0.2127(8)
H50 H 0.21590 0.71720 0.19080
H51 H 0.30140 0.72860 0.21070
H52 H 0.23830 0.68680 0.24770
C62? C -0.0938(7) 0.3128(13) 0.5518(5)
H53? H -0.12320 0.27150 0.52790
H54? H -0.10860 0.38340 0.54790
H55? H -0.10350 0.29090 0.58640
In1* In 0.24842(2) 0.53380(4) 0.03748(2)
In1C In 0.74842(2) 0.96620(4) 0.53748(2)
O1C O 1.2449(2) 0.5210(4) -0.04693(17)
O2* O 1.3841(3) 0.5202(4) 0.03028(19)
O3* O 1.3298(2) 0.6055(5) 0.09227(17)
O5C O 1.2683(3) 0.6729(4) -0.01530(17)
In2* In 0.97952(3) 0.49322(4) 0.67978(2)
In2C In 0.47952(3) 1.00678(4) 0.17978(2)
O8* O -0.0954(3) 0.5623(5) 0.6195(2)
O9* O -0.1532(3) 0.4742(5) 0.6770(3)
O10C O -0.0492(3) 0.6338(5) 0.7269(2)
O11C O 0.0039(4) 0.5026(5) 0.7634(2)
#END
