
#######################################################################
#
#                 Cambridge Crystallographic Data Centre
#                                CCDC
#
#######################################################################
#
# If this CIF has been generated from an entry in the Cambridge
# Structural Database, then it will include bibliographic, chemical,
# crystal, experimental, refinement or atomic coordinate data resulting
# from the CCDC's data processing and validation procedures.
#
#######################################################################

data_CSD_CIF_TIXXUV01
_audit_creation_date 2014-02-18
_audit_creation_method CSD-ConQuest-V1
_database_code_CSD TIXXUV01
_database_code_depnum_ccdc_archive 'CCDC 929205'
_chemical_formula_sum 'C54 H50 Cl6 Cr4 Fe2 N8 O28'
_chemical_formula_moiety
;
(C20 H24 Fe1 N4 O2 1+)2n,n(C12 Cr4 O24 2-),2n(C1 H1 Cl3)
;
_journal_coden_Cambridge 4
_journal_volume 135
_journal_year 2013
_journal_page_first 8655
_journal_name_full 'J.Am.Chem.Soc. '
loop_
_publ_author_name
"M.Clemente-Leon"
"E.Coronado"
"M.Lopez-Jorda"
"J.C.Waerenborgh"
"C.Desplanches"
"Hongfeng Wang"
"J.-F.Letard"
"A.Hauser"
"A.Tissot"
_chemical_name_systematic
;
catena-(bis((2,2'-(2,5,8,11-Tetra-azadodeca-1,11-diene-1,12-diyl)diphenolato)-
iron) hexakis(\m~2~-oxalato)-tetra-chromium chloroform solvate)
;
_cell_volume   3321.545
_exptl_crystal_colour 'black'
_exptl_crystal_density_diffrn 1.797
_exptl_crystal_description 'prism'
_diffrn_ambient_temperature 120
_refine_special_details
;
The atomic sites represented as Cr are each mixed Cr/Mn sites with equal 
occupancies.
;
#These two values have been output from a single CSD field.
_refine_ls_R_factor_gt 0.0481
_refine_ls_wR_factor_gt 0.0481
_symmetry_cell_setting monoclinic
_symmetry_space_group_name_H-M 'P 21/c'
_symmetry_Int_Tables_number 14
loop_
_symmetry_equiv_pos_site_id
_symmetry_equiv_pos_as_xyz
1 x,y,z
2 -x,1/2+y,1/2-z
3 -x,-y,-z
4 x,-1/2-y,-1/2+z
_cell_length_a 11.7374(14)
_cell_length_b 31.670(3)
_cell_length_c 9.5800(9)
_cell_angle_alpha 90
_cell_angle_beta 111.136(12)
_cell_angle_gamma 90
_cell_formula_units_Z 2
loop_
_atom_type_symbol
_atom_type_radius_bond
C 0.68
H 0.23
Cl 0.99
Cr 1.39
Fe 1.52
Mn 1.61
N 0.68
O 0.68
loop_
_atom_site_label
_atom_site_type_symbol
_atom_site_fract_x
_atom_site_fract_y
_atom_site_fract_z
C1 C 0.9155(5) 0.05963(17) 1.1111(6)
C2 C 0.8715(5) 0.03703(15) 1.2066(5)
H1 H 0.79250 0.04310 1.20760
C3 C 0.9423(5) 0.00559(16) 1.3008(5)
H2 H 0.91050 -0.01010 1.36290
C4 C 1.0592(5) -0.00266(16) 1.3035(5)
H3 H 1.10930 -0.02280 1.37160
C5 C 1.1024(5) 0.01865(15) 1.2061(5)
H4 H 1.18130 0.01230 1.20570
C6 C 1.0313(5) 0.04944(15) 1.1084(5)
C7 C 1.0799(5) 0.06843(16) 1.0062(5)
H5 H 1.15630 0.05840 1.00650
C8 C 1.0841(5) 0.11374(15) 0.8126(5)
H6 H 1.05380 0.09780 0.71750
H7 H 1.17370 0.11010 0.85800
C9 C 1.0529(5) 0.16006(15) 0.7835(5)
H8 H 1.10570 0.17700 0.86910
H9 H 1.06810 0.16920 0.69290
C10 C 0.8307(5) 0.16039(17) 0.6109(6)
H10 H 0.76200 0.18030 0.59390
H11 H 0.86810 0.16630 0.53540
C11 C 0.7843(5) 0.11764(16) 0.5916(5)
H12 H 0.84450 0.09860 0.57360
H13 H 0.70760 0.11630 0.50310
C12 C 0.6388(5) 0.10996(17) 0.7335(6)
H14 H 0.62370 0.08860 0.80040
H15 H 0.57600 0.10630 0.63240
C13 C 0.6289(5) 0.15282(17) 0.7898(5)
H16 H 0.61670 0.17400 0.70970
H17 H 0.55880 0.15430 0.82390
C14 C 0.7407(5) 0.18299(15) 1.0251(5)
H18 H 0.66250 0.19190 1.02190
C15 C 0.8423(5) 0.19546(14) 1.1514(5)
C16 C 0.8231(5) 0.21993(14) 1.2633(5)
H19 H 0.74200 0.22570 1.25730
C17 C 0.9211(5) 0.23586(15) 1.3831(5)
H20 H 0.90740 0.25190 1.45930
C18 C 1.0382(5) 0.22798(15) 1.3892(5)
H21 H 1.10540 0.23900 1.47010
C19 C 1.0602(5) 0.20423(15) 1.2796(5)
H22 H 1.14180 0.20010 1.28480
C20 C 0.9639(5) 0.18638(15) 1.1619(5)
N1 N 1.0268(4) 0.09823(12) 0.9137(4)
N2 N 0.9225(4) 0.16731(13) 0.7621(4)
H23 H 0.91510 0.19520 0.78830
N3 N 0.7605(4) 0.10321(12) 0.7268(4)
H24 H 0.77450 0.07430 0.73450
N4 N 0.7438(4) 0.16100(13) 0.9153(4)
O1 O 0.8434(3) 0.08960(11) 1.0274(3)
O2 O 0.9920(3) 0.16234(10) 1.0664(3)
Fe1 Fe 0.88462(7) 0.12966(2) 0.91206(8)
C21 C 0.4808(4) 0.26214(14) 0.9936(5)
C22 C 0.3625(5) 0.23924(15) 0.9001(6)
C23 C 0.5106(4) 0.12691(16) 1.1962(5)
C24 C 0.3925(5) 0.12276(16) 1.2314(5)
C25 C 0.5629(4) -0.00912(15) 1.0485(5)
C26 C 0.4443(4) -0.01362(15) 1.4578(5)
O3 O 0.5271(3) 0.2865(1) 0.9258(3)
O4 O 0.3209(3) 0.24712(9) 0.7629(3)
O5 O 0.5222(3) 0.25506(9) 1.1320(3)
O6 O 0.3191(3) 0.21436(9) 0.9703(3)
O7 O 0.5369(3) 0.16314(10) 1.1672(3)
O8 O 0.3357(3) 0.15578(10) 1.2344(3)
O9 O 0.5672(3) 0.09343(10) 1.1968(3)
O10 O 0.3649(3) 0.0861(1) 1.2603(3)
O11 O 0.6001(3) -0.00030(9) 1.1861(3)
O12 O 0.6173(3) -0.03096(9) 0.9837(3)
O13 O 0.4000(3) -0.00844(9) 1.3185(3)
O14 O 0.4091(3) -0.03974(9) 1.5308(3)
Cr1 Cr 0.42281(7) 0.20951(2) 1.19671(7)
Cr2 Cr 0.48393(8) 0.03960(2) 1.24172(8)
C27 C 0.2337(5) 0.11191(15) 1.4939(5)
H25 H 0.25530 0.11180 1.40200
Cl1 Cl 0.07400(13) 0.10840(4) 1.43819(13)
Cl2 Cl 0.28872(13) 0.15925(4) 1.59234(14)
Cl3 Cl 0.30315(14) 0.06851(4) 1.60323(15)
Mn1? Mn 0.42281(7) 0.20951(2) 1.19671(7)
Mn2? Mn 0.48393(8) 0.03960(2) 1.24172(8)
C25B C 0.4371(4) 0.00912(15) 0.9515(5)
O11B O 0.3999(3) 0.00030(9) 0.8139(3)
O12B O 0.3827(3) 0.03096(9) 1.0163(3)
C26B C 0.5557(4) 0.01362(15) 1.5422(5)
O13B O 0.6000(3) 0.00844(9) 1.6815(3)
O14B O 0.5909(3) 0.03974(9) 1.4692(3)
C21B C 0.5192(4) -0.26214(14) 1.0064(5)
C22B C 0.6375(5) -0.23924(15) 1.0999(6)
C23B C 0.4894(4) -0.12691(16) 0.8038(5)
C24B C 0.6075(5) -0.12276(16) 0.7686(5)
O3B O 0.4729(3) -0.2865(1) 1.0742(3)
O4B O 0.6791(3) -0.24712(9) 1.2371(3)
O5B O 0.4778(3) -0.25506(9) 0.8680(3)
O6B O 0.6809(3) -0.21436(9) 1.0297(3)
O7B O 0.4631(3) -0.16314(10) 0.8328(3)
O8B O 0.6643(3) -0.15578(10) 0.7656(3)
O9B O 0.4328(3) -0.09343(10) 0.8032(3)
O10B O 0.6351(3) -0.0861(1) 0.7397(3)
Cr1B Cr 0.57719(7) -0.20951(2) 0.80329(7)
Cr2B Cr 0.51607(8) -0.03960(2) 0.75828(8)
O3A O 0.4729(3) -0.2135(1) 0.5742(3)
O3C O 0.5271(3) 0.2135(1) 1.4258(3)
O4A O 0.6791(3) -0.25288(9) 0.7371(3)
O4C O 0.3209(3) 0.25288(9) 1.2629(3)
O13B* O 0.6000(3) 0.00844(9) 0.6815(3)
O14* O 0.4091(3) -0.03974(9) 0.5308(3)
Cr1A Cr 0.57719(7) -0.29049(2) 1.30329(7)
Cr1C Cr 0.42281(7) 0.29049(2) 0.69671(7)
Cr2B* Cr 0.51607(8) -0.03960(2) 1.75828(8)
#END
