
#######################################################################
#
#                 Cambridge Crystallographic Data Centre
#                                CCDC
#
#######################################################################
#
# If this CIF has been generated from an entry in the Cambridge
# Structural Database, then it will include bibliographic, chemical,
# crystal, experimental, refinement or atomic coordinate data resulting
# from the CCDC's data processing and validation procedures.
#
#######################################################################

data_CSD_CIF_TIXXOP
_audit_creation_date 2014-02-18
_audit_creation_method CSD-ConQuest-V1
_database_code_CSD TIXXOP
_database_code_depnum_ccdc_archive 'CCDC 929207'
_chemical_formula_sum 'C54 H52 Cl4 Cr4 Fe2 N8 O28'
_chemical_formula_moiety
;
(C20 H24 Fe1 N4 O2 1+)2n,n(C12 Cr4 O24 2-),2n(C1 H2 Cl2)
;
_journal_coden_Cambridge 4
_journal_volume 135
_journal_year 2013
_journal_page_first 8655
_journal_name_full 'J.Am.Chem.Soc. '
loop_
_publ_author_name
"M.Clemente-Leon"
"E.Coronado"
"M.Lopez-Jorda"
"J.C.Waerenborgh"
"C.Desplanches"
"Hongfeng Wang"
"J.-F.Letard"
"A.Hauser"
"A.Tissot"
_chemical_name_systematic
;
catena-(bis((2,2'-(2,5,8,11-Tetraazadodeca-1,11-diene-1,12-diyl)diphenolato)-i
ron) hexakis(\m~2~-oxalato)-tetra-chromium dichloromethane solvate)
;
_cell_volume   3215.248
_exptl_crystal_colour 'brown'
_exptl_crystal_density_diffrn 1.807
_exptl_crystal_description 'plate'
_diffrn_ambient_temperature 120
_refine_special_details
;
The atomic sites represented as Cr are each mixed Cr/Zn sites with equal 
occupancies.
;
#These two values have been output from a single CSD field.
_refine_ls_R_factor_gt 0.0493
_refine_ls_wR_factor_gt 0.0493
_symmetry_cell_setting monoclinic
_symmetry_space_group_name_H-M 'P 21/c'
_symmetry_Int_Tables_number 14
loop_
_symmetry_equiv_pos_site_id
_symmetry_equiv_pos_as_xyz
1 x,y,z
2 -x,1/2+y,1/2-z
3 -x,-y,-z
4 x,-1/2-y,-1/2+z
_cell_length_a 11.6634(6)
_cell_length_b 31.4028(11)
_cell_length_c 9.3270(4)
_cell_angle_alpha 90
_cell_angle_beta 109.747(5)
_cell_angle_gamma 90
_cell_formula_units_Z 2
loop_
_atom_type_symbol
_atom_type_radius_bond
C 0.68
H 0.23
Cl 0.99
Cr 1.39
Fe 1.52
N 0.68
O 0.68
Zn 1.22
loop_
_atom_site_label
_atom_site_type_symbol
_atom_site_fract_x
_atom_site_fract_y
_atom_site_fract_z
C1 C 0.4192(4) 0.06197(14) 0.1099(5)
C2 C 0.3775(5) 0.03971(14) 0.2135(5)
H1 H 0.29910 0.04580 0.21850
C3 C 0.4489(5) 0.00936(15) 0.3075(5)
H2 H 0.41920 -0.00550 0.37650
C4 C 0.5652(5) -0.00007(14) 0.3031(5)
H3 H 0.61560 -0.02030 0.37170
C5 C 0.6056(4) 0.02023(14) 0.1985(5)
H4 H 0.68290 0.01300 0.19240
C6 C 0.5346(4) 0.05154(13) 0.1003(5)
C7 C 0.5788(4) 0.06926(14) -0.0130(5)
H5 H 0.65480 0.05930 -0.01620
C8 C 0.5752(5) 0.11175(14) -0.2223(5)
H6 H 0.53950 0.09570 -0.31850
H7 H 0.66420 0.10690 -0.18370
C9 C 0.5478(4) 0.15901(14) -0.2489(5)
H8 H 0.60450 0.17570 -0.16450
H9 H 0.55890 0.16790 -0.34510
C10 C 0.3230(5) 0.16134(15) -0.4091(5)
H10 H 0.25570 0.18160 -0.41940
H11 H 0.35730 0.16770 -0.49060
C11 C 0.2752(5) 0.11742(14) -0.4275(5)
H12 H 0.33300 0.09810 -0.45250
H13 H 0.19640 0.11630 -0.51230
C12 C 0.1368(4) 0.11097(13) -0.2673(5)
H14 H 0.07160 0.10670 -0.36670
H15 H 0.12350 0.09070 -0.19330
C13 C 0.1325(4) 0.15498(13) -0.2143(5)
H16 H 0.12380 0.17540 -0.29830
H17 H 0.06240 0.15860 -0.17830
C14 C 0.2464(4) 0.18575(13) 0.0225(5)
H18 H 0.17030 0.19700 0.02090
C15 C 0.3514(4) 0.19633(12) 0.1511(5)
C16 C 0.3354(4) 0.22201(12) 0.2642(5)
H19 H 0.25550 0.23040 0.25800
C17 C 0.4347(4) 0.23558(13) 0.3860(5)
H20 H 0.42300 0.25260 0.46430
C18 C 0.5508(4) 0.22414(13) 0.3925(5)
H21 H 0.61890 0.23340 0.47600
C19 C 0.5694(4) 0.19974(12) 0.2805(4)
H22 H 0.65030 0.19310 0.28570
C20 C 0.4701(4) 0.18421(13) 0.1572(5)
N1 N 0.5220(4) 0.09807(11) -0.1117(4)
N2 N 0.4196(4) 0.16721(11) -0.2573(4)
H23 H 0.41550 0.19530 -0.22790
N3 N 0.2580(3) 0.10317(11) -0.2829(4)
H24 H 0.27110 0.07390 -0.27540
N4 N 0.2462(3) 0.16245(11) -0.0902(4)
O1 O 0.3444(3) 0.09058(9) 0.0206(3)
O2 O 0.4951(3) 0.16053(9) 0.0554(3)
Fe1 Fe 0.38375(6) 0.129747(19) -0.10242(7)
C21 C -0.1069(4) 0.12285(12) 0.2245(4)
C22 C 0.0090(4) 0.12596(13) 0.1827(4)
C23 C -0.1366(4) 0.26058(12) 0.3856(5)
C24 C -0.0182(4) 0.23810(12) 0.4796(4)
C25 C 0.0542(4) 0.01389(12) 0.5415(5)
C26 C -0.0626(4) 0.00833(12) -0.0482(5)
O3 O -0.1654(2) 0.15626(8) 0.2216(3)
O4 O 0.0373(2) 0.16242(8) 0.1510(3)
O5 O -0.1344(2) 0.08644(8) 0.2588(3)
O6 O 0.0685(3) 0.09259(8) 0.1888(3)
O7 O -0.1793(2) 0.28658(8) 0.4569(3)
O8 O 0.0239(2) 0.24638(7) 0.6188(3)
O9 O -0.1797(2) 0.25130(7) 0.2467(3)
O10 O 0.0284(2) 0.21281(8) 0.4093(3)
O11 O 0.1016(3) 0.00773(8) 0.6838(3)
O12 O -0.0993(2) -0.00119(8) -0.1868(3)
O13 O 0.0887(2) 0.04109(8) 0.4660(3)
O14 O -0.1186(3) 0.03115(8) 0.0177(3)
Cr1 Cr -0.01676(5) 0.040324(16) 0.24173(6)
Cr2 Cr -0.07719(5) 0.208388(16) 0.18085(6)
Zn1? Zn -0.01676(5) 0.040324(16) 0.24173(6)
Zn2? Zn -0.07719(5) 0.208388(16) 0.18085(6)
Cl1 Cl 0.80668(12) 0.15798(4) 0.58611(13)
Cl2 Cl 0.78918(12) 0.06609(4) 0.59370(14)
C27 C 0.7276(4) 0.11241(12) 0.4906(4)
H25 H 0.64030 0.11480 0.47930
H26 H 0.73380 0.11070 0.38750
C25B C -0.0542(4) -0.01389(12) 0.4585(5)
O13B O -0.0887(2) -0.04109(8) 0.5340(3)
O11B O -0.1016(3) -0.00773(8) 0.3162(3)
C26B C 0.0626(4) -0.00833(12) 0.0482(5)
O14B O 0.1186(3) -0.03115(8) -0.0177(3)
O12B O 0.0993(2) 0.00119(8) 0.1868(3)
C21B C 0.1069(4) -0.12285(12) -0.2245(4)
C22B C -0.0090(4) -0.12596(13) -0.1827(4)
C23B C 0.1366(4) -0.26058(12) -0.3856(5)
C24B C 0.0182(4) -0.23810(12) -0.4796(4)
O3B O 0.1654(2) -0.15626(8) -0.2216(3)
O4B O -0.0373(2) -0.16242(8) -0.1510(3)
O5B O 0.1344(2) -0.08644(8) -0.2588(3)
O6B O -0.0685(3) -0.09259(8) -0.1888(3)
O7B O 0.1793(2) -0.28658(8) -0.4569(3)
O8B O -0.0239(2) -0.24638(7) -0.6188(3)
O9B O 0.1797(2) -0.25130(7) -0.2467(3)
O10B O -0.0284(2) -0.21281(8) -0.4093(3)
Cr1B Cr 0.01676(5) -0.040324(16) -0.24173(6)
Cr2B Cr 0.07719(5) -0.208388(16) -0.18085(6)
O7A O 0.1793(2) -0.21342(8) 0.0431(3)
O7C O -0.1793(2) 0.21342(8) -0.0431(3)
O8A O -0.0239(2) -0.25362(7) -0.1188(3)
O8C O 0.0239(2) 0.25362(7) 0.1188(3)
O11* O 0.1016(3) 0.00773(8) -0.3162(3)
O13B* O -0.0887(2) -0.04109(8) -0.4660(3)
Cr1B* Cr 0.01676(5) -0.040324(16) 0.75827(6)
Cr2A Cr 0.07719(5) -0.291612(16) -0.68085(6)
Cr2C Cr -0.07719(5) 0.291612(16) 0.68085(6)
#END
