
#######################################################################
#
#                 Cambridge Crystallographic Data Centre
#                                CCDC
#
#######################################################################
#
# If this CIF has been generated from an entry in the Cambridge
# Structural Database, then it will include bibliographic, chemical,
# crystal, experimental, refinement or atomic coordinate data resulting
# from the CCDC's data processing and validation procedures.
#
#######################################################################

data_CSD_CIF_TIXYOQ01
_audit_creation_date 2014-02-18
_audit_creation_method CSD-ConQuest-V1
_database_code_CSD TIXYOQ01
_database_code_depnum_ccdc_archive 'CCDC 929201'
_chemical_formula_sum 'C54 H52 Br4 Cr2 Fe2 Mn2 N8 O28'
_chemical_formula_moiety
;
(C20 H24 Fe1 N4 O2 1+)2n,n(C12 Cr2 Mn2 O24 2-),2n(C1 H2 Br2)
;
_journal_coden_Cambridge 4
_journal_volume 135
_journal_year 2013
_journal_page_first 8655
_journal_name_full 'J.Am.Chem.Soc. '
loop_
_publ_author_name
"M.Clemente-Leon"
"E.Coronado"
"M.Lopez-Jorda"
"J.C.Waerenborgh"
"C.Desplanches"
"Hongfeng Wang"
"J.-F.Letard"
"A.Hauser"
"A.Tissot"
_chemical_name_systematic
;
catena-(bis((2,2'-(2,5,8,11-Tetra-azadodeca-1,11-diene-1,12-diyl)diphenolato)-
iron(iii)) hexakis(\m~2~-oxalato)-di-chromium(iii)-di-manganese(ii) 
dibromomethane solvate)
;
_cell_volume   3346.040
_exptl_crystal_colour 'brown'
_exptl_crystal_density_diffrn 1.892
_exptl_crystal_description 'prism'
_diffrn_ambient_temperature 100
_refine_special_details
;
The structure appears to be disordered.

;
#These two values have been output from a single CSD field.
_refine_ls_R_factor_gt 0.0545
_refine_ls_wR_factor_gt 0.0545
_symmetry_cell_setting monoclinic
_symmetry_space_group_name_H-M 'P 21/c'
_symmetry_Int_Tables_number 14
loop_
_symmetry_equiv_pos_site_id
_symmetry_equiv_pos_as_xyz
1 x,y,z
2 -x,1/2+y,1/2-z
3 -x,-y,-z
4 x,-1/2-y,-1/2+z
_cell_length_a 11.7115(4)
_cell_length_b 31.9453(7)
_cell_length_c 9.5068(3)
_cell_angle_alpha 90
_cell_angle_beta 109.821(4)
_cell_angle_gamma 90
_cell_formula_units_Z 2
loop_
_atom_type_symbol
_atom_type_radius_bond
C 0.68
H 0.23
Br 1.21
Cr 1.39
Fe 1.52
Mn 1.61
N 0.68
O 0.68
loop_
_atom_site_label
_atom_site_type_symbol
_atom_site_fract_x
_atom_site_fract_y
_atom_site_fract_z
Br1 Br 0.70953(4) 0.162323(12) -0.58877(5)
C1 C 0.7830(4) 0.11212(12) -0.4839(4)
H1 H 0.87180 0.11300 -0.46300
H2 H 0.76880 0.11060 -0.38720
Br2 Br 0.71577(4) 0.063343(12) -0.60130(5)
C2 C 0.0430(3) 0.18529(12) -0.1503(4)
C3 C -0.0539(4) 0.20113(13) -0.2710(4)
H3 H -0.13490 0.19500 -0.27740
C4 C -0.0337(4) 0.22542(12) -0.3803(5)
H4 H -0.10090 0.23560 -0.46080
C5 C 0.0839(4) 0.23516(12) -0.3742(5)
H5 H 0.09710 0.25140 -0.45090
C6 C 0.1808(4) 0.22094(12) -0.2557(5)
H6 H 0.26100 0.22790 -0.25050
C7 C 0.1633(3) 0.19615(12) -0.1418(4)
C8 C 0.2679(3) 0.18476(12) -0.0170(5)
H7 H 0.34460 0.19480 -0.01580
C9 C 0.3806(4) 0.15372(14) 0.2144(6)
H8 H 0.39230 0.17380 0.29740
H9 H 0.44980 0.15630 0.17740
C10 C 0.3721(4) 0.10984(14) 0.2665(6)
H10 H 0.38400 0.08970 0.19380
H11 H 0.43670 0.10510 0.36420
C11 C 0.2353(5) 0.11712(16) 0.4230(5)
H12 H 0.31420 0.11560 0.50540
H13 H 0.17750 0.09840 0.44810
C12 C 0.1882(5) 0.16174(16) 0.4072(5)
H14 H 0.15320 0.16770 0.48640
H15 H 0.25610 0.18140 0.41950
C13 C -0.0343(4) 0.16147(14) 0.2486(5)
H16 H -0.08940 0.17780 0.16410
H17 H -0.04540 0.17120 0.34190
C14 C -0.0643(5) 0.11526(15) 0.2257(5)
H18 H -0.02750 0.09980 0.32070
H19 H -0.15320 0.11100 0.19110
C15 C -0.0712(4) 0.07143(13) 0.0199(5)
H20 H -0.14540 0.06140 0.02690
C16 C -0.0295(4) 0.05359(13) -0.0930(5)
C17 C -0.1027(4) 0.02289(13) -0.1884(5)
H21 H -0.17900 0.01590 -0.18000
C18 C -0.0653(4) 0.00291(15) -0.2931(5)
H22 H -0.11650 -0.01710 -0.35880
C19 C 0.0490(5) 0.01219(16) -0.3024(5)
H23 H 0.07640 -0.00240 -0.37220
C20 C 0.1218(4) 0.04217(16) -0.2116(5)
H24 H 0.19860 0.04820 -0.22020
C21 C 0.0847(4) 0.06412(14) -0.1058(5)
N1 N -0.0142(3) 0.10026(10) 0.1124(4)
N2 N 0.0936(3) 0.16795(10) 0.2576(4)
H25 H 0.10010 0.19550 0.22940
N3 N 0.2504(3) 0.10291(10) 0.2818(4)
H26 H 0.23520 0.07430 0.27370
N4 N 0.2655(3) 0.16202(11) 0.0932(4)
O1 O 0.1608(3) 0.09191(10) -0.0214(3)
O2 O 0.0173(2) 0.16254(9) -0.0497(3)
Fe1 Fe 0.12622(5) 0.130732(17) 0.10344(6)
C22 C 0.5267(3) 0.26244(11) 0.0136(4)
C23 C 0.6459(3) 0.23982(11) 0.1071(4)
C24 C 0.4977(3) 0.12632(12) -0.1853(4)
C25 C 0.6148(3) 0.12238(11) -0.2255(4)
C26 C 0.4457(3) 0.01427(11) -0.5430(4)
C27 C 0.5643(3) 0.00788(11) 0.0485(4)
O3 O 0.4809(2) 0.28678(8) 0.0840(3)
O4 O 0.6886(2) 0.24876(8) 0.2429(3)
O5 O 0.4855(2) 0.25425(8) -0.1232(3)
O6 O 0.6886(2) 0.21434(8) 0.0373(3)
O7 O 0.4706(2) 0.16265(9) -0.1560(3)
O8 O 0.6724(2) 0.15506(9) -0.2242(3)
O9 O 0.4388(2) 0.09342(9) -0.1883(3)
O10 O 0.6413(3) 0.08619(9) -0.2553(3)
O11 O 0.4144(2) 0.04113(8) -0.4655(3)
O12 O 0.6202(3) 0.02942(8) -0.0167(3)
O13 O 0.3979(3) 0.00840(8) -0.6803(3)
O14 O 0.6001(2) -0.00256(8) 0.1837(3)
Cr1 Cr 0.58562(5) 0.208502(17) -0.18753(6)
Mn1 Mn 0.52068(5) 0.040394(17) -0.24011(6)
Mn2? Mn 0.58562(5) 0.208502(17) -0.18753(6)
Cr2? Cr 0.52068(5) 0.040394(17) -0.24011(6)
C26B C 0.5543(3) -0.01427(11) -0.4570(4)
O11B O 0.5856(2) -0.04113(8) -0.5345(3)
O13B O 0.6021(3) -0.00840(8) -0.3197(3)
C27B C 0.4357(3) -0.00788(11) -0.0485(4)
O12B O 0.3798(3) -0.02942(8) 0.0167(3)
O14B O 0.3999(2) 0.00256(8) -0.1837(3)
C22B C 0.4733(3) -0.26244(11) -1.0136(4)
C23B C 0.3541(3) -0.23982(11) -1.1071(4)
C24B C 0.5023(3) -0.12632(12) -0.8147(4)
C25B C 0.3852(3) -0.12238(11) -0.7745(4)
O3B O 0.5191(2) -0.28678(8) -1.0840(3)
O4B O 0.3114(2) -0.24876(8) -1.2429(3)
O5B O 0.5145(2) -0.25425(8) -0.8768(3)
O6B O 0.3114(2) -0.21434(8) -1.0373(3)
O7B O 0.5294(2) -0.16265(9) -0.8440(3)
O8B O 0.3276(2) -0.15506(9) -0.7758(3)
O9B O 0.5612(2) -0.09342(9) -0.8117(3)
O10B O 0.3587(3) -0.08619(9) -0.7447(3)
Cr1B Cr 0.41438(5) -0.208502(17) -0.81247(6)
Mn1B Mn 0.47932(5) -0.040394(17) -0.75989(6)
O3A O 0.5191(2) -0.21322(8) -0.5840(3)
O3C O 0.4809(2) 0.21322(8) -0.4160(3)
O4A O 0.3114(2) -0.25124(8) -0.7429(3)
O4C O 0.6886(2) 0.25124(8) -0.2571(3)
O12B* O 0.3798(3) -0.02942(8) -0.9833(3)
O14* O 0.6001(2) -0.00256(8) -0.8163(3)
Cr1A Cr 0.41438(5) -0.291498(17) -1.31247(6)
Cr1C Cr 0.58562(5) 0.291498(17) 0.31247(6)
Mn1B* Mn 0.47932(5) -0.040394(17) 0.24011(6)
#END
