
#######################################################################
#
#                 Cambridge Crystallographic Data Centre
#                                CCDC
#
#######################################################################
#
# If this CIF has been generated from an entry in the Cambridge
# Structural Database, then it will include bibliographic, chemical,
# crystal, experimental, refinement or atomic coordinate data resulting
# from the CCDC's data processing and validation procedures.
#
#######################################################################

data_CSD_CIF_TIXYEG01
_audit_creation_date 2014-02-18
_audit_creation_method CSD-ConQuest-V1
_database_code_CSD TIXYEG01
_database_code_depnum_ccdc_archive 'CCDC 929203'
_chemical_formula_sum 'C54 H50 Br6 Cr2 Fe2 Mn2 N8 O28'
_chemical_formula_moiety
;
(C20 H24 Fe1 N4 O2 1+)2n,n(C12 Cr2 Mn2 O24 2-),2n(C1 H1 Br3)
;
_journal_coden_Cambridge 4
_journal_volume 135
_journal_year 2013
_journal_page_first 8655
_journal_name_full 'J.Am.Chem.Soc. '
loop_
_publ_author_name
"M.Clemente-Leon"
"E.Coronado"
"M.Lopez-Jorda"
"J.C.Waerenborgh"
"C.Desplanches"
"Hongfeng Wang"
"J.-F.Letard"
"A.Hauser"
"A.Tissot"
_chemical_name_systematic
;
catena-(bis((2,2'-(2,5,8,11-Tetra-azadodeca-1,11-diene-1,12-diyl)diphenolato)-
iron(iii)) hexakis(\m~2~-oxalato)-di-chromium(iii)-di-manganese(ii) bromoform 
solvate)
;
_cell_volume   3413.706
_exptl_crystal_colour 'brown'
_exptl_crystal_density_diffrn 2.008
_exptl_crystal_description 'prism'
_diffrn_ambient_temperature 100
_refine_special_details
;
The structure appears to be disordered.

;
#These two values have been output from a single CSD field.
_refine_ls_R_factor_gt 0.0608
_refine_ls_wR_factor_gt 0.0608
_symmetry_cell_setting monoclinic
_symmetry_space_group_name_H-M 'P 21/c'
_symmetry_Int_Tables_number 14
loop_
_symmetry_equiv_pos_site_id
_symmetry_equiv_pos_as_xyz
1 x,y,z
2 -x,1/2+y,1/2-z
3 -x,-y,-z
4 x,-1/2-y,-1/2+z
_cell_length_a 11.9224(5)
_cell_length_b 31.8487(8)
_cell_length_c 9.6032(3)
_cell_angle_alpha 90
_cell_angle_beta 110.582(4)
_cell_angle_gamma 90
_cell_formula_units_Z 2
loop_
_atom_type_symbol
_atom_type_radius_bond
C 0.68
H 0.23
Br 1.21
Cr 1.39
Fe 1.52
Mn 1.61
N 0.68
O 0.68
loop_
_atom_site_label
_atom_site_type_symbol
_atom_site_fract_x
_atom_site_fract_y
_atom_site_fract_z
Br1 Br -0.21824(5) 0.165938(16) 1.11020(6)
C1 C -0.2708(5) 0.11421(15) 0.9985(6)
H1 H -0.24480 0.11500 0.91020
Br2 Br -0.44143(5) 0.108303(17) 0.92831(6)
Br3 Br -0.19517(5) 0.066968(17) 1.11901(6)
C2 C 0.4180(5) 0.05583(19) 0.6103(6)
C3 C 0.3775(5) 0.0312(2) 0.7047(6)
H2 H 0.29800 0.03480 0.70330
C4 C 0.4505(6) 0.00223(19) 0.7984(7)
H3 H 0.42150 -0.01360 0.86260
C5 C 0.5672(6) -0.00451(18) 0.8011(7)
H4 H 0.61810 -0.02420 0.86820
C6 C 0.6071(5) 0.01775(17) 0.7054(6)
H5 H 0.68570 0.01290 0.70540
C7 C 0.5336(5) 0.04787(17) 0.6066(6)
C8 C 0.5800(5) 0.06918(17) 0.5060(6)
H6 H 0.65580 0.06040 0.50460
C9 C 0.5830(6) 0.11690(19) 0.3190(7)
H7 H 0.55790 0.10110 0.22430
H8 H 0.67120 0.11500 0.36570
C10 C 0.5453(5) 0.16216(18) 0.2896(7)
H9 H 0.59320 0.17970 0.37480
H10 H 0.55990 0.17210 0.19970
C11 C 0.3312(7) 0.1593(3) 0.1158(8)
H11 H 0.26450 0.17970 0.09470
H12 H 0.37210 0.16440 0.04370
C12 C 0.2836(9) 0.1174(2) 0.0964(7)
H13 H 0.34200 0.09800 0.07810
H14 H 0.20890 0.11650 0.00820
C13 C 0.1380(6) 0.1085(2) 0.2414(10)
H15 H 0.07610 0.10610 0.14090
H16 H 0.12390 0.08590 0.30380
C14 C 0.1256(7) 0.1489(3) 0.3050(9)
H17 H 0.05820 0.14800 0.34260
H18 H 0.10870 0.17110 0.22810
C15 C 0.2330(5) 0.18092(17) 0.5349(6)
H19 H 0.15620 0.18900 0.53450
C16 C 0.3364(5) 0.19514(16) 0.6571(6)
C17 C 0.3172(5) 0.21941(17) 0.7686(7)
H20 H 0.23730 0.22450 0.76360
C18 C 0.4106(6) 0.23602(19) 0.8850(7)
H21 H 0.39580 0.25110 0.96210
C19 C 0.5282(6) 0.23035(18) 0.8878(7)
H22 H 0.59350 0.24260 0.96510
C20 C 0.5488(5) 0.20676(17) 0.7769(6)
H23 H 0.62840 0.20390 0.77770
C21 C 0.4546(5) 0.18712(16) 0.6643(6)
N1 N 0.5265(4) 0.09908(14) 0.4181(5)
N2 N 0.4162(4) 0.16617(15) 0.2673(5)
H24 H 0.40470 0.19360 0.29230
N3 N 0.2576(5) 0.10285(14) 0.2303(5)
H25 H 0.27180 0.07410 0.23680
N4 N 0.2377(4) 0.15824(15) 0.4272(5)
O1 O 0.3460(4) 0.08534(14) 0.5298(5)
O2 O 0.4814(3) 0.16295(13) 0.5700(4)
Fe1 Fe 0.38046(6) 0.12837(2) 0.41883(8)
C22 C -0.1374(4) 0.23993(14) 0.4263(5)
C23 C -0.0196(4) 0.26294(14) 0.5203(5)
C24 C -0.1077(4) 0.12247(15) 0.7429(5)
C25 C 0.0073(4) 0.12691(15) 0.7047(5)
C26 C -0.0545(4) -0.01401(14) 0.9567(5)
C27 C 0.0626(4) -0.00828(14) 0.5486(5)
O3 O -0.1780(3) 0.24801(11) 0.2903(4)
O4 O 0.0256(3) 0.28675(11) 0.4493(4)
O5 O -0.1797(3) 0.21496(11) 0.4956(4)
O6 O 0.0198(3) 0.25573(10) 0.6562(4)
O7 O -0.1618(3) 0.15492(12) 0.7528(4)
O8 O 0.0360(3) 0.16404(11) 0.6853(4)
O9 O -0.1367(3) 0.08560(11) 0.7638(4)
O10 O 0.0622(3) 0.09426(11) 0.6979(4)
O11 O -0.0986(3) -0.00864(11) 0.8192(4)
O12 O -0.0870(3) -0.04037(11) 1.0322(4)
O13 O 0.0984(3) 0.00113(11) 0.6838(4)
O14 O 0.1167(3) -0.03033(11) 0.4837(4)
Cr1 Cr -0.01821(7) 0.03995(2) 0.74138(8)
Mn1 Mn -0.07629(7) 0.20950(2) 0.72113(8)
Mn2? Mn -0.01821(7) 0.03995(2) 0.74138(8)
Cr2? Cr -0.07629(7) 0.20950(2) 0.72113(8)
C26B C 0.0545(4) 0.01401(14) 1.0433(5)
O11B O 0.0986(3) 0.00864(11) 1.1808(4)
O12B O 0.0870(3) 0.04037(11) 0.9678(4)
C27B C -0.0626(4) 0.00828(14) 0.4514(5)
O13B O -0.0984(3) -0.00113(11) 0.3162(4)
O14B O -0.1167(3) 0.03033(11) 0.5163(4)
C22B C 0.1374(4) -0.23993(14) 0.5737(5)
C23B C 0.0196(4) -0.26294(14) 0.4797(5)
C24B C 0.1077(4) -0.12247(15) 0.2571(5)
C25B C -0.0073(4) -0.12691(15) 0.2953(5)
O3B O 0.1780(3) -0.24801(11) 0.7097(4)
O4B O -0.0256(3) -0.28675(11) 0.5507(4)
O5B O 0.1797(3) -0.21496(11) 0.5044(4)
O6B O -0.0198(3) -0.25573(10) 0.3438(4)
O7B O 0.1618(3) -0.15492(12) 0.2472(4)
O8B O -0.0360(3) -0.16404(11) 0.3147(4)
O9B O 0.1367(3) -0.08560(11) 0.2362(4)
O10B O -0.0622(3) -0.09426(11) 0.3021(4)
Cr1B Cr 0.01821(7) -0.03995(2) 0.25862(8)
Mn1B Mn 0.07629(7) -0.20950(2) 0.27887(8)
O3A O 0.1780(3) -0.25199(11) 0.2097(4)
O3C O -0.1780(3) 0.25199(11) 0.7903(4)
O4A O -0.0256(3) -0.21325(11) 0.0507(4)
O4C O 0.0256(3) 0.21325(11) 0.9493(4)
O11B* O 0.0986(3) 0.00864(11) 0.1808(4)
O12* O -0.0870(3) -0.04037(11) 0.0322(4)
Cr1B* Cr 0.01821(7) -0.03995(2) 1.25862(8)
Mn1A Mn 0.07629(7) -0.29050(2) 0.77887(8)
Mn1C Mn -0.07629(7) 0.29050(2) 0.22113(8)
#END
