
#######################################################################
#
#                 Cambridge Crystallographic Data Centre
#                                CCDC
#
#######################################################################
#
# If this CIF has been generated from an entry in the Cambridge
# Structural Database, then it will include bibliographic, chemical,
# crystal, experimental, refinement or atomic coordinate data resulting
# from the CCDC's data processing and validation procedures.
#
#######################################################################

data_CSD_CIF_TIYBOV
_audit_creation_date 2019-02-12
_audit_creation_method CSD-ConQuest-V1
_database_code_CSD TIYBOV
_database_code_depnum_ccdc_archive 'CCDC 1876739'
_chemical_formula_sum 'C91 H178.5 Co6 Mo10 N11.5 O58 P6'
_chemical_formula_moiety
;
(C44 H84 Co6 Mo10 N2 O58 P6 2-)n,2(C16 H36 N1 1+),7.5(C2 H3 N1)
;
_journal_coden_Cambridge 222
_journal_volume 48
_journal_year 2019
_journal_page_first 3018
_journal_name_full 'Dalton Trans. '
loop_
_publ_author_name
"C.Healy"
"F.W.Steuber"
"Paul Wix"
"L.K.Macreadie"
"A.C.Kathalikkattil"
"Wolfgang Schmitt"
_chemical_name_systematic
;
catena-[bis(tetra-n-butylammonium) 
hexakis(\m-t-butylphosphonato)-octadecakis(\m-oxo)-(\m-2,2'-(1,4-phenylene)dia
cetato)-hexaaqua-dodecaoxo-bis(pyridine)-hexa-cobalt-deca-molybdenum 
acetonitrile solvate]
;
_cell_volume   3653.795
_exptl_crystal_colour 'violet'
_exptl_crystal_density_diffrn 1.753
_exptl_crystal_description 'rod'
_diffrn_ambient_temperature 100.2
#These two values have been output from a single CSD field.
_refine_ls_R_factor_gt 0.0544
_refine_ls_wR_factor_gt 0.0544
_symmetry_cell_setting triclinic
_symmetry_space_group_name_H-M 'P -1'
_symmetry_Int_Tables_number 2
loop_
_symmetry_equiv_pos_site_id
_symmetry_equiv_pos_as_xyz
1 x,y,z
2 -x,-y,-z
_cell_length_a 13.7500(4)
_cell_length_b 16.8554(5)
_cell_length_c 17.1095(5)
_cell_angle_alpha 107.632(1)
_cell_angle_beta 95.012(1)
_cell_angle_gamma 101.664(1)
_cell_formula_units_Z 1
loop_
_atom_type_symbol
_atom_type_radius_bond
C 0.68
H 0.23
Co 1.26
Mo 1.54
N 0.68
O 0.68
P 1.05
loop_
_atom_site_label
_atom_site_type_symbol
_atom_site_fract_x
_atom_site_fract_y
_atom_site_fract_z
Mo1 Mo 0.42769(2) 0.45383(3) 0.35404(2)
Mo2 Mo 0.16604(3) 0.28811(3) 0.29673(2)
Mo3 Mo 0.37140(3) 0.63817(3) 0.27980(2)
Mo4 Mo 0.32017(3) 0.28412(3) 0.15895(2)
Mo5 Mo 0.42734(3) 0.47256(3) 0.14714(2)
Co1 Co 0.32961(4) 0.56543(4) 0.55423(4)
Co2 Co 0.66842(4) 0.77772(4) 0.58042(4)
Co3 Co 0.61755(4) 0.70447(4) 0.39185(4)
P1 P 0.42360(8) 0.72189(8) 0.48610(7)
P2 P 0.20869(8) 0.36359(8) 0.50413(7)
P3 P 0.19348(8) 0.45321(8) 0.22050(7)
O1 O 0.5440(2) 0.4308(2) 0.36719(18)
O2 O 0.1864(2) 0.3690(2) 0.41541(18)
O3 O 0.2514(2) 0.4527(2) 0.56556(18)
O4 O 0.5375(2) 0.7373(2) 0.48322(18)
O5 O 0.3982(2) 0.5026(2) 0.44975(18)
O6 O 0.3982(2) 0.6860(2) 0.55485(18)
O7 O 0.2426(2) 0.5457(2) 0.27594(18)
O8 O 0.1879(2) 0.2525(2) 0.18587(18)
O9 O 0.1508(2) 0.4017(2) 0.27475(18)
O10 O 0.3321(2) 0.3555(2) 0.30254(18)
O11 O 0.5698(2) 0.7789(2) 0.65786(19)
H1 H 0.50920 0.74420 0.64030
H2 H 0.57830 0.78700 0.71150
O12 O 0.2683(2) 0.4106(2) 0.16907(18)
O13 O 0.6565(2) 0.6028(2) 0.32036(19)
H3 H 0.60830 0.57340 0.27800
H4 H 0.66090 0.56660 0.34770
O14 O 0.3713(2) 0.5721(2) 0.17040(19)
O15 O 0.3623(2) 0.6597(2) 0.40200(18)
O16 O 0.4384(2) 0.3728(2) 0.17611(19)
O17 O 0.2103(2) 0.5524(2) 0.45836(19)
H5 H 0.18590 0.49940 0.42630
H6 H 0.23740 0.57820 0.42530
O18 O 0.4977(2) 0.6959(2) 0.30678(18)
O19 O 0.2828(2) 0.3067(2) 0.50656(18)
O20 O 0.3956(2) 0.4319(2) 0.04266(19)
O21 O 0.2163(2) 0.2156(2) 0.33240(19)
O22 O 0.7009(2) 0.8245(2) 0.40590(19)
O23 O 0.0407(2) 0.2459(2) 0.28214(19)
O24 O 0.4340(2) 0.5259(2) 0.29439(18)
O25 O 0.2910(2) 0.2444(2) 0.05410(19)
O26 O 0.3743(2) 0.2100(2) 0.18466(19)
O27 O 0.5529(2) 0.5228(2) 0.16464(19)
O28 O 0.7193(2) 0.8796(2) 0.5473(2)
O29 O 0.3089(2) 0.7101(2) 0.26259(19)
N1 N 0.2702(3) 0.6295(3) 0.6590(2)
C1 C 0.0896(3) 0.4577(3) 0.1498(3)
C2 C 0.0896(3) 0.3152(3) 0.5295(3)
C3 C 0.3289(3) 0.6880(3) 0.7265(3)
H7 H 0.39980 0.69770 0.72940
C4 C 0.0332(4) 0.3661(3) 0.0968(3)
H8 H 0.01200 0.33300 0.13320
H9 H 0.07760 0.33890 0.06140
H10 H -0.02620 0.36800 0.06190
C5 C 0.1870(4) 0.7196(4) 0.7892(3)
H11 H 0.15880 0.75050 0.83400
C6 C 0.0207(4) 0.5049(4) 0.1999(3)
H12 H 0.05860 0.56300 0.23320
H13 H -0.00580 0.47410 0.23680
H14 H -0.03520 0.50790 0.16220
C7 C 0.1707(3) 0.6155(3) 0.6565(3)
H15 H 0.12850 0.57380 0.60870
C8 C 0.1328(4) 0.5067(4) 0.0925(3)
H16 H 0.17450 0.47440 0.05810
H17 H 0.17400 0.56340 0.12650
H18 H 0.07750 0.51320 0.05670
C9 C 0.2904(4) 0.7350(4) 0.7923(3)
H19 H 0.33400 0.77710 0.83890
C10 C 0.1260(4) 0.6591(4) 0.7205(3)
H20 H 0.05490 0.64720 0.71690
C11 C 0.3853(3) 0.8221(3) 0.5047(3)
C12 C 0.7809(3) 0.9697(3) 0.4707(3)
H21 H 0.75930 0.97290 0.41520
H22 H 0.75980 1.01520 0.51260
C13 C 0.7287(3) 0.8828(3) 0.4747(3)
C14 C 0.0113(3) 0.3639(4) 0.5114(4)
H23 H 0.00480 0.36030 0.45280
H24 H 0.03330 0.42420 0.54660
H25 H -0.05390 0.33820 0.52330
C15 C 0.8947(3) 0.9859(3) 0.4863(3)
C16 C 0.4205(4) 0.8792(3) 0.5955(3)
H26 H 0.38870 0.85040 0.63190
H27 H 0.40150 0.93390 0.60400
H28 H 0.49370 0.89000 0.60870
C17 C 0.9465(4) 0.9558(3) 0.4215(3)
H29 H 0.91000 0.92580 0.36710
C18 C 0.2693(3) 0.7994(3) 0.4855(3)
H30 H 0.24720 0.76610 0.42660
H31 H 0.24560 0.85230 0.49850
H32 H 0.24160 0.76550 0.51940
C19 C 0.0536(3) 0.2202(3) 0.4769(3)
H33 H 0.10230 0.18900 0.48990
H34 H 0.04740 0.21450 0.41790
H35 H -0.01200 0.19620 0.48940
C20 C 0.1025(4) 0.3228(4) 0.6223(3)
H36 H 0.12540 0.38340 0.65650
H37 H 0.15230 0.29180 0.63350
H38 H 0.03790 0.29790 0.63570
C21 C 0.9487(4) 1.0313(3) 0.5653(3)
H39 H 0.91470 1.05330 0.61000
C22 C 0.4303(4) 0.8698(3) 0.4478(3)
H40 H 0.50380 0.88520 0.46160
H41 H 0.40580 0.92190 0.45580
H42 H 0.40990 0.83260 0.38980
N2 N 0.5677(3) 0.8273(3) 0.1517(2)
C23 C 0.6254(3) 0.7706(3) 0.1824(3)
H43 H 0.65660 0.80180 0.24100
H44 H 0.57650 0.71810 0.18120
C24 C 0.7065(3) 0.7442(3) 0.1334(3)
H45 H 0.75660 0.79590 0.13450
H46 H 0.67640 0.71150 0.07480
C25 C 0.6397(3) 0.9072(3) 0.1489(3)
H47 H 0.59990 0.94270 0.13010
H48 H 0.68300 0.88950 0.10680
C26 C 0.3742(4) 0.6666(4) -0.0371(3)
H49 H 0.34130 0.71150 -0.04470
H50 H 0.42120 0.65730 -0.07780
C27 C 0.3642(4) 0.9283(3) 0.2625(3)
H51 H 0.32050 0.87310 0.26070
H52 H 0.40570 0.95470 0.31830
C28 C 0.7071(4) 0.9627(3) 0.2305(3)
H53 H 0.75320 0.93030 0.24690
H54 H 0.66530 0.97710 0.27450
C29 C 0.5111(3) 0.7806(3) 0.0639(3)
H55 H 0.47690 0.82030 0.04650
H56 H 0.56100 0.76760 0.02650
C30 C 0.2952(4) 0.5844(4) -0.0542(4)
H57 H 0.25970 0.56630 -0.11130
H58 H 0.24710 0.59380 -0.01540
H59 H 0.32740 0.53970 -0.04710
C31 C 0.4962(3) 0.8517(3) 0.2127(3)
H60 H 0.45010 0.79840 0.21270
H61 H 0.53620 0.87940 0.26910
C32 C 0.4337(4) 0.6981(3) 0.0507(3)
H62 H 0.38740 0.70800 0.09190
H63 H 0.46770 0.65400 0.05870
C33 C 0.7581(4) 0.6890(4) 0.1705(4)
H64 H 0.78790 0.72210 0.22900
H65 H 0.70730 0.63790 0.17000
C34 C 0.7689(4) 1.0456(4) 0.2223(4)
H66 H 0.81040 1.03100 0.17810
H67 H 0.72260 1.07770 0.20570
C35 C 0.8364(4) 1.1018(4) 0.3024(4)
H68 H 0.87390 1.15420 0.29480
H69 H 0.88360 1.07080 0.31820
H70 H 0.79540 1.11690 0.34620
C36 C 0.4337(4) 0.9107(4) 0.1970(3)
H71 H 0.39280 0.88420 0.14100
H72 H 0.47850 0.96550 0.19900
C37 C 0.2984(4) 0.9873(4) 0.2493(4)
H73 H 0.25450 0.96010 0.19540
H74 H 0.34120 1.04190 0.25040
H75 H 0.25730 0.99800 0.29360
C38 C 0.8397(4) 0.6602(4) 0.1232(4)
H76 H 0.80980 0.62400 0.06620
H77 H 0.87310 0.62730 0.15070
H78 H 0.88920 0.71050 0.12210
N3 N 1.5332(4) 1.0747(4) 0.1051(4)
C39 C 1.4502(4) 1.0566(4) 0.0787(4)
C40 C 1.3448(5) 1.0323(5) 0.0435(4)
H79 H 1.30450 1.01530 0.08290
H80 H 1.33300 0.98410 -0.00840
H81 H 1.32550 1.08110 0.03220
N4 N 2.0293(5) 2.1057(4) 0.7916(4)
C41 C 1.9899(4) 2.0388(4) 0.7911(4)
C42 C 1.9406(5) 1.9544(4) 0.7900(5)
H82 H 1.89940 1.92250 0.73540
H83 H 1.89750 1.95930 0.83300
H84 H 1.99120 1.92390 0.80060
N5 N 1.8758(5) 1.9814(5) 1.0293(5)
C43 C 1.9095(5) 1.9217(4) 1.0117(4)
C44 C 1.9564(5) 1.8509(4) 0.9923(4)
H85 H 1.93060 1.81370 0.93480
H86 H 1.94120 1.81800 1.03000
H87 H 2.02940 1.87260 0.99870
N6 N 0.2058(7) 0.8056(6) 0.0404(6)
C45 C 0.1691(7) 0.7760(6) 0.0875(6)
C46 C 0.1279(6) 0.7493(6) 0.1432(6)
H88 H 0.07560 0.69640 0.11570
H89 H 0.09780 0.79330 0.17690
H90 H 0.17930 0.73790 0.17900
O22A O 1.2991(2) 1.1755(2) 0.59410(19)
O28A O 1.2807(2) 1.1204(2) 0.4527(2)
C12A C 1.2191(3) 1.0303(3) 0.5293(3)
H21A H 1.24070 1.02710 0.58480
H22A H 1.24020 0.98480 0.48740
C13A C 1.2713(3) 1.1172(3) 0.5253(3)
C15A C 1.1053(3) 1.0141(3) 0.5137(3)
C17A C 1.0535(4) 1.0442(3) 0.5785(3)
H29A H 1.09000 1.07420 0.63290
C21A C 1.0513(4) 0.9687(3) 0.4347(3)
H39A H 1.08530 0.94670 0.39000
Mo1A Mo 0.57231(2) 0.54617(3) 0.64596(2)
Mo2A Mo 0.83396(3) 0.71189(3) 0.70327(2)
Mo3A Mo 0.62860(3) 0.36183(3) 0.72020(2)
Mo4A Mo 0.67983(3) 0.71588(3) 0.84105(2)
Mo5A Mo 0.57266(3) 0.52744(3) 0.85286(2)
Co1A Co 0.67039(4) 0.43457(4) 0.44577(4)
Co2A Co 0.33158(4) 0.22228(4) 0.41958(4)
Co3A Co 0.38245(4) 0.29553(4) 0.60815(4)
P1A P 0.57640(8) 0.27811(8) 0.51390(7)
P2A P 0.79131(8) 0.63641(8) 0.49587(7)
P3A P 0.80652(8) 0.54679(8) 0.77950(7)
O1A O 0.4560(2) 0.5692(2) 0.63281(18)
O2A O 0.8136(2) 0.6310(2) 0.58459(18)
O3A O 0.7486(2) 0.5473(2) 0.43444(18)
O4A O 0.4625(2) 0.2627(2) 0.51678(18)
O5A O 0.6018(2) 0.4974(2) 0.55025(18)
O6A O 0.6018(2) 0.3140(2) 0.44515(18)
O7A O 0.7574(2) 0.4543(2) 0.72406(18)
O8A O 0.8121(2) 0.7475(2) 0.81413(18)
O9A O 0.8492(2) 0.5983(2) 0.72525(18)
O10A O 0.6679(2) 0.6445(2) 0.69746(18)
O11A O 0.4302(2) 0.2211(2) 0.34214(19)
H1A H 0.49080 0.25580 0.35970
H2A H 0.42170 0.21300 0.28850
O12A O 0.7317(2) 0.5894(2) 0.83093(18)
O13A O 0.3435(2) 0.3972(2) 0.67964(19)
H3A H 0.39170 0.42660 0.72200
H4A H 0.33910 0.43340 0.65230
O14A O 0.6287(2) 0.4279(2) 0.82960(19)
O15A O 0.6377(2) 0.3403(2) 0.59800(18)
O16A O 0.5616(2) 0.6272(2) 0.82389(19)
O17A O 0.7897(2) 0.4476(2) 0.54164(19)
H5A H 0.81410 0.50060 0.57370
H6A H 0.76260 0.42180 0.57470
O18A O 0.5023(2) 0.3041(2) 0.69322(18)
O19A O 0.7172(2) 0.6933(2) 0.49344(18)
O20A O 0.6044(2) 0.5681(2) 0.95734(19)
O21A O 0.7837(2) 0.7844(2) 0.66760(19)
O23A O 0.9593(2) 0.7541(2) 0.71786(19)
O24A O 0.5660(2) 0.4741(2) 0.70561(18)
O25A O 0.7090(2) 0.7556(2) 0.94590(19)
O26A O 0.6257(2) 0.7900(2) 0.81534(19)
O27A O 0.4471(2) 0.4772(2) 0.83536(19)
O29A O 0.6911(2) 0.2899(2) 0.73741(19)
N1A N 0.7298(3) 0.3705(3) 0.3410(2)
C1A C 0.9104(3) 0.5423(3) 0.8502(3)
C2A C 0.9104(3) 0.6848(3) 0.4705(3)
C3A C 0.6711(3) 0.3120(3) 0.2735(3)
H7A H 0.60020 0.30230 0.27060
C4A C 0.9668(4) 0.6339(3) 0.9032(3)
H8A H 0.98800 0.66700 0.86680
H9A H 0.92240 0.66110 0.93860
H10A H 1.02620 0.63200 0.93810
C5A C 0.8130(4) 0.2804(4) 0.2108(3)
H11A H 0.84120 0.24950 0.16600
C6A C 0.9793(4) 0.4951(4) 0.8001(3)
H12A H 0.94140 0.43700 0.76680
H13A H 1.00580 0.52590 0.76320
H14A H 1.03520 0.49210 0.83780
C7A C 0.8293(3) 0.3845(3) 0.3435(3)
H15A H 0.87150 0.42620 0.39130
C8A C 0.8672(4) 0.4933(4) 0.9075(3)
H16A H 0.82550 0.52560 0.94190
H17A H 0.82600 0.43660 0.87350
H18A H 0.92250 0.48680 0.94330
C9A C 0.7096(4) 0.2650(4) 0.2077(3)
H19A H 0.66600 0.22290 0.16110
C10A C 0.8740(4) 0.3409(4) 0.2795(3)
H20A H 0.94510 0.35280 0.28310
C11A C 0.6147(3) 0.1779(3) 0.4953(3)
C14A C 0.9887(3) 0.6361(4) 0.4886(4)
H23A H 0.99520 0.63970 0.54720
H24A H 0.96670 0.57580 0.45340
H25A H 1.05390 0.66180 0.47670
C16A C 0.5795(4) 0.1208(3) 0.4045(3)
H26A H 0.61130 0.14960 0.36810
H27A H 0.59850 0.06610 0.39600
H28A H 0.50630 0.11000 0.39130
C18A C 0.7307(3) 0.2006(3) 0.5145(3)
H30A H 0.75280 0.23390 0.57340
H31A H 0.75440 0.14770 0.50150
H32A H 0.75840 0.23450 0.48060
C19A C 0.9464(3) 0.7798(3) 0.5231(3)
H33A H 0.89770 0.81100 0.51010
H34A H 0.95260 0.78550 0.58210
H35A H 1.01200 0.80380 0.51060
C20A C 0.8975(4) 0.6772(4) 0.3777(3)
H36A H 0.87460 0.61660 0.34350
H37A H 0.84770 0.70820 0.36650
H38A H 0.96210 0.70210 0.36430
C22A C 0.5697(4) 0.1302(3) 0.5522(3)
H40A H 0.49620 0.11480 0.53840
H41A H 0.59420 0.07810 0.54420
H42A H 0.59010 0.16740 0.61020
Co2A* Co 1.33158(4) 1.22228(4) 0.41958(4)
Co3A* Co 1.38245(4) 1.29553(4) 0.60815(4)
O22A* O 0.2991(2) 0.1755(2) 0.59410(19)
O28A* O 0.2807(2) 0.1204(2) 0.4527(2)
#END
