
#######################################################################
#
#                 Cambridge Crystallographic Data Centre
#                                CCDC
#
#######################################################################
#
# If this CIF has been generated from an entry in the Cambridge
# Structural Database, then it will include bibliographic, chemical,
# crystal, experimental, refinement or atomic coordinate data resulting
# from the CCDC's data processing and validation procedures.
#
#######################################################################

data_CSD_CIF_TIZGUG
_audit_creation_date 2014-02-19
_audit_creation_method CSD-ConQuest-V1
_database_code_CSD TIZGUG
_database_code_depnum_ccdc_archive 'CCDC 943100'
_chemical_formula_sum 'C22 H114 Ce2 Cu5 Ge2 K2 N20 O99 W22'
_chemical_formula_moiety
;
(C14 H56 Ce2 Cu3 Ge2 N12 O86 W22 2-)n,2n(C4 H18 Cu1 N4 O1),2n(K1 1+),11n(H2 
O1)
;
_journal_coden_Cambridge 1133
_journal_volume 25
_journal_year 2014
_journal_page_first 667
_journal_name_full 'J.Cluster Sci. '
loop_
_publ_author_name
"Hai-Yan Zhao"
"Jun-Wei Zhao"
"Bai-Feng Yang"
"Qi Wei"
"Guo-Yu Yang"
_chemical_name_systematic
;
catena-[di-potassium bis(ethane-1,2-diamine)-aqua-copper 
(\m-oxalato)-hexapentacontakis(\m-oxo)-hexakis(ethane-1,2-diamine)-tetra-aqua-
docosaoxo-di-cerium-tri-copper-di-germanium-docosa-tungsten undecahydrate]
;
_cell_volume   3408.809
_exptl_crystal_colour 'black'
_exptl_crystal_density_diffrn 3.463
_exptl_crystal_description 'block'
_diffrn_ambient_temperature 293
#These two values have been output from a single CSD field.
_refine_ls_R_factor_gt 0.0583
_refine_ls_wR_factor_gt 0.0583
_symmetry_cell_setting triclinic
_symmetry_space_group_name_H-M 'P -1'
_symmetry_Int_Tables_number 2
loop_
_symmetry_equiv_pos_site_id
_symmetry_equiv_pos_as_xyz
1 x,y,z
2 -x,-y,-z
_cell_length_a 12.9206(2)
_cell_length_b 14.3802(5)
_cell_length_c 18.8502(6)
_cell_angle_alpha 81.248(3)
_cell_angle_beta 81.038(2)
_cell_angle_gamma 84.245(2)
_cell_formula_units_Z 1
loop_
_atom_type_symbol
_atom_type_radius_bond
C 0.68
H 0.23
Ce 2.04
Cu 1.32
Ge 1.17
K 2.03
N 0.68
O 0.68
W 1.62
loop_
_atom_site_label
_atom_site_type_symbol
_atom_site_fract_x
_atom_site_fract_y
_atom_site_fract_z
C1 C 1.0509(13) 0.5098(13) 0.4745(10)
C2 C 0.6744(16) 0.3338(13) 0.5721(12)
H1 H 0.60090 0.33110 0.59250
H2 H 0.70140 0.27180 0.56030
C3 C 0.6854(18) 0.4043(15) 0.5058(11)
H3 H 0.63520 0.39490 0.47470
H4 H 0.75550 0.39630 0.47920
C4 C 0.707(3) 0.664(2) 0.6928(17)
H5 H 0.65240 0.70130 0.71980
H6 H 0.76290 0.70390 0.67160
C5 C 0.748(3) 0.5855(18) 0.7425(15)
H7 H 0.80240 0.60720 0.76460
H8 H 0.69180 0.56650 0.78090
C6 C 0.593(3) 0.922(3) 0.6235(18)
H9 H 0.57150 0.93140 0.67380
H10 H 0.63550 0.86250 0.62370
C7 C 0.658(3) 0.993(3) 0.5914(19)
H11 H 0.72630 0.96440 0.57310
H12 H 0.66830 1.03080 0.62790
Ce1 Ce 0.91304(8) 0.71644(7) 0.44958(6)
Cu1 Cu 0.7224(2) 0.50097(17) 0.61987(13)
Cu2 Cu 0.50000 1.00000 0.50000
Ge1 Ge 0.76397(12) 0.76497(11) 0.25790(9)
N1 N 0.6660(12) 0.5018(11) 0.5265(9)
H13 H 0.69830 0.54330 0.49140
H14 H 0.59660 0.51910 0.53220
N2 N 0.7339(12) 0.3615(11) 0.6253(8)
H15 H 0.70810 0.33540 0.67020
H16 H 0.80190 0.34020 0.61600
N3 N 0.6645(14) 0.6313(13) 0.6362(9)
H17 H 0.67890 0.67110 0.59480
H18 H 0.59420 0.63210 0.64760
N4 N 0.7912(17) 0.5035(14) 0.7073(12)
H19 H 0.78020 0.45030 0.73860
H20 H 0.86090 0.50620 0.69420
N5 N 0.6171(14) 1.0540(14) 0.533(1)
H21 H 0.59390 1.11080 0.54640
H22 H 0.66900 1.06310 0.49540
N6 N 0.5006(14) 0.9128(14) 0.5932(10)
H23 H 0.49950 0.85300 0.58480
H24 H 0.44300 0.92660 0.62440
O1 O 0.7243(9) 0.7207(9) 0.4863(6)
O2 O 0.8580(9) 0.8849(8) 0.4250(7)
O3 O 0.8698(9) 0.6003(9) 0.3833(7)
O4 O 1.0013(9) 0.7521(9) 0.3255(7)
O5 O 0.5128(9) 0.7549(10) 0.4992(7)
O6 O 0.6448(9) 0.8945(9) 0.4278(7)
O7 O 0.6247(9) 0.6466(8) 0.3933(6)
O8 O 0.7582(9) 0.6428(8) 0.2592(7)
O9 O 0.7550(11) 1.0563(9) 0.3862(7)
O10 O 0.6667(9) 0.9775(9) 0.2895(6)
O11 O 0.5329(9) 0.8100(8) 0.3508(6)
O12 O 0.8723(9) 0.9523(9) 0.2782(7)
O13 O 0.3528(9) 0.8077(9) 0.2839(7)
O14 O 0.4982(8) 0.9385(8) 0.2329(6)
O15 O 0.5304(9) 0.6732(8) 0.2772(6)
O16 O 0.6607(8) 0.8232(8) 0.2156(6)
O17 O 0.7820(9) 0.9809(8) 0.1635(6)
O18 O 0.5977(11) 1.1041(9) 0.1736(8)
O19 O 0.5009(9) 0.7947(9) 0.1593(7)
O20 O 0.6189(9) 0.9407(9) 0.1057(7)
O21 O 0.5972(10) 0.8088(11) 0.0147(7)
O22 O 0.7803(8) 0.8174(9) 0.0743(6)
O23 O 0.6676(9) 0.6761(8) 0.1269(6)
O24 O 0.9734(9) 0.7642(9) -0.0087(6)
O25 O 0.9497(9) 0.9023(9) 0.0863(6)
O26 O 0.8797(8) 0.7944(8) 0.2031(6)
O27 O 0.7605(11) 0.5002(10) 0.0903(8)
O28 O 0.8685(10) 0.6503(8) 0.1115(7)
O29 O 1.0435(9) 0.7294(9) 0.1262(7)
O30 O 0.8557(9) 0.4965(8) 0.2135(7)
O31 O 0.6458(9) 0.5246(8) 0.2264(7)
O32 O 0.9596(11) 0.4334(9) 0.3372(8)
O33 O 0.9826(9) 0.6158(9) 0.2495(7)
O34 O 0.7395(8) 0.4893(8) 0.3434(6)
O35 O 1.1739(9) 0.7016(10) 0.2312(7)
O36 O 1.0482(8) 0.8711(8) 0.2035(6)
O37 O 0.9791(10) 1.0556(9) 0.1538(7)
O38 O 0.5231(10) 0.4923(9) 0.3633(8)
O39 O 0.7552(8) 0.7960(8) 0.3437(6)
O40 O 1.0635(10) 0.5935(10) 0.4470(8)
O41 O 1.1155(10) 0.4401(10) 0.4625(7)
O42 O 0.9257(18) 0.744(2) 0.5792(10)
O43 O 1.0802(11) 0.7906(12) 0.4614(10)
W1 W 0.62184(5) 0.76308(5) 0.43276(4)
W2 W 0.76983(6) 0.94137(5) 0.36566(4)
W3 W 0.48886(5) 0.80512(5) 0.26422(4)
W4 W 0.63525(5) 0.98557(5) 0.19711(4)
W5 W 0.63242(5) 0.80624(5) 0.09931(4)
W6 W 0.92531(5) 0.77122(5) 0.08103(4)
W7 W 0.76239(6) 0.56918(5) 0.15671(4)
W8 W 0.88105(6) 0.53505(5) 0.30897(4)
W9 W 1.04136(5) 0.73444(5) 0.23524(4)
W10 W 0.61722(5) 0.56808(5) 0.31986(4)
W11 W 0.92603(5) 0.94793(5) 0.17821(4)
K1 K 0.8172(5) 1.1994(5) 0.3568(4)
K2 K 0.9073(5) 0.3828(4) 0.0528(3)
O44 O 0.862(3) 0.445(4) -0.074(4)
O45 O 1.00000 0.50000 0.00000
O46 O 0.821(3) 1.211(2) 0.436(4)
O47 O 0.668(3) 1.281(3) 0.350(3)
C8 C 0.213(3) 1.160(2) 0.1688(19)
H25 H 0.27280 1.19830 0.15720
H26 H 0.15230 1.20030 0.18500
C9 C 0.231(4) 1.095(3) 0.222(3)
H27 H 0.16800 1.09550 0.25790
H28 H 0.28630 1.11520 0.24440
C10 C 0.303(2) 0.829(2) 0.0407(17)
H29 H 0.37050 0.84850 0.01530
H30 H 0.30350 0.76120 0.04250
C11 C 0.217(2) 0.877(2) 0.0017(14)
H31 H 0.23540 0.87280 -0.04970
H32 H 0.15330 0.84610 0.01940
Cu3 Cu 0.24128(19) 0.9877(2) 0.11039(14)
N7 N 0.1957(14) 1.1277(14) 0.1027(10)
H33 H 0.23400 1.15930 0.06420
H34 H 0.12750 1.13770 0.09700
N8 N 0.2591(16) 0.9994(16) 0.2112(10)
H35 H 0.21640 0.96170 0.24260
H36 H 0.32590 0.98180 0.21850
N9 N 0.2874(14) 0.8538(15) 0.1156(11)
H37 H 0.34790 0.84180 0.13450
H38 H 0.23850 0.81910 0.14390
N10 N 0.2004(16) 0.9771(15) 0.0127(12)
H39 H 0.13260 0.99790 0.01130
H40 H 0.24050 1.01210 -0.02270
O48 O 0.4163(11) 1.0200(12) 0.0738(9)
O49 O 0.0933(15) 0.9447(15) 0.3444(11)
O50 O 0.413(3) 0.595(2) 0.170(2)
C1A C 0.9491(13) 0.4902(13) 0.5255(10)
O40A O 0.9365(10) 0.4065(10) 0.5530(8)
O41A O 0.8845(10) 0.5599(10) 0.5375(7)
C6A C 0.407(3) 1.078(3) 0.3765(18)
H9A H 0.42850 1.06860 0.32620
H10A H 0.36450 1.13750 0.37630
C7A C 0.342(3) 1.007(3) 0.4086(19)
H11A H 0.27370 1.03560 0.42690
H12A H 0.33170 0.96920 0.37210
Ce1A Ce 0.08696(8) 1.28356(7) 0.55042(6)
Ge1A Ge 0.23603(12) 1.23503(11) 0.74210(9)
N5A N 0.3829(14) 0.9460(14) 0.467(1)
H21A H 0.40610 0.88920 0.45360
H22A H 0.33100 0.93690 0.50460
N6A N 0.4994(14) 1.0872(14) 0.4068(10)
H23A H 0.50050 1.14700 0.41520
H24A H 0.55700 1.07340 0.37560
O1A O 0.2757(9) 1.2793(9) 0.5137(6)
O2A O 0.1420(9) 1.1151(8) 0.5750(7)
O3A O 0.1302(9) 1.3997(9) 0.6167(7)
O4A O -0.0013(9) 1.2479(9) 0.6745(7)
O5A O 0.4872(9) 1.2451(10) 0.5008(7)
O6A O 0.3552(9) 1.1055(9) 0.5722(7)
O7A O 0.3753(9) 1.3534(8) 0.6067(6)
O8A O 0.2418(9) 1.3572(8) 0.7408(7)
O9A O 0.2450(11) 0.9437(9) 0.6138(7)
O10A O 0.3333(9) 1.0225(9) 0.7105(6)
O11A O 0.4671(9) 1.1900(8) 0.6492(6)
O12A O 0.1277(9) 1.0477(9) 0.7218(7)
O13A O 0.6472(9) 1.1923(9) 0.7161(7)
O14A O 0.5018(8) 1.0615(8) 0.7671(6)
O15A O 0.4696(9) 1.3268(8) 0.7228(6)
O16A O 0.3393(8) 1.1768(8) 0.7844(6)
O17A O 0.2180(9) 1.0191(8) 0.8365(6)
O18A O 0.4023(11) 0.8959(9) 0.8264(8)
O19A O 0.4991(9) 1.2053(9) 0.8407(7)
O20A O 0.3811(9) 1.0593(9) 0.8943(7)
O21A O 0.4028(10) 1.1912(11) 0.9853(7)
O22A O 0.2197(8) 1.1826(9) 0.9257(6)
O23A O 0.3324(9) 1.3239(8) 0.8731(6)
O24A O 0.0266(9) 1.2358(9) 1.0087(6)
O25A O 0.0503(9) 1.0977(9) 0.9137(6)
O26A O 0.1203(8) 1.2056(8) 0.7969(6)
O27A O 0.2395(11) 1.4998(10) 0.9097(8)
O28A O 0.1315(10) 1.3497(8) 0.8885(7)
O29A O -0.0435(9) 1.2706(9) 0.8738(7)
O30A O 0.1443(9) 1.5035(8) 0.7865(7)
O31A O 0.3542(9) 1.4754(8) 0.7736(7)
O32A O 0.0404(11) 1.5666(9) 0.6628(8)
O33A O 0.0174(9) 1.3842(9) 0.7505(7)
O34A O 0.2605(8) 1.5107(8) 0.6566(6)
O35A O -0.1739(9) 1.2984(10) 0.7688(7)
O36A O -0.0482(8) 1.1289(8) 0.7965(6)
O37A O 0.0209(10) 0.9444(9) 0.8462(7)
O38A O 0.4769(10) 1.5077(9) 0.6367(8)
O39A O 0.2448(8) 1.2040(8) 0.6563(6)
O42A O 0.0743(18) 1.256(2) 0.4208(10)
O43A O -0.0802(11) 1.2094(12) 0.5386(10)
W1A W 0.37816(5) 1.23692(5) 0.56724(4)
W2A W 0.23017(6) 1.05863(5) 0.63434(4)
W3A W 0.51114(5) 1.19488(5) 0.73578(4)
W4A W 0.36475(5) 1.01443(5) 0.80289(4)
W5A W 0.36758(5) 1.19376(5) 0.90069(4)
W6A W 0.07469(5) 1.22878(5) 0.91897(4)
W7A W 0.23761(6) 1.43082(5) 0.84329(4)
W8A W 0.11895(6) 1.46495(5) 0.69103(4)
W9A W -0.04136(5) 1.26556(5) 0.76476(4)
W10A W 0.38278(5) 1.43192(5) 0.68014(4)
W11A W 0.07397(5) 1.05207(5) 0.82179(4)
C2A C 1.3256(16) 0.6662(13) 0.4279(12)
H1A H 1.39910 0.66890 0.40750
H2A H 1.29860 0.72820 0.43970
C3A C 1.3146(18) 0.5957(15) 0.4942(11)
H3A H 1.36480 0.60510 0.52530
H4A H 1.24450 0.60370 0.52080
C4A C 1.293(3) 0.336(2) 0.3072(17)
H5A H 1.34760 0.29870 0.28020
H6A H 1.23710 0.29610 0.32840
C5A C 1.252(3) 0.4145(18) 0.2575(15)
H7A H 1.19760 0.39280 0.23540
H8A H 1.30820 0.43350 0.21910
Cu1A Cu 1.2776(2) 0.49903(17) 0.38013(13)
N1A N 1.3340(12) 0.4982(11) 0.4735(9)
H13A H 1.30170 0.45670 0.50860
H14A H 1.40340 0.48090 0.46780
N2A N 1.2661(12) 0.6385(11) 0.3747(8)
H15A H 1.29190 0.66460 0.32980
H16A H 1.19810 0.65980 0.38400
N3A N 1.3355(14) 0.3687(13) 0.3638(9)
H17A H 1.32110 0.32890 0.40520
H18A H 1.40580 0.36790 0.35240
N4A N 1.2088(17) 0.4965(14) 0.2927(12)
H19A H 1.21980 0.54970 0.26140
H20A H 1.13910 0.49380 0.30580
Ce1A* Ce 1.08696(8) 0.28356(7) 0.55042(6)
O40A* O -0.0635(10) 1.4065(10) 0.5530(8)
O41* O 0.1155(10) 1.4401(10) 0.4625(7)
#END
