
#######################################################################
#
#                 Cambridge Crystallographic Data Centre
#                                CCDC
#
#######################################################################
#
# If this CIF has been generated from an entry in the Cambridge
# Structural Database, then it will include bibliographic, chemical,
# crystal, experimental, refinement or atomic coordinate data resulting
# from the CCDC's data processing and validation procedures.
#
#######################################################################

data_CSD_CIF_TOCXUH
_audit_creation_date 2019-02-14
_audit_creation_method CSD-ConQuest-V1
_database_code_CSD TOCXUH
_database_code_depnum_ccdc_archive 'CCDC 1876930'
_chemical_formula_sum 'C39 H50 N2 O26 Zn3'
_chemical_formula_moiety
;
(C32 H12 O18 Zn3 2-)n,2(C2 H8 N1 1+),3(C1 H4 O1),5(H2 O1)
;
_journal_coden_Cambridge 1695
_journal_volume 7
_journal_year 2019
_journal_page_first 2880
_journal_name_full 'J.Mater.Chem.C '
loop_
_publ_author_name
"Huijun Li"
"Qingqing Li"
"Zhouqing Xu"
_chemical_name_systematic
;
catena-[bis(dimethylammonium) 
bis(\m-5,5'-oxydi(benzene-1,3-dicarboxylato))-tri-zinc(ii) methanol solvate 
pentahydrate]
;
_chemical_name_common
;
HPU-14
;
_cell_volume   4280.554
_exptl_crystal_colour 'colorless'
_exptl_crystal_density_diffrn 1.798
_exptl_special_details
;
The dimethylammonium cation and solvent molecules are not located

;
_exptl_crystal_description 'block'
_diffrn_ambient_temperature 296
#These two values have been output from a single CSD field.
_refine_ls_R_factor_gt 0.0427
_refine_ls_wR_factor_gt 0.0427
_symmetry_cell_setting orthorhombic
_symmetry_space_group_name_H-M 'P b c a'
_symmetry_Int_Tables_number 61
loop_
_symmetry_equiv_pos_site_id
_symmetry_equiv_pos_as_xyz
1 x,y,z
2 1/2-x,-y,1/2+z
3 -x,1/2+y,1/2-z
4 1/2+x,1/2-y,-z
5 -x,-y,-z
6 -1/2+x,y,-1/2-z
7 x,-1/2-y,-1/2+z
8 -1/2-x,-1/2+y,z
_cell_length_a 16.274(5)
_cell_length_b 10.787(3)
_cell_length_c 24.384(8)
_cell_angle_alpha 90
_cell_angle_beta 90
_cell_angle_gamma 90
_cell_formula_units_Z 4
loop_
_atom_type_symbol
_atom_type_radius_bond
C 0.68
H 0.23
O 0.68
Zn 1.22
loop_
_atom_site_label
_atom_site_type_symbol
_atom_site_fract_x
_atom_site_fract_y
_atom_site_fract_z
Zn1 Zn 0.04695(2) 0.63061(4) 0.378880(14)
Zn2 Zn 0.00000 0.50000 0.50000
C1 C 0.26886(19) 0.5114(3) 0.57342(14)
C2 C 0.21716(19) 0.5260(3) 0.52934(13)
H1 H 0.17400 0.47090 0.52380
C3 C 0.22957(18) 0.6225(3) 0.49351(13)
C4 C 0.1689(2) 0.6433(4) 0.44870(14)
C5 C 0.2961(2) 0.6996(3) 0.50065(13)
H2 H 0.30540 0.76380 0.47590
C6 C 0.34876(19) 0.6826(3) 0.54397(13)
C7 C 0.42048(19) 0.7673(3) 0.55219(14)
C8 C 0.3345(2) 0.5891(3) 0.58111(14)
H3 H 0.36900 0.57870 0.61120
C9 C 0.3065(2) 0.3586(3) 0.63913(14)
C10 C 0.3162(2) 0.3829(3) 0.69345(14)
H4 H 0.28610 0.44570 0.71010
C11 C 0.3713(2) 0.3135(3) 0.72358(14)
C12 C 0.3843(2) 0.3459(4) 0.78228(15)
C13 C 0.4139(2) 0.2191(3) 0.69838(14)
H5 H 0.44930 0.17010 0.71900
C14 C 0.4052(2) 0.1958(3) 0.64319(13)
C15 C 0.4516(2) 0.0949(3) 0.61532(14)
C16 C 0.3509(2) 0.2676(3) 0.61335(13)
H6 H 0.34460 0.25440 0.57590
O1 O 0.24571(14) 0.4212(2) 0.61042(9)
O2 O 0.10606(13) 0.5713(2) 0.44557(9)
O3 O 0.17760(18) 0.7278(3) 0.41617(12)
O4 O 0.43386(13) 0.8451(2) 0.51587(10)
O5 O 0.46113(15) 0.7547(2) 0.59509(10)
O6 O 0.45302(14) 0.0958(2) 0.56459(9)
O7 O 0.48620(16) 0.0178(2) 0.64525(10)
O8 O 0.43690(15) 0.2836(3) 0.80865(9)
O9 O 0.3468(2) 0.4307(3) 0.80329(12)
Zn1D Zn -0.04695(2) 0.36939(4) 0.621120(14)
C1D C -0.26886(19) 0.4886(3) 0.42658(14)
C2D C -0.21716(19) 0.4740(3) 0.47066(13)
H1D H -0.17400 0.52910 0.47620
C3D C -0.22957(18) 0.3775(3) 0.50649(13)
C4D C -0.1689(2) 0.3567(4) 0.55130(14)
C5D C -0.2961(2) 0.3004(3) 0.49935(13)
H2D H -0.30540 0.23620 0.52410
C6D C -0.34876(19) 0.3174(3) 0.45603(13)
C7D C -0.42048(19) 0.2327(3) 0.44781(14)
C8D C -0.3345(2) 0.4109(3) 0.41889(14)
H3D H -0.36900 0.42130 0.38880
C9D C -0.3065(2) 0.6414(3) 0.36087(14)
C10D C -0.3162(2) 0.6171(3) 0.30655(14)
H4D H -0.28610 0.55430 0.28990
C11D C -0.3713(2) 0.6865(3) 0.27642(14)
C12D C -0.3843(2) 0.6541(4) 0.21772(15)
C13D C -0.4139(2) 0.7809(3) 0.30162(14)
H5D H -0.44930 0.82990 0.28100
C14D C -0.4052(2) 0.8042(3) 0.35681(13)
C15D C -0.4516(2) 0.9051(3) 0.38468(14)
C16D C -0.3509(2) 0.7324(3) 0.38665(13)
H6D H -0.34460 0.74560 0.42410
O1D O -0.24571(14) 0.5788(2) 0.38958(9)
O2D O -0.10606(13) 0.4287(2) 0.55443(9)
O3D O -0.17760(18) 0.2722(3) 0.58383(12)
O4D O -0.43386(13) 0.1549(2) 0.48413(10)
O5D O -0.46113(15) 0.2453(2) 0.40491(10)
O6D O -0.45302(14) 0.9042(2) 0.43541(9)
O7D O -0.48620(16) 0.9822(2) 0.35475(10)
O8D O -0.43690(15) 0.7164(3) 0.19135(9)
O9D O -0.3468(2) 0.5693(3) 0.19671(12)
Zn1A Zn 0.45305(2) 0.36939(4) 0.878880(14)
Zn1C Zn 0.54695(2) -0.13061(4) 0.621120(14)
Zn1C* Zn 0.54695(2) 0.86939(4) 0.621120(14)
Zn1E Zn -0.45305(2) 0.63061(4) 0.121120(14)
Zn1G Zn -0.54695(2) 0.13061(4) 0.378880(14)
Zn1G* Zn -0.54695(2) 1.13061(4) 0.378880(14)
Zn2C Zn -0.50000 0.00000 0.50000
Zn2C* Zn -0.50000 1.00000 0.50000
Zn2C** Zn 0.50000 0.00000 0.50000
Zn2C*** Zn 0.50000 1.00000 0.50000
O4C O -0.06614(13) 0.6549(2) 0.48413(10)
O4G O 0.06614(13) 0.3451(2) 0.51587(10)
O5C O -0.03887(15) 0.7453(2) 0.40491(10)
O5G O 0.03887(15) 0.2547(2) 0.59509(10)
O6C O -0.04698(14) 0.4042(2) 0.43541(9)
O6G O 0.04698(14) 0.5958(2) 0.56459(9)
O7C O -0.01380(16) 0.4822(2) 0.35475(10)
O7G O 0.01380(16) 0.5178(2) 0.64525(10)
O8A O 0.06310(15) 0.7164(3) 0.30865(9)
O8E O -0.06310(15) 0.2836(3) 0.69135(9)
#END
