
#######################################################################
#
#                 Cambridge Crystallographic Data Centre
#                                CCDC
#
#######################################################################
#
# If this CIF has been generated from an entry in the Cambridge
# Structural Database, then it will include bibliographic, chemical,
# crystal, experimental, refinement or atomic coordinate data resulting
# from the CCDC's data processing and validation procedures.
#
#######################################################################

data_CSD_CIF_TOGGOO
_audit_creation_date 2019-06-26
_audit_creation_method CSD-ConQuest-V1
_database_code_CSD TOGGOO
_database_code_depnum_ccdc_archive 'CCDC 1892912'
_chemical_formula_sum 'C161.5 H279.5 Cu12 N30.5 Ni8 O141.5 Pd4'
_chemical_formula_moiety
;
(C39 H36 Cu3 N6 Ni2 O21 2-)4n,57(H2 O1),0.25(C22 H14 N2 O2),4(Pd1 2+),6(H3 N1)
;
_journal_coden_Cambridge 4
_journal_volume 141
_journal_year 2019
_journal_page_first 10350
_journal_name_full 'J.Am.Chem.Soc. '
loop_
_publ_author_name
"R.Adam"
"M.Mon"
"R.Greco"
"L.H.G.Kalinke"
"A.Vidal-Moya"
"A.Fernandez"
"R.E.P.Winpenny"
"A.Domenech-Carbo"
"A.Leyva-Perez"
"D.Armentano"
"E.Pardo"
"J.Ferrando-Soria"
_chemical_name_systematic
;
catena-[tetra-palladium(ii) 
tetrakis(tris(\m-2,2'-((2,4,6-trimethyl-1,3-phenylene)diimido)bis(oxoacetato))
-triaqua-tri-copper(ii)-di-nickel(ii)) methyl 
3,5-bis[(pyridin-3-yl)ethynyl]benzoate ammonia hydrate unknown solvate]
;
_cell_volume  18794.831
_exptl_crystal_colour 'green'
_exptl_crystal_density_diffrn 1.161
_exptl_special_details
;
The structure is disordered, the 2D is drawn to present each components

;
_exptl_crystal_description 'prism'
_diffrn_ambient_temperature 90
_refine_special_details
;
The structure is disordered. Disordered solvent molecules were not modelled 
and the disordered density was taken into account using the SQUEEZE/PLATON 
procedure.
;
#These two values have been output from a single CSD field.
_refine_ls_R_factor_gt 0.1275
_refine_ls_wR_factor_gt 0.1275
_symmetry_cell_setting tetragonal
_symmetry_space_group_name_H-M 'P 4/m m m'
_symmetry_Int_Tables_number 123
loop_
_symmetry_equiv_pos_site_id
_symmetry_equiv_pos_as_xyz
1 x,y,z
2 -x,-y,z
3 -y,x,z
4 y,-x,z
5 -x,y,-z
6 x,-y,-z
7 y,x,-z
8 -y,-x,-z
9 -x,-y,-z
10 x,y,-z
11 y,-x,-z
12 -y,x,-z
13 x,-y,z
14 -x,y,z
15 -y,-x,z
16 y,x,z
_cell_length_a 35.258(10)
_cell_length_b 35.258(10)
_cell_length_c 15.119(4)
_cell_angle_alpha 90
_cell_angle_beta 90
_cell_angle_gamma 90
_cell_formula_units_Z 2
loop_
_atom_type_symbol
_atom_type_radius_bond
C 0.68
Cu 1.32
N 0.68
Ni 1.24
O 0.68
Pd 1.39
loop_
_atom_site_label
_atom_site_type_symbol
_atom_site_fract_x
_atom_site_fract_y
_atom_site_fract_z
Cu1 Cu 0.25892(5) 0.25892(5) 1.27152(13)
Cu2 Cu 0.16811(6) 0.50000 1.22463(12)
Cu3 Cu 0.00000 0.34941(7) 1.23220(13)
Ni1 Ni 0.14752(4) 0.35391(5) 1.25096(10)
N1 N 0.2381(3) 0.3008(2) 1.3409(6)
N2 N 0.1834(3) 0.4537(3) 1.1595(6)
N3 N 0.0431(3) 0.3645(3) 1.1589(6)
O1 O 0.1071(2) 0.3626(3) 1.1645(5)
O2 O 0.1026(2) 0.3280(2) 1.3167(5)
O3 O 0.0382(2) 0.3270(2) 1.3061(5)
O4 O 0.1816(2) 0.3915(3) 1.1805(5)
O5 O 0.13501(19) 0.4026(2) 1.3133(5)
O6 O 0.1419(2) 0.4642(3) 1.2996(5)
O7 O 0.1875(2) 0.3404(2) 1.3373(4)
O8 O 0.1663(2) 0.3065(3) 1.1900(5)
O9 O 0.2157(2) 0.2682(3) 1.1976(5)
C1 C 0.0739(4) 0.3556(4) 1.1928(8)
C2 C 0.0673(4) 0.3332(4) 1.2803(8)
C3 C 0.2073(4) 0.3141(4) 1.3078(8)
C4 C 0.1979(4) 0.2951(4) 1.2228(8)
C5 C 0.1732(4) 0.4250(4) 1.1992(7)
C6 C 0.1481(4) 0.4325(5) 1.2725(9)
C7 C 0.2500(3) 0.3143(4) 1.4218(7)
C8 C 0.2754(5) 0.3429(5) 1.4206(9)
C9 C 0.2913(7) 0.3627(8) 1.50000
C10 C 0.2354(4) 0.3037(4) 1.50000
C11 C 0.2052(6) 0.2765(7) 1.50000
C12 C 0.2891(4) 0.3640(5) 1.3334(9)
C13 C 0.2047(3) 0.4511(4) 1.0798(6)
C14 C 0.2418(3) 0.4504(4) 1.0802(7)
C15 C 0.2612(5) 0.4484(6) 1.00000
C16 C 0.1846(4) 0.4515(6) 1.00000
C17 C 0.1388(4) 0.4506(6) 1.00000
C18 C 0.2663(3) 0.4488(4) 1.1660(8)
C19 C 0.0448(3) 0.3855(4) 1.0801(7)
C20 C 0.0471(3) 0.4221(4) 1.0812(7)
C21 C 0.0485(5) 0.4416(4) 1.00000
C22 C 0.0447(5) 0.3622(4) 1.00000
C23 C 0.0456(6) 0.3187(5) 1.00000
C24 C 0.0500(5) 0.4429(4) 1.1639(11)
O10 O 0.2965(4) 0.2965(4) 1.1483(14)
O11 O 0.2181(6) 0.50000 1.3422(15)
O12 O 0.00000 0.3963(4) 1.3386(9)
O13 O 0.3905(9) 0.1851(9) 0.50000
O14 O 0.50000 0.0717(7) 0.6111(17)
O15 O 0.4221(5) 0.0696(4) 0.5964(11)
O16 O 0.1911(5) 0.0450(14) 0.50000
Pd1 Pd 0.18492(15) 0.30751(16) 1.00000
N4 N 0.2081(9) 0.2559(5) 1.00000
N5 N 0.1551(6) 0.3551(3) 1.00000
N6 N 0.2347(4) 0.3339(8) 1.00000
C25 C 0.0727(3) 0.2271(4) 1.0656(11)
C26 C 0.0578(4) 0.2666(4) 1.1114(19)
C27 C 0.0817(7) 0.3060(3) 1.097(2)
C28 C 0.1118(6) 0.2270(4) 0.9997(6)
C29 C 0.1205(6) 0.3060(4) 1.0378(11)
N7 N 0.1402(4) 0.2723(5) 1.00001(8)
C30 C 0.07809(17) 0.1991(2) 1.1314(7)
C31 C 0.08263(12) 0.17541(9) 1.1871(6)
C32 C 0.09380(7) 0.14194(7) 1.2356(2)
C33 C 0.11621(10) 0.11621(10) 1.1856(2)
C34 C 0.08478(5) 0.13290(5) 1.32464(17)
C35 C 0.09841(6) 0.09841(6) 1.36126(13)
C36 C 0.08960(9) 0.08960(9) 1.44814(14)
O17 O 0.06848(13) 0.11251(14) 1.50000
Pd2 Pd 0.3013(5) 0.0478(5) 0.50000
O18 O 0.2532(14) 0.0986(15) 0.50000
O19 O 0.3343(11) 0.00000 0.50000
N1I N 0.2381(3) 0.3008(2) 1.6591(6)
O7I O 0.1875(2) 0.3404(2) 1.6627(4)
O8I O 0.1663(2) 0.3065(3) 1.8100(5)
O9I O 0.2157(2) 0.2682(3) 1.8024(5)
C3I C 0.2073(4) 0.3141(4) 1.6922(8)
C4I C 0.1979(4) 0.2951(4) 1.7772(8)
C7I C 0.2500(3) 0.3143(4) 1.5782(7)
C8I C 0.2754(5) 0.3429(5) 1.5794(9)
C12I C 0.2891(4) 0.3640(5) 1.6666(9)
N2I N 0.1834(3) 0.4537(3) 0.8405(6)
O4I O 0.1816(2) 0.3915(3) 0.8195(5)
O5I O 0.13501(19) 0.4026(2) 0.6867(5)
O6I O 0.1419(2) 0.4642(3) 0.7004(5)
C5I C 0.1732(4) 0.4250(4) 0.8008(7)
C6I C 0.1481(4) 0.4325(5) 0.7275(9)
C13I C 0.2047(3) 0.4511(4) 0.9202(6)
C14I C 0.2418(3) 0.4504(4) 0.9198(7)
C18I C 0.2663(3) 0.4488(4) 0.8340(8)
N3I N 0.0431(3) 0.3645(3) 0.8411(6)
O1I O 0.1071(2) 0.3626(3) 0.8355(5)
O2I O 0.1026(2) 0.3280(2) 0.6833(5)
O3I O 0.0382(2) 0.3270(2) 0.6939(5)
C1I C 0.0739(4) 0.3556(4) 0.8072(8)
C2I C 0.0673(4) 0.3332(4) 0.7197(8)
C19I C 0.0448(3) 0.3855(4) 0.9199(7)
C20I C 0.0471(3) 0.4221(4) 0.9188(7)
C24I C 0.0500(5) 0.4429(4) 0.8361(11)
Ni1I Ni 0.14752(4) 0.35391(5) 1.74904(10)
Cu1F Cu 0.25892(5) 0.25892(5) 1.72848(13)
Cu2E Cu 0.16811(6) 0.50000 0.77537(12)
Cu3D Cu 0.00000 0.34941(7) 0.76780(13)
Ni1I* Ni 0.14752(4) 0.35391(5) 0.74904(10)
N1O N 0.3008(3) 0.2381(2) 1.3409(6)
N2L N 0.1834(3) 0.5463(3) 1.1595(6)
N3M N -0.0431(3) 0.3645(3) 1.1589(6)
O1I* O 0.1071(2) 0.3626(3) 1.8355(5)
O2I* O 0.1026(2) 0.3280(2) 1.6833(5)
O3M O -0.0382(2) 0.3270(2) 1.3061(5)
O4I* O 0.1816(2) 0.3915(3) 1.8195(5)
O5I* O 0.13501(19) 0.4026(2) 1.6867(5)
O6L O 0.1419(2) 0.5358(3) 1.2996(5)
O9O O 0.2682(2) 0.2157(3) 1.1976(5)
C25F C 0.2271(3) 0.0727(4) 1.9344(11)
C26F C 0.2666(4) 0.0578(4) 1.8886(19)
C27F C 0.3060(7) 0.0817(3) 1.903(2)
C28F C 0.2270(6) 0.1118(4) 2.0003(6)
C29F C 0.3060(6) 0.1205(4) 1.9622(11)
N7F N 0.2723(4) 0.1402(5) 1.99999(8)
C30F C 0.19910(17) 0.07809(20) 1.8686(7)
C31F C 0.17541(12) 0.08263(9) 1.8129(6)
C32F C 0.14194(7) 0.09380(7) 1.7644(2)
C33F C 0.11621(10) 0.11621(10) 1.8144(2)
C34F C 0.13290(5) 0.08478(5) 1.67536(17)
C35F C 0.09841(6) 0.09841(6) 1.63874(13)
C36F C 0.08960(9) 0.08960(9) 1.55186(14)
O17F O 0.11251(13) 0.06848(14) 1.50000
C25I C 0.0727(3) 0.2271(4) 1.9344(11)
C26I C 0.0578(4) 0.2666(4) 1.8886(19)
C27I C 0.0817(7) 0.3060(3) 1.903(2)
C28* C 0.1118(6) 0.2270(4) 1.9997(6)
C29I C 0.1205(6) 0.3060(4) 1.9622(11)
N7* N 0.1402(4) 0.2723(5) 2.00001(8)
C30I C 0.07809(17) 0.1991(2) 1.8686(7)
C31I C 0.08263(12) 0.17541(9) 1.8129(6)
C32I C 0.09380(7) 0.14194(7) 1.7644(2)
C34I C 0.08478(5) 0.13290(5) 1.67536(17)
C25O C 0.2271(3) 0.0727(4) 1.0656(11)
C26O C 0.2666(4) 0.0578(4) 1.1114(19)
C27O C 0.3060(7) 0.0817(3) 1.097(2)
C28F* C 0.2270(6) 0.1118(4) 1.0003(6)
C29O C 0.3060(6) 0.1205(4) 1.0378(11)
N7F* N 0.2723(4) 0.1402(5) 0.99999(8)
C30O C 0.19910(17) 0.07809(20) 1.1314(7)
C31O C 0.17541(12) 0.08263(9) 1.1871(6)
C32O C 0.14194(7) 0.09380(7) 1.2356(2)
C34O C 0.13290(5) 0.08478(5) 1.32464(17)
Pd1F Pd 0.30751(15) 0.18492(16) 1.00000
N4F N 0.2559(9) 0.2081(5) 1.00000
N5F N 0.3551(6) 0.1551(3) 1.00000
N6F N 0.3339(4) 0.2347(8) 1.00000
C25F* C 0.2271(3) 0.0727(4) 0.9344(11)
C26F* C 0.2666(4) 0.0578(4) 0.8886(19)
C27F* C 0.3060(7) 0.0817(3) 0.903(2)
C29F* C 0.3060(6) 0.1205(4) 0.9622(11)
C30F* C 0.19910(17) 0.07809(20) 0.8686(7)
C31F* C 0.17541(12) 0.08263(9) 0.8129(6)
C32F* C 0.14194(7) 0.09380(7) 0.7644(2)
C33F* C 0.11621(10) 0.11621(10) 0.8144(2)
C34F* C 0.13290(5) 0.08478(5) 0.67536(17)
C35F* C 0.09841(6) 0.09841(6) 0.63874(13)
C36F* C 0.08960(9) 0.08960(9) 0.55186(14)
O17F* O 0.11251(13) 0.06848(14) 0.50000
C25* C 0.0727(3) 0.2271(4) 0.0656(11)
C26* C 0.0578(4) 0.2666(4) 0.1114(19)
C27* C 0.0817(7) 0.3060(3) 0.097(2)
C28** C 0.1118(6) 0.2270(4) -0.0003(6)
C29* C 0.1205(6) 0.3060(4) 0.0378(11)
N7** N 0.1402(4) 0.2723(5) 0.00001(8)
C30* C 0.07809(17) 0.1991(2) 0.1314(7)
C31* C 0.08263(12) 0.17541(9) 0.1871(6)
C32* C 0.09380(7) 0.14194(7) 0.2356(2)
C33* C 0.11621(10) 0.11621(10) 0.1856(2)
C34* C 0.08478(5) 0.13290(5) 0.32464(17)
C35* C 0.09841(6) 0.09841(6) 0.36126(13)
C36* C 0.08960(9) 0.08960(9) 0.44814(14)
O17* O 0.06848(13) 0.11251(14) 0.50000
C25O* C 0.2271(3) 0.0727(4) 0.0656(11)
C26O* C 0.2666(4) 0.0578(4) 0.1114(19)
C27O* C 0.3060(7) 0.0817(3) 0.097(2)
C28F** C 0.2270(6) 0.1118(4) 0.0003(6)
C29O* C 0.3060(6) 0.1205(4) 0.0378(11)
N7F** N 0.2723(4) 0.1402(5) -0.00001(8)
C30O* C 0.19910(17) 0.07809(20) 0.1314(7)
C31O* C 0.17541(12) 0.08263(9) 0.1871(6)
C32O* C 0.14194(7) 0.09380(7) 0.2356(2)
C34O* C 0.13290(5) 0.08478(5) 0.32464(17)
C25I* C 0.0727(3) 0.2271(4) 0.9344(11)
C26I* C 0.0578(4) 0.2666(4) 0.8886(19)
C27I* C 0.0817(7) 0.3060(3) 0.903(2)
C29I* C 0.1205(6) 0.3060(4) 0.9622(11)
C30I* C 0.07809(17) 0.1991(2) 0.8686(7)
C31I* C 0.08263(12) 0.17541(9) 0.8129(6)
C32I* C 0.09380(7) 0.14194(7) 0.7644(2)
C34I* C 0.08478(5) 0.13290(5) 0.67536(17)
Pd1* Pd 0.18492(15) 0.30751(16) 0.00000
Pd1** Pd 0.18492(15) 0.30751(16) 2.00000
Pd1F* Pd 0.30751(15) 0.18492(16) 0.00000
Pd1F** Pd 0.30751(15) 0.18492(16) 2.00000
C25** C 0.0727(3) 0.2271(4) 2.0656(11)
C25F** C 0.2271(3) 0.0727(4) -0.0656(11)
C25I** C 0.0727(3) 0.2271(4) -0.0656(11)
C25O** C 0.2271(3) 0.0727(4) 2.0656(11)
C29** C 0.1205(6) 0.3060(4) 2.0378(11)
C29F** C 0.3060(6) 0.1205(4) -0.0378(11)
C29I** C 0.1205(6) 0.3060(4) -0.0378(11)
C29O** C 0.3060(6) 0.1205(4) 2.0378(11)
Pd2E Pd 0.3013(5) -0.0478(5) 0.50000
O18E O 0.2532(14) -0.0986(15) 0.50000
#END
