
#######################################################################
#
#                 Cambridge Crystallographic Data Centre
#                                CCDC
#
#######################################################################
#
# If this CIF has been generated from an entry in the Cambridge
# Structural Database, then it will include bibliographic, chemical,
# crystal, experimental, refinement or atomic coordinate data resulting
# from the CCDC's data processing and validation procedures.
#
#######################################################################

data_CSD_CIF_TOHJIL
_audit_creation_date 2014-07-18
_audit_creation_method CSD-ConQuest-V1
_database_code_CSD TOHJIL
_database_code_depnum_ccdc_archive 'CCDC 993725'
_chemical_formula_sum 'C20 H50 N4 O36 P8 U5'
_chemical_formula_moiety
;
(C8 H18 O34 P8 U5 4-)n,2(C6 H14 N2 2+),2(H2 O1)
;
_journal_coden_Cambridge 1295
_journal_volume 46
_journal_year 2014
_journal_page_first 110
_journal_name_full 'Inorg.Chem.Commun. '
loop_
_publ_author_name
"Wan-Guo Tian"
"Xiu-Yun Yang"
"Yun-Hui Li"
"Xiao-Xiao Liu"
"Weiting Yang"
"Tao Tian"
_chemical_name_systematic
;
catena-[bis(1,4-diazoniabicyclo[2.2.2]octane) bis(\m~5~-hydrogen 
ethane-1,2-diylbis(phosphonato))-bis(\m~5~-ethane-1,2-diylbis(phosphonato))-de
caoxo-penta-uranium dihydrate]
;
_cell_volume   1293.872
_exptl_crystal_density_diffrn 3.03
_diffrn_ambient_temperature 293
#These two values have been output from a single CSD field.
_refine_ls_R_factor_gt 0.0457
_refine_ls_wR_factor_gt 0.0457
_symmetry_cell_setting triclinic
_symmetry_space_group_name_H-M 'P -1'
_symmetry_Int_Tables_number 2
loop_
_symmetry_equiv_pos_site_id
_symmetry_equiv_pos_as_xyz
1 x,y,z
2 -x,-y,-z
_cell_length_a 9.8792(15)
_cell_length_b 12.0798(18)
_cell_length_c 12.2591(18)
_cell_angle_alpha 109.808(2)
_cell_angle_beta 100.045(2)
_cell_angle_gamma 102.515(2)
_cell_formula_units_Z 1
loop_
_atom_type_symbol
_atom_type_radius_bond
C 0.68
H 0.23
N 0.68
O 0.68
P 1.05
U 1.96
loop_
_atom_site_label
_atom_site_type_symbol
_atom_site_fract_x
_atom_site_fract_y
_atom_site_fract_z
U1 U 0.89620(5) 0.17411(4) 0.52161(4)
U2 U 1.13682(5) 0.33724(4) 0.98842(4)
U3 U 0.50000 0.50000 0.50000
P1 P 0.7428(4) 0.3379(3) 0.3662(3)
P2 P 1.0171(4) 0.5425(3) 0.2085(3)
P3 P 1.0355(4) 0.0474(3) 0.7283(3)
P4 P 0.7228(4) -0.2415(3) 0.7794(3)
O1 O 0.6466(11) 0.2306(9) 0.2511(9)
H1 H 0.56220 0.22900 0.24570
O2 O 0.6586(9) 0.3872(8) 0.4525(7)
O3 O 0.8625(9) 0.2965(8) 0.4216(8)
O4 O 1.1289(9) 0.5056(7) 0.1429(7)
O5 O 0.8873(10) 0.5488(8) 0.1244(8)
O6 O 1.0937(10) 0.6673(8) 0.3091(7)
O7 O 1.1331(9) 0.1696(8) 0.8259(7)
O8 O 0.9214(9) 0.0655(8) 0.6396(7)
O9 O 1.1327(9) -0.0195(7) 0.6639(7)
O10 O 0.6204(10) -0.1692(9) 0.8226(9)
O11 O 0.6436(9) -0.3720(8) 0.6886(7)
O12 O 0.8281(10) -0.2414(8) 0.8865(8)
O13 O 1.0835(9) 0.2215(8) 0.5464(7)
O14 O 0.7089(10) 0.1156(8) 0.4983(7)
O15 O 1.3263(9) 0.4016(7) 1.0191(7)
O16 O 0.9472(9) 0.2802(8) 0.9564(8)
O17 O 0.4196(10) 0.3965(8) 0.5592(8)
C1 C 0.8295(15) 0.4567(11) 0.3256(12)
H2 H 0.75740 0.47080 0.27140
H3 H 0.87030 0.53200 0.39750
C2 C 0.9498(15) 0.4314(12) 0.2646(11)
H4 H 0.91280 0.35100 0.19870
H5 H 1.02850 0.42880 0.32250
C3 C 0.9434(14) -0.0442(11) 0.7989(12)
H6 H 1.01420 -0.06330 0.84930
H7 H 0.89580 0.00450 0.85070
C4 C 0.8339(16) -0.1623(12) 0.7107(11)
H8 H 0.88350 -0.21650 0.66780
H9 H 0.77250 -0.14430 0.65210
O18 O -0.296(2) 0.0765(15) 0.0278(15)
N1 N -0.5836(13) 0.1299(12) -0.2392(11)
H10 H -0.67240 0.07370 -0.26610
N2 N -0.3404(13) 0.2788(11) -0.1685(11)
H11 H -0.25130 0.33440 -0.14220
C5 C -0.5387(16) 0.1801(14) -0.1073(13)
H12 H -0.51750 0.11800 -0.07940
H13 H -0.61490 0.20590 -0.07520
C6 C -0.4049(18) 0.2898(14) -0.0654(13)
H14 H -0.43030 0.36610 -0.03960
H15 H -0.33640 0.29030 0.00200
C7 C -0.4770(16) 0.0672(15) -0.2859(16)
H16 H -0.48960 -0.00960 -0.27420
H17 H -0.49250 0.04850 -0.37130
C8 C -0.3287(15) 0.1510(14) -0.2191(14)
H18 H -0.26700 0.14580 -0.27300
H19 H -0.28810 0.12830 -0.15480
C9 C -0.5886(16) 0.2290(16) -0.2861(17)
H20 H -0.64080 0.28160 -0.24490
H21 H -0.63610 0.19300 -0.37170
C10 C -0.4345(15) 0.3021(14) -0.2625(14)
H22 H -0.40450 0.27790 -0.33620
H23 H -0.42600 0.38930 -0.23530
U1A U 0.10380(5) -0.17411(4) 0.47839(4)
U2A U -0.13682(5) -0.33724(4) 0.01158(4)
P1A P 0.2572(4) -0.3379(3) 0.6338(3)
P2A P -0.0171(4) -0.5425(3) 0.7915(3)
P3A P -0.0355(4) -0.0474(3) 0.2717(3)
P4A P 0.2772(4) 0.2415(3) 0.2206(3)
O1A O 0.3534(11) -0.2306(9) 0.7489(9)
H1A H 0.43780 -0.22900 0.75430
O2A O 0.3414(9) -0.3872(8) 0.5475(7)
O3A O 0.1375(9) -0.2965(8) 0.5784(8)
O4A O -0.1289(9) -0.5056(7) 0.8571(7)
O5A O 0.1127(10) -0.5488(8) 0.8756(8)
O6A O -0.0937(10) -0.6673(8) 0.6909(7)
O7A O -0.1331(9) -0.1696(8) 0.1741(7)
O8A O 0.0786(9) -0.0655(8) 0.3604(7)
O9A O -0.1327(9) 0.0195(7) 0.3361(7)
O10A O 0.3796(10) 0.1692(9) 0.1774(9)
O11A O 0.3564(9) 0.3720(8) 0.3114(7)
O12A O 0.1719(10) 0.2414(8) 0.1135(8)
O13A O -0.0835(9) -0.2215(8) 0.4536(7)
O14A O 0.2911(10) -0.1156(8) 0.5017(7)
O15A O -0.3263(9) -0.4016(7) -0.0191(7)
O16A O 0.0528(9) -0.2802(8) 0.0436(8)
C1A C 0.1705(15) -0.4567(11) 0.6744(12)
H2A H 0.24260 -0.47080 0.72860
H3A H 0.12970 -0.53200 0.60250
C2A C 0.0502(15) -0.4314(12) 0.7354(11)
H4A H 0.08720 -0.35100 0.80130
H5A H -0.02850 -0.42880 0.67750
C3A C 0.0566(14) 0.0442(11) 0.2011(12)
H6A H -0.01420 0.06330 0.15070
H7A H 0.10420 -0.00450 0.14930
C4A C 0.1661(16) 0.1623(12) 0.2893(11)
H8A H 0.11650 0.21650 0.33220
H9A H 0.22750 0.14430 0.34790
O17A O 0.5804(10) 0.6035(8) 0.4408(8)
U1* U -0.10380(5) -0.82589(4) 0.52161(4)
U1** U -0.10380(5) 0.17411(4) 0.52161(4)
U1A* U 1.10380(5) -0.17411(4) 0.47839(4)
U1A** U 1.10380(5) 0.82589(4) 0.47839(4)
U2* U 0.13682(5) -0.66276(4) 0.98842(4)
U2** U 0.13682(5) 0.33724(4) -0.01158(4)
U2*** U 1.13682(5) 0.33724(4) -0.01158(4)
U2A* U -0.13682(5) -0.33724(4) 1.01158(4)
U2A** U 0.86318(5) -0.33724(4) 1.01158(4)
U2A*** U 0.86318(5) 0.66276(4) 0.01158(4)
U3* U 0.50000 -0.50000 0.50000
O2A* O 0.3414(9) 0.6128(8) 0.5475(7)
O4* O 1.1289(9) 0.5056(7) 1.1429(7)
O4A* O -0.1289(9) -0.5056(7) -0.1429(7)
O5* O -0.1127(10) -0.4512(8) 0.1244(8)
O5A* O 1.1127(10) 0.4512(8) 0.8756(8)
O6* O 0.0937(10) -0.3327(8) 0.3091(7)
O6A* O 0.9063(10) 0.3327(8) 0.6909(7)
O9* O 0.1327(9) -0.0195(7) 0.6639(7)
O9A* O 0.8673(9) 0.0195(7) 0.3361(7)
O11* O 0.6436(9) 0.6280(8) 0.6886(7)
O12* O -0.1719(10) -0.2414(8) -0.1135(8)
O12A* O 1.1719(10) 0.2414(8) 1.1135(8)
#END
