
#######################################################################
#
#                 Cambridge Crystallographic Data Centre
#                                CCDC
#
#######################################################################
#
# If this CIF has been generated from an entry in the Cambridge
# Structural Database, then it will include bibliographic, chemical,
# crystal, experimental, refinement or atomic coordinate data resulting
# from the CCDC's data processing and validation procedures.
#
#######################################################################

data_CSD_CIF_TOHRAL
_audit_creation_date 2014-07-18
_audit_creation_method CSD-ConQuest-V1
_database_code_CSD TOHRAL
_database_code_depnum_ccdc_archive 'CCDC 993072'
_chemical_formula_sum 'C71 H74 N7 O41.5 Pb8'
_chemical_formula_moiety
;
(C54 H18 O37 Pb8 4-)n,3(C3 H7 N1 O1),1.5(H2 O1),4(C2 H8 N1 1+)
;
_journal_coden_Cambridge 1295
_journal_volume 46
_journal_year 2014
_journal_page_first 244
_journal_name_full 'Inorg.Chem.Commun. '
loop_
_publ_author_name
"Shaomin Cheng"
"Baoxia Dong"
"Xiangfei Wang"
"Fang Yang"
"Meng Tang"
"Hang Chen"
"Limin Yuan"
"Wenlong Liu"
_chemical_name_systematic
;
catena-[tetrakis(dimethylammonium) 
hexakis(\m-benzene-1,2,3-tricarboxylato)-(\m-oxo)-octa-lead 
N,N-dimethylformamide solvate sesquihydrate]
;
_cell_volume   4563.537
_exptl_crystal_colour 'colorless'
_exptl_crystal_density_diffrn 2.436
_exptl_special_details
;
Luminescent
Heat-sensitive

;
_exptl_crystal_description 'Block'
_exptl_crystal_preparation 'N,N-dimethylformamide'
_diffrn_ambient_temperature 153
#These two values have been output from a single CSD field.
_refine_ls_R_factor_gt 0.0501
_refine_ls_wR_factor_gt 0.0501
_symmetry_cell_setting triclinic
_symmetry_space_group_name_H-M 'P -1'
_symmetry_Int_Tables_number 2
loop_
_symmetry_equiv_pos_site_id
_symmetry_equiv_pos_as_xyz
1 x,y,z
2 -x,-y,-z
_cell_length_a 12.850(4)
_cell_length_b 13.752(4)
_cell_length_c 29.081(10)
_cell_angle_alpha 99.731(5)
_cell_angle_beta 92.479(5)
_cell_angle_gamma 114.719(3)
_cell_formula_units_Z 2
loop_
_atom_type_symbol
_atom_type_radius_bond
C 0.68
H 0.23
N 0.68
O 0.68
Pb 1.46
loop_
_atom_site_label
_atom_site_type_symbol
_atom_site_fract_x
_atom_site_fract_y
_atom_site_fract_z
C1 C 0.8801(9) 0.8589(8) 0.4072(3)
C2 C 0.8343(9) 0.7492(9) 0.3899(4)
C3 C 0.8853(9) 0.6870(9) 0.4068(4)
C4 C 0.9789(10) 0.7373(9) 0.4412(3)
H1 H 1.01350 0.69520 0.45230
C5 C 1.0238(9) 0.8495(8) 0.4601(4)
H2 H 1.08700 0.88340 0.48450
C6 C 0.9742(9) 0.9109(9) 0.4425(4)
H3 H 1.00420 0.98740 0.45450
C7 C 0.8386(10) 0.9335(9) 0.3869(4)
C8 C 0.7333(9) 0.6946(8) 0.3506(4)
C9 C 0.8410(11) 0.5670(9) 0.3904(4)
C10 C 0.778(1) 0.9220(9) 0.1801(4)
C11 C 0.6924(11) 0.8190(9) 0.1589(4)
C12 C 0.6843(9) 0.7813(10) 0.1108(4)
C13 C 0.7588(9) 0.8496(8) 0.0832(4)
H4 H 0.75340 0.82450 0.05030
C14 C 0.8393(10) 0.9531(10) 0.1050(4)
H5 H 0.88890 1.00050 0.08700
C15 C 0.8480(11) 0.9885(11) 0.1537(4)
H6 H 0.90350 1.06000 0.16840
C16 C 0.7809(9) 0.9655(9) 0.2328(3)
C17 C 0.6201(11) 0.738(1) 0.1869(4)
C18 C 0.6006(10) 0.6656(9) 0.0851(4)
C19 C 0.3805(11) 0.9519(10) 0.3418(4)
C20 C 0.3084(10) 0.8283(11) 0.3333(4)
C21 C 0.1902(11) 0.7993(11) 0.3297(5)
C22 C 0.1386(11) 0.8661(9) 0.3410(5)
H7 H 0.05810 0.83650 0.34340
C23 C 0.2030(9) 0.9767(10) 0.3489(4)
H8 H 0.16840 1.02580 0.35470
C24 C 0.321(1) 1.0145(10) 0.3480(4)
H9 H 0.36490 1.09130 0.35210
C25 C 0.5092(10) 0.9918(10) 0.3446(4)
C26 C 0.3641(9) 0.7587(10) 0.3221(4)
C27 C 0.1053(12) 0.6774(10) 0.3199(4)
C28 C 0.6421(11) 0.2144(10) 0.2111(4)
C29 C 0.5989(8) 0.2647(8) 0.1848(4)
C30 C 0.5693(9) 0.2248(9) 0.1346(4)
C31 C 0.5851(11) 0.1307(10) 0.1142(4)
H10 H 0.57290 0.10640 0.08100
C32 C 0.6162(10) 0.0785(10) 0.1410(4)
H11 H 0.61040 0.00830 0.12740
C33 C 0.657(1) 0.1197(9) 0.1881(4)
H12 H 0.69390 0.08700 0.20500
C34 C 0.6891(10) 0.2508(10) 0.2622(4)
C35 C 0.5770(9) 0.3580(9) 0.2079(4)
C36 C 0.5299(9) 0.2827(11) 0.1034(4)
C37 C 0.1114(9) 0.3275(10) 0.0972(4)
C38 C 0.1023(10) 0.3696(10) 0.1434(4)
C39 C -0.0018(11) 0.3496(9) 0.1569(4)
C40 C -0.0988(10) 0.2961(10) 0.1224(4)
H13 H -0.17070 0.29390 0.13020
C41 C -0.0938(9) 0.2506(10) 0.0812(4)
H14 H -0.16380 0.20470 0.06110
C42 C 0.0099(10) 0.2657(10) 0.0646(4)
H15 H 0.01310 0.23620 0.03300
C43 C 0.2235(11) 0.3451(11) 0.0806(4)
C44 C 0.2117(9) 0.4277(8) 0.1776(3)
C45 C -0.0131(9) 0.3945(10) 0.2061(4)
C46 C 0.3402(9) 0.2768(9) 0.4072(4)
C47 C 0.2709(9) 0.3043(8) 0.3780(4)
C48 C 0.157(1) 0.2768(9) 0.3860(4)
C49 C 0.1133(11) 0.2212(9) 0.4221(4)
H16 H 0.03530 0.20210 0.42720
C50 C 0.1812(9) 0.1937(9) 0.4501(4)
H17 H 0.15060 0.15590 0.47450
C51 C 0.2963(10) 0.2225(10) 0.4423(4)
H18 H 0.34420 0.20410 0.46150
C52 C 0.4619(8) 0.3029(8) 0.4016(4)
C53 C 0.3233(9) 0.3690(8) 0.3412(4)
C54 C 0.0806(8) 0.3094(8) 0.3582(3)
O1 O 0.8432(7) 1.0165(6) 0.4118(3)
O2 O 0.7917(6) 0.9051(6) 0.3428(3)
O3 O 0.6324(6) 0.6803(7) 0.3611(3)
O4 O 0.7500(6) 0.6550(7) 0.3094(3)
O5 O 0.7283(6) 0.5082(6) 0.3790(3)
O6 O 0.9068(6) 0.5210(6) 0.3909(2)
O7 O 0.8804(6) 1.0366(6) 0.2549(3)
O8 O 0.6924(7) 0.9328(6) 0.2505(3)
O9 O 0.6702(7) 0.7054(6) 0.2145(2)
O10 O 0.5166(7) 0.7167(7) 0.1827(3)
O11 O 0.5880(7) 0.5920(6) 0.1066(3)
O12 O 0.5480(7) 0.6481(6) 0.0498(3)
O13 O 0.5619(7) 1.1003(6) 0.3538(3)
O14 O 0.5596(7) 0.9354(7) 0.3260(3)
O15 O 0.4146(6) 0.7312(6) 0.3534(3)
O16 O 0.3600(6) 0.7189(6) 0.2774(3)
O17 O 0.1469(6) 0.6010(7) 0.3261(2)
O18 O 0.0097(6) 0.6471(6) 0.3005(3)
O19 O 0.7510(6) 0.2188(6) 0.2809(2)
O20 O 0.6508(7) 0.3165(6) 0.2863(3)
O21 O 0.6602(6) 0.4570(6) 0.2144(3)
O22 O 0.4768(6) 0.3381(6) 0.2190(2)
O23 O 0.5043(7) 0.3578(5) 0.1187(3)
O24 O 0.5260(6) 0.2553(6) 0.0603(2)
O25 O 0.2395(7) 0.2768(6) 0.0494(3)
O26 O 0.3109(6) 0.4366(5) 0.0974(2)
O27 O 0.2668(6) 0.3731(6) 0.1905(3)
O28 O 0.2491(6) 0.5283(6) 0.1932(2)
O29 O 0.0524(7) 0.3846(7) 0.2394(3)
O30 O -0.0885(7) 0.4291(6) 0.2172(2)
O31 O -0.0282(7) 0.2601(6) 0.3599(3)
O32 O 0.1278(6) 0.3992(6) 0.3436(3)
O33 O 0.2977(6) 0.3228(6) 0.2972(3)
O34 O 0.3952(6) 0.4678(7) 0.3544(3)
O35 O 0.4961(6) 0.3060(6) 0.3580(2)
O36 O 0.5344(7) 0.3113(7) 0.4321(3)
O37 O 0.4724(6) 0.5596(6) 0.2648(2)
Pb1 Pb 0.57821(3) 0.74355(3) 0.290653(14)
Pb2 Pb 0.55481(4) 0.46974(4) 0.303003(14)
Pb3 Pb 0.47121(4) 0.50746(3) 0.185842(14)
Pb4 Pb 0.28810(3) 0.51077(3) 0.281369(14)
Pb5 Pb 0.76803(4) 1.06115(3) 0.326860(15)
Pb6 Pb 0.68364(4) 0.31603(3) 0.370894(15)
Pb7 Pb 0.46080(4) 0.41829(4) 0.049351(15)
Pb8 Pb -0.02753(3) 0.43431(3) 0.310736(14)
C55 C 0.5389(10) 0.5873(9) 0.4558(4)
H19 H 0.48490 0.50970 0.45040
H20 H 0.56230 0.61650 0.48960
H21 H 0.60720 0.59540 0.44010
C56 C 0.3554(9) 0.6192(9) 0.4434(3)
H22 H 0.34170 0.59070 0.47230
H23 H 0.30450 0.56270 0.41670
H24 H 0.33920 0.68340 0.44630
N1 N 0.4792(7) 0.6512(8) 0.4354(3)
H25 H 0.52100 0.72450 0.44830
H26 H 0.48260 0.64230 0.40350
C57 C 0.1914(8) 0.7390(8) 0.1928(3)
H27 H 0.16850 0.78430 0.17600
H28 H 0.18890 0.75970 0.22660
H29 H 0.13820 0.66180 0.18130
C58 C 0.3894(10) 0.8732(9) 0.1942(4)
H30 H 0.41660 0.89880 0.22790
H31 H 0.34630 0.91220 0.18450
H32 H 0.45590 0.88720 0.17660
N2 N 0.3150(8) 0.7569(8) 0.1845(3)
H33 H 0.34140 0.72340 0.20390
H34 H 0.31540 0.72650 0.15380
C59 C 0.240(1) 0.1179(9) 0.1643(4)
H35 H 0.16150 0.10110 0.15100
H36 H 0.24820 0.04970 0.16260
H37 H 0.29590 0.16450 0.14630
C60 C 0.2906(10) 0.1040(9) 0.2411(4)
H38 H 0.35030 0.08520 0.22790
H39 H 0.22140 0.03670 0.24140
H40 H 0.31940 0.14630 0.27340
N3 N 0.2604(9) 0.1724(8) 0.2110(3)
H41 H 0.19570 0.17980 0.21980
H42 H 0.32050 0.24100 0.21500
C61 C 0.8730(9) 0.6208(9) 0.1821(3)
H43 H 0.91830 0.68120 0.16700
H44 H 0.79430 0.58170 0.16540
H45 H 0.90910 0.57030 0.18090
C62 C 0.9336(9) 0.792(1) 0.2442(3)
H46 H 0.90600 0.82350 0.22130
H47 H 1.01680 0.81540 0.24430
H48 H 0.91810 0.81730 0.27560
N4 N 0.8691(9) 0.6639(8) 0.2305(3)
H49 H 0.90190 0.63490 0.24970
H50 H 0.79310 0.64190 0.23560
C63 C 0.6939(8) 0.1502(9) 0.4688(4)
H51 H 0.77700 0.19340 0.47870
H52 H 0.65290 0.19410 0.48000
H53 H 0.67940 0.12910 0.43440
C64 C 0.6201(10) -0.0498(9) 0.4581(4)
H54 H 0.62630 -0.05410 0.42540
C65 C 0.6531(10) 0.0677(9) 0.5442(3)
H55 H 0.57440 0.03250 0.55220
H56 H 0.68560 0.14670 0.55670
H57 H 0.70110 0.03760 0.55800
N5 N 0.6503(8) 0.0461(8) 0.4900(3)
O38 O 0.5818(6) -0.1342(6) 0.4778(2)
C66 C 0.6821(12) 0.0089(11) 0.9955(4)
H58 H 0.70740 -0.02800 1.01650
H59 H 0.60340 -0.03960 0.98030
H60 H 0.68330 0.07620 1.01380
C67 C 0.8533(12) 0.0043(12) 0.9594(5)
H61 H 0.82560 -0.07120 0.94190
H62 H 0.88390 0.00990 0.99170
H63 H 0.91440 0.05320 0.94400
C68 C 0.7566(10) 0.1024(9) 0.9280(4)
H64 H 0.71460 0.14450 0.93550
N6 N 0.7585(8) 0.0354(8) 0.9602(3)
O39 O 0.8022(7) 0.1126(6) 0.8919(3)
C69 C 0.0211(11) 0.3292(11) 0.9354(4)
H65 H -0.04570 0.34530 0.93140
H66 H 0.00210 0.26930 0.95240
H67 H 0.04140 0.30760 0.90450
C70 C 0.0967(10) 0.5222(10) 0.9716(5)
H68 H 0.04450 0.53560 0.95240
C71 C 0.2333(10) 0.4397(8) 0.9827(3)
H69 H 0.28090 0.51640 0.99770
H70 H 0.27210 0.41690 0.95770
H71 H 0.22210 0.39400 1.00620
N7 N 0.1195(10) 0.4271(9) 0.9623(4)
O40 O 0.1541(9) 0.5818(8) 1.0075(3)
O41 O 0.903(2) 0.313(2) 0.4125(9)
H72 H 0.90410 0.37130 0.40650
H73 H 0.96760 0.31120 0.40840
O42 O 0.00000 0.50000 0.50000
O43 O 0.5681(18) 0.196(2) 0.9631(8)
H74 H 0.58280 0.25940 0.95850
H75 H 0.56730 0.19600 0.99230
H76? H 0.02840 0.52390 0.47610
H77? H 0.01690 0.44820 0.50400
O6* O -0.0932(6) 0.5210(6) 0.3909(2)
O12A O 0.4520(7) 0.3519(6) -0.0498(3)
O13* O 0.5619(7) 0.1003(6) 0.3538(3)
O19* O 0.7510(6) 1.2188(6) 0.2809(2)
O31* O 0.9718(7) 1.2601(6) 0.3599(3)
Pb5* Pb -0.23197(4) 0.06115(3) 0.326860(15)
Pb5** Pb 0.76803(4) 0.06115(3) 0.326860(15)
Pb6* Pb 0.68364(4) 1.31603(3) 0.370894(15)
Pb7A Pb 0.53920(4) 0.58171(4) -0.049351(15)
Pb8* Pb 0.97247(3) 0.43431(3) 0.310736(14)
#END
