
#######################################################################
#
#                 Cambridge Crystallographic Data Centre
#                                CCDC
#
#######################################################################
#
# If this CIF has been generated from an entry in the Cambridge
# Structural Database, then it will include bibliographic, chemical,
# crystal, experimental, refinement or atomic coordinate data resulting
# from the CCDC's data processing and validation procedures.
#
#######################################################################

data_CSD_CIF_TOHWAQ
_audit_creation_date 2014-07-18
_audit_creation_method CSD-ConQuest-V1
_database_code_CSD TOHWAQ
_database_code_depnum_ccdc_archive 'CCDC 967196'
_chemical_formula_sum 'C28 H26 Ce1 N3 O10'
_chemical_formula_moiety
;
(C26 H18 Ce1 N2 O10 1-)n,C2 H8 N1 1+
;
_journal_coden_Cambridge 1295
_journal_volume 46
_journal_year 2014
_journal_page_first 340
_journal_name_full 'Inorg.Chem.Commun. '
loop_
_publ_author_name
"Li-Xin You"
"Zhi-Guo Li"
"Fu Ding"
"Shu-Ju Wang"
"Bao-Yi Ren"
"Ya-Guang Sun"
_chemical_name_systematic
;
catena-[dimethylammonium 
bis(\m-5-(4-carboxylatophenyl)pyridine-2-carboxylato)-diaqua-cerium]
;
_cell_volume   2810.195
_exptl_crystal_colour 'colorless'
_exptl_crystal_density_diffrn 1.665
_exptl_crystal_description 'block'
_diffrn_ambient_temperature 293
#These two values have been output from a single CSD field.
_refine_ls_R_factor_gt 0.03
_refine_ls_wR_factor_gt 0.03
_symmetry_cell_setting monoclinic
_symmetry_space_group_name_H-M 'C 2/c'
_symmetry_Int_Tables_number 15
loop_
_symmetry_equiv_pos_site_id
_symmetry_equiv_pos_as_xyz
1 x,y,z
2 -x,y,1/2-z
3 1/2+x,1/2+y,z
4 1/2-x,1/2+y,1/2-z
5 -x,-y,-z
6 x,-y,-1/2+z
7 -1/2-x,-1/2-y,-z
8 -1/2+x,-1/2-y,-1/2+z
_cell_length_a 23.767(5)
_cell_length_b 11.425(2)
_cell_length_c 11.949(2)
_cell_angle_alpha 90
_cell_angle_beta 119.99(3)
_cell_angle_gamma 90
_cell_formula_units_Z 4
loop_
_atom_type_symbol
_atom_type_radius_bond
C 0.68
H 0.23
Ce 2.04
N 0.68
O 0.68
loop_
_atom_site_label
_atom_site_type_symbol
_atom_site_fract_x
_atom_site_fract_y
_atom_site_fract_z
Ce1 Ce 1.00000 0.564058(18) 0.25000
O1 O 0.98978(10) 0.67030(18) 0.0610(2)
O2 O 0.59845(10) 0.99029(19) 0.2668(2)
O3 O 0.96066(13) 0.4061(2) 0.0885(2)
O4 O 0.64275(12) 0.8410(2) 0.4041(2)
N1 N 0.91331(12) 0.7371(2) 0.1519(2)
C1 C 0.63901(14) 0.9075(3) 0.3180(3)
C2 C 0.82024(14) 0.8384(3) 0.1327(3)
C3 C 0.72747(18) 0.9434(3) 0.1306(4)
O5 O 0.94777(14) 0.8071(2) -0.0936(3)
C4 C 0.77585(14) 0.8600(3) 0.1851(3)
C5 C 0.90294(14) 0.7868(2) 0.0418(3)
C6 C 0.95022(14) 0.7530(3) -0.0022(3)
C7 C 0.87312(16) 0.7642(3) 0.1960(3)
C8 C 0.73587(18) 0.8089(4) 0.3290(4)
C9 C 0.85178(17) 0.8619(3) -0.0281(3)
C10 C 0.68713(13) 0.8915(3) 0.2724(3)
C11 C 0.68354(17) 0.9586(3) 0.1732(4)
C12 C 0.80994(17) 0.8868(3) 0.0176(3)
C13 C 0.77976(18) 0.7938(4) 0.2858(4)
H1 H 0.8857(18) 0.726(3) 0.282(4)
H2 H 0.6481(18) 1.019(3) 0.130(3)
H3 H 0.774(2) 0.942(3) -0.031(4)
H4 H 0.969(2) 0.383(4) 0.032(4)
H5 H 0.7244(19) 0.996(4) 0.064(4)
H6 H 0.813(2) 0.720(4) 0.326(4)
H7 H 0.846(2) 0.899(4) -0.110(4)
H8 H 0.742(2) 0.762(4) 0.404(4)
H9 H 0.922(3) 0.381(4) 0.074(5)
N2 N 0.00000 0.1613(4) 0.25000
C14 C 0.0561(3) 0.0912(6) 0.3430(7)
H10 H 0.040(3) 0.042(5) 0.395(6)
H11 H 0.090(3) 0.135(6) 0.401(6)
H12 H 0.069(3) 0.032(5) 0.299(6)
H13 H 0.014(3) 0.219(4) 0.206(5)
O1A O 1.01022(10) 0.67030(18) 0.4390(2)
O2A O 1.40155(10) 0.99029(19) 0.2332(2)
O3A O 1.03934(13) 0.4061(2) 0.4115(2)
O4A O 1.35725(12) 0.8410(2) 0.0959(2)
N1A N 1.08669(12) 0.7371(2) 0.3481(2)
C1A C 1.36099(14) 0.9075(3) 0.1820(3)
C2A C 1.17976(14) 0.8384(3) 0.3673(3)
C3A C 1.27253(18) 0.9434(3) 0.3694(4)
O5A O 1.05223(14) 0.8071(2) 0.5936(3)
C4A C 1.22415(14) 0.8600(3) 0.3149(3)
C5A C 1.09706(14) 0.7868(2) 0.4582(3)
C6A C 1.04978(14) 0.7530(3) 0.5022(3)
C7A C 1.12688(16) 0.7642(3) 0.3040(3)
C8A C 1.26413(18) 0.8089(4) 0.1710(4)
C9A C 1.14822(17) 0.8619(3) 0.5281(3)
C10A C 1.31287(13) 0.8915(3) 0.2276(3)
C11A C 1.31646(17) 0.9586(3) 0.3268(4)
C12A C 1.19006(17) 0.8868(3) 0.4824(3)
C13A C 1.22024(18) 0.7938(4) 0.2142(4)
H1A H 1.1143(18) 0.726(3) 0.218(4)
H2A H 1.3519(18) 1.019(3) 0.370(3)
H3A H 1.226(2) 0.942(3) 0.531(4)
H4A H 1.031(2) 0.383(4) 0.468(4)
H5A H 1.2756(19) 0.996(4) 0.436(4)
H6A H 1.187(2) 0.720(4) 0.174(4)
H7A H 1.154(2) 0.899(4) 0.610(4)
H8A H 1.258(2) 0.762(4) 0.096(4)
H9A H 1.078(3) 0.381(4) 0.426(5)
Ce1B Ce 0.50000 1.064058(18) 0.25000
Ce1B* Ce 1.50000 1.064058(18) 0.25000
O2B O 1.09845(10) 0.49029(19) 0.2668(2)
O2C O 0.90155(10) 0.49029(19) 0.2332(2)
C14A C -0.0561(3) 0.0912(6) 0.1570(7)
H10A H -0.040(3) 0.042(5) 0.105(6)
H11A H -0.090(3) 0.135(6) 0.099(6)
H12A H -0.069(3) 0.032(5) 0.201(6)
H13A H -0.014(3) 0.219(4) 0.294(5)
#END
