
#######################################################################
#
#                 Cambridge Crystallographic Data Centre
#                                CCDC
#
#######################################################################
#
# If this CIF has been generated from an entry in the Cambridge
# Structural Database, then it will include bibliographic, chemical,
# crystal, experimental, refinement or atomic coordinate data resulting
# from the CCDC's data processing and validation procedures.
#
#######################################################################

data_CSD_CIF_TOHWEU
_audit_creation_date 2014-07-18
_audit_creation_method CSD-ConQuest-V1
_database_code_CSD TOHWEU
_database_code_depnum_ccdc_archive 'CCDC 967197'
_chemical_formula_sum 'C28 H26 N3 O10 Pr1'
_chemical_formula_moiety
;
(C26 H18 N2 O10 Pr1 1-)n,C2 H8 N1 1+
;
_journal_coden_Cambridge 1295
_journal_volume 46
_journal_year 2014
_journal_page_first 340
_journal_name_full 'Inorg.Chem.Commun. '
loop_
_publ_author_name
"Li-Xin You"
"Zhi-Guo Li"
"Fu Ding"
"Shu-Ju Wang"
"Bao-Yi Ren"
"Ya-Guang Sun"
_chemical_name_systematic
;
catena-[dimethylammonium 
bis(\m-5-(4-carboxylatophenyl)pyridine-2-carboxylato)-diaqua-praseodymium]
;
_cell_volume   2826.471
_exptl_crystal_colour 'colorless'
_exptl_crystal_density_diffrn 1.658
_exptl_crystal_description 'block'
_diffrn_ambient_temperature 293
#These two values have been output from a single CSD field.
_refine_ls_R_factor_gt 0.0658
_refine_ls_wR_factor_gt 0.0658
_symmetry_cell_setting monoclinic
_symmetry_space_group_name_H-M 'C 2/c'
_symmetry_Int_Tables_number 15
loop_
_symmetry_equiv_pos_site_id
_symmetry_equiv_pos_as_xyz
1 x,y,z
2 -x,y,1/2-z
3 1/2+x,1/2+y,z
4 1/2-x,1/2+y,1/2-z
5 -x,-y,-z
6 x,-y,-1/2+z
7 -1/2-x,-1/2-y,-z
8 -1/2+x,-1/2-y,-1/2+z
_cell_length_a 23.700(5)
_cell_length_b 11.490(2)
_cell_length_c 11.984(2)
_cell_angle_alpha 90
_cell_angle_beta 119.99(3)
_cell_angle_gamma 90
_cell_formula_units_Z 4
loop_
_atom_type_symbol
_atom_type_radius_bond
C 0.68
H 0.23
N 0.68
O 0.68
Pr 2.03
loop_
_atom_site_label
_atom_site_type_symbol
_atom_site_fract_x
_atom_site_fract_y
_atom_site_fract_z
O1 O 0.0094(3) 0.1684(5) 0.0810(4)
C1 C 0.0484(4) 0.2506(7) 0.0975(7)
O2 O 0.4019(3) 0.4914(5) 1.0707(5)
C2 C 0.3618(4) 0.4087(7) 1.0399(7)
C3 C 0.3126(4) 0.3920(7) 0.8973(7)
C4 C 0.2640(5) 0.3099(9) 0.8575(8)
H1 H 0.26060 0.26480 0.91830
Pr1 Pr 0.00000 0.06421(5) 0.25000
C5 C 0.1473(4) 0.3626(8) 0.2690(7)
H2 H 0.15310 0.39760 0.20560
C6 C 0.1894(4) 0.3876(9) 0.3979(8)
H3 H 0.22450 0.43760 0.42150
O3 O 0.0400(3) -0.0903(5) 0.1678(5)
H4 H 0.01080 -0.13350 0.09640
H5 H 0.08440 -0.10600 0.20790
C7 C 0.2238(4) 0.3604(7) 0.6330(7)
C8 C 0.1271(4) 0.2611(8) 0.4500(7)
H6 H 0.12000 0.22510 0.51150
N1 N 0.0859(3) 0.2356(6) 0.3243(6)
O4 O 0.3569(3) 0.3419(6) 1.1187(5)
O5 O 0.0510(3) 0.3070(6) 0.0107(5)
C9 C 0.0965(4) 0.2851(7) 0.2354(6)
C10 C 0.1789(4) 0.3374(7) 0.4924(6)
C11 C 0.2721(4) 0.4436(8) 0.6754(8)
H7 H 0.27540 0.49020 0.61550
C12 C 0.3160(4) 0.4594(7) 0.8067(7)
H8 H 0.34800 0.51640 0.83280
C13 C 0.2195(5) 0.2937(10) 0.7258(8)
H9 H 0.18690 0.23800 0.70020
N2 N 1.00000 0.6613(10) 0.25000
H10 H 1.01210 0.70750 0.31900
C14 C 0.9437(7) 0.5897(11) 0.2294(13)
H11 H 0.92830 0.54510 0.15180
H12 H 0.90950 0.63960 0.22200
H13 H 0.95680 0.53800 0.30120
H14? H 1.01210 0.70750 0.31900
O1A O -0.0094(3) 0.1684(5) 0.4190(4)
C1A C -0.0484(4) 0.2506(7) 0.4025(7)
O2A O -0.4019(3) 0.4914(5) -0.5707(5)
C2A C -0.3618(4) 0.4087(7) -0.5399(7)
C3A C -0.3126(4) 0.3920(7) -0.3973(7)
C4A C -0.2640(5) 0.3099(9) -0.3575(8)
H1A H -0.26060 0.26480 -0.41830
C5A C -0.1473(4) 0.3626(8) 0.2310(7)
H2A H -0.15310 0.39760 0.29440
C6A C -0.1894(4) 0.3876(9) 0.1021(8)
H3A H -0.22450 0.43760 0.07850
O3A O -0.0400(3) -0.0903(5) 0.3322(5)
H4A H -0.01080 -0.13350 0.40360
H5A H -0.08440 -0.10600 0.29210
C7A C -0.2238(4) 0.3604(7) -0.1330(7)
C8A C -0.1271(4) 0.2611(8) 0.0500(7)
H6A H -0.12000 0.22510 -0.01150
N1A N -0.0859(3) 0.2356(6) 0.1757(6)
O4A O -0.3569(3) 0.3419(6) -0.6187(5)
O5A O -0.0510(3) 0.3070(6) 0.4893(5)
C9A C -0.0965(4) 0.2851(7) 0.2646(6)
C10A C -0.1789(4) 0.3374(7) 0.0076(6)
C11A C -0.2721(4) 0.4436(8) -0.1754(8)
H7A H -0.27540 0.49020 -0.11550
C12A C -0.3160(4) 0.4594(7) -0.3067(7)
H8A H -0.34800 0.51640 -0.33280
C13A C -0.2195(5) 0.2937(10) -0.2258(8)
H9A H -0.18690 0.23800 -0.20020
O2B O -0.0981(3) -0.0086(5) 0.0707(5)
O2C O 0.0981(3) -0.0086(5) 0.4293(5)
Pr1B Pr -0.50000 0.56421(5) -0.75000
Pr1B* Pr 0.50000 0.56421(5) 1.25000
H10A H 0.98790 0.70750 0.18100
C14A C 1.0563(7) 0.5897(11) 0.2706(13)
H11A H 1.07170 0.54510 0.34820
H12A H 1.09050 0.63960 0.27800
H13A H 1.04320 0.53800 0.19880
#END
