
#######################################################################
#
#                 Cambridge Crystallographic Data Centre
#                                CCDC
#
#######################################################################
#
# If this CIF has been generated from an entry in the Cambridge
# Structural Database, then it will include bibliographic, chemical,
# crystal, experimental, refinement or atomic coordinate data resulting
# from the CCDC's data processing and validation procedures.
#
#######################################################################

data_CSD_CIF_TOHYOF
_audit_creation_date 2009-05-12
_audit_creation_method CSD-ConQuest-V1
_database_code_CSD TOHYOF
_database_code_depnum_ccdc_archive 'CCDC 694561'
_chemical_formula_sum 'C17 H27 Cd1 N5 O10'
_chemical_formula_moiety
;
(C2 H8 N1 1+)n,n(C12 H12 Cd1 N3 O9 1-),n(C3 H7 N1 O1)
;
_journal_coden_Cambridge 1350
_journal_volume 10
_journal_year 2008
_journal_page_first 1739
_journal_name_full 'CrystEngComm '
loop_
_publ_author_name
"S.K.Ghosh"
"S.Kitagawa"
_chemical_name_systematic
;
catena-(dimethylammonium (\m~4~-1,3,5-tris(2-carboxylatoethyl)isocyanuric 
acid)-cadmium(ii) N,N-dimethylformamide solvate)
;
_cell_volume   2405.986
_exptl_crystal_colour 'colorless'
_exptl_crystal_density_diffrn 1.584
_exptl_crystal_description 'block'
_diffrn_ambient_temperature 293
_refine_special_details
;
Disordered solvent molecules were not modelled and the disordered density was 
taken into account using the SQUEEZE/PLATON procedure.
;
#These two values have been output from a single CSD field.
_refine_ls_R_factor_gt 0.0999
_refine_ls_wR_factor_gt 0.0999
_symmetry_cell_setting monoclinic
_symmetry_space_group_name_H-M 'P 21/c'
_symmetry_Int_Tables_number 14
loop_
_symmetry_equiv_pos_site_id
_symmetry_equiv_pos_as_xyz
1 x,y,z
2 -x,1/2+y,1/2-z
3 -x,-y,-z
4 x,-1/2-y,-1/2+z
_cell_length_a 12.375(3)
_cell_length_b 23.376(5)
_cell_length_c 8.5893(17)
_cell_angle_alpha 90
_cell_angle_beta 104.46(3)
_cell_angle_gamma 90
_cell_formula_units_Z 4
loop_
_atom_type_symbol
_atom_type_radius_bond
C 0.68
H 0.23
Cd 1.62
N 0.68
O 0.68
loop_
_atom_site_label
_atom_site_type_symbol
_atom_site_fract_x
_atom_site_fract_y
_atom_site_fract_z
Cd1 Cd 0.23929(4) 0.21877(2) 0.45246(6)
O1 O 0.0941(6) -0.0615(3) 0.3462(11)
O2 O 0.2484(7) -0.2172(3) 0.6289(12)
O3 O 0.4432(5) -0.0519(3) 0.6732(10)
O4 O 0.2164(8) 0.1419(3) 0.6167(10)
O5 O 0.2556(6) 0.1185(3) 0.3939(9)
O6 O -0.1043(7) -0.2155(3) 0.1088(12)
O7 O -0.0486(7) -0.2909(3) 0.2438(13)
O8 O 0.7069(5) -0.2265(2) 0.7854(8)
O9 O 0.5944(6) -0.2376(4) 0.9374(9)
N1 N 0.1669(5) -0.1399(3) 0.4864(9)
N2 N 0.3454(5) -0.1349(2) 0.6548(8)
N3 N 0.2704(5) -0.0562(3) 0.5039(9)
N4 N 0.1266(8) 0.1189(4) 0.0757(10)
C1 C 0.1707(7) -0.0836(3) 0.4384(11)
C2 C 0.2534(6) -0.1675(3) 0.5929(10)
C3 C 0.3569(6) -0.0786(3) 0.6114(11)
C4 C 0.0627(6) -0.1732(4) 0.4238(11)
H1 H -0.00010 -0.14730 0.39070
H2 H 0.04910 -0.19780 0.50780
C5 C 0.0739(9) -0.2089(5) 0.2827(17)
H3 H 0.13350 -0.23660 0.31780
H4 H 0.09310 -0.18450 0.20230
C6 C -0.0339(7) -0.2399(5) 0.2099(12)
C7 C 0.4372(6) -0.1629(4) 0.7733(9)
H5 H 0.40740 -0.19410 0.82410
H6 H 0.47090 -0.13550 0.85620
C8 C 0.5242(6) -0.1854(4) 0.6970(9)
H7 H 0.55900 -0.15350 0.65550
H8 H 0.48900 -0.20960 0.60690
C9 C 0.6134(7) -0.2194(3) 0.8128(10)
C10 C 0.2797(8) 0.0051(4) 0.4650(11)
H9 H 0.24260 0.01150 0.35280
H10 H 0.35780 0.01490 0.48050
C11 C 0.2287(9) 0.0432(4) 0.5679(12)
H11 H 0.26810 0.03810 0.67980
H12 H 0.15160 0.03220 0.55630
C12 C 0.2333(7) 0.1054(3) 0.5234(10)
C13 C 0.0322(12) 0.0864(6) 0.082(2)
H13 H -0.01090 0.10670 0.14260
H14 H 0.05560 0.05030 0.13260
H15 H -0.01240 0.08000 -0.02530
C14 C 0.205(2) 0.0885(12) -0.026(3)
H16 H 0.26810 0.11270 -0.02570
H17 H 0.16300 0.08260 -0.13510
H18 H 0.23110 0.05230 0.02170
Cd1A Cd -0.23929(4) -0.28123(2) 0.04754(6)
Cd1B Cd 0.76071(4) -0.21877(2) 0.54754(6)
Cd1A* Cd 0.76071(4) -0.28123(2) 1.04754(6)
O6A O 0.1043(7) 0.2845(3) 0.3912(12)
O7A O 0.0486(7) 0.2091(3) 0.2562(13)
O8B O 0.2931(5) 0.2265(2) 0.2146(8)
O8A O 0.2931(5) 0.2735(2) 0.7146(8)
O9A O 0.4056(6) 0.2624(4) 0.5626(9)
#END
