
#######################################################################
#
#                 Cambridge Crystallographic Data Centre
#                                CCDC
#
#######################################################################
#
# If this CIF has been generated from an entry in the Cambridge
# Structural Database, then it will include bibliographic, chemical,
# crystal, experimental, refinement or atomic coordinate data resulting
# from the CCDC's data processing and validation procedures.
#
#######################################################################

data_CSD_CIF_TOHZUN
_audit_creation_date 2014-07-18
_audit_creation_method CSD-ConQuest-V1
_database_code_CSD TOHZUN
_database_code_depnum_ccdc_archive 'CCDC 967190'
_chemical_formula_sum 'C28 H26 Gd1 N3 O10'
_chemical_formula_moiety
;
(C26 H18 Gd1 N2 O10 1-)n,n(C2 H8 N1 1+)
;
_journal_coden_Cambridge 1295
_journal_volume 46
_journal_year 2014
_journal_page_first 340
_journal_name_full 'Inorg.Chem.Commun. '
loop_
_publ_author_name
"Li-Xin You"
"Zhi-Guo Li"
"Fu Ding"
"Shu-Ju Wang"
"Bao-Yi Ren"
"Ya-Guang Sun"
_chemical_name_systematic
;
catena-(Dimethylammonium 
bis(\m~2~-5-(4-carboxylatophenyl)pyridine-2-carboxylato)-diaqua-gadolinium)
;
_cell_volume   2640.474
_exptl_crystal_colour 'colorless'
_exptl_crystal_density_diffrn 1.816
_exptl_crystal_description 'block'
_diffrn_ambient_temperature 293
#These two values have been output from a single CSD field.
_refine_ls_R_factor_gt 0.0295
_refine_ls_wR_factor_gt 0.0295
_symmetry_cell_setting monoclinic
_symmetry_space_group_name_H-M 'C 2/c'
_symmetry_Int_Tables_number 15
loop_
_symmetry_equiv_pos_site_id
_symmetry_equiv_pos_as_xyz
1 x,y,z
2 -x,y,1/2-z
3 1/2+x,1/2+y,z
4 1/2-x,1/2+y,1/2-z
5 -x,-y,-z
6 x,-y,-1/2+z
7 -1/2-x,-1/2-y,-z
8 -1/2+x,-1/2-y,-1/2+z
_cell_length_a 22.613(4)
_cell_length_b 11.387(2)
_cell_length_c 11.942(2)
_cell_angle_alpha 90
_cell_angle_beta 120.83(3)
_cell_angle_gamma 90
_cell_formula_units_Z 4
loop_
_atom_type_symbol
_atom_type_radius_bond
C 0.68
H 0.23
Gd 1.96
N 0.68
O 0.68
loop_
_atom_site_label
_atom_site_type_symbol
_atom_site_fract_x
_atom_site_fract_y
_atom_site_fract_z
Gd1 Gd 0.50000 0.43593(2) 0.25000
O1 O 0.49088(14) 0.3376(3) 0.0635(3)
O2 O 0.46192(19) 0.5873(3) 0.0923(4)
O3 O 0.09704(14) 0.0063(3) 0.2648(3)
N1 N 0.41518(17) 0.2676(3) 0.1552(3)
O4 O 0.14190(18) 0.1563(3) 0.4029(3)
O5 O 0.45055(19) 0.1981(3) -0.0892(4)
C1 C 0.1381(2) 0.0899(4) 0.3167(4)
C2 C 0.3216(2) 0.1629(4) 0.1351(4)
C3 C 0.2283(3) 0.0553(4) 0.1324(6)
C4 C 0.4048(2) 0.2176(4) 0.0454(4)
C5 C 0.3747(2) 0.2394(4) 0.1988(5)
C6 C 0.2769(2) 0.1397(4) 0.1870(4)
C7 C 0.4524(2) 0.2529(4) 0.0015(4)
C8 C 0.2363(3) 0.1895(5) 0.3304(5)
C9 C 0.1872(2) 0.1065(4) 0.2729(4)
C10 C 0.3536(3) 0.1405(4) -0.0250(5)
C11 C 0.1840(3) 0.0395(5) 0.1736(5)
C12 C 0.3113(3) 0.1147(5) 0.0198(5)
C13 C 0.2805(3) 0.2055(5) 0.2886(5)
H1 H 0.347(3) 0.106(5) -0.098(5)
H2 H 0.283(3) 0.060(5) -0.023(6)
H3 H 0.154(3) -0.017(5) 0.133(6)
H4 H 0.383(3) 0.273(4) 0.279(5)
H5 H 0.229(3) 0.006(5) 0.073(5)
H6 H 0.236(3) 0.241(5) 0.401(6)
H7 H 0.430(4) 0.612(6) 0.083(7)
H8 H 0.467(3) 0.606(5) 0.041(6)
H9 H 0.312(4) 0.278(6) 0.327(7)
C14 C 0.5567(4) 0.9063(6) 0.3418(7)
H10 H 0.57110 0.95720 0.29620
H11 H 0.59420 0.85610 0.39940
H12 H 0.54280 0.95270 0.39160
N2 N 0.50000 0.8362(5) 0.25000
H13 H 0.48610 0.78970 0.29310
H14? H 0.48610 0.78970 0.29310
O1A O 0.50912(14) 0.3376(3) 0.4365(3)
O2A O 0.53808(19) 0.5873(3) 0.4077(4)
O3A O 0.90296(14) 0.0063(3) 0.2352(3)
N1A N 0.58482(17) 0.2676(3) 0.3448(3)
O4A O 0.85810(18) 0.1563(3) 0.0971(3)
O5A O 0.54945(19) 0.1981(3) 0.5892(4)
C1A C 0.8619(2) 0.0899(4) 0.1833(4)
C2A C 0.6784(2) 0.1629(4) 0.3649(4)
C3A C 0.7717(3) 0.0553(4) 0.3676(6)
C4A C 0.5952(2) 0.2176(4) 0.4546(4)
C5A C 0.6253(2) 0.2394(4) 0.3012(5)
C6A C 0.7231(2) 0.1397(4) 0.3130(4)
C7A C 0.5476(2) 0.2529(4) 0.4985(4)
C8A C 0.7637(3) 0.1895(5) 0.1696(5)
C9A C 0.8128(2) 0.1065(4) 0.2271(4)
C10A C 0.6464(3) 0.1405(4) 0.5250(5)
C11A C 0.8160(3) 0.0395(5) 0.3264(5)
C12A C 0.6887(3) 0.1147(5) 0.4802(5)
C13A C 0.7195(3) 0.2055(5) 0.2114(5)
H1A H 0.653(3) 0.106(5) 0.598(5)
H2A H 0.717(3) 0.060(5) 0.523(6)
H3A H 0.846(3) -0.017(5) 0.367(6)
H4A H 0.617(3) 0.273(4) 0.221(5)
H5A H 0.771(3) 0.006(5) 0.427(5)
H6A H 0.764(3) 0.241(5) 0.099(6)
H7A H 0.570(4) 0.612(6) 0.417(7)
H8A H 0.533(3) 0.606(5) 0.459(6)
H9A H 0.688(4) 0.278(6) 0.173(7)
Gd1B Gd 0.00000 -0.06407(2) 0.25000
Gd1B* Gd 1.00000 -0.06407(2) 0.25000
O3B O 0.59704(14) 0.5063(3) 0.2648(3)
O3C O 0.40296(14) 0.5063(3) 0.2352(3)
H13A H 0.51390 0.78970 0.20690
C14A C 0.4433(4) 0.9063(6) 0.1582(7)
H10A H 0.42890 0.95720 0.20380
H11A H 0.40580 0.85610 0.10060
H12A H 0.45720 0.95270 0.10840
#END
