
#######################################################################
#
#                 Cambridge Crystallographic Data Centre
#                                CCDC
#
#######################################################################
#
# If this CIF has been generated from an entry in the Cambridge
# Structural Database, then it will include bibliographic, chemical,
# crystal, experimental, refinement or atomic coordinate data resulting
# from the CCDC's data processing and validation procedures.
#
#######################################################################

data_CSD_CIF_TOHZUN01
_audit_creation_date 2017-03-30
_audit_creation_method CSD-ConQuest-V1
_database_code_CSD TOHZUN01
_database_code_depnum_ccdc_archive 'CCDC 1496496'
_chemical_formula_sum 'C28 H26 Gd1 N3 O10'
_chemical_formula_moiety
;
(C26 H18 Gd1 N2 O10 1-)n,n(C2 H8 N1 1+)
;
_journal_coden_Cambridge 9
_journal_volume 56
_journal_year 2017
_journal_page_first 1402
_journal_name_full 'Inorg.Chem. '
loop_
_publ_author_name
"Ya-Pan Wu"
"Guo-Wang Xu"
"Wen-Wen Dong"
"Jun Zhao"
"Dong-Sheng Li"
"Jian Zhang"
"Xianhui Bu"
_chemical_name_systematic
;
catena-[dimethylammonium 
bis(\m-5-(4-carboxylatophenyl)pyridine-2-carboxylato)-diaqua-gadolinium]
;
_cell_volume   2764.073
_exptl_crystal_colour 'colorless'
_exptl_crystal_density_diffrn 1.725
_exptl_crystal_description 'Prism'
_diffrn_ambient_temperature 293
#These two values have been output from a single CSD field.
_refine_ls_R_factor_gt 0.0322
_refine_ls_wR_factor_gt 0.0322
_symmetry_cell_setting monoclinic
_symmetry_space_group_name_H-M 'C 2/c'
_symmetry_Int_Tables_number 15
loop_
_symmetry_equiv_pos_site_id
_symmetry_equiv_pos_as_xyz
1 x,y,z
2 -x,y,1/2-z
3 1/2+x,1/2+y,z
4 1/2-x,1/2+y,1/2-z
5 -x,-y,-z
6 x,-y,-1/2+z
7 -1/2-x,-1/2-y,-z
8 -1/2+x,-1/2-y,-1/2+z
_cell_length_a 23.48(2)
_cell_length_b 11.414(7)
_cell_length_c 11.932(7)
_cell_angle_alpha 90
_cell_angle_beta 120.189(5)
_cell_angle_gamma 90
_cell_formula_units_Z 4
loop_
_atom_type_symbol
_atom_type_radius_bond
C 0.68
H 0.23
Gd 1.96
N 0.68
O 0.68
loop_
_atom_site_label
_atom_site_type_symbol
_atom_site_fract_x
_atom_site_fract_y
_atom_site_fract_z
Gd1 Gd 0.00000 0.436310(18) 0.25000
C1 C 0.04752(18) 0.2529(3) 0.0963(3)
C2 C 0.09538(17) 0.2173(3) 0.2355(3)
C3 C 0.1460(2) 0.1411(4) 0.2671(4)
H1 H 0.15200 0.10750 0.20280
C4 C 0.1885(2) 0.1145(4) 0.3968(4)
H2 H 0.22380 0.06400 0.41990
C5 C 0.17836(18) 0.1633(3) 0.4921(3)
C6 C 0.1253(2) 0.2397(4) 0.4494(4)
H3 H 0.11730 0.27300 0.51130
C7 C 0.22289(18) 0.1403(4) 0.6326(4)
C8 C 0.2717(3) 0.0559(4) 0.6756(5)
H4 H 0.27480 0.00930 0.61500
C9 C 0.3158(2) 0.0388(4) 0.8055(4)
H5 H 0.34780 -0.01900 0.83090
C10 C 0.31298(18) 0.1063(3) 0.8980(3)
C11 C 0.2637(3) 0.1888(5) 0.8576(4)
H6 H 0.26030 0.23400 0.91880
C12 C 0.2192(2) 0.2053(5) 0.7270(4)
H7 H 0.18610 0.26110 0.70200
C13 C 0.3619(2) 0.0897(4) 1.0408(4)
H8 H -0.05910 0.59940 0.37220
H9 H -0.04280 0.65130 0.28830
N1 N 0.08485(16) 0.2684(3) 0.3249(3)
O1 O 0.00919(13) 0.3384(2) 0.0815(2)
O2 O 0.04899(19) 0.1982(3) 0.0093(3)
O3 O 0.35796(16) 0.1561(3) 1.1195(3)
O4 O 0.40262(13) 0.0069(3) 1.0707(3)
O5 O -0.03862(17) 0.5883(3) 0.3311(3)
C14 C -0.0567(4) -0.0940(6) 0.2286(8)
H10 H -0.04480 -0.04620 0.30340
H11 H -0.09220 -0.14530 0.21430
H12 H -0.07050 -0.04480 0.15410
N2 N 0.00000 -0.1635(5) 0.25000
H13 H -0.01210 -0.21010 0.18070
H14? H -0.01210 -0.21010 0.18070
C1A C -0.04752(18) 0.2529(3) 0.4037(3)
C2A C -0.09538(17) 0.2173(3) 0.2645(3)
C3A C -0.1460(2) 0.1411(4) 0.2329(4)
H1A H -0.15200 0.10750 0.29720
C4A C -0.1885(2) 0.1145(4) 0.1032(4)
H2A H -0.22380 0.06400 0.08010
C5A C -0.17836(18) 0.1633(3) 0.0079(3)
C6A C -0.1253(2) 0.2397(4) 0.0506(4)
H3A H -0.11730 0.27300 -0.01130
C7A C -0.22289(18) 0.1403(4) -0.1326(4)
C8A C -0.2717(3) 0.0559(4) -0.1756(5)
H4A H -0.27480 0.00930 -0.11500
C9A C -0.3158(2) 0.0388(4) -0.3055(4)
H5A H -0.34780 -0.01900 -0.33090
C10A C -0.31298(18) 0.1063(3) -0.3980(3)
C11A C -0.2637(3) 0.1888(5) -0.3576(4)
H6A H -0.26030 0.23400 -0.41880
C12A C -0.2192(2) 0.2053(5) -0.2270(4)
H7A H -0.18610 0.26110 -0.20200
C13A C -0.3619(2) 0.0897(4) -0.5408(4)
H8A H 0.05910 0.59940 0.12780
H9A H 0.04280 0.65130 0.21170
N1A N -0.08485(16) 0.2684(3) 0.1751(3)
O1A O -0.00919(13) 0.3384(2) 0.4185(2)
O2A O -0.04899(19) 0.1982(3) 0.4907(3)
O3A O -0.35796(16) 0.1561(3) -0.6195(3)
O4A O -0.40262(13) 0.0069(3) -0.5707(3)
O5A O 0.03862(17) 0.5883(3) 0.1689(3)
Gd1B Gd -0.50000 -0.063690(18) -0.75000
Gd1B* Gd 0.50000 -0.063690(18) 1.25000
O4B O -0.09738(13) 0.5069(3) 0.0707(3)
O4C O 0.09738(13) 0.5069(3) 0.4293(3)
H13A H 0.01210 -0.21010 0.31930
C14A C 0.0567(4) -0.0940(6) 0.2714(8)
H10A H 0.04480 -0.04620 0.19660
H11A H 0.09220 -0.14530 0.28570
H12A H 0.07050 -0.04480 0.34590
#END
