
#######################################################################
#
#                 Cambridge Crystallographic Data Centre
#                                CCDC
#
#######################################################################
#
# If this CIF has been generated from an entry in the Cambridge
# Structural Database, then it will include bibliographic, chemical,
# crystal, experimental, refinement or atomic coordinate data resulting
# from the CCDC's data processing and validation procedures.
#
#######################################################################

data_CSD_CIF_TOJBAX
_audit_creation_date 2014-07-18
_audit_creation_method CSD-ConQuest-V1
_database_code_CSD TOJBAX
_database_code_depnum_ccdc_archive 'CCDC 967193'
_chemical_formula_sum 'C28 H26 Dy1 N3 O10'
_chemical_formula_moiety
;
(C26 H18 Dy1 N2 O10 1-)n,n(C2 H8 N1 1+)
;
_journal_coden_Cambridge 1295
_journal_volume 46
_journal_year 2014
_journal_page_first 340
_journal_name_full 'Inorg.Chem.Commun. '
loop_
_publ_author_name
"Li-Xin You"
"Zhi-Guo Li"
"Fu Ding"
"Shu-Ju Wang"
"Bao-Yi Ren"
"Ya-Guang Sun"
_chemical_name_systematic
;
catena-(Dimethylammonium 
bis(\m~2~-5-(4-carboxylatophenyl)pyridine-2-carboxylato)-diaqua-dysprosium)
;
_cell_volume   2751.885
_exptl_crystal_colour 'colorless'
_exptl_crystal_density_diffrn 1.755
_exptl_crystal_description 'block'
_diffrn_ambient_temperature 293
#These two values have been output from a single CSD field.
_refine_ls_R_factor_gt 0.051
_refine_ls_wR_factor_gt 0.051
_symmetry_cell_setting monoclinic
_symmetry_space_group_name_H-M 'C 2/c'
_symmetry_Int_Tables_number 15
loop_
_symmetry_equiv_pos_site_id
_symmetry_equiv_pos_as_xyz
1 x,y,z
2 -x,y,1/2-z
3 1/2+x,1/2+y,z
4 1/2-x,1/2+y,1/2-z
5 -x,-y,-z
6 x,-y,-1/2+z
7 -1/2-x,-1/2-y,-z
8 -1/2+x,-1/2-y,-1/2+z
_cell_length_a 23.371(5)
_cell_length_b 11.445(2)
_cell_length_c 11.905(2)
_cell_angle_alpha 90
_cell_angle_beta 120.21(3)
_cell_angle_gamma 90
_cell_formula_units_Z 4
loop_
_atom_type_symbol
_atom_type_radius_bond
C 0.68
H 0.23
Dy 1.92
N 0.68
O 0.68
loop_
_atom_site_label
_atom_site_type_symbol
_atom_site_fract_x
_atom_site_fract_y
_atom_site_fract_z
Dy1 Dy 0.50000 0.43613(3) 0.25000
O1 O 0.4913(2) 0.3408(3) 0.0654(4)
C1 C 0.2288(4) 0.0549(6) 0.1337(7)
O2 O 0.4630(3) 0.5849(5) 0.0949(6)
O3 O 0.09665(19) 0.0055(4) 0.2657(4)
O4 O 0.1417(2) 0.1546(4) 0.4038(5)
C2 C 0.2769(3) 0.1403(5) 0.1871(6)
O5 O 0.4518(3) 0.2014(5) -0.0868(5)
C3 C 0.1379(3) 0.0882(5) 0.3171(6)
C4 C 0.4065(3) 0.2188(5) 0.0480(6)
C5 C 0.3749(3) 0.2410(6) 0.1992(6)
C6 C 0.3223(3) 0.1643(5) 0.1374(6)
C7 C 0.3550(4) 0.1424(6) -0.0219(7)
C8 C 0.4532(3) 0.2551(5) 0.0034(6)
N1 N 0.4154(2) 0.2692(4) 0.1552(5)
C9 C 0.1842(4) 0.0374(6) 0.1757(7)
C10 C 0.1870(3) 0.1059(5) 0.2727(6)
C11 C 0.2804(4) 0.2056(7) 0.2885(7)
H1 H 0.31330 0.26190 0.32860
C12 C 0.2362(4) 0.1885(8) 0.3305(8)
C13 C 0.3124(4) 0.1140(7) 0.0221(7)
H2 H 0.273(3) 0.068(5) -0.035(6)
H3 H 0.152(4) -0.026(7) 0.136(8)
H4 H 0.354(4) 0.100(6) -0.091(7)
H5 H 0.223(4) 0.000(7) 0.062(7)
H6 H 0.383(4) 0.275(7) 0.276(7)
H7 H 0.242(4) 0.237(7) 0.399(8)
H8 H 0.433(3) 0.607(6) 0.074(6)
H9 H 0.473(5) 0.600(8) 0.050(9)
N2 N 0.50000 0.8340(7) 0.25000
H10 H 0.48770 0.78770 0.29520
C14 C 0.4429(5) 0.9059(8) 0.1583(10)
H11 H 0.42960 0.95550 0.20610
H12 H 0.40680 0.85570 0.10210
H13 H 0.45530 0.95300 0.10720
H14? H 0.48770 0.78770 0.29520
O1A O 0.5087(2) 0.3408(3) 0.4346(4)
C1A C 0.7712(4) 0.0549(6) 0.3663(7)
O2A O 0.5370(3) 0.5849(5) 0.4051(6)
O3A O 0.90335(19) 0.0055(4) 0.2343(4)
O4A O 0.8583(2) 0.1546(4) 0.0962(5)
C2A C 0.7231(3) 0.1403(5) 0.3129(6)
O5A O 0.5482(3) 0.2014(5) 0.5868(5)
C3A C 0.8621(3) 0.0882(5) 0.1829(6)
C4A C 0.5935(3) 0.2188(5) 0.4520(6)
C5A C 0.6251(3) 0.2410(6) 0.3008(6)
C6A C 0.6777(3) 0.1643(5) 0.3626(6)
C7A C 0.6450(4) 0.1424(6) 0.5219(7)
C8A C 0.5468(3) 0.2551(5) 0.4966(6)
N1A N 0.5846(2) 0.2692(4) 0.3448(5)
C9A C 0.8158(4) 0.0374(6) 0.3243(7)
C10A C 0.8130(3) 0.1059(5) 0.2273(6)
C11A C 0.7196(4) 0.2056(7) 0.2115(7)
H1A H 0.68670 0.26190 0.17140
C12A C 0.7638(4) 0.1885(8) 0.1695(8)
C13A C 0.6876(4) 0.1140(7) 0.4779(7)
H2A H 0.727(3) 0.068(5) 0.535(6)
H3A H 0.848(4) -0.026(7) 0.364(8)
H4A H 0.646(4) 0.100(6) 0.591(7)
H5A H 0.777(4) 0.000(7) 0.438(7)
H6A H 0.617(4) 0.275(7) 0.224(7)
H7A H 0.758(4) 0.237(7) 0.101(8)
H8A H 0.567(3) 0.607(6) 0.426(6)
H9A H 0.527(5) 0.600(8) 0.450(9)
Dy1B Dy 0.00000 -0.06387(3) 0.25000
Dy1B* Dy 1.00000 -0.06387(3) 0.25000
O3B O 0.59665(19) 0.5055(4) 0.2657(4)
O3C O 0.40335(19) 0.5055(4) 0.2343(4)
H10A H 0.51230 0.78770 0.20480
C14A C 0.5571(5) 0.9059(8) 0.3417(10)
H11A H 0.57040 0.95550 0.29390
H12A H 0.59320 0.85570 0.39790
H13A H 0.54470 0.95300 0.39280
#END
