
#######################################################################
#
#                 Cambridge Crystallographic Data Centre
#                                CCDC
#
#######################################################################
#
# If this CIF has been generated from an entry in the Cambridge
# Structural Database, then it will include bibliographic, chemical,
# crystal, experimental, refinement or atomic coordinate data resulting
# from the CCDC's data processing and validation procedures.
#
#######################################################################

data_CSD_CIF_TOJGUX
_audit_creation_date 2019-06-27
_audit_creation_method CSD-ConQuest-V1
_database_code_CSD TOJGUX
_database_code_depnum_ccdc_archive 'CCDC 1911946'
_chemical_formula_sum 'C24 H42 N4 O10 U1'
_chemical_formula_moiety
;
C16 H38 N4 2+,n(C8 H4 O10 U1 2-)
;
_journal_coden_Cambridge 1147
_journal_volume 19
_journal_year 2019
_journal_page_first 4109
_journal_name_full 'Cryst.Growth Des. '
loop_
_publ_author_name
"P.Thuery"
"Y.Atoini"
"J.Harrowfield"
_chemical_name_systematic
;
catena-[5,5,7,12,12,14-hexamethyl-1,4,8,11-tetraazacyclotetradecane-1,8-diium 
(\m-cyclobutane-1,2,3,4-tetracarboxylato)-dioxo-uranium]
;
_cell_volume   1409.037
_exptl_crystal_colour 'light yellow'
_exptl_crystal_density_diffrn 1.849
_exptl_crystal_description 'platelet'
_diffrn_ambient_temperature 100
#These two values have been output from a single CSD field.
_refine_ls_R_factor_gt 0.0294
_refine_ls_wR_factor_gt 0.0294
_symmetry_cell_setting triclinic
_symmetry_space_group_name_H-M 'P -1'
_symmetry_Int_Tables_number 2
loop_
_symmetry_equiv_pos_site_id
_symmetry_equiv_pos_as_xyz
1 x,y,z
2 -x,-y,-z
_cell_length_a 8.6568(4)
_cell_length_b 11.1063(7)
_cell_length_c 15.6213(15)
_cell_angle_alpha 88.047(3)
_cell_angle_beta 86.968(5)
_cell_angle_gamma 69.987(3)
_cell_formula_units_Z 2
loop_
_atom_type_symbol
_atom_type_radius_bond
C 0.68
H 0.23
N 0.68
O 0.68
U 1.96
loop_
_atom_site_label
_atom_site_type_symbol
_atom_site_fract_x
_atom_site_fract_y
_atom_site_fract_z
U1 U 0.25205(2) 0.55958(2) 0.64714(2)
O1 O 0.2086(4) 0.4151(3) 0.6362(2)
O2 O 0.3021(4) 0.7016(3) 0.6589(2)
O3 O 0.5191(3) 0.4353(3) 0.58564(19)
O4 O 0.7483(4) 0.4143(3) 0.5082(2)
O5 O 0.4383(4) 0.4825(3) 0.7621(2)
O6 O 0.6887(4) 0.3762(3) 0.8068(2)
O7 O 1.0693(4) 0.5984(3) 0.7666(2)
O8 O 0.8482(4) 0.6262(4) 0.8522(2)
O9 O 0.9980(4) 0.7192(3) 0.6049(2)
O10 O 0.7278(4) 0.8071(3) 0.5901(2)
C1 C 0.6656(6) 0.5744(5) 0.6180(3)
H1 H 0.58710 0.65920 0.59900
C2 C 0.6592(6) 0.5629(5) 0.7192(3)
H2 H 0.60060 0.64940 0.74380
C3 C 0.8488(5) 0.5365(5) 0.7155(3)
H3 H 0.90530 0.44140 0.71770
C4 C 0.8409(5) 0.5798(4) 0.6190(3)
H4 H 0.92070 0.51360 0.58150
C5 C 0.6443(5) 0.4676(4) 0.5670(3)
C6 C 0.5955(5) 0.4645(5) 0.7655(3)
C7 C 0.9231(5) 0.5945(5) 0.7832(3)
C8 C 0.8531(6) 0.7118(5) 0.6027(3)
N1 N 0.7677(5) 1.0407(4) 0.5648(2)
H5 H 0.75950 0.96140 0.57630
H6 H 0.88490 1.02140 0.55310
N2 N 0.9052(4) 1.0228(4) 0.3857(2)
H7 H 0.91160 1.10580 0.37980
C9 C 0.6727(5) 1.1069(5) 0.4901(3)
H8 H 0.68250 1.19280 0.48190
H9 H 0.55490 1.11840 0.50120
C10 C 0.7357(6) 1.0301(5) 0.4096(3)
H10 H 0.73230 0.94240 0.41920
H11 H 0.66330 1.07050 0.36210
C11 C 0.9749(6) 0.9501(5) 0.3051(3)
C12 C 1.1495(6) 0.9536(5) 0.2876(3)
H12 H 1.19010 0.91520 0.23090
H13 H 1.14200 1.04450 0.28330
C13 C 1.2778(6) 0.8864(5) 0.3523(3)
H14 H 1.27500 0.79790 0.36340
C14 C 0.8748(6) 1.0130(5) 0.2272(3)
H15 H 0.76220 1.01220 0.23590
H16 H 0.92610 0.96520 0.17550
H17 H 0.87230 1.10170 0.22040
C15 C 0.9780(6) 0.8121(5) 0.3162(3)
H18 H 1.01830 0.77880 0.37270
H19 H 1.05120 0.75910 0.27150
H20 H 0.86660 0.80990 0.31140
C16 C 1.4515(6) 0.8762(6) 0.3205(3)
H21 H 1.48120 0.82560 0.26820
H22 H 1.52930 0.83430 0.36470
H23 H 1.45540 0.96230 0.30810
N3 N 0.3323(5) 0.4400(4) 0.9328(3)
H24 H 0.35660 0.44670 0.87100
H25 H 0.43050 0.43360 0.95860
N4 N 0.3506(5) 0.6823(4) 1.0070(3)
H26 H 0.31200 0.67670 1.06170
C17 C 0.1900(6) 0.5500(5) 0.9667(3)
H27 H 0.17230 0.53670 1.02890
H28 H 0.08920 0.55350 0.93800
C18 C 0.2202(6) 0.6755(5) 0.9516(3)
H29 H 0.25390 0.68300 0.89070
H30 H 0.11720 0.74770 0.96430
C19 C 0.3949(6) 0.8022(5) 0.9981(3)
C20 C 0.5201(6) 0.7939(5) 1.0672(3)
H31 H 0.53590 0.87790 1.06860
H32 H 0.47010 0.78050 1.12360
C21 C 0.6890(6) 0.6907(5) 1.0574(3)
H33 H 0.73780 0.69840 0.99890
C22 C 0.2436(6) 0.9246(5) 1.0156(3)
H34 H 0.27950 0.99920 1.01620
H35 H 0.19040 0.91560 1.07120
H36 H 0.16520 0.93640 0.97030
C23 C 0.4704(6) 0.8100(6) 0.9076(3)
H37 H 0.55840 0.72870 0.89480
H38 H 0.51590 0.87970 0.90480
H39 H 0.38510 0.82650 0.86560
C24 C 0.8050(6) 0.7034(6) 1.1246(3)
H40 H 0.75550 0.70010 1.18210
H41 H 0.82350 0.78530 1.11590
H42 H 0.91030 0.63280 1.11860
U1* U 1.25205(2) 0.55958(2) 0.64714(2)
U1A U 0.74795(2) 0.44042(2) 0.35286(2)
O4A O 0.2517(4) 0.5857(3) 0.4918(2)
O7* O 0.0693(4) 0.5984(3) 0.7666(2)
O9* O -0.0020(4) 0.7192(3) 0.6049(2)
N1A N 1.2323(5) 0.9593(4) 0.4352(2)
H5A H 1.24050 1.03860 0.42370
H6A H 1.11510 0.97860 0.44690
N2A N 1.0948(4) 0.9772(4) 0.6143(2)
H7A H 1.08840 0.89420 0.62020
C9A C 1.3273(5) 0.8931(5) 0.5099(3)
H8A H 1.31750 0.80720 0.51810
H9A H 1.44510 0.88160 0.49880
C10A C 1.2643(6) 0.9699(5) 0.5904(3)
H10A H 1.26770 1.05760 0.58080
H11A H 1.33670 0.92950 0.63790
C11A C 1.0251(6) 1.0499(5) 0.6949(3)
C12A C 0.8505(6) 1.0464(5) 0.7124(3)
H12A H 0.80990 1.08480 0.76910
H13A H 0.85800 0.95550 0.71670
C13A C 0.7222(6) 1.1136(5) 0.6477(3)
H14A H 0.72500 1.20210 0.63660
C14A C 1.1252(6) 0.9870(5) 0.7728(3)
H15A H 1.23780 0.98780 0.76410
H16A H 1.07390 1.03480 0.82450
H17A H 1.12770 0.89830 0.77960
C15A C 1.0220(6) 1.1879(5) 0.6838(3)
H18A H 0.98170 1.22120 0.62730
H19A H 0.94880 1.24090 0.72850
H20A H 1.13340 1.19010 0.68860
C16A C 0.5485(6) 1.1238(6) 0.6795(3)
H21A H 0.51880 1.17440 0.73180
H22A H 0.47070 1.16570 0.63530
H23A H 0.54460 1.03770 0.69190
N3A N 0.6677(5) 0.5600(4) 1.0672(3)
H24A H 0.64340 0.55330 1.12900
H25A H 0.56950 0.56640 1.04140
N4A N 0.6494(5) 0.3177(4) 0.9930(3)
H26A H 0.68800 0.32330 0.93830
C17A C 0.8100(6) 0.4500(5) 1.0333(3)
H27A H 0.82770 0.46330 0.97110
H28A H 0.91080 0.44650 1.06200
C18A C 0.7798(6) 0.3245(5) 1.0484(3)
H29A H 0.74610 0.31700 1.10930
H30A H 0.88280 0.25230 1.03570
C19A C 0.6051(6) 0.1978(5) 1.0019(3)
C20A C 0.4799(6) 0.2061(5) 0.9328(3)
H31A H 0.46410 0.12210 0.93140
H32A H 0.52990 0.21950 0.87640
C21A C 0.3110(6) 0.3093(5) 0.9426(3)
H33A H 0.26220 0.30160 1.00110
C22A C 0.7564(6) 0.0754(5) 0.9844(3)
H34A H 0.72050 0.00080 0.98380
H35A H 0.80960 0.08440 0.92880
H36A H 0.83480 0.06360 1.02970
C23A C 0.5296(6) 0.1900(6) 1.0924(3)
H37A H 0.44160 0.27130 1.10520
H38A H 0.48410 0.12030 1.09520
H39A H 0.61490 0.17350 1.13440
C24A C 0.1950(6) 0.2966(6) 0.8754(3)
H40A H 0.24450 0.29990 0.81790
H41A H 0.17650 0.21470 0.88410
H42A H 0.08970 0.36720 0.88140
#END
