
#######################################################################
#
#                 Cambridge Crystallographic Data Centre
#                                CCDC
#
#######################################################################
#
# If this CIF has been generated from an entry in the Cambridge
# Structural Database, then it will include bibliographic, chemical,
# crystal, experimental, refinement or atomic coordinate data resulting
# from the CCDC's data processing and validation procedures.
#
#######################################################################

data_CSD_CIF_TOJHAE
_audit_creation_date 2019-06-27
_audit_creation_method CSD-ConQuest-V1
_database_code_CSD TOJHAE
_database_code_depnum_ccdc_archive 'CCDC 1911947'
_chemical_formula_sum 'C26 H36 N4 O20 U2'
_chemical_formula_moiety
;
C10 H28 N4 4+,2(C8 H4 O10 U1 2-)n
;
_journal_coden_Cambridge 1147
_journal_volume 19
_journal_year 2019
_journal_page_first 4109
_journal_name_full 'Cryst.Growth Des. '
loop_
_publ_author_name
"P.Thuery"
"Y.Atoini"
"J.Harrowfield"
_chemical_name_systematic
;
catena-[1,4,8,11-tetraazacyclotetradecane-1,4,8,11-tetraium 
bis((\m-cyclobutane-1,2,3,4-tetracarboxylato)-dioxo-uranium)]
;
_cell_volume    777.835
_exptl_crystal_colour 'light yellow'
_exptl_crystal_density_diffrn 2.563
_exptl_crystal_description 'parallelepiped'
_diffrn_ambient_temperature 150
#These two values have been output from a single CSD field.
_refine_ls_R_factor_gt 0.0257
_refine_ls_wR_factor_gt 0.0257
_symmetry_cell_setting triclinic
_symmetry_space_group_name_H-M 'P -1'
_symmetry_Int_Tables_number 2
loop_
_symmetry_equiv_pos_site_id
_symmetry_equiv_pos_as_xyz
1 x,y,z
2 -x,-y,-z
_cell_length_a 9.3916(7)
_cell_length_b 9.5919(5)
_cell_length_c 9.8049(7)
_cell_angle_alpha 111.545(5)
_cell_angle_beta 104.426(4)
_cell_angle_gamma 95.625(5)
_cell_formula_units_Z 1
loop_
_atom_type_symbol
_atom_type_radius_bond
C 0.68
H 0.23
N 0.68
O 0.68
U 1.96
loop_
_atom_site_label
_atom_site_type_symbol
_atom_site_fract_x
_atom_site_fract_y
_atom_site_fract_z
U1 U 0.80810(2) 0.32872(2) 0.61277(2)
O1 O 0.9473(4) 0.4275(4) 0.7996(4)
O2 O 0.6674(4) 0.2309(5) 0.4319(4)
O3 O 0.6656(4) 0.2071(4) 0.7243(4)
O4 O 0.4865(4) 0.1575(5) 0.8176(5)
O5 O 0.6511(4) 0.4873(5) 0.7105(4)
O6 O 0.4654(4) 0.5887(5) 0.7807(5)
O7 O 0.1517(4) 0.4421(4) 0.4295(4)
O8 O -0.0151(4) 0.3076(4) 0.4800(4)
O9 O 0.1078(4) -0.1082(4) 0.3898(4)
O10 O 0.1391(4) 0.0584(4) 0.2859(4)
C1 C 0.4154(6) 0.1788(6) 0.5750(6)
H1 H 0.43510 0.11140 0.47910
C2 C 0.4001(6) 0.3411(6) 0.5752(6)
H2 H 0.39270 0.33950 0.47110
C3 C 0.2430(6) 0.3156(6) 0.5916(6)
H3 H 0.24920 0.37220 0.70200
C4 C 0.2459(5) 0.1460(6) 0.5603(6)
H4 H 0.22750 0.11820 0.64420
C5 C 0.5265(6) 0.1805(6) 0.7172(6)
C6 C 0.5118(6) 0.4825(6) 0.6991(6)
C7 C 0.1185(6) 0.3570(6) 0.4910(6)
C8 C 0.1578(5) 0.0261(6) 0.4008(6)
N1 N 0.6899(4) 0.8105(6) 0.9973(5)
H5 H 0.64490 0.84140 1.07620
H6 H 0.63050 0.72370 0.91470
N2 N 1.0865(4) 0.7588(5) 1.0094(5)
H7 H 1.07820 0.66270 1.01120
H8 H 1.13160 0.83410 1.10900
C9 C 0.8366(6) 0.7733(7) 1.0465(6)
H9 H 0.82110 0.66830 1.04300
H10 H 0.89010 0.84510 1.15460
C10 C 0.9334(6) 0.7830(6) 0.9462(6)
H11 H 0.88530 0.70400 0.84010
H12 H 0.94200 0.88480 0.94180
C11 C 1.1867(6) 0.7526(6) 0.9099(6)
H13 H 1.13960 0.66570 0.80840
H14 H 1.28400 0.73320 0.95850
C12 C 1.2158(6) 0.8995(6) 0.8851(6)
H15 H 1.27110 0.88250 0.80860
H16 H 1.11800 0.92120 0.84110
C13 C 1.3049(6) 1.0392(6) 1.0307(6)
H17 H 1.40880 1.02540 1.06620
H18 H 1.25830 1.04850 1.11290
U1* U -0.19190(2) 0.32872(2) 0.61277(2)
U1A U 0.19190(2) -0.32872(2) 0.38723(2)
U1A* U 0.19190(2) 0.67128(2) 0.38723(2)
O7A O 0.8483(4) 0.5579(4) 0.5705(4)
O8* O 0.9849(4) 0.3076(4) 0.4800(4)
O9A O 0.8922(4) 0.1082(4) 0.6102(4)
N1A N 1.3101(4) 1.1895(6) 1.0027(5)
H5A H 1.35510 1.15860 0.92380
H6A H 1.36950 1.27630 1.08530
N2A N 0.9135(4) 1.2412(5) 0.9906(5)
H7A H 0.92180 1.33730 0.98880
H8A H 0.86840 1.16590 0.89100
C9A C 1.1634(6) 1.2267(7) 0.9535(6)
H9A H 1.17890 1.33170 0.95700
H10A H 1.10990 1.15490 0.84540
C10A C 1.0666(6) 1.2170(6) 1.0538(6)
H11A H 1.11470 1.29600 1.15990
H12A H 1.05800 1.11520 1.05820
C11A C 0.8133(6) 1.2474(6) 1.0901(6)
H13A H 0.86040 1.33430 1.19160
H14A H 0.71600 1.26680 1.04150
C12A C 0.7842(6) 1.1005(6) 1.1149(6)
H15A H 0.72890 1.11750 1.19140
H16A H 0.88200 1.07880 1.15890
C13A C 0.6951(6) 0.9608(6) 0.9693(6)
H17A H 0.59120 0.97460 0.93380
H18A H 0.74170 0.95150 0.88710
#END
