
#######################################################################
#
#                 Cambridge Crystallographic Data Centre
#                                CCDC
#
#######################################################################
#
# If this CIF has been generated from an entry in the Cambridge
# Structural Database, then it will include bibliographic, chemical,
# crystal, experimental, refinement or atomic coordinate data resulting
# from the CCDC's data processing and validation procedures.
#
#######################################################################

data_CSD_CIF_TOJJIN
_audit_creation_date 2014-07-18
_audit_creation_method CSD-ConQuest-V1
_database_code_CSD TOJJIN
_database_code_depnum_ccdc_archive 'CCDC 967192'
_chemical_formula_sum 'C28 H26 N3 O10 Tb1'
_chemical_formula_moiety
;
(C26 H18 N2 O10 Tb1 1-)n,C2 H8 N1 1+
;
_journal_coden_Cambridge 1295
_journal_volume 46
_journal_year 2014
_journal_page_first 340
_journal_name_full 'Inorg.Chem.Commun. '
loop_
_publ_author_name
"Li-Xin You"
"Zhi-Guo Li"
"Fu Ding"
"Shu-Ju Wang"
"Bao-Yi Ren"
"Ya-Guang Sun"
_chemical_name_systematic
;
catena-[dimethylammonium 
bis(\m~2~-5-(4-carboxylatophenyl)pyridine-2-carboxylato)-diaqua-terbium]
;
_cell_volume   2796.909
_exptl_crystal_colour 'colorless'
_exptl_crystal_density_diffrn 1.718
_exptl_crystal_description 'block'
_diffrn_ambient_temperature 293
#These two values have been output from a single CSD field.
_refine_ls_R_factor_gt 0.0477
_refine_ls_wR_factor_gt 0.0477
_symmetry_cell_setting monoclinic
_symmetry_space_group_name_H-M 'C 2/c'
_symmetry_Int_Tables_number 15
loop_
_symmetry_equiv_pos_site_id
_symmetry_equiv_pos_as_xyz
1 x,y,z
2 -x,y,1/2-z
3 1/2+x,1/2+y,z
4 1/2-x,1/2+y,1/2-z
5 -x,-y,-z
6 x,-y,-1/2+z
7 -1/2-x,-1/2-y,-z
8 -1/2+x,-1/2-y,-1/2+z
_cell_length_a 23.577(5)
_cell_length_b 11.491(2)
_cell_length_c 11.968(2)
_cell_angle_alpha 90
_cell_angle_beta 120.39(3)
_cell_angle_gamma 90
_cell_formula_units_Z 4
loop_
_atom_type_symbol
_atom_type_radius_bond
C 0.68
H 0.23
N 0.68
O 0.68
Tb 1.94
loop_
_atom_site_label
_atom_site_type_symbol
_atom_site_fract_x
_atom_site_fract_y
_atom_site_fract_z
Tb1 Tb 0.00000 0.06382(3) 0.25000
O1 O 0.00891(19) 0.1604(3) 0.4355(4)
O2 O -0.0380(2) -0.0861(3) 0.0930(4)
H1 H -0.02080 -0.09550 0.04610
H2 H -0.06890 -0.13080 0.08370
O3 O 0.40342(18) 0.4943(4) 0.2357(4)
C1 C 0.2717(3) 0.4448(5) 0.3681(7)
H3 H 0.27500 0.49040 0.43540
N1 N 0.0846(2) 0.2314(4) 0.3446(4)
C2 C 0.3155(3) 0.4616(5) 0.3248(6)
H4 H 0.34730 0.51940 0.36260
C3 C 0.1451(3) 0.3590(6) 0.5226(6)
H5 H 0.15060 0.39320 0.59790
C4 C 0.3626(3) 0.4108(5) 0.1838(6)
O4 O 0.3583(2) 0.3439(4) 0.0969(5)
C5 C 0.1782(3) 0.3373(5) 0.3636(6)
C6 C 0.0468(3) 0.2455(5) 0.4967(6)
O5 O 0.0481(2) 0.3006(4) 0.5874(5)
C7 C 0.0940(3) 0.2816(5) 0.4533(5)
C8 C 0.1255(3) 0.2600(6) 0.3014(6)
H6 H 0.11820 0.22590 0.22480
C9 C 0.2226(3) 0.3603(5) 0.3118(5)
C10 C 0.2198(3) 0.2952(7) 0.2121(6)
H7 H 0.18730 0.23870 0.17250
C11 C 0.1879(3) 0.3850(6) 0.4786(6)
H8 H 0.22320 0.43460 0.52630
C12 C 0.3132(3) 0.3946(5) 0.2270(5)
C13 C 0.2636(3) 0.3114(7) 0.1696(7)
H9 H 0.26000 0.26640 0.10180
C14 C 0.0570(5) 0.5929(7) 0.3417(9)
H10 H 0.04550 0.54890 0.39560
H11 H 0.09370 0.64250 0.39500
H12 H 0.06860 0.54060 0.29390
N2 N 0.00000 0.6652(7) 0.25000
H13 H 0.01210 0.71130 0.20490
H14? H 0.01210 0.71130 0.20490
O1A O -0.00891(19) 0.1604(3) 0.0645(4)
O2A O 0.0380(2) -0.0861(3) 0.4070(4)
H1A H 0.02080 -0.09550 0.45390
H2A H 0.06890 -0.13080 0.41630
O3A O -0.40342(18) 0.4943(4) 0.2643(4)
C1A C -0.2717(3) 0.4448(5) 0.1319(7)
H3A H -0.27500 0.49040 0.06460
N1A N -0.0846(2) 0.2314(4) 0.1554(4)
C2A C -0.3155(3) 0.4616(5) 0.1752(6)
H4A H -0.34730 0.51940 0.13740
C3A C -0.1451(3) 0.3590(6) -0.0226(6)
H5A H -0.15060 0.39320 -0.09790
C4A C -0.3626(3) 0.4108(5) 0.3162(6)
O4A O -0.3583(2) 0.3439(4) 0.4031(5)
C5A C -0.1782(3) 0.3373(5) 0.1364(6)
C6A C -0.0468(3) 0.2455(5) 0.0033(6)
O5A O -0.0481(2) 0.3006(4) -0.0874(5)
C7A C -0.0940(3) 0.2816(5) 0.0467(5)
C8A C -0.1255(3) 0.2600(6) 0.1986(6)
H6A H -0.11820 0.22590 0.27520
C9A C -0.2226(3) 0.3603(5) 0.1882(5)
C10A C -0.2198(3) 0.2952(7) 0.2879(6)
H7A H -0.18730 0.23870 0.32750
C11A C -0.1879(3) 0.3850(6) 0.0214(6)
H8A H -0.22320 0.43460 -0.02630
C12A C -0.3132(3) 0.3946(5) 0.2730(5)
C13A C -0.2636(3) 0.3114(7) 0.3304(7)
H9A H -0.26000 0.26640 0.39820
Tb1B Tb -0.50000 0.56382(3) 0.25000
Tb1B* Tb 0.50000 0.56382(3) 0.25000
O3B O -0.09658(18) -0.0057(4) 0.2357(4)
O3C O 0.09658(18) -0.0057(4) 0.2643(4)
H13A H -0.01210 0.71130 0.29510
C14A C -0.0570(5) 0.5929(7) 0.1583(9)
H10A H -0.04550 0.54890 0.10440
H11A H -0.09370 0.64250 0.10500
H12A H -0.06860 0.54060 0.20610
#END
