
#######################################################################
#
#                 Cambridge Crystallographic Data Centre
#                                CCDC
#
#######################################################################
#
# If this CIF has been generated from an entry in the Cambridge
# Structural Database, then it will include bibliographic, chemical,
# crystal, experimental, refinement or atomic coordinate data resulting
# from the CCDC's data processing and validation procedures.
#
#######################################################################

data_CSD_CIF_TONBUU
_audit_creation_date 2009-05-12
_audit_creation_method CSD-ConQuest-V1
_database_code_CSD TONBUU
_database_code_depnum_ccdc_archive 'CCDC 701454'
_chemical_formula_sum 'C48 H66 N6 Ni3 O21'
_chemical_formula_moiety
;
(C4 H12 N1 1+)3n,n(C30 H16 N1 Ni3 O19 3-),2n(C3 H7 N1 O1)
;
_journal_coden_Cambridge 182
_journal_year 2008
_journal_page_first 5987
_journal_name_full 'Chem.Commun. '
loop_
_publ_author_name
"Yi Du"
"A.L.Thompson"
"D.O'Hare"
_chemical_name_systematic
;
catena-(tris(tetramethylammonium) 
bis(\m~5~-1,3,5-benzenetricarboxylato-O,O,O',O'',O''',O'''')-(\m~5~-1,3,5-benz
enetricarboxylato-O,O',O'',O''',O'''')-(dimethylformamide)-tri-nickel(ii) 
dimethylformamide solvate)
;
_cell_volume   5002.370
_exptl_crystal_colour 'green'
_exptl_crystal_description 'plate'
_diffrn_ambient_temperature 150
_refine_special_details
;
The SQUEEZE/PLATON program has been used to model the disordered cations and 
solvent molecules.
;
#These two values have been output from a single CSD field.
_refine_ls_R_factor_gt 0.0651
_refine_ls_wR_factor_gt 0.0651
_symmetry_cell_setting monoclinic
_symmetry_space_group_name_H-M 'P 21/n'
_symmetry_Int_Tables_number 14
loop_
_symmetry_equiv_pos_site_id
_symmetry_equiv_pos_as_xyz
1 x,y,z
2 1/2-x,1/2+y,1/2-z
3 -x,-y,-z
4 -1/2+x,-1/2-y,-1/2+z
_cell_length_a 17.8669(6)
_cell_length_b 14.1157(6)
_cell_length_c 19.8394(7)
_cell_angle_alpha 90
_cell_angle_beta 91.256(3)
_cell_angle_gamma 90
_cell_formula_units_Z 4
loop_
_atom_type_symbol
_atom_type_radius_bond
C 0.68
H 0.23
N 0.68
Ni 1.39
O 0.68
loop_
_atom_site_label
_atom_site_type_symbol
_atom_site_fract_x
_atom_site_fract_y
_atom_site_fract_z
Ni1 Ni 0.24806(5) 0.05190(6) 0.42907(4)
O1 O 0.2616(3) 0.0102(3) 0.3319(2)
C1 C 0.2581(4) -0.0667(5) 0.3026(4)
O2 O 0.2430(3) -0.1484(3) 0.3269(2)
Ni2 Ni 0.20257(5) -0.18403(6) 0.41592(4)
O3 O 0.2633(3) -0.0854(3) 0.4666(2)
C2 C 0.3184(4) -0.1425(5) 0.4806(3)
O4 O 0.3154(3) -0.2255(3) 0.4569(2)
C3 C 0.3820(4) -0.1084(5) 0.5233(3)
C4 C 0.3676(4) -0.0333(5) 0.5685(4)
C5 C 0.4248(4) 0.0078(6) 0.6067(4)
C6 C 0.4977(4) -0.0259(6) 0.5984(4)
C7 C 0.5119(4) -0.0990(5) 0.5534(4)
C8 C 0.4539(4) -0.1410(5) 0.5159(4)
C9 C 0.5935(4) -0.1228(5) 0.5380(4)
O5 O 0.6419(3) -0.0734(3) 0.5676(2)
O6 O 0.6040(3) -0.1882(4) 0.4955(2)
Ni3 Ni 0.69737(5) -0.20592(7) 0.44362(5)
O7 O 0.2369(3) 0.0938(3) 0.5305(2)
C10 C 0.1841(4) 0.1142(5) 0.5705(4)
O8 O 0.1883(3) 0.1873(3) 0.6057(3)
C11 C 0.1216(4) 0.0440(5) 0.5760(3)
C12 C 0.0483(4) 0.0735(5) 0.5897(3)
C13 C -0.0095(4) 0.0061(5) 0.5869(3)
C14 C 0.0072(4) -0.0893(5) 0.5739(3)
C15 C 0.0799(4) -0.1176(5) 0.5635(3)
C16 C 0.1376(4) -0.0508(5) 0.5640(4)
C17 C 0.0951(4) -0.2198(5) 0.5456(4)
O9 O 0.1596(3) -0.2348(3) 0.5159(2)
O10 O 0.0506(3) -0.2814(4) 0.5578(3)
C18 C -0.0911(4) 0.0352(5) 0.5893(3)
O11 O -0.1032(3) 0.1229(3) 0.5993(2)
O12 O -0.1374(3) -0.0291(3) 0.5815(2)
O13 O 0.2512(3) -0.2201(3) 0.0161(2)
C19 C 0.2651(4) -0.2364(5) 0.0785(4)
O14 O 0.2694(3) -0.3145(3) 0.1080(2)
C20 C 0.2768(4) -0.1474(5) 0.1216(3)
C21 C 0.2928(4) -0.0623(5) 0.0887(4)
C22 C 0.3000(4) 0.0196(5) 0.1267(4)
C23 C 0.2907(4) 0.0183(5) 0.1952(4)
C24 C 0.2738(4) -0.0664(5) 0.2273(3)
C25 C 0.2672(4) -0.1490(5) 0.1891(4)
C26 C 0.3156(4) 0.1111(5) 0.0897(4)
O15 O 0.3212(3) 0.1864(3) 0.1227(2)
O16 O 0.3203(3) 0.1049(3) 0.0252(2)
O17 O 0.3489(3) 0.1396(4) 0.6397(2)
C27 C 0.4085(5) 0.0909(6) 0.6521(4)
O18 O 0.4538(4) 0.1088(6) 0.6983(4)
O19 O 0.6619(3) -0.3355(4) 0.4074(3)
C28 C 0.6371(5) -0.3914(6) 0.4497(5)
N1 N 0.6334(5) -0.4838(5) 0.4439(4)
C29 C 0.6040(6) -0.5446(8) 0.4953(5)
C30 C 0.6636(8) -0.5299(9) 0.3849(7)
N2 N 0.0626(4) 0.1714(6) 0.2247(4)
C31 C 0.1026(9) 0.2208(10) 0.1737(6)
C32 C -0.0106(7) 0.1331(10) 0.2001(9)
C33 C 0.1092(8) 0.0932(10) 0.2527(6)
C34 C 0.0481(8) 0.2407(12) 0.2824(7)
C35 C 0.0964(5) 0.7046(7) 0.2135(5)
N3 N 0.0588(5) 0.7914(6) 0.1983(4)
C36 C 0.0696(7) 0.8372(9) 0.1412(6)
O20 O 0.0404(5) 0.9149(6) 0.1252(4)
C37 C 0.0072(8) 0.8278(10) 0.2484(6)
H1 H 0.31810 -0.01010 0.57250
H2 H 0.53840 0.00170 0.62360
H3 H 0.46340 -0.19200 0.48510
H4 H 0.03790 0.13710 0.60060
H5 H -0.03190 -0.13510 0.57280
H6 H 0.18730 -0.07100 0.55630
H7 H 0.29700 -0.06030 0.04120
H8 H 0.29600 0.07450 0.22070
H9 H 0.25480 -0.20620 0.21080
H10 H 0.63610 -0.60080 0.50120
H11 H 0.55290 -0.56650 0.48200
H12 H 0.60110 -0.51050 0.53870
H13 H 0.63970 -0.59070 0.37630
H14 H 0.65600 -0.49030 0.34510
H15 H 0.71720 -0.54150 0.39040
H16 H 0.15350 0.23320 0.18940
H17 H 0.07760 0.27970 0.16360
H18 H 0.10380 0.18130 0.13380
H19 H -0.04060 0.11020 0.23690
H20 H -0.03680 0.18130 0.17560
H21 H -0.00150 0.07930 0.16960
H22 H 0.07890 0.05430 0.28150
H23 H 0.15070 0.11960 0.28030
H24 H 0.12880 0.05740 0.21670
H25 H 0.02140 0.21080 0.31790
H26 H 0.09490 0.26590 0.29950
H27 H 0.01790 0.29370 0.26470
H28 H 0.12030 0.70780 0.26130
H29 H 0.13740 0.69360 0.17840
H30 H 0.05840 0.64910 0.21120
H31 H 0.10300 0.81000 0.10820
H32 H -0.01240 0.89040 0.23550
H33 H 0.03160 0.83370 0.29170
H34 H -0.03610 0.78570 0.25290
H35 H 0.62000 -0.36530 0.49070
Ni1B Ni 0.75194(5) -0.05190(6) 0.57093(4)
Ni1B* Ni -0.24806(5) -0.05190(6) 0.57093(4)
Ni1A Ni 0.25194(5) -0.44810(6) 0.07093(4)
Ni2B Ni -0.20257(5) 0.18403(6) 0.58408(4)
Ni2A Ni 0.29743(5) 0.31597(6) 0.08408(4)
O5B O 0.3581(3) 0.0734(3) 0.4324(2)
Ni3B Ni 0.30263(5) 0.20592(7) 0.55638(5)
Ni3C Ni 0.19737(5) -0.29408(7) -0.05638(5)
O7B O 0.7631(3) -0.0938(3) 0.4695(2)
O8B O 0.8117(3) -0.1873(3) 0.3943(3)
O11B O 0.1032(3) -0.1229(3) 0.4007(2)
O12B O 0.1374(3) 0.0291(3) 0.4185(2)
O13C O 0.7512(3) -0.2799(3) 0.5161(2)
O14A O 0.2306(3) 0.1855(3) 0.3920(2)
O15A O 0.1788(3) -0.3136(3) 0.3773(2)
O17B O 0.6511(3) -0.1396(4) 0.3603(2)
#END
