
#######################################################################
#
#                 Cambridge Crystallographic Data Centre
#                                CCDC
#
#######################################################################
#
# If this CIF has been generated from an entry in the Cambridge
# Structural Database, then it will include bibliographic, chemical,
# crystal, experimental, refinement or atomic coordinate data resulting
# from the CCDC's data processing and validation procedures.
#
#######################################################################

data_CSD_CIF_TONJOX
_audit_creation_date 2014-07-22
_audit_creation_method CSD-ConQuest-V1
_database_code_CSD TONJOX
_database_code_depnum_ccdc_archive 'CCDC 973716'
_chemical_formula_sum 'C76 H74 N4 O34 P6 U4'
_chemical_formula_moiety
;
(C46 H48 O34 P6 U4 2-)n,2(C15 H13 N2 1+)
;
_journal_coden_Cambridge 1350
_journal_volume 16
_journal_year 2014
_journal_page_first 8073
_journal_name_full 'CrystEngComm '
loop_
_publ_author_name
"Weiting Yang"
"Hao Wang"
"Zi-Yi Du"
"Wan-Guo Tian"
"Zhong-Ming Sun"
_chemical_name_systematic
;
catena-(bis(1-(Biphenyl-4-yl)imidazolium) 
hexakis(\m~2~-(hydroxymethyl)phenylphosphinato)-bis(\m~2~-oxalato)-octaoxo-tet
ra-uranium)
;
_cell_volume   8624.203
_exptl_crystal_colour 'yellow'
_exptl_crystal_density_diffrn 2.099
_exptl_crystal_description 'rod'
_diffrn_ambient_temperature 293
#These two values have been output from a single CSD field.
_refine_ls_R_factor_gt 0.0515
_refine_ls_wR_factor_gt 0.0515
_symmetry_cell_setting monoclinic
_symmetry_space_group_name_H-M 'P 21/n'
_symmetry_Int_Tables_number 14
loop_
_symmetry_equiv_pos_site_id
_symmetry_equiv_pos_as_xyz
1 x,y,z
2 1/2-x,1/2+y,1/2-z
3 -x,-y,-z
4 -1/2+x,-1/2-y,-1/2+z
_cell_length_a 21.949(6)
_cell_length_b 17.918(4)
_cell_length_c 24.002(6)
_cell_angle_alpha 90
_cell_angle_beta 113.989(4)
_cell_angle_gamma 90
_cell_formula_units_Z 4
loop_
_atom_type_symbol
_atom_type_radius_bond
C 0.68
H 0.23
N 0.68
O 0.68
P 1.05
U 1.96
loop_
_atom_site_label
_atom_site_type_symbol
_atom_site_fract_x
_atom_site_fract_y
_atom_site_fract_z
U1 U 1.11941(2) 1.09359(2) 0.730857(19)
U2 U 0.87834(2) 0.93335(2) 0.769362(19)
U3 U 0.65241(2) 1.06154(2) 0.79225(2)
U4 U 0.34554(2) 0.96545(2) 0.70529(2)
P1 P 1.27652(15) 1.14712(16) 0.72886(14)
P2 P 0.86269(15) 0.76464(17) 0.67189(14)
P3 P 0.72040(14) 0.87941(16) 0.76918(13)
P4 P 0.83880(15) 1.07113(17) 0.86699(13)
P5 P 0.36347(15) 0.76284(17) 0.67057(14)
P6 P 0.15840(15) 0.95110(17) 0.63622(13)
O1 O 1.1804(4) 1.0421(4) 0.7891(3)
O2 O 1.0569(4) 1.1454(4) 0.6731(4)
O3 O 1.0394(4) 0.9882(4) 0.7049(3)
O4 O 1.0489(4) 1.0892(4) 0.7883(3)
O5 O 1.2015(3) 1.1528(4) 0.7099(3)
O6 O 1.2976(4) 1.0846(4) 0.7003(4)
O7 O 1.3013(7) 1.1907(9) 0.8410(6)
H1 H 1.26050 1.19170 0.82810
O8 O 0.9602(4) 1.0385(4) 0.7978(3)
O9 O 0.9509(4) 0.9386(4) 0.7145(4)
O10 O 0.9385(4) 0.8811(4) 0.8275(4)
O11 O 0.8180(4) 0.9854(4) 0.7100(3)
O12 O 0.8504(4) 0.8302(4) 0.7053(3)
O13 O 0.8647(4) 1.0076(4) 0.8420(3)
O14 O 0.8490(4) 0.6897(4) 0.6936(3)
O15 O 0.9678(5) 0.7143(6) 0.6523(5)
H2 H 0.95820 0.67390 0.66260
O16 O 0.9544(6) 1.1406(7) 0.8904(5)
H3 H 0.97330 1.16910 0.87580
O17 O 0.7660(4) 1.0882(4) 0.8341(3)
O18 O 0.6539(4) 1.0434(4) 0.8642(4)
O19 O 0.6480(4) 1.0785(5) 0.7185(4)
O20 O 0.6995(4) 0.9431(4) 0.7975(4)
O21 O 0.7954(3) 0.8711(4) 0.7885(3)
O22 O 0.6959(7) 0.8395(8) 0.6581(6)
H4 H 0.72030 0.80950 0.68300
O23 O 0.5660(4) 0.9640(4) 0.7459(4)
O24 O 0.5361(4) 1.1005(4) 0.7678(4)
O25 O 0.4319(4) 1.0640(5) 0.7492(5)
O26 O 0.4616(4) 0.9274(5) 0.7275(5)
O27 O 0.3413(4) 0.9818(4) 0.6327(4)
O28 O 0.3538(4) 0.9513(5) 0.7801(4)
O29 O 0.2321(4) 0.9388(4) 0.6689(3)
O30 O 0.3469(4) 0.8363(4) 0.6896(4)
O31 O 0.4641(7) 0.8034(8) 0.6516(6)
H5 H 0.46410 0.84100 0.67110
O32 O 0.3549(4) 0.6974(4) 0.7059(3)
O33 O 0.1307(4) 1.0203(4) 0.6541(3)
O34 O 0.0455(6) 0.8801(6) 0.6220(5)
H6 H 0.03600 0.91100 0.64240
C1 C 1.0020(6) 1.0427(6) 0.7756(5)
C2 C 0.9972(6) 0.9834(6) 0.7281(5)
C3 C 0.4886(6) 1.0528(7) 0.7544(6)
C4 C 0.5070(7) 0.9736(7) 0.7408(6)
C5 C 1.3195(7) 1.1381(8) 0.8114(5)
H7 H 1.31000 1.08940 0.82360
H8 H 1.36720 1.14140 0.82290
C6 C 1.2995(5) 1.2362(6) 0.7094(5)
C7 C 1.3562(6) 1.2421(7) 0.6951(5)
H9 H 1.38190 1.20040 0.69630
C8 C 1.3717(7) 1.3099(8) 0.6798(6)
H10 H 1.40880 1.31430 0.67060
C9 C 1.3340(7) 1.3732(8) 0.6774(5)
H11 H 1.34550 1.41920 0.66650
C10 C 1.2795(7) 1.3665(7) 0.6915(6)
H12 H 1.25400 1.40840 0.69030
C11 C 1.2621(6) 1.2986(6) 0.7074(5)
H13 H 1.22510 1.29480 0.71680
C12 C 0.9500(6) 0.7702(8) 0.6812(6)
H14 H 0.95700 0.81780 0.66540
H15 H 0.97890 0.76860 0.72430
C13 C 0.8125(6) 0.7769(8) 0.5926(5)
C14 C 0.7939(8) 0.848(1) 0.5695(7)
H16 H 0.80870 0.88880 0.59540
C15 C 0.7528(11) 0.8598(14) 0.5069(9)
H17 H 0.73730 0.90700 0.49150
C16 C 0.7372(10) 0.7977(16) 0.4703(9)
H18 H 0.71320 0.80430 0.42860
C17 C 0.7538(11) 0.7309(16) 0.4902(10)
H19 H 0.74030 0.69080 0.46330
C18 C 0.7930(9) 0.7181(10) 0.5540(7)
H20 H 0.80490 0.66990 0.56850
C19 C 0.6756(8) 0.8909(8) 0.6869(6)
H21 H 0.62800 0.88570 0.67550
H22 H 0.68380 0.94030 0.67500
C20 C 0.6929(6) 0.7936(6) 0.7873(5)
C21 C 0.6385(7) 0.7881(7) 0.8040(6)
H23 H 0.61580 0.83070 0.80680
C22 C 0.6192(7) 0.7195(8) 0.8160(5)
H24 H 0.58160 0.71580 0.82460
C23 C 0.6536(7) 0.6567(8) 0.8159(5)
H25 H 0.64020 0.61120 0.82590
C24 C 0.7068(7) 0.6588(7) 0.8016(6)
H26 H 0.73000 0.61540 0.80170
C25 C 0.7263(6) 0.7266(7) 0.7867(5)
H27 H 0.76250 0.72800 0.77590
C26 C 0.8849(6) 1.1552(7) 0.8641(6)
H28 H 0.87130 1.17080 0.82210
H29 H 0.87480 1.19530 0.88620
C27 C 0.8585(6) 1.0518(6) 0.9459(5)
C28 C 0.8118(9) 1.0460(13) 0.9675(7)
H30 H 0.76790 1.05650 0.94150
C29 C 0.8258(13) 1.0247(13) 1.0283(11)
H31 H 0.79220 1.01360 1.04120
C30 C 0.8928(10) 1.0212(10) 1.0675(8)
H32 H 0.90480 1.01540 1.10910
C31 C 0.9394(11) 1.0259(12) 1.0467(7)
H33 H 0.98380 1.01880 1.07320
C32 C 0.9236(8) 1.0416(11) 0.9851(7)
H34 H 0.95720 1.04490 0.97100
C33 C 0.4512(8) 0.7496(10) 0.6752(8)
H35 H 0.48270 0.74560 0.71740
H36 H 0.45370 0.70440 0.65400
C34 C 0.3129(6) 0.7451(8) 0.5922(6)
C35 C 0.2924(8) 0.8044(11) 0.5512(7)
H37 H 0.30280 0.85350 0.56390
C36 C 0.2550(11) 0.7861(18) 0.4889(10)
H38 H 0.24180 0.82530 0.46110
C37 C 0.2377(12) 0.7193(18) 0.4678(10)
H39 H 0.21130 0.70990 0.42690
C38 C 0.2609(9) 0.6647(15) 0.5095(9)
H40 H 0.25070 0.61580 0.49580
C39 C 0.2988(8) 0.6751(10) 0.5711(7)
H41 H 0.31410 0.63450 0.59730
C40 C 0.1155(6) 0.8697(8) 0.6467(6)
H42 H 0.12590 0.82720 0.62710
H43 H 0.13140 0.85890 0.68990
C41 C 0.1370(5) 0.9545(5) 0.5549(3)
C42 C 0.0701(4) 0.9494(6) 0.5153(5)
H44 H 0.03770 0.94430 0.53080
C43 C 0.0516(5) 0.9517(7) 0.4527(4)
H45 H 0.00690 0.94830 0.42620
C44 C 0.1000(7) 0.9592(6) 0.4296(3)
H46 H 0.08770 0.96080 0.38770
C45 C 0.1669(6) 0.9643(7) 0.4692(5)
H47 H 0.19930 0.96930 0.45380
C46 C 0.1854(4) 0.9620(7) 0.5319(5)
H48 H 0.23010 0.96540 0.55830
N1 N 0.9031(6) 0.6995(8) -0.0342(6)
N2 N 0.8725(6) 0.7959(8) -0.0946(7)
H49 H 0.85500 0.82300 -0.12680
C47 C 0.9192(9) 0.7643(10) 0.0005(9)
H50 H 0.93840 0.76700 0.04280
C48 C 0.9018(11) 0.8221(12) -0.0383(9)
H51 H 0.90910 0.87220 -0.02750
C49 C 0.8741(7) 0.7218(10) -0.0940(7)
H52 H 0.85830 0.69060 -0.12790
C50 C 0.9115(8) 0.6245(9) -0.0135(7)
C51 C 0.8665(9) 0.5716(10) -0.0483(8)
H53 H 0.83140 0.58490 -0.08470
C52 C 0.8746(8) 0.4973(9) -0.0280(7)
H54 H 0.84400 0.46150 -0.05080
C53 C 0.9281(8) 0.4761(9) 0.0265(6)
C54 C 0.9716(8) 0.5343(9) 0.0584(6)
H55 H 1.00780 0.52270 0.09450
C55 C 0.9634(8) 0.6072(9) 0.0389(6)
H56 H 0.99310 0.64390 0.06150
C56 C 0.9387(7) 0.3994(8) 0.0462(6)
C57 C 0.9142(8) 0.3396(10) 0.0048(7)
H57 H 0.88840 0.34910 -0.03620
C58 C 0.9285(9) 0.2674(9) 0.0251(7)
H58 H 0.91320 0.22870 -0.00300
C59 C 0.9644(8) 0.2506(10) 0.0851(7)
H59 H 0.97160 0.20140 0.09840
C60 C 0.9892(9) 0.3079(10) 0.1247(7)
H60 H 1.01590 0.29780 0.16550
C61 C 0.9756(9) 0.3797(10) 0.1059(7)
H61 H 0.99200 0.41750 0.13480
N3 N 0.9072(6) 0.7256(8) 0.4781(6)
N4 N 0.8809(8) 0.8291(11) 0.4273(8)
H62 H 0.86370 0.86040 0.39780
C62 C 0.9303(9) 0.7838(11) 0.5173(7)
H63 H 0.95340 0.77920 0.55940
C63 C 0.9154(11) 0.8485(12) 0.4873(10)
H64 H 0.92620 0.89630 0.50340
C64 C 0.8777(10) 0.7583(13) 0.4214(8)
H65 H 0.85860 0.73280 0.38460
C65 C 0.9134(8) 0.6477(10) 0.4941(7)
C66 C 0.8719(11) 0.5967(13) 0.4591(9)
H66 H 0.83780 0.61160 0.42260
C67 C 0.8772(12) 0.5210(12) 0.4751(9)
H67 H 0.84430 0.48850 0.45060
C68 C 0.9286(9) 0.4929(12) 0.5249(8)
C69 C 0.9748(10) 0.5449(11) 0.5598(7)
H68 H 1.01050 0.52910 0.59490
C70 C 0.9698(9) 0.6216(12) 0.5440(7)
H69 H 1.00360 0.65450 0.56660
C71 C 0.9375(9) 0.4129(11) 0.5421(9)
C72 C 0.9045(9) 0.3607(12) 0.4992(9)
H70 H 0.87460 0.37470 0.46040
C73 C 0.9167(10) 0.2861(11) 0.5149(9)
H71 H 0.89550 0.25010 0.48540
C74 C 0.9581(11) 0.2637(12) 0.5713(12)
H72 H 0.96480 0.21310 0.58030
C75 C 0.9903(11) 0.3155(14) 0.6152(10)
H73 H 1.01930 0.30090 0.65420
C76 C 0.9785(10) 0.3900(13) 0.6003(8)
H74 H 0.99860 0.42580 0.63020
U1* U 0.11941(2) 1.09359(2) 0.730857(19)
U1A U 0.38059(2) 0.59359(2) 0.769143(19)
U3A U 0.84759(2) 0.56154(2) 0.70775(2)
U4* U 1.34554(2) 0.96545(2) 0.70529(2)
O6* O 0.2976(4) 1.0846(4) 0.7003(4)
O14A O 0.6510(4) 1.1897(4) 0.8064(3)
O32A O 1.1451(4) 1.1974(4) 0.7941(3)
O33* O 1.1307(4) 1.0203(4) 0.6541(3)
#END
