
#######################################################################
#
#                 Cambridge Crystallographic Data Centre
#                                CCDC
#
#######################################################################
#
# If this CIF has been generated from an entry in the Cambridge
# Structural Database, then it will include bibliographic, chemical,
# crystal, experimental, refinement or atomic coordinate data resulting
# from the CCDC's data processing and validation procedures.
#
#######################################################################

data_CSD_CIF_TONLIT
_audit_creation_date 2014-07-22
_audit_creation_method CSD-ConQuest-V1
_database_code_CSD TONLIT
_database_code_depnum_ccdc_archive 'CCDC 990734'
_chemical_formula_sum 'C42 H41 Cd3 N3 O21'
_chemical_formula_moiety
;
(C32 H15 Cd3 O19 1-)n,2n(C4 H9 N1 O1),n(C2 H8 N1 1+)
;
_journal_coden_Cambridge 1350
_journal_volume 16
_journal_year 2014
_journal_page_first 8047
_journal_name_full 'CrystEngComm '
loop_
_publ_author_name
"De-Liang Yang"
"Xin Zhang"
"Yuan-Gen Yao"
"Jian Zhang"
_chemical_name_systematic
;
catena-(Dimethylammonium 
(\m~6~-3-(3,5-dicarboxylatophenoxy)phthalato)-(\m~5~-hydrogen 
3-(3,5-dicarboxylatophenoxy)phthalato)-aqua-tri-cadmium dimethylacetamide 
solvate)
;
_cell_volume   8912.182
_exptl_crystal_colour 'colorless'
_exptl_crystal_density_diffrn 1.88
_exptl_crystal_description 'rod'
_diffrn_ambient_temperature 293
#These two values have been output from a single CSD field.
_refine_ls_R_factor_gt 0.0492
_refine_ls_wR_factor_gt 0.0492
_symmetry_cell_setting orthorhombic
_symmetry_space_group_name_H-M 'P b c a'
_symmetry_Int_Tables_number 61
loop_
_symmetry_equiv_pos_site_id
_symmetry_equiv_pos_as_xyz
1 x,y,z
2 1/2-x,-y,1/2+z
3 -x,1/2+y,1/2-z
4 1/2+x,1/2-y,-z
5 -x,-y,-z
6 -1/2+x,y,-1/2-z
7 x,-1/2-y,-1/2+z
8 -1/2-x,-1/2+y,z
_cell_length_a 21.9035(6)
_cell_length_b 14.5496(4)
_cell_length_c 27.9653(6)
_cell_angle_alpha 90
_cell_angle_beta 90
_cell_angle_gamma 90
_cell_formula_units_Z 8
loop_
_atom_type_symbol
_atom_type_radius_bond
C 0.68
H 0.23
Cd 1.44
N 0.68
O 0.68
loop_
_atom_site_label
_atom_site_type_symbol
_atom_site_fract_x
_atom_site_fract_y
_atom_site_fract_z
Cd1 Cd 1.05904(2) 0.33788(3) -0.025598(15)
Cd2 Cd 0.93467(2) 0.22070(4) -0.219657(14)
Cd3 Cd 1.00214(2) 0.18173(3) -0.111209(15)
C1 C 1.1599(3) 0.2860(4) -0.1533(2)
C2 C 1.1282(3) 0.2661(4) -0.1955(2)
C3 C 1.1608(3) 0.2571(4) -0.2374(2)
C4 C 1.2235(3) 0.2683(5) -0.2393(2)
H1 H 1.24450 0.26200 -0.26800
C5 C 1.2542(3) 0.2895(6) -0.1969(2)
H2 H 1.29620 0.29930 -0.19740
C6 C 1.2228(3) 0.2961(5) -0.1542(2)
H3 H 1.24390 0.30730 -0.12600
C7 C 1.1279(3) 0.2981(4) -0.1065(2)
C8 C 1.0605(3) 0.2557(5) -0.1996(2)
C9 C 1.1142(3) 0.2859(4) -0.31388(18)
C10 C 1.1034(3) 0.2460(5) -0.35791(19)
H4 H 1.10780 0.18300 -0.36220
C11 C 1.0856(3) 0.3021(5) -0.3956(2)
C12 C 1.0778(3) 0.3936(5) -0.3884(2)
H5 H 1.06560 0.43070 -0.41380
C13 C 1.0876(3) 0.4327(4) -0.34376(19)
C14 C 1.1064(3) 0.3776(4) -0.30615(19)
H6 H 1.11360 0.40280 -0.27610
C15 C 1.0759(3) 0.2586(5) -0.4436(2)
C16 C 1.0785(3) 0.5348(4) -0.3371(2)
C17 C 0.8670(3) 0.2941(4) -0.0499(2)
C18 C 0.8375(3) 0.2820(4) -0.0942(2)
C19 C 0.7748(3) 0.2730(6) -0.0952(2)
H7 H 0.75480 0.26850 -0.12440
C20 C 0.7412(3) 0.2708(6) -0.0535(3)
H8 H 0.69900 0.26410 -0.05470
C21 C 0.7702(3) 0.2784(5) -0.0098(2)
H9 H 0.74780 0.27520 0.01850
C22 C 0.8309(3) 0.2904(4) -0.0084(2)
C23 C 0.9351(3) 0.3090(5) -0.0422(2)
C24 C 0.8728(3) 0.2769(4) -0.1400(2)
C25 C 0.8800(3) 0.2350(4) 0.0619(2)
C26 C 0.8926(3) 0.2547(5) 0.1091(2)
H10 H 0.88880 0.31460 0.12050
C27 C 0.9110(3) 0.1848(5) 0.1397(2)
C28 C 0.9176(3) 0.0963(5) 0.1225(2)
H11 H 0.92880 0.04910 0.14310
C29 C 0.9076(3) 0.0780(5) 0.0744(2)
C30 C 0.8873(3) 0.1473(4) 0.04376(19)
H12 H 0.87890 0.13480 0.01180
C31 C 0.9193(3) 0.2080(5) 0.1919(2)
C32 C 0.9162(3) -0.0175(5) 0.0565(2)
O1 O 1.1563(2) 0.3068(4) -0.06884(15)
O2 O 1.0872(3) 0.4831(4) -0.03270(19)
H13 H 1.079(4) 0.538(3) -0.024(3)
H14 H 1.107(4) 0.492(6) -0.0584(18)
O3 O 1.0687(2) 0.3005(3) -0.10639(14)
O4 O 1.0294(2) 0.3179(4) -0.21725(17)
O5 O 1.0369(2) 0.1783(4) -0.18791(16)
O6 O 1.1303(2) 0.2245(3) -0.27778(13)
O7 O 1.0650(2) 0.1750(3) -0.44570(15)
O8 O 1.0798(2) 0.3066(3) -0.48117(15)
O9 O 1.0663(2) 0.5789(3) -0.37458(17)
O10 O 1.0845(2) 0.5690(3) -0.29639(15)
O11 O 0.93020(19) 0.2909(3) -0.13956(15)
O12 O 0.8452(2) 0.2542(4) -0.17683(14)
O13 O 0.9686(2) 0.2387(3) -0.04221(13)
O14 O 0.9543(2) 0.3853(4) -0.03359(17)
O15 O 0.8604(2) 0.3088(3) 0.03465(14)
O16 O 0.9077(3) -0.0265(4) 0.01062(17)
H15 H 0.911(5) -0.088(7) 0.003(3)
O17 O 0.9278(2) -0.0812(4) 0.08272(17)
O18 O 0.9134(2) 0.1484(4) 0.22258(15)
O19 O 0.9309(3) 0.2909(4) 0.20176(18)
C33 C 0.7970(4) 0.5173(7) -0.1336(3)
C34 C 0.7550(7) 0.5138(12) -0.1762(4)
H16 H 0.77870 0.50450 -0.20480
H17 H 0.73300 0.57060 -0.17860
H18 H 0.72670 0.46390 -0.17250
C35 C 0.7089(4) 0.5304(8) -0.0811(4)
H19 H 0.68610 0.52780 -0.11040
H20 H 0.69890 0.58590 -0.06430
H21 H 0.69870 0.47830 -0.06160
C36 C 0.8141(4) 0.5322(7) -0.0503(3)
H22 H 0.85600 0.53160 -0.06050
H23 H 0.80640 0.47980 -0.03040
H24 H 0.80630 0.58740 -0.03250
O20 O 0.8529(3) 0.5104(5) -0.1393(2)
N1 N 0.7744(3) 0.5291(5) -0.0918(3)
C37 C 1.2047(5) 0.5263(6) -0.1205(3)
C38 C 1.2493(5) 0.5218(8) -0.0797(3)
H25 H 1.22740 0.51500 -0.05010
H26 H 1.27300 0.57730 -0.07880
H27 H 1.27600 0.47010 -0.08400
C39 C 1.1817(4) 0.5334(7) -0.2032(3)
H28 H 1.14100 0.53460 -0.19060
H29 H 1.18740 0.47860 -0.22170
H30 H 1.18810 0.58630 -0.22320
C40 C 1.2916(4) 0.5350(7) -0.1755(3)
H31 H 1.31590 0.53650 -0.14690
H32 H 1.30050 0.58810 -0.19460
H33 H 1.30100 0.48040 -0.19340
O21 O 1.1483(2) 0.5190(4) -0.11396(17)
N2 N 1.2266(3) 0.5348(5) -0.1628(3)
C41 C 1.0011(4) 0.5116(9) -0.1415(4)
H34 H 0.99780 0.47210 -0.11410
H35 H 0.98780 0.57240 -0.13310
H36 H 1.04280 0.51370 -0.15190
C42 C 0.9674(5) 0.5344(7) -0.2232(3)
H37 H 0.94210 0.50920 -0.24810
H38 H 1.00900 0.53620 -0.23390
H39 H 0.95400 0.59550 -0.21580
N3 N 0.9629(3) 0.4760(5) -0.1801(3)
H40 H 0.92380 0.47400 -0.17020
H41 H 0.97460 0.41840 -0.18730
Cd1F Cd 1.05904(2) 0.16212(3) -0.525598(15)
Cd2B Cd 1.06533(2) 0.72070(4) -0.280343(14)
Cd2F Cd 0.93467(2) 0.27930(4) 0.280343(14)
Cd3B Cd 0.99786(2) 0.68173(3) -0.388791(15)
Cd3D Cd 0.99786(2) -0.18173(3) 0.111209(15)
O7F O 1.0650(2) 0.3250(3) 0.05430(15)
O8F O 1.0798(2) 0.1934(3) 0.01883(15)
O9B O 0.9337(2) 0.0789(3) -0.12542(17)
O10B O 0.9155(2) 0.0690(3) -0.20361(15)
O17D O 1.0722(2) 0.0812(4) -0.08272(17)
O18F O 0.9134(2) 0.3516(4) -0.27742(15)
O19F O 0.9309(3) 0.2091(4) -0.29824(18)
#END
