
#######################################################################
#
#                 Cambridge Crystallographic Data Centre
#                                CCDC
#
#######################################################################
#
# If this CIF has been generated from an entry in the Cambridge
# Structural Database, then it will include bibliographic, chemical,
# crystal, experimental, refinement or atomic coordinate data resulting
# from the CCDC's data processing and validation procedures.
#
#######################################################################

data_CSD_CIF_TONTOH
_audit_creation_date 2014-07-23
_audit_creation_method CSD-ConQuest-V1
_database_code_CSD TONTOH
_database_code_depnum_ccdc_archive 'CCDC 976911'
_chemical_formula_sum 'C74 H48 Co2 N12 P2'
_chemical_formula_moiety
;
(C36 H12 Co2 N12 2-)n,2n(C19 H18 P1 1+)
;
_journal_coden_Cambridge 1220
_journal_volume 20
_journal_year 2014
_journal_page_first 7593
_journal_name_full 'Chem.-Eur.J. '
loop_
_publ_author_name
"M.R.Saber"
"A.V.P.B.F.Abrahams"
"R.W.Elliott"
"R.Robson"
"K.R.Dunbar"
_chemical_name_systematic
;
catena-[bis(methyl(triphenyl)phosphonium) 
tris(\m-1,4-phenylenedimethanidedicarbonitrile)-di-cobalt]
;
_cell_volume   8996.731
_exptl_crystal_colour 'red'
_exptl_crystal_density_diffrn 1.423
_exptl_special_details
;
Magnetic properties

;
_exptl_crystal_description 'Block'
_diffrn_ambient_temperature 110.2
#These two values have been output from a single CSD field.
_refine_ls_R_factor_gt 0.0414
_refine_ls_wR_factor_gt 0.0414
_symmetry_cell_setting rhombohedral
_symmetry_space_group_name_H-M 'R -3 c'
_symmetry_Int_Tables_number 167
loop_
_symmetry_equiv_pos_site_id
_symmetry_equiv_pos_as_xyz
1 x,y,z
2 -y,x-y,z
3 -x+y,-x,z
4 x-y,-y,1/2-z
5 -x,-x+y,1/2-z
6 y,x,1/2-z
7 2/3+x,1/3+y,1/3+z
8 2/3-y,1/3+x-y,1/3+z
9 2/3-x+y,1/3-x,1/3+z
10 2/3+x-y,1/3-y,5/6-z
11 2/3-x,1/3-x+y,5/6-z
12 2/3+y,1/3+x,5/6-z
13 1/3+x,2/3+y,2/3+z
14 1/3-y,2/3+x-y,2/3+z
15 1/3-x+y,2/3-x,2/3+z
16 1/3+x-y,2/3-y,1/6-z
17 1/3-x,2/3-x+y,1/6-z
18 1/3+y,2/3+x,1/6-z
19 -x,-y,-z
20 y,-x+y,-z
21 x-y,x,-z
22 -x+y,y,-1/2+z
23 x,x-y,-1/2+z
24 -y,-x,-1/2+z
25 -2/3-x,-1/3-y,-1/3-z
26 -2/3+y,-1/3-x+y,-1/3-z
27 -2/3+x-y,-1/3+x,-1/3-z
28 -2/3-x+y,-1/3+y,-5/6+z
29 -2/3+x,-1/3+x-y,-5/6+z
30 -2/3-y,-1/3-x,-5/6+z
31 -1/3-x,-2/3-y,-2/3-z
32 -1/3+y,-2/3-x+y,-2/3-z
33 -1/3+x-y,-2/3+x,-2/3-z
34 -1/3-x+y,-2/3+y,-1/6+z
35 -1/3+x,-2/3+x-y,-1/6+z
36 -1/3-y,-2/3-x,-1/6+z
_cell_length_a 12.9021(18)
_cell_length_b 12.9021(18)
_cell_length_c 62.407(13)
_cell_angle_alpha 90
_cell_angle_beta 90
_cell_angle_gamma 120
_cell_formula_units_Z 6
loop_
_atom_type_symbol
_atom_type_radius_bond
C 0.68
H 0.23
Co 1.26
N 0.68
P 1.05
loop_
_atom_site_label
_atom_site_type_symbol
_atom_site_fract_x
_atom_site_fract_y
_atom_site_fract_z
Co1 Co 0.33330 0.66670 0.00347(2)
N1 N 0.19733(16) 0.53141(16) 0.02214(3)
C1 C 0.10400(19) 0.47002(19) 0.02958(3)
C2 C -0.10879(19) 0.37172(19) 0.02600(3)
C3 C -0.00901(18) 0.39867(19) 0.03858(3)
C4 C -0.02396(18) 0.36629(18) 0.06140(3)
C5 C 0.06059(18) 0.34937(18) 0.07261(3)
H1 H 0.13010 0.36010 0.06540
C6 C -0.12527(18) 0.34969(19) 0.07269(3)
H2 H -0.18370 0.36120 0.06550
N2 N -0.19283(16) 0.34828(16) 0.01595(3)
P1 P 0.00000 0.00000 0.05680(2)
C7 C 0.1229(2) 0.13524(19) 0.04641(4)
C8 C 0.2363(2) 0.1825(2) 0.05538(4)
H3 H 0.24790 0.14880 0.06810
C9 C 0.3321(2) 0.2795(2) 0.04559(5)
H4 H 0.40990 0.31290 0.05160
C10 C 0.3151(2) 0.3277(2) 0.02709(5)
H5 H 0.38150 0.39360 0.02040
C11 C 0.2032(2) 0.2815(2) 0.01823(4)
H6 H 0.19220 0.31540 0.00550
C12 C 0.1065(2) 0.1853(2) 0.02793(4)
H7 H 0.02880 0.15340 0.02190
C13 C 0.00000 0.00000 0.08556(7)
H8 H 0.07850 0.01670 0.09080
H9? H 0.07850 0.01670 0.09080
H10? H 0.07850 0.01670 0.09080
N1O N -0.000747(160) 0.135257(160) 0.144527(30)
C1O C -0.032687(190) 0.196647(190) 0.137087(30)
C2O C -0.147177(190) 0.294947(190) 0.140667(30)
C3O C -0.074347(180) 0.267997(190) 0.128087(30)
C4O C -0.056917(180) 0.300377(180) 0.105267(30)
C5O C 0.044553(180) 0.317297(180) 0.094057(30)
H1O H 0.10333 0.30657 0.10127
C6O C -0.141627(180) 0.316977(190) 0.093977(30)
H2O H -0.21157 0.30547 0.10117
N2O N -0.207777(160) 0.318387(160) 0.150717(30)
N1A N 0.46859(16) 0.66592(16) 0.02214(3)
C1A C 0.52998(19) 0.63398(19) 0.02958(3)
C2A C 0.62828(19) 0.51949(19) 0.02600(3)
C3A C 0.60133(18) 0.59232(19) 0.03858(3)
C4A C 0.63371(18) 0.60975(18) 0.06140(3)
C5A C 0.65063(18) 0.71122(18) 0.07261(3)
H1A H 0.63990 0.77000 0.06540
C6A C 0.65031(18) 0.52504(19) 0.07269(3)
H2A H 0.63880 0.45510 0.06550
N2A N 0.65172(16) 0.45889(16) 0.01595(3)
N1Q N 0.864743(160) 0.863997(160) 0.144527(30)
C1Q C 0.803353(190) 0.770667(190) 0.137087(30)
C2Q C 0.705053(190) 0.557877(190) 0.140667(30)
C3Q C 0.732003(180) 0.657657(190) 0.128087(30)
C4Q C 0.699623(180) 0.642707(180) 0.105267(30)
C5Q C 0.682703(180) 0.727257(180) 0.094057(30)
H1Q H 0.69343 0.79677 0.10127
C6Q C 0.683023(180) 0.541397(190) 0.093977(30)
H2Q H 0.69453 0.48297 0.10117
N2Q N 0.681613(160) 0.473837(160) 0.150717(30)
N1B N 0.33408(16) 0.80267(16) 0.02214(3)
C1B C 0.36602(19) 0.89600(19) 0.02958(3)
C2B C 0.48051(19) 1.10879(19) 0.02600(3)
C3B C 0.40768(18) 1.00901(19) 0.03858(3)
C4B C 0.39025(18) 1.02396(18) 0.06140(3)
C5B C 0.28878(18) 0.93941(18) 0.07261(3)
H1B H 0.23000 0.86990 0.06540
C6B C 0.47496(18) 1.12527(19) 0.07269(3)
H2B H 0.54490 1.18370 0.06550
N2B N 0.54111(16) 1.19283(16) 0.01595(3)
N1P N 0.136003(160) 1.000747(160) 0.144527(30)
C1P C 0.229333(190) 1.032687(190) 0.137087(30)
C2P C 0.442123(190) 1.147177(190) 0.140667(30)
C3P C 0.342343(180) 1.074347(190) 0.128087(30)
C4P C 0.357293(180) 1.056917(180) 0.105267(30)
C5P C 0.272743(180) 0.955447(180) 0.094057(30)
H1P H 0.20323 0.89667 0.10127
C6P C 0.458603(180) 1.141627(190) 0.093977(30)
H2P H 0.51703 1.21157 0.10117
N2P N 0.526163(160) 1.207777(160) 0.150717(30)
Co1R Co -0.33330 0.33330 -0.00347(2)
Co1O Co -0.00007 -0.00003 0.163197(20)
Co1O* Co -0.00007 0.99997 0.163197(20)
Co1O** Co 0.99993 0.99997 0.163197(20)
Co1R* Co 0.66670 0.33330 -0.00347(2)
Co1R** Co 0.66670 1.33330 -0.00347(2)
Co1AA Co -0.33327 0.33337 0.170137(20)
Co1AA* Co 0.66673 0.33337 0.170137(20)
Co1AA** Co 0.66673 1.33337 0.170137(20)
N1R N -0.19733(16) 0.46859(16) -0.02214(3)
N1S N -0.46859(16) 0.33408(16) -0.02214(3)
N1T N -0.33408(16) 0.19733(16) -0.02214(3)
N2A* N -0.34828(16) 0.45889(16) 0.01595(3)
N2B* N -0.45889(16) 0.19283(16) 0.01595(3)
N2R N 0.19283(16) 0.65172(16) -0.01595(3)
N2S N 0.34828(16) 0.54111(16) -0.01595(3)
N2T N 0.45889(16) 0.80717(16) -0.01595(3)
H8B H -0.06180 -0.07850 0.09080
H8A H -0.01670 0.06180 0.09080
C7A C -0.13524(20) -0.01234(19) 0.04641(4)
C8A C -0.1825(2) 0.0538(2) 0.05538(4)
H3A H -0.14880 0.09910 0.06810
C9A C -0.2795(2) 0.0526(2) 0.04559(5)
H4A H -0.31290 0.09700 0.05160
C10A C -0.3277(2) -0.0126(2) 0.02709(5)
H5A H -0.39360 -0.01210 0.02040
C11A C -0.2815(2) -0.0783(2) 0.01823(4)
H6A H -0.31540 -0.12320 0.00550
C12A C -0.1853(2) -0.0788(2) 0.02793(4)
H7A H -0.15340 -0.12460 0.02190
C7B C 0.01234(20) -0.12290(19) 0.04641(4)
C8B C -0.0538(2) -0.2363(2) 0.05538(4)
H3B H -0.09910 -0.24790 0.06810
C9B C -0.0526(2) -0.3321(2) 0.04559(5)
H4B H -0.09700 -0.40990 0.05160
C10B C 0.0126(2) -0.3151(2) 0.02709(5)
H5B H 0.01210 -0.38150 0.02040
C11B C 0.0783(2) -0.2032(2) 0.01823(4)
H6B H 0.12320 -0.19220 0.00550
C12B C 0.0788(2) -0.1065(2) 0.02793(4)
H7B H 0.12460 -0.02880 0.02190
#END
