
#######################################################################
#
#                 Cambridge Crystallographic Data Centre
#                                CCDC
#
#######################################################################
#
# If this CIF has been generated from an entry in the Cambridge
# Structural Database, then it will include bibliographic, chemical,
# crystal, experimental, refinement or atomic coordinate data resulting
# from the CCDC's data processing and validation procedures.
#
#######################################################################

data_CSD_CIF_TONTUN
_audit_creation_date 2014-07-23
_audit_creation_method CSD-ConQuest-V1
_database_code_CSD TONTUN
_database_code_depnum_ccdc_archive 'CCDC 976912'
_chemical_formula_sum 'C74 H48 N12 Ni2 P2'
_chemical_formula_moiety
;
(C36 H12 N12 Ni2 2-)n,2n(C19 H18 P1 1+)
;
_journal_coden_Cambridge 1220
_journal_volume 20
_journal_year 2014
_journal_page_first 7593
_journal_name_full 'Chem.-Eur.J. '
loop_
_publ_author_name
"M.R.Saber"
"A.V.P.B.F.Abrahams"
"R.W.Elliott"
"R.Robson"
"K.R.Dunbar"
_chemical_name_systematic
;
catena-[bis(methyl(triphenyl)phosphonium) 
tris(\m-1,4-phenylenedimethanidedicarbonitrile)-di-nickel]
;
_cell_volume   8886.087
_exptl_crystal_colour 'green'
_exptl_crystal_density_diffrn 1.44
_exptl_crystal_description 'block'
_diffrn_ambient_temperature 110
#These two values have been output from a single CSD field.
_refine_ls_R_factor_gt 0.0317
_refine_ls_wR_factor_gt 0.0317
_symmetry_cell_setting rhombohedral
_symmetry_space_group_name_H-M 'R -3 c'
_symmetry_Int_Tables_number 167
loop_
_symmetry_equiv_pos_site_id
_symmetry_equiv_pos_as_xyz
1 x,y,z
2 -y,x-y,z
3 -x+y,-x,z
4 x-y,-y,1/2-z
5 -x,-x+y,1/2-z
6 y,x,1/2-z
7 2/3+x,1/3+y,1/3+z
8 2/3-y,1/3+x-y,1/3+z
9 2/3-x+y,1/3-x,1/3+z
10 2/3+x-y,1/3-y,5/6-z
11 2/3-x,1/3-x+y,5/6-z
12 2/3+y,1/3+x,5/6-z
13 1/3+x,2/3+y,2/3+z
14 1/3-y,2/3+x-y,2/3+z
15 1/3-x+y,2/3-x,2/3+z
16 1/3+x-y,2/3-y,1/6-z
17 1/3-x,2/3-x+y,1/6-z
18 1/3+y,2/3+x,1/6-z
19 -x,-y,-z
20 y,-x+y,-z
21 x-y,x,-z
22 -x+y,y,-1/2+z
23 x,x-y,-1/2+z
24 -y,-x,-1/2+z
25 -2/3-x,-1/3-y,-1/3-z
26 -2/3+y,-1/3-x+y,-1/3-z
27 -2/3+x-y,-1/3+x,-1/3-z
28 -2/3-x+y,-1/3+y,-5/6+z
29 -2/3+x,-1/3+x-y,-5/6+z
30 -2/3-y,-1/3-x,-5/6+z
31 -1/3-x,-2/3-y,-2/3-z
32 -1/3+y,-2/3-x+y,-2/3-z
33 -1/3+x-y,-2/3+x,-2/3-z
34 -1/3-x+y,-2/3+y,-1/6+z
35 -1/3+x,-2/3+x-y,-1/6+z
36 -1/3-y,-2/3-x,-1/6+z
_cell_length_a 12.8717(18)
_cell_length_b 12.8717(18)
_cell_length_c 61.931(12)
_cell_angle_alpha 90
_cell_angle_beta 90
_cell_angle_gamma 120
_cell_formula_units_Z 6
loop_
_atom_type_symbol
_atom_type_radius_bond
C 0.68
H 0.23
N 0.68
Ni 1.24
P 1.05
loop_
_atom_site_label
_atom_site_type_symbol
_atom_site_fract_x
_atom_site_fract_y
_atom_site_fract_z
Ni1 Ni 0.33330 0.66670 0.003359(5)
N1 N 0.33402(12) 0.80158(11) 0.02172(2)
N2 N 0.54083(12) 1.19482(12) 0.01568(2)
C1 C 0.36589(13) 0.89549(14) 0.02915(2)
C2 C 0.48026(13) 1.10949(13) 0.02562(2)
C3 C 0.40735(14) 1.00903(13) 0.03824(2)
C4 C 0.38977(13) 1.02375(13) 0.06116(2)
C5 C 0.28837(13) 0.93882(13) 0.07253(2)
C6 C 0.47470(14) 1.12515(14) 0.07254(2)
H1 H 0.2307(16) 0.8702(17) 0.0654(3)
H2 H 0.5444(16) 1.1868(16) 0.0658(3)
P1 P 0.00000 0.00000 0.057484(13)
C7 C 0.12328(14) 0.13570(14) 0.04698(3)
C8 C 0.23713(16) 0.18402(16) 0.05607(3)
C9 C 0.33319(18) 0.28137(18) 0.04610(4)
C10 C 0.31610(17) 0.32850(17) 0.02725(4)
C11 C 0.20325(17) 0.28107(16) 0.01833(3)
C12 C 0.10634(16) 0.18474(15) 0.02817(3)
C13 C 0.00000 0.00000 0.08635(5)
H3 H -0.01070 0.06580 0.09160
H4 H 0.2439(19) 0.152(2) 0.0701(4)
H5 H 0.412(2) 0.319(2) 0.0525(4)
H6 H 0.384(2) 0.395(2) 0.0203(4)
H7 H 0.1891(19) 0.3101(19) 0.0049(3)
H8 H 0.0288(19) 0.1512(18) 0.0223(3)
N1Q N 0.134913(120) 1.000687(110) 0.144947(20)
N2Q N 0.528153(120) 1.207497(120) 0.150987(20)
C1Q C 0.228823(130) 1.032557(140) 0.137517(20)
C2Q C 0.442823(130) 1.146927(130) 0.141047(20)
C3Q C 0.342363(140) 1.074017(130) 0.128427(20)
C4Q C 0.357083(130) 1.056437(130) 0.105507(20)
C5Q C 0.272153(130) 0.955037(130) 0.094137(20)
C6Q C 0.458483(140) 1.141367(140) 0.094127(20)
H1Q H 0.203533(1600) 0.897367(1700) 0.101267(300)
H2Q H 0.520133(1600) 1.211067(1600) 0.100867(300)
N1A N 0.19842(12) 0.53244(11) 0.02172(2)
N2A N -0.19482(12) 0.34601(12) 0.01568(2)
C1A C 0.10451(13) 0.47040(14) 0.02915(2)
C2A C -0.10949(13) 0.37077(13) 0.02562(2)
C3A C -0.00903(14) 0.39832(13) 0.03824(2)
C4A C -0.02375(13) 0.36602(13) 0.06116(2)
C5A C 0.06118(13) 0.34955(13) 0.07253(2)
C6A C -0.12515(14) 0.34955(14) 0.07254(2)
H1A H 0.1298(16) 0.3605(17) 0.0654(3)
H2A H -0.1868(16) 0.3576(16) 0.0658(3)
N1P N -0.000687(120) 0.134227(110) 0.144947(20)
N2P N -0.207497(120) 0.320657(120) 0.150987(20)
C1P C -0.032557(130) 0.196267(140) 0.137517(20)
C2P C -0.146927(130) 0.295897(130) 0.141047(20)
C3P C -0.074017(140) 0.268347(130) 0.128427(20)
C4P C -0.056437(130) 0.300647(130) 0.105507(20)
C5P C 0.044963(130) 0.317117(130) 0.094137(20)
C6P C -0.141367(140) 0.317117(140) 0.094127(20)
H1P H 0.102633(1600) 0.306167(1700) 0.101267(300)
H2P H -0.211067(1600) 0.309067(1600) 0.100867(300)
N1B N 0.46756(12) 0.66598(11) 0.02172(2)
N2B N 0.65399(12) 0.45917(12) 0.01568(2)
C1B C 0.52960(13) 0.63411(14) 0.02915(2)
C2B C 0.62923(13) 0.51974(13) 0.02562(2)
C3B C 0.60168(14) 0.59265(13) 0.03824(2)
C4B C 0.63398(13) 0.61023(13) 0.06116(2)
C5B C 0.65045(13) 0.71163(13) 0.07253(2)
C6B C 0.65045(14) 0.52530(14) 0.07254(2)
H1B H 0.6395(16) 0.7693(17) 0.0654(3)
H2B H 0.6424(16) 0.4556(16) 0.0658(3)
N1O N 0.865773(120) 0.865087(110) 0.144947(20)
N2O N 0.679343(120) 0.471847(120) 0.150987(20)
C1O C 0.803733(130) 0.771177(140) 0.137517(20)
C2O C 0.704103(130) 0.557177(130) 0.141047(20)
C3O C 0.731653(140) 0.657637(130) 0.128427(20)
C4O C 0.699353(130) 0.642917(130) 0.105507(20)
C5O C 0.682883(130) 0.727847(130) 0.094137(20)
C6O C 0.682883(140) 0.541517(140) 0.094127(20)
H1O H 0.693833(1600) 0.796467(1700) 0.101267(300)
H2O H 0.690933(1600) 0.479867(1600) 0.100867(300)
Ni1R Ni 0.66670 1.33330 -0.003359(5)
Ni1O Ni -0.00007 -0.00003 0.163308(5)
Ni1O* Ni -0.00007 0.99997 0.163308(5)
Ni1O** Ni 0.99993 0.99997 0.163308(5)
Ni1R* Ni -0.33330 0.33330 -0.003359(5)
Ni1R** Ni 0.66670 0.33330 -0.003359(5)
Ni1AA Ni -0.33327 0.33337 0.170026(5)
Ni1AA* Ni 0.66673 0.33337 0.170026(5)
Ni1AA** Ni 0.66673 1.33337 0.170026(5)
N1R N 0.66598(12) 1.19842(11) -0.02172(2)
N1S N 0.80158(12) 1.46756(11) -0.02172(2)
N1T N 0.53244(12) 1.33402(11) -0.02172(2)
N2A* N 0.80518(12) 1.34601(12) 0.01568(2)
N2B* N 0.65399(12) 1.45917(12) 0.01568(2)
N2R N 0.45917(12) 0.80518(12) -0.01568(2)
N2S N 0.19482(12) 0.65399(12) -0.01568(2)
N2T N 0.34601(12) 0.54083(12) -0.01568(2)
C7A C -0.13570(14) -0.01242(14) 0.04698(3)
C8A C -0.18402(16) 0.05311(16) 0.05607(3)
C9A C -0.28137(18) 0.05182(18) 0.04610(4)
C10A C -0.32850(17) -0.01240(17) 0.02725(4)
C11A C -0.28107(17) -0.07782(16) 0.01833(3)
C12A C -0.18474(16) -0.07840(15) 0.02817(3)
H3A H -0.06580 -0.07650 0.09160
H4A H -0.1520(19) 0.0919(20) 0.0701(4)
H5A H -0.319(2) 0.093(2) 0.0525(4)
H6A H -0.395(2) -0.011(2) 0.0203(4)
H7A H -0.3101(19) -0.1210(19) 0.0049(3)
H8A H -0.1512(19) -0.1224(18) 0.0223(3)
C7B C 0.01242(14) -0.12328(14) 0.04698(3)
C8B C -0.05311(16) -0.23713(16) 0.05607(3)
C9B C -0.05182(18) -0.33319(18) 0.04610(4)
C10B C 0.01240(17) -0.31610(17) 0.02725(4)
C11B C 0.07782(17) -0.20325(16) 0.01833(3)
C12B C 0.07840(16) -0.10634(15) 0.02817(3)
H3B H 0.07650 0.01070 0.09160
H4B H -0.0919(19) -0.2439(20) 0.0701(4)
H5B H -0.093(2) -0.412(2) 0.0525(4)
H6B H 0.011(2) -0.384(2) 0.0203(4)
H7B H 0.1210(19) -0.1891(19) 0.0049(3)
H8B H 0.1224(19) -0.0288(18) 0.0223(3)
#END
