
#######################################################################
#
#                 Cambridge Crystallographic Data Centre
#                                CCDC
#
#######################################################################
#
# If this CIF has been generated from an entry in the Cambridge
# Structural Database, then it will include bibliographic, chemical,
# crystal, experimental, refinement or atomic coordinate data resulting
# from the CCDC's data processing and validation procedures.
#
#######################################################################

data_CSD_CIF_TONTIB
_audit_creation_date 2014-07-23
_audit_creation_method CSD-ConQuest-V1
_database_code_CSD TONTIB
_database_code_depnum_ccdc_archive 'CCDC 976910'
_chemical_formula_sum 'C74 H48 Fe2 N12 P2'
_chemical_formula_moiety
;
(C36 H12 Fe2 N12 2-)n,2n(C19 H18 P1 1+)
;
_journal_coden_Cambridge 1220
_journal_volume 20
_journal_year 2014
_journal_page_first 7593
_journal_name_full 'Chem.-Eur.J. '
loop_
_publ_author_name
"M.R.Saber"
"A.V.P.B.F.Abrahams"
"R.W.Elliott"
"R.Robson"
"K.R.Dunbar"
_chemical_name_systematic
;
catena-[bis(methyl(triphenyl)phosphonium) 
tris(\m-1,4-phenylenedimethanidedicarbonitrile)-di-iron]
;
_cell_volume   9186.373
_exptl_crystal_colour 'yellow'
_exptl_crystal_density_diffrn 1.387
_exptl_special_details
;
Magnetic properties

;
_exptl_crystal_description 'Block'
_diffrn_ambient_temperature 110
#These two values have been output from a single CSD field.
_refine_ls_R_factor_gt 0.0319
_refine_ls_wR_factor_gt 0.0319
_symmetry_cell_setting rhombohedral
_symmetry_space_group_name_H-M 'R -3 c'
_symmetry_Int_Tables_number 167
loop_
_symmetry_equiv_pos_site_id
_symmetry_equiv_pos_as_xyz
1 x,y,z
2 -y,x-y,z
3 -x+y,-x,z
4 x-y,-y,1/2-z
5 -x,-x+y,1/2-z
6 y,x,1/2-z
7 2/3+x,1/3+y,1/3+z
8 2/3-y,1/3+x-y,1/3+z
9 2/3-x+y,1/3-x,1/3+z
10 2/3+x-y,1/3-y,5/6-z
11 2/3-x,1/3-x+y,5/6-z
12 2/3+y,1/3+x,5/6-z
13 1/3+x,2/3+y,2/3+z
14 1/3-y,2/3+x-y,2/3+z
15 1/3-x+y,2/3-x,2/3+z
16 1/3+x-y,2/3-y,1/6-z
17 1/3-x,2/3-x+y,1/6-z
18 1/3+y,2/3+x,1/6-z
19 -x,-y,-z
20 y,-x+y,-z
21 x-y,x,-z
22 -x+y,y,-1/2+z
23 x,x-y,-1/2+z
24 -y,-x,-1/2+z
25 -2/3-x,-1/3-y,-1/3-z
26 -2/3+y,-1/3-x+y,-1/3-z
27 -2/3+x-y,-1/3+x,-1/3-z
28 -2/3-x+y,-1/3+y,-5/6+z
29 -2/3+x,-1/3+x-y,-5/6+z
30 -2/3-y,-1/3-x,-5/6+z
31 -1/3-x,-2/3-y,-2/3-z
32 -1/3+y,-2/3-x+y,-2/3-z
33 -1/3+x-y,-2/3+x,-2/3-z
34 -1/3-x+y,-2/3+y,-1/6+z
35 -1/3+x,-2/3+x-y,-1/6+z
36 -1/3-y,-2/3-x,-1/6+z
_cell_length_a 13.0157(18)
_cell_length_b 13.0157(18)
_cell_length_c 62.615(13)
_cell_angle_alpha 90
_cell_angle_beta 90
_cell_angle_gamma 120
_cell_formula_units_Z 6
loop_
_atom_type_symbol
_atom_type_radius_bond
C 0.68
H 0.23
Fe 1.52
N 0.68
P 1.05
loop_
_atom_site_label
_atom_site_type_symbol
_atom_site_fract_x
_atom_site_fract_y
_atom_site_fract_z
Fe1 Fe 0.33330 0.66670 0.003542(7)
N1 N 0.45971(15) 0.65006(15) -0.01593(3)
C1 C 0.59225(17) 0.60124(17) -0.03872(3)
C2 C 0.71019(16) 0.65047(16) -0.07265(3)
H1 H 0.76830 0.63960 -0.06550
C3 C 0.60974(17) 0.63348(16) -0.06149(3)
C4 C 0.52012(17) 0.62732(16) -0.02607(3)
C5 C 0.52591(17) 0.65029(17) -0.07262(3)
H2 H 0.45680 0.63920 -0.06540
N2 N 0.66717(21) 0.47127(15) -0.02220(3)
C6 C 0.63491(17) 0.53148(17) -0.02973(3)
P1 P 0.00000 0.00000 0.056465(15)
C7 C -0.13424(17) -0.12252(18) 0.04615(3)
C8 C -0.18024(19) -0.23505(19) 0.05525(4)
H3 H -0.14610 -0.24610 0.06780
C9 C -0.28095(18) -0.20265(19) 0.01838(4)
H4 H -0.31540 -0.19200 0.00580
C10 C -0.18495(18) -0.10663(18) 0.02783(3)
H5 H -0.15360 -0.02970 0.02180
C11 C -0.3267(2) -0.3145(2) 0.02730(4)
H6 H -0.39270 -0.38050 0.02080
C12 C -0.2771(2) -0.3306(2) 0.04553(5)
H7 H -0.30920 -0.40770 0.05150
C13 C 0.00000 0.00000 0.08511(6)
H8 H 0.07370 0.06790 0.09030
H9? H 0.07370 0.06790 0.09030
H10? H 0.07370 0.06790 0.09030
N1I N 0.476317(150) 0.683273(150) -0.150737(30)
C1I C 0.657677(170) 0.732093(170) -0.127947(30)
C2I C 0.726387(160) 0.682863(160) -0.094017(30)
H1I H 0.79537 0.69373 -0.10117
C3I C 0.642927(170) 0.699853(160) -0.105177(30)
C4I C 0.559467(170) 0.706013(160) -0.140597(30)
C5I C 0.542287(170) 0.683043(170) -0.094047(30)
H2I H 0.48427 0.69413 -0.10127
C6I C 0.770097(170) 0.801853(170) -0.136937(30)
N2I N 0.862567(210) 0.862063(150) -0.144467(30)
N1A N 0.34994(15) 0.80965(15) -0.01593(3)
C1A C 0.39876(17) 0.99101(17) -0.03872(3)
C2A C 0.34953(16) 1.05972(16) -0.07265(3)
H1A H 0.36040 1.12870 -0.06550
C3A C 0.36652(17) 0.97626(16) -0.06149(3)
C4A C 0.37268(17) 0.89280(16) -0.02607(3)
C5A C 0.34971(17) 0.87562(17) -0.07262(3)
H2A H 0.36080 0.81760 -0.06540
N2A N 0.52873(21) 1.19590(15) -0.02220(3)
C6A C 0.46852(17) 1.10343(17) -0.02973(3)
N1K N 0.316727(150) 0.793043(150) -0.150737(30)
C1K C 0.267907(170) 0.925583(170) -0.127947(30)
C2K C 0.317137(160) 1.043523(160) -0.094017(30)
H1K H 0.30627 1.10163 -0.10117
C3K C 0.300147(170) 0.943073(160) -0.105177(30)
C4K C 0.293987(170) 0.853453(160) -0.140597(30)
C5K C 0.316957(170) 0.859243(170) -0.094047(30)
H2K H 0.30587 0.79013 -0.10127
C6K C 0.198147(170) 0.968243(170) -0.136937(30)
N2K N 0.137937(210) 1.000503(150) -0.144467(30)
N1B N 0.19035(15) 0.54029(15) -0.01593(3)
C1B C 0.00899(17) 0.40775(17) -0.03872(3)
C2B C -0.05972(16) 0.28981(16) -0.07265(3)
H1B H -0.12870 0.23170 -0.06550
C3B C 0.02374(17) 0.39026(16) -0.06149(3)
C4B C 0.10720(17) 0.47988(16) -0.02607(3)
C5B C 0.12438(17) 0.47409(17) -0.07262(3)
H2B H 0.18240 0.54320 -0.06540
N2B N -0.19590(21) 0.33283(15) -0.02220(3)
C6B C -0.10343(17) 0.36509(17) -0.02973(3)
N1J N 0.206957(150) 0.523683(150) -0.150737(30)
C1J C 0.074417(170) 0.342323(170) -0.127947(30)
C2J C -0.043523(160) 0.273613(160) -0.094017(30)
H1J H -0.10163 0.20463 -0.10117
C3J C 0.056927(170) 0.357073(160) -0.105177(30)
C4J C 0.146547(170) 0.440533(160) -0.140597(30)
C5J C 0.140757(170) 0.457713(170) -0.094047(30)
H2J H 0.20987 0.51573 -0.10127
C6J C 0.031757(170) 0.229903(170) -0.136937(30)
N2J N -0.000503(210) 0.137433(150) -0.144467(30)
Fe1I Fe 0.33327 0.66663 -0.170209(7)
Fe1R Fe -0.33330 0.33330 -0.003542(7)
Fe1R* Fe 0.66670 0.33330 -0.003542(7)
Fe1R** Fe 0.66670 1.33330 -0.003542(7)
Fe1GA Fe 0.00007 0.00003 -0.163125(7)
Fe1GA* Fe 0.00007 1.00003 -0.163125(7)
Fe1GA** Fe 1.00007 1.00003 -0.163125(7)
N2R N 0.33283(21) 0.52873(15) 0.02220(3)
N2S N 0.47127(21) 0.80410(15) 0.02220(3)
N2T N 0.19590(21) 0.66717(15) 0.02220(3)
N2GA N 0.470767(210) 0.804603(150) -0.188867(30)
N2HA N 0.333837(210) 0.529233(150) -0.188867(30)
N2IA N 0.195397(210) 0.666163(150) -0.188867(30)
H8B H -0.00580 -0.07370 0.09030
H8A H -0.06790 0.00580 0.09030
C7A C 0.12252(17) -0.01172(18) 0.04615(3)
C8A C 0.23505(19) 0.05481(19) 0.05525(4)
H3A H 0.24610 0.10000 0.06780
C9A C 0.20265(18) -0.07830(19) 0.01838(4)
H4A H 0.19200 -0.12340 0.00580
C10A C 0.10663(18) -0.07832(18) 0.02783(3)
H5A H 0.02970 -0.12390 0.02180
C11A C 0.3145(2) -0.0122(2) 0.02730(4)
H6A H 0.38050 -0.01220 0.02080
C12A C 0.3306(2) 0.0535(2) 0.04553(5)
H7A H 0.40770 0.09850 0.05150
C7B C 0.01172(17) 0.13424(18) 0.04615(3)
C8B C -0.05481(19) 0.18024(19) 0.05525(4)
H3B H -0.10000 0.14610 0.06780
C9B C 0.07830(18) 0.28095(19) 0.01838(4)
H4B H 0.12340 0.31540 0.00580
C10B C 0.07832(18) 0.18495(18) 0.02783(3)
H5B H 0.12390 0.15360 0.02180
C11B C 0.0122(2) 0.3267(2) 0.02730(4)
H6B H 0.01220 0.39270 0.02080
C12B C -0.0535(2) 0.2771(2) 0.04553(5)
H7B H -0.09850 0.30920 0.05150
#END
