
#######################################################################
#
#                 Cambridge Crystallographic Data Centre
#                                CCDC
#
#######################################################################
#
# If this CIF has been generated from an entry in the Cambridge
# Structural Database, then it will include bibliographic, chemical,
# crystal, experimental, refinement or atomic coordinate data resulting
# from the CCDC's data processing and validation procedures.
#
#######################################################################

data_CSD_CIF_TONVAV
_audit_creation_date 2014-07-23
_audit_creation_method CSD-ConQuest-V1
_database_code_CSD TONVAV
_database_code_depnum_ccdc_archive 'CCDC 976913'
_chemical_formula_sum 'C74 H48 N12 P2 Zn2'
_chemical_formula_moiety
;
(C36 H12 N12 Zn2 2-)n,2(C19 H18 P1 1+)
;
_journal_coden_Cambridge 1220
_journal_volume 20
_journal_year 2014
_journal_page_first 7593
_journal_name_full 'Chem.-Eur.J. '
loop_
_publ_author_name
"M.R.Saber"
"A.V.P.B.F.Abrahams"
"R.W.Elliott"
"R.Robson"
"K.R.Dunbar"
_chemical_name_systematic
;
catena-[bis(methyl(triphenyl)phosphonium) 
tris(\m-1,4-phenylenedimethanidedicarbonitrile)-di-zinc]
;
_cell_volume   9131.309
_exptl_crystal_colour 'pale yellow'
_exptl_crystal_density_diffrn 1.416
_exptl_special_details
;
Magnetic properties

;
_exptl_crystal_description 'Block'
_diffrn_ambient_temperature 110
#These two values have been output from a single CSD field.
_refine_ls_R_factor_gt 0.025
_refine_ls_wR_factor_gt 0.025
_symmetry_cell_setting rhombohedral
_symmetry_space_group_name_H-M 'R -3 c'
_symmetry_Int_Tables_number 167
loop_
_symmetry_equiv_pos_site_id
_symmetry_equiv_pos_as_xyz
1 x,y,z
2 -y,x-y,z
3 -x+y,-x,z
4 x-y,-y,1/2-z
5 -x,-x+y,1/2-z
6 y,x,1/2-z
7 2/3+x,1/3+y,1/3+z
8 2/3-y,1/3+x-y,1/3+z
9 2/3-x+y,1/3-x,1/3+z
10 2/3+x-y,1/3-y,5/6-z
11 2/3-x,1/3-x+y,5/6-z
12 2/3+y,1/3+x,5/6-z
13 1/3+x,2/3+y,2/3+z
14 1/3-y,2/3+x-y,2/3+z
15 1/3-x+y,2/3-x,2/3+z
16 1/3+x-y,2/3-y,1/6-z
17 1/3-x,2/3-x+y,1/6-z
18 1/3+y,2/3+x,1/6-z
19 -x,-y,-z
20 y,-x+y,-z
21 x-y,x,-z
22 -x+y,y,-1/2+z
23 x,x-y,-1/2+z
24 -y,-x,-1/2+z
25 -2/3-x,-1/3-y,-1/3-z
26 -2/3+y,-1/3-x+y,-1/3-z
27 -2/3+x-y,-1/3+x,-1/3-z
28 -2/3-x+y,-1/3+y,-5/6+z
29 -2/3+x,-1/3+x-y,-5/6+z
30 -2/3-y,-1/3-x,-5/6+z
31 -1/3-x,-2/3-y,-2/3-z
32 -1/3+y,-2/3-x+y,-2/3-z
33 -1/3+x-y,-2/3+x,-2/3-z
34 -1/3-x+y,-2/3+y,-1/6+z
35 -1/3+x,-2/3+x-y,-1/6+z
36 -1/3-y,-2/3-x,-1/6+z
_cell_length_a 12.9728(18)
_cell_length_b 12.9728(18)
_cell_length_c 62.652(13)
_cell_angle_alpha 90
_cell_angle_beta 90
_cell_angle_gamma 120
_cell_formula_units_Z 6
loop_
_atom_type_symbol
_atom_type_radius_bond
C 0.68
H 0.23
N 0.68
P 1.05
Zn 1.22
loop_
_atom_site_label
_atom_site_type_symbol
_atom_site_fract_x
_atom_site_fract_y
_atom_site_fract_z
Zn1 Zn 0.33330 0.66670 0.003617(3)
N1 N 0.34875(10) 0.53994(10) -0.015996(17)
C1 C 0.37215(11) 0.47959(11) -0.026095(18)
C2 C 0.36617(11) 0.38956(11) -0.061421(19)
C3 C 0.39873(11) 0.40710(11) -0.038694(18)
C4 C 0.34960(11) 0.47377(11) -0.072628(19)
H1 H 0.36080 0.54320 -0.06550
C5 C 0.34933(11) 0.28869(11) -0.072604(18)
H2 H 0.35990 0.23020 -0.06540
C6 C 0.46874(11) 0.36469(11) -0.029671(18)
N2 N 0.52882(10) 0.33162(10) -0.022279(17)
P1 P 0.00000 0.00000 0.056574(10)
C7 C 0.12273(11) 0.13447(11) 0.04628(2)
C8 C 0.23564(13) 0.18109(13) 0.05528(3)
H3 H 0.24700 0.14710 0.06790
C9 C 0.20320(13) 0.28103(12) 0.01824(2)
H4 H 0.19240 0.31520 0.00560
C10 C 0.10655(12) 0.18475(12) 0.02780(2)
H5 H 0.02940 0.15310 0.02180
C11 C 0.33151(14) 0.27810(14) 0.04558(3)
H6 H 0.40870 0.31110 0.05170
C12 C 0.31520(14) 0.32696(13) 0.02711(3)
H7 H 0.38150 0.39250 0.02050
C13 C 0.00000 0.00000 0.08518(4)
H8 H -0.00770 0.06710 0.09040
H9? H -0.00770 0.06710 0.09040
H10? H -0.00770 0.06710 0.09040
N1J N 0.317917(100) 0.524523(100) -0.150671(17)
C1J C 0.294517(110) 0.440773(110) -0.140572(18)
C2J C 0.300497(110) 0.356723(110) -0.105246(19)
C3J C 0.267937(110) 0.341703(110) -0.127973(18)
C4J C 0.317067(110) 0.457503(110) -0.094039(19)
H1J H 0.30587 0.51573 -0.10117
C5J C 0.317337(110) 0.272693(110) -0.094063(18)
H2J H 0.30677 0.20363 -0.10127
C6J C 0.197927(110) 0.229283(110) -0.136996(18)
N2J N 0.137847(100) 0.136133(100) -0.144388(17)
N1A N 0.46006(10) 0.80881(10) -0.015996(17)
C1A C 0.52041(11) 0.89256(11) -0.026095(18)
C2A C 0.61044(11) 0.97661(11) -0.061421(19)
C3A C 0.59290(11) 0.99163(11) -0.038694(18)
C4A C 0.52623(11) 0.87583(11) -0.072628(19)
H1A H 0.45680 0.81760 -0.06550
C5A C 0.71131(11) 1.06064(11) -0.072604(18)
H2A H 0.76980 1.12970 -0.06540
C6A C 0.63531(11) 1.10405(11) -0.029671(18)
N2A N 0.66838(10) 1.1972(1) -0.022279(17)
N1I N 0.475477(100) 0.793393(100) -0.150671(17)
C1I C 0.559227(110) 0.853743(110) -0.140572(18)
C2I C 0.643277(110) 0.943773(110) -0.105246(19)
C3I C 0.658297(110) 0.926233(110) -0.127973(18)
C4I C 0.542497(110) 0.859563(110) -0.094039(19)
H1I H 0.48427 0.79013 -0.10117
C5I C 0.727307(110) 1.044643(110) -0.094063(18)
H2I H 0.79637 1.10313 -0.10127
C6I C 0.770717(110) 0.968643(110) -0.136996(18)
N2I N 0.863867(100) 1.001713(100) -0.144388(17)
N1B N 0.19119(10) 0.65125(10) -0.015996(17)
C1B C 0.10744(11) 0.62785(11) -0.026095(18)
C2B C 0.02339(11) 0.63383(11) -0.061421(19)
C3B C 0.00837(11) 0.60127(11) -0.038694(18)
C4B C 0.12417(11) 0.65040(11) -0.072628(19)
H1B H 0.18240 0.63920 -0.06550
C5B C -0.06064(11) 0.65067(11) -0.072604(18)
H2B H -0.12970 0.64010 -0.06540
C6B C -0.10405(11) 0.53126(11) -0.029671(18)
N2B N -0.1972(1) 0.47118(10) -0.022279(17)
N1K N 0.206607(100) 0.682083(100) -0.150671(17)
C1K C 0.146257(110) 0.705483(110) -0.140572(18)
C2K C 0.056227(110) 0.699503(110) -0.105246(19)
C3K C 0.073767(110) 0.732063(110) -0.127973(18)
C4K C 0.140437(110) 0.682933(110) -0.094039(19)
H1K H 0.20987 0.69413 -0.10117
C5K C -0.044643(110) 0.682663(110) -0.094063(18)
H2K H -0.10313 0.69323 -0.10127
C6K C 0.031357(110) 0.802073(110) -0.136996(18)
N2K N -0.001713(100) 0.862153(100) -0.144388(17)
Zn1I Zn 0.33327 0.66663 -0.170284(3)
Zn1R Zn -0.33330 0.33330 -0.003617(3)
Zn1R* Zn 0.66670 0.33330 -0.003617(3)
Zn1R** Zn 0.66670 1.33330 -0.003617(3)
Zn1GA Zn 0.00007 0.00003 -0.163050(3)
Zn1GA* Zn 0.00007 1.00003 -0.163050(3)
Zn1GA** Zn 1.00007 1.00003 -0.163050(3)
N2R N 0.47118(10) 0.66838(10) 0.022279(17)
N2S N 0.33162(10) 0.8028(1) 0.022279(17)
N2T N 0.1972(1) 0.52882(10) 0.022279(17)
N2GA N 0.469467(100) 0.664953(100) -0.188946(17)
N2HA N 0.195487(100) 0.530533(100) -0.188946(17)
N2IA N 0.335047(100) 0.804513(100) -0.188946(17)
H8B H 0.07480 0.00770 0.09040
H8A H -0.06710 -0.07480 0.09040
C7A C -0.13447(11) -0.01174(11) 0.04628(2)
C8A C -0.18109(13) 0.05455(13) 0.05528(3)
H3A H -0.14710 0.09990 0.06790
C9A C -0.28103(13) -0.07783(12) 0.01824(2)
H4A H -0.31520 -0.12280 0.00560
C10A C -0.18475(12) -0.07820(12) 0.02780(2)
H5A H -0.15310 -0.12370 0.02180
C11A C -0.27810(14) 0.05341(14) 0.04558(3)
H6A H -0.31110 0.09760 0.05170
C12A C -0.32696(14) -0.01176(13) 0.02711(3)
H7A H -0.39250 -0.01100 0.02050
C7B C 0.01174(11) -0.12273(11) 0.04628(2)
C8B C -0.05455(13) -0.23564(13) 0.05528(3)
H3B H -0.09990 -0.24700 0.06790
C9B C 0.07783(13) -0.20320(12) 0.01824(2)
H4B H 0.12280 -0.19240 0.00560
C10B C 0.07820(12) -0.10655(12) 0.02780(2)
H5B H 0.12370 -0.02940 0.02180
C11B C -0.05341(14) -0.33151(14) 0.04558(3)
H6B H -0.09760 -0.40870 0.05170
C12B C 0.01176(14) -0.31520(13) 0.02711(3)
H7B H 0.01100 -0.38150 0.02050
#END
