
#######################################################################
#
#                 Cambridge Crystallographic Data Centre
#                                CCDC
#
#######################################################################
#
# If this CIF has been generated from an entry in the Cambridge
# Structural Database, then it will include bibliographic, chemical,
# crystal, experimental, refinement or atomic coordinate data resulting
# from the CCDC's data processing and validation procedures.
#
#######################################################################

data_CSD_CIF_TOQLET
_audit_creation_date 2019-07-01
_audit_creation_method CSD-ConQuest-V1
_database_code_CSD TOQLET
_database_code_depnum_ccdc_archive 'CCDC 1937600'
_chemical_formula_sum 'C11 H24 Mn2 N2 O14 S1'
_chemical_formula_moiety
;
(C4 H2 Mn2 O13 S1 2-)n,C7 H20 N2 2+,H2 O1
;
_journal_coden_Cambridge 208
_journal_volume 276
_journal_year 2019
_journal_page_first 1
_journal_name_full 'J.Solid State Chem. '
loop_
_publ_author_name
"Ying Zhang"
"Longzhen Lin"
"Hongmei Zeng"
"Guohong Zou"
"Zhien Lin"
_chemical_name_systematic
;
catena-[N^1^,N^1^-diethylpropane-1,3-bis(aminium) 
bis(\m-oxalato)-(\m-sulfato)-aqua-di-manganese(ii) monohydrate]
;
_cell_volume   3978.408
_exptl_crystal_colour 'light pink'
_exptl_crystal_density_diffrn 1.837
_exptl_crystal_description 'block'
_diffrn_ambient_temperature 293
_refine_special_details
;
C11 and C11' disordered over two sites with occupancies 0.578:0.422.

;
#These two values have been output from a single CSD field.
_refine_ls_R_factor_gt 0.0521
_refine_ls_wR_factor_gt 0.0521
_symmetry_cell_setting orthorhombic
_symmetry_space_group_name_H-M 'P b c a'
_symmetry_Int_Tables_number 61
loop_
_symmetry_equiv_pos_site_id
_symmetry_equiv_pos_as_xyz
1 x,y,z
2 1/2-x,-y,1/2+z
3 -x,1/2+y,1/2-z
4 1/2+x,1/2-y,-z
5 -x,-y,-z
6 -1/2+x,y,-1/2-z
7 x,-1/2-y,-1/2+z
8 -1/2-x,-1/2+y,z
_cell_length_a 14.6293(3)
_cell_length_b 15.6671(3)
_cell_length_c 17.3579(3)
_cell_angle_alpha 90
_cell_angle_beta 90
_cell_angle_gamma 90
_cell_formula_units_Z 8
loop_
_atom_type_symbol
_atom_type_radius_bond
C 0.68
H 0.23
Mn 1.61
N 0.68
O 0.68
S 1.02
loop_
_atom_site_label
_atom_site_type_symbol
_atom_site_fract_x
_atom_site_fract_y
_atom_site_fract_z
Mn1 Mn 0.41237(4) 0.41523(4) 0.39017(3)
Mn2 Mn 0.45138(4) 0.79453(4) 0.39556(3)
S1 S 0.52748(6) 0.59769(5) 0.42351(5)
O1 O 0.4515(2) 0.54621(19) 0.39498(17)
O2 O 0.5285(2) 0.67902(16) 0.38085(16)
O3 O 0.6149(2) 0.55487(19) 0.41408(19)
O4 O 0.5109(2) 0.61644(18) 0.50593(16)
O5 O 0.3335(2) 0.29249(17) 0.40276(19)
O6 O 0.18915(18) 0.24554(16) 0.40961(16)
O7 O 0.27502(18) 0.45344(17) 0.42201(18)
O8 O 0.13191(19) 0.40653(17) 0.42770(19)
O9 O 0.3818(2) 0.41891(17) 0.26427(16)
O10 O 0.44159(18) 0.37895(17) 0.15138(16)
O11 O 0.5254(2) 0.3493(2) 0.33736(16)
O12 O 0.58185(19) 0.30741(19) 0.22508(16)
O13 O 0.4987(2) 0.79969(18) 0.51440(18)
H1 H 0.54090 0.83790 0.51930
H2 H 0.52080 0.75080 0.52800
C1 C 0.2493(3) 0.3027(2) 0.4090(2)
C2 C 0.2157(3) 0.3964(2) 0.4197(2)
C3 C 0.4413(2) 0.3847(2) 0.2234(2)
C4 C 0.5235(3) 0.3430(2) 0.2664(2)
O14 O 0.1021(4) 0.5595(3) 0.4976(3)
H3 H 0.09870 0.51460 0.47040
H4 H 0.08290 0.54890 0.54290
C5 C 0.2726(3) 0.8581(3) 0.0977(3)
H5 H 0.21130 0.88000 0.10550
H6 H 0.31050 0.87840 0.13980
C6 C 0.2702(3) 0.7619(3) 0.0988(2)
H7 H 0.32930 0.73950 0.08360
H8 H 0.22490 0.74140 0.06250
C7 C 0.2468(3) 0.7310(3) 0.1789(2)
H9 H 0.29340 0.75070 0.21450
H10 H 0.18910 0.75610 0.19450
C8 C 0.3217(4) 0.5887(3) 0.1524(3)
H11 H 0.31150 0.52790 0.15870
H12 H 0.32610 0.60010 0.09760
C9 C 0.4108(4) 0.6115(3) 0.1895(4)
H13 H 0.42660 0.66910 0.17640
H14 H 0.45760 0.57350 0.17150
H15 H 0.40520 0.60650 0.24440
C10 C 0.2194(6) 0.6087(5) 0.2644(3)
H16 H 0.27670 0.59880 0.29110
H17 H 0.18800 0.65480 0.29070
C11 C 0.1627(6) 0.5304(6) 0.2700(5)
H18 H 0.11480 0.53260 0.23220
H19 H 0.13630 0.52680 0.32050
H20 H 0.20020 0.48120 0.26090
N1 N 0.3094(3) 0.8915(2) 0.0235(3)
H21 H 0.29340 0.85660 -0.01460
H22 H 0.37010 0.89440 0.02620
H23 H 0.28670 0.94330 0.01470
N2 N 0.2397(3) 0.6361(2) 0.1842(2)
H24 H 0.18710 0.61930 0.15280
H25? H 0.24150 0.55060 0.27000
H26? H 0.25580 0.64400 0.29850
C12? C 0.1277(9) 0.6104(11) 0.2925(8)
H27? H 0.08890 0.57880 0.25820
H28? H 0.10690 0.66850 0.29530
H29? H 0.12550 0.58520 0.34280
Mn1D Mn 0.58763(4) 0.58477(4) 0.60983(3)
Mn2B Mn 0.54862(4) 0.29453(4) 0.10444(3)
Mn2G Mn 0.04862(4) 0.29453(4) 0.39556(3)
O4D O 0.4891(2) 0.38356(18) 0.49407(16)
O6G O 0.31085(18) 0.74554(16) 0.40961(16)
O8G O 0.36809(19) 0.90653(17) 0.42770(19)
O10B O 0.55841(18) 0.87895(17) 0.34862(16)
O12B O 0.41815(19) 0.80741(19) 0.27492(16)
#END
