
#######################################################################
#
#                 Cambridge Crystallographic Data Centre
#                                CCDC
#
#######################################################################
#
# If this CIF has been generated from an entry in the Cambridge
# Structural Database, then it will include bibliographic, chemical,
# crystal, experimental, refinement or atomic coordinate data resulting
# from the CCDC's data processing and validation procedures.
#
#######################################################################

data_CSD_CIF_TOVHEU
_audit_creation_date 2019-10-28
_audit_creation_method CSD-ConQuest-V1
_database_code_CSD TOVHEU
_database_code_depnum_ccdc_archive 'CCDC 1897784'
_chemical_formula_sum 'C42 H52 Ag6 N28 O66 P2 W18'
_chemical_formula_moiety
;
O62 P2 W18 6-,2n(C21 H22 Ag3 N14 3+),4(H2 O1)
;
_journal_coden_Cambridge 971
_journal_volume 99
_journal_year 2020
_journal_page_first 105993
_journal_name_full 'Solid State Sciences '
loop_
_publ_author_name
"Yan Yu"
"Jianjiao Xin"
"Xinming Wang"
"Chunyan Zhao"
"Huiyuan Ma"
"Haijun Pang"
"Jia Yu"
"Li Zhang"
"Shaobin Li"
_chemical_name_systematic
;
catena-[bis(tris(\m-1H,1'H-2,2'-biimidazole)-(1H-imidazole)-tri-silver(i)) 
bis(\m-phosphato)-hexatriacontakis(\m-oxido)-octadecakis(oxido)-octadeca-tungs
ten tetrahydrate]
;
_cell_volume  10997.883
_exptl_crystal_colour 'yellow'
_exptl_crystal_density_diffrn 3.625
_exptl_crystal_description 'block'
_diffrn_ambient_temperature 296
#These two values have been output from a single CSD field.
_refine_ls_R_factor_gt 0.034
_refine_ls_wR_factor_gt 0.034
_symmetry_cell_setting monoclinic
_symmetry_space_group_name_H-M 'C 2/c'
_symmetry_Int_Tables_number 15
loop_
_symmetry_equiv_pos_site_id
_symmetry_equiv_pos_as_xyz
1 x,y,z
2 -x,y,1/2-z
3 1/2+x,1/2+y,z
4 1/2-x,1/2+y,1/2-z
5 -x,-y,-z
6 x,-y,-1/2+z
7 -1/2-x,-1/2-y,-z
8 -1/2+x,-1/2-y,-1/2+z
_cell_length_a 31.6262(18)
_cell_length_b 13.8880(8)
_cell_length_c 26.6653(15)
_cell_angle_alpha 90
_cell_angle_beta 110.112(1)
_cell_angle_gamma 90
_cell_formula_units_Z 4
loop_
_atom_type_symbol
_atom_type_radius_bond
C 0.68
H 0.23
Ag 1.45
N 0.68
O 0.68
P 1.05
W 1.62
loop_
_atom_site_label
_atom_site_type_symbol
_atom_site_fract_x
_atom_site_fract_y
_atom_site_fract_z
P1 P 0.04954(9) 0.26767(19) 0.22011(10)
W1 W 0.086867(16) 0.48329(3) 0.290392(17)
W2 W -0.127476(15) 0.27378(3) 0.148399(17)
W3 W -0.033890(16) 0.27529(3) 0.091236(17)
W4 W 0.006654(16) 0.48409(3) 0.152744(17)
W5 W 0.008150(15) 0.04541(3) 0.159405(17)
W6 W 0.161954(15) 0.19486(4) 0.238285(18)
W7 W 0.084899(15) 0.04466(3) 0.283662(18)
W8 W 0.083829(16) 0.19887(3) 0.113501(18)
W9 W 0.124275(16) 0.40792(3) 0.178719(18)
O1 O 0.0537(2) -0.0187(5) 0.2179(3)
O2 O 0.0670(2) 0.3197(5) 0.2740(3)
O3 O -0.0823(3) 0.2932(5) 0.1149(3)
O4 O 0.0894(3) 0.1532(6) 0.0565(3)
O5 O 0.2150(3) 0.1486(6) 0.2611(3)
O6 O -0.0336(2) 0.0291(5) 0.1947(3)
O7 O -0.1303(2) 0.4107(5) 0.1545(3)
O8 O 0.1280(2) 0.0934(5) 0.2536(3)
O9 O -0.1573(2) 0.2549(5) 0.1984(3)
O10 O -0.1032(2) 0.1475(5) 0.1665(3)
O11 O 0.0100(2) 0.3210(5) 0.1802(3)
O12 O 0.0383(2) 0.1619(5) 0.2272(2)
O13 O 0.0638(2) 0.4527(5) 0.1473(3)
O14 O 0.1720(2) 0.3219(5) 0.2154(3)
O15 O -0.0241(2) 0.4110(5) 0.0902(3)
O16 O 0.1543(3) 0.4957(6) 0.1609(3)
O17 O -0.0268(2) 0.1481(5) 0.1197(3)
O18 O -0.1730(3) 0.2555(5) 0.0911(3)
O19 O 0.1413(2) 0.1567(5) 0.1651(3)
O20 O 0.1164(3) -0.0507(5) 0.3186(3)
O21 O 0.1121(2) 0.3245(5) 0.1170(3)
O22 O 0.1094(3) 0.5955(5) 0.3074(3)
O23 O 0.0475(2) 0.4800(5) 0.3292(3)
O24 O 0.1211(2) 0.4522(5) 0.2434(3)
O25 O 0.0564(2) 0.0953(5) 0.1370(3)
O26 O 0.0386(2) 0.5071(5) 0.2262(3)
O27 O 0.0005(3) 0.5973(5) 0.1263(3)
O28 O -0.0619(3) 0.2560(6) 0.0250(3)
O29 O -0.0077(3) -0.0470(5) 0.1149(3)
O30 O 0.0888(2) 0.2676(5) 0.1961(3)
O31 O 0.0268(2) 0.2553(5) 0.0887(3)
N1 N 0.2229(3) 0.4718(7) 0.1160(4)
N2 N 0.2526(3) 0.4353(7) 0.0547(4)
N3 N 0.1324(3) 0.4186(8) 0.0347(4)
N4 N 0.3162(3) 0.5765(7) -0.0033(4)
N5 N 0.2152(3) 0.6910(6) 0.0498(4)
N6 N 0.2450(3) 0.5507(7) -0.1134(4)
N7 N 0.1610(3) 0.4716(6) -0.0264(4)
N8 N 0.1526(4) 0.6999(8) 0.0695(5)
N9 N 0.3655(4) 0.5257(8) -0.0378(5)
N10 N 0.3016(4) 0.5535(8) -0.1451(4)
N11 N 0.2365(4) 0.3010(7) -0.0941(4)
N12 N 0.1715(4) 0.2270(8) -0.0447(4)
N13 N 0.1885(5) 0.2681(9) -0.1737(5)
N14 N 0.1174(5) 0.2464(9) -0.1228(5)
C1 C 0.1705(4) 0.4447(8) 0.0237(4)
C2 C 0.2284(4) 0.5533(9) -0.1687(5)
H1 H 0.19800 0.55300 -0.18960
C3 C 0.2153(4) 0.4485(7) 0.0642(4)
C4 C 0.0982(6) 0.2150(12) -0.0877(8)
H2 H 0.06780 0.20150 -0.09510
C5 C 0.2264(5) 0.7051(9) 0.1043(5)
H3 H 0.25560 0.71110 0.12840
C6 C 0.3582(4) 0.5653(9) 0.0369(5)
H4 H 0.36400 0.57830 0.07280
C7 C 0.3225(4) 0.5512(8) -0.0467(5)
C8 C 0.1880(5) 0.7091(9) 0.1173(5)
H5 H 0.18620 0.71640 0.15120
C9 C 0.2856(4) 0.4523(8) 0.1022(5)
H6 H 0.31620 0.44800 0.10770
C10 C 0.1147(4) 0.4619(11) -0.0498(5)
H7 H 0.09840 0.47510 -0.08540
C11 C 0.1703(4) 0.6884(9) 0.0303(6)
H8 H 0.15330 0.67980 -0.00560
C12 C 0.3884(5) 0.5337(10) 0.0166(6)
H9 H 0.41850 0.51980 0.03490
C13 C 0.2893(4) 0.5512(8) -0.1010(5)
C14 C 0.1948(5) 0.2756(9) -0.1208(5)
C15 C 0.2691(4) 0.4759(8) 0.1403(5)
H10 H 0.28520 0.49170 0.17560
C16 C 0.1318(7) 0.2069(11) -0.0393(7)
H11 H 0.12780 0.19000 -0.00740
C17 C 0.1613(5) 0.2510(9) -0.0960(6)
C18 C 0.0971(4) 0.4312(12) -0.0139(5)
H12 H 0.06670 0.42000 -0.02000
C19 C 0.2627(5) 0.5564(11) -0.1877(5)
H13 H 0.26020 0.55980 -0.22350
C20 C 0.2589(6) 0.3086(10) -0.1306(7)
H14 H 0.28900 0.32540 -0.12270
C21 C 0.2298(7) 0.2877(11) -0.1786(7)
H15 H 0.23610 0.28650 -0.21020
Ag1 Ag 0.20408(3) 0.51452(6) -0.06758(3)
Ag2 Ag 0.26285(3) 0.64485(7) 0.01553(4)
Ag3 Ag 0.26225(4) 0.34752(7) -0.01058(4)
O32 O 0.3879(4) 0.5740(9) -0.1421(7)
O33 O 0.1091(12) 0.230(2) -0.2688(14)
P1A P -0.04954(9) 0.26767(19) 0.27989(10)
W1A W -0.086867(16) 0.48329(3) 0.209608(17)
W2A W 0.127476(15) 0.27378(3) 0.351601(17)
W3A W 0.033890(16) 0.27529(3) 0.408764(17)
W4A W -0.006654(16) 0.48409(3) 0.347256(17)
W5A W -0.008150(15) 0.04541(3) 0.340595(17)
W6A W -0.161954(15) 0.19486(4) 0.261715(18)
W7A W -0.084899(15) 0.04466(3) 0.216338(18)
W8A W -0.083829(16) 0.19887(3) 0.386499(18)
W9A W -0.124275(16) 0.40792(3) 0.321281(18)
O1A O -0.0537(2) -0.0187(5) 0.2821(3)
O2A O -0.0670(2) 0.3197(5) 0.2260(3)
O3A O 0.0823(3) 0.2932(5) 0.3851(3)
O4A O -0.0894(3) 0.1532(6) 0.4435(3)
O5A O -0.2150(3) 0.1486(6) 0.2389(3)
O6A O 0.0336(2) 0.0291(5) 0.3053(3)
O7A O 0.1303(2) 0.4107(5) 0.3455(3)
O8A O -0.1280(2) 0.0934(5) 0.2464(3)
O9A O 0.1573(2) 0.2549(5) 0.3016(3)
O10A O 0.1032(2) 0.1475(5) 0.3335(3)
O11A O -0.0100(2) 0.3210(5) 0.3198(3)
O12A O -0.0383(2) 0.1619(5) 0.2728(2)
O13A O -0.0638(2) 0.4527(5) 0.3527(3)
O14A O -0.1720(2) 0.3219(5) 0.2846(3)
O15A O 0.0241(2) 0.4110(5) 0.4098(3)
O16A O -0.1543(3) 0.4957(6) 0.3391(3)
O17A O 0.0268(2) 0.1481(5) 0.3803(3)
O18A O 0.1730(3) 0.2555(5) 0.4089(3)
O19A O -0.1413(2) 0.1567(5) 0.3349(3)
O20A O -0.1164(3) -0.0507(5) 0.1814(3)
O21A O -0.1121(2) 0.3245(5) 0.3830(3)
O22A O -0.1094(3) 0.5955(5) 0.1926(3)
O23A O -0.0475(2) 0.4800(5) 0.1708(3)
O24A O -0.1211(2) 0.4522(5) 0.2566(3)
O25A O -0.0564(2) 0.0953(5) 0.3630(3)
O26A O -0.0386(2) 0.5071(5) 0.2738(3)
O27A O -0.0005(3) 0.5973(5) 0.3737(3)
O28A O 0.0619(3) 0.2560(6) 0.4750(3)
O29A O 0.0077(3) -0.0470(5) 0.3851(3)
O30A O -0.0888(2) 0.2676(5) 0.3039(3)
O31A O -0.0268(2) 0.2553(5) 0.4113(3)
N12F N 0.3285(4) 0.2730(8) 0.0447(4)
Ag2F Ag 0.23715(3) 0.85515(7) -0.01553(4)
Ag3F Ag 0.23775(4) 0.15248(7) 0.01058(4)
#END
