
#######################################################################
#
#                 Cambridge Crystallographic Data Centre
#                                CCDC
#
#######################################################################
#
# If this CIF has been generated from an entry in the Cambridge
# Structural Database, then it will include bibliographic, chemical,
# crystal, experimental, refinement or atomic coordinate data resulting
# from the CCDC's data processing and validation procedures.
#
#######################################################################

data_CSD_CIF_TOWQII
_audit_creation_date 2019-10-29
_audit_creation_method CSD-ConQuest-V1
_database_code_CSD TOWQII
_database_code_depnum_ccdc_archive 'CCDC 1938801'
_chemical_formula_sum 'C42 H30 N2 O24 U3'
_chemical_formula_moiety
;
(C32 H20 O24 U3 2-)n,C10 H10 N2 2+
;
_journal_coden_Cambridge 920
_journal_volume 14
_journal_year 2019
_journal_page_first 4246
_journal_name_full 'Chem.Asian J. '
loop_
_publ_author_name
"Long Wang"
"Wei Xu"
"Wen-Ying Li"
"Miao Xie"
"Yue-Qing Zheng"
_chemical_name_systematic
;
catena-[4,4'-bipyridin-1-ium 
tetrakis(\m-isophthalato)-diaqua-hexaoxo-tri-uranium]
;
_cell_volume   1134.632
_exptl_crystal_colour 'yellow'
_exptl_crystal_density_diffrn 2.431
_exptl_crystal_description 'platelet'
_diffrn_ambient_temperature 293
#These two values have been output from a single CSD field.
_refine_ls_R_factor_gt 0.0409
_refine_ls_wR_factor_gt 0.0409
_symmetry_cell_setting triclinic
_symmetry_space_group_name_H-M 'P -1'
_symmetry_Int_Tables_number 2
loop_
_symmetry_equiv_pos_site_id
_symmetry_equiv_pos_as_xyz
1 x,y,z
2 -x,-y,-z
_cell_length_a 9.939(2)
_cell_length_b 10.669(2)
_cell_length_c 11.211(2)
_cell_angle_alpha 91.83(3)
_cell_angle_beta 105.54(3)
_cell_angle_gamma 96.85(3)
_cell_formula_units_Z 1
loop_
_atom_type_symbol
_atom_type_radius_bond
C 0.68
H 0.23
N 0.68
O 0.68
U 1.96
loop_
_atom_site_label
_atom_site_type_symbol
_atom_site_fract_x
_atom_site_fract_y
_atom_site_fract_z
U1 U 1.00000 0.00000 0.00000
U2 U 0.744198(19) 0.42835(3) 0.663925(19)
O1 O 0.9147(5) 0.0826(7) -0.1265(5)
O2 O 0.8679(5) -0.2008(6) -0.1098(6)
H1 H 0.90870 -0.25630 -0.13350
H2 H 0.80090 -0.23960 -0.08820
O3 O 0.8955(4) 0.1063(6) 0.1423(5)
O4 O 0.7692(4) -0.0637(5) 0.0409(4)
C1 C 0.7866(6) 0.0276(7) 0.1207(6)
C2 C 0.6803(5) 0.0400(7) 0.1908(5)
C3 C 0.5523(6) -0.0356(8) 0.1597(6)
H3 H 0.52960 -0.09390 0.09170
C4 C 0.4570(7) -0.0261(9) 0.2279(6)
H4 H 0.36990 -0.07650 0.20560
C5 C 0.4937(6) 0.0605(8) 0.3311(6)
H5 H 0.43120 0.06610 0.37910
C6 C 0.6220(6) 0.1382(7) 0.3632(5)
C7 C 0.7158(6) 0.1268(7) 0.2927(5)
H6 H 0.80270 0.17740 0.31390
C8 C 0.6612(6) 0.2316(8) 0.4720(6)
O5 O 0.7889(4) 0.2764(6) 0.5158(4)
O6 O 0.5694(4) 0.2672(6) 0.5194(4)
O7 O 0.7174(5) 0.5390(7) 0.5490(5)
O8 O 0.7699(4) 0.3171(6) 0.7779(4)
O9 O 0.6604(4) 0.5800(5) 0.7964(4)
O10 O 0.5018(4) 0.4301(5) 0.6898(4)
C9 C 0.5358(5) 0.5277(7) 0.7659(5)
C10 C 0.4271(5) 0.5729(7) 0.8204(5)
C11 C 0.2856(5) 0.5403(7) 0.7620(5)
H7 H 0.25720 0.49690 0.68430
C12 C 0.1851(6) 0.5726(7) 0.8194(5)
C13 C 0.2279(5) 0.6366(7) 0.9371(5)
H8 H 0.16130 0.65650 0.97670
C14 C 0.3693(6) 0.6698(8) 0.9938(5)
H9 H 0.39790 0.71360 1.07130
C15 C 0.4704(6) 0.6387(7) 0.9364(6)
H10 H 0.56580 0.66180 0.97520
C16 C 0.0325(5) 0.5312(7) 0.7597(5)
O11 O -0.0617(4) 0.5791(5) 0.7971(4)
O12 O -0.0044(4) 0.4463(5) 0.6739(4)
N1 N 0.2687(5) 0.2510(7) 0.6025(6)
H11 H 0.33850 0.30980 0.63060
C17 C 0.2547(8) 0.1895(9) 0.4931(9)
H12 H 0.31630 0.21300 0.44580
C18 C 0.1478(7) 0.0909(9) 0.4518(7)
H13 H 0.13750 0.04790 0.37580
C19 C 0.0546(6) 0.0540(8) 0.5212(7)
C20 C 0.0718(7) 0.1263(9) 0.6307(7)
H14 H 0.00980 0.10770 0.67870
C21 C 0.1782(8) 0.2240(9) 0.6688(7)
H15 H 0.18730 0.27210 0.74190
U2A U 1.255802(19) -0.42835(3) -0.663925(19)
O1A O 1.0853(5) -0.0826(7) 0.1265(5)
O2A O 1.1321(5) 0.2008(6) 0.1098(6)
H1A H 1.09130 0.25630 0.13350
H2A H 1.19910 0.23960 0.08820
O3A O 1.1045(4) -0.1063(6) -0.1423(5)
O4A O 1.2308(4) 0.0637(5) -0.0409(4)
C1A C 1.2134(6) -0.0276(7) -0.1207(6)
C2A C 1.3197(5) -0.0400(7) -0.1908(5)
C3A C 1.4477(6) 0.0356(8) -0.1597(6)
H3A H 1.47040 0.09390 -0.09170
C4A C 1.5430(7) 0.0261(9) -0.2279(6)
H4A H 1.63010 0.07650 -0.20560
C5A C 1.5063(6) -0.0605(8) -0.3311(6)
H5A H 1.56880 -0.06610 -0.37910
C6A C 1.3780(6) -0.1382(7) -0.3632(5)
C7A C 1.2842(6) -0.1268(7) -0.2927(5)
H6A H 1.19730 -0.17740 -0.31390
C8A C 1.3388(6) -0.2316(8) -0.4720(6)
O5A O 1.2111(4) -0.2764(6) -0.5158(4)
O6A O 1.4306(4) -0.2672(6) -0.5194(4)
O7A O 1.2826(5) -0.5390(7) -0.5490(5)
O8A O 1.2301(4) -0.3171(6) -0.7779(4)
O9A O 1.3396(4) -0.5800(5) -0.7964(4)
O10A O 1.4982(4) -0.4301(5) -0.6898(4)
C9A C 1.4642(5) -0.5277(7) -0.7659(5)
C10A C 1.5729(5) -0.5729(7) -0.8204(5)
C11A C 1.7144(5) -0.5403(7) -0.7620(5)
H7A H 1.74280 -0.49690 -0.68430
C12A C 1.8149(6) -0.5726(7) -0.8194(5)
C13A C 1.7721(5) -0.6366(7) -0.9371(5)
H8A H 1.83870 -0.65650 -0.97670
C14A C 1.6307(6) -0.6698(8) -0.9938(5)
H9A H 1.60210 -0.71360 -1.07130
C15A C 1.5296(6) -0.6387(7) -0.9364(6)
H10A H 1.43420 -0.66180 -0.97520
C16A C 1.9675(5) -0.5312(7) -0.7597(5)
O11A O 2.0617(4) -0.5791(5) -0.7971(4)
O12A O 2.0044(4) -0.4463(5) -0.6739(4)
U2* U -0.255802(19) 0.42835(3) 0.663925(19)
U2A* U 2.255802(19) -0.42835(3) -0.663925(19)
O11* O 0.9383(4) 0.5791(5) 0.7971(4)
O11A* O 1.0617(4) -0.5791(5) -0.7971(4)
O12* O 0.9956(4) 0.4463(5) 0.6739(4)
O12A* O 1.0044(4) -0.4463(5) -0.6739(4)
N1A N -0.2687(5) -0.2510(7) 0.3975(6)
H11A H -0.33850 -0.30980 0.36940
C17A C -0.2547(8) -0.1895(9) 0.5069(9)
H12A H -0.31630 -0.21300 0.55420
C18A C -0.1478(7) -0.0909(9) 0.5482(7)
H13A H -0.13750 -0.04790 0.62420
C19A C -0.0546(6) -0.0540(8) 0.4788(7)
C20A C -0.0718(7) -0.1263(9) 0.3693(7)
H14A H -0.00980 -0.10770 0.32130
C21A C -0.1782(8) -0.2240(9) 0.3312(7)
H15A H -0.18730 -0.27210 0.25810
#END
