
#######################################################################
#
#                 Cambridge Crystallographic Data Centre
#                                CCDC
#
#######################################################################
#
# If this CIF has been generated from an entry in the Cambridge
# Structural Database, then it will include bibliographic, chemical,
# crystal, experimental, refinement or atomic coordinate data resulting
# from the CCDC's data processing and validation procedures.
#
#######################################################################

data_CSD_CIF_TOZZEQ
_audit_creation_date 2019-10-30
_audit_creation_method CSD-ConQuest-V1
_database_code_CSD TOZZEQ
_database_code_depnum_ccdc_archive 'CCDC 1886152'
_chemical_formula_sum 'C52 H45 Bi1 N2 O10'
_chemical_formula_moiety
;
(C46 H29 Bi1 N1 O8 1-)n,C4 H8 O2,C2 H8 N1 1+
;
_journal_coden_Cambridge 420
_journal_volume 40
_journal_year 2019
_journal_page_first 1339
_journal_name_full 'Cuihua Xuebao(Chin.)(Chin.J.Catal.) '
loop_
_publ_author_name
"Yejun Xiao"
"Xiangyang Guo"
"Junxue Liu"
"Lifang Liu"
"Fuxiang Zhang"
"Can Li"
_chemical_name_systematic
;
catena-[dimethylammonium (\m- 
4,4',4'',4'''-(pyrene-1,3,6,8-tetrayl)tetrabenzoato)-(dimethylamine)-bismuth 
1,4-dioxane solvate]
;
_cell_volume   4804.832
_exptl_crystal_colour 'yellow'
_exptl_crystal_density_diffrn 1.475
_exptl_special_details
;
H atoms have been added to the N atoms to balance the charges

;
_exptl_crystal_description 'rod'
_diffrn_ambient_temperature 293
#These two values have been output from a single CSD field.
_refine_ls_R_factor_gt 0.0466
_refine_ls_wR_factor_gt 0.0466
_symmetry_cell_setting monoclinic
_symmetry_space_group_name_H-M 'C 2/c'
_symmetry_Int_Tables_number 15
loop_
_symmetry_equiv_pos_site_id
_symmetry_equiv_pos_as_xyz
1 x,y,z
2 -x,y,1/2-z
3 1/2+x,1/2+y,z
4 1/2-x,1/2+y,1/2-z
5 -x,-y,-z
6 x,-y,-1/2+z
7 -1/2-x,-1/2-y,-z
8 -1/2+x,-1/2-y,-1/2+z
_cell_length_a 8.1914(5)
_cell_length_b 20.592(2)
_cell_length_c 28.5598(19)
_cell_angle_alpha 90
_cell_angle_beta 94.138(6)
_cell_angle_gamma 90
_cell_formula_units_Z 4
loop_
_atom_type_symbol
_atom_type_radius_bond
C 0.68
H 0.23
Bi 1.48
N 0.68
O 0.68
loop_
_atom_site_label
_atom_site_type_symbol
_atom_site_fract_x
_atom_site_fract_y
_atom_site_fract_z
Bi1 Bi 0.50000 0.618045(18) 0.25000
O1 O 0.4198(5) 0.5753(3) 0.32942(16)
O2 O 0.2181(5) 0.5939(2) 0.27527(15)
O3 O 0.0659(5) 0.7869(2) 0.70423(16)
O4 O -0.1828(5) 0.8263(2) 0.69555(16)
C1 C -0.3271(7) 0.5155(3) 0.4612(2)
C2 C -0.0726(8) 0.7869(3) 0.6838(2)
C3 C -0.4309(7) 0.5214(3) 0.4991(2)
C4 C -0.3944(7) 0.5670(3) 0.5355(2)
C5 C -0.2043(7) 0.6519(4) 0.5731(2)
C6 C -0.3635(7) 0.4671(3) 0.4264(2)
H1 H -0.29450 0.46200 0.40220
C7 C -0.0742(7) 0.5558(3) 0.4220(2)
C8 C -0.5029(7) 0.5717(3) 0.5722(2)
H2 H -0.48160 0.60220 0.59580
C9 C 0.1473(8) 0.5676(3) 0.3527(2)
C10 C -0.1538(8) 0.5992(3) 0.4977(2)
H3 H -0.06040 0.62480 0.49750
C11 C 0.2690(8) 0.5790(4) 0.3170(2)
C12 C 0.2020(8) 0.5590(4) 0.3993(2)
H4 H 0.31390 0.55700 0.40750
C13 C -0.2523(8) 0.6054(3) 0.5345(2)
C14 C -0.1173(8) 0.7403(4) 0.6448(2)
C15 C 0.0933(7) 0.5534(3) 0.4338(2)
H5 H 0.13200 0.54800 0.46490
C16 C -0.0183(8) 0.5682(4) 0.3405(2)
H6 H -0.05670 0.57230 0.30920
C17 C -0.1883(7) 0.5561(3) 0.4609(2)
C18 C -0.2820(9) 0.7106(4) 0.5756(3)
H7 H -0.36390 0.72180 0.55280
C19 C -0.0806(11) 0.6386(4) 0.6061(3)
H8 H -0.02500 0.59930 0.60500
C20 C -0.1279(8) 0.5625(3) 0.3752(2)
H9 H -0.23970 0.56330 0.36680
C21 C -0.2395(10) 0.7541(4) 0.6123(3)
H10 H -0.29660 0.79290 0.61410
C22 C -0.0361(11) 0.6828(4) 0.6414(3)
H11 H 0.05070 0.67310 0.66300
N1 N 0.50000 0.4761(7) 0.25000
C23 C 0.483(5) 0.4297(10) 0.2878(6)
H12 H 0.46920 0.45270 0.31650
H13 H 0.58010 0.40330 0.29160
H14 H 0.38990 0.40250 0.28040
O5 O 0.4038(11) 0.2296(7) 0.0131(5)
C24 C 0.285(2) 0.2396(10) 0.0455(5)
H15 H 0.30950 0.21370 0.07350
H16 H 0.28190 0.28500 0.05450
C25 C 0.360(2) 0.2785(11) -0.0238(7)
H17 H 0.35140 0.32120 -0.00980
H18 H 0.44400 0.28010 -0.04610
C26 C 0.4621(12) 0.2348(6) 0.2084(5)
H19 H 0.43750 0.20650 0.18210
H20 H 0.55440 0.26160 0.20240
H21 H 0.36910 0.26190 0.21290
N2 N 0.50000 0.1966(7) 0.25000
H22 H 0.50000 0.15480 0.25000
O1D O -1.4198(5) 0.4247(3) 0.67058(16)
O2D O -1.2181(5) 0.4061(2) 0.72473(15)
O3D O -1.0659(5) 0.2131(2) 0.29577(16)
O4D O -0.8172(5) 0.1737(2) 0.30445(16)
C1D C -0.6729(7) 0.4845(3) 0.5388(2)
C2D C -0.9274(8) 0.2131(3) 0.3162(2)
C3D C -0.5691(7) 0.4786(3) 0.5009(2)
C4D C -0.6056(7) 0.4330(3) 0.4645(2)
C5D C -0.7957(7) 0.3481(4) 0.4269(2)
C6D C -0.6365(7) 0.5329(3) 0.5736(2)
H1D H -0.70550 0.53800 0.59780
C7D C -0.9258(7) 0.4442(3) 0.5780(2)
C8D C -0.4971(7) 0.4283(3) 0.4278(2)
H2D H -0.51840 0.39780 0.40420
C9D C -1.1473(8) 0.4324(3) 0.6473(2)
C10D C -0.8462(8) 0.4008(3) 0.5023(2)
H3D H -0.93960 0.37520 0.50250
C11D C -1.2690(8) 0.4210(4) 0.6830(2)
C12D C -1.2020(8) 0.4410(4) 0.6007(2)
H4D H -1.31390 0.44300 0.59250
C13D C -0.7477(8) 0.3946(3) 0.4655(2)
C14D C -0.8827(8) 0.2597(4) 0.3552(2)
C15D C -1.0933(7) 0.4466(3) 0.5662(2)
H5D H -1.13200 0.45200 0.53510
C16D C -0.9817(8) 0.4318(4) 0.6595(2)
H6D H -0.94330 0.42770 0.69080
C17D C -0.8117(7) 0.4439(3) 0.5391(2)
C18D C -0.7180(9) 0.2894(4) 0.4244(3)
H7D H -0.63610 0.27820 0.44720
C19D C -0.9194(11) 0.3614(4) 0.3939(3)
H8D H -0.97500 0.40070 0.39500
C20D C -0.8721(8) 0.4375(3) 0.6248(2)
H9D H -0.76030 0.43670 0.63320
C21D C -0.7605(10) 0.2459(4) 0.3877(3)
H10D H -0.70340 0.20710 0.38590
C22D C -0.9639(11) 0.3172(4) 0.3586(3)
H11D H -1.05070 0.32690 0.33700
C23A C 0.517(5) 0.4297(10) 0.2122(6)
H12A H 0.53080 0.45270 0.18350
H13A H 0.41990 0.40330 0.20840
H14A H 0.61010 0.40250 0.21960
Bi1B Bi -1.00000 0.118045(18) 0.25000
Bi1D Bi -1.50000 0.381955(18) 0.75000
Bi1F Bi 0.00000 0.881955(18) 0.75000
O1A O 0.5802(5) 0.5753(3) 0.17058(16)
O2A O 0.7819(5) 0.5939(2) 0.22473(15)
O3F O 0.4341(5) 0.7131(2) 0.29577(16)
O3G O 0.5659(5) 0.7131(2) 0.20423(16)
O4F O 0.6828(5) 0.6737(2) 0.30445(16)
O4G O 0.3172(5) 0.6737(2) 0.19555(16)
O5F O 0.0962(11) 0.2704(7) -0.0131(5)
C24F C 0.215(2) 0.2604(10) -0.0455(5)
H15F H 0.19050 0.28630 -0.07350
H16F H 0.21810 0.21500 -0.05450
C25F C 0.140(2) 0.2215(11) 0.0238(7)
H17F H 0.14860 0.17880 0.00980
H18F H 0.05600 0.21990 0.04610
C26A C 0.5379(12) 0.2348(6) 0.2916(5)
H19A H 0.56250 0.20650 0.31790
H20A H 0.44560 0.26160 0.29760
H21A H 0.63090 0.26190 0.28710
#END
