
#######################################################################
#
#                 Cambridge Crystallographic Data Centre
#                                CCDC
#
#######################################################################
#
# If this CIF has been generated from an entry in the Cambridge
# Structural Database, then it will include bibliographic, chemical,
# crystal, experimental, refinement or atomic coordinate data resulting
# from the CCDC's data processing and validation procedures.
#
#######################################################################

data_CSD_CIF_TUCWEW
_audit_creation_date 2020-03-09
_audit_creation_method CSD-ConQuest-V1
_database_code_CSD TUCWEW
_database_code_depnum_ccdc_archive 'CCDC 1016908'
_chemical_formula_sum 'C10 H9 Br1 Hg1 I2 N4 O2'
_chemical_formula_moiety
;
(C5 H3 Hg1 I2 N2 O2 1-)n,C5 H6 Br1 N2 1+
;
_journal_coden_Cambridge 1147
_journal_volume 20
_journal_year 2020
_journal_page_first 2266
_journal_name_full 'Cryst.Growth Des. '
loop_
_publ_author_name
"H.R.Khavasi"
"A.Gholami"
"M.Hosseini"
"L.Nikpoor"
"K.Eskandari"
_chemical_name_systematic
;
catena-[2-amino-5-bromo-pyridin-1-ium 
(pyrazine-2-carboxylate)-(\m-iodo)-iodo-mercury]
;
_cell_volume   1640.863
_exptl_crystal_colour 'colorless'
_exptl_crystal_density_diffrn 3.042
_exptl_crystal_description 'Needle'
_diffrn_ambient_temperature 298
#These two values have been output from a single CSD field.
_refine_ls_R_factor_gt 0.07
_refine_ls_wR_factor_gt 0.07
_symmetry_cell_setting monoclinic
_symmetry_space_group_name_H-M 'P 21/c'
_symmetry_Int_Tables_number 14
loop_
_symmetry_equiv_pos_site_id
_symmetry_equiv_pos_as_xyz
1 x,y,z
2 -x,1/2+y,1/2-z
3 -x,-y,-z
4 x,-1/2-y,-1/2+z
_cell_length_a 18.339(4)
_cell_length_b 7.1315(14)
_cell_length_c 12.955(3)
_cell_angle_alpha 90
_cell_angle_beta 104.43(3)
_cell_angle_gamma 90
_cell_formula_units_Z 4
loop_
_atom_type_symbol
_atom_type_radius_bond
C 0.68
H 0.23
Br 1.21
Hg 1.32
I 1.40
N 0.68
O 0.68
loop_
_atom_site_label
_atom_site_type_symbol
_atom_site_fract_x
_atom_site_fract_y
_atom_site_fract_z
C1 C 0.2596(10) 0.401(3) 0.1670(15)
H1 H 0.26310 0.39650 0.09660
C2 C 0.1935(13) 0.436(3) 0.1841(15)
H2 H 0.15240 0.45670 0.12670
C3 C 0.2449(9) 0.411(2) 0.3650(13)
H3 H 0.24190 0.40940 0.43560
C4 C 0.3153(8) 0.379(2) 0.3402(11)
C5 C 0.3830(9) 0.343(2) 0.4278(12)
N1 N 0.3202(7) 0.373(2) 0.2409(11)
N2 N 0.1842(7) 0.442(2) 0.2880(11)
O1 O 0.3730(7) 0.352(3) 0.5193(10)
O2 O 0.4439(6) 0.3008(18) 0.4085(9)
I1 I -0.02504(6) 0.53832(16) 0.15017(9)
I2 I 0.11908(6) 0.53680(18) 0.55000(9)
Hg1 Hg 0.06147(4) 0.50617(11) 0.34400(5)
C6 C 0.5388(9) 0.170(2) 0.6854(14)
C7 C 0.5987(11) 0.122(3) 0.7706(14)
H4 H 0.59070 0.10950 0.83830
C8 C 0.6669(10) 0.095(3) 0.7565(13)
H5 H 0.70600 0.05890 0.81380
C9 C 0.6809(9) 0.120(2) 0.6527(13)
C10 C 0.6237(8) 0.175(2) 0.5684(13)
H6 H 0.63210 0.19450 0.50130
N3 N 0.5543(7) 0.2013(19) 0.5857(11)
H7 H 0.51830 0.23880 0.53370
N4 N 0.4712(9) 0.194(3) 0.6929(14)
H8 H 0.46060 0.18070 0.75360
H9 H 0.43640 0.22300 0.63740
Br1 Br 0.77814(10) 0.0837(3) 0.63290(18)
I1A I 0.02504(6) 0.03832(16) 0.34983(9)
Hg1A Hg -0.06147(4) 1.00617(11) 0.15600(5)
#END
