
#######################################################################
#
#                 Cambridge Crystallographic Data Centre
#                                CCDC
#
#######################################################################
#
# If this CIF has been generated from an entry in the Cambridge
# Structural Database, then it will include bibliographic, chemical,
# crystal, experimental, refinement or atomic coordinate data resulting
# from the CCDC's data processing and validation procedures.
#
#######################################################################

data_CSD_CIF_TUCYUL
_audit_creation_date 1997-05-29
_audit_creation_method CSD-ConQuest-V1
_database_code_CSD TUCYUL
_database_code_depnum_ccdc_archive 'CCDC 1276191'
_chemical_formula_sum 'C8 H4 K2 O17 Zr1'
_chemical_formula_moiety
;
(C6 O12 Zr1 2-)n,n(C2 H2 O4),n(H2 O1),2n(K1 1+)
;
_journal_coden_Cambridge 9
_journal_volume 36
_journal_year 1997
_journal_page_first 737
_journal_name_full 'Inorg.Chem. '
loop_
_publ_author_name
"R.Baggio"
"M.T.Garland"
"M.Perec"
_chemical_name_systematic
;
catena(Dipotassium (\m~2~-oxalato)-bis(oxalato)-zirconium(iv) oxalic acid 
solvate monohydrate)
;
_cell_volume   1561.223
_exptl_crystal_colour 'colorless'
_exptl_crystal_density_diffrn 2.304
_diffrn_ambient_temperature ?
_diffrn_special_details
;
The study was carried out at room temperature,in the range 283-303K

;
#These two values have been output from a single CSD field.
_refine_ls_R_factor_gt 0.0291
_refine_ls_wR_factor_gt 0.0291
_symmetry_cell_setting monoclinic
_symmetry_space_group_name_H-M 'C c'
_symmetry_Int_Tables_number 9
loop_
_symmetry_equiv_pos_site_id
_symmetry_equiv_pos_as_xyz
1 x,y,z
2 x,-y,1/2+z
3 1/2+x,1/2+y,z
4 1/2+x,1/2-y,1/2+z
_cell_length_a 16.465(5)
_cell_length_b 11.149(3)
_cell_length_c 8.939(3)
_cell_angle_alpha 90
_cell_angle_beta 107.93(1)
_cell_angle_gamma 90
_cell_formula_units_Z 4
loop_
_atom_type_symbol
_atom_type_radius_bond
C 0.68
H 0.23
K 1.33
O 0.68
Zr 1.56
loop_
_atom_site_label
_atom_site_type_symbol
_atom_site_fract_x
_atom_site_fract_y
_atom_site_fract_z
C1 C 0.0778(5) 0.8656(8) 0.0941(9)
C2 C 0.1466(6) 0.8403(8) 0.2490(9)
C3 C 0.0488(5) 0.4954(6) 0.0357(8)
C4 C -0.0460(6) 0.5191(8) -0.0483(10)
C5 C -0.0812(6) 0.8527(9) 0.4258(10)
C6 C -0.1486(6) 0.8343(8) 0.264(1)
O1 O 0.0908(5) 0.9350(7) -0.0026(9)
O2 O 0.0079(4) 0.8037(6) 0.0785(7)
O3 O 0.2172(4) 0.8900(7) 0.2872(8)
O4 O 0.1229(4) 0.7592(5) 0.3356(7)
O5 O 0.0799(4) 0.5500(6) 0.1616(6)
O6 O 0.0835(4) 0.4219(6) -0.0283(6)
O7 O -0.0820(4) 0.5892(5) 0.0222(7)
O8 O -0.0786(4) 0.4623(6) -0.1758(7)
O9 O -0.0137(4) 0.7867(6) 0.4420(7)
O10 O -0.0914(5) 0.9184(7) 0.5249(8)
O11 O -0.1278(4) 0.7587(5) 0.1780(6)
O12 O -0.2134(4) 0.8922(7) 0.2295(8)
Zr1 Zr 0.00000 0.67782(3) 0.25000
K1 K 0.25568(15) 0.9415(2) 0.6025(3)
K2 K -0.2577(2) 0.9411(2) -0.0868(3)
C7 C 0.1329(3) 1.2502(5) 0.3049(7)
C8 C 0.2182(4) 1.2348(5) 0.4326(7)
O13 O 0.1274(6) 1.1804(7) 0.1859(9)
H1 H 0.0814(6) 1.1911(7) 0.1192(9)
O14 O 0.0802(3) 1.3207(4) 0.3170(6)
O15 O 0.2689(5) 1.1578(5) 0.4305(8)
O16 O 0.2267(5) 1.3147(6) 0.5453(8)
H2 H 0.2723(5) 1.3045(6) 0.6126(8)
O17 O -0.1407(7) 1.1894(8) 0.2975(9)
O6A O 0.0835(4) 0.5781(6) 0.4717(6)
O8A O -0.0786(4) 0.5377(6) 0.3242(7)
Zr1A Zr 0.00000 0.32218(3) -0.25000
#END
