
#######################################################################
#
#                 Cambridge Crystallographic Data Centre
#                                CCDC
#
#######################################################################
#
# If this CIF has been generated from an entry in the Cambridge
# Structural Database, then it will include bibliographic, chemical,
# crystal, experimental, refinement or atomic coordinate data resulting
# from the CCDC's data processing and validation procedures.
#
#######################################################################

data_CSD_CIF_TUFSOE
_audit_creation_date 2015-05-11
_audit_creation_method CSD-ConQuest-V1
_database_code_CSD TUFSOE
_database_code_depnum_ccdc_archive 'CCDC 1056484'
_chemical_formula_sum 'C46 H88 Cu7 I6 K1 O6.5 P6'
_chemical_formula_moiety
;
(C20 H36 Cu7 I6 P6 1-)n,C24 H48 K1 O6 1+,0.5(C4 H8 O1)
;
_journal_coden_Cambridge 222
_journal_volume 44
_journal_year 2015
_journal_page_first 10245
_journal_name_full 'Dalton Trans. '
loop_
_publ_author_name
"C.Heindl"
"E.V.Peresypkina"
"A.V.Virovets"
"V.Yu.Komarov"
"M.Scheer"
_chemical_name_systematic
;
catena-(hexakis(tetrahydrofuran)-potassium 
bis(\m-3,5-dimesityl-1,2,4-triphospholyl)-hexakis(\m-iodo)-hepta-copper 
tetrahydrofuran solvate)
;
_cell_volume   7225.386
_exptl_crystal_colour 'dark red'
_exptl_crystal_description 'block'
_diffrn_ambient_temperature 123.0
_refine_special_details
;
The structure is disordered; The solvated thf molecule is disordered in the 
space between polymeric layers.
;
#These two values have been output from a single CSD field.
_refine_ls_R_factor_gt 0.113
_refine_ls_wR_factor_gt 0.113
_symmetry_cell_setting monoclinic
_symmetry_space_group_name_H-M 'P 21/c'
_symmetry_Int_Tables_number 14
loop_
_symmetry_equiv_pos_site_id
_symmetry_equiv_pos_as_xyz
1 x,y,z
2 -x,1/2+y,1/2-z
3 -x,-y,-z
4 x,-1/2-y,-1/2+z
_cell_length_a 18.0501(3)
_cell_length_b 13.3882(3)
_cell_length_c 29.8992(6)
_cell_angle_alpha 90
_cell_angle_beta 90.068(2)
_cell_angle_gamma 90
_cell_formula_units_Z 4
loop_
_atom_type_symbol
_atom_type_radius_bond
C 0.68
H 0.23
Cu 1.32
I 1.40
K 2.03
O 0.68
P 1.05
loop_
_atom_site_label
_atom_site_type_symbol
_atom_site_fract_x
_atom_site_fract_y
_atom_site_fract_z
I1 I 0.79251(7) 0.33773(9) 0.42127(4)
I2 I 0.70809(7) 0.66127(9) 0.42126(4)
I3 I 0.92638(6) 0.46838(9) 0.20250(4)
I4 I 0.93183(16) 0.2613(2) 0.31379(11)
I5 I 0.56828(7) 0.73757(9) 0.31272(4)
I6 I 0.57354(6) 0.53036(9) 0.20240(4)
Cu1 Cu 0.82267(13) 0.46415(19) 0.25722(9)
Cu2 Cu 0.83064(15) 0.38057(19) 0.33788(9)
Cu3 Cu 0.75013(16) 0.4996(2) 0.38271(9)
Cu4 Cu 0.66953(15) 0.61807(19) 0.33795(9)
Cu5 Cu 0.67689(14) 0.53471(19) 0.25725(9)
Cu6 Cu 1.01278(14) 0.81665(19) 0.26143(9)
Cu7 Cu 0.51279(14) 0.68187(19) 0.23853(9)
P1 P 0.9166(2) 0.7308(3) 0.28668(15)
P2 P 0.7735(2) 0.6299(3) 0.27984(15)
P3 P 0.8419(2) 0.5577(3) 0.32766(14)
P4 P 0.5832(2) 0.2684(3) 0.28692(15)
P5 P 0.7265(2) 0.3693(3) 0.27995(14)
P6 P 0.6584(2) 0.4417(3) 0.32763(14)
C1 C 0.8302(9) 0.7263(12) 0.2616(6)
C2 C 0.8077(10) 0.7965(14) 0.2242(6)
C3 C 0.7231(12) 0.8024(16) 0.2196(8)
C4 C 0.8370(17) 0.7522(19) 0.1802(7)
C5 C 0.8358(13) 0.9042(16) 0.2325(9)
C6 C 0.9188(9) 0.6345(12) 0.3258(6)
C7 C 0.9876(9) 0.6144(12) 0.3559(6)
C8 C 1.0410(11) 0.5442(19) 0.3298(9)
C9 C 1.0260(15) 0.7127(16) 0.3677(8)
C10 C 0.9641(14) 0.561(2) 0.3982(7)
C11 C 0.6685(9) 0.2740(13) 0.2623(5)
C12 C 0.6922(10) 0.2014(13) 0.2243(6)
C13 C 0.6647(13) 0.0977(16) 0.2320(9)
C14 C 0.6609(16) 0.243(2) 0.1807(7)
C15 C 0.7767(12) 0.1926(19) 0.2198(9)
C16 C 0.5800(9) 0.3646(11) 0.3259(6)
C17 C 0.5132(9) 0.3821(13) 0.3556(6)
C18 C 0.4597(13) 0.452(2) 0.3305(8)
C19 C 0.5367(13) 0.4377(19) 0.3985(7)
C20 C 0.4737(14) 0.2879(15) 0.3682(8)
H1 H 0.71060 0.84660 0.19540
H2 H 0.70210 0.82730 0.24690
H3 H 0.70370 0.73700 0.21350
H4 H 0.82350 0.79520 0.15580
H5 H 0.81580 0.68730 0.17560
H6 H 0.89000 0.74670 0.18170
H7 H 0.82110 0.94620 0.20800
H8 H 0.88890 0.90380 0.23480
H9 H 0.81490 0.92930 0.25980
H10 H 1.01580 0.48330 0.32250
H11 H 1.08350 0.52950 0.34800
H12 H 1.05680 0.57670 0.30280
H13 H 1.04040 0.74640 0.34070
H14 H 1.06920 0.69920 0.38550
H15 H 0.99260 0.75430 0.38430
H16 H 0.93950 0.49970 0.39050
H17 H 0.93100 0.60270 0.41490
H18 H 1.00710 0.54620 0.41600
H19 H 0.68470 0.07270 0.25960
H20 H 0.68030 0.05560 0.20780
H21 H 0.61160 0.09820 0.23360
H22 H 0.67890 0.30940 0.17620
H23 H 0.60780 0.24360 0.18230
H24 H 0.67630 0.20110 0.15630
H25 H 0.79750 0.25740 0.21430
H26 H 0.78850 0.14890 0.19530
H27 H 0.79710 0.16580 0.24690
H28 H 0.48500 0.51330 0.32310
H29 H 0.41800 0.46720 0.34930
H30 H 0.44290 0.42050 0.30360
H31 H 0.56140 0.49870 0.39060
H32 H 0.56970 0.39640 0.41560
H33 H 0.49360 0.45270 0.41610
H34 H 0.45870 0.25330 0.34160
H35 H 0.43080 0.30400 0.38570
H36 H 0.50630 0.24610 0.38530
K1 K 0.00000 0.00000 0.50000
O1 O 0.0297(13) 0.1803(18) 0.4701(8)
O2 O 0.1295(11) -0.0560(17) 0.4672(7)
O3 O 0.0793(11) 0.0478(15) 0.5733(6)
C21 C 0.064(3) 0.214(4) 0.4309(15)
C22 C 0.050(3) 0.320(4) 0.4289(15)
C23 C 0.029(3) 0.350(4) 0.4771(15)
C24 C 0.000(3) 0.260(3) 0.4929(16)
C25 C 0.1804(18) -0.119(3) 0.4906(11)
C26 C 0.2298(18) -0.157(3) 0.4609(10)
C27 C 0.1999(18) -0.136(3) 0.4126(11)
C28 C 0.1358(18) -0.070(3) 0.4205(11)
C29 C 0.0853(16) -0.027(2) 0.6088(9)
C30 C 0.1305(15) 0.023(2) 0.6444(9)
C31 C 0.1743(15) 0.102(2) 0.6177(9)
C32 C 0.1418(15) 0.111(2) 0.5746(9)
H37 H 0.04420 0.18030 0.40480
H38 H 0.11740 0.20140 0.43210
H39 H 0.00910 0.33440 0.40850
H40 H 0.09320 0.35670 0.41900
H41 H 0.07190 0.37110 0.49410
H42 H -0.00810 0.40270 0.47750
H43 H 0.01160 0.25340 0.52450
H44 H -0.05310 0.26010 0.48950
H45 H 0.20610 -0.08120 0.51340
H46 H 0.15380 -0.17320 0.50500
H47 H 0.23580 -0.22790 0.46550
H48 H 0.27760 -0.12490 0.46480
H49 H 0.23700 -0.10350 0.39430
H50 H 0.18460 -0.19770 0.39810
H51 H 0.14330 -0.00610 0.40570
H52 H 0.09090 -0.09990 0.40870
H53 H 0.11000 -0.08710 0.59790
H54 H 0.03680 -0.04570 0.62000
H55 H 0.16360 -0.02410 0.65900
H56 H 0.09900 0.05370 0.66680
H57 H 0.17250 0.16600 0.63310
H58 H 0.22570 0.08220 0.61500
H59 H 0.12700 0.17990 0.56920
H60 H 0.17710 0.09200 0.55180
K2 K 0.50000 0.00000 0.50000
O4 O 0.4690(13) -0.1787(19) 0.4699(8)
O5 O 0.5796(10) 0.0459(15) 0.4263(6)
O6 O 0.3710(12) 0.0541(18) 0.4668(7)
C33 C 0.465(3) -0.264(4) 0.5017(16)
C34 C 0.474(3) -0.345(4) 0.4768(15)
C35 C 0.455(2) -0.322(3) 0.4274(12)
C36 C 0.437(2) -0.213(3) 0.4291(12)
C37 C 0.5867(16) -0.027(2) 0.3911(9)
C38 C 0.6315(16) 0.021(2) 0.3564(9)
C39 C 0.6763(16) 0.100(2) 0.3808(9)
C40 C 0.6409(16) 0.117(2) 0.4241(9)
C41 C 0.3647(19) 0.068(3) 0.4206(11)
C42 C 0.3017(19) 0.137(3) 0.4121(11)
C43 C 0.2854(19) 0.190(3) 0.4566(11)
C44 C 0.3192(19) 0.121(3) 0.4913(11)
H61 H 0.50350 -0.25900 0.52420
H62 H 0.41720 -0.26580 0.51650
H63 H 0.44290 -0.39870 0.48770
H64 H 0.52550 -0.36740 0.47880
H65 H 0.49660 -0.33500 0.40780
H66 H 0.41250 -0.36040 0.41740
H67 H 0.45900 -0.17850 0.40380
H68 H 0.38420 -0.20240 0.42880
H69 H 0.53830 -0.04560 0.37940
H70 H 0.61100 -0.08710 0.40210
H71 H 0.60000 0.05060 0.33370
H72 H 0.66400 -0.02760 0.34220
H73 H 0.72700 0.07800 0.38500
H74 H 0.67690 0.16180 0.36370
H75 H 0.67570 0.10460 0.44830
H76 H 0.62270 0.18460 0.42640
H77 H 0.35610 0.00480 0.40590
H78 H 0.41010 0.09680 0.40890
H79 H 0.25860 0.09980 0.40220
H80 H 0.31460 0.18520 0.38920
H81 H 0.30840 0.25560 0.45740
H82 H 0.23250 0.19760 0.46120
H83 H 0.34570 0.15950 0.51380
H84 H 0.28090 0.08250 0.50610
I7? I 0.9344(18) 0.262(3) 0.3033(9)
I3A I 1.07362(6) 0.96838(9) 0.29750(4)
I4A I 1.06817(16) 0.7613(2) 0.18621(11)
Cu6A Cu 0.98722(14) 0.31665(19) 0.23857(9)
Cu7A Cu 0.48721(14) 0.18187(19) 0.26147(9)
P4A P 0.4168(2) 0.7684(3) 0.21308(15)
O1B O -0.0297(13) -0.1803(18) 0.5299(8)
O2B O -0.1295(11) 0.0560(17) 0.5328(7)
O3B O -0.0793(11) -0.0478(15) 0.4267(6)
C21B C -0.064(3) -0.214(4) 0.5691(15)
C22B C -0.050(3) -0.320(4) 0.5711(15)
C23B C -0.029(3) -0.350(4) 0.5229(15)
C24B C 0.000(3) -0.260(3) 0.5071(16)
C25B C -0.1804(18) 0.119(3) 0.5094(11)
C26B C -0.2298(18) 0.157(3) 0.5391(10)
C27B C -0.1999(18) 0.136(3) 0.5874(11)
C28B C -0.1358(18) 0.070(3) 0.5795(11)
C29B C -0.0853(16) 0.027(2) 0.3912(9)
C30B C -0.1305(15) -0.023(2) 0.3556(9)
C31B C -0.1743(15) -0.102(2) 0.3823(9)
C32B C -0.1418(15) -0.111(2) 0.4254(9)
H37B H -0.04420 -0.18030 0.59520
H38B H -0.11740 -0.20140 0.56790
H39B H -0.00910 -0.33440 0.59150
H40B H -0.09320 -0.35670 0.58100
H41B H -0.07190 -0.37110 0.50590
H42B H 0.00810 -0.40270 0.52250
H43B H -0.01160 -0.25340 0.47550
H44B H 0.05310 -0.26010 0.51050
H45B H -0.20610 0.08120 0.48660
H46B H -0.15380 0.17320 0.49500
H47B H -0.23580 0.22790 0.53450
H48B H -0.27760 0.12490 0.53520
H49B H -0.23700 0.10350 0.60570
H50B H -0.18460 0.19770 0.60190
H51B H -0.14330 0.00610 0.59430
H52B H -0.09090 0.09990 0.59130
H53B H -0.11000 0.08710 0.40210
H54B H -0.03680 0.04570 0.38000
H55B H -0.16360 0.02410 0.34100
H56B H -0.09900 -0.05370 0.33320
H57B H -0.17250 -0.16600 0.36690
H58B H -0.22570 -0.08220 0.38500
H59B H -0.12700 -0.17990 0.43080
H60B H -0.17710 -0.09200 0.44820
O4B O 0.5310(13) 0.1787(19) 0.5301(8)
O5B O 0.4204(10) -0.0459(15) 0.5737(6)
O6B O 0.6290(12) -0.0541(18) 0.5332(7)
C33B C 0.535(3) 0.264(4) 0.4983(16)
C34B C 0.526(3) 0.345(4) 0.5232(15)
C35B C 0.545(2) 0.322(3) 0.5726(12)
C36B C 0.563(2) 0.213(3) 0.5709(12)
C37B C 0.4133(16) 0.027(2) 0.6089(9)
C38B C 0.3685(16) -0.021(2) 0.6436(9)
C39B C 0.3237(16) -0.100(2) 0.6192(9)
C40B C 0.3591(16) -0.117(2) 0.5759(9)
C41B C 0.6353(19) -0.068(3) 0.5794(11)
C42B C 0.6983(19) -0.137(3) 0.5879(11)
C43B C 0.7146(19) -0.190(3) 0.5434(11)
C44B C 0.6808(19) -0.121(3) 0.5087(11)
H61B H 0.49650 0.25900 0.47580
H62B H 0.58280 0.26580 0.48350
H63B H 0.55710 0.39870 0.51230
H64B H 0.47450 0.36740 0.52120
H65B H 0.50340 0.33500 0.59220
H66B H 0.58750 0.36040 0.58260
H67B H 0.54100 0.17850 0.59620
H68B H 0.61580 0.20240 0.57120
H69B H 0.46170 0.04560 0.62060
H70B H 0.38900 0.08710 0.59790
H71B H 0.40000 -0.05060 0.66630
H72B H 0.33600 0.02760 0.65780
H73B H 0.27300 -0.07800 0.61500
H74B H 0.32310 -0.16180 0.63630
H75B H 0.32430 -0.10460 0.55170
H76B H 0.37730 -0.18460 0.57360
H77B H 0.64390 -0.00480 0.59410
H78B H 0.58990 -0.09680 0.59110
H79B H 0.74140 -0.09980 0.59780
H80B H 0.68540 -0.18520 0.61080
H81B H 0.69160 -0.25560 0.54260
H82B H 0.76750 -0.19760 0.53880
H83B H 0.65430 -0.15950 0.48620
H84B H 0.71910 -0.08250 0.49390
#END
