
#######################################################################
#
#                 Cambridge Crystallographic Data Centre
#                                CCDC
#
#######################################################################
#
# If this CIF has been generated from an entry in the Cambridge
# Structural Database, then it will include bibliographic, chemical,
# crystal, experimental, refinement or atomic coordinate data resulting
# from the CCDC's data processing and validation procedures.
#
#######################################################################

data_CSD_CIF_TUGCIK
_audit_creation_date 2020-03-11
_audit_creation_method CSD-ConQuest-V1
_database_code_CSD TUGCIK
_database_code_depnum_ccdc_archive 'CCDC 1969891'
_chemical_formula_sum 'C36 H50 N2 Ni2 O26'
_chemical_formula_moiety
;
C26 H20 N2 O4,n(C10 H10 Ni1 O12 2-),H12 Ni1 O6 2+,4(H2 O1)
;
_journal_coden_Cambridge 222
_journal_volume 49
_journal_year 2020
_journal_page_first 4044
_journal_name_full 'Dalton Trans. '
loop_
_publ_author_name
"Jinjian Liu"
"Yiwei Lu"
"Wenbo Lu"
_chemical_name_systematic
;
catena-[hexa-aqua-nickel 
3,3'-[[4,4'-bipyridin-1-ium]-1,1'-diylbis(methylene)]dibenzoate 
(\m-2,5-dicarboxylatebenzene-1,4-dicarboxylato)-tetra-aqua-nickel 
tetrahydrate]
;
_cell_volume   1033.394
_exptl_crystal_colour 'green'
_exptl_crystal_density_diffrn 1.678
_exptl_crystal_description 'block'
_diffrn_ambient_temperature 273.1
#These two values have been output from a single CSD field.
_refine_ls_R_factor_gt 0.0367
_refine_ls_wR_factor_gt 0.0367
_symmetry_cell_setting triclinic
_symmetry_space_group_name_H-M 'P -1'
_symmetry_Int_Tables_number 2
loop_
_symmetry_equiv_pos_site_id
_symmetry_equiv_pos_as_xyz
1 x,y,z
2 -x,-y,-z
_cell_length_a 7.9165(7)
_cell_length_b 11.3395(10)
_cell_length_c 12.9997(11)
_cell_angle_alpha 66.934(2)
_cell_angle_beta 89.039(2)
_cell_angle_gamma 75.182(2)
_cell_formula_units_Z 1
loop_
_atom_type_symbol
_atom_type_radius_bond
C 0.68
H 0.23
N 0.68
Ni 1.24
O 0.68
loop_
_atom_site_label
_atom_site_type_symbol
_atom_site_fract_x
_atom_site_fract_y
_atom_site_fract_z
Ni1 Ni 0.50000 0.50000 0.50000
O1 O 0.61268(19) 0.54957(13) 0.34545(11)
H1 H 0.53630 0.61100 0.29060
H2 H 0.63820 0.48210 0.32550
O2 O 0.25148(19) 0.60266(14) 0.42577(12)
H3 H 0.20090 0.55530 0.40010
H4 H 0.24940 0.67450 0.36190
O3 O 0.46740(19) 0.32626(13) 0.50079(11)
C1 C 0.5745(2) 0.03610(16) 0.57547(13)
H5 H 0.62400 0.06030 0.62600
O4 O 0.6015(2) 0.31807(14) 0.34954(12)
O5 O 0.6000(2) -0.16833(15) 0.80397(11)
C2 C 0.5685(2) -0.09541(16) 0.60750(13)
O6 O 0.7493(2) -0.30597(15) 0.73006(13)
C3 C 0.5070(2) 0.13153(15) 0.46845(13)
C4 C 0.6457(3) -0.19781(18) 0.72357(14)
C5 C 0.5246(2) 0.27068(16) 0.43592(13)
Ni2 Ni 0.50000 -0.50000 1.00000
O7 O 0.61471(19) -0.35869(14) 1.00861(12)
H6 H 0.55620 -0.31980 1.04820
O8 O 0.3252(2) -0.46647(15) 1.11190(12)
H7 H 0.32760 -0.54050 1.16770
O9 O 0.67521(19) -0.64690(14) 1.13049(11)
H8 H 0.63380 -0.65470 1.19420
H9 H 0.331(5) -0.420(4) 1.137(3)
H10 H 0.784(5) -0.627(4) 1.129(3)
H11 H 0.623(4) -0.304(3) 0.951(3)
N1 N 0.1990(2) 0.09241(16) 0.68499(12)
O10 O 0.4067(2) -0.26180(14) 1.15326(12)
O11 O 0.2395(2) -0.17029(16) 1.25665(12)
C6 C 0.2393(2) 0.10553(18) 0.87030(14)
C7 C 0.3019(2) -0.01548(18) 0.96195(14)
H12 H 0.38460 -0.08490 0.95320
C8 C 0.1210(3) 0.0728(2) 1.07880(16)
H13 H 0.08320 0.06270 1.14910
C9 C 0.3086(3) 0.1251(2) 0.75791(15)
H14 H 0.31180 0.21700 0.71950
H15 H 0.42780 0.06900 0.76940
C10 C 0.0366(2) 0.02128(17) 0.54033(13)
C11 C 0.2996(3) -0.16491(18) 1.16649(15)
C12 C 0.2411(2) -0.03304(17) 1.06655(14)
C13 C 0.1027(3) -0.0703(2) 0.64859(16)
H16 H 0.09170 -0.15670 0.67370
C14 C 0.1847(3) -0.0324(2) 0.71850(16)
H17 H 0.23090 -0.09440 0.79030
C15 C 0.1153(3) 0.20900(19) 0.88337(17)
H18 H 0.07150 0.28920 0.82180
C16 C 0.1264(3) 0.1845(2) 0.58430(17)
H19 H 0.13150 0.27180 0.56320
C17 C 0.0437(3) 0.1508(2) 0.51140(17)
H20 H -0.00800 0.21610 0.44190
C18 C 0.0568(3) 0.1931(2) 0.98769(18)
H21 H -0.02510 0.26270 0.99660
O12 O 0.0215(3) 0.4807(2) 0.3694(2)
H22 H -0.08950 0.50370 0.36900
H23 H 0.04910 0.44200 0.32480
O13 O 0.9597(3) -0.5627(3) 1.1205(3)
H24 H 1.05750 -0.60980 1.15840
H25 H 0.94340 -0.48870 1.12650
O3A O 0.53260(19) -0.32626(13) 0.49921(11)
C1A C 0.4255(2) -0.03610(16) 0.42453(13)
H5A H 0.37600 -0.06030 0.37400
O4A O 0.3985(2) -0.31807(14) 0.65046(12)
O5A O 0.4000(2) 0.16833(15) 0.19603(11)
C2A C 0.4315(2) 0.09541(16) 0.39250(13)
O6A O 0.2507(2) 0.30597(15) 0.26994(13)
C3A C 0.4930(2) -0.13153(15) 0.53155(13)
C4A C 0.3543(3) 0.19781(18) 0.27643(14)
C5A C 0.4754(2) -0.27068(16) 0.56408(13)
O1A O 0.38732(19) 0.45043(13) 0.65455(11)
H1A H 0.46370 0.38900 0.70940
H2A H 0.36180 0.51790 0.67450
O2A O 0.74852(19) 0.39734(14) 0.57423(12)
H3A H 0.79910 0.44470 0.59990
H4A H 0.75060 0.32550 0.63810
Ni1* Ni 0.50000 -0.50000 0.50000
O3A* O 0.53260(19) 0.67374(13) 0.49921(11)
O7A O 0.38529(19) -0.64131(14) 0.99139(12)
H6A H 0.44380 -0.68020 0.95180
O8A O 0.6748(2) -0.53353(15) 0.88810(12)
H7A H 0.67240 -0.45950 0.83230
O9A O 0.32479(19) -0.35310(14) 0.86951(11)
H8A H 0.36620 -0.34530 0.80580
H9A H 0.669(5) -0.580(4) 0.863(3)
H10A H 0.216(5) -0.373(4) 0.871(3)
H11A H 0.377(4) -0.696(3) 1.049(3)
N1A N -0.1990(2) -0.09241(16) 0.31501(12)
O10A O -0.4067(2) 0.26180(14) -0.15326(12)
O11A O -0.2395(2) 0.17029(16) -0.25665(12)
C6A C -0.2393(2) -0.10553(18) 0.12970(14)
C7A C -0.3019(2) 0.01548(18) 0.03805(14)
H12A H -0.38460 0.08490 0.04680
C8A C -0.1210(3) -0.0728(2) -0.07880(16)
H13A H -0.08320 -0.06270 -0.14910
C9A C -0.3086(3) -0.1251(2) 0.24209(15)
H14A H -0.31180 -0.21700 0.28050
H15A H -0.42780 -0.06900 0.23060
C10A C -0.0366(2) -0.02128(17) 0.45967(13)
C11A C -0.2996(3) 0.16491(18) -0.16649(15)
C12A C -0.2411(2) 0.03304(17) -0.06655(14)
C13A C -0.1027(3) 0.0703(2) 0.35141(16)
H16A H -0.09170 0.15670 0.32630
C14A C -0.1847(3) 0.0324(2) 0.28150(16)
H17A H -0.23090 0.09440 0.20970
C15A C -0.1153(3) -0.20900(19) 0.11663(17)
H18A H -0.07150 -0.28920 0.17820
C16A C -0.1264(3) -0.1845(2) 0.41570(17)
H19A H -0.13150 -0.27180 0.43680
C17A C -0.0437(3) -0.1508(2) 0.48860(17)
H20A H 0.00800 -0.21610 0.55810
C18A C -0.0568(3) -0.1931(2) 0.01231(18)
H21A H 0.02510 -0.26270 0.00340
#END
