
#######################################################################
#
#                 Cambridge Crystallographic Data Centre
#                                CCDC
#
#######################################################################
#
# If this CIF has been generated from an entry in the Cambridge
# Structural Database, then it will include bibliographic, chemical,
# crystal, experimental, refinement or atomic coordinate data resulting
# from the CCDC's data processing and validation procedures.
#
#######################################################################

data_CSD_CIF_TUGCEG
_audit_creation_date 2020-03-11
_audit_creation_method CSD-ConQuest-V1
_database_code_CSD TUGCEG
_database_code_depnum_ccdc_archive 'CCDC 1963997'
_chemical_formula_sum 'C36 H50 Co2 N2 O26'
_chemical_formula_moiety
;
C26 H20 N2 O4,n(C10 H10 Co1 O12 2-),H12 Co1 O6 2+,4(H2 O1)
;
_journal_coden_Cambridge 222
_journal_volume 49
_journal_year 2020
_journal_page_first 4044
_journal_name_full 'Dalton Trans. '
loop_
_publ_author_name
"Jinjian Liu"
"Yiwei Lu"
"Wenbo Lu"
_chemical_name_systematic
;
catena-[hexa-aqua-cobalt 
3,3'-[[4,4'-bipyridin-1-ium]-1,1'-diylbis(methylene)]dibenzoate 
(\m-2,5-dicarboxylatebenzene-1,4-dicarboxylato)-tetra-aqua-cobalt 
tetrahydrate]
;
_cell_volume   1037.176
_exptl_crystal_colour 'brown'
_exptl_crystal_density_diffrn 1.672
_exptl_crystal_description 'block'
_diffrn_ambient_temperature 273.1
#These two values have been output from a single CSD field.
_refine_ls_R_factor_gt 0.032
_refine_ls_wR_factor_gt 0.032
_symmetry_cell_setting triclinic
_symmetry_space_group_name_H-M 'P -1'
_symmetry_Int_Tables_number 2
loop_
_symmetry_equiv_pos_site_id
_symmetry_equiv_pos_as_xyz
1 x,y,z
2 -x,-y,-z
_cell_length_a 7.9060(8)
_cell_length_b 11.3704(11)
_cell_length_c 13.0336(13)
_cell_angle_alpha 67.016(2)
_cell_angle_beta 88.956(2)
_cell_angle_gamma 74.969(2)
_cell_formula_units_Z 1
loop_
_atom_type_symbol
_atom_type_radius_bond
C 0.68
H 0.23
Co 1.26
N 0.68
O 0.68
loop_
_atom_site_label
_atom_site_type_symbol
_atom_site_fract_x
_atom_site_fract_y
_atom_site_fract_z
Co1 Co 0.00000 0.00000 0.50000
O1 O 0.12014(17) 0.04804(11) 0.34289(9)
H1 H 0.04670 0.11220 0.28730
H2 H 0.14200 -0.01880 0.32180
O2 O -0.24875(18) 0.10422(13) 0.42120(11)
H3 H -0.30530 0.05780 0.39240
H4 H -0.25250 0.17920 0.35440
O3 O 0.1007(2) -0.18326(12) 0.35052(10)
O4 O -0.03187(17) -0.17640(11) 0.50203(10)
C1 C 0.0751(2) -0.46477(14) 0.57531(11)
H5 H 0.12500 -0.44090 0.62570
C2 C -0.0690(2) -0.40455(14) 0.39296(12)
O5 O -0.1023(2) -0.33110(13) 0.19707(10)
C3 C 0.0073(2) -0.36949(13) 0.46889(12)
O6 O -0.2519(2) -0.19463(13) 0.27184(11)
C4 C -0.1476(2) -0.30220(15) 0.27771(13)
C5 C 0.0247(2) -0.23108(14) 0.43688(12)
Co2 Co 0.00000 -1.00000 1.00000
O7 O 0.11446(17) -0.85620(12) 1.00685(10)
H6 H 0.05250 -0.81210 1.04360
H7 H 0.11070 -0.79360 0.93990
O8 O -0.17648(18) -0.96612(13) 1.11634(11)
H8 H -0.17650 -1.04090 1.17120
O9 O 0.17771(17) -1.14723(12) 1.13265(10)
H9 H 0.13770 -1.15430 1.19730
H10 H 0.27460 -1.12450 1.13560
H11 H -0.172(4) -0.910(3) 1.140(3)
N1 N 0.30177(18) 0.40840(13) 0.31519(11)
O10 O 0.08954(19) 0.76058(12) -0.15274(10)
O11 O 0.2605(2) 0.66939(13) -0.25474(11)
C6 C 0.2607(2) 0.39529(15) 0.13050(13)
C7 C 0.1982(2) 0.66401(16) -0.16508(13)
C8 C 0.3775(2) 0.42697(17) -0.07765(14)
H12 H 0.41500 0.43660 -0.14780
C9 C 0.1973(2) 0.51572(15) 0.03892(13)
H13 H 0.11430 0.58510 0.04770
C10 C 0.1918(2) 0.37649(18) 0.24233(13)
H14 H 0.07240 0.43300 0.23090
H15 H 0.18800 0.28510 0.28060
C11 C 0.3849(3) 0.29166(17) 0.11717(15)
H16 H 0.42930 0.21180 0.17850
C12 C 0.4637(2) 0.47907(15) 0.45970(12)
C13 C 0.3984(2) 0.56941(17) 0.35151(14)
H17 H 0.40990 0.65530 0.32640
C14 C 0.2575(2) 0.53291(15) -0.06545(12)
C15 C 0.3734(3) 0.31681(18) 0.41598(14)
H18 H 0.36770 0.22990 0.43710
C16 C 0.4557(3) 0.35001(18) 0.48886(15)
H19 H 0.50640 0.28500 0.55840
C17 C 0.4424(3) 0.30709(18) 0.01320(16)
H20 H 0.52430 0.23740 0.00420
C18 C 0.3169(3) 0.53246(17) 0.28154(14)
H21 H 0.27160 0.59430 0.20980
O12 O -0.4782(3) -0.01923(19) 0.37038(17)
H22 H -0.58920 -0.00120 0.35880
H23 H -0.43770 -0.05970 0.32860
O13 O 0.4619(3) -1.0638(2) 1.1193(3)
H24 H 0.44810 -0.98550 1.11540
H25 H 0.55960 -1.10820 1.15840
O3A O -0.1007(2) -0.81674(12) 0.64948(10)
O4A O 0.03187(17) -0.82360(11) 0.49797(10)
C1A C -0.0751(2) -0.53523(14) 0.42469(11)
H5A H -0.12500 -0.55910 0.37430
C2A C 0.0690(2) -0.59545(14) 0.60704(12)
O5A O 0.1023(2) -0.66890(13) 0.80293(10)
C3A C -0.0073(2) -0.63051(13) 0.53111(12)
O6A O 0.2519(2) -0.80537(13) 0.72816(11)
C4A C 0.1476(2) -0.69780(15) 0.72229(13)
C5A C -0.0247(2) -0.76892(14) 0.56312(12)
O1A O -0.12014(17) -0.04804(11) 0.65711(9)
H1A H -0.04670 -0.11220 0.71270
H2A H -0.14200 0.01880 0.67820
O2A O 0.24875(18) -0.10422(13) 0.57880(11)
H3A H 0.30530 -0.05780 0.60760
H4A H 0.25250 -0.17920 0.64560
Co1* Co 0.00000 -1.00000 0.50000
O4A* O 0.03187(17) 0.17640(11) 0.49797(10)
O7A O -0.11446(17) -1.14380(12) 0.99315(10)
H6A H -0.05250 -1.18790 0.95640
H7A H -0.11070 -1.20640 1.06010
O8A O 0.17648(18) -1.03388(13) 0.88366(11)
H8A H 0.17650 -0.95910 0.82880
O9A O -0.17771(17) -0.85277(12) 0.86735(10)
H9A H -0.13770 -0.84570 0.80270
H10A H -0.27460 -0.87550 0.86440
H11A H 0.172(4) -1.090(3) 0.860(3)
N1A N 0.69823(18) 0.59160(13) 0.68481(11)
O10A O 0.91046(19) 0.23942(12) 1.15274(10)
O11A O 0.7395(2) 0.33061(13) 1.25474(11)
C6A C 0.7393(2) 0.60471(15) 0.86950(13)
C7A C 0.8018(2) 0.33599(16) 1.16508(13)
C8A C 0.6225(2) 0.57303(17) 1.07765(14)
H12A H 0.58500 0.56340 1.14780
C9A C 0.8027(2) 0.48428(15) 0.96108(13)
H13A H 0.88570 0.41490 0.95230
C10A C 0.8082(2) 0.62351(18) 0.75767(13)
H14A H 0.92760 0.56700 0.76910
H15A H 0.81200 0.71490 0.71940
C11A C 0.6151(3) 0.70834(17) 0.88283(15)
H16A H 0.57070 0.78820 0.82150
C12A C 0.5363(2) 0.52093(15) 0.54030(12)
C13A C 0.6016(2) 0.43059(17) 0.64849(14)
H17A H 0.59010 0.34470 0.67360
C14A C 0.7425(2) 0.46709(15) 1.06545(12)
C15A C 0.6266(3) 0.68319(18) 0.58402(14)
H18A H 0.63230 0.77010 0.56290
C16A C 0.5443(3) 0.64999(18) 0.51114(15)
H19A H 0.49360 0.71500 0.44160
C17A C 0.5576(3) 0.69291(18) 0.98680(16)
H20A H 0.47570 0.76260 0.99580
C18A C 0.6831(3) 0.46754(17) 0.71846(14)
H21A H 0.72840 0.40570 0.79020
#END
