
#######################################################################
#
#                 Cambridge Crystallographic Data Centre
#                                CCDC
#
#######################################################################
#
# If this CIF has been generated from an entry in the Cambridge
# Structural Database, then it will include bibliographic, chemical,
# crystal, experimental, refinement or atomic coordinate data resulting
# from the CCDC's data processing and validation procedures.
#
#######################################################################

data_CSD_CIF_TUGCOQ
_audit_creation_date 2020-03-11
_audit_creation_method CSD-ConQuest-V1
_database_code_CSD TUGCOQ
_database_code_depnum_ccdc_archive 'CCDC 1967176'
_chemical_formula_sum 'C36 H50 N2 O26 Zn2'
_chemical_formula_moiety
;
C26 H20 N2 O4,n(C10 H10 O12 Zn1 2-),H12 O6 Zn1 2+,4(H2 O1)
;
_journal_coden_Cambridge 222
_journal_volume 49
_journal_year 2020
_journal_page_first 4044
_journal_name_full 'Dalton Trans. '
loop_
_publ_author_name
"Jinjian Liu"
"Yiwei Lu"
"Wenbo Lu"
_chemical_name_systematic
;
catena-[hexa-aqua-zinc 
3,3'-[[4,4'-bipyridin-1-ium]-1,1'-diylbis(methylene)]dibenzoate 
(\m-2,5-dicarboxylatebenzene-1,4-dicarboxylato)-tetra-aqua-zinc tetrahydrate]
;
_cell_volume   1038.215
_exptl_crystal_colour 'yellow'
_exptl_crystal_density_diffrn 1.691
_exptl_crystal_description 'block'
_diffrn_ambient_temperature 273.1
#These two values have been output from a single CSD field.
_refine_ls_R_factor_gt 0.0353
_refine_ls_wR_factor_gt 0.0353
_symmetry_cell_setting triclinic
_symmetry_space_group_name_H-M 'P -1'
_symmetry_Int_Tables_number 2
loop_
_symmetry_equiv_pos_site_id
_symmetry_equiv_pos_as_xyz
1 x,y,z
2 -x,-y,-z
_cell_length_a 7.9095(11)
_cell_length_b 11.3558(15)
_cell_length_c 13.0580(17)
_cell_angle_alpha 67.002(3)
_cell_angle_beta 89.013(3)
_cell_angle_gamma 75.004(3)
_cell_formula_units_Z 1
loop_
_atom_type_symbol
_atom_type_radius_bond
C 0.68
H 0.23
N 0.68
O 0.68
Zn 1.22
loop_
_atom_site_label
_atom_site_type_symbol
_atom_site_fract_x
_atom_site_fract_y
_atom_site_fract_z
Zn1 Zn 0.00000 0.00000 0.50000
O1 O 0.12049(19) 0.04889(13) 0.34146(11)
H1 H 0.04640 0.11260 0.28590
H2 H 0.14330 -0.01830 0.32060
O2 O -0.2501(2) 0.10513(14) 0.42231(12)
H3 H -0.29530 0.05810 0.39740
H4 H -0.24630 0.17340 0.36190
O3 O 0.1027(2) -0.18367(14) 0.35050(12)
O4 O -0.03245(19) -0.17519(13) 0.50076(11)
C1 C 0.0746(2) -0.46434(16) 0.57530(13)
H5 H 0.12410 -0.44020 0.62560
O5 O -0.1001(2) -0.33129(15) 0.19684(11)
C2 C 0.0075(2) -0.36921(15) 0.46857(13)
C3 C -0.0681(2) -0.40465(15) 0.39275(13)
O6 O -0.2495(2) -0.19394(15) 0.27063(13)
C4 C -0.1456(3) -0.30225(17) 0.27719(14)
C5 C 0.0252(2) -0.23067(16) 0.43629(14)
Zn2 Zn 0.00000 -1.00000 1.00000
O7 O -0.17933(19) -0.85055(14) 0.86748(11)
H6 H -0.27780 -0.87210 0.86350
H7 H -0.13950 -0.84290 0.80240
O8 O 0.11697(19) -0.85705(13) 1.00738(11)
H8 H 0.05600 -0.81260 1.04400
H9 H 0.11360 -0.79490 0.94070
O9 O -0.17506(19) -0.96525(14) 1.11552(12)
H10 H -0.15550 -1.03530 1.17730
H11 H -0.28170 -0.95440 1.09190
N1 N 0.30249(19) 0.40750(15) 0.31553(12)
O10 O 0.0902(2) 0.76105(14) -0.15189(12)
O11 O 0.2584(2) 0.66939(15) -0.25463(12)
C6 C 0.2612(2) 0.39473(17) 0.13078(14)
C7 C 0.3776(3) 0.42694(19) -0.07732(16)
H12 H 0.41490 0.43660 -0.14740
C8 C 0.1928(3) 0.3756(2) 0.24237(15)
H13 H 0.18930 0.28390 0.28040
H14 H 0.07350 0.43190 0.23100
C9 C 0.1976(2) 0.51530(17) 0.03920(14)
H15 H 0.11430 0.58460 0.04790
C10 C 0.1976(2) 0.66422(17) -0.16486(15)
C11 C 0.3859(3) 0.29118(18) 0.11754(16)
H16 H 0.43080 0.21130 0.17880
C12 C 0.2576(2) 0.53275(17) -0.06512(14)
C13 C 0.4638(2) 0.47899(17) 0.45985(13)
C14 C 0.3179(3) 0.53194(19) 0.28158(15)
H17 H 0.27270 0.59370 0.20990
C15 C 0.3994(3) 0.56926(19) 0.35124(15)
H18 H 0.41170 0.65510 0.32580
C16 C 0.3731(3) 0.3163(2) 0.41646(16)
H19 H 0.36690 0.22930 0.43780
C17 C 0.4429(3) 0.3069(2) 0.01360(18)
H20 H 0.52480 0.23730 0.00460
C18 C 0.4551(3) 0.3496(2) 0.48944(17)
H21 H 0.50500 0.28470 0.55910
O12 O 0.5239(3) 0.9806(2) 0.36925(19)
H22 H 0.41260 0.99770 0.36230
H23 H 0.56840 0.93360 0.33330
O13 O -0.4619(3) -0.9368(3) 0.8808(3)
H24 H -0.56180 -0.88880 0.84620
H25 H -0.43140 -1.00600 0.86670
O3A O -0.1027(2) -0.81633(14) 0.64950(12)
O4A O 0.03245(19) -0.82481(13) 0.49924(11)
C1A C -0.0746(2) -0.53566(16) 0.42470(13)
H5A H -0.12410 -0.55980 0.37440
O5A O 0.1001(2) -0.66871(15) 0.80316(11)
C2A C -0.0075(2) -0.63079(15) 0.53143(13)
C3A C 0.0681(2) -0.59535(15) 0.60725(13)
O6A O 0.2495(2) -0.80606(15) 0.72937(13)
C4A C 0.1456(3) -0.69775(17) 0.72281(14)
C5A C -0.0252(2) -0.76933(16) 0.56371(14)
O1A O -0.12049(19) -0.04889(13) 0.65854(11)
H1A H -0.04640 -0.11260 0.71410
H2A H -0.14330 0.01830 0.67940
O2A O 0.2501(2) -0.10513(14) 0.57769(12)
H3A H 0.29530 -0.05810 0.60260
H4A H 0.24630 -0.17340 0.63810
Zn1* Zn 0.00000 -1.00000 0.50000
O4A* O 0.03245(19) 0.17519(13) 0.49924(11)
O7A O 0.17933(19) -1.14945(14) 1.13252(11)
H6A H 0.27780 -1.12790 1.13650
H7A H 0.13950 -1.15710 1.19760
O8A O -0.11697(19) -1.14295(13) 0.99262(11)
H8A H -0.05600 -1.18740 0.95600
H9A H -0.11360 -1.20510 1.05930
O9A O 0.17506(19) -1.03475(14) 0.88448(12)
H10A H 0.15550 -0.96470 0.82270
H11A H 0.28170 -1.04560 0.90810
N1A N 0.69751(19) 0.59250(15) 0.68447(12)
O10A O 0.9098(2) 0.23895(14) 1.15189(12)
O11A O 0.7416(2) 0.33061(15) 1.25463(12)
C6A C 0.7388(2) 0.60527(17) 0.86922(14)
C7A C 0.6224(3) 0.57306(19) 1.07732(16)
H12A H 0.58510 0.56340 1.14740
C8A C 0.8072(3) 0.6244(2) 0.75763(15)
H13A H 0.81070 0.71610 0.71960
H14A H 0.92650 0.56810 0.76900
C9A C 0.8024(2) 0.48470(17) 0.96080(14)
H15A H 0.88570 0.41540 0.95210
C10A C 0.8024(2) 0.33578(17) 1.16486(15)
C11A C 0.6141(3) 0.70882(18) 0.88246(16)
H16A H 0.56920 0.78870 0.82120
C12A C 0.7424(2) 0.46725(17) 1.06512(14)
C13A C 0.5362(2) 0.52101(17) 0.54015(13)
C14A C 0.6821(3) 0.46806(19) 0.71842(15)
H17A H 0.72730 0.40630 0.79010
C15A C 0.6006(3) 0.43074(19) 0.64876(15)
H18A H 0.58830 0.34490 0.67420
C16A C 0.6269(3) 0.6837(2) 0.58354(16)
H19A H 0.63310 0.77070 0.56220
C17A C 0.5571(3) 0.6931(2) 0.98640(18)
H20A H 0.47520 0.76270 0.99540
C18A C 0.5449(3) 0.6504(2) 0.51056(17)
H21A H 0.49500 0.71530 0.44090
#END
