
#######################################################################
#
#                 Cambridge Crystallographic Data Centre
#                                CCDC
#
#######################################################################
#
# If this CIF has been generated from an entry in the Cambridge
# Structural Database, then it will include bibliographic, chemical,
# crystal, experimental, refinement or atomic coordinate data resulting
# from the CCDC's data processing and validation procedures.
#
#######################################################################

data_CSD_CIF_TUGDEH
_audit_creation_date 2020-03-11
_audit_creation_method CSD-ConQuest-V1
_database_code_CSD TUGDEH
_database_code_depnum_ccdc_archive 'CCDC 1890230'
_chemical_formula_sum 'C54 H66 In1 N15 O18'
_chemical_formula_moiety
;
(C48 H30 In1 N12 O12 3-)n,3(C2 H8 N1 1+),6(H2 O1)
;
_journal_coden_Cambridge 82
_journal_volume 60
_journal_year 2019
_journal_page_first 1850
_journal_name_full 'Zh.Strukt.Khim.(Russ.)(J.Struct.Chem.) '
loop_
_publ_author_name
"X.-T.Xin"
"X.-K.Wang"
_chemical_name_systematic
;
catena-[tris(dimethylammonium) 
bis(\m-4,4',4''-(1,3,5-triazine-2,4,6-triyltriazanediyl)tribenzoato)-indium 
hexahydrate]
;
_cell_volume   9321.347
_exptl_crystal_colour 'colorless'
_exptl_crystal_density_diffrn 0.771
_exptl_crystal_description 'plate'
_diffrn_ambient_temperature 287.8
_refine_special_details
;
The SQUEEZE/PLATON program has been used to model some disordered counterions 
and solvent molecules.
;
#These two values have been output from a single CSD field.
_refine_ls_R_factor_gt 0.042
_refine_ls_wR_factor_gt 0.042
_symmetry_cell_setting monoclinic
_symmetry_space_group_name_H-M 'C 2/c'
_symmetry_Int_Tables_number 15
loop_
_symmetry_equiv_pos_site_id
_symmetry_equiv_pos_as_xyz
1 x,y,z
2 -x,y,1/2-z
3 1/2+x,1/2+y,z
4 1/2-x,1/2+y,1/2-z
5 -x,-y,-z
6 x,-y,-1/2+z
7 -1/2-x,-1/2-y,-z
8 -1/2+x,-1/2-y,-1/2+z
_cell_length_a 28.5747(8)
_cell_length_b 24.1316(6)
_cell_length_c 13.7602(3)
_cell_angle_alpha 90
_cell_angle_beta 100.767(2)
_cell_angle_gamma 90
_cell_formula_units_Z 4
loop_
_atom_type_symbol
_atom_type_radius_bond
C 0.68
H 0.23
In 1.42
N 0.68
O 0.68
loop_
_atom_site_label
_atom_site_type_symbol
_atom_site_fract_x
_atom_site_fract_y
_atom_site_fract_z
In1 In 1.00000 0.84815(2) 0.75000
O1 O 0.94076(7) 0.81146(8) 0.64316(16)
O2 O 0.95091(7) 0.77862(10) 0.79145(16)
O3 O 0.51096(6) 0.38696(8) 0.60367(13)
O4 O 0.55346(6) 0.41863(8) 0.73953(13)
C1 C 0.92796(9) 0.77909(12) 0.7058(2)
C2 C 0.54249(8) 0.41959(10) 0.64695(17)
C3 C 0.88559(9) 0.74336(12) 0.6733(2)
C4 C 0.56597(8) 0.45891(10) 0.58835(17)
C5 C 0.85930(11) 0.74857(14) 0.5787(2)
C6 C 0.87000(12) 0.70755(16) 0.7383(3)
C7 C 0.60482(10) 0.49061(13) 0.63042(19)
C8 C 0.54857(9) 0.46494(11) 0.48779(19)
H1 H 0.86889 0.77413 0.53579
C9 C 0.81902(11) 0.71677(15) 0.5460(3)
H2 H 0.88592 0.70557 0.80360
C10 C 0.83007(13) 0.67406(18) 0.7058(3)
H3 H 0.61666 0.48736 0.69788
C11 C 0.62675(10) 0.52725(14) 0.5748(2)
C12 C 0.56889(9) 0.50138(12) 0.43177(19)
H4 H 0.52261 0.44382 0.45792
C13 C 0.80417(11) 0.67878(14) 0.6099(2)
H5 H 0.80207 0.72082 0.48174
H6 H 0.82077 0.64835 0.74879
C14 C 0.60825(8) 0.53318(11) 0.47420(19)
H7 H 0.65334 0.54746 0.60435
H8 H 0.55635 0.50501 0.36467
N1 N 0.76319(11) 0.64625(13) 0.5862(2)
N2 N 0.62572(8) 0.56826(10) 0.40896(17)
H9 H 0.75583 0.62811 0.63503
C15 C 0.73296(11) 0.63868(14) 0.4978(2)
C16 C 0.66538(9) 0.60086(11) 0.4186(2)
H10 H 0.60802 0.56967 0.35114
N3 N 0.69472(8) 0.60614(11) 0.50473(18)
N4 N 0.74212(9) 0.66289(12) 0.4173(2)
N5 N 0.66948(8) 0.62429(10) 0.33100(17)
C17 C 0.70814(11) 0.65559(12) 0.3364(2)
N6 N 0.71688(9) 0.68217(12) 0.2540(2)
H11 H 0.74457 0.69718 0.26006
C18 C 0.68716(12) 0.68874(15) 0.1600(2)
C19 C 0.64385(13) 0.66374(17) 0.1305(3)
C20 C 0.70367(16) 0.7236(2) 0.0935(3)
H12 H 0.63227 0.63961 0.17315
C21 C 0.61741(14) 0.6741(2) 0.0383(3)
H13 H 0.73338 0.74030 0.11122
C22 C 0.67632(16) 0.7337(2) 0.0013(3)
H14 H 0.58808 0.65662 0.01979
C23 C 0.63289(14) 0.7095(2) -0.0276(3)
H15 H 0.68782 0.75747 -0.04192
C24 C 0.60178(19) 0.7200(3) -0.1285(3)
O5 O 0.56082(13) 0.6998(3) -0.1469(3)
O6 O 0.61909(15) 0.7484(3) -0.1888(3)
O1A O 1.05924(7) 0.81146(8) 0.85684(16)
O2A O 1.04909(7) 0.77862(10) 0.70855(16)
O3A O 1.48904(6) 0.38696(8) 0.89633(13)
O4A O 1.44654(6) 0.41863(8) 0.76047(13)
C1A C 1.07204(9) 0.77909(12) 0.7942(2)
C2A C 1.45751(8) 0.41959(10) 0.85305(17)
C3A C 1.11441(9) 0.74336(12) 0.8267(2)
C4A C 1.43403(8) 0.45891(10) 0.91165(17)
C5A C 1.14070(11) 0.74857(14) 0.9213(2)
C6A C 1.13000(12) 0.70755(16) 0.7617(3)
C7A C 1.39518(10) 0.49061(13) 0.86958(19)
C8A C 1.45143(9) 0.46494(11) 1.01221(19)
H1A H 1.13111 0.77413 0.96421
C9A C 1.18098(11) 0.71677(15) 0.9540(3)
H2A H 1.11408 0.70557 0.69640
C10A C 1.16993(13) 0.67406(18) 0.7942(3)
H3A H 1.38334 0.48736 0.80212
C11A C 1.37325(10) 0.52725(14) 0.9252(2)
C12A C 1.43111(9) 0.50138(12) 1.06823(19)
H4A H 1.47739 0.44382 1.04208
C13A C 1.19583(11) 0.67878(14) 0.8901(2)
H5A H 1.19793 0.72082 1.01826
H6A H 1.17923 0.64835 0.75121
C14A C 1.39175(8) 0.53318(11) 1.02580(19)
H7A H 1.34666 0.54746 0.89565
H8A H 1.44365 0.50501 1.13533
N1A N 1.23681(11) 0.64625(13) 0.9138(2)
N2A N 1.37428(8) 0.56826(10) 1.09104(17)
H9A H 1.24417 0.62811 0.86497
C15A C 1.26704(11) 0.63868(14) 1.0022(2)
C16A C 1.33462(9) 0.60086(11) 1.0814(2)
H10A H 1.39198 0.56967 1.14885
N3A N 1.30528(8) 0.60614(11) 0.99527(18)
N4A N 1.25788(9) 0.66289(12) 1.0827(2)
N5A N 1.33052(8) 0.62429(10) 1.16900(17)
C17A C 1.29186(11) 0.65559(12) 1.1636(2)
N6A N 1.28312(9) 0.68217(12) 1.2460(2)
H11A H 1.25543 0.69718 1.23994
C18A C 1.31284(12) 0.68874(15) 1.3400(2)
C19A C 1.35615(13) 0.66374(17) 1.3695(3)
C20A C 1.29633(16) 0.7236(2) 1.4065(3)
H12A H 1.36773 0.63961 1.32685
C21A C 1.38259(14) 0.6741(2) 1.4617(3)
H13A H 1.26662 0.74030 1.38878
C22A C 1.32368(16) 0.7337(2) 1.4987(3)
H14A H 1.41192 0.65662 1.48021
C23A C 1.36711(14) 0.7095(2) 1.5276(3)
H15A H 1.31218 0.75747 1.54192
C24A C 1.39822(19) 0.7200(3) 1.6285(3)
O5A O 1.43918(13) 0.6998(3) 1.6469(3)
O6A O 1.38091(15) 0.7484(3) 1.6888(3)
In1B In 0.50000 0.34815(2) 0.75000
In1B* In 1.50000 0.34815(2) 0.75000
O3B O 1.01096(6) 0.88696(8) 0.60367(13)
O3C O 0.98904(6) 0.88696(8) 0.89633(13)
O4B O 1.05346(6) 0.91863(8) 0.73953(13)
O4C O 0.94654(6) 0.91863(8) 0.76047(13)
#END
