
#######################################################################
#
#                 Cambridge Crystallographic Data Centre
#                                CCDC
#
#######################################################################
#
# If this CIF has been generated from an entry in the Cambridge
# Structural Database, then it will include bibliographic, chemical,
# crystal, experimental, refinement or atomic coordinate data resulting
# from the CCDC's data processing and validation procedures.
#
#######################################################################

data_CSD_CIF_TUGHOV
_audit_creation_date 2020-03-11
_audit_creation_method CSD-ConQuest-V1
_database_code_CSD TUGHOV
_database_code_depnum_ccdc_archive 'CCDC 1964646'
_chemical_formula_sum 'C108 H112 N6 O44 S12 Zn3'
_chemical_formula_moiety
;
(C84 H40 N6 O32 Zn2 2-)n,C12 H36 O6 S6 Zn1 2+,6(C2 H6 O1 S1)
;
_journal_coden_Cambridge 1350
_journal_volume 22
_journal_year 2020
_journal_page_first 2283
_journal_name_full 'CrystEngComm '
loop_
_publ_author_name
"Hua Ke"
"Qi-Hua Chen"
"Jian-Zhen Liao"
"Can-Zhong Lu"
_chemical_name_systematic
;
catena-[hexakis(dimethyl sulfoxide)-zinc(ii) 
tris(\m-3,3'-(1,3,6,8-tetraoxo-1,3,6,8-tetrahydrobenzo[lmn][3,8]phenanthroline
-2,7-diyl)bis(6-hydroxybenzoato))-diaqua-di-zinc(ii) dimethyl sulfoxide 
solvate]
;
_cell_volume   2913.589
_exptl_crystal_colour 'colorless'
_exptl_crystal_density_diffrn 1.584
_exptl_crystal_description 'block'
_diffrn_ambient_temperature 100
_refine_special_details
;
C47,C48,O19,S3 and C47A,C48A,O19A,S3A disordered over two sites with 
occupancies 0.876:0.124; C51,C52,O21,S5 and C51A,C52A,O21A,S5A disordered 
over two sites with occupancies 0.752:0.248.
;
#These two values have been output from a single CSD field.
_refine_ls_R_factor_gt 0.0591
_refine_ls_wR_factor_gt 0.0591
_symmetry_cell_setting triclinic
_symmetry_space_group_name_H-M 'P -1'
_symmetry_Int_Tables_number 2
loop_
_symmetry_equiv_pos_site_id
_symmetry_equiv_pos_as_xyz
1 x,y,z
2 -x,-y,-z
_cell_length_a 12.7067(6)
_cell_length_b 13.0794(4)
_cell_length_c 21.0583(8)
_cell_angle_alpha 88.535(3)
_cell_angle_beta 73.381(4)
_cell_angle_gamma 61.238(4)
_cell_formula_units_Z 1
loop_
_atom_type_symbol
_atom_type_radius_bond
C 0.68
H 0.23
N 0.68
O 0.68
S 1.02
Zn 1.22
loop_
_atom_site_label
_atom_site_type_symbol
_atom_site_fract_x
_atom_site_fract_y
_atom_site_fract_z
Zn1 Zn 0.27097(4) 0.36388(4) 0.12137(2)
O1 O 0.2780(3) 0.2255(2) 0.16213(12)
O2 O 0.4228(3) 0.0982(2) 0.07190(13)
O3 O 0.4790(3) -0.1156(2) 0.06607(13)
O4 O 0.3311(3) -0.0127(3) 0.37371(13)
O5 O 0.0369(3) -0.0225(3) 0.29539(13)
O6 O 0.1006(3) 0.4832(2) 0.11741(13)
O7 O 0.0823(3) 0.5007(3) 0.22489(14)
O8 O -0.0898(3) 0.6151(3) 0.07568(13)
H1 H -0.01756 0.56373 0.07257
O9 O -0.3214(3) 1.0008(3) 0.29919(14)
O10 O -0.3815(3) 0.6974(2) 0.37244(13)
O11 O 0.3703(3) 0.4086(2) 0.15818(13)
O12 O 0.4420(3) 0.4721(3) 0.06515(13)
O13 O 0.6266(3) 0.5091(2) 0.05295(12)
O14 O 0.7006(3) 0.3185(2) 0.30609(13)
O15 O 0.3545(3) 0.6835(2) 0.35147(13)
O16 O 0.3380(3) 0.3232(2) 0.02081(12)
H2 H 0.40586 0.25532 0.00923
H3 H 0.35575 0.37521 0.00257
N1 N 0.1893(3) -0.0288(3) 0.33427(14)
N2 N -0.3527(3) 0.8501(3) 0.33575(15)
N3 N 0.5361(3) 0.5060(3) 0.32803(14)
C1 C 0.3504(4) 0.1219(3) 0.13111(17)
C2 C 0.3466(3) 0.0228(3) 0.16700(17)
C3 C 0.4106(4) -0.0918(3) 0.13201(17)
C4 C 0.4038(4) -0.1833(3) 0.16431(18)
H4 H 0.44655 -0.25871 0.14104
C5 C 0.3334(4) -0.1625(3) 0.23127(18)
H5 H 0.32954 -0.22397 0.25299
C6 C 0.2688(3) -0.0496(3) 0.26570(17)
C7 C 0.2754(3) 0.0428(3) 0.23467(17)
H6 H 0.23289 0.11765 0.25856
C8 C 0.2314(3) -0.0127(3) 0.38605(17)
C9 C 0.1497(3) 0.0002(3) 0.45561(17)
C10 C 0.0365(3) -0.0031(3) 0.46686(17)
C11 C -0.0060(3) -0.0107(3) 0.41298(17)
C12 C 0.0718(3) -0.0195(3) 0.34322(17)
C13 C -0.1164(4) -0.0153(3) 0.42497(18)
H7 H -0.14369 -0.02135 0.38942
C14 C -0.1875(3) -0.0108(3) 0.49073(18)
H8 H -0.26096 -0.01504 0.49824
C15 C 0.0371(4) 0.5343(3) 0.17867(19)
C16 C -0.0939(3) 0.6346(3) 0.19056(18)
C17 C -0.1512(4) 0.6695(3) 0.13971(18)
C18 C -0.2756(4) 0.7607(3) 0.15465(18)
H9 H -0.31313 0.78275 0.12096
C19 C -0.3441(4) 0.8192(3) 0.21923(19)
H10 H -0.42773 0.87885 0.22927
C20 C -0.2855(4) 0.7869(3) 0.26868(18)
C21 C -0.1633(4) 0.6959(3) 0.25523(18)
H11 H -0.12664 0.67491 0.28929
C22 C -0.3942(3) 0.7927(3) 0.38581(18)
C23 C -0.4541(3) 0.8563(3) 0.45491(18)
C24 C -0.4702(3) 0.9696(3) 0.46707(18)
C25 C -0.4272(3) 1.0234(3) 0.41464(18)
C26 C -0.3628(4) 0.9599(3) 0.34544(18)
C27 C -0.4436(4) 1.1339(3) 0.42746(18)
H12 H -0.41396 1.16828 0.39284
C28 C -0.5051(4) 1.1946(3) 0.49282(19)
H13 H -0.51835 1.27018 0.50079
C29 C 0.4359(3) 0.4514(3) 0.12409(18)
C30 C 0.5104(3) 0.4790(3) 0.15756(17)
C31 C 0.6032(3) 0.5047(3) 0.11997(17)
C32 C 0.6734(4) 0.5297(3) 0.15049(17)
H14 H 0.73674 0.54404 0.12489
C33 C 0.6486(4) 0.5332(3) 0.21946(18)
H15 H 0.69313 0.55256 0.24042
C34 C 0.5566(4) 0.5074(3) 0.25677(17)
C35 C 0.4889(3) 0.4794(3) 0.22674(17)
H16 H 0.42900 0.46078 0.25231
C36 C 0.6186(3) 0.4022(3) 0.34754(18)
C37 C 0.6037(3) 0.4011(3) 0.41958(17)
C38 C 0.5055(3) 0.5001(3) 0.46557(17)
C39 C 0.4176(4) 0.5995(3) 0.44441(17)
C40 C 0.4299(4) 0.6023(3) 0.37181(17)
C41 C 0.3226(3) 0.6952(3) 0.48994(18)
H17 H 0.26503 0.76022 0.47551
C42 C 0.6880(4) 0.3047(3) 0.44166(18)
H18 H 0.75209 0.23939 0.41117
H19 H 0.473(7) -0.040(6) 0.055(3)
H20 H 0.567(7) 0.501(6) 0.038(3)
Zn2 Zn 1.00000 0.00000 0.00000
S1 S 0.78510(9) 0.04296(8) 0.13775(5)
S2 S 1.13855(12) -0.24794(10) 0.06941(6)
O17 O 0.8204(3) 0.0819(3) 0.06983(14)
O18 O 1.0384(3) -0.1554(3) 0.04288(16)
C43 C 0.6168(5) 0.1165(6) 0.1638(3)
H21 H 0.58403 0.20002 0.16886
H22 H 0.58634 0.09372 0.20580
H23 H 0.58939 0.09527 0.13084
C44 C 0.8042(8) 0.1262(6) 0.1944(2)
H24 H 0.89229 0.10116 0.18456
H25 H 0.77159 0.11421 0.23932
H26 H 0.75899 0.20817 0.18995
C45 C 1.1013(7) -0.1967(8) 0.1547(3)
H27 H 1.10916 -0.12763 0.15733
H28 H 1.15838 -0.25692 0.17428
H29 H 1.01615 -0.17784 0.17853
C46 C 1.2813(5) -0.2413(4) 0.0366(2)
H30 H 1.30768 -0.25383 -0.01136
H31 H 1.34615 -0.30119 0.05225
H32 H 1.26662 -0.16541 0.05136
S3 S 1.11304(11) 0.13341(10) 0.07652(5)
O19 O 1.0697(3) 0.0462(3) 0.06853(15)
C47 C 1.2107(5) 0.1313(5) -0.0040(3)
H33 H 1.28718 0.05658 -0.01690
H34 H 1.23108 0.19282 -0.00243
H35 H 1.16653 0.14340 -0.03605
C48 C 0.9822(5) 0.2774(4) 0.0835(3)
H36 H 0.95705 0.28512 0.04399
H37 H 1.00638 0.33511 0.08843
H38 H 0.91280 0.28918 0.12188
S4? S 1.0718(9) 0.1942(7) 0.0096(4)
O20? O 0.985(2) 0.1432(19) 0.0446(11)
C49? C 1.213(3) 0.108(3) 0.031(2)
H39? H 1.23002 0.15921 0.05320
H40? H 1.28222 0.06520 -0.00879
H41? H 1.20242 0.05413 0.06041
C50? C 1.009(4) 0.326(2) 0.0643(17)
H42? H 0.98056 0.31390 0.10970
H43? H 0.93897 0.38871 0.05315
H44? H 1.07327 0.34726 0.05939
S5 S 0.99126(10) 0.34878(9) 0.60270(5)
O21 O 1.1236(3) 0.2517(3) 0.59429(16)
C51 C 0.9338(4) 0.3113(4) 0.5431(2)
H45 H 0.98707 0.30341 0.49859
H46 H 0.84896 0.37225 0.54807
H47 H 0.93481 0.23822 0.55084
C52 C 0.8897(5) 0.3304(4) 0.6763(2)
H48 H 0.91457 0.24856 0.67636
H49 H 0.80377 0.37408 0.67606
H50 H 0.89685 0.35895 0.71553
S6 S 0.0545(1) 0.70021(10) 0.65137(5)
O22 O -0.0685(3) 0.7600(3) 0.63656(16)
C53 C 0.1148(5) 0.5450(4) 0.6348(3)
H51 H 0.05435 0.52493 0.66199
H52 H 0.19262 0.50292 0.64515
H53 H 0.12965 0.52418 0.58846
C54 C 0.0200(5) 0.7101(5) 0.7405(2)
H54 H -0.01002 0.78928 0.75863
H55 H 0.09522 0.65758 0.75125
H56 H -0.04383 0.68863 0.75927
S7 S 0.65328(13) 0.68452(12) 0.63183(7)
O23 O 0.6612(7) 0.5695(7) 0.6162(5)
C55 C 0.773(2) 0.6884(19) 0.5631(7)
H57 H 0.85138 0.61577 0.55558
H58 H 0.78498 0.75263 0.57347
H59 H 0.74795 0.69892 0.52358
C56 C 0.7222(8) 0.6717(7) 0.6961(3)
H60 H 0.66759 0.66905 0.73758
H61 H 0.73370 0.73824 0.70035
H62 H 0.80263 0.60075 0.68498
S8? S 0.7313(4) 0.6150(4) 0.6265(2)
O24? O 0.626(3) 0.603(3) 0.615(2)
C57? C 0.781(8) 0.699(7) 0.570(3)
H63? H 0.79566 0.67086 0.52462
H64? H 0.85818 0.69120 0.57371
H65? H 0.71694 0.78058 0.58002
C58? C 0.658(2) 0.7325(17) 0.6933(8)
H66? H 0.59302 0.80122 0.68251
H67? H 0.72003 0.74957 0.69950
H68? H 0.62115 0.70986 0.73363
O1A O -0.2780(3) -0.2255(2) 0.83787(12)
O2A O -0.4228(3) -0.0982(2) 0.92810(13)
O3A O -0.4790(3) 0.1156(2) 0.93393(13)
O4A O -0.3311(3) 0.0127(3) 0.62629(13)
O5A O -0.0369(3) 0.0225(3) 0.70461(13)
N1A N -0.1893(3) 0.0288(3) 0.66573(14)
C1A C -0.3504(4) -0.1219(3) 0.86889(17)
C2A C -0.3466(3) -0.0228(3) 0.83300(17)
C3A C -0.4106(4) 0.0918(3) 0.86799(17)
C4A C -0.4038(4) 0.1833(3) 0.83569(18)
H4A H -0.44655 0.25871 0.85896
C5A C -0.3334(4) 0.1625(3) 0.76873(18)
H5A H -0.32954 0.22397 0.74701
C6A C -0.2688(3) 0.0496(3) 0.73430(17)
C7A C -0.2754(3) -0.0428(3) 0.76533(17)
H6A H -0.23289 -0.11765 0.74144
C8A C -0.2314(3) 0.0127(3) 0.61395(17)
C9A C -0.1497(3) -0.0002(3) 0.54439(17)
C10A C -0.0365(3) 0.0031(3) 0.53314(17)
C11A C 0.0060(3) 0.0107(3) 0.58702(17)
C12A C -0.0718(3) 0.0195(3) 0.65678(17)
C13A C 0.1164(4) 0.0153(3) 0.57503(18)
H7A H 0.14369 0.02135 0.61058
C14A C 0.1875(3) 0.0108(3) 0.50927(18)
H8A H 0.26096 0.01504 0.50176
H19A H -0.473(7) 0.040(6) 0.945(3)
O6A O -1.1006(3) 1.5168(2) 0.88259(13)
O7A O -1.0823(3) 1.4993(3) 0.77511(14)
O8A O -0.9102(3) 1.3849(3) 0.92432(13)
H1A H -0.98244 1.43627 0.92743
O9A O -0.6786(3) 0.9992(3) 0.70081(14)
O10A O -0.6185(3) 1.3026(2) 0.62756(13)
N2A N -0.6473(3) 1.1499(3) 0.66425(15)
C15A C -1.0371(4) 1.4657(3) 0.82133(19)
C16A C -0.9061(3) 1.3654(3) 0.80944(18)
C17A C -0.8488(4) 1.3305(3) 0.86029(18)
C18A C -0.7244(4) 1.2393(3) 0.84535(18)
H9A H -0.68687 1.21725 0.87904
C19A C -0.6559(4) 1.1808(3) 0.78077(19)
H10A H -0.57227 1.12115 0.77073
C20A C -0.7145(4) 1.2131(3) 0.73132(18)
C21A C -0.8367(4) 1.3041(3) 0.74477(18)
H11A H -0.87336 1.32509 0.71071
C22A C -0.6058(3) 1.2073(3) 0.61419(18)
C23A C -0.5459(3) 1.1437(3) 0.54509(18)
C24A C -0.5298(3) 1.0304(3) 0.53293(18)
C25A C -0.5728(3) 0.9766(3) 0.58536(18)
C26A C -0.6372(4) 1.0401(3) 0.65456(18)
C27A C -0.5564(4) 0.8661(3) 0.57254(18)
H12A H -0.58604 0.83172 0.60716
C28A C -0.4949(4) 0.8054(3) 0.50718(19)
H13A H -0.48165 0.72982 0.49921
O11A O 0.6297(3) 0.5914(2) 0.84182(13)
O12A O 0.5580(3) 0.5279(3) 0.93485(13)
O13A O 0.3734(3) 0.4909(2) 0.94705(12)
O14A O 0.2994(3) 0.6815(2) 0.69391(13)
O15A O 0.6455(3) 0.3165(2) 0.64853(13)
N3A N 0.4639(3) 0.4940(3) 0.67197(14)
C29A C 0.5641(3) 0.5486(3) 0.87591(18)
C30A C 0.4896(3) 0.5210(3) 0.84244(17)
C31A C 0.3968(3) 0.4953(3) 0.88003(17)
C32A C 0.3266(4) 0.4703(3) 0.84951(17)
H14A H 0.26326 0.45596 0.87511
C33A C 0.3514(4) 0.4668(3) 0.78054(18)
H15A H 0.30687 0.44744 0.75958
C34A C 0.4434(4) 0.4926(3) 0.74323(17)
C35A C 0.5111(3) 0.5206(3) 0.77326(17)
H16A H 0.57100 0.53922 0.74769
C36A C 0.3814(3) 0.5978(3) 0.65246(18)
C37A C 0.3963(3) 0.5989(3) 0.58042(17)
C38A C 0.4945(3) 0.4999(3) 0.53443(17)
C39A C 0.5824(4) 0.4005(3) 0.55559(17)
C40A C 0.5701(4) 0.3977(3) 0.62819(17)
C41A C 0.6774(3) 0.3048(3) 0.51006(18)
H17A H 0.73497 0.23978 0.52449
C42A C 0.3120(4) 0.6953(3) 0.55834(18)
H18A H 0.24791 0.76061 0.58883
H20A H 0.433(7) 0.499(6) 0.962(3)
Zn1A Zn -1.27097(4) 1.63612(4) 0.87863(2)
O16A O -1.3380(3) 1.6768(2) 0.97919(12)
H2A H -1.40586 1.74469 0.99077
H3A H -1.35575 1.62479 0.99743
Zn1A* Zn -0.27097(4) -0.36388(4) 0.87863(2)
Zn1A** Zn 0.72903(4) 0.63612(4) 0.87863(2)
O1A* O -1.2780(3) 1.7745(2) 0.83787(12)
O11A* O -1.3703(3) 1.5914(2) 0.84182(13)
S1A S 1.21490(9) -0.04296(8) -0.13775(5)
S2A S 0.86145(12) 0.24794(10) -0.06941(6)
O17A O 1.1796(3) -0.0819(3) -0.06983(14)
O18A O 0.9616(3) 0.1554(3) -0.04288(16)
C43A C 1.3832(5) -0.1165(6) -0.1638(3)
H21A H 1.41597 -0.20002 -0.16886
H22A H 1.41366 -0.09372 -0.20580
H23A H 1.41061 -0.09527 -0.13084
C44A C 1.1958(8) -0.1262(6) -0.1944(2)
H24A H 1.10771 -0.10116 -0.18456
H25A H 1.22841 -0.11421 -0.23932
H26A H 1.24101 -0.20817 -0.18995
C45A C 0.8987(7) 0.1967(8) -0.1547(3)
H27A H 0.89084 0.12763 -0.15733
H28A H 0.84162 0.25692 -0.17428
H29A H 0.98385 0.17784 -0.17853
C46A C 0.7187(5) 0.2413(4) -0.0366(2)
H30A H 0.69232 0.25383 0.01136
H31A H 0.65385 0.30119 -0.05225
H32A H 0.73338 0.16541 -0.05136
S3A S 0.88696(11) -0.13341(10) -0.07652(5)
O19A O 0.9303(3) -0.0462(3) -0.06853(15)
C47A C 0.7893(5) -0.1313(5) 0.0040(3)
H33A H 0.71282 -0.05658 0.01690
H34A H 0.76892 -0.19282 0.00243
H35A H 0.83347 -0.14340 0.03605
C48A C 1.0178(5) -0.2774(4) -0.0835(3)
H36A H 1.04295 -0.28512 -0.04399
H37A H 0.99362 -0.33511 -0.08843
H38A H 1.08720 -0.28918 -0.12188
#END
