
#######################################################################
#
#                 Cambridge Crystallographic Data Centre
#                                CCDC
#
#######################################################################
#
# If this CIF has been generated from an entry in the Cambridge
# Structural Database, then it will include bibliographic, chemical,
# crystal, experimental, refinement or atomic coordinate data resulting
# from the CCDC's data processing and validation procedures.
#
#######################################################################

data_CSD_CIF_TUJVEA
_audit_creation_date 2010-06-03
_audit_creation_method CSD-ConQuest-V1
_database_code_CSD TUJVEA
_database_code_depnum_ccdc_archive 'CCDC 645453'
_chemical_formula_sum 'C34 H46 Co4 N1 O31 S9'
_chemical_formula_moiety
;
(C24 H12 Co4 O22 S9 1-)n,n(C10 H16 N1 1+),9n(H2 O1)
;
_journal_coden_Cambridge 29
_journal_volume 635
_journal_year 2009
_journal_page_first 1669
_journal_name_full 'Z.Anorg.Allg.Chem. '
loop_
_publ_author_name
"Baiquan Chen"
"Daqiang Yuan"
"Mingyan Wu"
"Feilong Jiang"
"Maochun Hong"
_chemical_name_systematic
;
catena-(Benzyltrimethylammonium 
(\m~10~-5,11,17,23-tetrasulfonatocalix(4)arene-25,26,27,28-tetrolato)-(\m~4~-s
ulfato)-diaqua-tetra-cobalt nonahydrate)
;
_cell_volume   2609.385
_exptl_crystal_colour 'red'
_exptl_crystal_density_diffrn 1.896
_exptl_special_details
;
isomorphous with the diaqua/copper 7.75hydrate analogue

;
_exptl_crystal_description 'prism'
_diffrn_ambient_temperature 293
_refine_special_details
;
Some of the water molecule sites are disordered.

;
#These two values have been output from a single CSD field.
_refine_ls_R_factor_gt 0.0649
_refine_ls_wR_factor_gt 0.0649
_symmetry_cell_setting triclinic
_symmetry_space_group_name_H-M 'P -1'
_symmetry_Int_Tables_number 2
loop_
_symmetry_equiv_pos_site_id
_symmetry_equiv_pos_as_xyz
1 x,y,z
2 -x,-y,-z
_cell_length_a 12.8085(2)
_cell_length_b 14.7053(2)
_cell_length_c 15.4325(1)
_cell_angle_alpha 113.933(1)
_cell_angle_beta 93.774(1)
_cell_angle_gamma 97.724(1)
_cell_formula_units_Z 2
loop_
_atom_type_symbol
_atom_type_radius_bond
C 0.68
H 0.23
Co 1.26
N 0.68
O 0.68
S 1.02
loop_
_atom_site_label
_atom_site_type_symbol
_atom_site_fract_x
_atom_site_fract_y
_atom_site_fract_z
Co1 Co 0.43024(7) 0.32025(6) 0.66707(6)
Co2 Co 0.24639(6) 0.33051(6) 0.83667(6)
Co3 Co 0.05001(7) 0.31827(6) 0.69327(6)
Co4 Co 0.20378(7) 0.30473(6) 0.50353(6)
S1 S 0.55885(12) 0.47669(12) 0.71956(11)
S2 S 0.29191(12) 0.48511(12) 0.99217(11)
S3 S -0.04920(12) 0.46471(12) 0.74674(11)
S4 S 0.21518(12) 0.45848(12) 0.47410(11)
S5 S 0.56131(12) 0.75769(12) 0.57232(11)
S6 S 0.62480(13) 0.79485(12) 1.06769(12)
S7 S 0.00237(13) 0.73739(12) 1.12369(11)
S8 S 0.01928(13) 0.78292(12) 0.65123(12)
S9 S 0.21311(13) 0.16590(12) 0.61327(11)
O1 O 0.3385(3) 0.3944(3) 0.6063(3)
O2 O 0.3792(3) 0.3949(3) 0.8007(3)
O3 O 0.1562(3) 0.4222(3) 0.8066(3)
O4 O 0.0975(3) 0.3755(3) 0.5974(3)
O5 O 0.5340(4) 0.8475(3) 0.6454(3)
O6 O 0.5218(4) 0.7463(3) 0.4762(3)
O7 O 0.6749(3) 0.7539(3) 0.5861(3)
O8 O 0.7014(4) 0.8227(4) 1.0134(4)
O9 O 0.6776(4) 0.7742(3) 1.1440(3)
O10 O 0.5548(4) 0.8667(4) 1.1056(4)
O11 O 0.0491(4) 0.8333(4) 1.1251(4)
O12 O 0.0382(4) 0.7267(4) 1.2106(3)
O13 O -0.1139(4) 0.7173(3) 1.1005(3)
O14 O 0.0485(4) 0.8483(4) 0.7522(4)
O15 O -0.0954(4) 0.7697(3) 0.6238(3)
O16 O 0.0828(4) 0.8147(4) 0.5905(4)
O17 O 0.3337(3) 0.1858(3) 0.6338(3)
O18 O 0.1726(4) 0.1765(3) 0.5233(3)
O19 O 0.1657(3) 0.2343(3) 0.7000(3)
O20 O 0.1747(4) 0.0520(3) 0.5956(3)
H1 H -0.05690 0.14660 0.59970
H2 H 0.51920 0.20660 0.71880
O21 O -0.0590(4) 0.2008(4) 0.5928(3)
H3 H -0.06130 0.19310 0.53500
H4 H 0.60780 0.26490 0.69840
O22 O 0.5488(4) 0.2626(4) 0.7202(4)
O23 O 0.4457(6) 0.0703(5) 0.6955(5)
O24 O -0.0673(10) 0.0205(6) 0.6183(6)
O25 O -0.0173(11) 1.0263(10) 1.0789(9)
O26 O 0.1391(9) 1.0393(6) 0.7680(7)
O27 O 0.2992(7) 0.8492(11) 0.5497(9)
O28 O 0.4737(7) 0.9390(6) 0.5657(5)
O29 O 0.6202(14) 0.9954(9) 0.5493(10)
O30 O 0.726(3) 0.283(3) 0.632(3)
O31? O 0.7304(14) 0.226(2) 0.649(2)
O32 O -0.0449(18) 0.8112(15) 0.9083(12)
O33? O -0.0968(17) 0.877(3) 1.012(3)
O34 O -0.1082(7) 0.8726(6) 1.0627(6)
N1 N 0.2917(5) 0.9918(6) 1.1214(5)
C1 C 0.3864(5) 0.4775(4) 0.6017(4)
C2 C 0.3409(5) 0.5200(5) 0.5439(4)
C3 C 0.3938(5) 0.6044(4) 0.5353(4)
H5 H 0.36170 0.62930 0.49570
C4 C 0.4937(5) 0.6516(4) 0.5850(4)
C5 C 0.5415(5) 0.6134(5) 0.6435(4)
H6 H 0.60870 0.64470 0.67720
C6 C 0.4895(5) 0.5291(5) 0.6518(4)
C7 C 0.4280(5) 0.4867(4) 0.8590(4)
C8 C 0.5162(5) 0.5357(5) 0.8338(4)
C9 C 0.5731(5) 0.6300(5) 0.8965(5)
H7 H 0.63060 0.65990 0.87780
C10 C 0.5448(5) 0.6791(5) 0.9862(5)
C11 C 0.4579(5) 0.6350(5) 1.0139(4)
H8 H 0.43880 0.66800 1.07450
C12 C 0.3998(5) 0.5418(5) 0.9511(4)
C13 C 0.1233(5) 0.4947(5) 0.8770(4)
C14 C 0.1806(5) 0.5384(5) 0.9702(5)
C15 C 0.1433(5) 0.6106(5) 1.0450(5)
H9 H 0.18100 0.63840 1.10610
C16 C 0.0488(5) 0.6417(5) 1.0284(4)
C17 C -0.0084(5) 0.6008(5) 0.9373(5)
H10 H -0.07120 0.62230 0.92680
C18 C 0.0286(5) 0.5281(5) 0.8623(4)
C19 C 0.0821(5) 0.4679(5) 0.6112(4)
C20 C 0.0168(5) 0.5215(5) 0.6787(4)
C21 C -0.0006(5) 0.6163(5) 0.6892(4)
H11 H -0.04460 0.64940 0.73280
C22 C 0.0467(5) 0.6620(5) 0.6359(5)
C23 C 0.1110(5) 0.6128(5) 0.5700(4)
H12 H 0.14210 0.64360 0.53370
C24 C 0.1293(5) 0.5176(5) 0.5577(4)
C25 C 0.3280(7) 0.7312(8) 0.7802(6)
H13 H 0.35040 0.68490 0.72620
C26 C 0.3414(7) 0.8316(7) 0.7979(6)
H14 H 0.37280 0.85340 0.75540
C27 C 0.2813(9) 0.7000(7) 0.8432(7)
H15 H 0.27220 0.63210 0.83160
C28 C 0.3085(7) 0.9003(6) 0.8781(6)
H16 H 0.31750 0.96800 0.88880
C29 C 0.2477(7) 0.7678(6) 0.9233(6)
H17 H 0.21480 0.74490 0.96440
C30 C 0.2620(6) 0.8701(6) 0.9436(5)
C31 C 0.2194(6) 0.9432(6) 1.0264(5)
H18 H 0.15390 0.90840 1.03530
H19 H 0.20130 0.99660 1.00980
C32 C 0.3955(8) 1.0459(8) 1.1119(7)
H20 H 0.43740 1.08120 1.17360
H21 H 0.38200 1.09350 1.08630
H22 H 0.43330 0.99770 1.06960
C33 C 0.2345(9) 1.0662(9) 1.1912(7)
H23 H 0.16710 1.03170 1.19540
H24 H 0.22320 1.11740 1.16980
H25 H 0.27650 1.09700 1.25300
C34 C 0.3140(8) 0.9151(8) 1.1577(7)
H26 H 0.35180 0.86820 1.11390
H27 H 0.24810 0.87920 1.16300
H28 H 0.35630 0.94860 1.21930
Co1A Co 0.56976(7) 0.67975(6) 0.33293(6)
Co2A Co 0.75361(6) 0.66949(6) 1.16333(6)
Co2A* Co -0.24639(6) 0.66949(6) 1.16333(6)
Co3A Co -0.05001(7) 0.68173(6) 1.30673(6)
Co4A Co 0.79622(7) 0.69527(6) 0.49647(6)
Co4A* Co -0.20378(7) 0.69527(6) 0.49647(6)
O6A O 0.4782(4) 0.2537(3) 0.5238(3)
O7A O 0.3251(3) 0.2461(3) 0.4139(3)
O9A O 0.3224(4) 0.2258(3) 0.8560(3)
O12A O -0.0382(4) 0.2733(4) 0.7894(3)
O13A O 0.1139(4) 0.2827(3) 0.8995(3)
O15A O 0.0954(4) 0.2303(3) 0.3762(3)
#END
