
#######################################################################
#
#                 Cambridge Crystallographic Data Centre
#                                CCDC
#
#######################################################################
#
# If this CIF has been generated from an entry in the Cambridge
# Structural Database, then it will include bibliographic, chemical,
# crystal, experimental, refinement or atomic coordinate data resulting
# from the CCDC's data processing and validation procedures.
#
#######################################################################

data_CSD_CIF_TUJVAW
_audit_creation_date 2010-06-03
_audit_creation_method CSD-ConQuest-V1
_database_code_CSD TUJVAW
_database_code_depnum_ccdc_archive 'CCDC 645452'
_chemical_formula_sum 'C34 H47.5 Cu4 N1 O31.75 S9'
_chemical_formula_moiety
;
(C24 H16 Cu4 O24 S9 1-)n,n(C10 H16 N1 1+),7.75n(H2 O1)
;
_journal_coden_Cambridge 29
_journal_volume 635
_journal_year 2009
_journal_page_first 1669
_journal_name_full 'Z.Anorg.Allg.Chem. '
loop_
_publ_author_name
"Baiquan Chen"
"Daqiang Yuan"
"Mingyan Wu"
"Feilong Jiang"
"Maochun Hong"
_chemical_name_systematic
;
catena-(Benzyltrimethylammonium 
(\m~6~-5,11,17,23-tetrasulfonatocalix(4)arene-25,26,27,28-tetrolato)-(\m~3~-su
lfato)-tetra-aqua-tetra-copper hydrate)
;
_cell_volume   2834.994
_exptl_crystal_colour 'yellow'
_exptl_crystal_density_diffrn 1.783
_exptl_special_details
;
isomorphous with the diaqua/nonahydrate cobalt analogue

;
_exptl_crystal_description 'prism'
_diffrn_ambient_temperature 293
_refine_special_details
;
Some of the water molecules are disordered.

;
#These two values have been output from a single CSD field.
_refine_ls_R_factor_gt 0.0557
_refine_ls_wR_factor_gt 0.0557
_symmetry_cell_setting triclinic
_symmetry_space_group_name_H-M 'P -1'
_symmetry_Int_Tables_number 2
loop_
_symmetry_equiv_pos_site_id
_symmetry_equiv_pos_as_xyz
1 x,y,z
2 -x,-y,-z
_cell_length_a 14.1739(13)
_cell_length_b 14.922(2)
_cell_length_c 15.0305(18)
_cell_angle_alpha 111.528(5)
_cell_angle_beta 98.972(1)
_cell_angle_gamma 99.448(3)
_cell_formula_units_Z 2
loop_
_atom_type_symbol
_atom_type_radius_bond
C 0.68
H 0.23
Cu 1.32
N 0.68
O 0.68
S 1.02
loop_
_atom_site_label
_atom_site_type_symbol
_atom_site_fract_x
_atom_site_fract_y
_atom_site_fract_z
Cu1 Cu 0.17552(4) -0.18390(4) -0.18125(3)
Cu2 Cu 0.02435(4) -0.37018(4) -0.17131(4)
Cu3 Cu 0.22725(4) -0.48845(4) -0.17438(4)
Cu4 Cu 0.39677(4) -0.27880(4) -0.18843(4)
S1 S 0.21617(7) -0.02355(7) -0.04941(7)
S2 S -0.03908(8) -0.31893(8) -0.01194(8)
S3 S 0.26151(8) -0.51858(7) -0.03095(8)
S4 S 0.52195(7) -0.20682(8) -0.04063(8)
S5 S 0.02106(9) 0.06758(8) 0.24904(8)
S6 S 0.10990(11) -0.40633(10) 0.29392(8)
S7 S 0.61457(10) -0.34700(8) 0.24074(8)
S8 S 0.50893(8) 0.11666(8) 0.28380(7)
S9 S 0.19114(8) -0.39088(7) -0.32868(7)
O1 O 0.1110(2) -0.2270(2) -0.0949(2)
O2 O 0.1150(3) 0.1148(3) 0.3178(3)
O3 O -0.0189(2) 0.1377(2) 0.2174(2)
O4 O -0.0471(4) 0.0134(3) 0.2829(3)
O5 O 0.1136(2) -0.4215(2) -0.1039(2)
O6 O 0.0774(6) -0.3197(3) 0.3482(4)
O7 O 0.2026(4) -0.4115(8) 0.3366(4)
O8 O 0.0344(3) -0.4937(2) 0.2752(2)
O9 O 0.3324(2) -0.3678(2) -0.1049(2)
O10 O 0.5680(4) -0.3104(4) 0.3210(3)
O11 O 0.6282(2) -0.4464(2) 0.2218(2)
O12 O 0.7056(3) -0.2792(3) 0.2504(3)
O13 O 0.3354(2) -0.1728(2) -0.1265(2)
O14 O 0.4428(3) 0.0999(3) 0.3431(2)
O15 O 0.6056(2) 0.1015(3) 0.3125(2)
O16 O 0.5128(2) 0.2122(2) 0.2767(2)
O17 O 0.1348(2) -0.3296(2) -0.2655(2)
O18 O 0.2905(2) -0.3287(2) -0.3111(2)
O19 O 0.1992(2) -0.4751(2) -0.3015(2)
O20 O 0.1412(3) -0.4269(2) -0.4315(2)
O21 O 0.2114(2) -0.1419(2) -0.2813(2)
H1 H 0.17720 -0.11920 -0.31580
H2 H 0.26570 -0.13770 -0.29870
O22 O -0.0695(3) -0.3209(3) -0.2392(3)
H3 H -0.06800 -0.26600 -0.24460
H4 H -0.12180 -0.36310 -0.27730
O23 O 0.1416(3) -0.6239(2) -0.2440(3)
H5 H 0.09410 -0.66260 -0.29210
H6 H 0.18050 -0.65640 -0.22870
O24 O 0.4573(3) -0.3897(3) -0.2458(3)
H7 H 0.49190 -0.40380 -0.28810
H8 H 0.44780 -0.43700 -0.22690
O25 O 0.7029(6) -0.2167(7) -0.3189(9)
O26 O 0.9180(5) 0.2503(6) 0.4546(4)
O27 O 0.9324(7) 0.6114(5) 0.5645(5)
O28 O 0.3421(7) 0.6598(11) 0.5093(5)
O29? O 0.50000 0.50000 0.50000
O30 O 0.5408(9) 0.4306(9) 0.5236(9)
O31 O 1.0046(12) 0.0835(12) -0.4124(12)
O32 O 0.6192(14) 0.4452(14) -0.3195(14)
O33 O 0.3503(19) 0.3563(19) 0.2367(19)
O34 O 1.1933(16) 0.4272(16) 0.4147(16)
O35 O 0.4425(19) 0.296(2) 0.4942(19)
O36 O 0.412(2) 0.495(2) 0.5416(19)
O37 O 0.9093(19) 0.763(2) 0.4447(19)
O38 O 0.7429(18) 0.6474(18) 0.4722(18)
O39? O 0.863(2) 0.713(2) 0.477(2)
O40? O 0.4034(7) 0.5907(7) 0.5448(7)
N1 N 0.7140(3) -0.0181(3) -0.5325(3)
C1 C 0.0870(3) -0.1617(3) -0.0206(3)
C2 C 0.1307(3) -0.0592(3) 0.0134(3)
C3 C 0.1087(3) 0.0106(3) 0.0937(3)
H9 H 0.13790 0.07770 0.11490
C4 C 0.0428(3) -0.0210(3) 0.1419(3)
C5 C -0.0017(3) -0.1208(3) 0.1100(3)
H10 H -0.04620 -0.14090 0.14240
C6 C 0.0197(3) -0.1913(3) 0.0299(3)
C7 C 0.1152(3) -0.4136(3) -0.0143(3)
C8 C 0.0512(3) -0.3661(3) 0.0421(3)
C9 C 0.0518(4) -0.3626(3) 0.1353(3)
H11 H 0.00850 -0.33250 0.16970
C10 C 0.1172(4) -0.4040(4) 0.1778(3)
C11 C 0.1816(4) -0.4497(3) 0.1270(3)
H12 H 0.22490 -0.47760 0.15550
C12 C 0.1813(3) -0.4535(3) 0.0333(3)
C13 C 0.3965(3) -0.3646(3) -0.0297(3)
C14 C 0.3765(3) -0.4298(3) 0.0173(3)
C15 C 0.4432(3) -0.4265(3) 0.0974(3)
H13 H 0.42780 -0.47060 0.12640
C16 C 0.5327(3) -0.3569(3) 0.1338(3)
C17 C 0.5553(3) -0.2924(3) 0.0898(3)
H14 H 0.61580 -0.24640 0.11400
C18 C 0.4887(3) -0.2952(3) 0.0096(3)
C19 C 0.3737(3) -0.1101(3) -0.0345(3)
C20 C 0.4635(3) -0.1130(3) 0.0202(3)
C21 C 0.5046(3) -0.0457(3) 0.1156(3)
H15 H 0.56400 -0.04890 0.14910
C22 C 0.4578(3) 0.0267(3) 0.1619(3)
C23 C 0.3696(3) 0.0321(3) 0.1107(3)
H16 H 0.33850 0.08120 0.14120
C24 C 0.3281(3) -0.0348(3) 0.0152(3)
C25 C 0.6725(5) 0.1934(4) -0.1918(4)
H17 H 0.65360 0.21480 -0.13230
C26 C 0.7493(5) 0.1495(5) -0.2016(4)
H18 H 0.78350 0.14150 -0.14810
C27 C 0.6231(5) 0.2055(5) -0.2712(5)
H19 H 0.57190 0.23730 -0.26460
C28 C 0.7771(4) 0.1167(4) -0.2896(4)
H20 H 0.83040 0.08760 -0.29480
C29 C 0.6482(4) 0.1716(4) -0.3599(4)
H21 H 0.61270 0.17870 -0.41340
C30 C 0.7263(4) 0.1267(3) -0.3703(3)
C31 C 0.7554(4) 0.0923(4) -0.4672(4)
H22 H 0.82670 0.10650 -0.45440
H23 H 0.73360 0.13050 -0.50300
C32 C 0.7525(6) -0.0811(5) -0.4845(5)
H24 H 0.72730 -0.07280 -0.42700
H25 H 0.82300 -0.06130 -0.46590
H26 H 0.73170 -0.14950 -0.52980
C33 C 0.7471(5) -0.0374(5) -0.6261(4)
H27 H 0.72620 -0.10700 -0.66750
H28 H 0.81760 -0.01670 -0.61140
H29 H 0.71890 -0.00080 -0.65960
C34 C 0.6051(4) -0.0443(5) -0.5549(5)
H30 H 0.58020 -0.00190 -0.58280
H31 H 0.58370 -0.03580 -0.49540
H32 H 0.58070 -0.11220 -0.60100
Cu2A Cu -0.02435(4) -0.62982(4) 0.17131(4)
Cu4A Cu 0.60323(4) 0.27880(4) 0.18843(4)
O8A O -0.0344(3) -0.5063(2) -0.2752(2)
O16A O 0.4872(2) -0.2122(2) -0.2767(2)
#END
