
#######################################################################
#
#                 Cambridge Crystallographic Data Centre
#                                CCDC
#
#######################################################################
#
# If this CIF has been generated from an entry in the Cambridge
# Structural Database, then it will include bibliographic, chemical,
# crystal, experimental, refinement or atomic coordinate data resulting
# from the CCDC's data processing and validation procedures.
#
#######################################################################

data_CSD_CIF_TUMKAP
_audit_creation_date 2015-05-13
_audit_creation_method CSD-ConQuest-V1
_database_code_CSD TUMKAP
_database_code_depnum_ccdc_archive 'CCDC 1044283'
_chemical_formula_sum 'C10 H18 Cu1 N10 O1 Pt1'
_chemical_formula_moiety
;
(C6 H18 Cu1 N6 O1 2+)n,C4 N4 Pt1 2-
;
_journal_coden_Cambridge 119
_journal_volume 1096
_journal_year 2015
_journal_page_first 84
_journal_name_full 'J.Mol.Struct. '
loop_
_publ_author_name
"E.Sayin"
"G.S.Kurkcuoglu"
"O.Z.Yesilel"
"T.Hokelek"
_chemical_name_systematic
;
catena-[tetraammine-(\m-nicotinamide)-copper tetrakis(cyano)-platinum]
;
_cell_volume    870.677
_exptl_crystal_colour 'blue'
_exptl_crystal_density_diffrn 2.109
_exptl_crystal_description 'block'
_diffrn_ambient_temperature 100
#These two values have been output from a single CSD field.
_refine_ls_R_factor_gt 0.0296
_refine_ls_wR_factor_gt 0.0296
_symmetry_cell_setting monoclinic
_symmetry_space_group_name_H-M 'P 21'
_symmetry_Int_Tables_number 4
loop_
_symmetry_equiv_pos_site_id
_symmetry_equiv_pos_as_xyz
1 x,y,z
2 -x,1/2+y,-z
_cell_length_a 9.2056(3)
_cell_length_b 7.2084(2)
_cell_length_c 13.1211(4)
_cell_angle_alpha 90
_cell_angle_beta 90.246(2)
_cell_angle_gamma 90
_cell_formula_units_Z 2
loop_
_atom_type_symbol
_atom_type_radius_bond
C 0.68
H 0.23
Cu 1.32
N 0.68
O 0.68
Pt 1.36
loop_
_atom_site_label
_atom_site_type_symbol
_atom_site_fract_x
_atom_site_fract_y
_atom_site_fract_z
Pt1 Pt 0.202757(14) 1.00012(9) 0.774587(10)
N1 N -0.1092(5) 0.998(4) 0.6796(4)
N2 N 0.0307(6) 0.977(4) 0.9798(4)
N3 N 0.4996(5) 1.006(5) 0.8921(5)
N4 N 0.3641(6) 0.993(5) 0.5649(4)
C1 C 0.0077(5) 1.002(4) 0.7085(4)
C2 C 0.0983(6) 0.996(3) 0.9070(4)
C3 C 0.3936(5) 0.998(4) 0.8485(4)
C4 C 0.3046(6) 0.993(5) 0.6404(4)
Cu1 Cu -0.28987(5) 0.4996(6) 0.75041(5)
O1 O 0.4479(4) 0.511(3) 0.8030(3)
N5 N -0.2557(16) 0.690(2) 0.8659(9)
H1 H -0.26530 0.80430 0.84110
H2 H -0.16650 0.67570 0.89110
H3 H -0.32050 0.67200 0.91500
N6 N -0.2546(16) 0.290(2) 0.8489(8)
H4 H -0.22470 0.33600 0.90830
H5 H -0.18690 0.21490 0.82400
H6 H -0.33670 0.22720 0.85790
N7 N -0.3455(13) 0.2970(19) 0.6515(8)
H7 H -0.36900 0.34710 0.59170
H8 H -0.42120 0.23440 0.67580
H9 H -0.27080 0.22010 0.64340
N8 N -0.3579(14) 0.7007(18) 0.6505(9)
H10 H -0.34290 0.81200 0.67780
H11 H -0.45210 0.68600 0.63750
H12 H -0.30810 0.69120 0.59270
N9 N -0.0467(4) 0.496(4) 0.6979(3)
N10 N 0.2802(4) 0.508(4) 0.9248(3)
H13 H 0.34420 0.52440 0.97190
H14 H 0.18990 0.49880 0.94030
C5 C -0.0052(6) 0.511(5) 0.6012(4)
H15 H -0.07620 0.52320 0.55100
C6 C 0.1389(6) 0.509(6) 0.5725(4)
H16 H 0.16480 0.52220 0.50440
C7 C 0.2450(6) 0.488(5) 0.6480(4)
H17 H 0.34140 0.46830 0.63030
C8 C 0.2053(4) 0.497(4) 0.7485(4)
C9 C 0.0580(5) 0.505(4) 0.7699(3)
H18 H 0.02990 0.51780 0.83760
C10 C 0.3202(5) 0.498(4) 0.8297(4)
Cu1* Cu 0.71013(5) 0.4996(6) 0.75041(5)
O1* O -0.5521(4) 0.511(3) 0.8030(3)
#END
