
#######################################################################
#
#                 Cambridge Crystallographic Data Centre
#                                CCDC
#
#######################################################################
#
# If this CIF has been generated from an entry in the Cambridge
# Structural Database, then it will include bibliographic, chemical,
# crystal, experimental, refinement or atomic coordinate data resulting
# from the CCDC's data processing and validation procedures.
#
#######################################################################

data_CSD_CIF_TUPWEJ
_audit_creation_date 2020-07-21
_audit_creation_method CSD-ConQuest-V1
_database_code_CSD TUPWEJ
_database_code_depnum_ccdc_archive 'CCDC 1956994'
_chemical_formula_sum 'C32 H32 N6 O9 S1 Zn1'
_chemical_formula_moiety
;
(C24 H19 N4 O7 S1 Zn1 1-)n,C8 H9 N2 1+,2(H2 O1)
;
_journal_coden_Cambridge 369
_journal_volume 45
_journal_year 2020
_journal_page_first 353
_journal_name_full 'Transition Met.Chem. '
loop_
_publ_author_name
"Yong-Hong Zhou"
"Yun Xu"
"Zu-Qian Xue"
"Jun-Qing Shi"
"Yue Su"
"Mei-Ling Sun"
"Si-Hui Wang"
"Long-Long Wang"
"Qing-Qing Wang"
"Yuan-Jie Wei"
_chemical_name_systematic
;
catena-(2-methyl-1H-benzimidazol-3-ium 
(\m-5-sulfonatoisophthalato)-bis(2-methylbenzimidazole)-zinc dihydrate)
;
_cell_volume   3312.065
_exptl_crystal_colour 'colorless'
_exptl_crystal_density_diffrn 1.488
_exptl_crystal_description 'plate'
_diffrn_ambient_temperature 298.1
#These two values have been output from a single CSD field.
_refine_ls_R_factor_gt 0.0544
_refine_ls_wR_factor_gt 0.0544
_symmetry_cell_setting monoclinic
_symmetry_space_group_name_H-M 'P 21/n'
_symmetry_Int_Tables_number 14
loop_
_symmetry_equiv_pos_site_id
_symmetry_equiv_pos_as_xyz
1 x,y,z
2 1/2-x,1/2+y,1/2-z
3 -x,-y,-z
4 -1/2+x,-1/2-y,-1/2+z
_cell_length_a 16.8998(14)
_cell_length_b 11.1358(9)
_cell_length_c 19.2874(17)
_cell_angle_alpha 90
_cell_angle_beta 114.150(4)
_cell_angle_gamma 90
_cell_formula_units_Z 4
loop_
_atom_type_symbol
_atom_type_radius_bond
C 0.68
H 0.23
N 0.68
O 0.68
S 1.02
Zn 1.22
loop_
_atom_site_label
_atom_site_type_symbol
_atom_site_fract_x
_atom_site_fract_y
_atom_site_fract_z
Zn1 Zn 0.94938(4) 0.24390(5) 0.33478(3)
S1 S 0.64991(9) 0.40397(13) 0.55667(7)
O1 O 0.6218(2) 0.6433(3) 0.25036(19)
O2 O 0.5102(2) 0.6212(3) 0.2815(2)
O3 O 0.8606(2) 0.3397(3) 0.3529(2)
O4 O 0.8521(3) 0.2133(4) 0.4378(3)
O5 O 0.5726(3) 0.3343(4) 0.5330(2)
O6 O 0.7248(3) 0.3430(4) 0.6115(2)
O7 O 0.6403(4) 0.5218(4) 0.5819(2)
N1 N 1.0165(3) 0.3818(4) 0.3178(2)
N2 N 1.1168(3) 0.5163(4) 0.3301(3)
H1 H 1.16741 0.54804 0.34420
N3 N 1.0277(3) 0.1477(4) 0.4246(2)
N4 N 1.1021(3) 0.0064(4) 0.5042(2)
H2 H 1.12330 -0.06328 0.52088
C1 C 0.5861(4) 0.6019(5) 0.2918(3)
C2 C 0.8302(3) 0.3052(5) 0.3991(3)
C3 C 0.6420(3) 0.5212(4) 0.3559(3)
C4 C 0.7121(3) 0.4625(4) 0.3515(3)
H3 H 0.72723 0.47849 0.31115
C5 C 0.7601(3) 0.3799(4) 0.4070(3)
C6 C 0.7406(3) 0.3634(4) 0.4697(3)
H4 H 0.77343 0.31041 0.50790
C7 C 0.6732(3) 0.4248(4) 0.4756(3)
C8 C 0.6219(3) 0.5019(5) 0.4184(3)
H5 H 0.57469 0.54038 0.42160
C9 C 1.1003(4) 0.4044(5) 0.3472(3)
C10 C 1.0399(4) 0.5712(5) 0.2867(3)
C11 C 0.9766(3) 0.4868(5) 0.2778(3)
C12 C 0.8906(4) 0.5101(5) 0.2335(3)
H6 H 0.84765 0.45367 0.22747
C13 C 0.8709(4) 0.6201(6) 0.1988(3)
H7 H 0.81338 0.63825 0.16807
C14 C 0.9343(5) 0.7049(6) 0.2081(4)
H8 H 0.91833 0.77865 0.18360
C15 C 1.0188(5) 0.6831(5) 0.2519(4)
H9 H 1.06115 0.74062 0.25846
C16 C 1.1702(4) 0.3214(7) 0.3916(5)
H10 H 1.18603 0.33469 0.44481
H11 H 1.21958 0.33507 0.38011
H12 H 1.15054 0.24016 0.37896
C17 C 1.0519(3) 0.0339(5) 0.4319(3)
C18 C 1.1141(3) 0.1088(6) 0.5471(3)
C19 C 1.0661(3) 0.1974(5) 0.4976(3)
C20 C 1.0647(4) 0.3143(6) 0.5225(3)
H13 H 1.03270 0.37443 0.48950
C21 C 1.1125(5) 0.3364(7) 0.5980(4)
H14 H 1.11201 0.41331 0.61657
C22 C 1.1619(4) 0.2479(8) 0.6480(4)
H15 H 1.19469 0.26751 0.69863
C23 C 1.1630(4) 0.1320(7) 0.6237(3)
H16 H 1.19486 0.07200 0.65697
C24 C 1.0309(4) -0.0558(5) 0.3703(3)
H17 H 0.97325 -0.04171 0.33267
H18 H 1.03424 -0.13497 0.39099
H19 H 1.07149 -0.04880 0.34739
O8 O 0.8822(4) 0.0451(5) 0.7823(3)
H20 H 0.917(5) -0.010(6) 0.782(6)
H21 H 0.887(5) 0.047(8) 0.828(2)
O9 O 0.7183(4) 0.1327(6) 0.6967(4)
H22 H 0.723(7) 0.195(6) 0.672(6)
H23 H 0.766(3) 0.096(10) 0.704(3)
N5 N 0.5046(4) 0.1442(4) 0.4372(3)
H24 H 0.51794 0.21392 0.45795
N6 N 0.4298(3) -0.0037(5) 0.3713(3)
H25 H 0.38622 -0.04578 0.34213
C25 C 0.4258(5) 0.1082(6) 0.3911(4)
C26 C 0.5147(4) -0.0436(5) 0.4046(3)
C27 C 0.5625(4) 0.0495(5) 0.4464(3)
C28 C 0.6503(5) 0.0425(7) 0.4875(4)
H26 H 0.68251 0.10597 0.51691
C29 C 0.6872(5) -0.0639(8) 0.4822(4)
H27 H 0.74668 -0.07334 0.50912
C30 C 0.6399(6) -0.1581(7) 0.4387(5)
H28 H 0.66847 -0.22796 0.43564
C31 C 0.5518(5) -0.1510(6) 0.3998(4)
H29 H 0.51905 -0.21520 0.37182
C32 C 0.3462(5) 0.1818(7) 0.3641(5)
H30 H 0.35195 0.24341 0.40070
H31 H 0.29740 0.13176 0.35772
H32 H 0.33736 0.21813 0.31637
Zn1A Zn 0.55062(4) 0.74390(5) 0.16522(3)
O1A O 0.8782(2) 0.1433(3) 0.24964(19)
#END
