
#######################################################################
#
#                 Cambridge Crystallographic Data Centre
#                                CCDC
#
#######################################################################
#
# If this CIF has been generated from an entry in the Cambridge
# Structural Database, then it will include bibliographic, chemical,
# crystal, experimental, refinement or atomic coordinate data resulting
# from the CCDC's data processing and validation procedures.
#
#######################################################################

data_CSD_CIF_TUPZOW
_audit_creation_date 2020-07-21
_audit_creation_method CSD-ConQuest-V1
_database_code_CSD TUPZOW
_database_code_depnum_ccdc_archive 'CCDC 1999391'
_chemical_formula_sum 'C50 H32 N1 Nd3 O26'
_chemical_formula_moiety
;
(C48 H24 Nd3 O26 1-)n,C2 H8 N1 1+
;
_journal_coden_Cambridge 979
_journal_year 2020
_journal_name_full 'J.Rare Earths '
loop_
_publ_author_name
"Chao Gu"
"Yanyun Ding"
"Xinghua Quan"
"Mengyao Gong"
"Jiulong Yu"
"Dian Zhao"
"Chunxia Li"
_chemical_name_systematic
;
catena-[dimethylammonium 
(\m-[1,1'-biphenyl]-3,3',5,5'-tetracarboxylato)-bis(\m-5'-carboxy[1,1'-bipheny
l]-3,3',5-tricarboxylato)-diaqua-tri-neodymium(iii) unknown solvate]
;
_cell_volume   1641.339
_exptl_crystal_colour 'colorless'
_exptl_crystal_description 'block'
_diffrn_ambient_temperature 293
_refine_special_details
;
Disordered solvent molecules were not modelled and the disordered density was 
taken into account using the SQUEEZE/PLATON procedure.
;
#These two values have been output from a single CSD field.
_refine_ls_R_factor_gt 0.0343
_refine_ls_wR_factor_gt 0.0343
_symmetry_cell_setting triclinic
_symmetry_space_group_name_H-M 'P -1'
_symmetry_Int_Tables_number 2
loop_
_symmetry_equiv_pos_site_id
_symmetry_equiv_pos_as_xyz
1 x,y,z
2 -x,-y,-z
_cell_length_a 11.6670(7)
_cell_length_b 12.2513(7)
_cell_length_c 13.6783(7)
_cell_angle_alpha 65.086(2)
_cell_angle_beta 69.150(2)
_cell_angle_gamma 88.083(2)
_cell_formula_units_Z 1
loop_
_atom_type_symbol
_atom_type_radius_bond
C 0.68
H 0.23
Nd 2.01
O 0.68
loop_
_atom_site_label
_atom_site_type_symbol
_atom_site_fract_x
_atom_site_fract_y
_atom_site_fract_z
Nd1 Nd 0.50000 0.50000 0.00000
Nd2 Nd 0.42820(2) 0.32915(2) -0.17327(2)
O1 O 0.2836(3) 0.4528(3) 0.0799(4)
O2 O 0.2917(3) 0.3127(3) 0.0182(3)
O3 O -0.0803(3) 0.6289(3) 0.1906(3)
H1 H -0.118(3) 0.707(5) 0.176(5)
O4 O -0.2623(3) 0.5530(3) 0.2092(3)
O5 O -0.4322(3) 0.3407(2) -0.0578(3)
O6 O -0.4753(3) 0.1660(3) -0.0540(3)
O7 O -0.2584(3) -0.1757(3) 0.0963(3)
O8 O -0.1357(4) -0.1692(3) 0.1853(4)
O9 O 0.5231(3) 0.4675(3) 0.1920(3)
O10 O 0.4708(4) 0.3091(3) 0.1771(3)
O11 O 0.4381(3) 0.3704(3) 0.6269(3)
O12 O 0.4950(4) 0.1971(3) 0.7229(3)
O13 O 0.6487(4) 0.4007(4) -0.3062(3)
C1 C 0.2321(4) 0.3749(4) 0.0661(4)
C2 C -0.1512(4) 0.5497(4) 0.1918(4)
C3 C -0.4192(4) 0.2293(4) -0.0292(4)
C4 C -0.2046(4) -0.1211(4) 0.1300(4)
C5 C 0.4933(4) 0.3542(4) 0.2363(3)
C6 C 0.4712(5) 0.2697(4) 0.6358(4)
C7 C -0.1537(4) 0.0812(4) 0.1238(4)
H2 H -0.09450 0.04880 0.15490
C8 C -0.1712(4) 0.2019(4) 0.0980(4)
C9 C -0.2591(4) 0.2488(4) 0.0480(4)
H3 H -0.27100 0.32960 0.02840
C10 C -0.3283(4) 0.1769(4) 0.0274(4)
C11 C -0.3106(4) 0.0569(4) 0.0561(4)
H4 H -0.35760 0.00810 0.04340
C12 C -0.2228(4) 0.0087(4) 0.1038(4)
C13 C 0.4896(4) 0.3139(4) 0.4334(4)
H5 H 0.48810 0.39590 0.41560
C14 C 0.4970(4) 0.2727(4) 0.3510(4)
C15 C 0.4846(5) 0.2311(4) 0.5421(4)
C16 C 0.4883(5) 0.1083(4) 0.5674(4)
H6 H 0.48430 0.05370 0.64110
C17 C 0.4979(5) 0.0650(4) 0.4864(4)
C18 C 0.4999(5) 0.1496(4) 0.3791(4)
H7 H 0.50350 0.12310 0.32370
C19 C 0.0276(4) 0.2815(4) 0.0928(4)
H8 H 0.06770 0.22590 0.06760
C20 C -0.0903(4) 0.4508(4) 0.1656(4)
C21 C -0.1570(4) 0.3676(4) 0.1551(4)
H9 H -0.24160 0.36870 0.17280
C22 C -0.0997(4) 0.2820(4) 0.1186(4)
C23 C 0.0942(4) 0.3637(4) 0.1047(4)
C24 C 0.0347(4) 0.4478(4) 0.1414(4)
H10 H 0.07960 0.50240 0.14970
O9A O 0.4769(3) -0.4675(3) 0.8080(3)
O10A O 0.5292(4) -0.3091(3) 0.8229(3)
O11A O 0.5619(3) -0.3704(3) 0.3731(3)
O12A O 0.5050(4) -0.1971(3) 0.2771(3)
C5A C 0.5067(4) -0.3542(4) 0.7637(3)
C6A C 0.5288(5) -0.2697(4) 0.3642(4)
C13A C 0.5104(4) -0.3139(4) 0.5666(4)
H5A H 0.51190 -0.39590 0.58440
C14A C 0.5030(4) -0.2727(4) 0.6490(4)
C15A C 0.5154(5) -0.2311(4) 0.4579(4)
C16A C 0.5117(5) -0.1083(4) 0.4326(4)
H6A H 0.51570 -0.05370 0.35890
C17A C 0.5021(5) -0.0650(4) 0.5136(4)
C18A C 0.5001(5) -0.1496(4) 0.6209(4)
H7A H 0.49650 -0.12310 0.67630
Nd2A Nd -0.42820(2) -0.32915(2) 0.17327(2)
O1A O -0.2836(3) -0.4528(3) -0.0799(4)
O2A O -0.2917(3) -0.3127(3) -0.0182(3)
O3A O 0.0803(3) -0.6289(3) -0.1906(3)
H1A H 0.118(3) -0.707(5) -0.176(5)
O4A O 0.2623(3) -0.5530(3) -0.2092(3)
O5A O 0.4322(3) -0.3407(2) 0.0578(3)
O6A O 0.4753(3) -0.1660(3) 0.0540(3)
O7A O 0.2584(3) 0.1757(3) -0.0963(3)
O8A O 0.1357(4) 0.1692(3) -0.1853(4)
O13A O -0.6487(4) -0.4007(4) 0.3062(3)
C1A C -0.2321(4) -0.3749(4) -0.0661(4)
C2A C 0.1512(4) -0.5497(4) -0.1918(4)
C3A C 0.4192(4) -0.2293(4) 0.0292(4)
C4A C 0.2046(4) 0.1211(4) -0.1300(4)
C7A C 0.1537(4) -0.0812(4) -0.1238(4)
H2A H 0.09450 -0.04880 -0.15490
C8A C 0.1712(4) -0.2019(4) -0.0980(4)
C9A C 0.2591(4) -0.2488(4) -0.0480(4)
H3A H 0.27100 -0.32960 -0.02840
C10A C 0.3283(4) -0.1769(4) -0.0274(4)
C11A C 0.3106(4) -0.0569(4) -0.0561(4)
H4A H 0.35760 -0.00810 -0.04340
C12A C 0.2228(4) -0.0087(4) -0.1038(4)
C19A C -0.0276(4) -0.2815(4) -0.0928(4)
H8A H -0.06770 -0.22590 -0.06760
C20A C 0.0903(4) -0.4508(4) -0.1656(4)
C21A C 0.1570(4) -0.3676(4) -0.1551(4)
H9A H 0.24160 -0.36870 -0.17280
C22A C 0.0997(4) -0.2820(4) -0.1186(4)
C23A C -0.0942(4) -0.3637(4) -0.1047(4)
C24A C -0.0347(4) -0.4478(4) -0.1414(4)
H10A H -0.07960 -0.50240 -0.14970
Nd1* Nd -0.50000 -0.50000 0.00000
Nd1** Nd -0.50000 0.50000 0.00000
Nd1*** Nd 0.50000 -0.50000 0.00000
Nd1**** Nd 0.50000 -0.50000 1.00000
Nd2* Nd -0.57180(2) 0.32915(2) -0.17327(2)
Nd2** Nd 0.42820(2) -0.67085(2) -0.17327(2)
Nd2*** Nd 0.42820(2) -0.67085(2) 0.82673(2)
Nd2**** Nd 0.42820(2) 0.32915(2) 0.82673(2)
Nd2A* Nd -0.42820(2) 0.67085(2) 0.17327(2)
Nd2A** Nd 0.57180(2) -0.32915(2) 0.17327(2)
Nd2A*** Nd 0.57180(2) 0.67085(2) 0.17327(2)
O1A* O 0.7164(3) 0.5472(3) -0.0799(4)
O4* O -0.2623(3) -0.4470(3) 0.2092(3)
O4A* O 0.2623(3) 0.4470(3) -0.2092(3)
O5* O 0.5678(3) 0.3407(2) -0.0578(3)
O5A* O -0.5678(3) -0.3407(2) 0.0578(3)
O5A** O 0.4322(3) 0.6593(2) 0.0578(3)
O6* O 0.5247(3) 0.1660(3) -0.0540(3)
O6A* O -0.5247(3) -0.1660(3) 0.0540(3)
O9* O -0.4769(3) -0.5325(3) 0.1920(3)
O9A* O 0.4769(3) 0.5325(3) -0.1920(3)
O10A* O 0.5292(4) 0.6909(3) -0.1771(3)
O11* O 0.4381(3) 0.3704(3) -0.3731(3)
O11A* O -0.4381(3) -0.3704(3) 0.3731(3)
O12* O 0.4950(4) 0.1971(3) -0.2771(3)
O12A* O -0.4950(4) -0.1971(3) 0.2771(3)
#END
