
#######################################################################
#
#                 Cambridge Crystallographic Data Centre
#                                CCDC
#
#######################################################################
#
# If this CIF has been generated from an entry in the Cambridge
# Structural Database, then it will include bibliographic, chemical,
# crystal, experimental, refinement or atomic coordinate data resulting
# from the CCDC's data processing and validation procedures.
#
#######################################################################

data_CSD_CIF_TUSKEA
_audit_creation_date 2020-07-22
_audit_creation_method CSD-ConQuest-V1
_database_code_CSD TUSKEA
_database_code_depnum_ccdc_archive 'CCDC 1949263; not CCDC 1948994 as published'
_chemical_formula_sum 'C14 H20 Ag3 N12 O40 P1 W12'
_chemical_formula_moiety
;
O40 P1 W12 3-,n(C14 H20 Ag3 N12 3+)
;
_journal_coden_Cambridge 369
_journal_volume 45
_journal_year 2020
_journal_page_first 343
_journal_name_full 'Transition Met.Chem. '
loop_
_publ_author_name
"Jun Ying"
"Xiuyan Wang"
"Yaguang Chen"
_chemical_name_systematic
;
catena-[bis(\m-1,1'-(propane-1,3-diyl)bis(1H-1,2,4-triazole))-tri-silver 
(\m-phosphato)-tetracosakis(\m-oxido)-dodecaoxo-dodeca-tungsten]
;
_cell_volume   1222.797
_exptl_crystal_colour 'red'
_exptl_crystal_density_diffrn 4.831
_exptl_crystal_description 'block'
_diffrn_ambient_temperature 296
_refine_special_details
;
O1,O1',O2,O2' disordered by symmetry over two configurations with occupancy 
0.50.
;
#These two values have been output from a single CSD field.
_refine_ls_R_factor_gt 0.0388
_refine_ls_wR_factor_gt 0.0388
_symmetry_cell_setting triclinic
_symmetry_space_group_name_H-M 'P -1'
_symmetry_Int_Tables_number 2
loop_
_symmetry_equiv_pos_site_id
_symmetry_equiv_pos_as_xyz
1 x,y,z
2 -x,-y,-z
_cell_length_a 10.0553(7)
_cell_length_b 10.0750(7)
_cell_length_c 12.8021(9)
_cell_angle_alpha 74.103(1)
_cell_angle_beta 78.732(1)
_cell_angle_gamma 85.379(1)
_cell_formula_units_Z 1
loop_
_atom_type_symbol
_atom_type_radius_bond
C 0.68
H 0.23
Ag 1.45
N 0.68
O 0.68
P 1.05
W 1.62
loop_
_atom_site_label
_atom_site_type_symbol
_atom_site_fract_x
_atom_site_fract_y
_atom_site_fract_z
P1 P -0.50000 -1.00000 1.50000
W1 W -0.19872(4) -1.20988(5) 1.52259(4)
W2 W -0.31887(4) -0.71495(4) 1.51316(4)
W3 W -0.19409(4) -0.89795(4) 1.30936(3)
W4 W -0.62785(5) -0.81288(5) 1.69993(4)
W5 W -0.66701(5) -0.96963(5) 1.27446(4)
W6 W -0.49403(4) -0.68262(4) 1.29134(3)
O1 O -0.6300(14) -0.9564(13) 1.5653(11)
O2 O -0.5841(14) -1.1191(13) 1.5667(11)
O3 O -0.4198(14) -1.1060(13) 1.5828(11)
O4 O -0.4594(13) -0.9179(13) 1.5762(11)
O5 O -0.6673(11) -0.6713(14) 1.3764(10)
O6 O -0.2056(11) -1.1184(12) 1.6334(9)
O7 O -0.569(1) -0.8043(12) 1.2297(9)
O8 O -0.5025(9) -1.0640(11) 1.2329(9)
O9 O -0.4873(11) -0.7028(11) 1.6124(9)
O10 O -0.0522(9) -0.8496(12) 1.2191(8)
O11 O -0.1977(10) -0.7902(9) 1.4121(8)
O12 O -0.7366(12) -0.7417(8) 1.5923(8)
O13 O -0.2574(12) -1.0279(8) 1.2518(9)
O14 O -0.2693(10) -0.8587(11) 1.6288(8)
O15 O -0.3219(9) -0.7667(9) 1.2464(7)
O16 O -0.0577(8) -1.3083(8) 1.5332(8)
O17 O -0.4911(10) -0.5348(8) 1.1913(7)
O18 O -0.6902(10) -0.7306(9) 1.7971(7)
O19 O -0.2373(9) -0.5811(9) 1.5206(10)
O20 O -0.1333(12) -1.0484(9) 1.4153(9)
O21 O -0.417(1) -0.6341(10) 1.3964(8)
O22 O -0.7444(9) -0.9498(9) 1.1664(7)
Ag1 Ag -0.42212(10) -0.30700(11) 1.01464(8)
Ag2 Ag -1.00000 0.00000 1.00000
C1 C -0.8389(13) -0.6102(12) 1.1361(10)
H1 H -0.83200 -0.68740 1.19470
C2 C -0.8068(12) -0.4650(12) 0.9813(10)
H2 H -0.76980 -0.42250 0.90840
C3 C -1.0283(11) -0.4832(11) 1.2320(9)
H3 H -1.05550 -0.57150 1.28260
H4 H -1.10830 -0.43710 1.20510
C4 C -0.9759(12) -0.3974(11) 1.2937(9)
H5 H -1.03860 -0.40350 1.36270
H6 H -0.88980 -0.43800 1.31190
C5 C -0.9558(12) -0.2485(12) 1.2356(11)
H7 H -0.95020 -0.19850 1.28940
H8 H -1.03410 -0.21190 1.20190
C6 C -0.7080(12) -0.2791(11) 1.1525(9)
H9 H -0.68380 -0.34510 1.21290
C7 C -0.7023(13) -0.1389(12) 0.9971(10)
H10 H -0.67060 -0.08800 0.92520
N1 N -0.7596(11) -0.5857(11) 1.0368(9)
N2 N -0.9105(11) -0.4105(10) 1.0381(8)
N3 N -0.9288(9) -0.5076(9) 1.1381(8)
N4 N -0.6232(11) -0.228(1) 1.0588(8)
N5 N -0.8296(10) -0.1299(10) 1.0479(8)
N6 N -0.8311(9) -0.2239(9) 1.1486(8)
O1A O -0.3700(14) -1.0436(13) 1.4347(11)
O2A O -0.4159(14) -0.8809(13) 1.4333(11)
O3A O -0.5802(14) -0.8940(13) 1.4172(11)
O4A O -0.5406(13) -1.0821(13) 1.4238(11)
W1A W -0.80128(4) -0.79012(5) 1.47741(4)
W2A W -0.68113(4) -1.28505(4) 1.48684(4)
W3A W -0.80591(4) -1.10205(4) 1.69064(3)
W4A W -0.37215(5) -1.18712(5) 1.30007(4)
W5A W -0.33299(5) -1.03037(5) 1.72554(4)
W6A W -0.50597(4) -1.31738(4) 1.70866(3)
O5A O -0.3327(11) -1.3287(14) 1.6236(10)
O6A O -0.7944(11) -0.8816(12) 1.3666(9)
O7A O -0.431(1) -1.1957(12) 1.7703(9)
O8A O -0.4975(9) -0.9360(11) 1.7671(9)
O9A O -0.5127(11) -1.2972(11) 1.3876(9)
O10A O -0.9478(9) -1.1504(12) 1.7809(8)
O11A O -0.8023(10) -1.2098(9) 1.5879(8)
O12A O -0.2634(12) -1.2583(8) 1.4077(8)
O13A O -0.7426(12) -0.9721(8) 1.7482(9)
O14A O -0.7307(10) -1.1413(11) 1.3712(8)
O15A O -0.6781(9) -1.2333(9) 1.7536(7)
O16A O -0.9423(8) -0.6917(8) 1.4668(8)
O17A O -0.5089(10) -1.4652(8) 1.8087(7)
O18A O -0.3098(10) -1.2694(9) 1.2029(7)
O19A O -0.7627(9) -1.4189(9) 1.4794(10)
O20A O -0.8667(12) -0.9516(9) 1.5847(9)
O21A O -0.583(1) -1.3659(10) 1.6036(8)
O22A O -0.2556(9) -1.0502(9) 1.8336(7)
Ag1A Ag -1.57788(10) 0.30700(11) 0.98536(8)
C1A C -1.1611(13) 0.6102(12) 0.8639(10)
H1A H -1.16800 0.68740 0.80530
C2A C -1.1932(12) 0.4650(12) 1.0187(10)
H2A H -1.23020 0.42250 1.09160
C3A C -0.9717(11) 0.4832(11) 0.7680(9)
H3A H -0.94450 0.57150 0.71740
H4A H -0.89170 0.43710 0.79490
C4A C -1.0241(12) 0.3974(11) 0.7063(9)
H5A H -0.96140 0.40350 0.63730
H6A H -1.11020 0.43800 0.68810
C5A C -1.0442(12) 0.2485(12) 0.7644(11)
H7A H -1.04980 0.19850 0.71060
H8A H -0.96590 0.21190 0.79810
C6A C -1.2920(12) 0.2791(11) 0.8475(9)
H9A H -1.31620 0.34510 0.78710
C7A C -1.2977(13) 0.1389(12) 1.0029(10)
H10A H -1.32940 0.08800 1.07480
N1A N -1.2404(11) 0.5857(11) 0.9632(9)
N2A N -1.0895(11) 0.4105(10) 0.9619(8)
N3A N -1.0712(9) 0.5076(9) 0.8619(8)
N4A N -1.3768(11) 0.228(1) 0.9412(8)
N5A N -1.1704(10) 0.1299(10) 0.9521(8)
N6A N -1.1689(9) 0.2239(9) 0.8514(8)
Ag1* Ag -1.42212(10) 0.69300(11) 1.01464(8)
Ag1A* Ag -0.57788(10) -0.69300(11) 0.98536(8)
N1* N -1.7596(11) 0.4143(11) 1.0368(9)
N1A* N -0.2404(11) -0.4143(11) 0.9632(9)
#END
