
#######################################################################
#
#                 Cambridge Crystallographic Data Centre
#                                CCDC
#
#######################################################################
#
# If this CIF has been generated from an entry in the Cambridge
# Structural Database, then it will include bibliographic, chemical,
# crystal, experimental, refinement or atomic coordinate data resulting
# from the CCDC's data processing and validation procedures.
#
#######################################################################

data_CSD_CIF_TUTDET
_audit_creation_date 2015-10-01
_audit_creation_method CSD-ConQuest-V1
_database_code_CSD TUTDET
_database_code_depnum_ccdc_archive 'CCDC 1057625'
_chemical_formula_sum 'C72 H113 Cd2 Cl3 N21 O31'
_chemical_formula_moiety
;
(C54 H25 Cd2 Cl3 N12 O24 11-)n,9(C2 H8 N1 1+),2(H3 O1 1+),5(H2 O1)
;
_journal_coden_Cambridge 155
_journal_volume 438
_journal_year 2015
_journal_page_first 153
_journal_name_full 'Inorg.Chim.Acta '
loop_
_publ_author_name
"Ling Di"
"Shu-Qin Liu"
"Ying Xie"
"Jiang Zhu"
"Ying-Ji Sun"
"Jun Ni"
"Jian-Jun Zhang"
_chemical_name_systematic
;
catena-(dioxonium nonakis(dimethylammonium) 
bis(\m-2,2',2''-((1,3,5-triazine-2,4,6-triyl)triimino)tris(terephthalato))-(\m
-chloro)-dichloro-di-cadmium pentahydrate)
;
_cell_volume   4812.112
_exptl_crystal_colour 'colorless'
_exptl_crystal_description 'hexagon'
_diffrn_ambient_temperature 296
_refine_special_details
;
O4 and O4' disordered over two sites with occupancies 0.50:0.50; The 
SQUEEZE/PLATON program has been used to model some disorder.
;
#These two values have been output from a single CSD field.
_refine_ls_R_factor_gt 0.1181
_refine_ls_wR_factor_gt 0.1181
_symmetry_cell_setting hexagonal
_symmetry_space_group_name_H-M 'P 63/m'
_symmetry_Int_Tables_number 176
loop_
_symmetry_equiv_pos_site_id
_symmetry_equiv_pos_as_xyz
1 x,y,z
2 -y,x-y,z
3 -x+y,-x,z
4 -x,-y,1/2+z
5 y,-x+y,1/2+z
6 x-y,x,1/2+z
7 -x,-y,-z
8 y,-x+y,-z
9 x-y,x,-z
10 x,y,-1/2-z
11 -y,x-y,-1/2-z
12 -x+y,-x,-1/2-z
_cell_length_a 15.3164(10)
_cell_length_b 15.3164(10)
_cell_length_c 23.686(3)
_cell_angle_alpha 90
_cell_angle_beta 90
_cell_angle_gamma 120
_cell_formula_units_Z 2
loop_
_atom_type_symbol
_atom_type_radius_bond
C 0.68
H 0.23
Cd 1.44
Cl 0.99
N 0.68
O 0.68
loop_
_atom_site_label
_atom_site_type_symbol
_atom_site_fract_x
_atom_site_fract_y
_atom_site_fract_z
Cd1 Cd 0.66670 0.33330 0.14150(6)
Cl1 Cl 0.66670 0.33330 0.25000
Cl2 Cl 0.66670 0.33330 0.0330(3)
O1 O 0.7193(6) 0.2192(5) 0.1402(4)
O2 O 0.5563(6) 0.1114(6) 0.1498(4)
O3 O 0.6799(6) -0.2800(6) 0.1161(4)
O4 O 0.8294(10) -0.1588(11) 0.0917(9)
N1 N 0.5339(6) -0.2378(6) 0.1276(4)
H1 H 0.55580 -0.27970 0.12560
N2 N 0.3857(6) -0.2284(6) 0.1269(4)
C1 C 0.4310(8) -0.2815(7) 0.1276(5)
C2 C 0.6111(7) -0.1340(7) 0.1304(5)
C3 C 0.5887(8) -0.0555(8) 0.1373(5)
H2 H 0.52210 -0.06990 0.13860
C4 C 0.6689(7) 0.0454(6) 0.1423(4)
C5 C 0.7658(8) 0.0634(7) 0.1410(5)
H3 H 0.81840 0.12950 0.14450
C6 C 0.7883(7) -0.0116(7) 0.1348(5)
H4 H 0.85530 0.00380 0.13460
C7 C 0.7088(8) -0.1146(7) 0.1285(5)
C8 C 0.7456(9) -0.1890(9) 0.1176(8)
C9 C 0.6484(7) 0.1293(7) 0.1450(4)
N3 N 0.8756(7) 0.2913(8) 0.0548(4)
H5 H 0.92130 0.28590 0.07620
H6 H 0.82860 0.29010 0.07810
C10 C 0.9263(13) 0.3891(12) 0.0247(7)
H7 H 0.95650 0.44300 0.05170
H8 H 0.87770 0.39610 0.00260
H9 H 0.97770 0.39160 0.00040
C11 C 0.8279(12) 0.2050(11) 0.0170(6)
H10 H 0.79600 0.14400 0.03880
H11 H 0.87790 0.20460 -0.00720
H12 H 0.77820 0.20950 -0.00550
N4 N 1.6151(15) 0.5502(14) 0.25000
H13 H 1.59970 0.51050 0.28070
C12 C 1.725(2) 0.626(2) 0.25000
H14 H 1.76110 0.58950 0.25000
H15 H 1.74260 0.66740 0.21690
C13 C 1.5516(18) 0.598(2) 0.25000
H16 H 1.48160 0.54660 0.25000
H17 H 1.56620 0.63880 0.28310
O5? O 0.8305(17) -0.1615(17) 0.1567(10)
O1A O -0.2192(6) -0.4999(5) 0.1402(4)
O2A O -0.1114(6) -0.5551(6) 0.1498(4)
O3A O 0.2800(6) -0.0401(6) 0.1161(4)
O4A O 0.1588(10) -0.0118(11) 0.0917(9)
N1A N 0.2378(6) -0.2283(6) 0.1276(4)
H1A H 0.27970 -0.16450 0.12560
N2A N 0.2284(6) -0.3859(6) 0.1269(4)
C1A C 0.2815(8) -0.2875(7) 0.1276(5)
C2A C 0.1340(7) -0.2549(7) 0.1304(5)
C3A C 0.0555(8) -0.3558(8) 0.1373(5)
H2A H 0.06990 -0.40800 0.13860
C4A C -0.0454(7) -0.3765(6) 0.1423(4)
C5A C -0.0634(8) -0.2976(7) 0.1410(5)
H3A H -0.12950 -0.31110 0.14450
C6A C 0.0116(7) -0.2001(7) 0.1348(5)
H4A H -0.00380 -0.14850 0.13460
C7A C 0.1146(8) -0.1766(7) 0.1285(5)
C8A C 0.1890(9) -0.0654(9) 0.1176(8)
C9A C -0.1293(7) -0.4809(7) 0.1450(4)
O1B O 0.4999(6) -0.7193(5) 0.1402(4)
O2B O 0.5551(6) -0.5563(6) 0.1498(4)
O3B O 0.0401(6) -0.6799(6) 0.1161(4)
O4B O 0.0118(10) -0.8294(11) 0.0917(9)
N1B N 0.2283(6) -0.5339(6) 0.1276(4)
H1B H 0.16450 -0.55580 0.12560
N2B N 0.3859(6) -0.3857(6) 0.1269(4)
C1B C 0.2875(8) -0.4310(7) 0.1276(5)
C2B C 0.2549(7) -0.6111(7) 0.1304(5)
C3B C 0.3558(8) -0.5887(8) 0.1373(5)
H2B H 0.40800 -0.52210 0.13860
C4B C 0.3765(7) -0.6689(6) 0.1423(4)
C5B C 0.2976(8) -0.7658(7) 0.1410(5)
H3B H 0.31110 -0.81840 0.14450
C6B C 0.2001(7) -0.7883(7) 0.1348(5)
H4B H 0.14850 -0.85530 0.13460
C7B C 0.1766(8) -0.7088(7) 0.1285(5)
C8B C 0.0654(9) -0.7456(9) 0.1176(8)
C9B C 0.4809(7) -0.6484(7) 0.1450(4)
Cd1I Cd 0.66670 0.33330 0.35850(6)
Cl2I Cl 0.66670 0.33330 0.4670(3)
O1I O 0.7193(6) 0.2192(5) 0.3598(4)
O2I O 0.5563(6) 0.1114(6) 0.3502(4)
O3I O 0.6799(6) -0.2800(6) 0.3839(4)
O4I O 0.8294(10) -0.1588(11) 0.4083(9)
N1I N 0.5339(6) -0.2378(6) 0.3724(4)
H1I H 0.55580 -0.27970 0.37440
N2I N 0.3857(6) -0.2284(6) 0.3731(4)
C1I C 0.4310(8) -0.2815(7) 0.3724(5)
C2I C 0.6111(7) -0.1340(7) 0.3696(5)
C3I C 0.5887(8) -0.0555(8) 0.3627(5)
H2I H 0.52210 -0.06990 0.36140
C4I C 0.6689(7) 0.0454(6) 0.3577(4)
C5I C 0.7658(8) 0.0634(7) 0.3590(5)
H3I H 0.81840 0.12950 0.35550
C6I C 0.7883(7) -0.0116(7) 0.3652(5)
H4I H 0.85530 0.00380 0.36540
C7I C 0.7088(8) -0.1146(7) 0.3715(5)
C8I C 0.7456(9) -0.1890(9) 0.3824(8)
C9I C 0.6484(7) 0.1293(7) 0.3550(4)
O1J O -0.2192(6) -0.4999(5) 0.3598(4)
O2J O -0.1114(6) -0.5551(6) 0.3502(4)
O3J O 0.2800(6) -0.0401(6) 0.3839(4)
O4J O 0.1588(10) -0.0118(11) 0.4083(9)
N1J N 0.2378(6) -0.2283(6) 0.3724(4)
H1J H 0.27970 -0.16450 0.37440
N2J N 0.2284(6) -0.3859(6) 0.3731(4)
C1J C 0.2815(8) -0.2875(7) 0.3724(5)
C2J C 0.1340(7) -0.2549(7) 0.3696(5)
C3J C 0.0555(8) -0.3558(8) 0.3627(5)
H2J H 0.06990 -0.40800 0.36140
C4J C -0.0454(7) -0.3765(6) 0.3577(4)
C5J C -0.0634(8) -0.2976(7) 0.3590(5)
H3J H -0.12950 -0.31110 0.35550
C6J C 0.0116(7) -0.2001(7) 0.3652(5)
H4J H -0.00380 -0.14850 0.36540
C7J C 0.1146(8) -0.1766(7) 0.3715(5)
C8J C 0.1890(9) -0.0654(9) 0.3824(8)
C9J C -0.1293(7) -0.4809(7) 0.3550(4)
O1K O 0.4999(6) -0.7193(5) 0.3598(4)
O2K O 0.5551(6) -0.5563(6) 0.3502(4)
O3K O 0.0401(6) -0.6799(6) 0.3839(4)
O4K O 0.0118(10) -0.8294(11) 0.4083(9)
N1K N 0.2283(6) -0.5339(6) 0.3724(4)
H1K H 0.16450 -0.55580 0.37440
N2K N 0.3859(6) -0.3857(6) 0.3731(4)
C1K C 0.2875(8) -0.4310(7) 0.3724(5)
C2K C 0.2549(7) -0.6111(7) 0.3696(5)
C3K C 0.3558(8) -0.5887(8) 0.3627(5)
H2K H 0.40800 -0.52210 0.36140
C4K C 0.3765(7) -0.6689(6) 0.3577(4)
C5K C 0.2976(8) -0.7658(7) 0.3590(5)
H3K H 0.31110 -0.81840 0.35550
C6K C 0.2001(7) -0.7883(7) 0.3652(5)
H4K H 0.14850 -0.85530 0.36540
C7K C 0.1766(8) -0.7088(7) 0.3715(5)
C8K C 0.0654(9) -0.7456(9) 0.3824(8)
C9K C 0.4809(7) -0.6484(7) 0.3550(4)
Cd1* Cd -0.33330 -0.66670 0.14150(6)
Cd1** Cd 0.66670 -0.66670 0.14150(6)
Cd1I* Cd -0.33330 -0.66670 0.35850(6)
Cd1I** Cd 0.66670 -0.66670 0.35850(6)
O1A* O 0.7808(6) 0.5001(5) 0.1402(4)
O1B* O 0.4999(6) 0.2807(5) 0.1402(4)
O1J* O 0.7808(6) 0.5001(5) 0.3598(4)
O1K* O 0.4999(6) 0.2807(5) 0.3598(4)
H13I H 1.59970 0.51050 0.21930
H15I H 1.74260 0.66740 0.28310
H17I H 1.56620 0.63880 0.21690
#END
