
#######################################################################
#
#                 Cambridge Crystallographic Data Centre
#                                CCDC
#
#######################################################################
#
# If this CIF has been generated from an entry in the Cambridge
# Structural Database, then it will include bibliographic, chemical,
# crystal, experimental, refinement or atomic coordinate data resulting
# from the CCDC's data processing and validation procedures.
#
#######################################################################

data_CSD_CIF_TUTMAZ
_audit_creation_date 2020-07-22
_audit_creation_method CSD-ConQuest-V1
_database_code_CSD TUTMAZ
_database_code_depnum_ccdc_archive 'CCDC 1939149'
_chemical_formula_sum 'C18 H30 Cd2 Cl1 Co1 N6 O15'
_chemical_formula_moiety
;
(C18 H6 Cd2 Cl1 O12 2-)n,H18 Co1 N6 2+,3(H2 O1)
;
_journal_coden_Cambridge 603
_journal_volume 39
_journal_year 2020
_journal_page_first 1337
_journal_name_full 'Jiegou Huaxue(Chin.)(Chin.J.Struct.Chem.) '
loop_
_publ_author_name
"Fu-Xiang Wang"
"Guo-Jian Ren"
"Rui-Jing Tian"
"Li-Juan Feng"
"Yong-Hang Yang"
"Yong-Yan Deng"
"Qin-He Pan"
_chemical_name_systematic
;
catena-[hexaammine-cobalt(iii) 
(\m-chloro)-bis(\m-benzene-1,3,5-tricarboxylato)-di-cadmium(ii) trihydrate]
;
_chemical_name_common
;
HNU-38
;
_cell_volume   2764.314
_exptl_crystal_colour 'orange'
_exptl_crystal_density_diffrn 2.138
_exptl_crystal_description 'polyhedron'
_diffrn_ambient_temperature 293
#These two values have been output from a single CSD field.
_refine_ls_R_factor_gt 0.0362
_refine_ls_wR_factor_gt 0.0362
_symmetry_cell_setting monoclinic
_symmetry_space_group_name_H-M 'P 21/c'
_symmetry_Int_Tables_number 14
loop_
_symmetry_equiv_pos_site_id
_symmetry_equiv_pos_as_xyz
1 x,y,z
2 -x,1/2+y,1/2-z
3 -x,-y,-z
4 x,-1/2-y,-1/2+z
_cell_length_a 9.9696(3)
_cell_length_b 17.0580(6)
_cell_length_c 16.5263(6)
_cell_angle_alpha 90
_cell_angle_beta 100.400(2)
_cell_angle_gamma 90
_cell_formula_units_Z 4
loop_
_atom_type_symbol
_atom_type_radius_bond
C 0.68
H 0.23
Cd 1.44
Cl 0.99
Co 1.26
N 0.68
O 0.68
loop_
_atom_site_label
_atom_site_type_symbol
_atom_site_fract_x
_atom_site_fract_y
_atom_site_fract_z
Cd1 Cd 0.83968(3) 0.191850(18) 0.91825(2)
Cd2 Cd 0.75474(3) 0.190979(17) 0.599346(19)
Cl1 Cl 0.81956(14) 0.20351(7) 0.75695(8)
O1 O 0.9936(3) 0.09740(18) 0.9263(2)
O2 O 1.1246(3) 0.19975(19) 0.9143(2)
O3 O 1.1738(3) -0.17039(16) 0.9366(2)
O4 O 1.3751(3) -0.19258(17) 0.9045(2)
O5 O 1.6798(3) 0.03108(18) 0.8693(2)
O6 O 1.6176(3) 0.15183(17) 0.8972(2)
O7 O 0.5416(3) 0.14667(17) 0.5892(2)
O8 O 0.6185(3) 0.02700(19) 0.6208(2)
O9 O 0.0445(3) 0.20071(17) 0.6071(2)
O10 O -0.0922(3) 0.09700(17) 0.5988(2)
O11 O 0.0800(3) -0.17104(17) 0.5929(2)
O12 O 0.2702(3) -0.19080(16) 0.54719(19)
C1 C 1.2221(4) 0.0729(2) 0.9123(3)
C2 C 1.2051(4) -0.0073(2) 0.9224(3)
H1 H 1.12340 -0.02610 0.93450
C3 C 1.3095(4) -0.0599(2) 0.9146(3)
C4 C 1.4333(4) -0.0306(2) 0.9003(3)
H2 H 1.50330 -0.06520 0.89530
C5 C 1.4545(4) 0.0494(2) 0.8933(3)
C6 C 1.3476(4) 0.1007(2) 0.8980(3)
H3 H 1.35990 0.15420 0.89160
C7 C 1.1060(4) 0.1276(3) 0.9176(3)
C8 C 1.2859(4) -0.1460(2) 0.9198(3)
C9 C 1.5944(4) 0.0796(2) 0.8846(3)
C10 C 0.3798(4) 0.0473(2) 0.5977(3)
C11 C 0.2746(4) 0.1003(2) 0.6013(3)
H4 H 0.29310 0.15370 0.60560
C12 C 0.1410(4) 0.0734(2) 0.5985(3)
C13 C 0.1144(4) -0.0061(2) 0.5892(3)
H5 H 0.02570 -0.02430 0.58640
C14 C 0.2200(4) -0.0595(2) 0.5841(3)
C15 C 0.3504(4) -0.0323(2) 0.5878(3)
H6 H 0.42000 -0.06750 0.58360
C16 C 0.5249(4) 0.0749(3) 0.6035(3)
C17 C 0.0245(4) 0.1295(3) 0.6022(3)
C18 C 0.1870(4) -0.1448(2) 0.5737(3)
Co1 Co 0.15866(6) 0.39044(3) 0.75049(4)
N1 N 0.1823(4) 0.2759(2) 0.7544(3)
H7 H 0.10180 0.25290 0.75350
H8 H 0.23880 0.26260 0.80040
H9 H 0.21690 0.26020 0.71110
N2 N 0.1314(4) 0.3879(2) 0.6296(2)
H10 H 0.04340 0.38050 0.60930
H11 H 0.18000 0.34890 0.61370
H12 H 0.15850 0.43320 0.61120
N3 N 0.3528(4) 0.4072(2) 0.7541(2)
H13 H 0.36960 0.40950 0.70310
H14 H 0.39960 0.36780 0.78090
H15 H 0.37790 0.45210 0.78000
N4 N -0.0380(4) 0.3767(2) 0.7449(2)
H16 H -0.07920 0.37450 0.69240
H17 H -0.07080 0.41710 0.76940
H18 H -0.05320 0.33250 0.77020
N5 N 0.1343(4) 0.50487(19) 0.7468(3)
H19 H 0.04670 0.51630 0.74480
H20 H 0.16160 0.52390 0.70230
H21 H 0.18370 0.52620 0.79170
N6 N 0.1913(4) 0.3909(2) 0.8715(2)
H22 H 0.11260 0.38400 0.88890
H23 H 0.22750 0.43670 0.88990
H24 H 0.24840 0.35230 0.89050
O13 O 0.4319(3) 0.2027(2) 0.4315(2)
O14 O 0.3363(3) 0.29750(19) 0.5724(2)
O15 O 0.4799(4) 0.2428(3) 0.7510(3)
Cd1* Cd 1.83968(3) 0.191850(18) 0.91825(2)
Cd1A Cd 0.16032(3) -0.308150(18) 0.58175(2)
Cd1B Cd 1.16032(3) -0.191850(18) 1.08175(2)
Cd2* Cd -0.24526(3) 0.190979(17) 0.599346(19)
Cd2A Cd 1.24526(3) -0.309021(17) 0.900654(19)
Cd2B Cd 0.24526(3) -0.190979(17) 0.400654(19)
O3A O 0.8262(3) 0.32961(16) 0.5634(2)
O3B O 0.8262(3) 0.17039(16) 1.0634(2)
O4A O 0.6249(3) 0.30742(17) 0.5955(2)
O6* O 0.6176(3) 0.15183(17) 0.8972(2)
O10* O 0.9078(3) 0.09700(17) 0.5988(2)
O11A O 0.9200(3) 0.32896(17) 0.9071(2)
O12A O 0.7298(3) 0.30920(16) 0.95281(19)
O12B O 0.7298(3) 0.19080(16) 0.45281(19)
#END
