
#######################################################################
#
#                 Cambridge Crystallographic Data Centre
#                                CCDC
#
#######################################################################
#
# If this CIF has been generated from an entry in the Cambridge
# Structural Database, then it will include bibliographic, chemical,
# crystal, experimental, refinement or atomic coordinate data resulting
# from the CCDC's data processing and validation procedures.
#
#######################################################################

data_CSD_CIF_TUTZOY
_audit_creation_date 2010-10-20
_audit_creation_method CSD-ConQuest-V1
_database_code_CSD TUTZOY
_database_code_depnum_ccdc_archive 'CCDC 757874'
_chemical_formula_sum 'C20 H42 Ga10 N6 S16'
_chemical_formula_moiety
;
(C16 H26 Ga10 N4 S16 2-)n,2n(C2 H8 N1 1+)
;
_journal_coden_Cambridge 1220
_journal_volume 16
_journal_year 2010
_journal_page_first 4462
_journal_name_full 'Chem.-Eur.J. '
loop_
_publ_author_name
"P.Vaqueiro"
"M.L.Romero"
"B.C.Rowan"
"B.S.Richards"
_chemical_name_systematic
;
catena-(tetrakis(\m~3~-sulfido)-(\m~2~-4,4'-ethane-1,2-diyldipyridine)-dodecak
is(\m~2~-sulfido)-bis(ethylamine)-deca-gallium bis(ethylammonium))
;
_cell_volume   3904.356
_exptl_crystal_colour 'colorless'
_exptl_crystal_density_diffrn 2.012
_exptl_special_details
;
Absolute configuration

;
_exptl_crystal_description 'plate'
_diffrn_ambient_temperature 100
#These two values have been output from a single CSD field.
_refine_ls_R_factor_gt 0.027
_refine_ls_wR_factor_gt 0.027
_symmetry_cell_setting hexagonal
_symmetry_space_group_name_H-M 'P 32 2 1'
_symmetry_Int_Tables_number 154
loop_
_symmetry_equiv_pos_site_id
_symmetry_equiv_pos_as_xyz
1 x,y,z
2 -y,x-y,2/3+z
3 -x+y,-x,1/3+z
4 y,x,-z
5 x-y,-y,1/3-z
6 -x,-x+y,2/3-z
_cell_length_a 18.2994(3)
_cell_length_b 18.2994(3)
_cell_length_c 13.4631(5)
_cell_angle_alpha 90
_cell_angle_beta 90
_cell_angle_gamma 120
_cell_formula_units_Z 3
loop_
_atom_type_symbol
_atom_type_radius_bond
C 0.68
H 0.23
Ga 1.22
N 0.68
S 1.02
loop_
_atom_site_label
_atom_site_type_symbol
_atom_site_fract_x
_atom_site_fract_y
_atom_site_fract_z
Ga1 Ga 0.71714(3) 0.78770(3) 0.24104(3)
Ga2 Ga 0.76728(4) 0.76728(4) 0.00000
Ga3 Ga 0.69645(3) 0.54544(3) -0.08912(3)
Ga4 Ga 0.65607(3) 0.58168(3) 0.17932(3)
Ga5 Ga 0.47253(4) 0.47253(4) 0.00000
Ga6 Ga 0.58784(3) 0.37989(3) 0.08161(4)
S1 S 0.81725(8) 0.85762(7) 0.12671(8)
S2 S 0.59329(8) 0.78362(8) 0.21715(9)
S3 S 0.70745(8) 0.66977(7) 0.30623(8)
S4 S 0.74863(7) 0.63624(7) 0.04567(7)
S5 S 0.68274(9) 0.42132(8) -0.04388(9)
S6 S 0.56458(7) 0.52569(7) -0.13366(8)
S7 S 0.64187(9) 0.45723(8) 0.21969(8)
S8 S 0.45600(8) 0.34613(8) 0.03872(9)
N1 N 0.7592(3) 0.8640(3) 0.3613(3)
C1 C 0.8092(5) 0.9486(5) 0.3526(6)
C2 C 0.8286(5) 1.0001(5) 0.4332(6)
C3 C 0.7980(5) 0.9692(5) 0.5264(6)
C4 C 0.7409(4) 0.8822(4) 0.5335(4)
C5 C 0.7227(4) 0.8344(4) 0.4493(5)
C6 C 0.8179(5) 1.0246(5) 0.6161(6)
N2 N 0.5797(3) 0.2700(3) 0.1188(3)
C7 C 0.5078(4) 0.2110(4) 0.1804(5)
C8 C 0.5080(5) 0.1290(5) 0.2009(5)
C9 C 0.9627(7) 0.6040(7) 0.9979(8)
C10 C 0.9245(5) 0.6040(5) 1.0957(6)
N3 N 0.8474(4) 0.5190(3) 1.1188(4)
H1 H 0.83200 0.97390 0.28590
H2 H 0.86640 1.06230 0.42440
H3 H 0.71430 0.85600 0.59840
H4 H 0.67910 0.77320 0.45380
H5 H 0.88000 1.06550 0.61700
H6 H 0.78660 1.05630 0.61070
H7 H 0.51060 0.23910 0.24520
H8 H 0.45440 0.19740 0.14520
H9 H 0.45820 0.09110 0.24300
H10 H 0.56110 0.14180 0.23660
H11 H 0.50490 0.10010 0.13660
H12 H 1.01300 0.66080 0.98560
H13 H 0.98040 0.56040 0.99820
H14 H 0.92020 0.59070 0.94390
H15 H 0.96760 0.61770 1.14870
H16 H 0.90740 0.64800 1.09450
H17 H 0.83850 0.51310 1.19230
H18 H 0.85640 0.47280 1.09350
H19 H 0.79670 0.51540 1.08610
H20 H 0.63230 0.28340 0.15580
H21 H 0.57700 0.24000 0.05570
Ga1C Ga 0.78770(3) 0.71714(3) -0.24104(3)
Ga1D Ga 0.92944(3) 1.21230(3) 1.092293(30)
Ga3C Ga 0.54544(3) 0.69645(3) 0.08912(3)
Ga4C Ga 0.58168(3) 0.65607(3) -0.17932(3)
Ga6C Ga 0.37989(3) 0.58784(3) -0.08161(4)
S1C S 0.85762(8) 0.81725(7) -0.12671(8)
S2C S 0.78362(8) 0.59329(8) -0.21715(9)
S3C S 0.66977(8) 0.70745(7) -0.30623(8)
S4C S 0.63624(7) 0.74863(7) -0.04567(7)
S5C S 0.42132(9) 0.68274(8) 0.04388(9)
S6C S 0.52569(7) 0.56458(7) 0.13366(8)
S7C S 0.45723(9) 0.64187(8) -0.21969(8)
S8C S 0.34613(8) 0.45600(8) -0.03872(9)
N1D N 0.8952(3) 1.1360(3) 0.972033(300)
N1C N 0.8640(3) 0.7592(3) -0.3613(3)
C1D C 0.8606(5) 1.0514(5) 0.980733(600)
C2D C 0.8285(5) 0.9999(5) 0.900133(600)
C3D C 0.8288(5) 1.0308(5) 0.806933(600)
C4D C 0.8587(4) 1.1178(4) 0.799833(400)
C5D C 0.8883(4) 1.1656(4) 0.884033(500)
C6D C 0.7933(5) 0.9754(5) 0.717233(600)
N2C N 0.2700(3) 0.5797(3) -0.1188(3)
C7C C 0.2110(4) 0.5078(4) -0.1804(5)
C8C C 0.1290(5) 0.5080(5) -0.2009(5)
H1D H 0.85810 1.02610 1.04743
H2D H 0.80410 0.93770 0.90893
H3D H 0.85830 1.14400 0.73493
H4D H 0.90590 1.22680 0.87953
H5D H 0.81450 0.93450 0.71633
H6D H 0.73030 0.94370 0.72263
H7C H 0.23910 0.51060 -0.24520
H8C H 0.19740 0.45440 -0.14520
H9C H 0.09110 0.45820 -0.24300
H10C H 0.14180 0.56110 -0.23660
H11C H 0.10010 0.50490 -0.13660
H20C H 0.28340 0.63230 -0.15580
H21C H 0.24000 0.57700 -0.05570
#END
