
#######################################################################
#
#                 Cambridge Crystallographic Data Centre
#                                CCDC
#
#######################################################################
#
# If this CIF has been generated from an entry in the Cambridge
# Structural Database, then it will include bibliographic, chemical,
# crystal, experimental, refinement or atomic coordinate data resulting
# from the CCDC's data processing and validation procedures.
#
#######################################################################

data_CSD_CIF_TUVGIC
_audit_creation_date 2015-10-01
_audit_creation_method CSD-ConQuest-V1
_database_code_CSD TUVGIC
_database_code_depnum_ccdc_archive 'CCDC 1063971'
_chemical_formula_sum 'C60 H74 Co2 N30 O86 P2 W24'
_chemical_formula_moiety
;
(C60 H70 Co2 N30 O4 6+)n,2n(H2 O1),2n(O40 P1 W12 3-)
;
_journal_coden_Cambridge 1350
_journal_volume 17
_journal_year 2015
_journal_page_first 7938
_journal_name_full 'CrystEngComm '
loop_
_publ_author_name
"Yuan-Yuan Ma"
"Hua-Qiao Tan"
"Yong-Hui Wang"
"Xiu-Li Hao"
"Xiao-Jia Feng"
"Hong-Ying Zang"
"Yang-Guang Li"
_chemical_name_systematic
;
catena-(tris(\m~2~-1-(4-(4H-1,2,4-Triazol-4-ylmethyl)benzyl)-1H-1,2,4-triazola
to)-tetra-aqua-bis(1-(4-(4H-1,2,4-triazol-4-ylmethyl)benzyl)-1H-1,2,4-triazole
)-di-cobalt 
bis((\m~12~-phosphato)-tetracosakis(\m~2~-oxo)-dodecaoxo-dodeca-tungsten) 
dihydrate)
;
_cell_volume  12666.568
_exptl_crystal_colour 'brown'
_exptl_crystal_density_diffrn 3.767
_exptl_crystal_description 'block'
_diffrn_ambient_temperature 298
#These two values have been output from a single CSD field.
_refine_ls_R_factor_gt 0.0459
_refine_ls_wR_factor_gt 0.0459
_symmetry_cell_setting monoclinic
_symmetry_space_group_name_H-M 'C 2/c'
_symmetry_Int_Tables_number 15
loop_
_symmetry_equiv_pos_site_id
_symmetry_equiv_pos_as_xyz
1 x,y,z
2 -x,y,1/2-z
3 1/2+x,1/2+y,z
4 1/2-x,1/2+y,1/2-z
5 -x,-y,-z
6 x,-y,-1/2+z
7 -1/2-x,-1/2-y,-z
8 -1/2+x,-1/2-y,-1/2+z
_cell_length_a 39.245(8)
_cell_length_b 15.242(3)
_cell_length_c 23.514(5)
_cell_angle_alpha 90
_cell_angle_beta 115.77(3)
_cell_angle_gamma 90
_cell_formula_units_Z 4
loop_
_atom_type_symbol
_atom_type_radius_bond
C 0.68
H 0.23
Co 1.26
N 0.68
O 0.68
P 1.05
W 1.62
loop_
_atom_site_label
_atom_site_type_symbol
_atom_site_fract_x
_atom_site_fract_y
_atom_site_fract_z
W1 W 0.197203(19) 0.89370(4) 0.10813(3)
W2 W 0.181940(18) 0.80691(4) 0.34997(3)
W3 W 0.236550(17) 0.88780(4) 0.28196(3)
W4 W 0.161986(18) 1.04765(4) 0.19194(3)
W5 W 0.17336(2) 0.67674(4) 0.09602(3)
W6 W 0.071269(19) 0.98169(5) 0.10110(3)
W7 W 0.215394(18) 0.66951(4) 0.27001(3)
W8 W 0.107679(18) 0.97135(4) 0.26180(3)
W9 W 0.083531(19) 0.73583(4) 0.25355(3)
W10 W 0.11645(2) 0.59604(4) 0.17622(3)
W11 W 0.048432(19) 0.74481(5) 0.09263(3)
W12 W 0.10620(2) 0.82979(5) 0.01552(3)
P1 P 0.14189(12) 0.8197(3) 0.1833(2)
O1 O 0.2796(3) 0.9350(7) 0.3157(6)
O2 O 0.2037(3) 0.7739(8) 0.0917(5)
O3 O 0.0809(4) 0.8394(8) -0.0634(6)
O4 O 0.1900(3) 0.5926(7) 0.0681(5)
O5 O 0.1142(4) 0.4841(7) 0.1728(6)
O6 O 0.2250(3) 0.8728(7) 0.3519(5)
O7 O 0.1334(4) 0.7221(8) 0.0227(5)
O8 O 0.2271(3) 0.9437(7) 0.0846(6)
O9 O 0.0028(4) 0.7252(9) 0.0398(6)
O10 O 0.1117(3) 0.7529(7) 0.1788(5)
O11 O 0.1754(3) 0.9904(6) 0.1335(5)
O12 O 0.0838(3) 0.8588(7) 0.2536(5)
O13 O 0.1931(4) 0.8040(8) 0.4279(5)
O14 O 0.1515(3) 0.8921(7) 0.0297(6)
O15 O 0.0349(3) 1.0433(8) 0.0514(6)
O16 O 0.0903(3) 0.9267(7) 0.0469(5)
O17 O 0.1277(3) 0.9122(6) 0.1832(5)
O18 O 0.0615(4) 0.7084(7) 0.3000(6)
O19 O 0.0689(3) 0.6287(7) 0.1104(6)
O20 O 0.1802(3) 1.1503(7) 0.1989(6)
O21 O 0.0933(3) 1.0284(6) 0.3090(5)
O22 O 0.2500(3) 0.7653(7) 0.2892(5)
O23 O 0.0489(3) 0.8693(7) 0.0998(5)
O24 O 0.1403(3) 1.0564(6) 0.2497(5)
O25 O 0.2071(3) 0.6725(7) 0.1848(5)
O26 O 0.1509(3) 0.8094(6) 0.1265(5)
O27 O 0.1527(3) 0.9105(6) 0.3204(5)
O28 O 0.2443(3) 0.5825(7) 0.3007(5)
O29 O 0.0743(3) 0.7645(7) 0.0409(5)
O30 O 0.1119(3) 1.0644(7) 0.1260(5)
O31 O 0.1780(3) 0.8031(6) 0.2446(4)
O32 O 0.1359(3) 0.7447(6) 0.3145(5)
O33 O 0.2033(3) 0.9831(6) 0.2557(5)
O34 O 0.1664(3) 0.6161(6) 0.2399(5)
O35 O 0.0445(3) 0.7351(8) 0.1707(5)
O36 O 0.0702(3) 1.0034(7) 0.1800(5)
O37 O 0.0966(3) 0.6211(6) 0.2345(5)
O38 O 0.2269(3) 0.8759(6) 0.1961(5)
O39 O 0.1385(3) 0.6216(6) 0.1181(5)
O40 O 0.2079(3) 0.7042(6) 0.3427(4)
Co1 Co 0.11930(6) 0.31885(15) 0.03521(11)
O41 O 0.1696(4) 0.2459(8) 0.0896(6)
H1 H 0.16960 0.21870 0.12120
H2 H 0.18430 0.21860 0.07780
O42 O 0.1460(3) 0.4235(8) 0.0955(6)
H3 H 0.15750 0.46650 0.08880
H4 H 0.14020 0.43820 0.12520
N1 N 0.1519(3) 0.3629(7) -0.0151(5)
C1 C 0.1381(2) 0.3990(8) -0.0746(5)
H5 H 0.11290 0.39930 -0.10440
N2 N 0.1681(3) 0.4348(7) -0.0821(4)
N3 N 0.2005(2) 0.4208(7) -0.0273(5)
C2 C 0.1904(3) 0.3764(7) 0.0142(4)
H6 H 0.20680 0.35860 0.05480
C3 C 0.1675(6) 0.4744(12) -0.1366(8)
H7 H 0.14190 0.47080 -0.17000
H8 H 0.18370 0.44070 -0.15010
C4 C 0.1798(4) 0.5677(6) -0.1296(5)
C5 C 0.1882(4) 0.6001(7) -0.1773(5)
H9 H 0.18560 0.56410 -0.21090
C6 C 0.2005(4) 0.6861(7) -0.1748(5)
H10 H 0.20610 0.70780 -0.20670
C7 C 0.2044(3) 0.7399(6) -0.1246(6)
C8 C 0.1959(4) 0.7075(7) -0.0769(5)
H11 H 0.19850 0.74350 -0.04330
C9 C 0.1836(4) 0.6215(7) -0.0794(5)
H12 H 0.17800 0.59980 -0.04750
C10 C 0.2195(7) 0.8326(11) -0.1237(12)
H13 H 0.24690 0.83170 -0.10160
H14 H 0.21260 0.85150 -0.16670
N4 N 0.2055(3) 0.8925(7) -0.0944(6)
C11 C 0.2245(3) 0.9585(8) -0.0524(6)
H15 H 0.25020 0.97050 -0.03620
N5 N 0.1985(5) 1.0036(7) -0.0387(6)
H16 H 0.20330 1.04780 -0.01360
C12 C 0.1636(4) 0.9655(8) -0.0722(7)
H17 H 0.14110 0.98310 -0.07160
N6 N 0.1679(3) 0.8969(7) -0.1066(6)
N7 N 0.0973(3) 0.2103(6) -0.0235(5)
C13 C 0.0631(3) 0.1680(7) -0.0424(5)
H18 H 0.04390 0.18330 -0.03110
N8 N 0.0624(3) 0.0989(6) -0.0807(5)
N9 N 0.0961(3) 0.0986(8) -0.0856(6)
C14 C 0.1177(3) 0.1674(8) -0.0503(6)
H19 H 0.14180 0.18230 -0.04530
C15 C 0.0328(5) 0.0385(11) -0.1126(10)
H20 H 0.01310 0.04830 -0.09880
H21 H 0.04250 -0.02020 -0.09950
C16 C 0.0150(5) 0.0418(9) -0.1834(7)
C17 C 0.0075(6) -0.0361(10) -0.2176(8)
H22 H 0.01270 -0.08930 -0.19620
C18 C 0.0073(5) 0.1185(9) -0.2190(8)
H23 H 0.01270 0.17210 -0.19800
N10 N 0.0731(4) 0.3982(10) -0.0204(7)
C19 C 0.0502(4) 0.3925(9) -0.0841(7)
H24 H 0.04900 0.34540 -0.11010
N11 N 0.0294(5) 0.4685(12) -0.1027(7)
C20 C 0.0394(6) 0.5212(10) -0.0504(10)
H25 H 0.02960 0.57650 -0.04960
N12 N 0.0664(6) 0.4778(12) 0.0005(7)
C21 C 0.0105(5) 0.5086(16) -0.1634(9)
H26 H -0.0081(7) 0.538(3) -0.164(2)
H27 H 0.0033(13) 0.469(2) -0.1912(9)
C22 C 0.0357(6) 0.5674(14) -0.1757(11)
C23 C 0.0482(6) 0.5374(12) -0.2186(11)
H28 H 0.04370 0.48010 -0.23240
C24 C 0.0673(7) 0.5928(18) -0.2407(10)
H29 H 0.07570 0.57250 -0.26970
C25 C 0.0740(7) 0.6782(16) -0.2201(12)
C26 C 0.0616(7) 0.7083(12) -0.1772(12)
H30 H 0.06610 0.76610 -0.16320
C27 C 0.0424(7) 0.6528(16) -0.1551(10)
H31 H 0.03400 0.67320 -0.12610
C28 C 0.0935(9) 0.745(2) -0.2452(15)
H32 H 0.08380 0.80270 -0.24320
H33 H 0.12030 0.74500 -0.21690
C29 C 0.1147(3) 0.7214(10) -0.3357(7)
H34 H 0.14090 0.72290 -0.31350
N13 N 0.0892(5) 0.7306(10) -0.3102(7)
N14 N 0.0532(4) 0.7245(13) -0.3587(9)
C30 C 0.0565(4) 0.7116(13) -0.4141(7)
H35 H 0.03660 0.70520 -0.45410
N15 N 0.0945(5) 0.7096(10) -0.3999(7)
O43 O 0.2163(4) 1.1344(10) 0.0555(7)
H36 H 0.2220(13) 1.1730(13) 0.0369(18)
H37 H 0.2306(11) 1.127(4) 0.0928(10)
N7A N -0.0973(3) 0.2103(6) -0.4765(5)
C13A C -0.0631(3) 0.1680(7) -0.4576(5)
H18A H -0.04390 0.18330 -0.46890
N8A N -0.0624(3) 0.0989(6) -0.4193(5)
N9A N -0.0961(3) 0.0986(8) -0.4144(6)
C14A C -0.1177(3) 0.1674(8) -0.4497(6)
H19A H -0.14180 0.18230 -0.45470
C15A C -0.0328(5) 0.0385(11) -0.3874(10)
H20A H -0.01310 0.04830 -0.40120
H21A H -0.04250 -0.02020 -0.40050
C16A C -0.0150(5) 0.0418(9) -0.3166(7)
C17A C -0.0075(6) -0.0361(10) -0.2824(8)
H22A H -0.01270 -0.08930 -0.30380
C18A C -0.0073(5) 0.1185(9) -0.2810(8)
H23A H -0.01270 0.17210 -0.30200
Co1A Co -0.11930(6) 0.31885(15) -0.53521(11)
O41A O -0.1696(4) 0.2459(8) -0.5896(6)
H1A H -0.16960 0.21870 -0.62120
H2A H -0.18430 0.21860 -0.57780
O42A O -0.1460(3) 0.4235(8) -0.5955(6)
H3A H -0.15750 0.46650 -0.58880
H4A H -0.14020 0.43820 -0.62520
N1A N -0.1519(3) 0.3629(7) -0.4849(5)
C1A C -0.1381(2) 0.3990(8) -0.4254(5)
H5A H -0.11290 0.39930 -0.39560
N2A N -0.1681(3) 0.4348(7) -0.4179(4)
N3A N -0.2005(2) 0.4208(7) -0.4727(5)
C2A C -0.1904(3) 0.3764(7) -0.5142(4)
H6A H -0.20680 0.35860 -0.55480
C3A C -0.1675(6) 0.4744(12) -0.3634(8)
H7A H -0.14190 0.47080 -0.33000
H8A H -0.18370 0.44070 -0.34990
C4A C -0.1798(4) 0.5677(6) -0.3704(5)
C5A C -0.1882(4) 0.6001(7) -0.3227(5)
H9A H -0.18560 0.56410 -0.28910
C6A C -0.2005(4) 0.6861(7) -0.3252(5)
H10A H -0.20610 0.70780 -0.29330
C7A C -0.2044(3) 0.7399(6) -0.3754(6)
C8A C -0.1959(4) 0.7075(7) -0.4231(5)
H11A H -0.19850 0.74350 -0.45670
C9A C -0.1836(4) 0.6215(7) -0.4206(5)
H12A H -0.17800 0.59980 -0.45250
C10A C -0.2195(7) 0.8326(11) -0.3763(12)
H13A H -0.24690 0.83170 -0.39840
H14A H -0.21260 0.85150 -0.33330
N4A N -0.2055(3) 0.8925(7) -0.4056(6)
C11A C -0.2245(3) 0.9585(8) -0.4476(6)
H15A H -0.25020 0.97050 -0.46380
N5A N -0.1985(5) 1.0036(7) -0.4613(6)
H16A H -0.20330 1.04780 -0.48640
C12A C -0.1636(4) 0.9655(8) -0.4278(7)
H17A H -0.14110 0.98310 -0.42840
N6A N -0.1679(3) 0.8969(7) -0.3934(6)
N10A N -0.0731(4) 0.3982(10) -0.4796(7)
C19A C -0.0502(4) 0.3925(9) -0.4159(7)
H24A H -0.04900 0.34540 -0.38990
N11A N -0.0294(5) 0.4685(12) -0.3973(7)
C20A C -0.0394(6) 0.5212(10) -0.4496(10)
H25A H -0.02960 0.57650 -0.45040
N12A N -0.0664(6) 0.4778(12) -0.5005(7)
C21A C -0.0105(5) 0.5086(16) -0.3366(9)
H26A H 0.0081(7) 0.538(3) -0.336(2)
H27A H -0.0033(13) 0.469(2) -0.3088(9)
C22A C -0.0357(6) 0.5674(14) -0.3243(11)
C23A C -0.0482(6) 0.5374(12) -0.2814(11)
H28A H -0.04370 0.48010 -0.26760
C24A C -0.0673(7) 0.5928(18) -0.2593(10)
H29A H -0.07570 0.57250 -0.23030
C25A C -0.0740(7) 0.6782(16) -0.2799(12)
C26A C -0.0616(7) 0.7083(12) -0.3228(12)
H30A H -0.06610 0.76610 -0.33680
C27A C -0.0424(7) 0.6528(16) -0.3449(10)
H31A H -0.03400 0.67320 -0.37390
C28A C -0.0935(9) 0.745(2) -0.2548(15)
H32A H -0.08380 0.80270 -0.25680
H33A H -0.12030 0.74500 -0.28310
C29A C -0.1147(3) 0.7214(10) -0.1643(7)
H34A H -0.14090 0.72290 -0.18650
N13A N -0.0892(5) 0.7306(10) -0.1898(7)
N14A N -0.0532(4) 0.7245(13) -0.1413(9)
C30A C -0.0565(4) 0.7116(13) -0.0859(7)
H35A H -0.03660 0.70520 -0.04590
N15A N -0.0945(5) 0.7096(10) -0.1001(7)
Co1D Co -0.11930(6) 0.68115(15) -0.03521(11)
Co1E Co 0.11930(6) 0.68115(15) -0.46479(11)
N15D N -0.0945(5) 0.2904(10) -0.6001(7)
N15E N 0.0945(5) 0.2904(10) 0.1001(7)
#END
