
#######################################################################
#
#                 Cambridge Crystallographic Data Centre
#                                CCDC
#
#######################################################################
#
# If this CIF has been generated from an entry in the Cambridge
# Structural Database, then it will include bibliographic, chemical,
# crystal, experimental, refinement or atomic coordinate data resulting
# from the CCDC's data processing and validation procedures.
#
#######################################################################

data_CSD_CIF_TUWPOR
_audit_creation_date 2010-10-20
_audit_creation_method CSD-ConQuest-V1
_database_code_CSD TUWPOR
_database_code_depnum_ccdc_archive 'CCDC 739907'
_chemical_formula_sum 'C56 H74 Cd4 O41'
_chemical_formula_moiety
;
(H12 Cd1 O6 2+)n,n(C56 H48 Cd3 O28 2-),7n(H2 O1)
;
_journal_coden_Cambridge 580
_journal_volume 29
_journal_year 2010
_journal_page_first 1543
_journal_name_full 'Polyhedron '
loop_
_publ_author_name
"W.M.Singh"
"J.B.Baruah"
_chemical_name_systematic
;
catena-(hexaaqua-cadmium 
bis(\m~3~-2,2'-(naphthalene-1,4-diylbis(oxy))diacetato)-bis(\m~2~-2,2'-(naphth
alene-1,4-diylbis(oxy))diacetato)-bis(\m~2~-aqua)-diaqua-tri-cadmium 
heptahydrate)
;
_cell_volume   1667.572
_exptl_crystal_colour 'colorless'
_exptl_crystal_density_diffrn 1.811
_exptl_crystal_description 'blocks'
_diffrn_ambient_temperature 296
#These two values have been output from a single CSD field.
_refine_ls_R_factor_gt 0.0595
_refine_ls_wR_factor_gt 0.0595
_symmetry_cell_setting triclinic
_symmetry_space_group_name_H-M 'P -1'
_symmetry_Int_Tables_number 2
loop_
_symmetry_equiv_pos_site_id
_symmetry_equiv_pos_as_xyz
1 x,y,z
2 -x,-y,-z
_cell_length_a 8.7264(8)
_cell_length_b 14.2760(13)
_cell_length_c 15.1949(14)
_cell_angle_alpha 65.861(5)
_cell_angle_beta 79.139(6)
_cell_angle_gamma 76.007(6)
_cell_formula_units_Z 1
loop_
_atom_type_symbol
_atom_type_radius_bond
C 0.68
H 0.23
Cd 1.63
O 0.68
loop_
_atom_site_label
_atom_site_type_symbol
_atom_site_fract_x
_atom_site_fract_y
_atom_site_fract_z
Cd1 Cd -0.74981(7) 1.29010(4) 0.70758(4)
Cd2 Cd 0.00000 0.50000 0.50000
O1 O 0.0957(7) 0.9138(4) 0.3196(5)
O2 O -0.3731(7) 1.1040(4) 0.5280(4)
O3 O -1.5985(6) 1.6319(4) 1.1270(4)
O4 O -1.1248(6) 1.4989(4) 0.8823(4)
O5 O -0.5854(7) 1.2142(4) 0.6101(4)
O6 O -0.5897(7) 1.0862(5) 0.7534(4)
O7 O -0.9282(7) 1.4316(4) 0.7527(4)
O8 O -0.8610(7) 1.2740(4) 0.8624(4)
O9 O -0.0510(8) 0.7823(5) 0.2950(5)
O10 O 0.0935(8) 0.6435(5) 0.3969(5)
O11 O 0.2540(6) 0.4384(4) 0.5559(4)
O12 O -0.0838(7) 0.5818(4) 0.6057(4)
O13 O -1.4550(7) 1.6723(4) 1.2510(4)
O14 O -1.4429(8) 1.5080(4) 1.3559(4)
C1 C -1.4721(9) 1.5960(5) 1.0714(5)
C2 C -1.3558(10) 1.5141(6) 1.1070(6)
H1 H -1.35470 1.47990 1.17380
C3 C -1.2367(9) 1.4789(6) 1.0463(6)
H2 H -1.15880 1.42120 1.07310
C4 C -1.2335(9) 1.5284(6) 0.9479(5)
C5 C -1.3540(9) 1.6164(5) 0.9070(5)
C6 C -1.3596(10) 1.6688(6) 0.8054(6)
H3 H -1.28090 1.64700 0.76370
C7 C -1.4781(10) 1.7502(6) 0.7680(6)
H4 H -1.47960 1.78350 0.70110
C8 C -1.5969(11) 1.7841(6) 0.8285(6)
H5 H -1.67750 1.83970 0.80180
C9 C -1.5973(9) 1.7364(6) 0.9282(6)
H6 H -1.67710 1.76000 0.96840
C10 C -1.4737(9) 1.6505(6) 0.9686(5)
C11 C -1.0324(9) 1.3955(6) 0.9186(5)
H7 H -1.10260 1.34580 0.95380
H8 H -0.96260 1.39150 0.96320
C12 C -1.610(1) 1.5716(6) 1.2283(5)
H9 H -1.59520 1.49860 1.23830
H10 H -1.71620 1.59130 1.25620
C13 C -0.2287(9) 0.9439(6) 0.5097(6)
H11 H -0.28490 0.90280 0.56460
C14 C -0.0271(10) 0.9509(6) 0.3767(6)
C15 C -0.1096(10) 0.8950(6) 0.4565(6)
H12 H -0.08860 0.82260 0.47770
C16 C -0.0569(9) 1.0651(6) 0.3442(6)
C17 C 0.0301(10) 1.1287(7) 0.2613(6)
H13 H 0.10530 1.09770 0.22440
C18 C 0.0058(10) 1.2320(7) 0.2355(7)
H14 H 0.06420 1.27230 0.18130
C19 C -0.1080(11) 1.2797(6) 0.2901(7)
H15 H -0.12440 1.35170 0.27170
C20 C -0.1943(10) 1.2229(6) 0.3689(6)
H16 H -0.26830 1.25590 0.40470
C21 C -0.1727(9) 1.1136(6) 0.3973(5)
C22 C -0.2621(10) 1.0488(6) 0.4824(5)
C23 C -0.4414(10) 1.0457(6) 0.6219(5)
H17 H -0.35820 1.00220 0.66310
H18 H -0.50390 1.00060 0.61690
C24 C 0.1573(10) 0.8051(7) 0.3587(7)
H19 H 0.16990 0.78440 0.42660
H20 H 0.26170 0.79180 0.32560
C25 C -0.5458(9) 1.1201(6) 0.6654(6)
C26 C -0.9368(9) 1.3679(6) 0.8385(5)
C27 C 0.0545(10) 0.7383(6) 0.3503(6)
C28 C -1.4923(10) 1.5839(7) 1.2815(6)
Cd3 Cd 0.00000 1.00000 0.00000
O15 O 0.1483(8) 1.0959(5) 0.0165(5)
O16 O 0.1385(7) 0.8502(4) 0.0928(5)
O17 O -0.1402(8) 0.9975(5) 0.1447(5)
O18 O 0.4441(8) 0.8507(5) 0.0958(5)
O19 O 0.4153(10) 0.0581(7) 0.0994(6)
O20 O 0.3972(7) 0.3452(5) 0.4234(4)
O21 O 0.50000 0.50000 0.50000
Cd1A Cd 0.74981(7) -0.29010(4) 0.29242(4)
Cd1A* Cd -0.25019(7) 0.70990(4) 0.29242(4)
Cd1* Cd 0.25019(7) 0.29010(4) 0.70758(4)
Cd1A** Cd -1.25019(7) 1.70990(4) 1.29242(4)
O1A O -0.0957(7) 0.0862(4) 0.6804(5)
O2A O 0.3731(7) -0.1040(4) 0.4720(4)
O3A O -0.4015(6) 1.3681(4) 0.8730(4)
O4A O -0.8752(6) 1.5011(4) 1.1177(4)
O5A O 0.5854(7) -0.2142(4) 0.3899(4)
O6A O 0.5897(7) -0.0862(5) 0.2466(4)
O7A O -1.0718(7) 1.5684(4) 1.2473(4)
O7A* O 0.9282(7) -0.4316(4) 0.2473(4)
O8A O -1.1390(7) 1.7260(4) 1.1376(4)
O8A* O 0.8610(7) -0.2740(4) 0.1376(4)
O9A O 0.0510(8) 0.2177(5) 0.7050(5)
O9A* O -0.9490(8) 1.2177(5) 0.7050(5)
O9* O 0.9490(8) -0.2177(5) 0.2950(5)
O10A O -0.0935(8) 0.3565(5) 0.6031(5)
O11A O -0.2540(6) 0.5616(4) 0.4441(4)
O11* O -0.7460(6) 1.4384(4) 0.5559(4)
O11A* O 0.7460(6) -0.4384(4) 0.4441(4)
O12A O 0.0838(7) 0.4182(4) 0.3943(4)
O13A O -0.5450(7) 1.3277(4) 0.7490(4)
O13* O 0.5450(7) -0.3277(4) 0.2510(4)
O14A O -0.5571(8) 1.4920(4) 0.6441(4)
C1A C -0.5279(9) 1.4040(5) 0.9286(5)
C2A C -0.6442(10) 1.4859(6) 0.8930(6)
H1A H -0.64530 1.52010 0.82620
C3A C -0.7633(9) 1.5211(6) 0.9537(6)
H2A H -0.84120 1.57880 0.92690
C4A C -0.7665(9) 1.4716(6) 1.0521(5)
C5A C -0.6460(9) 1.3836(5) 1.0930(5)
C6A C -0.6404(10) 1.3312(6) 1.1946(6)
H3A H -0.71910 1.35300 1.23630
C7A C -0.5219(10) 1.2498(6) 1.2320(6)
H4A H -0.52040 1.21650 1.29890
C8A C -0.4031(11) 1.2159(6) 1.1715(6)
H5A H -0.32250 1.16030 1.19820
C9A C -0.4027(9) 1.2636(6) 1.0718(6)
H6A H -0.32290 1.24000 1.03160
C10A C -0.5263(9) 1.3495(6) 1.0314(5)
C11A C -0.9676(9) 1.6045(6) 1.0814(5)
H7A H -0.89740 1.65420 1.04620
H8A H -1.03740 1.60850 1.03680
C12A C -0.390(1) 1.4284(6) 0.7717(5)
H9A H -0.40480 1.50140 0.76170
H10A H -0.28380 1.40870 0.74380
C13A C 0.2287(9) 0.0561(6) 0.4903(6)
H11A H 0.28490 0.09720 0.43540
C14A C 0.0271(10) 0.0491(6) 0.6233(6)
C15A C 0.1096(10) 0.1050(6) 0.5435(6)
H12A H 0.08860 0.17740 0.52230
C16A C 0.0569(9) -0.0651(6) 0.6558(6)
C17A C -0.0301(10) -0.1287(7) 0.7387(6)
H13A H -0.10530 -0.09770 0.77560
C18A C -0.0058(10) -0.2320(7) 0.7645(7)
H14A H -0.06420 -0.27230 0.81870
C19A C 0.1080(11) -0.2797(6) 0.7099(7)
H15A H 0.12440 -0.35170 0.72830
C20A C 0.1943(10) -0.2229(6) 0.6311(6)
H16A H 0.26830 -0.25590 0.59530
C21A C 0.1727(9) -0.1136(6) 0.6027(5)
C22A C 0.2621(10) -0.0488(6) 0.5176(5)
C23A C 0.4414(10) -0.0457(6) 0.3781(5)
H17A H 0.35820 -0.00220 0.33690
H18A H 0.50390 -0.00060 0.38310
C24A C -0.1573(10) 0.1949(7) 0.6413(7)
H19A H -0.16990 0.21560 0.57340
H20A H -0.26170 0.20820 0.67440
C25A C 0.5458(9) -0.1201(6) 0.3346(6)
C26A C -1.0632(9) 1.6321(6) 1.1615(5)
C27A C -0.0545(10) 0.2617(6) 0.6497(6)
C28A C -0.5077(10) 1.4161(7) 0.7185(6)
O15A O -0.1483(8) 0.9041(5) -0.0165(5)
O16A O -0.1385(7) 1.1498(4) -0.0928(5)
O17A O 0.1402(8) 1.0025(5) -0.1447(5)
#END
