
#######################################################################
#
#                 Cambridge Crystallographic Data Centre
#                                CCDC
#
#######################################################################
#
# If this CIF has been generated from an entry in the Cambridge
# Structural Database, then it will include bibliographic, chemical,
# crystal, experimental, refinement or atomic coordinate data resulting
# from the CCDC's data processing and validation procedures.
#
#######################################################################

data_CSD_CIF_TUYHUR
_audit_creation_date 2010-07-26
_audit_creation_method CSD-ConQuest-V1
_database_code_CSD TUYHUR
_database_code_depnum_ccdc_archive 'CCDC 753524'
_chemical_formula_sum 'C28 H48 Ce4 N4 O74 Si1 W12'
_chemical_formula_moiety
;
(C28 H44 Ce4 N4 O32 4+)n,n(O40 Si1 W12 4-),2n(H2 O1)
;
_journal_coden_Cambridge 208
_journal_volume 183
_journal_year 2010
_journal_page_first 1000
_journal_name_full 'J.Solid State Chem. '
loop_
_publ_author_name
"Yuanzhe Gao"
"Yanqing Xu"
"Zhangang Han"
"Chunhong Li"
"Fengyun Cui"
"Yingnan Chi"
"Changwen Hu"
_chemical_name_systematic
;
catena-[tetrakis(\m~3~-Pyridine-2,6-dicarboxylato-N,O,O',O'',O''')-hexadeca-aq
ua-tetra-cerium(iii) 
(\m~12~-silicato)-tetracosakis(\m~2~-oxo)-dodeca-oxo-dodeca-tungsten 
dihydrate]
;
_cell_volume   8083.178
_exptl_crystal_colour 'orange'
_exptl_crystal_density_diffrn 3.632
_exptl_special_details
;
Isostructural with the La(iii) and Nd(iii) analogues

;
_exptl_crystal_description 'bar'
_diffrn_ambient_temperature 298
#These two values have been output from a single CSD field.
_refine_ls_R_factor_gt 0.0578
_refine_ls_wR_factor_gt 0.0578
_symmetry_cell_setting tetragonal
_symmetry_space_group_name_H-M 'I 41/a'
_symmetry_Int_Tables_number 88
loop_
_symmetry_equiv_pos_site_id
_symmetry_equiv_pos_as_xyz
1 x,y,z
2 3/4-y,1/4+x,1/4+z
3 -x,1/2-y,z
4 1/4+y,1/4-x,1/4+z
5 1/2+x,1/2+y,1/2+z
6 1/4-y,3/4+x,3/4+z
7 1/2-x,-y,1/2+z
8 3/4+y,3/4-x,3/4+z
9 -x,-y,-z
10 -3/4+y,-1/4-x,-1/4-z
11 x,-1/2+y,-z
12 -1/4-y,-1/4+x,-1/4-z
13 -1/2-x,-1/2-y,-1/2-z
14 -1/4+y,-3/4-x,-3/4-z
15 -1/2+x,y,-1/2-z
16 -3/4-y,-3/4+x,-3/4-z
_cell_length_a 21.999(2)
_cell_length_b 21.999(2)
_cell_length_c 16.7023(15)
_cell_angle_alpha 90
_cell_angle_beta 90
_cell_angle_gamma 90
_cell_formula_units_Z 4
loop_
_atom_type_symbol
_atom_type_radius_bond
C 0.68
H 0.23
Ce 2.04
N 0.68
O 0.68
Si 1.20
W 1.40
loop_
_atom_site_label
_atom_site_type_symbol
_atom_site_fract_x
_atom_site_fract_y
_atom_site_fract_z
W1 W 1.10704(3) 0.71403(4) 0.72530(4)
W2 W 1.14645(4) 0.81453(3) 0.86709(4)
W3 W 1.04667(4) 0.85470(4) 0.72563(4)
Ce1 Ce 0.82438(5) 0.85859(6) 0.36543(6)
Si1 Si 1.00000 0.75000 0.87500
N1 N 0.8643(7) 0.9177(8) 0.2380(9)
O1 O 1.0554(5) 0.7741(5) 0.8190(7)
O2 O 1.0286(6) 0.6843(6) 0.6983(7)
O3 O 1.1065(6) 0.6549(6) 0.8088(7)
O4 O 1.1438(6) 0.7487(6) 0.9407(7)
O5 O 1.1685(6) 0.7571(6) 0.7851(8)
O6 O 1.0875(6) 0.7887(6) 0.6714(7)
O7 O 1.1502(6) 0.6778(7) 0.6548(8)
O8 O 1.1189(6) 0.8689(6) 0.7851(8)
O9 O 1.2147(6) 0.8444(7) 0.8896(9)
O10 O 1.0511(7) 0.9107(7) 0.6556(9)
O11 O 0.7210(7) 0.9313(7) 0.1428(8)
O12 O 0.7491(6) 0.8888(7) 0.2593(8)
O13 O 1.0161(7) 0.9226(9) 0.2971(9)
O14 O 0.9347(7) 0.8849(9) 0.3570(9)
O15 O 0.8686(9) 0.7745(10) 0.2801(11)
H1 H 0.86360 0.74070 0.30390
H2 H 0.85790 0.77070 0.23150
O16 O 0.7409(10) 0.7748(11) 0.3286(12)
H3 H 0.72530 0.75420 0.36650
H4 H 0.71880 0.76990 0.28740
O17 O 0.7281(10) 0.8734(10) 0.4455(11)
H5 H 0.72480 0.86340 0.49440
H6 H 0.71330 0.90880 0.43960
O18 O 0.8657(8) 0.8781(9) 0.5049(10)
H7 H 0.86070 0.86290 0.55120
H8 H 0.86400 0.91660 0.50870
O19 O 0.00000 0.75000 0.532(3)
H9? H 0.02380 0.76050 0.57000
H10 H -0.01510 0.71690 0.51520
C1 C 0.760(1) 0.9179(10) 0.1942(13)
C2 C 0.8258(9) 0.9354(9) 0.1802(11)
C3 C 0.8438(11) 0.9686(11) 0.1143(13)
H11 H 0.81600 0.97920 0.07480
C4 C 0.9041(9) 0.9859(11) 0.1083(13)
H12 H 0.91770 1.00960 0.06580
C5 C 0.9445(9) 0.9662(11) 0.1693(13)
H13 H 0.98570 0.97510 0.16670
C6 C 0.9212(9) 0.9338(11) 0.2317(12)
C7 C 0.9613(10) 0.9132(12) 0.3005(13)
W1B W 0.89296(3) 0.78597(4) 0.72530(4)
W1I W 0.96403(3) 0.64296(4) 1.02470(4)
W1K W 1.03597(3) 0.85704(4) 1.02470(4)
W2B W 0.85355(4) 0.68547(3) 0.86709(4)
W2I W 1.06453(4) 0.60355(3) 0.88291(4)
W2K W 0.93547(4) 0.89645(3) 0.88291(4)
W3B W 0.95333(4) 0.64530(4) 0.72563(4)
W3I W 1.10470(4) 0.70333(4) 1.02437(4)
W3K W 0.89530(4) 0.79667(4) 1.02437(4)
Ce1A Ce 0.89141(5) 1.07438(6) 0.61543(6)
Ce1K Ce 0.89141(5) 0.57438(6) 0.38457(6)
Ce1G Ce 0.60859(5) 0.92562(6) 0.11543(6)
Ce1I Ce 1.10859(5) 0.92562(6) 0.38457(6)
Ce1J Ce 0.82438(5) 1.35859(6) 0.63457(6)
Ce1J* Ce 0.82438(5) 0.35859(6) 0.63457(6)
Ce1F Ce 0.67562(5) 1.14141(6) 0.86543(6)
Ce1O Ce 0.39141(5) 1.07438(6) 0.88457(6)
N1A N 0.8323(7) 1.1143(8) 0.4880(9)
N1K N 0.8323(7) 0.6143(8) 0.5120(9)
N1F N 0.6357(7) 1.0823(8) 0.7380(9)
N1G N 0.6677(7) 0.8857(8) -0.0120(9)
O1B O 0.9446(5) 0.7259(5) 0.8190(7)
O1I O 1.0241(5) 0.6946(5) 0.9310(7)
O1K O 0.9759(5) 0.8054(5) 0.9310(7)
O2B O 0.9714(6) 0.8157(6) 0.6983(7)
O2I O 0.9343(6) 0.7214(6) 1.0517(7)
O2K O 1.0657(6) 0.7786(6) 1.0517(7)
O3K O 1.0951(6) 0.8565(6) 0.9412(7)
O3B O 0.8935(6) 0.8451(6) 0.8088(7)
O3I O 0.9049(6) 0.6435(6) 0.9412(7)
O4K O 1.0013(6) 0.8938(6) 0.8093(7)
O4B O 0.8562(6) 0.7513(6) 0.9407(7)
O4I O 0.9987(6) 0.6062(6) 0.8093(7)
O5B O 0.8315(6) 0.7429(6) 0.7851(8)
O5I O 1.0071(6) 0.5815(6) 0.9649(8)
O5K O 0.9929(6) 0.9185(6) 0.9649(8)
O6B O 0.9125(6) 0.7113(6) 0.6714(7)
O6I O 1.0387(6) 0.6625(6) 1.0786(7)
O6K O 0.9613(6) 0.8375(6) 1.0786(7)
O7B O 0.8498(6) 0.8222(7) 0.6548(8)
O7I O 0.9278(6) 0.5998(7) 1.0952(8)
O7K O 1.0722(6) 0.9002(7) 1.0952(8)
O8B O 0.8811(6) 0.6311(6) 0.7851(8)
O8I O 1.1189(6) 0.6311(6) 0.9649(8)
O8K O 0.8811(6) 0.8689(6) 0.9649(8)
O9B O 0.7853(6) 0.6556(7) 0.8896(9)
O9I O 1.0944(6) 0.5353(7) 0.8604(9)
O9K O 0.9056(6) 0.9647(7) 0.8604(9)
O10B O 0.9489(7) 0.5893(7) 0.6556(9)
O10I O 1.1607(7) 0.6989(7) 1.0944(9)
O10K O 0.8393(7) 0.8011(7) 1.0944(9)
O11A O 0.8187(7) 0.9710(7) 0.3928(8)
O11K O 0.8187(7) 0.4710(7) 0.6072(8)
O11F O 0.7790(7) 1.0687(7) 0.6428(8)
O11L O 0.7790(7) 0.5687(7) 0.3572(8)
O12A O 0.8612(6) 0.9991(7) 0.5093(8)
O12K O 0.8612(6) 0.4991(7) 0.4907(8)
O12F O 0.7509(6) 1.1112(7) 0.7593(8)
O12G O 0.6388(6) 1.0009(7) 0.0093(8)
O13A O 0.8274(7) 1.2661(9) 0.5471(9)
O13K O 0.8274(7) 0.7661(9) 0.4529(9)
O13F O 0.4839(7) 1.0774(9) 0.7971(9)
O13H O 0.9839(7) 1.0774(9) 0.7029(9)
O13B O 0.9839(7) 0.5774(9) 0.2971(9)
O13N O 0.5161(7) 0.9226(9) 0.2029(9)
O14A O 0.8651(7) 1.1847(9) 0.6070(9)
O14K O 0.8651(7) 0.6847(9) 0.3930(9)
O14F O 0.5653(7) 1.1151(9) 0.8570(9)
O14G O 0.6349(7) 0.8153(9) 0.1070(9)
O15A O 0.9755(9) 1.1186(10) 0.5301(11)
O15K O 0.9755(9) 0.6186(10) 0.4699(11)
O15G O 0.5245(9) 0.8814(10) 0.0301(11)
H1A H 1.00930 1.11360 0.55390
H1K H 1.00930 0.61360 0.44610
H1G H 0.49070 0.88640 0.05390
H2A H 0.97930 1.10790 0.48150
H2K H 0.97930 0.60790 0.51850
H2G H 0.52070 0.89210 -0.01850
O16A O 0.9752(10) 0.9909(11) 0.5786(12)
O16K O 0.9752(10) 0.4909(11) 0.4214(12)
O16G O 0.5248(10) 1.0091(11) 0.0786(12)
H3A H 0.99580 0.97530 0.61650
H3K H 0.99580 0.47530 0.38350
H3G H 0.50420 1.02470 0.11650
H4A H 0.98010 0.96880 0.53740
H4K H 0.98010 0.46880 0.46260
H4G H 0.51990 1.03120 0.03740
O17A O 0.8766(10) 0.9781(10) 0.6955(11)
O17K O 0.8766(10) 0.4781(10) 0.3045(11)
O17G O 0.6234(10) 1.0219(10) 0.1955(11)
H5A H 0.88660 0.97480 0.74440
H5K H 0.88660 0.47480 0.25560
H5G H 0.61340 1.02520 0.24440
H6A H 0.84120 0.96330 0.68960
H6K H 0.84120 0.46330 0.31040
H6G H 0.65880 1.03670 0.18960
O18A O 0.8719(8) 1.1157(9) 0.7549(10)
O18K O 0.8719(8) 0.6157(9) 0.2451(10)
O18G O 0.6281(8) 0.8843(9) 0.2549(10)
H7A H 0.88710 1.11070 0.80120
H7K H 0.88710 0.61070 0.19880
H7G H 0.61290 0.88930 0.30120
H8A H 0.83340 1.11400 0.75870
H8K H 0.83340 0.61400 0.24130
H8G H 0.66660 0.88600 0.25870
H10B H 0.01510 0.78310 0.51520
C1A C 0.8321(10) 1.010(1) 0.4442(13)
C1K C 0.8321(10) 0.510(1) 0.5558(13)
C1F C 0.740(1) 1.0821(10) 0.6942(13)
C2A C 0.8146(9) 1.0758(9) 0.4302(11)
C2K C 0.8146(9) 0.5758(9) 0.5698(11)
C2F C 0.6742(9) 1.0646(9) 0.6802(11)
C3A C 0.7814(11) 1.0938(11) 0.3643(13)
C3K C 0.7814(11) 0.5938(11) 0.6357(13)
C3F C 0.6562(11) 1.0314(11) 0.6143(13)
H11A H 0.77080 1.06600 0.32480
H11K H 0.77080 0.56600 0.67520
H11F H 0.68400 1.02080 0.57480
C4A C 0.7641(9) 1.1541(11) 0.3583(13)
C4K C 0.7641(9) 0.6541(11) 0.6417(13)
C4F C 0.5959(9) 1.0141(11) 0.6083(13)
H12A H 0.74040 1.16770 0.31580
H12K H 0.74040 0.66770 0.68420
H12F H 0.58230 0.99040 0.56580
C5A C 0.7838(9) 1.1945(11) 0.4193(13)
C5K C 0.7838(9) 0.6945(11) 0.5807(13)
C5F C 0.5555(9) 1.0338(11) 0.6693(13)
H13A H 0.77490 1.23570 0.41670
H13K H 0.77490 0.73570 0.58330
H13F H 0.51430 1.02490 0.66670
C6A C 0.8162(9) 1.1712(11) 0.4817(12)
C6K C 0.8162(9) 0.6712(11) 0.5183(12)
C6F C 0.5788(9) 1.0662(11) 0.7317(12)
C7A C 0.8368(10) 1.2113(12) 0.5505(13)
C7K C 0.8368(10) 0.7113(12) 0.4495(13)
C7F C 0.5387(10) 1.0868(12) 0.8005(13)
#END
