
#######################################################################
#
#                 Cambridge Crystallographic Data Centre
#                                CCDC
#
#######################################################################
#
# If this CIF has been generated from an entry in the Cambridge
# Structural Database, then it will include bibliographic, chemical,
# crystal, experimental, refinement or atomic coordinate data resulting
# from the CCDC's data processing and validation procedures.
#
#######################################################################

data_CSD_CIF_TUYJAZ
_audit_creation_date 2010-07-26
_audit_creation_method CSD-ConQuest-V1
_database_code_CSD TUYJAZ
_database_code_depnum_ccdc_archive 'CCDC 753525'
_chemical_formula_sum 'C28 H48 La4 N4 O74 Si1 W12'
_chemical_formula_moiety
;
(C28 H44 La4 N4 O32 4+)n,n(O40 Si1 W12 4-),2n(H2 O1)
;
_journal_coden_Cambridge 208
_journal_volume 183
_journal_year 2010
_journal_page_first 1000
_journal_name_full 'J.Solid State Chem. '
loop_
_publ_author_name
"Yuanzhe Gao"
"Yanqing Xu"
"Zhangang Han"
"Chunhong Li"
"Fengyun Cui"
"Yingnan Chi"
"Changwen Hu"
_chemical_name_systematic
;
catena-[tetrakis(\m~3~-Pyridine-2,6-dicarboxylato-N,O,O',O'',O''')-hexadeca-aq
ua-tetra-lanthanum(iii) 
(\m~12~-silicato)-tetracosakis(\m~2~-oxo)-dodeca-oxo-dodeca-tungsten 
dihydrate]
;
_cell_volume   8037.810
_exptl_crystal_colour 'orange'
_exptl_crystal_density_diffrn 3.645
_exptl_special_details
;
Isostructural with the Ce(iii) and Nd(iii) analogues

;
_exptl_crystal_description 'bar'
_diffrn_ambient_temperature 298
#These two values have been output from a single CSD field.
_refine_ls_R_factor_gt 0.0359
_refine_ls_wR_factor_gt 0.0359
_symmetry_cell_setting tetragonal
_symmetry_space_group_name_H-M 'I 41/a'
_symmetry_Int_Tables_number 88
loop_
_symmetry_equiv_pos_site_id
_symmetry_equiv_pos_as_xyz
1 x,y,z
2 3/4-y,1/4+x,1/4+z
3 -x,1/2-y,z
4 1/4+y,1/4-x,1/4+z
5 1/2+x,1/2+y,1/2+z
6 1/4-y,3/4+x,3/4+z
7 1/2-x,-y,1/2+z
8 3/4+y,3/4-x,3/4+z
9 -x,-y,-z
10 -3/4+y,-1/4-x,-1/4-z
11 x,-1/2+y,-z
12 -1/4-y,-1/4+x,-1/4-z
13 -1/2-x,-1/2-y,-1/2-z
14 -1/4+y,-3/4-x,-3/4-z
15 -1/2+x,y,-1/2-z
16 -3/4-y,-3/4+x,-3/4-z
_cell_length_a 21.8937(19)
_cell_length_b 21.8937(19)
_cell_length_c 16.7687(15)
_cell_angle_alpha 90
_cell_angle_beta 90
_cell_angle_gamma 90
_cell_formula_units_Z 4
loop_
_atom_type_symbol
_atom_type_radius_bond
C 0.68
H 0.23
La 2.07
N 0.68
O 0.68
Si 1.20
W 1.40
loop_
_atom_site_label
_atom_site_type_symbol
_atom_site_fract_x
_atom_site_fract_y
_atom_site_fract_z
W1 W 0.89263(2) 0.78606(2) 0.72645(3)
W2 W 0.85251(2) 0.68487(2) 0.86695(3)
W3 W 0.95314(2) 0.64486(2) 0.72698(3)
Si1 Si 1.00000 0.75000 0.87500
La1 La 0.82020(3) 0.35795(3) 0.63752(4)
N1 N 0.8629(4) 0.4171(4) 0.7650(6)
O1 O 0.9452(3) 0.7255(3) 0.8191(4)
O2 O 0.8927(3) 0.8448(3) 0.8087(5)
O3 O 0.8312(4) 0.7415(4) 0.7840(5)
O4 O 0.9116(3) 0.7105(4) 0.6729(5)
O5 O 0.9716(3) 0.8157(4) 0.6995(5)
O6 O 0.8491(4) 0.8213(4) 0.6559(5)
O7 O 0.8799(4) 0.6307(4) 0.7852(5)
O8 O 0.8565(3) 0.7521(3) 0.9414(5)
O9 O 0.7836(4) 0.6535(4) 0.8901(5)
O10 O 0.9478(4) 0.5892(4) 0.6573(5)
O11 O 0.7212(4) 0.4307(4) 0.8627(5)
O12 O 0.7474(4) 0.3890(4) 0.7459(5)
O13 O 0.9322(4) 0.3835(4) 0.6442(5)
O14 O 1.0147(4) 0.4247(4) 0.7002(5)
O15 O 0.8569(2) 0.3762(2) 0.4966(3)
H1 H 0.83070 0.39160 0.46490
H2 H 0.88800 0.39480 0.48820
O16 O 0.7215(2) 0.3834(2) 0.5568(3)
H3 H 0.72540 0.42060 0.53960
H4 H 0.73230 0.36070 0.51780
O17 O 0.7366(2) 0.2771(2) 0.6726(3)
H5 H 0.72810 0.24630 0.64470
H6 H 0.70420 0.28470 0.69240
O18 O 0.8732(2) 0.2707(2) 0.7183(3)
H7 H 0.86200 0.23770 0.69220
H8 H 0.90360 0.25730 0.75550
O19 O 1.00000 0.25000 0.7813(12)
C1 C 0.7593(5) 0.4171(5) 0.8106(7)
C2 C 0.8247(5) 0.4347(5) 0.8235(7)
C3 C 0.8450(6) 0.4675(6) 0.8870(7)
H9 H 0.81790 0.47910 0.92700
C4 C 0.9057(6) 0.4836(6) 0.8921(8)
H10 H 0.92010 0.50590 0.93540
C5 C 0.9450(6) 0.4658(6) 0.8313(8)
H11 H 0.98620 0.47610 0.83290
C6 C 0.9216(6) 0.4328(5) 0.7686(7)
C7 C 0.9593(6) 0.4121(5) 0.6985(8)
W1B W 1.10737(2) 0.71394(2) 0.72645(3)
W1I W 1.03606(2) 0.85737(2) 1.02355(3)
W1K W 0.96394(2) 0.64263(2) 1.02355(3)
W2B W 1.14749(2) 0.81513(2) 0.86695(3)
W2I W 0.93487(2) 0.89749(2) 0.88305(3)
W2K W 1.06513(2) 0.60251(2) 0.88305(3)
W3B W 1.04686(2) 0.85514(2) 0.72698(3)
W3I W 0.89486(2) 0.79686(2) 1.02302(3)
W3K W 1.10514(2) 0.70314(2) 1.02302(3)
La1E La 0.89205(3) 0.57020(3) 0.38752(4)
La1O La 0.89205(3) 0.07020(3) 0.61248(4)
La1C La 0.60795(3) 0.42980(3) 0.88752(4)
La1M La 1.10795(3) 0.42980(3) 0.61248(4)
La1J La 0.82020(3) 0.85795(3) 0.36248(4)
La1J* La 0.82020(3) -0.14205(3) 0.36248(4)
La1F La 0.67980(3) 0.64205(3) 0.13752(4)
La1K La 0.39205(3) 0.57020(3) 0.11248(4)
N1E N 0.8329(4) 0.6129(4) 0.5150(6)
N1O N 0.8329(4) 0.1129(4) 0.4850(6)
N1F N 0.6371(4) 0.5829(4) 0.2650(6)
N1C N 0.6671(4) 0.3871(4) 1.0150(6)
O1B O 1.0548(3) 0.7745(3) 0.8191(4)
O1I O 0.9755(3) 0.8048(3) 0.9309(4)
O1K O 1.0245(3) 0.6952(3) 0.9309(4)
O2K O 0.9052(3) 0.6427(3) 0.9413(5)
O2B O 1.1073(3) 0.6552(3) 0.8087(5)
O2I O 1.0948(3) 0.8573(3) 0.9413(5)
O3B O 1.1688(4) 0.7585(4) 0.7840(5)
O3I O 0.9915(4) 0.9188(4) 0.9660(5)
O3K O 1.0085(4) 0.5812(4) 0.9660(5)
O4B O 1.0884(3) 0.7895(4) 0.6729(5)
O4I O 0.9605(3) 0.8384(4) 1.0771(5)
O4K O 1.0395(3) 0.6616(4) 1.0771(5)
O5B O 1.0284(3) 0.6843(4) 0.6995(5)
O5I O 1.0657(3) 0.7784(4) 1.0505(5)
O5K O 0.9343(3) 0.7216(4) 1.0505(5)
O6B O 1.1509(4) 0.6787(4) 0.6559(5)
O6I O 1.0713(4) 0.9009(4) 1.0941(5)
O6K O 0.9287(4) 0.5991(4) 1.0941(5)
O7B O 1.1201(4) 0.8693(4) 0.7852(5)
O7I O 0.8807(4) 0.8701(4) 0.9648(5)
O7K O 1.1193(4) 0.6299(4) 0.9648(5)
O8K O 0.9979(3) 0.6065(3) 0.8086(5)
O8B O 1.1435(3) 0.7479(3) 0.9414(5)
O8I O 1.0021(3) 0.8935(3) 0.8086(5)
O9B O 1.2164(4) 0.8465(4) 0.8901(5)
O9I O 0.9035(4) 0.9664(4) 0.8599(5)
O9K O 1.0965(4) 0.5336(4) 0.8599(5)
O10B O 1.0522(4) 0.9108(4) 0.6573(5)
O10I O 0.8392(4) 0.8022(4) 1.0927(5)
O10K O 1.1608(4) 0.6978(4) 1.0927(5)
O11E O 0.8193(4) 0.4712(4) 0.6127(5)
O11O O 0.8193(4) -0.0288(4) 0.3873(5)
O11F O 0.7788(4) 0.5693(4) 0.3627(5)
O11L O 0.7788(4) 0.0693(4) 0.6373(5)
O12E O 0.8610(4) 0.4974(4) 0.4959(5)
O12O O 0.8610(4) -0.0026(4) 0.5041(5)
O12F O 0.7526(4) 0.6110(4) 0.2459(5)
O12C O 0.6390(4) 0.5026(4) 0.9959(5)
O13E O 0.8665(4) 0.6822(4) 0.3942(5)
O13O O 0.8665(4) 0.1822(4) 0.6058(5)
O13F O 0.5678(4) 0.6165(4) 0.1442(5)
O13C O 0.6335(4) 0.3178(4) 0.8942(5)
O14E O 0.8253(4) 0.7647(4) 0.4502(5)
O14O O 0.8253(4) 0.2647(4) 0.5498(5)
O14F O 0.4853(4) 0.5753(4) 0.2002(5)
O14H O 0.9853(4) 0.5753(4) 0.2998(5)
O14B O 0.9853(4) 0.0753(4) 0.7002(5)
O14N O 0.5147(4) 0.4247(4) 0.7998(5)
O15E O 0.8738(2) 0.6069(2) 0.2466(3)
O15O O 0.8738(2) 0.1069(2) 0.7534(3)
O15C O 0.6262(2) 0.3931(2) 0.7466(3)
H1E H 0.85840 0.58070 0.21490
H1O H 0.85840 0.08070 0.78510
H1C H 0.64160 0.41930 0.71490
H2E H 0.85520 0.63800 0.23820
H2O H 0.85520 0.13800 0.76180
H2C H 0.64480 0.36200 0.73820
O16E O 0.8666(2) 0.4715(2) 0.3068(3)
O16O O 0.8666(2) -0.0285(2) 0.6932(3)
O16C O 0.6334(2) 0.5285(2) 0.8068(3)
H3E H 0.82940 0.47540 0.28960
H3O H 0.82940 -0.02460 0.71040
H3C H 0.67060 0.52460 0.78960
H4E H 0.88930 0.48230 0.26780
H4O H 0.88930 -0.01770 0.73220
H4C H 0.61070 0.51770 0.76780
O17E O 0.9729(2) 0.4866(2) 0.4226(3)
O17O O 0.9729(2) -0.0134(2) 0.5774(3)
O17C O 0.5271(2) 0.5134(2) 0.9226(3)
H5E H 1.00370 0.47810 0.39470
H5O H 1.00370 -0.02190 0.60530
H5C H 0.49630 0.52190 0.89470
H6E H 0.96530 0.45420 0.44240
H6O H 0.96530 -0.04580 0.55760
H6C H 0.53470 0.54580 0.94240
O18E O 0.9793(2) 0.6232(2) 0.4683(3)
O18O O 0.9793(2) 0.1232(2) 0.5317(3)
O18C O 0.5207(2) 0.3768(2) 0.9683(3)
H7E H 1.01230 0.61200 0.44220
H7O H 1.01230 0.11200 0.55780
H7C H 0.48770 0.38800 0.94220
H8E H 0.99270 0.65360 0.50550
H8O H 0.99270 0.15360 0.49450
H8C H 0.50730 0.34640 1.00550
C1E C 0.8329(5) 0.5093(5) 0.5606(7)
C1O C 0.8329(5) 0.0093(5) 0.4394(7)
C1F C 0.7407(5) 0.5829(5) 0.3106(7)
C2E C 0.8153(5) 0.5747(5) 0.5735(7)
C2O C 0.8153(5) 0.0747(5) 0.4265(7)
C2F C 0.6753(5) 0.5653(5) 0.3235(7)
C3E C 0.7825(6) 0.5950(6) 0.6370(7)
C3O C 0.7825(6) 0.0950(6) 0.3630(7)
C3F C 0.6550(6) 0.5325(6) 0.3870(7)
H9E H 0.77090 0.56790 0.67700
H9O H 0.77090 0.06790 0.32300
H9F H 0.68210 0.52090 0.42700
C4E C 0.7664(6) 0.6557(6) 0.6421(8)
C4O C 0.7664(6) 0.1557(6) 0.3579(8)
C4F C 0.5943(6) 0.5164(6) 0.3921(8)
H10E H 0.74410 0.67010 0.68540
H10O H 0.74410 0.17010 0.31460
H10F H 0.57990 0.49410 0.43540
C5E C 0.7842(6) 0.6950(6) 0.5813(8)
C5O C 0.7842(6) 0.1950(6) 0.4187(8)
C5F C 0.5550(6) 0.5342(6) 0.3313(8)
H11E H 0.77390 0.73620 0.58290
H11O H 0.77390 0.23620 0.41710
H11F H 0.51380 0.52390 0.33290
C6E C 0.8172(6) 0.6716(5) 0.5186(7)
C6O C 0.8172(6) 0.1716(5) 0.4814(7)
C6F C 0.5784(6) 0.5672(5) 0.2686(7)
C7E C 0.8379(6) 0.7093(5) 0.4485(8)
C7O C 0.8379(6) 0.2093(5) 0.5515(8)
C7F C 0.5407(6) 0.5879(5) 0.1985(8)
#END
