
#######################################################################
#
#                 Cambridge Crystallographic Data Centre
#                                CCDC
#
#######################################################################
#
# If this CIF has been generated from an entry in the Cambridge
# Structural Database, then it will include bibliographic, chemical,
# crystal, experimental, refinement or atomic coordinate data resulting
# from the CCDC's data processing and validation procedures.
#
#######################################################################

data_CSD_CIF_TUYJED
_audit_creation_date 2010-07-26
_audit_creation_method CSD-ConQuest-V1
_database_code_CSD TUYJED
_database_code_depnum_ccdc_archive 'CCDC 753526'
_chemical_formula_sum 'C28 H48 N4 Nd4 O74 Si1 W12'
_chemical_formula_moiety
;
(C28 H44 N4 Nd4 O32 4+)n,n(O40 Si1 W12 4-),2n(H2 O1)
;
_journal_coden_Cambridge 208
_journal_volume 183
_journal_year 2010
_journal_page_first 1000
_journal_name_full 'J.Solid State Chem. '
loop_
_publ_author_name
"Yuanzhe Gao"
"Yanqing Xu"
"Zhangang Han"
"Chunhong Li"
"Fengyun Cui"
"Yingnan Chi"
"Changwen Hu"
_chemical_name_systematic
;
catena-[tetrakis(\m~3~-Pyridine-2,6-dicarboxylato-N,O,O',O'',O''')-hexadeca-aq
ua-tetra-neodymium(iii) 
(\m~12~-silicato)-tetracosakis(\m~2~-oxo)-dodeca-oxo-dodeca-tungsten 
dihydrate]
;
_cell_volume   7967.550
_exptl_crystal_colour 'orange'
_exptl_crystal_density_diffrn 3.758
_exptl_special_details
;
Isostructural with the Ce(iii) and La(iii) analogues

;
_exptl_crystal_description 'bar'
_diffrn_ambient_temperature 298
#These two values have been output from a single CSD field.
_refine_ls_R_factor_gt 0.061
_refine_ls_wR_factor_gt 0.061
_symmetry_cell_setting tetragonal
_symmetry_space_group_name_H-M 'I 41/a'
_symmetry_Int_Tables_number 88
loop_
_symmetry_equiv_pos_site_id
_symmetry_equiv_pos_as_xyz
1 x,y,z
2 3/4-y,1/4+x,1/4+z
3 -x,1/2-y,z
4 1/4+y,1/4-x,1/4+z
5 1/2+x,1/2+y,1/2+z
6 1/4-y,3/4+x,3/4+z
7 1/2-x,-y,1/2+z
8 3/4+y,3/4-x,3/4+z
9 -x,-y,-z
10 -3/4+y,-1/4-x,-1/4-z
11 x,-1/2+y,-z
12 -1/4-y,-1/4+x,-1/4-z
13 -1/2-x,-1/2-y,-1/2-z
14 -1/4+y,-3/4-x,-3/4-z
15 -1/2+x,y,-1/2-z
16 -3/4-y,-3/4+x,-3/4-z
_cell_length_a 21.917(2)
_cell_length_b 21.917(2)
_cell_length_c 16.5868(18)
_cell_angle_alpha 90
_cell_angle_beta 90
_cell_angle_gamma 90
_cell_formula_units_Z 4
loop_
_atom_type_symbol
_atom_type_radius_bond
C 0.68
H 0.23
N 0.68
Nd 2.01
O 0.68
Si 1.20
W 1.39
loop_
_atom_site_label
_atom_site_type_symbol
_atom_site_fract_x
_atom_site_fract_y
_atom_site_fract_z
W1 W 0.64607(4) 0.68136(4) 0.13299(5)
W2 W 0.54440(4) 0.64329(4) 0.27504(5)
W3 W 0.60840(4) 0.78346(4) 0.27542(5)
Nd1 Nd 0.88894(6) 0.42493(7) 0.11504(7)
Si1 Si 0.50000 0.75000 0.12500
N1 N 0.8315(9) 0.3854(9) -0.0117(11)
O1 O 0.5547(6) 0.7244(6) 0.1815(8)
O2 O 0.6448(6) 0.7479(6) 0.0572(8)
O3 O 0.5930(6) 0.6399(6) 0.0582(8)
O4 O 0.6697(6) 0.7379(6) 0.2159(8)
O5 O 0.6171(6) 0.6277(6) 0.2148(8)
O6 O 0.7132(7) 0.6482(7) 0.1108(9)
O7 O 0.5474(8) 0.5849(9) 0.3452(10)
O8 O 0.5875(7) 0.7092(7) 0.3302(8)
O9 O 0.4691(6) 0.6849(7) 0.3041(8)
O10 O 0.6541(8) 0.8172(7) 0.3469(9)
O11 O 0.8626(9) 0.3169(9) 0.1119(10)
O12 O 0.8245(12) 0.2326(10) 0.0515(11)
O13 O 0.8593(8) 0.5009(8) 0.0113(10)
O14 O 0.8171(8) 0.5286(8) -0.1062(10)
O15 O 0.8806(11) 0.5205(10) 0.1929(12)
H1 H 0.84490 0.53500 0.18700
H2 H 0.89010 0.52300 0.24240
O16 O 0.8725(8) 0.3887(10) 0.2566(10)
H3 H 0.88850 0.39320 0.30290
H4 H 0.83390 0.38940 0.26170
O17 O 0.9709(13) 0.5095(13) 0.0774(15)
O18 O 0.9716(10) 0.3829(11) 0.0287(13)
O19 O 1.00000 0.25000 0.980(2)
H5 H 0.97160 0.26330 0.94970
C1 C 0.8320(12) 0.2882(13) 0.0533(15)
C2 C 0.8142(11) 0.3267(12) -0.0154(14)
C3 C 0.7795(11) 0.3036(12) -0.0827(14)
H6 H 0.76870 0.26260 -0.08610
C4 C 0.7634(12) 0.3439(12) -0.1409(15)
H7 H 0.73970 0.33070 -0.18400
C5 C 0.7820(11) 0.4055(11) -0.1369(13)
H8 H 0.77280 0.43290 -0.17790
C6 C 0.8141(11) 0.4230(11) -0.0699(14)
C7 C 0.8312(12) 0.4906(12) -0.0551(15)
W1M W 0.43136(4) 0.60393(4) 0.11701(5)
W1O W 0.56864(4) 0.89607(4) 0.11701(5)
W1B W 0.35393(4) 0.81864(4) 0.13299(5)
W2M W 0.39329(4) 0.70560(4) -0.02504(5)
W2O W 0.60671(4) 0.79440(4) -0.02504(5)
W2B W 0.45560(4) 0.85671(4) 0.27504(5)
W3M W 0.53346(4) 0.64160(4) -0.02542(5)
W3O W 0.46654(4) 0.85840(4) -0.02542(5)
W3B W 0.39160(4) 0.71654(4) 0.27542(5)
Nd1M Nd 1.17493(6) 0.36106(7) 0.13496(7)
Nd1C Nd 0.67493(6) 0.36106(7) 0.36504(7)
Nd1O Nd 0.82507(6) 0.13894(7) 0.13496(7)
Nd1E Nd 0.82507(6) 0.63894(7) -0.13496(7)
Nd1N Nd 1.38894(6) 0.42493(7) 0.38496(7)
Nd1N* Nd 0.38894(6) 0.42493(7) 0.38496(7)
Nd1B Nd 1.11106(6) 0.07507(7) 0.11504(7)
Nd1G Nd 1.17493(6) -0.13894(7) -0.13496(7)
N1M N 1.1354(9) 0.4185(9) 0.2617(11)
N1C N 0.6354(9) 0.4185(9) 0.2383(11)
N1B N 1.1685(9) 0.1146(9) -0.0117(11)
N1O N 0.8646(9) 0.0815(9) 0.2617(11)
O1M O 0.4744(6) 0.6953(6) 0.0685(8)
O1O O 0.5256(6) 0.8047(6) 0.0685(8)
O1B O 0.4453(6) 0.7756(6) 0.1815(8)
O2M O 0.4979(6) 0.6052(6) 0.1928(8)
O2O O 0.5021(6) 0.8948(6) 0.1928(8)
O2B O 0.3552(6) 0.7521(6) 0.0572(8)
O3O O 0.6101(6) 0.8430(6) 0.1918(8)
O3M O 0.3899(6) 0.6570(6) 0.1918(8)
O3B O 0.4070(6) 0.8601(6) 0.0582(8)
O4M O 0.4879(6) 0.5803(6) 0.0341(8)
O4O O 0.5121(6) 0.9197(6) 0.0341(8)
O4B O 0.3303(6) 0.7621(6) 0.2159(8)
O5M O 0.3777(6) 0.6329(6) 0.0352(8)
O5O O 0.6223(6) 0.8671(6) 0.0352(8)
O5B O 0.3829(6) 0.8723(6) 0.2148(8)
O6M O 0.3982(7) 0.5368(7) 0.1392(9)
O6O O 0.6018(7) 0.9632(7) 0.1392(9)
O6B O 0.2868(7) 0.8518(7) 0.1108(9)
O7M O 0.3349(8) 0.7026(9) -0.0952(10)
O7O O 0.6651(8) 0.7974(9) -0.0952(10)
O7B O 0.4526(8) 0.9151(9) 0.3452(10)
O8M O 0.4592(7) 0.6625(7) -0.0802(8)
O8O O 0.5408(7) 0.8375(7) -0.0802(8)
O8B O 0.4125(7) 0.7908(7) 0.3302(8)
O9B O 0.5309(6) 0.8151(7) 0.3041(8)
O9M O 0.4349(6) 0.7809(7) -0.0541(8)
O9O O 0.5651(6) 0.7191(7) -0.0541(8)
O10M O 0.5672(8) 0.5959(7) -0.0969(9)
O10O O 0.4328(8) 0.9041(7) -0.0969(9)
O10B O 0.3459(8) 0.6828(7) 0.3469(9)
O11M O 1.0669(9) 0.3874(9) 0.1381(10)
O11C O 0.5669(9) 0.3874(9) 0.3619(10)
O11B O 1.1374(9) 0.1831(9) 0.1119(10)
O11O O 0.9331(9) 0.1126(9) 0.1381(10)
O12M O 0.9826(12) 0.4255(10) 0.1985(11)
O12C O 0.4826(12) 0.4255(10) 0.3015(11)
O12B O 1.1755(12) 0.2674(10) 0.0515(11)
O12L O 0.6755(12) 0.2674(10) 0.4485(11)
O13M O 1.2509(8) 0.3907(8) 0.2387(10)
O13C O 0.7509(8) 0.3907(8) 0.2613(10)
O13B O 1.1407(8) -0.0009(8) 0.0113(10)
O13O O 0.7491(8) 0.1093(8) 0.2387(10)
O14M O 1.2786(8) 0.4329(8) 0.3562(10)
O14C O 0.7786(8) 0.4329(8) 0.1438(10)
O14B O 1.1829(8) -0.0286(8) -0.1062(10)
O14H O 1.1829(8) 0.4714(8) 0.1062(10)
O14F O 0.6829(8) 0.4714(8) 0.3938(10)
O14J O 0.8171(8) 0.0286(8) 0.1062(10)
O15M O 1.2705(11) 0.3694(10) 0.0571(12)
O15C O 0.7705(11) 0.3694(10) 0.4429(12)
O15O O 0.7295(11) 0.1306(10) 0.0571(12)
H1M H 1.28500 0.40510 0.06300
H1C H 0.78500 0.40510 0.43700
H1O H 0.71500 0.09490 0.06300
H2M H 1.27300 0.35990 0.00760
H2C H 0.77300 0.35990 0.49240
H2O H 0.72700 0.14010 0.00760
O16M O 1.1387(8) 0.3775(10) -0.0066(10)
O16C O 0.6387(8) 0.3775(10) 0.5066(10)
O16O O 0.8613(8) 0.1225(10) -0.0066(10)
H3M H 1.14320 0.36150 -0.05290
H3C H 0.64320 0.36150 0.55290
H3O H 0.85680 0.13850 -0.05290
H4M H 1.13940 0.41610 -0.01170
H4C H 0.63940 0.41610 0.51170
H4O H 0.86060 0.08390 -0.01170
O17M O 1.2595(13) 0.2791(13) 0.1726(15)
O17C O 0.7595(13) 0.2791(13) 0.3274(15)
O17O O 0.7405(13) 0.2209(13) 0.1726(15)
O18M O 1.1329(10) 0.2784(11) 0.2213(13)
O18C O 0.6329(10) 0.2784(11) 0.2787(13)
O18O O 0.8671(10) 0.2216(11) 0.2213(13)
H5B H 1.02840 0.23670 0.94970
C1M C 1.0382(12) 0.4180(13) 0.1967(15)
C1C C 0.5382(12) 0.4180(13) 0.3033(15)
C1B C 1.1680(12) 0.2118(13) 0.0533(15)
C2M C 1.0767(11) 0.4358(12) 0.2654(14)
C2C C 0.5767(11) 0.4358(12) 0.2346(14)
C2B C 1.1858(11) 0.1733(12) -0.0154(14)
C3M C 1.0536(11) 0.4705(12) 0.3327(14)
C3C C 0.5536(11) 0.4705(12) 0.1673(14)
C3B C 1.2205(11) 0.1964(12) -0.0827(14)
H6M H 1.01260 0.48130 0.33610
H6C H 0.51260 0.48130 0.16390
H6B H 1.23130 0.23740 -0.08610
C4M C 1.0939(12) 0.4866(12) 0.3909(15)
C4C C 0.5939(12) 0.4866(12) 0.1091(15)
C4B C 1.2366(12) 0.1561(12) -0.1409(15)
H7M H 1.08070 0.51030 0.43400
H7C H 0.58070 0.51030 0.06600
H7B H 1.26030 0.16930 -0.18400
C5M C 1.1555(11) 0.4680(11) 0.3869(13)
C5C C 0.6555(11) 0.4680(11) 0.1131(13)
C5B C 1.2180(11) 0.0945(11) -0.1369(13)
H8M H 1.18290 0.47720 0.42790
H8C H 0.68290 0.47720 0.07210
H8B H 1.22720 0.06710 -0.17790
C6M C 1.1730(11) 0.4359(11) 0.3199(14)
C6C C 0.6730(11) 0.4359(11) 0.1801(14)
C6B C 1.1859(11) 0.0770(11) -0.0699(14)
C7M C 1.2406(12) 0.4188(12) 0.3051(15)
C7C C 0.7406(12) 0.4188(12) 0.1949(15)
C7B C 1.1688(12) 0.0094(12) -0.0551(15)
#END
