
#######################################################################
#
#                 Cambridge Crystallographic Data Centre
#                                CCDC
#
#######################################################################
#
# If this CIF has been generated from an entry in the Cambridge
# Structural Database, then it will include bibliographic, chemical,
# crystal, experimental, refinement or atomic coordinate data resulting
# from the CCDC's data processing and validation procedures.
#
#######################################################################

data_CSD_CIF_TUZHAA
_audit_creation_date 2020-07-24
_audit_creation_method CSD-ConQuest-V1
_database_code_CSD TUZHAA
_database_code_depnum_ccdc_archive 'CCDC 1974824'
_chemical_formula_sum 'C36 H40 Cu1 Mo8 N6 O33'
_chemical_formula_moiety
;
(C36 H38 Cu1 N6 O6 4+)n,Mo8 O26 4-,H2 O1
;
_journal_coden_Cambridge 1295
_journal_volume 118
_journal_year 2020
_journal_page_first 108002
_journal_name_full 'Inorg.Chem.Commun. '
loop_
_publ_author_name
"Yuanyuan Li"
"Yanqi Lu"
"Xiuying Qiao"
"Wenming Huang"
"Yunyin Niu"
_chemical_name_systematic
;
catena-[(\m-1,1'-(butane-1,4-diyl)bis(4-carboxylatopyridin-1-ium))-bis(4-(pyri
din-4-yl)pyridin-1-ium)-diaqua-copper(ii) 
dodecakis(\m-oxo)-tetradecaoxo-octa-molybdenum monohydrate]
;
_cell_volume   1317.156
_exptl_crystal_colour 'blue'
_exptl_crystal_density_diffrn 2.415
_exptl_crystal_description 'prism'
_diffrn_ambient_temperature 293
#These two values have been output from a single CSD field.
_refine_ls_R_factor_gt 0.0407
_refine_ls_wR_factor_gt 0.0407
_symmetry_cell_setting triclinic
_symmetry_space_group_name_H-M 'P -1'
_symmetry_Int_Tables_number 2
loop_
_symmetry_equiv_pos_site_id
_symmetry_equiv_pos_as_xyz
1 x,y,z
2 -x,-y,-z
_cell_length_a 9.9823(7)
_cell_length_b 12.2236(5)
_cell_length_c 12.3688(7)
_cell_angle_alpha 71.439(5)
_cell_angle_beta 70.635(6)
_cell_angle_gamma 72.481(5)
_cell_formula_units_Z 1
loop_
_atom_type_symbol
_atom_type_radius_bond
C 0.68
H 0.23
Cu 1.32
Mo 1.54
N 0.68
O 0.68
loop_
_atom_site_label
_atom_site_type_symbol
_atom_site_fract_x
_atom_site_fract_y
_atom_site_fract_z
C1 C 0.6818(9) 0.1044(7) 0.0895(7)
C2 C 0.4266(9) -0.0128(7) 0.3846(8)
H1 H 0.42880 -0.07660 0.45010
C3 C 0.5497(9) -0.0029(7) 0.2935(8)
H2 H 0.63520 -0.05980 0.29790
C4 C 0.5481(8) 0.0910(6) 0.1952(7)
C5 C 0.4193(8) 0.1726(6) 0.1955(7)
H3 H 0.41340 0.23680 0.13060
C6 C 0.2990(8) 0.1621(6) 0.2892(7)
H4 H 0.21420 0.22070 0.28890
C7 C 0.1691(9) 0.0559(7) 0.4781(7)
H5 H 0.11680 0.13270 0.49330
H6 H 0.19650 0.00560 0.54920
C8 C 0.0705(7) 0.0027(7) 0.4493(7)
H7 H 0.11990 -0.07640 0.43920
H8 H 0.04680 0.05040 0.37600
C9 C 1.1371(11) 0.2036(8) -0.0669(8)
H9 H 1.17630 0.18310 -0.13910
C10 C 1.1777(12) 0.2944(8) -0.0523(8)
H10 H 1.24750 0.33030 -0.11260
C11 C 1.1173(8) 0.3336(6) 0.0495(6)
C12 C 1.0157(9) 0.2754(8) 0.1341(7)
H11 H 0.96870 0.29930 0.20410
C13 C 0.9821(9) 0.1806(8) 0.1160(7)
H12 H 0.91370 0.14230 0.17530
C14 C 1.3083(14) 0.5731(12) 0.0040(11)
H13 H 1.38000 0.60950 -0.05310
C15 C 1.2676(12) 0.4856(9) -0.0145(9)
H14 H 1.31360 0.46140 -0.08440
C16 C 1.1595(8) 0.4314(6) 0.0680(6)
C17 C 1.1009(11) 0.4678(8) 0.1701(7)
H15 H 1.02910 0.43290 0.22870
C18 C 1.1442(12) 0.5538(9) 0.1887(8)
H16 H 1.10420 0.57610 0.26000
Cu1 Cu 1.00000 0.00000 0.00000
N1 N 0.3027(6) 0.0695(5) 0.3795(5)
N2 N 1.0440(7) 0.1432(5) 0.0175(5)
N3 N 1.2445(10) 0.6058(8) 0.1041(7)
H17 H 1.26860 0.66260 0.11500
O1 O 0.7975(5) 0.0324(5) 0.1066(5)
O2 O 0.6628(7) 0.1827(5) 0.0008(6)
O3 O 1.0638(8) -0.1077(6) 0.1818(6)
H18 H 1.15110 -0.15190 0.16840
H19 H 1.00320 -0.15310 0.22460
O4 O 0.3199(16) 0.9034(12) 0.2039(15)
H20 H 0.30800 0.85830 0.28870
H21 H 0.37080 0.86270 0.14190
Mo1 Mo 0.23292(6) 0.33475(5) 0.54053(5)
Mo2 Mo 0.56293(6) 0.32607(5) 0.36839(5)
Mo3 Mo 0.52461(6) 0.59940(5) 0.35664(4)
Mo4 Mo 0.19918(6) 0.61426(5) 0.51917(5)
O5 O 0.3500(5) 0.3123(4) 0.6792(4)
O6 O 0.1469(6) 0.2263(4) 0.6373(5)
O7 O 0.1740(6) 0.3717(5) 0.4172(5)
O8 O 0.4226(5) 0.2422(4) 0.4794(4)
O9 O 0.7037(6) 0.2096(5) 0.3404(5)
O10 O 0.4968(7) 0.3770(5) 0.2467(5)
O11 O 0.4638(6) 0.6373(4) 0.2345(4)
O12 O 0.3694(5) 0.6897(4) 0.4592(4)
O13 O 0.1548(5) 0.6537(4) 0.3889(5)
O14 O 0.0793(5) 0.7106(4) 0.5987(5)
O15 O 0.3315(5) 0.5473(4) 0.6653(4)
O16 O 0.1325(5) 0.4715(4) 0.6005(4)
O17 O 0.4016(4) 0.4689(4) 0.4653(4)
C1A C -0.6818(9) -0.1044(7) 0.9105(7)
C2A C -0.4266(9) 0.0128(7) 0.6154(8)
H1A H -0.42880 0.07660 0.54990
C3A C -0.5497(9) 0.0029(7) 0.7065(8)
H2A H -0.63520 0.05980 0.70210
C4A C -0.5481(8) -0.0910(6) 0.8048(7)
C5A C -0.4193(8) -0.1726(6) 0.8045(7)
H3A H -0.41340 -0.23680 0.86940
C6A C -0.2990(8) -0.1621(6) 0.7108(7)
H4A H -0.21420 -0.22070 0.71110
C7A C -0.1691(9) -0.0559(7) 0.5219(7)
H5A H -0.11680 -0.13270 0.50670
H6A H -0.19650 -0.00560 0.45080
C8A C -0.0705(7) -0.0027(7) 0.5507(7)
H7A H -0.11990 0.07640 0.56080
H8A H -0.04680 -0.05040 0.62400
N1A N -0.3027(6) -0.0695(5) 0.6205(5)
O1A O -0.7975(5) -0.0324(5) 0.8934(5)
O2A O -0.6628(7) -0.1827(5) 0.9992(6)
C9A C 0.8629(11) -0.2036(8) 0.0669(8)
H9A H 0.82370 -0.18310 0.13910
C10A C 0.8223(12) -0.2944(8) 0.0523(8)
H10A H 0.75250 -0.33030 0.11260
C11A C 0.8827(8) -0.3336(6) -0.0495(6)
C12A C 0.9843(9) -0.2754(8) -0.1341(7)
H11A H 1.03130 -0.29930 -0.20410
C13A C 1.0179(9) -0.1806(8) -0.1160(7)
H12A H 1.08630 -0.14230 -0.17530
C14A C 0.6917(14) -0.5731(12) -0.0040(11)
H13A H 0.62000 -0.60950 0.05310
C15A C 0.7324(12) -0.4856(9) 0.0145(9)
H14A H 0.68640 -0.46140 0.08440
C16A C 0.8405(8) -0.4314(6) -0.0680(6)
C17A C 0.8991(11) -0.4678(8) -0.1701(7)
H15A H 0.97090 -0.43290 -0.22870
C18A C 0.8558(12) -0.5538(9) -0.1887(8)
H16A H 0.89580 -0.57610 -0.26000
N2A N 0.9560(7) -0.1432(5) -0.0175(5)
N3A N 0.7555(10) -0.6058(8) -0.1041(7)
H17A H 0.73140 -0.66260 -0.11500
O3A O 0.9362(8) 0.1077(6) -0.1818(6)
H18A H 0.84890 0.15190 -0.16840
H19A H 0.99680 0.15310 -0.22460
Cu1* Cu -1.00000 0.00000 1.00000
O1A* O 1.2025(5) -0.0324(5) -0.1066(5)
Mo1A Mo 0.76708(6) 0.66525(5) 0.45947(5)
Mo2A Mo 0.43707(6) 0.67393(5) 0.63161(5)
Mo3A Mo 0.47539(6) 0.40060(5) 0.64336(4)
Mo4A Mo 0.80082(6) 0.38574(5) 0.48083(5)
O5A O 0.6500(5) 0.6877(4) 0.3208(4)
O6A O 0.8531(6) 0.7737(4) 0.3627(5)
O7A O 0.8260(6) 0.6283(5) 0.5828(5)
O8A O 0.5774(5) 0.7578(4) 0.5206(4)
O9A O 0.2963(6) 0.7904(5) 0.6596(5)
O10A O 0.5032(7) 0.6230(5) 0.7533(5)
O11A O 0.5362(6) 0.3627(4) 0.7655(4)
O12A O 0.6306(5) 0.3103(4) 0.5408(4)
O13A O 0.8452(5) 0.3463(4) 0.6111(5)
O14A O 0.9207(5) 0.2894(4) 0.4013(5)
O15A O 0.6685(5) 0.4527(4) 0.3347(4)
O16A O 0.8675(5) 0.5285(4) 0.3995(4)
O17A O 0.5984(4) 0.5311(4) 0.5347(4)
#END
