
#######################################################################
#
#                 Cambridge Crystallographic Data Centre
#                                CCDC
#
#######################################################################
#
# If this CIF has been generated from an entry in the Cambridge
# Structural Database, then it will include bibliographic, chemical,
# crystal, experimental, refinement or atomic coordinate data resulting
# from the CCDC's data processing and validation procedures.
#
#######################################################################

data_CSD_CIF_TUZWUJ06
_audit_creation_date 2020-11-16
_audit_creation_method CSD-ConQuest-V1
_database_code_CSD TUZWUJ06
_database_code_depnum_ccdc_archive 'CCDC 1937180'
_chemical_formula_sum 'C4 H9 Co0.69 N1 O6 Zn0.31'
_chemical_formula_moiety
;
C1 H6 N1 1+,0.69n(C3 H3 Co1 O6 1-),0.31n(C3 H3 O6 Zn1 1-)
;
_journal_coden_Cambridge 1660
_journal_volume 36
_journal_year 2020
_journal_page_first 1907012
_journal_name_full 'Acta Physico-Chimica Sinica '
loop_
_publ_author_name
"Sa Chen"
"Ran Shang"
"Bingwu Wang"
"Zheming Wang"
"Song Gao"
_chemical_name_systematic
;
catena-[Methylammonium tris(\m~2~-formato-O,O')-(cobalt(ii)-zinc(ii))]
;
_cell_volume    788.433
_exptl_crystal_colour 'pink'
_exptl_crystal_density_diffrn 1.921
_exptl_crystal_description 'block'
_diffrn_ambient_temperature 180
_refine_special_details
;
Co1 and Zn1 disordered over two sites with occupancies 0.69:0.31.

;
#These two values have been output from a single CSD field.
_refine_ls_R_factor_gt 0.0193
_refine_ls_wR_factor_gt 0.0193
_symmetry_cell_setting orthorhombic
_symmetry_space_group_name_H-M 'P n m a'
_symmetry_Int_Tables_number 62
loop_
_symmetry_equiv_pos_site_id
_symmetry_equiv_pos_as_xyz
1 x,y,z
2 1/2-x,-y,1/2+z
3 -x,1/2+y,-z
4 1/2+x,1/2-y,1/2-z
5 -x,-y,-z
6 -1/2+x,y,-1/2-z
7 x,-1/2-y,z
8 -1/2-x,-1/2+y,-1/2+z
_cell_length_a 8.3015(2)
_cell_length_b 11.6721(2)
_cell_length_c 8.1369(2)
_cell_angle_alpha 90
_cell_angle_beta 90
_cell_angle_gamma 90
_cell_formula_units_Z 4
loop_
_atom_type_symbol
_atom_type_radius_bond
C 0.68
H 0.23
Co 1.26
N 0.68
O 0.68
Zn 1.22
loop_
_atom_site_label
_atom_site_type_symbol
_atom_site_fract_x
_atom_site_fract_y
_atom_site_fract_z
Co1 Co 0.00000 0.50000 0.00000
O1 O 0.09661(9) 0.56985(7) 0.21471(10)
O2 O 0.27390(9) 0.56004(7) 0.41814(10)
O3 O -0.02652(11) 0.34474(7) 0.12707(11)
C1 C 0.22006(14) 0.5299(1) 0.27956(14)
H1 H 0.27780 0.47280 0.22080
C2 C -0.01046(17) 0.25000 0.0567(2)
H2 H 0.01550 0.25000 -0.05700
Zn1? Zn 0.00000 0.50000 0.00000
C3 C -0.0846(3) 0.75000 0.4769(3)
N1 N 0.0854(2) 0.75000 0.5295(2)
H3 H 0.083(3) 0.75000 0.6390(19)
H4 H 0.136(3) 0.6862(8) 0.4917(19)
H5 H -0.088(3) 0.75000 0.3601(18)
H6 H -0.131(3) 0.6830(8) 0.520(2)
O3F O -0.02652(11) 0.15526(7) 0.12707(11)
O1D O -0.09661(9) 0.43015(7) -0.21471(10)
O2D O -0.27390(9) 0.43996(7) -0.41814(10)
C1D C -0.22006(14) 0.4701(1) -0.27956(14)
H1D H -0.27780 0.52720 -0.22080
Co1A Co -0.50000 0.50000 -0.50000
Co1A* Co 0.50000 0.50000 0.50000
Co1B Co 0.00000 0.00000 0.00000
O2A O 0.22610(9) 0.43996(7) -0.08186(10)
O2E O -0.22610(9) 0.56004(7) 0.08186(10)
O3D O 0.02652(11) 0.65526(7) -0.12707(11)
H4F H 0.136(3) 0.8138(8) 0.4917(19)
H6F H -0.131(3) 0.8170(8) 0.520(2)
#END
