
#######################################################################
#
#                 Cambridge Crystallographic Data Centre
#                                CCDC
#
#######################################################################
#
# If this CIF has been generated from an entry in the Cambridge
# Structural Database, then it will include bibliographic, chemical,
# crystal, experimental, refinement or atomic coordinate data resulting
# from the CCDC's data processing and validation procedures.
#
#######################################################################

data_CSD_CIF_TUZWUJ05
_audit_creation_date 2020-11-16
_audit_creation_method CSD-ConQuest-V1
_database_code_CSD TUZWUJ05
_database_code_depnum_ccdc_archive 'CCDC 1937179'
_chemical_formula_sum 'C4 H9 Co0.59 N1 O6 Zn0.41'
_chemical_formula_moiety
;
C1 H6 N1 1+,0.59n(C3 H3 Co1 O6 1-),0.41n(C3 H3 O6 Zn1 1-)
;
_journal_coden_Cambridge 1660
_journal_volume 36
_journal_year 2020
_journal_page_first 1907012
_journal_name_full 'Acta Physico-Chimica Sinica '
loop_
_publ_author_name
"Sa Chen"
"Ran Shang"
"Bingwu Wang"
"Zheming Wang"
"Song Gao"
_chemical_name_systematic
;
catena-[Methylammonium tris(\m~2~-formato-O,O')-(cobalt(ii)-zinc(ii))]
;
_cell_volume    790.977
_exptl_crystal_colour 'pink'
_exptl_crystal_density_diffrn 1.92
_exptl_crystal_description 'block'
_diffrn_ambient_temperature 180
_refine_special_details
;
Co1 and Zn1 disordered over two sites with occupancies 0.59:0.41.

;
#These two values have been output from a single CSD field.
_refine_ls_R_factor_gt 0.0261
_refine_ls_wR_factor_gt 0.0261
_symmetry_cell_setting orthorhombic
_symmetry_space_group_name_H-M 'P n m a'
_symmetry_Int_Tables_number 62
loop_
_symmetry_equiv_pos_site_id
_symmetry_equiv_pos_as_xyz
1 x,y,z
2 1/2-x,-y,1/2+z
3 -x,1/2+y,-z
4 1/2+x,1/2-y,1/2-z
5 -x,-y,-z
6 -1/2+x,y,-1/2-z
7 x,-1/2-y,z
8 -1/2-x,-1/2+y,-1/2+z
_cell_length_a 8.3191(4)
_cell_length_b 11.6771(6)
_cell_length_c 8.1424(4)
_cell_angle_alpha 90
_cell_angle_beta 90
_cell_angle_gamma 90
_cell_formula_units_Z 4
loop_
_atom_type_symbol
_atom_type_radius_bond
C 0.68
H 0.23
Co 1.26
N 0.68
O 0.68
Zn 1.22
loop_
_atom_site_label
_atom_site_type_symbol
_atom_site_fract_x
_atom_site_fract_y
_atom_site_fract_z
Co1 Co 0.00000 0.50000 0.00000
O1 O 0.09718(14) 0.56967(11) 0.21457(16)
O2 O 0.27366(14) 0.56001(11) 0.41795(16)
O3 O -0.02710(15) 0.34441(11) 0.12713(16)
C1 C 0.2196(2) 0.52976(16) 0.2800(2)
H1 H 0.27680 0.47220 0.22190
C2 C -0.0113(3) 0.25000 0.0566(4)
H2 H 0.01410 0.25000 -0.05710
Zn1? Zn 0.00000 0.50000 0.00000
C3 C -0.0842(4) 0.75000 0.4767(4)
N1 N 0.0859(3) 0.75000 0.5292(3)
H3 H 0.083(4) 0.75000 0.640(2)
H4 H 0.135(3) 0.6864(8) 0.492(2)
H5 H -0.081(4) 0.75000 0.360(2)
H6 H -0.131(3) 0.6829(8) 0.518(2)
O3F O -0.02710(15) 0.15559(11) 0.12713(16)
O1D O -0.09718(14) 0.43033(11) -0.21457(16)
O2D O -0.27366(14) 0.43999(11) -0.41795(16)
C1D C -0.2196(2) 0.47024(16) -0.2800(2)
H1D H -0.27680 0.52780 -0.22190
Co1A Co -0.50000 0.50000 -0.50000
Co1A* Co 0.50000 0.50000 0.50000
Co1B Co 0.00000 0.00000 0.00000
O2A O 0.22634(14) 0.43999(11) -0.08205(16)
O2E O -0.22634(14) 0.56001(11) 0.08205(16)
O3D O 0.02710(15) 0.65559(11) -0.12713(16)
H4F H 0.135(3) 0.8136(8) 0.492(2)
H6F H -0.131(3) 0.8171(8) 0.518(2)
#END
