
#######################################################################
#
#                 Cambridge Crystallographic Data Centre
#                                CCDC
#
#######################################################################
#
# If this CIF has been generated from an entry in the Cambridge
# Structural Database, then it will include bibliographic, chemical,
# crystal, experimental, refinement or atomic coordinate data resulting
# from the CCDC's data processing and validation procedures.
#
#######################################################################

data_CSD_CIF_TUZWUJ03
_audit_creation_date 2020-11-16
_audit_creation_method CSD-ConQuest-V1
_database_code_CSD TUZWUJ03
_database_code_depnum_ccdc_archive 'CCDC 1937177'
_chemical_formula_sum 'C4 H9 Co0.4 N1 O6 Zn0.6'
_chemical_formula_moiety
;
C1 H6 N1 1+,0.6n(C3 H3 O6 Zn1 1-),0.4n(C3 H3 Co1 O6 1-)
;
_journal_coden_Cambridge 1660
_journal_volume 36
_journal_year 2020
_journal_page_first 1907012
_journal_name_full 'Acta Physico-Chimica Sinica '
loop_
_publ_author_name
"Sa Chen"
"Ran Shang"
"Bingwu Wang"
"Zheming Wang"
"Song Gao"
_chemical_name_systematic
;
catena-[Methylammonium tris(\m~2~-formato-O,O')-(zinc(ii)-cobalt(ii))]
;
_cell_volume    788.281
_exptl_crystal_colour 'pale pink'
_exptl_crystal_density_diffrn 1.937
_exptl_crystal_description 'block'
_diffrn_ambient_temperature 180
_refine_special_details
;
Zn1 and Co1 disordered over two sites with occupancies 0.60:0.40.

;
#These two values have been output from a single CSD field.
_refine_ls_R_factor_gt 0.0172
_refine_ls_wR_factor_gt 0.0172
_symmetry_cell_setting orthorhombic
_symmetry_space_group_name_H-M 'P n m a'
_symmetry_Int_Tables_number 62
loop_
_symmetry_equiv_pos_site_id
_symmetry_equiv_pos_as_xyz
1 x,y,z
2 1/2-x,-y,1/2+z
3 -x,1/2+y,-z
4 1/2+x,1/2-y,1/2-z
5 -x,-y,-z
6 -1/2+x,y,-1/2-z
7 x,-1/2-y,z
8 -1/2-x,-1/2+y,-1/2+z
_cell_length_a 8.3119(3)
_cell_length_b 11.6607(4)
_cell_length_c 8.1331(3)
_cell_angle_alpha 90
_cell_angle_beta 90
_cell_angle_gamma 90
_cell_formula_units_Z 4
loop_
_atom_type_symbol
_atom_type_radius_bond
C 0.68
H 0.23
Co 1.26
N 0.68
O 0.68
Zn 1.22
loop_
_atom_site_label
_atom_site_type_symbol
_atom_site_fract_x
_atom_site_fract_y
_atom_site_fract_z
Co1? Co 0.00000 0.50000 0.00000
Zn1 Zn 0.00000 0.50000 0.00000
O1 O 0.09687(9) 0.57001(7) 0.21468(10)
O2 O 0.27373(9) 0.55991(7) 0.41820(9)
O3 O -0.02693(10) 0.34470(7) 0.12719(10)
C1 C 0.22003(13) 0.52992(10) 0.27983(14)
H1 H 0.27760 0.47270 0.22120
C2 C -0.01115(17) 0.25000 0.0564(2)
H2 H 0.01420 0.25000 -0.05750
C3 C -0.0846(3) 0.75000 0.4767(3)
N1 N 0.08533(19) 0.75000 0.52935(19)
H3 H 0.085(3) 0.75000 0.6386(18)
H4 H 0.136(2) 0.6862(7) 0.4904(18)
H5 H -0.085(3) 0.75000 0.3608(18)
H6 H -0.135(2) 0.6833(7) 0.5200(18)
O3F O -0.02693(10) 0.15530(7) 0.12719(10)
O1D O -0.09687(9) 0.42999(7) -0.21468(10)
O2D O -0.27373(9) 0.44009(7) -0.41820(9)
C1D C -0.22003(13) 0.47008(10) -0.27983(14)
H1D H -0.27760 0.52730 -0.22120
Zn1A Zn -0.50000 0.50000 -0.50000
Zn1A* Zn 0.50000 0.50000 0.50000
Zn1B Zn 0.00000 0.00000 0.00000
O2A O 0.22627(9) 0.44009(7) -0.08180(9)
O2E O -0.22627(9) 0.55991(7) 0.08180(9)
O3D O 0.02693(10) 0.65530(7) -0.12719(10)
H4F H 0.136(2) 0.8138(7) 0.4904(18)
H6F H -0.135(2) 0.8167(7) 0.5200(18)
#END
