
#######################################################################
#
#                 Cambridge Crystallographic Data Centre
#                                CCDC
#
#######################################################################
#
# If this CIF has been generated from an entry in the Cambridge
# Structural Database, then it will include bibliographic, chemical,
# crystal, experimental, refinement or atomic coordinate data resulting
# from the CCDC's data processing and validation procedures.
#
#######################################################################

data_CSD_CIF_TUZXUI
_audit_creation_date 2011-03-15
_audit_creation_method CSD-ConQuest-V1
_database_code_CSD TUZXUI
_database_code_depnum_ccdc_archive 'CCDC 733471'
_chemical_formula_sum 'C30 H36 Ag5 N6 Na8 O45 P1 W10'
_chemical_formula_moiety
;
(Na1 1+)8n,n(C30 H24 Ag5 N6 O39 P1 W10 8-),6n(H2 O1)
;
_journal_coden_Cambridge 9
_journal_volume 49
_journal_year 2010
_journal_page_first 736
_journal_name_full 'Inorg.Chem. '
loop_
_publ_author_name
"Hongxun Yang"
"Shuiying Gao"
"Jian Lu"
"Bo Xu"
"Jingxiang Lin"
"Rong Cao"
_chemical_name_systematic
;
catena-(octa-sodium 
(\m~12~-phosphato)-tris(\m~2~-4,4'-bipyridine)-nonacosakis(\m~2~-oxo)-hexaoxo-
penta-silver(i)-deca-tungsten(vi) hexahydrate)
;
_cell_volume   3525.251
_exptl_crystal_colour 'colorless'
_exptl_crystal_density_diffrn 3.586
_exptl_special_details
;
The paper describes a number of bonds involving the Na atoms which have not 
been represented in the 2D diagram
;
_exptl_crystal_description 'prism'
_diffrn_ambient_temperature 293
_refine_special_details
;
The structure is disordered by symmetry.

;
#These two values have been output from a single CSD field.
_refine_ls_R_factor_gt 0.0695
_refine_ls_wR_factor_gt 0.0695
_symmetry_cell_setting monoclinic
_symmetry_space_group_name_H-M 'P 2/c'
_symmetry_Int_Tables_number 13
loop_
_symmetry_equiv_pos_site_id
_symmetry_equiv_pos_as_xyz
1 x,y,z
2 -x,y,1/2-z
3 -x,-y,-z
4 x,-y,-1/2+z
_cell_length_a 16.85(2)
_cell_length_b 11.236(15)
_cell_length_c 22.86(2)
_cell_angle_alpha 90
_cell_angle_beta 125.46(7)
_cell_angle_gamma 90
_cell_formula_units_Z 2
loop_
_atom_type_symbol
_atom_type_radius_bond
C 0.68
H 0.23
Ag 1.57
N 0.68
Na 0.76
O 0.79
P 1.05
W 1.31
loop_
_atom_site_label
_atom_site_type_symbol
_atom_site_fract_x
_atom_site_fract_y
_atom_site_fract_z
Na1 Na -0.7217(8) 0.3478(9) -0.8745(6)
Na2 Na -0.6005(8) 0.1861(9) -0.9373(6)
Na3 Na -0.3753(7) 0.3479(8) -0.8140(5)
Na4 Na -0.5952(7) -0.4914(10) -0.9339(5)
O1 O -0.708(4) 0.348(4) -0.960(3)
O2 O -0.678(4) 0.125(4) -1.057(3)
O3 O -0.285(3) 0.333(3) -0.8721(18)
W1 W -0.62441(8) 0.02165(9) -0.68861(5)
W2 W -0.72070(7) 0.02195(9) -0.87466(5)
W3 W -0.62396(7) -0.30588(9) -0.68820(5)
W4 W -0.71976(7) -0.30595(9) -0.87383(5)
W5 W -0.59567(7) -0.14160(9) -0.93407(5)
P1 P -0.50000 -0.1433(6) -0.75000
Ag1 Ag -1.00000 -0.50000 -1.00000
Ag2 Ag -1.02046(18) 0.1588(2) -1.00896(11)
Ag3 Ag -0.50000 -0.4637(2) -0.75000
Ag4 Ag -0.50000 0.1802(2) -0.75000
C1 C -1.0903(18) 0.129(2) -0.8498(13)
H1 H -1.14660 0.11240 -0.85280
C2 C -1.0837(16) -0.5249(17) -1.2225(11)
H2 H -1.14140 -0.53960 -1.26730
C3 C -0.928(2) 0.190(3) -0.8456(16)
H3 H -0.87410 0.21130 -0.84480
C4 C -0.9997(19) -0.499(2) -1.2163(14)
C5 C -0.922(2) 0.194(2) -0.7838(16)
H4 H -0.86550 0.22200 -0.74180
C6 C -0.919(2) -0.460(2) -1.0905(15)
H5 H -0.86470 -0.43170 -1.04710
C7 C -0.916(2) -0.464(2) -1.1504(13)
H6 H -0.85910 -0.44420 -1.14650
C8 C -1.0027(16) 0.1744(19) -1.2199(12)
C9 C -0.924(2) 0.199(2) -1.1500(14)
H7 H -0.86360 0.21550 -1.14150
C10 C -1.0044(17) 0.1551(19) -0.7831(12)
C11 C -1.089(2) 0.145(2) -1.2276(14)
H8 H -1.14510 0.12560 -1.27250
C12 C -1.081(2) -0.529(2) -1.1587(14)
H9 H -1.13570 -0.55350 -1.16150
C13 C -1.094(2) 0.128(2) -0.9115(14)
H10 H -1.15200 0.10930 -0.95490
C14 C -0.930(2) 0.200(3) -1.0946(16)
H11 H -0.87530 0.21670 -1.04900
C15 C -1.091(2) 0.146(2) -1.1666(13)
H12 H -1.14900 0.12480 -1.17280
N1 N -0.9996(17) -0.497(2) -1.0946(12)
N2 N -1.0143(16) 0.1537(18) -0.9112(11)
N3 N -1.0184(19) 0.175(2) -1.1031(13)
O4 O -0.8267(19) -0.371(2) -0.9344(13)
O5 O -0.553(2) -0.432(3) -0.6940(18)
O6 O -0.5051(17) -0.257(2) -0.6028(17)
O7 O -0.50000 -0.648(5) -0.75000
O8 O -0.560(2) 0.153(3) -0.6921(18)
O9 O -0.639(2) 0.154(2) -0.8420(16)
O10 O -0.8288(19) 0.083(3) -0.9349(16)
O11 O -0.761(2) -0.137(2) -0.8829(16)
O12 O -0.715(2) -0.307(2) -0.7898(14)
O13 O -0.705(3) 0.005(3) -0.7874(19)
O14 O -0.505(2) -0.019(3) -0.6048(15)
O15 O -0.639(3) -0.439(3) -0.8444(18)
O16 O -0.6846(17) 0.084(2) -0.6579(11)
O17 O -0.639(2) -0.140(2) -1.0210(16)
O18 O -0.660(3) -0.132(3) -0.703(2)
O19 O -0.6843(18) -0.363(3) -0.6552(14)
O20 O -0.701(5) -0.038(6) -0.950(4)
O21 O -0.690(3) -0.250(3) -0.947(2)
O22 O -0.5654(18) -0.028(2) -0.7619(13)
O23 O -0.558(2) -0.246(3) -0.7599(18)
O24 O -0.483(2) -0.142(2) -0.8069(15)
O25 O -0.408(2) -0.141(2) -0.6730(15)
O26? O -0.731(3) 0.057(4) -0.794(2)
O27? O -0.326(3) -0.152(4) -0.814(2)
O28? O -0.668(3) -0.018(3) -0.925(2)
O29? O -0.659(3) -0.261(4) -0.914(2)
W1A W -0.37559(8) 0.02165(9) -0.81139(5)
W2B W -1.27930(7) -1.02195(9) -1.12534(5)
W2A W -0.27930(7) 0.02195(9) -0.62534(5)
W3B W -1.37604(7) -0.69412(9) -1.31180(5)
W3A W -0.37604(7) -0.30588(9) -0.81180(5)
W4B W -1.28024(7) -0.69405(9) -1.12617(5)
W4A W -0.28024(7) -0.30595(9) -0.62617(5)
W5B W -1.40433(7) -0.85840(9) -1.06593(5)
W5A W -0.40433(7) -0.14160(9) -0.56593(5)
Ag1A Ag -1.00000 -0.50000 -1.50000
Ag1A* Ag 0.00000 -0.50000 -0.50000
Ag2B Ag -0.97954(18) -1.1588(2) -0.99104(11)
Ag2A Ag -0.97954(18) 0.1588(2) -0.49104(11)
Ag2A* Ag -0.97954(18) 0.1588(2) -1.49104(11)
Ag3B Ag -1.50000 -0.5363(2) -1.25000
Ag4* Ag -0.50000 -0.8198(2) -0.75000
C1A C -0.9097(18) 0.129(2) -0.6502(13)
H1A H -0.85340 0.11240 -0.64720
C2A C -0.9163(16) -0.5249(17) -1.2775(11)
H2A H -0.85860 -0.53960 -1.23270
C3A C -1.072(2) 0.190(3) -0.6544(16)
H3A H -1.12590 0.21130 -0.65520
C4A C -1.0003(19) -0.499(2) -1.2837(14)
C5A C -1.078(2) 0.194(2) -0.7162(16)
H4A H -1.13450 0.22200 -0.75820
C6A C -1.081(2) -0.460(2) -1.4095(15)
H5A H -1.13530 -0.43170 -1.45290
C7A C -1.084(2) -0.464(2) -1.3496(13)
H6A H -1.14090 -0.44420 -1.35350
C8A C -0.9973(16) 0.1744(19) -1.2801(12)
C9A C -1.076(2) 0.199(2) -1.3500(14)
H7A H -1.13640 0.21550 -1.35850
C10A C -0.9956(17) 0.1551(19) -0.7169(12)
C11A C -0.911(2) 0.145(2) -1.2724(14)
H8A H -0.85490 0.12560 -1.22750
C12A C -0.919(2) -0.529(2) -1.3413(14)
H9A H -0.86430 -0.55350 -1.33850
C13A C -0.906(2) 0.128(2) -0.5885(14)
H10A H -0.84800 0.10930 -0.54510
C14A C -1.070(2) 0.200(3) -1.4054(16)
H11A H -1.12470 0.21670 -1.45100
C15A C -0.909(2) 0.146(2) -1.3334(13)
H12A H -0.85100 0.12480 -1.32720
N1A N -1.0004(17) -0.497(2) -1.4054(12)
N1B N -1.0004(17) -0.503(2) -0.9054(12)
N2A N -0.9857(16) 0.1537(18) -0.5888(11)
N2B N -0.9857(16) -1.1537(18) -1.0888(11)
N3A N -0.9816(19) 0.175(2) -1.3969(13)
N3B N -0.9816(19) -1.175(2) -0.8969(13)
O4B O -1.1733(19) -0.629(2) -1.0656(13)
O4A O -0.1733(19) -0.371(2) -0.5656(13)
O5A O -0.447(2) -0.432(3) -0.8060(18)
O5B O -1.447(2) -0.568(3) -1.3060(18)
O6A O -0.4949(17) -0.257(2) -0.8972(17)
O6B O -1.4949(17) -0.743(2) -1.3972(17)
O6C O -1.5051(17) -0.743(2) -1.1028(17)
O7* O -0.50000 0.352(5) -0.75000
O8A O -0.440(2) 0.153(3) -0.8079(18)
O9A O -0.361(2) 0.154(2) -0.6580(16)
O9B O -1.361(2) -1.154(2) -1.1580(16)
O10B O -1.1712(19) -1.083(3) -1.0651(16)
O10A O -0.1712(19) 0.083(3) -0.5651(16)
O11B O -1.239(2) -0.863(2) -1.1171(16)
O11A O -0.239(2) -0.137(2) -0.6171(16)
O12B O -1.285(2) -0.693(2) -1.2102(14)
O12A O -0.285(2) -0.307(2) -0.7102(14)
O13A O -0.295(3) 0.005(3) -0.7126(19)
O13B O -1.295(3) -1.005(3) -1.2126(19)
O14A O -0.495(2) -0.019(3) -0.8952(15)
O14C O -1.505(2) -0.981(3) -1.1048(15)
O15B O -1.361(3) -0.561(3) -1.1556(18)
O15A O -0.361(3) -0.439(3) -0.6556(18)
O16A O -0.3154(17) 0.084(2) -0.8421(11)
O17B O -1.361(2) -0.860(2) -0.9790(16)
O17A O -0.361(2) -0.140(2) -0.4790(16)
O18A O -0.340(3) -0.132(3) -0.797(2)
O18B O -1.340(3) -0.868(3) -1.297(2)
O19B O -1.3157(18) -0.637(3) -1.3448(14)
O20B O -1.299(5) -0.962(6) -1.050(4)
O20A O -0.299(5) -0.038(6) -0.550(4)
O21B O -1.310(3) -0.750(3) -1.053(2)
O21A O -0.310(3) -0.250(3) -0.553(2)
O22A O -0.4346(18) -0.028(2) -0.7381(13)
O22B O -1.4346(18) -0.972(2) -1.2381(13)
O23A O -0.442(2) -0.246(3) -0.7401(18)
O23B O -1.442(2) -0.754(3) -1.2401(18)
O24A O -0.517(2) -0.142(2) -0.6931(15)
O24B O -1.517(2) -0.858(2) -1.1931(15)
O25A O -0.592(2) -0.141(2) -0.8270(15)
O25C O -1.408(2) -0.859(2) -1.1730(15)
#END
