
#######################################################################
#
#                 Cambridge Crystallographic Data Centre
#                                CCDC
#
#######################################################################
#
# If this CIF has been generated from an entry in the Cambridge
# Structural Database, then it will include bibliographic, chemical,
# crystal, experimental, refinement or atomic coordinate data resulting
# from the CCDC's data processing and validation procedures.
#
#######################################################################

data_CSD_CIF_TUZXIW
_audit_creation_date 2011-03-15
_audit_creation_method CSD-ConQuest-V1
_database_code_CSD TUZXIW
_database_code_depnum_ccdc_archive 'CCDC 733469'
_chemical_formula_sum 'C50 H50 Ag4 N10 O66 P2 W18'
_chemical_formula_moiety
;
(C10 H10 N2 2+)n,n(C40 H32 Ag4 N8 O62 P2 W18 2-),4n(H2 O1)
;
_journal_coden_Cambridge 9
_journal_volume 49
_journal_year 2010
_journal_page_first 736
_journal_name_full 'Inorg.Chem. '
loop_
_publ_author_name
"Hongxun Yang"
"Shuiying Gao"
"Jian Lu"
"Bo Xu"
"Jingxiang Lin"
"Rong Cao"
_chemical_name_systematic
;
catena-(4,4'-bipyridine-diium 
bis(\m~9~-phosphato)-tetrakis(\m~2~-4,4'-bipyridine)-tetratetracontakis(\m~2~-
oxo)-decaoxo-tetra-silver(i)-octadeca-tungsten(vi) tetrahydrate)
;
_cell_volume   9556.791
_exptl_crystal_colour 'yellow'
_exptl_crystal_density_diffrn 3.927
_exptl_crystal_description 'prism'
_diffrn_ambient_temperature 293
#These two values have been output from a single CSD field.
_refine_ls_R_factor_gt 0.0549
_refine_ls_wR_factor_gt 0.0549
_symmetry_cell_setting orthorhombic
_symmetry_space_group_name_H-M 'P b c n'
_symmetry_Int_Tables_number 60
loop_
_symmetry_equiv_pos_site_id
_symmetry_equiv_pos_as_xyz
1 x,y,z
2 1/2-x,1/2-y,1/2+z
3 1/2+x,1/2-y,-z
4 -x,y,1/2-z
5 -x,-y,-z
6 -1/2+x,-1/2+y,-1/2-z
7 -1/2-x,-1/2+y,z
8 x,-y,-1/2+z
_cell_length_a 24.789(5)
_cell_length_b 22.241(5)
_cell_length_c 17.334(4)
_cell_angle_alpha 90
_cell_angle_beta 90
_cell_angle_gamma 90
_cell_formula_units_Z 4
loop_
_atom_type_symbol
_atom_type_radius_bond
C 0.68
H 0.23
Ag 1.78
N 0.68
O 0.68
P 1.05
W 1.39
loop_
_atom_site_label
_atom_site_type_symbol
_atom_site_fract_x
_atom_site_fract_y
_atom_site_fract_z
W1 W -0.06057(2) 0.26721(2) -0.03603(3)
W2 W -0.073115(19) 0.08551(2) 0.13873(3)
W3 W 0.074991(19) 0.08528(2) 0.14443(3)
W4 W 0.141856(18) 0.21647(2) 0.14925(3)
W5 W 0.07523(2) 0.26405(2) -0.03192(3)
W6 W -0.138303(18) 0.21732(2) 0.13463(3)
W7 W 0.070027(19) 0.36072(2) 0.14230(3)
W8 W -0.065721(19) 0.36114(2) 0.14075(3)
W9 W 0.00478(2) 0.13293(2) -0.03289(3)
Ag1 Ag -0.20807(5) 0.27341(5) -0.04337(8)
Ag2 Ag -0.29605(5) 0.22330(5) 0.20167(9)
P1 P 0.00217(10) 0.22266(13) 0.13564(16)
C1 C -0.2671(5) 0.1589(6) -0.0269(9)
H1 H -0.29330 0.18760 -0.01550
C2 C -0.1827(6) 0.1366(7) -0.0653(9)
H2 H -0.14880 0.14950 -0.08120
C3 C -0.2389(5) 0.5037(6) 0.2127(8)
C4 C -0.2560(6) -0.0093(7) -0.0323(9)
C5 C -0.3176(7) -0.0918(7) -0.0484(11)
H3 H -0.35200 -0.10560 -0.06040
C6 C -0.2166(6) -0.0521(6) -0.0136(9)
H4 H -0.18150 -0.03980 -0.00320
C7 C -0.1783(6) 0.5857(7) 0.1825(11)
H5 H -0.14610 0.59830 0.16020
C8 C -0.2297(6) -0.1127(6) -0.0107(9)
H6 H -0.20380 -0.14060 0.00410
C9 C -0.3052(6) 0.4226(7) 0.1883(10)
H7 H -0.33090 0.45080 0.17370
C10 C -0.2427(5) 0.0552(6) -0.0384(8)
C11 C -0.2725(7) 0.5478(7) 0.2469(10)
H8 H -0.30490 0.53690 0.27000
C12 C -0.1926(6) 0.0752(7) -0.0608(9)
H9 H -0.16550 0.04780 -0.07290
C13 C -0.2567(8) 0.6070(8) 0.2453(11)
H10 H -0.27970 0.63530 0.26710
C14 C -0.1909(7) 0.5241(7) 0.181(1)
H11 H -0.16710 0.49690 0.15860
C15 C -0.2811(6) 0.0990(7) -0.0205(9)
H12 H -0.31550 0.08800 -0.00450
C16 C -0.3071(7) -0.0304(6) -0.0511(10)
H13 H -0.33410 -0.00360 -0.06550
C17 C -0.2189(6) 0.3965(8) 0.2363(10)
H14 H -0.18410 0.40620 0.25200
C18 C -0.2547(5) 0.4419(6) 0.2127(9)
C19 C -0.3177(6) 0.3627(7) 0.1855(9)
H15 H -0.35090 0.35140 0.16520
C20 C -0.2358(7) 0.3373(7) 0.2359(10)
H16 H -0.21210 0.30810 0.25420
N1 N -0.2200(5) 0.1776(5) -0.0476(7)
N2 N -0.2799(5) -0.1312(5) -0.0293(8)
N3 N -0.2840(5) 0.3195(5) 0.2107(8)
N4 N -0.2103(5) 0.6270(6) 0.2144(8)
O1 O 0.2098(3) 0.2282(4) 0.1389(5)
O2 O -0.2052(3) 0.2305(4) 0.1161(5)
O3 O 0.1211(4) 0.2907(4) -0.0983(5)
O4 O -0.1041(4) 0.2951(4) -0.1048(5)
O5 O -0.1100(3) 0.2305(4) 0.0326(4)
O6 O 0.0013(3) 0.0710(4) 0.1602(5)
O7 O 0.0998(4) 0.0148(4) 0.1290(5)
O8 O -0.0852(3) 0.0885(4) 0.2471(4)
O9 O 0.0080(4) 0.2915(4) -0.0756(5)
O10 O 0.1173(3) 0.2973(4) 0.1665(4)
O11 O -0.0482(3) 0.1052(4) 0.0356(5)
O12 O 0.1431(3) 0.2060(4) 0.2574(4)
O13 O 0.0030(3) 0.4008(4) 0.1272(5)
O14 O 0.0608(3) 0.1878(4) -0.0736(4)
O15 O 0.1128(3) 0.4198(4) 0.1274(5)
O16 O 0.0695(3) 0.3297(4) 0.0390(4)
O17 O 0.1208(3) 0.2298(4) 0.0428(5)
O18 O -0.0976(4) 0.0155(4) 0.1212(5)
O19 O -0.0468(3) 0.1892(4) -0.0776(4)
O20 O 0.0526(3) 0.1892(3) 0.1631(4)
O21 O -0.0586(3) 0.3303(4) 0.0356(5)
O22 O -0.1360(3) 0.1330(4) 0.1207(5)
O23 O -0.1077(3) 0.4194(4) 0.1197(5)
O24 O -0.0489(3) 0.1899(4) 0.1586(4)
O25 O 0.0054(4) 0.0792(4) -0.1013(5)
O26 O -0.1131(3) 0.2978(4) 0.1573(4)
O27 O 0.0016(3) 0.2884(4) 0.1611(5)
O28 O 0.0561(3) 0.1059(4) 0.0401(4)
O29 O 0.1396(3) 0.1319(4) 0.1335(5)
O30 O 0.0048(3) 0.2226(4) 0.0436(4)
O31 O 0.0601(3) 0.3729(4) 0.2518(4)
C21 C -0.0389(9) 0.4707(9) -0.2140(12)
H17 H -0.06620 0.49220 -0.18970
C22 C 0.00000 0.3107(9) -0.25000
C23 C 0.00000 0.3760(11) -0.25000
C24 C -0.0488(10) 0.2790(7) -0.2522(6)
H18 H -0.08180 0.29880 -0.25480
C25 C -0.0457(10) 0.2157(9) -0.2503(7)
H19 H -0.07740 0.19340 -0.24930
C26 C -0.0391(8) 0.4084(8) -0.2123(11)
H20 H -0.06610 0.38830 -0.18530
N5 N 0.00000 0.4994(12) -0.25000
H21 H 0.00000 0.53800 -0.25000
N6 N 0.00000 0.1880(12) -0.25000
H22 H 0.00000 0.14930 -0.25000
O32 O 0.0660(5) 0.0808(5) -0.2508(6)
O33 O 0.4492(11) 0.0360(12) 0.0323(15)
W1C W 0.06057(2) 0.26721(2) 0.53603(3)
W2C W 0.073115(19) 0.08551(2) 0.36127(3)
W3C W -0.074991(19) 0.08528(2) 0.35557(3)
W4C W -0.141856(18) 0.21647(2) 0.35075(3)
W5C W -0.07523(2) 0.26405(2) 0.53192(3)
W6C W 0.138303(18) 0.21732(2) 0.36537(3)
W7C W -0.070027(19) 0.36072(2) 0.35770(3)
W8C W 0.065721(19) 0.36114(2) 0.35925(3)
W9C W -0.00478(2) 0.13293(2) 0.53289(3)
Ag1F Ag -0.29193(5) 0.77341(5) -0.04337(8)
Ag1F* Ag -0.29193(5) -0.22659(5) -0.04337(8)
Ag1B Ag 0.29193(5) 0.22659(5) 0.04337(8)
Ag1C Ag 0.20807(5) 0.27341(5) 0.54337(8)
Ag1A Ag -0.29193(5) 0.22659(5) 0.45663(8)
Ag2B Ag 0.20395(5) 0.27670(5) -0.20167(9)
Ag2F Ag -0.20395(5) 0.72330(5) 0.20167(9)
Ag2F* Ag -0.20395(5) -0.27670(5) 0.20167(9)
Ag2C Ag 0.29605(5) 0.22330(5) 0.29833(9)
Ag2A Ag -0.20395(5) 0.27670(5) 0.70167(9)
P1C P -0.00217(10) 0.22266(13) 0.36436(16)
C1F C -0.2329(5) 0.6589(6) -0.0269(9)
H1F H -0.20670 0.68760 -0.01550
C2F C -0.3173(6) 0.6366(7) -0.0653(9)
H2F H -0.35120 0.64950 -0.08120
C3F C -0.2611(5) 0.0037(6) 0.2127(8)
C4F C -0.2440(6) 0.4907(7) -0.0323(9)
C5F C -0.1824(7) 0.4082(7) -0.0484(11)
H3F H -0.14800 0.39440 -0.06040
C6F C -0.2834(6) 0.4479(6) -0.0136(9)
H4F H -0.31850 0.46020 -0.00320
C7F C -0.3217(6) 0.0857(7) 0.1825(11)
H5F H -0.35390 0.09830 0.16020
C8F C -0.2703(6) 0.3873(6) -0.0107(9)
H6F H -0.29620 0.35940 0.00410
C9F C -0.1948(6) -0.0774(7) 0.1883(10)
H7F H -0.16910 -0.04920 0.17370
C10F C -0.2573(5) 0.5552(6) -0.0384(8)
C11F C -0.2275(7) 0.0478(7) 0.2469(10)
H8F H -0.19510 0.03690 0.27000
C12F C -0.3074(6) 0.5752(7) -0.0608(9)
H9F H -0.33450 0.54780 -0.07290
C13F C -0.2433(8) 0.1070(8) 0.2453(11)
H10F H -0.22030 0.13530 0.26710
C14F C -0.3091(7) 0.0241(7) 0.181(1)
H11F H -0.33290 -0.00310 0.15860
C15F C -0.2189(6) 0.5990(7) -0.0205(9)
H12F H -0.18450 0.58800 -0.00450
C16F C -0.1929(7) 0.4696(6) -0.0511(10)
H13F H -0.16590 0.49640 -0.06550
C17F C -0.2811(6) -0.1035(8) 0.2363(10)
H14F H -0.31590 -0.09380 0.25200
C18F C -0.2453(5) -0.0581(6) 0.2127(9)
C19F C -0.1823(6) -0.1373(7) 0.1855(9)
H15F H -0.14910 -0.14860 0.16520
C20F C -0.2642(7) -0.1627(7) 0.2359(10)
H16F H -0.28790 -0.19190 0.25420
N1F N -0.2800(5) 0.6776(5) -0.0476(7)
N2F N -0.2201(5) 0.3688(5) -0.0293(8)
N2* N -0.2799(5) 0.8688(5) -0.0293(8)
N3F N -0.2160(5) -0.1805(5) 0.2107(8)
N3F* N -0.2160(5) 0.8195(5) 0.2107(8)
N4F N -0.2897(5) 0.1270(6) 0.2144(8)
O1B O -0.2902(3) 0.2718(4) -0.1389(5)
O1D O -0.2098(3) 0.7718(4) -0.1389(5)
O1C O -0.2098(3) 0.2282(4) 0.3611(5)
O2C O 0.2052(3) 0.2305(4) 0.3839(5)
O2F O -0.2948(3) 0.7305(4) 0.1161(5)
O3B O -0.3789(4) 0.2093(4) 0.0983(5)
O3C O -0.1211(4) 0.2907(4) 0.5983(5)
O3D O -0.1211(4) 0.7093(4) 0.0983(5)
O4F O -0.3959(4) 0.7951(4) -0.1048(5)
O4C O 0.1041(4) 0.2951(4) 0.6048(5)
O5C O 0.1100(3) 0.2305(4) 0.4674(4)
O6C O -0.0013(3) 0.0710(4) 0.3398(5)
O7C O -0.0998(4) 0.0148(4) 0.3710(5)
O8C O 0.0852(3) 0.0885(4) 0.2529(4)
O9C O -0.0080(4) 0.2915(4) 0.5756(5)
O10C O -0.1173(3) 0.2973(4) 0.3335(4)
O11C O 0.0482(3) 0.1052(4) 0.4644(5)
O12C O -0.1431(3) 0.2060(4) 0.2426(4)
O13C O -0.0030(3) 0.4008(4) 0.3728(5)
O14C O -0.0608(3) 0.1878(4) 0.5736(4)
O15C O -0.1128(3) 0.4198(4) 0.3726(5)
O16C O -0.0695(3) 0.3297(4) 0.4610(4)
O17C O -0.1208(3) 0.2298(4) 0.4572(5)
O18C O 0.0976(4) 0.0155(4) 0.3788(5)
O19C O 0.0468(3) 0.1892(4) 0.5776(4)
O20C O -0.0526(3) 0.1892(3) 0.3369(4)
O21C O 0.0586(3) 0.3303(4) 0.4644(5)
O22C O 0.1360(3) 0.1330(4) 0.3793(5)
O23C O 0.1077(3) 0.4194(4) 0.3803(5)
O24C O 0.0489(3) 0.1899(4) 0.3414(4)
O25C O -0.0054(4) 0.0792(4) 0.6013(5)
O26C O 0.1131(3) 0.2978(4) 0.3427(4)
O27C O -0.0016(3) 0.2884(4) 0.3389(5)
O28C O -0.0561(3) 0.1059(4) 0.4599(4)
O29C O -0.1396(3) 0.1319(4) 0.3665(5)
O30C O -0.0048(3) 0.2226(4) 0.4564(4)
O31C O -0.0601(3) 0.3729(4) 0.2482(4)
C21C C 0.0389(9) 0.4707(9) -0.2860(12)
H17C H 0.06620 0.49220 -0.31030
C24C C 0.0488(10) 0.2790(7) -0.2478(6)
H18C H 0.08180 0.29880 -0.24520
C25C C 0.0457(10) 0.2157(9) -0.2497(7)
H19C H 0.07740 0.19340 -0.25070
C26C C 0.0391(8) 0.4084(8) -0.2877(11)
H20C H 0.06610 0.38830 -0.31470
#END
