
#######################################################################
#
#                 Cambridge Crystallographic Data Centre
#                                CCDC
#
#######################################################################
#
# If this CIF has been generated from an entry in the Cambridge
# Structural Database, then it will include bibliographic, chemical,
# crystal, experimental, refinement or atomic coordinate data resulting
# from the CCDC's data processing and validation procedures.
#
#######################################################################

data_CSD_CIF_TUZYUJ
_audit_creation_date 2011-03-15
_audit_creation_method CSD-ConQuest-V1
_database_code_CSD TUZYUJ
_database_code_depnum_ccdc_archive 'CCDC 750173'
_chemical_formula_sum 'C2 H2 Mg1 Na1 O6 P1'
_chemical_formula_moiety
;
(Na1 1+)n,n(C2 H2 Mg1 O6 P1 1-)
;
_journal_coden_Cambridge 9
_journal_volume 49
_journal_year 2010
_journal_page_first 761
_journal_name_full 'Inorg.Chem. '
loop_
_publ_author_name
"R.M.P.Colodrero"
"P.Olivera-Pastor"
"A.Cabeza"
"M.Papadaki"
"K.D.Demadis"
"M.A.G.Aranda"
_chemical_name_systematic
;
catena-(sodium (\m~4~-2-hydroxy-2-phosphonoacetato)-magnesium(ii))
;
_cell_volume   1069.775
_exptl_special_details
;
powder data

;
_diffrn_ambient_temperature ?
_diffrn_special_details
;
The study was carried out at room temperature,in the range 283-303K

;
#These two values have been output from a single CSD field.
_refine_ls_R_factor_gt 0.0681
_refine_ls_wR_factor_gt 0.0681
_symmetry_cell_setting orthorhombic
_symmetry_space_group_name_H-M 'P b c a'
_symmetry_Int_Tables_number 61
loop_
_symmetry_equiv_pos_site_id
_symmetry_equiv_pos_as_xyz
1 x,y,z
2 1/2-x,-y,1/2+z
3 1/2+x,1/2-y,-z
4 -x,1/2+y,1/2-z
5 -x,-y,-z
6 -1/2+x,y,-1/2-z
7 -1/2-x,-1/2+y,z
8 x,-1/2-y,-1/2+z
_cell_length_a 10.19057(10)
_cell_length_b 9.69876(10)
_cell_length_c 10.82375(9)
_cell_angle_alpha 90
_cell_angle_beta 90
_cell_angle_gamma 90
_cell_formula_units_Z 8
loop_
_atom_type_symbol
_atom_type_radius_bond
C 0.68
Mg 1.41
Na 1.16
O 0.68
P 1.05
loop_
_atom_site_label
_atom_site_type_symbol
_atom_site_fract_x
_atom_site_fract_y
_atom_site_fract_z
Mg1 Mg 0.18102(22) 0.08320(23) 0.39194(18)
P1 P 0.40376(18) 0.27909(22) 0.54096(15)
C1 C 0.3753(4) 0.2909(5) 0.71118(32)
C2 C 0.4097(4) 0.4418(4) 0.7366(5)
O1 O 0.35080(33) 0.14161(33) 0.4984(3)
O2 O 0.55393(28) 0.28416(35) 0.52445(26)
O3 O 0.33296(31) 0.40457(34) 0.48634(27)
O4 O 0.23860(29) 0.2716(4) 0.73996(31)
O5 O 0.5276(4) 0.4814(4) 0.73181(32)
O6 O 0.32147(34) 0.52454(33) 0.77642(32)
Na1 Na 0.37653(26) -0.08369(25) 0.57390(18)
Mg1B Mg 0.68102(22) 0.41680(23) 0.60806(18)
Mg1F Mg 0.31898(22) 0.58320(23) 0.39194(18)
Mg1G Mg 0.18102(22) 0.41680(23) 0.89194(18)
O2B O 0.05393(28) 0.21584(35) 0.47555(26)
O3F O 0.16704(31) -0.09543(34) 0.48634(27)
O4G O 0.23860(29) 0.2284(4) 0.23996(31)
O5B O 0.0276(4) 0.0186(4) 0.26819(32)
O6G O 0.32147(34) -0.02454(33) 0.27642(32)
#END
