
#######################################################################
#
#                 Cambridge Crystallographic Data Centre
#                                CCDC
#
#######################################################################
#
# If this CIF has been generated from an entry in the Cambridge
# Structural Database, then it will include bibliographic, chemical,
# crystal, experimental, refinement or atomic coordinate data resulting
# from the CCDC's data processing and validation procedures.
#
#######################################################################

data_CSD_CIF_UBIWUA
_audit_creation_date 2016-12-15
_audit_creation_method CSD-ConQuest-V1
_database_code_CSD UBIWUA
_database_code_depnum_ccdc_archive 'CCDC 1478146'
_chemical_formula_sum 'C60 H48 Ag6 Br11 K1 N12 Zn2'
_chemical_formula_moiety
;
2(C30 H24 N6 Zn1 2+),n(Ag6 Br11 K1 4-)
;
_journal_coden_Cambridge 9
_journal_volume 55
_journal_year 2016
_journal_page_first 12193
_journal_name_full 'Inorg.Chem. '
loop_
_publ_author_name
"Cheng-Yang Yue"
"Xiao-Wu Lei"
"Yong-Fang Han"
"Xin-Xiu Lu"
"Ya-Wei Tian"
"Jing Xu"
"Xiao-Fan Liu"
"Xin Xu"
_chemical_name_systematic
;
catena-[bis(tris(2,2'-bipyridine)-zinc(ii)) 
undecakis(\m-bromo)-potassium-hexa-silver]
;
_cell_volume   5371.388
_exptl_crystal_colour 'yellow'
_exptl_crystal_density_diffrn 2.442
_exptl_special_details
;
Isostructural with the Ni, Co and Fe analogues.

;
_exptl_crystal_description 'block'
_diffrn_ambient_temperature 296
#These two values have been output from a single CSD field.
_refine_ls_R_factor_gt 0.0343
_refine_ls_wR_factor_gt 0.0343
_symmetry_cell_setting rhombohedral
_symmetry_space_group_name_H-M 'R -3'
_symmetry_Int_Tables_number 148
loop_
_symmetry_equiv_pos_site_id
_symmetry_equiv_pos_as_xyz
1 x,y,z
2 -y,x-y,z
3 -x+y,-x,z
4 2/3+x,1/3+y,1/3+z
5 2/3-y,1/3+x-y,1/3+z
6 2/3-x+y,1/3-x,1/3+z
7 1/3+x,2/3+y,2/3+z
8 1/3-y,2/3+x-y,2/3+z
9 1/3-x+y,2/3-x,2/3+z
10 -x,-y,-z
11 y,-x+y,-z
12 x-y,x,-z
13 -2/3-x,-1/3-y,-1/3-z
14 -2/3+y,-1/3-x+y,-1/3-z
15 -2/3+x-y,-1/3+x,-1/3-z
16 -1/3-x,-2/3-y,-2/3-z
17 -1/3+y,-2/3-x+y,-2/3-z
18 -1/3+x-y,-2/3+x,-2/3-z
_cell_length_a 14.2015(11)
_cell_length_b 14.2015(11)
_cell_length_c 30.753(2)
_cell_angle_alpha 90
_cell_angle_beta 90
_cell_angle_gamma 120
_cell_formula_units_Z 3
loop_
_atom_type_symbol
_atom_type_radius_bond
C 0.68
H 0.23
Ag 1.45
Br 1.21
K 2.03
N 0.68
Zn 1.22
loop_
_atom_site_label
_atom_site_type_symbol
_atom_site_fract_x
_atom_site_fract_y
_atom_site_fract_z
Ag1 Ag 0.94759(3) 0.09007(3) 0.130382(14)
Br1 Br 1.00000 0.00000 0.20273(2)
Br2 Br 0.79267(5) -0.08101(5) 0.08331(2)
Br3 Br 0.83330 0.16670 0.16670
K1 K 1.00000 0.00000 0.00000
Zn1 Zn 1.00000 0.00000 0.37747(3)
N1 N 1.0944(3) -0.0501(3) 0.41316(11)
N2 N 0.9767(3) -0.1358(4) 0.34232(11)
C1 C 1.0164(4) -0.1942(5) 0.36083(14)
C2 C 1.0821(3) -0.1465(3) 0.40057(14)
C3 C 0.9234(4) -0.1698(6) 0.30468(15)
H1 H 0.89590 -0.12900 0.29200
C4 C 1.1617(4) 0.0024(4) 0.44634(15)
H2 H 1.17120 0.06960 0.45470
C5 C 1.0002(5) -0.2896(6) 0.34198(19)
H3 H 1.02650 -0.33050 0.35540
C6 C 1.2013(5) -0.1383(5) 0.45713(18)
H4 H 1.23610 -0.16880 0.47230
C7 C 1.2174(4) -0.0390(5) 0.46852(16)
H5 H 1.26510 0.00030 0.49090
C8 C 0.9454(5) -0.3230(7) 0.3034(2)
H6 H 0.93410 -0.38710 0.29060
C9 C 0.9072(4) -0.2625(6) 0.28367(17)
H7 H 0.87160 -0.28300 0.25700
C10 C 1.1334(5) -0.1938(4) 0.42305(17)
H8 H 1.12170 -0.26200 0.41510
Ag1A Ag 0.90993(3) -0.14248(3) 0.130382(14)
Br2A Br 1.08101(5) -0.12632(5) 0.08331(2)
Br3A Br 0.83330 -0.33340 0.16670
Ag1B Ag 1.14248(3) 0.05241(3) 0.130382(14)
Br2B Br 1.12632(5) 0.20733(5) 0.08331(2)
Br3B Br 1.33340 0.16670 0.16670
Ag1I Ag 1.05241(3) -0.09007(3) -0.130382(14)
Br1I Br 1.00000 0.00000 -0.20273(2)
Br2I Br 1.20733(5) 0.08101(5) -0.08331(2)
Ag1J Ag 1.09007(3) 0.14248(3) -0.130382(14)
Br2J Br 0.91899(5) 0.12632(5) -0.08331(2)
Ag1K Ag 0.85752(3) -0.05241(3) -0.130382(14)
Br2K Br 0.87368(5) -0.20733(5) -0.08331(2)
Ag1O Ag 0.719077(30) 0.243263(30) 0.202951(14)
Ag1P Ag 0.756737(30) -0.524187(30) 0.202951(14)
Ag1Q Ag 1.524187(30) 0.280923(30) 0.202951(14)
Br3F Br 1.16663 -0.16663 -0.16663
Br3G Br 1.16663 0.33327 -0.16663
Br3H Br 0.66673 -0.16663 -0.16663
N1A N 1.0501(3) 0.1445(3) 0.41316(11)
N2A N 1.1358(3) 0.1125(4) 0.34232(11)
C1A C 1.1942(4) 0.2106(5) 0.36083(14)
C2A C 1.1465(3) 0.2286(3) 0.40057(14)
C3A C 1.1698(4) 0.0932(6) 0.30468(15)
H1A H 1.12900 0.02490 0.29200
C4A C 0.9976(4) 0.1593(4) 0.44634(15)
H2A H 0.93040 0.10160 0.45470
C5A C 1.2896(5) 0.2898(6) 0.34198(19)
H3A H 1.33050 0.35700 0.35540
C6A C 1.1383(5) 0.3396(5) 0.45713(18)
H4A H 1.16880 0.40490 0.47230
C7A C 1.0390(4) 0.2564(5) 0.46852(16)
H5A H 0.99970 0.26480 0.49090
C8A C 1.3230(5) 0.2684(7) 0.3034(2)
H6A H 1.38710 0.32120 0.29060
C9A C 1.2625(4) 0.1697(6) 0.28367(17)
H7A H 1.28300 0.15460 0.25700
C10A C 1.1938(5) 0.3272(4) 0.42305(17)
H8A H 1.26200 0.38370 0.41510
N1B N 0.8555(3) -0.0944(3) 0.41316(11)
N2B N 0.8875(3) 0.0233(4) 0.34232(11)
C1B C 0.7894(4) -0.0164(5) 0.36083(14)
C2B C 0.7714(3) -0.0821(3) 0.40057(14)
C3B C 0.9068(4) 0.0766(6) 0.30468(15)
H1B H 0.97510 0.10410 0.29200
C4B C 0.8407(4) -0.1617(4) 0.44634(15)
H2B H 0.89840 -0.17120 0.45470
C5B C 0.7102(5) -0.0002(6) 0.34198(19)
H3B H 0.64300 -0.02650 0.35540
C6B C 0.6604(5) -0.2013(5) 0.45713(18)
H4B H 0.59510 -0.23610 0.47230
C7B C 0.7436(4) -0.2174(5) 0.46852(16)
H5B H 0.73520 -0.26510 0.49090
C8B C 0.7316(5) 0.0546(7) 0.3034(2)
H6B H 0.67880 0.06590 0.29060
C9B C 0.8303(4) 0.0928(6) 0.28367(17)
H7B H 0.84540 0.12840 0.25700
C10B C 0.6728(5) -0.1334(4) 0.42305(17)
H8B H 0.61630 -0.12170 0.41510
#END
