
#######################################################################
#
#                 Cambridge Crystallographic Data Centre
#                                CCDC
#
#######################################################################
#
# If this CIF has been generated from an entry in the Cambridge
# Structural Database, then it will include bibliographic, chemical,
# crystal, experimental, refinement or atomic coordinate data resulting
# from the CCDC's data processing and validation procedures.
#
#######################################################################

data_CSD_CIF_UBIWOU
_audit_creation_date 2016-12-15
_audit_creation_method CSD-ConQuest-V1
_database_code_CSD UBIWOU
_database_code_depnum_ccdc_archive 'CCDC 1478145'
_chemical_formula_sum 'C60 H48 Ag6 Br11 Co2 K1 N12'
_chemical_formula_moiety
;
2(C30 H24 Co1 N6 2+),n(Ag6 Br11 K1 4-)
;
_journal_coden_Cambridge 9
_journal_volume 55
_journal_year 2016
_journal_page_first 12193
_journal_name_full 'Inorg.Chem. '
loop_
_publ_author_name
"Cheng-Yang Yue"
"Xiao-Wu Lei"
"Yong-Fang Han"
"Xin-Xiu Lu"
"Ya-Wei Tian"
"Jing Xu"
"Xiao-Fan Liu"
"Xin Xu"
_chemical_name_systematic
;
catena-[bis(tris(2,2'-bipyridine)-cobalt(ii)) 
undecakis(\m-bromo)-potassium-hexa-silver]
;
_cell_volume   5352.710
_exptl_crystal_colour 'red'
_exptl_crystal_density_diffrn 2.439
_exptl_special_details
;
Isostructural with the Ni, Zn and Fe analogues.

;
_exptl_crystal_description 'block'
_diffrn_ambient_temperature 296
#These two values have been output from a single CSD field.
_refine_ls_R_factor_gt 0.0307
_refine_ls_wR_factor_gt 0.0307
_symmetry_cell_setting rhombohedral
_symmetry_space_group_name_H-M 'R -3'
_symmetry_Int_Tables_number 148
loop_
_symmetry_equiv_pos_site_id
_symmetry_equiv_pos_as_xyz
1 x,y,z
2 -y,x-y,z
3 -x+y,-x,z
4 2/3+x,1/3+y,1/3+z
5 2/3-y,1/3+x-y,1/3+z
6 2/3-x+y,1/3-x,1/3+z
7 1/3+x,2/3+y,2/3+z
8 1/3-y,2/3+x-y,2/3+z
9 1/3-x+y,2/3-x,2/3+z
10 -x,-y,-z
11 y,-x+y,-z
12 x-y,x,-z
13 -2/3-x,-1/3-y,-1/3-z
14 -2/3+y,-1/3-x+y,-1/3-z
15 -2/3+x-y,-1/3+x,-1/3-z
16 -1/3-x,-2/3-y,-2/3-z
17 -1/3+y,-2/3-x+y,-2/3-z
18 -1/3+x-y,-2/3+x,-2/3-z
_cell_length_a 14.1784(14)
_cell_length_b 14.1784(14)
_cell_length_c 30.746(3)
_cell_angle_alpha 90
_cell_angle_beta 90
_cell_angle_gamma 120
_cell_formula_units_Z 3
loop_
_atom_type_symbol
_atom_type_radius_bond
C 0.68
H 0.23
Ag 1.45
Br 1.21
Co 1.26
K 2.03
N 0.68
loop_
_atom_site_label
_atom_site_type_symbol
_atom_site_fract_x
_atom_site_fract_y
_atom_site_fract_z
Ag1 Ag 0.90986(3) 0.05231(3) 0.130445(12)
Br1 Br 1.00000 0.00000 0.20280(2)
Br2 Br 1.08116(4) 0.20771(5) 0.083479(18)
Br3 Br 0.83330 0.16670 0.16670
K1 K 1.00000 0.00000 0.00000
Co1 Co 1.00000 0.00000 0.37745(2)
N1 N 0.8560(2) -0.0497(2) 0.41294(9)
N2 N 0.8881(3) -0.1354(4) 0.34233(9)
C1 C 0.7896(3) -0.1939(3) 0.36081(12)
C2 C 0.7717(3) -0.1465(3) 0.40054(12)
C3 C 0.9074(4) -0.1696(5) 0.30446(13)
H1 H 0.97560 -0.12880 0.29170
C4 C 0.7109(4) -0.2892(4) 0.34189(16)
H2 H 0.64350 -0.33020 0.35530
C5 C 0.8410(3) 0.0023(4) 0.44614(13)
H3 H 0.89890 0.06930 0.45470
C6 C 0.7438(4) -0.0389(4) 0.46835(14)
H4 H 0.73540 0.00080 0.49060
C7 C 0.6606(4) -0.1386(5) 0.45699(16)
H5 H 0.59500 -0.16920 0.47210
C8 C 0.7320(5) -0.3234(4) 0.30339(18)
H6 H 0.67930 -0.38790 0.29060
C9 C 0.6739(3) -0.1938(4) 0.42321(15)
H7 H 0.61770 -0.26250 0.41550
C10 C 0.8312(4) -0.2620(6) 0.28380(15)
H8 H 0.84640 -0.28250 0.25720
Ag1A Ag 0.94769(3) -0.14245(3) 0.130445(12)
Br2A Br 0.79229(4) -0.12655(5) 0.083479(18)
Br3A Br 0.83330 -0.33340 0.16670
Ag1B Ag 1.14245(3) 0.09014(3) 0.130445(12)
Br2B Br 1.12655(4) -0.08116(5) 0.083479(18)
Br3B Br 1.33340 0.16670 0.16670
Ag1I Ag 1.09014(3) -0.05231(3) -0.130445(12)
Br1I Br 1.00000 0.00000 -0.20280(2)
Br2I Br 0.91884(4) -0.20771(5) -0.083479(18)
Ag1J Ag 1.05231(3) 0.14245(3) -0.130445(12)
Br2J Br 1.20771(4) 0.12655(5) -0.083479(18)
Ag1K Ag 0.85755(3) -0.09014(3) -0.130445(12)
Br2K Br 0.87345(4) 0.08116(5) -0.083479(18)
Ag1O Ag 0.756807(30) 0.281023(30) 0.202888(12)
Ag1P Ag 0.718977(30) -0.524217(30) 0.202888(12)
Ag1Q Ag 1.524217(30) 0.243193(30) 0.202888(12)
Br3F Br 1.16663 -0.16663 -0.16663
Br3G Br 1.16663 0.33327 -0.16663
Br3H Br 0.66673 -0.16663 -0.16663
N1A N 1.0497(2) -0.0943(2) 0.41294(9)
N2A N 1.1354(3) 0.0235(4) 0.34233(9)
C1A C 1.1939(3) -0.0165(3) 0.36081(12)
C2A C 1.1465(3) -0.0818(3) 0.40054(12)
C3A C 1.1696(4) 0.0770(5) 0.30446(13)
H1A H 1.12880 0.10440 0.29170
C4A C 1.2892(4) 0.0001(4) 0.34189(16)
H2A H 1.33020 -0.02630 0.35530
C5A C 0.9977(3) -0.1613(4) 0.44614(13)
H3A H 0.93070 -0.17040 0.45470
C6A C 1.0389(4) -0.2173(4) 0.46835(14)
H4A H 0.99920 -0.26540 0.49060
C7A C 1.1386(4) -0.2008(5) 0.45699(16)
H5A H 1.16920 -0.23580 0.47210
C8A C 1.3234(5) 0.0554(4) 0.30339(18)
H6A H 1.38790 0.06720 0.29060
C9A C 1.1938(3) -0.1323(4) 0.42321(15)
H7A H 1.26250 -0.11980 0.41550
C10A C 1.2620(4) 0.0932(6) 0.28380(15)
H8A H 1.28250 0.12890 0.25720
N1B N 1.0943(2) 0.1440(2) 0.41294(9)
N2B N 0.9765(3) 0.1119(4) 0.34233(9)
C1B C 1.0165(3) 0.2104(3) 0.36081(12)
C2B C 1.0818(3) 0.2283(3) 0.40054(12)
C3B C 0.9230(4) 0.0926(5) 0.30446(13)
H1B H 0.89560 0.02440 0.29170
C4B C 0.9999(4) 0.2891(4) 0.34189(16)
H2B H 1.02630 0.35650 0.35530
C5B C 1.1613(3) 0.1590(4) 0.44614(13)
H3B H 1.17040 0.10110 0.45470
C6B C 1.2173(4) 0.2562(4) 0.46835(14)
H4B H 1.26540 0.26460 0.49060
C7B C 1.2008(4) 0.3394(5) 0.45699(16)
H5B H 1.23580 0.40500 0.47210
C8B C 0.9446(5) 0.2680(4) 0.30339(18)
H6B H 0.93280 0.32070 0.29060
C9B C 1.1323(3) 0.3261(4) 0.42321(15)
H7B H 1.11980 0.38230 0.41550
C10B C 0.9068(4) 0.1688(6) 0.28380(15)
H8B H 0.87110 0.15360 0.25720
#END
