
#######################################################################
#
#                 Cambridge Crystallographic Data Centre
#                                CCDC
#
#######################################################################
#
# If this CIF has been generated from an entry in the Cambridge
# Structural Database, then it will include bibliographic, chemical,
# crystal, experimental, refinement or atomic coordinate data resulting
# from the CCDC's data processing and validation procedures.
#
#######################################################################

data_CSD_CIF_UBIXEL
_audit_creation_date 2016-12-15
_audit_creation_method CSD-ConQuest-V1
_database_code_CSD UBIXEL
_database_code_depnum_ccdc_archive 'CCDC 1494346'
_chemical_formula_sum 'C60 H48 Ag13 Br17 N12 Ni2'
_chemical_formula_moiety
;
2(C30 H24 N6 Ni1 2+),n(Ag13 Br16 3-),Br1 1-
;
_journal_coden_Cambridge 9
_journal_volume 55
_journal_year 2016
_journal_page_first 12193
_journal_name_full 'Inorg.Chem. '
loop_
_publ_author_name
"Cheng-Yang Yue"
"Xiao-Wu Lei"
"Yong-Fang Han"
"Xin-Xiu Lu"
"Ya-Wei Tian"
"Jing Xu"
"Xiao-Fan Liu"
"Xin Xu"
_chemical_name_systematic
;
catena-[bis(tris(2,2'-bipyridine)-nickel(ii)) 
hexadecakis(\m-bromo)-trideca-silver bromide]
;
_cell_volume   8641.435
_exptl_crystal_colour 'pink'
_exptl_crystal_density_diffrn 2.933
_exptl_special_details
;
Isostructural with the Co, Zn and Fe analogues.

;
_exptl_crystal_description 'block'
_diffrn_ambient_temperature 296
#These two values have been output from a single CSD field.
_refine_ls_R_factor_gt 0.0629
_refine_ls_wR_factor_gt 0.0629
_symmetry_cell_setting orthorhombic
_symmetry_space_group_name_H-M 'P c c a'
_symmetry_Int_Tables_number 54
loop_
_symmetry_equiv_pos_site_id
_symmetry_equiv_pos_as_xyz
1 x,y,z
2 1/2-x,-y,z
3 -x,y,1/2-z
4 1/2+x,-y,1/2-z
5 -x,-y,-z
6 -1/2+x,y,-z
7 x,-y,-1/2+z
8 -1/2-x,y,-1/2+z
_cell_length_a 13.558(1)
_cell_length_b 22.2467(17)
_cell_length_c 28.650(2)
_cell_angle_alpha 90
_cell_angle_beta 90
_cell_angle_gamma 90
_cell_formula_units_Z 4
loop_
_atom_type_symbol
_atom_type_radius_bond
C 0.68
H 0.23
Ag 1.45
Br 1.21
N 0.68
Ni 1.24
loop_
_atom_site_label
_atom_site_type_symbol
_atom_site_fract_x
_atom_site_fract_y
_atom_site_fract_z
Ag1 Ag 0.91009(9) 0.37547(5) 0.00927(4)
Ag2 Ag 1.02615(8) 0.07099(5) -0.02422(4)
Ag3 Ag 1.25000 0.00000 0.00408(5)
Ag4 Ag 1.19565(10) 0.30608(6) 0.00800(5)
Ag5 Ag 0.99111(9) 0.23865(6) -0.00031(4)
Ag6 Ag 0.88576(10) 0.54291(7) -0.00550(4)
Ag7 Ag 0.75600(14) 0.16615(8) -0.00714(6)
Br1 Br 0.94006(8) 0.47119(5) 0.06175(3)
Br2 Br 0.91924(9) 0.15960(5) -0.05857(4)
Br3 Br 1.04905(8) 0.34198(5) -0.05244(4)
Br4 Br 1.21457(8) 0.09306(5) -0.05835(4)
Br5 Br 0.75824(9) 0.40759(5) -0.05061(4)
Br6 Br 1.08742(8) 0.02452(5) 0.05708(3)
Br7 Br 0.83749(9) 0.27684(6) 0.05433(4)
Br8 Br 1.12839(10) 0.21975(7) 0.06360(4)
Ni1 Ni 1.50000 -0.08933(6) -0.25000
N1 N 1.4189(5) -0.1521(3) -0.2119(2)
N2 N 1.3724(5) -0.0964(3) -0.2904(2)
N3 N 1.4471(5) -0.0164(3) -0.2114(2)
C1 C 1.3018(6) -0.1322(4) -0.2730(3)
C2 C 1.3259(6) -0.1620(4) -0.2283(3)
C3 C 1.4730(6) 0.0380(4) -0.2275(3)
C4 C 1.2692(7) -0.0778(4) -0.3567(3)
H1 H 1.25990 -0.05890 -0.38540
C5 C 1.2886(8) -0.2207(5) -0.1606(4)
H2 H 1.24470 -0.24400 -0.14340
C6 C 1.3553(7) -0.0699(4) -0.3316(3)
H3 H 1.40370 -0.04480 -0.34380
C7 C 1.4061(8) 0.0861(5) -0.1599(4)
H4 H 1.39290 0.12050 -0.14250
C8 C 1.3779(7) 0.0300(5) -0.1437(3)
H5 H 1.34590 0.02600 -0.11510
C9 C 1.3981(7) -0.0201(4) -0.1707(3)
H6 H 1.37710 -0.05750 -0.16030
C10 C 1.3821(9) -0.2106(4) -0.1444(3)
H7 H 1.40250 -0.22580 -0.11580
C11 C 1.4451(7) -0.1771(4) -0.1717(3)
H8 H 1.50950 -0.17170 -0.16140
C12 C 1.1983(7) -0.1143(5) -0.3382(3)
H9 H 1.13970 -0.12060 -0.35430
C13 C 1.4542(7) 0.0903(4) -0.2024(3)
H10 H 1.47370 0.12750 -0.21400
C14 C 1.2600(7) -0.1958(4) -0.2029(3)
H11 H 1.19640 -0.20200 -0.21400
C15 C 1.2126(7) -0.1417(4) -0.2960(3)
H12 H 1.16410 -0.16600 -0.28290
Ni2 Ni 1.00000 0.40907(6) -0.25000
N4 N 0.9150(5) 0.3472(3) -0.2131(2)
N5 N 0.8747(5) 0.4022(3) -0.2926(2)
C16 C 0.8020(6) 0.3666(4) -0.2755(3)
N6 N 0.9433(5) 0.4814(3) -0.2129(2)
C17 C 0.8239(6) 0.3379(4) -0.2306(3)
C18 C 0.9723(6) 0.5362(4) -0.2282(3)
C19 C 0.7752(8) 0.4210(5) -0.3604(3)
H13 H 0.76810 0.43960 -0.38930
C20 C 0.8612(7) 0.4285(4) -0.3345(3)
H14 H 0.91110 0.45260 -0.34660
C21 C 0.7008(7) 0.3856(5) -0.3425(4)
H15 H 0.64250 0.38020 -0.35910
C22 C 0.7136(6) 0.3582(4) -0.2996(3)
H16 H 0.66380 0.33450 -0.28700
C23 C 0.7812(8) 0.2806(4) -0.1630(3)
H17 H 0.73540 0.25860 -0.14590
C24 C 0.7560(7) 0.3037(4) -0.2059(3)
H18 H 0.69370 0.29650 -0.21820
C25 C 0.8991(8) 0.5832(4) -0.1619(4)
H19 H 0.88410 0.61750 -0.14470
C26 C 0.8696(7) 0.5280(5) -0.1462(3)
H20 H 0.83570 0.52410 -0.11820
C27 C 0.8909(7) 0.4791(4) -0.1727(3)
H21 H 0.86820 0.44190 -0.16270
C28 C 0.9512(8) 0.5881(4) -0.2032(3)
H22 H 0.97180 0.62550 -0.21400
C29 C 0.9388(7) 0.3234(4) -0.1719(3)
H23 H 1.00210 0.32970 -0.16040
C30 C 0.8743(8) 0.2901(4) -0.1457(3)
H24 H 0.89300 0.27440 -0.11690
Br9 Br 0.00000 0.25051(6) 0.25000
Ag1A Ag 0.58991(9) 0.62453(5) 0.00927(4)
Ag2A Ag 0.47385(8) 0.92901(5) -0.02422(4)
Ag4A Ag 0.30435(10) 0.69392(6) 0.00800(5)
Ag5A Ag 0.50889(9) 0.76135(6) -0.00031(4)
Ag6A Ag 0.61424(10) 0.45709(7) -0.00550(4)
Ag7A Ag 0.74400(14) 0.83385(8) -0.00714(6)
Br1A Br 0.55994(8) 0.52881(5) 0.06175(3)
Br2A Br 0.58076(9) 0.84040(5) -0.05857(4)
Br3A Br 0.45095(8) 0.65802(5) -0.05244(4)
Br4A Br 0.28543(8) 0.90694(5) -0.05835(4)
Br5A Br 0.74176(9) 0.59241(5) -0.05061(4)
Br6A Br 0.41258(8) 0.97548(5) 0.05708(3)
Br7A Br 0.66251(9) 0.72316(6) 0.05433(4)
Br8A Br 0.37161(10) 0.78025(7) 0.06360(4)
Ag2D Ag 0.97385(8) -0.07099(5) 0.02422(4)
Ag2E Ag 0.52615(8) 1.07099(5) 0.02422(4)
Ag3* Ag 0.25000 1.00000 0.00408(5)
Ag4D Ag 0.80435(10) 0.69392(6) -0.00800(5)
Ag4E Ag 0.69565(10) 0.30608(6) -0.00800(5)
Ag6D Ag 1.11424(10) 0.45709(7) 0.00550(4)
Ag6E Ag 0.38576(10) 0.54291(7) 0.00550(4)
Ag7D Ag 0.24400(14) 0.83385(8) 0.00714(6)
Ag7E Ag 1.25600(14) 0.16615(8) 0.00714(6)
Br1D Br 1.05994(8) 0.52881(5) -0.06175(3)
Br1E Br 0.44006(8) 0.47119(5) -0.06175(3)
Br3D Br 0.95095(8) 0.65802(5) 0.05244(4)
Br3E Br 0.54905(8) 0.34198(5) 0.05244(4)
Br4A* Br 1.28543(8) -0.09306(5) -0.05835(4)
Br4D Br 0.78543(8) 0.90694(5) 0.05835(4)
Br4E Br 0.71457(8) 0.09306(5) 0.05835(4)
Br5D Br 0.24176(9) 0.59241(5) 0.05061(4)
Br5E Br 1.25824(9) 0.40759(5) 0.05061(4)
Br6A* Br 1.41258(8) -0.02452(5) 0.05708(3)
Br6D Br 0.91258(8) -0.02452(5) -0.05708(3)
Br6E Br 0.58742(8) 1.02452(5) -0.05708(3)
Br7D Br 0.16251(9) 0.72316(6) -0.05433(4)
Br7E Br 1.33749(9) 0.27684(6) -0.05433(4)
Br8D Br 0.87161(10) 0.78025(7) -0.06360(4)
Br8E Br 0.62839(10) 0.21975(7) -0.06360(4)
N3B N 1.5529(5) -0.0164(3) -0.2886(2)
C3B C 1.5270(6) 0.0380(4) -0.2725(3)
C7B C 1.5939(8) 0.0861(5) -0.3401(4)
H4B H 1.60710 0.12050 -0.35750
C8B C 1.6221(7) 0.0300(5) -0.3563(3)
H5B H 1.65410 0.02600 -0.38490
C9B C 1.6019(7) -0.0201(4) -0.3293(3)
H6B H 1.62290 -0.05750 -0.33970
C13B C 1.5458(7) 0.0903(4) -0.2976(3)
H10B H 1.52630 0.12750 -0.28600
N1B N 1.5811(5) -0.1521(3) -0.2881(2)
N2B N 1.6276(5) -0.0964(3) -0.2096(2)
C1B C 1.6982(6) -0.1322(4) -0.2270(3)
C2B C 1.6741(6) -0.1620(4) -0.2717(3)
C4B C 1.7308(7) -0.0778(4) -0.1433(3)
H1B H 1.74010 -0.05890 -0.11460
C5B C 1.7114(8) -0.2207(5) -0.3394(4)
H2B H 1.75530 -0.24400 -0.35660
C6B C 1.6447(7) -0.0699(4) -0.1684(3)
H3B H 1.59630 -0.04480 -0.15620
C10B C 1.6179(9) -0.2106(4) -0.3556(3)
H7B H 1.59750 -0.22580 -0.38420
C11B C 1.5549(7) -0.1771(4) -0.3283(3)
H8B H 1.49050 -0.17170 -0.33860
C12B C 1.8017(7) -0.1143(5) -0.1618(3)
H9B H 1.86030 -0.12060 -0.14570
C14B C 1.7400(7) -0.1958(4) -0.2971(3)
H11B H 1.80360 -0.20200 -0.28600
C15B C 1.7874(7) -0.1417(4) -0.2040(3)
H12B H 1.83590 -0.16600 -0.21710
N6B N 1.0567(5) 0.4814(3) -0.2871(2)
C18B C 1.0277(6) 0.5362(4) -0.2718(3)
C25B C 1.1009(8) 0.5832(4) -0.3381(4)
H19B H 1.11590 0.61750 -0.35530
C26B C 1.1304(7) 0.5280(5) -0.3538(3)
H20B H 1.16430 0.52410 -0.38180
C27B C 1.1091(7) 0.4791(4) -0.3273(3)
H21B H 1.13180 0.44190 -0.33730
C28B C 1.0488(8) 0.5881(4) -0.2968(3)
H22B H 1.02820 0.62550 -0.28600
N4B N 1.0850(5) 0.3472(3) -0.2869(2)
N5B N 1.1253(5) 0.4022(3) -0.2074(2)
C16B C 1.1980(6) 0.3666(4) -0.2245(3)
C17B C 1.1761(6) 0.3379(4) -0.2694(3)
C19B C 1.2248(8) 0.4210(5) -0.1396(3)
H13B H 1.23190 0.43960 -0.11070
C20B C 1.1388(7) 0.4285(4) -0.1655(3)
H14B H 1.08890 0.45260 -0.15340
C21B C 1.2992(7) 0.3856(5) -0.1575(4)
H15B H 1.35750 0.38020 -0.14090
C22B C 1.2864(6) 0.3582(4) -0.2004(3)
H16B H 1.33620 0.33450 -0.21300
C23B C 1.2188(8) 0.2806(4) -0.3370(3)
H17B H 1.26460 0.25860 -0.35410
C24B C 1.2440(7) 0.3037(4) -0.2941(3)
H18B H 1.30630 0.29650 -0.28180
C29B C 1.0612(7) 0.3234(4) -0.3281(3)
H23B H 0.99790 0.32970 -0.33960
C30B C 1.1257(8) 0.2901(4) -0.3543(3)
H24B H 1.10700 0.27440 -0.38310
#END
