
#######################################################################
#
#                 Cambridge Crystallographic Data Centre
#                                CCDC
#
#######################################################################
#
# If this CIF has been generated from an entry in the Cambridge
# Structural Database, then it will include bibliographic, chemical,
# crystal, experimental, refinement or atomic coordinate data resulting
# from the CCDC's data processing and validation procedures.
#
#######################################################################

data_CSD_CIF_UCAHOV
_audit_creation_date 2001-09-19
_audit_creation_method CSD-ConQuest-V1
_database_code_CSD UCAHOV
_database_code_depnum_ccdc_archive 'CCDC 170116'
_chemical_formula_sum 'C22 H46 Bi2 N6 O22'
_chemical_formula_moiety
;
(C2 H10 N2 2+)n,2n(C10 H14 Bi1 N2 O9 1-),4n(H2 O1)
;
_journal_coden_Cambridge 233
_journal_volume 46
_journal_year 2001
_journal_page_first 73
_journal_name_full 'Zh.Neorg.Khim.(Russ.)(Russ.J.Inorg.Chem.) '
loop_
_publ_author_name
"R.L.Davidovich"
"V.B.Logvinova"
"A.B.Ilyukhin"
_chemical_name_systematic
;
catena-(Ethylenediammonium 
(\m~2~-ethylenediaminotetra-acetato)-aqua-bismuth(iii) tetrahydrate)
;
_cell_volume    883.528
_exptl_crystal_colour 'colorless'
_exptl_crystal_density_diffrn 2.189
_diffrn_ambient_temperature ?
_diffrn_special_details
;
The study was carried out at room temperature,in the range 283-303K

;
#These two values have been output from a single CSD field.
_refine_ls_R_factor_gt 0.054
_refine_ls_wR_factor_gt 0.054
_symmetry_cell_setting triclinic
_symmetry_space_group_name_H-M 'P -1'
_symmetry_Int_Tables_number 2
loop_
_symmetry_equiv_pos_site_id
_symmetry_equiv_pos_as_xyz
1 x,y,z
2 -x,-y,-z
_cell_length_a 6.947(2)
_cell_length_b 9.035(3)
_cell_length_c 15.064(6)
_cell_angle_alpha 98.17(3)
_cell_angle_beta 91.79(3)
_cell_angle_gamma 108.70(3)
_cell_formula_units_Z 1
loop_
_atom_type_symbol
_atom_type_radius_bond
C 0.68
H 0.23
Bi 1.84
N 0.68
O 0.68
loop_
_atom_site_label
_atom_site_type_symbol
_atom_site_fract_x
_atom_site_fract_y
_atom_site_fract_z
Bi1 Bi 0.20241(8) 0.26565(6) 0.31140(3)
O1 O 0.1713(16) 0.0243(10) 0.37147(73)
O2 O -0.0187(16) -0.2194(12) 0.38480(79)
O3 O 0.3475(13) 0.2241(10) 0.17967(60)
O4 O 0.3529(19) 0.0583(13) 0.05642(74)
O5 O -0.1141(13) 0.2438(11) 0.36471(71)
O6 O -0.3855(13) 0.3237(13) 0.36896(73)
O7 O 0.3279(15) 0.55519(98) 0.31234(64)
O8 O 0.3598(15) 0.7463(11) 0.23062(75)
O9 O -0.5718(19) -0.2869(13) 0.03962(85)
H1 H -0.5979(19) -0.2676(13) 0.10075(85)
H2 H -0.5096(19) -0.2009(13) 0.01163(85)
O10 O -0.7582(26) -0.5942(18) -0.0668(14)
H3 H -0.7069(26) -0.5038(18) -0.0605(14)
H4 H -0.6379(26) -0.6315(18) -0.0565(14)
O11 O 0.2933(16) 0.3729(13) 0.50132(77)
H5 H 0.4148(16) 0.4658(13) 0.51657(77)
H6 H 0.2579(16) 0.3501(13) 0.56287(77)
N1 N -0.0315(14) 0.0231(11) 0.21590(66)
N2 N -0.0035(15) 0.3525(10) 0.20539(64)
N3 N 0.3619(18) 0.7847(12) 0.46026(75)
H7 H 0.3532(18) 0.6928(12) 0.41678(75)
H8 H 0.4101(18) 0.7746(12) 0.51892(75)
H9 H 0.1878(18) 0.7721(12) 0.45088(75)
C1 C 0.0215(20) -0.0969(13) 0.34892(91)
C2 C -0.1278(18) -0.0989(13) 0.27197(85)
H10 H -0.1732(18) -0.2057(13) 0.23356(85)
H11 H -0.2510(18) -0.0796(13) 0.29684(85)
C3 C 0.2778(19) 0.0905(13) 0.12635(85)
C4 C 0.0977(20) -0.0356(13) 0.15270(87)
H12 H 0.0105(20) -0.0966(13) 0.09689(87)
H13 H 0.1491(20) -0.1108(13) 0.18115(87)
C5 C -0.1923(19) 0.0650(14) 0.16591(85)
H14 H -0.3005(19) 0.0740(14) 0.20653(85)
H15 H -0.2574(19) -0.0217(14) 0.11433(85)
C6 C -0.1031(19) 0.2194(14) 0.13066(80)
H16 H 0.0009(19) 0.2092(14) 0.08792(80)
H17 H -0.2134(19) 0.2430(14) 0.09701(80)
C7 C -0.2119(30) 0.3043(19) 0.3312(12)
C8 C -0.1596(19) 0.4015(13) 0.25560(93)
H18 H -0.2842(19) 0.3791(13) 0.21403(93)
H19 H -0.1060(19) 0.5181(13) 0.27755(93)
C9 C 0.2844(18) 0.6079(13) 0.24183(86)
C10 C 0.1362(20) 0.4899(14) 0.17041(86)
H20 H 0.0529(20) 0.5441(14) 0.14088(86)
H21 H 0.2142(20) 0.4505(14) 0.12334(86)
C11 C 0.5174(19) 0.9416(14) 0.46126(85)
H22 H 0.5053(19) 0.9787(14) 0.40254(85)
H23 H 0.6572(19) 0.9343(14) 0.47015(85)
O6* O 0.6145(13) 0.3237(13) 0.36896(73)
Bi1* Bi -0.79759(8) 0.26565(6) 0.31140(3)
C11A C 0.4826(19) 1.0584(14) 0.53874(85)
N3A N 0.6381(18) 1.2153(12) 0.53974(75)
H7A H 0.6468(18) 1.3072(12) 0.58322(75)
H8A H 0.5899(18) 1.2254(12) 0.48108(75)
H9A H 0.8122(18) 1.2279(12) 0.54912(75)
H22A H 0.4947(19) 1.0213(14) 0.59746(85)
H23A H 0.3428(19) 1.0657(14) 0.52985(85)
#END
