
#######################################################################
#
#                 Cambridge Crystallographic Data Centre
#                                CCDC
#
#######################################################################
#
# If this CIF has been generated from an entry in the Cambridge
# Structural Database, then it will include bibliographic, chemical,
# crystal, experimental, refinement or atomic coordinate data resulting
# from the CCDC's data processing and validation procedures.
#
#######################################################################

data_CSD_CIF_UCAQUM
_audit_creation_date 2012-02-03
_audit_creation_method CSD-ConQuest-V1
_database_code_CSD UCAQUM
_database_code_depnum_ccdc_archive 'CCDC 830332'
_chemical_formula_sum 'C20 H12 Ce2 K2 O20'
_chemical_formula_moiety
;
(C20 H8 Ce2 O18 2-)n,2n(K1 1+),2n(H2 O1)
;
_journal_coden_Cambridge 211
_journal_volume 64
_journal_year 2011
_journal_page_first 3767
_journal_name_full 'J.Coord.Chem. '
loop_
_publ_author_name
"Jian-Ling Wang"
"Ke-Ling Hou"
"Yong-Heng Xing"
"Zhao-Yan Deng"
"Zhan Shi"
_chemical_name_systematic
;
catena-(Di-potassium 
(\m~6~-benzene-1,2,4,5-tetracarboxylato)-(\m~4~-benzene-1,2,4,5-tetracarboxyla
to)-diaqua-di-cerium dihydrate)
;
_cell_volume   1250.342
_exptl_crystal_density_diffrn 2.472
_diffrn_ambient_temperature 293
#These two values have been output from a single CSD field.
_refine_ls_R_factor_gt 0.0237
_refine_ls_wR_factor_gt 0.0237
_symmetry_cell_setting monoclinic
_symmetry_space_group_name_H-M 'P 21/c'
_symmetry_Int_Tables_number 14
loop_
_symmetry_equiv_pos_site_id
_symmetry_equiv_pos_as_xyz
1 x,y,z
2 -x,1/2+y,1/2-z
3 -x,-y,-z
4 x,-1/2-y,-1/2+z
_cell_length_a 8.8163(18)
_cell_length_b 8.1249(16)
_cell_length_c 17.464(4)
_cell_angle_alpha 90
_cell_angle_beta 91.82(3)
_cell_angle_gamma 90
_cell_formula_units_Z 2
loop_
_atom_type_symbol
_atom_type_radius_bond
C 0.68
H 0.23
Ce 1.78
K 1.54
O 0.68
loop_
_atom_site_label
_atom_site_type_symbol
_atom_site_fract_x
_atom_site_fract_y
_atom_site_fract_z
Ce1 Ce 0.794143(17) 0.54043(2) 0.213717(9)
O1 O 0.55985(8) 0.39019(10) 0.15807(4)
H1 H 0.54740 0.30430 0.18170
K1 K 0.73176(8) 0.03303(10) 0.28598(4)
O2 O 0.66779(8) 0.04678(10) 0.44157(4)
H2 H 0.71500 -0.02590 0.46460
O3 O 0.6646(2) 0.8036(3) 0.17121(12)
O4 O 0.7060(3) 0.6342(3) 0.07551(12)
O5 O 0.4429(2) 1.1000(3) 0.20303(12)
O6 O 0.3201(2) 0.8688(3) 0.17660(12)
O7 O 0.9027(3) 0.3118(3) 0.14225(14)
O8 O 1.1398(2) 0.2255(3) 0.17057(12)
O9 O 0.9888(2) -0.0556(3) 0.20747(12)
O10 O 1.0035(2) -0.3051(3) 0.15550(12)
C1 C 0.6074(3) 0.8921(4) -0.02850(17)
H3 H 0.67860 0.81970 -0.04760
C2 C 0.4606(3) 0.9919(4) 0.07665(17)
C3 C 0.5696(3) 0.8834(4) 0.04855(16)
C4 C 0.4083(3) 0.9820(4) 0.15837(17)
C5 C 0.6512(3) 0.7658(4) 0.10115(17)
C6 C 0.9985(3) 0.1692(4) -0.00791(16)
H4 H 0.99700 0.28300 -0.01340
C7 C 1.0027(3) 0.1014(4) 0.06561(16)
C8 C 1.0034(3) -0.0707(4) 0.07312(17)
C9 C 1.0158(3) 0.2198(4) 0.13235(16)
C10 C 0.9992(3) -0.1500(4) 0.15079(16)
H5 H 0.527(7) 0.391(6) 0.1129(14)
H6 H 0.702(6) 0.140(2) 0.458(3)
Ce1B Ce 0.205857(17) 1.45957(2) -0.213717(9)
Ce1A Ce 0.205857(17) 1.04043(2) 0.286283(9)
Ce1A* Ce 1.205857(17) 0.04043(2) 0.286283(9)
Ce1* Ce 0.794143(17) -0.45957(2) 0.213717(9)
Ce1C Ce 0.794143(17) 0.95957(2) -0.286283(9)
Ce1B* Ce 1.205857(17) -0.54043(2) -0.213717(9)
Ce1C* Ce 0.794143(17) -0.04043(2) -0.286283(9)
Ce1B** Ce 1.205857(17) 0.45957(2) -0.213717(9)
O1B O 0.44015(8) 1.60981(10) -0.15807(4)
H1B H 0.45260 1.69570 -0.18170
O3B O 0.3354(2) 1.1964(3) -0.17121(12)
O4B O 0.2940(3) 1.3658(3) -0.07551(12)
O5B O 0.5571(2) 0.9000(3) -0.20303(12)
O5A O 0.5571(2) 0.6000(3) 0.29697(12)
O5C O 0.4429(2) 1.4000(3) -0.29697(12)
O6B O 0.6799(2) 1.1312(3) -0.17660(12)
O6A O 0.6799(2) 0.3688(3) 0.32340(12)
O6C O 0.3201(2) 1.6312(3) -0.32340(12)
O7B O 1.0973(3) -0.3118(3) -0.14225(14)
O7B* O 0.0973(3) 1.6882(3) -0.14225(14)
O8B O 0.8602(2) -0.2255(3) -0.17057(12)
O8A O 0.8602(2) 0.7255(3) 0.32943(12)
O8C O 0.1398(2) 1.2745(3) -0.32943(12)
O9B O 1.0112(2) 0.0556(3) -0.20747(12)
O9A O 1.0112(2) 0.4444(3) 0.29253(12)
O9C O -0.0112(2) 1.5556(3) -0.29253(12)
O10B O 0.9965(2) 0.3051(3) -0.15550(12)
O10* O 1.0035(2) 0.6949(3) 0.15550(12)
O10B* O -0.0035(2) 1.3051(3) -0.15550(12)
C1B C 0.3926(3) 1.1079(4) 0.02850(17)
H3B H 0.32140 1.18030 0.04760
C2B C 0.5394(3) 1.0081(4) -0.07665(17)
C3B C 0.4304(3) 1.1166(4) -0.04855(16)
C4B C 0.5917(3) 1.0180(4) -0.15837(17)
C5B C 0.3488(3) 1.2342(4) -0.10115(17)
C6B C 1.0015(3) -0.1692(4) 0.00791(16)
H4B H 1.00300 -0.28300 0.01340
C7B C 0.9973(3) -0.1014(4) -0.06561(16)
C8B C 0.9966(3) 0.0707(4) -0.07312(17)
C9B C 0.9842(3) -0.2198(4) -0.13235(16)
C10B C 1.0008(3) 0.1500(4) -0.15079(16)
H5B H 0.473(7) 1.609(6) -0.1129(14)
#END
