
#######################################################################
#
#                 Cambridge Crystallographic Data Centre
#                                CCDC
#
#######################################################################
#
# If this CIF has been generated from an entry in the Cambridge
# Structural Database, then it will include bibliographic, chemical,
# crystal, experimental, refinement or atomic coordinate data resulting
# from the CCDC's data processing and validation procedures.
#
#######################################################################

data_CSD_CIF_UCIBAK
_audit_creation_date 2006-06-27
_audit_creation_method CSD-ConQuest-V1
_database_code_CSD UCIBAK
_database_code_depnum_ccdc_archive 'CCDC 604365'
_chemical_formula_sum 'C56 H72 F26 N2 P1 Pt1 Tl1'
_chemical_formula_moiety
;
(C16 H36 N1 1+)2n,n(C24 F20 Pt1 Tl1 1-),n(F6 P1 1-)
;
_journal_coden_Cambridge 9
_journal_volume 45
_journal_year 2006
_journal_page_first 2543
_journal_name_full 'Inorg.Chem. '
loop_
_publ_author_name
"L.R.Falvello"
"J.Fornies"
"R.Garde"
"A.Garcia"
"E.Lalinde"
"M.T.Moreno"
"A.Steiner"
"M.Tomas"
"I.Uson"
_chemical_name_systematic
;
catena-(bis(tetra-n-butylammonium) 
tetrakis(pentafluorophenyl)-platinum(ii)-thallium(i) hexafluorophosphate)
;
_cell_volume   6346.744
_exptl_crystal_colour 'pale yellow-green'
_exptl_crystal_density_diffrn 1.777
_exptl_crystal_description 'needle'
_exptl_crystal_preparation 'ethanol'
_diffrn_ambient_temperature 173.0
#These two values have been output from a single CSD field.
_refine_ls_R_factor_gt 0.0568
_refine_ls_wR_factor_gt 0.0568
_symmetry_cell_setting orthorhombic
_symmetry_space_group_name_H-M 'P c a a'
_symmetry_Int_Tables_number 54
loop_
_symmetry_equiv_pos_site_id
_symmetry_equiv_pos_as_xyz
1 x,y,z
2 1/2-x,-y,1/2+z
3 x,-y,1/2-z
4 1/2-x,y,-z
5 -x,-y,-z
6 -1/2+x,y,-1/2-z
7 -x,y,-1/2+z
8 -1/2+x,-y,z
_cell_length_a 12.6668(2)
_cell_length_b 14.2938(3)
_cell_length_c 35.0539(9)
_cell_angle_alpha 90
_cell_angle_beta 90
_cell_angle_gamma 90
_cell_formula_units_Z 4
loop_
_atom_type_symbol
_atom_type_radius_bond
C 0.68
H 0.23
F 0.64
N 0.68
P 1.05
Pt 1.50
Tl 1.55
loop_
_atom_site_label
_atom_site_type_symbol
_atom_site_fract_x
_atom_site_fract_y
_atom_site_fract_z
Pt1 Pt 0.61797(3) 0.00000 0.25000
Tl1 Tl 0.87301(3) 0.00000 0.25000
N1 N 0.0104(5) 0.3440(5) 0.0923(2)
P1 P 0.75000 0.5000(3) 0.00000
C1 C 0.6202(6) 0.0283(6) 0.1919(3)
C2 C 0.6935(7) 0.0840(6) 0.1744(3)
C3 C 0.7000(8) 0.0997(7) 0.1358(3)
C4 C 0.6269(9) 0.0580(8) 0.1123(3)
C5 C 0.5488(9) 0.0016(8) 0.1276(3)
C6 C 0.5490(8) -0.0120(7) 0.1666(3)
C7 C 0.6191(6) 0.1420(7) 0.2611(3)
C8 C 0.5482(7) 0.2069(7) 0.2441(3)
C9 C 0.5489(9) 0.3010(8) 0.2493(4)
C10 C 0.6197(10) 0.3379(9) 0.2759(4)
C11 C 0.6901(8) 0.2800(8) 0.2923(3)
C12 C 0.6891(7) 0.1846(6) 0.2851(3)
C13 C -0.0017(7) 0.4432(6) 0.0782(3)
H1 H -0.07630 0.45510 0.07420
H2 H 0.03270 0.44780 0.05350
C14 C 0.0425(9) 0.5214(7) 0.1041(3)
H3 H 0.01330 0.51580 0.12960
H4 H 0.11870 0.51640 0.10580
C15 C 0.0119(9) 0.6152(7) 0.0868(4)
H5 H -0.06410 0.61700 0.08340
H6 H 0.04420 0.62080 0.06180
C16 C 0.0455(9) 0.6982(8) 0.1113(4)
H7 H 0.01600 0.69180 0.13640
H8 H 0.02040 0.75510 0.09990
H9 H 0.12110 0.69990 0.11300
C17 C -0.0304(11) 0.3342(10) 0.1332(4)
H10 H 0.01570 0.36970 0.14990
H11 H -0.02490 0.26900 0.14060
C18 C -0.1440(11) 0.3663(10) 0.1401(3)
H12 H -0.15150 0.42990 0.13070
H13 H -0.19110 0.32700 0.12520
C19 C 0.1290(9) 0.3167(9) 0.0923(4)
H14 H 0.15730 0.33120 0.06730
H15 H 0.16490 0.35680 0.11050
C20 C -0.0525(7) 0.2803(7) 0.0658(3)
H16 H -0.05640 0.21880 0.07740
H17 H -0.12400 0.30440 0.06420
C21 C -0.0106(8) 0.2689(8) 0.0255(3)
H18 H -0.00530 0.32970 0.01330
H19 H 0.05930 0.24130 0.02630
F1 F 0.7672(4) 0.1294(4) 0.19573(16)
F2 F 0.7754(5) 0.1543(4) 0.12091(19)
F3 F 0.6310(5) 0.0729(5) 0.07381(18)
F4 F 0.4777(5) -0.0379(5) 0.10456(17)
F5 F 0.4703(4) -0.0699(4) 0.17853(15)
F6 F 0.4740(4) 0.1736(4) 0.21908(17)
F7 F 0.4811(6) 0.3566(4) 0.2315(2)
F8 F 0.6198(5) 0.4317(4) 0.2829(2)
F9 F 0.7612(5) 0.3158(4) 0.3179(2)
F10 F 0.7614(4) 0.1349(4) 0.30446(15)
F11 F 0.75000 0.3949(9) 0.00000
F12 F 0.75000 0.6092(9) 0.00000
F13 F 0.7514(4) 0.5039(6) -0.0449(2)
F14 F 0.6262(4) 0.4988(6) -0.00032(17)
C22 C 0.1573(8) 0.2189(9) 0.1013(4)
H20 H 0.13410 0.20570 0.12720
H21 H 0.11750 0.17830 0.08440
C23 C 0.2695(8) 0.1932(11) 0.0984(4)
H22 H 0.31300 0.24370 0.10810
H23 H 0.28320 0.13770 0.11350
C24 C 0.2951(10) 0.1756(10) 0.0593(3)
H24 H 0.35600 0.13580 0.05790
H25 H 0.31000 0.23370 0.04670
H26 H 0.23650 0.14550 0.04700
C25 C -0.1775(12) 0.3634(9) 0.1805(3)
H27 H -0.25300 0.35280 0.18130
H28 H -0.14370 0.31020 0.19250
C26 C -0.1542(11) 0.4457(9) 0.2026(4)
H29 H -0.18030 0.50000 0.18950
H30 H -0.07920 0.45110 0.20590
H31 H -0.18760 0.44090 0.22710
C27 C -0.0837(10) 0.2073(9) 0.0031(3)
H32 H -0.15350 0.23520 0.00330
H33 H -0.05970 0.20580 -0.02320
C28 C -0.0924(12) 0.1089(9) 0.0172(4)
H34 H -0.02550 0.07810 0.01450
H35 H -0.14490 0.07620 0.00270
H36 H -0.11240 0.10940 0.04370
Pt1E Pt 1.11797(3) 0.00000 0.25000
Tl1E Tl 0.37301(3) 0.00000 0.25000
C1B C 0.6202(6) -0.0283(6) 0.3081(3)
C2B C 0.6935(7) -0.0840(6) 0.3256(3)
C3B C 0.7000(8) -0.0997(7) 0.3642(3)
C4B C 0.6269(9) -0.0580(8) 0.3877(3)
C5B C 0.5488(9) -0.0016(8) 0.3724(3)
C6B C 0.5490(8) 0.0120(7) 0.3334(3)
C7B C 0.6191(6) -0.1420(7) 0.2389(3)
C8B C 0.5482(7) -0.2069(7) 0.2559(3)
C9B C 0.5489(9) -0.3010(8) 0.2507(4)
C10B C 0.6197(10) -0.3379(9) 0.2241(4)
C11B C 0.6901(8) -0.2800(8) 0.2077(3)
C12B C 0.6891(7) -0.1846(6) 0.2149(3)
F1B F 0.7672(4) -0.1294(4) 0.30427(16)
F2B F 0.7754(5) -0.1543(4) 0.37909(19)
F3B F 0.6310(5) -0.0729(5) 0.42619(18)
F4B F 0.4777(5) 0.0379(5) 0.39544(17)
F5B F 0.4703(4) 0.0699(4) 0.32147(15)
F6B F 0.4740(4) -0.1736(4) 0.28092(17)
F7B F 0.4811(6) -0.3566(4) 0.2685(2)
F8B F 0.6198(5) -0.4317(4) 0.2171(2)
F9B F 0.7612(5) -0.3158(4) 0.1821(2)
F10B F 0.7614(4) -0.1349(4) 0.19554(15)
F13C F 0.7486(4) 0.5039(6) 0.0449(2)
F14C F 0.8738(4) 0.4988(6) 0.00032(17)
#END
