
#######################################################################
#
#                 Cambridge Crystallographic Data Centre
#                                CCDC
#
#######################################################################
#
# If this CIF has been generated from an entry in the Cambridge
# Structural Database, then it will include bibliographic, chemical,
# crystal, experimental, refinement or atomic coordinate data resulting
# from the CCDC's data processing and validation procedures.
#
#######################################################################

data_CSD_CIF_UCIZOY
_audit_creation_date 2016-12-20
_audit_creation_method CSD-ConQuest-V1
_database_code_CSD UCIZOY
_database_code_depnum_ccdc_archive 'CCDC 1497591'
_chemical_formula_sum 'C74 H70 Co3 N6 O24'
_chemical_formula_moiety
;
(C64 H50 Co2 N4 O18 2-)n,n(C10 H16 Co1 N2 O4 2+),2(H2 O1)
;
_journal_coden_Cambridge 702
_journal_volume 32
_journal_year 2016
_journal_page_first 1809
_journal_name_full 'Wuji Huaxue Xuebao(Chin.)(Chin.J.Inorg.Chem.) '
loop_
_publ_author_name
"Ling-Ling Cao"
"Hui Yu"
"Ai-Yang Nie"
"Ai-Hua Yuan"
_chemical_name_systematic
;
catena-[(\m-4,4'-bipyridine)-tetra-aqua-cobalt(ii) 
bis(\m-4,4'-bipyridine)-bis(\m-4,4',4''-(hydroxymethanetriyl)tribenzoato)-tetr
a-aqua-di-cobalt(ii) dihydrate]
;
_cell_volume   1874.538
_exptl_crystal_colour 'purple'
_exptl_crystal_density_diffrn 1.421
_exptl_crystal_description 'plate'
_diffrn_ambient_temperature 291
#These two values have been output from a single CSD field.
_refine_ls_R_factor_gt 0.0508
_refine_ls_wR_factor_gt 0.0508
_symmetry_cell_setting triclinic
_symmetry_space_group_name_H-M 'P -1'
_symmetry_Int_Tables_number 2
loop_
_symmetry_equiv_pos_site_id
_symmetry_equiv_pos_as_xyz
1 x,y,z
2 -x,-y,-z
_cell_length_a 10.733(3)
_cell_length_b 11.485(3)
_cell_length_c 15.429(2)
_cell_angle_alpha 94.778(2)
_cell_angle_beta 91.029(2)
_cell_angle_gamma 98.309(3)
_cell_formula_units_Z 1
loop_
_atom_type_symbol
_atom_type_radius_bond
C 0.68
H 0.23
Co 1.26
N 0.68
O 0.68
loop_
_atom_site_label
_atom_site_type_symbol
_atom_site_fract_x
_atom_site_fract_y
_atom_site_fract_z
C1 C 1.2406(3) -0.1306(2) 0.5002(2)
C2 C 1.2400(3) -0.0822(3) 0.4112(2)
C3 C 1.2313(3) -0.1548(3) 0.3343(2)
H1 H 1.24190 -0.23360 0.33550
C4 C 1.2068(3) -0.1112(3) 0.2557(2)
H2 H 1.20290 -0.16050 0.20440
C5 C 1.1883(3) 0.0052(3) 0.2528(2)
C6 C 1.1991(3) 0.0795(3) 0.3294(2)
H3 H 1.18880 0.15840 0.32770
C7 C 1.2249(3) 0.0370(3) 0.4079(2)
H4 H 1.23220 0.08730 0.45870
C8 C 1.1404(3) 0.0420(3) 0.1693(2)
C9 C 1.1209(3) -0.2184(3) 0.5120(2)
C10 C 1.0138(3) -0.2104(3) 0.4657(2)
H5 H 1.01580 -0.15680 0.42360
C11 C 0.9007(3) -0.2820(3) 0.4808(2)
H6 H 0.82760 -0.27470 0.44980
C12 C 0.8978(3) -0.3637(3) 0.5419(2)
C13 C 1.0111(3) -0.3726(3) 0.5880(2)
H7 H 1.01210 -0.42770 0.62870
C14 C 1.1185(3) -0.2997(3) 0.5720(2)
H8 H 1.19230 -0.30540 0.60290
C15 C 0.7746(3) -0.4300(3) 0.5581(2)
C16 C 1.2709(3) -0.0352(3) 0.5759(2)
C17 C 1.1735(3) 0.0079(3) 0.61921(19)
H9 H 1.09100 -0.02660 0.60550
C18 C 1.1965(3) 0.1011(3) 0.6823(2)
H10 H 1.12980 0.12890 0.71100
C19 C 1.3197(3) 0.1537(3) 0.7030(2)
C20 C 1.4182(3) 0.1103(2) 0.66040(19)
H11 H 1.50100 0.14410 0.67420
C21 C 1.3929(3) 0.0161(3) 0.59685(19)
H12 H 1.45910 -0.01260 0.56820
C22 C 1.3477(3) 0.2604(3) 0.7677(2)
C23 C 0.8720(3) 0.2137(3) 0.0612(2)
H13 H 0.92100 0.25070 0.01950
C24 C 0.7991(3) 0.2797(3) 0.1143(2)
H14 H 0.79860 0.35940 0.10800
C25 C 0.7272(3) 0.2231(3) 0.1769(2)
C26 C 0.7250(3) 0.1040(3) 0.1829(2)
H15 H 0.67480 0.06560 0.22340
C27 C 0.7973(3) 0.0418(3) 0.1286(2)
H16 H 0.79450 -0.03890 0.13260
C28 C 0.5121(3) 0.2935(3) 0.3569(2)
H17 H 0.44790 0.25430 0.38790
C29 C 0.5586(3) 0.2336(3) 0.2863(2)
H18 H 0.52590 0.15520 0.27000
C30 C 0.6539(3) 0.2910(3) 0.2403(2)
C31 C 0.7002(3) 0.4090(3) 0.26524(19)
H19 H 0.76340 0.44890 0.23380
C32 C 0.6529(3) 0.4664(3) 0.3361(2)
H20 H 0.68530 0.54470 0.35290
Co1 Co 1.00000 0.00000 0.00000
Co2 Co 0.50000 0.50000 0.50000
N1 N 0.8732(2) 0.0961(2) 0.06894(16)
N2 N 0.5576(2) 0.4089(2) 0.38264(16)
O1 O 1.0737(2) -0.03774(18) 0.12091(14)
O2 O 1.1887(2) 0.1435(2) 0.15648(14)
O3 O 0.67903(19) -0.41460(17) 0.51756(13)
O4 O 0.7671(2) -0.50080(19) 0.61680(15)
O5 O 1.3055(2) 0.2473(2) 0.83996(18)
O6 O 1.4212(2) 0.3414(2) 0.74088(16)
O7 O 1.3580(2) -0.1745(2) 0.51080(17)
H21 H 1.40390 -0.16970 0.45810
O8 O 0.87461(18) -0.16788(16) 0.00391(13)
H22 H 0.91140 -0.19180 0.05550
H23 H 0.88280 -0.21700 -0.04850
O9 O 0.55283(19) 0.35837(16) 0.57298(13)
H24 H 0.64000 0.37640 0.59090
H25 H 0.50200 0.34970 0.62330
C33 C 0.5914(4) 0.7616(3) 0.9627(2)
H26 H 0.65720 0.72690 0.93840
C34 C 0.5927(3) 0.8818(3) 0.9592(2)
H27 H 0.66640 0.91420 0.93400
C35 C 0.4980(3) 0.9351(2) 0.9964(2)
C36 C 0.3998(3) 0.8654(3) 1.0336(2)
H28 H 0.32630 0.88640 1.05730
C37 C 0.4002(4) 0.7464(3) 1.0364(2)
H29 H 0.33480 0.70150 1.06280
Co3 Co 0.50000 0.50000 1.00000
N3 N 0.4972(2) 0.6920(2) 1.00026(17)
O10 O 0.5801(2) 0.49545(17) 0.87227(13)
H30 H 0.58640 0.41530 0.85170
H31 H 0.66280 0.54070 0.87760
O11 O 0.69304(19) 0.53932(17) 1.04976(13)
H32 H 0.72360 0.62240 1.05640
H33 H 0.72550 0.51110 1.00430
O12 O 0.7687(4) 0.6018(3) 0.7945(2)
H34 H 0.80460 0.54590 0.77190
H35 H 0.81590 0.66730 0.79090
O13 O 0.8896(4) 0.4959(4) 0.9406(3)
H36 H 0.89470 0.51100 0.88760
H37 H 0.95110 0.46140 0.95440
C1A C -0.2406(3) 0.1306(2) 0.4998(2)
C2A C -0.2400(3) 0.0822(3) 0.5888(2)
C3A C -0.2313(3) 0.1548(3) 0.6657(2)
H1A H -0.24190 0.23360 0.66450
C4A C -0.2068(3) 0.1112(3) 0.7443(2)
H2A H -0.20290 0.16050 0.79560
C5A C -0.1883(3) -0.0052(3) 0.7472(2)
C6A C -0.1991(3) -0.0795(3) 0.6706(2)
H3A H -0.18880 -0.15840 0.67230
C7A C -0.2249(3) -0.0370(3) 0.5921(2)
H4A H -0.23220 -0.08730 0.54130
C8A C -0.1404(3) -0.0420(3) 0.8307(2)
C9A C -0.1209(3) 0.2184(3) 0.4880(2)
C10A C -0.0138(3) 0.2104(3) 0.5343(2)
H5A H -0.01580 0.15680 0.57640
C11A C 0.0993(3) 0.2820(3) 0.5192(2)
H6A H 0.17240 0.27470 0.55020
C12A C 0.1022(3) 0.3637(3) 0.4581(2)
C13A C -0.0111(3) 0.3726(3) 0.4120(2)
H7A H -0.01210 0.42770 0.37130
C14A C -0.1185(3) 0.2997(3) 0.4280(2)
H8A H -0.19230 0.30540 0.39710
C15A C 0.2254(3) 0.4300(3) 0.4419(2)
C16A C -0.2709(3) 0.0352(3) 0.4241(2)
C17A C -0.1735(3) -0.0079(3) 0.38079(19)
H9A H -0.09100 0.02660 0.39450
C18A C -0.1965(3) -0.1011(3) 0.3177(2)
H10A H -0.12980 -0.12890 0.28900
C19A C -0.3197(3) -0.1537(3) 0.2970(2)
C20A C -0.4182(3) -0.1103(2) 0.33960(19)
H11A H -0.50100 -0.14410 0.32580
C21A C -0.3929(3) -0.0161(3) 0.40315(19)
H12A H -0.45910 0.01260 0.43180
C22A C -0.3477(3) -0.2604(3) 0.2323(2)
O1A O -0.0737(2) 0.03774(18) 0.87909(14)
O2A O -0.1887(2) -0.1435(2) 0.84352(14)
O3A O 0.32097(19) 0.41460(17) 0.48244(13)
O4A O 0.2329(2) 0.50080(19) 0.38320(15)
O5A O -0.3055(2) -0.2473(2) 0.16004(18)
O6A O -0.4212(2) -0.3414(2) 0.25912(16)
O7A O -0.3580(2) 0.1745(2) 0.48920(17)
H21A H -0.40390 0.16970 0.54190
C23A C 1.1280(3) -0.2137(3) -0.0612(2)
H13A H 1.07900 -0.25070 -0.01950
C24A C 1.2009(3) -0.2797(3) -0.1143(2)
H14A H 1.20140 -0.35940 -0.10800
C25A C 1.2728(3) -0.2231(3) -0.1769(2)
C26A C 1.2750(3) -0.1040(3) -0.1829(2)
H15A H 1.32520 -0.06560 -0.22340
C27A C 1.2027(3) -0.0418(3) -0.1286(2)
H16A H 1.20550 0.03890 -0.13260
C28A C 1.4879(3) -0.2935(3) -0.3569(2)
H17A H 1.55210 -0.25430 -0.38790
C29A C 1.4414(3) -0.2336(3) -0.2863(2)
H18A H 1.47410 -0.15520 -0.27000
C30A C 1.3461(3) -0.2910(3) -0.2403(2)
C31A C 1.2998(3) -0.4090(3) -0.26524(19)
H19A H 1.23660 -0.44890 -0.23380
C32A C 1.3471(3) -0.4664(3) -0.3361(2)
H20A H 1.31470 -0.54470 -0.35290
N1A N 1.1268(2) -0.0961(2) -0.06894(16)
N2A N 1.4424(2) -0.4089(2) -0.38264(16)
O8A O 1.12539(18) 0.16788(16) -0.00391(13)
H22A H 1.08860 0.19180 -0.05550
H23A H 1.11720 0.21700 0.04850
O9A O 0.44717(19) 0.64163(16) 0.42702(13)
H24A H 0.36000 0.62360 0.40910
H25A H 0.49800 0.65030 0.37670
Co1* Co 0.00000 0.00000 1.00000
Co2* Co 0.50000 -0.50000 0.50000
Co2** Co 1.50000 -0.50000 -0.50000
N2A* N 0.4424(2) 0.5911(2) 0.61736(16)
O1A* O 0.9263(2) 0.03774(18) -0.12091(14)
O3* O 0.67903(19) 0.58540(17) 0.51756(13)
C33A C 0.4086(4) 1.2384(3) 1.0373(2)
H26A H 0.34280 1.27310 1.06160
C34A C 0.4073(3) 1.1182(3) 1.0408(2)
H27A H 0.33360 1.08580 1.06600
C35A C 0.5020(3) 1.0649(2) 1.0036(2)
C36A C 0.6002(3) 1.1346(3) 0.9664(2)
H28A H 0.67370 1.11360 0.94270
C37A C 0.5998(4) 1.2536(3) 0.9636(2)
H29A H 0.66520 1.29850 0.93720
N3A N 0.5028(2) 1.3080(2) 0.99974(17)
O10A O 0.4199(2) 0.50455(17) 1.12773(13)
H30A H 0.41360 0.58470 1.14830
H31A H 0.33720 0.45930 1.12240
O11A O 0.30696(19) 0.46068(17) 0.95024(13)
H32A H 0.27640 0.37760 0.94360
H33A H 0.27450 0.48890 0.99570
Co3* Co 0.50000 1.50000 1.00000
N3A* N 0.5028(2) 0.3080(2) 0.99974(17)
#END
