
#######################################################################
#
#                 Cambridge Crystallographic Data Centre
#                                CCDC
#
#######################################################################
#
# If this CIF has been generated from an entry in the Cambridge
# Structural Database, then it will include bibliographic, chemical,
# crystal, experimental, refinement or atomic coordinate data resulting
# from the CCDC's data processing and validation procedures.
#
#######################################################################

data_CSD_CIF_UCODAS
_audit_creation_date 2006-06-27
_audit_creation_method CSD-ConQuest-V1
_database_code_CSD UCODAS
_database_code_depnum_ccdc_archive 'CCDC 605668'
_chemical_formula_sum 'C16 H56 N8 O36 P12 Zn10'
_chemical_formula_moiety
;
(C8 H32 N4 O36 P12 Zn10 4-)n,2n(C4 H12 N2 2+)
;
_journal_coeditor_code "IUCr GD3006"
_journal_coden_Cambridge 591
_journal_volume 62
_journal_year 2006
_journal_page_first m156
_journal_name_full 'Acta Crystallogr.,Sect.C:Cryst.Struct.Commun. '
loop_
_publ_author_name
"W.T.A.Harrison"
_chemical_name_systematic
;
catena-(bis(piperazine-1,4-diium) dodecakis(\m~3~-hydrogen 
phosphito)-bis(\m~2~-piperazine)-deca-zinc(ii))
;
_cell_volume   1440.315
_exptl_crystal_colour 'colorless'
_exptl_crystal_density_diffrn 2.262
_exptl_crystal_description 'rod'
_diffrn_ambient_temperature 293
#These two values have been output from a single CSD field.
_refine_ls_R_factor_gt 0.0404
_refine_ls_wR_factor_gt 0.0404
_symmetry_cell_setting triclinic
_symmetry_space_group_name_H-M 'P -1'
_symmetry_Int_Tables_number 2
loop_
_symmetry_equiv_pos_site_id
_symmetry_equiv_pos_as_xyz
1 x,y,z
2 -x,-y,-z
_cell_length_a 8.8634(4)
_cell_length_b 12.6390(6)
_cell_length_c 12.8768(6)
_cell_angle_alpha 89.182(1)
_cell_angle_beta 89.913(1)
_cell_angle_gamma 86.941(1)
_cell_formula_units_Z 1
loop_
_atom_type_symbol
_atom_type_radius_bond
C 0.68
H 0.23
N 0.68
O 0.68
P 1.05
Zn 1.45
loop_
_atom_site_label
_atom_site_type_symbol
_atom_site_fract_x
_atom_site_fract_y
_atom_site_fract_z
Zn1 Zn 0.58057(5) 0.60145(4) 0.61549(4)
Zn2 Zn 0.05294(5) 0.60445(4) 0.88464(4)
Zn3 Zn 0.24296(5) 0.77118(4) 0.24707(3)
Zn4 Zn 0.66727(5) 0.91001(4) 0.90014(4)
Zn5 Zn 0.16639(5) 0.88420(4) 0.56085(4)
P1 P 0.29585(11) 0.71177(8) 0.72813(8)
H1 H 0.38310 0.79000 0.74970
P2 P 0.80154(11) 0.73085(8) 0.75991(8)
H2 H 0.91440 0.78290 0.72100
P3 P -0.01828(12) 0.90421(8) 0.34188(8)
H3 H -0.12390 0.84250 0.30990
P4 P -0.01674(13) 0.37003(9) 0.86947(8)
H4 H 0.07040 0.28320 0.88440
P5 P 0.52126(12) 0.86170(8) 0.12484(8)
H5 H 0.61730 0.83370 0.19980
P6 P 0.46814(12) 0.64801(8) 0.39083(8)
H6 H 0.55020 0.63200 0.30630
O1 O 0.1944(3) 0.7493(2) 0.6375(2)
O2 O 0.2110(3) 0.6860(2) 0.8264(2)
O3 O 0.3989(3) 0.6181(2) 0.6964(2)
O4 O 0.6762(3) 0.8129(2) 0.7858(2)
O5 O 0.7563(3) 0.6549(3) 0.6785(2)
O6 O 0.8601(3) 0.6740(3) 0.8573(2)
O7 O -0.0892(4) 1.0150(2) 0.3398(2)
O8 O 0.1071(3) 0.8953(2) 0.2608(2)
O9 O 0.0301(3) 0.8616(2) 0.4479(2)
O10 O 0.3902(3) 0.7881(2) 0.1358(2)
O11 O 0.4751(3) 0.9763(2) 0.1426(2)
O12 O 0.6026(4) 0.8380(2) 0.0251(2)
O13 O 0.0863(3) 0.4583(2) 0.8435(2)
O14 O -0.1223(4) 0.3486(2) 0.7800(2)
O15 O -0.1067(3) 0.3887(3) 0.9691(2)
O16 O 0.5766(3) 0.6663(2) 0.4785(2)
O17 O 0.3751(3) 0.5504(2) 0.4067(2)
O18 O 0.3652(3) 0.7458(2) 0.3704(2)
N1 N 0.8661(3) 0.9790(2) 0.9365(2)
H7 H 0.87930 1.03000 0.88720
C1 C 1.0053(5) 0.9083(3) 0.9357(4)
H8 H 1.01760 0.87760 0.86740
H9 H 0.99410 0.85080 0.98530
C2 C 0.8537(5) 1.0344(4) 1.0377(3)
H10 H 0.83510 0.98290 1.09230
H11 H 0.76780 1.08520 1.03530
N2 N 0.3710(4) 0.9306(3) 0.5095(2)
H12 H 0.40570 0.88060 0.46390
C3 C 0.4872(5) 0.9353(5) 0.5903(4)
H13 H 0.45220 0.98570 0.64230
H14 H 0.50020 0.86640 0.62410
C4 C 0.3603(5) 1.0328(4) 0.4507(4)
H15 H 0.29160 1.02680 0.39280
H16 H 0.31860 1.08790 0.49560
N3 N 0.9023(4) 0.4150(3) 0.4853(3)
H17 H 0.88270 0.35370 0.45450
H18 H 0.82360 0.43320 0.52670
C5 C 1.0398(5) 0.3985(4) 0.5494(3)
H19 H 1.12220 0.36970 0.50690
H20 H 1.02190 0.34780 0.60470
C6 C 0.9171(5) 0.4983(4) 0.4045(3)
H21 H 0.82190 0.50950 0.36790
H22 H 0.99340 0.47490 0.35470
N4 N 0.5710(4) 0.4009(3) 0.9699(3)
H23 H 0.66110 0.40220 1.00180
H24 H 0.56900 0.33980 0.93490
C7 C 0.4492(5) 0.4049(3) 1.0487(3)
H25 H 0.46610 0.34720 1.09840
H26 H 0.35260 0.39670 1.01520
C8 C 0.5538(6) 0.4910(3) 0.8960(3)
H27 H 0.46080 0.48610 0.85720
H28 H 0.63710 0.48770 0.84700
Zn1A Zn 0.41943(5) 0.39855(4) 0.38451(4)
Zn1* Zn -0.41943(5) 0.60145(4) 0.61549(4)
Zn2* Zn 1.05294(5) 0.60445(4) 0.88464(4)
Zn2A Zn -0.05294(5) 0.39555(4) 1.11536(4)
Zn2A* Zn 0.94706(5) 0.39555(4) 0.11536(4)
Zn3A Zn 0.75704(5) 0.22882(4) 0.75293(3)
Zn3A* Zn -0.24296(5) 0.22882(4) 0.75293(3)
Zn3* Zn 0.24296(5) 0.77118(4) 1.24707(3)
Zn3A** Zn 0.75704(5) 1.22882(4) 0.75293(3)
Zn3A*** Zn -0.24296(5) 1.22882(4) 0.75293(3)
Zn4* Zn -0.33273(5) 0.91001(4) 0.90014(4)
Zn4A Zn 0.33273(5) 1.08999(4) 0.09986(4)
Zn4** Zn 0.66727(5) 0.91001(4) -0.09986(4)
Zn4A* Zn 1.33273(5) 1.08999(4) 1.09986(4)
Zn4A** Zn 0.33273(5) 1.08999(4) 1.09986(4)
Zn5A Zn 0.83361(5) 0.11580(4) 0.43915(4)
Zn5A* Zn -0.16639(5) 1.11580(4) 0.43915(4)
Zn5A** Zn 0.83361(5) 1.11580(4) 0.43915(4)
P1A P 0.70415(11) 0.28823(8) 0.27187(8)
H1A H 0.61690 0.21000 0.25030
P2* P -0.19846(11) 0.73085(8) 0.75991(8)
H2* H -0.08560 0.78290 0.72100
P3A P 0.01828(12) 1.09579(8) 0.65812(8)
H3A H 0.12390 1.15750 0.69010
P4A P 0.01674(13) 0.62997(9) 1.13053(8)
H4A H -0.07040 0.71680 1.11560
P5A P 0.47874(12) 1.13830(8) 0.87516(8)
H5A H 0.38270 1.16630 0.80020
P6A P 0.53186(12) 0.35199(8) 0.60917(8)
H6A H 0.44980 0.36800 0.69370
O1A O 0.8056(3) 0.2507(2) 0.3625(2)
O2A O 0.7890(3) 0.3140(2) 0.1736(2)
O2* O 1.2110(3) 0.6860(2) 0.8264(2)
O3A O 0.6011(3) 0.3819(2) 0.3036(2)
O4* O -0.3238(3) 0.8129(2) 0.7858(2)
O5* O -0.2437(3) 0.6549(3) 0.6785(2)
O5A O 0.2437(3) 0.3451(3) 0.3215(2)
O6* O -0.1399(3) 0.6740(3) 0.8573(2)
O7A O 0.0892(4) 0.9850(2) 0.6602(2)
O7* O 0.9108(4) 0.0150(2) 0.3398(2)
O8A O -0.1071(3) 1.1047(2) 0.7392(2)
O8A* O 0.8929(3) 0.1047(2) 0.7392(2)
O9A O -0.0301(3) 1.1384(2) 0.5521(2)
O9A* O 0.9699(3) 0.1384(2) 0.5521(2)
O10A O 0.6098(3) 1.2119(2) 0.8642(2)
O10A* O 0.6098(3) 0.2119(2) 0.8642(2)
O11A O 0.5249(3) 1.0237(2) 0.8574(2)
O11A* O -0.4751(3) 1.0237(2) 0.8574(2)
O12A O 0.3974(4) 1.1620(2) 0.9749(2)
O12* O 0.6026(4) 0.8380(2) 1.0251(2)
O12** O -0.3974(4) 0.8380(2) 1.0251(2)
O13A O -0.0863(3) 0.5417(2) 1.1565(2)
O13* O 1.0863(3) 0.4583(2) 0.8435(2)
O14A O 0.1223(4) 0.6514(2) 1.2200(2)
O14A* O 0.1223(4) 0.6514(2) 0.2200(2)
O14* O 0.8777(4) 0.3486(2) 0.7800(2)
O15A O 0.1067(3) 0.6113(3) 1.0309(2)
O15A* O 1.1067(3) 0.6113(3) 1.0309(2)
O16A O 0.4234(3) 0.3337(2) 0.5215(2)
O17A O 0.6249(3) 0.4496(2) 0.5933(2)
O18A O 0.6348(3) 0.2542(2) 0.6296(2)
N1A N 1.1339(3) 1.0210(2) 1.0635(2)
N1* N -0.1339(3) 0.9790(2) 0.9365(2)
H7A H 1.12070 0.97000 1.11280
H7* H -0.12070 1.03000 0.88720
C1A C 0.9947(5) 1.0917(3) 1.0643(4)
H8A H 0.98240 1.12240 1.13260
H9A H 1.00590 1.14920 1.01470
C2A C 1.1463(5) 0.9656(4) 0.9623(3)
H10A H 1.16490 1.01710 0.90770
H11A H 1.23220 0.91480 0.96470
N2A N 0.6290(4) 1.0694(3) 0.4905(2)
N2A* N 0.6290(4) 0.0694(3) 0.4905(2)
H12A H 0.59430 1.11940 0.53610
H12A* H 0.59430 0.11940 0.53610
C3A C 0.5128(5) 1.0647(5) 0.4097(4)
H13A H 0.54780 1.01430 0.35770
H14A H 0.49980 1.13360 0.37590
C4A C 0.6397(5) 0.9672(4) 0.5493(4)
H15A H 0.70840 0.97320 0.60720
H16A H 0.68140 0.91210 0.50440
N3A N 1.0977(4) 0.5850(3) 0.5147(3)
H17A H 1.11730 0.64630 0.54550
H18A H 1.17640 0.56680 0.47330
C5A C 0.9602(5) 0.6015(4) 0.4506(3)
H19A H 0.87780 0.63030 0.49310
H20A H 0.97810 0.65220 0.39530
C6A C 1.0829(5) 0.5017(4) 0.5955(3)
H21A H 1.17810 0.49050 0.63210
H22A H 1.00660 0.52510 0.64530
N4A N 0.4290(4) 0.5991(3) 1.0301(3)
H23A H 0.33890 0.59780 0.99820
H24A H 0.43100 0.66020 1.06510
C7A C 0.5508(5) 0.5951(3) 0.9513(3)
H25A H 0.53390 0.65280 0.90160
H26A H 0.64740 0.60330 0.98480
C8A C 0.4462(6) 0.5090(3) 1.1040(3)
H27A H 0.53920 0.51390 1.14280
H28A H 0.36290 0.51230 1.15300
#END
