
#######################################################################
#
#                 Cambridge Crystallographic Data Centre
#                                CCDC
#
#######################################################################
#
# If this CIF has been generated from an entry in the Cambridge
# Structural Database, then it will include bibliographic, chemical,
# crystal, experimental, refinement or atomic coordinate data resulting
# from the CCDC's data processing and validation procedures.
#
#######################################################################

data_CSD_CIF_UCOPUZ
_audit_creation_date 2012-01-25
_audit_creation_method CSD-ConQuest-V1
_database_code_CSD UCOPUZ
_database_code_depnum_ccdc_archive 'CCDC 818313'
_chemical_formula_sum 'C56 H76 Cd1 N14 O2'
_chemical_formula_moiety
;
(C16 H36 N1 1+)2n,n(C24 H4 Cd1 N12 O2 2-)
;
_journal_coden_Cambridge 9
_journal_volume 50
_journal_year 2011
_journal_page_first 6673
_journal_name_full 'Inorg.Chem. '
loop_
_publ_author_name
"A.M.Kutasi"
"D.R.Turner"
"P.Jensen"
"B.Moubaraki"
"S.R.Batten"
"K.S.Murray"
_chemical_name_systematic
;
catena-[bis(Tetra-n-butylammonium) 
bis(\m~2~-hexacyanotrimethylenecyclopropanediido-N,N')-diaqua-cadmium(ii)]
;
_cell_volume   2922.437
_exptl_crystal_colour 'colorless'
_exptl_crystal_density_diffrn 1.238
_exptl_special_details
;
Isomorphous with the Co, Fe and Mn analogues

;
_exptl_crystal_description 'block'
_diffrn_ambient_temperature 123
#These two values have been output from a single CSD field.
_refine_ls_R_factor_gt 0.0335
_refine_ls_wR_factor_gt 0.0335
_symmetry_cell_setting monoclinic
_symmetry_space_group_name_H-M 'P 21/c'
_symmetry_Int_Tables_number 14
loop_
_symmetry_equiv_pos_site_id
_symmetry_equiv_pos_as_xyz
1 x,y,z
2 -x,1/2+y,1/2-z
3 -x,-y,-z
4 x,-1/2-y,-1/2+z
_cell_length_a 10.9169(1)
_cell_length_b 19.1132(2)
_cell_length_c 14.0349(2)
_cell_angle_alpha 90
_cell_angle_beta 93.681(1)
_cell_angle_gamma 90
_cell_formula_units_Z 2
loop_
_atom_type_symbol
_atom_type_radius_bond
C 0.68
H 0.23
Cd 1.44
N 0.68
O 0.68
loop_
_atom_site_label
_atom_site_type_symbol
_atom_site_fract_x
_atom_site_fract_y
_atom_site_fract_z
Cd1 Cd 0.00000 0.50000 0.00000
O1 O -0.17985(12) 0.56269(7) 0.00747(10)
H1 H -0.191(2) 0.5800(11) 0.0615(10)
H2 H -0.182(2) 0.5975(8) -0.0306(12)
C1 C 0.10113(17) 0.76859(9) 0.13700(13)
C2 C 0.09442(17) 0.82967(9) 0.18929(12)
C3 C 0.01302(17) 0.77538(9) 0.20296(13)
C4 C 0.15521(17) 0.72838(9) 0.06725(13)
C5 C 0.12570(16) 0.65696(9) 0.05890(12)
N1 N 0.10412(14) 0.59803(8) 0.05637(11)
C6 C 0.24342(18) 0.75781(9) 0.00908(13)
N2 N 0.31380(17) 0.78314(8) -0.03788(13)
C7 C 0.13416(17) 0.89785(9) 0.21190(12)
C8 C 0.08130(16) 0.93385(9) 0.28700(13)
N3 N 0.03522(14) 0.96191(8) 0.34777(11)
C9 C 0.22630(17) 0.93140(9) 0.16116(12)
N4 N 0.29918(15) 0.95866(9) 0.11869(11)
C10 C -0.08858(17) 0.74963(9) 0.24738(13)
C11 C -0.14445(17) 0.6857(1) 0.21637(13)
N5 N -0.18730(15) 0.63416(8) 0.18845(12)
C12 C -0.14342(17) 0.79174(9) 0.31557(13)
N6 N -0.18471(16) 0.82901(8) 0.36949(12)
N7 N 0.33862(13) 0.51385(7) 0.29993(10)
C13 C 0.35805(16) 0.48225(9) 0.20256(12)
H3 H 0.31000 0.43840 0.19640
H4 H 0.32360 0.51490 0.15310
C14 C 0.48979(17) 0.46595(10) 0.18104(13)
H5 H 0.53060 0.43950 0.23480
H6 H 0.53560 0.51010 0.17320
C15 C 0.49055(17) 0.42275(9) 0.08973(13)
H7 H 0.44570 0.44850 0.03710
H8 H 0.44690 0.37810 0.09890
C16 C 0.62042(18) 0.4071(1) 0.06171(14)
H9 H 0.66280 0.45110 0.04960
H10 H 0.61660 0.37830 0.00380
H11 H 0.66530 0.38180 0.11370
C17 C 0.41452(17) 0.58012(9) 0.31699(13)
H12 H 0.40420 0.59620 0.38300
H13 H 0.50210 0.56780 0.31280
C18 C 0.38512(18) 0.64095(9) 0.24984(13)
H14 H 0.30180 0.65900 0.25950
H15 H 0.38730 0.62520 0.18280
C19 C 0.48005(18) 0.69860(9) 0.27046(14)
H16 H 0.49240 0.70520 0.34040
H17 H 0.55940 0.68380 0.24650
C20 C 0.4421(2) 0.76768(10) 0.22463(16)
H18 H 0.43160 0.76180 0.15520
H19 H 0.50570 0.80280 0.24000
H20 H 0.36440 0.78310 0.24900
C21 C 0.20185(16) 0.52897(10) 0.29972(13)
H21 H 0.17930 0.56020 0.24520
H22 H 0.15700 0.48440 0.28830
C22 C 0.15718(17) 0.56202(10) 0.38909(13)
H23 H 0.19600 0.60840 0.39960
H24 H 0.18000 0.53220 0.44510
C23 C 0.01883(18) 0.56991(11) 0.37746(14)
H25 H -0.00290 0.59280 0.31540
H26 H -0.01870 0.52270 0.37540
C24 C -0.03612(19) 0.61172(11) 0.45547(15)
H27 H -0.01530 0.58950 0.51740
H28 H -0.12560 0.61330 0.44380
H29 H -0.00320 0.65940 0.45590
C25 C 0.37947(16) 0.46452(9) 0.38060(12)
H30 H 0.46910 0.45720 0.37870
H31 H 0.36530 0.48800 0.44180
C26 C 0.31810(17) 0.39329(9) 0.38088(13)
H32 H 0.33150 0.36830 0.32060
H33 H 0.22860 0.39890 0.38590
C27 C 0.37266(18) 0.35118(9) 0.46565(13)
H34 H 0.46300 0.34940 0.46290
H35 H 0.35430 0.37520 0.52560
C28 C 0.3226(2) 0.27699(10) 0.46726(15)
H36 H 0.23360 0.27850 0.47240
H37 H 0.36110 0.25180 0.52220
H38 H 0.34100 0.25280 0.40820
Cd1A Cd 0.00000 1.00000 0.50000
Cd1A* Cd 0.00000 0.00000 0.50000
O1B O 0.17985(12) 0.43731(7) -0.00747(10)
H1B H 0.191(2) 0.4200(11) -0.0615(10)
H2B H 0.182(2) 0.4025(8) 0.0306(12)
C1A C -0.10113(17) 0.26859(9) 0.36300(13)
C2A C -0.09442(17) 0.32967(9) 0.31071(12)
C3A C -0.01302(17) 0.27538(9) 0.29704(13)
C4A C -0.15521(17) 0.22838(9) 0.43275(13)
C5A C -0.12570(16) 0.15696(9) 0.44110(12)
N1A N -0.10412(14) 0.09803(8) 0.44363(11)
N1B N -0.10412(14) 0.40197(8) -0.05637(11)
C6A C -0.24342(18) 0.25781(9) 0.49092(13)
N2A N -0.31380(17) 0.28314(8) 0.53788(13)
C7A C -0.13416(17) 0.39785(9) 0.28810(12)
C8A C -0.08130(16) 0.43385(9) 0.21300(13)
N3A N -0.03522(14) 0.46191(8) 0.15223(11)
N3C N 0.03522(14) 0.53809(8) -0.15223(11)
C9A C -0.22630(17) 0.43140(9) 0.33884(12)
N4A N -0.29918(15) 0.45866(9) 0.38131(11)
C10A C 0.08858(17) 0.24963(9) 0.25262(13)
C11A C 0.14445(17) 0.1857(1) 0.28363(13)
N5A N 0.18730(15) 0.13416(8) 0.31155(12)
C12A C 0.14342(17) 0.29174(9) 0.18443(13)
N6A N 0.18471(16) 0.32901(8) 0.13051(12)
#END
