
#######################################################################
#
#                 Cambridge Crystallographic Data Centre
#                                CCDC
#
#######################################################################
#
# If this CIF has been generated from an entry in the Cambridge
# Structural Database, then it will include bibliographic, chemical,
# crystal, experimental, refinement or atomic coordinate data resulting
# from the CCDC's data processing and validation procedures.
#
#######################################################################

data_CSD_CIF_UCOQIO
_audit_creation_date 2012-01-25
_audit_creation_method CSD-ConQuest-V1
_database_code_CSD UCOQIO
_database_code_depnum_ccdc_archive 'CCDC 818316'
_chemical_formula_sum 'C56 H76 Mn1 N14 O2'
_chemical_formula_moiety
;
(C16 H36 N1 1+)2n,n(C24 H4 Mn1 N12 O2 2-)
;
_journal_coden_Cambridge 9
_journal_volume 50
_journal_year 2011
_journal_page_first 6673
_journal_name_full 'Inorg.Chem. '
loop_
_publ_author_name
"A.M.Kutasi"
"D.R.Turner"
"P.Jensen"
"B.Moubaraki"
"S.R.Batten"
"K.S.Murray"
_chemical_name_systematic
;
catena-[bis(Tetra-n-butylammonium) 
bis(\m~2~-hexacyanotrimethylenecyclopropanediido-N,N')-diaqua-manganese(ii)]
;
_cell_volume   2889.494
_exptl_crystal_colour 'colorless'
_exptl_crystal_density_diffrn 1.186
_exptl_special_details
;
Isomorphous with the Cd, Co and Fe analogues

;
_exptl_crystal_description 'block'
_diffrn_ambient_temperature 123
#These two values have been output from a single CSD field.
_refine_ls_R_factor_gt 0.0497
_refine_ls_wR_factor_gt 0.0497
_symmetry_cell_setting monoclinic
_symmetry_space_group_name_H-M 'P 21/c'
_symmetry_Int_Tables_number 14
loop_
_symmetry_equiv_pos_site_id
_symmetry_equiv_pos_as_xyz
1 x,y,z
2 -x,1/2+y,1/2-z
3 -x,-y,-z
4 x,-1/2-y,-1/2+z
_cell_length_a 10.9297(3)
_cell_length_b 18.9720(11)
_cell_length_c 13.9619(8)
_cell_angle_alpha 90
_cell_angle_beta 93.571(3)
_cell_angle_gamma 90
_cell_formula_units_Z 2
loop_
_atom_type_symbol
_atom_type_radius_bond
C 0.68
H 0.23
Mn 1.61
N 0.68
O 0.68
loop_
_atom_site_label
_atom_site_type_symbol
_atom_site_fract_x
_atom_site_fract_y
_atom_site_fract_z
Mn1 Mn 0.00000 0.50000 0.00000
O1 O -0.17162(12) 0.55968(8) 0.00684(11)
H1 H -0.186(2) 0.5768(13) 0.0616(11)
H2 H -0.181(2) 0.5948(9) -0.0314(14)
C1 C 0.09730(16) 0.76776(10) 0.13843(14)
C2 C 0.09019(16) 0.82878(10) 0.19170(13)
C3 C 0.00873(16) 0.77424(10) 0.20465(13)
C4 C 0.15174(16) 0.72712(10) 0.06829(14)
C5 C 0.12110(16) 0.65535(11) 0.05876(13)
N1 N 0.09786(14) 0.59588(9) 0.05455(12)
C6 C 0.24021(18) 0.75661(10) 0.01014(14)
N2 N 0.31099(17) 0.78226(10) -0.03653(13)
C7 C 0.13041(16) 0.89731(10) 0.21509(13)
C8 C 0.07827(16) 0.93368(10) 0.29093(14)
N3 N 0.03353(14) 0.96176(9) 0.35295(12)
C9 C 0.22314(17) 0.93101(11) 0.16444(14)
N4 N 0.29675(15) 0.95802(10) 0.12184(12)
C10 C -0.09335(17) 0.74819(10) 0.24845(14)
C11 C -0.14950(17) 0.68405(11) 0.21670(14)
N5 N -0.19227(15) 0.63210(9) 0.18797(13)
C12 C -0.14826(17) 0.79128(11) 0.31678(15)
N6 N -0.18830(15) 0.82936(10) 0.37058(13)
N7 N 0.33869(13) 0.51474(8) 0.29962(11)
C13 C 0.35807(16) 0.48294(10) 0.20138(13)
H3 H 0.31090 0.43840 0.19540
H4 H 0.32300 0.51570 0.15170
C14 C 0.48986(17) 0.46740(11) 0.17968(14)
H5 H 0.53150 0.44150 0.23400
H6 H 0.53450 0.51210 0.17090
C15 C 0.49090(17) 0.42303(11) 0.08836(14)
H7 H 0.44780 0.37800 0.09850
H8 H 0.44570 0.44840 0.03520
C16 C 0.62063(18) 0.40738(12) 0.05991(15)
H9 H 0.66330 0.45180 0.04880
H10 H 0.61680 0.37910 0.00100
H11 H 0.66510 0.38120 0.11160
C17 C 0.41309(17) 0.58154(10) 0.31656(14)
H12 H 0.40270 0.59750 0.38310
H13 H 0.50070 0.56960 0.31210
C18 C 0.38326(18) 0.64287(11) 0.24984(14)
H14 H 0.29990 0.66070 0.25980
H15 H 0.38550 0.62730 0.18230
C19 C 0.47722(18) 0.70134(11) 0.27052(15)
H16 H 0.48970 0.70780 0.34080
H17 H 0.55650 0.68690 0.24610
C20 C 0.4381(2) 0.77099(12) 0.22493(17)
H18 H 0.42720 0.76520 0.15520
H19 H 0.50130 0.80660 0.24020
H20 H 0.36060 0.78610 0.25000
C21 C 0.20171(15) 0.52906(11) 0.29971(14)
H21 H 0.17850 0.56040 0.24490
H22 H 0.15790 0.48390 0.28840
C22 C 0.15651(16) 0.56216(11) 0.38973(14)
H23 H 0.17820 0.53170 0.44590
H24 H 0.19580 0.60870 0.40100
C23 C 0.01904(17) 0.57074(12) 0.37734(15)
H25 H -0.00150 0.59450 0.31530
H26 H -0.01890 0.52340 0.37410
C24 C -0.03692(19) 0.61219(13) 0.45590(16)
H27 H -0.01630 0.58960 0.51790
H28 H -0.12620 0.61350 0.44390
H29 H -0.00460 0.66040 0.45680
C25 C 0.37995(16) 0.46515(10) 0.38071(14)
H30 H 0.36550 0.48880 0.44220
H31 H 0.46950 0.45810 0.37870
C26 C 0.31945(17) 0.39296(11) 0.38123(14)
H32 H 0.33300 0.36790 0.32060
H33 H 0.23000 0.39830 0.38650
C27 C 0.37443(18) 0.35068(11) 0.46618(14)
H34 H 0.46470 0.34950 0.46350
H35 H 0.35530 0.37460 0.52650
C28 C 0.3262(2) 0.27565(11) 0.46741(16)
H36 H 0.23720 0.27640 0.47250
H37 H 0.36500 0.25040 0.52250
H38 H 0.34530 0.25170 0.40800
Mn1A Mn 0.00000 1.00000 0.50000
Mn1A* Mn 0.00000 0.00000 -0.50000
O1B O 0.17162(12) 0.44032(8) -0.00684(11)
H1B H 0.186(2) 0.4232(13) -0.0616(11)
H2B H 0.181(2) 0.4052(9) 0.0314(14)
C1B C -0.09730(16) 0.23224(10) -0.13843(14)
C2B C -0.09019(16) 0.17122(10) -0.19170(13)
C3B C -0.00873(16) 0.22576(10) -0.20465(13)
C4B C -0.15174(16) 0.27288(10) -0.06829(14)
C5B C -0.12110(16) 0.34465(11) -0.05876(13)
N1B N -0.09786(14) 0.40412(9) -0.05455(12)
C6B C -0.24021(18) 0.24339(10) -0.01014(14)
N2B N -0.31099(17) 0.21774(10) 0.03653(13)
C7B C -0.13041(16) 0.10269(10) -0.21509(13)
C8B C -0.07827(16) 0.06632(10) -0.29093(14)
N3B N -0.03353(14) 0.03824(9) -0.35295(12)
N3A N -0.03353(14) 0.46176(9) 0.14705(12)
N3C N 0.03353(14) 0.53824(9) -0.14705(12)
C9B C -0.22314(17) 0.06899(11) -0.16444(14)
N4B N -0.29675(15) 0.04198(10) -0.12184(12)
C10B C 0.09335(17) 0.25181(10) -0.24845(14)
C11B C 0.14950(17) 0.31595(11) -0.21670(14)
N5B N 0.19227(15) 0.36790(9) -0.18797(13)
C12B C 0.14826(17) 0.20872(11) -0.31678(15)
N6B N 0.18830(15) 0.17064(10) -0.37058(13)
#END
