
#######################################################################
#
#                 Cambridge Crystallographic Data Centre
#                                CCDC
#
#######################################################################
#
# If this CIF has been generated from an entry in the Cambridge
# Structural Database, then it will include bibliographic, chemical,
# crystal, experimental, refinement or atomic coordinate data resulting
# from the CCDC's data processing and validation procedures.
#
#######################################################################

data_CSD_CIF_UCOQAG
_audit_creation_date 2012-01-25
_audit_creation_method CSD-ConQuest-V1
_database_code_CSD UCOQAG
_database_code_depnum_ccdc_archive 'CCDC 818314'
_chemical_formula_sum 'C56 H76 Co1 N14 O2'
_chemical_formula_moiety
;
(C16 H36 N1 1+)2n,n(C24 H4 Co1 N12 O2 2-)
;
_journal_coden_Cambridge 9
_journal_volume 50
_journal_year 2011
_journal_page_first 6673
_journal_name_full 'Inorg.Chem. '
loop_
_publ_author_name
"A.M.Kutasi"
"D.R.Turner"
"P.Jensen"
"B.Moubaraki"
"S.R.Batten"
"K.S.Murray"
_chemical_name_systematic
;
catena-[bis(Tetra-n-butylammonium) 
bis(\m~2~-hexacyanotrimethylenecyclopropanediido-N,N')-diaqua-cobalt(ii)]
;
_cell_volume   2845.835
_exptl_crystal_colour 'yellow'
_exptl_crystal_density_diffrn 1.209
_exptl_special_details
;
Isomorphous with the Cd, Fe and Mn analogues

;
_exptl_crystal_description 'block'
_diffrn_ambient_temperature 123
#These two values have been output from a single CSD field.
_refine_ls_R_factor_gt 0.0674
_refine_ls_wR_factor_gt 0.0674
_symmetry_cell_setting monoclinic
_symmetry_space_group_name_H-M 'P 21/c'
_symmetry_Int_Tables_number 14
loop_
_symmetry_equiv_pos_site_id
_symmetry_equiv_pos_as_xyz
1 x,y,z
2 -x,1/2+y,1/2-z
3 -x,-y,-z
4 x,-1/2-y,-1/2+z
_cell_length_a 10.9634(2)
_cell_length_b 18.7609(5)
_cell_length_c 13.8621(3)
_cell_angle_alpha 90
_cell_angle_beta 93.516(1)
_cell_angle_gamma 90
_cell_formula_units_Z 2
loop_
_atom_type_symbol
_atom_type_radius_bond
C 0.68
H 0.23
Co 1.26
N 0.68
O 0.68
loop_
_atom_site_label
_atom_site_type_symbol
_atom_site_fract_x
_atom_site_fract_y
_atom_site_fract_z
Co1 Co 0.00000 0.50000 0.00000
O1 O -0.16592(19) 0.55530(11) 0.00532(14)
H1 H -0.185(3) 0.5714(19) 0.0604(14)
H2 H -0.173(3) 0.5923(12) -0.031(2)
C1 C 0.0929(3) 0.76611(16) 0.14005(18)
C2 C 0.0857(3) 0.82742(16) 0.19427(18)
C3 C 0.0043(3) 0.77248(15) 0.20640(19)
C4 C 0.1465(3) 0.72475(15) 0.06870(19)
C5 C 0.1145(3) 0.65279(18) 0.05760(18)
N1 N 0.0894(2) 0.59253(13) 0.05187(15)
C6 C 0.2345(3) 0.75478(15) 0.0101(2)
N2 N 0.3057(3) 0.78041(14) -0.03717(19)
C7 C 0.1268(3) 0.89660(15) 0.21877(18)
C8 C 0.0754(3) 0.93379(15) 0.2958(2)
N3 N 0.0320(2) 0.96253(13) 0.35889(16)
C9 C 0.2196(3) 0.93086(16) 0.1679(2)
N4 N 0.2942(2) 0.95755(14) 0.12524(17)
C10 C -0.0978(3) 0.74657(15) 0.24952(19)
C11 C -0.1536(3) 0.68225(17) 0.21732(19)
N5 N -0.1965(2) 0.62923(14) 0.18777(17)
C12 C -0.1515(3) 0.79043(16) 0.3187(2)
N6 N -0.1891(2) 0.82969(14) 0.37328(17)
N7 N 0.3387(2) 0.51497(12) 0.29944(15)
C13 C 0.3585(3) 0.48326(16) 0.20091(18)
H3 H 0.32170 0.51590 0.15110
H4 H 0.31320 0.43770 0.19520
C14 C 0.4898(3) 0.46921(16) 0.17783(19)
H5 H 0.53350 0.44480 0.23300
H6 H 0.53180 0.51500 0.16690
C15 C 0.4921(3) 0.42272(16) 0.08735(19)
H7 H 0.45050 0.37700 0.09920
H8 H 0.44610 0.44700 0.03310
C16 C 0.6216(3) 0.40748(17) 0.0586(2)
H9 H 0.66350 0.45260 0.04730
H10 H 0.61810 0.37890 -0.00070
H11 H 0.66630 0.38120 0.11060
C17 C 0.4115(3) 0.58315(15) 0.31603(19)
H12 H 0.40100 0.59920 0.38300
H13 H 0.49900 0.57150 0.31150
C18 C 0.3812(3) 0.64484(16) 0.24936(19)
H14 H 0.29770 0.66230 0.25950
H15 H 0.38360 0.62910 0.18130
C19 C 0.4732(3) 0.70462(16) 0.2696(2)
H16 H 0.48520 0.71150 0.34040
H17 H 0.55270 0.69040 0.24530
C20 C 0.4335(3) 0.77455(17) 0.2232(2)
H18 H 0.42510 0.76870 0.15280
H19 H 0.49490 0.81120 0.23970
H20 H 0.35480 0.78900 0.24680
C21 C 0.2020(3) 0.52862(15) 0.29941(19)
H21 H 0.17860 0.56040 0.24430
H22 H 0.15920 0.48270 0.28760
C22 C 0.1556(3) 0.56149(17) 0.39031(19)
H23 H 0.17620 0.53020 0.44650
H24 H 0.19520 0.60830 0.40270
C23 C 0.0186(3) 0.57080(18) 0.3773(2)
H25 H -0.00100 0.59540 0.31510
H26 H -0.01980 0.52310 0.37310
C24 C -0.0371(3) 0.61227(18) 0.4568(2)
H27 H -0.01650 0.58920 0.51900
H28 H -0.12610 0.61360 0.44480
H29 H -0.00500 0.66100 0.45800
C25 C 0.3807(3) 0.46483(15) 0.38065(19)
H30 H 0.46990 0.45790 0.37800
H31 H 0.36680 0.48870 0.44280
C26 C 0.3212(3) 0.39220(16) 0.38167(19)
H32 H 0.33480 0.36670 0.32070
H33 H 0.23200 0.39740 0.38710
C27 C 0.3765(3) 0.34968(16) 0.46750(19)
H34 H 0.46660 0.34930 0.46520
H35 H 0.35630 0.37350 0.52820
C28 C 0.3302(3) 0.27359(17) 0.4680(2)
H36 H 0.24110 0.27370 0.47130
H37 H 0.36760 0.24840 0.52430
H38 H 0.35190 0.24940 0.40880
Co1A Co 0.00000 1.00000 0.50000
Co1A* Co 0.00000 0.00000 0.50000
O1B O 0.16592(19) 0.44470(11) -0.00532(14)
H1B H 0.185(3) 0.4286(19) -0.0604(14)
H2B H 0.173(3) 0.4077(12) 0.031(2)
C1A C -0.0929(3) 0.26611(16) 0.35995(18)
C2A C -0.0857(3) 0.32742(16) 0.30573(18)
C3A C -0.0043(3) 0.27248(15) 0.29360(19)
C4A C -0.1465(3) 0.22475(15) 0.43130(19)
C5A C -0.1145(3) 0.15279(18) 0.44240(18)
N1A N -0.0894(2) 0.09253(13) 0.44813(15)
N1B N -0.0894(2) 0.40747(13) -0.05187(15)
C6A C -0.2345(3) 0.25478(15) 0.4899(2)
N2A N -0.3057(3) 0.28041(14) 0.53717(19)
C7A C -0.1268(3) 0.39660(15) 0.28123(18)
C8A C -0.0754(3) 0.43379(15) 0.2042(2)
N3A N -0.0320(2) 0.46253(13) 0.14111(16)
N3C N 0.0320(2) 0.53747(13) -0.14111(16)
C9A C -0.2196(3) 0.43086(16) 0.3321(2)
N4A N -0.2942(2) 0.45755(14) 0.37476(17)
C10A C 0.0978(3) 0.24657(15) 0.25048(19)
C11A C 0.1536(3) 0.18225(17) 0.28268(19)
N5A N 0.1965(2) 0.12923(14) 0.31223(17)
C12A C 0.1515(3) 0.29043(16) 0.1813(2)
N6A N 0.1891(2) 0.32969(14) 0.12672(17)
#END
