
#######################################################################
#
#                 Cambridge Crystallographic Data Centre
#                                CCDC
#
#######################################################################
#
# If this CIF has been generated from an entry in the Cambridge
# Structural Database, then it will include bibliographic, chemical,
# crystal, experimental, refinement or atomic coordinate data resulting
# from the CCDC's data processing and validation procedures.
#
#######################################################################

data_CSD_CIF_UCOQEK
_audit_creation_date 2012-01-25
_audit_creation_method CSD-ConQuest-V1
_database_code_CSD UCOQEK
_database_code_depnum_ccdc_archive 'CCDC 818315'
_chemical_formula_sum 'C56 H76 Fe1 N14 O2'
_chemical_formula_moiety
;
(C16 H36 N1 1+)2n,n(C24 H4 Fe1 N12 O2 2-)
;
_journal_coden_Cambridge 9
_journal_volume 50
_journal_year 2011
_journal_page_first 6673
_journal_name_full 'Inorg.Chem. '
loop_
_publ_author_name
"A.M.Kutasi"
"D.R.Turner"
"P.Jensen"
"B.Moubaraki"
"S.R.Batten"
"K.S.Murray"
_chemical_name_systematic
;
catena-[bis(Tetra-n-butylammonium) 
bis(\m~2~-hexacyanotrimethylenecyclopropanediido-N,N')-diaqua-iron(ii)]
;
_cell_volume   2862.537
_exptl_crystal_colour 'colorless'
_exptl_crystal_density_diffrn 1.199
_exptl_special_details
;
Isomorphous with the Cd, Co and Mn analogues

;
_exptl_crystal_description 'block'
_diffrn_ambient_temperature 123
#These two values have been output from a single CSD field.
_refine_ls_R_factor_gt 0.0408
_refine_ls_wR_factor_gt 0.0408
_symmetry_cell_setting monoclinic
_symmetry_space_group_name_H-M 'P 21/c'
_symmetry_Int_Tables_number 14
loop_
_symmetry_equiv_pos_site_id
_symmetry_equiv_pos_as_xyz
1 x,y,z
2 -x,1/2+y,1/2-z
3 -x,-y,-z
4 x,-1/2-y,-1/2+z
_cell_length_a 10.9598(1)
_cell_length_b 18.8191(2)
_cell_length_c 13.9049(2)
_cell_angle_alpha 90
_cell_angle_beta 93.516(1)
_cell_angle_gamma 90
_cell_formula_units_Z 2
loop_
_atom_type_symbol
_atom_type_radius_bond
C 0.68
H 0.23
Fe 1.52
N 0.68
O 0.68
loop_
_atom_site_label
_atom_site_type_symbol
_atom_site_fract_x
_atom_site_fract_y
_atom_site_fract_z
Fe1 Fe 0.50000 0.00000 0.00000
O1 O 0.33229(11) 0.05681(6) 0.00423(9)
H1 H 0.3204(18) 0.0745(10) 0.0597(9)
H2 H 0.327(2) 0.0927(9) -0.0340(14)
C1 C 0.59647(15) 0.26669(9) 0.13997(11)
C2 C 0.58921(15) 0.32821(9) 0.19385(11)
C3 C 0.50767(15) 0.27305(9) 0.20596(11)
C4 C 0.64992(15) 0.22588(8) 0.06903(12)
C5 C 0.61794(15) 0.15364(9) 0.05818(11)
N1 N 0.59370(13) 0.09412(7) 0.05256(10)
C6 C 0.73810(16) 0.25570(9) 0.01059(12)
N2 N 0.80883(16) 0.28124(8) -0.03658(12)
C7 C 0.62850(15) 0.39742(8) 0.21764(11)
C8 C 0.57647(15) 0.43358(8) 0.29403(11)
N3 N 0.53224(13) 0.46194(7) 0.35673(10)
C9 C 0.72090(16) 0.43148(9) 0.16698(12)
N4 N 0.79445(14) 0.45877(8) 0.12401(10)
C10 C 0.40475(16) 0.24703(9) 0.24891(12)
C11 C 0.34911(16) 0.18264(9) 0.21614(12)
N5 N 0.30744(14) 0.13023(8) 0.18599(11)
C12 C 0.35000(16) 0.29052(9) 0.31726(12)
N6 N 0.31115(14) 0.32972(8) 0.37114(11)
N7 N 0.83895(12) 0.01506(7) 0.29955(9)
C13 C 0.85881(15) -0.01686(9) 0.20119(11)
H3 H 0.81290 -0.06210 0.19550
H4 H 0.82270 0.01580 0.15140
C14 C 0.99010(15) -0.03153(9) 0.17850(12)
H5 H 1.03300 -0.05650 0.23340
H6 H 1.03300 0.01390 0.16830
C15 C 0.99202(16) -0.07725(9) 0.08801(12)
H7 H 0.95020 -0.12280 0.09940
H8 H 0.94610 -0.05270 0.03430
C16 C 1.12141(17) -0.09247(10) 0.05906(13)
H9 H 1.16290 -0.04760 0.04670
H10 H 1.11780 -0.12160 0.00060
H11 H 1.16670 -0.11800 0.11130
C17 C 0.91286(15) 0.08260(9) 0.31670(12)
H12 H 0.90240 0.09860 0.38350
H13 H 1.00030 0.07080 0.31210
C18 C 0.88240(16) 0.14434(9) 0.24960(12)
H14 H 0.79910 0.16200 0.25970
H15 H 0.88480 0.12870 0.18180
C19 C 0.97566(17) 0.20343(9) 0.27034(13)
H16 H 0.98770 0.21020 0.34090
H17 H 1.05500 0.18900 0.24610
C20 C 0.93589(19) 0.27344(10) 0.22376(15)
H18 H 0.92580 0.26730 0.15370
H19 H 0.99820 0.30970 0.23920
H20 H 0.85800 0.28840 0.24840
C21 C 0.70237(15) 0.02905(9) 0.29970(12)
H21 H 0.67900 0.06070 0.24480
H22 H 0.65910 -0.01660 0.28810
C22 C 0.65676(15) 0.06201(10) 0.39018(12)
H23 H 0.69610 0.10880 0.40210
H24 H 0.67790 0.03100 0.44630
C23 C 0.51924(16) 0.07102(11) 0.37748(13)
H25 H 0.49920 0.09530 0.31540
H26 H 0.48100 0.02340 0.37370
C24 C 0.46359(17) 0.11251(11) 0.45658(14)
H27 H 0.48270 0.08900 0.51860
H28 H 0.37470 0.11470 0.44390
H29 H 0.49720 0.16080 0.45870
C25 C 0.88052(15) -0.03492(9) 0.38104(12)
H30 H 0.96980 -0.04210 0.37870
H31 H 0.86650 -0.01110 0.44280
C26 C 0.82001(16) -0.10737(9) 0.38172(12)
H32 H 0.83360 -0.13280 0.32100
H33 H 0.73080 -0.10180 0.38690
C27 C 0.87467(17) -0.14995(9) 0.46742(12)
H34 H 0.96480 -0.15050 0.46540
H35 H 0.85440 -0.12610 0.52790
C28 C 0.82790(19) -0.22587(10) 0.46804(14)
H36 H 0.73890 -0.22560 0.47200
H37 H 0.86580 -0.25110 0.52380
H38 H 0.84880 -0.24990 0.40870
Fe1A Fe 0.50000 0.50000 0.50000
Fe1A* Fe 0.50000 -0.50000 -0.50000
O1B O 0.66771(11) -0.05681(6) -0.00423(9)
H1B H 0.6796(18) -0.0745(10) -0.0597(9)
H2B H 0.673(2) -0.0927(9) 0.0340(14)
C1B C 0.40353(15) -0.26669(9) -0.13997(11)
C2B C 0.41079(15) -0.32821(9) -0.19385(11)
C3B C 0.49233(15) -0.27305(9) -0.20596(11)
C4B C 0.35008(15) -0.22588(8) -0.06903(12)
C5B C 0.38206(15) -0.15364(9) -0.05818(11)
N1B N 0.40630(13) -0.09412(7) -0.05256(10)
C6B C 0.26190(16) -0.25570(9) -0.01059(12)
N2B N 0.19117(16) -0.28124(8) 0.03658(12)
C7B C 0.37150(15) -0.39742(8) -0.21764(11)
C8B C 0.42353(15) -0.43358(8) -0.29403(11)
N3B N 0.46776(13) -0.46194(7) -0.35673(10)
N3A N 0.46776(13) -0.03806(7) 0.14327(10)
N3C N 0.53224(13) 0.03806(7) -0.14327(10)
C9B C 0.27910(16) -0.43148(9) -0.16698(12)
N4B N 0.20555(14) -0.45877(8) -0.12401(10)
C10B C 0.59525(16) -0.24703(9) -0.24891(12)
C11B C 0.65089(16) -0.18264(9) -0.21614(12)
N5B N 0.69256(14) -0.13023(8) -0.18599(11)
C12B C 0.65000(16) -0.29052(9) -0.31726(12)
N6B N 0.68885(14) -0.32972(8) -0.37114(11)
#END
