
#######################################################################
#
#                 Cambridge Crystallographic Data Centre
#                                CCDC
#
#######################################################################
#
# If this CIF has been generated from an entry in the Cambridge
# Structural Database, then it will include bibliographic, chemical,
# crystal, experimental, refinement or atomic coordinate data resulting
# from the CCDC's data processing and validation procedures.
#
#######################################################################

data_CSD_CIF_UCOZUJ
_audit_creation_date 2012-01-25
_audit_creation_method CSD-ConQuest-V1
_database_code_CSD UCOZUJ
_database_code_depnum_ccdc_archive 'CCDC 829521'
_chemical_formula_sum 'C72 H53 Fe2 N12 O2.5 Se14 Sn6'
_chemical_formula_moiety
;
(Se14 Sn6 4-)n,2n(C36 H24 Fe1 N6 2+),2.5n(H2 O1)
;
_journal_coden_Cambridge 9
_journal_volume 50
_journal_year 2011
_journal_page_first 9660
_journal_name_full 'Inorg.Chem. '
loop_
_publ_author_name
"Guang-Ning Liu"
"Guo-Cong Guo"
"Ming-Jian Zhang"
"Jin-Shuang Guo"
"Hui-Yi Zeng"
"Jin-Shun Huang"
_chemical_name_systematic
;
catena-(bis(tris(1,10-phenanthroline)-iron) 
bis(\m~3~-selenido)-dodecakis(\m~2~-selenido)-hexa-tin hydrate)
;
_cell_volume  12716.924
_exptl_crystal_colour 'dark red'
_exptl_crystal_density_diffrn 2.394
_exptl_crystal_description 'block'
_diffrn_ambient_temperature 293
#These two values have been output from a single CSD field.
_refine_ls_R_factor_gt 0.0364
_refine_ls_wR_factor_gt 0.0364
_symmetry_cell_setting rhombohedral
_symmetry_space_group_name_H-M 'R -3 c'
_symmetry_Int_Tables_number 167
loop_
_symmetry_equiv_pos_site_id
_symmetry_equiv_pos_as_xyz
1 x,y,z
2 -y,x-y,z
3 -x+y,-x,z
4 y,x,1/2-z
5 x-y,-y,1/2-z
6 -x,-x+y,1/2-z
7 2/3+x,1/3+y,1/3+z
8 2/3-y,1/3+x-y,1/3+z
9 2/3-x+y,1/3-x,1/3+z
10 2/3+y,1/3+x,5/6-z
11 2/3+x-y,1/3-y,5/6-z
12 2/3-x,1/3-x+y,5/6-z
13 1/3+x,2/3+y,2/3+z
14 1/3-y,2/3+x-y,2/3+z
15 1/3-x+y,2/3-x,2/3+z
16 1/3+y,2/3+x,1/6-z
17 1/3+x-y,2/3-y,1/6-z
18 1/3-x,2/3-x+y,1/6-z
19 -x,-y,-z
20 y,-x+y,-z
21 x-y,x,-z
22 -y,-x,-1/2+z
23 -x+y,y,-1/2+z
24 x,x-y,-1/2+z
25 -2/3-x,-1/3-y,-1/3-z
26 -2/3+y,-1/3-x+y,-1/3-z
27 -2/3+x-y,-1/3+x,-1/3-z
28 -2/3-y,-1/3-x,-5/6+z
29 -2/3-x+y,-1/3+y,-5/6+z
30 -2/3+x,-1/3+x-y,-5/6+z
31 -1/3-x,-2/3-y,-2/3-z
32 -1/3+y,-2/3-x+y,-2/3-z
33 -1/3+x-y,-2/3+x,-2/3-z
34 -1/3-y,-2/3-x,-1/6+z
35 -1/3-x+y,-2/3+y,-1/6+z
36 -1/3+x,-2/3+x-y,-1/6+z
_cell_length_a 13.9483(3)
_cell_length_b 13.9483(3)
_cell_length_c 75.476(3)
_cell_angle_alpha 90
_cell_angle_beta 90
_cell_angle_gamma 120
_cell_formula_units_Z 6
loop_
_atom_type_symbol
_atom_type_radius_bond
C 0.68
H 0.23
Fe 1.52
N 0.68
O 0.68
Se 1.22
Sn 1.39
loop_
_atom_site_label
_atom_site_type_symbol
_atom_site_fract_x
_atom_site_fract_y
_atom_site_fract_z
Sn1 Sn 0.085794(15) 0.904082(15) 0.083821(3)
Se1 Se 0.20649(3) 1.09783(2) 0.096921(5)
Se2 Se 0.00000 1.00000 0.060849(7)
Se3 Se 0.15180(2) 0.83194(3) 0.058903(5)
Fe1 Fe 0.00000 1.00000 0.185205(10)
N1 N 0.05263(19) 0.91647(19) 0.19945(3)
N2 N 0.12981(19) 1.03386(19) 0.17048(3)
C1 C 0.0135(2) 0.8585(2) 0.21406(4)
H1 H -0.04910 0.85460 0.21910
C2 C 0.0602(3) 0.8022(3) 0.22242(5)
H2 H 0.02920 0.76270 0.23280
C3 C 0.1523(3) 0.8058(3) 0.21522(5)
H3 H 0.18470 0.76910 0.22060
C4 C 0.1960(2) 0.8655(2) 0.19964(5)
C5 C 0.2892(2) 0.8714(3) 0.19024(5)
H4 H 0.32620 0.83760 0.19510
C6 C 0.3233(2) 0.9249(3) 0.17462(5)
H5 H 0.38080 0.92380 0.16860
C7 C 0.2730(2) 0.9835(3) 0.16714(5)
C8 C 0.3032(3) 1.0404(3) 0.15118(5)
H6 H 0.35920 1.04110 0.14440
C9 C 0.2516(3) 1.0949(3) 0.14539(5)
H7 H 0.27300 1.13440 0.13480
C10 C 0.1653(3) 1.0910(3) 0.15560(5)
H8 H 0.13170 1.13030 0.15170
C11 C 0.1841(2) 0.9814(2) 0.17623(4)
C12 C 0.1440(2) 0.9198(2) 0.19242(4)
O1 O 0.00000 1.00000 0.25000
O2 O -0.2051(5) 0.7949(5) 0.25000
Sn1B Sn -0.181712(15) 0.914206(15) 0.083821(3)
Sn1A Sn 0.095918(15) 1.181712(15) 0.083821(3)
Sn1O Sn 0.237415(15) 0.752461(15) 0.082846(3)
Sn1Q Sn 0.247539(15) 0.484955(15) 0.082846(3)
Sn1P Sn 0.515045(15) 0.762585(15) 0.082846(3)
Sn1P* Sn -0.484955(15) 0.762585(15) 0.082846(3)
Sn1Q* Sn 0.247539(15) 1.484955(15) 0.082846(3)
Se1B Se -0.10866(3) 0.79351(2) 0.096921(5)
Se1A Se -0.09783(3) 1.10866(2) 0.096921(5)
Se1O Se 0.431163(30) 0.873157(20) 0.069746(5)
Se1Q Se 0.126843(30) 0.558007(20) 0.069746(5)
Se1P Se 0.441993(30) 0.568837(20) 0.069746(5)
Se2O Se 0.33333 0.66667 0.105818(7)
Se3O Se 0.165273(20) 0.818467(30) 0.107764(5)
Se3B Se -0.31986(2) 0.84820(3) 0.058903(5)
Se3P Se -0.346807(20) 0.834727(30) 0.107764(5)
Se3A Se 0.16806(2) 1.31986(3) 0.058903(5)
Se3Q Se 0.181533(20) 1.346807(30) 0.107764(5)
Se3Q* Se 0.181533(20) 0.346807(30) 0.107764(5)
Se3A* Se 0.16806(2) 0.31986(3) 0.058903(5)
Se3P* Se 0.653193(20) 0.834727(30) 0.107764(5)
Se3B* Se 0.68014(2) 0.84820(3) 0.058903(5)
N1A N 0.08353(19) 1.13616(19) 0.19945(3)
N1B N -0.13616(19) 0.94737(19) 0.19945(3)
N2A N -0.03386(19) 1.09595(19) 0.17048(3)
N2B N -0.09595(19) 0.87019(19) 0.17048(3)
C1A C 0.1415(2) 1.1550(2) 0.21406(4)
C1B C -0.1550(2) 0.9865(2) 0.21406(4)
H1A H 0.14540 1.09630 0.21910
H1B H -0.09630 1.04910 0.21910
C2A C 0.1978(3) 1.2580(3) 0.22242(5)
C2B C -0.2580(3) 0.9398(3) 0.22242(5)
H2A H 0.23730 1.26650 0.23280
H2B H -0.26650 0.97080 0.23280
C3A C 0.1942(3) 1.3465(3) 0.21522(5)
C3B C -0.3465(3) 0.8477(3) 0.21522(5)
H3A H 0.23090 1.41560 0.22060
H3B H -0.41560 0.81530 0.22060
C4A C 0.1345(2) 1.3305(2) 0.19964(5)
C4B C -0.3305(2) 0.8040(2) 0.19964(5)
C5A C 0.1286(2) 1.4178(3) 0.19024(5)
C5B C -0.4178(2) 0.7108(3) 0.19024(5)
H4A H 0.16240 1.48860 0.19510
H4B H -0.48860 0.67380 0.19510
C6A C 0.0751(2) 1.3984(3) 0.17462(5)
C6B C -0.3984(2) 0.6767(3) 0.17462(5)
H5A H 0.07620 1.45700 0.16860
H5B H -0.45700 0.61920 0.16860
C7A C 0.0165(2) 1.2895(3) 0.16714(5)
C7B C -0.2895(2) 0.7270(3) 0.16714(5)
C8A C -0.0404(3) 1.2628(3) 0.15118(5)
C8B C -0.2628(3) 0.6968(3) 0.15118(5)
H6A H -0.04110 1.31810 0.14440
H6B H -0.31810 0.64080 0.14440
C9A C -0.0949(3) 1.1567(3) 0.14539(5)
C9B C -0.1567(3) 0.7484(3) 0.14539(5)
H7A H -0.13440 1.13860 0.13480
H7B H -0.13860 0.72700 0.13480
C10A C -0.0910(3) 1.0743(3) 0.15560(5)
C10B C -0.0743(3) 0.8347(3) 0.15560(5)
H8A H -0.13030 1.00140 0.15170
H8B H -0.00140 0.86830 0.15170
C11A C 0.0186(2) 1.2027(2) 0.17623(4)
C11B C -0.2027(2) 0.8159(2) 0.17623(4)
C12A C 0.0802(2) 1.2242(2) 0.19242(4)
C12B C -0.2242(2) 0.8560(2) 0.19242(4)
#END
