
#######################################################################
#
#                 Cambridge Crystallographic Data Centre
#                                CCDC
#
#######################################################################
#
# If this CIF has been generated from an entry in the Cambridge
# Structural Database, then it will include bibliographic, chemical,
# crystal, experimental, refinement or atomic coordinate data resulting
# from the CCDC's data processing and validation procedures.
#
#######################################################################

data_CSD_CIF_UCUHIM
_audit_creation_date 2017-01-03
_audit_creation_method CSD-ConQuest-V1
_database_code_CSD UCUHIM
_database_code_depnum_ccdc_archive 'CCDC 1524600'
_chemical_formula_sum 'C25 H26 Cd1 N6 O10'
_chemical_formula_moiety
;
(C21 H10 Cd1 N4 O10 2-)n,2(C2 H8 N1 1+)
;
_journal_coden_Cambridge 1078
_journal_year 2016
_journal_name_full 'CSD Communication(Private Communication) '
loop_
_publ_author_name
"ping zhang"
_chemical_name_systematic
;
catena-[bis(dimethylammonium) 
(\m-5,5'-[1H-pyrazole-3,5-diylbis(carbonylimino)]dibenzene-1,3-dicarboxylato)-
cadmium unknown solvate]
;
_cell_volume   1737.804
_exptl_crystal_colour 'colorless'
_exptl_special_details
;
Added second cation to balance charge, which may be in the electron density 
removed by the squeeze routine
;
_exptl_crystal_description 'Prism'
_diffrn_ambient_temperature 293
_refine_special_details
;
The SQUEEZE/PLATON program has been used to model some disorder.

;
#These two values have been output from a single CSD field.
_refine_ls_R_factor_gt 0.0973
_refine_ls_wR_factor_gt 0.0973
_symmetry_cell_setting triclinic
_symmetry_space_group_name_H-M 'P -1'
_symmetry_Int_Tables_number 2
loop_
_symmetry_equiv_pos_site_id
_symmetry_equiv_pos_as_xyz
1 x,y,z
2 -x,-y,-z
_cell_length_a 10.225(2)
_cell_length_b 10.243(2)
_cell_length_c 17.912(4)
_cell_angle_alpha 99.21(3)
_cell_angle_beta 101.53(3)
_cell_angle_gamma 104.25(3)
_cell_formula_units_Z 2
loop_
_atom_type_symbol
_atom_type_radius_bond
C 0.68
H 0.23
Cd 1.44
N 0.68
O 0.68
loop_
_atom_site_label
_atom_site_type_symbol
_atom_site_fract_x
_atom_site_fract_y
_atom_site_fract_z
Cd1 Cd 1.03049(9) 1.04377(7) 1.31317(4)
N1 N 0.8421(11) 0.4019(8) 1.0096(5)
H1 H 0.84970 0.32210 0.99090
N2 N 0.7573(10) 0.2563(9) 0.8576(5)
N3 N 0.7117(10) 0.2159(9) 0.7779(5)
H2 H 0.70290 0.13480 0.75170
N4 N 0.6875(8) 0.2287(8) 0.6148(4)
H3 H 0.75700 0.20580 0.63910
O1 O 1.0408(8) 0.8078(7) 1.3209(4)
O2 O 0.9444(8) 0.8507(7) 1.2074(4)
O3 O 1.0403(12) 0.3291(9) 1.3359(5)
O4 O 0.9925(11) 0.1741(8) 1.2283(5)
O5 O 0.7800(13) 0.5796(9) 0.9697(4)
O6 O 0.5405(10) 0.3569(9) 0.6343(4)
O7 O 0.9335(9) 0.0876(8) 0.4144(4)
O8 O 0.7717(8) 0.0076(9) 0.3044(4)
O9 O 0.2871(8) 0.0408(7) 0.2918(4)
O10 O 0.2448(7) 0.1278(7) 0.4021(4)
C1 C 0.9813(11) 0.7694(10) 1.2494(6)
C2 C 0.9548(11) 0.6219(10) 1.2081(5)
C3 C 0.9816(12) 0.5261(11) 1.2519(6)
H4 H 1.00970 0.55330 1.30610
C4 C 0.9669(12) 0.3898(9) 1.2157(6)
C5 C 1.0046(15) 0.2919(11) 1.2648(8)
C6 C 0.9217(12) 0.3535(9) 1.1350(6)
H5 H 0.91480 0.26500 1.10890
C7 C 0.8869(11) 0.4465(10) 1.0928(6)
C8 C 0.9076(10) 0.5824(9) 1.1289(5)
H6 H 0.88960 0.64590 1.09950
C9 C 0.7901(16) 0.4663(12) 0.9563(6)
C10 C 0.7509(12) 0.3878(11) 0.8730(6)
C11 C 0.6817(12) 0.3207(11) 0.7450(6)
C12 C 0.7015(12) 0.4262(11) 0.8044(6)
H7 H 0.68500 0.51050 0.80050
C13 C 0.6297(12) 0.3028(11) 0.6597(6)
C14 C 0.6491(9) 0.1830(9) 0.5327(5)
C15 C 0.7465(12) 0.1475(10) 0.4949(6)
H8 H 0.83650 0.15800 0.52350
C16 C 0.7092(10) 0.0973(10) 0.4160(5)
C17 C 0.8080(11) 0.0617(10) 0.3759(6)
C18 C 0.5702(9) 0.0814(9) 0.3726(5)
H9 H 0.54350 0.04440 0.31910
C19 C 0.4775(10) 0.1200(9) 0.4093(6)
C20 C 0.3256(10) 0.0900(9) 0.3634(6)
C21 C 0.5154(10) 0.1686(10) 0.4904(6)
H10 H 0.45070 0.19130 0.51600
N5 N 0.1855(15) 0.3341(12) 0.4980(6)
H11 H 0.10390 0.34960 0.48090
H12 H 0.18940 0.26460 0.46250
C22 C 0.1766(17) 0.2804(18) 0.5685(8)
H13 H 0.26880 0.29320 0.59960
H14 H 0.12710 0.18370 0.55390
H15 H 0.12800 0.32900 0.59830
C23 C 0.2948(19) 0.4588(17) 0.4935(11)
H16 H 0.27850 0.54070 0.51930
H17 H 0.29070 0.46140 0.43980
H18 H 0.38520 0.45410 0.51860
Cd1* Cd 0.03049(9) 0.04377(7) 0.31317(4)
Cd1** Cd 1.03049(9) 0.04377(7) 0.31317(4)
Cd1*** Cd 1.03049(9) 0.04377(7) 1.31317(4)
O4* O 0.9925(11) 1.1741(8) 1.2283(5)
O7* O 0.9335(9) 1.0876(8) 1.4144(4)
O8* O 0.7717(8) 1.0076(9) 1.3044(4)
O9* O 1.2871(8) 1.0408(7) 1.2918(4)
O10* O 1.2448(7) 1.1278(7) 1.4021(4)
#END
