
#######################################################################
#
#                 Cambridge Crystallographic Data Centre
#                                CCDC
#
#######################################################################
#
# If this CIF has been generated from an entry in the Cambridge
# Structural Database, then it will include bibliographic, chemical,
# crystal, experimental, refinement or atomic coordinate data resulting
# from the CCDC's data processing and validation procedures.
#
#######################################################################

data_CSD_CIF_UCURIU
_audit_creation_date 2006-06-27
_audit_creation_method CSD-ConQuest-V1
_database_code_CSD UCURIU
_database_code_depnum_ccdc_archive 'CCDC 218125'
_chemical_formula_sum 'C12 H14 N2 O15 U3'
_chemical_formula_moiety
;
(C12 H11 N2 O14 U3 1-)n,n(H3 O1 1+)
;
_journal_coden_Cambridge 580
_journal_volume 25
_journal_year 2006
_journal_page_first 1359
_journal_name_full 'Polyhedron '
loop_
_publ_author_name
"Yu-Sheng Jiang"
"Zhen-Tao Yu"
"Zuo-Lei Liao"
"Guang-Hua Li"
"Jie-Sheng Chen"
_chemical_name_systematic
;
catena-(oxonium 
tris(\m~3~-hydroxo)-bis(\m~2~-nicotinato)-(\m~2~-oxo)-hexa-oxo-tri-uranium)
;
_cell_volume   2115.462
_exptl_crystal_colour 'pale yellow'
_exptl_crystal_density_diffrn 3.58
_exptl_special_details
;
intensely photoluminescent

;
_exptl_crystal_description 'block'
_diffrn_ambient_temperature 293
#These two values have been output from a single CSD field.
_refine_ls_R_factor_gt 0.0333
_refine_ls_wR_factor_gt 0.0333
_symmetry_cell_setting monoclinic
_symmetry_space_group_name_H-M 'P 21/n'
_symmetry_Int_Tables_number 14
loop_
_symmetry_equiv_pos_site_id
_symmetry_equiv_pos_as_xyz
1 x,y,z
2 1/2-x,1/2+y,1/2-z
3 -x,-y,-z
4 -1/2+x,-1/2-y,-1/2+z
_cell_length_a 12.8187(2)
_cell_length_b 12.5064(2)
_cell_length_c 13.2012(3)
_cell_angle_alpha 90
_cell_angle_beta 91.670(1)
_cell_angle_gamma 90
_cell_formula_units_Z 4
loop_
_atom_type_symbol
_atom_type_radius_bond
C 0.68
H 0.23
N 0.68
O 0.68
U 1.48
loop_
_atom_site_label
_atom_site_type_symbol
_atom_site_fract_x
_atom_site_fract_y
_atom_site_fract_z
U1 U 1.32310(3) -0.40934(2) -0.34787(2)
U2 U 1.28727(2) -0.05316(2) -0.38771(2)
U3 U 1.24248(3) -0.70044(2) -0.36791(2)
O1 O 1.3992(6) -0.3361(5) -0.4986(5)
O2 O 1.3624(7) -0.1620(6) -0.5165(5)
O3 O 1.2694(6) 0.0453(5) -0.5444(5)
O4 O 1.3037(7) 0.2191(5) -0.5198(5)
O5 O 1.2499(5) -0.5506(4) -0.2750(4)
O6 O 1.3247(6) -0.5575(4) -0.4578(5)
O7 O 1.3483(5) -0.2222(4) -0.2982(4)
O8 O 1.1963(5) -0.3696(5) -0.3913(5)
O9 O 1.4558(5) -0.4364(5) -0.3101(5)
O10 O 1.4127(6) 0.0014(6) -0.3628(5)
O11 O 1.1625(6) -0.1099(5) -0.4214(5)
O12 O 1.3073(5) -0.3860(4) -0.1557(4)
O13 O 1.1197(6) -0.6721(5) -0.4274(5)
O14 O 1.3596(6) -0.7404(5) -0.3069(5)
N1 N 1.4537(6) -0.3628(6) -0.8016(6)
N2 N 1.3928(8) 0.2594(8) -0.8135(6)
C1 C 1.4310(7) -0.3563(7) -0.7021(7)
H1 H 1.42800 -0.41800 -0.66300
C2 C 1.4122(6) -0.2577(7) -0.6588(6)
C3 C 1.4228(7) -0.1667(7) -0.7184(7)
H2 H 1.41590 -0.09940 -0.68950
C4 C 1.4430(9) -0.1756(9) -0.8187(8)
H3 H 1.44540 -0.11500 -0.85940
C5 C 1.4601(9) -0.2768(9) -0.8599(7)
H4 H 1.47580 -0.28380 -0.92790
C6 C 1.3882(7) -0.2519(7) -0.5484(6)
C7 C 1.3689(9) 0.2440(8) -0.7156(7)
H5 H 1.38390 0.29730 -0.66830
C8 C 1.3218(7) 0.1490(7) -0.6838(6)
C9 C 1.3000(7) 0.0713(7) -0.7541(7)
H6 H 1.26800 0.00800 -0.73480
C10 C 1.3257(8) 0.0869(8) -0.8539(7)
H7 H 1.31220 0.03470 -0.90270
C11 C 1.3724(9) 0.1834(9) -0.8792(8)
H8 H 1.39000 0.19430 -0.94620
C12 C 1.2961(7) 0.1369(7) -0.5739(6)
O15 O 1.0242(5) -0.0616(5) 0.4026(5)
U2A U 1.21273(2) -0.55316(2) -0.11229(2)
U3* U 1.24248(3) 0.29956(2) -0.36791(2)
U3A U 1.25752(3) -0.20044(2) -0.13209(2)
O4* O 1.3037(7) -0.7809(5) -0.5198(5)
O5A O 1.2501(5) -0.0506(4) -0.2250(4)
O7A O 1.1517(5) -0.7222(4) -0.2018(4)
O12A O 1.1927(5) 0.1140(4) -0.3443(4)
O12A* O 1.1927(5) -0.8860(4) -0.3443(4)
#END
