
#######################################################################
#
#                 Cambridge Crystallographic Data Centre
#                                CCDC
#
#######################################################################
#
# If this CIF has been generated from an entry in the Cambridge
# Structural Database, then it will include bibliographic, chemical,
# crystal, experimental, refinement or atomic coordinate data resulting
# from the CCDC's data processing and validation procedures.
#
#######################################################################

data_CSD_CIF_UDEDEM
_audit_creation_date 2002-01-16
_audit_creation_method CSD-ConQuest-V1
_database_code_CSD UDEDEM
_database_code_depnum_ccdc_archive 'CCDC 161830'
_chemical_formula_sum 'C108 H280 Co18 N36 O212'
_chemical_formula_moiety
;
(C108 H12 Co8 N36 O78 20-)n,10n(H12 Co1 O6 2+),74n(H2 O1)
;
_journal_coden_Cambridge 179
_journal_volume 40
_journal_year 2001
_journal_page_first 3817
_journal_name_full 'Angew.Chem.,Int.Ed. '
loop_
_publ_author_name
"S.Masaoka"
"S.Furukawa"
"Ho-Chol Chang"
"T.Mizutani"
"S.Kitagawa"
_chemical_name_systematic
;
catena-(hexakis(\m~3~-dipyrazino[2,3-f:2',3'-h]quinoxaline-2,3,6,7,10,11-hexac
arboxylato)-hexaaqua-octa-cobalt decakis(hexa-aqua-cobalt) hydrate)
;
_chemical_name_common
;
catena-(hexakis(mu!3$-hexaazatriphenylenehexacarboxylato)-hexaaqua-octa-cobalt
 decakis(hexa-aqua-cobalt) hydrate)
;
_cell_volume  17652.007
_exptl_crystal_colour 'red'
_exptl_crystal_density_diffrn 1.844
_exptl_crystal_description 'prismatic'
_diffrn_ambient_temperature 298.2
_refine_special_details
;
The O36-038 of the anion were refined over two positions with occupancies 
0.6:0.4. The water molecules ligated to the Co atom were modelled as O atoms 
with occupancy 0.33.
;
#These two values have been output from a single CSD field.
_refine_ls_R_factor_gt 0.0871
_refine_ls_wR_factor_gt 0.0871
_symmetry_cell_setting rhombohedral
_symmetry_space_group_name_H-M 'R -3'
_symmetry_Int_Tables_number 148
loop_
_symmetry_equiv_pos_site_id
_symmetry_equiv_pos_as_xyz
1 x,y,z
2 -y,x-y,z
3 -x+y,-x,z
4 -1/3+x,1/3+y,1/3+z
5 -1/3-y,1/3+x-y,1/3+z
6 -1/3-x+y,1/3-x,1/3+z
7 -1/3+y,1/3-x+y,1/3-z
8 -1/3+x-y,1/3+x,1/3-z
9 1/3+x,-1/3+y,-1/3+z
10 -x,-y,-z
11 y,-x+y,-z
12 x-y,x,-z
13 1/3-x,-1/3-y,-1/3-z
14 1/3+y,-1/3-x+y,-1/3-z
15 1/3+x-y,-1/3+x,-1/3-z
16 1/3-y,-1/3+x-y,-1/3+z
17 1/3-x+y,-1/3-x,-1/3+z
18 -1/3-x,1/3-y,1/3-z
_cell_length_a 22.632(3)
_cell_length_b 22.632(3)
_cell_length_c 39.794(3)
_cell_angle_alpha 90
_cell_angle_beta 90
_cell_angle_gamma 120
_cell_formula_units_Z 3
loop_
_atom_type_symbol
_atom_type_radius_bond
C 0.68
Co 1.39
N 0.68
O 0.68
loop_
_atom_site_label
_atom_site_type_symbol
_atom_site_fract_x
_atom_site_fract_y
_atom_site_fract_z
Co1 Co 0.65605(7) 0.81748(7) 0.47197(3)
Co2 Co 0.66670 0.33330 0.39550(6)
Co3 Co 0.50000 0.50000 0.50000
Co4 Co 0.51995(8) 0.67560(7) 0.02411(3)
Co5 Co 1.00000 0.00000 0.50000
O1 O 0.5934(4) 0.8148(4) 0.4311(2)
O2 O 0.5468(5) 0.7624(5) 0.3831(2)
O3 O 0.6144(6) 0.7084(8) 0.3345(3)
O4 O 0.5231(5) 0.6152(5) 0.3541(2)
O5 O 0.6983(4) 0.4211(4) 0.4240(2)
O6 O 0.7733(5) 0.5005(4) 0.3900(3)
O7 O 0.8515(4) 0.5609(4) 0.5072(2)
O8 O 0.8276(7) 0.4913(4) 0.4641(3)
O9 O 0.8777(4) 0.7512(4) 0.5635(2)
O10 O 0.8544(5) 0.8308(4) 0.5836(2)
O11 O 0.8054(7) 0.9152(6) 0.5363(4)
O12 O 0.7237(7) 0.8415(8) 0.5707(3)
O13 O 0.7537(4) 0.3849(4) 0.3638(2)
O14 O 0.4850(6) 0.4188(4) 0.5309(2)
O15 O 0.5300(8) 0.4630(6) 0.4601(3)
O16 O 0.5993(6) 0.5583(8) 0.5152(3)
O17 O 0.5335(4) 0.6689(4) 0.0746(2)
O18 O 0.4986(5) 0.6798(4) -0.0262(2)
O19 O 0.4126(5) 0.6164(5) 0.0324(2)
O20 O 0.5141(6) 0.5798(5) 0.0173(3)
O21 O 0.6247(6) 0.7284(6) 0.0144(3)
O22 O 0.5226(5) 0.7683(4) 0.0314(2)
O23? O 0.975(2) 0.021(2) 0.545(1)
O24 O 0.894(2) -0.055(2) 0.4898(9)
O25? O 0.912(2) -0.080(2) 0.4818(8)
O26 O 0.66670 0.33330 0.728(1)
O27 O 0.6666(8) 0.2553(8) 0.6378(4)
O28 O 0.166(1) 0.011(1) 0.2033(6)
O29 O 0.385(2) 0.049(2) 0.230(1)
O30 O 0.290(2) 0.158(2) 0.0642(10)
O31 O 0.935(4) 0.024(5) 0.221(2)
O32 O 0.738(2) 0.751(2) -0.0119(10)
O33 O 0.298(2) 0.137(2) 0.9732(8)
O34 O 0.677(1) 0.079(1) 0.0926(7)
O35 O 0.796(1) 0.213(2) 0.0700(7)
O36 O 0.640(1) 0.018(1) 0.7255(7)
O37 O 0.073(1) 0.010(1) 0.1582(6)
O38 O 0.2024(9) 0.0383(10) 0.0292(5)
O39? O 0.714(2) 0.048(2) 0.730(1)
O40? O 0.126(2) 0.032(2) 0.1569(9)
O41? O 0.219(2) 0.075(2) 0.043(1)
N1 N 0.6464(4) 0.7408(4) 0.4418(2)
N2 N 0.6332(5) 0.6358(5) 0.4025(2)
N3 N 0.7028(4) 0.5642(4) 0.4246(2)
N4 N 0.7782(4) 0.6095(4) 0.4839(2)
N5 N 0.7860(4) 0.7100(4) 0.5188(2)
N6 N 0.7196(4) 0.7802(4) 0.4997(2)
C1 C 0.6765(5) 0.7052(5) 0.4515(2)
C2 C 0.6695(5) 0.6511(5) 0.4317(2)
C3 C 0.7039(5) 0.6148(5) 0.4425(2)
C4 C 0.7410(5) 0.6369(5) 0.4720(2)
C5 C 0.7464(5) 0.6913(5) 0.4924(2)
C6 C 0.7142(4) 0.7269(4) 0.4818(2)
C7 C 0.6117(6) 0.7262(5) 0.4137(2)
C8 C 0.6086(6) 0.6748(6) 0.3931(3)
C9 C 0.7395(5) 0.5376(5) 0.4366(3)
C10 C 0.7777(5) 0.5596(5) 0.4657(3)
C11 C 0.7945(5) 0.7639(5) 0.5359(2)
C12 C 0.7601(5) 0.7994(5) 0.5267(2)
C13 C 0.5802(7) 0.7716(6) 0.4078(3)
C14 C 0.5785(8) 0.6612(8) 0.3583(3)
C15 C 0.7378(6) 0.4812(6) 0.4145(3)
C16 C 0.8213(6) 0.5325(6) 0.4802(3)
C17 C 0.8458(6) 0.7840(6) 0.5644(3)
C18 C 0.7656(8) 0.8591(8) 0.5461(4)
O24A O 1.055(2) -0.051(2) 0.4898(9)
O24B O 1.051(2) 0.106(2) 0.4898(9)
O24I O 1.106(2) 0.055(2) 0.5102(9)
O24J O 0.945(2) 0.051(2) 0.5102(9)
O24K O 0.949(2) -0.106(2) 0.5102(9)
O14I O 0.5150(6) 0.5812(4) 0.4691(2)
O15I O 0.4700(8) 0.5370(6) 0.5399(3)
O16I O 0.4007(6) 0.4417(8) 0.4848(3)
O1J O 0.8148(4) 1.2214(4) 0.5689(2)
O2J O 0.7624(5) 1.2156(5) 0.6169(2)
O3J O 0.7084(6) 1.0940(8) 0.6655(3)
O4J O 0.6152(5) 1.0921(5) 0.6459(2)
O5J O 0.4211(4) 0.7228(4) 0.5760(2)
O6J O 0.5005(5) 0.7272(4) 0.6100(3)
O7J O 0.5609(4) 0.7094(4) 0.4928(2)
O8J O 0.4913(7) 0.6637(4) 0.5359(3)
O9J O 0.7512(4) 0.8735(4) 0.4365(2)
O10J O 0.8308(5) 0.9764(4) 0.4164(2)
O11J O 0.9152(7) 1.1098(6) 0.4637(4)
O12J O 0.8415(7) 1.1178(8) 0.4293(3)
N1J N 0.7408(4) 1.0944(4) 0.5582(2)
N2J N 0.6358(5) 1.0026(5) 0.5975(2)
N3J N 0.5642(4) 0.8614(4) 0.5754(2)
N4J N 0.6095(4) 0.8313(4) 0.5161(2)
N5J N 0.7100(4) 0.9240(4) 0.4812(2)
N6J N 0.7802(4) 1.0606(4) 0.5003(2)
C1J C 0.7052(5) 1.0287(5) 0.5485(2)
C2J C 0.6511(5) 0.9816(5) 0.5683(2)
C3J C 0.6148(5) 0.9109(5) 0.5575(2)
C4J C 0.6369(5) 0.8959(5) 0.5280(2)
C5J C 0.6913(5) 0.9449(5) 0.5076(2)
C6J C 0.7269(4) 1.0127(4) 0.5182(2)
C7J C 0.7262(6) 1.1145(5) 0.5863(2)
C8J C 0.6748(6) 1.0662(6) 0.6069(3)
C9J C 0.5376(5) 0.7981(5) 0.5634(3)
C10J C 0.5596(5) 0.7819(5) 0.5343(3)
C11J C 0.7639(5) 0.9694(5) 0.4641(2)
C12J C 0.7994(5) 1.0393(5) 0.4733(2)
C13J C 0.7716(7) 1.1914(6) 0.5922(3)
C14J C 0.6612(8) 1.0827(8) 0.6417(3)
C15J C 0.4812(6) 0.7434(6) 0.5855(3)
C16J C 0.5325(6) 0.7112(6) 0.5198(3)
C17J C 0.7840(6) 0.9382(6) 0.4356(3)
C18J C 0.8591(8) 1.0935(8) 0.4539(4)
Co1J Co 0.81748(7) 1.16143(7) 0.52803(3)
Co1K Co 0.83857(7) 0.65605(7) 0.52803(3)
Co2J Co 0.33330 0.66660 0.60450(6)
O1A O 0.1852(4) -0.2214(4) 0.4311(2)
O2A O 0.2376(5) -0.2156(5) 0.3831(2)
O3A O 0.2916(6) -0.0940(8) 0.3345(3)
O4A O 0.3848(5) -0.0921(5) 0.3541(2)
O5A O 0.5789(4) 0.2772(4) 0.4240(2)
O6A O 0.4995(5) 0.2728(4) 0.3900(3)
O7A O 0.4391(4) 0.2906(4) 0.5072(2)
O8A O 0.5087(7) 0.3363(4) 0.4641(3)
O9A O 0.2488(4) 0.1265(4) 0.5635(2)
O10A O 0.1692(5) 0.0236(4) 0.5836(2)
O11A O 0.0848(7) -0.1098(6) 0.5363(4)
O12A O 0.1585(7) -0.1178(8) 0.5707(3)
N1A N 0.2592(4) -0.0944(4) 0.4418(2)
N2A N 0.3642(5) -0.0026(5) 0.4025(2)
N3A N 0.4358(4) 0.1386(4) 0.4246(2)
N4A N 0.3905(4) 0.1687(4) 0.4839(2)
N5A N 0.2900(4) 0.0760(4) 0.5188(2)
N6A N 0.2198(4) -0.0606(4) 0.4997(2)
C1A C 0.2948(5) -0.0287(5) 0.4515(2)
C2A C 0.3489(5) 0.0184(5) 0.4317(2)
C3A C 0.3852(5) 0.0891(5) 0.4425(2)
C4A C 0.3631(5) 0.1041(5) 0.4720(2)
C5A C 0.3087(5) 0.0551(5) 0.4924(2)
C6A C 0.2731(4) -0.0127(4) 0.4818(2)
C7A C 0.2738(6) -0.1145(5) 0.4137(2)
C8A C 0.3252(6) -0.0662(6) 0.3931(3)
C9A C 0.4624(5) 0.2019(5) 0.4366(3)
C10A C 0.4404(5) 0.2181(5) 0.4657(3)
C11A C 0.2361(5) 0.0306(5) 0.5359(2)
C12A C 0.2006(5) -0.0393(5) 0.5267(2)
C13A C 0.2284(7) -0.1914(6) 0.4078(3)
C14A C 0.3388(8) -0.0827(8) 0.3583(3)
C15A C 0.5188(6) 0.2566(6) 0.4145(3)
C16A C 0.4675(6) 0.2888(6) 0.4802(3)
C17A C 0.2160(6) 0.0618(6) 0.5644(3)
C18A C 0.1409(8) -0.0935(8) 0.5461(4)
O1B O 1.2214(4) 0.4066(4) 0.4311(2)
O2B O 1.2156(5) 0.4532(5) 0.3831(2)
O3B O 1.0940(6) 0.3856(8) 0.3345(3)
O4B O 1.0921(5) 0.4769(5) 0.3541(2)
O5B O 0.7228(4) 0.3017(4) 0.4240(2)
O6B O 0.7272(5) 0.2267(4) 0.3900(3)
O7B O 0.7094(4) 0.1485(4) 0.5072(2)
O8B O 0.6637(7) 0.1724(4) 0.4641(3)
O9B O 0.8735(4) 0.1223(4) 0.5635(2)
O10B O 0.9764(5) 0.1456(4) 0.5836(2)
O11B O 1.1098(7) 0.1946(6) 0.5363(4)
O12B O 1.1178(7) 0.2763(8) 0.5707(3)
N1B N 1.0944(4) 0.3536(4) 0.4418(2)
N2B N 1.0026(5) 0.3668(5) 0.4025(2)
N3B N 0.8614(4) 0.2972(4) 0.4246(2)
N4B N 0.8313(4) 0.2218(4) 0.4839(2)
N5B N 0.9240(4) 0.2140(4) 0.5188(2)
N6B N 1.0606(4) 0.2804(4) 0.4997(2)
C1B C 1.0287(5) 0.3235(5) 0.4515(2)
C2B C 0.9816(5) 0.3305(5) 0.4317(2)
C3B C 0.9109(5) 0.2961(5) 0.4425(2)
C4B C 0.8959(5) 0.2590(5) 0.4720(2)
C5B C 0.9449(5) 0.2536(5) 0.4924(2)
C6B C 1.0127(4) 0.2858(4) 0.4818(2)
C7B C 1.1145(6) 0.3883(5) 0.4137(2)
C8B C 1.0662(6) 0.3914(6) 0.3931(3)
C9B C 0.7981(5) 0.2605(5) 0.4366(3)
C10B C 0.7819(5) 0.2223(5) 0.4657(3)
C11B C 0.9694(5) 0.2055(5) 0.5359(2)
C12B C 1.0393(5) 0.2399(5) 0.5267(2)
C13B C 1.1914(7) 0.4198(6) 0.4078(3)
C14B C 1.0827(8) 0.4215(8) 0.3583(3)
C15B C 0.7434(6) 0.2622(6) 0.4145(3)
C16B C 0.7112(6) 0.1787(6) 0.4802(3)
C17B C 0.9382(6) 0.1542(6) 0.5644(3)
C18B C 1.0935(8) 0.2344(8) 0.5461(4)
O13A O 0.6151(4) 0.3688(4) 0.3638(2)
O13B O 0.6312(4) 0.2463(4) 0.3638(2)
O1B* O 1.2214(4) 1.4066(4) 0.4311(2)
O2B* O 1.2156(5) 1.4532(5) 0.3831(2)
O3B* O 1.0940(6) 1.3856(8) 0.3345(3)
O4B* O 1.0921(5) 1.4769(5) 0.3541(2)
O5B* O 0.7228(4) 1.3017(4) 0.4240(2)
O6B* O 0.7272(5) 1.2267(4) 0.3900(3)
O7B* O 0.7094(4) 1.1485(4) 0.5072(2)
O8B* O 0.6637(7) 1.1724(4) 0.4641(3)
O9B* O 0.8735(4) 1.1223(4) 0.5635(2)
O10B* O 0.9764(5) 1.1456(4) 0.5836(2)
O11B* O 1.1098(7) 1.1946(6) 0.5363(4)
O12B* O 1.1178(7) 1.2763(8) 0.5707(3)
N1B* N 1.0944(4) 1.3536(4) 0.4418(2)
N2B* N 1.0026(5) 1.3668(5) 0.4025(2)
N3B* N 0.8614(4) 1.2972(4) 0.4246(2)
N4B* N 0.8313(4) 1.2218(4) 0.4839(2)
N5B* N 0.9240(4) 1.2140(4) 0.5188(2)
N6B* N 1.0606(4) 1.2804(4) 0.4997(2)
C1B* C 1.0287(5) 1.3235(5) 0.4515(2)
C2B* C 0.9816(5) 1.3305(5) 0.4317(2)
C3B* C 0.9109(5) 1.2961(5) 0.4425(2)
C4B* C 0.8959(5) 1.2590(5) 0.4720(2)
C5B* C 0.9449(5) 1.2536(5) 0.4924(2)
C6B* C 1.0127(4) 1.2858(4) 0.4818(2)
C7B* C 1.1145(6) 1.3883(5) 0.4137(2)
C8B* C 1.0662(6) 1.3914(6) 0.3931(3)
C9B* C 0.7981(5) 1.2605(5) 0.4366(3)
C10B* C 0.7819(5) 1.2223(5) 0.4657(3)
C11B* C 0.9694(5) 1.2055(5) 0.5359(2)
C12B* C 1.0393(5) 1.2399(5) 0.5267(2)
C13B* C 1.1914(7) 1.4198(6) 0.4078(3)
C14B* C 1.0827(8) 1.4215(8) 0.3583(3)
C15B* C 0.7434(6) 1.2622(6) 0.4145(3)
C16B* C 0.7112(6) 1.1787(6) 0.4802(3)
C17B* C 0.9382(6) 1.1542(6) 0.5644(3)
C18B* C 1.0935(8) 1.2344(8) 0.5461(4)
O1K O 0.7786(4) 0.5934(4) 0.5689(2)
O2K O 0.7844(5) 0.5468(5) 0.6169(2)
O3K O 0.9060(6) 0.6144(8) 0.6655(3)
O4K O 0.9079(5) 0.5231(5) 0.6459(2)
O5K O 1.2772(4) 0.6983(4) 0.5760(2)
O6K O 1.2728(5) 0.7733(4) 0.6100(3)
O7K O 1.2906(4) 0.8515(4) 0.4928(2)
O8K O 1.3363(7) 0.8276(4) 0.5359(3)
O9K O 1.1265(4) 0.8777(4) 0.4365(2)
O10K O 1.0236(5) 0.8544(4) 0.4164(2)
O11K O 0.8902(7) 0.8054(6) 0.4637(4)
O12K O 0.8822(7) 0.7237(8) 0.4293(3)
N1K N 0.9056(4) 0.6464(4) 0.5582(2)
N2K N 0.9974(5) 0.6332(5) 0.5975(2)
N3K N 1.1386(4) 0.7028(4) 0.5754(2)
N4K N 1.1687(4) 0.7782(4) 0.5161(2)
N5K N 1.0760(4) 0.7860(4) 0.4812(2)
N6K N 0.9394(4) 0.7196(4) 0.5003(2)
C1K C 0.9713(5) 0.6765(5) 0.5485(2)
C2K C 1.0184(5) 0.6695(5) 0.5683(2)
C3K C 1.0891(5) 0.7039(5) 0.5575(2)
C4K C 1.1041(5) 0.7410(5) 0.5280(2)
C5K C 1.0551(5) 0.7464(5) 0.5076(2)
C6K C 0.9873(4) 0.7142(4) 0.5182(2)
C7K C 0.8855(6) 0.6117(5) 0.5863(2)
C8K C 0.9338(6) 0.6086(6) 0.6069(3)
C9K C 1.2019(5) 0.7395(5) 0.5634(3)
C10K C 1.2181(5) 0.7777(5) 0.5343(3)
C11K C 1.0306(5) 0.7945(5) 0.4641(2)
C12K C 0.9607(5) 0.7601(5) 0.4733(2)
C13K C 0.8086(7) 0.5802(6) 0.5922(3)
C14K C 0.9173(8) 0.5785(8) 0.6417(3)
C15K C 1.2566(6) 0.7378(6) 0.5855(3)
C16K C 1.2888(6) 0.8213(6) 0.5198(3)
C17K C 1.0618(6) 0.8458(6) 0.4356(3)
C18K C 0.9065(8) 0.7656(8) 0.4539(4)
O13J O 0.3849(4) 0.6312(4) 0.6362(2)
O13K O 0.3688(4) 0.7537(4) 0.6362(2)
O13I O 0.2463(4) 0.6151(4) 0.6362(2)
Co1A Co 0.18252(7) -0.16143(7) 0.47197(3)
Co1B Co 1.16143(7) 0.34395(7) 0.47197(3)
Co1B* Co 1.16143(7) 1.34395(7) 0.47197(3)
Co2B Co 0.66660 1.33330 0.39550(6)
Co2K Co 1.33340 0.66670 0.60450(6)
O5I O 0.3017(4) 0.5789(4) 0.5760(2)
O5K* O 0.2772(4) 0.6983(4) 0.5760(2)
Co1I Co 0.34395(7) 0.18252(7) 0.52803(3)
Co1J* Co 0.81748(7) 0.16143(7) 0.52803(3)
Co1A* Co 1.18252(7) 0.83857(7) 0.47197(3)
O7K* O 0.2906(4) -0.1485(4) 0.4928(2)
O9K* O 0.1265(4) -0.1223(4) 0.4365(2)
N4K* N 0.1687(4) -0.2218(4) 0.5161(2)
N5K* N 0.0760(4) -0.2140(4) 0.4812(2)
O7I O 1.1485(4) 0.4391(4) 0.4928(2)
O9I O 1.1223(4) 0.2488(4) 0.4365(2)
N4I N 1.2218(4) 0.3905(4) 0.5161(2)
N5I N 1.2140(4) 0.2900(4) 0.4812(2)
O7I* O 1.1485(4) 1.4391(4) 0.4928(2)
O9I* O 1.1223(4) 1.2488(4) 0.4365(2)
N4I* N 1.2218(4) 1.3905(4) 0.5161(2)
N5I* N 1.2140(4) 1.2900(4) 0.4812(2)
#END
