
#######################################################################
#
#                 Cambridge Crystallographic Data Centre
#                                CCDC
#
#######################################################################
#
# If this CIF has been generated from an entry in the Cambridge
# Structural Database, then it will include bibliographic, chemical,
# crystal, experimental, refinement or atomic coordinate data resulting
# from the CCDC's data processing and validation procedures.
#
#######################################################################

data_CSD_CIF_UDIHOF
_audit_creation_date 2007-09-12
_audit_creation_method CSD-ConQuest-V1
_database_code_CSD UDIHOF
_database_code_depnum_ccdc_archive 'CCDC 650428'
_chemical_formula_sum 'C63 H71 N11 Ni3 O23'
_chemical_formula_moiety
;
(C48 H30 N6 Ni3 O16 2-)n,2n(H3 O1 1+),5n(C3 H7 N1 O1)
;
_journal_coden_Cambridge 9
_journal_volume 46
_journal_year 2007
_journal_page_first 3432
_journal_name_full 'Inorg.Chem. '
loop_
_publ_author_name
"Shenqian Ma"
"Xi-Sen Wang"
"E.S.Manis"
"C.D.Collier"
"Hong-Cai Zhou"
_chemical_name_systematic
;
catena-(bis(Oxonium) 
bis(\m~6~-1,3,5-triazine-2,4,6-tricarboxylato)-(\m~3~-oxo)-triaqua-tri-nickel(
ii) dimethylformamide solvate)
;
_cell_volume   8934.759
_exptl_crystal_colour 'light green'
_exptl_special_details
;
Two protons are necessary for charge balance but their location is not 
specified; they have been placed on the water molecules. 38% void space 
present in the structure presumably represents the solvent formamide and 
water molecules stated to be present in the structure but not represented in 
the cif data
;
_exptl_crystal_description 'block'
_diffrn_ambient_temperature 293
_refine_special_details
;
Solvent molecules may be disordered.

;
#These two values have been output from a single CSD field.
_refine_ls_R_factor_gt 0.0476
_refine_ls_wR_factor_gt 0.0476
_symmetry_cell_setting monoclinic
_symmetry_space_group_name_H-M 'C 2/m'
_symmetry_Int_Tables_number 12
loop_
_symmetry_equiv_pos_site_id
_symmetry_equiv_pos_as_xyz
1 x,y,z
2 1/2+x,1/2+y,z
3 -x,y,-z
4 1/2-x,1/2+y,-z
5 -x,-y,-z
6 -1/2-x,-1/2-y,-z
7 x,-y,z
8 -1/2+x,-1/2-y,z
_cell_length_a 30.175(3)
_cell_length_b 21.108(3)
_cell_length_c 16.762(2)
_cell_angle_alpha 90
_cell_angle_beta 123.188(2)
_cell_angle_gamma 90
_cell_formula_units_Z 4
loop_
_atom_type_symbol
_atom_type_radius_bond
C 0.68
H 0.23
N 0.68
Ni 1.50
O 0.68
loop_
_atom_site_label
_atom_site_type_symbol
_atom_site_fract_x
_atom_site_fract_y
_atom_site_fract_z
Ni1 Ni 0.100347(15) 0.50000 0.02915(3)
Ni2 Ni 0.223086(18) 0.50000 0.04689(3)
Ni3 Ni 0.601310(17) 0.00000 0.82564(3)
O1 O 0.14963(7) 0.43187(10) 0.12656(14)
O2 O 0.55849(14) 0.00000 0.6753(2)
O3 O 0.22715(9) 0.43095(13) 0.13918(16)
O4 O 0.06228(11) 0.50000 0.1045(2)
O5 O 0.54737(7) 0.06862(9) 0.94131(13)
O6 O 0.30810(17) 0.50000 0.1311(3)
O7 O 0.55058(9) 0.07028(13) 0.81197(16)
O8 O 0.14886(8) 0.43214(13) 0.82208(17)
O9 O 0.22728(9) 0.43179(12) 0.96207(15)
O10 O 0.14273(7) 0.50000 -0.03099(13)
N1 N 0.33523(10) 0.27830(12) 0.58743(17)
N2 N 0.33551(10) 0.27920(13) 0.72949(17)
N3 N 0.26692(10) 0.33151(13) 0.59047(18)
C1 C 0.19733(12) 0.41949(14) 0.1680(2)
C2 C 0.22153(11) 0.38826(15) 0.26482(19)
C3 C 0.26934(13) 0.35413(18) 0.3077(2)
H1 H 0.28640 0.34920 0.27580
C4 C 0.29121(13) 0.32761(17) 0.3983(2)
H2 H 0.32180 0.30330 0.42520
C5 C 0.26733(12) 0.33762(15) 0.4476(2)
C6 C 0.21975(14) 0.36988(18) 0.4033(2)
H3 H 0.20270 0.37500 0.43530
C7 C 0.19688(12) 0.39456(17) 0.3132(2)
H4 H 0.16460 0.41560 0.28480
C8 C 0.29119(12) 0.31354(14) 0.5470(2)
C9 C 0.53251(10) 0.08719(14) 0.8602(2)
C10 C 0.26639(13) 0.33640(15) 0.7327(2)
C11 C 0.29411(16) 0.3372(2) 0.8308(2)
H5 H 0.32800 0.32000 0.86640
C12 C 0.42138(14) 0.19558(17) 0.8163(2)
H6 H 0.40550 0.20760 0.84830
C13 C 0.40213(12) 0.21900(16) 0.7264(2)
C14 C 0.42534(15) 0.1990(2) 0.6797(3)
H7 H 0.41230 0.21320 0.61810
C15 C 0.46834(16) 0.1575(2) 0.7236(3)
H8 H 0.48400 0.14490 0.69140
C16 C 0.35499(12) 0.26149(15) 0.6782(2)
C17 C 0.19704(13) 0.42032(16) 0.8749(2)
C18 C 0.22114(13) 0.38866(16) 0.8260(2)
C19 C 0.19318(15) 0.3849(2) 0.7289(3)
H9 H 0.15870 0.40030 0.69340
C20 C 0.27189(15) 0.3636(2) 0.8768(2)
H10 H 0.29140 0.36450 0.94310
C21 C 0.21500(16) 0.3586(3) 0.6816(3)
H11 H 0.19490 0.35610 0.61540
C22 C 0.46355(13) 0.15478(16) 0.8594(2)
H12 H 0.47600 0.14010 0.92050
C23 C 0.48793(10) 0.13496(14) 0.8139(2)
C24 C 0.29020(13) 0.31351(16) 0.6809(2)
Ni1A Ni 0.600347(15) 0.00000 1.02915(3)
Ni1A* Ni 0.600347(15) 1.00000 1.02915(3)
Ni2* Ni 0.223086(18) 0.50000 1.04689(3)
Ni3A Ni 0.101310(17) 0.50000 0.82564(3)
Ni3A* Ni 0.101310(17) 0.50000 -0.17436(3)
Ni3* Ni 0.601310(17) 1.00000 0.82564(3)
O1F O 0.14963(7) 0.56813(10) 0.12656(14)
O3F O 0.22715(9) 0.56905(13) 0.13918(16)
O5F O 0.54737(7) 0.93138(9) 0.94131(13)
O5A O 0.04737(7) 0.56862(9) -0.05869(13)
O5G O 0.04737(7) 0.43138(9) -0.05869(13)
O7F O 0.55058(9) 0.92972(13) 0.81197(16)
O7F* O 0.55058(9) -0.07028(13) 0.81197(16)
O8F O 0.14886(8) 0.56786(13) 0.82208(17)
O8A O 0.64886(8) -0.06786(13) 0.82208(17)
O8G O 0.64886(8) 0.06786(13) 0.82208(17)
O9F O 0.22728(9) 0.56821(12) 0.96207(15)
O9* O 0.22728(9) 0.43179(12) -0.03793(15)
O9F* O 0.22728(9) 0.56821(12) -0.03793(15)
O10A O 0.64273(7) 0.00000 0.96901(13)
N1F N 0.33523(10) 0.72170(12) 0.58743(17)
N2F N 0.33551(10) 0.72080(13) 0.72949(17)
N3F N 0.26692(10) 0.66849(13) 0.59047(18)
C1F C 0.19733(12) 0.58051(14) 0.1680(2)
C2F C 0.22153(11) 0.61174(15) 0.26482(19)
C3F C 0.26934(13) 0.64587(18) 0.3077(2)
H1F H 0.28640 0.65080 0.27580
C4F C 0.29121(13) 0.67239(17) 0.3983(2)
H2F H 0.32180 0.69670 0.42520
C5F C 0.26733(12) 0.66238(15) 0.4476(2)
C6F C 0.21975(14) 0.63012(18) 0.4033(2)
H3F H 0.20270 0.62500 0.43530
C7F C 0.19688(12) 0.60544(17) 0.3132(2)
H4F H 0.16460 0.58440 0.28480
C8F C 0.29119(12) 0.68646(14) 0.5470(2)
C9F C 0.53251(10) 0.91281(14) 0.8602(2)
C10F C 0.26639(13) 0.66360(15) 0.7327(2)
C11F C 0.29411(16) 0.6628(2) 0.8308(2)
H5F H 0.32800 0.68000 0.86640
C12F C 0.42138(14) 0.80442(17) 0.8163(2)
H6F H 0.40550 0.79240 0.84830
C13F C 0.40213(12) 0.78100(16) 0.7264(2)
C14F C 0.42534(15) 0.8010(2) 0.6797(3)
H7F H 0.41230 0.78680 0.61810
C15F C 0.46834(16) 0.8425(2) 0.7236(3)
H8F H 0.48400 0.85510 0.69140
C16F C 0.35499(12) 0.73851(15) 0.6782(2)
C17F C 0.19704(13) 0.57968(16) 0.8749(2)
C18F C 0.22114(13) 0.61134(16) 0.8260(2)
C19F C 0.19318(15) 0.6151(2) 0.7289(3)
H9F H 0.15870 0.59970 0.69340
C20F C 0.27189(15) 0.6364(2) 0.8768(2)
H10F H 0.29140 0.63550 0.94310
C21F C 0.21500(16) 0.6414(3) 0.6816(3)
H11F H 0.19490 0.64390 0.61540
C22F C 0.46355(13) 0.84522(16) 0.8594(2)
H12F H 0.47600 0.85990 0.92050
C23F C 0.48793(10) 0.86504(14) 0.8139(2)
C24F C 0.29020(13) 0.68649(16) 0.6809(2)
#END
