
#######################################################################
#
#                 Cambridge Crystallographic Data Centre
#                                CCDC
#
#######################################################################
#
# If this CIF has been generated from an entry in the Cambridge
# Structural Database, then it will include bibliographic, chemical,
# crystal, experimental, refinement or atomic coordinate data resulting
# from the CCDC's data processing and validation procedures.
#
#######################################################################

data_CSD_CIF_UDISAE
_audit_creation_date 2018-07-27
_audit_creation_method CSD-ConQuest-V1
_database_code_CSD UDISAE
_database_code_depnum_ccdc_archive 'CCDC 1587331'
_chemical_formula_sum 'C156 H120 N18 O92 P2 W18 Zn9'
_chemical_formula_moiety
;
(C52 H40 N6 O10 Zn3 2+)3n,O62 P2 W18 6-
;
_journal_coden_Cambridge 1440
_journal_volume 10
_journal_year 2018
_journal_page_first 13462
_journal_name_full 'ACS Applied Materials and Interfaces '
loop_
_publ_author_name
"Wenlong Sun"
"Bowen An"
"Bo Qi"
"Tao Liu"
"Meng Jin"
"Chunying Duan"
_chemical_name_systematic
;
catena-[tris(tris(\m-4,4'-(1,4-phenylene)dipyridine)-bis(\m-oxalato)-diaqua-tr
i-zinc(ii)) 
bis(\m-phosphato)-hexatriacontakis(\m-oxido)-octadecaoxo-octadeca-tungsten(vi)
]
;
_cell_volume   4829.738
_exptl_crystal_colour 'colorless'
_exptl_crystal_density_diffrn 2.636
_exptl_crystal_description 'block'
_diffrn_ambient_temperature 293
_refine_special_details
;
O12 disordered by symmetry over two configurations with occupancy 0.50; 
O2,O4,W2 disordered by symmetry over two configurations with occupancy 0.50.
;
#These two values have been output from a single CSD field.
_refine_ls_R_factor_gt 0.0666
_refine_ls_wR_factor_gt 0.0666
_symmetry_cell_setting hexagonal
_symmetry_space_group_name_H-M 'P 6/m'
_symmetry_Int_Tables_number 175
loop_
_symmetry_equiv_pos_site_id
_symmetry_equiv_pos_as_xyz
1 x,y,z
2 x-y,x,z
3 -y,x-y,z
4 -x,-y,z
5 -x+y,-x,z
6 y,-x+y,z
7 -x,-y,-z
8 -x+y,-x,-z
9 y,-x+y,-z
10 x,y,-z
11 x-y,x,-z
12 -y,x-y,-z
_cell_length_a 18.834(5)
_cell_length_b 18.834(5)
_cell_length_c 15.722(5)
_cell_angle_alpha 90
_cell_angle_beta 90
_cell_angle_gamma 120
_cell_formula_units_Z 1
loop_
_atom_type_symbol
_atom_type_radius_bond
C 0.68
H 0.23
N 0.68
O 0.68
P 1.05
W 1.62
Zn 1.22
loop_
_atom_site_label
_atom_site_type_symbol
_atom_site_fract_x
_atom_site_fract_y
_atom_site_fract_z
P1 P 0.00000 0.00000 0.8769(4)
W1 W 0.18331(4) -0.00786(4) 0.88148(5)
W2 W 0.05702(8) -0.06319(8) 0.68849(11)
O1 O 0.0925(17) -0.1055(18) 0.6140(19)
O2 O 0.0429(14) -0.0499(14) 0.6485(16)
O3 O 0.1877(13) -0.0096(15) 1.00000
O4 O 0.1495(7) -0.0067(8) 0.7654(8)
O5 O 0.00000 0.00000 0.7730(15)
O6 O 0.2683(8) -0.0134(10) 0.8598(9)
O7 O 0.0939(14) 0.0443(13) 0.9037(14)
O8 O 0.1062(11) -0.1182(10) 0.8821(12)
Zn1 Zn 0.47955(14) 0.19681(13) 0.50000
Zn2 Zn 0.50000 0.50000 0.50000
O9 O 0.4083(8) 0.2555(8) 0.50000
O10 O 0.4181(8) 0.3773(8) 0.50000
O11 O 0.5715(9) 0.3272(8) 0.50000
O12 O 0.362(1) 0.0930(9) 0.50000
O13 O 0.5847(8) 0.4499(8) 0.50000
N1 N 0.4844(8) 0.2002(8) 0.3644(9)
N2 N 0.50000 0.50000 0.6366(11)
C1 C 0.4241(14) 0.2047(17) 0.0441(13)
H1 H 0.38080 0.20380 0.07340
C2 C 0.5503(12) 0.2058(16) 0.0439(12)
H2 H 0.59320 0.20570 0.07300
C3 C 0.50000 0.50000 0.8149(12)
C4 C 0.4165(11) 0.1844(11) 0.3199(12)
H3 H 0.36840 0.17130 0.34880
C5 C 0.4411(9) 0.4373(9) 0.6825(10)
H4 H 0.39920 0.39340 0.65330
C6 C 0.4874(10) 0.2054(9) 0.1853(10)
C7 C 0.5514(10) 0.2172(11) 0.3200(11)
H5 H 0.59900 0.22990 0.34960
C8 C 0.5433(11) 0.3726(11) 0.50000
C9 C 0.4178(11) 0.1875(13) 0.2309(11)
H6 H 0.37060 0.17730 0.20180
C10 C 0.4880(11) 0.206(1) 0.0889(11)
C11 C 0.50000 0.50000 0.9143(15)
C12 C 0.5538(10) 0.2171(11) 0.2319(10)
H7 H 0.60080 0.22490 0.20420
C13 C 0.5544(11) 0.5704(10) 0.9563(11)
H8 H 0.59060 0.61720 0.92610
C14 C 0.4401(10) 0.4354(9) 0.7692(10)
H9 H 0.39880 0.39030 0.79760
C15 C 0.4488(11) 0.3311(11) 0.50000
O7A O 0.0496(14) 0.0939(13) 0.9037(14)
O7B O -0.0443(14) 0.0496(13) 0.9037(14)
O7C O -0.0939(14) -0.0443(13) 0.9037(14)
O7D O -0.0496(14) -0.0939(13) 0.9037(14)
O7E O 0.0443(14) -0.0496(13) 0.9037(14)
W1A W 0.19117(4) 0.18331(4) 0.88148(5)
W2A W 0.12021(8) 0.05702(8) 0.68849(11)
O1A O 0.1980(17) 0.0925(18) 0.6140(19)
O2A O 0.0928(14) 0.0429(14) 0.6485(16)
O3A O 0.1973(13) 0.1877(15) 1.00000
O4A O 0.1562(7) 0.1495(8) 0.7654(8)
O6A O 0.2817(8) 0.2683(10) 0.8598(9)
O8A O 0.2244(11) 0.1062(10) 0.8821(12)
W1B W 0.00786(4) 0.19117(4) 0.88148(5)
W2B W 0.06319(8) 0.12021(8) 0.68849(11)
O1B O 0.1055(17) 0.1980(18) 0.6140(19)
O2B O 0.0499(14) 0.0928(14) 0.6485(16)
O3B O 0.0096(13) 0.1973(15) 1.00000
O4B O 0.0067(7) 0.1562(8) 0.7654(8)
O6B O 0.0134(8) 0.2817(10) 0.8598(9)
O8B O 0.1182(11) 0.2244(10) 0.8821(12)
W1C W -0.18331(4) 0.00786(4) 0.88148(5)
W2C W -0.05702(8) 0.06319(8) 0.68849(11)
O1C O -0.0925(17) 0.1055(18) 0.6140(19)
O2C O -0.0429(14) 0.0499(14) 0.6485(16)
O3C O -0.1877(13) 0.0096(15) 1.00000
O4C O -0.1495(7) 0.0067(8) 0.7654(8)
O6C O -0.2683(8) 0.0134(10) 0.8598(9)
O8C O -0.1062(11) 0.1182(10) 0.8821(12)
W1D W -0.19117(4) -0.18331(4) 0.88148(5)
W2D W -0.12021(8) -0.05702(8) 0.68849(11)
O1D O -0.1980(17) -0.0925(18) 0.6140(19)
O2D O -0.0928(14) -0.0429(14) 0.6485(16)
O3D O -0.1973(13) -0.1877(15) 1.00000
O4D O -0.1562(7) -0.1495(8) 0.7654(8)
O6D O -0.2817(8) -0.2683(10) 0.8598(9)
O8D O -0.2244(11) -0.1062(10) 0.8821(12)
W1E W -0.00786(4) -0.19117(4) 0.88148(5)
W2E W -0.06319(8) -0.12021(8) 0.68849(11)
O1E O -0.1055(17) -0.1980(18) 0.6140(19)
O2E O -0.0499(14) -0.0928(14) 0.6485(16)
O3E O -0.0096(13) -0.1973(15) 1.00000
O4E O -0.0067(7) -0.1562(8) 0.7654(8)
O6E O -0.0134(8) -0.2817(10) 0.8598(9)
O8E O -0.1182(11) -0.2244(10) 0.8821(12)
P1F P 0.00000 0.00000 1.1231(4)
W1F W -0.18331(4) 0.00786(4) 1.11852(5)
W2F W -0.05702(8) 0.06319(8) 1.31151(11)
O1F O -0.0925(17) 0.1055(18) 1.3860(19)
O2F O -0.0429(14) 0.0499(14) 1.3515(16)
O4F O -0.1495(7) 0.0067(8) 1.2346(8)
O5F O 0.00000 0.00000 1.2270(15)
O6F O -0.2683(8) 0.0134(10) 1.1402(9)
O7F O -0.0939(14) -0.0443(13) 1.0963(14)
O8F O -0.1062(11) 0.1182(10) 1.1179(12)
O7G O -0.0496(14) -0.0939(13) 1.0963(14)
O7H O 0.0443(14) -0.0496(13) 1.0963(14)
O7I O 0.0939(14) 0.0443(13) 1.0963(14)
O7J O 0.0496(14) 0.0939(13) 1.0963(14)
O7K O -0.0443(14) 0.0496(13) 1.0963(14)
W1G W -0.19117(4) -0.18331(4) 1.11852(5)
W2G W -0.12021(8) -0.05702(8) 1.31151(11)
O1G O -0.1980(17) -0.0925(18) 1.3860(19)
O2G O -0.0928(14) -0.0429(14) 1.3515(16)
O4G O -0.1562(7) -0.1495(8) 1.2346(8)
O6G O -0.2817(8) -0.2683(10) 1.1402(9)
O8G O -0.2244(11) -0.1062(10) 1.1179(12)
W1H W -0.00786(4) -0.19117(4) 1.11852(5)
W2H W -0.06319(8) -0.12021(8) 1.31151(11)
O1H O -0.1055(17) -0.1980(18) 1.3860(19)
O2H O -0.0499(14) -0.0928(14) 1.3515(16)
O4H O -0.0067(7) -0.1562(8) 1.2346(8)
O6H O -0.0134(8) -0.2817(10) 1.1402(9)
O8H O -0.1182(11) -0.2244(10) 1.1179(12)
W1I W 0.18331(4) -0.00786(4) 1.11852(5)
W2I W 0.05702(8) -0.06319(8) 1.31151(11)
O1I O 0.0925(17) -0.1055(18) 1.3860(19)
O2I O 0.0429(14) -0.0499(14) 1.3515(16)
O4I O 0.1495(7) -0.0067(8) 1.2346(8)
O6I O 0.2683(8) -0.0134(10) 1.1402(9)
O8I O 0.1062(11) -0.1182(10) 1.1179(12)
W1J W 0.19117(4) 0.18331(4) 1.11852(5)
W2J W 0.12021(8) 0.05702(8) 1.31151(11)
O1J O 0.1980(17) 0.0925(18) 1.3860(19)
O2J O 0.0928(14) 0.0429(14) 1.3515(16)
O4J O 0.1562(7) 0.1495(8) 1.2346(8)
O6J O 0.2817(8) 0.2683(10) 1.1402(9)
O8J O 0.2244(11) 0.1062(10) 1.1179(12)
W1K W 0.00786(4) 0.19117(4) 1.11852(5)
W2K W 0.06319(8) 0.12021(8) 1.31151(11)
O1K O 0.1055(17) 0.1980(18) 1.3860(19)
O2K O 0.0499(14) 0.0928(14) 1.3515(16)
O4K O 0.0067(7) 0.1562(8) 1.2346(8)
O6K O 0.0134(8) 0.2817(10) 1.1402(9)
O8K O 0.1182(11) 0.2244(10) 1.1179(12)
N1I N 0.4844(8) 0.2002(8) -0.3644(9)
C1I C 0.4241(14) 0.2047(17) -0.0441(13)
H1I H 0.38080 0.20380 -0.07340
C2I C 0.5503(12) 0.2058(16) -0.0439(12)
H2I H 0.59320 0.20570 -0.07300
C4I C 0.4165(11) 0.1844(11) -0.3199(12)
H3I H 0.36840 0.17130 -0.34880
C6I C 0.4874(10) 0.2054(9) -0.1853(10)
C7I C 0.5514(10) 0.2172(11) -0.3200(11)
H5I H 0.59900 0.22990 -0.34960
C9I C 0.4178(11) 0.1875(13) -0.2309(11)
H6I H 0.37060 0.17730 -0.20180
C10I C 0.4880(11) 0.206(1) -0.0889(11)
C12I C 0.5538(10) 0.2171(11) -0.2319(10)
H7I H 0.60080 0.22490 -0.20420
C5C C 0.5589(9) 0.5627(9) 0.6825(10)
H4C H 0.60080 0.60660 0.65330
C13C C 0.4456(11) 0.4296(10) 0.9563(11)
H8C H 0.40940 0.38280 0.92610
C14C C 0.5599(10) 0.5646(9) 0.7692(10)
H9C H 0.60120 0.60970 0.79760
N2F N 0.50000 0.50000 1.3634(11)
C3F C 0.50000 0.50000 1.1851(12)
C5F C 0.5589(9) 0.5627(9) 1.3175(10)
H4F H 0.60080 0.60660 1.34670
C11F C 0.50000 0.50000 1.0857(15)
C13F C 0.4456(11) 0.4296(10) 1.0437(11)
H8F H 0.40940 0.38280 1.07390
C14F C 0.5599(10) 0.5646(9) 1.2308(10)
H9F H 0.60120 0.60970 1.20240
C5I C 0.4411(9) 0.4373(9) 1.3175(10)
H4I H 0.39920 0.39340 1.34670
C13I C 0.5544(11) 0.5704(10) 1.0437(11)
H8I H 0.59060 0.61720 1.07390
C14I C 0.4401(10) 0.4354(9) 1.2308(10)
H9I H 0.39880 0.39030 1.20240
Zn1B Zn 0.80319(14) 0.28274(13) 0.50000
O9B O 0.7445(8) 0.1528(8) 0.50000
O10B O 0.6227(8) 0.0408(8) 0.50000
O11B O 0.6728(9) 0.2443(8) 0.50000
O12B O 0.907(1) 0.2690(9) 0.50000
O13B O 0.5501(8) 0.1348(8) 0.50000
N1B N 0.7998(8) 0.2842(8) 0.3644(9)
C1B C 0.7953(14) 0.2194(17) 0.0441(13)
H1B H 0.79620 0.17700 0.07340
C2B C 0.7942(12) 0.3445(16) 0.0439(12)
H2B H 0.79430 0.38750 0.07300
C4B C 0.8156(11) 0.2321(11) 0.3199(12)
H3B H 0.82870 0.19710 0.34880
C6B C 0.7946(10) 0.2820(9) 0.1853(10)
C7B C 0.7828(10) 0.3342(11) 0.3200(11)
H5B H 0.77010 0.36910 0.34960
C8B C 0.6274(11) 0.1707(11) 0.50000
C9B C 0.8125(11) 0.2303(13) 0.2309(11)
H6B H 0.82270 0.19330 0.20180
C10B C 0.7940(11) 0.282(1) 0.0889(11)
C12B C 0.7829(10) 0.3367(11) 0.2319(10)
H7B H 0.77510 0.37590 0.20420
C15B C 0.6689(11) 0.1177(11) 0.50000
N1K N 0.7998(8) 0.2842(8) -0.3644(9)
C1K C 0.7953(14) 0.2194(17) -0.0441(13)
H1K H 0.79620 0.17700 -0.07340
C2K C 0.7942(12) 0.3445(16) -0.0439(12)
H2K H 0.79430 0.38750 -0.07300
C4K C 0.8156(11) 0.2321(11) -0.3199(12)
H3K H 0.82870 0.19710 -0.34880
C6K C 0.7946(10) 0.2820(9) -0.1853(10)
C7K C 0.7828(10) 0.3342(11) -0.3200(11)
H5K H 0.77010 0.36910 -0.34960
C9K C 0.8125(11) 0.2303(13) -0.2309(11)
H6K H 0.82270 0.19330 -0.20180
C10K C 0.7940(11) 0.282(1) -0.0889(11)
C12K C 0.7829(10) 0.3367(11) -0.2319(10)
H7K H 0.77510 0.37590 -0.20420
Zn1* Zn 0.47955(14) 0.19681(13) -0.50000
Zn1B* Zn 0.80319(14) 0.28274(13) -0.50000
Zn1D Zn 0.71726(14) 0.52045(13) 0.50000
Zn2* Zn 0.50000 0.50000 1.50000
Zn2B Zn 0.50000 0.00000 0.50000
O10C O 0.5819(8) 0.6227(8) 0.50000
O13C O 0.4153(8) 0.5501(8) 0.50000
O13D O 0.8652(8) 0.4153(8) 0.50000
N1I* N 0.4844(8) 0.2002(8) 0.6356(9)
N1K* N 0.7998(8) 0.2842(8) 0.6356(9)
N2F* N 0.50000 0.50000 0.3634(11)
#END
