
#######################################################################
#
#                 Cambridge Crystallographic Data Centre
#                                CCDC
#
#######################################################################
#
# If this CIF has been generated from an entry in the Cambridge
# Structural Database, then it will include bibliographic, chemical,
# crystal, experimental, refinement or atomic coordinate data resulting
# from the CCDC's data processing and validation procedures.
#
#######################################################################

data_CSD_CIF_UDIWOW
_audit_creation_date 2018-07-27
_audit_creation_method CSD-ConQuest-V1
_database_code_CSD UDIWOW
_database_code_depnum_ccdc_archive 'CCDC 1850271'
_chemical_formula_sum 'C93 H139 Ho2 N12 O35 P3'
_chemical_formula_moiety
;
(C49 H39 Ho2 N3 O27 P3 1-)n,C4 H12 N1 1+,8(C5 H11 N1 O1)
;
_journal_coden_Cambridge 1747
_journal_volume 5
_journal_year 2018
_journal_page_first 2227
_journal_name_full 'Inorg.Chem.Front. '
loop_
_publ_author_name
"Dongjie Bai"
"Yao Wang"
"Minghui He"
"Xiaoxia Gao"
"Yabing He"
_chemical_name_systematic
;
catena-[diethylammonium 
(\m-formato)-(\m-4,4',4'',4''',4'''',4'''''-[1,3,5,2,4,6-triazatriphosphinine-
2,2,4,4,6,6-hexaylhexakis(oxy)]hexakis(3-methoxybenzoato))-aqua-di-holmium 
N,N-diethylformamide solvate]
;
_chemical_name_common
;
ZJNU-63
;
_cell_volume   8937.557
_exptl_crystal_description 'block'
_diffrn_ambient_temperature 296
_refine_special_details
;
Disordered diethylammonium cations and N,N-diethylformamide solvent molecules 
were not modelled and the disordered density was taken into account using the 
SQUEEZE/PLATON procedure.
;
#These two values have been output from a single CSD field.
_refine_ls_R_factor_gt 0.035
_refine_ls_wR_factor_gt 0.035
_symmetry_cell_setting monoclinic
_symmetry_space_group_name_H-M 'P 21/c'
_symmetry_Int_Tables_number 14
loop_
_symmetry_equiv_pos_site_id
_symmetry_equiv_pos_as_xyz
1 x,y,z
2 -x,1/2+y,1/2-z
3 -x,-y,-z
4 x,-1/2-y,-1/2+z
_cell_length_a 14.0524(4)
_cell_length_b 24.5135(7)
_cell_length_c 26.5196(8)
_cell_angle_alpha 90
_cell_angle_beta 101.943(2)
_cell_angle_gamma 90
_cell_formula_units_Z 4
loop_
_atom_type_symbol
_atom_type_radius_bond
C 0.68
H 0.23
Ho 1.92
N 0.68
O 0.68
P 1.05
loop_
_atom_site_label
_atom_site_type_symbol
_atom_site_fract_x
_atom_site_fract_y
_atom_site_fract_z
Ho1 Ho 0.37385(2) 0.03019(2) 0.49263(2)
Ho2 Ho 0.07375(2) 0.06815(2) 0.53686(2)
P1 P 0.50335(6) 0.16624(4) 0.20124(3)
P2 P 0.62066(7) 0.24761(4) 0.25390(3)
P3 P 0.69112(6) 0.17749(4) 0.18803(4)
O1 O 0.47921(16) 0.11427(10) 0.23180(9)
O2 O 0.40518(16) 0.16926(10) 0.15933(10)
O3 O 0.6506(2) 0.24989(11) 0.31473(10)
O4 O 0.6136(2) 0.31196(11) 0.24793(9)
O5 O 0.77753(17) 0.13426(11) 0.19942(10)
O6 O 0.70740(18) 0.19882(11) 0.13401(10)
O7 O 0.1847(2) 0.12498(13) 0.38619(11)
O8 O 0.27841(17) 0.05490(11) 0.41687(9)
O9 O 0.5008(2) 0.02818(10) 0.29028(10)
O10 O 0.34141(16) 0.38736(9) 0.02700(9)
O11 O 0.18943(16) 0.36835(9) 0.03485(9)
O12 O 0.2377(2) 0.2124(2) 0.16282(17)
O13 O 0.47448(15) 0.08614(9) 0.45509(8)
O14 O 0.60979(17) 0.04102(10) 0.44859(10)
O15 O 0.4921(3) 0.26025(17) 0.35507(18)
O16 O 0.52926(16) 0.46462(9) 0.05063(8)
O17 O 0.68414(19) 0.44741(11) 0.05583(11)
O18 O 0.7806(3) 0.3591(2) 0.23528(18)
O19 O 0.81763(16) -0.03472(9) 0.38627(9)
O20 O 0.97009(16) -0.00703(10) 0.39672(9)
O21 O 0.9562(2) 0.1272(2) 0.24466(17)
O22 O 0.95007(18) 0.3646(1) 0.02935(9)
O23 O 1.04364(18) 0.36764(11) 0.10731(10)
O24 O 0.6601(2) 0.24880(16) 0.04791(12)
O25 O 0.21702(15) 0.01461(9) 0.51058(8)
O26 O 0.07851(15) -0.02737(8) 0.50639(8)
O27 O 0.06065(15) 0.08426(9) 0.44689(8)
H1 H 0.01430 0.10640 0.43610
H2 H 0.04820 0.05450 0.43040
N1 N 0.5896(2) 0.14748(12) 0.17518(11)
N2 N 0.5172(2) 0.21985(12) 0.23482(11)
N3 N 0.7073(2) 0.22357(13) 0.23027(12)
C1 C 0.3074(2) 0.09815(15) 0.34186(13)
C2 C 0.3760(2) 0.05885(14) 0.33545(13)
H3 H 0.38470 0.02810 0.35640
C3 C 0.4312(2) 0.06519(14) 0.29817(13)
C4 C 0.4178(2) 0.11141(14) 0.26693(13)
C5 C 0.3494(2) 0.15014(15) 0.27166(14)
H4 H 0.33970 0.18020 0.24980
C6 C 0.2943(2) 0.14397(15) 0.30970(14)
H5 H 0.24900 0.17040 0.31360
C7 C 0.2526(2) 0.09315(16) 0.38481(13)
C8 C 0.5117(5) -0.0187(2) 0.3193(2)
H6 H 0.56190 -0.04080 0.31020
H7 H 0.52910 -0.00940 0.35520
H8 H 0.45160 -0.03860 0.31280
C9 C 0.3131(2) 0.30581(13) 0.06946(13)
C10 C 0.2554(3) 0.28319(15) 0.10068(15)
H9 H 0.19510 0.29840 0.10150
C11 C 0.2877(3) 0.23795(17) 0.13065(16)
C12 C 0.3779(2) 0.21542(14) 0.12873(14)
C13 C 0.4334(3) 0.23625(16) 0.09629(15)
H10 H 0.49220 0.22000 0.09410
C14 C 0.4005(3) 0.28204(16) 0.06669(16)
H11 H 0.43790 0.29660 0.04490
C15 C 0.2789(2) 0.35734(13) 0.04099(12)
C16 C 0.1428(4) 0.2320(3) 0.1616(3)
H12 H 0.11380 0.21160 0.18540
H13 H 0.14580 0.26990 0.17110
H14 H 0.10420 0.22810 0.12740
C17 C 0.5791(2) 0.12594(13) 0.40668(12)
C18 C 0.5177(2) 0.16979(14) 0.39396(14)
H15 H 0.46040 0.17160 0.40620
C19 C 0.5408(3) 0.21139(15) 0.36287(15)
C20 C 0.6266(3) 0.20731(15) 0.34567(13)
C21 C 0.6876(4) 0.1647(2) 0.3575(2)
H16 H 0.74480 0.16320 0.34510
C22 C 0.6642(3) 0.12266(19) 0.38881(19)
H17 H 0.70560 0.09300 0.39730
C23 C 0.5518(2) 0.08071(13) 0.43928(12)
C24 C 0.4105(5) 0.2688(3) 0.3796(3)
H18 H 0.38350 0.30440 0.37090
H19 H 0.36170 0.24160 0.36790
H20 H 0.43200 0.26610 0.41630
C25 C 0.6073(3) 0.40046(13) 0.11432(12)
C26 C 0.6955(4) 0.3871(2) 0.1461(2)
H21 H 0.75320 0.39790 0.13710
C27 C 0.6987(4) 0.3579(3) 0.1912(3)
C28 C 0.6117(3) 0.33868(14) 0.20118(14)
C29 C 0.5282(4) 0.3499(3) 0.1695(2)
H22 H 0.47030 0.33700 0.17690
C30 C 0.5259(4) 0.3808(3) 0.1254(2)
H23 H 0.46660 0.38790 0.10330
C31 C 0.6072(2) 0.43846(12) 0.07055(12)
C32 C 0.8652(5) 0.3912(4) 0.2316(3)
H24 H 0.91280 0.38810 0.26310
H25 H 0.89230 0.37800 0.20350
H26 H 0.84670 0.42870 0.22560
C33 C 0.8523(2) 0.03145(14) 0.32657(13)
C34 C 0.9223(3) 0.0621(2) 0.30891(16)
H27 H 0.98720 0.06000 0.32570
C35 C 0.8953(3) 0.0959(2) 0.26610(16)
C36 C 0.7981(2) 0.10101(15) 0.24319(13)
C37 C 0.7290(3) 0.07116(17) 0.26085(18)
H28 H 0.66380 0.07410 0.24470
C38 C 0.7565(3) 0.03647(15) 0.30308(16)
H29 H 0.70950 0.01670 0.31530
C39 C 0.8816(2) -0.00575(14) 0.37205(12)
C40 C 1.0583(4) 0.1199(3) 0.2667(3)
H30 H 1.09600 0.14330 0.24940
H31 H 1.07060 0.12880 0.30270
H32 H 1.07620 0.08260 0.26260
C41 C 0.9028(2) 0.31038(15) 0.09403(14)
C42 C 0.8142(3) 0.29804(17) 0.06089(15)
H33 H 0.79860 0.31430 0.02850
C43 C 0.7493(3) 0.26175(18) 0.07588(15)
C44 C 0.7763(2) 0.23632(16) 0.12408(14)
C45 C 0.8616(3) 0.24860(17) 0.15744(15)
H34 H 0.87750 0.23200 0.18960
C46 C 0.9243(3) 0.28640(16) 0.14241(15)
H35 H 0.98160 0.29570 0.16520
C47 C 0.9702(2) 0.34971(14) 0.07648(14)
C48 C 0.6257(4) 0.2808(3) 0.00267(18)
H36 H 0.56230 0.26820 -0.01410
H37 H 0.62190 0.31840 0.01220
H38 H 0.66970 0.27710 -0.02040
C49 C 0.1655(2) -0.02745(12) 0.50059(12)
H39 H 0.19150 -0.05870 0.48890
Ho1A Ho 0.62615(2) 0.53019(2) 0.00737(2)
Ho1B Ho 0.62615(2) -0.03019(2) 0.50737(2)
Ho1C Ho 0.37385(2) 0.46981(2) -0.00737(2)
Ho2B Ho -0.07375(2) -0.06815(2) 0.46314(2)
Ho2B* Ho 0.92625(2) -0.06815(2) 0.46314(2)
Ho2C Ho 0.07375(2) 0.43185(2) 0.03686(2)
Ho2C* Ho 1.07375(2) 0.43185(2) 0.03686(2)
O10C O 0.34141(16) 0.11264(9) 0.52700(9)
O11C O 0.18943(16) 0.13165(9) 0.53485(9)
O14B O 0.39021(17) -0.04102(10) 0.55141(10)
O16A O 0.47074(16) -0.03538(9) 0.44937(8)
O16C O 0.52926(16) 0.03538(9) 0.55063(8)
O17A O 0.31586(19) -0.05259(11) 0.44417(11)
O19B O 0.18237(16) 0.03472(9) 0.61373(9)
O20B O 0.02991(16) 0.00703(10) 0.60328(9)
O22C O -0.04993(18) 0.1354(1) 0.52935(9)
O23C O 0.04364(18) 0.13236(11) 0.60731(10)
O26B O -0.07851(15) 0.02737(8) 0.49361(8)
#END
