
#######################################################################
#
#                 Cambridge Crystallographic Data Centre
#                                CCDC
#
#######################################################################
#
# If this CIF has been generated from an entry in the Cambridge
# Structural Database, then it will include bibliographic, chemical,
# crystal, experimental, refinement or atomic coordinate data resulting
# from the CCDC's data processing and validation procedures.
#
#######################################################################

data_CSD_CIF_UDOVUG
_audit_creation_date 2013-07-31
_audit_creation_method CSD-ConQuest-V1
_database_code_CSD UDOVUG
_database_code_depnum_ccdc_archive 'CCDC 928844'
_chemical_formula_sum 'C7 H8 O6.5 P1 Zn1'
_chemical_formula_moiety
;
(C7 H4 O5 P1 Zn1 1-)n,0.5n(H2 O1),n(H3 O1 1+)
;
_journal_coden_Cambridge 1350
_journal_volume 15
_journal_year 2013
_journal_page_first 7056
_journal_name_full 'CrystEngComm '
loop_
_publ_author_name
"Mingli Deng"
"Xiaofeng Liu"
"Qingshu Zheng"
"Zhenxia Chen"
"Changye Fang"
"Bin Yue"
"Heyong He"
_chemical_name_systematic
;
catena-(Oxonium (\m~4~-3-phosphonatobenzoato)-zinc hemihydrate)
;
_cell_volume   6030.015
_exptl_crystal_colour 'colorless'
_exptl_crystal_density_diffrn 1.289
_exptl_crystal_description 'rod'
_diffrn_ambient_temperature 293
#These two values have been output from a single CSD field.
_refine_ls_R_factor_gt 0.0866
_refine_ls_wR_factor_gt 0.0866
_symmetry_cell_setting tetragonal
_symmetry_space_group_name_H-M 'P 4/n n c'
_symmetry_Int_Tables_number 126
loop_
_symmetry_equiv_pos_site_id
_symmetry_equiv_pos_as_xyz
1 x,y,z
2 1/2-x,1/2-y,z
3 1/2-y,x,z
4 y,1/2-x,z
5 1/2-x,y,1/2-z
6 x,1/2-y,1/2-z
7 y,x,1/2-z
8 1/2-y,1/2-x,1/2-z
9 -x,-y,-z
10 -1/2+x,-1/2+y,-z
11 -1/2+y,-x,-z
12 -y,-1/2+x,-z
13 -1/2+x,-y,-1/2+z
14 -x,-1/2+y,-1/2+z
15 -y,-x,-1/2+z
16 -1/2+y,-1/2+x,-1/2+z
_cell_length_a 23.986(6)
_cell_length_b 23.986(6)
_cell_length_c 10.481(4)
_cell_angle_alpha 90
_cell_angle_beta 90
_cell_angle_gamma 90
_cell_formula_units_Z 16
loop_
_atom_type_symbol
_atom_type_radius_bond
C 0.68
H 0.23
O 0.68
P 1.05
Zn 1.22
loop_
_atom_site_label
_atom_site_type_symbol
_atom_site_fract_x
_atom_site_fract_y
_atom_site_fract_z
Zn1 Zn 0.57915(4) 0.02035(4) 0.61049(10)
P1 P 0.51073(10) 0.08499(9) 0.4110(2)
O1 O 0.5520(3) 0.0850(2) 0.5206(6)
O2 O 0.5430(3) 0.0792(3) 0.2875(7)
O3 O 0.4659(3) 0.0428(3) 0.4260(9)
O4 O 0.5652(4) 0.3029(3) 0.4151(12)
O5 O 0.4876(3) 0.3493(3) 0.4360(8)
C1 C 0.4764(3) 0.1520(3) 0.4114(8)
C2 C 0.4191(4) 0.1554(4) 0.4090(12)
H1 H 0.39800 0.12290 0.40520
C3 C 0.3927(5) 0.2062(5) 0.4121(15)
H2 H 0.35400 0.20800 0.40820
C4 C 0.4238(5) 0.2544(4) 0.4211(13)
H3 H 0.40580 0.28860 0.42770
C5 C 0.4805(4) 0.2526(4) 0.4203(8)
C6 C 0.5066(4) 0.2002(3) 0.4161(8)
H4 H 0.54540 0.19830 0.41650
C7 C 0.5142(5) 0.3054(4) 0.4229(11)
O6 O 0.4329(12) 0.0671(12) 0.75000
O7 O 0.6597(17) 0.1263(14) 0.319(3)
Zn1H Zn 0.42085(4) -0.02035(4) 0.38951(10)
Zn1J Zn 0.52035(4) 0.42085(4) 0.38951(10)
Zn1O Zn 0.52035(4) 0.07915(4) 0.11049(10)
O2O O 0.5792(3) 0.0430(3) 0.7875(7)
O3H O 0.5341(3) -0.0428(3) 0.5740(9)
O5K O 0.6507(3) -0.0124(3) 0.5640(8)
#END
