
#######################################################################
#
#                 Cambridge Crystallographic Data Centre
#                                CCDC
#
#######################################################################
#
# If this CIF has been generated from an entry in the Cambridge
# Structural Database, then it will include bibliographic, chemical,
# crystal, experimental, refinement or atomic coordinate data resulting
# from the CCDC's data processing and validation procedures.
#
#######################################################################

data_CSD_CIF_UDUVIB
_audit_creation_date 2018-07-30
_audit_creation_method CSD-ConQuest-V1
_database_code_CSD UDUVIB
_database_code_depnum_ccdc_archive 'CCDC 1582468'
_chemical_formula_sum 'C20 H28 N4 O16 Zn2'
_chemical_formula_moiety
;
(C8 O16 Zn2 4-)n,2(C6 H14 N2 2+)
;
_journal_coden_Cambridge 222
_journal_volume 47
_journal_year 2018
_journal_page_first 11308
_journal_name_full 'Dalton Trans. '
loop_
_publ_author_name
"K.Pasinska"
"A.Piecha-Bisiorek"
"V.Kinzhybalo"
"A.Cizman"
"A.Gagor"
"A.Pietraszko"
_chemical_name_systematic
;
catena-[bis(1,4-diazabicyclo[2.2.2]octane-1,4-diium) 
bis(\m-oxalato)-bis(oxalato)-di-zinc]
;
_cell_volume   1246.415
_exptl_crystal_colour 'colorless'
_exptl_crystal_density_diffrn 1.895
_exptl_special_details
;
polymorph I

;
_exptl_crystal_description 'needle'
_diffrn_ambient_temperature 300
#These two values have been output from a single CSD field.
_refine_ls_R_factor_gt 0.0615
_refine_ls_wR_factor_gt 0.0615
_symmetry_cell_setting monoclinic
_symmetry_space_group_name_H-M 'P 21/n'
_symmetry_Int_Tables_number 14
loop_
_symmetry_equiv_pos_site_id
_symmetry_equiv_pos_as_xyz
1 x,y,z
2 1/2-x,1/2+y,1/2-z
3 -x,-y,-z
4 -1/2+x,-1/2-y,-1/2+z
_cell_length_a 7.638(3)
_cell_length_b 17.163(5)
_cell_length_c 9.524(3)
_cell_angle_alpha 90
_cell_angle_beta 93.32(3)
_cell_angle_gamma 90
_cell_formula_units_Z 2
loop_
_atom_type_symbol
_atom_type_radius_bond
C 0.68
H 0.23
N 0.68
O 0.68
Zn 1.22
loop_
_atom_site_label
_atom_site_type_symbol
_atom_site_fract_x
_atom_site_fract_y
_atom_site_fract_z
Zn1 Zn 0.15007(10) 0.54810(4) 0.76077(7)
O1 O 0.0505(6) 0.4482(2) 0.8504(4)
O2 O -0.0747(5) 0.5675(2) 0.6200(4)
O3 O 0.4162(6) 0.5402(3) 0.8100(4)
O4 O 0.2265(6) 0.6594(2) 0.7058(4)
O5 O -0.0895(6) 0.4096(2) 1.0386(4)
O6 O -0.2025(5) 0.5252(2) 0.4160(4)
O7 O 0.4469(7) 0.7407(3) 0.7530(6)
O8 O 0.6492(6) 0.6192(3) 0.8439(5)
C1 C -0.0784(7) 0.5267(3) 0.5101(6)
C2 C 0.4957(10) 0.6054(5) 0.8080(6)
C3 C 0.3806(10) 0.6746(4) 0.7527(6)
C4 C -0.0088(8) 0.4585(4) 0.9693(6)
C5 C -0.0626(9) 0.7534(4) 0.8998(7)
H1 H -0.01390 0.70480 0.86730
H2 H -0.10660 0.74460 0.99190
C6 C 0.0775(9) 0.8153(4) 0.9089(7)
H3 H 0.08990 0.83580 1.00390
H4 H 0.18910 0.79310 0.88580
C7 C -0.1365(9) 0.9154(4) 0.8492(8)
H5 H -0.17040 0.95640 0.78290
H6 H -0.11900 0.93860 0.94180
C8 C -0.2798(9) 0.8548(4) 0.8502(7)
H7 H -0.31980 0.84900 0.94440
H8 H -0.37870 0.87050 0.78810
C9 C 0.0105(10) 0.8471(4) 0.6640(6)
H9 H 0.11830 0.82130 0.64150
H10 H -0.01280 0.88880 0.59680
C10 C -0.1427(9) 0.7884(4) 0.6572(6)
H11 H -0.23690 0.80730 0.59350
H12 H -0.10350 0.73860 0.62260
N1 N 0.0277(7) 0.8791(3) 0.8088(5)
H13 H 0.12070 0.91850 0.81330
N2 N -0.2063(6) 0.7791(3) 0.8011(5)
H14 H -0.29920 0.73960 0.79830
O1B O -0.0505(6) 0.5518(2) 1.1496(4)
O5B O 0.0895(6) 0.5904(2) 0.9614(4)
C4B C 0.0088(8) 0.5415(4) 1.0307(6)
O2B O 0.0747(5) 0.4325(2) 0.3800(4)
O6B O 0.2025(5) 0.4748(2) 0.5840(4)
C1B C 0.0784(7) 0.4733(3) 0.4899(6)
Zn1B Zn -0.15007(10) 0.45190(4) 0.23923(7)
O3B O -0.4162(6) 0.4598(3) 0.1900(4)
O4B O -0.2265(6) 0.3406(2) 0.2942(4)
O7B O -0.4469(7) 0.2593(3) 0.2470(6)
O8B O -0.6492(6) 0.3808(3) 0.1561(5)
C2B C -0.4957(10) 0.3946(5) 0.1920(6)
C3B C -0.3806(10) 0.3254(4) 0.2473(6)
Zn1B* Zn -0.15007(10) 0.45190(4) 1.23923(7)
O1B* O -0.0505(6) 0.5518(2) 0.1496(4)
O5* O -0.0895(6) 0.4096(2) 0.0386(4)
#END
