
#######################################################################
#
#                 Cambridge Crystallographic Data Centre
#                                CCDC
#
#######################################################################
#
# If this CIF has been generated from an entry in the Cambridge
# Structural Database, then it will include bibliographic, chemical,
# crystal, experimental, refinement or atomic coordinate data resulting
# from the CCDC's data processing and validation procedures.
#
#######################################################################

data_CSD_CIF_UFEWAE
_audit_creation_date 2008-12-11
_audit_creation_method CSD-ConQuest-V1
_database_code_CSD UFEWAE
_database_code_depnum_ccdc_archive 'CCDC 679262'
_chemical_formula_sum 'C36 H36 Cd3 I6 N12'
_chemical_formula_moiety
;
(C36 H36 Cd1 N12 2+)n,n(Cd2 I6 2-)
;
_journal_coden_Cambridge 1350
_journal_volume 10
_journal_year 2008
_journal_page_first 1052
_journal_name_full 'CrystEngComm '
loop_
_publ_author_name
"Guan-Cheng Xu"
"Yu-Jie Ding"
"T.Okamura"
"Yong-Qing Huang"
"Guang-Xiang Liu"
"Wei-Yin Sun"
"N.Ueyama"
_chemical_name_systematic
;
catena-(bis(\m~3~-1,3,5-tris(imidazol-1-ylmethyl)benzene)-cadmium(ii) 
bis(\m~2~-iodo)-tetra-iodo-di-cadmium)
;
_cell_volume   1196.569
_exptl_crystal_colour 'colorless'
_exptl_crystal_density_diffrn 2.408
_exptl_crystal_description 'block'
_diffrn_ambient_temperature 200
#These two values have been output from a single CSD field.
_refine_ls_R_factor_gt 0.0397
_refine_ls_wR_factor_gt 0.0397
_symmetry_cell_setting triclinic
_symmetry_space_group_name_H-M 'P -1'
_symmetry_Int_Tables_number 2
loop_
_symmetry_equiv_pos_site_id
_symmetry_equiv_pos_as_xyz
1 x,y,z
2 -x,-y,-z
_cell_length_a 9.795(5)
_cell_length_b 11.219(6)
_cell_length_c 13.129(6)
_cell_angle_alpha 64.551(16)
_cell_angle_beta 67.682(16)
_cell_angle_gamma 74.765(19)
_cell_formula_units_Z 1
loop_
_atom_type_symbol
_atom_type_radius_bond
C 0.68
H 0.23
Cd 1.69
I 1.40
N 0.68
loop_
_atom_site_label
_atom_site_type_symbol
_atom_site_fract_x
_atom_site_fract_y
_atom_site_fract_z
I1 I 0.82603(3) -0.12519(3) 0.58171(3)
I2 I 0.75285(4) 0.24333(3) 0.66839(3)
I3 I 1.06704(4) -0.14216(4) 0.82048(3)
Cd1 Cd 0.95552(4) 0.02991(4) 0.64238(3)
Cd2 Cd 0.50000 0.50000 0.00000
N1 N 0.5428(4) 0.3205(4) 0.3652(3)
N2 N 0.5431(4) 0.4439(4) 0.1815(3)
N3 N 0.3808(4) -0.0656(4) 0.9256(3)
N4 N 0.4854(4) -0.2736(4) 0.9616(3)
N5 N -0.0428(4) 0.4889(4) 0.7516(3)
N6 N -0.2444(4) 0.4950(4) 0.8994(3)
C1 C 0.3965(5) 0.2270(5) 0.5786(4)
C2 C 0.3903(5) 0.1307(5) 0.6921(4)
H1 H 0.46370 0.05550 0.70150
C3 C 0.2774(5) 0.1453(4) 0.7903(3)
C4 C 0.1694(5) 0.2545(5) 0.7755(4)
H2 H 0.09200 0.26480 0.84290
C5 C 0.1731(5) 0.3487(4) 0.6637(4)
C6 C 0.2876(5) 0.3339(4) 0.5656(3)
H3 H 0.29080 0.39830 0.48870
C7 C 0.5259(5) 0.2053(5) 0.4757(4)
H4 H 0.61880 0.18170 0.49710
H5 H 0.51180 0.12900 0.46310
C8 C 0.5199(5) 0.3272(5) 0.2675(4)
H6 H 0.49070 0.25660 0.26160
C9 C 0.5833(5) 0.5155(5) 0.2265(4)
H7 H 0.60660 0.60440 0.18490
C10 C 0.5847(5) 0.4394(5) 0.3397(4)
H8 H 0.60960 0.46420 0.39060
C11 C 0.2648(5) 0.0479(5) 0.9161(4)
H9 H 0.26820 0.09600 0.96290
H10 H 0.16680 0.01430 0.95180
C12 C 0.3605(5) -0.1930(5) 0.9628(4)
H11 H 0.26620 -0.22200 0.98740
C13 C 0.5927(5) -0.1907(5) 0.9198(4)
H12 H 0.69600 -0.21950 0.90740
C14 C 0.5311(5) -0.0641(5) 0.8992(4)
H13 H 0.58070 0.01130 0.87210
C15 C 0.0544(5) 0.4685(5) 0.6434(4)
H14 H 0.10400 0.54930 0.58890
H15 H -0.00690 0.45640 0.60420
C16 C -0.1871(5) 0.4696(5) 0.8010(4)
H16 H -0.24040 0.44170 0.76940
C17 C -0.1324(5) 0.5306(5) 0.9134(4)
H17 H -0.14110 0.55360 0.97740
C18 C -0.0066(5) 0.5285(5) 0.8226(4)
H18 H 0.08730 0.55010 0.81060
I1A I 1.17397(3) 0.12519(3) 0.41829(3)
I2A I 1.24715(4) -0.24333(3) 0.33161(3)
I3A I 0.93296(4) 0.14216(4) 0.17952(3)
Cd1A Cd 1.04448(4) -0.02991(4) 0.35762(3)
Cd2* Cd 0.50000 -0.50000 1.00000
Cd2** Cd -0.50000 0.50000 1.00000
Cd2*** Cd 0.50000 1.50000 -1.00000
Cd2**** Cd 1.50000 0.50000 -1.00000
N1A N 0.4572(4) 0.6795(4) -0.3652(3)
N2A N 0.4569(4) 0.5561(4) -0.1815(3)
N3A N 0.6192(4) 1.0656(4) -0.9256(3)
N4A N 0.5146(4) 1.2736(4) -0.9616(3)
N4* N 0.4854(4) 0.7264(4) -0.0384(3)
N4A* N 0.5146(4) 0.2736(4) 0.0384(3)
N5A N 1.0428(4) 0.5111(4) -0.7516(3)
N6A N 1.2444(4) 0.5050(4) -0.8994(3)
N6* N 0.7556(4) 0.4950(4) -0.1006(3)
N6A* N 0.2444(4) 0.5050(4) 0.1006(3)
C1A C 0.6035(5) 0.7730(5) -0.5786(4)
C2A C 0.6097(5) 0.8693(5) -0.6921(4)
H1A H 0.53630 0.94450 -0.70150
C3A C 0.7226(5) 0.8547(4) -0.7903(3)
C4A C 0.8306(5) 0.7455(5) -0.7755(4)
H2A H 0.90800 0.73520 -0.84290
C5A C 0.8269(5) 0.6513(4) -0.6637(4)
C6A C 0.7124(5) 0.6661(4) -0.5656(3)
H3A H 0.70920 0.60170 -0.48870
C7A C 0.4741(5) 0.7947(5) -0.4757(4)
H4A H 0.38120 0.81830 -0.49710
H5A H 0.48820 0.87100 -0.46310
C8A C 0.4801(5) 0.6728(5) -0.2675(4)
H6A H 0.50930 0.74340 -0.26160
C9A C 0.4167(5) 0.4845(5) -0.2265(4)
H7A H 0.39340 0.39560 -0.18490
C10A C 0.4153(5) 0.5606(5) -0.3397(4)
H8A H 0.39040 0.53580 -0.39060
C11A C 0.7352(5) 0.9521(5) -0.9161(4)
H9A H 0.73180 0.90400 -0.96290
H10A H 0.83320 0.98570 -0.95180
C12A C 0.6395(5) 1.1930(5) -0.9628(4)
H11A H 0.73380 1.22200 -0.98740
C13A C 0.4073(5) 1.1907(5) -0.9198(4)
H12A H 0.30400 1.21950 -0.90740
C14A C 0.4689(5) 1.0641(5) -0.8992(4)
H13A H 0.41930 0.98870 -0.87210
C15A C 0.9456(5) 0.5315(5) -0.6434(4)
H14A H 0.89600 0.45070 -0.58890
H15A H 1.00690 0.54360 -0.60420
C16A C 1.1871(5) 0.5304(5) -0.8010(4)
H16A H 1.24040 0.55830 -0.76940
C17A C 1.1324(5) 0.4694(5) -0.9134(4)
H17A H 1.14110 0.44640 -0.97740
C18A C 1.0066(5) 0.4715(5) -0.8226(4)
H18A H 0.91270 0.44990 -0.81060
#END
