
#######################################################################
#
#                 Cambridge Crystallographic Data Centre
#                                CCDC
#
#######################################################################
#
# If this CIF has been generated from an entry in the Cambridge
# Structural Database, then it will include bibliographic, chemical,
# crystal, experimental, refinement or atomic coordinate data resulting
# from the CCDC's data processing and validation procedures.
#
#######################################################################

data_CSD_CIF_UFIBET
_audit_creation_date 2018-08-01
_audit_creation_method CSD-ConQuest-V1
_database_code_CSD UFIBET
_database_code_depnum_ccdc_archive 'CCDC 1843345'
_chemical_formula_sum 'C38 H26.5 N2 O12.25 Zn1'
_chemical_formula_moiety
;
(C18 H8 O12 Zn1 2-)n,C20 H18 N2 2+,0.25(H2 O1)
;
_journal_coden_Cambridge 580
_journal_volume 154
_journal_year 2018
_journal_page_first 47
_journal_name_full 'Polyhedron '
loop_
_publ_author_name
"Jia-Hui Gu"
"Wu-Xiang Li"
"Hong-Xi Li"
"Hai-Yan Li"
"Jian-Ping Lang"
_chemical_name_systematic
;
catena-[4,4'-[1,4-phenylenebis(ethene-2,1-diyl)]bis(pyridin-1-ium) 
bis(\m-hydrogen benzene-1,3,5-tricarboxylato)-aqua-zinc(ii) hydrate]
;
_cell_volume   1684.642
_exptl_crystal_colour 'light yellow'
_exptl_crystal_density_diffrn 1.522
_exptl_crystal_description 'block'
_diffrn_ambient_temperature 293
#These two values have been output from a single CSD field.
_refine_ls_R_factor_gt 0.071
_refine_ls_wR_factor_gt 0.071
_symmetry_cell_setting triclinic
_symmetry_space_group_name_H-M 'P -1'
_symmetry_Int_Tables_number 2
loop_
_symmetry_equiv_pos_site_id
_symmetry_equiv_pos_as_xyz
1 x,y,z
2 -x,-y,-z
_cell_length_a 9.0085(4)
_cell_length_b 10.1303(5)
_cell_length_c 19.5199(12)
_cell_angle_alpha 99.891(5)
_cell_angle_beta 98.868(4)
_cell_angle_gamma 101.765(4)
_cell_formula_units_Z 2
loop_
_atom_type_symbol
_atom_type_radius_bond
C 0.68
H 0.23
N 0.68
O 0.68
Zn 1.22
loop_
_atom_site_label
_atom_site_type_symbol
_atom_site_fract_x
_atom_site_fract_y
_atom_site_fract_z
Zn1 Zn 1.06565(4) 0.36142(3) 0.44181(2)
C1 C 0.6203(4) -0.0285(3) 0.58828(16)
H1 H 0.56890 -0.11250 0.59590
C2 C 0.7719(3) -0.0109(3) 0.57632(16)
C3 C 0.5470(3) 0.0795(3) 0.58883(16)
C4 C 0.8466(3) 0.1157(3) 0.56407(16)
H2 H 0.94790 0.12870 0.55700
C5 C 0.6223(3) 0.2054(3) 0.57581(16)
H3 H 0.57280 0.27750 0.57610
C6 C 0.8567(4) -0.1238(3) 0.57475(17)
C7 C 0.3856(4) 0.0667(3) 0.60253(18)
C8 C 0.7717(3) 0.2219(3) 0.56239(16)
C9 C 0.8539(3) 0.3541(3) 0.54554(16)
C10 C 0.9314(4) 0.2939(3) 0.30467(18)
C11 C 0.8092(4) 0.2369(3) 0.23929(18)
C12 C 0.8518(4) 0.2273(4) 0.17298(19)
H4 H 0.95520 0.25490 0.17010
C13 C 0.6551(4) 0.1900(3) 0.24340(18)
H5 H 0.62680 0.19590 0.28750
C14 C 0.5428(4) 0.1342(4) 0.18165(19)
C15 C 0.7397(4) 0.1765(4) 0.11165(19)
C16 C 0.5849(4) 0.1311(4) 0.1160(2)
H6 H 0.50980 0.09860 0.07470
C17 C 0.3769(4) 0.0783(4) 0.1875(2)
C18 C 0.7876(5) 0.1592(4) 0.0412(2)
H7 H 0.224(3) -0.060(5) 0.601(3)
H8 H 0.695(6) 0.086(5) -0.0486(17)
O1 O 0.7760(3) -0.2488(2) 0.56078(13)
O2 O 1.0002(3) -0.0933(3) 0.58558(16)
O3 O 0.3141(3) -0.0630(2) 0.60081(14)
O4 O 0.3274(3) 0.1624(3) 0.6145(2)
O5 O 0.9884(2) 0.3606(2) 0.53184(12)
O6 O 0.7903(3) 0.4537(2) 0.54946(13)
O7 O 0.8880(3) 0.3253(2) 0.36360(12)
O8 O 1.0689(3) 0.3072(4) 0.29943(15)
O9 O 0.9217(4) 0.1803(4) 0.03444(16)
O10 O 0.6707(4) 0.1179(4) -0.01235(15)
O11 O 0.3410(3) 0.0902(4) 0.24579(15)
O12 O 0.2813(3) 0.0174(3) 0.12902(15)
C19 C 0.9803(4) 0.9512(4) 0.2179(2)
H9 H 1.06230 0.99400 0.25550
C20 C 0.8901(5) 0.8737(5) 0.0961(3)
H10 H 0.91070 0.86220 0.05050
C21 C 0.8348(4) 0.9052(4) 0.2307(2)
H11 H 0.81910 0.91640 0.27710
C22 C 0.7105(4) 0.8421(4) 0.1749(2)
C23 C 0.7408(5) 0.8277(5) 0.1060(2)
H12 H 0.66100 0.78730 0.06720
C24 C 0.5574(4) 0.7956(4) 0.1909(2)
H13 H 0.55010 0.81350 0.23850
C25 C 0.4284(4) 0.7308(4) 0.1451(2)
H14 H 0.43430 0.71110 0.09740
C26 C 0.2762(4) 0.6873(4) 0.1636(2)
C27 C 0.2527(5) 0.7194(5) 0.2325(2)
H15 H 0.33550 0.77000 0.26810
C28 C 0.1506(5) 0.6101(6) 0.1132(2)
H16 H 0.16240 0.58550 0.06650
C29 C 0.1108(5) 0.6785(5) 0.2493(2)
H17 H 0.09980 0.70330 0.29600
C30 C 0.0053(5) 0.5674(5) 0.1303(2)
H18 H -0.07740 0.51560 0.09490
C31 C -0.0168(4) 0.6012(4) 0.1990(2)
C32 C -0.1687(4) 0.5574(4) 0.2172(2)
H19 H -0.24970 0.51050 0.17990
C33 C -0.2028(4) 0.5778(4) 0.2818(2)
H20 H -0.12550 0.63270 0.31890
C34 C -0.3507(4) 0.5213(4) 0.2989(2)
C35 C -0.4881(4) 0.4769(4) 0.2482(2)
H21 H -0.48790 0.48750 0.20180
C36 C -0.3599(4) 0.5054(4) 0.3680(2)
H22 H -0.27220 0.53750 0.40380
C37 C -0.4966(5) 0.4431(4) 0.3834(2)
H23 H -0.50050 0.43000 0.42910
C38 C -0.6226(4) 0.4179(5) 0.2665(2)
H24 H -0.71360 0.38920 0.23260
N1 N -0.6245(4) 0.4011(4) 0.33317(19)
H25 H -0.70990 0.36250 0.34370
N2 N 1.0039(4) 0.9342(4) 0.1513(2)
H26 H 1.09550 0.96330 0.14400
O13 O 0.256(2) 0.269(2) 0.0831(11)
Zn1A Zn 0.93435(4) -0.36142(3) 0.55819(2)
Zn1A* Zn 0.93435(4) 0.63858(3) 0.55819(2)
O1A O 1.2240(3) 0.2488(2) 0.43922(13)
O6A O 1.2097(3) 0.5463(2) 0.45054(13)
#END
