
#######################################################################
#
#                 Cambridge Crystallographic Data Centre
#                                CCDC
#
#######################################################################
#
# If this CIF has been generated from an entry in the Cambridge
# Structural Database, then it will include bibliographic, chemical,
# crystal, experimental, refinement or atomic coordinate data resulting
# from the CCDC's data processing and validation procedures.
#
#######################################################################

data_CSD_CIF_UFISUY
_audit_creation_date 2008-12-11
_audit_creation_method CSD-ConQuest-V1
_database_code_CSD UFISUY
_database_code_depnum_ccdc_archive 'CCDC 669725'
_chemical_formula_sum 'C4 H8 Cl2 Fe2 Na2 O13'
_chemical_formula_moiety
;
(Na1 1+)2n,n(C4 Cl2 Fe2 O9 2-),4n(H2 O1)
;
_journal_coden_Cambridge 9
_journal_volume 47
_journal_year 2008
_journal_page_first 3772
_journal_name_full 'Inorg.Chem. '
loop_
_publ_author_name
"D.Armentano"
"T.F.Mastropietro"
"G.De Munno"
"P.Rossi"
"F.Lloret"
"M.Julve"
_chemical_name_systematic
;
catena-(disodium bis(\m~2~-oxalato)-(\m~2~-oxo)-dichloro-di-iron(iii) 
tetrahydrate)
;
_cell_volume   3194.553
_exptl_crystal_colour 'red'
_exptl_special_details
;
magnetic properties

;
_exptl_crystal_description 'prism'
_diffrn_ambient_temperature 293
_refine_special_details
;
The sodium atoms are highly disordered. No model for the water molecules 
could be found.
;
#These two values have been output from a single CSD field.
_refine_ls_R_factor_gt 0.0459
_refine_ls_wR_factor_gt 0.0459
_symmetry_cell_setting orthorhombic
_symmetry_space_group_name_H-M 'F d d 2'
_symmetry_Int_Tables_number 43
loop_
_symmetry_equiv_pos_site_id
_symmetry_equiv_pos_as_xyz
1 x,y,z
2 -x,-y,z
3 1/4-x,1/4+y,1/4+z
4 1/4+x,1/4-y,1/4+z
5 x,1/2+y,1/2+z
6 -x,1/2-y,1/2+z
7 1/4-x,3/4+y,3/4+z
8 1/4+x,3/4-y,3/4+z
9 1/2+x,y,1/2+z
10 1/2-x,-y,1/2+z
11 3/4-x,1/4+y,3/4+z
12 3/4+x,1/4-y,3/4+z
13 1/2+x,1/2+y,z
14 1/2-x,1/2-y,z
15 3/4-x,3/4+y,1/4+z
16 3/4+x,3/4-y,1/4+z
_cell_length_a 14.986(4)
_cell_length_b 23.552(6)
_cell_length_c 9.051(2)
_cell_angle_alpha 90
_cell_angle_beta 90
_cell_angle_gamma 90
_cell_formula_units_Z 8
loop_
_atom_type_symbol
_atom_type_radius_bond
C 0.68
Cl 0.99
Fe 1.34
Na 0.97
O 0.68
loop_
_atom_site_label
_atom_site_type_symbol
_atom_site_fract_x
_atom_site_fract_y
_atom_site_fract_z
Na1 Na 0.0157(17) 0.1626(10) 0.114(4)
Fe1 Fe 0.07179(4) 0.05425(2) 0.69772(6)
Cl1 Cl 0.18147(8) -0.00431(6) 0.5989(2)
O1 O 0.1592(2) 0.12505(14) 0.6401(4)
O2 O 0.2309(2) 0.13005(12) 1.0039(4)
O3 O 0.2645(2) 0.17903(12) 0.7447(4)
O4 O 0.1315(2) 0.07291(13) 0.8961(4)
O5 O 0.00000 0.00000 0.7720(6)
C1 C 0.1882(3) 0.11221(17) 0.8947(5)
C2 C 0.2047(3) 0.14158(17) 0.7453(5)
Na2 Na 0.1022(14) 0.0079(10) 0.229(3)
Na3? Na 0.088(2) 0.0707(14) 0.194(6)
Na4? Na 0.1523(17) -0.0616(9) -0.024(4)
Fe1K Fe -0.17821(4) 0.19575(2) 0.44772(6)
Fe1C Fe 0.32179(4) 0.19575(2) 0.94772(6)
Fe1A Fe -0.07179(4) -0.05425(2) 0.69772(6)
Cl1K Cl -0.06853(8) 0.25431(6) 0.3489(2)
O1K O -0.0908(2) 0.12495(14) 0.3901(4)
O2K O -0.0191(2) 0.11995(12) 0.7539(4)
O2H O -0.2691(2) 0.13005(12) 0.5039(4)
O3K O 0.0145(2) 0.07097(12) 0.4947(4)
O3H O -0.2355(2) 0.17903(12) 0.2447(4)
O4K O -0.1185(2) 0.17709(13) 0.6461(4)
O5J O -0.25000 0.25000 0.5220(6)
C1K C -0.0618(3) 0.13779(17) 0.6447(5)
C2K C -0.0453(3) 0.10842(17) 0.4953(5)
#END
