
#######################################################################
#
#                 Cambridge Crystallographic Data Centre
#                                CCDC
#
#######################################################################
#
# If this CIF has been generated from an entry in the Cambridge
# Structural Database, then it will include bibliographic, chemical,
# crystal, experimental, refinement or atomic coordinate data resulting
# from the CCDC's data processing and validation procedures.
#
#######################################################################

data_CSD_CIF_UFITIN
_audit_creation_date 2008-12-11
_audit_creation_method CSD-ConQuest-V1
_database_code_CSD UFITIN
_database_code_depnum_ccdc_archive 'CCDC 669728'
_chemical_formula_sum 'C16 H36 Cl8 Fe4 N4 O18'
_chemical_formula_moiety
;
(C2 H8 N1 1+)4n,n(C8 Cl8 Fe4 O16 4-),2n(H2 O1)
;
_journal_coden_Cambridge 9
_journal_volume 47
_journal_year 2008
_journal_page_first 3772
_journal_name_full 'Inorg.Chem. '
loop_
_publ_author_name
"D.Armentano"
"T.F.Mastropietro"
"G.De Munno"
"P.Rossi"
"F.Lloret"
"M.Julve"
_chemical_name_systematic
;
catena-(tetrakis(dimethylammonium) 
tetrakis(\m~2~-oxalato)-octachloro-tetra-iron(iii) dihydrate)
;
_cell_volume   1988.200
_exptl_crystal_colour 'yellow'
_exptl_crystal_density_diffrn 1.803
_exptl_special_details
;
antiferromagnetic

;
_exptl_crystal_description 'parallelepiped'
_diffrn_ambient_temperature 293
_refine_special_details
;
The cation N atoms are disordered over two sites with occupancies of 
0.88:0.12 and 0.67:0.33.
;
#These two values have been output from a single CSD field.
_refine_ls_R_factor_gt 0.0699
_refine_ls_wR_factor_gt 0.0699
_symmetry_cell_setting monoclinic
_symmetry_space_group_name_H-M 'P 21/c'
_symmetry_Int_Tables_number 14
loop_
_symmetry_equiv_pos_site_id
_symmetry_equiv_pos_as_xyz
1 x,y,z
2 -x,1/2+y,1/2-z
3 -x,-y,-z
4 x,-1/2-y,-1/2+z
_cell_length_a 10.959(3)
_cell_length_b 13.998(4)
_cell_length_c 13.594(4)
_cell_angle_alpha 90
_cell_angle_beta 107.56(2)
_cell_angle_gamma 90
_cell_formula_units_Z 2
loop_
_atom_type_symbol
_atom_type_radius_bond
C 0.68
Cl 0.99
Fe 1.34
N 0.68
O 0.68
loop_
_atom_site_label
_atom_site_type_symbol
_atom_site_fract_x
_atom_site_fract_y
_atom_site_fract_z
Fe1 Fe 0.72714(8) 0.07908(7) 0.61864(6)
Fe2 Fe 0.73779(8) -0.05770(7) 0.99568(6)
Cl1 Cl 0.92840(17) 0.06935(15) 0.61026(15)
Cl2 Cl 0.6738(2) 0.22654(14) 0.55353(15)
Cl3 Cl 0.7097(2) -0.21235(14) 1.03769(14)
Cl4 Cl 0.93415(16) -0.03391(16) 1.10463(13)
O1 O 0.7486(4) 0.1273(3) 0.7659(3)
O2 O 0.7512(4) -0.0523(3) 0.7012(3)
C1 C 0.7502(6) 0.0618(4) 0.8301(4)
C2 C 0.7576(5) -0.0401(4) 0.7944(5)
O3 O 0.7658(4) -0.1053(3) 0.8603(3)
O4 O 0.7442(4) 0.0733(3) 0.9194(3)
O5 O 0.6515(4) 0.0031(3) 0.4848(3)
C3 C 0.5353(6) -0.0165(4) 0.4612(4)
O6 O 0.4692(4) -0.0569(3) 0.3832(3)
O7 O 0.5395(4) -0.0541(4) 0.8997(3)
C4 C 0.4682(6) -0.0182(5) 0.9439(4)
O8 O 0.3491(4) -0.0065(4) 0.9094(3)
N1 N 0.3970(9) 0.2111(7) 0.6894(8)
C5 C 0.2887(13) 0.1519(9) 0.6965(8)
C6 C 0.4770(11) 0.253(1) 0.7839(9)
N2 N 0.9614(15) 0.1541(11) 0.3518(12)
C7 C 0.9959(11) 0.1969(10) 0.2722(13)
C8 C 0.8146(13) 0.1212(10) 0.3225(9)
O9 O 0.9627(11) 0.2824(8) 0.5078(10)
N3? N 0.323(3) 0.225(3) 0.734(3)
N4? N 0.869(3) 0.1463(19) 0.250(2)
Fe1B Fe 0.27286(8) -0.07908(7) 0.38136(6)
Fe2B Fe 0.26221(8) 0.05770(7) 0.00432(6)
Fe2B* Fe 0.26221(8) 0.05770(7) 1.00432(6)
Cl1B Cl 0.07160(17) -0.06935(15) 0.38974(15)
Cl2B Cl 0.3262(2) -0.22654(14) 0.44647(15)
Cl3B Cl 0.2903(2) 0.21235(14) -0.03769(14)
Cl4B Cl 0.06585(16) 0.03391(16) -0.10463(13)
O1B O 0.2514(4) -0.1273(3) 0.2341(3)
O2B O 0.2488(4) 0.0523(3) 0.2988(3)
C1B C 0.2498(6) -0.0618(4) 0.1699(4)
C2B C 0.2424(5) 0.0401(4) 0.2056(5)
O3B O 0.2342(4) 0.1053(3) 0.1397(3)
O4B O 0.2558(4) -0.0733(3) 0.0806(3)
O5B O 0.3485(4) -0.0031(3) 0.5152(3)
C3B C 0.4647(6) 0.0165(4) 0.5388(4)
O6B O 0.5308(4) 0.0569(3) 0.6168(3)
O7B O 0.4605(4) 0.0541(4) 1.1003(3)
O7B* O 0.4605(4) 0.0541(4) 0.1003(3)
C4B C 0.5318(6) 0.0182(5) 1.0561(4)
O8B O 0.6509(4) 0.0065(4) 1.0906(3)
O8* O 0.3491(4) -0.0065(4) -0.0906(3)
#END
