
#######################################################################
#
#                 Cambridge Crystallographic Data Centre
#                                CCDC
#
#######################################################################
#
# If this CIF has been generated from an entry in the Cambridge
# Structural Database, then it will include bibliographic, chemical,
# crystal, experimental, refinement or atomic coordinate data resulting
# from the CCDC's data processing and validation procedures.
#
#######################################################################

data_CSD_CIF_UFITEJ
_audit_creation_date 2008-12-11
_audit_creation_method CSD-ConQuest-V1
_database_code_CSD UFITEJ
_database_code_depnum_ccdc_archive 'CCDC 669727'
_chemical_formula_sum 'C7 H15 Cl2 Fe2 N1 O11'
_chemical_formula_moiety
;
(C3 H10 N1 1+)n,n(C4 H1 Cl2 Fe2 O9 1-),2n(H2 O1)
;
_journal_coden_Cambridge 9
_journal_volume 47
_journal_year 2008
_journal_page_first 3772
_journal_name_full 'Inorg.Chem. '
loop_
_publ_author_name
"D.Armentano"
"T.F.Mastropietro"
"G.De Munno"
"P.Rossi"
"F.Lloret"
"M.Julve"
_chemical_name_systematic
;
catena-(propylammonium 
bis(\m~2~-oxalato)-(\m~2~-hydroxo)-dichloro-di-iron(iii) dihydrate)
;
_cell_volume   1660.760
_exptl_crystal_colour 'yellow'
_exptl_crystal_density_diffrn 1.887
_exptl_special_details
;
magnetic properties

;
_exptl_crystal_description 'Rhombus'
_diffrn_ambient_temperature 293
#These two values have been output from a single CSD field.
_refine_ls_R_factor_gt 0.0665
_refine_ls_wR_factor_gt 0.0665
_symmetry_cell_setting monoclinic
_symmetry_space_group_name_H-M 'C c'
_symmetry_Int_Tables_number 9
loop_
_symmetry_equiv_pos_site_id
_symmetry_equiv_pos_as_xyz
1 x,y,z
2 x,-y,1/2+z
3 1/2+x,1/2+y,z
4 1/2+x,1/2-y,1/2+z
_cell_length_a 9.6445(19)
_cell_length_b 14.747(3)
_cell_length_c 12.310(2)
_cell_angle_alpha 90
_cell_angle_beta 108.457(5)
_cell_angle_gamma 90
_cell_formula_units_Z 4
loop_
_atom_type_symbol
_atom_type_radius_bond
C 0.68
H 0.23
Cl 0.99
Fe 1.34
N 0.68
O 0.68
loop_
_atom_site_label
_atom_site_type_symbol
_atom_site_fract_x
_atom_site_fract_y
_atom_site_fract_z
Fe1 Fe 0.94516(11) 0.05297(8) 0.33709(8)
Fe2 Fe 0.84090(13) 0.21031(8) 0.10724(9)
Cl1 Cl 0.9656(4) -0.05096(17) 0.2084(2)
Cl2 Cl 0.9947(4) 0.31512(18) 0.2163(2)
O1 O 0.8215(8) 0.1403(5) 0.2337(5)
H1 H 0.73380 0.15070 0.24810
O2 O 0.9672(7) 0.1469(5) 0.4720(5)
O3 O 1.1439(8) 0.1115(5) 0.3495(5)
O4 O 1.1400(9) 0.2342(5) 0.5892(5)
O5 O 1.3098(9) 0.2079(5) 0.4589(6)
O6 O 0.7291(8) -0.1122(5) 0.4885(6)
O7 O 1.0107(7) -0.1455(4) 0.5770(5)
O8 O 1.0590(7) -0.0341(5) 0.4697(5)
O9 O 0.7729(7) -0.0020(5) 0.3787(5)
C1 C 1.0907(10) 0.1842(6) 0.5044(6)
C2 C 1.191(1) 0.1667(6) 0.4312(7)
C3 C 0.8113(10) -0.0630(6) 0.4527(7)
C4 C 0.9733(9) -0.0820(5) 0.5041(6)
O10 O 0.6170(11) 0.2255(7) 0.3215(7)
O11 O 0.7192(12) 0.2043(7) 0.5574(9)
N1 N 0.3436(12) 0.1347(8) 0.2077(9)
H2 H 0.29400 0.12730 0.25700
H3 H 0.28920 0.16570 0.14710
H4 H 0.42560 0.16520 0.24140
C5 C 0.3789(16) 0.0477(9) 0.1715(11)
H5 H 0.28850 0.01490 0.13670
H6 H 0.43450 0.01400 0.23890
C6 C 0.4643(18) 0.0490(13) 0.0883(14)
H7 H 0.55350 0.08330 0.12140
H8 H 0.49160 -0.01260 0.07640
C7 C 0.381(2) 0.0898(15) -0.0256(15)
H9 H 0.44080 0.08910 -0.07480
H10 H 0.35500 0.15120 -0.01480
H11 H 0.29380 0.05510 -0.06000
Fe2C Fe 1.34090(13) 0.28969(8) 0.60724(9)
Fe2A Fe 0.84090(13) -0.21031(8) 0.60724(9)
O4C O 0.6400(9) 0.2658(5) 0.0892(5)
O5C O 0.8098(9) 0.2921(5) -0.0411(6)
O6A O 0.7291(8) 0.1122(5) -0.0115(6)
O7A O 1.0107(7) 0.1455(4) 0.0770(5)
#END
