
#######################################################################
#
#                 Cambridge Crystallographic Data Centre
#                                CCDC
#
#######################################################################
#
# If this CIF has been generated from an entry in the Cambridge
# Structural Database, then it will include bibliographic, chemical,
# crystal, experimental, refinement or atomic coordinate data resulting
# from the CCDC's data processing and validation procedures.
#
#######################################################################

data_CSD_CIF_UFITOT
_audit_creation_date 2008-12-11
_audit_creation_method CSD-ConQuest-V1
_database_code_CSD UFITOT
_database_code_depnum_ccdc_archive 'CCDC 669729'
_chemical_formula_sum 'C10 H24 Cl4 Fe2 N2 O10'
_chemical_formula_moiety
;
(C3 H10 N1 1+)2n,n(C4 Cl4 Fe2 O8 2-),2n(H2 O1)
;
_journal_coden_Cambridge 9
_journal_volume 47
_journal_year 2008
_journal_page_first 3772
_journal_name_full 'Inorg.Chem. '
loop_
_publ_author_name
"D.Armentano"
"T.F.Mastropietro"
"G.De Munno"
"P.Rossi"
"F.Lloret"
"M.Julve"
_chemical_name_systematic
;
catena-(bis(trimethylammonium) bis(\m~2~-oxalato)-tetrachloro-di-iron(iii) 
dihydrate)
;
_cell_volume   1238.074
_exptl_crystal_colour 'yellow'
_exptl_crystal_density_diffrn 1.571
_exptl_special_details
;
antiferromagnetic

;
_exptl_crystal_description 'parallelepiped'
_diffrn_ambient_temperature 293
#These two values have been output from a single CSD field.
_refine_ls_R_factor_gt 0.0513
_refine_ls_wR_factor_gt 0.0513
_symmetry_cell_setting monoclinic
_symmetry_space_group_name_H-M 'P 21/c'
_symmetry_Int_Tables_number 14
loop_
_symmetry_equiv_pos_site_id
_symmetry_equiv_pos_as_xyz
1 x,y,z
2 -x,1/2+y,1/2-z
3 -x,-y,-z
4 x,-1/2-y,-1/2+z
_cell_length_a 8.1335(16)
_cell_length_b 8.5877(17)
_cell_length_c 17.729(4)
_cell_angle_alpha 90
_cell_angle_beta 91.18(3)
_cell_angle_gamma 90
_cell_formula_units_Z 2
loop_
_atom_type_symbol
_atom_type_radius_bond
C 0.68
H 0.23
Cl 0.99
Fe 1.34
N 0.68
O 0.68
loop_
_atom_site_label
_atom_site_type_symbol
_atom_site_fract_x
_atom_site_fract_y
_atom_site_fract_z
Fe1 Fe 0.07550(9) 0.74919(8) 0.08984(4)
Cl1 Cl 0.31618(18) 0.83467(18) 0.13816(9)
Cl2 Cl -0.0363(2) 0.6503(2) 0.19340(9)
O1 O -0.1219(4) 0.6552(4) 0.0236(2)
O2 O -0.1778(4) 0.4491(4) -0.0487(2)
O3 O 0.1311(4) 0.8473(4) -0.0183(2)
O4 O 0.0590(4) 1.0500(4) -0.09012(19)
C1 C -0.0873(6) 0.5298(5) -0.0072(3)
C2 C 0.0556(6) 0.9693(6) -0.0314(3)
N1 N 0.4940(6) 0.7204(5) 0.8610(3)
H1 H 0.42000 0.78790 0.83980
C3 C 0.4220(11) 0.5626(9) 0.8571(5)
H2 H 0.40180 0.53470 0.80520
H3 H 0.32030 0.56110 0.88360
H4 H 0.49710 0.48930 0.87980
C4 C 0.5272(9) 0.7722(9) 0.9431(5)
H5 H 0.57250 0.87540 0.94360
H6 H 0.60380 0.70170 0.96700
H7 H 0.42600 0.77170 0.97010
C5 C 0.6476(9) 0.7312(8) 0.8181(4)
H8 H 0.69110 0.83480 0.82220
H9 H 0.62500 0.70730 0.76610
H10 H 0.72650 0.65840 0.83830
O5 O 0.2819(7) 0.9226(8) 0.8003(3)
H11 H 0.198(4) 0.873(5) 0.769(2)
H12 H 0.224(5) 0.984(5) 0.836(2)
Fe1B Fe -0.07550(9) 0.25081(8) -0.08984(4)
Fe1B* Fe -0.07550(9) 1.25081(8) -0.08984(4)
Cl1B Cl -0.31618(18) 0.16533(18) -0.13816(9)
Cl2B Cl 0.0363(2) 0.3497(2) -0.19340(9)
O1B O 0.1219(4) 0.3448(4) -0.0236(2)
O2B O 0.1778(4) 0.5509(4) 0.0487(2)
O3B O -0.1311(4) 1.1527(4) 0.0183(2)
O3B* O -0.1311(4) 0.1527(4) 0.0183(2)
O4B O -0.0590(4) 0.9500(4) 0.09012(19)
O4* O 0.0590(4) 0.0500(4) -0.09012(19)
C1B C 0.0873(6) 0.4702(5) 0.0072(3)
C2B C -0.0556(6) 1.0307(6) 0.0314(3)
#END
