
#######################################################################
#
#                 Cambridge Crystallographic Data Centre
#                                CCDC
#
#######################################################################
#
# If this CIF has been generated from an entry in the Cambridge
# Structural Database, then it will include bibliographic, chemical,
# crystal, experimental, refinement or atomic coordinate data resulting
# from the CCDC's data processing and validation procedures.
#
#######################################################################

data_CSD_CIF_UFIVAH
_audit_creation_date 2008-12-11
_audit_creation_method CSD-ConQuest-V1
_database_code_CSD UFIVAH
_database_code_depnum_ccdc_archive 'CCDC 634485'
_chemical_formula_sum 'C30 H114 As2 N20 Ni8 O74 W18'
_chemical_formula_moiety
;
(C30 H104 As2 N20 Ni8 O70 W18 2-)n,2n(H3 O1 1+),2n(H2 O1)
;
_journal_coden_Cambridge 119
_journal_volume 885
_journal_year 2008
_journal_page_first 149
_journal_name_full 'J.Mol.Struct. '
loop_
_publ_author_name
"Zhi-Hui Yi"
"Xiao-Bing Cui"
"Xiao Zhang"
"Ji-Qing Xu"
"Guang-Di Yang"
"Yan Chen"
"Tie-Gang Wang"
"Xiao-Yang Yu"
_chemical_name_systematic
;
catena-(dioxonium 
bis(\m~12~-arsenato)-tetrakis(\m~3~-oxo)-tetratetracontakis(\m~2~-oxo)-diaqua-
dodecaoxo-bis(1,2-propylenediamine-N)-octakis(1,2-propyldiamine-N,N')-octa-nic
kel(ii)-octadeca-tungsten(vi) dihydrate)
;
_cell_volume   2751.988
_exptl_crystal_density_diffrn 3.54
_diffrn_ambient_temperature 293
#These two values have been output from a single CSD field.
_refine_ls_R_factor_gt 0.0758
_refine_ls_wR_factor_gt 0.0758
_symmetry_cell_setting triclinic
_symmetry_space_group_name_H-M 'P -1'
_symmetry_Int_Tables_number 2
loop_
_symmetry_equiv_pos_site_id
_symmetry_equiv_pos_as_xyz
1 x,y,z
2 -x,-y,-z
_cell_length_a 13.3055(7)
_cell_length_b 13.8637(7)
_cell_length_c 17.0327(9)
_cell_angle_alpha 68.179(1)
_cell_angle_beta 71.486(1)
_cell_angle_gamma 88.278(1)
_cell_formula_units_Z 1
loop_
_atom_type_symbol
_atom_type_radius_bond
C 0.68
As 1.21
N 0.68
Ni 1.37
O 0.68
W 1.37
loop_
_atom_site_label
_atom_site_type_symbol
_atom_site_fract_x
_atom_site_fract_y
_atom_site_fract_z
As1 As 0.60513(12) 0.64917(11) 0.32252(11)
W1 W 0.78478(5) 0.88777(5) 0.23594(5)
W2 W 0.39405(5) 0.78422(5) 0.40948(5)
W3 W 0.81915(6) 0.52945(6) 0.21264(6)
W4 W 0.75811(5) 0.76555(5) 0.08061(5)
W5 W 0.53188(5) 0.89664(5) 0.18413(5)
W6 W 0.64966(5) 0.77124(5) 0.46093(5)
W7 W 0.36346(6) 0.67048(6) 0.27156(5)
W8 W 0.58736(6) 0.54245(5) 0.16934(5)
W9 W 0.85033(5) 0.65203(5) 0.36340(5)
Ni1 Ni 0.38940(15) 0.50444(14) 0.47835(14)
Ni2 Ni 0.58216(16) 0.39002(15) 0.39221(14)
Ni3 Ni 1.00000 0.50000 0.50000
Ni4 Ni 0.50000 0.50000 0.00000
Ni5 Ni 0.8289(2) 0.9838(2) -0.1487(2)
C1 C 0.751(2) 1.1181(19) -0.0448(18)
C2 C 0.712(2) 0.4791(19) -0.1085(19)
C3 C 0.721(2) 0.5798(19) -0.0960(19)
C4 C 1.088(2) 0.373(2) 0.391(2)
C5 C 0.910(2) 1.191(2) -0.036(2)
C6 C 0.856(3) 1.141(3) -0.083(3)
C7 C 0.937(2) 0.277(2) 0.396(2)
C8 C 0.979(2) 0.369(2) 0.411(2)
C9 C 0.969(5) 0.995(5) -0.330(5)
C10 C 0.901(5) 1.080(4) -0.341(4)
C11 C 0.647(2) 0.159(2) 0.265(2)
C12 C 0.623(3) 0.246(2) 0.290(2)
C13 C 0.642(3) 0.181(3) 0.170(3)
C14 C 1.049(6) 1.044(6) -0.422(5)
C15 C 0.831(4) 0.640(4) -0.156(4)
N1 N 0.9143(12) 0.3864(11) 0.4860(11)
N2 N 1.1248(13) 0.4650(13) 0.4056(12)
N3 N 0.6210(14) 0.6236(13) -0.0811(13)
N4 N 0.3785(13) 0.5866(14) 0.0413(13)
N5 N 0.7050(13) 1.0417(14) -0.0735(14)
N6 N 0.9210(15) 1.0696(14) -0.1155(14)
N7 N 0.951(2) 0.926(2) -0.222(2)
N8 N 0.838(3) 1.102(3) -0.263(3)
N9 N 0.5704(17) 0.0592(15) 0.3279(15)
N10 N 0.6065(14) 0.2466(13) 0.3752(12)
O1 O 0.2525(9) 0.6581(10) 0.2439(10)
O2 O 0.6520(9) 0.9241(9) 0.2173(9)
O3 O 0.5255(9) 0.8164(8) 0.4251(8)
O4 O 0.9683(9) 0.6235(9) 0.3895(8)
O5 O 0.8848(9) 0.8002(9) 0.2773(8)
O6 O 0.7265(9) 0.8941(8) 0.3493(8)
O7 O 0.3557(9) 0.5541(9) 0.3648(7)
O8 O 0.6690(8) 0.6754(8) 0.0685(8)
O9 O 0.8207(10) 0.8498(10) -0.0272(10)
O10 O 0.3869(9) 0.6496(8) 0.4882(8)
O11 O 0.5562(8) 0.5364(8) 0.4100(8)
O12 O 0.7611(8) 0.5431(9) 0.4400(8)
O13 O 0.8688(9) 0.6129(9) 0.2662(8)
O14 O 0.4201(9) 0.8182(9) 0.1842(8)
O15 O 0.7832(9) 0.7227(9) 0.4494(8)
O16 O 0.3072(8) 0.7436(9) 0.3543(8)
O17 O 0.7295(9) 0.4970(9) 0.1542(8)
O18 O 0.4469(9) 0.9070(9) 0.2924(8)
O19 O 0.5780(9) 0.6413(9) 0.5264(7)
O20 O 0.525(1) 1.0174(9) 0.1047(9)
O21 O 0.5085(8) 0.7241(8) 0.3040(8)
O22 O 0.6377(10) 0.825(1) 0.5402(9)
O23 O 0.7394(9) 0.4394(8) 0.3175(8)
O24 O 0.5392(8) 0.4528(8) 0.2808(8)
O25 O 0.9263(10) 0.4643(10) 0.1826(10)
O26 O 0.6285(9) 0.8392(8) 0.1113(8)
O27 O 0.8601(10) 1.0065(10) 0.1772(9)
O28 O 0.3064(10) 0.8453(9) 0.4706(9)
O29 O 0.4723(9) 0.6277(9) 0.1898(8)
O30 O 0.6898(8) 0.7179(8) 0.3409(7)
O31 O 0.8045(9) 0.8299(9) 0.1478(9)
O32 O 0.5485(10) 0.4824(10) 0.1092(9)
O33 O 0.6690(9) 0.6317(8) 0.2290(8)
O34 O 0.8517(8) 0.6668(8) 0.1016(8)
O35 O 0.7167(18) 0.8888(16) -0.1639(16)
O36 O 0.5275(14) 0.7981(12) 0.9854(12)
O37 O 0.355(2) 0.330(2) 0.2946(19)
As1A As 1.39487(12) 0.35083(11) 0.67748(11)
W1A W 1.21522(5) 0.11223(5) 0.76406(5)
W2A W 1.60595(5) 0.21578(5) 0.59052(5)
W2A* W 0.60595(5) 0.21578(5) 0.59052(5)
W3A W 1.18085(6) 0.47055(6) 0.78736(6)
W4A W 1.24189(5) 0.23445(5) 0.91939(5)
W5A W 1.46812(5) 0.10336(5) 0.81587(5)
W6A W 1.35034(5) 0.22876(5) 0.53907(5)
W6A* W 0.35034(5) 0.22876(5) 0.53907(5)
W7A W 1.63654(6) 0.32952(6) 0.72844(5)
W8A W 1.41264(6) 0.45755(5) 0.83066(5)
W8A* W 0.41264(6) 0.45755(5) -0.16934(5)
W9A W 1.14967(5) 0.34797(5) 0.63660(5)
Ni1A Ni 1.61060(15) 0.49556(14) 0.52165(14)
Ni1A* Ni 0.61060(15) 0.49556(14) 0.52165(14)
Ni1* Ni 1.38940(15) 0.50444(14) 0.47835(14)
Ni2A Ni 1.41784(16) 0.60998(15) 0.60779(14)
Ni2A* Ni 0.41784(16) 0.60998(15) 0.60779(14)
Ni5A Ni 1.1711(2) 0.0162(2) 1.1487(2)
C1A C 1.249(2) -0.1181(19) 1.0448(18)
C2A C 0.288(2) 0.5209(19) 0.1085(19)
C3A C 0.279(2) 0.4202(19) 0.0960(19)
C4A C 0.912(2) 0.627(2) 0.609(2)
C5A C 1.090(2) -0.191(2) 1.036(2)
C6A C 1.144(3) -0.141(3) 1.083(3)
C7A C 1.063(2) 0.723(2) 0.604(2)
C8A C 1.021(2) 0.631(2) 0.589(2)
C9A C 1.031(5) 0.005(5) 1.330(5)
C10A C 1.099(5) -0.080(4) 1.341(4)
C11A C 1.353(2) 0.841(2) 0.735(2)
C12A C 1.377(3) 0.754(2) 0.710(2)
C13A C 1.358(3) 0.819(3) 0.830(3)
C14A C 0.951(6) -0.044(6) 1.422(5)
C15A C 0.169(4) 0.360(4) 0.156(4)
N1A N 1.0857(12) 0.6136(11) 0.5140(11)
N2A N 0.8752(13) 0.5350(13) 0.5944(12)
N3A N 0.3790(14) 0.3764(13) 0.0811(13)
N4A N 0.6215(13) 0.4134(14) -0.0413(13)
N5A N 1.2950(13) -0.0417(14) 1.0735(14)
N6A N 1.0790(15) -0.0696(14) 1.1155(14)
N7A N 1.049(2) 0.074(2) 1.222(2)
N8A N 1.162(3) -0.102(3) 1.263(3)
N9A N 1.4296(17) 0.9408(15) 0.6721(15)
N10A N 1.3935(14) 0.7534(13) 0.6248(12)
O1A O 1.7475(9) 0.3419(10) 0.7561(10)
O2A O 1.3480(9) 0.0759(9) 0.7827(9)
O3A O 1.4745(9) 0.1836(8) 0.5749(8)
O4A O 1.0317(9) 0.3765(9) 0.6105(8)
O5A O 1.1152(9) 0.1998(9) 0.7227(8)
O6A O 1.2735(9) 0.1059(8) 0.6507(8)
O7A O 1.6443(9) 0.4459(9) 0.6352(7)
O8A O 1.3310(8) 0.3246(8) 0.9315(8)
O9A O 1.1793(10) 0.1502(10) 1.0272(10)
O10A O 0.6131(9) 0.3504(8) 0.5118(8)
O10A* O 1.6131(9) 0.3504(8) 0.5118(8)
O10* O 1.3869(9) 0.6496(8) 0.4882(8)
O11A O 1.4438(8) 0.4636(8) 0.5900(8)
O11A* O 0.4438(8) 0.4636(8) 0.5900(8)
O11* O 1.5562(8) 0.5364(8) 0.4100(8)
O12A O 1.2389(8) 0.4569(9) 0.5600(8)
O12A* O 0.2389(8) 0.4569(9) 0.5600(8)
O12* O 1.7611(8) 0.5431(9) 0.4400(8)
O13A O 1.1312(9) 0.3871(9) 0.7338(8)
O14A O 1.5799(9) 0.1818(9) 0.8158(8)
O15A O 1.2168(9) 0.2773(9) 0.5506(8)
O16A O 1.6928(8) 0.2564(9) 0.6457(8)
O17A O 1.2705(9) 0.5030(9) 0.8458(8)
O18A O 1.5531(9) 0.0930(9) 0.7076(8)
O19A O 0.4220(9) 0.3587(9) 0.4736(7)
O19A* O 1.4220(9) 0.3587(9) 0.4736(7)
O19* O 1.5780(9) 0.6413(9) 0.5264(7)
O20A O 1.475(1) -0.0174(9) 0.8953(9)
O21A O 1.4915(8) 0.2759(8) 0.6960(8)
O22A O 1.3623(10) 0.175(1) 0.4598(9)
O23A O 1.2606(9) 0.5606(8) 0.6825(8)
O24A O 1.4608(8) 0.5472(8) 0.7192(8)
O25A O 1.0737(10) 0.5357(10) 0.8174(10)
O26A O 1.3715(9) 0.1608(8) 0.8887(8)
O27A O 1.1399(10) -0.0065(10) 0.8228(9)
O28A O 1.6936(10) 0.1547(9) 0.5294(9)
O29A O 1.5277(9) 0.3723(9) 0.8102(8)
O30A O 1.3102(8) 0.2821(8) 0.6591(7)
O31A O 1.1955(9) 0.1701(9) 0.8522(9)
O32A O 0.4515(10) 0.5176(10) -0.1092(9)
O32A* O 1.4515(10) 0.5176(10) 0.8908(9)
O33A O 1.3310(9) 0.3683(8) 0.7710(8)
O34A O 1.1483(8) 0.3332(8) 0.8984(8)
O35A O 1.2833(18) 0.1112(16) 1.1639(16)
#END
