
#######################################################################
#
#                 Cambridge Crystallographic Data Centre
#                                CCDC
#
#######################################################################
#
# If this CIF has been generated from an entry in the Cambridge
# Structural Database, then it will include bibliographic, chemical,
# crystal, experimental, refinement or atomic coordinate data resulting
# from the CCDC's data processing and validation procedures.
#
#######################################################################

data_CSD_CIF_UFOQUE
_audit_creation_date 2018-08-02
_audit_creation_method CSD-ConQuest-V1
_database_code_CSD UFOQUE
_database_code_depnum_ccdc_archive 'CCDC 1859789'
_chemical_formula_sum 'C71 H63 N4 O19 S3 Tb3'
_chemical_formula_moiety
;
(C69 H55 N3 O19 S3 Tb3 1-)n,C2 H8 N1 1+
;
_journal_coden_Cambridge 4
_journal_volume 140
_journal_year 2018
_journal_page_first 8858
_journal_name_full 'J.Am.Chem.Soc. '
loop_
_publ_author_name
"Hao Jiang"
"Jiangtao Jia"
"A.Shkurenko"
"Zhijie Chen"
"K.Adil"
"Y.Belmabkhout"
"L.J.Weselinski"
"A.H.Assen"
"Dong-Xu Xue"
"M.OKeeffe"
"M.Eddaoudi"
_chemical_name_systematic
;
catena-[dimethylammonium 
(\m-1,3,5-tris(4-(4-carboxylatophenyl)phenyl)benzene)-(\m-benzo[1,2-b:3,4-b':6
,5-b'']tristhiophene-2,5,8-tricarboxylato)-tetrakis(\m-hydroxo)-tris(N,N-dimet
hylformamide)-tri-terbium unknown solvate]
;
_chemical_name_common
;
Tb-sph-MOF-2
;
_cell_volume  95202.350
_exptl_crystal_colour 'colorless'
_exptl_crystal_description 'octahedron'
_diffrn_ambient_temperature 100
_diffrn_special_details
;
twin

;
_refine_special_details
;
Disordered dimethylammonium and solvent molecules were not modelled and the 
disordered density was taken into account using the SQUEEZE/PLATON procedure.
;
#These two values have been output from a single CSD field.
_refine_ls_R_factor_gt 0.0744
_refine_ls_wR_factor_gt 0.0744
_symmetry_cell_setting cubic
_symmetry_space_group_name_H-M 'F d -3'
_symmetry_Int_Tables_number 203
loop_
_symmetry_equiv_pos_site_id
_symmetry_equiv_pos_as_xyz
1 x,y,z
2 z,x,y
3 y,z,x
4 1/4-y,1/4-z,x
5 z,1/4-x,1/4-y
6 1/4-y,z,1/4-x
7 1/4-z,1/4-x,y
8 1/4-z,x,1/4-y
9 y,1/4-z,1/4-x
10 1/4-x,1/4-y,z
11 x,1/4-y,1/4-z
12 1/4-x,y,1/4-z
13 x,1/2+y,1/2+z
14 z,1/2+x,1/2+y
15 y,1/2+z,1/2+x
16 1/4-y,3/4-z,1/2+x
17 z,3/4-x,3/4-y
18 1/4-y,1/2+z,3/4-x
19 1/4-z,3/4-x,1/2+y
20 1/4-z,1/2+x,3/4-y
21 y,3/4-z,3/4-x
22 1/4-x,3/4-y,1/2+z
23 x,3/4-y,3/4-z
24 1/4-x,1/2+y,3/4-z
25 1/2+x,y,1/2+z
26 1/2+z,x,1/2+y
27 1/2+y,z,1/2+x
28 3/4-y,1/4-z,1/2+x
29 1/2+z,1/4-x,3/4-y
30 3/4-y,z,3/4-x
31 3/4-z,1/4-x,1/2+y
32 3/4-z,x,3/4-y
33 1/2+y,1/4-z,3/4-x
34 3/4-x,1/4-y,1/2+z
35 1/2+x,1/4-y,3/4-z
36 3/4-x,y,3/4-z
37 1/2+x,1/2+y,z
38 1/2+z,1/2+x,y
39 1/2+y,1/2+z,x
40 3/4-y,3/4-z,x
41 1/2+z,3/4-x,1/4-y
42 3/4-y,1/2+z,1/4-x
43 3/4-z,3/4-x,y
44 3/4-z,1/2+x,1/4-y
45 1/2+y,3/4-z,1/4-x
46 3/4-x,3/4-y,z
47 1/2+x,3/4-y,1/4-z
48 3/4-x,1/2+y,1/4-z
49 -x,-y,-z
50 -z,-x,-y
51 -y,-z,-x
52 -1/4+y,-1/4+z,-x
53 -z,-1/4+x,-1/4+y
54 -1/4+y,-z,-1/4+x
55 -1/4+z,-1/4+x,-y
56 -1/4+z,-x,-1/4+y
57 -y,-1/4+z,-1/4+x
58 -1/4+x,-1/4+y,-z
59 -x,-1/4+y,-1/4+z
60 -1/4+x,-y,-1/4+z
61 -x,-1/2-y,-1/2-z
62 -z,-1/2-x,-1/2-y
63 -y,-1/2-z,-1/2-x
64 -1/4+y,-3/4+z,-1/2-x
65 -z,-3/4+x,-3/4+y
66 -1/4+y,-1/2-z,-3/4+x
67 -1/4+z,-3/4+x,-1/2-y
68 -1/4+z,-1/2-x,-3/4+y
69 -y,-3/4+z,-3/4+x
70 -1/4+x,-3/4+y,-1/2-z
71 -x,-3/4+y,-3/4+z
72 -1/4+x,-1/2-y,-3/4+z
73 -1/2-x,-y,-1/2-z
74 -1/2-z,-x,-1/2-y
75 -1/2-y,-z,-1/2-x
76 -3/4+y,-1/4+z,-1/2-x
77 -1/2-z,-1/4+x,-3/4+y
78 -3/4+y,-z,-3/4+x
79 -3/4+z,-1/4+x,-1/2-y
80 -3/4+z,-x,-3/4+y
81 -1/2-y,-1/4+z,-3/4+x
82 -3/4+x,-1/4+y,-1/2-z
83 -1/2-x,-1/4+y,-3/4+z
84 -3/4+x,-y,-3/4+z
85 -1/2-x,-1/2-y,-z
86 -1/2-z,-1/2-x,-y
87 -1/2-y,-1/2-z,-x
88 -3/4+y,-3/4+z,-x
89 -1/2-z,-3/4+x,-1/4+y
90 -3/4+y,-1/2-z,-1/4+x
91 -3/4+z,-3/4+x,-y
92 -3/4+z,-1/2-x,-1/4+y
93 -1/2-y,-3/4+z,-1/4+x
94 -3/4+x,-3/4+y,-z
95 -1/2-x,-3/4+y,-1/4+z
96 -3/4+x,-1/2-y,-1/4+z
_cell_length_a 45.6614(5)
_cell_length_b 45.6614(5)
_cell_length_c 45.6614(5)
_cell_angle_alpha 90
_cell_angle_beta 90
_cell_angle_gamma 90
_cell_formula_units_Z 32
loop_
_atom_type_symbol
_atom_type_radius_bond
C 0.68
H 0.23
N 0.68
O 0.68
S 1.02
Tb 1.94
loop_
_atom_site_label
_atom_site_type_symbol
_atom_site_fract_x
_atom_site_fract_y
_atom_site_fract_z
Tb1 Tb 0.45392(2) 0.22762(2) 0.28352(2)
O1 O 0.47574(17) 0.27426(17) 0.27426(17)
H1 H 0.46470 0.28530 0.28530
O2 O 0.45483(11) 0.24731(12) 0.23574(12)
H2 H 0.43660 0.24630 0.23040
O3 O 0.4171(2) 0.2593(2) 0.27991(18)
O4 O 0.41945(14) 0.29733(13) 0.24823(14)
C1 C 0.40916(19) 0.2845(2) 0.26966(19)
C2 C 0.3842(2) 0.2969(2) 0.2850(2)
C3 C 0.3716(2) 0.2871(2) 0.3100(2)
H3 H 0.37830 0.27050 0.32050
C4 C 0.3476(2) 0.3043(2) 0.3188(2)
C5 C 0.3422(2) 0.3278(2) 0.3003(2)
S1 S 0.36774(5) 0.32891(5) 0.27180(5)
O5 O 0.42284(17) 0.19752(18) 0.25874(18)
O6 O 0.43565(12) 0.18739(12) 0.21150(14)
C6 C 0.41925(19) 0.1847(2) 0.2333(3)
C7 C 0.39309(13) 0.16491(15) 0.23104(15)
C8 C 0.37208(16) 0.16522(17) 0.25307(15)
H4 H 0.37370 0.17870 0.26880
C9 C 0.34866(15) 0.14580(18) 0.25204(15)
H5 H 0.33430 0.14600 0.26710
C10 C 0.34625(14) 0.12607(16) 0.22897(16)
C11 C 0.36726(16) 0.12577(17) 0.20695(15)
H6 H 0.36560 0.11230 0.19120
C12 C 0.39068(15) 0.14519(17) 0.20798(15)
H7 H 0.40500 0.14500 0.19290
C13 C 0.32033(14) 0.10533(16) 0.22772(14)
C14 C 0.30882(15) 0.09457(18) 0.25377(11)
H8 H 0.31710 0.10040 0.27200
C15 C 0.28520(17) 0.07537(17) 0.25319(11)
H9 H 0.27730 0.06800 0.27100
C16 C 0.27310(14) 0.06692(16) 0.22657(13)
C17 C 0.28462(15) 0.07767(18) 0.20052(11)
H10 H 0.27630 0.07190 0.18230
C18 C 0.30823(16) 0.09687(17) 0.20109(11)
H11 H 0.31610 0.10420 0.18330
C19 C 0.2487(2) 0.0444(2) 0.2261(3)
C20 C 0.2268(3) 0.0452(2) 0.2474(2)
H12 H 0.22650 0.06080 0.26130
O7 O 0.4050(4) 0.2117(4) 0.3115(4)
C21 C 0.3889(5) 0.2007(4) 0.3301(5)
H13 H 0.39410 0.20790 0.34890
N1 N 0.3667(4) 0.1821(3) 0.3327(3)
C22 C 0.3370(4) 0.1921(7) 0.3358(8)
H14 H 0.33580 0.20610 0.35210
H15 H 0.32420 0.17530 0.34000
H16 H 0.33070 0.20160 0.31770
C23 C 0.3682(6) 0.1505(4) 0.3333(7)
H17 H 0.37880 0.14350 0.31590
H18 H 0.34840 0.14240 0.33330
H19 H 0.37860 0.14410 0.35100
C24 C 0.3680(11) 0.2080(14) 0.1859(16)
H20 H 0.37190 0.21900 0.16780
H21 H 0.35570 0.19110 0.18150
H22 H 0.38660 0.20140 0.19430
N2 N 0.3533(6) 0.2268(7) 0.2065(8)
H23 H 0.34790 0.21570 0.22220
H24 H 0.33660 0.23350 0.19800
C25 C 0.3698(9) 0.2516(9) 0.217(1)
H25 H 0.38920 0.24520 0.22340
H26 H 0.35940 0.26070 0.23350
H27 H 0.37190 0.26600 0.20110
O3A O 0.27991(20) 0.4171(2) 0.25930(18)
O4A O 0.24823(14) 0.41945(13) 0.29733(14)
C1A C 0.26966(19) 0.40916(20) 0.28450(19)
C2A C 0.2850(2) 0.3842(2) 0.2969(2)
C3A C 0.3100(2) 0.3716(2) 0.2871(2)
H3A H 0.32050 0.37830 0.27050
C4A C 0.3188(2) 0.3476(2) 0.3043(2)
C5A C 0.3003(2) 0.3422(2) 0.3278(2)
S1A S 0.27180(5) 0.36774(5) 0.32891(5)
O3B O 0.2593(2) 0.27991(20) 0.41710(18)
O4B O 0.29733(14) 0.24823(13) 0.41945(14)
C1B C 0.28450(19) 0.26966(20) 0.40916(19)
C2B C 0.2969(2) 0.2850(2) 0.3842(2)
C3B C 0.2871(2) 0.3100(2) 0.3716(2)
H3B H 0.27050 0.32050 0.37830
C4B C 0.3043(2) 0.3188(2) 0.3476(2)
C5B C 0.3278(2) 0.3003(2) 0.3422(2)
S1B S 0.32891(5) 0.27180(5) 0.36774(5)
O5C O 0.05248(17) -0.00874(18) 0.42284(18)
O6C O 0.06261(12) 0.03850(12) 0.43565(14)
C6C C 0.06530(19) 0.0167(2) 0.41925(30)
C7C C 0.08509(13) 0.01896(15) 0.39309(15)
C8C C 0.08478(16) -0.00307(17) 0.37208(15)
H4C H 0.07130 -0.01880 0.37370
C9C C 0.10420(15) -0.00204(18) 0.34866(15)
H5C H 0.10400 -0.01710 0.33430
C10C C 0.12393(14) 0.02103(16) 0.34625(16)
C11C C 0.12423(16) 0.04305(17) 0.36726(15)
H6C H 0.13770 0.05880 0.36560
C12C C 0.10481(15) 0.04202(17) 0.39068(15)
H7C H 0.10500 0.05710 0.40500
C13C C 0.14467(14) 0.02228(16) 0.32033(14)
C14C C 0.15543(15) -0.00377(18) 0.30882(11)
H8C H 0.14960 -0.02200 0.31710
C15C C 0.17463(17) -0.00319(17) 0.28520(11)
H9C H 0.18200 -0.02100 0.27730
C16C C 0.18308(14) 0.02343(16) 0.27310(13)
C17C C 0.17233(15) 0.04948(18) 0.28462(11)
H10C H 0.17810 0.06770 0.27630
C18C C 0.15313(16) 0.04891(17) 0.30823(11)
H11C H 0.14580 0.06670 0.31610
C19C C 0.2056(2) 0.0239(2) 0.2487(3)
C20C C 0.2048(3) 0.0026(2) 0.2268(2)
H12C H 0.18920 -0.01130 0.22650
O5D O 0.25874(17) -0.17284(18) 0.05248(18)
O6D O 0.21150(12) -0.18565(12) 0.06261(14)
C6D C 0.23330(19) -0.16925(20) 0.0653(3)
C7D C 0.23104(13) -0.14309(15) 0.08509(15)
C8D C 0.25307(16) -0.12208(17) 0.08478(15)
H4D H 0.26880 -0.12370 0.07130
C9D C 0.25204(15) -0.09866(18) 0.10420(15)
H5D H 0.26710 -0.08430 0.10400
C10D C 0.22897(14) -0.09625(16) 0.12393(16)
C11D C 0.20695(16) -0.11726(17) 0.12423(15)
H6D H 0.19120 -0.11560 0.13770
C12D C 0.20798(15) -0.14068(17) 0.10481(15)
H7D H 0.19290 -0.15500 0.10500
C13D C 0.22772(14) -0.07033(16) 0.14467(14)
C14D C 0.25377(15) -0.05882(18) 0.15543(11)
H8D H 0.27200 -0.06710 0.14960
C15D C 0.25319(17) -0.03520(17) 0.17463(11)
H9D H 0.27100 -0.02730 0.18200
C16D C 0.22657(14) -0.02310(16) 0.18308(13)
C17D C 0.20052(15) -0.03462(18) 0.17233(11)
H10D H 0.18230 -0.02630 0.17810
C18D C 0.20109(16) -0.05823(17) 0.15313(11)
H11D H 0.18330 -0.06610 0.14580
C19D C 0.2261(2) 0.0013(2) 0.2056(3)
C20D C 0.2474(3) 0.0232(2) 0.2048(2)
H12D H 0.26130 0.02350 0.18920
Tb1A Tb 0.28352(2) 0.45392(2) 0.22762(2)
O2A O 0.23574(11) 0.45483(12) 0.24731(12)
H2A H 0.23040 0.43660 0.24630
O7A O 0.3115(4) 0.4050(4) 0.2117(4)
C21A C 0.3301(5) 0.3889(4) 0.2007(5)
H13A H 0.34890 0.39410 0.20790
N1A N 0.3327(4) 0.3667(3) 0.1821(3)
C22A C 0.3358(4) 0.3370(7) 0.1921(8)
H14A H 0.35210 0.33580 0.20610
H15A H 0.34000 0.32420 0.17530
H16A H 0.31770 0.33070 0.20160
C23A C 0.3333(6) 0.3682(4) 0.1505(7)
H17A H 0.31590 0.37880 0.14350
H18A H 0.33330 0.34840 0.14240
H19A H 0.35100 0.37860 0.14410
Tb1B Tb 0.22762(2) 0.28352(2) 0.45392(2)
O2B O 0.24731(11) 0.23574(12) 0.45483(12)
H2B H 0.24630 0.23040 0.43660
O7B O 0.2117(4) 0.3115(4) 0.4050(4)
C21B C 0.2007(5) 0.3301(4) 0.3889(5)
H13B H 0.20790 0.34890 0.39410
N1B N 0.1821(4) 0.3327(3) 0.3667(3)
C22B C 0.1921(4) 0.3358(7) 0.3370(8)
H14B H 0.20610 0.35210 0.33580
H15B H 0.17530 0.34000 0.32420
H16B H 0.20160 0.31770 0.33070
C23B C 0.1505(6) 0.3333(4) 0.3682(7)
H17B H 0.14350 0.31590 0.37880
H18B H 0.14240 0.33330 0.34840
H19B H 0.14410 0.35100 0.37860
Tb1C Tb 0.02238(2) -0.03352(2) 0.45392(2)
Tb1D Tb 0.28352(2) -0.20392(2) 0.02238(2)
Tb1T Tb 0.22762(2) 0.46648(2) 0.29608(2)
Tb1CA Tb 0.52238(2) 0.28352(2) 0.29608(2)
Tb1IA Tb 0.29608(2) 0.22762(2) 0.46648(2)
Tb1PA Tb 0.46648(2) 0.29608(2) 0.22762(2)
Tb1GB Tb 0.20392(2) -0.22762(2) 0.03352(2)
Tb1OB Tb 0.03352(2) 0.04608(2) 0.47762(2)
Tb1QB Tb 0.20392(2) 0.47762(2) 0.21648(2)
Tb1XB Tb 0.21648(2) 0.20392(2) 0.47762(2)
Tb1KC Tb 0.47762(2) 0.21648(2) 0.20392(2)
O1A O 0.27426(17) 0.47574(17) 0.27426(17)
O1B O 0.27426(17) 0.27426(17) 0.47574(17)
O2P O 0.23574(11) 0.29517(12) 0.50269(12)
O2CA O 0.50269(11) 0.23574(12) 0.29517(12)
O2SA O 0.29517(11) 0.50269(12) 0.23574(12)
O2SB O 0.20483(11) 0.25269(12) 0.48574(12)
O2ZB O 0.48574(11) 0.20483(12) 0.25269(12)
O2NC O 0.25269(11) 0.48574(12) 0.20483(12)
O4P O 0.24823(14) 0.33055(13) 0.45267(14)
O4CA O 0.45267(14) 0.24823(13) 0.33055(14)
O4SA O 0.33055(14) 0.45267(13) 0.24823(14)
O5A O 0.25874(17) 0.42284(18) 0.19752(18)
O5B O 0.19752(17) 0.25874(18) 0.42284(18)
O6SB O 0.18565(12) 0.31261(12) 0.46150(14)
O6ZB O 0.46150(12) 0.18565(12) 0.31261(14)
O6NC O 0.31261(12) 0.46150(12) 0.18565(14)
#END
