
#######################################################################
#
#                 Cambridge Crystallographic Data Centre
#                                CCDC
#
#######################################################################
#
# If this CIF has been generated from an entry in the Cambridge
# Structural Database, then it will include bibliographic, chemical,
# crystal, experimental, refinement or atomic coordinate data resulting
# from the CCDC's data processing and validation procedures.
#
#######################################################################

data_CSD_CIF_UGAPOI
_audit_creation_date 2008-12-11
_audit_creation_method CSD-ConQuest-V1
_database_code_CSD UGAPOI
_database_code_depnum_ccdc_archive 'CCDC 698249'
_chemical_formula_sum 'C48 H64 N16 Na4'
_chemical_formula_moiety
;
(C4 H16 N4 Na1 1+)2n,n(C40 H32 N8 Na2 2-)
;
_journal_coden_Cambridge 9
_journal_volume 47
_journal_year 2008
_journal_page_first 6118
_journal_name_full 'Inorg.Chem. '
loop_
_publ_author_name
"M.S.Denning"
"M.Irwin"
"J.M.Goicoechea"
_chemical_name_systematic
;
catena-(bis(bis(Ethylenediamine)-sodium) 
tetrakis(\m~2~-4,4'-bipyridine)-di-sodium)
;
_cell_volume   2638.360
_exptl_crystal_colour 'dark purple'
_exptl_crystal_density_diffrn 1.205
_exptl_crystal_description 'rod'
_diffrn_ambient_temperature 150
_refine_special_details
;
One ethylenediamine group is disordered with occupancies 0.758:0.242.

;
#These two values have been output from a single CSD field.
_refine_ls_R_factor_gt 0.0436
_refine_ls_wR_factor_gt 0.0436
_symmetry_cell_setting monoclinic
_symmetry_space_group_name_H-M 'P 21/c'
_symmetry_Int_Tables_number 14
loop_
_symmetry_equiv_pos_site_id
_symmetry_equiv_pos_as_xyz
1 x,y,z
2 -x,1/2+y,1/2-z
3 -x,-y,-z
4 x,-1/2-y,-1/2+z
_cell_length_a 9.7528(1)
_cell_length_b 16.1943(2)
_cell_length_c 17.2751(3)
_cell_angle_alpha 90
_cell_angle_beta 104.7626(6)
_cell_angle_gamma 90
_cell_formula_units_Z 2
loop_
_atom_type_symbol
_atom_type_radius_bond
C 0.68
H 0.23
N 0.68
Na 1.44
loop_
_atom_site_label
_atom_site_type_symbol
_atom_site_fract_x
_atom_site_fract_y
_atom_site_fract_z
Na1 Na 0.70027(5) 0.13524(3) 0.23277(3)
Na2 Na 1.15156(7) -0.04617(5) 0.20082(4)
N1 N 0.90379(14) 0.18470(9) 0.33038(8)
C1 C 1.02149(18) 0.22123(11) 0.31816(9)
H1 H 1.02200 0.23330 0.26440
C2 C 1.13942(16) 0.24223(10) 0.37657(9)
H2 H 1.21770 0.26700 0.36220
C3 C 1.14639(14) 0.22743(8) 0.45888(8)
C4 C 1.02260(15) 0.18892(9) 0.47132(9)
H3 H 1.01790 0.17630 0.52430
C5 C 0.91022(16) 0.16969(10) 0.40841(9)
H4 H 0.83060 0.14380 0.42030
N2 N 0.81024(13) 0.06907(8) 0.14139(7)
C6 C 0.81250(16) -0.01064(10) 0.11839(9)
H5 H 0.75990 -0.04920 0.14070
C7 C 0.88428(15) -0.04051(9) 0.06564(9)
H6 H 0.88060 -0.09780 0.05340
C8 C 0.96439(13) 0.01352(8) 0.02891(8)
C9 C 0.96529(15) 0.09714(9) 0.05499(8)
H7 H 1.01900 0.13730 0.03530
C10 C 0.88938(15) 0.12008(9) 0.10823(9)
H8 H 0.89260 0.17670 0.12310
N3 N 0.58825(14) 0.06555(8) 0.31983(7)
C11 C 0.63731(16) -0.0053(1) 0.35851(9)
H9 H 0.69670 -0.03890 0.33570
C12 C 0.60873(16) -0.03270(9) 0.42747(8)
H10 H 0.64900 -0.08310 0.45080
C13 C 0.51915(14) 0.01360(8) 0.46489(8)
C14 C 0.46937(16) 0.08880(9) 0.42495(9)
H11 H 0.41040 0.12430 0.44620
C15 C 0.50550(17) 0.11041(10) 0.35645(9)
H12 H 0.46960 0.16130 0.33230
N4 N 1.51569(13) 0.28363(8) 0.64962(8)
C16 C 1.50655(16) 0.30006(10) 0.57165(10)
H13 H 1.58720 0.32390 0.55910
C17 C 1.39076(15) 0.28509(10) 0.50945(9)
H14 H 1.39390 0.29910 0.45650
C18 C 1.26582(14) 0.24886(8) 0.52258(8)
C19 C 1.27377(15) 0.23448(8) 0.60493(8)
H15 H 1.19370 0.21280 0.61990
C20 C 1.39495(16) 0.25147(9) 0.66275(9)
H16 H 1.39470 0.23980 0.71660
N5 N 1.2795(3) -0.11203(18) 0.3313(2)
H17 H 1.30410 -0.16550 0.32270
H18 H 1.36080 -0.08310 0.35410
N6 N 1.0209(3) -0.0136(3) 0.3019(3)
H19 H 0.99410 0.04100 0.29760
H20 H 0.94020 -0.04540 0.29300
N7? N 1.070(4) 0.0130(16) 0.3076(11)
H21? H 1.10290 0.06630 0.31540
H22? H 0.97230 0.01550 0.29200
N8? N 1.252(3) -0.1205(16) 0.3199(13)
H23? H 1.25160 -0.17570 0.30730
H24? H 1.34520 -0.10460 0.33830
C21 C 1.1848(2) -0.11115(11) 0.38386(11)
C22 C 1.1104(2) -0.02969(12) 0.38207(11)
N9 N 1.32876(17) 0.03221(10) 0.15551(10)
H25 H 1.28600 0.07470 0.12280
H26 H 1.39330 0.05460 0.19880
C23 C 1.4004(2) -0.02218(16) 0.11217(14)
C24 C 1.4073(2) -0.10845(15) 0.14450(14)
N10 N 1.26464(19) -0.14345(10) 0.13039(10)
H27 H 1.26670 -0.19570 0.15150
H28 H 1.21990 -0.14510 0.07670
H29 H 1.235(2) -0.1268(13) 0.4380(14)
H30 H 1.115(2) -0.1555(14) 0.3652(13)
H31 H 1.057(2) -0.0272(14) 0.4259(14)
H32 H 1.189(3) 0.0190(16) 0.3998(15)
H33 H 1.500(3) -0.0035(16) 0.1142(15)
H34 H 1.348(3) -0.0251(16) 0.0541(16)
H35 H 1.454(2) -0.1080(15) 0.2080(15)
H36 H 1.474(3) -0.1460(18) 0.1164(17)
Na1C Na -0.29973(5) 0.36476(3) -0.26723(3)
Na1C* Na 1.70027(5) 0.36476(3) 0.73277(3)
Na1B Na 1.29973(5) -0.13524(3) -0.23277(3)
Na1B* Na 0.29973(5) -0.13524(3) 0.76723(3)
N1C N -0.09621(14) 0.31530(9) -0.16962(8)
C1C C 0.02149(18) 0.27877(11) -0.18184(9)
H1C H 0.02200 0.26670 -0.23560
C2C C 0.13942(16) 0.25777(10) -0.12343(9)
H2C H 0.21770 0.23300 -0.13780
C3C C 0.14639(14) 0.27257(8) -0.04112(8)
C4C C 0.02260(15) 0.31108(9) -0.02868(9)
H3C H 0.01790 0.32370 0.02430
C5C C -0.08978(16) 0.33031(10) -0.09159(9)
H4C H -0.16940 0.35620 -0.07970
N2B N 1.18976(13) -0.06907(8) -0.14139(7)
N2C N -0.18976(13) 0.43093(8) -0.35861(7)
C6B C 1.18750(16) 0.01064(10) -0.11839(9)
H5B H 1.24010 0.04920 -0.14070
C7B C 1.11572(15) 0.04051(9) -0.06564(9)
H6B H 1.11940 0.09780 -0.05340
C8B C 1.03561(13) -0.01352(8) -0.02891(8)
C9B C 1.03471(15) -0.09714(9) -0.05499(8)
H7B H 0.98100 -0.13730 -0.03530
C10B C 1.11062(15) -0.12008(9) -0.10823(9)
H8B H 1.10740 -0.17670 -0.12310
N3B N 0.41175(14) -0.06555(8) 0.68017(7)
N3C N -0.41175(14) 0.43445(8) -0.18017(7)
C11B C 0.36269(16) 0.0053(1) 0.64149(9)
H9B H 0.30330 0.03890 0.66430
C12B C 0.39127(16) 0.03270(9) 0.57253(8)
H10B H 0.35100 0.08310 0.54920
C13B C 0.48085(14) -0.01360(8) 0.53511(8)
C14B C 0.53063(16) -0.08880(9) 0.57505(9)
H11B H 0.58960 -0.12430 0.55380
C15B C 0.49450(17) -0.11041(10) 0.64355(9)
H12B H 0.53040 -0.16130 0.66770
N4C N 0.51569(13) 0.21637(8) 0.14962(8)
N4* N -0.48431(13) 0.28363(8) -0.35038(8)
C16C C 0.50655(16) 0.19994(10) 0.07165(10)
H13C H 0.58720 0.17610 0.05910
C17C C 0.39076(15) 0.21491(10) 0.00945(9)
H14C H 0.39390 0.20090 -0.04350
C18C C 0.26582(14) 0.25114(8) 0.02258(8)
C19C C 0.27377(15) 0.26552(8) 0.10493(8)
H15C H 0.19370 0.28720 0.11990
C20C C 0.39495(16) 0.24853(9) 0.16275(9)
H16C H 0.39470 0.26020 0.21660
#END
