
#######################################################################
#
#                 Cambridge Crystallographic Data Centre
#                                CCDC
#
#######################################################################
#
# If this CIF has been generated from an entry in the Cambridge
# Structural Database, then it will include bibliographic, chemical,
# crystal, experimental, refinement or atomic coordinate data resulting
# from the CCDC's data processing and validation procedures.
#
#######################################################################

data_CSD_CIF_UGAVAC
_audit_creation_date 2018-08-03
_audit_creation_method CSD-ConQuest-V1
_database_code_CSD UGAVAC
_database_code_depnum_ccdc_archive 'CCDC 1845681'
_chemical_formula_sum 'C52 H51 Cu5 I7 N4 O14 Tb1'
_chemical_formula_moiety
;
(C52 H51 N4 O14 Tb1 2+)n,n(Cu5 I7 2-)
;
_journal_coden_Cambridge 222
_journal_volume 47
_journal_year 2018
_journal_page_first 12041
_journal_name_full 'Dalton Trans. '
loop_
_publ_author_name
"Jian-Jun Liu"
"Zheng Xiang"
"Ying-Fang Guan"
"Chang-Cang Huang"
"Mei-Jin Lin"
_chemical_name_systematic
;
catena-[bis(\m-4,4'-[[4,4'-bipyridin-1-ium]-1,1'-diylbis(methylene)]dibenzoato
)-hydroxo-penta-aqua-terbium(iii) heptakis(\m-iodo)-penta-copper(i) unknown 
solvate]
;
_cell_volume   3548.548
_exptl_crystal_colour 'black'
_exptl_crystal_density_diffrn 2.162
_exptl_crystal_description 'slice'
_diffrn_ambient_temperature 153
_refine_special_details
;
Disordered solvent molecules were not modelled and the disordered density was 
taken into account using the SQUEEZE/PLATON procedure.
;
#These two values have been output from a single CSD field.
_refine_ls_R_factor_gt 0.0663
_refine_ls_wR_factor_gt 0.0663
_symmetry_cell_setting monoclinic
_symmetry_space_group_name_H-M 'P 2/c'
_symmetry_Int_Tables_number 13
loop_
_symmetry_equiv_pos_site_id
_symmetry_equiv_pos_as_xyz
1 x,y,z
2 -x,y,1/2-z
3 -x,-y,-z
4 x,-y,-1/2+z
_cell_length_a 21.690(4)
_cell_length_b 12.031(2)
_cell_length_c 13.804(3)
_cell_angle_alpha 90
_cell_angle_beta 99.90(3)
_cell_angle_gamma 90
_cell_formula_units_Z 2
loop_
_atom_type_symbol
_atom_type_radius_bond
C 0.68
H 0.23
Cu 1.32
I 1.40
N 0.68
O 0.68
Tb 1.94
loop_
_atom_site_label
_atom_site_type_symbol
_atom_site_fract_x
_atom_site_fract_y
_atom_site_fract_z
I1 I 0.00000 0.00917(8) 0.25000
I2 I -0.08947(3) 0.31706(6) 0.30240(5)
I3 I 0.05167(4) 0.56571(6) 0.40383(5)
I4 I 0.08371(5) 0.21347(7) 0.50309(6)
Cu1 Cu 0.00397(7) 0.37459(12) 0.44626(11)
Cu2 Cu 0.03093(12) 0.20379(17) 0.33000(14)
Cu3 Cu 0.00000 0.4405(3) 0.25000
Tb1 Tb 0.50000 0.77223(10) -0.25000
N1 N 0.2143(4) 0.5576(7) 0.1626(6)
N2 N 0.1697(4) 0.8972(7) 0.5557(7)
O1 O 0.3190(4) 0.7139(8) -0.2813(6)
O2 O 0.4099(4) 0.6901(9) -0.1805(7)
C1 C 0.1487(5) 0.6639(9) 0.2433(8)
H1 H 0.10750 0.68780 0.24800
C2 C 0.1901(5) 0.7741(9) 0.3950(7)
C3 C 0.1273(5) 0.8994(9) 0.4706(8)
H2 H 0.09110 0.94490 0.46640
C4 C 0.1986(5) 0.7016(9) 0.3115(7)
C5 C 0.2586(5) 0.6647(9) 0.2991(8)
H3 H 0.29460 0.69050 0.34240
C6 C 0.2652(5) 0.5935(10) 0.2268(8)
H4 H 0.30570 0.56800 0.22040
C7 C 0.1356(5) 0.8390(9) 0.3937(8)
H5 H 0.10420 0.83920 0.33650
C8 C 0.1572(5) 0.5932(9) 0.1694(7)
H6 H 0.12230 0.56940 0.12280
C9 C 0.2330(5) 0.7751(9) 0.4809(7)
H7 H 0.27060 0.73370 0.48490
C10 C 0.2239(5) 0.586(1) -0.0656(8)
H8 H 0.18010 0.59610 -0.06990
C11 C 0.2086(6) 0.9766(9) 0.7225(8)
C12 C 0.2567(5) 0.5228(9) 0.0112(8)
C13 C 0.2235(6) 0.4738(10) 0.0868(8)
H9 H 0.24810 0.41060 0.11900
H10 H 0.18230 0.44510 0.05450
O3 O 0.4117(5) 1.0461(11) 0.9574(8)
C14 C 0.1555(6) 0.9629(11) 0.6421(8)
H11 H 0.14030 1.03750 0.61870
H12 H 0.12110 0.92550 0.66810
C15 C 0.2061(5) 0.9230(9) 0.8147(8)
H13 H 0.17090 0.87880 0.82190
C16 C 0.2538(5) 0.6340(9) -0.1353(8)
H14 H 0.23040 0.67520 -0.18790
C17 C 0.3182(5) 0.6223(9) -0.1287(7)
C18 C 0.2222(5) 0.8351(10) 0.5605(8)
H15 H 0.25180 0.83310 0.61990
C19 C 0.2546(6) 0.9352(10) 0.8926(8)
H16 H 0.25190 0.90150 0.95400
C20 C 0.3211(5) 0.5098(11) 0.0145(8)
H17 H 0.34410 0.46480 0.06460
C21 C 0.3520(6) 0.5602(11) -0.0524(9)
H18 H 0.39610 0.55270 -0.04670
C22 C 0.3517(5) 0.6789(11) -0.2010(8)
O4 O 0.3514(5) 0.9729(12) 1.0492(8)
O5 O 0.6001(5) 0.8660(11) -0.1793(9)
C23 C 0.3074(7) 0.9961(12) 0.8825(10)
C24 C 0.2614(7) 1.0411(11) 0.715(1)
H19 H 0.26380 1.07930 0.65550
O6 O 0.4909(6) 0.9026(18) -0.1080(14)
C25 C 0.3101(8) 1.0493(13) 0.7938(11)
H20 H 0.34600 1.09200 0.78720
O7 O 0.4598(7) 0.6339(17) -0.3892(14)
C26 C 0.3607(7) 1.0060(13) 0.9687(11)
I2A I 0.08947(3) 0.31706(6) 0.19760(5)
I3A I -0.05167(4) 0.56571(6) 0.09617(5)
I4A I -0.08371(5) 0.21347(7) -0.00309(6)
Cu1A Cu -0.00397(7) 0.37459(12) 0.05374(11)
Cu2A Cu -0.03093(12) 0.20379(17) 0.17000(14)
I3B I -0.05167(4) 0.43429(6) 0.59617(5)
I3C I 0.05167(4) 0.43429(6) -0.09617(5)
Cu1B Cu -0.00397(7) 0.62541(12) 0.55374(11)
Cu1C Cu 0.00397(7) 0.62541(12) -0.05374(11)
N1A N 0.7857(4) 0.5576(7) -0.6626(6)
N2A N 0.8303(4) 0.8972(7) -1.0557(7)
O1A O 0.6810(4) 0.7139(8) -0.2187(6)
O2A O 0.5901(4) 0.6901(9) -0.3195(7)
C1A C 0.8513(5) 0.6639(9) -0.7433(8)
H1A H 0.89250 0.68780 -0.74800
C2A C 0.8099(5) 0.7741(9) -0.8950(7)
C3A C 0.8727(5) 0.8994(9) -0.9706(8)
H2A H 0.90890 0.94490 -0.96640
C4A C 0.8014(5) 0.7016(9) -0.8115(7)
C5A C 0.7414(5) 0.6647(9) -0.7991(8)
H3A H 0.70540 0.69050 -0.84240
C6A C 0.7348(5) 0.5935(10) -0.7268(8)
H4A H 0.69430 0.56800 -0.72040
C7A C 0.8644(5) 0.8390(9) -0.8937(8)
H5A H 0.89580 0.83920 -0.83650
C8A C 0.8428(5) 0.5932(9) -0.6694(7)
H6A H 0.87770 0.56940 -0.62280
C9A C 0.7670(5) 0.7751(9) -0.9809(7)
H7A H 0.72940 0.73370 -0.98490
C10A C 0.7761(5) 0.586(1) -0.4344(8)
H8A H 0.81990 0.59610 -0.43010
C11A C 0.7914(6) 0.9766(9) -1.2225(8)
C12A C 0.7433(5) 0.5228(9) -0.5112(8)
C13A C 0.7765(6) 0.4738(10) -0.5868(8)
H9A H 0.75190 0.41060 -0.61900
H10A H 0.81770 0.44510 -0.55450
O3A O 0.5883(5) 1.0461(11) -1.4574(8)
C14A C 0.8445(6) 0.9629(11) -1.1421(8)
H11A H 0.85970 1.03750 -1.11870
H12A H 0.87890 0.92550 -1.16810
C15A C 0.7939(5) 0.9230(9) -1.3147(8)
H13A H 0.82910 0.87880 -1.32190
C16A C 0.7462(5) 0.6340(9) -0.3647(8)
H14A H 0.76960 0.67520 -0.31210
C17A C 0.6818(5) 0.6223(9) -0.3713(7)
C18A C 0.7778(5) 0.8351(10) -1.0605(8)
H15A H 0.74820 0.83310 -1.11990
C19A C 0.7454(6) 0.9352(10) -1.3926(8)
H16A H 0.74810 0.90150 -1.45400
C20A C 0.6789(5) 0.5098(11) -0.5145(8)
H17A H 0.65590 0.46480 -0.56460
C21A C 0.6480(6) 0.5602(11) -0.4476(9)
H18A H 0.60390 0.55270 -0.45330
C22A C 0.6483(5) 0.6789(11) -0.2990(8)
O4A O 0.6486(5) 0.9729(12) -1.5492(8)
O5A O 0.3999(5) 0.8660(11) -0.3207(9)
C23A C 0.6926(7) 0.9961(12) -1.3825(10)
C24A C 0.7386(7) 1.0411(11) -1.215(1)
H19A H 0.73620 1.07930 -1.15550
O6A O 0.5091(6) 0.9026(18) -0.3920(14)
C25A C 0.6899(8) 1.0493(13) -1.2938(11)
H20A H 0.65400 1.09200 -1.28720
O7A O 0.5402(7) 0.6339(17) -0.1108(14)
C26A C 0.6393(7) 1.0060(13) -1.4687(11)
#END
