
#######################################################################
#
#                 Cambridge Crystallographic Data Centre
#                                CCDC
#
#######################################################################
#
# If this CIF has been generated from an entry in the Cambridge
# Structural Database, then it will include bibliographic, chemical,
# crystal, experimental, refinement or atomic coordinate data resulting
# from the CCDC's data processing and validation procedures.
#
#######################################################################

data_CSD_CIF_UGUWUO
_audit_creation_date 2003-01-21
_audit_creation_method CSD-ConQuest-V1
_database_code_CSD UGUWUO
_database_code_depnum_ccdc_archive 'CCDC 197436'
_chemical_formula_sum 'C6 H16 Cd1 Cl2 N6 O4'
_chemical_formula_moiety
;
(C1 H6 N3 1+)2n,n(C4 H4 Cd1 Cl2 O4 2-)
;
_journal_coden_Cambridge 9
_journal_volume 41
_journal_year 2002
_journal_page_first 5226
_journal_name_full 'Inorg.Chem. '
loop_
_publ_author_name
"R.Vaidhyanathan"
"S.Natarajan"
"C.N.R.Rao"
_chemical_name_systematic
;
catena-(bis(Guanidinium) (\m~2~-succinato)-dichloro-cadmium(ii))
;
_cell_volume   1514.174
_exptl_crystal_density_diffrn 1.84
_diffrn_ambient_temperature 293
#These two values have been output from a single CSD field.
_refine_ls_R_factor_gt 0.0408
_refine_ls_wR_factor_gt 0.0408
_symmetry_cell_setting monoclinic
_symmetry_space_group_name_H-M 'P 21/n'
_symmetry_Int_Tables_number 14
loop_
_symmetry_equiv_pos_site_id
_symmetry_equiv_pos_as_xyz
1 x,y,z
2 1/2-x,1/2+y,1/2-z
3 -x,-y,-z
4 -1/2+x,-1/2-y,-1/2+z
_cell_length_a 8.3741(2)
_cell_length_b 15.0361(3)
_cell_length_c 12.5310(1)
_cell_angle_alpha 90
_cell_angle_beta 106.330(1)
_cell_angle_gamma 90
_cell_formula_units_Z 4
loop_
_atom_type_symbol
_atom_type_radius_bond
C 0.68
H 0.23
Cd 1.66
Cl 0.99
N 0.68
O 0.68
loop_
_atom_site_label
_atom_site_type_symbol
_atom_site_fract_x
_atom_site_fract_y
_atom_site_fract_z
Cd1 Cd 0.06047(4) -0.39306(3) 0.24495(3)
Cl1 Cl -0.0045(2) -0.5462(1) 0.16125(13)
Cl2 Cl 0.3219(2) -0.35375(12) 0.19937(14)
C1 C 0.2910(6) -0.2181(4) 0.6785(4)
C2 C 0.1387(6) -0.3701(4) 0.4751(5)
C3 C 0.1727(7) -0.3718(3) 0.6012(5)
H1 H 0.2866(7) -0.3910(3) 0.6336(5)
H2 H 0.1007(7) -0.4161(3) 0.6198(5)
C4 C 0.1475(7) -0.2839(4) 0.6558(5)
O1 O 0.1351(5) -0.4444(3) 0.4263(3)
O2 O 0.4191(4) -0.2341(3) 0.6473(3)
O3 O 0.2788(4) -0.1476(2) 0.7323(3)
O4 O 0.1120(5) -0.2982(2) 0.4219(3)
H3 H 0.0506(64) -0.2511(31) 0.6218(37)
H4 H 0.1288(64) -0.2998(32) 0.7317(42)
C5 C 0.3555(7) -0.6453(4) 0.4957(5)
N1 N 0.2812(7) -0.5974(3) 0.5539(4)
H5 H 0.2136(7) -0.5559(3) 0.5224(4)
H6 H 0.2996(7) -0.6072(3) 0.6240(4)
N2 N 0.3293(7) -0.6315(4) 0.3875(4)
H7 H 0.2622(7) -0.5903(4) 0.3547(4)
H8 H 0.3795(7) -0.6638(4) 0.3503(4)
N3 N 0.4570(6) -0.7112(3) 0.5439(4)
H9 H 0.4733(6) -0.7221(3) 0.6136(4)
H10 H 0.5060(6) -0.7428(3) 0.5054(4)
C6 C -0.0100(7) -0.0842(4) 0.3865(5)
N4 N 0.1428(6) -0.1050(3) 0.3934(5)
H11 H 0.2087(6) -0.0658(3) 0.3792(5)
H12 H 0.1782(6) -0.1580(3) 0.4122(5)
N5 N -0.0674(7) -0.0033(3) 0.3578(4)
H13 H -0.0032(7) 0.0367(3) 0.3433(4)
H14 H -0.1692(7) 0.0093(3) 0.3536(4)
N6 N -0.1089(6) -0.1459(3) 0.4098(4)
H15 H -0.0712(6) -0.1984(3) 0.4291(4)
H16 H -0.2107(6) -0.1332(3) 0.4057(4)
O2C O -0.0809(4) -0.2659(3) 0.1473(3)
Cd1C Cd 0.56047(4) -0.10694(3) 0.74495(3)
O3C O -0.2212(4) -0.3524(2) 0.2323(3)
#END
