
#######################################################################
#
#                 Cambridge Crystallographic Data Centre
#                                CCDC
#
#######################################################################
#
# If this CIF has been generated from an entry in the Cambridge
# Structural Database, then it will include bibliographic, chemical,
# crystal, experimental, refinement or atomic coordinate data resulting
# from the CCDC's data processing and validation procedures.
#
#######################################################################

data_CSD_CIF_UGUXAV
_audit_creation_date 2003-01-21
_audit_creation_method CSD-ConQuest-V1
_database_code_CSD UGUXAV
_database_code_depnum_ccdc_archive 'CCDC 197437'
_chemical_formula_sum 'C10 H20 Cd1 N6 O8'
_chemical_formula_moiety
;
(C1 H6 N3 1+)2n,n(C8 H8 Cd1 O8 2-)
;
_journal_coden_Cambridge 9
_journal_volume 41
_journal_year 2002
_journal_page_first 5226
_journal_name_full 'Inorg.Chem. '
loop_
_publ_author_name
"R.Vaidhyanathan"
"S.Natarajan"
"C.N.R.Rao"
_chemical_name_systematic
;
catena-(bis(Guanidinium) bis(\m~2~-succinato)-cadmium)
;
_cell_volume   3275.092
_exptl_crystal_density_diffrn 1.885
_diffrn_ambient_temperature 293
#These two values have been output from a single CSD field.
_refine_ls_R_factor_gt 0.015
_refine_ls_wR_factor_gt 0.015
_symmetry_cell_setting orthorhombic
_symmetry_space_group_name_H-M 'F d d d'
_symmetry_Int_Tables_number 70
loop_
_symmetry_equiv_pos_site_id
_symmetry_equiv_pos_as_xyz
1 x,y,z
2 x,1/2+y,1/2+z
3 x,1/4-y,1/4-z
4 1/2+x,y,1/2+z
5 1/4-x,y,1/4-z
6 1/2+x,1/2+y,z
7 1/4-x,1/4-y,z
8 1/4+x,1/4+y,-z
9 1/4+x,-y,1/4+z
10 -x,1/4+y,1/4+z
11 1/4+x,-1/4+y,1/2-z
12 1/4+x,1/2-y,-1/4+z
13 -1/4+x,1/4+y,1/2-z
14 1/2-x,1/4+y,-1/4+z
15 -1/4+x,1/2-y,1/4+z
16 1/2-x,-1/4+y,1/4+z
17 -x,-y,-z
18 -x,-1/2-y,-1/2-z
19 -x,-1/4+y,-1/4+z
20 -1/2-x,-y,-1/2-z
21 -1/4+x,-y,-1/4+z
22 -1/2-x,-1/2-y,-z
23 -1/4+x,-1/4+y,-z
24 -1/4-x,-1/4-y,z
25 -1/4-x,y,-1/4-z
26 x,-1/4-y,-1/4-z
27 -1/4-x,1/4-y,-1/2+z
28 -1/4-x,-1/2+y,1/4-z
29 1/4-x,-1/4-y,-1/2+z
30 -1/2+x,-1/4-y,1/4-z
31 1/4-x,-1/2+y,-1/4-z
32 -1/2+x,1/4-y,-1/4-z
_cell_length_a 7.4194(6)
_cell_length_b 17.963(2)
_cell_length_c 24.574(2)
_cell_angle_alpha 90
_cell_angle_beta 90
_cell_angle_gamma 90
_cell_formula_units_Z 8
loop_
_atom_type_symbol
_atom_type_radius_bond
C 0.68
H 0.23
Cd 1.69
N 0.68
O 0.68
loop_
_atom_site_label
_atom_site_type_symbol
_atom_site_fract_x
_atom_site_fract_y
_atom_site_fract_z
Cd1 Cd 0.12500 0.62500 0.12500
O1 O -0.0847(2) 0.61553(7) 0.05365(6)
O2 O -0.0374(2) 0.51932(8) 0.16999(5)
C1 C -0.1163(2) 0.68465(11) 0.05030(8)
C2 C -0.2543(3) 0.70927(11) 0.00813(9)
H1 H -0.3660(34) 0.7002(16) 0.0256(10)
H2 H -0.2328(38) 0.6777(15) -0.0244(10)
C3 C -0.12500 0.37500 0.07794(12)
N1 N -0.12500 0.37500 0.13124(11)
H3 H -0.0469(40) 0.4292(16) 0.0225(12)
H4 H -0.1574(34) 0.3353(14) 0.1487(10)
N2 N -0.0769(3) 0.43520(12) 0.05057(9)
H5 H -0.0350(35) 0.4676(15) 0.0671(10)
O2B O -0.0374(2) 0.73068(8) 0.08001(5)
O1B O -0.0847(2) 0.63447(7) 0.19635(6)
C1B C -0.1163(2) 0.56535(11) 0.19970(8)
O1D O 0.3347(2) 0.61553(7) 0.19635(6)
O2F O 0.2874(2) 0.73068(8) 0.16999(5)
O1F O 0.3347(2) 0.63447(7) 0.05365(6)
O2D O 0.2874(2) 0.51932(8) 0.08001(5)
C2B C -0.2543(3) 0.54073(11) 0.24187(9)
C2U C -0.2457(3) 0.79073(11) -0.00813(9)
C1U C -0.3837(2) 0.81535(11) -0.05030(8)
H1U H -0.1340(34) 0.7998(16) -0.0256(10)
H2U H -0.2672(38) 0.8223(15) 0.0244(10)
H4W H -0.0926(34) 0.4147(14) 0.1487(10)
N2W N -0.1731(3) 0.31480(12) 0.05057(9)
H3W H -0.2031(40) 0.3208(16) 0.0225(12)
H5W H -0.2150(35) 0.2824(15) 0.0671(10)
C2O C -0.2457(3) 0.45927(11) 0.25813(9)
H1B H -0.3660(34) 0.5498(16) 0.2244(10)
H2B H -0.2328(38) 0.5723(15) 0.2744(10)
O1U O -0.4153(2) 0.88447(7) -0.05365(6)
O2M O -0.4626(2) 0.76932(8) -0.08001(5)
C1O C -0.3837(2) 0.43465(11) 0.30030(8)
H1O H -0.1340(34) 0.4502(16) 0.2756(10)
H2O H -0.2672(38) 0.4277(15) 0.2256(10)
Cd1G Cd -0.62500 0.87500 -0.12500
O1O O -0.4153(2) 0.36553(7) 0.30365(6)
O2S O -0.4626(2) 0.48068(8) 0.33001(5)
Cd1H Cd -0.62500 0.37500 0.37500
#END
