
#######################################################################
#
#                 Cambridge Crystallographic Data Centre
#                                CCDC
#
#######################################################################
#
# If this CIF has been generated from an entry in the Cambridge
# Structural Database, then it will include bibliographic, chemical,
# crystal, experimental, refinement or atomic coordinate data resulting
# from the CCDC's data processing and validation procedures.
#
#######################################################################

data_CSD_CIF_UGUXID
_audit_creation_date 2003-01-21
_audit_creation_method CSD-ConQuest-V1
_database_code_CSD UGUXID
_database_code_depnum_ccdc_archive 'CCDC 197439'
_chemical_formula_sum 'C16 H32 Cd2 N2 O16'
_chemical_formula_moiety
;
(C4 H12 N2 2+)n,n(C12 H12 Cd2 O12 2-),4n(H2 O1)
;
_journal_coden_Cambridge 9
_journal_volume 41
_journal_year 2002
_journal_page_first 5226
_journal_name_full 'Inorg.Chem. '
loop_
_publ_author_name
"R.Vaidhyanathan"
"S.Natarajan"
"C.N.R.Rao"
_chemical_name_systematic
;
catena-(Piperazinium (\m~4~-succinato)-bis(\m~2~-succinato)-di-cadmium 
tetrahydrate)
;
_cell_volume    631.352
_exptl_crystal_density_diffrn 1.907
_diffrn_ambient_temperature 293
#These two values have been output from a single CSD field.
_refine_ls_R_factor_gt 0.0334
_refine_ls_wR_factor_gt 0.0334
_symmetry_cell_setting triclinic
_symmetry_space_group_name_H-M 'P -1'
_symmetry_Int_Tables_number 2
loop_
_symmetry_equiv_pos_site_id
_symmetry_equiv_pos_as_xyz
1 x,y,z
2 -x,-y,-z
_cell_length_a 8.6967(10)
_cell_length_b 8.9678(10)
_cell_length_c 9.297(1)
_cell_angle_alpha 64.820(2)
_cell_angle_beta 84.253(2)
_cell_angle_gamma 74.222(2)
_cell_formula_units_Z 1
loop_
_atom_type_symbol
_atom_type_radius_bond
C 0.68
H 0.23
Cd 1.61
N 0.68
O 0.68
loop_
_atom_site_label
_atom_site_type_symbol
_atom_site_fract_x
_atom_site_fract_y
_atom_site_fract_z
Cd1 Cd 0.02264(4) 0.30491(5) 0.18646(4)
O1 O 0.1499(4) 0.5007(5) 0.0276(4)
O2 O 0.1343(5) 0.0396(5) 0.1862(5)
O3 O 0.1415(5) -0.4138(6) 0.6493(5)
O4 O -0.0688(5) -0.2096(6) 0.5376(5)
O5 O -0.1246(5) 0.1060(5) 0.2068(5)
O6 O 0.3405(4) 0.3009(5) 0.1843(5)
C1 C 0.2979(6) 0.4401(7) 0.0698(6)
C2 C 0.0030(7) 0.0001(7) 0.2063(6)
C3 C 0.0559(7) -0.3117(7) 0.5275(6)
C4 C 0.4137(6) 0.5423(8) -0.0236(7)
H1 H 0.3996(64) 0.5614(70) -0.1250(73)
H2 H 0.3829(63) 0.6545(76) -0.0231(64)
C5 C 0.0036(8) -0.1792(8) 0.2292(7)
H3 H -0.0995(82) -0.1779(77) 0.2413(72)
H4 H 0.0499(88) -0.1909(94) 0.1430(96)
C6 C 0.1107(7) -0.3166(7) 0.3689(7)
H5 H 0.2235(81) -0.3094(81) 0.3497(76)
H6 H 0.1094(87) -0.435(10) 0.3838(89)
N1 N -0.4025(5) 0.0637(6) 0.3666(6)
H7 H -0.3060(5) 0.0615(6) 0.3211(6)
H8 H -0.4758(5) 0.1456(6) 0.2942(6)
C7 C -0.4032(7) 0.1051(8) 0.5041(7)
H9 H -0.3838(7) 0.2169(8) 0.4685(7)
H10 H -0.3181(7) 0.0225(8) 0.5783(7)
C8 C -0.4382(7) -0.1033(8) 0.4137(8)
H11 H -0.3543(7) -0.1933(8) 0.4846(8)
H12 H -0.4414(7) -0.1243(8) 0.3200(8)
O7 O 0.4122(6) -0.1187(7) 0.0759(7)
O8 O -0.4572(6) 0.5739(7) 0.3419(7)
C4A C 0.5863(6) 0.4577(8) 0.0236(7)
C1A C 0.7021(6) 0.5599(7) -0.0698(6)
O1A O 0.8501(4) 0.4993(5) -0.0276(4)
O6A O 0.6595(4) 0.6991(5) -0.1843(5)
H1A H 0.6004(64) 0.4386(70) 0.1250(73)
H2A H 0.6171(63) 0.3455(76) 0.0231(64)
C8A C -0.5618(7) 0.1033(8) 0.5863(8)
N1A N -0.5975(5) -0.0637(6) 0.6334(6)
H7A H -0.6940(5) -0.0615(6) 0.6789(6)
H8A H -0.5242(5) -0.1456(6) 0.7058(6)
C7A C -0.5968(7) -0.1051(8) 0.4959(7)
H9A H -0.6162(7) -0.2169(8) 0.5315(7)
H10A H -0.6819(7) -0.0225(8) 0.4217(7)
H11A H -0.6457(7) 0.1933(8) 0.5154(8)
H12A H -0.5586(7) 0.1243(8) 0.6800(8)
O2A O -0.1343(5) -0.0396(5) 0.8138(5)
O3A O -0.1415(5) 0.4138(6) 0.3507(5)
O4A O 0.0688(5) 0.2096(6) 0.4624(5)
O5A O 0.1246(5) -0.1060(5) 0.7932(5)
C2A C -0.0030(7) -0.0001(7) 0.7937(6)
C3A C -0.0559(7) 0.3117(7) 0.4725(6)
C5A C -0.0036(8) 0.1792(8) 0.7708(7)
H3A H 0.0995(82) 0.1779(77) 0.7587(72)
H4A H -0.0499(88) 0.1909(94) 0.8570(96)
C6A C -0.1107(7) 0.3166(7) 0.6311(7)
H5A H -0.2235(81) 0.3094(81) 0.6503(76)
H6A H -0.1094(87) 0.435(10) 0.6162(89)
Cd1A Cd 0.97736(4) 0.69509(5) -0.18646(4)
O1A* O -0.1499(4) 0.4993(5) -0.0276(4)
Cd1A* Cd -0.02264(4) 0.69509(5) -0.18646(4)
Cd1A** Cd -0.02264(4) -0.30491(5) 0.81354(4)
Cd1* Cd 1.02264(4) 0.30491(5) 0.18646(4)
O1* O 1.1499(4) 0.5007(5) 0.0276(4)
O2A* O 0.8657(5) 0.9604(5) -0.1862(5)
O3* O 1.1415(5) 0.5862(6) -0.3507(5)
O4* O 0.9312(5) 0.7904(6) -0.4624(5)
O5A* O 1.1246(5) 0.8940(5) -0.2068(5)
#END
