
#######################################################################
#
#                 Cambridge Crystallographic Data Centre
#                                CCDC
#
#######################################################################
#
# If this CIF has been generated from an entry in the Cambridge
# Structural Database, then it will include bibliographic, chemical,
# crystal, experimental, refinement or atomic coordinate data resulting
# from the CCDC's data processing and validation procedures.
#
#######################################################################

data_CSD_CIF_UHISEK
_audit_creation_date 2010-05-14
_audit_creation_method CSD-ConQuest-V1
_database_code_CSD UHISEK
_database_code_depnum_ccdc_archive 'CCDC 696374'
_chemical_formula_sum 'C27 H21 Eu2 N1 O14'
_chemical_formula_moiety
;
(C2 H8 N1 1+)n,n(C25 H13 Eu2 O14 1-)
;
_journal_coden_Cambridge 208
_journal_volume 182
_journal_year 2009
_journal_page_first 2213
_journal_name_full 'J.Solid State Chem. '
loop_
_publ_author_name
"Liushan Luo"
"Xiaoyuan Huang"
"Ning Wang"
"Hongyan Wu"
"Wenbin Chen"
"Zihao Feng"
"Huiping Zhu"
"Xiaoling Peng"
"Yongxian Li"
"Ling Huang"
"Shantang Yue"
"Yingliang Liu"
_chemical_name_systematic
;
catena-(Dimethylammnoium 
bis(\m~4~-pyridine-1,3-dicarboxylato)-(\m~3~-pyridine-1,3-dicarboxylato)-(\m~2
~-formato)-di-europium)
;
_cell_volume   1476.381
_exptl_crystal_density_diffrn 1.996
_diffrn_ambient_temperature 298
#These two values have been output from a single CSD field.
_refine_ls_R_factor_gt 0.024
_refine_ls_wR_factor_gt 0.024
_symmetry_cell_setting triclinic
_symmetry_space_group_name_H-M 'P -1'
_symmetry_Int_Tables_number 2
loop_
_symmetry_equiv_pos_site_id
_symmetry_equiv_pos_as_xyz
1 x,y,z
2 -x,-y,-z
_cell_length_a 8.3936(1)
_cell_length_b 10.5347(1)
_cell_length_c 17.4093(2)
_cell_angle_alpha 99.174(1)
_cell_angle_beta 97.130(1)
_cell_angle_gamma 100.348(1)
_cell_formula_units_Z 2
loop_
_atom_type_symbol
_atom_type_radius_bond
C 0.68
H 0.23
Eu 1.98
N 0.68
O 0.68
loop_
_atom_site_label
_atom_site_type_symbol
_atom_site_fract_x
_atom_site_fract_y
_atom_site_fract_z
C1 C 0.9749(4) 0.5575(3) 0.30462(19)
C2 C 0.9723(4) 0.4273(3) 0.3289(2)
C3 C 1.0637(5) 0.4200(4) 0.3999(2)
H1 H 1.12870 0.49570 0.43140
C4 C 1.0581(5) 0.3000(4) 0.4238(2)
H2 H 1.11760 0.29560 0.47170
C5 C 0.9638(5) 0.1864(4) 0.3762(2)
H3 H 0.96250 0.10590 0.39180
C6 C 0.8716(4) 0.1924(3) 0.3055(2)
C7 C 0.8768(4) 0.3137(3) 0.2825(2)
H4 H 0.81510 0.31840 0.23520
C8 C 0.7565(4) 0.0745(3) 0.2572(2)
C9 C 0.8382(4) 0.0036(3) -0.14068(18)
C10 C 0.8723(4) -0.0934(3) -0.08926(18)
C11 C 0.9970(5) -0.1622(4) -0.1002(2)
H5 H 1.05980 -0.14910 -0.13970
C12 C 1.0269(6) -0.2504(5) -0.0517(3)
H6 H 1.10770 -0.29870 -0.06000
C13 C 0.9374(5) -0.2671(4) 0.0088(2)
H7 H 0.96010 -0.32500 0.04180
C14 C 0.8149(4) -0.1984(3) 0.02047(18)
C15 C 0.7806(4) -0.1127(3) -0.02967(18)
H8 H 0.69570 -0.06820 -0.02310
C16 C 0.7224(5) -0.2100(4) 0.08796(19)
C17 C 0.6890(4) 0.0008(3) 0.63713(18)
C18 C 0.5991(4) -0.0946(3) 0.56475(18)
C19 C 0.4365(5) -0.1538(4) 0.5632(2)
H9 H 0.38730 -0.13770 0.60780
C20 C 0.3473(5) -0.2363(5) 0.4961(2)
H10 H 0.23830 -0.27500 0.49540
C21 C 0.4204(5) -0.2609(4) 0.4305(2)
H11 H 0.35970 -0.31550 0.38510
C22 C 0.5830(4) -0.2056(3) 0.43108(18)
C23 C 0.6595(4) -0.2309(3) 0.35878(18)
C24 C 0.6727(4) -0.1213(3) 0.49879(18)
H12 H 0.78190 -0.08310 0.49950
C25 C 0.2145(5) -0.3723(4) 0.1614(2)
H13 H 0.13320 -0.44830 0.14750
C26 C 0.5589(10) 0.3879(8) 0.1065(5)
H14 H 0.60360 0.31100 0.11020
H15 H 0.62560 0.44400 0.07930
H16 H 0.44920 0.36250 0.07800
C27 C 0.4611(9) 0.3834(7) 0.2353(7)
H17 H 0.34610 0.37430 0.21720
H18 H 0.48730 0.42880 0.28910
H19 H 0.48780 0.29800 0.23180
Eu1 Eu 0.47769(2) -0.138666(16) 0.203295(9)
Eu2 Eu 0.966359(19) 0.807442(15) 0.262312(8)
N1 N 0.5563(5) 0.4587(4) 0.1861(4)
O1 O 1.0707(3) 0.6570(2) 0.34339(14)
O2 O 0.8769(3) 0.5641(2) 0.24341(14)
O3 O 0.6385(3) 0.0886(2) 0.21063(15)
O4 O 0.7742(3) -0.0401(2) 0.26770(14)
O5 O 0.9382(3) 0.0333(2) -0.18609(14)
O6 O 0.7105(3) 0.0489(3) -0.13402(14)
O7 O 0.5935(4) -0.1665(3) 0.08689(15)
O8 O 0.7768(4) -0.2647(3) 0.14286(13)
O9 O 0.8385(3) 0.0472(2) 0.64084(13)
O10 O 0.6054(3) 0.0306(3) 0.69045(14)
O11 O 0.5652(3) -0.2690(2) 0.29226(12)
O12 O 0.8120(3) -0.2141(3) 0.36658(14)
O13 O 0.3485(3) -0.3733(3) 0.13763(15)
O14 O 0.1844(3) -0.2750(2) 0.20253(15)
H20 H 0.523(6) 0.529(3) 0.180(3)
H21 H 0.654(3) 0.483(5) 0.213(3)
Eu1A Eu 0.52231(2) 0.138666(16) -0.203295(9)
Eu1A* Eu 0.52231(2) 0.138666(16) 0.796705(9)
Eu2* Eu 0.966359(19) -0.192558(15) 0.262312(8)
Eu2A Eu 1.033641(19) 0.192558(15) -0.262312(8)
Eu2A* Eu 1.033641(19) 0.192558(15) 0.737688(8)
Eu2** Eu -0.033641(19) -0.192558(15) 0.262312(8)
O4* O 0.7742(3) 0.9599(2) 0.26770(14)
O5A O 1.0618(3) 0.9667(2) 0.18609(14)
O6A O 0.2895(3) -0.0489(3) 0.13402(14)
O8* O 0.7768(4) 0.7353(3) 0.14286(13)
O9A O 1.1615(3) 0.9528(2) 0.35916(13)
O10A O 0.3946(3) -0.0306(3) 0.30955(14)
O12* O 0.8120(3) 0.7859(3) 0.36658(14)
O14* O 1.1844(3) 0.7250(2) 0.20253(15)
#END
