
#######################################################################
#
#                 Cambridge Crystallographic Data Centre
#                                CCDC
#
#######################################################################
#
# If this CIF has been generated from an entry in the Cambridge
# Structural Database, then it will include bibliographic, chemical,
# crystal, experimental, refinement or atomic coordinate data resulting
# from the CCDC's data processing and validation procedures.
#
#######################################################################

data_CSD_CIF_UHOPUC
_audit_creation_date 2003-10-08
_audit_creation_method CSD-ConQuest-V1
_database_code_CSD UHOPUC
_database_code_depnum_ccdc_archive 'CCDC 212735'
_chemical_formula_sum 'C72 H98 N12 O40 Zn3'
_chemical_formula_moiety
;
(C72 H78 N12 O31 Zn3 2-)n,2n(H3 O1 1+),7n(H2 O1)
;
_journal_coden_Cambridge 6
_journal_volume 404
_journal_year 2000
_journal_page_first 982
_journal_name_full 'Nature (London) '
loop_
_publ_author_name
"J.S.Seo"
"D.Whang"
"H.Lee"
"S.I.Jun"
"J.Oh"
"Y.J.Jeon"
"K.Kim"
_chemical_name_systematic
;
catena-(bis(oxonium) 
tris(\m~3~-2,2-dimethyl-5-[(pyridin-4-ylamino)carbonyl]-1,3-dioxolone-4-carbox
ylato)-(\m~3~-oxo)-tris(\m~2~-2,2-dimethyl-5-[(pyridin-4-ylamino)carbonyl]-1,3
-dioxolone-4-carboxylato)-tri-zinc heptahydrate)
;
_cell_volume   5876.147
_exptl_crystal_density_diffrn 1.112
_exptl_crystal_description 'hexagonal plates'
_diffrn_ambient_temperature 188
#These two values have been output from a single CSD field.
_refine_ls_R_factor_gt 0.1017
_refine_ls_wR_factor_gt 0.1017
_symmetry_cell_setting hexagonal
_symmetry_space_group_name_H-M 'P 3 2 1'
_symmetry_Int_Tables_number 150
loop_
_symmetry_equiv_pos_site_id
_symmetry_equiv_pos_as_xyz
1 x,y,z
2 -y,x-y,z
3 y,x,-z
4 -x+y,-x,z
5 -x,-x+y,-z
6 x-y,-y,-z
_cell_length_a 20.9415(6)
_cell_length_b 20.9415(6)
_cell_length_c 15.4720(6)
_cell_angle_alpha 90
_cell_angle_beta 90
_cell_angle_gamma 120
_cell_formula_units_Z 2
loop_
_atom_type_symbol
_atom_type_radius_bond
C 0.68
N 0.68
O 0.68
Zn 1.45
loop_
_atom_site_label
_atom_site_type_symbol
_atom_site_fract_x
_atom_site_fract_y
_atom_site_fract_z
Zn1 Zn 0.4179(1) 0.6460(1) 0.8903(1)
O1 O 0.33330 0.66670 0.8800(14)
O2 O 0.4639(4) 0.7080(4) 0.7746(7)
O3 O 0.4480(4) 0.8033(4) 0.8060(6)
O4 O 0.5152(8) 0.7545(9) 0.6230(9)
O5 O 0.4722(7) 0.8162(6) 0.5347(8)
O6 O 0.5117(6) 0.9500(6) 0.6192(9)
O7 O 0.3720(4) 0.5849(5) 1.0056(7)
O8 O 0.2517(4) 0.5145(3) 0.9695(6)
O9 O 0.3533(4) 0.5211(4) 1.1544(6)
O10 O 0.2555(4) 0.4967(5) 1.2392(7)
O11 O 0.1314(4) 0.3850(4) 1.1388(7)
N1 N 0.3911(7) 0.8888(5) 0.6591(9)
N2 N 0.3307(11) 1.0515(8) 0.6716(17)
N3 N 0.1143(4) 0.4844(4) 1.1203(7)
N4 N -0.1149(4) 0.3910(4) 1.1061(7)
C1 C 0.4686(6) 0.7686(6) 0.758(1)
C2 C 0.5018(9) 0.7998(10) 0.6788(12)
C3 C 0.5166(11) 0.7762(11) 0.5340(16)
C4 C 0.4499(7) 0.8173(7) 0.6198(10)
C5 C 0.5893(18) 0.831(2) 0.501(2)
C6 C 0.4727(14) 0.7058(13) 0.4759(17)
C7 C 0.4561(12) 0.8954(9) 0.6311(11)
C8 C 0.3752(8) 0.9444(7) 0.6614(11)
C9 C 0.4291(12) 1.0199(8) 0.6441(15)
C10 C 0.3945(18) 1.0704(11) 0.6567(19)
C11 C 0.2793(15) 0.9822(15) 0.6841(19)
C12 C 0.3013(11) 0.9247(9) 0.6829(14)
C13 C 0.3055(6) 0.5334(6) 1.0163(8)
C14 C 0.2915(6) 0.4947(6) 1.0951(10)
C15 C 0.3272(6) 0.5020(7) 1.2404(10)
C16 C 0.2373(5) 0.5067(6) 1.1529(8)
C17 C 0.3776(8) 0.5622(9) 1.2986(12)
C18 C 0.3210(13) 0.4291(12) 1.2641(14)
C19 C 0.1548(6) 0.4515(6) 1.1374(9)
C20 C 0.0379(5) 0.4496(5) 1.1141(8)
C21 C -0.0079(6) 0.3748(7) 1.1126(8)
C22 C -0.0856(5) 0.3467(6) 1.1068(9)
C23 C -0.0663(6) 0.4636(6) 1.1104(9)
C24 C 0.0087(6) 0.4949(7) 1.110(1)
O12 O -0.247(2) 0.134(2) 1.119(2)
O13 O 0.00000 0.6549(19) 1.00000
O14 O 0.6234(18) 1.00000 0.50000
O15 O 0.2595(13) 1.1328(12) 0.685(2)
O2C O 0.2441(4) 0.5361(4) 0.7746(7)
O3C O 0.3553(4) 0.5520(4) 0.8060(6)
O4C O 0.2393(8) 0.4848(9) 0.6230(9)
O5C O 0.3440(7) 0.5278(6) 0.5347(8)
O6C O 0.4383(6) 0.4883(6) 0.6192(9)
N1C N 0.4977(7) 0.6089(5) 0.6591(9)
N2C N 0.7208(11) 0.6693(8) 0.6716(17)
C1C C 0.3000(6) 0.5314(6) 0.758(1)
C2C C 0.2980(9) 0.4982(10) 0.6788(12)
C3C C 0.2596(11) 0.4834(11) 0.5340(16)
C4C C 0.3674(7) 0.5501(7) 0.6198(10)
C5C C 0.2417(18) 0.4107(20) 0.501(2)
C6C C 0.2331(14) 0.5273(13) 0.4759(17)
C7C C 0.4393(12) 0.5439(9) 0.6311(11)
C8C C 0.5692(8) 0.6248(7) 0.6614(11)
C9C C 0.5908(12) 0.5709(8) 0.6441(15)
C10C C 0.6759(18) 0.6055(11) 0.6567(19)
C11C C 0.7029(15) 0.7207(15) 0.6841(19)
C12C C 0.6234(11) 0.6987(9) 0.6829(14)
O7A O 0.4151(4) 0.7871(5) 1.0056(7)
O8A O 0.4855(4) 0.7372(3) 0.9695(6)
O9A O 0.4789(4) 0.8322(4) 1.1544(6)
O10A O 0.5033(4) 0.7588(5) 1.2392(7)
O11A O 0.6150(4) 0.7464(4) 1.1388(7)
N3A N 0.5156(4) 0.6299(4) 1.1203(7)
N4A N 0.6090(4) 0.4941(4) 1.1061(7)
C13A C 0.4666(6) 0.7721(6) 1.0163(8)
C14A C 0.5053(6) 0.7968(6) 1.0951(10)
C15A C 0.4980(6) 0.8252(7) 1.2404(10)
C16A C 0.4933(5) 0.7306(6) 1.1529(8)
C17A C 0.4378(8) 0.8154(9) 1.2986(12)
C18A C 0.5709(13) 0.8919(12) 1.2641(14)
C19A C 0.5485(6) 0.7033(6) 1.1374(9)
C20A C 0.5504(5) 0.5883(5) 1.1141(8)
C21A C 0.6252(6) 0.6173(7) 1.1126(8)
C22A C 0.6533(5) 0.5677(6) 1.1068(9)
C23A C 0.5364(6) 0.4701(6) 1.1104(9)
C24A C 0.5051(6) 0.5138(7) 1.110(1)
Zn1C Zn 0.2281(1) 0.5821(1) 0.8903(1)
N4E N 0.4941(4) 0.6090(4) 0.8939(7)
Zn1A Zn 0.3540(1) 0.7719(1) 0.8903(1)
Zn1E Zn -0.2281(1) 0.3540(1) 1.1097(1)
Zn1B Zn 0.6460(1) 0.4179(1) 1.1097(1)
O3A O 0.1967(4) 0.6447(4) 0.8060(6)
O7C O 0.2129(4) 0.6280(5) 1.0056(7)
N4D N 0.1149(4) 0.5059(4) 0.8939(7)
O2A O 0.2920(4) 0.7559(4) 0.7746(7)
O8C O 0.2628(4) 0.7483(3) 0.9695(6)
N4B N 0.3910(4) 0.8851(4) 0.8939(7)
C13C C 0.2279(6) 0.6945(6) 1.0163(8)
C1A C 0.2314(6) 0.7000(6) 0.758(1)
C14C C 0.2032(6) 0.7085(6) 1.0951(10)
C2A C 0.2002(9) 0.702(1) 0.6788(12)
O9C O 0.1678(4) 0.6467(4) 1.1544(6)
C16C C 0.2694(5) 0.7627(6) 1.1529(8)
O4A O 0.2455(8) 0.7607(9) 0.6230(9)
C4A C 0.1827(7) 0.6326(7) 0.6198(10)
O10C O 0.2412(4) 0.7445(5) 1.2392(7)
C19C C 0.2967(6) 0.8452(6) 1.1374(9)
O5A O 0.1838(7) 0.6560(6) 0.5347(8)
C7A C 0.1046(12) 0.5607(9) 0.6311(11)
O11C O 0.2536(4) 0.8686(4) 1.1388(7)
N3C N 0.3701(4) 0.8857(4) 1.1203(7)
O6A O 0.0500(6) 0.5617(6) 0.6192(9)
N1A N 0.1112(7) 0.5023(5) 0.6591(9)
C20C C 0.4117(5) 0.9621(5) 1.1141(8)
C15C C 0.1748(6) 0.6728(7) 1.2404(10)
C17C C 0.1846(8) 0.6224(9) 1.2986(12)
C18C C 0.1081(13) 0.6790(12) 1.2641(14)
C21C C 0.3827(6) 1.0079(7) 1.1126(8)
C24C C 0.4862(6) 0.9913(7) 1.110(1)
C23C C 0.5299(6) 1.0663(6) 1.1104(9)
C22C C 0.4323(5) 1.0856(6) 1.1068(9)
N4C N 0.5059(4) 1.1149(4) 1.1061(7)
Zn1D Zn 0.5821(1) 1.2281(1) 1.1097(1)
C8A C 0.0556(8) 0.4308(7) 0.6614(11)
C3A C 0.2238(11) 0.7404(11) 0.5340(16)
C5A C 0.1690(18) 0.7583(20) 0.501(2)
C6A C 0.2942(14) 0.7669(13) 0.4759(17)
C9A C -0.0199(12) 0.4092(8) 0.6441(15)
C12A C 0.0753(11) 0.3766(9) 0.6829(14)
C11A C 0.0178(15) 0.2971(15) 0.6841(19)
C10A C -0.0704(18) 0.3241(11) 0.6567(19)
N2A N -0.0515(11) 0.2792(8) 0.6716(17)
#END
