
#######################################################################
#
#                 Cambridge Crystallographic Data Centre
#                                CCDC
#
#######################################################################
#
# If this CIF has been generated from an entry in the Cambridge
# Structural Database, then it will include bibliographic, chemical,
# crystal, experimental, refinement or atomic coordinate data resulting
# from the CCDC's data processing and validation procedures.
#
#######################################################################

data_CSD_CIF_UHOSOB
_audit_creation_date 2015-04-24
_audit_creation_method CSD-ConQuest-V1
_database_code_CSD UHOSOB
_database_code_depnum_ccdc_archive 'CCDC 1061616'
_chemical_formula_sum 'C16 H32 N4 O16 P4 U2'
_chemical_formula_moiety
;
(C16 H16 O16 P4 U2 4-)n,4(H4 N1 1+)
;
_journal_coden_Cambridge 9
_journal_volume 54
_journal_year 2015
_journal_page_first 3864
_journal_name_full 'Inorg.Chem. '
loop_
_publ_author_name
"Tao Zheng"
"Qun-Yan Wu"
"Yang Gao"
"Daxiang Gui"
"Shiwen Qiu"
"Lanhua Chen"
"Daopeng Sheng"
"Juan Diwu"
"Wei-Qun Shi"
"Zhifang Chai"
"T.E.Albrecht-Schmitt"
"Shuao Wang"
_chemical_name_systematic
;
catena-[tetrakis(ammonium) 
bis(\m-(benzene-1,4-diyldimethanediyl)bis(phosphonato))-di-uranium]
;
_cell_volume    722.035
_exptl_crystal_colour 'yellow'
_exptl_crystal_density_diffrn 2.576
_exptl_crystal_description 'tablet'
_diffrn_ambient_temperature 100
#These two values have been output from a single CSD field.
_refine_ls_R_factor_gt 0.0295
_refine_ls_wR_factor_gt 0.0295
_symmetry_cell_setting triclinic
_symmetry_space_group_name_H-M 'P -1'
_symmetry_Int_Tables_number 2
loop_
_symmetry_equiv_pos_site_id
_symmetry_equiv_pos_as_xyz
1 x,y,z
2 -x,-y,-z
_cell_length_a 7.9833(14)
_cell_length_b 9.8561(17)
_cell_length_c 10.0391(18)
_cell_angle_alpha 88.592(5)
_cell_angle_beta 74.351(5)
_cell_angle_gamma 72.027(5)
_cell_formula_units_Z 1
loop_
_atom_type_symbol
_atom_type_radius_bond
C 0.68
H 0.23
N 0.68
O 0.68
P 1.05
U 1.96
loop_
_atom_site_label
_atom_site_type_symbol
_atom_site_fract_x
_atom_site_fract_y
_atom_site_fract_z
U1 U 0.02424(3) 0.70512(3) 0.97036(3)
P1 P 0.3002(2) 0.4458(2) 0.77415(19)
P2 P -0.2350(3) 1.02788(19) 1.18540(19)
O1 O 0.4705(7) 0.3674(6) 0.8153(6)
O2 O 0.2720(7) 0.6061(5) 0.7627(5)
O3 O 0.1225(7) 0.4426(5) 0.8839(5)
O4 O -0.1501(7) 0.8664(5) 1.1562(5)
O5 O -0.4067(8) 1.0864(6) 1.1382(6)
O6 O -0.0905(8) 1.1014(6) 1.1225(6)
O7 O -0.1525(8) 0.7466(6) 0.8841(6)
O8 O 0.2014(7) 0.6609(6) 1.0550(6)
C1 C 0.3080(11) 0.3654(9) 0.6128(8)
C2 C 0.1486(10) 0.4359(8) 0.5548(8)
C3 C 0.1647(12) 0.5228(10) 0.4453(9)
C4 C 0.0193(12) 0.5864(10) 0.3916(9)
C5 C -0.3001(11) 1.0684(9) 1.3702(8)
C6 C -0.1460(11) 1.0334(8) 1.4381(7)
C7 C -0.1099(13) 0.9143(10) 1.5151(9)
C8 C -0.0330(13) 1.1186(9) 1.4247(9)
H1 H 0.259(13) 0.55(1) 0.420(9)
H2 H 0.026(14) 0.641(11) 0.341(11)
H3 H -0.194(11) 0.865(9) 1.537(8)
H4 H -0.066(14) 1.203(12) 1.391(11)
H5 H 0.312(10) 0.273(8) 0.634(7)
H6 H -0.39(1) 1.024(8) 1.412(7)
H7 H 0.413(13) 0.376(10) 0.542(9)
H8 H -0.354(12) 1.16(1) 1.383(9)
N1 N 0.5794(9) 0.6215(7) 0.8798(7)
N2 N 0.6520(11) 0.0786(8) 0.8478(8)
P1A P -0.3002(2) 0.5542(2) 0.22585(19)
O1A O -0.4705(7) 0.6326(6) 0.1847(6)
O2A O -0.2720(7) 0.3939(5) 0.2373(5)
O3A O -0.1225(7) 0.5574(5) 0.1161(5)
C1A C -0.3080(11) 0.6346(9) 0.3872(8)
C2A C -0.1486(10) 0.5641(8) 0.4452(8)
C3A C -0.1647(12) 0.4772(10) 0.5547(9)
C4A C -0.0193(12) 0.4136(10) 0.6084(9)
H1A H -0.259(13) 0.45(1) 0.580(9)
H2A H -0.026(14) 0.359(11) 0.659(11)
H5A H -0.312(10) 0.727(8) 0.366(7)
H7A H -0.413(13) 0.624(10) 0.458(9)
P2A P 0.2350(3) 0.97212(19) 1.81460(19)
O4A O 0.1501(7) 1.1336(5) 1.8438(5)
O5A O 0.4067(8) 0.9136(6) 1.8618(6)
O6A O 0.0905(8) 0.8986(6) 1.8775(6)
C5A C 0.3001(11) 0.9316(9) 1.6298(8)
C6A C 0.1460(11) 0.9666(8) 1.5619(7)
C7A C 0.1099(13) 1.0857(10) 1.4849(9)
C8A C 0.0330(13) 0.8814(9) 1.5753(9)
H3A H 0.194(11) 1.135(9) 1.463(8)
H4A H 0.066(14) 0.797(12) 1.609(11)
H6A H 0.39(1) 0.976(8) 1.588(7)
H8A H 0.354(12) 0.84(1) 1.617(9)
U1A U -0.02424(3) 0.29488(3) 0.02964(3)
O7A O 0.1525(8) 0.2534(6) 0.1159(6)
O8A O -0.2014(7) 0.3391(6) -0.0550(6)
U1* U 0.02424(3) 0.70512(3) -0.02964(3)
U1** U 0.02424(3) 0.70512(3) 1.97036(3)
U1A* U -0.02424(3) 0.29488(3) 1.02964(3)
U1A** U -0.02424(3) 1.29488(3) 1.02964(3)
U1A*** U -0.02424(3) 1.29488(3) 2.02964(3)
O3* O 0.1225(7) 0.4426(5) -0.1161(5)
O3A* O -0.1225(7) 0.5574(5) 1.1161(5)
O4A* O 0.1501(7) 0.1336(5) -0.1562(5)
O6* O -0.0905(8) 0.1014(6) 0.1225(6)
O6A* O 0.0905(8) 0.8986(6) 0.8775(6)
#END
