
#######################################################################
#
#                 Cambridge Crystallographic Data Centre
#                                CCDC
#
#######################################################################
#
# If this CIF has been generated from an entry in the Cambridge
# Structural Database, then it will include bibliographic, chemical,
# crystal, experimental, refinement or atomic coordinate data resulting
# from the CCDC's data processing and validation procedures.
#
#######################################################################

data_CSD_CIF_UHOSIV
_audit_creation_date 2015-04-24
_audit_creation_method CSD-ConQuest-V1
_database_code_CSD UHOSIV
_database_code_depnum_ccdc_archive 'CCDC 1061615'
_chemical_formula_sum 'C28 H55 N1 O17 P4 U1'
_chemical_formula_moiety
;
(C16 H23 O15 P4 U1 1-)n,C12 H28 N1 1+,2(H2 O1)
;
_journal_coden_Cambridge 9
_journal_volume 54
_journal_year 2015
_journal_page_first 3864
_journal_name_full 'Inorg.Chem. '
loop_
_publ_author_name
"Tao Zheng"
"Qun-Yan Wu"
"Yang Gao"
"Daxiang Gui"
"Shiwen Qiu"
"Lanhua Chen"
"Daopeng Sheng"
"Juan Diwu"
"Wei-Qun Shi"
"Zhifang Chai"
"T.E.Albrecht-Schmitt"
"Shuao Wang"
_chemical_name_systematic
;
catena-[tetra-propylammonium (\m-(benzene-1,4-diyldimethanediyl)bis[hydrogen 
(phosphonato)])-(\m-hydrogen 
[4-(phosphonomethyl)benzyl]phosphonato)-aqua-oxo-uranium dihydrate]
;
_cell_volume   3950.430
_exptl_crystal_colour 'yellow'
_exptl_crystal_density_diffrn 1.738
_exptl_special_details
;
Absolute configuration

;
_exptl_crystal_description 'block'
_diffrn_ambient_temperature 100
_diffrn_special_details
;
twin

;
#These two values have been output from a single CSD field.
_refine_ls_R_factor_gt 0.0343
_refine_ls_wR_factor_gt 0.0343
_symmetry_cell_setting orthorhombic
_symmetry_space_group_name_H-M 'P 21 21 21'
_symmetry_Int_Tables_number 19
loop_
_symmetry_equiv_pos_site_id
_symmetry_equiv_pos_as_xyz
1 x,y,z
2 1/2-x,-y,1/2+z
3 -x,1/2+y,1/2-z
4 1/2+x,1/2-y,-z
_cell_length_a 14.2244(11)
_cell_length_b 16.6521(13)
_cell_length_c 16.6779(13)
_cell_angle_alpha 90
_cell_angle_beta 90
_cell_angle_gamma 90
_cell_formula_units_Z 4
loop_
_atom_type_symbol
_atom_type_radius_bond
C 0.68
H 0.23
N 0.68
O 0.68
P 1.05
U 1.96
loop_
_atom_site_label
_atom_site_type_symbol
_atom_site_fract_x
_atom_site_fract_y
_atom_site_fract_z
U1 U 0.74572(2) 0.98935(2) 0.29609(2)
P1 P 0.90750(16) 0.97032(16) 0.12571(13)
P2 P 1.08541(17) 0.58832(16) -0.12795(13)
P3 P 0.49975(16) 0.95776(17) 0.36827(14)
P4 P -0.00899(16) 1.02459(18) 0.35520(14)
O1 O 0.8381(5) 1.0090(4) 0.1818(4)
O2 O 1.0086(5) 0.9690(6) 0.1563(4)
H1 H 1.04180 0.94080 0.12560
O3 O 0.9028(5) 1.0146(5) 0.0444(3)
H2 H 0.85580 0.99860 0.01850
O4 O 0.9815(5) 0.5720(6) -0.1581(4)
H3 H 0.96000 0.53110 -0.13500
O5 O 1.0993(6) 0.5582(5) -0.0441(4)
O6 O 1.1521(5) 0.5565(5) -0.1892(4)
O7 O 0.6042(5) 0.9500(5) 0.3568(4)
O8 O 0.4442(5) 0.8956(5) 0.3153(4)
H4 H 0.46340 0.89820 0.26770
O9 O 0.4689(6) 0.9406(6) 0.4537(4)
O10 O -0.1111(5) 1.0456(5) 0.3438(4)
O11 O 0.0299(5) 0.9575(5) 0.3023(4)
O12 O 0.0112(6) 0.9948(6) 0.4430(4)
H5 H -0.03870 0.99660 0.46990
O13 O 0.7924(5) 0.8925(4) 0.3068(5)
O14 O 0.7002(5) 1.0881(4) 0.2863(5)
O15 O 0.7507(5) 1.0030(6) 0.4478(5)
C1 C 0.8671(8) 0.8702(7) 0.1069(7)
H6 H 0.86630 0.84060 0.15840
H7 H 0.80150 0.87300 0.08730
C2 C 0.9250(8) 0.8221(6) 0.0467(6)
C3 C 0.8879(9) 0.8054(8) -0.0283(8)
H8 H 0.82610 0.82250 -0.04170
C4 C 0.9428(9) 0.7629(7) -0.0846(7)
H9 H 0.91690 0.75200 -0.13590
C5 C 1.0333(8) 0.7363(7) -0.0676(7)
C6 C 1.0927(8) 0.6955(7) -0.1286(7)
H10 H 1.15900 0.71120 -0.11980
H11 H 1.07410 0.71500 -0.18240
C7 C 1.0683(9) 0.7519(7) 0.0098(7)
H12 H 1.12910 0.73350 0.02450
C8 C 1.0145(9) 0.7940(7) 0.0645(7)
H13 H 1.03980 0.80410 0.11630
C9 C 0.4642(7) 1.0564(7) 0.3367(8)
H14 H 0.49520 1.09650 0.37160
H15 H 0.48700 1.06530 0.28130
C10 C 0.3588(7) 1.0710(7) 0.3386(7)
C11 C 0.3141(8) 1.0967(8) 0.4068(7)
H16 H 0.34920 1.10460 0.45460
C12 C 0.2172(8) 1.1114(8) 0.4063(7)
H17 H 0.18740 1.12990 0.45380
C13 C 0.1640(7) 1.0994(7) 0.3375(7)
C14 C 0.0581(7) 1.1137(8) 0.3387(9)
H18 H 0.03900 1.13770 0.28680
H19 H 0.04320 1.15290 0.38140
C15 C 0.2092(8) 1.0757(9) 0.2692(7)
H20 H 0.17450 1.06960 0.22090
C16 C 0.3059(8) 1.0603(8) 0.2693(7)
H21 H 0.33570 1.04230 0.22160
N1 N 0.6864(7) 0.7490(6) 0.6022(6)
C17 C 0.6873(10) 0.7108(7) 0.5193(8)
H22 H 0.75000 0.68660 0.51070
H23 H 0.64080 0.66660 0.51900
C18 C 0.6664(14) 0.7649(11) 0.4499(9)
H24 H 0.71440 0.80790 0.44710
H25 H 0.60420 0.79040 0.45760
C19 C 0.6666(13) 0.7175(14) 0.3724(10)
H26 H 0.63150 0.66740 0.37990
H27 H 0.73150 0.70500 0.35710
H28 H 0.63680 0.74930 0.33000
C20 C 0.5926(9) 0.7873(7) 0.6181(9)
H29 H 0.59490 0.81380 0.67130
H30 H 0.58190 0.82960 0.57750
C21 C 0.5105(10) 0.7309(9) 0.6169(12)
H31 H 0.51820 0.69050 0.66000
H32 H 0.50930 0.70210 0.56500
C22 C 0.4177(10) 0.7749(11) 0.6286(13)
H33 H 0.41390 0.81980 0.59090
H34 H 0.41400 0.79530 0.68360
H35 H 0.36540 0.73780 0.61890
C23 C 0.7586(8) 0.8158(6) 0.6056(7)
H36 H 0.74300 0.85560 0.56360
H37 H 0.75270 0.84310 0.65810
C24 C 0.859(1) 0.7913(10) 0.5948(12)
H38 H 0.86680 0.76370 0.54260
H39 H 0.87730 0.75340 0.63780
C25 C 0.9213(12) 0.8645(11) 0.5978(14)
H40 H 0.92940 0.88150 0.65360
H41 H 0.89210 0.90810 0.56710
H42 H 0.98270 0.85160 0.57450
C26 C 0.7084(8) 0.6838(7) 0.6637(7)
H43 H 0.77090 0.66080 0.65120
H44 H 0.66150 0.64020 0.65800
C27 C 0.7086(13) 0.7123(10) 0.7513(8)
H45 H 0.75550 0.75570 0.75810
H46 H 0.64600 0.73420 0.76530
C28 C 0.7319(11) 0.6436(10) 0.8059(9)
H47 H 0.78520 0.61350 0.78390
H48 H 0.67730 0.60810 0.81060
H49 H 0.74860 0.66440 0.85900
O16 O 0.1706(6) 1.0232(8) 0.0694(6)
O17 O 0.3607(6) 0.0008(8) 0.0674(6)
U1* U -0.25428(2) 0.98935(2) 0.29609(2)
U1C U 1.24572(2) 0.51065(2) -0.29609(2)
O6C O 0.6521(5) 0.9435(5) 0.1892(4)
O10* O 0.8889(5) 1.0456(5) 0.3438(4)
#END
