
#######################################################################
#
#                 Cambridge Crystallographic Data Centre
#                                CCDC
#
#######################################################################
#
# If this CIF has been generated from an entry in the Cambridge
# Structural Database, then it will include bibliographic, chemical,
# crystal, experimental, refinement or atomic coordinate data resulting
# from the CCDC's data processing and validation procedures.
#
#######################################################################

data_CSD_CIF_UHOYUO
_audit_creation_date 2020-02-24
_audit_creation_method CSD-ConQuest-V1
_database_code_CSD UHOYUO
_database_code_depnum_ccdc_archive 'CCDC 1985942'
_chemical_formula_sum 'C9 H5 K1 N4 Ni1 O5'
_chemical_formula_moiety
;
(C9 H3 N4 Ni1 O4 1-)n,H2 O1,K1 1+
;
_journal_coden_Cambridge 1078
_journal_year 2020
_journal_name_full 'CSD Communication(Private Communication) '
loop_
_publ_author_name
"haitao Yuan"
_chemical_name_systematic
;
catena-[potassium (\m-5-(tetrazolato)benzene-1,3-dicarboxylato) monohydrate 
unknown solvate]
;
_cell_volume   3314.952
_exptl_crystal_colour 'colorless'
_exptl_crystal_description 'block'
_diffrn_ambient_temperature 295
_refine_special_details
;
Disordered solvent molecules were not modelled and the disordered density was 
taken into account using the SQUEEZE/PLATON procedure.
;
#These two values have been output from a single CSD field.
_refine_ls_R_factor_gt 0.11
_refine_ls_wR_factor_gt 0.11
_symmetry_cell_setting hexagonal
_symmetry_space_group_name_H-M 'P 63/m'
_symmetry_Int_Tables_number 176
loop_
_symmetry_equiv_pos_site_id
_symmetry_equiv_pos_as_xyz
1 x,y,z
2 -y,x-y,z
3 -x+y,-x,z
4 -x,-y,1/2+z
5 y,-x+y,1/2+z
6 x-y,x,1/2+z
7 -x,-y,-z
8 y,-x+y,-z
9 x-y,x,-z
10 x,y,-1/2-z
11 -y,x-y,-1/2-z
12 -x+y,-x,-1/2-z
_cell_length_a 19.552(2)
_cell_length_b 19.552(2)
_cell_length_c 10.013(4)
_cell_angle_alpha 90
_cell_angle_beta 90
_cell_angle_gamma 120
_cell_formula_units_Z 6
loop_
_atom_type_symbol
_atom_type_radius_bond
C 0.68
H 0.23
K 2.03
N 0.68
Ni 1.24
O 0.68
loop_
_atom_site_label
_atom_site_type_symbol
_atom_site_fract_x
_atom_site_fract_y
_atom_site_fract_z
C1 C 0.5356(4) 0.9220(5) 0.6327(13)
C2 C 0.5114(8) 0.8813(7) 0.75000
H1 H 0.47893 0.82674 0.75000
C3 C 0.5867(5) 1.0067(4) 0.6407(11)
H2 H 0.60558 1.03450 0.56116
C4 C 0.6077(6) 1.0462(8) 0.75000
C5 C 0.6557(7) 1.1328(10) 0.75000
C6 C 0.5108(5) 0.8811(5) 0.4972(13)
Ni1 Ni 0.49036(9) 0.84808(8) 0.25000
N1 N 0.6831(5) 1.2517(7) 0.75000
N2 N 0.7475(5) 1.2528(7) 0.75000
N3 N 0.7329(6) 1.1776(8) 0.75000
N4 N 0.6225(5) 1.1771(5) 0.75000
O1 O 0.5458(4) 0.9181(4) 0.3989(9)
O2 O 0.4568(4) 0.8104(3) 0.5024(9)
K1 K 0.33333 0.66667 0.5128(5)
O3 O 0.2479(15) 0.5653(16) 0.75000
H3 H 0.19284 0.55149 0.75000
H4 H 0.25077 0.51718 0.75000
C1I C 0.5356(4) 0.9220(5) 0.8673(13)
C3I C 0.5867(5) 1.0067(4) 0.8593(11)
H2I H 0.60558 1.03450 0.93884
C6I C 0.5108(5) 0.8811(5) 1.0028(13)
O1I O 0.5458(4) 0.9181(4) 1.1011(9)
O2I O 0.4568(4) 0.8104(3) 0.9976(9)
Ni1* Ni 0.49036(9) 0.84808(8) 1.25000
Ni1C Ni 0.50964(9) 1.15192(8) 0.75000
Ni1D Ni 0.84808(9) 1.35772(8) 0.75000
N2E N 0.4947(5) 0.7475(7) 0.25000
N4C N 0.3775(5) 0.8229(5) 0.25000
O1I* O 0.5458(4) 0.9181(4) 0.1011(9)
O2I* O 0.4568(4) 0.8104(3) -0.0024(9)
#END
