
#######################################################################
#
#                 Cambridge Crystallographic Data Centre
#                                CCDC
#
#######################################################################
#
# If this CIF has been generated from an entry in the Cambridge
# Structural Database, then it will include bibliographic, chemical,
# crystal, experimental, refinement or atomic coordinate data resulting
# from the CCDC's data processing and validation procedures.
#
#######################################################################

data_CSD_CIF_UHUNIU
_audit_creation_date 2003-10-08
_audit_creation_method CSD-ConQuest-V1
_database_code_CSD UHUNIU
_database_code_depnum_ccdc_archive 'CCDC 213223'
_chemical_formula_sum 'C46 H48 Fe1 Mn2 N11 O4'
_chemical_formula_moiety
;
(C8 H20 N1 1+)n,n(C38 H28 Fe1 Mn2 N10 O4 1-)
;
_journal_coden_Cambridge 9
_journal_volume 42
_journal_year 2003
_journal_page_first 3509
_journal_name_full 'Inorg.Chem. '
loop_
_publ_author_name
"H.Miyasaka"
"H.Ieda"
"N.Matsumoto"
"K.-i.Sugiura"
"M.Yamashita"
_chemical_name_systematic
;
catena-(Tetraethylammonium 
tetrakis(\m~2~-cyano)-dicyano-bis(N,N'-ethylenebis(salicylideneiminato))-iron-
di-manganese)
;
_chemical_melting_point 573.15
_cell_volume   2283.832
_exptl_crystal_colour 'brown'
_exptl_crystal_density_diffrn 1.432
_exptl_special_details
;
Melts above 573.15K
isostructural with the 5-chloro analogue

;
_exptl_crystal_description 'block'
_diffrn_ambient_temperature 123.1
_refine_special_details
;
The cation is disordered over two sites.

;
#These two values have been output from a single CSD field.
_refine_ls_R_factor_gt 0.058
_refine_ls_wR_factor_gt 0.058
_symmetry_cell_setting monoclinic
_symmetry_space_group_name_H-M 'P 21/c'
_symmetry_Int_Tables_number 14
loop_
_symmetry_equiv_pos_site_id
_symmetry_equiv_pos_as_xyz
1 x,y,z
2 x,1/2-y,1/2+z
3 -x,-y,-z
4 -x,-1/2+y,-1/2-z
_cell_length_a 12.3660(8)
_cell_length_b 15.311(1)
_cell_length_c 12.918(1)
_cell_angle_alpha 90
_cell_angle_beta 110.971(4)
_cell_angle_gamma 90
_cell_formula_units_Z 2
loop_
_atom_type_symbol
_atom_type_radius_bond
C 0.68
H 0.23
Fe 1.34
Mn 1.35
N 0.68
O 0.68
loop_
_atom_site_label
_atom_site_type_symbol
_atom_site_fract_x
_atom_site_fract_y
_atom_site_fract_z
Fe1 Fe 0.00000 0.50000 -0.50000
Mn1 Mn 0.09299(4) 0.19701(3) -0.28462(3)
O1 O 0.0036(2) 0.1359(1) -0.4139(2)
O2 O 0.2373(2) 0.1714(1) -0.2990(2)
N1 N -0.0496(2) 0.2301(2) -0.2552(2)
N2 N 0.1697(2) 0.2664(2) -0.1468(2)
N3 N 0.0794(2) 0.3279(2) -0.3702(2)
N4 N -0.0974(2) 0.5765(2) -0.3279(2)
N5 N 0.2318(3) 0.5955(2) -0.3750(3)
N6 N 0.50000 0.00000 0.00000
C1 C -0.1012(3) 0.1021(2) -0.4371(2)
C2 C -0.1428(3) 0.0434(2) -0.5270(3)
C3 C -0.2493(3) 0.0044(2) -0.5545(3)
C4 C -0.3204(3) 0.0222(2) -0.4924(3)
C5 C -0.2833(3) 0.0814(2) -0.4062(3)
C6 C -0.1756(3) 0.1237(2) -0.3785(3)
C7 C -0.1464(3) 0.1903(2) -0.2929(3)
C8 C -0.0300(3) 0.3018(2) -0.1734(3)
C9 C 0.0914(3) 0.2897(2) -0.0877(3)
C10 C 0.2743(3) 0.2952(2) -0.1138(3)
C11 C 0.3596(3) 0.2720(2) -0.1622(3)
C12 C 0.4714(3) 0.3088(2) -0.1130(3)
C13 C 0.5612(3) 0.2874(2) -0.1471(3)
C14 C 0.5390(3) 0.2255(2) -0.2342(3)
C15 C 0.4314(3) 0.1897(2) -0.2836(3)
C16 C 0.3380(3) 0.2111(2) -0.2501(3)
C17 C 0.0521(3) 0.3936(2) -0.4158(2)
C18 C 0.0617(3) 0.4547(2) -0.6082(3)
C19 C 0.1456(3) 0.5585(2) -0.4210(3)
C20 C 0.4550(7) 0.0113(5) 0.0964(6)
C21 C 0.4228(6) 0.0770(4) -0.0242(6)
C22 C 0.4003(6) -0.0055(5) -0.1116(6)
C23 C 0.3287(4) -0.0989(4) -0.1084(5)
C24 C 0.4348(6) -0.0863(4) 0.0111(6)
C25 C 0.3727(4) 0.0946(3) 0.0759(4)
H1 H -0.0955(3) 0.0299(2) -0.5688(3)
H2 H -0.2759(3) -0.0343(2) -0.6160(3)
H3 H -0.3925(3) -0.0069(2) -0.5090(3)
H4 H -0.3314(3) 0.0938(2) -0.3648(3)
H5 H -0.2040(3) 0.2057(2) -0.2634(3)
H6 H -0.0853(3) 0.2985(2) -0.1380(3)
H7 H -0.0360(3) 0.3570(2) -0.2088(3)
H8 H 0.0912(3) 0.2445(2) -0.0374(3)
H9 H 0.1165(3) 0.3427(2) -0.0481(3)
H10 H 0.2973(3) 0.3349(2) -0.0533(3)
H11 H 0.4846(3) 0.3500(2) -0.0547(3)
H12 H 0.6355(3) 0.3131(2) -0.1136(3)
H13 H 0.5997(3) 0.2089(2) -0.2591(3)
H14 H 0.4194(3) 0.1484(2) -0.3415(3)
N3C N -0.0794(2) 0.8279(2) -0.1298(2)
Mn1C Mn -0.09299(4) 0.69701(3) -0.21538(3)
O1C O -0.0036(2) 0.6359(1) -0.0861(2)
C1C C 0.1012(3) 0.6021(2) -0.0629(2)
C2C C 0.1428(3) 0.5434(2) 0.0270(3)
C3C C 0.2493(3) 0.5044(2) 0.0545(3)
C4C C 0.3204(3) 0.5222(2) -0.0076(3)
C5C C 0.2833(3) 0.5814(2) -0.0938(3)
C6C C 0.1756(3) 0.6237(2) -0.1215(3)
C7C C 0.1464(3) 0.6903(2) -0.2071(3)
N1C N 0.0496(2) 0.7301(2) -0.2448(2)
O2C O -0.2373(2) 0.6714(1) -0.2010(2)
C16C C -0.3380(3) 0.7111(2) -0.2499(3)
C11C C -0.3596(3) 0.7720(2) -0.3378(3)
C10C C -0.2743(3) 0.7952(2) -0.3862(3)
N2C N -0.1697(2) 0.7664(2) -0.3532(2)
N4C N 0.0974(2) 0.0765(2) -0.1721(2)
C18B C -0.0617(3) 0.5453(2) -0.3918(3)
C17B C -0.0521(3) 0.6064(2) -0.5842(2)
C19B C -0.1456(3) 0.4415(2) -0.5790(3)
N5B N -0.2318(3) 0.4045(2) -0.6250(3)
C9C C -0.0914(3) 0.7897(2) -0.4123(3)
C8C C 0.0300(3) 0.8018(2) -0.3266(3)
H6C H 0.0853(3) 0.7985(2) -0.3620(3)
H7C H 0.0360(3) 0.8570(2) -0.2912(3)
H8C H -0.0912(3) 0.7445(2) -0.4626(3)
H9C H -0.1165(3) 0.8427(2) -0.4519(3)
H10C H -0.2973(3) 0.8349(2) -0.4467(3)
C12C C -0.4714(3) 0.8088(2) -0.3870(3)
C13C C -0.5612(3) 0.7874(2) -0.3529(3)
C14C C -0.5390(3) 0.7255(2) -0.2658(3)
C15C C -0.4314(3) 0.6897(2) -0.2164(3)
H14C H -0.4194(3) 0.6484(2) -0.1585(3)
H13C H -0.5997(3) 0.7089(2) -0.2409(3)
H12C H -0.6355(3) 0.8131(2) -0.3864(3)
H11C H -0.4846(3) 0.8500(2) -0.4453(3)
H5C H 0.2040(3) 0.7057(2) -0.2366(3)
H4C H 0.3314(3) 0.5938(2) -0.1352(3)
H3C H 0.3925(3) 0.4931(2) 0.0090(3)
H2C H 0.2759(3) 0.4657(2) 0.1160(3)
H1C H 0.0955(3) 0.5299(2) 0.0688(3)
C22B C 0.5997(6) 0.0055(5) 0.1116(6)
C20B C 0.5450(7) -0.0113(5) -0.0964(6)
C21B C 0.5772(6) -0.0770(4) 0.0242(6)
C23B C 0.6713(4) 0.0989(4) 0.1084(5)
C24B C 0.5652(6) 0.0863(4) -0.0111(6)
C25B C 0.6273(4) -0.0946(3) -0.0759(4)
N4B N 0.0974(2) 0.4235(2) -0.6721(2)
N3B N -0.0794(2) 0.6721(2) -0.6298(2)
Mn1A Mn 0.09299(4) 0.30299(3) -0.78462(3)
Mn1B Mn -0.09299(4) 0.80299(3) -0.71538(3)
#END
