
#######################################################################
#
#                 Cambridge Crystallographic Data Centre
#                                CCDC
#
#######################################################################
#
# If this CIF has been generated from an entry in the Cambridge
# Structural Database, then it will include bibliographic, chemical,
# crystal, experimental, refinement or atomic coordinate data resulting
# from the CCDC's data processing and validation procedures.
#
#######################################################################

data_CSD_CIF_UJIGOJ
_audit_creation_date 2003-12-08
_audit_creation_method CSD-ConQuest-V1
_database_code_CSD UJIGOJ
_database_code_depnum_ccdc_archive 'CCDC 186445'
_chemical_formula_sum 'C18 H92 N18 O52 V18 Zn4'
_chemical_formula_moiety
;
(C10 H40 N10 Zn2 4+)n,n(C8 H32 N8 O42 V18 Zn2 4-),10n(H2 O1)
;
_journal_coden_Cambridge 9
_journal_volume 42
_journal_year 2003
_journal_page_first 3125
_journal_name_full 'Inorg.Chem. '
loop_
_publ_author_name
"M.I.Khan"
"E.Yohannes"
"R.J.Doedens"
_chemical_name_systematic
;
catena-((\m~2~-Ethylene-1,2-diamine-N,N')-tetrakis(ethylene-1,2-diamine-N,N')-
di-zinc 
tetracosakis(\m~3~-oxo)-tetrakis(\m~2~-oxo)-tetrakis(ethylene-1,2-diamine-N,N'
)-tetradecaoxo-octadeca-vanadium(iv,v)-di-zinc decahydrate)
;
_cell_volume   4078.162
_exptl_crystal_colour 'dark brown'
_exptl_crystal_density_diffrn 2.094
_exptl_special_details
;
isomorphous with the cadmium/chloro, cadmium/bromo and zinc/chloro analogues

;
_exptl_crystal_description 'thin plate'
_diffrn_ambient_temperature 183
#These two values have been output from a single CSD field.
_refine_ls_R_factor_gt 0.0641
_refine_ls_wR_factor_gt 0.0641
_symmetry_cell_setting monoclinic
_symmetry_space_group_name_H-M 'P 21/m'
_symmetry_Int_Tables_number 11
loop_
_symmetry_equiv_pos_site_id
_symmetry_equiv_pos_as_xyz
1 x,y,z
2 x,1/2-y,z
3 -x,-y,-z
4 -x,-1/2+y,-z
_cell_length_a 12.3723(7)
_cell_length_b 20.9837(11)
_cell_length_c 15.8379(8)
_cell_angle_alpha 90
_cell_angle_beta 97.332(1)
_cell_angle_gamma 90
_cell_formula_units_Z 2
loop_
_atom_type_symbol
_atom_type_radius_bond
C 0.68
N 0.68
O 0.68
V 1.22
Zn 1.45
loop_
_atom_site_label
_atom_site_type_symbol
_atom_site_fract_x
_atom_site_fract_y
_atom_site_fract_z
Zn1 Zn 0.14527(8) 0.75000 0.02586(6)
Zn2 Zn 0.50000 0.50000 0.00000
Zn3 Zn 0.26879(6) 0.55247(4) 0.43172(5)
V1 V 0.3995(1) 0.75000 0.27939(8)
V2 V 0.43584(10) 0.75000 0.09760(8)
V3 V 0.63743(10) 0.75000 0.02760(8)
V4 V -0.1224(1) 0.75000 0.08528(8)
V5 V -0.03760(11) 0.75000 0.42392(9)
V6 V -0.46182(11) 0.75000 0.45110(9)
V7 V -0.04109(8) 0.66223(5) 0.28613(6)
V8 V -0.20428(8) 0.66090(5) 0.46554(6)
V9 V 0.51851(7) 0.62471(4) 0.15401(6)
V10 V -0.18837(8) 0.62177(4) 0.13040(6)
V11 V -0.43185(8) 0.62217(4) 0.38978(6)
V12 V -0.29517(8) 0.56963(5) 0.27140(6)
O1 O 0.2715(5) 0.75000 0.2870(4)
O2 O 0.3274(5) 0.75000 0.0264(4)
O3 O 0.6094(5) 0.75000 -0.0751(4)
O4 O -0.0406(5) 0.75000 0.0116(4)
O5 O 0.0724(5) 0.75000 0.4913(4)
O6 O -0.5327(5) 0.75000 0.5294(4)
O7 O 0.0711(4) 0.6221(3) 0.2930(3)
O8 O -0.1620(4) 0.6248(2) 0.5543(3)
O9 O 0.4474(3) 0.5677(2) 0.1030(3)
O10 O -0.1410(4) 0.5642(2) 0.0752(3)
O11 O -0.4910(4) 0.5681(2) 0.4416(3)
O12 O -0.2876(4) 0.4922(2) 0.2713(3)
O13 O 0.4222(3) 0.69006(18) 0.1888(2)
O14 O -0.5306(3) 0.69153(18) 0.3661(2)
O15 O 0.5426(3) 0.68890(18) 0.0707(2)
O16 O -0.2437(3) 0.69135(18) 0.0573(2)
O17 O -0.0751(3) 0.6837(2) 0.1665(2)
O18 O -0.0093(5) 0.75000 0.3070(4)
O19 O -0.0855(3) 0.6637(2) 0.3973(3)
O20 O -0.1659(5) 0.75000 0.4804(4)
O21 O -0.3583(3) 0.6845(2) 0.4696(3)
O22 O -0.1568(4) 0.6045(2) 0.2513(3)
O23 O -0.2800(3) 0.6003(2) 0.3868(3)
O24 O -0.4450(3) 0.59938(19) 0.2720(3)
O25 O -0.3313(3) 0.59914(19) 0.1552(3)
O26 O 0.6948(10) 0.75000 0.2667(8)
O27 O 1.0237(5) 0.4979(3) 0.1812(4)
O28 O 0.8193(5) 0.5649(4) -0.0982(4)
O29 O 0.8973(8) 0.4149(5) 0.2685(6)
O30 O 0.3711(14) 0.75000 -0.1742(11)
O31 O 0.8881(10) 0.6835(6) -0.1436(8)
N1 N 0.1570(4) 0.6755(3) 0.1167(3)
N2 N 0.1279(5) 0.6723(4) -0.0614(4)
N3 N 0.4247(5) 0.4233(3) 0.0599(4)
N4 N 0.6420(5) 0.4670(3) 0.0738(4)
N5 N 0.3416(5) 0.5462(3) 0.5585(4)
N6 N 0.2596(5) 0.6514(3) 0.4649(5)
N7 N 0.3363(5) 0.4612(3) 0.3968(4)
N8 N 0.2903(5) 0.5738(3) 0.3054(4)
N9 N 0.1072(5) 0.5196(3) 0.4270(4)
C1 C 0.1758(6) 0.6156(4) 0.0720(6)
C2 C 0.1059(7) 0.6151(4) -0.0122(7)
C3 C 0.5042(6) 0.4034(3) 0.1331(5)
C4 C 0.6181(6) 0.4027(3) 0.1057(5)
C5 C 0.3654(6) 0.6110(3) 0.5937(5)
C6 C 0.2725(6) 0.6547(3) 0.5588(6)
C7 C 0.3736(8) 0.4700(5) 0.3136(6)
C8 C 0.3059(8) 0.5152(5) 0.2617(5)
C9 C 0.0562(5) 0.5156(3) 0.5070(4)
C9B C -0.0562(5) 0.4844(3) 0.4930(4)
N9B N -0.1072(5) 0.4804(3) 0.5730(4)
N1A N 0.1570(4) 0.8245(3) 0.1167(3)
N2A N 0.1279(5) 0.8277(4) -0.0614(4)
C1A C 0.1758(6) 0.8844(4) 0.0720(6)
C2A C 0.1059(7) 0.8849(4) -0.0122(7)
O13A O 0.4222(3) 0.80994(18) 0.1888(2)
O15A O 0.5426(3) 0.81110(18) 0.0707(2)
V10A V -0.18837(8) 0.87823(4) 0.13040(6)
V11A V -0.43185(8) 0.87783(4) 0.38978(6)
V12A V -0.29517(8) 0.93037(5) 0.27140(6)
O10A O -0.1410(4) 0.9358(2) 0.0752(3)
O11A O -0.4910(4) 0.9319(2) 0.4416(3)
O12A O -0.2876(4) 1.0078(2) 0.2713(3)
O14A O -0.5306(3) 0.80847(18) 0.3661(2)
O16A O -0.2437(3) 0.80865(18) 0.0573(2)
O17A O -0.0751(3) 0.8163(2) 0.1665(2)
O21A O -0.3583(3) 0.8155(2) 0.4696(3)
O22A O -0.1568(4) 0.8955(2) 0.2513(3)
O23A O -0.2800(3) 0.8997(2) 0.3868(3)
O24A O -0.4450(3) 0.90062(19) 0.2720(3)
O25A O -0.3313(3) 0.90086(19) 0.1552(3)
V7A V -0.04109(8) 0.83777(5) 0.28613(6)
V8A V -0.20428(8) 0.83910(5) 0.46554(6)
V9A V 0.51851(7) 0.87529(4) 0.15401(6)
O7A O 0.0711(4) 0.8779(3) 0.2930(3)
O19A O -0.0855(3) 0.8363(2) 0.3973(3)
O8A O -0.1620(4) 0.8752(2) 0.5543(3)
O9A O 0.4474(3) 0.9323(2) 0.1030(3)
N3B N 0.5753(5) 0.5767(3) -0.0599(4)
N4B N 0.3580(5) 0.5330(3) -0.0738(4)
C3B C 0.4958(6) 0.5966(3) -0.1331(5)
C4B C 0.3819(6) 0.5973(3) -0.1057(5)
Zn3B Zn -0.26879(6) 0.44753(4) 0.56828(5)
N5B N -0.3416(5) 0.4538(3) 0.4415(4)
N6B N -0.2596(5) 0.3486(3) 0.5351(5)
C5B C -0.3654(6) 0.3890(3) 0.4063(5)
C6B C -0.2725(6) 0.3453(3) 0.4412(6)
N7B N -0.3363(5) 0.5388(3) 0.6032(4)
N8B N -0.2903(5) 0.4262(3) 0.6946(4)
C7B C -0.3736(8) 0.5300(5) 0.6864(6)
C8B C -0.3059(8) 0.4848(5) 0.7383(5)
O9B O 0.5526(3) 0.4323(2) -0.1030(3)
O14* O 0.4694(3) 0.69153(18) 0.3661(2)
O14A* O 0.4694(3) 0.80847(18) 0.3661(2)
O16* O 0.7563(3) 0.69135(18) 0.0573(2)
O16A* O 0.7563(3) 0.80865(18) 0.0573(2)
O24* O 0.5550(3) 0.59938(19) 0.2720(3)
O25* O 0.6687(3) 0.59914(19) 0.1552(3)
V1* V -0.6005(1) 0.75000 0.27939(8)
V3* V -0.36257(10) 0.75000 0.02760(8)
V9* V -0.48149(7) 0.62471(4) 0.15401(6)
V9A* V -0.48149(7) 0.87529(4) 0.15401(6)
O24A* O 0.5550(3) 0.90062(19) 0.2720(3)
O25A* O 0.6687(3) 0.90086(19) 0.1552(3)
Zn2A Zn 0.50000 1.00000 0.00000
#END
