
#######################################################################
#
#                 Cambridge Crystallographic Data Centre
#                                CCDC
#
#######################################################################
#
# If this CIF has been generated from an entry in the Cambridge
# Structural Database, then it will include bibliographic, chemical,
# crystal, experimental, refinement or atomic coordinate data resulting
# from the CCDC's data processing and validation procedures.
#
#######################################################################

data_CSD_CIF_UJUJUE
_audit_creation_date 2003-12-08
_audit_creation_method CSD-ConQuest-V1
_database_code_CSD UJUJUE
_database_code_depnum_ccdc_archive 'CCDC 205570'
_chemical_formula_sum 'C24 H24 N5 O10 Tb1'
_chemical_formula_moiety
;
(H4 N1 1+)n,n(C24 H16 N4 O8 Tb1 1-),2n(H2 O1)
;
_journal_coden_Cambridge 440
_journal_volume 27
_journal_year 2003
_journal_page_first 1070
_journal_name_full 'New J.Chem. '
loop_
_publ_author_name
"D.Sendor"
"M.Hilder"
"T.Juestel"
"P.C.Junk"
"U.H.Kynast"
_chemical_name_systematic
;
catena-(Ammonium (\m~2~-picolinato-N,O,O')-tris(picolinato-N,O)-terbium(iii) 
dihydrate)
;
_chemical_melting_point 578.15
_cell_volume   8822.036
_exptl_crystal_density_diffrn 1.584
_exptl_special_details
;
Melts with decomposition.
luminescent
isomorphous and isostructural with the Na-Eu, Na-Gd, Na-Tb and Na-Ho 
;
_diffrn_ambient_temperature 296
#These two values have been output from a single CSD field.
_refine_ls_R_factor_gt 0.0982
_refine_ls_wR_factor_gt 0.0982
_symmetry_cell_setting hexagonal
_symmetry_space_group_name_H-M 'P 65 2 2'
_symmetry_Int_Tables_number 179
loop_
_symmetry_equiv_pos_site_id
_symmetry_equiv_pos_as_xyz
1 x,y,z
2 x-y,x,-1/6+z
3 -y,x-y,-1/3+z
4 -x,-y,1/2+z
5 -x+y,-x,1/3+z
6 y,-x+y,1/6+z
7 x-y,-y,-z
8 -x,-x+y,1/3-z
9 y,x,-1/3-z
10 -y,-x,1/6-z
11 -x+y,y,1/2-z
12 x,x-y,-1/6-z
_cell_length_a 12.7708(7)
_cell_length_b 12.7708(7)
_cell_length_c 62.460(5)
_cell_angle_alpha 90
_cell_angle_beta 90
_cell_angle_gamma 120
_cell_formula_units_Z 12
loop_
_atom_type_symbol
_atom_type_radius_bond
C 0.68
H 0.23
N 0.68
O 0.68
Tb 1.76
loop_
_atom_site_label
_atom_site_type_symbol
_atom_site_fract_x
_atom_site_fract_y
_atom_site_fract_z
Tb1 Tb 0.92856(9) 0.46163(10) 0.005530(12)
O1 O 0.8304(13) 0.3734(13) -0.0265(2)
O2 O 1.0779(15) 0.6528(13) 0.0193(3)
O3 O 0.7540(11) 0.4757(12) 0.00152(18)
O4 O 0.9882(14) 0.3882(14) 0.0348(2)
O5 O 1.157(2) 0.451(2) 0.0761(3)
O6 O 0.761(3) 0.240(3) -0.0524(3)
O7 O 1.2233(18) 0.8419(16) 0.0170(3)
O8 O 0.5876(11) 0.4826(13) 0.0119(3)
O9 O 0.9587(14) 0.2594(16) 0.0607(2)
O10 O 0.9391(10) 0.061(1) 0.08330
O11 O 0.924(3) 0.4622(17) -0.08330
N1 N 0.9508(14) 0.2701(14) -0.0088(2)
N2 N 0.9924(16) 0.6567(17) -0.0178(3)
N3 N 0.8450(16) 0.5119(16) 0.0403(3)
N4 N 0.7594(15) 0.2621(16) 0.0210(2)
N5 N 1.246(2) 0.621(2) 0.0432(4)
C1 C 1.0199(18) 0.2284(18) -0.0020(3)
H1 H 1.05750 0.25310 0.01140
C2 C 0.945(2) 0.657(2) -0.0377(3)
H2 H 0.87840 0.58530 -0.04300
C3 C 0.896(2) 0.535(2) 0.0601(3)
H3 H 0.96780 0.53350 0.06220
C4 C 0.640(2) 0.205(2) 0.0151(4)
H4 H 0.61290 0.23780 0.00430
C5 C 1.038(2) 0.153(2) -0.0135(3)
H5 H 1.09660 0.13490 -0.00890
C6 C 0.993(3) 0.759(3) -0.0496(5)
H6 H 0.95910 0.75810 -0.06290
C7 C 0.846(2) 0.561(3) 0.0768(4)
H7 H 0.88860 0.59050 0.08970
C8 C 0.561(2) 0.101(2) 0.0254(4)
H8 H 0.48210 0.05440 0.01990
C9 C 0.977(4) 0.101(4) -0.0314(7)
H9 H 0.98700 0.04160 -0.03840
C10 C 1.085(3) 0.857(3) -0.0431(4)
H10 H 1.11920 0.92790 -0.05150
C11 C 0.729(2) 0.544(3) 0.0747(4)
H11 H 0.68790 0.55030 0.08670
C12 C 0.592(2) 0.060(2) 0.0439(4)
H12 H 0.53520 -0.00680 0.05180
C13 C 0.902(2) 0.135(2) -0.0390(4)
H13 H 0.85380 0.09680 -0.05100
C14 C 1.130(2) 0.855(2) -0.0236(4)
H14 H 1.19610 0.92740 -0.01840
C15 C 0.675(2) 0.518(2) 0.0548(3)
H15 H 0.59780 0.50900 0.05280
C16 C 0.708(2) 0.124(2) 0.0495(4)
H16 H 0.73370 0.10160 0.06190
C17 C 0.8975(17) 0.2301(17) -0.0284(3)
C18 C 1.0890(17) 0.7618(16) -0.0118(3)
C19 C 0.7371(19) 0.5074(18) 0.0385(3)
C20 C 0.789(2) 0.219(2) 0.0378(4)
C21 C 0.828(2) 0.285(2) -0.0364(3)
C22 C 1.1324(19) 0.7473(19) 0.0106(3)
C23 C 0.6855(15) 0.4809(15) 0.0166(3)
C24 C 0.9225(19) 0.2944(19) 0.0448(3)
O8F O 1.1050(11) 0.5174(13) -0.0119(3)
Tb1F Tb 0.46693(9) 0.53837(10) -0.005530(12)
#END
