
#######################################################################
#
#                 Cambridge Crystallographic Data Centre
#                                CCDC
#
#######################################################################
#
# If this CIF has been generated from an entry in the Cambridge
# Structural Database, then it will include bibliographic, chemical,
# crystal, experimental, refinement or atomic coordinate data resulting
# from the CCDC's data processing and validation procedures.
#
#######################################################################

data_CSD_CIF_UJUPOG
_audit_creation_date 2016-04-04
_audit_creation_method CSD-ConQuest-V1
_database_code_CSD UJUPOG
_database_code_depnum_ccdc_archive 'CCDC 1448085'
_chemical_formula_sum 'C18 H45 N15 O8 S2 Zn2'
_chemical_formula_moiety
;
(C6 H9 N12 O8 S2 Zn2 3-)n,3n(C4 H12 N1 1+)
;
_journal_coden_Cambridge 182
_journal_volume 52
_journal_year 2016
_journal_page_first 5625
_journal_name_full 'Chem.Commun. '
loop_
_publ_author_name
"Yu-Huan Tang"
"Fei Wang"
"Jin-Xiu Liu"
"Jian Zhang"
_chemical_name_systematic
;
catena-[tris(diethylammonium) 
tris(\m-5-methyltetrazolato)-bis(sulfato)-di-zinc]
;
_cell_volume   4110.068
_exptl_crystal_colour 'colorless'
_exptl_crystal_density_diffrn 1.284
_exptl_crystal_description 'block'
_diffrn_ambient_temperature 293
#These two values have been output from a single CSD field.
_refine_ls_R_factor_gt 0.0793
_refine_ls_wR_factor_gt 0.0793
_symmetry_cell_setting orthorhombic
_symmetry_space_group_name_H-M 'P 21 21 21'
_symmetry_Int_Tables_number 19
loop_
_symmetry_equiv_pos_site_id
_symmetry_equiv_pos_as_xyz
1 x,y,z
2 1/2-x,-y,1/2+z
3 -x,1/2+y,1/2-z
4 1/2+x,1/2-y,-z
_cell_length_a 15.7886(13)
_cell_length_b 15.9425(9)
_cell_length_c 16.3286(7)
_cell_angle_alpha 90
_cell_angle_beta 90
_cell_angle_gamma 90
_cell_formula_units_Z 4
loop_
_atom_type_symbol
_atom_type_radius_bond
C 0.68
H 0.23
N 0.68
O 0.68
S 1.02
Zn 1.22
loop_
_atom_site_label
_atom_site_type_symbol
_atom_site_fract_x
_atom_site_fract_y
_atom_site_fract_z
Zn1 Zn 0.29782(9) 1.18239(9) 0.16349(8)
Zn2 Zn 0.35625(8) 0.84386(9) 0.32429(8)
S1 S 0.2438(2) 0.7244(2) 0.2232(2)
S2 S 0.1925(3) 1.2819(3) 0.2861(2)
N1 N 0.3569(6) 0.9508(6) 0.2637(6)
N2 N 0.3386(6) 1.0749(7) 0.2141(6)
N3 N 0.2017(7) 1.1419(7) -0.0688(6)
C1 C 0.3018(8) 1.0140(8) 0.2491(7)
N4 N 0.5995(7) 0.7531(7) 0.3524(5)
N5 N 0.4758(6) 0.8101(6) 0.3499(5)
N6 N 0.2529(7) 1.1508(6) 0.0537(6)
C2 C 0.5338(8) 0.7720(7) 0.3057(6)
C3 C 0.2218(7) 1.1929(7) -0.0097(7)
O1 O 0.3198(8) 0.7460(9) 0.2658(8)
N7 N 0.4236(7) 1.0537(9) 0.2066(9)
N8 N 0.4347(7) 0.9814(9) 0.2380(8)
N9 N 0.5036(9) 0.8125(9) 0.4284(7)
N10 N 0.5791(8) 0.7769(9) 0.4306(7)
C4 C 0.2099(8) 1.0072(10) 0.2611(11)
H1 H 0.19720 0.95570 0.28900
H2 H 0.19040 1.05370 0.29330
H3 H 0.18210 1.00770 0.20880
O2 O 0.1847(8) 0.7936(8) 0.2207(9)
C5 C 0.5300(9) 0.7588(12) 0.2191(8)
H4 H 0.57990 0.72960 0.20140
H5 H 0.48080 0.72600 0.20600
H6 H 0.52670 0.81200 0.19170
O3 O 0.2070(9) 0.6567(8) 0.2690(9)
O4 O 0.2669(12) 0.6939(9) 0.1464(6)
N11 N 0.2222(12) 1.0623(8) -0.0409(9)
O5 O 0.2026(8) 1.2329(10) 0.2120(8)
C6 C 0.2093(12) 1.2833(9) -0.0107(8)
H7 H 0.22920 1.30680 0.03990
H8 H 0.24040 1.30720 -0.05550
H9 H 0.15010 1.29550 -0.01720
N12 N 0.2502(12) 1.0698(8) 0.0341(8)
O6 O 0.1112(9) 1.304(2) 0.2961(12)
O7 O 0.2580(14) 1.3445(14) 0.2927(11)
O8 O 0.215(2) 1.237(2) 0.3529(8)
N13 N 0.7175(8) 0.9994(9) 0.2622(9)
H10 H 0.74560 1.04570 0.24840
H11 H 0.74350 0.95500 0.24090
C7 C 0.6486(16) 1.0132(12) 0.1441(10)
H12 H 0.59730 1.01750 0.11290
H13 H 0.68190 1.06300 0.13630
H14 H 0.68020 0.96520 0.12630
C8 C 0.6265(9) 1.004(3) 0.2362(9)
H15 H 0.59700 1.05210 0.25830
H16 H 0.59530 0.95280 0.24810
C9 C 0.7078(12) 0.992(2) 0.3532(8)
H17 H 0.67870 0.94040 0.36830
H18 H 0.67770 1.03940 0.37610
C10 C 0.8017(12) 0.990(2) 0.3808(17)
H19 H 0.78330 0.97570 0.43490
H20 H 0.84050 0.94880 0.36100
H21 H 0.82950 1.04400 0.38240
N14 N -0.0227(10) 1.231(1) 0.2099(7)
H22 H -0.07240 1.24550 0.23140
H23 H 0.01870 1.25750 0.23640
C11 C -0.0197(17) 1.2482(11) 0.1196(8)
H24 H -0.06210 1.21650 0.08980
H25 H 0.03590 1.23740 0.09660
C12 C -0.0406(18) 1.3431(11) 0.1224(15)
H26 H -0.04140 1.36520 0.06780
H27 H -0.09510 1.35110 0.14730
H28 H 0.00170 1.37180 0.15400
C13 C -0.0102(16) 1.1378(10) 0.2108(11)
H29 H 0.04140 1.12320 0.18180
H30 H -0.05740 1.11020 0.18390
C14 C -0.004(2) 1.109(3) 0.3013(12)
H31 H 0.00370 1.04940 0.30330
H32 H 0.04270 1.13640 0.32730
H33 H -0.05580 1.12350 0.32930
N15 N 0.2506(11) 0.8026(9) 0.0097(7)
H34 H 0.25760 0.76460 0.04910
H35 H 0.26930 0.78180 -0.03760
C15 C 0.1601(10) 0.8305(15) 0.003(3)
H36 H 0.14920 0.86480 -0.04440
H37 H 0.14010 0.85840 0.05260
C16 C 0.2931(11) 0.8840(14) 0.030(3)
H38 H 0.27650 0.90420 0.08400
H39 H 0.28150 0.92680 -0.01030
C17 C 0.3873(13) 0.8564(17) 0.0288(15)
H40 H 0.42270 0.90360 0.04140
H41 H 0.39620 0.81310 0.06870
H42 H 0.40120 0.83540 -0.02460
C18 C 0.126(2) 0.7398(15) -0.0052(18)
H43 H 0.06520 0.74130 -0.01040
H44 H 0.14990 0.71410 -0.05300
H45 H 0.14100 0.70790 0.04240
Zn1B Zn 0.70218(9) 0.68239(9) 0.33651(8)
Zn2A Zn 0.14375(8) 1.15614(9) -0.17571(8)
N3A N 0.2983(7) 0.8581(7) 0.4312(6)
N4B N 0.4005(7) 1.2531(7) 0.1476(5)
#END
