
#######################################################################
#
#                 Cambridge Crystallographic Data Centre
#                                CCDC
#
#######################################################################
#
# If this CIF has been generated from an entry in the Cambridge
# Structural Database, then it will include bibliographic, chemical,
# crystal, experimental, refinement or atomic coordinate data resulting
# from the CCDC's data processing and validation procedures.
#
#######################################################################

data_CSD_CIF_UKAQOO
_audit_creation_date 2016-04-04
_audit_creation_method CSD-ConQuest-V1
_database_code_CSD UKAQOO
_database_code_depnum_ccdc_archive 'CCDC 1449712'
_chemical_formula_sum 'C168 H318 O195 S24 Tb8'
_chemical_formula_moiety
;
(C112 H140 O94 S16 Tb5 1-)n,n(C56 H76 O50 S8 Tb3 1+),51n(H2 O1)
;
_journal_coden_Cambridge 1350
_journal_volume 18
_journal_year 2016
_journal_page_first 4977
_journal_name_full 'CrystEngComm '
loop_
_publ_author_name
"D.M.Miller-Shakesby"
"B.P.Burke"
"Shubhanchi Nigam"
"G.J.Stasiuk"
"T.J.Prior"
"S.J.Archibald"
"C.Redshaw"
_chemical_name_systematic
;
catena-(bis(\m~3~-5,11,17,23-Tetrasulfonato-25,26,27,28-tetrahydroxycalix(4)ar
ene)-octadeca-aqua-tri-terbium 
bis(\m~3~-5,11,17,23-tetrasulfonato-25,26,27,28-tetrahydroxycalix(4)arene)-bis
(\m~2~-5,11,17,23-tetrasulfonato-25,26,27,28-tetrahydroxycalix(4)arene)-triaco
nta-aqua-penta-terbium henpentacontahydrate)
;
_cell_volume  13931.725
_exptl_crystal_colour 'colorless'
_exptl_crystal_description 'block'
_diffrn_ambient_temperature 150
_diffrn_special_details
;
twin

;
#These two values have been output from a single CSD field.
_refine_ls_R_factor_gt 0.0838
_refine_ls_wR_factor_gt 0.0838
_symmetry_cell_setting triclinic
_symmetry_space_group_name_H-M 'P -1'
_symmetry_Int_Tables_number 2
loop_
_symmetry_equiv_pos_site_id
_symmetry_equiv_pos_as_xyz
1 x,y,z
2 -x,-y,-z
_cell_length_a 16.504(4)
_cell_length_b 23.227(3)
_cell_length_c 38.406(7)
_cell_angle_alpha 73.798(12)
_cell_angle_beta 80.363(16)
_cell_angle_gamma 85.658(15)
_cell_formula_units_Z 2
loop_
_atom_type_symbol
_atom_type_radius_bond
C 0.68
H 0.23
O 0.68
S 1.02
Tb 1.94
loop_
_atom_site_label
_atom_site_type_symbol
_atom_site_fract_x
_atom_site_fract_y
_atom_site_fract_z
Tb1 Tb 0.64901(3) 0.06718(2) 0.22347(2)
O1 O 0.6789(6) 0.1490(4) 0.1700(2)
O2 O 0.5163(5) 0.0912(5) 0.2077(3)
O3 O 0.5818(5) -0.0267(4) 0.2425(2)
O4 O 0.7593(5) -0.0066(4) 0.2316(2)
O5 O 0.6328(5) 0.0280(3) 0.2893(2)
O6 O 0.5969(6) 0.1512(4) 0.2468(2)
Tb2 Tb 0.64073(3) 0.11587(2) -0.00740(2)
O7 O 0.5739(6) 0.0401(4) -0.0255(3)
O8 O 0.5045(5) 0.1027(4) 0.0253(3)
O9 O 0.6349(5) 0.1575(3) -0.0716(2)
O10 O 0.5827(6) 0.2146(4) -0.0185(2)
O11 O 0.7632(6) 0.1740(4) -0.0271(2)
O12 O 0.6616(6) 0.0311(4) 0.0411(2)
Tb3 Tb 0.58892(4) 0.59096(3) 0.11756(2)
O13 O 0.5157(6) 0.5639(4) 0.1789(3)
O14 O 0.6629(6) 0.6378(4) 0.1506(3)
O15 O 0.5007(7) 0.6750(4) 0.1258(3)
O16 O 0.5098(6) 0.6210(4) 0.0694(3)
O17 O 0.6557(6) 0.5476(4) 0.0698(3)
O18 O 0.5155(6) 0.5026(4) 0.1257(3)
S1 S 0.72343(19) -0.31046(14) 0.04017(8)
O19 O 0.6694(5) -0.3315(4) 0.0753(2)
O20 O 0.6850(6) -0.2617(4) 0.0152(3)
O21 O 0.7511(6) -0.3584(4) 0.0237(2)
S2 S 0.7126(2) -0.34209(14) 0.24467(9)
O22 O 0.6847(5) -0.3874(4) 0.2302(2)
O23 O 0.7489(7) -0.3692(4) 0.2781(3)
O24 O 0.6511(7) -0.2980(4) 0.2487(3)
S3 S 0.65802(19) -0.01248(13) 0.15205(8)
O25 O 0.6125(5) -0.0624(4) 0.1772(2)
O26 O 0.6630(5) 0.0346(4) 0.1699(2)
O27 O 0.6262(5) 0.0105(4) 0.1176(2)
S4 S 0.78846(18) 0.01349(13) -0.04689(8)
O28 O 0.7267(6) -0.0277(4) -0.0483(3)
O29 O 0.7494(5) 0.0633(4) -0.0333(2)
O30 O 0.8424(6) 0.0349(4) -0.0813(2)
C1 C 0.9564(7) -0.2503(5) 0.0642(3)
C2 C 0.9309(7) -0.2226(5) 0.0313(3)
C3 C 0.8565(8) -0.2395(5) 0.0244(3)
H1 H 0.83730 -0.22020 0.00190
C4 C 0.8106(7) -0.2842(5) 0.0504(3)
C5 C 0.8385(8) -0.3120(5) 0.0841(3)
H2 H 0.80680 -0.34230 0.10190
C6 C 0.9115(7) -0.2956(5) 0.0916(3)
C7 C 0.9413(8) -0.3268(5) 0.1280(3)
H3 H 1.00130 -0.32230 0.12530
H4 H 0.93060 -0.37020 0.13450
C8 C 0.9225(8) -0.2458(5) 0.1619(3)
C9 C 0.8975(7) -0.3002(5) 0.1587(3)
C10 C 0.8337(8) -0.3296(5) 0.1843(3)
H5 H 0.81720 -0.36720 0.18310
C11 C 0.7936(8) -0.3044(5) 0.2118(3)
C12 C 0.8162(8) -0.2495(5) 0.2135(3)
H6 H 0.78720 -0.23210 0.23180
C13 C 0.8813(7) -0.2189(5) 0.1888(3)
C14 C 0.9056(8) -0.1579(5) 0.1903(3)
H7 H 0.88540 -0.15280 0.21500
H8 H 0.96630 -0.15610 0.18610
C15 C 0.9205(7) -0.0801(5) 0.1289(3)
C16 C 0.8715(7) -0.1074(5) 0.1623(3)
C17 C 0.7907(8) -0.0865(5) 0.1686(3)
H9 H 0.75630 -0.10440 0.19090
C18 C 0.7597(7) -0.0394(5) 0.1424(3)
C19 C 0.8089(7) -0.0127(5) 0.1099(3)
H10 H 0.78690 0.02000 0.09270
C20 C 0.8899(8) -0.0324(5) 0.1017(3)
C21 C 0.9407(7) -0.0031(5) 0.0653(3)
H11 H 0.99980 -0.00930 0.06760
H12 H 0.92820 0.04060 0.05860
C22 C 0.9595(7) -0.0833(5) 0.0314(3)
C23 C 0.9228(7) -0.0291(5) 0.0356(3)
C24 C 0.8694(7) 0.0001(5) 0.0120(3)
H13 H 0.84480 0.03760 0.01390
C25 C 0.8508(7) -0.0251(5) -0.0148(3)
C26 C 0.8851(7) -0.0810(5) -0.0174(3)
H14 H 0.87060 -0.09870 -0.03490
C27 C 0.9408(7) -0.1109(5) 0.0059(3)
C28 C 0.9761(7) -0.1719(5) 0.0031(3)
H15 H 0.97350 -0.17580 -0.02170
H16 H 1.03470 -0.17490 0.00640
O31 O 1.0306(5) -0.2337(4) 0.0707(2)
O32 O 0.9901(5) -0.2202(4) 0.1389(2)
O33 O 0.9990(5) -0.1014(4) 0.1227(2)
O34 O 1.0176(5) -0.1113(4) 0.0534(2)
S5 S 0.65151(18) 0.19577(13) 0.06250(8)
O35 O 0.6195(5) 0.1769(4) 0.1014(2)
O36 O 0.6057(5) 0.2471(4) 0.0426(2)
O37 O 0.6567(5) 0.1458(3) 0.0459(2)
S6 S 0.80357(19) 0.15659(13) 0.24349(8)
O38 O 0.7630(5) 0.1086(3) 0.2352(2)
O39 O 0.8609(5) 0.1320(4) 0.2693(2)
O40 O 0.7433(5) 0.1991(4) 0.2552(2)
S7 S 0.7363(2) 0.49071(13) 0.16938(8)
O41 O 0.7006(5) 0.4425(4) 0.2005(2)
O42 O 0.7684(6) 0.5373(4) 0.1814(2)
O43 O 0.6790(5) 0.5135(4) 0.1438(2)
S8 S 0.7036(2) 0.52526(14) -0.03280(9)
O44 O 0.6944(6) 0.5801(4) -0.0208(3)
O45 O 0.6310(6) 0.4882(5) -0.0192(3)
O46 O 0.7284(6) 0.5370(4) -0.0721(2)
C29 C 0.9136(7) 0.2516(5) 0.0488(3)
C30 C 0.8647(7) 0.2815(5) 0.0225(3)
C31 C 0.7831(8) 0.2653(5) 0.0277(3)
H17 H 0.74780 0.28610 0.01080
C32 C 0.7531(7) 0.2183(5) 0.0579(3)
C33 C 0.8048(8) 0.1882(5) 0.0827(3)
H18 H 0.78450 0.15570 0.10270
C34 C 0.8850(7) 0.2048(5) 0.0789(3)
C35 C 0.9392(7) 0.1728(5) 0.1070(3)
H19 H 0.99750 0.17630 0.09540
H20 H 0.92660 0.12970 0.11540
C36 C 0.9623(7) 0.2519(5) 0.1396(3)
C37 C 0.9270(7) 0.1985(5) 0.1403(3)
C38 C 0.8767(7) 0.1701(5) 0.1726(3)
H21 H 0.85290 0.13310 0.17460
C39 C 0.8611(7) 0.1950(5) 0.2016(3)
C40 C 0.8970(8) 0.2489(5) 0.1996(3)
H22 H 0.88680 0.26540 0.22000
C41 C 0.9468(7) 0.2778(5) 0.1683(3)
C42 C 0.9835(8) 0.3374(5) 0.1661(3)
H23 H 0.98380 0.34060 0.19120
H24 H 1.04120 0.33810 0.15370
C43 C 0.9594(7) 0.4189(5) 0.1081(3)
C44 C 0.9357(8) 0.3912(5) 0.1453(3)
C45 C 0.8658(7) 0.4118(5) 0.1636(3)
H25 H 0.84890 0.39340 0.18890
C46 C 0.8196(7) 0.4598(5) 0.1451(3)
C47 C 0.8443(8) 0.4877(5) 0.1078(3)
H26 H 0.81270 0.52060 0.09550
C48 C 0.9154(7) 0.4673(5) 0.0888(3)
C49 C 0.9385(8) 0.4968(5) 0.0483(3)
H27 H 0.99850 0.49100 0.04140
H28 H 0.92660 0.54050 0.04370
C50 C 0.9173(7) 0.4182(5) 0.0163(3)
C51 C 0.8942(8) 0.4733(5) 0.0239(3)
C52 C 0.8277(8) 0.5064(5) 0.0086(3)
H29 H 0.81190 0.54440 0.01280
C53 C 0.7864(8) 0.4841(5) -0.0119(3)
C54 C 0.8073(8) 0.4267(5) -0.0184(3)
H30 H 0.77600 0.41120 -0.03220
C55 C 0.8738(7) 0.3940(5) -0.0043(3)
C56 C 0.8962(8) 0.3336(5) -0.0108(3)
H31 H 0.95680 0.32950 -0.01650
H32 H 0.87280 0.33090 -0.03240
O47 O 0.9943(5) 0.2698(3) 0.0436(2)
O48 O 1.0180(5) 0.2790(3) 0.1088(2)
O49 O 1.0315(5) 0.3994(4) 0.0896(2)
O50 O 0.9866(5) 0.3889(4) 0.0277(2)
Tb4 Tb 0.36205(4) 0.55095(2) 0.67380(2)
O51 O 0.3466(6) 0.6368(4) 0.6253(2)
O52 O 0.4233(5) 0.6282(4) 0.6936(2)
O53 O 0.5018(5) 0.5644(4) 0.6437(2)
O54 O 0.2436(5) 0.4901(4) 0.6931(2)
O55 O 0.4219(6) 0.4525(4) 0.6855(3)
O56 O 0.3637(5) 0.5088(3) 0.7391(2)
Tb5 Tb 0.35175(4) 0.59392(3) 0.44294(2)
O57 O 0.3644(7) 0.6383(5) 0.3779(3)
O58 O 0.2319(6) 0.6582(4) 0.4379(3)
O59 O 0.4151(5) 0.6894(4) 0.4240(3)
O60 O 0.4844(5) 0.5749(4) 0.4607(3)
O61 O 0.3260(6) 0.5104(4) 0.4950(3)
O62 O 0.4221(8) 0.5207(6) 0.4143(3)
Tb6 Tb 0.45727(4) 0.88230(3) 0.40891(2)
O63 O 0.4360(7) 0.9667(4) 0.3584(3)
O64 O 0.5963(6) 0.9051(4) 0.3830(3)
O65 O 0.5304(6) 0.9076(4) 0.4521(2)
O66 O 0.5217(7) 0.7891(4) 0.4338(3)
O67 O 0.4940(6) 0.8397(4) 0.3576(3)
O68 O 0.3790(6) 0.8374(4) 0.4665(2)
Tb7 Tb 0.36906(3) 1.21460(2) 0.34301(2)
O69 O 0.5042(5) 1.2341(4) 0.3095(2)
O70 O 0.3461(5) 1.3004(3) 0.2942(2)
O71 O 0.4289(6) 1.2927(4) 0.3601(2)
O72 O 0.3760(5) 1.1742(3) 0.4090(2)
O73 O 0.2582(5) 1.1455(4) 0.3662(2)
O74 O 0.4386(5) 1.1185(4) 0.3530(2)
Tb8 Tb 0.35513(3) 1.26763(2) 0.11063(2)
O75 O 0.3698(5) 1.3053(3) 0.0441(2)
O76 O 0.4174(5) 1.3637(3) 0.0910(2)
O77 O 0.2417(5) 1.3384(4) 0.1029(2)
O78 O 0.4912(5) 1.2515(4) 0.1242(2)
O79 O 0.3295(6) 1.1845(4) 0.1635(2)
O80 O 0.4131(6) 1.1844(4) 0.0875(2)
S9 S 0.26991(19) 0.16871(14) 0.50465(8)
O81 O 0.3047(6) 0.2150(4) 0.4726(3)
O82 O 0.3260(6) 0.1473(5) 0.5317(3)
O83 O 0.2413(6) 0.1188(4) 0.4945(2)
S10 S 0.19914(19) 0.50104(13) 0.42327(8)
O84 O 0.2526(6) 0.4545(4) 0.4118(3)
O85 O 0.1423(5) 0.5282(4) 0.3974(2)
O86 O 0.2458(5) 0.5463(4) 0.4302(2)
S11 S 0.35414(19) 0.47501(14) 0.60228(8)
O87 O 0.3833(5) 0.4964(4) 0.5636(2)
O88 O 0.3480(5) 0.5239(4) 0.6198(2)
O89 O 0.4039(5) 0.4257(4) 0.6210(2)
S12 S 0.3067(2) 0.14602(13) 0.70221(9)
O90 O 0.3768(6) 0.1864(4) 0.6911(3)
O91 O 0.2793(6) 0.1288(4) 0.7409(3)
O92 O 0.3245(6) 0.0944(4) 0.6869(2)
C57 C 0.0448(7) 0.2440(5) 0.5636(3)
C58 C 0.0888(7) 0.1959(5) 0.5834(3)
C59 C 0.1600(7) 0.1751(5) 0.5644(3)
H33 H 0.19180 0.14270 0.57720
C60 C 0.1844(7) 0.2008(5) 0.5275(3)
C61 C 0.1387(7) 0.2479(5) 0.5084(3)
H34 H 0.15550 0.26520 0.48290
C62 C 0.0687(7) 0.2699(5) 0.5263(3)
C63 C 0.0201(8) 0.3228(5) 0.5047(3)
H35 H 0.01990 0.31820 0.47990
H36 H -0.03760 0.32200 0.51710
C64 C 0.0412(7) 0.4110(5) 0.5292(3)
C65 C 0.0553(7) 0.3832(5) 0.5011(3)
C66 C 0.1067(7) 0.4112(5) 0.4687(3)
H37 H 0.11870 0.39250 0.44920
C67 C 0.1396(7) 0.4656(5) 0.4650(3)
C68 C 0.1263(7) 0.4923(5) 0.4942(3)
H38 H 0.15150 0.52910 0.49160
C69 C 0.0765(7) 0.4654(5) 0.5270(3)
C70 C 0.0656(7) 0.4921(5) 0.5593(3)
H39 H 0.07740 0.53530 0.55020
H40 H 0.00760 0.48840 0.57130
C71 C 0.0928(7) 0.4155(5) 0.6183(3)
C72 C 0.1203(8) 0.4623(5) 0.5870(3)
C73 C 0.2006(7) 0.4791(5) 0.5833(3)
H41 H 0.22050 0.51140 0.56310
C74 C 0.2534(7) 0.4509(5) 0.6080(3)
C75 C 0.2242(8) 0.4049(5) 0.6385(3)
H42 H 0.26010 0.38570 0.65540
C76 C 0.1436(8) 0.3864(5) 0.6446(3)
C77 C 0.1114(8) 0.3369(5) 0.6783(3)
H43 H 0.13370 0.34130 0.69970
H44 H 0.05070 0.34110 0.68330
C78 C 0.0894(7) 0.2492(5) 0.6543(3)
C79 C 0.1347(7) 0.2753(5) 0.6734(3)
C80 C 0.2020(8) 0.2442(5) 0.6873(3)
H45 H 0.23310 0.26090 0.70050
C81 C 0.2247(8) 0.1870(5) 0.6815(4)
C82 C 0.1799(8) 0.1636(5) 0.6615(3)
H46 H 0.19630 0.12570 0.65730
C83 C 0.1123(7) 0.1936(5) 0.6475(3)
C84 C 0.0672(8) 0.1688(5) 0.6241(3)
H47 H 0.00740 0.17500 0.63130
H48 H 0.07880 0.12500 0.62950
O93 O -0.0267(5) 0.2650(4) 0.5814(2)
O94 O -0.0131(5) 0.3852(4) 0.5606(2)
O95 O 0.0127(5) 0.3979(4) 0.6246(2)
O96 O 0.0190(5) 0.2778(4) 0.6427(2)
S13 S 0.33918(19) 0.67011(13) 0.51657(8)
O97 O 0.3897(5) 0.7186(4) 0.4929(2)
O98 O 0.3689(6) 0.6440(4) 0.5510(2)
O99 O 0.3326(5) 0.6251(4) 0.4973(2)
S14 S 0.30647(19) 1.00279(13) 0.42717(8)
O100 O 0.3753(5) 0.9577(4) 0.4314(2)
O101 O 0.2877(6) 1.0176(4) 0.3900(2)
O102 O 0.3220(5) 1.0550(3) 0.4389(2)
S15 S 0.27021(19) 0.98228(13) 0.62911(8)
O103 O 0.3298(5) 1.0010(4) 0.5957(2)
O104 O 0.2395(6) 1.0328(4) 0.6433(2)
O105 O 0.3035(6) 0.9338(4) 0.6570(2)
S16 S 0.21522(19) 0.65558(13) 0.71039(8)
O106 O 0.2796(5) 0.6960(4) 0.7095(2)
O107 O 0.1631(6) 0.6368(4) 0.7457(2)
O108 O 0.2495(5) 0.6037(3) 0.6977(2)
C85 C 0.0802(7) 0.7462(5) 0.5383(3)
C86 C 0.1072(8) 0.6969(5) 0.5649(3)
C87 C 0.1879(7) 0.6737(5) 0.5582(3)
H49 H 0.20760 0.64050 0.57590
C88 C 0.2390(7) 0.6997(5) 0.5255(3)
C89 C 0.2114(8) 0.7488(5) 0.4990(3)
H50 H 0.24730 0.76610 0.47710
C90 C 0.1319(7) 0.7722(5) 0.5047(3)
C91 C 0.1023(7) 0.8247(5) 0.4756(3)
H51 H 0.12500 0.81960 0.45110
H52 H 0.04160 0.82430 0.47830
C92 C 0.0839(7) 0.9129(5) 0.5036(3)
C93 C 0.1272(7) 0.8848(5) 0.4780(3)
C94 C 0.1964(7) 0.9133(5) 0.4543(3)
H53 H 0.22670 0.89520 0.43660
C95 C 0.2198(7) 0.9683(5) 0.4572(3)
C96 C 0.1767(7) 0.9942(5) 0.4832(3)
H54 H 0.19410 1.03120 0.48490
C97 C 0.1086(7) 0.9678(5) 0.5070(3)
C98 C 0.0646(7) 0.9947(5) 0.5368(3)
H55 H 0.00460 0.99180 0.53810
H56 H 0.07710 1.03780 0.53010
C99 C 0.0441(7) 0.9187(5) 0.6005(3)
C100 C 0.0882(7) 0.9644(5) 0.5743(3)
C101 C 0.1591(7) 0.9825(5) 0.5829(3)
H57 H 0.19010 1.01390 0.56570
C102 C 0.1852(7) 0.9546(5) 0.6169(3)
C103 C 0.1411(7) 0.9084(5) 0.6423(3)
H58 H 0.15930 0.88960 0.66510
C104 C 0.0687(7) 0.8895(5) 0.6339(3)
C105 C 0.0234(7) 0.8390(5) 0.6625(3)
H59 H 0.02730 0.84280 0.68730
H60 H -0.03540 0.84230 0.65970
C106 C 0.0378(7) 0.7508(5) 0.6347(3)
C107 C 0.0583(7) 0.7786(5) 0.6592(3)
C108 C 0.1165(7) 0.7485(5) 0.6816(3)
H61 H 0.13230 0.76620 0.69890
C109 C 0.1507(7) 0.6938(5) 0.6786(3)
C110 C 0.1291(7) 0.6672(5) 0.6533(3)
H62 H 0.15280 0.62930 0.65180
C111 C 0.0733(7) 0.6956(5) 0.6304(3)
C112 C 0.0549(8) 0.6698(5) 0.6006(3)
H63 H 0.06510 0.62580 0.60770
H64 H -0.00380 0.67760 0.59780
O109 O 0.0029(5) 0.7690(4) 0.5450(2)
O110 O 0.0135(5) 0.8877(4) 0.5250(2)
O111 O -0.0282(5) 0.9017(4) 0.5927(2)
O112 O -0.0217(5) 0.7791(4) 0.6133(2)
S17 S 0.2820(2) 0.84205(15) 0.16808(9)
O113 O 0.3009(6) 0.8846(4) 0.1324(2)
O114 O 0.3491(7) 0.8369(7) 0.1896(3)
O115 O 0.2589(7) 0.7851(4) 0.1648(3)
S18 S 0.20656(19) 1.17320(13) 0.09138(8)
O116 O 0.2700(6) 1.1307(4) 0.0819(2)
O117 O 0.1518(5) 1.1953(4) 0.0644(2)
O118 O 0.2429(5) 1.2231(4) 0.0994(2)
S19 S 0.35497(18) 1.13826(13) 0.27254(8)
O119 O 0.3853(5) 1.1587(4) 0.2342(2)
O120 O 0.3520(5) 1.1867(4) 0.2903(2)
O121 O 0.4009(5) 1.0859(4) 0.2914(2)
S20 S 0.2934(2) 0.81308(14) 0.37997(9)
O122 O 0.3378(5) 0.8563(4) 0.3907(2)
O123 O 0.2440(6) 0.7770(4) 0.4118(2)
O124 O 0.3455(6) 0.7790(4) 0.3586(2)
C113 C 0.0545(7) 0.9118(5) 0.2281(3)
C114 C 0.1002(8) 0.8656(5) 0.2488(3)
C115 C 0.1727(8) 0.8456(5) 0.2289(3)
H65 H 0.20610 0.81400 0.24140
C116 C 0.1950(8) 0.8716(5) 0.1918(3)
C117 C 0.1473(7) 0.9185(5) 0.1730(3)
H66 H 0.16370 0.93610 0.14750
C118 C 0.0761(7) 0.9397(5) 0.1911(3)
C119 C 0.0266(7) 0.9915(5) 0.1700(3)
H67 H -0.03100 0.99020 0.18260
H68 H 0.02650 0.98730 0.14510
C120 C 0.0467(7) 1.0788(5) 0.1954(3)
C121 C 0.0622(7) 1.0521(5) 0.1671(3)
C122 C 0.1133(8) 1.0811(5) 0.1351(3)
H69 H 0.12530 1.06380 0.11510
C123 C 0.1468(7) 1.1358(5) 0.1329(3)
C124 C 0.1299(7) 1.1612(5) 0.1623(3)
H70 H 0.15310 1.19840 0.16040
C125 C 0.0806(7) 1.1332(5) 0.1940(3)
C126 C 0.0670(7) 1.1602(5) 0.2267(3)
H71 H 0.00860 1.15650 0.23820
H72 H 0.07910 1.20340 0.21790
C127 C 0.0923(7) 1.0828(5) 0.2863(3)
C128 C 0.1217(7) 1.1290(5) 0.2557(3)
C129 C 0.2015(7) 1.1459(5) 0.2515(3)
H73 H 0.22240 1.17720 0.23070
C130 C 0.2522(7) 1.1178(5) 0.2772(3)
C131 C 0.2208(8) 1.0722(5) 0.3078(3)
H74 H 0.25520 1.05270 0.32530
C132 C 0.1407(7) 1.0551(5) 0.3128(3)
C133 C 0.1078(8) 1.0052(5) 0.3468(3)
H75 H 0.12940 1.00970 0.36840
H76 H 0.04700 1.00900 0.35170
C134 C 0.0927(7) 0.9179(5) 0.3203(3)
C135 C 0.1330(7) 0.9435(5) 0.3414(3)
C136 C 0.1981(7) 0.9123(5) 0.3574(3)
H77 H 0.22600 0.92930 0.37170
C137 C 0.2228(7) 0.8557(5) 0.3528(3)
C138 C 0.1851(7) 0.8314(5) 0.3302(3)
H78 H 0.20380 0.79360 0.32640
C139 C 0.1203(7) 0.8624(5) 0.3133(3)
C140 C 0.0789(8) 0.8360(5) 0.2890(3)
H79 H 0.09460 0.79280 0.29360
H80 H 0.01850 0.83910 0.29600
O125 O -0.0199(5) 0.9310(4) 0.2456(2)
O126 O -0.0081(5) 1.0525(4) 0.2265(2)
O127 O 0.0118(5) 1.0647(4) 0.2915(2)
O128 O 0.0246(5) 0.9447(4) 0.3065(2)
S21 S 0.34505(19) 1.34671(13) 0.18192(8)
O129 O 0.3390(5) 1.2983(4) 0.1649(2)
O130 O 0.3906(5) 1.3965(4) 0.1559(2)
O131 O 0.3772(5) 1.3240(4) 0.2164(2)
S22 S 0.2790(2) 1.68257(14) 0.08877(9)
O132 O 0.3463(7) 1.6401(5) 0.0854(3)
O133 O 0.2404(6) 1.7039(4) 0.0558(2)
O134 O 0.3023(6) 1.7299(4) 0.1026(2)
S23 S 0.28074(19) 1.64955(14) 0.29268(8)
O135 O 0.3351(6) 1.6696(5) 0.2575(3)
O136 O 0.2530(6) 1.6986(4) 0.3089(3)
O137 O 0.3183(6) 1.6003(4) 0.3187(2)
S24 S 0.21977(19) 1.31459(13) 0.38063(8)
O138 O 0.2852(5) 1.3539(4) 0.3802(2)
O139 O 0.1673(6) 1.2953(4) 0.4153(2)
O140 O 0.2540(5) 1.2626(3) 0.3676(2)
C141 C 0.0834(8) 1.4132(5) 0.2066(3)
C142 C 0.1129(8) 1.3654(5) 0.2322(3)
C143 C 0.1938(7) 1.3453(5) 0.2244(3)
H81 H 0.21560 1.31220 0.24130
C144 C 0.2425(7) 1.3733(5) 0.1920(3)
C145 C 0.2120(8) 1.4212(5) 0.1663(3)
H82 H 0.24650 1.43990 0.14420
C146 C 0.1312(7) 1.4419(5) 0.1728(3)
C147 C 0.0961(7) 1.4934(5) 0.1448(3)
H83 H 0.11620 1.48880 0.11990
H84 H 0.03540 1.49120 0.14910
C148 C 0.0774(7) 1.5804(5) 0.1737(3)
C149 C 0.1193(7) 1.5545(5) 0.1464(3)
C150 C 0.1806(8) 1.5866(5) 0.1208(3)
H85 H 0.20720 1.57110 0.10120
C151 C 0.2035(8) 1.6420(5) 0.1235(3)
C152 C 0.1651(8) 1.6656(5) 0.1514(3)
H86 H 0.18200 1.70270 0.15320
C153 C 0.1005(7) 1.6349(5) 0.1773(3)
C154 C 0.0588(8) 1.6607(5) 0.2079(3)
H87 H -0.00130 1.65570 0.21110
H88 H 0.06880 1.70420 0.20120
C155 C 0.0488(7) 1.5837(5) 0.2710(3)
C156 C 0.0895(7) 1.6305(5) 0.2443(3)
C157 C 0.1617(8) 1.6500(5) 0.2511(3)
H89 H 0.19010 1.68240 0.23360
C158 C 0.1921(7) 1.6214(5) 0.2837(3)
C159 C 0.1514(8) 1.5742(5) 0.3098(3)
H90 H 0.17340 1.55500 0.33160
C160 C 0.0778(8) 1.5548(5) 0.3038(3)
C161 C 0.0352(8) 1.5031(5) 0.3323(3)
H91 H -0.02420 1.50640 0.33050
H92 H 0.04110 1.50630 0.35690
C162 C 0.0477(7) 1.4158(5) 0.3036(3)
C163 C 0.0684(7) 1.4417(5) 0.3287(3)
C164 C 0.1248(7) 1.4105(5) 0.3520(3)
H93 H 0.14060 1.42750 0.36960
C165 C 0.1568(7) 1.3546(5) 0.3490(3)
C166 C 0.1352(7) 1.3304(5) 0.3222(3)
H94 H 0.15780 1.29240 0.32020
C167 C 0.0821(7) 1.3607(5) 0.2989(3)
C168 C 0.0634(8) 1.3354(5) 0.2689(3)
H95 H 0.07630 1.29180 0.27520
H96 H 0.00400 1.34140 0.26710
O141 O 0.0038(5) 1.4332(4) 0.2143(2)
O142 O 0.0120(5) 1.5518(4) 0.1966(2)
O143 O -0.0252(5) 1.5659(4) 0.2650(2)
O144 O -0.0106(5) 1.4450(4) 0.2826(2)
O145 O 0.8434(6) 0.1655(4) -0.0962(2)
O146 O 0.1527(5) 1.3263(4) 0.0495(2)
O147 O 0.8519(5) 0.4929(4) 0.2432(2)
O148 O 0.1487(5) 0.6570(4) 0.3801(2)
O149 O 0.3153(6) 1.3427(4) 0.4536(2)
O150 O 0.1594(6) 1.1646(4) 0.4294(2)
O151 O 0.6529(5) 1.1878(4) 0.3295(2)
O152 O 0.6850(6) 0.3169(4) 0.2168(2)
O153 O 0.5444(5) -0.2152(3) 0.2574(2)
O154 O 0.8534(5) 0.0012(4) 0.2844(2)
O155 O 0.3564(6) 0.6727(4) 0.1790(3)
O156 O 0.3075(7) 1.0650(4) 0.1743(3)
O157 O 0.5587(5) 1.3662(4) 0.0439(2)
O158 O 0.3192(6) 1.4186(4) 0.2882(3)
O159 O 0.6565(5) 0.5254(4) 0.6587(2)
O160 O 0.6803(6) -0.0874(4) 0.0481(3)
O161 O 0.6521(6) -0.1370(4) -0.0070(2)
O162 O 0.3439(6) 1.0093(4) 0.5196(3)
O163 O 0.6795(8) -0.0097(4) -0.1182(3)
O164 O 0.7949(6) 0.3439(4) 0.0956(3)
O165 O 0.6612(6) 0.4248(4) 0.0755(3)
O166 O 0.7059(6) 0.2687(4) 0.1583(2)
O167 O 0.2249(7) 1.4923(5) 0.2412(3)
O168 O 0.2072(8) 0.3221(5) 0.5719(3)
O169 O 0.2906(6) 0.3946(4) 0.5108(3)
O170 O 0.2094(7) 0.8199(5) 0.5764(3)
O171 O 0.3294(7) 0.7563(4) 0.6159(3)
O172 O 0.3263(7) 0.8877(4) 0.5233(2)
O173 O 0.7845(9) -0.1600(6) 0.0937(4)
O174 O 0.2133(10) 0.9945(5) 0.2380(4)
O175 O 0.5272(5) 0.2658(4) 0.2344(2)
O176 O 0.5414(7) 0.4427(5) 0.7240(3)
O177 O 0.5403(6) 0.4132(4) 0.1868(3)
O178 O 0.4796(8) -0.0867(6) 0.1470(4)
O179 O 0.4713(7) 0.2324(6) -0.0634(3)
O180 O 0.4913(6) 0.4367(5) -0.0171(3)
O181 O 0.5725(6) 1.3418(4) 0.1371(3)
O182 O 0.5558(8) 0.6917(5) 0.3767(4)
O183 O 0.3652(6) 1.5212(4) 0.1066(3)
O184 O 0.3428(7) 0.5491(5) 0.1798(3)
O185 O 0.4370(6) -0.0314(4) 0.2881(3)
O186 O 0.4685(9) 0.4027(6) 0.4302(3)
O187 O 0.6616(8) 0.7497(6) 0.3978(4)
O188 O 0.4805(7) 0.3549(5) 0.7827(3)
O189 O 0.3416(9) 0.9109(8) 0.2571(4)
O190 O 0.4767(7) 1.4343(5) 0.2581(3)
O191 O 0.5182(8) 1.0635(6) 0.4097(3)
O192 O 0.6672(10) 0.7607(6) 0.1454(5)
O193 O 0.5429(8) 0.7533(5) 0.5081(4)
O194 O 0.4778(10) 1.0705(7) 0.1023(5)
O195 O 0.4308(12) 0.9941(8) 0.1966(5)
Tb3* Tb 0.58892(4) -0.40904(3) 0.11756(2)
O19* O 0.6694(5) 0.6685(4) 0.0753(2)
#END
