
#######################################################################
#
#                 Cambridge Crystallographic Data Centre
#                                CCDC
#
#######################################################################
#
# If this CIF has been generated from an entry in the Cambridge
# Structural Database, then it will include bibliographic, chemical,
# crystal, experimental, refinement or atomic coordinate data resulting
# from the CCDC's data processing and validation procedures.
#
#######################################################################

data_CSD_CIF_UKAZEM
_audit_creation_date 2011-04-06
_audit_creation_method CSD-ConQuest-V1
_database_code_CSD UKAZEM
_database_code_depnum_ccdc_archive 'CCDC 781995'
_chemical_formula_sum 'C57 H45 Cl1 Cu3 Mn1 O19 P2'
_chemical_formula_moiety
;
(C9 H3 Cl1 Cu3 Mn1 O18 2-)n,2n(C24 H20 P1 1+),n(H2 O1)
;
_journal_coden_Cambridge 9
_journal_volume 49
_journal_year 2010
_journal_page_first 7478
_journal_name_full 'Inorg.Chem. '
loop_
_publ_author_name
"B.Gil-Hernandez"
"P.Gili"
"J.K.Vieth"
"C.Janiak"
"J.Sanchiz"
_chemical_name_systematic
;
catena-[bis(tetraphenylphosphonium) 
(\m~3~-chloro)-tris(\m~3~-mesoxalato)-tri-copper(ii)-manganese(ii) 
monohydrate]
;
_cell_volume   5698.102
_exptl_crystal_colour 'blue'
_exptl_crystal_density_diffrn 1.599
_exptl_crystal_description 'block'
_diffrn_ambient_temperature 203
#These two values have been output from a single CSD field.
_refine_ls_R_factor_gt 0.0597
_refine_ls_wR_factor_gt 0.0597
_symmetry_cell_setting orthorhombic
_symmetry_space_group_name_H-M 'P 21 21 21'
_symmetry_Int_Tables_number 19
loop_
_symmetry_equiv_pos_site_id
_symmetry_equiv_pos_as_xyz
1 x,y,z
2 1/2-x,-y,1/2+z
3 -x,1/2+y,1/2-z
4 1/2+x,1/2-y,-z
_cell_length_a 16.963(3)
_cell_length_b 18.283(3)
_cell_length_c 18.373(3)
_cell_angle_alpha 90
_cell_angle_beta 90
_cell_angle_gamma 90
_cell_formula_units_Z 4
loop_
_atom_type_symbol
_atom_type_radius_bond
C 0.68
H 0.23
Cl 1.07
Cu 1.34
Mn 1.61
O 0.68
P 1.05
loop_
_atom_site_label
_atom_site_type_symbol
_atom_site_fract_x
_atom_site_fract_y
_atom_site_fract_z
Cu1 Cu 0.63589(10) 0.70162(9) 0.94345(10)
Cu2 Cu 0.70096(9) 0.5564(1) 0.86594(9)
Cu3 Cu 0.55242(10) 0.64719(9) 0.79333(10)
Mn1 Mn 0.89610(11) 0.59293(10) 1.11003(11)
Cl1 Cl 0.7054(2) 0.6978(2) 0.8204(2)
C1 C 0.7553(9) 0.6728(9) 1.0351(9)
C2 C 0.7254(7) 0.5933(7) 1.0092(8)
C3 C 0.7965(7) 0.5467(8) 0.977(1)
O1 O 0.8089(6) 0.6746(5) 1.0793(5)
O2 O 0.7204(6) 0.7257(5) 1.0075(6)
O3 O 0.6926(5) 0.5562(5) 1.0729(5)
O4 O 0.6690(5) 0.5991(4) 0.9569(5)
O5 O 0.8494(5) 0.5300(4) 1.0236(5)
O6 O 0.7940(6) 0.5288(6) 0.9147(5)
C4 C 0.6814(8) 0.4833(8) 0.7384(10)
C5 C 0.5948(8) 0.5037(8) 0.7643(8)
C6 C 0.5481(8) 0.5325(9) 0.6989(8)
O7 O 0.6913(5) 0.4494(5) 0.6825(5)
O8 O 0.7364(6) 0.5013(6) 0.7829(5)
O9 O 0.5593(5) 0.4419(5) 0.7916(5)
O10 O 0.5999(5) 0.5549(5) 0.8177(5)
O11 O 0.5305(5) 0.4929(5) 0.6494(5)
O12 O 0.5298(5) 0.6009(6) 0.7026(5)
C7 C 0.4733(9) 0.7725(9) 0.8178(8)
C8 C 0.4859(9) 0.7432(8) 0.8937(8)
C9 C 0.5198(10) 0.8036(9) 0.9435(7)
O13 O 0.4367(5) 0.8307(5) 0.8095(5)
O14 O 0.4987(6) 0.7361(5) 0.7663(5)
O15 O 0.4137(5) 0.7159(5) 0.9194(5)
O16 O 0.5398(5) 0.6837(4) 0.8903(4)
O17 O 0.4798(5) 0.8580(6) 0.9566(5)
O18 O 0.5861(6) 0.7917(5) 0.9695(6)
P1 P 1.1559(3) 0.3321(2) 0.8213(3)
C10 C 1.0970(7) 0.3628(7) 0.8931(6)
C11 C 1.1002(7) 0.3282(6) 0.9604(7)
H1 H 1.13510 0.28890 0.96770
C12 C 1.0519(8) 0.3517(8) 1.0169(6)
H2 H 1.05420 0.32830 1.06240
C13 C 1.0004(7) 0.4098(7) 1.0061(7)
H3 H 0.96770 0.42570 1.04430
C14 C 0.9971(7) 0.4444(6) 0.9388(8)
H4 H 0.96230 0.48370 0.93140
C15 C 1.0454(8) 0.4209(7) 0.8823(6)
H5 H 1.04320 0.44430 0.83680
C16 C 1.0928(7) 0.3124(6) 0.7463(6)
C17 C 1.0120(8) 0.3060(7) 0.7575(6)
H6 H 0.99110 0.31130 0.80460
C18 C 0.9623(6) 0.2919(7) 0.6991(9)
H7 H 0.90770 0.28750 0.70660
C19 C 0.9933(9) 0.2841(7) 0.6295(7)
H8 H 0.95960 0.27460 0.58990
C20 C 1.0740(9) 0.2905(7) 0.6183(6)
H9 H 1.09500 0.28530 0.57120
C21 C 1.1238(6) 0.3047(7) 0.6767(8)
H10 H 1.17840 0.30900 0.66920
C22 C 1.2080(8) 0.2520(5) 0.8464(7)
C23 C 1.1735(5) 0.1842(7) 0.8338(6)
H11 H 1.12550 0.18120 0.80840
C24 C 1.2098(7) 0.1209(5) 0.8589(7)
H12 H 1.18650 0.07510 0.85040
C25 C 1.2808(7) 0.1253(6) 0.8965(7)
H13 H 1.30540 0.08250 0.91340
C26 C 1.3153(6) 0.1931(8) 0.9091(6)
H14 H 1.36330 0.19610 0.93450
C27 C 1.2790(8) 0.2564(6) 0.8840(8)
H15 H 1.30230 0.30220 0.89250
C28 C 1.2291(6) 0.4006(6) 0.8015(8)
C29 C 1.2868(8) 0.3856(6) 0.7499(7)
H16 H 1.28460 0.34200 0.72290
C30 C 1.3476(7) 0.4352(8) 0.7382(7)
H17 H 1.38660 0.42510 0.70330
C31 C 1.3508(7) 0.4997(7) 0.7782(9)
H18 H 1.39200 0.53320 0.77030
C32 C 1.2931(9) 0.5146(6) 0.8298(8)
H19 H 1.29530 0.55830 0.85680
C33 C 1.2323(7) 0.4651(7) 0.8415(7)
H20 H 1.19330 0.47520 0.87640
P2 P 0.8824(3) 0.1006(3) 0.8877(3)
C34 C 0.9443(8) 0.1174(7) 0.9618(7)
C35 C 0.9097(6) 0.1242(9) 1.0300(9)
H21 H 0.85550 0.11510 1.03580
C36 C 0.9551(11) 0.1444(9) 1.0897(7)
H22 H 0.93170 0.14890 1.13580
C37 C 1.0352(10) 0.1578(9) 1.0811(8)
H23 H 1.06600 0.17150 1.12140
C38 C 1.0699(7) 0.1511(9) 1.0129(10)
H24 H 1.12400 0.16020 1.00710
C39 C 1.0244(9) 0.1309(8) 0.9532(7)
H25 H 1.04780 0.12640 0.90710
C40 C 0.9509(7) 0.0670(8) 0.8191(8)
C41 C 0.9583(8) 0.1043(6) 0.7536(9)
H26 H 0.92300 0.14230 0.74210
C42 C 1.0178(10) 0.0856(8) 0.7050(7)
H27 H 1.02270 0.11090 0.66070
C43 C 1.0699(7) 0.0295(8) 0.7219(8)
H28 H 1.11010 0.01680 0.68910
C44 C 1.0626(7) -0.0079(7) 0.7875(9)
H29 H 1.09780 -0.04580 0.79890
C45 C 1.0031(9) 0.0108(8) 0.8360(7)
H30 H 0.99810 -0.01440 0.88030
C46 C 0.8349(9) 0.1752(6) 0.8546(10)
C47 C 0.8487(9) 0.2420(9) 0.8885(8)
H31 H 0.88360 0.24470 0.92820
C48 C 0.8109(11) 0.3047(6) 0.8638(10)
H32 H 0.82020 0.34980 0.88680
C49 C 0.7593(10) 0.3007(8) 0.8052(11)
H33 H 0.73380 0.34310 0.78850
C50 C 0.7456(9) 0.2339(11) 0.7712(9)
H34 H 0.71070 0.23120 0.73150
C51 C 0.7834(10) 0.1712(8) 0.7959(10)
H35 H 0.77410 0.12610 0.77290
C52 C 0.8107(9) 0.0342(9) 0.9111(9)
C53 C 0.7312(10) 0.0527(8) 0.9120(9)
H36 H 0.71480 0.09830 0.89390
C54 C 0.6762(7) 0.0038(11) 0.9398(10)
H37 H 0.62240 0.01630 0.94040
C55 C 0.7005(10) -0.0636(9) 0.9666(10)
H38 H 0.66330 -0.09670 0.98530
C56 C 0.7800(11) -0.0821(8) 0.9656(9)
H39 H 0.79650 -0.12770 0.98370
C57 C 0.8351(7) -0.0332(10) 0.9379(10)
H40 H 0.88880 -0.04580 0.93730
O19 O 0.5066(10) 0.5567(13) 0.9979(12)
Mn1A Mn 0.60390(11) 0.40707(10) 0.61003(11)
Mn1C Mn 0.39610(11) 0.90707(10) 0.88997(11)
O7A O 0.8087(5) 0.5506(5) 1.1825(5)
O11A O 0.9695(5) 0.5071(5) 1.1494(5)
O13C O 0.9367(5) 0.6693(5) 1.1905(5)
O17C O 0.9798(5) 0.6420(6) 1.0434(5)
#END
