
#######################################################################
#
#                 Cambridge Crystallographic Data Centre
#                                CCDC
#
#######################################################################
#
# If this CIF has been generated from an entry in the Cambridge
# Structural Database, then it will include bibliographic, chemical,
# crystal, experimental, refinement or atomic coordinate data resulting
# from the CCDC's data processing and validation procedures.
#
#######################################################################

data_CSD_CIF_UKEMUU
_audit_creation_date 2016-04-04
_audit_creation_method CSD-ConQuest-V1
_database_code_CSD UKEMUU
_database_code_depnum_ccdc_archive 'CCDC 1019998; CCDC 1019999'
_chemical_formula_sum 'C32 H46 Cu1 N4 O28 U2'
_chemical_formula_moiety
;
(C20 H20 Cu1 N4 O2 2+)n,C12 H14 O20 U2 2-,6(H2 O1)
;
_journal_coden_Cambridge 211
_journal_volume 69
_journal_year 2016
_journal_page_first 1026
_journal_name_full 'J.Coord.Chem. '
loop_
_publ_author_name
"Qing Lin Guan"
"Xue Gao"
"Jing Liu"
"Wen Juan Wei"
"Yong Heng Xing"
"Feng Ying Bai"
_chemical_name_systematic
;
catena-(bis(\m-4,4'-bipyridine)-diaqua-copper(ii) 
diaqua-bis(\m-2-oxy-3-carboxypropane-1,2-dicarboxylato)-tetraoxo-di-uranium 
hexahydrate)
;
_chemical_name_common
;
catena-(bis(mu-4,4'-bipyridine)-diaqua-copper(ii) 
diaqua-bis(mu-citrato)-tetraoxo-di-uranium hexahydrate)
;
_cell_volume   4550.690
_exptl_crystal_colour 'yellow-green'
_exptl_crystal_density_diffrn 2.152
_exptl_crystal_description 'block'
_diffrn_ambient_temperature 296
#These two values have been output from a single CSD field.
_refine_ls_R_factor_gt 0.0316
_refine_ls_wR_factor_gt 0.0316
_symmetry_cell_setting orthorhombic
_symmetry_space_group_name_H-M 'I b a 2'
_symmetry_Int_Tables_number 45
loop_
_symmetry_equiv_pos_site_id
_symmetry_equiv_pos_as_xyz
1 x,y,z
2 -x,-y,z
3 1/2+x,1/2-y,z
4 1/2-x,1/2+y,z
5 1/2+x,1/2+y,1/2+z
6 1/2-x,1/2-y,1/2+z
7 x,-y,1/2+z
8 -x,y,1/2+z
_cell_length_a 15.1299(12)
_cell_length_b 16.553(3)
_cell_length_c 18.1704(15)
_cell_angle_alpha 90
_cell_angle_beta 90
_cell_angle_gamma 90
_cell_formula_units_Z 4
loop_
_atom_type_symbol
_atom_type_radius_bond
C 0.68
H 0.23
Cu 1.32
N 0.68
O 0.68
U 1.96
loop_
_atom_site_label
_atom_site_type_symbol
_atom_site_fract_x
_atom_site_fract_y
_atom_site_fract_z
U1 U 0.57531(3) 0.90513(3) 0.09698(13)
C1 C 0.3900(13) 0.8103(11) 0.0715(14)
C2 C 0.3572(11) 0.899(1) 0.0698(12)
C3 C 0.2970(16) 0.9085(12) 0.1387(18)
H1 H 0.25790 0.86230 0.14220
H2 H 0.33350 0.90960 0.18260
C4 C 0.2412(12) 0.9867(12) 0.1351(14)
C5 C 0.3064(15) 0.9136(14) -0.0030(15)
H3 H 0.26510 0.86960 -0.01060
H4 H 0.27240 0.96310 0.00130
C6 C 0.3660(16) 0.9199(17) -0.0692(16)
O1 O 0.6001(13) 0.896(1) 0.0009(11)
O2 O 0.5560(12) 0.9120(11) 0.1913(11)
O3 O 0.6632(8) 0.7833(8) 0.1140(13)
H5 H 0.72060 0.79660 0.11890
H6 H 0.65650 0.75070 0.07480
O4 O 0.4298(6) 0.9533(7) 0.0775(7)
O5 O 0.4718(7) 0.8014(7) 0.0860(19)
O6 O 0.3365(9) 0.7553(8) 0.0631(12)
O7 O 0.1619(10) 0.9833(10) 0.1472(12)
O8 O 0.2804(9) 1.0521(8) 0.1189(13)
O9 O 0.4249(13) 0.8625(14) -0.0738(14)
H7 H 0.40920 0.82390 -0.04870
O10 O 0.3575(15) 0.9725(14) -0.1152(14)
Cu1 Cu 0.50000 0.50000 0.3478(5)
C7 C 0.845(2) 0.9053(19) 0.296(3)
H8 H 0.84060 0.94700 0.26230
C8 C 0.911(2) 0.847(3) 0.395(2)
H9 H 0.95400 0.84880 0.43240
C9 C 0.667(2) 0.586(2) 0.385(3)
H10 H 0.67270 0.54250 0.41780
C10 C 0.731(2) 0.644(2) 0.388(2)
H11 H 0.77880 0.63890 0.41980
C11 C 0.7228(18) 0.7110(18) 0.3430(18)
C12 C 0.651(3) 0.712(2) 0.294(2)
H12 H 0.64410 0.75420 0.26100
C13 C 0.590(2) 0.649(2) 0.295(2)
H13 H 0.54200 0.65090 0.26390
C14 C 0.784(2) 0.841(2) 0.293(2)
H14 H 0.74110 0.83990 0.25710
C15 C 0.788(2) 0.7787(18) 0.343(2)
C16 C 0.854(2) 0.783(2) 0.395(2)
H15 H 0.86060 0.74190 0.42940
N1 N 0.600(3) 0.5865(14) 0.341(2)
N2 N 0.910(2) 0.9083(13) 0.3474(19)
O11 O 0.50000 0.50000 0.215(3)
H16 H 0.47570 0.45010 0.19710
O12 O 0.50000 0.50000 0.473(2)
H17 H 0.50580 0.44560 0.49030
O13 O 0.4165(10) 0.3492(9) 0.096(4)
H18 H 0.43020 0.33630 0.14030
H19 H 0.40680 0.39970 0.09400
O14 O 0.0881(10) 0.1101(10) 0.0637(13)
H20 H 0.05850 0.08200 0.09420
H21 H 0.11900 0.07900 0.03680
O15 O 0.9546(15) 0.3944(15) 0.8232(13)
H22 H 0.92650 0.40090 0.86320
H23 H 0.99720 0.42790 0.82120
U1A U 0.42469(3) 1.09487(3) 0.09698(13)
C1A C 0.6100(13) 1.1897(11) 0.0715(14)
C2A C 0.6428(11) 1.101(1) 0.0698(12)
C3A C 0.7030(16) 1.0915(12) 0.1387(18)
H1A H 0.74210 1.13770 0.14220
H2A H 0.66650 1.09040 0.18260
C4A C 0.7588(12) 1.0133(12) 0.1351(14)
C5A C 0.6936(15) 1.0864(14) -0.0030(15)
H3A H 0.73490 1.13040 -0.01060
H4A H 0.72760 1.03690 0.00130
C6A C 0.6340(16) 1.0801(17) -0.0692(16)
O1A O 0.3999(13) 1.104(1) 0.0009(11)
O2A O 0.4440(12) 1.0880(11) 0.1913(11)
O3A O 0.3368(8) 1.2167(8) 0.1140(13)
H5A H 0.27940 1.20340 0.11890
H6A H 0.34350 1.24930 0.07480
O4A O 0.5702(6) 1.0467(7) 0.0775(7)
O5A O 0.5282(7) 1.1986(7) 0.0860(19)
O6A O 0.6635(9) 1.2447(8) 0.0631(12)
O7A O 0.8381(10) 1.0167(10) 0.1472(12)
O8A O 0.7196(9) 0.9479(8) 0.1189(13)
O9A O 0.5751(13) 1.1375(14) -0.0738(14)
H7A H 0.59080 1.17610 -0.04870
O10A O 0.6425(15) 1.0275(14) -0.1152(14)
H16A H 0.52430 0.54990 0.19710
H17A H 0.49420 0.55440 0.49030
C7A C 0.155(2) 0.0947(19) 0.296(3)
H8A H 0.15940 0.05300 0.26230
C8A C 0.089(2) 0.153(3) 0.395(2)
H9A H 0.04600 0.15120 0.43240
C9A C 0.333(2) 0.414(2) 0.385(3)
H10A H 0.32730 0.45750 0.41780
C10A C 0.269(2) 0.356(2) 0.388(2)
H11A H 0.22120 0.36110 0.41980
C11A C 0.2772(18) 0.2890(18) 0.3430(18)
C12A C 0.349(3) 0.288(2) 0.294(2)
H12A H 0.35590 0.24580 0.26100
C13A C 0.410(2) 0.351(2) 0.295(2)
H13A H 0.45800 0.34910 0.26390
C14A C 0.216(2) 0.159(2) 0.293(2)
H14A H 0.25890 0.16010 0.25710
C15A C 0.212(2) 0.2213(18) 0.343(2)
C16A C 0.146(2) 0.217(2) 0.395(2)
H15A H 0.13940 0.25810 0.42940
N1A N 0.400(3) 0.4135(14) 0.341(2)
N2A N 0.090(2) 0.0917(13) 0.3474(19)
Cu1B Cu 0.00000 0.00000 0.3478(5)
Cu1B* Cu 1.00000 1.00000 0.3478(5)
N2B N 0.410(2) 0.5917(13) 0.3474(19)
N2C N 0.590(2) 0.4083(13) 0.3474(19)
#END
