
#######################################################################
#
#                 Cambridge Crystallographic Data Centre
#                                CCDC
#
#######################################################################
#
# If this CIF has been generated from an entry in the Cambridge
# Structural Database, then it will include bibliographic, chemical,
# crystal, experimental, refinement or atomic coordinate data resulting
# from the CCDC's data processing and validation procedures.
#
#######################################################################

data_CSD_CIF_UKEXIS
_audit_creation_date 2011-04-07
_audit_creation_method CSD-ConQuest-V1
_database_code_CSD UKEXIS
_database_code_depnum_ccdc_archive 'CCDC 788031'
_chemical_formula_sum 'C57 H43 Cl1 Co1 Cu3 O18 P2'
_chemical_formula_moiety
;
(C24 H20 P1 1+)2n,n(C9 H3 Cl1 Co1 Cu3 O18 2-)
;
_journal_coden_Cambridge 9
_journal_volume 49
_journal_year 2010
_journal_page_first 7880
_journal_name_full 'Inorg.Chem. '
loop_
_publ_author_name
"J.Sanchiz"
"J.Pasan"
"O.Fabelo"
"F.Lloret"
"M.Julve"
"C.Ruiz-Perez"
_chemical_name_systematic
;
catena-[bis(Tetraphenylphosphonium) 
(\m~3~-chloro)-tris(\m~3~-hydroxy(oxido)propanedioato)-cobalt(ii)-tri-copper(i
i)]
;
_chemical_name_common
;
catena-[bis(Tetraphenylphosphonium) 
(mu!3$-chloro)-tris(mu!3$-2-hydroxy-2-oxidomalonato)-cobalt(ii)-tri-copper(ii)
]
;
_cell_volume   5876.952
_exptl_crystal_colour 'blue'
_exptl_crystal_density_diffrn 1.54
_exptl_crystal_description 'chunk'
_diffrn_ambient_temperature 293
#These two values have been output from a single CSD field.
_refine_ls_R_factor_gt 0.087
_refine_ls_wR_factor_gt 0.087
_symmetry_cell_setting orthorhombic
_symmetry_space_group_name_H-M 'P 21 21 21'
_symmetry_Int_Tables_number 19
loop_
_symmetry_equiv_pos_site_id
_symmetry_equiv_pos_as_xyz
1 x,y,z
2 1/2-x,-y,1/2+z
3 1/2+x,1/2-y,-z
4 -x,1/2+y,1/2-z
_cell_length_a 17.709(6)
_cell_length_b 17.992(12)
_cell_length_c 18.445(11)
_cell_angle_alpha 90
_cell_angle_beta 90
_cell_angle_gamma 90
_cell_formula_units_Z 4
loop_
_atom_type_symbol
_atom_type_radius_bond
C 0.68
H 0.13
Cl 0.99
Co 1.26
Cu 1.34
O 0.68
P 1.05
loop_
_atom_site_label
_atom_site_type_symbol
_atom_site_fract_x
_atom_site_fract_y
_atom_site_fract_z
C1 C 0.5312(7) 0.2682(8) 0.1790(6)
C2 C 0.5119(7) 0.2381(7) 0.1003(6)
C3 C 0.4798(7) 0.3031(8) 0.0544(7)
C4 C 0.7427(8) 0.3258(7) 0.0287(6)
C5 C 0.7707(7) 0.4037(8) 0.0047(7)
C6 C 0.7026(7) 0.4483(7) -0.0275(7)
C7 C 0.6816(7) 0.4841(8) 0.2337(8)
C8 C 0.5975(6) 0.5038(6) 0.2629(7)
C9 C 0.5533(8) 0.5331(8) 0.1957(7)
O1 O 0.5073(7) 0.2310(5) 0.2310(4)
O2 O 0.5681(5) 0.3259(5) 0.1861(4)
O3 O 0.4141(6) 0.2953(6) 0.0311(6)
O4 O 0.5187(5) 0.3576(5) 0.0418(5)
O5 O 0.4597(4) 0.1819(4) 0.1059(4)
O6 O 0.5789(5) 0.2121(5) 0.0711(5)
O7 O 0.6883(5) 0.3216(5) 0.0713(5)
O8 O 0.7811(6) 0.2714(5) 0.0060(5)
O9 O 0.6504(5) 0.4657(5) 0.0155(5)
O10 O 0.7054(5) 0.4643(6) -0.0914(5)
O11 O 0.8271(4) 0.3989(4) -0.0486(4)
O12 O 0.8019(5) 0.4398(5) 0.0643(5)
O13 O 0.5303(6) 0.5981(6) 0.2027(5)
O14 O 0.5372(6) 0.4923(6) 0.1467(5)
O15 O 0.6030(5) 0.5524(5) 0.3179(4)
O16 O 0.7359(5) 0.5075(7) 0.2738(5)
O17 O 0.6897(5) 0.4480(6) 0.1781(5)
O18 O 0.5684(6) 0.4378(6) 0.2886(5)
Co1 Co 0.60581(10) 0.40481(10) 0.10446(9)
Cu1 Cu 0.79660(9) 0.4392(1) -0.14127(8)
Cu2 Cu 0.36519(9) 0.20320(9) 0.05585(9)
Cu3 Cu 0.44808(10) 0.14535(9) 0.20518(8)
Cl1 Cl 0.8069(2) 0.2971(2) -0.1876(2)
P1 P 0.1586(3) 0.3294(3) 0.3284(3)
P2 P -0.1247(4) 0.1166(5) 0.3928(4)
C10 C -0.0525(8) 0.0738(10) 0.3445(10)
C11 C 0.0136(10) 0.0772(12) 0.3726(11)
H1 H 0.02360 0.10640 0.41310
C12 C -0.0726(14) 0.054(2) 0.2662(12)
H2 H -0.11650 0.06310 0.24000
C13 C 0.0760(9) 0.0303(16) 0.3358(17)
H3 H 0.12600 0.02820 0.35120
C14 C 0.0546(14) 0.0014(16) 0.2916(18)
H4 H 0.07920 -0.04340 0.28310
C15 C -0.0017(18) 0.015(2) 0.2437(13)
H5 H 0.00390 0.00050 0.19570
C16 C -0.1557(16) 0.1955(15) 0.3435(12)
C17 C -0.1377(18) 0.2596(19) 0.3671(16)
H6 H -0.11820 0.26060 0.41390
C18 C -0.197(2) 0.1895(18) 0.2917(17)
H7 H -0.22310 0.14650 0.28050
C19 C -0.143(3) 0.3287(16) 0.332(3)
H8 H -0.12900 0.37450 0.35160
C20 C -0.200(3) 0.262(3) 0.245(2)
H9 H -0.22280 0.26430 0.20020
C21 C -0.169(3) 0.318(2) 0.274(3)
H10 H -0.16570 0.35870 0.24330
C22 C -0.1973(14) 0.0564(16) 0.4093(13)
C23 C -0.1869(16) -0.0184(17) 0.426(2)
H11 H -0.13860 -0.03860 0.42560
C24 C -0.249(2) -0.0629(15) 0.442(2)
H12 H -0.24190 -0.11290 0.45250
C25 C -0.3211(18) -0.033(2) 0.4416(16)
H13 H -0.36250 -0.06250 0.45240
C26 C -0.3314(13) 0.042(2) 0.425(3)
H14 H -0.37980 0.06220 0.42530
C27 C -0.2696(17) 0.0866(16) 0.409(2)
H15 H -0.27650 0.13660 0.39840
C28 C -0.0865(13) 0.1509(12) 0.4773(10)
C29 C -0.0383(15) 0.1743(19) 0.6014(10)
H16 H -0.02570 0.18990 0.64790
C30 C -0.0996(18) 0.0907(15) 0.5359(15)
H17 H -0.12630 0.04660 0.53060
C31 C -0.0213(18) 0.2338(14) 0.5438(16)
H18 H -0.00270 0.28090 0.55450
C32 C -0.0384(16) 0.2066(13) 0.4664(12)
H19 H -0.01980 0.22470 0.42270
C33 C -0.0622(18) 0.1168(19) 0.6005(11)
H20 H -0.05800 0.08620 0.64090
C34 C 0.1208(12) 0.2986(14) 0.2416(10)
C35 C 0.1206(12) 0.2214(14) 0.2403(12)
H21 H 0.14320 0.19480 0.27770
C36 C 0.0865(15) 0.1838(13) 0.1832(15)
H22 H 0.08630 0.13220 0.18230
C37 C 0.0526(15) 0.2235(18) 0.1273(11)
H23 H 0.02980 0.19840 0.08910
C38 C 0.0529(18) 0.3008(18) 0.1286(11)
H24 H 0.03020 0.32740 0.09120
C39 C 0.0870(19) 0.3383(13) 0.1857(13)
H25 H 0.08710 0.39000 0.18660
C40 C 0.2292(9) 0.3997(9) 0.3107(11)
C41 C 0.2872(13) 0.3832(11) 0.2625(15)
H26 H 0.28870 0.33710 0.23970
C42 C 0.3429(14) 0.4357(17) 0.2483(18)
H27 H 0.38170 0.42460 0.21600
C43 C 0.3407(16) 0.5046(14) 0.282(2)
H28 H 0.37790 0.53960 0.27280
C44 C 0.2827(17) 0.521(1) 0.3305(16)
H29 H 0.28120 0.56710 0.35330
C45 C 0.2270(13) 0.4686(12) 0.3447(10)
H30 H 0.18820 0.47960 0.37700
C46 C 0.2010(11) 0.2523(9) 0.3715(12)
C47 C 0.2793(11) 0.2511(13) 0.3754(14)
H31 H 0.30700 0.29330 0.36360
C48 C 0.3164(14) 0.1867(18) 0.3971(16)
H32 H 0.36880 0.18590 0.39980
C49 C 0.275(2) 0.1236(14) 0.4149(19)
H33 H 0.29980 0.08050 0.42940
C50 C 0.197(2) 0.1248(12) 0.411(3)
H34 H 0.16900 0.08260 0.42270
C51 C 0.1596(14) 0.1892(14) 0.389(2)
H35 H 0.10720 0.19010 0.38650
C52 C 0.0847(11) 0.3672(13) 0.3811(12)
C53 C 0.0786(15) 0.4120(17) 0.4422(14)
H36 H 0.12090 0.42110 0.47080
C54 C 0.009(2) 0.4433(17) 0.4605(18)
H37 H 0.00540 0.47330 0.50140
C55 C -0.0537(14) 0.430(2) 0.418(2)
H38 H -0.10000 0.45060 0.43000
C56 C -0.0477(13) 0.385(2) 0.357(2)
H39 H -0.08990 0.37580 0.32810
C57 C 0.0215(15) 0.3536(19) 0.3383(14)
H40 H 0.02560 0.32360 0.29740
O8B O 0.2811(6) 0.2286(5) -0.0060(5)
O11B O 0.3271(4) 0.1011(4) 0.0486(4)
O13C O 0.4697(6) 0.0981(6) 0.2973(5)
O15A O 0.8970(5) 0.4476(5) -0.1821(4)
O15C O 0.3970(5) 0.0524(5) 0.1821(4)
O16A O 0.7641(5) 0.4925(7) -0.2262(5)
Cu1A Cu 0.70340(9) 0.5608(1) 0.35873(8)
Cu2B Cu 0.86519(9) 0.29680(9) -0.05585(9)
Cu3C Cu 0.55192(10) 0.64535(9) 0.29482(8)
Cu3B Cu 0.94808(10) 0.35465(9) -0.20518(8)
Cl1B Cl 0.3069(2) 0.2029(2) 0.1876(2)
#END
