
#######################################################################
#
#                 Cambridge Crystallographic Data Centre
#                                CCDC
#
#######################################################################
#
# If this CIF has been generated from an entry in the Cambridge
# Structural Database, then it will include bibliographic, chemical,
# crystal, experimental, refinement or atomic coordinate data resulting
# from the CCDC's data processing and validation procedures.
#
#######################################################################

data_CSD_CIF_UKEXEP
_audit_creation_date 2016-04-04
_audit_creation_method CSD-ConQuest-V1
_database_code_CSD UKEXEP
_database_code_depnum_ccdc_archive 'CCDC 1444252'
_chemical_formula_sum 'C32 H30 Cd3 N4 O34'
_chemical_formula_moiety
;
(C32 H14 Cd3 N4 O27 2-)n,2(H3 O1 1+),5(H2 O1)
;
_journal_coden_Cambridge 1350
_journal_volume 18
_journal_year 2016
_journal_page_first 3358
_journal_name_full 'CrystEngComm '
loop_
_publ_author_name
"Quan-Quan Li"
"Wen-Qian Zhang"
"Chun-Yan Ren"
"Yan-Ping Fan"
"Jian-Li Li"
"Ping Liu"
"Yao-Yu Wang"
_chemical_name_systematic
;
catena-[bis(oxonium) 
bis(\m-6,6'-dinitrobiphenyl-2,2',4,4'-tetracarboxylato)-triaqua-tri-cadmium 
pentahydrate]
;
_cell_volume   4902.055
_exptl_crystal_colour 'yellow'
_exptl_crystal_density_diffrn 1.65
_exptl_crystal_description 'columnar'
_diffrn_ambient_temperature 296
_refine_special_details
;
Disordered cation and solvent molecules were not modelled and the disordered 
density was taken into account using the SQUEEZE/PLATON procedure.
;
#These two values have been output from a single CSD field.
_refine_ls_R_factor_gt 0.0369
_refine_ls_wR_factor_gt 0.0369
_symmetry_cell_setting monoclinic
_symmetry_space_group_name_H-M 'P 21/c'
_symmetry_Int_Tables_number 14
loop_
_symmetry_equiv_pos_site_id
_symmetry_equiv_pos_as_xyz
1 x,y,z
2 -x,1/2+y,1/2-z
3 -x,-y,-z
4 x,-1/2-y,-1/2+z
_cell_length_a 13.0719(6)
_cell_length_b 22.5340(11)
_cell_length_c 16.8938(8)
_cell_angle_alpha 90
_cell_angle_beta 99.908(1)
_cell_angle_gamma 90
_cell_formula_units_Z 4
loop_
_atom_type_symbol
_atom_type_radius_bond
C 0.68
H 0.23
Cd 1.44
N 0.68
O 0.68
loop_
_atom_site_label
_atom_site_type_symbol
_atom_site_fract_x
_atom_site_fract_y
_atom_site_fract_z
C1 C 0.7183(3) 0.10971(19) 0.0804(2)
C2 C 0.7871(3) 0.05569(17) 0.0899(2)
C3 C 0.7994(3) 0.02291(19) 0.0207(2)
H1 H 0.76650 0.03580 -0.02950
C4 C 0.8591(3) -0.0274(2) 0.0265(3)
C5 C 0.9177(4) -0.0434(2) 0.1008(3)
H2 H 0.96380 -0.07510 0.10490
C6 C 0.9053(4) -0.0107(2) 0.1681(3)
C7 C 0.8393(3) 0.03723(18) 0.1655(3)
C8 C 0.8214(3) 0.07259(18) 0.2372(2)
C9 C 0.7387(3) 0.06321(17) 0.2776(2)
C10 C 0.7199(3) 0.09855(18) 0.3408(2)
H3 H 0.66490 0.09000 0.36730
C11 C 0.7837(3) 0.14647(19) 0.3638(2)
C12 C 0.8626(3) 0.15989(19) 0.3224(3)
H4 H 0.90170 0.19410 0.33520
C13 C 0.8848(3) 0.12266(19) 0.2614(2)
C14 C 0.9782(3) 0.1336(2) 0.2227(2)
C15 C 0.8617(3) -0.0670(2) -0.0445(3)
C16 C 0.7624(3) 0.1859(2) 0.4310(3)
C17 C 0.5702(3) 0.2878(2) 0.1567(2)
C18 C 0.4894(3) 0.30034(18) 0.2081(2)
C19 C 0.5144(3) 0.2916(2) 0.2900(2)
H5 H 0.57830 0.27510 0.31160
C20 C 0.4457(3) 0.30708(18) 0.3409(2)
C21 C 0.3487(3) 0.32896(19) 0.3077(2)
H6 H 0.30150 0.33950 0.34070
C22 C 0.3227(3) 0.33498(18) 0.2253(2)
C23 C 0.3926(3) 0.32218(18) 0.1728(2)
C24 C 0.3648(3) 0.32483(19) 0.0835(2)
C25 C 0.4012(3) 0.3685(2) 0.0347(3)
C26 C 0.3726(4) 0.3697(2) -0.0469(2)
H7 H 0.39840 0.39910 -0.07670
C27 C 0.3048(3) 0.32721(19) -0.0853(2)
C28 C 0.2694(3) 0.28288(19) -0.0397(2)
H8 H 0.22390 0.25420 -0.06480
C29 C 0.3008(3) 0.28096(18) 0.0427(2)
C30 C 0.2605(3) 0.23145(18) 0.0893(2)
C31 C 0.4807(3) 0.3020(2) 0.4299(3)
C32 C 0.2635(3) 0.3312(2) -0.1739(2)
Cd1 Cd 0.48088(2) 0.154030(14) 0.104540(17)
Cd2 Cd 0.16613(2) 0.146487(13) 0.171284(16)
Cd3 Cd 0.69401(2) 0.248146(13) 0.047196(17)
N1 N 0.9673(4) -0.0297(2) 0.2445(2)
N2 N 0.6648(3) 0.01545(17) 0.2514(2)
N3 N 0.4701(4) 0.4164(2) 0.0714(3)
N4 N 0.2175(3) 0.3589(2) 0.1949(2)
O1 O 0.7511(3) 0.15436(15) 0.0497(2)
O2 O 0.6346(2) 0.10485(15) 0.1057(2)
O3 O 0.9390(3) -0.01663(17) 0.3075(2)
O4 O 1.0473(4) -0.0591(2) 0.2416(3)
O5 O 0.9280(3) -0.10553(17) -0.0405(2)
O6 O 0.7906(2) -0.06079(15) -0.10478(19)
O7 O 0.9816(2) 0.18019(16) 0.1815(2)
O8 O 1.0490(2) 0.09645(16) 0.2347(2)
O9 O 0.6964(3) -0.02942(15) 0.2219(2)
O10 O 0.5737(3) 0.02362(16) 0.2583(2)
O11 O 0.7156(3) 0.16355(15) 0.4821(2)
O12 O 0.7914(3) 0.23798(15) 0.4340(2)
O13 O 0.5835(3) 0.23406(16) 0.1376(2)
O14 O 0.6192(3) 0.32780(18) 0.1335(3)
O15 O 0.2014(3) 0.3821(2) 0.1292(2)
O16 O 0.1524(3) 0.35388(19) 0.2369(3)
O17 O 0.4347(3) 0.33265(18) 0.47345(19)
O18 O 0.5536(3) 0.2670(2) 0.4530(2)
O19 O 0.3210(2) 0.19253(14) 0.12226(18)
O20 O 0.1658(2) 0.23099(16) 0.0925(2)
O21 O 0.4632(4) 0.4328(2) 0.1385(2)
O22 O 0.5286(4) 0.4381(2) 0.0317(3)
O23 O 0.1976(3) 0.29502(15) -0.20537(18)
O24 O 0.2954(2) 0.37336(15) -0.21397(17)
O25 O 0.4107(3) 0.06131(16) 0.0823(3)
O26 O 0.4881(3) 0.13930(18) 0.2406(2)
O27 O 0.8354(3) 0.2662(2) 0.1503(3)
Cd1C Cd 0.48088(2) 0.345970(14) 0.604540(17)
Cd2* Cd 1.16613(2) 0.146487(13) 0.171284(16)
Cd2B Cd 0.83387(2) -0.146487(13) -0.171284(16)
Cd2C Cd 0.16613(2) 0.353513(13) -0.328716(16)
Cd3C Cd 0.69401(2) 0.251854(13) 0.547196(17)
O5B O 0.0720(3) 0.10553(17) 0.0405(2)
O6B O 0.2094(2) 0.06079(15) 0.10478(19)
O7* O -0.0184(2) 0.18019(16) 0.1815(2)
O8* O 0.0490(2) 0.09645(16) 0.2347(2)
O11C O 0.7156(3) 0.33645(15) -0.0179(2)
O12C O 0.7914(3) 0.26202(15) -0.0660(2)
O17C O 0.4347(3) 0.16735(18) -0.02655(19)
O18C O 0.5536(3) 0.2330(2) -0.0470(2)
O23C O 0.1976(3) 0.20498(15) 0.29463(18)
O24C O 0.2954(2) 0.12664(15) 0.28603(17)
#END
