
#######################################################################
#
#                 Cambridge Crystallographic Data Centre
#                                CCDC
#
#######################################################################
#
# If this CIF has been generated from an entry in the Cambridge
# Structural Database, then it will include bibliographic, chemical,
# crystal, experimental, refinement or atomic coordinate data resulting
# from the CCDC's data processing and validation procedures.
#
#######################################################################

data_CSD_CIF_UKONUG
_audit_creation_date 2020-12-29
_audit_creation_method CSD-ConQuest-V1
_database_code_CSD UKONUG
_database_code_depnum_ccdc_archive 'CCDC 1957838'
_chemical_formula_sum 'C24 H38 Co2 Mo5 N4 O33 P2'
_chemical_formula_moiety
;
(C24 H24 Co2 Mo5 N4 O27 P2 2-)n,4(H2 O1),2(H3 O1 1+)
;
_journal_coden_Cambridge 1487
_journal_volume 63
_journal_year 2020
_journal_page_first 1825
_journal_name_full 'Sci.China.Chem. '
loop_
_publ_author_name
"Wu-Hua Chen"
"Jin-Hua Xiong"
"Xue Teng"
"Jin-Xiao Mi"
"Zhi-Biao Hu"
"Haifeng Wang"
"Zuofeng Chen"
_chemical_name_systematic
;
catena-[bis(oxonium) 
heptakis(\m-oxo)-bis(\m-phosphato)-tetraaqua-octaoxo-bis(1,10-phenanthroline)-
di-cobalt(ii)-penta-molybdenum(vi) tetrahydrate]
;
_cell_volume   4569.678
_exptl_crystal_colour 'brown'
_exptl_crystal_density_diffrn 2.282
_exptl_crystal_description 'block'
_diffrn_ambient_temperature 293
#These two values have been output from a single CSD field.
_refine_ls_R_factor_gt 0.0395
_refine_ls_wR_factor_gt 0.0395
_symmetry_cell_setting orthorhombic
_symmetry_space_group_name_H-M 'P b c n'
_symmetry_Int_Tables_number 60
loop_
_symmetry_equiv_pos_site_id
_symmetry_equiv_pos_as_xyz
1 x,y,z
2 1/2-x,1/2-y,1/2+z
3 -x,y,1/2-z
4 1/2+x,1/2-y,-z
5 -x,-y,-z
6 -1/2+x,-1/2+y,-1/2-z
7 x,-y,-1/2+z
8 -1/2-x,-1/2+y,z
_cell_length_a 27.5283(19)
_cell_length_b 10.0721(10)
_cell_length_c 16.4811(12)
_cell_angle_alpha 90
_cell_angle_beta 90
_cell_angle_gamma 90
_cell_formula_units_Z 4
loop_
_atom_type_symbol
_atom_type_radius_bond
C 0.68
H 0.23
Co 1.26
Mo 1.54
N 0.68
O 0.68
P 1.05
loop_
_atom_site_label
_atom_site_type_symbol
_atom_site_fract_x
_atom_site_fract_y
_atom_site_fract_z
Mo1 Mo 0.55381(2) 0.84731(4) 0.31514(2)
Mo2 Mo 0.59062(2) 0.52939(4) 0.32067(2)
Mo3 Mo 0.50000 0.33716(5) 0.25000
Co1 Co 0.61287(2) 0.32095(6) 0.50851(3)
P1 P 0.53236(3) 0.37931(11) 0.64775(6)
O1 O 0.50000 0.8963(4) 0.25000
O2 O 0.55180(15) 0.9569(3) 0.3941(2)
O3 O 0.59993(13) 0.9088(4) 0.25716(19)
O4 O 0.5876(1) 0.7035(3) 0.36778(16)
O5 O 0.64759(10) 0.5314(4) 0.28288(17)
O6 O 0.56701(9) 0.3888(3) 0.25192(15)
O7 O 0.50234(11) 0.2325(3) 0.16842(18)
O8 O 0.59615(10) 0.4490(3) 0.41242(16)
O9 O 0.57022(10) 0.4261(3) 0.58679(15)
O10 O 0.49506(9) 0.4912(3) 0.66178(15)
O11 O 0.50597(10) 0.2567(3) 0.61783(15)
O12 O 0.55703(10) 0.3427(3) 0.73025(15)
O13 O 0.62511(13) 0.1686(4) 0.5963(2)
H1 H 0.63450 0.20360 0.64130
O14 O 0.55415(11) 0.2068(3) 0.4716(2)
H2 H 0.54000 0.17440 0.51310
H3 H 0.56410 0.14360 0.44140
N1 N 0.66551(12) 0.2320(4) 0.4305(2)
N2 N 0.67699(12) 0.4176(4) 0.5453(2)
C1 C 0.65909(19) 0.1447(5) 0.3720(3)
H4 H 0.62770 0.11620 0.36070
C2 C 0.6974(2) 0.0929(7) 0.3260(4)
H5 H 0.69160 0.03130 0.28510
C3 C 0.7431(2) 0.1341(7) 0.3422(4)
H6 H 0.76900 0.10100 0.31190
C4 C 0.75188(18) 0.2249(6) 0.4032(3)
C5 C 0.79876(19) 0.2717(7) 0.4261(4)
H7 H 0.82590 0.23970 0.39880
C6 C 0.80499(18) 0.3606(7) 0.4860(4)
H8 H 0.83630 0.38710 0.50000
C7 C 0.76440(17) 0.4154(6) 0.5286(3)
C8 C 0.7680(2) 0.5105(7) 0.5891(4)
H9 H 0.79840 0.54190 0.60440
C9 C 0.7271(2) 0.5586(6) 0.6264(3)
H10 H 0.72940 0.62320 0.66650
C10 C 0.68210(19) 0.5081(5) 0.6026(3)
H11 H 0.65440 0.53970 0.62830
C11 C 0.71125(15) 0.2741(5) 0.4458(3)
C12 C 0.71769(15) 0.3710(5) 0.5079(3)
O15 O 0.55961(17) 0.6800(5) 0.5313(2)
H12 H 0.57290 0.69540 0.48570
H13 H 0.58120 0.68000 0.56830
O16 O 0.5566(3) -0.0250(6) 0.5791(3)
H14 H 0.57520 -0.06160 0.61400
H15? H 0.53540 0.02160 0.60360
O17 O 0.62518(19) 0.2033(5) 0.1671(3)
H16 H 0.61830 0.25640 0.20550
Mo1B Mo 0.44619(2) 0.84731(4) 0.18486(2)
Mo2B Mo 0.40938(2) 0.52939(4) 0.17933(2)
Co1B Co 0.38713(2) 0.32095(6) -0.00851(3)
P1B P 0.46764(3) 0.37931(11) -0.14775(6)
O2B O 0.44820(15) 0.9569(3) 0.1059(2)
O3B O 0.40007(13) 0.9088(4) 0.24284(19)
O4B O 0.4124(1) 0.7035(3) 0.13222(16)
O5B O 0.35241(10) 0.5314(4) 0.21712(17)
O6B O 0.43299(9) 0.3888(3) 0.24808(15)
O7B O 0.49766(11) 0.2325(3) 0.33158(18)
O8B O 0.40385(10) 0.4490(3) 0.08758(16)
O9B O 0.42978(10) 0.4261(3) -0.08679(15)
O10B O 0.50494(9) 0.4912(3) -0.16178(15)
O11B O 0.49403(10) 0.2567(3) -0.11783(15)
O12B O 0.44297(10) 0.3427(3) -0.23025(15)
O13B O 0.37489(13) 0.1686(4) -0.0963(2)
H1B H 0.36550 0.20360 -0.14130
O14B O 0.44585(11) 0.2068(3) 0.0284(2)
H2B H 0.46000 0.17440 -0.01310
H3B H 0.43590 0.14360 0.05860
N1B N 0.33449(12) 0.2320(4) 0.0695(2)
N2B N 0.32301(12) 0.4176(4) -0.0453(2)
C1B C 0.34091(19) 0.1447(5) 0.1280(3)
H4B H 0.37230 0.11620 0.13930
C2B C 0.3026(2) 0.0929(7) 0.1740(4)
H5B H 0.30840 0.03130 0.21490
C3B C 0.2569(2) 0.1341(7) 0.1578(4)
H6B H 0.23100 0.10100 0.18810
C4B C 0.24812(18) 0.2249(6) 0.0968(3)
C5B C 0.20124(19) 0.2717(7) 0.0739(4)
H7B H 0.17410 0.23970 0.10120
C6B C 0.19501(18) 0.3606(7) 0.0140(4)
H8B H 0.16370 0.38710 0.00000
C7B C 0.23560(17) 0.4154(6) -0.0286(3)
C8B C 0.2320(2) 0.5105(7) -0.0891(4)
H9B H 0.20160 0.54190 -0.10440
C9B C 0.2729(2) 0.5586(6) -0.1264(3)
H10B H 0.27060 0.62320 -0.16650
C10B C 0.31790(19) 0.5081(5) -0.1026(3)
H11B H 0.34560 0.53970 -0.12830
C11B C 0.28875(15) 0.2741(5) 0.0542(3)
C12B C 0.28231(15) 0.3710(5) -0.0079(3)
Mo1D Mo 0.44619(2) 0.15269(4) -0.31514(2)
Mo1D* Mo 0.44619(2) 0.15269(4) 0.68486(2)
Mo1F Mo 0.55381(2) 0.15269(4) -0.18486(2)
Mo1F* Mo 0.55381(2) 0.15269(4) 0.81514(2)
Mo2D Mo 0.40938(2) 0.47061(4) -0.32067(2)
Mo2D* Mo 0.40938(2) 0.47061(4) 0.67933(2)
Mo2F Mo 0.59062(2) 0.47061(4) -0.17933(2)
Mo2F* Mo 0.59062(2) 0.47061(4) 0.82067(2)
Mo3D Mo 0.50000 0.66284(5) -0.25000
Mo3D* Mo 0.50000 0.66284(5) 0.75000
O10D O 0.50494(9) 0.5088(3) 0.33822(15)
O10F O 0.49506(9) 0.5088(3) 0.16178(15)
O11D O 0.49403(10) 0.7433(3) 0.38217(15)
O11F O 0.50597(10) 0.7433(3) 0.11783(15)
O12D O 0.44297(10) 0.6573(3) 0.26975(15)
O12F O 0.55703(10) 0.6573(3) 0.23025(15)
#END
