
#######################################################################
#
#                 Cambridge Crystallographic Data Centre
#                                CCDC
#
#######################################################################
#
# If this CIF has been generated from an entry in the Cambridge
# Structural Database, then it will include bibliographic, chemical,
# crystal, experimental, refinement or atomic coordinate data resulting
# from the CCDC's data processing and validation procedures.
#
#######################################################################

data_CSD_CIF_UKOZIF
_audit_creation_date 2016-04-04
_audit_creation_method CSD-ConQuest-V1
_database_code_CSD UKOZIF
_database_code_depnum_ccdc_archive 'CCDC 1433800'
_chemical_formula_sum 'C160 H188 Ca5 N10 O48'
_chemical_formula_moiety
;
(C144 H140 Ca5 N4 O42 2-)n,2(C2 H8 N1 1+),4(C3 H7 N1 O1),2(H2 O1)
;
_journal_coden_Cambridge 1350
_journal_volume 18
_journal_year 2016
_journal_page_first 2864
_journal_name_full 'CrystEngComm '
loop_
_publ_author_name
"Xi Wang"
"Min Hu"
"Jia-Yue Tian"
"Chun-Sen Liu"
_chemical_name_systematic
;
catena-[bis(dimethylammonium) 
tetrakis(\m-4,4',4''-((2,4,6-trimethylbenzene-1,3,5-triyl)tris(methyleneoxy))t
ribenzoato)-tetrakis(N,N-dimethylformamide)-diaqua-penta-calcium 
N,N-dimethylformamide solvate dihydrate]
;
_cell_volume   3841.343
_exptl_crystal_colour 'colorless'
_exptl_crystal_density_diffrn 1.21
_exptl_crystal_description 'block'
_diffrn_ambient_temperature 294
_refine_special_details
;
Disordered cation and solvent molecules were not modelled and the disordered 
density was taken into account using the SQUEEZE/PLATON procedure.
;
#These two values have been output from a single CSD field.
_refine_ls_R_factor_gt 0.0555
_refine_ls_wR_factor_gt 0.0555
_symmetry_cell_setting triclinic
_symmetry_space_group_name_H-M 'P -1'
_symmetry_Int_Tables_number 2
loop_
_symmetry_equiv_pos_site_id
_symmetry_equiv_pos_as_xyz
1 x,y,z
2 -x,-y,-z
_cell_length_a 14.6854(4)
_cell_length_b 17.3507(7)
_cell_length_c 17.5650(8)
_cell_angle_alpha 71.291(4)
_cell_angle_beta 75.262(3)
_cell_angle_gamma 66.322(3)
_cell_formula_units_Z 1
loop_
_atom_type_symbol
_atom_type_radius_bond
C 0.68
H 0.23
Ca 1.76
N 0.68
O 0.68
loop_
_atom_site_label
_atom_site_type_symbol
_atom_site_fract_x
_atom_site_fract_y
_atom_site_fract_z
Ca1 Ca 0.50000 0.50000 0.50000
O1 O 0.46545(15) 0.59959(13) 0.37986(12)
O2 O -0.35322(13) 1.40940(12) 0.43197(11)
O3 O 0.39356(13) 1.44409(11) -0.52956(10)
C1 C 0.42514(19) 0.62736(17) 0.31708(15)
C2 C -0.34492(19) 1.39432(17) 0.36501(16)
Ca2 Ca 0.42656(4) 0.43487(3) 0.32039(3)
O4 O 0.39532(16) 0.58463(12) 0.28941(12)
C3 C 0.41147(18) 0.72054(16) 0.27142(15)
O5 O -0.41174(13) 1.38335(14) 0.34128(13)
C4 C -0.24776(18) 1.38710(17) 0.30828(16)
O6 O 0.46166(16) 0.29867(13) 0.29167(11)
O7 O 0.49627(18) 0.46655(15) 0.17569(13)
O8 O 1.26823(14) -0.55516(13) 0.31132(12)
O9 O 0.37085(15) 1.33406(12) -0.54671(10)
C5 C 0.4486(2) 0.76893(18) 0.29575(16)
C6 C 0.3602(2) 0.76090(18) 0.20548(16)
C7 C -0.1605(2) 1.3723(2) 0.33419(17)
C8 C -0.2446(2) 1.39486(19) 0.22600(17)
Ca3 Ca 0.27857(4) 0.28946(3) 0.39156(3)
C9 C 0.4401(2) 0.25832(19) 0.25483(16)
C10 C 0.5001(3) 0.5358(2) 0.1301(2)
C11 C 0.4333(2) 0.85486(18) 0.25762(17)
H1 H 0.48510 0.74270 0.33920
H2 H 0.33520 0.72940 0.18740
C12 C 0.3448(2) 0.84725(18) 0.16532(16)
C13 C -0.0697(2) 1.3618(2) 0.28229(17)
H3 H -0.16190 1.36910 0.38830
H4 H -0.30300 1.40550 0.20680
C14 C -0.1569(2) 1.38701(19) 0.17344(17)
O10 O 0.36062(17) 0.24383(18) 0.27303(14)
O11 O 0.15537(19) 0.33024(19) 0.50142(15)
O12 O 0.18197(12) 0.20607(12) 0.38630(13)
O13 O 1.14895(15) -0.59920(13) 0.30745(12)
O14 O 1.39163(15) 0.15559(13) -0.54424(12)
C15 C 0.51482(19) 0.22271(17) 0.18802(15)
N1 N 0.5580(2) 0.54563(19) 0.05989(15)
H5 H 0.45830 0.58600 0.14690
C16 C 0.38082(18) 0.89443(16) 0.19227(15)
H6 H 0.45820 0.88630 0.27580
H7 H 0.31050 0.87300 0.12060
C17 C -0.06763(19) 1.36681(18) 0.20173(16)
H8 H -0.01140 1.35160 0.30150
H9 H -0.15680 1.39520 0.11840
C18 C 0.1296(3) 0.2999(4) 0.5707(3)
H10 H 0.20920 0.15260 0.38640
H11 H 0.12150 0.21550 0.40940
C19 C 0.4942(2) 0.1741(2) 0.14984(17)
C20 C 0.6071(2) 0.23418(18) 0.16478(16)
C21 C 0.5500(4) 0.6323(3) 0.0086(3)
C22 C 0.6280(3) 0.4724(3) 0.0298(2)
O15 O 0.36928(13) 0.98016(11) 0.15702(11)
O16 O 0.01620(13) 1.35310(15) 0.14496(12)
N2 N 0.0698(3) 0.3423(3) 0.6288(2)
H12 H 0.15340 0.23960 0.58740
C23 C 0.5637(2) 0.1368(2) 0.09132(17)
H13 H 0.43220 0.16680 0.16420
H14 H 0.62140 0.26770 0.18900
C24 C 0.6782(2) 0.1965(2) 0.10617(16)
H15 H 0.49910 0.67510 0.03480
H16 H 0.53240 0.63870 -0.04270
H17 H 0.61330 0.64010 -0.00020
H18 H 0.61390 0.42100 0.06180
H19 H 0.69510 0.46550 0.03340
H20 H 0.62190 0.48170 -0.02580
C25 C 0.2990(2) 1.02550(17) 0.09992(17)
C26 C 0.11541(19) 1.3140(2) 0.16896(18)
C27 C 0.0417(5) 0.2966(4) 0.7074(3)
C28 C 0.0483(4) 0.4337(4) 0.6095(3)
C29 C 0.65697(19) 0.14580(19) 0.07132(15)
H21 H 0.54820 0.10560 0.06520
H22 H 0.73950 0.20510 0.09040
C30 C 0.27744(18) 1.12186(16) 0.07793(14)
H23 H 0.23690 1.01420 0.12320
H24 H 0.32610 1.00410 0.05120
C31 C 0.18229(17) 1.26092(17) 0.10970(14)
H25 H 0.11340 1.27730 0.22380
H26 H 0.14030 1.35860 0.16730
H27 H 0.06350 0.23600 0.70910
H28 H -0.03000 0.31880 0.72130
H29 H 0.07250 0.30370 0.74560
H30 H 0.07390 0.44690 0.64700
H31 H -0.02310 0.46340 0.61310
H32 H 0.07960 0.45220 0.55520
O17 O 0.72413(13) 0.10186(15) 0.01549(12)
C32 C 0.21399(17) 1.17068(17) 0.13364(14)
C33 C 0.31175(17) 1.16285(17) -0.00003(14)
C34 C 0.20842(18) 1.30321(16) 0.02940(16)
C35 C 0.82891(18) 0.08055(19) 0.01618(17)
C36 C 0.1824(2) 1.1234(2) 0.21815(16)
C37 C 0.27370(18) 1.25395(17) -0.02525(14)
C38 C 0.3894(2) 1.1113(2) -0.05668(18)
C39 C 0.1655(2) 1.40112(19) 0.0028(2)
C40 C 0.88674(17) 0.01659(17) -0.03496(15)
H33 H 0.84430 0.05530 0.07130
H34 H 0.84670 0.13240 -0.00580
H35 H 0.12990 1.16410 0.24580
H36 H 0.23890 1.09520 0.24740
H37 H 0.15830 1.08070 0.21510
C41 C 0.3017(2) 1.2969(2) -0.11242(16)
H38 H 0.35650 1.09690 -0.08810
H39 H 0.43260 1.05890 -0.02560
H40 H 0.42860 1.14520 -0.09240
H41 H 0.10000 1.41880 -0.01170
H42 H 0.20880 1.42150 -0.04330
H43 H 0.16040 1.42520 0.04660
C42 C 0.90156(18) -0.07114(18) -0.00102(15)
C43 C 0.92830(18) 0.04496(17) -0.11538(15)
O18 O 0.25477(15) 1.27612(13) -0.16144(10)
H44 H 0.27860 1.35930 -0.12000
H45 H 0.37410 1.27590 -0.12760
C44 C 0.96060(19) -0.13195(17) -0.04728(16)
C45 C 0.8521(3) -0.0995(2) 0.08439(18)
C46 C 0.98787(18) -0.01649(18) -0.16007(15)
C47 C 0.9085(2) 0.14002(19) -0.15281(19)
C48 C 0.2799(2) 1.30452(18) -0.24475(15)
C49 C 1.00580(19) -0.10476(17) -0.12609(16)
C50 C 0.9833(2) -0.22692(18) -0.00976(19)
H46 H 0.78330 -0.06180 0.09090
H47 H 0.88680 -0.09670 0.12240
H48 H 0.85490 -0.15800 0.09410
C51 C 1.04302(19) 0.0114(2) -0.24234(16)
H49 H 0.84760 0.17330 -0.12470
H50 H 0.90190 0.15310 -0.20900
H51 H 0.96350 0.15440 -0.14870
C52 C 0.2813(2) 1.38687(19) -0.28124(16)
C53 C 0.3014(2) 1.24656(19) -0.29131(16)
C54 C 1.0760(2) -0.1702(2) -0.1739(2)
O19 O 1.07996(14) -0.25949(12) 0.01620(13)
H52 H 0.93250 -0.23630 0.03620
H53 H 0.98480 -0.25610 -0.04910
O20 O 1.13943(14) 0.00091(15) -0.22802(11)
H54 H 1.04990 -0.02460 -0.27730
H55 H 1.00770 0.07150 -0.26780
H56 H 0.26440 1.42640 -0.25020
C55 C 0.3080(2) 1.41082(18) -0.36476(15)
C56 C 0.3272(2) 1.27155(19) -0.37462(16)
H57 H 0.29850 1.19130 -0.26680
H58 H 1.10700 -0.22420 -0.13710
H59 H 1.12700 -0.14870 -0.20910
H60 H 1.03870 -0.17910 -0.20580
C57 C 1.1049(2) -0.33222(17) 0.07743(17)
C58 C 1.2054(2) 0.02467(19) -0.29253(16)
H61 H 0.30980 1.46640 -0.38920
C59 C 0.33193(19) 1.35360(17) -0.41225(14)
H62 H 0.34170 1.23260 -0.40590
C60 C 1.0514(2) -0.38812(19) 0.10969(19)
C61 C 1.1897(2) -0.34856(18) 0.10915(18)
C62 C 1.2991(2) 0.0088(2) -0.27564(17)
C63 C 1.1842(2) 0.0617(2) -0.37077(17)
C64 C 0.36650(18) 1.37895(16) -0.50127(14)
H63 H 0.99520 -0.37880 0.08800
C65 C 1.0823(2) -0.45787(18) 0.17440(18)
C66 C 1.2192(2) -0.41801(18) 0.17387(18)
H64 H 1.22710 -0.31220 0.08640
H65 H 1.31360 -0.01740 -0.22280
C67 C 1.3711(2) 0.0312(2) -0.33605(17)
C68 C 1.2567(2) 0.0848(2) -0.43118(18)
H66 H 1.12200 0.07110 -0.38300
H67 H 1.04620 -0.49540 0.19590
C69 C 1.16528(19) -0.47372(17) 0.20823(16)
H68 H 1.27600 -0.42780 0.19490
H69 H 1.43390 0.02020 -0.32400
C70 C 1.3500(2) 0.07033(17) -0.41519(16)
H70 H 1.24200 0.11080 -0.48400
C71 C 1.19503(19) -0.54748(18) 0.27977(17)
C72 C 1.4237(2) 0.10165(18) -0.48148(17)
O21 O 1.51299(16) 0.07407(15) -0.46912(13)
O1A O -0.46545(15) 1.40041(13) 0.62014(12)
O2A O 0.35322(13) 0.59060(12) 0.56803(11)
O3A O -0.39356(13) 0.55591(11) 1.52956(10)
C1A C -0.42514(19) 1.37264(17) 0.68292(15)
C2A C 0.34492(19) 0.60568(17) 0.63499(16)
Ca2A Ca -0.42656(4) 1.56513(3) 0.67961(3)
O4A O -0.39532(16) 1.41537(12) 0.71059(12)
C3A C -0.41147(18) 1.27946(16) 0.72858(15)
O5A O 0.41174(13) 0.61665(14) 0.65872(13)
C4A C 0.24776(18) 0.61290(17) 0.69172(16)
O6A O -0.46166(16) 1.70133(13) 0.70833(11)
O7A O -0.49627(18) 1.53345(15) 0.82431(13)
O8A O -1.26823(14) 2.55516(13) 0.68868(12)
O9A O -0.37085(15) 0.66594(12) 1.54671(10)
C5A C -0.4486(2) 1.23107(18) 0.70425(16)
C6A C -0.3602(2) 1.23910(18) 0.79452(16)
C7A C 0.1605(2) 0.6277(2) 0.66581(17)
C8A C 0.2446(2) 0.60514(19) 0.77400(17)
Ca3A Ca -0.27857(4) 1.71054(3) 0.60844(3)
C9A C -0.4401(2) 1.74168(19) 0.74517(16)
C10A C -0.5001(3) 1.4642(2) 0.8699(2)
C11A C -0.4333(2) 1.14514(18) 0.74238(17)
H1A H -0.48510 1.25730 0.66080
H2A H -0.33520 1.27060 0.81260
C12A C -0.3448(2) 1.15275(18) 0.83468(16)
C13A C 0.0697(2) 0.6382(2) 0.71771(17)
H3A H 0.16190 0.63090 0.61170
H4A H 0.30300 0.59450 0.79320
C14A C 0.1569(2) 0.61299(19) 0.82656(17)
O10A O -0.36062(17) 1.75617(18) 0.72697(14)
O11A O -0.15537(19) 1.66976(19) 0.49858(15)
O12A O -0.18197(12) 1.79393(12) 0.61370(13)
O13A O -1.14895(15) 2.59920(13) 0.69255(12)
O14A O -1.39163(15) 1.84441(13) 1.54424(12)
C15A C -0.51482(19) 1.77729(17) 0.81198(15)
N1A N -0.5580(2) 1.45437(19) 0.94011(15)
H5A H -0.45830 1.41400 0.85310
C16A C -0.38082(18) 1.10557(16) 0.80773(15)
H6A H -0.45820 1.11370 0.72420
H7A H -0.31050 1.12700 0.87940
C17A C 0.06763(19) 0.63319(18) 0.79827(16)
H8A H 0.01140 0.64840 0.69850
H9A H 0.15680 0.60480 0.88160
C18A C -0.1296(3) 1.7001(4) 0.4293(3)
H10A H -0.20920 1.84740 0.61360
H11A H -0.12150 1.78450 0.59060
C19A C -0.4942(2) 1.8259(2) 0.85016(17)
C20A C -0.6071(2) 1.76582(18) 0.83522(16)
C21A C -0.5500(4) 1.3677(3) 0.9914(3)
C22A C -0.6280(3) 1.5276(3) 0.9702(2)
O15A O -0.36928(13) 1.01984(11) 0.84298(11)
O16A O -0.01620(13) 0.64690(15) 0.85504(12)
N2A N -0.0698(3) 1.6577(3) 0.3712(2)
H12A H -0.15340 1.76040 0.41260
C23A C -0.5637(2) 1.8632(2) 0.90868(17)
H13A H -0.43220 1.83320 0.83580
H14A H -0.62140 1.73230 0.81100
C24A C -0.6782(2) 1.8035(2) 0.89383(16)
H15A H -0.49910 1.32490 0.96520
H16A H -0.53240 1.36130 1.04270
H17A H -0.61330 1.35990 1.00020
H18A H -0.61390 1.57900 0.93820
H19A H -0.69510 1.53450 0.96660
H20A H -0.62190 1.51830 1.02580
C25A C -0.2990(2) 0.97450(17) 0.90008(17)
C26A C -0.11541(19) 0.6860(2) 0.83104(18)
C27A C -0.0417(5) 1.7034(4) 0.2926(3)
C28A C -0.0483(4) 1.5663(4) 0.3905(3)
C29A C -0.65697(19) 1.85420(19) 0.92868(15)
H21A H -0.54820 1.89440 0.93480
H22A H -0.73950 1.79490 0.90960
C30A C -0.27744(18) 0.87814(16) 0.92207(14)
H23A H -0.23690 0.98580 0.87680
H24A H -0.32610 0.99590 0.94880
C31A C -0.18229(17) 0.73908(17) 0.89030(14)
H25A H -0.11340 0.72270 0.77620
H26A H -0.14030 0.64140 0.83270
H27A H -0.06350 1.76400 0.29090
H28A H 0.03000 1.68120 0.27870
H29A H -0.07250 1.69630 0.25440
H30A H -0.07390 1.55310 0.35300
H31A H 0.02310 1.53660 0.38690
H32A H -0.07960 1.54780 0.44480
O17A O -0.72413(13) 1.89814(15) 0.98451(12)
C32A C -0.21399(17) 0.82932(17) 0.86636(14)
C33A C -0.31175(17) 0.83715(17) 1.00003(14)
C34A C -0.20842(18) 0.69679(16) 0.97060(16)
C35A C -0.82891(18) 1.91945(19) 0.98382(17)
C36A C -0.1824(2) 0.8766(2) 0.78185(16)
C37A C -0.27370(18) 0.74605(17) 1.02525(14)
C38A C -0.3894(2) 0.8887(2) 1.05668(18)
C39A C -0.1655(2) 0.59888(19) 0.9972(2)
C40A C -0.88674(17) 1.98341(17) 1.03496(15)
H33A H -0.84430 1.94470 0.92870
H34A H -0.84670 1.86760 1.00580
H35A H -0.12990 0.83590 0.75420
H36A H -0.23890 0.90480 0.75260
H37A H -0.15830 0.91930 0.78490
C41A C -0.3017(2) 0.7031(2) 1.11242(16)
H38A H -0.35650 0.90310 1.08810
H39A H -0.43260 0.94110 1.02560
H40A H -0.42860 0.85480 1.09240
H41A H -0.10000 0.58120 1.01170
H42A H -0.20880 0.57850 1.04330
H43A H -0.16040 0.57480 0.95340
C42A C -0.90156(18) 2.07114(18) 1.00102(15)
C43A C -0.92830(18) 1.95504(17) 1.11538(15)
O18A O -0.25477(15) 0.72388(13) 1.16144(10)
H44A H -0.27860 0.64070 1.12000
H45A H -0.37410 0.72410 1.12760
C44A C -0.96060(19) 2.13195(17) 1.04728(16)
C45A C -0.8521(3) 2.0995(2) 0.91561(18)
C46A C -0.98787(18) 2.01649(18) 1.16007(15)
C47A C -0.9085(2) 1.85998(19) 1.15281(19)
C48A C -0.2799(2) 0.69548(18) 1.24475(15)
C49A C -1.00580(19) 2.10476(17) 1.12609(16)
C50A C -0.9833(2) 2.22692(18) 1.00976(19)
H46A H -0.78330 2.06180 0.90910
H47A H -0.88680 2.09670 0.87760
H48A H -0.85490 2.15800 0.90590
C51A C -1.04302(19) 1.9886(2) 1.24234(16)
H49A H -0.84760 1.82670 1.12470
H50A H -0.90190 1.84690 1.20900
H51A H -0.96350 1.84560 1.14870
C52A C -0.2813(2) 0.61313(19) 1.28124(16)
C53A C -0.3014(2) 0.75344(19) 1.29131(16)
C54A C -1.0760(2) 2.1702(2) 1.1739(2)
O19A O -1.07996(14) 2.25949(12) 0.98380(13)
H52A H -0.93250 2.23630 0.96380
H53A H -0.98480 2.25610 1.04910
O20A O -1.13943(14) 1.99909(15) 1.22802(11)
H54A H -1.04990 2.02460 1.27730
H55A H -1.00770 1.92850 1.26780
H56A H -0.26440 0.57360 1.25020
C55A C -0.3080(2) 0.58918(18) 1.36476(15)
C56A C -0.3272(2) 0.72845(19) 1.37462(16)
H57A H -0.29850 0.80870 1.26680
H58A H -1.10700 2.22420 1.13710
H59A H -1.12700 2.14870 1.20910
H60A H -1.03870 2.17910 1.20580
C57A C -1.1049(2) 2.33222(17) 0.92257(17)
C58A C -1.2054(2) 1.97533(19) 1.29253(16)
H61A H -0.30980 0.53360 1.38920
C59A C -0.33193(19) 0.64640(17) 1.41225(14)
H62A H -0.34170 0.76740 1.40590
C60A C -1.0514(2) 2.38812(19) 0.89031(19)
C61A C -1.1897(2) 2.34856(18) 0.89085(18)
C62A C -1.2991(2) 1.9912(2) 1.27564(17)
C63A C -1.1842(2) 1.9383(2) 1.37077(17)
C64A C -0.36650(18) 0.62105(16) 1.50127(14)
H63A H -0.99520 2.37880 0.91200
C65A C -1.0823(2) 2.45787(18) 0.82560(18)
C66A C -1.2192(2) 2.41801(18) 0.82613(18)
H64A H -1.22710 2.31220 0.91360
H65A H -1.31360 2.01740 1.22280
C67A C -1.3711(2) 1.9688(2) 1.33605(17)
C68A C -1.2567(2) 1.9152(2) 1.43118(18)
H66A H -1.12200 1.92890 1.38300
H67A H -1.04620 2.49540 0.80410
C69A C -1.16528(19) 2.47372(17) 0.79177(16)
H68A H -1.27600 2.42780 0.80510
H69A H -1.43390 1.97980 1.32400
C70A C -1.3500(2) 1.92967(17) 1.41519(16)
H70A H -1.24200 1.88920 1.48400
C71A C -1.19503(19) 2.54748(18) 0.72023(17)
C72A C -1.4237(2) 1.89835(18) 1.48148(17)
O21A O -1.51299(16) 1.92593(15) 1.46912(13)
Ca1* Ca -0.50000 0.50000 1.50000
Ca1** Ca -0.50000 1.50000 0.50000
Ca1*** Ca 0.50000 1.50000 -0.50000
O1A* O 0.53455(15) 0.40041(13) 0.62014(12)
O2* O 0.64678(13) 0.40940(12) 0.43197(11)
O3* O 0.39356(13) 0.44409(11) 0.47044(10)
O3A* O -0.39356(13) 1.55591(11) 0.52956(10)
O3A** O 0.60644(13) 0.55591(11) 0.52956(10)
Ca2* Ca -0.57344(4) 1.43487(3) 0.32039(3)
Ca2** Ca 0.42656(4) 1.43487(3) -0.67961(3)
Ca2*** Ca 1.42656(4) -0.56513(3) 0.32039(3)
Ca2A* Ca -1.42656(4) 2.56513(3) 0.67961(3)
Ca2A** Ca -0.42656(4) 0.56513(3) 1.67961(3)
Ca2A*** Ca 0.57344(4) 0.56513(3) 0.67961(3)
O5* O 0.58826(13) 0.38335(14) 0.34128(13)
O5A* O -0.58826(13) 1.61665(14) 0.65872(13)
O8* O 0.26823(14) 0.44484(13) 0.31132(12)
O8A* O -0.26823(14) 1.55516(13) 0.68868(12)
O9* O 0.37085(15) 0.33406(12) 0.45329(10)
O9A* O -0.37085(15) 1.66594(12) 0.54671(10)
Ca3* Ca 0.27857(4) 1.28946(3) -0.60844(3)
Ca3** Ca 1.27857(4) -0.71054(3) 0.39156(3)
Ca3*** Ca 1.27857(4) 0.28946(3) -0.60844(3)
Ca3A* Ca -1.27857(4) 1.71054(3) 1.60844(3)
Ca3A** Ca -1.27857(4) 2.71054(3) 0.60844(3)
Ca3A*** Ca -0.27857(4) 0.71054(3) 1.60844(3)
O13* O 0.14895(15) 0.40080(13) 0.30745(12)
O13A* O -0.14895(15) 1.59920(13) 0.69255(12)
O14* O 0.39163(15) 0.15559(13) 0.45576(12)
O14A* O -0.39163(15) 1.84441(13) 0.54424(12)
#END
