
#######################################################################
#
#                 Cambridge Crystallographic Data Centre
#                                CCDC
#
#######################################################################
#
# If this CIF has been generated from an entry in the Cambridge
# Structural Database, then it will include bibliographic, chemical,
# crystal, experimental, refinement or atomic coordinate data resulting
# from the CCDC's data processing and validation procedures.
#
#######################################################################

data_CSD_CIF_UKUBAE
_audit_creation_date 2011-04-19
_audit_creation_method CSD-ConQuest-V1
_database_code_CSD UKUBAE
_database_code_depnum_ccdc_archive 'CCDC 702079'
_chemical_formula_sum 'C40 H68 Bi5 N2 O53'
_chemical_formula_moiety
;
(C30 H26 Bi5 O38 2-)n,2n(C5 H6 N1 1+),15n(H2 O1)
;
_journal_coden_Cambridge 1487
_journal_volume 53
_journal_year 2010
_journal_page_first 2152
_journal_name_full 'Sci.China.Chem. '
loop_
_publ_author_name
"Nan Yang"
"Yan An"
"JiWen Cai"
"LiHong Hu"
"YiBo Zeng"
"ZongWan Mao"
"GuanHua Chen"
"HongZhe Sun"
_chemical_name_systematic
;
catena-(bis(Pyridinium) 
bis(\m~4~-citrato)-tris(\m~3~-citrato)-triaqua-penta-bismuth 
pentadecahydrate)
;
_cell_volume   3421.978
_exptl_crystal_colour 'colorless'
_exptl_crystal_density_diffrn 2.36
_exptl_crystal_description 'plate'
_diffrn_ambient_temperature 120
_refine_special_details
;
Some of the water molecules are disordered.

;
#These two values have been output from a single CSD field.
_refine_ls_R_factor_gt 0.0505
_refine_ls_wR_factor_gt 0.0505
_symmetry_cell_setting triclinic
_symmetry_space_group_name_H-M 'P -1'
_symmetry_Int_Tables_number 2
loop_
_symmetry_equiv_pos_site_id
_symmetry_equiv_pos_as_xyz
1 x,y,z
2 -x,-y,-z
_cell_length_a 14.2891(13)
_cell_length_b 14.879(4)
_cell_length_c 16.463(3)
_cell_angle_alpha 84.678(18)
_cell_angle_beta 83.086(12)
_cell_angle_gamma 80.980(14)
_cell_formula_units_Z 2
loop_
_atom_type_symbol
_atom_type_radius_bond
C 0.65
H 0.23
Bi 1.69
N 0.68
O 0.68
loop_
_atom_site_label
_atom_site_type_symbol
_atom_site_fract_x
_atom_site_fract_y
_atom_site_fract_z
Bi1 Bi 0.51365(2) 1.18018(2) 0.570118(18)
Bi2 Bi 0.47765(2) 0.30572(2) -0.021572(19)
Bi3 Bi 0.20969(2) 0.45935(2) 0.043127(19)
Bi4 Bi 0.47220(2) 0.91998(2) 0.168563(18)
Bi5 Bi 1.20976(2) 1.00983(2) 0.445989(19)
N1 N 1.1607(7) 0.0180(6) 0.7068(5)
N2 N 0.2914(6) -0.1374(5) 0.0022(5)
O1 O 1.0642(5) 1.0972(4) 0.4499(4)
O2 O 1.1373(5) 1.1306(4) 0.5514(4)
O3 O 0.8807(5) 1.2080(5) 0.3883(4)
O4 O 0.8617(5) 1.0675(4) 0.4410(4)
O5 O 0.6382(5) 1.2971(4) 0.5351(4)
O6 O 0.6891(5) 1.1505(4) 0.5530(4)
O7 O 0.8788(5) 1.1007(4) 0.5913(4)
O8 O 0.4339(5) 1.3226(4) 0.4925(4)
O9 O 0.4160(8) 1.4223(5) 0.3836(5)
O10 O 0.3788(5) 1.1436(4) 0.5278(4)
O11 O 0.3036(5) 1.1509(4) 0.4159(4)
O12 O 0.4481(4) 0.9798(4) 0.4210(3)
O13 O 0.5432(5) 0.9471(4) 0.3084(4)
O14 O 0.5477(4) 1.1583(4) 0.4419(3)
O15 O 0.4142(4) 0.4214(4) 0.0574(4)
O16 O 0.5217(5) 0.3390(4) 0.1296(4)
O17 O 0.2725(5) 0.5819(4) 0.1188(4)
O18 O 0.3770(5) 0.6425(4) 0.0288(4)
O19 O 0.4163(5) 0.7694(4) 0.1401(4)
O20 O 0.3976(5) 0.7807(4) 0.2743(4)
O21 O 0.5229(4) 0.5861(4) 0.1143(4)
O22 O -0.0766(5) 0.4202(5) -0.0396(4)
O23 O -0.0934(5) 0.5034(5) -0.1555(4)
O24 O 0.1139(5) 0.3516(5) 0.0437(4)
O25 O 0.0791(5) 0.2417(5) -0.0263(5)
O26 O 0.3118(5) 0.3359(4) -0.0466(4)
O27 O 0.3762(5) 0.2636(4) -0.1556(4)
O28 O 0.1456(5) 0.4601(5) -0.0868(4)
O29 O 0.4745(5) 1.0709(4) 0.1446(4)
O30 O 0.3791(5) 1.2009(4) 0.1223(4)
O31 O 0.3561(5) 0.9682(4) 0.0982(4)
O32 O 0.3292(5) 0.9930(4) 0.2707(4)
O33 O 0.1790(5) 1.0518(4) 0.3074(4)
O34 O 0.3571(5) 1.0566(5) -0.1145(4)
O35 O 0.4506(5) 1.1085(4) -0.0386(4)
C1 C 1.0667(7) 1.1426(6) 0.5126(6)
C2 C 0.9803(7) 1.2116(6) 0.5347(6)
H1 H 0.98330 1.22960 0.58930
H2 H 0.98260 1.26540 0.49690
C3 C 0.8855(6) 1.1782(6) 0.5328(5)
C4 C 0.8026(6) 1.2566(6) 0.5504(6)
H3 H 0.81230 1.30810 0.51130
H4 H 0.80540 1.27570 0.60470
C5 C 0.7041(8) 1.2340(6) 0.5460(5)
C6 C 0.8761(7) 1.1495(6) 0.4462(5)
C7 C 0.4338(8) 1.3395(6) 0.4178(6)
C8 C 0.4524(7) 1.2691(6) 0.3545(5)
H5 H 0.50770 1.28020 0.31690
H6 H 0.39820 1.27560 0.32310
C9 C 0.4697(6) 1.1701(6) 0.3949(6)
C10 C 0.4897(7) 1.1045(6) 0.3272(6)
H7 H 0.44070 1.12090 0.29030
H8 H 0.55000 1.11360 0.29600
C11 C 0.4941(6) 1.0040(6) 0.3542(5)
C12 C 0.3751(6) 1.1528(6) 0.4503(5)
C13 C 0.4605(7) 0.4056(6) 0.1217(5)
C14 C 0.4348(7) 0.4730(5) 0.1874(5)
H9 H 0.48040 0.45830 0.22750
H10 H 0.37260 0.46490 0.21540
C15 C 0.4325(6) 0.5738(6) 0.1564(5)
C16 C 0.4083(7) 0.6307(6) 0.2312(6)
H11 H 0.34580 0.62070 0.25720
H12 H 0.45380 0.60790 0.27030
C17 C 0.4082(6) 0.7329(6) 0.2148(5)
C18 C 0.3552(7) 0.6011(5) 0.0976(5)
C19 C -0.0474(7) 0.4406(7) -0.1146(6)
C20 C 0.0407(8) 0.3859(8) -0.1552(7)
H13 H 0.05820 0.41600 -0.20840
H14 H 0.02660 0.32610 -0.16400
C21 C 0.1254(7) 0.3744(7) -0.1043(6)
C22 C 0.2132(7) 0.3258(7) -0.1540(6)
H15 H 0.19750 0.26830 -0.16760
H16 H 0.22350 0.36240 -0.20530
C23 C 0.3071(7) 0.3055(5) -0.1175(6)
C24 C 0.1040(7) 0.3184(7) -0.0228(6)
C25 C 0.2508(7) 1.0361(6) 0.2543(5)
C26 C 0.2331(7) 1.0745(6) 0.1666(5)
H17 H 0.18420 1.04470 0.14890
H18 H 0.20860 1.13900 0.16770
C27 C 0.3203(7) 1.0632(6) 0.1032(5)
C28 C 0.2901(7) 1.1012(6) 0.0193(6)
H19 H 0.23730 1.07210 0.00800
H20 H 0.26760 1.16610 0.02100
C29 C 0.3683(6) 1.0870(5) -0.0488(5)
C30 C 0.3967(7) 1.1172(6) 0.1245(5)
C31 C 1.2064(9) 0.0442(8) 0.7639(6)
H21 H 1.27270 0.03660 0.75810
C32 C 1.1556(9) 0.0825(9) 0.8318(7)
H22 H 1.18710 0.10080 0.87230
C33 C 1.0559(10) 0.0937(9) 0.8390(8)
H23 H 1.02060 0.11930 0.88470
C34 C 1.0113(10) 0.0673(10) 0.7795(8)
H24 H 0.94510 0.07510 0.78280
C35 C 1.0665(9) 0.0285(9) 0.7137(7)
H25 H 1.03660 0.00900 0.67280
C36 C 0.2172(9) -0.1740(8) 0.0406(7)
H26 H 0.19800 -0.16460 0.09560
C37 C 0.1689(9) -0.2256(8) -0.0001(8)
H27 H 0.11720 -0.25130 0.02660
C38 C 0.1992(9) -0.2384(8) -0.0825(8)
H28 H 0.16760 -0.27270 -0.11170
C39 C 0.2774(9) -0.1993(7) -0.1210(7)
H29 H 0.29860 -0.20700 -0.17600
C40 C 0.3224(8) -0.1492(7) -0.0756(6)
H30 H 0.37520 -0.12350 -0.09990
O36 O 0.3156(5) 0.5447(5) -0.0832(4)
O37 O 1.3094(5) 0.9882(4) 0.5794(4)
O38 O 0.2544(5) 0.3528(5) 0.1591(4)
O39 O 1.1990(6) -0.1546(5) 0.2643(5)
O40 O 0.3689(5) 1.2745(5) 0.6729(4)
O41 O 0.6954(6) 0.2286(5) 0.3288(5)
O42 O 0.1451(7) 0.6899(6) 0.2271(6)
O43 O 0.8179(7) -0.2597(6) 0.3456(6)
O44 O 0.3549(8) 0.5256(5) 0.4953(5)
O45 O 0.4055(7) 0.4570(5) 0.6417(5)
O46 O 0.6852(9) 0.4045(7) 0.2554(5)
O47 O 0.010(2) 0.1476(17) 0.2560(17)
O48 O 0.8994(11) -0.4476(9) 0.3669(11)
O49 O 0.0918(12) 0.5549(13) 0.3372(11)
O50 O 0.0610(12) 0.6188(10) -0.1441(10)
O51 O 0.0256(17) 0.0878(16) 0.0796(15)
O52 O 0.1185(14) 0.348(2) 0.2814(14)
O53 O 0.8507(16) 0.4476(13) 0.2231(12)
O54 O 0.1811(10) 0.4813(8) 0.4752(9)
O55 O 0.1627(11) 0.3090(9) 0.4348(9)
O56 O 0.0847(17) -0.0080(15) 0.0174(14)
O57? O 0.8751(14) 0.3935(11) 0.3104(12)
O58? O 0.0024(18) 0.6811(16) -0.1922(16)
O59? O 0.0075(15) 0.1332(19) 0.0996(13)
O60? O 0.031(3) 0.180(2) 0.263(2)
Bi1A Bi 0.48635(2) 0.81982(2) 0.429882(18)
Bi2A Bi 0.52235(2) 0.69428(2) 0.021572(19)
Bi3A Bi -0.20969(2) 0.54065(2) -0.043127(19)
Bi4A Bi 0.52780(2) 1.08002(2) -0.168563(18)
Bi5A Bi 0.79024(2) 0.99017(2) 0.554011(19)
Bi5* Bi 0.20976(2) 1.00983(2) 0.445989(19)
O4A O 1.1383(5) 0.9325(4) 0.5590(4)
O6A O 1.3109(5) 0.8495(4) 0.4470(4)
O7A O 1.1212(5) 0.8993(4) 0.4087(4)
O11* O 1.3036(5) 1.1509(4) 0.4159(4)
O12A O 0.5519(4) 1.0202(4) 0.5790(3)
O13A O 0.4568(5) 1.0529(4) 0.6916(4)
O18A O 0.6230(5) 0.3575(4) -0.0288(4)
O19A O 0.5837(5) 0.2306(4) -0.1401(4)
O21A O 0.4771(4) 0.4139(4) -0.1143(4)
O22A O 0.0766(5) 0.5798(5) 0.0396(4)
O23A O 0.0934(5) 0.4966(5) 0.1555(4)
O33* O 1.1790(5) 1.0518(4) 0.3074(4)
O34A O 0.6429(5) 0.9434(5) 0.1145(4)
O35A O 0.5494(5) 0.8915(4) 0.0386(4)
#END
