
#######################################################################
#
#                 Cambridge Crystallographic Data Centre
#                                CCDC
#
#######################################################################
#
# If this CIF has been generated from an entry in the Cambridge
# Structural Database, then it will include bibliographic, chemical,
# crystal, experimental, refinement or atomic coordinate data resulting
# from the CCDC's data processing and validation procedures.
#
#######################################################################

data_CSD_CIF_ULALOL
_audit_creation_date 2021-01-27
_audit_creation_method CSD-ConQuest-V1
_database_code_CSD ULALOL
_database_code_depnum_ccdc_archive 'CCDC 2036845'
_chemical_formula_sum 'C44 H35 Cl2 Fe1 O19 Zr3'
_chemical_formula_moiety
;
(C44 H35 O19 Zr3 1-)n,Cl2 Fe1 1+
;
_journal_coden_Cambridge 9
_journal_volume 60
_journal_year 2021
_journal_page_first 2457
_journal_name_full 'Inorg.Chem. '
loop_
_publ_author_name
"K.Otake"
"Sol Ahn"
"Julia Knapp"
"J.T.Hupp"
"J.M.Notestein"
"O.K.Farha"
_chemical_name_systematic
;
catena-[dichloro-iron(iii) 
(\m-4,4',4'',4'''-(pyrene-1,3,6,8-tetrayl)tetrabenzoato)-bis(\m-oxo)-pentakis(
\m-hydroxo)-tetra-aqua-tri-zirconium(iv) unknown solvate]
;
_cell_volume  22008.423
_exptl_crystal_colour 'orange'
_exptl_crystal_description 'block'
_diffrn_ambient_temperature 100
_refine_special_details
;
Disordered solvent molecules were not modelled and the disordered density was 
taken into account using the SQUEEZE/PLATON procedure.
;
#These two values have been output from a single CSD field.
_refine_ls_R_factor_gt 0.0635
_refine_ls_wR_factor_gt 0.0635
_symmetry_cell_setting hexagonal
_symmetry_space_group_name_H-M 'P 6/m m m'
_symmetry_Int_Tables_number 191
loop_
_symmetry_equiv_pos_site_id
_symmetry_equiv_pos_as_xyz
1 x,y,z
2 -x,-y,z
3 -y,x-y,z
4 -x+y,-x,z
5 x-y,x,z
6 y,-x+y,z
7 x-y,-y,-z
8 -x,-x+y,-z
9 y,x,-z
10 -y,-x,-z
11 x,x-y,-z
12 -x+y,y,-z
13 -x,-y,-z
14 x,y,-z
15 y,-x+y,-z
16 x-y,x,-z
17 -x+y,-x,-z
18 -y,x-y,-z
19 -x+y,y,z
20 x,x-y,z
21 -y,-x,z
22 y,x,z
23 -x,-x+y,z
24 x-y,-y,z
_cell_length_a 39.212(4)
_cell_length_b 39.212(4)
_cell_length_c 16.528(2)
_cell_angle_alpha 90
_cell_angle_beta 90
_cell_angle_gamma 120
_cell_formula_units_Z 6
loop_
_atom_type_symbol
_atom_type_radius_bond
C 0.68
H 0.23
Cl 0.99
Fe 1.52
O 0.68
Zr 1.75
loop_
_atom_site_label
_atom_site_type_symbol
_atom_site_fract_x
_atom_site_fract_y
_atom_site_fract_z
C1 C 0.90596(13) 0.50771(16) 0.1343(3)
C2 C 0.87520(14) 0.50863(17) 0.1843(3)
C3 C 0.83632(16) 0.4788(2) 0.1748(4)
H1 H 0.82995 0.45928 0.13627
C4 C 0.80713(16) 0.4782(2) 0.2226(4)
H2 H 0.78116 0.45814 0.21667
C5 C 0.81661(15) 0.5077(2) 0.2797(3)
C6 C 0.85589(17) 0.5378(2) 0.2880(4)
H3 H 0.86250 0.55803 0.32506
C7 C 0.88463(16) 0.53736(18) 0.2410(4)
H4 H 0.91079 0.55682 0.24800
C8 C 0.75320(15) 0.5064(3) 0.2888(5)
H5 H 0.75277 0.50554 0.23257
C9 C 0.78476(17) 0.5070(2) 0.3288(3)
C10 C 0.78492(16) 0.5070(2) 0.4130(3)
C11 C 0.75325(14) 0.5065(3) 0.4566(5)
C12 C 0.81558(17) 0.5057(2) 0.4592(3)
H6 H 0.83586 0.50477 0.43189
O1 O 0.94189(10) 0.53372(12) 0.1500(2)
O2 O 0.89550(8) 0.48165(10) 0.0815(2)
O3 O 0.96466(15) 0.52748(16) 0.00000
O4 O 0.96545(14) 0.48273(7) 0.1071(4)
O5 O 1.00000 0.60126(13) 0.0946(4)
O6 O 1.00000 0.54224(14) 0.2414(3)
Zr1 Zr 0.92784(2) 0.46392(2) 0.00000
Zr2 Zr 1.00000 0.54513(2) 0.10644(4)
Fe1 Fe 0.9282(3) 0.4700(6) 0.3038(5)
Cl1 Cl 0.8767(6) 0.4550(7) 0.3683(15)
Cl2 Cl 0.9128(14) 0.4860(18) 0.388(2)
Fe2 Fe 0.9272(4) 0.5894(4) 0.0097(17)
Cl3 Cl 0.910(3) 0.618(2) -0.073(4)
Cl4 Cl 0.8753(15) 0.591(3) 0.033(8)
C1K C 0.60175(13) 0.50771(16) 0.8657(3)
C2K C 0.63343(14) 0.50863(17) 0.8157(3)
C3K C 0.64248(16) 0.4788(2) 0.8252(4)
H1K H 0.62934 0.45928 0.86373
C4K C 0.67107(16) 0.4782(2) 0.7774(4)
H2K H 0.67698 0.45814 0.78333
C5K C 0.69109(15) 0.5077(2) 0.7203(3)
C6K C 0.68191(17) 0.5378(2) 0.7120(4)
H3K H 0.69553 0.55803 0.67494
C7K C 0.65273(16) 0.53736(18) 0.7590(4)
H4K H 0.64603 0.55682 0.75200
C8K C 0.75320(15) 0.5064(3) 0.7112(5)
H5K H 0.75277 0.50554 0.76743
C9K C 0.72224(17) 0.5070(2) 0.6712(3)
C10K C 0.72208(16) 0.5070(2) 0.5870(3)
C11K C 0.75325(14) 0.5065(3) 0.5434(5)
C12K C 0.69012(17) 0.5057(2) 0.5408(3)
H6K H 0.66892 0.50477 0.56811
O1K O 0.59183(10) 0.53372(12) 0.8500(2)
O2K O 0.58615(8) 0.48165(10) 0.9185(2)
C1M C 0.90596(13) 0.50771(16) 0.8657(3)
C2M C 0.87520(14) 0.50863(17) 0.8157(3)
C3M C 0.83632(16) 0.4788(2) 0.8252(4)
H1M H 0.82995 0.45928 0.86373
C4M C 0.80713(16) 0.4782(2) 0.7774(4)
H2M H 0.78116 0.45814 0.78333
C5M C 0.81661(15) 0.5077(2) 0.7203(3)
C6M C 0.85589(17) 0.5378(2) 0.7120(4)
H3M H 0.86250 0.55803 0.67494
C7M C 0.88463(16) 0.53736(18) 0.7590(4)
H4M H 0.91079 0.55682 0.75200
C9M C 0.78476(17) 0.5070(2) 0.6712(3)
C10M C 0.78492(16) 0.5070(2) 0.5870(3)
C12M C 0.81558(17) 0.5057(2) 0.5408(3)
H6M H 0.83586 0.50477 0.56811
O1M O 0.94189(10) 0.53372(12) 0.8500(2)
O2M O 0.89550(8) 0.48165(10) 0.9185(2)
C1R C 0.60175(13) 0.50771(16) 0.1343(3)
C2R C 0.63343(14) 0.50863(17) 0.1843(3)
C3R C 0.64248(16) 0.4788(2) 0.1748(4)
H1R H 0.62934 0.45928 0.13627
C4R C 0.67107(16) 0.4782(2) 0.2226(4)
H2R H 0.67698 0.45814 0.21667
C5R C 0.69109(15) 0.5077(2) 0.2797(3)
C6R C 0.68191(17) 0.5378(2) 0.2880(4)
H3R H 0.69553 0.55803 0.32506
C7R C 0.65273(16) 0.53736(18) 0.2410(4)
H4R H 0.64603 0.55682 0.24800
C9R C 0.72224(17) 0.5070(2) 0.3288(3)
C10R C 0.72208(16) 0.5070(2) 0.4130(3)
C12R C 0.69012(17) 0.5057(2) 0.4592(3)
H6R H 0.66892 0.50477 0.43189
O1R O 0.59183(10) 0.53372(12) 0.1500(2)
O2R O 0.58615(8) 0.48165(10) 0.0815(2)
O3A O 1.03534(15) 0.47252(16) 0.00000
O4A O 1.03455(14) 0.51727(7) 0.1071(4)
O5A O 1.00000 0.39874(13) 0.0946(4)
O6A O 1.00000 0.45776(14) 0.2414(3)
Zr2A Zr 1.00000 0.45487(2) 0.10644(4)
O1A O 1.05811(10) 0.46628(12) 0.1500(2)
O1S O 0.94189(10) 0.40817(12) 0.1500(2)
O1V O 1.05811(10) 0.59183(12) 0.1500(2)
O2J O 0.89550(8) 0.41385(10) -0.0815(2)
O2M* O 0.89550(8) 0.48165(10) -0.0815(2)
O2S O 0.89550(8) 0.41385(10) 0.0815(2)
O3G O 1.03534(15) 0.56282(16) 0.00000
O3J O 0.96466(15) 0.43718(16) 0.00000
O4J O 0.96545(14) 0.48272(7) -0.1071(4)
Zr1* Zr 0.92784(2) 0.46392(2) 1.00000
Zr1A Zr 1.07216(2) 0.53608(2) 0.00000
Zr1B Zr 0.53608(2) 0.46392(2) 0.00000
Zr1B* Zr 0.53608(2) 0.46392(2) 1.00000
Zr2E Zr 0.54513 0.54513(2) 0.10644(4)
Zr2G Zr 1.00000 0.54513(2) -0.10644(4)
Zr2G* Zr 1.00000 0.54513(2) 0.89356(4)
Zr2J Zr 1.00000 0.45487(2) -0.10644(4)
Zr2K Zr 0.54513 0.54513(2) 0.89356(4)
Fe1S Fe 0.9282(3) 0.4582(6) 0.3038(5)
Cl1S Cl 0.8767(6) 0.4217(7) 0.3683(15)
Cl2S Cl 0.9128(14) 0.4268(18) 0.388(2)
Fe2M Fe 0.9272(4) 0.5894(4) -0.0097(17)
Cl3M Cl 0.910(3) 0.618(2) 0.073(4)
Cl4M Cl 0.8753(15) 0.591(3) -0.033(8)
#END
