
#######################################################################
#
#                 Cambridge Crystallographic Data Centre
#                                CCDC
#
#######################################################################
#
# If this CIF has been generated from an entry in the Cambridge
# Structural Database, then it will include bibliographic, chemical,
# crystal, experimental, refinement or atomic coordinate data resulting
# from the CCDC's data processing and validation procedures.
#
#######################################################################

data_CSD_CIF_ULANUR
_audit_creation_date 2011-03-31
_audit_creation_method CSD-ConQuest-V1
_database_code_CSD ULANUR
_database_code_depnum_ccdc_archive 'CCDC 815457'
_chemical_formula_sum 'C38 H40 Ce2 N6 O25'
_chemical_formula_moiety
;
(C28 H20 Ce2 N4 O20 2-)n,n(C10 H10 N2 2+),5n(H2 O1)
;
_journal_coeditor_code "IUCr HY2405"
_journal_coden_Cambridge 1370
_journal_volume 67
_journal_year 2011
_journal_page_first m335
_journal_name_full 'Acta Crystallogr.,Sect.E:Struct.Rep.Online '
loop_
_publ_author_name
"H.Aghabozorg"
"S.Omidvar"
"M.Mirzaei"
"B.Notash"
_chemical_name_systematic
;
catena-(4,4'-Bipyridinium 
bis(\m~2~-pyridine-2,6-dicarboxylato)-bis(pyridine-2,6-dicarboxylato)-tetra-aq
ua-di-cerium(iii) pentahydrate)
;
_chemical_melting_point 543.15
_cell_volume   2208.324
_exptl_crystal_colour 'yellow'
_exptl_crystal_density_diffrn 1.896
_exptl_crystal_description 'plate'
_diffrn_ambient_temperature 150
#These two values have been output from a single CSD field.
_refine_ls_R_factor_gt 0.0448
_refine_ls_wR_factor_gt 0.0448
_symmetry_cell_setting triclinic
_symmetry_space_group_name_H-M 'P -1'
_symmetry_Int_Tables_number 2
loop_
_symmetry_equiv_pos_site_id
_symmetry_equiv_pos_as_xyz
1 x,y,z
2 -x,-y,-z
_cell_length_a 13.010(3)
_cell_length_b 13.453(3)
_cell_length_c 13.586(3)
_cell_angle_alpha 99.95(3)
_cell_angle_beta 99.87(3)
_cell_angle_gamma 104.58(3)
_cell_formula_units_Z 2
loop_
_atom_type_symbol
_atom_type_radius_bond
C 0.68
H 0.23
Ce 2.04
N 0.68
O 0.68
loop_
_atom_site_label
_atom_site_type_symbol
_atom_site_fract_x
_atom_site_fract_y
_atom_site_fract_z
O1 O 0.6037(3) 0.5090(3) 0.9068(4)
Ce1 Ce 0.003047(16) 0.783224(16) 0.218322(15)
Ce2 Ce 0.503761(15) 0.888641(16) 0.188431(15)
O2 O 0.2143(3) 1.0504(3) 0.1004(3)
O3 O 0.1494(2) 0.9110(2) 0.1619(2)
O4 O -0.3036(2) 0.8972(3) 0.2097(2)
O5 O -0.1754(2) 0.8143(2) 0.2351(2)
O6 O -0.1869(3) 0.5884(3) -0.1116(2)
O7 O -0.1349(2) 0.6945(3) 0.0453(2)
O8 O 0.3383(2) 0.7579(2) 0.2004(2)
O9 O 0.1860(2) 0.7463(2) 0.2582(2)
O10 O -0.1245(4) 0.4852(3) 0.3346(3)
O11 O -0.0903(3) 0.6100(2) 0.2430(2)
O12 O 0.1350(3) 1.0213(2) 0.5401(2)
O13 O 0.0911(2) 0.9458(2) 0.3715(2)
O14 O 0.6021(3) 0.9301(3) 0.5394(2)
O15 O 0.5409(2) 0.8720(2) 0.3707(2)
O16 O 0.6315(3) 1.2353(2) 0.1697(2)
O17 O 0.5796(2) 1.0588(2) 0.1370(2)
O18 O 0.3761(3) 0.9864(3) 0.2614(2)
O19 O 0.3581(2) 0.9170(3) 0.0496(2)
O20 O 0.5152(3) 0.8104(3) 0.0138(2)
O21 O 0.5305(3) 0.7001(3) 0.1861(3)
O22 O 0.6923(3) 0.7702(3) 0.9590(3)
O23 O 0.6705(3) 0.5749(3) 0.1273(4)
O24 O 0.5617(4) 0.4218(3) 0.2152(3)
O25 O 0.4130(5) 0.2170(5) 0.2555(4)
N1 N -0.0380(3) 0.9504(3) 0.1641(2)
N2 N 0.0640(3) 0.6775(3) 0.0686(3)
N3 N 0.0062(3) 0.7581(3) 0.4076(3)
N4 N 0.6135(3) 1.0587(3) 0.3339(2)
N5 N 0.4495(3) 0.6883(3) 0.4101(3)
N6 N 0.2235(3) 0.1985(3) 0.5090(3)
C1 C 0.1421(3) 0.9929(3) 0.1318(3)
C2 C 0.0364(3) 1.0209(3) 0.1351(3)
C3 C 0.0183(3) 1.1118(4) 0.1106(3)
H1 H 0.07210 1.16070 0.09260
C4 C -0.0831(4) 1.1277(4) 0.1137(4)
H2 H -0.09860 1.18680 0.09570
C5 C -0.1604(3) 1.0556(3) 0.1437(3)
H3 H -0.22800 1.06550 0.14710
C6 C -0.1341(3) 0.9675(3) 0.1689(3)
C7 C -0.2116(3) 0.8863(3) 0.2073(3)
C8 C -0.1185(3) 0.6374(3) -0.0315(3)
C9 C -0.0023(3) 0.6335(3) -0.0242(3)
C10 C 0.0355(3) 0.5935(4) -0.1072(3)
H4 H -0.01280 0.55990 -0.16980
C11 C 0.1463(4) 0.6042(4) -0.0960(4)
H5 H 0.17390 0.58100 -0.15170
C12 C 0.2147(3) 0.6503(3) 0.0002(3)
H6 H 0.28920 0.65830 0.01050
C13 C 0.1700(3) 0.6841(3) 0.0808(3)
C14 C 0.2363(3) 0.7337(3) 0.1887(3)
C15 C -0.0873(4) 0.5764(3) 0.3261(3)
C16 C -0.0324(3) 0.6614(3) 0.4231(3)
C17 C -0.0270(4) 0.6413(3) 0.5207(3)
H7 H -0.05230 0.57300 0.52930
C18 C 0.0169(4) 0.7257(4) 0.6047(3)
H8 H 0.02150 0.71470 0.67090
C19 C 0.0540(4) 0.8269(4) 0.5891(3)
H9 H 0.08170 0.88500 0.64420
C20 C 0.0486(3) 0.8388(3) 0.4890(3)
C21 C 0.0944(3) 0.9433(3) 0.4635(3)
C22 C 0.5907(3) 0.9444(3) 0.4513(3)
C23 C 0.6353(3) 1.0531(3) 0.4325(3)
C24 C 0.6926(3) 1.1406(3) 0.5114(3)
H10 H 0.70490 1.13510 0.57950
C25 C 0.7310(3) 1.2366(4) 0.4853(3)
H11 H 0.77120 1.29610 0.53600
C26 C 0.7091(3) 1.2435(3) 0.3829(3)
H12 H 0.73420 1.30690 0.36410
C27 C 0.6485(3) 1.1525(3) 0.3101(3)
C28 C 0.6175(3) 1.1501(3) 0.1968(3)
C29 C 0.3327(4) 0.5148(4) 0.3526(4)
H13 H 0.28520 0.46130 0.29950
C30 C 0.3824(4) 0.6105(4) 0.3339(4)
H14 H 0.36910 0.62110 0.26760
C31 C 0.4700(3) 0.6775(4) 0.5069(4)
H15 H 0.51580 0.73360 0.55860
C32 C 0.4232(4) 0.5828(3) 0.5297(3)
H16 H 0.43750 0.57500 0.59690
C33 C 0.3541(3) 0.4985(3) 0.4518(3)
C34 C 0.3074(3) 0.3929(3) 0.4717(3)
C35 C 0.3043(3) 0.3822(3) 0.5715(3)
H17 H 0.33030 0.44050 0.62640
C36 C 0.2614(3) 0.2823(4) 0.5865(4)
H18 H 0.25920 0.27380 0.65270
C37 C 0.2270(4) 0.2074(4) 0.4136(4)
H19 H 0.20100 0.14720 0.36060
C38 C 0.2682(4) 0.3035(4) 0.3914(3)
H20 H 0.26990 0.30870 0.32430
H21 H 0.476(4) 0.743(3) 0.394(4)
H22 H 0.193(6) 0.137(4) 0.522(6)
H23 H 0.311(6) 0.965(5) 0.236(5)
H24 H 0.333(6) 0.971(4) 0.070(5)
H25 H 0.468(6) 0.804(8) -0.037(5)
H26 H 0.592(6) 0.694(6) 0.176(5)
H27 H 0.731(5) 0.826(4) 0.941(5)
H28 H 0.741(7) 0.583(6) 0.130(6)
H29 H 0.660(8) 0.526(9) 0.895(9)
H30 H 0.577(12) 0.362(12) 0.206(11)
H31 H 0.414(11) 0.255(9) 0.205(8)
H32 H 0.378(6) 0.998(6) 0.324(6)
H33 H 0.385(5) 0.928(5) -0.005(4)
H34 H 0.575(7) 0.795(7) 0.002(6)
H35 H 0.483(8) 0.654(8) 0.163(7)
H36 H 0.743(8) 0.739(7) 0.985(7)
H37 H 0.633(9) 0.566(10) 0.068(5)
H38 H 0.560(9) 0.532(11) 0.898(12)
H39 H 0.609(17) 0.464(17) 0.184(16)
H40 H 0.365(13) 0.152(7) 0.243(12)
Ce2* Ce -0.496239(15) 0.888641(16) 0.188431(15)
O4* O 0.6964(2) 0.8972(3) 0.2097(2)
#END
