
#######################################################################
#
#                 Cambridge Crystallographic Data Centre
#                                CCDC
#
#######################################################################
#
# If this CIF has been generated from an entry in the Cambridge
# Structural Database, then it will include bibliographic, chemical,
# crystal, experimental, refinement or atomic coordinate data resulting
# from the CCDC's data processing and validation procedures.
#
#######################################################################

data_CSD_CIF_ULAPUU
_audit_creation_date 2016-04-27
_audit_creation_method CSD-ConQuest-V1
_database_code_CSD ULAPUU
_database_code_depnum_ccdc_archive 'CCDC 1451892'
_chemical_formula_sum 'C80 H96 Cd2 N4 O28'
_chemical_formula_moiety
;
(C2 H8 N1 1+)4n,n(C72 H56 Cd2 O24 4-),4n(H2 O1)
;
_journal_coden_Cambridge 1147
_journal_volume 16
_journal_year 2016
_journal_page_first 3244
_journal_name_full 'Cryst.Growth Des. '
loop_
_publ_author_name
"Hang Zhang"
"Jin Yang"
"Ying-Ying Liu"
"Shuyan Song"
"Jian-Fang Ma"
_chemical_name_systematic
;
catena-[tetrakis(dimethylammonium) 
(\m-2,8,14,20-tetrakis(p-tolyl)-4,6,10,12,16,18,22,24-octakis((carboxylatometh
yl)oxido)calix(4)arene)-di-cadmium tetrahydrate unknown solvate]
;
_chemical_name_common
;
catena-[tetrakis(dimethylammonium) 
(mu-2,2',2'',2''',2'''',2''''',2'''''',2'''''''-((2,8,14,20-tetrakis(4-methylp
henyl)pentacyclo[19.3.1.1$3,7!.1$9,13!.1$15,19!]octacosa-1(25),3(28),4,6,9(27)
,10,12,15(26),16,18,21,23-dodecaene-4,6,10,12,16,18,22,24-octayl)octakis(oxy))
octaacetato)-di-cadmium tetrahydrate unknown solvate]
;
_cell_volume   9123.235
_exptl_crystal_colour 'colorless'
_exptl_crystal_density_diffrn 1.301
_exptl_crystal_description 'block'
_diffrn_ambient_temperature 293
_refine_special_details
;
Disordered solvent molecules were not modelled and the disordered density was 
taken into account using the SQUEEZE/PLATON procedure.
;
#These two values have been output from a single CSD field.
_refine_ls_R_factor_gt 0.0555
_refine_ls_wR_factor_gt 0.0555
_symmetry_cell_setting monoclinic
_symmetry_space_group_name_H-M 'C 2/c'
_symmetry_Int_Tables_number 15
loop_
_symmetry_equiv_pos_site_id
_symmetry_equiv_pos_as_xyz
1 x,y,z
2 -x,y,1/2-z
3 1/2+x,1/2+y,z
4 1/2-x,1/2+y,1/2-z
5 -x,-y,-z
6 x,-y,-1/2+z
7 -1/2-x,-1/2-y,-z
8 -1/2+x,-1/2-y,-1/2+z
_cell_length_a 29.0460(9)
_cell_length_b 21.4360(6)
_cell_length_c 14.6820(5)
_cell_angle_alpha 90
_cell_angle_beta 93.618(3)
_cell_angle_gamma 90
_cell_formula_units_Z 4
loop_
_atom_type_symbol
_atom_type_radius_bond
C 0.68
H 0.23
Cd 1.44
O 0.68
loop_
_atom_site_label
_atom_site_type_symbol
_atom_site_fract_x
_atom_site_fract_y
_atom_site_fract_z
C1 C -0.1529(2) 0.2781(4) 0.1383(4)
C2 C -0.1871(2) 0.2609(3) 0.2062(5)
H1 H -0.18910 0.29480 0.24950
H2 H -0.21720 0.25610 0.17440
C3 C -0.36084(17) 0.1645(3) 0.1675(3)
C4 C -0.35245(15) 0.1869(2) 0.2634(3)
H3 H -0.33470 0.22520 0.26300
H4 H -0.38190 0.19650 0.28780
C5 C -0.28320(12) 0.15335(15) 0.3441(2)
C6 C -0.25402(14) 0.17872(19) 0.2843(2)
H5 H -0.26520 0.19140 0.22650
C7 C -0.20759(13) 0.18529(16) 0.3108(2)
C8 C -0.19039(12) 0.16736(14) 0.3961(2)
C9 C -0.22056(11) 0.14153(14) 0.4525(2)
H6 H -0.20900 0.12810 0.50970
C10 C -0.26749(11) 0.13380(14) 0.4304(2)
C11 C 0.01767(13) 0.29151(19) 0.4090(3)
C12 C -0.02228(13) 0.26135(18) 0.3553(3)
H7 H -0.03700 0.29240 0.31510
H8 H -0.01040 0.22880 0.31730
C13 C -0.07370(13) 0.53555(16) 0.4868(2)
C14 C -0.06825(12) 0.46690(15) 0.4737(3)
H9 H -0.06080 0.45810 0.41150
H10 H -0.04350 0.45110 0.51470
C15 C -0.08138(12) 0.33711(14) 0.4499(3)
H11 H -0.05210 0.35360 0.44350
C16 C -0.08952(11) 0.27469(15) 0.4340(2)
C17 C -0.13223(11) 0.24913(14) 0.4442(2)
C18 C -0.16623(12) 0.28857(14) 0.4707(2)
H12 H -0.19510 0.27170 0.47930
C19 C -0.15997(11) 0.35205(14) 0.4854(2)
C20 C -0.11635(12) 0.37495(14) 0.4752(2)
C21 C -0.14011(12) 0.17971(16) 0.4272(3)
H13 H -0.12130 0.16760 0.37690
C22 C -0.12324(14) 0.14155(18) 0.5103(4)
C23 C -0.1302(2) 0.1586(2) 0.5965(4)
H14 H -0.14520 0.19610 0.60620
C24 C -0.1158(2) 0.1218(4) 0.6730(5)
H15 H -0.12220 0.13340 0.73190
C25 C -0.0921(4) 0.0687(5) 0.6567(12)
C26 C -0.0734(4) 0.0308(5) 0.7431(8)
H16 H -0.05720 -0.00550 0.72400
H17 H -0.09880 0.01820 0.77770
H18 H -0.05280 0.05660 0.78030
C27 C -0.0838(5) 0.0498(5) 0.5675(11)
H19 H -0.06790 0.01310 0.55750
C28 C -0.0996(2) 0.0867(3) 0.4950(7)
H20 H -0.09440 0.07460 0.43570
C29 C -0.19943(11) 0.39511(14) 0.5056(2)
H21 H -0.18550 0.43120 0.53780
C30 C -0.22238(12) 0.41982(16) 0.4184(2)
C31 C -0.24187(14) 0.38160(18) 0.3511(3)
H22 H -0.24030 0.33860 0.35950
C32 C -0.26317(19) 0.4038(2) 0.2736(3)
H23 H -0.27660 0.37620 0.23090
C33 C -0.2653(2) 0.4664(3) 0.2570(4)
C34 C -0.2887(3) 0.4936(4) 0.1672(5)
H24 H -0.29940 0.46010 0.12800
H25 H -0.26670 0.51830 0.13670
H26 H -0.31430 0.51930 0.18140
C35 C -0.2460(3) 0.5051(3) 0.3223(5)
H27 H -0.24680 0.54790 0.31190
C36 C -0.22556(19) 0.4833(2) 0.4027(4)
H28 H -0.21380 0.51110 0.44680
O1 O -0.1250(2) 0.2440(3) 0.1173(4)
O2 O -0.15644(16) 0.3313(3) 0.1060(4)
O3 O -0.34606(17) 0.1158(3) 0.1426(3)
O4 O -0.38452(15) 0.19992(18) 0.1178(3)
O5 O -0.17658(10) 0.20847(13) 0.25193(19)
O6 O -0.32917(9) 0.14409(13) 0.32095(17)
O7 O 0.02961(11) 0.27439(16) 0.4850(2)
O8 O 0.03830(11) 0.33319(15) 0.3680(3)
O9 O -0.04795(10) 0.56996(12) 0.44704(19)
O10 O -0.10330(9) 0.55435(12) 0.53915(18)
O11 O -0.05601(8) 0.23507(11) 0.40889(19)
O12 O -0.11075(8) 0.43771(10) 0.49250(18)
Cd1 Cd -0.097679(10) 0.341693(13) 0.01612(2)
C1F C -0.3471(2) 0.2219(4) 0.8617(4)
C2F C -0.3129(2) 0.2391(3) 0.7938(5)
H1F H -0.31090 0.20520 0.75050
H2F H -0.28280 0.24390 0.82560
C3F C -0.13916(17) 0.3355(3) 0.8325(3)
C4F C -0.14755(15) 0.3131(2) 0.7366(3)
H3F H -0.16530 0.27480 0.73700
H4F H -0.11810 0.30350 0.71220
C5F C -0.21680(12) 0.34665(15) 0.6559(2)
C6F C -0.24598(14) 0.32128(19) 0.7157(2)
H5F H -0.23480 0.30860 0.77350
C7F C -0.29241(13) 0.31471(16) 0.6892(2)
C8F C -0.30961(12) 0.33264(14) 0.6039(2)
C9F C -0.27944(11) 0.35847(14) 0.5475(2)
H6F H -0.29100 0.37190 0.49030
C10F C -0.23251(11) 0.36620(14) 0.5696(2)
C11F C -0.51767(13) 0.20849(19) 0.5910(3)
C12F C -0.47772(13) 0.23865(18) 0.6447(3)
H7F H -0.46300 0.20760 0.68490
H8F H -0.48960 0.27120 0.68270
C13F C -0.42630(13) -0.03555(16) 0.5132(2)
C14F C -0.43175(12) 0.03310(15) 0.5263(3)
H9F H -0.43920 0.04190 0.58850
H10F H -0.45650 0.04890 0.48530
C15F C -0.41862(12) 0.16289(14) 0.5501(3)
H11F H -0.44790 0.14640 0.55650
C16F C -0.41048(11) 0.22531(15) 0.5660(2)
C17F C -0.36777(11) 0.25087(14) 0.5558(2)
C18F C -0.33377(12) 0.21143(14) 0.5293(2)
H12F H -0.30490 0.22830 0.52070
C19F C -0.34003(11) 0.14795(14) 0.5146(2)
C20F C -0.38365(12) 0.12505(14) 0.5248(2)
C21F C -0.35989(12) 0.32029(16) 0.5728(3)
H13F H -0.37870 0.33240 0.62310
C22F C -0.37676(14) 0.35845(18) 0.4897(4)
C23F C -0.3698(2) 0.3414(2) 0.4035(4)
H14F H -0.35480 0.30390 0.39380
C24F C -0.3842(2) 0.3782(4) 0.3270(5)
H15F H -0.37780 0.36660 0.26810
C25F C -0.4079(4) 0.4313(5) 0.3433(12)
C26F C -0.4266(4) 0.4692(5) 0.2569(8)
H16F H -0.44280 0.50550 0.27600
H17F H -0.40120 0.48180 0.22230
H18F H -0.44720 0.44340 0.21970
C27F C -0.4162(5) 0.4502(5) 0.4325(11)
H19F H -0.43210 0.48690 0.44250
C28F C -0.4004(2) 0.4133(3) 0.5050(7)
H20F H -0.40560 0.42540 0.56430
C29F C -0.30057(11) 0.10489(14) 0.4944(2)
H21F H -0.31450 0.06880 0.46220
C30F C -0.27762(12) 0.08018(16) 0.5816(2)
C31F C -0.25813(14) 0.11840(18) 0.6489(3)
H22F H -0.25970 0.16140 0.64050
C32F C -0.23683(19) 0.0962(2) 0.7264(3)
H23F H -0.22340 0.12380 0.76910
C33F C -0.2347(2) 0.0336(3) 0.7430(4)
C34F C -0.2113(3) 0.0064(4) 0.8328(5)
H24F H -0.20060 0.03990 0.87200
H25F H -0.23330 -0.01830 0.86330
H26F H -0.18570 -0.01930 0.81860
C35F C -0.2540(3) -0.0051(3) 0.6777(5)
H27F H -0.25320 -0.04790 0.68810
C36F C -0.27444(19) 0.0167(2) 0.5973(4)
H28F H -0.28620 -0.01110 0.55320
O1F O -0.3750(2) 0.2560(3) 0.8827(4)
O2F O -0.34356(16) 0.1687(3) 0.8940(4)
O3F O -0.15394(17) 0.3842(3) 0.8574(3)
O4F O -0.11548(15) 0.30008(18) 0.8822(3)
O5F O -0.32342(10) 0.29153(13) 0.74807(19)
O6F O -0.17083(9) 0.35591(13) 0.67905(17)
O7F O -0.52961(11) 0.22561(16) 0.5150(2)
O8F O -0.53830(11) 0.16681(15) 0.6320(3)
O9F O -0.45205(10) -0.06996(12) 0.55296(19)
O10F O -0.39670(9) -0.05435(12) 0.46085(18)
O11F O -0.44399(8) 0.26493(11) 0.59111(19)
O12F O -0.38925(8) 0.06229(10) 0.50750(18)
Cd1A Cd 0.097679(10) 0.341693(13) 0.48388(2)
O1A O 0.1250(2) 0.2440(3) 0.3827(4)
O2A O 0.15644(16) 0.3313(3) 0.3940(4)
O4F* O -0.11548(15) 0.30008(18) -0.1178(3)
O4G O 0.11548(15) 0.30008(18) 0.6178(3)
O7A O -0.02961(11) 0.27439(16) 0.0150(2)
O8A O -0.03830(11) 0.33319(15) 0.1320(3)
O9D O 0.04795(10) 0.43004(12) 0.55296(19)
O9E O -0.04795(10) 0.43004(12) -0.05296(19)
O10D O 0.10330(9) 0.44565(12) 0.46085(18)
O10E O -0.10330(9) 0.44565(12) 0.03915(18)
Cd1* Cd -0.097679(10) 0.341693(13) 1.01612(2)
Cd1C Cd -0.402321(10) -0.158307(13) 0.48388(2)
Cd1E Cd -0.097679(10) 0.658307(13) 0.51612(2)
Cd1F Cd -0.402321(10) 0.158307(13) -0.01612(2)
Cd1F* Cd -0.402321(10) 0.158307(13) 0.98388(2)
Cd1G Cd -0.597679(10) 0.158307(13) 0.51612(2)
#END
