
#######################################################################
#
#                 Cambridge Crystallographic Data Centre
#                                CCDC
#
#######################################################################
#
# If this CIF has been generated from an entry in the Cambridge
# Structural Database, then it will include bibliographic, chemical,
# crystal, experimental, refinement or atomic coordinate data resulting
# from the CCDC's data processing and validation procedures.
#
#######################################################################

data_CSD_CIF_ULAQAB
_audit_creation_date 2016-04-27
_audit_creation_method CSD-ConQuest-V1
_database_code_CSD ULAQAB
_database_code_depnum_ccdc_archive 'CCDC 1451893'
_chemical_formula_sum 'C86 H114 N6 O32 Zn2'
_chemical_formula_moiety
;
(C2 H8 N1 1+)4n,n(C72 H56 O24 Zn2 4-),2n(C3 H7 N1 O1),6n(H2 O1)
;
_journal_coden_Cambridge 1147
_journal_volume 16
_journal_year 2016
_journal_page_first 3244
_journal_name_full 'Cryst.Growth Des. '
loop_
_publ_author_name
"Hang Zhang"
"Jin Yang"
"Ying-Ying Liu"
"Shuyan Song"
"Jian-Fang Ma"
_chemical_name_systematic
;
catena-[tetrakis(dimethylammonium) 
(\m-2,8,14,20-tetrakis(p-tolyl)-4,6,10,12,16,18,22,24-octakis((carboxylatometh
yl)oxido)calix(4)arene)-di-zinc(ii) N,N-dimethylformamide solvate 
hexahydrate]
;
_chemical_name_common
;
catena-[tetrakis(dimethylammonium) 
(mu-2,2',2'',2''',2'''',2''''',2'''''',2'''''''-((2,8,14,20-tetrakis(4-methylp
henyl)pentacyclo[19.3.1.1$3,7!.1$9,13!.1$15,19!]octacosa-1(25),3(28),4,6,9(27)
,10,12,15(26),16,18,21,23-dodecaene-4,6,10,12,16,18,22,24-octayl)octakis(oxy))
octaacetato)-bis(N,N-dimethylformamide)-di-zinc(ii) N,N-dimethylformamide 
solvate hexahydrate]
;
_cell_volume   4562.213
_exptl_crystal_colour 'colorless'
_exptl_crystal_description 'block'
_diffrn_ambient_temperature 293
#These two values have been output from a single CSD field.
_refine_ls_R_factor_gt 0.0598
_refine_ls_wR_factor_gt 0.0598
_symmetry_cell_setting monoclinic
_symmetry_space_group_name_H-M 'P 21/n'
_symmetry_Int_Tables_number 14
loop_
_symmetry_equiv_pos_site_id
_symmetry_equiv_pos_as_xyz
1 x,y,z
2 1/2-x,1/2+y,1/2-z
3 -x,-y,-z
4 -1/2+x,-1/2-y,-1/2+z
_cell_length_a 11.8040(5)
_cell_length_b 24.8100(9)
_cell_length_c 15.6720(7)
_cell_angle_alpha 90
_cell_angle_beta 96.269(4)
_cell_angle_gamma 90
_cell_formula_units_Z 2
loop_
_atom_type_symbol
_atom_type_radius_bond
C 0.68
H 0.23
N 0.68
O 0.68
Zn 1.22
loop_
_atom_site_label
_atom_site_type_symbol
_atom_site_fract_x
_atom_site_fract_y
_atom_site_fract_z
Zn1 Zn 0.08714(3) 0.333136(13) 0.99298(2)
C1 C -0.0122(3) 0.37429(13) 0.8279(2)
C2 C 0.0235(3) 0.37345(14) 0.7394(2)
H1 H 0.07290 0.40420 0.73350
H2 H 0.06860 0.34120 0.73360
C3 C -0.1203(3) 0.60919(13) 0.8489(2)
C4 C -0.1010(4) 0.55866(14) 0.7997(2)
H3 H -0.01980 0.55290 0.79930
H4 H -0.13190 0.52810 0.82810
C5 C -0.1495(3) 0.51629(12) 0.6660(2)
C6 C -0.1034(3) 0.46827(12) 0.6968(2)
H5 H -0.07000 0.46580 0.75320
C7 C -0.1068(3) 0.42370(11) 0.6435(2)
C8 C -0.1565(2) 0.42611(11) 0.55966(19)
C9 C -0.2014(2) 0.47568(11) 0.53058(19)
H6 H -0.23470 0.47830 0.47420
C10 C -0.1984(2) 0.52123(11) 0.58222(19)
C11 C -0.2457(2) 0.57505(11) 0.55034(19)
H7 H -0.29290 0.58810 0.59370
C12 C -0.3225(3) 0.57317(11) 0.4663(2)
C13 C -0.4364(3) 0.56049(16) 0.4661(3)
H8 H -0.46420 0.55140 0.51750
C14 C -0.5100(3) 0.56094(19) 0.3914(3)
H9 H -0.58620 0.55220 0.39350
C15 C -0.4728(4) 0.57401(18) 0.3140(3)
C16 C -0.3594(4) 0.5856(2) 0.3146(3)
H10 H -0.33130 0.59380 0.26300
C17 C -0.2859(3) 0.58547(17) 0.3887(2)
H11 H -0.20950 0.59390 0.38620
C18 C -0.5534(5) 0.5754(3) 0.2322(4)
H12 H -0.62870 0.56590 0.24460
H13 H -0.52820 0.55030 0.19180
H14 H -0.55450 0.61110 0.20830
C19 C -0.4267(3) 0.75322(12) 0.5342(2)
C20 C 0.1816(3) 0.81815(13) 0.5221(2)
C21 C -0.3453(3) 0.71331(14) 0.5026(2)
H15 H -0.38760 0.68690 0.46630
H16 H -0.29380 0.73180 0.46830
C22 C 0.0774(3) 0.78472(12) 0.5313(3)
H17 H 0.05130 0.79140 0.58690
H18 H 0.01680 0.79490 0.48740
C23 C 0.0153(2) 0.69415(11) 0.5299(2)
C24 C -0.0920(2) 0.70946(12) 0.5472(2)
H19 H -0.10910 0.74570 0.55400
C25 C -0.1744(2) 0.67038(11) 0.5543(2)
C26 C -0.1514(2) 0.61647(11) 0.54604(18)
C27 C -0.0427(2) 0.60258(11) 0.52761(19)
H20 H -0.02620 0.56630 0.52080
C28 C 0.0419(2) 0.63978(11) 0.51888(19)
C29 C 0.1601(2) 0.62490(11) 0.49580(19)
C30 C 0.2474(2) 0.62009(11) 0.5733(2)
C31 C 0.2280(3) 0.59217(15) 0.6465(2)
H21 H 0.15520 0.57960 0.65270
C32 C 0.3150(4) 0.58280(18) 0.7100(3)
H22 H 0.30010 0.56330 0.75820
C33 C 0.4229(4) 0.60130(17) 0.7046(3)
C34 C 0.4417(3) 0.63088(18) 0.6344(3)
H23 H 0.51380 0.64510 0.63010
C35 C 0.3551(3) 0.64014(15) 0.5693(3)
H24 H 0.37010 0.66040 0.52180
C36 C 0.5194(5) 0.5882(2) 0.7740(4)
H25 H 0.58860 0.60460 0.75980
H26 H 0.52930 0.54990 0.77780
H27 H 0.50120 0.60190 0.82810
O1 O 0.0735(2) 0.37196(11) 0.88474(16)
O2 O -0.1115(2) 0.37849(12) 0.83993(18)
O3 O -0.0839(2) 0.60504(9) 0.92876(15)
O4 O -0.1648(3) 0.64879(10) 0.81599(18)
O5 O -0.0637(2) 0.37461(9) 0.67107(15)
O6 O -0.1522(2) 0.56167(9) 0.71588(14)
O7 O -0.4379(2) 0.75837(10) 0.61028(17)
O8 O -0.4817(2) 0.77991(10) 0.47364(16)
O9 O 0.1685(2) 0.86733(10) 0.5279(3)
O10 O 0.26990(19) 0.79485(9) 0.50847(17)
O11 O -0.28159(17) 0.68679(8) 0.57216(15)
O12 O 0.10216(18) 0.72972(8) 0.52334(17)
C37 C -0.1980(5) 0.7777(3) 0.7661(5)
H28 H -0.14410 0.77520 0.72460
H29 H -0.15930 0.77280 0.82270
H30 H -0.23370 0.81250 0.76230
C38 C -0.3675(5) 0.7382(2) 0.8103(3)
H31 H -0.42290 0.71020 0.79750
H32 H -0.40470 0.77260 0.80680
H33 H -0.32990 0.73300 0.86720
N1 N -0.2842(3) 0.73614(14) 0.7491(2)
C39 C -0.2558(8) 0.5123(3) 1.1073(4)
H34 H -0.19500 0.52490 1.14810
H35 H -0.25480 0.47360 1.10560
H36 H -0.32740 0.52430 1.12400
C40 C -0.3282(5) 0.5166(3) 0.9562(5)
H37 H -0.31220 0.53230 0.90290
H38 H -0.40160 0.52850 0.96970
H39 H -0.32820 0.47800 0.95120
N2 N -0.2412(3) 0.53305(14) 1.0244(3)
C41 C 0.0977(6) 0.7129(5) 0.7656(5)
H40 H 0.08790 0.73790 0.71870
H41 H 0.05650 0.72540 0.81130
H42 H 0.06920 0.67810 0.74660
C42 C 0.2865(8) 0.7397(4) 0.7448(9)
H43 H 0.24150 0.76020 0.70150
H44 H 0.33520 0.71550 0.71790
H45 H 0.33210 0.76380 0.78220
C43 C 0.2408(10) 0.6770(5) 0.8583(6)
N3 N 0.2111(4) 0.7088(2) 0.7946(3)
O13 O 0.3388(8) 0.6747(3) 0.8865(6)
O14 O -0.0896(4) 0.45762(18) 0.9758(3)
O15 O -0.2945(5) 0.3379(3) 0.9254(4)
O16 O -0.0590(5) 0.9037(3) 0.4967(5)
C1B C 0.0122(3) 0.62571(13) 0.1721(2)
C2B C -0.0235(3) 0.62655(14) 0.2606(2)
H1B H -0.07290 0.59580 0.26650
H2B H -0.06860 0.65880 0.26640
C3B C 0.1203(3) 0.39081(13) 0.1511(2)
C4B C 0.1010(4) 0.44134(14) 0.2003(2)
H3B H 0.01980 0.44710 0.20070
H4B H 0.13190 0.47190 0.17190
C5B C 0.1495(3) 0.48371(12) 0.3340(2)
C6B C 0.1034(3) 0.53173(12) 0.3032(2)
H5B H 0.07000 0.53420 0.24680
C7B C 0.1068(3) 0.57630(11) 0.3565(2)
C8B C 0.1565(2) 0.57389(11) 0.44034(19)
C9B C 0.2014(2) 0.52432(11) 0.46942(19)
H6B H 0.23470 0.52170 0.52580
C10B C 0.1984(2) 0.47877(11) 0.41778(19)
C11B C 0.2457(2) 0.42495(11) 0.44966(19)
H7B H 0.29290 0.41190 0.40630
C12B C 0.3225(3) 0.42683(11) 0.5337(2)
C13B C 0.4364(3) 0.43951(16) 0.5339(3)
H8B H 0.46420 0.44860 0.48250
C14B C 0.5100(3) 0.43906(19) 0.6086(3)
H9B H 0.58620 0.44780 0.60650
C15B C 0.4728(4) 0.42599(18) 0.6860(3)
C16B C 0.3594(4) 0.4144(2) 0.6854(3)
H10B H 0.33130 0.40620 0.73700
C17B C 0.2859(3) 0.41453(17) 0.6113(2)
H11B H 0.20950 0.40610 0.61380
C18B C 0.5534(5) 0.4246(3) 0.7678(4)
H12B H 0.62870 0.43410 0.75540
H13B H 0.52820 0.44970 0.80820
H14B H 0.55450 0.38890 0.79170
C19B C 0.4267(3) 0.24678(12) 0.4658(2)
C20B C -0.1816(3) 0.18185(13) 0.4779(2)
C21B C 0.3453(3) 0.28669(14) 0.4974(2)
H15B H 0.38760 0.31310 0.53370
H16B H 0.29380 0.26820 0.53170
C22B C -0.0774(3) 0.21528(12) 0.4687(3)
H17B H -0.05130 0.20860 0.41310
H18B H -0.01680 0.20510 0.51260
C23B C -0.0153(2) 0.30585(11) 0.4701(2)
C24B C 0.0920(2) 0.29054(12) 0.4528(2)
H19B H 0.10910 0.25430 0.44600
C25B C 0.1744(2) 0.32962(11) 0.4457(2)
C26B C 0.1514(2) 0.38353(11) 0.45396(18)
C27B C 0.0427(2) 0.39742(11) 0.47239(19)
H20B H 0.02620 0.43370 0.47920
C28B C -0.0419(2) 0.36022(11) 0.48112(19)
C29B C -0.1601(2) 0.37510(11) 0.50420(19)
C30B C -0.2474(2) 0.37991(11) 0.4267(2)
C31B C -0.2280(3) 0.40783(15) 0.3535(2)
H21B H -0.15520 0.42040 0.34730
C32B C -0.3150(4) 0.41720(18) 0.2900(3)
H22B H -0.30010 0.43670 0.24180
C33B C -0.4229(4) 0.39870(17) 0.2954(3)
C34B C -0.4417(3) 0.36912(18) 0.3656(3)
H23B H -0.51380 0.35490 0.36990
C35B C -0.3551(3) 0.35986(15) 0.4307(3)
H24B H -0.37010 0.33960 0.47820
C36B C -0.5194(5) 0.4118(2) 0.2260(4)
H25B H -0.58860 0.39540 0.24020
H26B H -0.52930 0.45010 0.22220
H27B H -0.50120 0.39810 0.17190
O1B O -0.0735(2) 0.62804(11) 0.11526(16)
O2B O 0.1115(2) 0.62151(12) 0.16007(18)
O3B O 0.0839(2) 0.39496(9) 0.07124(15)
O4B O 0.1648(3) 0.35121(10) 0.18401(18)
O5B O 0.0637(2) 0.62539(9) 0.32893(15)
O6B O 0.1522(2) 0.43833(9) 0.28412(14)
O7B O 0.4379(2) 0.24163(10) 0.38972(17)
O8B O 0.4817(2) 0.22009(10) 0.52636(16)
O9B O -0.1685(2) 0.13267(10) 0.4721(3)
O10B O -0.26990(19) 0.20515(9) 0.49153(17)
O11B O 0.28159(17) 0.31321(8) 0.42784(15)
O12B O -0.10216(18) 0.27028(8) 0.47666(17)
Zn1B Zn -0.08714(3) 0.666864(13) 0.00702(2)
Zn1* Zn 0.08714(3) 0.333136(13) -0.00702(2)
Zn1A Zn -0.58714(3) 0.833136(13) 0.50702(2)
Zn1A* Zn 0.41286(3) 0.833136(13) 0.50702(2)
Zn1B* Zn -0.08714(3) 0.666864(13) 1.00702(2)
Zn1C Zn -0.41286(3) 0.166864(13) 0.49298(2)
Zn1C* Zn 0.58714(3) 0.166864(13) 0.49298(2)
O3* O -0.0839(2) 0.60504(9) -0.07124(15)
O3B* O 0.0839(2) 0.39496(9) 1.07124(15)
O8A O -0.0183(2) 0.27991(10) 1.02636(16)
O8C O 0.0183(2) 0.72009(10) -0.02636(16)
O10A O 0.23010(19) 0.29485(9) 0.99153(17)
O10C O -0.23010(19) 0.70515(9) 0.00847(17)
#END
