
#######################################################################
#
#                 Cambridge Crystallographic Data Centre
#                                CCDC
#
#######################################################################
#
# If this CIF has been generated from an entry in the Cambridge
# Structural Database, then it will include bibliographic, chemical,
# crystal, experimental, refinement or atomic coordinate data resulting
# from the CCDC's data processing and validation procedures.
#
#######################################################################

data_CSD_CIF_ULAQEF
_audit_creation_date 2016-04-27
_audit_creation_method CSD-ConQuest-V1
_database_code_CSD ULAQEF
_database_code_depnum_ccdc_archive 'CCDC 1451894'
_chemical_formula_sum 'C86 H110 Co2 N6 O30'
_chemical_formula_moiety
;
(C2 H8 N1 1+)4n,n(C72 H56 Co2 O24 4-),2n(C3 H7 N1 O1),4n(H2 O1)
;
_journal_coden_Cambridge 1147
_journal_volume 16
_journal_year 2016
_journal_page_first 3244
_journal_name_full 'Cryst.Growth Des. '
loop_
_publ_author_name
"Hang Zhang"
"Jin Yang"
"Ying-Ying Liu"
"Shuyan Song"
"Jian-Fang Ma"
_chemical_name_systematic
;
catena-[tetrakis(dimethylammonium) 
(\m-2,8,14,20-tetrakis(p-tolyl)-4,6,10,12,16,18,22,24-octakis((carboxylatometh
yl)oxido)calix(4)arene)-di-cobalt(ii) N,N-dimethylformamide solvate 
tetrahydrate]
;
_chemical_name_common
;
catena-[tetrakis(dimethylammonium) 
(mu-2,2',2'',2''',2'''',2''''',2'''''',2'''''''-((2,8,14,20-tetrakis(4-methylp
henyl)pentacyclo[19.3.1.1$3,7!.1$9,13!.1$15,19!]octacosa-1(25),3(28),4,6,9(27)
,10,12,15(26),16,18,21,23-dodecaene-4,6,10,12,16,18,22,24-octayl)octakis(oxy))
octaacetato)-di-cobalt N,N-dimethylformamide solvate tetrahydrate]
;
_cell_volume   4592.584
_exptl_crystal_colour 'purple'
_exptl_crystal_description 'block'
_diffrn_ambient_temperature 293
#These two values have been output from a single CSD field.
_refine_ls_R_factor_gt 0.0818
_refine_ls_wR_factor_gt 0.0818
_symmetry_cell_setting monoclinic
_symmetry_space_group_name_H-M 'P 21/n'
_symmetry_Int_Tables_number 14
loop_
_symmetry_equiv_pos_site_id
_symmetry_equiv_pos_as_xyz
1 x,y,z
2 1/2-x,1/2+y,1/2-z
3 -x,-y,-z
4 -1/2+x,-1/2-y,-1/2+z
_cell_length_a 11.8380(8)
_cell_length_b 24.7720(15)
_cell_length_c 15.7730(8)
_cell_angle_alpha 90
_cell_angle_beta 96.834(5)
_cell_angle_gamma 90
_cell_formula_units_Z 2
loop_
_atom_type_symbol
_atom_type_radius_bond
C 0.68
H 0.23
Co 1.26
N 0.68
O 0.68
loop_
_atom_site_label
_atom_site_type_symbol
_atom_site_fract_x
_atom_site_fract_y
_atom_site_fract_z
Co1 Co -0.08812(5) 0.33503(2) 0.00753(3)
C1 C 0.0185(6) 0.37432(19) 0.1741(3)
C2 C -0.0203(4) 0.3723(2) 0.2593(3)
H1 H -0.07170 0.40240 0.26370
H2 H -0.06430 0.33950 0.26270
C3 C 0.1242(4) 0.60863(18) 0.1516(3)
C4 C 0.1054(5) 0.55709(19) 0.2009(3)
H3 H 0.02450 0.55020 0.19890
H4 H 0.13940 0.52680 0.17430
C5 C 0.1032(4) 0.46775(17) 0.3050(2)
H5 H 0.06990 0.46530 0.24870
C6 C 0.1500(4) 0.51561(16) 0.3357(2)
C7 C 0.1994(3) 0.52077(16) 0.4197(2)
C8 C 0.2020(3) 0.47474(15) 0.4706(2)
H6 H 0.23600 0.47700 0.52670
C9 C 0.1562(3) 0.42554(15) 0.4414(2)
C10 C 0.1058(4) 0.42310(16) 0.3582(2)
C11 C 0.1591(3) 0.37479(15) 0.4978(2)
H7 H 0.18420 0.34510 0.46340
C12 C 0.2477(4) 0.37969(16) 0.5757(2)
C13 C 0.2287(4) 0.4074(2) 0.6475(3)
H8 H 0.15610 0.42040 0.65250
C14 C 0.3154(5) 0.4165(2) 0.7129(3)
H9 H 0.30040 0.43580 0.76100
C15 C 0.4236(5) 0.3973(2) 0.7078(3)
C16 C 0.5206(6) 0.4106(3) 0.7792(5)
H10 H 0.58980 0.39400 0.76620
H11 H 0.50150 0.39690 0.83260
H12 H 0.53080 0.44900 0.78300
C17 C 0.4414(5) 0.3682(2) 0.6374(4)
H13 H 0.51330 0.35410 0.63310
C18 C 0.3557(4) 0.3593(2) 0.5729(3)
H14 H 0.37050 0.33890 0.52590
C19 C 0.1820(5) 0.1809(2) 0.5267(3)
C20 C 0.0779(4) 0.21357(18) 0.5344(3)
H15 H 0.01720 0.20230 0.49120
H16 H 0.05290 0.20770 0.59000
C21 C -0.4278(4) 0.24638(17) 0.5343(3)
C22 C -0.3475(4) 0.28639(19) 0.5034(3)
H17 H -0.29690 0.26800 0.46880
H18 H -0.39030 0.31300 0.46770
C23 C -0.0926(4) 0.28979(16) 0.5479(2)
H19 H -0.10980 0.25350 0.55470
C24 C -0.1741(3) 0.32890(16) 0.5549(2)
C25 C -0.1517(3) 0.38333(15) 0.5456(2)
C26 C -0.0429(3) 0.39709(15) 0.5279(2)
H20 H -0.02610 0.43340 0.52140
C27 C 0.0418(3) 0.35945(15) 0.5194(2)
C28 C 0.0150(3) 0.30492(16) 0.5308(2)
C29 C -0.2456(3) 0.42462(15) 0.5488(2)
H21 H -0.29250 0.41160 0.59170
C30 C -0.3238(4) 0.42654(16) 0.4642(2)
C31 C -0.2859(4) 0.4144(2) 0.3880(3)
H22 H -0.20950 0.40640 0.38630
C32 C -0.3614(5) 0.4141(2) 0.3118(3)
H23 H -0.33410 0.40570 0.26050
C33 C -0.4740(6) 0.4259(2) 0.3122(4)
C34 C -0.5553(7) 0.4243(3) 0.2287(4)
H24 H -0.51360 0.41460 0.18230
H25 H -0.58910 0.45920 0.21800
H26 H -0.61390 0.39810 0.23350
C35 C -0.5106(5) 0.4386(2) 0.3881(4)
H27 H -0.58680 0.44740 0.38940
C36 C -0.4375(4) 0.4388(2) 0.4640(3)
H28 H -0.46550 0.44730 0.51500
O1 O -0.0642(4) 0.37417(17) 0.1149(2)
O2 O 0.1199(4) 0.37619(18) 0.1658(2)
O3 O 0.0893(3) 0.60358(12) 0.07156(17)
O4 O 0.1648(3) 0.64871(14) 0.1849(2)
O5 O 0.2699(3) 0.20397(13) 0.5113(2)
O6 O 0.1705(4) 0.13173(17) 0.5342(4)
O7 O -0.4836(3) 0.21949(13) 0.47367(19)
O8 O -0.4394(3) 0.24159(14) 0.6100(2)
O9 O 0.0624(3) 0.37378(12) 0.33085(16)
O10 O 0.1534(3) 0.56147(11) 0.28561(15)
O11 O -0.2822(2) 0.31279(11) 0.57245(17)
O12 O 0.1013(3) 0.26900(11) 0.52395(19)
C37 C 0.2544(10) 0.0117(4) 0.6119(5)
H29 H 0.31720 0.02530 0.65000
H30 H 0.25740 -0.02700 0.61090
H31 H 0.18430 0.02310 0.63130
C38 C 0.1688(9) 0.0134(5) 0.4630(7)
H32 H 0.17940 0.02890 0.40870
H33 H 0.09640 0.02440 0.47880
H34 H 0.17100 -0.02530 0.45910
N1 N 0.2607(5) 0.0321(2) 0.5285(3)
C39 C 0.1368(6) 0.2397(3) 0.3127(4)
H35 H 0.08020 0.21210 0.30130
H36 H 0.10060 0.27450 0.30990
H37 H 0.17680 0.23440 0.36870
C40 C 0.3043(7) 0.2773(4) 0.2640(5)
H38 H 0.35540 0.27450 0.22140
H39 H 0.34560 0.27210 0.31950
H40 H 0.26990 0.31250 0.26110
N2 N 0.2172(4) 0.23691(19) 0.2491(3)
C41 C -0.3977(9) 0.2132(6) 0.2641(6)
H41 H -0.44590 0.18990 0.29250
H42 H -0.40330 0.20370 0.20470
H43 H -0.42110 0.25000 0.26960
C42 C -0.2060(14) 0.2379(6) 0.2675(13)
H44 H -0.13370 0.23070 0.29990
H45 H -0.22360 0.27560 0.27140
H46 H -0.20280 0.22850 0.20880
C43 C -0.2746(13) 0.1715(8) 0.3637(8)
H47 H -0.33550 0.15090 0.37730
O13 O -0.1856(11) 0.1664(5) 0.4018(8)
N3 N -0.2894(6) 0.2075(3) 0.2996(5)
O14 O 0.4105(7) -0.0417(3) 0.4763(4)
O15 O -0.2064(8) 0.1547(5) 0.5704(6)
O16 O -0.0556(12) 0.0910(7) 0.4976(10)
C1B C -0.0185(6) 0.62568(19) 0.8259(3)
C2B C 0.0203(4) 0.6277(2) 0.7407(3)
H1B H 0.07170 0.59760 0.73630
H2B H 0.06430 0.66050 0.73730
C3B C -0.1242(4) 0.39137(18) 0.8484(3)
C4B C -0.1054(5) 0.44291(19) 0.7991(3)
H3B H -0.02450 0.44980 0.80110
H4B H -0.13940 0.47320 0.82570
C5B C -0.1032(4) 0.53225(17) 0.6950(2)
H5B H -0.06990 0.53470 0.75130
C6B C -0.1500(4) 0.48439(16) 0.6643(2)
C7B C -0.1994(3) 0.47923(16) 0.5803(2)
C8B C -0.2020(3) 0.52526(15) 0.5294(2)
H6B H -0.23600 0.52300 0.47330
C9B C -0.1562(3) 0.57446(15) 0.5586(2)
C10B C -0.1058(4) 0.57690(16) 0.6418(2)
C11B C -0.1591(3) 0.62521(15) 0.5022(2)
H7B H -0.18420 0.65490 0.53660
C12B C -0.2477(4) 0.62031(16) 0.4243(2)
C13B C -0.2287(4) 0.5926(2) 0.3525(3)
H8B H -0.15610 0.57960 0.34750
C14B C -0.3154(5) 0.5835(2) 0.2871(3)
H9B H -0.30040 0.56420 0.23900
C15B C -0.4236(5) 0.6027(2) 0.2922(3)
C16B C -0.5206(6) 0.5894(3) 0.2208(5)
H10B H -0.58980 0.60600 0.23380
H11B H -0.50150 0.60310 0.16740
H12B H -0.53080 0.55100 0.21700
C17B C -0.4414(5) 0.6318(2) 0.3626(4)
H13B H -0.51330 0.64590 0.36690
C18B C -0.3557(4) 0.6407(2) 0.4271(3)
H14B H -0.37050 0.66110 0.47410
C19B C -0.1820(5) 0.8191(2) 0.4733(3)
C20B C -0.0779(4) 0.78643(18) 0.4656(3)
H15B H -0.01720 0.79770 0.50880
H16B H -0.05290 0.79230 0.41000
C21B C 0.4278(4) 0.75362(17) 0.4657(3)
C22B C 0.3475(4) 0.71361(19) 0.4966(3)
H17B H 0.29690 0.73200 0.53120
H18B H 0.39030 0.68700 0.53230
C23B C 0.0926(4) 0.71021(16) 0.4521(2)
H19B H 0.10980 0.74650 0.44530
C24B C 0.1741(3) 0.67110(16) 0.4451(2)
C25B C 0.1517(3) 0.61667(15) 0.4544(2)
C26B C 0.0429(3) 0.60291(15) 0.4721(2)
H20B H 0.02610 0.56660 0.47860
C27B C -0.0418(3) 0.64055(15) 0.4806(2)
C28B C -0.0150(3) 0.69508(16) 0.4692(2)
C29B C 0.2456(3) 0.57538(15) 0.4512(2)
H21B H 0.29250 0.58840 0.40830
C30B C 0.3238(4) 0.57346(16) 0.5358(2)
C31B C 0.2859(4) 0.5856(2) 0.6120(3)
H22B H 0.20950 0.59360 0.61370
C32B C 0.3614(5) 0.5859(2) 0.6882(3)
H23B H 0.33410 0.59430 0.73950
C33B C 0.4740(6) 0.5741(2) 0.6878(4)
C34B C 0.5553(7) 0.5757(3) 0.7713(4)
H24B H 0.51360 0.58540 0.81770
H25B H 0.58910 0.54080 0.78200
H26B H 0.61390 0.60190 0.76650
C35B C 0.5106(5) 0.5614(2) 0.6119(4)
H27B H 0.58680 0.55260 0.61060
C36B C 0.4375(4) 0.5612(2) 0.5360(3)
H28B H 0.46550 0.55270 0.48500
O1B O 0.0642(4) 0.62583(17) 0.8851(2)
O2B O -0.1199(4) 0.62381(18) 0.8342(2)
O3B O -0.0893(3) 0.39642(12) 0.92844(17)
O4B O -0.1648(3) 0.35129(14) 0.8151(2)
O5B O -0.2699(3) 0.79603(13) 0.4887(2)
O6B O -0.1705(4) 0.86827(17) 0.4658(4)
O7B O 0.4836(3) 0.78051(13) 0.52633(19)
O8B O 0.4394(3) 0.75841(14) 0.3900(2)
O9B O -0.0624(3) 0.62622(12) 0.66915(16)
O10B O -0.1534(3) 0.43853(11) 0.71439(15)
O11B O 0.2822(2) 0.68721(11) 0.42755(17)
O12B O -0.1013(3) 0.73100(11) 0.47605(19)
Co1B Co 0.08812(5) 0.66497(2) -0.00753(3)
Co1* Co -0.08812(5) 0.33503(2) 1.00753(3)
Co1A Co -0.41188(5) 0.83503(2) 0.49247(3)
Co1A* Co 0.58812(5) 0.83503(2) 0.49247(3)
Co1B* Co 0.08812(5) 0.66497(2) 0.99247(3)
Co1C Co -0.58812(5) 0.16497(2) 0.50753(3)
Co1C* Co 0.41188(5) 0.16497(2) 0.50753(3)
O1B* O 0.0642(4) 0.62583(17) -0.1149(2)
O3B* O -0.0893(3) 0.39642(12) -0.07156(17)
O5A O 0.2301(3) 0.70397(13) -0.0113(2)
O5C O -0.2301(3) 0.29603(13) 0.0113(2)
O7A O -0.0164(3) 0.71949(13) 0.02633(19)
O7C O 0.0164(3) 0.28051(13) -0.02633(19)
#END
