
#######################################################################
#
#                 Cambridge Crystallographic Data Centre
#                                CCDC
#
#######################################################################
#
# If this CIF has been generated from an entry in the Cambridge
# Structural Database, then it will include bibliographic, chemical,
# crystal, experimental, refinement or atomic coordinate data resulting
# from the CCDC's data processing and validation procedures.
#
#######################################################################

data_CSD_CIF_ULISOZ
_audit_creation_date 2016-04-30
_audit_creation_method CSD-ConQuest-V1
_database_code_CSD ULISOZ
_database_code_depnum_ccdc_archive 'CCDC 1476509'
_chemical_formula_sum 'C28 H32 N4 O14 Zn2'
_chemical_formula_moiety
;
(C18 H6 O12 Zn2 2-)n,2(C5 H9 N1 O1),2(H4 N1 1+)
;
_journal_coeditor_code "zl2661"
_journal_coden_Cambridge 1828
_journal_volume 72
_journal_year 2016
_journal_page_first 764
_journal_name_full 'Acta Crystallogr.,Sect.E:Cryst.Commun. '
loop_
_publ_author_name
"C.Ordonez"
"M.S.Fonari"
"Q.Wei"
"T.V.Timofeeva"
_chemical_name_systematic
;
catena-[bis(ammonium) bis(\m-benzene-1,3,5-tricarboxylato)-di-zinc 
1-methylpyrrolidin-2-one solvate]
;
_cell_volume   1583.260
_exptl_crystal_colour 'colorless'
_exptl_crystal_density_diffrn 1.635
_exptl_crystal_description 'prism'
_diffrn_ambient_temperature 100
_diffrn_special_details
;
twin

;
_refine_special_details
;
C1S,C2S,C3S,C4S,C5S,N1S,O1S and C1P,C2P,C3P,C4P,C5P,N1P,O1P disordered over 
two sites with occupancies 0.903:0.097.
;
#These two values have been output from a single CSD field.
_refine_ls_R_factor_gt 0.033
_refine_ls_wR_factor_gt 0.033
_symmetry_cell_setting monoclinic
_symmetry_space_group_name_H-M 'P n'
_symmetry_Int_Tables_number 7
loop_
_symmetry_equiv_pos_site_id
_symmetry_equiv_pos_as_xyz
1 x,y,z
2 1/2+x,-y,1/2+z
_cell_length_a 9.470(4)
_cell_length_b 12.351(5)
_cell_length_c 13.575(5)
_cell_angle_alpha 90
_cell_angle_beta 94.327(5)
_cell_angle_gamma 90
_cell_formula_units_Z 2
loop_
_atom_type_symbol
_atom_type_radius_bond
C 0.68
H 0.23
N 0.68
O 0.68
Zn 1.22
loop_
_atom_site_label
_atom_site_type_symbol
_atom_site_fract_x
_atom_site_fract_y
_atom_site_fract_z
Zn1 Zn 0.89147(5) 0.67955(5) 0.05911(4)
Zn2 Zn 0.62372(5) 0.81579(5) 0.17921(4)
O1 O 0.9514(6) 0.8118(3) 0.1336(4)
O2 O 0.8070(6) 0.8139(3) 0.2567(4)
O3 O 0.8606(5) 0.5625(4) 0.1496(3)
O4 O 1.0719(5) 0.5942(4) 0.2254(4)
O5 O 1.2069(6) 0.3161(3) 0.4860(4)
O6 O 1.0633(6) 0.3192(3) 0.6113(4)
O7 O 1.1608(5) 1.0746(4) 0.5835(3)
O8 O 0.9502(5) 1.1140(4) 0.5057(4)
O9 O 1.4623(5) 0.8233(3) 0.2583(4)
O10 O 1.5241(4) 0.9792(3) 0.3323(3)
O11 O 0.5529(6) 0.3160(3) 0.4809(4)
O12 O 0.4855(4) 0.4436(3) 0.3714(3)
C1 C 0.9235(8) 0.8327(5) 0.2208(6)
C2 C 1.0366(7) 0.8843(5) 0.2878(5)
C3 C 1.1771(7) 0.8723(5) 0.2683(5)
H1 H 1.20110 0.83070 0.21320
C4 C 1.2836(7) 0.9213(5) 0.3297(5)
C5 C 1.2461(7) 0.9836(5) 0.4080(5)
H2 H 1.31770 1.01860 0.44920
C6 C 1.1059(7) 0.9959(5) 0.4271(5)
C7 C 0.9997(8) 0.9460(5) 0.3666(5)
H3 H 0.90310 0.95440 0.37950
C8 C 0.9530(7) 0.5524(5) 0.2213(5)
C9 C 0.9120(7) 0.4837(5) 0.3048(5)
C10 C 0.7684(8) 0.4637(5) 0.3179(5)
H4 H 0.69680 0.48990 0.27100
C11 C 1.0130(8) 0.4415(6) 0.3723(6)
H5 H 1.11020 0.45290 0.36280
C12 C 1.0904(8) 0.3363(5) 0.5231(6)
C13 C 0.9770(7) 0.3830(5) 0.4535(5)
C14 C 0.8341(7) 0.3660(5) 0.4684(5)
H6 H 0.80790 0.32800 0.52510
C15 C 0.7317(7) 0.4051(5) 0.4000(5)
C16 C 1.0650(8) 1.0658(6) 0.5106(6)
C17 C 1.4354(7) 0.9100(5) 0.3065(5)
C18 C 0.5761(7) 0.3891(5) 0.4169(5)
O13 O 0.2466(6) 0.0795(4) 0.1181(3)
C19 C 0.2289(7) 0.1747(5) 0.0954(5)
C20 C 0.1892(9) 0.2178(6) -0.0067(5)
H7 H 0.09260 0.19440 -0.03050
H8 H 0.25690 0.19270 -0.05390
C21 C 0.1961(8) 0.3402(6) 0.0056(6)
H9 H 0.28570 0.36900 -0.01700
H10 H 0.11570 0.37540 -0.03280
C22 C 0.1882(8) 0.3598(5) 0.1150(6)
H11 H 0.25200 0.41950 0.13850
H12 H 0.09030 0.37740 0.13060
C23 C 0.2518(9) 0.2404(6) 0.2649(5)
H13 H 0.15860 0.23970 0.29180
H14 H 0.30870 0.29960 0.29520
H15 H 0.29970 0.17130 0.27960
N1 N 0.2347(6) 0.2561(4) 0.1594(4)
N2 N 0.6628(5) 0.0862(4) 0.4962(4)
H16 H 0.628(7) 0.062(5) 0.438(3)
H17 H 0.749(4) 0.105(5) 0.483(5)
H18 H 0.620(6) 0.145(4) 0.515(5)
H19 H 0.687(7) 0.036(4) 0.539(4)
N3 N 0.3320(5) 0.6331(4) 0.3316(4)
H20 H 0.249(4) 0.624(5) 0.302(4)
H21 H 0.369(6) 0.683(4) 0.296(4)
H22 H 0.393(6) 0.580(4) 0.328(4)
H23 H 0.326(7) 0.660(5) 0.392(3)
C24 C 0.3028(9) 0.7644(7) 0.5883(6)
C25 C 0.3572(11) 0.8553(9) 0.6562(9)
H24 H 0.35230 0.92550 0.62090
H25 H 0.45650 0.84170 0.68120
C26 C 0.2619(8) 0.8556(6) 0.7391(5)
H26 H 0.30590 0.81610 0.79700
H27 H 0.24090 0.93060 0.75920
C27 C 0.1267(13) 0.7981(13) 0.6975(11)
H28 H 0.08650 0.75200 0.74810
H29 H 0.05410 0.85060 0.67170
C28 C 0.0917(12) 0.6515(11) 0.5659(10)
H30 H 0.02440 0.68700 0.51780
H31 H 0.03960 0.61050 0.61320
H32 H 0.15220 0.60220 0.53130
N4 N 0.1793(8) 0.7334(6) 0.6184(5)
O14 O 0.3602(7) 0.7270(8) 0.5180(5)
C29? C 0.258(6) 0.737(6) 0.557(4)
C30? C 0.130(9) 0.665(7) 0.572(8)
H33? H 0.07410 0.65120 0.50910
H34? H 0.16040 0.59510 0.60250
C31? C 0.046(5) 0.730(5) 0.641(5)
H35? H -0.02950 0.77140 0.60380
H36? H 0.00180 0.68130 0.68840
C32? C 0.153(10) 0.806(13) 0.696(9)
H37? H 0.18000 0.77950 0.76370
H38? H 0.11480 0.88020 0.69960
C33? C 0.392(9) 0.875(8) 0.650(8)
H39? H 0.45220 0.86970 0.59450
H40? H 0.44780 0.85610 0.71150
H41? H 0.35770 0.94990 0.65480
N5? N 0.272(5) 0.802(4) 0.635(4)
O15? O 0.337(7) 0.732(8) 0.490(4)
Zn1A Zn 0.39147(5) 0.32045(5) 0.55911(4)
Zn1A* Zn 1.39147(5) 0.32045(5) 0.55911(4)
Zn2* Zn 1.62372(5) 0.81579(5) 0.17921(4)
Zn2A Zn 1.12372(5) 0.18421(5) 0.67921(4)
Zn2A* Zn 1.12372(5) 1.18421(5) 0.67921(4)
O5A O 0.7069(6) 0.6839(3) -0.0140(4)
O6A O 0.5633(6) 0.6808(3) 0.1113(4)
O7A O 0.6608(5) 0.9254(4) 0.0835(3)
O9* O 0.4623(5) 0.8233(3) 0.2583(4)
O11A O 1.0529(6) 0.6840(3) -0.0191(4)
#END
