
#######################################################################
#
#                 Cambridge Crystallographic Data Centre
#                                CCDC
#
#######################################################################
#
# If this CIF has been generated from an entry in the Cambridge
# Structural Database, then it will include bibliographic, chemical,
# crystal, experimental, refinement or atomic coordinate data resulting
# from the CCDC's data processing and validation procedures.
#
#######################################################################

data_CSD_CIF_ULODUX
_audit_creation_date 2021-01-28
_audit_creation_method CSD-ConQuest-V1
_database_code_CSD ULODUX
_database_code_depnum_ccdc_archive 'CCDC 2037812'
_chemical_formula_sum 'C120 H116 N12 O36 U4 Zn2'
_chemical_formula_moiety
;
(C48 H60 O32 U4 4-)n,2(C36 H24 N6 Zn1 2+),4(H2 O1)
;
_journal_coden_Cambridge 9
_journal_volume 60
_journal_year 2021
_journal_page_first 1683
_journal_name_full 'Inorg.Chem. '
loop_
_publ_author_name
"P.Thuery"
"J.Harrowfield"
_chemical_name_systematic
;
catena-[bis(tris(1,10-phenanthroline)-zinc(ii)) 
tetrakis(\m-1,3,5-trimethylcyclohexane-1,3,5-tricarboxylato)-octaoxo-tetra-ura
nium tetrahydrate unknown solvate]
;
_cell_volume  25885.488
_exptl_crystal_colour 'pale yellow'
_exptl_crystal_density_diffrn 1.737
_exptl_crystal_description 'platelet'
_diffrn_ambient_temperature 100
_refine_special_details
;
Disordered solvent molecules were not modelled and the disordered density was 
taken into account using the SQUEEZE/PLATON procedure.
;
#These two values have been output from a single CSD field.
_refine_ls_R_factor_gt 0.0339
_refine_ls_wR_factor_gt 0.0339
_symmetry_cell_setting orthorhombic
_symmetry_space_group_name_H-M 'P b c a'
_symmetry_Int_Tables_number 61
loop_
_symmetry_equiv_pos_site_id
_symmetry_equiv_pos_as_xyz
1 x,y,z
2 1/2-x,-y,1/2+z
3 -x,1/2+y,1/2-z
4 1/2+x,1/2-y,-z
5 -x,-y,-z
6 -1/2+x,y,-1/2-z
7 x,-1/2-y,-1/2+z
8 -1/2-x,-1/2+y,z
_cell_length_a 28.4720(8)
_cell_length_b 25.8269(8)
_cell_length_c 35.2019(11)
_cell_angle_alpha 90
_cell_angle_beta 90
_cell_angle_gamma 90
_cell_formula_units_Z 8
loop_
_atom_type_symbol
_atom_type_radius_bond
C 0.68
H 0.23
N 0.68
O 0.68
U 1.96
Zn 1.22
loop_
_atom_site_label
_atom_site_type_symbol
_atom_site_fract_x
_atom_site_fract_y
_atom_site_fract_z
U1 U 0.53172(2) 0.82698(2) 0.73148(2)
U2 U 0.77832(2) 0.70387(2) 0.84261(2)
U3 U 0.51511(2) 0.68909(2) 0.97848(2)
U4 U 0.28790(2) 0.87482(2) 0.90342(2)
O1 O 0.56672(15) 0.88382(18) 0.72980(12)
O2 O 0.49648(15) 0.77128(19) 0.73315(14)
O3 O 0.72476(15) 0.73814(17) 0.84705(11)
O4 O 0.83154(15) 0.66853(18) 0.83815(11)
O5 O 0.54985(14) 0.72780(16) 1.00821(11)
O6 O 0.48008(14) 0.65144(17) 0.94757(12)
O7 O 0.26109(13) 0.92254(15) 0.87505(11)
O8 O 0.31514(14) 0.82606(15) 0.93131(10)
O9 O 0.58270(16) 0.78099(19) 0.68757(12)
O10 O 0.60214(14) 0.77379(17) 0.74737(11)
O11 O 0.77927(14) 0.73411(16) 0.77541(11)
O12 O 0.74835(14) 0.65890(15) 0.7870(1)
O13 O 0.78799(13) 0.81409(15) 0.6517(1)
O14 O 0.72707(13) 0.81358(17) 0.61449(11)
O15 O 0.73603(14) 0.62484(16) 0.85963(10)
O16 O 0.76848(13) 0.66629(16) 0.90654(10)
O17 O 0.56532(13) 0.61269(15) 0.98772(11)
O18 O 0.58736(13) 0.66586(15) 0.94303(11)
O19 O 0.72161(13) 0.62568(15) 1.05183(10)
O20 O 0.77781(13) 0.57008(15) 1.0405(1)
O21 O 0.54665(15) 0.82423(17) 0.80069(11)
O22 O 0.48401(14) 0.86488(17) 0.78236(11)
O23 O 0.52985(14) 0.74956(16) 0.92681(11)
O24 O 0.46855(13) 0.76754(15) 0.96154(11)
O25 O 0.35891(12) 0.92800(14) 0.91639(10)
O26 O 0.36041(12) 0.87751(15) 0.86654(10)
O27 O 0.46441(15) 0.87724(18) 0.70736(11)
O28 O 0.50923(16) 0.8419(2) 0.66484(12)
O29 O 0.31458(14) 0.75751(17) 0.60701(11)
O30 O 0.32265(18) 0.78299(19) 0.66573(12)
O31 O 0.44487(14) 0.80021(15) 0.51989(11)
O32 O 0.49223(14) 0.86475(16) 0.53082(11)
C1 C 0.65084(19) 0.7286(2) 0.70028(15)
C2 C 0.6815(2) 0.7151(2) 0.73452(16)
H1 H 0.66517 0.68830 0.74967
H2 H 0.68448 0.74631 0.75067
C3 C 0.7322(2) 0.6949(2) 0.72496(16)
C4 C 0.75674(19) 0.7333(2) 0.69805(15)
H3 H 0.78762 0.71882 0.69073
H4 H 0.76261 0.76597 0.71204
C5 C 0.72887(19) 0.7461(2) 0.66150(15)
C6 C 0.67828(19) 0.7633(2) 0.67232(16)
H5 H 0.68017 0.79844 0.68340
H6 H 0.65972 0.76598 0.64862
C7 C 0.6096(2) 0.7627(2) 0.71318(16)
C8 C 0.6278(2) 0.6812(2) 0.68179(18)
H7 H 0.65221 0.65667 0.67392
H8 H 0.60973 0.69217 0.65952
H9 H 0.60682 0.66447 0.70011
C9 C 0.75592(19) 0.6964(2) 0.76405(15)
C10 C 0.7341(2) 0.6392(2) 0.71194(17)
H10 H 0.71878 0.63604 0.68713
H11 H 0.71787 0.61721 0.73044
H12 H 0.76696 0.62824 0.70982
C11 C 0.74901(19) 0.7938(2) 0.64199(15)
C12 C 0.7310(2) 0.7041(2) 0.63137(16)
H13 H 0.71184 0.67452 0.63936
H14 H 0.76367 0.69286 0.62803
H15 H 0.71902 0.71770 0.60728
C13 C 0.71931(18) 0.5919(2) 0.92233(14)
C14 C 0.66860(18) 0.6142(2) 0.92493(14)
H16 H 0.67082 0.65212 0.92883
H17 H 0.65273 0.60846 0.90026
C15 C 0.63785(18) 0.5915(2) 0.95639(15)
C16 C 0.66375(17) 0.5921(2) 0.99498(14)
H18 H 0.66482 0.62829 1.00422
H19 H 0.64496 0.57190 1.01343
C17 C 0.71410(18) 0.5706(2) 0.99500(14)
C18 C 0.74251(18) 0.5947(2) 0.96196(14)
H20 H 0.74848 0.63154 0.96805
H21 H 0.77336 0.57711 0.96062
C19 C 0.74330(18) 0.6292(2) 0.89526(14)
C20 C 0.7226(2) 0.5380(2) 0.90367(16)
H22 H 0.75517 0.53112 0.89627
H23 H 0.70245 0.53699 0.88110
H24 H 0.71219 0.51153 0.92179
C21 C 0.59471(18) 0.6255(2) 0.96252(15)
C22 C 0.61814(19) 0.5379(2) 0.94594(17)
H25 H 0.59876 0.54084 0.92303
H26 H 0.59893 0.52484 0.96695
H27 H 0.64416 0.51396 0.94117
C23 C 0.73903(19) 0.5898(2) 1.03108(15)
C24 C 0.7163(2) 0.5113(2) 0.99754(16)
H28 H 0.70333 0.49999 1.02197
H29 H 0.74898 0.49988 0.99545
H30 H 0.69782 0.49615 0.97682
C25 C 0.50512(19) 0.8730(2) 0.84887(15)
C26 C 0.51279(19) 0.8268(2) 0.87583(15)
H31 H 0.49650 0.79637 0.86499
H32 H 0.54678 0.81879 0.87631
C27 C 0.49606(18) 0.8338(2) 0.91705(15)
C28 C 0.44585(18) 0.8546(2) 0.91812(15)
H33 H 0.43816 0.86362 0.94473
H34 H 0.42435 0.82635 0.91035
C29 C 0.43573(18) 0.9023(2) 0.89295(15)
C30 C 0.45448(18) 0.8936(2) 0.85233(14)
H35 H 0.43329 0.86894 0.83931
H36 H 0.45259 0.92690 0.83848
C31 C 0.51189(19) 0.8524(2) 0.80871(16)
C32 C 0.5427(2) 0.9154(2) 0.85262(18)
H37 H 0.53733 0.94206 0.83330
H38 H 0.57386 0.90012 0.84901
H39 H 0.54078 0.93100 0.87794
C33 C 0.49731(19) 0.7804(2) 0.93561(15)
C34 C 0.5303(2) 0.8650(3) 0.94161(17)
H40 H 0.53260 0.90035 0.93174
H41 H 0.56131 0.84858 0.94095
H42 H 0.51880 0.86591 0.96785
C35 C 0.38248(18) 0.9038(2) 0.89111(14)
C36 C 0.4529(2) 0.9532(2) 0.91075(17)
H43 H 0.44330 0.98235 0.89469
H44 H 0.48721 0.95259 0.91282
H45 H 0.43912 0.95718 0.93610
C37 C 0.4371(2) 0.8821(2) 0.64261(16)
C38 C 0.3959(2) 0.8450(2) 0.65082(16)
H46 H 0.37853 0.85856 0.67307
H47 H 0.40917 0.81105 0.65820
C39 C 0.3601(2) 0.8358(2) 0.61847(16)
C40 C 0.3859(2) 0.8232(2) 0.58109(16)
H48 H 0.40043 0.78854 0.58342
H49 H 0.36251 0.82151 0.56033
C41 C 0.42424(19) 0.8623(2) 0.56993(15)
C42 C 0.4582(2) 0.8722(2) 0.60329(15)
H50 H 0.47938 0.84196 0.60532
H51 H 0.47790 0.90247 0.59661
C43 C 0.4727(2) 0.8677(2) 0.67303(16)
C44 C 0.4243(2) 0.9398(2) 0.64892(17)
H52 H 0.41048 0.94413 0.67423
H53 H 0.40157 0.95079 0.62961
H54 H 0.45270 0.96108 0.64691
C45 C 0.3309(2) 0.7895(3) 0.63080(17)
C46 C 0.3232(2) 0.8790(3) 0.61502(18)
H55 H 0.30261 0.87180 0.59334
H56 H 0.33904 0.91225 0.61118
H57 H 0.30445 0.88039 0.63834
C47 C 0.4548(2) 0.8403(2) 0.53850(15)
C48 C 0.4040(2) 0.9121(2) 0.55261(18)
H58 H 0.38564 0.93058 0.57186
H59 H 0.38376 0.90331 0.53106
H60 H 0.42980 0.93427 0.54386
Zn1 Zn 0.45899(2) 0.58454(3) 0.82434(2)
N1 N 0.50958(17) 0.54079(18) 0.79270(13)
N2 N 0.52454(16) 0.62772(18) 0.83417(13)
N3 N 0.43955(17) 0.62774(19) 0.77378(13)
N4 N 0.41911(15) 0.64751(18) 0.84698(13)
N5 N 0.40356(17) 0.52746(19) 0.81888(13)
N6 N 0.46379(16) 0.54084(17) 0.87721(13)
C49 C 0.5015(3) 0.4993(2) 0.77149(17)
H61 H 0.47101 0.48436 0.77174
C50 C 0.5362(3) 0.4766(3) 0.74871(17)
H62 H 0.52904 0.44776 0.73297
C51 C 0.5802(3) 0.4964(2) 0.74952(18)
H63 H 0.60414 0.48105 0.73444
C52 C 0.5912(2) 0.5397(2) 0.77248(16)
C53 C 0.5534(2) 0.5613(2) 0.79308(15)
C54 C 0.5616(2) 0.6068(2) 0.81543(15)
C55 C 0.6066(2) 0.6280(2) 0.81748(15)
C56 C 0.6446(2) 0.6032(2) 0.79731(18)
H64 H 0.67555 0.61663 0.79926
C57 C 0.6364(2) 0.5616(3) 0.77596(18)
H65 H 0.66177 0.54613 0.76265
C58 C 0.6126(2) 0.6737(2) 0.83843(15)
H66 H 0.64260 0.68968 0.83991
C59 C 0.5755(2) 0.6950(2) 0.85648(16)
H67 H 0.57908 0.72591 0.87079
C60 C 0.5313(2) 0.6708(2) 0.85386(16)
H68 H 0.50541 0.68590 0.86670
C61 C 0.4485(3) 0.6170(3) 0.73755(17)
H69 H 0.46361 0.58522 0.73147
C62 C 0.4364(3) 0.6511(3) 0.70784(17)
H70 H 0.44227 0.64182 0.68217
C63 C 0.4163(2) 0.6974(2) 0.71623(18)
H71 H 0.40872 0.72098 0.69642
C64 C 0.4069(2) 0.7104(2) 0.75374(18)
C65 C 0.4188(2) 0.6737(2) 0.78189(16)
C66 C 0.40891(19) 0.6843(2) 0.82099(17)
C67 C 0.38840(19) 0.7327(2) 0.83132(18)
C68 C 0.3784(2) 0.7693(3) 0.8021(2)
H72 H 0.36559 0.80206 0.80874
C69 C 0.3868(2) 0.7583(3) 0.7653(2)
H73 H 0.37912 0.78333 0.74648
C70 C 0.3787(2) 0.7406(3) 0.86967(18)
H74 H 0.36501 0.77233 0.87770
C71 C 0.3886(2) 0.7032(3) 0.89570(18)
H75 H 0.38169 0.70850 0.92182
C72 C 0.40907(19) 0.6566(2) 0.88347(17)
H76 H 0.41606 0.63070 0.90176
C73 C 0.3730(2) 0.5225(3) 0.79071(18)
H77 H 0.37362 0.54681 0.77047
C74 C 0.3400(2) 0.4826(3) 0.7899(2)
H78 H 0.31865 0.48000 0.76928
C75 C 0.3383(2) 0.4473(3) 0.8186(2)
H79 H 0.31591 0.41998 0.81800
C76 C 0.3693(2) 0.4514(2) 0.84863(19)
C77 C 0.40156(19) 0.4926(2) 0.84778(16)
C78 C 0.43365(19) 0.4999(2) 0.87906(16)
C79 C 0.4316(2) 0.4662(2) 0.91006(17)
C80 C 0.3996(2) 0.4233(2) 0.90947(18)
H80 H 0.39962 0.39912 0.92981
C81 C 0.3696(2) 0.4171(2) 0.88054(19)
H81 H 0.34800 0.38907 0.88121
C82 C 0.4621(2) 0.4762(2) 0.94116(17)
H82 H 0.46227 0.45406 0.96269
C83 C 0.4909(2) 0.5180(2) 0.93954(16)
H83 H 0.51037 0.52642 0.96056
C84 C 0.49173(19) 0.5488(2) 0.90674(16)
H84 H 0.51343 0.57668 0.90563
Zn2 Zn 0.13672(2) 0.87464(2) 0.46463(2)
N7 N 0.14280(15) 0.94398(17) 0.49826(13)
N8 N 0.14311(15) 0.84358(17) 0.52068(12)
N9 N 0.06083(17) 0.88852(18) 0.45806(13)
N10 N 0.11295(17) 0.80521(18) 0.44013(13)
N11 N 0.14852(19) 0.91450(18) 0.40994(14)
N12 N 0.21288(17) 0.87248(18) 0.45723(14)
C85 C 0.13989(19) 0.9930(2) 0.48715(16)
H85 H 0.13747 1.00016 0.46075
C86 C 0.14025(18) 1.0345(2) 0.51262(16)
H86 H 0.13660 1.06902 0.50375
C87 C 0.14598(19) 1.0246(2) 0.55077(17)
H87 H 0.14640 1.05235 0.56848
C88 C 0.15122(19) 0.9731(2) 0.56347(16)
C89 C 0.14828(17) 0.9337(2) 0.53620(15)
C90 C 0.15068(18) 0.8804(2) 0.54745(15)
C91 C 0.1584(2) 0.8688(2) 0.58600(16)
C92 C 0.1641(2) 0.9094(2) 0.61287(16)
H88 H 0.17146 0.90145 0.63854
C93 C 0.1593(2) 0.9595(2) 0.60201(16)
H89 H 0.16130 0.98611 0.62060
C94 C 0.1594(2) 0.8158(2) 0.59620(17)
H90 H 0.16610 0.80583 0.62161
C95 C 0.1507(2) 0.7790(2) 0.56911(18)
H91 H 0.15019 0.74335 0.57576
C96 C 0.1424(2) 0.7943(2) 0.53165(17)
H92 H 0.13606 0.76834 0.51320
C97 C 0.0347(2) 0.9294(2) 0.46805(17)
H93 H 0.04885 0.95600 0.48270
C98 C -0.0119(2) 0.9345(2) 0.4581(2)
H94 H -0.02912 0.96403 0.46609
C99 C -0.0334(2) 0.8970(3) 0.4365(2)
H95 H -0.06530 0.90044 0.42912
C100 C -0.0068(2) 0.8532(2) 0.42550(18)
C101 C 0.0397(2) 0.8506(2) 0.43699(16)
C102 C 0.0677(2) 0.8066(2) 0.42731(15)
C103 C 0.0478(2) 0.7656(2) 0.40612(15)
C104 C 0.0008(2) 0.7713(3) 0.39282(18)
H96 H -0.01211 0.74532 0.37682
C105 C -0.0261(2) 0.8127(3) 0.4023(2)
H97 H -0.05768 0.81484 0.39366
C106 C 0.0753(2) 0.7219(2) 0.40027(15)
H98 H 0.06348 0.69386 0.38565
C107 C 0.1192(2) 0.7194(2) 0.41563(17)
H99 H 0.13728 0.68860 0.41351
C108 C 0.1377(2) 0.7630(2) 0.43469(17)
H100 H 0.16905 0.76172 0.44387
C109 C 0.1169(3) 0.9315(2) 0.38536(17)
H101 H 0.08464 0.92509 0.39034
C110 C 0.1291(3) 0.9584(3) 0.35241(19)
H102 H 0.10530 0.96939 0.33525
C111 C 0.1746(3) 0.9689(3) 0.3449(2)
H103 H 0.18311 0.98833 0.32308
C112 C 0.2086(3) 0.9508(2) 0.3698(2)
C113 C 0.1944(2) 0.9231(2) 0.40240(16)
C114 C 0.2282(2) 0.9021(2) 0.42713(17)
C115 C 0.2766(2) 0.9108(3) 0.4205(2)
C116 C 0.2893(3) 0.9405(3) 0.3874(2)
H104 H 0.32160 0.94681 0.38236
C117 C 0.2577(3) 0.9589(3) 0.3641(2)
H105 H 0.26770 0.97840 0.34268
C118 C 0.3084(2) 0.8883(3) 0.4460(2)
H106 H 0.34117 0.89385 0.44270
C119 C 0.2930(2) 0.8582(3) 0.4758(2)
H107 H 0.31444 0.84270 0.49300
C120 C 0.2442(2) 0.8514(2) 0.47977(19)
H108 H 0.23335 0.83021 0.50000
O33 O 0.36182(17) 0.65043(19) 0.56002(17)
H109 H 0.33336 0.65294 0.56632
H110 H 0.36478 0.66744 0.53972
O34 O 0.3906(3) 0.5796(3) 0.6329(2)
O35 O 0.37367(18) 0.7162(3) 0.49211(15)
O36 O 0.21705(18) 0.7242(2) 0.48978(16)
U2E U 0.27832(2) 0.70387(2) 0.65739(2)
U3F U 0.51511(2) 0.81091(2) 0.47848(2)
U4C U 0.78790(2) 0.62518(2) 1.09658(2)
U4E U 0.78790(2) 0.87482(2) 0.59658(2)
O13E O 0.28799(13) 0.81409(15) 0.8483(1)
O14E O 0.22707(13) 0.81358(17) 0.88551(11)
O19C O 0.22161(13) 0.87432(15) 0.94817(10)
O20C O 0.27781(13) 0.92992(15) 0.9595(1)
O29E O 0.81458(14) 0.75751(17) 0.89299(11)
O30E O 0.82265(18) 0.78299(19) 0.83427(12)
O31F O 0.44487(14) 0.69979(15) 1.01989(11)
O32F O 0.49223(14) 0.63525(16) 1.03082(11)
#END
