
#######################################################################
#
#                 Cambridge Crystallographic Data Centre
#                                CCDC
#
#######################################################################
#
# If this CIF has been generated from an entry in the Cambridge
# Structural Database, then it will include bibliographic, chemical,
# crystal, experimental, refinement or atomic coordinate data resulting
# from the CCDC's data processing and validation procedures.
#
#######################################################################

data_CSD_CIF_ULODIL
_audit_creation_date 2021-01-28
_audit_creation_method CSD-ConQuest-V1
_database_code_CSD ULODIL
_database_code_depnum_ccdc_archive 'CCDC 2037810'
_chemical_formula_sum 'C13 H21 N3 O8 U1'
_chemical_formula_moiety
;
(C12 H15 O8 U1 1-)n,C1 H6 N3 1+
;
_journal_coden_Cambridge 9
_journal_volume 60
_journal_year 2021
_journal_page_first 1683
_journal_name_full 'Inorg.Chem. '
loop_
_publ_author_name
"P.Thuery"
"J.Harrowfield"
_chemical_name_systematic
;
catena-[diaminomethaniminium 
(\m-1,3,5-trimethylcyclohexane-1,3,5-tricarboxylato)-dioxo-uranium]
;
_cell_volume   1768.501
_exptl_crystal_colour 'light yellow'
_exptl_crystal_density_diffrn 2.198
_exptl_crystal_description 'platelet'
_diffrn_ambient_temperature 100
_diffrn_special_details
;
twin

;
#These two values have been output from a single CSD field.
_refine_ls_R_factor_gt 0.0181
_refine_ls_wR_factor_gt 0.0181
_symmetry_cell_setting orthorhombic
_symmetry_space_group_name_H-M 'P 21 21 21'
_symmetry_Int_Tables_number 19
loop_
_symmetry_equiv_pos_site_id
_symmetry_equiv_pos_as_xyz
1 x,y,z
2 1/2-x,-y,1/2+z
3 -x,1/2+y,1/2-z
4 1/2+x,1/2-y,-z
_cell_length_a 9.6146(4)
_cell_length_b 9.6594(3)
_cell_length_c 19.0425(7)
_cell_angle_alpha 90
_cell_angle_beta 90
_cell_angle_gamma 90
_cell_formula_units_Z 4
loop_
_atom_type_symbol
_atom_type_radius_bond
C 0.68
H 0.23
N 0.68
O 0.68
U 1.96
loop_
_atom_site_label
_atom_site_type_symbol
_atom_site_fract_x
_atom_site_fract_y
_atom_site_fract_z
U1 U 0.21331(2) 0.00630(2) 0.48288(2)
O1 O 0.0639(3) -0.0102(5) 0.42744(16)
O2 O 0.3595(4) 0.0263(5) 0.53768(17)
O3 O 0.3219(5) 0.1441(4) 0.3919(2)
O4 O 0.1901(6) 0.2570(4) 0.4653(2)
O5 O 0.5777(5) 0.3836(4) 0.4226(2)
O6 O 0.5889(5) 0.6096(4) 0.4221(2)
O7 O 0.2270(6) 0.7542(3) 0.4743(2)
O8 O 0.3473(5) 0.8717(3) 0.3979(2)
C1 C 0.2536(6) 0.3749(5) 0.3572(3)
C2 C 0.3843(7) 0.3777(5) 0.3100(3)
H1 H 0.43823 0.29194 0.31824
H2 H 0.35431 0.37756 0.26029
C3 C 0.4794(4) 0.5019(6) 0.32212(18)
C4 C 0.3948(7) 0.6352(5) 0.3122(3)
H3 H 0.36338 0.64054 0.26273
H4 H 0.45604 0.71572 0.32108
C5 C 0.2656(7) 0.6454(5) 0.3611(3)
C6 C 0.2379(4) 0.5095(5) 0.4008(2)
H5 H 0.14225 0.51280 0.41989
H6 H 0.30260 0.50457 0.44114
C7 C 0.2581(7) 0.2547(5) 0.4089(3)
C8 C 0.1227(8) 0.3436(6) 0.3123(4)
H7 H 0.12957 0.24989 0.29287
H8 H 0.11645 0.41072 0.27380
H9 H 0.03949 0.35048 0.34177
C9 C 0.5495(4) 0.4978(7) 0.39302(19)
C10 C 0.6012(4) 0.4996(6) 0.2694(2)
H10 H 0.66471 0.57637 0.27956
H11 H 0.56495 0.50921 0.22155
H12 H 0.65141 0.41165 0.27359
C11 C 0.2865(9) 0.7602(5) 0.4147(3)
C12 C 0.1373(8) 0.6941(6) 0.3191(3)
H13 H 0.05584 0.69616 0.34999
H14 H 0.12023 0.62993 0.28015
H15 H 0.15443 0.78708 0.30041
N1 N -0.1888(7) 0.1380(5) 0.3936(3)
H16 H -0.09910 0.12412 0.38787
H17 H -0.22166 0.22294 0.39593
N2 N -0.2258(7) -0.0955(5) 0.3955(3)
H18 H -0.28313 -0.16653 0.39619
H19 H -0.13556 -0.10935 0.39250
N3 N -0.4086(5) 0.0556(6) 0.4034(3)
H20 H -0.46816 -0.01349 0.40420
H21 H -0.43874 0.14154 0.40563
C13 C -0.2748(6) 0.0307(6) 0.3989(3)
U1* U 0.21331(2) 1.00630(2) 0.48288(2)
U1C U 0.71331(2) 0.49370(2) 0.51712(2)
O5C O 0.0777(5) 0.1164(4) 0.5774(2)
O6C O 0.0889(5) -0.1096(4) 0.5779(2)
O7* O 0.2270(6) -0.2458(3) 0.4743(2)
O8* O 0.3473(5) -0.1283(3) 0.3979(2)
#END
