
#######################################################################
#
#                 Cambridge Crystallographic Data Centre
#                                CCDC
#
#######################################################################
#
# If this CIF has been generated from an entry in the Cambridge
# Structural Database, then it will include bibliographic, chemical,
# crystal, experimental, refinement or atomic coordinate data resulting
# from the CCDC's data processing and validation procedures.
#
#######################################################################

data_CSD_CIF_UMALOK
_audit_creation_date 2011-05-17
_audit_creation_method CSD-ConQuest-V1
_database_code_CSD UMALOK
_database_code_depnum_ccdc_archive 'CCDC 814157'
_chemical_formula_sum 'C24 H68 Ag2 B22 N4 Sn2'
_chemical_formula_moiety
;
(C10 H32 Ag2 B22 N2 Sn2 2-)n,2n(C7 H18 N1 1+)
;
_journal_coden_Cambridge 579
_journal_volume 29
_journal_year 2010
_journal_page_first 4906
_journal_name_full 'Organometallics '
loop_
_publ_author_name
"H.Schubert"
"L.Wesemann"
_chemical_name_systematic
;
catena-(bis(Triethyl(methyl)ammonium) 
bis(\m~3~-1-stannadodecaborate)-bis(pyridine)-di-silver)
;
_cell_volume   9345.441
_exptl_crystal_colour 'colorless'
_exptl_crystal_density_diffrn 1.569
_exptl_crystal_description 'prism'
_diffrn_ambient_temperature 173
#These two values have been output from a single CSD field.
_refine_ls_R_factor_gt 0.0387
_refine_ls_wR_factor_gt 0.0387
_symmetry_cell_setting monoclinic
_symmetry_space_group_name_H-M 'C 2/c'
_symmetry_Int_Tables_number 15
loop_
_symmetry_equiv_pos_site_id
_symmetry_equiv_pos_as_xyz
1 x,y,z
2 -x,y,1/2-z
3 1/2+x,1/2+y,z
4 1/2-x,1/2+y,1/2-z
5 -x,-y,-z
6 x,-y,-1/2+z
7 -1/2-x,-1/2-y,-z
8 -1/2+x,-1/2-y,-1/2+z
_cell_length_a 26.4490(17)
_cell_length_b 16.1365(8)
_cell_length_c 24.1068(14)
_cell_angle_alpha 90
_cell_angle_beta 114.725(4)
_cell_angle_gamma 90
_cell_formula_units_Z 8
loop_
_atom_type_symbol
_atom_type_radius_bond
C 0.68
H 0.23
Ag 1.45
B 0.83
N 0.68
Sn 1.39
loop_
_atom_site_label
_atom_site_type_symbol
_atom_site_fract_x
_atom_site_fract_y
_atom_site_fract_z
N1 N 0.09870(12) 0.15855(19) 0.40556(14)
B1 B 0.13671(17) -0.0590(3) 0.16434(19)
H1 H 0.15440 -0.11070 0.14850
B2 B 0.15164(18) 0.0519(3) 0.2644(2)
H2 H 0.17870 0.06960 0.31170
B3 B 0.14443(18) -0.0534(3) 0.2411(2)
H3 H 0.16670 -0.10150 0.27480
C1 C 0.15362(16) 0.1640(3) 0.42149(18)
H4 H 0.16570 0.17840 0.39170
B4 B 0.07782(18) -0.0733(3) 0.1811(2)
H5 H 0.05730 -0.13390 0.17590
C2 C 0.08246(16) 0.1381(3) 0.44959(17)
H6 H 0.04460 0.13470 0.43970
B5 B 0.18005(17) 0.0187(3) 0.2134(2)
H7 H 0.22550 0.01750 0.22920
N2 N 0.88661(13) 0.8534(2) 0.06309(15)
B6 B 0.06782(18) 0.5237(3) 0.3555(2)
H8 H 0.03680 0.55210 0.31360
C3 C 0.8095(2) 0.8025(3) -0.0371(2)
H9 H 0.78640 0.75520 -0.05500
H10 H 0.83150 0.81470 -0.05930
H11 H 0.78650 0.84940 -0.03900
B7 B 0.15791(18) 0.3952(3) 0.4201(2)
H12 H 0.18380 0.34240 0.41890
C4 C 0.17630(18) 0.1272(3) 0.52459(18)
H13 H 0.20210 0.11620 0.56420
C5 C 0.84761(17) 0.7840(2) 0.0290(2)
H14 H 0.82480 0.77020 0.05050
H15 H 0.86970 0.73550 0.03020
C6 C 0.8097(2) 0.9248(3) 0.0827(2)
H16 H 0.79270 0.97800 0.08040
H17 H 0.82460 0.90520 0.12400
H18 H 0.78230 0.88630 0.05670
B8 B 0.13285(19) 0.5727(3) 0.3975(2)
H19 H 0.14230 0.63180 0.38120
B9 B 0.18572(19) 0.4971(3) 0.4352(2)
H20 H 0.22930 0.50740 0.44310
C7 C 0.11969(18) 0.1220(3) 0.50880(18)
H21 H 0.10680 0.10770 0.53800
C8 C 0.85560(19) 0.9326(3) 0.0621(2)
H22 H 0.88220 0.97300 0.08790
H23 H 0.84000 0.95420 0.02080
B10 B 0.08436(19) -0.0069(3) 0.2430(2)
H24 H 0.06860 -0.02570 0.27680
C9 C 0.91923(19) 0.8259(3) 0.1283(2)
H25 H 0.94430 0.86920 0.15080
H26 H 0.94010 0.77700 0.12890
H27 H 0.89400 0.81410 0.14660
N3 N 0.10762(12) 0.34689(18) 0.19609(14)
B11 B 0.08243(19) 0.5656(3) 0.4292(2)
H28 H 0.05920 0.62020 0.43320
C10 C 0.19302(17) 0.1492(3) 0.47978(19)
H29 H 0.23070 0.15400 0.48880
B12 B 0.04902(19) 0.4682(3) 0.4136(2)
H30 H 0.00580 0.46190 0.40830
B13 B 0.16793(19) 0.4444(3) 0.4898(2)
H31 H 0.20020 0.42090 0.53290
B14 B 0.10506(19) 0.3883(3) 0.4537(2)
H32 H 0.09750 0.33120 0.47400
C11 C 0.09487(17) 0.3482(2) 0.13587(18)
H33 H 0.05800 0.34070 0.10840
B15 B 0.1045(2) 0.4863(3) 0.4858(2)
H34 H 0.09570 0.48970 0.52640
C12 C 0.1890(2) 0.3714(3) 0.1536(2)
H35 H 0.21620 0.38070 0.13940
C13 C 0.1347(2) 0.3603(3) 0.1133(2)
H36 H 0.12470 0.36080 0.07140
C14 C 0.20287(17) 0.3688(2) 0.2151(2)
H37 H 0.23970 0.37530 0.24310
B16 B 0.15425(19) 0.5521(3) 0.4767(2)
H38 H 0.17760 0.59850 0.51140
B17 B 0.13457(18) 0.4787(3) 0.3599(2)
H39 H 0.14560 0.47860 0.32070
C15 C 0.16130(15) 0.3563(2) 0.2347(2)
H40 H 0.17090 0.35440 0.27640
N4 N 0.14501(15) 0.6533(2) 0.17147(17)
C16 C 0.15752(19) 0.7147(3) 0.2226(2)
H41 H 0.12300 0.72820 0.22560
H42 H 0.17130 0.76530 0.21200
C17 C 0.92738(17) 0.8741(3) 0.0351(2)
H43 H 0.90630 0.89480 -0.00590
H44 H 0.95140 0.91860 0.05870
C18 C 0.1998(2) 0.6856(3) 0.2851(2)
H45 H 0.20520 0.72830 0.31480
H46 H 0.23460 0.67370 0.28310
H47 H 0.18620 0.63650 0.29680
C19 C 0.9631(2) 0.8042(3) 0.0321(2)
H48 H 0.98710 0.82320 0.01400
H49 H 0.93990 0.76020 0.00780
H50 H 0.98520 0.78410 0.07260
C20 C 0.2219(3) 0.7082(3) 0.1427(3)
H51 H 0.25380 0.69090 0.13630
H52 H 0.23310 0.74840 0.17510
H53 H 0.19490 0.73250 0.10590
C21 C 0.1256(2) 0.5706(3) 0.1849(2)
H54 H 0.11490 0.53560 0.14910
H55 H 0.15640 0.54400 0.21790
C22 C 0.1008(2) 0.6892(3) 0.1144(2)
H56 H 0.09240 0.65070 0.08130
H57 H 0.11400 0.74020 0.10460
H58 H 0.06790 0.69970 0.12060
C23 C 0.0772(2) 0.5770(4) 0.2023(3)
H59 H 0.06710 0.52260 0.21020
H60 H 0.04610 0.60200 0.16940
H61 H 0.08770 0.61050 0.23830
C24 C 0.1967(2) 0.6342(3) 0.1599(2)
H62 H 0.22470 0.60940 0.19650
H63 H 0.18660 0.59350 0.12740
B18 B 0.07464(17) 0.0947(3) 0.1324(2)
H64 H 0.05280 0.13970 0.09590
B19 B 0.03757(18) 0.0187(3) 0.1624(2)
H65 H -0.00800 0.01570 0.14510
B20 B 0.13494(18) 0.0429(3) 0.1362(2)
H66 H 0.15120 0.05690 0.10210
B21 B 0.14484(17) 0.1155(3) 0.1957(2)
H67 H 0.16750 0.17390 0.19950
B22 B 0.07179(17) -0.0129(3) 0.1165(2)
H68 H 0.04700 -0.03450 0.06950
Ag1 Ag 0.042824(11) 0.318457(17) 0.229723(12)
Sn1 Sn 0.071975(11) 0.135214(16) 0.223590(13)
Sn2 Sn 0.066393(11) 0.379284(17) 0.347631(12)
Ag2 Ag 0.040223(11) 0.196046(18) 0.312425(12)
Ag1A Ag -0.042824(11) 0.318457(17) 0.270277(12)
Sn1A Sn -0.071975(11) 0.135214(16) 0.276410(13)
Sn2A Sn -0.066393(11) 0.379284(17) 0.152369(12)
Ag2A Ag -0.040223(11) 0.196046(18) 0.187575(12)
#END
