
#######################################################################
#
#                 Cambridge Crystallographic Data Centre
#                                CCDC
#
#######################################################################
#
# If this CIF has been generated from an entry in the Cambridge
# Structural Database, then it will include bibliographic, chemical,
# crystal, experimental, refinement or atomic coordinate data resulting
# from the CCDC's data processing and validation procedures.
#
#######################################################################

data_CSD_CIF_UMEKEE
_audit_creation_date 2016-05-04
_audit_creation_method CSD-ConQuest-V1
_database_code_CSD UMEKEE
_database_code_depnum_ccdc_archive 'CCDC 1413533'
_chemical_formula_sum 'C20 H31 N17 O7 Zn2'
_chemical_formula_moiety
;
(C15 H12 N15 O4 Zn2 1-)n,n(C2 H8 N1 1+),n(C3 H7 N1 O1),2n(H2 O1)
;
_journal_coden_Cambridge 1147
_journal_volume 16
_journal_year 2016
_journal_page_first 3154
_journal_name_full 'Cryst.Growth Des. '
loop_
_publ_author_name
"Hao Zhang"
"Tianlu Sheng"
"Shengmin Hu"
"Chao Zhuo"
"Haoran Li"
"Ruibiao Fu"
"Yuehong Wen"
"Xintao Wu"
_chemical_name_systematic
;
catena-(Dimethylammonium 
(\m~2~-naphthalene-2,6-dicarboxylato)-tris(\m~2~-5-aminotetrazolato)-di-zinc 
dimethylformamide solvate dihydrate)
;
_cell_volume   5277.538
_exptl_crystal_colour 'colorless'
_exptl_crystal_description 'block'
_diffrn_ambient_temperature 293
_refine_special_details
;
The SQUEEZE/PLATON program was used to model the disordered solvent 
;
#These two values have been output from a single CSD field.
_refine_ls_R_factor_gt 0.0744
_refine_ls_wR_factor_gt 0.0744
_symmetry_cell_setting orthorhombic
_symmetry_space_group_name_H-M 'P n m a'
_symmetry_Int_Tables_number 62
loop_
_symmetry_equiv_pos_site_id
_symmetry_equiv_pos_as_xyz
1 x,y,z
2 1/2-x,-y,1/2+z
3 -x,1/2+y,-z
4 1/2+x,1/2-y,1/2-z
5 -x,-y,-z
6 -1/2+x,y,-1/2-z
7 x,-1/2-y,z
8 -1/2-x,-1/2+y,-1/2+z
_cell_length_a 31.928(17)
_cell_length_b 16.003(8)
_cell_length_c 10.329(5)
_cell_angle_alpha 90
_cell_angle_beta 90
_cell_angle_gamma 90
_cell_formula_units_Z 4
loop_
_atom_type_symbol
_atom_type_radius_bond
C 0.68
H 0.23
N 0.68
O 0.68
Zn 1.22
loop_
_atom_site_label
_atom_site_type_symbol
_atom_site_fract_x
_atom_site_fract_y
_atom_site_fract_z
Zn1 Zn 0.293468(13) 0.05792(3) 0.39859(4)
N1 N 0.28311(10) 0.1803(2) 0.4080(3)
C1 C 0.37637(12) 0.0443(3) 0.4815(5)
O1 O 0.36358(9) 0.0809(2) 0.5835(3)
C2 C 0.42213(11) 0.0221(3) 0.4676(4)
N2 N 0.24710(12) 0.2090(3) 0.3461(5)
N3 N 0.34162(17) 0.25000 0.5063(6)
H1 H 0.35410 0.20130 0.52640
C3 C 0.43779(15) -0.0052(5) 0.3496(6)
H2 H 0.41970 -0.01230 0.27980
N4 N 0.26039(9) 0.0038(2) 0.5404(3)
C4 C 0.44874(14) 0.0330(4) 0.5705(5)
H3 H 0.43810 0.05210 0.64890
N5 N 0.22678(11) -0.0452(3) 0.5144(3)
C5 C 0.49234(13) 0.0149(3) 0.5596(4)
N6 N 0.20756(12) -0.0636(3) 0.6216(4)
C6 C 0.51988(15) 0.0224(5) 0.6643(6)
H4 H 0.50970 0.03880 0.74470
C7 C 0.30371(18) 0.25000 0.4436(6)
N7 N 0.2283(1) -0.0266(2) 0.7233(3)
N8 N 0.28857(11) 0.0638(3) 0.7361(4)
H5 H 0.28560 0.07060 0.82210
H6 H 0.30970 0.08910 0.69410
C8 C 0.26099(11) 0.0144(3) 0.6699(3)
O2 O 0.35261(9) 0.0266(3) 0.3857(3)
N9 N 0.4766(7) 0.25000 0.608(2)
H7 H 0.46150 0.29520 0.58570
C9 C 0.5013(8) 0.25000 0.7320(18)
H8 H 0.47390 0.25000 0.77040
H9 H 0.51630 0.20100 0.75910
C10 C 0.4973(7) 0.25000 0.4794(18)
H10 H 0.48990 0.25000 0.38930
H11 H 0.51350 0.29900 0.49870
N1F N 0.28311(10) 0.3197(2) 0.4080(3)
N2F N 0.24710(12) 0.2910(3) 0.3461(5)
H1F H 0.35410 0.29870 0.52640
C1D C 0.62363(12) -0.0443(3) 0.5185(5)
O1D O 0.63642(9) -0.0809(2) 0.4165(3)
C2D C 0.57787(11) -0.0221(3) 0.5324(4)
C3D C 0.56221(15) 0.0052(5) 0.6504(6)
H2D H 0.58030 0.01230 0.72020
C4D C 0.55126(14) -0.0330(4) 0.4295(5)
H3D H 0.56190 -0.05210 0.35110
C5D C 0.50766(13) -0.0149(3) 0.4404(4)
C6D C 0.48012(15) -0.0224(5) 0.3357(6)
H4D H 0.49030 -0.03880 0.25530
O2D O 0.64739(9) -0.0266(3) 0.6143(3)
Zn1D Zn 0.706532(13) -0.05792(3) 0.60141(4)
N4D N 0.73961(9) -0.0038(2) 0.4596(3)
N5D N 0.77322(11) 0.0452(3) 0.4856(3)
N6D N 0.79244(12) 0.0636(3) 0.3784(4)
N7D N 0.7717(1) 0.0266(2) 0.2767(3)
N8D N 0.71143(11) -0.0638(3) 0.2639(4)
H5D H 0.71440 -0.07060 0.17790
H6D H 0.69030 -0.08910 0.30590
C8D C 0.73901(11) -0.0144(3) 0.3301(3)
Zn1A Zn 0.206532(13) -0.05792(3) 0.89859(4)
Zn1E Zn 0.793468(13) 0.05792(3) 0.10141(4)
Zn1F Zn 0.293468(13) 0.44208(3) 0.39859(4)
N1D N 0.71689(10) -0.1803(2) 0.5920(3)
N7A N 0.2717(1) 0.0266(2) 0.2233(3)
N7E N 0.7283(1) -0.0266(2) 0.7767(3)
H7F H 0.46150 0.20480 0.58570
H9F H 0.51630 0.29900 0.75910
H11F H 0.51350 0.20100 0.49870
#END
