
#######################################################################
#
#                 Cambridge Crystallographic Data Centre
#                                CCDC
#
#######################################################################
#
# If this CIF has been generated from an entry in the Cambridge
# Structural Database, then it will include bibliographic, chemical,
# crystal, experimental, refinement or atomic coordinate data resulting
# from the CCDC's data processing and validation procedures.
#
#######################################################################

data_CSD_CIF_UMEVAK
_audit_creation_date 2011-05-25
_audit_creation_method CSD-ConQuest-V1
_database_code_CSD UMEVAK
_database_code_depnum_ccdc_archive 'CCDC 767127'
_chemical_formula_sum 'C84 H76 N24 O32 Pb4'
_chemical_formula_moiety
;
(C48 H44 N18 O32 Pb4 2-)n,n(C12 H10 N2),2n(C12 H11 N2 1+)
;
_journal_coden_Cambridge 155
_journal_volume 367
_journal_year 2011
_journal_page_first 207
_journal_name_full 'Inorg.Chim.Acta '
loop_
_publ_author_name
"L.Hashemi"
"A.Morsali"
"P.Retailleau"
_chemical_name_systematic
;
catena-(tetrakis(\m~2~-4,4'-ethene-1,2-diyldipyridine)-bis(\m~2~-nitrato)-octa
kis(nitrato)-diaqua-tetra-lead bis(4-(2-(pyridin-4-yl)ethenyl)pyridinium) 
4,4'-ethene-1,2-diyldipyridine solvate)
;
_cell_volume   2406.265
_exptl_crystal_colour 'light brown'
_exptl_crystal_density_diffrn 1.904
_exptl_crystal_description 'block'
_diffrn_ambient_temperature 293
#These two values have been output from a single CSD field.
_refine_ls_R_factor_gt 0.0609
_refine_ls_wR_factor_gt 0.0609
_symmetry_cell_setting triclinic
_symmetry_space_group_name_H-M 'P -1'
_symmetry_Int_Tables_number 2
loop_
_symmetry_equiv_pos_site_id
_symmetry_equiv_pos_as_xyz
1 x,y,z
2 -x,-y,-z
_cell_length_a 9.466(2)
_cell_length_b 16.736(4)
_cell_length_c 16.864(4)
_cell_angle_alpha 112.54(4)
_cell_angle_beta 100.82(3)
_cell_angle_gamma 92.10(3)
_cell_formula_units_Z 1
loop_
_atom_type_symbol
_atom_type_radius_bond
C 0.68
H 0.23
N 0.68
O 0.68
Pb 1.67
loop_
_atom_site_label
_atom_site_type_symbol
_atom_site_fract_x
_atom_site_fract_y
_atom_site_fract_z
Pb1 Pb 0.49077(4) 0.37735(3) 0.15125(3)
Pb2 Pb 0.55134(5) 0.18915(3) 0.33328(3)
O1 O 0.4524(10) 0.2550(8) 0.2102(6)
O2 O 0.2962(10) 0.2357(6) 0.0919(6)
O3 O 0.2840(15) 0.1477(8) 0.1594(7)
O4 O 0.668(2) 0.4812(10) 0.1184(9)
O5 O 0.6096(13) 0.5524(7) 0.2316(7)
O6 O 0.7636(16) 0.6088(9) 0.1873(10)
O7 O 0.6769(11) 0.4145(7) 0.2936(7)
O8 O 0.7559(12) 0.3066(8) 0.3128(9)
O9 O 0.6272(13) 0.3791(8) 0.3957(7)
O10 O 0.3553(12) 0.3610(7) -0.0046(6)
H1 H 0.29620 0.30380 -0.02140
H2 H 0.33910 0.37420 -0.06170
O11 O 0.7949(11) 0.1768(8) 0.4350(6)
O12 O 0.6303(11) 0.2271(8) 0.5033(6)
O13 O 0.8034(14) 0.1778(10) 0.5642(7)
O14 O 0.5403(14) 0.0401(9) 0.3539(10)
O15 O 0.3582(15) 0.0549(9) 0.2766(11)
O16 O 0.3749(13) -0.0684(7) 0.2837(7)
N1 N 0.3388(12) 0.2098(9) 0.1500(7)
N2 N 0.6786(16) 0.5485(9) 0.1782(9)
N3 N 0.6851(11) 0.3646(8) 0.3344(7)
N4 N 0.6463(11) 0.2585(7) 0.0710(7)
N5 N 0.7434(13) 0.1919(9) 0.5015(8)
N6 N 0.4206(15) 0.0038(8) 0.2993(8)
N7 N 1.2909(11) -0.0993(7) -0.2135(7)
N8 N 0.6025(12) 0.7899(8) 0.3623(7)
H3 H 0.53650 0.75480 0.31910
N9 N 1.2347(12) 1.2061(7) 0.8513(7)
N10 N 0.3698(12) 0.6926(7) 0.2288(7)
C1 C 0.7829(14) 0.2554(9) 0.1058(9)
H4 H 0.82280 0.29490 0.16290
C2 C 0.8685(13) 0.1969(9) 0.0621(8)
H5 H 0.96300 0.19680 0.09010
C3 C 0.8147(13) 0.1386(8) -0.0231(8)
C4 C 0.6731(15) 0.1394(10) -0.0575(8)
H6 H 0.63030 0.09960 -0.11400
C5 C 0.5924(15) 0.1992(10) -0.0089(8)
H7 H 0.49530 0.19740 -0.03380
C6 C 0.8977(13) 0.0745(9) -0.0763(8)
H8 H 0.84890 0.03640 -0.13230
C7 C 1.0331(13) 0.0661(8) -0.0521(8)
H9 H 1.07980 0.10150 0.00540
C8 C 1.1194(12) 0.0063(7) -0.1067(7)
C9 C 1.2660(15) 0.0099(9) -0.0784(8)
H10 H 1.31120 0.04840 -0.02170
C10 C 1.3464(14) -0.0423(10) -0.1323(8)
H11 H 1.44570 -0.03740 -0.11080
C11 C 1.1497(14) -0.1053(8) -0.2413(8)
H12 H 1.10820 -0.14640 -0.29750
C12 C 1.0584(13) -0.0545(8) -0.1924(8)
H13 H 0.95960 -0.06060 -0.21580
C13 C 0.3766(17) 0.6634(12) 0.1449(10)
H14 H 0.45900 0.68090 0.13030
C14 C 0.2670(18) 0.6084(13) 0.0787(9)
H15 H 0.27840 0.58690 0.02090
C15 C 0.1408(15) 0.5846(9) 0.0971(10)
C16 C 0.1342(15) 0.6180(11) 0.1823(11)
H16 H 0.04980 0.60570 0.19830
C17 C 0.2487(15) 0.6696(9) 0.2458(9)
H17 H 0.24060 0.68960 0.30420
C18 C 0.016(3) 0.5252(11) 0.0361(8)
H18 H -0.06160 0.52890 0.06340
C19 C 1.2756(15) 1.1411(9) 0.7904(9)
H19 H 1.37390 1.13500 0.79720
C20 C 1.1820(15) 1.0812(9) 0.7169(8)
H20 H 1.21750 1.03640 0.67580
C21 C 1.0353(14) 1.0880(9) 0.7046(9)
C22 C 0.9940(16) 1.158(1) 0.7689(10)
H21 H 0.89720 1.16750 0.76380
C23 C 1.0939(16) 1.2119(9) 0.8382(9)
H22 H 1.06170 1.25730 0.88070
C24 C 0.9204(16) 1.0279(9) 0.6308(9)
H23 H 0.82700 1.04360 0.62860
C25 C 0.9363(16) 0.9579(10) 0.5708(9)
H24 H 1.02870 0.94070 0.57140
C26 C 0.8140(13) 0.9008(8) 0.4987(8)
C27 C 0.8428(14) 0.8223(9) 0.4411(9)
H25 H 0.93540 0.80580 0.44870
C28 C 0.7362(17) 0.7687(10) 0.3732(9)
H26 H 0.75730 0.71640 0.33380
C29 C 0.5683(16) 0.8647(12) 0.4172(10)
H27 H 0.47340 0.87800 0.40980
C30 C 0.6736(15) 0.9214(10) 0.4841(9)
H28 H 0.65100 0.97480 0.52060
N11 N -0.3435(10) 0.7246(7) 0.5943(7)
C31 C -0.3760(13) 0.6670(8) 0.5121(8)
H29 H -0.47240 0.65530 0.48210
C32 C -0.2756(13) 0.6233(8) 0.4682(8)
H30 H -0.30460 0.58410 0.40990
C33 C -0.1317(12) 0.6376(8) 0.5106(8)
C34 C -0.0992(13) 0.6943(10) 0.5977(9)
H31 H -0.00560 0.70270 0.63110
C35 C -0.2059(14) 0.7387(9) 0.6355(9)
H32 H -0.17950 0.78050 0.69280
C36 C -0.0146(12) 0.5967(8) 0.4689(8)
H33 H 0.07710 0.60610 0.50480
C37 C -0.0297(13) 0.5487(8) 0.3863(8)
H34 H -0.12290 0.53820 0.35180
C38 C 0.0838(11) 0.5087(8) 0.3401(8)
C39 C 0.0462(13) 0.4555(10) 0.2526(9)
H35 H -0.05060 0.44390 0.22340
C40 C 0.1502(14) 0.4190(9) 0.2073(9)
H36 H 0.12160 0.38410 0.14750
C41 C 0.3256(13) 0.4804(10) 0.3310(9)
H37 H 0.42290 0.48940 0.35880
C42 C 0.2283(13) 0.5183(9) 0.3805(9)
H38 H 0.25910 0.55020 0.44080
N12 N 0.2882(11) 0.4315(8) 0.2453(7)
Pb1A Pb 1.50923(4) -0.37735(3) -0.15125(3)
Pb1A* Pb -0.49077(4) 0.62265(3) 0.84875(3)
Pb2A Pb 1.44866(5) -0.18915(3) -0.33328(3)
Pb2A* Pb -0.55134(5) 0.81085(3) 0.66672(3)
O1A O 1.5476(10) -0.2550(8) -0.2102(6)
O2A O 1.7038(10) -0.2357(6) -0.0919(6)
O3A O 1.7160(15) -0.1477(8) -0.1594(7)
O4A O 1.332(2) -0.4812(10) -0.1184(9)
O5A O 1.3904(13) -0.5524(7) -0.2316(7)
O6A O 1.2364(16) -0.6088(9) -0.1873(10)
O7A O 1.3231(11) -0.4145(7) -0.2936(7)
O8A O 1.2441(12) -0.3066(8) -0.3128(9)
O9A O 1.3728(13) -0.3791(8) -0.3957(7)
O10A O 1.6447(12) -0.3610(7) 0.0046(6)
H1A H 1.70380 -0.30380 0.02140
H2A H 1.66090 -0.37420 0.06170
O11A O 1.2051(11) -0.1768(8) -0.4350(6)
O12A O 1.3697(11) -0.2271(8) -0.5033(6)
O13A O 1.1966(14) -0.1778(10) -0.5642(7)
O14A O 1.4597(14) -0.0401(9) -0.3539(10)
O15A O 1.6418(15) -0.0549(9) -0.2766(11)
O16A O 1.6251(13) 0.0684(7) -0.2837(7)
N1A N 1.6612(12) -0.2098(9) -0.1500(7)
N2A N 1.3214(16) -0.5485(9) -0.1782(9)
N3A N 1.3149(11) -0.3646(8) -0.3344(7)
N4A N 1.3537(11) -0.2585(7) -0.0710(7)
N5A N 1.2566(13) -0.1919(9) -0.5015(8)
N6A N 1.5794(15) -0.0038(8) -0.2993(8)
N7A N 0.7091(11) 0.0993(7) 0.2135(7)
N10A N -0.3698(12) 0.3074(7) -0.2288(7)
C1A C 1.2171(14) -0.2554(9) -0.1058(9)
H4A H 1.17720 -0.29490 -0.16290
C2A C 1.1315(13) -0.1969(9) -0.0621(8)
H5A H 1.03700 -0.19680 -0.09010
C3A C 1.1853(13) -0.1386(8) 0.0231(8)
C4A C 1.3269(15) -0.1394(10) 0.0575(8)
H6A H 1.36970 -0.09960 0.11400
C5A C 1.4076(15) -0.1992(10) 0.0089(8)
H7A H 1.50470 -0.19740 0.03380
C6A C 1.1023(13) -0.0745(9) 0.0763(8)
H8A H 1.15110 -0.03640 0.13230
C7A C 0.9669(13) -0.0661(8) 0.0521(8)
H9A H 0.92020 -0.10150 -0.00540
C8A C 0.8806(12) -0.0063(7) 0.1067(7)
C9A C 0.7340(15) -0.0099(9) 0.0784(8)
H10A H 0.68880 -0.04840 0.02170
C10A C 0.6536(14) 0.0423(10) 0.1323(8)
H11A H 0.55430 0.03740 0.11080
C11A C 0.8503(14) 0.1053(8) 0.2413(8)
H12A H 0.89180 0.14640 0.29750
C12A C 0.9416(13) 0.0545(8) 0.1924(8)
H13A H 1.04040 0.06060 0.21580
C13A C -0.3766(17) 0.3366(12) -0.1449(10)
H14A H -0.45900 0.31910 -0.13030
C14A C -0.2670(18) 0.3916(13) -0.0787(9)
H15A H -0.27840 0.41310 -0.02090
C15A C -0.1408(15) 0.4154(9) -0.0971(10)
C16A C -0.1342(15) 0.3820(11) -0.1823(11)
H16A H -0.04980 0.39430 -0.19830
C17A C -0.2487(15) 0.3304(9) -0.2458(9)
H17A H -0.24060 0.31040 -0.30420
C18A C -0.016(3) 0.4748(11) -0.0361(8)
H18A H 0.06160 0.47110 -0.06340
N11A N 0.3435(10) 0.2754(7) 0.4057(7)
N11* N 1.6565(10) -0.2754(7) -0.4057(7)
C31A C 0.3760(13) 0.3330(8) 0.4879(8)
H29A H 0.47240 0.34470 0.51790
C32A C 0.2756(13) 0.3767(8) 0.5318(8)
H30A H 0.30460 0.41590 0.59010
C33A C 0.1317(12) 0.3624(8) 0.4894(8)
C34A C 0.0992(13) 0.3057(10) 0.4023(9)
H31A H 0.00560 0.29730 0.36890
C35A C 0.2059(14) 0.2613(9) 0.3645(9)
H32A H 0.17950 0.21950 0.30720
C36A C 0.0146(12) 0.4033(8) 0.5311(8)
H33A H -0.07710 0.39390 0.49520
C37A C 0.0297(13) 0.4513(8) 0.6137(8)
H34A H 0.12290 0.46180 0.64820
C38A C -0.0838(11) 0.4913(8) 0.6599(8)
C39A C -0.0462(13) 0.5445(10) 0.7474(9)
H35A H 0.05060 0.55610 0.77660
C40A C -0.1502(14) 0.5810(9) 0.7927(9)
H36A H -0.12160 0.61590 0.85250
C41A C -0.3256(13) 0.5196(10) 0.6690(9)
H37A H -0.42290 0.51060 0.64120
C42A C -0.2283(13) 0.4817(9) 0.6195(9)
H38A H -0.25910 0.44980 0.55920
N12A N -0.2882(11) 0.5685(8) 0.7547(7)
N12A* N 1.7118(11) -0.4315(8) -0.2453(7)
#END
