
#######################################################################
#
#                 Cambridge Crystallographic Data Centre
#                                CCDC
#
#######################################################################
#
# If this CIF has been generated from an entry in the Cambridge
# Structural Database, then it will include bibliographic, chemical,
# crystal, experimental, refinement or atomic coordinate data resulting
# from the CCDC's data processing and validation procedures.
#
#######################################################################

data_CSD_CIF_UMOZII
_audit_creation_date 2021-02-01
_audit_creation_method CSD-ConQuest-V1
_database_code_CSD UMOZII
_database_code_depnum_ccdc_archive 'CCDC 1907598'
_chemical_formula_sum 'C40 H48 N3 O16 Zn3'
_chemical_formula_moiety
;
(C24 H16 O15 Zn3 2-)n,0.5(C22 H34 N2 2+),C3 H7 N1 O1,C2 H8 N1 1+
;
_journal_coden_Cambridge 574
_journal_volume 188
_journal_year 2021
_journal_page_first 109196
_journal_name_full 'Dyes Pigm. '
loop_
_publ_author_name
"Guozheng Zhao"
"Wenya Liu"
"Fang Yuan"
"Jinjian Liu"
_chemical_name_systematic
;
catena-[dimethylammonium hemikis(1,1'-dihexyl-4,4'-bipyridin-1-ium) 
tris(\m-benzene-1,3-dicarboxylato)-(\m-oxo)-diaqua-tri-zinc(ii) 
N,N-dimethylformamide solvate]
;
_cell_volume   4333.696
_exptl_crystal_colour 'blue'
_exptl_crystal_density_diffrn 1.568
_exptl_crystal_description 'block'
_diffrn_ambient_temperature 273
#These two values have been output from a single CSD field.
_refine_ls_R_factor_gt 0.0447
_refine_ls_wR_factor_gt 0.0447
_symmetry_cell_setting monoclinic
_symmetry_space_group_name_H-M 'P 21/n'
_symmetry_Int_Tables_number 14
loop_
_symmetry_equiv_pos_site_id
_symmetry_equiv_pos_as_xyz
1 x,y,z
2 1/2-x,1/2+y,1/2-z
3 -x,-y,-z
4 -1/2+x,-1/2-y,-1/2+z
_cell_length_a 20.682(3)
_cell_length_b 10.2792(19)
_cell_length_c 22.747(4)
_cell_angle_alpha 90
_cell_angle_beta 116.343(4)
_cell_angle_gamma 90
_cell_formula_units_Z 4
loop_
_atom_type_symbol
_atom_type_radius_bond
C 0.68
H 0.23
N 0.68
O 0.68
Zn 1.22
loop_
_atom_site_label
_atom_site_type_symbol
_atom_site_fract_x
_atom_site_fract_y
_atom_site_fract_z
Zn1 Zn 0.48144(2) 0.20564(4) 0.70307(2)
Zn2 Zn 0.34352(2) 0.43271(4) 0.65854(2)
Zn3 Zn 0.34741(2) 0.26145(3) 0.54343(2)
O1 O 0.52622(13) 0.3652(2) 0.68671(13)
O2 O 0.45439(12) 0.4748(2) 0.71814(11)
O3 O 0.44987(17) 0.9566(3) 0.70596(17)
O4 O 0.52028(16) 1.0592(2) 0.67264(15)
O5 O 0.23813(13) 0.3791(3) 0.59604(11)
O6 O 0.24249(12) 0.2961(2) 0.50686(11)
O7 O 0.02225(14) 0.2988(3) 0.29920(12)
O8 O -0.08392(14) 0.3380(4) 0.29804(15)
O9 O 0.35105(13) 0.5330(2) 0.58258(11)
O10 O 0.38780(14) 0.4165(2) 0.52094(13)
O11 O 0.30947(14) 1.0031(2) 0.54437(14)
O12 O 0.37431(14) 1.1120(2) 0.50633(12)
O13 O 0.37951(12) 0.2479(2) 0.63988(11)
O14 O 0.30988(17) 0.6088(3) 0.68185(15)
H1 H 0.31801 0.58308 0.72003
H2 H 0.26737 0.58517 0.65555
O15 O 0.32912(16) 0.3581(4) 0.73612(15)
H3 H 0.32463 0.27639 0.72973
H4 H 0.37055 0.35831 0.76887
C1 C 0.50059(16) 0.4701(3) 0.69612(14)
C2 C 0.4949(2) 0.9556(3) 0.68470(18)
C3 C 0.52638(16) 0.5942(3) 0.67960(14)
C4 C 0.50139(17) 0.7121(3) 0.69050(15)
H5 H 0.47010 0.71379 0.70982
C5 C 0.52261(18) 0.8281(3) 0.67283(15)
C6 C 0.5683(2) 0.8238(3) 0.64313(18)
H6 H 0.58277 0.90084 0.63107
C7 C 0.5928(2) 0.7055(4) 0.6312(2)
H7 H 0.62261 0.70324 0.61031
C8 C 0.57270(19) 0.5916(3) 0.65034(17)
H8 H 0.59025 0.51253 0.64366
C9 C 0.20948(17) 0.3390(3) 0.53807(15)
C10 C -0.0171(2) 0.3239(4) 0.32729(18)
C11 C 0.12880(17) 0.3407(3) 0.50213(16)
C12 C 0.09448(17) 0.3324(3) 0.43437(15)
H9 H 0.12173 0.32634 0.41114
C13 C 0.01963(18) 0.3332(3) 0.40078(17)
C14 C -0.02049(19) 0.3378(4) 0.4360(2)
H10 H -0.07061 0.33599 0.41385
C15 C 0.0132(2) 0.3449(4) 0.5032(2)
H11 H -0.01420 0.34764 0.52645
C16 C 0.0875(2) 0.3480(4) 0.53644(18)
H12 H 0.11007 0.35490 0.58193
C17 C 0.37582(16) 0.5235(3) 0.54177(14)
C18 C 0.35249(17) 1.0062(3) 0.52033(15)
C19 C 0.39094(16) 0.6473(3) 0.51524(14)
C20 C 0.36668(16) 0.7646(3) 0.52870(14)
H13 H 0.34112 0.76468 0.55357
C21 C 0.38002(16) 0.8813(3) 0.50564(14)
C22 C 0.42028(18) 0.8807(3) 0.47023(16)
H14 H 0.43136 0.95868 0.45605
C23 C 0.4438(2) 0.7640(4) 0.45611(19)
H15 H 0.46990 0.76369 0.43168
C24 C 0.42879(18) 0.6485(3) 0.47812(16)
H16 H 0.44423 0.57051 0.46792
N1 N 0.60144(18) 0.4751(3) 0.91151(16)
C25 C 0.6344(2) 0.4760(4) 0.9767(2)
H17 H 0.68433 0.46827 0.99845
C26 C 0.5961(2) 0.4882(4) 1.01232(18)
H18 H 0.62030 0.48962 1.05790
C27 C 0.52123(19) 0.4983(3) 0.98099(17)
C28 C 0.4891(2) 0.5025(4) 0.91318(19)
H19 H 0.43937 0.51225 0.89014
C29 C 0.5299(2) 0.4922(4) 0.8797(2)
H20 H 0.50753 0.49728 0.83415
C30 C 0.6449(3) 0.4491(4) 0.8752(2)
H21 H 0.68414 0.39056 0.90076
H22 H 0.61468 0.40632 0.83401
C31 C 0.6751(3) 0.5706(5) 0.8615(2)
H23 H 0.70425 0.61505 0.90239
H24 H 0.63598 0.62804 0.83437
C32 C 0.7212(3) 0.5393(7) 0.8264(3)
H25 H 0.76209 0.48696 0.85508
H26 H 0.69289 0.48811 0.78756
C33 C 0.7475(3) 0.6548(8) 0.8072(3)
H27 H 0.78235 0.70013 0.84557
H28 H 0.70792 0.71349 0.78255
C34 C 0.7845(4) 0.6047(8) 0.7625(4)
H29 H 0.82701 0.55369 0.78900
H30 H 0.75107 0.54942 0.72777
C35 C 0.8050(5) 0.7152(9) 0.7339(5)
H31 H 0.76295 0.74880 0.69749
H32 H 0.83951 0.68740 0.71900
H33 H 0.82589 0.78203 0.76640
N2 N 0.6479(3) 0.8795(4) 0.9080(3)
O16 O 0.5380(3) 0.7925(6) 0.8784(3)
C36 C 0.5806(4) 0.8566(6) 0.8655(3)
H34 H 0.56425 0.89046 0.82338
C37 C 0.6719(4) 0.8314(6) 0.9736(3)
H35 H 0.68504 0.90327 1.00363
H36 H 0.71299 0.77596 0.98455
H37 H 0.63374 0.78287 0.97644
C38 C 0.6967(5) 0.9457(8) 0.8907(5)
H38 H 0.73434 0.88735 0.89397
H39 H 0.71725 1.01794 0.91984
H40 H 0.67155 0.97696 0.84645
N3 N 0.3079(5) 0.8808(9) 0.6477(5)
H41 H 0.34177 0.86870 0.63420
H42 H 0.32273 0.84122 0.68634
C39 C 0.3026(6) 1.0270(9) 0.6582(5)
H43 H 0.25352 1.05496 0.63379
H44 H 0.33282 1.07370 0.64336
H45 H 0.31822 1.04391 0.70400
C40 C 0.2422(6) 0.8168(12) 0.6014(6)
H46 H 0.21490 0.78824 0.62377
H47 H 0.25458 0.74308 0.58244
H48 H 0.21393 0.87679 0.56727
Zn1* Zn 0.48144(2) 1.20564(4) 0.70307(2)
Zn1C Zn -0.01856(2) 0.29436(4) 0.20307(2)
Zn3* Zn 0.34741(2) 1.26145(3) 0.54343(2)
O4* O 0.52028(16) 0.0592(2) 0.67264(15)
O7C O 0.52225(14) 0.2012(3) 0.79920(12)
O12* O 0.37431(14) 0.1120(2) 0.50633(12)
N1B N 0.39856(18) 0.5249(3) 1.08849(16)
C25B C 0.3656(2) 0.5240(4) 1.0233(2)
H17B H 0.31567 0.53173 1.00155
C26B C 0.4039(2) 0.5118(4) 0.98768(18)
H18B H 0.37970 0.51038 0.94210
C27B C 0.47877(19) 0.5017(3) 1.01901(17)
C28B C 0.5109(2) 0.4975(4) 1.08682(19)
H19B H 0.56063 0.48775 1.10986
C29B C 0.4701(2) 0.5078(4) 1.1203(2)
H20B H 0.49247 0.50272 1.16585
C30B C 0.3551(3) 0.5509(4) 1.1248(2)
H21B H 0.31586 0.60944 1.09924
H22B H 0.38532 0.59368 1.16599
C31B C 0.3249(3) 0.4294(5) 1.1385(2)
H23B H 0.29575 0.38495 1.09761
H24B H 0.36402 0.37196 1.16562
C32B C 0.2788(3) 0.4607(7) 1.1736(3)
H25B H 0.23791 0.51304 1.14492
H26B H 0.30711 0.51189 1.21244
C33B C 0.2525(3) 0.3452(8) 1.1928(3)
H27B H 0.21765 0.29987 1.15443
H28B H 0.29208 0.28651 1.21745
C34B C 0.2155(4) 0.3953(8) 1.2375(4)
H29B H 0.17299 0.44631 1.21100
H30B H 0.24893 0.45058 1.27223
C35B C 0.1950(5) 0.2848(9) 1.2661(5)
H31B H 0.23705 0.25120 1.30251
H32B H 0.16049 0.31260 1.28100
H33B H 0.17411 0.21797 1.23360
#END
