
#######################################################################
#
#                 Cambridge Crystallographic Data Centre
#                                CCDC
#
#######################################################################
#
# If this CIF has been generated from an entry in the Cambridge
# Structural Database, then it will include bibliographic, chemical,
# crystal, experimental, refinement or atomic coordinate data resulting
# from the CCDC's data processing and validation procedures.
#
#######################################################################

data_CSD_CIF_UNADIX
_audit_creation_date 2011-05-17
_audit_creation_method CSD-ConQuest-V1
_database_code_CSD UNADIX
_database_code_depnum_ccdc_archive 'CCDC 800181'
_chemical_formula_sum 'C32 H30 N4 O18 Zn3'
_chemical_formula_moiety
;
(C20 H4 O16 Zn3 2-)n,2n(C6 H11 N2 1+),2n(H2 O1)
;
_journal_coden_Cambridge 182
_journal_volume 47
_journal_year 2011
_journal_page_first 3834
_journal_name_full 'Chem.Commun. '
loop_
_publ_author_name
"Wen-Juan Ji"
"Quan-Guo Zhai"
"Shu-Ni Li"
"Yu-Cheng Jiang"
"Man-Cheng Hu"
_chemical_name_systematic
;
catena-(bis(1-ethyl-3-methylimidazolium) 
bis(\m~6~-benzene-1,2,4,5-tetracarboxylato)-tri-zinc dihydrate)
;
_cell_volume  14901.632
_exptl_crystal_colour 'colorless'
_exptl_crystal_density_diffrn 1.702
_exptl_crystal_description 'block'
_diffrn_ambient_temperature 293
#These two values have been output from a single CSD field.
_refine_ls_R_factor_gt 0.0762
_refine_ls_wR_factor_gt 0.0762
_symmetry_cell_setting orthorhombic
_symmetry_space_group_name_H-M 'F d d 2'
_symmetry_Int_Tables_number 43
loop_
_symmetry_equiv_pos_site_id
_symmetry_equiv_pos_as_xyz
1 x,y,z
2 -x,-y,z
3 1/4+x,1/4-y,1/4+z
4 1/4-x,1/4+y,1/4+z
5 x,1/2+y,1/2+z
6 -x,1/2-y,1/2+z
7 1/4+x,3/4-y,3/4+z
8 1/4-x,3/4+y,3/4+z
9 1/2+x,y,1/2+z
10 1/2-x,-y,1/2+z
11 3/4+x,1/4-y,3/4+z
12 3/4-x,1/4+y,3/4+z
13 1/2+x,1/2+y,z
14 1/2-x,1/2-y,z
15 3/4+x,3/4-y,1/4+z
16 3/4-x,3/4+y,1/4+z
_cell_length_a 25.807(5)
_cell_length_b 29.405(6)
_cell_length_c 19.637(4)
_cell_angle_alpha 90
_cell_angle_beta 90
_cell_angle_gamma 90
_cell_formula_units_Z 16
loop_
_atom_type_symbol
_atom_type_radius_bond
C 0.76
H 0.23
N 0.74
O 0.68
Zn 1.22
loop_
_atom_site_label
_atom_site_type_symbol
_atom_site_fract_x
_atom_site_fract_y
_atom_site_fract_z
Zn1 Zn 0.82821(4) 0.45123(3) 0.33573(4)
Zn2 Zn 0.68566(4) 0.43537(3) 0.08614(5)
Zn3 Zn 0.74542(5) 0.50338(5) -0.03295(8)
C1 C 0.8967(6) 0.6518(6) 0.1977(7)
C2 C 0.8178(4) 0.5490(3) 0.3695(5)
C3 C 0.8567(4) 0.6029(4) 0.2891(5)
H1 H 0.85520 0.57950 0.25720
C4 C 0.8384(4) 0.5958(3) 0.3539(4)
C5 C 0.8378(4) 0.6306(3) 0.4015(4)
C6 C 0.8193(4) 0.6242(3) 0.4739(5)
C7 C 0.8691(3) 0.4120(3) 0.1388(4)
C8 C 0.8542(3) 0.4419(3) 0.1989(4)
C9 C 0.9028(4) 0.3559(3) 0.0322(4)
C10 C 0.9085(4) 0.3790(3) 0.1494(4)
H2 H 0.92330 0.37590 0.19240
C11 C 0.8649(3) 0.3886(3) 0.0224(4)
H3 H 0.85120 0.39250 -0.02100
C12 C 0.8466(3) 0.4158(3) 0.0754(4)
C13 C 0.9166(4) 0.3266(3) -0.0275(5)
C14 C 0.8585(4) 0.6723(3) 0.3836(5)
H4 H 0.85810 0.69620 0.41450
C15 C 0.8777(4) 0.6456(4) 0.2709(5)
C16 C 0.8798(5) 0.6784(4) 0.3195(5)
C17 C 0.7987(3) 0.4439(3) 0.0602(5)
C18 C 0.9250(3) 0.3514(3) 0.0965(4)
C19 C 0.9680(4) 0.3191(3) 0.1131(4)
C20 C 0.9135(7) 0.7193(5) 0.3046(6)
C21 C 1.010(2) 0.595(2) 0.322(4)
H5 H 1.00690 0.56680 0.29870
H6 H 1.04640 0.60360 0.32380
H7 H 0.99180 0.61840 0.29690
C22 C 0.950(3) 0.661(3) 0.532(4)
H8 H 0.94330 0.68340 0.56610
H9 H 0.92100 0.65750 0.50280
H10 H 0.98020 0.66940 0.50620
C23 C 0.961(2) 0.6146(19) 0.568(3)
H11 H 0.93150 0.60110 0.59030
H12 H 0.99190 0.61410 0.59640
C24 C 0.947(2) 0.5404(19) 0.444(3)
H13 H 0.92890 0.51640 0.46410
C25 C 0.9630(16) 0.5468(15) 0.376(3)
H14 H 0.95840 0.52910 0.33750
C26 C 0.9924(19) 0.630(2) 0.437(3)
H15 H 1.00200 0.66050 0.43970
C27 C 0.0053(15) 0.9413(15) 0.523(2)
H16 H -0.01110 0.91950 0.55250
H17 H -0.02070 0.95900 0.50030
H18 H 0.02700 0.96100 0.54960
C28 C 0.1254(16) 1.0441(10) 0.356(2)
H19 H 0.12230 1.05030 0.30770
H20 H 0.16130 1.04110 0.36730
H21 H 0.11040 1.06860 0.38110
C29 C 0.0367(8) 0.9174(8) 0.4727(15)
H22 H 0.06380 0.90020 0.49520
H23 H 0.01530 0.89640 0.44700
C30 C 0.0341(10) 0.9427(10) 0.3657(14)
H24 H 0.00860 0.92260 0.35130
C31 C 0.0624(7) 0.9785(10) 0.3265(13)
H25 H 0.05840 0.98600 0.28080
C32 C 0.0901(7) 0.9776(6) 0.4343(9)
H26 H 0.10870 0.98520 0.47320
O1 O 0.7605(3) 0.4352(3) 0.0970(4)
O2 O 0.8014(3) 0.4700(2) 0.0125(4)
O3 O 0.9266(4) 0.2859(3) -0.0178(4)
O4 O 0.9147(3) 0.3470(3) -0.0838(3)
O5 O 0.8416(4) 0.5932(4) 0.5064(4)
O6 O 0.7839(6) 0.6485(4) 0.4955(5)
O7 O 0.7806(4) 0.5455(3) 0.4108(5)
O8 O 0.8391(3) 0.5160(3) 0.3392(5)
O9 O 0.8939(9) 0.6878(6) 0.1731(7)
O10 O 0.8609(2) 0.4249(2) 0.2567(3)
O11 O 1.0073(3) 0.3208(3) 0.0738(4)
O12 O 0.9632(3) 0.2953(3) 0.1637(3)
O13 O 0.9039(6) 0.7534(3) 0.3266(7)
O14 O 0.9541(5) 0.7134(4) 0.2695(6)
O15 O 0.1338(12) 0.9527(8) 0.5871(12)
H27 H 0.16040 0.94300 0.56620
H28 H 0.11250 0.96350 0.55830
O16 O 0.2532(5) 0.9645(5) 0.6957(8)
H29 H 0.27250 0.98000 0.66940
H30 H 0.22460 0.97690 0.70660
O17 O 0.8386(3) 0.4806(3) 0.1863(4)
O18 O 0.9146(9) 0.6204(5) 0.1679(7)
N1 N 0.9717(15) 0.5955(15) 0.480(2)
N2 N 0.9907(16) 0.5920(17) 0.386(2)
N3 N 0.0957(8) 0.9979(7) 0.373(1)
N4 N 0.0572(8) 0.9479(6) 0.432(3)
Zn1K Zn 0.92179(4) 0.70123(3) 0.08573(4)
Zn1F Zn 1.07821(4) 0.29877(3) 0.08573(4)
Zn2F Zn 0.93566(4) 0.31463(3) -0.16386(5)
Zn2I Zn 0.81434(4) 0.56463(3) 0.58614(5)
Zn2B Zn 0.93566(4) 0.81463(3) 0.33614(5)
Zn3I Zn 0.75458(5) 0.49662(5) 0.46705(8)
Zn3O Zn 1.00458(5) 0.25338(5) 0.21705(8)
Zn3B Zn 0.99542(5) 0.74662(5) 0.21705(8)
O4N O 0.6647(3) 0.4030(3) 0.1662(3)
O5I O 0.6584(4) 0.4068(4) 0.0064(4)
O7I O 0.7194(4) 0.4545(3) -0.0892(5)
O9O O 0.8561(9) 0.4378(6) 0.4231(7)
O11N O 0.7573(3) 0.4292(3) 0.3238(4)
O12K O 0.7868(3) 0.5453(3) -0.0863(3)
O13J O 0.6539(6) 0.4966(3) 0.0766(7)
O14J O 0.7041(5) 0.5366(4) 0.0195(6)
#END
