
#######################################################################
#
#                 Cambridge Crystallographic Data Centre
#                                CCDC
#
#######################################################################
#
# If this CIF has been generated from an entry in the Cambridge
# Structural Database, then it will include bibliographic, chemical,
# crystal, experimental, refinement or atomic coordinate data resulting
# from the CCDC's data processing and validation procedures.
#
#######################################################################

data_CSD_CIF_UNAGOH
_audit_creation_date 2016-06-01
_audit_creation_method CSD-ConQuest-V1
_database_code_CSD UNAGOH
_database_code_depnum_ccdc_archive 'CCDC 1455329'
_chemical_formula_sum 'C36 H38 N2 O16 Zn2'
_chemical_formula_moiety
;
(C18 H6 O12 Zn2 2-)n,2(C9 H14 N1 O1 1+),2(H2 O1)
;
_journal_coden_Cambridge 155
_journal_volume 450
_journal_year 2016
_journal_page_first 190
_journal_name_full 'Inorg.Chim.Acta '
loop_
_publ_author_name
"Anas Tahli"
"A.-C.Chamayou"
"Umit Koc"
"R.Bruckner"
"R.F.M.Elshaarawy"
"Christian Heering"
"C.Janiak"
_chemical_name_systematic
;
catena-[bis((R)-1-(4-methoxyphenyl)ethylammonium) 
bis(\m-benzene-1,3,5-tricarboxylato)-di-zinc(ii) dihydrate]
;
_cell_volume   1843.603
_exptl_crystal_colour 'colorless'
_exptl_crystal_density_diffrn 1.595
_exptl_special_details
;
Absolute configuration

;
_exptl_crystal_description 'isometric'
_exptl_crystal_preparation 'methanol'
_diffrn_ambient_temperature 203
#These two values have been output from a single CSD field.
_refine_ls_R_factor_gt 0.0242
_refine_ls_wR_factor_gt 0.0242
loop_
_citation_database_id_CSD
_citation_special_details
UNAGUN "is a stereoisomer of this entry"
_symmetry_cell_setting monoclinic
_symmetry_space_group_name_H-M 'P 21'
_symmetry_Int_Tables_number 4
loop_
_symmetry_equiv_pos_site_id
_symmetry_equiv_pos_as_xyz
1 x,y,z
2 -x,1/2+y,-z
_cell_length_a 9.1657(11)
_cell_length_b 15.5849(19)
_cell_length_c 13.5302(16)
_cell_angle_alpha 90
_cell_angle_beta 107.469(2)
_cell_angle_gamma 90
_cell_formula_units_Z 2
loop_
_atom_type_symbol
_atom_type_radius_bond
C 0.68
H 0.23
N 0.68
O 0.68
Zn 1.22
loop_
_atom_site_label
_atom_site_type_symbol
_atom_site_fract_x
_atom_site_fract_y
_atom_site_fract_z
Zn1 Zn 0.37908(5) 0.55185(2) 0.24814(3)
Zn2 Zn 0.12668(5) 0.745161(19) 0.25215(3)
O1 O 0.0294(3) 0.6402(2) 0.1821(2)
O2 O 0.1900(3) 0.5518(3) 0.1351(2)
C1 C -0.0707(5) 0.5139(3) 0.0924(3)
C2 C -0.0629(5) 0.4530(3) 0.0191(3)
H1 H 0.02590 0.44840 -0.00160
C3 C -0.1866(5) 0.3987(3) -0.0236(3)
C4 C -0.3161(5) 0.4048(3) 0.0096(3)
H2 H -0.39840 0.36700 -0.01770
C5 C -0.3258(5) 0.4659(3) 0.0826(3)
C6 C -0.2016(5) 0.5212(3) 0.1230(4)
H3 H -0.20710 0.56360 0.17120
C7 C 0.0604(4) 0.5739(3) 0.1411(3)
O3 O -0.0625(3) 0.3321(2) -0.1358(3)
C8 C -0.1834(5) 0.3344(3) -0.1051(3)
O4 O -0.2938(4) 0.2869(2) -0.1437(3)
O5 O -0.5701(4) 0.4194(2) 0.0909(3)
C9 C -0.4652(5) 0.4736(3) 0.1184(4)
O6 O -0.4631(3) 0.5366(2) 0.1788(2)
O7 O 0.4774(3) 0.6569(2) 0.3190(2)
O8 O 0.3178(3) 0.7461(3) 0.3655(2)
C10 C 0.5809(5) 0.7803(3) 0.4124(3)
C11 C 0.5716(5) 0.8421(3) 0.4851(3)
H4 H 0.48310 0.84640 0.50630
C12 C 0.6946(5) 0.8973(3) 0.5261(3)
C13 C 0.8246(4) 0.8915(3) 0.4939(3)
H5 H 0.90610 0.92990 0.52050
C14 C 0.8351(5) 0.8295(3) 0.4227(3)
C15 C 0.7124(4) 0.7737(3) 0.3825(3)
H6 H 0.71910 0.73130 0.33470
C16 C 0.4478(4) 0.7242(3) 0.3622(3)
O9 O 0.5694(3) 0.9647(2) 0.6381(2)
C17 C 0.6885(5) 0.9636(4) 0.6065(3)
O10 O 0.7967(3) 1.0135(2) 0.6422(3)
O11 O 1.0766(4) 0.8757(3) 0.4105(3)
C18 C 0.9737(5) 0.8232(3) 0.3850(4)
O12 O 0.9722(3) 0.7586(2) 0.3244(2)
O13 O 0.9403(4) 0.5849(3) 0.3926(3)
H7 H 1.010(6) 0.557(5) 0.385(4)
H8 H 0.961(5) 0.645(3) 0.384(4)
O14 O -0.4474(5) 0.7115(3) 0.1046(4)
H9 H -0.515(6) 0.729(5) 0.115(5)
H10 H -0.435(6) 0.672(4) 0.133(4)
N1 N 0.2528(5) 0.2812(3) -0.0019(3)
H11 H 0.160(5) 0.266(2) -0.043(3)
H12 H 0.323(4) 0.259(3) -0.035(3)
H13 H 0.280(5) 0.336(3) 0.029(3)
C19 C 0.3377(5) 0.1533(3) 0.1111(3)
H14 H 0.43120 0.15440 0.09160
H15 H 0.26380 0.11610 0.06410
H16 H 0.35960 0.13170 0.18130
C20 C 0.2751(4) 0.2404(3) 0.1056(3)
H17 H 0.35350 0.27530 0.15570
C21 C 0.1285(5) 0.2502(4) 0.1351(3)
C22 C 0.0002(6) 0.1990(4) 0.0927(4)
H18 H 0.00210 0.15780 0.04240
C23 C -0.1306(6) 0.2080(4) 0.1236(4)
H19 H -0.21750 0.17430 0.09280
C24 C -0.1325(5) 0.2673(4) 0.2006(4)
C25 C -0.0083(6) 0.3180(4) 0.2410(4)
H20 H -0.01010 0.35930 0.29130
C26 C 0.1212(6) 0.3095(4) 0.2089(4)
H21 H 0.20610 0.34500 0.23820
O15 O -0.2669(4) 0.2698(3) 0.2261(3)
C27 C -0.2700(7) 0.3242(5) 0.3099(5)
H22 H -0.36950 0.32030 0.32120
H23 H -0.25130 0.38300 0.29360
H24 H -0.19150 0.30630 0.37220
N2 N 0.2580(4) 1.0120(3) 0.5088(3)
H25 H 0.358(4) 0.994(2) 0.550(3)
H26 H 0.201(4) 0.962(2) 0.487(3)
H27 H 0.210(4) 1.036(3) 0.554(3)
C28 C 0.1116(4) 1.0899(3) 0.3538(3)
H28 H 0.03850 1.10530 0.38990
H29 H 0.08090 1.03620 0.31720
H30 H 0.11460 1.13460 0.30460
C29 C 0.2713(4) 1.0796(2) 0.4327(3)
H31 H 0.29980 1.13450 0.47040
C30 C 0.3954(5) 1.0562(4) 0.3838(3)
C31 C 0.5277(5) 1.1049(4) 0.4067(4)
H32 H 0.53960 1.15090 0.45340
C32 C 0.6417(5) 1.0879(4) 0.3631(4)
H33 H 0.72990 1.12240 0.37950
C33 C 0.6266(5) 1.0202(4) 0.2952(4)
C34 C 0.4936(5) 0.9700(4) 0.2698(4)
H34 H 0.48130 0.92430 0.22270
C35 C 0.3813(5) 0.9887(3) 0.3150(3)
H35 H 0.29260 0.95470 0.29860
O16 O 0.7478(3) 1.0077(3) 0.2567(3)
C36 C 0.7323(6) 0.9459(4) 0.1771(4)
H36 H 0.82650 0.94300 0.15850
H37 H 0.64880 0.96220 0.11680
H38 H 0.71100 0.89010 0.20160
Zn1* Zn -0.62092(5) 0.55185(2) 0.24814(3)
Zn1A Zn 0.62092(5) 1.05185(2) 0.75186(3)
Zn2* Zn 1.12668(5) 0.745161(19) 0.25215(3)
Zn2A Zn -0.12668(5) 0.245161(19) -0.25215(3)
O3A O 0.0625(3) 0.8321(2) 0.1358(3)
O4A O 0.2938(4) 0.7869(2) 0.1437(3)
O6* O 0.5369(3) 0.5366(2) 0.1788(2)
O9A O 0.4306(3) 0.4647(2) 0.3619(2)
O10A O 0.2033(3) 0.5135(2) 0.3578(3)
O12* O -0.0278(3) 0.7586(2) 0.3244(2)
#END
