
#######################################################################
#
#                 Cambridge Crystallographic Data Centre
#                                CCDC
#
#######################################################################
#
# If this CIF has been generated from an entry in the Cambridge
# Structural Database, then it will include bibliographic, chemical,
# crystal, experimental, refinement or atomic coordinate data resulting
# from the CCDC's data processing and validation procedures.
#
#######################################################################

data_CSD_CIF_UNEQUA
_audit_creation_date 2011-05-02
_audit_creation_method CSD-ConQuest-V1
_database_code_CSD UNEQUA
_database_code_depnum_ccdc_archive 'CCDC 740137'
_chemical_formula_sum 'C40 H40 Cu2 I8 N8 O4 Pb2'
_chemical_formula_moiety
;
(C20 H16 Cu1 I1 N4 1+)2n,n(I6 Pb2 2-),4n(H2 O1)
;
_journal_coden_Cambridge 603
_journal_volume 29
_journal_year 2010
_journal_page_first 926
_journal_name_full 'Jiegou Huaxue(Chin.)(Chin.J.Struct.Chem.) '
loop_
_publ_author_name
"Yan-Ling Wu"
"Hao-Hong Li"
"Zhi-Rong Chen"
"Xiao-Bo Chen"
"Jun-Bo Li"
"Hai-Jun Dong"
_chemical_name_systematic
;
catena-(bis(bis(2,2'-bipyridine)-iodo-copper(ii)) hexakis(\m~2~-iodo)-di-lead 
tetrahydrate)
;
_cell_volume   1607.294
_exptl_crystal_colour 'blue'
_exptl_crystal_description 'block'
_diffrn_ambient_temperature 293
#These two values have been output from a single CSD field.
_refine_ls_R_factor_gt 0.0627
_refine_ls_wR_factor_gt 0.0627
_symmetry_cell_setting triclinic
_symmetry_space_group_name_H-M 'P -1'
_symmetry_Int_Tables_number 2
loop_
_symmetry_equiv_pos_site_id
_symmetry_equiv_pos_as_xyz
1 x,y,z
2 -x,-y,-z
_cell_length_a 7.979(4)
_cell_length_b 14.538(11)
_cell_length_c 15.853(8)
_cell_angle_alpha 110.77(2)
_cell_angle_beta 97.955(18)
_cell_angle_gamma 104.88(2)
_cell_formula_units_Z 1
loop_
_atom_type_symbol
_atom_type_radius_bond
C 0.68
H 0.23
Cu 1.32
I 1.40
N 0.68
O 0.68
Pb 1.46
loop_
_atom_site_label
_atom_site_type_symbol
_atom_site_fract_x
_atom_site_fract_y
_atom_site_fract_z
Pb1 Pb 0.00000 0.00000 0.50000
Pb2 Pb 0.50000 0.00000 0.50000
I1 I 0.20551(12) -0.00009(8) 0.33743(6)
I2 I 0.36806(13) 0.17479(8) 0.63623(6)
I3 I 0.17092(13) -0.17424(8) 0.51139(7)
I4 I 1.04885(18) 0.23281(10) 0.04773(10)
Cu1 Cu 0.7428(2) 0.27087(12) 0.02207(10)
N1 N 0.5015(14) 0.1481(8) -0.0571(7)
N2 N 0.6711(14) 0.2268(9) 0.1183(8)
N3 N 0.7096(14) 0.4153(9) 0.0767(8)
N4 N 0.7921(14) 0.3199(8) -0.0774(6)
C1 C 0.418(2) 0.1146(12) -0.147(1)
H1 H 0.46970 0.14610 -0.18310
C2 C 0.256(2) 0.0340(14) -0.1873(12)
H2 H 0.20420 0.00770 -0.25090
C3 C 0.176(2) -0.0048(13) -0.1343(13)
H3 H 0.06300 -0.05570 -0.16070
C4 C 0.2515(18) 0.0267(12) -0.0438(12)
H4 H 0.19430 -0.00200 -0.00730
C5 C 0.4192(15) 0.1042(10) -0.0059(9)
C6 C 0.5155(18) 0.1493(10) 0.0955(9)
C7 C 0.453(2) 0.1152(12) 0.1589(11)
H5 H 0.34290 0.06350 0.14150
C8 C 0.556(2) 0.1583(16) 0.2473(13)
H6 H 0.51940 0.13360 0.29060
C9 C 0.720(3) 0.2411(15) 0.2743(12)
H7 H 0.78830 0.27430 0.33580
C10 C 0.774(2) 0.2704(11) 0.2074(9)
H8 H 0.88470 0.32160 0.22290
C11 C 0.668(2) 0.4634(12) 0.1593(9)
H9 H 0.64660 0.42680 0.19660
C12 C 0.655(2) 0.5595(13) 0.1893(11)
H10 H 0.62290 0.58780 0.24460
C13 C 0.692(2) 0.6141(12) 0.1364(12)
H11 H 0.69140 0.68240 0.15710
C14 C 0.729(2) 0.5686(11) 0.0517(11)
H12 H 0.75070 0.60510 0.01440
C15 C 0.7347(16) 0.4695(10) 0.0237(9)
C16 C 0.7815(16) 0.4137(11) -0.0629(9)
C17 C 0.8104(18) 0.4545(11) -0.1312(10)
H13 H 0.80490 0.52050 -0.12160
C18 C 0.845(2) 0.3978(14) -0.2083(10)
H14 H 0.86170 0.42410 -0.25330
C19 C 0.8573(19) 0.3017(12) -0.2233(9)
H15 H 0.88200 0.26190 -0.27750
C20 C 0.8316(15) 0.2662(8) -0.1551(7)
H16 H 0.84220 0.20150 -0.16340
O1 O 0.4131(15) 0.3566(8) 0.4029(7)
O2 O 0.9934(15) 0.4866(8) -0.3721(7)
Pb2* Pb -0.50000 0.00000 0.50000
I1A I -0.20551(12) 0.00009(8) 0.66257(6)
I1A* I 0.79449(12) 0.00009(8) 0.66257(6)
I2A I -0.36806(13) -0.17479(8) 0.36377(6)
I2A* I 0.63194(13) -0.17479(8) 0.36377(6)
I3A I -0.17092(13) 0.17424(8) 0.48861(7)
I3A* I 0.82908(13) 0.17424(8) 0.48861(7)
#END
