
#######################################################################
#
#                 Cambridge Crystallographic Data Centre
#                                CCDC
#
#######################################################################
#
# If this CIF has been generated from an entry in the Cambridge
# Structural Database, then it will include bibliographic, chemical,
# crystal, experimental, refinement or atomic coordinate data resulting
# from the CCDC's data processing and validation procedures.
#
#######################################################################

data_CSD_CIF_UNINUC
_audit_creation_date 2016-06-03
_audit_creation_method CSD-ConQuest-V1
_database_code_CSD UNINUC
_database_code_depnum_ccdc_archive 'CCDC 1482074'
_chemical_formula_sum 'C72 H24 Cl3 Cr13.5 N96'
_chemical_formula_moiety
;
(C72 H24 Cl3 Cr12 N96 3-)n,1.5n(Cr1 2+)
;
_journal_coden_Cambridge 179
_journal_volume 55
_journal_year 2016
_journal_page_first 8605
_journal_name_full 'Angew.Chem.,Int.Ed. '
loop_
_publ_author_name
"E.D.Bloch"
"W.L.Queen"
"M.R.Hudson"
"J.A.Mason"
"D.J.Xiao"
"L.J.Murray"
"R.Flacau"
"C.M.Brown"
"J.R.Long"
_chemical_name_systematic
;
catena-[sesqui-chromium(ii) 
octakis(\m-5,5',5''-(benzene-1,3,5-triyl)tris(tetrazolato))-tris(\m-chloro)-do
deca-chromium(ii)]
;
_cell_volume   6596.544
_exptl_special_details
;
powder data
Atomic coordinates were not reported for the charge-balancing chromium 
;
_diffrn_ambient_temperature 10
_diffrn_radiation_probe 'neutron'
#These two values have been output from a single CSD field.
_refine_ls_R_factor_gt 0.0282
_refine_ls_wR_factor_gt 0.0282
_symmetry_cell_setting cubic
_symmetry_space_group_name_H-M 'P m -3 m'
_symmetry_Int_Tables_number 221
loop_
_symmetry_equiv_pos_site_id
_symmetry_equiv_pos_as_xyz
1 x,y,z
2 z,x,y
3 y,z,x
4 -z,x,-y
5 -y,-z,x
6 y,-z,-x
7 -x,y,-z
8 -z,-x,y
9 x,-y,-z
10 y,x,-z
11 -z,y,x
12 x,-z,y
13 -x,-y,z
14 z,-x,-y
15 -y,z,-x
16 -y,-x,-z
17 -z,-y,-x
18 -x,-z,-y
19 z,-y,x
20 x,z,-y
21 -x,z,y
22 y,-x,z
23 z,y,-x
24 -y,x,z
25 -x,-y,-z
26 -z,-x,-y
27 -y,-z,-x
28 z,-x,y
29 y,z,-x
30 -y,z,x
31 x,-y,z
32 z,x,-y
33 -x,y,z
34 -y,-x,z
35 z,-y,-x
36 -x,z,-y
37 x,y,-z
38 -z,x,y
39 y,-z,x
40 y,x,z
41 z,y,x
42 x,z,y
43 -z,y,-x
44 -x,-z,y
45 x,-z,-y
46 -y,x,-z
47 -z,-y,x
48 y,-x,-z
_cell_length_a 18.7545(8)
_cell_length_b 18.7545
_cell_length_c 18.7545
_cell_angle_alpha 90
_cell_angle_beta 90
_cell_angle_gamma 90
_cell_formula_units_Z 2
loop_
_atom_type_symbol
_atom_type_radius_bond
C 0.68
H 0.23
Cl 0.99
Cr 1.39
N 0.68
loop_
_atom_site_label
_atom_site_type_symbol
_atom_site_fract_x
_atom_site_fract_y
_atom_site_fract_z
Cr1 Cr 0.1372(14) 0.50000 0.00000
C1 C 0.1491(5) 0.3351(8) -0.1491(5)
C2 C 0.1828(5) 0.2710(7) -0.1828(5)
C3 C 0.2458(6) 0.2458(6) -0.1484(7)
Cl1 Cl 0.00000 0.50000 0.00000
N1 N 0.13127(30) 0.42290(33) -0.07924(30)
N2 N 0.1758(4) 0.37014(33) -0.0913(4)
H1 H 0.2658(8) 0.2658(8) -0.1086(10)
C1C C 0.1491(5) 0.1491(8) -0.3351(5)
C2C C 0.1828(5) 0.1828(7) -0.2710(5)
C3C C 0.1484(6) 0.2458(6) -0.2458(7)
N1C N 0.07924(30) 0.13127(33) -0.4229(3)
N2C N 0.0913(4) 0.17580(33) -0.37014(40)
H1C H 0.1086(8) 0.2658(8) -0.2658(10)
C1E C 0.3351(5) 0.1491(8) -0.1491(5)
C2E C 0.2710(5) 0.1828(7) -0.1828(5)
C3E C 0.2458(6) 0.1484(6) -0.2458(7)
N1E N 0.4229(3) 0.07924(33) -0.13127(30)
N2E N 0.37014(40) 0.09130(33) -0.1758(4)
H1E H 0.2658(8) 0.1086(8) -0.2658(10)
N1MA N 0.4229(3) 0.13127(33) -0.07924(30)
N2MA N 0.37014(40) 0.17580(33) -0.0913(4)
N1PA N 0.07924(30) 0.42290(33) -0.13127(30)
N2PA N 0.0913(4) 0.37014(33) -0.1758(4)
N1RA N 0.13127(30) 0.07924(33) -0.4229(3)
N2RA N 0.1758(4) 0.09130(33) -0.37014(40)
C1JA C 0.1491(5) 0.3351(8) 0.1491(5)
C2JA C 0.1828(5) 0.2710(7) 0.1828(5)
C3JA C 0.2458(6) 0.2458(6) 0.1484(7)
N1JA N 0.13127(30) 0.42290(33) 0.07924(30)
N2JA N 0.1758(4) 0.37014(33) 0.0913(4)
H1JA H 0.2658(8) 0.2658(8) 0.1086(10)
C1KA C 0.1491(5) 0.1491(8) 0.3351(5)
C2KA C 0.1828(5) 0.1828(7) 0.2710(5)
C3KA C 0.1484(6) 0.2458(6) 0.2458(7)
N1KA N 0.07924(30) 0.13127(33) 0.4229(3)
N2KA N 0.0913(4) 0.17580(33) 0.37014(40)
H1KA H 0.1086(8) 0.2658(8) 0.2658(10)
C1LA C 0.3351(5) 0.1491(8) 0.1491(5)
C2LA C 0.2710(5) 0.1828(7) 0.1828(5)
C3LA C 0.2458(6) 0.1484(6) 0.2458(7)
N1LA N 0.4229(3) 0.07924(33) 0.13127(30)
N2LA N 0.37014(40) 0.09130(33) 0.1758(4)
H1LA H 0.2658(8) 0.1086(8) 0.2658(10)
N1I N 0.4229(3) 0.13127(33) 0.07924(30)
N2I N 0.37014(40) 0.17580(33) 0.0913(4)
N1J N 0.07924(30) 0.42290(33) 0.13127(30)
N2J N 0.0913(4) 0.37014(33) 0.1758(4)
N1K N 0.13127(30) 0.07924(33) 0.4229(3)
N2K N 0.1758(4) 0.09130(33) 0.37014(40)
Cr1A Cr 0.0000(14) 0.13720 0.50000
Cl1A Cl 0.00000 0.00000 0.50000
Cr1B Cr 0.5000(14) 0.00000 0.13720
Cl1B Cl 0.50000 0.00000 0.00000
Cr1A* Cr 0.0000(14) 0.13720 -0.50000
Cr1B* Cr -0.5000(14) 0.00000 0.13720
C1D C -0.3351(5) 0.1491(8) 0.1491(5)
C2D C -0.2710(5) 0.1828(7) 0.1828(5)
C3D C -0.2458(6) 0.1484(6) 0.2458(7)
N1D N -0.4229(3) 0.07924(33) 0.13127(30)
N2D N -0.37014(40) 0.09130(33) 0.1758(4)
H1D H -0.2658(8) 0.1086(8) 0.2658(10)
C1F C -0.1491(5) 0.3351(8) 0.1491(5)
C2F C -0.1828(5) 0.2710(7) 0.1828(5)
C3F C -0.2458(6) 0.2458(6) 0.1484(7)
N1F N -0.13127(30) 0.42290(33) 0.07924(30)
N2F N -0.1758(4) 0.37014(33) 0.0913(4)
H1F H -0.2658(8) 0.2658(8) 0.1086(10)
C1A C -0.1491(5) 0.1491(8) 0.3351(5)
C2A C -0.1828(5) 0.1828(7) 0.2710(5)
C3A C -0.1484(6) 0.2458(6) 0.2458(7)
N1A N -0.07924(30) 0.13127(33) 0.4229(3)
N2A N -0.0913(4) 0.17580(33) 0.37014(40)
H1A H -0.1086(8) 0.2658(8) 0.2658(10)
N1QA N -0.13127(30) 0.07924(33) 0.4229(3)
N2QA N -0.1758(4) 0.09130(33) 0.37014(40)
N1SA N -0.4229(3) 0.13127(33) 0.07924(30)
N2SA N -0.37014(40) 0.17580(33) 0.0913(4)
N1NA N -0.07924(30) 0.42290(33) 0.13127(30)
N2NA N -0.0913(4) 0.37014(33) 0.1758(4)
Cr1E Cr 0.5000(14) 0.00000 -0.13720
Cr1F Cr -0.1372(14) 0.50000 0.00000
Cr1G Cr 0.0000(14) -0.13720 0.50000
C1G C 0.1491(5) -0.1491(8) 0.3351(5)
C2G C 0.1828(5) -0.1828(7) 0.2710(5)
C3G C 0.1484(6) -0.2458(6) 0.2458(7)
N1G N 0.07924(30) -0.13127(33) 0.4229(3)
N2G N 0.0913(4) -0.17580(33) 0.37014(40)
H1G H 0.1086(8) -0.2658(8) 0.2658(10)
C1B C 0.3351(5) -0.1491(8) 0.1491(5)
C2B C 0.2710(5) -0.1828(7) 0.1828(5)
C3B C 0.2458(6) -0.1484(6) 0.2458(7)
N1B N 0.4229(3) -0.07924(33) 0.13127(30)
N2B N 0.37014(40) -0.09130(33) 0.1758(4)
H1B H 0.2658(8) -0.1086(8) 0.2658(10)
C1H C 0.1491(5) -0.3351(8) 0.1491(5)
C2H C 0.1828(5) -0.2710(7) 0.1828(5)
C3H C 0.2458(6) -0.2458(6) 0.1484(7)
N1H N 0.13127(30) -0.42290(33) 0.07924(30)
N2H N 0.1758(4) -0.37014(33) 0.0913(4)
H1H H 0.2658(8) -0.2658(8) 0.1086(10)
N1TA N 0.07924(30) -0.42290(33) 0.13127(30)
N2TA N 0.0913(4) -0.37014(33) 0.1758(4)
N1OA N 0.13127(30) -0.07924(33) 0.4229(3)
N2OA N 0.1758(4) -0.09130(33) 0.37014(40)
N1UA N 0.4229(3) -0.13127(33) 0.07924(30)
N2UA N 0.37014(40) -0.17580(33) 0.0913(4)
Cr1MA Cr 0.5000(14) 0.13720 0.00000
Cr1NA Cr 0.0000(14) 0.50000 0.13720
Cr1PA Cr 0.0000(14) 0.50000 -0.13720
C1Y C 0.1491(5) -0.1491(8) -0.3351(5)
C2Y C 0.1828(5) -0.1828(7) -0.2710(5)
C3Y C 0.1484(6) -0.2458(6) -0.2458(7)
N1Y N 0.07924(30) -0.13127(33) -0.4229(3)
N2Y N 0.0913(4) -0.17580(33) -0.37014(40)
H1Y H 0.1086(8) -0.2658(8) -0.2658(10)
C1BA C 0.3351(5) -0.1491(8) -0.1491(5)
C2BA C 0.2710(5) -0.1828(7) -0.1828(5)
C3BA C 0.2458(6) -0.1484(6) -0.2458(7)
N1BA N 0.4229(3) -0.07924(33) -0.13127(30)
N2BA N 0.37014(40) -0.09130(33) -0.1758(4)
H1BA H 0.2658(8) -0.1086(8) -0.2658(10)
C1DA C 0.1491(5) -0.3351(8) -0.1491(5)
C2DA C 0.1828(5) -0.2710(7) -0.1828(5)
C3DA C 0.2458(6) -0.2458(6) -0.1484(7)
N1DA N 0.13127(30) -0.42290(33) -0.07924(30)
N2DA N 0.1758(4) -0.37014(33) -0.0913(4)
H1DA H 0.2658(8) -0.2658(8) -0.1086(10)
N1P N 0.07924(30) -0.42290(33) -0.13127(30)
N2P N 0.0913(4) -0.37014(33) -0.1758(4)
N1S N 0.13127(30) -0.07924(33) -0.4229(3)
N2S N 0.1758(4) -0.09130(33) -0.37014(40)
N1U N 0.4229(3) -0.13127(33) -0.07924(30)
N2U N 0.37014(40) -0.17580(33) -0.0913(4)
C1Z C -0.3351(5) 0.1491(8) -0.1491(5)
C2Z C -0.2710(5) 0.1828(7) -0.1828(5)
C3Z C -0.2458(6) 0.1484(6) -0.2458(7)
N1Z N -0.4229(3) 0.07924(33) -0.13127(30)
N2Z N -0.37014(40) 0.09130(33) -0.1758(4)
H1Z H -0.2658(8) 0.1086(8) -0.2658(10)
C1FA C -0.1491(5) 0.3351(8) -0.1491(5)
C2FA C -0.1828(5) 0.2710(7) -0.1828(5)
C3FA C -0.2458(6) 0.2458(6) -0.1484(7)
N1FA N -0.13127(30) 0.42290(33) -0.07924(30)
N2FA N -0.1758(4) 0.37014(33) -0.0913(4)
H1FA H -0.2658(8) 0.2658(8) -0.1086(10)
C1EA C -0.1491(5) 0.1491(8) -0.3351(5)
C2EA C -0.1828(5) 0.1828(7) -0.2710(5)
C3EA C -0.1484(6) 0.2458(6) -0.2458(7)
N1EA N -0.07924(30) 0.13127(33) -0.4229(3)
N2EA N -0.0913(4) 0.17580(33) -0.37014(40)
H1EA H -0.1086(8) 0.2658(8) -0.2658(10)
N1Q N -0.13127(30) 0.07924(33) -0.4229(3)
N2Q N -0.1758(4) 0.09130(33) -0.37014(40)
N1W N -0.4229(3) 0.13127(33) -0.07924(30)
N2W N -0.37014(40) 0.17580(33) -0.0913(4)
N1V N -0.07924(30) 0.42290(33) -0.13127(30)
N2V N -0.0913(4) 0.37014(33) -0.1758(4)
C1L C -0.1491(5) -0.3351(8) -0.1491(5)
C2L C -0.1828(5) -0.2710(7) -0.1828(5)
C3L C -0.2458(6) -0.2458(6) -0.1484(7)
N1L N -0.13127(30) -0.42290(33) -0.07924(30)
N2L N -0.1758(4) -0.37014(33) -0.0913(4)
H1L H -0.2658(8) -0.2658(8) -0.1086(10)
C1M C -0.1491(5) -0.1491(8) -0.3351(5)
C2M C -0.1828(5) -0.1828(7) -0.2710(5)
C3M C -0.1484(6) -0.2458(6) -0.2458(7)
N1M N -0.07924(30) -0.13127(33) -0.4229(3)
N2M N -0.0913(4) -0.17580(33) -0.37014(40)
H1M H -0.1086(8) -0.2658(8) -0.2658(10)
C1N C -0.3351(5) -0.1491(8) -0.1491(5)
C2N C -0.2710(5) -0.1828(7) -0.1828(5)
C3N C -0.2458(6) -0.1484(6) -0.2458(7)
N1N N -0.4229(3) -0.07924(33) -0.13127(30)
N2N N -0.37014(40) -0.09130(33) -0.1758(4)
H1N H -0.2658(8) -0.1086(8) -0.2658(10)
N1GA N -0.4229(3) -0.13127(33) -0.07924(30)
N2GA N -0.37014(40) -0.17580(33) -0.0913(4)
N1HA N -0.07924(30) -0.42290(33) -0.13127(30)
N2HA N -0.0913(4) -0.37014(33) -0.1758(4)
N1IA N -0.13127(30) -0.07924(33) -0.4229(3)
N2IA N -0.1758(4) -0.09130(33) -0.37014(40)
Cr1UA Cr -0.5000(14) -0.13720 0.00000
C1X C -0.1491(5) -0.3351(8) 0.1491(5)
C2X C -0.1828(5) -0.2710(7) 0.1828(5)
C3X C -0.2458(6) -0.2458(6) 0.1484(7)
N1X N -0.13127(30) -0.42290(33) 0.07924(30)
N2X N -0.1758(4) -0.37014(33) 0.0913(4)
H1X H -0.2658(8) -0.2658(8) 0.1086(10)
C1AA C -0.1491(5) -0.1491(8) 0.3351(5)
C2AA C -0.1828(5) -0.1828(7) 0.2710(5)
C3AA C -0.1484(6) -0.2458(6) 0.2458(7)
N1AA N -0.07924(30) -0.13127(33) 0.4229(3)
N2AA N -0.0913(4) -0.17580(33) 0.37014(40)
H1AA H -0.1086(8) -0.2658(8) 0.2658(10)
C1CA C -0.3351(5) -0.1491(8) 0.1491(5)
C2CA C -0.2710(5) -0.1828(7) 0.1828(5)
C3CA C -0.2458(6) -0.1484(6) 0.2458(7)
N1CA N -0.4229(3) -0.07924(33) 0.13127(30)
N2CA N -0.37014(40) -0.09130(33) 0.1758(4)
H1CA H -0.2658(8) -0.1086(8) 0.2658(10)
N1O N -0.4229(3) -0.13127(33) 0.07924(30)
N2O N -0.37014(40) -0.17580(33) 0.0913(4)
N1R N -0.07924(30) -0.42290(33) 0.13127(30)
N2R N -0.0913(4) -0.37014(33) 0.1758(4)
N1T N -0.13127(30) -0.07924(33) 0.4229(3)
N2T N -0.1758(4) -0.09130(33) 0.37014(40)
Cr1* Cr 0.1372(14) -0.50000 0.00000
Cr1E* Cr -0.5000(14) 0.00000 -0.13720
Cr1F* Cr -0.1372(14) -0.50000 0.00000
Cr1G* Cr 0.0000(14) -0.13720 -0.50000
Cr1MA* Cr -0.5000(14) 0.13720 0.00000
Cr1NA* Cr 0.0000(14) -0.50000 0.13720
Cr1OA Cr 0.1372(14) 0.00000 -0.50000
Cr1OA* Cr 0.1372(14) 0.00000 0.50000
Cr1PA* Cr 0.0000(14) -0.50000 -0.13720
Cr1QA Cr -0.1372(14) 0.00000 -0.50000
Cr1QA* Cr -0.1372(14) 0.00000 0.50000
Cr1UA* Cr 0.5000(14) -0.13720 0.00000
Cl1A* Cl 0.00000 0.00000 -0.50000
Cl1B* Cl -0.50000 0.00000 0.00000
N1A* N -0.07924(30) 0.13127(33) -0.5771(3)
N1B* N -0.5771(3) -0.07924(33) 0.13127(30)
N1KA* N 0.07924(30) 0.13127(33) -0.5771(3)
N1LA* N -0.5771(3) 0.07924(33) 0.13127(30)
N1C* N 0.07924(30) 0.13127(33) 0.5771(3)
N1D* N 0.5771(3) 0.07924(33) 0.13127(30)
N1H* N 0.13127(30) 0.57710(33) 0.07924(30)
N1SA* N 0.5771(3) 0.13127(33) 0.07924(30)
N1TA* N 0.07924(30) 0.57710(33) 0.13127(30)
N1UA* N -0.5771(3) -0.13127(33) 0.07924(30)
N1X* N -0.13127(30) 0.57710(33) 0.07924(30)
N1Y* N 0.07924(30) -0.13127(33) 0.5771(3)
N1Z* N 0.5771(3) 0.07924(33) -0.13127(30)
N1L* N -0.13127(30) 0.57710(33) -0.07924(30)
N1M* N -0.07924(30) -0.13127(33) 0.5771(3)
N1N* N 0.5771(3) -0.07924(33) -0.13127(30)
N1CA* N 0.5771(3) -0.07924(33) 0.13127(30)
N1DA* N 0.13127(30) 0.57710(33) -0.07924(30)
N1EA* N -0.07924(30) 0.13127(33) 0.5771(3)
N1P* N 0.07924(30) 0.57710(33) -0.13127(30)
N1HA* N -0.07924(30) 0.57710(33) -0.13127(30)
N1R* N -0.07924(30) 0.57710(33) 0.13127(30)
N1U* N -0.5771(3) -0.13127(33) -0.07924(30)
N1W* N 0.5771(3) 0.13127(33) -0.07924(30)
#END
