
#######################################################################
#
#                 Cambridge Crystallographic Data Centre
#                                CCDC
#
#######################################################################
#
# If this CIF has been generated from an entry in the Cambridge
# Structural Database, then it will include bibliographic, chemical,
# crystal, experimental, refinement or atomic coordinate data resulting
# from the CCDC's data processing and validation procedures.
#
#######################################################################

data_CSD_CIF_UNIVET
_audit_creation_date 2011-08-04
_audit_creation_method CSD-ConQuest-V1
_database_code_CSD UNIVET
_database_code_depnum_ccdc_archive 'CCDC 773878'
_chemical_formula_sum 'C44 H32 Ce5 N7 O35 S2'
_chemical_formula_moiety
;
(C42 H24 Ce5 N6 O35 S2 1-)n,n(C2 H8 N1 1+)
;
_journal_coden_Cambridge 1147
_journal_volume 11
_journal_year 2011
_journal_page_first 337
_journal_name_full 'Cryst.Growth Des. '
loop_
_publ_author_name
"Jing Xu"
"Weiping Su"
"Maochun Hong"
_chemical_name_systematic
;
catena-(Dimethylammonium 
tetrakis(\m~3~-pyridine-2,6-dicarboxylato-O,O,O',O'',O''')-bis(\m~3~-pyridine-
2,6-dicarboxylato-O,O',O'',O''')-bis(\m~3~-sulfato)-triaqua-penta-cerium)
;
_cell_volume   2950.363
_exptl_crystal_colour 'yellow'
_exptl_crystal_density_diffrn 2.233
_exptl_crystal_description 'prism'
_diffrn_ambient_temperature 293
#These two values have been output from a single CSD field.
_refine_ls_R_factor_gt 0.0757
_refine_ls_wR_factor_gt 0.0757
_symmetry_cell_setting triclinic
_symmetry_space_group_name_H-M 'P -1'
_symmetry_Int_Tables_number 2
loop_
_symmetry_equiv_pos_site_id
_symmetry_equiv_pos_as_xyz
1 x,y,z
2 -x,-y,-z
_cell_length_a 10.701(7)
_cell_length_b 10.737(7)
_cell_length_c 27.233(17)
_cell_angle_alpha 95.068(8)
_cell_angle_beta 101.078(5)
_cell_angle_gamma 103.937(9)
_cell_formula_units_Z 2
loop_
_atom_type_symbol
_atom_type_radius_bond
C 0.68
H 0.23
Ce 1.65
N 0.68
O 0.68
S 1.02
loop_
_atom_site_label
_atom_site_type_symbol
_atom_site_fract_x
_atom_site_fract_y
_atom_site_fract_z
Ce1 Ce 0.74776(6) 0.86853(6) 0.40414(2)
Ce2 Ce 0.57310(6) 0.89998(6) 0.55647(2)
Ce3 Ce 0.46491(7) 0.70884(7) 0.74963(2)
Ce4 Ce 0.84735(6) 1.01836(6) 0.94274(2)
Ce5 Ce 0.04386(6) 0.66120(6) 0.90666(2)
S1 S 0.7397(3) 1.1604(3) 0.48868(11)
S2 S 0.8271(3) 0.7507(3) 0.98892(11)
O1 O 0.6748(9) 0.6381(8) 0.4336(3)
O2 O 0.6232(8) 0.7953(8) 0.4776(3)
O3 O 0.5727(10) 0.8083(9) 0.6353(3)
O4 O 0.5723(11) 0.6464(10) 0.6809(3)
O5 O 0.6300(8) 1.0806(8) 0.5105(3)
O6 O 0.6696(7) 1.2271(8) 0.4519(3)
O7 O 0.8417(8) 1.2478(9) 0.5289(4)
O8 O 0.7983(8) 1.0702(8) 0.4629(3)
O9 O 1.1778(8) 1.0707(8) 0.4278(3)
O10 O 0.9719(8) 0.9575(10) 0.3942(4)
O11 O 1.5285(8) 0.9477(8) 0.3981(3)
O12 O 1.5194(8) 0.7713(8) 0.3469(3)
O13 O 0.6178(10) 1.1127(10) 0.2881(4)
O14 O 0.7453(10) 1.0324(9) 0.3452(4)
O15 O 0.6391(10) 1.5320(9) 0.2838(4)
O16 O 0.7666(9) 1.6961(8) 0.3429(4)
O17 O 0.2606(8) 0.6428(10) 0.7840(3)
O18 O 0.1575(9) 0.5844(8) 0.8458(3)
O19 O 0.6837(10) 0.6636(11) 0.7873(4)
O20 O 0.8240(9) 0.6024(9) 0.8457(4)
O21 O 0.4723(9) 0.8804(9) 0.8195(3)
O22 O 0.6818(9) 0.9403(10) 0.8629(3)
O23 O 0.8176(8) 1.1448(8) 1.0208(3)
O24 O 0.6973(9) 1.2369(9) 1.0638(3)
O25 O 0.8609(9) 1.2512(8) 0.9260(3)
O26 O 0.9510(9) 1.4280(8) 0.8968(4)
O27 O 0.9622(8) 0.8743(8) 0.8989(3)
O28 O 1.0812(9) 0.8296(8) 0.8444(3)
O29 O 0.9268(8) 0.8804(8) 1.0108(3)
O30 O 0.7268(7) 0.7850(8) 0.9504(3)
O31 O 0.8965(8) 0.6665(8) 0.9647(3)
O32 O 0.7737(9) 0.6920(9) 1.0286(4)
O33 O 0.9121(8) 0.8448(9) 0.4842(3)
H1 H 0.86650 0.85110 0.50620
H2 H 0.90180 0.76460 0.47490
O34 O 0.6736(12) 0.9117(12) 0.7495(5)
H3 H 0.63580 0.95820 0.73130
H4 H 0.68650 0.94460 0.78020
O35 O 0.1426(9) 0.5767(8) 0.9878(3)
H5 H 0.13850 0.63240 1.01120
H6 H 0.16000 0.61630 0.96320
N1 N 0.6153(9) 0.6738(9) 0.5577(4)
N2 N 1.2697(9) 0.9113(9) 0.3736(4)
N3 N 0.7325(11) 1.3567(10) 0.3312(4)
N4 N 0.4842(11) 0.5985(11) 0.8315(4)
N5 N 0.6170(9) 1.0556(10) 0.9415(4)
N6 N 0.9761(10) 1.1104(9) 0.8747(4)
N7 N 0.9102(8) 0.7287(8) 0.7469(3)
H7 H 0.96880 0.76930 0.77550
H8 H 0.82980 0.71080 0.75430
C1 C 0.6465(8) 0.6144(8) 0.5180(3)
C2 C 0.6818(8) 0.4946(8) 0.5196(3)
H9 H 0.70600 0.45580 0.49230
C3 C 0.6788(12) 0.4379(13) 0.5635(5)
H10 H 0.69960 0.35910 0.56590
C4 C 0.6445(12) 0.4997(12) 0.6036(5)
H11 H 0.64110 0.46230 0.63300
C5 C 0.6152(12) 0.6187(14) 0.5996(5)
C6 C 0.6489(11) 0.6854(12) 0.4726(5)
C7 C 0.5818(12) 0.6963(13) 0.6416(4)
C8 C 1.1402(11) 0.8975(13) 0.3631(5)
C9 C 1.0557(13) 0.8045(16) 0.3248(5)
H12 H 0.96520 0.79550 0.31840
C10 C 1.1062(14) 0.7269(17) 0.2968(7)
H13 H 1.05100 0.66650 0.27010
C11 C 1.2454(14) 0.7385(16) 0.3085(6)
H14 H 1.28310 0.68490 0.29070
C12 C 1.3185(10) 0.8311(12) 0.3467(4)
C13 C 1.0922(11) 0.9813(12) 0.3972(5)
C14 C 1.4649(11) 0.8503(12) 0.3645(4)
C15 C 0.7827(12) 1.2622(13) 0.3520(5)
C16 C 0.8946(12) 1.2905(14) 0.3921(5)
H15 H 0.93080 1.22580 0.40440
C17 C 0.9495(13) 1.4234(17) 0.4128(6)
H16 H 1.02180 1.44650 0.44000
C18 C 0.7888(12) 1.4808(11) 0.3504(5)
C19 C 0.8964(13) 1.5196(15) 0.3928(5)
H17 H 0.93060 1.60620 0.40690
C20 C 0.7111(13) 1.1277(13) 0.3269(5)
C21 C 0.7267(12) 1.5783(12) 0.3239(5)
C22 C 0.3765(13) 0.5649(12) 0.8521(5)
C23 C 0.3778(15) 0.5025(13) 0.8955(5)
H18 H 0.30540 0.48560 0.91040
C24 C 0.4928(17) 0.4674(15) 0.9150(6)
H19 H 0.49570 0.42300 0.94290
C25 C 0.6054(15) 0.4974(14) 0.8936(5)
H20 H 0.68060 0.47100 0.90600
C26 C 0.5980(12) 0.5703(12) 0.8519(5)
C27 C 0.2568(13) 0.6039(12) 0.8260(5)
C28 C 0.7132(12) 0.6186(12) 0.8279(5)
C29 C 0.5236(13) 1.0111(11) 0.8987(4)
C30 C 0.3990(14) 1.0365(15) 0.8922(5)
H21 H 0.33470 1.00340 0.86260
C31 C 0.3754(12) 1.1143(13) 0.9321(5)
H22 H 0.29510 1.13530 0.92900
C32 C 0.4758(13) 1.1605(14) 0.9773(5)
H23 H 0.46150 1.21030 1.00430
C33 C 0.5961(11) 1.1290(12) 0.9798(5)
C34 C 0.5584(12) 0.9351(12) 0.8569(5)
C35 C 0.7094(11) 1.1721(11) 1.0254(5)
C36 C 0.9910(12) 1.2324(11) 0.8666(4)
C37 C 1.0584(17) 1.2846(14) 0.8322(5)
H24 H 1.06380 1.36980 0.82670
C38 C 1.1198(18) 1.2073(14) 0.8052(6)
H25 H 1.16900 1.24090 0.78240
C39 C 1.1042(14) 1.0820(14) 0.8136(5)
H26 H 1.14030 1.02730 0.79570
C40 C 1.0344(12) 1.0360(11) 0.8490(4)
C41 C 0.9270(13) 1.3102(12) 0.8986(4)
C42 C 1.0273(13) 0.9031(12) 0.8641(4)
C43 C 0.940(3) 0.600(2) 0.7328(9)
H27 H 0.93440 0.54940 0.76000
H28 H 1.02760 0.61620 0.72660
H29 H 0.87740 0.55340 0.70280
C44 C 0.912(3) 0.831(2) 0.7061(9)
H30 H 0.89260 0.90730 0.72010
H31 H 0.84690 0.79140 0.67580
H32 H 0.99780 0.85360 0.69840
Ce1* Ce 1.74776(6) 0.86853(6) 0.40414(2)
Ce1** Ce 0.74776(6) 1.86853(6) 0.40414(2)
Ce2A Ce 0.42690(6) 1.10002(6) 0.44353(2)
Ce2A* Ce 1.42690(6) 1.10002(6) 0.44353(2)
Ce3A Ce 0.53509(7) 1.29116(7) 0.25037(2)
Ce4A Ce 1.15265(6) 0.98164(6) 1.05726(2)
Ce5* Ce 1.04386(6) 0.66120(6) 0.90666(2)
Ce5A Ce 0.95614(6) 1.33880(6) 1.09334(2)
Ce5** Ce 1.04386(6) 1.66120(6) 0.90666(2)
O5A O 0.3700(8) 0.9194(8) 0.4895(3)
O6A O 0.3304(7) 0.7729(8) 0.5481(3)
O9A O 0.8222(8) 0.9293(8) 0.5722(3)
O11* O 0.5285(8) 0.9477(8) 0.3981(3)
O11A O 0.4715(8) 1.0523(8) 0.6019(3)
O12* O 0.5194(8) 0.7713(8) 0.3469(3)
O13A O 0.3822(10) 0.8873(10) 0.7119(4)
O15A O 0.3609(10) 0.4680(9) 0.7162(4)
O16* O 0.7666(9) 0.6961(8) 0.3429(4)
O20* O -0.1760(9) 0.6024(9) 0.8457(4)
O23A O 0.1824(8) 0.8552(8) 0.9792(3)
O24A O 0.3027(9) 0.7631(9) 0.9362(3)
O26* O -0.0490(9) 0.4280(8) 0.8968(4)
O27* O -0.0378(8) 0.8743(8) 0.8989(3)
O28* O 0.0812(9) 0.8296(8) 0.8444(3)
O29A O 1.0732(8) 1.1196(8) 0.9892(3)
O31* O -0.1035(8) 0.6665(8) 0.9647(3)
N2A N 0.7303(9) 1.0887(9) 0.6264(4)
N3A N 0.2675(11) 0.6433(10) 0.6688(4)
#END
