
#######################################################################
#
#                 Cambridge Crystallographic Data Centre
#                                CCDC
#
#######################################################################
#
# If this CIF has been generated from an entry in the Cambridge
# Structural Database, then it will include bibliographic, chemical,
# crystal, experimental, refinement or atomic coordinate data resulting
# from the CCDC's data processing and validation procedures.
#
#######################################################################

data_CSD_CIF_UNIWAQ
_audit_creation_date 2011-08-04
_audit_creation_method CSD-ConQuest-V1
_database_code_CSD UNIWAQ
_database_code_depnum_ccdc_archive 'CCDC 820647'
_chemical_formula_sum 'C16 H23 N1 O9 U1'
_chemical_formula_moiety
;
(C12 H9 O8 U1 1-)n,n(C4 H12 N1 1+),n(H2 O1)
;
_journal_coden_Cambridge 1147
_journal_volume 11
_journal_year 2011
_journal_page_first 347
_journal_name_full 'Cryst.Growth Des. '
loop_
_publ_author_name
"P.Thuery"
_chemical_name_systematic
;
catena-(Tetramethylammonium (\m~3~-benzene-1,3,5-triacetato)-dioxo-uranium 
monohydrate)
;
_cell_volume   3849.682
_exptl_crystal_colour 'light yellow'
_exptl_crystal_density_diffrn 2.11
_exptl_crystal_description 'irregular'
_diffrn_ambient_temperature 100
#These two values have been output from a single CSD field.
_refine_ls_R_factor_gt 0.0416
_refine_ls_wR_factor_gt 0.0416
_symmetry_cell_setting orthorhombic
_symmetry_space_group_name_H-M 'P b c a'
_symmetry_Int_Tables_number 61
loop_
_symmetry_equiv_pos_site_id
_symmetry_equiv_pos_as_xyz
1 x,y,z
2 1/2-x,-y,1/2+z
3 -x,1/2+y,1/2-z
4 1/2+x,1/2-y,-z
5 -x,-y,-z
6 -1/2+x,y,-1/2-z
7 x,-1/2-y,-1/2+z
8 -1/2-x,-1/2+y,z
_cell_length_a 9.7665(2)
_cell_length_b 19.3844(9)
_cell_length_c 20.3345(9)
_cell_angle_alpha 90
_cell_angle_beta 90
_cell_angle_gamma 90
_cell_formula_units_Z 8
loop_
_atom_type_symbol
_atom_type_radius_bond
C 0.68
H 0.23
N 0.68
O 0.68
U 1.45
loop_
_atom_site_label
_atom_site_type_symbol
_atom_site_fract_x
_atom_site_fract_y
_atom_site_fract_z
U1 U 0.81567(3) 0.385257(15) 0.384098(14)
O1 O 0.6974(8) 0.3164(3) 0.3925(3)
O2 O 0.9365(7) 0.4524(3) 0.3782(3)
O3 O 0.7567(7) 0.4262(3) 0.4960(3)
O4 O 0.9247(8) 0.3519(4) 0.4890(3)
O5 O 0.4950(9) 0.2033(4) 0.6295(3)
O6 O 0.4006(7) 0.1658(3) 0.7189(3)
O7 O 0.3008(6) 0.5754(3) 0.7137(3)
O8 O 0.3761(7) 0.5282(3) 0.6231(3)
O9 O 0.296(2) 0.1322(10) 0.8392(10)
N1 N 0.3346(8) 0.3594(4) 0.5153(4)
C1 C 0.7571(8) 0.3917(4) 0.6392(4)
C2 C 0.7236(8) 0.3266(4) 0.6634(4)
H1 H 0.77620 0.28870 0.65130
C3 C 0.6129(9) 0.3174(5) 0.7055(4)
C4 C 0.5366(9) 0.3742(5) 0.7229(4)
H2 H 0.46180 0.36830 0.75060
C5 C 0.5673(9) 0.4400(5) 0.7004(4)
C6 C 0.6786(10) 0.4480(4) 0.6585(4)
H3 H 0.70100 0.49170 0.64320
C7 C 0.8815(10) 0.3997(6) 0.5954(4)
H4 H 0.94880 0.36520 0.60760
H5 H 0.92190 0.44470 0.60320
C8 C 0.8509(9) 0.3927(5) 0.5224(4)
C9 C 0.5808(12) 0.2468(5) 0.7336(5)
H6 H 0.66620 0.22210 0.74010
H7 H 0.53880 0.25280 0.77650
C10 C 0.4879(11) 0.2033(5) 0.6920(4)
C11 C 0.4930(12) 0.5026(6) 0.7267(5)
H8 H 0.45120 0.48970 0.76820
H9 H 0.56120 0.53750 0.73640
C12 C 0.3839(10) 0.5357(5) 0.6849(4)
C13 C 0.278(3) 0.3025(11) 0.4767(12)
H10 H 0.32120 0.30130 0.43430
H11 H 0.18120 0.30910 0.47120
H12 H 0.29420 0.25970 0.49910
C14 C 0.4775(18) 0.3443(11) 0.5302(10)
H13 H 0.53040 0.38590 0.52710
H14 H 0.51190 0.31100 0.49930
H15 H 0.48440 0.32600 0.57390
C15 C 0.2670(18) 0.3569(9) 0.5820(9)
H16 H 0.31000 0.38980 0.61070
H17 H 0.27650 0.31150 0.60020
H18 H 0.17160 0.36790 0.57760
C16 C 0.308(2) 0.4248(9) 0.4902(9)
H19 H 0.28030 0.45480 0.52530
H20 H 0.23670 0.42200 0.45800
H21 H 0.38980 0.44270 0.47010
U1C U 0.31567(3) 0.114743(15) 0.615902(14)
U1D U 0.18433(3) 0.614743(15) 0.615902(14)
O5C O 0.9950(9) 0.2967(4) 0.3705(3)
O6C O 0.9006(7) 0.3342(3) 0.2811(3)
O7D O 0.6992(6) 0.4246(3) 0.2863(3)
O8D O 0.6239(7) 0.4718(3) 0.3769(3)
#END
