
#######################################################################
#
#                 Cambridge Crystallographic Data Centre
#                                CCDC
#
#######################################################################
#
# If this CIF has been generated from an entry in the Cambridge
# Structural Database, then it will include bibliographic, chemical,
# crystal, experimental, refinement or atomic coordinate data resulting
# from the CCDC's data processing and validation procedures.
#
#######################################################################

data_CSD_CIF_UNIWIY
_audit_creation_date 2011-08-04
_audit_creation_method CSD-ConQuest-V1
_database_code_CSD UNIWIY
_database_code_depnum_ccdc_archive 'CCDC 820649'
_chemical_formula_sum 'C36 H41 N2 O23.5 U2'
_chemical_formula_moiety
;
(C30 H24 O22 U2 2-)n,n(C6 H14 N2 2+),1.5n(H2 O1)
;
_journal_coden_Cambridge 1147
_journal_volume 11
_journal_year 2011
_journal_page_first 347
_journal_name_full 'Cryst.Growth Des. '
loop_
_publ_author_name
"P.Thuery"
_chemical_name_systematic
;
catena-(1,4-Diazoniabicyclo(2.2.2)octane 
tris(\m~2~-1,2-phenylenedioxydiacetato)-tetraoxo-di-uranium sesquihydrate)
;
_cell_volume   2094.107
_exptl_crystal_colour 'light yellow'
_exptl_crystal_density_diffrn 2.147
_exptl_crystal_description 'parallelepiped'
_diffrn_ambient_temperature 150
#These two values have been output from a single CSD field.
_refine_ls_R_factor_gt 0.025
_refine_ls_wR_factor_gt 0.025
_symmetry_cell_setting triclinic
_symmetry_space_group_name_H-M 'P -1'
_symmetry_Int_Tables_number 2
loop_
_symmetry_equiv_pos_site_id
_symmetry_equiv_pos_as_xyz
1 x,y,z
2 -x,-y,-z
_cell_length_a 11.1060(4)
_cell_length_b 13.2861(5)
_cell_length_c 15.3098(5)
_cell_angle_alpha 77.361(2)
_cell_angle_beta 84.741(3)
_cell_angle_gamma 71.863(2)
_cell_formula_units_Z 2
loop_
_atom_type_symbol
_atom_type_radius_bond
C 0.68
H 0.23
N 0.68
O 0.68
U 1.47
loop_
_atom_site_label
_atom_site_type_symbol
_atom_site_fract_x
_atom_site_fract_y
_atom_site_fract_z
U1 U 0.524983(13) 0.209915(11) 0.541528(10)
U2 U -0.249844(13) 0.545388(12) 0.112092(10)
O1 O 0.4843(3) 0.2585(2) 0.6424(2)
O2 O 0.5609(3) 0.1598(2) 0.4409(2)
O3 O -0.2925(3) 0.6274(2) 0.1927(2)
O4 O -0.2077(3) 0.4644(2) 0.0302(2)
O5 O 0.3471(3) 0.3567(2) 0.4531(2)
O6 O 0.5268(3) 0.3890(2) 0.4635(2)
O7 O 0.2816(3) 0.5428(2) 0.3114(2)
O8 O -0.1227(3) 0.6656(2) 0.03662(19)
O9 O -0.0212(3) 0.5244(2) 0.13483(19)
O10 O 0.1354(3) 0.6321(2) 0.17647(19)
O11 O 0.7289(3) 0.2437(2) 0.5310(2)
O12 O 0.7285(3) 0.0795(2) 0.5983(2)
O13 O 0.9891(3) 0.0094(2) 0.6076(2)
O14 O 1.1408(3) -0.3805(2) 0.7804(2)
O15 O 1.3457(3) -0.4191(2) 0.7918(2)
O16 O 1.1277(3) -0.1769(2) 0.6752(2)
O17 O 0.5033(3) 0.0333(2) 0.63089(19)
O18 O 0.3365(3) 0.1481(2) 0.55960(19)
O19 O 0.3600(3) -0.0706(2) 0.74757(18)
O20 O 0.5287(3) -0.4228(2) 1.0831(2)
O21 O 0.6183(3) -0.3103(2) 0.9948(2)
O22 O 0.4007(3) -0.2202(2) 0.88942(19)
O23 O 0.3436(4) 0.7521(3) 0.1971(2)
H1 H 0.34620 0.67620 0.20390
H2 H 0.42060 0.74490 0.22190
O24 O 0.7314(6) 0.4788(5) 0.3936(4)
H3 H 0.66140 0.46060 0.41620
H4 H 0.69920 0.53670 0.34670
N1 N 0.1572(3) 0.3346(3) 0.2215(2)
H5 H 0.09470 0.39220 0.19900
N2 N 0.3282(3) 0.1694(3) 0.2901(2)
H6 H 0.39650 0.11660 0.31430
C1 C 0.4162(4) 0.4194(3) 0.4334(3)
C2 C 0.3748(4) 0.5300(3) 0.3736(3)
H7 H 0.34170 0.58340 0.41090
H8 H 0.44850 0.54470 0.34090
C3 C -0.0328(4) 0.6188(3) 0.0890(3)
C4 C 0.0567(4) 0.6810(3) 0.1017(3)
H9 H 0.10980 0.68810 0.04820
H10 H 0.00670 0.75330 0.10850
C5 C 0.1560(4) 0.5888(3) 0.3329(3)
C6 C 0.0755(4) 0.6361(3) 0.2597(3)
C7 C -0.0521(4) 0.6799(4) 0.2745(3)
H11 H -0.10560 0.71150 0.22620
C8 C -0.1017(5) 0.6772(4) 0.3614(3)
H12 H -0.18840 0.70610 0.37110
C9 C -0.0231(5) 0.6321(4) 0.4330(3)
H13 H -0.05650 0.63190 0.49100
C10 C 0.1063(5) 0.5867(4) 0.4190(3)
H14 H 0.15920 0.55500 0.46770
C11 C 0.7881(4) 0.1473(4) 0.5661(3)
C12 C 0.9293(4) 0.1177(3) 0.5628(3)
H15 H 0.95840 0.12670 0.50070
H16 H 0.95500 0.16690 0.59010
C13 C 1.2424(4) -0.3563(4) 0.7589(3)
C14 C 1.2473(4) -0.2547(3) 0.6957(3)
H17 H 1.29900 -0.22210 0.72130
H18 H 1.28900 -0.27320 0.64030
C15 C 0.9932(4) -0.0113(4) 0.6992(3)
C16 C 1.0743(4) -0.1109(3) 0.7362(3)
C17 C 1.0947(4) -0.1397(4) 0.8270(3)
H19 H 1.15170 -0.20590 0.85120
C18 C 1.0295(5) -0.0689(4) 0.8824(3)
H20 H 1.04250 -0.08760 0.94370
C19 C 0.9452(5) 0.0292(5) 0.8454(4)
H21 H 0.90000 0.07570 0.88260
C20 C 0.9268(4) 0.0595(4) 0.7538(3)
H22 H 0.87100 0.12620 0.72940
C21 C 0.3850(4) 0.0654(3) 0.6178(3)
C22 C 0.2966(4) 0.0085(3) 0.6741(3)
H23 H 0.22620 0.06150 0.69670
H24 H 0.26260 -0.02620 0.63700
C23 C 0.5233(4) -0.3467(3) 1.0168(3)
C24 C 0.4041(4) -0.3054(3) 0.9646(3)
H25 H 0.39150 -0.36530 0.94390
H26 H 0.33350 -0.28060 1.00470
C25 C 0.3548(4) -0.0356(3) 0.8271(3)
C26 C 0.3739(4) -0.1163(3) 0.9052(3)
C27 C 0.3657(4) -0.0903(4) 0.9873(3)
H27 H 0.37710 -0.14410 1.03880
C28 C 0.3402(5) 0.0174(4) 0.9933(3)
H28 H 0.33320 0.03550 1.04930
C29 C 0.3252(5) 0.0975(4) 0.9172(4)
H29 H 0.30990 0.16900 0.92190
C30 C 0.3328(4) 0.0714(3) 0.8343(3)
H30 H 0.32330 0.12540 0.78290
C31 C 0.1305(4) 0.3056(4) 0.3207(3)
H31 H 0.04280 0.30660 0.33160
H32 H 0.14560 0.35750 0.35080
C32 C 0.2183(5) 0.1929(4) 0.3561(3)
H33 H 0.24890 0.18950 0.41430
H34 H 0.17310 0.13980 0.36240
C33 C 0.2835(4) 0.3555(4) 0.2063(3)
H35 H 0.27750 0.42440 0.22100
H36 H 0.31030 0.35810 0.14400
C34 C 0.3780(4) 0.2653(4) 0.2653(3)
H37 H 0.45910 0.24600 0.23380
H38 H 0.39000 0.28840 0.31890
C35 C 0.1613(4) 0.2426(4) 0.1778(3)
H39 H 0.16200 0.26590 0.11310
H40 H 0.08730 0.21830 0.19600
C36 C 0.2827(5) 0.1504(4) 0.2072(3)
H41 H 0.26520 0.08140 0.21990
H42 H 0.34720 0.14920 0.15990
U2A U 1.249844(13) -0.545388(12) 0.887908(10)
U2* U 0.750156(13) -0.454612(12) 1.112092(10)
O14A O -0.1408(3) 0.3805(2) 0.2196(2)
O15A O -0.3457(3) 0.4191(2) 0.2082(2)
O20* O -0.4713(3) 0.5772(2) 0.0831(2)
O21* O -0.3817(3) 0.6897(2) -0.0052(2)
#END
