
#######################################################################
#
#                 Cambridge Crystallographic Data Centre
#                                CCDC
#
#######################################################################
#
# If this CIF has been generated from an entry in the Cambridge
# Structural Database, then it will include bibliographic, chemical,
# crystal, experimental, refinement or atomic coordinate data resulting
# from the CCDC's data processing and validation procedures.
#
#######################################################################

data_CSD_CIF_UNIXAR
_audit_creation_date 2011-08-04
_audit_creation_method CSD-ConQuest-V1
_database_code_CSD UNIXAR
_database_code_depnum_ccdc_archive 'CCDC 820652'
_chemical_formula_sum 'C28 H42 N4 Na2 O22 U2'
_chemical_formula_moiety
;
(C28 H38 N4 O20 U2 2-)n,2n(Na1 1+),2n(H2 O1)
;
_journal_coden_Cambridge 1147
_journal_volume 11
_journal_year 2011
_journal_page_first 347
_journal_name_full 'Cryst.Growth Des. '
loop_
_publ_author_name
"P.Thuery"
_chemical_name_systematic
;
catena-(Di-sodium 
(\m~4~-trans-1-amino-2-ammoniocyclohexane-N,N,N',N'-tetra-acetato)-tetraoxo-di
-uranium dihydrate)
;
_cell_volume   4138.105
_exptl_crystal_colour 'light yellow'
_exptl_crystal_density_diffrn 2.101
_exptl_special_details
;
Absolute configuration

;
_exptl_crystal_description 'platelet'
_diffrn_ambient_temperature 150
_refine_special_details
;
one of the water molecules is disordered by symmetry.

;
#These two values have been output from a single CSD field.
_refine_ls_R_factor_gt 0.037
_refine_ls_wR_factor_gt 0.037
_symmetry_cell_setting orthorhombic
_symmetry_space_group_name_H-M 'I 2 2 2'
_symmetry_Int_Tables_number 23
loop_
_symmetry_equiv_pos_site_id
_symmetry_equiv_pos_as_xyz
1 x,y,z
2 -x,-y,z
3 -x,y,-z
4 x,-y,-z
5 1/2+x,1/2+y,1/2+z
6 1/2-x,1/2-y,1/2+z
7 1/2-x,1/2+y,1/2-z
8 1/2+x,1/2-y,1/2-z
_cell_length_a 12.0020(9)
_cell_length_b 12.6829(5)
_cell_length_c 27.185(2)
_cell_angle_alpha 90
_cell_angle_beta 90
_cell_angle_gamma 90
_cell_formula_units_Z 4
loop_
_atom_type_symbol
_atom_type_radius_bond
C 0.68
H 0.23
N 0.68
Na 0.93
O 0.68
U 1.45
loop_
_atom_site_label
_atom_site_type_symbol
_atom_site_fract_x
_atom_site_fract_y
_atom_site_fract_z
U1 U 0.77659(2) 0.25191(2) 0.590334(9)
Na1 Na 1.00000 1.00000 0.5607(3)
Na2 Na 0.6660(9) 0.00000 0.50000
Na3 Na 0.50000 0.2304(10) 0.50000
O1 O 0.7115(5) 0.2200(5) 0.5351(3)
O2 O 0.8435(6) 0.2864(5) 0.6459(3)
O3 O 0.6622(5) 0.4117(4) 0.5976(2)
O4 O 0.8246(5) 0.4282(4) 0.5597(2)
O5 O 1.0576(5) 0.7761(4) 0.5525(2)
O6 O 0.9002(7) 0.8514(5) 0.5773(3)
O7 O 0.8054(6) 1.0733(4) 0.6171(3)
O8 O 0.6668(6) 0.9831(5) 0.5836(2)
O9 O 0.3858(5) 0.7938(5) 0.6336(2)
O10 O 0.5274(5) 0.7630(5) 0.5817(2)
O11 O 0.8667(9) 1.00000 0.50000
O12? O 0.50000 0.039(3) 0.50000
O13 O 0.50000 0.4019(11) 0.50000
N1 N 0.7955(6) 0.6614(5) 0.5921(2)
N2 N 0.6856(6) 0.8204(5) 0.6464(3)
H1 H 0.67100 0.82170 0.61210
C1 C 0.8144(10) 0.6658(8) 0.6459(4)
H2 H 0.87940 0.71180 0.64970
C2 C 0.7229(10) 0.7220(7) 0.6730(4)
H3 H 0.65890 0.67420 0.67130
C3 C 0.7453(7) 0.7354(6) 0.7279(3)
H4 H 0.80410 0.78690 0.73260
H5 H 0.67870 0.76150 0.74390
C4 C 0.7788(11) 0.6338(8) 0.7505(4)
H6 H 0.80310 0.64750 0.78390
H7 H 0.71350 0.58880 0.75240
C5 C 0.8671(12) 0.5759(9) 0.7250(4)
H8 H 0.87400 0.50650 0.73970
H9 H 0.93710 0.61250 0.73000
C6 C 0.8478(8) 0.5634(7) 0.6715(3)
H10 H 0.78960 0.51150 0.66640
H11 H 0.91540 0.53670 0.65640
C7 C 0.7132(8) 0.5883(6) 0.5722(4)
H12 H 0.70390 0.60400 0.53750
H13 H 0.64250 0.60250 0.58810
C8 C 0.7369(8) 0.4713(7) 0.5770(3)
C9 C 0.9023(8) 0.6651(7) 0.5659(4)
H14 H 0.95280 0.61470 0.58080
H15 H 0.89020 0.64330 0.53210
C10 C 0.9557(7) 0.7690(7) 0.5658(3)
C11 C 0.7545(6) 0.9151(7) 0.6554(3)
H16 H 0.83240 0.89510 0.65670
H17 H 0.73450 0.94560 0.68690
C12 C 0.7376(7) 0.9979(6) 0.6146(3)
C13 C 0.5666(8) 0.8417(9) 0.6576(4)
H18 H 0.55460 0.91740 0.65800
H19 H 0.54960 0.81480 0.69010
C14 C 0.4884(7) 0.7928(6) 0.6212(3)
U1A U 1.22341(2) 0.74809(2) 0.590334(9)
U1* U 0.77659(2) 1.25191(2) 0.590334(9)
U1A* U 0.22341(2) 0.74809(2) 0.590334(9)
U1A** U 1.22341(2) -0.25191(2) 0.590334(9)
U1** U 1.77659(2) 0.25191(2) 0.590334(9)
O1A O 1.2885(5) 0.7800(5) 0.5351(3)
O2A O 1.1565(6) 0.7136(5) 0.6459(3)
O3A O 1.3378(5) 0.5883(4) 0.5976(2)
O4A O 1.1754(5) 0.5718(4) 0.5597(2)
O5A O 0.9424(5) 0.2239(4) 0.5525(2)
O6A O 1.0998(7) 0.1486(5) 0.5773(3)
O7A O 1.1946(6) -0.0733(4) 0.6171(3)
O7* O 0.8054(6) 0.0733(4) 0.6171(3)
O7A* O 1.1946(6) 0.9267(4) 0.6171(3)
O8A O 1.3332(6) 0.0169(5) 0.5836(2)
O9A O 1.6142(5) 0.2062(5) 0.6336(2)
O9A* O 0.6142(5) 0.2062(5) 0.6336(2)
O9* O 1.3858(5) 0.7938(5) 0.6336(2)
O10A O 1.4726(5) 0.2370(5) 0.5817(2)
N1A N 1.2045(6) 0.3386(5) 0.5921(2)
N2A N 1.3144(6) 0.1796(5) 0.6464(3)
H1A H 1.32900 0.17830 0.61210
C1A C 1.1856(10) 0.3342(8) 0.6459(4)
H2A H 1.12060 0.28820 0.64970
C2A C 1.2771(10) 0.2780(7) 0.6730(4)
H3A H 1.34110 0.32580 0.67130
C3A C 1.2547(7) 0.2646(6) 0.7279(3)
H4A H 1.19590 0.21310 0.73260
H5A H 1.32130 0.23850 0.74390
C4A C 1.2212(11) 0.3662(8) 0.7505(4)
H6A H 1.19690 0.35250 0.78390
H7A H 1.28650 0.41120 0.75240
C5A C 1.1329(12) 0.4241(9) 0.7250(4)
H8A H 1.12600 0.49350 0.73970
H9A H 1.06290 0.38750 0.73000
C6A C 1.1522(8) 0.4366(7) 0.6715(3)
H10A H 1.21040 0.48850 0.66640
H11A H 1.08460 0.46330 0.65640
C7A C 1.2868(8) 0.4117(6) 0.5722(4)
H12A H 1.29610 0.39600 0.53750
H13A H 1.35750 0.39750 0.58810
C8A C 1.2631(8) 0.5287(7) 0.5770(3)
C9A C 1.0977(8) 0.3349(7) 0.5659(4)
H14A H 1.04720 0.38530 0.58080
H15A H 1.10980 0.35670 0.53210
C10A C 1.0443(7) 0.2310(7) 0.5658(3)
C11A C 1.2455(6) 0.0849(7) 0.6554(3)
H16A H 1.16760 0.10490 0.65670
H17A H 1.26550 0.05440 0.68690
C12A C 1.2624(7) 0.0021(6) 0.6146(3)
C13A C 1.4334(8) 0.1583(9) 0.6576(4)
H18A H 1.44540 0.08260 0.65800
H19A H 1.45040 0.18520 0.69010
C14A C 1.5116(7) 0.2072(6) 0.6212(3)
#END
