
#######################################################################
#
#                 Cambridge Crystallographic Data Centre
#                                CCDC
#
#######################################################################
#
# If this CIF has been generated from an entry in the Cambridge
# Structural Database, then it will include bibliographic, chemical,
# crystal, experimental, refinement or atomic coordinate data resulting
# from the CCDC's data processing and validation procedures.
#
#######################################################################

data_CSD_CIF_UNUNEY
_audit_creation_date 2016-06-07
_audit_creation_method CSD-ConQuest-V1
_database_code_CSD UNUNEY
_database_code_depnum_ccdc_archive 'CCDC 1483815'
_chemical_formula_sum 'C140 H98 N4 O32 U4'
_chemical_formula_moiety
;
4(C2 H8 N1 1+),n(C132 H66 O32 U4 4-)
;
_journal_coden_Cambridge 1078
_journal_year 2016
_journal_name_full 'CSD Communication(Private Communication) '
loop_
_publ_author_name
"Peng Li"
"Xirui Gong"
"N.A.Vermeulen"
"C.D.Malliaks"
"F.Stoddart"
"J.T.Hupp"
"O.K.Farha"
_chemical_name_systematic
;
catena-[tetrakis(dimethylammonium) 
tris(\m-1,3,6,8-tetrakis(4-carboxylatophenyl)pyrene)-octa-oxo-tetrakis-uranium
(vi) unknown solvate]
;
_chemical_name_common
;
NU-1300
;
_cell_volume 166897.358
_exptl_crystal_colour 'yellowish'
_exptl_crystal_description 'irregular'
_diffrn_ambient_temperature 200
_refine_special_details
;
The MASK/OLEX2 program has been used to model disordered cation and solvent 
molecules.
;
#These two values have been output from a single CSD field.
_refine_ls_R_factor_gt 0.0467
_refine_ls_wR_factor_gt 0.0467
_symmetry_cell_setting cubic
_symmetry_space_group_name_H-M 'F m -3 m'
_symmetry_Int_Tables_number 225
loop_
_symmetry_equiv_pos_site_id
_symmetry_equiv_pos_as_xyz
1 x,y,z
2 -x,-y,z
3 -x,y,-z
4 x,-y,-z
5 z,x,y
6 z,-x,-y
7 -z,-x,y
8 -z,x,-y
9 y,z,x
10 -y,z,-x
11 y,-z,-x
12 -y,-z,x
13 y,x,-z
14 -y,-x,-z
15 y,-x,z
16 -y,x,z
17 x,z,-y
18 -x,z,y
19 -x,-z,-y
20 x,-z,y
21 z,y,-x
22 z,-y,x
23 -z,y,x
24 -z,-y,-x
25 x,1/2+y,1/2+z
26 -x,1/2-y,1/2+z
27 -x,1/2+y,1/2-z
28 x,1/2-y,1/2-z
29 z,1/2+x,1/2+y
30 z,1/2-x,1/2-y
31 -z,1/2-x,1/2+y
32 -z,1/2+x,1/2-y
33 y,1/2+z,1/2+x
34 -y,1/2+z,1/2-x
35 y,1/2-z,1/2-x
36 -y,1/2-z,1/2+x
37 y,1/2+x,1/2-z
38 -y,1/2-x,1/2-z
39 y,1/2-x,1/2+z
40 -y,1/2+x,1/2+z
41 x,1/2+z,1/2-y
42 -x,1/2+z,1/2+y
43 -x,1/2-z,1/2-y
44 x,1/2-z,1/2+y
45 z,1/2+y,1/2-x
46 z,1/2-y,1/2+x
47 -z,1/2+y,1/2+x
48 -z,1/2-y,1/2-x
49 1/2+x,y,1/2+z
50 1/2-x,-y,1/2+z
51 1/2-x,y,1/2-z
52 1/2+x,-y,1/2-z
53 1/2+z,x,1/2+y
54 1/2+z,-x,1/2-y
55 1/2-z,-x,1/2+y
56 1/2-z,x,1/2-y
57 1/2+y,z,1/2+x
58 1/2-y,z,1/2-x
59 1/2+y,-z,1/2-x
60 1/2-y,-z,1/2+x
61 1/2+y,x,1/2-z
62 1/2-y,-x,1/2-z
63 1/2+y,-x,1/2+z
64 1/2-y,x,1/2+z
65 1/2+x,z,1/2-y
66 1/2-x,z,1/2+y
67 1/2-x,-z,1/2-y
68 1/2+x,-z,1/2+y
69 1/2+z,y,1/2-x
70 1/2+z,-y,1/2+x
71 1/2-z,y,1/2+x
72 1/2-z,-y,1/2-x
73 1/2+x,1/2+y,z
74 1/2-x,1/2-y,z
75 1/2-x,1/2+y,-z
76 1/2+x,1/2-y,-z
77 1/2+z,1/2+x,y
78 1/2+z,1/2-x,-y
79 1/2-z,1/2-x,y
80 1/2-z,1/2+x,-y
81 1/2+y,1/2+z,x
82 1/2-y,1/2+z,-x
83 1/2+y,1/2-z,-x
84 1/2-y,1/2-z,x
85 1/2+y,1/2+x,-z
86 1/2-y,1/2-x,-z
87 1/2+y,1/2-x,z
88 1/2-y,1/2+x,z
89 1/2+x,1/2+z,-y
90 1/2-x,1/2+z,y
91 1/2-x,1/2-z,-y
92 1/2+x,1/2-z,y
93 1/2+z,1/2+y,-x
94 1/2+z,1/2-y,x
95 1/2-z,1/2+y,x
96 1/2-z,1/2-y,-x
97 -x,-y,-z
98 x,y,-z
99 x,-y,z
100 -x,y,z
101 -z,-x,-y
102 -z,x,y
103 z,x,-y
104 z,-x,y
105 -y,-z,-x
106 y,-z,x
107 -y,z,x
108 y,z,-x
109 -y,-x,z
110 y,x,z
111 -y,x,-z
112 y,-x,-z
113 -x,-z,y
114 x,-z,-y
115 x,z,y
116 -x,z,-y
117 -z,-y,x
118 -z,y,-x
119 z,-y,-x
120 z,y,x
121 -x,-1/2-y,-1/2-z
122 x,-1/2+y,-1/2-z
123 x,-1/2-y,-1/2+z
124 -x,-1/2+y,-1/2+z
125 -z,-1/2-x,-1/2-y
126 -z,-1/2+x,-1/2+y
127 z,-1/2+x,-1/2-y
128 z,-1/2-x,-1/2+y
129 -y,-1/2-z,-1/2-x
130 y,-1/2-z,-1/2+x
131 -y,-1/2+z,-1/2+x
132 y,-1/2+z,-1/2-x
133 -y,-1/2-x,-1/2+z
134 y,-1/2+x,-1/2+z
135 -y,-1/2+x,-1/2-z
136 y,-1/2-x,-1/2-z
137 -x,-1/2-z,-1/2+y
138 x,-1/2-z,-1/2-y
139 x,-1/2+z,-1/2+y
140 -x,-1/2+z,-1/2-y
141 -z,-1/2-y,-1/2+x
142 -z,-1/2+y,-1/2-x
143 z,-1/2-y,-1/2-x
144 z,-1/2+y,-1/2+x
145 -1/2-x,-y,-1/2-z
146 -1/2+x,y,-1/2-z
147 -1/2+x,-y,-1/2+z
148 -1/2-x,y,-1/2+z
149 -1/2-z,-x,-1/2-y
150 -1/2-z,x,-1/2+y
151 -1/2+z,x,-1/2-y
152 -1/2+z,-x,-1/2+y
153 -1/2-y,-z,-1/2-x
154 -1/2+y,-z,-1/2+x
155 -1/2-y,z,-1/2+x
156 -1/2+y,z,-1/2-x
157 -1/2-y,-x,-1/2+z
158 -1/2+y,x,-1/2+z
159 -1/2-y,x,-1/2-z
160 -1/2+y,-x,-1/2-z
161 -1/2-x,-z,-1/2+y
162 -1/2+x,-z,-1/2-y
163 -1/2+x,z,-1/2+y
164 -1/2-x,z,-1/2-y
165 -1/2-z,-y,-1/2+x
166 -1/2-z,y,-1/2-x
167 -1/2+z,-y,-1/2-x
168 -1/2+z,y,-1/2+x
169 -1/2-x,-1/2-y,-z
170 -1/2+x,-1/2+y,-z
171 -1/2+x,-1/2-y,z
172 -1/2-x,-1/2+y,z
173 -1/2-z,-1/2-x,-y
174 -1/2-z,-1/2+x,y
175 -1/2+z,-1/2+x,-y
176 -1/2+z,-1/2-x,y
177 -1/2-y,-1/2-z,-x
178 -1/2+y,-1/2-z,x
179 -1/2-y,-1/2+z,x
180 -1/2+y,-1/2+z,-x
181 -1/2-y,-1/2-x,z
182 -1/2+y,-1/2+x,z
183 -1/2-y,-1/2+x,-z
184 -1/2+y,-1/2-x,-z
185 -1/2-x,-1/2-z,y
186 -1/2+x,-1/2-z,-y
187 -1/2+x,-1/2+z,y
188 -1/2-x,-1/2+z,-y
189 -1/2-z,-1/2-y,x
190 -1/2-z,-1/2+y,-x
191 -1/2+z,-1/2-y,-x
192 -1/2+z,-1/2+y,x
_cell_length_a 55.0575(19)
_cell_length_b 55.0575(19)
_cell_length_c 55.0575(19)
_cell_angle_alpha 90
_cell_angle_beta 90
_cell_angle_gamma 90
_cell_formula_units_Z 16
loop_
_atom_type_symbol
_atom_type_radius_bond
C 0.68
H 0.23
O 0.68
U 1.96
loop_
_atom_site_label
_atom_site_type_symbol
_atom_site_fract_x
_atom_site_fract_y
_atom_site_fract_z
C1 C 0.67236(11) 0.67236(11) 0.39058(17)
C2 C 0.68435(9) 0.68435(9) 0.41359(13)
C3 C 0.70391(12) 0.67476(13) 0.42305(14)
H1 H 0.71110 0.66090 0.41570
C4 C 0.71373(12) 0.68453(13) 0.44306(13)
H2 H 0.72870 0.67830 0.44900
C5 C 0.70285(9) 0.70285(9) 0.45479(14)
C6 C 0.71388(12) 0.71388(12) 0.47829(15)
C7 C 0.70550(12) 0.70550(12) 0.50000
H3 H 0.69330 0.69330 0.50000
C8 C 0.73157(11) 0.73157(11) 0.47639(11)
C9 C 0.74131(6) 0.74131(6) 0.45486(11)
H4 H 0.73540 0.73540 0.43970
C10 C 0.74074(10) 0.74074(10) 0.50000
O1 O 0.65380(6) 0.68188(5) 0.38157(6)
O2 O 0.63383(11) 0.63383(11) 0.36617(11)
O3 O 0.6692(1) 0.6692(1) 0.3308(1)
U1 U 0.65150(2) 0.65150(2) 0.34850(2)
C1L C 0.67236(11) 0.67236(11) 0.60942(17)
C2L C 0.68435(9) 0.68435(9) 0.58641(13)
C3L C 0.67476(12) 0.70391(13) 0.57695(14)
H1L H 0.66090 0.71110 0.58430
C4L C 0.68453(12) 0.71373(13) 0.55694(13)
H2L H 0.67830 0.72870 0.55100
C5L C 0.70285(9) 0.70285(9) 0.54521(14)
C6L C 0.71388(12) 0.71388(12) 0.52171(15)
C8L C 0.73157(11) 0.73157(11) 0.52361(11)
C9L C 0.74131(6) 0.74131(6) 0.54514(11)
H4L H 0.73540 0.73540 0.56030
O1L O 0.68188(6) 0.65380(5) 0.61843(6)
C1UB C 0.82764(11) 0.82764(11) 0.39058(17)
C2UB C 0.81565(9) 0.81565(9) 0.41359(13)
C3UB C 0.79609(12) 0.82524(13) 0.42305(14)
H1UB H 0.78890 0.83910 0.41570
C4UB C 0.78627(12) 0.81547(13) 0.44306(13)
H2UB H 0.77130 0.82170 0.44900
C5UB C 0.79715(9) 0.79715(9) 0.45479(14)
C6UB C 0.78612(12) 0.78612(12) 0.47829(15)
C7UB C 0.79450(12) 0.79450(12) 0.50000
H3UB H 0.80670 0.80670 0.50000
C8UB C 0.76843(11) 0.76843(11) 0.47639(11)
C9UB C 0.75869(6) 0.75869(6) 0.45486(11)
H4UB H 0.76460 0.76460 0.43970
C10UB C 0.75926(10) 0.75926(10) 0.50000
O1UB O 0.84620(6) 0.81812(5) 0.38157(6)
C1GC C 0.82764(11) 0.82764(11) 0.60942(17)
C2GC C 0.81565(9) 0.81565(9) 0.58641(13)
C3GC C 0.82524(12) 0.79609(13) 0.57695(14)
H1GC H 0.83910 0.78890 0.58430
C4GC C 0.81547(12) 0.78627(13) 0.55694(13)
H2GC H 0.82170 0.77130 0.55100
C5GC C 0.79715(9) 0.79715(9) 0.54521(14)
C6GC C 0.78612(12) 0.78612(12) 0.52171(15)
C8GC C 0.76843(11) 0.76843(11) 0.52361(11)
C9GC C 0.75869(6) 0.75869(6) 0.54514(11)
H4GC H 0.76460 0.76460 0.56030
O1GC O 0.81812(6) 0.84620(5) 0.61843(6)
C3SC C 0.70391(12) 0.67476(13) 0.57695(14)
H1SC H 0.71110 0.66090 0.58430
C4SC C 0.71373(12) 0.68453(13) 0.55694(13)
H2SC H 0.72870 0.67830 0.55100
O1SC O 0.65380(6) 0.68188(5) 0.61843(6)
C3ED C 0.67476(12) 0.70391(13) 0.42305(14)
H1ED H 0.66090 0.71110 0.41570
C4ED C 0.68453(12) 0.71373(13) 0.44306(13)
H2ED H 0.67830 0.72870 0.44900
O1ED O 0.68188(6) 0.65380(5) 0.38157(6)
C3LF C 0.79609(12) 0.82524(13) 0.57695(14)
H1LF H 0.78890 0.83910 0.58430
C4LF C 0.78627(12) 0.81547(13) 0.55694(13)
H2LF H 0.77130 0.82170 0.55100
O1LF O 0.84620(6) 0.81812(5) 0.61843(6)
C3XF C 0.82524(12) 0.79609(13) 0.42305(14)
H1XF H 0.83910 0.78890 0.41570
C4XF C 0.81547(12) 0.78627(13) 0.44306(13)
H2XF H 0.82170 0.77130 0.44900
O1XF O 0.81812(6) 0.84620(5) 0.38157(6)
C1G C 0.60942(11) 0.67236(11) 0.32764(17)
C2G C 0.58641(9) 0.68435(9) 0.31565(13)
C3G C 0.57695(12) 0.70391(13) 0.32524(14)
H1G H 0.58430 0.71110 0.33910
C4G C 0.55694(12) 0.71373(13) 0.31547(13)
H2G H 0.55100 0.72870 0.32170
C5G C 0.54521(9) 0.70285(9) 0.29715(14)
C6G C 0.52171(12) 0.71388(12) 0.28612(15)
C7G C 0.50000(12) 0.70550(12) 0.29450
H3G H 0.50000 0.69330 0.30670
C8G C 0.52361(11) 0.73157(11) 0.26843(11)
C9G C 0.54514(6) 0.74131(6) 0.25869(11)
H4G H 0.56030 0.73540 0.26460
C10G C 0.5000(1) 0.74074(10) 0.25926
O1G O 0.61843(6) 0.65380(5) 0.31812(6)
C1T C 0.39058(11) 0.67236(11) 0.32764(17)
C2T C 0.41359(9) 0.68435(9) 0.31565(13)
C3T C 0.42305(12) 0.67476(13) 0.29609(14)
H1T H 0.41570 0.66090 0.28890
C4T C 0.44306(12) 0.68453(13) 0.28627(13)
H2T H 0.44900 0.67830 0.27130
C5T C 0.45479(9) 0.70285(9) 0.29715(14)
C6T C 0.47829(12) 0.71388(12) 0.28612(15)
C8T C 0.47639(11) 0.73157(11) 0.26843(11)
C9T C 0.45486(6) 0.74131(6) 0.25869(11)
H4T H 0.43970 0.73540 0.26460
O1T O 0.38157(6) 0.68188(5) 0.34620(6)
C1DA C 0.60942(11) 0.82764(11) 0.17236(17)
C2DA C 0.58641(9) 0.81565(9) 0.18435(13)
C3DA C 0.57695(12) 0.79609(13) 0.17476(14)
H1DA H 0.58430 0.78890 0.16090
C4DA C 0.55694(12) 0.78627(13) 0.18453(13)
H2DA H 0.55100 0.77130 0.17830
C5DA C 0.54521(9) 0.79715(9) 0.20285(14)
C6DA C 0.52171(12) 0.78612(12) 0.21388(15)
C7DA C 0.50000(12) 0.79450(12) 0.20550
H3DA H 0.50000 0.80670 0.19330
C8DA C 0.52361(11) 0.76843(11) 0.23157(11)
C9DA C 0.54514(6) 0.75869(6) 0.24131(11)
H4DA H 0.56030 0.76460 0.23540
C10DA C 0.5000(1) 0.75926(10) 0.24074
O1DA O 0.61843(6) 0.84620(5) 0.18188(6)
C1SA C 0.39058(11) 0.82764(11) 0.17236(17)
C2SA C 0.41359(9) 0.81565(9) 0.18435(13)
C3SA C 0.42305(12) 0.82524(13) 0.20391(14)
H1SA H 0.41570 0.83910 0.21110
C4SA C 0.44306(12) 0.81547(13) 0.21373(13)
H2SA H 0.44900 0.82170 0.22870
C5SA C 0.45479(9) 0.79715(9) 0.20285(14)
C6SA C 0.47829(12) 0.78612(12) 0.21388(15)
C8SA C 0.47639(11) 0.76843(11) 0.23157(11)
C9SA C 0.45486(6) 0.75869(6) 0.24131(11)
H4SA H 0.43970 0.76460 0.23540
O1SA O 0.38157(6) 0.81812(5) 0.15380(6)
C3XC C 0.42305(12) 0.70391(13) 0.32524(14)
H1XC H 0.41570 0.71110 0.33910
C4XC C 0.44306(12) 0.71373(13) 0.31547(13)
H2XC H 0.44900 0.72870 0.32170
O1XC O 0.38157(6) 0.65380(5) 0.31812(6)
C3MD C 0.57695(12) 0.67476(13) 0.29609(14)
H1MD H 0.58430 0.66090 0.28890
C4MD C 0.55694(12) 0.68453(13) 0.28627(13)
H2MD H 0.55100 0.67830 0.27130
O1MD O 0.61843(6) 0.68188(5) 0.34620(6)
C3WD C 0.42305(12) 0.79609(13) 0.17476(14)
H1WD H 0.41570 0.78890 0.16090
C4WD C 0.44306(12) 0.78627(13) 0.18453(13)
H2WD H 0.44900 0.77130 0.17830
O1WD O 0.38157(6) 0.84620(5) 0.18188(6)
C3JE C 0.57695(12) 0.82524(13) 0.20391(14)
H1JE H 0.58430 0.83910 0.21110
C4JE C 0.55694(12) 0.81547(13) 0.21373(13)
H2JE H 0.55100 0.82170 0.22870
O1JE O 0.61843(6) 0.81812(5) 0.15380(6)
C1J C 0.67236(11) 0.60942(11) 0.32764(17)
C2J C 0.68435(9) 0.58641(9) 0.31565(13)
C3J C 0.67476(12) 0.57695(13) 0.29609(14)
H1J H 0.66090 0.58430 0.28890
C4J C 0.68453(12) 0.55694(13) 0.28627(13)
H2J H 0.67830 0.55100 0.27130
C5J C 0.70285(9) 0.54521(9) 0.29715(14)
C6J C 0.71388(12) 0.52171(12) 0.28612(15)
C7J C 0.70550(12) 0.50000(12) 0.29450
H3J H 0.69330 0.50000 0.30670
C8J C 0.73157(11) 0.52361(11) 0.26843(11)
C9J C 0.74131(6) 0.54514(6) 0.25869(11)
H4J H 0.73540 0.56030 0.26460
C10J C 0.74074(10) 0.5000(1) 0.25926
O1J O 0.68188(6) 0.61843(5) 0.34620(6)
C1P C 0.67236(11) 0.39058(11) 0.32764(17)
C2P C 0.68435(9) 0.41359(9) 0.31565(13)
C3P C 0.70391(12) 0.42305(13) 0.32524(14)
H1P H 0.71110 0.41570 0.33910
C4P C 0.71373(12) 0.44306(13) 0.31547(13)
H2P H 0.72870 0.44900 0.32170
C5P C 0.70285(9) 0.45479(9) 0.29715(14)
C6P C 0.71388(12) 0.47829(12) 0.28612(15)
C8P C 0.73157(11) 0.47639(11) 0.26843(11)
C9P C 0.74131(6) 0.45486(6) 0.25869(11)
H4P H 0.73540 0.43970 0.26460
O1P O 0.65380(6) 0.38157(5) 0.31812(6)
C1GB C 0.82764(11) 0.60942(11) 0.17236(17)
C2GB C 0.81565(9) 0.58641(9) 0.18435(13)
C3GB C 0.82524(12) 0.57695(13) 0.20391(14)
H1GB H 0.83910 0.58430 0.21110
C4GB C 0.81547(12) 0.55694(13) 0.21373(13)
H2GB H 0.82170 0.55100 0.22870
C5GB C 0.79715(9) 0.54521(9) 0.20285(14)
C6GB C 0.78612(12) 0.52171(12) 0.21388(15)
C7GB C 0.79450(12) 0.50000(12) 0.20550
H3GB H 0.80670 0.50000 0.19330
C8GB C 0.76843(11) 0.52361(11) 0.23157(11)
C9GB C 0.75869(6) 0.54514(6) 0.24131(11)
H4GB H 0.76460 0.56030 0.23540
C10GB C 0.75926(10) 0.5000(1) 0.24074
O1GB O 0.81812(6) 0.61843(5) 0.15380(6)
C1MB C 0.82764(11) 0.39058(11) 0.17236(17)
C2MB C 0.81565(9) 0.41359(9) 0.18435(13)
C3MB C 0.79609(12) 0.42305(13) 0.17476(14)
H1MB H 0.78890 0.41570 0.16090
C4MB C 0.78627(12) 0.44306(13) 0.18453(13)
H2MB H 0.77130 0.44900 0.17830
C5MB C 0.79715(9) 0.45479(9) 0.20285(14)
C6MB C 0.78612(12) 0.47829(12) 0.21388(15)
C8MB C 0.76843(11) 0.47639(11) 0.23157(11)
C9MB C 0.75869(6) 0.45486(6) 0.24131(11)
H4MB H 0.76460 0.43970 0.23540
O1MB O 0.84620(6) 0.38157(5) 0.18188(6)
C3CD C 0.67476(12) 0.42305(13) 0.29609(14)
H1CD H 0.66090 0.41570 0.28890
C4CD C 0.68453(12) 0.44306(13) 0.28627(13)
H2CD H 0.67830 0.44900 0.27130
O1CD O 0.68188(6) 0.38157(5) 0.34620(6)
C3ID C 0.70391(12) 0.57695(13) 0.32524(14)
H1ID H 0.71110 0.58430 0.33910
C4ID C 0.71373(12) 0.55694(13) 0.31547(13)
H2ID H 0.72870 0.55100 0.32170
O1ID O 0.65380(6) 0.61843(5) 0.31812(6)
C3XE C 0.82524(12) 0.42305(13) 0.20391(14)
H1XE H 0.83910 0.41570 0.21110
C4XE C 0.81547(12) 0.44306(13) 0.21373(13)
H2XE H 0.82170 0.44900 0.22870
O1XE O 0.81812(6) 0.38157(5) 0.15380(6)
C3DF C 0.79609(12) 0.57695(13) 0.17476(14)
H1DF H 0.78890 0.58430 0.16090
C4DF C 0.78627(12) 0.55694(13) 0.18453(13)
H2DF H 0.77130 0.55100 0.17830
O1DF O 0.84620(6) 0.61843(5) 0.18188(6)
O2L O 0.63383(11) 0.63383(11) 0.63383(11)
O3L O 0.6692(1) 0.6692(1) 0.6692(1)
U1L U 0.65150(2) 0.65150(2) 0.65150(2)
O2N O 0.63383(11) 0.36617(11) 0.36617(11)
O3N O 0.6692(1) 0.3308(1) 0.3308(1)
U1N U 0.65150(2) 0.34850(2) 0.34850(2)
O2O O 0.36617(11) 0.63383(11) 0.36617(11)
O3O O 0.3308(1) 0.6692(1) 0.3308(1)
U1O U 0.34850(2) 0.65150(2) 0.34850(2)
O1N O 0.68188(6) 0.34620(5) 0.38157(6)
O1O O 0.31812(6) 0.65380(5) 0.38157(6)
O1R O 0.34620(6) 0.61843(5) 0.31812(6)
O1S O 0.65380(6) 0.61843(5) 0.68188(6)
O1V O 0.61843(6) 0.68188(5) 0.65380(6)
O1W O 0.61843(6) 0.31812(5) 0.34620(6)
O1TC O 0.65380(6) 0.31812(5) 0.38157(6)
O1UC O 0.34620(6) 0.68188(5) 0.38157(6)
O1VC O 0.61843(6) 0.34620(5) 0.31812(6)
O1WC O 0.61843(6) 0.65380(5) 0.68188(6)
O1ZC O 0.31812(6) 0.61843(5) 0.34620(6)
O1AD O 0.68188(6) 0.61843(5) 0.65380(6)
U1AA U 0.65150(2) 0.84850(2) 0.15150(2)
U1KA U 0.34850(2) 0.84850(2) 0.15150(2)
U1XA U 0.84850(2) 0.65150(2) 0.15150(2)
U1IB U 0.84850(2) 0.34850(2) 0.15150(2)
U1UB U 0.84850(2) 0.84850(2) 0.34850(2)
U1GC U 0.84850(2) 0.84850(2) 0.65150(2)
#END
