
#######################################################################
#
#                 Cambridge Crystallographic Data Centre
#                                CCDC
#
#######################################################################
#
# If this CIF has been generated from an entry in the Cambridge
# Structural Database, then it will include bibliographic, chemical,
# crystal, experimental, refinement or atomic coordinate data resulting
# from the CCDC's data processing and validation procedures.
#
#######################################################################

data_CSD_CIF_UPOZOQ
_audit_creation_date 2016-06-08
_audit_creation_method CSD-ConQuest-V1
_database_code_CSD UPOZOQ
_database_code_depnum_ccdc_archive 'CCDC 1469988'
_chemical_formula_sum 'C74 H48 F12 N6 Ni1 O16'
_chemical_formula_moiety
;
(C50 H24 F12 N2 Ni1 O16 4-)n,2n(C12 H12 N2 2+)
;
_journal_coden_Cambridge 580
_journal_volume 117
_journal_year 2016
_journal_page_first 126
_journal_name_full 'Polyhedron '
loop_
_publ_author_name
"Jing-Jing Huang"
"Jie-Hui Yu"
"Ji-Qing Xu"
_chemical_name_systematic
;
catena-(bis(4,4'-(ethene-1,2-diyl)dipyridinium) bis(\m-hydrogen 
4,4'-(1,1,1,3,3,3-hexafluoropropane-2,2-diyl)bis(3,4-dicarboxylatobenzene))-ni
ckel(ii))
;
_cell_volume   1690.129
_exptl_crystal_colour 'green'
_exptl_crystal_density_diffrn 1.536
_exptl_crystal_description 'columnar'
_diffrn_ambient_temperature 293
#These two values have been output from a single CSD field.
_refine_ls_R_factor_gt 0.0982
_refine_ls_wR_factor_gt 0.0982
_symmetry_cell_setting triclinic
_symmetry_space_group_name_H-M 'P -1'
_symmetry_Int_Tables_number 2
loop_
_symmetry_equiv_pos_site_id
_symmetry_equiv_pos_as_xyz
1 x,y,z
2 -x,-y,-z
_cell_length_a 9.2544(13)
_cell_length_b 13.5680(17)
_cell_length_c 13.938(2)
_cell_angle_alpha 78.982(9)
_cell_angle_beta 89.07(1)
_cell_angle_gamma 79.747(9)
_cell_formula_units_Z 1
loop_
_atom_type_symbol
_atom_type_radius_bond
C 0.68
H 0.23
F 0.64
N 0.68
Ni 1.24
O 0.68
loop_
_atom_site_label
_atom_site_type_symbol
_atom_site_fract_x
_atom_site_fract_y
_atom_site_fract_z
Ni1 Ni 1.00000 1.00000 0.00000
O1 O 0.9823(5) 0.9868(3) 0.1529(3)
O2 O 0.9740(6) 0.9145(5) 0.3102(4)
O3 O 0.7761(5) 1.0267(3) -0.0187(4)
O4 O 0.6207(6) 1.0916(4) 0.0848(4)
O5 O 0.6189(8) 0.2800(5) 0.0902(6)
O6 O 0.3942(10) 0.2845(7) 0.1541(8)
O7 O 0.3022(8) 0.3386(7) 0.3539(6)
O8 O 0.189(1) 0.4488(7) 0.2369(9)
F1 F 0.7522(8) 0.4982(5) 0.4445(5)
F2 F 0.8130(7) 0.6401(5) 0.4552(4)
F3 F 0.8973(6) 0.5637(4) 0.3399(5)
F4 F 0.5541(8) 0.7637(5) 0.4217(5)
F5 F 0.3954(6) 0.7189(4) 0.3377(5)
F6 F 0.4938(7) 0.6160(5) 0.4670(4)
N1 N 1.0109(6) 0.8424(4) 0.0105(4)
C1 C 0.6792(8) 0.7346(5) 0.2502(5)
C2 C 0.5873(8) 0.7717(6) 0.1693(6)
H1 H 0.51510 0.73590 0.15670
C3 C 0.6021(8) 0.8616(6) 0.1070(6)
H2 H 0.53930 0.88550 0.05290
C4 C 0.7089(7) 0.9169(5) 0.1235(5)
C5 C 0.8043(7) 0.8784(5) 0.2029(5)
C6 C 0.7878(8) 0.7885(5) 0.2662(5)
H3 H 0.85080 0.76410 0.32020
C7 C 0.4805(8) 0.5137(5) 0.2959(6)
H4 H 0.42070 0.53150 0.34650
C8 C 0.6000(8) 0.5615(5) 0.2712(6)
C9 C 0.6895(10) 0.5309(7) 0.1986(8)
H5 H 0.77070 0.56140 0.18060
C10 C 0.6593(10) 0.4546(8) 0.1517(8)
H6 H 0.72270 0.43330 0.10420
C11 C 0.5378(9) 0.4103(6) 0.1745(8)
C12 C 0.4476(8) 0.4401(6) 0.2473(6)
C13 C 0.9283(7) 0.9308(5) 0.2217(5)
C14 C 0.7059(7) 1.0201(5) 0.0580(5)
C15 C 0.5101(11) 0.3237(8) 0.1286(10)
C16 C 0.3020(12) 0.4021(7) 0.2793(8)
C17 C 0.6460(9) 0.6410(6) 0.3242(5)
C18 C 0.5204(11) 0.6845(7) 0.3888(6)
C19 C 0.7774(12) 0.5858(7) 0.3912(7)
C20 C 0.9123(8) 0.8061(5) -0.0340(5)
H7 H 0.83730 0.85290 -0.06960
C21 C 0.9128(8) 0.7038(5) -0.0315(6)
H8 H 0.83950 0.68420 -0.06450
C22 C 1.0245(8) 0.6284(5) 0.0211(5)
C23 C 1.1205(9) 0.6694(5) 0.0758(6)
H9 H 1.18910 0.62510 0.11900
C24 C 1.1135(9) 0.7739(5) 0.0659(6)
H10 H 1.18280 0.79740 0.09900
C25 C 1.0348(9) 0.5213(5) 0.0283(6)
H11 H 1.09600 0.47850 0.07700
N2 N 0.1975(7) -0.0067(5) 0.3347(5)
H12 H 0.12420 -0.03580 0.32710
N3 N 1.0376(8) 0.2797(6) 0.3687(6)
H13 H 1.11080 0.30880 0.37610
C26 C 0.8195(10) 0.2199(8) 0.4287(8)
H14 H 0.75350 0.21140 0.47930
C27 C 0.9412(10) 0.2650(9) 0.4391(8)
H15 H 0.95530 0.28550 0.49770
C28 C 1.0171(10) 0.2480(8) 0.2869(7)
H16 H 1.08450 0.25750 0.23720
C29 C 0.9007(9) 0.2016(7) 0.2713(7)
H17 H 0.89230 0.17960 0.21270
C30 C 0.7977(8) 0.1878(6) 0.3417(6)
C31 C 0.2121(9) 0.0289(7) 0.4169(6)
H18 H 0.14120 0.02290 0.46470
C32 C 0.3287(9) 0.0736(7) 0.4318(6)
H19 H 0.33630 0.09760 0.48940
C33 C 0.4355(8) 0.0832(6) 0.3619(6)
C34 C 0.4174(8) 0.0469(6) 0.2752(6)
H20 H 0.48580 0.05240 0.22580
C35 C 0.2961(9) 0.0030(6) 0.2652(6)
H21 H 0.28330 -0.02050 0.20800
C36 C 0.6730(9) 0.1391(6) 0.3235(6)
H22 H 0.67640 0.11010 0.26810
C37 C 0.5588(9) 0.1332(6) 0.3784(6)
H23 H 0.55480 0.16340 0.43320
N1A N 0.9891(6) 0.1576(4) -0.0105(4)
C20A C 1.0877(8) 0.1939(5) 0.0340(5)
H7A H 1.16270 0.14710 0.06960
C21A C 1.0872(8) 0.2962(5) 0.0315(6)
H8A H 1.16050 0.31580 0.06450
C22A C 0.9755(8) 0.3716(5) -0.0211(5)
C23A C 0.8795(9) 0.3306(5) -0.0758(6)
H9A H 0.81090 0.37490 -0.11900
C24A C 0.8865(9) 0.2261(5) -0.0659(6)
H10A H 0.81720 0.20260 -0.09900
C25A C 0.9652(9) 0.4787(5) -0.0283(6)
H11A H 0.90400 0.52150 -0.07700
O1A O 1.0177(5) 1.0132(3) -0.1529(3)
O2A O 1.0260(6) 1.0855(5) -0.3102(4)
O3A O 1.2239(5) 0.9733(3) 0.0187(4)
O4A O 1.3793(6) 0.9084(4) -0.0848(4)
O5A O 1.3811(8) 1.7200(5) -0.0902(6)
O6A O 1.6058(10) 1.7155(7) -0.1541(8)
O7A O 1.6978(8) 1.6614(7) -0.3539(6)
O8A O 1.811(1) 1.5512(7) -0.2369(9)
F1A F 1.2478(8) 1.5018(5) -0.4445(5)
F2A F 1.1870(7) 1.3599(5) -0.4552(4)
F3A F 1.1027(6) 1.4363(4) -0.3399(5)
F4A F 1.4459(8) 1.2363(5) -0.4217(5)
F5A F 1.6046(6) 1.2811(4) -0.3377(5)
F6A F 1.5062(7) 1.3840(5) -0.4670(4)
C1A C 1.3208(8) 1.2654(5) -0.2502(5)
C2A C 1.4127(8) 1.2283(6) -0.1693(6)
H1A H 1.48490 1.26410 -0.15670
C3A C 1.3979(8) 1.1384(6) -0.1070(6)
H2A H 1.46070 1.11450 -0.05290
C4A C 1.2911(7) 1.0831(5) -0.1235(5)
C5A C 1.1957(7) 1.1216(5) -0.2029(5)
C6A C 1.2122(8) 1.2115(5) -0.2662(5)
H3A H 1.14920 1.23590 -0.32020
C7A C 1.5195(8) 1.4863(5) -0.2959(6)
H4A H 1.57930 1.46850 -0.34650
C8A C 1.4000(8) 1.4385(5) -0.2712(6)
C9A C 1.3105(10) 1.4691(7) -0.1986(8)
H5A H 1.22930 1.43860 -0.18060
C10A C 1.3407(10) 1.5454(8) -0.1517(8)
H6A H 1.27730 1.56670 -0.10420
C11A C 1.4622(9) 1.5897(6) -0.1745(8)
C12A C 1.5524(8) 1.5599(6) -0.2473(6)
C13A C 1.0717(7) 1.0692(5) -0.2217(5)
C14A C 1.2941(7) 0.9799(5) -0.0580(5)
C15A C 1.4899(11) 1.6763(8) -0.1286(10)
C16A C 1.6980(12) 1.5979(7) -0.2793(8)
C17A C 1.3540(9) 1.3590(6) -0.3242(5)
C18A C 1.4796(11) 1.3155(7) -0.3888(6)
C19A C 1.2226(12) 1.4142(7) -0.3912(7)
Ni1* Ni 1.00000 0.00000 0.00000
N1A* N 0.9891(6) 1.1576(4) -0.0105(4)
#END
