
#######################################################################
#
#                 Cambridge Crystallographic Data Centre
#                                CCDC
#
#######################################################################
#
# If this CIF has been generated from an entry in the Cambridge
# Structural Database, then it will include bibliographic, chemical,
# crystal, experimental, refinement or atomic coordinate data resulting
# from the CCDC's data processing and validation procedures.
#
#######################################################################

data_CSD_CIF_UPOZEG
_audit_creation_date 2016-06-08
_audit_creation_method CSD-ConQuest-V1
_database_code_CSD UPOZEG
_database_code_depnum_ccdc_archive 'CCDC 1469986'
_chemical_formula_sum 'C58 H70 N4 O21 S2 Zn2'
_chemical_formula_moiety
;
(C32 H12 O20 S2 Zn2 4-)n,2n(C13 H28 N2 2+),n(H2 O1)
;
_journal_coden_Cambridge 580
_journal_volume 117
_journal_year 2016
_journal_page_first 126
_journal_name_full 'Polyhedron '
loop_
_publ_author_name
"Jing-Jing Huang"
"Jie-Hui Yu"
"Ji-Qing Xu"
_chemical_name_systematic
;
catena-(bis(4,4'-(propane-1,3-diyl)dipiperidinium) 
bis(\m-2-carboxylato-4-((3,4-dicarboxylatophenyl)sulfonyl)benzoate)-di-zinc 
monohydrate)
;
_cell_volume   2991.274
_exptl_crystal_colour 'colorless'
_exptl_crystal_density_diffrn 1.494
_exptl_crystal_description 'columnar'
_diffrn_ambient_temperature 293
#These two values have been output from a single CSD field.
_refine_ls_R_factor_gt 0.0349
_refine_ls_wR_factor_gt 0.0349
_symmetry_cell_setting monoclinic
_symmetry_space_group_name_H-M 'P 21'
_symmetry_Int_Tables_number 4
loop_
_symmetry_equiv_pos_site_id
_symmetry_equiv_pos_as_xyz
1 x,y,z
2 -x,1/2+y,-z
_cell_length_a 9.8817(6)
_cell_length_b 24.8194(14)
_cell_length_c 12.3018(8)
_cell_angle_alpha 90
_cell_angle_beta 97.504(4)
_cell_angle_gamma 90
_cell_formula_units_Z 2
loop_
_atom_type_symbol
_atom_type_radius_bond
C 0.68
H 0.23
N 0.68
O 0.68
S 1.02
Zn 1.22
loop_
_atom_site_label
_atom_site_type_symbol
_atom_site_fract_x
_atom_site_fract_y
_atom_site_fract_z
Zn1 Zn -1.01603(4) 0.077085(14) -1.08104(3)
Zn2 Zn -1.42439(4) 0.042293(14) -1.43664(3)
S1 S -0.86602(9) -0.20463(4) -1.18055(8)
S2 S -1.64100(8) 0.30837(3) -1.30945(7)
O1 O -1.0354(3) 0.03364(10) -1.2711(2)
O2 O -1.0315(3) -0.00177(10) -1.1067(2)
O3 O -1.1720(3) -0.00897(15) -1.5058(2)
O4 O -1.3119(3) -0.01669(11) -1.3788(2)
O5 O -0.8135(3) -0.23746(11) -1.2622(3)
O6 O -0.7737(3) -0.17830(12) -1.0977(3)
O7 O -1.3231(4) -0.33038(16) -0.9074(4)
O8 O -1.1663(3) -0.39303(11) -0.8974(2)
O9 O -1.1849(3) -0.39441(12) -1.2179(2)
O10 O -1.0422(3) -0.42732(10) -1.08126(19)
O11 O -1.2634(3) 0.13054(13) -0.9924(2)
O12 O -1.1523(3) 0.12894(11) -1.1389(2)
O13 O -1.4154(3) 0.07943(11) -1.2529(2)
O14 O -1.4049(3) 0.12138(11) -1.4081(2)
O15 O -1.7154(3) 0.28169(11) -1.4028(2)
O16 O -1.7136(3) 0.33019(11) -1.2250(2)
O17 O -1.2115(3) 0.49669(11) -1.4402(2)
O18 O -1.3788(3) 0.52024(11) -1.5674(2)
O19 O -1.5495(4) 0.51928(13) -1.2322(2)
O20 O -1.5411(3) 0.55067(9) -1.39895(18)
C1 C -0.9702(3) -0.15374(13) -1.2489(3)
C2 C -0.9732(3) -0.10346(14) -1.2019(3)
H1 H -0.92610 -0.09720 -1.13260
C3 C -1.0467(3) -0.06197(13) -1.2584(3)
C4 C -1.1207(3) -0.07232(13) -1.3613(3)
C5 C -1.1186(4) -0.12363(14) -1.4060(3)
H2 H -1.16900 -0.13060 -1.47380
C6 C -1.0426(4) -0.16453(14) -1.3513(3)
H3 H -1.04000 -0.19860 -1.38240
C7 C -1.0386(3) -0.00602(14) -1.2108(3)
C8 C -1.2065(4) -0.02861(14) -1.4219(3)
C9 C -0.9750(4) -0.24603(14) -1.1131(3)
C10 C -1.0022(4) -0.29775(14) -1.1476(3)
H4 H -0.96940 -0.31030 -1.21040
C11 C -1.0788(3) -0.33175(13) -1.0890(3)
C12 C -1.1309(3) -0.31261(14) -0.9961(3)
C13 C -1.1080(4) -0.25869(15) -0.9652(3)
H5 H -1.14700 -0.24490 -0.90620
C14 C -1.0281(4) -0.22570(15) -1.0212(3)
H6 H -1.00990 -0.19040 -0.99820
C15 C -1.1063(3) -0.38869(13) -1.1325(3)
C16 C -1.2146(4) -0.34736(16) -0.9292(3)
C17 C -1.5175(3) 0.26254(13) -1.2478(3)
C18 C -1.4992(3) 0.21442(14) -1.3007(3)
H7 H -1.54490 0.20830 -1.37060
C19 C -1.4132(3) 0.17540(13) -1.2498(3)
C20 C -1.3437(3) 0.18521(13) -1.1446(2)
C21 C -1.3621(4) 0.23385(15) -1.0938(3)
H8 H -1.31530 0.24040 -1.02450
C22 C -1.4482(4) 0.27285(14) -1.1435(3)
H9 H -1.45990 0.30540 -1.10830
C23 C -1.2462(3) 0.14424(13) -1.0852(3)
C24 C -1.4089(3) 0.12176(14) -1.3054(3)
C25 C -1.5507(3) 0.36231(14) -1.3611(3)
C26 C -1.5650(3) 0.41350(15) -1.3219(3)
H10 H -1.61680 0.41920 -1.26510
C27 C -1.5025(3) 0.45675(14) -1.3667(3)
C28 C -1.4163(3) 0.44756(14) -1.4458(3)
C29 C -1.4019(4) 0.39541(15) -1.4847(3)
H11 H -1.34540 0.38910 -1.53830
C30 C -1.4706(4) 0.35310(15) -1.4445(3)
H12 H -1.46370 0.31860 -1.47280
C31 C -1.3293(3) 0.49208(14) -1.4865(3)
C32 C -1.5337(4) 0.51252(14) -1.3282(3)
N1 N -0.5490(4) 0.14366(14) -0.7087(3)
N2 N -0.3991(4) 0.54410(17) -0.8780(3)
C33 C -0.5763(6) 0.1808(2) -0.6194(4)
H13 H -0.63290 0.16260 -0.57190
H14 H -0.49080 0.19040 -0.57580
C34 C -0.6458(5) 0.2300(2) -0.6641(4)
H15 H -0.66010 0.25380 -0.60410
H16 H -0.73470 0.22050 -0.70250
C35 C -0.5649(4) 0.25972(17) -0.7423(4)
H17 H -0.47830 0.27100 -0.70060
C36 C -0.5320(5) 0.22127(17) -0.8312(4)
H18 H -0.47200 0.23920 -0.87620
H19 H -0.61570 0.21210 -0.87790
C37 C -0.4638(5) 0.16961(19) -0.7843(4)
H20 H -0.45140 0.14510 -0.84350
H21 H -0.37450 0.17800 -0.74510
C38 C -0.6399(5) 0.31057(18) -0.7873(4)
H22 H -0.72790 0.30020 -0.82600
H23 H -0.65650 0.33320 -0.72610
C39 C -0.5670(8) 0.3423(3) -0.8614(8)
H24 H -0.56140 0.32120 -0.92710
H25 H -0.47450 0.34820 -0.82620
C40 C -0.6308(6) 0.3973(2) -0.8957(6)
H26 H -0.69650 0.39280 -0.96080
H27 H -0.67920 0.41090 -0.83760
C41 C -0.3277(5) 0.4947(2) -0.8337(4)
H28 H -0.27270 0.50290 -0.76450
H29 H -0.26720 0.48210 -0.88430
C42 C -0.4278(5) 0.4514(2) -0.8167(4)
H30 H -0.48070 0.46270 -0.75950
H31 H -0.37820 0.41910 -0.79130
C43 C -0.5248(4) 0.43797(17) -0.9188(3)
H32 H -0.47110 0.42200 -0.97220
C44 C -0.5898(5) 0.48971(17) -0.9687(4)
H33 H -0.64050 0.48150 -1.03970
H34 H -0.65400 0.50320 -0.92190
C45 C -0.4853(5) 0.53334(18) -0.9826(4)
H35 H -0.42840 0.52200 -1.03690
H36 H -0.53210 0.56610 -1.00870
N3 N -0.9368(3) 0.07506(14) -1.4627(3)
N4 N -1.0507(4) 0.48278(12) -1.2249(3)
C46 C -1.1180(6) 0.45206(18) -1.1428(4)
H37 H -1.19160 0.47340 -1.12020
H38 H -1.05230 0.44510 -1.07860
C47 C -1.1744(5) 0.39894(16) -1.1906(4)
H39 H -1.25060 0.40630 -1.24670
H40 H -1.20900 0.37830 -1.13320
C48 C -1.0696(4) 0.36491(15) -1.2404(3)
H41 H -1.00090 0.35260 -1.18080
C49 C -0.9985(4) 0.39907(15) -1.3181(3)
H42 H -0.92490 0.37830 -1.34260
H43 H -1.06290 0.40790 -1.38200
C50 C -0.9408(4) 0.45070(16) -1.2654(4)
H44 H -0.87120 0.44220 -1.20470
H45 H -0.89870 0.47160 -1.31850
C51 C -1.1388(4) 0.31517(15) -1.2965(4)
H46 H -1.18500 0.29580 -1.24360
H47 H -1.20790 0.32710 -1.35490
C52 C -1.0436(4) 0.27645(16) -1.3445(4)
H48 H -0.97940 0.26180 -1.28550
H49 H -0.99170 0.29620 -1.39310
C53 C -1.1177(4) 0.23005(17) -1.4080(4)
H50 H -1.17710 0.24470 -1.46990
H51 H -1.17500 0.21210 -1.36080
C54 C -1.0163(5) 0.10209(17) -1.5600(3)
H52 H -1.07410 0.07580 -1.60200
H53 H -0.95380 0.11670 -1.60700
C55 C -1.1041(4) 0.14717(17) -1.5230(4)
H54 H -1.15020 0.16530 -1.58720
H55 H -1.17340 0.13160 -1.48360
C56 C -1.0232(4) 0.18826(15) -1.4502(3)
H56 H -0.96210 0.20710 -1.49410
C57 C -0.9362(4) 0.16016(16) -1.3561(3)
H57 H -0.99530 0.14560 -1.30630
H58 H -0.87650 0.18640 -1.31600
C58 C -0.8498(5) 0.11475(17) -1.3941(4)
H59 H -0.78240 0.12970 -1.43640
H60 H -0.80160 0.09660 -1.33070
O21 O -1.1909(4) 0.06616(18) -0.8009(3)
Zn1A Zn -0.98397(4) -0.422915(14) -0.91896(3)
Zn2A Zn -1.57561(4) 0.542293(14) -1.56336(3)
O8A O -0.8337(3) 0.10697(11) -1.1026(2)
O10A O -0.9578(3) 0.07268(10) -0.91874(19)
O18A O -1.6212(3) 0.02024(11) -1.4326(2)
O20A O -1.4589(3) 0.05067(9) -1.60105(18)
#END
