
#######################################################################
#
#                 Cambridge Crystallographic Data Centre
#                                CCDC
#
#######################################################################
#
# If this CIF has been generated from an entry in the Cambridge
# Structural Database, then it will include bibliographic, chemical,
# crystal, experimental, refinement or atomic coordinate data resulting
# from the CCDC's data processing and validation procedures.
#
#######################################################################

data_CSD_CIF_UPOZIK
_audit_creation_date 2016-06-08
_audit_creation_method CSD-ConQuest-V1
_database_code_CSD UPOZIK
_database_code_depnum_ccdc_archive 'CCDC 1469987'
_chemical_formula_sum 'C58 H76 N4 Ni2 O22'
_chemical_formula_moiety
;
(C32 H16 Ni2 O20 4-)n,2n(C13 H28 N2 2+),2n(H2 O1)
;
_journal_coden_Cambridge 580
_journal_volume 117
_journal_year 2016
_journal_page_first 126
_journal_name_full 'Polyhedron '
loop_
_publ_author_name
"Jing-Jing Huang"
"Jie-Hui Yu"
"Ji-Qing Xu"
_chemical_name_systematic
;
catena-(bis(4,4'-(propane-1,3-diyl)dipiperidinium) 
bis(\m-bis(3,4-dicarboxylatophenyl) ether)-di-nickel dihydrate)
;
_cell_volume   1450.719
_exptl_crystal_colour 'green'
_exptl_crystal_density_diffrn 1.486
_exptl_crystal_description 'columnar'
_diffrn_ambient_temperature 293
#These two values have been output from a single CSD field.
_refine_ls_R_factor_gt 0.0369
_refine_ls_wR_factor_gt 0.0369
_symmetry_cell_setting triclinic
_symmetry_space_group_name_H-M 'P -1'
_symmetry_Int_Tables_number 2
loop_
_symmetry_equiv_pos_site_id
_symmetry_equiv_pos_as_xyz
1 x,y,z
2 -x,-y,-z
_cell_length_a 10.0855(5)
_cell_length_b 10.7409(5)
_cell_length_c 13.5815(8)
_cell_angle_alpha 98.241(3)
_cell_angle_beta 91.246(3)
_cell_angle_gamma 94.517(3)
_cell_formula_units_Z 1
loop_
_atom_type_symbol
_atom_type_radius_bond
C 0.68
H 0.23
N 0.68
Ni 1.24
O 0.68
loop_
_atom_site_label
_atom_site_type_symbol
_atom_site_fract_x
_atom_site_fract_y
_atom_site_fract_z
Ni1 Ni 0.50000 0.00000 1.00000
Ni2 Ni 0.00000 0.00000 0.00000
O1 O 0.38445(18) -0.07529(19) 0.88170(13)
O2 O 0.4924(3) -0.2349(2) 0.80874(17)
O3 O 0.07889(16) -0.05912(15) 0.86561(11)
O4 O 0.20727(17) 0.10635(17) 0.82862(14)
O5 O -0.0109(2) -0.34847(17) 0.10390(14)
O6 O 0.02366(18) -0.18049(15) 0.02943(12)
O7 O 0.36284(17) -0.05753(17) 0.09778(13)
O8 O 0.19146(15) 0.04904(15) 0.06153(12)
O9 O 0.06446(19) -0.1833(2) 0.46791(13)
C1 C 0.3497(3) -0.2284(3) 0.6284(2)
H1 H 0.42630 -0.27150 0.62540
C2 C 0.2692(3) -0.2344(3) 0.5429(2)
H2 H 0.29180 -0.27980 0.48290
C3 C 0.1548(3) -0.1712(3) 0.54933(18)
C4 C 0.1221(3) -0.1005(3) 0.63692(19)
H3 H 0.04440 -0.05900 0.63940
C5 C 0.2052(2) -0.0907(2) 0.72237(17)
C6 C 0.3177(2) -0.1593(2) 0.71864(18)
C7 C 0.4057(3) -0.1584(3) 0.81007(19)
C8 C 0.1636(2) -0.0068(2) 0.81512(17)
C9 C 0.1097(3) -0.1418(3) 0.38104(18)
C10 C 0.0541(3) -0.2041(2) 0.29151(18)
H4 H -0.00780 -0.27310 0.29120
C11 C 0.0902(2) -0.1642(2) 0.20157(17)
C12 C 0.1860(2) -0.0619(2) 0.20407(17)
C13 C 0.2387(2) 0.0006(2) 0.29566(18)
H5 H 0.30090 0.06960 0.29710
C14 C 0.1997(3) -0.0386(3) 0.38423(18)
H6 H 0.23400 0.00430 0.44490
C15 C 0.0292(2) -0.2349(2) 0.10518(18)
C16 C 0.2479(2) -0.0213(2) 0.11241(17)
O10 O 0.41515(16) 0.17311(16) 1.00109(13)
N1 N 0.4563(2) 0.1939(3) 0.7929(2)
N2 N 0.0704(3) 0.4153(2) 0.10778(17)
C17 C 0.4648(4) 0.3333(4) 0.8176(3)
H7 H 0.55450 0.36760 0.80740
H8 H 0.44560 0.35640 0.88720
C18 C 0.3671(4) 0.3890(3) 0.7534(2)
H9 H 0.37950 0.48040 0.76780
H10 H 0.27730 0.36340 0.77080
C19 C 0.3825(3) 0.3486(3) 0.6414(2)
H11 H 0.46830 0.38600 0.62250
C20 C 0.3823(3) 0.2059(3) 0.6198(2)
H12 H 0.40350 0.18180 0.55070
H13 H 0.29370 0.16820 0.62930
C21 C 0.4819(3) 0.1540(4) 0.6863(3)
H14 H 0.47480 0.06260 0.67220
H15 H 0.57150 0.18450 0.67210
C22 C 0.2722(3) 0.3982(3) 0.5835(2)
H16 H 0.27700 0.48920 0.60140
H17 H 0.18750 0.36460 0.60540
C23 C 0.2725(3) 0.3682(3) 0.4704(2)
H18 H 0.27240 0.27770 0.45100
H19 H 0.35290 0.40780 0.44640
C24 C 0.1508(3) 0.4155(3) 0.4226(2)
H20 H 0.07270 0.38950 0.45730
H21 H 0.16050 0.50700 0.43290
C25 C -0.0388(3) 0.3685(3) 0.1682(2)
H22 H -0.05030 0.27700 0.15470
H23 H -0.12140 0.40100 0.14960
C26 C -0.0078(3) 0.4099(3) 0.2785(2)
H24 H -0.07750 0.37350 0.31630
H25 H -0.00760 0.50100 0.29290
C27 C 0.1261(3) 0.3706(3) 0.3121(2)
H26 H 0.12220 0.27820 0.30130
C28 C 0.2344(3) 0.4200(3) 0.2472(2)
H27 H 0.24310 0.51150 0.25970
H28 H 0.31880 0.39040 0.26520
C29 C 0.2027(3) 0.3763(3) 0.1371(2)
H29 H 0.27100 0.41250 0.09800
H30 H 0.20230 0.28510 0.12330
O11 O 0.3033(4) -0.3503(4) 0.0002(3)
O1A O -0.38445(18) 0.07529(19) -0.88170(13)
O2A O -0.4924(3) 0.2349(2) -0.80874(17)
O3A O -0.07889(16) 0.05912(15) -0.86561(11)
O4A O -0.20727(17) -0.10635(17) -0.82862(14)
O5A O 0.0109(2) 0.34847(17) -0.10390(14)
O6A O -0.02366(18) 0.18049(15) -0.02943(12)
O7A O -0.36284(17) 0.05753(17) -0.09778(13)
O8A O -0.19146(15) -0.04904(15) -0.06153(12)
O9A O -0.06446(19) 0.1833(2) -0.46791(13)
C1A C -0.3497(3) 0.2284(3) -0.6284(2)
H1A H -0.42630 0.27150 -0.62540
C2A C -0.2692(3) 0.2344(3) -0.5429(2)
H2A H -0.29180 0.27980 -0.48290
C3A C -0.1548(3) 0.1712(3) -0.54933(18)
C4A C -0.1221(3) 0.1005(3) -0.63692(19)
H3A H -0.04440 0.05900 -0.63940
C5A C -0.2052(2) 0.0907(2) -0.72237(17)
C6A C -0.3177(2) 0.1593(2) -0.71864(18)
C7A C -0.4057(3) 0.1584(3) -0.81007(19)
C8A C -0.1636(2) 0.0068(2) -0.81512(17)
C9A C -0.1097(3) 0.1418(3) -0.38104(18)
C10A C -0.0541(3) 0.2041(2) -0.29151(18)
H4A H 0.00780 0.27310 -0.29120
C11A C -0.0902(2) 0.1642(2) -0.20157(17)
C12A C -0.1860(2) 0.0619(2) -0.20407(17)
C13A C -0.2387(2) -0.0006(2) -0.29566(18)
H5A H -0.30090 -0.06960 -0.29710
C14A C -0.1997(3) 0.0386(3) -0.38423(18)
H6A H -0.23400 -0.00430 -0.44490
C15A C -0.0292(2) 0.2349(2) -0.10518(18)
C16A C -0.2479(2) 0.0213(2) -0.11241(17)
O10A O 0.58485(16) -0.17311(16) 0.99891(13)
Ni1* Ni -0.50000 0.00000 -1.00000
Ni1** Ni -0.50000 0.00000 0.00000
Ni1*** Ni 0.50000 0.00000 0.00000
Ni2* Ni 0.00000 0.00000 -1.00000
Ni2** Ni 0.00000 0.00000 1.00000
O1A* O 0.61555(18) 0.07529(19) 1.11830(13)
O3* O 0.07889(16) -0.05912(15) -0.13439(11)
O3A* O -0.07889(16) 0.05912(15) 0.13439(11)
O7* O 0.36284(17) -0.05753(17) 1.09778(13)
O7A* O 0.63716(17) 0.05753(17) 0.90222(13)
#END
