
#######################################################################
#
#                 Cambridge Crystallographic Data Centre
#                                CCDC
#
#######################################################################
#
# If this CIF has been generated from an entry in the Cambridge
# Structural Database, then it will include bibliographic, chemical,
# crystal, experimental, refinement or atomic coordinate data resulting
# from the CCDC's data processing and validation procedures.
#
#######################################################################

data_CSD_CIF_UQECAX
_audit_creation_date 2021-04-03
_audit_creation_method CSD-ConQuest-V1
_database_code_CSD UQECAX
_database_code_depnum_ccdc_archive 'CCDC 2064145'
_chemical_formula_sum 'C92 H134 Cu3 Mo10 N34 Na2 O51 P4'
_chemical_formula_moiety
;
(C80 H110 Cu3 Mo10 N30 Na2 O50 P4 2-)n,2(C6 H11 N2 1+),H2 O1
;
_journal_coden_Cambridge 1295
_journal_volume 128
_journal_year 2021
_journal_page_first 108584
_journal_name_full 'Inorg.Chem.Commun. '
loop_
_publ_author_name
"Jun Chang"
"Nan Shen"
"Sheng-Chun Chen"
"Zhi-Hui Zhang"
"Xuejun Feng"
"Kun-Lin Huang"
"Ming-Yang He"
"Qun Chen"
_chemical_name_systematic
;
catena-[bis(1-methyl-3-ethyl imidazolium) bis(\m-hydrogen 
phosphato)-bis(\m-phosphato)-tris(\m-1,4-bis(1,2,4-triazole-1-ylmethyl)-2,3,5,
6-tetramethyl 
benzene)-bis(\m-aqua)-octadecakis(\m-oxo)-diaqua-bis(1,4-bis(1,2,4-triazole-1-
ylmethyl)-2,3,5,6-tetramethyl 
benzene)-dodeca-oxo-tri-copper(ii)-deca-molybdenum(vi)-di-sodium monohydrate]
;
_chemical_name_common
;
CZU-6
;
_cell_volume   3372.168
_exptl_crystal_colour 'colorless'
_exptl_crystal_density_diffrn 1.896
_exptl_crystal_description 'block'
_diffrn_ambient_temperature 293
#These two values have been output from a single CSD field.
_refine_ls_R_factor_gt 0.0331
_refine_ls_wR_factor_gt 0.0331
_symmetry_cell_setting triclinic
_symmetry_space_group_name_H-M 'P -1'
_symmetry_Int_Tables_number 2
loop_
_symmetry_equiv_pos_site_id
_symmetry_equiv_pos_as_xyz
1 x,y,z
2 -x,-y,-z
_cell_length_a 14.9258(5)
_cell_length_b 15.4856(5)
_cell_length_c 16.6813(6)
_cell_angle_alpha 81.704(3)
_cell_angle_beta 79.625(3)
_cell_angle_gamma 63.053(3)
_cell_formula_units_Z 1
loop_
_atom_type_symbol
_atom_type_radius_bond
C 0.68
H 0.23
Cu 1.32
Mo 1.54
N 0.68
Na 1.66
O 0.68
P 1.05
loop_
_atom_site_label
_atom_site_type_symbol
_atom_site_fract_x
_atom_site_fract_y
_atom_site_fract_z
Mo1 Mo -0.08173(2) 0.47950(2) 0.22247(2)
Mo2 Mo 0.17148(2) 0.36368(2) 0.23246(2)
Mo3 Mo 0.27195(2) 0.51983(2) 0.17575(2)
Mo4 Mo 0.08422(2) 0.74569(2) 0.14008(2)
Mo5 Mo -0.13530(2) 0.70236(2) 0.12691(2)
Cu1 Cu 0.50000 0.50000 0.00000
Cu2 Cu 0.09578(3) 0.51142(3) 0.44393(3)
P1 P 0.02713(6) 0.60414(5) 0.28386(5)
P2 P 0.09373(6) 0.52880(6) 0.06635(5)
Na1 Na 0.07357(11) 0.31154(10) 0.08030(9)
O1 O 0.20862(16) 0.65895(15) 0.18257(14)
O2 O -0.00652(16) 0.59275(15) 0.37475(13)
O3 O 0.18542(19) 0.26600(16) 0.18584(16)
O4 O 0.13238(19) 0.76390(16) 0.04094(15)
O5 O 0.07341(16) 0.45484(15) 0.13005(14)
O6 O 0.05670(19) 0.85277(16) 0.17807(15)
O7 O 0.26771(16) 0.40014(15) 0.16409(14)
O8 O -0.22720(18) 0.77009(17) 0.19928(16)
O9 O 0.02891(16) 0.70165(14) 0.26104(13)
O10 O -0.18977(17) 0.75123(16) 0.03896(15)
O11 O 0.36280(17) 0.51305(16) 0.09451(14)
O12 O -0.04271(16) 0.75767(15) 0.11916(14)
O13 O 0.22943(19) 0.31482(17) 0.31753(15)
O14 O -0.00387(16) 0.60266(15) 0.03588(13)
O15 O 0.03303(17) 0.41981(15) 0.44468(14)
H1 H 0.07286 0.36014 0.45335
H2 H 0.01080 0.42252 0.40049
O16 O -0.04890(16) 0.60059(15) 0.23359(14)
O17 O 0.14328(16) 0.58003(15) 0.10263(14)
O18 O -0.15152(16) 0.58307(15) 0.14307(14)
O19 O 0.13452(15) 0.52026(14) 0.26340(14)
O20 O -0.17305(18) 0.49617(18) 0.30369(15)
O21 O 0.17458(17) 0.47221(16) -0.00460(14)
H3 H 0.14553 0.46561 -0.03892
O22 O -0.07539(18) 0.38592(17) 0.17561(15)
O23 O 0.33639(17) 0.48672(16) 0.25832(14)
O24 O 0.03230(16) 0.40995(15) 0.28394(14)
O25 O -0.0128(3) 0.2130(2) 0.0872(2)
H4 H -0.04373 0.22754 0.04560
H5 H -0.05960 0.22784 0.12749
N1 N 0.5956(2) 0.43467(19) 0.08575(17)
N2 N 0.6526(2) 0.36814(19) 0.20086(18)
N3 N 0.7366(2) 0.3434(2) 0.1440(2)
N4 N 0.8199(3) -0.1342(2) 0.39691(19)
N5 N 0.7332(3) -0.1158(2) 0.4493(2)
N6 N 0.8674(3) -0.2323(2) 0.5041(2)
N7 N 0.4866(2) 0.62984(18) 0.02241(18)
N8 N 0.4273(3) 0.7800(2) 0.0616(3)
N9 N 0.5282(2) 0.74280(19) 0.0375(2)
N10 N 0.1514(2) 0.6085(2) 0.44256(19)
N11 N 0.2009(4) 0.7070(4) 0.4872(2)
N12 N 0.2017(2) 0.7209(2) 0.4054(2)
N13 N 0.6728(2) 0.6944(2) 0.43502(18)
N14 N 0.6198(2) 0.6835(3) 0.5079(2)
N15 N 0.7853(2) 0.5881(2) 0.50796(19)
C1 C 0.5705(3) 0.4214(2) 0.1656(2)
H6 H 0.50463 0.44618 0.19252
C2 C 0.6985(3) 0.3856(3) 0.0762(2)
H7 H 0.73824 0.38244 0.02590
C3 C 0.6627(3) 0.3346(3) 0.2871(2)
H8 H 0.59706 0.36502 0.31970
H9 H 0.70844 0.35404 0.30547
C4 C 0.7030(3) 0.2245(2) 0.2999(2)
C5 C 0.8044(3) 0.1674(3) 0.3099(2)
C6 C 0.8409(3) 0.0654(3) 0.3200(2)
C7 C 0.7768(3) 0.0243(3) 0.3144(2)
C8 C 0.6750(3) 0.0817(3) 0.3054(2)
C9 C 0.6372(3) 0.1837(3) 0.2993(2)
C10 C 0.5255(3) 0.2459(3) 0.2920(3)
H10 H 0.51366 0.24773 0.23697
H11 H 0.50627 0.31064 0.30576
H12 H 0.48595 0.21871 0.32872
C11 C 0.8766(4) 0.2112(3) 0.3100(3)
H13 H 0.84996 0.27554 0.28370
H14 H 0.94130 0.17172 0.28099
H15 H 0.88445 0.21402 0.36526
C12 C 0.9487(3) 0.0026(3) 0.3374(3)
H16 H 0.95141 -0.05289 0.37297
H17 H 0.97112 0.03951 0.36333
H18 H 0.99192 -0.01862 0.28712
C13 C 0.6044(4) 0.0369(3) 0.3028(3)
H19 H 0.63797 -0.03168 0.31687
H20 H 0.58579 0.04781 0.24880
H21 H 0.54464 0.06603 0.34115
C14 C 0.8200(4) -0.0858(3) 0.3146(2)
H22 H 0.78048 -0.10136 0.28386
H23 H 0.88897 -0.11110 0.28707
C15 C 0.8976(3) -0.2035(3) 0.4306(3)
H24 H 0.96443 -0.22849 0.40580
C16 C 0.7666(3) -0.1764(3) 0.5122(3)
H25 H 0.72385 -0.18042 0.55910
C17 C 0.4061(3) 0.7093(3) 0.0512(3)
H26 H 0.34095 0.71371 0.06275
C18 C 0.5621(3) 0.6539(2) 0.0142(3)
H27 H 0.62916 0.61444 -0.00509
C19 C 0.5900(3) 0.7927(2) 0.0433(3)
H28 H 0.65339 0.76386 0.00764
H29 H 0.60585 0.78237 0.09885
C20 C 0.5389(3) 0.9012(2) 0.0207(3)
C21 C 0.5344(3) 0.9344(3) -0.0609(3)
C22 C 0.5691(4) 0.8627(3) -0.1255(3)
H30 H 0.62295 0.80271 -0.10826
H31 H 0.59305 0.88872 -0.17596
H32 H 0.51340 0.85119 -0.13345
C23 C 0.5044(3) 0.9650(3) 0.0831(3)
C24 C 0.5070(4) 0.9267(3) 0.1713(3)
H33 H 0.48650 0.87526 0.18005
H34 H 0.46164 0.97810 0.20553
H35 H 0.57468 0.90229 0.18458
C25 C 0.1734(3) 0.6615(3) 0.3799(2)
H36 H 0.16934 0.65752 0.32572
C26 C 0.1698(5) 0.6392(4) 0.5064(3)
H37 H 0.16118 0.61423 0.55983
C27 C 0.2242(3) 0.7972(3) 0.3564(3)
H38 H 0.17372 0.85982 0.37457
H39 H 0.21824 0.79549 0.29977
C28 C 0.3280(3) 0.7885(2) 0.3611(2)
C29 C 0.3380(3) 0.8497(2) 0.4096(2)
C30 C 0.4339(3) 0.8435(2) 0.4121(2)
C31 C 0.5190(3) 0.7749(2) 0.3666(2)
C32 C 0.5092(3) 0.7128(2) 0.3195(2)
C33 C 0.4126(3) 0.7199(3) 0.3167(2)
C34 C 0.2467(3) 0.9207(3) 0.4604(3)
H40 H 0.22291 0.98395 0.43205
H41 H 0.26510 0.92341 0.51192
H42 H 0.19388 0.89980 0.46966
C35 C 0.4461(3) 0.9077(3) 0.4648(3)
H43 H 0.51539 0.89774 0.45631
H44 H 0.42786 0.89188 0.52124
H45 H 0.40290 0.97448 0.45051
C36 C 0.6019(3) 0.6369(3) 0.2743(3)
H46 H 0.62292 0.57602 0.30654
H47 H 0.65555 0.65654 0.26459
H48 H 0.58618 0.62965 0.22307
C37 C 0.4024(4) 0.6513(3) 0.2682(3)
H49 H 0.41930 0.58985 0.29915
H50 H 0.44745 0.64226 0.21793
H51 H 0.33383 0.67771 0.25657
C38 C 0.6229(3) 0.7670(3) 0.3699(2)
H52 H 0.66435 0.74854 0.31765
H53 H 0.61679 0.82974 0.37986
C39 C 0.6903(3) 0.6187(3) 0.5492(3)
H54 H 0.67685 0.59530 0.60225
C40 C 0.7705(2) 0.6385(2) 0.4367(2)
H55 H 0.82132 0.63521 0.39404
O26 O 0.5511(7) 0.3850(7) 0.4692(4)
N16 N 0.1809(4) 0.9640(3) -0.0451(3)
N17 N 0.2106(4) 0.9848(4) 0.0714(4)
C41 C 0.1681(4) 0.9475(4) 0.0346(4)
H56 H 0.13279 0.91309 0.06154
C42 C 0.2531(5) 1.0295(5) 0.0141(6)
H57 H 0.28779 1.06346 0.02309
C43 C 0.2368(5) 1.0167(5) -0.0579(5)
H58 H 0.25925 1.03933 -0.10838
C44 C 0.1414(7) 0.9323(5) -0.1043(4)
H59 H 0.19675 0.88251 -0.13495
H60 H 0.10635 0.98653 -0.14093
H61 H 0.09548 0.90709 -0.07561
C45 C 0.2252(7) 0.9615(7) 0.1612(6)
H62 H 0.18808 0.92486 0.18697
H63 H 0.29644 0.92120 0.16577
C46 C 0.1921(9) 1.0443(7) 0.2015(7)
H64 H 0.22802 1.08112 0.17572
H65 H 0.20435 1.02671 0.25744
H66 H 0.12076 1.08279 0.19943
N7A N 0.5134(2) 1.37016(18) -0.02241(18)
N8A N 0.5727(3) 1.2200(2) -0.0616(3)
N9A N 0.4718(2) 1.25720(19) -0.0375(2)
C17A C 0.5939(3) 1.2907(3) -0.0512(3)
H26A H 0.65905 1.28629 -0.06275
C18A C 0.4379(3) 1.3461(2) -0.0142(3)
H27A H 0.37084 1.38556 0.00509
C19A C 0.4100(3) 1.2073(2) -0.0433(3)
H28A H 0.34661 1.23614 -0.00764
H29A H 0.39415 1.21763 -0.09885
C20A C 0.4611(3) 1.0988(2) -0.0207(3)
C21A C 0.4656(3) 1.0656(3) 0.0609(3)
C22A C 0.4309(4) 1.1373(3) 0.1255(3)
H30A H 0.37705 1.19729 0.10826
H31A H 0.40695 1.11128 0.17596
H32A H 0.48660 1.14881 0.13345
C23A C 0.4956(3) 1.0350(3) -0.0831(3)
C24A C 0.4930(4) 1.0733(3) -0.1713(3)
H33A H 0.51350 1.12474 -0.18005
H34A H 0.53836 1.02190 -0.20553
H35A H 0.42532 1.09771 -0.18458
Mo1A Mo 0.08173(2) 0.52050(2) -0.22247(2)
Mo2A Mo -0.17148(2) 0.63632(2) -0.23246(2)
Mo3A Mo -0.27195(2) 0.48017(2) -0.17575(2)
Mo4A Mo -0.08422(2) 0.25431(2) -0.14008(2)
Mo5A Mo 0.13530(2) 0.29764(2) -0.12691(2)
Cu2A Cu -0.09578(3) 0.48858(3) -0.44393(3)
P1A P -0.02713(6) 0.39586(5) -0.28386(5)
P2A P -0.09373(6) 0.47120(6) -0.06635(5)
Na1A Na -0.07357(11) 0.68846(10) -0.08030(9)
O1A O -0.20862(16) 0.34105(15) -0.18257(14)
O2A O 0.00652(16) 0.40725(15) -0.37475(13)
O3A O -0.18542(19) 0.73400(16) -0.18584(16)
O4A O -0.13238(19) 0.23610(16) -0.04094(15)
O5A O -0.07341(16) 0.54516(15) -0.13005(14)
O6A O -0.05670(19) 0.14723(16) -0.17807(15)
O7A O -0.26771(16) 0.59986(15) -0.16409(14)
O8A O 0.22720(18) 0.22991(17) -0.19928(16)
O9A O -0.02891(16) 0.29835(14) -0.26104(13)
O10A O 0.18977(17) 0.24877(16) -0.03896(15)
O11A O -0.36280(17) 0.48695(16) -0.09451(14)
O12A O 0.04271(16) 0.24233(15) -0.11916(14)
O13A O -0.22943(19) 0.68518(17) -0.31753(15)
O14A O 0.00387(16) 0.39734(15) -0.03588(13)
O15A O -0.03303(17) 0.58019(15) -0.44468(14)
H1A H -0.07286 0.63986 -0.45335
H2A H -0.01080 0.57748 -0.40049
O16A O 0.04890(16) 0.39941(15) -0.23359(14)
O17A O -0.14328(16) 0.41997(15) -0.10263(14)
O18A O 0.15152(16) 0.41693(15) -0.14307(14)
O19A O -0.13452(15) 0.47974(14) -0.26340(14)
O20A O 0.17305(18) 0.50383(18) -0.30369(15)
O21A O -0.17458(17) 0.52779(16) 0.00460(14)
H3A H -0.14553 0.53439 0.03892
O22A O 0.07539(18) 0.61408(17) -0.17561(15)
O23A O -0.33639(17) 0.51328(16) -0.25832(14)
O24A O -0.03230(16) 0.59005(15) -0.28394(14)
O25A O 0.0128(3) 0.7870(2) -0.0872(2)
H4A H 0.04373 0.77246 -0.04560
H5A H 0.05960 0.77216 -0.12749
N10A N -0.1514(2) 0.3915(2) -0.44256(19)
N11A N -0.2009(4) 0.2930(4) -0.4872(2)
N12A N -0.2017(2) 0.2791(2) -0.4054(2)
N13A N -0.6728(2) 0.3056(2) -0.43502(18)
N14A N -0.6198(2) 0.3165(3) -0.5079(2)
N15A N -0.7853(2) 0.4119(2) -0.50796(19)
C25A C -0.1734(3) 0.3385(3) -0.3799(2)
H36A H -0.16934 0.34248 -0.32572
C26A C -0.1698(5) 0.3608(4) -0.5064(3)
H37A H -0.16118 0.38577 -0.55983
C27A C -0.2242(3) 0.2028(3) -0.3564(3)
H38A H -0.17372 0.14018 -0.37457
H39A H -0.21824 0.20451 -0.29977
C28A C -0.3280(3) 0.2115(2) -0.3611(2)
C29A C -0.3380(3) 0.1503(2) -0.4096(2)
C30A C -0.4339(3) 0.1565(2) -0.4121(2)
C31A C -0.5190(3) 0.2251(2) -0.3666(2)
C32A C -0.5092(3) 0.2872(2) -0.3195(2)
C33A C -0.4126(3) 0.2801(3) -0.3167(2)
C34A C -0.2467(3) 0.0793(3) -0.4604(3)
H40A H -0.22291 0.01605 -0.43205
H41A H -0.26510 0.07659 -0.51192
H42A H -0.19388 0.10020 -0.46966
C35A C -0.4461(3) 0.0923(3) -0.4648(3)
H43A H -0.51539 0.10226 -0.45631
H44A H -0.42786 0.10812 -0.52124
H45A H -0.40290 0.02552 -0.45051
C36A C -0.6019(3) 0.3631(3) -0.2743(3)
H46A H -0.62292 0.42398 -0.30654
H47A H -0.65555 0.34346 -0.26459
H48A H -0.58618 0.37035 -0.22307
C37A C -0.4024(4) 0.3487(3) -0.2682(3)
H49A H -0.41930 0.41015 -0.29915
H50A H -0.44745 0.35774 -0.21793
H51A H -0.33383 0.32229 -0.25657
C38A C -0.6229(3) 0.2330(3) -0.3699(2)
H52A H -0.66435 0.25146 -0.31765
H53A H -0.61679 0.17026 -0.37986
C39A C -0.6903(3) 0.3813(3) -0.5492(3)
H54A H -0.67685 0.40470 -0.60225
C40A C -0.7705(2) 0.3615(2) -0.4367(2)
H55A H -0.82132 0.36479 -0.39404
N1A N 0.4044(2) 0.56533(19) -0.08575(17)
N2A N 0.3474(2) 0.63186(19) -0.20086(18)
N3A N 0.2634(2) 0.6566(2) -0.1440(2)
N4A N 0.1801(3) 1.1342(2) -0.39691(19)
N5A N 0.2668(3) 1.1158(2) -0.4493(2)
N6A N 0.1326(3) 1.2323(2) -0.5041(2)
C1A C 0.4295(3) 0.5786(2) -0.1656(2)
H6A H 0.49537 0.55382 -0.19252
C2A C 0.3015(3) 0.6144(3) -0.0762(2)
H7A H 0.26176 0.61756 -0.02590
C3A C 0.3373(3) 0.6654(3) -0.2871(2)
H8A H 0.40294 0.63498 -0.31970
H9A H 0.29156 0.64596 -0.30547
C4A C 0.2970(3) 0.7755(2) -0.2999(2)
C5A C 0.1956(3) 0.8326(3) -0.3099(2)
C6A C 0.1591(3) 0.9346(3) -0.3200(2)
C7A C 0.2232(3) 0.9757(3) -0.3144(2)
C8A C 0.3250(3) 0.9183(3) -0.3054(2)
C9A C 0.3628(3) 0.8163(3) -0.2993(2)
C10A C 0.4745(3) 0.7541(3) -0.2920(3)
H10A H 0.48634 0.75227 -0.23697
H11A H 0.49373 0.68936 -0.30576
H12A H 0.51405 0.78129 -0.32872
C11A C 0.1234(4) 0.7888(3) -0.3100(3)
H13A H 0.15004 0.72446 -0.28370
H14A H 0.05870 0.82828 -0.28099
H15A H 0.11555 0.78598 -0.36526
C12A C 0.0513(3) 0.9974(3) -0.3374(3)
H16A H 0.04859 1.05289 -0.37297
H17A H 0.02888 0.96049 -0.36333
H18A H 0.00808 1.01862 -0.28712
C13A C 0.3956(4) 0.9631(3) -0.3028(3)
H19A H 0.36203 1.03168 -0.31687
H20A H 0.41421 0.95219 -0.24880
H21A H 0.45536 0.93397 -0.34115
C14A C 0.1800(4) 1.0858(3) -0.3146(2)
H22A H 0.21952 1.10136 -0.28386
H23A H 0.11103 1.11110 -0.28707
C15A C 0.1024(3) 1.2035(3) -0.4306(3)
H24A H 0.03557 1.22849 -0.40580
C16A C 0.2334(3) 1.1764(3) -0.5122(3)
H25A H 0.27615 1.18042 -0.55910
Cu1* Cu -0.50000 0.50000 0.00000
Cu1** Cu 0.50000 1.50000 0.00000
Cu2* Cu -0.90422(3) 0.51142(3) -0.55607(3)
Cu2** Cu 0.09578(3) 0.51142(3) -0.55607(3)
Cu2A* Cu -0.09578(3) 0.48858(3) 0.55607(3)
Cu2A** Cu 0.90422(3) 0.48858(3) 0.55607(3)
O11A* O 0.63720(17) 0.48695(16) -0.09451(14)
O15* O 0.03303(17) 0.41981(15) -0.55532(14)
O15A* O -0.03303(17) 0.58019(15) 0.55532(14)
N7A* N 0.5134(2) 0.37016(18) -0.02241(18)
N15* N -0.2147(2) 0.5881(2) -0.49204(19)
N15A* N 0.2147(2) 0.4119(2) 0.49204(19)
#END
