
#######################################################################
#
#                 Cambridge Crystallographic Data Centre
#                                CCDC
#
#######################################################################
#
# If this CIF has been generated from an entry in the Cambridge
# Structural Database, then it will include bibliographic, chemical,
# crystal, experimental, refinement or atomic coordinate data resulting
# from the CCDC's data processing and validation procedures.
#
#######################################################################

data_CSD_CIF_UQERIT
_audit_creation_date 2016-06-29
_audit_creation_method CSD-ConQuest-V1
_database_code_CSD UQERIT
_database_code_depnum_ccdc_archive 'CCDC 1472662'
_chemical_formula_sum 'C50 H67 In2 N4 O26.5'
_chemical_formula_moiety
;
(C40 H28 In2 O20 2-)n,2n(C3 H7 N1 O1),2n(C2 H8 N1 1+),4.5n(H2 O1)
;
_journal_coden_Cambridge 580
_journal_volume 117
_journal_year 2016
_journal_page_first 513
_journal_name_full 'Polyhedron '
loop_
_publ_author_name
"Xiao-Lei Chen"
"Yu Pan"
"Xue-Zhi Song"
_chemical_name_systematic
;
catena-[bis(dimethylammonium) 
bis(\m-5-(4-(3,5-dicarboxyphenoxy)butoxy)isophthalato)-di-indium 
N,N-dimethylformamide solvate hydrate]
;
_chemical_name_common
;
InMOF-1
;
_cell_volume   2936.932
_exptl_crystal_colour 'colorless'
_exptl_crystal_density_diffrn 1.558
_exptl_crystal_description 'block'
_diffrn_ambient_temperature 188
#These two values have been output from a single CSD field.
_refine_ls_R_factor_gt 0.0717
_refine_ls_wR_factor_gt 0.0717
_symmetry_cell_setting triclinic
_symmetry_space_group_name_H-M 'P -1'
_symmetry_Int_Tables_number 2
loop_
_symmetry_equiv_pos_site_id
_symmetry_equiv_pos_as_xyz
1 x,y,z
2 -x,-y,-z
_cell_length_a 12.7593(9)
_cell_length_b 15.0296(10)
_cell_length_c 16.9098(12)
_cell_angle_alpha 114.509(1)
_cell_angle_beta 94.816(1)
_cell_angle_gamma 90.432(1)
_cell_formula_units_Z 2
loop_
_atom_type_symbol
_atom_type_radius_bond
C 0.68
H 0.23
In 1.42
N 0.68
O 0.68
loop_
_atom_site_label
_atom_site_type_symbol
_atom_site_fract_x
_atom_site_fract_y
_atom_site_fract_z
C1 C -0.1601(7) 0.0405(6) 0.5925(5)
H1 H -0.13130 -0.02550 0.56840
H2 H -0.23770 0.03310 0.58040
C2 C -0.1299(7) 0.0910(6) 0.6905(5)
H3 H -0.05400 0.11060 0.70080
H4 H -0.14070 0.04350 0.71600
C3 C -0.1918(6) 0.1813(6) 0.7379(5)
H5 H -0.17460 0.23340 0.71900
H6 H -0.26830 0.16460 0.72410
C4 C -0.1624(6) 0.2166(5) 0.8351(4)
H7 H -0.17360 0.16250 0.85290
H8 H -0.08720 0.23870 0.84950
C5 C -0.2145(5) 0.3339(5) 0.9698(4)
C6 C -0.1502(5) 0.2930(5) 1.0159(4)
H9 H -0.11170 0.23710 0.98560
C7 C -0.1432(5) 0.3355(5) 1.1068(4)
C8 C -0.1976(5) 0.4184(5) 1.1520(5)
H10 H -0.19290 0.44710 1.21400
C9 C -0.2600(5) 0.4589(5) 1.1034(5)
C10 C -0.2679(5) 0.4163(5) 1.0134(5)
H11 H -0.31050 0.44410 0.98140
C11 C -0.3165(5) 0.5497(5) 1.1507(5)
C12 C -0.0702(6) 0.2924(5) 1.1541(5)
C13 C 0.2238(6) 0.0831(6) 0.1567(6)
C14 C 0.2947(6) 0.0032(5) 0.1077(5)
C15 C 0.3004(6) -0.0206(6) 0.0197(5)
H12 H 0.26340 0.01560 -0.00740
C16 C 0.3607(6) -0.0974(6) -0.0284(5)
C17 C 0.4099(6) -0.1526(5) 0.0114(5)
H13 H 0.44780 -0.20770 -0.02220
C18 C 0.4045(6) -0.1286(5) 0.0979(5)
C19 C 0.3466(5) -0.0487(5) 0.1492(5)
H14 H 0.34340 -0.03120 0.20980
C20 C 0.4587(6) -0.1885(5) 0.1419(5)
C21 C 0.3364(8) -0.0596(6) -0.1532(5)
H15 H 0.36800 0.00720 -0.11910
H16 H 0.25890 -0.05670 -0.15380
C22 C 0.3679(7) -0.0998(6) -0.2454(5)
H17 H 0.44500 -0.10700 -0.24360
H18 H 0.35110 -0.05210 -0.27050
C23 C 0.3132(6) -0.1985(6) -0.3051(5)
H19 H 0.33650 -0.24840 -0.28420
H20 H 0.23620 -0.19370 -0.30220
C24 C 0.3376(7) -0.2307(6) -0.3990(5)
H21 H 0.30890 -0.18480 -0.42280
H22 H 0.41470 -0.23240 -0.40270
C25 C 0.3005(6) -0.3732(6) -0.5344(5)
C26 C 0.3595(6) -0.3351(6) -0.5794(5)
H23 H 0.39660 -0.27350 -0.54960
C27 C 0.3634(6) -0.3891(6) -0.6695(5)
C28 C 0.3083(6) -0.4790(6) -0.7146(5)
H24 H 0.30910 -0.51330 -0.77600
C29 C 0.2525(5) -0.5175(5) -0.6686(5)
C30 C 0.2475(6) -0.4658(5) -0.5781(5)
H25 H 0.20900 -0.49280 -0.54700
C31 C 0.1964(5) -0.6151(5) -0.7128(5)
C32 C 0.4338(5) -0.3506(6) -0.7151(5)
O1 O -0.2264(4) 0.2955(4) 0.8805(3)
O2 O -0.3553(4) 0.5963(4) 1.1069(4)
O3 O -0.3262(4) 0.5824(4) 1.2307(3)
O4 O -0.0556(4) 0.3289(4) 1.2364(3)
O5 O -0.0178(4) 0.2205(4) 1.1091(3)
O6 O 0.1665(5) 0.1199(4) 0.1147(4)
O7 O 0.2212(5) 0.1133(4) 0.2377(4)
O8 O 0.4715(4) -0.1571(4) 0.2223(3)
O9 O 0.4952(4) -0.2694(4) 0.0931(3)
O10 O 0.3743(5) -0.1248(4) -0.1144(3)
O11 O 0.2885(4) -0.3275(4) -0.4476(3)
O12 O 0.1780(5) -0.6538(4) -0.7940(3)
O13 O 0.1671(4) -0.6584(4) -0.6677(3)
O14 O 0.4347(4) -0.3931(4) -0.7976(3)
O15 O 0.4961(4) -0.2789(4) -0.6723(4)
C33 C -0.0264(6) 0.1205(6) 0.2894(5)
C34 C -0.0825(6) 0.0687(5) 0.3313(5)
C35 C -0.0763(6) 0.1063(6) 0.4217(5)
H26 H -0.03570 0.16510 0.45600
C36 C -0.1304(6) 0.0574(5) 0.4630(5)
C37 C -0.1914(6) -0.0267(5) 0.4116(5)
H27 H -0.22830 -0.06000 0.43850
C38 C -0.1992(5) -0.0625(5) 0.3215(4)
C39 C -0.1454(5) -0.0173(5) 0.2812(5)
H28 H -0.15020 -0.04360 0.21930
C40 C -0.2728(5) -0.1489(5) 0.2693(5)
O16 O -0.0273(4) 0.0874(4) 0.2070(3)
O17 O 0.0255(5) 0.1997(4) 0.3347(4)
O18 O -0.2976(4) -0.1718(4) 0.1907(3)
O19 O -0.3122(4) -0.1940(4) 0.3093(3)
O20 O -0.1177(5) 0.0996(4) 0.5518(3)
In1 In 0.08178(4) 0.21821(4) 0.22132(3)
In2 In -0.42876(4) -0.28934(3) 0.20879(3)
C41 C -0.0283(11) 0.3694(10) 0.6604(9)
C42 C -0.0436(8) 0.4389(7) 0.8206(7)
C43 C 0.0757(8) 0.3078(7) 0.7512(6)
N1 N 0.0060(6) 0.3705(6) 0.7450(5)
O21 O 0.1022(6) 0.3029(6) 0.8210(5)
C44 C 0.5534(12) -0.5987(11) -0.750(1)
C45 C 0.4268(11) -0.7279(10) -0.7583(9)
C46 C 0.4888(10) -0.5977(9) -0.6181(8)
N2 N 0.4912(7) -0.6385(6) -0.7029(5)
O22 O 0.4338(7) -0.6345(6) -0.5781(5)
C47 C 0.1421(8) 0.3644(7) 1.0150(6)
C48 C 0.2806(14) 0.2418(11) 1.0023(10)
N3 N 0.2069(8) 0.2848(7) 0.9646(6)
C49 C 0.2927(14) -0.6434(13) -0.4248(11)
C50 C 0.2651(19) -0.8005(18) -0.5517(16)
N4 N 0.2619(10) -0.6992(9) -0.5226(8)
O23 O -0.0440(8) -0.1090(7) 0.0683(7)
O24 O 0.0601(13) 0.3872(11) 0.5016(10)
O25 O 0.4291(14) 0.4059(12) 1.0706(11)
O26 O -0.1364(10) 0.4243(9) 1.3918(8)
O27 O 0.50000 0.00000 -0.50000
O2* O -0.3553(4) -0.4037(4) 0.1069(4)
O3* O -0.3262(4) -0.4176(4) 0.2307(3)
O4* O -0.0556(4) 0.3289(4) 0.2364(3)
O5* O -0.0178(4) 0.2205(4) 0.1091(3)
O8* O -0.5285(4) -0.1571(4) 0.2223(3)
O9* O -0.5048(4) -0.2694(4) 0.0931(3)
O12* O 0.1780(5) 0.3462(4) 0.2060(3)
O13* O 0.1671(4) 0.3416(4) 0.3323(3)
O14* O -0.5653(4) -0.3931(4) 0.2024(3)
O15* O -0.5039(4) -0.2789(4) 0.3277(4)
In1* In 0.08178(4) -0.78179(4) -0.77868(3)
In1** In 0.08178(4) 0.21821(4) 1.22132(3)
In2* In -0.42876(4) 0.71066(3) 1.20879(3)
In2** In 0.57124(4) -0.28934(3) -0.79121(3)
In2*** In 0.57124(4) -0.28934(3) 0.20879(3)
#END
