
#######################################################################
#
#                 Cambridge Crystallographic Data Centre
#                                CCDC
#
#######################################################################
#
# If this CIF has been generated from an entry in the Cambridge
# Structural Database, then it will include bibliographic, chemical,
# crystal, experimental, refinement or atomic coordinate data resulting
# from the CCDC's data processing and validation procedures.
#
#######################################################################

data_CSD_CIF_UQOLUJ
_audit_creation_date 2016-06-29
_audit_creation_method CSD-ConQuest-V1
_database_code_CSD UQOLUJ
_database_code_depnum_ccdc_archive 'CCDC 1007272'
_chemical_formula_sum 'C102 H60 In3 N5 O16'
_chemical_formula_moiety
;
(C100 H52 In3 N4 O16 1-)n,C2 H8 N1 1+
;
_journal_coden_Cambridge 4
_journal_volume 136
_journal_year 2014
_journal_page_first 15881
_journal_name_full 'J.Am.Chem.Soc. '
loop_
_publ_author_name
"J.A.Johnson"
"Xu Zhang"
"T.C.Reeson"
"Yu-Sheng Chen"
"Jian Zhang"
_chemical_name_systematic
;
catena-[dimethylammonium 
(\m-5,10,15,20-tetrakis(4,4''-dicarboxy-1,1':3',1''-terphenyl-5'-yl)porphyrina
to)-tri-indium unknown solvate]
;
_chemical_name_common
;
UNLPF-10_1
;
_cell_volume  16452.655
_exptl_crystal_colour 'red'
_exptl_crystal_density_diffrn 0.386
_exptl_special_details
;
The identity of the cation is unclear

;
_exptl_crystal_description 'Octahedron'
_diffrn_ambient_temperature 100
_diffrn_radiation_probe x-ray
_diffrn_source synchrotron
_refine_special_details
;
Disordered cation and solvent molecules were not modelled and the disordered 
density was taken into account using the SQUEEZE/PLATON procedure.
;
#These two values have been output from a single CSD field.
_refine_ls_R_factor_gt 0.099
_refine_ls_wR_factor_gt 0.099
_symmetry_cell_setting orthorhombic
_symmetry_space_group_name_H-M 'P n n m'
_symmetry_Int_Tables_number 58
loop_
_symmetry_equiv_pos_site_id
_symmetry_equiv_pos_as_xyz
1 x,y,z
2 -x,-y,z
3 1/2-x,1/2+y,1/2-z
4 1/2+x,1/2-y,1/2-z
5 -x,-y,-z
6 x,y,-z
7 -1/2+x,-1/2-y,-1/2+z
8 -1/2-x,-1/2+y,-1/2+z
_cell_length_a 23.881(2)
_cell_length_b 23.915(2)
_cell_length_c 28.808(2)
_cell_angle_alpha 90
_cell_angle_beta 90
_cell_angle_gamma 90
_cell_formula_units_Z 2
loop_
_atom_type_symbol
_atom_type_radius_bond
C 0.68
H 0.23
In 1.42
N 0.68
O 0.68
loop_
_atom_site_label
_atom_site_type_symbol
_atom_site_fract_x
_atom_site_fract_y
_atom_site_fract_z
In1 In 0.50000 0.50000 0.25017(2)
In2 In 0.50000 0.00000 0.50000
O1 O 0.08447(14) 0.03429(14) 0.23517(16)
O2 O 0.06192(15) 0.02184(13) 0.31009(15)
O3 O 0.46611(14) 0.41516(14) 0.23554(15)
O4 O 0.47874(13) 0.43815(14) 0.30993(15)
N1 N 0.4403(3) 0.0593(3) 0.50000
N2 N 0.50000 0.00000 0.4302(3)
C1 C 0.46275(17) 0.4050(2) 0.2774(3)
C2 C 0.44234(17) 0.34685(19) 0.2941(2)
C3 C 0.4207(2) 0.3116(2) 0.2578(2)
H1 H 0.41950 0.32310 0.22700
C4 C 0.4013(2) 0.2585(2) 0.2720(2)
H2 H 0.38520 0.23440 0.25040
C5 C 0.40613(19) 0.2428(2) 0.3164(2)
C6 C 0.4297(2) 0.2769(2) 0.3517(2)
H3 H 0.43300 0.26400 0.38200
C7 C 0.4480(2) 0.3317(2) 0.3391(2)
H4 H 0.46310 0.35600 0.36100
C8 C 0.3862(2) 0.1850(2) 0.3331(2)
C9 C 0.3353(2) 0.1649(2) 0.3180(2)
H5 H 0.31440 0.18570 0.29690
C10 C 0.3148(2) 0.1142(2) 0.3340(2)
C11 C 0.3455(2) 0.0842(2) 0.36534(19)
H6 H 0.33120 0.05100 0.37720
C12 C 0.3973(2) 0.1025(2) 0.3796(2)
C13 C 0.41544(18) 0.1550(2) 0.36550(18)
H7 H 0.44790 0.17000 0.37830
C14 C 0.25780(19) 0.0947(2) 0.3176(2)
C15 C 0.2416(2) 0.0987(2) 0.2719(3)
H8 H 0.26610 0.11390 0.25010
C16 C 0.1884(3) 0.0801(2) 0.2580(2)
H9 H 0.17650 0.08210 0.22730
C17 C 0.15290(19) 0.05738(18) 0.2947(2)
C18 C 0.1698(2) 0.0525(2) 0.3385(2)
H10 H 0.14610 0.03740 0.36090
C19 C 0.2233(2) 0.0705(2) 0.3505(2)
H11 H 0.23600 0.06620 0.38080
C20 C 0.0958(2) 0.0379(2) 0.2769(3)
C21 C 0.42783(18) 0.07250(19) 0.4174(2)
C22 C 0.4165(2) 0.0834(2) 0.4611(2)
C23 C 0.3746(2) 0.1256(2) 0.47774(17)
H12 H 0.35240 0.14810 0.45890
C24 C 0.46706(19) 0.0320(2) 0.3991(3)
C25 C 0.4819(2) 0.0184(2) 0.3518(3)
H13 H 0.46650 0.03470 0.32550
O1A O 0.91553(14) -0.03429(14) 0.23517(16)
O2A O 0.93808(15) -0.02184(13) 0.31009(15)
O3A O 0.53389(14) -0.41516(14) 0.23554(15)
O4A O 0.52126(13) -0.43815(14) 0.30993(15)
N1A N 0.5597(3) -0.0593(3) 0.50000
C1A C 0.53725(17) -0.4050(2) 0.2774(3)
C2A C 0.55766(17) -0.34685(19) 0.2941(2)
C3A C 0.5793(2) -0.3116(2) 0.2578(2)
H1A H 0.58050 -0.32310 0.22700
C4A C 0.5987(2) -0.2585(2) 0.2720(2)
H2A H 0.61480 -0.23440 0.25040
C5A C 0.59387(19) -0.2428(2) 0.3164(2)
C6A C 0.5703(2) -0.2769(2) 0.3517(2)
H3A H 0.56700 -0.26400 0.38200
C7A C 0.5520(2) -0.3317(2) 0.3391(2)
H4A H 0.53690 -0.35600 0.36100
C8A C 0.6138(2) -0.1850(2) 0.3331(2)
C9A C 0.6647(2) -0.1649(2) 0.3180(2)
H5A H 0.68560 -0.18570 0.29690
C10A C 0.6852(2) -0.1142(2) 0.3340(2)
C11A C 0.6545(2) -0.0842(2) 0.36534(19)
H6A H 0.66880 -0.05100 0.37720
C12A C 0.6027(2) -0.1025(2) 0.3796(2)
C13A C 0.58456(18) -0.1550(2) 0.36550(18)
H7A H 0.55210 -0.17000 0.37830
C14A C 0.74220(19) -0.0947(2) 0.3176(2)
C15A C 0.7584(2) -0.0987(2) 0.2719(3)
H8A H 0.73390 -0.11390 0.25010
C16A C 0.8116(3) -0.0801(2) 0.2580(2)
H9A H 0.82350 -0.08210 0.22730
C17A C 0.84710(19) -0.05738(18) 0.2947(2)
C18A C 0.8302(2) -0.0525(2) 0.3385(2)
H10A H 0.85390 -0.03740 0.36090
C19A C 0.7767(2) -0.0705(2) 0.3505(2)
H11A H 0.76400 -0.06620 0.38080
C20A C 0.9042(2) -0.0379(2) 0.2769(3)
C21A C 0.57217(18) -0.07250(19) 0.4174(2)
C22A C 0.5835(2) -0.0834(2) 0.4611(2)
C23A C 0.6254(2) -0.1256(2) 0.47774(17)
H12A H 0.64760 -0.14810 0.45890
C24A C 0.53294(19) -0.0320(2) 0.3991(3)
C25A C 0.5181(2) -0.0184(2) 0.3518(3)
H13A H 0.53350 -0.03470 0.32550
O1D O 0.91553(14) -0.03429(14) 0.76483(16)
O2D O 0.93808(15) -0.02184(13) 0.68991(15)
O3D O 0.53389(14) -0.41516(14) 0.76446(15)
O4D O 0.52126(13) -0.43815(14) 0.69007(15)
N2D N 0.50000 0.00000 0.5698(3)
C1D C 0.53725(17) -0.4050(2) 0.7226(3)
C2D C 0.55766(17) -0.34685(19) 0.7059(2)
C3D C 0.5793(2) -0.3116(2) 0.7422(2)
H1D H 0.58050 -0.32310 0.77300
C4D C 0.5987(2) -0.2585(2) 0.7280(2)
H2D H 0.61480 -0.23440 0.74960
C5D C 0.59387(19) -0.2428(2) 0.6836(2)
C6D C 0.5703(2) -0.2769(2) 0.6483(2)
H3D H 0.56700 -0.26400 0.61800
C7D C 0.5520(2) -0.3317(2) 0.6609(2)
H4D H 0.53690 -0.35600 0.63900
C8D C 0.6138(2) -0.1850(2) 0.6669(2)
C9D C 0.6647(2) -0.1649(2) 0.6820(2)
H5D H 0.68560 -0.18570 0.70310
C10D C 0.6852(2) -0.1142(2) 0.6660(2)
C11D C 0.6545(2) -0.0842(2) 0.63466(19)
H6D H 0.66880 -0.05100 0.62280
C12D C 0.6027(2) -0.1025(2) 0.6204(2)
C13D C 0.58456(18) -0.1550(2) 0.63450(18)
H7D H 0.55210 -0.17000 0.62170
C14D C 0.74220(19) -0.0947(2) 0.6824(2)
C15D C 0.7584(2) -0.0987(2) 0.7281(3)
H8D H 0.73390 -0.11390 0.74990
C16D C 0.8116(3) -0.0801(2) 0.7420(2)
H9D H 0.82350 -0.08210 0.77270
C17D C 0.84710(19) -0.05738(18) 0.7053(2)
C18D C 0.8302(2) -0.0525(2) 0.6615(2)
H10D H 0.85390 -0.03740 0.63910
C19D C 0.7767(2) -0.0705(2) 0.6495(2)
H11D H 0.76400 -0.06620 0.61920
C20D C 0.9042(2) -0.0379(2) 0.7231(3)
C21D C 0.57217(18) -0.07250(19) 0.5826(2)
C22D C 0.5835(2) -0.0834(2) 0.5389(2)
C23D C 0.6254(2) -0.1256(2) 0.52226(17)
H12D H 0.64760 -0.14810 0.54110
C24D C 0.53294(19) -0.0320(2) 0.6009(3)
C25D C 0.5181(2) -0.0184(2) 0.6482(3)
H13D H 0.53350 -0.03470 0.67450
O1E O 0.08447(14) 0.03429(14) 0.76483(16)
O2E O 0.06192(15) 0.02184(13) 0.68991(15)
O3E O 0.46611(14) 0.41516(14) 0.76446(15)
O4E O 0.47874(13) 0.43815(14) 0.69007(15)
C1E C 0.46275(17) 0.4050(2) 0.7226(3)
C2E C 0.44234(17) 0.34685(19) 0.7059(2)
C3E C 0.4207(2) 0.3116(2) 0.7422(2)
H1E H 0.41950 0.32310 0.77300
C4E C 0.4013(2) 0.2585(2) 0.7280(2)
H2E H 0.38520 0.23440 0.74960
C5E C 0.40613(19) 0.2428(2) 0.6836(2)
C6E C 0.4297(2) 0.2769(2) 0.6483(2)
H3E H 0.43300 0.26400 0.61800
C7E C 0.4480(2) 0.3317(2) 0.6609(2)
H4E H 0.46310 0.35600 0.63900
C8E C 0.3862(2) 0.1850(2) 0.6669(2)
C9E C 0.3353(2) 0.1649(2) 0.6820(2)
H5E H 0.31440 0.18570 0.70310
C10E C 0.3148(2) 0.1142(2) 0.6660(2)
C11E C 0.3455(2) 0.0842(2) 0.63466(19)
H6E H 0.33120 0.05100 0.62280
C12E C 0.3973(2) 0.1025(2) 0.6204(2)
C13E C 0.41544(18) 0.1550(2) 0.63450(18)
H7E H 0.44790 0.17000 0.62170
C14E C 0.25780(19) 0.0947(2) 0.6824(2)
C15E C 0.2416(2) 0.0987(2) 0.7281(3)
H8E H 0.26610 0.11390 0.74990
C16E C 0.1884(3) 0.0801(2) 0.7420(2)
H9E H 0.17650 0.08210 0.77270
C17E C 0.15290(19) 0.05738(18) 0.7053(2)
C18E C 0.1698(2) 0.0525(2) 0.6615(2)
H10E H 0.14610 0.03740 0.63910
C19E C 0.2233(2) 0.0705(2) 0.6495(2)
H11E H 0.23600 0.06620 0.61920
C20E C 0.0958(2) 0.0379(2) 0.7231(3)
C21E C 0.42783(18) 0.07250(19) 0.5826(2)
C22E C 0.4165(2) 0.0834(2) 0.5389(2)
C23E C 0.3746(2) 0.1256(2) 0.52226(17)
H12E H 0.35240 0.14810 0.54110
C24E C 0.46706(19) 0.0320(2) 0.6009(3)
C25E C 0.4819(2) 0.0184(2) 0.6482(3)
H13E H 0.46650 0.03470 0.67450
In1D In 0.50000 0.50000 0.74983(2)
In1* In 0.50000 -0.50000 0.25017(2)
In1B In 0.00000 0.00000 0.24983(2)
In1B* In 1.00000 0.00000 0.24983(2)
In1D* In 0.50000 -0.50000 0.74983(2)
In1F In 0.00000 0.00000 0.75017(2)
In1F* In 1.00000 0.00000 0.75017(2)
O1B O 0.41553(14) 0.53429(14) 0.26483(16)
O1C O 0.58447(14) 0.46571(14) 0.26483(16)
O1F O 0.58447(14) 0.46571(14) 0.73517(16)
O1G O 0.41553(14) 0.53429(14) 0.73517(16)
O2B O 0.43808(15) 0.52184(13) 0.18991(15)
O2C O 0.56192(15) 0.47816(13) 0.18991(15)
O2F O 0.56192(15) 0.47816(13) 0.81009(15)
O2G O 0.43808(15) 0.52184(13) 0.81009(15)
O3A* O 0.53389(14) 0.58484(14) 0.23554(15)
O3D* O 0.53389(14) 0.58484(14) 0.76446(15)
O4A* O 0.52126(13) 0.56185(14) 0.30993(15)
O4D* O 0.52126(13) 0.56185(14) 0.69007(15)
#END
