
#######################################################################
#
#                 Cambridge Crystallographic Data Centre
#                                CCDC
#
#######################################################################
#
# If this CIF has been generated from an entry in the Cambridge
# Structural Database, then it will include bibliographic, chemical,
# crystal, experimental, refinement or atomic coordinate data resulting
# from the CCDC's data processing and validation procedures.
#
#######################################################################

data_CSD_CIF_UQOLUJ01
_audit_creation_date 2016-06-29
_audit_creation_method CSD-ConQuest-V1
_database_code_CSD UQOLUJ01
_database_code_depnum_ccdc_archive 'CCDC 1008172'
_chemical_formula_sum 'C102 H60 In3 N5 O16'
_chemical_formula_moiety
;
(C100 H52 In3 N4 O16 1-)n,C2 H8 N1 1+
;
_journal_coden_Cambridge 4
_journal_volume 136
_journal_year 2014
_journal_page_first 15881
_journal_name_full 'J.Am.Chem.Soc. '
loop_
_publ_author_name
"J.A.Johnson"
"Xu Zhang"
"T.C.Reeson"
"Yu-Sheng Chen"
"Jian Zhang"
_chemical_name_systematic
;
catena-[dimethylammonium 
(\m-5,10,15,20-tetrakis(4,4''-dicarboxylato-1,1':3',1''-terphenyl-5'-yl)porphy
rinato)-tri-indium unknown solvate]
;
_chemical_name_common
;
UNLPF-10_2
;
_cell_volume  17734.990
_exptl_crystal_colour 'red'
_exptl_crystal_density_diffrn 0.358
_exptl_special_details
;
The idenity of the cation is unclear

;
_exptl_crystal_description 'block'
_diffrn_ambient_temperature 296
_diffrn_radiation_probe x-ray
_diffrn_source synchrotron
_refine_special_details
;
Disordered cation and solvent molecules were not modelled and the disordered 
density was taken into account using the SQUEEZE/PLATON procedure.
;
#These two values have been output from a single CSD field.
_refine_ls_R_factor_gt 0.0958
_refine_ls_wR_factor_gt 0.0958
_symmetry_cell_setting orthorhombic
_symmetry_space_group_name_H-M 'P n n m'
_symmetry_Int_Tables_number 58
loop_
_symmetry_equiv_pos_site_id
_symmetry_equiv_pos_as_xyz
1 x,y,z
2 -x,-y,z
3 1/2-x,1/2+y,1/2-z
4 1/2+x,1/2-y,1/2-z
5 -x,-y,-z
6 x,y,-z
7 -1/2+x,-1/2-y,-1/2+z
8 -1/2-x,-1/2+y,-1/2+z
_cell_length_a 23.5482(16)
_cell_length_b 23.548
_cell_length_c 31.983(2)
_cell_angle_alpha 90
_cell_angle_beta 90
_cell_angle_gamma 90
_cell_formula_units_Z 2
loop_
_atom_type_symbol
_atom_type_radius_bond
C 0.68
H 0.23
In 1.42
N 0.68
O 0.68
loop_
_atom_site_label
_atom_site_type_symbol
_atom_site_fract_x
_atom_site_fract_y
_atom_site_fract_z
In1 In 0.50000 0.50000 0.25002(2)
In2 In 0.50000 0.00000 0.50000
O1 O 0.09001(18) 0.03198(18) 0.24006(15)
O2 O 0.06035(17) 0.01866(16) 0.30570(15)
O3 O 0.46824(19) 0.40964(16) 0.24004(16)
O4 O 0.48218(18) 0.44032(17) 0.30647(16)
N1 N 0.4418(2) 0.0581(2) 0.50000
N2 N 0.50000 0.00000 0.4378(2)
C1 C 0.4673(3) 0.4031(3) 0.2803(3)
C2 C 0.4486(2) 0.3425(2) 0.2953(2)
C3 C 0.4288(3) 0.3039(3) 0.2686(2)
H1 H 0.42870 0.31130 0.24000
C4 C 0.4079(2) 0.2513(2) 0.2841(2)
H2 H 0.39320 0.22480 0.26540
C5 C 0.4092(2) 0.2387(3) 0.3271(2)
C6 C 0.4326(3) 0.2810(3) 0.35334(19)
H3 H 0.43550 0.27390 0.38190
C7 C 0.4515(3) 0.3326(2) 0.3379(2)
H4 H 0.46580 0.36010 0.35590
C8 C 0.3873(3) 0.1846(2) 0.34303(17)
C9 C 0.3380(2) 0.1628(2) 0.32704(17)
H5 H 0.31940 0.18170 0.30550
C10 C 0.3155(2) 0.1127(3) 0.34277(17)
C11 C 0.3436(2) 0.0829(2) 0.37461(18)
H6 H 0.32840 0.04940 0.38530
C12 C 0.3946(2) 0.1043(2) 0.38998(16)
C13 C 0.4158(2) 0.1563(2) 0.37427(18)
H7 H 0.44920 0.17140 0.38510
C14 C 0.2606(2) 0.0912(2) 0.3266(2)
C15 C 0.2476(3) 0.0926(2) 0.2834(2)
H8 H 0.27410 0.10680 0.26450
C16 C 0.1952(3) 0.0728(3) 0.2690(2)
H9 H 0.18710 0.07390 0.24060
C17 C 0.1562(2) 0.0521(2) 0.2960(3)
C18 C 0.1672(3) 0.0494(2) 0.3388(2)
H10 H 0.13970 0.03520 0.35690
C19 C 0.2185(3) 0.0677(3) 0.3543(2)
H11 H 0.22610 0.06500 0.38280
C20 C 0.0986(3) 0.0333(2) 0.2784(3)
C21 C 0.4254(2) 0.0744(2) 0.4243(2)
C22 C 0.4139(2) 0.0859(2) 0.4661(2)
C23 C 0.3719(2) 0.1278(2) 0.47891(14)
H12 H 0.34950 0.15010 0.46150
C24 C 0.4653(2) 0.0345(2) 0.4104(2)
C25 C 0.4805(3) 0.0203(2) 0.3650(2)
H13 H 0.46480 0.03720 0.34140
O1A O 0.90999(18) -0.03198(18) 0.24006(15)
O2A O 0.93965(17) -0.01866(16) 0.30570(15)
O3A O 0.53176(19) -0.40964(16) 0.24004(16)
O4A O 0.51782(18) -0.44032(17) 0.30647(16)
N1A N 0.5582(2) -0.0581(2) 0.50000
C1A C 0.5327(3) -0.4031(3) 0.2803(3)
C2A C 0.5514(2) -0.3425(2) 0.2953(2)
C3A C 0.5712(3) -0.3039(3) 0.2686(2)
H1A H 0.57130 -0.31130 0.24000
C4A C 0.5921(2) -0.2513(2) 0.2841(2)
H2A H 0.60680 -0.22480 0.26540
C5A C 0.5908(2) -0.2387(3) 0.3271(2)
C6A C 0.5674(3) -0.2810(3) 0.35334(19)
H3A H 0.56450 -0.27390 0.38190
C7A C 0.5485(3) -0.3326(2) 0.3379(2)
H4A H 0.53420 -0.36010 0.35590
C8A C 0.6127(3) -0.1846(2) 0.34303(17)
C9A C 0.6620(2) -0.1628(2) 0.32704(17)
H5A H 0.68060 -0.18170 0.30550
C10A C 0.6845(2) -0.1127(3) 0.34277(17)
C11A C 0.6564(2) -0.0829(2) 0.37461(18)
H6A H 0.67160 -0.04940 0.38530
C12A C 0.6054(2) -0.1043(2) 0.38998(16)
C13A C 0.5842(2) -0.1563(2) 0.37427(18)
H7A H 0.55080 -0.17140 0.38510
C14A C 0.7394(2) -0.0912(2) 0.3266(2)
C15A C 0.7524(3) -0.0926(2) 0.2834(2)
H8A H 0.72590 -0.10680 0.26450
C16A C 0.8048(3) -0.0728(3) 0.2690(2)
H9A H 0.81290 -0.07390 0.24060
C17A C 0.8438(2) -0.0521(2) 0.2960(3)
C18A C 0.8328(3) -0.0494(2) 0.3388(2)
H10A H 0.86030 -0.03520 0.35690
C19A C 0.7815(3) -0.0677(3) 0.3543(2)
H11A H 0.77390 -0.06500 0.38280
C20A C 0.9014(3) -0.0333(2) 0.2784(3)
C21A C 0.5746(2) -0.0744(2) 0.4243(2)
C22A C 0.5861(2) -0.0859(2) 0.4661(2)
C23A C 0.6281(2) -0.1278(2) 0.47891(14)
H12A H 0.65050 -0.15010 0.46150
C24A C 0.5347(2) -0.0345(2) 0.4104(2)
C25A C 0.5195(3) -0.0203(2) 0.3650(2)
H13A H 0.53520 -0.03720 0.34140
O1D O 0.90999(18) -0.03198(18) 0.75994(15)
O2D O 0.93965(17) -0.01866(16) 0.69430(15)
O3D O 0.53176(19) -0.40964(16) 0.75996(16)
O4D O 0.51782(18) -0.44032(17) 0.69353(16)
N2D N 0.50000 0.00000 0.5622(2)
C1D C 0.5327(3) -0.4031(3) 0.7197(3)
C2D C 0.5514(2) -0.3425(2) 0.7047(2)
C3D C 0.5712(3) -0.3039(3) 0.7314(2)
H1D H 0.57130 -0.31130 0.76000
C4D C 0.5921(2) -0.2513(2) 0.7159(2)
H2D H 0.60680 -0.22480 0.73460
C5D C 0.5908(2) -0.2387(3) 0.6729(2)
C6D C 0.5674(3) -0.2810(3) 0.64666(19)
H3D H 0.56450 -0.27390 0.61810
C7D C 0.5485(3) -0.3326(2) 0.6621(2)
H4D H 0.53420 -0.36010 0.64410
C8D C 0.6127(3) -0.1846(2) 0.65697(17)
C9D C 0.6620(2) -0.1628(2) 0.67296(17)
H5D H 0.68060 -0.18170 0.69450
C10D C 0.6845(2) -0.1127(3) 0.65723(17)
C11D C 0.6564(2) -0.0829(2) 0.62539(18)
H6D H 0.67160 -0.04940 0.61470
C12D C 0.6054(2) -0.1043(2) 0.61002(16)
C13D C 0.5842(2) -0.1563(2) 0.62573(18)
H7D H 0.55080 -0.17140 0.61490
C14D C 0.7394(2) -0.0912(2) 0.6734(2)
C15D C 0.7524(3) -0.0926(2) 0.7166(2)
H8D H 0.72590 -0.10680 0.73550
C16D C 0.8048(3) -0.0728(3) 0.7310(2)
H9D H 0.81290 -0.07390 0.75940
C17D C 0.8438(2) -0.0521(2) 0.7040(3)
C18D C 0.8328(3) -0.0494(2) 0.6612(2)
H10D H 0.86030 -0.03520 0.64310
C19D C 0.7815(3) -0.0677(3) 0.6457(2)
H11D H 0.77390 -0.06500 0.61720
C20D C 0.9014(3) -0.0333(2) 0.7216(3)
C21D C 0.5746(2) -0.0744(2) 0.5757(2)
C22D C 0.5861(2) -0.0859(2) 0.5339(2)
C23D C 0.6281(2) -0.1278(2) 0.52109(14)
H12D H 0.65050 -0.15010 0.53850
C24D C 0.5347(2) -0.0345(2) 0.5896(2)
C25D C 0.5195(3) -0.0203(2) 0.6350(2)
H13D H 0.53520 -0.03720 0.65860
O1E O 0.09001(18) 0.03198(18) 0.75994(15)
O2E O 0.06035(17) 0.01866(16) 0.69430(15)
O3E O 0.46824(19) 0.40964(16) 0.75996(16)
O4E O 0.48218(18) 0.44032(17) 0.69353(16)
C1E C 0.4673(3) 0.4031(3) 0.7197(3)
C2E C 0.4486(2) 0.3425(2) 0.7047(2)
C3E C 0.4288(3) 0.3039(3) 0.7314(2)
H1E H 0.42870 0.31130 0.76000
C4E C 0.4079(2) 0.2513(2) 0.7159(2)
H2E H 0.39320 0.22480 0.73460
C5E C 0.4092(2) 0.2387(3) 0.6729(2)
C6E C 0.4326(3) 0.2810(3) 0.64666(19)
H3E H 0.43550 0.27390 0.61810
C7E C 0.4515(3) 0.3326(2) 0.6621(2)
H4E H 0.46580 0.36010 0.64410
C8E C 0.3873(3) 0.1846(2) 0.65697(17)
C9E C 0.3380(2) 0.1628(2) 0.67296(17)
H5E H 0.31940 0.18170 0.69450
C10E C 0.3155(2) 0.1127(3) 0.65723(17)
C11E C 0.3436(2) 0.0829(2) 0.62539(18)
H6E H 0.32840 0.04940 0.61470
C12E C 0.3946(2) 0.1043(2) 0.61002(16)
C13E C 0.4158(2) 0.1563(2) 0.62573(18)
H7E H 0.44920 0.17140 0.61490
C14E C 0.2606(2) 0.0912(2) 0.6734(2)
C15E C 0.2476(3) 0.0926(2) 0.7166(2)
H8E H 0.27410 0.10680 0.73550
C16E C 0.1952(3) 0.0728(3) 0.7310(2)
H9E H 0.18710 0.07390 0.75940
C17E C 0.1562(2) 0.0521(2) 0.7040(3)
C18E C 0.1672(3) 0.0494(2) 0.6612(2)
H10E H 0.13970 0.03520 0.64310
C19E C 0.2185(3) 0.0677(3) 0.6457(2)
H11E H 0.22610 0.06500 0.61720
C20E C 0.0986(3) 0.0333(2) 0.7216(3)
C21E C 0.4254(2) 0.0744(2) 0.5757(2)
C22E C 0.4139(2) 0.0859(2) 0.5339(2)
C23E C 0.3719(2) 0.1278(2) 0.52109(14)
H12E H 0.34950 0.15010 0.53850
C24E C 0.4653(2) 0.0345(2) 0.5896(2)
C25E C 0.4805(3) 0.0203(2) 0.6350(2)
H13E H 0.46480 0.03720 0.65860
In1D In 0.50000 0.50000 0.74998(2)
In1* In 0.50000 -0.50000 0.25002(2)
In1B In 0.00000 0.00000 0.24998(2)
In1B* In 1.00000 0.00000 0.24998(2)
In1D* In 0.50000 -0.50000 0.74998(2)
In1F In 0.00000 0.00000 0.75002(2)
In1F* In 1.00000 0.00000 0.75002(2)
O1B O 0.40999(18) 0.53198(18) 0.25994(15)
O1C O 0.59001(18) 0.46802(18) 0.25994(15)
O1F O 0.59001(18) 0.46802(18) 0.74006(15)
O1G O 0.40999(18) 0.53198(18) 0.74006(15)
O2B O 0.43965(17) 0.51866(16) 0.19430(15)
O2C O 0.56035(17) 0.48134(16) 0.19430(15)
O2F O 0.56035(17) 0.48134(16) 0.80570(15)
O2G O 0.43965(17) 0.51866(16) 0.80570(15)
O3A* O 0.53176(19) 0.59036(16) 0.24004(16)
O3D* O 0.53176(19) 0.59036(16) 0.75996(16)
O4A* O 0.51782(18) 0.55968(17) 0.30647(16)
O4D* O 0.51782(18) 0.55968(17) 0.69353(16)
#END
