
#######################################################################
#
#                 Cambridge Crystallographic Data Centre
#                                CCDC
#
#######################################################################
#
# If this CIF has been generated from an entry in the Cambridge
# Structural Database, then it will include bibliographic, chemical,
# crystal, experimental, refinement or atomic coordinate data resulting
# from the CCDC's data processing and validation procedures.
#
#######################################################################

data_CSD_CIF_UQUCUG
_audit_creation_date 2016-06-29
_audit_creation_method CSD-ConQuest-V1
_database_code_CSD UQUCUG
_database_code_depnum_ccdc_archive 'CCDC 982322'
_chemical_formula_sum 'C44 H29 Gd1 N4 O13 S4'
_chemical_formula_moiety
;
(C44 H26 Gd1 N4 O12 S4 1-)n,H3 O1 1+
;
_journal_coden_Cambridge 908
_journal_volume 12
_journal_year 2015
_journal_page_first 277
_journal_name_full 'J.Iran.Chem.Soc. '
loop_
_publ_author_name
"Wen-Tong Chen"
"Rong-Hua Hu"
"Hua-Long Chen"
"Xian Zhang"
"Hong-Ru Fu"
_chemical_name_systematic
;
catena-[(5,10,15,20-tetrakis(4-sulfonatophenyl)porphyrin)-gadolinium oxonium]
;
_cell_volume   2334.116
_exptl_crystal_colour 'red'
_exptl_crystal_density_diffrn 1.575
_exptl_special_details
;
We calculate some void space in the structure

;
_exptl_crystal_description 'Block'
_diffrn_ambient_temperature 123.2
#These two values have been output from a single CSD field.
_refine_ls_R_factor_gt 0.0693
_refine_ls_wR_factor_gt 0.0693
_symmetry_cell_setting tetragonal
_symmetry_space_group_name_H-M 'P 4/m c c'
_symmetry_Int_Tables_number 124
loop_
_symmetry_equiv_pos_site_id
_symmetry_equiv_pos_as_xyz
1 x,y,z
2 -x,-y,z
3 -y,x,z
4 y,-x,z
5 -x,y,1/2-z
6 x,-y,1/2-z
7 y,x,1/2-z
8 -y,-x,1/2-z
9 -x,-y,-z
10 x,y,-z
11 y,-x,-z
12 -y,x,-z
13 x,-y,-1/2+z
14 -x,y,-1/2+z
15 -y,-x,-1/2+z
16 y,x,-1/2+z
_cell_length_a 15.3873(18)
_cell_length_b 15.3873(18)
_cell_length_c 9.8582(14)
_cell_angle_alpha 90
_cell_angle_beta 90
_cell_angle_gamma 90
_cell_formula_units_Z 2
loop_
_atom_type_symbol
_atom_type_radius_bond
C 0.68
H 0.23
Gd 1.96
N 0.68
O 0.68
S 1.02
loop_
_atom_site_label
_atom_site_type_symbol
_atom_site_fract_x
_atom_site_fract_y
_atom_site_fract_z
Gd1 Gd -0.50000 -0.50000 -0.25000
S1 S -0.52522(7) -0.32110(7) 0.00000
N1 N -0.0320(3) -0.1298(3) 0.00000
O1 O -0.53088(17) -0.37425(18) -0.1239(2)
O2 O -0.5852(2) -0.2552(2) 0.00000
C1 C -0.4181(3) -0.2643(3) 0.00000
C2 C -0.3844(2) -0.2432(2) -0.1201(4)
H1 H -0.40930 -0.26200 -0.20100
C3 C -0.3133(2) -0.1937(2) -0.1184(4)
H2 H -0.28990 -0.17430 -0.19990
C4 C -0.2744(3) -0.1709(2) 0.00000
C5 C -0.1881(3) -0.1197(3) 0.00000
C6 C -0.1154(3) -0.1657(3) 0.00000
C7 C -0.1058(3) -0.2611(4) 0.00000
H3 H -0.15080 -0.30150 0.00000
C8 C -0.0181(4) -0.2796(4) 0.00000
H4 H 0.00720 -0.33450 0.00000
C9 C 0.0257(3) -0.1994(4) 0.00000
O3 O 0.00000 0.00000 0.25000
S1B S 0.32110(7) -0.52522(7) 0.00000
N1B N 0.1298(3) -0.0320(3) 0.00000
O1B O 0.37425(17) -0.53088(18) -0.1239(2)
O2B O 0.2552(2) -0.5852(2) 0.00000
C1B C 0.2643(3) -0.4181(3) 0.00000
C2B C 0.2432(2) -0.3844(2) -0.1201(4)
H1B H 0.26200 -0.40930 -0.20100
C3B C 0.1937(2) -0.3133(2) -0.1184(4)
H2B H 0.17430 -0.28990 -0.19990
C4B C 0.1709(3) -0.2744(2) 0.00000
C5B C 0.1197(3) -0.1881(3) 0.00000
C6B C 0.1657(3) -0.1154(3) 0.00000
C7B C 0.2611(3) -0.1058(4) 0.00000
H3B H 0.30150 -0.15080 0.00000
C8B C 0.2796(4) -0.0181(4) 0.00000
H4B H 0.33450 0.00720 0.00000
C9B C 0.1994(3) 0.0257(4) 0.00000
S1C S -0.32110(7) 0.52522(7) 0.00000
N1C N -0.1298(3) 0.0320(3) 0.00000
O1C O -0.37425(17) 0.53088(18) -0.1239(2)
O2C O -0.2552(2) 0.5852(2) 0.00000
C1C C -0.2643(3) 0.4181(3) 0.00000
C2C C -0.2432(2) 0.3844(2) -0.1201(4)
H1C H -0.26200 0.40930 -0.20100
C3C C -0.1937(2) 0.3133(2) -0.1184(4)
H2C H -0.17430 0.28990 -0.19990
C4C C -0.1709(3) 0.2744(2) 0.00000
C5C C -0.1197(3) 0.1881(3) 0.00000
C6C C -0.1657(3) 0.1154(3) 0.00000
C7C C -0.2611(3) 0.1058(4) 0.00000
H3C H -0.30150 0.15080 0.00000
C8C C -0.2796(4) 0.0181(4) 0.00000
H4C H -0.33450 -0.00720 0.00000
C9C C -0.1994(3) -0.0257(4) 0.00000
O1I O -0.53088(17) -0.37425(18) 0.1239(2)
C2I C -0.3844(2) -0.2432(2) 0.1201(4)
H1I H -0.40930 -0.26200 0.20100
C3I C -0.3133(2) -0.1937(2) 0.1184(4)
H2I H -0.28990 -0.17430 0.19990
O1J O -0.37425(17) 0.53088(18) 0.1239(2)
C2J C -0.2432(2) 0.3844(2) 0.1201(4)
H1J H -0.26200 0.40930 0.20100
C3J C -0.1937(2) 0.3133(2) 0.1184(4)
H2J H -0.17430 0.28990 0.19990
O1K O 0.37425(17) -0.53088(18) 0.1239(2)
C2K C 0.2432(2) -0.3844(2) 0.1201(4)
H1K H 0.26200 -0.40930 0.20100
C3K C 0.1937(2) -0.3133(2) 0.1184(4)
H2K H 0.17430 -0.28990 0.19990
S1A S 0.52522(7) 0.32110(7) 0.00000
N1A N 0.0320(3) 0.1298(3) 0.00000
O1A O 0.53088(17) 0.37425(18) -0.1239(2)
O2A O 0.5852(2) 0.2552(2) 0.00000
C1A C 0.4181(3) 0.2643(3) 0.00000
C2A C 0.3844(2) 0.2432(2) -0.1201(4)
H1A H 0.40930 0.26200 -0.20100
C3A C 0.3133(2) 0.1937(2) -0.1184(4)
H2A H 0.28990 0.17430 -0.19990
C4A C 0.2744(3) 0.1709(2) 0.00000
C5A C 0.1881(3) 0.1197(3) 0.00000
C6A C 0.1154(3) 0.1657(3) 0.00000
C7A C 0.1058(3) 0.2611(4) 0.00000
H3A H 0.15080 0.30150 0.00000
C8A C 0.0181(4) 0.2796(4) 0.00000
H4A H -0.00720 0.33450 0.00000
C9A C -0.0257(3) 0.1994(4) 0.00000
O1H O 0.53088(17) 0.37425(18) 0.1239(2)
C2H C 0.3844(2) 0.2432(2) 0.1201(4)
H1H H 0.40930 0.26200 0.20100
C3H C 0.3133(2) 0.1937(2) 0.1184(4)
H2H H 0.28990 0.17430 0.19990
Gd1* Gd -0.50000 0.50000 -0.25000
Gd1** Gd 0.50000 -0.50000 -0.25000
Gd1*** Gd 0.50000 0.50000 -0.25000
Gd1H Gd -0.50000 -0.50000 0.25000
Gd1H* Gd -0.50000 0.50000 0.25000
Gd1H** Gd 0.50000 -0.50000 0.25000
Gd1H*** Gd 0.50000 0.50000 0.25000
O1A* O -0.46912(17) -0.62575(18) -0.1239(2)
O1B* O -0.62575(17) -0.53088(18) -0.1239(2)
O1C* O -0.37425(17) -0.46912(18) -0.1239(2)
O1D O -0.46912(17) -0.37425(18) -0.3761(2)
O1E O -0.53088(17) -0.62575(18) -0.3761(2)
O1F O -0.37425(17) -0.53088(18) -0.3761(2)
O1G O -0.62575(17) -0.46912(18) -0.3761(2)
#END
