
#######################################################################
#
#                 Cambridge Crystallographic Data Centre
#                                CCDC
#
#######################################################################
#
# If this CIF has been generated from an entry in the Cambridge
# Structural Database, then it will include bibliographic, chemical,
# crystal, experimental, refinement or atomic coordinate data resulting
# from the CCDC's data processing and validation procedures.
#
#######################################################################

data_CSD_CIF_UQUZUC
_audit_creation_date 2011-06-24
_audit_creation_method CSD-ConQuest-V1
_database_code_CSD UQUZUC
_database_code_depnum_ccdc_archive 'CCDC 761894'
_chemical_formula_sum 'C17 H15 N4 O10 Pr1'
_chemical_formula_moiety
;
(C14 H10 N2 O10 Pr1 1-)n,n(C3 H5 N2 1+)
;
_journal_coeditor_code "IUCr JH2277"
_journal_coden_Cambridge 1370
_journal_volume 67
_journal_year 2011
_journal_page_first m569
_journal_name_full 'Acta Crystallogr.,Sect.E:Struct.Rep.Online '
loop_
_publ_author_name
"W.Zhang"
"Y.Chen"
"T.Lei"
"Y.Li"
"W.Li"
_chemical_name_systematic
;
catena-[imidazolium 
(\m~2~-pyridine-2,5-dicarboxylato)-diaqua-praseodymium(iii)]
;
_cell_volume   1014.279
_exptl_crystal_colour 'light green'
_exptl_crystal_density_diffrn 1.887
_exptl_crystal_description 'block'
_diffrn_ambient_temperature 293
#These two values have been output from a single CSD field.
_refine_ls_R_factor_gt 0.0152
_refine_ls_wR_factor_gt 0.0152
_symmetry_cell_setting triclinic
_symmetry_space_group_name_H-M 'P -1'
_symmetry_Int_Tables_number 2
loop_
_symmetry_equiv_pos_site_id
_symmetry_equiv_pos_as_xyz
1 x,y,z
2 -x,-y,-z
_cell_length_a 9.5444(19)
_cell_length_b 10.667(2)
_cell_length_c 11.222(2)
_cell_angle_alpha 64.63(3)
_cell_angle_beta 79.50(3)
_cell_angle_gamma 87.50(3)
_cell_formula_units_Z 2
loop_
_atom_type_symbol
_atom_type_radius_bond
C 0.68
H 0.23
N 0.68
O 0.68
Pr 2.03
loop_
_atom_site_label
_atom_site_type_symbol
_atom_site_fract_x
_atom_site_fract_y
_atom_site_fract_z
Pr1 Pr 0.194718(10) 0.10741(1) 0.725374(9)
O1 O 0.17790(15) 0.14537(16) 0.92701(14)
N1 N 0.43859(18) 0.13489(18) 0.79437(16)
O2 O 0.94311(15) 0.15185(18) 0.73503(16)
N2 N 0.36969(19) 0.25158(18) 0.49260(17)
C1 C 0.5686(2) 0.1198(2) 0.7350(2)
H1 H 0.57610 0.09490 0.66420
O3 O 0.0720(2) -0.1109(2) 0.89507(19)
O4 O 0.19850(19) 0.35430(16) 0.63801(16)
O5 O 0.1175(2) 0.0591(2) 0.5508(2)
C2 C 0.8356(2) 0.1232(2) 0.7005(2)
O6 O 0.83952(17) 0.0841(2) 0.60974(18)
C3 C 0.4287(2) 0.1698(2) 0.89743(19)
C4 C 0.2795(2) 0.1837(2) 0.9634(2)
O7 O 0.2580(2) 0.57179(18) 0.49073(19)
C5 C 0.5464(2) 0.1908(2) 0.9421(2)
H2 H 0.53610 0.21520 1.01330
C6 C 0.6928(2) 0.1394(2) 0.7731(2)
C7 C 0.3728(2) 0.3897(2) 0.4479(2)
O8 O 0.26769(19) 0.2280(2) 1.0488(2)
C8 C 0.2689(3) 0.4449(2) 0.5310(2)
C9 C 0.6802(2) 0.1750(2) 0.8796(2)
H3 H 0.76110 0.18820 0.90880
C10 C 0.4576(2) 0.1982(2) 0.4206(2)
H4 H 0.45420 0.10250 0.44940
N3 N 0.0958(3) 0.3420(3) 0.1892(2)
H5 H 0.13340 0.29300 0.14850
C11 C -0.0147(3) 0.3044(3) 0.2871(3)
H6 H -0.06510 0.21960 0.32460
C12 C 0.0534(4) 0.5118(3) 0.2475(4)
H7 H 0.05780 0.59610 0.25290
N4 N -0.0426(3) 0.4050(2) 0.3233(2)
H8 H -0.11100 0.40390 0.38540
C13 C 0.1408(4) 0.4721(3) 0.1631(4)
H9 H 0.21770 0.52370 0.09870
C14 C 0.5533(2) 0.2772(2) 0.3059(2)
C15 C 0.6545(2) 0.2095(2) 0.2339(2)
C16 C 0.5552(3) 0.4201(3) 0.2616(3)
H10 H 0.61760 0.47690 0.18450
C17 C 0.4634(3) 0.4765(2) 0.3334(3)
H11 H 0.46240 0.57220 0.30510
O9 O 0.7309(2) 0.28565(18) 0.12655(17)
O10 O 0.65553(16) 0.07807(15) 0.28965(15)
H12 H 0.002(4) -0.129(3) 0.946(3)
H13 H 0.025(4) 0.069(3) 0.564(3)
H14 H 0.149(4) 0.034(4) 0.501(4)
H15 H 0.111(4) -0.174(3) 0.904(3)
Pr1* Pr 1.194718(10) 0.10741(1) 0.725374(9)
Pr1A Pr 0.805282(10) -0.10741(1) 0.274626(9)
O2* O -0.05689(15) 0.15185(18) 0.73503(16)
O10A O 0.34447(16) -0.07807(15) 0.71035(15)
#END
