
#######################################################################
#
#                 Cambridge Crystallographic Data Centre
#                                CCDC
#
#######################################################################
#
# If this CIF has been generated from an entry in the Cambridge
# Structural Database, then it will include bibliographic, chemical,
# crystal, experimental, refinement or atomic coordinate data resulting
# from the CCDC's data processing and validation procedures.
#
#######################################################################

data_CSD_CIF_URENAI
_audit_creation_date 2016-07-01
_audit_creation_method CSD-ConQuest-V1
_database_code_CSD URENAI
_database_code_depnum_ccdc_archive 'CCDC 1477413'
_chemical_formula_sum 'C38.5 H45.5 N10.5 O13.5 Zn2'
_chemical_formula_moiety
;
(C26 H13 N6 O10 Zn2 1-)n,C2 H8 N1 1+,3.5(C3 H7 N1 O1)
;
_journal_coden_Cambridge 1147
_journal_volume 16
_journal_year 2016
_journal_page_first 4539
_journal_name_full 'Cryst.Growth Des. '
loop_
_publ_author_name
"Ling Di"
"Jian-Jun Zhang"
"Shu-Qin Liu"
"Jun Ni"
"Huajun Zhou"
"Ying-Ji Sun"
_chemical_name_systematic
;
catena-(dimethylammonium 
(\m-4-carboxy-2-((4-((4-carboxyphenyl)amino)-6-((2,5-dicarboxyphenyl)amino)-1,
3,5-triazin-2-yl)amino)benzoato)-di-zinc N,N-dimethylformamide solvate)
;
_cell_volume   6181.917
_exptl_crystal_colour 'colorless'
_exptl_crystal_description 'block'
_diffrn_ambient_temperature 220
_refine_special_details
;
The SQUEEZE/PLATON program has been used to model some disorder.

;
#These two values have been output from a single CSD field.
_refine_ls_R_factor_gt 0.0421
_refine_ls_wR_factor_gt 0.0421
_symmetry_cell_setting orthorhombic
_symmetry_space_group_name_H-M 'P 21 21 21'
_symmetry_Int_Tables_number 19
loop_
_symmetry_equiv_pos_site_id
_symmetry_equiv_pos_as_xyz
1 x,y,z
2 1/2-x,-y,1/2+z
3 -x,1/2+y,1/2-z
4 1/2+x,1/2-y,-z
_cell_length_a 16.7533(3)
_cell_length_b 17.1585(3)
_cell_length_c 21.5052(5)
_cell_angle_alpha 90
_cell_angle_beta 90
_cell_angle_gamma 90
_cell_formula_units_Z 4
loop_
_atom_type_symbol
_atom_type_radius_bond
C 0.68
H 0.23
N 0.68
O 0.68
Zn 1.22
loop_
_atom_site_label
_atom_site_type_symbol
_atom_site_fract_x
_atom_site_fract_y
_atom_site_fract_z
Zn1 Zn 0.33739(2) 0.07217(2) 0.82089(2)
Zn2 Zn 0.17874(2) 0.19311(3) 0.80152(2)
O1 O 0.38670(15) 0.15304(15) 0.76838(14)
O2 O 0.27477(19) 0.2227(2) 0.75986(18)
O3 O 0.59512(13) 0.48150(14) 0.67707(13)
O4 O 0.48843(15) 0.54194(17) 0.64291(15)
O5 O 0.11455(14) 0.28341(16) 0.78799(15)
O6 O 0.00607(15) 0.21966(16) 0.81957(16)
O7 O -0.14020(16) 0.5910(2) 0.7019(2)
O8 O -0.24496(14) 0.51604(15) 0.71369(14)
O9 O 0.28742(18) 0.7995(2) 0.38805(15)
O10 O 0.18189(17) 0.87935(16) 0.40135(12)
N1 N 0.11713(17) 0.54237(18) 0.69023(16)
N2 N 0.22178(18) 0.45310(19) 0.7080(2)
N3 N 0.24715(17) 0.56498(19) 0.64812(16)
N4 N 0.14052(18) 0.65102(18) 0.63375(14)
H1 H 0.09920 0.66960 0.65230
N5 N 0.10067(19) 0.4249(2) 0.74579(16)
H2 H 0.12770 0.39260 0.76790
N6 N 0.34777(18) 0.48016(18) 0.66804(16)
H3 H 0.37560 0.51470 0.64890
C1 C 0.1695(2) 0.5834(2) 0.65753(17)
C2 C 0.1459(2) 0.4759(3) 0.7125(2)
C3 C 0.2688(2) 0.4976(2) 0.6754(2)
C4 C 0.3897(2) 0.4135(2) 0.6875(2)
C5 C 0.3519(2) 0.3458(2) 0.70857(18)
H4 H 0.29650 0.34470 0.71090
C6 C 0.3945(2) 0.2808(2) 0.7259(2)
C7 C 0.4770(2) 0.2799(2) 0.7226(2)
H5 H 0.50600 0.23570 0.73320
C8 C 0.5154(2) 0.3482(2) 0.7025(2)
H6 H 0.57080 0.34920 0.70150
C9 C 0.4747(2) 0.4131(2) 0.68444(18)
C10 C 0.3513(2) 0.2127(2) 0.7530(2)
C11 C 0.5217(2) 0.4861(2) 0.66557(19)
C12 C 0.0177(2) 0.4159(3) 0.7505(2)
C13 C -0.0138(2) 0.3456(2) 0.77432(19)
C14 C -0.0962(2) 0.3357(2) 0.7770(2)
H7 H -0.11640 0.28930 0.79290
C15 C -0.1486(2) 0.3917(2) 0.75707(19)
H8 H -0.20330 0.38260 0.75670
C16 C -0.1165(2) 0.4645(2) 0.7368(2)
C17 C -0.0351(2) 0.4756(3) 0.7339(2)
H9 H -0.01500 0.52330 0.72060
C18 C 0.0365(2) 0.2774(3) 0.7956(2)
C19 C -0.1700(2) 0.5277(2) 0.71659(18)
C20 C 0.1688(2) 0.6955(2) 0.58250(16)
C21 C 0.1237(2) 0.7592(2) 0.5641(2)
H10 H 0.07990 0.77340 0.58810
C22 C 0.1410(2) 0.8021(3) 0.51218(19)
H11 H 0.10760 0.84270 0.50000
C23 C 0.2088(2) 0.7845(2) 0.47777(19)
C24 C 0.2570(2) 0.7246(3) 0.4984(2)
H12 H 0.30400 0.71380 0.47710
C25 C 0.2372(3) 0.6803(3) 0.5499(2)
H13 H 0.27070 0.64000 0.56240
C26 C 0.2273(2) 0.8250(3) 0.4190(2)
Zn1A Zn 0.16261(2) 0.92783(2) 0.32089(2)
Zn1B Zn -0.33739(2) 0.57217(2) 0.67911(2)
Zn1B* Zn 0.66261(2) 0.57217(2) 0.67911(2)
Zn2A Zn 0.32126(2) 0.80689(3) 0.30152(2)
Zn2B Zn -0.17874(2) 0.69311(3) 0.69848(2)
O3B O 0.40488(13) -0.01850(14) 0.82293(13)
O7B O 0.14020(16) 0.0910(2) 0.7981(2)
O8B O 0.24496(14) 0.01604(15) 0.78631(14)
O9A O 0.21258(18) 0.2005(2) 0.88805(15)
O10A O 0.31811(17) 0.12065(16) 0.90135(12)
#END
