
#######################################################################
#
#                 Cambridge Crystallographic Data Centre
#                                CCDC
#
#######################################################################
#
# If this CIF has been generated from an entry in the Cambridge
# Structural Database, then it will include bibliographic, chemical,
# crystal, experimental, refinement or atomic coordinate data resulting
# from the CCDC's data processing and validation procedures.
#
#######################################################################

data_CSD_CIF_URFORS
_audit_creation_date 1979-01-19
_audit_creation_method CSD-ConQuest-V1
_database_code_CSD URFORS
_database_code_depnum_ccdc_archive 'CCDC 1278512'
_chemical_formula_sum 'C4 H6 O11 Sr1 U1'
_chemical_formula_moiety
;
(C4 H4 O10 U1 2-)n,Sr1 2+,x(H2 O1)
;
_journal_coeditor_code "IUCr A16367"
_journal_coden_Cambridge 107
_journal_volume 34
_journal_year 1978
_journal_page_first 2707
_journal_name_full 'Acta Crystallogr.,Sect.B:Struct.Crystallogr.Cryst.Chem. '
loop_
_publ_author_name
"B.F.Mentzen"
"J.-P.Puaux"
"H.Sautereau"
_chemical_name_systematic
;
catena-[Strontium (\m~2~-formato)-triformato-dioxo-uranium hydrate]
;
_cell_volume   2192.601
_exptl_crystal_density_diffrn 3.367
_diffrn_ambient_temperature ?
_diffrn_special_details
;
The study was carried out at room temperature,in the range 283-303K

;
#These two values have been output from a single CSD field.
_refine_ls_R_factor_gt 0.0463
_refine_ls_wR_factor_gt 0.0463
_symmetry_cell_setting orthorhombic
_symmetry_space_group_name_H-M 'P b c a'
_symmetry_Int_Tables_number 61
loop_
_symmetry_equiv_pos_site_id
_symmetry_equiv_pos_as_xyz
1 x,y,z
2 1/2-x,-y,1/2+z
3 1/2+x,1/2-y,-z
4 -x,1/2+y,1/2-z
5 -x,-y,-z
6 -1/2+x,y,-1/2-z
7 -1/2-x,-1/2+y,z
8 x,-1/2-y,-1/2+z
_cell_length_a 6.449(1)
_cell_length_b 16.393(3)
_cell_length_c 20.740(3)
_cell_angle_alpha 90
_cell_angle_beta 90
_cell_angle_gamma 90
_cell_formula_units_Z 8
loop_
_atom_type_symbol
_atom_type_radius_bond
C 0.68
O 0.68
Sr 1.12
U 1.45
loop_
_atom_site_label
_atom_site_type_symbol
_atom_site_fract_x
_atom_site_fract_y
_atom_site_fract_z
U1 U 0.18694 0.14975 0.09635
O1 O 0.03830 0.11200 0.03300
O2 O 0.32260 0.19410 0.15930
O3 O 0.09970 0.03580 0.16400
O4 O 0.43700 0.04950 0.07970
O5 O 0.12190 0.29130 0.07090
O6 O -0.11420 0.18670 0.14980
O7 O -0.07620 0.29440 -0.01360
O8 O -0.09810 0.29410 0.21850
O9 O -0.03920 -0.04680 0.23560
O10 O 0.58380 -0.05460 0.12380
C1 C 0.04900 0.32610 0.02210
C2 C -0.18700 0.23340 0.19480
C3 C 0.58600 0.00830 0.09110
C4 C -0.03100 0.02040 0.20750
Sr1 Sr 0.23110 0.37288 0.18029
O11 O 0.54670 0.35690 0.11070
O7B O 0.42380 0.20560 0.01360
U1B U -0.31306 0.35025 -0.09635
#END
