
#######################################################################
#
#                 Cambridge Crystallographic Data Centre
#                                CCDC
#
#######################################################################
#
# If this CIF has been generated from an entry in the Cambridge
# Structural Database, then it will include bibliographic, chemical,
# crystal, experimental, refinement or atomic coordinate data resulting
# from the CCDC's data processing and validation procedures.
#
#######################################################################

data_CSD_CIF_URIJEM
_audit_creation_date 2016-07-04
_audit_creation_method CSD-ConQuest-V1
_database_code_CSD URIJEM
_database_code_depnum_ccdc_archive 'CCDC 1058793'
_chemical_formula_sum 'C46 H62 Cu3.5 N19 O59 Si1 W12'
_chemical_formula_moiety
;
(C24 H16 Cu2 N4 O48 Si1 W12 4-)n,n(C12 H10 Cu1 N2 O5),0.5n(C12 H8 Cu1 N2 
O4),4n(C1 H6 N3 1+),4n(H2 O1)
;
_journal_coden_Cambridge 1830
_journal_volume 3
_journal_year 2015
_journal_page_first 194
_journal_name_full 'Inorganics '
loop_
_publ_author_name
"A.Pache"
"S.Reinoso"
"L.S.Felices"
"A.Iturrospe"
"L.Lezama"
"J.M.Gutierrez-Zorrilla"
_chemical_name_systematic
;
catena-(tetrakis(guanidinium) 
(\m-silicato)-heptacosakis(\m-oxo)-tetrakis(picolinato)-nonaoxo-di-copper-dode
ca-tungsten aqua-bis(picolinato)-copper hemikis(bis(picolinato)-copper) 
tetrahydrate)
;
_cell_volume   4333.582
_exptl_crystal_colour 'blue'
_exptl_crystal_density_diffrn 3.281
_exptl_crystal_description 'needle'
_diffrn_ambient_temperature 100
_refine_special_details
;
The structure is disordered.

;
#These two values have been output from a single CSD field.
_refine_ls_R_factor_gt 0.086
_refine_ls_wR_factor_gt 0.086
_symmetry_cell_setting triclinic
_symmetry_space_group_name_H-M 'P -1'
_symmetry_Int_Tables_number 2
loop_
_symmetry_equiv_pos_site_id
_symmetry_equiv_pos_as_xyz
1 x,y,z
2 -x,-y,-z
_cell_length_a 11.9426(2)
_cell_length_b 12.8151(3)
_cell_length_c 30.0533(7)
_cell_angle_alpha 101.508(2)
_cell_angle_beta 90.346(2)
_cell_angle_gamma 105.544(2)
_cell_formula_units_Z 2
loop_
_atom_type_symbol
_atom_type_radius_bond
C 0.68
H 0.23
Cu 1.32
N 0.68
O 0.68
Si 1.20
W 1.62
loop_
_atom_site_label
_atom_site_type_symbol
_atom_site_fract_x
_atom_site_fract_y
_atom_site_fract_z
C1 C 0.8094(16) 0.3545(12) 0.4977(6)
N1 N 0.7350(16) 0.3153(17) 0.4618(6)
H1 H 0.69700 0.24450 0.45510
H2 H 0.72320 0.35990 0.44460
N2 N 0.8294(18) 0.2904(17) 0.5244(7)
H3 H 0.79270 0.21930 0.51840
H4 H 0.87950 0.31870 0.54810
N3 N 0.8629(17) 0.4615(15) 0.5076(7)
H5 H 0.84860 0.50510 0.49040
H6 H 0.91290 0.48930 0.53150
O1 O 0.9878(17) -0.0822(17) 0.1410(7)
O2 O 0.717(3) -0.415(2) 0.2086(11)
O3 O 1.306(2) 0.135(2) 0.3639(10)
O4 O 1.0630(14) -0.1695(14) 0.4281(5)
O5 O 0.6179(15) -0.3556(14) 0.3698(6)
O6 O 0.4297(16) -0.2018(16) 0.2551(6)
O7 O 1.1094(14) 0.3072(14) 0.2408(6)
O8 O 0.993(2) 0.367(2) 0.4180(9)
O9 O 0.7406(16) 0.0538(15) 0.4751(6)
O10 O 0.588(2) 0.2206(19) 0.3644(8)
O11 O 1.070(2) -0.133(2) 0.2172(8)
O12 O 0.937(2) -0.298(2) 0.2487(8)
O13 O 0.843(3) -0.214(2) 0.1887(10)
O14 O 1.144(2) -0.026(2) 0.3016(8)
O15 O 1.0185(19) -0.1884(17) 0.3345(7)
O16 O 0.6613(19) -0.2121(19) 0.2408(7)
O17 O 0.8178(18) -0.0159(17) 0.2006(7)
O18 O 0.701(3) 0.135(2) 0.1849(9)
O19 O 1.0344(19) 0.0705(18) 0.2293(8)
O20 O 1.092(3) 0.008(2) 0.3847(9)
O21 O 0.8467(18) -0.2444(18) 0.3878(7)
O22 O 0.758(2) -0.2908(19) 0.2993(7)
O23 O 0.610(2) -0.176(2) 0.3254(8)
O24 O 0.602(2) -0.037(2) 0.2281(8)
O25 O 0.8829(18) 0.1802(17) 0.2516(7)
O26 O 1.1802(19) 0.1899(18) 0.3007(7)
O27 O 1.1223(19) 0.2214(18) 0.3860(7)
O28 O 0.910(2) -0.0417(19) 0.4394(8)
O29 O 0.6867(18) -0.1337(18) 0.4102(7)
O30 O 0.542(2) 0.005(2) 0.3140(8)
O31 O 0.670(2) 0.167(2) 0.2792(8)
O32 O 1.0251(16) 0.3032(16) 0.3265(6)
O33 O 0.906(2) 0.141(2) 0.4139(8)
O34 O 0.6854(19) 0.0576(18) 0.3857(7)
O35 O 0.817(2) 0.221(2) 0.3540(8)
O36 O 0.9059(17) -0.1058(16) 0.2694(6)
O37 O 0.9745(17) 0.0942(16) 0.3222(7)
O38 O 0.8468(19) -0.0732(18) 0.3556(7)
O39 O 0.7506(18) 0.0070(18) 0.2937(7)
Si1 Si 0.8656(5) -0.0225(5) 0.3078(2)
W1 W 0.94954(8) -0.06894(8) 0.19511(3)
W2 W 1.06573(7) -0.17757(7) 0.27493(3)
W3 W 0.77697(9) -0.28718(8) 0.23639(3)
W4 W 1.16433(7) 0.09853(8) 0.34253(3)
W5 W 0.99048(8) -0.12286(7) 0.39134(4)
W6 W 0.70300(9) -0.24546(8) 0.35323(4)
W7 W 0.57015(8) -0.1335(1) 0.27299(3)
W8 W 0.73531(8) 0.07950(8) 0.22649(4)
W9 W 1.03621(10) 0.20537(9) 0.26634(4)
W10 W 0.96375(10) 0.24350(7) 0.37822(3)
W11 W 0.78097(8) 0.01603(8) 0.42106(3)
W12 W 0.66246(7) 0.13167(7) 0.33782(3)
C2 C 0.896(2) 0.515(2) 0.3534(9)
C3 C 1.010(2) 0.547(2) 0.3400(9)
H7 H 1.07440 0.58330 0.36130
C4 C 1.022(3) 0.521(3) 0.2958(11)
H8 H 1.09880 0.54020 0.28540
C5 C 0.931(3) 0.469(3) 0.2639(11)
H9 H 0.94450 0.45470 0.23240
C6 C 0.819(3) 0.437(2) 0.2781(10)
H10 H 0.75420 0.40100 0.25680
C7 C 0.862(2) 0.533(2) 0.4014(9)
C8 C 0.423(3) 0.422(3) 0.3469(11)
C9 C 0.306(4) 0.424(3) 0.3624(15)
H11 H 0.24610 0.42240 0.34130
C10 C 0.287(4) 0.426(3) 0.4036(14)
H12 H 0.21180 0.42900 0.41340
C11 C 0.371(3) 0.426(3) 0.4350(13)
H13 H 0.35320 0.42630 0.46580
C12 C 0.481(3) 0.425(3) 0.4210(11)
H14 H 0.54110 0.42770 0.44260
C13 C 0.457(3) 0.416(3) 0.3004(12)
Cu1 Cu 0.6539(3) 0.4357(3) 0.35070(12)
N4 N 0.804(2) 0.4604(19) 0.3234(8)
N5 N 0.502(3) 0.419(2) 0.3785(10)
O40 O 0.7532(17) 0.4858(16) 0.4074(6)
O41 O 0.9346(16) 0.5831(15) 0.4335(6)
O42 O 0.566(2) 0.411(2) 0.2951(8)
O43 O 0.396(3) 0.428(3) 0.2696(10)
C14 C 1.266(2) 0.111(2) 0.162(1)
C15 C 1.317(2) 0.180(2) 0.1999(8)
H15 H 1.31560 0.25520 0.20430
C16 C 1.374(2) 0.149(2) 0.2334(10)
H16 H 1.41300 0.20010 0.25980
C17 C 1.371(2) 0.037(2) 0.2259(9)
H17 H 1.40630 0.00880 0.24760
C18 C 1.313(2) -0.034(2) 0.1858(8)
H18 H 1.30830 -0.11080 0.18110
C19 C 1.201(3) 0.138(3) 0.1231(12)
C20 C 1.081(2) -0.271(2) 0.0306(9)
C21 C 1.022(3) -0.340(3) -0.0088(13)
H19 H 1.02240 -0.41510 -0.01650
C22 C 0.962(3) -0.297(3) -0.0363(12)
H20 H 0.92020 -0.34420 -0.06310
C23 C 0.963(3) -0.188(3) -0.0259(10)
H21 H 0.92560 -0.15650 -0.04550
C24 C 1.020(2) -0.128(2) 0.0142(9)
H22 H 1.01680 -0.05320 0.02300
C25 C 1.146(3) -0.307(3) 0.0648(11)
Cu2 Cu 1.1728(3) -0.0860(3) 0.0981(1)
N6 N 1.2652(19) 0.0011(18) 0.1547(7)
N7 N 1.0794(18) -0.1645(17) 0.0416(7)
O44 O 1.1609(18) 0.0556(17) 0.0907(7)
O45 O 1.179(3) 0.229(3) 0.1316(10)
O46 O 1.1884(16) -0.2339(16) 0.1011(6)
O47 O 1.159(2) -0.398(2) 0.0574(9)
O48 O 1.174(2) -0.2448(19) 0.2682(9)
O49? O 0.741(5) -0.414(5) 0.195(2)
O50? O 1.297(5) 0.160(5) 0.3556(19)
O51? O 0.654(5) 0.118(5) 0.1847(18)
O52? O 1.006(4) 0.371(4) 0.4042(17)
O53? O 0.547(4) 0.193(4) 0.3426(17)
O54? O 1.038(4) -0.100(4) 0.2265(14)
O55? O 0.917(4) -0.266(4) 0.2608(16)
O56? O 0.823(6) -0.194(5) 0.199(2)
O57? O 1.185(4) -0.039(4) 0.2992(14)
O58? O 1.066(4) -0.206(4) 0.3343(14)
O59? O 0.708(4) -0.350(4) 0.2909(17)
O60? O 0.611(4) -0.274(4) 0.2274(16)
O61? O 1.034(4) 0.089(4) 0.2047(16)
O62? O 1.129(5) 0.005(5) 0.3887(18)
O63? O 0.558(4) -0.236(4) 0.3150(14)
O64? O 0.641(4) -0.062(4) 0.2299(15)
O65? O 0.879(4) 0.195(4) 0.2246(16)
O66? O 1.124(4) 0.139(4) 0.2868(14)
O67? O 1.063(4) 0.175(4) 0.3743(14)
O68? O 0.911(3) -0.028(3) 0.4134(14)
O69? O 0.691(4) -0.114(4) 0.3863(16)
O70? O 0.574(5) -0.023(5) 0.3125(18)
O71? O 0.810(3) -0.011(3) 0.1734(14)
O72? O 0.966(3) 0.250(3) 0.3118(13)
O73? O 0.880(3) 0.173(3) 0.4263(13)
O74? O 0.659(4) 0.085(4) 0.3974(16)
O75? O 0.790(4) 0.252(4) 0.3648(16)
O76? O 0.882(4) 0.021(3) 0.2568(14)
O77? O 0.976(3) -0.054(3) 0.3196(12)
O78? O 0.822(3) 0.063(3) 0.3440(13)
O79? O 0.756(4) -0.146(4) 0.2935(14)
O80? O 0.703(4) 0.137(4) 0.2774(15)
O81? O 0.850(4) -0.227(4) 0.3618(15)
O82? O 1.150(5) -0.253(5) 0.248(2)
O83 O 0.429(5) 0.359(5) 0.1206(19)
C26 C 0.539(3) 0.211(3) -0.0716(11)
C27 C 0.473(3) 0.150(3) -0.1102(10)
H23 H 0.46310 0.07280 -0.12010
C28 C 0.420(3) 0.209(3) -0.1345(10)
H24 H 0.36870 0.17010 -0.16040
C29 C 0.439(3) 0.321(2) -0.1216(10)
H25 H 0.40550 0.35990 -0.13930
C30 C 0.509(3) 0.378(3) -0.0827(11)
H26 H 0.52310 0.45600 -0.07350
C31 C 0.606(3) 0.164(3) -0.0411(12)
C32 C 0.736(3) 0.606(3) 0.0329(12)
Cu3 Cu 0.6431(4) 0.3800(4) 0.00251(14)
N8 N 0.557(2) 0.321(2) -0.0571(9)
N9 N 0.7476(16) 0.4434(16) 0.0577(6)
C33 C 0.787(2) 0.3889(13) 0.0874(8)
H27 H 0.76010 0.31060 0.08310
C34 C 0.866(2) 0.4490(19) 0.1236(8)
H28 H 0.89350 0.41170 0.14390
C35 C 0.9061(18) 0.5636(18) 0.1300(6)
H29 H 0.96020 0.60470 0.15470
C36 C 0.8665(18) 0.6182(13) 0.1003(7)
H30 H 0.89360 0.69650 0.10470
C37 C 0.7872(18) 0.5581(16) 0.0641(6)
O84 O 0.653(2) 0.227(2) -0.0050(8)
O85 O 0.466(3) 0.343(3) 0.0337(10)
O86 O 0.608(2) 0.064(2) -0.0531(8)
O87 O 0.667(2) 0.5365(19) 0.0003(8)
O88 O 0.758(2) 0.706(2) 0.0368(8)
C38 C 0.4273(18) -0.1878(18) 0.4337(7)
C39 C 0.380(2) -0.267(2) 0.3945(8)
H31 H 0.37760 -0.34280 0.39160
C40 C 0.336(2) -0.228(2) 0.3592(8)
H32 H 0.29970 -0.27750 0.33200
C41 C 0.345(2) -0.119(2) 0.3647(9)
H33 H 0.31670 -0.09130 0.34110
C42 C 0.3968(19) -0.0448(19) 0.4054(7)
H34 H 0.40470 0.03220 0.40890
C43 C 0.477(2) -0.220(2) 0.4736(8)
Cu4 Cu 0.50000 0.00000 0.50000
N10 N 0.4352(16) -0.0840(15) 0.4393(6)
O89 O 0.5095(13) -0.1395(13) 0.5085(5)
O90 O 0.4863(16) -0.3152(15) 0.4695(6)
C44 C 0.741(3) -0.022(2) 0.0404(9)
N11 N 0.797(2) -0.058(2) 0.0693(9)
H35 H 0.79090 -0.12940 0.06560
H36 H 0.84040 -0.01100 0.09230
N12 N 0.747(3) 0.084(3) 0.0495(12)
H37 H 0.70580 0.10970 0.03220
H38 H 0.79080 0.12820 0.07290
N13 N 0.676(3) -0.090(3) 0.0056(12)
H39 H 0.66770 -0.16120 0.00100
H40 H 0.63930 -0.06300 -0.01320
O91 O 0.920(3) 0.194(3) 0.1281(11)
C45 C 1.279(6) -0.406(4) 0.1719(14)
N14 N 1.232(5) -0.321(4) 0.1769(17)
H41 H 1.19620 -0.30980 0.15350
H42 H 1.23730 -0.27680 0.20370
N15 N 1.303(6) -0.442(5) 0.2085(18)
H43 H 1.28830 -0.40910 0.23570
H44 H 1.33370 -0.49760 0.20560
N16 N 1.269(6) -0.472(5) 0.1311(16)
H45 H 1.23300 -0.45890 0.10800
H46 H 1.29940 -0.52840 0.12700
C46? C 1.215(5) -0.486(3) 0.1523(14)
N17? N 1.207(7) -0.542(5) 0.1855(19)
H47? H 1.22030 -0.60770 0.18030
H48? H 1.18970 -0.51310 0.21270
N18? N 1.237(4) -0.376(3) 0.1650(15)
H49? H 1.24550 -0.34430 0.19410
H50? H 1.24280 -0.33550 0.14430
N19? N 1.242(6) -0.530(5) 0.1113(15)
H51? H 1.25470 -0.59580 0.10610
H52? H 1.24700 -0.49320 0.08930
C47 C 1.2070(15) 0.2221(17) 0.4957(7)
N20 N 1.2550(18) 0.1546(16) 0.4684(7)
H53 H 1.33040 0.16280 0.47140
H54 H 1.21160 0.10120 0.44720
N21 N 1.270(2) 0.303(2) 0.5276(8)
H55 H 1.23700 0.34810 0.54510
H56 H 1.34530 0.31100 0.53160
N22 N 1.095(2) 0.214(2) 0.4915(9)
H57 H 1.06530 0.26110 0.50970
H58 H 1.04980 0.16120 0.47060
O92 O 0.531(5) 0.160(5) 0.114(2)
O93 O 0.505(5) 0.444(5) 0.194(2)
O5* O 0.6179(15) 0.6444(14) 0.3698(6)
Cu1* Cu 0.6539(3) -0.5643(3) 0.35070(12)
C38A C 0.5727(18) 0.1878(18) 0.5663(7)
C39A C 0.620(2) 0.267(2) 0.6055(8)
H31A H 0.62240 0.34280 0.60840
C40A C 0.664(2) 0.228(2) 0.6408(8)
H32A H 0.70030 0.27750 0.66800
C41A C 0.655(2) 0.119(2) 0.6353(9)
H33A H 0.68330 0.09130 0.65890
C42A C 0.6032(19) 0.0448(19) 0.5946(7)
H34A H 0.59530 -0.03220 0.59110
C43A C 0.523(2) 0.220(2) 0.5264(8)
N10A N 0.5648(16) 0.0840(15) 0.5607(6)
O89A O 0.4905(13) 0.1395(13) 0.4915(5)
O90A O 0.5137(16) 0.3152(15) 0.5305(6)
#END
