
#######################################################################
#
#                 Cambridge Crystallographic Data Centre
#                                CCDC
#
#######################################################################
#
# If this CIF has been generated from an entry in the Cambridge
# Structural Database, then it will include bibliographic, chemical,
# crystal, experimental, refinement or atomic coordinate data resulting
# from the CCDC's data processing and validation procedures.
#
#######################################################################

data_CSD_CIF_URODUB
_audit_creation_date 2011-07-18
_audit_creation_method CSD-ConQuest-V1
_database_code_CSD URODUB
_database_code_depnum_ccdc_archive 'CCDC 771548'
_chemical_formula_sum 'C22 H46 Mo12 N5 O40 P1 Zn4'
_chemical_formula_moiety
;
(C6 H10 Mo12 N4 O40 P1 Zn4 1-)n,n(C16 H36 N1 1+)
;
_journal_coden_Cambridge 1326
_journal_volume 12
_journal_year 2010
_journal_page_first 8632
_journal_name_full 'Phys.Chem.Chem.Phys.(PCCP) '
loop_
_publ_author_name
"L.M.R.Albelo"
"A.R.Ruiz-Salvador"
"D.W.Lewis"
"A.Gomez"
"P.Mialane"
"J.Marrot"
"A.Dolbecq"
"A.Sampieri"
"C.Mellot-Draznieks"
_chemical_name_systematic
;
catena-(Tetra-n-butylammonium 
(\m~12~-phosphato)-tridecakis(\m~3~-oxo)-(\m~2~-imidazolato)-tris(\m~2~-hydrox
o)-octakis(\m~2~-oxo)-(imidazole-N^3^)-dodecaoxo-dodeca-molybdenum-tetra-zinc)

;
_cell_volume  15072.151
_exptl_crystal_colour 'black'
_exptl_crystal_density_diffrn 2.169
_exptl_special_details
;
The hydrogen atoms of the hydroxo ligands of the anion were assigned 
arbitrarily
;
_exptl_crystal_description 'parallelepiped'
_diffrn_ambient_temperature 296
_refine_special_details
;
C4C2 and C4C1 disordered over two sites with occupancies 0.60:0.40.

;
#These two values have been output from a single CSD field.
_refine_ls_R_factor_gt 0.0428
_refine_ls_wR_factor_gt 0.0428
_symmetry_cell_setting orthorhombic
_symmetry_space_group_name_H-M 'P b c a'
_symmetry_Int_Tables_number 61
loop_
_symmetry_equiv_pos_site_id
_symmetry_equiv_pos_as_xyz
1 x,y,z
2 1/2-x,-y,1/2+z
3 -x,1/2+y,1/2-z
4 1/2+x,1/2-y,-z
5 -x,-y,-z
6 -1/2+x,y,-1/2-z
7 x,-1/2-y,-1/2+z
8 -1/2-x,-1/2+y,z
_cell_length_a 16.8676(18)
_cell_length_b 22.335(2)
_cell_length_c 40.007(4)
_cell_angle_alpha 90
_cell_angle_beta 90
_cell_angle_gamma 90
_cell_formula_units_Z 8
loop_
_atom_type_symbol
_atom_type_radius_bond
C 0.68
H 0.23
Mo 1.28
N 0.68
O 0.88
P 1.05
Zn 1.22
loop_
_atom_site_label
_atom_site_type_symbol
_atom_site_fract_x
_atom_site_fract_y
_atom_site_fract_z
Mo1 Mo 0.110495(13) 0.077859(9) 0.040000(5)
Mo2 Mo 0.259349(13) -0.000494(10) 0.079360(5)
Mo3 Mo -0.121310(13) 0.078250(9) -0.033310(5)
Mo4 Mo 0.009521(13) -0.145896(9) 0.058394(5)
Mo5 Mo -0.010173(15) -0.160040(11) 0.147769(6)
Mo6 Mo -0.152705(13) -0.090807(10) 0.099859(5)
Mo7 Mo -0.161929(13) 0.050603(10) 0.106923(5)
Mo8 Mo -0.008684(14) 0.129090(9) 0.071133(5)
Mo9 Mo -0.026602(15) 0.112714(11) 0.160989(6)
Mo10 Mo 0.081147(14) 0.051373(10) 0.195345(5)
Mo11 Mo 0.409210(14) 0.39686(1) 0.187100(5)
Mo12 Mo 0.255990(14) 0.48617(1) 0.158530(5)
Zn1 Zn -0.076526(18) -0.006853(12) 0.032840(7)
Zn2 Zn 0.171452(19) 0.117720(13) 0.122954(7)
Zn3 Zn 0.31109(2) 0.362650(13) 0.110710(8)
Zn4 Zn -0.10242(2) -0.029784(16) 0.178180(8)
P1 P 0.04559(4) -0.01424(3) 0.111289(14)
O1 O 0.12723(12) 0.12925(8) 0.01085(4)
O2 O 0.10445(10) 0.12276(8) 0.08210(4)
O3 O -0.00438(9) 0.06253(7) 0.03967(4)
O4 O -0.12161(10) -0.00393(7) -0.01214(4)
O5 O 0.22315(10) 0.06337(8) 0.05518(4)
O6 O 0.10402(10) -0.00789(7) 0.08111(4)
O7 O 0.35964(12) 0.00354(9) 0.07586(5)
O8 O 0.23148(10) -0.05888(8) 0.04976(4)
O9 O 0.25583(11) 0.43862(8) 0.11597(4)
O10 O 0.23799(11) 0.04706(8) 0.12130(4)
O11 O -0.14454(12) 0.11878(9) 0.00057(5)
O12 O 0.00574(10) -0.07068(7) 0.03378(4)
O13 O 0.37829(11) 0.36321(8) 0.07025(4)
O14 O 0.00742(12) -0.20070(8) 0.03020(5)
O15 O -0.10674(11) -0.13205(8) 0.06562(4)
O16 O 0.00143(12) -0.19838(9) 0.10078(5)
O17 O -0.00249(10) -0.07324(7) 0.10658(4)
O18 O -0.02298(13) -0.22460(9) 0.16919(5)
O19 O 0.39639(11) 0.35280(8) 0.14507(4)
O20 O -0.02429(11) -0.09492(8) 0.18021(4)
O21 O -0.12186(12) -0.14141(8) 0.13406(4)
O22 O -0.25026(12) -0.10548(10) 0.09600(5)
O23 O -0.15117(11) -0.02416(9) 0.13323(4)
O24 O -0.14231(11) -0.01435(8) 0.07313(4)
O25 O -0.26107(12) 0.05982(11) 0.10432(5)
O26 O -0.12198(10) 0.10472(8) 0.07751(4)
O27 O -0.13554(11) 0.09145(8) 0.14559(4)
O28 O -0.01001(10) 0.04149(7) 0.11232(4)
O29 O -0.01797(12) 0.19180(9) 0.04864(5)
O30 O -0.01950(12) 0.16586(8) 0.11909(4)
O31 O -0.04667(14) 0.16750(9) 0.18851(5)
O32 O 0.08860(11) 0.10913(8) 0.15812(4)
O33 O -0.03251(12) 0.03786(9) 0.18681(4)
O34 O 0.08494(13) 0.09379(9) 0.23003(5)
O35 O 0.08499(11) -0.02945(8) 0.21314(4)
O36 O 0.19776(11) 0.04123(8) 0.18669(5)
O37 O 0.09126(10) -0.01812(7) 0.14469(4)
O38 O 0.39831(13) 0.34601(9) 0.21758(5)
O39 O 0.29378(11) 0.41964(8) 0.17929(4)
O40 O 0.15989(12) 0.48799(10) 0.16920(5)
N1 N 0.20249(15) 0.20081(9) 0.13011(5)
C1 C 0.24359(18) 0.23811(13) 0.11143(8)
H1 H 0.27100 0.22590 0.09240
N2 N 0.24274(15) 0.29395(10) 0.12179(6)
C2 C 0.1953(3) 0.29352(15) 0.14888(9)
H2 H 0.18120 0.32670 0.16160
C3 C 0.1717(2) 0.23620(14) 0.15429(8)
H3 H 0.13950 0.22340 0.17180
N3 N -0.19783(17) -0.04804(13) 0.20525(6)
C4 C -0.2238(3) -0.0259(2) 0.23493(9)
H4 H -0.19600 0.00040 0.24860
N4 N -0.2958(2) -0.04812(15) 0.24114(8)
H5 H -0.32380 -0.04130 0.25870
C5 C -0.3180(3) -0.0844(2) 0.21415(12)
H6 H -0.36560 -0.10500 0.21160
C6 C -0.2583(2) -0.08355(18) 0.19339(9)
H7 H -0.25680 -0.10420 0.17320
N5 N 0.20997(18) 0.20378(14) 0.28780(8)
C7 C 0.1442(3) 0.2307(2) 0.26749(13)
H8 H 0.13870 0.20480 0.24820
H9 H 0.09660 0.22480 0.28070
C8 C 0.1387(3) 0.2873(3) 0.25535(13)
H10 H 0.18450 0.29320 0.24100
H11 H 0.14560 0.31390 0.27430
C9 C 0.0701(3) 0.3097(2) 0.23672(13)
H12 H 0.06290 0.28170 0.21840
H13 H 0.02510 0.30390 0.25150
C10 C 0.0584(4) 0.3684(3) 0.22208(16)
H14 H 0.06370 0.39850 0.23910
H15 H 0.00630 0.37070 0.21250
H16 H 0.09740 0.37500 0.20500
C11 C 0.2018(3) 0.1399(2) 0.29356(13)
H17 H 0.25210 0.12480 0.30170
H18 H 0.19150 0.12070 0.27230
C12 C 0.1348(3) 0.1204(2) 0.31892(14)
H19 H 0.14830 0.13630 0.34070
H20 H 0.08570 0.13950 0.31210
C13 C 0.1187(5) 0.0528(3) 0.32285(17)
H21 H 0.10080 0.03960 0.30100
H22 H 0.17050 0.03480 0.32610
C14 C 0.0710(5) 0.0249(4) 0.3448(2)
H23 H 0.09430 0.02660 0.36670
H24 H 0.06440 -0.01610 0.33830
H25 H 0.02030 0.04440 0.34520
C15 C 0.2877(3) 0.2127(3) 0.26672(13)
H26 H 0.29640 0.25530 0.26380
H27 H 0.33200 0.19710 0.27950
C16 C 0.2881(3) 0.1867(3) 0.23644(15)
H28 H 0.25340 0.20940 0.22180
H29 H 0.26580 0.14680 0.23860
C17 C 0.3712(4) 0.1812(3) 0.21910(16)
H30? H 0.36510 0.17170 0.19560
H31 H 0.40060 0.21830 0.22110
C18 C 0.3987(9) 0.1711(8) 0.1817(3)
H32 H 0.44600 0.19380 0.17750
H33 H 0.35760 0.18410 0.16680
H34 H 0.40920 0.12930 0.17810
C19 C 0.2182(3) 0.24158(18) 0.31917(11)
H35 H 0.22850 0.28250 0.31240
H36 H 0.16760 0.24130 0.33070
C20 C 0.2813(3) 0.2235(2) 0.34373(12)
H37 H 0.27830 0.18040 0.34640
H38 H 0.33230 0.23220 0.33370
C21 C 0.2806(4) 0.2498(2) 0.37656(13)
H39 H 0.27790 0.29300 0.37450
H40 H 0.32960 0.23980 0.38800
C22 C 0.2040(5) 0.2258(3) 0.39927(17)
H41 H 0.15760 0.22370 0.38540
H42 H 0.19470 0.25310 0.41740
H43 H 0.21560 0.18680 0.40810
C23? C 0.4118(10) 0.1332(7) 0.2363(5)
H44? H 0.43890 0.10850 0.22040
H45? H 0.37390 0.10940 0.24840
H46? H 0.44950 0.14980 0.25180
Mo1D Mo -0.110495(13) -0.077859(9) -0.040000(5)
Mo2G Mo 0.240651(13) 0.499506(10) 0.079360(5)
Mo3D Mo 0.121310(13) -0.078250(9) 0.033310(5)
Mo3C Mo 0.378690(13) 0.421750(9) 0.033310(5)
Mo4D Mo -0.009521(13) 0.145896(9) -0.058394(5)
Mo4G Mo 0.490479(13) 0.354104(9) 0.058394(5)
Mo5G Mo 0.510173(15) 0.339960(11) 0.147769(6)
Mo11G Mo 0.090790(14) -0.10314(1) 0.187100(5)
Mo12G Mo 0.244010(14) -0.01383(1) 0.158530(5)
O4D O 0.12161(10) 0.00393(7) 0.01214(4)
O6D O -0.10402(10) 0.00789(7) -0.08111(4)
O8D O -0.23148(10) 0.05888(8) -0.04976(4)
O9G O 0.24417(11) -0.06138(8) 0.11597(4)
O10G O 0.26201(11) 0.54706(8) 0.12130(4)
O12D O -0.00574(10) 0.07068(7) -0.03378(4)
O13C O -0.12171(11) 0.13679(8) -0.07025(4)
O13G O 0.12171(11) -0.13679(8) 0.07025(4)
O19G O 0.10361(11) -0.14720(8) 0.14507(4)
O20G O 0.52429(11) 0.40508(8) 0.18021(4)
O35G O 0.41501(11) 0.47055(8) 0.21314(4)
O36G O 0.30224(11) 0.54123(8) 0.18669(5)
O37G O 0.40874(10) 0.48188(7) 0.14469(4)
#END
