
#######################################################################
#
#                 Cambridge Crystallographic Data Centre
#                                CCDC
#
#######################################################################
#
# If this CIF has been generated from an entry in the Cambridge
# Structural Database, then it will include bibliographic, chemical,
# crystal, experimental, refinement or atomic coordinate data resulting
# from the CCDC's data processing and validation procedures.
#
#######################################################################

data_CSD_CIF_USABOH
_audit_creation_date 2016-08-08
_audit_creation_method CSD-ConQuest-V1
_database_code_CSD USABOH
_database_code_depnum_ccdc_archive 'CCDC 1441858'
_chemical_formula_sum 'C36 H38 Bi2 Cl8 N18'
_chemical_formula_moiety
;
2(C12 H13 N6 1+),n(C12 H12 Bi2 Cl8 N6 2-)
;
_journal_coden_Cambridge 29
_journal_volume 642
_journal_year 2016
_journal_page_first 698
_journal_name_full 'Z.Anorg.Allg.Chem. '
loop_
_publ_author_name
"Jian Gao"
"Yu Yuan"
"Ai-Jun Cui"
"Feng Tian"
"Sheng-Chun Chen"
"Ming-Yang He"
"Qun Chen"
_chemical_name_systematic
;
catena-[bis(hydrogen 1,4-bis[(1,2,4-triazole-1-yl)methyl]benzene) 
(\m-1,4-bis[(1,2,4-triazole-1-yl)methyl]benzene)-octachloro-di-bismuth(iii)]
;
_cell_volume   2460.249
_exptl_crystal_colour 'colorless'
_exptl_crystal_density_diffrn 1.92
_exptl_crystal_description 'needle'
_diffrn_ambient_temperature 296
#These two values have been output from a single CSD field.
_refine_ls_R_factor_gt 0.0824
_refine_ls_wR_factor_gt 0.0824
_symmetry_cell_setting monoclinic
_symmetry_space_group_name_H-M 'P 21/c'
_symmetry_Int_Tables_number 14
loop_
_symmetry_equiv_pos_site_id
_symmetry_equiv_pos_as_xyz
1 x,y,z
2 -x,1/2+y,1/2-z
3 -x,-y,-z
4 x,-1/2-y,-1/2+z
_cell_length_a 12.4672(18)
_cell_length_b 26.739(4)
_cell_length_c 7.6421(11)
_cell_angle_alpha 90
_cell_angle_beta 105.045(3)
_cell_angle_gamma 90
_cell_formula_units_Z 2
loop_
_atom_type_symbol
_atom_type_radius_bond
C 0.68
H 0.23
Bi 1.48
Cl 0.99
N 0.68
loop_
_atom_site_label
_atom_site_type_symbol
_atom_site_fract_x
_atom_site_fract_y
_atom_site_fract_z
Bi1 Bi 1.02922(3) 0.92966(2) 0.62732(6)
C1 C 0.8124(11) 0.9915(5) 0.759(2)
H1 H 0.86110 1.01500 0.82630
C2 C 0.7444(12) 0.9295(6) 0.608(2)
H2 H 0.73900 0.89910 0.54720
C3 C 0.6350(14) 1.0346(6) 0.767(3)
H3 H 0.58650 1.04820 0.65730
H4 H 0.68320 1.06130 0.82810
C4 C 0.5661(10) 1.0160(5) 0.8884(19)
C5 C 0.6092(11) 1.0143(7) 1.066(2)
H5 H 0.68270 1.02370 1.11440
C6 C 0.4549(13) 1.0015(7) 0.820(2)
H6 H 0.42330 1.00250 0.69560
Cl1 Cl 0.9176(3) 0.96975(13) 0.2691(5)
Cl2 Cl 0.9385(3) 0.84399(13) 0.5144(6)
Cl3 Cl 1.2186(3) 0.90800(17) 0.5515(6)
Cl4 Cl 1.1007(4) 0.89887(15) 0.9527(5)
N1 N 0.8421(8) 0.9508(4) 0.6897(15)
N2 N 0.6595(11) 0.9547(6) 0.6194(18)
N3 N 0.7029(10) 0.9945(4) 0.7201(16)
C7 C 0.8351(13) 0.2687(7) 0.816(2)
H7 H 0.86730 0.29840 0.86810
C8 C 0.8151(11) 0.1926(5) 0.7369(19)
H8 H 0.82760 0.15880 0.72080
C9 C 0.6150(11) 0.1951(7) 0.579(2)
H9 H 0.62730 0.16650 0.50900
H10 H 0.57430 0.22000 0.49560
C10 C 0.546(1) 0.1791(5) 0.7079(19)
C11 C 0.4301(12) 0.1796(7) 0.645(2)
H11 H 0.39660 0.19140 0.52890
C12 C 0.3668(12) 0.1629(6) 0.753(2)
H12 H 0.28980 0.16440 0.71210
C13 C 0.4157(12) 0.1439(6) 0.922(2)
C14 C 0.5256(12) 0.1439(6) 0.984(2)
H13 H 0.55800 0.13190 1.10040
C15 C 0.5929(12) 0.1616(6) 0.878(2)
H14 H 0.66970 0.16140 0.92270
C16 C 0.3404(14) 0.1218(6) 1.037(2)
H15 H 0.30760 0.09080 0.98330
H16 H 0.38550 0.11450 1.15850
C17 C 0.1457(12) 0.1559(6) 0.9584(18)
H17 H 0.10970 0.13060 0.88200
C18 C 0.1817(13) 0.2231(7) 1.112(2)
H18 H 0.17260 0.25420 1.16070
N4 N 0.8918(10) 0.2262(5) 0.8265(18)
N5 N 0.7283(10) 0.2653(4) 0.726(2)
N6 N 0.7219(9) 0.2159(5) 0.6779(16)
N7 N 0.2525(9) 0.1566(4) 1.0488(17)
N8 N 0.2779(11) 0.1990(5) 1.149(2)
N9 N 0.0991(9) 0.1986(5) 0.9977(18)
C1B C 0.1876(11) 1.0085(5) 1.241(2)
H1B H 0.13890 0.98500 1.17370
C2B C 0.2556(12) 1.0705(6) 1.392(2)
H2B H 0.26100 1.10090 1.45280
C3B C 0.3650(14) 0.9654(6) 1.233(3)
H3B H 0.41350 0.95180 1.34270
H4B H 0.31680 0.93870 1.17190
C4B C 0.4339(10) 0.9840(5) 1.1116(19)
C5B C 0.3908(11) 0.9857(7) 0.934(2)
H5B H 0.31730 0.97630 0.88560
C6B C 0.5451(13) 0.9985(7) 1.180(2)
H6B H 0.57670 0.99750 1.30440
N1B N 0.1579(8) 1.0492(4) 1.3103(15)
N2B N 0.3405(11) 1.0453(6) 1.3806(18)
N3B N 0.2971(10) 1.0055(4) 1.2799(16)
Bi1B Bi -0.02922(3) 1.07034(2) 1.37268(6)
Cl1B Cl 0.0824(3) 1.03025(13) 1.7309(5)
Cl2B Cl 0.0615(3) 1.15601(13) 1.4856(6)
Cl3B Cl -0.2186(3) 1.09200(17) 1.4485(6)
Cl4B Cl -0.1007(4) 1.10113(15) 1.0473(5)
Bi1* Bi 0.02922(3) 0.92966(2) 1.62732(6)
Bi1B* Bi 0.97078(3) 1.07034(2) 0.37268(6)
Cl1* Cl -0.0824(3) 0.96975(13) 1.2691(5)
Cl1B* Cl 1.0824(3) 1.03025(13) 0.7309(5)
#END
