
#######################################################################
#
#                 Cambridge Crystallographic Data Centre
#                                CCDC
#
#######################################################################
#
# If this CIF has been generated from an entry in the Cambridge
# Structural Database, then it will include bibliographic, chemical,
# crystal, experimental, refinement or atomic coordinate data resulting
# from the CCDC's data processing and validation procedures.
#
#######################################################################

data_CSD_CIF_USADEZ
_audit_creation_date 2016-08-08
_audit_creation_method CSD-ConQuest-V1
_database_code_CSD USADEZ
_database_code_depnum_ccdc_archive 'CCDC 1455200'
_chemical_formula_sum 'C36 H24 Fe1 N6 Sb6 Se10'
_chemical_formula_moiety
;
C36 H24 Fe1 N6 2+,(Sb6 Se10 2-)n
;
_journal_coden_Cambridge 29
_journal_volume 642
_journal_year 2016
_journal_page_first 692
_journal_name_full 'Z.Anorg.Allg.Chem. '
loop_
_publ_author_name
"Yali Shen"
"Yun Liu"
"Chunying Tang"
"Shuzhen Liu"
"Peipei Sun"
"Jingyu Han"
"Dingxian Jia"
_chemical_name_systematic
;
catena-[tris(1,10-phenanthroline)-iron(ii) 
decakis(\m-selenido)-hexa-antimony(iii)]
;
_cell_volume   2359.544
_exptl_crystal_colour 'black'
_exptl_crystal_density_diffrn 2.979
_exptl_crystal_description 'block'
_diffrn_ambient_temperature 223
#These two values have been output from a single CSD field.
_refine_ls_R_factor_gt 0.032
_refine_ls_wR_factor_gt 0.032
_symmetry_cell_setting triclinic
_symmetry_space_group_name_H-M 'P -1'
_symmetry_Int_Tables_number 2
loop_
_symmetry_equiv_pos_site_id
_symmetry_equiv_pos_as_xyz
1 x,y,z
2 -x,-y,-z
_cell_length_a 10.497(3)
_cell_length_b 14.324(4)
_cell_length_c 16.609(4)
_cell_angle_alpha 75.32(2)
_cell_angle_beta 77.73(3)
_cell_angle_gamma 88.54(3)
_cell_formula_units_Z 2
loop_
_atom_type_symbol
_atom_type_radius_bond
C 0.68
H 0.23
Fe 1.52
N 0.68
Sb 1.39
Se 1.22
loop_
_atom_site_label
_atom_site_type_symbol
_atom_site_fract_x
_atom_site_fract_y
_atom_site_fract_z
Sb1 Sb 0.65295(6) 0.00269(6) 0.05800(4)
Sb2 Sb 0.31095(7) 0.01342(7) 0.18222(5)
Sb3 Sb 0.63149(7) -0.03168(6) 0.31316(5)
Sb4 Sb 1.00216(6) 0.02314(6) 0.11930(4)
Sb5 Sb 0.99674(7) 0.00605(6) 0.36736(4)
Sb6 Sb 1.32427(7) 0.01946(7) 0.44984(5)
Se1 Se 0.40467(10) -0.11539(9) 0.10476(7)
Se2 Se 0.51657(9) 0.12058(9) 0.14911(7)
Se3 Se 0.72874(10) -0.11665(9) 0.19841(7)
Se4 Se 0.78437(10) -0.13133(9) -0.04726(7)
Se5 Se 0.87437(10) 0.12285(9) 0.01606(7)
Se6 Se 0.39543(10) -0.11364(10) 0.35328(8)
Se7 Se 0.75355(11) -0.13804(10) 0.42251(7)
Se8 Se 0.92067(10) 0.11589(9) 0.23764(7)
Se9 Se 0.86161(10) 0.10412(9) 0.46548(7)
Se10 Se 1.19727(10) 0.13212(9) 0.34948(7)
Fe1 Fe 0.31836(13) 0.50031(12) 0.27985(9)
N1 N 0.2085(8) 0.4473(7) 0.3941(5)
N2 N 0.4164(8) 0.5623(7) 0.3419(5)
N3 N 0.2025(8) 0.4453(7) 0.2230(5)
N4 N 0.2059(7) 0.6133(7) 0.2590(5)
N5 N 0.4315(8) 0.3897(7) 0.2892(5)
N6 N 0.4390(8) 0.5483(7) 0.1694(5)
C1 C 0.1101(10) 0.3816(9) 0.4201(7)
H1 H 0.08620 0.35410 0.37960
C2 C 0.0403(10) 0.3515(9) 0.5057(7)
H2 H -0.02680 0.30400 0.52240
C3 C 0.0744(10) 0.3945(10) 0.5633(7)
H3 H 0.02910 0.37630 0.62050
C4 C 0.1742(10) 0.4641(9) 0.5392(7)
C5 C 0.2148(13) 0.5138(11) 0.5941(8)
H4 H 0.16780 0.50250 0.65070
C6 C 0.3194(12) 0.5773(11) 0.5676(8)
H5 H 0.34270 0.60870 0.60580
C7 C 0.3948(10) 0.5966(9) 0.4805(7)
C8 C 0.5055(11) 0.6578(10) 0.4476(8)
H6 H 0.53510 0.69160 0.48200
C9 C 0.5697(10) 0.6681(9) 0.3660(7)
H7 H 0.64630 0.70700 0.34470
C10 C 0.5229(9) 0.6211(9) 0.3128(7)
H8 H 0.56710 0.63110 0.25560
C11 C 0.3551(9) 0.5507(8) 0.4260(6)
C12 C 0.2412(10) 0.4862(9) 0.4541(7)
C13 C 0.2025(9) 0.3606(9) 0.2056(6)
H9 H 0.26330 0.31550 0.22440
C14 C 0.1168(10) 0.3339(10) 0.1604(7)
H10 H 0.11990 0.27230 0.15000
C15 C 0.0297(12) 0.3983(12) 0.1323(8)
H11 H -0.02760 0.38170 0.10130
C16 C 0.0241(11) 0.489(1) 0.1487(7)
C17 C -0.0645(12) 0.5647(14) 0.1227(9)
H12 H -0.12380 0.55330 0.09090
C18 C -0.0656(12) 0.6498(13) 0.1421(9)
H13 H -0.12500 0.69640 0.12370
C19 C 0.0239(10) 0.6715(11) 0.1915(8)
C20 C 0.0298(12) 0.7585(11) 0.2159(8)
H14 H -0.02860 0.80780 0.20170
C21 C 0.1214(10) 0.7705(10) 0.2603(8)
H15 H 0.12460 0.82740 0.27840
C22 C 0.2096(10) 0.6986(9) 0.2787(7)
H16 H 0.27500 0.70990 0.30620
C23 C 0.1144(10) 0.6011(10) 0.2149(7)
C24 C 0.1128(10) 0.5098(9) 0.1956(6)
C25 C 0.4307(10) 0.3109(9) 0.3546(7)
H17 H 0.36540 0.30430 0.40430
C26 C 0.5236(10) 0.2378(9) 0.3516(8)
H18 H 0.52210 0.18560 0.39940
C27 C 0.6133(10) 0.2439(10) 0.2800(9)
H19 H 0.67390 0.19470 0.27760
C28 C 0.6193(10) 0.3235(10) 0.2072(7)
C29 C 0.7049(10) 0.3333(11) 0.1265(9)
H20 H 0.76230 0.28390 0.11690
C30 C 0.7028(12) 0.4148(12) 0.0635(8)
H21 H 0.75940 0.42040 0.01020
C31 C 0.6181(11) 0.4925(10) 0.0748(7)
C32 C 0.6206(10) 0.5816(11) 0.0142(7)
H22 H 0.68240 0.59410 -0.03760
C33 C 0.5315(11) 0.6508(11) 0.0314(7)
H23 H 0.53000 0.70990 -0.00900
C34 C 0.4443(10) 0.6307(10) 0.1097(7)
H24 H 0.38530 0.67850 0.12130
C35 C 0.5282(9) 0.4825(9) 0.1502(7)
C36 C 0.5264(9) 0.3950(8) 0.2177(7)
Sb1A Sb 0.34705(6) -0.00269(6) -0.05800(4)
Sb2A Sb 0.68905(7) -0.01342(7) -0.18222(5)
Sb4A Sb 0.99784(6) -0.02314(6) -0.11930(4)
Sb6* Sb 0.32427(7) 0.01946(7) 0.44984(5)
Sb6A Sb 0.67573(7) -0.01946(7) 0.55016(5)
Se1A Se 0.59533(10) 0.11539(9) -0.10476(7)
Se4A Se 0.21563(10) 0.13133(9) 0.04726(7)
Se4A* Se 1.21563(10) 0.13133(9) 0.04726(7)
Se6* Se 1.39543(10) -0.11364(10) 0.35328(8)
Se7A Se 1.24645(11) 0.13804(10) 0.57749(7)
Se9A Se 1.13839(10) -0.10412(9) 0.53452(7)
#END
