
#######################################################################
#
#                 Cambridge Crystallographic Data Centre
#                                CCDC
#
#######################################################################
#
# If this CIF has been generated from an entry in the Cambridge
# Structural Database, then it will include bibliographic, chemical,
# crystal, experimental, refinement or atomic coordinate data resulting
# from the CCDC's data processing and validation procedures.
#
#######################################################################

data_CSD_CIF_USASIT
_audit_creation_date 2021-04-29
_audit_creation_method CSD-ConQuest-V1
_database_code_CSD USASIT
_database_code_depnum_ccdc_archive 'CCDC 2056390'
_chemical_formula_sum 'C36 H39 Mo6 N9 O25 Zn1'
_chemical_formula_moiety
;
(C36 H39 N9 O6 Zn1 2+)n,Mo6 O19 2-
;
_journal_coden_Cambridge 1147
_journal_year 2021
_journal_name_full 'Cryst.Growth Des. '
loop_
_publ_author_name
"Yi-Ming Di"
"Meng-Hua Li"
"Shu-Quan Zhang"
"Ming-Hua You"
"Mei-Jin Lin"
_chemical_name_systematic
;
catena-[(\m-2,7-bis(3,5-dimethyl-1H-pyrazol-4-yl)benzo[lmn][3,8]phenanthroline
-1,3,6,8(2H,7H)-tetrone)-(acetonitrile)-bis(1-methylpyrrolidin-2-one)-zinc 
tridecakis(\m-oxo)-hexaoxo-hexa-molybdenum unknown solvate]
;
_cell_volume   3041.341
_exptl_crystal_colour 'light orange'
_exptl_crystal_density_diffrn 1.79
_exptl_crystal_description 'block'
_diffrn_ambient_temperature 296.1
_refine_special_details
;
Disordered solvent molecules were not modelled and the disordered density was 
taken into account using the MASK/OLEX2 procedure.
;
#These two values have been output from a single CSD field.
_refine_ls_R_factor_gt 0.0572
_refine_ls_wR_factor_gt 0.0572
_symmetry_cell_setting monoclinic
_symmetry_space_group_name_H-M 'P 2/n'
_symmetry_Int_Tables_number 13
loop_
_symmetry_equiv_pos_site_id
_symmetry_equiv_pos_as_xyz
1 x,y,z
2 1/2-x,y,1/2-z
3 -x,-y,-z
4 -1/2+x,-y,-1/2+z
_cell_length_a 10.9844(8)
_cell_length_b 11.5032(8)
_cell_length_c 24.1175(14)
_cell_angle_alpha 90
_cell_angle_beta 93.609(2)
_cell_angle_gamma 90
_cell_formula_units_Z 2
loop_
_atom_type_symbol
_atom_type_radius_bond
C 0.68
H 0.23
Mo 1.54
N 0.68
O 0.68
Zn 1.22
loop_
_atom_site_label
_atom_site_type_symbol
_atom_site_fract_x
_atom_site_fract_y
_atom_site_fract_z
Mo1 Mo 0.86363(6) 0.09629(6) 0.43896(3)
Mo2 Mo 0.86595(6) 0.01919(6) 0.56974(3)
Mo3 Mo 0.90952(6) -0.17511(6) 0.47424(3)
O1 O 1.00000 0.00000 0.50000
O2 O 0.8188(5) -0.0656(6) 0.4299(3)
O3 O 0.7810(5) 0.0922(6) 0.5071(3)
O4 O 0.8205(5) -0.1295(6) 0.5363(3)
O5 O 0.9616(6) 0.1585(5) 0.5766(3)
O6 O 0.9978(5) 0.0616(6) 0.3937(2)
O7 O 0.9597(6) 0.2188(5) 0.4712(3)
O8 O 0.7682(6) 0.0328(7) 0.6205(3)
O9 O 0.7636(6) 0.1654(6) 0.3945(3)
O10 O 0.8486(6) -0.3038(5) 0.4553(3)
Zn1 Zn 0.25000 0.53547(11) 0.25000
O11 O 0.4243(6) 0.3557(5) 0.4790(2)
O12 O 0.4927(6) 0.1144(5) 0.3351(2)
O13 O 0.1320(6) 0.5470(6) 0.3161(2)
N1 N 0.3676(6) 0.4426(5) 0.3004(3)
N2 N 0.4615(6) 0.2355(6) 0.4073(3)
N3 N 0.4804(6) 0.4818(6) 0.3184(3)
H1 H 0.51560 0.54128 0.30496
C1 C 0.4972(7) -0.0284(7) 0.5761(3)
C2 C 0.4922(6) 0.0468(7) 0.4814(3)
C3 C 0.4469(7) 0.2580(7) 0.4639(3)
C4 C 0.4656(7) 0.1591(7) 0.5024(3)
C5 C 0.4734(8) 0.0807(7) 0.5948(3)
H2 H 0.46881 0.09297 0.63272
C6 C 0.3456(7) 0.3495(7) 0.3325(3)
C7 C 0.4862(7) 0.1257(7) 0.3847(3)
N4 N 0.1155(9) 0.5280(7) 0.4086(3)
C8 C 0.4479(7) 0.3304(7) 0.3689(3)
C9 C 0.4558(7) 0.1752(7) 0.5581(3)
H3 H 0.43747 0.24840 0.57170
C10 C 0.5291(8) 0.4158(7) 0.3597(4)
C11 C 0.2701(9) 0.6484(9) 0.3848(4)
H4 H 0.24707 0.72898 0.37847
H5 H 0.34313 0.63198 0.36557
C12 C 0.2319(8) 0.2817(8) 0.3277(4)
H6 H 0.17181 0.32292 0.30476
H7 H 0.20246 0.27056 0.36401
H8 H 0.24724 0.20752 0.31138
C13 C 0.1684(9) 0.5681(8) 0.3661(4)
N5 N 0.25000 0.7014(8) 0.25000
C14 C 0.1684(11) 0.5587(10) 0.4634(4)
H9 H 0.18637 0.49040 0.48607
H10 H 0.11588 0.61059 0.48278
C15 C 0.6528(8) 0.4441(8) 0.3887(4)
H11 H 0.69802 0.49300 0.36515
H12 H 0.69717 0.37332 0.39621
H13 H 0.64121 0.48369 0.42300
C16 C 0.25000 0.7838(8) 0.25000
C17 C 0.0013(12) 0.4594(11) 0.4031(5)
H14 H -0.02271 0.44893 0.36442
H15 H -0.06191 0.49993 0.42089
H16 H 0.01450 0.38488 0.42032
C18 C 0.25000 0.9046(8) 0.25000
C19 C 0.2897(11) 0.6224(10) 0.4469(5)
H17 H 0.30229 0.69372 0.46789
H18 H 0.36003 0.57242 0.45407
H19? H 0.29740 0.93239 0.22063
H20? H 0.28485 0.93239 0.28502
H21? H 0.16776 0.93239 0.24435
Mo1B Mo 1.13637(6) -0.09629(6) 0.56104(3)
Mo2B Mo 1.13405(6) -0.01919(6) 0.43026(3)
Mo3B Mo 1.09048(6) 0.17511(6) 0.52576(3)
O2B O 1.1812(5) 0.0656(6) 0.5701(3)
O3B O 1.2190(5) -0.0922(6) 0.4929(3)
O4B O 1.1795(5) 0.1295(6) 0.4637(3)
O5B O 1.0384(6) -0.1585(5) 0.4234(3)
O6B O 1.0022(5) -0.0616(6) 0.6063(2)
O7B O 1.0403(6) -0.2188(5) 0.5288(3)
O8B O 1.2318(6) -0.0328(7) 0.3795(3)
O9B O 1.2364(6) -0.1654(6) 0.6055(3)
O10B O 1.1514(6) 0.3038(5) 0.5447(3)
O11B O 0.5757(6) -0.3557(5) 0.5210(2)
O12B O 0.5073(6) -0.1144(5) 0.6649(2)
N1B N 0.6324(6) -0.4426(5) 0.6996(3)
N2B N 0.5385(6) -0.2355(6) 0.5927(3)
N3B N 0.5196(6) -0.4818(6) 0.6816(3)
H1B H 0.48440 -0.54128 0.69504
C1B C 0.5028(7) 0.0284(7) 0.4239(3)
C2B C 0.5078(6) -0.0468(7) 0.5186(3)
C3B C 0.5531(7) -0.2580(7) 0.5361(3)
C4B C 0.5344(7) -0.1591(7) 0.4976(3)
C5B C 0.5266(8) -0.0807(7) 0.4052(3)
H2B H 0.53119 -0.09297 0.36728
C6B C 0.6544(7) -0.3495(7) 0.6675(3)
C7B C 0.5138(7) -0.1257(7) 0.6153(3)
C8B C 0.5521(7) -0.3304(7) 0.6311(3)
C9B C 0.5442(7) -0.1752(7) 0.4419(3)
H3B H 0.56253 -0.24840 0.42830
C10B C 0.4709(8) -0.4158(7) 0.6403(4)
C12B C 0.7681(8) -0.2817(8) 0.6723(4)
H6B H 0.82819 -0.32292 0.69524
H7B H 0.79754 -0.27056 0.63599
H8B H 0.75276 -0.20752 0.68862
C15B C 0.3472(8) -0.4441(8) 0.6113(4)
H11B H 0.30198 -0.49300 0.63485
H12B H 0.30283 -0.37332 0.60379
H13B H 0.35879 -0.48369 0.57700
O13A O 0.3680(6) 0.5470(6) 0.1839(2)
N4A N 0.3845(9) 0.5280(7) 0.0914(3)
C11A C 0.2299(9) 0.6484(9) 0.1152(4)
H4A H 0.25293 0.72898 0.12153
H5A H 0.15687 0.63198 0.13443
C13A C 0.3316(9) 0.5681(8) 0.1339(4)
C14A C 0.3316(11) 0.5587(10) 0.0366(4)
H9A H 0.31363 0.49040 0.01393
H10A H 0.38412 0.61059 0.01722
C17A C 0.4987(12) 0.4594(11) 0.0969(5)
H14A H 0.52271 0.44893 0.13558
H15A H 0.56191 0.49993 0.07911
H16A H 0.48550 0.38488 0.07968
C19A C 0.2103(11) 0.6224(10) 0.0531(5)
H17A H 0.19771 0.69372 0.03211
H18A H 0.13997 0.57242 0.04593
Zn1B Zn 0.75000 -0.53547(11) 0.75000
N1A N 0.1324(6) 0.4426(5) 0.1996(3)
#END
