
#######################################################################
#
#                 Cambridge Crystallographic Data Centre
#                                CCDC
#
#######################################################################
#
# If this CIF has been generated from an entry in the Cambridge
# Structural Database, then it will include bibliographic, chemical,
# crystal, experimental, refinement or atomic coordinate data resulting
# from the CCDC's data processing and validation procedures.
#
#######################################################################

data_CSD_CIF_USATEO
_audit_creation_date 2011-08-30
_audit_creation_method CSD-ConQuest-V1
_database_code_CSD USATEO
_database_code_depnum_ccdc_archive 'CCDC 806330'
_chemical_formula_sum 'C32 H52 Cu4 N16 O32 Sr2'
_chemical_formula_moiety
;
(H12 O6 Sr1 2+)n,n(C32 H28 Cu4 N16 O20 Sr1 2-),6n(H2 O1)
;
_journal_coden_Cambridge 222
_journal_volume 40
_journal_year 2011
_journal_page_first 4970
_journal_name_full 'Dalton Trans. '
loop_
_publ_author_name
"Yanmei Chen"
"Lina Zheng"
"Shixiong She"
"Zhou Chen"
"Bin Hu"
"Yahong Li"
_chemical_name_systematic
;
catena-(Hexa-aqua-strontium 
tetrakis((\m~3~-pyrazole-3,5-dicarboxylato)-(imidazole))-tetra-aqua-tetra-copp
er-strontium hexahydrate)
;
_cell_volume   5545.764
_exptl_crystal_colour 'blue'
_exptl_crystal_density_diffrn 1.919
_exptl_special_details
;
Absolute configuration

;
_exptl_crystal_description 'block'
_diffrn_ambient_temperature 293
_refine_special_details
;
The structure is disordered.

;
#These two values have been output from a single CSD field.
_refine_ls_R_factor_gt 0.0614
_refine_ls_wR_factor_gt 0.0614
_symmetry_cell_setting tetragonal
_symmetry_space_group_name_H-M 'P 43'
_symmetry_Int_Tables_number 78
loop_
_symmetry_equiv_pos_site_id
_symmetry_equiv_pos_as_xyz
1 x,y,z
2 -y,x,3/4+z
3 -x,-y,1/2+z
4 y,-x,1/4+z
_cell_length_a 11.5093(2)
_cell_length_b 11.5093(2)
_cell_length_c 41.8662(11)
_cell_angle_alpha 90
_cell_angle_beta 90
_cell_angle_gamma 90
_cell_formula_units_Z 4
loop_
_atom_type_symbol
_atom_type_radius_bond
C 0.68
H 0.23
Cu 1.39
N 0.68
O 0.68
Sr 1.85
loop_
_atom_site_label
_atom_site_type_symbol
_atom_site_fract_x
_atom_site_fract_y
_atom_site_fract_z
Sr1 Sr 0.71482(9) 0.74946(9) 0.84537(5)
Cu1 Cu 1.12993(11) 1.10288(11) 0.88112(2)
Cu2 Cu 1.37138(11) 1.16593(11) 0.80833(2)
Cu3 Cu 0.29859(11) 1.40453(11) 0.88138(3)
Cu4 Cu 0.06954(11) 0.33321(11) 0.80577(3)
O1 O 0.9624(7) 0.9857(7) 0.87126(18)
O2 O 0.9017(7) 0.8700(8) 0.8317(2)
O3 O 1.3411(8) 1.1312(8) 0.76252(17)
O4 O 1.2184(7) 1.0503(8) 0.72874(18)
O5 O 0.4923(7) 0.9998(7) 0.81877(16)
O6 O 0.6032(8) 0.9376(8) 0.8592(2)
O7 O 0.3291(7) 1.3769(7) 0.92793(17)
O8 O 0.4120(9) 1.2487(8) 0.9604(2)
O9 O 0.4647(7) 0.5256(7) 0.87272(17)
O10 O 0.5251(8) 0.6436(8) 0.8336(2)
O11 O 0.1092(7) 0.3610(8) 0.75932(17)
O12 O 0.2380(7) 0.4421(8) 0.72808(18)
O13 O 1.0971(8) 0.1395(8) 0.92681(17)
O14 O 1.0159(9) 0.2743(8) 0.95909(19)
O15 O 0.9502(7) 0.5019(7) 0.81341(18)
O16 O 0.8352(8) 0.5693(7) 0.8515(2)
O17 O 0.8252(10) 0.8146(10) 0.8978(3)
H1 H 0.89760 0.80200 0.89970
H2 H 0.78780 0.84740 0.91280
O18 O 0.6284(10) 0.6694(10) 0.8990(2)
H3 H 0.60990 0.59810 0.90070
H4 H 0.61820 0.71520 0.91470
O19 O 0.7617(12) 0.6463(12) 0.7881(3)
H5 H 0.83080 0.62470 0.78410
H6 H 0.70850 0.63520 0.77430
O20 O 0.6401(9) 0.8418(9) 0.7913(2)
H7 H 0.65540 0.80990 0.77350
H8 H 0.59990 0.90370 0.79190
N1 N 1.1409(7) 1.0636(7) 0.83558(19)
N2 N 1.2134(7) 1.0966(8) 0.81244(17)
N3 N 1.2270(7) 0.9721(7) 0.89464(19)
N4 N 0.4049(8) 1.1749(7) 0.8548(2)
N5 N 0.3683(7) 1.2490(8) 0.8782(2)
N6 N 1.5033(8) 1.2645(8) 0.7963(2)
N7 N 0.2915(7) 0.4397(8) 0.8355(2)
N8 N 0.2234(7) 0.4003(8) 0.81133(18)
N9 N 0.1993(8) 1.5387(8) 0.8927(2)
N10 N 1.0600(7) 0.2591(8) 0.8759(2)
N11 N 1.0283(8) 0.3294(8) 0.85171(19)
N12 N -0.0622(8) 0.2378(8) 0.7928(2)
C1 C 1.3512(11) 0.8196(11) 0.8948(3)
H9 H 1.40010 0.75950 0.88850
N13 N 1.6289(9) 1.3589(9) 0.7668(2)
H10 H 1.66420 1.38640 0.75040
N14 N 0.0810(9) 1.6909(9) 0.8926(3)
H11 H 0.03790 1.74810 0.88680
N15 N -0.1811(8) 0.1366(9) 0.7631(2)
H12 H -0.21090 0.10740 0.74600
C2 C 1.0585(9) 0.9950(9) 0.8225(2)
C3 C 1.079(1) 0.9837(10) 0.7901(3)
H13 H 1.03580 0.94120 0.77540
C4 C 1.1777(9) 1.0492(10) 0.7842(3)
C5 C 0.9654(10) 0.9457(9) 0.8432(3)
C6 C 1.248(1) 1.0774(11) 0.7565(3)
C7 C 1.283(1) 0.891(1) 0.8760(3)
H14 H 1.27590 0.88500 0.85400
N16 N 1.3286(10) 0.860(1) 0.9255(3)
H15 H 1.35730 0.83090 0.94270
C8 C 1.2598(11) 0.9456(10) 0.9245(3)
H16 H 1.23470 0.98570 0.94250
C9 C 0.4738(10) 1.0932(11) 0.8682(3)
C10 C 0.4777(10) 1.1128(9) 0.9005(2)
H17 H 0.51700 1.06930 0.91580
C11 C 0.4103(10) 1.2114(9) 0.9056(2)
C12 C 0.527(1) 1.0045(10) 0.8476(3)
C13 C 0.3829(11) 1.2832(11) 0.9340(2)
C14 C 1.5384(10) 1.2878(10) 0.7674(2)
H18 H 1.50350 1.25780 0.74910
C15 C 1.6551(12) 1.3782(11) 0.7977(3)
H19 H 1.71690 1.42260 0.80520
C16 C 1.5762(10) 1.3221(10) 0.8160(3)
H20 H 1.57280 1.32310 0.83820
C17 C 0.3740(9) 0.5121(9) 0.8228(3)
C18 C 0.3614(11) 0.5193(11) 0.7904(3)
H21 H 0.40640 0.56140 0.77610
C19 C 0.2687(9) 0.4513(9) 0.7841(3)
C20 C 0.4612(9) 0.5628(10) 0.8467(3)
C21 C 0.2061(10) 0.4185(11) 0.7547(2)
C22 C 0.145(1) 1.6165(11) 0.8737(3)
H22 H 0.15000 1.61940 0.85160
C23 C 0.1041(12) 1.6593(12) 0.9232(3)
H23 H 0.07390 1.69490 0.94130
C24 C 0.1735(12) 1.5735(12) 0.9231(3)
H24 H 0.20310 1.53880 0.94140
C25 C 1.0149(11) 0.3049(11) 0.9025(3)
C26 C 0.9474(10) 0.3969(9) 0.8958(3)
H25 H 0.90340 0.44080 0.91000
C27 C 0.9574(10) 0.412(1) 0.8634(3)
C28 C 1.0443(12) 0.2336(11) 0.9326(3)
C29 C 0.9114(10) 0.5003(10) 0.8421(3)
C30 C -0.0844(12) 0.2041(12) 0.7642(4)
H26 H -0.03980 0.22360 0.74650
C31 C -0.2160(12) 0.1212(12) 0.7921(3)
H27 H -0.27950 0.07700 0.79850
C32 C -0.1431(9) 0.1813(9) 0.8117(3)
H28 H -0.14700 0.18400 0.83390
Sr2 Sr 0.73039(17) 0.0130(2) 0.97394(7)
O21 O 0.6240(12) -0.1105(11) 0.9370(3)
H29 H 0.58240 -0.16600 0.94400
H30 H 0.62800 -0.09750 0.91700
O22 O 0.9375(9) -0.0337(9) 0.9558(2)
H31 H 0.98620 -0.06080 0.96910
H32 H 0.95780 -0.02130 0.93650
O23 O 0.8567(12) 0.1576(13) 1.0030(3)
H33 H 0.86220 0.15700 1.02320
H34 H 0.89280 0.20860 0.99220
O24 O 0.5270(9) 0.0686(10) 0.9855(3)
H35 H 0.50030 0.05960 1.00430
H36 H 0.48430 0.09750 0.97100
O25 O 0.7487(12) -0.1925(14) 0.9947(4)
H37 H 0.74120 -0.20680 1.01460
H38 H 0.76390 -0.24730 0.98180
O26 O 0.7214(13) 0.2077(15) 0.9469(4)
H39 H 0.70650 0.26520 0.95900
H40 H 0.73120 0.21250 0.92680
O27 O 0.6878(14) 0.4197(14) 0.9856(3)
H41 H 0.61430 0.41550 0.98410
H42 H 0.72500 0.36750 0.99570
O28 O 0.9558(13) 0.4985(11) 0.9810(3)
H43 H 0.88530 0.47700 0.98220
H44 H 1.00880 0.45840 0.98990
O29 O 0.5080(11) 0.5419(11) 0.9587(3)
H45 H 0.52740 0.48240 0.96950
H46 H 0.43690 0.55430 0.95440
O30 O 0.3587(10) 0.8031(9) 0.7964(3)
H47 H 0.32520 0.74650 0.80560
H48 H 0.32760 0.83460 0.78020
O31 O 0.8102(13) 0.6403(14) 0.9494(4)
H49 H 0.83440 0.60680 0.96630
H50 H 0.74770 0.61770 0.94060
O32? O 0.7049(12) -0.0004(16) 1.0385(3)
H51? H 0.71530 0.06800 1.03140
H52? H 0.68970 -0.07020 1.04360
Cu1* Cu 1.12993(11) 0.10288(11) 0.88112(2)
Cu2* Cu 0.37138(11) 1.16593(11) 0.80833(2)
Cu3* Cu 0.29859(11) 0.40453(11) 0.88138(3)
Cu4* Cu 1.06954(11) 0.33321(11) 0.80577(3)
O5* O 1.4923(7) 0.9998(7) 0.81877(16)
O9* O 0.4647(7) 1.5256(7) 0.87272(17)
O13* O 1.0971(8) 1.1395(8) 0.92681(17)
O15* O -0.0498(7) 0.5019(7) 0.81341(18)
N4* N 1.4049(8) 1.1749(7) 0.8548(2)
N7* N 0.2915(7) 1.4397(8) 0.8355(2)
N10* N 1.0600(7) 1.2591(8) 0.8759(2)
N11* N 0.0283(8) 0.3294(8) 0.85171(19)
#END
