
#######################################################################
#
#                 Cambridge Crystallographic Data Centre
#                                CCDC
#
#######################################################################
#
# If this CIF has been generated from an entry in the Cambridge
# Structural Database, then it will include bibliographic, chemical,
# crystal, experimental, refinement or atomic coordinate data resulting
# from the CCDC's data processing and validation procedures.
#
#######################################################################

data_CSD_CIF_USAYOE
_audit_creation_date 2016-08-08
_audit_creation_method CSD-ConQuest-V1
_database_code_CSD USAYOE
_database_code_depnum_ccdc_archive 'CCDC 1423650'
_chemical_formula_sum 'C116 H94 Co7 N4 O42'
_chemical_formula_moiety
;
(C102 H66 Co7 O41 2-)n,2(C7 H13 N2 1+),H2 O1
;
_journal_coden_Cambridge 603
_journal_volume 35
_journal_year 2016
_journal_page_first 980
_journal_name_full 'Jiegou Huaxue(Chin.)(Chin.J.Struct.Chem.) '
loop_
_publ_author_name
"Sa-Ying Li"
_chemical_name_systematic
;
catena-[bis(1-methyl-3-propyl-1H-imidazol-3-ium) 
heptakis(\m-4-(4-carboxylatophenoxy)benzoato)-bis(\m-acetato)-diaqua-hepta-cob
alt(ii) monohydrate]
;
_cell_volume   5694.218
_exptl_crystal_density_diffrn 1.532
_diffrn_ambient_temperature 293
#These two values have been output from a single CSD field.
_refine_ls_R_factor_gt 0.0387
_refine_ls_wR_factor_gt 0.0387
_symmetry_cell_setting monoclinic
_symmetry_space_group_name_H-M 'P 2/c'
_symmetry_Int_Tables_number 13
loop_
_symmetry_equiv_pos_site_id
_symmetry_equiv_pos_as_xyz
1 x,y,z
2 -x,y,1/2-z
3 -x,-y,-z
4 x,-y,-1/2+z
_cell_length_a 19.4499(4)
_cell_length_b 10.8839(2)
_cell_length_c 27.7796(5)
_cell_angle_alpha 90
_cell_angle_beta 104.467(2)
_cell_angle_gamma 90
_cell_formula_units_Z 2
loop_
_atom_type_symbol
_atom_type_radius_bond
C 0.68
H 0.23
Co 1.26
N 0.68
O 0.68
loop_
_atom_site_label
_atom_site_type_symbol
_atom_site_fract_x
_atom_site_fract_y
_atom_site_fract_z
Co1 Co 0.50000 0.50000 0.00000
O1 O 0.45826(12) 0.4531(2) 0.06063(8)
O2 O 0.41617(11) 0.63151(19) -0.02234(7)
O3 O 0.43049(12) 0.6220(2) 0.45937(8)
C1 C 0.41540(16) 0.4793(3) 0.08502(11)
Co2 Co 0.40132(2) 0.72571(4) 0.042193(14)
C2 C 0.40848(16) 0.7330(3) -0.04618(11)
C3 C 0.4099(2) 0.3950(4) 0.12655(17)
O4 O 0.37535(11) 0.5743(2) 0.07676(8)
O5 O 0.40209(13) 0.8298(2) -0.02321(8)
O6 O 0.49513(12) 0.7374(2) 0.42085(9)
O7 O 0.38488(11) 1.1462(2) -0.40971(8)
O8 O 0.27973(12) 0.2708(2) 0.51378(8)
C4 C 0.40330(16) 0.7344(3) -0.10023(11)
H1 H 0.36190 0.36660 0.12130
H2 H 0.42340 0.43850 0.15760
H3 H 0.44100 0.32600 0.12740
Co3 Co 0.27081(2) 0.62442(4) 0.081540(14)
C5 C 0.39228(17) 0.6263(3) -0.12780(12)
C6 C 0.40805(18) 0.8448(3) -0.12439(12)
O9 O 0.15996(11) 0.6696(2) 0.07740(8)
O10 O 0.25729(11) 0.4862(2) 0.12523(8)
O11 O 0.30269(12) 1.2271(2) -0.37555(9)
O12 O 0.21639(12) 0.4385(2) 0.50721(8)
H4 H 0.38990 0.55180 -0.11190
C7 C 0.38487(17) 0.6284(3) -0.17828(11)
C8 C 0.40187(18) 0.8471(3) -0.17501(12)
H5 H 0.41540 0.91770 -0.10630
Co4 Co 0.11185(2) 0.53395(4) 0.026867(14)
C9 C 0.12623(16) 0.7611(3) 0.09085(11)
C10 C 0.20236(16) 0.4197(3) 0.11794(11)
H6 H 0.37670 0.55580 -0.19650
C11 C 0.38953(17) 0.7386(3) -0.20207(11)
H7 H 0.40600 0.92100 -0.19090
O13 O 0.16114(12) 0.3986(2) 0.07616(7)
O14 O 0.08019(12) 0.4106(2) -0.02994(8)
O15 O 0.06135(14) 0.6793(2) -0.01872(9)
O16 O -0.02783(11) 0.4896(2) -0.05998(8)
C12 C 0.14516(16) 0.7928(3) 0.14494(11)
O17 O 0.07937(13) 0.8192(2) 0.06174(8)
C13 C 0.18444(17) 0.3656(3) 0.16271(11)
O18 O 0.38429(14) 0.7319(2) -0.25224(8)
C14 C 0.02433(17) 0.4268(3) -0.06424(11)
C15 C 0.11612(17) 0.8953(3) 0.16188(12)
C16 C 0.19001(17) 0.7175(3) 0.17921(12)
C17 C 0.12305(18) 0.2961(3) 0.15780(11)
C18 C 0.22455(17) 0.3919(3) 0.21002(11)
C19 C 0.37450(18) 0.8386(3) -0.28092(11)
C20 C 0.02095(16) 0.3712(3) -0.11382(11)
H8 H 0.08540 0.94570 0.13920
C21 C 0.13209(17) 0.9239(3) 0.21198(12)
C22 C 0.20583(18) 0.7443(3) 0.22939(12)
H9 H 0.20960 0.64820 0.16830
H10 H 0.09590 0.27600 0.12620
C23 C 0.10188(19) 0.2565(3) 0.19911(12)
C24 C 0.20456(18) 0.3527(3) 0.25196(12)
H11 H 0.26610 0.43720 0.21380
C25 C 0.42649(18) 0.8675(3) -0.30457(12)
C26 C 0.31330(19) 0.9081(3) -0.28819(12)
C27 C -0.02566(17) 0.4198(3) -0.15573(12)
C28 C 0.06123(18) 0.2701(3) -0.11875(12)
H12 H 0.11300 0.99370 0.22300
C29 C 0.17668(16) 0.8474(3) 0.24520(11)
H13 H 0.23580 0.69330 0.25220
H14 H 0.06050 0.21070 0.19540
C30 C 0.14290(18) 0.2855(3) 0.24614(12)
H15 H 0.23230 0.37130 0.28350
H16 H 0.46780 0.82090 -0.29890
C31 C 0.41695(17) 0.9663(3) -0.33685(12)
H17 H 0.27820 0.88760 -0.27220
C32 C 0.30497(18) 1.0088(3) -0.31955(13)
H18 H -0.05360 0.48720 -0.15250
C33 C -0.03103(18) 0.3688(3) -0.20241(12)
C34 C 0.05432(19) 0.2150(3) -0.16435(12)
H19 H 0.09350 0.23870 -0.09100
O19 O 0.18907(13) 0.8784(2) 0.29500(8)
O20 O 0.11829(15) 0.2406(3) 0.28489(8)
C35 C 0.35639(17) 1.0389(3) -0.34394(11)
H20 H 0.45120 0.98430 -0.35390
H21 H 0.26420 1.05670 -0.32420
H22 H -0.06050 0.40390 -0.23060
C36 C 0.00819(17) 0.2651(3) -0.20610(11)
H23 H 0.08030 0.14480 -0.16710
C37 C 0.25001(17) 0.8290(3) 0.32668(12)
C38 C 0.15326(19) 0.2727(4) 0.33343(12)
C39 C 0.34705(16) 1.1462(3) -0.37909(11)
O21 O 0.00000 0.2015(3) -0.25000
C40 C 0.24436(19) 0.7383(4) 0.35949(15)
C41 C 0.3146(2) 0.8736(4) 0.32428(15)
C42 C 0.1978(2) 0.1892(4) 0.36194(13)
C43 C 0.1380(2) 0.3833(4) 0.35291(13)
C44 C 0.30590(19) 0.6941(4) 0.39168(14)
H24 H 0.20020 0.70680 0.36020
C45 C 0.37532(19) 0.8294(4) 0.35641(14)
H25 H 0.31770 0.93370 0.30110
C46 C 0.22733(19) 0.2150(3) 0.41184(13)
H26 H 0.20840 0.11590 0.34810
C47 C 0.1669(2) 0.4082(4) 0.40254(12)
H27 H 0.10850 0.44020 0.33280
C48 C 0.37144(17) 0.7411(3) 0.39076(12)
H28 H 0.30290 0.63210 0.41410
H29 H 0.41940 0.85980 0.35480
C49 C 0.21118(17) 0.3241(3) 0.43268(11)
H30 H 0.25810 0.15890 0.43140
H31 H 0.15670 0.48230 0.41590
C50 C 0.43789(17) 0.6955(3) 0.42644(11)
C51 C 0.23751(16) 0.3466(3) 0.48695(11)
H32 H 0.02110 0.65820 -0.03340
H33 H 0.062(3) 0.741(6) 0.002(2)
C52 C 0.4141(2) 0.1078(5) 0.0182(2)
H34 H 0.43060 0.04070 0.04060
H35 H 0.44360 0.17840 0.02880
H36 H 0.41640 0.08500 -0.01480
C53 C 0.2936(2) 0.0581(4) 0.02617(18)
H37 H 0.30030 -0.02610 0.03060
C54 C 0.3104(3) 0.2507(4) 0.01202(17)
H38 H 0.33190 0.32310 0.00560
C55 C 0.2451(3) 0.2397(5) 0.0167(2)
H39 H 0.21170 0.30230 0.01370
C56 C 0.1728(3) 0.0647(7) 0.0422(3)
H40 H 0.16610 0.10840 0.07110
H41 H 0.18240 -0.02070 0.05140
C57 C 0.1057(3) 0.0729(6) 0.0009(3)
H42 H 0.09690 0.15830 -0.00860
H43 H 0.06610 0.04430 0.01340
C58 C 0.1081(5) -0.0010(7) -0.0447(3)
H44 H 0.13660 0.04140 -0.06310
H45 H 0.06080 -0.01100 -0.06530
H46 H 0.12840 -0.08020 -0.03480
N1 N 0.34112(18) 0.1368(3) 0.01817(12)
N2 N 0.2354(2) 0.1183(4) 0.02680(16)
O22 O 0.4892(10) 0.6787(18) 0.2096(6)
O14A O -0.08019(12) 0.4106(2) -0.47006(8)
O16A O 0.02783(11) 0.4896(2) -0.44002(8)
C14A C -0.02433(17) 0.4268(3) -0.43576(11)
C20A C -0.02095(16) 0.3712(3) -0.38618(11)
C27A C 0.02566(17) 0.4198(3) -0.34427(12)
C28A C -0.06123(18) 0.2701(3) -0.38125(12)
H18A H 0.05360 0.48720 -0.34750
C33A C 0.03103(18) 0.3688(3) -0.29759(12)
C34A C -0.05432(19) 0.2150(3) -0.33565(12)
H19A H -0.09350 0.23870 -0.40900
H22A H 0.06050 0.40390 -0.26940
C36A C -0.00819(17) 0.2651(3) -0.29390(11)
H23A H -0.08030 0.14480 -0.33290
O1A O -0.45826(12) 0.4531(2) -0.56063(8)
O2A O -0.41617(11) 0.63151(19) -0.47766(7)
O3A O -0.43049(12) 0.6220(2) -0.95937(8)
C1A C -0.41540(16) 0.4793(3) -0.58502(11)
Co2A Co -0.40132(2) 0.72571(4) -0.542193(14)
C2A C -0.40848(16) 0.7330(3) -0.45382(11)
C3A C -0.4099(2) 0.3950(4) -0.62655(17)
O4A O -0.37535(11) 0.5743(2) -0.57676(8)
O5A O -0.40209(13) 0.8298(2) -0.47679(8)
O6A O -0.49513(12) 0.7374(2) -0.92085(9)
O7A O -0.38488(11) 1.1462(2) -0.09029(8)
O8A O -0.27973(12) 0.2708(2) -1.01378(8)
C4A C -0.40330(16) 0.7344(3) -0.39977(11)
H1A H -0.36190 0.36660 -0.62130
H2A H -0.42340 0.43850 -0.65760
H3A H -0.44100 0.32600 -0.62740
Co3A Co -0.27081(2) 0.62442(4) -0.581540(14)
C5A C -0.39228(17) 0.6263(3) -0.37220(12)
C6A C -0.40805(18) 0.8448(3) -0.37561(12)
O9A O -0.15996(11) 0.6696(2) -0.57740(8)
O10A O -0.25729(11) 0.4862(2) -0.62523(8)
O11A O -0.30269(12) 1.2271(2) -0.12445(9)
O12A O -0.21639(12) 0.4385(2) -1.00721(8)
H4A H -0.38990 0.55180 -0.38810
C7A C -0.38487(17) 0.6284(3) -0.32172(11)
C8A C -0.40187(18) 0.8471(3) -0.32499(12)
H5A H -0.41540 0.91770 -0.39370
Co4A Co -0.11185(2) 0.53395(4) -0.526867(14)
C9A C -0.12623(16) 0.7611(3) -0.59085(11)
C10A C -0.20236(16) 0.4197(3) -0.61794(11)
H6A H -0.37670 0.55580 -0.30350
C11A C -0.38953(17) 0.7386(3) -0.29793(11)
H7A H -0.40600 0.92100 -0.30910
O13A O -0.16114(12) 0.3986(2) -0.57616(7)
O15A O -0.06135(14) 0.6793(2) -0.48128(9)
C12A C -0.14516(16) 0.7928(3) -0.64494(11)
O17A O -0.07937(13) 0.8192(2) -0.56174(8)
C13A C -0.18444(17) 0.3656(3) -0.66271(11)
O18A O -0.38429(14) 0.7319(2) -0.24776(8)
C15A C -0.11612(17) 0.8953(3) -0.66188(12)
C16A C -0.19001(17) 0.7175(3) -0.67921(12)
C17A C -0.12305(18) 0.2961(3) -0.65780(11)
C18A C -0.22455(17) 0.3919(3) -0.71002(11)
C19A C -0.37450(18) 0.8386(3) -0.21908(11)
H8A H -0.08540 0.94570 -0.63920
C21A C -0.13209(17) 0.9239(3) -0.71198(12)
C22A C -0.20583(18) 0.7443(3) -0.72939(12)
H9A H -0.20960 0.64820 -0.66830
H10A H -0.09590 0.27600 -0.62620
C23A C -0.10188(19) 0.2565(3) -0.69911(12)
C24A C -0.20456(18) 0.3527(3) -0.75196(12)
H11A H -0.26610 0.43720 -0.71380
C25A C -0.42649(18) 0.8675(3) -0.19543(12)
C26A C -0.31330(19) 0.9081(3) -0.21181(12)
H12A H -0.11300 0.99370 -0.72300
C29A C -0.17668(16) 0.8474(3) -0.74520(11)
H13A H -0.23580 0.69330 -0.75220
H14A H -0.06050 0.21070 -0.69540
C30A C -0.14290(18) 0.2855(3) -0.74614(12)
H15A H -0.23230 0.37130 -0.78350
H16A H -0.46780 0.82090 -0.20110
C31A C -0.41695(17) 0.9663(3) -0.16315(12)
H17A H -0.27820 0.88760 -0.22780
C32A C -0.30497(18) 1.0088(3) -0.18045(13)
O19A O -0.18907(13) 0.8784(2) -0.79500(8)
O20A O -0.11829(15) 0.2406(3) -0.78489(8)
C35A C -0.35639(17) 1.0389(3) -0.15606(11)
H20A H -0.45120 0.98430 -0.14610
H21A H -0.26420 1.05670 -0.17580
C37A C -0.25001(17) 0.8290(3) -0.82668(12)
C38A C -0.15326(19) 0.2727(4) -0.83343(12)
C39A C -0.34705(16) 1.1462(3) -0.12091(11)
C40A C -0.24436(19) 0.7383(4) -0.85949(15)
C41A C -0.3146(2) 0.8736(4) -0.82428(15)
C42A C -0.1978(2) 0.1892(4) -0.86194(13)
C43A C -0.1380(2) 0.3833(4) -0.85291(13)
C44A C -0.30590(19) 0.6941(4) -0.89168(14)
H24A H -0.20020 0.70680 -0.86020
C45A C -0.37532(19) 0.8294(4) -0.85641(14)
H25A H -0.31770 0.93370 -0.80110
C46A C -0.22733(19) 0.2150(3) -0.91184(13)
H26A H -0.20840 0.11590 -0.84810
C47A C -0.1669(2) 0.4082(4) -0.90254(12)
H27A H -0.10850 0.44020 -0.83280
C48A C -0.37144(17) 0.7411(3) -0.89076(12)
H28A H -0.30290 0.63210 -0.91410
H29A H -0.41940 0.85980 -0.85480
C49A C -0.21118(17) 0.3241(3) -0.93268(11)
H30A H -0.25810 0.15890 -0.93140
H31A H -0.15670 0.48230 -0.91590
C50A C -0.43789(17) 0.6955(3) -0.92644(11)
C51A C -0.23751(16) 0.3466(3) -0.98695(11)
H32A H -0.02110 0.65820 -0.46660
H33A H -0.062(3) 0.741(6) -0.502(2)
Co1* Co -0.50000 0.50000 -1.00000
Co1A Co -0.50000 0.50000 -0.50000
Co1A* Co 0.50000 0.50000 0.50000
O1B O 0.54174(12) 0.5469(2) -0.06063(8)
O2B O 0.58383(11) 0.36849(19) 0.02234(7)
O3A* O 0.56951(12) 0.6220(2) 0.04063(8)
O3C O 0.43049(12) 0.3780(2) -0.04063(8)
Co2* Co -0.59868(2) 0.72571(4) -0.957807(14)
Co2A* Co 0.59868(2) 0.72571(4) 0.457807(14)
Co2B Co -0.40132(2) 0.27429(4) -1.042193(14)
Co2B* Co -0.40132(2) 1.27429(4) -0.042193(14)
Co2C Co 0.40132(2) 0.27429(4) 0.542193(14)
Co2C* Co 0.40132(2) 1.27429(4) -0.457807(14)
O6* O -0.50487(12) 0.7374(2) -0.57915(9)
O6A* O 0.50487(12) 0.7374(2) 0.07915(9)
O7B O -0.38488(11) 0.8538(2) -0.59029(8)
O7C O 0.38488(11) 0.8538(2) 0.09029(8)
O8B O -0.27973(12) 0.7292(2) -0.51378(8)
O8C O 0.27973(12) 0.7292(2) 0.01378(8)
Co3B Co -0.27081(2) 0.37558(4) -1.081540(14)
Co3B* Co -0.27081(2) 1.37558(4) -0.081540(14)
Co3C Co 0.27081(2) 0.37558(4) 0.581540(14)
Co3C* Co 0.27081(2) 1.37558(4) -0.418460(14)
O11B O -0.30269(12) 0.7729(2) -0.62445(9)
O11C O 0.30269(12) 0.7729(2) 0.12445(9)
O12B O -0.21639(12) 0.5615(2) -0.50721(8)
O12C O 0.21639(12) 0.5615(2) 0.00721(8)
Co4B Co -0.11185(2) 0.46605(4) -1.026867(14)
Co4B* Co -0.11185(2) 0.46605(4) -0.026867(14)
Co4C Co 0.11185(2) 0.46605(4) -0.473133(14)
Co4C* Co 0.11185(2) 0.46605(4) 0.526867(14)
O16B O 0.02783(11) 0.5104(2) 0.05998(8)
O16C O -0.02783(11) 0.5104(2) -0.55998(8)
#END
