
#######################################################################
#
#                 Cambridge Crystallographic Data Centre
#                                CCDC
#
#######################################################################
#
# If this CIF has been generated from an entry in the Cambridge
# Structural Database, then it will include bibliographic, chemical,
# crystal, experimental, refinement or atomic coordinate data resulting
# from the CCDC's data processing and validation procedures.
#
#######################################################################

data_CSD_CIF_USONEY
_audit_creation_date 2021-04-30
_audit_creation_method CSD-ConQuest-V1
_database_code_CSD USONEY
_database_code_depnum_ccdc_archive 'CCDC 2044660'
_chemical_formula_sum 'C124 H166 N8 O66 Zn11'
_chemical_formula_moiety
;
(C102 H72 O42 Zn11 2-)n,6(C3 H7 N1 O1),18(H2 O1),2(C2 H8 N1 1+)
;
_journal_coden_Cambridge 9
_journal_year 2021
_journal_name_full 'Inorg.Chem. '
loop_
_publ_author_name
"Hui-Jun Chen"
"Lu Xu"
"Man-Ting Chen"
"Li-Rong Lin"
"Gui-Lin Zhuang"
"La-Sheng Long"
"Lan-Sun Zheng"
_chemical_name_systematic
;
catena-[bis(dimethylammonium) 
hexakis(\m-[1,1'-biphenyl]-3,3'-dicarboxylato)-hexakis(\m-D-lactato)-undeca-zi
nc(ii) N,N-dimethylformamide solvate octadecahydrate]
;
_cell_volume  23921.480
_exptl_crystal_colour 'colorless'
_exptl_special_details
;
Absolute configuration

;
_exptl_crystal_description 'block'
_diffrn_ambient_temperature 100
_refine_special_details
;
Disordered water solvent molecules were not modelled and the disordered 
density was taken into account using the SQUEEZE/PLATON procedure.
;
#These two values have been output from a single CSD field.
_refine_ls_R_factor_gt 0.0518
_refine_ls_wR_factor_gt 0.0518
loop_
_citation_database_id_CSD
_citation_special_details
USONAU "is a stereoisomer of this entry"
_symmetry_cell_setting cubic
_symmetry_space_group_name_H-M 'P 41 3 2'
_symmetry_Int_Tables_number 213
loop_
_symmetry_equiv_pos_site_id
_symmetry_equiv_pos_as_xyz
1 x,y,z
2 1/2-x,-y,1/2+z
3 -x,1/2+y,1/2-z
4 1/2+x,1/2-y,-z
5 z,x,y
6 1/2+z,1/2-x,-y
7 1/2-z,-x,1/2+y
8 -z,1/2+x,1/2-y
9 y,z,x
10 -y,1/2+z,1/2-x
11 1/2+y,1/2-z,-x
12 1/2-y,-z,1/2+x
13 3/4+y,1/4+x,1/4-z
14 3/4-y,3/4-x,3/4-z
15 1/4+y,1/4-x,3/4+z
16 1/4-y,3/4+x,1/4+z
17 3/4+x,1/4+z,1/4-y
18 1/4-x,3/4+z,1/4+y
19 3/4-x,3/4-z,3/4-y
20 1/4+x,1/4-z,3/4+y
21 3/4+z,1/4+y,1/4-x
22 1/4+z,1/4-y,3/4+x
23 1/4-z,3/4+y,1/4+x
24 3/4-z,3/4-y,3/4-x
_cell_length_a 28.8135(3)
_cell_length_b 28.8135(3)
_cell_length_c 28.8135(3)
_cell_angle_alpha 90
_cell_angle_beta 90
_cell_angle_gamma 90
_cell_formula_units_Z 4
loop_
_atom_type_symbol
_atom_type_radius_bond
C 0.68
H 0.23
N 0.68
O 0.68
Zn 1.22
loop_
_atom_site_label
_atom_site_type_symbol
_atom_site_fract_x
_atom_site_fract_y
_atom_site_fract_z
Zn1 Zn 0.62045(3) 0.62045(3) 0.62045(3)
O1 O 0.55353(14) 0.60493(16) 0.63538(16)
O2 O 0.68829(14) 0.64201(15) 0.60649(15)
C1 C 0.5332(2) 0.5778(2) 0.6620(2)
Zn2 Zn 0.73517(3) 0.58560(3) 0.62010(3)
C2 C 0.5967(2) 0.7065(2) 0.6797(2)
O3 O 0.54137(16) 0.57546(17) 0.70649(15)
C3 C 0.49666(14) 0.54702(15) 0.64285(14)
O4 O 0.68693(16) 0.71687(16) 0.58526(18)
O5 O 0.60468(17) 0.77804(15) 0.63683(16)
O6 O 0.63403(18) 0.78980(15) 0.53996(17)
C4 C 0.6024(3) 0.7603(2) 0.6818(2)
C5 C 0.49124(16) 0.54606(17) 0.59492(14)
C6 C 0.46856(15) 0.51957(17) 0.67085(11)
Zn3 Zn 0.84131(3) 0.62500 0.59131(3)
C7 C 0.6405(2) 0.8324(3) 0.5406(2)
H1 H 0.57576 0.77389 0.69804
C8 C 0.6467(3) 0.7714(3) 0.7084(3)
H2 H 0.51004 0.56442 0.57618
C9 C 0.45772(19) 0.5177(2) 0.57500(11)
C10 C 0.43504(15) 0.49116(17) 0.65093(15)
H3 H 0.47219 0.52021 0.70292
O7 O 0.87763(16) 0.67877(18) 0.61014(17)
C11 C 0.66332(15) 0.85364(15) 0.49904(18)
H4 H 0.67005 0.74883 0.70098
H5 H 0.64048 0.77051 0.74117
H6 H 0.65743 0.80174 0.69997
H7 H 0.45409 0.51702 0.54293
C12 C 0.42962(17) 0.49021(18) 0.60300(16)
C13 C 0.40474(15) 0.46115(19) 0.68104(16)
C14 C 0.68920(11) 0.82580(17) 0.46934(18)
C15 C 0.65940(14) 0.90095(18) 0.4904(2)
H8 H 0.40719 0.47120 0.58968
C16 C 0.35744(17) 0.4572(2) 0.67244(17)
H9 H 0.69183 0.79415 0.47510
C17 C 0.68130(12) 0.9204(2) 0.4521(2)
H10 H 0.64206 0.91958 0.51030
H11 H 0.34441 0.47189 0.64681
H12 H 0.67869 0.95206 0.44638
N1 N 0.4139(5) 0.6810(5) 0.5484(5)
O8 O 0.3509(7) 0.6441(7) 0.5127(7)
C18 C 0.4352(6) 0.6357(5) 0.5606(6)
H13 H 0.41675 0.62072 0.58402
H14 H 0.46600 0.64064 0.57226
H15 H 0.43652 0.61634 0.53352
C19 C 0.3734(6) 0.6786(7) 0.5178(6)
H16 H 0.36476 0.70516 0.50152
C20 C 0.4401(7) 0.7222(7) 0.5658(7)
H17 H 0.43765 0.72370 0.59898
H18 H 0.42745 0.74994 0.55242
H19 H 0.47221 0.71937 0.55718
O1D O 0.63538(14) 0.55353(16) 0.60493(16)
O1H O 0.60493(14) 0.63538(16) 0.55353(16)
O2D O 0.60649(14) 0.68829(15) 0.64201(15)
O2H O 0.64201(14) 0.60649(15) 0.68829(15)
C1D C 0.6620(2) 0.5332(2) 0.5778(2)
C1H C 0.5778(2) 0.6620(2) 0.5332(2)
Zn2D Zn 0.62010(3) 0.73517(3) 0.58560(3)
Zn2H Zn 0.58560(3) 0.62010(3) 0.73517(3)
O3D O 0.70649(16) 0.54137(17) 0.57546(15)
C3D C 0.64285(14) 0.49666(15) 0.54702(14)
O3H O 0.57546(16) 0.70649(17) 0.54137(15)
C3H C 0.54702(14) 0.64285(15) 0.49666(14)
O4D O 0.58526(16) 0.68693(16) 0.71687(18)
C5D C 0.59492(16) 0.49124(17) 0.54606(14)
C6D C 0.67085(15) 0.46856(17) 0.51957(11)
C5H C 0.54606(16) 0.59492(17) 0.49124(14)
C6H C 0.51957(15) 0.67085(17) 0.46856(11)
Zn3D Zn 0.59131(3) 0.84131 0.62500(3)
H2D H 0.57618 0.51004 0.56442
C9D C 0.57500(19) 0.45772(20) 0.51770(11)
C10D C 0.65093(15) 0.43504(17) 0.49116(15)
H3D H 0.70292 0.47219 0.52021
H2H H 0.56442 0.57618 0.51004
C9H C 0.51770(19) 0.5750(2) 0.45772(11)
C10H C 0.49116(15) 0.65093(17) 0.43504(15)
H3H H 0.52021 0.70292 0.47219
O5S O 0.85468(17) 0.61317(15) 0.52804(16)
O7P O 0.62763(16) 0.86014(18) 0.57123(17)
H7D H 0.54293 0.45409 0.51702
C12D C 0.60300(17) 0.42962(18) 0.49021(16)
C13D C 0.68104(15) 0.40474(19) 0.46115(16)
H7H H 0.51702 0.54293 0.45409
C12H C 0.49021(17) 0.60300(18) 0.42962(16)
C13H C 0.46115(15) 0.68104(19) 0.40474(16)
Zn2U Zn 0.87010(3) 0.66440(3) 0.48517(3)
C4S C 0.8524(3) 0.5682(2) 0.5103(2)
C7S C 0.8905(2) 0.7094(3) 0.5824(2)
C14O C 0.42420(11) 0.43920(17) 0.71934(18)
H8D H 0.58968 0.40719 0.47120
C16D C 0.67244(17) 0.35744(20) 0.45720(17)
C14U C 0.71934(11) 0.42420(17) 0.43920(18)
H8H H 0.47120 0.58968 0.40719
C16H C 0.45720(17) 0.67244(20) 0.35744(17)
C14P C 0.43920(11) 0.71934(17) 0.42420(18)
O3N O 0.82546(16) 0.70863(17) 0.45649(15)
O2U O 0.85649(14) 0.60799(15) 0.43829(15)
O4S O 0.93693(16) 0.66474(16) 0.46687(18)
O6S O 0.88403(18) 0.71004(15) 0.53980(17)
C2S C 0.8467(2) 0.5703(2) 0.4565(2)
C8S C 0.8967(3) 0.5416(3) 0.5214(3)
H1S H 0.82576 0.55196 0.52389
C11S C 0.91332(15) 0.75096(15) 0.60364(18)
C13N C 0.71115(15) 0.84526(19) 0.43104(16)
C17O C 0.32960(12) 0.4313(2) 0.7021(2)
C11O C 0.39636(15) 0.41332(15) 0.74904(18)
H9O H 0.45585 0.44183 0.72510
H11D H 0.64681 0.34441 0.47189
C17U C 0.70210(12) 0.3296(2) 0.4313(2)
C11U C 0.74904(15) 0.39636(15) 0.41332(18)
H9U H 0.72510 0.45585 0.44183
H11H H 0.47189 0.64681 0.34441
C17P C 0.43130(12) 0.7021(2) 0.3296(2)
C11P C 0.41332(15) 0.74904(15) 0.39636(18)
H9P H 0.44183 0.72510 0.45585
C1N C 0.8278(2) 0.7168(2) 0.4120(2)
Zn1N Zn 0.87045(3) 0.62955(3) 0.37045(3)
C2N C 0.9565(2) 0.6533(2) 0.4297(2)
O4U O 0.83526(16) 0.53313(16) 0.43693(18)
H4S H 0.92005 0.54902 0.49883
H6S H 0.90743 0.55003 0.55174
H5S H 0.89048 0.50883 0.52051
C14S C 0.93920(11) 0.78066(17) 0.57580(18)
C15S C 0.90940(14) 0.75960(18) 0.65095(20)
Zn1L Zn 0.37045(3) 0.87045(3) 0.62955(3)
O4P O 0.43693(16) 0.83526(16) 0.53313(18)
C10N C 0.74116(15) 0.81496(17) 0.40093(15)
C16N C 0.70720(17) 0.89256(20) 0.42244(17)
Zn1O Zn 0.62955(3) 0.37045(3) 0.87045(3)
O4O O 0.53313(16) 0.43693(16) 0.83526(18)
H12O H 0.29794 0.42869 0.69638
C15O C 0.34905(14) 0.40940(18) 0.7404(2)
C7O C 0.4176(2) 0.3905(3) 0.7906(2)
H12U H 0.69638 0.29794 0.42869
C15U C 0.74040(14) 0.34905(18) 0.4094(2)
C7U C 0.7906(2) 0.4176(3) 0.3905(2)
H12P H 0.42869 0.69638 0.29794
C15P C 0.40940(14) 0.74040(18) 0.34905(20)
C7P C 0.3905(2) 0.7906(3) 0.4176(2)
C3N C 0.79702(14) 0.75334(15) 0.39285(14)
O1N O 0.85493(14) 0.69647(16) 0.38538(16)
O2N O 0.89201(14) 0.56171(15) 0.35649(15)
O2S O 0.93829(14) 0.64351(15) 0.39201(15)
C4N C 1.0103(3) 0.6476(2) 0.4318(2)
Zn2N Zn 0.83560(3) 0.51483(3) 0.37010(3)
C13J C 0.96115(15) 0.81896(19) 0.59526(16)
H9S H 0.94183 0.77490 0.54415
C17S C 0.93130(12) 0.7979(2) 0.6704(2)
H10S H 0.89206 0.73970 0.66958
O2T O 0.35649(14) 0.89201(15) 0.56171(15)
Zn2T Zn 0.37010(3) 0.83560(3) 0.51483(3)
C6N C 0.76957(15) 0.78144(17) 0.42085(11)
C12N C 0.74021(17) 0.82038(18) 0.35300(16)
H11N H 0.72189 0.90559 0.39681
O2Q O 0.56171(14) 0.35649(15) 0.89201(15)
Zn2Q Zn 0.51483(3) 0.37010(3) 0.83560(3)
H10O H 0.33042 0.39206 0.76030
O7G O 0.38986(16) 0.37763(18) 0.82123(17)
O6O O 0.46020(18) 0.38403(15) 0.78996(17)
H10U H 0.76030 0.33042 0.39206
O7K O 0.82123(16) 0.38986(18) 0.37763(17)
O6U O 0.78996(18) 0.46020(15) 0.38403(17)
H10P H 0.39206 0.76030 0.33042
O7C O 0.37763(16) 0.82123(18) 0.38986(17)
O6P O 0.38403(18) 0.78996(15) 0.46020(17)
C5N C 0.79606(16) 0.75876(17) 0.34492(14)
C2U C 0.9297(2) 0.5435(2) 0.3467(2)
Zn2S Zn 0.98517(3) 0.62990(3) 0.33560(3)
O5N O 1.02804(17) 0.64532(15) 0.38683(16)
C8N C 1.0214(3) 0.6033(3) 0.4584(3)
H1N H 1.02389 0.67424 0.44804
O5U O 0.88683(17) 0.47196(15) 0.35468(16)
O3S O 0.79137(16) 0.54351(17) 0.32546(15)
C10J C 0.99116(15) 0.84907(17) 0.56496(15)
C16J C 0.95720(17) 0.82756(20) 0.64256(17)
H12S H 0.92869 0.80362 0.70206
C2P C 0.3467(2) 0.9297(2) 0.5435(2)
Zn2L Zn 0.33560(3) 0.98517(3) 0.62990(3)
O5P O 0.35468(17) 0.88683(15) 0.47196(16)
O3L O 0.32546(16) 0.79137(17) 0.54351(15)
H3N H 0.77021 0.77781 0.45292
C9N C 0.76770(19) 0.79228(20) 0.32500(11)
H8N H 0.72120 0.84281 0.33968
C2O C 0.5435(2) 0.3467(2) 0.9297(2)
Zn2V Zn 0.62990(3) 0.33560(3) 0.98517(3)
O5O O 0.47196(17) 0.35468(15) 0.88683(16)
O3V O 0.54351(16) 0.32546(17) 0.79137(15)
Zn3G Zn 0.40869(3) 0.34131 0.87500(3)
Zn3K Zn 0.87500(3) 0.40869 0.34131(3)
Zn3C Zn 0.34131(3) 0.87500 0.40869(3)
H2N H 0.81442 0.73996 0.32618
C4U C 0.9318(3) 0.4897(2) 0.3524(2)
O4N O 0.96687(16) 0.56307(16) 0.33526(18)
O6N O 1.03980(18) 0.61597(15) 0.28996(17)
O3U O 0.95649(16) 0.67454(17) 0.29137(15)
Zn3E Zn 1.09131(3) 0.65869 0.37500(3)
H4N H 0.99883 0.57995 0.45098
H6N H 1.05174 0.59257 0.44997
H5N H 1.02052 0.60952 0.49117
C6J C 1.01957(15) 0.82915(17) 0.53144(11)
C12J C 0.99021(17) 0.89700(18) 0.57038(16)
H11J H 0.97189 0.85319 0.65559
C4P C 0.3524(3) 0.9318(2) 0.4897(2)
O4T O 0.33526(16) 0.96687(16) 0.56307(18)
H7N H 0.76702 0.79591 0.29293
C4O C 0.4897(3) 0.3524(2) 0.9318(2)
O4Q O 0.56307(16) 0.33526(16) 0.96687(18)
O5B O 0.39532(17) 0.27804(15) 0.86317(16)
O7Q O 0.37237(16) 0.36014(18) 0.92877(17)
O5F O 0.86317(17) 0.39532(15) 0.27804(16)
O7N O 0.92877(16) 0.37237(18) 0.36014(17)
H1U H 0.94804 0.47611 0.32576
C8U C 0.9584(3) 0.4786(3) 0.3967(3)
C7N C 1.0824(2) 0.6095(3) 0.2906(2)
O5C O 1.10468(17) 0.72196(15) 0.36317(16)
O7E O 1.11014(16) 0.62237(18) 0.32123(17)
O7S O 1.12763(16) 0.63986(18) 0.42877(17)
C3J C 1.04702(14) 0.85715(15) 0.50334(14)
H3J H 1.02021 0.79708 0.52781
C9J C 1.01770(19) 0.9250(2) 0.54228(11)
H8J H 0.97120 0.91032 0.59281
H1P H 0.32576 0.94804 0.47611
C8P C 0.3967(3) 0.9584(3) 0.4786(3)
H1O H 0.47611 0.32576 0.94804
C8O C 0.4786(3) 0.3967(3) 0.9584(3)
Zn2K Zn 0.91440(3) 0.37990(3) 0.23517(3)
H4U H 0.95098 0.50117 0.42005
H5U H 0.99117 0.47949 0.39048
H6U H 0.94997 0.44826 0.40743
C11N C 1.10364(15) 0.58668(15) 0.24904(18)
Zn2E Zn 1.12010(3) 0.76483(3) 0.41440(3)
C1J C 1.0778(2) 0.8380(2) 0.4668(2)
C5J C 1.04606(16) 0.90508(17) 0.50876(14)
H7J H 1.01702 0.95707 0.54591
H4P H 0.42005 0.95098 0.50117
H5P H 0.39048 0.99117 0.47949
H6P H 0.40743 0.94997 0.44826
H4O H 0.50117 0.42005 0.95098
H5O H 0.47949 0.39048 0.99117
H6O H 0.44826 0.40743 0.94997
O2K O 0.85799(14) 0.39351(15) 0.18829(15)
O3A O 0.95863(16) 0.42454(17) 0.20649(15)
C14N C 1.07580(11) 0.56080(17) 0.21934(18)
C15N C 1.15095(14) 0.59060(18) 0.2404(2)
O3J O 1.07546(16) 0.79351(17) 0.45863(15)
O1J O 1.10493(14) 0.86462(16) 0.44647(16)
H2J H 1.06442 0.92382 0.48996
Zn1A Zn 0.87955(3) 0.37955(3) 0.12045(3)
C1A C 0.9668(2) 0.4222(2) 0.1620(2)
C13A C 1.09526(15) 0.53885(19) 0.18104(16)
H9N H 1.04415 0.55817 0.22510
C17N C 1.17040(12) 0.5687(2) 0.2021(2)
H10N H 1.16958 0.60794 0.26030
Zn1C Zn 1.12045(3) 0.87955(3) 0.37955(3)
O2A O 0.81171(14) 0.35799(15) 0.10649(15)
O1F O 0.86462(14) 0.44647(16) 0.10493(16)
O1A O 0.94647(14) 0.39507(16) 0.13538(16)
O2F O 0.89351(14) 0.31171(15) 0.14201(15)
O1K O 0.89507(14) 0.36462(16) 0.05353(16)
C3A C 1.00334(14) 0.45298(15) 0.14285(14)
C10A C 1.06496(15) 0.50884(17) 0.15093(15)
C16A C 1.14256(17) 0.5428(2) 0.17244(17)
H12N H 1.20206 0.57131 0.19638
C6A C 1.03144(15) 0.48043(17) 0.17085(11)
C5A C 1.00876(16) 0.45394(17) 0.09492(14)
C12A C 1.07038(17) 0.50979(18) 0.10300(16)
H11A H 1.15559 0.52811 0.14681
H3A H 1.02781 0.47979 0.20292
C9A C 1.04228(19) 0.4823(2) 0.07500(11)
H2A H 0.98996 0.43558 0.07618
H8A H 1.09281 0.52880 0.08968
H7A H 1.04591 0.48298 0.04293
#END
