
#######################################################################
#
#                 Cambridge Crystallographic Data Centre
#                                CCDC
#
#######################################################################
#
# If this CIF has been generated from an entry in the Cambridge
# Structural Database, then it will include bibliographic, chemical,
# crystal, experimental, refinement or atomic coordinate data resulting
# from the CCDC's data processing and validation procedures.
#
#######################################################################

data_CSD_CIF_USONAU
_audit_creation_date 2021-04-30
_audit_creation_method CSD-ConQuest-V1
_database_code_CSD USONAU
_database_code_depnum_ccdc_archive 'CCDC 2044619'
_chemical_formula_sum 'C124 H166 N8 O66 Zn11'
_chemical_formula_moiety
;
(C102 H72 O42 Zn11 2-)n,6(C3 H7 N1 O1),18(H2 O1),2(C2 H8 N1 1+)
;
_journal_coden_Cambridge 9
_journal_year 2021
_journal_name_full 'Inorg.Chem. '
loop_
_publ_author_name
"Hui-Jun Chen"
"Lu Xu"
"Man-Ting Chen"
"Li-Rong Lin"
"Gui-Lin Zhuang"
"La-Sheng Long"
"Lan-Sun Zheng"
_chemical_name_systematic
;
catena-[bis(dimethylammonium) 
hexakis(\m-[1,1'-biphenyl]-3,3'-dicarboxylato)-hexakis(\m-L-lactato)-undeca-zi
nc(ii) N,N-dimethylformamide solvate octadecahydrate]
;
_cell_volume  23909.029
_exptl_crystal_colour 'colorless'
_exptl_special_details
;
Absolute configuration

;
_exptl_crystal_description 'block'
_diffrn_ambient_temperature 100
_refine_special_details
;
Disordered water solvent molecules were not modelled and the disordered 
density was taken into account using the SQUEEZE/PLATON procedure.
;
#These two values have been output from a single CSD field.
_refine_ls_R_factor_gt 0.0505
_refine_ls_wR_factor_gt 0.0505
loop_
_citation_database_id_CSD
_citation_special_details
USONEY "is a stereoisomer of this entry"
_symmetry_cell_setting cubic
_symmetry_space_group_name_H-M 'P 43 3 2'
_symmetry_Int_Tables_number 212
loop_
_symmetry_equiv_pos_site_id
_symmetry_equiv_pos_as_xyz
1 x,y,z
2 1/2-x,-y,1/2+z
3 -x,1/2+y,1/2-z
4 1/2+x,1/2-y,-z
5 z,x,y
6 1/2+z,1/2-x,-y
7 1/2-z,-x,1/2+y
8 -z,1/2+x,1/2-y
9 y,z,x
10 -y,1/2+z,1/2-x
11 1/2+y,1/2-z,-x
12 1/2-y,-z,1/2+x
13 1/4+y,3/4+x,3/4-z
14 1/4-y,1/4-x,1/4-z
15 3/4+y,3/4-x,1/4+z
16 3/4-y,1/4+x,3/4+z
17 1/4+x,3/4+z,3/4-y
18 3/4-x,1/4+z,3/4+y
19 1/4-x,1/4-z,1/4-y
20 3/4+x,3/4-z,1/4+y
21 1/4+z,3/4+y,3/4-x
22 3/4+z,3/4-y,1/4+x
23 3/4-z,1/4+y,3/4+x
24 1/4-z,1/4-y,1/4-x
_cell_length_a 28.8085(2)
_cell_length_b 28.8085(2)
_cell_length_c 28.8085(2)
_cell_angle_alpha 90
_cell_angle_beta 90
_cell_angle_gamma 90
_cell_formula_units_Z 4
loop_
_atom_type_symbol
_atom_type_radius_bond
C 0.68
H 0.23
N 0.68
O 0.68
Zn 1.22
loop_
_atom_site_label
_atom_site_type_symbol
_atom_site_fract_x
_atom_site_fract_y
_atom_site_fract_z
Zn1 Zn 0.37131(2) 0.37131(2) 0.37131(2)
Zn2 Zn 0.15805(3) 0.62500 0.09195(3)
Zn3 Zn 0.26416(3) 0.58615(3) 0.12124(3)
O1 O 0.31124(13) 0.64288(13) 0.10727(14)
O2 O 0.29203(15) 0.45676(15) 0.32707(15)
O3 O 0.30389(14) 0.38602(15) 0.35576(15)
O4 O 0.22130(14) 0.63699(15) 0.10519(17)
O5 O 0.31170(16) 0.71743(16) 0.08573(18)
O6 O 0.13913(15) 0.57118(17) 0.12895(15)
O7 O 0.20988(15) 0.54093(17) 0.13573(17)
C1 C 0.2840(2) 0.4133(2) 0.3294(2)
C2 C 0.1669(2) 0.5407(2) 0.1416(2)
C3 C 0.2918(2) 0.6800(2) 0.0974(2)
C4 C 0.15533(14) 0.43175(16) 0.21236(19)
C5 C 0.17427(10) 0.47053(16) 0.19077(17)
H1 H 0.20584 0.47670 0.19348
C6 C 0.14601(14) 0.50008(14) 0.16515(17)
C7 C 0.09883(13) 0.49085(18) 0.1611(2)
H2 H 0.07992 0.51062 0.14396
C8 C 0.07989(12) 0.4521(2) 0.1827(2)
H3 H 0.04832 0.44590 0.17999
C9 C 0.10815(15) 0.42252(18) 0.2083(2)
H4 H 0.09548 0.39658 0.22277
C10 C 0.18596(14) 0.40175(15) 0.24246(16)
C11 C 0.18031(16) 0.35384(15) 0.24152(17)
H5 H 0.15793 0.34060 0.22240
C12 C 0.20812(18) 0.32573(11) 0.26917(19)
H6 H 0.20434 0.29368 0.26854
C13 C 0.24157(15) 0.34553(13) 0.29775(17)
H7 H 0.26018 0.32672 0.31625
C14 C 0.24722(14) 0.39344(13) 0.29869(14)
C15 C 0.21941(15) 0.42155(10) 0.27104(16)
H8 H 0.22319 0.45360 0.27166
C16 C 0.2389(2) 0.6821(2) 0.1031(3)
H9 H 0.22546 0.69819 0.07634
C17 C 0.2272(3) 0.7092(3) 0.1474(3)
H10 H 0.19443 0.70766 0.15297
H11 H 0.23645 0.74098 0.14374
H12 H 0.24353 0.69578 0.17320
N1 N 0.3005(7) 0.4333(7) 0.1651(7)
C18 C 0.3082(7) 0.3864(6) 0.1854(7)
H13 H 0.28299 0.36633 0.17680
H14 H 0.30970 0.38873 0.21859
H15 H 0.33680 0.37383 0.17382
O8 O 0.2614(7) 0.3958(7) 0.1073(7)
C19 C 0.2711(9) 0.4305(10) 0.1233(9)
H16 H 0.26030 0.45768 0.10975
C20 C 0.3233(8) 0.4710(8) 0.1914(8)
H17 H 0.30027 0.49277 0.20176
H18 H 0.34516 0.48662 0.17164
H19 H 0.33919 0.45825 0.21769
Zn2D Zn 0.09195(3) 0.15805 0.62500(3)
Zn3D Zn 0.12124(3) 0.26416(3) 0.58615(3)
O1D O 0.10727(13) 0.31124(13) 0.64288(14)
O2D O 0.32707(15) 0.29203(15) 0.45676(15)
O3D O 0.35576(14) 0.30389(15) 0.38602(15)
O4D O 0.10519(14) 0.22130(15) 0.63699(17)
O5D O 0.08573(16) 0.31170(16) 0.71743(18)
O6D O 0.12895(15) 0.13913(17) 0.57118(15)
O7D O 0.13573(15) 0.20988(17) 0.54093(17)
C1D C 0.3294(2) 0.2840(2) 0.4133(2)
C2D C 0.1416(2) 0.1669(2) 0.5407(2)
C3D C 0.0974(2) 0.2918(2) 0.6800(2)
C4D C 0.21236(14) 0.15533(16) 0.43175(19)
C5D C 0.19077(10) 0.17427(16) 0.47053(17)
H1D H 0.19348 0.20584 0.47670
C6D C 0.16515(14) 0.14601(14) 0.50008(17)
C7D C 0.16110(13) 0.09883(18) 0.49085(20)
H2D H 0.14396 0.07992 0.51062
C8D C 0.18270(12) 0.07989(20) 0.4521(2)
H3D H 0.17999 0.04832 0.44590
C9D C 0.20830(15) 0.10815(18) 0.42252(20)
H4D H 0.22277 0.09548 0.39658
C10D C 0.24246(14) 0.18596(15) 0.40175(16)
C11D C 0.24152(16) 0.18031(15) 0.35384(17)
H5D H 0.22240 0.15793 0.34060
C12D C 0.26917(18) 0.20812(11) 0.32573(19)
H6D H 0.26854 0.20434 0.29368
C13D C 0.29775(15) 0.24157(13) 0.34553(17)
H7D H 0.31625 0.26018 0.32672
C14D C 0.29869(14) 0.24722(13) 0.39344(14)
C15D C 0.27104(15) 0.21941(10) 0.42155(16)
H8D H 0.27166 0.22319 0.45360
C16D C 0.1031(2) 0.2389(2) 0.6821(3)
H9D H 0.07634 0.22546 0.69819
C17D C 0.1474(3) 0.2272(3) 0.7092(3)
H10D H 0.15297 0.19443 0.70766
H11D H 0.14374 0.23645 0.74098
H12D H 0.17320 0.24353 0.69578
Zn1A Zn 0.12869(2) 0.62869(2) -0.12869(2)
Zn3F Zn 0.37876(3) 0.73584(3) 0.08615(3)
O1F O 0.39273(13) 0.68876(13) 0.14288(14)
O2F O 0.17293(15) 0.70797(15) -0.04324(15)
O3F O 0.14424(14) 0.69611(15) -0.11398(15)
O4F O 0.39481(14) 0.77870(15) 0.13699(17)
O5F O 0.41427(16) 0.68830(16) 0.21743(18)
O6F O 0.37105(15) 0.86087(17) 0.07118(15)
O7F O 0.36427(15) 0.79012(17) 0.04093(17)
C1F C 0.1706(2) 0.7160(2) -0.0867(2)
C2F C 0.3584(2) 0.8331(2) 0.0407(2)
C3F C 0.4026(2) 0.7082(2) 0.1800(2)
C4F C 0.28764(14) 0.84467(16) -0.06825(19)
C5F C 0.30923(10) 0.82573(16) -0.02947(17)
H1F H 0.30652 0.79416 -0.02330
C6F C 0.33485(14) 0.85399(14) 0.00008(17)
C7F C 0.33890(13) 0.90117(18) -0.00915(20)
H2F H 0.35604 0.92008 0.01062
C8F C 0.31730(12) 0.92011(20) -0.0479(2)
H3F H 0.32001 0.95168 -0.05410
C9F C 0.29170(15) 0.89185(18) -0.07748(20)
H4F H 0.27723 0.90452 -0.10342
C10F C 0.25754(14) 0.81404(15) -0.09825(16)
C11F C 0.25848(16) 0.81969(15) -0.14616(17)
H5F H 0.27760 0.84207 -0.15940
C12F C 0.23083(18) 0.79188(11) -0.17427(19)
H6F H 0.23146 0.79566 -0.20632
C13F C 0.20225(15) 0.75843(13) -0.15447(17)
H7F H 0.18375 0.73982 -0.17328
C14F C 0.20131(14) 0.75278(13) -0.10656(14)
C15F C 0.22896(15) 0.78059(10) -0.07845(16)
H8F H 0.22834 0.77681 -0.04640
C16F C 0.3969(2) 0.7611(2) 0.1821(3)
H9F H 0.42366 0.77454 0.19819
C17F C 0.3526(3) 0.7728(3) 0.2092(3)
H10F H 0.34703 0.80557 0.20766
H11F H 0.35626 0.76355 0.24098
H12F H 0.32680 0.75647 0.19578
Zn3H Zn 0.58615(3) 0.12124(3) 0.26416(3)
O1H O 0.64288(13) 0.10727(13) 0.31124(14)
O2H O 0.45676(15) 0.32707(15) 0.29203(15)
O3H O 0.38602(14) 0.35576(15) 0.30389(15)
O4H O 0.63699(14) 0.10519(15) 0.22130(17)
O5H O 0.71743(16) 0.08573(16) 0.31170(18)
O6H O 0.57118(15) 0.12895(17) 0.13913(15)
O7H O 0.54093(15) 0.13573(17) 0.20988(17)
C1H C 0.4133(2) 0.3294(2) 0.2840(2)
C2H C 0.5407(2) 0.1416(2) 0.1669(2)
C3H C 0.6800(2) 0.0974(2) 0.2918(2)
C4H C 0.43175(14) 0.21236(16) 0.15533(19)
C5H C 0.47053(10) 0.19077(16) 0.17427(17)
H1H H 0.47670 0.19348 0.20584
C6H C 0.50008(14) 0.16515(14) 0.14601(17)
C7H C 0.49085(13) 0.16110(18) 0.09883(20)
H2H H 0.51062 0.14396 0.07992
C8H C 0.45210(12) 0.1827(2) 0.07989(20)
H3H H 0.44590 0.17999 0.04832
C9H C 0.42252(15) 0.20830(18) 0.10815(20)
H4H H 0.39658 0.22277 0.09548
C10H C 0.40175(14) 0.24246(15) 0.18596(16)
C11H C 0.35384(16) 0.24152(15) 0.18031(17)
H5H H 0.34060 0.22240 0.15793
C12H C 0.32573(18) 0.26917(11) 0.20812(19)
H6H H 0.29368 0.26854 0.20434
C13H C 0.34553(15) 0.29775(13) 0.24157(17)
H7H H 0.32672 0.31625 0.26018
C14H C 0.39344(14) 0.29869(13) 0.24722(14)
C15H C 0.42155(15) 0.27104(10) 0.21941(16)
H8H H 0.45360 0.27166 0.22319
C16H C 0.6821(2) 0.1031(2) 0.2389(3)
H9H H 0.69819 0.07634 0.22546
C17H C 0.7092(3) 0.1474(3) 0.2272(3)
H10H H 0.70766 0.15297 0.19443
H11H H 0.74098 0.14374 0.23645
H12H H 0.69578 0.17320 0.24353
Zn3I Zn 0.41385(3) 0.62124(3) 0.23584(3)
O1I O 0.35712(13) 0.60727(13) 0.18876(14)
O2I O 0.54324(15) 0.82707(15) 0.20797(15)
O3I O 0.61398(14) 0.85576(15) 0.19611(15)
O4I O 0.36301(14) 0.60519(15) 0.27870(17)
O5I O 0.28257(16) 0.58573(16) 0.18830(18)
O6I O 0.42882(15) 0.62895(17) 0.36087(15)
O7I O 0.45907(15) 0.63573(17) 0.29012(17)
C1I C 0.5867(2) 0.8294(2) 0.2160(2)
C2I C 0.4593(2) 0.6416(2) 0.3331(2)
C3I C 0.3200(2) 0.5974(2) 0.2082(2)
C4I C 0.56825(14) 0.71236(16) 0.34467(19)
C5I C 0.52947(10) 0.69077(16) 0.32573(17)
H1I H 0.52330 0.69348 0.29416
C6I C 0.49992(14) 0.66515(14) 0.35399(17)
C7I C 0.50915(13) 0.66110(18) 0.40117(20)
H2I H 0.48938 0.64396 0.42008
C8I C 0.54790(12) 0.6827(2) 0.42011(20)
H3I H 0.55410 0.67999 0.45168
C9I C 0.57748(15) 0.70830(18) 0.39185(20)
H4I H 0.60342 0.72277 0.40452
C10I C 0.59825(14) 0.74246(15) 0.31404(16)
C11I C 0.64616(16) 0.74152(15) 0.31969(17)
H5I H 0.65940 0.72240 0.34207
C12I C 0.67427(18) 0.76917(11) 0.29188(19)
H6I H 0.70632 0.76854 0.29566
C13I C 0.65447(15) 0.79775(13) 0.25843(17)
H7I H 0.67328 0.81625 0.23982
C14I C 0.60656(14) 0.79869(13) 0.25278(14)
C15I C 0.57845(15) 0.77104(10) 0.28059(16)
H8I H 0.54640 0.77167 0.27681
C16I C 0.3179(2) 0.6031(2) 0.2611(3)
H9I H 0.30181 0.57634 0.27454
C17I C 0.2908(3) 0.6474(3) 0.2728(3)
H10I H 0.29234 0.65297 0.30557
H11I H 0.25902 0.64373 0.26355
H12I H 0.30422 0.67320 0.25647
Zn3Q Zn 0.48584(3) 0.37124(3) 0.33615(3)
O1Q O 0.43876(13) 0.35727(13) 0.39288(14)
O2Q O 0.45797(15) 0.57707(15) 0.20676(15)
O3Q O 0.44611(14) 0.60576(15) 0.13602(15)
O4Q O 0.52870(14) 0.35519(15) 0.38699(17)
O5Q O 0.43830(16) 0.33573(16) 0.46743(18)
O6Q O 0.61087(15) 0.37895(17) 0.32118(15)
O7Q O 0.54012(15) 0.38573(17) 0.29093(17)
C1Q C 0.4660(2) 0.5794(2) 0.1633(2)
C2Q C 0.5831(2) 0.3916(2) 0.2907(2)
C3Q C 0.4582(2) 0.3474(2) 0.4300(2)
C4Q C 0.59467(14) 0.46236(16) 0.18175(19)
C5Q C 0.57573(10) 0.44077(16) 0.22053(17)
H1Q H 0.54416 0.44348 0.22670
C6Q C 0.60399(14) 0.41515(14) 0.25008(17)
C7Q C 0.65117(13) 0.41110(18) 0.24085(20)
H2Q H 0.67008 0.39396 0.26062
C8Q C 0.67011(12) 0.4327(2) 0.2021(2)
H3Q H 0.70168 0.42999 0.19590
C9Q C 0.64185(15) 0.45830(18) 0.17252(20)
H4Q H 0.65452 0.47277 0.14658
C10Q C 0.56404(14) 0.49246(15) 0.15175(16)
C11Q C 0.56969(16) 0.49152(15) 0.10384(17)
H5Q H 0.59207 0.47240 0.09060
C12Q C 0.54188(18) 0.51917(11) 0.07573(19)
H6Q H 0.54566 0.51854 0.04368
C13Q C 0.50843(15) 0.54775(13) 0.09553(17)
H7Q H 0.48982 0.56625 0.07672
C14Q C 0.50278(14) 0.54869(13) 0.14344(14)
C15Q C 0.53059(15) 0.52104(10) 0.17155(16)
H8Q H 0.52681 0.52167 0.20360
C16Q C 0.5111(2) 0.3531(2) 0.4321(3)
H9Q H 0.52454 0.32634 0.44819
C17Q C 0.5228(3) 0.3974(3) 0.4592(3)
H10Q H 0.55557 0.40297 0.45766
H11Q H 0.51355 0.39374 0.49098
H12Q H 0.50647 0.42320 0.44578
Zn2F Zn 0.40805(3) 0.84195 0.12500(3)
Zn1B Zn 0.62869(2) 0.87131(2) 0.12869(2)
Zn1L Zn 0.62131(2) 0.12131(2) 0.37869(2)
Zn1N Zn 0.12131(2) 0.37869(2) 0.62131(2)
Zn1O Zn 0.37869(2) 0.62131(2) 0.12131(2)
Zn2E Zn 0.59195(3) 0.34195 0.37500(3)
Zn2H Zn 0.62500(3) 0.09195 0.15805(3)
Zn2I Zn 0.37500(3) 0.59195 0.34195(3)
Zn3B Zn 0.73584(3) 0.08615(3) 0.37876(3)
Zn3J Zn 0.08615(3) 0.37876(3) 0.73584(3)
Zn3N Zn 0.33615(3) 0.48584(3) 0.37124(3)
Zn3P Zn 0.51416(3) 0.87124(3) 0.16385(3)
Zn3T Zn 0.37124(3) 0.33615(3) 0.48584(3)
Zn3W Zn 0.12876(3) 0.66385(3) -0.01416(3)
O1N O 0.39288(13) 0.43876(13) 0.35727(14)
O1O O 0.10712(13) 0.56124(13) -0.14273(14)
O1S O 0.06124(13) 0.64273(13) -0.10712(14)
O1T O 0.35727(13) 0.39288(13) 0.43876(14)
O1W O 0.14273(13) 0.60712(13) -0.06124(14)
O2O O 0.29324(15) 0.54203(15) 0.07707(15)
O2P O 0.54203(15) 0.07707(15) 0.29324(15)
O2U O 0.07707(15) 0.29324(15) 0.54203(15)
O2V O 0.42293(15) 0.70676(15) 0.04203(15)
O3A O 0.19611(14) 0.61398(15) -0.14424(15)
O3K O 0.11398(14) 0.64424(15) -0.19611(15)
O4P O 0.47130(14) 0.85519(15) 0.11301(17)
O4R O 0.02870(14) 0.14481(15) 0.61301(17)
O4W O 0.14481(14) 0.61301(15) 0.02870(17)
O5A O 0.18830(16) 0.28257(16) 0.58573(18)
O5E O 0.58573(16) 0.18830(16) 0.28257(18)
O5N O 0.46743(16) 0.43830(16) 0.33573(18)
O6P O 0.38913(15) 0.87895(17) 0.17882(15)
O6R O 0.11087(15) 0.12105(17) 0.67882(15)
O6W O 0.12105(15) 0.67882(17) 0.11087(15)
#END
