
#######################################################################
#
#                 Cambridge Crystallographic Data Centre
#                                CCDC
#
#######################################################################
#
# If this CIF has been generated from an entry in the Cambridge
# Structural Database, then it will include bibliographic, chemical,
# crystal, experimental, refinement or atomic coordinate data resulting
# from the CCDC's data processing and validation procedures.
#
#######################################################################

data_CSD_CIF_USUVIP
_audit_creation_date 2016-08-10
_audit_creation_method CSD-ConQuest-V1
_database_code_CSD USUVIP
_database_code_depnum_ccdc_archive 'CCDC 1470775'
_chemical_formula_sum 'C57 H53 Cd4 N8 O22'
_chemical_formula_moiety
;
(C48 H31 Cd3 N2 O17 2-)n,C9 H16 Cd1 N6 O2 2+,3(H2 O1)
;
_journal_coden_Cambridge 1295
_journal_volume 70
_journal_year 2016
_journal_page_first 160
_journal_name_full 'Inorg.Chem.Commun. '
loop_
_publ_author_name
"Yu Wu"
"Weiping Wu"
"Like Zou"
"Jianshen Feng"
"Chuying Gu"
"Baohong Li"
"S.R.Batten"
"R.Yadav"
"A.Kumar"
_chemical_name_systematic
;
catena-[diaqua-tris(1H-imidazole)-cadmium(ii) 
bis(\m-5-{bis[(4-carboxylatophenyl)methyl]amino}benzene-1,3-dicarboxylato)-aqu
a-tri-cadmium(ii) trihydrate]
;
_cell_volume   3126.998
_exptl_crystal_colour 'yellow'
_exptl_crystal_density_diffrn 1.754
_exptl_crystal_description 'block'
_diffrn_ambient_temperature 296
#These two values have been output from a single CSD field.
_refine_ls_R_factor_gt 0.0856
_refine_ls_wR_factor_gt 0.0856
_symmetry_cell_setting triclinic
_symmetry_space_group_name_H-M 'P -1'
_symmetry_Int_Tables_number 2
loop_
_symmetry_equiv_pos_site_id
_symmetry_equiv_pos_as_xyz
1 x,y,z
2 -x,-y,-z
_cell_length_a 14.761(4)
_cell_length_b 15.739(4)
_cell_length_c 15.988(4)
_cell_angle_alpha 100.514(3)
_cell_angle_beta 111.588(2)
_cell_angle_gamma 106.821(3)
_cell_formula_units_Z 2
loop_
_atom_type_symbol
_atom_type_radius_bond
C 0.68
H 0.23
Cd 1.44
N 0.68
O 0.68
loop_
_atom_site_label
_atom_site_type_symbol
_atom_site_fract_x
_atom_site_fract_y
_atom_site_fract_z
Cd1 Cd 0.62774(5) -0.22492(5) 0.80497(4)
Cd2 Cd -0.21765(5) -0.23231(5) 0.06328(4)
Cd3 Cd 0.69425(6) -0.41951(5) 0.82189(5)
C1 C -0.1271(10) -0.1734(8) 0.2558(8)
C2 C -0.0736(9) -0.1453(8) 0.3644(7)
C3 C 0.0319(9) -0.1199(8) 0.4140(7)
H1 H 0.07370 -0.11650 0.38210
C4 C 0.0784(9) -0.0987(7) 0.5117(7)
H2 H 0.15090 -0.08250 0.54470
C5 C 0.0187(8) -0.1015(7) 0.5605(7)
C6 C -0.0896(9) -0.1228(7) 0.5096(7)
H3 H -0.13050 -0.12150 0.54210
C7 C -0.1365(9) -0.1456(8) 0.4116(7)
H4 H -0.20860 -0.16080 0.37780
C8 C 0.0680(8) -0.0776(7) 0.6668(7)
H5 H 0.14000 -0.07440 0.68970
H6 H 0.07080 -0.01640 0.69540
C9 C 0.0034(8) -0.2429(7) 0.6597(7)
H7 H -0.03550 -0.26520 0.59080
H8 H -0.03540 -0.28490 0.68340
C10 C 0.1099(8) -0.2476(7) 0.6869(7)
C11 C 0.1482(8) -0.2563(8) 0.6190(7)
H9 H 0.10440 -0.26490 0.55620
C12 C 0.2498(8) -0.2525(8) 0.6431(8)
H10 H 0.27250 -0.26110 0.59630
C13 C 0.3174(8) -0.2360(8) 0.7363(8)
C14 C 0.2797(9) -0.2288(8) 0.8054(8)
H11 H 0.32350 -0.22040 0.86800
C15 C 0.1776(8) -0.2342(7) 0.7796(7)
H12 H 0.15370 -0.22860 0.82580
C16 C 0.4313(9) -0.2260(8) 0.7651(8)
C17 C 0.0285(7) -0.1197(7) 0.7933(6)
C18 C -0.0457(7) -0.1704(7) 0.8194(6)
H13 H -0.10700 -0.22020 0.77310
C19 C -0.0292(7) -0.1477(6) 0.9124(6)
C20 C 0.0627(7) -0.0740(6) 0.9826(6)
H14 H 0.07590 -0.06100 1.04610
C21 C 0.1347(7) -0.0200(7) 0.9572(6)
C22 C 0.1167(7) -0.0428(7) 0.8631(6)
H15 H 0.16450 -0.00600 0.84630
C23 C -0.1116(7) -0.1997(7) 0.9380(6)
C24 C 0.2282(7) 0.0657(7) 1.0306(6)
C25 C 0.6665(8) -0.3703(8) 0.5751(7)
C26 C 0.6508(9) -0.4634(8) 0.5579(7)
H16 H 0.61810 -0.49760 0.58790
C27 C 0.6823(8) -0.5081(8) 0.4968(7)
H17 H 0.67140 -0.57110 0.48660
C28 C 0.7308(8) -0.4570(7) 0.4509(7)
C29 C 0.7391(8) -0.3658(8) 0.4621(7)
H18 H 0.76610 -0.33270 0.42820
C30 C 0.7072(8) -0.3228(8) 0.5244(7)
H19 H 0.71360 -0.26100 0.53170
C31 C 0.6435(8) -0.3211(8) 0.6494(7)
C32 C 0.7784(8) -0.5036(8) 0.3947(7)
H20 H 0.84290 -0.50540 0.43950
H21 H 0.72920 -0.56800 0.35810
C33 C 0.9067(8) -0.3853(8) 0.3663(8)
H22 H 0.92600 -0.32480 0.40460
C34 C 0.9825(8) -0.4153(8) 0.3378(8)
C35 C 0.9621(9) -0.5075(8) 0.2970(8)
H23 H 0.90100 -0.55380 0.28930
C36 C 1.0303(9) -0.5342(9) 0.2667(9)
H24 H 1.01410 -0.59720 0.23830
C37 C 1.1242(9) -0.4640(9) 0.2798(9)
C38 C 1.1466(10) -0.3716(10) 0.3230(9)
H25 H 1.20900 -0.32520 0.33330
C39 C 1.0771(9) -0.3468(9) 0.3514(9)
H26 H 1.09340 -0.28390 0.38000
C40 C 1.1943(10) -0.4964(10) 0.2441(9)
C41 C 0.7314(8) -0.4847(7) 0.2359(7)
C42 C 0.7611(8) -0.4529(7) 0.1686(7)
H27 H 0.82860 -0.40810 0.18900
C43 C 0.6911(7) -0.4875(7) 0.0736(7)
C44 C 0.5882(7) -0.5537(7) 0.0404(7)
H28 H 0.54230 -0.57890 -0.02420
C45 C 0.5560(7) -0.5812(7) 0.1068(7)
C46 C 0.6258(7) -0.5467(7) 0.2025(7)
H29 H 0.60260 -0.56470 0.24570
C47 C 0.4435(7) -0.6449(7) 0.0720(7)
C48 C 0.7221(7) -0.4536(7) 0.0024(7)
O1 O -0.0709(10) -0.174(1) 0.2153(6)
O2 O -0.2198(10) -0.1934(8) 0.2125(6)
O3 O 0.4921(7) -0.2030(8) 0.8488(8)
O4 O 0.5183(8) -0.5481(9) 0.7074(9)
H30 H 0.50810 -0.60130 0.72940
H31 H 0.46330 -0.52580 0.70320
O5 O 0.4570(7) -0.2442(8) 0.7017(8)
O6 O -0.2024(5) -0.2543(5) 0.8731(5)
O7 O -0.0861(5) -0.1817(6) 1.0255(5)
O8 O 0.2762(5) 0.1266(5) 1.0043(5)
O9 O 0.2563(6) 0.0734(5) 1.1174(4)
O10 O 0.6581(7) -0.2363(6) 0.6647(6)
O11 O 0.6129(6) -0.3663(6) 0.6985(5)
O12 O 1.2830(9) -0.4327(11) 0.266(1)
O13 O 1.1672(10) -0.5753(10) 0.2004(9)
O14 O 0.3896(5) -0.6863(5) -0.0141(5)
O15 O 0.4085(5) -0.6521(5) 0.1338(5)
O16 O 0.6663(7) -0.5025(6) -0.0835(5)
O17 O 0.7988(6) -0.3764(5) 0.0298(6)
N1 N 0.0078(6) -0.1476(5) 0.6963(5)
N2 N 0.8027(6) -0.4567(6) 0.3301(5)
Cd4 Cd 1.36535(17) -0.17199(14) 0.2252(2)
C49 C 1.1639(19) -0.3458(17) 0.0519(17)
H32 H 1.20830 -0.36850 0.03470
C50 C 1.0527(19) -0.3855(17) 0.0050(17)
H33 H 1.01070 -0.43670 -0.05040
C51 C 1.1053(17) -0.2575(15) 0.1308(15)
H34 H 1.10370 -0.20970 0.17330
C52 C 1.511(3) -0.032(3) 0.156(3)
H35 H 1.50640 0.02050 0.18960
C53 C 1.569(3) -0.032(3) 0.102(3)
H36 H 1.61160 0.02070 0.09620
C54 C 1.487(3) -0.184(3) 0.092(3)
H37 H 1.46610 -0.24860 0.07730
C55 C 1.362(5) -0.104(4) 0.436(6)
H38 H 1.32660 -0.06580 0.41520
C56 C 1.394(5) -0.114(5) 0.528(5)
H39 H 1.38450 -0.08270 0.57770
C57 C 1.444(5) -0.208(4) 0.442(6)
H40 H 1.47130 -0.25090 0.42440
O18 O 1.4103(19) -0.3002(13) 0.219(2)
H41 H 1.37610 -0.33960 0.24700
H42 H 1.38650 -0.33450 0.15370
O19 O 1.328(2) -0.0334(15) 0.2368(16)
H43 H 1.28350 -0.03530 0.26790
H44 H 1.29310 -0.03030 0.17430
N3 N 1.552(2) -0.126(2) 0.0601(19)
H45 H 1.57560 -0.14540 0.02190
N4 N 1.461(2) -0.126(2) 0.150(2)
N5 N 1.017(2) -0.3336(18) 0.0570(18)
H46 H 0.95190 -0.34620 0.04570
N6 N 1.1968(17) -0.2663(16) 0.1290(16)
N7 N 1.444(3) -0.179(3) 0.532(3)
H47 H 1.46890 -0.19760 0.57930
N8 N 1.393(3) -0.161(3) 0.383(3)
O20 O -0.4013(11) -0.3213(11) 0.2226(11)
H48 H -0.34160 -0.27910 0.21980
H49 H -0.46540 -0.32190 0.17610
O21 O 0.716(3) -0.0690(19) 0.616(3)
H50 H 0.69690 -0.12580 0.63070
H51 H 0.78100 -0.02300 0.66750
O22 O 0.1098(19) -0.0333(19) 0.2450(16)
H52 H 0.04660 -0.08230 0.23530
H53 H 0.13490 -0.05540 0.20140
Cd1* Cd -0.37226(5) -0.22492(5) 0.80497(4)
Cd1A Cd 0.37226(5) -0.77508(5) 0.19503(4)
Cd1A* Cd 0.37226(5) 0.22492(5) 1.19503(4)
Cd2* Cd -0.21765(5) -0.23231(5) 1.06328(4)
Cd2** Cd 0.78235(5) -0.23231(5) 0.06328(4)
Cd2A Cd 0.21765(5) -0.76769(5) -0.06328(4)
Cd2A* Cd 0.21765(5) 0.23231(5) 0.93672(4)
Cd3* Cd -0.30575(6) -0.41951(5) 0.82189(5)
Cd3** Cd 0.69425(6) -0.41951(5) -0.17811(5)
Cd3A Cd 0.30575(6) -0.58049(5) 0.17811(5)
Cd3A* Cd 1.30575(6) -0.58049(5) 0.17811(5)
O6* O 0.7976(5) -0.2543(5) 0.8731(5)
O7* O -0.0861(5) -0.1817(6) 0.0255(5)
O8A O -0.2762(5) -0.1266(5) -0.0043(5)
O8A* O 0.7238(5) -0.1266(5) 0.9957(5)
O9A O 0.7437(6) -0.0734(5) 0.8826(4)
O12A O 0.7170(9) -0.5673(11) 0.734(1)
O13A O 0.8328(10) -0.4247(10) 0.7996(9)
O14A O -0.3896(5) -0.3137(5) 0.0141(5)
O15A O 0.5915(5) -0.3479(5) 0.8662(5)
O16* O 0.6663(7) -0.5025(6) 0.9165(5)
O17* O -0.2012(6) -0.3764(5) 0.0298(6)
#END
