
#######################################################################
#
#                 Cambridge Crystallographic Data Centre
#                                CCDC
#
#######################################################################
#
# If this CIF has been generated from an entry in the Cambridge
# Structural Database, then it will include bibliographic, chemical,
# crystal, experimental, refinement or atomic coordinate data resulting
# from the CCDC's data processing and validation procedures.
#
#######################################################################

data_CSD_CIF_USUWUC
_audit_creation_date 2016-08-10
_audit_creation_method CSD-ConQuest-V1
_database_code_CSD USUWUC
_database_code_depnum_ccdc_archive 'CCDC 1498635'
_chemical_formula_sum 'C30 H36 In4 N4 O26'
_chemical_formula_moiety
;
(C12 H2 In4 O26 2-)n,2(C9 H17 N2 1+)
;
_journal_coden_Cambridge 1295
_journal_volume 70
_journal_year 2016
_journal_page_first 79
_journal_name_full 'Inorg.Chem.Commun. '
loop_
_publ_author_name
"Cheng Chen"
"Lindong Luan"
"Meng Yang"
"Hongmei Zeng"
"Zhien Lin"
_chemical_name_systematic
;
catena-[bis(2,3,4,6,7,8,9,10-octahydropyrimido[1,2-a]azepin-1-ium) 
hexakis(\m-oxalato)-bis(\m-hydroxo)-tetra-indium(iii)]
;
_cell_volume   2139.870
_exptl_crystal_colour 'colorless'
_exptl_crystal_density_diffrn 2.061
_exptl_crystal_description 'block'
_diffrn_ambient_temperature 292.6
#These two values have been output from a single CSD field.
_refine_ls_R_factor_gt 0.0438
_refine_ls_wR_factor_gt 0.0438
_symmetry_cell_setting monoclinic
_symmetry_space_group_name_H-M 'P 21/c'
_symmetry_Int_Tables_number 14
loop_
_symmetry_equiv_pos_site_id
_symmetry_equiv_pos_as_xyz
1 x,y,z
2 -x,1/2+y,1/2-z
3 -x,-y,-z
4 x,-1/2-y,-1/2+z
_cell_length_a 15.5074(2)
_cell_length_b 13.29802(19)
_cell_length_c 10.65534(14)
_cell_angle_alpha 90
_cell_angle_beta 103.1307(14)
_cell_angle_gamma 90
_cell_formula_units_Z 2
loop_
_atom_type_symbol
_atom_type_radius_bond
C 0.68
H 0.23
In 1.42
N 0.68
O 0.68
loop_
_atom_site_label
_atom_site_type_symbol
_atom_site_fract_x
_atom_site_fract_y
_atom_site_fract_z
In1 In 0.37553(2) 0.66421(2) 0.48304(3)
In2 In 0.12045(2) 0.66708(2) 0.50012(3)
O1 O 0.3331(3) 0.6356(3) 0.2726(4)
O2 O 0.3377(3) 0.6987(3) 0.0806(4)
O3 O 0.4181(3) 0.7975(3) 0.3855(4)
O4 O 0.4271(3) 0.8578(3) 0.1940(4)
O5 O 0.0770(3) 0.8001(3) 0.5991(3)
O6 O 0.0619(3) 0.8527(3) 0.7917(4)
O7 O 0.1693(3) 0.6408(3) 0.7090(4)
O8 O 0.1593(3) 0.6965(3) 0.9012(3)
O9 O 0.5142(3) 0.6294(3) 0.4852(4)
O10 O 0.6133(2) 0.5063(3) 0.5111(4)
O11 O -0.0156(2) 0.6296(3) 0.5124(4)
O12 O -0.1107(2) 0.5045(3) 0.5039(4)
O13 O 0.2466(2) 0.6193(4) 0.4854(4)
C1 C 0.3537(4) 0.7015(4) 0.2004(5)
C2 C 0.4038(3) 0.7939(4) 0.2663(5)
C3 C 0.0897(3) 0.7936(4) 0.7177(5)
C4 C 0.1445(3) 0.7026(4) 0.7825(5)
C5 C 0.5370(3) 0.5388(4) 0.4993(5)
C6 C -0.0372(3) 0.5383(4) 0.5052(5)
C7 C 0.3467(7) 0.3063(8) 0.0235(14)
H1 H 0.34890 0.23810 -0.00800
H2 H 0.38230 0.30880 0.11100
C8 C 0.3848(8) 0.3759(11) -0.0586(18)
H3 H 0.44870 0.36960 -0.03510
H4 H 0.36530 0.35440 -0.14760
C9 C 0.3635(11) 0.4744(10) -0.051(2)
H5 H 0.36960 0.50800 -0.12940
H6 H 0.40540 0.50490 0.02030
C10 C 0.2247(6) 0.4208(6) -0.0013(9)
C11 C 0.1326(7) 0.4467(9) 0.0144(11)
H7 H 0.11850 0.51430 -0.01800
H8 H 0.09090 0.40140 -0.03920
C12 C 0.1194(8) 0.4415(8) 0.1479(12)
H9 H 0.17040 0.47130 0.20570
H10 H 0.06800 0.48170 0.15270
C13 C 0.1070(8) 0.3416(8) 0.1925(11)
H11 H 0.05320 0.31430 0.13860
H12 H 0.09780 0.34660 0.27940
C14 C 0.1813(9) 0.2675(8) 0.1937(10)
H13 H 0.16540 0.20340 0.22570
H14 H 0.23430 0.29140 0.25320
C15 C 0.2020(8) 0.2513(6) 0.0628(11)
H15 H 0.23300 0.18780 0.06370
H16 H 0.14680 0.24630 -0.00150
N1 N 0.2559(4) 0.3312(5) 0.0246(8)
N2 N 0.2735(6) 0.4916(6) -0.0333(11)
H17 H 0.25200 0.55140 -0.04450
O9B O 0.4858(3) 0.3706(3) 0.5148(4)
O10B O 0.3867(2) 0.4937(3) 0.4889(4)
C5B C 0.4630(3) 0.4612(4) 0.5007(5)
O11B O 0.0156(2) 0.3704(3) 0.4876(4)
O12B O 0.1107(2) 0.4955(3) 0.4961(4)
C6B C 0.0372(3) 0.4617(4) 0.4948(5)
In1B In -0.37553(2) 0.33579(2) 0.51696(3)
In2B In -0.12045(2) 0.33292(2) 0.49988(3)
O1B O -0.3331(3) 0.3644(3) 0.7274(4)
O2B O -0.3377(3) 0.3013(3) 0.9194(4)
O3B O -0.4181(3) 0.2025(3) 0.6145(4)
O4B O -0.4271(3) 0.1422(3) 0.8060(4)
O5B O -0.0770(3) 0.1999(3) 0.4009(3)
O6B O -0.0619(3) 0.1473(3) 0.2083(4)
O7B O -0.1693(3) 0.3592(3) 0.2910(4)
O8B O -0.1593(3) 0.3035(3) 0.0988(3)
O13B O -0.2466(2) 0.3807(4) 0.5146(4)
C1B C -0.3537(4) 0.2985(4) 0.7996(5)
C2B C -0.4038(3) 0.2061(4) 0.7337(5)
C3B C -0.0897(3) 0.2064(4) 0.2823(5)
C4B C -0.1445(3) 0.2974(4) 0.2175(5)
In1A In -0.37553(2) 0.16421(2) 1.01696(3)
In1B* In 0.62447(2) 0.33579(2) 0.51696(3)
In1C In 0.37553(2) 0.83579(2) -0.01696(3)
In2A In -0.12045(2) 0.16708(2) -0.00012(3)
In2C In 0.12045(2) 0.83292(2) 1.00012(3)
O2A O -0.3377(3) 0.1987(3) 0.4194(4)
O2C O 0.3377(3) 0.8013(3) 0.5806(4)
O4A O -0.4271(3) 0.3578(3) 0.3060(4)
O4C O 0.4271(3) 0.6422(3) 0.6940(4)
O6A O -0.0619(3) 0.3527(3) 0.7083(4)
O6C O 0.0619(3) 0.6473(3) 0.2917(4)
O8A O -0.1593(3) 0.1965(3) 0.5988(3)
O8C O 0.1593(3) 0.8035(3) 0.4012(3)
O9B* O -0.5142(3) 0.3706(3) 0.5148(4)
O10* O -0.3867(2) 0.5063(3) 0.5111(4)
#END
