
#######################################################################
#
#                 Cambridge Crystallographic Data Centre
#                                CCDC
#
#######################################################################
#
# If this CIF has been generated from an entry in the Cambridge
# Structural Database, then it will include bibliographic, chemical,
# crystal, experimental, refinement or atomic coordinate data resulting
# from the CCDC's data processing and validation procedures.
#
#######################################################################

data_CSD_CIF_UTADOK
_audit_creation_date 2016-08-10
_audit_creation_method CSD-ConQuest-V1
_database_code_CSD UTADOK
_database_code_depnum_ccdc_archive 'CCDC 1498637'
_chemical_formula_sum 'C11 H15 Bi1 N2 O9'
_chemical_formula_moiety
;
C7 H15 N2 O1 1+,(C4 Bi1 O8 1-)n
;
_journal_coden_Cambridge 1295
_journal_volume 70
_journal_year 2016
_journal_page_first 79
_journal_name_full 'Inorg.Chem.Commun. '
loop_
_publ_author_name
"Cheng Chen"
"Lindong Luan"
"Meng Yang"
"Hongmei Zeng"
"Zhien Lin"
_chemical_name_systematic
;
catena-(4-formyl-1-ethylpiperazinium bis(\m-oxalato)-bismuth)
;
_cell_volume   1390.661
_exptl_crystal_colour 'colorless'
_exptl_crystal_density_diffrn 2.523
_exptl_special_details
;
Absolute configuration

;
_exptl_crystal_description 'block'
_diffrn_ambient_temperature 293
#These two values have been output from a single CSD field.
_refine_ls_R_factor_gt 0.0442
_refine_ls_wR_factor_gt 0.0442
_symmetry_cell_setting orthorhombic
_symmetry_space_group_name_H-M 'P 21 21 21'
_symmetry_Int_Tables_number 19
loop_
_symmetry_equiv_pos_site_id
_symmetry_equiv_pos_as_xyz
1 x,y,z
2 1/2-x,-y,1/2+z
3 -x,1/2+y,1/2-z
4 1/2+x,1/2-y,-z
_cell_length_a 10.28531(16)
_cell_length_b 11.59712(18)
_cell_length_c 11.65880(16)
_cell_angle_alpha 90
_cell_angle_beta 90
_cell_angle_gamma 90
_cell_formula_units_Z 4
loop_
_atom_type_symbol
_atom_type_radius_bond
C 0.68
H 0.23
Bi 1.48
N 0.68
O 0.68
loop_
_atom_site_label
_atom_site_type_symbol
_atom_site_fract_x
_atom_site_fract_y
_atom_site_fract_z
Bi1 Bi 0.37412(6) 1.02716(4) 0.23879(4)
O1 O 0.3307(11) 0.8283(9) 0.2630(11)
O2 O 0.4202(11) 0.6527(8) 0.2608(11)
O3 O 0.5671(10) 0.9189(8) 0.2214(10)
O4 O 0.6516(11) 0.742(1) 0.1919(11)
O5 O 0.1841(11) 1.0300(11) 0.3526(8)
O6 O 0.1099(14) 1.0489(10) 0.5314(9)
O7 O 0.4241(11) 1.0014(10) 0.4287(9)
O8 O 0.3451(11) 0.9757(11) 0.6066(9)
C1 C 0.4284(15) 0.7592(12) 0.2510(14)
C2 C 0.5637(15) 0.8115(13) 0.2164(13)
C3 C 0.1960(15) 1.0276(14) 0.4591(12)
C4 C 0.3339(16) 0.9995(13) 0.5051(12)
C5 C 0.132(2) 0.4374(15) 0.1530(14)
H1 H 0.19890 0.43930 0.21130
H2 H 0.04940 0.42180 0.19050
C6 C 0.1603(16) 0.3442(15) 0.0697(18)
H3 H 0.16630 0.27100 0.10960
H4 H 0.09040 0.33880 0.01420
C7 C 0.2494(15) 0.5754(15) 0.0324(15)
H5 H 0.31900 0.58380 0.08790
H6 H 0.24260 0.64700 -0.01020
C8 C 0.2810(17) 0.4797(15) -0.0477(15)
H7 H 0.21690 0.47780 -0.10870
H8 H 0.36540 0.49390 -0.08220
C9 C 0.0931(18) 0.6472(15) 0.1791(17)
H9 H 0.16950 0.66430 0.22480
H10 H 0.02530 0.62040 0.23040
C10 C 0.048(3) 0.757(2) 0.119(2)
H11 H 0.02820 0.81470 0.17460
H12 H 0.11540 0.78380 0.06870
H13 H -0.02870 0.74010 0.07430
C11 C 0.378(2) 0.2929(14) 0.0045(14)
H14 H 0.45150 0.31510 -0.03650
O9 O 0.3801(18) 0.1991(12) 0.0462(12)
N1 N 0.1252(15) 0.5529(11) 0.0934(11)
H15 H 0.05530 0.54990 0.03640
N2 N 0.2830(15) 0.3680(13) 0.0105(13)
Bi1A Bi 0.12588(6) 0.97284(4) 0.73879(4)
Bi1B Bi 0.62588(6) 0.52716(4) 0.26121(4)
O2B O 0.5798(11) 1.1527(8) 0.2392(11)
O4B O 0.3484(11) 1.242(1) 0.3081(11)
O6A O 0.3901(14) 0.9511(10) 0.0314(9)
O8A O 0.1549(11) 1.0243(11) 0.1066(9)
#END
