
#######################################################################
#
#                 Cambridge Crystallographic Data Centre
#                                CCDC
#
#######################################################################
#
# If this CIF has been generated from an entry in the Cambridge
# Structural Database, then it will include bibliographic, chemical,
# crystal, experimental, refinement or atomic coordinate data resulting
# from the CCDC's data processing and validation procedures.
#
#######################################################################

data_CSD_CIF_UTADIE
_audit_creation_date 2016-08-10
_audit_creation_method CSD-ConQuest-V1
_database_code_CSD UTADIE
_database_code_depnum_ccdc_archive 'CCDC 1498636'
_chemical_formula_sum 'C36 H64 Eu4 N4 O44'
_chemical_formula_moiety
;
(C26 H28 Eu4 N2 O36 2-)n,2n(C5 H12 N1 O1 1+),6n(H2 O1)
;
_journal_coden_Cambridge 1295
_journal_volume 70
_journal_year 2016
_journal_page_first 79
_journal_name_full 'Inorg.Chem.Commun. '
loop_
_publ_author_name
"Cheng Chen"
"Lindong Luan"
"Meng Yang"
"Hongmei Zeng"
"Zhien Lin"
_chemical_name_systematic
;
catena-(bis(2-(ammoniomethyl)tetrahdrofuran) 
octakis(\m-oxalato)-diaqua-bis(2-(ammoniomethyl)tetrahydrofuran)-tetra-europiu
m hexahydrate)
;
_cell_volume   2781.700
_exptl_crystal_colour 'colorless'
_exptl_crystal_density_diffrn 2.226
_exptl_crystal_description 'block'
_diffrn_ambient_temperature 293
#These two values have been output from a single CSD field.
_refine_ls_R_factor_gt 0.0541
_refine_ls_wR_factor_gt 0.0541
_symmetry_cell_setting monoclinic
_symmetry_space_group_name_H-M 'P 21/n'
_symmetry_Int_Tables_number 14
loop_
_symmetry_equiv_pos_site_id
_symmetry_equiv_pos_as_xyz
1 x,y,z
2 1/2-x,1/2+y,1/2-z
3 -x,-y,-z
4 -1/2+x,-1/2-y,-1/2+z
_cell_length_a 9.88728(10)
_cell_length_b 14.77683(16)
_cell_length_c 19.22537(19)
_cell_angle_alpha 90
_cell_angle_beta 97.9768(9)
_cell_angle_gamma 90
_cell_formula_units_Z 2
loop_
_atom_type_symbol
_atom_type_radius_bond
C 0.68
H 0.23
Eu 1.98
N 0.68
O 0.68
loop_
_atom_site_label
_atom_site_type_symbol
_atom_site_fract_x
_atom_site_fract_y
_atom_site_fract_z
Eu1 Eu 0.40568(3) 0.07387(2) 0.63765(2)
Eu2 Eu 0.54303(3) 0.48478(2) 0.66615(2)
O1 O 0.4741(5) 0.1113(3) 0.5250(2)
O2 O 0.5692(5) 0.0590(3) 0.4344(2)
O3 O 0.5490(5) 0.1908(3) 0.6988(3)
O4 O 0.6131(4) 0.3358(3) 0.6982(2)
O5 O 0.3320(4) 0.2278(3) 0.6045(2)
O6 O 0.3906(4) 0.3735(3) 0.6071(2)
O7 O 0.6328(4) 0.4513(4) 0.5567(2)
O8 O 0.5887(5) 0.4456(3) 0.4393(2)
O9 O 0.7926(5) 0.4829(3) 0.6804(2)
O10 O 0.9877(5) 0.5057(4) 0.7520(3)
O11 O 0.6495(5) 0.5280(4) 0.7827(3)
O12 O 0.8434(5) 0.5380(4) 0.8580(2)
O13 O 0.3734(5) 0.5851(3) 0.6990(3)
O14 O 0.2338(5) 0.6243(3) 0.7754(3)
O15 O 0.3959(5) 0.4194(3) 0.7538(3)
O16 O 0.2405(5) 0.4546(3) 0.8244(2)
O17 O 0.6356(5) 0.6508(3) 0.6385(3)
O18 O 0.1818(5) 0.0753(3) 0.5583(3)
H1 H 0.12040 0.03910 0.57450
H2 H 0.19090 0.05630 0.51490
C1 C 0.5118(6) 0.0496(4) 0.4879(3)
C2 C 0.5338(6) 0.2710(4) 0.6788(3)
C3 C 0.4064(6) 0.2930(4) 0.6249(3)
C4 C 0.5640(6) 0.4700(4) 0.4987(4)
C5 C 0.8596(6) 0.5036(4) 0.7384(3)
C6 C 0.7762(6) 0.5267(4) 0.7989(3)
C7 C 0.3062(6) 0.5695(4) 0.7483(4)
C8 C 0.3145(6) 0.4715(4) 0.7782(3)
C9 C 0.5154(7) 0.7678(5) 0.6926(4)
H3 H 0.48190 0.72930 0.72730
H4 H 0.52430 0.82880 0.71140
C10 C 0.6543(7) 0.7342(5) 0.6789(4)
H5 H 0.71010 0.72130 0.72400
C11 C 0.7328(8) 0.7975(5) 0.6374(4)
H6 H 0.67130 0.83540 0.60630
H7 H 0.79400 0.83580 0.66840
C12 C 0.8111(11) 0.7347(7) 0.5966(6)
H8 H 0.83140 0.76290 0.55370
H9 H 0.89580 0.71560 0.62440
C13 C 0.7152(12) 0.6566(7) 0.5811(5)
H10 H 0.65600 0.66630 0.53710
H11 H 0.76580 0.60100 0.57750
N1 N 0.4163(6) 0.7678(5) 0.6277(3)
H12 H 0.43150 0.81540 0.60150
H13 H 0.33190 0.77070 0.63870
H14 H 0.42580 0.71720 0.60370
O19 O 1.0065(5) 0.2328(4) 0.5404(3)
C14 C 1.0590(7) 0.3551(6) 0.6207(4)
H15 H 1.07520 0.36980 0.67030
H16 H 1.14600 0.35760 0.60290
C15 C 1.0030(7) 0.2602(5) 0.6119(4)
H17 H 1.06260 0.21980 0.64290
C16 C 0.8566(8) 0.2459(6) 0.6255(5)
H18 H 0.82500 0.29700 0.65050
H19 H 0.84900 0.19140 0.65280
C17 C 0.7749(8) 0.2370(6) 0.5526(5)
H20 H 0.69530 0.19880 0.55330
H21 H 0.74600 0.29570 0.53330
C18 C 0.8779(9) 0.1935(6) 0.5120(4)
H22 H 0.87950 0.12840 0.51850
H23 H 0.85650 0.20670 0.46220
N2 N 0.9653(7) 0.4239(4) 0.5835(4)
H24 H 0.93470 0.40420 0.54040
H25 H 1.01020 0.47570 0.58070
H26 H 0.89510 0.43280 0.60700
O20 O -0.0446(7) -0.0246(5) 0.5871(3)
H27 H -0.09700 0.00720 0.60880
H28 H -0.01980 -0.07150 0.61120
O21 O 0.8722(6) 0.4133(4) 0.4295(3)
H29 H 0.78850 0.42420 0.43200
H30 H 0.87820 0.36810 0.40280
O22 O 0.1578(6) 0.7499(4) 0.6708(3)
H31 H 0.15580 0.72260 0.70960
H32 H 0.10700 0.79640 0.66910
O1B O 0.5259(5) -0.1113(3) 0.4750(2)
O2B O 0.4308(5) -0.0590(3) 0.5656(2)
C1B C 0.4882(6) -0.0496(4) 0.5121(3)
O7B O 0.3672(4) 0.5487(4) 0.4433(2)
O8B O 0.4113(5) 0.5544(3) 0.5607(2)
C4B C 0.4360(6) 0.5300(4) 0.5013(4)
Eu1B Eu 0.59432(3) -0.07387(2) 0.36235(2)
Eu2B Eu 0.45697(3) -0.48478(2) 0.33385(2)
O3B O 0.4510(5) -0.1908(3) 0.3012(3)
O4B O 0.3869(4) -0.3358(3) 0.3018(2)
O5B O 0.6680(4) -0.2278(3) 0.3955(2)
O6B O 0.6094(4) -0.3735(3) 0.3929(2)
O9B O 0.2074(5) -0.4829(3) 0.3196(2)
O10B O 0.0123(5) -0.5057(4) 0.2480(3)
O11B O 0.3505(5) -0.5280(4) 0.2173(3)
O12B O 0.1566(5) -0.5380(4) 0.1420(2)
O13B O 0.6266(5) -0.5851(3) 0.3010(3)
O14B O 0.7662(5) -0.6243(3) 0.2246(3)
O15B O 0.6041(5) -0.4194(3) 0.2462(3)
O16B O 0.7595(5) -0.4546(3) 0.1756(2)
O17B O 0.3644(5) -0.6508(3) 0.3615(3)
O18B O 0.8182(5) -0.0753(3) 0.4417(3)
H1B H 0.87960 -0.03910 0.42550
H2B H 0.80910 -0.05630 0.48510
C2B C 0.4662(6) -0.2710(4) 0.3212(3)
C3B C 0.5936(6) -0.2930(4) 0.3751(3)
C5B C 0.1404(6) -0.5036(4) 0.2616(3)
C6B C 0.2238(6) -0.5267(4) 0.2011(3)
C7B C 0.6938(6) -0.5695(4) 0.2517(4)
C8B C 0.6855(6) -0.4715(4) 0.2218(3)
C9B C 0.4846(7) -0.7678(5) 0.3074(4)
H3B H 0.51810 -0.72930 0.27270
H4B H 0.47570 -0.82880 0.28860
C10B C 0.3457(7) -0.7342(5) 0.3211(4)
H5B H 0.28990 -0.72130 0.27600
C11B C 0.2672(8) -0.7975(5) 0.3626(4)
H6B H 0.32870 -0.83540 0.39370
H7B H 0.20600 -0.83580 0.33160
C12B C 0.1889(11) -0.7347(7) 0.4034(6)
H8B H 0.16860 -0.76290 0.44630
H9B H 0.10420 -0.71560 0.37560
C13B C 0.2848(12) -0.6566(7) 0.4189(5)
H10B H 0.34400 -0.66630 0.46290
H11B H 0.23420 -0.60100 0.42250
N1B N 0.5837(6) -0.7678(5) 0.3723(3)
H12B H 0.56850 -0.81540 0.39850
H13B H 0.66810 -0.77070 0.36130
H14B H 0.57420 -0.71720 0.39630
Eu1A Eu 0.09432(3) 0.57387(2) 0.86235(2)
Eu1A* Eu 1.09432(3) 0.57387(2) 0.86235(2)
Eu1C Eu -0.09432(3) -0.57387(2) 0.13765(2)
Eu1C* Eu 0.90568(3) -0.57387(2) 0.13765(2)
Eu2B* Eu 0.45697(3) 0.51522(2) 0.33385(2)
O7B* O 0.3672(4) -0.4513(4) 0.4433(2)
O8* O 0.5887(5) -0.5544(3) 0.4393(2)
O10A O 0.5123(5) 0.0057(4) 0.7480(3)
O10C O 0.4877(5) -0.0057(4) 0.2520(3)
O12A O 0.6566(5) 0.0380(4) 0.6420(2)
O12C O 0.3434(5) -0.0380(4) 0.3580(2)
O14A O 0.2662(5) 0.1243(3) 0.7246(3)
O14C O 0.7338(5) -0.1243(3) 0.2754(3)
O16A O 0.2595(5) -0.0454(3) 0.6756(2)
O16C O 0.7405(5) 0.0454(3) 0.3244(2)
#END
