
#######################################################################
#
#                 Cambridge Crystallographic Data Centre
#                                CCDC
#
#######################################################################
#
# If this CIF has been generated from an entry in the Cambridge
# Structural Database, then it will include bibliographic, chemical,
# crystal, experimental, refinement or atomic coordinate data resulting
# from the CCDC's data processing and validation procedures.
#
#######################################################################

data_CSD_CIF_UTIYIH
_audit_creation_date 2016-08-11
_audit_creation_method CSD-ConQuest-V1
_database_code_CSD UTIYIH
_database_code_depnum_ccdc_archive 'CCDC 1481240'
_chemical_formula_sum 'C32 H76 Mo16 N24 O76 Zn2'
_chemical_formula_moiety
;
(C32 H40 N24 O8 Zn2 4+)n,2(H2 Mo8 O26 2-),16(H2 O1)
;
_journal_coden_Cambridge 1295
_journal_volume 71
_journal_year 2016
_journal_page_first 9
_journal_name_full 'Inorg.Chem.Commun. '
loop_
_publ_author_name
"Xing Rong"
"Hongyan Lin"
"Danna Liu"
"Xiang Wang"
"Guocheng Liu"
"Xiuli Wang"
_chemical_name_systematic
;
catena-[tetrakis(\m-N-(pyridin-3-yl)-2-(1H-tetrazol-1-yl)acetamide)-tetra-aqua
-di-zinc bis(decakis(\m-oxido)-bis(\m-hydroxo)-tetradecaoxo-octa-molybdenum) 
hexadecahydrate]
;
_cell_volume  19852.226
_exptl_crystal_colour 'light blue'
_exptl_crystal_density_diffrn 2.26
_exptl_special_details
;
N38 appears to have been assigned as N instead of O in error. We have used O 
according ot the paper
;
_exptl_crystal_description 'Block'
_diffrn_ambient_temperature 293
_refine_special_details
;
The SQUEEZE/PLATON program has been used to model some disorder.

;
#These two values have been output from a single CSD field.
_refine_ls_R_factor_gt 0.0582
_refine_ls_wR_factor_gt 0.0582
_symmetry_cell_setting orthorhombic
_symmetry_space_group_name_H-M 'C m c a'
_symmetry_Int_Tables_number 64
loop_
_symmetry_equiv_pos_site_id
_symmetry_equiv_pos_as_xyz
1 x,y,z
2 -x,1/2-y,1/2+z
3 x,-y,-z
4 1/2-x,y,1/2-z
5 1/2+x,1/2+y,z
6 1/2-x,-y,1/2+z
7 1/2+x,1/2-y,-z
8 -x,1/2+y,1/2-z
9 -x,-y,-z
10 x,-1/2+y,-1/2-z
11 -x,y,z
12 -1/2+x,-y,-1/2+z
13 -1/2-x,-1/2-y,-z
14 -1/2+x,y,-1/2-z
15 -1/2-x,-1/2+y,z
16 x,-1/2-y,-1/2+z
_cell_length_a 27.090(5)
_cell_length_b 38.406(5)
_cell_length_c 19.081(5)
_cell_angle_alpha 90
_cell_angle_beta 90
_cell_angle_gamma 90
_cell_formula_units_Z 8
loop_
_atom_type_symbol
_atom_type_radius_bond
C 0.68
H 0.23
Mo 1.54
N 0.68
O 0.68
Zn 1.22
loop_
_atom_site_label
_atom_site_type_symbol
_atom_site_fract_x
_atom_site_fract_y
_atom_site_fract_z
Zn1 Zn 0.50000 0.01060(4) 0.80173(9)
N1 N 0.4409(3) -0.02651(19) 0.8066(4)
O1 O 0.50000 0.0135(2) 0.9169(5)
C1 C 0.4054(5) -0.0275(3) 0.7580(6)
H1 H 0.40810 -0.01290 0.71940
Zn2 Zn 0.75000 0.25000 0.50000
N2 N 0.3997(3) -0.0934(2) 0.9281(4)
H2 H 0.42290 -0.08920 0.95770
O2 O 0.3348(3) -0.12996(19) 0.9063(4)
O3 O 0.50000 0.0132(3) 0.6889(6)
C2 C 0.3650(5) -0.0492(3) 0.7624(7)
H3 H 0.34080 -0.04850 0.72780
N3 N 0.3499(3) -0.16608(19) 1.0280(4)
O4 O 0.5919(3) 0.11651(19) 0.6453(4)
O5 O 0.7508(3) 0.2297(2) 0.3927(4)
C3 C 0.3604(4) -0.0720(3) 0.8179(6)
H4 H 0.33380 -0.08720 0.82110
N4 N 0.3355(3) -0.1689(2) 1.0974(4)
C4 C 0.3967(4) -0.0714(2) 0.8686(5)
N5 N 0.3033(3) -0.1940(2) 1.0986(4)
C5 C 0.4348(4) -0.0477(2) 0.8616(5)
H5 H 0.45780 -0.04640 0.89770
N6 N 0.2971(3) -0.2079(2) 1.0338(4)
C6 C 0.3695(4) -0.1203(3) 0.9421(5)
N7 N 0.6864(3) 0.21944(18) 0.5221(4)
C7 C 0.3871(4) -0.1405(2) 1.0067(6)
H6 H 0.41780 -0.15230 0.99600
H7 H 0.39320 -0.12440 1.04490
N8 N 0.6532(3) 0.1562(2) 0.6571(5)
H8 H 0.67620 0.16250 0.68550
C8 C 0.3268(4) -0.1903(2) 0.9922(5)
H9 H 0.33080 -0.19450 0.94460
N9 N 0.6085(3) 0.0916(2) 0.7783(4)
C9 C 0.6459(4) 0.2191(3) 0.4806(6)
H10 H 0.64480 0.23370 0.44180
N10 N 0.5885(3) 0.0996(2) 0.8418(4)
C10 C 0.6064(4) 0.1978(3) 0.4939(6)
H11 H 0.57900 0.19840 0.46440
N11 N 0.5537(3) 0.05216(18) 0.8015(4)
C11 C 0.6066(4) 0.1754(3) 0.5507(6)
H12 H 0.58050 0.16020 0.55920
N12 N 0.5565(3) 0.0759(2) 0.8551(4)
C12 C 0.6478(3) 0.1767(2) 0.5944(5)
C13 C 0.6860(4) 0.1991(2) 0.5776(5)
H13 H 0.71310 0.19980 0.60740
C14 C 0.6269(4) 0.1291(2) 0.6755(5)
C15 C 0.6459(4) 0.1139(3) 0.7470(6)
H14 H 0.67580 0.10070 0.73920
H15 H 0.65350 0.13290 0.77870
C16 C 0.5863(4) 0.0629(2) 0.7551(6)
H16 H 0.59290 0.05200 0.71250
Mo1 Mo 0.50000 0.28187(3) 0.78873(5)
O6 O 0.5698(2) 0.27398(16) 0.7682(3)
Mo2 Mo 0.50000 0.22266(3) 0.64485(5)
Mo3 Mo 0.50000 0.34182(3) 0.65330(6)
Mo4 Mo 0.58465(3) 0.28128(2) 0.64931(4)
O7 O 0.6476(2) 0.22258(18) 0.7634(4)
Mo5 Mo 0.58600(3) 0.22323(2) 0.78366(4)
O8 O 0.6469(2) 0.28271(17) 0.6661(4)
O9 O 0.5803(3) 0.28177(17) 0.5603(3)
O10 O 0.50000 0.3417(3) 0.5635(5)
O11 O 0.50000 0.3843(2) 0.6768(5)
Mo6 Mo 0.50000 0.16278(3) 0.78030(6)
O12 O 0.4326(2) 0.32881(15) 0.6687(3)
O13 O 0.50000 0.3260(2) 0.7679(4)
O14 O 0.50000 0.2810(2) 0.8786(4)
O15 O 0.50000 0.2277(2) 0.7688(5)
O16 O 0.50000 0.1619(3) 0.8699(5)
O17 O 0.50000 0.1207(2) 0.7550(5)
O18 O 0.5675(2) 0.17685(16) 0.7656(3)
O19 O 0.50000 0.1783(2) 0.6648(5)
O20 O 0.5839(3) 0.22512(17) 0.8729(3)
O21 O 0.50000 0.2236(2) 0.5567(5)
O22 O 0.5696(2) 0.23165(15) 0.6654(3)
O23 O 0.50000 0.2784(2) 0.6637(5)
Mo7 Mo 0.66463(3) 0.029040(19) 0.93341(4)
Mo8 Mo 0.75064(3) 0.029581(19) 1.07202(4)
Mo9 Mo 0.75050(3) 0.08903(2) 0.93542(4)
Mo10 Mo 0.83629(3) 0.02858(2) 0.93169(5)
O24 O 0.8204(2) -0.02126(16) 0.9485(3)
O25 O 0.8978(3) 0.02957(19) 0.9495(5)
O26 O 0.8338(3) 0.02785(19) 0.8418(4)
O27 O 0.8182(2) 0.07565(16) 0.9505(3)
O28 O 0.7531(3) 0.13096(16) 0.9595(4)
O29 O 0.7511(3) 0.08900(18) 0.8455(3)
O30 O 0.6828(2) 0.07585(15) 0.9512(3)
O31 O 0.6678(3) 0.02820(18) 0.8436(3)
O32 O 0.6032(2) 0.02978(17) 0.9533(3)
O33 O 0.6816(2) -0.02093(15) 0.9491(3)
O34 O 0.7513(3) 0.02918(17) 1.1618(3)
O35 O 0.7516(2) 0.02544(15) 0.9463(3)
O36 O 0.7515(2) 0.07340(16) 1.0502(3)
N1J N 0.5591(3) -0.02651(19) 0.8066(4)
C1J C 0.5946(5) -0.0275(3) 0.7580(6)
H1J H 0.59190 -0.01290 0.71940
N2J N 0.6003(3) -0.0934(2) 0.9281(4)
H2J H 0.57710 -0.08920 0.95770
O2J O 0.6652(3) -0.12996(19) 0.9063(4)
C2J C 0.6350(5) -0.0492(3) 0.7624(7)
H3J H 0.65920 -0.04850 0.72780
N3J N 0.6501(3) -0.16608(19) 1.0280(4)
O4J O 0.4081(3) 0.11651(19) 0.6453(4)
C3J C 0.6396(4) -0.0720(3) 0.8179(6)
H4J H 0.66620 -0.08720 0.82110
N4J N 0.6645(3) -0.1689(2) 1.0974(4)
C4J C 0.6033(4) -0.0714(2) 0.8686(5)
N5J N 0.6967(3) -0.1940(2) 1.0986(4)
C5J C 0.5652(4) -0.0477(2) 0.8616(5)
H5J H 0.54220 -0.04640 0.89770
N6J N 0.7029(3) -0.2079(2) 1.0338(4)
C6J C 0.6305(4) -0.1203(3) 0.9421(5)
N7J N 0.3136(3) 0.21944(18) 0.5221(4)
C7J C 0.6129(4) -0.1405(2) 1.0067(6)
H6J H 0.58220 -0.15230 0.99600
H7J H 0.60680 -0.12440 1.04490
N8J N 0.3468(3) 0.1562(2) 0.6571(5)
H8J H 0.32380 0.16250 0.68550
C8J C 0.6732(4) -0.1903(2) 0.9922(5)
H9J H 0.66920 -0.19450 0.94460
N9J N 0.3915(3) 0.0916(2) 0.7783(4)
C9J C 0.3541(4) 0.2191(3) 0.4806(6)
H10J H 0.35520 0.23370 0.44180
N10J N 0.4115(3) 0.0996(2) 0.8418(4)
C10J C 0.3936(4) 0.1978(3) 0.4939(6)
H11J H 0.42100 0.19840 0.46440
N11J N 0.4463(3) 0.05216(18) 0.8015(4)
C11J C 0.3934(4) 0.1754(3) 0.5507(6)
H12J H 0.41950 0.16020 0.55920
N12J N 0.4435(3) 0.0759(2) 0.8551(4)
C12J C 0.3522(3) 0.1767(2) 0.5944(5)
C13J C 0.3140(4) 0.1991(2) 0.5776(5)
H13J H 0.28690 0.19980 0.60740
C14J C 0.3731(4) 0.1291(2) 0.6755(5)
C15J C 0.3541(4) 0.1139(3) 0.7470(6)
H14J H 0.32420 0.10070 0.73920
H15J H 0.34650 0.13290 0.77870
C16J C 0.4137(4) 0.0629(2) 0.7551(6)
H16J H 0.40710 0.05200 0.71250
O5L O 0.7492(3) 0.2703(2) 0.6073(4)
Zn2E Zn 0.75000 -0.25000 1.00000
Zn2F Zn 0.25000 0.25000 0.50000
Zn2G Zn 0.25000 -0.25000 1.00000
N6G N 0.7029(3) 0.2921(2) 0.4662(4)
N6K N 0.7971(3) 0.2079(2) 0.5338(4)
N7L N 0.8136(3) 0.28056(18) 0.4779(4)
O6J O 0.4302(2) 0.27398(16) 0.7682(3)
Mo4J Mo 0.41535(3) 0.28128(2) 0.64931(4)
O7J O 0.3524(2) 0.22258(18) 0.7634(4)
Mo5J Mo 0.41400(3) 0.22323(2) 0.78366(4)
O8J O 0.3531(2) 0.28271(17) 0.6661(4)
O9J O 0.4197(3) 0.28177(17) 0.5603(3)
O12J O 0.5674(2) 0.32881(15) 0.6687(3)
O18J O 0.4325(2) 0.17685(16) 0.7656(3)
O20J O 0.4161(3) 0.22512(17) 0.8729(3)
O22J O 0.4304(2) 0.23165(15) 0.6654(3)
Mo7B Mo 0.66463(3) -0.029040(19) 1.06659(4)
Mo8B Mo 0.75064(3) -0.029581(19) 0.92798(4)
Mo9B Mo 0.75050(3) -0.08903(2) 1.06458(4)
Mo10B Mo 0.83629(3) -0.02858(2) 1.06831(5)
O24B O 0.8204(2) 0.02126(16) 1.0515(3)
O25B O 0.8978(3) -0.02957(19) 1.0505(5)
O26B O 0.8338(3) -0.02785(19) 1.1582(4)
O27B O 0.8182(2) -0.07565(16) 1.0495(3)
O28B O 0.7531(3) -0.13096(16) 1.0405(4)
O29B O 0.7511(3) -0.08900(18) 1.1545(3)
O30B O 0.6828(2) -0.07585(15) 1.0488(3)
O31B O 0.6678(3) -0.02820(18) 1.1564(3)
O32B O 0.6032(2) -0.02978(17) 1.0467(3)
O33B O 0.6816(2) 0.02093(15) 1.0509(3)
O34B O 0.7513(3) -0.02918(17) 0.8382(3)
O35B O 0.7516(2) -0.02544(15) 1.0537(3)
O36B O 0.7515(2) -0.07340(16) 0.9498(3)
#END
