
#######################################################################
#
#                 Cambridge Crystallographic Data Centre
#                                CCDC
#
#######################################################################
#
# If this CIF has been generated from an entry in the Cambridge
# Structural Database, then it will include bibliographic, chemical,
# crystal, experimental, refinement or atomic coordinate data resulting
# from the CCDC's data processing and validation procedures.
#
#######################################################################

data_CSD_CIF_UVOHIZ
_audit_creation_date 2021-05-29
_audit_creation_method CSD-ConQuest-V1
_database_code_CSD UVOHIZ
_database_code_depnum_ccdc_archive 'CCDC 1890141'
_chemical_formula_sum 'C68 H88 N8 O46 Zn4'
_chemical_formula_moiety
;
(C20 H16 O22 Zn2 4-)n,(C24 H24 N4 O6 Zn1 2+)n,(C24 H24 N4 O6 Zn1 2+)n,12(H2 
O1)
;
_journal_coden_Cambridge 580
_journal_volume 205
_journal_year 2021
_journal_page_first 115295
_journal_name_full 'Polyhedron '
loop_
_publ_author_name
"Guo-zheng Zhao"
"Jin-jian Liu"
_chemical_name_systematic
;
catena-(bis(bis(\m-1-(carboxylatomethyl)-4-(pyridin-4-yl)pyridin-1-ium)-diaqua
-zinc) bis(\m-benzene-1,2,4,5-tetracarboxylato)-hexa-aqua-di-zinc)
;
_cell_volume   2025.353
_exptl_crystal_colour 'colorless'
_exptl_crystal_density_diffrn 1.652
_exptl_crystal_description 'block'
_diffrn_ambient_temperature 273.1
#These two values have been output from a single CSD field.
_refine_ls_R_factor_gt 0.0324
_refine_ls_wR_factor_gt 0.0324
_symmetry_cell_setting triclinic
_symmetry_space_group_name_H-M 'P -1'
_symmetry_Int_Tables_number 2
loop_
_symmetry_equiv_pos_site_id
_symmetry_equiv_pos_as_xyz
1 x,y,z
2 -x,-y,-z
_cell_length_a 11.4884(6)
_cell_length_b 11.6205(7)
_cell_length_c 16.3405(9)
_cell_angle_alpha 100.896(1)
_cell_angle_beta 94.996(1)
_cell_angle_gamma 106.960(1)
_cell_formula_units_Z 1
loop_
_atom_type_symbol
_atom_type_radius_bond
C 0.68
H 0.23
N 0.68
O 0.68
Zn 1.22
loop_
_atom_site_label
_atom_site_type_symbol
_atom_site_fract_x
_atom_site_fract_y
_atom_site_fract_z
Zn1 Zn 0.338423(18) 0.02852(2) 0.289864(12)
O1 O 0.19520(12) -0.00002(15) 0.19240(8)
O2 O -0.21653(13) 0.05708(13) 0.63947(8)
O3 O 0.24025(13) -0.14033(14) -0.01047(10)
O4 O -0.33083(12) -0.04124(14) 0.45897(9)
O5 O 0.27091(15) -0.02041(18) -0.10254(11)
O6 O 0.45413(12) 0.17259(13) 0.25641(9)
H1 H 0.44800 0.24410 0.28290
H2 H 0.43410 0.17250 0.20300
O7 O 0.30987(13) 0.10718(15) 0.11254(9)
O8 O -0.22846(14) -0.13711(14) 0.62919(10)
C1 C 0.09848(15) 0.01493(15) 0.06153(10)
C2 C -0.18500(16) -0.03621(17) 0.60996(10)
C3 C 0.10552(15) -0.02527(15) -0.02357(10)
C4 C -0.02020(16) 0.04050(16) 0.4270(1)
H3 H -0.03330 0.06760 0.37800
O9 O 0.39212(13) -0.11513(14) 0.23193(9)
H4 H 0.46030 -0.11580 0.25940
H5 H 0.41220 -0.10480 0.18300
O10 O 0.47286(14) 0.06643(17) 0.40654(9)
H6 H 0.52000 0.01660 0.40160
H7 H 0.43510 0.04770 0.45040
C5 C -0.09077(15) -0.02009(15) 0.55149(10)
O11 O -0.23211(15) 0.12760(15) 0.41865(12)
C6 C 0.21004(15) 0.04234(16) 0.12703(11)
C7 C 0.21464(16) -0.06376(17) -0.04765(11)
C8 C -0.23385(16) 0.03786(17) 0.45093(11)
C9 C 0.00737(15) -0.03902(16) -0.08483(10)
H8 H 0.01250 -0.06440 -0.14150
C10 C -0.11205(15) 0.02083(15) 0.47809(10)
Zn2 Zn 0.00000 -0.50000 0.00000
O12 O -0.06925(13) -0.53583(14) 0.10752(9)
O13 O 0.03702(14) -0.63398(17) 0.17332(11)
N1 N -0.26299(13) -0.60086(15) 0.1862(1)
C11 C -0.05165(16) -0.59679(17) 0.15989(11)
C12 C -0.15003(16) -0.62499(19) 0.21729(12)
H9 H -0.17000 -0.71090 0.22060
H10 H -0.11740 -0.57450 0.27370
C13 C -0.45102(18) -0.66938(19) 0.09411(13)
H11 H -0.50790 -0.73130 0.05280
C14 C -0.34585(18) -0.68832(19) 0.12703(13)
H12 H -0.33220 -0.76320 0.10780
C15 C -0.47259(16) -0.55837(17) 0.12219(12)
C16 C -0.27948(19) -0.4915(2) 0.21439(15)
H13 H -0.22030 -0.43110 0.25520
C17 C -0.58967(16) -0.54065(17) 0.09096(12)
C18 C -0.71804(19) -0.41661(19) 0.06955(16)
H14 H -0.72590 -0.33840 0.07360
C19 C -0.38337(19) -0.46811(19) 0.18331(16)
H15 H -0.39410 -0.39200 0.20310
C20 C -0.60369(19) -0.42530(19) 0.09671(16)
H16 H -0.53720 -0.35430 0.11850
C21 C -0.80324(19) -0.6251(2) 0.03315(16)
H17 H -0.87170 -0.69450 0.01210
C22 C -0.6925(2) -0.6426(2) 0.05765(17)
H18 H -0.68710 -0.72200 0.05180
N2 N -0.81716(14) -0.51423(15) 0.03802(10)
O14 O 0.06847(14) -0.30793(13) 0.05898(10)
H19 H 0.02750 -0.29030 0.09950
H20 H 0.111(3) -0.257(3) 0.0434(17)
Zn3 Zn 0.00000 -0.50000 0.50000
O15 O -0.02364(13) -0.33481(15) 0.32686(10)
C23 C 0.06767(16) -0.36370(16) 0.34933(12)
N3 N 0.27675(14) -0.37130(15) 0.32429(10)
O16 O 0.08770(14) -0.40993(16) 0.40979(10)
C24 C 0.16773(17) -0.34122(18) 0.29243(13)
H21 H 0.13420 -0.39140 0.23610
H22 H 0.19230 -0.25530 0.28890
C25 C 0.72040(18) -0.57573(18) 0.43114(14)
H23 H 0.72580 -0.65490 0.42690
C26 C 0.29423(18) -0.47752(18) 0.28914(13)
H24 H 0.23770 -0.53200 0.24410
C27 C 0.48106(16) -0.42440(17) 0.38540(12)
C28 C 0.45685(18) -0.31774(18) 0.42272(13)
H25 H 0.51030 -0.26300 0.46910
C29 C 0.35424(18) -0.29313(18) 0.39123(14)
H26 H 0.33830 -0.22170 0.41650
C30 C 0.59762(17) -0.44561(17) 0.41338(11)
C31 C 0.39504(18) -0.50692(19) 0.31909(14)
H27 H 0.40570 -0.58170 0.29510
C32 C 0.70267(18) -0.34552(18) 0.44549(14)
H28 H 0.69950 -0.26530 0.45200
C33 C 0.81242(18) -0.36684(18) 0.46764(13)
H29 H 0.88270 -0.29910 0.48780
C34 C 0.60780(18) -0.56328(18) 0.40589(14)
H30 H 0.53960 -0.63270 0.38420
N4 N 0.82224(14) -0.47940(15) 0.46148(10)
O17 O -0.05235(14) -0.66695(14) 0.41241(10)
H31 H -0.08620 -0.73160 0.43510
H32 H 0.01250 -0.68650 0.39330
O18 O 0.46663(16) -0.11253(19) 0.08007(11)
H33 H 0.53490 -0.06000 0.07770
H34 H 0.41510 -0.10170 0.04400
O19 O 0.66833(16) 0.12824(17) 0.25720(11)
H35 H 0.68970 0.08000 0.22000
H36 H 0.69820 0.11840 0.30390
O20 O 0.58408(16) -0.18570(16) 0.28845(11)
H37 H 0.63920 -0.16510 0.25770
H38 H 0.61770 -0.14410 0.33780
O21 O 0.2495(2) 0.1638(3) -0.1811(2)
H39 H 0.26200 0.13200 -0.13970
H40 H 0.19570 0.10550 -0.21660
O22 O 0.01505(15) 0.19924(15) -0.20128(10)
H41 H 0.01680 0.22990 -0.24460
H42 H -0.04530 0.13280 -0.21520
O23 O 0.0641(3) -0.7563(3) 0.29623(16)
H43 H 0.14020 -0.72950 0.31650
H44 H 0.06110 -0.73710 0.24860
O1A O -0.19520(12) 0.00002(15) -0.19240(8)
O3A O -0.24025(13) 0.14033(14) 0.01047(10)
O5A O -0.27091(15) 0.02041(18) 0.10254(11)
O7A O -0.30987(13) -0.10718(15) -0.11254(9)
C1A C -0.09848(15) -0.01493(15) -0.06153(10)
C3A C -0.10552(15) 0.02527(15) 0.02357(10)
C6A C -0.21004(15) -0.04234(16) -0.12703(11)
C7A C -0.21464(16) 0.06376(17) 0.04765(11)
C9A C -0.00737(15) 0.03902(16) 0.08483(10)
H8A H -0.01250 0.06440 0.14150
O4A O 0.33083(12) 0.04124(14) 0.54103(9)
C2A C 0.18500(16) 0.03621(17) 0.39004(10)
C4A C 0.02020(16) -0.04050(16) 0.5730(1)
H3A H 0.03330 -0.06760 0.62200
C5A C 0.09077(15) 0.02009(15) 0.44851(10)
O11A O 0.23211(15) -0.12760(15) 0.58135(12)
C8A C 0.23385(16) -0.03786(17) 0.54907(11)
C10A C 0.11205(15) -0.02083(15) 0.52191(10)
O2A O 0.21653(13) -0.05708(13) 0.36053(8)
O8A O 0.22846(14) 0.13711(14) 0.37081(10)
Zn1A Zn -0.338423(18) -0.02852(2) -0.289864(12)
O6A O -0.45413(12) -0.17259(13) -0.25641(9)
H1A H -0.44800 -0.24410 -0.28290
H2A H -0.43410 -0.17250 -0.20300
O9A O -0.39212(13) 0.11513(14) -0.23193(9)
H4A H -0.46030 0.11580 -0.25940
H5A H -0.41220 0.10480 -0.18300
O10A O -0.47286(14) -0.06643(17) -0.40654(9)
H6A H -0.52000 -0.01660 -0.40160
H7A H -0.43510 -0.04770 -0.45040
Zn1A* Zn -0.338423(18) -0.02852(2) 0.710136(12)
O2* O -0.21653(13) 0.05708(13) -0.36053(8)
O8* O -0.22846(14) -0.13711(14) -0.37081(10)
O12A O -0.93075(13) -0.46417(14) -0.10752(9)
O13A O -1.03702(14) -0.36602(17) -0.17332(11)
N1A N -0.73701(13) -0.39914(15) -0.1862(1)
C11A C -0.94835(16) -0.40321(17) -0.15989(11)
C12A C -0.84997(16) -0.37501(19) -0.21729(12)
H9A H -0.83000 -0.28910 -0.22060
H10A H -0.88260 -0.42550 -0.27370
C13A C -0.54898(18) -0.33062(19) -0.09411(13)
H11A H -0.49210 -0.26870 -0.05280
C14A C -0.65415(18) -0.31168(19) -0.12703(13)
H12A H -0.66780 -0.23680 -0.10780
C15A C -0.52741(16) -0.44163(17) -0.12219(12)
C16A C -0.72052(19) -0.5085(2) -0.21439(15)
H13A H -0.77970 -0.56890 -0.25520
C17A C -0.41033(16) -0.45935(17) -0.09096(12)
C18A C -0.28196(19) -0.58339(19) -0.06955(16)
H14A H -0.27410 -0.66160 -0.07360
C19A C -0.61663(19) -0.53189(19) -0.18331(16)
H15A H -0.60590 -0.60800 -0.20310
C20A C -0.39631(19) -0.57470(19) -0.09671(16)
H16A H -0.46280 -0.64570 -0.11850
C21A C -0.19676(19) -0.3749(2) -0.03315(16)
H17A H -0.12830 -0.30550 -0.01210
C22A C -0.3075(2) -0.3574(2) -0.05765(17)
H18A H -0.31290 -0.27800 -0.05180
N2A N -0.18284(14) -0.48577(15) -0.03802(10)
O14A O -0.06847(14) -0.69207(13) -0.05898(10)
H19A H -0.02750 -0.70970 -0.09950
H20A H -0.111(3) -0.743(3) -0.0434(17)
Zn2* Zn -1.00000 -0.50000 0.00000
O12A* O 0.06925(13) -0.46417(14) -0.10752(9)
N2* N 0.18284(14) -0.51423(15) 0.03802(10)
O15A O 0.02364(13) -0.66519(15) 0.67314(10)
C23A C -0.06767(16) -0.63630(16) 0.65067(12)
N3A N -0.27675(14) -0.62870(15) 0.67571(10)
O16A O -0.08770(14) -0.59007(16) 0.59021(10)
C24A C -0.16773(17) -0.65878(18) 0.70757(13)
H21A H -0.13420 -0.60860 0.76390
H22A H -0.19230 -0.74470 0.71110
C25A C -0.72040(18) -0.42427(18) 0.56886(14)
H23A H -0.72580 -0.34510 0.57310
C26A C -0.29423(18) -0.52248(18) 0.71086(13)
H24A H -0.23770 -0.46800 0.75590
C27A C -0.48106(16) -0.57560(17) 0.61460(12)
C28A C -0.45685(18) -0.68226(18) 0.57728(13)
H25A H -0.51030 -0.73700 0.53090
C29A C -0.35424(18) -0.70687(18) 0.60877(14)
H26A H -0.33830 -0.77830 0.58350
C30A C -0.59762(17) -0.55439(17) 0.58662(11)
C31A C -0.39504(18) -0.49308(19) 0.68091(14)
H27A H -0.40570 -0.41830 0.70490
C32A C -0.70267(18) -0.65448(18) 0.55451(14)
H28A H -0.69950 -0.73470 0.54800
C33A C -0.81242(18) -0.63316(18) 0.53236(13)
H29A H -0.88270 -0.70090 0.51220
C34A C -0.60780(18) -0.43672(18) 0.59411(14)
H30A H -0.53960 -0.36730 0.61580
N4A N -0.82224(14) -0.52060(15) 0.53852(10)
O17A O 0.05235(14) -0.33305(14) 0.58759(10)
H31A H 0.08620 -0.26840 0.56490
H32A H -0.01250 -0.31350 0.60670
Zn3* Zn -1.00000 -0.50000 0.50000
Zn3** Zn 1.00000 -0.50000 0.50000
N4* N -0.17776(14) -0.47940(15) 0.46148(10)
N4A* N 0.17776(14) -0.52060(15) 0.53852(10)
#END
