
#######################################################################
#
#                 Cambridge Crystallographic Data Centre
#                                CCDC
#
#######################################################################
#
# If this CIF has been generated from an entry in the Cambridge
# Structural Database, then it will include bibliographic, chemical,
# crystal, experimental, refinement or atomic coordinate data resulting
# from the CCDC's data processing and validation procedures.
#
#######################################################################

data_CSD_CIF_UWALEL
_audit_creation_date 2016-09-08
_audit_creation_method CSD-ConQuest-V1
_database_code_CSD UWALEL
_database_code_depnum_ccdc_archive 'CCDC 1491604'
_chemical_formula_sum 'C83 H127 Cu2 N17 O27'
_chemical_formula_moiety
;
(C42 H18 Cu2 N2 O16 4-)n,4(C2 H8 N1 1+),11(C3 H7 N1 O1)
;
_journal_coden_Cambridge 1747
_journal_volume 3
_journal_year 2016
_journal_page_first 1326
_journal_name_full 'Inorg.Chem.Front. '
loop_
_publ_author_name
"Bo Liu"
"Hui-Fang Zhou"
"Lei Hou"
"Zhonghua Zhu"
"Yao-Yu Wang"
_chemical_name_systematic
;
catena-[tetrakis(dimethylammonium) 
bis(\m-5,5'-(pyridine-2,6-diyl)di(benzene-1,3-dicarboxylato))-di-copper 
N,N-dimethylformamide solvate]
;
_cell_volume   4755.645
_exptl_crystal_colour 'blue'
_exptl_crystal_density_diffrn 1.171
_exptl_crystal_description 'block'
_diffrn_ambient_temperature 296
_refine_special_details
;
The SQUEEZE/PLATON program has been used to model some disorder.

;
#These two values have been output from a single CSD field.
_refine_ls_R_factor_gt 0.0803
_refine_ls_wR_factor_gt 0.0803
_symmetry_cell_setting hexagonal
_symmetry_space_group_name_H-M 'P 31 2 1'
_symmetry_Int_Tables_number 152
loop_
_symmetry_equiv_pos_site_id
_symmetry_equiv_pos_as_xyz
1 x,y,z
2 -y,x-y,1/3+z
3 -x+y,-x,2/3+z
4 y,x,-z
5 -x,-x+y,1/3-z
6 x-y,-y,2/3-z
_cell_length_a 22.4258(16)
_cell_length_b 22.4258(16)
_cell_length_c 10.9190(15)
_cell_angle_alpha 90
_cell_angle_beta 90
_cell_angle_gamma 120
_cell_formula_units_Z 3
loop_
_atom_type_symbol
_atom_type_radius_bond
C 0.68
H 0.23
Cu 1.32
N 0.68
O 0.68
loop_
_atom_site_label
_atom_site_type_symbol
_atom_site_fract_x
_atom_site_fract_y
_atom_site_fract_z
Cu1 Cu 0.33696(4) 0.00000 0.33330
Cu2 Cu 0.33679(4) 0.33679(4) 0.00000
C1 C 0.4427(3) 0.3260(3) 0.0799(6)
C2 C 0.4808(3) 0.2899(3) 0.1231(6)
C3 C 0.4441(3) 0.2225(3) 0.1638(5)
H1 H 0.39620 0.19930 0.16690
C4 C 0.4816(3) 0.1894(3) 0.2011(5)
C5 C 0.5505(4) 0.2221(4) 0.1851(9)
H2 H 0.57410 0.19950 0.20790
C6 C 0.5859(5) 0.2849(6) 0.1384(11)
C7 C 0.5515(4) 0.3230(4) 0.1125(9)
H3 H 0.57630 0.36900 0.08910
C8 C 0.4408(3) 0.1169(3) 0.2461(6)
C9 C 0.6629(4) 0.3215(5) 0.1110(6)
C10 C 0.7069(4) 0.3915(5) 0.1125(8)
H4 H 0.68830 0.41990 0.12460
C11 C 0.7715(5) 0.4194(5) 0.0983(10)
H5 H 0.79880 0.46720 0.09860
C12 C 0.8019(5) 0.3780(5) 0.0819(9)
H6 H 0.84930 0.39700 0.07460
C13 C 0.7576(4) 0.3078(5) 0.0774(8)
C14 C 0.7825(4) 0.2585(5) 0.0500(8)
C15 C 0.7538(5) 0.1944(5) 0.1054(11)
H7 H 0.71870 0.18200 0.16240
C16 C 0.7766(4) 0.1477(4) 0.0774(7)
C17 C 0.8340(4) 0.1679(4) 0.0006(6)
H8 H 0.85370 0.14020 -0.00760
C18 C 0.8603(4) 0.2286(4) -0.0618(7)
C19 C 0.8363(5) 0.2769(5) -0.0306(9)
H9 H 0.85770 0.32050 -0.06580
C20 C 0.7482(4) 0.0813(4) 0.1494(7)
C21 C 0.9194(4) 0.2515(4) -0.1481(7)
O1 O 0.9493(2) 0.3152(3) -0.1802(4)
N1 N 0.6893(3) 0.2789(4) 0.0978(6)
O2 O 0.3759(2) 0.2896(3) 0.0870(4)
O3 O 0.4723(3) 0.3845(3) 0.0427(6)
O4 O 0.3760(2) 0.0887(2) 0.2465(5)
O5 O 0.4714(3) 0.0860(3) 0.2819(6)
O6 O 0.6870(3) 0.0535(2) 0.1832(4)
O7 O 0.7867(4) 0.0585(4) 0.1802(7)
O8 O 0.9352(4) 0.2084(4) -0.1818(7)
N2 N 0.5398(8) 0.0342(8) 0.1487(14)
H10 H 0.53390 0.06090 0.20310
H11 H 0.56840 0.02140 0.18200
C22 C 0.4697(9) -0.0303(8) 0.1203(17)
H12 H 0.45460 -0.06020 0.19020
H13 H 0.47450 -0.05410 0.05140
H14 H 0.43640 -0.01660 0.10160
C23 C 0.5710(11) 0.0742(13) 0.033(2)
H15 H 0.61500 0.11350 0.05170
H16 H 0.54120 0.08920 -0.00030
H17 H 0.57680 0.04540 -0.02480
C24 C 0.9240(12) 0.1628(9) 0.5520(19)
H18 H 0.96740 0.20500 0.55240
H19 H 0.92790 0.12840 0.59800
H20 H 0.88950 0.17060 0.58840
C25 C 0.8383(11) 0.0657(10) 0.427(2)
H21 H 0.82290 0.05130 0.34420
H22 H 0.80260 0.06730 0.47240
H23 H 0.84900 0.03350 0.46430
N3 N 0.9044(13) 0.1391(10) 0.425(2)
H24 H 0.93900 0.13720 0.38710
H25 H 0.89570 0.16870 0.38370
C1C C 0.3260(3) 0.4427(3) -0.0799(6)
C2C C 0.2899(3) 0.4808(3) -0.1231(6)
C3C C 0.2225(3) 0.4441(3) -0.1638(5)
H1C H 0.19930 0.39620 -0.16690
C4C C 0.1894(3) 0.4816(3) -0.2011(5)
C5C C 0.2221(4) 0.5505(4) -0.1851(9)
H2C H 0.19950 0.57410 -0.20790
C6C C 0.2849(5) 0.5859(6) -0.1384(11)
C7C C 0.3230(4) 0.5515(4) -0.1125(9)
H3C H 0.36900 0.57630 -0.08910
C8C C 0.1169(3) 0.4408(3) -0.2461(6)
C9C C 0.3215(4) 0.6629(5) -0.1110(6)
C10C C 0.3915(4) 0.7069(5) -0.1125(8)
H4C H 0.41990 0.68830 -0.12460
C11C C 0.4194(5) 0.7715(5) -0.0983(10)
H5C H 0.46720 0.79880 -0.09860
C12C C 0.3780(5) 0.8019(5) -0.0819(9)
H6C H 0.39700 0.84930 -0.07460
C13C C 0.3078(4) 0.7576(5) -0.0774(8)
C14C C 0.2585(4) 0.7825(5) -0.0500(8)
C15C C 0.1944(5) 0.7538(5) -0.1054(11)
H7C H 0.18200 0.71870 -0.16240
C16C C 0.1477(4) 0.7766(4) -0.0774(7)
C17C C 0.1679(4) 0.8340(4) -0.0006(6)
H8C H 0.14020 0.85370 0.00760
C18C C 0.2286(4) 0.8603(4) 0.0618(7)
C19C C 0.2769(5) 0.8363(5) 0.0306(9)
H9C H 0.32050 0.85770 0.06580
C20C C 0.0813(4) 0.7482(4) -0.1494(7)
C21C C 0.2515(4) 0.9194(4) 0.1481(7)
O1C O 0.3152(2) 0.9493(3) 0.1802(4)
N1C N 0.2789(3) 0.6893(4) -0.0978(6)
O2C O 0.2896(2) 0.3759(3) -0.0870(4)
O3C O 0.3845(3) 0.4723(3) -0.0427(6)
O4C O 0.0887(2) 0.3760(2) -0.2465(5)
O5C O 0.0860(3) 0.4714(3) -0.2819(6)
O6C O 0.0535(3) 0.6870(2) -0.1832(4)
O7C O 0.0585(4) 0.7867(4) -0.1802(7)
O8C O 0.2084(4) 0.9352(4) 0.1818(7)
Cu1* Cu 0.33696(4) 1.00000 0.33330
Cu1A Cu 0.00000(4) 0.33696 -0.33337
Cu1A* Cu 1.00000(4) 0.33696 -0.33337
Cu2A Cu 0.66321(4) 0.00000(4) 0.33333
Cu2B Cu 0.00000(4) 0.66321(4) -0.33333
O1B O 0.3659(2) 0.0507(3) 0.486467(400)
O1C* O 0.3152(2) -0.0507(3) 0.1802(4)
O4E O 0.2873(2) -0.0887(2) 0.420167(500)
O5E O 0.3854(3) -0.0860(3) 0.384767(600)
O6B O 0.3665(3) 0.3130(2) -0.150133(400)
O6D O 0.3130(3) 0.3665(2) 0.150133(400)
#END
