
#######################################################################
#
#                 Cambridge Crystallographic Data Centre
#                                CCDC
#
#######################################################################
#
# If this CIF has been generated from an entry in the Cambridge
# Structural Database, then it will include bibliographic, chemical,
# crystal, experimental, refinement or atomic coordinate data resulting
# from the CCDC's data processing and validation procedures.
#
#######################################################################

data_CSD_CIF_UWAYID
_audit_creation_date 2021-06-01
_audit_creation_method CSD-ConQuest-V1
_database_code_CSD UWAYID
_database_code_depnum_ccdc_archive 'CCDC 1572667'
_chemical_formula_sum 'C88 H128 Cd3 N6 O50'
_chemical_formula_moiety
;
6(C2 H8 N1 1+),n(C76 H56 Cd3 O38 6-),12(H2 O1)
;
_journal_coden_Cambridge 1440
_journal_volume 9
_journal_year 2017
_journal_page_first 39441
_journal_name_full 'ACS Applied Materials and Interfaces '
loop_
_publ_author_name
"Bing-Bing Lu"
"Wei Jiang"
"Jin Yang"
"Ying-Ying Liu"
"Jian-Fang Ma"
_chemical_name_systematic
;
catena-[hexakis(dimethylammonium) 
(\m-2,8,14,20-tetrakis(4-(carboxylatomethoxy)phenyl)-4,6,10,12,16,18,22,24-oct
akis(4-(carboxylatomethoxy)phenoxy)calix(4)arene)-diaqua-tri-cadmium(ii) 
dodecahydrate]
;
_cell_volume  10356.047
_exptl_crystal_colour 'colorless'
_exptl_crystal_density_diffrn 1.544
_exptl_crystal_description 'block'
_diffrn_ambient_temperature 298
#These two values have been output from a single CSD field.
_refine_ls_R_factor_gt 0.0727
_refine_ls_wR_factor_gt 0.0727
_symmetry_cell_setting monoclinic
_symmetry_space_group_name_H-M 'C 2/c'
_symmetry_Int_Tables_number 15
loop_
_symmetry_equiv_pos_site_id
_symmetry_equiv_pos_as_xyz
1 x,y,z
2 -x,y,1/2-z
3 1/2+x,1/2+y,z
4 1/2-x,1/2+y,1/2-z
5 -x,-y,-z
6 x,-y,-1/2+z
7 -1/2-x,-1/2-y,-z
8 -1/2+x,-1/2-y,-1/2+z
_cell_length_a 33.1093(19)
_cell_length_b 11.0269(4)
_cell_length_c 31.597(2)
_cell_angle_alpha 90
_cell_angle_beta 116.139(8)
_cell_angle_gamma 90
_cell_formula_units_Z 4
loop_
_atom_type_symbol
_atom_type_radius_bond
C 0.68
H 0.23
Cd 1.44
N 0.68
O 0.68
loop_
_atom_site_label
_atom_site_type_symbol
_atom_site_fract_x
_atom_site_fract_y
_atom_site_fract_z
Cd1 Cd 0.00000 0.78192(6) 0.25000
Cd2 Cd 0.13599(2) 0.35622(5) 0.84596(2)
C1 C 0.12513(19) 0.4350(7) 0.7601(3)
C2 C 0.1157(2) 0.4718(6) 0.7106(2)
H1 H 0.14120 0.45150 0.70460
H2 H 0.08960 0.42860 0.68800
C3 C 0.1068(2) 0.6513(6) 0.6660(3)
C4 C 0.1020(3) 0.7756(6) 0.6636(3)
H3 H 0.09800 0.81720 0.68710
C5 C 0.1032(3) 0.8388(6) 0.6264(3)
H4 H 0.10010 0.92270 0.62540
C6 C 0.10897(19) 0.7815(5) 0.5909(2)
C7 C 0.1127(2) 0.6586(5) 0.5938(2)
H5 H 0.11610 0.61730 0.57000
C8 C 0.1115(2) 0.5915(6) 0.6302(2)
H6 H 0.11400 0.50740 0.63060
C9 C 0.10965(17) 0.8507(5) 0.5493(2)
H7 H 0.13480 0.81790 0.54450
C10 C 0.06722(17) 0.8279(4) 0.5038(2)
C11 C 0.02838(18) 0.7831(4) 0.5041(2)
H8 H 0.02840 0.76710 0.53300
C12 C -0.01060(17) 0.7610(5) 0.4632(2)
C13 C -0.00890(19) 0.7808(5) 0.4211(2)
C14 C 0.02940(19) 0.8262(5) 0.4187(2)
H9 H 0.02980 0.83810 0.38970
C15 C 0.06701(19) 0.8532(5) 0.4606(2)
C16 C 0.1093(2) 0.9326(6) 0.4209(2)
H10 H 0.13080 0.99780 0.42700
H11 H 0.08040 0.96080 0.39740
C17 C 0.1241(2) 0.8232(7) 0.4014(3)
C18 C -0.0676(2) 0.8425(7) 0.3477(3)
H12 H -0.06160 0.91790 0.36520
H13 H -0.09980 0.82910 0.33380
C19 C -0.0540(3) 0.8583(7) 0.3082(3)
C20 C -0.05382(17) 0.7142(5) 0.4652(2)
H14 H -0.06320 0.64010 0.44620
C21 C -0.04508(18) 0.6816(5) 0.5151(2)
C22 C -0.0361(2) 0.5628(5) 0.5311(2)
H15 H -0.03790 0.50170 0.51000
C23 C -0.0243(2) 0.5325(6) 0.5780(3)
H16 H -0.01810 0.45230 0.58780
C24 C -0.02190(19) 0.6205(6) 0.6096(2)
C25 C -0.0315(2) 0.7374(5) 0.5948(2)
H17 H -0.03020 0.79750 0.61600
C26 C -0.0432(2) 0.7674(5) 0.5479(3)
H18 H -0.04990 0.84770 0.53840
C27 C -0.00567(19) 0.4844(5) 0.6753(2)
H19 H 0.01590 0.48410 0.70830
H20 H 0.00540 0.42980 0.65870
C28 C -0.0498(2) 0.4375(5) 0.6711(2)
C29 C 0.11900(17) 0.9862(5) 0.5594(2)
C30 C 0.08519(17) 1.0718(5) 0.5477(2)
H21 H 0.05560 1.04480 0.53330
C31 C 0.09250(17) 1.1945(5) 0.5558(2)
C32 C 0.13689(19) 1.2323(5) 0.5797(2)
C33 C 0.17200(19) 1.1503(5) 0.5924(2)
H22 H 0.20160 1.17670 0.60840
C34 C 0.16266(19) 1.0285(5) 0.5812(2)
C35 C 0.2272(2) 0.9687(8) 0.5727(3)
H23 H 0.22830 1.05500 0.56730
H24 H 0.21530 0.92810 0.54240
C36 C 0.2748(2) 0.9221(8) 0.6040(4)
C37 C 0.1891(2) 1.3954(6) 0.6137(3)
H25 H 0.18950 1.48320 0.61160
H26 H 0.20620 1.36360 0.59790
C38 C 0.2131(3) 1.3594(9) 0.6658(4)
O1 O 0.12750(17) 0.5130(5) 0.78993(18)
O2 O 0.13060(17) 0.3227(4) 0.76966(18)
O3 O 0.10779(18) 0.5974(4) 0.70545(18)
O4 O 0.10594(14) 0.9047(4) 0.46323(15)
O5 O 0.12595(18) 0.8416(5) 0.3628(2)
O6 O 0.1328(2) 0.7269(5) 0.4217(2)
O7 O -0.04645(14) 0.7474(4) 0.38011(15)
O8 O -0.0725(2) 0.9472(5) 0.2818(2)
O9 O -0.02785(15) 0.7841(4) 0.30385(16)
O10 O -0.00813(15) 0.6039(4) 0.65703(16)
O11 O -0.05073(15) 0.3545(4) 0.69736(18)
O12 O -0.08550(14) 0.4847(4) 0.64037(17)
O13 O 0.14381(13) 1.3552(3) 0.58875(17)
O14 O 0.2552(2) 1.3753(11) 0.6824(3)
O15 O 0.1913(2) 1.3309(6) 0.6864(2)
O16 O 0.19850(13) 0.9471(4) 0.59442(17)
O17 O 0.28211(18) 0.8507(6) 0.6361(3)
O18 O 0.30444(18) 0.9578(6) 0.5932(2)
O19 O 0.05170(18) 0.9348(4) 0.28911(18)
C39 C 0.0535(4) 0.7592(10) 0.7580(5)
H27 H 0.04870 0.74610 0.72610
H28 H 0.03790 0.69810 0.76670
H29 H 0.04230 0.83780 0.76050
C40 C 0.1099(6) 0.7722(11) 0.8379(5)
H30 H 0.14150 0.76790 0.85870
H31 H 0.09870 0.85080 0.84040
H32 H 0.09430 0.71110 0.84660
N1 N 0.1029(3) 0.7525(6) 0.7902(3)
H33 H 0.11350 0.68000 0.78780
H34 H 0.11750 0.80850 0.78210
C41 C 0.2223(5) 0.7524(17) 0.6965(5)
H35 H 0.23690 0.67620 0.69820
H36 H 0.20740 0.75010 0.71650
H37 H 0.20050 0.76720 0.66450
C42 C 0.2390(8) 0.9716(15) 0.7114(5)
H38 H 0.26390 1.02720 0.72220
H39 H 0.21780 0.99280 0.68000
H40 H 0.22460 0.97580 0.73200
N2 N 0.2554(4) 0.8485(12) 0.7117(4)
H41 H 0.26950 0.84730 0.69340
H42 H 0.27570 0.83170 0.74090
C43 C 0.3470(5) 1.1411(13) 0.5337(5)
H43 H 0.34270 1.17440 0.55950
H44 H 0.37460 1.17150 0.53470
H45 H 0.32230 1.16440 0.50450
C44 C 0.3551(5) 0.9467(14) 0.5032(5)
H46 H 0.35580 0.86170 0.51000
H47 H 0.33070 0.96290 0.47280
H48 H 0.38300 0.97000 0.50300
N3 N 0.3490(4) 1.0123(11) 0.5373(4)
H49 H 0.37140 0.99330 0.56510
H50 H 0.32360 0.98680 0.53750
O20 O 0.3235(3) 0.6549(9) 0.7604(5)
O21 O 0.2936(5) 1.1824(15) 0.6522(7)
O22 O 0.2663(6) 1.372(5) 0.5442(8)
O23 O 0.3460(3) 1.4305(7) 0.7251(3)
O24 O 0.2121(4) 0.9645(15) 0.3753(5)
O25 O 0.2423(16) 0.661(3) 0.5269(15)
C1D C -0.12513(19) 1.5650(7) 0.2399(3)
C2D C -0.1157(2) 1.5282(6) 0.2894(2)
H1D H -0.14120 1.54850 0.29540
H2D H -0.08960 1.57140 0.31200
C3D C -0.1068(2) 1.3487(6) 0.3340(3)
C4D C -0.1020(3) 1.2244(6) 0.3364(3)
H3D H -0.09800 1.18280 0.31290
C5D C -0.1032(3) 1.1612(6) 0.3736(3)
H4D H -0.10010 1.07730 0.37460
C6D C -0.10897(19) 1.2185(5) 0.4091(2)
C7D C -0.1127(2) 1.3414(5) 0.4062(2)
H5D H -0.11610 1.38270 0.43000
C8D C -0.1115(2) 1.4085(6) 0.3698(2)
H6D H -0.11400 1.49260 0.36940
C9D C -0.10965(17) 1.1493(5) 0.4507(2)
H7D H -0.13480 1.18210 0.45550
C10D C -0.06722(17) 1.1721(4) 0.4962(2)
C11D C -0.02838(18) 1.2169(4) 0.4959(2)
H8D H -0.02840 1.23290 0.46700
C12D C 0.01060(17) 1.2390(5) 0.5368(2)
C13D C 0.00890(19) 1.2192(5) 0.5789(2)
C14D C -0.02940(19) 1.1738(5) 0.5813(2)
H9D H -0.02980 1.16190 0.61030
C15D C -0.06701(19) 1.1468(5) 0.5394(2)
C16D C -0.1093(2) 1.0674(6) 0.5791(2)
H10D H -0.13080 1.00220 0.57300
H11D H -0.08040 1.03920 0.60260
C17D C -0.1241(2) 1.1768(7) 0.5986(3)
C18D C 0.0676(2) 1.1575(7) 0.6523(3)
H12D H 0.06160 1.08210 0.63480
H13D H 0.09980 1.17090 0.66620
C19D C 0.0540(3) 1.1417(7) 0.6918(3)
C20D C 0.05382(17) 1.2858(5) 0.5348(2)
H14D H 0.06320 1.35990 0.55380
C21D C 0.04508(18) 1.3184(5) 0.4849(2)
C22D C 0.0361(2) 1.4372(5) 0.4689(2)
H15D H 0.03790 1.49830 0.49000
C23D C 0.0243(2) 1.4675(6) 0.4220(3)
H16D H 0.01810 1.54770 0.41220
C24D C 0.02190(19) 1.3795(6) 0.3904(2)
C25D C 0.0315(2) 1.2626(5) 0.4052(2)
H17D H 0.03020 1.20250 0.38400
C26D C 0.0432(2) 1.2326(5) 0.4521(3)
H18D H 0.04990 1.15230 0.46160
C27D C 0.00567(19) 1.5156(5) 0.3247(2)
H19D H -0.01590 1.51590 0.29170
H20D H -0.00540 1.57020 0.34130
C28D C 0.0498(2) 1.5625(5) 0.3289(2)
C29D C -0.11900(17) 1.0138(5) 0.4406(2)
C30D C -0.08519(17) 0.9282(5) 0.4523(2)
H21D H -0.05560 0.95520 0.46670
C31D C -0.09250(17) 0.8055(5) 0.4442(2)
C32D C -0.13689(19) 0.7677(5) 0.4203(2)
C33D C -0.17200(19) 0.8497(5) 0.4076(2)
H22D H -0.20160 0.82330 0.39160
C34D C -0.16266(19) 0.9715(5) 0.4188(2)
C35D C -0.2272(2) 1.0313(8) 0.4273(3)
H23D H -0.22830 0.94500 0.43270
H24D H -0.21530 1.07190 0.45760
C36D C -0.2748(2) 1.0779(8) 0.3960(4)
C37D C -0.1891(2) 0.6046(6) 0.3863(3)
H25D H -0.18950 0.51680 0.38840
H26D H -0.20620 0.63640 0.40210
C38D C -0.2131(3) 0.6406(9) 0.3342(4)
O1D O -0.12750(17) 1.4870(5) 0.21007(18)
O2D O -0.13060(17) 1.6773(4) 0.23034(18)
O3D O -0.10779(18) 1.4026(4) 0.29455(18)
O4D O -0.10594(14) 1.0953(4) 0.53677(15)
O5D O -0.12595(18) 1.1584(5) 0.6372(2)
O6D O -0.1328(2) 1.2731(5) 0.5783(2)
O7D O 0.04645(14) 1.2526(4) 0.61989(15)
O8D O 0.0725(2) 1.0528(5) 0.7182(2)
O9D O 0.02785(15) 1.2159(4) 0.69615(16)
O10D O 0.00813(15) 1.3961(4) 0.34297(16)
O11D O 0.05073(15) 1.6455(4) 0.30264(18)
O12D O 0.08550(14) 1.5153(4) 0.35963(17)
O13D O -0.14381(13) 0.6448(3) 0.41125(17)
O14D O -0.2552(2) 0.6247(11) 0.3176(3)
O15D O -0.1913(2) 0.6691(6) 0.3136(2)
O16D O -0.19850(13) 1.0529(4) 0.40558(17)
O17D O -0.28211(18) 1.1493(6) 0.3639(3)
O18D O -0.30444(18) 1.0422(6) 0.4068(2)
O19A O -0.05170(18) 0.9348(4) 0.21089(18)
Cd2E Cd 0.13599(2) 0.64378(5) 0.34596(2)
Cd1* Cd 0.00000 1.78192(6) 0.25000
Cd1D Cd 0.00000 0.21808(6) 0.75000
Cd1D* Cd 0.00000 1.21808(6) 0.75000
Cd2A Cd -0.13599(2) 0.35622(5) 0.65404(2)
Cd2A* Cd -0.13599(2) 1.35622(5) 0.65404(2)
Cd2C Cd 0.36401(2) 0.85622(5) 0.65404(2)
Cd2D Cd -0.13599(2) 1.64378(5) 0.15404(2)
Cd2E* Cd 0.13599(2) 1.64378(5) 0.34596(2)
Cd2G Cd -0.36401(2) 1.14378(5) 0.34596(2)
O1E O 0.12750(17) 0.4870(5) 0.28993(18)
O2E O 0.13060(17) 0.6773(4) 0.26966(18)
O5E O 0.12595(18) 0.1584(5) 0.8628(2)
O6E O 0.1328(2) 0.2731(5) 0.9217(2)
O9A O 0.02785(15) 0.7841(4) 0.19615(16)
O11A O 0.05073(15) 0.3545(4) 0.80264(18)
O11D* O 0.05073(15) 0.6455(4) 0.30264(18)
O11E O -0.05073(15) 0.6455(4) 0.19736(18)
O12A O 0.08550(14) 0.4847(4) 0.85963(17)
O12D* O 0.08550(14) 0.5153(4) 0.35963(17)
O17C O 0.21789(18) 0.3507(6) 0.8639(3)
O17F O 0.21789(18) 0.6493(6) 0.3639(3)
O18C O 0.19556(18) 0.4578(6) 0.9068(2)
O18F O 0.19556(18) 0.5422(6) 0.4068(2)
#END
