
#######################################################################
#
#                 Cambridge Crystallographic Data Centre
#                                CCDC
#
#######################################################################
#
# If this CIF has been generated from an entry in the Cambridge
# Structural Database, then it will include bibliographic, chemical,
# crystal, experimental, refinement or atomic coordinate data resulting
# from the CCDC's data processing and validation procedures.
#
#######################################################################

data_CSD_CIF_UWEMOA
_audit_creation_date 2016-09-09
_audit_creation_method CSD-ConQuest-V1
_database_code_CSD UWEMOA
_database_code_depnum_ccdc_archive 'CCDC 1483891'
_chemical_formula_sum 'C3 H9 N10 Na1 O4'
_chemical_formula_moiety
;
(C3 H5 N9 Na1 O3 1-)n,n(H4 N1 O1 1+)
;
_journal_coden_Cambridge 1500
_journal_volume 6
_journal_year 2016
_journal_page_first 85933
_journal_name_full 'RSC Advances '
loop_
_publ_author_name
"Weiming Guo"
"Tonglai Zhang"
"Bo Zhang"
"Yongan Feng"
"Sitong Chen"
"Zhenhao Mi"
_chemical_name_systematic
;
catena-[hydroxyammonium 
(\m-aqua)-(\m-5-[(hydroxyimino)(tetrazol-2-id-5-yl)methyl]tetrazol-1-ido)-aqua
-sodium]
;
_cell_volume   1052.663
_exptl_crystal_colour 'colorless'
_exptl_crystal_density_diffrn 1.717
_exptl_crystal_description 'rod'
_diffrn_ambient_temperature 153
#These two values have been output from a single CSD field.
_refine_ls_R_factor_gt 0.0338
_refine_ls_wR_factor_gt 0.0338
_symmetry_cell_setting orthorhombic
_symmetry_space_group_name_H-M 'P c a 21'
_symmetry_Int_Tables_number 29
loop_
_symmetry_equiv_pos_site_id
_symmetry_equiv_pos_as_xyz
1 x,y,z
2 -x,-y,1/2+z
3 1/2-x,y,1/2+z
4 1/2+x,-y,z
_cell_length_a 14.507(3)
_cell_length_b 3.5938(7)
_cell_length_c 20.191(4)
_cell_angle_alpha 90
_cell_angle_beta 90
_cell_angle_gamma 90
_cell_formula_units_Z 4
loop_
_atom_type_symbol
_atom_type_radius_bond
C 0.68
H 0.23
N 0.68
Na 1.66
O 0.68
loop_
_atom_site_label
_atom_site_type_symbol
_atom_site_fract_x
_atom_site_fract_y
_atom_site_fract_z
Na1 Na 0.59606(8) 0.0597(3) 0.64975(6)
O1 O 0.54272(14) 0.5429(6) 0.56415(10)
H1 H 0.48520 0.51530 0.56330
O2 O 0.44884(16) 0.0065(8) 0.68817(13)
H2 H 0.42490 0.12550 0.71950
H3 H 0.40180 -0.07450 0.66860
O3 O 0.62521(15) 0.5583(6) 0.72409(11)
H4 H 0.67450 0.52800 0.74520
H5 H 0.58330 0.64750 0.74800
N1 N 0.71821(15) 0.3170(7) 0.58267(12)
N2 N 0.80567(16) 0.3055(7) 0.60377(12)
N3 N 0.85937(16) 0.4627(7) 0.55952(13)
N4 N 0.80985(15) 0.5810(7) 0.50767(13)
N5 N 0.73777(16) 0.4998(7) 0.37641(12)
N6 N 0.72231(17) 0.5812(7) 0.31180(13)
N7 N 0.64029(16) 0.7330(7) 0.30539(13)
N8 N 0.60036(15) 0.7565(7) 0.36537(13)
N9 N 0.55822(16) 0.5828(7) 0.49647(11)
C1 C 0.72240(17) 0.4876(8) 0.52315(14)
C2 C 0.64385(19) 0.5612(8) 0.47957(15)
C3 C 0.66124(18) 0.6103(8) 0.40758(14)
O4 O 0.44238(14) 0.1296(6) 0.36647(11)
H6 H 0.49390 0.02440 0.36980
N10 N 0.39808(16) -0.0839(7) 0.41553(12)
H7 H 0.44000 -0.22150 0.43540
H8 H 0.37280 0.07770 0.44280
H9 H 0.35210 -0.23230 0.40510
Na1* Na 0.59606(8) 1.0597(3) 0.64975(6)
O1* O 0.54272(14) -0.4571(6) 0.56415(10)
O3* O 0.62521(15) -0.4417(6) 0.72409(11)
#END
