
#######################################################################
#
#                 Cambridge Crystallographic Data Centre
#                                CCDC
#
#######################################################################
#
# If this CIF has been generated from an entry in the Cambridge
# Structural Database, then it will include bibliographic, chemical,
# crystal, experimental, refinement or atomic coordinate data resulting
# from the CCDC's data processing and validation procedures.
#
#######################################################################

data_CSD_CIF_UWEMIU
_audit_creation_date 2016-09-09
_audit_creation_method CSD-ConQuest-V1
_database_code_CSD UWEMIU
_database_code_depnum_ccdc_archive 'CCDC 1479506'
_chemical_formula_sum 'C3 H10 N10 Na1 O4.5'
_chemical_formula_moiety
;
(C3 H5 N9 Na1 O3 1-)n,n(H4 N1 O1 1+),0.5n(H2 O1)
;
_journal_coden_Cambridge 1500
_journal_volume 6
_journal_year 2016
_journal_page_first 85933
_journal_name_full 'RSC Advances '
loop_
_publ_author_name
"Weiming Guo"
"Tonglai Zhang"
"Bo Zhang"
"Yongan Feng"
"Sitong Chen"
"Zhenhao Mi"
_chemical_name_systematic
;
catena-[hydroxyammonium 
(\m-aqua)-(\m-5-[(oxidoimino)(2H-tetrazol-5-yl)methyl]tetrazolato)-aqua-sodium
 hemihydrate]
;
_cell_volume   1083.959
_exptl_crystal_colour 'colorless'
_exptl_crystal_density_diffrn 1.723
_exptl_crystal_description 'Prism'
_diffrn_ambient_temperature 153.2
#These two values have been output from a single CSD field.
_refine_ls_R_factor_gt 0.0628
_refine_ls_wR_factor_gt 0.0628
_symmetry_cell_setting monoclinic
_symmetry_space_group_name_H-M 'P c'
_symmetry_Int_Tables_number 7
loop_
_symmetry_equiv_pos_site_id
_symmetry_equiv_pos_as_xyz
1 x,y,z
2 x,-y,1/2+z
_cell_length_a 14.431(3)
_cell_length_b 3.5670(7)
_cell_length_c 22.642(8)
_cell_angle_alpha 90
_cell_angle_beta 111.56(2)
_cell_angle_gamma 90
_cell_formula_units_Z 4
loop_
_atom_type_symbol
_atom_type_radius_bond
C 0.68
H 0.23
N 0.68
Na 1.66
O 0.68
loop_
_atom_site_label
_atom_site_type_symbol
_atom_site_fract_x
_atom_site_fract_y
_atom_site_fract_z
Na1 Na 0.19990(18) -0.5803(7) 0.02254(13)
O1 O 0.3115(3) -1.0867(13) 0.0698(2)
H1 H 0.33470 -1.02130 0.10710
H2 H 0.35070 -1.17620 0.05500
O2 O 0.2136(3) -0.9824(13) -0.06420(16)
N1 N 0.0532(3) -1.2115(14) -0.0433(2)
N2 N -0.0220(3) -1.2311(14) -0.0216(2)
N3 N -0.1015(3) -1.0792(13) -0.0637(2)
H3 H -0.15830 -1.06070 -0.05950
N4 N -0.0831(3) -0.9575(13) -0.1141(2)
N5 N -0.0905(3) -0.9955(14) -0.2411(2)
N6 N -0.1139(3) -0.8876(14) -0.3022(2)
N7 N -0.0364(3) -0.7264(14) -0.3091(2)
N8 N 0.0396(3) -0.7273(14) -0.2529(2)
N9 N 0.1606(3) -0.9301(13) -0.1291(2)
C1 C 0.0138(3) -1.0409(15) -0.1001(2)
C2 C 0.0653(4) -0.9562(15) -0.1445(2)
C3 C 0.0060(4) -0.8909(15) -0.2119(2)
O3 O 0.1414(5) -0.730(3) 0.1051(3)
H4 H 0.09430 -0.88390 0.09150
H5 H 0.12100 -0.53330 0.11690
Na2 Na 0.71820(18) -1.6232(7) 0.02696(12)
O4 O 0.8918(4) -1.5980(14) 0.0632(2)
H6 H 0.91610 -1.49340 0.03890
H7 H 0.91220 -1.50440 0.09980
O5 O 0.7010(3) -1.1252(12) 0.09156(19)
H8 H 0.75530 -1.12130 0.12270
H9 H 0.64460 -1.18890 0.09100
O6 O 0.7164(3) -1.0780(13) -0.05887(18)
N10 N 0.5515(3) -0.8119(13) -0.0430(2)
N11 N 0.4763(3) -0.7779(13) -0.0217(2)
N12 N 0.3970(3) -0.9418(13) -0.0632(2)
H10 H 0.34020 -0.95710 -0.05910
N13 N 0.4161(3) -1.0780(13) -0.1130(2)
N14 N 0.4140(3) -1.0412(13) -0.2395(2)
N15 N 0.3930(3) -1.1396(14) -0.3000(2)
N16 N 0.4717(3) -1.3037(14) -0.3053(2)
N17 N 0.5456(3) -1.3149(13) -0.2482(2)
N18 N 0.6629(3) -1.1278(13) -0.1238(2)
C4 C 0.5126(3) -0.9935(15) -0.0989(2)
C5 C 0.5671(4) -1.0928(15) -0.1407(2)
C6 C 0.5087(4) -1.1508(15) -0.2086(2)
O7 O 0.2032(3) -1.3823(11) -0.25217(19)
H11 H 0.16740 -1.56200 -0.27170
N19 N 0.2755(3) -1.5952(13) -0.2043(2)
H12 H 0.31600 -1.44610 -0.17810
H13 H 0.31610 -1.72670 -0.21480
H14 H 0.24300 -1.68940 -0.18330
O8 O 0.7065(3) -0.6761(12) -0.2506(2)
H15 H 0.67240 -0.49810 -0.27200
N20 N 0.7754(3) -0.4499(13) -0.2035(2)
H16 H 0.74380 -0.36010 -0.18160
H17 H 0.81660 -0.59830 -0.17750
H18 H 0.81470 -0.31550 -0.21470
O9 O 0.5064(3) -0.6566(12) -0.4102(2)
H19 H 0.49660 -0.55700 -0.38040
H20 H 0.49780 -0.53240 -0.44230
Na1* Na 0.19990(18) -1.5803(7) 0.02254(13)
O1* O 0.3115(3) -0.0867(13) 0.0698(2)
O2* O 0.2136(3) 0.0176(13) -0.06420(16)
N1* N 0.0532(3) -0.2115(14) -0.0433(2)
Na2* Na 0.71820(18) -0.6232(7) 0.02696(12)
O5* O 0.7010(3) -2.1252(12) 0.09156(19)
O6* O 0.7164(3) -2.0780(13) -0.05887(18)
N10* N 0.5515(3) -1.8119(13) -0.0430(2)
#END
