
#######################################################################
#
#                 Cambridge Crystallographic Data Centre
#                                CCDC
#
#######################################################################
#
# If this CIF has been generated from an entry in the Cambridge
# Structural Database, then it will include bibliographic, chemical,
# crystal, experimental, refinement or atomic coordinate data resulting
# from the CCDC's data processing and validation procedures.
#
#######################################################################

data_CSD_CIF_UWINUM
_audit_creation_date 2021-06-02
_audit_creation_method CSD-ConQuest-V1
_database_code_CSD UWINUM
_database_code_depnum_ccdc_archive 'CCDC 1962730'
_chemical_formula_sum 'C100 H140 Cu3 Mo24 N20 O100 P2'
_chemical_formula_moiety
;
C58 H88 Cu2 N12 O12 4+,n(C42 H52 Cu1 N8 O8 2+),2(Mo12 O40 P1 3-)
;
_journal_coden_Cambridge 119
_journal_volume 1243
_journal_year 2021
_journal_page_first 130804
_journal_name_full 'J.Mol.Struct. '
loop_
_publ_author_name
"Jian-Jun Liu"
"Chixian He"
"Teng Liu"
"Jiaming Liu"
"Shu-Biao Xia"
_chemical_name_systematic
;
catena-((\m-2,7-bis[(pyridin-4-yl)methyl]benzo[lmn][3,8]phenanthroline-1,3,6,8
(2H,7H)-tetrone)-tetrakis(dimethylacetamide)-copper 
(\m-2,7-bis[(pyridin-4-yl)methyl]benzo[lmn][3,8]phenanthroline-1,3,6,8(2H,7H)-
tetrone)-octakis(dimethylacetamide)-di-copper 
bis(tetracosakis(\m-oxo)-(\m-phosphato)-dodecaoxo-dodeca-molybdenum) unknown 
solvate)
;
_cell_volume  16874.998
_exptl_crystal_colour 'blue'
_exptl_special_details
;
The paper states that aqua ligands are present, but the crystal structure 
appears to have all dimethylacetamide as terminal ligands
;
_exptl_crystal_description 'block'
_diffrn_ambient_temperature 173
_refine_special_details
;
The SQUEEZE/PLATON program was used to model some disordered solvent.

;
#These two values have been output from a single CSD field.
_refine_ls_R_factor_gt 0.0818
_refine_ls_wR_factor_gt 0.0818
_symmetry_cell_setting orthorhombic
_symmetry_space_group_name_H-M 'P c c a'
_symmetry_Int_Tables_number 54
loop_
_symmetry_equiv_pos_site_id
_symmetry_equiv_pos_as_xyz
1 x,y,z
2 1/2-x,-y,z
3 1/2+x,-y,1/2-z
4 -x,y,1/2-z
5 -x,-y,-z
6 -1/2+x,y,-z
7 -1/2-x,y,-1/2+z
8 x,-y,-1/2+z
_cell_length_a 24.8450(9)
_cell_length_b 26.2425(10)
_cell_length_c 25.8821(9)
_cell_angle_alpha 90
_cell_angle_beta 90
_cell_angle_gamma 90
_cell_formula_units_Z 4
loop_
_atom_type_symbol
_atom_type_radius_bond
C 0.68
H 0.23
Cu 1.32
Mo 1.54
N 0.68
O 0.68
P 1.05
loop_
_atom_site_label
_atom_site_type_symbol
_atom_site_fract_x
_atom_site_fract_y
_atom_site_fract_z
Mo1 Mo 0.34866(3) 0.51982(3) 0.23781(3)
Mo2 Mo 0.27447(3) 0.40798(3) 0.22791(3)
Mo3 Mo 0.31529(4) 0.62487(4) 0.33369(3)
Mo4 Mo 0.34745(4) 0.52883(4) 0.42169(3)
Mo5 Mo 0.23359(4) 0.59385(4) 0.43224(3)
Mo6 Mo 0.13916(3) 0.58219(4) 0.32595(3)
P1 P 0.25000 0.50000 0.33000(12)
O1 O 0.3930(3) 0.5277(3) 0.4669(3)
O2 O 0.3694(3) 0.4814(3) 0.3730(2)
O3 O 0.3619(3) 0.5912(3) 0.3850(3)
O4 O 0.2950(3) 0.5715(3) 0.4601(2)
O5 O 0.2108(3) 0.6371(3) 0.4766(3)
O6 O 0.1970(3) 0.5332(3) 0.4452(2)
O7 O 0.2753(3) 0.6440(3) 0.3884(3)
O8 O 0.1824(3) 0.6058(3) 0.3758(2)
O9 O 0.0847(3) 0.6165(3) 0.3377(3)
O10 O 0.1672(3) 0.6188(3) 0.2709(2)
O11 O 0.3486(3) 0.6804(3) 0.3203(3)
O12 O 0.2652(3) 0.6255(3) 0.2850(3)
O13 O 0.2753(2) 0.5425(3) 0.3641(2)
O14 O 0.2900(3) 0.4722(2) 0.2957(2)
O15 O 0.3507(3) 0.5728(3) 0.2867(3)
O16 O 0.3868(3) 0.4698(3) 0.2741(3)
O17 O 0.3891(3) 0.5413(3) 0.1927(3)
O18 O 0.3197(2) 0.4562(3) 0.1999(2)
O19 O 0.2157(3) 0.4455(3) 0.2151(2)
O20 O 0.2738(3) 0.3586(3) 0.1834(3)
Mo7 Mo 0.65355(3) 0.02719(3) 0.90658(3)
Mo8 Mo 0.73399(3) -0.09506(3) 0.89715(3)
Mo9 Mo 0.63978(3) -0.08265(3) 1.00259(3)
Mo10 Mo 0.72679(3) -0.09312(3) 1.10080(3)
Mo11 Mo 0.81705(3) -0.12435(3) 0.99540(3)
Mo12 Mo 0.84832(3) -0.01872(3) 1.09120(3)
P2 P 0.75000 0.00000 0.99880(12)
O21 O 0.6081(3) 0.0269(3) 0.8607(3)
O22 O 0.6377(2) 0.0891(3) 0.9434(2)
O23 O 0.7247(2) 0.0425(2) 0.9639(2)
O24 O 0.6966(2) -0.0341(2) 0.8838(2)
O25 O 0.7130(3) -0.1396(3) 0.8535(3)
O26 O 0.7946(2) -0.0704(3) 0.8691(2)
O27 O 0.6295(2) -0.0210(2) 0.9550(2)
O28 O 0.6846(2) -0.1071(3) 0.9538(2)
O29 O 0.5863(2) -0.1175(3) 0.9911(3)
O30 O 0.7772(2) -0.1445(3) 0.9398(2)
O31 O 0.8509(3) -0.1804(3) 1.0071(3)
O32 O 0.6683(2) -0.1195(3) 1.0573(2)
O33 O 0.6812(2) -0.0432(3) 1.1287(2)
O34 O 0.7899(2) 0.0274(2) 1.0330(2)
O35 O 0.8874(2) 0.0305(3) 1.0547(2)
O36 O 0.8896(3) -0.0400(3) 1.1354(3)
O37 O 0.7275(3) -0.1428(3) 1.1455(3)
O38 O 0.7848(2) -0.0530(3) 1.1141(2)
O39 O 0.7668(2) -0.1268(2) 1.0442(2)
O40 O 0.8508(2) -0.0709(3) 1.0416(2)
Cu1 Cu 0.50000 0.74870(6) 0.75000
O41 O 0.3268(4) 0.6484(4) 0.5767(3)
O42 O 0.4103(4) 0.4889(4) 0.5835(3)
O43 O 0.4145(3) 0.7452(3) 0.7844(3)
O44 O 0.5190(3) 0.8058(3) 0.8033(3)
N1 N 0.4789(3) 0.6935(3) 0.6974(3)
N2 N 0.3679(4) 0.5680(4) 0.5823(3)
N3 N 0.3323(5) 0.7540(4) 0.8041(5)
N4 N 0.5313(3) 0.8904(4) 0.8309(4)
C1 C 0.4910(4) 0.7019(4) 0.6466(4)
H1 H 0.51440 0.72920 0.63800
C2 C 0.4699(5) 0.6717(5) 0.6066(4)
H2 H 0.47790 0.67950 0.57160
C3 C 0.4375(5) 0.6304(4) 0.6186(4)
C4 C 0.4262(4) 0.6214(4) 0.6696(4)
H3 H 0.40400 0.59340 0.67910
C5 C 0.4470(4) 0.6529(4) 0.7071(4)
H4 H 0.43840 0.64560 0.74210
C6 C 0.4170(5) 0.5963(6) 0.5732(5)
H5 H 0.41140 0.61830 0.54260
H6 H 0.44580 0.57170 0.56440
C7 C 0.3232(5) 0.6012(5) 0.5798(4)
C8 C 0.2736(4) 0.5714(4) 0.5826(4)
C9 C 0.2732(4) 0.5139(4) 0.5824(3)
C10 C 0.3201(4) 0.4815(5) 0.5843(4)
C11 C 0.3710(5) 0.5125(5) 0.5826(4)
C12 C 0.2278(5) 0.5991(5) 0.5839(4)
H7 H 0.22780 0.63530 0.58440
C13 C 0.3172(4) 0.4280(5) 0.5844(4)
H8 H 0.35020 0.40980 0.58490
C14 C 0.3688(5) 0.7490(5) 0.7709(5)
C15 C 0.3554(5) 0.7491(5) 0.7135(5)
H9 H 0.38860 0.74660 0.69330
H10 H 0.33670 0.78090 0.70470
H11 H 0.33210 0.72000 0.70550
C16 C 0.2765(4) 0.7507(5) 0.7897(7)
H12 H 0.27280 0.75710 0.75250
H13 H 0.25570 0.77610 0.80890
H14 H 0.26280 0.71650 0.79770
C17 C 0.3426(6) 0.7551(6) 0.8570(6)
H15 H 0.32380 0.72680 0.87380
H16 H 0.32980 0.78750 0.87140
H17 H 0.38140 0.75190 0.86300
C18 C 0.5027(4) 0.8514(4) 0.8114(4)
C19 C 0.4456(4) 0.8657(5) 0.8022(5)
H18 H 0.42740 0.83810 0.78360
H19 H 0.44420 0.89690 0.78150
H20 H 0.42770 0.87150 0.83540
C20 C 0.5151(5) 0.9470(5) 0.8372(6)
H21 H 0.47630 0.95060 0.83170
H22 H 0.53450 0.96770 0.81180
H23 H 0.52430 0.95850 0.87210
C21 C 0.5842(4) 0.8807(5) 0.8443(5)
H24 H 0.59040 0.89170 0.88000
H25 H 0.60820 0.89950 0.82110
H26 H 0.59140 0.84410 0.84130
Cu2 Cu 0.51344(7) 0.25221(7) 0.58024(8)
O45 O 0.6859(4) 0.1535(3) 0.7616(3)
O46 O 0.5909(3) 0.0025(4) 0.7436(3)
O47 O 0.4583(5) 0.2711(4) 0.6307(4)
O48 O 0.4778(4) 0.2952(5) 0.5300(4)
O49 O 0.4821(4) 0.1774(4) 0.5499(4)
O50 O 0.5708(4) 0.2483(4) 0.5285(4)
N5 N 0.5472(4) 0.2115(4) 0.6377(5)
N6 N 0.6389(4) 0.0769(4) 0.7540(3)
N7 N 0.6473(5) 0.2407(4) 0.4872(5)
N8 N 0.4749(4) 0.0960(7) 0.5082(7)
N9 N 0.4367(6) 0.3603(5) 0.4910(5)
N10 N 0.3831(6) 0.2877(6) 0.6681(6)
C22 C 0.5452(7) 0.2286(6) 0.6858(7)
H27 H 0.53290 0.26220 0.69290
C23 C 0.5615(6) 0.1968(7) 0.7254(6)
H28 H 0.55990 0.20990 0.75960
C24 C 0.5801(4) 0.1465(5) 0.7194(5)
C25 C 0.5842(6) 0.1284(7) 0.6686(5)
H29 H 0.59680 0.09520 0.66060
C26 C 0.5681(6) 0.1642(6) 0.6295(5)
H30 H 0.57240 0.15390 0.59450
C27 C 0.5933(5) 0.1104(5) 0.7615(5)
H31 H 0.59980 0.13050 0.79330
H32 H 0.56120 0.08900 0.76780
C28 C 0.6852(5) 0.1038(5) 0.7562(4)
C29 C 0.7321(4) 0.0708(4) 0.7495(4)
C30 C 0.7272(4) 0.0153(4) 0.7486(3)
C31 C 0.6797(4) -0.0093(4) 0.7465(4)
C32 C 0.6343(5) 0.0213(5) 0.7476(4)
C33 C 0.6771(5) -0.0626(5) 0.7437(4)
H33 H 0.64240 -0.07750 0.73980
C34 C 0.7786(5) 0.0963(4) 0.7462(4)
H34 H 0.78150 0.13240 0.74560
C35 C 0.3797(9) 0.2144(11) 0.6062(8)
H35 H 0.40580 0.19780 0.58330
H36 H 0.36600 0.18970 0.63130
H37 H 0.34980 0.22780 0.58570
C36 C 0.4091(8) 0.2611(7) 0.6368(6)
C37 C 0.3279(11) 0.2772(13) 0.6745(13)
H38 H 0.31270 0.30070 0.70000
H39 H 0.30930 0.28160 0.64140
H40 H 0.32330 0.24210 0.68650
C38 C 0.4108(15) 0.3299(9) 0.7037(11)
H41 H 0.44350 0.34250 0.68670
H42 H 0.42030 0.31480 0.73710
H43 H 0.38570 0.35820 0.70900
C39 C 0.4976(8) 0.3846(9) 0.5542(7)
H44 H 0.52220 0.36810 0.57860
H45 H 0.51820 0.40670 0.53100
H46 H 0.47130 0.40500 0.57330
C40 C 0.4692(6) 0.3452(6) 0.5236(5)
C41 C 0.4245(8) 0.4134(7) 0.4782(6)
H47 H 0.45090 0.43580 0.49480
H48 H 0.38840 0.42200 0.49070
H49 H 0.42600 0.41800 0.44070
C42 C 0.4061(10) 0.3198(10) 0.4661(10)
H50 H 0.42850 0.30310 0.44000
H51 H 0.37410 0.33430 0.44960
H52 H 0.39500 0.29470 0.49210
C43 C 0.4763(6) 0.1506(13) 0.5060(7)
C44 C 0.4744(5) 0.1770(6) 0.4572(6)
H53 H 0.47070 0.21370 0.46330
H54 H 0.44360 0.16480 0.43700
H55 H 0.50770 0.17050 0.43790
C45 C 0.4773(8) 0.0635(7) 0.4642(9)
H56 H 0.46250 0.08130 0.43410
H57 H 0.45630 0.03260 0.47080
H58 H 0.51490 0.05420 0.45740
C46 C 0.4808(7) 0.0712(8) 0.5619(9)
H59 H 0.47580 0.09710 0.58870
H60 H 0.51690 0.05630 0.56510
H61 H 0.45370 0.04440 0.56590
C47 C 0.6552(12) 0.2568(8) 0.5745(6)
H62 H 0.67930 0.28610 0.57000
H63 H 0.67660 0.22590 0.57960
H64 H 0.63220 0.26240 0.60470
C48 C 0.6218(7) 0.2511(5) 0.5285(6)
C49 C 0.6992(6) 0.2412(5) 0.4888(7)
H65 H 0.71160 0.27470 0.50060
H66 H 0.71360 0.23440 0.45420
H67 H 0.71180 0.21490 0.51280
C50 C 0.6220(5) 0.2311(5) 0.4376(5)
H68 H 0.58620 0.21640 0.44300
H69 H 0.64420 0.20730 0.41760
H70 H 0.61860 0.26330 0.41850
O13A O 0.2247(2) 0.4575(3) 0.3641(2)
O14A O 0.2100(3) 0.5278(2) 0.2957(2)
Mo1A Mo 0.15134(3) 0.48018(3) 0.23781(3)
Mo2A Mo 0.22553(3) 0.59202(3) 0.22791(3)
Mo3A Mo 0.18471(4) 0.37513(4) 0.33369(3)
Mo4A Mo 0.15255(4) 0.47117(4) 0.42169(3)
Mo5A Mo 0.26641(4) 0.40615(4) 0.43224(3)
Mo6A Mo 0.36084(3) 0.41781(4) 0.32595(3)
O1A O 0.1070(3) 0.4723(3) 0.4669(3)
O2A O 0.1306(3) 0.5186(3) 0.3730(2)
O3A O 0.1381(3) 0.4088(3) 0.3850(3)
O4A O 0.2050(3) 0.4285(3) 0.4601(2)
O5A O 0.2892(3) 0.3629(3) 0.4766(3)
O6A O 0.3030(3) 0.4668(3) 0.4452(2)
O7A O 0.2247(3) 0.3560(3) 0.3884(3)
O8A O 0.3176(3) 0.3942(3) 0.3758(2)
O9A O 0.4153(3) 0.3835(3) 0.3377(3)
O10A O 0.3328(3) 0.3812(3) 0.2709(2)
O11A O 0.1514(3) 0.3196(3) 0.3203(3)
O12A O 0.2348(3) 0.3745(3) 0.2850(3)
O15A O 0.1493(3) 0.4272(3) 0.2867(3)
O16A O 0.1132(3) 0.5302(3) 0.2741(3)
O17A O 0.1109(3) 0.4587(3) 0.1927(3)
O18A O 0.1803(2) 0.5438(3) 0.1999(2)
O19A O 0.2843(3) 0.5545(3) 0.2151(2)
O20A O 0.2262(3) 0.6414(3) 0.1834(3)
O23A O 0.7753(2) -0.0425(2) 0.9639(2)
O34A O 0.7101(2) -0.0274(2) 1.0330(2)
Mo7A Mo 0.84645(3) -0.02719(3) 0.90658(3)
Mo8A Mo 0.76601(3) 0.09506(3) 0.89715(3)
Mo9A Mo 0.86022(3) 0.08265(3) 1.00259(3)
Mo10A Mo 0.77321(3) 0.09312(3) 1.10080(3)
Mo11A Mo 0.68295(3) 0.12435(3) 0.99540(3)
Mo12A Mo 0.65168(3) 0.01872(3) 1.09120(3)
O21A O 0.8919(3) -0.0269(3) 0.8607(3)
O22A O 0.8623(2) -0.0891(3) 0.9434(2)
O24A O 0.8034(2) 0.0341(2) 0.8838(2)
O25A O 0.7870(3) 0.1396(3) 0.8535(3)
O26A O 0.7054(2) 0.0704(3) 0.8691(2)
O27A O 0.8705(2) 0.0210(2) 0.9550(2)
O28A O 0.8154(2) 0.1071(3) 0.9538(2)
O29A O 0.9137(2) 0.1175(3) 0.9911(3)
O30A O 0.7228(2) 0.1445(3) 0.9398(2)
O31A O 0.6491(3) 0.1804(3) 1.0071(3)
O32A O 0.8317(2) 0.1195(3) 1.0573(2)
O33A O 0.8188(2) 0.0432(3) 1.1287(2)
O35A O 0.6126(2) -0.0305(3) 1.0547(2)
O36A O 0.6104(3) 0.0400(3) 1.1354(3)
O37A O 0.7725(3) 0.1428(3) 1.1455(3)
O38A O 0.7152(2) 0.0530(3) 1.1141(2)
O39A O 0.7332(2) 0.1268(2) 1.0442(2)
O40A O 0.6492(2) 0.0709(3) 1.0416(2)
O41A O 0.1732(4) 0.3516(4) 0.5767(3)
O42A O 0.0897(4) 0.5111(4) 0.5835(3)
N1A N 0.0211(3) 0.3065(3) 0.6974(3)
N2A N 0.1321(4) 0.4320(4) 0.5823(3)
C1A C 0.0090(4) 0.2981(4) 0.6466(4)
H1A H -0.01440 0.27080 0.63800
C2A C 0.0301(5) 0.3283(5) 0.6066(4)
H2A H 0.02210 0.32050 0.57160
C3A C 0.0625(5) 0.3696(4) 0.6186(4)
C4A C 0.0738(4) 0.3786(4) 0.6696(4)
H3A H 0.09600 0.40660 0.67910
C5A C 0.0530(4) 0.3471(4) 0.7071(4)
H4A H 0.06160 0.35440 0.74210
C6A C 0.0830(5) 0.4037(6) 0.5732(5)
H5A H 0.08860 0.38170 0.54260
H6A H 0.05420 0.42830 0.56440
C7A C 0.1768(5) 0.3988(5) 0.5798(4)
C8A C 0.2264(4) 0.4286(4) 0.5826(4)
C9A C 0.2268(4) 0.4861(4) 0.5824(3)
C10A C 0.1799(4) 0.5185(5) 0.5843(4)
C11A C 0.1290(5) 0.4875(5) 0.5826(4)
C12A C 0.2722(5) 0.4009(5) 0.5839(4)
H7A H 0.27220 0.36470 0.58440
C13A C 0.1828(4) 0.5720(5) 0.5844(4)
H8A H 0.14980 0.59020 0.58490
O43C O 0.5855(3) 0.7452(3) 0.7156(3)
N3C N 0.6677(5) 0.7540(4) 0.6959(5)
C14C C 0.6312(5) 0.7490(5) 0.7291(5)
C15C C 0.6446(5) 0.7491(5) 0.7865(5)
H9C H 0.61140 0.74660 0.80670
H10C H 0.66330 0.78090 0.79530
H11C H 0.66790 0.72000 0.79450
C16C C 0.7235(4) 0.7507(5) 0.7103(7)
H12C H 0.72720 0.75710 0.74750
H13C H 0.74430 0.77610 0.69110
H14C H 0.73720 0.71650 0.70230
C17C C 0.6574(6) 0.7551(6) 0.6430(6)
H15C H 0.67620 0.72680 0.62620
H16C H 0.67020 0.78750 0.62860
H17C H 0.61860 0.75190 0.63700
O44C O 0.4810(3) 0.8058(3) 0.6967(3)
N4C N 0.4687(3) 0.8904(4) 0.6691(4)
C18C C 0.4973(4) 0.8514(4) 0.6886(4)
C19C C 0.5544(4) 0.8657(5) 0.6978(5)
H18C H 0.57260 0.83810 0.71640
H19C H 0.55580 0.89690 0.71850
H20C H 0.57230 0.87150 0.66460
C20C C 0.4849(5) 0.9470(5) 0.6628(6)
H21C H 0.52370 0.95060 0.66830
H22C H 0.46550 0.96770 0.68820
H23C H 0.47570 0.95850 0.62790
C21C C 0.4158(4) 0.8807(5) 0.6557(5)
H24C H 0.40960 0.89170 0.62000
H25C H 0.39180 0.89950 0.67890
H26C H 0.40860 0.84410 0.65870
Cu1A Cu 0.00000 0.25130(6) 0.75000
N1C N 0.5211(3) 0.6935(3) 0.8026(3)
O45A O 0.8141(4) -0.1535(3) 0.7616(3)
O46A O 0.9091(3) -0.0025(4) 0.7436(3)
N5A N 0.9528(4) -0.2115(4) 0.6377(5)
N6A N 0.8611(4) -0.0769(4) 0.7540(3)
C22A C 0.9548(7) -0.2286(6) 0.6858(7)
H27A H 0.96710 -0.26220 0.69290
C23A C 0.9385(6) -0.1968(7) 0.7254(6)
H28A H 0.94010 -0.20990 0.75960
C24A C 0.9199(4) -0.1465(5) 0.7194(5)
C25A C 0.9158(6) -0.1284(7) 0.6686(5)
H29A H 0.90320 -0.09520 0.66060
C26A C 0.9319(6) -0.1642(6) 0.6295(5)
H30A H 0.92760 -0.15390 0.59450
C27A C 0.9067(5) -0.1104(5) 0.7615(5)
H31A H 0.90020 -0.13050 0.79330
H32A H 0.93880 -0.08900 0.76780
C28A C 0.8148(5) -0.1038(5) 0.7562(4)
C29A C 0.7679(4) -0.0708(4) 0.7495(4)
C30A C 0.7728(4) -0.0153(4) 0.7486(3)
C31A C 0.8203(4) 0.0093(4) 0.7465(4)
C32A C 0.8657(5) -0.0213(5) 0.7476(4)
C33A C 0.8229(5) 0.0626(5) 0.7437(4)
H33A H 0.85760 0.07750 0.73980
C34A C 0.7214(5) -0.0963(4) 0.7462(4)
H34A H 0.71850 -0.13240 0.74560
Cu2A Cu 0.98656(7) -0.25221(7) 0.58024(8)
O47A O 1.0417(5) -0.2711(4) 0.6307(4)
O48A O 1.0222(4) -0.2952(5) 0.5300(4)
O49A O 1.0179(4) -0.1774(4) 0.5499(4)
O50A O 0.9292(4) -0.2483(4) 0.5285(4)
N7A N 0.8527(5) -0.2407(4) 0.4872(5)
N8A N 1.0251(4) -0.0960(7) 0.5082(7)
N9A N 1.0633(6) -0.3603(5) 0.4910(5)
N10A N 1.1169(6) -0.2877(6) 0.6681(6)
C35A C 1.1203(9) -0.2144(11) 0.6062(8)
H35A H 1.09420 -0.19780 0.58330
H36A H 1.13400 -0.18970 0.63130
H37A H 1.15020 -0.22780 0.58570
C36A C 1.0909(8) -0.2611(7) 0.6368(6)
C37A C 1.1721(11) -0.2772(13) 0.6745(13)
H38A H 1.18730 -0.30070 0.70000
H39A H 1.19070 -0.28160 0.64140
H40A H 1.17670 -0.24210 0.68650
C38A C 1.0892(15) -0.3299(9) 0.7037(11)
H41A H 1.05650 -0.34250 0.68670
H42A H 1.07970 -0.31480 0.73710
H43A H 1.11430 -0.35820 0.70900
C39A C 1.0024(8) -0.3846(9) 0.5542(7)
H44A H 0.97780 -0.36810 0.57860
H45A H 0.98180 -0.40670 0.53100
H46A H 1.02870 -0.40500 0.57330
C40A C 1.0308(6) -0.3452(6) 0.5236(5)
C41A C 1.0755(8) -0.4134(7) 0.4782(6)
H47A H 1.04910 -0.43580 0.49480
H48A H 1.11160 -0.42200 0.49070
H49A H 1.07400 -0.41800 0.44070
C42A C 1.0939(10) -0.3198(10) 0.4661(10)
H50A H 1.07150 -0.30310 0.44000
H51A H 1.12590 -0.33430 0.44960
H52A H 1.10500 -0.29470 0.49210
C43A C 1.0237(6) -0.1506(13) 0.5060(7)
C44A C 1.0256(5) -0.1770(6) 0.4572(6)
H53A H 1.02930 -0.21370 0.46330
H54A H 1.05640 -0.16480 0.43700
H55A H 0.99230 -0.17050 0.43790
C45A C 1.0227(8) -0.0635(7) 0.4642(9)
H56A H 1.03750 -0.08130 0.43410
H57A H 1.04370 -0.03260 0.47080
H58A H 0.98510 -0.05420 0.45740
C46A C 1.0192(7) -0.0712(8) 0.5619(9)
H59A H 1.02420 -0.09710 0.58870
H60A H 0.98310 -0.05630 0.56510
H61A H 1.04630 -0.04440 0.56590
C47A C 0.8448(12) -0.2568(8) 0.5745(6)
H62A H 0.82070 -0.28610 0.57000
H63A H 0.82340 -0.22590 0.57960
H64A H 0.86780 -0.26240 0.60470
C48A C 0.8782(7) -0.2511(5) 0.5285(6)
C49A C 0.8008(6) -0.2412(5) 0.4888(7)
H65A H 0.78840 -0.27470 0.50060
H66A H 0.78640 -0.23440 0.45420
H67A H 0.78820 -0.21490 0.51280
C50A C 0.8780(5) -0.2311(5) 0.4376(5)
H68A H 0.91380 -0.21640 0.44300
H69A H 0.85580 -0.20730 0.41760
H70A H 0.88140 -0.26330 0.41850
#END
