
#######################################################################
#
#                 Cambridge Crystallographic Data Centre
#                                CCDC
#
#######################################################################
#
# If this CIF has been generated from an entry in the Cambridge
# Structural Database, then it will include bibliographic, chemical,
# crystal, experimental, refinement or atomic coordinate data resulting
# from the CCDC's data processing and validation procedures.
#
#######################################################################

data_CSD_CIF_UWIPAU
_audit_creation_date 2021-06-02
_audit_creation_method CSD-ConQuest-V1
_database_code_CSD UWIPAU
_database_code_depnum_ccdc_archive 'CCDC 1962731'
_chemical_formula_sum 'C100 H144 Mo24 N20 O102 P2 Zn3'
_chemical_formula_moiety
;
(C58 H92 N12 O14 Zn2 4+)n,n(C42 H52 N8 O8 Zn1 2+),2n(Mo12 O40 P1 3-)
;
_journal_coden_Cambridge 119
_journal_volume 1243
_journal_year 2021
_journal_page_first 130804
_journal_name_full 'J.Mol.Struct. '
loop_
_publ_author_name
"Jian-Jun Liu"
"Chixian He"
"Teng Liu"
"Jiaming Liu"
"Shu-Biao Xia"
_chemical_name_systematic
;
catena-((\m-2,7-bis[(pyridin-4-yl)methyl]benzo[lmn][3,8]phenanthroline-1,3,6,8
(2H,7H)-tetrone)-tetrakis(dimethylacetamide)-zinc 
(\m-2,7-bis[(pyridin-4-yl)methyl]benzo[lmn][3,8]phenanthroline-1,3,6,8(2H,7H)-
tetrone)-di-aqua-octakis(dimethylacetamide)-di-zinc 
bis(tetracosakis(\m-oxo)-(\m-phosphato)-dodecaoxo-dodeca-molybdenum) unknown 
solvate)
;
_cell_volume  16955.384
_exptl_crystal_colour 'yellow'
_exptl_crystal_density_diffrn 2.278
_exptl_crystal_description 'block'
_diffrn_ambient_temperature 153
_refine_special_details
;
The SQUEEZE/PLATON program was used to model some disordered solvent.

;
#These two values have been output from a single CSD field.
_refine_ls_R_factor_gt 0.059
_refine_ls_wR_factor_gt 0.059
_symmetry_cell_setting orthorhombic
_symmetry_space_group_name_H-M 'P c c a'
_symmetry_Int_Tables_number 54
loop_
_symmetry_equiv_pos_site_id
_symmetry_equiv_pos_as_xyz
1 x,y,z
2 1/2-x,-y,z
3 1/2+x,-y,1/2-z
4 -x,y,1/2-z
5 -x,-y,-z
6 -1/2+x,y,-z
7 -1/2-x,y,-1/2+z
8 x,-y,-1/2+z
_cell_length_a 26.3483(6)
_cell_length_b 24.7823(5)
_cell_length_c 25.9665(6)
_cell_angle_alpha 90
_cell_angle_beta 90
_cell_angle_gamma 90
_cell_formula_units_Z 4
loop_
_atom_type_symbol
_atom_type_radius_bond
C 0.68
H 0.23
Mo 1.54
N 0.68
O 0.68
P 1.05
Zn 1.22
loop_
_atom_site_label
_atom_site_type_symbol
_atom_site_fract_x
_atom_site_fract_y
_atom_site_fract_z
P1 P 0.25000 1.00000 -0.00214(10)
Mo1 Mo 0.15499(3) 0.97423(3) 0.09106(3)
Mo2 Mo 0.26609(3) 0.90324(3) 0.09797(3)
Mo3 Mo 0.36024(3) 0.91795(3) -0.00546(3)
Mo4 Mo 0.27233(3) 0.90499(3) -0.10280(3)
Mo5 Mo 0.15346(3) 0.98193(3) -0.09575(3)
Mo6 Mo 0.18091(3) 0.87702(3) 0.00064(3)
O1 O 0.1096(2) 0.9740(3) 0.1365(3)
O2 O 0.1306(2) 1.0211(2) 0.0422(2)
O3 O 0.1377(2) 0.9122(3) 0.0537(3)
O4 O 0.2061(2) 0.9293(2) 0.1276(2)
O5 O 0.2864(3) 0.8587(3) 0.1414(3)
O6 O 0.3023(2) 0.9648(2) 0.1135(2)
O7 O 0.2224(2) 0.8557(2) 0.0557(2)
O8 O 0.3154(2) 0.8914(2) 0.0432(2)
O9 O 0.4132(2) 0.8820(3) 0.0054(3)
O10 O 0.3304(2) 0.8803(2) -0.0597(2)
O11 O 0.2728(3) 0.8561(3) -0.1469(3)
O12 O 0.3173(2) 0.9551(3) -0.1309(2)
O13 O 0.2321(2) 0.8732(2) -0.0471(3)
O14 O 0.2757(2) 1.0422(2) 0.0321(2)
O15 O 0.1465(3) 0.8212(3) -0.0102(3)
O16 O 0.1494(2) 0.9295(3) -0.0452(2)
O17 O 0.2102(2) 1.0274(2) -0.0357(2)
O18 O 0.2157(2) 0.9455(3) -0.1179(2)
O19 O 0.1120(3) 0.9620(3) -0.1398(3)
O20 O 0.1139(2) 1.0312(2) -0.0579(3)
P2 P 0.25000 0.50000 0.32504(10)
Mo7 Mo 0.15324(3) 0.52940(3) 0.41637(3)
Mo8 Mo 0.26685(3) 0.59393(3) 0.42702(3)
Mo9 Mo 0.18581(3) 0.62568(3) 0.32854(3)
Mo10 Mo 0.27489(3) 0.59202(3) 0.22297(3)
Mo11 Mo 0.36086(3) 0.58180(3) 0.32107(3)
Mo12 Mo 0.34834(3) 0.47947(3) 0.23327(3)
O21 O 0.1074(3) 0.5291(3) 0.4614(3)
O22 O 0.2055(2) 0.5711(3) 0.4546(2)
O23 O 0.2884(3) 0.6378(3) 0.4716(2)
O24 O 0.3031(2) 0.5327(3) 0.4398(2)
O25 O 0.2268(3) 0.6450(2) 0.3831(2)
O26 O 0.1391(2) 0.5919(3) 0.3807(2)
O27 O 0.1527(3) 0.6819(3) 0.3165(3)
O28 O 0.1304(2) 0.4821(2) 0.3681(2)
O29 O 0.2250(2) 0.5429(2) 0.3592(2)
O30 O 0.3174(2) 0.6062(2) 0.3703(2)
O31 O 0.2358(2) 0.6264(2) 0.2800(2)
O32 O 0.2096(2) 0.4732(2) 0.2906(2)
O33 O 0.3494(2) 0.4263(2) 0.2821(2)
O34 O 0.3890(2) 0.4577(3) 0.1884(2)
O35 O 0.3193(2) 0.5427(2) 0.1952(2)
O36 O 0.3868(2) 0.5290(2) 0.2696(2)
O37 O 0.2752(2) 0.6420(2) 0.1792(2)
O38 O 0.2167(2) 0.5547(2) 0.2099(2)
O39 O 0.3335(2) 0.6184(2) 0.2659(2)
O40 O 0.4149(3) 0.6156(3) 0.3329(2)
Zn1 Zn 0.50000 0.25478(5) 0.75000
O41 O 0.5761(2) 0.2553(2) 0.7205(3)
O42 O 0.4825(2) 0.1917(2) 0.6954(3)
O43 O 0.3245(4) 0.3507(3) 0.5706(3)
O44 O 0.4092(4) 0.5107(4) 0.5786(3)
N1 N 0.4791(3) 0.3117(3) 0.6926(3)
N2 N 0.3665(4) 0.4307(4) 0.5753(3)
N3 N 0.4705(3) 0.1067(3) 0.6670(3)
N4 N 0.6585(3) 0.2490(3) 0.6989(4)
C1 C 0.4897(4) 0.3002(4) 0.6420(3)
H1 H 0.51230 0.27140 0.63440
C2 C 0.4691(4) 0.3286(4) 0.6025(4)
H2 H 0.47740 0.31950 0.56800
C3 C 0.4360(4) 0.3707(4) 0.6124(4)
C4 C 0.4259(4) 0.3837(4) 0.6629(4)
H3 H 0.40430 0.41310 0.67120
C5 C 0.4483(4) 0.3526(4) 0.7017(3)
H4 H 0.44090 0.36140 0.73650
C6 C 0.4158(5) 0.4025(6) 0.5664(5)
H5 H 0.44150 0.42970 0.55640
H6 H 0.41160 0.37740 0.53700
C7 C 0.3692(5) 0.4872(5) 0.5785(4)
C8 C 0.3194(5) 0.5160(4) 0.5789(4)
C9 C 0.2736(4) 0.4857(4) 0.5786(3)
C10 C 0.2723(5) 0.5983(5) 0.5781(4)
H7 H 0.27240 0.63660 0.57710
C11 C 0.3216(5) 0.3994(5) 0.5746(4)
C12 C 0.3172(5) 0.5713(5) 0.5801(4)
H8 H 0.34790 0.59130 0.58230
C13 C 0.2271(5) 0.5717(5) 0.5775(3)
C14 C 0.4177(4) 0.1175(5) 0.6535(5)
H9 H 0.40750 0.15250 0.66760
H10 H 0.39600 0.08910 0.66790
H11 H 0.41410 0.11800 0.61600
C15 C 0.4869(5) 0.0485(5) 0.6632(6)
H12 H 0.52390 0.04630 0.66630
H13 H 0.47640 0.03380 0.62980
H14 H 0.47110 0.02760 0.69090
C16 C 0.5540(4) 0.1301(4) 0.7006(4)
H15 H 0.57020 0.16060 0.71810
H16 H 0.57260 0.12180 0.66890
H17 H 0.55430 0.09850 0.72340
C17 C 0.4993(4) 0.1447(4) 0.6875(4)
C18 C 0.7125(4) 0.2514(5) 0.7094(7)
H18 H 0.72660 0.28450 0.69450
H19 H 0.72930 0.22000 0.69420
H20 H 0.71810 0.25150 0.74680
C19 C 0.6457(5) 0.2495(6) 0.6441(5)
H21 H 0.65240 0.21390 0.62920
H22 H 0.66650 0.27670 0.62650
H23 H 0.60970 0.25840 0.63990
C20 C 0.6369(4) 0.2519(4) 0.7899(4)
H24 H 0.65120 0.28700 0.79960
H25 H 0.66210 0.22360 0.79600
H26 H 0.60660 0.24470 0.81060
C21 C 0.6225(4) 0.2527(3) 0.7329(4)
Zn2 Zn 0.01221(7) 0.74827(7) 0.41949(8)
O45 O -0.0144(4) 0.8183(4) 0.4493(4)
O46 O 0.0720(4) 0.7482(4) 0.4734(4)
O47 O -0.0220(4) 0.6985(4) 0.4677(5)
O48 O 0.0435(8) 0.6697(7) 0.3673(8)
O49 O -0.0482(3) 0.7343(4) 0.3676(4)
O50 O 0.0910(3) 0.9963(4) 0.2528(3)
O51 O 0.1875(4) 0.8460(4) 0.2344(3)
N5 N 0.0478(4) 0.7889(4) 0.3600(4)
N6 N 0.1402(4) 0.9218(5) 0.2424(3)
N7 N 0.1481(4) 0.7584(4) 0.5110(4)
N8 N -0.0662(7) 0.6404(7) 0.5104(6)
N9 N -0.1235(5) 0.7164(5) 0.3338(5)
N10 N -0.0241(3) 0.8974(5) 0.4917(5)
C22 C 0.0451(6) 0.7714(7) 0.3128(7)
H27 H 0.03110 0.73660 0.30690
C23 C 0.0689(5) 0.8365(5) 0.3679(5)
H28 H 0.07290 0.84840 0.40240
C24 C 0.0855(5) 0.8699(6) 0.3290(4)
H29 H 0.09970 0.90420 0.33660
C25 C 0.0809(5) 0.8523(6) 0.2782(5)
C26 C 0.0616(6) 0.8011(7) 0.2706(7)
H30 H 0.05960 0.78640 0.23680
C27 C 0.0946(6) 0.8881(7) 0.2337(5)
H31 H 0.10040 0.86530 0.20300
H32 H 0.06550 0.91210 0.22620
C28 C 0.1338(4) 0.9769(6) 0.2479(4)
C29 C 0.1868(5) 0.8958(5) 0.2405(4)
C30 C 0.2332(4) 0.9262(5) 0.2461(4)
C31 C 0.2282(4) 0.9846(4) 0.2489(3)
C32 C 0.1800(4) 1.0097(4) 0.2492(3)
C33 C 0.1768(5) 1.0638(5) 0.2513(4)
H33 H 0.14450 1.08050 0.25450
C34 C 0.2791(5) 0.9040(5) 0.2488(4)
H34 H 0.28220 0.86580 0.24900
C35 C -0.0942(5) 0.7423(6) 0.3635(5)
C36 C -0.1208(7) 0.7874(9) 0.3934(7)
H35 H -0.10300 0.82160 0.38750
H36 H -0.12040 0.77890 0.43030
H37 H -0.15600 0.79060 0.38160
C37 C -0.1774(7) 0.7246(10) 0.3258(10)
H38 H -0.19570 0.71680 0.35780
H39 H -0.18930 0.70050 0.29850
H40 H -0.18350 0.76220 0.31570
C38 C -0.097(1) 0.6704(7) 0.3055(9)
H41 H -0.07710 0.68500 0.27680
H42 H -0.12250 0.64520 0.29210
H43 H -0.07440 0.65130 0.32930
C39 C -0.0196(5) 0.8456(6) 0.4896(7)
C40 C -0.0218(5) 0.8183(6) 0.5419(5)
H44 H -0.01940 0.77910 0.53740
H45 H -0.05400 0.82720 0.55880
H46 H 0.00650 0.83090 0.56320
C41 C -0.0239(5) 0.9336(6) 0.5347(8)
H47 H -0.04010 0.91610 0.56430
H48 H -0.04280 0.96640 0.52580
H49 H 0.01110 0.94310 0.54340
C42 C -0.0173(5) 0.9286(7) 0.4417(8)
H50 H 0.01800 0.94060 0.43870
H51 H -0.03980 0.96010 0.44170
H52 H -0.02570 0.90520 0.41250
C43 C -0.0962(9) 0.6887(12) 0.5290(17)
H53 H -0.08130 0.70230 0.56100
H54 H -0.13150 0.67800 0.53520
H55 H -0.09520 0.71710 0.50280
C44 C -0.0809(9) 0.5900(8) 0.5279(7)
H56 H -0.05880 0.56240 0.51290
H57 H -0.11610 0.58310 0.51780
H58 H -0.07810 0.58890 0.56550
C45 C -0.0028(10) 0.6078(10) 0.4514(13)
H59 H -0.02460 0.59020 0.42580
H60 H 0.00630 0.58180 0.47830
H61 H 0.02810 0.62100 0.43470
C46 C -0.0306(7) 0.6538(6) 0.4749(5)
C47 C 0.1247(5) 0.7700(5) 0.5620(4)
H62 H 0.08850 0.77800 0.55750
H63 H 0.14160 0.80110 0.57780
H64 H 0.12850 0.73840 0.58450
C48 C 0.2035(5) 0.7578(5) 0.5113(5)
H65 H 0.21560 0.72060 0.50830
H66 H 0.21590 0.77340 0.54370
H67 H 0.21630 0.77910 0.48230
C49 C 0.1490(8) 0.7394(7) 0.4214(6)
H68 H 0.12500 0.73630 0.39260
H69 H 0.16890 0.70610 0.42410
H70 H 0.17170 0.77000 0.41530
C50 C 0.1196(5) 0.7483(4) 0.4714(5)
O14A O 0.2243(2) 0.9578(2) 0.0321(2)
O17A O 0.2898(2) 0.9726(2) -0.0357(2)
Mo1A Mo 0.34501(3) 1.02577(3) 0.09106(3)
Mo2A Mo 0.23391(3) 1.09676(3) 0.09797(3)
Mo3A Mo 0.13976(3) 1.08205(3) -0.00546(3)
Mo4A Mo 0.22767(3) 1.09501(3) -0.10280(3)
Mo5A Mo 0.34654(3) 1.01807(3) -0.09575(3)
Mo6A Mo 0.31909(3) 1.12298(3) 0.00064(3)
O1A O 0.3904(2) 1.0260(3) 0.1365(3)
O2A O 0.3694(2) 0.9789(2) 0.0422(2)
O3A O 0.3623(2) 1.0878(3) 0.0537(3)
O4A O 0.2939(2) 1.0707(2) 0.1276(2)
O5A O 0.2136(3) 1.1413(3) 0.1414(3)
O6A O 0.1977(2) 1.0352(2) 0.1135(2)
O7A O 0.2776(2) 1.1443(2) 0.0557(2)
O8A O 0.1846(2) 1.1086(2) 0.0432(2)
O9A O 0.0868(2) 1.1180(3) 0.0054(3)
O10A O 0.1696(2) 1.1197(2) -0.0597(2)
O11A O 0.2272(3) 1.1439(3) -0.1469(3)
O12A O 0.1827(2) 1.0449(3) -0.1309(2)
O13A O 0.2679(2) 1.1268(2) -0.0471(3)
O15A O 0.3535(3) 1.1788(3) -0.0102(3)
O16A O 0.3506(2) 1.0705(3) -0.0452(2)
O18A O 0.2843(2) 1.0545(3) -0.1179(2)
O19A O 0.3880(3) 1.0380(3) -0.1398(3)
O20A O 0.3861(2) 0.9688(2) -0.0579(3)
O29A O 0.2750(2) 0.4571(2) 0.3592(2)
O32A O 0.2904(2) 0.5268(2) 0.2906(2)
Mo7A Mo 0.34676(3) 0.47060(3) 0.41637(3)
Mo8A Mo 0.23315(3) 0.40607(3) 0.42702(3)
Mo9A Mo 0.31419(3) 0.37432(3) 0.32854(3)
Mo10A Mo 0.22511(3) 0.40798(3) 0.22297(3)
Mo11A Mo 0.13914(3) 0.41820(3) 0.32107(3)
Mo12A Mo 0.15166(3) 0.52053(3) 0.23327(3)
O21A O 0.3926(3) 0.4709(3) 0.4614(3)
O22A O 0.2945(2) 0.4289(3) 0.4546(2)
O23A O 0.2116(3) 0.3622(3) 0.4716(2)
O24A O 0.1969(2) 0.4673(3) 0.4398(2)
O25A O 0.2732(3) 0.3550(2) 0.3831(2)
O26A O 0.3609(2) 0.4081(3) 0.3807(2)
O27A O 0.3473(3) 0.3181(3) 0.3165(3)
O28A O 0.3696(2) 0.5179(2) 0.3681(2)
O30A O 0.1826(2) 0.3938(2) 0.3703(2)
O31A O 0.2642(2) 0.3736(2) 0.2800(2)
O33A O 0.1506(2) 0.5737(2) 0.2821(2)
O34A O 0.1110(2) 0.5423(3) 0.1884(2)
O35A O 0.1807(2) 0.4573(2) 0.1952(2)
O36A O 0.1132(2) 0.4710(2) 0.2696(2)
O37A O 0.2248(2) 0.3580(2) 0.1792(2)
O38A O 0.2833(2) 0.4453(2) 0.2099(2)
O39A O 0.1665(2) 0.3816(2) 0.2659(2)
O40A O 0.0851(3) 0.3844(3) 0.3329(2)
O43A O 0.1755(4) 0.6493(3) 0.5706(3)
O44A O 0.0908(4) 0.4893(4) 0.5786(3)
N1A N 0.0209(3) 0.6883(3) 0.6926(3)
N2A N 0.1335(4) 0.5693(4) 0.5753(3)
C1A C 0.0103(4) 0.6998(4) 0.6420(3)
H1A H -0.01230 0.72860 0.63440
C2A C 0.0309(4) 0.6714(4) 0.6025(4)
H2A H 0.02260 0.68050 0.56800
C3A C 0.0640(4) 0.6293(4) 0.6124(4)
C4A C 0.0741(4) 0.6163(4) 0.6629(4)
H3A H 0.09570 0.58690 0.67120
C5A C 0.0517(4) 0.6474(4) 0.7017(3)
H4A H 0.05910 0.63860 0.73650
C6A C 0.0842(5) 0.5975(6) 0.5664(5)
H5A H 0.05850 0.57030 0.55640
H6A H 0.08840 0.62260 0.53700
C7A C 0.1308(5) 0.5128(5) 0.5785(4)
C8A C 0.1806(5) 0.4840(4) 0.5789(4)
C9A C 0.2264(4) 0.5143(4) 0.5786(3)
C10A C 0.2277(5) 0.4017(5) 0.5781(4)
H7A H 0.22760 0.36340 0.57710
C11A C 0.1784(5) 0.6006(5) 0.5746(4)
C12A C 0.1828(5) 0.4287(5) 0.5801(4)
H8A H 0.15210 0.40870 0.58230
C13A C 0.2729(5) 0.4283(5) 0.5775(3)
O41C O 0.4239(2) 0.2553(2) 0.7795(3)
N4C N 0.3415(3) 0.2490(3) 0.8011(4)
C18C C 0.2875(4) 0.2514(5) 0.7906(7)
H18C H 0.27340 0.28450 0.80550
H19C H 0.27070 0.22000 0.80580
H20C H 0.28190 0.25150 0.75320
C19C C 0.3543(5) 0.2495(6) 0.8559(5)
H21C H 0.34760 0.21390 0.87080
H22C H 0.33350 0.27670 0.87350
H23C H 0.39030 0.25840 0.86010
C20C C 0.3631(4) 0.2519(4) 0.7101(4)
H24C H 0.34880 0.28700 0.70040
H25C H 0.33790 0.22360 0.70400
H26C H 0.39340 0.24470 0.68940
C21C C 0.3775(4) 0.2527(3) 0.7671(4)
O42C O 0.5175(2) 0.1917(2) 0.8046(3)
N3C N 0.5295(3) 0.1067(3) 0.8330(3)
C14C C 0.5823(4) 0.1175(5) 0.8465(5)
H9C H 0.59250 0.15250 0.83240
H10C H 0.60400 0.08910 0.83210
H11C H 0.58590 0.11800 0.88400
C15C C 0.5131(5) 0.0485(5) 0.8368(6)
H12C H 0.47610 0.04630 0.83370
H13C H 0.52360 0.03380 0.87020
H14C H 0.52890 0.02760 0.80910
C16C C 0.4460(4) 0.1301(4) 0.7994(4)
H15C H 0.42980 0.16060 0.78190
H16C H 0.42740 0.12180 0.83110
H17C H 0.44570 0.09850 0.77660
C17C C 0.5007(4) 0.1447(4) 0.8125(4)
Zn1A Zn 0.00000 0.74522(5) 0.75000
N1C N 0.5209(3) 0.3117(3) 0.8074(3)
O50A O 0.4090(3) 1.0037(4) 0.2528(3)
O51A O 0.3125(4) 1.1540(4) 0.2344(3)
N5A N 0.4522(4) 1.2111(4) 0.3600(4)
N6A N 0.3598(4) 1.0782(5) 0.2424(3)
C22A C 0.4549(6) 1.2286(7) 0.3128(7)
H27A H 0.46890 1.26340 0.30690
C23A C 0.4311(5) 1.1635(5) 0.3679(5)
H28A H 0.42710 1.15160 0.40240
C24A C 0.4145(5) 1.1301(6) 0.3290(4)
H29A H 0.40030 1.09580 0.33660
C25A C 0.4191(5) 1.1477(6) 0.2782(5)
C26A C 0.4384(6) 1.1989(7) 0.2706(7)
H30A H 0.44040 1.21360 0.23680
C27A C 0.4054(6) 1.1119(7) 0.2337(5)
H31A H 0.39960 1.13470 0.20300
H32A H 0.43450 1.08790 0.22620
C28A C 0.3662(4) 1.0231(6) 0.2479(4)
C29A C 0.3132(5) 1.1042(5) 0.2405(4)
C30A C 0.2668(4) 1.0738(5) 0.2461(4)
C31A C 0.2718(4) 1.0154(4) 0.2489(3)
C32A C 0.3200(4) 0.9903(4) 0.2492(3)
C33A C 0.3232(5) 0.9362(5) 0.2513(4)
H33A H 0.35550 0.91950 0.25450
C34A C 0.2209(5) 1.0960(5) 0.2488(4)
H34A H 0.21780 1.13420 0.24900
Zn2A Zn 0.48779(7) 1.25173(7) 0.41949(8)
O45A O 0.5144(4) 1.1817(4) 0.4493(4)
O46A O 0.4280(4) 1.2518(4) 0.4734(4)
O47A O 0.5220(4) 1.3015(4) 0.4677(5)
O48A O 0.4565(8) 1.3303(7) 0.3673(8)
O49A O 0.5482(3) 1.2657(4) 0.3676(4)
N7A N 0.3519(4) 1.2416(4) 0.5110(4)
N8A N 0.5662(7) 1.3596(7) 0.5104(6)
N9A N 0.6235(5) 1.2836(5) 0.3338(5)
N10A N 0.5241(3) 1.1026(5) 0.4917(5)
C35A C 0.5942(5) 1.2577(6) 0.3635(5)
C36A C 0.6208(7) 1.2126(9) 0.3934(7)
H35A H 0.60300 1.17840 0.38750
H36A H 0.62040 1.22110 0.43030
H37A H 0.65600 1.20940 0.38160
C37A C 0.6774(7) 1.2754(10) 0.3258(10)
H38A H 0.69570 1.28320 0.35780
H39A H 0.68930 1.29950 0.29850
H40A H 0.68350 1.23780 0.31570
C38A C 0.597(1) 1.3296(7) 0.3055(9)
H41A H 0.57710 1.31500 0.27680
H42A H 0.62250 1.35480 0.29210
H43A H 0.57440 1.34870 0.32930
C39A C 0.5196(5) 1.1544(6) 0.4896(7)
C40A C 0.5218(5) 1.1817(6) 0.5419(5)
H44A H 0.51940 1.22090 0.53740
H45A H 0.55400 1.17280 0.55880
H46A H 0.49350 1.16910 0.56320
C41A C 0.5239(5) 1.0664(6) 0.5347(8)
H47A H 0.54010 1.08390 0.56430
H48A H 0.54280 1.03360 0.52580
H49A H 0.48890 1.05690 0.54340
C42A C 0.5173(5) 1.0714(7) 0.4417(8)
H50A H 0.48200 1.05940 0.43870
H51A H 0.53980 1.03990 0.44170
H52A H 0.52570 1.09480 0.41250
C43A C 0.5962(9) 1.3113(12) 0.5290(17)
H53A H 0.58130 1.29770 0.56100
H54A H 0.63150 1.32200 0.53520
H55A H 0.59520 1.28290 0.50280
C44A C 0.5809(9) 1.4100(8) 0.5279(7)
H56A H 0.55880 1.43760 0.51290
H57A H 0.61610 1.41690 0.51780
H58A H 0.57810 1.41110 0.56550
C45A C 0.5028(10) 1.3922(10) 0.4514(13)
H59A H 0.52460 1.40980 0.42580
H60A H 0.49370 1.41820 0.47830
H61A H 0.47190 1.37900 0.43470
C46A C 0.5306(7) 1.3462(6) 0.4749(5)
C47A C 0.3753(5) 1.2300(5) 0.5620(4)
H62A H 0.41150 1.22200 0.55750
H63A H 0.35840 1.19890 0.57780
H64A H 0.37150 1.26160 0.58450
C48A C 0.2965(5) 1.2422(5) 0.5113(5)
H65A H 0.28440 1.27940 0.50830
H66A H 0.28410 1.22660 0.54370
H67A H 0.28370 1.22090 0.48230
C49A C 0.3510(8) 1.2606(7) 0.4214(6)
H68A H 0.37500 1.26370 0.39260
H69A H 0.33110 1.29390 0.42410
H70A H 0.32830 1.23000 0.41530
C50A C 0.3804(5) 1.2517(4) 0.4714(5)
#END
