
#######################################################################
#
#                 Cambridge Crystallographic Data Centre
#                                CCDC
#
#######################################################################
#
# If this CIF has been generated from an entry in the Cambridge
# Structural Database, then it will include bibliographic, chemical,
# crystal, experimental, refinement or atomic coordinate data resulting
# from the CCDC's data processing and validation procedures.
#
#######################################################################

data_CSD_CIF_UWOBOY
_audit_creation_date 2011-10-03
_audit_creation_method CSD-ConQuest-V1
_database_code_CSD UWOBOY
_database_code_depnum_ccdc_archive 'CCDC 840111'
_chemical_formula_sum 'C29.66 H49.99 B1 Cl4 Cu1 N10.33 Re1'
_chemical_formula_moiety
;
(C11 H10 B1 Cl4 Cu1 N8 Re1 1-)n,1.33n(C2 H3 N1),n(C16 H36 N1 1+)
;
_journal_coden_Cambridge 4
_journal_volume 133
_journal_year 2011
_journal_page_first 123
_journal_name_full 'J.Am.Chem.Soc. '
loop_
_publ_author_name
"T.D.Harris"
"C.Coulon"
"R.Clerac"
"J.R.Long"
_chemical_name_systematic
;
catena-(Tetra-n-butylammonium bis(\m~2~-cyano-C,N)-tetrachloro-(hydrogen 
tripyrazolylborate)-copper-rhenium acetonitrile solvate)
;
_cell_volume   4136.401
_exptl_crystal_colour 'green'
_exptl_crystal_description 'plate'
_diffrn_ambient_temperature 150
_diffrn_radiation_probe x-ray
_diffrn_source synchrotron
#These two values have been output from a single CSD field.
_refine_ls_R_factor_gt 0.0684
_refine_ls_wR_factor_gt 0.0684
_symmetry_cell_setting monoclinic
_symmetry_space_group_name_H-M 'P 21/c'
_symmetry_Int_Tables_number 14
loop_
_symmetry_equiv_pos_site_id
_symmetry_equiv_pos_as_xyz
1 x,y,z
2 -x,1/2+y,1/2-z
3 -x,-y,-z
4 x,-1/2-y,-1/2+z
_cell_length_a 11.4534(7)
_cell_length_b 16.2945(10)
_cell_length_c 22.1655(13)
_cell_angle_alpha 90
_cell_angle_beta 90.677(1)
_cell_angle_gamma 90
_cell_formula_units_Z 4
loop_
_atom_type_symbol
_atom_type_radius_bond
C 0.68
H 0.23
B 0.83
Cl 0.99
Cu 1.32
N 0.64
Re 1.51
loop_
_atom_site_label
_atom_site_type_symbol
_atom_site_fract_x
_atom_site_fract_y
_atom_site_fract_z
B1 B -0.0485(14) -0.1927(6) 0.5367(4)
H1 H -0.05460 -0.18820 0.58150
Cu1 Cu -0.02093(8) -0.20672(4) 0.39662(3)
Re1 Re -0.00465(2) 0.039930(14) 0.24600(1)
C1 C -0.0295(5) -0.0636(4) 0.3025(3)
C2 C 0.0271(6) 0.1449(4) 0.1928(3)
C3 C 0.0627(7) -0.3700(4) 0.4562(3)
H2 H 0.08020 -0.39860 0.42010
C4 C 0.0772(9) -0.4025(5) 0.5132(4)
H3 H 0.10980 -0.45420 0.52400
C5 C 0.032(1) -0.3408(5) 0.5521(4)
H4 H 0.02340 -0.34460 0.59460
C6 C -0.2720(13) -0.1713(6) 0.5318(5)
H5 H -0.28430 -0.16740 0.57400
C7 C -0.3628(14) -0.1649(6) 0.4856(6)
H6 H -0.44460 -0.15720 0.48940
C8 C -0.2936(9) -0.1733(5) 0.4325(4)
H7 H -0.32470 -0.17070 0.39270
C9 C 0.1315(10) -0.0635(5) 0.4447(4)
H8 H 0.16200 -0.04690 0.40700
C10 C 0.1612(11) -0.0259(5) 0.5000(4)
H9 H 0.21410 0.01780 0.50760
C11 C 0.0952(13) -0.0679(5) 0.5393(4)
H10 H 0.09450 -0.05720 0.58150
C12 C 0.4183(8) -0.3850(5) 0.3494(4)
C13 C 0.4952(9) -0.5224(6) 0.3464(4)
C14 C 0.4715(10) -0.4504(6) 0.2209(5)
C15 C 0.6367(8) -0.4071(5) 0.3696(4)
C16 C 0.4343(10) -0.2908(6) 0.3431(5)
C17 C 0.5602(9) -0.4223(6) 0.2675(4)
C18 C 0.6265(9) -0.4189(6) 0.4377(4)
C19 C 0.5161(10) -0.4360(7) 0.1581(5)
C20 C 0.7358(9) -0.3960(6) 0.4697(4)
C21 C 0.3107(14) -0.2551(10) 0.3470(6)
C22 C 0.7313(10) -0.4102(7) 0.5390(5)
C23 C 0.4336(11) -0.4656(7) 0.1100(5)
C24 C 0.5950(11) -0.5830(8) 0.3329(5)
C25 C 0.5484(19) -0.6721(13) 0.3479(8)
C26 C 0.654(3) -0.738(2) 0.3525(12)
C27 C 0.3239(18) -0.1589(13) 0.3345(8)
C28 C 0.2417(10) -0.7073(6) 0.2613(5)
C29 C 0.1459(8) -0.7102(5) 0.3017(4)
C30 C 0.339(2) -0.3036(15) 0.5206(11)
C31 C 0.278(2) -0.2221(15) 0.5256(11)
N1 N -0.0340(5) -0.1197(3) 0.3341(2)
N2 N 0.0359(6) 0.2032(3) 0.1633(2)
N3 N 0.0210(7) -0.2933(3) 0.4577(3)
N4 N -0.1838(7) -0.1850(4) 0.4448(3)
N5 N 0.0570(7) -0.1243(3) 0.4512(3)
N6 N 0.0041(8) -0.2770(3) 0.5176(3)
N7 N -0.1680(8) -0.1836(4) 0.5057(3)
N8 N 0.0286(9) -0.1280(4) 0.5118(3)
N9 N 0.5288(6) -0.4344(5) 0.3327(3)
N10 N 0.3225(12) -0.7067(7) 0.2309(5)
N11 N 0.3750(18) -0.3569(13) 0.5185(9)
Cl1 Cl -0.16347(17) 0.00509(11) 0.18411(9)
Cl2 Cl 0.11269(18) -0.04043(10) 0.18428(8)
Cl3 Cl -0.12578(17) 0.12139(11) 0.30403(8)
Cl4 Cl 0.15724(15) 0.07135(10) 0.30689(7)
Cu1A Cu 0.02093(8) 0.29328(4) 0.10338(3)
N2A N -0.0359(6) -0.2968(3) 0.3367(2)
#END
