
#######################################################################
#
#                 Cambridge Crystallographic Data Centre
#                                CCDC
#
#######################################################################
#
# If this CIF has been generated from an entry in the Cambridge
# Structural Database, then it will include bibliographic, chemical,
# crystal, experimental, refinement or atomic coordinate data resulting
# from the CCDC's data processing and validation procedures.
#
#######################################################################

data_CSD_CIF_UXAYOK
_audit_creation_date 2021-06-29
_audit_creation_method CSD-ConQuest-V1
_database_code_CSD UXAYOK
_database_code_depnum_ccdc_archive 'CCDC 2065104'
_chemical_formula_sum 'C50 H61 N5 O16 U2'
_chemical_formula_moiety
;
(C30 H24 O16 U2 2-)n,2(C7 H14 N1 1+),3(C2 H3 N1)
;
_journal_coden_Cambridge 1290
_journal_year 2021
_journal_name_full 'Eur.J.Inorg.Chem. '
loop_
_publ_author_name
"P.Thuery"
"J.Harrowfield"
_chemical_name_systematic
;
catena-(bis(1-azoniabicyclo[2.2.2]octane) 
tris(\m-2,2'-(1,2-phenylene)diacetato)-tetraoxo-di-uranium acetonitrile 
solvate)
;
_cell_volume   3925.486
_exptl_crystal_colour 'light yellow'
_exptl_crystal_density_diffrn 1.858
_exptl_crystal_description 'irregular'
_diffrn_ambient_temperature 100
_diffrn_special_details
;
twin

;
#These two values have been output from a single CSD field.
_refine_ls_R_factor_gt 0.0202
_refine_ls_wR_factor_gt 0.0202
_symmetry_cell_setting hexagonal
_symmetry_space_group_name_H-M 'P 31'
_symmetry_Int_Tables_number 144
loop_
_symmetry_equiv_pos_site_id
_symmetry_equiv_pos_as_xyz
1 x,y,z
2 -y,x-y,1/3+z
3 -x+y,-x,2/3+z
_cell_length_a 14.1572(5)
_cell_length_b 14.1572(5)
_cell_length_c 22.6156(9)
_cell_angle_alpha 90
_cell_angle_beta 90
_cell_angle_gamma 120
_cell_formula_units_Z 3
loop_
_atom_type_symbol
_atom_type_radius_bond
C 0.68
H 0.23
N 0.68
O 0.68
U 1.96
loop_
_atom_site_label
_atom_site_type_symbol
_atom_site_fract_x
_atom_site_fract_y
_atom_site_fract_z
U1 U 0.88535(2) 0.60332(2) 0.41849(2)
U2 U 0.68311(2) 0.90078(2) 0.67355(2)
O1 O 0.8091(3) 0.5544(3) 0.48485(15)
O2 O 0.9609(3) 0.6504(3) 0.35191(15)
O3 O 0.7187(3) 0.8828(3) 0.74615(15)
O4 O 0.6456(3) 0.9143(3) 0.60044(15)
O5 O 0.8255(3) 0.7417(3) 0.41870(17)
O6 O 0.9832(3) 0.7859(3) 0.45819(17)
O7 O 0.8662(3) 0.9534(3) 0.63893(18)
O8 O 0.7467(3) 0.7788(3) 0.63125(17)
O9 O 1.0556(3) 0.6459(3) 0.47105(16)
O10 O 0.9621(3) 0.4823(3) 0.43497(16)
O11 O 1.1626(3) 0.4560(3) 0.34186(15)
O12 O 1.3255(3) 0.5091(3) 0.37608(15)
O13 O 0.7703(3) 0.4178(3) 0.37363(15)
O14 O 0.7233(3) 0.5418(3) 0.35887(16)
O15 O 0.4001(3) 0.3651(3) 0.37175(16)
O16 O 0.2940(3) 0.1931(3) 0.34889(16)
C1 C 1.0150(4) 0.9732(4) 0.5124(2)
C2 C 1.0230(4) 0.9393(4) 0.5693(2)
C3 C 1.1179(4) 0.9999(4) 0.6013(2)
H1 H 1.12369 0.97674 0.63992
C4 C 1.2053(4) 1.0943(5) 0.5779(3)
H2 H 1.26975 1.13551 0.60055
C5 C 1.1974(5) 1.1272(4) 0.5219(3)
H3 H 1.25685 1.19090 0.50539
C6 C 1.1032(5) 1.0677(4) 0.4896(3)
H4 H 1.09814 1.09145 0.45100
C7 C 0.9154(5) 0.9092(4) 0.4742(3)
H5 H 0.91717 0.95626 0.44141
H6 H 0.84947 0.88913 0.49814
C8 C 0.9070(4) 0.8058(4) 0.4485(2)
C9 C 0.9291(4) 0.8389(4) 0.5960(3)
H7 H 0.95765 0.81023 0.62690
H8 H 0.89515 0.78239 0.56491
C10 C 0.8424(4) 0.8582(4) 0.6230(2)
C11 C 1.2413(3) 0.6264(3) 0.49292(19)
C12 C 1.3055(4) 0.6779(3) 0.44305(19)
C13 C 1.4081(4) 0.7690(4) 0.4509(2)
H9 H 1.45239 0.80384 0.41732
C14 C 1.4469(4) 0.8099(4) 0.5069(2)
H10 H 1.51750 0.87176 0.51148
C15 C 1.3834(4) 0.7610(4) 0.5556(2)
H11 H 1.40955 0.78991 0.59391
C16 C 1.2802(4) 0.6688(4) 0.54904(19)
H12 H 1.23650 0.63492 0.58289
C17 C 1.1293(3) 0.5274(3) 0.4867(2)
H13 H 1.10490 0.49191 0.52580
H14 H 1.13358 0.47459 0.45971
C18 C 1.0456(4) 0.5546(3) 0.4631(2)
C19 C 1.2622(4) 0.6383(4) 0.38186(19)
H15 H 1.31192 0.69298 0.35285
H16 H 1.19015 0.63331 0.37803
C20 C 1.2499(4) 0.5285(4) 0.36640(17)
C21 C 0.5856(4) 0.2560(4) 0.3084(2)
C22 C 0.5090(3) 0.1916(4) 0.3518(2)
C23 C 0.4744(4) 0.0808(4) 0.3551(2)
H17 H 0.42197 0.03698 0.38404
C24 C 0.5153(4) 0.0332(4) 0.3167(2)
H18 H 0.49116 -0.04253 0.31940
C25 C 0.5919(4) 0.0970(4) 0.2742(2)
H19 H 0.62100 0.06545 0.24812
C26 C 0.6254(4) 0.2073(4) 0.2702(2)
H20 H 0.67668 0.25037 0.24063
C27 C 0.6233(4) 0.3756(4) 0.3035(2)
H21 H 0.55924 0.38556 0.30818
H22 H 0.65279 0.40048 0.26327
C28 C 0.7096(4) 0.4480(4) 0.3483(2)
C29 C 0.4660(4) 0.2421(4) 0.3955(2)
H23 H 0.52821 0.31023 0.41105
H24 H 0.43253 0.19147 0.42920
C30 C 0.3824(4) 0.2683(4) 0.37000(19)
N1 N 0.5465(4) 0.5821(3) 0.58029(18)
H25 H 0.579(5) 0.641(4) 0.608(2)
C31 C 0.4238(4) 0.5206(4) 0.5887(2)
H26 H 0.39590 0.57225 0.58770
H27 H 0.40530 0.48357 0.62758
C32 C 0.3710(4) 0.4366(4) 0.5394(3)
H28 H 0.31656 0.36531 0.55631
H29 H 0.33329 0.46021 0.51134
C33 C 0.5893(5) 0.5069(4) 0.5913(2)
H30 H 0.57940 0.48514 0.63348
H31 H 0.66824 0.54416 0.58217
C34 C 0.5281(5) 0.4063(4) 0.5524(3)
H32 H 0.58069 0.39120 0.53161
H33 H 0.48033 0.34223 0.57711
C35 C 0.5748(5) 0.6279(5) 0.5189(2)
H34 H 0.65485 0.67434 0.51484
H35 H 0.54101 0.67311 0.51066
C36 C 0.5318(4) 0.5319(5) 0.4749(2)
H36 H 0.48936 0.54222 0.44330
H37 H 0.59380 0.52945 0.45635
C37 C 0.4596(4) 0.4255(4) 0.5074(2)
H38 H 0.42600 0.36361 0.47867
N2 N 0.8323(4) 0.2633(3) 0.4528(2)
H39 H 0.859(5) 0.339(2) 0.444(3)
C38 C 0.7197(5) 0.2183(4) 0.4769(3)
H40 H 0.67562 0.23608 0.44991
H41 H 0.72241 0.25092 0.51600
C39 C 0.6678(5) 0.0942(5) 0.4827(3)
H42 H 0.63192 0.07010 0.52170
H43 H 0.61182 0.05743 0.45159
C40 C 0.8296(6) 0.2061(5) 0.3972(3)
H44 H 0.90170 0.24437 0.37755
H45 H 0.77458 0.20519 0.36981
C41 C 0.8003(6) 0.0894(5) 0.4128(3)
H46 H 0.86570 0.08155 0.40917
H47 H 0.74419 0.03757 0.38501
C42 C 0.9022(5) 0.2508(5) 0.4988(3)
H48 H 0.91123 0.29778 0.53327
H49 H 0.97529 0.27414 0.48220
C43 C 0.8490(5) 0.1323(4) 0.5185(3)
H50 H 0.90324 0.10763 0.51810
H51 H 0.82046 0.12462 0.55924
C44 C 0.7566(4) 0.0638(4) 0.4763(2)
H52 H 0.72620 -0.01551 0.48491
N3 N 0.1660(5) 0.4167(5) 0.6253(3)
C45 C 0.1237(4) 0.3288(5) 0.6397(3)
C46 C 0.0705(5) 0.2159(5) 0.6598(3)
H53 H 0.11238 0.20944 0.69252
H54 H 0.06701 0.16876 0.62713
H55 H -0.00349 0.19356 0.67333
N4 N 0.6443(4) 0.5718(4) 0.1839(2)
C47 C 0.6482(4) 0.6526(4) 0.1730(2)
C48 C 0.6535(5) 0.7566(5) 0.1597(3)
H56 H 0.61854 0.77482 0.19162
H57 H 0.61556 0.75023 0.12236
H58 H 0.72995 0.81425 0.15618
N5 N 0.6115(7) 0.8561(7) 0.3268(4)
C49 C 0.6053(5) 0.7718(6) 0.3297(3)
C50 C 0.5996(5) 0.6673(5) 0.3321(3)
H59 H 0.61299 0.64806 0.29254
H60 H 0.52704 0.61179 0.34563
H61 H 0.65491 0.67114 0.35955
U2B U 0.21767(2) 0.31689(2) 0.340217(20)
U2B* U 1.21767(2) 0.31689(2) 0.340217(20)
O11A O 0.5440(3) 0.7066(3) 0.675193(150)
O12A O 0.4909(3) 0.8164(3) 0.709413(150)
O15A O 0.6349(3) 1.0350(3) 0.705083(160)
O16A O 0.8069(3) 1.1009(3) 0.682223(160)
#END
