
#######################################################################
#
#                 Cambridge Crystallographic Data Centre
#                                CCDC
#
#######################################################################
#
# If this CIF has been generated from an entry in the Cambridge
# Structural Database, then it will include bibliographic, chemical,
# crystal, experimental, refinement or atomic coordinate data resulting
# from the CCDC's data processing and validation procedures.
#
#######################################################################

data_CSD_CIF_UXAYIE
_audit_creation_date 2021-06-29
_audit_creation_method CSD-ConQuest-V1
_database_code_CSD UXAYIE
_database_code_depnum_ccdc_archive 'CCDC 2065103'
_chemical_formula_sum 'C42 H60 N4 O19 U2'
_chemical_formula_moiety
;
(C30 H24 O16 U2 2-)n,C12 H30 N4 2+,3(H2 O1)
;
_journal_coden_Cambridge 1290
_journal_year 2021
_journal_name_full 'Eur.J.Inorg.Chem. '
loop_
_publ_author_name
"P.Thuery"
"J.Harrowfield"
_chemical_name_systematic
;
catena-(2,2'-(piperazine-1,4-diyl)bis(N,N-dimethylethan-1-aminium) 
tris(\m-2,2'-(1,2-phenylene)diacetato)-tetraoxo-di-uranium trihydrate)
;
_cell_volume   4910.822
_exptl_crystal_colour 'light yellow'
_exptl_crystal_density_diffrn 1.895
_exptl_crystal_description 'irregular'
_diffrn_ambient_temperature 100
#These two values have been output from a single CSD field.
_refine_ls_R_factor_gt 0.0184
_refine_ls_wR_factor_gt 0.0184
_symmetry_cell_setting monoclinic
_symmetry_space_group_name_H-M 'C 2/c'
_symmetry_Int_Tables_number 15
loop_
_symmetry_equiv_pos_site_id
_symmetry_equiv_pos_as_xyz
1 x,y,z
2 -x,y,1/2-z
3 1/2+x,1/2+y,z
4 1/2-x,1/2+y,1/2-z
5 -x,-y,-z
6 x,-y,-1/2+z
7 -1/2-x,-1/2-y,-z
8 -1/2+x,-1/2-y,-1/2+z
_cell_length_a 27.8579(11)
_cell_length_b 14.6046(5)
_cell_length_c 13.2707(5)
_cell_angle_alpha 90
_cell_angle_beta 114.558(2)
_cell_angle_gamma 90
_cell_formula_units_Z 4
loop_
_atom_type_symbol
_atom_type_radius_bond
C 0.68
H 0.23
N 0.68
O 0.68
U 1.96
loop_
_atom_site_label
_atom_site_type_symbol
_atom_site_fract_x
_atom_site_fract_y
_atom_site_fract_z
U1 U 0.84417(2) 0.57816(2) 0.67453(2)
O1 O 0.88105(7) 0.59265(11) 0.81932(13)
O2 O 0.80778(6) 0.56408(10) 0.52958(13)
O3 O 0.80851(6) 0.43765(10) 0.71367(14)
O4 O 0.75933(6) 0.55776(10) 0.69695(14)
O5 O 0.70019(6) 0.22724(10) 0.84001(13)
O6 O 0.62508(6) 0.2284(1) 0.85579(13)
O7 O 0.92646(6) 0.56772(10) 0.64522(14)
O8 O 0.89542(6) 0.43918(10) 0.67746(14)
C1 C 0.67359(8) 0.43840(13) 0.69864(17)
C2 C 0.64469(8) 0.42137(13) 0.76154(17)
C3 C 0.59160(9) 0.44671(16) 0.7193(2)
H1 H 0.57197 0.43573 0.76199
C4 C 0.56717(10) 0.48757(18) 0.6164(2)
H2 H 0.53110 0.50495 0.58903
C5 C 0.59542(10) 0.50317(16) 0.55292(19)
H3 H 0.57879 0.53060 0.48180
C6 C 0.64806(9) 0.47830(15) 0.59454(18)
H4 H 0.66728 0.48873 0.55093
C7 C 0.73066(9) 0.41051(14) 0.74001(19)
H5 H 0.74489 0.40349 0.82148
H6 H 0.73202 0.34951 0.70877
C8 C 0.76684(8) 0.47343(14) 0.71431(17)
C9 C 0.66841(8) 0.37317(14) 0.87236(17)
H7 H 0.70579 0.39161 0.91274
H8 H 0.64920 0.39123 0.91743
C10 C 0.66505(8) 0.27085(14) 0.85573(17)
C11 C 0.98582(8) 0.34018(14) 0.69244(19)
C12 C 0.97216(10) 0.25630(17) 0.6363(2)
H9 H 0.95300 0.25567 0.55810
C13 C 0.98626(11) 0.17433(17) 0.6937(3)
H10 H 0.97682 0.11794 0.65462
C14 C 0.96938(9) 0.42882(15) 0.62861(19)
H11 H 0.95500 0.41520 0.54834
H12 H 1.00094 0.46795 0.64722
C15 C 0.92844(9) 0.48128(15) 0.65250(18)
O9 O 0.53785(10) 0.32564(17) 0.8660(3)
H13 H 0.5631(10) 0.298(2) 0.858(4)
H14 H 0.5121(10) 0.287(2) 0.841(4)
O10 O 0.48916(15) 0.1691(3) 0.8861(3)
H15 H 0.45769 0.14739 0.87052
H16 H 0.51017 0.14050 0.85819
N1 N 0.85840(8) 0.28178(12) 0.82116(15)
H17 H 0.8377(11) 0.3195(19) 0.775(2)
N2 N 0.79092(10) 0.22164(13) 0.60424(17)
C16 C 0.87934(11) 0.21932(16) 0.7598(2)
H18 H 0.90542 0.17701 0.81287
H19 H 0.89765 0.25595 0.72366
C17 C 0.83579(12) 0.16451(17) 0.6732(2)
H20 H 0.84993 0.13299 0.62527
H21 H 0.82349 0.11707 0.71031
C18 C 0.90194(10) 0.33545(18) 0.9057(2)
H22 H 0.88725 0.37859 0.94201
H23 H 0.92083 0.36939 0.86968
H24 H 0.92642 0.29373 0.96113
C19 C 0.82713(10) 0.23322(16) 0.87229(19)
H25 H 0.79583 0.20563 0.81398
H26 H 0.81614 0.27690 0.91469
H27 H 0.84881 0.18515 0.92187
C20 C 0.80280(12) 0.27408(18) 0.5228(2)
H28 H 0.81115 0.23138 0.47440
H29 H 0.83408 0.31325 0.56188
C21 C 0.74388(12) 0.16654(17) 0.5473(2)
H30 H 0.73542 0.13270 0.60254
H31 H 0.75069 0.12116 0.49940
O7A O 1.07354(6) 0.56772(10) 0.85478(14)
O8A O 1.10458(6) 0.43918(10) 0.82254(14)
C11A C 1.01418(8) 0.34018(14) 0.80756(19)
C12A C 1.02784(10) 0.25630(17) 0.8637(2)
H9A H 1.04699 0.25567 0.94190
C13A C 1.01374(11) 0.17433(17) 0.8063(3)
H10A H 1.02318 0.11794 0.84538
C14A C 1.03062(9) 0.42882(15) 0.87139(19)
H11A H 1.04500 0.41520 0.95166
H12A H 0.99906 0.46795 0.85278
C15A C 1.07156(9) 0.48128(15) 0.84750(18)
U1A U 1.15583(2) 0.57816(2) 0.82547(2)
O1A O 1.11895(7) 0.59265(11) 0.68068(13)
O2A O 1.19222(6) 0.56408(10) 0.97042(13)
O3A O 1.19149(6) 0.43765(10) 0.78633(14)
O4A O 1.24067(6) 0.55776(10) 0.80305(14)
O5A O 1.29981(6) 0.22724(10) 0.65999(13)
O6A O 1.37492(6) 0.2284(1) 0.64421(13)
C1A C 1.32641(8) 0.43840(13) 0.80136(17)
C2A C 1.35531(8) 0.42137(13) 0.73846(17)
C3A C 1.40840(9) 0.44671(16) 0.7807(2)
H1A H 1.42803 0.43573 0.73801
C4A C 1.43283(10) 0.48757(18) 0.8836(2)
H2A H 1.46890 0.50495 0.91097
C5A C 1.40458(10) 0.50317(16) 0.94708(19)
H3A H 1.42121 0.53060 1.01820
C6A C 1.35194(9) 0.47830(15) 0.90546(18)
H4A H 1.33272 0.48873 0.94907
C7A C 1.26934(9) 0.41051(14) 0.75999(19)
H5A H 1.25511 0.40349 0.67852
H6A H 1.26798 0.34951 0.79123
C8A C 1.23316(8) 0.47343(14) 0.78569(17)
C9A C 1.33159(8) 0.37317(14) 0.62764(17)
H7A H 1.29421 0.39161 0.58726
H8A H 1.35080 0.39123 0.58257
C10A C 1.33495(8) 0.27085(14) 0.64427(17)
U1B U 1.34417(2) 0.07816(2) 0.67453(2)
U1C U 0.65583(2) 0.07816(2) 0.82547(2)
O5B O 1.20019(6) 0.72724(10) 0.84001(13)
O5C O 0.79981(6) 0.72724(10) 0.65999(13)
O6B O 1.12508(6) 0.7284(1) 0.85579(13)
O6C O 0.87492(6) 0.7284(1) 0.64421(13)
N1F N 0.64160(8) 0.21822(12) 0.17884(15)
H17F H 0.6623(11) 0.1805(19) 0.225(2)
N2F N 0.70908(10) 0.27836(13) 0.39576(17)
C16F C 0.62066(11) 0.28068(16) 0.2402(2)
H18F H 0.59458 0.32299 0.18713
H19F H 0.60235 0.24405 0.27634
C17F C 0.66421(12) 0.33549(17) 0.3268(2)
H20F H 0.65007 0.36701 0.37473
H21F H 0.67651 0.38293 0.28969
C18F C 0.59806(10) 0.16455(18) 0.0943(2)
H22F H 0.61275 0.12141 0.05799
H23F H 0.57917 0.13061 0.13032
H24F H 0.57358 0.20627 0.03887
C19F C 0.67287(10) 0.26678(16) 0.12771(19)
H25F H 0.70417 0.29437 0.18602
H26F H 0.68386 0.22310 0.08531
H27F H 0.65119 0.31485 0.07813
C20F C 0.69720(12) 0.22592(18) 0.4772(2)
H28F H 0.68885 0.26862 0.52560
H29F H 0.66592 0.18675 0.43812
C21F C 0.75612(12) 0.33346(17) 0.4527(2)
H30F H 0.76458 0.36730 0.39746
H31F H 0.74931 0.37884 0.50060
#END
