
#######################################################################
#
#                 Cambridge Crystallographic Data Centre
#                                CCDC
#
#######################################################################
#
# If this CIF has been generated from an entry in the Cambridge
# Structural Database, then it will include bibliographic, chemical,
# crystal, experimental, refinement or atomic coordinate data resulting
# from the CCDC's data processing and validation procedures.
#
#######################################################################

data_CSD_CIF_UXAYAW
_audit_creation_date 2021-06-29
_audit_creation_method CSD-ConQuest-V1
_database_code_CSD UXAYAW
_database_code_depnum_ccdc_archive 'CCDC 2065101'
_chemical_formula_sum 'C57 H47 N6 Ni1 O18.5 U2'
_chemical_formula_moiety
;
(C27 H18 O16 U2 2-)n,n(C30 H24 N6 Ni1 2+),2.5n(H2 O1)
;
_journal_coden_Cambridge 1290
_journal_year 2021
_journal_name_full 'Eur.J.Inorg.Chem. '
loop_
_publ_author_name
"P.Thuery"
"J.Harrowfield"
_chemical_name_systematic
;
catena-(tris(2,2'-bipyridine)-nickel 
tris(\m-2-(carboxylatomethyl)benzoato)-tetraoxo-di-uranium hydrate)
;
_cell_volume   5594.292
_exptl_crystal_colour 'light orange yellow'
_exptl_crystal_density_diffrn 1.955
_exptl_crystal_description 'parallelepiped'
_diffrn_ambient_temperature 100
_refine_special_details
;
O19A and O19B disordered over two sites with occupancies 0.607:0.393.

;
#These two values have been output from a single CSD field.
_refine_ls_R_factor_gt 0.0177
_refine_ls_wR_factor_gt 0.0177
_symmetry_cell_setting monoclinic
_symmetry_space_group_name_H-M 'P 21/n'
_symmetry_Int_Tables_number 14
loop_
_symmetry_equiv_pos_site_id
_symmetry_equiv_pos_as_xyz
1 x,y,z
2 1/2-x,1/2+y,1/2-z
3 -x,-y,-z
4 -1/2+x,-1/2-y,-1/2+z
_cell_length_a 12.2376(4)
_cell_length_b 32.4606(10)
_cell_length_c 14.2062(4)
_cell_angle_alpha 90
_cell_angle_beta 97.5541(14)
_cell_angle_gamma 90
_cell_formula_units_Z 4
loop_
_atom_type_symbol
_atom_type_radius_bond
C 0.68
H 0.23
N 0.68
Ni 1.24
O 0.68
U 1.96
loop_
_atom_site_label
_atom_site_type_symbol
_atom_site_fract_x
_atom_site_fract_y
_atom_site_fract_z
U1 U 0.87611(2) 0.38708(2) 1.03596(2)
U2 U 0.17131(2) 0.38743(2) 0.66027(2)
O1 O 0.92093(16) 0.34650(6) 0.96678(13)
O2 O 0.83071(16) 0.42807(6) 1.10266(13)
O3 O 0.22353(16) 0.42603(6) 0.59100(14)
O4 O 0.12344(15) 0.34862(6) 0.73278(13)
O5 O 0.72866(16) 0.34262(7) 1.07749(15)
O6 O 0.68569(15) 0.38112(6) 0.95218(14)
O7 O 0.36125(15) 0.36500(7) 0.71799(13)
O8 O 0.29228(15) 0.41311(6) 0.80013(13)
O9 O 0.84298(15) 0.43268(6) 0.89528(13)
O10 O 1.00752(15) 0.43432(6) 0.97628(12)
O11 O 1.07586(14) 0.43806(6) 0.74971(12)
O12 O 0.98616(14) 0.41574(6) 0.61593(13)
O13 O 0.05568(15) 0.38919(6) 0.14157(13)
O14 O -0.07309(15) 0.34904(6) 0.18443(13)
O15 O 0.07435(15) 0.35689(6) 0.50919(13)
O16 O 0.23462(17) 0.33124(7) 0.56635(14)
C1 C 0.4528(2) 0.35351(9) 0.94107(19)
C2 C 0.5404(2) 0.34061(9) 1.00862(19)
C3 C 0.5210(2) 0.31242(9) 1.0785(2)
H1 H 0.58069 0.30374 1.12375
C4 C 0.4166(2) 0.29677(9) 1.0837(2)
H2 H 0.40445 0.27777 1.13207
C5 C 0.3302(2) 0.30936(10) 1.0167(2)
H3 H 0.25825 0.29869 1.01866
C6 C 0.3483(2) 0.33728(10) 0.9473(2)
H4 H 0.28805 0.34572 0.90237
C7 C 0.4690(2) 0.38480(9) 0.86438(19)
H5 H 0.48476 0.41208 0.89422
H6 H 0.53357 0.37667 0.83339
C8 C 0.3695(2) 0.38829(9) 0.79001(19)
C9 C 0.6569(2) 0.35568(9) 1.01181(19)
C10 C 0.8953(2) 0.49642(8) 0.76914(18)
C11 C 0.9094(2) 0.47378(8) 0.68775(18)
C12 C 0.8463(2) 0.48315(8) 0.60147(18)
H7 H 0.85648 0.46766 0.54656
C13 C 0.7691(2) 0.51449(9) 0.59406(19)
H8 H 0.72797 0.52103 0.53451
C14 C 0.7529(2) 0.53616(9) 0.6750(2)
H9 H 0.69877 0.55727 0.67126
C15 C 0.8149(2) 0.52734(8) 0.7612(2)
H10 H 0.80266 0.54254 0.81599
C16 C 0.9618(2) 0.48922(8) 0.86474(18)
H11 H 0.94893 0.51246 0.90703
H12 H 1.04099 0.48935 0.85687
C17 C 0.9363(2) 0.44963(8) 0.91249(17)
C18 C 0.9938(2) 0.44055(8) 0.68551(18)
C19 C 0.1249(2) 0.31902(9) 0.32284(18)
C20 C 0.1570(2) 0.30547(9) 0.41652(19)
C21 C 0.1985(3) 0.26589(10) 0.4338(2)
H13 H 0.21944 0.25707 0.49736
C22 C 0.2098(3) 0.23923(10) 0.3598(2)
H14 H 0.23700 0.21210 0.37231
C23 C 0.1809(3) 0.25254(10) 0.2672(2)
H15 H 0.18941 0.23464 0.21579
C24 C 0.1397(2) 0.29185(10) 0.2496(2)
H16 H 0.12091 0.30059 0.18574
C25 C 0.0825(2) 0.36236(9) 0.30164(18)
H17 H 0.03387 0.37020 0.34917
H18 H 0.14574 0.38163 0.30832
C26 C 0.0194(2) 0.36700(8) 0.20348(18)
C27 C 0.1536(2) 0.33298(9) 0.50095(19)
Ni1 Ni 0.13654(3) 0.13775(2) 0.94690(2)
N1 N 0.18136(17) 0.18731(7) 0.86654(15)
N2 N 0.04561(17) 0.18537(7) 0.99685(15)
N3 N 0.25641(17) 0.14841(7) 1.06234(15)
N4 N 0.09228(17) 0.09454(7) 1.04570(15)
N5 N 0.22542(18) 0.09494(7) 0.88070(15)
N6 N 0.01895(18) 0.11982(7) 0.83446(15)
C28 C 0.2502(2) 0.18600(8) 0.80114(18)
H19 H 0.28559 0.16069 0.79054
C29 C 0.2718(2) 0.22009(9) 0.7482(2)
H20 H 0.32270 0.21825 0.70325
C30 C 0.2192(2) 0.25659(9) 0.7612(2)
H21 H 0.23207 0.28019 0.72463
C31 C 0.1469(2) 0.25844(8) 0.82840(19)
H22 H 0.10908 0.28329 0.83848
C32 C 0.1307(2) 0.22335(8) 0.88083(17)
C33 C 0.0607(2) 0.22283(8) 0.95824(18)
C34 C 0.0161(2) 0.25833(9) 0.9915(2)
H23 H 0.02609 0.28417 0.96235
C35 C -0.0433(2) 0.25565(9) 1.0677(2)
H24 H -0.07452 0.27964 1.09169
C36 C -0.0567(2) 0.21764(9) 1.1084(2)
H25 H -0.09543 0.21514 1.16184
C37 C -0.0126(2) 0.18335(9) 1.06985(19)
H26 H -0.02424 0.15713 1.09652
C38 C 0.3364(2) 0.17677(8) 1.06726(19)
H27 H 0.34881 0.19059 1.01069
C39 C 0.4015(2) 0.18680(8) 1.15079(19)
H28 H 0.45883 0.20654 1.15129
C40 C 0.3818(2) 0.16762(9) 1.23387(19)
H29 H 0.42399 0.17460 1.29268
C41 C 0.2998(2) 0.13814(9) 1.23002(19)
H30 H 0.28479 0.12457 1.28616
C42 C 0.2397(2) 0.12865(8) 1.14283(18)
C43 C 0.1535(2) 0.09636(8) 1.13195(18)
C44 C 0.1354(2) 0.06980(8) 1.20503(19)
H31 H 0.18063 0.07116 1.26464
C45 C 0.0508(2) 0.04139(9) 1.1900(2)
H32 H 0.03674 0.02312 1.23924
C46 C -0.0128(2) 0.03993(9) 1.1024(2)
H33 H -0.07204 0.02092 1.09068
C47 C 0.0110(2) 0.06655(9) 1.0321(2)
H34 H -0.03206 0.06499 0.97144
C48 C 0.3306(2) 0.08454(9) 0.90650(19)
H35 H 0.37305 0.09995 0.95508
C49 C 0.3800(2) 0.05199(9) 0.8649(2)
H36 H 0.45560 0.04567 0.88346
C50 C 0.3176(3) 0.02900(9) 0.7961(2)
H37 H 0.34878 0.00579 0.76875
C51 C 0.2092(3) 0.04003(9) 0.7672(2)
H38 H 0.16515 0.02468 0.71941
C52 C 0.1659(2) 0.07385(8) 0.80901(18)
C53 C 0.0545(2) 0.09062(8) 0.77768(19)
C54 C -0.0089(2) 0.07863(9) 0.6935(2)
H39 H 0.01705 0.05783 0.65492
C55 C -0.1093(2) 0.09713(10) 0.6666(2)
H40 H -0.15329 0.08941 0.60920
C56 C -0.1452(2) 0.12718(10) 0.7246(2)
H41 H -0.21410 0.14045 0.70751
C57 C -0.0789(2) 0.13758(9) 0.8079(2)
H42 H -0.10392 0.15812 0.84762
O17 O 0.23638(17) 0.44363(8) 0.97566(15)
H43 H 0.253(3) 0.4372(12) 0.9223(14)
H44 H 0.1705(13) 0.4370(12) 0.976(2)
O18 O 0.5418(5) 0.50594(19) 1.0912(4)
H45 H 0.564(6) 0.499(3) 1.040(4)
H46 H 0.4733(15) 0.509(3) 1.080(6)
O19? O 0.6595(6) 0.4850(2) 1.0251(7)
O20 O 0.6544(4) 0.48908(14) 0.9328(4)
U1* U -0.12389(2) 0.38708(2) 0.03596(2)
U2* U 1.17131(2) 0.38743(2) 0.66027(2)
O11* O 0.07586(14) 0.43806(6) 0.74971(12)
O12* O -0.01384(14) 0.41574(6) 0.61593(13)
O13* O 1.05568(15) 0.38919(6) 1.14157(13)
O14* O 0.92691(15) 0.34904(6) 1.18443(13)
#END
