
#######################################################################
#
#                 Cambridge Crystallographic Data Centre
#                                CCDC
#
#######################################################################
#
# If this CIF has been generated from an entry in the Cambridge
# Structural Database, then it will include bibliographic, chemical,
# crystal, experimental, refinement or atomic coordinate data resulting
# from the CCDC's data processing and validation procedures.
#
#######################################################################

data_CSD_CIF_UXAYUQ
_audit_creation_date 2021-06-29
_audit_creation_method CSD-ConQuest-V1
_database_code_CSD UXAYUQ
_database_code_depnum_ccdc_archive 'CCDC 2065105'
_chemical_formula_sum 'C48 H58 N4 O16 U2'
_chemical_formula_moiety
;
(C30 H24 O16 U2 2-)n,2(C7 H14 N1 1+),2(C2 H3 N1)
;
_journal_coden_Cambridge 1290
_journal_year 2021
_journal_name_full 'Eur.J.Inorg.Chem. '
loop_
_publ_author_name
"P.Thuery"
"J.Harrowfield"
_chemical_name_systematic
;
catena-(bis(1-azoniabicyclo[2.2.2]octane) 
bis(\m-2,2'-(1,4-phenylene)diacetato)-tetraoxo-di-uranium acetonitrile 
solvate)
;
_cell_volume   1191.585
_exptl_crystal_colour 'light yellow'
_exptl_crystal_density_diffrn 1.983
_exptl_crystal_description 'platelet'
_diffrn_ambient_temperature 100
#These two values have been output from a single CSD field.
_refine_ls_R_factor_gt 0.0174
_refine_ls_wR_factor_gt 0.0174
_symmetry_cell_setting triclinic
_symmetry_space_group_name_H-M 'P -1'
_symmetry_Int_Tables_number 2
loop_
_symmetry_equiv_pos_site_id
_symmetry_equiv_pos_as_xyz
1 x,y,z
2 -x,-y,-z
_cell_length_a 10.2002(4)
_cell_length_b 10.7472(4)
_cell_length_c 13.1019(5)
_cell_angle_alpha 103.2498(18)
_cell_angle_beta 99.8555(19)
_cell_angle_gamma 116.2206(17)
_cell_formula_units_Z 1
loop_
_atom_type_symbol
_atom_type_radius_bond
C 0.68
H 0.23
N 0.68
O 0.68
U 1.96
loop_
_atom_site_label
_atom_site_type_symbol
_atom_site_fract_x
_atom_site_fract_y
_atom_site_fract_z
U1 U 0.38031(2) 0.84519(2) 0.72930(2)
O1 O 0.30202(19) 0.85894(18) 0.60282(13)
O2 O 0.46204(19) 0.82994(19) 0.85406(13)
O3 O 0.62927(19) 1.04156(18) 0.73902(14)
O4 O 0.58130(18) 0.81702(17) 0.65532(14)
O5 O 0.71158(18) 0.41793(17) 0.37267(14)
O6 O 0.86706(18) 0.36862(17) 0.29774(14)
O7 O 0.20715(18) 0.90180(17) 0.81570(13)
O8 O 0.42552(19) 1.09043(18) 0.83067(14)
C1 C 0.8237(2) 0.9191(2) 0.55995(18)
C2 C 0.9031(2) 0.8670(2) 0.61823(18)
H1 H 0.92789 0.89688 0.69630
C3 C 0.9466(2) 0.7721(2) 0.56376(18)
H2 H 1.00034 0.73733 0.60480
C4 C 0.9122(2) 0.7273(2) 0.44950(17)
C5 C 0.8353(2) 0.7814(2) 0.39099(18)
H3 H 0.81312 0.75347 0.31313
C6 C 0.7908(2) 0.8761(2) 0.44568(18)
H4 H 0.73763 0.91161 0.40482
C7 C 0.7784(3) 1.0223(2) 0.62089(19)
H5 H 0.73920 1.06045 0.56844
H6 H 0.87165 1.10766 0.67832
C8 C 0.6583(2) 0.9557(2) 0.67525(18)
C9 C 0.9588(2) 0.6234(2) 0.39190(18)
H7 H 1.05276 0.63899 0.44282
H8 H 0.98538 0.64886 0.32745
C10 C 0.8384(2) 0.4620(2) 0.35271(17)
C11 C 0.1308(2) 1.0708(2) 0.96692(17)
C12 C -0.0011(3) 1.0792(2) 0.93020(18)
H9 H -0.00287 1.13311 0.88226
C13 C -0.1300(3) 1.0097(2) 0.96282(18)
H10 H -0.21829 1.01709 0.93709
C14 C 0.2700(3) 1.1443(2) 0.93072(19)
H11 H 0.36144 1.20745 0.99719
H12 H 0.25644 1.20970 0.89291
C15 C 0.3012(2) 1.0390(2) 0.85445(17)
N1 N 0.6585(2) 0.5915(2) 0.70697(16)
H13 H 0.652(4) 0.659(4) 0.683(3)
C16 C 0.8229(3) 0.6462(3) 0.7705(2)
H14 H 0.86512 0.74251 0.82953
H15 H 0.88671 0.65988 0.72048
C17 C 0.8261(3) 0.5322(3) 0.82089(19)
H16 H 0.90976 0.51366 0.80804
H17 H 0.84606 0.57028 0.90154
C18 C 0.6010(3) 0.4582(3) 0.60628(19)
H18 H 0.65473 0.48679 0.55225
H19 H 0.48929 0.41459 0.57084
C19 C 0.6324(3) 0.3452(3) 0.6428(2)
H20 H 0.54029 0.24544 0.60712
H21 H 0.71895 0.34256 0.61984
C20 C 0.5582(3) 0.5527(3) 0.7796(2)
H22 H 0.45367 0.53073 0.74188
H23 H 0.60160 0.63706 0.84934
C21 C 0.5501(3) 0.4169(3) 0.80424(19)
H24 H 0.56838 0.43436 0.88422
H25 H 0.44676 0.32945 0.76390
C22 C 0.6720(3) 0.3887(2) 0.76825(19)
H26 H 0.67747 0.30866 0.79213
N2 N 0.2138(5) 0.4513(3) 0.8846(2)
C23 C 0.2181(4) 0.5588(3) 0.9271(2)
C24 C 0.2228(3) 0.6952(3) 0.9828(2)
H27 H 0.19384 0.73446 0.92787
H28 H 0.32706 0.76771 1.03246
H29 H 0.15052 0.67511 1.02561
O7A O -0.20715(18) 1.09820(17) 1.18430(13)
O8A O -0.42552(19) 0.90957(18) 1.16933(14)
C11A C -0.1308(2) 0.9292(2) 1.03308(17)
C12A C 0.0011(3) 0.9208(2) 1.06980(18)
H9A H 0.00287 0.86689 1.11774
C13A C 0.1300(3) 0.9903(2) 1.03718(18)
H10A H 0.21829 0.98291 1.06291
C14A C -0.2700(3) 0.8557(2) 1.06928(19)
H11A H -0.36144 0.79255 1.00281
H12A H -0.25644 0.79030 1.10709
C15A C -0.3012(2) 0.9610(2) 1.14555(17)
U1A U -0.38031(2) 1.15481(2) 1.27070(2)
O1A O -0.30202(19) 1.14106(18) 1.39718(13)
O2A O -0.46204(19) 1.17006(19) 1.14594(13)
O3A O -0.62927(19) 0.95844(18) 1.26098(14)
O4A O -0.58130(18) 1.18298(17) 1.34468(14)
O5A O -0.71158(18) 1.58207(17) 1.62733(14)
O6A O -0.86706(18) 1.63138(17) 1.70226(14)
C1A C -0.8237(2) 1.0809(2) 1.44005(18)
C2A C -0.9031(2) 1.1330(2) 1.38177(18)
H1A H -0.92789 1.10312 1.30370
C3A C -0.9466(2) 1.2279(2) 1.43624(18)
H2A H -1.00034 1.26267 1.39520
C4A C -0.9122(2) 1.2727(2) 1.55050(17)
C5A C -0.8353(2) 1.2186(2) 1.60901(18)
H3A H -0.81312 1.24653 1.68687
C6A C -0.7908(2) 1.1239(2) 1.55432(18)
H4A H -0.73763 1.08839 1.59518
C7A C -0.7784(3) 0.9777(2) 1.37911(19)
H5A H -0.73920 0.93955 1.43156
H6A H -0.87165 0.89234 1.32167
C8A C -0.6583(2) 1.0443(2) 1.32475(18)
C9A C -0.9588(2) 1.3766(2) 1.60810(18)
H7A H -1.05276 1.36101 1.55718
H8A H -0.98538 1.35114 1.67255
C10A C -0.8384(2) 1.5380(2) 1.64729(17)
U1* U -0.61969(2) 1.84519(2) 1.72930(2)
U1A* U 0.61969(2) 0.15481(2) 0.27070(2)
O5* O -0.28842(18) 1.41793(17) 1.37267(14)
O5A* O 0.28842(18) 0.58207(17) 0.62733(14)
O6* O -0.13294(18) 1.36862(17) 1.29774(14)
O6A* O 0.13294(18) 0.63138(17) 0.70226(14)
#END
