
#######################################################################
#
#                 Cambridge Crystallographic Data Centre
#                                CCDC
#
#######################################################################
#
# If this CIF has been generated from an entry in the Cambridge
# Structural Database, then it will include bibliographic, chemical,
# crystal, experimental, refinement or atomic coordinate data resulting
# from the CCDC's data processing and validation procedures.
#
#######################################################################

data_CSD_CIF_UXEDEH
_audit_creation_date 2011-10-11
_audit_creation_method CSD-ConQuest-V1
_database_code_CSD UXEDEH
_database_code_depnum_ccdc_archive 'CCDC 814183'
_chemical_formula_sum 'C5 H10 Er1 N1 O8'
_chemical_formula_moiety
;
(C4 H4 Er1 O8 1-)n,n(C1 H6 N1 1+)
;
_journal_coden_Cambridge 1350
_journal_volume 13
_journal_year 2011
_journal_page_first 5285
_journal_name_full 'CrystEngComm '
loop_
_publ_author_name
"Bin Liu"
"Hai-Bin Zheng"
"Zhe-Ming Wang"
"Song Gao"
_chemical_name_systematic
;
catena-(tetrakis(\m~2~-formato)-erbium methylammonium)
;
_cell_volume    457.215
_exptl_crystal_colour 'pink'
_exptl_crystal_density_diffrn 2.756
_exptl_crystal_description 'block'
_diffrn_ambient_temperature 290
#These two values have been output from a single CSD field.
_refine_ls_R_factor_gt 0.0214
_refine_ls_wR_factor_gt 0.0214
_symmetry_cell_setting monoclinic
_symmetry_space_group_name_H-M 'P 21'
_symmetry_Int_Tables_number 4
loop_
_symmetry_equiv_pos_site_id
_symmetry_equiv_pos_as_xyz
1 x,y,z
2 -x,1/2+y,-z
_cell_length_a 6.6118(1)
_cell_length_b 7.5662(2)
_cell_length_c 9.2756(2)
_cell_angle_alpha 90
_cell_angle_beta 99.8267(12)
_cell_angle_gamma 90
_cell_formula_units_Z 2
loop_
_atom_type_symbol
_atom_type_radius_bond
C 0.68
H 0.23
Er 1.89
N 0.68
O 0.68
loop_
_atom_site_label
_atom_site_type_symbol
_atom_site_fract_x
_atom_site_fract_y
_atom_site_fract_z
Er1 Er 0.16154(2) 0.27135(6) 0.292989(16)
O1 O 0.3876(6) 0.3498(5) 0.5202(4)
O2 O 0.6247(6) 0.5219(5) 0.6536(4)
O3 O 0.4735(5) 0.3379(5) 0.2242(4)
O4 O 0.8086(5) 0.3631(6) 0.2380(5)
O5 O 0.1150(6) 0.3697(5) 0.0427(4)
O6 O 0.0019(6) 0.5333(5) -0.1529(4)
O7 O 0.1346(6) 0.5733(5) 0.3343(5)
O8 O -0.0175(6) 0.6331(5) 0.5251(4)
C1 C 0.5283(8) 0.4661(7) 0.5363(6)
H1 H 0.56230 0.51420 0.45130
C2 C 0.6517(6) 0.2768(16) 0.2422(5)
H2 H 0.66720 0.15620 0.26020
C3 C 0.0126(12) 0.4922(8) -0.0208(8)
H3 H -0.06340 0.56000 0.03430
C4 C 0.0700(8) 0.6754(8) 0.4216(6)
H4 H 0.08920 0.79560 0.40790
C5 C 0.5364(11) 0.2366(9) 0.8891(7)
H5 H 0.63940 0.21690 0.82940
H6 H 0.54490 0.14570 0.96220
H7 H 0.55820 0.34980 0.93600
N1 N 0.3305(8) 0.2327(7) 0.7963(6)
H8 H 0.33670 0.28300 0.71050
H9 H 0.24190 0.29150 0.84060
H10 H 0.28920 0.12110 0.78210
Er1* Er 1.16154(2) 0.27135(6) 0.292989(16)
Er1A Er -0.16154(2) 0.77135(6) -0.292989(16)
Er1A* Er -0.16154(2) 0.77135(6) 0.707011(16)
Er1A** Er 0.83846(2) 0.77135(6) 0.707011(16)
O2A O 0.3753(6) 0.0219(5) 0.3464(4)
O4* O -0.1914(5) 0.3631(6) 0.2380(5)
O6A O -0.0019(6) 0.0333(5) 0.1529(4)
O8A O 0.0175(6) 0.1331(5) 0.4749(4)
#END
