
#######################################################################
#
#                 Cambridge Crystallographic Data Centre
#                                CCDC
#
#######################################################################
#
# If this CIF has been generated from an entry in the Cambridge
# Structural Database, then it will include bibliographic, chemical,
# crystal, experimental, refinement or atomic coordinate data resulting
# from the CCDC's data processing and validation procedures.
#
#######################################################################

data_CSD_CIF_UXEDIL
_audit_creation_date 2011-10-10
_audit_creation_method CSD-ConQuest-V1
_database_code_CSD UXEDIL
_database_code_depnum_ccdc_archive 'CCDC 814184'
_chemical_formula_sum 'C5 H9 Er1 N2 O8'
_chemical_formula_moiety
;
(C4 H4 Er1 O8 1-)n,n(C1 H5 N2 1+)
;
_journal_coden_Cambridge 1350
_journal_volume 13
_journal_year 2011
_journal_page_first 5285
_journal_name_full 'CrystEngComm '
loop_
_publ_author_name
"Bin Liu"
"Hai-Bin Zheng"
"Zhe-Ming Wang"
"Song Gao"
_chemical_name_systematic
;
catena-(tetrakis(\m~2~-formato)-erbium aminomethaniminium)
;
_cell_volume   1030.333
_exptl_crystal_colour 'pink'
_exptl_crystal_density_diffrn 2.53
_exptl_crystal_description 'column'
_diffrn_ambient_temperature 290
#These two values have been output from a single CSD field.
_refine_ls_R_factor_gt 0.0224
_refine_ls_wR_factor_gt 0.0224
_symmetry_cell_setting orthorhombic
_symmetry_space_group_name_H-M 'C 2 2 21'
_symmetry_Int_Tables_number 20
loop_
_symmetry_equiv_pos_site_id
_symmetry_equiv_pos_as_xyz
1 x,y,z
2 -x,-y,1/2+z
3 -x,y,1/2-z
4 x,-y,-z
5 1/2+x,1/2+y,z
6 1/2-x,1/2-y,1/2+z
7 1/2-x,1/2+y,1/2-z
8 1/2+x,1/2-y,-z
_cell_length_a 6.6552(2)
_cell_length_b 18.3549(5)
_cell_length_c 8.4346(3)
_cell_angle_alpha 90
_cell_angle_beta 90
_cell_angle_gamma 90
_cell_formula_units_Z 4
loop_
_atom_type_symbol
_atom_type_radius_bond
C 0.68
H 0.23
Er 1.89
N 0.68
O 0.68
loop_
_atom_site_label
_atom_site_type_symbol
_atom_site_fract_x
_atom_site_fract_y
_atom_site_fract_z
Er1 Er 0.50000 0.357292(12) 0.75000
O1 O 0.3207(5) 0.25808(19) 0.8471(4)
O2 O 0.1743(5) 0.18375(19) 1.0189(4)
O3 O 0.1656(5) 0.40540(16) 0.7687(9)
O4 O 0.4889(12) 0.45012(16) 0.5703(4)
C1 C 0.2371(12) 0.2439(4) 0.9753(8)
H1 H 0.22000 0.28250 1.04550
C2 C 0.00000 0.3743(3) 0.75000
H2 H 0.00000 0.32360 0.75000
C3 C 0.5741(11) 0.50000 0.50000
H3 H 0.71380 0.50000 0.50000
C4 C 0.50000 0.0953(3) 0.75000
H4 H 0.50000 0.14590 0.75000
N1 N 0.3634(7) 0.0630(3) 0.8311(5)
H5 H 0.35890 0.01620 0.83370
H6 H 0.27630 0.08810 0.88280
Er1* Er -0.50000 0.357292(12) 0.75000
Er1A Er 0.50000 0.642708(12) 0.25000
Er1E Er 0.00000 0.142708(12) 1.25000
Er1E* Er 1.00000 0.142708(12) 0.25000
O1B O 0.6793(5) 0.25808(19) 0.6529(4)
O2B O 0.8257(5) 0.18375(19) 0.4811(4)
O2E O 0.3257(5) 0.31625(19) 0.5189(4)
O2G O 0.6743(5) 0.31625(19) 0.9811(4)
O3B O -0.1656(5) 0.40540(16) 0.7313(9)
O3B* O 0.8344(5) 0.40540(16) 0.7313(9)
O4C O 0.4889(12) 0.54988(16) 0.4297(4)
O4B O 0.5111(12) 0.45012(16) 0.9297(4)
C1B C 0.7629(12) 0.2439(4) 0.5247(8)
H1B H 0.78000 0.28250 0.45450
N1B N 0.6366(7) 0.0630(3) 0.6689(5)
H5B H 0.64110 0.01620 0.66630
H6B H 0.72370 0.08810 0.61720
#END
