
#######################################################################
#
#                 Cambridge Crystallographic Data Centre
#                                CCDC
#
#######################################################################
#
# If this CIF has been generated from an entry in the Cambridge
# Structural Database, then it will include bibliographic, chemical,
# crystal, experimental, refinement or atomic coordinate data resulting
# from the CCDC's data processing and validation procedures.
#
#######################################################################

data_CSD_CIF_UXEDIL02
_audit_creation_date 2015-11-05
_audit_creation_method CSD-ConQuest-V1
_database_code_CSD UXEDIL02
_database_code_depnum_ccdc_archive 'CCDC 1412167'
_chemical_formula_sum 'C5 H9 Er1 N2 O8'
_chemical_formula_moiety
;
(C4 H4 Er1 O8 1-)n,n(C1 H5 N2 1+)
;
_journal_coden_Cambridge 208
_journal_volume 233
_journal_year 2016
_journal_page_first 289
_journal_name_full 'J.Solid State Chem. '
loop_
_publ_author_name
"Zhanrui Zhang"
"Xingxing Jiang"
"Guoqiang Feng"
"Zheshuai Lin"
"Bing Hu"
"Wei Li"
_chemical_name_systematic
;
catena-[aminomethaniminium tetrakis(\m-formato)-erbium]
;
_cell_volume   1024.981
_exptl_crystal_colour 'pink'
_exptl_crystal_density_diffrn 2.543
_exptl_crystal_description 'column'
_diffrn_ambient_temperature 120
#These two values have been output from a single CSD field.
_refine_ls_R_factor_gt 0.0208
_refine_ls_wR_factor_gt 0.0208
_symmetry_cell_setting orthorhombic
_symmetry_space_group_name_H-M 'C 2 2 21'
_symmetry_Int_Tables_number 20
loop_
_symmetry_equiv_pos_site_id
_symmetry_equiv_pos_as_xyz
1 x,y,z
2 -x,-y,1/2+z
3 x,-y,-z
4 -x,y,1/2-z
5 1/2+x,1/2+y,z
6 1/2-x,1/2-y,1/2+z
7 1/2+x,1/2-y,-z
8 1/2-x,1/2+y,1/2-z
_cell_length_a 6.6318(2)
_cell_length_b 18.3719(5)
_cell_length_c 8.4126(2)
_cell_angle_alpha 90
_cell_angle_beta 90
_cell_angle_gamma 90
_cell_formula_units_Z 4
loop_
_atom_type_symbol
_atom_type_radius_bond
C 0.68
H 0.23
Er 1.89
N 0.68
O 0.68
loop_
_atom_site_label
_atom_site_type_symbol
_atom_site_fract_x
_atom_site_fract_y
_atom_site_fract_z
Er1 Er 0.00000 0.14293(2) 0.25000
O1 O -0.0144(12) 0.0501(2) 0.4301(6)
O2 O -0.3346(7) 0.0951(2) 0.2271(8)
O3 O 0.3202(7) 0.2571(3) -0.1547(6)
C1 C 0.2344(13) 0.2436(5) -0.0253(10)
H1 H 0.21320 0.28300 0.04590
O4 O 0.1753(8) 0.1826(3) 0.0166(6)
C2 C 0.0756(15) 0.00000 0.50000
H2 H 0.21880 0.00000 0.50000
C3 C -0.50000 0.1266(4) 0.25000
H3 H -0.50000 0.17830 0.25000
C4 C -0.50000 -0.0940(5) 0.25000
H4 H -0.50000 -0.14570 0.25000
N1 N -0.3607(9) -0.0619(4) 0.3320(8)
H5 H -0.35530 -0.01410 0.33520
H6 H -0.27140 -0.08790 0.38460
O1B O -0.0144(12) -0.0501(2) 0.5699(6)
O2C O -0.6654(7) 0.0951(2) 0.2729(8)
O3F O -0.1798(7) 0.2429(3) 0.1547(6)
C1F C -0.2656(13) 0.2564(5) 0.0253(10)
H1F H -0.28680 0.21700 -0.04590
O4F O -0.3247(8) 0.3174(3) -0.0166(6)
Er1* Er -1.00000 0.14293(2) 0.25000
Er1A Er 0.00000 -0.14293(2) 0.75000
Er1E Er -0.50000 0.35707(2) -0.25000
Er1E* Er 0.50000 0.35707(2) -0.25000
O1C O 0.0144(12) 0.0501(2) 0.0699(6)
O2C* O 0.3346(7) 0.0951(2) 0.2729(8)
O3E O 0.1798(7) 0.2429(3) 0.3453(6)
O4C O -0.1753(8) 0.1826(3) 0.4834(6)
N1C N -0.6393(9) -0.0619(4) 0.1680(8)
H5C H -0.64470 -0.01410 0.16480
H6C H -0.72860 -0.08790 0.11540
#END
