
#######################################################################
#
#                 Cambridge Crystallographic Data Centre
#                                CCDC
#
#######################################################################
#
# If this CIF has been generated from an entry in the Cambridge
# Structural Database, then it will include bibliographic, chemical,
# crystal, experimental, refinement or atomic coordinate data resulting
# from the CCDC's data processing and validation procedures.
#
#######################################################################

data_CSD_CIF_UXEDAD
_audit_creation_date 2011-10-11
_audit_creation_method CSD-ConQuest-V1
_database_code_CSD UXEDAD
_database_code_depnum_ccdc_archive 'CCDC 814182'
_chemical_formula_sum 'C4 H8 Er1 N1 O8'
_chemical_formula_moiety
;
(C4 H4 Er1 O8 1-)n,n(H4 N1 1+)
;
_journal_coden_Cambridge 1350
_journal_volume 13
_journal_year 2011
_journal_page_first 5285
_journal_name_full 'CrystEngComm '
loop_
_publ_author_name
"Bin Liu"
"Hai-Bin Zheng"
"Zhe-Ming Wang"
"Song Gao"
_chemical_name_systematic
;
catena-(tetrakis(\m~2~-formato)-erbium ammonium)
;
_cell_volume    427.633
_exptl_crystal_colour 'pink'
_exptl_crystal_density_diffrn 2.838
_exptl_crystal_description 'block'
_diffrn_ambient_temperature 290
#These two values have been output from a single CSD field.
_refine_ls_R_factor_gt 0.0259
_refine_ls_wR_factor_gt 0.0259
_symmetry_cell_setting monoclinic
_symmetry_space_group_name_H-M 'P 21'
_symmetry_Int_Tables_number 4
loop_
_symmetry_equiv_pos_site_id
_symmetry_equiv_pos_as_xyz
1 x,y,z
2 -x,1/2+y,-z
_cell_length_a 6.5447(2)
_cell_length_b 7.4781(3)
_cell_length_c 8.7578(3)
_cell_angle_alpha 90
_cell_angle_beta 93.8955(14)
_cell_angle_gamma 90
_cell_formula_units_Z 2
loop_
_atom_type_symbol
_atom_type_radius_bond
C 0.68
H 0.23
Er 1.89
N 0.68
O 0.68
loop_
_atom_site_label
_atom_site_type_symbol
_atom_site_fract_x
_atom_site_fract_y
_atom_site_fract_z
Er1 Er 0.18579(3) 0.27131(5) 0.28931(2)
O1 O 0.3950(7) 0.3409(6) 0.5203(6)
O2 O 0.6090(7) 0.5149(6) 0.6606(5)
O3 O 0.5042(7) 0.3315(6) 0.1899(6)
O4 O 0.8375(7) 0.3605(8) 0.2378(6)
O5 O 0.1487(7) 0.3865(6) 0.0312(5)
O6 O -0.0453(9) 0.5325(7) -0.1469(5)
O7 O 0.1710(7) 0.5797(7) 0.3220(6)
O8 O -0.0175(8) 0.6349(7) 0.5174(6)
C1 C 0.5309(11) 0.4603(9) 0.5354(8)
H1 H 0.57610 0.51120 0.44690
C2 C 0.6798(8) 0.269(2) 0.2273(6)
H2 H 0.69110 0.14730 0.24800
C3 C 0.0303(16) 0.5097(15) -0.0152(12)
H3 H -0.00440 0.59310 0.05740
C4 C 0.0672(10) 0.6806(9) 0.4020(7)
H4 H 0.05330 0.79940 0.37150
N1 N 0.4392(13) 0.2209(8) 0.8343(8)
H5 H 0.383(10) 0.233(11) 0.744(5)
H6 H 0.550(9) 0.282(11) 0.841(8)
H7 H 0.467(13) 0.112(6) 0.851(9)
H8 H 0.359(9) 0.260(11) 0.898(7)
Er1* Er 1.18579(3) 0.27131(5) 0.28931(2)
Er1A Er -0.18579(3) 0.77131(5) -0.28931(2)
Er1A* Er -0.18579(3) 0.77131(5) 0.71069(2)
Er1A** Er 0.81421(3) 0.77131(5) 0.71069(2)
O2A O 0.3910(7) 0.0149(6) 0.3394(5)
O4* O -0.1625(7) 0.3605(8) 0.2378(6)
O6A O 0.0453(9) 0.0325(7) 0.1469(5)
O8A O 0.0175(8) 0.1349(7) 0.4826(6)
#END
