
#######################################################################
#
#                 Cambridge Crystallographic Data Centre
#                                CCDC
#
#######################################################################
#
# If this CIF has been generated from an entry in the Cambridge
# Structural Database, then it will include bibliographic, chemical,
# crystal, experimental, refinement or atomic coordinate data resulting
# from the CCDC's data processing and validation procedures.
#
#######################################################################

data_CSD_CIF_UXEDIL03
_audit_creation_date 2015-11-05
_audit_creation_method CSD-ConQuest-V1
_database_code_CSD UXEDIL03
_database_code_depnum_ccdc_archive 'CCDC 1412173'
_chemical_formula_sum 'C5 H9 Er1 N2 O8'
_chemical_formula_moiety
;
(C4 H4 Er1 O8 1-)n,n(C1 H5 N2 1+)
;
_journal_coden_Cambridge 208
_journal_volume 233
_journal_year 2016
_journal_page_first 289
_journal_name_full 'J.Solid State Chem. '
loop_
_publ_author_name
"Zhanrui Zhang"
"Xingxing Jiang"
"Guoqiang Feng"
"Zheshuai Lin"
"Bing Hu"
"Wei Li"
_chemical_name_systematic
;
catena-[aminomethaniminium tetrakis(\m-formato)-erbium]
;
_cell_volume   1028.874
_exptl_crystal_colour 'pink'
_exptl_crystal_density_diffrn 2.533
_exptl_crystal_description 'column'
_diffrn_ambient_temperature 300
#These two values have been output from a single CSD field.
_refine_ls_R_factor_gt 0.0217
_refine_ls_wR_factor_gt 0.0217
_symmetry_cell_setting orthorhombic
_symmetry_space_group_name_H-M 'C 2 2 21'
_symmetry_Int_Tables_number 20
loop_
_symmetry_equiv_pos_site_id
_symmetry_equiv_pos_as_xyz
1 x,y,z
2 -x,-y,1/2+z
3 x,-y,-z
4 -x,y,1/2-z
5 1/2+x,1/2+y,z
6 1/2-x,1/2-y,1/2+z
7 1/2+x,1/2-y,-z
8 1/2-x,1/2+y,1/2-z
_cell_length_a 6.6514(2)
_cell_length_b 18.3470(5)
_cell_length_c 8.4311(2)
_cell_angle_alpha 90
_cell_angle_beta 90
_cell_angle_gamma 90
_cell_formula_units_Z 4
loop_
_atom_type_symbol
_atom_type_radius_bond
C 0.68
H 0.23
Er 1.89
N 0.68
O 0.68
loop_
_atom_site_label
_atom_site_type_symbol
_atom_site_fract_x
_atom_site_fract_y
_atom_site_fract_z
Er1 Er 0.00000 0.14272(2) 0.25000
O1 O -0.0127(16) 0.0501(3) 0.4304(7)
O2 O -0.3353(7) 0.0951(3) 0.2286(11)
O3 O 0.3194(9) 0.2579(3) -0.1528(7)
C1 C 0.2370(18) 0.2440(7) -0.0251(11)
H1 H 0.21970 0.28260 0.04510
O4 O 0.1751(9) 0.1836(3) 0.0182(7)
C2 C 0.0759(18) 0.00000 0.50000
H2 H 0.21570 0.00000 0.50000
C3 C -0.50000 0.1263(5) 0.25000
H3 H -0.50000 0.17700 0.25000
C4 C -0.50000 -0.0957(5) 0.25000
H4 H -0.50000 -0.14630 0.25000
N1 N -0.3619(12) -0.0627(4) 0.332(1)
H5 H -0.35780 -0.01590 0.33440
H6 H -0.27450 -0.08780 0.38390
O1B O -0.0127(16) -0.0501(3) 0.5696(7)
O2C O -0.6647(7) 0.0951(3) 0.2714(11)
O3F O -0.1806(9) 0.2421(3) 0.1528(7)
C1F C -0.2630(18) 0.2560(7) 0.0251(11)
H1F H -0.28030 0.21740 -0.04510
O4F O -0.3249(9) 0.3164(3) -0.0182(7)
Er1* Er -1.00000 0.14272(2) 0.25000
Er1A Er 0.00000 -0.14272(2) 0.75000
Er1E Er -0.50000 0.35728(2) -0.25000
Er1E* Er 0.50000 0.35728(2) -0.25000
O1C O 0.0127(16) 0.0501(3) 0.0696(7)
O2C* O 0.3353(7) 0.0951(3) 0.2714(11)
O3E O 0.1806(9) 0.2421(3) 0.3472(7)
O4C O -0.1751(9) 0.1836(3) 0.4818(7)
N1C N -0.6381(12) -0.0627(4) 0.168(1)
H5C H -0.64220 -0.01590 0.16560
H6C H -0.72550 -0.08780 0.11610
#END
