
#######################################################################
#
#                 Cambridge Crystallographic Data Centre
#                                CCDC
#
#######################################################################
#
# If this CIF has been generated from an entry in the Cambridge
# Structural Database, then it will include bibliographic, chemical,
# crystal, experimental, refinement or atomic coordinate data resulting
# from the CCDC's data processing and validation procedures.
#
#######################################################################

data_CSD_CIF_UXEDOR
_audit_creation_date 2011-10-11
_audit_creation_method CSD-ConQuest-V1
_database_code_CSD UXEDOR
_database_code_depnum_ccdc_archive 'CCDC 814185'
_chemical_formula_sum 'C5 H10 Er1 N3 O8'
_chemical_formula_moiety
;
(C4 H4 Er1 O8 1-)n,n(C1 H6 N3 1+)
;
_journal_coden_Cambridge 1350
_journal_volume 13
_journal_year 2011
_journal_page_first 5285
_journal_name_full 'CrystEngComm '
loop_
_publ_author_name
"Bin Liu"
"Hai-Bin Zheng"
"Zhe-Ming Wang"
"Song Gao"
_chemical_name_systematic
;
catena-(tris(\m~2~-formato)-formato-erbium diaminomethaniminium)
;
_cell_volume   1083.559
_exptl_crystal_colour 'pink'
_exptl_crystal_density_diffrn 2.497
_exptl_crystal_description 'column'
_diffrn_ambient_temperature 290
#These two values have been output from a single CSD field.
_refine_ls_R_factor_gt 0.0317
_refine_ls_wR_factor_gt 0.0317
_symmetry_cell_setting orthorhombic
_symmetry_space_group_name_H-M 'P 21 21 21'
_symmetry_Int_Tables_number 19
loop_
_symmetry_equiv_pos_site_id
_symmetry_equiv_pos_as_xyz
1 x,y,z
2 1/2-x,-y,1/2+z
3 -x,1/2+y,1/2-z
4 1/2+x,1/2-y,-z
_cell_length_a 6.6456(3)
_cell_length_b 8.0898(3)
_cell_length_c 20.1549(10)
_cell_angle_alpha 90
_cell_angle_beta 90
_cell_angle_gamma 90
_cell_formula_units_Z 4
loop_
_atom_type_symbol
_atom_type_radius_bond
C 0.68
H 0.23
Er 1.89
N 0.68
O 0.68
loop_
_atom_site_label
_atom_site_type_symbol
_atom_site_fract_x
_atom_site_fract_y
_atom_site_fract_z
Er1 Er 0.49295(6) 0.44471(3) 0.619538(12)
O1 O 0.5091(9) 0.5861(5) 0.7186(2)
O2 O 0.4999(11) 0.7213(5) 0.81347(19)
O3 O 0.3158(7) 0.2326(7) 0.5631(2)
O4 O 0.1668(7) 0.0980(6) 0.4800(2)
O5 O 0.1600(7) 0.4577(9) 0.6596(3)
O6 O -0.1725(8) 0.4344(9) 0.6553(3)
O7 O 0.5958(8) 0.7221(7) 0.5910(3)
O8 O 0.3242(7) 0.6269(7) 0.5431(3)
C1 C 0.421(1) 0.6660(9) 0.7613(4)
H1 H 0.28500 0.68740 0.75460
C2 C 0.2529(13) 0.2251(16) 0.5058(5)
H2 H 0.26860 0.31810 0.47920
C3 C -0.0035(13) 0.4688(8) 0.6308(3)
H3 H -0.00140 0.50590 0.58710
C4 C 0.4464(12) 0.7373(11) 0.5528(4)
H4 H 0.42830 0.83750 0.53100
C5 C 0.0124(14) 0.4318(8) 0.8370(3)
N1 N 0.1349(9) 0.3474(8) 0.7980(3)
H5 H 0.23310 0.29230 0.81480
H6 H 0.11640 0.34770 0.75570
N2 N -0.1407(9) 0.5140(8) 0.8105(4)
H7 H -0.22240 0.56760 0.83570
H8 H -0.15820 0.51370 0.76830
N3 N 0.0393(10) 0.4322(7) 0.9016(3)
H9 H 0.13720 0.37730 0.91870
H10 H -0.04090 0.48740 0.92670
Er1* Er -0.50705(6) 0.44471(3) 0.619538(12)
Er1B Er 0.50705(6) 0.94471(3) 0.880462(12)
Er1C Er -0.00705(6) 0.05529(3) 0.380462(12)
O2B O 0.5001(11) 0.2213(5) 0.68653(19)
O4C O 0.6668(7) 0.4020(6) 0.5200(2)
O6* O 0.8275(8) 0.4344(9) 0.6553(3)
#END
