
#######################################################################
#
#                 Cambridge Crystallographic Data Centre
#                                CCDC
#
#######################################################################
#
# If this CIF has been generated from an entry in the Cambridge
# Structural Database, then it will include bibliographic, chemical,
# crystal, experimental, refinement or atomic coordinate data resulting
# from the CCDC's data processing and validation procedures.
#
#######################################################################

data_CSD_CIF_UXEFAF
_audit_creation_date 2011-10-11
_audit_creation_method CSD-ConQuest-V1
_database_code_CSD UXEFAF
_database_code_depnum_ccdc_archive 'CCDC 814187'
_chemical_formula_sum 'C6 H12 Er1 N1 O8'
_chemical_formula_moiety
;
(C4 H4 Er1 O8 1-)n,n(C2 H8 N1 1+)
;
_journal_coden_Cambridge 1350
_journal_volume 13
_journal_year 2011
_journal_page_first 5285
_journal_name_full 'CrystEngComm '
loop_
_publ_author_name
"Bin Liu"
"Hai-Bin Zheng"
"Zhe-Ming Wang"
"Song Gao"
_chemical_name_systematic
;
catena-(tris(\m~2~-formato)-formato-erbium ethylammonium)
;
_cell_volume    541.990
_exptl_crystal_colour 'pink'
_exptl_crystal_density_diffrn 2.411
_exptl_crystal_description 'block'
_diffrn_ambient_temperature 290
#These two values have been output from a single CSD field.
_refine_ls_R_factor_gt 0.0252
_refine_ls_wR_factor_gt 0.0252
_symmetry_cell_setting monoclinic
_symmetry_space_group_name_H-M 'P 21'
_symmetry_Int_Tables_number 4
loop_
_symmetry_equiv_pos_site_id
_symmetry_equiv_pos_as_xyz
1 x,y,z
2 -x,1/2+y,-z
_cell_length_a 6.6349(2)
_cell_length_b 8.6371(3)
_cell_length_c 9.6727(3)
_cell_angle_alpha 90
_cell_angle_beta 102.101(2)
_cell_angle_gamma 90
_cell_formula_units_Z 2
loop_
_atom_type_symbol
_atom_type_radius_bond
C 0.68
H 0.23
Er 1.89
N 0.68
O 0.68
loop_
_atom_site_label
_atom_site_type_symbol
_atom_site_fract_x
_atom_site_fract_y
_atom_site_fract_z
Er1 Er 0.10557(3) 0.23094(5) 0.270764(19)
O1 O 0.0734(6) 0.4561(5) 0.1262(4)
O2 O 0.0021(7) 0.6179(4) -0.0535(4)
O3 O 0.1422(7) 0.4253(5) 0.4323(4)
O4 O 0.0634(7) 0.5869(6) 0.5883(5)
O5 O 0.4235(7) 0.3007(5) 0.2288(5)
O6 O 0.7542(7) 0.3053(6) 0.2208(5)
O7 O 0.3741(7) 0.1305(5) 0.4793(4)
O8 O 0.2807(7) -0.0201(5) 0.2942(4)
C1 C -0.021(2) 0.4968(14) 0.0102(14)
H1 H -0.12150 0.42910 -0.03620
C2 C 0.0411(17) 0.5141(14) 0.4826(13)
H2 H -0.08770 0.53040 0.42440
C3 C 0.599(1) 0.2509(18) 0.2396(7)
H3 H 0.61280 0.14810 0.26870
C4 C 0.3831(10) 0.0043(7) 0.4165(7)
H4 H 0.46860 -0.07350 0.46230
C5 C 0.5289(15) 0.6713(8) 0.1348(8)
H5 H 0.44590 0.69320 0.04180
H6 H 0.59120 0.57020 0.13130
C6 C 0.695(2) 0.7901(11) 0.1705(13)
H7 H 0.63420 0.89150 0.16120
H8 H 0.78780 0.78020 0.10730
H9 H 0.76850 0.77500 0.26600
N1 N 0.3934(8) 0.6679(6) 0.2396(5)
H10 H 0.46920 0.64900 0.32530
H11 H 0.29930 0.59380 0.21630
H12 H 0.33070 0.75900 0.23980
Er1* Er 1.10557(3) 0.23094(5) 0.270764(19)
Er1A Er -0.10557(3) 0.73094(5) -0.270764(19)
Er1A* Er -0.10557(3) 0.73094(5) 0.729236(19)
O2A O -0.0021(7) 0.1179(4) 0.0535(4)
O4A O -0.0634(7) 0.0869(6) 0.4117(5)
O6* O -0.2458(7) 0.3053(6) 0.2208(5)
#END
