
#######################################################################
#
#                 Cambridge Crystallographic Data Centre
#                                CCDC
#
#######################################################################
#
# If this CIF has been generated from an entry in the Cambridge
# Structural Database, then it will include bibliographic, chemical,
# crystal, experimental, refinement or atomic coordinate data resulting
# from the CCDC's data processing and validation procedures.
#
#######################################################################

data_CSD_CIF_UXIWIJ
_audit_creation_date 2016-10-07
_audit_creation_method CSD-ConQuest-V1
_database_code_CSD UXIWIJ
_database_code_depnum_ccdc_archive 'CCDC 1508686'
_chemical_formula_sum 'C44 H58 Ag3 N7 O16 S2'
_chemical_formula_moiety
;
H4 N1 1+,n(C44 H38 Ag3 N6 O8 S2 1-),8(H2 O1)
;
_journal_coden_Cambridge 1078
_journal_year 2016
_journal_name_full 'CSD Communication(Private Communication) '
loop_
_publ_author_name
"Sushrutha S.R"
"S.Mohana"
"S.Pal"
"S.Nataranaj"
_chemical_name_systematic
;
catena-[ammonium 
bis(\m-8-oxidoquinoline-5-sulfonato)-bis(\m-1,3-bis(4-pyridyl)propane)-tri-sil
ver(i) octahydrate]
;
_cell_volume  10449.518
_exptl_crystal_colour 'colorless'
_exptl_crystal_density_diffrn 1.684
_exptl_crystal_description 'rectangular'
_diffrn_ambient_temperature 293
#These two values have been output from a single CSD field.
_refine_ls_R_factor_gt 0.0387
_refine_ls_wR_factor_gt 0.0387
_symmetry_cell_setting orthorhombic
_symmetry_space_group_name_H-M 'F d d 2'
_symmetry_Int_Tables_number 43
loop_
_symmetry_equiv_pos_site_id
_symmetry_equiv_pos_as_xyz
1 x,y,z
2 -x,-y,z
3 1/4-x,1/4+y,1/4+z
4 1/4+x,1/4-y,1/4+z
5 x,1/2+y,1/2+z
6 -x,1/2-y,1/2+z
7 1/4-x,3/4+y,3/4+z
8 1/4+x,3/4-y,3/4+z
9 1/2+x,y,1/2+z
10 1/2-x,-y,1/2+z
11 3/4-x,1/4+y,3/4+z
12 3/4+x,1/4-y,3/4+z
13 1/2+x,1/2+y,z
14 1/2-x,1/2-y,z
15 3/4-x,3/4+y,1/4+z
16 3/4+x,3/4-y,1/4+z
_cell_length_a 57.1724(19)
_cell_length_b 17.5555(9)
_cell_length_c 10.4111(5)
_cell_angle_alpha 90
_cell_angle_beta 90
_cell_angle_gamma 90
_cell_formula_units_Z 8
loop_
_atom_type_symbol
_atom_type_radius_bond
C 0.68
H 0.23
Ag 1.45
N 0.68
O 0.68
S 1.02
loop_
_atom_site_label
_atom_site_type_symbol
_atom_site_fract_x
_atom_site_fract_y
_atom_site_fract_z
Ag1 Ag -1.00000 -0.50000 -1.29643(7)
Ag2 Ag -0.796793(7) -0.65762(2) -1.32363(4)
S1 S -0.69913(2) -0.41750(8) -1.14566(15)
O1 O -0.69334(7) -0.3883(2) -1.2724(4)
O2 O -0.71295(6) -0.3639(2) -1.0710(5)
O3 O -0.67843(6) -0.4440(2) -1.0773(5)
C1 C -0.77161(10) -0.4188(3) -1.3210(6)
H1 H -0.77770 -0.37340 -1.35280
C2 C -0.78488(9) -0.4855(3) -1.3257(6)
H2 H -0.79990 -0.48340 -1.35960
N1 N -0.77681(7) -0.5520(2) -1.2835(5)
C3 C -0.75469(9) -0.5558(3) -1.2305(5)
C4 C -0.74027(9) -0.4899(3) -1.2218(6)
C5 C -0.74952(10) -0.4204(3) -1.2694(6)
H3 H -0.74060 -0.37610 -1.26560
O4 O -0.76037(7) -0.6893(2) -1.1988(5)
C6 C -0.71733(9) -0.4980(3) -1.1688(6)
C7 C -0.7234(1) -0.6337(3) -1.1455(6)
H4 H -0.71750 -0.68080 -1.12110
C8 C -0.74626(9) -0.6289(3) -1.1920(6)
C9 C -0.70912(10) -0.5689(3) -1.1348(6)
H5 H -0.69390 -0.57390 -1.10420
N2 N -0.82775(7) -0.7271(3) -1.3371(5)
C10 C -0.84355(10) -0.7129(3) -1.4326(6)
H6 H -0.84030 -0.67490 -1.49220
C11 C -0.87002(9) -0.8091(3) -1.3552(6)
C12 C -0.86425(10) -0.7533(3) -1.4438(6)
H7 H -0.87440 -0.74280 -1.51140
C13 C -0.91601(9) -0.7448(3) -1.2568(6)
H8 H -0.91860 -0.77450 -1.17950
H9 H -0.90130 -0.71780 -1.24720
C14 C -0.89301(9) -0.8516(3) -1.3622(7)
H10 H -0.89460 -0.88330 -1.28640
H11 H -0.89280 -0.88480 -1.43660
C15 C -0.83322(10) -0.7814(3) -1.2532(7)
H12 H -0.82260 -0.79240 -1.18800
C16 C -0.91434(9) -0.7983(3) -1.3714(6)
H13 H -0.91320 -0.76850 -1.44960
H14 H -0.92850 -0.82880 -1.37620
C17 C -0.85427(10) -0.8231(3) -1.2583(7)
H15 H -0.85750 -0.85980 -1.19640
C18 C -0.9356(1) -0.6875(3) -1.2711(6)
C19 C -0.93218(10) -0.6167(3) -1.3264(7)
H16 H -0.91760 -0.60410 -1.35920
C20 C -0.95866(11) -0.7052(4) -1.2352(6)
H17 H -0.96230 -0.75350 -1.20450
C21 C -0.95041(9) -0.5639(3) -1.3336(7)
H18 H -0.94760 -0.51600 -1.36840
C22 C -0.97591(10) -0.6509(4) -1.2456(6)
H19 H -0.99100 -0.66370 -1.21970
N3 N -0.97211(8) -0.5814(2) -1.2906(5)
O5 O -0.89666(7) -0.6980(2) -1.7180(6)
H20 H -0.90700 -0.66610 -1.69400
H21 H -0.90110 -0.71960 -1.78680
O6 O -0.92345(8) -0.5699(2) -1.6690(6)
H22 H -0.93400 -0.53980 -1.69600
H23 H -0.91710 -0.55120 -1.60230
N4 N -1.00000 -0.50000 -1.571(3)
O7 O -0.84874(8) -0.7116(3) -1.7700(6)
H24 H -0.84230 -0.66910 -1.78730
H25 H -0.86330 -0.70510 -1.75900
O8 O -0.70910(9) -0.2918(3) -1.4689(6)
H26 H -0.70570 -0.32320 -1.40960
H27 H -0.71970 -0.31070 -1.51630
Ag2A Ag -1.203207(7) -0.34238(2) -1.32363(4)
S1A S -1.30087(2) -0.58250(8) -1.14566(15)
O1A O -1.30666(7) -0.6117(2) -1.2724(4)
O2A O -1.28705(6) -0.6361(2) -1.0710(5)
O3A O -1.32157(6) -0.5560(2) -1.0773(5)
C1A C -1.22839(10) -0.5812(3) -1.3210(6)
H1A H -1.22230 -0.62660 -1.35280
C2A C -1.21512(9) -0.5145(3) -1.3257(6)
H2A H -1.20010 -0.51660 -1.35960
N1A N -1.22319(7) -0.4480(2) -1.2835(5)
C3A C -1.24531(9) -0.4442(3) -1.2305(5)
C4A C -1.25973(9) -0.5101(3) -1.2218(6)
C5A C -1.25048(10) -0.5796(3) -1.2694(6)
H3A H -1.25940 -0.62390 -1.26560
O4A O -1.23963(7) -0.3107(2) -1.1988(5)
C6A C -1.28267(9) -0.5020(3) -1.1688(6)
C7A C -1.2766(1) -0.3663(3) -1.1455(6)
H4A H -1.28250 -0.31920 -1.12110
C8A C -1.25374(9) -0.3711(3) -1.1920(6)
C9A C -1.29088(10) -0.4311(3) -1.1348(6)
H5A H -1.30610 -0.42610 -1.10420
N2A N -1.17225(7) -0.2729(3) -1.3371(5)
C10A C -1.15645(10) -0.2871(3) -1.4326(6)
H6A H -1.15970 -0.32510 -1.49220
C11A C -1.12998(9) -0.1909(3) -1.3552(6)
C12A C -1.13575(10) -0.2467(3) -1.4438(6)
H7A H -1.12560 -0.25720 -1.51140
C13A C -1.08399(9) -0.2552(3) -1.2568(6)
H8A H -1.08140 -0.22550 -1.17950
H9A H -1.09870 -0.28220 -1.24720
C14A C -1.10699(9) -0.1484(3) -1.3622(7)
H10A H -1.10540 -0.11670 -1.28640
H11A H -1.10720 -0.11520 -1.43660
C15A C -1.16678(10) -0.2186(3) -1.2532(7)
H12A H -1.17740 -0.20760 -1.18800
C16A C -1.08566(9) -0.2017(3) -1.3714(6)
H13A H -1.08680 -0.23150 -1.44960
H14A H -1.07150 -0.17120 -1.37620
C17A C -1.14573(10) -0.1769(3) -1.2583(7)
H15A H -1.14250 -0.14020 -1.19640
C18A C -1.0644(1) -0.3125(3) -1.2711(6)
C19A C -1.06782(10) -0.3833(3) -1.3264(7)
H16A H -1.08240 -0.39590 -1.35920
C20A C -1.04134(11) -0.2948(4) -1.2352(6)
H17A H -1.03770 -0.24650 -1.20450
C21A C -1.04959(9) -0.4361(3) -1.3336(7)
H18A H -1.05240 -0.48400 -1.36840
C22A C -1.02409(10) -0.3491(4) -1.2456(6)
H19A H -1.00900 -0.33630 -1.21970
N3A N -1.02789(8) -0.4186(2) -1.2906(5)
Ag2H Ag -1.296793(7) -0.65762(2) -0.82363(4)
Ag2I Ag -0.703207(7) -0.34238(2) -0.82363(4)
O2H O -1.21295(6) -0.3639(2) -1.5710(5)
O2I O -0.78705(6) -0.6361(2) -1.5710(5)
#END
