
#######################################################################
#
#                 Cambridge Crystallographic Data Centre
#                                CCDC
#
#######################################################################
#
# If this CIF has been generated from an entry in the Cambridge
# Structural Database, then it will include bibliographic, chemical,
# crystal, experimental, refinement or atomic coordinate data resulting
# from the CCDC's data processing and validation procedures.
#
#######################################################################

data_CSD_CIF_UXUFUR
_audit_creation_date 2021-06-29
_audit_creation_method CSD-ConQuest-V1
_database_code_CSD UXUFUR
_database_code_depnum_ccdc_archive 'CCDC 2083008'
_chemical_formula_sum 'C84 H62 N4 O26 Zn5'
_chemical_formula_moiety
;
(C72 H40 O26 Zn5 2-)n,2(C6 H11 N2 1+)
;
_journal_coden_Cambridge 9
_journal_volume 60
_journal_year 2021
_journal_page_first 10109
_journal_name_full 'Inorg.Chem. '
loop_
_publ_author_name
"Xin-Hong Chang"
"Wen-Jing Qin"
"Xin-Ya Zhang"
"Xue Jin"
"Xiao-Gang Yang"
"Chang-Xun Dou"
"Lu-Fang Ma"
_chemical_name_systematic
;
catena-(bis(2-n-propyl-1H-imidazol-3-ium) 
bis(\m-hydroxo)-tetrakis(\m-naphthalene-1,4-dicarboxylato)-bis(\m-hydrogen 
naphthalene-1,4-dicarboxylato)-penta-zinc)
;
_cell_volume   7809.028
_exptl_crystal_colour 'colorless'
_exptl_crystal_density_diffrn 1.591
_exptl_crystal_description 'block'
_diffrn_ambient_temperature 288.9
#These two values have been output from a single CSD field.
_refine_ls_R_factor_gt 0.046
_refine_ls_wR_factor_gt 0.046
_symmetry_cell_setting orthorhombic
_symmetry_space_group_name_H-M 'P b c a'
_symmetry_Int_Tables_number 61
loop_
_symmetry_equiv_pos_site_id
_symmetry_equiv_pos_as_xyz
1 x,y,z
2 1/2-x,-y,1/2+z
3 -x,1/2+y,1/2-z
4 1/2+x,1/2-y,-z
5 -x,-y,-z
6 -1/2+x,y,-1/2-z
7 x,-1/2-y,-1/2+z
8 -1/2-x,-1/2+y,z
_cell_length_a 18.5855(6)
_cell_length_b 18.3704(6)
_cell_length_c 22.8720(8)
_cell_angle_alpha 90
_cell_angle_beta 90
_cell_angle_gamma 90
_cell_formula_units_Z 4
loop_
_atom_type_symbol
_atom_type_radius_bond
C 0.68
H 0.23
N 0.68
O 0.68
Zn 1.22
loop_
_atom_site_label
_atom_site_type_symbol
_atom_site_fract_x
_atom_site_fract_y
_atom_site_fract_z
Zn1 Zn 0.50000 0.50000 0.50000
Zn2 Zn 0.58445(2) 0.60391(2) 0.39893(2)
Zn3 Zn 0.41167(2) 0.61706(2) 0.40792(2)
O1 O 0.55017(13) 0.61106(14) 0.31774(9)
O2 O 0.43474(13) 0.63929(14) 0.32431(10)
O3 O 0.54946(15) 0.69404(13) 0.02666(10)
H1 H 0.55730 0.71180 -0.00560
O4 O 0.49209(12) 0.79827(12) 0.04021(10)
O5 O 0.42956(11) 0.44891(11) 0.44386(10)
O6 O 0.35483(11) 0.52737(11) 0.4010(1)
O7 O 0.18549(15) 0.17339(14) 0.40837(12)
O8 O 0.09301(17) 0.23732(17) 0.43183(16)
O9 O 0.59283(11) 0.45011(11) 0.46373(10)
O10 O 0.64261(11) 0.51577(11) 0.39302(10)
O11 O 0.82964(13) 0.17031(12) 0.39173(10)
O12 O 0.91662(13) 0.23669(13) 0.42748(11)
O13 O 0.50179(9) 0.59700(9) 0.45070(8)
H2 H 0.50710 0.63660 0.47910
C1 C 0.49649(16) 0.66679(17) 0.23695(13)
C2 C 0.51821(19) 0.62176(19) 0.19297(15)
H3 H 0.53000 0.57360 0.20120
C3 C 0.52282(19) 0.64767(19) 0.13557(15)
H4 H 0.53630 0.61590 0.10590
C4 C 0.50796(16) 0.71895(17) 0.12198(13)
C5 C 0.48777(15) 0.76881(17) 0.16721(13)
C6 C 0.47702(18) 0.84435(18) 0.15841(15)
H5 H 0.48210 0.86380 0.12110
C7 C 0.4594(2) 0.8888(2) 0.20380(17)
H6 H 0.45290 0.93820 0.19700
C8 C 0.4510(2) 0.8615(2) 0.26048(17)
H7 H 0.43790 0.89250 0.29080
C9 C 0.4619(2) 0.78997(19) 0.27120(15)
H8 H 0.45660 0.77240 0.30910
C10 C 0.48145(16) 0.74108(17) 0.22552(14)
C11 C 0.49333(18) 0.63688(17) 0.29801(14)
C12 C 0.51460(16) 0.74154(18) 0.05932(14)
C13 C 0.30998(16) 0.41176(16) 0.42833(14)
C14 C 0.32996(18) 0.34069(18) 0.42204(16)
H9 H 0.37850 0.32930 0.41830
C15 C 0.27939(19) 0.28492(18) 0.42107(17)
H10 H 0.29480 0.23710 0.41640
C16 C 0.20762(19) 0.29899(18) 0.42677(14)
C17 C 0.18383(17) 0.37195(18) 0.43579(14)
C18 C 0.11068(19) 0.3914(2) 0.44486(18)
H11 H 0.07550 0.35540 0.44330
C19 C 0.0909(2) 0.4611(3) 0.4557(2)
H12 H 0.04260 0.47210 0.46160
C20 C 0.1419(2) 0.5163(2) 0.45795(18)
H13 H 0.12760 0.56370 0.46600
C21 C 0.21250(18) 0.50133(19) 0.44850(15)
H14 H 0.24600 0.53890 0.44960
C22 C 0.23603(16) 0.42931(17) 0.43692(13)
C23 C 0.36927(16) 0.46711(16) 0.42471(14)
C24 C 0.1578(2) 0.2339(2) 0.42264(16)
C25 C 0.70022(16) 0.40657(16) 0.42217(13)
C26 C 0.68225(17) 0.33546(16) 0.43252(14)
H15 H 0.63550 0.32420 0.44390
C27 C 0.73225(18) 0.27965(17) 0.42637(15)
H16 H 0.71790 0.23170 0.43220
C28 C 0.80218(17) 0.29433(17) 0.41191(14)
C29 C 0.82442(16) 0.36708(17) 0.40144(13)
C30 C 0.89543(18) 0.3858(2) 0.38438(17)
H17 H 0.92960 0.34930 0.38010
C31 C 0.9144(2) 0.4557(2) 0.3742(2)
H18 H 0.96100 0.46640 0.36200
C32 C 0.8649(2) 0.5120(2) 0.3817(2)
H19 H 0.87930 0.56000 0.37580
C33 C 0.79580(17) 0.49748(18) 0.39744(16)
H20 H 0.76350 0.53560 0.40240
C34 C 0.77255(15) 0.42491(16) 0.40633(13)
C35 C 0.64108(16) 0.46191(16) 0.42731(13)
C36 C 0.8534(2) 0.23117(19) 0.41029(14)
N1 N 0.28038(19) 0.1180(2) 0.21812(16)
H21 H 0.29030 0.13220 0.18320
N2 N 0.2464(2) 0.1186(3) 0.30631(17)
H22 H 0.23050 0.13310 0.33970
C37 C 0.2545(2) 0.1609(3) 0.2600(2)
C38 C 0.2666(3) 0.0493(3) 0.2941(2)
H23 H 0.26540 0.00970 0.31950
C39 C 0.2889(3) 0.0493(3) 0.2379(2)
H24 H 0.30650 0.00970 0.21700
C40 C 0.2408(3) 0.2408(4) 0.2559(2)
H25 H 0.20950 0.25570 0.28770
H26 H 0.21640 0.25140 0.21940
C41 C 0.3101(4) 0.2836(3) 0.2588(2)
H27 H 0.33980 0.27210 0.22520
H28 H 0.33650 0.27060 0.29380
C42 C 0.2928(6) 0.3648(4) 0.2594(3)
H29 H 0.26340 0.37670 0.22620
H30 H 0.33680 0.39220 0.25770
H31 H 0.26750 0.37670 0.29470
Zn2D Zn 0.41555(2) 0.39609(2) 0.60107(2)
Zn3D Zn 0.58833(2) 0.38294(2) 0.59208(2)
O1D O 0.44983(13) 0.38894(14) 0.68226(9)
O2D O 0.56526(13) 0.36071(14) 0.67569(10)
O3D O 0.45054(15) 0.30596(13) 0.97334(10)
H1D H 0.44270 0.28820 1.00560
O4D O 0.50791(12) 0.20173(12) 0.95979(10)
O5D O 0.57044(11) 0.55109(11) 0.55614(10)
O6D O 0.64517(11) 0.47263(11) 0.5990(1)
O7D O 0.81451(15) 0.82661(14) 0.59163(12)
O8D O 0.90699(17) 0.76268(17) 0.56817(16)
O9D O 0.40717(11) 0.54989(11) 0.53627(10)
O10D O 0.35739(11) 0.48423(11) 0.60698(10)
O11D O 0.17036(13) 0.82969(12) 0.60827(10)
O12D O 0.08338(13) 0.76331(13) 0.57252(11)
O13D O 0.49821(9) 0.40300(9) 0.54930(8)
H2D H 0.49290 0.36340 0.52090
C1D C 0.50351(16) 0.33321(17) 0.76305(13)
C2D C 0.48179(19) 0.37824(19) 0.80703(15)
H3D H 0.47000 0.42640 0.79880
C3D C 0.47718(19) 0.35233(19) 0.86443(15)
H4D H 0.46370 0.38410 0.89410
C4D C 0.49204(16) 0.28105(17) 0.87802(13)
C5D C 0.51223(15) 0.23119(17) 0.83279(13)
C6D C 0.52298(18) 0.15565(18) 0.84159(15)
H5D H 0.51790 0.13620 0.87890
C7D C 0.5406(2) 0.1112(2) 0.79620(17)
H6D H 0.54710 0.06180 0.80300
C8D C 0.5490(2) 0.1385(2) 0.73952(17)
H7D H 0.56210 0.10750 0.70920
C9D C 0.5381(2) 0.21003(19) 0.72880(15)
H8D H 0.54340 0.22760 0.69090
C10D C 0.51855(16) 0.25892(17) 0.77448(14)
C11D C 0.50667(18) 0.36312(17) 0.70199(14)
C12D C 0.48540(16) 0.25846(18) 0.94068(14)
C13D C 0.69002(16) 0.58824(16) 0.57167(14)
C14D C 0.67004(18) 0.65931(18) 0.57796(16)
H9D H 0.62150 0.67070 0.58170
C15D C 0.72061(19) 0.71508(18) 0.57893(17)
H10D H 0.70520 0.76290 0.58360
C16D C 0.79238(19) 0.70101(18) 0.57323(14)
C17D C 0.81617(17) 0.62805(18) 0.56421(14)
C18D C 0.88932(19) 0.6086(2) 0.55514(18)
H11D H 0.92450 0.64460 0.55670
C19D C 0.9091(2) 0.5389(3) 0.5443(2)
H12D H 0.95740 0.52790 0.53840
C20D C 0.8581(2) 0.4837(2) 0.54205(18)
H13D H 0.87240 0.43630 0.53400
C21D C 0.78750(18) 0.49867(19) 0.55150(15)
H14D H 0.75400 0.46110 0.55040
C22D C 0.76397(16) 0.57069(17) 0.56308(13)
C23D C 0.63073(16) 0.53289(16) 0.57529(14)
C24D C 0.8422(2) 0.7661(2) 0.57736(16)
C25D C 0.29978(16) 0.59343(16) 0.57783(13)
C26D C 0.31775(17) 0.66454(16) 0.56748(14)
H15D H 0.36450 0.67580 0.55610
C27D C 0.26775(18) 0.72035(17) 0.57363(15)
H16D H 0.28210 0.76830 0.56780
C28D C 0.19782(17) 0.70567(17) 0.58809(14)
C29D C 0.17558(16) 0.63292(17) 0.59856(13)
C30D C 0.10457(18) 0.6142(2) 0.61562(17)
H17D H 0.07040 0.65070 0.61990
C31D C 0.0856(2) 0.5443(2) 0.6258(2)
H18D H 0.03900 0.53360 0.63800
C32D C 0.1351(2) 0.4880(2) 0.6183(2)
H19D H 0.12070 0.44000 0.62420
C33D C 0.20420(17) 0.50252(18) 0.60256(16)
H20D H 0.23650 0.46440 0.59760
C34D C 0.22745(15) 0.57509(16) 0.59367(13)
C35D C 0.35892(16) 0.53809(16) 0.57269(13)
C36D C 0.1466(2) 0.76883(19) 0.58971(14)
Zn2C Zn 0.08445(2) 0.89609(2) 0.60107(2)
Zn2G Zn 0.91555(2) 0.10391(2) 0.39893(2)
Zn3C Zn 0.91167(2) 0.88294(2) 0.59208(2)
Zn3G Zn 0.08833(2) 0.11706(2) 0.40792(2)
O7C O 0.68549(15) 0.32661(14) 0.59163(12)
O7G O 0.31451(15) 0.67339(14) 0.40837(12)
O8C O 0.59301(17) 0.26268(17) 0.56817(16)
O8G O 0.40699(17) 0.73732(17) 0.43183(16)
O11C O 0.32964(13) 0.32969(12) 0.60827(10)
O11G O 0.67036(13) 0.67031(12) 0.39173(10)
O12C O 0.41662(13) 0.26331(13) 0.57252(11)
O12G O 0.58338(13) 0.73669(13) 0.42748(11)
#END
