
#######################################################################
#
#                 Cambridge Crystallographic Data Centre
#                                CCDC
#
#######################################################################
#
# If this CIF has been generated from an entry in the Cambridge
# Structural Database, then it will include bibliographic, chemical,
# crystal, experimental, refinement or atomic coordinate data resulting
# from the CCDC's data processing and validation procedures.
#
#######################################################################

data_CSD_CIF_UYARET
_audit_creation_date 2016-10-08
_audit_creation_method CSD-ConQuest-V1
_database_code_CSD UYARET
_database_code_depnum_ccdc_archive 'CCDC 1508866'
_chemical_formula_sum 'C15 H15 N3 O7 Ti1'
_chemical_formula_moiety
;
(C13 H7 N2 O7 Ti1 1-)n,C2 H8 N1 1+
;
_journal_coden_Cambridge 1078
_journal_year 2016
_journal_name_full 'CSD Communication(Private Communication) '
loop_
_publ_author_name
"Bongsu Kim"
"Seung-Jin Oh"
"Hongil Jo"
"Kang Min Ok"
_chemical_name_systematic
;
catena-(dimethylammonium 
(\m-oxo)-(pyridine-2,6-dicarboxylato)-(pyridine-2-carboxylato)-titanium(iv))
;
_chemical_name_common
;
CAUMOF-18
;
_cell_volume   6563.019
_exptl_crystal_colour 'colorless'
_exptl_crystal_density_diffrn 1.608
_exptl_crystal_description 'Needle'
_diffrn_ambient_temperature 100
_diffrn_special_details
;
twin

;
#These two values have been output from a single CSD field.
_refine_ls_R_factor_gt 0.0899
_refine_ls_wR_factor_gt 0.0899
_symmetry_cell_setting orthorhombic
_symmetry_space_group_name_H-M 'F d d 2'
_symmetry_Int_Tables_number 43
loop_
_symmetry_equiv_pos_site_id
_symmetry_equiv_pos_as_xyz
1 x,y,z
2 -x,-y,z
3 1/4-x,1/4+y,1/4+z
4 3/4+x,3/4-y,1/4+z
5 x,1/2+y,1/2+z
6 -x,1/2-y,1/2+z
7 1/4-x,3/4+y,3/4+z
8 3/4+x,1/4-y,3/4+z
9 1/2+x,y,1/2+z
10 1/2-x,-y,1/2+z
11 3/4-x,1/4+y,3/4+z
12 1/4+x,3/4-y,3/4+z
13 1/2+x,1/2+y,z
14 1/2-x,1/2-y,z
15 3/4-x,3/4+y,1/4+z
16 1/4+x,1/4-y,1/4+z
_cell_length_a 42.164(9)
_cell_length_b 20.815(4)
_cell_length_c 7.4780(15)
_cell_angle_alpha 90
_cell_angle_beta 90
_cell_angle_gamma 90
_cell_formula_units_Z 16
loop_
_atom_type_symbol
_atom_type_radius_bond
C 0.68
H 0.23
N 0.68
O 0.68
Ti 1.60
loop_
_atom_site_label
_atom_site_type_symbol
_atom_site_fract_x
_atom_site_fract_y
_atom_site_fract_z
Ti1 Ti -0.00011(3) 0.24827(11) 0.2499(6)
O1 O -0.00250(14) 0.2620(6) 0.5254(9)
O2 O 0.00608(13) 0.3495(5) 0.2303(8)
O3 O 0.03494(19) 0.4360(7) 0.2804(13)
O4 O 0.02460(15) 0.1626(5) 0.3012(8)
O5 O 0.0726(3) 0.1136(9) 0.3423(15)
O6 O -0.04513(14) 0.2908(5) 0.2470(9)
O7 O -0.09637(17) 0.2882(8) 0.3206(15)
N1 N 0.05104(17) 0.2746(6) 0.2954(9)
N2 N -0.03718(18) 0.1691(6) 0.2947(10)
C1 C 0.0590(2) 0.3339(8) 0.3081(13)
C2 C 0.0899(2) 0.3518(9) 0.3494(14)
H1 H 0.09520 0.39490 0.36220
C3 C 0.1122(2) 0.3055(9) 0.3708(17)
H2 H 0.13300 0.31710 0.39550
C4 C 0.1046(3) 0.2442(10) 0.3569(18)
H3 H 0.11980 0.21220 0.36870
C5 C 0.0730(2) 0.2294(7) 0.3240(12)
C6 C 0.0320(2) 0.3781(9) 0.2725(13)
C7 C 0.0564(3) 0.1655(10) 0.3269(18)
C8 C -0.0313(3) 0.1062(8) 0.3103(14)
H4 H -0.01060 0.09160 0.29360
C9 C -0.0549(3) 0.0618(10) 0.3504(16)
H5 H -0.05040 0.01820 0.35890
C10 C -0.0850(3) 0.0846(9) 0.3770(16)
H6 H -0.10130 0.05600 0.40490
C11 C -0.0919(3) 0.1522(11) 0.3621(14)
H7 H -0.11210 0.16850 0.38300
C12 C -0.0666(2) 0.1918(8) 0.3147(12)
C13 C -0.0709(2) 0.2621(8) 0.2946(16)
N3 N 0.0451(2) 0.0670(7) 0.7721(12)
H8 H 0.03390 0.03430 0.72850
H9 H 0.03760 0.10330 0.72560
C14 C 0.0790(3) 0.0601(12) 0.735(2)
H10 H 0.08290 0.06870 0.61030
H11 H 0.08560 0.01720 0.76240
H12 H 0.09080 0.09010 0.80630
C15 C 0.0422(4) 0.0681(11) 0.967(2)
H13 H 0.02040 0.07410 0.99970
H14 H 0.05470 0.10270 1.01460
H15 H 0.04970 0.02810 1.01540
Ti1E Ti 0.00011(3) 0.25173(11) 0.7499(6)
O1E O 0.00250(14) 0.2380(6) 0.0254(9)
#END
