
#######################################################################
#
#                 Cambridge Crystallographic Data Centre
#                                CCDC
#
#######################################################################
#
# If this CIF has been generated from an entry in the Cambridge
# Structural Database, then it will include bibliographic, chemical,
# crystal, experimental, refinement or atomic coordinate data resulting
# from the CCDC's data processing and validation procedures.
#
#######################################################################

data_CSD_CIF_UYECUX
_audit_creation_date 2011-10-03
_audit_creation_method CSD-ConQuest-V1
_database_code_CSD UYECUX
_database_code_depnum_ccdc_archive 'CCDC 700923'
_chemical_formula_sum 'C24 H28 Cr1 Mo6 N4 Na1 O36'
_chemical_formula_moiety
;
(C6 H6 N1 O2 1+)2n,n(C12 H8 Cr1 Mo6 N2 Na1 O28 2-),4n(H2 O1)
;
_journal_coden_Cambridge 1147
_journal_volume 11
_journal_year 2011
_journal_page_first 3381
_journal_name_full 'Cryst.Growth Des. '
loop_
_publ_author_name
"M.Singh"
"A.Ramanan"
_chemical_name_systematic
;
catena-[bis(4-Carboxypyridinium) 
hexakis(\m~3~-oxo)-decakis(\m~2~-oxo)-bis(pyridine-4-carboxylato-O)-octa-oxo-c
hromium-hexa-molybdenum-sodium tetrahydrate]
;
_cell_volume   1103.432
_exptl_crystal_colour 'pink'
_exptl_crystal_density_diffrn 2.395
_exptl_crystal_description 'block'
_diffrn_ambient_temperature 293
#These two values have been output from a single CSD field.
_refine_ls_R_factor_gt 0.0476
_refine_ls_wR_factor_gt 0.0476
_symmetry_cell_setting triclinic
_symmetry_space_group_name_H-M 'P -1'
_symmetry_Int_Tables_number 2
loop_
_symmetry_equiv_pos_site_id
_symmetry_equiv_pos_as_xyz
1 x,y,z
2 -x,-y,-z
_cell_length_a 10.514(5)
_cell_length_b 10.655(5)
_cell_length_c 12.295(6)
_cell_angle_alpha 97.351(9)
_cell_angle_beta 112.286(8)
_cell_angle_gamma 113.523(8)
_cell_formula_units_Z 1
loop_
_atom_type_symbol
_atom_type_radius_bond
C 0.68
H 0.23
Cr 1.39
Mo 1.37
N 0.68
Na 1.72
O 0.68
loop_
_atom_site_label
_atom_site_type_symbol
_atom_site_fract_x
_atom_site_fract_y
_atom_site_fract_z
Cr1 Cr 0.00000 0.50000 0.50000
Mo1 Mo 0.08126(6) 0.47837(6) 0.26227(5)
Mo2 Mo -0.16582(6) 0.18013(5) 0.28586(5)
Mo3 Mo 0.24759(6) 0.79947(6) 0.47866(5)
Na1 Na 0.00000 0.00000 0.50000
O1 O -0.0467(6) 0.4249(5) 0.1082(4)
O2 O 0.0330(5) 0.2948(5) 0.2913(4)
O3 O 0.2594(5) 0.5192(5) 0.2714(4)
O4 O 0.1883(5) 0.5673(4) 0.4738(4)
O5 O -0.1192(4) 0.4185(4) 0.3153(3)
O6 O -0.2913(5) 0.1216(5) 0.1303(4)
O7 O -0.1375(5) 0.0383(5) 0.3137(4)
O8 O -0.3235(5) 0.1608(4) 0.3410(4)
O9 O 0.2173(6) 0.9435(5) 0.4595(4)
O10 O 0.4247(5) 0.8402(5) 0.4862(4)
O11 O -0.0357(4) 0.3034(4) 0.4906(3)
O12 O 0.1051(5) 0.6723(4) 0.3060(4)
O13 O 0.1813(6) 0.2524(5) 0.6073(5)
O14 O 0.2903(6) 0.4462(6) 0.7762(5)
O15 O 0.5371(6) 0.7909(6) 0.8022(5)
H1 H 0.48240 0.82580 0.76810
O16 O 0.7361(6) 1.0205(6) 0.8836(5)
N1 N 0.6117(7) 0.2042(7) 0.9029(6)
N2 N 0.9481(7) 0.7457(7) 1.1219(5)
H2 H 0.99890 0.71450 1.17370
C1 C 0.2829(8) 0.3381(8) 0.7171(7)
C2 C 0.4049(7) 0.2942(7) 0.7829(6)
C3 C 0.4535(8) 0.2240(8) 0.7179(6)
H3 H 0.41450 0.20570 0.63260
C4 C 0.5595(8) 0.1818(7) 0.7808(7)
H4 H 0.59530 0.13740 0.73840
C5 C 0.5694(9) 0.2736(8) 0.9680(7)
H5 H 0.60920 0.28920 1.05310
C6 C 0.4681(8) 0.3218(8) 0.9109(6)
H6 H 0.44130 0.37300 0.95720
C7 C 0.6833(8) 0.8962(8) 0.8771(6)
C8 C 0.7806(8) 0.8405(7) 0.9620(6)
C9 C 0.7507(8) 0.6992(8) 0.9236(7)
H7 H 0.67250 0.63580 0.84410
C10 C 0.8407(9) 0.6554(8) 1.0071(7)
H8 H 0.82620 0.56230 0.98300
C11 C 0.9799(9) 0.8825(8) 1.1595(7)
H9 H 1.05670 0.94330 1.24000
C12 C 0.8969(8) 0.9337(8) 1.0771(6)
H10 H 0.92080 1.03010 1.10040
O17 O 0.4416(8) 0.5342(8) 0.5857(7)
O18 O 0.7229(9) 0.7826(9) 0.6380(8)
Mo1A Mo -0.08126(6) 0.52163(6) 0.73773(5)
Mo2A Mo 0.16582(6) 0.81987(5) 0.71414(5)
Mo3A Mo -0.24759(6) 0.20053(6) 0.52134(5)
Na1* Na 0.00000 1.00000 0.50000
O1A O 0.0467(6) 0.5751(5) 0.8918(4)
O2A O -0.0330(5) 0.7052(5) 0.7087(4)
O3A O -0.2594(5) 0.4808(5) 0.7286(4)
O4A O -0.1883(5) 0.4327(4) 0.5262(4)
O5A O 0.1192(4) 0.5815(4) 0.6847(3)
O6A O 0.2913(5) 0.8784(5) 0.8697(4)
O7A O 0.1375(5) 0.9617(5) 0.6863(4)
O7A* O 0.1375(5) -0.0383(5) 0.6863(4)
O8A O 0.3235(5) 0.8392(4) 0.6590(4)
O9A O -0.2173(6) 0.0565(5) 0.5405(4)
O9* O 0.2173(6) -0.0565(5) 0.4595(4)
O10A O -0.4247(5) 0.1598(5) 0.5138(4)
O11A O 0.0357(4) 0.6966(4) 0.5094(3)
O12A O -0.1051(5) 0.3277(4) 0.6940(4)
O13A O -0.1813(6) -0.2524(5) 0.3927(5)
O14A O -0.2903(6) -0.4462(6) 0.2238(5)
N1A N -0.6117(7) -0.2042(7) 0.0971(6)
C1A C -0.2829(8) -0.3381(8) 0.2829(7)
C2A C -0.4049(7) -0.2942(7) 0.2171(6)
C3A C -0.4535(8) -0.2240(8) 0.2821(6)
H3A H -0.41450 -0.20570 0.36740
C4A C -0.5595(8) -0.1818(7) 0.2192(7)
H4A H -0.59530 -0.13740 0.26160
C5A C -0.5694(9) -0.2736(8) 0.0320(7)
H5A H -0.60920 -0.28920 -0.05310
C6A C -0.4681(8) -0.3218(8) 0.0891(6)
H6A H -0.44130 -0.37300 0.04280
#END
