
#######################################################################
#
#                 Cambridge Crystallographic Data Centre
#                                CCDC
#
#######################################################################
#
# If this CIF has been generated from an entry in the Cambridge
# Structural Database, then it will include bibliographic, chemical,
# crystal, experimental, refinement or atomic coordinate data resulting
# from the CCDC's data processing and validation procedures.
#
#######################################################################

data_CSD_CIF_UYEDEI
_audit_creation_date 2011-10-03
_audit_creation_method CSD-ConQuest-V1
_database_code_CSD UYEDEI
_database_code_depnum_ccdc_archive 'CCDC 755574'
_chemical_formula_sum 'C24 H24 Cr1 Mo6 N4 Na1 O34'
_chemical_formula_moiety
;
(C6 H6 N1 O2 1+)2n,n(C12 H8 Cr1 Mo6 N2 Na1 O28 2-),2n(H2 O1)
;
_journal_coden_Cambridge 1147
_journal_volume 11
_journal_year 2011
_journal_page_first 3381
_journal_name_full 'Cryst.Growth Des. '
loop_
_publ_author_name
"M.Singh"
"A.Ramanan"
_chemical_name_systematic
;
catena-[bis(3-Carboxypyridinium) 
hexakis(\m~3~-oxo)-decakis(\m~2~-oxo)-bis(pyridine-3-carboxylato-O)-octa-oxo-c
hromium-hexa-molybdenum-sodium dihydrate]
;
_cell_volume   4330.360
_exptl_crystal_colour 'pink'
_exptl_crystal_density_diffrn 2.391
_exptl_crystal_description 'block'
_diffrn_ambient_temperature 273
#These two values have been output from a single CSD field.
_refine_ls_R_factor_gt 0.0403
_refine_ls_wR_factor_gt 0.0403
_symmetry_cell_setting monoclinic
_symmetry_space_group_name_H-M 'C 2/c'
_symmetry_Int_Tables_number 15
loop_
_symmetry_equiv_pos_site_id
_symmetry_equiv_pos_as_xyz
1 x,y,z
2 -x,y,1/2-z
3 1/2+x,1/2+y,z
4 1/2-x,1/2+y,1/2-z
5 -x,-y,-z
6 x,-y,-1/2+z
7 -1/2-x,-1/2-y,-z
8 -1/2+x,-1/2-y,-1/2+z
_cell_length_a 22.084(3)
_cell_length_b 9.4366(11)
_cell_length_c 21.011(3)
_cell_angle_alpha 90
_cell_angle_beta 98.517(2)
_cell_angle_gamma 90
_cell_formula_units_Z 4
loop_
_atom_type_symbol
_atom_type_radius_bond
C 0.68
H 0.23
Cr 1.39
Mo 1.38
N 0.68
Na 1.66
O 0.68
loop_
_atom_site_label
_atom_site_type_symbol
_atom_site_fract_x
_atom_site_fract_y
_atom_site_fract_z
Cr1 Cr 0.00000 1.00000 0.00000
Mo1 Mo -0.05258(2) 1.25889(5) -0.10169(2)
Mo2 Mo 0.14739(2) 0.91488(5) 0.01925(2)
Mo3 Mo 0.09353(2) 1.17188(5) -0.08270(2)
Na1 Na 0.00000 1.1089(4) -0.25000
O1 O -0.05113(18) 1.2577(4) -0.18292(18)
O2 O -0.08440(18) 1.4165(4) -0.0856(2)
O3 O -0.12263(16) 1.1303(4) -0.10183(16)
O4 O 0.17655(18) 0.7579(4) -0.00205(19)
O5 O 0.20870(17) 1.0189(4) 0.04852(18)
O6 O 0.12738(16) 0.9828(4) -0.06777(16)
O7 O 0.15638(18) 1.2708(4) -0.05396(19)
O8 O 0.08950(18) 1.1692(4) -0.16449(18)
O9 O 0.03202(16) 1.3091(4) -0.07069(17)
O10 O 0.00353(15) 1.0541(4) -0.08918(15)
O11 O 0.07990(15) 1.0983(4) 0.01927(16)
O12 O 0.05038(15) 0.8260(4) 0.00068(16)
N1 N 0.1284(3) 0.7297(8) -0.1441(3)
N2 N 0.2827(2) 0.1874(7) 0.9135(2)
H1 H 0.29670 0.25420 0.93940
C1 C 0.0714(3) 0.8067(6) -0.3175(3)
C2 C 0.0958(3) 0.7272(6) -0.2566(3)
C3 C 0.1104(4) 0.5836(7) -0.2576(3)
H2 H 0.10650 0.53450 -0.29640
C4 C 0.1308(5) 0.5149(9) -0.2002(4)
H3 H 0.13740 0.41750 -0.19940
C5 C 0.1411(5) 0.5926(12) -0.1445(4)
H4 H 0.15730 0.54810 -0.10620
C6 C 0.1048(3) 0.7958(8) -0.1981(3)
H5 H 0.09400 0.89080 -0.19620
C7 C 0.2005(3) 0.1576(7) 0.7475(3)
C8 C 0.2321(3) 0.1170(7) 0.8128(3)
C9 C 0.2386(3) -0.0218(7) 0.8328(3)
H6 H 0.22360 -0.09490 0.80530
C10 C 0.2676(3) -0.0517(8) 0.8941(3)
H7 H 0.27200 -0.14510 0.90810
C11 C 0.2895(3) 0.0548(9) 0.9335(3)
H8 H 0.30940 0.03510 0.97480
C12 C 0.2551(3) 0.2220(8) 0.8549(3)
H9 H 0.25140 0.31660 0.84250
O13 O 0.0383(2) 0.9123(5) -0.3099(2)
O14 O 0.0863(2) 0.7607(5) -0.36868(19)
O15 O 0.1934(3) 0.2799(6) 0.7318(2)
O16 O 0.1813(2) 0.0486(5) 0.7120(2)
H10 H 0.16280 0.07620 0.67750
O17 O 0.0233(2) 0.6110(5) 0.9210(2)
Mo1D Mo 0.05258(2) 0.74111(5) 0.10169(2)
Mo2D Mo -0.14739(2) 1.08512(5) -0.01925(2)
Mo3D Mo -0.09353(2) 0.82812(5) 0.08270(2)
Na1D Na 0.00000 0.8911(4) 0.25000
O1D O 0.05113(18) 0.7423(4) 0.18292(18)
O1A O 0.05113(18) 1.2577(4) -0.31708(18)
O2D O 0.08440(18) 0.5835(4) 0.0856(2)
O3D O 0.12263(16) 0.8697(4) 0.10183(16)
O4D O -0.17655(18) 1.2421(4) 0.00205(19)
O5D O -0.20870(17) 0.9811(4) -0.04852(18)
O6D O -0.12738(16) 1.0172(4) 0.06777(16)
O7D O -0.15638(18) 0.7292(4) 0.05396(19)
O8D O -0.08950(18) 0.8308(4) 0.16449(18)
O8A O -0.08950(18) 1.1692(4) -0.33551(18)
O9D O -0.03202(16) 0.6909(4) 0.07069(17)
O10D O -0.00353(15) 0.9459(4) 0.08918(15)
O11D O -0.07990(15) 0.9017(4) -0.01927(16)
O12D O -0.05038(15) 1.1740(4) -0.00068(16)
N1A N -0.1284(3) 0.7297(8) -0.3559(3)
C1A C -0.0714(3) 0.8067(6) -0.1825(3)
C2A C -0.0958(3) 0.7272(6) -0.2434(3)
C3A C -0.1104(4) 0.5836(7) -0.2424(3)
H2A H -0.10650 0.53450 -0.20360
C4A C -0.1308(5) 0.5149(9) -0.2998(4)
H3A H -0.13740 0.41750 -0.30060
C5A C -0.1411(5) 0.5926(12) -0.3555(4)
H4A H -0.15730 0.54810 -0.39380
C6A C -0.1048(3) 0.7958(8) -0.3019(3)
H5A H -0.09400 0.89080 -0.30380
O13A O -0.0383(2) 0.9123(5) -0.1901(2)
O14A O -0.0863(2) 0.7607(5) -0.13132(19)
#END
