
#######################################################################
#
#                 Cambridge Crystallographic Data Centre
#                                CCDC
#
#######################################################################
#
# If this CIF has been generated from an entry in the Cambridge
# Structural Database, then it will include bibliographic, chemical,
# crystal, experimental, refinement or atomic coordinate data resulting
# from the CCDC's data processing and validation procedures.
#
#######################################################################

data_CSD_CIF_UYETUQ
_audit_creation_date 2021-06-30
_audit_creation_method CSD-ConQuest-V1
_database_code_CSD UYETUQ
_database_code_depnum_ccdc_archive 'CCDC 2076492'
_chemical_formula_sum 'C80 H79 Eu6 F2 N3 O37'
_chemical_formula_moiety
;
(C73 H56 Eu6 F2 O36 2-)n,2(C2 H8 N1 1+),x(C3 H7 N1 O1)
;
_journal_coden_Cambridge 4
_journal_year 2021
_journal_name_full 'J.Am.Chem.Soc. '
loop_
_publ_author_name
"G.K.Angeli"
"E.Loukopoulos"
"K.Kouvidis"
"A.Bosveli"
"C.Tsangarakis"
"E.Tylianakis"
"G.Froudakis"
"P.N.Trikalitis"
_chemical_name_systematic
;
catena-[bis(diemthylammonium)-bis(\m-3',5'-bis(4-carboxylatophenyl)[1,1'-biphe
nyl]-3,5-dicarboxylato)-octakis(\m-hydroxy)-bis(\m-2-fluorobenzoato)-(\m-forma
to)-(\m-acetato)-tetra-aqua-hexa-europium(iii) N,N-dimethylformamide solvate]
;
_cell_volume  12797.025
_exptl_crystal_colour 'colorless'
_exptl_crystal_description 'block'
_diffrn_ambient_temperature 220
_refine_special_details
;
Disordered dimethylammonium and N,N-dimethylformamide solvent molecules were 
not modelled and the disordered density was taken into account using the 
MASK/OLEX2 program.
;
#These two values have been output from a single CSD field.
_refine_ls_R_factor_gt 0.065
_refine_ls_wR_factor_gt 0.065
_symmetry_cell_setting orthorhombic
_symmetry_space_group_name_H-M 'P n m a'
_symmetry_Int_Tables_number 62
loop_
_symmetry_equiv_pos_site_id
_symmetry_equiv_pos_as_xyz
1 x,y,z
2 1/2+x,1/2-y,1/2-z
3 -x,1/2+y,-z
4 1/2-x,-y,1/2+z
5 -x,-y,-z
6 -1/2-x,-1/2+y,-1/2+z
7 x,-1/2-y,z
8 -1/2+x,y,-1/2-z
_cell_length_a 26.3338(9)
_cell_length_b 32.6870(12)
_cell_length_c 14.8669(5)
_cell_angle_alpha 90
_cell_angle_beta 90
_cell_angle_gamma 90
_cell_formula_units_Z 4
loop_
_atom_type_symbol
_atom_type_radius_bond
C 0.68
H 0.23
Eu 1.98
F 0.64
O 0.68
loop_
_atom_site_label
_atom_site_type_symbol
_atom_site_fract_x
_atom_site_fract_y
_atom_site_fract_z
Eu1 Eu 0.46021(2) 0.31178(2) 0.38940(3)
Eu2 Eu 0.66329(2) 0.75000 0.67989(4)
Eu3 Eu 0.53077(2) 0.25000 0.19878(4)
Eu4 Eu 0.59121(2) 0.68758(2) 0.86565(3)
O1 O 0.4129(2) 0.25000 0.4042(4)
H1 H 0.40150 0.25000 0.46767
O2 O 0.5038(2) 0.25000 0.3492(4)
O3 O 0.47933(17) 0.19501(14) 0.2328(3)
H2 H 0.50079 0.17090 0.21941
O4 O 0.4451(5) 0.7048(5) 0.9231(10)
O5 O 0.5891(2) 0.2950(2) 0.2659(4)
O6 O 0.5500(2) 0.32858(18) 0.3773(4)
O7 O 0.8209(2) 0.3266(2) 0.3598(4)
O8 O 0.7764(2) 0.29452(18) 0.2509(4)
O9 O 0.8857(2) 0.3317(2) 1.0280(4)
O10 O 0.8169(2) 0.2945(2) 1.0599(4)
O11 O 0.5527(3) 0.62131(18) 0.6668(5)
O12 O 0.61122(16) 0.69412(14) 0.7117(3)
H3 H 0.63252 0.66993 0.69818
O13 O 0.5173(5) 0.6689(5) 0.9516(9)
O14 O 0.5436(2) 0.75000 0.8885(4)
H4 H 0.53262 0.75000 0.95225
O15 O 0.6332(2) 0.75000 0.8295(4)
H5 H 0.66417 0.75000 0.86713
O16 O 0.5831(2) 0.62008(18) 0.8069(4)
O17 O 0.4868(4) 0.3662(3) 0.5039(7)
O18 O 0.4824(4) 0.2844(3) 0.5330(6)
C1 C 0.5883(3) 0.3170(2) 0.3354(6)
C2 C 0.6390(3) 0.3302(3) 0.3703(5)
C3 C 0.6414(3) 0.3554(2) 0.4491(5)
H6 H 0.61133 0.36562 0.47470
C4 C 0.7313(3) 0.3515(2) 0.4447(5)
H7 H 0.76284 0.35870 0.46970
C5 C 0.7310(3) 0.3277(3) 0.3661(5)
C6 C 0.7794(3) 0.3149(2) 0.3229(6)
C7 C 0.6832(3) 0.3182(3) 0.3301(6)
H8 H 0.68150 0.30298 0.27655
C8 C 0.6915(3) 0.3882(3) 0.5736(6)
C9 C 0.6666(3) 0.4257(3) 0.5861(6)
H9 H 0.64548 0.43603 0.54050
C10 C 0.6728(3) 0.4472(3) 0.6639(6)
C11 C 0.7046(3) 0.4319(3) 0.7333(6)
H10 H 0.70938 0.44700 0.78649
C12 C 0.7286(3) 0.3944(3) 0.7219(6)
C13 C 0.7579(4) 0.3761(3) 0.7985(6)
C14 C 0.7923(4) 0.3987(3) 0.8462(6)
H11 H 0.79691 0.42656 0.83285
C15 C 0.8205(4) 0.3804(3) 0.9151(6)
H12 H 0.84549 0.39564 0.94527
C16 C 0.8122(4) 0.3408(3) 0.9390(6)
C17 C 0.7766(4) 0.3176(3) 0.8918(6)
H13 H 0.77010 0.29034 0.90800
C18 C 0.7511(4) 0.3354(3) 0.8210(6)
H14 H 0.72838 0.31946 0.78704
C19 C 0.8407(4) 0.3212(3) 1.0153(6)
C20 C 0.7220(3) 0.3729(3) 0.6411(5)
H15 H 0.73856 0.34777 0.63281
C21 C 0.6449(5) 0.4867(3) 0.6810(7)
C22 C 0.6350(5) 0.5010(3) 0.7679(7)
H16 H 0.64418 0.48468 0.81731
C23 C 0.6123(5) 0.5380(3) 0.7831(7)
H17 H 0.60676 0.54664 0.84265
C24 C 0.5975(5) 0.5628(3) 0.7138(7)
C25 C 0.5753(4) 0.6049(3) 0.7315(6)
C26 C 0.4718(7) 0.6776(7) 0.9637(13)
C27 C 0.4484(4) 0.6531(4) 1.0382(7)
C28 C 0.3963(4) 0.6473(3) 1.0463(6)
C29 C 0.3765(3) 0.6291(4) 1.1231(8)
H18 H 0.34127 0.62518 1.12861
C30 C 0.4088(4) 0.6167(5) 1.1919(7)
H19 H 0.39537 0.60440 1.24389
C31 C 0.4609(4) 0.6225(4) 1.1838(7)
H20 H 0.48269 0.61415 1.23035
C32 C 0.4807(3) 0.6407(5) 1.1070(9)
H21 H 0.51590 0.64468 1.10152
O19 O 0.6176(6) 0.7102(7) 1.0088(7)
O20 O 0.6152(5) 0.6324(5) 0.9842(7)
C33 C 0.6038(5) 0.5488(3) 0.6274(7)
H22 H 0.59286 0.56473 0.57849
C34 C 0.6263(5) 0.5107(3) 0.6122(7)
H23 H 0.62889 0.50109 0.55284
C35 C 0.4841(8) 0.25000 0.5677(10)
C36 C 0.6876(3) 0.3648(3) 0.4874(5)
C37 C 0.4869(8) 0.25000 0.6697(10)
F1 F 0.3611(4) 0.6590(4) 0.9801(7)
C38 C 0.6152(13) 0.75000 1.0569(18)
O18F O 0.4824(4) 0.2156(3) 0.5330(6)
O19F O 0.6176(6) 0.7898(7) 1.0088(7)
Eu1D Eu 0.53979(2) 0.68822(2) 0.61060(3)
Eu4D Eu 0.40879(2) 0.31242(2) 0.13435(3)
O4D O 0.5549(5) 0.2952(5) 0.0769(10)
O5D O 0.4109(2) 0.7050(2) 0.7341(4)
O6D O 0.4500(2) 0.67142(18) 0.6227(4)
O7D O 0.1791(2) 0.6734(2) 0.6402(4)
O8D O 0.2236(2) 0.70548(18) 0.7491(4)
O9D O 0.1143(2) 0.6683(2) -0.0280(4)
O10D O 0.1831(2) 0.7055(2) -0.0599(4)
O11D O 0.4473(3) 0.37869(18) 0.3332(5)
O12D O 0.38878(16) 0.30588(14) 0.2883(3)
H3D H 0.36748 0.33007 0.30182
O13D O 0.4827(5) 0.3311(5) 0.0484(9)
O16D O 0.4169(2) 0.37992(18) 0.1931(4)
O17D O 0.5132(4) 0.6338(3) 0.4961(7)
C1D C 0.4117(3) 0.6830(2) 0.6646(6)
C2D C 0.3610(3) 0.6698(3) 0.6297(5)
C3D C 0.3586(3) 0.6446(2) 0.5509(5)
H6D H 0.38867 0.63438 0.52530
C4D C 0.2687(3) 0.6485(2) 0.5553(5)
H7D H 0.23716 0.64130 0.53030
C5D C 0.2690(3) 0.6723(3) 0.6339(5)
C6D C 0.2206(3) 0.6851(2) 0.6771(6)
C7D C 0.3168(3) 0.6818(3) 0.6699(6)
H8D H 0.31850 0.69702 0.72345
C8D C 0.3085(3) 0.6118(3) 0.4264(6)
C9D C 0.3334(3) 0.5743(3) 0.4139(6)
H9D H 0.35452 0.56397 0.45950
C10D C 0.3272(3) 0.5528(3) 0.3361(6)
C11D C 0.2954(3) 0.5681(3) 0.2667(6)
H10D H 0.29062 0.55300 0.21351
C12D C 0.2714(3) 0.6056(3) 0.2781(6)
C13D C 0.2421(4) 0.6239(3) 0.2015(6)
C14D C 0.2077(4) 0.6013(3) 0.1538(6)
H11D H 0.20309 0.57344 0.16715
C15D C 0.1795(4) 0.6196(3) 0.0849(6)
H12D H 0.15451 0.60436 0.05473
C16D C 0.1878(4) 0.6592(3) 0.0610(6)
C17D C 0.2234(4) 0.6824(3) 0.1082(6)
H13D H 0.22990 0.70966 0.09200
C18D C 0.2489(4) 0.6646(3) 0.1790(6)
H14D H 0.27162 0.68054 0.21296
C19D C 0.1593(4) 0.6788(3) -0.0153(6)
C20D C 0.2780(3) 0.6271(3) 0.3589(5)
H15D H 0.26144 0.65223 0.36719
C21D C 0.3551(5) 0.5133(3) 0.3190(7)
C22D C 0.3650(5) 0.4990(3) 0.2321(7)
H16D H 0.35582 0.51532 0.18269
C23D C 0.3877(5) 0.4620(3) 0.2169(7)
H17D H 0.39324 0.45336 0.15735
C24D C 0.4025(5) 0.4372(3) 0.2862(7)
C25D C 0.4247(4) 0.3951(3) 0.2685(6)
C26D C 0.5282(7) 0.3224(7) 0.0363(13)
C27D C 0.5516(4) 0.3469(4) -0.0382(7)
C28D C 0.6037(4) 0.3527(3) -0.0463(6)
C29D C 0.6235(3) 0.3709(4) -0.1231(8)
H18D H 0.65873 0.37482 -0.12861
C30D C 0.5912(4) 0.3833(5) -0.1919(7)
H19D H 0.60462 0.39560 -0.24389
C31D C 0.5391(4) 0.3775(4) -0.1838(7)
H20D H 0.51731 0.38585 -0.23035
C32D C 0.5193(3) 0.3593(5) -0.1070(9)
H21D H 0.48410 0.35532 -0.10152
O20D O 0.3848(5) 0.3676(5) 0.0158(7)
C33D C 0.3962(5) 0.4512(3) 0.3726(7)
H22D H 0.40714 0.43527 0.42151
C34D C 0.3737(5) 0.4893(3) 0.3878(7)
H23D H 0.37111 0.49891 0.44716
C36D C 0.3124(3) 0.6352(3) 0.5126(5)
F1D F 0.6389(4) 0.3410(4) 0.0199(7)
O3F O 0.47933(17) 0.30499(14) 0.2328(3)
H2F H 0.50079 0.32910 0.21941
Eu1C Eu 0.03979(2) 0.68822(2) -0.11060(3)
Eu1F Eu 0.46021(2) 0.18822(2) 0.38940(3)
Eu1G Eu 0.96021(2) 0.31178(2) 1.11060(3)
Eu2A Eu 0.16329(2) 0.75000 -0.17989(4)
Eu2A* Eu 0.16329(2) 0.75000 0.82011(4)
Eu2B Eu 0.33671(2) 0.25000 0.32011(4)
Eu2C Eu 0.83671(2) 0.25000 0.17989(4)
Eu2C* Eu 0.83671(2) 0.25000 1.17989(4)
Eu3B Eu 0.46923(2) 0.75000 0.80122(4)
Eu4B Eu 0.40879(2) 0.18758(2) 0.13435(3)
Eu4C Eu 0.90879(2) 0.31242(2) 0.36565(3)
Eu4F Eu 0.59121(2) 0.81242(2) 0.86565(3)
Eu4G Eu 0.09121(2) 0.68758(2) 0.63435(3)
O1B O 0.5871(2) 0.75000 0.5958(4)
O2B O 0.4962(2) 0.75000 0.6508(4)
O3B O 0.52067(17) 0.69501(14) 0.7672(3)
O4B O 0.5549(5) 0.2048(5) 0.0769(10)
O5F O 0.5891(2) 0.2050(2) 0.2659(4)
O7C O 0.6791(2) 0.6734(2) 0.8598(4)
O7G O 0.3209(2) 0.3266(2) 0.1402(4)
O8C O 0.7236(2) 0.70548(18) 0.7509(4)
O8E O 0.7236(2) 0.79452(18) 0.7509(4)
O9C O 0.6143(2) 0.6683(2) 0.5280(4)
O9G O 0.3857(2) 0.3317(2) 0.4720(4)
O10C O 0.6831(2) 0.7055(2) 0.5599(4)
O10E O 0.6831(2) 0.7945(2) 0.5599(4)
O12F O 0.61122(16) 0.80588(14) 0.7117(3)
O14B O 0.4564(2) 0.25000 0.1115(4)
O15B O 0.3668(2) 0.25000 0.1705(4)
O18D O 0.5176(4) 0.7156(3) 0.4670(6)
O19D O 0.3824(6) 0.2898(7) -0.0088(7)
#END
