
#######################################################################
#
#                 Cambridge Crystallographic Data Centre
#                                CCDC
#
#######################################################################
#
# If this CIF has been generated from an entry in the Cambridge
# Structural Database, then it will include bibliographic, chemical,
# crystal, experimental, refinement or atomic coordinate data resulting
# from the CCDC's data processing and validation procedures.
#
#######################################################################

data_CSD_CIF_UYEVUS
_audit_creation_date 2021-06-30
_audit_creation_method CSD-ConQuest-V1
_database_code_CSD UYEVUS
_database_code_depnum_ccdc_archive 'CCDC 2076497'
_chemical_formula_sum 'C71 H70 F1 N3 O33 Y6'
_chemical_formula_moiety
;
(C64 H47 F1 O32 Y6 2-)n,x(C3 H7 N1 O1),2(C2 H8 N1 1+)
;
_journal_coden_Cambridge 4
_journal_year 2021
_journal_name_full 'J.Am.Chem.Soc. '
loop_
_publ_author_name
"G.K.Angeli"
"E.Loukopoulos"
"K.Kouvidis"
"A.Bosveli"
"C.Tsangarakis"
"E.Tylianakis"
"G.Froudakis"
"P.N.Trikalitis"
_chemical_name_systematic
;
catena-[bis(dimethylammonium) 
bis(\m-3',5'-bis(4-carboxylatophenyl)[1,1'-biphenyl]-3,5-dicarboxylato)-octaki
s(\m-hydroxy)-(\m-2-fluorobenzoato)-(\m-formato)-diaqua-dihydroxy-hexa-yttrium
(iii) N,N-dimethylformamide solvate]
;
_cell_volume   9331.515
_exptl_crystal_colour 'colorless'
_exptl_crystal_description 'block'
_diffrn_ambient_temperature 150.0
_refine_special_details
;
Disordered N,N-dimethylformamide solvent molecules were not modelled and the 
disordered density was taken into account using the MASK/OLEX2 program.
;
#These two values have been output from a single CSD field.
_refine_ls_R_factor_gt 0.1025
_refine_ls_wR_factor_gt 0.1025
_symmetry_cell_setting orthorhombic
_symmetry_space_group_name_H-M 'P n m a'
_symmetry_Int_Tables_number 62
loop_
_symmetry_equiv_pos_site_id
_symmetry_equiv_pos_as_xyz
1 x,y,z
2 1/2-x,-y,1/2+z
3 -x,1/2+y,-z
4 1/2+x,1/2-y,1/2-z
5 -x,-y,-z
6 -1/2+x,y,-1/2-z
7 x,-1/2-y,z
8 -1/2-x,-1/2+y,-1/2+z
_cell_length_a 25.2874(10)
_cell_length_b 25.7770(13)
_cell_length_c 14.3158(6)
_cell_angle_alpha 90
_cell_angle_beta 90
_cell_angle_gamma 90
_cell_formula_units_Z 4
loop_
_atom_type_symbol
_atom_type_radius_bond
C 0.68
H 0.23
F 0.64
O 0.68
Y 1.90
loop_
_atom_site_label
_atom_site_type_symbol
_atom_site_fract_x
_atom_site_fract_y
_atom_site_fract_z
Y1 Y 0.12364(7) 0.25000 0.82432(14)
O1 O 0.0870(4) 0.25000 0.6819(9)
O2 O 0.1772(3) 0.3075(6) 0.7484(8)
O3 O 0.1575(6) 0.2997(9) 0.9485(12)
O4 O 0.0683(3) 0.3191(5) 0.8027(7)
O5 O 0.0498(4) 0.25000 0.9192(8)
H1 H 0.11858 0.25000 0.63987
Y2 Y 0.04317(6) 0.17352(9) 0.63807(12)
C1 C 0.1733(6) 0.3351(9) 0.6709(15)
Y3 Y -0.00291(5) 0.32357(8) 0.90326(11)
H2 H 0.09014 0.35060 0.81634
O6 O 0.1288(4) 0.3507(7) 0.6441(9)
O7 O 0.0288(7) 0.4098(8) 0.6973(13)
O8 O -0.0216(3) 0.3164(5) 0.7454(6)
C2 C 0.2193(6) 0.3503(10) 0.6261(16)
O9 O 0.0039(5) 0.4075(6) 0.8522(10)
O10 O 0.0579(7) 0.3616(8) 1.0059(12)
O11 O -0.0459(4) 0.25000 0.8600(8)
O12 O -0.0922(5) 0.3469(6) 0.9021(9)
O13 O -0.0298(8) 0.2946(10) 1.0486(13)
C3 C -0.0037(12) 0.4209(14) 0.770(3)
C4 C 0.2719(5) 0.3359(8) 0.6558(11)
C5 C 0.2175(6) 0.3787(10) 0.5391(11)
C6 C -0.0587(5) 0.4476(8) 0.7598(11)
H3 H 0.27606 0.31570 0.71088
C7 C 0.3142(6) 0.3501(8) 0.6084(14)
H4 H 0.18392 0.38992 0.51697
C8 C 0.2624(6) 0.3908(10) 0.4852(14)
C9 C -0.0859(6) 0.4687(8) 0.8351(8)
C10 C -0.0782(6) 0.4536(8) 0.6697(9)
C11 C 0.3111(7) 0.3786(8) 0.5240(14)
C12 C 0.3670(6) 0.3309(9) 0.6448(12)
C13 C 0.2551(8) 0.4178(11) 0.3957(12)
C14 C -0.1327(6) 0.4959(8) 0.8203(9)
H5 H -0.07261 0.46459 0.89667
C15 C -0.1250(6) 0.4808(8) 0.6548(8)
H6 H -0.05964 0.43920 0.61822
H7 H 0.34268 0.38942 0.49371
O14 O 0.3702(4) 0.3061(5) 0.7145(8)
C16 C 0.2917(7) 0.4032(10) 0.3215(12)
C17 C 0.2103(7) 0.4465(10) 0.3755(12)
C18 C -0.1522(5) 0.5019(8) 0.7301(11)
H8 H -0.15128 0.51034 0.87171
H9 H -0.13831 0.48494 0.59326
Y4 Y 0.42164(7) 0.25000 0.78966(14)
H10 H 0.32031 0.37997 0.33168
C19 C 0.2815(7) 0.4263(11) 0.2321(12)
C20 C 0.2017(7) 0.4638(10) 0.2848(12)
H11 H 0.18551 0.45438 0.42341
O15 O 0.4938(4) 0.25000 0.8824(8)
O16 O 0.3991(4) 0.3076(6) 0.9028(7)
C21 C 0.2368(7) 0.454(1) 0.2182(12)
C22 C 0.3202(9) 0.4075(13) 0.1558(14)
H12 H 0.48090 0.25000 0.94845
H13 H 0.45590 0.34762 0.76587
H14 H 0.23010 0.46712 0.15732
C23 C 0.2977(8) 0.3893(13) 0.0727(14)
C24 C 0.3718(8) 0.4072(12) 0.1711(14)
C25 C 0.3354(8) 0.3733(12) 0.0038(14)
H15 H 0.26054 0.38769 0.06292
C26 C 0.4091(8) 0.3879(12) 0.1115(13)
H16 H 0.38393 0.42169 0.22826
C27 C 0.3865(9) 0.3693(13) 0.0204(14)
H17 H 0.32288 0.36514 -0.05703
H18 H 0.44567 0.38627 0.12624
C28 C 0.4214(9) 0.3379(14) -0.0497(16)
O17 O 0.4736(5) 0.3523(7) -0.0482(10)
O18 O 0.5717(5) 0.2986(9) 0.0041(9)
C29 C 0.5872(15) 0.25000 0.044(3)
H19 H 0.07843 0.75000 0.10020
H20 H -0.06302 0.75000 0.01497
C30 C 0.038(2) 0.75000 -0.088(3)
C31 C 0.0667(11) 0.75000 -0.1777(17)
C32 C 0.0315(7) 0.75000 -0.260(2)
C33 C 0.1236(10) 0.75000 -0.1768(19)
F1 F -0.0197(7) 0.75000 -0.2491(14)
C34 C 0.0502(12) 0.75000 -0.351(2)
C35 C 0.1447(14) 0.75000 -0.274(2)
H21 H 0.14470 0.75000 -0.12190
C36 C 0.1083(11) 0.75000 -0.3546(17)
H22 H 0.02809 0.75000 -0.40472
H23 H 0.18181 0.75000 -0.28363
H24 H 0.12401 0.75000 -0.41481
O3F O 0.1575(6) 0.2003(9) 0.9485(12)
O4F O 0.0683(3) 0.1809(5) 0.8027(7)
O2F O 0.1772(3) 0.1925(6) 0.7484(8)
Y2F Y 0.04317(6) 0.32648(9) 0.63807(12)
O12E O 0.4078(5) 0.3469(6) 0.5979(9)
O14F O 0.3702(4) 0.1939(5) 0.7145(8)
Y3E Y 0.49709(5) 0.32357(8) 0.59674(11)
Y3C Y 0.49709(5) 0.17643(8) 0.59674(11)
C20D C -0.2017(7) 0.5362(10) 0.7152(12)
O8E O 0.4784(3) 0.3164(5) 0.7546(6)
O8C O 0.4784(3) 0.1836(5) 0.7546(6)
O11C O 0.4541(4) 0.25000 0.6400(8)
O16F O 0.3991(4) 0.1924(6) 0.9028(7)
C18D C 0.1522(5) 0.4981(8) 0.2699(11)
C17D C -0.2103(7) 0.5535(10) 0.6245(12)
C21D C -0.2368(7) 0.546(1) 0.7818(12)
Y2C Y 0.54317(6) 0.32648(9) 0.86193(12)
Y2E Y 0.54317(6) 0.17352(9) 0.86193(12)
H13F H 0.45590 0.15238 0.76587
C15D C 0.1250(6) 0.5192(8) 0.3452(8)
C14D C 0.1327(6) 0.5041(8) 0.1797(9)
C13D C -0.2551(8) 0.5822(11) 0.6043(12)
H11D H -0.18551 0.54562 0.57659
H14D H -0.23010 0.53289 0.84268
C19D C -0.2815(7) 0.5737(11) 0.7679(12)
H9D H 0.13831 0.51506 0.40674
C10D C 0.0782(6) 0.5464(8) 0.3303(9)
H8D H 0.15128 0.48966 0.12829
C9D C 0.0859(6) 0.5313(8) 0.1649(8)
C8D C -0.2624(6) 0.6092(10) 0.5148(14)
C16D C -0.2917(7) 0.5968(10) 0.6785(12)
C22D C -0.3202(9) 0.5925(13) 0.8442(14)
C6D C 0.0587(5) 0.5524(8) 0.2402(11)
H6D H 0.05964 0.56080 0.38178
H5D H 0.07261 0.53541 0.10333
C11D C -0.3111(7) 0.6214(8) 0.4760(14)
C5D C -0.2175(6) 0.6213(10) 0.4609(11)
H10D H -0.32031 0.62003 0.66832
C23D C -0.2977(8) 0.6107(13) 0.9273(14)
C24D C -0.3718(8) 0.5928(12) 0.8289(14)
C3D C 0.0037(12) 0.5791(14) 0.230(3)
H7D H -0.34268 0.61058 0.50629
C7D C -0.3142(6) 0.6499(8) 0.3916(14)
C2D C -0.2193(6) 0.6497(10) 0.3739(16)
H4D H -0.18392 0.61008 0.48303
C25D C -0.3354(8) 0.6267(12) 0.9962(14)
H15D H -0.26054 0.61231 0.93708
C26D C -0.4091(8) 0.6121(12) 0.8885(13)
H16D H -0.38393 0.57831 0.77174
O16* O 0.3991(4) 0.3076(6) -0.0972(7)
O9D O -0.0039(5) 0.5925(6) 0.1478(10)
O7D O -0.0288(7) 0.5902(8) 0.3027(13)
C4D C -0.2719(5) 0.6641(8) 0.3442(11)
C12D C -0.3670(6) 0.6691(9) 0.3552(12)
C1D C -0.1733(6) 0.6649(9) 0.3291(15)
C27D C -0.3865(9) 0.6307(13) 0.9796(14)
H17D H -0.32288 0.63485 1.05703
H18D H -0.44567 0.61373 0.87376
Y4* Y 0.42164(7) 0.25000 -0.21034(14)
Y2C* Y 0.54317(6) 0.32648(9) -0.13807(12)
Y3D Y 0.00291(5) 0.67643(8) 0.09674(11)
Y2B Y -0.04317(6) 0.67352(9) 0.36193(12)
Y2E* Y 0.54317(6) 0.17352(9) -0.13807(12)
H3D H -0.27606 0.68430 0.28912
O14D O -0.3702(4) 0.6939(5) 0.2855(8)
O12A O -0.4078(5) 0.6531(6) 0.4021(9)
O2D O -0.1772(3) 0.6925(6) 0.2516(8)
O6D O -0.1288(4) 0.6493(7) 0.3559(9)
C28D C -0.4214(9) 0.6621(14) 1.0497(16)
O15* O 0.4938(4) 0.25000 -0.1176(8)
O8E* O 0.4784(3) 0.3164(5) -0.2454(6)
O1C O 0.5870(4) 0.25000 -0.1819(9)
O4E O 0.5683(3) 0.3191(5) -0.3027(7)
O6E O 0.6288(4) 0.3507(7) -0.1441(9)
O7E O 0.5288(7) 0.4098(8) -0.1973(13)
O11B O 0.0459(4) 0.75000 0.1400(8)
O5B O -0.0498(4) 0.75000 0.0808(8)
O4D O -0.0683(3) 0.6809(5) 0.1973(7)
O13D O 0.0298(8) 0.7054(10) -0.0486(13)
O10D O -0.0579(7) 0.6384(8) -0.0059(12)
O8D O 0.0216(3) 0.6836(5) 0.2546(6)
O12D O 0.0922(5) 0.6531(6) 0.0979(9)
O7A O -0.5288(7) 0.5902(8) 1.1973(13)
O18F O 0.5717(5) 0.2014(9) 0.0041(9)
Y4B Y -0.42164(7) 0.75000 0.21034(14)
Y3A Y -0.49709(5) 0.67643(8) 0.40326(11)
Y1B Y -0.12364(7) 0.75000 0.17568(14)
O16D O -0.3991(4) 0.6924(6) 1.0972(7)
O17D O -0.4736(5) 0.6477(7) 1.0482(10)
Y4A Y 0.07836(7) 0.75000 0.28966(14)
Y3B Y 0.00291(5) 0.82357(8) 0.09674(11)
H2D H -0.09014 0.64940 0.18366
Y2G Y -0.54317(6) 0.67352(9) 1.13807(12)
Y4B* Y -0.42164(7) 0.75000 1.21034(14)
O13B O 0.0298(8) 0.7946(10) -0.0486(13)
O15B O -0.4938(4) 0.75000 1.1176(8)
O8A O -0.4784(3) 0.6836(5) 1.2454(6)
O1A O -0.5870(4) 0.75000 1.1819(9)
O4A O -0.5683(3) 0.6809(5) 1.3027(7)
O6A O -0.6288(4) 0.6493(7) 1.1441(9)
O18D O -0.5717(5) 0.7014(9) 0.9959(9)
#END
