
#######################################################################
#
#                 Cambridge Crystallographic Data Centre
#                                CCDC
#
#######################################################################
#
# If this CIF has been generated from an entry in the Cambridge
# Structural Database, then it will include bibliographic, chemical,
# crystal, experimental, refinement or atomic coordinate data resulting
# from the CCDC's data processing and validation procedures.
#
#######################################################################

data_CSD_CIF_UYEVEC
_audit_creation_date 2021-06-30
_audit_creation_method CSD-ConQuest-V1
_database_code_CSD UYEVEC
_database_code_depnum_ccdc_archive 'CCDC 2076494'
_chemical_formula_sum 'C70 H77 N3 O37 Tb6'
_chemical_formula_moiety
;
(C63 H54 O36 Tb6 2-)n,2(C2 H8 N1 1+),x(C3 H7 N1 O1)
;
_journal_coden_Cambridge 4
_journal_year 2021
_journal_name_full 'J.Am.Chem.Soc. '
loop_
_publ_author_name
"G.K.Angeli"
"E.Loukopoulos"
"K.Kouvidis"
"A.Bosveli"
"C.Tsangarakis"
"E.Tylianakis"
"G.Froudakis"
"P.N.Trikalitis"
_chemical_name_systematic
;
catena-[bis(diemthylammonium) 
bis(\m-3',5'-bis(4-carboxylatophenyl)[1,1'-biphenyl]-3,5-dicarboxylato)-octaki
s(\m-hydroxy)-tris(\m-acetato)-(\m-formato)-tetra-aqua-hexa-terbium(iii) 
N,N-dimethylformamide solvate]
;
_cell_volume  12759.816
_exptl_crystal_colour 'colorless'
_exptl_crystal_description 'block'
_diffrn_ambient_temperature 220.0
_refine_special_details
;
Disordered dimethylammonium and N,N-dimethylformamide solvent molecules were 
not modelled and the disordered density was taken into account using the 
MASK/OLEX2 program.
;
#These two values have been output from a single CSD field.
_refine_ls_R_factor_gt 0.0879
_refine_ls_wR_factor_gt 0.0879
_symmetry_cell_setting orthorhombic
_symmetry_space_group_name_H-M 'P n m a'
_symmetry_Int_Tables_number 62
loop_
_symmetry_equiv_pos_site_id
_symmetry_equiv_pos_as_xyz
1 x,y,z
2 1/2-x,-y,1/2+z
3 -x,1/2+y,-z
4 1/2+x,1/2-y,1/2-z
5 -x,-y,-z
6 -1/2+x,y,-1/2-z
7 x,-1/2-y,z
8 -1/2-x,-1/2+y,-1/2+z
_cell_length_a 26.370(6)
_cell_length_b 32.626(7)
_cell_length_c 14.831(3)
_cell_angle_alpha 90
_cell_angle_beta 90
_cell_angle_gamma 90
_cell_formula_units_Z 4
loop_
_atom_type_symbol
_atom_type_radius_bond
C 0.68
H 0.23
O 0.68
Tb 1.94
loop_
_atom_site_label
_atom_site_type_symbol
_atom_site_fract_x
_atom_site_fract_y
_atom_site_fract_z
Tb1 Tb 0.83765(4) 0.25000 0.18233(6)
Tb2 Tb 0.53300(4) 0.25000 0.19608(6)
Tb3 Tb 0.91033(3) 0.31177(2) 0.36739(5)
Tb4 Tb 0.53856(3) 0.68900(2) 0.61500(5)
O1 O 0.8904(3) 0.3051(2) 0.2144(4)
H1 H 0.86946 0.32954 0.20082
O2 O 0.8697(3) 0.25000 0.3319(6)
H2 H 0.83892 0.25000 0.37021
O3 O 0.5856(3) 0.75000 0.5988(6)
H3 H 0.59656 0.75000 0.53497
O4 O 0.4813(3) 0.1951(2) 0.2277(5)
H4 H 0.50246 0.17075 0.21430
O5 O 0.4585(4) 0.25000 0.1079(6)
H5 H 0.46911 0.25000 0.04387
O6 O 0.5051(4) 0.25000 0.3440(6)
H6 H 0.53639 0.25000 0.38103
O7 O 0.8236(3) 0.3270(3) 0.3614(6)
O8 O 0.5903(3) 0.2946(3) 0.2654(6)
O9 O 0.5510(3) 0.3296(3) 0.3757(6)
O10 O 0.7785(3) 0.2940(3) 0.2519(6)
O11 O 0.8187(4) 0.2945(3) 1.0637(6)
O12 O 0.8883(4) 0.3313(3) 1.0291(6)
O13 O 0.5806(4) 0.6212(3) 0.8108(6)
O14 O 0.5565(4) 0.2043(3) 0.0779(6)
O15 O 0.5131(5) 0.7150(4) 0.4742(7)
O16 O 0.5498(4) 0.6226(3) 0.6707(7)
O17 O 0.4817(5) 0.1680(4) 0.0483(7)
C1 C 0.7342(2) 0.3279(3) 0.3693(5)
C2 C 0.6880(3) 0.3171(3) 0.3311(4)
H7 H 0.68716 0.30107 0.27840
C3 C 0.6429(2) 0.3299(3) 0.3708(5)
C4 C 0.6441(2) 0.3536(3) 0.4487(5)
H8 H 0.61369 0.36225 0.47555
C5 C 0.6904(3) 0.3644(3) 0.4869(4)
C6 C 0.7354(2) 0.3515(3) 0.4472(5)
H9 H 0.76667 0.35886 0.47306
C7 C 0.5889(5) 0.3173(4) 0.3353(9)
C8 C 0.7827(5) 0.3156(4) 0.3208(9)
C9 C 0.6934(5) 0.3891(4) 0.5746(8)
C10 C 0.7263(6) 0.3742(5) 0.6444(9)
H10 H 0.74527 0.35023 0.63440
C11 C 0.6746(6) 0.4491(4) 0.6673(9)
O18 O 0.8843(7) 0.2901(8) 0.5084(10)
C12 C 0.8446(6) 0.3202(5) 1.0196(9)
C13 C 0.7304(6) 0.3938(4) 0.7239(9)
C14 C 0.7051(6) 0.4330(5) 0.7342(10)
H11 H 0.70963 0.44783 0.78786
C15 C 0.5741(6) 0.6060(5) 0.7347(10)
C16 C 0.6677(6) 0.4260(5) 0.5888(9)
H12 H 0.64535 0.43567 0.54423
C17 C 0.7785(4) 0.3174(2) 0.8958(7)
H13 H 0.77239 0.29002 0.91221
C18 C 0.7513(4) 0.3351(3) 0.8257(7)
H14 H 0.72669 0.31971 0.79469
C19 C 0.7604(4) 0.3756(3) 0.8013(6)
C20 C 0.7967(4) 0.3984(2) 0.8471(7)
H15 H 0.80288 0.42574 0.83069
C21 C 0.8240(4) 0.3806(3) 0.9172(7)
H16 H 0.84858 0.39604 0.94821
C22 C 0.8149(4) 0.3402(3) 0.9416(6)
C23 C 0.5959(9) 0.5653(6) 0.7148(12)
C24 C 0.6471(9) 0.4889(6) 0.6824(11)
C25 C 0.5300(12) 0.1759(9) 0.0340(17)
O19 O 0.5125(6) 0.6312(6) 0.4885(18)
O20 O 0.8880(9) 0.3687(8) 0.4878(11)
C26 C 0.6262(9) 0.5119(6) 0.6132(11)
H17 H 0.63007 0.50314 0.55321
C27 C 0.5991(9) 0.5481(6) 0.6319(11)
H18 H 0.58235 0.56117 0.58391
C28 C 0.5097(10) 0.75000 0.4381(15)
C29 C 0.6109(9) 0.5382(6) 0.7847(11)
H19 H 0.60139 0.54399 0.84445
C30 C 0.6384(9) 0.5043(6) 0.7675(11)
H20 H 0.65261 0.49020 0.81667
C31 C 0.5577(11) 0.1530(8) -0.0387(15)
C32 C 0.8803(16) 0.25000 0.549(2)
C33 C 0.8510(15) 0.25000 0.6343(19)
O15F O 0.5131(5) 0.7850(4) 0.4742(7)
O18F O 0.8843(7) 0.2099(8) 0.5084(10)
Tb3D Tb 0.08967(3) 0.68823(2) 0.63261(5)
Tb4D Tb 0.46144(3) 0.31100(2) 0.38500(5)
O1D O 0.1096(3) 0.6949(2) 0.7856(4)
H1D H 0.13054 0.67046 0.79918
O7D O 0.1764(3) 0.6730(3) 0.6386(6)
O8D O 0.4097(3) 0.7054(3) 0.7346(6)
O9D O 0.4490(3) 0.6704(3) 0.6243(6)
O10D O 0.2215(3) 0.7060(3) 0.7481(6)
O11D O 0.1813(4) 0.7055(3) -0.0637(6)
O12D O 0.1117(4) 0.6687(3) -0.0291(6)
O13D O 0.4194(4) 0.3788(3) 0.1892(6)
O16D O 0.4502(4) 0.3774(3) 0.3293(7)
C1D C 0.2658(2) 0.6721(3) 0.6307(5)
C2D C 0.3120(3) 0.6829(3) 0.6689(4)
H7D H 0.31284 0.69893 0.72160
C3D C 0.3571(2) 0.6701(3) 0.6292(5)
C4D C 0.3559(2) 0.6464(3) 0.5513(5)
H8D H 0.38631 0.63775 0.52445
C5D C 0.3096(3) 0.6356(3) 0.5131(4)
C6D C 0.2646(2) 0.6485(3) 0.5528(5)
H9D H 0.23333 0.64114 0.52694
C7D C 0.4111(5) 0.6827(4) 0.6647(9)
C8D C 0.2173(5) 0.6844(4) 0.6792(9)
C9D C 0.3066(5) 0.6109(4) 0.4254(8)
C10D C 0.2737(6) 0.6258(5) 0.3556(9)
H10D H 0.25473 0.64977 0.36560
C11D C 0.3254(6) 0.5509(4) 0.3327(9)
C12D C 0.1554(6) 0.6798(5) -0.0196(9)
C13D C 0.2696(6) 0.6062(4) 0.2761(9)
C14D C 0.2949(6) 0.5670(5) 0.2658(10)
H11D H 0.29037 0.55217 0.21214
C15D C 0.4259(6) 0.3940(5) 0.2653(10)
C16D C 0.3323(6) 0.5740(5) 0.4112(9)
H12D H 0.35465 0.56433 0.45577
C17D C 0.2215(4) 0.6826(2) 0.1042(7)
H13D H 0.22761 0.70998 0.08779
C18D C 0.2487(4) 0.6649(3) 0.1743(7)
H14D H 0.27331 0.68029 0.20531
C19D C 0.2396(4) 0.6244(3) 0.1987(6)
C20D C 0.2033(4) 0.6016(2) 0.1529(7)
H15D H 0.19712 0.57426 0.16931
C21D C 0.1760(4) 0.6194(3) 0.0828(7)
H16D H 0.15142 0.60396 0.05179
C22D C 0.1851(4) 0.6598(3) 0.0584(6)
C23D C 0.4041(9) 0.4347(6) 0.2852(12)
C24D C 0.3529(9) 0.5111(6) 0.3176(11)
O19D O 0.4875(6) 0.3688(6) 0.5115(18)
O20D O 0.1120(9) 0.6313(8) 0.5122(11)
C26D C 0.3738(9) 0.4881(6) 0.3868(11)
H17D H 0.36993 0.49686 0.44679
C27D C 0.4009(9) 0.4519(6) 0.3681(11)
H18D H 0.41765 0.43883 0.41609
C29D C 0.3891(9) 0.4618(6) 0.2153(11)
H19D H 0.39861 0.45601 0.15555
C30D C 0.3616(9) 0.4957(6) 0.2325(11)
H20D H 0.34739 0.50980 0.18333
O14F O 0.5565(4) 0.2957(3) 0.0779(6)
O17F O 0.4817(5) 0.3320(4) 0.0483(7)
C25F C 0.5300(12) 0.3241(9) 0.0340(17)
C31F C 0.5577(11) 0.3470(8) -0.0387(15)
O4F O 0.4813(3) 0.3049(2) 0.2277(5)
H4F H 0.50246 0.32925 0.21430
Tb1* Tb 0.83765(4) 0.25000 1.18233(6)
Tb1A Tb 0.66235(4) 0.75000 0.68233(6)
Tb1B Tb 0.16235(4) 0.75000 -0.18233(6)
Tb1B* Tb 0.16235(4) 0.75000 0.81767(6)
Tb2B Tb 0.46700(4) 0.75000 0.80392(6)
Tb3A Tb 0.58967(3) 0.68823(2) 0.86739(5)
Tb3C Tb 0.41033(3) 0.18823(2) 0.13261(5)
Tb3E Tb 0.41033(3) 0.31177(2) 0.13261(5)
Tb3F Tb 0.91033(3) 0.18823(2) 0.36739(5)
Tb4A Tb 0.96144(3) 0.31100(2) 0.11500(5)
Tb4A* Tb 0.96144(3) 0.31100(2) 1.11500(5)
Tb4B Tb 0.46144(3) 0.18900(2) 0.38500(5)
Tb4E Tb 0.03856(3) 0.68900(2) -0.11500(5)
Tb4E* Tb 0.03856(3) 0.68900(2) 0.88500(5)
Tb4F Tb 0.53856(3) 0.81100(2) 0.61500(5)
O1A O 0.6096(3) 0.6949(2) 0.7144(4)
O1E O 0.3904(3) 0.3051(2) 0.2856(4)
O1F O 0.8904(3) 0.1949(2) 0.2144(4)
O2B O 0.1303(3) 0.75000 0.6681(6)
O3A O 0.9144(3) 0.25000 0.0988(6)
O3B O 0.4144(3) 0.25000 0.4012(6)
O4B O 0.5187(3) 0.6951(2) 0.7723(5)
O4C O 0.9813(3) 0.3049(2) 0.2723(5)
O4G O 0.0187(3) 0.6951(2) 0.7277(5)
O5A O 0.0415(4) 0.75000 0.6079(6)
O5C O 0.9585(4) 0.25000 0.3921(6)
O6B O 0.4949(4) 0.75000 0.6560(6)
O8F O 0.5903(3) 0.2054(3) 0.2654(6)
O10F O 0.7785(3) 0.2060(3) 0.2519(6)
O11* O 0.8187(4) 0.2945(3) 0.0637(6)
O11F O 0.8187(4) 0.2055(3) 0.0637(6)
O12A O 0.6117(4) 0.6687(3) 0.5291(6)
O12E O 0.3883(4) 0.3313(3) 0.4709(6)
O13A O 0.9194(4) 0.3788(3) 0.3108(6)
O13E O 0.0806(4) 0.6212(3) 0.6892(6)
O15D O 0.4869(5) 0.2850(4) 0.5258(7)
O17C O 0.9817(5) 0.3320(4) 0.4517(7)
O17G O 0.0183(5) 0.6680(4) 0.5483(7)
O18D O 0.1157(7) 0.7099(8) 0.4916(10)
#END
