
#######################################################################
#
#                 Cambridge Crystallographic Data Centre
#                                CCDC
#
#######################################################################
#
# If this CIF has been generated from an entry in the Cambridge
# Structural Database, then it will include bibliographic, chemical,
# crystal, experimental, refinement or atomic coordinate data resulting
# from the CCDC's data processing and validation procedures.
#
#######################################################################

data_CSD_CIF_UYEWUT
_audit_creation_date 2021-06-30
_audit_creation_method CSD-ConQuest-V1
_database_code_CSD UYEWUT
_database_code_depnum_ccdc_archive 'CCDC 2076502'
_chemical_formula_sum 'C65 H67 N3 O33 Y6'
_chemical_formula_moiety
;
(C58 H44 O32 Y6 2-)n,2(C2 H8 N1 1+),x(C3 H7 N1 O1)
;
_journal_coden_Cambridge 4
_journal_year 2021
_journal_name_full 'J.Am.Chem.Soc. '
loop_
_publ_author_name
"G.K.Angeli"
"E.Loukopoulos"
"K.Kouvidis"
"A.Bosveli"
"C.Tsangarakis"
"E.Tylianakis"
"G.Froudakis"
"P.N.Trikalitis"
_chemical_name_systematic
;
catena-[bis(dimethylammonium) 
bis(\m-3',5'-bis(4-carboxylatophenyl)[1,1'-biphenyl]-3,5-dicarboxylato)-octaki
s(\m-hydroxy)-bis(\m-formato)-diaqua-dihydroxy-hexa-yttrium(iii) 
N,N-dimethylformamide solvate]
;
_cell_volume   9753.903
_exptl_crystal_colour 'colorless'
_exptl_crystal_description 'block'
_diffrn_ambient_temperature 220.0
_refine_special_details
;
Disordered N,N-dimethylformamide solvent molecules were not modelled and the 
disordered density was taken into account using the MASK/OLEX2 program.
;
#These two values have been output from a single CSD field.
_refine_ls_R_factor_gt 0.1046
_refine_ls_wR_factor_gt 0.1046
_symmetry_cell_setting orthorhombic
_symmetry_space_group_name_H-M 'P n m a'
_symmetry_Int_Tables_number 62
loop_
_symmetry_equiv_pos_site_id
_symmetry_equiv_pos_as_xyz
1 x,y,z
2 1/2-x,-y,1/2+z
3 -x,1/2+y,-z
4 1/2+x,1/2-y,1/2-z
5 -x,-y,-z
6 -1/2+x,y,-1/2-z
7 x,-1/2-y,z
8 -1/2-x,-1/2+y,-1/2+z
_cell_length_a 25.004(3)
_cell_length_b 27.689(3)
_cell_length_c 14.0884(15)
_cell_angle_alpha 90
_cell_angle_beta 90
_cell_angle_gamma 90
_cell_formula_units_Z 4
loop_
_atom_type_symbol
_atom_type_radius_bond
C 0.68
H 0.23
O 0.68
Y 1.90
loop_
_atom_site_label
_atom_site_type_symbol
_atom_site_fract_x
_atom_site_fract_y
_atom_site_fract_z
Y1 Y 0.91181(9) 0.75000 0.77024(19)
Y2 Y 0.61863(9) 0.75000 0.82899(18)
Y3 Y 0.53242(7) 0.67926(8) 0.64671(14)
Y4 Y 0.50783(7) 0.31928(8) 0.08136(14)
O1 O 0.9833(4) 0.75000 0.8691(8)
H1 H 0.96877 0.75000 0.93452
O2 O 0.4695(4) 0.6869(4) 0.7593(7)
H2 H 0.44670 0.65814 0.74898
O3 O 0.4535(4) 0.25000 0.0599(10)
H3 H 0.43891 0.25000 -0.00546
O4 O 0.5506(6) 0.25000 0.1178(10)
H4 H 0.58202 0.25000 0.07513
O5 O 0.5762(5) 0.75000 0.6858(10)
H5 H 0.60662 0.75000 0.64075
O6 O 0.4375(4) 0.3161(4) 0.1845(8)
H6 H 0.41541 0.34508 0.17241
O7 O 0.5014(4) 0.3959(5) 0.1347(11)
O8 O 0.8838(6) 0.6957(6) -0.1177(12)
O9 O 0.6719(4) 0.6983(6) 0.7442(10)
O10 O 0.6192(5) 0.6545(5) 0.6427(9)
O11 O 0.4827(5) 0.3951(6) 0.2918(12)
O12 O 0.8601(4) 0.6975(6) 0.6886(11)
O13 O 0.9012(5) 0.6572(5) 0.5749(10)
O14 O 0.9569(6) 0.6570(6) -0.0622(11)
O15 O 0.6593(5) 0.7014(6) 0.9397(10)
H7 H 0.63538 0.68019 0.96685
H8 H 0.67100 0.71837 0.99245
O16 O 0.5546(7) 0.7009(5) 0.4936(12)
C1 C 0.7030(4) 0.6294(6) 0.5330(13)
H9 H 0.66823 0.62111 0.51354
C2 C 0.7108(5) 0.6546(5) 0.6171(11)
C3 C 0.7622(6) 0.6669(5) 0.6459(8)
H10 H 0.76741 0.68395 0.70278
C4 C 0.8059(4) 0.6539(6) 0.5905(11)
C5 C 0.7981(5) 0.6286(5) 0.5063(10)
H11 H 0.82765 0.61982 0.46882
C6 C 0.7467(6) 0.6164(5) 0.4776(9)
O17 O 0.4454(6) 0.3536(6) -0.017(1)
H12 H 0.43233 0.33255 -0.05189
C7 C 0.5105(8) 0.4154(9) 0.218(3)
C8 C 0.8606(8) 0.6737(9) 0.6147(13)
O18 O 0.5326(6) 0.2947(8) -0.0689(10)
C9 C 0.6632(6) 0.6728(8) 0.6726(13)
C10 C 0.5559(5) 0.4449(5) 0.2335(11)
C11 C 0.5795(6) 0.4496(5) 0.3223(9)
H13 H 0.56601 0.43218 0.37428
C12 C 0.6231(6) 0.4802(6) 0.3343(9)
H14 H 0.63910 0.48337 0.39432
C13 C 0.6431(5) 0.5059(5) 0.2574(12)
C14 C 0.6195(6) 0.5012(5) 0.1686(10)
H15 H 0.63299 0.51864 0.11659
C15 C 0.5759(6) 0.4707(6) 0.1566(9)
H16 H 0.55990 0.46745 0.09655
C16 C 0.9077(9) 0.6664(10) -0.0664(14)
C17 C 0.6882(4) 0.5415(4) 0.2748(10)
C18 C 0.6969(4) 0.5609(5) 0.3644(8)
H17 H 0.67370 0.55312 0.41469
C19 C 0.7398(5) 0.5918(5) 0.3797(7)
C20 C 0.7741(4) 0.6033(5) 0.3054(10)
H18 H 0.80312 0.62416 0.31571
C21 C 0.7654(4) 0.5838(5) 0.2157(8)
C22 C 0.7224(5) 0.5529(5) 0.2004(7)
H19 H 0.71656 0.53979 0.13977
C23 C 0.8040(5) 0.5990(5) 0.1384(9)
C24 C 0.8584(5) 0.6023(5) 0.1569(8)
H20 H 0.87211 0.59163 0.21536
C25 C 0.8927(4) 0.6214(6) 0.0888(10)
H21 H 0.92957 0.62359 0.10133
C26 C 0.8725(5) 0.6372(5) 0.0023(9)
C27 C 0.8180(5) 0.6339(5) -0.0162(8)
H22 H 0.80437 0.64460 -0.07467
C28 C 0.7838(4) 0.6148(6) 0.0519(10)
H23 H 0.74691 0.61263 0.03935
C29 C 0.5550(19) 0.75000 0.471(3)
H24 H 0.55596 0.75000 0.40385
C30 C 0.5470(12) 0.25000 -0.102(2)
H25 H 0.57012 0.25000 -0.15422
O16F O 0.5546(7) 0.7991(5) 0.4936(12)
O18F O 0.5326(6) 0.2053(8) -0.0689(10)
Y3D Y 0.46758(7) 0.32074(8) 0.35329(14)
Y4D Y 0.49217(7) 0.68072(8) 0.91864(14)
O2D O 0.5305(4) 0.3131(4) 0.2407(7)
H2D H 0.55330 0.34186 0.25102
O6D O 0.5625(4) 0.6839(4) 0.8155(8)
H6D H 0.58459 0.65492 0.82759
O7D O 0.4986(4) 0.6041(5) 0.8653(11)
O8D O 0.1162(6) 0.3043(6) 1.1177(12)
O9D O 0.3281(4) 0.3017(6) 0.2558(10)
O10D O 0.3808(5) 0.3455(5) 0.3573(9)
O11D O 0.5173(5) 0.6049(6) 0.7082(12)
O12D O 0.1399(4) 0.3025(6) 0.3114(11)
O13D O 0.0988(5) 0.3428(5) 0.4251(10)
O14D O 0.0431(6) 0.3430(6) 1.0622(11)
C1D C 0.2970(4) 0.3706(6) 0.4670(13)
H9D H 0.33177 0.37889 0.48646
C2D C 0.2892(5) 0.3454(5) 0.3829(11)
C3D C 0.2378(6) 0.3331(5) 0.3541(8)
H10D H 0.23259 0.31605 0.29722
C4D C 0.1941(4) 0.3461(6) 0.4095(11)
C5D C 0.2019(5) 0.3714(5) 0.4937(10)
H11D H 0.17235 0.38018 0.53118
C6D C 0.2533(6) 0.3836(5) 0.5224(9)
O17D O 0.5546(6) 0.6464(6) 1.017(1)
H12D H 0.56767 0.66745 1.05189
C7D C 0.4895(8) 0.5846(9) 0.782(3)
C8D C 0.1394(8) 0.3263(9) 0.3853(13)
C9D C 0.3368(6) 0.3272(8) 0.3274(13)
C10D C 0.4441(5) 0.5551(5) 0.7665(11)
C11D C 0.4205(6) 0.5504(5) 0.6777(9)
H13D H 0.43399 0.56782 0.62572
C12D C 0.3769(6) 0.5198(6) 0.6657(9)
H14D H 0.36090 0.51663 0.60568
C13D C 0.3569(5) 0.4941(5) 0.7426(12)
C14D C 0.3805(6) 0.4988(5) 0.8314(10)
H15D H 0.36701 0.48136 0.88341
C15D C 0.4241(6) 0.5293(6) 0.8434(9)
H16D H 0.44010 0.53255 0.90345
C16D C 0.0923(9) 0.3336(10) 1.0664(14)
C17D C 0.3118(4) 0.4585(4) 0.7252(10)
C18D C 0.3031(4) 0.4391(5) 0.6356(8)
H17D H 0.32630 0.44688 0.58530
C19D C 0.2602(5) 0.4082(5) 0.6203(7)
C20D C 0.2259(4) 0.3967(5) 0.6946(10)
H18D H 0.19688 0.37584 0.68429
C21D C 0.2346(4) 0.4162(5) 0.7843(8)
C22D C 0.2776(5) 0.4471(5) 0.7996(7)
H19D H 0.28344 0.46021 0.86023
C23D C 0.1960(5) 0.4010(5) 0.8616(9)
C24D C 0.1416(5) 0.3977(5) 0.8431(8)
H20D H 0.12789 0.40837 0.78464
C25D C 0.1073(4) 0.3786(6) 0.9112(10)
H21D H 0.07043 0.37641 0.89867
C26D C 0.1275(5) 0.3628(5) 0.9977(9)
C27D C 0.1820(5) 0.3661(5) 1.0162(8)
H22D H 0.19563 0.35540 1.07468
C28D C 0.2162(4) 0.3852(6) 0.9481(10)
H23D H 0.25309 0.38737 0.96065
O15F O 0.6593(5) 0.7986(6) 0.9397(10)
H7F H 0.63538 0.81981 0.96685
H8F H 0.67100 0.78163 0.99245
Y1* Y 0.91181(9) 0.75000 -0.22976(19)
Y1A Y 0.58819(9) 0.25000 0.27024(19)
Y1B Y 0.08819(9) 0.25000 0.22976(19)
Y1B* Y 0.08819(9) 0.25000 1.22976(19)
Y1C Y 0.41181(9) 0.75000 0.72976(19)
Y2B Y 0.38137(9) 0.25000 0.17101(18)
Y3A Y -0.03242(7) 0.32074(8) 1.14671(14)
Y3C Y 1.03242(7) 0.82074(8) 0.85329(14)
Y3E Y 1.03242(7) 0.67926(8) -0.14671(14)
Y3E* Y 1.03242(7) 0.67926(8) 0.85329(14)
Y3F Y 0.53242(7) 0.82074(8) 0.64671(14)
Y4A Y 0.99217(7) 0.68072(8) 0.58136(14)
Y4E Y 0.00783(7) 0.31928(8) 0.41864(14)
Y4F Y 0.50783(7) 0.18072(8) 0.08136(14)
O1A O 0.5167(4) 0.25000 0.3691(8)
O1C O 0.4833(4) 0.75000 0.6309(8)
O2C O 0.9695(4) 0.8131(4) 0.7407(7)
O2E O 0.9695(4) 0.6869(4) 0.7407(7)
O3B O 0.5465(4) 0.75000 0.9401(10)
O4A O 0.9494(6) 0.75000 0.6178(10)
O4B O 0.4494(6) 0.75000 0.8822(10)
O5B O 0.4238(5) 0.25000 0.3142(10)
O6B O 0.5625(4) 0.8161(4) 0.8155(8)
O8* O 0.8838(6) 0.6957(6) 0.8823(12)
O8F O 0.8838(6) 0.8043(6) 0.8823(12)
O9F O 0.6719(4) 0.8017(6) 0.7442(10)
O12F O 0.8601(4) 0.8025(6) 0.6886(11)
O13A O 0.5988(5) 0.3428(5) 0.0749(10)
O13E O 0.4012(5) 0.6572(5) 0.9251(10)
O14A O 0.5431(6) 0.3430(6) 0.4378(11)
O14E O 0.4569(6) 0.6570(6) 0.5622(11)
O16D O 0.4454(7) 0.2991(5) 0.5064(12)
O18D O 0.4674(6) 0.7053(8) 1.0689(10)
#END
