
#######################################################################
#
#                 Cambridge Crystallographic Data Centre
#                                CCDC
#
#######################################################################
#
# If this CIF has been generated from an entry in the Cambridge
# Structural Database, then it will include bibliographic, chemical,
# crystal, experimental, refinement or atomic coordinate data resulting
# from the CCDC's data processing and validation procedures.
#
#######################################################################

data_CSD_CIF_UYEWED
_audit_creation_date 2021-06-30
_audit_creation_method CSD-ConQuest-V1
_database_code_CSD UYEWED
_database_code_depnum_ccdc_archive 'CCDC 2076499'
_chemical_formula_sum 'C70 H69 N3 O33 Y6'
_chemical_formula_moiety
;
(C63 H46 O32 Y6 2-)n,2(C2 H8 N1 1+),x(C3 H7 N1 O1)
;
_journal_coden_Cambridge 4
_journal_year 2021
_journal_name_full 'J.Am.Chem.Soc. '
loop_
_publ_author_name
"G.K.Angeli"
"E.Loukopoulos"
"K.Kouvidis"
"A.Bosveli"
"C.Tsangarakis"
"E.Tylianakis"
"G.Froudakis"
"P.N.Trikalitis"
_chemical_name_systematic
;
catena-[bis(dimethylammonium) 
bis(\m-3',5'-bis(4-carboxylatophenyl)[1,1'-biphenyl]-3,5-dicarboxylato)-octaki
s(\m-hydroxy)-tris(\m-acetato)-(\m-formato)-hexa-yttrium(iii) 
N,N-dimethylformamide solvate]
;
_cell_volume  10319.610
_exptl_crystal_colour 'colorless'
_exptl_crystal_description 'block'
_diffrn_ambient_temperature 270.0
_refine_special_details
;
Disordered N,N-dimethylformamide solvent molecules were not modelled and the 
disordered density was taken into account using the MASK/OLEX2 program.
;
#These two values have been output from a single CSD field.
_refine_ls_R_factor_gt 0.1097
_refine_ls_wR_factor_gt 0.1097
_symmetry_cell_setting orthorhombic
_symmetry_space_group_name_H-M 'P n m a'
_symmetry_Int_Tables_number 62
loop_
_symmetry_equiv_pos_site_id
_symmetry_equiv_pos_as_xyz
1 x,y,z
2 1/2-x,-y,1/2+z
3 -x,1/2+y,-z
4 1/2+x,1/2-y,1/2-z
5 -x,-y,-z
6 -1/2+x,y,-1/2-z
7 x,-1/2-y,z
8 -1/2-x,-1/2+y,-1/2+z
_cell_length_a 25.401(5)
_cell_length_b 27.779(6)
_cell_length_c 14.625(3)
_cell_angle_alpha 90
_cell_angle_beta 90
_cell_angle_gamma 90
_cell_formula_units_Z 4
loop_
_atom_type_symbol
_atom_type_radius_bond
C 0.68
H 0.23
O 0.68
Y 1.90
loop_
_atom_site_label
_atom_site_type_symbol
_atom_site_fract_x
_atom_site_fract_y
_atom_site_fract_z
Y1 Y 0.10425(6) 0.25000 0.81229(13)
Y2 Y 0.40332(6) 0.25000 0.79997(13)
Y3 Y 0.48019(5) 0.31965(6) 0.61247(10)
Y4 Y 0.52540(5) 0.32089(7) 0.87104(11)
O1 O 0.4386(4) 0.25000 0.6518(8)
H1 H 0.40726 0.25000 0.61274
O2 O 0.0312(4) 0.25000 0.9078(8)
H2 H 0.04400 0.25000 0.97103
O3 O 0.4775(4) 0.25000 0.8922(8)
H3 H 0.46514 0.25000 0.95568
O4 O 0.0692(4) 0.25000 0.6688(8)
H4 H 0.10019 0.25000 0.62887
O5 O 0.0492(3) 0.1880(4) 0.7863(7)
H5 H 0.07089 0.15953 0.79864
O6 O 0.4595(3) 0.3123(3) 0.7684(6)
H6 H 0.43764 0.34071 0.77981
O7 O 0.3502(3) 0.3012(5) 0.7248(8)
O8 O 0.3932(4) 0.3408(5) 0.6120(8)
O9 O 0.1587(4) 0.3015(5) 0.7360(9)
O10 O 0.1127(4) 0.3431(5) 0.6340(8)
O11 O 0.4552(6) 0.2892(7) 0.4696(9)
O12 O 0.0114(6) 0.6016(7) 0.1643(12)
O13 O 0.3800(5) 0.3018(6) -0.0911(9)
C1 C 0.3513(5) 0.3277(7) 0.6539(13)
O14 O 0.4544(5) 0.3471(6) -0.0438(8)
C2 C 0.2046(6) 0.3458(7) 0.6229(12)
C3 C 0.2523(5) 0.3307(7) 0.6592(12)
H7 H 0.25293 0.31145 0.71126
C4 C 0.2999(5) 0.3695(6) 0.5323(10)
H8 H 0.33110 0.37697 0.50210
C5 C 0.2994(5) 0.3444(6) 0.6176(12)
O15 O -0.0090(6) 0.6004(7) 0.3096(12)
C6 C 0.2483(6) 0.3828(8) 0.4957(11)
C7 C 0.2044(6) 0.3692(6) 0.5402(10)
H9 H 0.17209 0.37606 0.51345
O16 O 0.1338(7) 0.3031(6) 0.9267(14)
O17 O 0.5549(4) 0.2974(5) 1.0083(7)
C8 C 0.1557(7) 0.3291(8) 0.6657(14)
O18 O 0.0537(7) 0.3498(7) 0.9682(13)
C9 C 0.4036(8) 0.3331(10) -0.0469(14)
C10 C 0.0196(9) 0.5846(11) 0.2437(19)
C11 C 0.2734(5) 0.4154(6) 0.2450(8)
C12 C 0.2338(6) 0.4489(6) 0.2293(8)
H10 H 0.23040 0.46303 0.17192
C13 C 0.1993(5) 0.4613(6) 0.2992(9)
C14 C 0.2044(5) 0.4402(6) 0.3849(8)
H11 H 0.18134 0.44847 0.43166
C15 C 0.2440(6) 0.4066(6) 0.4006(7)
C16 C 0.2785(5) 0.3942(6) 0.3307(9)
H12 H 0.30496 0.37177 0.34126
C17 C 0.1036(8) 0.3407(8) 0.946(2)
C18 C 0.3612(5) 0.3926(8) 0.1834(9)
H13 H 0.37604 0.40296 0.23808
C19 C 0.3932(4) 0.3746(8) 0.1142(10)
H14 H 0.42943 0.37292 0.12271
C20 C 0.3710(5) 0.3591(8) 0.0325(9)
C21 C 0.3168(5) 0.3617(8) 0.0198(8)
H15 H 0.30201 0.35133 -0.03488
C22 C 0.2849(3) 0.3797(8) 0.0889(10)
H16 H 0.24862 0.38137 0.08049
C23 C 0.3070(5) 0.3951(8) 0.1707(9)
C24 C 0.1336(6) 0.5224(6) 0.3581(9)
H17 H 0.14685 0.51789 0.41682
C25 C 0.1578(5) 0.5002(6) 0.2840(11)
C26 C 0.1380(6) 0.5070(6) 0.1963(9)
H18 H 0.15417 0.49210 0.14676
C27 C 0.0941(6) 0.5360(6) 0.1827(9)
H19 H 0.08094 0.54055 0.12407
C28 C 0.0700(5) 0.5582(6) 0.2569(11)
C29 C 0.0898(6) 0.5515(6) 0.3446(10)
H20 H 0.07361 0.56634 0.39414
C30 C 0.4401(15) 0.25000 0.4334(18)
C31 C 0.4199(12) 0.25000 0.3433(17)
C32 C 0.1352(10) 0.3818(9) 0.928(2)
C33 C 0.5683(8) 0.25000 1.0290(17)
H21 H 0.59569 0.25000 1.07120
O11F O 0.4552(6) 0.2108(7) 0.4696(9)
O17F O 0.5549(4) 0.2026(5) 1.0083(7)
Y3F Y 0.48019(5) 0.18035(6) 0.61247(10)
Y4F Y 0.52540(5) 0.17911(7) 0.87104(11)
O5F O 0.0492(3) 0.3120(4) 0.7863(7)
H5F H 0.07089 0.34047 0.79864
O6F O 0.4595(3) 0.1877(3) 0.7684(6)
H6F H 0.43764 0.15929 0.77981
O7F O 0.3502(3) 0.1988(5) 0.7248(8)
O8F O 0.3932(4) 0.1592(5) 0.6120(8)
O9F O 0.1587(4) 0.1985(5) 0.7360(9)
O10F O 0.1127(4) 0.1569(5) 0.6340(8)
O12F O 0.0114(6) -0.1016(7) 0.1643(12)
O13F O 0.3800(5) 0.1982(6) -0.0911(9)
C1F C 0.3513(5) 0.1723(7) 0.6539(13)
O14F O 0.4544(5) 0.1529(6) -0.0438(8)
C2F C 0.2046(6) 0.1542(7) 0.6229(12)
C3F C 0.2523(5) 0.1693(7) 0.6592(12)
H7F H 0.25293 0.18855 0.71126
C4F C 0.2999(5) 0.1305(6) 0.5323(10)
H8F H 0.33110 0.12303 0.50210
C5F C 0.2994(5) 0.1556(6) 0.6176(12)
O15F O -0.0090(6) -0.1004(7) 0.3096(12)
C6F C 0.2483(6) 0.1172(8) 0.4957(11)
C7F C 0.2044(6) 0.1308(6) 0.5402(10)
H9F H 0.17209 0.12394 0.51345
O16F O 0.1338(7) 0.1969(6) 0.9267(14)
C8F C 0.1557(7) 0.1709(8) 0.6657(14)
O18F O 0.0537(7) 0.1502(7) 0.9682(13)
C9F C 0.4036(8) 0.1669(10) -0.0469(14)
C10F C 0.0196(9) -0.0846(11) 0.2437(19)
C11F C 0.2734(5) 0.0846(6) 0.2450(8)
C12F C 0.2338(6) 0.0511(6) 0.2293(8)
H10F H 0.23040 0.03697 0.17192
C13F C 0.1993(5) 0.0387(6) 0.2992(9)
C14F C 0.2044(5) 0.0598(6) 0.3849(8)
H11F H 0.18134 0.05153 0.43166
C15F C 0.2440(6) 0.0934(6) 0.4006(7)
C16F C 0.2785(5) 0.1058(6) 0.3307(9)
H12F H 0.30496 0.12823 0.34126
C17F C 0.1036(8) 0.1593(8) 0.946(2)
C18F C 0.3612(5) 0.1074(8) 0.1834(9)
H13F H 0.37604 0.09704 0.23808
C19F C 0.3932(4) 0.1254(8) 0.1142(10)
H14F H 0.42943 0.12708 0.12271
C20F C 0.3710(5) 0.1409(8) 0.0325(9)
C21F C 0.3168(5) 0.1383(8) 0.0198(8)
H15F H 0.30201 0.14867 -0.03488
C22F C 0.2849(3) 0.1203(8) 0.0889(10)
H16F H 0.24862 0.11863 0.08049
C23F C 0.3070(5) 0.1049(8) 0.1707(9)
C24F C 0.1336(6) -0.0224(6) 0.3581(9)
H17F H 0.14685 -0.01789 0.41682
C25F C 0.1578(5) -0.0002(6) 0.2840(11)
C26F C 0.1380(6) -0.0070(6) 0.1963(9)
H18F H 0.15417 0.00790 0.14676
C27F C 0.0941(6) -0.0360(6) 0.1827(9)
H19F H 0.08094 -0.04055 0.12407
C28F C 0.0700(5) -0.0582(6) 0.2569(11)
C29F C 0.0898(6) -0.0515(6) 0.3446(10)
H20F H 0.07361 -0.06634 0.39414
C32F C 0.1352(10) 0.1182(9) 0.928(2)
Y2* Y 0.40332(6) 0.25000 -0.20003(13)
Y3A Y 0.01981(5) 0.68035(6) 0.11247(10)
Y3C Y -0.01981(5) 0.18035(6) 0.88753(10)
Y3E Y -0.01981(5) 0.31965(6) 0.88753(10)
Y3G Y 0.01981(5) -0.18035(6) 0.11247(10)
Y4* Y 0.52540(5) 0.32089(7) -0.12896(11)
Y4A Y -0.02540(5) 0.67911(7) 0.37104(11)
Y4C Y 0.02540(5) 0.17911(7) 0.62896(11)
Y4E Y 0.02540(5) 0.32089(7) 0.62896(11)
Y4F* Y 0.52540(5) 0.17911(7) -0.12896(11)
Y4G Y -0.02540(5) -0.17911(7) 0.37104(11)
O2C O 0.5312(4) 0.25000 0.5922(8)
O4C O 0.5692(4) 0.25000 0.8312(8)
O5C O 0.5492(3) 0.3120(4) 0.7137(7)
O5E O 0.5492(3) 0.1880(4) 0.7137(7)
O10C O 0.6127(4) 0.1569(5) 0.8660(8)
O10E O 0.6127(4) 0.3431(5) 0.8660(8)
O12A O 0.4886(6) 0.3984(7) 0.6643(12)
O12G O 0.4886(6) 0.1016(7) 0.6643(12)
O13* O 0.3800(5) 0.3018(6) 0.9089(9)
O13F* O 0.3800(5) 0.1982(6) 0.9089(9)
O14* O 0.4544(5) 0.3471(6) 0.9562(8)
O14F* O 0.4544(5) 0.1529(6) 0.9562(8)
O15A O 0.5090(6) 0.3996(7) 0.8096(12)
O15G O 0.5090(6) 0.1004(7) 0.8096(12)
O18C O 0.5537(7) 0.1502(7) 0.5318(13)
O18E O 0.5537(7) 0.3498(7) 0.5318(13)
#END
