
#######################################################################
#
#                 Cambridge Crystallographic Data Centre
#                                CCDC
#
#######################################################################
#
# If this CIF has been generated from an entry in the Cambridge
# Structural Database, then it will include bibliographic, chemical,
# crystal, experimental, refinement or atomic coordinate data resulting
# from the CCDC's data processing and validation procedures.
#
#######################################################################

data_CSD_CIF_UYOXUC
_audit_creation_date 2011-12-21
_audit_creation_method CSD-ConQuest-V1
_database_code_CSD UYOXUC
_database_code_depnum_ccdc_archive 'CCDC 796859'
_chemical_formula_sum 'C102 H156 Cd3 N30 O36'
_chemical_formula_moiety
;
(C2 H8 N1 1+)6n,n(C54 H24 Cd3 N12 O24 6-),12n(C3 H7 N1 O1)
;
_journal_coden_Cambridge 1295
_journal_volume 14
_journal_year 2011
_journal_page_first 893
_journal_name_full 'Inorg.Chem.Commun. '
loop_
_publ_author_name
"Chun-Yi Sun"
"Shuang Wang"
"Guang-Sheng Yang"
"Xin-Long Wang"
"Kui-Zhan Shao"
"Zhong-Min Su"
_chemical_name_systematic
;
catena-(hexakis(Dimethylammonium) 
bis(\m~6~-5,5',5''-(1,3,5-triazine-2,4,6-triyl)-tris(azanediyl)tri-isophthalat
o)-tri-cadmium dimethylformamide solvate)
;
_cell_volume  17728.995
_exptl_crystal_colour 'colorless'
_exptl_crystal_density_diffrn 1.526
_exptl_special_details
;
The a cell value was published as 25.126(1) we have used 32.427(2) from the 
deposited CIF
;
_exptl_crystal_description 'block'
_diffrn_ambient_temperature 296
_refine_special_details
;
The SQUEEZE/PLATON program has been used to model disordered cation and 
solvent molecules.
;
#These two values have been output from a single CSD field.
_refine_ls_R_factor_gt 0.0403
_refine_ls_wR_factor_gt 0.0403
_symmetry_cell_setting rhombohedral
_symmetry_space_group_name_H-M 'R -3 c'
_symmetry_Int_Tables_number 167
loop_
_symmetry_equiv_pos_site_id
_symmetry_equiv_pos_as_xyz
1 x,y,z
2 -y,x-y,z
3 -x+y,-x,z
4 y,x,1/2-z
5 2/3+x,1/3+y,1/3+z
6 2/3-y,1/3+x-y,1/3+z
7 2/3-x+y,1/3-x,1/3+z
8 2/3+y,1/3+x,5/6-z
9 1/3+x,2/3+y,2/3+z
10 1/3+y,2/3+x,1/6-z
11 x-y,-y,1/2-z
12 -x,-x+y,1/2-z
13 1/3-y,2/3+x-y,2/3+z
14 1/3-x+y,2/3-x,2/3+z
15 1/3+x-y,2/3-y,1/6-z
16 1/3-x,2/3-x+y,1/6-z
17 2/3+x-y,1/3-y,5/6-z
18 2/3-x,1/3-x+y,5/6-z
19 -x,-y,-z
20 y,-x+y,-z
21 x-y,x,-z
22 -y,-x,-1/2+z
23 -2/3-x,-1/3-y,-1/3-z
24 -2/3+y,-1/3-x+y,-1/3-z
25 -2/3+x-y,-1/3+x,-1/3-z
26 -2/3-y,-1/3-x,-5/6+z
27 -1/3-x,-2/3-y,-2/3-z
28 -1/3-y,-2/3-x,-1/6+z
29 -x+y,y,-1/2+z
30 x,x-y,-1/2+z
31 -1/3+y,-2/3-x+y,-2/3-z
32 -1/3+x-y,-2/3+x,-2/3-z
33 -1/3-x+y,-2/3+y,-1/6+z
34 -1/3+x,-2/3+x-y,-1/6+z
35 -2/3-x+y,-1/3+y,-5/6+z
36 -2/3+x,-1/3+x-y,-5/6+z
_cell_length_a 25.126(1)
_cell_length_b 25.126(1)
_cell_length_c 32.427(2)
_cell_angle_alpha 90
_cell_angle_beta 90
_cell_angle_gamma 120
_cell_formula_units_Z 6
loop_
_atom_type_symbol
_atom_type_radius_bond
C 0.68
H 0.23
Cd 1.44
N 0.68
O 0.74
loop_
_atom_site_label
_atom_site_type_symbol
_atom_site_fract_x
_atom_site_fract_y
_atom_site_fract_z
Cd1 Cd 0.632554(12) 0.00000 0.25000
O1 O 0.63102(9) 0.08943(10) 0.22527(8)
C1 C 0.61263(13) 0.28534(13) 0.18757(10)
O2 O 0.38092(10) -0.01642(12) 0.12510(8)
O3 O 0.56043(11) 0.00015(10) 0.20111(8)
N1 N 0.65972(10) 0.27533(10) 0.18765(8)
N2 N 0.55456(13) 0.23673(13) 0.18682(12)
C2 C 0.53457(13) 0.17372(13) 0.18271(11)
C3 C 0.47835(13) 0.13790(14) 0.16396(11)
H1 H 0.45570 0.15570 0.15500
C4 C 0.58127(14) 0.05562(14) 0.20621(11)
C5 C 0.45524(12) 0.07522(14) 0.15828(10)
C6 C 0.39435(15) 0.03687(18) 0.13662(12)
C7 C 0.56751(13) 0.14659(13) 0.19668(10)
H2 H 0.60480 0.17020 0.21020
C8 C 0.54531(13) 0.08510(13) 0.19065(10)
C9 C 0.48964(14) 0.04950(14) 0.17136(11)
H3 H 0.47520 0.00790 0.16710
O4 O 0.36064(11) 0.05874(12) 0.13092(9)
H4 H 0.5323(17) 0.2424(15) 0.1822(12)
Cd1B Cd 0.367446(12) 0.36745 0.25000
Cd1A Cd 1.000000(12) 0.63255 0.25000
Cd1EA Cd 0.299221(12) -0.03411 0.08333
Cd1DA Cd 0.666667(12) 0.70078 0.08333
Cd1FA Cd 1.034113(12) 0.33333 0.08333
Cd1W Cd 0.333333(12) 0.03411 0.41667
Cd1IA Cd -0.034113(12) -0.70078 0.41667
Cd1A* Cd 0.000000(12) -0.36745 0.25000
Cd1HA Cd 0.700779(12) -0.33333 0.41667
Cd1B* Cd 0.367446(12) -0.63255 0.25000
O1B O 0.45841(9) 0.36898(10) 0.22527(8)
O1A O 0.91057(9) 0.54159(10) 0.22527(8)
O1J O 0.54159(9) -0.08943(10) 0.27473(8)
O1C O 0.08943(9) -0.36898(10) 0.27473(8)
O1K O 0.36898(9) -0.54159(10) 0.27473(8)
O1K* O 0.36898(9) 0.45841(10) 0.27473(8)
O1C* O 1.08943(9) 0.63102(10) 0.27473(8)
C1A C 0.71466(13) 0.32729(13) 0.18757(10)
C1B C 0.67271(13) 0.38737(13) 0.18757(10)
C1J C 0.32729(13) -0.28534(13) 0.31243(10)
C1K C 0.38737(13) -0.32729(13) 0.31243(10)
C1C C 0.28534(13) -0.38737(13) 0.31243(10)
O2B O 0.60266(10) 0.61908(12) 0.12510(8)
O2A O 1.01642(10) 0.39734(12) 0.12510(8)
O2J O 0.39734(10) 0.01642(12) 0.37490(8)
O2C O -0.01642(10) -0.61908(12) 0.37490(8)
O2K O 0.61908(10) -0.39734(12) 0.37490(8)
O2IA O 0.714253(100) 0.064007(120) 0.291767(80)
O2DA O 0.650247(100) -0.064007(120) 0.208233(80)
O2Y O 0.349753(100) 0.285747(120) 0.291767(80)
O2Z O 0.285747(100) 0.349753(120) 0.208233(80)
O2HA O 0.935993(100) 0.650247(120) 0.291767(80)
O2EA O 1.064007(100) 0.714253(120) 0.208233(80)
O3B O 0.43972(11) 0.43957(10) 0.20111(8)
O3A O 0.99985(11) 0.56028(10) 0.20111(8)
O3J O 0.56028(11) -0.00015(10) 0.29889(8)
O3C O 0.00015(11) -0.43957(10) 0.29889(8)
O3K O 0.43957(11) -0.56028(10) 0.29889(8)
O3K* O 0.43957(11) 0.43972(10) 0.29889(8)
O3C* O 1.00015(11) 0.56043(10) 0.29889(8)
N1A N 0.72467(10) 0.38439(10) 0.18765(8)
N1B N 0.61561(10) 0.34028(10) 0.18765(8)
N1J N 0.38439(10) -0.27533(10) 0.31235(8)
N1K N 0.34028(10) -0.38439(10) 0.31235(8)
N1C N 0.27533(10) -0.34028(10) 0.31235(8)
N2B N 0.68217(13) 0.44544(13) 0.18682(12)
N2A N 0.76327(13) 0.31783(13) 0.18682(12)
N2J N 0.31783(13) -0.23673(13) 0.31318(12)
N2C N 0.23673(13) -0.44544(13) 0.31318(12)
N2K N 0.44544(13) -0.31783(13) 0.31318(12)
C2B C 0.63915(13) 0.46543(13) 0.18271(11)
C2A C 0.82628(13) 0.36085(13) 0.18271(11)
C2J C 0.36085(13) -0.17372(13) 0.31729(11)
C2C C 0.17372(13) -0.46543(13) 0.31729(11)
C2K C 0.46543(13) -0.36085(13) 0.31729(11)
C3B C 0.65955(13) 0.52165(14) 0.16396(11)
C3A C 0.86210(13) 0.34045(14) 0.16396(11)
C3J C 0.34045(13) -0.13790(14) 0.33604(11)
C3C C 0.13790(13) -0.52165(14) 0.33604(11)
C3K C 0.52165(13) -0.34045(14) 0.33604(11)
H1B H 0.70000 0.54430 0.15500
H1A H 0.84430 0.30000 0.15500
H1J H 0.30000 -0.15570 0.34500
H1C H 0.15570 -0.54430 0.34500
H1K H 0.54430 -0.30000 0.34500
C4B C 0.47435(14) 0.41873(14) 0.20621(11)
C4A C 0.94438(14) 0.52565(14) 0.20621(11)
C4J C 0.52565(14) -0.05562(14) 0.29379(11)
C4C C 0.05562(14) -0.41873(14) 0.29379(11)
C4K C 0.41873(14) -0.52565(14) 0.29379(11)
C5B C 0.61998(12) 0.54476(14) 0.15828(10)
C5A C 0.92478(12) 0.38002(14) 0.15828(10)
C5J C 0.38002(12) -0.07522(14) 0.34172(10)
C5C C 0.07522(12) -0.54476(14) 0.34172(10)
C5K C 0.54476(12) -0.38002(14) 0.34172(10)
C6B C 0.64252(15) 0.60565(18) 0.13662(12)
C6A C 0.96313(15) 0.35748(18) 0.13662(12)
C6J C 0.35748(15) -0.03687(18) 0.36338(12)
C6C C 0.03687(15) -0.60565(18) 0.36338(12)
C6K C 0.60565(15) -0.35748(18) 0.36338(12)
C7B C 0.57908(13) 0.43249(13) 0.19668(10)
C7A C 0.85341(13) 0.42092(13) 0.19668(10)
C7J C 0.42092(13) -0.14659(13) 0.30332(10)
C7C C 0.14659(13) -0.43249(13) 0.30332(10)
C7K C 0.43249(13) -0.42092(13) 0.30332(10)
H2B H 0.56540 0.39520 0.21020
H2A H 0.82980 0.43460 0.21020
H2J H 0.43460 -0.17020 0.28980
H2C H 0.17020 -0.39520 0.28980
H2K H 0.39520 -0.43460 0.28980
C8B C 0.53979(13) 0.45469(13) 0.19065(10)
C8A C 0.91490(13) 0.46021(13) 0.19065(10)
C8J C 0.46021(13) -0.08510(13) 0.30935(10)
C8C C 0.08510(13) -0.45469(13) 0.30935(10)
C8K C 0.45469(13) -0.46021(13) 0.30935(10)
C9B C 0.55986(14) 0.51036(14) 0.17136(11)
C9A C 0.95050(14) 0.44014(14) 0.17136(11)
C9J C 0.44014(14) -0.04950(14) 0.32864(11)
C9C C 0.04950(14) -0.51036(14) 0.32864(11)
C9K C 0.51036(14) -0.44014(14) 0.32864(11)
H3B H 0.53270 0.52480 0.16710
H3A H 0.99210 0.46730 0.16710
H3J H 0.46730 -0.00790 0.33290
H3C H 0.00790 -0.52480 0.33290
H3K H 0.52480 -0.46730 0.33290
O4B O 0.69810(11) 0.63936(12) 0.13092(9)
O4A O 0.94126(11) 0.30190(12) 0.13092(9)
O4J O 0.30190(11) -0.05874(12) 0.36908(9)
O4C O 0.05874(11) -0.63936(12) 0.36908(9)
O4K O 0.63936(11) -0.30190(12) 0.36908(9)
O4IA O 0.693973(110) -0.031433(120) 0.297587(90)
O4DA O 0.725407(110) 0.031433(120) 0.202413(90)
O4Y O 0.274593(110) 0.306027(120) 0.297587(90)
O4Z O 0.306027(110) 0.274593(120) 0.202413(90)
O4HA O 1.031433(110) 0.725407(120) 0.297587(90)
O4EA O 0.968567(110) 0.693973(120) 0.202413(90)
H4B H 0.7101(17) 0.4677(15) 0.1822(12)
H4A H 0.7576(17) 0.2899(15) 0.1822(12)
H4J H 0.2899(17) -0.2424(15) 0.3178(12)
H4C H 0.2424(17) -0.4677(15) 0.3178(12)
H4K H 0.4677(17) -0.2899(15) 0.3178(12)
#END
