
#######################################################################
#
#                 Cambridge Crystallographic Data Centre
#                                CCDC
#
#######################################################################
#
# If this CIF has been generated from an entry in the Cambridge
# Structural Database, then it will include bibliographic, chemical,
# crystal, experimental, refinement or atomic coordinate data resulting
# from the CCDC's data processing and validation procedures.
#
#######################################################################

data_CSD_CIF_UYUKEF
_audit_creation_date 2011-11-07
_audit_creation_method CSD-ConQuest-V1
_database_code_CSD UYUKEF
_database_code_depnum_ccdc_archive 'CCDC 747608'
_chemical_formula_sum 'C18 H22 Cd2 Cl2 N2 O13'
_chemical_formula_moiety
;
(C18 H12 Cd1 Cl2 N2 O8 2-)n,0.5n(H20 Cd2 O10 4+)
;
_journal_coden_Cambridge 155
_journal_volume 376
_journal_year 2011
_journal_page_first 195
_journal_name_full 'Inorg.Chim.Acta '
loop_
_publ_author_name
"R.Pandey"
"M.Yadav"
"P.Kumar"
"Pei-Zhou Li"
"S.K.Singh"
"Qiang Xu"
"D.S.Pandey"
_chemical_name_systematic
;
catena-(hemikis(bis(\m~2~-aqua)-octaaqua-di-cadmium) 
bis(\m~2~-3-((carboxylatomethyl)amino)-4-chlorobenzoato)-cadmium)
;
_cell_volume   1200.452
_exptl_crystal_colour 'white'
_exptl_crystal_density_diffrn 2.103
_exptl_crystal_description 'block'
_diffrn_ambient_temperature 293
#These two values have been output from a single CSD field.
_refine_ls_R_factor_gt 0.0937
_refine_ls_wR_factor_gt 0.0937
_symmetry_cell_setting triclinic
_symmetry_space_group_name_H-M 'P -1'
_symmetry_Int_Tables_number 2
loop_
_symmetry_equiv_pos_site_id
_symmetry_equiv_pos_as_xyz
1 x,y,z
2 -x,-y,-z
_cell_length_a 8.0525(16)
_cell_length_b 8.2225(16)
_cell_length_c 18.733(4)
_cell_angle_alpha 89.74(3)
_cell_angle_beta 78.98(3)
_cell_angle_gamma 80.54(3)
_cell_formula_units_Z 2
loop_
_atom_type_symbol
_atom_type_radius_bond
C 0.68
H 0.23
Cd 1.59
Cl 0.99
N 0.68
O 0.68
loop_
_atom_site_label
_atom_site_type_symbol
_atom_site_fract_x
_atom_site_fract_y
_atom_site_fract_z
Cd1 Cd 0.34703(12) 0.17207(12) 0.47694(5)
Cd2 Cd 0.01263(11) 0.98588(11) 0.25482(5)
Cl1 Cl 0.2288(5) 0.5334(5) 0.10025(19)
Cl2 Cl 0.0008(5) 1.2226(6) 0.0386(2)
O1 O 0.2003(11) 0.7242(10) 0.4398(5)
O2 O 0.0921(11) 0.9066(11) 0.3658(5)
C1 C 0.1546(16) 0.7667(18) 0.3794(6)
C2 C 0.1755(17) 0.6275(16) 0.3247(7)
H1 H 0.28080 0.55260 0.32680
H2 H 0.08120 0.56680 0.33840
N1 N 0.1806(12) 0.6793(14) 0.2502(5)
H3 H 0.12440 0.61330 0.22790
C3 C 0.6303(15) 0.7441(15) 0.1891(7)
C4 C 0.3454(15) 0.6788(16) 0.2065(6)
C5 C 0.4732(17) 0.7380(16) 0.2334(7)
H4 H 0.45310 0.77400 0.28170
C6 C 0.3835(16) 0.6196(18) 0.1339(7)
C7 C 0.6649(17) 0.6841(17) 0.1196(8)
H5 H 0.77170 0.68730 0.09060
C8 C 0.5418(16) 0.6174(18) 0.0912(7)
H6 H 0.56700 0.57240 0.04420
C9 C 0.7602(16) 0.8236(16) 0.2166(8)
O3 O 0.7346(12) 0.8697(12) 0.2840(5)
O4 O 0.8956(12) 0.8405(14) 0.1759(5)
O5 O -0.1793(11) 1.1609(11) 0.3434(4)
C10 C -0.2030(16) 1.1978(18) 0.0858(7)
C11 C -0.2462(16) 1.2253(16) 0.1610(7)
C12 C -0.1667(18) 1.3775(18) 0.2594(7)
H7 H -0.26360 1.45640 0.25030
H8 H -0.07140 1.43660 0.25810
C13 C -0.2129(17) 1.3119(18) 0.3351(8)
N2 N -0.1196(14) 1.2520(15) 0.1998(6)
H9 H -0.03350 1.28450 0.16690
O6 O -0.2750(16) 1.4122(13) 0.3842(6)
C14 C -0.5223(15) 1.1562(15) 0.1559(7)
C15 C -0.4771(18) 1.1313(19) 0.0832(7)
H10 H -0.55470 1.10040 0.05710
C16 C -0.3170(18) 1.1517(19) 0.0479(8)
H11 H -0.28580 1.13390 -0.00220
C17 C -0.4097(17) 1.2082(18) 0.1944(8)
H12 H -0.44510 1.23220 0.24400
C18 C -0.6894(15) 1.1156(15) 0.1958(8)
O7 O -0.7461(13) 1.1626(16) 0.2613(6)
O8 O -0.7702(12) 1.0362(13) 0.1617(6)
O9 O 0.3511(11) -0.0962(10) 0.5222(5)
O10 O 0.4351(12) 0.0604(13) 0.3647(5)
O11 O 0.2601(16) 0.2748(13) 0.5892(5)
O12 O 0.0889(12) 0.1841(13) 0.4499(5)
O13 O 0.3916(15) 0.4239(13) 0.4471(6)
Cd1A Cd 0.65297(12) -0.17207(12) 0.52306(5)
Cd2* Cd 1.01263(11) 0.98588(11) 0.25482(5)
Cd2** Cd -0.98737(11) 0.98588(11) 0.25482(5)
O3* O -0.2654(12) 0.8697(12) 0.2840(5)
O4* O -0.1044(12) 0.8405(14) 0.1759(5)
O7* O 0.2539(13) 1.1626(16) 0.2613(6)
O8* O 0.2298(12) 1.0362(13) 0.1617(6)
O9A O 0.6489(11) 0.0962(10) 0.4778(5)
O10A O 0.5649(12) -0.0604(13) 0.6353(5)
O11A O 0.7399(16) -0.2748(13) 0.4108(5)
O12A O 0.9111(12) -0.1841(13) 0.5501(5)
O13A O 0.6084(15) -0.4239(13) 0.5529(6)
#END
