
#######################################################################
#
#                 Cambridge Crystallographic Data Centre
#                                CCDC
#
#######################################################################
#
# If this CIF has been generated from an entry in the Cambridge
# Structural Database, then it will include bibliographic, chemical,
# crystal, experimental, refinement or atomic coordinate data resulting
# from the CCDC's data processing and validation procedures.
#
#######################################################################

data_CSD_CIF_UZEGIS
_audit_creation_date 2021-07-28
_audit_creation_method CSD-ConQuest-V1
_database_code_CSD UZEGIS
_database_code_depnum_ccdc_archive 'CCDC 2078790'
_chemical_formula_sum 'C12 H32 N2 O24 Tb2'
_chemical_formula_moiety
;
(C8 H4 O18 Tb2 2-)n,2n(C2 H8 N1 1+),6n(H2 O1)
;
_journal_coden_Cambridge 574
_journal_volume 195
_journal_year 2021
_journal_page_first 109669
_journal_name_full 'Dyes Pigm. '
loop_
_publ_author_name
"Ruifang Cui"
"Rui Li"
"Zheng Li"
"Mingming Wei"
"Xiong Wang"
"Xia Li"
_chemical_name_systematic
;
catena-(bis(dimethylammonium) tetrakis(\m-oxalato)-diaqua-di-terbium 
hexahydrate)
;
_cell_volume   1357.633
_exptl_crystal_colour 'colorless'
_exptl_crystal_density_diffrn 2.207
_exptl_crystal_description 'block'
_diffrn_ambient_temperature 293
#These two values have been output from a single CSD field.
_refine_ls_R_factor_gt 0.0289
_refine_ls_wR_factor_gt 0.0289
_symmetry_cell_setting monoclinic
_symmetry_space_group_name_H-M 'P 21/c'
_symmetry_Int_Tables_number 14
loop_
_symmetry_equiv_pos_site_id
_symmetry_equiv_pos_as_xyz
1 x,y,z
2 -x,1/2+y,1/2-z
3 -x,-y,-z
4 x,-1/2-y,-1/2+z
_cell_length_a 9.6439(4)
_cell_length_b 11.6434(4)
_cell_length_c 14.3243(5)
_cell_angle_alpha 90
_cell_angle_beta 122.428(2)
_cell_angle_gamma 90
_cell_formula_units_Z 2
loop_
_atom_type_symbol
_atom_type_radius_bond
C 0.68
H 0.23
N 0.68
O 0.68
Tb 1.94
loop_
_atom_site_label
_atom_site_type_symbol
_atom_site_fract_x
_atom_site_fract_y
_atom_site_fract_z
Tb1 Tb 0.11751(3) -0.51368(2) -0.168070(18)
O1 O 0.3900(5) -0.5113(3) -0.1427(3)
O2 O 0.6596(5) -0.4884(3) -0.0227(3)
O3 O 0.1931(4) -0.3187(3) -0.1719(3)
O4 O 0.0371(4) -0.3892(3) -0.0644(3)
O5 O -0.1162(4) -0.3944(3) -0.2976(3)
O6 O -0.0189(4) -0.3824(3) 0.0669(3)
O7 O 0.1025(4) -0.1377(3) -0.2066(3)
O8 O 0.1050(5) -0.5211(3) -0.3447(3)
H1 H 0.15340 -0.47210 -0.36550
H2 H 0.05090 -0.57290 -0.39720
O9 O -0.2043(4) -0.2131(3) -0.3435(3)
C1 C 0.0836(5) -0.2434(4) -0.2169(3)
C2 C -0.0961(5) -0.2881(4) -0.2941(4)
C3 C 0.0058(4) -0.4338(4) 0.0010(3)
C4 C 0.5148(6) -0.4997(3) -0.0485(4)
N1 N 0.5747(5) -0.1300(5) -0.1951(4)
H3 H 0.61610 -0.08890 -0.13240
H4 H 0.60830 -0.09670 -0.23640
C5 C 0.3970(7) -0.1253(8) -0.2551(5)
H5 H 0.35160 -0.17260 -0.31990
H6 H 0.36130 -0.04740 -0.27650
H7 H 0.36050 -0.15270 -0.20850
C6 C 0.6422(10) -0.2476(9) -0.1663(6)
H8 H 0.59510 -0.29320 -0.23230
H9 H 0.61600 -0.28130 -0.11650
H10 H 0.75930 -0.24490 -0.13150
O10 O 0.1198(6) -0.3443(4) -0.4669(4)
H11 H 0.17980 -0.29350 -0.47080
H12 H 0.04880 -0.31180 -0.45780
O11 O 0.6620(9) -0.0052(5) -0.0067(5)
H13 H 0.766(3) -0.005(5) 0.029(3)
H14 H 0.624(9) 0.060(3) -0.035(3)
O12 O 0.4493(7) -0.2813(5) -0.4664(4)
H15 H 0.548(4) -0.265(12) -0.451(8)
H16 H 0.383(6) -0.249(6) -0.529(3)
O1B O 0.6100(5) -0.4887(3) 0.1427(3)
O2B O 0.3404(5) -0.5116(3) 0.0227(3)
C4B C 0.4852(6) -0.5003(3) 0.0485(4)
O4B O -0.0371(4) -0.6108(3) 0.0644(3)
C3B C -0.0058(4) -0.5662(4) -0.0010(3)
O6B O 0.0189(4) -0.6176(3) -0.0669(3)
Tb1B Tb -0.11751(3) -0.48632(2) 0.168070(18)
O3B O -0.1931(4) -0.6813(3) 0.1719(3)
O5B O 0.1162(4) -0.6056(3) 0.2976(3)
O7B O -0.1025(4) -0.8623(3) 0.2066(3)
O8B O -0.1050(5) -0.4789(3) 0.3447(3)
H1B H -0.15340 -0.52790 0.36550
H2B H -0.05090 -0.42710 0.39720
O9B O 0.2043(4) -0.7869(3) 0.3435(3)
C1B C -0.0836(5) -0.7566(4) 0.2169(3)
C2B C 0.0961(5) -0.7119(4) 0.2941(4)
Tb1A Tb -0.11751(3) -0.01368(2) -0.331930(18)
Tb1B* Tb 0.88249(3) -0.48632(2) 0.168070(18)
Tb1C Tb 0.11751(3) -0.98632(2) 0.331930(18)
O1B* O -0.3900(5) -0.4887(3) 0.1427(3)
O2* O -0.3404(5) -0.4884(3) -0.0227(3)
O7A O -0.1025(4) -0.6377(3) -0.2934(3)
O7C O 0.1025(4) -0.3623(3) 0.2934(3)
O9A O 0.2043(4) -0.7131(3) -0.1565(3)
O9C O -0.2043(4) -0.2869(3) 0.1565(3)
#END
