
#######################################################################
#
#                 Cambridge Crystallographic Data Centre
#                                CCDC
#
#######################################################################
#
# If this CIF has been generated from an entry in the Cambridge
# Structural Database, then it will include bibliographic, chemical,
# crystal, experimental, refinement or atomic coordinate data resulting
# from the CCDC's data processing and validation procedures.
#
#######################################################################

data_CSD_CIF_UZIFER
_audit_creation_date 2021-07-29
_audit_creation_method CSD-ConQuest-V1
_database_code_CSD UZIFER
_database_code_depnum_ccdc_archive 'CCDC 2034464'
_chemical_formula_sum 'C60 H124 Co9 N12 O118 P2 W18'
_chemical_formula_moiety
;
(C40 H56 Co7 N8 O88 P2 W18 4-)n,2(C10 H8 N2 O2),2(H12 Co1 O6 2+),14(H2 O1)
;
_journal_coden_Cambridge 179
_journal_volume 60
_journal_year 2021
_journal_page_first 16911
_journal_name_full 'Angew.Chem.,Int.Ed. '
loop_
_publ_author_name
"You-Ren Huang"
"Xiang-Ling Lin"
"Bin Chen"
"Hui-Dong Zheng"
"Zhi-Rong Chen"
"Hao-Hong Li"
"Shou-Tian Zheng"
_chemical_name_systematic
;
catena-[bis[hexakis(aqua)-cobalt(ii)] 
[bis(\m-phosphato)-tetratetracontakis(\m-oxido)-bis(\m-4,4'-bipyridine-N,N'-di
oxide)-bis(4,4'-bipyridine-N,N'-dioxide)-dodecakis(aqua)-hexadecaoxo-octadeca-
tungsten(vi)-hepta-cobalt(ii)] bis(4,4'-bipyridine-N,N'-dioxide) unknown 
solvate tetradecahydrate]
;
_cell_volume   3559.475
_exptl_crystal_colour 'red'
_exptl_crystal_density_diffrn 3.172
_exptl_crystal_description 'block'
_exptl_crystal_preparation 'water'
_diffrn_ambient_temperature 150
_refine_special_details
;
Disordered solvent molecules were not modelled and the disordered density was 
taken into account using the SQUEEZE/PLATON procedure.
;
#These two values have been output from a single CSD field.
_refine_ls_R_factor_gt 0.0352
_refine_ls_wR_factor_gt 0.0352
_symmetry_cell_setting triclinic
_symmetry_space_group_name_H-M 'P -1'
_symmetry_Int_Tables_number 2
loop_
_symmetry_equiv_pos_site_id
_symmetry_equiv_pos_as_xyz
1 x,y,z
2 -x,-y,-z
_cell_length_a 12.9851(8)
_cell_length_b 15.6396(9)
_cell_length_c 20.2757(13)
_cell_angle_alpha 92.905(2)
_cell_angle_beta 106.206(2)
_cell_angle_gamma 113.650(2)
_cell_formula_units_Z 1
loop_
_atom_type_symbol
_atom_type_radius_bond
C 0.68
H 0.23
Co 1.26
N 0.68
O 0.68
P 1.05
W 1.62
loop_
_atom_site_label
_atom_site_type_symbol
_atom_site_fract_x
_atom_site_fract_y
_atom_site_fract_z
W1 W -0.46760(3) 0.24549(3) 0.59353(2)
W2 W -0.19268(3) 0.30504(3) 0.57949(2)
W3 W -0.61419(3) 0.02961(3) 0.66244(2)
W4 W -0.47082(3) -0.11071(3) 0.70811(2)
W5 W -0.03951(3) 0.15310(3) 0.63084(2)
W6 W -0.17519(3) -0.04819(3) 0.69173(2)
Co1 Co -0.56607(10) -0.09546(9) 0.52955(6)
Co2 Co -0.69454(11) 0.03794(9) 0.48419(6)
Co3 Co 0.00000 0.50000 0.50000
Co4 Co 1.06500(15) 0.68468(12) 0.73858(8)
P1 P -0.66893(19) -0.09103(16) 0.36083(12)
O1 O -0.6349(6) -0.0147(4) 0.5721(3)
O2 O -0.6091(5) -0.0334(4) 0.4365(3)
O3 O -0.5106(5) -0.1414(4) 0.6167(3)
O4 O -0.5198(5) 0.1474(4) 0.5215(3)
O5 O -0.2716(5) 0.2080(4) 0.5071(3)
O6 O -0.3072(5) -0.0827(4) 0.7260(3)
O7 O -0.6079(6) -0.0817(5) 0.6927(3)
O8 O -0.5490(5) 0.1586(4) 0.6463(3)
O9 O -0.1490(5) 0.0817(4) 0.5506(3)
O10 O -0.6887(5) -0.1950(4) 0.3611(3)
O11 O -0.2659(6) -0.0918(4) 0.6029(3)
O12 O -0.7908(5) -0.0904(4) 0.3270(3)
O13 O -0.3378(5) 0.3213(4) 0.5654(3)
O14 O -0.0790(5) 0.2594(4) 0.6203(3)
O15 O -0.0414(6) 0.0376(5) 0.6655(3)
O16 O -0.5897(5) -0.0484(4) 0.3157(3)
O17 O -0.1147(5) 0.3993(4) 0.5449(3)
O18 O 0.0932(6) 0.1937(5) 0.6143(3)
O19 O -0.7787(6) 0.1072(5) 0.5274(3)
H1 H -0.80190 0.07980 0.55990
H2 H -0.84440 0.09980 0.49640
O20 O -0.7527(6) 0.0145(5) 0.6623(3)
O21 O -0.5247(6) -0.2185(5) 0.7345(3)
O22 O 0.0497(6) 0.3978(5) 0.4756(3)
H3 H -0.00530 0.34150 0.47360
H4 H 0.11120 0.40110 0.50920
O23 O -0.5653(6) 0.2955(4) 0.5675(3)
O24 O -0.1271(6) -0.1343(5) 0.7148(3)
O25 O 0.1283(7) 0.5387(5) 0.5963(4)
O26 O 1.0370(6) 0.7984(5) 0.7698(4)
H5 H 0.97990 0.80150 0.73770
H6 H 1.09790 0.85100 0.77320
O27 O 0.9310(7) 0.6398(5) 0.6436(4)
N1 N 0.2357(8) 0.5494(6) 0.5954(4)
O28 O 1.1675(7) 0.7452(7) 0.6750(4)
H7 H 1.23620 0.79340 0.69930
H8 H 1.13310 0.77270 0.64500
O29 O 0.9556(9) 0.6117(6) 0.7955(4)
H9 H 0.94310 0.55170 0.79180
H10 H 0.88360 0.60750 0.77740
C1 C 0.4235(11) 0.6464(8) 0.5903(5)
H11 H 0.47860 0.70690 0.58690
C2 C 0.4581(9) 0.5729(7) 0.5961(5)
C3 C 0.3138(10) 0.6346(7) 0.5894(5)
H12 H 0.29210 0.68570 0.58450
N2 N 0.8159(8) 0.6231(6) 0.6309(4)
C4 C 0.7374(10) 0.5378(7) 0.6350(5)
H13 H 0.76270 0.49000 0.64770
C5 C 0.3724(9) 0.4847(7) 0.6008(6)
H14 H 0.39100 0.43180 0.60420
C6 C 0.5814(10) 0.5901(7) 0.6031(5)
O30 O 1.2227(9) 0.7358(11) 0.8217(5)
C7 C 0.621(1) 0.5201(8) 0.6211(6)
H15 H 0.56550 0.45920 0.62350
C8 C 0.6663(11) 0.6755(7) 0.5970(6)
H16 H 0.64340 0.72440 0.58380
C9 C 0.2634(10) 0.4749(7) 0.6006(5)
H17 H 0.20650 0.41540 0.60410
C10 C 0.7811(12) 0.6910(8) 0.6094(6)
H18 H 0.83700 0.74900 0.60310
O31 O 1.5180(8) 1.3624(11) 1.0966(5)
N3 N 1.4832(11) 1.2767(14) 1.0572(7)
C11 C 1.4393(13) 1.1128(17) 1.0537(8)
H19 H 1.43370 1.06090 1.07720
C12 C 1.4065(13) 1.0982(17) 0.9806(8)
C13 C 1.4788(13) 1.2004(16) 1.0908(8)
H20 H 1.50400 1.21020 1.14040
C14 C 1.4477(13) 1.2611(17) 0.9883(8)
H21 H 1.44890 1.31310 0.96580
N4 N 1.2700(11) 0.8177(14) 0.8594(7)
C15 C 1.3039(13) 0.9008(16) 0.8302(8)
H22 H 1.29190 0.89380 0.78150
C16 C 1.3313(13) 0.9209(16) 0.9677(8)
H23 H 1.34360 0.92720 1.01650
C17 C 1.3510(13) 0.9869(17) 0.8663(8)
H24 H 1.37690 1.03980 0.84400
C18 C 1.3640(13) 1.0026(17) 0.9394(8)
C19 C 1.2829(13) 0.8331(17) 0.9296(8)
H25 H 1.25680 0.77990 0.95160
C20 C 1.4095(13) 1.1752(16) 0.9471(8)
H26 H 1.38580 1.16790 0.89760
O32 O 1.0925(15) 0.5635(9) 0.7181(6)
H27 H 1.03300 0.50770 0.72120
H28 H 1.15780 0.56300 0.75130
W7 W -0.22225(3) 0.32442(3) 0.74352(2)
W8 W -0.06820(3) 0.17011(3) 0.79554(2)
W9 W -0.36743(3) 0.10769(3) 0.81095(2)
O33 O -0.3175(5) 0.2297(4) 0.7826(3)
O34 O -0.1108(5) 0.2735(4) 0.7720(3)
O35 O -0.5246(5) 0.0897(4) 0.7618(3)
O36 O -0.3656(5) 0.3272(4) 0.6870(3)
O37 O 0.0190(5) 0.2022(4) 0.7335(3)
O38 O -0.1516(5) 0.3738(4) 0.6756(3)
O39 O -0.4171(6) -0.0229(4) 0.7997(3)
O40 O -0.2102(5) 0.1243(4) 0.8206(3)
O41 O -0.0835(5) 0.0469(4) 0.7830(3)
O42 O -0.3588(6) 0.1379(5) 0.8950(3)
O43 O 0.0415(6) 0.2204(5) 0.8751(3)
O44 O -0.1647(6) 0.4236(4) 0.8065(3)
Co5 Co 1.58851(12) 1.64788(10) 1.21101(7)
O45 O 1.5001(6) 1.7300(5) 1.1721(4)
H29 H 1.50110 1.76800 1.20610
H30 H 1.42350 1.69410 1.15150
O46 O 1.6687(6) 1.7457(5) 1.3050(4)
H31 H 1.64890 1.79210 1.30070
H32 H 1.74470 1.77270 1.31430
O47 O 1.4491(6) 1.5687(5) 1.2461(4)
H33 H 1.47510 1.57220 1.29050
H34 H 1.42210 1.50920 1.22940
O48 O 1.7260(7) 1.7287(6) 1.1753(4)
H35 H 1.78770 1.71590 1.19020
H36 H 1.75550 1.78930 1.19340
O49 O 1.5001(8) 1.5534(6) 1.1134(4)
H37 H 1.54220 1.57030 1.08540
H38 H 1.43470 1.55770 1.09120
O50 O 1.6818(7) 1.5729(5) 1.2510(5)
H39 H 1.76320 1.58830 1.25860
H40 H 1.65420 1.51430 1.26680
O51 O 1.0923(7) 0.7949(5) 0.5520(4)
H41 H 1.15810 0.82600 0.54490
H42 H 1.07290 0.83760 0.56430
O52 O 1.8225(6) 1.9204(6) 1.2254(4)
H43 H 1.79410 1.93160 1.25630
H44 H 1.89060 1.92500 1.24880
O53 O -1.0027(7) 0.0638(6) 0.4379(4)
H45 H -0.98830 0.04810 0.40180
H46 H -1.07420 0.02470 0.43140
O54 O 1.0326(7) 0.8093(5) 0.8986(4)
O55 O 1.2554(8) 1.3998(5) 1.1957(4)
N5 N 1.0721(7) 0.8932(6) 0.9378(4)
N6 N 1.2431(9) 1.3261(6) 1.1548(5)
C21 C 1.1949(8) 1.1607(7) 1.0678(5)
C22 C 1.1570(8) 1.0700(7) 1.0223(5)
C23 C 1.1194(8) 1.0567(7) 0.9494(5)
H47 H 1.12260 1.10960 0.92760
C24 C 1.0783(8) 0.9704(7) 0.9085(5)
H48 H 1.05380 0.96420 0.85900
C25 C 1.1510(9) 0.9884(8) 1.0505(5)
H49 H 1.17730 0.99340 1.09990
C26 C 1.1082(9) 0.9021(7) 1.0087(6)
H50 H 1.10360 0.84790 1.02920
C27 C 1.2529(10) 1.2524(9) 1.1832(6)
H51 H 1.27580 1.25690 1.23250
C28 C 1.2294(9) 1.1701(8) 1.1405(6)
H52 H 1.23710 1.11880 1.16120
C29 C 1.1942(10) 1.2412(8) 1.0417(6)
H53 H 1.17760 1.24060 0.99290
C30 C 1.2168(11) 1.3205(8) 1.0849(6)
H54 H 1.21410 1.37370 1.06530
O56 O 1.2862(8) 1.5885(10) 1.0909(6)
H55 H 1.23350 1.56580 1.11030
H56 H 1.25880 1.61620 1.06060
O57 O 1.8698(13) 1.5932(8) 1.2157(7)
H57 H 1.91930 1.62880 1.25430
H58 H 1.86500 1.63140 1.18800
O58 O 1.5211(13) 1.3899(10) 1.2375(8)
H59 H 1.47300 1.33530 1.23900
O59 O 1.6362(14) 1.3854(11) 1.2255(9)
H60 H 1.62920 1.32950 1.22400
W1A W -0.53240(3) -0.24549(3) 0.40647(2)
W2A W -0.80732(3) -0.30504(3) 0.42051(2)
W3A W -0.38581(3) -0.02961(3) 0.33756(2)
W4A W -0.52918(3) 0.11071(3) 0.29189(2)
W5A W -0.96049(3) -0.15310(3) 0.36916(2)
W6A W -0.82481(3) 0.04819(3) 0.30827(2)
Co1A Co -0.43393(10) 0.09546(9) 0.47045(6)
Co2A Co -0.30546(11) -0.03794(9) 0.51581(6)
P1A P -0.33107(19) 0.09103(16) 0.63917(12)
O1A O -0.3651(6) 0.0147(4) 0.4279(3)
O2A O -0.3909(5) 0.0334(4) 0.5635(3)
O3A O -0.4894(5) 0.1414(4) 0.3833(3)
O4A O -0.4802(5) -0.1474(4) 0.4785(3)
O5A O -0.7284(5) -0.2080(4) 0.4929(3)
O6A O -0.6928(5) 0.0827(4) 0.2740(3)
O7A O -0.3921(6) 0.0817(5) 0.3073(3)
O8A O -0.4510(5) -0.1586(4) 0.3537(3)
O9A O -0.8510(5) -0.0817(4) 0.4494(3)
O10A O -0.3113(5) 0.1950(4) 0.6389(3)
O11A O -0.7341(6) 0.0918(4) 0.3971(3)
O12A O -0.2092(5) 0.0904(4) 0.6730(3)
O13A O -0.6622(5) -0.3213(4) 0.4346(3)
O14A O -0.9210(5) -0.2594(4) 0.3797(3)
O15A O -0.9586(6) -0.0376(5) 0.3345(3)
O16A O -0.4103(5) 0.0484(4) 0.6843(3)
O17A O -0.8853(5) -0.3993(4) 0.4551(3)
O18A O -1.0932(6) -0.1937(5) 0.3857(3)
O19A O -0.2213(6) -0.1072(5) 0.4726(3)
H1A H -0.19810 -0.07980 0.44010
H2A H -0.15560 -0.09980 0.50360
O20A O -0.2473(6) -0.0145(5) 0.3377(3)
O21A O -0.4753(6) 0.2185(5) 0.2655(3)
O23A O -0.4347(6) -0.2955(4) 0.4325(3)
O24A O -0.8729(6) 0.1343(5) 0.2852(3)
W7A W -0.77775(3) -0.32442(3) 0.25648(2)
W8A W -0.93180(3) -0.17011(3) 0.20446(2)
W9A W -0.63257(3) -0.10769(3) 0.18905(2)
O33A O -0.6825(5) -0.2297(4) 0.2174(3)
O34A O -0.8892(5) -0.2735(4) 0.2280(3)
O35A O -0.4754(5) -0.0897(4) 0.2382(3)
O36A O -0.6344(5) -0.3272(4) 0.3130(3)
O37A O -1.0190(5) -0.2022(4) 0.2665(3)
O38A O -0.8484(5) -0.3738(4) 0.3244(3)
O39A O -0.5829(6) 0.0229(4) 0.2003(3)
O40A O -0.7898(5) -0.1243(4) 0.1794(3)
O41A O -0.9165(5) -0.0469(4) 0.2170(3)
O42A O -0.6412(6) -0.1379(5) 0.1050(3)
O43A O -1.0415(6) -0.2204(5) 0.1249(3)
O44A O -0.8353(6) -0.4236(4) 0.1935(3)
Co4A Co -1.06500(15) 0.31532(12) 0.26142(8)
O25A O -0.1283(7) 0.4613(5) 0.4037(4)
O26A O -1.0370(6) 0.2016(5) 0.2302(4)
H5A H -0.97990 0.19850 0.26230
H6A H -1.09790 0.14900 0.22680
O27A O -0.9310(7) 0.3602(5) 0.3564(4)
N1A N -0.2357(8) 0.4506(6) 0.4046(4)
O28A O -1.1675(7) 0.2548(7) 0.3250(4)
H7A H -1.23620 0.20660 0.30070
H8A H -1.13310 0.22730 0.35500
O29A O -0.9556(9) 0.3883(6) 0.2045(4)
H9A H -0.94310 0.44830 0.20820
H10A H -0.88360 0.39250 0.22260
C1A C -0.4235(11) 0.3536(8) 0.4097(5)
H11A H -0.47860 0.29310 0.41310
C2A C -0.4581(9) 0.4271(7) 0.4039(5)
C3A C -0.3138(10) 0.3654(7) 0.4106(5)
H12A H -0.29210 0.31430 0.41550
N2A N -0.8159(8) 0.3769(6) 0.3691(4)
C4A C -0.7374(10) 0.4622(7) 0.3650(5)
H13A H -0.76270 0.51000 0.35230
C5A C -0.3724(9) 0.5153(7) 0.3992(6)
H14A H -0.39100 0.56820 0.39580
C6A C -0.5814(10) 0.4099(7) 0.3969(5)
O30A O -1.2227(9) 0.2642(11) 0.1783(5)
C7A C -0.621(1) 0.4799(8) 0.3789(6)
H15A H -0.56550 0.54080 0.37650
C8A C -0.6663(11) 0.3245(7) 0.4030(6)
H16A H -0.64340 0.27560 0.41620
C9A C -0.2634(10) 0.5251(7) 0.3994(5)
H17A H -0.20650 0.58460 0.39590
C10A C -0.7811(12) 0.3090(8) 0.3906(6)
H18A H -0.83700 0.25100 0.39690
O31A O -1.5180(8) -0.3624(11) -0.0966(5)
N3A N -1.4832(11) -0.2767(14) -0.0572(7)
C11A C -1.4393(13) -0.1128(17) -0.0537(8)
H19A H -1.43370 -0.06090 -0.07720
C12A C -1.4065(13) -0.0982(17) 0.0194(8)
C13A C -1.4788(13) -0.2004(16) -0.0908(8)
H20A H -1.50400 -0.21020 -0.14040
C14A C -1.4477(13) -0.2611(17) 0.0117(8)
H21A H -1.44890 -0.31310 0.03420
N4A N -1.2700(11) 0.1823(14) 0.1406(7)
C15A C -1.3039(13) 0.0992(16) 0.1698(8)
H22A H -1.29190 0.10620 0.21850
C16A C -1.3313(13) 0.0791(16) 0.0323(8)
H23A H -1.34360 0.07280 -0.01650
C17A C -1.3510(13) 0.0131(17) 0.1337(8)
H24A H -1.37690 -0.03980 0.15600
C18A C -1.3640(13) -0.0026(17) 0.0606(8)
C19A C -1.2829(13) 0.1669(17) 0.0704(8)
H25A H -1.25680 0.22010 0.04840
C20A C -1.4095(13) -0.1752(16) 0.0529(8)
H26A H -1.38580 -0.16790 0.10240
O32A O -1.0925(15) 0.4365(9) 0.2819(6)
H27A H -1.03300 0.49230 0.27880
H28A H -1.15780 0.43700 0.24870
O22A O -0.0497(6) 0.6022(5) 0.5244(3)
H3A H 0.00530 0.65850 0.52640
H4A H -0.11120 0.59890 0.49080
Co3* Co -1.00000 -0.50000 0.50000
O17A* O 0.1147(5) 0.6007(4) 0.4551(3)
#END
