
#######################################################################
#
#                 Cambridge Crystallographic Data Centre
#                                CCDC
#
#######################################################################
#
# If this CIF has been generated from an entry in the Cambridge
# Structural Database, then it will include bibliographic, chemical,
# crystal, experimental, refinement or atomic coordinate data resulting
# from the CCDC's data processing and validation procedures.
#
#######################################################################

data_CSD_CIF_UZIFER01
_audit_creation_date 2021-07-29
_audit_creation_method CSD-ConQuest-V1
_database_code_CSD UZIFER01
_database_code_depnum_ccdc_archive 'CCDC 2072964'
_chemical_formula_sum 'C60 H124 Co9 N12 O118 P2 W18'
_chemical_formula_moiety
;
(C40 H56 Co7 N8 O88 P2 W18 4-)n,2(C10 H8 N2 O2),2(H12 Co1 O6 2+),14(H2 O1)
;
_journal_coden_Cambridge 179
_journal_volume 60
_journal_year 2021
_journal_page_first 16911
_journal_name_full 'Angew.Chem.,Int.Ed. '
loop_
_publ_author_name
"You-Ren Huang"
"Xiang-Ling Lin"
"Bin Chen"
"Hui-Dong Zheng"
"Zhi-Rong Chen"
"Hao-Hong Li"
"Shou-Tian Zheng"
_chemical_name_systematic
;
catena-[bis[hexakis(aqua)-cobalt(ii)] 
[bis(\m-phosphato)-tetratetracontakis(\m-oxido)-bis(\m-4,4'-bipyridine-N,N'-di
oxide)-bis(4,4'-bipyridine-N,N'-dioxide)-dodecakis(aqua)-hexadecaoxo-octadeca-
tungsten(vi)-hepta-cobalt(ii)] bis(4,4'-bipyridine-N,N'-dioxide) unknown 
solvate tetradecahydrate]
;
_cell_volume   3560.002
_exptl_crystal_colour 'red'
_exptl_crystal_density_diffrn 3.17
_exptl_crystal_description 'block'
_diffrn_ambient_temperature 150
_refine_special_details
;
Disordered solvent molecules were not modelled and the disordered density was 
taken into account using the SQUEEZE/PLATON procedure.
;
#These two values have been output from a single CSD field.
_refine_ls_R_factor_gt 0.0297
_refine_ls_wR_factor_gt 0.0297
_symmetry_cell_setting triclinic
_symmetry_space_group_name_H-M 'P -1'
_symmetry_Int_Tables_number 2
loop_
_symmetry_equiv_pos_site_id
_symmetry_equiv_pos_as_xyz
1 x,y,z
2 -x,-y,-z
_cell_length_a 12.9912(7)
_cell_length_b 15.6599(8)
_cell_length_c 20.2581(10)
_cell_angle_alpha 92.911(2)
_cell_angle_beta 106.248(2)
_cell_angle_gamma 113.700(2)
_cell_formula_units_Z 1
loop_
_atom_type_symbol
_atom_type_radius_bond
C 0.68
H 0.23
Co 1.26
N 0.68
O 0.68
P 1.05
W 1.62
loop_
_atom_site_label
_atom_site_type_symbol
_atom_site_fract_x
_atom_site_fract_y
_atom_site_fract_z
W1 W 0.30713(2) 0.30508(2) 0.57937(2)
W2 W 0.32516(3) -0.04726(2) 0.69250(2)
W3 W -0.11427(3) 0.03007(2) 0.66242(2)
W4 W 0.43196(3) 0.17113(2) 0.79613(2)
W5 W 0.27755(3) 0.32496(2) 0.74355(2)
W6 W 0.03211(2) 0.24553(2) 0.59327(2)
W7 W 0.13257(3) 0.10864(2) 0.81123(2)
W8 W 0.02926(3) -0.10989(2) 0.70864(2)
W9 W 0.46051(3) 0.15344(2) 0.63122(2)
Co1 Co 0.06595(8) 0.09532(7) 0.47027(5)
Co2 Co 0.19479(8) -0.03781(7) 0.51610(5)
Co3 Co 0.50000 0.50000 0.50000
Co4 Co -0.56526(13) 0.31483(10) 0.26070(7)
P1 P 0.16877(16) 0.09125(12) 0.63896(9)
O1 O 0.2898(4) 0.1255(3) 0.8215(3)
O2 O 0.3482(4) 0.3739(3) 0.6759(3)
O3 O -0.0245(4) 0.0906(3) 0.7616(3)
O4 O 0.1833(4) 0.2311(4) 0.7829(3)
O5 O 0.4581(4) 0.0382(3) 0.6666(3)
O6 O 0.1341(4) 0.3278(3) 0.6863(3)
O7 O 0.1611(4) 0.3215(3) 0.5651(2)
O8 O 0.5183(5) 0.2031(4) 0.7338(3)
O9 O 0.3895(4) 0.2743(3) 0.7726(3)
O10 O -0.1096(5) -0.0816(4) 0.6934(3)
O11 O -0.1346(4) -0.0148(3) 0.5720(3)
O12 O -0.0203(4) 0.1476(3) 0.5211(3)
O13 O 0.0893(4) 0.0494(3) 0.6843(3)
O14 O 0.0825(5) -0.0218(4) 0.8000(3)
O15 O -0.0106(4) -0.1414(3) 0.6169(3)
O16 O -0.0497(4) 0.1586(3) 0.6457(3)
O17 O 0.3522(4) 0.0817(3) 0.5507(3)
O18 O 0.1096(4) 0.0337(3) 0.5639(3)
O19 O 0.1923(5) -0.0821(4) 0.7264(3)
O20 O 0.4497(5) 0.6022(4) 0.5239(3)
H1 H 0.44763 0.60364 0.56564
H2 H 0.50340 0.65639 0.52487
O21 O -0.0650(5) 0.2959(4) 0.5677(3)
O22 O 0.2282(4) 0.2079(4) 0.5078(3)
O23 O 0.4156(4) 0.0479(4) 0.7838(3)
O24 O -0.5377(5) 0.2004(4) 0.2300(3)
H3 H -0.51553 0.20829 0.19404
H4 H -0.47890 0.19948 0.26130
O25 O 0.4206(4) 0.2585(3) 0.6203(3)
O26 O 0.2341(5) -0.0917(4) 0.6035(3)
O27 O 0.5932(5) 0.1943(4) 0.6144(3)
O28 O 0.1888(4) 0.1957(3) 0.6387(3)
O29 O 0.2803(5) -0.1066(4) 0.4730(3)
H5 H 0.31407 -0.14285 0.49959
H6 H 0.28458 -0.10102 0.42726
O30 O -0.2523(5) 0.0156(4) 0.6621(3)
O31 O 0.3352(5) 0.4245(4) 0.8065(3)
O32 O 0.5414(5) 0.2213(4) 0.8756(3)
O33 O -0.0238(5) -0.2173(4) 0.7354(3)
O34 O 0.1403(5) 0.1390(4) 0.8952(3)
O35 O 0.3705(6) 0.4608(4) 0.4035(3)
O36 O 0.3853(5) 0.3997(4) 0.5447(3)
O37 O 0.2907(4) 0.0908(3) 0.6736(2)
O38 O 0.3734(5) -0.1332(4) 0.7158(3)
O39 O -0.4307(6) 0.3599(5) 0.3564(3)
O40 O -0.4556(8) 0.3888(5) 0.2045(4)
H7 H -0.38803 0.38804 0.22073
H8 H -0.44050 0.44737 0.21223
O41 O -0.6689(6) 0.2508(7) 0.3232(4)
H9 H -0.74448 0.22900 0.29903
H10 H -0.65748 0.29424 0.35686
N1 N -0.7685(9) 0.1821(13) 0.1405(6)
O42 O -0.7217(8) 0.2641(10) 0.1770(5)
O43 O -0.5980(13) 0.4330(8) 0.2790(5)
H11 H -0.62174 0.43739 0.31350
H12 H -0.54142 0.48728 0.28377
N2 N 0.2628(7) 0.4504(5) 0.4042(3)
N3 N -0.3170(7) 0.3764(5) 0.3690(4)
C1 C 0.1858(9) 0.3660(6) 0.4100(4)
H13 H 0.20774 0.31495 0.41416
C2 C -0.1679(10) 0.3236(6) 0.4023(5)
H14 H -0.14530 0.27484 0.41591
C3 C -0.1215(8) 0.4801(6) 0.3788(5)
H15 H -0.06640 0.54093 0.37613
C4 C 0.0744(8) 0.3530(6) 0.4100(4)
H16 H 0.01964 0.29302 0.41430
C5 C 0.0419(8) 0.4271(6) 0.4037(4)
C6 C 0.1265(8) 0.5145(6) 0.3997(5)
H17 H 0.10771 0.56719 0.39668
C7 C -0.0816(8) 0.4099(6) 0.3967(4)
C8 C -0.2377(9) 0.4614(6) 0.3653(4)
H18 H -0.26293 0.50932 0.35309
C9 C 0.2361(9) 0.5250(6) 0.4000(5)
H19 H 0.29345 0.58481 0.39728
C10 C -0.2812(10) 0.3084(6) 0.3890(5)
H20 H -0.33754 0.24931 0.39349
O44 O -1.0214(7) -0.3642(10) -0.0967(5)
N4 N -0.9847(9) -0.2782(13) -0.0578(6)
C11 C -0.8625(11) -0.0036(15) 0.0604(7)
C12 C -0.7830(11) 0.1675(15) 0.0706(7)
H21 H -0.75809 0.22131 0.04905
C13 C -0.8493(11) 0.0145(16) 0.1327(7)
H22 H -0.87439 -0.03815 0.15541
C14 C -0.9812(11) -0.2032(15) -0.0918(7)
H23 H -1.00684 -0.21311 -0.14147
C15 C -0.9079(11) -0.0987(15) 0.0189(7)
C16 C -0.9408(11) -0.1146(15) -0.0538(7)
H24 H -0.93511 -0.06285 -0.07743
C17 C -0.8297(11) 0.0830(15) 0.0322(7)
H25 H -0.84267 0.07820 -0.01670
C18 C -0.8040(11) 0.1005(15) 0.1697(7)
H26 H -0.79504 0.10731 0.21806
C19 C -0.9129(11) -0.1763(15) 0.0506(7)
H27 H -0.88962 -0.16815 0.10020
C20 C -0.9510(11) -0.2651(15) 0.0119(7)
H28 H -0.95312 -0.31682 0.03494
Co5 Co 0.08824(10) 0.64701(8) 0.21106(6)
O45 O -0.0004(5) 0.7289(4) 0.1723(3)
H29 H -0.07440 0.69297 0.15322
H30 H 0.00339 0.76546 0.20633
O46 O 0.1694(5) 0.7456(5) 0.3044(3)
H31 H 0.24167 0.76776 0.33050
H32 H 0.13556 0.76366 0.32874
O47 O -0.0491(5) 0.5679(4) 0.2481(3)
H33 H -0.10275 0.52206 0.21587
H34 H -0.08333 0.60152 0.25619
O48 O 0.2259(6) 0.7287(5) 0.1762(3)
H35 H 0.29401 0.71663 0.18422
H36 H 0.22089 0.77822 0.15227
O49 O 0.0009(7) 0.5554(5) 0.1127(4)
H37 H -0.06756 0.55387 0.09506
H38 H -0.01328 0.49878 0.11834
O50 O 0.1826(7) 0.5721(5) 0.2501(4)
H39 H 0.14051 0.51237 0.24054
H40 H 0.21271 0.58496 0.29452
O51 O 0.4070(6) 0.2047(4) 0.4481(3)
H41 H 0.36219 0.20547 0.40868
H42 H 0.41751 0.15530 0.44099
O52 O 0.3227(6) 0.9195(5) 0.2247(3)
H43 H 0.37433 0.95932 0.26104
H44 H 0.29548 0.86760 0.23924
O53 O 0.4969(6) 0.0652(5) 0.4373(4)
H45 H 0.42970 0.02527 0.43807
H46 H 0.53806 0.03407 0.44045
N5 N -0.5708(6) 0.1075(5) 0.0619(4)
C21 C -0.5784(8) 0.0298(6) 0.0911(5)
H47 H -0.55478 0.03608 0.14060
C22 C -0.6071(8) 0.0974(6) -0.0081(4)
H48 H -0.60264 0.15147 -0.02859
C23 C -0.6579(7) -0.0697(6) -0.0224(4)
C24 C -0.6191(7) -0.0566(6) 0.0509(4)
H49 H -0.62127 -0.10921 0.07281
C25 C -0.6503(7) 0.0116(6) -0.0509(4)
H50 H -0.67527 0.00705 -0.10026
O54 O -0.5312(6) 0.1912(4) 0.1011(3)
C26 C -0.6955(7) -0.1604(6) -0.0671(4)
C27 C -0.7313(8) -0.1705(7) -0.1405(5)
H51 H -0.73911 -0.11967 -0.16160
C28 C -0.6941(9) -0.2409(6) -0.0411(5)
H52 H -0.67618 -0.23980 0.00784
N6 N -0.7434(7) -0.3258(5) -0.1540(4)
C29 C -0.7551(8) -0.2525(6) -0.1820(5)
H53 H -0.78027 -0.25780 -0.23145
C30 C -0.7177(10) -0.3206(6) -0.0837(5)
H54 H -0.71617 -0.37405 -0.06407
O55 O -0.7549(7) -0.3999(5) -0.1949(4)
O56 O -0.2147(7) 0.5855(8) 0.0890(5)
H55 H -0.23936 0.61845 0.06255
H56 H -0.25819 0.57145 0.11495
O57 O 0.3730(11) 0.5920(7) 0.2184(7)
H57 H 0.31724 0.60157 0.22635
H58 H 0.43567 0.63095 0.25066
O58 O -1.1370(11) -0.3854(8) -0.2261(7)
O59 O -1.0209(13) -0.3877(10) -0.2374(9)
W1A W -0.30713(2) -0.30508(2) 0.42063(2)
W2A W -0.32516(3) 0.04726(2) 0.30750(2)
W3A W 0.11427(3) -0.03007(2) 0.33758(2)
W4A W -0.43196(3) -0.17113(2) 0.20387(2)
W5A W -0.27755(3) -0.32496(2) 0.25645(2)
W6A W -0.03211(2) -0.24553(2) 0.40673(2)
W7A W -0.13257(3) -0.10864(2) 0.18877(2)
W8A W -0.02926(3) 0.10989(2) 0.29136(2)
W9A W -0.46051(3) -0.15344(2) 0.36878(2)
Co1A Co -0.06595(8) -0.09532(7) 0.52973(5)
Co2A Co -0.19479(8) 0.03781(7) 0.48390(5)
P1A P -0.16877(16) -0.09125(12) 0.36104(9)
O1A O -0.2898(4) -0.1255(3) 0.1785(3)
O2A O -0.3482(4) -0.3739(3) 0.3241(3)
O3A O 0.0245(4) -0.0906(3) 0.2384(3)
O4A O -0.1833(4) -0.2311(4) 0.2171(3)
O5A O -0.4581(4) -0.0382(3) 0.3334(3)
O6A O -0.1341(4) -0.3278(3) 0.3137(3)
O7A O -0.1611(4) -0.3215(3) 0.4349(2)
O8A O -0.5183(5) -0.2031(4) 0.2662(3)
O9A O -0.3895(4) -0.2743(3) 0.2274(3)
O10A O 0.1096(5) 0.0816(4) 0.3066(3)
O11A O 0.1346(4) 0.0148(3) 0.4280(3)
O12A O 0.0203(4) -0.1476(3) 0.4789(3)
O13A O -0.0893(4) -0.0494(3) 0.3157(3)
O14A O -0.0825(5) 0.0218(4) 0.2000(3)
O15A O 0.0106(4) 0.1414(3) 0.3831(3)
O16A O 0.0497(4) -0.1586(3) 0.3543(3)
O17A O -0.3522(4) -0.0817(3) 0.4493(3)
O18A O -0.1096(4) -0.0337(3) 0.4361(3)
O19A O -0.1923(5) 0.0821(4) 0.2736(3)
O21A O 0.0650(5) -0.2959(4) 0.4323(3)
O22A O -0.2282(4) -0.2079(4) 0.4922(3)
O23A O -0.4156(4) -0.0479(4) 0.2162(3)
O25A O -0.4206(4) -0.2585(3) 0.3797(3)
O26A O -0.2341(5) 0.0917(4) 0.3965(3)
O27A O -0.5932(5) -0.1943(4) 0.3856(3)
O28A O -0.1888(4) -0.1957(3) 0.3613(3)
O29A O -0.2803(5) 0.1066(4) 0.5270(3)
H5A H -0.31407 0.14285 0.50041
H6A H -0.28458 0.10102 0.57274
O30A O 0.2523(5) -0.0156(4) 0.3379(3)
O31A O -0.3352(5) -0.4245(4) 0.1935(3)
O32A O -0.5414(5) -0.2213(4) 0.1244(3)
O33A O 0.0238(5) 0.2173(4) 0.2646(3)
O34A O -0.1403(5) -0.1390(4) 0.1048(3)
O36A O -0.3853(5) -0.3997(4) 0.4553(3)
O37A O -0.2907(4) -0.0908(3) 0.3264(2)
O38A O -0.3734(5) 0.1332(4) 0.2842(3)
Co4A Co 1.56526(13) 0.68517(10) 0.73930(7)
O24A O 1.5377(5) 0.7996(4) 0.7700(3)
H3A H 1.51553 0.79171 0.80596
H4A H 1.47890 0.80052 0.73870
O35A O 0.6295(6) 0.5392(4) 0.5965(3)
O39A O 1.4307(6) 0.6401(5) 0.6436(3)
O40A O 1.4556(8) 0.6112(5) 0.7955(4)
H7A H 1.38803 0.61196 0.77927
H8A H 1.44050 0.55263 0.78777
O41A O 1.6689(6) 0.7492(7) 0.6768(4)
H9A H 1.74448 0.77100 0.70097
H10A H 1.65748 0.70576 0.64314
N1A N 1.7685(9) 0.8179(13) 0.8595(6)
O42A O 1.7217(8) 0.7359(10) 0.8230(5)
O43A O 1.5980(13) 0.5670(8) 0.7210(5)
H11A H 1.62174 0.56261 0.68650
H12A H 1.54142 0.51272 0.71623
N2A N 0.7372(7) 0.5496(5) 0.5958(3)
N3A N 1.3170(7) 0.6236(5) 0.6310(4)
C1A C 0.8142(9) 0.6340(6) 0.5900(4)
H13A H 0.79226 0.68505 0.58584
C2A C 1.1679(10) 0.6764(6) 0.5977(5)
H14A H 1.14530 0.72516 0.58409
C3A C 1.1215(8) 0.5199(6) 0.6212(5)
H15A H 1.06640 0.45907 0.62387
C4A C 0.9256(8) 0.6470(6) 0.5900(4)
H16A H 0.98036 0.70698 0.58570
C5A C 0.9581(8) 0.5729(6) 0.5963(4)
C6A C 0.8735(8) 0.4855(6) 0.6003(5)
H17A H 0.89229 0.43281 0.60332
C7A C 1.0816(8) 0.5901(6) 0.6033(4)
C8A C 1.2377(9) 0.5386(6) 0.6347(4)
H18A H 1.26293 0.49068 0.64691
C9A C 0.7639(9) 0.4750(6) 0.6000(5)
H19A H 0.70655 0.41519 0.60272
C10A C 1.2812(10) 0.6916(6) 0.6110(5)
H20A H 1.33754 0.75069 0.60651
O44A O 2.0214(7) 1.3642(10) 1.0967(5)
N4A N 1.9847(9) 1.2782(13) 1.0578(6)
C11A C 1.8625(11) 1.0036(15) 0.9396(7)
C12A C 1.7830(11) 0.8325(15) 0.9294(7)
H21A H 1.75809 0.77869 0.95095
C13A C 1.8493(11) 0.9855(16) 0.8673(7)
H22A H 1.87439 1.03815 0.84459
C14A C 1.9812(11) 1.2032(15) 1.0918(7)
H23A H 2.00684 1.21311 1.14147
C15A C 1.9079(11) 1.0987(15) 0.9811(7)
C16A C 1.9408(11) 1.1146(15) 1.0538(7)
H24A H 1.93511 1.06285 1.07743
C17A C 1.8297(11) 0.9170(15) 0.9678(7)
H25A H 1.84267 0.92180 1.01670
C18A C 1.8040(11) 0.8995(15) 0.8303(7)
H26A H 1.79504 0.89269 0.78194
C19A C 1.9129(11) 1.1763(15) 0.9494(7)
H27A H 1.88962 1.16815 0.89980
C20A C 1.9510(11) 1.2651(15) 0.9881(7)
H28A H 1.95312 1.31682 0.96506
O20A O 0.5503(5) 0.3978(4) 0.4761(3)
H1A H 0.55237 0.39636 0.43436
H2A H 0.49660 0.34361 0.47513
Co3* Co -0.50000 -0.50000 0.50000
O36A* O 0.6147(5) 0.6003(4) 0.4553(3)
#END
