
#######################################################################
#
#                 Cambridge Crystallographic Data Centre
#                                CCDC
#
#######################################################################
#
# If this CIF has been generated from an entry in the Cambridge
# Structural Database, then it will include bibliographic, chemical,
# crystal, experimental, refinement or atomic coordinate data resulting
# from the CCDC's data processing and validation procedures.
#
#######################################################################

data_CSD_CIF_UZIFOB
_audit_creation_date 2021-07-29
_audit_creation_method CSD-ConQuest-V1
_database_code_CSD UZIFOB
_database_code_depnum_ccdc_archive 'CCDC 2034466'
_chemical_formula_sum 'C60 H128 Co9 N12 O120 P2 W18'
_chemical_formula_moiety
;
(C40 H56 Co7 N8 O88 P2 W18 4-)n,2(C10 H8 N2 O2),2(H12 Co1 O6 2+),16(H2 O1)
;
_journal_coden_Cambridge 179
_journal_volume 60
_journal_year 2021
_journal_page_first 16911
_journal_name_full 'Angew.Chem.,Int.Ed. '
loop_
_publ_author_name
"You-Ren Huang"
"Xiang-Ling Lin"
"Bin Chen"
"Hui-Dong Zheng"
"Zhi-Rong Chen"
"Hao-Hong Li"
"Shou-Tian Zheng"
_chemical_name_systematic
;
catena-[bis[hexakis(aqua)-cobalt(ii)] 
[bis(\m-phosphato)-tetratetracontakis(\m-oxido)-bis(\m-4,4'-bipyridine-N,N'-di
oxide)-bis(4,4'-bipyridine-N,N'-dioxide)-dodecakis(aqua)-hexadecaoxo-octadeca-
tungsten(vi)-hepta-cobalt(ii)] bis(4,4'-bipyridine-N,N'-dioxide) unknown 
solvate hexadecahydrate]
;
_cell_volume   3553.380
_exptl_crystal_colour 'reddish brown'
_exptl_crystal_density_diffrn 3.19
_exptl_special_details
;
heated to 270C and cooled to room temperature

;
_exptl_crystal_description 'block'
_diffrn_ambient_temperature 150
_refine_special_details
;
Disordered solvent molecules were not modelled and the disordered density was 
taken into account using the MASK/OLEX2 procedure.
;
#These two values have been output from a single CSD field.
_refine_ls_R_factor_gt 0.0269
_refine_ls_wR_factor_gt 0.0269
_symmetry_cell_setting triclinic
_symmetry_space_group_name_H-M 'P -1'
_symmetry_Int_Tables_number 2
loop_
_symmetry_equiv_pos_site_id
_symmetry_equiv_pos_as_xyz
1 x,y,z
2 -x,-y,-z
_cell_length_a 13.0087(9)
_cell_length_b 15.6700(12)
_cell_length_c 20.2535(15)
_cell_angle_alpha 92.926(2)
_cell_angle_beta 106.470(2)
_cell_angle_gamma 113.929(2)
_cell_formula_units_Z 1
loop_
_atom_type_symbol
_atom_type_radius_bond
C 0.68
H 0.23
Co 1.26
N 0.68
O 0.68
P 1.05
W 1.62
loop_
_atom_site_label
_atom_site_type_symbol
_atom_site_fract_x
_atom_site_fract_y
_atom_site_fract_z
W1 W 0.96700(2) 0.75408(2) 0.40623(2)
O1 O 1.0199(4) 0.8523(3) 0.4787(3)
O2 O 1.0479(4) 0.8413(3) 0.3538(3)
O3 O 0.8379(4) 0.6775(3) 0.4343(2)
O4 O 1.0647(4) 0.7045(3) 0.4319(3)
O5 O 0.8631(4) 0.6711(3) 0.3126(2)
O6 O 0.8100(4) 0.8036(3) 0.3610(2)
Co1 Co 0.93470(8) 0.90474(6) 0.52988(5)
Co2 Co 1.19493(8) 0.96273(7) 0.51593(5)
W2 W 1.11249(3) 0.96966(2) 0.33703(2)
W3 W 0.69233(2) 0.69391(2) 0.42049(2)
W4 W 0.71936(3) 0.67302(2) 0.25578(2)
P1 P 0.82954(15) 0.90748(12) 0.36052(9)
O7 O 1.1102(4) 1.0345(3) 0.5642(2)
O8 O 0.8665(4) 0.9851(3) 0.5727(3)
O9 O 0.7723(4) 0.7915(3) 0.4922(3)
O10 O 0.9913(4) 0.8596(3) 0.6180(3)
O11 O 1.3522(4) 1.0826(4) 0.5506(3)
O12 O 1.2365(5) 0.9096(4) 0.6040(3)
O13 O 1.2807(5) 0.8952(4) 0.4720(3)
O14 O 1.1068(5) 1.0806(4) 0.3065(3)
O15 O 1.2505(5) 0.9849(4) 0.3373(3)
O16 O 1.0220(5) 0.9089(3) 0.2373(3)
O17 O 0.9084(4) 0.9494(3) 0.3154(2)
O18 O 0.6147(4) 0.5992(3) 0.4548(3)
O19 O 0.5779(4) 0.7390(3) 0.3796(3)
O20 O 0.6502(4) 0.6241(3) 0.3239(2)
O21 O 0.8143(4) 0.7672(4) 0.2165(3)
O22 O 0.6609(4) 0.5732(3) 0.1926(3)
O23 O 0.6069(4) 0.7229(4) 0.2263(3)
O24 O 0.7071(4) 0.9074(3) 0.3260(2)
W5 W 1.03148(3) 0.89099(2) 0.70920(2)
W6 W 1.46176(3) 1.15515(2) 0.63121(2)
W7 W 1.32722(3) 0.95437(2) 0.69275(2)
H1 H 1.34644 0.90462 0.50260
H2 H 1.23919 0.83517 0.46358
W8 W 0.86384(3) 0.88962(2) 0.18793(2)
Co3 Co 0.50000 0.50000 0.50000
W9 W 0.56452(3) 0.82633(2) 0.20335(2)
O25 O 1.0866(5) 0.9797(3) 0.8010(3)
O26 O 1.1950(4) 0.9194(4) 0.7269(3)
O27 O 0.9795(5) 0.7840(4) 0.7361(3)
O28 O 1.4603(4) 1.0407(4) 0.6667(3)
O29 O 1.5221(4) 1.2069(4) 0.7342(3)
O30 O 1.5949(4) 1.1968(4) 0.6142(3)
O31 O 1.4185(4) 1.0501(4) 0.7841(3)
O32 O 1.3758(5) 0.8688(4) 0.7163(3)
O33 O 0.8535(5) 0.8584(4) 0.1036(3)
O34 O 0.7059(4) 0.8726(3) 0.1777(2)
O35 O 0.5483(5) 0.3970(4) 0.4757(3)
O36 O 0.3697(6) 0.4614(4) 0.4033(3)
O37 O 0.4540(5) 0.7758(4) 0.1236(3)
H3 H 0.55393 0.39767 0.43479
H4 H 0.49219 0.34270 0.47212
N1 N 0.2612(6) 0.4505(5) 0.4044(3)
C1 C 0.1826(8) 0.3655(6) 0.4094(4)
C2 C 0.2343(8) 0.5246(6) 0.4007(4)
H5 H 0.20382 0.31414 0.41262
C3 C 0.0742(8) 0.3523(6) 0.4098(4)
C4 C 0.1248(8) 0.5136(6) 0.4001(5)
H6 H 0.29181 0.58485 0.39853
C5 C 0.0392(8) 0.4256(5) 0.4043(4)
H7 H 0.02006 0.29172 0.41387
H8 H 0.10599 0.56614 0.39678
C6 C -0.0843(7) 0.4094(5) 0.3970(4)
C7 C -0.1226(8) 0.4790(6) 0.3800(5)
C8 C -0.1687(9) 0.3224(6) 0.4035(5)
H9 H -0.06655 0.54028 0.37846
C9 C -0.2401(8) 0.4603(6) 0.3654(5)
H10 H -0.14557 0.27404 0.41723
C10 C -0.2840(9) 0.3075(6) 0.3900(5)
N2 N -0.3190(6) 0.3737(5) 0.3693(4)
H11 H -0.26573 0.50770 0.35258
H12 H -0.34038 0.24892 0.39546
O38 O -0.4331(6) 0.3580(4) 0.3561(3)
Co4 Co -0.56853(13) 0.31207(10) 0.26019(7)
O39 O -0.5399(5) 0.1989(4) 0.2301(3)
O40 O -0.4555(7) 0.3874(5) 0.2056(4)
O41 O -0.6723(6) 0.2507(7) 0.3228(4)
O42 O -0.725(1) 0.2616(11) 0.1760(6)
O43 O -0.5966(15) 0.433(1) 0.2810(5)
H13 H -0.51649 0.20727 0.19454
H14 H -0.48137 0.19798 0.26200
H15 H -0.45339 0.44254 0.20505
H16 H -0.48589 0.36044 0.16233
H17 H -0.63108 0.23647 0.35732
H18 H -0.72969 0.19748 0.29995
N3 N -0.7707(10) 0.1755(14) 0.1381(6)
H19 H -0.58235 0.44296 0.24300
C11 C -0.7857(14) 0.1635(17) 0.0696(8)
C12 C -0.8074(11) 0.0937(15) 0.1677(7)
H20 H -0.76406 0.21753 0.04799
C13 C -0.8316(14) 0.0749(18) 0.0302(8)
C14 C -0.8532(10) 0.0072(15) 0.1305(7)
H21 H -0.79910 0.10087 0.21604
C15 C -0.8671(11) -0.0099(15) 0.0580(7)
H22 H -0.84032 0.06971 -0.01820
H23 H -0.87774 -0.04567 0.15294
C16 C -0.9111(10) -0.1033(16) 0.0172(7)
C17 C -0.9453(13) -0.1240(17) -0.0566(8)
C18 C -0.9175(12) -0.1858(16) 0.0473(8)
H24 H -0.93969 -0.07309 -0.08105
C19 C -0.9841(14) -0.208(2) -0.0934(8)
H25 H -0.89187 -0.17863 0.09698
C20 C -0.9573(13) -0.2710(17) 0.0096(8)
N4 N -0.9889(10) -0.2872(14) -0.0610(6)
H26 H -1.00971 -0.21685 -0.14316
H27 H -0.96382 -0.32300 0.03307
O44 O -1.0269(10) -0.3701(12) -0.0976(6)
Co5 Co 1.08505(10) 0.64466(8) 0.21105(6)
O45 O 0.9975(6) 0.7276(4) 0.1734(3)
H28 H 0.92257 0.69223 0.15525
H29 H 1.00378 0.76551 0.20776
O46 O 1.1687(5) 0.7442(5) 0.3046(4)
H30 H 1.24195 0.76849 0.32961
H31 H 1.13953 0.77470 0.32312
O47 O 0.9484(5) 0.5665(4) 0.2489(3)
H32 H 0.89370 0.52020 0.21679
H33 H 0.91451 0.60041 0.25695
O48 O 1.2205(6) 0.7254(6) 0.1745(4)
H34 H 1.25663 0.78198 0.19804
H35 H 1.27360 0.70489 0.18327
O49 O 0.9930(8) 0.5518(5) 0.1123(4)
H36 H 0.91955 0.54068 0.09928
H37 H 0.99171 0.49728 0.11661
O50 O 1.1796(7) 0.5710(6) 0.2490(4)
H38 H 1.13877 0.51171 0.22964
H39 H 1.18904 0.57098 0.29278
O51 O -0.5953(6) 0.2037(4) 0.4466(3)
H40 H -0.66042 0.17978 0.45518
H41 H -0.57208 0.16007 0.44853
O52 O -0.5325(6) 0.1911(4) 0.1011(3)
N5 N -0.5722(6) 0.1075(5) 0.0616(4)
N6 N -0.7440(7) -0.3257(5) -0.1546(4)
O53 O -0.7541(7) -0.3999(5) -0.1956(4)
C21 C -0.6197(7) -0.0563(6) 0.0506(4)
H42 H -0.62282 -0.10909 0.07242
C22 C -0.6967(7) -0.1615(6) -0.0684(4)
C23 C -0.6576(7) -0.0697(6) -0.0226(4)
C24 C -0.6504(8) 0.0116(6) -0.0508(5)
H43 H -0.67641 0.00643 -0.10028
C25 C -0.5785(8) 0.0301(6) 0.0914(4)
H44 H -0.55390 0.03665 0.14103
C26 C -0.6071(8) 0.0982(6) -0.0089(5)
H45 H -0.60143 0.15232 -0.02952
C27 C -0.7540(8) -0.2534(7) -0.1830(5)
H46 H -0.77732 -0.25841 -0.23248
C28 C -0.7308(7) -0.1712(6) -0.1409(4)
H47 H -0.73823 -0.12023 -0.16187
C29 C -0.6951(9) -0.2415(6) -0.0417(5)
H48 H -0.67705 -0.24013 0.00730
C30 C -0.7191(9) -0.3217(6) -0.0850(5)
H49 H -0.71825 -0.37555 -0.06582
O54 O 1.3190(6) 0.9166(6) 0.2245(3)
H50 H 1.38377 0.91947 0.25176
H51 H 1.27577 0.91036 0.25015
O55 O 0.7814(7) 0.5846(8) 0.0880(5)
H52 H 0.76711 0.62582 0.06636
H53 H 0.71923 0.55430 0.09856
O56 O 1.3690(11) 0.5882(8) 0.2201(6)
H54 H 1.35253 0.55871 0.25255
H55 H 1.43172 0.63904 0.24140
O57 O -1.0187(18) -0.3887(16) -0.2357(16)
O58 O -1.1362(15) -0.3845(12) -0.2279(9)
O59 O -1.149(3) -0.518(2) -0.0454(12)
O60 O 0.4975(6) 1.0649(5) 0.4381(4)
H56 H 0.43035 1.01974 0.41417
H57 H 0.52585 1.09204 0.40780
W1A W 1.03300(2) 1.24592(2) 0.59377(2)
O1A O 0.9801(4) 1.1477(3) 0.5213(3)
O2A O 0.9521(4) 1.1587(3) 0.6462(3)
O3A O 1.1621(4) 1.3225(3) 0.5657(2)
O4A O 0.9353(4) 1.2955(3) 0.5681(3)
O5A O 1.1369(4) 1.3289(3) 0.6874(2)
O6A O 1.1900(4) 1.1964(3) 0.6390(2)
Co1A Co 1.06530(8) 1.09526(6) 0.47012(5)
Co2A Co 0.80507(8) 1.03727(7) 0.48407(5)
W2A W 0.88751(3) 1.03034(2) 0.66297(2)
W3A W 1.30767(2) 1.30609(2) 0.57951(2)
W4A W 1.28064(3) 1.32698(2) 0.74422(2)
P1A P 1.17046(15) 1.09252(12) 0.63948(9)
O7A O 0.8898(4) 0.9655(3) 0.4358(2)
O8A O 1.1335(4) 1.0149(3) 0.4273(3)
O9A O 1.2277(4) 1.2085(3) 0.5078(3)
O10A O 1.0087(4) 1.1404(3) 0.3820(3)
O11A O 0.6478(4) 0.9174(4) 0.4494(3)
O12A O 0.7635(5) 1.0904(4) 0.3960(3)
O13A O 0.7193(5) 1.1048(4) 0.5280(3)
O14A O 0.8932(5) 0.9194(4) 0.6935(3)
O15A O 0.7495(5) 1.0151(4) 0.6627(3)
O16A O 0.9780(5) 1.0911(3) 0.7627(3)
O17A O 1.0916(4) 1.0506(3) 0.6846(2)
O18A O 1.3853(4) 1.4008(3) 0.5452(3)
O19A O 1.4221(4) 1.2610(3) 0.6204(3)
O20A O 1.3498(4) 1.3759(3) 0.6761(2)
O21A O 1.1857(4) 1.2328(4) 0.7835(3)
O22A O 1.3391(4) 1.4268(3) 0.8074(3)
O23A O 1.3931(4) 1.2771(4) 0.7737(3)
O24A O 1.2929(4) 1.0926(3) 0.6740(2)
W5A W 0.96852(3) 1.10901(2) 0.29080(2)
W6A W 0.53824(3) 0.84485(2) 0.36879(2)
W7A W 0.67278(3) 1.04563(2) 0.30725(2)
H1A H 0.65356 1.09538 0.49740
H2A H 0.76081 1.16483 0.53642
W8A W 1.13616(3) 1.11038(2) 0.81207(2)
W9A W 1.43548(3) 1.17367(2) 0.79665(2)
O25A O 0.9134(5) 1.0203(3) 0.1990(3)
O26A O 0.8050(4) 1.0806(4) 0.2731(3)
O27A O 1.0205(5) 1.2160(4) 0.2639(3)
O28A O 0.5397(4) 0.9593(4) 0.3333(3)
O29A O 0.4779(4) 0.7931(4) 0.2658(3)
O30A O 0.4051(4) 0.8032(4) 0.3858(3)
O31A O 0.5815(4) 0.9499(4) 0.2159(3)
O32A O 0.6242(5) 1.1312(4) 0.2837(3)
O33A O 1.1465(5) 1.1416(4) 0.8964(3)
O34A O 1.2941(4) 1.1274(3) 0.8223(2)
O37A O 1.5460(5) 1.2242(4) 0.8764(3)
O35A O 0.4517(5) 0.6030(4) 0.5243(3)
O36A O 0.6303(6) 0.5386(4) 0.5967(3)
H3A H 0.44607 0.60233 0.56521
H4A H 0.50781 0.65730 0.52788
N1A N 0.7388(6) 0.5495(5) 0.5956(3)
C1A C 0.8174(8) 0.6345(6) 0.5906(4)
C2A C 0.7657(8) 0.4754(6) 0.5993(4)
H5A H 0.79618 0.68586 0.58738
C3A C 0.9258(8) 0.6477(6) 0.5902(4)
C4A C 0.8752(8) 0.4864(6) 0.5999(5)
H6A H 0.70819 0.41515 0.60147
C5A C 0.9608(8) 0.5744(5) 0.5957(4)
H7A H 0.97994 0.70828 0.58613
H8A H 0.89401 0.43386 0.60322
C6A C 1.0843(7) 0.5906(5) 0.6030(4)
C7A C 1.1226(8) 0.5210(6) 0.6200(5)
C8A C 1.1687(9) 0.6776(6) 0.5965(5)
H9A H 1.06655 0.45972 0.62154
C9A C 1.2401(8) 0.5397(6) 0.6346(5)
H10A H 1.14558 0.72596 0.58277
C10A C 1.2840(9) 0.6925(6) 0.6100(5)
N2A N 1.3190(6) 0.6263(5) 0.6307(4)
H11A H 1.26573 0.49230 0.64742
H12A H 1.34038 0.75108 0.60454
O38A O 1.4331(6) 0.6420(4) 0.6439(3)
Co4A Co 1.56853(13) 0.68793(10) 0.73981(7)
O39A O 1.5399(5) 0.8011(4) 0.7699(3)
O40A O 1.4555(7) 0.6126(5) 0.7944(4)
O41A O 1.6723(6) 0.7493(7) 0.6772(4)
O42A O 1.725(1) 0.7384(11) 0.8240(6)
O43A O 1.5966(15) 0.567(1) 0.7190(5)
H13A H 1.51649 0.79273 0.80546
H14A H 1.48137 0.80202 0.73800
H15A H 1.45339 0.55746 0.79495
H16A H 1.48589 0.63956 0.83767
H17A H 1.63108 0.76353 0.64268
H18A H 1.72969 0.80252 0.70005
N3A N 1.7707(10) 0.8245(14) 0.8619(6)
H19A H 1.58235 0.55704 0.75700
C11A C 1.7857(14) 0.8365(17) 0.9304(8)
C12A C 1.8074(11) 0.9063(15) 0.8323(7)
H20A H 1.76406 0.78247 0.95201
C13A C 1.8316(14) 0.9251(18) 0.9698(8)
C14A C 1.8532(10) 0.9928(15) 0.8695(7)
H21A H 1.79910 0.89913 0.78396
C15A C 1.8671(11) 1.0099(15) 0.9420(7)
H22A H 1.84032 0.93029 1.01821
H23A H 1.87774 1.04567 0.84706
C16A C 1.9111(10) 1.1033(16) 0.9828(7)
C17A C 1.9453(13) 1.1240(17) 1.0566(8)
C18A C 1.9175(12) 1.1858(16) 0.9527(8)
H24A H 1.93969 1.07309 1.08105
C19A C 1.9841(14) 1.208(2) 1.0934(8)
H25A H 1.89187 1.17863 0.90302
C20A C 1.9573(13) 1.2710(17) 0.9904(8)
N4A N 1.9889(10) 1.2872(14) 1.0610(6)
H26A H 2.00971 1.21685 1.14316
H27A H 1.96382 1.32300 0.96693
O44A O 2.0269(10) 1.3701(12) 1.0976(6)
O18A* O 0.3853(4) 0.4008(3) 0.5452(3)
Co3* Co 1.50000 1.50000 0.50000
#END
