
#######################################################################
#
#                 Cambridge Crystallographic Data Centre
#                                CCDC
#
#######################################################################
#
# If this CIF has been generated from an entry in the Cambridge
# Structural Database, then it will include bibliographic, chemical,
# crystal, experimental, refinement or atomic coordinate data resulting
# from the CCDC's data processing and validation procedures.
#
#######################################################################

data_CSD_CIF_UZIHES
_audit_creation_date 2016-11-07
_audit_creation_method CSD-ConQuest-V1
_database_code_CSD UZIHES
_database_code_depnum_ccdc_archive 'CCDC 1474766'
_chemical_formula_sum 'C16 H56 Cu4 Mo24 N12 O94 Si2'
_chemical_formula_moiety
;
(C16 H36 Cu4 N12 O4 8+)n,2(Mo12 O40 Si1 4-),10(H2 O1)
;
_journal_coden_Cambridge 644
_journal_volume 71
_journal_year 2016
_journal_page_first 1125
_journal_name_full 'Z.Naturforsch.,B:Chem.Sci. '
loop_
_publ_author_name
"Ai-xiang Tian"
"Ya-li Ning"
"Huai-ping Ni"
"Xue Hou"
"Ru Xiao"
"Jun Ying"
_chemical_name_systematic
;
catena-(tetrakis(\m-aqua)-bis(\m-4-butyl-4H-1,2,4-triazole)-bis(\m-4H-1,2,4-tr
iazole)-tetra-copper(ii) 
bis((\m-silicato)-tetracosakis(\m-oxo)-dodecaoxo-dodeca-molybdenum) 
decahydrate)
;
_cell_volume   2370.345
_exptl_crystal_colour 'blue'
_exptl_crystal_description 'block'
_diffrn_ambient_temperature 293
_refine_special_details
;
O1,O1',O2,O2' disordered by symmetry over two configurations with occupancy 
0.50; O21,O21',O22,O22' disordered by symmetry over two configurations with 
occupancy 0.50; The SQUEEZE/PLATON program has been used to model some 
disorder.
;
#These two values have been output from a single CSD field.
_refine_ls_R_factor_gt 0.0694
_refine_ls_wR_factor_gt 0.0694
_symmetry_cell_setting triclinic
_symmetry_space_group_name_H-M 'P -1'
_symmetry_Int_Tables_number 2
loop_
_symmetry_equiv_pos_site_id
_symmetry_equiv_pos_as_xyz
1 x,y,z
2 -x,-y,-z
_cell_length_a 12.8614(7)
_cell_length_b 13.0548(8)
_cell_length_c 14.7859(8)
_cell_angle_alpha 97.359(1)
_cell_angle_beta 97.339(1)
_cell_angle_gamma 102.717(1)
_cell_formula_units_Z 1
loop_
_atom_type_symbol
_atom_type_radius_bond
C 0.68
H 0.23
Cu 1.32
Mo 1.54
N 0.68
O 0.68
Si 1.20
loop_
_atom_site_label
_atom_site_type_symbol
_atom_site_fract_x
_atom_site_fract_y
_atom_site_fract_z
Mo1 Mo -0.11375(14) -0.27607(8) 0.43880(7)
Si1 Si 0.00000 0.00000 0.50000
O1 O -0.0389(10) 0.1192(10) 0.5278(8)
O2 O -0.1206(10) -0.0896(10) 0.4939(8)
Mo2 Mo -0.10636(9) 0.15300(9) 0.66207(7)
O3 O -0.0279(10) 0.0008(9) 0.6009(8)
O4 O 0.0831(9) -0.0116(10) 0.5768(8)
Mo3 Mo -0.18533(10) -0.12793(8) 0.62844(7)
O5 O -0.1591(6) -0.4061(6) 0.4237(5)
Mo4 Mo 0.14755(8) -0.17931(9) 0.57429(7)
O6 O 0.2245(10) -0.2600(8) 0.6041(8)
Mo5 Mo 0.27503(8) 0.09510(7) 0.60139(6)
O7 O -0.2832(7) -0.1818(8) 0.6829(6)
Mo6 Mo 0.07917(7) 0.00702(7) 0.73926(5)
O8 O 0.1127(13) 0.0002(9) 0.8497(6)
O9 O -0.1438(8) 0.2321(7) 0.7412(6)
O10 O 0.4008(8) 0.1436(10) 0.6518(7)
O11 O -0.0251(11) -0.2578(16) 0.3542(7)
O12 O -0.2197(18) -0.2275(11) 0.3854(7)
O13 O 0.0199(11) -0.2709(15) 0.5310(7)
O14 O -0.1626(16) -0.2440(11) 0.5605(7)
O15 O 0.1743(12) -0.1785(15) 0.4439(7)
O16 O -0.0664(7) -0.0994(7) 0.7133(10)
O17 O 0.1189(7) -0.1269(6) 0.6866(7)
O18 O -0.1938(7) 0.0245(7) 0.6611(10)
O19 O 0.2656(7) -0.0459(6) 0.5879(7)
O20 O 0.0069(7) 0.1090(7) 0.7434(11)
O21 O 0.2035(7) 0.0811(7) 0.7119(8)
O22 O 0.2812(18) 0.1115(11) 0.4821(7)
Cu1 Cu 0.00000 -0.50000 1.00000
O23 O 0.0650(6) -0.3544(5) 1.0478(5)
N1 N -0.0258(7) -0.4567(6) 0.8767(6)
C1 C -0.0498(12) -0.5119(8) 0.7937(8)
H1 H -0.06550 -0.58570 0.78020
Cu2 Cu 0.03608(11) -0.24594(9) 0.98305(10)
O24 O -0.0353(6) -0.1455(6) 0.9427(6)
N2 N -0.0088(6) -0.3529(6) 0.8671(6)
C2 C -0.0216(9) -0.3471(9) 0.7809(8)
H2 H -0.01340 -0.28400 0.75670
Cu3 Cu 0.00000 0.00000 1.00000
N3 N 0.1409(7) -0.1288(6) 1.0678(6)
N4 N -0.0487(9) -0.4456(8) 0.7297(7)
N5 N 0.1313(6) -0.0262(6) 1.0692(5)
C3 C 0.2339(10) -0.1264(10) 1.1159(8)
H3 H 0.26040 -0.18560 1.12530
C4 C 0.2191(8) 0.0354(9) 1.1199(7)
H4 H 0.23410 0.10920 1.13360
N6 N 0.2848(7) -0.0265(9) 1.1493(7)
C5 C 0.3901(10) 0.0055(16) 1.213(1)
H5 H 0.40600 -0.05620 1.23670
H6 H 0.38580 0.05700 1.26500
C6 C 0.4782(10) 0.0528(16) 1.1633(12)
H7 H 0.46030 0.11220 1.13690
H8 H 0.48470 0.00010 1.11320
C7 C 0.5850(11) 0.091(2) 1.2287(11)
H9 H 0.58130 0.15230 1.27160
H10 H 0.59410 0.03520 1.26440
C8 C 0.6745(12) 0.1181(16) 1.1877(12)
H11 H 0.73770 0.14090 1.23430
H12 H 0.66800 0.17500 1.15370
H13 H 0.68060 0.05760 1.14630
Si2 Si 0.50000 0.50000 1.00000
Mo7 Mo 0.23523(7) 0.37368(8) 0.88584(6)
Mo8 Mo 0.41141(7) 0.21936(7) 0.96266(7)
Mo9 Mo 0.41869(9) 0.53162(9) 0.76916(7)
Mo10 Mo 0.68617(7) 0.34703(7) 1.04682(7)
Mo11 Mo 0.69182(7) 0.62177(8) 0.87403(8)
Mo12 Mo 0.57384(8) 0.34725(8) 0.81485(7)
O25 O 0.5383(9) 0.4994(9) 0.8946(8)
O26 O 0.3968(10) 0.5132(10) 0.9303(8)
O27 O 0.3986(9) 0.3992(9) 0.9916(8)
O28 O 0.4698(9) 0.6079(9) 1.0295(8)
O29 O 0.7753(7) 0.6902(8) 0.8152(6)
O30 O 0.3793(8) 0.5393(8) 0.6595(6)
O31 O 0.6220(7) 0.2804(9) 0.7344(7)
O32 O 0.1077(6) 0.3243(8) 0.8399(7)
O33 O 0.3680(9) 0.0878(7) 0.9400(8)
O34 O 0.7642(6) 0.2659(7) 1.0756(7)
O35 O 0.6468(10) 0.7461(11) 0.9360(7)
O36 O 0.3630(12) 0.6309(8) 0.8313(8)
O37 O 0.5548(9) 0.6128(8) 0.7906(13)
O38 O 0.4815(9) 0.4059(8) 0.7486(13)
O39 O 0.2966(12) 0.4220(8) 0.7904(8)
O40 O 0.219(1) 0.3721(10) 1.0178(6)
O41 O 0.6832(9) 0.4853(8) 0.8271(12)
O42 O 0.6802(7) 0.3351(9) 0.9218(6)
O43 O 0.4768(7) 0.2450(11) 0.8502(6)
O44 O 0.2917(10) 0.2601(12) 0.8890(7)
O45 O 0.5464(7) 0.2355(11) 1.0237(7)
O46 O 0.7783(11) 0.4767(7) 1.0768(7)
O1A O 0.0389(10) -0.1192(10) 0.4722(8)
O2A O 0.1206(10) 0.0896(10) 0.5061(8)
O3A O 0.0279(10) -0.0008(9) 0.3991(8)
O4A O -0.0831(9) 0.0116(10) 0.4232(8)
Mo1A Mo 0.11375(14) 0.27607(8) 0.56120(7)
Mo2A Mo 0.10636(9) -0.15300(9) 0.33793(7)
Mo3A Mo 0.18533(10) 0.12793(8) 0.37156(7)
O5A O 0.1591(6) 0.4061(6) 0.5763(5)
Mo4A Mo -0.14755(8) 0.17931(9) 0.42571(7)
O6A O -0.2245(10) 0.2600(8) 0.3959(8)
Mo5A Mo -0.27503(8) -0.09510(7) 0.39861(6)
O7A O 0.2832(7) 0.1818(8) 0.3171(6)
Mo6A Mo -0.07917(7) -0.00702(7) 0.26074(5)
O8A O -0.1127(13) -0.0002(9) 0.1503(6)
O9A O 0.1438(8) -0.2321(7) 0.2588(6)
O10A O -0.4008(8) -0.1436(10) 0.3482(7)
O11A O 0.0251(11) 0.2578(16) 0.6458(7)
O12A O 0.2197(18) 0.2275(11) 0.6146(7)
O13A O -0.0199(11) 0.2709(15) 0.4690(7)
O14A O 0.1626(16) 0.2440(11) 0.4395(7)
O15A O -0.1743(12) 0.1785(15) 0.5561(7)
O16A O 0.0664(7) 0.0994(7) 0.2867(10)
O17A O -0.1189(7) 0.1269(6) 0.3134(7)
O18A O 0.1938(7) -0.0245(7) 0.3389(10)
O19A O -0.2656(7) 0.0459(6) 0.4121(7)
O20A O -0.0069(7) -0.1090(7) 0.2566(11)
O21A O -0.2035(7) -0.0811(7) 0.2881(8)
O22A O -0.2812(18) -0.1115(11) 0.5179(7)
O23A O -0.0650(6) -0.6456(5) 0.9522(5)
N1A N 0.0258(7) -0.5433(6) 1.1233(6)
C1A C 0.0498(12) -0.4881(8) 1.2063(8)
H1A H 0.06550 -0.41430 1.21980
Cu2A Cu -0.03608(11) -0.75406(9) 1.01695(10)
O24A O 0.0353(6) -0.8545(6) 1.0573(6)
N2A N 0.0088(6) -0.6471(6) 1.1329(6)
C2A C 0.0216(9) -0.6529(9) 1.2191(8)
H2A H 0.01340 -0.71600 1.24330
N3A N -0.1409(7) -0.8712(6) 0.9322(6)
N4A N 0.0487(9) -0.5544(8) 1.2703(7)
N5A N -0.1313(6) -0.9738(6) 0.9308(5)
C3A C -0.2339(10) -0.8736(10) 0.8841(8)
H3A H -0.26040 -0.81440 0.87470
C4A C -0.2191(8) -1.0354(9) 0.8801(7)
H4A H -0.23410 -1.10920 0.86640
N6A N -0.2848(7) -0.9735(9) 0.8507(7)
C5A C -0.3901(10) -1.0055(16) 0.787(1)
H5A H -0.40600 -0.94380 0.76330
H6A H -0.38580 -1.05700 0.73500
C6A C -0.4782(10) -1.0528(16) 0.8367(12)
H7A H -0.46030 -1.11220 0.86310
H8A H -0.48470 -1.00010 0.88680
C7A C -0.5850(11) -1.091(2) 0.7713(11)
H9A H -0.58130 -1.15230 0.72840
H10A H -0.59410 -1.03520 0.73560
C8A C -0.6745(12) -1.1181(16) 0.8123(12)
H11A H -0.73770 -1.14090 0.76570
H12A H -0.66800 -1.17500 0.84630
H13A H -0.68060 -1.05760 0.85370
O24A* O 0.0353(6) 0.1455(6) 1.0573(6)
Cu3* Cu 0.00000 -1.00000 1.00000
N5A* N -0.1313(6) 0.0262(6) 0.9308(5)
O25A O 0.4617(9) 0.5006(9) 1.1054(8)
O26A O 0.6032(10) 0.4868(10) 1.0697(8)
O27A O 0.6014(9) 0.6008(9) 1.0084(8)
O28A O 0.5302(9) 0.3921(9) 0.9705(8)
Mo7A Mo 0.76477(7) 0.62632(8) 1.11416(6)
Mo8A Mo 0.58859(7) 0.78064(7) 1.03734(7)
Mo9A Mo 0.58131(9) 0.46838(9) 1.23084(7)
Mo10A Mo 0.31383(7) 0.65297(7) 0.95318(7)
Mo11A Mo 0.30818(7) 0.37823(8) 1.12597(8)
Mo12A Mo 0.42616(8) 0.65275(8) 1.18515(7)
O29A O 0.2247(7) 0.3098(8) 1.1848(6)
O30A O 0.6207(8) 0.4607(8) 1.3405(6)
O31A O 0.3780(7) 0.7196(9) 1.2656(7)
O32A O 0.8923(6) 0.6757(8) 1.1601(7)
O33A O 0.6320(9) 0.9122(7) 1.0600(8)
O34A O 0.2358(6) 0.7341(7) 0.9244(7)
O35A O 0.3532(10) 0.2539(11) 1.0640(7)
O36A O 0.6370(12) 0.3691(8) 1.1687(8)
O37A O 0.4452(9) 0.3872(8) 1.2094(13)
O38A O 0.5185(9) 0.5941(8) 1.2514(13)
O39A O 0.7034(12) 0.5780(8) 1.2096(8)
O40A O 0.781(1) 0.6279(10) 0.9822(6)
O41A O 0.3168(9) 0.5147(8) 1.1729(12)
O42A O 0.3198(7) 0.6649(9) 1.0782(6)
O43A O 0.5232(7) 0.7550(11) 1.1498(6)
O44A O 0.7083(10) 0.7399(12) 1.1110(7)
O45A O 0.4536(7) 0.7645(11) 0.9763(7)
O46A O 0.2217(11) 0.5233(7) 0.9232(7)
#END
