
#######################################################################
#
#                 Cambridge Crystallographic Data Centre
#                                CCDC
#
#######################################################################
#
# If this CIF has been generated from an entry in the Cambridge
# Structural Database, then it will include bibliographic, chemical,
# crystal, experimental, refinement or atomic coordinate data resulting
# from the CCDC's data processing and validation procedures.
#
#######################################################################

data_CSD_CIF_UZUSOY
_audit_creation_date 2011-10-27
_audit_creation_method CSD-ConQuest-V1
_database_code_CSD UZUSOY
_database_code_depnum_ccdc_archive 'CCDC 844121'
_chemical_formula_sum 'C24 H43 F1 O25 P4 U2'
_chemical_formula_moiety
;
(C12 H12 F1 O16 P4 U2 1-)n,n(C12 H24 O6),n(H3 O1 1+),2n(H2 O1)
;
_journal_coden_Cambridge 1147
_journal_volume 11
_journal_year 2011
_journal_page_first 4227
_journal_name_full 'Cryst.Growth Des. '
loop_
_publ_author_name
"P.O.Adelani"
"T.E.Albrecht-Schmitt"
_chemical_name_systematic
;
catena-[Oxonium 
bis(\m~4~-benzene-1,4-diphosphonato)-(\m~2~-fluoro)-tetraoxo-di-uranium 
18-crown-6 dihydrate]
;
_cell_volume   3783.977
_exptl_crystal_colour 'yellow'
_exptl_crystal_density_diffrn 2.351
_exptl_crystal_description 'tablet'
_diffrn_ambient_temperature 100
#These two values have been output from a single CSD field.
_refine_ls_R_factor_gt 0.032
_refine_ls_wR_factor_gt 0.032
_symmetry_cell_setting monoclinic
_symmetry_space_group_name_H-M 'P 21/n'
_symmetry_Int_Tables_number 14
loop_
_symmetry_equiv_pos_site_id
_symmetry_equiv_pos_as_xyz
1 x,y,z
2 1/2-x,1/2+y,1/2-z
3 -x,-y,-z
4 -1/2+x,-1/2-y,-1/2+z
_cell_length_a 16.7893(18)
_cell_length_b 10.2105(11)
_cell_length_c 22.087(2)
_cell_angle_alpha 90
_cell_angle_beta 92.012(1)
_cell_angle_gamma 90
_cell_formula_units_Z 4
loop_
_atom_type_symbol
_atom_type_radius_bond
C 0.68
H 0.23
F 0.64
O 0.68
P 1.05
U 1.48
loop_
_atom_site_label
_atom_site_type_symbol
_atom_site_fract_x
_atom_site_fract_y
_atom_site_fract_z
U1 U 0.234547(12) -0.95508(2) -0.000060(9)
U2 U 0.244470(12) -1.37941(2) -0.00005(1)
P1 P 0.31139(8) -0.67477(15) -0.08533(6)
P2 P 0.31138(8) -0.67073(15) -0.37518(6)
P3 P 0.31505(9) -0.67161(16) 0.09018(7)
P4 P 0.31555(8) -0.67045(15) 0.37961(6)
F1 F 0.18804(18) -1.1712(3) -0.00214(14)
O1 O 0.3359(2) -1.0013(4) 0.00022(17)
O2 O 0.1320(2) -0.9095(4) -0.00001(18)
O3 O 0.3415(2) -1.3095(4) 0.00733(18)
O4 O 0.1482(2) -1.4486(4) -0.00636(17)
O5 O 0.3985(2) -0.7203(5) -0.06804(18)
O6 O 0.2551(2) -0.7775(4) -0.06340(18)
O7 O 0.2972(2) -0.5380(4) -0.06358(18)
O8 O 0.2779(2) -0.5430(4) -0.39883(17)
O9 O 0.4041(2) -0.6778(4) -0.38071(18)
O10 O 0.2715(2) -0.7936(4) -0.39956(17)
O11 O 0.4056(3) -0.6766(5) 0.0724(2)
O12 O 0.2716(3) -0.7900(5) 0.0686(2)
O13 O 0.2837(2) -0.5432(4) 0.06769(17)
O14 O 0.2742(2) -0.5481(4) 0.40035(17)
O15 O 0.4072(2) -0.6562(4) 0.39963(18)
O16 O 0.2835(2) -0.8009(4) 0.39955(17)
O17 O 0.4820(3) -1.0425(5) 0.3468(2)
O18 O 0.5287(2) -0.7843(5) 0.3587(2)
O19 O 0.5568(3) -0.6728(5) 0.2456(2)
O20 O 0.5264(2) -0.7827(5) 0.1323(2)
O21 O 0.4864(2) -1.0445(5) 0.1441(2)
O22 O 0.4116(3) -1.1429(5) 0.2440(2)
O23 O 0.0211(2) -0.1904(4) -0.01920(18)
O24 O 0.5197(5) -0.5695(9) -0.0490(4)
O25 O 0.5257(3) -0.9308(5) 0.2465(2)
C1 C 0.3067(3) -0.6736(6) -0.1671(3)
C2 C 0.3457(3) -0.7717(6) -0.1985(3)
H1 H 0.37330 -0.83890 -0.17670
C3 C 0.3446(3) -0.7718(6) -0.2613(3)
H2 H 0.37070 -0.83960 -0.28240
C4 C 0.3049(3) -0.6722(6) -0.2937(2)
C5 C 0.2650(3) -0.5764(6) -0.2627(3)
H3 H 0.23690 -0.51000 -0.28470
C6 C 0.2656(3) -0.5759(6) -0.1994(3)
H4 H 0.23810 -0.50930 -0.17850
C7 C 0.3160(3) -0.6713(6) 0.1714(2)
C8 C 0.2962(3) -0.5576(6) 0.2025(3)
H5 H 0.28310 -0.47990 0.18080
C9 C 0.2957(3) -0.5584(6) 0.2655(3)
H6 H 0.28220 -0.48080 0.28660
C10 C 0.3147(3) -0.6707(6) 0.2978(3)
C11 C 0.3354(3) -0.7841(6) 0.2667(3)
H7 H 0.34880 -0.86170 0.28840
C12 C 0.3362(3) -0.7830(6) 0.2039(3)
H8 H 0.35090 -0.86010 0.18300
C13 C 0.4162(5) -1.2208(8) 0.2977(4)
H9 H 0.46540 -1.27450 0.29880
H10 H 0.36970 -1.28010 0.29930
C14 C 0.4171(5) -1.1287(8) 0.3490(4)
H11 H 0.36680 -1.07780 0.34800
H12 H 0.42030 -1.17830 0.38750
C15 C 0.4986(4) -0.9840(7) 0.4059(3)
H13 H 0.51780 -1.05150 0.43510
H14 H 0.44970 -0.94370 0.42150
C16 C 0.5616(4) -0.8813(7) 0.3978(3)
H15 H 0.57770 -0.84220 0.43740
H16 H 0.60930 -0.92070 0.37990
C17 C 0.5807(4) -0.6752(7) 0.3510(3)
H17 H 0.63490 -0.70610 0.34200
H18 H 0.58400 -0.62180 0.38840
C18 C 0.5474(4) -0.5960(7) 0.2997(3)
H19 H 0.49040 -0.57680 0.30550
H20 H 0.57650 -0.51200 0.29680
C19 C 0.5443(4) -0.5949(7) 0.1917(3)
H21 H 0.57190 -0.50960 0.19640
H22 H 0.48670 -0.57830 0.18420
C20 C 0.5769(4) -0.6691(7) 0.1413(3)
H23 H 0.57650 -0.61490 0.10410
H24 H 0.63240 -0.69630 0.15130
C21 C 0.5645(4) -0.8810(7) 0.0968(3)
H25 H 0.61260 -0.91480 0.11880
H26 H 0.58060 -0.84360 0.05780
C22 C 0.5058(4) -0.9876(7) 0.0863(3)
H27 H 0.45700 -0.95240 0.06570
H28 H 0.52850 -1.05550 0.05990
C23 C 0.4191(4) -1.1324(8) 0.1372(4)
H29 H 0.42360 -1.18480 0.09980
H30 H 0.36890 -1.08140 0.13400
C24 C 0.4181(4) -1.2192(8) 0.1901(4)
H31 H 0.37230 -1.28020 0.18600
H32 H 0.46760 -1.27170 0.19260
U1A U 0.265453(12) -0.45508(2) -0.499940(9)
U1A* U 0.265453(12) -0.45508(2) 0.500060(9)
U2* U 0.244470(12) -0.37941(2) -0.00005(1)
U2A U 0.255530(12) -0.87941(2) -0.49995(1)
U2A* U 0.255530(12) -0.87941(2) 0.50005(1)
O7* O 0.2972(2) -1.5380(4) -0.06358(18)
O8A O 0.2221(2) -1.0430(4) -0.10117(17)
O10A O 0.2285(2) -1.2936(4) -0.10044(17)
O13* O 0.2837(2) -1.5432(4) 0.06769(17)
O14A O 0.2258(2) -1.0481(4) 0.09965(17)
O16A O 0.2165(2) -1.3009(4) 0.10045(17)
#END
