
#######################################################################
#
#                 Cambridge Crystallographic Data Centre
#                                CCDC
#
#######################################################################
#
# If this CIF has been generated from an entry in the Cambridge
# Structural Database, then it will include bibliographic, chemical,
# crystal, experimental, refinement or atomic coordinate data resulting
# from the CCDC's data processing and validation procedures.
#
#######################################################################

data_CSD_CIF_UZUSIS
_audit_creation_date 2011-10-27
_audit_creation_method CSD-ConQuest-V1
_database_code_CSD UZUSIS
_database_code_depnum_ccdc_archive 'CCDC 844120'
_chemical_formula_sum 'C44 H86 F2 O52 P8 U4'
_chemical_formula_moiety
;
(C24 H24 F2 O32 P8 U4 2-)n,2n(C10 H20 O5),2n(H3 O1 1+),8n(H2 O1)
;
_journal_coden_Cambridge 1147
_journal_volume 11
_journal_year 2011
_journal_page_first 4227
_journal_name_full 'Cryst.Growth Des. '
loop_
_publ_author_name
"P.O.Adelani"
"T.E.Albrecht-Schmitt"
_chemical_name_systematic
;
catena-[bis(Oxonium) 
tetrakis(\m~4~-benzene-1,4-diphosphonato)-bis(\m~2~-fluoro)-octaoxo-tetra-uran
ium bis(15-crown-5) octahydrate]
;
_cell_volume   1980.396
_exptl_crystal_colour 'yellow'
_exptl_crystal_density_diffrn 2.226
_exptl_crystal_description 'needle'
_diffrn_ambient_temperature 100
#These two values have been output from a single CSD field.
_refine_ls_R_factor_gt 0.0552
_refine_ls_wR_factor_gt 0.0552
_symmetry_cell_setting triclinic
_symmetry_space_group_name_H-M 'P -1'
_symmetry_Int_Tables_number 2
loop_
_symmetry_equiv_pos_site_id
_symmetry_equiv_pos_as_xyz
1 x,y,z
2 -x,-y,-z
_cell_length_a 10.1004(16)
_cell_length_b 10.6811(17)
_cell_length_c 19.156(3)
_cell_angle_alpha 74.492(2)
_cell_angle_beta 84.033(2)
_cell_angle_gamma 87.646(2)
_cell_formula_units_Z 1
loop_
_atom_type_symbol
_atom_type_radius_bond
C 0.68
H 0.23
F 0.64
O 0.68
P 1.05
U 1.46
loop_
_atom_site_label
_atom_site_type_symbol
_atom_site_fract_x
_atom_site_fract_y
_atom_site_fract_z
U1 U 0.71602(5) 0.06110(5) 0.21946(3)
U2 U 0.29958(5) 0.06432(5) 0.20588(3)
P1 P 0.4805(3) -0.1173(3) 0.36430(19)
P2 P 0.9944(3) -0.0087(3) 0.33493(18)
P3 P 1.0092(3) 0.2129(3) 0.10570(18)
P4 P 0.5430(3) 0.1920(3) 0.05273(17)
F1 F 0.5177(7) -0.0203(6) 0.1982(4)
O1 O 0.8010(8) -0.0649(8) 0.1882(4)
O2 O 0.6310(8) 0.1858(8) 0.2527(4)
O3 O 0.2481(8) -0.0782(8) 0.1874(4)
O4 O 0.3476(8) 0.2099(8) 0.2242(4)
O5 O 0.6174(8) -0.1025(8) 0.3236(4)
O6 O 0.4519(8) -0.2668(8) 0.3956(4)
O7 O 0.3671(8) -0.0502(8) 0.3237(5)
O8 O 0.8586(8) 0.0399(8) 0.3103(4)
O9 O 1.1126(8) 0.0660(8) 0.2906(4)
O10 O 1.0141(8) -0.1587(8) 0.3370(5)
O11 O 0.8914(7) 0.2035(8) 0.1626(4)
O12 O 1.1430(8) 0.1917(8) 0.1345(4)
O13 O 0.9925(8) 0.1131(8) 0.0581(5)
O14 O 0.4082(8) 0.1343(8) 0.0865(4)
O15 O 0.5892(8) 0.1421(8) -0.0173(5)
O16 O 0.6561(8) 0.1620(8) 0.1010(4)
O17 O 0.7984(9) -0.5074(9) 0.2971(5)
O18 O 0.9642(9) -0.6655(9) 0.3933(5)
O19 O 1.2039(9) -0.5398(8) 0.3504(5)
O20 O 1.2378(10) -0.4513(9) 0.1941(5)
O21 O 0.9666(9) -0.4089(9) 0.1678(5)
O22 O 1.0533(10) 0.3443(10) 0.2478(5)
O23 O 1.2043(9) -0.3291(9) 0.4060(5)
O24 O 1.5824(9) -0.1711(8) 0.1082(5)
O25 O 0.8081(9) -0.2958(8) 0.3592(5)
O26 O 0.8055(8) -0.0356(8) 0.0143(5)
C1 C 0.4878(13) -0.0539(13) 0.4407(7)
C2 C 0.5004(12) -0.1324(13) 0.5107(7)
H1 H 0.50150 -0.22420 0.51880
C3 C 0.4886(12) 0.0798(13) 0.4305(7)
H2 H 0.48170 0.13610 0.38340
C4 C 0.9955(12) -0.0029(11) 0.4272(6)
C5 C 0.8799(13) 0.0049(12) 0.4711(7)
H3 H 0.79640 0.00960 0.45170
C6 C 1.1162(12) -0.0059(11) 0.4563(7)
H4 H 1.19710 -0.00870 0.42660
C7 C 1.0022(12) 0.3744(12) 0.0455(7)
C8 C 0.8840(13) 0.4369(13) 0.0337(7)
H5 H 0.80380 0.39490 0.05690
C9 C 1.1212(13) 0.4395(13) 0.0115(7)
H6 H 1.20490 0.39730 0.02000
C10 C 0.5198(12) 0.3634(12) 0.0228(7)
C11 C 0.5148(12) 0.4372(12) 0.0740(7)
H7 H 0.52630 0.39590 0.12350
C12 C 0.5072(12) 0.4279(11) -0.0515(6)
H8 H 0.51380 0.37900 -0.08650
C13 C 0.8302(15) -0.3743(14) 0.1767(8)
H9 H 0.79400 -0.34970 0.12870
H10 H 0.82050 -0.29860 0.19740
C14 C 0.7538(16) -0.4868(15) 0.2264(8)
H11 H 0.65710 -0.46690 0.22820
H12 H 0.77050 -0.56570 0.20880
C15 C 0.7507(15) -0.6238(13) 0.3485(7)
H13 H 0.76580 -0.69900 0.32750
H14 H 0.65420 -0.61580 0.36250
C16 C 0.8293(14) -0.6415(14) 0.4148(8)
H15 H 0.82140 -0.56220 0.43240
H16 H 0.79380 -0.71550 0.45470
C17 C 1.0539(14) -0.6567(14) 0.4463(8)
H17 H 1.04330 -0.73260 0.48930
H18 H 1.03480 -0.57670 0.46250
C18 C 1.1915(13) -0.6540(14) 0.4096(8)
H19 H 1.25710 -0.65320 0.44440
H20 H 1.20860 -0.73230 0.39140
C19 C 1.3312(15) -0.5260(15) 0.3079(8)
H21 H 1.35550 -0.60630 0.29280
H22 H 1.40110 -0.50900 0.33670
C20 C 1.3184(14) -0.4135(13) 0.2424(7)
H23 H 1.27670 -0.33830 0.25760
H24 H 1.40770 -0.38770 0.21720
C21 C 1.1901(14) -0.3467(14) 0.1377(8)
H25 H 1.19110 -0.37550 0.09260
H26 H 1.25110 -0.27240 0.12750
C22 C 1.0548(13) -0.3034(13) 0.1571(8)
H27 H 1.05220 -0.27450 0.20220
H28 H 1.02730 -0.22930 0.11760
U1A U 0.28398(5) -0.06110(5) 0.78054(3)
U1A* U 1.28398(5) -0.06110(5) 0.78054(3)
U1A** U 1.28398(5) 0.93890(5) -0.21946(3)
U1A*** U 0.28398(5) 0.93890(5) -0.21946(3)
U2A U 0.70042(5) -0.06432(5) 0.79412(3)
U2* U 1.29958(5) 0.06432(5) 0.20588(3)
U2A* U 0.70042(5) 0.93568(5) -0.20588(3)
P1A P 0.5195(3) 0.1173(3) 0.63570(19)
P2A P 1.0056(3) 0.0087(3) 0.66507(18)
P3A P 0.9908(3) 0.7871(3) -0.10570(18)
P4A P 0.4570(3) 0.8080(3) -0.05273(17)
F1A F 0.4823(7) 0.0203(6) 0.8018(4)
O1A O 0.1990(8) 0.0649(8) 0.8118(4)
O2A O 0.3690(8) -0.1858(8) 0.7473(4)
O3A O 0.7519(8) 0.0782(8) 0.8126(4)
O4A O 0.6524(8) -0.2099(8) 0.7758(4)
O5A O 0.3826(8) 0.1025(8) 0.6764(4)
O6A O 0.5481(8) 0.2668(8) 0.6044(4)
O7A O 0.6329(8) 0.0502(8) 0.6763(5)
O8A O 1.1414(8) -0.0399(8) 0.6897(4)
O8A* O 0.1414(8) -0.0399(8) 0.6897(4)
O9A O 0.8874(8) -0.0660(8) 0.7094(4)
O9* O 0.1126(8) 0.0660(8) 0.2906(4)
O10A O 0.9859(8) 0.1587(8) 0.6630(5)
O11A O 1.1086(7) 0.7965(8) -0.1626(4)
O11A* O 0.1086(7) -0.2035(8) 0.8374(4)
O12A O 0.8570(8) 0.8083(8) -0.1345(4)
O12* O 0.1430(8) 0.1917(8) 0.1345(4)
O12A* O 0.8570(8) -0.1917(8) 0.8655(4)
O13A O 1.0075(8) 0.8869(8) -0.0581(5)
O14A O 0.5918(8) 0.8657(8) -0.0865(4)
O14A* O 0.5918(8) -0.1343(8) 0.9135(4)
O15A O 0.4108(8) 0.8579(8) 0.0173(5)
O16A O 0.3439(8) 0.8380(8) -0.1010(4)
O16A* O 0.3439(8) -0.1620(8) 0.8990(4)
C1A C 0.5122(13) 0.0539(13) 0.5593(7)
C2A C 0.4996(12) 0.1324(13) 0.4893(7)
H1A H 0.49850 0.22420 0.48120
C3A C 0.5114(12) -0.0798(13) 0.5695(7)
H2A H 0.51830 -0.13610 0.61660
C4A C 1.0045(12) 0.0029(11) 0.5728(6)
C5A C 1.1201(13) -0.0049(12) 0.5289(7)
H3A H 1.20360 -0.00960 0.54830
C6A C 0.8838(12) 0.0059(11) 0.5437(7)
H4A H 0.80290 0.00870 0.57340
C7A C 0.9978(12) 0.6256(12) -0.0455(7)
C8A C 1.1160(13) 0.5631(13) -0.0337(7)
H5A H 1.19620 0.60510 -0.05690
C9A C 0.8788(13) 0.5605(13) -0.0115(7)
H6A H 0.79510 0.60270 -0.02000
C10A C 0.4802(12) 0.6366(12) -0.0228(7)
C11A C 0.4852(12) 0.5628(12) -0.0740(7)
H7A H 0.47370 0.60410 -0.12350
C12A C 0.4928(12) 0.5721(11) 0.0515(6)
H8A H 0.48620 0.62100 0.08650
#END
