
#######################################################################
#
#                 Cambridge Crystallographic Data Centre
#                                CCDC
#
#######################################################################
#
# If this CIF has been generated from an entry in the Cambridge
# Structural Database, then it will include bibliographic, chemical,
# crystal, experimental, refinement or atomic coordinate data resulting
# from the CCDC's data processing and validation procedures.
#
#######################################################################

data_CSD_CIF_UZUSEO
_audit_creation_date 2011-10-27
_audit_creation_method CSD-ConQuest-V1
_database_code_CSD UZUSEO
_database_code_depnum_ccdc_archive 'CCDC 844119'
_chemical_formula_sum 'C22 H28 O27 P6 U3'
_chemical_formula_moiety
;
(C18 H17 O24 P6 U3 1-)n,n(H3 O1 1+),0.5n(C8 H16 O4)
;
_journal_coden_Cambridge 1147
_journal_volume 11
_journal_year 2011
_journal_page_first 4227
_journal_name_full 'Cryst.Growth Des. '
loop_
_publ_author_name
"P.O.Adelani"
"T.E.Albrecht-Schmitt"
_chemical_name_systematic
;
catena-[Oxonium tris(\m~4~-benzene-1,4-diphosphonato)-hexaoxo-tri-uranium 
hemikis(12-crown-4)]
;
_cell_volume   1112.882
_exptl_crystal_colour 'yellow'
_exptl_crystal_density_diffrn 2.4
_exptl_special_details
;
The formula in the CIF suggests 0.5 12-crown-4 molecules per 3 U atoms but in 
the paper, the formulation is given as 1:3
;
_exptl_crystal_description 'blade'
_diffrn_ambient_temperature 100
_refine_special_details
;
The 12-crown-4 molecule is disordered.

;
#These two values have been output from a single CSD field.
_refine_ls_R_factor_gt 0.0583
_refine_ls_wR_factor_gt 0.0583
_symmetry_cell_setting triclinic
_symmetry_space_group_name_H-M 'P -1'
_symmetry_Int_Tables_number 2
loop_
_symmetry_equiv_pos_site_id
_symmetry_equiv_pos_as_xyz
1 x,y,z
2 -x,-y,-z
_cell_length_a 10.089(3)
_cell_length_b 11.712(4)
_cell_length_c 11.803(4)
_cell_angle_alpha 111.964(4)
_cell_angle_beta 107.146(4)
_cell_angle_gamma 105.977(4)
_cell_formula_units_Z 1
loop_
_atom_type_symbol
_atom_type_radius_bond
C 0.76
H 0.23
O 0.68
P 1.05
U 1.43
loop_
_atom_site_label
_atom_site_type_symbol
_atom_site_fract_x
_atom_site_fract_y
_atom_site_fract_z
U1 U 1.00000 0.00000 0.00000
U2 U 1.00000 0.50000 0.50000
U3 U 0.50000 -0.50000 0.00000
P1 P 0.8893(5) -0.2656(4) 0.0908(5)
P2 P 0.8435(5) 0.1444(4) 0.2342(4)
P3 P 0.6971(5) 0.5922(5) 0.3570(4)
O1 O 0.8144(13) -0.0447(15) -0.1160(15)
O2 O 0.8644(14) 0.4352(13) 0.5499(13)
O3 O 0.5718(13) -0.6153(11) -0.0630(13)
O4 O 0.9011(17) -0.1949(12) 0.0065(15)
O5 O 0.7300(13) -0.3204(11) 0.0761(13)
O6 O 1.0039(17) -0.1672(14) 0.2475(14)
O7 O 0.9500(12) 0.1065(12) 0.1784(12)
O8 O 0.8946(15) 0.2979(11) 0.3030(12)
O9 O 0.8334(17) 0.0871(16) 0.3326(13)
O10 O 0.8444(12) 0.5779(14) 0.3975(12)
O11 O 0.5981(14) 0.5086(12) 0.2033(11)
O12 O 0.7365(19) 0.7463(14) 0.4127(17)
O13 O 0.482(3) 0.813(2) 0.404(2)
O14 O 1.00000 0.00000 0.50000
C1 C 0.9500(15) -0.3976(13) 0.0392(16)
C2 C 0.9934(18) -0.4256(15) -0.0677(16)
H1 H 0.99130 -0.37470 -0.11210
C3 C 0.9608(18) -0.4707(15) 0.1061(18)
H2 H 0.93680 -0.45000 0.17940
C4 C 0.6497(16) 0.0638(14) 0.1008(15)
C5 C 0.5772(19) 0.1417(15) 0.0754(15)
H3 H 0.62760 0.23670 0.12640
C6 C 0.5730(19) -0.0754(15) 0.0282(16)
H4 H 0.62180 -0.12700 0.04810
C7 C 0.5856(16) 0.5391(15) 0.4373(15)
C8 C 0.6464(18) 0.6087(16) 0.5785(16)
H5 H 0.74310 0.68290 0.63060
C9 C 0.4367(17) 0.4323(15) 0.3587(15)
H6 H 0.39380 0.38900 0.26400
C10 C 0.317(5) 0.905(4) 0.313(4)
C11 C 0.377(5) 0.831(4) 0.275(5)
C12 C 0.385(7) 0.777(5) 0.451(5)
C13 C 0.447(6) 0.838(5) 0.578(5)
O15 O 0.407(3) 0.928(3) 0.613(3)
U1* U 1.00000 -1.00000 0.00000
U1** U 0.00000 0.00000 0.00000
U2* U 0.00000 -0.50000 -0.50000
U2** U 0.00000 0.50000 0.50000
U3* U 0.50000 0.50000 0.00000
U3** U 1.50000 -0.50000 0.00000
U3*** U 0.50000 0.50000 1.00000
P1A P 1.1107(5) -0.7344(4) -0.0908(5)
P2A P 0.1565(5) -0.1444(4) -0.2342(4)
P3A P 0.3029(5) 0.4078(5) 0.6430(4)
O1A O 1.1856(13) 0.0447(15) 0.1160(15)
O2A O 1.1356(14) 0.5648(13) 0.4501(13)
O3A O 0.4282(13) -0.3847(11) 0.0630(13)
O4A O 1.0989(17) -0.8051(12) -0.0065(15)
O4A* O 1.0989(17) 0.1949(12) -0.0065(15)
O5A O 1.2700(13) -0.6796(11) -0.0761(13)
O5A* O 0.2700(13) -0.6796(11) -0.0761(13)
O6A O 0.9961(17) -0.8328(14) -0.2475(14)
O7A O 0.0500(12) -0.1065(12) -0.1784(12)
O7A* O 1.0500(12) -0.1065(12) -0.1784(12)
O8A O 0.1054(15) -0.2979(11) -0.3030(12)
O8A* O 1.1054(15) 0.7021(11) 0.6970(12)
O9A O 0.1666(17) -0.0871(16) -0.3326(13)
O10A O 0.1556(12) 0.4221(14) 0.6025(12)
O10A* O 1.1556(12) 0.4221(14) 0.6025(12)
O11A O 0.4019(14) 0.4914(12) 0.7967(11)
O11* O 0.5981(14) -0.4914(12) 0.2033(11)
O11A* O 0.4019(14) -0.5086(12) -0.2033(11)
O12A O 0.2635(19) 0.2537(14) 0.5873(17)
C1A C 1.0500(15) -0.6024(13) -0.0392(16)
C2A C 1.0066(18) -0.5744(15) 0.0677(16)
H1A H 1.00870 -0.62530 0.11210
C3A C 1.0392(18) -0.5293(15) -0.1061(18)
H2A H 1.06320 -0.55000 -0.17940
C4A C 0.3503(16) -0.0638(14) -0.1008(15)
C5A C 0.4228(19) -0.1417(15) -0.0754(15)
H3A H 0.37240 -0.23670 -0.12640
C6A C 0.4270(19) 0.0754(15) -0.0282(16)
H4A H 0.37820 0.12700 -0.04810
C7A C 0.4144(16) 0.4609(15) 0.5627(15)
C8A C 0.3536(18) 0.3913(16) 0.4215(16)
H5A H 0.25690 0.31710 0.36940
C9A C 0.5633(17) 0.5677(15) 0.6413(15)
H6A H 0.60620 0.61100 0.73600
#END
