
#######################################################################
#
#                 Cambridge Crystallographic Data Centre
#                                CCDC
#
#######################################################################
#
# If this CIF has been generated from an entry in the Cambridge
# Structural Database, then it will include bibliographic, chemical,
# crystal, experimental, refinement or atomic coordinate data resulting
# from the CCDC's data processing and validation procedures.
#
#######################################################################

data_CSD_CIF_VACKUI
_audit_creation_date 2016-03-04
_audit_creation_method CSD-ConQuest-V1
_database_code_CSD VACKUI
_database_code_depnum_ccdc_archive 'CCDC 1435242'
_chemical_formula_sum 'C85 H99 Co3 N7 O33'
_chemical_formula_moiety
;
(C80 H48 Co3 N4 O16 2-)n,2(C1 H6 N1 1+),C3 H7 N1 O1,16(H2 O1)
;
_journal_coden_Cambridge 1350
_journal_volume 18
_journal_year 2016
_journal_page_first 2239
_journal_name_full 'CrystEngComm '
loop_
_publ_author_name
"Xingjun Li"
"Feilong Jiang"
"Lian Chen"
"Mingyan Wu"
"Shan Lu"
"Jiandong Pang"
"Kang Zhou"
"Xueyuan Chen"
"Maochun Hong"
_chemical_name_systematic
;
catena-[bis(methylammonium) 
bis(\m-4,4',4'',4'''-(biphenyl-4,4'-diyldinitrilo)tetrabenzoato)-tri-cobalt(ii
) N,N-dimethylformamide solvate hexadecahydrate]
;
_cell_volume  14108.176
_exptl_crystal_colour 'orange'
_exptl_crystal_density_diffrn 0.705
_exptl_crystal_description 'prism'
_diffrn_ambient_temperature 100
_refine_special_details
;
Disordered cation and solvent molecules were not modelled and the disordered 
density was taken into account using the SQUEEZE/PLATON procedure.
;
#These two values have been output from a single CSD field.
_refine_ls_R_factor_gt 0.0393
_refine_ls_wR_factor_gt 0.0393
_symmetry_cell_setting monoclinic
_symmetry_space_group_name_H-M 'C 2/c'
_symmetry_Int_Tables_number 15
loop_
_symmetry_equiv_pos_site_id
_symmetry_equiv_pos_as_xyz
1 x,y,z
2 -x,y,1/2-z
3 1/2+x,1/2+y,z
4 1/2-x,1/2+y,1/2-z
5 -x,-y,-z
6 x,-y,-1/2+z
7 -1/2-x,-1/2-y,-z
8 -1/2+x,-1/2-y,-1/2+z
_cell_length_a 40.2669(10)
_cell_length_b 13.9032(5)
_cell_length_c 25.9948(9)
_cell_angle_alpha 90
_cell_angle_beta 104.201(3)
_cell_angle_gamma 90
_cell_formula_units_Z 4
loop_
_atom_type_symbol
_atom_type_radius_bond
C 0.68
H 0.23
Co 1.26
N 0.68
O 0.68
loop_
_atom_site_label
_atom_site_type_symbol
_atom_site_fract_x
_atom_site_fract_y
_atom_site_fract_z
Co1 Co 0.75000 0.75000 0.50000
Co2 Co 0.794246(7) 0.52614(2) 0.538034(13)
O1 O 0.30269(2) 0.17860(9) 0.51551(5)
O2 O 0.72977(3) 0.37814(10) 0.96317(7)
O3 O 0.33858(3) 0.11303(11) 0.58444(6)
O4 O 0.74125(4) 0.69880(12) 0.57148(6)
O5 O 0.31042(3) 0.88653(10) 0.57172(6)
O6 O 0.75969(3) 0.51221(10) 0.96760(5)
O7 O 0.76347(3) 0.54981(11) 0.59016(6)
O8 O 0.33936(3) 0.93775(11) 0.51564(7)
N1 N 0.40933(4) 0.52539(13) 0.58247(10)
N2 N 0.65931(3) 0.55971(15) 0.73845(7)
C1 C 0.71438(4) 0.48711(14) 0.89140(8)
C2 C 0.36340(4) 0.42854(15) 0.52971(10)
H1 H 0.35810 0.47940 0.50460
C3 C 0.39078(4) 0.61373(16) 0.57358(11)
C4 C 0.39051(4) 0.43767(15) 0.57378(11)
C5 C 0.44487(4) 0.52641(17) 0.60598(12)
C6 C 0.73661(4) 0.45703(15) 0.94541(8)
C7 C 0.67599(4) 0.53526(17) 0.79084(8)
C8 C 0.36176(4) 0.62470(15) 0.59143(9)
H2 H 0.35420 0.57380 0.61010
C9 C 0.72132(4) 0.60227(15) 0.63188(8)
C10 C 0.35411(4) 0.78376(15) 0.55620(9)
C11 C 0.72876(4) 0.53046(15) 0.67006(8)
H3 H 0.74830 0.49100 0.67240
C12 C 0.34390(4) 0.34533(15) 0.52208(9)
H4 H 0.32520 0.33930 0.49180
C13 C 0.68005(4) 0.57313(17) 0.70184(8)
C14 C 0.37967(4) 0.27984(16) 0.60197(10)
H5 H 0.38590 0.22810 0.62630
C15 C 0.62362(4) 0.54343(18) 0.71841(10)
C16 C 0.68746(4) 0.42931(15) 0.86566(9)
H6 H 0.68220 0.37250 0.88240
C17 C 0.38373(5) 0.77277(16) 0.53724(11)
H7 H 0.39100 0.82350 0.51810
C18 C 0.45910(4) 0.59660(16) 0.64181(11)
H8 H 0.44500 0.64520 0.65100
C19 C 0.72150(4) 0.57039(15) 0.86795(8)
H9 H 0.73970 0.61050 0.88600
C20 C 0.70853(4) 0.51549(15) 0.70426(8)
H10 H 0.71390 0.46550 0.72980
C21 C 0.35160(4) 0.27015(14) 0.55888(9)
C22 C 0.74355(5) 0.61882(18) 0.59426(8)
C23 C 0.70234(5) 0.59628(16) 0.81822(9)
H11 H 0.70690 0.65500 0.80260
C24 C 0.49429(4) 0.59656(16) 0.66469(10)
H12 H 0.50370 0.64620 0.68900
C25 C 0.39875(4) 0.36371(17) 0.61003(11)
H13 H 0.41740 0.37030 0.64030
C26 C 0.33013(4) 0.18362(15) 0.55290(9)
C27 C 0.34346(4) 0.70994(15) 0.58232(9)
H14 H 0.32320 0.71680 0.59450
C28 C 0.46592(5) 0.45594(18) 0.59331(13)
H15 H 0.45640 0.40690 0.56860
C29 C 0.67245(5) 0.64481(18) 0.66382(9)
H16 H 0.65280 0.68400 0.66130
C30 C 0.61098(5) 0.5060(2) 0.66855(11)
H17 H 0.62630 0.48530 0.64830
C31 C 0.40211(5) 0.68945(17) 0.54629(12)
H18 H 0.42240 0.68260 0.53430
C32 C 0.60142(5) 0.57097(18) 0.74917(10)
H19 H 0.61000 0.59440 0.78430
C33 C 0.69301(5) 0.65957(17) 0.63005(8)
H20 H 0.68780 0.71020 0.60480
C34 C 0.66802(4) 0.45426(16) 0.81512(9)
H21 H 0.64930 0.41500 0.79770
C35 C 0.51553(4) 0.52785(17) 0.65343(12)
C36 C 0.57546(5) 0.4982(2) 0.64738(12)
H22 H 0.56680 0.47250 0.61280
C37 C 0.33340(5) 0.87492(15) 0.54693(10)
C38 C 0.50056(5) 0.45687(18) 0.61650(13)
H23 H 0.51470 0.40830 0.60730
C39 C 0.55290(5) 0.52834(18) 0.67750(12)
C40 C 0.56636(5) 0.56337(18) 0.72723(11)
H24 H 0.55110 0.58350 0.74780
Co2D Co 0.205754(7) 0.47386(2) 0.461966(13)
O1D O 0.69731(2) 0.82140(9) 0.48449(5)
O2D O 0.27023(3) 0.62186(10) 0.03683(7)
O3D O 0.66142(3) 0.88697(11) 0.41556(6)
O4D O 0.25875(4) 0.30120(12) 0.42852(6)
O5D O 0.68958(3) 0.11347(10) 0.42828(6)
O6D O 0.24031(3) 0.48779(10) 0.03240(5)
O7D O 0.23653(3) 0.45019(11) 0.40984(6)
O8D O 0.66064(3) 0.06225(11) 0.48436(7)
N1D N 0.59067(4) 0.47461(13) 0.41753(10)
N2D N 0.34069(3) 0.44029(15) 0.26155(7)
C1D C 0.28562(4) 0.51289(14) 0.10860(8)
C2D C 0.63660(4) 0.57146(15) 0.47029(10)
H1D H 0.64190 0.52060 0.49540
C3D C 0.60922(4) 0.38627(16) 0.42642(11)
C4D C 0.60949(4) 0.56233(15) 0.42622(11)
C5D C 0.55513(4) 0.47359(17) 0.39402(12)
C6D C 0.26339(4) 0.54297(15) 0.05459(8)
C7D C 0.32401(4) 0.46474(17) 0.20916(8)
C8D C 0.63824(4) 0.37530(15) 0.40857(9)
H2D H 0.64580 0.42620 0.38990
C9D C 0.27868(4) 0.39773(15) 0.36812(8)
C10D C 0.64589(4) 0.21624(15) 0.44380(9)
C11D C 0.27124(4) 0.46954(15) 0.32994(8)
H3D H 0.25170 0.50900 0.32760
C12D C 0.65610(4) 0.65467(15) 0.47792(9)
H4D H 0.67480 0.66070 0.50820
C13D C 0.31995(4) 0.42687(17) 0.29816(8)
C14D C 0.62033(4) 0.72016(16) 0.39803(10)
H5D H 0.61410 0.77190 0.37370
C15D C 0.37638(4) 0.45657(18) 0.28159(10)
C16D C 0.31254(4) 0.57069(15) 0.13434(9)
H6D H 0.31780 0.62750 0.11760
C17D C 0.61627(5) 0.22723(16) 0.46276(11)
H7D H 0.60900 0.17650 0.48190
C18D C 0.54090(4) 0.40340(16) 0.35819(11)
H8D H 0.55500 0.35480 0.34900
C19D C 0.27850(4) 0.42961(15) 0.13205(8)
H9D H 0.26030 0.38950 0.11400
C20D C 0.29147(4) 0.48451(15) 0.29574(8)
H10D H 0.28610 0.53450 0.27020
C21D C 0.64840(4) 0.72985(14) 0.44112(9)
C22D C 0.25645(5) 0.38118(18) 0.40574(8)
C23D C 0.29766(5) 0.40372(16) 0.18178(9)
H11D H 0.29310 0.34500 0.19740
C24D C 0.50571(4) 0.40344(16) 0.33531(10)
H12D H 0.49630 0.35380 0.31100
C25D C 0.60125(4) 0.63629(17) 0.38997(11)
H13D H 0.58260 0.62970 0.35970
C26D C 0.66987(4) 0.81638(15) 0.44710(9)
C27D C 0.65654(4) 0.29006(15) 0.41768(9)
H14D H 0.67680 0.28320 0.40550
C28D C 0.53408(5) 0.54406(18) 0.40669(13)
H15D H 0.54360 0.59310 0.43140
C29D C 0.32755(5) 0.35519(18) 0.33618(9)
H16D H 0.34720 0.31600 0.33870
C30D C 0.38902(5) 0.4940(2) 0.33145(11)
H17D H 0.37370 0.51470 0.35170
C31D C 0.59789(5) 0.31055(17) 0.45371(12)
H18D H 0.57760 0.31740 0.46570
C32D C 0.39858(5) 0.42903(18) 0.25083(10)
H19D H 0.39000 0.40560 0.21570
C33D C 0.30699(5) 0.34043(17) 0.36995(8)
H20D H 0.31220 0.28980 0.39520
C34D C 0.33198(4) 0.54574(16) 0.18488(9)
H21D H 0.35070 0.58500 0.20230
C35D C 0.48447(4) 0.47215(17) 0.34657(12)
C36D C 0.42454(5) 0.5018(2) 0.35262(12)
H22D H 0.43320 0.52750 0.38720
C37D C 0.66660(5) 0.12508(15) 0.45307(10)
C38D C 0.49944(5) 0.54313(18) 0.38350(13)
H23D H 0.48530 0.59170 0.39270
C39D C 0.44710(5) 0.47166(18) 0.32250(12)
C40D C 0.43364(5) 0.43663(18) 0.27277(11)
H24D H 0.44890 0.41650 0.25220
Co1A Co 0.25000 0.75000 0.00000
Co1B Co 0.25000 0.25000 0.50000
Co1C Co 0.75000 0.25000 1.00000
Co2A Co 0.205754(7) 0.52614(2) -0.038034(13)
Co2B Co 0.294246(7) 0.02614(2) 0.538034(13)
Co2B* Co 0.294246(7) 1.02614(2) 0.538034(13)
Co2E Co 0.794246(7) 0.47386(2) 1.038034(13)
Co2F Co 0.705754(7) -0.02614(2) 0.461966(13)
Co2F* Co 0.705754(7) 0.97386(2) 0.461966(13)
O1B O 0.80269(2) 0.67860(9) 0.51551(5)
O1F O 0.19731(2) 0.32140(9) 0.48449(5)
O2C O 0.77023(3) 0.87814(10) 0.53683(7)
O2E O 0.72977(3) 0.62186(10) 0.46317(7)
O3B O 0.83858(3) 0.61303(11) 0.58444(6)
O3F O 0.16142(3) 0.38697(11) 0.41556(6)
O4F O 0.75875(4) 0.80120(12) 0.42852(6)
O5B O 0.81042(3) 0.38653(10) 0.57172(6)
O5F O 0.18958(3) 0.61347(10) 0.42828(6)
O6A O 0.24031(3) 0.51221(10) 0.53240(5)
O6E O 0.75969(3) 0.48779(10) 0.46760(5)
O8B O 0.83936(3) 0.43775(11) 0.51564(7)
O8F O 0.16064(3) 0.56225(11) 0.48436(7)
#END
