
#######################################################################
#
#                 Cambridge Crystallographic Data Centre
#                                CCDC
#
#######################################################################
#
# If this CIF has been generated from an entry in the Cambridge
# Structural Database, then it will include bibliographic, chemical,
# crystal, experimental, refinement or atomic coordinate data resulting
# from the CCDC's data processing and validation procedures.
#
#######################################################################

data_CSD_CIF_VACLAP
_audit_creation_date 2016-03-04
_audit_creation_method CSD-ConQuest-V1
_database_code_CSD VACLAP
_database_code_depnum_ccdc_archive 'CCDC 1435244'
_chemical_formula_sum 'C88 H124 Cd3 N8 O43'
_chemical_formula_moiety
;
(C80 H48 Cd3 N4 O16 2-)n,2(C1 H6 N1 1+),2(C3 H7 N1 O1),25(H2 O1)
;
_journal_coden_Cambridge 1350
_journal_volume 18
_journal_year 2016
_journal_page_first 2239
_journal_name_full 'CrystEngComm '
loop_
_publ_author_name
"Xingjun Li"
"Feilong Jiang"
"Lian Chen"
"Mingyan Wu"
"Shan Lu"
"Jiandong Pang"
"Kang Zhou"
"Xueyuan Chen"
"Maochun Hong"
_chemical_name_systematic
;
catena-[bis(methylammonium) 
bis(\m-4,4',4'',4'''-(biphenyl-4,4'-diyldinitrilo)tetrabenzoato)-tri-cadmium(i
;
_cell_volume  14609.526
_exptl_crystal_colour 'colorless'
_exptl_crystal_density_diffrn 0.754
_exptl_crystal_description 'block'
_diffrn_ambient_temperature 100
_refine_special_details
;
Disordered cationa and solvent molecules were not modelled and the disordered 
density was taken into account using the SQUEEZE/PLATON procedure.
;
#These two values have been output from a single CSD field.
_refine_ls_R_factor_gt 0.0826
_refine_ls_wR_factor_gt 0.0826
_symmetry_cell_setting monoclinic
_symmetry_space_group_name_H-M 'P 21/c'
_symmetry_Int_Tables_number 14
loop_
_symmetry_equiv_pos_site_id
_symmetry_equiv_pos_as_xyz
1 x,y,z
2 -x,1/2+y,1/2-z
3 -x,-y,-z
4 x,-1/2-y,-1/2+z
_cell_length_a 26.9364(7)
_cell_length_b 22.1231(4)
_cell_length_c 26.0462(8)
_cell_angle_alpha 90
_cell_angle_beta 109.737(3)
_cell_angle_gamma 90
_cell_formula_units_Z 4
loop_
_atom_type_symbol
_atom_type_radius_bond
C 0.68
H 0.23
Cd 1.44
N 0.68
O 0.68
loop_
_atom_site_label
_atom_site_type_symbol
_atom_site_fract_x
_atom_site_fract_y
_atom_site_fract_z
Cd1 Cd 0.25803(2) 0.639487(19) 0.54509(2)
Cd2 Cd 0.130160(19) 0.60138(2) 0.45634(2)
Cd3 Cd 0.39028(2) 0.61499(2) 0.63253(3)
C1 C 0.3534(4) 0.6069(4) 0.4707(3)
O1 O 0.2798(2) 0.7905(2) 0.1099(2)
O2 O 0.1728(2) -0.1360(2) 0.0467(2)
O3 O 0.3410(2) 0.6485(2) 0.5408(2)
O4 O 0.2294(2) -0.2912(2) 0.4803(2)
O5 O 0.2381(3) 0.5552(2) 0.4908(2)
O6 O 0.3707(2) -0.0279(2) 0.1674(3)
O7 O 0.1147(2) -0.0632(2) 0.0347(2)
C2 C 0.2410(3) 0.4615(3) 0.4504(3)
O8 O 0.3946(2) 0.5694(2) 0.5505(2)
O9 O 0.3581(2) 0.8150(3) 0.1716(3)
O10 O 0.3000(3) -0.0701(2) 0.1121(3)
C3 C 0.3643(3) 0.6070(3) 0.5225(4)
C4 C 0.1954(3) -0.2412(3) 0.3948(3)
O11 O 0.1641(3) -0.3349(2) 0.4115(2)
O12 O 0.1625(2) 0.5156(2) 0.4385(3)
C5 C 0.2780(3) 0.1205(3) 0.1870(4)
H1 H 0.29230 0.15200 0.21250
C6 C 0.3170(3) 0.7838(3) 0.1550(3)
C7 C 0.3223(4) -0.0256(3) 0.1420(4)
C8 C 0.2881(3) 0.0257(3) 0.1450(3)
C9 C 0.1575(3) -0.1019(3) 0.1282(2)
N1 N 0.1927(3) 0.1708(3) 0.1583(4)
C10 C 0.3128(3) 0.7334(3) 0.1907(3)
C11 C 0.2407(3) 0.3675(3) 0.4034(4)
H2 H 0.22160 0.33590 0.38050
C12 C 0.1384(3) 0.1598(3) 0.1424(4)
C13 C 0.3027(4) 0.6437(3) 0.3734(4)
H3 H 0.27990 0.67390 0.35190
C14 C 0.2115(4) 0.5157(3) 0.4613(4)
C15 C 0.2141(3) 0.4157(3) 0.4150(3)
H4 H 0.17680 0.41780 0.39880
C16 C 0.1476(3) -0.0997(3) 0.0660(3)
C17 C 0.3182(4) 0.6461(3) 0.4291(3)
H5 H 0.30370 0.67880 0.44300
C18 C 0.1961(4) -0.2940(3) 0.4326(3)
C19 C 0.1878(4) -0.1451(3) 0.1592(4)
H6 H 0.20310 -0.17590 0.14390
C20 C 0.2266(3) 0.1220(3) 0.1543(4)
C21 C 0.2377(3) 0.0303(3) 0.1121(4)
H7 H 0.22320 -0.00040 0.08580
C22 C 0.3092(3) 0.0727(3) 0.1828(4)
H8 H 0.34520 0.07130 0.20550
C23 C 0.2063(3) 0.0787(4) 0.1157(4)
H9 H 0.17100 0.08160 0.09140
C24 C 0.2122(3) 0.2302(3) 0.1773(4)
C25 C 0.2942(4) 0.3650(3) 0.4246(4)
C26 C 0.1291(4) -0.0588(4) 0.1459(4)
H10 H 0.10590 -0.03100 0.12170
C27 C 0.1716(5) -0.1001(3) 0.2342(3)
C28 C 0.1605(4) -0.2397(3) 0.3427(3)
H11 H 0.13820 -0.27370 0.32970
C29 C 0.2595(5) 0.1450(3) 0.3649(4)
N2 N 0.3025(4) 0.5883(3) 0.2907(3)
C30 C 0.3210(4) 0.5953(3) 0.3480(4)
C31 C 0.3059(4) 0.6360(3) 0.2565(3)
C32 C 0.2952(3) 0.4585(3) 0.4717(4)
H12 H 0.31420 0.48950 0.49550
C33 C 0.2713(4) 0.6925(4) 0.1729(4)
H13 H 0.24500 0.69720 0.13810
C34 C 0.2688(5) 0.6431(4) 0.2075(4)
H14 H 0.24040 0.61520 0.19560
C35 C 0.2856(4) 0.5285(3) 0.2693(4)
C36 C 0.1958(4) -0.1427(3) 0.2129(3)
H15 H 0.21860 -0.17130 0.23660
N3 N 0.1842(4) -0.0931(3) 0.2936(3)
C37 C 0.3502(4) 0.7246(4) 0.2399(4)
H16 H 0.37910 0.75200 0.25160
C38 C 0.2575(4) 0.4106(3) 0.2319(4)
C39 C 0.3568(4) 0.5554(4) 0.3827(4)
H17 H 0.37100 0.52390 0.36710
C40 C 0.3222(3) 0.4117(3) 0.4592(4)
H18 H 0.35960 0.41060 0.47380
C41 C 0.2068(6) -0.0343(3) 0.3141(3)
C42 C 0.2878(4) 0.2402(4) 0.3418(5)
H19 H 0.29540 0.26560 0.31600
C43 C 0.2249(5) -0.1443(4) 0.3788(4)
H20 H 0.24720 -0.11040 0.39200
C44 C 0.2975(4) 0.2603(3) 0.3911(5)
N4 N 0.3218(3) 0.3182(3) 0.4093(5)
C45 C 0.2288(4) -0.1938(3) 0.4124(4)
H21 H 0.25480 -0.19450 0.44780
C46 C 0.2445(3) 0.4350(3) 0.2743(3)
H22 H 0.22420 0.41170 0.29060
C47 C 0.2433(3) 0.3474(3) 0.2149(4)
C48 C 0.2605(4) 0.4928(3) 0.2938(4)
H23 H 0.25340 0.50700 0.32500
C49 C 0.2357(5) -0.0028(4) 0.2894(4)
H24 H 0.24410 -0.02010 0.26000
C50 C 0.1370(5) -0.0594(3) 0.2013(4)
H25 H 0.11860 -0.03180 0.21630
C51 C 0.3721(4) 0.5595(4) 0.4379(4)
H26 H 0.39680 0.53030 0.45830
C52 C 0.1170(3) 0.1105(3) 0.1598(4)
H27 H 0.14010 0.08270 0.18430
C53 C 0.1863(4) 0.2618(4) 0.2091(5)
H28 H 0.15890 0.24280 0.21850
C54 C 0.1036(3) 0.2002(4) 0.1063(4)
H29 H 0.11730 0.23470 0.09390
C55 C 0.1897(5) -0.1437(3) 0.3273(3)
C56 C 0.2502(4) 0.2596(4) 0.1628(5)
H30 H 0.26620 0.24040 0.13960
C57 C 0.2016(4) 0.3201(4) 0.2259(4)
H31 H 0.18320 0.34200 0.24520
C58 C 0.1903(6) -0.0078(4) 0.3530(4)
H32 H 0.16670 -0.02830 0.36710
C59 C 0.3481(4) 0.6761(4) 0.2747(4)
H33 H 0.37470 0.67110 0.30930
C60 C 0.2853(6) 0.2252(4) 0.4313(6)
H34 H 0.28980 0.24070 0.46660
C61 C 0.1560(5) -0.1920(4) 0.3085(4)
H35 H 0.13060 -0.19190 0.27280
C62 C 0.2975(6) 0.5057(4) 0.2264(5)
H36 H 0.31570 0.53040 0.20870
C63 C 0.2663(6) 0.1668(4) 0.4160(5)
H37 H 0.25800 0.14170 0.44160
C64 C 0.2838(6) 0.4482(4) 0.2081(5)
H38 H 0.29280 0.43380 0.17800
C65 C 0.2668(5) 0.1838(4) 0.3253(5)
H39 H 0.25770 0.17150 0.28830
C66 C 0.2401(5) 0.0826(3) 0.3483(4)
O13 O -0.0467(2) 0.0829(2) 0.1031(2)
O14 O -0.0575(2) 0.1647(2) 0.0528(3)
O15 O 0.5163(3) 0.4031(4) 0.3378(3)
C67 C -0.0288(3) 0.1301(3) 0.0863(2)
C68 C 0.0290(3) 0.1398(3) 0.1062(3)
C69 C 0.0652(3) 0.1005(3) 0.1436(3)
H40 H 0.05230 0.06640 0.15740
O16 O 0.5457(3) 0.3186(3) 0.3793(4)
C70 C 0.0504(4) 0.1909(4) 0.0887(4)
H41 H 0.02750 0.21900 0.06450
C71 C 0.5090(4) 0.3570(5) 0.3620(5)
C72 C 0.3680(4) 0.3299(4) 0.3958(6)
C73 C 0.2650(5) 0.3166(4) 0.1817(5)
H42 H 0.29160 0.33610 0.17140
C74 C 0.4191(4) 0.3915(4) 0.3568(5)
H43 H 0.42290 0.42720 0.33820
C75 C 0.3738(3) 0.3815(4) 0.3704(5)
H44 H 0.34680 0.41130 0.36170
C76 C 0.2091(6) 0.0509(4) 0.3719(4)
H45 H 0.20020 0.06860 0.40090
C77 C 0.2526(5) 0.0543(4) 0.3074(5)
H46 H 0.27390 0.07520 0.29070
C78 C 0.4508(5) 0.2938(4) 0.3950(8)
H47 H 0.47610 0.26220 0.40240
C79 C 0.4070(5) 0.2856(4) 0.4075(8)
H48 H 0.40250 0.24920 0.42460
C80 C 0.4602(4) 0.3460(5) 0.3718(5)
Cd1* Cd 0.25803(2) -0.360513(19) 0.54509(2)
Cd1C Cd 0.25803(2) -0.139487(19) 0.04509(2)
Cd1C* Cd 0.25803(2) 0.860513(19) 0.04509(2)
Cd2* Cd 0.130160(19) -0.39862(2) 0.45634(2)
Cd2A Cd -0.130160(19) 0.10138(2) 0.04366(2)
Cd2C Cd 0.130160(19) -0.10138(2) -0.04366(2)
Cd3B Cd 0.60972(2) 0.38501(2) 0.36747(3)
Cd3C Cd 0.39028(2) -0.11499(2) 0.13253(3)
Cd3C* Cd 0.39028(2) 0.88501(2) 0.13253(3)
O1C O 0.2798(2) 0.7095(2) 0.6099(2)
O2C O 0.1728(2) 0.6360(2) 0.5467(2)
O4* O 0.2294(2) 0.7088(2) 0.4803(2)
O6C O 0.3707(2) 0.5279(2) 0.6674(3)
O7C O 0.1147(2) 0.5632(2) 0.5347(2)
O9C O 0.3581(2) 0.6850(3) 0.6716(3)
O10C O 0.3000(3) 0.5701(2) 0.6121(3)
O11* O 0.1641(3) 0.6651(2) 0.4115(2)
O13A O 0.0467(2) 0.5829(2) 0.3969(2)
O14A O 0.0575(2) 0.6647(2) 0.4472(3)
O15B O 0.4837(3) 0.5969(4) 0.6622(3)
O16B O 0.4543(3) 0.6814(3) 0.6207(4)
#END
