
#######################################################################
#
#                 Cambridge Crystallographic Data Centre
#                                CCDC
#
#######################################################################
#
# If this CIF has been generated from an entry in the Cambridge
# Structural Database, then it will include bibliographic, chemical,
# crystal, experimental, refinement or atomic coordinate data resulting
# from the CCDC's data processing and validation procedures.
#
#######################################################################

data_CSD_CIF_VADYUV01
_audit_creation_date 2003-07-18
_audit_creation_method CSD-ConQuest-V1
_database_code_CSD VADYUV01
_database_code_depnum_ccdc_archive 'CCDC 183361'
_chemical_formula_sum 'C12 H12 Fe2 O16'
_chemical_formula_moiety
;
(H3 O1 1+)2n,n(C12 H2 Fe2 O12 2-),2n(H2 O1)
;
_journal_coden_Cambridge 222
_journal_year 2003
_journal_page_first 1148
_journal_name_full 'Dalton Trans. '
loop_
_publ_author_name
"Li-Juan Zhang"
"Ji-Qing Xu"
"Zhan Shi"
"Wei Xu"
"Tie-Gang Wang"
_chemical_name_systematic
;
catena-(bis(Oxonium) 
(\m~8~-benzene-1,2,4,5-tetracarboxylato)-(\m~2~-oxalato)-di-iron(ii) 
dihydrate clathrate)
;
_cell_volume    736.006
_exptl_crystal_colour 'brown'
_exptl_crystal_density_diffrn 2.364
_exptl_special_details
;
isostructural with the Co analogue

;
_exptl_crystal_description 'columnar'
_diffrn_ambient_temperature 293
_refine_special_details
;
A water molecule is disordered over two sites with occupancies 0.61:0.39.

;
#These two values have been output from a single CSD field.
_refine_ls_R_factor_gt 0.0307
_refine_ls_wR_factor_gt 0.0307
loop_
_citation_database_id_CSD
_citation_special_details
VADYUV "is reinterpreted by this entry"
_symmetry_cell_setting monoclinic
_symmetry_space_group_name_H-M 'C 2/m'
_symmetry_Int_Tables_number 12
loop_
_symmetry_equiv_pos_site_id
_symmetry_equiv_pos_as_xyz
1 x,y,z
2 1/2+x,1/2+y,z
3 x,-y,z
4 1/2+x,1/2-y,z
5 -x,-y,-z
6 -1/2-x,-1/2-y,-z
7 -x,y,-z
8 -1/2-x,-1/2+y,-z
_cell_length_a 9.3825(19)
_cell_length_b 13.791(3)
_cell_length_c 6.7346(13)
_cell_angle_alpha 90
_cell_angle_beta 122.37(3)
_cell_angle_gamma 90
_cell_formula_units_Z 2
loop_
_atom_type_symbol
_atom_type_radius_bond
C 0.68
H 0.23
Fe 1.34
O 0.54
loop_
_atom_site_label
_atom_site_type_symbol
_atom_site_fract_x
_atom_site_fract_y
_atom_site_fract_z
C1 C -0.3343(4) 1.50000 0.6888(6)
H1 H -0.22280 1.50000 0.81490
C2 C -0.4161(3) 1.41257(17) 0.5963(4)
C3 C -0.3282(3) 1.32070(18) 0.7200(4)
C4 C 0.0951(4) 1.00000 1.0953(6)
O1 O -0.1779(2) 1.31005(14) 0.7740(4)
O2 O -0.4076(2) 1.26260(14) 0.7686(3)
O3 O 0.1640(2) 1.08163(13) 1.1638(4)
O4? O -0.0067(5) 1.3904(3) 0.6278(7)
O5 O -0.0047(6) 1.4462(4) 1.2883(9)
Fe1 Fe 0.00000 1.20736(3) 1.00000
C2F C -0.5839(3) 1.41257(17) 0.4037(4)
C1F C -0.6657(4) 1.50000 0.3112(6)
H1F H -0.77720 1.50000 0.18510
C2D C -0.5839(3) 1.58743(17) 0.4037(4)
C2B C -0.4161(3) 1.58743(17) 0.5963(4)
C3B C -0.3282(3) 1.67930(18) 0.7200(4)
O1B O -0.1779(2) 1.68995(14) 0.7740(4)
O2B O -0.4076(2) 1.73740(14) 0.7686(3)
C3D C -0.6718(3) 1.67930(18) 0.2800(4)
O1D O -0.8221(2) 1.68995(14) 0.2260(4)
O2D O -0.5924(2) 1.73740(14) 0.2314(3)
C3F C -0.6718(3) 1.32070(18) 0.2800(4)
O1F O -0.8221(2) 1.31005(14) 0.2260(4)
O2F O -0.5924(2) 1.26260(14) 0.2314(3)
C4D C -0.0951(4) 1.00000 0.9047(6)
O3D O -0.1640(2) 0.91837(13) 0.8362(4)
O3F O -0.1640(2) 1.08163(13) 0.8362(4)
O3B O 0.1640(2) 0.91837(13) 1.1638(4)
Fe1B Fe 0.00000 1.79264(3) 1.00000
Fe1C Fe -0.50000 1.29264(3) 1.00000
O1F* O 0.1779(2) 1.31005(14) 1.2260(4)
O2C O 0.0924(2) 1.23740(14) 0.7686(3)
O2E O -0.0924(2) 1.23740(14) 1.2314(3)
Fe1A Fe -0.50000 1.70736(3) 1.00000
Fe1B* Fe -1.00000 1.79264(3) 0.00000
Fe1A* Fe -0.50000 1.70736(3) 0.00000
Fe1* Fe -1.00000 1.20736(3) 0.00000
Fe1C* Fe -0.50000 1.29264(3) 0.00000
Fe1B** Fe 0.00000 0.79264(3) 1.00000
O1D* O 0.1779(2) 1.68995(14) 1.2260(4)
O2A O 0.0924(2) 1.76260(14) 0.7686(3)
O2G O -0.0924(2) 1.76260(14) 1.2314(3)
O3B* O 0.1640(2) 1.91837(13) 1.1638(4)
O3D* O -0.1640(2) 1.91837(13) 0.8362(4)
#END
