
#######################################################################
#
#                 Cambridge Crystallographic Data Centre
#                                CCDC
#
#######################################################################
#
# If this CIF has been generated from an entry in the Cambridge
# Structural Database, then it will include bibliographic, chemical,
# crystal, experimental, refinement or atomic coordinate data resulting
# from the CCDC's data processing and validation procedures.
#
#######################################################################

data_CSD_CIF_VAHDUE
_audit_creation_date 2003-09-16
_audit_creation_method CSD-ConQuest-V1
_database_code_CSD VAHDUE
_chemical_formula_sum 'C11 H20 Fe4 N2 O22 P2'
_chemical_formula_moiety
;
(C6 H6 Fe4 O22 P2 2-)n,n(C5 H14 N2 2+)
;
_journal_coden_Cambridge 208
_journal_volume 157
_journal_year 2001
_journal_page_first 233
_journal_name_full 'J.Solid State Chem. '
loop_
_publ_author_name
"Wen-Jung Chang"
"Hsiu-Mei Lin"
"Kwang-Hwa Lii"
_chemical_name_systematic
;
catena-((S)-2-Methylpiperazine-diium (\m~4~-oxalato)-bis(\m~4~-hydrogen 
phosphato)-bis(\m~2~-oxalato)-diaqua-tetra-iron)
;
_cell_volume    574.336
_exptl_crystal_colour 'red'
_exptl_crystal_density_diffrn 2.364
_exptl_special_details
;
Absolute configuration

;
_exptl_crystal_preparation 'from the melt'
_diffrn_ambient_temperature 296.15
#These two values have been output from a single CSD field.
_refine_ls_R_factor_gt 0.0255
_refine_ls_wR_factor_gt 0.0255
_symmetry_cell_setting triclinic
_symmetry_space_group_name_H-M 'P 1'
_symmetry_Int_Tables_number 1
loop_
_symmetry_equiv_pos_site_id
_symmetry_equiv_pos_as_xyz
1 x,y,z
_cell_length_a 7.6999(4)
_cell_length_b 7.9542(4)
_cell_length_c 9.8262(5)
_cell_angle_alpha 74.8444(7)
_cell_angle_beta 81.7716(8)
_cell_angle_gamma 85.4075(8)
_cell_formula_units_Z 1
loop_
_atom_type_symbol
_atom_type_radius_bond
C 0.68
H 0.23
Fe 1.34
N 0.68
O 0.68
P 1.05
loop_
_atom_site_label
_atom_site_type_symbol
_atom_site_fract_x
_atom_site_fract_y
_atom_site_fract_z
Fe1 Fe 0.91140(6) 0.59482(6) 0.73064(5)
Fe2 Fe 0.59107(6) 0.31879(5) 0.83930(5)
Fe3 Fe 0.63062(6) 0.64857(5) 0.21660(5)
Fe4 Fe 0.95213(6) 0.92222(5) 0.10437(5)
P1 P 0.6915(1) 0.8944(1) 0.8800(1)
P2 P 0.8456(1) 0.3428(1) 1.0718(2)
O1 O 0.7295(5) 0.4743(4) 0.6412(3)
O2 O 0.7907(4) 0.4163(4) 0.9226(3)
O3 O 1.1659(5) 0.6804(4) 0.7608(4)
O4 O 0.7853(5) 0.8081(4) 0.7682(3)
O5 O 1.0951(5) 0.3847(4) 0.7051(4)
O6 O 0.9593(5) 0.7177(4) 0.4968(3)
O7 O 0.7083(5) 1.0903(4) 0.8323(4)
O8 O 1.3597(4) 0.2711(4) 0.7527(4)
O9 O 1.4292(5) 0.5650(4) 0.8173(4)
O10 O 0.4278(4) 0.2688(4) 1.0459(3)
O11 O 0.8173(5) 0.7594(4) 0.3049(4)
O12 O 0.7534(4) 0.8178(4) 1.0266(3)
O13 O 0.3842(5) 0.5732(4) 0.1634(4)
O14 O 0.7385(5) 0.4263(4) 1.1813(3)
O15 O 0.4469(4) 0.8552(4) 0.2435(3)
O16 O 0.5900(4) 0.5199(4) 0.4500(3)
O17 O 0.8365(5) 0.1470(4) 1.1241(4)
O18 O 1.0757(5) 1.0253(4) -0.1117(3)
O19 O 0.4879(4) 0.8618(4) 0.8967(3)
H1 H 0.4504(4) 0.9040(4) 0.8205(3)
O20 O 1.0458(4) 0.3869(4) 1.0633(4)
H2 H 1.0556(4) 0.4927(4) 1.0351(4)
O21 O 0.1196(4) 0.6873(4) 0.1103(4)
O22 O 0.1923(5) 0.9815(4) 0.1753(4)
C1 C 0.7060(6) 0.5475(5) 0.5127(4)
C2 C 0.8429(6) 0.6869(5) 0.4313(4)
C3 C 1.2801(6) 0.5607(5) 0.7787(5)
C4 C 1.2430(6) 0.3912(5) 0.7410(4)
C5 C 0.2638(6) 0.6903(5) 0.1537(5)
C6 C 0.3046(6) 0.8579(6) 0.1933(5)
C7 C 0.2017(5) 0.0782(5) 0.4758(4)
H3 H 0.2008(5) -0.0118(5) 0.4242(4)
C8 C 0.3067(6) 0.2285(5) 0.3786(5)
H4 H 0.2506(6) 0.2767(5) 0.2936(5)
H5 H 0.3085(6) 0.3200(5) 0.4271(5)
C9 C 0.5798(6) 0.0795(6) 0.4610(5)
H6 H 0.5963(6) 0.1626(6) 0.5143(5)
H7 H 0.6947(6) 0.0345(6) 0.4285(5)
C10 C 0.4756(5) -0.0672(5) 0.5556(4)
H8 H 0.5352(5) -0.1218(5) 0.6377(4)
H9 H 0.4654(5) -0.1544(5) 0.5046(4)
C11 C 0.0115(6) 0.1377(7) 0.5137(6)
H10 H -0.0514(6) 0.0410(7) 0.5747(6)
H11 H -0.0427(6) 0.1810(7) 0.4284(6)
H12 H 0.0092(6) 0.2287(7) 0.5619(6)
N1 N 0.2946(5) 0.0017(4) 0.6035(4)
H13 H 0.2331(5) -0.0855(4) 0.6634(4)
H14 H 0.3038(5) 0.0838(4) 0.6498(4)
N2 N 0.4901(4) 0.1672(4) 0.3383(3)
H15 H 0.4881(4) 0.0933(4) 0.2831(3)
H16 H 0.5515(4) 0.2593(4) 0.2866(3)
O7* O 0.7083(5) 0.0903(4) 0.8323(4)
O8* O 0.3597(4) 0.2711(4) 0.7527(4)
O9* O 0.4292(5) 0.5650(4) 0.8173(4)
O12* O 0.7534(4) 0.8178(4) 0.0266(3)
O14* O 0.7385(5) 0.4263(4) 0.1813(3)
O17* O 0.8365(5) 1.1470(4) 0.1241(4)
O21* O 1.1196(4) 0.6873(4) 0.1103(4)
O22* O 1.1923(5) 0.9815(4) 0.1753(4)
Fe2* Fe 0.59107(6) 1.31879(5) 0.83930(5)
Fe2** Fe 1.59107(6) 0.31879(5) 0.83930(5)
Fe3* Fe 0.63062(6) 0.64857(5) 1.21660(5)
Fe4* Fe 0.95213(6) 0.92222(5) 1.10437(5)
Fe4** Fe 0.95213(6) -0.07778(5) 1.10437(5)
Fe4*** Fe -0.04787(6) 0.92222(5) 0.10437(5)
#END
