
#######################################################################
#
#                 Cambridge Crystallographic Data Centre
#                                CCDC
#
#######################################################################
#
# If this CIF has been generated from an entry in the Cambridge
# Structural Database, then it will include bibliographic, chemical,
# crystal, experimental, refinement or atomic coordinate data resulting
# from the CCDC's data processing and validation procedures.
#
#######################################################################

data_CSD_CIF_VAHFAM
_audit_creation_date 2003-09-16
_audit_creation_method CSD-ConQuest-V1
_database_code_CSD VAHFAM
_chemical_formula_sum 'C11 H16 Fe4 N2 O20 P2'
_chemical_formula_moiety
;
(C6 H2 Fe4 O20 P2 2-)n,n(C5 H14 N2 2+)
;
_journal_coden_Cambridge 208
_journal_volume 157
_journal_year 2001
_journal_page_first 233
_journal_name_full 'J.Solid State Chem. '
loop_
_publ_author_name
"Wen-Jung Chang"
"Hsiu-Mei Lin"
"Kwang-Hwa Lii"
_chemical_name_systematic
;
catena-((S)-2-Methylpiperazine-diium (\m~4~-oxalato)-bis(\m~4~-hydrogen 
phosphato)-bis(\m~2~-oxalato)-tetra-iron)
;
_cell_volume   1073.749
_exptl_crystal_colour 'orange'
_exptl_crystal_density_diffrn 2.413
_exptl_special_details
;
Absolute configuration

;
_exptl_crystal_preparation 'from the melt'
_diffrn_ambient_temperature 296.15
#These two values have been output from a single CSD field.
_refine_ls_R_factor_gt 0.0281
_refine_ls_wR_factor_gt 0.0281
loop_
_citation_database_id_CSD
_citation_special_details
VAHFEQ "is a racemate of this entry"
_symmetry_cell_setting monoclinic
_symmetry_space_group_name_H-M 'P 21'
_symmetry_Int_Tables_number 4
loop_
_symmetry_equiv_pos_site_id
_symmetry_equiv_pos_as_xyz
1 x,y,z
2 -x,1/2+y,-z
_cell_length_a 7.5943(8)
_cell_length_b 7.8172(8)
_cell_length_c 18.318(2)
_cell_angle_alpha 90
_cell_angle_beta 99.111(2)
_cell_angle_gamma 90
_cell_formula_units_Z 2
loop_
_atom_type_symbol
_atom_type_radius_bond
C 0.68
H 0.23
Fe 1.34
N 0.68
O 0.68
P 1.05
loop_
_atom_site_label
_atom_site_type_symbol
_atom_site_fract_x
_atom_site_fract_y
_atom_site_fract_z
Fe1 Fe 0.36475(9) 0.21560(9) 0.38359(4)
Fe2 Fe 0.7123(1) -0.04165(9) 0.43997(5)
Fe3 Fe 0.62826(9) 0.08735(9) 0.11549(4)
Fe4 Fe 0.2792(1) 0.34940(9) 0.05819(5)
P1 P 0.4497(1) -0.2715(2) 0.05537(7)
P2 P 0.5586(1) 0.5752(2) 0.44558(7)
O1 O 0.4313(5) 0.4615(5) 0.3938(2)
O2 O 0.1883(4) 0.0073(6) 0.3649(2)
O3 O 0.5769(4) 0.0964(6) 0.3403(2)
O4 O 0.4965(4) 0.5899(6) 0.5207(2)
O5 O 0.3014(4) 0.2595(6) 0.2614(2)
O6 O 0.1386(4) 0.2909(6) 0.4456(2)
O7 O 0.5762(4) 0.7463(6) 0.4109(2)
O8 O -0.0579(5) -0.1040(6) 0.3957(2)
O9 O -0.1210(4) 0.1778(6) 0.4674(2)
O10 O 0.5819(5) -0.1650(5) 0.1075(2)
O11 O 0.8039(4) 0.2874(6) 0.1339(2)
O12 O 0.4095(4) 0.2010(6) 0.1572(2)
O13 O 0.5152(4) -0.2929(6) -0.0187(2)
O14 O 0.6898(4) 0.0420(6) 0.2367(2)
O15 O 0.8558(4) 0.0157(6) 0.0497(2)
O16 O 0.4148(5) -0.4428(6) 0.0892(2)
O17 O 1.0523(4) 0.4052(5) 0.1088(2)
O18 O 1.1102(4) 0.1378(6) 0.0266(2)
O19 O 0.2629(5) -0.1769(6) 0.0431(2)
H1 H 0.2736(5) -0.0826(6) 0.0248(2)
O20 O 0.7514(5) 0.4952(6) 0.4561(2)
H2 H 0.7496(5) 0.4004(6) 0.4751(2)
C1 C 0.9405(6) 0.2905(8) 0.1031(3)
C2 C 0.9718(6) 0.1318(8) 0.0554(3)
C3 C 0.0232(6) 0.1769(7) 0.4416(3)
C4 C 0.0527(7) 0.0147(8) 0.3960(3)
C5 C 0.4134(6) 0.1980(8) 0.2274(3)
C6 C 0.5778(5) 0.1019(8) 0.2721(3)
C7 C 0.8515(6) 0.6462(6) 0.2606(2)
H3 H 0.8288(6) 0.7552(6) 0.2838(2)
C8 C 1.0569(7) 0.7920(7) 0.1871(3)
H4 H 1.0355(7) 0.9025(7) 0.2081(3)
H5 H 1.0819(7) 0.8100(7) 0.1373(3)
C9 C 1.2162(7) 0.7041(7) 0.2343(3)
H6 H 1.2444(7) 0.5995(7) 0.2102(3)
H7 H 1.3194(7) 0.7787(7) 0.2386(3)
C10 C 1.0105(7) 0.5609(7) 0.3060(3)
H8 H 0.9865(7) 0.5437(7) 0.3559(3)
H9 H 1.0281(7) 0.4494(7) 0.2850(3)
C11 C 0.6881(7) 0.5366(7) 0.2552(3)
H10 H 0.5895(7) 0.5942(7) 0.2260(3)
H11 H 0.6610(7) 0.5158(7) 0.3039(3)
H12 H 0.7091(7) 0.4297(7) 0.2323(3)
N1 N 0.8964(5) 0.6809(5) 0.1850(2)
H13 H 0.9159(5) 0.5808(5) 0.1633(2)
H14 H 0.8026(5) 0.731(85) 0.1572(2)
N2 N 1.1774(5) 0.6635(6) 0.3088(2)
H15 H 1.1664(5) 0.7616(6) 0.3335(2)
H16 H 1.2694(5) 0.6045(6) 0.3339(2)
O4A O 0.5035(4) 0.0899(6) 0.4793(2)
O7* O 0.5762(4) -0.2537(6) 0.4109(2)
O8* O 0.9421(5) -0.1040(6) 0.3957(2)
O9* O 0.8790(4) 0.1778(6) 0.4674(2)
O13A O 0.4848(4) 0.2071(6) 0.0187(2)
O16* O 0.4148(5) 0.5572(6) 0.0892(2)
O17* O 0.0523(4) 0.4052(5) 0.1088(2)
O18* O 0.1102(4) 0.1378(6) 0.0266(2)
Fe1A Fe 0.63525(9) 0.71560(9) 0.61641(4)
Fe2A Fe 0.2877(1) 0.45835(9) 0.56003(5)
Fe2* Fe 0.7123(1) 0.95835(9) 0.43997(5)
Fe2** Fe -0.2877(1) -0.04165(9) 0.43997(5)
Fe3A Fe 0.37174(9) -0.41265(9) -0.11549(4)
Fe4A Fe 0.7208(1) -0.15060(9) -0.05819(5)
Fe4* Fe 0.2792(1) -0.65060(9) 0.05819(5)
Fe4** Fe 1.2792(1) 0.34940(9) 0.05819(5)
#END
