
#######################################################################
#
#                 Cambridge Crystallographic Data Centre
#                                CCDC
#
#######################################################################
#
# If this CIF has been generated from an entry in the Cambridge
# Structural Database, then it will include bibliographic, chemical,
# crystal, experimental, refinement or atomic coordinate data resulting
# from the CCDC's data processing and validation procedures.
#
#######################################################################

data_CSD_CIF_VAJFOE
_audit_creation_date 2016-03-08
_audit_creation_method CSD-ConQuest-V1
_database_code_CSD VAJFOE
_database_code_depnum_ccdc_archive 'CCDC 1443253'
_chemical_formula_sum 'C60 H54 Cl2 Cu4 N12 O35 W10'
_chemical_formula_moiety
;
(C30 H24 Cl1 Cu2 N6 2+)2n,O32 W10 4-,3(H2 O1)
;
_journal_coden_Cambridge 182
_journal_volume 52
_journal_year 2016
_journal_page_first 4714
_journal_name_full 'Chem.Commun. '
loop_
_publ_author_name
"Dongying Shi"
"Cheng He"
"Wenlong Sun"
"Zheng Ming"
"Changgong Meng"
"Chunying Duan"
_chemical_name_systematic
;
catena-(bis((\m-chloro)-tris(\m-4,4'-bipyridine)-di-copper) 
docosakis(\m-oxo)-decaoxo-deca-tungsten trihydrate)
;
_cell_volume   4494.000
_exptl_crystal_colour 'dark green'
_exptl_crystal_density_diffrn 2.71
_exptl_crystal_description 'block'
_diffrn_ambient_temperature 200
_refine_special_details
;
O1W disordered by symmetry over two configurations with occupancy 0.50.

;
#These two values have been output from a single CSD field.
_refine_ls_R_factor_gt 0.0392
_refine_ls_wR_factor_gt 0.0392
_symmetry_cell_setting monoclinic
_symmetry_space_group_name_H-M 'C 2/m'
_symmetry_Int_Tables_number 12
loop_
_symmetry_equiv_pos_site_id
_symmetry_equiv_pos_as_xyz
1 x,y,z
2 -x,y,-z
3 1/2+x,1/2+y,z
4 1/2-x,1/2+y,-z
5 -x,-y,-z
6 x,-y,z
7 -1/2-x,-1/2-y,-z
8 -1/2+x,-1/2-y,z
_cell_length_a 20.0634(15)
_cell_length_b 17.3159(12)
_cell_length_c 15.642(2)
_cell_angle_alpha 90
_cell_angle_beta 124.211(1)
_cell_angle_gamma 90
_cell_formula_units_Z 2
loop_
_atom_type_symbol
_atom_type_radius_bond
C 0.68
H 0.23
Cl 0.99
Cu 1.32
N 0.68
O 0.68
W 1.62
loop_
_atom_site_label
_atom_site_type_symbol
_atom_site_fract_x
_atom_site_fract_y
_atom_site_fract_z
W1 W 0.65236(3) 0.50000 0.50895(4)
W2 W 0.74094(4) 0.50000 0.76044(5)
W3 W 0.60809(2) 0.63364(2) 0.61634(3)
W4 W 0.56357(4) 0.50000 0.72392(4)
O1 O 0.50000 0.6279(5) 0.50000
O2 O 0.4580(5) 0.50000 0.6042(7)
O3 O 0.6097(5) 0.50000 0.6199(7)
O4 O 0.8388(6) 0.50000 0.8658(9)
O5 O 0.6428(4) 0.6077(4) 0.5281(5)
O6 O 0.6800(6) 0.50000 0.8194(7)
O7 O 0.5711(4) 0.6078(4) 0.7019(5)
O8 O 0.6193(4) 0.7320(4) 0.6293(6)
O9 O 0.7148(4) 0.6081(4) 0.7316(5)
O10 O 0.7507(6) 0.50000 0.6461(8)
O11 O 0.5428(7) 0.50000 0.8167(8)
O12 O 0.6977(6) 0.50000 0.4440(8)
Cu1 Cu 0.27654(11) 0.50000 0.80102(14)
Cu2 Cu 0.47161(11) 1.00000 0.55227(14)
C1 C 0.2607(10) 0.6312(12) 0.6753(18)
H1 H 0.20540 0.62420 0.64900
C2 C 0.2819(11) 0.6918(12) 0.6374(18)
H2 H 0.24120 0.72320 0.58330
C3 C 0.3609(7) 0.7068(7) 0.6773(10)
C4 C 0.4141(8) 0.6547(7) 0.7452(11)
H3 H 0.46980 0.65880 0.77190
C5 C 0.3858(8) 0.5954(7) 0.7748(12)
H4 H 0.42450 0.55920 0.82260
C6 C 0.3720(12) 0.9021(3) 0.5871(18)
H5 H 0.33980 0.94740 0.56430
C7 C 0.3460(11) 0.8411(11) 0.617(2)
H6 H 0.29860 0.84590 0.61630
C8 C 0.3877(8) 0.7739(8) 0.6467(12)
C9 C 0.4498(7) 0.7724(6) 0.6357(9)
H7 H 0.47880 0.72570 0.64800
C10 C 0.4717(7) 0.8380(6) 0.6067(10)
H8 H 0.51610 0.83460 0.60070
C11 C 0.3129(14) 0.5983(10) 0.9729(14)
H9 H 0.35560 0.56260 1.01190
C12 C 0.3106(17) 0.6645(13) 1.0243(16)
H10 H 0.35200 0.67280 1.09520
C13 C 0.2517(9) 0.7144(6) 0.9745(9)
C14 C 0.1949(12) 0.6983(12) 0.8764(15)
H11 H 0.14890 0.73060 0.83730
C15 C 0.2041(11) 0.6328(11) 0.8317(15)
H12 H 0.16460 0.62360 0.76040
N1 N 0.3123(6) 0.5840(4) 0.7442(7)
N2 N 0.4356(6) 0.9035(6) 0.5875(9)
N3 N 0.2623(7) 0.5841(5) 0.8801(7)
Cl1 Cl 0.6226(8) 1.00000 0.6476(9)
O13 O 0.8834(18) 0.6927(17) 0.909(3)
O14? O 0.459(3) 0.50000 1.003(3)
W1A W 0.34764(3) 0.50000 0.49105(4)
W2A W 0.25906(4) 0.50000 0.23956(5)
W3A W 0.39191(2) 0.63364(2) 0.38366(3)
W4A W 0.43643(4) 0.50000 0.27608(4)
O2A O 0.5420(5) 0.50000 0.3958(7)
O3A O 0.3903(5) 0.50000 0.3801(7)
O4A O 0.1612(6) 0.50000 0.1342(9)
O5A O 0.3572(4) 0.6077(4) 0.4719(5)
O6A O 0.3200(6) 0.50000 0.1806(7)
O7A O 0.4289(4) 0.6078(4) 0.2981(5)
O8A O 0.3807(4) 0.7320(4) 0.3707(6)
O9A O 0.2852(4) 0.6081(4) 0.2684(5)
O10A O 0.2493(6) 0.50000 0.3539(8)
O11A O 0.4572(7) 0.50000 0.1833(8)
O12A O 0.3023(6) 0.50000 0.5560(8)
W3D W 0.39191(2) 0.36636(2) 0.38366(3)
O1D O 0.50000 0.3721(5) 0.50000
O5D O 0.3572(4) 0.3923(4) 0.4719(5)
O7D O 0.4289(4) 0.3922(4) 0.2981(5)
O8D O 0.3807(4) 0.2680(4) 0.3707(6)
O9D O 0.2852(4) 0.3919(4) 0.2684(5)
W3E W 0.60809(2) 0.36636(2) 0.61634(3)
O5E O 0.6428(4) 0.3923(4) 0.5281(5)
O7E O 0.5711(4) 0.3922(4) 0.7019(5)
O8E O 0.6193(4) 0.2680(4) 0.6293(6)
O9E O 0.7148(4) 0.3919(4) 0.7316(5)
C11F C 0.1871(14) 0.9017(10) 1.0271(14)
H9F H 0.14440 0.93740 0.98810
C12F C 0.1894(17) 0.8355(13) 0.9757(16)
H10F H 0.14800 0.82720 0.90480
C13F C 0.2483(9) 0.7856(6) 1.0255(9)
C14F C 0.3051(12) 0.8017(12) 1.1236(15)
H11F H 0.35110 0.76940 1.16270
C15F C 0.2959(11) 0.8672(11) 1.1683(15)
H12F H 0.33540 0.87640 1.23960
N3F N 0.2377(7) 0.9159(5) 1.1199(7)
C1E C 0.2607(10) 0.3688(12) 0.6753(18)
H1E H 0.20540 0.37580 0.64900
C2E C 0.2819(11) 0.3082(12) 0.6374(18)
H2E H 0.24120 0.27680 0.58330
C3E C 0.3609(7) 0.2932(7) 0.6773(10)
C4E C 0.4141(8) 0.3453(7) 0.7452(11)
H3E H 0.46980 0.34120 0.77190
C5E C 0.3858(8) 0.4046(7) 0.7748(12)
H4E H 0.42450 0.44080 0.82260
C6E C 0.3720(12) 0.0979(3) 0.5871(18)
H5E H 0.33980 0.05260 0.56430
C7E C 0.3460(11) 0.1589(11) 0.617(2)
H6E H 0.29860 0.15410 0.61630
C8E C 0.3877(8) 0.2261(8) 0.6467(12)
C9E C 0.4498(7) 0.2276(6) 0.6357(9)
H7E H 0.47880 0.27430 0.64800
C10E C 0.4717(7) 0.1620(6) 0.6067(10)
H8E H 0.51610 0.16540 0.60070
N1E N 0.3123(6) 0.4160(4) 0.7442(7)
N2E N 0.4356(6) 0.0965(6) 0.5875(9)
Cu1B Cu 0.77654(11) 1.00000 0.80102(14)
Cu1C Cu 0.22346(11) 1.00000 1.19898(14)
Cu2* Cu 0.47161(11) 0.00000 0.55227(14)
Cu2A Cu 0.52839(11) 1.00000 0.44773(14)
N2E* N 0.4356(6) 1.0965(6) 0.5875(9)
N3E N 0.2623(7) 0.4159(5) 0.8801(7)
Cl1A Cl 0.3774(8) 1.00000 0.3524(9)
Cl1B Cl 0.1226(8) 0.50000 0.6476(9)
#END
