
#######################################################################
#
#                 Cambridge Crystallographic Data Centre
#                                CCDC
#
#######################################################################
#
# If this CIF has been generated from an entry in the Cambridge
# Structural Database, then it will include bibliographic, chemical,
# crystal, experimental, refinement or atomic coordinate data resulting
# from the CCDC's data processing and validation procedures.
#
#######################################################################

data_CSD_CIF_VAJPOM
_audit_creation_date 2003-09-16
_audit_creation_method CSD-ConQuest-V1
_database_code_CSD VAJPOM
_database_code_depnum_ccdc_archive 'CCDC 201473'
_chemical_formula_sum 'C52 H76 Cu4 N8 O30'
_chemical_formula_moiety
;
(C28 H30 Cu2 N4 O6 2+)n,n(C24 H22 Cu2 N4 O12 2-),12n(H2 O1)
;
_journal_coden_Cambridge 1295
_journal_volume 6
_journal_year 2003
_journal_page_first 725
_journal_name_full 'Inorg.Chem.Commun. '
loop_
_publ_author_name
"Baolong Li"
"Baozong Li"
"Jianping Lang"
"Yong Zhang"
_chemical_name_systematic
;
catena-(bis(\m~2~-acetato)-bis(\m~2~-trans-1,2-bis(4-pyridyl)ethylene)-diaqua-
di-copper 
(\m~2~-trans-1,2-bis(4-pyridyl)ethylene)-bis(nitrilotriacetato)-di-copper 
dodecahydrate)
;
_cell_volume   1637.443
_exptl_crystal_colour 'blue'
_exptl_crystal_density_diffrn 1.569
_exptl_crystal_description 'platelet'
_diffrn_ambient_temperature 193.15
_refine_special_details
;
C atoms of a nitrilotriacetato ligand are disordered over two positions with 
occupancies 0.67:0.33.
;
#These two values have been output from a single CSD field.
_refine_ls_R_factor_gt 0.0639
_refine_ls_wR_factor_gt 0.0639
_symmetry_cell_setting triclinic
_symmetry_space_group_name_H-M 'P -1'
_symmetry_Int_Tables_number 2
loop_
_symmetry_equiv_pos_site_id
_symmetry_equiv_pos_as_xyz
1 x,y,z
2 -x,-y,-z
_cell_length_a 10.165(7)
_cell_length_b 12.207(8)
_cell_length_c 14.543(9)
_cell_angle_alpha 90.464(4)
_cell_angle_beta 107.493(8)
_cell_angle_gamma 106.930(7)
_cell_formula_units_Z 1
loop_
_atom_type_symbol
_atom_type_radius_bond
C 0.68
H 0.23
Cu 1.47
N 0.68
O 0.68
loop_
_atom_site_label
_atom_site_type_symbol
_atom_site_fract_x
_atom_site_fract_y
_atom_site_fract_z
Cu1 Cu 0.42897(5) 0.57828(4) 0.05885(3)
Cu2 Cu 0.74067(6) 0.93518(4) 0.36650(4)
O1 O 0.4615(4) 0.6206(3) 0.1952(2)
O2 O 0.4089(3) 0.5349(2) -0.0766(2)
O3 O 0.2511(3) 0.6327(3) -0.1133(2)
O4 O 0.7211(4) 0.9860(3) 0.4955(2)
O5 O 0.6571(4) 1.1185(3) 0.5614(2)
O6 O 0.9148(4) 1.0233(3) 0.3312(3)
O7 O 1.0227(4) 1.1948(3) 0.2966(3)
O8 O 0.5517(3) 0.8430(3) 0.2624(2)
O9 O 0.3704(4) 0.8677(3) 0.1423(2)
O10 O 0.2588(4) 0.1195(3) 0.3271(3)
O11 O 0.0298(4) 0.4081(3) 0.2487(3)
O12 O 0.3177(4) 0.5095(3) 0.3062(2)
O13 O 0.3701(4) 0.6640(3) 0.4573(3)
O14 O 0.4512(4) 0.3366(3) 0.3587(3)
O15 O 0.1501(6) 0.8055(6) 0.2464(4)
N1 N 0.5837(4) 0.7279(3) 0.0629(2)
N2 N 1.2615(4) 1.4383(3) 0.0575(2)
N3 N 0.8092(4) 0.8044(3) 0.4089(3)
N4 N 0.6692(4) 1.0690(3) 0.3217(2)
C1 C 0.5578(4) 0.8149(3) 0.0123(3)
H1 H 0.46400 0.80560 -0.02790
C2 C 0.6639(5) 0.9175(4) 0.0170(3)
H2 H 0.64100 0.97580 -0.01900
C3 C 0.8060(5) 0.9332(4) 0.0765(3)
C4 C 0.8323(5) 0.8424(4) 0.1287(3)
H3 H 0.92530 0.84890 0.16890
C5 C 0.7202(5) 0.7430(4) 0.1206(3)
H4 H 0.73970 0.68360 0.15660
C6 C 1.1246(5) 1.4230(4) -0.0010(3)
H5 H 1.10590 1.48070 -0.03950
C7 C 1.0130(5) 1.3264(4) -0.0058(3)
H6 H 0.92050 1.31950 -0.04710
C8 C 1.0358(5) 1.2379(4) 0.0504(3)
C9 C 1.1780(5) 1.2536(4) 0.1115(3)
H7 H 1.19960 1.19710 0.15050
C10 C 1.2848(5) 1.3543(4) 0.1124(3)
H8 H 1.37820 1.36430 0.15350
C11 C 0.9254(5) 1.0400(4) 0.0865(3)
H9 H 1.01630 1.04240 0.12770
C12 C 0.9150(5) 1.1336(4) 0.0420(3)
H10 H 0.82370 1.13250 0.00240
C13 C 0.3173(4) 0.5740(3) -0.1386(3)
C14 C 0.2946(5) 0.5450(4) -0.2440(3)
H11 H 0.22460 0.57810 -0.28300
H12 H 0.26000 0.46290 -0.25920
H13 H 0.38480 0.57540 -0.25710
C15 C 0.9287(5) 0.7901(4) 0.3956(3)
H14 H 0.98200 0.84540 0.36610
C16 C 0.9750(5) 0.6968(4) 0.4238(3)
H15 H 1.05670 0.68880 0.41170
C17 C 0.8992(5) 0.6141(4) 0.4706(3)
C18 C 0.7763(6) 0.6291(4) 0.4836(4)
H16 H 0.72200 0.57540 0.51370
C19 C 0.7335(6) 0.7235(4) 0.4520(4)
H17 H 0.64970 0.73150 0.46080
C20 C 0.9435(5) 0.5134(4) 0.5053(3)
H18 H 0.88780 0.46430 0.53750
C21 C 0.6702(5) 1.0685(4) 0.4920(3)
C22 C 0.5941(8) 1.0919(7) 0.3883(5)
C23 C 0.9193(5) 1.1228(4) 0.3128(3)
C24 C 0.8028(7) 1.1687(5) 0.3263(5)
C25 C 0.4838(5) 0.9039(4) 0.2095(3)
C26 C 0.5743(8) 1.0381(6) 0.2213(4)
C27? C 0.677(3) 1.1416(15) 0.4054(13)
C28? C 0.7512(18) 1.1204(16) 0.2603(14)
C29? C 0.507(2) 1.0160(15) 0.2639(17)
C20A C 1.0565(5) 0.4866(4) 0.4947(3)
C17A C 1.1008(5) 0.3859(4) 0.5294(3)
C16A C 1.0250(5) 0.3032(4) 0.5762(3)
C15A C 1.0713(5) 0.2099(4) 0.6044(3)
N3A N 1.1908(4) 0.1956(3) 0.5911(3)
C19A C 1.2665(6) 0.2765(4) 0.5480(4)
C18A C 1.2237(6) 0.3709(4) 0.5164(4)
H16A H 1.27800 0.42460 0.48630
H17A H 1.35030 0.26850 0.53920
H14A H 1.01800 0.15460 0.63390
H15A H 0.94330 0.31120 0.58830
H18A H 1.11220 0.53570 0.46250
O2A O 0.5911(3) 0.4651(2) 0.0766(2)
O3A O 0.7489(3) 0.3673(3) 0.1133(2)
C13A C 0.6827(4) 0.4260(3) 0.1386(3)
C14A C 0.7054(5) 0.4550(4) 0.2440(3)
H11A H 0.77540 0.42190 0.28300
H12A H 0.74000 0.53710 0.25920
H13A H 0.61520 0.42460 0.25710
N1* N -0.4163(4) -0.2721(3) 0.0629(2)
N2* N 0.2615(4) 0.4383(3) 0.0575(2)
C1* C -0.4422(4) -0.1851(3) 0.0123(3)
H1* H -0.53600 -0.19440 -0.02790
C2* C -0.3361(5) -0.0825(4) 0.0170(3)
H2* H -0.35900 -0.02420 -0.01900
C3* C -0.1940(5) -0.0668(4) 0.0765(3)
C4* C -0.1677(5) -0.1576(4) 0.1287(3)
H3* H -0.07470 -0.15110 0.16890
C5* C -0.2798(5) -0.2570(4) 0.1206(3)
H4* H -0.26030 -0.31640 0.15660
C6* C 0.1246(5) 0.4230(4) -0.0010(3)
H5* H 0.10590 0.48070 -0.03950
C7* C 0.0130(5) 0.3264(4) -0.0058(3)
H6* H -0.07950 0.31950 -0.04710
C8* C 0.0358(5) 0.2379(4) 0.0504(3)
C9* C 0.1780(5) 0.2536(4) 0.1115(3)
H7* H 0.19960 0.19710 0.15050
C10* C 0.2848(5) 0.3543(4) 0.1124(3)
H8* H 0.37820 0.36430 0.15350
C11* C -0.0746(5) 0.0400(4) 0.0865(3)
H9* H 0.01630 0.04240 0.12770
C12* C -0.0850(5) 0.1336(4) 0.0420(3)
H10* H -0.17630 0.13250 0.00240
Cu1A Cu 0.57103(5) 0.42172(4) -0.05885(3)
O1A O 0.5385(4) 0.3794(3) -0.1952(2)
Cu2A Cu 1.25933(6) 0.06482(4) 0.63350(4)
O4A O 1.2789(4) 0.0140(3) 0.5045(2)
O5A O 1.3429(4) -0.1185(3) 0.4386(2)
O6A O 1.0852(4) -0.0233(3) 0.6688(3)
O7A O 0.9773(4) -0.1948(3) 0.7034(3)
O8A O 1.4483(3) 0.1570(3) 0.7376(2)
O9A O 1.6296(4) 0.1323(3) 0.8577(2)
N4A N 1.3308(4) -0.0690(3) 0.6783(2)
C21A C 1.3298(5) -0.0685(4) 0.5080(3)
C22A C 1.4059(8) -0.0919(7) 0.6117(5)
C23A C 1.0807(5) -0.1228(4) 0.6872(3)
C24A C 1.1972(7) -0.1687(5) 0.6737(5)
C25A C 1.5162(5) 0.0961(4) 0.7905(3)
C26A C 1.4257(8) -0.0381(6) 0.7787(4)
Cu1* Cu 1.42897(5) 1.57828(4) 0.05885(3)
Cu1** Cu -0.57103(5) -0.42172(4) 0.05885(3)
N1A N 0.4163(4) 0.2721(3) -0.0629(2)
N2A N 0.7385(4) 0.5617(3) -0.0575(2)
#END
