
#######################################################################
#
#                 Cambridge Crystallographic Data Centre
#                                CCDC
#
#######################################################################
#
# If this CIF has been generated from an entry in the Cambridge
# Structural Database, then it will include bibliographic, chemical,
# crystal, experimental, refinement or atomic coordinate data resulting
# from the CCDC's data processing and validation procedures.
#
#######################################################################

data_CSD_CIF_VAKCOA
_audit_creation_date 2003-09-16
_audit_creation_method CSD-ConQuest-V1
_database_code_CSD VAKCOA
_database_code_depnum_ccdc_archive 'CCDC 198181'
_chemical_formula_sum 'C52 H58 Co2 Mo5 N8 O30 P2'
_chemical_formula_moiety
;
(C24 H20 Co1 N4 O2 2+)n,n(C28 H26 Co1 Mo5 N4 O22 P2 2-),6n(H2 O1)
;
_journal_coden_Cambridge 1290
_journal_year 2003
_journal_page_first 1798
_journal_name_full 'Eur.J.Inorg.Chem. '
loop_
_publ_author_name
"Rui-Biao Fu"
"Xin-Tao Wu"
"Sheng-Min Hu"
"Jian-Jun Zhang"
"Zhi-Yong Fu"
"Wen-Xin Du"
"Sheng-Qing Xia"
_chemical_name_systematic
;
catena-(Diaqua-bis(1,10-phenanthroline)-cobalt(ii) 
(\m~10~-1,4-butylenediphosphonato)-hexakis(\m~2~-oxo)-nonaoxo-aqua-bis(1,10-ph
enanthroline)-cobalt-penta-molybdenum hexahydrate)
;
_cell_volume  13388.313
_exptl_crystal_colour 'red'
_exptl_crystal_density_diffrn 1.92
_exptl_crystal_description 'block'
_diffrn_ambient_temperature 293
#These two values have been output from a single CSD field.
_refine_ls_R_factor_gt 0.0482
_refine_ls_wR_factor_gt 0.0482
_symmetry_cell_setting orthorhombic
_symmetry_space_group_name_H-M 'P b c a'
_symmetry_Int_Tables_number 61
loop_
_symmetry_equiv_pos_site_id
_symmetry_equiv_pos_as_xyz
1 x,y,z
2 1/2+x,y,1/2-z
3 x,1/2-y,1/2+z
4 1/2-x,1/2+y,z
5 -x,-y,-z
6 -1/2-x,-y,-1/2+z
7 -x,-1/2+y,-1/2-z
8 -1/2+x,-1/2-y,-z
_cell_length_a 24.7212(4)
_cell_length_b 19.8632(1)
_cell_length_c 27.2651(2)
_cell_angle_alpha 90
_cell_angle_beta 90
_cell_angle_gamma 90
_cell_formula_units_Z 8
loop_
_atom_type_symbol
_atom_type_radius_bond
C 0.68
H 0.23
Co 1.33
Mo 1.41
N 0.68
O 0.68
P 1.05
loop_
_atom_site_label
_atom_site_type_symbol
_atom_site_fract_x
_atom_site_fract_y
_atom_site_fract_z
Mo1 Mo 0.12567(2) 0.03646(3) 0.15581(2)
Mo2 Mo 0.18603(3) -0.00068(3) 0.26521(2)
Mo3 Mo 0.32275(3) -0.01173(3) 0.24713(2)
Mo4 Mo 0.35159(2) 0.04223(3) 0.13117(2)
Mo5 Mo 0.21975(2) 0.03929(3) 0.06730(2)
Co1 Co 0.03930(4) -0.11705(5) 0.15421(3)
Co2 Co 0.31922(4) -0.15576(5) -0.02620(4)
P1 P 0.24513(7) 0.11300(8) 0.18595(6)
P2 P 0.25995(7) 0.42645(8) 0.15772(6)
N1 N 0.0639(2) -0.1190(3) 0.0791(2)
N2 N -0.0335(2) -0.0882(3) 0.1170(2)
N3 N 0.0066(2) -0.1071(3) 0.2251(2)
N4 N 0.0078(2) -0.2157(3) 0.1656(2)
N5 N 0.3884(2) -0.2034(3) 0.0061(2)
N6 N 0.3849(3) -0.0946(3) -0.0532(2)
N7 N 0.2593(2) -0.2262(3) -0.0015(2)
N8 N 0.3127(3) -0.2215(3) -0.0878(2)
O1 O 0.20765(17) 0.0788(2) 0.14746(15)
O2 O 0.29995(18) 0.1264(2) 0.16258(17)
O3 O 0.25068(19) 0.0692(2) 0.23209(16)
O4 O 0.20977(18) 0.4665(2) 0.17409(16)
O5 O 0.31172(17) 0.4516(2) 0.18387(16)
O6 O 0.26507(18) 0.4312(2) 0.10226(16)
O7 O 0.07435(19) -0.0231(2) 0.16006(17)
O8 O 0.14987(18) 0.0121(2) 0.09204(16)
O9 O 0.09216(19) 0.1091(2) 0.14301(18)
O10 O 0.13958(18) 0.0526(2) 0.22404(16)
O11 O 0.2538(2) -0.0477(2) 0.26909(18)
O12 O 0.1443(2) -0.0659(3) 0.2801(2)
O13 O 0.1860(2) 0.0481(3) 0.3166(2)
O14 O 0.36801(18) 0.0353(2) 0.19955(17)
O15 O 0.3585(2) -0.0840(2) 0.25476(19)
O16 O 0.3407(2) 0.0366(3) 0.29715(19)
O17 O 0.29379(17) 0.0463(2) 0.08412(16)
O18 O 0.3825(2) -0.0289(3) 0.10770(18)
O19 O 0.3940(2) 0.1043(3) 0.11265(19)
O20 O 0.22164(19) -0.0043(2) 0.01278(16)
O21 O 0.2041(2) 0.1187(2) 0.04833(18)
O22 O 0.1133(2) -0.1569(3) 0.1779(2)
O23 O 0.3174(2) -0.0996(3) 0.03970(18)
O24 O 0.2608(2) -0.0905(3) -0.0551(2)
O25 O 0.1108(10) -0.2193(9) -0.1210(7)
O26 O 0.2135(6) -0.1210(5) -0.1403(4)
O27 O 0.1288(3) -0.2837(3) 0.2123(3)
O28 O 0.1236(15) -0.1918(14) 0.3152(11)
O29 O 0.0613(4) -0.3839(5) 0.2547(4)
O30 O 0.0382(8) -0.3816(12) 0.3492(6)
C1 C 0.2154(3) 0.1926(3) 0.2015(3)
H1 H 0.18350 0.18510 0.22150
H2 H 0.24100 0.21870 0.22060
C2 C 0.1994(3) 0.2326(3) 0.1553(3)
H3 H 0.22560 0.22290 0.12970
H4 H 0.16450 0.21640 0.14400
C3 C 0.1959(3) 0.3093(3) 0.1618(3)
H5 H 0.181(2) 0.327(3) 0.133(2)
H6 H 0.167(3) 0.319(3) 0.187(2)
C4 C 0.2509(3) 0.3402(3) 0.1753(3)
H7 H 0.27910 0.31360 0.16000
H8 H 0.25560 0.33680 0.21050
C5 C 0.1128(3) -0.1292(4) 0.0612(3)
H9 H 0.14060 -0.13970 0.08290
C6 C 0.1248(4) -0.1248(5) 0.0112(3)
H10 H 0.160(3) -0.132(4) 0.001(3)
C7 C 0.0850(4) -0.1102(4) -0.0208(3)
H11 H 0.091(3) -0.105(3) -0.050(3)
C8 C 0.0321(3) -0.0981(4) -0.0037(3)
C9 C -0.0120(4) -0.0787(5) -0.0343(3)
H12 H -0.005(3) -0.075(4) -0.061(3)
C10 C -0.0613(4) -0.0657(4) -0.0155(3)
H13 H -0.08930 -0.05360 -0.03660
C11 C -0.0718(3) -0.0702(4) 0.0361(3)
C12 C -0.1217(3) -0.0559(5) 0.0581(3)
H14 H -0.153(3) -0.048(3) 0.040(3)
C13 C -0.1262(4) -0.0566(5) 0.1079(4)
H15 H -0.156(4) -0.048(4) 0.120(3)
C14 C -0.0808(3) -0.0736(4) 0.1359(3)
H16 H -0.082(3) -0.073(4) 0.166(3)
C15 C -0.0285(3) -0.0871(3) 0.0668(2)
C16 C 0.0238(3) -0.1029(3) 0.0474(3)
C17 C 0.0057(4) -0.0538(4) 0.2543(3)
H17 H 0.024(3) -0.020(3) 0.241(2)
C18 C -0.0184(4) -0.0541(5) 0.3004(3)
H18 H -0.020(3) -0.012(4) 0.318(3)
C19 C -0.0406(4) -0.1112(6) 0.3177(3)
H19 H -0.053(3) -0.113(4) 0.350(3)
C20 C -0.0401(3) -0.1700(5) 0.2893(3)
C21 C -0.0626(4) -0.2344(6) 0.3035(4)
H20 H -0.079(4) -0.234(5) 0.336(4)
C22 C -0.0617(4) -0.2871(6) 0.2740(5)
H21 H -0.077(4) -0.322(5) 0.284(4)
C23 C -0.0388(3) -0.2840(4) 0.2263(4)
C24 C -0.0359(4) -0.3382(5) 0.1929(4)
H22 H -0.049(4) -0.381(5) 0.202(3)
C25 C -0.0107(4) -0.3312(5) 0.1491(4)
H23 H -0.00750 -0.36750 0.12770
C26 C 0.0102(4) -0.2692(4) 0.1370(3)
H24 H 0.024(3) -0.264(4) 0.103(3)
C27 C -0.0156(3) -0.2235(4) 0.2103(3)
C28 C -0.0162(3) -0.1653(4) 0.2428(3)
C29 C 0.3891(4) -0.2549(4) 0.0365(3)
H25 H 0.351(3) -0.277(3) 0.038(2)
C30 C 0.4353(4) -0.2743(5) 0.0621(4)
H26 H 0.430(4) -0.309(5) 0.080(3)
C31 C 0.4818(5) -0.2395(5) 0.0554(4)
H27 H 0.510(3) -0.251(4) 0.064(3)
C32 C 0.4832(3) -0.1852(4) 0.0231(3)
C33 C 0.5313(4) -0.1463(6) 0.0129(4)
H28 H 0.560(4) -0.153(5) 0.030(4)
C34 C 0.5304(4) -0.0926(5) -0.0170(3)
H29 H 0.563(4) -0.073(5) -0.024(4)
C35 C 0.4816(3) -0.0731(4) -0.0410(3)
C36 C 0.4775(5) -0.0201(4) -0.0736(3)
H30 H 0.499(3) 0.008(4) -0.078(3)
C37 C 0.4294(5) -0.0040(4) -0.0951(3)
H31 H 0.429(3) 0.029(4) -0.114(3)
C38 C 0.3838(4) -0.0431(4) -0.0840(3)
H32 H 0.352(4) -0.033(5) -0.093(4)
C39 C 0.4335(3) -0.1099(4) -0.0323(3)
C40 C 0.4351(3) -0.1672(4) -0.0002(3)
C41 C 0.2327(3) -0.2284(4) 0.0406(3)
H33 H 0.245(3) -0.198(4) 0.061(3)
C42 C 0.1944(4) -0.2767(5) 0.0518(3)
H34 H 0.183(3) -0.273(3) 0.078(3)
C43 C 0.1818(3) -0.3249(4) 0.0184(3)
H35 H 0.161(4) -0.362(4) 0.025(3)
C44 C 0.2085(3) -0.3252(4) -0.0264(3)
C45 C 0.1998(4) -0.3736(5) -0.0642(4)
H36 H 0.176(3) -0.406(4) -0.056(3)
C46 C 0.2254(5) -0.3726(5) -0.1072(5)
H37 H 0.221(3) -0.406(4) -0.128(3)
C47 C 0.2643(4) -0.3207(4) -0.1175(3)
C48 C 0.2930(5) -0.3150(6) -0.1618(4)
H38 H 0.288(3) -0.336(4) -0.182(3)
C49 C 0.3298(4) -0.2653(5) -0.1683(3)
H39 H 0.34910 -0.26200 -0.19740
C50 C 0.3382(4) -0.2189(5) -0.1302(3)
H40 H 0.365(3) -0.183(4) -0.136(3)
C51 C 0.2756(3) -0.2722(4) -0.0810(3)
C52 C 0.2479(3) -0.2750(4) -0.0360(3)
O5C O 0.18828(17) -0.0484(2) 0.18387(16)
O4C O 0.29023(18) -0.0335(2) 0.17409(16)
O6C O 0.23493(18) -0.0688(2) 0.10226(16)
Mo3C Mo 0.17725(3) 0.48827(3) 0.24713(2)
Mo4C Mo 0.14841(2) 0.54223(3) 0.13117(2)
Mo1C Mo 0.37433(2) 0.53646(3) 0.15581(2)
Mo2C Mo 0.31397(3) 0.49932(3) 0.26521(2)
Mo5C Mo 0.28025(2) 0.53929(3) 0.06730(2)
#END
