
#######################################################################
#
#                 Cambridge Crystallographic Data Centre
#                                CCDC
#
#######################################################################
#
# If this CIF has been generated from an entry in the Cambridge
# Structural Database, then it will include bibliographic, chemical,
# crystal, experimental, refinement or atomic coordinate data resulting
# from the CCDC's data processing and validation procedures.
#
#######################################################################

data_CSD_CIF_VAKREG
_audit_creation_date 2011-03-15
_audit_creation_method CSD-ConQuest-V1
_database_code_CSD VAKREG
_database_code_depnum_ccdc_archive 'CCDC 766294'
_chemical_formula_sum 'C48 H60 Co3 N6 O20'
_chemical_formula_moiety
;
(C2 H8 N1 1+)2n,n(C32 H16 Co3 O16 2-),4n(C3 H7 N1 O1)
;
_journal_coden_Cambridge 1350
_journal_volume 12
_journal_year 2010
_journal_page_first 3834
_journal_name_full 'CrystEngComm '
loop_
_publ_author_name
"Xiao-Feng Wang"
"Yue-Biao Zhang"
"Wei Xue"
"Xiao-Lin Qi"
"Xiao-Ming Chen"
_chemical_name_systematic
;
catena-[bis(Dimethylammonium) 
(\m~4~-benzene-1,4-dicarboxylato-O,O,O',O',O'',O''')-bis(\m~4~-benzene-1,4-dic
arboxylato-O,O',O'',O''')-(\m~2~-benzene-1,4-dicarboxylato-O,O',O'',O''')-tri-
cobalt(ii) dimethylformamide solvate]
;
_cell_volume   5727.493
_exptl_crystal_colour 'purple'
_exptl_crystal_density_diffrn 1.412
_exptl_crystal_description 'hexagonal-plate'
_diffrn_ambient_temperature 293
_refine_special_details
;
A dimethylformamide solvent molecule and the single independent 
dimethylammonium cation are both disordered over two sites of equal 
occupancy.
;
#These two values have been output from a single CSD field.
_refine_ls_R_factor_gt 0.095
_refine_ls_wR_factor_gt 0.095
_symmetry_cell_setting monoclinic
_symmetry_space_group_name_H-M 'C 2/c'
_symmetry_Int_Tables_number 15
loop_
_symmetry_equiv_pos_site_id
_symmetry_equiv_pos_as_xyz
1 x,y,z
2 -x,y,1/2-z
3 1/2+x,1/2+y,z
4 1/2-x,1/2+y,1/2-z
5 -x,-y,-z
6 x,-y,-1/2+z
7 -1/2-x,-1/2-y,-z
8 -1/2+x,-1/2-y,-1/2+z
_cell_length_a 33.225(4)
_cell_length_b 9.851(1)
_cell_length_c 17.7341(19)
_cell_angle_alpha 90
_cell_angle_beta 99.335(2)
_cell_angle_gamma 90
_cell_formula_units_Z 4
loop_
_atom_type_symbol
_atom_type_radius_bond
C 0.68
H 0.23
Co 1.26
N 0.68
O 0.68
loop_
_atom_site_label
_atom_site_type_symbol
_atom_site_fract_x
_atom_site_fract_y
_atom_site_fract_z
Co1 Co 0.25000 -0.25000 1.00000
Co2 Co 0.14935(3) -0.17912(10) 0.96560(5)
O1 O 0.15820(15) -0.2926(6) 0.8775(3)
O2 O 0.22649(15) -0.2890(5) 0.8886(3)
O3 O 0.15000(15) -0.6878(6) 0.5519(3)
O4 O 0.21220(14) -0.6138(5) 0.5392(3)
O5 O 0.16910(17) 0.0182(6) 0.9115(3)
O6 O 0.20507(14) -0.0894(5) 1.0081(3)
O7 O 0.11152(16) -0.0403(6) 1.0328(3)
O8 O 0.08743(17) -0.1588(7) 0.9317(3)
C1 C 0.1888(2) -0.3967(8) 0.7817(4)
C2 C 0.2231(2) -0.4127(8) 0.7474(4)
H1 H 0.24800 -0.37720 0.77040
C3 C 0.2201(2) -0.4817(8) 0.6789(4)
H2 H 0.24300 -0.49010 0.65550
C4 C 0.1839(2) -0.5380(7) 0.6449(4)
C5 C 0.1496(2) -0.5225(9) 0.6795(4)
H3 H 0.12480 -0.55940 0.65680
C6 C 0.1522(2) -0.4525(9) 0.7473(4)
H4 H 0.12910 -0.44260 0.77010
C7 C 0.1916(2) -0.3206(7) 0.8551(4)
C8 C 0.1817(2) -0.6193(7) 0.5728(4)
C9 C 0.2205(2) 0.2504(8) 0.9351(4)
H5 H 0.20080 0.25010 0.89130
C10 C 0.2255(2) 0.1364(7) 0.9822(4)
C11 C 0.2556(2) 0.1369(8) 1.0472(4)
H6 H 0.25940 0.06070 1.07850
C12 C 0.1987(2) 0.0166(7) 0.9642(4)
C13 C 0.0333(3) 0.0632(12) 1.0439(6)
H7 H 0.05550 0.10570 1.07330
C14 C 0.0394(3) -0.0385(11) 0.9926(5)
C15 C 0.0067(3) -0.1014(12) 0.9488(6)
H8 H 0.01100 -0.16920 0.91450
C16 C 0.0820(2) -0.0799(10) 0.9855(5)
O9 O -0.0859(4) -0.1227(13) 0.7436(7)
N1 N -0.1358(4) -0.0122(15) 0.8134(8)
C17 C -0.1106(5) -0.1013(18) 0.7841(11)
H9 H -0.11480 -0.18460 0.80630
C18 C -0.1411(5) 0.1143(14) 0.7747(11)
H10 H -0.11500 0.14930 0.76780
H11 H -0.15410 0.17720 0.80440
H12 H -0.15780 0.10180 0.72570
C19 C -0.1761(5) -0.0807(18) 0.8192(11)
H13 H -0.17120 -0.17200 0.83710
H14 H -0.19300 -0.08200 0.76970
H15 H -0.18980 -0.03130 0.85430
N2 N 0.0407(13) -0.490(4) 0.6767(19)
H16 H 0.01830 -0.50570 0.69750
H17 H 0.06230 -0.52110 0.70930
C20 C 0.0438(16) -0.343(4) 0.675(3)
H18 H 0.04560 -0.30010 0.72360
H19 H 0.06810 -0.32440 0.65360
H20 H 0.02050 -0.30770 0.64090
C21 C 0.0383(15) -0.560(4) 0.601(2)
H21 H 0.03540 -0.65480 0.61080
H22 H 0.01500 -0.52870 0.56620
H23 H 0.06250 -0.54540 0.57890
N3 N 0.0973(7) -0.348(4) 0.425(2)
O10 O 0.0729(13) -0.272(5) 0.311(3)
C22 C 0.0890(12) -0.242(5) 0.378(3)
H24 H 0.09470 -0.15290 0.39340
C23 C 0.0885(9) -0.486(4) 0.4019(16)
H25 H 0.07720 -0.48940 0.34860
H26 H 0.06720 -0.49780 0.43190
H27 H 0.10840 -0.55670 0.41370
C24 C 0.1155(9) -0.322(3) 0.5018(18)
H28 H 0.12670 -0.23240 0.50350
H29 H 0.13700 -0.38660 0.51750
H30 H 0.09580 -0.32770 0.53570
N4? N 0.0308(10) -0.846(4) 0.7635(19)
H31? H 0.05610 -0.88130 0.77000
H32? H 0.02760 -0.80440 0.80740
C25? C 0.00000 -0.957(3) 0.75000
H33? H 0.00380 -1.02020 0.79170
H34? H -0.02700 -0.91980 0.74420
H35? H 0.00370 -1.00270 0.70380
C26? C 0.0284(15) -0.745(4) 0.699(3)
H36? H 0.04850 -0.67520 0.71180
H37? H 0.03240 -0.78790 0.65210
H38? H 0.00170 -0.70490 0.69240
N5? N 0.0857(7) -0.425(3) 0.4742(16)
O11? O 0.0522(11) -0.416(4) 0.574(2)
C27? C 0.0552(10) -0.468(4) 0.5120(19)
H39? H 0.03690 -0.53410 0.49090
C28? C 0.0885(9) -0.486(4) 0.4019(16)
H40? H 0.07110 -0.56400 0.39440
H41? H 0.11620 -0.51280 0.40100
H42? H 0.08020 -0.42130 0.36190
C29? C 0.1155(9) -0.322(3) 0.5018(18)
H43? H 0.10790 -0.27880 0.54590
H44? H 0.11650 -0.25610 0.46250
H45? H 0.14180 -0.36370 0.51540
Co1C Co 0.25000 -0.75000 0.50000
Co1* Co 0.25000 0.75000 1.00000
Co1C* Co 0.25000 0.25000 0.50000
Co2C Co 0.35065(3) 0.32088(10) 0.53440(5)
Co2E Co 0.14935(3) -0.82088(10) 0.46560(5)
Co2F Co 0.35065(3) 0.67912(10) 1.03440(5)
Co2D Co -0.14935(3) 0.17912(10) 1.03440(5)
Co2F* Co 0.35065(3) -0.32088(10) 1.03440(5)
O1C O 0.34180(15) 0.2074(6) 0.6225(3)
O2C O 0.27351(15) 0.2110(5) 0.6114(3)
O2F O 0.27351(15) -0.2110(5) 1.1114(3)
O3C O 0.35000(15) -0.1878(6) 0.9481(3)
O3E O 0.15000(15) -0.3122(6) 1.0519(3)
O3F O 0.35000(15) 0.1878(6) 0.4481(3)
O4C O 0.28780(14) -0.1138(5) 0.9608(3)
O4E O 0.21220(14) -0.3862(5) 1.0392(3)
O5F O 0.33090(17) 0.4818(6) 1.0885(3)
O5C O 0.33090(17) 0.5182(6) 0.5885(3)
O6F O 0.29493(14) 0.5894(5) 0.9919(3)
O6F* O 0.29493(14) -0.4106(5) 0.9919(3)
O6C O 0.29493(14) 0.4106(5) 0.4919(3)
O7D O -0.11152(16) 0.0403(6) 0.9672(3)
O7C O 0.38848(16) 0.4597(6) 0.4672(3)
O8D O -0.08743(17) 0.1588(7) 1.0683(3)
O8C O 0.41257(17) 0.3412(7) 0.5683(3)
C1C C 0.3112(2) 0.1033(8) 0.7183(4)
C2C C 0.2769(2) 0.0873(8) 0.7526(4)
H1C H 0.25200 0.12280 0.72960
C3C C 0.2799(2) 0.0183(8) 0.8211(4)
H2C H 0.25700 0.00990 0.84450
C4C C 0.3161(2) -0.0380(7) 0.8551(4)
C5C C 0.3504(2) -0.0225(9) 0.8205(4)
H3C H 0.37520 -0.05940 0.84320
C6C C 0.3478(2) 0.0475(9) 0.7527(4)
H4C H 0.37090 0.05740 0.72990
C7C C 0.3084(2) 0.1794(7) 0.6449(4)
C8C C 0.3183(2) -0.1193(7) 0.9272(4)
C9F C 0.2795(2) 0.2496(8) 1.0649(4)
H5F H 0.29920 0.24990 1.10870
C10F C 0.2745(2) 0.3636(7) 1.0178(4)
C11F C 0.2444(2) 0.3631(8) 0.9528(4)
H6F H 0.24060 0.43930 0.92150
C12F C 0.3013(2) 0.4834(7) 1.0358(4)
C13D C -0.0333(3) -0.0632(12) 0.9561(6)
H7D H -0.05550 -0.10570 0.92670
C14D C -0.0394(3) 0.0385(11) 1.0074(5)
C15D C -0.0067(3) 0.1014(12) 1.0512(6)
H8D H -0.01100 0.16920 1.08550
C16D C -0.0820(2) 0.0799(10) 1.0145(5)
#END
