
#######################################################################
#
#                 Cambridge Crystallographic Data Centre
#                                CCDC
#
#######################################################################
#
# If this CIF has been generated from an entry in the Cambridge
# Structural Database, then it will include bibliographic, chemical,
# crystal, experimental, refinement or atomic coordinate data resulting
# from the CCDC's data processing and validation procedures.
#
#######################################################################

data_CSD_CIF_VAKZUF
_audit_creation_date 2016-03-09
_audit_creation_method CSD-ConQuest-V1
_database_code_CSD VAKZUF
_database_code_depnum_ccdc_archive 'CCDC 1430426'
_chemical_formula_sum 'C60 H64 Co1 N8 O26 P4 U3'
_chemical_formula_moiety
;
(C36 H36 O22 P4 U3 2-)n,n(C24 H24 Co1 N8 O2 2+),2n(H2 O1)
;
_journal_coden_Cambridge 1147
_journal_volume 16
_journal_year 2016
_journal_page_first 2011
_journal_name_full 'Cryst.Growth Des. '
loop_
_publ_author_name
"Weiting Yang"
"Dai Wu"
"Chao Liu"
"Qing-Jiang Pan"
"Zhong-Ming Sun"
_chemical_name_systematic
;
catena-[bis(\m-1-(4-(1H-imidazol-1-yl)phenyl)-1H-imidazole)-diaqua-cobalt 
tetrakis(\m-3-(phenylphosphinato)propanoato)-hexakis(oxo)-tri-uranium 
dihydrate]
;
_cell_volume   1839.930
_exptl_crystal_colour 'yellow'
_exptl_crystal_density_diffrn 1.987
_exptl_crystal_description 'rod'
_diffrn_ambient_temperature 293
#These two values have been output from a single CSD field.
_refine_ls_R_factor_gt 0.0468
_refine_ls_wR_factor_gt 0.0468
_symmetry_cell_setting triclinic
_symmetry_space_group_name_H-M 'P -1'
_symmetry_Int_Tables_number 2
loop_
_symmetry_equiv_pos_site_id
_symmetry_equiv_pos_as_xyz
1 x,y,z
2 -x,-y,-z
_cell_length_a 12.3153(12)
_cell_length_b 13.5938(13)
_cell_length_c 13.6720(13)
_cell_angle_alpha 61.332(2)
_cell_angle_beta 83.244(2)
_cell_angle_gamma 66.884(1)
_cell_formula_units_Z 1
loop_
_atom_type_symbol
_atom_type_radius_bond
C 0.68
H 0.23
Co 1.26
N 0.68
O 0.68
P 1.05
U 1.96
loop_
_atom_site_label
_atom_site_type_symbol
_atom_site_fract_x
_atom_site_fract_y
_atom_site_fract_z
U1 U 0.50000 0.50000 0.50000
U2 U 0.35947(3) 0.01582(3) 0.21931(3)
P1 P 0.5647(2) 0.2277(2) 0.48298(19)
P2 P 0.5923(2) 0.2617(2) -0.21227(18)
O1 O 0.6353(5) 0.5130(5) 0.4478(5)
O2 O 0.2150(5) 0.0552(5) 0.2635(5)
O3 O 0.5046(5) -0.0198(5) 0.1743(5)
O4 O 0.5277(5) 0.3633(5) 0.4389(5)
O5 O 0.5715(5) 0.1576(5) 0.6086(5)
O6 O 0.3630(5) 0.2156(5) 0.1766(5)
O7 O 0.4288(7) 0.0636(6) 0.3450(5)
O8 O 0.2730(5) 0.1396(5) 0.0388(5)
O9 O 0.2322(5) 0.2422(6) -0.1442(5)
O10 O 0.6574(5) 0.1307(5) -0.1876(4)
O11 O 0.5980(5) 0.3548(5) -0.3312(5)
C1 C 0.7055(8) 0.1745(8) 0.4312(8)
C2 C 0.7664(11) 0.2487(12) 0.3765(11)
H1 H 0.73390 0.32750 0.36680
C3 C 0.8736(13) 0.2113(16) 0.3355(14)
H2 H 0.91200 0.26440 0.29740
C4 C 0.9225(11) 0.0957(16) 0.3515(13)
H3 H 0.99580 0.06850 0.32570
C5 C 0.8636(13) 0.0183(12) 0.4062(12)
H4 H 0.89570 -0.05980 0.41420
C6 C 0.7566(11) 0.0572(9) 0.4491(10)
H5 H 0.71950 0.00340 0.49000
C7 C 0.4628(8) 0.1997(9) 0.4276(7)
H6 H 0.48330 0.11260 0.46490
H7 H 0.38450 0.23620 0.44750
H8 H 0.53180 0.23980 0.27370
H9 H 0.40080 0.33020 0.26340
C8 C 0.4543(9) 0.2453(9) 0.3008(8)
C9 C 0.4101(8) 0.1724(8) 0.2724(7)
C10 C 0.6573(8) 0.2839(9) -0.1174(8)
C11 C 0.6910(9) 0.1956(11) -0.0091(9)
H10 H 0.68190 0.12280 0.01540
C12 C 0.7386(11) 0.2136(12) 0.0646(10)
H11 H 0.75980 0.15300 0.13860
C13 C 0.7548(17) 0.3168(16) 0.0315(15)
H12 H 0.78270 0.32970 0.08300
C14 C 0.7295(18) 0.4038(14) -0.0800(16)
H13 H 0.74910 0.47120 -0.10620
C15 C 0.6735(15) 0.3890(12) -0.1538(12)
H14 H 0.64780 0.45080 -0.22690
C16 C 0.4407(8) 0.2893(8) -0.1883(8)
H15 H 0.40000 0.37340 -0.20450
H16 H 0.40570 0.27820 -0.24040
C17 C 0.4194(7) 0.2085(8) -0.0703(7)
H17 H 0.42460 0.24100 -0.02230
H18 H 0.48180 0.12820 -0.04310
C18 C 0.2994(8) 0.1967(7) -0.0609(7)
Co1 Co 1.00000 0.50000 0.50000
O12 O 0.8163(5) 0.5957(6) 0.4415(5)
C19 C 0.9831(8) 0.4860(8) 0.2819(7)
H19 H 0.92060 0.56140 0.24920
C20 C 1.1123(8) 0.3216(8) 0.4011(7)
H20 H 1.15710 0.26080 0.46830
C21 C 1.1213(8) 0.3144(9) 0.3059(8)
H21 H 1.17350 0.25030 0.29440
C22 C 0.9693(10) 0.5814(9) 0.0385(8)
H22 H 0.95090 0.63820 0.06380
C23 C 1.0159(8) 0.4608(8) 0.1131(7)
C24 C 1.0512(10) 0.3786(10) 0.0749(8)
H23 H 1.08880 0.29620 0.12400
C25 C 1.0045(8) 0.2675(8) 0.7249(7)
H24 H 1.05310 0.27720 0.76390
C26 C 0.9007(8) 0.2923(8) 0.5969(7)
H25 H 0.86310 0.32380 0.52720
C27 C 0.8947(8) 0.1954(8) 0.6894(7)
H26 H 0.85270 0.14910 0.69580
C28 C 0.9834(7) 0.0877(7) 0.8874(7)
C29 C 0.9417(8) -0.0055(8) 0.9241(7)
H27 H 0.90360 -0.01080 0.87310
C30 C 0.9570(8) -0.0884(8) 1.0349(7)
H28 H 0.92580 -0.14760 1.05840
N1 N 1.0285(6) 0.4300(6) 0.3858(6)
N2 N 1.0379(6) 0.4208(6) 0.2288(6)
N3 N 0.9703(6) 0.3392(6) 0.6189(5)
N4 N 0.9633(6) 0.1784(6) 0.7729(5)
O13 O 0.7202(7) 0.8437(7) 0.3182(7)
U2A U 0.64053(3) -0.01582(3) -0.21931(3)
P1A P 0.4353(2) -0.2277(2) -0.48298(19)
P2A P 0.4077(2) -0.2617(2) 0.21227(18)
O2A O 0.7850(5) -0.0552(5) -0.2635(5)
O3A O 0.4954(5) 0.0198(5) -0.1743(5)
O4A O 0.4723(5) -0.3633(5) -0.4389(5)
O5A O 0.4285(5) -0.1576(5) -0.6086(5)
O6A O 0.6370(5) -0.2156(5) -0.1766(5)
O7A O 0.5712(7) -0.0636(6) -0.3450(5)
O8A O 0.7270(5) -0.1396(5) -0.0388(5)
O9A O 0.7678(5) -0.2422(6) 0.1442(5)
O10A O 0.3426(5) -0.1307(5) 0.1876(4)
O11A O 0.4020(5) -0.3548(5) 0.3312(5)
C1A C 0.2945(8) -0.1745(8) -0.4312(8)
C2A C 0.2336(11) -0.2487(12) -0.3765(11)
H1A H 0.26610 -0.32750 -0.36680
C3A C 0.1264(13) -0.2113(16) -0.3355(14)
H2A H 0.08800 -0.26440 -0.29740
C4A C 0.0775(11) -0.0957(16) -0.3515(13)
H3A H 0.00420 -0.06850 -0.32570
C5A C 0.1364(13) -0.0183(12) -0.4062(12)
H4A H 0.10430 0.05980 -0.41420
C6A C 0.2434(11) -0.0572(9) -0.4491(10)
H5A H 0.28050 -0.00340 -0.49000
C7A C 0.5372(8) -0.1997(9) -0.4276(7)
H6A H 0.51670 -0.11260 -0.46490
H7A H 0.61550 -0.23620 -0.44750
H8A H 0.46820 -0.23980 -0.27370
H9A H 0.59920 -0.33020 -0.26340
C8A C 0.5457(9) -0.2453(9) -0.3008(8)
C9A C 0.5899(8) -0.1724(8) -0.2724(7)
C10A C 0.3427(8) -0.2839(9) 0.1174(8)
C11A C 0.3090(9) -0.1956(11) 0.0091(9)
H10A H 0.31810 -0.12280 -0.01540
C12A C 0.2614(11) -0.2136(12) -0.0646(10)
H11A H 0.24020 -0.15300 -0.13860
C13A C 0.2452(17) -0.3168(16) -0.0315(15)
H12A H 0.21730 -0.32970 -0.08300
C14A C 0.2705(18) -0.4038(14) 0.0800(16)
H13A H 0.25090 -0.47120 0.10620
C15A C 0.3265(15) -0.3890(12) 0.1538(12)
H14A H 0.35220 -0.45080 0.22690
C16A C 0.5593(8) -0.2893(8) 0.1883(8)
H15A H 0.60000 -0.37340 0.20450
H16A H 0.59430 -0.27820 0.24040
C17A C 0.5806(7) -0.2085(8) 0.0703(7)
H17A H 0.57540 -0.24100 0.02230
H18A H 0.51820 -0.12820 0.04310
C18A C 0.7006(8) -0.1967(7) 0.0609(7)
O1A O 0.3647(5) 0.4870(5) 0.5522(5)
U1* U 0.50000 -0.50000 -0.50000
U1** U 0.50000 -0.50000 0.50000
U1*** U 0.50000 0.50000 -0.50000
U2* U 0.35947(3) 0.01582(3) -0.78069(3)
U2A* U 0.64053(3) -0.01582(3) 0.78069(3)
O4A* O 0.4723(5) 0.6367(5) 0.5611(5)
O5* O 0.5715(5) 0.1576(5) -0.3914(5)
O5A* O 0.4285(5) -0.1576(5) 0.3914(5)
O11* O 0.5980(5) 0.3548(5) 0.6688(5)
O11A* O 0.4020(5) 0.6452(5) 0.3312(5)
C19A C 1.0169(8) 0.5140(8) -0.2819(7)
H19A H 1.07940 0.43860 -0.24920
C20A C 0.8877(8) 0.6784(8) -0.4011(7)
H20A H 0.84290 0.73920 -0.46830
C21A C 0.8787(8) 0.6856(9) -0.3059(8)
H21A H 0.82650 0.74970 -0.29440
C22A C 1.0307(10) 0.4186(9) -0.0385(8)
H22A H 1.04910 0.36180 -0.06380
C23A C 0.9841(8) 0.5392(8) -0.1131(7)
C24A C 0.9488(10) 0.6214(10) -0.0749(8)
H23A H 0.91120 0.70380 -0.12400
N1A N 0.9715(6) 0.5700(6) -0.3858(6)
N2A N 0.9621(6) 0.5792(6) -0.2288(6)
C25A C 0.9955(8) -0.2675(8) 1.2751(7)
H24A H 0.94690 -0.27720 1.23610
C26A C 1.0993(8) -0.2923(8) 1.4031(7)
H25A H 1.13690 -0.32380 1.47280
C27A C 1.1053(8) -0.1954(8) 1.3106(7)
H26A H 1.14730 -0.14910 1.30420
C28A C 1.0166(7) -0.0877(7) 1.1126(7)
C29A C 1.0583(8) 0.0055(8) 1.0759(7)
H27A H 1.09640 0.01080 1.12690
C30A C 1.0430(8) 0.0884(8) 0.9651(7)
H28A H 1.07420 0.14760 0.94160
N3A N 1.0297(6) -0.3392(6) 1.3811(5)
N4A N 1.0367(6) -0.1784(6) 1.2271(5)
O12A O 1.1837(5) 0.4043(6) 0.5585(5)
Co1* Co 1.00000 -0.50000 1.50000
Co1** Co 1.00000 0.50000 -0.50000
N1A* N 0.9715(6) 0.5700(6) 0.6142(6)
N3A* N 1.0297(6) 0.6608(6) 0.3811(5)
#END
