
#######################################################################
#
#                 Cambridge Crystallographic Data Centre
#                                CCDC
#
#######################################################################
#
# If this CIF has been generated from an entry in the Cambridge
# Structural Database, then it will include bibliographic, chemical,
# crystal, experimental, refinement or atomic coordinate data resulting
# from the CCDC's data processing and validation procedures.
#
#######################################################################

data_CSD_CIF_VALBAO
_audit_creation_date 2016-03-09
_audit_creation_method CSD-ConQuest-V1
_database_code_CSD VALBAO
_database_code_depnum_ccdc_archive 'CCDC 1430427'
_chemical_formula_sum 'C60 H64 N8 Ni1 O26 P4 U3'
_chemical_formula_moiety
;
(C36 H36 O22 P4 U3 2-)n,n(C24 H24 N8 Ni1 O2 2+),2n(H2 O1)
;
_journal_coden_Cambridge 1147
_journal_volume 16
_journal_year 2016
_journal_page_first 2011
_journal_name_full 'Cryst.Growth Des. '
loop_
_publ_author_name
"Weiting Yang"
"Dai Wu"
"Chao Liu"
"Qing-Jiang Pan"
"Zhong-Ming Sun"
_chemical_name_systematic
;
catena-[bis(\m-1-(4-(1H-imidazol-1-yl)phenyl)-1H-imidazole)-diaqua-nickel 
tetrakis(\m-3-(phenylphosphinato)propanoato)-hexakis(oxo)-tri-uranium 
dihydrate]
;
_cell_volume   1829.354
_exptl_crystal_colour 'yellow green'
_exptl_crystal_density_diffrn 1.999
_exptl_crystal_description 'block'
_diffrn_ambient_temperature 293
#These two values have been output from a single CSD field.
_refine_ls_R_factor_gt 0.0361
_refine_ls_wR_factor_gt 0.0361
_symmetry_cell_setting triclinic
_symmetry_space_group_name_H-M 'P -1'
_symmetry_Int_Tables_number 2
loop_
_symmetry_equiv_pos_site_id
_symmetry_equiv_pos_as_xyz
1 x,y,z
2 -x,-y,-z
_cell_length_a 12.3337(7)
_cell_length_b 13.5585(8)
_cell_length_c 13.6142(8)
_cell_angle_alpha 61.218(1)
_cell_angle_beta 83.154(1)
_cell_angle_gamma 66.954(1)
_cell_formula_units_Z 1
loop_
_atom_type_symbol
_atom_type_radius_bond
C 0.68
H 0.23
N 0.68
Ni 1.24
O 0.68
P 1.05
U 1.96
loop_
_atom_site_label
_atom_site_type_symbol
_atom_site_fract_x
_atom_site_fract_y
_atom_site_fract_z
U1 U 0.50000 0.50000 0.50000
U2 U 0.64110(2) 0.98435(2) 0.780477(19)
P1 P 0.43287(18) 0.77171(15) 0.51864(14)
P2 P 0.40693(16) 0.73817(15) 1.21138(13)
O1 O 0.3665(4) 0.4829(4) 0.5522(4)
O2 O 0.7847(4) 0.9449(4) 0.7360(4)
O3 O 0.4965(4) 1.0204(4) 0.8247(4)
O4 O 0.4675(5) 0.6364(4) 0.5638(4)
O5 O 0.4274(4) 0.8405(4) 0.3923(4)
O6 O 0.6378(4) 0.7838(4) 0.8237(4)
O7 O 0.5710(6) 0.9353(5) 0.6561(4)
O8 O 0.7273(4) 0.8596(4) 0.9616(4)
O9 O 0.7662(5) 0.7573(5) 1.1465(4)
O10 O 0.3417(4) 0.8688(4) 1.1868(3)
O11 O 0.3999(4) 0.6453(4) 1.3308(3)
C1 C 0.2923(7) 0.8284(7) 0.5679(6)
C2 C 0.2459(9) 0.9447(7) 0.5537(7)
H1 H 0.28700 0.99580 0.51800
C3 C 0.1366(10) 0.986(1) 0.5932(9)
H2 H 0.10540 1.06480 0.58400
C4 C 0.0751(9) 0.9122(12) 0.6452(9)
H3 H 0.00200 0.94060 0.67070
C5 C 0.1207(10) 0.7984(12) 0.6591(10)
H4 H 0.07860 0.74830 0.69420
C6 C 0.2289(9) 0.7549(9) 0.6222(8)
H5 H 0.25990 0.67520 0.63390
C7 C 0.5360(7) 0.7988(7) 0.5735(6)
H6 H 0.61390 0.76050 0.55440
H7 H 0.51710 0.88590 0.53480
C8 C 0.5436(8) 0.7552(7) 0.7000(6)
H8 H 0.46600 0.76120 0.72670
H9 H 0.59650 0.67010 0.73830
C9 C 0.5871(7) 0.8272(6) 0.7293(6)
C10 C 0.3427(7) 0.7162(6) 1.1161(6)
C11 C 0.3082(7) 0.8047(8) 1.0069(6)
H10 H 0.31630 0.87820 0.98230
C12 C 0.2614(10) 0.7868(10) 0.9322(8)
H11 H 0.24030 0.84670 0.85740
C13 C 0.2470(14) 0.6806(13) 0.9698(12)
H12 H 0.21620 0.66760 0.92000
C14 C 0.2763(18) 0.5937(12) 1.0779(13)
H13 H 0.26420 0.52230 1.10190
C15 C 0.3244(13) 0.6094(10) 1.1538(10)
H14 H 0.34410 0.54940 1.22870
C16 C 0.5593(6) 0.7097(6) 1.1900(5)
H15 H 0.59290 0.72190 1.24220
H16 H 0.60030 0.62510 1.20740
C17 C 0.5820(6) 0.7910(6) 1.0698(5)
H17 H 0.57760 0.75790 1.02170
H18 H 0.52010 0.87180 1.04140
C18 C 0.7010(6) 0.8014(6) 1.0625(5)
Ni1 Ni 0.00000 0.50000 0.50000
O12 O -0.1811(4) 0.5945(4) 0.4406(4)
C19 C 0.0511(9) 0.3772(8) 0.0763(6)
H19 H 0.08660 0.29450 0.12640
C20 C -0.0320(9) 0.5825(7) 0.0382(6)
H20 H -0.05290 0.63950 0.06370
C21 C 0.0166(6) 0.4616(6) 0.1133(5)
C22 C 0.1217(6) 0.3163(6) 0.3050(6)
H21 H 0.17220 0.25170 0.29320
C23 C 0.1161(6) 0.3239(6) 0.4010(5)
H22 H 0.16390 0.26420 0.46720
C24 C -0.0164(6) 0.4881(6) 0.2839(5)
H23 H -0.07900 0.56350 0.25160
C25 C -0.0428(7) 0.9100(6) 0.0360(6)
H24 H -0.07300 0.84980 0.05980
C26 C 0.0177(6) 0.9119(6) 0.1122(5)
C27 C 0.0600(7) 1.0027(6) 0.0771(6)
H25 H 0.09990 1.00590 0.12870
C28 C -0.0053(6) 0.7310(6) 0.2745(5)
H26 H -0.05450 0.72230 0.23510
C29 C 0.1014(6) 0.7024(6) 0.4050(5)
H27 H 0.14030 0.66880 0.47490
C30 C 0.1062(6) 0.8017(6) 0.3121(5)
H28 H 0.14800 0.84830 0.30590
N1 N 0.0298(5) 0.4323(5) 0.3870(4)
N2 N 0.0389(5) 0.4217(5) 0.2295(4)
N3 N 0.0308(5) 0.6580(5) 0.3815(4)
N4 N 0.0372(5) 0.8197(4) 0.2288(4)
O13 O 0.7194(6) 0.8432(6) 0.3195(6)
U2A U 0.35890(2) 0.01565(2) 0.219523(19)
P1A P 0.56713(18) 0.22829(15) 0.48136(14)
P2A P 0.59307(16) 0.26183(15) -0.21138(13)
O1A O 0.6335(4) 0.5171(4) 0.4478(4)
O2A O 0.2153(4) 0.0551(4) 0.2640(4)
O3A O 0.5035(4) -0.0204(4) 0.1753(4)
O4A O 0.5325(5) 0.3636(4) 0.4362(4)
O5A O 0.5726(4) 0.1595(4) 0.6077(4)
O6A O 0.3622(4) 0.2162(4) 0.1763(4)
O7A O 0.4290(6) 0.0647(5) 0.3439(4)
O8A O 0.2727(4) 0.1404(4) 0.0384(4)
O9A O 0.2338(5) 0.2427(5) -0.1465(4)
O10A O 0.6583(4) 0.1312(4) -0.1868(3)
O11A O 0.6001(4) 0.3547(4) -0.3308(3)
C1A C 0.7077(7) 0.1716(7) 0.4321(6)
C2A C 0.7541(9) 0.0553(7) 0.4463(7)
H1A H 0.71300 0.00420 0.48200
C3A C 0.8634(10) 0.014(1) 0.4068(9)
H2A H 0.89460 -0.06480 0.41600
C4A C 0.9249(9) 0.0878(12) 0.3548(9)
H3A H 0.99800 0.05940 0.32930
C5A C 0.8793(10) 0.2016(12) 0.3409(10)
H4A H 0.92140 0.25170 0.30580
C6A C 0.7711(9) 0.2451(9) 0.3778(8)
H5A H 0.74010 0.32480 0.36610
C7A C 0.4640(7) 0.2012(7) 0.4265(6)
H6A H 0.38610 0.23950 0.44560
H7A H 0.48290 0.11410 0.46520
C8A C 0.4564(8) 0.2448(7) 0.3000(6)
H8A H 0.53400 0.23880 0.27330
H9A H 0.40350 0.32990 0.26170
C9A C 0.4129(7) 0.1728(6) 0.2707(6)
C10A C 0.6573(7) 0.2838(6) -0.1161(6)
C11A C 0.6918(7) 0.1953(8) -0.0069(6)
H10A H 0.68370 0.12180 0.01770
C12A C 0.7386(10) 0.2132(10) 0.0678(8)
H11A H 0.75970 0.15330 0.14260
C13A C 0.7530(14) 0.3194(13) 0.0302(12)
H12A H 0.78380 0.33240 0.08000
C14A C 0.7237(18) 0.4063(12) -0.0779(13)
H13A H 0.73580 0.47770 -0.10190
C15A C 0.6756(13) 0.3906(10) -0.1538(10)
H14A H 0.65590 0.45060 -0.22870
C16A C 0.4407(6) 0.2903(6) -0.1900(5)
H15A H 0.40710 0.27810 -0.24220
H16A H 0.39970 0.37490 -0.20740
C17A C 0.4180(6) 0.2090(6) -0.0698(5)
H17A H 0.42240 0.24210 -0.02170
H18A H 0.47990 0.12820 -0.04140
C18A C 0.2990(6) 0.1986(6) -0.0625(5)
U1* U 0.50000 0.50000 -0.50000
U1** U 0.50000 0.50000 1.50000
U2* U 0.64110(2) -0.01565(2) -0.219523(19)
U2** U 0.64110(2) -0.01565(2) 0.780477(19)
U2A* U 0.35890(2) 1.01565(2) 0.219523(19)
U2A** U 0.35890(2) 1.01565(2) 1.219523(19)
O5* O 0.4274(4) -0.1595(4) 0.3923(4)
O5A* O 0.5726(4) 1.1595(4) 0.6077(4)
O10* O 0.3417(4) -0.1312(4) 0.1868(3)
O10A* O 0.6583(4) 1.1312(4) 0.8132(3)
O11* O 0.3999(4) 0.6453(4) 0.3308(3)
O11A* O 0.6001(4) 0.3547(4) 0.6692(3)
C19A C -0.0511(9) 0.6228(8) -0.0763(6)
H19A H -0.08660 0.70550 -0.12640
C20A C 0.0320(9) 0.4175(7) -0.0382(6)
H20A H 0.05290 0.36050 -0.06370
C21A C -0.0166(6) 0.5384(6) -0.1133(5)
C22A C -0.1217(6) 0.6837(6) -0.3050(6)
H21A H -0.17220 0.74830 -0.29320
C23A C -0.1161(6) 0.6761(6) -0.4010(5)
H22A H -0.16390 0.73580 -0.46720
C24A C 0.0164(6) 0.5119(6) -0.2839(5)
H23A H 0.07900 0.43650 -0.25160
N1A N -0.0298(5) 0.5677(5) -0.3870(4)
N2A N -0.0389(5) 0.5783(5) -0.2295(4)
C25A C 0.0428(7) 1.0900(6) -0.0360(6)
H24A H 0.07300 1.15020 -0.05980
C26A C -0.0177(6) 1.0881(6) -0.1122(5)
C27A C -0.0600(7) 0.9973(6) -0.0771(6)
H25A H -0.09990 0.99410 -0.12870
C28A C 0.0053(6) 1.2690(6) -0.2745(5)
H26A H 0.05450 1.27770 -0.23510
C29A C -0.1014(6) 1.2976(6) -0.4050(5)
H27A H -0.14030 1.33120 -0.47490
C30A C -0.1062(6) 1.1983(6) -0.3121(5)
H28A H -0.14800 1.15170 -0.30590
N3A N -0.0308(5) 1.3420(5) -0.3815(4)
N4A N -0.0372(5) 1.1803(4) -0.2288(4)
O12A O 0.1811(4) 0.4055(4) 0.5594(4)
Ni1* Ni 0.00000 0.50000 -0.50000
Ni1** Ni 0.00000 1.50000 -0.50000
N1A* N -0.0298(5) 0.5677(5) 0.6130(4)
N3A* N -0.0308(5) 0.3420(5) 0.6185(4)
#END
