
#######################################################################
#
#                 Cambridge Crystallographic Data Centre
#                                CCDC
#
#######################################################################
#
# If this CIF has been generated from an entry in the Cambridge
# Structural Database, then it will include bibliographic, chemical,
# crystal, experimental, refinement or atomic coordinate data resulting
# from the CCDC's data processing and validation procedures.
#
#######################################################################

data_CSD_CIF_VALGOG
_audit_creation_date 2010-11-24
_audit_creation_method CSD-ConQuest-V1
_database_code_CSD VALGOG
_database_code_depnum_ccdc_archive 'CCDC 712250'
_chemical_formula_sum 'C16 H90 Cd3 Mo12 N12 O72 P8'
_chemical_formula_moiety
;
(C8 H46 Cd3 Mo12 N6 O64 P8 2-)n,2n(C4 H14 N3 1+),8n(H2 O1)
;
_journal_coden_Cambridge 1350
_journal_volume 12
_journal_year 2010
_journal_page_first 595
_journal_name_full 'CrystEngComm '
loop_
_publ_author_name
"Xiao Zhang"
"Zhihui Yi"
"Liyan Zhao"
"Qian Chen"
"Xiaolin Wang"
"Jiqing Xu"
"Wujiong Xia"
"Chao Yang"
_chemical_name_systematic
;
catena-(bis(bis(2-Aminoethyl)ammonium) bis(\m~7~-phosphato) 
tetrakis(\m~3~-hydrogen phosphato)-octakis(\m~3~-oxo)-bis(\m~2~-dihydrogen 
phosphato)-hexakis(\m~2~-hydroxo)-tetrakis(\m~2~-oxo)-bis(bis(2-aminoethyl)amm
onium)-diaqua-dodecaoxo-tri-cadmium-dodeca-molybdenum octahydrate)
;
_cell_volume   2040.098
_exptl_crystal_colour 'brown'
_exptl_crystal_density_diffrn 2.718
_exptl_crystal_description 'block'
_diffrn_ambient_temperature 293
_refine_special_details
;
A nitrogen and a carbon atom of the cation are each equally disordered over 
two positions.
;
#These two values have been output from a single CSD field.
_refine_ls_R_factor_gt 0.0331
_refine_ls_wR_factor_gt 0.0331
_symmetry_cell_setting triclinic
_symmetry_space_group_name_H-M 'P -1'
_symmetry_Int_Tables_number 2
loop_
_symmetry_equiv_pos_site_id
_symmetry_equiv_pos_as_xyz
1 x,y,z
2 -x,-y,-z
_cell_length_a 11.908(2)
_cell_length_b 13.465(3)
_cell_length_c 14.403(3)
_cell_angle_alpha 71.82(3)
_cell_angle_beta 89.23(3)
_cell_angle_gamma 69.29(3)
_cell_formula_units_Z 1
loop_
_atom_type_symbol
_atom_type_radius_bond
C 0.68
H 0.23
Cd 1.61
Mo 1.10
N 0.68
O 0.83
P 1.05
loop_
_atom_site_label
_atom_site_type_symbol
_atom_site_fract_x
_atom_site_fract_y
_atom_site_fract_z
Cd1 Cd 1.00000 0.50000 0.50000
Cd2 Cd 0.79746(3) 0.38241(3) 0.93647(3)
Mo1 Mo 0.78452(4) 0.70167(4) 0.62427(3)
Mo2 Mo 0.73901(4) 0.44977(4) 0.64688(3)
Mo3 Mo 1.00434(4) 0.69608(4) 0.64805(3)
Mo4 Mo 1.22012(4) 0.25592(4) 0.71283(3)
Mo5 Mo 0.92396(4) 0.26132(4) 0.68526(3)
Mo6 Mo 1.25390(4) 0.44006(4) 0.70047(3)
P1 P 0.97679(11) 0.44628(11) 0.77784(9)
P2 P 1.20890(12) 0.60102(11) 0.84220(9)
P3 P 0.59895(12) 0.61540(12) 0.77644(10)
P4 P 1.13160(14) 0.06269(12) 0.8707(1)
O1 O 0.9573(3) 0.4258(3) 0.8841(2)
O2 O 1.1572(3) 0.5580(3) 0.9368(3)
O3 O 1.2835(3) 0.5062(3) 0.8046(3)
O4 O 1.1108(3) 0.6927(3) 0.7623(3)
O5 O 1.1714(3) 0.6095(3) 0.6073(2)
O6 O 0.8715(3) 0.7168(3) 0.7287(3)
O7 O 1.0617(3) 0.5123(3) 0.7443(2)
O8 O 1.2701(3) 0.3076(3) 0.8114(3)
O9 O 0.8534(3) 0.5171(3) 0.7132(2)
O10 O 1.0316(3) 0.3357(3) 0.7535(3)
O11 O 0.9295(3) 0.6472(3) 0.5586(2)
O12 O 0.7063(3) 0.6182(3) 0.5569(3)
O13 O 1.1674(3) 0.4037(3) 0.6087(3)
O14 O 0.8831(3) 0.4057(3) 0.5787(2)
O15 O 1.0970(3) 0.2184(3) 0.6373(3)
O16 O 0.6382(3) 0.4281(4) 0.5823(3)
O17 O 0.8694(4) 0.1897(3) 0.6329(3)
O18 O 0.6172(3) 0.5235(3) 0.7287(3)
O19 O 0.8031(3) 0.3221(3) 0.7653(3)
O20 O 1.0064(4) 0.1277(3) 0.8084(3)
O21 O 1.2206(4) 0.1192(3) 0.8241(3)
O22 O 1.3901(3) 0.4158(4) 0.6598(3)
O23 O 0.9902(4) 0.8259(3) 0.5774(3)
O24 O 0.6506(3) 0.7023(3) 0.7136(3)
O25 O 0.7145(3) 0.8324(3) 0.5462(3)
O26 O 1.3471(4) 0.1884(3) 0.6707(3)
O27 O 0.6622(4) 0.5622(3) 0.8808(3)
O28 O 1.2950(3) 0.6558(4) 0.8678(3)
H1 H 1.36800 0.61130 0.87160
O29 O 0.4644(4) 0.6784(4) 0.7736(3)
H2 H 0.44270 0.73990 0.72860
O30 O 1.1779(4) -0.0566(3) 0.8708(4)
O31 O 1.1201(5) 0.0708(4) 0.9730(3)
H3 H 1.04780 0.11130 0.97710
O32 O 0.9321(4) 0.2045(3) 1.0311(3)
O33 O 0.4210(9) 0.8166(11) 0.2185(9)
O34 O 0.5312(6) 0.9635(6) 0.1013(6)
O35 O 0.1929(6) 0.9381(7) 0.1486(5)
O36 O 0.5259(16) 0.9683(13) 0.6808(15)
O37 O 0.1966(14) 0.0389(9) 0.3033(11)
C1 C 0.5429(5) 0.3428(5) 0.9490(5)
H4 H 0.50530 0.38170 0.88180
H5 H 0.52710 0.39790 0.98240
C2 C 0.4887(5) 0.2572(5) 0.9996(5)
H6 H 0.50700 0.20120 0.96680
H7 H 0.52620 0.21930 1.06690
C3 C 0.3074(5) 0.2239(5) 1.0624(5)
H8 H 0.32750 0.21210 1.13110
H9 H 0.34570 0.15250 1.05130
C4 C 0.1728(5) 0.2609(5) 1.0421(5)
H10 H 0.15250 0.27470 0.97310
H11 H 0.14740 0.20060 1.08020
C5 C 0.4069(18) 0.8563(13) 0.5221(11)
C6 C 0.2794(16) 0.9522(18) 0.6483(19)
C7 C 0.3960(14) 0.7573(13) 0.5031(12)
C8 C 0.1758(19) 0.930(2) 0.6221(16)
C9? C 0.2176(14) 0.879(2) 0.703(3)
N1 N 0.6731(4) 0.2892(4) 0.9489(4)
H12 H 0.68380 0.26080 0.89920
H13 H 0.69940 0.23010 1.00490
N2 N 0.3567(4) 0.3062(4) 1.0002(3)
H14 H 0.32100 0.33240 0.93830
H15 H 0.33870 0.36480 1.02260
N3 N 0.1058(4) 0.3632(4) 1.0662(3)
H16 H 0.14430 0.39510 1.08940
H17 H 0.02820 0.39100 1.05720
N4 N 0.4118(12) 0.6483(10) 0.5733(9)
N5 N 0.3922(15) 0.8813(14) 0.6216(14)
N6 N 0.0873(11) 0.9415(14) 0.6923(17)
N7? N 0.463(2) 0.7248(16) 0.4449(16)
Cd2A Cd 1.20254(3) 0.61759(3) 0.06353(3)
Cd2A* Cd 1.20254(3) 0.61759(3) 1.06353(3)
Cd2* Cd 0.79746(3) 0.38241(3) -0.06353(3)
Mo1A Mo 1.21548(4) 0.29833(4) 0.37573(3)
Mo2A Mo 1.26099(4) 0.55023(4) 0.35312(3)
Mo3A Mo 0.99566(4) 0.30392(4) 0.35195(3)
Mo4A Mo 0.77988(4) 0.74408(4) 0.28717(3)
Mo5A Mo 1.07604(4) 0.73868(4) 0.31474(3)
Mo6A Mo 0.74610(4) 0.55994(4) 0.29953(3)
P1A P 1.02321(11) 0.55372(11) 0.22216(9)
P2A P 0.79110(12) 0.39898(11) 0.15780(9)
P3A P 1.40105(12) 0.38460(12) 0.22356(10)
P4A P 0.86840(14) 0.93731(12) 0.1293(1)
O1A O 1.0427(3) 0.5742(3) 0.1159(2)
O2A O 0.8428(3) 0.4420(3) 0.0632(3)
O2A* O 0.8428(3) 0.4420(3) 1.0632(3)
O2* O 1.1572(3) 0.5580(3) -0.0632(3)
O3A O 0.7165(3) 0.4938(3) 0.1954(3)
O4A O 0.8892(3) 0.3073(3) 0.2377(3)
O5A O 0.8286(3) 0.3905(3) 0.3927(2)
O6A O 1.1285(3) 0.2832(3) 0.2713(3)
O7A O 0.9383(3) 0.4877(3) 0.2557(2)
O8A O 0.7299(3) 0.6924(3) 0.1886(3)
O9A O 1.1466(3) 0.4829(3) 0.2868(2)
O10A O 0.9684(3) 0.6643(3) 0.2465(3)
O11A O 1.0705(3) 0.3528(3) 0.4414(2)
O12A O 1.2937(3) 0.3818(3) 0.4431(3)
O13A O 0.8326(3) 0.5963(3) 0.3913(3)
O14A O 1.1169(3) 0.5943(3) 0.4213(2)
O15A O 0.9030(3) 0.7816(3) 0.3627(3)
O16A O 1.3618(3) 0.5719(4) 0.4177(3)
O17A O 1.1306(4) 0.8103(3) 0.3671(3)
O18A O 1.3828(3) 0.4765(3) 0.2713(3)
O19A O 1.1969(3) 0.6779(3) 0.2347(3)
O20A O 0.9936(4) 0.8723(3) 0.1916(3)
O21A O 0.7794(4) 0.8808(3) 0.1759(3)
O22A O 0.6099(3) 0.5842(4) 0.3402(3)
O23A O 1.0098(4) 0.1741(3) 0.4226(3)
O24A O 1.3494(3) 0.2977(3) 0.2864(3)
O25A O 1.2855(3) 0.1676(3) 0.4538(3)
O26A O 0.6529(4) 0.8116(3) 0.3293(3)
O27A O 1.3378(4) 0.4378(3) 0.1192(3)
O28A O 0.7050(3) 0.3442(4) 0.1322(3)
H1A H 0.63200 0.38870 0.12840
O29A O 1.5356(4) 0.3216(4) 0.2264(3)
H2A H 1.55730 0.26010 0.27140
O30A O 0.8221(4) 1.0566(3) 0.1292(4)
O31A O 0.8799(5) 0.9292(4) 0.0270(3)
H3A H 0.95220 0.88870 0.02290
O32A O 1.0679(4) 0.7955(3) -0.0311(3)
C1A C 1.4571(5) 0.6572(5) 0.0510(5)
H4A H 1.49470 0.61830 0.11820
H5A H 1.47290 0.60210 0.01760
C2A C 1.5113(5) 0.7428(5) 0.0004(5)
H6A H 1.49300 0.79880 0.03320
H7A H 1.47380 0.78070 -0.06690
C3A C 1.6926(5) 0.7761(5) -0.0624(5)
H8A H 1.67250 0.78790 -0.13110
H9A H 1.65430 0.84750 -0.05130
C4A C 1.8272(5) 0.7391(5) -0.0421(5)
H10A H 1.84750 0.72530 0.02690
H11A H 1.85260 0.79940 -0.08020
N1A N 1.3269(4) 0.7108(4) 0.0511(4)
H12A H 1.31620 0.73920 0.10080
H13A H 1.30060 0.76990 -0.00490
N2A N 1.6433(4) 0.6938(4) -0.0002(3)
H14A H 1.67900 0.66760 0.06170
H15A H 1.66130 0.63520 -0.02260
N3A N 1.8942(4) 0.6368(4) -0.0662(3)
H16A H 1.85570 0.60490 -0.08940
H17A H 1.97180 0.60900 -0.05720
#END
