
#######################################################################
#
#                 Cambridge Crystallographic Data Centre
#                                CCDC
#
#######################################################################
#
# If this CIF has been generated from an entry in the Cambridge
# Structural Database, then it will include bibliographic, chemical,
# crystal, experimental, refinement or atomic coordinate data resulting
# from the CCDC's data processing and validation procedures.
#
#######################################################################

data_CSD_CIF_VALGEX
_audit_creation_date 2016-03-10
_audit_creation_method CSD-ConQuest-V1
_database_code_CSD VALGEX
_database_code_depnum_ccdc_archive 'CCDC 1447289'
_chemical_formula_sum 'C10 H17 Cd1 N4 O9'
_chemical_formula_moiety
;
(C2 H10 N2 2+)0.5n,n(C9 H8 Cd1 N3 O7 1-),2n(H2 O1)
;
_journal_coden_Cambridge 1350
_journal_volume 18
_journal_year 2016
_journal_page_first 2347
_journal_name_full 'CrystEngComm '
loop_
_publ_author_name
"Yue-Ling Bai"
"Liangzhen Xu"
"Xiaoli Bao"
"Chaoyi Hou"
"Yongmei Zhao"
"Shourong Zhu"
_chemical_name_systematic
;
catena-[hemikis(1,2-Diammonioethane) 
(\m~4~-3,5-bis(2-carboxylatoethyl)-2,4,6-trioxo-1,3,5-triazinan-1-yl)-cadmium 
dihydrate]
;
_cell_volume    736.003
_exptl_crystal_colour 'colorless'
_exptl_crystal_density_diffrn 2.029
_exptl_crystal_description 'block'
_diffrn_ambient_temperature 296
#These two values have been output from a single CSD field.
_refine_ls_R_factor_gt 0.0156
_refine_ls_wR_factor_gt 0.0156
_symmetry_cell_setting triclinic
_symmetry_space_group_name_H-M 'P -1'
_symmetry_Int_Tables_number 2
loop_
_symmetry_equiv_pos_site_id
_symmetry_equiv_pos_as_xyz
1 x,y,z
2 -x,-y,-z
_cell_length_a 8.6333(3)
_cell_length_b 9.7461(3)
_cell_length_c 10.2243(3)
_cell_angle_alpha 92.742(1)
_cell_angle_beta 105.950(1)
_cell_angle_gamma 115.039(1)
_cell_formula_units_Z 2
loop_
_atom_type_symbol
_atom_type_radius_bond
C 0.68
H 0.23
Cd 1.44
N 0.68
O 0.68
loop_
_atom_site_label
_atom_site_type_symbol
_atom_site_fract_x
_atom_site_fract_y
_atom_site_fract_z
Cd1 Cd 0.856207(16) 0.354832(13) 0.367558(12)
N1 N 0.8071(2) 0.20661(17) 0.52758(16)
N2 N 0.6864(2) -0.05008(17) 0.56303(16)
N3 N 0.8222(2) 0.15416(17) 0.75206(16)
O1 O 0.97074(19) 0.39859(15) 0.71852(14)
O2 O 0.6648(2) 0.00679(16) 0.34760(14)
O3 O 0.7173(2) -0.09495(16) 0.78306(15)
O4 O 0.58377(19) -0.48437(16) 0.35474(15)
O5 O 0.84202(18) -0.46137(15) 0.49680(14)
O6 O 0.91504(18) 0.25148(15) 1.18037(14)
O7 O 0.67091(18) 0.28358(16) 1.14561(14)
C1 C 0.8721(2) 0.2607(2) 0.66633(19)
C2 C 0.7172(2) 0.0535(2) 0.47352(19)
C3 C 0.7402(2) -0.0034(2) 0.70503(19)
C4 C 0.6179(3) -0.2149(2) 0.5084(2)
H1 H 0.54470 -0.23970 0.41160
H2 H 0.54270 -0.27720 0.55910
C5 C 0.7768(3) -0.2505(2) 0.5232(2)
H3 H 0.86110 -0.17520 0.48590
H4 H 0.83880 -0.23830 0.62090
C6 C 0.7259(2) -0.4106(2) 0.45152(19)
C7 C 0.8781(3) 0.2061(2) 0.90219(19)
H5 H 0.96860 0.31330 0.92750
H6 H 0.93190 0.14560 0.95050
C8 C 0.7168(3) 0.1890(2) 0.94610(19)
H7 H 0.66150 0.24760 0.89590
H8 H 0.62750 0.08150 0.92210
C9 C 0.7713(2) 0.2447(2) 1.09939(18)
H9 H 0.319(3) 0.446(3) 0.903(3)
H10 H 0.460(3) 0.387(3) 0.889(3)
H11 H 0.300(4) 0.339(3) 1.093(3)
H12 H 0.271(4) 0.225(4) 0.981(3)
H13 H 0.445(4) 0.294(3) 1.085(3)
N4 N 0.3529(2) 0.3084(2) 1.03585(19)
C10 C 0.4211(3) 0.4273(2) 0.9528(2)
O8 O 0.1467(2) 0.06031(19) 0.80973(18)
H14 H 0.093(4) -0.029(4) 0.818(3)
H15 H 0.205(4) 0.061(3) 0.770(3)
O9 O 0.7316(2) 0.5072(2) 0.80997(18)
H16 H 0.819(5) 0.529(4) 0.794(3)
H17 H 0.653(5) 0.490(4) 0.753(4)
Cd1* Cd 0.856207(16) -0.645168(13) 0.367558(12)
Cd1** Cd 0.856207(16) 0.354832(13) 1.367558(12)
Cd1A Cd 1.143793(16) -0.354832(13) 0.632442(12)
Cd1A* Cd 1.143793(16) 0.645168(13) 0.632442(12)
O1A O 1.02926(19) 0.60141(15) 0.28148(14)
O5* O 0.84202(18) 0.53863(15) 0.49680(14)
O5A O 1.15798(18) 0.46137(15) 0.50320(14)
O6* O 0.91504(18) 0.25148(15) 0.18037(14)
O7* O 0.67091(18) 0.28358(16) 0.14561(14)
H9A H 0.681(3) 0.554(3) 1.097(3)
H10A H 0.540(3) 0.613(3) 1.111(3)
H11A H 0.700(4) 0.661(3) 0.907(3)
H12A H 0.729(4) 0.775(4) 1.019(3)
H13A H 0.555(4) 0.706(3) 0.915(3)
N4A N 0.6471(2) 0.6916(2) 0.96415(19)
C10A C 0.5789(3) 0.5727(2) 1.0472(2)
#END
