
#######################################################################
#
#                 Cambridge Crystallographic Data Centre
#                                CCDC
#
#######################################################################
#
# If this CIF has been generated from an entry in the Cambridge
# Structural Database, then it will include bibliographic, chemical,
# crystal, experimental, refinement or atomic coordinate data resulting
# from the CCDC's data processing and validation procedures.
#
#######################################################################

data_CSD_CIF_VANHIE
_audit_creation_date 2017-04-28
_audit_creation_method CSD-ConQuest-V1
_database_code_CSD VANHIE
_database_code_depnum_ccdc_archive 'CCDC 1527988'
_chemical_formula_sum 'C278 H288 Cd9 N25 O66.5'
_chemical_formula_moiety
;
(C66 H52 Cd4 N2 O20 2+)n,n(C150 H98 Cd4 N8 O26 2-),C18 H30 Cd1 N4 O5,11(C4 H9 
N1 O1),4.5(H2 O1)
;
_journal_coden_Cambridge 1350
_journal_volume 19
_journal_year 2017
_journal_page_first 2632
_journal_name_full 'CrystEngComm '
loop_
_publ_author_name
"Dong-Hui Chen"
"Ling Lin"
"Tian-Lu Sheng"
"Yue-Hong Wen"
"Sheng-Min Hu"
"Rui-Biao Fu"
"Chao Zhuo"
"Hao-Ran Li"
"Xin-Tao Wu"
_chemical_name_systematic
;
catena-[(bis(\m-4,4',4''-(9H-carbazole-2,7,9-triyl)tribenzoato)-octa-aqua-tetr
a-cadmium(ii)) 
(tetrakis(\m-4,4',4''-(9H-carbazole-2,7,9-triyl)tribenzoato)-(\m-2,2'-bipyridi
ne)-bis(N,N-dimethylacetamide)-tetra-cadmium(ii)) 
(bis(N,N-dimethylacetamide)-aqua-(2,2'-bipyridine)-dihydroxy-cadmium(ii)) 
N,N-dimethylacetamide solvate hydrate]
;
_chemical_name_common
;
TCZ-005
;
_cell_volume  13145.001
_exptl_crystal_colour 'colorless'
_exptl_crystal_density_diffrn 1.509
_exptl_crystal_description 'Prism'
_diffrn_ambient_temperature 293
_refine_special_details
;
The SQUEEZE/PLATON program has been used to model some disorder.

;
#These two values have been output from a single CSD field.
_refine_ls_R_factor_gt 0.0519
_refine_ls_wR_factor_gt 0.0519
_symmetry_cell_setting monoclinic
_symmetry_space_group_name_H-M 'P n'
_symmetry_Int_Tables_number 7
loop_
_symmetry_equiv_pos_site_id
_symmetry_equiv_pos_as_xyz
1 x,y,z
2 1/2+x,-y,1/2+z
_cell_length_a 15.8325(19)
_cell_length_b 22.884(3)
_cell_length_c 36.596(5)
_cell_angle_alpha 90
_cell_angle_beta 97.523(2)
_cell_angle_gamma 90
_cell_formula_units_Z 2
loop_
_atom_type_symbol
_atom_type_radius_bond
C 0.68
H 0.23
Cd 1.44
N 0.68
O 0.68
loop_
_atom_site_label
_atom_site_type_symbol
_atom_site_fract_x
_atom_site_fract_y
_atom_site_fract_z
Cd1 Cd -0.03144(2) 0.725844(18) 0.206692(13)
Cd2 Cd 0.64496(2) 0.697413(18) 0.375948(13)
Cd3 Cd 1.11555(3) 1.19566(2) 0.352911(15)
Cd4 Cd -0.49410(3) 1.24296(2) 0.235827(15)
O1 O -0.1583(3) 0.7072(2) 0.23918(14)
O2 O -0.1691(3) 0.7501(2) 0.18525(14)
O3 O -0.4802(6) 1.1413(3) 0.2375(3)
O4 O -0.5904(4) 1.1732(3) 0.2024(2)
O5 O -0.4918(4) 0.3403(2) 0.23985(19)
O6 O -0.6088(4) 0.3088(3) 0.20677(19)
O7 O -0.4216(3) 0.2522(2) 0.18109(15)
O8 O -0.3469(3) 0.2362(3) 0.23547(16)
O9 O -0.0400(3) 0.6261(2) 0.20165(16)
O10 O 0.0070(3) 0.6605(2) 0.15206(17)
O11 O 0.0198(3) -0.20205(18) 0.16966(14)
O12 O -0.0252(3) -0.16935(18) 0.21973(14)
O13 O 0.7716(3) 0.6780(2) 0.34015(14)
O14 O 0.7863(3) 0.7102(2) 0.39742(15)
O15 O 1.1089(4) 0.2975(2) 0.3398(2)
O16 O 1.2132(3) 0.2645(2) 0.38064(16)
O17 O 1.1004(3) 1.0954(2) 0.34577(16)
O18 O 1.2073(3) 1.1265(2) 0.38624(16)
O19 O 0.9648(3) 1.1932(2) 0.34528(15)
O20 O 1.0320(3) 1.2075(2) 0.40101(16)
O21 O 0.6480(3) 0.80279(19) 0.36530(14)
O22 O 0.5966(3) 0.76789(19) 0.41393(14)
O23 O 0.6469(3) 1.5979(2) 0.38008(18)
O24 O 0.6029(3) 1.6311(2) 0.43061(19)
O25 O 1.1773(5) 1.1892(4) 0.3012(2)
O26 O -0.4959(5) 1.2432(3) 0.2989(2)
N1 N -0.5656(3) 0.7415(2) 0.20052(19)
N2 N -0.0405(3) 0.2268(2) 0.14041(18)
N3 N 1.1816(3) 0.6959(2) 0.38233(18)
N4 N 0.6451(3) 1.1980(2) 0.4354(2)
N5 N 0.0927(3) 0.7157(3) 0.24629(17)
N6 N 0.5186(3) 0.6970(2) 0.33587(17)
N7 N 1.2095(9) 1.2178(7) 0.2486(3)
N8 N -0.5575(7) 1.2129(6) 0.3455(3)
C1 C -0.2029(4) 0.7302(3) 0.2121(2)
C2 C -0.2981(4) 0.7352(3) 0.2105(2)
C3 C -0.3442(4) 0.7663(3) 0.18227(19)
H1 H -0.31610 0.78490 0.16480
C4 C -0.4324(4) 0.7700(3) 0.17982(19)
H2 H -0.46290 0.79210 0.16130
C5 C -0.4743(4) 0.7408(3) 0.2049(2)
C6 C 0.0076(4) 0.2766(3) 0.13326(19)
C7 C -0.4296(4) 0.7093(3) 0.2338(2)
H3 H -0.45830 0.68970 0.25070
C8 C -0.3411(4) 0.7079(3) 0.2369(2)
H4 H -0.31020 0.68870 0.25670
C9 C -0.6164(4) 0.7914(3) 0.1949(2)
C10 C -0.5929(4) 0.8491(3) 0.20046(19)
H5 H -0.53640 0.85920 0.20810
C11 C -0.6554(4) 0.8919(3) 0.1945(2)
C12 C -0.7409(4) 0.8751(3) 0.1815(2)
H6 H -0.78240 0.90390 0.17670
C13 C -0.7634(4) 0.8178(3) 0.1760(2)
H7 H -0.81930 0.80770 0.16730
C14 C -0.7011(4) 0.7744(3) 0.1836(2)
C15 C -0.7029(4) 0.7108(3) 0.1823(2)
C16 C -0.7640(4) 0.6687(3) 0.1739(2)
H8 H -0.81950 0.67970 0.16520
C17 C -0.7439(4) 0.6100(3) 0.1782(2)
H9 H -0.78660 0.58220 0.17330
C18 C -0.6589(4) 0.5917(3) 0.1899(2)
C19 C -0.5942(4) 0.6350(3) 0.1966(2)
H10 H -0.53740 0.62440 0.20290
C20 C -0.6173(4) 0.6921(3) 0.1935(2)
C21 C -0.6305(4) 0.9540(3) 0.20072(19)
C22 C -0.5577(4) 0.9685(3) 0.2251(2)
H11 H -0.52690 0.93920 0.23850
C23 C -0.5308(5) 1.0266(3) 0.2293(2)
H12 H -0.48130 1.03530 0.24500
C24 C -0.5762(5) 1.0710(3) 0.2109(2)
C25 C -0.6507(5) 1.0580(3) 0.1880(2)
H13 H -0.68270 1.08800 0.17590
C26 C -0.6784(5) 1.0000(3) 0.1827(2)
H14 H -0.72850 0.99190 0.16730
C27 C -0.5480(6) 1.1328(4) 0.2169(3)
C28 C -0.6353(5) 0.5301(3) 0.1961(2)
C29 C -0.6908(5) 0.4842(3) 0.1846(2)
H15 H -0.74430 0.49290 0.17200
C30 C -0.6687(6) 0.4268(3) 0.1914(2)
H16 H -0.70670 0.39710 0.18310
C31 C -0.5888(5) 0.4129(3) 0.2108(2)
C32 C -0.5343(6) 0.4561(3) 0.2225(2)
H17 H -0.48120 0.44720 0.23530
C33 C -0.5575(5) 0.5142(3) 0.2156(3)
H18 H -0.51930 0.54340 0.22430
C34 C -0.5637(6) 0.3506(3) 0.2195(2)
C35 C -0.3522(4) 0.2417(3) 0.2012(2)
C36 C -0.2723(4) 0.2349(3) 0.1833(2)
C37 C -0.2023(4) 0.2059(3) 0.2030(2)
H19 H -0.20690 0.18950 0.22590
C38 C -0.1267(4) 0.2021(3) 0.1882(2)
H20 H -0.08070 0.18220 0.20090
C39 C -0.1189(4) 0.2278(3) 0.1545(2)
C40 C -0.1887(4) 0.2551(3) 0.1341(2)
H21 H -0.18440 0.27070 0.11100
C41 C -0.2656(4) 0.2584(3) 0.1494(2)
H22 H -0.31250 0.27670 0.13620
C42 C 0.0119(4) 0.1780(3) 0.13901(18)
C43 C -0.0043(4) 0.1200(3) 0.1479(2)
H23 H -0.05560 0.10930 0.15580
C44 C 0.0586(4) 0.0791(3) 0.14456(19)
C45 C 0.1337(4) 0.0946(3) 0.1320(2)
H24 H 0.17350 0.06580 0.12880
C46 C 0.1515(4) 0.1526(3) 0.1239(2)
H25 H 0.20320 0.16270 0.11610
C47 C 0.0906(4) 0.1948(3) 0.1278(2)
C48 C 0.0872(4) 0.2579(3) 0.12489(18)
C49 C 0.1462(4) 0.3014(3) 0.1189(2)
H26 H 0.19900 0.29100 0.11230
C50 C 0.1262(4) 0.3597(3) 0.1226(2)
H27 H 0.16590 0.38830 0.11880
C51 C 0.0471(4) 0.3763(3) 0.13206(19)
C52 C -0.0143(4) 0.3339(3) 0.13652(19)
H28 H -0.06840 0.34440 0.14150
C53 C 0.0452(4) 0.0162(3) 0.15606(19)
C54 C 0.0098(4) 0.0050(3) 0.1890(2)
H29 H -0.00510 0.03590 0.20330
C55 C -0.0025(4) -0.0519(3) 0.1998(2)
H30 H -0.02330 -0.05920 0.22190
C56 C 0.0164(4) -0.0990(3) 0.1772(2)
C57 C 0.0528(4) -0.0873(3) 0.1452(2)
H31 H 0.06840 -0.11820 0.13090
C58 C 0.0662(4) -0.0300(3) 0.13446(19)
H32 H 0.08920 -0.02280 0.11280
C59 C 0.0020(3) -0.1607(3) 0.1902(2)
C60 C 0.0297(4) 0.4394(3) 0.13973(19)
C61 C 0.0726(4) 0.4846(3) 0.1250(2)
H33 H 0.11190 0.47600 0.10900
C62 C 0.0579(4) 0.5439(3) 0.13380(18)
H34 H 0.08670 0.57380 0.12340
C63 C -0.0006(4) 0.5569(3) 0.15823(19)
C64 C -0.0452(4) 0.5106(3) 0.1722(2)
H35 H -0.08520 0.51860 0.18800
C65 C -0.0307(4) 0.4547(3) 0.1628(2)
H36 H -0.06230 0.42510 0.17200
C66 C -0.0122(4) 0.6187(3) 0.1700(2)
C67 C 0.8169(4) 0.6946(3) 0.3691(2)
C68 C 0.9131(4) 0.6958(3) 0.37081(19)
C69 C 0.9609(4) 0.7247(3) 0.39997(19)
H37 H 0.93380 0.74350 0.41770
C70 C 1.0497(4) 0.7255(3) 0.4025(2)
H38 H 1.08110 0.74530 0.42190
C71 C 1.0911(4) 0.6976(3) 0.3771(2)
C72 C 1.0443(4) 0.6682(3) 0.3471(2)
H39 H 1.07230 0.64920 0.32960
C73 C 0.9557(4) 0.6679(3) 0.3441(2)
H40 H 0.92430 0.64910 0.32420
C74 C 1.2330(4) 0.7451(3) 0.38939(19)
C75 C 1.2107(4) 0.8028(3) 0.3843(2)
H41 H 1.15430 0.81360 0.37710
C76 C 1.2743(4) 0.8445(3) 0.39025(19)
C77 C 1.3583(4) 0.8281(3) 0.4024(2)
H42 H 1.39970 0.85700 0.40700
C78 C 1.3813(4) 0.7702(3) 0.4077(2)
H43 H 1.43770 0.75990 0.41520
C79 C 1.3168(4) 0.7268(3) 0.4014(2)
C80 C 1.3169(4) 0.6637(3) 0.4015(2)
C81 C 1.3791(4) 0.6210(3) 0.4107(2)
H44 H 1.43430 0.63130 0.42040
C82 C 1.3565(4) 0.5630(3) 0.4050(2)
H45 H 1.39800 0.53420 0.40990
C83 C 1.2722(4) 0.5463(3) 0.3920(2)
C84 C 1.2095(4) 0.5878(3) 0.3846(2)
H46 H 1.15330 0.57720 0.37690
C85 C 1.2331(4) 0.6465(3) 0.3891(2)
C86 C 1.2500(4) 0.9067(3) 0.38353(19)
C87 C 1.1762(4) 0.9214(3) 0.3600(2)
H47 H 1.14480 0.89210 0.34690
C88 C 1.1491(4) 0.9785(3) 0.3559(2)
H48 H 1.09900 0.98720 0.34070
C89 C 1.1966(4) 1.0238(3) 0.37468(19)
C90 C 1.2699(4) 1.0099(3) 0.3974(2)
H49 H 1.30200 1.03960 0.40970
C91 C 1.2965(4) 0.9535(3) 0.4022(2)
H50 H 1.34600 0.94550 0.41810
C92 C 1.1663(4) 1.0847(3) 0.3686(2)
C93 C 1.2505(4) 0.4839(3) 0.3845(2)
C94 C 1.2968(4) 0.4377(3) 0.4025(2)
H51 H 1.34480 0.44570 0.41930
C95 C 1.2725(4) 0.3802(3) 0.3957(2)
H52 H 1.30390 0.35020 0.40800
C96 C 1.2015(4) 0.3673(3) 0.3707(2)
C97 C 1.1547(4) 0.4130(3) 0.3518(2)
H53 H 1.10670 0.40500 0.33510
C98 C 1.1816(4) 0.4699(3) 0.3587(2)
H54 H 1.15210 0.50000 0.34550
C99 C 1.1712(4) 0.3057(3) 0.3633(2)
C100 C 0.9644(4) 1.1996(3) 0.3794(2)
C101 C 0.8811(4) 1.1983(3) 0.3946(2)
C102 C 0.8740(4) 1.2216(3) 0.4292(2)
H55 H 0.92170 1.23730 0.44340
C103 C 0.7967(4) 1.2216(3) 0.4426(2)
H56 H 0.79250 1.23760 0.46560
C104 C 0.7250(4) 1.1979(3) 0.4219(2)
C105 C 0.7323(4) 1.1736(3) 0.3879(2)
H57 H 0.68490 1.15680 0.37410
C106 C 0.8102(5) 1.1743(4) 0.3741(3)
H58 H 0.81450 1.15850 0.35100
C107 C 0.6016(4) 1.2464(3) 0.4445(2)
C108 C 0.6212(4) 1.3058(3) 0.4405(2)
H59 H 0.67290 1.31670 0.43310
C109 C 0.5633(4) 1.3475(3) 0.44777(19)
C110 C 0.4853(4) 1.3300(3) 0.4601(2)
H60 H 0.44640 1.35840 0.46520
C111 C 0.4665(4) 1.2713(3) 0.4647(2)
H61 H 0.41620 1.26050 0.47350
C112 C 0.5236(4) 1.2291(3) 0.4561(2)
C113 C 0.5212(4) 1.1662(3) 0.45337(19)
C114 C 0.4631(4) 1.1223(3) 0.46072(19)
H62 H 0.41380 1.13240 0.47050
C115 C 0.4793(4) 1.0644(3) 0.45340(19)
H63 H 0.44120 1.03580 0.45890
C116 C 0.5528(4) 1.0480(3) 0.43771(19)
C117 C 0.6120(4) 1.0899(3) 0.4310(2)
H64 H 0.66110 1.07940 0.42110
C118 C 0.5966(4) 1.1479(3) 0.4395(2)
C119 C 0.5803(4) 1.4108(3) 0.44008(19)
C120 C 0.5435(4) 1.4557(3) 0.45714(19)
H65 H 0.50810 1.44710 0.47480
C121 C 0.5579(4) 1.5136(3) 0.44869(19)
H66 H 0.53230 1.54320 0.46070
C122 C 0.6096(4) 1.5273(3) 0.4226(2)
C123 C 0.6491(5) 1.4830(3) 0.4059(2)
H67 H 0.68480 1.49190 0.38840
C124 C 0.6357(5) 1.4249(3) 0.4151(2)
H68 H 0.66430 1.39530 0.40430
C125 C 0.6205(4) 1.5894(3) 0.4103(2)
C126 C 0.5678(4) 0.9866(3) 0.4271(2)
C127 C 0.6043(4) 0.9758(3) 0.3955(2)
H69 H 0.61830 1.00710 0.38120
C128 C 0.6206(4) 0.9186(3) 0.3845(2)
H70 H 0.64490 0.91200 0.36310
C129 C 0.5998(4) 0.8712(3) 0.40625(19)
C130 C 0.5634(4) 0.8821(3) 0.43825(17)
H71 H 0.54980 0.85110 0.45290
C131 C 0.5474(4) 0.9386(3) 0.44819(19)
H72 H 0.52250 0.94520 0.46950
C132 C 0.6175(4) 0.8104(2) 0.3939(2)
C133 C 0.4667(4) 0.6510(3) 0.3343(2)
H73 H 0.48780 0.61620 0.34490
C134 C 0.3829(4) 0.6522(3) 0.3176(2)
H74 H 0.34920 0.61890 0.31730
C135 C 0.3495(4) 0.7039(3) 0.30123(19)
C136 C 0.4022(4) 0.7515(3) 0.3032(2)
H75 H 0.38240 0.78690 0.29290
C137 C 0.4870(5) 0.7469(3) 0.3209(3)
H76 H 0.52190 0.77980 0.32210
C138 C 0.1316(4) 0.6643(3) 0.2522(2)
H77 H 0.10170 0.63070 0.24420
C139 C 0.2157(4) 0.6583(3) 0.2697(2)
H78 H 0.24090 0.62150 0.27240
C140 C 0.2606(4) 0.7073(3) 0.28294(19)
C141 C 0.2183(4) 0.7603(3) 0.2787(2)
H79 H 0.24520 0.79420 0.28830
C142 C 0.1362(4) 0.7633(3) 0.2603(2)
H80 H 0.10980 0.79970 0.25740
C143 C -0.4936(10) 1.1387(5) 0.3210(5)
H81 H -0.54380 1.11510 0.31550
H82 H -0.46550 1.12900 0.34510
H83 H -0.45580 1.13150 0.30300
C144 C -0.5191(8) 1.2043(5) 0.3200(4)
C145 C -0.5753(10) 1.2850(7) 0.3477(5)
H84 H -0.63550 1.29210 0.34530
H85 H -0.55150 1.30440 0.32820
H86 H -0.54900 1.29970 0.37100
C146 C -0.5989(8) 1.1759(5) 0.3684(4)
H87 H -0.65660 1.16950 0.35740
H88 H -0.59880 1.19390 0.39210
H89 H -0.56950 1.13920 0.37120
C147 C 1.0658(10) 1.2089(8) 0.2558(5)
H90 H 1.05340 1.18470 0.23430
H91 H 1.05170 1.24870 0.24950
H92 H 1.03280 1.19590 0.27450
C148 C 1.1555(9) 1.2047(6) 0.2696(4)
C149 C 1.2977(10) 1.2150(7) 0.2645(5)
H93 H 1.30110 1.20560 0.29020
H94 H 1.32430 1.25220 0.26170
H95 H 1.32640 1.18550 0.25210
C150 C 1.1941(11) 1.2393(7) 0.2118(5)
H96 H 1.19660 1.20760 0.19480
H97 H 1.23650 1.26790 0.20810
H98 H 1.13870 1.25700 0.20770
Cd5 Cd 0.71591(3) 0.793842(18) -0.004631(13)
Cd6 Cd 0.28255(2) 1.250773(18) 0.002451(13)
Cd7 Cd 0.39405(3) 1.241949(18) 0.089717(13)
Cd8 Cd 0.82921(2) 0.786614(18) 0.082208(13)
O27 O 0.7080(3) 0.73289(19) 0.09613(14)
O28 O 0.6855(2) 0.80394(18) 0.05527(13)
O29 O 0.3880(3) 0.3386(2) 0.08956(16)
O30 O 0.2736(3) 0.3139(2) 0.05051(16)
O31 O 0.3347(3) 1.15691(18) 0.08033(14)
O32 O 0.2416(3) 1.1697(2) 0.02945(14)
O33 O 0.4256(3) 1.23379(19) 0.02947(14)
O34 O 0.4046(3) 1.3049(2) -0.01154(15)
O35 O 0.7230(3) 1.69683(18) -0.00354(15)
O36 O 0.8382(3) 1.7224(2) 0.03525(16)
O37 O 0.7740(3) 0.88001(18) 0.00405(13)
O38 O 0.8706(3) 0.86629(19) 0.05367(14)
O39 O 0.3457(3) 1.2417(2) 0.14557(15)
H99 H 0.29120 1.23480 0.14300
H100 H 0.35480 1.27540 0.15640
O40 O 0.5261(3) 1.2207(2) 0.11287(15)
H101 H 0.54050 1.18670 0.10520
H102 H 0.53080 1.22000 0.13670
O41 O 0.2923(3) 1.2015(2) -0.05088(13)
H103 H 0.33420 1.17580 -0.04800
H104 H 0.30220 1.22570 -0.06860
O42 O 0.1536(3) 1.2800(2) -0.02197(15)
H105 H 0.13100 1.25520 -0.03890
O43 O 0.7703(3) 0.79705(19) -0.05932(14)
H106 H 0.76500 0.83160 -0.06850
H107 H 0.74320 0.77290 -0.07460
O44 O 0.5838(3) 0.8138(3) -0.02916(16)
H108 H 0.54610 0.79440 -0.01800
H109 H 0.57530 0.80400 -0.05280
O45 O 0.9572(3) 0.75386(19) 0.10541(14)
H110 H 0.98220 0.73650 0.08850
H111 H 0.95280 0.72870 0.12300
O46 O 0.8222(3) 0.8375(2) 0.13491(13)
H112 H 0.86860 0.85720 0.14090
H113 H 0.81570 0.81370 0.15270
N9 N 0.2978(3) 0.7475(2) 0.07354(17)
N10 N 0.8146(3) 1.2892(2) 0.01231(17)
C151 C 0.6588(4) 0.7650(3) 0.07567(17)
C152 C 0.5631(4) 0.7589(3) 0.07479(18)
C153 C 0.5287(3) 0.7195(3) 0.09782(18)
H114 H 0.56480 0.69520 0.11310
C154 C 0.4422(4) 0.7161(3) 0.09829(19)
H115 H 0.42020 0.69040 0.11430
C155 C 0.3871(3) 0.7514(3) 0.07464(18)
C156 C 0.4213(4) 0.7905(3) 0.05075(19)
H116 H 0.38550 0.81340 0.03440
C157 C 0.5100(4) 0.7946(3) 0.05189(19)
H117 H 0.53310 0.82160 0.03700
C158 C 0.2489(4) 0.6957(3) 0.06770(19)
C159 C 0.2758(4) 0.6379(3) 0.06978(19)
H118 H 0.33290 0.62880 0.07670
C160 C 0.2158(4) 0.5941(3) 0.06140(19)
C161 C 0.1297(4) 0.6094(3) 0.0523(2)
H119 H 0.08990 0.57980 0.04690
C162 C 0.1017(4) 0.6662(3) 0.05085(19)
H120 H 0.04420 0.67510 0.04490
C163 C 0.1633(4) 0.7109(3) 0.05880(19)
C164 C 0.1579(4) 0.7737(3) 0.0582(2)
C165 C 0.0903(4) 0.8132(3) 0.04948(19)
H121 H 0.03480 0.79960 0.04340
C166 C 0.1073(4) 0.8721(3) 0.0500(2)
H122 H 0.06290 0.89840 0.04390
C167 C 0.1909(4) 0.8934(3) 0.05969(19)
C168 C 0.2576(4) 0.8546(3) 0.06926(19)
H123 H 0.31220 0.86820 0.07720
C169 C 0.2410(4) 0.7949(3) 0.06675(19)
C170 C 0.2440(4) 0.5316(3) 0.06273(19)
C171 C 0.3044(4) 0.5114(3) 0.09107(18)
H124 H 0.32790 0.53710 0.10930
C172 C 0.3295(4) 0.4537(3) 0.0922(2)
H125 H 0.37080 0.44080 0.11090
C173 C 0.2934(4) 0.4147(3) 0.0655(2)
C174 C 0.2319(4) 0.4338(3) 0.03727(19)
H126 H 0.20670 0.40760 0.01970
C175 C 0.2086(4) 0.4923(3) 0.03570(19)
H127 H 0.16910 0.50550 0.01640
C176 C 0.3191(4) 0.3509(3) 0.0682(2)
C177 C 0.2103(4) 0.9569(3) 0.05974(18)
C178 C 0.1664(4) 0.9944(3) 0.03340(19)
H128 H 0.12190 0.97970 0.01690
C179 C 0.1885(4) 1.0528(3) 0.03165(18)
H129 H 0.15970 1.07690 0.01370
C180 C 0.2540(4) 1.0755(3) 0.05687(18)
C181 C 0.2965(4) 1.0389(3) 0.08376(18)
H130 H 0.33960 1.05390 0.10090
C182 C 0.2749(4) 0.9810(3) 0.08505(18)
H131 H 0.30390 0.95720 0.10310
C183 C 0.2785(4) 1.1396(3) 0.05524(19)
C184 C 0.4535(4) 1.2736(3) 0.00944(18)
C185 C 0.5483(4) 1.2790(3) 0.01026(18)
C186 C 0.6024(4) 1.2425(3) 0.03302(19)
H132 H 0.57930 1.21500 0.04760
C187 C 0.6902(4) 1.2464(3) 0.0344(2)
H133 H 0.72570 1.22320 0.05070
C188 C 0.7250(4) 1.2856(3) 0.01091(19)
C189 C 0.6703(4) 1.3217(3) -0.0120(2)
H134 H 0.69250 1.34780 -0.02780
C190 C 0.5836(4) 1.3189(3) -0.01150(19)
H135 H 0.54810 1.34450 -0.02610
C191 C 0.8629(4) 1.3394(3) 0.01650(19)
C192 C 0.8361(4) 1.3984(3) 0.01544(19)
H136 H 0.77870 1.40770 0.00950
C193 C 0.8959(4) 1.4422(3) 0.02327(18)
C194 C 0.9837(4) 1.4265(3) 0.03229(19)
H137 H 1.02410 1.45580 0.03770
C195 C 1.0092(4) 1.3703(3) 0.03320(19)
H138 H 1.06660 1.36140 0.03920
C196 C 0.9491(4) 1.3249(3) 0.02506(18)
C197 C 0.9549(4) 1.2628(3) 0.0263(2)
C198 C 1.0220(4) 1.2230(3) 0.0334(2)
H139 H 1.07800 1.23600 0.03840
C199 C 1.0034(3) 1.1642(3) 0.03271(18)
H140 H 1.04770 1.13770 0.03820
C200 C 0.9201(4) 1.1426(3) 0.02410(18)
C201 C 0.8526(4) 1.1824(3) 0.0159(2)
H141 H 0.79710 1.16930 0.00950
C202 C 0.8704(4) 1.2411(3) 0.0177(2)
C203 C 0.8685(4) 1.5039(3) 0.02275(19)
C204 C 0.8051(4) 1.5244(3) -0.00450(19)
H142 H 0.78030 1.49870 -0.02240
C205 C 0.7786(4) 1.5817(3) -0.00542(19)
H143 H 0.73460 1.59380 -0.02320
C206 C 0.8174(4) 1.6220(3) 0.02015(18)
C207 C 0.8798(4) 1.6027(3) 0.0473(2)
H144 H 0.90550 1.62900 0.06470
C208 C 0.9046(4) 1.5448(3) 0.0490(2)
H145 H 0.94580 1.53270 0.06790
C209 C 0.7908(4) 1.6852(3) 0.0172(2)
C210 C 0.9015(3) 1.0793(3) 0.02450(18)
C211 C 0.9461(4) 1.0421(3) 0.05056(19)
H146 H 0.99090 1.05650 0.06710
C212 C 0.9231(4) 0.9834(3) 0.05156(19)
H147 H 0.95260 0.95910 0.06920
C213 C 0.8570(4) 0.9598(3) 0.02690(19)
C214 C 0.8136(4) 0.9971(3) -0.00014(18)
H148 H 0.77030 0.98230 -0.01730
C215 C 0.8356(4) 1.0556(3) -0.00112(18)
H149 H 0.80660 1.07980 -0.01900
C216 C 0.8326(3) 0.8967(2) 0.02879(18)
Cd9 Cd 0.83191(3) 1.51776(2) 0.277739(15)
O47 O 0.8883(4) 1.4265(2) 0.27942(19)
O48 O 0.7195(4) 1.4676(3) 0.2954(2)
O49 O 0.7617(4) 1.5180(2) 0.22011(18)
H150 H 0.74680 1.48130 0.21180
O50 O 0.7922(3) 1.6140(2) 0.27956(16)
H151 H 0.76000 1.61960 0.29680
O51 O 0.9583(3) 1.5533(3) 0.26105(17)
H152 H 0.99080 1.52450 0.25580
H153 H 0.98600 1.57340 0.27900
N11 N 0.8828(4) 1.5253(2) 0.3392(2)
N12 N 0.8538(5) 1.3406(3) 0.3005(3)
N13 N 0.5991(5) 1.4334(4) 0.3126(3)
N14 N 1.0388(5) 1.5199(4) 0.5301(2)
C217 C 0.5115(7) 1.4374(7) 0.3207(4)
H154 H 0.50630 1.41700 0.34320
H155 H 0.47390 1.42020 0.30090
H156 H 0.49660 1.47770 0.32330
C218 C 0.6338(8) 1.3756(5) 0.3171(4)
H157 H 0.63360 1.35780 0.29330
H158 H 0.59980 1.35260 0.33160
H159 H 0.69120 1.37760 0.32930
C219 C 0.6454(5) 1.4780(4) 0.3025(3)
C220 C 0.6072(6) 1.5396(5) 0.2974(3)
H160 H 0.59890 1.55540 0.32100
H161 H 0.55340 1.53760 0.28190
H162 H 0.64540 1.56430 0.28610
C221 C 0.9589(5) 1.5069(3) 0.3515(2)
H163 H 0.99280 1.49250 0.33460
C222 C 0.9924(5) 1.5075(3) 0.3888(2)
H164 H 1.04710 1.49330 0.39600
C223 C 0.9464(4) 1.5283(3) 0.4145(2)
C224 C 0.8637(5) 1.5502(3) 0.4022(2)
H165 H 0.83030 1.56650 0.41860
C225 C 0.8337(5) 1.5466(3) 0.3639(2)
H166 H 0.77870 1.55930 0.35550
C226 C 1.0893(6) 1.5163(4) 0.5049(2)
H167 H 1.14710 1.51120 0.51270
C227 C 1.0641(5) 1.5193(4) 0.4682(3)
H168 H 1.10440 1.51640 0.45190
C228 C 0.9766(4) 1.5270(3) 0.4543(2)
C229 C 0.9241(7) 1.5301(6) 0.4807(3)
H169 H 0.86580 1.53500 0.47400
C230 C 0.9570(9) 1.5261(7) 0.5170(4)
H170 H 0.91850 1.52780 0.53410
C231 C 0.8145(9) 1.2818(5) 0.2962(4)
H171 H 0.84490 1.25840 0.28050
H172 H 0.75610 1.28540 0.28540
H173 H 0.81700 1.26340 0.31990
C232 C 0.9014(6) 1.3535(5) 0.3373(3)
H174 H 0.87460 1.33400 0.35590
H175 H 0.90140 1.39490 0.34150
H176 H 0.95900 1.33990 0.33810
C233 C 0.8511(8) 1.3783(4) 0.2740(3)
C234 C 0.8080(9) 1.3618(6) 0.2365(4)
H177 H 0.79540 1.39650 0.22200
H178 H 0.75610 1.34140 0.23880
H179 H 0.84500 1.33700 0.22460
O52 O 1.1157(5) 0.5026(4) 0.2658(3)
N15 N 1.2181(7) 0.4353(5) 0.2705(3)
C235 C 1.2809(7) 0.4854(5) 0.2837(4)
H180 H 1.26120 0.52130 0.27190
H181 H 1.33640 0.47630 0.27750
H182 H 1.28390 0.48970 0.30990
C236 C 1.2495(9) 0.3759(6) 0.2709(4)
H183 H 1.31050 0.37620 0.27270
H184 H 1.22620 0.35640 0.24860
H185 H 1.23250 0.35550 0.29170
C237 C 1.1431(8) 0.4525(6) 0.2621(4)
C238 C 1.0783(9) 0.3999(6) 0.2496(3)
H186 H 1.07500 0.37420 0.27010
H187 H 1.09850 0.37850 0.22990
H188 H 1.02290 0.41550 0.24130
O53 O 0.9692(5) 0.9383(3) 0.2935(2)
N16 N 0.9015(5) 0.8691(4) 0.3244(2)
C239 C 0.8849(8) 0.9735(6) 0.3393(3)
H189 H 0.89990 0.96630 0.36520
H190 H 0.82400 0.97450 0.33350
H191 H 0.90820 1.01030 0.33300
C240 C 0.9206(5) 0.9253(4) 0.3175(3)
C241 C 0.9422(8) 0.8234(5) 0.3072(4)
H192 H 0.96140 0.83780 0.28500
H193 H 0.90260 0.79200 0.30120
H194 H 0.99010 0.80950 0.32370
C242 C 0.8480(7) 0.8558(5) 0.3532(3)
H195 H 0.88180 0.85800 0.37690
H196 H 0.82500 0.81710 0.34950
H197 H 0.80230 0.88350 0.35200
O54 O 0.3223(4) 0.8845(3) 0.2934(2)
N17 N 0.2730(7) 0.9723(5) 0.2831(3)
C243 C 0.1994(7) 0.9498(6) 0.2621(3)
H198 H 0.21160 0.91200 0.25270
H199 H 0.18160 0.97570 0.24190
H200 H 0.15470 0.94640 0.27740
C244 C 0.2838(9) 1.0389(5) 0.2884(4)
H201 H 0.32580 1.04650 0.30930
H202 H 0.23040 1.05580 0.29260
H203 H 0.30200 1.05580 0.26670
C245 C 0.3303(7) 0.9362(5) 0.2982(3)
C246 C 0.4089(7) 0.9653(7) 0.3215(3)
H204 H 0.44550 0.93550 0.33330
H205 H 0.38970 0.99020 0.33990
H206 H 0.43970 0.98820 0.30570
O55 O 0.6400(6) 0.9564(4) 0.2913(3)
N18 N 0.7347(6) 0.9304(4) 0.2540(3)
C247 C 0.6543(9) 0.8528(6) 0.2756(4)
H207 H 0.64290 0.83720 0.25110
H208 H 0.60480 0.84840 0.28790
H209 H 0.70130 0.83210 0.28900
C248 C 0.7768(7) 0.8909(5) 0.2310(3)
H210 H 0.75630 0.85190 0.23370
H211 H 0.83720 0.89210 0.23850
H212 H 0.76460 0.90280 0.20570
C249 C 0.7595(9) 0.9950(5) 0.2519(3)
H213 H 0.71000 1.01890 0.25270
H214 H 0.78240 1.00210 0.22930
H215 H 0.80160 1.00440 0.27240
C250 C 0.6769(8) 0.9181(5) 0.2736(3)
O56 O -0.3855(4) 1.1259(3) 0.0980(2)
N19 N -0.2743(6) 1.0778(3) 0.1249(2)
C251 C -0.3932(8) 1.0815(6) 0.1579(4)
H216 H -0.36060 1.09710 0.17970
H217 H -0.39690 1.03980 0.16010
H218 H -0.44950 1.09800 0.15510
C252 C -0.3492(7) 1.0971(5) 0.1240(3)
C253 C -0.2266(5) 1.0951(4) 0.0949(3)
H219 H -0.26560 1.10780 0.07420
H220 H -0.19440 1.06230 0.08790
H221 H -0.18850 1.12650 0.10310
C254 C -0.2262(6) 1.0428(4) 0.1555(3)
H222 H -0.24570 1.05300 0.17850
H223 H -0.16650 1.05110 0.15690
H224 H -0.23580 1.00190 0.15080
O57 O 0.9364(4) 0.8597(3) 0.44758(18)
N20 N 1.0556(4) 0.8990(3) 0.4766(2)
C255 C 1.1073(6) 0.8796(5) 0.4483(3)
H225 H 1.14230 0.84720 0.45760
H226 H 1.14290 0.91110 0.44220
H227 H 1.07040 0.86770 0.42660
C256 C 1.1044(5) 0.9289(5) 0.5078(3)
H228 H 1.09540 0.97030 0.50540
H229 H 1.16390 0.92050 0.50820
H230 H 1.08590 0.91570 0.53030
C257 C 0.9744(5) 0.8867(3) 0.4741(2)
C258 C 0.9256(5) 0.9065(3) 0.5049(2)
H231 H 0.86690 0.89550 0.49930
H232 H 0.92970 0.94820 0.50740
H233 H 0.94950 0.88840 0.52760
O58 O 0.4937(4) -0.0941(3) -0.0132(2)
N21 N 0.3785(4) -0.0460(3) -0.0411(2)
C259 C 0.5069(7) -0.0472(5) -0.0715(3)
H234 H 0.48490 -0.06830 -0.09340
H235 H 0.56610 -0.05640 -0.06500
H236 H 0.50060 -0.00600 -0.07590
C260 C 0.4582(6) -0.0646(4) -0.0402(3)
C261 C 0.3315(6) -0.0647(4) -0.0103(3)
H237 H 0.35870 -0.09840 0.00160
H238 H 0.27380 -0.07410 -0.01990
H239 H 0.33180 -0.03350 0.00730
C262 C 0.3344(5) -0.0120(4) -0.0702(3)
H240 H 0.36670 0.02250 -0.07380
H241 H 0.27960 -0.00100 -0.06400
H242 H 0.32720 -0.03460 -0.09250
O59 O 0.8599(6) 1.3868(5) 0.4200(2)
N22 N 0.9722(5) 1.3620(3) 0.4608(2)
C263 C 0.8361(6) 1.3826(6) 0.4822(3)
H243 H 0.85320 1.35430 0.50110
H244 H 0.77810 1.37560 0.47190
H245 H 0.84100 1.42120 0.49260
C264 C 0.8902(6) 1.3779(4) 0.4538(3)
C265 C 1.0096(8) 1.3493(6) 0.4983(3)
H246 H 1.05910 1.32520 0.49780
H247 H 0.96880 1.32900 0.51080
H248 H 1.02560 1.38510 0.51090
C266 C 1.0297(6) 1.3580(4) 0.4327(3)
H249 H 1.04410 1.31780 0.42930
H250 H 1.08060 1.37990 0.44050
H251 H 1.00200 1.37360 0.40990
O60 O 0.6322(4) 0.5778(3) 0.18055(18)
N23 N 0.6230(6) 0.5764(4) 0.1199(3)
C267 C 0.5335(5) 0.5542(4) 0.1198(3)
H252 H 0.49380 0.58500 0.11210
H253 H 0.52570 0.54160 0.14410
H254 H 0.52380 0.52190 0.10300
C268 C 0.6605(6) 0.5864(4) 0.0846(3)
H255 H 0.71200 0.56410 0.08510
H256 H 0.67300 0.62720 0.08230
H257 H 0.62040 0.57430 0.06410
C269 C 0.6686(6) 0.5863(4) 0.1498(4)
C270 C 0.7573(5) 0.6103(4) 0.1503(3)
H258 H 0.78270 0.61580 0.17540
H259 H 0.75470 0.64710 0.13760
H260 H 0.79100 0.58330 0.13830
O61 O 0.6750(4) 0.8963(3) 0.13527(18)
N24 N 0.5551(4) 0.9365(3) 0.1059(2)
C271 C 0.6837(5) 0.9428(3) 0.0770(2)
H261 H 0.67390 0.98370 0.07240
H262 H 0.66330 0.92100 0.05520
H263 H 0.74360 0.93600 0.08350
C272 C 0.6376(5) 0.9239(3) 0.1077(2)
C273 C 0.5085(6) 0.9661(4) 0.0743(3)
H264 H 0.51310 1.00760 0.07780
H265 H 0.44960 0.95480 0.07190
H266 H 0.53210 0.95530 0.05240
C274 C 0.5075(5) 0.9198(5) 0.1353(3)
H267 H 0.54410 0.89900 0.15390
H268 H 0.46090 0.89510 0.12560
H269 H 0.48580 0.95420 0.14590
O62 O -0.2473(4) 0.4458(3) 0.16145(18)
N25 N -0.3377(7) 0.4042(5) 0.1173(3)
C275 C -0.3909(9) 0.4077(7) 0.1728(4)
H270 H -0.40040 0.36630 0.17350
H271 H -0.43940 0.42640 0.15920
H272 H -0.38270 0.42280 0.19760
C276 C -0.4080(8) 0.3750(7) 0.0945(4)
H273 H -0.40810 0.33430 0.10070
H274 H -0.40100 0.37940 0.06900
H275 H -0.46100 0.39240 0.09890
C277 C -0.3121(7) 0.4200(7) 0.1544(4)
C278 C -0.2579(9) 0.4160(7) 0.0969(4)
Cd1* Cd -0.03144(2) -0.274156(18) 0.206692(13)
Cd2* Cd 0.64496(2) 1.697413(18) 0.375948(13)
Cd3* Cd 1.11555(3) 0.19566(2) 0.352911(15)
Cd4* Cd -0.49410(3) 0.24296(2) 0.235827(15)
O5* O -0.4918(4) 1.3403(2) 0.23985(19)
O6* O -0.6088(4) 1.3088(3) 0.20677(19)
O7* O -0.4216(3) 1.2522(2) 0.18109(15)
O8* O -0.3469(3) 1.2362(3) 0.23547(16)
O11* O 0.0198(3) 0.79795(18) 0.16966(14)
O12* O -0.0252(3) 0.83065(18) 0.21973(14)
O15* O 1.1089(4) 1.2975(2) 0.3398(2)
O16* O 1.2132(3) 1.2645(2) 0.38064(16)
O23* O 0.6469(3) 0.5979(2) 0.38008(18)
O24* O 0.6029(3) 0.6311(2) 0.43061(19)
Cd5* Cd 0.71591(3) 1.793842(18) -0.004631(13)
Cd6* Cd 0.28255(2) 0.250773(18) 0.002451(13)
Cd7* Cd 0.39405(3) 0.241949(18) 0.089717(13)
Cd8* Cd 0.82921(2) 1.786614(18) 0.082208(13)
O29* O 0.3880(3) 1.3386(2) 0.08956(16)
O30* O 0.2736(3) 1.3139(2) 0.05051(16)
O35* O 0.7230(3) 0.69683(18) -0.00354(15)
O36* O 0.8382(3) 0.7224(2) 0.03525(16)
#END
