
#######################################################################
#
#                 Cambridge Crystallographic Data Centre
#                                CCDC
#
#######################################################################
#
# If this CIF has been generated from an entry in the Cambridge
# Structural Database, then it will include bibliographic, chemical,
# crystal, experimental, refinement or atomic coordinate data resulting
# from the CCDC's data processing and validation procedures.
#
#######################################################################

data_CSD_CIF_VANNIK
_audit_creation_date 2017-04-28
_audit_creation_method CSD-ConQuest-V1
_database_code_CSD VANNIK
_database_code_depnum_ccdc_archive 'CCDC 1499661'
_chemical_formula_sum 'C119 H336 N12 O140 U4'
_chemical_formula_moiety
;
4(C2 H8 N1 1+),n(C87 H48 O32 U4 4-),8(C3 H7 N1 O1),100(H2 O1)
;
_journal_coden_Cambridge 1220
_journal_volume 23
_journal_year 2017
_journal_page_first 529
_journal_name_full 'Chem.-Eur.J. '
loop_
_publ_author_name
"Kong-Qiu Hu"
"Xiang Jiang"
"Cong-Zhi Wang"
"Lei Mei"
"Zhen-Ni Xie"
"Wu-Qing Tao"
"Xiao-Lin Zhang"
"Zhi-Fang Chai"
"Wei-Qun Shi"
_chemical_name_systematic
;
catena-[tetrakis(Dimethylammonium) 
tris(\m-tetrakis(4-carboxylatophenyl)methane)-octa-oxo-tetra-uranium 
N,N-dimethylformamide solvate hectahydrate]
;
_cell_volume  33057.926
_exptl_crystal_colour 'yellow'
_exptl_crystal_description 'polyhedron'
_diffrn_ambient_temperature 170
_diffrn_special_details
;
twin

;
_refine_special_details
;
Disordered cation and solvent molecules were not modelled and the disordered 
density was taken into account using the SQUEEZE/PLATON procedure.
;
#These two values have been output from a single CSD field.
_refine_ls_R_factor_gt 0.0403
_refine_ls_wR_factor_gt 0.0403
_symmetry_cell_setting cubic
_symmetry_space_group_name_H-M 'I -4 3 d'
_symmetry_Int_Tables_number 220
loop_
_symmetry_equiv_pos_site_id
_symmetry_equiv_pos_as_xyz
1 x,y,z
2 1/2-x,-y,1/2+z
3 -x,1/2+y,1/2-z
4 1/2+x,1/2-y,-z
5 z,x,y
6 1/2+z,1/2-x,-y
7 1/2-z,-x,1/2+y
8 -z,1/2+x,1/2-y
9 y,z,x
10 -y,1/2+z,1/2-x
11 1/2+y,1/2-z,-x
12 1/2-y,-z,1/2+x
13 1/4+y,1/4+x,1/4+z
14 1/4-y,3/4-x,3/4+z
15 3/4+y,1/4-x,3/4-z
16 3/4-y,3/4+x,1/4-z
17 1/4+x,1/4+z,1/4+y
18 3/4-x,3/4+z,1/4-y
19 1/4-x,3/4-z,3/4+y
20 3/4+x,1/4-z,3/4-y
21 1/4+z,1/4+y,1/4+x
22 3/4+z,1/4-y,3/4-x
23 3/4-z,3/4+y,1/4-x
24 1/4-z,3/4-y,3/4+x
25 1/2+x,1/2+y,1/2+z
26 -x,1/2-y,z
27 1/2-x,y,-z
28 x,-y,1/2-z
29 1/2+z,1/2+x,1/2+y
30 z,-x,1/2-y
31 -z,1/2-x,y
32 1/2-z,x,-y
33 1/2+y,1/2+z,1/2+x
34 1/2-y,z,-x
35 y,-z,1/2-x
36 -y,1/2-z,x
37 3/4+y,3/4+x,3/4+z
38 3/4-y,1/4-x,1/4+z
39 1/4+y,3/4-x,1/4-z
40 1/4-y,1/4+x,3/4-z
41 3/4+x,3/4+z,3/4+y
42 1/4-x,1/4+z,3/4-y
43 3/4-x,1/4-z,1/4+y
44 1/4+x,3/4-z,1/4-y
45 3/4+z,3/4+y,3/4+x
46 1/4+z,3/4-y,1/4-x
47 1/4-z,1/4+y,3/4-x
48 3/4-z,1/4-y,1/4+x
_cell_length_a 32.0941(9)
_cell_length_b 32.0941(9)
_cell_length_c 32.0941(9)
_cell_angle_alpha 90
_cell_angle_beta 90
_cell_angle_gamma 90
_cell_formula_units_Z 6
loop_
_atom_type_symbol
_atom_type_radius_bond
C 0.68
H 0.23
O 0.68
U 1.96
loop_
_atom_site_label
_atom_site_type_symbol
_atom_site_fract_x
_atom_site_fract_y
_atom_site_fract_z
O1 O 0.8965(2) 0.5175(2) 0.4962(2)
U1 U 0.95755(2) 0.54245(2) 0.45755(2)
C1 C 0.75000 0.37500 0.50000
O2 O 0.91371(18) 0.48141(19) 0.44098(17)
C2 C 0.7876(2) 0.40476(17) 0.49090(19)
C3 C 0.7964(2) 0.43600(19) 0.5194(2)
H1 H 0.77980 0.43880 0.54370
O3 O 0.92711(14) 0.57289(14) 0.42711(14)
C4 C 0.8548(2) 0.4577(2) 0.4785(2)
C5 C 0.8287(2) 0.4626(2) 0.5128(2)
H2 H 0.83340 0.48490 0.53170
C6 C 0.8446(2) 0.4270(2) 0.4510(3)
H3 H 0.86040 0.42470 0.42610
C7 C 0.8917(3) 0.4879(3) 0.4709(2)
C8 C 0.8135(2) 0.3999(2) 0.4572(3)
H4 H 0.80940 0.37740 0.43830
O4 O 0.98837(16) 0.51163(16) 0.48837(16)
O1W O 0.7538(2) 0.2325(2) 0.6465(2)
O2W O 0.80902(18) 0.26859(19) 0.66371(17)
C2W C 0.7591(2) 0.34524(17) 0.53760(19)
C3W C 0.7306(2) 0.31400(19) 0.5464(2)
H1W H 0.70630 0.31120 0.52980
C4W C 0.7715(2) 0.2923(2) 0.6048(2)
C5W C 0.7372(2) 0.2874(2) 0.5787(2)
H2W H 0.71830 0.26510 0.58340
C6W C 0.7990(2) 0.3230(2) 0.5946(3)
H3W H 0.82390 0.32530 0.61040
C7W C 0.7791(3) 0.2621(3) 0.6417(2)
C8W C 0.7928(2) 0.3501(2) 0.5635(3)
H4W H 0.81170 0.37260 0.55940
O1Z O 0.6035(2) 0.5175(2) 0.5038(2)
O2Z O 0.58629(18) 0.48141(19) 0.55902(17)
C2Z C 0.7124(2) 0.40476(17) 0.50910(19)
C3Z C 0.7036(2) 0.43600(19) 0.4806(2)
H1Z H 0.72020 0.43880 0.45630
C4Z C 0.6452(2) 0.4577(2) 0.5215(2)
C5Z C 0.6713(2) 0.4626(2) 0.4872(2)
H2Z H 0.66660 0.48490 0.46830
C6Z C 0.6554(2) 0.4270(2) 0.5490(3)
H3Z H 0.63960 0.42470 0.57390
C7Z C 0.6083(3) 0.4879(3) 0.5291(2)
C8Z C 0.6865(2) 0.3999(2) 0.5428(3)
H4Z H 0.69060 0.37740 0.56170
O1SA O 0.7462(2) 0.2325(2) 0.3535(2)
O2SA O 0.69098(18) 0.26859(19) 0.33629(17)
C2SA C 0.7409(2) 0.34524(17) 0.46240(19)
C3SA C 0.7694(2) 0.31400(19) 0.4536(2)
H1SA H 0.79370 0.31120 0.47020
C4SA C 0.7285(2) 0.2923(2) 0.3952(2)
C5SA C 0.7628(2) 0.2874(2) 0.4213(2)
H2SA H 0.78170 0.26510 0.41660
C6SA C 0.7010(2) 0.3230(2) 0.4054(3)
H3SA H 0.67610 0.32530 0.38960
C7SA C 0.7209(3) 0.2621(3) 0.3583(2)
C8SA C 0.7072(2) 0.3501(2) 0.4365(3)
H4SA H 0.68830 0.37260 0.44060
O1E O 0.9962(2) 0.6035(2) 0.4825(2)
C1E C 1.00000 0.75000 0.62500
O2E O 0.94098(18) 0.58629(19) 0.51859(17)
C2E C 0.9909(2) 0.71240(17) 0.59524(19)
C3E C 1.0194(2) 0.70360(19) 0.5640(2)
H1E H 1.04370 0.72020 0.56120
C4E C 0.9785(2) 0.6452(2) 0.5423(2)
C5E C 1.0128(2) 0.6713(2) 0.5374(2)
H2E H 1.03170 0.66660 0.51510
C6E C 0.9510(2) 0.6554(2) 0.5730(3)
H3E H 0.92610 0.63960 0.57530
C7E C 0.9709(3) 0.6083(3) 0.5121(2)
C8E C 0.9572(2) 0.6865(2) 0.6001(3)
H4E H 0.93830 0.69060 0.62260
O1P O 1.1465(2) 0.7462(2) 0.7675(2)
O2P O 1.16371(18) 0.69098(19) 0.73141(17)
C2P C 1.0376(2) 0.74090(17) 0.65476(19)
C3P C 1.0464(2) 0.76940(19) 0.6860(2)
H1P H 1.02980 0.79370 0.68880
C4P C 1.1048(2) 0.7285(2) 0.7077(2)
C5P C 1.0787(2) 0.7628(2) 0.7126(2)
H2P H 1.08340 0.78170 0.73490
C6P C 1.0946(2) 0.7010(2) 0.6770(3)
H3P H 1.11040 0.67610 0.67470
C7P C 1.1417(3) 0.7209(3) 0.7379(2)
C8P C 1.0635(2) 0.7072(2) 0.6499(3)
H4P H 1.05940 0.68830 0.62740
O1EA O 1.0038(2) 0.8965(2) 0.4825(2)
O2EA O 1.05902(18) 0.91371(19) 0.51859(17)
C2EA C 1.0091(2) 0.78760(17) 0.59524(19)
C3EA C 0.9806(2) 0.79640(19) 0.5640(2)
H1EA H 0.95630 0.77980 0.56120
C4EA C 1.0215(2) 0.8548(2) 0.5423(2)
C5EA C 0.9872(2) 0.8287(2) 0.5374(2)
H2EA H 0.96830 0.83340 0.51510
C6EA C 1.0490(2) 0.8446(2) 0.5730(3)
H3EA H 1.07390 0.86040 0.57530
C7EA C 1.0291(3) 0.8917(3) 0.5121(2)
C8EA C 1.0428(2) 0.8135(2) 0.6001(3)
H4EA H 1.06170 0.80940 0.62260
O1PA O 0.8535(2) 0.7538(2) 0.7675(2)
O2PA O 0.83629(18) 0.80902(19) 0.73141(17)
C2PA C 0.9624(2) 0.75910(17) 0.65476(19)
C3PA C 0.9536(2) 0.73060(19) 0.6860(2)
H1PA H 0.97020 0.70630 0.68880
C4PA C 0.8952(2) 0.7715(2) 0.7077(2)
C5PA C 0.9213(2) 0.7372(2) 0.7126(2)
H2PA H 0.91660 0.71830 0.73490
C6PA C 0.9054(2) 0.7990(2) 0.6770(3)
H3PA H 0.88960 0.82390 0.67470
C7PA C 0.8583(3) 0.7791(3) 0.7379(2)
C8PA C 0.9365(2) 0.7928(2) 0.6499(3)
H4PA H 0.94060 0.81170 0.62740
O1K O 0.9825(2) 0.5038(2) 0.3965(2)
C1K C 1.12500 0.50000 0.25000
O2K O 1.01859(18) 0.55902(19) 0.41371(17)
C2K C 1.09524(20) 0.50910(17) 0.28760(19)
C3K C 1.0640(2) 0.48060(19) 0.2964(2)
H1K H 1.06120 0.45630 0.27980
C4K C 1.0423(2) 0.5215(2) 0.3548(2)
C5K C 1.0374(2) 0.4872(2) 0.3287(2)
H2K H 1.01510 0.46830 0.33340
C6K C 1.0730(2) 0.5490(2) 0.3446(3)
H3K H 1.07530 0.57390 0.36040
C7K C 1.0121(3) 0.5291(3) 0.3917(2)
C8K C 1.1001(2) 0.5428(2) 0.3135(3)
H4K H 1.12260 0.56170 0.30940
O1N O 1.2675(2) 0.3535(2) 0.2538(2)
O2N O 1.23141(18) 0.33629(19) 0.30902(17)
C2N C 1.15476(20) 0.46240(17) 0.25910(19)
C3N C 1.1860(2) 0.45360(19) 0.2306(2)
H1N H 1.18880 0.47020 0.20630
C4N C 1.2077(2) 0.3952(2) 0.2715(2)
C5N C 1.2126(2) 0.4213(2) 0.2372(2)
H2N H 1.23490 0.41660 0.21830
C6N C 1.1770(2) 0.4054(2) 0.2990(3)
H3N H 1.17470 0.38960 0.32390
C7N C 1.2379(3) 0.3583(3) 0.2791(2)
C8N C 1.1499(2) 0.4365(2) 0.2928(3)
H4N H 1.12740 0.44060 0.31170
O1GA O 0.9825(2) 0.4962(2) 0.1035(2)
O2GA O 1.01859(18) 0.44098(19) 0.08629(17)
C2GA C 1.09524(20) 0.49090(17) 0.21240(19)
C3GA C 1.0640(2) 0.51940(19) 0.2036(2)
H1GA H 1.06120 0.54370 0.22020
C4GA C 1.0423(2) 0.4785(2) 0.1452(2)
C5GA C 1.0374(2) 0.5128(2) 0.1713(2)
H2GA H 1.01510 0.53170 0.16660
C6GA C 1.0730(2) 0.4510(2) 0.1554(3)
H3GA H 1.07530 0.42610 0.13960
C7GA C 1.0121(3) 0.4709(3) 0.1083(2)
C8GA C 1.1001(2) 0.4572(2) 0.1865(3)
H4GA H 1.12260 0.43830 0.19060
O1JA O 1.2675(2) 0.6465(2) 0.2462(2)
O2JA O 1.23141(18) 0.66371(19) 0.19098(17)
C2JA C 1.15476(20) 0.53760(17) 0.24090(19)
C3JA C 1.1860(2) 0.54640(19) 0.2694(2)
H1JA H 1.18880 0.52980 0.29370
C4JA C 1.2077(2) 0.6048(2) 0.2285(2)
C5JA C 1.2126(2) 0.5787(2) 0.2628(2)
H2JA H 1.23490 0.58340 0.28170
C6JA C 1.1770(2) 0.5946(2) 0.2010(3)
H3JA H 1.17470 0.61040 0.17610
C7JA C 1.2379(3) 0.6417(3) 0.2209(2)
C8JA C 1.1499(2) 0.5635(2) 0.2072(3)
H4JA H 1.12740 0.55940 0.18830
U1N U 1.29245(2) 0.29245(2) 0.29245(2)
O3N O 1.32289(14) 0.32289(14) 0.32289(14)
O4N O 1.26163(16) 0.26163(16) 0.26163(16)
U1L U 0.79245(2) 0.20755(2) 0.70755(2)
O3L O 0.82289(14) 0.17711(14) 0.67711(14)
O4L O 0.76163(16) 0.23837(16) 0.73837(16)
U1Z U 0.54245(2) 0.54245(2) 0.54245(2)
O3Z O 0.57289(14) 0.57289(14) 0.57289(14)
O4Z O 0.51163(16) 0.51163(16) 0.51163(16)
O1L O 0.7675(2) 0.1465(2) 0.7462(2)
O1Q O 0.8535(2) 0.2462(2) 0.7325(2)
O1R O 1.3535(2) 0.2538(2) 0.2675(2)
O1V O 1.2538(2) 0.2675(2) 0.3535(2)
O1DA O 0.5038(2) 0.6035(2) 0.5175(2)
O1HA O 0.5175(2) 0.5038(2) 0.6035(2)
U1O U 1.20755(2) 0.70755(2) 0.79245(2)
U1Y U 1.04245(2) 0.95755(2) 0.45755(2)
U1AA U 0.95755(2) 0.45755(2) 0.04245(2)
U1JA U 1.29245(2) 0.70755(2) 0.20755(2)
U1LA U 0.79245(2) 0.79245(2) 0.79245(2)
U1MA U 0.70755(2) 0.20755(2) 0.29245(2)
O2L O 0.73141(18) 0.16371(19) 0.69098(17)
O2Q O 0.83629(18) 0.19098(19) 0.76859(17)
O2R O 1.33629(18) 0.30902(19) 0.23141(17)
O2V O 1.30902(18) 0.23141(19) 0.33629(17)
O2DA O 0.55902(18) 0.58629(19) 0.48141(17)
O2HA O 0.48141(18) 0.55902(19) 0.58629(17)
#END
