
#######################################################################
#
#                 Cambridge Crystallographic Data Centre
#                                CCDC
#
#######################################################################
#
# If this CIF has been generated from an entry in the Cambridge
# Structural Database, then it will include bibliographic, chemical,
# crystal, experimental, refinement or atomic coordinate data resulting
# from the CCDC's data processing and validation procedures.
#
#######################################################################

data_CSD_CIF_VASQUC
_audit_creation_date 2004-02-10
_audit_creation_method CSD-ConQuest-V1
_database_code_CSD VASQUC
_database_code_depnum_ccdc_archive 'CCDC 223503'
_chemical_formula_sum 'C18 H18 Co2 N4 O16'
_chemical_formula_moiety
;
(C3 H5 N2 1+)2n,n(C12 H8 Co2 O16 2-)
;
_journal_coden_Cambridge 208
_journal_volume 174
_journal_year 2003
_journal_page_first 60
_journal_name_full 'J.Solid State Chem. '
loop_
_publ_author_name
"M.Dan"
"K.Sivashankar"
"A.K.Cheetham"
"C.N.R.Rao"
_chemical_name_systematic
;
catena-(bis(Imidazolium) 
bis(\m~2~-aqua)-bis(\m~2~-squarato-O,O')-(\m~2~-squarato-O,O'')-diaqua-di-coba
lt)
;
_cell_volume    583.706
_exptl_crystal_colour 'pale pink'
_exptl_crystal_density_diffrn 1.89
_exptl_crystal_description 'plate'
_diffrn_ambient_temperature 293
#These two values have been output from a single CSD field.
_refine_ls_R_factor_gt 0.0659
_refine_ls_wR_factor_gt 0.0659
_symmetry_cell_setting triclinic
_symmetry_space_group_name_H-M 'P -1'
_symmetry_Int_Tables_number 2
loop_
_symmetry_equiv_pos_site_id
_symmetry_equiv_pos_as_xyz
1 x,y,z
2 -x,-y,-z
_cell_length_a 7.778(4)
_cell_length_b 8.289(3)
_cell_length_c 9.451(4)
_cell_angle_alpha 91.41(4)
_cell_angle_beta 104.34(5)
_cell_angle_gamma 97.86(4)
_cell_formula_units_Z 1
loop_
_atom_type_symbol
_atom_type_radius_bond
C 0.68
H 0.23
Co 1.33
N 0.68
O 0.68
loop_
_atom_site_label
_atom_site_type_symbol
_atom_site_fract_x
_atom_site_fract_y
_atom_site_fract_z
Co1 Co 0.33278(12) 0.50587(11) -0.14325(10)
O1 O 0.2106(6) 0.2775(5) -0.1159(5)
O2 O 0.0953(9) 0.5947(9) -0.1807(8)
O3 O 0.2905(6) 0.4486(6) -0.3661(5)
O4 O 0.5485(6) 0.2609(6) 0.1766(5)
O5 O 0.5934(6) 0.4247(7) -0.0873(5)
O6 O 0.4216(6) -0.1223(6) 0.1798(5)
O7 O 0.0859(6) -0.1003(6) -0.1052(5)
O8 O 0.7302(6) 0.5444(6) -0.2928(5)
C1 C 0.4164(8) 0.1635(8) 0.0989(7)
C2 C 0.2688(8) 0.1718(8) -0.0271(7)
C3 C 0.3592(9) -0.0119(8) 0.1036(7)
C4 C 0.2089(8) -0.0029(8) -0.0254(7)
C5 C 0.4065(9) 0.4767(8) -0.4362(7)
C6 C 0.6033(9) 0.5205(8) -0.4055(7)
N1 N 0.2479(9) 0.8554(8) 0.5700(7)
H1 H 0.3023(9) 0.8212(8) 0.6519(7)
N2 N 0.0715(9) 0.8604(9) 0.3610(7)
H2 H -0.0105(9) 0.8296(9) 0.2820(7)
C7 C 0.1210(11) 0.7674(11) 0.4694(9)
H3 H 0.0744(11) 0.6587(11) 0.4740(9)
C8 C 0.2809(10) 1.0088(10) 0.5260(9)
H4 H 0.3641(10) 1.0948(10) 0.5776(9)
C9 C 0.1669(11) 1.0110(11) 0.3904(9)
H5 H 0.1573(11) 1.0986(11) 0.3307(9)
H6 H 0.6404(99) 0.4689(95) -0.1455(84)
H7 H 0.0082(99) 0.5556(92) -0.2107(82)
H8 H 0.592(11) 0.300(12) -0.1081(89)
H9 H 0.121(13) 0.677(12) -0.164(11)
C5A C 0.5935(9) 0.5233(8) -0.5638(7)
O3A O 0.7095(6) 0.5514(6) -0.6339(5)
C6A C 0.3967(9) 0.4795(8) -0.5945(7)
O8A O 0.2698(6) 0.4556(6) -0.7072(5)
O1A O 0.7894(6) 0.7225(5) 0.1159(5)
O4A O 0.4515(6) 0.7391(6) -0.1766(5)
O6A O 0.5784(6) 1.1223(6) -0.1798(5)
O7A O 0.9141(6) 1.1003(6) 0.1052(5)
C1A C 0.5836(8) 0.8365(8) -0.0989(7)
C2A C 0.7312(8) 0.8282(8) 0.0271(7)
C3A C 0.6408(9) 1.0119(8) -0.1036(7)
C4A C 0.7911(8) 1.0029(8) 0.0254(7)
O5A O 0.4066(6) 0.5753(7) 0.0873(5)
H6A H 0.3596(99) 0.5311(95) 0.1455(84)
H8A H 0.408(11) 0.700(12) 0.1081(89)
Co1A Co 0.66722(12) 0.49413(11) 0.14325(10)
O2A O 0.9047(9) 0.4053(9) 0.1807(8)
H7A H 0.9918(99) 0.4444(92) 0.2107(82)
H9A H 0.879(13) 0.323(12) 0.164(11)
Co1A* Co 0.66722(12) 0.49413(11) -0.85675(10)
O3A* O 0.7095(6) 0.5514(6) 0.3661(5)
#END
