
#######################################################################
#
#                 Cambridge Crystallographic Data Centre
#                                CCDC
#
#######################################################################
#
# If this CIF has been generated from an entry in the Cambridge
# Structural Database, then it will include bibliographic, chemical,
# crystal, experimental, refinement or atomic coordinate data resulting
# from the CCDC's data processing and validation procedures.
#
#######################################################################

data_CSD_CIF_VASYAS
_audit_creation_date 2017-05-02
_audit_creation_method CSD-ConQuest-V1
_database_code_CSD VASYAS
_database_code_depnum_ccdc_archive 'CCDC 1484791'
_chemical_formula_sum 'C72 H52 Cd3 N4 O16'
_chemical_formula_moiety
;
(C56 H32 Cd3 O16 2-)n,C16 H20 N4 2+
;
_journal_coden_Cambridge 702
_journal_volume 33
_journal_year 2017
_journal_page_first 823
_journal_name_full 'Wuji Huaxue Xuebao(Chin.)(Chin.J.Inorg.Chem.) '
loop_
_publ_author_name
"Xin-Ping Wang"
"Ying-Ying Li"
"Yong Liu"
"Jing Sun"
"Kang Liu"
"Lei Wang"
_chemical_name_systematic
;
catena-(2-methyl-1-(4-((2-methyl-1H-imidazol-3-ium-1-yl)methyl)benzyl)-1H-imid
azol-3-ium tetrakis(\m-biphenyl-3,5-dicarboxylato)-tri-cadmium)
;
_cell_volume   3216.111
_exptl_crystal_colour 'colorless'
_exptl_crystal_density_diffrn 1.617
_exptl_crystal_description 'block'
_diffrn_ambient_temperature 293
#These two values have been output from a single CSD field.
_refine_ls_R_factor_gt 0.0273
_refine_ls_wR_factor_gt 0.0273
_symmetry_cell_setting monoclinic
_symmetry_space_group_name_H-M 'P 21/n'
_symmetry_Int_Tables_number 14
loop_
_symmetry_equiv_pos_site_id
_symmetry_equiv_pos_as_xyz
1 x,y,z
2 1/2-x,1/2+y,1/2-z
3 -x,-y,-z
4 -1/2+x,-1/2-y,-1/2+z
_cell_length_a 9.7108(3)
_cell_length_b 19.9242(8)
_cell_length_c 16.8732(7)
_cell_angle_alpha 90
_cell_angle_beta 99.890(4)
_cell_angle_gamma 90
_cell_formula_units_Z 2
loop_
_atom_type_symbol
_atom_type_radius_bond
C 0.68
H 0.23
Cd 1.44
N 0.68
O 0.68
loop_
_atom_site_label
_atom_site_type_symbol
_atom_site_fract_x
_atom_site_fract_y
_atom_site_fract_z
Cd1 Cd 0.44299(2) 0.83014(2) 0.46776(2)
Cd2 Cd 0.50000 1.00000 0.50000
O1 O 0.3705(2) 0.72239(10) 0.44822(13)
O2 O 1.22776(19) 0.87249(11) 0.45842(13)
O3 O 0.56843(18) 0.91361(9) 0.42410(12)
O4 O -0.01138(19) 0.5786(1) 0.09305(12)
C1 C 0.3356(4) 0.43069(16) 0.2864(2)
H1 H 0.31520 0.44070 0.23180
O5 O 0.3620(2) 0.77819(10) 0.33441(13)
O6 O 0.0451(2) 0.6859(1) 0.09650(12)
C2 C 0.4212(5) 0.3533(2) 0.3902(3)
H2 H 0.46030 0.31200 0.40700
O7 O 0.7124(2) 0.82735(10) 0.44803(14)
C3 C 0.3948(5) 0.36924(19) 0.3104(3)
H3 H 0.41660 0.33900 0.27240
C4 C 0.8441(3) 1.09539(15) 0.3018(2)
O8 O 1.28874(19) 0.97766(11) 0.43404(13)
C5 C 0.2736(3) 0.66644(14) 0.32768(18)
C6 C 0.9441(3) 0.91096(14) 0.43060(17)
H4 H 0.96540 0.87000 0.45630
C7 C 0.1915(3) 0.67477(14) 0.25298(17)
H5 H 0.17280 0.71770 0.23220
C8 C 1.0503(3) 0.95225(14) 0.41340(17)
C9 C 0.8797(3) 1.03250(15) 0.34866(18)
C10 C 0.3896(5) 0.3987(2) 0.4455(3)
H6 H 0.40730 0.38790 0.49990
C11 C 0.8057(3) 0.93114(14) 0.40918(17)
C12 C 0.3034(3) 0.60180(14) 0.35779(18)
H7 H 0.35640 0.59630 0.40880
C13 C 0.7675(3) 1.14549(17) 0.3302(2)
H8 H 0.74130 1.14100 0.38050
C14 C 0.8850(4) 1.10453(19) 0.2278(2)
H9 H 0.93890 1.07190 0.20820
C15 C 1.0179(3) 1.01174(15) 0.37297(18)
H10 H 1.09000 1.03880 0.36150
C16 C 0.7740(3) 0.99137(14) 0.36920(17)
H11 H 0.68120 1.00470 0.35580
C17 C 0.3058(3) 0.47747(15) 0.34109(19)
C18 C 0.1368(3) 0.61915(14) 0.20896(17)
C19 C 0.7290(4) 1.20266(19) 0.2846(3)
H12 H 0.67680 1.23590 0.30430
C20 C 0.8467(4) 1.1616(2) 0.1831(2)
H13 H 0.87500 1.16710 0.13360
C21 C 0.1696(3) 0.55519(14) 0.23897(17)
H14 H 0.13370 0.51800 0.20900
C22 C 0.2552(3) 0.54579(14) 0.31295(18)
C23 C 0.3317(4) 0.46049(18) 0.4212(2)
H15 H 0.31030 0.49070 0.45930
C24 C 1.2009(3) 0.93193(16) 0.43813(17)
C25 C 0.6913(3) 0.88656(15) 0.42983(17)
C26 C 0.3391(3) 0.72635(15) 0.37332(19)
C27 C 0.7677(4) 1.2102(2) 0.2107(3)
H16 H 0.74040 1.24800 0.17970
C28 C 0.0509(3) 0.62841(15) 0.12734(17)
N1 N 0.5329(3) 0.82804(14) 0.09048(18)
N2 N 0.4177(3) 0.78577(15) 0.1754(2)
C29 C 0.6277(5) 0.8716(2) 0.0542(3)
H17 H 0.65530 0.84850 0.00880
H18 H 0.71140 0.87980 0.09340
C30 C 0.5688(5) 0.8816(2) 0.2273(2)
H19 H 0.53850 0.92600 0.21040
H20 H 0.66900 0.87940 0.23470
H21 H 0.53830 0.87120 0.27710
C31 C 0.3801(4) 0.7505(2) 0.1062(2)
H22 H 0.31700 0.71510 0.09770
C32 C 0.5989(5) 0.9965(2) 0.0690(3)
H23 H 0.66560 0.99500 0.11560
C33 C 0.5618(5) 0.9380(2) 0.0260(3)
C34 C 0.5086(4) 0.83295(17) 0.1656(2)
C35 C 0.4513(5) 0.7767(2) 0.0532(2)
H24 H 0.44680 0.76280 0.00020
C36 C 0.5368(6) 1.0573(3) 0.0429(3)
H25 H 0.56270 1.09580 0.07280
H26 H 0.394(4) 0.781(2) 0.226(3)
Cd1B Cd 0.55701(2) 1.16986(2) 0.53224(2)
O1B O 0.6295(2) 1.27761(10) 0.55178(13)
O2B O -0.22776(19) 1.12751(11) 0.54158(13)
O3B O 0.43157(18) 1.08639(9) 0.57590(12)
O4B O 1.01138(19) 1.4214(1) 0.90695(12)
C1B C 0.6644(4) 1.56931(16) 0.7136(2)
H1B H 0.68480 1.55930 0.76820
O5B O 0.6380(2) 1.22181(10) 0.66559(13)
O6B O 0.9549(2) 1.3141(1) 0.90350(12)
C2B C 0.5788(5) 1.6467(2) 0.6098(3)
H2B H 0.53970 1.68800 0.59300
O7B O 0.2876(2) 1.17265(10) 0.55197(14)
C3B C 0.6052(5) 1.63076(19) 0.6896(3)
H3B H 0.58340 1.66100 0.72760
C4B C 0.1559(3) 0.90461(15) 0.6982(2)
O8B O -0.28874(19) 1.02234(11) 0.56596(13)
C5B C 0.7264(3) 1.33356(14) 0.67232(18)
C6B C 0.0559(3) 1.08904(14) 0.56940(17)
H4B H 0.03460 1.13000 0.54370
C7B C 0.8085(3) 1.32523(14) 0.74702(17)
H5B H 0.82720 1.28230 0.76780
C8B C -0.0503(3) 1.04775(14) 0.58660(17)
C9B C 0.1203(3) 0.96750(15) 0.65134(18)
C10B C 0.6104(5) 1.6013(2) 0.5545(3)
H6B H 0.59270 1.61210 0.50010
C11B C 0.1943(3) 1.06886(14) 0.59082(17)
C12B C 0.6966(3) 1.39820(14) 0.64221(18)
H7B H 0.64360 1.40370 0.59120
C13B C 0.2325(3) 0.85451(17) 0.6698(2)
H8B H 0.25870 0.85900 0.61950
C14B C 0.1150(4) 0.89547(19) 0.7722(2)
H9B H 0.06110 0.92810 0.79180
C15B C -0.0179(3) 0.98826(15) 0.62703(18)
H10B H -0.09000 0.96120 0.63850
C16B C 0.2260(3) 1.00863(14) 0.63080(17)
H11B H 0.31880 0.99530 0.64420
C17B C 0.6942(3) 1.52253(15) 0.65891(19)
C18B C 0.8632(3) 1.38085(14) 0.79104(17)
C19B C 0.2710(4) 0.79734(19) 0.7154(3)
H12B H 0.32320 0.76410 0.69570
C20B C 0.1533(4) 0.8384(2) 0.8169(2)
H13B H 0.12500 0.83290 0.86640
C21B C 0.8304(3) 1.44481(14) 0.76103(17)
H14B H 0.86630 1.48200 0.79100
C22B C 0.7448(3) 1.45421(14) 0.68705(18)
C23B C 0.6683(4) 1.53951(18) 0.5788(2)
H15B H 0.68970 1.50930 0.54070
C24B C -0.2009(3) 1.06807(16) 0.56187(17)
C25B C 0.3087(3) 1.11344(15) 0.57017(17)
C26B C 0.6609(3) 1.27365(15) 0.62668(19)
C27B C 0.2323(4) 0.7898(2) 0.7893(3)
H16B H 0.25960 0.75200 0.82030
C28B C 0.9491(3) 1.37159(15) 0.87266(17)
Cd1* Cd 1.44299(2) 0.83014(2) 0.46776(2)
Cd1A Cd 1.05701(2) 1.33014(2) 1.03224(2)
Cd1B* Cd -0.44299(2) 1.16986(2) 0.53224(2)
Cd1C Cd -0.05701(2) 0.66986(2) -0.03224(2)
Cd2* Cd -0.50000 1.00000 0.50000
Cd2** Cd 1.50000 1.00000 0.50000
Cd2A Cd 0.00000 0.50000 0.00000
Cd2A* Cd 1.00000 1.50000 1.00000
O2* O 0.22776(19) 0.87249(11) 0.45842(13)
O2B* O 0.77224(19) 1.12751(11) 0.54158(13)
O4A O 0.51138(19) 1.0786(1) 0.40695(12)
O4C O 0.48862(19) 0.9214(1) 0.59305(12)
O6A O 0.4549(2) 1.1859(1) 0.40350(12)
O6C O 0.5451(2) 0.8141(1) 0.59650(12)
O8* O 0.28874(19) 0.97766(11) 0.43404(13)
O8B* O 0.71126(19) 1.02234(11) 0.56596(13)
N1B N 0.4671(3) 1.17196(14) -0.09048(18)
N2B N 0.5823(3) 1.21423(15) -0.1754(2)
C29B C 0.3723(5) 1.1284(2) -0.0542(3)
H17B H 0.34470 1.15150 -0.00880
H18B H 0.28860 1.12020 -0.09340
C30B C 0.4312(5) 1.1184(2) -0.2273(2)
H19B H 0.46150 1.07400 -0.21040
H20B H 0.33100 1.12060 -0.23470
H21B H 0.46170 1.12880 -0.27710
C31B C 0.6199(4) 1.2495(2) -0.1062(2)
H22B H 0.68300 1.28490 -0.09770
C32B C 0.4011(5) 1.0035(2) -0.0690(3)
H23B H 0.33440 1.00500 -0.11560
C33B C 0.4382(5) 1.0620(2) -0.0260(3)
C34B C 0.4914(4) 1.16705(17) -0.1656(2)
C35B C 0.5487(5) 1.2233(2) -0.0532(2)
H24B H 0.55320 1.23720 -0.00020
C36B C 0.4632(6) 0.9427(3) -0.0429(3)
H25B H 0.43730 0.90420 -0.07280
H26B H 0.606(4) 1.219(2) -0.226(3)
#END
