
#######################################################################
#
#                 Cambridge Crystallographic Data Centre
#                                CCDC
#
#######################################################################
#
# If this CIF has been generated from an entry in the Cambridge
# Structural Database, then it will include bibliographic, chemical,
# crystal, experimental, refinement or atomic coordinate data resulting
# from the CCDC's data processing and validation procedures.
#
#######################################################################

data_CSD_CIF_VASYEW
_audit_creation_date 2017-05-02
_audit_creation_method CSD-ConQuest-V1
_database_code_CSD VASYEW
_database_code_depnum_ccdc_archive 'CCDC 1484792'
_chemical_formula_sum 'C72 H52 Co3 N4 O16'
_chemical_formula_moiety
;
(C56 H32 Co3 O16 2-)n,C16 H20 N4 2+
;
_journal_coden_Cambridge 702
_journal_volume 33
_journal_year 2017
_journal_page_first 823
_journal_name_full 'Wuji Huaxue Xuebao(Chin.)(Chin.J.Inorg.Chem.) '
loop_
_publ_author_name
"Xin-Ping Wang"
"Ying-Ying Li"
"Yong Liu"
"Jing Sun"
"Kang Liu"
"Lei Wang"
_chemical_name_systematic
;
catena-(2-methyl-1-(4-((2-methyl-1H-imidazol-3-ium-1-yl)methyl)benzyl)-1H-imid
azol-3-ium tetrakis(\m-biphenyl-3,5-dicarboxylato)-tri-cobalt)
;
_cell_volume   3078.146
_exptl_crystal_colour 'colorless'
_exptl_crystal_density_diffrn 1.517
_exptl_crystal_description 'block'
_diffrn_ambient_temperature 293
#These two values have been output from a single CSD field.
_refine_ls_R_factor_gt 0.0518
_refine_ls_wR_factor_gt 0.0518
_symmetry_cell_setting monoclinic
_symmetry_space_group_name_H-M 'P 21/n'
_symmetry_Int_Tables_number 14
loop_
_symmetry_equiv_pos_site_id
_symmetry_equiv_pos_as_xyz
1 x,y,z
2 1/2-x,1/2+y,1/2-z
3 -x,-y,-z
4 -1/2+x,-1/2-y,-1/2+z
_cell_length_a 9.49187(11)
_cell_length_b 19.36409(18)
_cell_length_c 17.1174(2)
_cell_angle_alpha 90
_cell_angle_beta 101.9389(12)
_cell_angle_gamma 90
_cell_formula_units_Z 2
loop_
_atom_type_symbol
_atom_type_radius_bond
C 0.68
H 0.23
Co 1.26
N 0.68
O 0.68
loop_
_atom_site_label
_atom_site_type_symbol
_atom_site_fract_x
_atom_site_fract_y
_atom_site_fract_z
Co1 Co 0.05657(6) 0.66578(3) 0.53241(3)
Co2 Co 0.00000 0.50000 0.50000
O1 O 0.2574(3) 0.62850(13) 0.54087(16)
O2 O 0.9389(3) 0.58798(12) 0.56692(15)
O3 O 0.7941(3) 0.67747(14) 0.55200(19)
O4 O -0.3851(3) 0.73693(14) 0.06345(16)
O5 O 0.2065(3) 0.51708(13) 0.55448(16)
O6 O 0.0046(3) 0.56673(13) 0.40882(15)
O7 O -0.3473(4) 0.79239(15) 0.17767(18)
O8 O -0.0391(3) 0.67871(13) 0.41588(16)
C1 C 0.4489(4) 0.54889(19) 0.5843(2)
C2 C -0.1809(4) 0.55501(19) 0.2623(2)
H1 H -0.14820 0.51500 0.29040
C3 C 0.7346(4) 0.50948(19) 0.6299(2)
H2 H 0.83050 0.49610 0.64430
C4 C 0.6278(4) 0.46776(19) 0.6503(2)
C5 C 0.2917(4) 0.56650(19) 0.5572(2)
C6 C 0.8149(4) 0.61567(19) 0.5669(2)
C7 C -0.2681(4) 0.54978(19) 0.1865(2)
C8 C 0.6992(4) 0.57080(18) 0.5882(2)
C9 C -0.4242(7) 0.3704(3) 0.1723(4)
H3 H -0.45710 0.33900 0.20560
C10 C -0.2759(4) 0.67455(18) 0.1797(2)
C11 C -0.3672(6) 0.4327(2) 0.2026(3)
H4 H -0.35980 0.44240 0.25650
C12 C -0.1417(4) 0.61891(18) 0.2967(2)
C13 C 0.6666(4) 0.4031(2) 0.6974(3)
C14 C -0.3102(4) 0.6106(2) 0.1443(2)
H5 H -0.36180 0.60830 0.09190
C15 C 0.5556(4) 0.59130(19) 0.5667(2)
H6 H 0.53170 0.63310 0.54060
C16 C -0.3206(5) 0.4815(2) 0.1534(3)
C17 C 0.4846(4) 0.48740(19) 0.6254(2)
H7 H 0.41200 0.45910 0.63640
C18 C 0.6253(5) 0.3920(3) 0.7695(3)
H8 H 0.57000 0.42520 0.78860
C19 C -0.3837(7) 0.4010(3) 0.0451(4)
H9 H -0.38660 0.38950 -0.00800
C20 C 0.7461(5) 0.3517(2) 0.6695(3)
H10 H 0.77270 0.35700 0.62050
C21 C -0.3391(4) 0.7393(2) 0.1378(2)
C22 C -0.1905(4) 0.67871(19) 0.2554(2)
H11 H -0.16570 0.72160 0.27860
C23 C -0.0528(4) 0.62167(18) 0.3797(2)
C24 C -0.4327(7) 0.3545(3) 0.0941(4)
H12 H -0.47140 0.31240 0.07390
C25 C 0.6647(6) 0.3330(3) 0.8132(3)
H13 H 0.63540 0.32650 0.86130
C26 C -0.3299(6) 0.4649(3) 0.0740(3)
H14 H -0.30010 0.49650 0.03990
C27 C 0.7859(6) 0.2927(3) 0.7147(4)
H15 H 0.84000 0.25890 0.69590
C28 C 0.7466(6) 0.2837(3) 0.7864(4)
H16 H 0.77540 0.24440 0.81680
N1 N -0.0892(5) 0.2896(2) 0.1721(2)
H17 H -0.12530 0.28420 0.21380
C29 C 0.0708(8) 0.3868(3) 0.2265(3)
H18 H 0.03560 0.43200 0.20920
H19 H 0.17390 0.38630 0.23460
H20 H 0.04240 0.37560 0.27560
C30 C -0.1260(7) 0.2520(3) 0.1035(3)
H21 H -0.19370 0.21670 0.09360
C31 C 0.0098(6) 0.3356(3) 0.1650(3)
N2 N 0.0411(5) 0.3271(2) 0.0926(3)
C32 C -0.0471(7) 0.2754(3) 0.0535(3)
H22 H -0.05040 0.25990 0.00180
C33 C -0.0340(8) 0.4400(3) -0.0426(4)
H23 H -0.05760 0.39990 -0.07220
C34 C 0.1397(7) 0.3699(3) 0.0583(4)
H24 H 0.16850 0.34520 0.01480
H25 H 0.22550 0.37940 0.09860
C35 C 0.0676(7) 0.4378(3) 0.0272(4)
C36 C 0.1017(8) 0.4986(3) 0.0691(4)
H26 H 0.17150 0.49820 0.11600
Co1B Co -0.05657(6) 0.33422(3) 0.46759(3)
O1B O -0.2574(3) 0.37150(13) 0.45913(16)
O2B O -0.9389(3) 0.41202(12) 0.43308(15)
O3B O -0.7941(3) 0.32253(14) 0.44800(19)
O4B O 0.3851(3) 0.26307(14) 0.93655(16)
O5B O -0.2065(3) 0.48292(13) 0.44552(16)
O6B O -0.0046(3) 0.43327(13) 0.59118(15)
O7B O 0.3473(4) 0.20761(15) 0.82233(18)
O8B O 0.0391(3) 0.32129(13) 0.58412(16)
C1B C -0.4489(4) 0.45111(19) 0.4157(2)
C2B C 0.1809(4) 0.44499(19) 0.7377(2)
H1B H 0.14820 0.48500 0.70960
C3B C -0.7346(4) 0.49052(19) 0.3701(2)
H2B H -0.83050 0.50390 0.35570
C4B C -0.6278(4) 0.53224(19) 0.3497(2)
C5B C -0.2917(4) 0.43350(19) 0.4428(2)
C6B C -0.8149(4) 0.38433(19) 0.4331(2)
C7B C 0.2681(4) 0.45022(19) 0.8135(2)
C8B C -0.6992(4) 0.42920(18) 0.4118(2)
C9B C 0.4242(7) 0.6296(3) 0.8277(4)
H3B H 0.45710 0.66100 0.79440
C10B C 0.2759(4) 0.32545(18) 0.8203(2)
C11B C 0.3672(6) 0.5673(2) 0.7974(3)
H4B H 0.35980 0.55760 0.74350
C12B C 0.1417(4) 0.38109(18) 0.7033(2)
C13B C -0.6666(4) 0.5969(2) 0.3026(3)
C14B C 0.3102(4) 0.3894(2) 0.8557(2)
H5B H 0.36180 0.39170 0.90810
C15B C -0.5556(4) 0.40870(19) 0.4333(2)
H6B H -0.53170 0.36690 0.45940
C16B C 0.3206(5) 0.5185(2) 0.8466(3)
C17B C -0.4846(4) 0.51260(19) 0.3746(2)
H7B H -0.41200 0.54090 0.36360
C18B C -0.6253(5) 0.6080(3) 0.2305(3)
H8B H -0.57000 0.57480 0.21140
C19B C 0.3837(7) 0.5990(3) 0.9549(4)
H9B H 0.38660 0.61050 1.00800
C20B C -0.7461(5) 0.6483(2) 0.3305(3)
H10B H -0.77270 0.64300 0.37950
C21B C 0.3391(4) 0.2607(2) 0.8622(2)
C22B C 0.1905(4) 0.32129(19) 0.7446(2)
H11B H 0.16570 0.27840 0.72140
C23B C 0.0528(4) 0.37833(18) 0.6203(2)
C24B C 0.4327(7) 0.6455(3) 0.9059(4)
H12B H 0.47140 0.68760 0.92610
C25B C -0.6647(6) 0.6670(3) 0.1868(3)
H13B H -0.63540 0.67350 0.13870
C26B C 0.3299(6) 0.5351(3) 0.9260(3)
H14B H 0.30010 0.50350 0.96010
C27B C -0.7859(6) 0.7073(3) 0.2853(4)
H15B H -0.84000 0.74110 0.30410
C28B C -0.7466(6) 0.7163(3) 0.2136(4)
H16B H -0.77540 0.75560 0.18320
Co1* Co 1.05657(6) 0.66578(3) 0.53241(3)
Co1A Co 0.44343(6) 0.16578(3) 0.96759(3)
Co1B* Co -1.05657(6) 0.33422(3) 0.46759(3)
Co1C Co -0.44343(6) 0.83422(3) 0.03241(3)
Co2* Co -1.00000 0.50000 0.50000
Co2** Co 1.00000 0.50000 0.50000
O2* O -0.0611(3) 0.58798(12) 0.56692(15)
O2B* O 0.0611(3) 0.41202(12) 0.43308(15)
O4A O -0.1149(3) 0.23693(14) 0.43655(16)
O4C O 0.1149(3) 0.76307(14) 0.56345(16)
N1B N 0.0892(5) 0.7104(2) -0.1721(2)
H17B H 0.12530 0.71580 -0.21380
C29B C -0.0708(8) 0.6132(3) -0.2265(3)
H18B H -0.03560 0.56800 -0.20920
H19B H -0.17390 0.61370 -0.23460
H20B H -0.04240 0.62440 -0.27560
C30B C 0.1260(7) 0.7480(3) -0.1035(3)
H21B H 0.19370 0.78330 -0.09360
C31B C -0.0098(6) 0.6644(3) -0.1650(3)
N2B N -0.0411(5) 0.6729(2) -0.0926(3)
C32B C 0.0471(7) 0.7246(3) -0.0535(3)
H22B H 0.05040 0.74010 -0.00180
C33B C 0.0340(8) 0.5600(3) 0.0426(4)
H23B H 0.05760 0.60010 0.07220
C34B C -0.1397(7) 0.6301(3) -0.0583(4)
H24B H -0.16850 0.65480 -0.01480
H25B H -0.22550 0.62060 -0.09860
C35B C -0.0676(7) 0.5622(3) -0.0272(4)
C36B C -0.1017(8) 0.5014(3) -0.0691(4)
H26B H -0.17150 0.50180 -0.11600
#END
