
#######################################################################
#
#                 Cambridge Crystallographic Data Centre
#                                CCDC
#
#######################################################################
#
# If this CIF has been generated from an entry in the Cambridge
# Structural Database, then it will include bibliographic, chemical,
# crystal, experimental, refinement or atomic coordinate data resulting
# from the CCDC's data processing and validation procedures.
#
#######################################################################

data_CSD_CIF_VATNIQ
_audit_creation_date 2017-05-02
_audit_creation_method CSD-ConQuest-V1
_database_code_CSD VATNIQ
_database_code_depnum_ccdc_archive 'CCDC 1506170'
_chemical_formula_sum 'C36 H25 Na3 O8 Pb6 S12'
_chemical_formula_moiety
;
(C36 H13 O2 Pb6 S12 3-)n,6(H2 O1),3(Na1 1+)
;
_journal_coden_Cambridge 1699
_journal_volume 5
_journal_year 2017
_journal_page_first 16139
_journal_name_full 'J.Mater.Chem.A '
loop_
_publ_author_name
"Jiahong Huang"
"Yonghe He"
"Ming-Shui Yao"
"Jun He"
"Gang Xu"
"M.Zeller"
"Zhengtao Xu"
_chemical_name_systematic
;
catena-[tri-sodium 
bis(\m-triphenylene-2,3,6,7,10,11-hexathiolato)-(\m-hydroxo)-(\m-oxido)-hexa-l
ead(ii) unknown solvate hexahydrate]
;
_cell_volume   7861.724
_exptl_crystal_colour 'orange'
_exptl_crystal_density_diffrn 1.87
_exptl_crystal_description 'octahedron'
_diffrn_ambient_temperature 293
_refine_special_details
;
The structure is disordered.  Disordered cation and solvent molecules were 
not modelled and the disordered density was taken into account using the 
SQUEEZE/PLATON procedure.
;
#These two values have been output from a single CSD field.
_refine_ls_R_factor_gt 0.0574
_refine_ls_wR_factor_gt 0.0574
_symmetry_cell_setting cubic
_symmetry_space_group_name_H-M 'P a -3'
_symmetry_Int_Tables_number 205
loop_
_symmetry_equiv_pos_site_id
_symmetry_equiv_pos_as_xyz
1 x,y,z
2 1/2-x,-y,1/2+z
3 -x,1/2+y,1/2-z
4 1/2+x,1/2-y,-z
5 z,x,y
6 1/2+z,1/2-x,-y
7 1/2-z,-x,1/2+y
8 -z,1/2+x,1/2-y
9 y,z,x
10 -y,1/2+z,1/2-x
11 1/2+y,1/2-z,-x
12 1/2-y,-z,1/2+x
13 -x,-y,-z
14 -1/2+x,y,-1/2-z
15 x,-1/2-y,-1/2+z
16 -1/2-x,-1/2+y,z
17 -z,-x,-y
18 -1/2-z,-1/2+x,y
19 -1/2+z,x,-1/2-y
20 z,-1/2-x,-1/2+y
21 -y,-z,-x
22 y,-1/2-z,-1/2+x
23 -1/2-y,-1/2+z,x
24 -1/2+y,z,-1/2-x
_cell_length_a 19.8841(1)
_cell_length_b 19.8841(1)
_cell_length_c 19.8841(1)
_cell_angle_alpha 90
_cell_angle_beta 90
_cell_angle_gamma 90
_cell_formula_units_Z 4
loop_
_atom_type_symbol
_atom_type_radius_bond
C 0.68
H 0.23
O 0.68
Pb 1.46
S 1.02
loop_
_atom_site_label
_atom_site_type_symbol
_atom_site_fract_x
_atom_site_fract_y
_atom_site_fract_z
Pb1 Pb 0.11701(2) 0.52937(2) 0.58982(2)
O1 O 0.0386(4) 0.4614(4) 0.5386(4)
S1 S 0.17717(15) 0.54536(16) 0.46836(17)
S2 S 0.20008(14) 0.42427(15) 0.58459(15)
C1 C 0.2426(6) 0.4888(6) 0.4638(6)
C2 C 0.2529(5) 0.4358(5) 0.5143(6)
C3 C 0.2899(5) 0.4901(6) 0.4129(6)
C4 C 0.3054(5) 0.3891(5) 0.5066(6)
C5 C 0.3444(6) 0.4465(6) 0.4044(6)
H1 H 0.28500 0.52370 0.38070
H2 H 0.30980 0.35460 0.53790
C6 C 0.3510(6) 0.3932(6) 0.4534(6)
O2 O 0.2428(9) 0.2994(8) 0.3468(8)
H3 H 0.215(10) 0.268(8) 0.344(14)
H4 H 0.235(5) 0.326(9) 0.314(7)
H5? H 0.01010 0.48990 0.51010
S1D S 0.46836(15) 0.17717(16) 0.54536(17)
S2D S 0.58459(14) 0.20008(15) 0.42427(15)
C1D C 0.4638(6) 0.2426(6) 0.4888(6)
C2D C 0.5143(5) 0.2529(5) 0.4358(6)
C3D C 0.4129(5) 0.2899(6) 0.4901(6)
C4D C 0.5066(5) 0.3054(5) 0.3891(6)
C5D C 0.4044(6) 0.3444(6) 0.4465(6)
H1D H 0.38070 0.28500 0.52370
H2D H 0.53790 0.30980 0.35460
C6D C 0.4534(6) 0.3510(6) 0.3932(6)
S1H S 0.54536(15) 0.46836(16) 0.17717(17)
S2H S 0.42427(14) 0.58459(15) 0.20008(15)
C1H C 0.4888(6) 0.4638(6) 0.2426(6)
C2H C 0.4358(5) 0.5143(5) 0.2529(6)
C3H C 0.4901(5) 0.4129(6) 0.2899(6)
C4H C 0.3891(5) 0.5066(5) 0.3054(6)
C5H C 0.4465(6) 0.4044(6) 0.3444(6)
H1H H 0.52370 0.38070 0.28500
H2H H 0.35460 0.53790 0.30980
C6H C 0.3932(6) 0.4534(6) 0.3510(6)
Pb1D Pb 0.58982(2) 0.11701(2) 0.52937(2)
Pb1H Pb 0.52937(2) 0.58982(2) 0.11701(2)
Pb1E Pb 0.08982(2) 0.38299(2) 0.47063(2)
Pb1K Pb -0.02937(2) 0.41018(2) 0.61701(2)
O1A O 0.4614(4) 0.5386(4) 0.0386(4)
O1C O 0.5386(4) 0.0386(4) 0.4614(4)
Pb1F Pb -0.08982(2) 0.88299(2) 1.02937(2)
O1B O -0.0386(4) 0.9614(4) 0.9614(4)
S1F S 0.03164(15) 0.82283(16) 1.04536(17)
S2F S -0.08459(14) 0.79992(15) 0.92427(15)
Pb1J Pb 0.02937(2) 0.91018(2) 0.88299(2)
Pb1B Pb -0.11701(2) 1.02937(2) 0.91018(2)
C1F C 0.0362(6) 0.7574(6) 0.9888(6)
C2F C -0.0143(5) 0.7471(5) 0.9358(6)
C3F C 0.0871(5) 0.7101(6) 0.9901(6)
C4F C -0.0066(5) 0.6946(5) 0.8891(6)
C5F C 0.0956(6) 0.6556(6) 0.9465(6)
H1F H 0.11930 0.71500 1.02370
H2F H -0.03790 0.69020 0.85460
C6F C 0.0466(6) 0.6490(6) 0.8932(6)
C6A C 0.1490(6) 0.6068(6) 0.9534(6)
C5K C 0.0535(6) 0.5956(6) 0.8444(6)
S1K S -0.04536(15) 0.53164(16) 0.67717(17)
C1K C 0.0112(6) 0.5362(6) 0.7426(6)
S2K S 0.07573(14) 0.41541(15) 0.70008(15)
C2K C 0.0642(5) 0.4857(5) 0.7529(6)
C3K C 0.0099(5) 0.5871(6) 0.7899(6)
C4K C 0.1109(5) 0.4934(5) 0.8054(6)
H1K H -0.02370 0.61930 0.78500
H2K H 0.14540 0.46210 0.80980
C6K C 0.1068(6) 0.5466(6) 0.8510(6)
C5A C 0.1556(6) 0.5535(6) 0.9044(6)
S1A S 0.32283(15) 0.45464(16) 0.96836(17)
C1A C 0.2574(6) 0.5112(6) 0.9638(6)
Pb1A Pb 0.38299(2) 0.47063(2) 1.08982(2)
S2A S 0.29992(14) 0.57573(15) 1.08459(15)
C2A C 0.2471(5) 0.5642(5) 1.0143(6)
C3A C 0.2101(5) 0.5099(6) 0.9129(6)
C4A C 0.1946(5) 0.6109(5) 1.0066(6)
H1A H 0.21500 0.47630 0.88070
H2A H 0.19020 0.64540 1.03790
O1A* O 0.4614(4) 0.5386(4) 1.0386(4)
#END
