
#######################################################################
#
#                 Cambridge Crystallographic Data Centre
#                                CCDC
#
#######################################################################
#
# If this CIF has been generated from an entry in the Cambridge
# Structural Database, then it will include bibliographic, chemical,
# crystal, experimental, refinement or atomic coordinate data resulting
# from the CCDC's data processing and validation procedures.
#
#######################################################################

data_CSD_CIF_VATXIA
_audit_creation_date 2017-05-02
_audit_creation_method CSD-ConQuest-V1
_database_code_CSD VATXIA
_database_code_depnum_ccdc_archive 'CCDC 860176'
_chemical_formula_sum 'C48 H36 N4 O20 U2 Zn1'
_chemical_formula_moiety
;
C24 H20 N4 O2 Zn1 2+,n(C24 H12 O16 U2 2-),2(H2 O1)
;
_journal_coden_Cambridge 603
_journal_volume 36
_journal_year 2017
_journal_page_first 679
_journal_name_full 'Jiegou Huaxue(Chin.)(Chin.J.Struct.Chem.) '
loop_
_publ_author_name
"Hong-Yan Wu"
"Hao-Hong Li"
"Zhi-Rong Chen"
_chemical_name_systematic
;
catena-[Diaqua-bis(1,10-phenanthroline)-zinc(ii) 
tris(\m-terephthalato)-tetra-oxo-di-uranium dihydrate]
;
_cell_volume   4813.504
_exptl_crystal_colour 'yellow'
_exptl_crystal_density_diffrn 2.1
_exptl_crystal_description 'Monoclinic'
_diffrn_ambient_temperature 296
#These two values have been output from a single CSD field.
_refine_ls_R_factor_gt 0.0224
_refine_ls_wR_factor_gt 0.0224
_symmetry_cell_setting monoclinic
_symmetry_space_group_name_H-M 'C c'
_symmetry_Int_Tables_number 9
loop_
_symmetry_equiv_pos_site_id
_symmetry_equiv_pos_as_xyz
1 x,y,z
2 x,-y,1/2+z
3 1/2+x,1/2+y,z
4 1/2+x,1/2-y,1/2+z
_cell_length_a 14.9385(10)
_cell_length_b 20.4922(13)
_cell_length_c 15.9728(10)
_cell_angle_alpha 90
_cell_angle_beta 100.124(1)
_cell_angle_gamma 90
_cell_formula_units_Z 4
loop_
_atom_type_symbol
_atom_type_radius_bond
C 0.68
H 0.23
N 0.68
O 0.68
U 1.96
Zn 1.22
loop_
_atom_site_label
_atom_site_type_symbol
_atom_site_fract_x
_atom_site_fract_y
_atom_site_fract_z
U1 U 0.462770(13) 0.101978(10) 0.256449(11)
U2 U 0.854136(13) 0.104607(10) 0.942253(11)
O1 O 0.3547(5) 0.1103(3) 0.2895(5)
O2 O 0.5651(8) 0.0964(3) 0.2240(6)
O3 O 0.5333(5) 0.1462(3) 0.3914(4)
O4 O 0.5231(6) 0.0413(3) 0.3907(5)
O5 O 0.7744(4) 0.1501(3) 0.8064(4)
O6 O 0.7866(5) 0.0443(3) 0.8093(4)
O7 O 0.7465(5) 0.1014(3) 0.9761(6)
O8 O 0.9599(8) 0.1090(3) 0.9104(6)
O9 O 0.8395(6) 0.2241(3) 0.9358(5)
O10 O 0.9172(5) 0.1837(3) 1.0546(4)
O11 O 0.8960(5) 0.5389(3) 1.1253(4)
O12 O 0.9404(6) 0.4872(2) 1.2450(4)
O13 O 0.8732(7) -0.0101(3) 0.9577(5)
O14 O 0.9166(5) 0.0419(3) 1.0769(4)
O15 O 0.9808(5) -0.2773(2) 1.2593(5)
O16 O 0.9106(4) -0.3177(3) 1.1401(3)
C1 C 0.5507(7) 0.0922(4) 0.4296(5)
C2 C 0.6058(6) 0.0915(4) 0.5176(6)
C3 C 0.6343(7) 0.1486(4) 0.5555(6)
H1 H 0.62110 0.18730 0.52540
C4 C 0.6825(7) 0.1511(4) 0.6378(6)
H2 H 0.70040 0.19100 0.66300
C5 C 0.7039(7) 0.0930(4) 0.6823(5)
C6 C 0.6783(7) 0.0341(4) 0.6427(6)
H3 H 0.69430 -0.00500 0.67110
C7 C 0.6292(8) 0.0333(4) 0.5609(6)
H4 H 0.61160 -0.00630 0.53460
C8 C 0.7593(7) 0.0957(3) 0.7682(6)
C9 C 0.8805(7) 0.2326(3) 1.0118(5)
C10 C 0.8886(6) 0.2981(3) 1.0493(5)
C11 C 0.8644(6) 0.3528(4) 1.0002(5)
H5 H 0.84210 0.34800 0.94240
C12 C 0.8729(6) 0.4151(4) 1.0354(5)
H6 H 0.86060 0.45170 1.00100
C13 C 0.8998(6) 0.4217(4) 1.1225(5)
C14 C 0.9226(7) 0.3666(4) 1.1728(5)
H7 H 0.94230 0.37100 1.23100
C15 C 0.9160(7) 0.3055(4) 1.1357(6)
H8 H 0.93020 0.26880 1.16960
C16 C 0.9117(7) 0.4869(4) 1.1651(5)
C17 C 0.8982(6) -0.0111(4) 1.0374(5)
C18 C 0.9104(6) -0.0759(3) 1.0785(5)
C19 C 0.9385(6) -0.0843(4) 1.1662(5)
H9 H 0.95010 -0.04810 1.20150
C20 C 0.9490(6) -0.1468(3) 1.2003(5)
H10 H 0.97000 -0.15200 1.25830
C21 C 0.9288(6) -0.2012(3) 1.1495(5)
C22 C 0.9000(8) -0.1925(4) 1.0605(5)
H11 H 0.88820 -0.22840 1.02460
C23 C 0.8899(8) -0.1309(4) 1.0286(6)
H12 H 0.86820 -0.12550 0.97080
C24 C 0.9408(6) -0.2688(3) 1.1833(5)
Zn1 Zn 0.23552(6) 0.18505(4) -0.12800(5)
O17 O 0.2506(4) 0.1638(3) 0.0052(3)
O18 O 0.0997(4) 0.2077(2) -0.1126(3)
N1 N 0.1952(5) 0.1921(3) -0.2721(4)
N2 N 0.2076(5) 0.0878(3) -0.1687(4)
N3 N 0.2806(4) 0.2812(3) -0.1402(4)
N4 N 0.3824(5) 0.1729(3) -0.1166(4)
C25 C 0.1873(7) 0.2426(5) -0.3241(5)
H13 H 0.19980 0.28370 -0.30010
C26 C 0.1614(10) 0.2392(5) -0.4127(6)
H14 H 0.15600 0.27670 -0.44600
C27 C 0.1445(6) 0.1790(5) -0.4486(5)
H15 H 0.12860 0.17480 -0.50730
C28 C 0.1513(9) 0.1240(4) -0.3968(9)
C29 C 0.1354(7) 0.0593(5) -0.4298(7)
H16 H 0.11930 0.05280 -0.48810
C30 C 0.1435(6) 0.0078(5) -0.3769(6)
H17 H 0.13260 -0.03360 -0.40030
C31 C 0.1758(6) -0.0387(4) -0.2322(6)
H18 H 0.16580 -0.08090 -0.25330
C32 C 0.1984(7) -0.0285(4) -0.1460(7)
H19 H 0.20380 -0.06360 -0.10860
C33 C 0.2134(6) 0.0359(4) -0.1145(6)
H20 H 0.22750 0.04300 -0.05620
C34 C 0.1840(5) 0.0774(4) -0.2516(5)
C35 C 0.1787(5) 0.1338(4) -0.3092(5)
C36 C 0.1679(6) 0.0134(4) -0.2873(6)
C37 C 0.2306(6) 0.3343(3) -0.1524(5)
H21 H 0.17150 0.33180 -0.14170
C38 C 0.2593(7) 0.3937(4) -0.1801(6)
H22 H 0.22210 0.43040 -0.18420
C39 C 0.3449(8) 0.3965(3) -0.2011(6)
H23 H 0.36510 0.43430 -0.22410
C40 C 0.4003(6) 0.3417(4) -0.1873(5)
C41 C 0.4929(6) 0.3418(4) -0.2004(6)
H24 H 0.51620 0.37830 -0.22360
C42 C 0.5476(7) 0.2880(4) -0.1787(6)
H25 H 0.60840 0.29000 -0.18470
C43 C 0.5147(6) 0.2312(4) -0.1484(5)
C44 C 0.5670(6) 0.1748(5) -0.1248(6)
H26 H 0.62890 0.17530 -0.12630
C45 C 0.5286(8) 0.1198(5) -0.0998(7)
H27 H 0.56310 0.08250 -0.08470
C46 C 0.4377(6) 0.1210(4) -0.0974(5)
H28 H 0.41180 0.08280 -0.08130
C47 C 0.4219(5) 0.2269(4) -0.1394(5)
C48 C 0.3674(5) 0.2835(3) -0.1577(4)
O19 O 0.1209(5) 0.1722(3) 0.1084(4)
O20 O 0.7394(4) 0.2810(3) 0.7568(4)
U1B U 0.962770(13) -0.398022(10) 1.256449(11)
U1B* U 0.962770(13) 0.601978(10) 1.256449(11)
O11B O 0.3960(5) 0.0389(3) 0.1253(4)
O12B O 0.4404(6) -0.0128(2) 0.2450(4)
O15B O 0.4808(5) 0.2227(2) 0.2593(5)
O16B O 0.4106(4) 0.1823(3) 0.1401(3)
#END
