
#######################################################################
#
#                 Cambridge Crystallographic Data Centre
#                                CCDC
#
#######################################################################
#
# If this CIF has been generated from an entry in the Cambridge
# Structural Database, then it will include bibliographic, chemical,
# crystal, experimental, refinement or atomic coordinate data resulting
# from the CCDC's data processing and validation procedures.
#
#######################################################################

data_CSD_CIF_VATXOE
_audit_creation_date 2006-02-21
_audit_creation_method CSD-ConQuest-V1
_database_code_CSD VATXOE
_database_code_depnum_ccdc_archive 'CCDC 288042'
_chemical_formula_sum 'C10 H20.8 Ce2 Na4 O30.4'
_chemical_formula_moiety
;
(C10 Ce2 O20 4-)n,4n(Na1 1+),10.4n(H2 O1)
;
_journal_coden_Cambridge 208
_journal_volume 178
_journal_year 2005
_journal_page_first 3046
_journal_name_full 'J.Solid State Chem. '
loop_
_publ_author_name
"B.Chapelet-Arab"
"G.Nowogrocki"
"F.Abraham"
"S.Grandjean"
_chemical_name_systematic
;
catena-(tetra-sodium pentakis(\m~2~-oxalato-O,O',O'',O''')-di-cerium(iii) 
hydrate)
;
_cell_volume   2836.917
_exptl_crystal_colour 'green'
_exptl_crystal_description 'prism'
_diffrn_ambient_temperature 293
_refine_special_details
;
There are 3 Na atoms for charge balance although 4 atoms have been input into 
the 2D diagram due to the mixed metal disorder. The metal sites are mixed 
occupancy Ce/U with equal occupancies. The overall formula for the metal 
complex is C10 Ce1 O20 U1 3-.
;
#These two values have been output from a single CSD field.
_refine_ls_R_factor_gt 0.0416
_refine_ls_wR_factor_gt 0.0416
_symmetry_cell_setting monoclinic
_symmetry_space_group_name_H-M 'C 2/c'
_symmetry_Int_Tables_number 15
loop_
_symmetry_equiv_pos_site_id
_symmetry_equiv_pos_as_xyz
1 x,y,z
2 1/2+x,1/2+y,z
3 -x,y,1/2-z
4 1/2-x,1/2+y,1/2-z
5 -x,-y,-z
6 -1/2-x,-1/2-y,-z
7 x,-y,-1/2+z
8 -1/2+x,-1/2-y,-1/2+z
_cell_length_a 18.878(6)
_cell_length_b 11.684(4)
_cell_length_c 12.932(4)
_cell_angle_alpha 90
_cell_angle_beta 95.976(6)
_cell_angle_gamma 90
_cell_formula_units_Z 4
loop_
_atom_type_symbol
_atom_type_radius_bond
C 0.68
Ce 1.83
Na 0.97
O 0.68
U 1.58
loop_
_atom_site_label
_atom_site_type_symbol
_atom_site_fract_x
_atom_site_fract_y
_atom_site_fract_z
O1 O 0.4161(3) 0.5335(6) 0.1216(6)
O2 O 0.0739(4) 0.7741(6) -0.2970(6)
O3 O 0.6056(4) 0.5145(7) 0.1195(6)
O4 O 0.4896(4) 0.3004(6) 0.0358(6)
O5 O 0.00000 0.2962(13) -0.25000
O6 O 0.6331(5) 0.3515(7) 0.2644(8)
Na1 Na 0.04937(19) 0.7702(3) -0.1262(3)
Na2 Na 0.50000 0.50000 0.00000
Ce1 Ce 0.172276(13) 0.50168(3) -0.005556(19)
C1 C -0.0038(4) 0.5417(6) -0.0445(6)
C2 C 0.2058(4) 0.4647(6) 0.2482(5)
C3 C 0.1555(4) 0.5672(6) 0.2403(5)
C4 C 0.2153(4) 0.2200(6) 0.0111(5)
C5 C 0.2159(3) 0.7793(6) -0.0248(5)
O7 O 0.1607(2) 0.7186(4) -0.0356(4)
O8 O 0.1611(2) 0.2807(5) 0.0111(4)
O9 O 0.2197(3) 0.8830(4) -0.0452(4)
O10 O 0.2213(3) 0.1137(4) 0.0303(4)
O11 O 0.2250(3) 0.4274(4) 0.1652(4)
O12 O 0.1404(3) 0.6112(4) 0.1539(4)
O13 O 0.1328(3) 0.5982(5) 0.3244(4)
O14 O 0.2249(3) 0.4269(4) 0.3372(4)
O15 O 0.0523(3) 0.5724(4) -0.0813(4)
O16 O -0.0657(2) 0.5755(4) -0.0741(4)
U1? U 0.172276(13) 0.50168(3) -0.005556(19)
Ce1E Ce 0.327724(13) 0.99832(3) 0.005556(19)
Ce1E* Ce 0.327724(13) -0.00168(3) 0.005556(19)
Ce1F Ce 0.172276(13) 0.49832(3) 0.494444(19)
Ce1D Ce -0.172276(13) 0.49832(3) 0.005556(19)
Ce1F* Ce 0.172276(13) 0.49832(3) -0.505556(19)
C1D C 0.0038(4) 0.4583(6) 0.0445(6)
C2F C 0.2058(4) 0.5353(6) -0.2518(5)
C3F C 0.1555(4) 0.4328(6) -0.2597(5)
C4E C 0.2847(4) 0.2800(6) -0.0111(5)
C5E C 0.2841(3) 0.7207(6) 0.0248(5)
O7E O 0.3393(2) 0.7814(4) 0.0356(4)
O7F O 0.1607(2) 0.2814(4) 0.4644(4)
O8E O 0.3389(2) 0.2193(5) -0.0111(4)
O8F O 0.1611(2) 0.7193(5) 0.5111(4)
O9E O 0.2803(3) 0.6170(4) 0.0452(4)
O9C O 0.2803(3) 0.3830(4) 0.5452(4)
O10E O 0.2787(3) 0.3863(4) -0.0303(4)
O10C O 0.2787(3) 0.6137(4) 0.4697(4)
O11F O 0.2250(3) 0.5726(4) -0.3348(4)
O11F* O 0.2250(3) 0.5726(4) 0.6652(4)
O12F O 0.1404(3) 0.3888(4) -0.3461(4)
O12F* O 0.1404(3) 0.3888(4) 0.6539(4)
O13F O 0.1328(3) 0.4018(5) -0.1756(4)
O14F O 0.2249(3) 0.5731(4) -0.1628(4)
O15D O -0.0523(3) 0.4276(4) 0.0813(4)
O15F O 0.0523(3) 0.4276(4) 0.4187(4)
O16D O 0.0657(2) 0.4245(4) 0.0741(4)
O16B O 0.0657(2) 0.5755(4) 0.5741(4)
#END
