
#######################################################################
#
#                 Cambridge Crystallographic Data Centre
#                                CCDC
#
#######################################################################
#
# If this CIF has been generated from an entry in the Cambridge
# Structural Database, then it will include bibliographic, chemical,
# crystal, experimental, refinement or atomic coordinate data resulting
# from the CCDC's data processing and validation procedures.
#
#######################################################################

data_CSD_CIF_VATYEV
_audit_creation_date 2006-02-21
_audit_creation_method CSD-ConQuest-V1
_database_code_CSD VATYEV
_database_code_depnum_ccdc_archive 'CCDC 288046'
_chemical_formula_sum 'C8 H32 Gd2 N4 O27'
_chemical_formula_moiety
;
(C8 H4 Gd2 O18 2-)n,2n(H5 N2 1+),9n(H2 O1)
;
_journal_coden_Cambridge 208
_journal_volume 178
_journal_year 2005
_journal_page_first 3055
_journal_name_full 'J.Solid State Chem. '
loop_
_publ_author_name
"B.Chapelet-Arab"
"G.Nowogrocki"
"F.Abraham"
"S.Grandjean"
_chemical_name_systematic
;
catena-(bis(hydrazinium) 
tetrakis(\m~2~-oxalato-O,O',O'',O''')-diaqua-di-gadolinium(iii) nonahydrate)
;
_cell_volume    691.379
_exptl_crystal_colour 'colorless'
_exptl_special_details
;
Isotypic with the Nd, mixed Nd

;
_diffrn_ambient_temperature 293
_refine_special_details
;
The uncoordinated water molecules and hydrazinium cations are disordered.

;
#These two values have been output from a single CSD field.
_refine_ls_R_factor_gt 0.0325
_refine_ls_wR_factor_gt 0.0325
_symmetry_cell_setting triclinic
_symmetry_space_group_name_H-M 'P -1'
_symmetry_Int_Tables_number 2
loop_
_symmetry_equiv_pos_site_id
_symmetry_equiv_pos_as_xyz
1 x,y,z
2 -x,-y,-z
_cell_length_a 8.52(3)
_cell_length_b 9.51(3)
_cell_length_c 10.14(3)
_cell_angle_alpha 62.11(4)
_cell_angle_beta 76.15(5)
_cell_angle_gamma 73.73(5)
_cell_formula_units_Z 1
loop_
_atom_type_symbol
_atom_type_radius_bond
C 0.68
Gd 1.79
N 0.68
O 0.68
loop_
_atom_site_label
_atom_site_type_symbol
_atom_site_fract_x
_atom_site_fract_y
_atom_site_fract_z
Gd1 Gd 0.33294(4) 0.37197(4) 0.84010(4)
O1 O 0.0811(7) 0.3042(7) 1.0156(7)
O2 O 0.3173(7) 0.0920(7) 0.9218(7)
O3 O 0.5277(7) 0.3066(7) 0.6498(6)
O4 O 0.5374(8) 0.5199(7) 0.8150(6)
O5 O 0.4328(7) -0.1710(7) 1.0319(7)
O6 O -0.1331(7) 0.3921(7) 1.1527(6)
O7 O 0.6591(7) 0.6090(8) 0.9265(6)
O8 O 0.6518(7) 0.3962(7) 0.4112(6)
O9 O 0.1343(8) 0.3790(8) 0.6963(7)
C1 C -0.0134(10) 0.4127(10) 1.0483(9)
C2 C 0.4267(10) -0.0231(10) 0.9854(9)
C3 C 0.5523(10) 0.4132(10) 0.5169(9)
C4 C 0.5579(10) 0.5377(10) 0.9250(9)
O10 O 0.025(2) 0.818(2) 0.5176(19)
O11 O 0.290(6) 0.040(6) 1.293(6)
O12 O 0.232(2) 0.9018(19) 0.7615(18)
O13 O 0.256(2) 0.316(2) 0.4514(18)
N1 N -0.126(7) 0.133(7) 0.730(7)
N2 N -0.099(2) 0.191(2) 0.812(2)
O14? O -0.227(7) 0.889(7) 0.670(7)
O15? O -0.025(4) 0.052(4) 0.952(3)
O16? O -0.182(2) 0.586(2) 0.597(2)
N3? N 0.530(5) 0.989(5) 0.647(5)
N4? N 0.525(6) 0.073(6) 0.502(6)
Gd1A Gd -0.33294(4) 0.62803(4) 1.15990(4)
Gd1A* Gd 0.66706(4) -0.37197(4) 1.15990(4)
Gd1A** Gd 0.66706(4) 0.62803(4) 1.15990(4)
Gd1A*** Gd 0.66706(4) 0.62803(4) 0.15990(4)
O1A O -0.0811(7) 0.6958(7) 0.9844(7)
O2A O 0.6827(7) -0.0920(7) 1.0782(7)
O2A* O -0.3173(7) 0.9080(7) 1.0782(7)
O3A O 0.4723(7) 0.6934(7) 0.3502(6)
O3A* O -0.5277(7) 0.6934(7) 1.3502(6)
O4A O 0.4626(8) 0.4801(7) 1.1850(6)
O4A* O -0.5374(8) 0.4801(7) 1.1850(6)
O5A O 0.5672(7) 0.1710(7) 0.9681(7)
O5* O -0.5672(7) 0.8290(7) 1.0319(7)
O6A O 0.1331(7) 0.6079(7) 0.8473(6)
O7A O 0.3409(7) 0.3910(8) 1.0735(6)
O7* O -0.3409(7) 0.6090(8) 0.9265(6)
O8A O 0.3482(7) 0.6038(7) 0.5888(6)
O8* O -0.3482(7) 0.3962(7) 1.4112(6)
O9A O -0.1343(8) 0.6210(8) 1.3037(7)
C1A C 0.0134(10) 0.5873(10) 0.9517(9)
C2A C 0.5733(10) 0.0231(10) 1.0146(9)
C3A C 0.4477(10) 0.5868(10) 0.4831(9)
C4A C 0.4421(10) 0.4623(10) 1.0750(9)
#END
