
#######################################################################
#
#                 Cambridge Crystallographic Data Centre
#                                CCDC
#
#######################################################################
#
# If this CIF has been generated from an entry in the Cambridge
# Structural Database, then it will include bibliographic, chemical,
# crystal, experimental, refinement or atomic coordinate data resulting
# from the CCDC's data processing and validation procedures.
#
#######################################################################

data_CSD_CIF_VAWBUS
_audit_creation_date 2012-04-25
_audit_creation_method CSD-ConQuest-V1
_database_code_CSD VAWBUS
_database_code_depnum_ccdc_archive 'CCDC 843812'
_chemical_formula_sum 'C21 H16 N4 O14 Zn2'
_chemical_formula_moiety
;
(C16 H9 N2 O14 Zn2 1-)n,n(C5 H7 N2 1+)
;
_journal_coden_Cambridge 1350
_journal_volume 14
_journal_year 2012
_journal_page_first 1337
_journal_name_full 'CrystEngComm '
loop_
_publ_author_name
"Xinyi Lu"
"Junwei Ye"
"Wei Li"
"Weitao Gong"
"Lijian Yang"
"Yuan Lin"
"Guiling Ning"
_chemical_name_systematic
;
catena-(2-Aminopyridinium 
(\m~3~-hydroxo)-bis(\m~3~-5-nitroisophthalato)-aqua-di-zinc(ii))
;
_cell_volume   1209.255
_exptl_crystal_colour 'yellow'
_exptl_crystal_density_diffrn 1.865
_exptl_crystal_description 'block'
_diffrn_ambient_temperature 293
#These two values have been output from a single CSD field.
_refine_ls_R_factor_gt 0.0373
_refine_ls_wR_factor_gt 0.0373
_symmetry_cell_setting triclinic
_symmetry_space_group_name_H-M 'P -1'
_symmetry_Int_Tables_number 2
loop_
_symmetry_equiv_pos_site_id
_symmetry_equiv_pos_as_xyz
1 x,y,z
2 -x,-y,-z
_cell_length_a 9.4852(19)
_cell_length_b 11.060(2)
_cell_length_c 11.768(2)
_cell_angle_alpha 90.17(3)
_cell_angle_beta 93.31(3)
_cell_angle_gamma 101.11(3)
_cell_formula_units_Z 2
loop_
_atom_type_symbol
_atom_type_radius_bond
C 0.68
H 0.23
N 0.68
O 0.68
Zn 1.22
loop_
_atom_site_label
_atom_site_type_symbol
_atom_site_fract_x
_atom_site_fract_y
_atom_site_fract_z
Zn1 Zn -0.56494(3) 0.11467(3) -0.21531(3)
Zn2 Zn -1.34514(3) 0.01105(3) -0.04878(3)
O1 O -0.3189(2) 0.20278(18) -0.0486(2)
O2 O -0.4736(2) 0.28337(19) -0.1614(2)
O3 O -0.4578(3) 0.7347(2) -0.1383(2)
O4 O -0.3011(3) 0.84626(19) -0.0125(2)
O5 O 0.0386(4) 0.6553(3) 0.2121(3)
O6 O 0.0249(4) 0.4622(3) 0.2058(3)
O7 O -1.4260(2) 0.0948(2) -0.33243(19)
O8 O -1.2746(2) 0.0168(2) -0.21335(19)
O9 O -0.7629(2) 0.1071(2) -0.2728(2)
O10 O -0.6835(2) 0.2049(3) -0.4270(2)
O11 O -1.0371(3) 0.1852(3) -0.7521(2)
O12 O -1.2584(3) 0.1864(3) -0.7212(2)
O13 O -0.5620(2) -0.01749(16) -0.10756(16)
O14 O -1.1141(3) 0.0676(3) 0.0211(3)
N1 N -0.0160(3) 0.5549(3) 0.1756(2)
N2 N -1.1357(3) 0.1775(2) -0.6888(2)
N3 N -0.3324(5) -0.5669(4) 0.3651(3)
N4 N -0.5405(4) -0.7272(4) 0.3736(3)
H1 H -0.59950 -0.77650 0.41300
H2 H -0.55180 -0.72860 0.30050
C1 C -0.3062(3) 0.4157(2) -0.0390(3)
C2 C -0.3572(3) 0.5203(2) -0.0751(3)
H3 H -0.43180 0.51300 -0.13110
C3 C -0.2973(3) 0.6354(2) -0.0280(3)
C4 C -0.1858(3) 0.6473(3) 0.0544(3)
H4 H -0.14490 0.72390 0.08650
C5 C -0.1365(3) 0.5426(3) 0.0883(3)
C6 C -0.1944(3) 0.4277(3) 0.0447(3)
H5 H -0.15960 0.35890 0.07050
C7 C -0.3709(3) 0.2908(2) -0.0871(3)
C8 C -0.3584(3) 0.7473(2) -0.0644(2)
C9 C -1.1898(3) 0.0973(2) -0.3857(2)
C10 C -1.0477(3) 0.1046(2) -0.3446(2)
H6 H -1.02790 0.08440 -0.26950
C11 C -0.9348(3) 0.1419(2) -0.4156(2)
C12 C -0.9645(3) 0.1672(3) -0.5282(2)
H7 H -0.89020 0.19130 -0.57640
C13 C -1.1065(3) 0.1560(2) -0.5683(2)
C14 C -1.2205(3) 0.1232(3) -0.4990(2)
H8 H -1.31490 0.11860 -0.52750
C15 C -1.3061(3) 0.0661(3) -0.3026(2)
C16 C -0.7811(3) 0.1535(3) -0.3694(3)
C17 C -0.4341(4) -0.6506(3) 0.4244(3)
C18 C -0.4171(3) -0.6489(3) 0.5383(3)
H9 H -0.48480 -0.70150 0.57830
C19 C -0.3074(5) -0.5755(4) 0.5986(3)
H10 H -0.30000 -0.58060 0.67750
C20 C -0.2089(5) -0.4949(4) 0.5448(4)
H11 H -0.13340 -0.44410 0.58580
C21 C -0.2222(5) -0.4895(4) 0.4276(4)
H12 H -0.15610 -0.43300 0.38980
Zn1* Zn -1.56494(3) 0.11467(3) -0.21531(3)
Zn2* Zn -0.34514(3) 0.01105(3) -0.04878(3)
Zn2** Zn -0.34514(3) 1.01105(3) -0.04878(3)
Zn2A Zn -0.65486(3) -0.01105(3) 0.04878(3)
O1* O -1.3189(2) 0.20278(18) -0.0486(2)
O4* O -1.3011(3) -0.15374(19) -0.0125(2)
O7* O -0.4260(2) 0.0948(2) -0.33243(19)
O13* O -1.5620(2) -0.01749(16) -0.10756(16)
O13A O -1.4380(2) 0.01749(16) 0.10756(16)
#END
