
#######################################################################
#
#                 Cambridge Crystallographic Data Centre
#                                CCDC
#
#######################################################################
#
# If this CIF has been generated from an entry in the Cambridge
# Structural Database, then it will include bibliographic, chemical,
# crystal, experimental, refinement or atomic coordinate data resulting
# from the CCDC's data processing and validation procedures.
#
#######################################################################

data_CSD_CIF_VAWCED
_audit_creation_date 2012-04-25
_audit_creation_method CSD-ConQuest-V1
_database_code_CSD VAWCED
_database_code_depnum_ccdc_archive 'CCDC 843814'
_chemical_formula_sum 'C37 H26 N6 O29 Zn5'
_chemical_formula_moiety
;
(C32 H17 N4 O28 Zn5 1-)n,n(C5 H7 N2 1+),n(H2 O1)
;
_journal_coden_Cambridge 1350
_journal_volume 14
_journal_year 2012
_journal_page_first 1337
_journal_name_full 'CrystEngComm '
loop_
_publ_author_name
"Xinyi Lu"
"Junwei Ye"
"Wei Li"
"Weitao Gong"
"Lijian Yang"
"Yuan Lin"
"Guiling Ning"
_chemical_name_systematic
;
catena-(4-Aminopyridinium 
tris(\m~4~-5-nitroisophthalato)-(\m~3~-5-nitroisophthalato)-bis(\m~3~-hydroxo)
-(\m~2~-hydroxo)-aqua-penta-zinc(ii) monohydrate)
;
_cell_volume   2280.666
_exptl_crystal_colour 'colorless'
_exptl_crystal_density_diffrn 1.959
_exptl_crystal_description 'block'
_diffrn_ambient_temperature 293
#These two values have been output from a single CSD field.
_refine_ls_R_factor_gt 0.0413
_refine_ls_wR_factor_gt 0.0413
_symmetry_cell_setting triclinic
_symmetry_space_group_name_H-M 'P -1'
_symmetry_Int_Tables_number 2
loop_
_symmetry_equiv_pos_site_id
_symmetry_equiv_pos_as_xyz
1 x,y,z
2 -x,-y,-z
_cell_length_a 12.608(4)
_cell_length_b 14.324(5)
_cell_length_c 15.693(5)
_cell_angle_alpha 63.256(4)
_cell_angle_beta 81.245(4)
_cell_angle_gamma 64.466(3)
_cell_formula_units_Z 2
loop_
_atom_type_symbol
_atom_type_radius_bond
C 0.68
H 0.23
N 0.68
O 0.68
Zn 1.22
loop_
_atom_site_label
_atom_site_type_symbol
_atom_site_fract_x
_atom_site_fract_y
_atom_site_fract_z
Zn1 Zn 0.57349(4) -0.05937(4) 0.59861(3)
Zn2 Zn 0.63873(5) -0.33079(4) 0.90661(4)
Zn3 Zn 0.19027(4) 0.42782(4) 0.86862(4)
Zn4 Zn 0.07379(4) -0.55116(4) 1.09720(4)
Zn5 Zn 0.46990(5) 0.21038(4) 0.52052(4)
O1 O 0.4450(3) -0.1149(3) 0.6803(2)
O2 O 0.5514(3) -0.2883(3) 0.7912(2)
O3 O 0.3389(3) -0.5127(3) 1.0067(3)
O4 O 0.1496(3) -0.4276(3) 1.0310(3)
O5 O -0.0288(4) -0.0055(4) 0.8904(4)
O6 O 0.0444(4) 0.0867(3) 0.7688(3)
O7 O 0.4619(3) 0.2289(3) 1.0353(2)
O8 O 0.3478(3) 0.3091(3) 0.9052(3)
O9 O 0.4960(3) 0.1698(3) 0.6556(2)
O10 O 0.5922(3) -0.0217(3) 0.7099(2)
O11 O 0.8697(3) -0.1856(3) 0.9860(3)
O12 O 0.8272(4) -0.1042(4) 1.0807(4)
O13 O 0.1350(3) 0.3912(3) 0.7824(3)
O14 O -0.0487(3) 0.5130(3) 0.7855(2)
O15 O -0.3364(3) 0.6479(3) 0.5438(3)
O16 O -0.3206(4) 0.5528(4) 0.4610(4)
O17 O 0.0849(3) 0.2659(3) 0.4640(3)
O18 O 0.1968(3) 0.1776(3) 0.5924(3)
O19 O 0.9897(3) 0.3327(3) 0.1695(2)
O20 O 0.8089(3) 0.4218(3) 0.2090(2)
O21 O 0.6162(3) 0.2021(3) 0.4558(2)
O22 O 0.6989(3) 0.0096(3) 0.5204(2)
O23 O 1.1051(4) -0.1794(3) 0.4411(3)
O24 O 1.1870(4) -0.0801(4) 0.3320(4)
O25 O 0.7184(3) -0.2146(3) 0.6557(2)
H1 H 0.74790 -0.20030 0.61430
H2 H 0.72550 -0.24020 0.70640
O26 O 0.7763(3) -0.3115(3) 0.8498(2)
H3 H 0.77810 -0.28010 0.86890
O27 O 0.0838(3) 0.4206(2) 0.9726(2)
H4 H 0.08460 0.37020 0.98550
O28 O 0.4350(3) 0.0905(2) 0.5197(2)
H5 H 0.38300 0.09380 0.54130
N1 N 0.0490(4) -0.0009(4) 0.8345(3)
N2 N 0.8049(4) -0.1105(4) 1.0115(3)
N3 N 0.1087(4) 0.2541(4) 0.5425(3)
N4 N 1.1052(4) -0.0883(4) 0.3815(3)
C1 C 0.3484(4) -0.2027(4) 0.8122(3)
C2 C 0.3465(4) -0.3073(4) 0.8793(3)
H6 H 0.41370 -0.37460 0.89120
C3 C 0.2468(4) -0.3127(4) 0.9283(3)
C4 C 0.1483(4) -0.2110(4) 0.9138(3)
H7 H 0.08080 -0.21250 0.94690
C5 C 0.1524(4) -0.1069(4) 0.8489(3)
C6 C 0.2493(4) -0.1010(4) 0.7968(3)
H8 H 0.24890 -0.03070 0.75220
C7 C 0.4566(4) -0.2006(4) 0.7567(3)
C8 C 0.2429(4) -0.4254(4) 0.9935(3)
C9 C 0.5216(4) 0.1464(4) 0.9268(3)
C10 C 0.4997(4) 0.1482(4) 0.8412(3)
H9 H 0.43290 0.20640 0.80280
C11 C 0.5761(4) 0.0644(4) 0.8129(3)
C12 C 0.6759(4) -0.0224(4) 0.8690(3)
H10 H 0.72700 -0.07980 0.85120
C13 C 0.6984(4) -0.0219(4) 0.9532(3)
C14 C 0.6220(4) 0.0609(4) 0.9830(3)
H11 H 0.63810 0.05880 1.03990
C15 C 0.4364(4) 0.2351(4) 0.9582(3)
C16 C 0.5534(4) 0.0706(4) 0.7180(3)
C17 C -0.0114(4) 0.4278(4) 0.6798(3)
C18 C -0.1231(4) 0.4974(4) 0.6385(3)
H12 H -0.17360 0.55220 0.65940
C19 C -0.1621(4) 0.4876(4) 0.5658(3)
C20 C -0.0855(4) 0.4049(4) 0.5351(3)
H13 H -0.10910 0.39630 0.48670
C21 C 0.0252(4) 0.3371(4) 0.5780(3)
C22 C 0.0654(4) 0.3456(4) 0.6502(3)
H14 H 0.14110 0.29780 0.67790
C23 C 0.0286(4) 0.4452(4) 0.7561(3)
C24 C -0.2824(5) 0.5681(4) 0.5181(4)
C25 C 0.9037(4) 0.2202(4) 0.2906(3)
C26 C 0.8064(4) 0.2142(4) 0.3448(3)
H15 H 0.74050 0.28150 0.33640
C27 C 0.8058(4) 0.1098(4) 0.4110(3)
C28 C 0.9044(4) 0.0093(4) 0.4233(3)
H16 H 0.90590 -0.06170 0.46710
C29 C 0.9997(4) 0.0168(4) 0.3695(3)
C30 C 1.0021(4) 0.1204(4) 0.3033(3)
H17 H 1.06820 0.12260 0.26830
C31 C 0.9019(4) 0.3330(4) 0.2176(3)
C32 C 0.6990(4) 0.1044(4) 0.4678(3)
N5 N 0.4995(6) 0.5999(6) 0.3534(5)
H18 H 0.53860 0.61000 0.38650
N6 N 0.3216(6) 0.5536(7) 0.1969(5)
H19 H 0.35200 0.49810 0.18040
H20 H 0.24970 0.60220 0.17980
C33 C 0.5517(11) 0.5148(9) 0.3284(8)
H21 H 0.63070 0.46670 0.34630
C34 C 0.4940(9) 0.4965(10) 0.2787(8)
H22 H 0.53280 0.43360 0.26470
C35 C 0.3838(8) 0.5634(9) 0.2479(6)
C36 C 0.3224(7) 0.6652(7) 0.2716(5)
H23 H 0.24570 0.71870 0.24960
C37 C 0.3847(7) 0.6715(7) 0.3243(6)
H24 H 0.34870 0.72960 0.34440
O29 O 0.1012(7) 0.7447(6) 0.1346(5)
H25 H 0.14950 0.76890 0.13500
H26 H 0.08770 0.70210 0.12000
Zn1A Zn 0.42651(4) 0.05937(4) 0.40139(3)
Zn2A Zn 0.36127(5) -0.66921(4) 1.09339(4)
Zn2A* Zn 0.36127(5) 0.33079(4) 1.09339(4)
Zn3A Zn 0.80973(4) 0.57218(4) 0.13138(4)
Zn4A Zn -0.07379(4) 0.55116(4) 0.90280(4)
Zn4* Zn 1.07379(4) 0.44884(4) 0.09720(4)
Zn4A* Zn 0.92621(4) -0.44884(4) 0.90280(4)
Zn4** Zn 0.07379(4) 0.44884(4) 1.09720(4)
Zn5A Zn -0.46990(5) 0.78962(4) 0.47948(4)
O3A O 0.6611(3) -0.4873(3) 0.9933(3)
O7A O 0.5381(3) -0.2289(3) 0.9647(2)
O14A O 0.0487(3) -0.5130(3) 1.2145(2)
O15A O 0.3364(3) 0.3521(3) 0.4562(3)
O19* O -0.0103(3) -0.6673(3) 1.1695(2)
O20A O 0.1911(3) 0.5782(3) 0.7910(2)
O26A O 0.2237(3) -0.6885(3) 1.1502(2)
H3A H 0.22190 -0.71990 1.13110
O27* O 0.0838(3) -0.5794(2) 0.9726(2)
O27A O -0.0838(3) -0.4206(2) 1.0274(2)
H4* H 0.08460 -0.62980 0.98550
H4A H -0.08460 -0.37020 1.01450
O28A O 0.5650(3) -0.0905(2) 0.4803(2)
H5A H 0.61700 -0.09380 0.45870
#END
