
#######################################################################
#
#                 Cambridge Crystallographic Data Centre
#                                CCDC
#
#######################################################################
#
# If this CIF has been generated from an entry in the Cambridge
# Structural Database, then it will include bibliographic, chemical,
# crystal, experimental, refinement or atomic coordinate data resulting
# from the CCDC's data processing and validation procedures.
#
#######################################################################

data_CSD_CIF_VAWCAZ
_audit_creation_date 2012-04-25
_audit_creation_method CSD-ConQuest-V1
_database_code_CSD VAWCAZ
_database_code_depnum_ccdc_archive 'CCDC 843813'
_chemical_formula_sum 'C37 H24 N6 O28 Zn5'
_chemical_formula_moiety
;
(C32 H17 N4 O28 Zn5 1-)n,n(C5 H7 N2 1+)
;
_journal_coden_Cambridge 1350
_journal_volume 14
_journal_year 2012
_journal_page_first 1337
_journal_name_full 'CrystEngComm '
loop_
_publ_author_name
"Xinyi Lu"
"Junwei Ye"
"Wei Li"
"Weitao Gong"
"Lijian Yang"
"Yuan Lin"
"Guiling Ning"
_chemical_name_systematic
;
catena-(3-Aminopyridinium 
tris(\m~4~-5-nitroisophthalato)-(\m~3~-5-nitroisophthalato)-bis(\m~3~-hydroxo)
-(\m~2~-hydroxo)-aqua-penta-zinc(ii))
;
_cell_volume   2234.463
_exptl_crystal_colour 'brown'
_exptl_crystal_density_diffrn 1.973
_exptl_crystal_description 'block'
_diffrn_ambient_temperature 293
#These two values have been output from a single CSD field.
_refine_ls_R_factor_gt 0.0246
_refine_ls_wR_factor_gt 0.0246
_symmetry_cell_setting triclinic
_symmetry_space_group_name_H-M 'P -1'
_symmetry_Int_Tables_number 2
loop_
_symmetry_equiv_pos_site_id
_symmetry_equiv_pos_as_xyz
1 x,y,z
2 -x,-y,-z
_cell_length_a 12.2062(6)
_cell_length_b 14.1995(7)
_cell_length_c 15.5626(8)
_cell_angle_alpha 65.057(2)
_cell_angle_beta 82.427(2)
_cell_angle_gamma 66.150(2)
_cell_formula_units_Z 2
loop_
_atom_type_symbol
_atom_type_radius_bond
C 0.68
H 0.23
N 0.68
O 0.68
Zn 1.22
loop_
_atom_site_label
_atom_site_type_symbol
_atom_site_fract_x
_atom_site_fract_y
_atom_site_fract_z
Zn1 Zn 0.80441(2) 0.06861(2) 0.13238(2)
Zn2 Zn 0.63498(2) 0.16064(2) -0.098456(19)
Zn3 Zn 0.92754(2) 0.04997(2) -0.098440(19)
Zn4 Zn 0.57041(2) -0.55797(2) 0.600550(19)
Zn5 Zn 0.53030(2) 0.29164(2) 0.47516(2)
O1 O 0.85803(16) 0.10883(16) 0.22075(14)
O2 O 1.04137(17) -0.01742(16) 0.22027(14)
O3 O 1.33405(18) -0.15402(16) 0.46697(15)
O4 O 1.3369(2) -0.04512(19) 0.5336(2)
O5 O 0.92238(19) 0.23614(17) 0.53983(15)
O6 O 0.81267(18) 0.32589(17) 0.40965(17)
O7 O 0.80497(16) -0.08100(14) 0.20665(13)
O8 O 0.98494(16) -0.16632(14) 0.15938(13)
O9 O 0.61922(15) -0.29759(14) 0.46060(13)
O10 O 0.70154(15) -0.48637(14) 0.52526(12)
O11 O 1.10803(19) -0.67036(16) 0.43040(17)
O12 O 1.18256(19) -0.57223(18) 0.31147(18)
O13 O 0.53754(17) 0.26392(16) -0.03967(13)
O14 O 0.64082(17) 0.17675(17) 0.09789(15)
O15 O 0.50456(18) 0.32699(15) 0.34127(13)
O16 O 0.41485(17) 0.51531(15) 0.28881(13)
O17 O 0.1457(2) 0.68908(17) 0.00450(18)
O18 O 0.1830(2) 0.6114(2) -0.09332(19)
O19 O 0.43432(15) 0.38941(14) -0.32045(12)
O20 O 0.54462(15) 0.21722(14) -0.21794(12)
O21 O 0.34386(16) -0.00580(14) 0.01820(14)
O22 O 0.15126(16) 0.07312(15) 0.04462(15)
O23 O -0.0355(2) 0.4904(2) -0.0925(2)
O24 O 0.03493(19) 0.58086(16) -0.21872(17)
O25 O 0.91329(15) 0.07717(15) 0.02947(12)
O26 O 0.77642(18) 0.1843(2) -0.15017(16)
O27 O 0.71821(19) -0.70564(17) 0.65566(17)
O28 O 0.56786(16) -0.59001(13) 0.48023(12)
N1 N 0.8995(2) 0.24848(18) 0.46057(18)
N2 N 1.10467(19) -0.58077(18) 0.36864(17)
N3 N 0.2058(2) 0.61405(19) -0.02149(18)
N4 N 0.0419(2) 0.49514(19) -0.14996(19)
N5 N 0.4883(3) 0.0938(2) 0.3471(2)
H1 H 0.52530 0.10510 0.38280
N6 N 0.2138(4) 0.2345(4) 0.2084(4)
H2 H 0.17690 0.22360 0.17230
H3 H 0.18180 0.29510 0.21820
C1 C 1.0107(2) 0.0725(2) 0.32247(18)
C2 C 1.1249(2) 0.0022(2) 0.36517(18)
H4 H 1.17410 -0.05360 0.34480
C3 C 1.1668(2) 0.0136(2) 0.43740(18)
C4 C 1.0939(2) 0.0956(2) 0.46865(18)
H5 H 1.11990 0.10420 0.51740
C5 C 0.9804(2) 0.1646(2) 0.42499(19)
C6 C 0.9373(2) 0.1558(2) 0.35250(18)
H6 H 0.86110 0.20430 0.32450
C7 C 0.9674(2) 0.0535(2) 0.24813(18)
C8 C 1.2899(2) -0.0671(2) 0.48437(19)
C9 C 0.9022(2) -0.2777(2) 0.28543(17)
C10 C 0.8076(2) -0.2850(2) 0.34407(17)
H7 H 0.74200 -0.21930 0.33840
C11 C 0.8082(2) -0.38749(19) 0.41097(17)
C12 C 0.9067(2) -0.4862(2) 0.42035(17)
H8 H 0.90900 -0.55600 0.46470
C13 C 1.0009(2) -0.4772(2) 0.36158(18)
C14 C 1.0015(2) -0.3759(2) 0.29444(18)
H9 H 1.06640 -0.37310 0.25620
C15 C 0.8988(2) -0.1668(2) 0.21135(18)
C16 C 0.7016(2) -0.3925(2) 0.47127(17)
C17 C 0.4781(2) 0.3481(2) 0.06927(17)
C18 C 0.5006(2) 0.3457(2) 0.15546(17)
H10 H 0.56510 0.28580 0.19490
C19 C 0.4286(2) 0.4308(2) 0.18381(17)
C20 C 0.3322(2) 0.5205(2) 0.12464(18)
H11 H 0.28380 0.57930 0.14180
C21 C 0.3100(2) 0.5205(2) 0.03988(18)
C22 C 0.3810(2) 0.4366(2) 0.01044(18)
H12 H 0.36440 0.43910 -0.04730
C23 C 0.4506(2) 0.4252(2) 0.27910(18)
C24 C 0.5593(2) 0.2560(2) 0.04000(18)
C25 C 0.3421(2) 0.30103(19) -0.18420(17)
C26 C 0.3431(2) 0.1979(2) -0.11621(17)
H13 H 0.41030 0.13250 -0.10830
C27 C 0.2460(2) 0.1910(2) -0.06015(17)
C28 C 0.1466(2) 0.2894(2) -0.06989(19)
H14 H 0.08090 0.28690 -0.03260
C29 C 0.1487(2) 0.3908(2) -0.13673(19)
C30 C 0.2433(2) 0.3994(2) -0.19513(18)
H15 H 0.24060 0.46890 -0.24030
C31 C 0.4479(2) 0.30405(19) -0.24592(17)
C32 C 0.2452(2) 0.0779(2) 0.00664(17)
C33 C 0.3824(3) 0.1690(3) 0.3111(3)
H16 H 0.34770 0.23080 0.32690
C34 C 0.3201(3) 0.1581(3) 0.2488(3)
C35 C 0.3747(4) 0.0588(4) 0.2343(3)
H17 H 0.33630 0.04520 0.19560
C36 C 0.4834(4) -0.0178(4) 0.2764(4)
H18 H 0.51840 -0.08430 0.26730
C37 C 0.5417(4) 0.0015(4) 0.3318(4)
H19 H 0.61790 -0.04950 0.35840
H20 H 0.920(3) 0.126(3) 0.014(3)
H21 H 0.781(4) 0.218(4) -0.148(4)
H22 H 0.737(4) -0.742(4) 0.707(4)
H23 H 0.623(3) -0.592(2) 0.462(2)
H24 H 0.776(4) -0.712(4) 0.628(3)
Zn2A Zn 0.36502(2) -0.16064(2) 0.098456(19)
Zn3A Zn 1.07246(2) -0.04997(2) 0.098440(19)
Zn3A* Zn 0.07246(2) -0.04997(2) 0.098440(19)
Zn4A Zn 0.42959(2) 0.55797(2) 0.399450(19)
Zn4* Zn 0.57041(2) 0.44203(2) -0.399450(19)
Zn4A* Zn 0.42959(2) -0.44203(2) 0.399450(19)
Zn5A Zn 1.46970(2) -0.29164(2) 0.52484(2)
Zn5A* Zn 0.46970(2) -0.29164(2) 0.52484(2)
Zn5* Zn 0.53030(2) -0.70836(2) 0.47516(2)
O2A O 0.95863(17) 0.01742(16) -0.22027(14)
O3A O 0.66595(18) 0.15402(16) 0.53303(15)
O8A O 1.01506(16) 0.16632(14) -0.15938(13)
O9A O 0.38078(15) 0.29759(14) 0.53940(13)
O16A O 0.58515(17) -0.51531(15) 0.71119(13)
O19* O 0.43432(15) -0.61059(14) 0.67955(12)
O21A O 0.65614(16) 0.00580(14) -0.01820(14)
O22A O 0.84874(16) -0.07312(15) -0.04462(15)
O25A O 1.08671(15) -0.07717(15) -0.02947(12)
O28A O 0.43214(16) -0.40999(13) 0.51977(12)
O28* O 0.56786(16) 0.40999(13) 0.48023(12)
H20A H 1.080(3) -0.126(3) -0.014(3)
H23A H 0.377(3) -0.408(2) 0.538(2)
H23* H 0.623(3) 0.408(2) 0.462(2)
#END
