
#######################################################################
#
#                 Cambridge Crystallographic Data Centre
#                                CCDC
#
#######################################################################
#
# If this CIF has been generated from an entry in the Cambridge
# Structural Database, then it will include bibliographic, chemical,
# crystal, experimental, refinement or atomic coordinate data resulting
# from the CCDC's data processing and validation procedures.
#
#######################################################################

data_CSD_CIF_VAWXAS02
_audit_creation_date 2009-08-25
_audit_creation_method CSD-ConQuest-V1
_database_code_CSD VAWXAS02
_database_code_depnum_ccdc_archive 'CCDC 248921'
_chemical_formula_sum 'C10 H37.4 Co2 O25.7'
_chemical_formula_moiety
;
(C10 H10 Co1 O12 1-)n,n(H12 Co1 O6 1+),7.7n(H2 O1)
;
_journal_coden_Cambridge 1003
_journal_volume 35
_journal_year 2005
_journal_page_first 433
_journal_name_full 'J.Chem.Cryst. '
loop_
_publ_author_name
"M.Zeller"
"A.R.Chema"
"P.S.Szalay"
"A.D.Hunter"
_chemical_name_systematic
;
catena-(Hexa-aqua-cobalt(ii) 
(\m~2~-benzenetetracarboxylato-O,O')-tetra-aqua-cobalt(ii) hydrate)
;
_cell_volume    696.164
_exptl_crystal_colour 'yellow'
_exptl_crystal_density_diffrn 1.636
_exptl_special_details
;
The cell data published in the paper for this compound is incorrect. The 
crystallographic data has been taken from the deposited cif
;
_exptl_crystal_description 'plate'
_diffrn_ambient_temperature 293
_refine_special_details
;
Three coordinated water molecules are disordered over two sites with 
occupancies of 0.864:0.136.
;
#These two values have been output from a single CSD field.
_refine_ls_R_factor_gt 0.0386
_refine_ls_wR_factor_gt 0.0386
_symmetry_cell_setting triclinic
_symmetry_space_group_name_H-M 'P -1'
_symmetry_Int_Tables_number 2
loop_
_symmetry_equiv_pos_site_id
_symmetry_equiv_pos_as_xyz
1 x,y,z
2 -x,-y,-z
_cell_length_a 6.8591(9)
_cell_length_b 9.9691(13)
_cell_length_c 10.9231(14)
_cell_angle_alpha 93.021(2)
_cell_angle_beta 104.883(2)
_cell_angle_gamma 103.702(2)
_cell_formula_units_Z 1
loop_
_atom_type_symbol
_atom_type_radius_bond
C 0.68
H 0.23
Co 1.26
O 0.68
loop_
_atom_site_label
_atom_site_type_symbol
_atom_site_fract_x
_atom_site_fract_y
_atom_site_fract_z
C1 C 0.3994(4) -0.0107(3) 0.7426(2)
C2 C 0.4542(4) -0.0083(3) 0.6170(2)
H1 H 0.796(8) 0.139(5) 1.091(5)
H2 H 0.709(7) 0.128(4) 0.966(5)
Co1 Co 1.00000 0.00000 1.00000
O1 O 0.4782(3) 0.0973(2) 0.82201(19)
O2 O 0.8407(3) -0.02137(19) 0.80765(17)
O3 O 0.8290(3) 0.1419(2) 1.0295(2)
O4 O 0.7634(4) -0.1690(2) 1.0256(2)
C3 C 0.8376(4) 0.0723(3) 0.7336(2)
O5 O 0.2749(4) -0.1173(2) 0.7573(2)
O6 O 0.9681(4) 0.1867(2) 0.7533(2)
C4 C 0.6611(4) 0.0382(3) 0.6131(2)
C5 C 0.2949(4) -0.0473(3) 0.5042(3)
H3 H 0.164(6) -0.067(4) 0.512(3)
Co2 Co 0.00000 0.50000 0.50000
O7 O -0.1697(5) 0.6483(3) 0.4989(3)
H4 H -0.19620 0.65620 0.56750
H5 H -0.247(7) 0.653(7) 0.430(2)
O8 O 0.2467(5) 0.6342(3) 0.6352(4)
H6 H 0.20320 0.69040 0.67110
H7 H 0.371(4) 0.637(6) 0.648(6)
O9 O 0.1033(6) 0.5838(3) 0.3476(3)
H8 H 0.07640 0.65920 0.33890
H9 H 0.215(6) 0.573(5) 0.334(6)
O10? O 0.303(3) 0.605(2) 0.4990(19)
H10? H 0.38240 0.55540 0.52230
H11? H 0.34(2) 0.689(6) 0.52(3)
O11? O -0.019(3) 0.668(2) 0.610(2)
H12? H 0.02330 0.65920 0.68610
H13? H 0.04(4) 0.73(3) 0.577(11)
O12? O -0.119(3) 0.585(2) 0.3330(19)
H14? H -0.18310 0.64060 0.34920
H15? H -0.01(3) 0.609(7) 0.32(4)
O13 O 0.4991(5) 0.6504(3) 0.2919(3)
H16 H 0.504(10) 0.607(5) 0.220(3)
H17 H 0.494(9) 0.735(3) 0.269(5)
O14 O 0.6869(5) 0.6969(3) 0.7086(3)
H18 H 0.796(6) 0.674(5) 0.758(5)
H19 H 0.710(8) 0.786(3) 0.736(5)
O15 O 0.526(2) 0.4518(12) 0.1043(11)
H20 H 0.52(3) 0.400(17) 0.033(11)
H21 H 0.660(12) 0.504(18) 0.125(17)
O16? O 0.758(9) 0.541(3) 0.939(4)
O17 O 0.0318(17) 0.5695(5) 0.9021(5)
H22 H 0.15530 0.55030 0.90590
H23 H 0.07530 0.65660 0.94320
H24 H 0.680(7) -0.147(4) 1.047(4)
H25 H 0.821(10) -0.204(6) 1.084(6)
C1A C 0.6006(4) 0.0107(3) 0.2574(2)
C2A C 0.5458(4) 0.0083(3) 0.3830(2)
H1A H 1.204(8) -0.139(5) 0.909(5)
H2A H 1.291(7) -0.128(4) 1.034(5)
Co1* Co 0.00000 0.00000 0.00000
O1A O 0.5218(3) -0.0973(2) 0.17799(19)
O2A O 0.1593(3) 0.02137(19) 0.19235(17)
O2A* O 1.1593(3) 0.02137(19) 1.19235(17)
O3A O 1.1710(3) -0.1419(2) 0.9705(2)
O4A O 1.2366(4) 0.1690(2) 0.9744(2)
C3A C 0.1624(4) -0.0723(3) 0.2664(2)
O5A O 0.7251(4) 0.1173(2) 0.2427(2)
O6A O 0.0319(4) -0.1867(2) 0.2467(2)
C4A C 0.3389(4) -0.0382(3) 0.3869(2)
C5A C 0.7051(4) 0.0473(3) 0.4958(3)
H3A H 0.836(6) 0.067(4) 0.488(3)
O7A O 0.1697(5) 0.3517(3) 0.5011(3)
H4A H 0.19620 0.34380 0.43250
H5A H 0.247(7) 0.347(7) 0.570(2)
O8A O -0.2467(5) 0.3658(3) 0.3648(4)
H6A H -0.20320 0.30960 0.32890
H7A H -0.371(4) 0.363(6) 0.352(6)
O9A O -0.1033(6) 0.4162(3) 0.6524(3)
H8A H -0.07640 0.34080 0.66110
H9A H -0.215(6) 0.427(5) 0.666(6)
H24A H 1.320(7) 0.147(4) 0.953(4)
H25A H 1.179(10) 0.204(6) 0.916(6)
#END
