
#######################################################################
#
#                 Cambridge Crystallographic Data Centre
#                                CCDC
#
#######################################################################
#
# If this CIF has been generated from an entry in the Cambridge
# Structural Database, then it will include bibliographic, chemical,
# crystal, experimental, refinement or atomic coordinate data resulting
# from the CCDC's data processing and validation procedures.
#
#######################################################################

data_CSD_CIF_VAWXAS01
_audit_creation_date 1992-09-07
_audit_creation_method CSD-ConQuest-V1
_database_code_CSD VAWXAS01
_database_code_depnum_ccdc_fiz 'CSD 55305'
_chemical_formula_sum 'C10 H38 Co2 O26'
_chemical_formula_moiety
;
(C10 H10 Co1 O12 2-)n,n(H12 Co1 O6 2+),8n(H2 O1)
;
_journal_coden_Cambridge 287
_journal_volume 26
_journal_year 1991
_journal_page_first 1355
_journal_name_full 'Mater.Res.Bull. '
loop_
_publ_author_name
"C.Robl"
"S.Hentschel"
_chemical_name_systematic
;
catena((\m~2~-Pyromellitato)-tetra-aqua-cobalt hexa-aqua-cobalt octahydrate)
;
_cell_volume    699.889
_exptl_crystal_colour 'red'
_exptl_crystal_density_diffrn 1.64
_diffrn_ambient_temperature ?
_diffrn_special_details
;
The study was carried out at room temperature,in the range 283-303K

;
#These two values have been output from a single CSD field.
_refine_ls_R_factor_gt 0.0335
_refine_ls_wR_factor_gt 0.0335
_symmetry_cell_setting triclinic
_symmetry_space_group_name_H-M 'P -1'
_symmetry_Int_Tables_number 2
loop_
_symmetry_equiv_pos_site_id
_symmetry_equiv_pos_as_xyz
1 x,y,z
2 -x,-y,-z
_cell_length_a 6.864(1)
_cell_length_b 10.00(2)
_cell_length_c 10.932(2)
_cell_angle_alpha 93.00(2)
_cell_angle_beta 104.86(1)
_cell_angle_gamma 103.59(1)
_cell_formula_units_Z 1
loop_
_atom_type_symbol
_atom_type_radius_bond
C 0.68
H 0.23
Co 1.33
O 0.68
loop_
_atom_site_label
_atom_site_type_symbol
_atom_site_fract_x
_atom_site_fract_y
_atom_site_fract_z
Co1 Co 0.50000 0.50000 0.50000
O1 O 0.3310(5) 0.6479(3) 0.4997(3)
O2 O 0.2518(4) 0.3653(3) 0.3657(3)
O3 O 0.3968(5) 0.4168(3) 0.6534(3)
H1 H 0.2472(81) 0.655(5) 0.4333(53)
H2 H 0.2794(74) 0.6612(48) 0.5706(53)
H3 H 0.4220(74) 0.3401(53) 0.6786(49)
Co2 Co 0.50000 0.00000 0.00000
O4 O 0.3410(3) -0.0209(2) -0.1927(2)
O5 O 0.4674(3) 0.1870(2) -0.2468(2)
O6 O -0.0232(3) 0.0966(2) -0.1783(2)
O7 O -0.2246(4) -0.1174(2) -0.2427(2)
C1 C 0.1607(4) 0.0387(3) -0.3871(2)
C2 C -0.0460(4) -0.0087(3) -0.3831(2)
C3 C 0.2054(4) 0.0481(3) -0.5040(2)
C4 C 0.3374(4) 0.0722(3) -0.2662(2)
C5 C -0.1010(4) -0.0107(3) -0.2576(2)
O8 O 0.7354(3) 0.1686(2) -0.0256(2)
O9 O 0.3267(3) 0.1406(2) 0.0293(2)
H4 H 0.3519(58) 0.0740(36) -0.5057(35)
H5 H 0.8304(78) 0.1388(48) -0.0483(49)
H6 H 0.6872(78) 0.2042(51) -0.0797(52)
H7 H 0.2197(82) 0.1337(49) -0.0281(53)
H8 H 0.2813(75) 0.1294(48) 0.0898(53)
O10 O 0.0026(5) -0.3486(3) -0.7084(3)
H9 H -0.0011(75) -0.2679(54) -0.7369(48)
O11 O 0.8063(5) 0.3022(3) 0.2903(3)
O12 O 0.4691(14) 0.4282(5) 0.0990(5)
O13 O 0.9718(14) 0.5483(8) -0.1087(8)
O1A O 0.6690(5) 0.3521(3) 0.5003(3)
H1A H 0.7528(81) 0.345(5) 0.5667(53)
H2A H 0.7206(74) 0.3388(48) 0.4294(53)
O2A O 0.7482(4) 0.6347(3) 0.6343(3)
O3A O 0.6032(5) 0.5832(3) 0.3466(3)
H3A H 0.5780(74) 0.6599(53) 0.3214(49)
C3A C -0.2054(4) -0.0481(3) -0.4960(2)
C1A C -0.1607(4) -0.0387(3) -0.6129(2)
C2A C 0.0460(4) 0.0087(3) -0.6169(2)
C5A C 0.1010(4) 0.0107(3) -0.7424(2)
O6A O 0.0232(3) -0.0966(2) -0.8217(2)
O7A O 0.2246(4) 0.1174(2) -0.7573(2)
C4A C -0.3374(4) -0.0722(3) -0.7338(2)
O4A O -0.3410(3) 0.0209(2) -0.8073(2)
O5A O -0.4674(3) -0.1870(2) -0.7532(2)
H4A H -0.3519(58) -0.0740(36) -0.4943(35)
O8A O 0.2646(3) -0.1686(2) 0.0256(2)
H5A H 0.1696(78) -0.1388(48) 0.0483(49)
H6A H 0.3128(78) -0.2042(51) 0.0797(52)
O9A O 0.6733(3) -0.1406(2) -0.0293(2)
H7A H 0.7803(82) -0.1337(49) 0.0281(53)
H8A H 0.7187(75) -0.1294(48) -0.0898(53)
O4A* O 0.6590(3) 0.0209(2) 0.1927(2)
Co2* Co -0.50000 0.00000 -1.00000
#END
