
#######################################################################
#
#                 Cambridge Crystallographic Data Centre
#                                CCDC
#
#######################################################################
#
# If this CIF has been generated from an entry in the Cambridge
# Structural Database, then it will include bibliographic, chemical,
# crystal, experimental, refinement or atomic coordinate data resulting
# from the CCDC's data processing and validation procedures.
#
#######################################################################

data_CSD_CIF_VAXLUE
_audit_creation_date 2017-05-03
_audit_creation_method CSD-ConQuest-V1
_database_code_CSD VAXLUE
_database_code_depnum_ccdc_archive 'CCDC 1522713'
_chemical_formula_sum 'C24 H32 As2 Cu1 Mo6 N8 O30'
_chemical_formula_moiety
;
(C12 H16 As2 Cu1 Mo6 N4 O28 2-)n,n(C12 H12 N4 2+),2n(H2 O1)
;
_journal_coden_Cambridge 1350
_journal_volume 19
_journal_year 2017
_journal_page_first 2739
_journal_name_full 'CrystEngComm '
loop_
_publ_author_name
"Bo-Wen Cong"
"Zhan-Hua Su"
"Zhi-Feng Zhao"
"Bao-Yi Yu"
"Wen-Qi Zhao"
"Lin Xia"
"Xiu-Juan Ma"
"Bai-Bin Zhou"
_chemical_name_systematic
;
catena-[1,1'-(1,4-phenylene)di(1H-imidazol-3-ium) 
bis(\m-arsenato)-bis(\m-hydroxo)-hexakis(\m-oxo)-(\m-1,1'-(1,4-phenylene)di(1H
-imidazole))-diaqua-decaoxo-copper-hexa-molybdenum dihydrate]
;
_cell_volume   1085.679
_exptl_crystal_density_diffrn 2.599
_exptl_crystal_description 'block'
_diffrn_ambient_temperature 296.1
#These two values have been output from a single CSD field.
_refine_ls_R_factor_gt 0.0393
_refine_ls_wR_factor_gt 0.0393
_symmetry_cell_setting triclinic
_symmetry_space_group_name_H-M 'P -1'
_symmetry_Int_Tables_number 2
loop_
_symmetry_equiv_pos_site_id
_symmetry_equiv_pos_as_xyz
1 x,y,z
2 -x,-y,-z
_cell_length_a 10.449(2)
_cell_length_b 10.526(2)
_cell_length_c 10.759(2)
_cell_angle_alpha 78.550(2)
_cell_angle_beta 75.968(2)
_cell_angle_gamma 72.670(2)
_cell_formula_units_Z 1
loop_
_atom_type_symbol
_atom_type_radius_bond
C 0.68
H 0.23
As 1.21
Cu 1.32
Mo 1.54
N 0.68
O 0.68
loop_
_atom_site_label
_atom_site_type_symbol
_atom_site_fract_x
_atom_site_fract_y
_atom_site_fract_z
Mo1 Mo 0.74702(4) 0.63104(4) 0.83079(3)
Mo2 Mo 0.75680(4) 0.50075(4) 1.13269(3)
Mo3 Mo 0.51219(4) 0.35695(4) 1.30090(3)
As1 As 0.59208(4) 0.34895(4) 0.95180(4)
Cu1 Cu 1.00000 0.50000 0.50000
O1 O 0.8484(4) 0.4452(4) 0.4540(3)
H1 H 0.86610 0.43600 0.37200
H2 H 0.77040 0.50560 0.46960
O2 O 0.8580(4) 0.5840(4) 0.6917(3)
O3 O 0.7887(4) 0.7642(4) 0.8615(3)
O4 O 0.8270(3) 0.4924(3) 0.9537(3)
O5 O 0.7855(4) 0.6429(4) 1.1572(4)
O6 O 0.8752(4) 0.3733(4) 1.1993(4)
O7 O 0.6022(3) 0.4982(4) 1.2726(3)
O8 O 0.3980(4) 0.4074(4) 1.4374(3)
O9 O 0.4117(3) 0.2688(3) 1.2389(3)
O10 O 0.6310(4) 0.2217(4) 1.3555(3)
O11 O 0.6358(3) 0.3582(3) 1.0934(3)
O12 O 0.4221(3) 0.3555(3) 0.9767(3)
O13 O 0.6893(4) 0.2039(4) 0.8953(3)
O14 O 0.6315(3) 0.4724(3) 0.8312(3)
N1 N 0.9421(4) 0.6783(4) 0.3972(4)
N2 N 0.9310(4) 0.8471(4) 0.2396(4)
C1 C 1.0025(5) 0.7227(5) 0.2808(5)
H3 H 1.08330 0.67470 0.23370
C2 C 0.8175(5) 0.8832(5) 0.3344(5)
H4 H 0.74930 0.96370 0.33280
C3 C 0.8249(5) 0.7781(5) 0.4307(4)
H5 H 0.76090 0.77380 0.50730
C4 C 0.9371(5) 1.0636(5) 0.1087(4)
H6 H 0.89430 1.10560 0.18190
C5 C 0.9649(5) 0.9254(5) 0.1167(4)
C6 C 1.0266(5) 0.8609(5) 0.0088(5)
H7 H 1.04350 0.76820 0.01500
O15 O 0.6409(9) -0.0272(7) 1.0178(7)
H8 H 0.69180 -0.10540 1.00670
H9 H 0.64770 0.02480 0.94650
N3 N 0.5390(5) 0.2563(5) 0.6632(4)
H10 H 0.48040 0.33270 0.67240
N4 N 0.7269(4) 0.1092(4) 0.6125(4)
C7 C 0.6690(5) 0.2389(5) 0.6115(5)
H11 H 0.71310 0.30680 0.57930
C8 C 0.5114(6) 0.1346(7) 0.7001(6)
H12 H 0.42670 0.11920 0.73950
C9 C 0.6295(6) 0.0401(6) 0.6693(6)
H13 H 0.64250 -0.05260 0.68340
C10 C 0.8674(5) 0.0523(5) 0.5564(4)
C11 C 0.9408(5) -0.0649(5) 0.6168(4)
H14 H 0.90100 -0.10770 0.69430
C12 C 1.0757(5) -0.1177(5) 0.5594(5)
H15 H 1.12770 -0.19670 0.59840
N1A N 1.0579(4) 1.3217(4) -0.3972(4)
N2A N 1.0690(4) 1.1529(4) -0.2396(4)
C1A C 0.9975(5) 1.2773(5) -0.2808(5)
H3A H 0.91670 1.32530 -0.23370
C2A C 1.1825(5) 1.1168(5) -0.3344(5)
H4A H 1.25070 1.03630 -0.33280
C3A C 1.1751(5) 1.2219(5) -0.4307(4)
H5A H 1.23910 1.22620 -0.50730
C4A C 1.0629(5) 0.9364(5) -0.1087(4)
H6A H 1.10570 0.89440 -0.18190
C5A C 1.0351(5) 1.0746(5) -0.1167(4)
C6A C 0.9734(5) 1.1391(5) -0.0088(5)
H7A H 0.95650 1.23180 -0.01500
Mo1A Mo 0.25298(4) 0.36896(4) 1.16921(3)
Mo2A Mo 0.24320(4) 0.49925(4) 0.86731(3)
Mo3A Mo 0.48781(4) 0.64305(4) 0.69910(3)
As1A As 0.40792(4) 0.65105(4) 1.04820(4)
O2A O 0.1420(4) 0.4160(4) 1.3083(3)
O3A O 0.2113(4) 0.2358(4) 1.1385(3)
O4A O 0.1730(3) 0.5076(3) 1.0463(3)
O5A O 0.2145(4) 0.3571(4) 0.8428(4)
O6A O 0.1248(4) 0.6267(4) 0.8007(4)
O7A O 0.3978(3) 0.5018(4) 0.7274(3)
O8A O 0.6020(4) 0.5926(4) 0.5626(3)
O9A O 0.5883(3) 0.7312(3) 0.7611(3)
O10A O 0.3690(4) 0.7783(4) 0.6445(3)
O11A O 0.3642(3) 0.6418(3) 0.9066(3)
O12A O 0.5779(3) 0.6445(3) 1.0233(3)
O13A O 0.3107(4) 0.7961(4) 1.1047(3)
O14A O 0.3685(3) 0.5276(3) 1.1688(3)
O1A O 1.1516(4) 0.5548(4) 0.5460(3)
H1A H 1.13390 0.56400 0.62800
H2A H 1.22960 0.49440 0.53040
Cu1* Cu 0.00000 0.50000 1.50000
Cu1** Cu 1.00000 1.50000 -0.50000
O2A* O 1.1420(4) 0.4160(4) 0.3083(3)
N1A* N 1.0579(4) 0.3217(4) 0.6028(4)
N3A N 1.4610(5) -0.2563(5) 0.3368(4)
H10A H 1.51960 -0.33270 0.32760
N4A N 1.2731(4) -0.1092(4) 0.3875(4)
C7A C 1.3310(5) -0.2389(5) 0.3885(5)
H11A H 1.28690 -0.30680 0.42070
C8A C 1.4886(6) -0.1346(7) 0.2999(6)
H12A H 1.57330 -0.11920 0.26050
C9A C 1.3705(6) -0.0401(6) 0.3307(6)
H13A H 1.35750 0.05260 0.31660
C10A C 1.1326(5) -0.0523(5) 0.4436(4)
C11A C 1.0592(5) 0.0649(5) 0.3832(4)
H14A H 1.09900 0.10770 0.30570
C12A C 0.9243(5) 0.1177(5) 0.4406(5)
H15A H 0.87230 0.19670 0.40160
#END
