
#######################################################################
#
#                 Cambridge Crystallographic Data Centre
#                                CCDC
#
#######################################################################
#
# If this CIF has been generated from an entry in the Cambridge
# Structural Database, then it will include bibliographic, chemical,
# crystal, experimental, refinement or atomic coordinate data resulting
# from the CCDC's data processing and validation procedures.
#
#######################################################################

data_CSD_CIF_VAXTEV
_audit_creation_date 2012-10-03
_audit_creation_method CSD-ConQuest-V1
_database_code_CSD VAXTEV
_database_code_depnum_ccdc_archive 'CCDC 862162'
_chemical_formula_sum 'C38 H43 Cd1 N2 O10.5'
_chemical_formula_moiety
;
(C36 H34 Cd1 N1 O10 1-)n,n(C2 H8 N1 1+),0.5n(H2 O1)
;
_journal_coden_Cambridge 1350
_journal_volume 14
_journal_year 2012
_journal_page_first 5166
_journal_name_full 'CrystEngComm '
loop_
_publ_author_name
"Chunhua Ma"
"Yong Wu"
"Jun Zhang"
"Yan Xu"
"Beibei Tu"
"Yaoming Zhou"
"Min Fang"
"Hong-Ke Liu"
_chemical_name_systematic
;
catena-(dimethylammonium 
(\m~3~-2,4,6-trimethyl-1,3,5-tris((4-carboxylatophenoxy)methyl)benzene)-(N,N-d
imethylformamide)-cadmium hemihydrate)
;
_cell_volume   8113.399
_exptl_crystal_colour 'colorless'
_exptl_crystal_density_diffrn 1.323
_exptl_crystal_description 'cubic'
_diffrn_ambient_temperature 298
#These two values have been output from a single CSD field.
_refine_ls_R_factor_gt 0.0715
_refine_ls_wR_factor_gt 0.0715
_symmetry_cell_setting monoclinic
_symmetry_space_group_name_H-M 'C 2/c'
_symmetry_Int_Tables_number 15
loop_
_symmetry_equiv_pos_site_id
_symmetry_equiv_pos_as_xyz
1 x,y,z
2 -x,y,1/2-z
3 1/2+x,1/2+y,z
4 1/2-x,1/2+y,1/2-z
5 -x,-y,-z
6 x,-y,-1/2+z
7 -1/2-x,-1/2-y,-z
8 -1/2+x,-1/2-y,-1/2+z
_cell_length_a 23.681(2)
_cell_length_b 9.6928(7)
_cell_length_c 35.389(3)
_cell_angle_alpha 90
_cell_angle_beta 92.789(1)
_cell_angle_gamma 90
_cell_formula_units_Z 8
loop_
_atom_type_symbol
_atom_type_radius_bond
C 0.68
H 0.23
Cd 1.44
N 0.68
O 0.68
loop_
_atom_site_label
_atom_site_type_symbol
_atom_site_fract_x
_atom_site_fract_y
_atom_site_fract_z
Cd1 Cd 0.190550(14) 0.95179(4) -0.675080(9)
O1 O 0.14278(17) 0.8219(4) -0.63174(11)
O2 O 0.19834(15) 0.7014(4) -0.66675(9)
O3 O 0.12449(15) 0.2456(4) -0.54788(10)
O4 O 0.1362(2) 0.1048(5) -0.23377(11)
O5 O 0.20438(14) -0.0460(4) -0.23549(9)
O6 O 0.11810(18) -0.0370(4) -0.40888(10)
O7 O -0.25538(15) -0.4390(4) -0.63012(12)
O8 O -0.20394(15) -0.5464(4) -0.67057(11)
O9 O -0.01079(12) -0.3066(3) -0.55664(9)
C1 C 0.1206(2) 0.0104(5) -0.53039(14)
C2 C 0.1457(2) -0.0198(5) -0.49424(14)
C3 C 0.1208(2) -0.1169(5) -0.47105(13)
C4 C 0.0697(2) -0.1817(5) -0.48354(13)
C5 C 0.04285(19) -0.1441(5) -0.51773(12)
C6 C 0.0682(2) -0.0501(5) -0.54163(12)
C7 C 0.1486(2) 0.1109(5) -0.55628(15)
H1 H 0.18920 0.11140 -0.55130
H2 H 0.14060 0.08660 -0.58260
C8 C 0.2005(3) 0.0570(7) -0.48115(19)
H3 H 0.23240 -0.00330 -0.48340
H4 H 0.19820 0.08460 -0.45520
H5 H 0.20510 0.13710 -0.49660
C9 C 0.1440(2) -0.1420(6) -0.43135(14)
H6 H 0.13400 -0.23350 -0.42280
H7 H 0.18490 -0.13300 -0.42990
C10 C 0.0440(3) -0.2963(6) -0.45889(17)
H8 H 0.01650 -0.34780 -0.47390
H9 H 0.02610 -0.25480 -0.43790
H10 H 0.07340 -0.35720 -0.44960
C11 C -0.01575(19) -0.2003(5) -0.52856(14)
H11 H -0.03280 -0.23790 -0.50640
H12 H -0.03980 -0.12660 -0.53860
C12 C 0.0408(2) -0.0117(6) -0.58005(14)
H13 H 0.00160 -0.03730 -0.58090
H14 H 0.05960 -0.05960 -0.59960
H15 H 0.04400 0.08600 -0.58390
C13 C 0.1667(2) 0.7104(5) -0.63849(14)
C14 C 0.1585(2) 0.5874(5) -0.61417(14)
C15 C 0.1184(2) 0.5906(6) -0.58707(17)
H16 H 0.09790 0.67080 -0.58330
C16 C 0.1090(3) 0.4748(6) -0.56572(17)
H17 H 0.08170 0.47750 -0.54770
C17 C 0.1392(2) 0.3555(5) -0.57047(14)
C18 C 0.1797(2) 0.3532(5) -0.59669(14)
H18 H 0.20080 0.27370 -0.60010
C19 C 0.1893(2) 0.4690(5) -0.61797(14)
H19 H 0.21740 0.46680 -0.63540
C20 C 0.1654(2) 0.0223(6) -0.25114(14)
C21 C 0.1525(2) 0.0012(6) -0.29337(15)
C22 C 0.1748(2) -0.1083(5) -0.31252(14)
H20 H 0.19740 -0.17190 -0.29920
C23 C 0.1643(2) -0.1261(6) -0.35087(14)
H21 H 0.17890 -0.20240 -0.36300
C24 C 0.1322(2) -0.0302(6) -0.37111(14)
C25 C 0.1096(3) 0.0802(6) -0.35254(16)
H22 H 0.08730 0.14430 -0.36600
C26 C 0.1198(3) 0.0958(6) -0.31408(16)
H23 H 0.10450 0.17100 -0.30180
C27 C -0.2080(2) -0.4776(5) -0.64169(16)
C28 C -0.1555(2) -0.4360(5) -0.61745(14)
C29 C -0.1016(2) -0.4622(5) -0.62984(15)
H24 H -0.09700 -0.50920 -0.65240
C30 C -0.0554(2) -0.4176(5) -0.60832(15)
H25 H -0.01950 -0.43430 -0.61690
C31 C -0.06014(19) -0.3496(5) -0.57485(14)
C32 C -0.1128(2) -0.3273(6) -0.56180(15)
H26 H -0.11720 -0.28370 -0.53870
C33 C -0.1594(2) -0.3714(7) -0.58380(17)
H27 H -0.19520 -0.35560 -0.57500
O10 O 0.12003(16) 1.1234(5) -0.66877(12)
N1 N 0.3044(2) 0.9835(5) -0.27259(15)
H28 H 0.27420 0.95420 -0.26030
H29 H 0.30510 0.93630 -0.29450
N2 N 0.0352(2) 1.2140(6) -0.67598(19)
C34 C 0.2975(3) 1.1335(7) -0.2813(2)
H30 H 0.26290 1.14780 -0.29600
H31 H 0.32880 1.16470 -0.29530
H32 H 0.29650 1.18460 -0.25810
C35 C 0.0744(3) 1.1131(8) -0.6789(2)
C36 C 0.3561(3) 0.9525(9) -0.2494(2)
H33 H 0.35780 0.85530 -0.24430
H34 H 0.35550 1.00230 -0.22600
H35 H 0.38850 0.97960 -0.26290
C37 C 0.0465(4) 1.3350(9) -0.6573(3)
H36 H 0.08370 1.33090 -0.64530
H37 H 0.01920 1.34900 -0.63850
H38 H 0.04460 1.41010 -0.67500
C38 C -0.0230(4) 1.2026(12) -0.6920(4)
H39 H -0.02720 1.11760 -0.70580
H40 H -0.03100 1.27880 -0.70880
H41 H -0.04880 1.20390 -0.67190
O11 O 0.50000 0.970(2) -0.25000
O12 O 0.50000 0.634(2) -0.25000
Cd1E Cd 0.190550(14) 0.04821(4) -0.175080(9)
Cd1B Cd -0.309450(14) -0.54821(4) -0.675080(9)
O4E O 0.1362(2) 0.8952(5) -0.73377(11)
O5E O 0.20438(14) 1.0460(4) -0.73549(9)
O7B O 0.24462(15) 1.0610(4) -0.63012(12)
O8B O 0.29606(15) 0.9536(4) -0.67057(11)
#END
