
#######################################################################
#
#                 Cambridge Crystallographic Data Centre
#                                CCDC
#
#######################################################################
#
# If this CIF has been generated from an entry in the Cambridge
# Structural Database, then it will include bibliographic, chemical,
# crystal, experimental, refinement or atomic coordinate data resulting
# from the CCDC's data processing and validation procedures.
#
#######################################################################

data_CSD_CIF_VAYDAC
_audit_creation_date 2012-10-03
_audit_creation_method CSD-ConQuest-V1
_database_code_CSD VAYDAC
_database_code_depnum_ccdc_archive 'CCDC 852888'
_chemical_formula_sum 'C6 H8 Li1 N1 O8 S2'
_chemical_formula_moiety
;
(C6 H4 Li1 O8 S2 1-)n,n(H4 N1 1+)
;
_journal_coden_Cambridge 1350
_journal_volume 14
_journal_year 2012
_journal_page_first 5274
_journal_name_full 'CrystEngComm '
loop_
_publ_author_name
"Wang Wan"
"Zhi-Biao Zhu"
"Li-Hua Huo"
"Zhao-Peng Deng"
"Hui Zhao"
"Shan Gao"
_chemical_name_systematic
;
catena-(ammonium (\m~4~-4,6-dihydroxybenzene-1,3-disulfonato)-lithium)
;
_cell_volume   2273.506
_exptl_crystal_colour 'colorless'
_exptl_crystal_density_diffrn 1.713
_exptl_crystal_description 'prism'
_diffrn_ambient_temperature 295
#These two values have been output from a single CSD field.
_refine_ls_R_factor_gt 0.0309
_refine_ls_wR_factor_gt 0.0309
_symmetry_cell_setting orthorhombic
_symmetry_space_group_name_H-M 'C m c a'
_symmetry_Int_Tables_number 64
loop_
_symmetry_equiv_pos_site_id
_symmetry_equiv_pos_as_xyz
1 x,y,z
2 -x,1/2-y,1/2+z
3 -x,1/2+y,1/2-z
4 x,-y,-z
5 1/2+x,1/2+y,z
6 1/2-x,-y,1/2+z
7 1/2-x,y,1/2-z
8 1/2+x,1/2-y,-z
9 -x,-y,-z
10 x,-1/2+y,-1/2-z
11 x,-1/2-y,-1/2+z
12 -x,y,z
13 -1/2-x,-1/2-y,-z
14 -1/2+x,y,-1/2-z
15 -1/2+x,-y,-1/2+z
16 -1/2-x,-1/2+y,z
_cell_length_a 18.130(4)
_cell_length_b 9.0962(18)
_cell_length_c 13.786(3)
_cell_angle_alpha 90
_cell_angle_beta 90
_cell_angle_gamma 90
_cell_formula_units_Z 8
loop_
_atom_type_symbol
_atom_type_radius_bond
C 0.68
H 0.23
Li 1.28
N 0.68
O 0.68
S 1.02
loop_
_atom_site_label
_atom_site_type_symbol
_atom_site_fract_x
_atom_site_fract_y
_atom_site_fract_z
Li1 Li 0.25000 0.4347(3) 0.75000
S1 S 0.148679(17) 0.68790(3) 0.69272(2)
O1 O 0.18796(5) 0.55350(11) 0.66681(7)
O2 O 0.19025(6) 0.81787(10) 0.66362(8)
O3 O 0.12672(7) 0.69008(11) 0.79374(8)
O4 O 0.13282(6) 0.70543(13) 0.47722(8)
H1 H 0.1289(14) 0.723(2) 0.4176(8)
N1 N 0.27526(11) 0.50000 0.50000
H2 H 0.2448(9) 0.5334(19) 0.5430(13)
H3 H 0.2994(10) 0.5735(16) 0.4781(14)
C1 C 0.06656(7) 0.68891(13) 0.62456(10)
C2 C 0.06657(7) 0.69925(14) 0.52261(10)
C3 C 0.00000 0.7030(2) 0.47254(14)
H4 H 0.00000 0.70800 0.40520
C4 C 0.00000 0.68289(19) 0.67355(14)
H5 H 0.00000 0.67460 0.74080
Li1B Li -0.25000 0.9347(3) 0.75000
Li1I Li 0.25000 0.9347(3) 0.75000
Li1K Li -0.25000 0.4347(3) 0.75000
S1K S -0.148679(17) 0.68790(3) 0.69272(2)
O1K O -0.18796(5) 0.55350(11) 0.66681(7)
O1F O 0.31204(5) 0.55350(11) 0.83319(7)
O2K O -0.19025(6) 0.81787(10) 0.66362(8)
O2I O 0.19025(6) 0.31787(10) 0.83638(8)
O2O O 0.30975(6) 0.31787(10) 0.66362(8)
O3K O -0.12672(7) 0.69008(11) 0.79374(8)
O4K O -0.13282(6) 0.70543(13) 0.47722(8)
H1K H -0.1289(14) 0.723(2) 0.4176(8)
H2C H 0.2448(9) 0.4666(19) 0.4570(13)
H3C H 0.2994(10) 0.4265(16) 0.5219(14)
C1K C -0.06656(7) 0.68891(13) 0.62456(10)
C2K C -0.06657(7) 0.69925(14) 0.52261(10)
#END
