
#######################################################################
#
#                 Cambridge Crystallographic Data Centre
#                                CCDC
#
#######################################################################
#
# If this CIF has been generated from an entry in the Cambridge
# Structural Database, then it will include bibliographic, chemical,
# crystal, experimental, refinement or atomic coordinate data resulting
# from the CCDC's data processing and validation procedures.
#
#######################################################################

data_CSD_CIF_VAYVUO
_audit_creation_date 2012-10-16
_audit_creation_method CSD-ConQuest-V1
_database_code_CSD VAYVUO
_database_code_depnum_ccdc_archive 'CCDC 825928'
_chemical_formula_sum 'C28 H46 Ag4 Mn1 Mo11 N24 Na1 O42 P1'
_chemical_formula_moiety
;
(C28 H40 Ag4 Mn1 Mo11 N24 O39 P1 1-)n,n(Na1 1+),3n(H2 O1)
;
_journal_coden_Cambridge 222
_journal_volume 41
_journal_year 2012
_journal_page_first 9365
_journal_name_full 'Dalton Trans. '
loop_
_publ_author_name
"Chun-Jing Zhang"
"Hai-Jun Pang"
"Qun Tan"
"Ya-Guang Chen"
_chemical_name_systematic
;
catena-(sodium 
(\m~10~-phosphato)-bis(\m~3~-oxo)-tetrakis(\m~2~-1,3-bis(1,2,4-triazol-1-yl)pr
opane)-pentacosakis(\m~2~-oxo)-octaoxo-manganese-undeca-molybdenum-tetra-silve
r trihydrate)
;
_cell_volume   1773.612
_exptl_crystal_colour 'orange'
_exptl_crystal_density_diffrn 2.817
_exptl_crystal_description 'cuboid'
_diffrn_ambient_temperature 293
_refine_special_details
;
The phosphate group is disordered by symmetry. The Mn atom is mixed 
disordered with equal Mn and Mo occupancies. The Na atom is mixed disordered 
with Na:Ag occupancies 0.67:0.33, respectively. The diagram has been 
represented with a fully occupied Na atom.
;
#These two values have been output from a single CSD field.
_refine_ls_R_factor_gt 0.0835
_refine_ls_wR_factor_gt 0.0835
_symmetry_cell_setting triclinic
_symmetry_space_group_name_H-M 'P -1'
_symmetry_Int_Tables_number 2
loop_
_symmetry_equiv_pos_site_id
_symmetry_equiv_pos_as_xyz
1 x,y,z
2 -x,-y,-z
_cell_length_a 10.913(4)
_cell_length_b 13.861(5)
_cell_length_c 13.935(5)
_cell_angle_alpha 65.148(3)
_cell_angle_beta 70.187(3)
_cell_angle_gamma 73.344(3)
_cell_formula_units_Z 1
loop_
_atom_type_symbol
_atom_type_radius_bond
C 0.68
H 0.23
Ag 1.49
Mn 1.61
Mo 1.37
N 0.68
Na 0.46
O 0.68
P 1.05
loop_
_atom_site_label
_atom_site_type_symbol
_atom_site_fract_x
_atom_site_fract_y
_atom_site_fract_z
Mo1 Mo 1.55499(14) 0.51347(11) 0.23282(11)
Mo2 Mo 1.22339(13) 0.52027(11) 0.22562(11)
Mo3 Mo 1.41135(13) 0.26456(11) 0.01813(13)
Mo4 Mo 1.25993(14) 0.74060(11) -0.02578(12)
Mo5 Mo 1.46310(11) 0.27931(9) 0.25009(9)
Mn1 Mn 1.17503(17) 0.50418(14) -0.00305(15)
Mo6? Mo 1.82497(17) 0.49582(14) 0.00305(15)
P1 P 1.50000 0.50000 0.00000
Ag1 Ag 1.3443(2) -0.01336(15) 0.00008(15)
Ag2 Ag 0.9283(2) 0.7676(3) -0.05537(18)
Na1 Na 1.50000 0.00000 0.50000
Ag3? Ag 1.50000 0.00000 0.50000
N1 N 1.118(2) 0.2293(18) -0.2663(17)
N2 N 1.1675(17) 0.3161(19) -0.2900(17)
N3 N 1.1111(19) 0.253(3) -0.1076(19)
N4 N 1.242(2) -0.1084(17) 0.3490(16)
N5 N 1.235(2) -0.2043(16) 0.3386(16)
N6 N 1.432(2) 0.0840(16) -0.3490(17)
N7 N 1.4339(17) 0.1774(15) -0.3378(16)
N8 N 1.276(2) -0.0843(15) 0.1713(16)
N9 N 1.395(2) 0.0588(16) -0.1699(14)
O1 O 1.720(3) 0.027(2) 0.478(3)
O2 O 1.354(2) 0.546(2) 0.041(2)
O3 O 0.894(4) -0.020(3) 0.286(3)
O4 O 1.460(3) 0.466(2) 0.1155(19)
O5 O 1.518(2) 0.3794(19) 0.0579(19)
O6 O 1.2495(18) 0.3510(16) 0.0396(16)
O7 O 1.134(3) 0.4918(15) 0.1520(17)
O8 O 1.00000 0.50000 0.00000
O9 O 1.5386(17) 0.3674(13) 0.2812(15)
O10 O 1.3949(19) 0.2369(17) 0.1700(16)
O11 O 1.549(2) 0.6592(16) 0.1400(17)
O12 O 1.5990(19) 0.2247(18) 0.0037(16)
O13 O 1.1032(18) 0.5263(16) 0.3355(17)
O14 O 1.3629(19) 0.7628(17) -0.1712(16)
O15 O 1.577(3) 0.541(2) 0.047(2)
O16 O 1.727(2) 0.4836(16) 0.1547(17)
O17 O 1.170(2) 0.6585(16) -0.0445(15)
O18 O 1.2956(16) 0.3667(14) 0.2813(15)
O19 O 1.5723(19) 0.5210(16) 0.3435(17)
O20 O 1.211(2) 0.6655(17) 0.1324(17)
O21 O 1.3638(17) 0.5420(14) 0.2656(15)
O22 O 1.4473(18) 0.1724(14) 0.3682(14)
O23 O 1.376(2) 0.1538(15) 0.0257(15)
O24 O 1.1568(15) 0.8588(13) -0.0416(12)
C1 C 1.079(3) 0.188(3) -0.162(3)
H1 H 1.03640 0.12860 -0.12390
C2 C 1.202(3) -0.299(2) 0.430(2)
H2 H 1.23810 -0.30600 0.48770
H3 H 1.24270 -0.36120 0.40870
C3 C 1.061(3) -0.299(2) 0.473(2)
H4 H 1.04740 -0.36850 0.53100
H5 H 1.02500 -0.29310 0.41550
C4 C 1.261(3) -0.045(2) 0.253(2)
H6 H 1.26390 0.02670 0.23530
C5 C 1.157(2) 0.333(3) -0.195(2)
H7 H 1.17890 0.39200 -0.19430
C6 C 0.986(3) -0.212(3) 0.517(2)
H8 H 0.89210 -0.21050 0.52910
H9 H 1.00690 -0.14400 0.46100
C7 C 1.215(3) 0.386(2) -0.402(2)
H10 H 1.14160 0.41710 -0.43630
H11 H 1.24660 0.44400 -0.40170
C8 C 1.320(2) 0.331(2) -0.4678(18)
H12 H 1.34150 0.38370 -0.54110
H13 H 1.28390 0.27710 -0.47230
C9 C 1.264(3) -0.187(2) 0.2322(18)
H14 H 1.27330 -0.23990 0.20410
C10 C 1.407(2) 0.017(2) -0.246(2)
H15 H 1.39890 -0.05360 -0.22720
C11 C 1.446(2) 0.277(2) -0.4352(16)
H16 H 1.51140 0.25910 -0.49570
H17 H 1.47850 0.32650 -0.42100
C12 C 1.422(2) 0.1603(19) -0.2354(18)
H18 H 1.43020 0.21010 -0.21060
N10 N 1.009(2) -0.220(2) 0.6223(15)
N11 N 1.131(2) -0.227(2) 0.623(2)
C13 C 0.926(2) -0.232(2) 0.718(2)
H19 H 0.83990 -0.24380 0.73730
N12 N 0.989(2) -0.225(2) 0.7857(18)
C14 C 1.122(3) -0.225(3) 0.720(2)
H20 H 1.19310 -0.22320 0.74200
Mo1A Mo 1.44501(14) 0.48653(11) -0.23282(11)
Mo2A Mo 1.77661(13) 0.47973(11) -0.22562(11)
Mo3A Mo 1.58865(13) 0.73544(11) -0.01813(13)
Mo4A Mo 1.74007(14) 0.25940(11) 0.02578(12)
Mo5A Mo 1.53690(11) 0.72069(9) -0.25009(9)
Mn1A Mn 1.82497(17) 0.49582(14) 0.00305(15)
Mn1A* Mn 0.82497(17) 0.49582(14) 0.00305(15)
Ag1A Ag 1.6557(2) 1.01336(15) -0.00008(15)
Ag1A* Ag 0.6557(2) 1.01336(15) -0.00008(15)
Ag1* Ag 1.3443(2) 0.98664(15) -0.99992(15)
Ag2A Ag 2.0717(2) 0.2324(3) 0.05537(18)
Ag2A* Ag 1.0717(2) 0.2324(3) 0.05537(18)
Ag2* Ag 0.9283(2) -0.2324(3) 0.94463(18)
N1A N 0.882(2) 0.7707(18) 0.2663(17)
N2A N 0.8325(17) 0.6839(19) 0.2900(17)
N3A N 0.8889(19) 0.747(3) 0.1076(19)
N3* N 2.1111(19) 0.253(3) -0.1076(19)
N4* N 1.242(2) 0.8916(17) -0.6510(16)
N5* N 1.235(2) 0.7957(16) -0.6614(16)
N6A N 0.568(2) 0.9160(16) 0.3490(17)
N7A N 0.5661(17) 0.8226(15) 0.3378(16)
N8* N 1.276(2) 0.9157(15) -0.8287(16)
N8A N 1.724(2) 1.0843(15) -0.1713(16)
N9A N 0.605(2) 0.9412(16) 0.1699(14)
N9A* N 1.605(2) 0.9412(16) 0.1699(14)
O2A O 1.646(2) 0.454(2) -0.041(2)
O4A O 1.540(3) 0.534(2) -0.1155(19)
O5A O 1.482(2) 0.6206(19) -0.0579(19)
O6A O 1.7505(18) 0.6490(16) -0.0396(16)
O7A O 1.866(3) 0.5082(15) -0.1520(17)
O8* O 2.00000 0.50000 0.00000
O9A O 1.4614(17) 0.6326(13) -0.2812(15)
O10A O 1.6051(19) 0.7631(17) -0.1700(16)
O11A O 1.451(2) 0.3408(16) -0.1400(17)
O12A O 1.4010(19) 0.7753(18) -0.0037(16)
O13A O 1.8968(18) 0.4737(16) -0.3355(17)
O14A O 1.6371(19) 0.2372(17) 0.1712(16)
O15A O 1.423(3) 0.459(2) -0.047(2)
O16A O 1.273(2) 0.5164(16) -0.1547(17)
O17A O 1.830(2) 0.3415(16) 0.0445(15)
O18A O 1.7044(16) 0.6333(14) -0.2813(15)
O19A O 1.4277(19) 0.4790(16) -0.3435(17)
O20A O 1.789(2) 0.3345(17) -0.1324(17)
O21A O 1.6362(17) 0.4580(14) -0.2656(15)
O22A O 1.5527(18) 0.8276(14) -0.3682(14)
O23A O 1.624(2) 0.8462(15) -0.0257(15)
O24A O 1.8432(15) 0.1412(13) 0.0416(12)
C1A C 0.921(3) 0.812(3) 0.162(3)
H1A H 0.96360 0.87140 0.12390
C2* C 1.202(3) 0.701(2) -0.570(2)
H2* H 1.23810 0.69400 -0.51230
H3* H 1.24270 0.63880 -0.59130
C3* C 1.061(3) 0.701(2) -0.527(2)
H4* H 1.04740 0.63150 -0.46900
H5* H 1.02500 0.70690 -0.58450
C4* C 1.261(3) 0.955(2) -0.747(2)
H6* H 1.26390 1.02670 -0.76470
C5A C 0.843(2) 0.667(3) 0.195(2)
H7A H 0.82110 0.60800 0.19430
C6* C 0.986(3) 0.788(3) -0.483(2)
H8* H 0.89210 0.78950 -0.47090
H9* H 1.00690 0.85600 -0.53900
C7A C 0.785(3) 0.614(2) 0.402(2)
H10A H 0.85840 0.58290 0.43630
H11A H 0.75340 0.55600 0.40170
C8A C 0.680(2) 0.669(2) 0.4678(18)
H12A H 0.65850 0.61630 0.54110
H13A H 0.71610 0.72290 0.47230
C9* C 1.264(3) 0.813(2) -0.7678(18)
H14* H 1.27330 0.76010 -0.79590
C10A C 0.593(2) 0.983(2) 0.246(2)
H15A H 0.60110 1.05360 0.22720
C11A C 0.554(2) 0.723(2) 0.4352(16)
H16A H 0.48860 0.74090 0.49570
H17A H 0.52150 0.67350 0.42100
C12A C 0.578(2) 0.8397(19) 0.2354(18)
H18A H 0.56980 0.78990 0.21060
N10* N 1.009(2) 0.780(2) -0.3777(15)
N11* N 1.131(2) 0.773(2) -0.377(2)
C13* C 0.926(2) 0.768(2) -0.282(2)
H19* H 0.83990 0.75620 -0.26270
N12* N 0.989(2) 0.775(2) -0.2143(18)
N12A N 2.011(2) 0.225(2) 0.2143(18)
C14* C 1.122(3) 0.775(3) -0.280(2)
H20* H 1.19310 0.77680 -0.25800
#END
