
#######################################################################
#
#                 Cambridge Crystallographic Data Centre
#                                CCDC
#
#######################################################################
#
# If this CIF has been generated from an entry in the Cambridge
# Structural Database, then it will include bibliographic, chemical,
# crystal, experimental, refinement or atomic coordinate data resulting
# from the CCDC's data processing and validation procedures.
#
#######################################################################

data_CSD_CIF_VAYWAV
_audit_creation_date 2012-10-16
_audit_creation_method CSD-ConQuest-V1
_database_code_CSD VAYWAV
_database_code_depnum_ccdc_archive 'CCDC 825929'
_chemical_formula_sum 'C28 H48 Cu4 Mn1 Mo11 N24 Na1 O43 P1'
_chemical_formula_moiety
;
(C28 H40 Cu4 Mn1 Mo11 N24 O39 P1 1-)n,n(Na1 1+),4n(H2 O1)
;
_journal_coden_Cambridge 222
_journal_volume 41
_journal_year 2012
_journal_page_first 9365
_journal_name_full 'Dalton Trans. '
loop_
_publ_author_name
"Chun-Jing Zhang"
"Hai-Jun Pang"
"Qun Tan"
"Ya-Guang Chen"
_chemical_name_systematic
;
catena-(sodium 
(\m~10~-phosphato)-tetrakis(\m~3~-oxo)-tetrakis(\m~2~-1,3-bis(1,2,4-triazol-1-
yl)propane)-triacosakis(\m~2~-oxo)-octaoxo-tetra-copper-manganese-undeca-molyb
denum tetrahydrate)
;
_cell_volume   1730.376
_exptl_crystal_colour 'red'
_exptl_crystal_density_diffrn 2.705
_exptl_crystal_description 'cuboid'
_diffrn_ambient_temperature 293
_refine_special_details
;
The phosphate group is disordered by symmetry. The Mn atom is mixed 
disordered with equal Mn and Mo occupancies.
;
#These two values have been output from a single CSD field.
_refine_ls_R_factor_gt 0.061
_refine_ls_wR_factor_gt 0.061
_symmetry_cell_setting triclinic
_symmetry_space_group_name_H-M 'P -1'
_symmetry_Int_Tables_number 2
loop_
_symmetry_equiv_pos_site_id
_symmetry_equiv_pos_as_xyz
1 x,y,z
2 -x,-y,-z
_cell_length_a 10.906(1)
_cell_length_b 13.636(1)
_cell_length_c 13.871(1)
_cell_angle_alpha 64.972(1)
_cell_angle_beta 73.321(1)
_cell_angle_gamma 69.853(1)
_cell_formula_units_Z 1
loop_
_atom_type_symbol
_atom_type_radius_bond
C 0.68
H 0.23
Cu 1.41
Mn 1.56
Mo 1.38
N 0.68
Na 1.06
O 0.68
P 1.05
loop_
_atom_site_label
_atom_site_type_symbol
_atom_site_fract_x
_atom_site_fract_y
_atom_site_fract_z
Mo1 Mo 0.77788(9) 0.27004(7) 0.97874(7)
Mo2 Mo 0.41255(9) 0.51240(8) 0.76655(7)
Mo3 Mo 0.45638(8) 0.75550(6) 0.77745(7)
Mo4 Mo 0.44451(9) 0.25967(7) 0.99346(7)
Mo5 Mo 0.73829(9) 0.52874(8) 0.75943(7)
Mo6? Mo 0.82224(11) 0.50371(10) 0.99726(9)
Mn1 Mn 0.82224(11) 0.50371(10) 0.99726(9)
P1 P 0.50000 0.50000 1.00000
Cu1 Cu 0.35124(15) 0.50302(11) 0.48739(12)
Cu2 Cu 0.06439(15) 0.55596(11) 0.75232(15)
Na1 Na 0.50000 0.00000 0.50000
N1 N -0.0069(9) 1.2905(7) 0.2628(8)
N2 N 0.1248(10) 0.2570(8) 0.7213(9)
N3 N 0.1633(9) 0.2250(7) 0.8182(8)
N4 N 0.4345(8) 0.1746(7) 0.6714(7)
N5 N 0.0043(9) 1.1233(7) 0.2818(8)
N6 N 0.1275(10) 1.1204(8) 0.2883(10)
N7 N 0.1083(9) 0.4078(8) 0.7563(10)
N8 N 0.4254(10) 0.1649(7) 0.5801(7)
N9 N 0.3987(9) 0.3447(8) 0.5522(8)
O1 O -0.1027(13) 0.7782(10) 0.4748(11)
O2 O 0.5160(11) 0.5591(9) 0.8780(9)
O3 O 0.7128(10) 0.9729(10) 0.5281(9)
O4 O 0.8429(7) 0.5465(6) 0.6422(6)
O5 O 0.4402(8) 0.8746(7) 0.6724(6)
O6 O 1.00000 0.50000 1.00000
O7 O 0.6325(8) 0.6762(9) 0.7346(10)
O8 O 0.6488(11) 0.4573(10) 0.9544(9)
O9 O 0.2451(10) 0.5324(9) 0.8486(8)
O10 O 0.4260(9) 0.1464(7) 0.9868(7)
O11 O 0.8995(8) 0.1583(8) 0.9716(7)
O12 O 0.3770(8) 0.5217(6) 0.6527(6)
O13 O 0.5445(12) 0.3793(10) 1.0338(10)
O14 O 0.8274(9) 0.5452(8) 0.8430(8)
O15 O 0.7897(10) 0.3694(8) 0.8337(8)
O16 O 0.6369(8) 0.2317(7) 0.9583(6)
O17 O 0.3955(10) 0.6696(8) 0.7345(8)
O18 O 0.5376(8) 0.7882(8) 0.8627(6)
O19 O 0.7029(7) 0.2181(8) 1.1317(6)
O20 O 0.4495(10) 0.3566(9) 0.8403(8)
O21 O 0.2734(11) 0.3391(9) 1.0189(9)
O22 O 0.5788(12) 0.547(1) 1.0421(10)
O23 O 0.8571(10) 0.3488(8) 1.0119(8)
O24 O 0.5992(10) 0.5011(9) 0.7235(8)
C1 C 0.1160(12) 1.2236(10) 0.2748(11)
H1 H 0.18590 1.24850 0.27370
C2 C 0.0926(11) 0.3661(10) 0.6888(13)
H2 H 0.06130 0.41190 0.62420
C3 C 0.4198(10) 0.2808(8) 0.6535(9)
H3 H 0.42360 0.30740 0.70390
C4 C 0.4463(10) 0.0772(9) 0.7717(9)
H4 H 0.47100 0.09520 0.82300
H5 H 0.51630 0.01560 0.75740
C5 C 0.1520(11) 0.3151(10) 0.8372(12)
H6 H 0.17170 0.31390 0.89870
C6 C 0.2103(11) 0.1063(9) 0.8834(10)
H7 H 0.13610 0.07260 0.91270
H8 H 0.24370 0.10100 0.94360
C7 C 0.0522(14) 0.9719(10) 0.2098(11)
H9 H 0.01550 0.91270 0.21840
H10 H 0.03850 1.02950 0.13970
C8 C 0.3174(11) 0.0408(8) 0.8212(9)
H11 H 0.28130 0.04380 0.76340
H12 H 0.33890 -0.03690 0.86900
C9 C 0.4043(12) 0.2677(9) 0.5125(9)
H13 H 0.39380 0.28700 0.44200
C10 C -0.0740(11) 1.2252(9) 0.2654(10)
H14 H -0.16220 1.24740 0.25690
C11 C -0.0257(11) 1.0213(9) 0.2947(11)
H15 H -0.00870 0.96560 0.36490
H16 H -0.11940 1.03800 0.29350
C12 C 0.1998(12) 0.9245(9) 0.2090(9)
H17 H 0.23760 0.98300 0.20050
H18 H 0.23910 0.90180 0.14700
N10 N 0.2352(9) 0.8285(7) 0.3064(7)
N11 N 0.2345(10) 0.8435(8) 0.3976(8)
C13 C 0.2670(11) 0.7211(9) 0.3218(10)
H19 H 0.27290 0.69230 0.27020
C14 C 0.2685(12) 0.7397(9) 0.4655(9)
H20 H 0.27760 0.72200 0.53610
N12 N 0.2893(9) 0.6601(7) 0.4224(7)
Mo1A Mo 0.22212(9) 0.72996(7) 1.02126(7)
Mo2A Mo 0.58745(9) 0.48760(8) 1.23345(7)
Mo3A Mo 0.54362(8) 0.24450(6) 1.22255(7)
Mo4A Mo 0.55549(9) 0.74033(7) 1.00654(7)
Mo5A Mo 0.26171(9) 0.47126(8) 1.24057(7)
Mn1A Mn 0.17776(11) 0.49629(10) 1.00274(9)
Mn1A* Mn 1.17776(11) 0.49629(10) 1.00274(9)
Cu1A Cu 0.64876(15) 0.49698(11) 1.51261(12)
Cu1A* Cu -0.35124(15) 1.49698(11) 0.51261(12)
Cu2A Cu 0.93561(15) 0.44404(11) 1.24768(15)
Cu2A* Cu -0.06439(15) 1.44404(11) 0.24768(15)
Cu2* Cu 1.06439(15) 0.55596(11) 0.75232(15)
Cu2A** Cu -0.06439(15) 0.44404(11) 1.24768(15)
N1A N 0.0069(9) 0.7095(7) 0.7372(8)
N1* N 0.9931(9) 0.2905(7) 1.2628(8)
N2A N 0.8752(10) 0.7430(8) 1.2787(9)
N3A N 0.8367(9) 0.7750(7) 1.1818(8)
N4A N 0.5655(8) 0.8254(7) 1.3286(7)
N5A N -0.0043(9) 0.8767(7) 0.7182(8)
N6A N -0.1275(10) 0.8796(8) 0.7117(10)
N7A N 0.8917(9) 0.5922(8) 1.2437(10)
N8A N 0.5746(10) 0.8351(7) 1.4199(7)
N9A N 0.6013(9) 0.6553(8) 1.4478(8)
O2A O 0.4840(11) 0.4409(9) 1.1220(9)
O4A O 0.1571(7) 0.4535(6) 1.3578(6)
O5A O 0.5598(8) 0.1254(7) 1.3276(6)
O6* O 0.00000 0.50000 1.00000
O7A O 0.3675(8) 0.3238(9) 1.2654(10)
O8A O 0.3512(11) 0.5427(10) 1.0456(9)
O9A O 0.7549(10) 0.4676(9) 1.1514(8)
O10A O 0.5740(9) 0.8536(7) 1.0132(7)
O11A O 0.1005(8) 0.8417(8) 1.0284(7)
O12A O 0.6230(8) 0.4783(6) 1.3473(6)
O13A O 0.4555(12) 0.6207(10) 0.9662(10)
O14A O 0.1726(9) 0.4548(8) 1.1570(8)
O14* O -0.1726(9) 0.5452(8) 0.8430(8)
O14A* O 1.1726(9) 0.4548(8) 1.1570(8)
O15A O 0.2103(10) 0.6306(8) 1.1663(8)
O16A O 0.3631(8) 0.7683(7) 1.0417(6)
O17A O 0.6045(10) 0.3304(8) 1.2655(8)
O18A O 0.4624(8) 0.2118(8) 1.1373(6)
O19A O 0.2971(7) 0.7819(8) 0.8683(6)
O20A O 0.5505(10) 0.6434(9) 1.1597(8)
O21A O 0.7266(11) 0.6609(9) 0.9811(9)
O22A O 0.4212(12) 0.453(1) 0.9579(10)
O23A O 0.1429(10) 0.6512(8) 0.9881(8)
O24A O 0.4008(10) 0.4989(9) 1.2765(8)
C1A C -0.1160(12) 0.7764(10) 0.7252(11)
H1A H -0.18590 0.75150 0.72630
C2A C 0.9074(11) 0.6339(10) 1.3112(13)
H2A H 0.93870 0.58810 1.37580
C3A C 0.5802(10) 0.7192(8) 1.3465(9)
H3A H 0.57640 0.69260 1.29610
C4A C 0.5537(10) 0.9228(9) 1.2283(9)
H4A H 0.52900 0.90480 1.17700
H5A H 0.48370 0.98440 1.24260
C5A C 0.8480(11) 0.6849(10) 1.1628(12)
H6A H 0.82830 0.68610 1.10130
C6A C 0.7897(11) 0.8937(9) 1.1166(10)
H7A H 0.86390 0.92740 1.08730
H8A H 0.75630 0.89900 1.05640
C7A C -0.0522(14) 1.0281(10) 0.7902(11)
H9A H -0.01550 1.08730 0.78160
H10A H -0.03850 0.97050 0.86030
C8A C 0.6826(11) 0.9592(8) 1.1788(9)
H11A H 0.71870 0.95620 1.23660
H12A H 0.66110 1.03690 1.13100
C9A C 0.5957(12) 0.7323(9) 1.4875(9)
H13A H 0.60620 0.71300 1.55800
C10A C 0.0740(11) 0.7748(9) 0.7346(10)
H14A H 0.16220 0.75260 0.74310
C11A C 0.0257(11) 0.9787(9) 0.7053(11)
H15A H 0.00870 1.03440 0.63510
H16A H 0.11940 0.96200 0.70650
C12A C -0.1998(12) 1.0755(9) 0.7910(9)
H17A H -0.23760 1.01700 0.79950
H18A H -0.23910 1.09820 0.85300
N10A N -0.2352(9) 1.1715(7) 0.6936(7)
N11A N -0.2345(10) 1.1565(8) 0.6024(8)
C13A C -0.2670(11) 1.2789(9) 0.6782(10)
H19A H -0.27290 1.30770 0.72980
C14A C -0.2685(12) 1.2603(9) 0.5345(9)
H20A H -0.27760 1.27800 0.46390
N12A N -0.2893(9) 1.3399(7) 0.5776(7)
N12A* N 0.7107(9) 0.3399(7) 1.5776(7)
#END
