
#######################################################################
#
#                 Cambridge Crystallographic Data Centre
#                                CCDC
#
#######################################################################
#
# If this CIF has been generated from an entry in the Cambridge
# Structural Database, then it will include bibliographic, chemical,
# crystal, experimental, refinement or atomic coordinate data resulting
# from the CCDC's data processing and validation procedures.
#
#######################################################################

data_CSD_CIF_VAYWID
_audit_creation_date 2012-10-16
_audit_creation_method CSD-ConQuest-V1
_database_code_CSD VAYWID
_database_code_depnum_ccdc_archive 'CCDC 825931'
_chemical_formula_sum 'C28 H40 Ag5 Mo12 N24 O40 P1'
_chemical_formula_moiety
;
(C28 H40 Ag5 N24 5+)n,n(Mo12 O40 P1 5-)
;
_journal_coden_Cambridge 222
_journal_volume 41
_journal_year 2012
_journal_page_first 9365
_journal_name_full 'Dalton Trans. '
loop_
_publ_author_name
"Chun-Jing Zhang"
"Hai-Jun Pang"
"Qun Tan"
"Ya-Guang Chen"
_chemical_name_systematic
;
catena-(tetrakis(\m~2~-1,3-bis(1,2,4-triazol-1-yl)propane)-penta-silver(i) 
(\m~12~-phosphato)-tetracosakis(\m~2~-oxo)-dodecaoxo-deca-molybdenum(vi)-di-mo
lybdenum(v))
;
_cell_volume   3538.219
_exptl_crystal_colour 'black'
_exptl_crystal_density_diffrn 2.886
_exptl_crystal_description 'block'
_diffrn_ambient_temperature 293
_refine_special_details
;
O1,O16,O19,O21 disordered by symmetry over two sites with occupancy 0.50.

;
#These two values have been output from a single CSD field.
_refine_ls_R_factor_gt 0.0421
_refine_ls_wR_factor_gt 0.0421
_symmetry_cell_setting monoclinic
_symmetry_space_group_name_H-M 'P 21/c'
_symmetry_Int_Tables_number 14
loop_
_symmetry_equiv_pos_site_id
_symmetry_equiv_pos_as_xyz
1 x,y,z
2 -x,1/2+y,1/2-z
3 -x,-y,-z
4 x,-1/2-y,-1/2+z
_cell_length_a 13.056(1)
_cell_length_b 22.964(1)
_cell_length_c 11.808(1)
_cell_angle_alpha 90
_cell_angle_beta 91.941(5)
_cell_angle_gamma 90
_cell_formula_units_Z 2
loop_
_atom_type_symbol
_atom_type_radius_bond
C 0.68
H 0.23
Ag 1.45
Mo 1.40
N 0.68
O 0.68
P 1.05
loop_
_atom_site_label
_atom_site_type_symbol
_atom_site_fract_x
_atom_site_fract_y
_atom_site_fract_z
Mo1 Mo 0.01725(10) -0.64377(6) 1.11563(11)
Mo2 Mo 0.10855(9) -0.61559(5) 0.84025(11)
Mo3 Mo 0.08614(9) -0.47117(6) 0.72363(11)
Mo4 Mo 0.24300(9) -0.55899(6) 1.08353(11)
Mo5 Mo 0.22622(9) -0.41630(6) 0.96435(12)
Mo6 Mo -0.13605(10) -0.55829(6) 0.75980(11)
P1 P 0.00000 -0.50000 1.00000
Ag1 Ag 0.50000 0.50000 0.00000
Ag2 Ag -0.11678(9) 0.29892(6) -0.39013(10)
Ag3 Ag 0.24034(10) 0.28860(6) -0.72693(11)
N1 N 0.4787(11) 0.4710(7) -0.1692(12)
N2 N 0.4163(12) 0.4571(8) -0.3338(14)
N3 N 0.5129(13) 0.4428(8) -0.3450(15)
N4 N 0.1418(9) 0.3755(5) -0.5522(10)
N5 N 0.0073(10) 0.3288(6) -0.4937(10)
N6 N 0.1498(9) 0.3208(5) -0.5948(10)
N7 N -0.2108(9) 0.2687(6) -0.5695(11)
N8 N -0.2637(8) 0.3053(5) -0.6426(11)
C1 C 0.2223(11) 0.4203(7) -0.5633(13)
H1 H 0.19180 0.45880 -0.56290
H2 H 0.25650 0.41520 -0.63420
C2 C 0.2997(12) 0.4140(9) -0.4634(15)
H3 H 0.26370 0.40260 -0.39640
H4 H 0.34810 0.38340 -0.48020
C3 C 0.5457(16) 0.4496(10) -0.244(2)
H5 H 0.38720 0.55970 0.22140
C4 C 0.3548(16) 0.4670(9) -0.4401(18)
H6 H 0.69240 0.50090 0.43080
H7 H 0.60070 0.52380 0.50190
C5 C 0.0576(12) 0.3801(8) -0.4926(12)
H8 H 0.03650 0.41370 -0.45580
C6 C 0.6008(15) 0.5263(9) 0.2324(18)
H9 H 0.66430 0.51390 0.20850
C7 C 0.0691(12) 0.2956(7) -0.5572(13)
H10 H 0.05430 0.25670 -0.57300
C8 C 0.8276(11) 0.2681(7) -1.1376(14)
H11 H 0.86840 0.29900 -1.11200
C9 C 0.7468(11) 0.2128(8) -1.2451(14)
H12 H 0.71680 0.19500 -1.30880
C10 C -0.3224(10) 0.3547(6) -0.6008(13)
H13 H 0.67120 0.11600 -1.15980
H14 H 0.71440 0.12810 -1.03650
C11 C -0.4295(12) 0.3366(7) -0.5651(15)
H15 H 0.53320 0.12910 -1.04190
H16 H 0.53340 0.18040 -1.12960
O1 O 0.0112(12) -0.5266(7) 0.8801(15)
O2 O 0.1576(7) -0.6710(4) 0.7690(8)
O3 O 0.3315(7) -0.3772(4) 0.9466(8)
O4 O 0.0271(7) -0.7108(4) 1.1692(8)
O5 O 0.3557(6) -0.5867(4) 1.1240(8)
O6 O -0.0424(7) -0.5074(5) 0.6915(10)
O7 O 0.2818(8) -0.4911(4) 1.0014(9)
O8 O 0.1532(7) -0.6146(5) 1.1442(8)
O9 O 0.2171(8) -0.5946(5) 0.9398(8)
O10 O 0.2000(8) -0.4456(5) 0.8151(9)
O11 O -0.0292(7) -0.6138(5) 0.7791(10)
O12 O 0.2036(9) -0.4050(4) 1.1156(9)
O13 O 0.1357(7) -0.5502(5) 0.7501(9)
O14 O 0.0520(7) -0.6576(5) 0.9640(8)
O15 O -0.0202(7) -0.5999(5) 1.2467(9)
O16 O -0.0530(12) -0.5447(7) 1.0762(14)
O17 O -0.1224(7) -0.6403(5) 1.0710(9)
O18 O 0.2166(8) -0.5084(4) 1.2074(8)
O19 O 0.1052(12) -0.4840(7) 1.0489(13)
O20 O -0.2020(7) -0.5855(4) 0.6497(8)
O21 O 0.0654(12) -0.5555(8) 1.0059(15)
O22 O 0.1273(7) -0.4599(5) 0.5956(8)
N9 N 0.8053(9) 0.2595(6) -1.248(1)
C12 C -0.4255(12) 0.2944(9) -0.4718(15)
H17 H 0.60550 0.18690 -0.90540
H18 H 0.61880 0.23760 -0.99230
N10 N -0.5258(7) 0.2705(5) -0.4417(10)
N11 N -0.5851(10) 0.2420(5) -0.5168(8)
C13 C -0.6659(9) 0.2218(5) -0.4634(11)
H19 H 0.28050 0.29980 -0.99600
N12 N -0.6565(8) 0.2378(5) -0.3553(9)
C14 C 0.4301(9) 0.2321(5) -0.8419(9)
H20 H 0.45540 0.21580 -0.77450
Mo1B Mo -0.01725(10) -0.35623(6) 0.88437(11)
Mo2B Mo -0.10855(9) -0.38441(5) 1.15975(11)
Mo3B Mo -0.08614(9) -0.52883(6) 1.27637(11)
Mo4B Mo -0.24300(9) -0.44101(6) 0.91647(11)
Mo5B Mo -0.22622(9) -0.58370(6) 1.03565(12)
Mo6B Mo 0.13605(10) -0.44171(6) 1.24020(11)
Ag2C Ag 0.88322(9) 0.20108(6) -0.89013(10)
Ag2* Ag 0.88322(9) 0.29892(6) -1.39013(10)
Ag2B Ag 1.11678(9) 0.70108(6) 0.39013(10)
Ag2C* Ag -0.11678(9) 0.20108(6) -0.89013(10)
Ag3C Ag -0.75966(10) 0.21140(6) -0.22693(11)
Ag3B Ag 0.75966(10) 0.71140(6) 0.72693(11)
N1B N 0.5213(11) 0.5290(7) 0.1692(12)
N2B N 0.5837(12) 0.5429(8) 0.3338(14)
N3B N 0.4871(13) 0.5572(8) 0.3450(15)
N4B N 0.8582(9) 0.6245(5) 0.5522(10)
N5B N 0.9927(10) 0.6712(6) 0.4937(10)
N6B N 0.8502(9) 0.6792(5) 0.5948(10)
N7C N 0.7892(9) 0.2313(6) -1.0695(11)
N7B N 1.2108(9) 0.7313(6) 0.5695(11)
N8C N 0.7363(8) 0.1947(5) -1.1426(11)
C1B C 0.7777(11) 0.5797(7) 0.5633(13)
H1B H 0.80820 0.54120 0.56290
H2B H 0.74350 0.58480 0.63420
C2B C 0.7003(12) 0.5860(9) 0.4634(15)
H3B H 0.73630 0.59740 0.39640
H4B H 0.65190 0.61660 0.48020
C3B C 0.4543(16) 0.5504(10) 0.244(2)
H5B H 0.61280 0.44030 -0.22140
C4B C 0.6452(16) 0.5330(9) 0.4401(18)
H6B H 0.30760 0.49910 -0.43080
H7B H 0.39930 0.47620 -0.50190
C5B C 0.9424(12) 0.6199(8) 0.4926(12)
H8B H 0.96350 0.58630 0.45580
C6B C 0.3992(15) 0.4737(9) -0.2324(18)
H9B H 0.33570 0.48610 -0.20850
C7B C 0.9309(12) 0.7044(7) 0.5572(13)
H10B H 0.94570 0.74330 0.57300
C8C C -0.1724(11) 0.2319(7) -0.6376(14)
H11C H -0.13160 0.20100 -0.61200
C9C C -0.2532(11) 0.2872(8) -0.7451(14)
H12C H -0.28320 0.30500 -0.80880
C10C C 0.6776(10) 0.1453(6) -1.1008(13)
H13C H -0.32880 0.38400 -0.65980
H14C H -0.28560 0.37190 -0.53650
C11C C 0.5705(12) 0.1634(7) -1.0651(15)
H15C H -0.46680 0.37090 -0.54190
H16C H -0.46660 0.31960 -0.62960
O1B O -0.0112(12) -0.4734(7) 1.1199(15)
O2B O -0.1576(7) -0.3290(4) 1.2310(8)
O3B O -0.3315(7) -0.6228(4) 1.0534(8)
O4B O -0.0271(7) -0.2892(4) 0.8308(8)
O5B O -0.3557(6) -0.4133(4) 0.8760(8)
O6B O 0.0424(7) -0.4926(5) 1.3085(10)
O7B O -0.2818(8) -0.5089(4) 0.9986(9)
O8B O -0.1532(7) -0.3854(5) 0.8558(8)
O9B O -0.2171(8) -0.4054(5) 1.0602(8)
O10B O -0.2000(8) -0.5544(5) 1.1849(9)
O11B O 0.0292(7) -0.3862(5) 1.2209(10)
O12B O -0.2036(9) -0.5950(4) 0.8844(9)
O13B O -0.1357(7) -0.4498(5) 1.2499(9)
O14B O -0.0520(7) -0.3424(5) 1.0360(8)
O15B O 0.0202(7) -0.4001(5) 0.7533(9)
O16B O 0.0530(12) -0.4553(7) 0.9238(14)
O17B O 0.1224(7) -0.3597(5) 0.9290(9)
O18B O -0.2166(8) -0.4916(4) 0.7926(8)
O19B O -0.1052(12) -0.5160(7) 0.9511(13)
O20B O 0.2020(7) -0.4145(4) 1.3503(8)
O21B O -0.0654(12) -0.4445(8) 0.9941(15)
O22B O -0.1273(7) -0.5401(5) 1.4044(8)
N9* N -0.1947(9) 0.2595(6) -0.248(1)
N9C N -0.1947(9) 0.2405(6) -0.748(1)
N9B N 1.1947(9) 0.7405(6) 0.248(1)
C12C C 0.5745(12) 0.2056(9) -0.9718(15)
H17C H -0.39450 0.31310 -0.40540
H18C H -0.38120 0.26240 -0.49230
N10C N 0.4742(7) 0.2295(5) -0.9417(10)
N11C N 0.4149(10) 0.2580(5) -1.0168(8)
C13C C 0.3341(9) 0.2782(5) -0.9634(11)
H19C H -0.71950 0.20020 -0.49600
N12C N 0.3435(8) 0.2622(5) -0.8553(9)
N12A N 0.6565(8) 0.7378(5) 0.8553(9)
C14C C -0.5699(9) 0.2679(5) -0.3419(9)
H20C H -0.54460 0.28420 -0.27450
#END
