
#######################################################################
#
#                 Cambridge Crystallographic Data Centre
#                                CCDC
#
#######################################################################
#
# If this CIF has been generated from an entry in the Cambridge
# Structural Database, then it will include bibliographic, chemical,
# crystal, experimental, refinement or atomic coordinate data resulting
# from the CCDC's data processing and validation procedures.
#
#######################################################################

data_CSD_CIF_VAYWEZ
_audit_creation_date 2012-10-16
_audit_creation_method CSD-ConQuest-V1
_database_code_CSD VAYWEZ
_database_code_depnum_ccdc_archive 'CCDC 825930'
_chemical_formula_sum 'C28 H40 Ag5 N24 O40 P1 W12'
_chemical_formula_moiety
;
(C28 H40 Ag5 N24 5+)n,n(O40 P1 W12 5-)
;
_journal_coden_Cambridge 222
_journal_volume 41
_journal_year 2012
_journal_page_first 9365
_journal_name_full 'Dalton Trans. '
loop_
_publ_author_name
"Chun-Jing Zhang"
"Hai-Jun Pang"
"Qun Tan"
"Ya-Guang Chen"
_chemical_name_systematic
;
catena-(tetrakis(\m~2~-1,3-bis(1,2,4-triazol-1-yl)propane)-penta-silver(i) 
(\m~12~-phosphato)-tetracosakis(\m~2~-oxo)-dodecaoxo-deca-tungsten(vi)-di-tung
sten(v))
;
_cell_volume   3540.855
_exptl_crystal_colour 'black'
_exptl_crystal_density_diffrn 3.873
_exptl_crystal_description 'block'
_diffrn_ambient_temperature 293
_refine_special_details
;
O1,O16,O2,O9 disordered by symmetry over two sites with occupancy 0.50.

;
#These two values have been output from a single CSD field.
_refine_ls_R_factor_gt 0.0342
_refine_ls_wR_factor_gt 0.0342
_symmetry_cell_setting monoclinic
_symmetry_space_group_name_H-M 'P 21/c'
_symmetry_Int_Tables_number 14
loop_
_symmetry_equiv_pos_site_id
_symmetry_equiv_pos_as_xyz
1 x,y,z
2 -x,1/2+y,1/2-z
3 -x,-y,-z
4 x,-1/2-y,-1/2+z
_cell_length_a 13.119(1)
_cell_length_b 22.809(1)
_cell_length_c 11.840(2)
_cell_angle_alpha 90
_cell_angle_beta 91.946(1)
_cell_angle_gamma 90
_cell_formula_units_Z 2
loop_
_atom_type_symbol
_atom_type_radius_bond
C 0.68
H 0.23
Ag 1.65
N 0.68
O 0.68
P 1.05
W 1.46
loop_
_atom_site_label
_atom_site_type_symbol
_atom_site_fract_x
_atom_site_fract_y
_atom_site_fract_z
W1 W 1.22419(4) -0.08460(2) -0.03586(5)
W2 W 1.08721(4) -0.02760(2) -0.27625(4)
W3 W 0.75743(4) -0.05810(3) -0.08299(5)
W4 W 1.10821(4) 0.11598(2) -0.15819(4)
W5 W 0.98149(4) -0.14291(2) -0.11876(5)
W6 W 0.86464(4) 0.05828(2) -0.24004(4)
P1 P 1.00000 0.00000 0.00000
Ag1 Ag 0.50000 0.00000 0.00000
Ag2 Ag 0.24028(9) 0.21330(6) -0.72493(11)
Ag3 Ag -0.11671(9) 0.20169(5) -0.39026(9)
O1 O 1.0526(11) -0.0457(7) -0.0758(12)
O2 O 1.0099(11) 0.0267(6) -0.1179(12)
O3 O 0.9593(7) 0.0079(5) -0.3083(12)
O4 O 0.7856(8) -0.0086(5) -0.2063(10)
O5 O 0.6444(7) -0.0861(5) -0.1225(9)
O6 O 1.0194(8) -0.0979(5) -0.2460(9)
O7 O 1.0520(8) 0.1573(6) -0.0339(8)
O8 O 0.8463(8) -0.1148(6) -0.1440(8)
O9 O 0.9367(11) -0.0559(7) -0.0075(13)
O10 O 1.1198(8) -0.1406(5) -0.0675(9)
O11 O 1.2819(10) -0.0111(4) 0.0045(9)
O12 O 1.1969(8) -0.0558(5) -0.1839(9)
O13 O 0.9731(7) 0.1128(4) -0.2216(11)
O14 O 1.2021(10) -0.0965(4) 0.1200(8)
O15 O 1.1381(7) 0.0500(5) -0.2469(11)
O16 O 1.1040(11) -0.0153(7) 0.0513(13)
O17 O 1.3309(7) -0.1248(4) -0.0534(9)
O18 O 0.7997(8) 0.0860(4) -0.3527(8)
O19 O 0.7815(9) -0.0941(6) 0.0607(8)
O20 O 1.1591(7) 0.1708(4) -0.2299(9)
O21 O 1.1294(7) -0.0394(5) -0.4061(8)
O22 O 0.9707(8) -0.2109(4) -0.1728(8)
N1 N 0.1495(8) 0.1804(5) -0.5912(10)
N2 N 0.7904(8) 0.2680(5) -1.0702(10)
N3 N 0.8039(8) 0.2379(5) -1.2476(10)
N4 N 0.7375(8) 0.3041(5) -1.1394(9)
N5 N 0.1416(8) 0.1241(5) -0.5521(8)
N6 N 0.0094(9) 0.1698(5) -0.4932(10)
C1 C 0.5535(8) 0.0496(8) -0.2388(10)
H1 H 0.62120 0.05670 -0.21720
N7 N 0.5129(8) 0.0563(8) -0.3402(10)
N8 N 0.4166(8) 0.0420(7) -0.3370(9)
C2 C 0.3977(8) 0.0266(8) -0.2336(9)
H2 H 0.33500 0.01440 -0.20770
N9 N 0.4823(8) 0.0313(7) -0.1728(9)
C3 C 0.3551(16) 0.0314(9) -0.4420(17)
H3 H 0.39860 0.02160 -0.50380
H4 H 0.30730 -0.00040 -0.43170
C4 C 0.3009(12) 0.0866(8) -0.4646(16)
H5 H 0.26750 0.09910 -0.39690
H6 H 0.34970 0.11670 -0.48380
C5 C 0.0665(11) 0.2048(6) -0.5551(12)
H7 H 0.04880 0.24350 -0.57140
C6 C 0.6797(11) 0.3523(6) -1.0961(15)
H8 H 0.71550 0.36810 -1.02990
H9 H 0.67510 0.38300 -1.15270
C7 C 0.5717(11) 0.3342(7) -1.0642(14)
H10 H 0.53760 0.31560 -1.12870
H11 H 0.53320 0.36890 -1.04550
C8 C 0.2208(11) 0.0804(7) -0.5620(14)
H12 H 0.19080 0.04160 -0.56020
H13 H 0.25340 0.08510 -0.63370
C9 C 0.7457(10) 0.2857(6) -1.2449(12)
H14 H 0.71520 0.30370 -1.30800
C10 C 0.8305(10) 0.2304(6) -1.1397(11)
H15 H 0.87430 0.20070 -1.11500
C11 C 0.0575(11) 0.1190(6) -0.4929(12)
H16 H 0.03620 0.08500 -0.45710
C12 C 0.5726(12) 0.2932(9) -0.9669(18)
H17 H 0.60050 0.31370 -0.90100
H18 H 0.61860 0.26110 -0.98270
N10 N 0.4759(10) 0.2689(7) -0.9389(12)
N11 N 0.4193(11) 0.2405(7) -1.0193(12)
C13 C 0.4301(12) 0.2658(8) -0.8405(14)
H19 H 0.45580 0.28180 -0.77310
C14 C 0.3412(13) 0.2229(8) -0.9608(16)
H20 H 0.28730 0.20180 -0.99380
N12 N 0.3441(9) 0.2372(6) -0.8514(11)
W1B W 0.77581(4) 0.08460(2) 0.03586(5)
W2B W 0.91279(4) 0.02760(2) 0.27625(4)
W3B W 1.24257(4) 0.05810(3) 0.08299(5)
W4B W 0.89179(4) -0.11598(2) 0.15819(4)
W5B W 1.01851(4) 0.14291(2) 0.11876(5)
W6B W 1.13536(4) -0.05828(2) 0.24004(4)
Ag2B Ag 0.75972(9) -0.21330(6) 0.72493(11)
Ag2C Ag -0.75972(9) 0.28670(6) -0.22493(11)
Ag3B Ag 1.11671(9) -0.20169(5) 0.39026(9)
Ag3C Ag 0.88329(9) 0.29831(5) -0.89026(9)
Ag3* Ag 0.88329(9) 0.20169(5) -1.39026(9)
Ag3C* Ag -0.11671(9) 0.29831(5) -0.89026(9)
O1B O 0.9474(11) 0.0457(7) 0.0758(12)
O2B O 0.9901(11) -0.0267(6) 0.1179(12)
O3B O 1.0407(7) -0.0079(5) 0.3083(12)
O4B O 1.2144(8) 0.0086(5) 0.2063(10)
O5B O 1.3556(7) 0.0861(5) 0.1225(9)
O6B O 0.9806(8) 0.0979(5) 0.2460(9)
O7B O 0.9480(8) -0.1573(6) 0.0339(8)
O8B O 1.1537(8) 0.1148(6) 0.1440(8)
O9B O 1.0633(11) 0.0559(7) 0.0075(13)
O10B O 0.8802(8) 0.1406(5) 0.0675(9)
O11B O 0.7181(10) 0.0111(4) -0.0045(9)
O12B O 0.8031(8) 0.0558(5) 0.1839(9)
O13B O 1.0269(7) -0.1128(4) 0.2216(11)
O14B O 0.7979(10) 0.0965(4) -0.1200(8)
O15B O 0.8619(7) -0.0500(5) 0.2469(11)
O16B O 0.8960(11) 0.0153(7) -0.0513(13)
O17B O 0.6691(7) 0.1248(4) 0.0534(9)
O18B O 1.2003(8) -0.0860(4) 0.3527(8)
O19B O 1.2185(9) 0.0941(6) -0.0607(8)
O20B O 0.8409(7) -0.1708(4) 0.2299(9)
O21B O 0.8706(7) 0.0394(5) 0.4061(8)
O22B O 1.0293(8) 0.2109(4) 0.1728(8)
N1B N 0.8505(8) -0.1804(5) 0.5912(10)
N2C N -0.2096(8) 0.2320(5) -0.5702(10)
N2A N 1.2096(8) -0.2320(5) 0.5702(10)
N3C N -0.1961(8) 0.2621(5) -0.7476(10)
N3* N -0.1961(8) 0.2379(5) -0.2476(10)
N3B N 1.1961(8) -0.2379(5) 0.2476(10)
N4C N -0.2625(8) 0.1959(5) -0.6394(9)
N5B N 0.8584(8) -0.1241(5) 0.5521(8)
N6B N 0.9906(9) -0.1698(5) 0.4932(10)
C1B C 0.4465(8) -0.0496(8) 0.2388(10)
H1B H 0.37880 -0.05670 0.21720
N7B N 0.4871(8) -0.0563(8) 0.3402(10)
N8B N 0.5834(8) -0.0420(7) 0.3370(9)
C2B C 0.6023(8) -0.0266(8) 0.2336(9)
H2B H 0.66500 -0.01440 0.20770
N9B N 0.5177(8) -0.0313(7) 0.1728(9)
C3B C 0.6449(16) -0.0314(9) 0.4420(17)
H3B H 0.60140 -0.02160 0.50380
H4B H 0.69270 0.00040 0.43170
C4B C 0.6991(12) -0.0866(8) 0.4646(16)
H5B H 0.73250 -0.09910 0.39690
H6B H 0.65030 -0.11670 0.48380
C5B C 0.9335(11) -0.2048(6) 0.5551(12)
H7B H 0.95120 -0.24350 0.57140
C6C C -0.3203(11) 0.1477(6) -0.5961(15)
H8C H -0.28450 0.13190 -0.52990
H9C H -0.32490 0.11700 -0.65270
C7C C -0.4283(11) 0.1658(7) -0.5642(14)
H10C H -0.46240 0.18440 -0.62870
H11C H -0.46680 0.13110 -0.54550
C8B C 0.7792(11) -0.0804(7) 0.5620(14)
H12B H 0.80920 -0.04160 0.56020
H13B H 0.74660 -0.08510 0.63370
C9C C -0.2543(10) 0.2143(6) -0.7449(12)
H14C H -0.28480 0.19630 -0.80800
C10C C -0.1695(10) 0.2696(6) -0.6397(11)
H15C H -0.12570 0.29930 -0.61500
C11B C 0.9425(11) -0.1190(6) 0.4929(12)
H16B H 0.96380 -0.08500 0.45710
C12C C -0.4274(12) 0.2068(9) -0.4669(18)
H17C H -0.39950 0.18630 -0.40100
H18C H -0.38140 0.23890 -0.48270
N10C N -0.5241(10) 0.2311(7) -0.4389(12)
N11C N -0.5807(11) 0.2595(7) -0.5193(12)
C13C C -0.5699(12) 0.2342(8) -0.3405(14)
H19C H -0.54420 0.21820 -0.27310
C14C C -0.6588(13) 0.2771(8) -0.4608(16)
H20C H -0.71270 0.29820 -0.49380
N12C N -0.6559(9) 0.2628(6) -0.3514(11)
N12B N 0.6559(9) -0.2372(6) 0.8514(11)
#END
