
#######################################################################
#
#                 Cambridge Crystallographic Data Centre
#                                CCDC
#
#######################################################################
#
# If this CIF has been generated from an entry in the Cambridge
# Structural Database, then it will include bibliographic, chemical,
# crystal, experimental, refinement or atomic coordinate data resulting
# from the CCDC's data processing and validation procedures.
#
#######################################################################

data_CSD_CIF_VAZXIG
_audit_creation_date 2017-09-07
_audit_creation_method CSD-ConQuest-V1
_database_code_CSD VAZXIG
_database_code_depnum_ccdc_archive 'CCDC 1511740'
_chemical_formula_sum 'C36 H27 K1 N27 O13.5 Pb6'
_chemical_formula_moiety
;
(C36 H24 N27 O12 Pb6 1-)n,K1 1+,1.5(H2 O1)
;
_journal_coden_Cambridge 119
_journal_volume 1150
_journal_year 2017
_journal_page_first 404
_journal_name_full 'J.Mol.Struct. '
loop_
_publ_author_name
"P.Hayati"
"B.Souri"
"A.R.Rezvani"
"A.Morsali"
"Angel Gutierrez"
_chemical_name_systematic
;
catena-[potassium 
heptakis(\m-azido)-hexakis(\m-pyridine-2-carboxylato)-hexa-lead 
sesquihydrate]
;
_cell_volume   1411.270
_exptl_crystal_colour 'colorless'
_exptl_crystal_density_diffrn 2.745
_exptl_crystal_description 'prismatic'
_diffrn_ambient_temperature 296.1
#These two values have been output from a single CSD field.
_refine_ls_R_factor_gt 0.0387
_refine_ls_wR_factor_gt 0.0387
_symmetry_cell_setting hexagonal
_symmetry_space_group_name_H-M 'P -3'
_symmetry_Int_Tables_number 147
loop_
_symmetry_equiv_pos_site_id
_symmetry_equiv_pos_as_xyz
1 x,y,z
2 -y,x-y,z
3 -x+y,-x,z
4 -x,-y,-z
5 y,-x+y,-z
6 x-y,x,-z
_cell_length_a 12.8106(7)
_cell_length_b 12.8106(7)
_cell_length_c 9.9298(8)
_cell_angle_alpha 90
_cell_angle_beta 90
_cell_angle_gamma 120
_cell_formula_units_Z 1
loop_
_atom_type_symbol
_atom_type_radius_bond
C 0.68
H 0.23
K 2.03
N 0.68
O 0.68
Pb 1.46
loop_
_atom_site_label
_atom_site_type_symbol
_atom_site_fract_x
_atom_site_fract_y
_atom_site_fract_z
C1 C 0.9610(15) 0.4315(13) 0.1880(14)
H1 H 0.90360 0.38640 0.12310
C2 C 1.0105(16) 0.5528(14) 0.1886(15)
H2 H 0.98590 0.58930 0.12500
C3 C 1.0976(16) 0.6234(13) 0.2830(16)
H3 H 1.13430 0.70700 0.28270
C4 C 1.1267(12) 0.5621(10) 0.3779(14)
H4 H 1.18260 0.60500 0.44500
C5 C 1.0741(11) 0.4396(10) 0.3733(11)
C6 C 1.101(1) 0.3687(11) 0.4766(11)
N1 N 0.9928(9) 0.3743(9) 0.2793(9)
N2 N 1.1056(13) 0.2093(15) 0.1606(15)
N3 N 1.1368(9) 0.2768(11) 0.066(1)
N4 N 1.1707(12) 0.3419(13) -0.0247(12)
O1 O 1.0397(7) 0.2552(7) 0.4732(7)
O2 O 1.1773(8) 0.4258(8) 0.5654(9)
Pb1 Pb 0.90626(4) 0.14534(4) 0.28934(4)
N5 N 1.00000 0.00000 0.3820(14)
N6 N 1.00000 0.00000 0.50000
K1 K 1.00000 0.00000 0.00000
O3 O 1.33330 0.66670 0.723(4)
O4 O 1.33330 0.66670 0.996(8)
N5C N 1.00000 0.00000 0.6180(14)
C1A C 0.5685(15) -0.4705(13) 0.1880(14)
H1A H 0.61360 -0.48280 0.12310
C2A C 0.4472(16) -0.5423(14) 0.1886(15)
H2A H 0.41070 -0.60340 0.12500
C3A C 0.3766(16) -0.5258(13) 0.2830(16)
H3A H 0.29300 -0.57270 0.28270
C4A C 0.4379(12) -0.4354(10) 0.3779(14)
H4A H 0.39500 -0.42240 0.44500
C5A C 0.5604(11) -0.3655(10) 0.3733(11)
C6A C 0.6313(10) -0.2677(11) 0.4766(11)
N1A N 0.6257(9) -0.3815(9) 0.2793(9)
N2A N 0.7907(13) -0.1037(15) 0.1606(15)
N3A N 0.7232(9) -0.1400(11) 0.066(1)
N4A N 0.6581(12) -0.1712(13) -0.0247(12)
O1A O 0.7448(7) -0.2155(7) 0.4732(7)
O2A O 0.5742(8) -0.2485(8) 0.5654(9)
Pb1A Pb 0.85466(4) -0.23908(4) 0.28934(4)
C1B C 1.4705(15) 0.0390(13) 0.1880(14)
H1B H 1.48280 0.09640 0.12310
C2B C 1.5423(16) -0.0105(14) 0.1886(15)
H2B H 1.60340 0.01410 0.12500
C3B C 1.5258(16) -0.0976(13) 0.2830(16)
H3B H 1.57270 -0.13430 0.28270
C4B C 1.4354(12) -0.1267(10) 0.3779(14)
H4B H 1.42240 -0.18260 0.44500
C5B C 1.3655(11) -0.0741(10) 0.3733(11)
C6B C 1.2677(10) -0.1010(11) 0.4766(11)
N1B N 1.3815(9) 0.0072(9) 0.2793(9)
N2B N 1.1037(13) -0.1056(15) 0.1606(15)
N3B N 1.1400(9) -0.1368(11) 0.066(1)
N4B N 1.1712(12) -0.1707(13) -0.0247(12)
O1B O 1.2155(7) -0.0397(7) 0.4732(7)
O2B O 1.2485(8) -0.1773(8) 0.5654(9)
Pb1B Pb 1.23908(4) 0.09374(4) 0.28934(4)
C1C C 1.0390(15) -0.4315(13) -0.1880(14)
H1C H 1.09640 -0.38640 -0.12310
C2C C 0.9895(16) -0.5528(14) -0.1886(15)
H2C H 1.01410 -0.58930 -0.12500
C3C C 0.9024(16) -0.6234(13) -0.2830(16)
H3C H 0.86570 -0.70700 -0.28270
C4C C 0.8733(12) -0.5621(10) -0.3779(14)
H4C H 0.81740 -0.60500 -0.44500
C5C C 0.9259(11) -0.4396(10) -0.3733(11)
C6C C 0.899(1) -0.3687(11) -0.4766(11)
N1C N 1.0072(9) -0.3743(9) -0.2793(9)
N2C N 0.8944(13) -0.2093(15) -0.1606(15)
N3C N 0.8632(9) -0.2768(11) -0.066(1)
N4C N 0.8293(12) -0.3419(13) 0.0247(12)
O1C O 0.9603(7) -0.2552(7) -0.4732(7)
O2C O 0.8227(8) -0.4258(8) -0.5654(9)
Pb1C Pb 1.09374(4) -0.14534(4) -0.28934(4)
C1D C 1.4315(15) 0.4705(13) -0.1880(14)
H1D H 1.38640 0.48280 -0.12310
C2D C 1.5528(16) 0.5423(14) -0.1886(15)
H2D H 1.58930 0.60340 -0.12500
C3D C 1.6234(16) 0.5258(13) -0.2830(16)
H3D H 1.70700 0.57270 -0.28270
C4D C 1.5621(12) 0.4354(10) -0.3779(14)
H4D H 1.60500 0.42240 -0.44500
C5D C 1.4396(11) 0.3655(10) -0.3733(11)
C6D C 1.3687(10) 0.2677(11) -0.4766(11)
N1D N 1.3743(9) 0.3815(9) -0.2793(9)
N2D N 1.2093(13) 0.1037(15) -0.1606(15)
N3D N 1.2768(9) 0.1400(11) -0.066(1)
N4D N 1.3419(12) 0.1712(13) 0.0247(12)
O1D O 1.2552(7) 0.2155(7) -0.4732(7)
O2D O 1.4258(8) 0.2485(8) -0.5654(9)
Pb1D Pb 1.14534(4) 0.23908(4) -0.28934(4)
C1E C 0.5295(15) -0.0390(13) -0.1880(14)
H1E H 0.51720 -0.09640 -0.12310
C2E C 0.4577(16) 0.0105(14) -0.1886(15)
H2E H 0.39660 -0.01410 -0.12500
C3E C 0.4742(16) 0.0976(13) -0.2830(16)
H3E H 0.42730 0.13430 -0.28270
C4E C 0.5646(12) 0.1267(10) -0.3779(14)
H4E H 0.57760 0.18260 -0.44500
C5E C 0.6345(11) 0.0741(10) -0.3733(11)
C6E C 0.7323(10) 0.1010(11) -0.4766(11)
N1E N 0.6185(9) -0.0072(9) -0.2793(9)
N2E N 0.8963(13) 0.1056(15) -0.1606(15)
N3E N 0.8600(9) 0.1368(11) -0.066(1)
N4E N 0.8288(12) 0.1707(13) 0.0247(12)
O1E O 0.7845(7) 0.0397(7) -0.4732(7)
O2E O 0.7515(8) 0.1773(8) -0.5654(9)
Pb1E Pb 0.76092(4) -0.09374(4) -0.28934(4)
O1* O 1.0397(7) 0.2552(7) -0.5268(7)
O1A* O 0.7448(7) -0.2155(7) -0.5268(7)
O1B* O 1.2155(7) -0.0397(7) -0.5268(7)
O1C* O 0.9603(7) -0.2552(7) 0.5268(7)
O1D* O 1.2552(7) 0.2155(7) 0.5268(7)
O1E* O 0.7845(7) 0.0397(7) 0.5268(7)
O2* O 1.1773(8) 0.4258(8) -0.4346(9)
O2A* O 0.5742(8) -0.2485(8) -0.4346(9)
O2B* O 1.2485(8) -0.1773(8) -0.4346(9)
O2C* O 0.8227(8) -0.4258(8) 0.4346(9)
O2D* O 1.4258(8) 0.2485(8) 0.4346(9)
O2E* O 0.7515(8) 0.1773(8) 0.4346(9)
Pb1* Pb 0.90626(4) 0.14534(4) -0.71066(4)
Pb1A* Pb 0.85466(4) -0.23908(4) -0.71066(4)
Pb1B* Pb 1.23908(4) 0.09374(4) -0.71066(4)
Pb1C* Pb 1.09374(4) -0.14534(4) 0.71066(4)
Pb1D* Pb 1.14534(4) 0.23908(4) 0.71066(4)
Pb1E* Pb 0.76092(4) -0.09374(4) 0.71066(4)
N5C* N 1.00000 0.00000 -0.3820(14)
#END
