
#######################################################################
#
#                 Cambridge Crystallographic Data Centre
#                                CCDC
#
#######################################################################
#
# If this CIF has been generated from an entry in the Cambridge
# Structural Database, then it will include bibliographic, chemical,
# crystal, experimental, refinement or atomic coordinate data resulting
# from the CCDC's data processing and validation procedures.
#
#######################################################################

data_CSD_CIF_VEDMUP
_audit_creation_date 2017-09-11
_audit_creation_method CSD-ConQuest-V1
_database_code_CSD VEDMUP
_database_code_depnum_ccdc_archive 'CCDC 1552696'
_chemical_formula_sum 'C30 H54 Ag3 Mo12 N12 O46 V1'
_chemical_formula_moiety
;
(C10 H14 Ag1 N4 1+)3n,Mo12 O40 V1 3-,6(H2 O1)
;
_journal_coden_Cambridge 119
_journal_volume 1151
_journal_year 2018
_journal_page_first 1
_journal_name_full 'J.Mol.Struct. '
loop_
_publ_author_name
"Shaobin Li"
"Jingyu Zhang"
"Hongge Jia"
"Xiaozhou Zhang"
"Yan Yu"
"Li Li"
"Yongchuan Wu"
"Xiaowei Zhang"
_chemical_name_systematic
;
catena-[tris((\m-1,1'-(butane-1,4-diyl)di(1H-imidazole))-silver(i)) 
octacosakis(\m-oxo)-dodeca-oxo-dodeca-molybdenum-vanadium hexahydrate]
;
_cell_volume   1845.789
_exptl_crystal_description 'block'
_diffrn_ambient_temperature 296
_refine_special_details
;
O20,O21,O6,O7 disordered by symmetry over two configurations with occupancy 
0.50.
;
#These two values have been output from a single CSD field.
_refine_ls_R_factor_gt 0.0964
_refine_ls_wR_factor_gt 0.0964
_symmetry_cell_setting triclinic
_symmetry_space_group_name_H-M 'P -1'
_symmetry_Int_Tables_number 2
loop_
_symmetry_equiv_pos_site_id
_symmetry_equiv_pos_as_xyz
1 x,y,z
2 -x,-y,-z
_cell_length_a 12.6599(10)
_cell_length_b 13.2703(10)
_cell_length_c 13.4247(10)
_cell_angle_alpha 66.402(4)
_cell_angle_beta 70.512(4)
_cell_angle_gamma 65.786(4)
_cell_formula_units_Z 1
loop_
_atom_type_symbol
_atom_type_radius_bond
C 0.68
H 0.23
Ag 1.45
Mo 1.54
N 0.68
O 0.68
V 1.53
loop_
_atom_site_label
_atom_site_type_symbol
_atom_site_fract_x
_atom_site_fract_y
_atom_site_fract_z
Mo1 Mo 0.79714(14) 0.41167(13) 0.45370(12)
Mo2 Mo 0.88542(14) 0.64998(14) 0.25466(12)
Mo3 Mo 1.08813(14) 0.36580(14) 0.29290(13)
Mo4 Mo 0.89094(16) 0.27955(14) 0.70990(14)
Mo5 Mo 0.70368(14) 0.56931(15) 0.64068(13)
Mo6 Mo 0.82151(16) 0.79068(13) 0.45248(17)
V1 V 1.00000 0.50000 0.50000
O1 O 0.7930(11) 0.5594(10) 0.3322(11)
O2 O 0.6963(11) 0.3797(11) 0.4300(12)
O3 O 0.9339(11) 0.344(1) 0.3675(11)
O4 O 0.7359(11) 0.9242(10) 0.4243(11)
O5 O 0.8390(12) 0.1709(11) 0.8061(10)
O6 O 0.5655(10) 0.6087(12) 0.7075(10)
O7 O 0.8793(18) 0.4587(16) 0.5499(15)
O8 O 1.0230(15) 0.7030(15) 0.2174(15)
O9 O 0.8451(12) 0.7196(12) 0.1346(10)
O10 O 1.2205(14) 0.4015(14) 0.2745(13)
O11 O 1.0100(12) 0.5145(12) 0.2179(12)
O12 O 0.7098(15) 0.7111(14) 0.5365(13)
O13 O 1.0336(16) 0.1921(15) 0.6364(15)
O14 O 1.1385(14) 0.2336(14) 0.4164(14)
O15 O 0.7604(19) 0.4129(13) 0.7305(12)
O16 O 0.6952(19) 0.5176(14) 0.5362(12)
O17 O 0.9647(17) 0.6197(16) 0.4018(15)
O18 O 1.1287(14) 0.2997(13) 0.1971(12)
O19 O 0.9616(17) 0.4872(17) 0.4120(15)
O20 O 0.8315(19) 0.2972(13) 0.5843(11)
O21 O 1.1036(17) 0.4080(15) 0.4404(16)
O22 O 0.8012(16) 0.7585(16) 0.3313(15)
Ag1 Ag 0.47102(14) 0.88528(13) 0.58086(12)
C1 C 0.5001(15) 0.7662(15) 0.4118(13)
H1 H 0.56950 0.70920 0.43180
N1 N 0.4439(13) 0.8590(13) 0.4473(12)
N2 N 0.4764(15) 0.9021(14) -0.2708(14)
N3 N 0.4454(13) 0.7655(12) 0.3455(11)
C2 C 0.3533(19) 0.8637(18) 0.3319(14)
H2 H 0.29960 0.88550 0.28780
C3 C 0.3505(15) 0.9251(16) 0.3913(15)
H3 H 0.29700 0.99760 0.39460
N4 N 0.5296(14) 0.8601(15) -0.1150(12)
C4 C 0.5585(18) 0.8232(17) -0.2014(15)
H4 H 0.62050 0.75810 -0.21430
C5 C 0.566(2) 0.691(2) 0.1840(18)
H5 H 0.60690 0.61830 0.16710
H6 H 0.62470 0.71700 0.18890
C6 C 0.4853(19) 0.6689(15) 0.2946(15)
H7 H 0.52560 0.59650 0.34440
H8 H 0.41630 0.66010 0.28690
C7 C 0.5078(17) 0.7787(16) 0.0894(14)
H9 H 0.46660 0.85190 0.10550
H10 H 0.44940 0.75290 0.08310
C8 C 0.595(2) 0.798(2) -0.0217(15)
H11 H 0.63990 0.84370 -0.02380
H12 H 0.65080 0.72380 -0.02990
C9 C 0.436(2) 0.961(2) -0.129(2)
H13 H 0.40480 1.00520 -0.08060
C10 C 0.396(2) 0.988(2) -0.2211(17)
H14 H 0.33000 1.04800 -0.24550
Ag2 Ag 1.00000 0.50000 0.00000
N5 N 0.7137(13) 0.3832(14) 0.0534(12)
N6 N 0.8548(13) 0.4421(15) 0.0491(12)
C11 C 0.7087(19) 0.3683(19) 0.1649(16)
H15 H 0.65690 0.34020 0.22820
C12 C 0.7950(18) 0.404(2) 0.1579(16)
H16 H 0.81410 0.40310 0.21930
C13 C 0.6394(18) 0.3499(18) 0.0146(18)
H17 H 0.64190 0.27040 0.05720
H18 H 0.67170 0.35330 -0.06270
C14 C 0.8019(17) 0.4248(16) -0.0154(17)
H19 H 0.82340 0.43910 -0.09190
C15 C 0.509(2) 0.430(2) 0.027(2)
H20 H 0.47280 0.41420 0.10520
H21 H 0.46720 0.41090 -0.00800
Mo1A Mo 1.20286(14) 0.58833(13) 0.54630(12)
Mo2A Mo 1.11458(14) 0.35002(14) 0.74534(12)
Mo3A Mo 0.91187(14) 0.63420(14) 0.70710(13)
Mo4A Mo 1.10906(16) 0.72045(14) 0.29010(14)
Mo5A Mo 1.29632(14) 0.43069(15) 0.35932(13)
Mo6A Mo 1.17849(16) 0.20932(13) 0.54752(17)
O1A O 1.2070(11) 0.4406(10) 0.6678(11)
O2A O 1.3037(11) 0.6203(11) 0.5700(12)
O3A O 1.0661(11) 0.656(1) 0.6325(11)
O4A O 1.2641(11) 0.0758(10) 0.5757(11)
O5A O 1.1610(12) 0.8291(11) 0.1939(10)
O6A O 1.4345(10) 0.3913(12) 0.2925(10)
O7A O 1.1207(18) 0.5413(16) 0.4501(15)
O8A O 0.9770(15) 0.2970(15) 0.7826(15)
O9A O 1.1549(12) 0.2804(12) 0.8654(10)
O10A O 0.7795(14) 0.5985(14) 0.7255(13)
O11A O 0.9900(12) 0.4855(12) 0.7821(12)
O12A O 1.2902(15) 0.2889(14) 0.4635(13)
O13A O 0.9664(16) 0.8079(15) 0.3636(15)
O14A O 0.8615(14) 0.7664(14) 0.5836(14)
O15A O 1.2396(19) 0.5871(13) 0.2695(12)
O16A O 1.3048(19) 0.4824(14) 0.4638(12)
O17A O 1.0353(17) 0.3803(16) 0.5982(15)
O18A O 0.8713(14) 0.7003(13) 0.8029(12)
O19A O 1.0384(17) 0.5128(17) 0.5880(15)
O20A O 1.1685(19) 0.7028(13) 0.4157(11)
O21A O 0.8964(17) 0.5920(15) 0.5596(16)
O22A O 1.1988(16) 0.2415(16) 0.6687(15)
Ag1* Ag 0.47102(14) 0.88528(13) -0.41914(12)
N2* N 0.4764(15) 0.9021(14) 0.7292(14)
N5A N 0.2863(13) 0.6168(14) -0.0534(12)
N6A N 0.1452(13) 0.5579(15) -0.0491(12)
C11A C 0.2913(19) 0.6317(19) -0.1649(16)
H15A H 0.34310 0.65980 -0.22820
C12A C 0.2050(18) 0.596(2) -0.1579(16)
H16A H 0.18590 0.59690 -0.21930
C13A C 0.3606(18) 0.6501(18) -0.0146(18)
H17A H 0.35810 0.72960 -0.05720
H18A H 0.32830 0.64670 0.06270
C14A C 0.1981(17) 0.5752(16) 0.0154(17)
H19A H 0.17660 0.56090 0.09190
C15A C 0.491(2) 0.570(2) -0.027(2)
H20A H 0.52720 0.58580 -0.10520
H21A H 0.53280 0.58910 0.00800
Ag2* Ag 0.00000 0.50000 0.00000
N6A* N 1.1452(13) 0.5579(15) -0.0491(12)
#END
