
#######################################################################
#
#                 Cambridge Crystallographic Data Centre
#                                CCDC
#
#######################################################################
#
# If this CIF has been generated from an entry in the Cambridge
# Structural Database, then it will include bibliographic, chemical,
# crystal, experimental, refinement or atomic coordinate data resulting
# from the CCDC's data processing and validation procedures.
#
#######################################################################

data_CSD_CIF_VEFMAW
_audit_creation_date 2012-10-16
_audit_creation_method CSD-ConQuest-V1
_database_code_CSD VEFMAW
_database_code_depnum_ccdc_archive 'CCDC 827114'
_chemical_formula_sum 'C111 H126 Co5 N14 O34'
_chemical_formula_moiety
;
(C86 H61 Co5 N5 O27 2-)n,2n(C2 H8 N1 1+),7n(C3 H7 N1 O1)
;
_journal_coden_Cambridge 1347
_journal_volume 157
_journal_year 2012
_journal_page_first 37
_journal_name_full 'Microporous and Mesoporous Materials '
loop_
_publ_author_name
"C.Livage"
"N.Guillou"
"A.Castiglione"
"J.Marrot"
"M.Frigoli"
"F.Millange"
_chemical_name_systematic
;
catena-(bis(Dimethylammonium) 
bis(\m~6~-4,4',4''-nitrilotris(benzoato))-bis(\m~5~-4,4',4''-nitrilotris(benzo
ato))-triaqua-(dimethylammonium)-penta-cobalt dimethylformamide solvate)
;
_cell_volume  37012.735
_exptl_crystal_colour 'violet'
_exptl_crystal_density_diffrn 1.007
_exptl_crystal_description 'parallelepiped'
_diffrn_ambient_temperature 100
_refine_special_details
;
C43,C44,N14,O14 disordered by symmetry over two sites with occupancy 0.50; 
C2E,C3E,N1E and C4E,C5E,N2E disordered over two sites with occupancies 
0.50:0.50. The dimethylammonium ligand and one of the aqua ligands are each 
mixed dimethylammonium/aqua ligands with equal occupancies.
;
#These two values have been output from a single CSD field.
_refine_ls_R_factor_gt 0.0681
_refine_ls_wR_factor_gt 0.0681
_symmetry_cell_setting rhombohedral
_symmetry_space_group_name_H-M 'R -3'
_symmetry_Int_Tables_number 148
loop_
_symmetry_equiv_pos_site_id
_symmetry_equiv_pos_as_xyz
1 x,y,z
2 -y,x-y,z
3 -x+y,-x,z
4 2/3+x,1/3+y,1/3+z
5 2/3-y,1/3+x-y,1/3+z
6 2/3-x+y,1/3-x,1/3+z
7 1/3+x,2/3+y,2/3+z
8 1/3-y,2/3+x-y,2/3+z
9 1/3-x+y,2/3-x,2/3+z
10 -x,-y,-z
11 y,-x+y,-z
12 x-y,x,-z
13 -2/3-x,-1/3-y,-1/3-z
14 -2/3+y,-1/3-x+y,-1/3-z
15 -2/3+x-y,-1/3+x,-1/3-z
16 -1/3-x,-2/3-y,-2/3-z
17 -1/3+y,-2/3-x+y,-2/3-z
18 -1/3+x-y,-2/3+x,-2/3-z
_cell_length_a 38.8481(11)
_cell_length_b 38.8481(11)
_cell_length_c 28.3192(9)
_cell_angle_alpha 90
_cell_angle_beta 90
_cell_angle_gamma 120
_cell_formula_units_Z 9
loop_
_atom_type_symbol
_atom_type_radius_bond
C 0.68
H 0.23
Co 1.25
N 0.68
O 0.68
loop_
_atom_site_label
_atom_site_type_symbol
_atom_site_fract_x
_atom_site_fract_y
_atom_site_fract_z
Co1 Co 0.50000 0.00000 0.00000
Co2 Co 0.603230(6) 0.060100(8) 0.012650(7)
Co3 Co 0.500560(7) -0.034060(5) 0.479340(6)
O1 O 0.54702(3) 0.04770(3) 0.04070(3)
O2 O 0.59831(3) 0.06757(4) 0.08828(4)
O3 O 0.48764(4) -0.00957(6) 0.42334(4)
O4 O 0.48610(4) 0.04240(5) 0.45398(4)
O5 O 0.34079(4) 0.11622(4) 0.19847(7)
O6 O 0.39266(4) 0.16888(3) 0.16596(4)
O7 O 0.52843(3) -0.03263(3) -0.00152(3)
O8 O 0.59060(3) 0.00306(3) 0.02655(4)
O9 O 0.58637(4) -0.24952(3) -0.11947(4)
O10 O 0.57141(8) -0.29736(4) -0.06899(5)
O11 O 0.63841(4) -0.17069(3) 0.26883(3)
O12 O 0.61624(4) -0.12764(3) 0.27720(4)
O13 O 0.66234(3) 0.07557(5) 0.00226(5)
O14? O 0.54417(15) -0.16646(11) 0.33969(13)
N1 N 0.61939(10) 0.11894(9) -0.00221(12)
H1 H 0.63670 0.12610 -0.02760
N2 N 0.47405(4) 0.07107(4) 0.23465(5)
N3 N 0.56057(4) -0.17153(4) 0.06687(5)
C1 C 0.49546(4) 0.06560(5) 0.19712(5)
C2 C 0.47961(4) 0.05773(5) 0.15184(5)
H2 H 0.45390 0.05450 0.14640
C3 C 0.50094(4) 0.05447(4) 0.11431(5)
H3 H 0.49000 0.04950 0.08330
C4 C 0.53837(4) 0.05855(4) 0.12217(5)
C5 C 0.55310(4) 0.06548(5) 0.16797(6)
H4 H 0.57830 0.06810 0.17370
C6 C 0.53215(5) 0.06873(5) 0.20550(5)
H5 H 0.54260 0.07300 0.23660
C7 C 0.47471(4) 0.05775(5) 0.28094(5)
C8 C 0.47396(5) 0.02253(5) 0.28789(5)
H6 H 0.47140 0.00640 0.26140
C9 C 0.47676(3) 0.00979(3) 0.33303(3)
H7 H 0.47760 -0.01400 0.33720
C10 C 0.47817(3) 0.03245(3) 0.37183(3)
C11 C 0.47849(3) 0.06820(3) 0.36523(3)
H8 H 0.48070 0.08440 0.39160
C12 C 0.47576(5) 0.08013(5) 0.31962(6)
H9 H 0.47450 0.10380 0.31500
C13 C 0.45000(4) 0.08749(4) 0.22416(5)
C14 C 0.41237(5) 0.07092(5) 0.24132(6)
H10 H 0.40230 0.04860 0.26180
C15 C 0.38820(5) 0.08687(5) 0.22880(7)
H11 H 0.36150 0.07470 0.24000
C16 C 0.40282(4) 0.11986(4) 0.20058(5)
C17 C 0.44183(5) 0.13804(5) 0.18470(6)
H12 H 0.45190 0.16130 0.16570
C18 C 0.46605(5) 0.12273(5) 0.19623(6)
H13 H 0.49280 0.13540 0.18580
C19 C 0.56223(4) 0.05782(4) 0.08184(5)
C20 C 0.48419(4) 0.02082(5) 0.42032(5)
C21 C 0.37733(4) 0.13695(4) 0.18673(6)
C22 C 0.56014(4) -0.13586(4) 0.05344(5)
C23 C 0.59347(4) -0.09886(5) 0.06231(6)
H14 H 0.61630 -0.09730 0.07660
C24 C 0.59329(2) -0.06470(2) 0.05038(3)
H15 H 0.61590 -0.03960 0.05720
C25 C 0.56043(2) -0.06646(2) 0.02847(3)
C26 C 0.52719(2) -0.10308(2) 0.01864(3)
H16 H 0.50450 -0.10480 0.00350
C27 C 0.52752(5) -0.13809(5) 0.03176(6)
H17 H 0.50500 -0.16330 0.02550
C28 C 0.56227(4) -0.19530(4) 0.03056(5)
C29 C 0.56854(4) -0.18246(4) -0.01640(5)
H18 H 0.57040 -0.15780 -0.02420
C30 C 0.57208(5) -0.20495(4) -0.05157(5)
H19 H 0.57650 -0.19560 -0.08320
C31 C 0.56930(5) -0.24106(4) -0.04106(5)
C32 C 0.56152(6) -0.25491(5) 0.00564(6)
H20 H 0.55910 -0.27990 0.01330
C33 C 0.55746(5) -0.23257(5) 0.04030(5)
H21 H 0.55120 -0.24270 0.07160
C34 C 0.57439(4) -0.17134(4) 0.11321(5)
C35 C 0.60540(4) -0.17830(4) 0.12360(5)
H22 H 0.61630 -0.18690 0.09930
C36 C 0.62067(4) -0.17287(4) 0.16923(5)
H23 H 0.64180 -0.17780 0.17580
C37 C 0.60526(4) -0.16028(4) 0.20519(5)
C38 C 0.57303(5) -0.15497(5) 0.19548(6)
H24 H 0.56200 -0.14680 0.22000
C39 C 0.55664(5) -0.16153(5) 0.15019(6)
H25 H 0.53370 -0.15940 0.14440
C40 C 0.55991(3) -0.02865(4) 0.01689(4)
C41 C 0.57642(6) -0.26424(5) -0.07913(6)
C42 C 0.62139(4) -0.15258(4) 0.25453(5)
C43 C 0.64181(14) 0.14978(12) 0.03489(17)
H26 H 0.62360 0.14710 0.06050
H27 H 0.66320 0.14610 0.04740
H28 H 0.65300 0.17630 0.02090
C44 C 0.58676(15) 0.12616(13) -0.0188(2)
H29 H 0.59800 0.14980 -0.03910
H30 H 0.56700 0.10300 -0.03680
H31 H 0.57370 0.13040 0.00850
O15 O 0.32076(5) 0.25395(6) 0.84112(8)
C45 C 0.34837(7) 0.25300(7) 0.82016(10)
H32 H 0.34270 0.23940 0.79080
N4 N 0.38475(6) 0.26959(6) 0.83603(8)
C46 C 0.39687(9) 0.29149(10) 0.87880(12)
H33 H 0.39340 0.31470 0.87630
H34 H 0.42490 0.30020 0.88480
H35 H 0.38070 0.27460 0.90490
C47 C 0.41580(7) 0.26893(8) 0.80757(10)
H36 H 0.40360 0.24780 0.78390
H37 H 0.43320 0.26390 0.82810
H38 H 0.43150 0.29460 0.79170
O16 O 0.31774(6) -0.01437(7) 0.00764(9)
C48 C 0.33263(9) 0.02246(11) 0.02568(15)
H39 H 0.32540 0.04030 0.01220
N5 N 0.35683(5) 0.03368(5) 0.06133(7)
C49 C 0.37047(12) 0.01033(11) 0.08479(16)
H40 H 0.35690 -0.01660 0.07170
H41 H 0.36470 0.00920 0.11860
H42 H 0.39920 0.02230 0.08020
C50 C 0.37587(12) 0.07460(11) 0.07791(16)
H43 H 0.36250 0.08790 0.06400
H44 H 0.40390 0.08850 0.06850
H45 H 0.37400 0.07490 0.11240
O17 O 0.44906(17) 0.17761(14) 0.32304(17)
C51 C 0.40797(11) 0.15792(9) 0.31723(14)
H46 H 0.39830 0.16720 0.29240
N6 N 0.38031(8) 0.12710(6) 0.34280(8)
C52 C 0.38204(17) 0.10838(11) 0.38673(13)
H47 H 0.40640 0.12640 0.40380
H48 H 0.38190 0.08360 0.37960
H49 H 0.35890 0.10250 0.40630
C53 C 0.33751(10) 0.10618(8) 0.32832(13)
H50 H 0.33460 0.11790 0.29900
H51 H 0.32160 0.10900 0.35330
H52 H 0.32830 0.07790 0.32320
O18 O 0.54647(12) 0.22078(14) 0.1962(2)
C54 C 0.52337(14) 0.22646(16) 0.2236(2)
H53 H 0.52070 0.21780 0.25550
N7 N 0.50372(10) 0.24316(11) 0.21030(14)
C55 C 0.47361(13) 0.24555(15) 0.2370(2)
H54 H 0.44970 0.23640 0.21760
H55 H 0.48340 0.27320 0.24660
H56 H 0.46710 0.22870 0.26520
C56 C 0.5099(2) 0.2603(2) 0.16272(19)
H57 H 0.52390 0.28940 0.16500
H58 H 0.48420 0.25090 0.14730
H59 H 0.52590 0.25210 0.14410
N8 N 0.33060(8) 0.91150(11) 0.85003(9)
H60 H 0.31770 0.90190 0.87840
H61 H 0.35580 0.93210 0.85610
C57 C 0.33265(13) 0.87851(14) 0.82270(17)
H62 H 0.30630 0.85450 0.82250
H63 H 0.35180 0.87270 0.83800
H64 H 0.34110 0.88730 0.79020
C58 C 0.30813(14) 0.92586(18) 0.82001(18)
H65 H 0.31420 0.92490 0.78660
H66 H 0.31610 0.95330 0.82870
H67 H 0.27950 0.90870 0.82520
C59? C 0.31903(15) 0.94571(17) 0.8700(3)
C60? C 0.32194(17) 0.9041(2) 0.8093(2)
H68? H 0.32400 0.89820 0.88230
H69? H 0.36190 0.93250 0.86440
H70? H 0.31640 0.95670 0.83990
H71? H 0.33720 0.96740 0.89070
H72? H 0.29290 0.93090 0.88510
H73? H 0.29290 0.88810 0.80740
H74? H 0.33350 0.88770 0.79990
H75? H 0.33150 0.92690 0.78800
N9? N 0.33472(8) 0.91911(12) 0.86142(9)
Co1D Co 0.66667 -0.16667 0.33333
Co1G Co 0.33333 0.16667 -0.33333
Co2I Co 0.396770(6) -0.060100(8) -0.012650(7)
Co2D Co 0.606567(6) -0.123537(8) 0.345983(7)
Co2M Co 0.393433(6) 0.123537(8) -0.345983(7)
Co3I Co 0.499440(7) 0.034060(5) -0.479340(6)
Co3I* Co 0.499440(7) 0.034060(5) 0.520660(6)
Co3M Co 0.299273(7) 0.132047(5) 0.187327(6)
Co3G Co 0.367393(7) 0.201287(5) 0.146007(6)
Co3P Co 0.632607(7) -0.201287(5) -0.146007(6)
Co3* Co 0.500560(7) -0.034060(5) -0.520660(6)
Co3D Co 0.700727(7) -0.132047(5) -0.187327(6)
O1I O 0.45298(3) -0.04770(3) -0.04070(3)
O2I O 0.40169(3) -0.06757(4) -0.08828(4)
O3I O 0.51236(4) 0.00957(6) -0.42334(4)
O4I O 0.51390(4) -0.04240(5) -0.45398(4)
O4I* O 0.51390(4) -0.04240(5) 0.54602(4)
O4* O 0.48610(4) 0.04240(5) -0.54602(4)
O5I O 0.65921(4) -0.11622(4) -0.19847(7)
O5N O 0.557903(40) 0.007457(40) 0.468197(70)
O5E O 0.442097(40) -0.007457(40) -0.468197(70)
O6I O 0.60734(4) -0.16888(3) -0.16596(4)
O6E O 0.442887(40) -0.059327(30) 0.499293(40)
O6N O 0.557113(40) 0.059327(30) -0.499293(40)
O7I O 0.47157(3) 0.03263(3) 0.00152(3)
O8I O 0.40940(3) -0.00306(3) -0.02655(4)
O9I O 0.41363(4) 0.24952(3) 0.11947(4)
O9Q O 0.502557(40) -0.080297(30) 0.452803(40)
O9H O 0.497443(40) 0.080297(30) -0.452803(40)
O10I O 0.42859(8) 0.29736(4) 0.06899(5)
O11I O 0.36159(4) 0.17069(3) -0.26883(3)
O11H O 0.524233(40) 0.028257(30) -0.064503(30)
O11Q O 0.475767(40) -0.028257(30) 0.064503(30)
O12I O 0.38376(4) 0.12764(3) -0.27720(4)
O12H O 0.589453(40) 0.050427(30) -0.056133(40)
O12Q O 0.410547(40) -0.050427(30) 0.056133(40)
O13I O 0.33766(3) -0.07557(5) -0.00226(5)
N1I N 0.38061(10) -0.11894(9) 0.00221(12)
H1I H 0.36330 -0.12610 0.02760
N2I N 0.52595(4) -0.07107(4) -0.23465(5)
N3I N 0.43943(4) 0.17153(4) -0.06687(5)
C1I C 0.50454(4) -0.06560(5) -0.19712(5)
C2I C 0.52039(4) -0.05773(5) -0.15184(5)
H2I H 0.54610 -0.05450 -0.14640
C3I C 0.49906(4) -0.05447(4) -0.11431(5)
H3I H 0.51000 -0.04950 -0.08330
C4I C 0.46163(4) -0.05855(4) -0.12217(5)
C5I C 0.44690(4) -0.06548(5) -0.16797(6)
H4I H 0.42170 -0.06810 -0.17370
C6I C 0.46785(5) -0.06873(5) -0.20550(5)
H5I H 0.45740 -0.07300 -0.23660
C7I C 0.52529(4) -0.05775(5) -0.28094(5)
C8I C 0.52604(5) -0.02253(5) -0.28789(5)
H6I H 0.52860 -0.00640 -0.26140
C9I C 0.52324(3) -0.00979(3) -0.33303(3)
H7I H 0.52240 0.01400 -0.33720
C10I C 0.52183(3) -0.03245(3) -0.37183(3)
C11I C 0.52151(3) -0.06820(3) -0.36523(3)
H8I H 0.51930 -0.08440 -0.39160
C12I C 0.52424(5) -0.08013(5) -0.31962(6)
H9I H 0.52550 -0.10380 -0.31500
C13I C 0.55000(4) -0.08749(4) -0.22416(5)
C14I C 0.58763(5) -0.07092(5) -0.24132(6)
H10I H 0.59770 -0.04860 -0.26180
C15I C 0.61180(5) -0.08687(5) -0.22880(7)
H11I H 0.63850 -0.07470 -0.24000
C16I C 0.59718(4) -0.11986(4) -0.20058(5)
C17I C 0.55817(5) -0.13804(5) -0.18470(6)
H12I H 0.54810 -0.16130 -0.16570
C18I C 0.53395(5) -0.12273(5) -0.19623(6)
H13I H 0.50720 -0.13540 -0.18580
C19I C 0.43777(4) -0.05782(4) -0.08184(5)
C20I C 0.51581(4) -0.02082(5) -0.42032(5)
C21I C 0.62267(4) -0.13695(4) -0.18673(6)
C22I C 0.43986(4) 0.13586(4) -0.05344(5)
C23I C 0.40653(4) 0.09886(5) -0.06231(6)
H14I H 0.38370 0.09730 -0.07660
C24I C 0.40671(2) 0.06470(2) -0.05038(3)
H15I H 0.38410 0.03960 -0.05720
C25I C 0.43957(2) 0.06646(2) -0.02847(3)
C26I C 0.47281(2) 0.10308(2) -0.01864(3)
H16I H 0.49550 0.10480 -0.00350
C27I C 0.47248(5) 0.13809(5) -0.03176(6)
H17I H 0.49500 0.16330 -0.02550
C28I C 0.43773(4) 0.19530(4) -0.03056(5)
C29I C 0.43146(4) 0.18246(4) 0.01640(5)
H18I H 0.42960 0.15780 0.02420
C30I C 0.42792(5) 0.20495(4) 0.05157(5)
H19I H 0.42350 0.19560 0.08320
C31I C 0.43070(5) 0.24106(4) 0.04106(5)
C32I C 0.43848(6) 0.25491(5) -0.00564(6)
H20I H 0.44090 0.27990 -0.01330
C33I C 0.44254(5) 0.23257(5) -0.04030(5)
H21I H 0.44880 0.24270 -0.07160
C34I C 0.42561(4) 0.17134(4) -0.11321(5)
C35I C 0.39460(4) 0.17830(4) -0.12360(5)
H22I H 0.38370 0.18690 -0.09930
C36I C 0.37933(4) 0.17287(4) -0.16923(5)
H23I H 0.35820 0.17780 -0.17580
C37I C 0.39474(4) 0.16028(4) -0.20519(5)
C38I C 0.42697(5) 0.15497(5) -0.19548(6)
H24I H 0.43800 0.14680 -0.22000
C39I C 0.44336(5) 0.16153(5) -0.15019(6)
H25I H 0.46630 0.15940 -0.14440
C40I C 0.44009(3) 0.02865(4) -0.01689(4)
C41I C 0.42358(6) 0.26424(5) 0.07913(6)
C42I C 0.37861(4) 0.15258(4) -0.25453(5)
C43I C 0.35819(14) -0.14978(12) -0.03489(17)
H26I H 0.37640 -0.14710 -0.06050
H27I H 0.33680 -0.14610 -0.04740
H28I H 0.34700 -0.17630 -0.02090
C44I C 0.41324(15) -0.12616(13) 0.0188(2)
H29I H 0.40200 -0.14980 0.03910
H30I H 0.43300 -0.10300 0.03680
H31I H 0.42630 -0.13040 -0.00850
#END
