
#######################################################################
#
#                 Cambridge Crystallographic Data Centre
#                                CCDC
#
#######################################################################
#
# If this CIF has been generated from an entry in the Cambridge
# Structural Database, then it will include bibliographic, chemical,
# crystal, experimental, refinement or atomic coordinate data resulting
# from the CCDC's data processing and validation procedures.
#
#######################################################################

data_CSD_CIF_VEGJOI
_audit_creation_date 2012-11-16
_audit_creation_method CSD-ConQuest-V1
_database_code_CSD VEGJOI
_database_code_depnum_ccdc_archive 'CCDC 872883'
_chemical_formula_sum 'C35 H34 La1 N1 O13'
_chemical_formula_moiety
;
(C2 H8 N1 1+)n,n(C33 H26 La1 O13 1-)
;
_journal_coden_Cambridge 1145
_journal_volume 22
_journal_year 2012
_journal_page_first 16920
_journal_name_full 'J.Mater.Chem. '
loop_
_publ_author_name
"Song Dang"
"En Ma"
"Zhong-Ming Sun"
"Hongjie Zhang"
_chemical_name_systematic
;
catena-(Dimethylammonium 
(\m~5~-4,4'-((2,2-bis((4-carboxyphenoxy)methyl)propane-1,3-diyl)bis(oxy))diben
zoato)-lanthanum)
;
_cell_volume   1841.745
_exptl_crystal_colour 'colorless'
_exptl_crystal_density_diffrn 1.467
_exptl_crystal_description 'block'
_diffrn_ambient_temperature 273
#These two values have been output from a single CSD field.
_refine_ls_R_factor_gt 0.0481
_refine_ls_wR_factor_gt 0.0481
_symmetry_cell_setting triclinic
_symmetry_space_group_name_H-M 'P -1'
_symmetry_Int_Tables_number 2
loop_
_symmetry_equiv_pos_site_id
_symmetry_equiv_pos_as_xyz
1 x,y,z
2 -x,-y,-z
_cell_length_a 9.189(3)
_cell_length_b 11.486(4)
_cell_length_c 17.918(6)
_cell_angle_alpha 80.253(6)
_cell_angle_beta 81.343(5)
_cell_angle_gamma 86.819(5)
_cell_formula_units_Z 2
loop_
_atom_type_symbol
_atom_type_radius_bond
C 0.68
H 0.23
La 1.62
N 0.68
O 0.68
loop_
_atom_site_label
_atom_site_type_symbol
_atom_site_fract_x
_atom_site_fract_y
_atom_site_fract_z
La1 La 0.17373(3) 1.16752(3) 0.481842(15)
O1 O -0.0337(6) 1.1730(5) 0.4332(3)
O2 O -0.2430(6) 0.9323(5) -0.3815(3)
O3 O 0.2284(6) 1.2297(5) -0.4063(3)
O4 O -0.1357(7) 0.9989(5) 0.4414(3)
O5 O -0.4596(7) 1.0185(6) -0.3925(4)
O6 O -0.0581(7) 1.4295(6) -0.1065(3)
O7 O -0.7697(6) 1.3293(5) 0.4046(3)
O8 O 0.4187(6) 1.1324(5) 0.4852(3)
O9 O 0.0077(6) 1.2694(6) -0.4352(3)
O10 O -0.3445(7) 1.2244(6) -0.1049(3)
O11 O -0.6335(8) 1.4803(6) 0.4087(4)
C1 C -0.0926(8) 1.0966(6) 0.4035(4)
C2 C -0.5949(9) 1.3960(7) 0.2961(4)
C3 C -0.1166(8) 1.1256(6) 0.3229(4)
C4 C -0.6699(9) 1.4026(7) 0.3756(4)
C5 C -0.3474(8) 0.9990(7) -0.3603(4)
C6 C -0.0316(9) 1.3903(7) -0.1763(4)
C7 C -0.0536(9) 1.2243(7) 0.2759(4)
H1 H -0.00200 1.27580 0.29640
C8 C -0.3438(8) 1.0534(7) -0.2911(4)
C9 C 0.0532(8) 1.3107(7) -0.3149(4)
C10 C 0.0986(8) 1.2676(7) -0.3898(4)
C11 C -0.2039(11) 1.4280(9) -0.0678(4)
H2 H -0.27150 1.44250 -0.10530
H3 H -0.21830 1.49180 -0.03790
C12 C -0.6314(10) 1.3143(7) 0.2552(4)
H4 H -0.70120 1.25850 0.27770
C13 C -0.3357(10) 1.1608(8) -0.1633(4)
O12 O -0.3997(11) 1.4124(7) 0.0731(4)
C14 C 0.1474(10) 1.2962(9) -0.2614(5)
H5 H 0.23930 1.25950 -0.27150
C15 C -0.232(1) 1.0294(8) -0.2481(5)
H6 H -0.15640 0.97660 -0.26210
C16 C -0.5653(12) 1.3141(8) 0.1806(5)
H7 H -0.58850 1.25700 0.15350
C17 C -0.2423(12) 1.3090(8) -0.0136(4)
C18 C -0.2322(12) 1.2056(8) -0.0574(5)
H8 H -0.13630 1.20180 -0.08820
H9 H -0.24630 1.13180 -0.02210
C19 C -0.4507(10) 1.1848(9) -0.2055(5)
H10 H -0.52710 1.23680 -0.19130
C20 C -0.4524(10) 1.1311(8) -0.2693(5)
H11 H -0.52980 1.14870 -0.29770
C21 C -0.1219(10) 1.4050(9) -0.2291(4)
H12 H -0.21280 1.44370 -0.21980
C22 C -0.0806(10) 1.3627(9) -0.2983(4)
H13 H -0.14660 1.37050 -0.33360
C23 C 0.1061(10) 1.3362(9) -0.1918(5)
H14 H 0.17070 1.32670 -0.15570
C24 C -0.2276(11) 1.0821(9) -0.1832(5)
H15 H -0.15120 1.06310 -0.15420
C25 C -0.4910(11) 1.4788(9) 0.2617(5)
H16 H -0.46470 1.53410 0.28920
O13 O -0.1701(16) 1.1840(7) 0.0953(4)
C26 C -0.1304(17) 1.2907(10) 0.0430(5)
H17 H -0.03140 1.28260 0.01620
H18 H -0.13470 1.35720 0.07020
C27 C -0.3981(14) 1.3198(10) 0.0280(6)
H19 H -0.46750 1.33850 -0.00840
H20 H -0.42500 1.24580 0.06090
N1 N 0.7623(9) 0.3789(7) 0.4983(4)
H21 H 0.84670 0.34200 0.51040
H22 H 0.74000 0.43450 0.52840
C28 C -0.0673(12) 1.2465(8) 0.1984(4)
H23 H -0.02170 1.31070 0.16650
C29 C -0.4655(12) 1.3982(9) 0.1469(5)
C30 C -0.1919(11) 1.0506(8) 0.2907(5)
H24 H -0.23300 0.98350 0.32130
C31 C -0.2078(14) 1.0729(9) 0.2139(5)
H25 H -0.25760 1.02110 0.19280
C32 C -0.1484(16) 1.1730(9) 0.1697(5)
C33 C -0.4269(13) 1.4798(10) 0.1877(6)
H26 H -0.35740 1.53570 0.16500
C34 C 0.6488(14) 0.2956(12) 0.5167(10)
H27 H 0.64170 0.26320 0.57010
H28 H 0.67200 0.23340 0.48680
H29 H 0.55660 0.33350 0.50630
C35 C 0.791(2) 0.4387(12) 0.4194(7)
H30 H 0.86910 0.49320 0.41460
H31 H 0.70390 0.48090 0.40550
H32 H 0.82050 0.38150 0.38620
La1A La -0.17373(3) 0.83248(3) -0.481842(15)
La1* La 0.17373(3) 1.16752(3) -0.518158(15)
La1A* La -0.17373(3) 0.83248(3) 0.518158(15)
La1** La -0.82627(3) 1.16752(3) 0.481842(15)
O2A O 0.2430(6) 1.0677(5) 0.3815(3)
O3* O 0.2284(6) 1.2297(5) 0.5937(3)
O4A O 0.1357(7) 1.0011(5) 0.5586(3)
O7* O 0.2303(6) 1.3293(5) 0.4046(3)
O9* O 0.0077(6) 1.2694(6) 0.5648(3)
#END
