
#######################################################################
#
#                 Cambridge Crystallographic Data Centre
#                                CCDC
#
#######################################################################
#
# If this CIF has been generated from an entry in the Cambridge
# Structural Database, then it will include bibliographic, chemical,
# crystal, experimental, refinement or atomic coordinate data resulting
# from the CCDC's data processing and validation procedures.
#
#######################################################################

data_CSD_CIF_VEGJUO
_audit_creation_date 2012-11-16
_audit_creation_method CSD-ConQuest-V1
_database_code_CSD VEGJUO
_database_code_depnum_ccdc_archive 'CCDC 872884'
_chemical_formula_sum 'C70 H68 N2 O26 Y2'
_chemical_formula_moiety
;
(C2 H8 N1 1+)2n,n(C66 H52 O26 Y2 2-)
;
_journal_coden_Cambridge 1145
_journal_volume 22
_journal_year 2012
_journal_page_first 16920
_journal_name_full 'J.Mater.Chem. '
loop_
_publ_author_name
"Song Dang"
"En Ma"
"Zhong-Ming Sun"
"Hongjie Zhang"
_chemical_name_systematic
;
catena-(bis(Dimethylammonium) 
bis(\m~5~-tetrakis(4-(carboxyphenyl)oxamethyl)methane)-diaqua-di-yttrium)
;
_cell_volume   1907.631
_exptl_crystal_colour 'colorless'
_exptl_crystal_density_diffrn 1.329
_exptl_crystal_description 'block'
_diffrn_ambient_temperature 273
#These two values have been output from a single CSD field.
_refine_ls_R_factor_gt 0.071
_refine_ls_wR_factor_gt 0.071
_symmetry_cell_setting triclinic
_symmetry_space_group_name_H-M 'P -1'
_symmetry_Int_Tables_number 2
loop_
_symmetry_equiv_pos_site_id
_symmetry_equiv_pos_as_xyz
1 x,y,z
2 -x,-y,-z
_cell_length_a 9.3193(11)
_cell_length_b 11.8459(14)
_cell_length_c 17.601(2)
_cell_angle_alpha 82.597(2)
_cell_angle_beta 82.102(2)
_cell_angle_gamma 87.194(2)
_cell_formula_units_Z 1
loop_
_atom_type_symbol
_atom_type_radius_bond
C 0.68
H 0.23
N 0.68
O 0.68
Y 1.90
loop_
_atom_site_label
_atom_site_type_symbol
_atom_site_fract_x
_atom_site_fract_y
_atom_site_fract_z
Y1 Y 0.32590(6) 0.83531(5) 0.51280(3)
N1 N 0.2683(7) 0.3722(6) 0.4977(4)
H1 H 0.35690 0.33520 0.51120
H2 H 0.24680 0.43410 0.52800
C1 C 0.7377(9) 0.6639(6) 0.0127(4)
C2 C 0.6947(8) 0.5495(6) 0.0616(4)
H3 H 0.70820 0.48930 0.02860
H4 H 0.75870 0.53210 0.10100
C3 C 0.7236(9) 0.7632(7) 0.0632(4)
H5 H 0.74350 0.83500 0.03100
H6 H 0.62640 0.76800 0.09070
C4 C 0.6427(13) 0.6872(8) -0.0509(4)
H7 H 0.65040 0.62420 -0.08160
H8 H 0.54210 0.69730 -0.02910
C5 C 0.8963(12) 0.6542(8) -0.0239(5)
H9 H 0.92710 0.72650 -0.05230
H10 H 0.95870 0.63270 0.01580
C6 C 0.5163(8) 0.5884(6) 0.1698(3)
C7 C 0.6057(9) 0.5684(7) 0.2267(4)
H11 H 0.69120 0.52520 0.21890
C8 C 0.5662(8) 0.6137(7) 0.2959(4)
H12 H 0.62840 0.60300 0.33350
C9 C 0.4366(7) 0.6743(6) 0.3103(3)
C10 C 0.3475(8) 0.6903(8) 0.2532(4)
H13 H 0.25960 0.73020 0.26200
C11 C 0.3854(8) 0.6487(9) 0.1837(4)
H14 H 0.32370 0.66080 0.14590
C12 C 0.3952(7) 0.7238(6) 0.3840(3)
C13 C 0.8208(8) 0.8089(6) 0.1733(4)
C14 C 0.9423(8) 0.7985(7) 0.2115(4)
H15 H 1.01880 0.74920 0.19660
C15 C 0.9497(8) 0.8608(7) 0.2710(4)
H16 H 1.03260 0.85450 0.29540
C16 C 0.8369(7) 0.9325(6) 0.2955(3)
C17 C 0.7148(8) 0.9420(7) 0.2567(4)
H17 H 0.63820 0.99130 0.27140
C18 C 0.7067(9) 0.8783(7) 0.1963(4)
H18 H 0.62380 0.88310 0.17190
C19 C 0.8462(7) 0.9974(6) 0.3614(4)
C20 C 1.1788(8) 0.6097(6) -0.3820(4)
C21 C 1.1011(7) 0.6057(6) -0.3012(4)
C22 C 1.0125(9) 0.5181(7) -0.2702(4)
H19 H 0.99330 0.46390 -0.30090
C23 C 0.9522(10) 0.5096(8) -0.1951(5)
H20 H 0.89730 0.44680 -0.17440
C24 C 0.9695(10) 0.5883(7) -0.1502(4)
C25 C 1.0577(10) 0.6790(7) -0.1796(5)
H21 H 1.07200 0.73440 -0.14870
C26 C 1.1245(8) 0.6864(6) -0.2553(4)
H22 H 1.18530 0.74620 -0.27510
C27 C 0.5940(6) 0.9048(6) -0.4048(3)
C28 C 0.6171(7) 0.8709(5) -0.3230(3)
C29 C 0.5475(7) 0.7809(6) -0.2802(4)
H23 H 0.48600 0.73940 -0.30260
C30 C 0.5676(9) 0.7506(7) -0.2035(4)
H24 H 0.51810 0.69000 -0.17420
C31 C 0.6605(12) 0.8104(8) -0.1711(4)
C32 C 0.7241(13) 0.9042(8) -0.2126(5)
H25 H 0.78080 0.94810 -0.18900
C33 C 0.7063(9) 0.9349(7) -0.2883(4)
H26 H 0.75290 0.99760 -0.31650
C34 C 0.1558(12) 0.2944(10) 0.5186(9)
H27 H 0.15000 0.26750 0.57270
H28 H 0.17520 0.23110 0.48930
H29 H 0.06550 0.33150 0.50800
C35 C 0.288(2) 0.4174(11) 0.4188(6)
H30 H 0.36530 0.47020 0.40960
H31 H 0.20020 0.45610 0.40560
H32 H 0.31210 0.35670 0.38760
O1 O 0.5474(5) 0.5511(4) 0.0983(2)
O2 O 0.0802(5) 0.8645(4) 0.5112(3)
H33 H 0.04490 0.89930 0.54920
H34 H 0.06530 0.90460 0.46920
O3 O 0.8260(5) 0.7398(5) 0.1160(3)
O4 O 0.6921(11) 0.7876(6) -0.0968(3)
O5 O 0.904(1) 0.5673(6) -0.0756(3)
O6 O 0.2714(5) 0.7690(4) 0.3975(3)
O7 O 0.4841(5) 0.7206(4) 0.4323(2)
O8 O 0.7395(5) 1.0609(4) 0.3840(2)
O9 O 0.9611(5) 0.9869(5) 0.3903(3)
O10 O 0.6361(5) 1.0020(4) -0.4363(3)
O11 O 0.5369(4) 0.8370(4) -0.4390(2)
O12 O 1.2690(5) 0.6819(4) -0.4063(3)
O13 O 1.1476(8) 0.5349(6) -0.4198(3)
Y1A Y 0.67410(6) 1.16469(5) -0.51280(3)
Y1* Y 0.32590(6) 0.83531(5) -0.48720(3)
Y1** Y 1.32590(6) 0.83531(5) -0.48720(3)
Y1A* Y -0.32590(6) 1.16469(5) 0.48720(3)
Y1A** Y 0.67410(6) 1.16469(5) 0.48720(3)
C1A C 0.2623(9) 1.3361(6) -0.0127(4)
C2A C 0.3053(8) 1.4505(6) -0.0616(4)
H3A H 0.29180 1.51070 -0.02860
H4A H 0.24130 1.46790 -0.10100
C3A C 0.2764(9) 1.2368(7) -0.0632(4)
H5A H 0.25650 1.16500 -0.03100
H6A H 0.37360 1.23200 -0.09070
C4A C 0.3573(13) 1.3128(8) 0.0509(4)
H7A H 0.34960 1.37580 0.08160
H8A H 0.45790 1.30270 0.02910
C5A C 0.1037(12) 1.3458(8) 0.0239(5)
H9A H 0.07290 1.27350 0.05230
H10A H 0.04130 1.36730 -0.01580
C6A C 0.4837(8) 1.4116(6) -0.1698(3)
C7A C 0.3943(9) 1.4316(7) -0.2267(4)
H11A H 0.30880 1.47480 -0.21890
C8A C 0.4338(8) 1.3863(7) -0.2959(4)
H12A H 0.37160 1.39700 -0.33350
C9A C 0.5634(7) 1.3257(6) -0.3103(3)
C10A C 0.6525(8) 1.3097(8) -0.2532(4)
H13A H 0.74040 1.26980 -0.26200
C11A C 0.6146(8) 1.3513(9) -0.1837(4)
H14A H 0.67630 1.33920 -0.14590
C12A C 0.6048(7) 1.2762(6) -0.3840(3)
C13A C 0.1792(8) 1.1911(6) -0.1733(4)
C14A C 0.0577(8) 1.2015(7) -0.2115(4)
H15A H -0.01880 1.25080 -0.19660
C15A C 0.0503(8) 1.1392(7) -0.2710(4)
H16A H -0.03260 1.14550 -0.29540
C16A C 0.1631(7) 1.0675(6) -0.2955(3)
C17A C 0.2852(8) 1.0580(7) -0.2567(4)
H17A H 0.36180 1.00870 -0.27140
C18A C 0.2933(9) 1.1217(7) -0.1963(4)
H18A H 0.37620 1.11690 -0.17190
C19A C 0.1538(7) 1.0026(6) -0.3614(4)
C20A C -0.1788(8) 1.3903(6) 0.3820(4)
C21A C -0.1011(7) 1.3943(6) 0.3012(4)
C22A C -0.0125(9) 1.4819(7) 0.2702(4)
H19A H 0.00670 1.53610 0.30090
C23A C 0.0478(10) 1.4904(8) 0.1951(5)
H20A H 0.10270 1.55320 0.17440
C24A C 0.0305(10) 1.4117(7) 0.1502(4)
C25A C -0.0577(10) 1.3210(7) 0.1796(5)
H21A H -0.07200 1.26560 0.14870
C26A C -0.1245(8) 1.3136(6) 0.2553(4)
H22A H -0.18530 1.25380 0.27510
C27A C 0.4060(6) 1.0952(6) 0.4048(3)
C28A C 0.3829(7) 1.1291(5) 0.3230(3)
C29A C 0.4525(7) 1.2191(6) 0.2802(4)
H23A H 0.51400 1.26060 0.30260
C30A C 0.4324(9) 1.2494(7) 0.2035(4)
H24A H 0.48190 1.31000 0.17420
C31A C 0.3395(12) 1.1896(8) 0.1711(4)
C32A C 0.2759(13) 1.0958(8) 0.2126(5)
H25A H 0.21920 1.05190 0.18900
C33A C 0.2937(9) 1.0651(7) 0.2883(4)
H26A H 0.24710 1.00240 0.31650
O1A O 0.4526(5) 1.4489(4) -0.0983(2)
O2A O 0.9198(5) 1.1355(4) -0.5112(3)
H33A H 0.95510 1.10070 -0.54920
H34A H 0.93470 1.09540 -0.46920
O3A O 0.1740(5) 1.2602(5) -0.1160(3)
O4A O 0.3079(11) 1.2124(6) 0.0968(3)
O5A O 0.096(1) 1.4327(6) 0.0756(3)
O6A O 0.7286(5) 1.2310(4) -0.3975(3)
O7A O 0.5159(5) 1.2794(4) -0.4323(2)
O8A O 0.2605(5) 0.9391(4) -0.3840(2)
O8* O 0.7395(5) 1.0609(4) -0.6160(2)
O8A* O 0.2605(5) 0.9391(4) 0.6160(2)
O9A O 0.0389(5) 1.0131(5) -0.3903(3)
O10A O 0.3639(5) 0.9980(4) 0.4363(3)
O11A O 0.4631(4) 1.1630(4) 0.4390(2)
O11* O 0.5369(4) 0.8370(4) 0.5610(2)
O11A* O 0.4631(4) 1.1630(4) -0.5610(2)
O12A O -0.2690(5) 1.3181(4) 0.4063(3)
O12* O 0.2690(5) 0.6819(4) 0.5937(3)
O12A* O 0.7310(5) 1.3181(4) -0.5937(3)
O13A O -0.1476(8) 1.4651(6) 0.4198(3)
#END
