
#######################################################################
#
#                 Cambridge Crystallographic Data Centre
#                                CCDC
#
#######################################################################
#
# If this CIF has been generated from an entry in the Cambridge
# Structural Database, then it will include bibliographic, chemical,
# crystal, experimental, refinement or atomic coordinate data resulting
# from the CCDC's data processing and validation procedures.
#
#######################################################################

data_CSD_CIF_VEHKEA
_audit_creation_date 2012-11-16
_audit_creation_method CSD-ConQuest-V1
_database_code_CSD VEHKEA
_database_code_depnum_ccdc_archive 'CCDC 838773'
_chemical_formula_sum 'C49 H69 N7 O22 Zn3'
_chemical_formula_moiety
;
(C2 H8 N1 1+)3n,n(C27 H9 O18 Zn3 3-),4n(C4 H9 N1 O1)
;
_journal_coden_Cambridge 1350
_journal_volume 14
_journal_year 2012
_journal_page_first 5596
_journal_name_full 'CrystEngComm '
loop_
_publ_author_name
"Xiang-Rong Hao"
"Xin-Long Wang"
"Kui-Zhan Shao"
"Guang-Sheng Yang"
"Zhong-Min Su"
"Gang Yuan"
_chemical_name_systematic
;
catena-(tris(Dimethylammonium) 
tris(\m~4~-benzene-1,3,5-tricarboxylato)-tri-zinc N,N-dimethylformamide 
solvate)
;
_cell_volume  28660.526
_exptl_crystal_colour 'colorless'
_exptl_special_details
;
Published density is 1.229; we calculate 1.360

;
_exptl_crystal_description 'block'
_diffrn_ambient_temperature 293
_refine_special_details
;
The SQUEEZE/PLATON program has been used to model some disordered cations and 
solvent.
;
#These two values have been output from a single CSD field.
_refine_ls_R_factor_gt 0.0604
_refine_ls_wR_factor_gt 0.0604
_symmetry_cell_setting rhombohedral
_symmetry_space_group_name_H-M 'R -3 c'
_symmetry_Int_Tables_number 167
loop_
_symmetry_equiv_pos_site_id
_symmetry_equiv_pos_as_xyz
1 x,y,z
2 -y,x-y,z
3 -x+y,-x,z
4 x-y,-y,1/2-z
5 -x,-x+y,1/2-z
6 y,x,1/2-z
7 2/3+x,1/3+y,1/3+z
8 2/3-y,1/3+x-y,1/3+z
9 2/3-x+y,1/3-x,1/3+z
10 2/3+x-y,1/3-y,5/6-z
11 2/3-x,1/3-x+y,5/6-z
12 2/3+y,1/3+x,5/6-z
13 1/3+x,2/3+y,2/3+z
14 1/3-y,2/3+x-y,2/3+z
15 1/3-x+y,2/3-x,2/3+z
16 1/3+x-y,2/3-y,1/6-z
17 1/3-x,2/3-x+y,1/6-z
18 1/3+y,2/3+x,1/6-z
19 -x,-y,-z
20 y,-x+y,-z
21 x-y,x,-z
22 -x+y,y,-1/2+z
23 x,x-y,-1/2+z
24 -y,-x,-1/2+z
25 -2/3-x,-1/3-y,-1/3-z
26 -2/3+y,-1/3-x+y,-1/3-z
27 -2/3+x-y,-1/3+x,-1/3-z
28 -2/3-x+y,-1/3+y,-5/6+z
29 -2/3+x,-1/3+x-y,-5/6+z
30 -2/3-y,-1/3-x,-5/6+z
31 -1/3-x,-2/3-y,-2/3-z
32 -1/3+y,-2/3-x+y,-2/3-z
33 -1/3+x-y,-2/3+x,-2/3-z
34 -1/3-x+y,-2/3+y,-1/6+z
35 -1/3+x,-2/3+x-y,-1/6+z
36 -1/3-y,-2/3-x,-1/6+z
_cell_length_a 43.648(5)
_cell_length_b 43.648(5)
_cell_length_c 17.371(5)
_cell_angle_alpha 90
_cell_angle_beta 90
_cell_angle_gamma 120
_cell_formula_units_Z 18
loop_
_atom_type_symbol
_atom_type_radius_bond
C 0.68
H 0.23
O 0.68
Zn 1.22
loop_
_atom_site_label
_atom_site_type_symbol
_atom_site_fract_x
_atom_site_fract_y
_atom_site_fract_z
Zn1 Zn 0.844073(16) 0.018014(16) 1.15992(3)
Zn2 Zn 0.59076(2) -0.07590 1.41670
C1 C 0.53481(15) -0.21322(18) 1.4582(3)
H1 H 0.53960 -0.21490 1.40670
C2 C 0.51637(15) -0.24375(17) 1.5022(3)
C3 C 0.71854(18) -0.02169(17) 1.3003(4)
H2 H 0.72220 -0.03570 1.33490
C4 C 0.56588(18) -0.1475(2) 1.4429(4)
C5 C 0.51867(18) -0.20803(19) 1.6100(3)
C6 C 0.68604(19) -0.02268(18) 1.2993(4)
C7 C 0.50793(17) -0.24112(19) 1.5782(3)
H3 H 0.49510 -0.26140 1.60770
C8 C 0.53802(17) -0.17832(19) 1.5667(4)
H4 H 0.54590 -0.15620 1.58900
C9 C 0.54615(16) -0.18028(18) 1.4905(4)
C10 C 0.77920 -0.00003(19) 1.25000
C11 C 0.74510 -0.00003(19) 1.25000
C12 C 0.50599(16) -0.27884(16) 1.4680(3)
C13 C 0.6570(2) -0.0472(2) 1.3521(5)
C14 C 0.5083(2) -0.2056(2) 1.6918(4)
C15 C 0.68140 0.0000(2) 1.25000
H5 H 0.66010 0.00000 1.25000
O1 O 0.6644(2) -0.0593(2) 1.4079(5)
O2 O 0.62624(14) -0.05497(14) 1.3343(3)
O3 O 0.79763(16) 0.01090(13) 1.1912(3)
O4 O 0.57815(11) -0.11827(14) 1.4775(3)
O5 O 0.56890(15) -0.1501(2) 1.3732(4)
O6 O 0.52331(13) -0.17656(14) 1.7226(3)
O7 O 0.4857(2) -0.2311(3) 1.7255(4)
O8 O 0.49348(11) -0.30508(13) 1.5122(3)
O9 O 0.51027(11) -0.27996(13) 1.3973(2)
Zn1C Zn 0.826059(16) -0.018014(16) 1.34008(3)
Zn1N Zn 0.507274(16) -0.177406(16) 1.826587(30)
Zn1X Zn 0.489260(16) -0.351347(16) 1.506747(30)
Zn1AA Zn 0.507274(16) -0.315319(16) 1.326587(30)
Zn1P Zn 0.489260(16) -0.159392(16) 1.006747(30)
Zn1CA Zn 0.315319(16) -0.177406(16) 1.326587(30)
Zn1Y Zn 0.351347(16) -0.159392(16) 1.506747(30)
Zn2C Zn 0.66666(2) 0.07590 1.08330
C1K C 0.453447(150) -0.131857(180) 1.375133(300)
H1K H 0.45177 -0.12707 1.42663
C2K C 0.422917(150) -0.150297(170) 1.331133(300)
C3C C 0.74023(18) 0.02169(17) 1.1997(4)
H2C H 0.75790 0.03570 1.16510
C4K C 0.519167(180) -0.100787(200) 1.390433(400)
C5K C 0.458637(180) -0.147997(190) 1.223333(300)
C6C C 0.70872(19) 0.02268(18) 1.2007(4)
C7K C 0.425547(170) -0.158737(190) 1.255133(300)
H3K H 0.40527 -0.17157 1.22563
C8K C 0.488347(170) -0.128647(190) 1.266633(400)
H4K H 0.51047 -0.12077 1.24433
C9K C 0.486387(160) -0.120517(180) 1.342833(400)
C12K C 0.387827(160) -0.160677(160) 1.365333(300)
C13C C 0.7042(2) 0.0472(2) 1.1479(5)
C14K C 0.461067(200) -0.158367(200) 1.141533(400)
O1C O 0.7237(2) 0.0593(2) 1.0921(5)
O2C O 0.68121(14) 0.05497(14) 1.1657(3)
O2K O 0.611697(140) -0.040427(140) 1.499033(300)
O3C O 0.78673(16) -0.01090(13) 1.3088(3)
O4K O 0.548397(110) -0.088517(140) 1.355833(300)
O5K O 0.516567(150) -0.097767(200) 1.460133(400)
O6K O 0.490107(130) -0.143357(140) 1.110733(300)
O6G O 0.843227(130) 0.033203(140) 1.055933(300)
O6P O 0.810023(130) -0.033203(140) 1.444067(300)
O7K O 0.435567(200) -0.180967(300) 1.107833(400)
O8K O 0.361587(110) -0.173187(130) 1.321133(300)
O8X O 0.839853(110) -0.028253(130) 1.154467(300)
O8GA O 0.868107(110) 0.028253(130) 1.345533(300)
O9K O 0.386707(110) -0.156397(130) 1.436033(200)
O9GA O 0.876437(110) 0.053373(130) 1.230633(200)
O9X O 0.823063(110) -0.053373(130) 1.269367(200)
#END
