
#######################################################################
#
#                 Cambridge Crystallographic Data Centre
#                                CCDC
#
#######################################################################
#
# If this CIF has been generated from an entry in the Cambridge
# Structural Database, then it will include bibliographic, chemical,
# crystal, experimental, refinement or atomic coordinate data resulting
# from the CCDC's data processing and validation procedures.
#
#######################################################################

data_CSD_CIF_VEHKOK
_audit_creation_date 2012-11-16
_audit_creation_method CSD-ConQuest-V1
_database_code_CSD VEHKOK
_database_code_depnum_ccdc_archive 'CCDC 838775'
_chemical_formula_sum 'C85 H109 N7 O43 Zn9'
_chemical_formula_moiety
;
(C4 H12 N1 1+)2n,n(C47 H20 O38 Zn9 2-),5n(C6 H13 N1 O1)
;
_journal_coden_Cambridge 1350
_journal_volume 14
_journal_year 2012
_journal_page_first 5596
_journal_name_full 'CrystEngComm '
loop_
_publ_author_name
"Xiang-Rong Hao"
"Xin-Long Wang"
"Kui-Zhan Shao"
"Guang-Sheng Yang"
"Zhong-Min Su"
"Gang Yuan"
_chemical_name_systematic
;
catena-(bis(Diethylammonium) 
tetrakis(\m~5~-benzene-1,3,5-tricarboxylato)-(\m~4~-benzene-1,3,5-tricarboxyla
to)-tris(\m~3~-hydroxo)-(\m~2~-oxalato)-aqua-nona-zinc N,N-diethylethanamide 
solvate)
;
_cell_volume  10677.395
_exptl_crystal_colour 'colorless'
_exptl_crystal_description 'block'
_diffrn_ambient_temperature 293
_refine_special_details
;
O20 and O20' disordered over two sites with occupancies 0.70:0.30; the 
SQUEEZE/PLATON program has been used to model some disordered solvent.
;
#These two values have been output from a single CSD field.
_refine_ls_R_factor_gt 0.0541
_refine_ls_wR_factor_gt 0.0541
_symmetry_cell_setting orthorhombic
_symmetry_space_group_name_H-M 'P n m a'
_symmetry_Int_Tables_number 62
loop_
_symmetry_equiv_pos_site_id
_symmetry_equiv_pos_as_xyz
1 x,y,z
2 1/2-x,-y,1/2+z
3 1/2+x,1/2-y,1/2-z
4 -x,1/2+y,-z
5 -x,-y,-z
6 -1/2+x,y,-1/2-z
7 -1/2-x,-1/2+y,-1/2+z
8 x,-1/2-y,z
_cell_length_a 17.441(5)
_cell_length_b 35.188(5)
_cell_length_c 17.398(5)
_cell_angle_alpha 90
_cell_angle_beta 90
_cell_angle_gamma 90
_cell_formula_units_Z 4
loop_
_atom_type_symbol
_atom_type_radius_bond
C 0.68
H 0.23
N 0.68
O 0.68
Zn 1.22
loop_
_atom_site_label
_atom_site_type_symbol
_atom_site_fract_x
_atom_site_fract_y
_atom_site_fract_z
Zn1 Zn 0.95740(9) 0.25000 0.61969(9)
Zn2 Zn 0.79949(4) 0.203540(17) 0.58114(4)
Zn3 Zn 0.80261(3) 0.086729(17) 0.17906(3)
Zn4 Zn 0.81468(4) 0.128661(17) 0.01275(4)
Zn5 Zn 0.86511(4) 0.036084(18) 0.02641(4)
O1 O 0.9747(4) 0.2011(3) 0.5534(4)
O2 O 0.8664(2) 0.19242(13) 0.4948(2)
O3 O 1.2070(2) 0.13473(13) 0.4554(3)
O4 O 1.2023(2) 0.11003(13) 0.3378(2)
O5 O 0.9564(3) 0.0927(2) 0.2091(3)
O6 O 0.8506(2) 0.11388(12) 0.2626(2)
O7 O 0.8520(2) 0.18007(12) 0.0160(3)
O8 O 0.9581(3) 0.14881(14) 0.0069(4)
O9 O 1.1994(2) 0.28136(11) -0.0409(3)
O10 O 0.8075(3) 0.10869(11) 0.9088(2)
O11 O 0.8143(3) 0.04571(12) 0.9267(2)
O12 O 0.7130(3) -0.01034(12) 0.5943(2)
O13 O 0.7210(3) -0.03532(11) 0.7113(2)
O14 O 0.7459(4) 0.12762(13) 0.5559(3)
O15 O 0.7899(3) 0.16169(11) 0.6535(2)
O16 O 0.8378(3) 0.25000 0.6333(3)
O17 O 0.9805(3) 0.04725(13) 0.0222(3)
O18 O 1.0932(2) 0.01784(12) 0.0064(3)
O19 O 0.85700(19) 0.08879(9) 0.0798(2)
O20 O 1.037(2) 0.25000 0.683(2)
C1 C 0.9370(4) 0.1878(2) 0.5013(4)
C2 C 1.1727(3) 0.12579(16) 0.3940(3)
C3 C 0.9222(4) 0.10985(19) 0.2610(4)
C4 C 0.9749(3) 0.1639(2) 0.4405(4)
C5 C 1.0528(3) 0.15640(18) 0.4463(4)
H1 H 1.08050 0.16580 0.48780
C6 C 1.0900(3) 0.13482(17) 0.3900(3)
C7 C 1.0459(3) 0.12035(18) 0.3288(3)
H2 H 1.06950 0.10660 0.28990
C8 C 0.9676(3) 0.12647(19) 0.3262(4)
C9 C 0.9332(3) 0.14831(18) 0.3818(3)
H3 H 0.88070 0.15260 0.37950
C10 C 0.9241(4) 0.17883(18) 0.0102(4)
C11 C 1.1679(5) 0.25000 -0.0351(5)
C12 C 0.9268(5) 0.25000 0.0123(5)
H4 H 0.87440 0.25000 0.02220
C13 C 0.9669(3) 0.21563(16) 0.0047(4)
C14 C 1.0451(3) 0.21630(16) -0.0076(4)
H5 H 1.07200 0.19350 -0.00990
C15 C 1.0840(5) 0.25000 -0.0165(6)
C16 C 0.8023(3) 0.07580(17) 0.8870(3)
C17 C 0.7247(4) -0.00832(16) 0.6652(3)
C18 C 0.7667(4) 0.13066(17) 0.6236(4)
C19 C 0.7667(4) 0.09753(16) 0.6763(4)
C20 C 0.7465(4) 0.06140(17) 0.6485(4)
H6 H 0.73370 0.05840 0.59690
C21 C 0.7454(4) 0.03002(15) 0.6972(3)
C22 C 0.7642(4) 0.03443(15) 0.7726(3)
H7 H 0.76410 0.01330 0.80470
C23 C 0.7836(3) 0.06987(16) 0.8029(3)
C24 C 0.7836(4) 0.10098(15) 0.7539(3)
H8 H 0.79530 0.12490 0.77360
C25 C 1.0207(4) 0.01898(18) 0.0094(4)
C26 C 0.7260(7) 0.0732(3) 0.3837(6)
H9 H 0.74900 0.09510 0.35900
H10 H 0.70000 0.05840 0.34460
C27 C 0.7916(6) 0.0479(3) 0.4224(7)
H11 H 0.82760 0.06420 0.44810
H12 H 0.81770 0.03360 0.38340
H13 H 0.76900 0.03090 0.45890
C28 C 0.6105(6) 0.1104(3) 0.4074(6)
H14 H 0.57220 0.11700 0.44560
H15 H 0.58520 0.09680 0.36620
C29 C 0.6467(9) 0.1467(3) 0.3757(6)
H16 H 0.68380 0.15610 0.41170
H17 H 0.60760 0.16550 0.36770
H18 H 0.67160 0.14120 0.32770
N1 N 0.6693(4) 0.08617(19) 0.4422(4)
H19 H 0.64670 0.06580 0.46400
H20 H 0.69370 0.09920 0.47940
O21? O 0.960(2) 0.2889(13) 0.695(2)
Zn1C Zn 1.04260(9) -0.25000 -0.61969(9)
Zn2D Zn 1.20051(4) -0.203540(17) -0.58114(4)
Zn2B Zn 1.29949(4) 0.296460(17) -0.08114(4)
Zn2E Zn 1.29949(4) 0.203540(17) -0.08114(4)
Zn2G Zn 0.79949(4) 0.296460(17) 0.58114(4)
Zn3D Zn 1.19739(3) -0.086729(17) -0.17906(3)
Zn3A Zn 0.69739(3) -0.086729(17) -0.32094(3)
Zn3A* Zn 0.69739(3) -0.086729(17) 0.67906(3)
Zn3E Zn 1.30261(3) 0.086729(17) -0.67906(3)
Zn3E* Zn 1.30261(3) 0.086729(17) 0.32094(3)
Zn4D Zn 1.18532(4) -0.128661(17) -0.01275(4)
Zn4* Zn 0.81468(4) 0.128661(17) 1.01275(4)
Zn4A Zn 0.68532(4) -0.128661(17) -0.48725(4)
Zn4D* Zn 1.18532(4) -0.128661(17) -1.01275(4)
Zn4E Zn 1.31468(4) 0.128661(17) 0.48725(4)
Zn4G Zn 0.81468(4) 0.371339(17) 0.01275(4)
Zn5D Zn 1.13489(4) -0.036084(18) -0.02641(4)
Zn5* Zn 0.86511(4) 0.036084(18) 1.02641(4)
Zn5A Zn 0.63489(4) -0.036084(18) 0.52641(4)
Zn5D* Zn 1.13489(4) -0.036084(18) -1.02641(4)
Zn5E Zn 1.36511(4) 0.036084(18) -0.52641(4)
O1D O 1.0253(4) -0.2011(3) -0.5534(4)
O1G O 0.9747(4) 0.2989(3) 0.5534(4)
O2D O 1.1336(2) -0.19242(13) -0.4948(2)
O3D O 0.7930(2) -0.13473(13) -0.4554(3)
O3A O 1.2930(2) -0.13473(13) -0.0446(3)
O3E O 0.7070(2) 0.13473(13) 0.0446(3)
O4D O 0.7977(2) -0.11003(13) -0.3378(2)
O4A O 1.2977(2) -0.11003(13) -0.1622(2)
O4E O 0.7023(2) 0.11003(13) 0.1622(2)
O5D O 1.0436(3) -0.0927(2) -0.2091(3)
O6D O 1.1494(2) -0.11388(12) -0.2626(2)
O7G O 0.8520(2) 0.31993(12) 0.0160(3)
O7D O 1.1480(2) -0.18007(12) -0.0160(3)
O8G O 0.9581(3) 0.35119(14) 0.0069(4)
O9G O 1.1994(2) 0.21864(11) -0.0409(3)
O9B O 0.6994(2) 0.21864(11) 0.5409(3)
O9F O 1.3006(2) -0.21864(11) -0.5409(3)
O10D O 1.1925(3) -0.10869(11) -0.9088(2)
O10* O 0.8075(3) 0.10869(11) -0.0912(2)
O10D* O 1.1925(3) -0.10869(11) 0.0912(2)
O11D O 1.1857(3) -0.04571(12) -0.9267(2)
O11* O 0.8143(3) 0.04571(12) -0.0733(2)
O11D* O 1.1857(3) -0.04571(12) 0.0733(2)
O12D O 1.2870(3) 0.01034(12) -0.5943(2)
O12A O 0.7870(3) 0.01034(12) 0.0943(2)
O12E O 1.2130(3) -0.01034(12) -0.0943(2)
O13D O 1.2790(3) 0.03532(11) -0.7113(2)
O13A O 0.7790(3) 0.03532(11) 0.2113(2)
O13E O 1.2210(3) -0.03532(11) -0.2113(2)
O14D O 1.2541(4) -0.12762(13) -0.5559(3)
O15D O 1.2101(3) -0.16169(11) -0.6535(2)
O16C O 1.1622(3) -0.25000 -0.6333(3)
O17D O 1.0195(3) -0.04725(13) -0.0222(3)
O18D O 0.9068(2) -0.01784(12) -0.0064(3)
O19D O 1.14300(19) -0.08879(9) -0.0798(2)
C1D C 1.0630(4) -0.1878(2) -0.5013(4)
C2D C 0.8273(3) -0.12579(16) -0.3940(3)
C3D C 1.0778(4) -0.10985(19) -0.2610(4)
C4D C 1.0251(3) -0.1639(2) -0.4405(4)
C5D C 0.9472(3) -0.15640(18) -0.4463(4)
H1D H 0.91950 -0.16580 -0.48780
C6D C 0.9100(3) -0.13482(17) -0.3900(3)
C7D C 0.9541(3) -0.12035(18) -0.3288(3)
H2D H 0.93050 -0.10660 -0.28990
C8D C 1.0324(3) -0.12647(19) -0.3262(4)
C9D C 1.0668(3) -0.14831(18) -0.3818(3)
H3D H 1.11930 -0.15260 -0.37950
C10G C 0.9241(4) 0.32117(18) 0.0102(4)
C13G C 0.9669(3) 0.28437(16) 0.0047(4)
C14G C 1.0451(3) 0.28370(16) -0.0076(4)
H5G H 1.07200 0.30650 -0.00990
C16D C 1.1977(3) -0.07580(17) -0.8870(3)
C17D C 1.2753(4) 0.00832(16) -0.6652(3)
C18D C 1.2333(4) -0.13066(17) -0.6236(4)
C19D C 1.2333(4) -0.09753(16) -0.6763(4)
C20D C 1.2535(4) -0.06140(17) -0.6485(4)
H6D H 1.26630 -0.05840 -0.59690
C21D C 1.2546(4) -0.03002(15) -0.6972(3)
C22D C 1.2358(4) -0.03443(15) -0.7726(3)
H7D H 1.23590 -0.01330 -0.80470
C23D C 1.2164(3) -0.06987(16) -0.8029(3)
C24D C 1.2164(4) -0.10098(15) -0.7539(3)
H8D H 1.20470 -0.12490 -0.77360
C25D C 0.9793(4) -0.01898(18) -0.0094(4)
#END
