
#######################################################################
#
#                 Cambridge Crystallographic Data Centre
#                                CCDC
#
#######################################################################
#
# If this CIF has been generated from an entry in the Cambridge
# Structural Database, then it will include bibliographic, chemical,
# crystal, experimental, refinement or atomic coordinate data resulting
# from the CCDC's data processing and validation procedures.
#
#######################################################################

data_CSD_CIF_VEHWEM
_audit_creation_date 2013-02-01
_audit_creation_method CSD-ConQuest-V1
_database_code_CSD VEHWEM
_database_code_depnum_ccdc_archive 'CCDC 866657'
_chemical_formula_sum 'C28 H150 Ce2 Mn4 N10 Na1 O109 Si2 W18'
_chemical_formula_moiety
;
(C2 H8 N1 1+)10n,n(C8 H14 Ce2 Mn4 Na1 O81 Si2 W18 10-),28n(H2 O1)
;
_journal_coden_Cambridge 222
_journal_volume 41
_journal_year 2012
_journal_page_first 9867
_journal_name_full 'Dalton Trans. '
loop_
_publ_author_name
"Xikui Fang"
"K.McCallum"
"H.D.Pratt III"
"T.M.Anderson"
"K.Dennis"
"M.Luban"
_chemical_name_systematic
;
catena-(decakis(Dimethylammonium) 
(\m~12~-silicato)-(\m~11~-silicato)-tris(\m~3~-acetato)-heptakis(\m~3~-oxo)-he
nitetracontakis(\m~2~-oxo)-acetato-aqua-hexadecaoxo-di-cerium-sodium-tetra-man
ganese-octadeca-tungsten octacosahydrate)
;
_cell_volume  23012.588
_exptl_crystal_colour 'brown'
_exptl_crystal_density_diffrn 3.614
_exptl_crystal_description 'needle'
_diffrn_ambient_temperature 173
_refine_special_details
;
W1,W2,W3 and W1B,W2B,W3B disordered over two sites with occupancies 
0.95:0.05; O7W and O17W disordered over two sites with occupancies 0.50:0.25; 
O8W and O17W disordered over two sites with occupancies 0.50:0.25; O9W and 
O17W disordered over two sites with occupancies 0.50:0.25; O10W and O17W 
disordered over two sites with occupancies 0.50:0.25.
;
#These two values have been output from a single CSD field.
_refine_ls_R_factor_gt 0.054
_refine_ls_wR_factor_gt 0.054
_symmetry_cell_setting orthorhombic
_symmetry_space_group_name_H-M 'P b c a'
_symmetry_Int_Tables_number 61
loop_
_symmetry_equiv_pos_site_id
_symmetry_equiv_pos_as_xyz
1 x,y,z
2 1/2-x,-y,1/2+z
3 -x,1/2+y,1/2-z
4 1/2+x,1/2-y,-z
5 -x,-y,-z
6 -1/2+x,y,-1/2-z
7 x,-1/2-y,-1/2+z
8 -1/2-x,-1/2+y,z
_cell_length_a 23.3058(8)
_cell_length_b 22.0317(7)
_cell_length_c 44.8181(14)
_cell_angle_alpha 90
_cell_angle_beta 90
_cell_angle_gamma 90
_cell_formula_units_Z 8
loop_
_atom_type_symbol
_atom_type_radius_bond
C 0.68
H 0.23
Ce 1.59
Mn 1.16
N 0.68
Na 1.66
O 0.78
Si 1.20
W 1.32
loop_
_atom_site_label
_atom_site_type_symbol
_atom_site_fract_x
_atom_site_fract_y
_atom_site_fract_z
Mn1 Mn 0.15305(10) 0.38704(10) 0.11749(5)
Mn2 Mn 0.24472(11) 0.34846(10) 0.17700(5)
Mn3 Mn 0.10968(11) 0.27940(11) 0.17036(6)
Mn4 Mn 0.2027(1) 0.2754(1) 0.13129(5)
Ce1 Ce 0.53844(3) 0.47587(3) -0.033080(18)
Ce2 Ce 0.44574(4) 0.36252(3) 0.006590(19)
W1 W 0.14848(4) 0.53406(4) 0.24553(2)
W2 W 0.01942(4) 0.46682(4) 0.24147(2)
W3 W 0.05876(4) 0.56958(4) 0.18922(2)
W4 W 0.22241(4) 0.38762(3) 0.245362(16)
W5 W 0.07859(4) 0.31269(3) 0.238675(17)
W6 W -0.00839(3) 0.35122(4) 0.18350(2)
W7 W 0.03743(3) 0.46479(4) 0.12607(2)
W8 W 0.16571(3) 0.52948(3) 0.132037(17)
W9 W 0.26405(3) 0.48811(3) 0.194782(16)
W10 W 0.25061(3) 0.56350(3) -0.044440(15)
W11 W 0.32164(3) 0.51935(3) -0.105200(14)
W12 W 0.32456(3) 0.66746(3) -0.084640(15)
W13 W 0.41090(3) 0.71486(3) -0.020890(14)
W14 W 0.48147(3) 0.67142(3) -0.080560(13)
W15 W 0.48115(3) 0.50971(3) -0.105260(13)
W16 W 0.40843(3) 0.40640(3) -0.065480(14)
W17 W 0.32834(3) 0.60332(3) 0.024850(14)
W18 W 0.32624(2) 0.45735(3) 0.004390(14)
Si1 Si 0.1235(2) 0.42771(19) 0.18886(11)
Si2 Si 0.40284(16) 0.56126(16) -0.04172(9)
Na1 Na 0.2328(3) 0.6751(3) 0.09034(13)
O1 O 0.1752(8) 0.5808(6) 0.2730(3)
O2 O 0.0262(7) 0.6377(7) 0.1812(4)
O3 O -0.0373(8) 0.4711(7) 0.2656(4)
O4 O 0.1081(7) 0.5927(6) 0.2220(4)
O5 O 0.0040(6) 0.5387(7) 0.2187(4)
O6 O 0.0760(6) 0.5103(8) 0.2632(3)
O7 O 0.0961(6) 0.4814(5) 0.2092(3)
O8 O 0.1749(7) 0.4559(6) 0.2569(3)
O9 O 0.2072(6) 0.5362(5) 0.2169(3)
O10 O 0.1252(5) 0.5706(5) 0.1644(3)
O11 O 0.0230(5) 0.5187(6) 0.1609(3)
O12 O -0.0145(6) 0.4243(6) 0.2078(3)
O13 O 0.0555(6) 0.3936(5) 0.2527(3)
O14 O -0.0788(7) 0.3319(7) 0.1781(3)
O15 O 0.0051(7) 0.3110(5) 0.2212(3)
O16 O 0.0661(7) 0.2691(6) 0.2702(3)
O17 O 0.1544(6) 0.3390(5) 0.2470(3)
O18 O 0.2542(6) 0.3675(6) 0.2787(3)
O19 O 0.2758(5) 0.4487(5) 0.2330(2)
O20 O 0.3224(5) 0.5352(5) 0.1943(3)
O21 O 0.2261(5) 0.5143(5) 0.1592(3)
O22 O 0.1936(6) 0.5895(5) 0.1128(3)
O23 O 0.0883(5) 0.5279(5) 0.1148(3)
O24 O -0.0189(7) 0.4832(7) 0.1029(4)
O25 O 0.0026(5) 0.4019(6) 0.1504(3)
O26 O 0.0877(5) 0.3658(5) 0.1942(3)
O27 O 0.1901(5) 0.4173(5) 0.1983(2)
O28 O 0.1206(5) 0.4472(5) 0.1540(3)
O29 O 0.2559(5) 0.3339(5) 0.2190(2)
O30 O 0.2920(5) 0.4194(5) 0.1765(2)
O31 O 0.1835(5) 0.4650(4) 0.1072(3)
O32 O 0.0777(5) 0.4094(5) 0.1035(3)
O33 O 0.0288(5) 0.2863(5) 0.1652(3)
O34 O 0.1026(5) 0.2555(5) 0.2120(3)
O35 O 0.1288(5) 0.3053(5) 0.1297(2)
O36 O 0.1939(5) 0.2788(4) 0.1722(2)
O37 O 0.2252(4) 0.3552(5) 0.1348(2)
O38 O 0.3198(5) 0.2931(5) 0.1692(3)
O39 O 0.2201(5) 0.7408(4) 0.1326(2)
O40 O 0.1749(5) 0.3570(5) 0.0734(2)
O41 O 0.2855(5) 0.7705(5) 0.0886(2)
O42 O 0.1046(5) 0.1851(5) 0.1558(3)
O43 O 0.3180(5) 0.6898(5) 0.1263(2)
O44 O 0.1786(4) 0.5567(5) -0.0368(3)
O45 O 0.2952(5) 0.4846(6) -0.1365(3)
O46 O 0.2939(5) 0.7256(5) -0.1052(3)
O47 O 0.2522(5) 0.6361(5) -0.0665(3)
O48 O 0.3097(5) 0.6008(5) -0.1150(2)
O49 O 0.2537(5) 0.5172(5) -0.0816(2)
O50 O 0.3444(4) 0.5719(5) -0.0623(2)
O51 O 0.3994(4) 0.5264(5) -0.1143(2)
O52 O 0.3449(5) 0.4508(5) -0.0811(2)
O53 O 0.2769(4) 0.6001(5) -0.0101(2)
O54 O 0.3998(4) 0.6683(4) -0.0974(2)
O55 O 0.3430(5) 0.7036(5) -0.0495(2)
O56 O 0.3952(5) 0.7878(5) -0.0100(2)
O57 O 0.4510(4) 0.7367(4) -0.0569(2)
O58 O 0.5111(5) 0.7155(5) -0.1084(2)
O59 O 0.4875(4) 0.5940(4) -0.0996(2)
O60 O 0.5074(4) 0.5021(5) -0.1407(2)
O61 O 0.4533(4) 0.4280(4) -0.0993(2)
O62 O 0.3878(5) 0.3350(5) -0.0765(2)
O63 O 0.3721(4) 0.4104(4) -0.0249(2)
O64 O 0.4418(4) 0.5066(4) -0.0561(2)
O65 O 0.3846(4) 0.5420(4) -0.0075(2)
O66 O 0.4343(4) 0.6268(4) -0.0428(2)
O67 O 0.3650(5) 0.6707(4) 0.0059(2)
O68 O 0.4769(5) 0.7003(5) -0.0013(2)
O69 O 0.5413(4) 0.6595(5) -0.0556(2)
O70 O 0.5439(4) 0.4955(4) -0.0827(2)
O71 O 0.4767(5) 0.3904(4) -0.0432(2)
O72 O 0.4947(4) 0.4447(4) 0.0078(2)
O73 O 0.3917(4) 0.4439(5) 0.0296(2)
O74 O 0.2815(4) 0.4016(5) 0.0169(2)
O75 O 0.3007(4) 0.5206(5) 0.0290(2)
O76 O 0.3915(4) 0.5867(4) 0.0479(2)
O77 O 0.2814(4) 0.4878(5) -0.0272(2)
O78 O 0.2832(4) 0.6388(5) 0.0500(2)
O79 O 0.4115(5) 0.2746(5) -0.0233(3)
O80 O 0.3666(5) 0.2912(5) 0.0188(2)
C1 C 0.3220(7) 0.2541(6) 0.1487(4)
C2 C 0.3770(7) 0.2184(8) 0.1446(4)
H1 H 0.36850 0.17480 0.14520
H2 H 0.40390 0.22860 0.16060
H3 H 0.39410 0.22870 0.12530
C3 C 0.1997(6) 0.3075(7) 0.0681(3)
C4 C 0.2135(7) 0.2890(7) 0.0368(3)
H4 H 0.19500 0.31700 0.02280
H5 H 0.19950 0.24770 0.03330
H6 H 0.25520 0.29010 0.03380
C5 C 0.1397(7) 0.1622(7) 0.1380(3)
C6 C 0.1318(8) 0.0969(7) 0.1287(4)
H7 H 0.16630 0.07370 0.13380
H8 H 0.12550 0.09490 0.10710
H9 H 0.09870 0.07970 0.13910
C7 C 0.3738(7) 0.2592(7) -0.0046(4)
C8 C 0.3390(9) 0.2045(9) -0.0104(5)
H10 H 0.34700 0.17390 0.00490
H11 H 0.29820 0.21520 -0.00990
H12 H 0.34870 0.18820 -0.03010
N1 N 0.7651(10) 0.6134(10) 0.0638(5)
H13 H 0.80090 0.60150 0.05750
H14 H 0.73960 0.58270 0.05940
C9 C 0.7660(15) 0.6252(15) 0.1001(8)
H15 H 0.80090 0.64760 0.10550
H16 H 0.76560 0.58610 0.11060
H17 H 0.73220 0.64890 0.10590
C10 C 0.7470(11) 0.6722(11) 0.0470(6)
H18 H 0.71360 0.69020 0.05690
H19 H 0.73730 0.66230 0.02630
H20 H 0.77890 0.70130 0.04730
N2 N 0.3643(6) 0.4100(6) 0.0914(3)
H21 H 0.38580 0.41890 0.07480
H22 H 0.38770 0.41290 0.10790
C11 C 0.3156(8) 0.4550(8) 0.0942(5)
H23 H 0.28550 0.44480 0.07980
H24 H 0.33000 0.49600 0.09000
H25 H 0.29990 0.45350 0.11440
C12 C 0.3423(7) 0.3483(8) 0.0890(4)
H26 H 0.31570 0.34040 0.10560
H27 H 0.37430 0.31950 0.09000
H28 H 0.32200 0.34360 0.07000
N3 N 0.1263(13) 0.4837(13) 0.0466(7)
H29 H 0.08880 0.49670 0.04700
H30 H 0.13420 0.46420 0.06430
C13 C 0.136(2) 0.443(2) 0.0213(11)
H31 H 0.13030 0.46580 0.00260
H32 H 0.10900 0.40930 0.02220
H33 H 0.17540 0.42780 0.02200
C14 C 0.1623(16) 0.5311(16) 0.0425(9)
H34 H 0.19900 0.51620 0.03480
H35 H 0.16860 0.55170 0.06160
H36 H 0.14540 0.55960 0.02820
N4 N 0.8791(13) 0.2911(13) 0.2738(7)
H37 H 0.85540 0.28930 0.29020
H38 H 0.85640 0.28390 0.25740
C15 C 0.8990(13) 0.3541(13) 0.2715(7)
H39 H 0.91640 0.36650 0.29040
H40 H 0.86630 0.38060 0.26700
H41 H 0.92750 0.35730 0.25550
C16 C 0.9145(13) 0.2445(14) 0.2760(8)
H42 H 0.93560 0.23980 0.25720
H43 H 0.89260 0.20750 0.28000
H44 H 0.94180 0.25170 0.29230
N5 N 0.9870(9) 0.7593(9) 0.9344(5)
H45 H 1.00290 0.78290 0.94920
H46 H 1.01070 0.76100 0.91800
C17 C 0.9832(15) 0.6956(16) 0.9450(8)
H47 H 0.94640 0.67810 0.93890
H48 H 0.98610 0.69470 0.96680
H49 H 1.01460 0.67190 0.93640
C18 C 0.9333(13) 0.7827(13) 0.9268(7)
H50 H 0.90900 0.78450 0.94470
H51 H 0.91520 0.75630 0.91190
H52 H 0.93790 0.82350 0.91860
O81 O 0.1476(5) 0.7031(6) 0.0669(3)
O82 O 0.9662(12) 0.2444(13) 0.1210(7)
O83 O 0.4008(6) 0.4164(6) 0.1518(3)
O84 O 0.9039(7) 0.8740(8) 0.1604(4)
O85 O 0.0483(11) 0.6281(12) 0.0808(6)
O86? O 0.9689(14) 0.1602(15) 0.2186(8)
O87 O 0.8132(17) 0.1242(18) 0.1684(9)
O88 O 0.9316(15) 0.1422(15) 0.1481(8)
O89 O 0.9359(15) 0.6617(15) 0.0939(8)
O90 O 0.2123(15) 0.2026(16) 0.2293(9)
O91? O 1.007(2) 0.160(2) 0.1984(11)
O92? O 0.216(3) 0.203(3) 0.2577(15)
W19? W 0.1274(8) 0.5798(7) 0.2044(4)
W20? W -0.0037(8) 0.5150(8) 0.1978(5)
W21? W 0.0816(9) 0.4773(8) 0.2554(5)
Mn4G Mn 0.2973(1) 0.7754(1) 0.13129(5)
Ce1D Ce 0.46156(3) 0.52413(3) 0.033080(18)
Ce2D Ce 0.55426(4) 0.63748(3) -0.006590(19)
O39G O 0.2799(5) 0.2408(4) 0.1326(2)
O41G O 0.2145(5) 0.2705(5) 0.0886(2)
O43G O 0.1820(5) 0.1898(5) 0.1263(2)
O65D O 0.6154(4) 0.4580(4) 0.0075(2)
O68D O 0.5231(5) 0.2997(5) 0.0013(2)
O69D O 0.4587(4) 0.3405(5) 0.0556(2)
O72D O 0.5053(4) 0.5553(4) -0.0078(2)
O73D O 0.6083(4) 0.5561(5) -0.0296(2)
O76D O 0.6085(4) 0.4133(4) -0.0479(2)
C1G C 0.1780(7) 0.7541(6) 0.1487(4)
C3G C 0.3003(6) 0.8075(7) 0.0681(3)
C5G C 0.3603(7) 0.6622(7) 0.1380(3)
#END
