
#######################################################################
#
#                 Cambridge Crystallographic Data Centre
#                                CCDC
#
#######################################################################
#
# If this CIF has been generated from an entry in the Cambridge
# Structural Database, then it will include bibliographic, chemical,
# crystal, experimental, refinement or atomic coordinate data resulting
# from the CCDC's data processing and validation procedures.
#
#######################################################################

data_CSD_CIF_VEHXIR
_audit_creation_date 2013-02-01
_audit_creation_method CSD-ConQuest-V1
_database_code_CSD VEHXIR
_database_code_depnum_ccdc_archive 'CCDC 869828'
_chemical_formula_sum 'C62 H59 Cl14 Fe1 N9 O25 Pr4 Sb12'
_chemical_formula_moiety
;
(C6 H8 N1 1+)3n,n(C30 H24 Fe1 N6),n(C14 H9 Cl14 O24 Pr4 Sb12 3-),n(H2 O1)
;
_journal_coden_Cambridge 222
_journal_volume 41
_journal_year 2012
_journal_page_first 9879
_journal_name_full 'Dalton Trans. '
loop_
_publ_author_name
"Bing Hu"
"Guo-Dong Zou"
"Mei-Ling Feng"
"Xiao-Ying Huang"
_chemical_name_systematic
;
catena-(tris(2-Methylpyridinium) tris(2,2'-bipyridine)-iron 
(\m~4~-chloro)-pentakis(\m~4~-oxo)-(\m~3~-4,4'-oxydibenzoato-O,O',O'')-trideca
kis(\m~3~-oxo)-tetrakis(\m~3~-chloro)-hydroxy-nonachloro-dodeca-antimony-tetra
-praseodymium monohydrate)
;
_cell_volume  19922.611
_exptl_crystal_colour 'dark red'
_exptl_crystal_density_diffrn 2.605
_exptl_crystal_description 'block'
_diffrn_ambient_temperature 295
_refine_special_details
;
C51,C52,C53,C54,C55,C56,N8 and C51B,C52B,C53B,C54B, C55B,C56B,N8B disordered 
over two sites with occupancies 0.50:0.50; O25 and O25B disordered over two 
sites with occupancies 0.50:0.50; C57,C58, C59,C60,C61,C62,N9 and 
C57B,C58B,C59B,C60B,C61B,C62B,N9B disordered over two sites with occupancies 
0.50:0.50.
;
#These two values have been output from a single CSD field.
_refine_ls_R_factor_gt 0.0474
_refine_ls_wR_factor_gt 0.0474
_symmetry_cell_setting orthorhombic
_symmetry_space_group_name_H-M 'P b c a'
_symmetry_Int_Tables_number 61
loop_
_symmetry_equiv_pos_site_id
_symmetry_equiv_pos_as_xyz
1 x,y,z
2 1/2-x,-y,1/2+z
3 1/2+x,1/2-y,-z
4 -x,1/2+y,1/2-z
5 -x,-y,-z
6 -1/2+x,y,-1/2-z
7 -1/2-x,-1/2+y,z
8 x,-1/2-y,-1/2+z
_cell_length_a 29.0009(4)
_cell_length_b 23.0305(3)
_cell_length_c 29.8285(4)
_cell_angle_alpha 90
_cell_angle_beta 90
_cell_angle_gamma 90
_cell_formula_units_Z 8
loop_
_atom_type_symbol
_atom_type_radius_bond
C 0.68
H 0.23
Cl 1.34
Fe 1.52
N 0.68
O 0.74
Pr 1.83
Sb 1.39
loop_
_atom_site_label
_atom_site_type_symbol
_atom_site_fract_x
_atom_site_fract_y
_atom_site_fract_z
Pr1 Pr 0.228637(16) 0.15824(2) 0.333482(17)
Pr2 Pr 0.268364(18) 0.18853(2) 0.488404(17)
Pr3 Pr 0.305947(17) 0.33169(2) 0.374728(17)
Pr4 Pr 0.144705(18) 0.30062(2) 0.419132(17)
Sb1 Sb 0.13808(2) 0.26324(3) 0.29875(2)
Sb2 Sb 0.11125(2) 0.15264(3) 0.38311(2)
Sb3 Sb 0.20292(2) 0.07142(2) 0.43535(2)
Sb4 Sb 0.32289(2) 0.09514(2) 0.40357(2)
Sb5 Sb 0.34879(2) 0.20213(3) 0.31785(2)
Sb6 Sb 0.25717(2) 0.28627(3) 0.26559(2)
Sb7 Sb 0.19663(2) 0.39540(2) 0.32945(2)
Sb8 Sb 0.13990(2) 0.18003(3) 0.49915(2)
Sb9 Sb 0.38142(2) 0.22790(3) 0.43410(2)
Sb10 Sb 0.31952(2) 0.33567(3) 0.49879(2)
Sb11 Sb 0.22934(2) 0.42176(2) 0.44766(2)
Sb12 Sb 0.20022(2) 0.31343(3) 0.52960(2)
Cl1 Cl 0.23597(7) 0.24786(9) 0.40445(7)
Cl2 Cl 0.27704(9) 0.14911(13) 0.24682(9)
Cl3 Cl 0.25004(9) 0.02802(10) 0.33874(10)
Cl4 Cl 0.28439(10) 0.06727(10) 0.50806(10)
Cl5 Cl 0.21662(11) 0.18760(13) 0.57488(9)
Cl6 Cl 0.39278(9) 0.36544(12) 0.41828(9)
Cl7 Cl 0.36097(10) 0.33376(12) 0.29002(10)
Cl8 Cl 0.12838(10) 0.42616(11) 0.40779(9)
Cl9 Cl 0.08632(13) 0.31024(16) 0.49629(12)
Cl10 Cl 0.05967(9) 0.27855(13) 0.37289(11)
Cl11 Cl 0.41622(10) 0.12807(14) 0.37290(11)
Cl12 Cl 0.25714(11) 0.41899(11) 0.54567(9)
Cl13 Cl 0.17234(12) 0.35889(14) 0.23678(10)
Cl14 Cl 0.09827(10) 0.07017(12) 0.45585(9)
O1 O 0.2028(2) 0.2409(3) 0.2857(2)
O2 O 0.1493(2) 0.2119(2) 0.3516(2)
O3 O 0.1712(2) 0.1119(3) 0.3855(2)
O4 O 0.2570(2) 0.1188(3) 0.4166(2)
O5 O 0.3115(2) 0.1420(3) 0.3488(2)
O6 O 0.2885(2) 0.2445(3) 0.3163(2)
O7 O 0.2518(2) 0.3502(3) 0.3104(2)
O8 O 0.1599(2) 0.3256(3) 0.3424(2)
O9 O 0.1210(2) 0.1999(2) 0.4367(2)
O10 O 0.1937(2) 0.1340(3) 0.4793(2)
O11 O 0.3380(2) 0.1614(2) 0.4434(2)
O12 O 0.3571(2) 0.2472(3) 0.3731(2)
O13 O 0.3265(2) 0.2728(3) 0.4540(2)
O14 O 0.2285(2) 0.3840(3) 0.3881(2)
O15 O 0.1810(2) 0.2483(3) 0.4896(2)
O16 O 0.2883(2) 0.3782(3) 0.4499(2)
O17 O 0.1926(2) 0.3571(3) 0.4724(2)
O18 O 0.2640(2) 0.2898(3) 0.5161(2)
O19 O 0.3242(3) 0.4371(3) 0.3589(3)
H1 H 0.30190 0.46040 0.35480
O20 O 0.1706(3) -0.1987(3) 0.0395(2)
O21 O 0.1027(3) -0.2361(5) 0.0228(3)
O22 O 0.0479(3) -0.0712(4) 0.1838(3)
O23 O 0.1749(3) 0.1087(3) 0.2860(3)
O24 O 0.1186(3) 0.1663(4) 0.2640(4)
C1 C 0.1284(4) -0.2042(5) 0.0464(3)
C2 C 0.1081(3) -0.1697(4) 0.0839(3)
C3 C 0.0648(4) -0.1823(5) 0.1021(4)
H2 H 0.04820 -0.21360 0.09070
C4 C 0.0465(4) -0.1508(4) 0.1352(4)
H3 H 0.01810 -0.16090 0.14720
C5 C 0.0701(3) -0.1033(4) 0.1515(4)
C6 C 0.1128(4) -0.0883(5) 0.1329(4)
H4 H 0.12830 -0.05530 0.14270
C7 C 0.1315(4) -0.1220(5) 0.1006(4)
H5 H 0.16060 -0.11300 0.08940
C8 C 0.0721(4) -0.0238(5) 0.2030(4)
C9 C 0.1074(4) -0.0343(5) 0.2323(4)
H6 H 0.11690 -0.07210 0.23840
C10 C 0.1286(4) 0.0120(4) 0.2526(4)
H7 H 0.15290 0.00580 0.27230
C11 C 0.1137(3) 0.0687(4) 0.2438(3)
C12 C 0.0781(4) 0.0770(5) 0.2148(4)
H8 H 0.06780 0.11440 0.20880
C13 C 0.0571(4) 0.0305(5) 0.1945(4)
H9 H 0.03270 0.03640 0.17480
C14 C 0.1367(3) 0.1187(4) 0.2666(3)
Fe1 Fe 0.43059(4) 0.40702(6) 0.65873(4)
N1 N 0.4513(3) 0.3765(4) 0.6001(3)
N2 N 0.3987(3) 0.4646(4) 0.6210(3)
N3 N 0.4833(3) 0.4611(3) 0.6635(2)
N4 N 0.4138(3) 0.4456(4) 0.7150(3)
N5 N 0.4576(3) 0.3436(3) 0.6941(3)
N6 N 0.3782(3) 0.3516(4) 0.6566(3)
C15 C 0.4799(4) 0.3335(4) 0.5931(4)
H10 H 0.49060 0.31210 0.61740
C16 C 0.4948(4) 0.3190(6) 0.5502(4)
H11 H 0.51680 0.29010 0.54630
C17 C 0.4772(5) 0.3468(6) 0.5140(4)
H12 H 0.48560 0.33560 0.48520
C18 C 0.4466(5) 0.3921(6) 0.5203(3)
H13 H 0.43510 0.41270 0.49590
C19 C 0.4333(4) 0.4063(5) 0.5638(3)
C20 C 0.4021(3) 0.4539(5) 0.5758(4)
C21 C 0.3770(5) 0.4855(6) 0.5450(5)
H14 H 0.37880 0.47720 0.51460
C22 C 0.3485(5) 0.5310(7) 0.5610(5)
H15 H 0.33110 0.55270 0.54090
C23 C 0.3464(4) 0.5432(6) 0.6059(5)
H16 H 0.32820 0.57340 0.61660
C24 C 0.3727(4) 0.5086(5) 0.6354(4)
H17 H 0.37180 0.51670 0.66590
C25 C 0.5162(4) 0.4707(5) 0.6329(3)
H18 H 0.51730 0.44600 0.60820
C26 C 0.5484(4) 0.5139(5) 0.6351(4)
H19 H 0.57140 0.51770 0.61360
C27 C 0.5451(4) 0.5516(5) 0.6710(4)
H20 H 0.56530 0.58280 0.67350
C28 C 0.5119(4) 0.5430(5) 0.7030(4)
H21 H 0.51020 0.56750 0.72770
C29 C 0.4813(3) 0.4985(4) 0.6984(3)
C30 C 0.4431(3) 0.4860(5) 0.7300(3)
C31 C 0.4371(4) 0.5148(5) 0.7710(3)
H22 H 0.45780 0.54310 0.78040
C32 C 0.3994(4) 0.5000(5) 0.7971(4)
H23 H 0.39530 0.51640 0.82530
C33 C 0.3684(4) 0.4608(5) 0.7807(4)
H24 H 0.34170 0.45250 0.79680
C34 C 0.3763(3) 0.4338(5) 0.7405(4)
H25 H 0.35520 0.40640 0.73040
C35 C 0.4983(3) 0.3425(5) 0.7145(3)
H26 H 0.51800 0.37410 0.71120
C36 C 0.5124(4) 0.2964(5) 0.7403(4)
H27 H 0.54170 0.29690 0.75300
C37 C 0.4851(4) 0.2512(5) 0.7475(4)
H28 H 0.49420 0.22110 0.76630
C38 C 0.4425(4) 0.2501(5) 0.7262(4)
H29 H 0.42280 0.21860 0.72990
C39 C 0.4299(3) 0.2961(4) 0.6995(3)
C40 C 0.3855(3) 0.3000(4) 0.6767(3)
C41 C 0.3550(4) 0.2545(4) 0.6729(4)
H30 H 0.36120 0.21950 0.68740
C42 C 0.3152(4) 0.2606(6) 0.6476(4)
H31 H 0.29460 0.23010 0.64390
C43 C 0.3079(4) 0.3134(6) 0.6285(4)
H32 H 0.28140 0.31920 0.61160
C44 C 0.3378(4) 0.3573(5) 0.6335(4)
H33 H 0.33080 0.39300 0.62060
N7 N 0.2158(5) 0.0008(6) 0.1298(5)
H34 H 0.20460 0.00940 0.10390
C45 C 0.2333(6) -0.0508(9) 0.1360(6)
H35 H 0.23550 -0.07650 0.11200
C46 C 0.2481(6) -0.0669(9) 0.1769(6)
H36 H 0.25840 -0.10440 0.18270
C47 C 0.2470(6) -0.0244(9) 0.2098(6)
H37 H 0.25870 -0.03340 0.23800
C48 C 0.2300(6) 0.0290(9) 0.2028(6)
H38 H 0.22930 0.05570 0.22620
C49 C 0.2149(6) 0.0431(9) 0.1643(6)
C50 C 0.1953(6) 0.0995(8) 0.1560(6)
H39 H 0.18930 0.11860 0.18400
H40 H 0.16700 0.09530 0.13960
H41 H 0.21660 0.12230 0.13870
N8 N 0.4756(7) 0.0658(9) 0.5398(7)
H42 H 0.47120 0.09880 0.52690
C51 C 0.5128(7) 0.0583(12) 0.5685(8)
H43 H 0.53300 0.08890 0.57380
C52 C 0.5198(7) 0.0051(13) 0.5894(7)
H44 H 0.54470 0.00010 0.60860
C53 C 0.4896(9) -0.0406(11) 0.5815(8)
H45 H 0.49430 -0.07630 0.59540
C54 C 0.4524(8) -0.0331(9) 0.5527(8)
H46 H 0.43220 -0.06370 0.54740
C55 C 0.4454(5) 0.0201(9) 0.5319(6)
C56 C 0.4095(8) 0.0478(14) 0.4951(8)
H47 H 0.41720 0.08770 0.48990
H48 H 0.37860 0.04520 0.50650
H49 H 0.41170 0.02660 0.46750
O25 O 0.4784(8) 0.1748(13) 0.4974(8)
H50 H 0.47410 0.20350 0.51480
H51 H 0.50030 0.15210 0.50460
N9 N 0.0478(11) 0.2369(11) 0.1323(13)
H52 H 0.04620 0.19990 0.13630
C57 C 0.0094(9) 0.2673(12) 0.1173(12)
H53 H -0.01810 0.24770 0.11150
C58 C 0.0119(10) 0.3270(12) 0.1109(10)
H54 H -0.01380 0.34730 0.10080
C59 C 0.0529(12) 0.3562(11) 0.1195(11)
H55 H 0.05460 0.39620 0.11530
C60 C 0.0913(10) 0.3258(14) 0.1346(13)
H56 H 0.11870 0.34540 0.14040
C61 C 0.0887(9) 0.2661(13) 0.1410(13)
C62 C 0.1348(12) 0.241(2) 0.158(2)
H57 H 0.15710 0.27140 0.16120
H58 H 0.14600 0.21210 0.13780
H59 H 0.13000 0.22320 0.18720
C63? C 0.5031(7) 0.0107(13) 0.5720(8)
C64? C 0.5112(7) 0.0641(13) 0.5518(8)
C65? C 0.4779(9) 0.0885(10) 0.5239(9)
C66? C 0.4367(7) 0.0594(10) 0.5163(7)
C67? C 0.4286(6) 0.0060(9) 0.5366(6)
C68? C 0.3841(7) -0.0268(13) 0.5327(10)
C69? C 0.0099(10) 0.2402(12) 0.1311(12)
C70? C 0.0024(10) 0.2998(13) 0.1307(11)
C71? C 0.0390(12) 0.3378(11) 0.1374(11)
C72? C 0.0832(11) 0.3161(13) 0.1444(12)
C73? C 0.0907(9) 0.2565(14) 0.1447(13)
C74? C 0.1272(11) 0.227(2) 0.1526(19)
H60? H 0.08240 0.13870 0.06620
H61? H 0.09230 0.14500 0.10860
H62? H 0.52530 -0.00560 0.59060
H63? H 0.53880 0.08360 0.55680
H64? H 0.48330 0.12420 0.51040
H65? H 0.41440 0.07570 0.49770
H66? H 0.36360 -0.00650 0.51280
H67? H 0.37000 -0.03000 0.56170
H68? H 0.39000 -0.06490 0.52100
H69? H -0.01460 0.21480 0.12660
H70? H -0.02710 0.31430 0.12600
H71? H 0.03400 0.37760 0.13710
H72? H 0.10770 0.34150 0.14880
H73? H 0.15270 0.25300 0.15730
H74? H 0.13360 0.20230 0.12750
H75? H 0.12270 0.20390 0.17900
H76? H 0.45680 -0.05140 0.57690
H77? H 0.05880 0.18170 0.13830
N10? N 0.4618(7) -0.0184(9) 0.5644(7)
N11? N 0.0541(11) 0.2186(11) 0.1381(13)
O26? O 0.0809(9) 0.1200(12) 0.0908(10)
Pr2A Pr 0.231636(18) -0.18853(2) -0.011596(17)
O20A O 0.3294(3) 0.1987(3) 0.5395(2)
#END
