
#######################################################################
#
#                 Cambridge Crystallographic Data Centre
#                                CCDC
#
#######################################################################
#
# If this CIF has been generated from an entry in the Cambridge
# Structural Database, then it will include bibliographic, chemical,
# crystal, experimental, refinement or atomic coordinate data resulting
# from the CCDC's data processing and validation procedures.
#
#######################################################################

data_CSD_CIF_VEJCEU
_audit_creation_date 2013-02-01
_audit_creation_method CSD-ConQuest-V1
_database_code_CSD VEJCEU
_database_code_depnum_ccdc_archive 'CCDC 870381'
_chemical_formula_sum 'C64 H122 Mo12 N3 O49 P1 Zn4'
_chemical_formula_moiety
;
(C16 H36 N1 1+)3n,n(C16 H12 Mo12 O48 P1 Zn4 3-),n(H2 O1)
;
_journal_coden_Cambridge 222
_journal_volume 41
_journal_year 2012
_journal_page_first 9989
_journal_name_full 'Dalton Trans. '
loop_
_publ_author_name
"L.M.Rodriguez-Albelo"
"G.Rousseau"
"P.Mialane"
"J.Marrot"
"C.Mellot-Draznieks"
"A.R.Ruiz-Salvador"
"Shiwen Li"
"Rongji Liu"
"Guangjin Zhang"
"B.Keita"
"A.Dolbecq"
_chemical_name_systematic
;
catena-[tris(Tetra-n-butylammonium) 
(\m~12~-phosphato)-dodecakis(\m~3~-oxo)-bis(\m~2~-benzene-1,3-dicarboxylato)-t
etrakis(\m~2~-hydroxo)-octakis(\m~2~-oxo)-dodeca-oxo-octa-molybdenum(v)-tetra-
;
_cell_volume  10183.197
_exptl_crystal_colour 'black'
_exptl_crystal_density_diffrn 2.055
_exptl_crystal_description 'parallelepiped'
_diffrn_ambient_temperature 293
_refine_special_details
;
C4E1 and C4E2 disordered over two sites with occupancies 0.50:0.50; the 
SQUEEZE/PLATON program has been used to model some disorder.
;
#These two values have been output from a single CSD field.
_refine_ls_R_factor_gt 0.0578
_refine_ls_wR_factor_gt 0.0578
_symmetry_cell_setting orthorhombic
_symmetry_space_group_name_H-M 'P n a 21'
_symmetry_Int_Tables_number 33
loop_
_symmetry_equiv_pos_site_id
_symmetry_equiv_pos_as_xyz
1 x,y,z
2 -x,-y,1/2+z
3 1/2+x,1/2-y,z
4 1/2-x,1/2+y,1/2+z
_cell_length_a 21.899(5)
_cell_length_b 20.306(5)
_cell_length_c 22.900(5)
_cell_angle_alpha 90
_cell_angle_beta 90
_cell_angle_gamma 90
_cell_formula_units_Z 4
loop_
_atom_type_symbol
_atom_type_radius_bond
C 0.68
H 0.23
Mo 1.09
N 0.68
O 0.87
P 1.05
Zn 1.37
loop_
_atom_site_label
_atom_site_type_symbol
_atom_site_fract_x
_atom_site_fract_y
_atom_site_fract_z
Mo1 Mo 0.30011(3) 0.15869(4) 0.05147(4)
Mo2 Mo 0.40531(3) 0.03496(4) 0.07802(4)
Mo3 Mo 0.17500(3) 0.14934(4) 0.12304(3)
Mo4 Mo -0.07563(3) -0.02777(4) -0.42115(4)
Mo5 Mo 0.71900(3) 0.18666(4) 0.62388(4)
Mo6 Mo 0.15970(4) 0.01616(4) 0.21365(3)
Mo7 Mo -0.09833(3) 0.05528(4) -0.50529(4)
Mo8 Mo 0.24327(4) -0.07348(4) 0.22891(3)
Mo9 Mo 0.67920(4) -0.04400(4) 0.44348(4)
Mo10 Mo 0.75911(4) 0.04614(4) 0.41562(4)
Mo11 Mo 0.38606(4) -0.06355(4) 0.14966(4)
Mo12 Mo 0.79392(4) 0.17735(4) 0.50449(4)
Zn1 Zn 0.17200(5) 0.10698(6) -0.02705(5)
Zn2 Zn -0.12522(5) 0.13538(5) -0.36784(5)
Zn3 Zn 0.30616(5) 0.08923(6) 0.19161(5)
Zn4 Zn 0.64192(5) 0.11810(6) 0.50512(5)
P1 P 0.24073(9) -0.01454(11) 0.07547(9)
O1 O -0.0899(3) 0.0673(3) -0.4219(3)
O2 O 0.2719(3) -0.0607(3) 0.1205(3)
O3 O 0.2487(3) 0.0227(3) 0.2234(3)
O4 O 0.2662(3) 0.1422(3) 0.1315(3)
O5 O 0.1624(3) 0.2302(4) 0.1338(4)
O6 O -0.0784(3) -0.0177(3) -0.3321(3)
O7 O 0.6788(3) 0.0523(3) 0.4502(3)
O8 O 0.3380(3) -0.0675(3) 0.2280(3)
O9 O 0.7099(3) 0.1692(3) 0.5368(3)
O10 O 0.2121(3) -0.0536(3) 0.0245(2)
O11 O 0.7112(4) 0.2693(4) 0.6276(4)
O12 O 0.1118(3) 0.0407(3) 0.0019(3)
O13 O 0.3679(3) 0.0315(3) 0.1545(3)
O14 O -0.1461(3) 0.0455(4) -0.5824(3)
O15 O 0.1034(3) 0.1212(3) 0.0914(3)
O16 O 0.2324(3) 0.0467(3) -0.0644(3)
O17 O -0.1626(3) 0.0770(3) -0.3072(3)
O18 O -0.1938(3) 0.1764(3) -0.4080(3)
O19 O 0.2901(3) 0.0319(3) 0.0493(3)
O20 O 0.3110(3) 0.1350(4) -0.0245(3)
O21 O 0.2096(3) 0.1505(3) 0.0406(3)
O22 O 0.7471(3) 0.1631(4) 0.6957(3)
O23 O 0.6415(3) 0.1569(3) 0.6341(3)
O24 O 0.1907(3) 0.0256(3) 0.1066(3)
O25 O 0.3739(3) 0.1275(3) 0.0784(3)
O26 O -0.1269(3) 0.1482(4) -0.5042(3)
O27 O 0.1415(3) 0.1625(4) -0.0895(3)
O28 O 0.7641(3) 0.1411(4) 0.4363(3)
O29 O 0.7977(4) 0.2589(4) 0.4882(4)
O30 O -0.0613(3) 0.1855(4) -0.3280(3)
O31 O 0.6049(3) 0.0610(4) 0.5651(4)
O32 O 0.4576(4) -0.0750(5) 0.1757(4)
O33 O 0.3100(4) 0.2408(4) 0.0511(4)
O34 O 0.1307(4) 0.0175(4) 0.2806(3)
O35 O 0.5766(3) 0.1606(4) 0.4642(4)
O36 O -0.0280(4) 0.0636(4) -0.5336(5)
O37 O -0.0001(3) -0.0390(4) -0.4299(4)
O38 O 0.3413(4) 0.1393(4) 0.2541(4)
O39 O 0.4024(3) 0.0395(3) -0.0114(3)
O40 O 0.1664(3) 0.1114(3) 0.1948(3)
O41 O 0.7482(5) 0.0492(5) 0.3443(4)
O42 O 0.6513(4) -0.0606(4) 0.3771(4)
O43 O 0.2337(4) -0.0913(5) 0.2987(3)
O44 O 0.5384(4) 0.0595(4) 0.4423(4)
O45 O 0.4790(3) 0.0484(4) 0.0877(4)
O46 O 0.1135(5) 0.0686(5) -0.1343(5)
O47 O 0.3822(4) 0.0465(5) 0.2855(4)
O48 O -0.0248(4) 0.0869(4) -0.3024(4)
C1 C 0.4857(4) 0.1530(5) 0.4076(5)
C2 C 0.4709(5) 0.2170(6) 0.4164(5)
H1 H 0.49260 0.24200 0.44340
C3 C 0.4223(5) 0.2459(6) 0.3844(6)
H2 H 0.41140 0.28950 0.39100
C4 C 0.3919(5) 0.2097(6) 0.3440(6)
H3 H 0.36010 0.22880 0.32310
C5 C 0.4070(5) 0.1463(6) 0.3336(4)
C6 C 0.4542(5) 0.1165(7) 0.3660(6)
H4 H 0.46430 0.07260 0.35960
C7 C 0.3751(5) 0.1065(6) 0.2872(5)
C8 C 0.5379(5) 0.1220(6) 0.4402(5)
C9 C 0.0945(4) 0.1694(5) -0.1835(4)
C10 C 0.1160(5) 0.2321(6) -0.1940(6)
H5 H 0.14640 0.24930 -0.17010
C11 C 0.0932(6) 0.2705(6) -0.2401(6)
H6 H 0.10900 0.31230 -0.24710
C12 C 0.0467(6) 0.2454(5) -0.2751(4)
H7 H 0.03130 0.27040 -0.30570
C13 C 0.0227(5) 0.1809(5) -0.2638(5)
C14 C 0.0498(5) 0.1430(5) -0.2186(4)
H8 H 0.03710 0.09980 -0.21260
C15 C 0.1196(4) 0.1299(4) -0.1324(4)
C16 C -0.0250(5) 0.1465(6) -0.3009(4)
N1 N 0.1586(5) 0.1833(6) 0.3744(5)
C17 C 0.1953(7) 0.1173(7) 0.3675(7)
H9 H 0.16960 0.08120 0.38040
H10 H 0.20380 0.11050 0.32640
C18 C 0.2553(7) 0.114(1) 0.4008(9)
H11 H 0.24920 0.13000 0.44030
H12 H 0.28520 0.14200 0.38190
C19 C 0.2796(13) 0.0415(12) 0.4028(8)
H13 H 0.24640 0.01180 0.41250
H14 H 0.29530 0.02920 0.36470
C20 C 0.331(2) 0.035(3) 0.449(2)
H15 H 0.36320 0.06620 0.44090
H16 H 0.34780 -0.00870 0.44850
H17 H 0.31500 0.04390 0.48750
C21 C 0.1404(8) 0.1958(10) 0.4385(8)
H18 H 0.10840 0.22880 0.43910
H19 H 0.17540 0.21420 0.45870
C22 C 0.1167(9) 0.1317(14) 0.4752(8)
H20 H 0.08030 0.11210 0.45840
H21 H 0.14820 0.09860 0.48000
C23 C 0.1031(10) 0.1698(12) 0.5327(7)
H22 H 0.14020 0.18760 0.54980
H23 H 0.07420 0.20530 0.52630
C24 C 0.0768(11) 0.1175(12) 0.5693(11)
H24 H 0.05360 0.08780 0.54530
H25 H 0.05050 0.13670 0.59820
H26 H 0.10910 0.09370 0.58830
C25 C 0.2006(7) 0.2387(7) 0.3583(8)
H27 H 0.23570 0.23760 0.38400
H28 H 0.17950 0.28010 0.36490
C26 C 0.2231(7) 0.2369(9) 0.2945(7)
H29 H 0.18850 0.23290 0.26830
H30 H 0.24940 0.19900 0.28870
C27 C 0.2599(11) 0.3030(13) 0.2804(14)
H31 H 0.23250 0.34020 0.28450
H32 H 0.29240 0.30810 0.30890
C28 C 0.2878(11) 0.3039(12) 0.2188(15)
C29 C 0.1007(6) 0.1793(8) 0.3349(8)
H33 H 0.08260 0.22290 0.33510
H34 H 0.11520 0.17170 0.29550
C30 C 0.0494(7) 0.1318(9) 0.3445(8)
H35 H 0.02590 0.14510 0.37840
H36 H 0.06570 0.08820 0.35180
C31 C 0.0089(11) 0.1307(13) 0.2912(12)
H37 H 0.03390 0.12100 0.25730
H38 H -0.00840 0.17420 0.28570
C32 C -0.0441(12) 0.0797(14) 0.2940(14)
N2 N 0.0073(5) 0.2638(6) -0.0044(6)
C33 C 0.0767(5) 0.2701(8) 0.0034(8)
H39 H 0.09530 0.26460 -0.03480
H40 H 0.09010 0.23330 0.02720
C34 C 0.1038(11) 0.3337(9) 0.0307(10)
H41 H 0.09640 0.33390 0.07250
H42 H 0.08390 0.37200 0.01400
C35 C 0.1741(11) 0.3372(14) 0.0188(13)
C36 C 0.227(3) 0.387(3) 0.031(4)
C37 C -0.0241(8) 0.2709(11) 0.0548(8)
H43 H -0.06780 0.27290 0.04800
H44 H -0.01210 0.31300 0.07130
C38 C -0.0124(10) 0.2176(10) 0.1013(8)
H45 H 0.02950 0.22040 0.11480
H46 H -0.01860 0.17430 0.08440
C39 C -0.0566(13) 0.2273(14) 0.1534(12)
H47 H -0.09750 0.23390 0.13840
H48 H -0.05690 0.18750 0.17670
C40 C -0.0401(14) 0.2852(14) 0.1926(15)
C41 C -0.0167(7) 0.3165(9) -0.0425(7)
H49 H -0.00460 0.35860 -0.02620
H50 H -0.06090 0.31460 -0.04160
C42 C 0.0040(14) 0.3144(15) -0.1068(13)
H51 H -0.01440 0.27640 -0.12540
H52 H 0.04790 0.30840 -0.10790
C43 C -0.0124(14) 0.3768(17) -0.1428(14)
H53 H -0.03910 0.36170 -0.17390
H54 H -0.03740 0.40370 -0.11730
C44 C 0.033(2) 0.424(3) -0.171(3)
C45 C -0.0016(9) 0.1952(9) -0.0314(10)
H55 H 0.01990 0.16360 -0.00720
H56 H 0.01790 0.19500 -0.06950
C46 C -0.0693(11) 0.1701(14) -0.0393(14)
H57 H -0.08840 0.16260 -0.00170
H58 H -0.09340 0.20200 -0.06080
C47 C -0.0640(18) 0.1057(15) -0.0734(19)
H59 H -0.04210 0.07220 -0.05170
H60 H -0.04490 0.11200 -0.11120
C48 C -0.132(2) 0.090(4) -0.079(4)
O49 O 0.1757(9) -0.3998(11) 0.200(1)
C49? C 0.206(4) 0.341(4) -0.041(2)
Mo1A Mo 0.69989(3) -0.15869(4) 0.55147(4)
Mo1A* Mo -0.30011(3) -0.15869(4) -0.44853(4)
Mo2A Mo 0.59469(3) -0.03496(4) 0.57802(4)
Mo2A* Mo -0.40531(3) -0.03496(4) -0.42198(4)
Mo3A Mo -0.17500(3) -0.14934(4) -0.37696(3)
Mo3A* Mo 0.82500(3) -0.14934(4) 0.62304(3)
Mo4A Mo 0.07563(3) 0.02777(4) 0.07885(4)
Mo4* Mo 0.92437(3) -0.02777(4) 0.57885(4)
Mo5* Mo -0.28100(3) 0.18666(4) -0.37612(4)
Mo5A Mo 0.28100(3) -0.18666(4) 0.12388(4)
Mo6A Mo -0.15970(4) -0.01616(4) -0.28635(3)
Mo6A* Mo 0.84030(4) -0.01616(4) 0.71365(3)
Mo7A Mo 0.09833(3) -0.05528(4) -0.00529(4)
Mo7* Mo 0.90167(3) 0.05528(4) 0.49471(4)
Mo8A Mo -0.24327(4) 0.07348(4) -0.27109(3)
Mo8A* Mo 0.75673(4) 0.07348(4) 0.72891(3)
Mo9A Mo 0.32080(4) 0.04400(4) -0.05652(4)
Mo9* Mo -0.32080(4) -0.04400(4) -0.55652(4)
Mo10* Mo -0.24089(4) 0.04614(4) -0.58438(4)
Mo10A Mo 0.24089(4) -0.04614(4) -0.08438(4)
Mo11A Mo 0.61394(4) 0.06355(4) 0.64966(4)
Mo11A* Mo -0.38606(4) 0.06355(4) -0.35034(4)
Mo12* Mo -0.20608(4) 0.17735(4) -0.49551(4)
Mo12A Mo 0.20608(4) -0.17735(4) 0.00449(4)
Zn1A Zn -0.17200(5) -0.10698(6) -0.52705(5)
Zn1A* Zn 0.82800(5) -0.10698(6) 0.47295(5)
Zn2* Zn 0.87478(5) 0.13538(5) 0.63216(5)
Zn2A Zn 0.12522(5) -0.13538(5) 0.13216(5)
Zn3A Zn -0.30616(5) -0.08923(6) -0.30839(5)
Zn3A* Zn 0.69384(5) -0.08923(6) 0.69161(5)
Zn4A Zn 0.35808(5) -0.11810(6) 0.00512(5)
Zn4* Zn -0.35808(5) 0.11810(6) -0.49488(5)
O1A O 0.0899(3) -0.0673(3) 0.0781(3)
O1* O 0.9101(3) 0.0673(3) 0.5781(3)
O3A O -0.2487(3) -0.0227(3) -0.2766(3)
O3A* O 0.7513(3) -0.0227(3) 0.7234(3)
O4A O -0.2662(3) -0.1422(3) -0.3685(3)
O4A* O 0.7338(3) -0.1422(3) 0.6315(3)
O5A O -0.1624(3) -0.2302(4) -0.3662(4)
O5A* O 0.8376(3) -0.2302(4) 0.6338(4)
O6A O 0.0784(3) 0.0177(3) 0.1679(3)
O6* O 0.9216(3) -0.0177(3) 0.6679(3)
O7* O -0.3212(3) 0.0523(3) -0.5498(3)
O7A O 0.3212(3) -0.0523(3) -0.0498(3)
O8A O -0.3380(3) 0.0675(3) -0.2720(3)
O8A* O 0.6620(3) 0.0675(3) 0.7280(3)
O9* O -0.2901(3) 0.1692(3) -0.4632(3)
O9A O 0.2901(3) -0.1692(3) 0.0368(3)
O11* O -0.2888(4) 0.2693(4) -0.3724(4)
O11A O 0.2888(4) -0.2693(4) 0.1276(4)
O12A O -0.1118(3) -0.0407(3) -0.4981(3)
O12A* O 0.8882(3) -0.0407(3) 0.5019(3)
O13A O 0.6321(3) -0.0315(3) 0.6545(3)
O13A* O -0.3679(3) -0.0315(3) -0.3455(3)
O14* O 0.8539(3) 0.0455(4) 0.4176(3)
O14A O 0.1461(3) -0.0455(4) -0.0824(3)
O15A O -0.1034(3) -0.1212(3) -0.4086(3)
O15A* O 0.8966(3) -0.1212(3) 0.5914(3)
O16A O 0.7676(3) -0.0467(3) 0.4356(3)
O16A* O -0.2324(3) -0.0467(3) -0.5644(3)
O17A O 0.1626(3) -0.0770(3) 0.1928(3)
O17* O 0.8374(3) 0.0770(3) 0.6928(3)
O18* O 0.8062(3) 0.1764(3) 0.5920(3)
O18A O 0.1938(3) -0.1764(3) 0.0920(3)
O20A O 0.6890(3) -0.1350(4) 0.4755(3)
O20A* O -0.3110(3) -0.1350(4) -0.5245(3)
O21A O -0.2096(3) -0.1505(3) -0.4594(3)
O21A* O 0.7904(3) -0.1505(3) 0.5406(3)
O22A O 0.2529(3) -0.1631(4) 0.1957(3)
O22* O -0.2529(3) 0.1631(4) -0.3043(3)
O23A O 0.3585(3) -0.1569(3) 0.1341(3)
O23* O -0.3585(3) 0.1569(3) -0.3659(3)
O25A O 0.6261(3) -0.1275(3) 0.5784(3)
O25A* O -0.3739(3) -0.1275(3) -0.4216(3)
O26* O 0.8731(3) 0.1482(4) 0.4958(3)
O26A O 0.1269(3) -0.1482(4) -0.0042(3)
O27A O -0.1415(3) -0.1625(4) -0.5895(3)
O27A* O 0.8585(3) -0.1625(4) 0.4105(3)
O28* O -0.2359(3) 0.1411(4) -0.5637(3)
O28A O 0.2359(3) -0.1411(4) -0.0637(3)
O29* O -0.2023(4) 0.2589(4) -0.5118(4)
O29A O 0.2023(4) -0.2589(4) -0.0118(4)
O30* O 0.9387(3) 0.1855(4) 0.6720(3)
O30A O 0.0613(3) -0.1855(4) 0.1720(3)
O31A O 0.3951(3) -0.0610(4) 0.0651(4)
O31* O -0.3951(3) 0.0610(4) -0.4349(4)
O32A O 0.5424(4) 0.0750(5) 0.6757(4)
O32A* O -0.4576(4) 0.0750(5) -0.3243(4)
O33A O 0.6900(4) -0.2408(4) 0.5511(4)
O33A* O -0.3100(4) -0.2408(4) -0.4489(4)
O34A O -0.1307(4) -0.0175(4) -0.2194(3)
O34A* O 0.8693(4) -0.0175(4) 0.7806(3)
O35A O 0.4234(3) -0.1606(4) -0.0358(4)
O35* O -0.4234(3) 0.1606(4) -0.5358(4)
O36A O 0.0280(4) -0.0636(4) -0.0336(5)
O36* O 0.9720(4) 0.0636(4) 0.4664(5)
O37A O 0.0001(3) 0.0390(4) 0.0701(4)
O37* O 0.9999(3) -0.0390(4) 0.5701(4)
O38A O -0.3413(4) -0.1393(4) -0.2459(4)
O38A* O 0.6587(4) -0.1393(4) 0.7541(4)
O39A O 0.5976(3) -0.0395(3) 0.4886(3)
O39A* O -0.4024(3) -0.0395(3) -0.5114(3)
O40A O -0.1664(3) -0.1114(3) -0.3052(3)
O40A* O 0.8336(3) -0.1114(3) 0.6948(3)
O41* O -0.2518(5) 0.0492(5) -0.6557(4)
O41A O 0.2518(5) -0.0492(5) -0.1557(4)
O42A O 0.3487(4) 0.0606(4) -0.1229(4)
O42* O -0.3487(4) -0.0606(4) -0.6229(4)
O43A O -0.2337(4) 0.0913(5) -0.2013(3)
O43A* O 0.7663(4) 0.0913(5) 0.7987(3)
O44A O 0.4616(4) -0.0595(4) -0.0577(4)
O44* O -0.4616(4) 0.0595(4) -0.5577(4)
O45A O 0.5210(3) -0.0484(4) 0.5877(4)
O45A* O -0.4790(3) -0.0484(4) -0.4123(4)
O46A O -0.1135(5) -0.0686(5) -0.6343(5)
O46A* O 0.8865(5) -0.0686(5) 0.3657(5)
O47A O -0.3822(4) -0.0465(5) -0.2145(4)
O47A* O 0.6178(4) -0.0465(5) 0.7855(4)
O48* O 0.9752(4) 0.0869(4) 0.6976(4)
O48A O 0.0248(4) -0.0869(4) 0.1976(4)
C1A C 0.5143(4) -0.1530(5) -0.0924(5)
C1* C -0.5143(4) 0.1530(5) -0.5924(5)
C1A* C -0.4857(4) -0.1530(5) -0.0924(5)
C1A** C 0.5143(4) -0.1530(5) 0.9076(5)
C2A C 0.5291(5) -0.2170(6) -0.0836(5)
C2* C -0.5291(5) 0.2170(6) -0.5836(5)
H1A H 0.50740 -0.24200 -0.05660
H1* H -0.50740 0.24200 -0.55660
C3A C 0.5777(5) -0.2459(6) -0.1156(6)
C3A* C -0.4223(5) -0.2459(6) -0.1156(6)
C3* C -0.5777(5) 0.2459(6) -0.6156(6)
C3A** C 0.5777(5) -0.2459(6) 0.8844(6)
H2A H 0.58860 -0.28950 -0.10900
C4A C -0.3919(5) -0.2097(6) -0.1560(6)
C4A* C 0.6081(5) -0.2097(6) 0.8440(6)
C4A** C 0.6081(5) -0.2097(6) -0.1560(6)
H3A H -0.36010 -0.22880 -0.17690
H3A* H 0.63990 -0.22880 0.82310
C5A C -0.4070(5) -0.1463(6) -0.1664(4)
C5A* C 0.5930(5) -0.1463(6) 0.8336(4)
C5A** C 0.5930(5) -0.1463(6) -0.1664(4)
C5* C -0.5930(5) 0.1463(6) -0.6664(4)
C6A C 0.5458(5) -0.1165(7) -0.1340(6)
C6A* C -0.4542(5) -0.1165(7) -0.1340(6)
C6* C -0.5458(5) 0.1165(7) -0.6340(6)
C6A** C 0.5458(5) -0.1165(7) 0.8660(6)
H4A H 0.53570 -0.07260 -0.14040
H4A* H -0.46430 -0.07260 -0.14040
H4* H -0.53570 0.07260 -0.64040
H4A** H 0.53570 -0.07260 0.85960
C7A C -0.3751(5) -0.1065(6) -0.2128(5)
C7A* C 0.6249(5) -0.1065(6) 0.7872(5)
C7A** C 0.6249(5) -0.1065(6) -0.2128(5)
C8A C 0.4621(5) -0.1220(6) -0.0598(5)
C8* C -0.4621(5) 0.1220(6) -0.5598(5)
C9A C -0.0945(4) -0.1694(5) -0.6835(4)
C9A* C 0.9055(4) -0.1694(5) 0.3165(4)
C9* C 1.0945(4) 0.1694(5) 0.8165(4)
C9A** C -0.0945(4) -0.1694(5) 0.3165(4)
C10A C -0.1160(5) -0.2321(6) -0.6940(6)
C10A* C 0.8840(5) -0.2321(6) 0.3060(6)
C10* C 1.1160(5) 0.2321(6) 0.8060(6)
C10A** C -0.1160(5) -0.2321(6) 0.3060(6)
H5A H -0.14640 -0.24930 -0.67010
H5A* H 0.85360 -0.24930 0.32990
C11A C -0.0932(6) -0.2705(6) -0.7401(6)
C11* C 1.0932(6) 0.2705(6) 0.7599(6)
C11A* C -0.0932(6) -0.2705(6) 0.2599(6)
C11A** C 0.9068(6) -0.2705(6) 0.2599(6)
H6A H -0.10900 -0.31230 -0.74710
H6* H 1.10900 0.31230 0.75290
H6A* H -0.10900 -0.31230 0.25290
H6A** H 0.89100 -0.31230 0.25290
C12* C 1.0467(6) 0.2454(5) 0.7249(4)
C12A C -0.0467(6) -0.2454(5) 0.2249(4)
C12A* C -0.0467(6) -0.2454(5) -0.7751(4)
C12A** C 0.9533(6) -0.2454(5) 0.2249(4)
H7* H 1.03130 0.27040 0.69430
H7A H -0.03130 -0.27040 0.19430
C13* C 1.0227(5) 0.1809(5) 0.7362(5)
C13A C -0.0227(5) -0.1809(5) 0.2362(5)
C13A* C -0.0227(5) -0.1809(5) -0.7638(5)
C13A** C 0.9773(5) -0.1809(5) 0.2362(5)
C14A C -0.0498(5) -0.1430(5) -0.7186(4)
C14* C 1.0498(5) 0.1430(5) 0.7814(4)
C14A* C -0.0498(5) -0.1430(5) 0.2814(4)
C14A** C 0.9502(5) -0.1430(5) 0.2814(4)
H8A H -0.03710 -0.09980 -0.71260
H8* H 1.03710 0.09980 0.78740
H8A* H -0.03710 -0.09980 0.28740
H8A** H 0.96290 -0.09980 0.28740
C15A C -0.1196(4) -0.1299(4) -0.6324(4)
C15A* C 0.8804(4) -0.1299(4) 0.3676(4)
C15* C 1.1196(4) 0.1299(4) 0.8676(4)
C15A** C -0.1196(4) -0.1299(4) 0.3676(4)
C16* C 0.9750(5) 0.1465(6) 0.6991(4)
C16A C 0.0250(5) -0.1465(6) 0.1991(4)
C16A* C 0.0250(5) -0.1465(6) -0.8009(4)
C16A** C 1.0250(5) -0.1465(6) 0.1991(4)
#END
