
#######################################################################
#
#                 Cambridge Crystallographic Data Centre
#                                CCDC
#
#######################################################################
#
# If this CIF has been generated from an entry in the Cambridge
# Structural Database, then it will include bibliographic, chemical,
# crystal, experimental, refinement or atomic coordinate data resulting
# from the CCDC's data processing and validation procedures.
#
#######################################################################

data_CSD_CIF_VEKYUI
_audit_creation_date 2018-01-18
_audit_creation_method CSD-ConQuest-V1
_database_code_CSD VEKYUI
_database_code_depnum_ccdc_archive 'CCDC 1580144'
_chemical_formula_sum 'C24 H70 N36 Ni7 O62 V1 W12'
_chemical_formula_moiety
;
(C24 H44 N36 Ni7 O10 2+)n,n(H2 O40 V1 W12 2-),12n(H2 O1)
;
_journal_coden_Cambridge 9
_journal_volume 57
_journal_year 2018
_journal_page_first 1342
_journal_name_full 'Inorg.Chem. '
loop_
_publ_author_name
"Yu-Jie Wang"
"Yang-Yang Zhou"
"Hong-Guo Hao"
"Man Song"
"Na Zhang"
"Shuang Yao"
"Jing-Hui Yan"
"Zhi-Ming Zhang"
"Tong-Bu Lu"
_chemical_name_systematic
;
catena-(dodecakis(\m-1,2,4-triazolato)-deca-aqua-hepta-nickel 
bis(\m-hydroxo)-hexacosakis(\m-oxo)-dodecaoxo-dodeca-tungsten-vanadium 
dodecahydrate)
;
_cell_volume   9344.996
_exptl_crystal_colour 'orange'
_exptl_crystal_density_diffrn 3.215
_exptl_crystal_description 'block'
_diffrn_ambient_temperature 293
_refine_special_details
;
O10 disordered by symmetry over two configurations with occupancy 0.50; O18 
disordered by symmetry over two configurations with occupancy 0.50.
;
#These two values have been output from a single CSD field.
_refine_ls_R_factor_gt 0.0696
_refine_ls_wR_factor_gt 0.0696
_symmetry_cell_setting tetragonal
_symmetry_space_group_name_H-M 'I 4/m'
_symmetry_Int_Tables_number 87
loop_
_symmetry_equiv_pos_site_id
_symmetry_equiv_pos_as_xyz
1 x,y,z
2 -y,x,z
3 -x,-y,z
4 y,-x,z
5 1/2+x,1/2+y,1/2+z
6 1/2-y,1/2+x,1/2+z
7 1/2-x,1/2-y,1/2+z
8 1/2+y,1/2-x,1/2+z
9 -x,-y,-z
10 y,-x,-z
11 x,y,-z
12 -y,x,-z
13 -1/2-x,-1/2-y,-1/2-z
14 -1/2+y,-1/2-x,-1/2-z
15 -1/2+x,-1/2+y,-1/2-z
16 -1/2-y,-1/2+x,-1/2-z
_cell_length_a 17.6473(16)
_cell_length_b 17.6473(16)
_cell_length_c 30.007(4)
_cell_angle_alpha 90
_cell_angle_beta 90
_cell_angle_gamma 90
_cell_formula_units_Z 4
loop_
_atom_type_symbol
_atom_type_radius_bond
C 0.68
H 0.23
N 0.68
Ni 1.24
O 0.68
V 1.53
W 1.62
loop_
_atom_site_label
_atom_site_type_symbol
_atom_site_fract_x
_atom_site_fract_y
_atom_site_fract_z
W1 W 0.30160(6) 0.46721(6) 0.00000
W2 W 0.41626(5) 0.38521(5) 0.08248(3)
V1 V 0.50000 0.50000 0.00000
O1 O 0.2063(11) 0.4547(11) 0.00000
O2 O 0.3785(8) 0.3310(8) 0.1220(5)
O3 O 0.3339(9) 0.3975(9) 0.0437(6)
O4 O 0.3107(9) 0.5448(9) 0.0442(6)
O5 O 0.3941(10) 0.4830(9) 0.1060(6)
O6 O 0.4290(12) 0.4873(12) -0.0283(7)
W3 W 0.14051(5) 0.01755(5) 0.08310(3)
W4 W 0.12043(8) 0.15889(8) 0.00000
V2 V 0.00000 0.00000 0.00000
O7 O 0.2064(9) 0.0265(11) 0.1223(5)
O8 O 0.0615(9) 0.0797(10) 0.1037(6)
O9 O 0.1677(9) 0.0991(9) 0.0449(6)
O10 O 0.186(1) -0.0465(10) 0.0436(6)
O11 O 0.1774(11) 0.2331(12) 0.00000
O12 O 0.0420(12) 0.0542(12) 0.0295(7)
Ni1 Ni 0.00000 0.00000 0.25096(12)
Ni2 Ni 0.25000 0.25000 0.25000
Ni3 Ni 0.31862(10) 0.07910(11) 0.31188(7)
O13 O 0.00000 0.00000 0.1825(8)
O14 O 0.00000 0.00000 0.3216(7)
O15 O 0.2707(8) 0.0280(7) 0.3679(5)
O16 O 0.4220(7) 0.0586(8) 0.3482(5)
C1 C 0.0490(9) 0.3749(9) 0.2493(6)
H1 H 0.01610 0.40910 0.23580
C2 C 0.0933(9) 0.2928(9) 0.2921(6)
H2 H 0.09810 0.25830 0.31530
C3 C 0.1585(9) 0.0410(9) 0.2815(6)
H3 H 0.15870 -0.00320 0.29840
C4 C 0.2327(12) 0.1992(10) 0.1535(7)
H4 H 0.24800 0.15080 0.16180
C5 C 0.1941(12) 0.2962(12) 0.1154(8)
H5 H 0.17940 0.32750 0.09200
C6 C 0.1253(9) 0.1256(9) 0.2365(5)
H6 H 0.09820 0.15260 0.21520
N1 N 0.1488(7) 0.3096(7) 0.2640(4)
N2 N 0.0293(7) 0.3312(8) 0.2832(5)
N3 N 0.1924(7) 0.1479(7) 0.2536(4)
N4 N 0.1028(7) 0.0595(7) 0.2542(4)
N5 N 0.2143(7) 0.0916(8) 0.2823(5)
N6 N 0.1205(7) 0.3653(7) 0.2363(4)
N7 N 0.2259(8) 0.2563(7) 0.1803(4)
N8 N 0.1988(8) 0.3168(8) 0.1567(5)
N9 N 0.2142(10) 0.2204(10) 0.1113(6)
O17 O 0.3559(18) 0.0469(19) 0.1514(12)
O18 O 0.414(2) 0.148(2) 0.0865(12)
O19 O 0.321(3) 0.038(5) 0.00000
O20 O 0.331(3) 0.221(3) 0.00000
O6A O 0.5127(12) 0.4290(12) -0.0283(7)
O6C O 0.4873(12) 0.5710(12) -0.0283(7)
O6I O 0.4873(12) 0.5710(12) 0.0283(7)
O6J O 0.4290(12) 0.4873(12) 0.0283(7)
O6K O 0.5127(12) 0.4290(12) 0.0283(7)
O6B O 0.5710(12) 0.5127(12) -0.0283(7)
O6H O 0.5710(12) 0.5127(12) 0.0283(7)
W1A W 0.53279(6) 0.30160(6) 0.00000
W2A W 0.61479(5) 0.41626(5) 0.08248(3)
O1A O 0.5453(11) 0.2063(11) 0.00000
O2A O 0.6690(8) 0.3785(8) 0.1220(5)
O3A O 0.6025(9) 0.3339(9) 0.0437(6)
O4A O 0.4552(9) 0.3107(9) 0.0442(6)
O5A O 0.517(1) 0.3941(9) 0.1060(6)
W1B W 0.69840(6) 0.53279(6) 0.00000
W2B W 0.58374(5) 0.61479(5) 0.08248(3)
O1B O 0.7937(11) 0.5453(11) 0.00000
O2B O 0.6215(8) 0.6690(8) 0.1220(5)
O3B O 0.6661(9) 0.6025(9) 0.0437(6)
O4B O 0.6893(9) 0.4552(9) 0.0442(6)
O5B O 0.6059(10) 0.5170(9) 0.1060(6)
W1C W 0.46721(6) 0.69840(6) 0.00000
W2C W 0.38521(5) 0.58374(5) 0.08248(3)
O1C O 0.4547(11) 0.7937(11) 0.00000
O2C O 0.3310(8) 0.6215(8) 0.1220(5)
O3C O 0.3975(9) 0.6661(9) 0.0437(6)
O4C O 0.5448(9) 0.6893(9) 0.0442(6)
O5C O 0.483(1) 0.6059(9) 0.1060(6)
W2H W 0.58374(5) 0.61479(5) -0.08248(3)
O2H O 0.6215(8) 0.6690(8) -0.1220(5)
O3H O 0.6661(9) 0.6025(9) -0.0437(6)
O4H O 0.6893(9) 0.4552(9) -0.0442(6)
O5H O 0.6059(10) 0.5170(9) -0.1060(6)
W2I W 0.38521(5) 0.58374(5) -0.08248(3)
O2I O 0.3310(8) 0.6215(8) -0.1220(5)
O3I O 0.3975(9) 0.6661(9) -0.0437(6)
O4I O 0.5448(9) 0.6893(9) -0.0442(6)
O5I O 0.483(1) 0.6059(9) -0.1060(6)
W2J W 0.41626(5) 0.38521(5) -0.08248(3)
O2J O 0.3785(8) 0.3310(8) -0.1220(5)
O3J O 0.3339(9) 0.3975(9) -0.0437(6)
O4J O 0.3107(9) 0.5448(9) -0.0442(6)
O5J O 0.3941(10) 0.4830(9) -0.1060(6)
W2K W 0.61479(5) 0.41626(5) -0.08248(3)
O2K O 0.6690(8) 0.3785(8) -0.1220(5)
O3K O 0.6025(9) 0.3339(9) -0.0437(6)
O4K O 0.4552(9) 0.3107(9) -0.0442(6)
O5K O 0.517(1) 0.3941(9) -0.1060(6)
O12A O -0.0542(12) 0.0420(12) 0.0295(7)
O12C O 0.0542(12) -0.0420(12) 0.0295(7)
O12I O 0.0542(12) -0.0420(12) -0.0295(7)
O12J O 0.0420(12) 0.0542(12) -0.0295(7)
O12K O -0.0542(12) 0.0420(12) -0.0295(7)
O12B O -0.0420(12) -0.0542(12) 0.0295(7)
O12H O -0.0420(12) -0.0542(12) -0.0295(7)
W3A W -0.01755(5) 0.14051(5) 0.08310(3)
W4A W -0.15889(8) 0.12043(8) 0.00000
O7A O -0.0265(9) 0.2064(11) 0.1223(5)
O8A O -0.0797(9) 0.0615(10) 0.1037(6)
O9A O -0.0991(9) 0.1677(9) 0.0449(6)
O10A O 0.0465(10) 0.186(1) 0.0436(6)
O11A O -0.2331(11) 0.1774(12) 0.00000
W3B W -0.14051(5) -0.01755(5) 0.08310(3)
W4B W -0.12043(8) -0.15889(8) 0.00000
O7B O -0.2064(9) -0.0265(11) 0.1223(5)
O8B O -0.0615(9) -0.0797(10) 0.1037(6)
O9B O -0.1677(9) -0.0991(9) 0.0449(6)
O10B O -0.186(1) 0.0465(10) 0.0436(6)
O11B O -0.1774(11) -0.2331(12) 0.00000
W3C W 0.01755(5) -0.14051(5) 0.08310(3)
W4C W 0.15889(8) -0.12043(8) 0.00000
O7C O 0.0265(9) -0.2064(11) 0.1223(5)
O8C O 0.0797(9) -0.0615(10) 0.1037(6)
O9C O 0.0991(9) -0.1677(9) 0.0449(6)
O10C O -0.0465(10) -0.186(1) 0.0436(6)
O11C O 0.2331(11) -0.1774(12) 0.00000
W3H W -0.14051(5) -0.01755(5) -0.08310(3)
O7H O -0.2064(9) -0.0265(11) -0.1223(5)
O8H O -0.0615(9) -0.0797(10) -0.1037(6)
O9H O -0.1677(9) -0.0991(9) -0.0449(6)
O10H O -0.186(1) 0.0465(10) -0.0436(6)
W3I W 0.01755(5) -0.14051(5) -0.08310(3)
O7I O 0.0265(9) -0.2064(11) -0.1223(5)
O8I O 0.0797(9) -0.0615(10) -0.1037(6)
O9I O 0.0991(9) -0.1677(9) -0.0449(6)
O10I O -0.0465(10) -0.186(1) -0.0436(6)
W3J W 0.14051(5) 0.01755(5) -0.08310(3)
O7J O 0.2064(9) 0.0265(11) -0.1223(5)
O8J O 0.0615(9) 0.0797(10) -0.1037(6)
O9J O 0.1677(9) 0.0991(9) -0.0449(6)
O10J O 0.186(1) -0.0465(10) -0.0436(6)
W3K W -0.01755(5) 0.14051(5) -0.08310(3)
O7K O -0.0265(9) 0.2064(11) -0.1223(5)
O8K O -0.0797(9) 0.0615(10) -0.1037(6)
O9K O -0.0991(9) 0.1677(9) -0.0449(6)
O10K O 0.0465(10) 0.186(1) -0.0436(6)
Ni2A Ni -0.25000 0.25000 0.25000
Ni3A Ni -0.0791(1) 0.31862(11) 0.31188(7)
O15A O -0.0280(8) 0.2707(7) 0.3679(5)
O16A O -0.0586(7) 0.4220(8) 0.3482(5)
C1A C -0.3749(9) 0.0490(9) 0.2493(6)
H1A H -0.40910 0.01610 0.23580
C2A C -0.2928(9) 0.0933(9) 0.2921(6)
H2A H -0.25830 0.09810 0.31530
C3A C -0.0410(9) 0.1585(9) 0.2815(6)
H3A H 0.00320 0.15870 0.29840
C4A C -0.1992(12) 0.2327(10) 0.1535(7)
H4A H -0.15080 0.24800 0.16180
C5A C -0.2962(12) 0.1941(12) 0.1154(8)
H5A H -0.32750 0.17940 0.09200
C6A C -0.1256(9) 0.1253(9) 0.2365(5)
H6A H -0.15260 0.09820 0.21520
N1A N -0.3096(7) 0.1488(7) 0.2640(4)
N2A N -0.3312(7) 0.0293(8) 0.2832(5)
N3A N -0.1479(7) 0.1924(7) 0.2536(4)
N4A N -0.0595(7) 0.1028(7) 0.2542(4)
N5A N -0.0916(7) 0.2143(8) 0.2823(5)
N6A N -0.3653(7) 0.1205(7) 0.2363(4)
N7A N -0.2563(8) 0.2259(7) 0.1803(4)
N8A N -0.3168(8) 0.1988(8) 0.1567(5)
N9A N -0.2204(10) 0.2142(10) 0.1113(6)
Ni3B Ni -0.31862(10) -0.07910(11) 0.31188(7)
O15B O -0.2707(8) -0.0280(7) 0.3679(5)
O16B O -0.4220(7) -0.0586(8) 0.3482(5)
C1B C -0.0490(9) -0.3749(9) 0.2493(6)
H1B H -0.01610 -0.40910 0.23580
C2B C -0.0933(9) -0.2928(9) 0.2921(6)
H2B H -0.09810 -0.25830 0.31530
C3B C -0.1585(9) -0.0410(9) 0.2815(6)
H3B H -0.15870 0.00320 0.29840
C6B C -0.1253(9) -0.1256(9) 0.2365(5)
H6B H -0.09820 -0.15260 0.21520
N1B N -0.1488(7) -0.3096(7) 0.2640(4)
N2B N -0.0293(7) -0.3312(8) 0.2832(5)
N3B N -0.1924(7) -0.1479(7) 0.2536(4)
N4B N -0.1028(7) -0.0595(7) 0.2542(4)
N5B N -0.2143(7) -0.0916(8) 0.2823(5)
N6B N -0.1205(7) -0.3653(7) 0.2363(4)
Ni3C Ni 0.0791(1) -0.31862(11) 0.31188(7)
O15C O 0.0280(8) -0.2707(7) 0.3679(5)
O16C O 0.0586(7) -0.4220(8) 0.3482(5)
C1C C 0.3749(9) -0.0490(9) 0.2493(6)
H1C H 0.40910 -0.01610 0.23580
C2C C 0.2928(9) -0.0933(9) 0.2921(6)
H2C H 0.25830 -0.09810 0.31530
C3C C 0.0410(9) -0.1585(9) 0.2815(6)
H3C H -0.00320 -0.15870 0.29840
C6C C 0.1256(9) -0.1253(9) 0.2365(5)
H6C H 0.15260 -0.09820 0.21520
N1C N 0.3096(7) -0.1488(7) 0.2640(4)
N2C N 0.3312(7) -0.0293(8) 0.2832(5)
N3C N 0.1479(7) -0.1924(7) 0.2536(4)
N4C N 0.0595(7) -0.1028(7) 0.2542(4)
N5C N 0.0916(7) -0.2143(8) 0.2823(5)
N6C N 0.3653(7) -0.1205(7) 0.2363(4)
C4L C 0.2673(12) 0.3008(10) 0.3465(7)
H4L H 0.25200 0.34920 0.33820
C5L C 0.3059(12) 0.2038(12) 0.3846(8)
H5L H 0.32060 0.17250 0.40800
N7L N 0.2741(8) 0.2437(7) 0.3197(4)
N8L N 0.3012(8) 0.1832(8) 0.3433(5)
N9L N 0.2858(10) 0.2796(10) 0.3887(6)
C4M C -0.3008(12) 0.2673(10) 0.3465(7)
H4M H -0.34920 0.25200 0.33820
C5M C -0.2038(12) 0.3059(12) 0.3846(8)
H5M H -0.17250 0.32060 0.40800
N7M N -0.2437(8) 0.2741(7) 0.3197(4)
N8M N -0.1832(8) 0.3012(8) 0.3433(5)
N9M N -0.2796(10) 0.2858(10) 0.3887(6)
Ni2B Ni -0.25000 -0.25000 0.25000
Ni2C Ni 0.25000 -0.25000 0.25000
Ni3L Ni 0.18138(10) 0.42090(11) 0.18812(7)
Ni3M Ni -0.4209(1) 0.18138(11) 0.18812(7)
Ni3N Ni -0.18138(10) -0.42090(11) 0.18812(7)
Ni3O Ni 0.4209(1) -0.18138(11) 0.18812(7)
N1L N 0.3512(7) 0.1904(7) 0.2360(4)
N1M N -0.1904(7) 0.3512(7) 0.2360(4)
N3L N 0.3076(7) 0.3521(7) 0.2464(4)
N3M N -0.3521(7) 0.3076(7) 0.2464(4)
N6L N 0.3795(7) 0.1347(7) 0.2637(4)
N6M N -0.1347(7) 0.3795(7) 0.2637(4)
N6N N -0.3795(7) -0.1347(7) 0.2637(4)
N6O N 0.1347(7) -0.3795(7) 0.2637(4)
N8N N -0.3012(8) -0.1832(8) 0.3433(5)
N8O N 0.1832(8) -0.3012(8) 0.3433(5)
#END
