
#######################################################################
#
#                 Cambridge Crystallographic Data Centre
#                                CCDC
#
#######################################################################
#
# If this CIF has been generated from an entry in the Cambridge
# Structural Database, then it will include bibliographic, chemical,
# crystal, experimental, refinement or atomic coordinate data resulting
# from the CCDC's data processing and validation procedures.
#
#######################################################################

data_CSD_CIF_VEKZAP
_audit_creation_date 2018-01-18
_audit_creation_method CSD-ConQuest-V1
_database_code_CSD VEKZAP
_database_code_depnum_ccdc_archive 'CCDC 1580145'
_chemical_formula_sum 'C48 H97 N72 Ni14 O108 V11 W19'
_chemical_formula_moiety
;
H3 O1 1+,n(C48 H48 N72 Ni14 O84 V11 W19 1-),23(H2 O1)
;
_journal_coden_Cambridge 9
_journal_volume 57
_journal_year 2018
_journal_page_first 1342
_journal_name_full 'Inorg.Chem. '
loop_
_publ_author_name
"Yu-Jie Wang"
"Yang-Yang Zhou"
"Hong-Guo Hao"
"Man Song"
"Na Zhang"
"Shuang Yao"
"Jing-Hui Yan"
"Zhi-Ming Zhang"
"Tong-Bu Lu"
_chemical_name_systematic
;
catena-[oxonium 
hexacontakis(\m-oxo)-dodecakis(\m-1,2,4-triazolyl)-tetracosa-oxo-hepta-nickel(
ii)-nonadeca-tungsten(vi)-tetra-vanadium(iv)-hepta-vanadium(v) 
tricosahydrate]
;
_cell_volume   9450.164
_exptl_crystal_colour 'black'
_exptl_special_details
;
The reported formula and description in the paper do not give a likely 
location for the additional proton required for charge balance. The 2D 
representation has arbitrarily located this as an oxonium cation
;
_exptl_crystal_description 'block'
_diffrn_ambient_temperature 296
_refine_special_details
;
The structure is disordered by symmetry.

;
#These two values have been output from a single CSD field.
_refine_ls_R_factor_gt 0.06
_refine_ls_wR_factor_gt 0.06
_symmetry_cell_setting tetragonal
_symmetry_space_group_name_H-M 'I 4/m'
_symmetry_Int_Tables_number 87
loop_
_symmetry_equiv_pos_site_id
_symmetry_equiv_pos_as_xyz
1 x,y,z
2 -x,-y,z
3 -y,x,z
4 y,-x,z
5 1/2+x,1/2+y,1/2+z
6 1/2-x,1/2-y,1/2+z
7 1/2-y,1/2+x,1/2+z
8 1/2+y,1/2-x,1/2+z
9 -x,-y,-z
10 x,y,-z
11 y,-x,-z
12 -y,x,-z
13 -1/2-x,-1/2-y,-1/2-z
14 -1/2+x,-1/2+y,-1/2-z
15 -1/2+y,-1/2-x,-1/2-z
16 -1/2-y,-1/2+x,-1/2-z
_cell_length_a 17.6052(9)
_cell_length_b 17.6052(9)
_cell_length_c 30.490(2)
_cell_angle_alpha 90
_cell_angle_beta 90
_cell_angle_gamma 90
_cell_formula_units_Z 2
loop_
_atom_type_symbol
_atom_type_radius_bond
C 0.68
H 0.23
N 0.68
Ni 1.24
O 0.68
V 1.53
W 1.62
loop_
_atom_site_label
_atom_site_type_symbol
_atom_site_fract_x
_atom_site_fract_y
_atom_site_fract_z
W1 W 0.98460(4) 0.14924(4) 0.42128(2)
V1 V 0.83993(15) 0.12702(15) 0.50000
V2 V 1.00000 0.00000 0.36852(17)
V3 V 1.00000 0.00000 0.50000
O1 O 0.9767(9) 0.2116(7) 0.3804(4)
O2 O 0.9223(7) 0.0617(6) 0.3958(5)
O3 O 1.0575(8) 0.1906(9) 0.4555(5)
O4 O 0.9048(8) 0.1736(9) 0.4558(5)
O5 O 1.0429(10) 0.0557(11) 0.4712(6)
O6 O 1.00000 0.00000 0.3159(8)
O7 O 0.7690(12) 0.1832(10) 0.50000
W2 W 0.87922(5) 0.08760(5) 0.07851(3)
W3 W 0.79813(8) -0.03422(10) 0.00000
V4 V 1.00000 0.00000 0.1297(2)
V5 V 1.00000 0.00000 0.00000
O8 O 0.9841(6) 0.1002(7) 0.1057(5)
O9 O 0.8958(8) 0.1712(9) 0.0436(5)
O10 O 0.8066(10) 0.0455(7) 0.0445(5)
O11 O 0.8268(9) 0.1243(9) 0.1187(6)
O12 O 1.00000 0.00000 0.1815(8)
O13 O 0.7052(10) -0.0492(10) 0.00000
O14 O 0.9294(11) -0.0124(12) 0.0269(7)
Ni1 Ni 1.00000 0.00000 0.24928(11)
Ni2 Ni 0.92061(10) 0.31827(9) 0.18883(6)
Ni3 Ni 0.75000 0.25000 0.25000
C1 C 0.8743(8) 0.4514(8) 0.2491(5)
H1 H 0.90750 0.48530 0.23570
C2 C 0.7927(8) 0.4066(8) 0.2904(5)
H2 H 0.75630 0.40220 0.31240
C3 C 0.8745(7) 0.1246(8) 0.2623(5)
H3 H 0.84630 0.09680 0.28250
C4 C 0.9599(9) 0.1582(8) 0.2197(5)
H4 H 1.00510 0.15920 0.20400
C5 C 0.6987(8) 0.2715(10) 0.1550(6)
H5 H 0.65010 0.25520 0.16230
C6 C 0.7934(10) 0.3104(10) 0.1166(6)
H6 H 0.82490 0.32390 0.09340
N1 N 0.8531(6) 0.1921(6) 0.2465(4)
N2 N 0.9402(6) 0.1019(6) 0.2462(4)
N3 N 0.8662(6) 0.3796(6) 0.2363(4)
N4 N 0.8304(6) 0.4704(6) 0.2829(4)
N5 N 0.9078(7) 0.2138(7) 0.2179(4)
N6 N 0.7209(9) 0.2945(9) 0.1138(5)
N7 N 0.7539(6) 0.2757(7) 0.1817(5)
N8 N 0.8107(7) 0.3508(6) 0.2646(4)
N9 N 0.8142(7) 0.3038(7) 0.1581(4)
O15 O 0.9416(7) 0.4200(7) 0.1529(5)
O16 O 0.9707(7) 0.2646(7) 0.1342(4)
O17 O 0.8572(13) 0.5438(12) 0.1503(8)
O18 O 1.089(2) 0.347(2) 0.0914(11)
O19 O 0.714(3) 0.159(3) 0.00000
O20 O 0.962(5) 0.312(6) 0.50000
O21 O 0.907(4) 0.420(4) 0.052(2)
W4? W 0.83993(15) 0.12702(15) 0.50000
V6? V 0.79813(8) -0.03422(10) 0.00000
W1A W 1.01540(4) -0.14924(4) 0.42128(2)
V1A V 1.16007(15) -0.12702(15) 0.50000
O1A O 1.0233(9) -0.2116(7) 0.3804(4)
O2A O 1.0777(7) -0.0617(6) 0.3958(5)
O3A O 0.9425(8) -0.1906(9) 0.4555(5)
O4A O 1.0952(8) -0.1736(9) 0.4558(5)
O5A O 0.9571(10) -0.0557(11) 0.4712(6)
O7A O 1.2310(12) -0.1832(10) 0.50000
W1B W 0.85076(4) -0.01540(4) 0.42128(2)
V1B V 0.87298(15) -0.16007(15) 0.50000
O1B O 0.7884(9) -0.0233(7) 0.3804(4)
O2B O 0.9383(7) -0.0777(6) 0.3958(5)
O3B O 0.8094(8) 0.0575(9) 0.4555(5)
O4B O 0.8264(8) -0.0952(9) 0.4558(5)
O5B O 0.9443(10) 0.0429(11) 0.4712(6)
O7B O 0.8168(12) -0.231(1) 0.50000
W1C W 1.14924(4) 0.01540(4) 0.42128(2)
V1C V 1.12702(15) 0.16007(15) 0.50000
O1C O 1.2116(9) 0.0233(7) 0.3804(4)
O2C O 1.0617(7) 0.0777(6) 0.3958(5)
O3C O 1.1906(8) -0.0575(9) 0.4555(5)
O4C O 1.1736(8) 0.0952(9) 0.4558(5)
O5C O 1.0557(10) -0.0429(11) 0.4712(6)
O7C O 1.1832(12) 0.231(1) 0.50000
W1H W 1.01540(4) -0.14924(4) 0.57872(2)
V2H V 1.00000 0.00000 0.63148(17)
O1H O 1.0233(9) -0.2116(7) 0.6196(4)
O2H O 1.0777(7) -0.0617(6) 0.6042(5)
O3H O 0.9425(8) -0.1906(9) 0.5445(5)
O4H O 1.0952(8) -0.1736(9) 0.5442(5)
O5H O 0.9571(10) -0.0557(11) 0.5288(6)
O6H O 1.00000 0.00000 0.6841(8)
W1I W 0.98460(4) 0.14924(4) 0.57872(2)
O1I O 0.9767(9) 0.2116(7) 0.6196(4)
O2I O 0.9223(7) 0.0617(6) 0.6042(5)
O3I O 1.0575(8) 0.1906(9) 0.5445(5)
O4I O 0.9048(8) 0.1736(9) 0.5442(5)
O5I O 1.0429(10) 0.0557(11) 0.5288(6)
W1J W 1.14924(4) 0.01540(4) 0.57872(2)
O1J O 1.2116(9) 0.0233(7) 0.6196(4)
O2J O 1.0617(7) 0.0777(6) 0.6042(5)
O3J O 1.1906(8) -0.0575(9) 0.5445(5)
O4J O 1.1736(8) 0.0952(9) 0.5442(5)
O5J O 1.0557(10) -0.0429(11) 0.5288(6)
W1K W 0.85076(4) -0.01540(4) 0.57872(2)
O1K O 0.7884(9) -0.0233(7) 0.6196(4)
O2K O 0.9383(7) -0.0777(6) 0.6042(5)
O3K O 0.8094(8) 0.0575(9) 0.5445(5)
O4K O 0.8264(8) -0.0952(9) 0.5442(5)
O5K O 0.9443(10) 0.0429(11) 0.5288(6)
W2A W 1.12078(5) -0.08760(5) 0.07851(3)
W3A W 1.20187(8) 0.03422(10) 0.00000
O8A O 1.0159(6) -0.1002(7) 0.1057(5)
O9A O 1.1042(8) -0.1712(9) 0.0436(5)
O10A O 1.1934(10) -0.0455(7) 0.0445(5)
O11A O 1.1732(9) -0.1243(9) 0.1187(6)
O13A O 1.2948(10) 0.0492(10) 0.00000
O14A O 1.0706(11) 0.0124(12) 0.0269(7)
W2B W 0.91240(5) -0.12078(5) 0.07851(3)
W3B W 1.03422(8) -0.20187(10) 0.00000
O8B O 0.8998(6) -0.0159(7) 0.1057(5)
O9B O 0.8288(8) -0.1042(9) 0.0436(5)
O10B O 0.9545(10) -0.1934(7) 0.0445(5)
O11B O 0.8757(9) -0.1732(9) 0.1187(6)
O13B O 1.0492(10) -0.2948(10) 0.00000
O14B O 1.0124(11) -0.0706(12) 0.0269(7)
W2C W 1.08760(5) 0.12078(5) 0.07851(3)
W3C W 0.96578(8) 0.20187(10) 0.00000
O8C O 1.1002(6) 0.0159(7) 0.1057(5)
O9C O 1.1712(8) 0.1042(9) 0.0436(5)
O10C O 1.0455(10) 0.1934(7) 0.0445(5)
O11C O 1.1243(9) 0.1732(9) 0.1187(6)
O13C O 0.9508(10) 0.2948(10) 0.00000
O14C O 0.9876(11) 0.0706(12) 0.0269(7)
W2H W 1.12078(5) -0.08760(5) -0.07851(3)
V4H V 1.00000 0.00000 -0.1297(2)
O8H O 1.0159(6) -0.1002(7) -0.1057(5)
O9H O 1.1042(8) -0.1712(9) -0.0436(5)
O10H O 1.1934(10) -0.0455(7) -0.0445(5)
O11H O 1.1732(9) -0.1243(9) -0.1187(6)
O12H O 1.00000 0.00000 -0.1815(8)
O14H O 1.0706(11) 0.0124(12) -0.0269(7)
W2I W 0.87922(5) 0.08760(5) -0.07851(3)
O8I O 0.9841(6) 0.1002(7) -0.1057(5)
O9I O 0.8958(8) 0.1712(9) -0.0436(5)
O10I O 0.8066(10) 0.0455(7) -0.0445(5)
O11I O 0.8268(9) 0.1243(9) -0.1187(6)
O14I O 0.9294(11) -0.0124(12) -0.0269(7)
W2J W 1.08760(5) 0.12078(5) -0.07851(3)
O8J O 1.1002(6) 0.0159(7) -0.1057(5)
O9J O 1.1712(8) 0.1042(9) -0.0436(5)
O10J O 1.0455(10) 0.1934(7) -0.0445(5)
O11J O 1.1243(9) 0.1732(9) -0.1187(6)
O14J O 0.9876(11) 0.0706(12) -0.0269(7)
W2K W 0.91240(5) -0.12078(5) -0.07851(3)
O8K O 0.8998(6) -0.0159(7) -0.1057(5)
O9K O 0.8288(8) -0.1042(9) -0.0436(5)
O10K O 0.9545(10) -0.1934(7) -0.0445(5)
O11K O 0.8757(9) -0.1732(9) -0.1187(6)
O14K O 1.0124(11) -0.0706(12) -0.0269(7)
Ni2A Ni 1.07939(10) -0.31827(9) 0.18883(6)
Ni3A Ni 1.25000 -0.25000 0.25000
C1A C 1.1257(8) -0.4514(8) 0.2491(5)
H1A H 1.09250 -0.48530 0.23570
C2A C 1.2073(8) -0.4066(8) 0.2904(5)
H2A H 1.24370 -0.40220 0.31240
C3A C 1.1255(7) -0.1246(8) 0.2623(5)
H3A H 1.15370 -0.09680 0.28250
C4A C 1.0401(9) -0.1582(8) 0.2197(5)
H4A H 0.99490 -0.15920 0.20400
C5A C 1.3013(8) -0.2715(10) 0.1550(6)
H5A H 1.34990 -0.25520 0.16230
C6A C 1.2066(10) -0.3104(10) 0.1166(6)
H6A H 1.17510 -0.32390 0.09340
N1A N 1.1469(6) -0.1921(6) 0.2465(4)
N2A N 1.0598(6) -0.1019(6) 0.2462(4)
N3A N 1.1338(6) -0.3796(6) 0.2363(4)
N4A N 1.1696(6) -0.4704(6) 0.2829(4)
N5A N 1.0922(7) -0.2138(7) 0.2179(4)
N6A N 1.2791(9) -0.2945(9) 0.1138(5)
N7A N 1.2461(6) -0.2757(7) 0.1817(5)
N8A N 1.1893(7) -0.3508(6) 0.2646(4)
N9A N 1.1858(7) -0.3038(7) 0.1581(4)
O15A O 1.0584(7) -0.4200(7) 0.1529(5)
O16A O 1.0293(7) -0.2646(7) 0.1342(4)
Ni2B Ni 0.68173(10) -0.07939(9) 0.18883(6)
Ni3B Ni 0.75000 -0.25000 0.25000
C1B C 0.5486(8) -0.1257(8) 0.2491(5)
H1B H 0.51470 -0.09250 0.23570
C2B C 0.5934(8) -0.2073(8) 0.2904(5)
H2B H 0.59780 -0.24370 0.31240
C3B C 0.8754(7) -0.1255(8) 0.2623(5)
H3B H 0.90320 -0.15370 0.28250
C4B C 0.8418(9) -0.0401(8) 0.2197(5)
H4B H 0.84080 0.00510 0.20400
C5B C 0.7285(8) -0.3013(10) 0.1550(6)
H5B H 0.74480 -0.34990 0.16230
C6B C 0.6896(10) -0.2066(10) 0.1166(6)
H6B H 0.67610 -0.17510 0.09340
N1B N 0.8079(6) -0.1469(6) 0.2465(4)
N2B N 0.8981(6) -0.0598(6) 0.2462(4)
N3B N 0.6204(6) -0.1338(6) 0.2363(4)
N4B N 0.5296(6) -0.1696(6) 0.2829(4)
N5B N 0.7862(7) -0.0922(7) 0.2179(4)
N6B N 0.7055(9) -0.2791(9) 0.1138(5)
N7B N 0.7243(6) -0.2461(7) 0.1817(5)
N8B N 0.6492(7) -0.1893(6) 0.2646(4)
N9B N 0.6962(7) -0.1858(7) 0.1581(4)
O15B O 0.5800(7) -0.0584(7) 0.1529(5)
O16B O 0.7354(7) -0.0293(7) 0.1342(4)
Ni2C Ni 1.31827(10) 0.07939(9) 0.18883(6)
Ni3C Ni 1.25000 0.25000 0.25000
C1C C 1.4514(8) 0.1257(8) 0.2491(5)
H1C H 1.48530 0.09250 0.23570
C2C C 1.4066(8) 0.2073(8) 0.2904(5)
H2C H 1.40220 0.24370 0.31240
C3C C 1.1246(7) 0.1255(8) 0.2623(5)
H3C H 1.09680 0.15370 0.28250
C4C C 1.1582(9) 0.0401(8) 0.2197(5)
H4C H 1.15920 -0.00510 0.20400
C5C C 1.2715(8) 0.3013(10) 0.1550(6)
H5C H 1.25520 0.34990 0.16230
C6C C 1.3104(10) 0.2066(10) 0.1166(6)
H6C H 1.32390 0.17510 0.09340
N1C N 1.1921(6) 0.1469(6) 0.2465(4)
N2C N 1.1019(6) 0.0598(6) 0.2462(4)
N3C N 1.3796(6) 0.1338(6) 0.2363(4)
N4C N 1.4704(6) 0.1696(6) 0.2829(4)
N5C N 1.2138(7) 0.0922(7) 0.2179(4)
N6C N 1.2945(9) 0.2791(9) 0.1138(5)
N7C N 1.2757(6) 0.2461(7) 0.1817(5)
N8C N 1.3508(7) 0.1893(6) 0.2646(4)
N9C N 1.3038(7) 0.1858(7) 0.1581(4)
O15C O 1.4200(7) 0.0584(7) 0.1529(5)
O16C O 1.2646(7) 0.0293(7) 0.1342(4)
Ni1H Ni 1.00000 0.00000 -0.24928(11)
Ni2H Ni 1.07939(10) -0.31827(9) -0.18883(6)
C1H C 1.1257(8) -0.4514(8) -0.2491(5)
H1H H 1.09250 -0.48530 -0.23570
C2H C 1.2073(8) -0.4066(8) -0.2904(5)
H2H H 1.24370 -0.40220 -0.31240
C3H C 1.1255(7) -0.1246(8) -0.2623(5)
H3H H 1.15370 -0.09680 -0.28250
C4H C 1.0401(9) -0.1582(8) -0.2197(5)
H4H H 0.99490 -0.15920 -0.20400
C5H C 1.3013(8) -0.2715(10) -0.1550(6)
H5H H 1.34990 -0.25520 -0.16230
C6H C 1.2066(10) -0.3104(10) -0.1166(6)
H6H H 1.17510 -0.32390 -0.09340
N1H N 1.1469(6) -0.1921(6) -0.2465(4)
N2H N 1.0598(6) -0.1019(6) -0.2462(4)
N3H N 1.1338(6) -0.3796(6) -0.2363(4)
N4H N 1.1696(6) -0.4704(6) -0.2829(4)
N5H N 1.0922(7) -0.2138(7) -0.2179(4)
N6H N 1.2791(9) -0.2945(9) -0.1138(5)
N7H N 1.2461(6) -0.2757(7) -0.1817(5)
N8H N 1.1893(7) -0.3508(6) -0.2646(4)
N9H N 1.1858(7) -0.3038(7) -0.1581(4)
O15H O 1.0584(7) -0.4200(7) -0.1529(5)
O16H O 1.0293(7) -0.2646(7) -0.1342(4)
Ni2I Ni 0.92061(10) 0.31827(9) -0.18883(6)
C1I C 0.8743(8) 0.4514(8) -0.2491(5)
H1I H 0.90750 0.48530 -0.23570
C2I C 0.7927(8) 0.4066(8) -0.2904(5)
H2I H 0.75630 0.40220 -0.31240
C3I C 0.8745(7) 0.1246(8) -0.2623(5)
H3I H 0.84630 0.09680 -0.28250
C4I C 0.9599(9) 0.1582(8) -0.2197(5)
H4I H 1.00510 0.15920 -0.20400
C5I C 0.6987(8) 0.2715(10) -0.1550(6)
H5I H 0.65010 0.25520 -0.16230
C6I C 0.7934(10) 0.3104(10) -0.1166(6)
H6I H 0.82490 0.32390 -0.09340
N1I N 0.8531(6) 0.1921(6) -0.2465(4)
N2I N 0.9402(6) 0.1019(6) -0.2462(4)
N3I N 0.8662(6) 0.3796(6) -0.2363(4)
N4I N 0.8304(6) 0.4704(6) -0.2829(4)
N5I N 0.9078(7) 0.2138(7) -0.2179(4)
N6I N 0.7209(9) 0.2945(9) -0.1138(5)
N7I N 0.7539(6) 0.2757(7) -0.1817(5)
N8I N 0.8107(7) 0.3508(6) -0.2646(4)
N9I N 0.8142(7) 0.3038(7) -0.1581(4)
O15I O 0.9416(7) 0.4200(7) -0.1529(5)
O16I O 0.9707(7) 0.2646(7) -0.1342(4)
Ni2J Ni 1.31827(10) 0.07939(9) -0.18883(6)
C1J C 1.4514(8) 0.1257(8) -0.2491(5)
H1J H 1.48530 0.09250 -0.23570
C2J C 1.4066(8) 0.2073(8) -0.2904(5)
H2J H 1.40220 0.24370 -0.31240
C3J C 1.1246(7) 0.1255(8) -0.2623(5)
H3J H 1.09680 0.15370 -0.28250
C4J C 1.1582(9) 0.0401(8) -0.2197(5)
H4J H 1.15920 -0.00510 -0.20400
C5J C 1.2715(8) 0.3013(10) -0.1550(6)
H5J H 1.25520 0.34990 -0.16230
C6J C 1.3104(10) 0.2066(10) -0.1166(6)
H6J H 1.32390 0.17510 -0.09340
N1J N 1.1921(6) 0.1469(6) -0.2465(4)
N2J N 1.1019(6) 0.0598(6) -0.2462(4)
N3J N 1.3796(6) 0.1338(6) -0.2363(4)
N4J N 1.4704(6) 0.1696(6) -0.2829(4)
N5J N 1.2138(7) 0.0922(7) -0.2179(4)
N6J N 1.2945(9) 0.2791(9) -0.1138(5)
N7J N 1.2757(6) 0.2461(7) -0.1817(5)
N8J N 1.3508(7) 0.1893(6) -0.2646(4)
N9J N 1.3038(7) 0.1858(7) -0.1581(4)
O15J O 1.4200(7) 0.0584(7) -0.1529(5)
O16J O 1.2646(7) 0.0293(7) -0.1342(4)
Ni2K Ni 0.68173(10) -0.07939(9) -0.18883(6)
C1K C 0.5486(8) -0.1257(8) -0.2491(5)
H1K H 0.51470 -0.09250 -0.23570
C2K C 0.5934(8) -0.2073(8) -0.2904(5)
H2K H 0.59780 -0.24370 -0.31240
C3K C 0.8754(7) -0.1255(8) -0.2623(5)
H3K H 0.90320 -0.15370 -0.28250
C4K C 0.8418(9) -0.0401(8) -0.2197(5)
H4K H 0.84080 0.00510 -0.20400
C5K C 0.7285(8) -0.3013(10) -0.1550(6)
H5K H 0.74480 -0.34990 -0.16230
C6K C 0.6896(10) -0.2066(10) -0.1166(6)
H6K H 0.67610 -0.17510 -0.09340
N1K N 0.8079(6) -0.1469(6) -0.2465(4)
N2K N 0.8981(6) -0.0598(6) -0.2462(4)
N3K N 0.6204(6) -0.1338(6) -0.2363(4)
N4K N 0.5296(6) -0.1696(6) -0.2829(4)
N5K N 0.7862(7) -0.0922(7) -0.2179(4)
N6K N 0.7055(9) -0.2791(9) -0.1138(5)
N7K N 0.7243(6) -0.2461(7) -0.1817(5)
N8K N 0.6492(7) -0.1893(6) -0.2646(4)
N9K N 0.6962(7) -0.1858(7) -0.1581(4)
O15K O 0.5800(7) -0.0584(7) -0.1529(5)
O16K O 0.7354(7) -0.0293(7) -0.1342(4)
O6H* O 1.00000 0.00000 -0.3159(8)
Ni1H* Ni 1.00000 0.00000 0.75072(11)
Ni2D Ni 0.42061(10) -0.18173(9) -0.31117(6)
Ni2E Ni 1.57939(10) 0.18173(9) -0.31117(6)
Ni2F Ni 1.18173(10) -0.57939(9) -0.31117(6)
Ni2G Ni 0.81827(10) 0.57939(9) -0.31117(6)
Ni2L Ni 1.57939(10) 0.18173(9) 0.31117(6)
Ni2M Ni 0.42061(10) -0.18173(9) 0.31117(6)
Ni2N Ni 0.81827(10) 0.57939(9) 0.31117(6)
Ni2O Ni 1.18173(10) -0.57939(9) 0.31117(6)
Ni3D Ni 1.25000 -0.25000 -0.25000
Ni3E Ni 0.75000 0.25000 -0.25000
Ni3F Ni 1.25000 0.25000 -0.25000
Ni3G Ni 0.75000 -0.25000 -0.25000
N1L N 0.6469(6) 0.3079(6) 0.2535(4)
N1M N 1.3531(6) -0.3079(6) 0.2535(4)
N1N N 0.6921(6) -0.3531(6) 0.2535(4)
N1O N 1.3079(6) 0.3531(6) 0.2535(4)
N4D N 1.3304(6) -0.0296(6) -0.2171(4)
N4E N 0.6696(6) 0.0296(6) -0.2171(4)
N4F N 1.0296(6) 0.3304(6) -0.2171(4)
N4G N 0.9704(6) -0.3304(6) -0.2171(4)
N4L N 0.6696(6) 0.0296(6) 0.2171(4)
N4M N 1.3304(6) -0.0296(6) 0.2171(4)
N4N N 0.9704(6) -0.3304(6) 0.2171(4)
N4O N 1.0296(6) 0.3304(6) 0.2171(4)
N7L N 0.7461(6) 0.2243(7) 0.3183(5)
N7M N 1.2539(6) -0.2243(7) 0.3183(5)
N7N N 0.7757(6) -0.2539(7) 0.3183(5)
N7O N 1.2243(6) 0.2539(7) 0.3183(5)
N8L N 0.6893(7) 0.1492(6) 0.2354(4)
N8M N 1.3107(7) -0.1492(6) 0.2354(4)
N8N N 0.8508(7) -0.3107(6) 0.2354(4)
N8O N 1.1492(7) 0.3107(6) 0.2354(4)
#END
