
#######################################################################
#
#                 Cambridge Crystallographic Data Centre
#                                CCDC
#
#######################################################################
#
# If this CIF has been generated from an entry in the Cambridge
# Structural Database, then it will include bibliographic, chemical,
# crystal, experimental, refinement or atomic coordinate data resulting
# from the CCDC's data processing and validation procedures.
#
#######################################################################

data_CSD_CIF_VELFIC
_audit_creation_date 2006-09-28
_audit_creation_method CSD-ConQuest-V1
_database_code_CSD VELFIC
_database_code_depnum_ccdc_archive 'CCDC 616976'
_chemical_formula_sum 'C24 H20 Cu1 N6 O10'
_chemical_formula_moiety
;
(C12 H12 N2 2+)n,n(C12 H4 Cu1 N4 O8 2-),2n(H2 O1)
;
_journal_coden_Cambridge 9
_journal_volume 45
_journal_year 2006
_journal_page_first 5367
_journal_name_full 'Inorg.Chem. '
loop_
_publ_author_name
"G.Beobide"
"O.Castillo"
"A.Luque"
"U.Garcia-Couceiro"
"J.P.Garcia-Teran"
"P.Roman"
_chemical_name_systematic
;
catena-[1,2-bis(4-Pyridinio)ethene 
bis(\m~2~-pyrazine-2,3-dicarboxylato)-copper(ii) dihydrate]
;
_cell_volume    603.718
_exptl_crystal_colour 'blue'
_exptl_crystal_density_diffrn 1.694
_exptl_special_details
;
magnetic properties

;
_exptl_crystal_description 'prismatic'
_diffrn_ambient_temperature 293
#These two values have been output from a single CSD field.
_refine_ls_R_factor_gt 0.0431
_refine_ls_wR_factor_gt 0.0431
_symmetry_cell_setting triclinic
_symmetry_space_group_name_H-M 'P -1'
_symmetry_Int_Tables_number 2
loop_
_symmetry_equiv_pos_site_id
_symmetry_equiv_pos_as_xyz
1 x,y,z
2 -x,-y,-z
_cell_length_a 6.430(1)
_cell_length_b 8.052(1)
_cell_length_c 11.914(2)
_cell_angle_alpha 95.26(1)
_cell_angle_beta 94.99(1)
_cell_angle_gamma 98.85(1)
_cell_formula_units_Z 1
loop_
_atom_type_symbol
_atom_type_radius_bond
C 0.68
H 0.23
Cu 1.52
N 0.68
O 0.68
loop_
_atom_site_label
_atom_site_type_symbol
_atom_site_fract_x
_atom_site_fract_y
_atom_site_fract_z
Cu1 Cu 0.50000 0.00000 0.00000
N1 N 0.6893(2) -0.14794(18) -0.06342(13)
C1 C 0.8376(2) -0.0626(2) -0.11900(14)
C2 C 0.9751(3) -0.1485(2) -0.17634(15)
N2 N 0.9659(3) -0.3163(2) -0.17524(16)
C3 C 0.8199(3) -0.3971(2) -0.1175(2)
C4 C 0.6781(3) -0.3133(2) -0.06245(17)
C5 C 0.8405(3) 0.1268(2) -0.10864(15)
O1 O 0.6974(2) 0.17803(16) -0.05345(13)
O2 O 0.9768(2) 0.21659(18) -0.15169(14)
C6 C 1.1454(3) -0.0626(2) -0.24306(16)
O3 O 1.3274(2) -0.0301(2) -0.19576(13)
O4 O 1.0843(2) -0.0380(2) -0.34203(12)
N3 N 0.6100(3) -0.1562(2) -0.57404(15)
C7 C 0.6207(3) -0.2021(3) -0.46857(18)
C8 C 0.4507(3) -0.3016(3) -0.43291(18)
C9 C 0.2657(3) -0.3551(2) -0.50607(16)
C10 C 0.2620(3) -0.3036(3) -0.61433(19)
C11 C 0.4367(3) -0.2048(3) -0.6460(2)
C12 C 0.0867(3) -0.4636(3) -0.46765(18)
O5 O 0.6963(3) -0.4628(3) -0.7928(2)
H1 H 0.812(5) -0.507(5) -0.119(3)
H2 H 0.579(5) -0.369(4) -0.019(3)
H3 H 0.698(6) -0.095(5) -0.596(3)
H4 H 0.744(5) -0.165(5) -0.425(3)
H5 H 0.456(5) -0.334(5) -0.361(3)
H6 H 0.151(5) -0.336(5) -0.664(3)
H7 H 0.443(5) -0.160(5) -0.713(3)
H8 H 0.111(5) -0.482(4) -0.396(3)
H9 H 0.734(7) -0.366(6) -0.801(4)
H10 H 0.790(6) -0.548(5) -0.813(3)
Cu1* Cu 1.50000 0.00000 0.00000
Cu1** Cu -0.50000 0.00000 0.00000
N1A N 0.3107(2) 0.14794(18) 0.06342(13)
C1A C 0.1624(2) 0.0626(2) 0.11900(14)
C2A C 0.0249(3) 0.1485(2) 0.17634(15)
N2A N 0.0341(3) 0.3163(2) 0.17524(16)
C3A C 0.1801(3) 0.3971(2) 0.1175(2)
C4A C 0.3219(3) 0.3133(2) 0.06245(17)
C5A C 0.1595(3) -0.1268(2) 0.10864(15)
O1A O 0.3026(2) -0.17803(16) 0.05345(13)
O2A O 0.0232(2) -0.21659(18) 0.15169(14)
C6A C -0.1454(3) 0.0626(2) 0.24306(16)
O3A O -0.3274(2) 0.0301(2) 0.19576(13)
O3* O 0.3274(2) -0.0301(2) -0.19576(13)
O3A* O 0.6726(2) 0.0301(2) 0.19576(13)
O4A O -0.0843(2) 0.0380(2) 0.34203(12)
N3A N -0.6100(3) -0.8438(2) -0.42596(15)
C7A C -0.6207(3) -0.7979(3) -0.53143(18)
C8A C -0.4507(3) -0.6984(3) -0.56709(18)
C9A C -0.2657(3) -0.6449(2) -0.49393(16)
C10A C -0.2620(3) -0.6964(3) -0.38567(19)
C11A C -0.4367(3) -0.7952(3) -0.3540(2)
C12A C -0.0867(3) -0.5364(3) -0.53235(18)
H1A H 0.188(5) 0.507(5) 0.119(3)
H2A H 0.421(5) 0.369(4) 0.019(3)
H3A H -0.698(6) -0.905(5) -0.404(3)
H4A H -0.744(5) -0.835(5) -0.575(3)
H5A H -0.456(5) -0.666(5) -0.639(3)
H6A H -0.151(5) -0.664(5) -0.336(3)
H7A H -0.443(5) -0.840(5) -0.287(3)
H8A H -0.111(5) -0.518(4) -0.604(3)
#END
