
#######################################################################
#
#                 Cambridge Crystallographic Data Centre
#                                CCDC
#
#######################################################################
#
# If this CIF has been generated from an entry in the Cambridge
# Structural Database, then it will include bibliographic, chemical,
# crystal, experimental, refinement or atomic coordinate data resulting
# from the CCDC's data processing and validation procedures.
#
#######################################################################

data_CSD_CIF_VELLUU
_audit_creation_date 2006-09-28
_audit_creation_method CSD-ConQuest-V1
_database_code_CSD VELLUU
_database_code_depnum_ccdc_archive 'CCDC 618290'
_chemical_formula_sum 'C16 H40 N6 Nd2 O27'
_chemical_formula_moiety
;
(C1 H6 N3 1+)2n,n(C14 H14 Nd2 O20 2-),7n(H2 O1)
;
_journal_coeditor_code "IUCr NG2034"
_journal_coden_Cambridge 1370
_journal_volume 62
_journal_year 2006
_journal_page_first m1725
_journal_name_full 'Acta Crystallogr.,Sect.E:Struct.Rep.Online '
loop_
_publ_author_name
"M.S.Grigoriev"
"C.Den Auwer"
"D.Meyer"
"P.Moisy"
_chemical_name_systematic
;
catena-(bis(Guanidinium) 
bis(\m~3~-hydrogencitrato)-(\m~2~-oxalato)-diaqua-dineodymium(iii) 
heptahydrate)
;
_cell_volume    869.902
_exptl_crystal_colour 'light pink'
_exptl_crystal_density_diffrn 1.98
_exptl_crystal_description 'plate'
_diffrn_ambient_temperature 298
_refine_special_details
;
One water molecule is disordered over two equal sites; the other water 
molecule has half-occupancy.
;
#These two values have been output from a single CSD field.
_refine_ls_R_factor_gt 0.0332
_refine_ls_wR_factor_gt 0.0332
_symmetry_cell_setting triclinic
_symmetry_space_group_name_H-M 'P -1'
_symmetry_Int_Tables_number 2
loop_
_symmetry_equiv_pos_site_id
_symmetry_equiv_pos_as_xyz
1 x,y,z
2 -x,-y,-z
_cell_length_a 8.2017(4)
_cell_length_b 10.0447(3)
_cell_length_c 11.0222(5)
_cell_angle_alpha 87.892(3)
_cell_angle_beta 89.505(2)
_cell_angle_gamma 73.464(3)
_cell_formula_units_Z 1
loop_
_atom_type_symbol
_atom_type_radius_bond
C 0.68
H 0.23
N 0.68
Nd 1.81
O 0.68
loop_
_atom_site_label
_atom_site_type_symbol
_atom_site_fract_x
_atom_site_fract_y
_atom_site_fract_z
Nd1 Nd 0.39086(3) 0.33312(3) 0.54647(3)
O1 O 0.6334(5) 0.1586(3) 0.4271(3)
H1 H 0.609(6) 0.086(3) 0.445(4)
H2 H 0.730(5) 0.318(4) 0.637(5)
H3 H 0.721(5) 0.190(2) 0.675(5)
O2 O 0.3158(5) 0.2488(4) 0.3549(4)
O3 O 0.3757(6) 0.2243(5) 0.1602(4)
O4 O 0.5334(4) 0.4418(3) 0.3896(3)
O5 O 0.7276(5) 0.5007(3) 0.2791(4)
O6 O 0.5883(5) -0.0848(3) 0.4046(4)
O7 O 0.6572(5) -0.2009(3) 0.2389(3)
O8 O 0.0905(4) 0.3351(3) 0.5691(3)
O9 O -0.1821(4) 0.4568(3) 0.5463(4)
O10 O 0.6641(5) 0.2722(4) 0.6632(4)
O11 O 0.5457(8) 0.2426(7) -0.0481(5)
O12 O 0.1243(11) -0.0616(8) 0.0915(8)
O13 O 0.127(4) 0.042(4) 0.345(2)
O14? O 0.152(4) 0.024(4) 0.296(2)
O15 O -0.010(2) 0.0992(17) 0.5153(18)
N1 N 0.0516(7) 0.4560(6) 0.1574(5)
H4 H -0.05150 0.46770 0.18130
H5 H 0.11890 0.37340 0.15140
N2 N 0.2635(7) 0.5457(6) 0.0876(5)
H6 H 0.32910 0.46310 0.07820
H7 H 0.29950 0.61650 0.06960
N3 N 0.0046(8) 0.6918(6) 0.1386(6)
H8 H -0.09870 0.70480 0.16240
H9 H 0.04190 0.76190 0.12040
C1 C 0.6111(7) 0.1685(5) 0.2990(5)
C2 C 0.4193(7) 0.2173(5) 0.2686(5)
C3 C 0.6988(7) 0.2752(5) 0.2500(5)
H10 H 0.82070 0.23520 0.25900
H11 H 0.67480 0.29070 0.16380
C4 C 0.6496(7) 0.4141(5) 0.3087(5)
C5 C 0.6940(7) 0.0280(5) 0.2420(5)
H12 H 0.66640 0.03650 0.15620
H13 H 0.81650 0.00790 0.24920
C6 C 0.6420(7) -0.0929(5) 0.2966(5)
C7 C -0.0251(7) 0.4399(5) 0.5335(5)
C8 C 0.1062(9) 0.5641(8) 0.1300(6)
Nd1A Nd 0.60914(3) 0.66688(3) 0.45353(3)
Nd1A* Nd 0.60914(3) -0.33312(3) 0.45353(3)
Nd1A** Nd -0.39086(3) 0.66688(3) 0.45353(3)
Nd1* Nd 0.39086(3) 1.33312(3) 0.54647(3)
O1A O 0.3666(5) 0.8414(3) 0.5729(3)
H1A H 0.391(6) 0.914(3) 0.555(4)
H2A H 0.270(5) 0.682(4) 0.363(5)
H3A H 0.279(5) 0.810(2) 0.325(5)
O2A O 0.6842(5) 0.7512(4) 0.6451(4)
O3A O 0.6243(6) 0.7757(5) 0.8398(4)
O4A O 0.4666(4) 0.5582(3) 0.6104(3)
O5A O 0.2724(5) 0.4993(3) 0.7209(4)
O6A O 0.4117(5) 1.0848(3) 0.5954(4)
O6A* O 0.4117(5) 0.0848(3) 0.5954(4)
O6* O 0.5883(5) 0.9152(3) 0.4046(4)
O7A O 0.3428(5) 1.2009(3) 0.7611(3)
O7A* O 0.3428(5) 0.2009(3) 0.7611(3)
O7* O 0.6572(5) 0.7991(3) 0.2389(3)
O8A O -0.0905(4) 0.6649(3) 0.4309(3)
O8A* O 0.9095(4) 0.6649(3) 0.4309(3)
O9A O 0.1821(4) 0.5432(3) 0.4537(4)
O9* O 0.8179(4) 0.4568(3) 0.5463(4)
O10A O 0.3359(5) 0.7278(4) 0.3368(4)
C1A C 0.3889(7) 0.8315(5) 0.7010(5)
C2A C 0.5807(7) 0.7827(5) 0.7314(5)
C3A C 0.3012(7) 0.7248(5) 0.7500(5)
H10A H 0.17930 0.76480 0.74100
H11A H 0.32520 0.70930 0.83620
C4A C 0.3504(7) 0.5859(5) 0.6913(5)
C5A C 0.3060(7) 0.9720(5) 0.7580(5)
H12A H 0.33360 0.96350 0.84380
H13A H 0.18350 0.99210 0.75080
C6A C 0.3580(7) 1.0929(5) 0.7034(5)
C7A C 0.0251(7) 0.5601(5) 0.4665(5)
#END
