
#######################################################################
#
#                 Cambridge Crystallographic Data Centre
#                                CCDC
#
#######################################################################
#
# If this CIF has been generated from an entry in the Cambridge
# Structural Database, then it will include bibliographic, chemical,
# crystal, experimental, refinement or atomic coordinate data resulting
# from the CCDC's data processing and validation procedures.
#
#######################################################################

data_CSD_CIF_VEMSUC01
_audit_creation_date 2010-03-26
_audit_creation_method CSD-ConQuest-V1
_database_code_CSD VEMSUC01
_database_code_depnum_ccdc_archive 'CCDC 719778'
_chemical_formula_sum 'C34 H34 N4 Ni3 O16'
_chemical_formula_moiety
;
(C6 H11 N2 1+)2n,n(C22 H12 Ni3 O16 2-)
;
_journal_coden_Cambridge 182
_journal_year 2009
_journal_page_first 3431
_journal_name_full 'Chem.Commun. '
loop_
_publ_author_name
"Ling Xu"
"Shihai Yan"
"Eun-Young Choi"
"Jin Yong Lee"
"Young-Uk Kwon"
_chemical_name_systematic
;
catena-[bis(1-Methyl-3-ethylimidazolium) 
bis(\m~5~-1,3,5-benzenetricarboxylato-O,O',O'',O''',O'''',O''''')-bis(\m~2~-ac
etato-O,O,O')-tri-nickel]
;
_cell_volume   3712.317
_exptl_crystal_colour 'green'
_exptl_crystal_density_diffrn 1.665
_exptl_crystal_description 'plate'
_diffrn_ambient_temperature 173
#These two values have been output from a single CSD field.
_refine_ls_R_factor_gt 0.0605
_refine_ls_wR_factor_gt 0.0605
_symmetry_cell_setting orthorhombic
_symmetry_space_group_name_H-M 'P b c a'
_symmetry_Int_Tables_number 61
loop_
_symmetry_equiv_pos_site_id
_symmetry_equiv_pos_as_xyz
1 x,y,z
2 1/2-x,-y,1/2+z
3 -x,1/2+y,1/2-z
4 1/2+x,1/2-y,-z
5 -x,-y,-z
6 -1/2+x,y,-1/2-z
7 x,-1/2-y,-1/2+z
8 -1/2-x,-1/2+y,z
_cell_length_a 14.0636(6)
_cell_length_b 15.9152(7)
_cell_length_c 16.5858(7)
_cell_angle_alpha 90
_cell_angle_beta 90
_cell_angle_gamma 90
_cell_formula_units_Z 4
loop_
_atom_type_symbol
_atom_type_radius_bond
C 0.68
H 0.23
N 0.68
Ni 1.24
O 0.68
loop_
_atom_site_label
_atom_site_type_symbol
_atom_site_fract_x
_atom_site_fract_y
_atom_site_fract_z
Ni1 Ni 0.47904(3) 0.81749(2) 0.39336(2)
Ni2 Ni 0.50000 1.00000 0.50000
C1 C 0.2570(2) 0.99550(18) 0.34118(18)
C2 C 0.2210(2) 1.07275(19) 0.36604(19)
H1 H 0.24590 1.09860 0.41310
C3 C 0.1490(2) 1.11270(19) 0.32273(19)
C4 C 0.1138(2) 1.07383(18) 0.25408(19)
H2 H 0.06820 1.10230 0.22180
C5 C 0.1440(2) 0.99350(18) 0.23144(18)
C6 C 0.2160(2) 0.95491(19) 0.27540(19)
H3 H 0.23740 0.90050 0.26040
C7 C 0.3434(2) 0.95928(18) 0.38255(18)
C8 C 0.1073(2) 1.19382(19) 0.3497(2)
C9 C 0.0962(2) 0.95317(18) 0.15954(18)
O1 O 0.36893(14) 0.99442(13) 0.44679(13)
O2 O 0.38201(15) 0.89734(14) 0.34818(14)
O3 O 0.13047(17) 1.22470(14) 0.41659(14)
O4 O 0.04497(16) 1.22877(13) 0.30538(13)
O5 O 0.06409(15) 1.00261(13) 0.10890(12)
O6 O 0.09141(15) 0.87368(13) 0.15982(13)
C10 C 0.5815(3) 0.8024(2) 0.6145(2)
H4 H 0.64940 0.78870 0.61650
H5 H 0.54520 0.75880 0.64250
H6 H 0.57060 0.85670 0.64070
C11 C 0.5499(2) 0.80715(19) 0.5281(2)
O7 O 0.56826(17) 0.75021(14) 0.47981(14)
O8 O 0.49763(14) 0.86860(14) 0.50511(13)
N1 N -0.2332(5) 1.1534(5) 0.3907(4)
N2 N -0.1662(6) 1.0310(5) 0.3927(4)
C12 C -0.0726(15) 0.9149(14) 0.3881(13)
H7 H -0.07360 0.85910 0.41320
H8 H -0.01580 0.94540 0.40580
H9 H -0.07150 0.90880 0.32930
C13 C -0.1451(10) 0.9548(8) 0.4086(7)
H10 H -0.14740 0.95050 0.46810
H11 H -0.19940 0.92120 0.38840
C14 C -0.2870(6) 1.2323(6) 0.3968(5)
H12 H -0.33700 1.22620 0.43760
H13 H -0.31600 1.24530 0.34450
H14 H -0.24410 1.27790 0.41250
C15 C -0.2211(5) 1.0845(5) 0.4164(4)
H15 H -0.25940 1.06930 0.46120
C16 C -0.1564(5) 1.1524(4) 0.3318(4)
H16 H -0.13840 1.19740 0.29750
C17 C -0.1186(4) 1.0810(4) 0.3349(4)
H17 H -0.06600 1.06320 0.30320
Ni1D Ni 0.52096(3) 1.18251(2) 0.60664(2)
Ni1G Ni 0.02096(3) 1.31749(2) 0.39336(2)
Ni1E Ni -0.02096(3) 0.81749(2) 0.10664(2)
Ni1C Ni 0.97904(3) 0.68251(2) 0.60664(2)
Ni1A Ni 1.02096(3) 1.18251(2) 0.89336(2)
Ni2A Ni 0.00000 1.00000 0.00000
Ni2A* Ni 1.00000 1.00000 1.00000
C1D C 0.7430(2) 1.00450(18) 0.65882(18)
C2D C 0.7790(2) 0.92725(19) 0.63396(19)
H1D H 0.75410 0.90140 0.58690
C3D C 0.8510(2) 0.88730(19) 0.67727(19)
C4D C 0.8862(2) 0.92617(18) 0.74592(19)
H2D H 0.93180 0.89770 0.77820
C5D C 0.8560(2) 1.00650(18) 0.76856(18)
C6D C 0.7840(2) 1.04509(19) 0.72460(19)
H3D H 0.76260 1.09950 0.73960
C7D C 0.6566(2) 1.04072(18) 0.61745(18)
C8D C 0.8927(2) 0.80618(19) 0.6503(2)
C9D C 0.9038(2) 1.04683(18) 0.84046(18)
O1D O 0.63107(14) 1.00558(13) 0.55321(13)
O2D O 0.61799(15) 1.10266(14) 0.65182(14)
O3D O 0.86953(17) 0.77530(14) 0.58341(14)
O3G O 0.36953(17) 0.72470(14) 0.41659(14)
O3C O 0.63047(17) 1.27530(14) 0.58341(14)
O4D O 0.95503(16) 0.77123(13) 0.69462(13)
O4G O 0.45503(16) 0.72877(13) 0.30538(13)
O4C O 0.54497(16) 1.27123(13) 0.69462(13)
O5D O 0.93591(15) 0.99739(13) 0.89110(12)
O5A O 0.43591(15) 0.99739(13) 0.60890(12)
O5E O 0.56409(15) 1.00261(13) 0.39110(12)
O6D O 0.90859(15) 1.12632(13) 0.84018(13)
O6E O 0.59141(15) 0.87368(13) 0.34018(13)
O6A O 0.40859(15) 1.12632(13) 0.65982(13)
C10D C 0.4185(3) 1.1976(2) 0.3855(2)
H4D H 0.35060 1.21130 0.38350
H5D H 0.45480 1.24120 0.35750
H6D H 0.42940 1.14330 0.35930
C11D C 0.4501(2) 1.19285(19) 0.4719(2)
O7D O 0.43174(17) 1.24979(14) 0.52019(14)
O8D O 0.50237(14) 1.13140(14) 0.49489(13)
#END
