
#######################################################################
#
#                 Cambridge Crystallographic Data Centre
#                                CCDC
#
#######################################################################
#
# If this CIF has been generated from an entry in the Cambridge
# Structural Database, then it will include bibliographic, chemical,
# crystal, experimental, refinement or atomic coordinate data resulting
# from the CCDC's data processing and validation procedures.
#
#######################################################################

data_CSD_CIF_VEMSUC
_audit_creation_date 2006-12-04
_audit_creation_method CSD-ConQuest-V1
_database_code_CSD VEMSUC
_database_code_depnum_ccdc_archive 'CCDC 296026'
_chemical_formula_sum 'C34 H34 N4 Ni3 O16'
_chemical_formula_moiety
;
(C22 H12 Ni3 O16 2-)n,2n(C6 H11 N2 1+)
;
_journal_coden_Cambridge 182
_journal_year 2006
_journal_page_first 2021
_journal_name_full 'Chem.Commun. '
loop_
_publ_author_name
"Zhuojia Lin"
"D.S.Wragg"
"R.E.Morris"
_chemical_name_systematic
;
catena-(bis(1-Ethyl-3-methylimidazolium) 
bis(\m~5~-benzene-1,3,5-tricarboxylato)-bis(\m~2~-acetato-O,O,O')-tri-nickel)
;
_cell_volume   3704.003
_exptl_crystal_colour 'green'
_exptl_crystal_density_diffrn 1.669
_exptl_special_details
;
isostructural with the Co analogue

;
_exptl_crystal_description 'block'
_diffrn_ambient_temperature 90
_diffrn_radiation_probe x-ray
_diffrn_source synchrotron
_refine_special_details
;
An ethyl group is disordered equally over two sites.

;
#These two values have been output from a single CSD field.
_refine_ls_R_factor_gt 0.0436
_refine_ls_wR_factor_gt 0.0436
_symmetry_cell_setting orthorhombic
_symmetry_space_group_name_H-M 'P b c a'
_symmetry_Int_Tables_number 61
loop_
_symmetry_equiv_pos_site_id
_symmetry_equiv_pos_as_xyz
1 x,y,z
2 1/2-x,-y,1/2+z
3 -x,1/2+y,1/2-z
4 1/2+x,1/2-y,-z
5 -x,-y,-z
6 -1/2+x,y,-1/2-z
7 x,-1/2-y,-1/2+z
8 -1/2-x,-1/2+y,z
_cell_length_a 13.9666(8)
_cell_length_b 15.9302(9)
_cell_length_c 16.6479(9)
_cell_angle_alpha 90
_cell_angle_beta 90
_cell_angle_gamma 90
_cell_formula_units_Z 4
loop_
_atom_type_symbol
_atom_type_radius_bond
C 0.68
H 0.23
N 0.68
Ni 1.33
O 0.68
loop_
_atom_site_label
_atom_site_type_symbol
_atom_site_fract_x
_atom_site_fract_y
_atom_site_fract_z
Ni1 Ni 0.52002(3) 0.68241(2) 0.89366(2)
Ni2 Ni 0.50000 0.50000 1.00000
C1 C 0.7427(2) 0.50364(19) 0.84052(19)
C2 C 0.7842(2) 0.5446(2) 0.77493(19)
H1 H 0.76340 0.59930 0.76050
C3 C 0.8556(2) 0.50540(19) 0.73091(18)
C4 C 0.8867(2) 0.42561(19) 0.75304(19)
H2 H 0.93240 0.39720 0.72070
C5 C 0.8514(2) 0.3872(2) 0.82192(19)
C6 C 0.7791(2) 0.42668(19) 0.86568(19)
H3 H 0.75460 0.40090 0.91290
C7 C 0.6568(2) 0.54060(19) 0.88260(19)
C8 C 0.9025(2) 0.54632(19) 0.65949(18)
C9 C 0.8937(2) 0.3055(2) 0.8495(2)
C10 C 0.4497(2) 0.6932(2) 1.0283(2)
C11 C 0.4186(3) 0.6976(2) 1.1149(2)
H4 H 0.35020 0.71070 1.11750
H5 H 0.45510 0.74150 1.14260
H6 H 0.43050 0.64340 1.14090
O1 O 0.63181(15) 0.50584(14) 0.94717(13)
O2 O 0.61705(16) 0.60206(14) 0.84815(14)
O3 O 0.90642(16) 0.62584(14) 0.65864(14)
O4 O 0.93622(16) 0.49663(13) 0.60851(12)
O5 O 0.95606(16) 0.27044(14) 0.80548(14)
O6 O 0.86994(17) 0.27449(15) 0.91583(14)
O7 O 0.50215(15) 0.63133(14) 1.00461(13)
O8 O 0.43062(17) 0.74991(15) 0.97981(14)
N1 N 0.7371(4) 0.3245(5) 0.6197(3)
C12 C 0.7430(4) 0.3969(5) 0.5790(3)
H7 H 0.78790 0.40960 0.53790
N2 N 0.6745(4) 0.4484(4) 0.6065(3)
C13 C 0.6261(3) 0.4077(4) 0.6642(3)
H8 H 0.57370 0.42940 0.69410
C14 C 0.6648(4) 0.3312(4) 0.6724(3)
H9 H 0.64460 0.28900 0.70910
C15 C 0.7966(6) 0.2558(9) 0.6045(6)
H10 H 0.84210 0.27030 0.56190
H11 H 0.75760 0.20790 0.58740
H12 H 0.83170 0.24110 0.65350
C16 C 0.6631(13) 0.5254(11) 0.5817(7)
H13 H 0.72750 0.55130 0.58350
H14 H 0.64570 0.52120 0.52420
C17 C 0.596(4) 0.589(3) 0.617(2)
H15 H 0.60190 0.64210 0.58680
H16 H 0.61300 0.59930 0.67320
H17 H 0.53030 0.56880 0.61340
C18? C 0.6631(13) 0.5254(11) 0.5817(7)
H18? H 0.71470 0.53970 0.54340
H19? H 0.66820 0.56410 0.62810
C19? C 0.564(3) 0.5379(19) 0.5403(18)
H20? H 0.56160 0.59410 0.51640
H21? H 0.51330 0.53200 0.58020
H22? H 0.55620 0.49560 0.49820
Ni1D Ni 0.47998(3) 0.31759(2) 1.10634(2)
Ni1E Ni 1.02002(3) 0.68241(2) 0.60634(2)
Ni1G Ni 0.97998(3) 0.18241(2) 0.89366(2)
Ni1A Ni -0.02002(3) 0.31759(2) 1.39366(2)
Ni1C Ni 0.02002(3) 0.81759(2) 1.10634(2)
Ni2E Ni 1.00000 0.50000 0.50000
Ni2E* Ni 0.00000 0.50000 1.50000
C1D C 0.2573(2) 0.49636(19) 1.15948(19)
C2D C 0.2158(2) 0.4554(2) 1.22507(19)
H1D H 0.23660 0.40070 1.23950
C3D C 0.1444(2) 0.49460(19) 1.26909(18)
C4D C 0.1133(2) 0.57439(19) 1.24696(19)
H2D H 0.06760 0.60280 1.27930
C5D C 0.1486(2) 0.6128(2) 1.17808(19)
C6D C 0.2209(2) 0.57332(19) 1.13432(19)
H3D H 0.24540 0.59910 1.08710
C7D C 0.3432(2) 0.45940(19) 1.11740(19)
C8D C 0.0975(2) 0.45368(19) 1.34051(18)
C9D C 0.1063(2) 0.6945(2) 1.1505(2)
C10D C 0.5503(2) 0.3068(2) 0.9717(2)
C11D C 0.5814(3) 0.3024(2) 0.8851(2)
H4D H 0.64980 0.28930 0.88250
H5D H 0.54490 0.25850 0.85740
H6D H 0.56950 0.35660 0.85910
O1D O 0.36819(15) 0.49416(14) 1.05283(13)
O2D O 0.38295(16) 0.39794(14) 1.15185(14)
O3D O 0.09358(16) 0.37416(14) 1.34136(14)
O3E O 0.40642(16) 0.62584(14) 0.84136(14)
O3A O 0.59358(16) 0.37416(14) 1.15864(14)
O4D O 0.06378(16) 0.50337(13) 1.39149(12)
O4E O 0.43622(16) 0.49663(13) 0.89149(12)
O4A O 0.56378(16) 0.50337(13) 1.10851(12)
O5D O 0.04394(16) 0.72956(14) 1.19452(14)
O5G O 0.54394(16) 0.77044(14) 0.80548(14)
O5C O 0.45606(16) 0.22956(14) 1.19452(14)
O6D O 0.13006(17) 0.72551(15) 1.08417(14)
O6G O 0.63006(17) 0.77449(15) 0.91583(14)
O6C O 0.36994(17) 0.22551(15) 1.08417(14)
O7D O 0.49785(15) 0.36867(14) 0.99539(13)
O8D O 0.56938(17) 0.25009(15) 1.02019(14)
#END
