
#######################################################################
#
#                 Cambridge Crystallographic Data Centre
#                                CCDC
#
#######################################################################
#
# If this CIF has been generated from an entry in the Cambridge
# Structural Database, then it will include bibliographic, chemical,
# crystal, experimental, refinement or atomic coordinate data resulting
# from the CCDC's data processing and validation procedures.
#
#######################################################################

data_CSD_CIF_VENGAZ
_audit_creation_date 2018-01-21
_audit_creation_method CSD-ConQuest-V1
_database_code_CSD VENGAZ
_database_code_depnum_ccdc_archive 'CCDC 1818363'
_chemical_formula_sum 'C74 H99 Cd3 N19 O22'
_chemical_formula_moiety
;
(C48 H37 Cd3 N12 O16 1-)n,C2 H8 N1 1+,6(C4 H9 N1 O1)
;
_journal_coden_Cambridge 1078
_journal_year 2018
_journal_name_full 'CSD Communication(Private Communication) '
loop_
_publ_author_name
"Meng Qinghua"
_chemical_name_systematic
;
catena-[dimethylammonium 
(\m-hydroxo)-bis(\m-4,4',4''-(1,3,5-triazine-2,4,6-triyltriazanediyl)tribenzoa
to)-triaqua-tri-cadmium N,N-dimethylacetamide solvate]
;
_cell_volume  19536.657
_exptl_crystal_colour 'yellow'
_exptl_crystal_description 'block'
_diffrn_ambient_temperature 293
_refine_special_details
;
Disordered dimethylammonium cations and N,N-dimethylacetamide solvent 
molecules were not modelled and the disordered density was taken into account 
using the SQUEEZE/PLATON procedure.
;
#These two values have been output from a single CSD field.
_refine_ls_R_factor_gt 0.0555
_refine_ls_wR_factor_gt 0.0555
_symmetry_cell_setting tetragonal
_symmetry_space_group_name_H-M 'P 43 21 2'
_symmetry_Int_Tables_number 96
loop_
_symmetry_equiv_pos_site_id
_symmetry_equiv_pos_as_xyz
1 x,y,z
2 -x,-y,1/2+z
3 1/2-y,1/2+x,3/4+z
4 1/2+y,1/2-x,1/4+z
5 1/2-x,1/2+y,3/4-z
6 1/2+x,1/2-y,1/4-z
7 y,x,-z
8 -y,-x,1/2-z
_cell_length_a 19.7330(4)
_cell_length_b 19.7330(4)
_cell_length_c 50.1723(16)
_cell_angle_alpha 90
_cell_angle_beta 90
_cell_angle_gamma 90
_cell_formula_units_Z 4
loop_
_atom_type_symbol
_atom_type_radius_bond
C 0.68
H 0.23
Cd 1.44
N 0.68
O 0.68
loop_
_atom_site_label
_atom_site_type_symbol
_atom_site_fract_x
_atom_site_fract_y
_atom_site_fract_z
Cd1 Cd 0.53320(3) 0.42912(3) 0.28308(2)
Cd2 Cd 0.44088(3) 0.55912(3) 0.25000
O1 O 0.3551(2) 0.6449(2) 0.25000
O2 O 0.8305(4) 0.9711(4) 0.51344(16)
O3 O 0.5582(4) 0.3699(4) 0.32100(16)
O4 O 0.5150(3) 0.4850(3) 0.25000
O5 O 0.5450(4) 0.5191(4) 0.30698(14)
O6 O 0.0698(4) 0.9227(4) 0.45470(17)
O7 O 0.4736(4) 0.5920(4) 0.29001(19)
O8 O 0.1319(4) 0.9896(4) 0.48175(17)
O9 O 0.8603(3) 0.9275(4) 0.47398(18)
C1 C 0.1876(5) 0.9247(6) 0.4497(2)
N1 N 0.5411(5) 0.9082(6) 0.4606(2)
H1 H 0.51238 0.92911 0.47053
C2 C 0.5278(6) 0.6241(6) 0.3288(2)
C3 C 0.6915(5) 0.9612(6) 0.4987(3)
H2 H 0.69963 0.98588 0.51412
N2 N 0.4494(5) 0.8750(7) 0.4376(3)
C4 C 0.7446(5) 0.9382(6) 0.4837(3)
N3 N 0.5566(5) 0.8277(7) 0.4269(3)
C5 C 0.4900(6) 0.6821(6) 0.3318(3)
H3 H 0.45661 0.69299 0.31941
C6 C 0.5129(6) 0.5735(6) 0.3049(3)
C7 C 0.6110(5) 0.9170(8) 0.4672(3)
N4 N 0.4627(5) 0.7950(7) 0.4018(3)
C8 C 0.1248(5) 0.9457(6) 0.4627(3)
C9 C 0.5018(6) 0.7228(7) 0.3527(3)
H4 H 0.47618 0.76196 0.35499
C10 C 0.8172(5) 0.9456(5) 0.4918(3)
C11 C 0.6246(6) 0.9476(7) 0.4907(3)
H5 H 0.58891 0.96003 0.50175
C12 C 0.2477(6) 0.9427(7) 0.4559(3)
H6 H 0.25209 0.97629 0.46881
C13 C 0.1844(6) 0.8741(9) 0.4293(3)
H7 H 0.14188 0.86265 0.42272
C14 C 0.5143(6) 0.8693(8) 0.4398(3)
N5 N 0.5687(5) 0.7527(7) 0.3930(2)
H8 H 0.61426 0.75000 0.39960
C15 C 0.3037(6) 0.8650(8) 0.4266(3)
C16 C 0.3089(7) 0.9158(9) 0.4449(3)
H9 H 0.35096 0.93241 0.45005
C17 C 0.5526(7) 0.7063(8) 0.3711(3)
C18 C 0.5245(7) 0.7967(10) 0.4078(3)
C19 C 0.7297(6) 0.9075(9) 0.4602(3)
H10 H 0.76577 0.89144 0.45007
C20 C 0.5796(8) 0.6109(8) 0.3473(3)
H11 H 0.60607 0.57220 0.34528
N6 N 0.3569(5) 0.8358(7) 0.4136(3)
H12 H 0.34570 0.81339 0.39961
C21 C 0.5922(7) 0.6539(8) 0.3683(3)
H13 H 0.62768 0.64595 0.38014
C22 C 0.2388(6) 0.8415(9) 0.4191(3)
H14 H 0.23367 0.80494 0.40754
C23 C 0.6641(6) 0.8984(10) 0.4500(3)
H15 H 0.65626 0.88117 0.43299
C24 C 0.4221(7) 0.8354(9) 0.4187(3)
Cd1G Cd 0.57088(3) 0.46680(3) 0.21692(2)
O2G O 0.0289(4) 0.1695(4) -0.01344(16)
O3G O 0.6301(4) 0.4418(4) 0.17900(16)
O5G O 0.4809(4) 0.4550(4) 0.19302(14)
O6G O 0.0773(4) 0.9302(4) 0.04530(17)
O7G O 0.4080(4) 0.5264(4) 0.20999(19)
O8G O 0.0104(4) 0.8681(4) 0.01825(17)
O9G O 0.0725(3) 0.1397(4) 0.02602(18)
C1G C 0.0753(5) 0.8124(6) 0.0503(2)
N1G N 0.0918(5) 0.4589(6) 0.0394(2)
H1G H 0.07089 0.48762 0.02947
C2G C 0.3759(6) 0.4722(6) 0.1712(2)
C3G C 0.0388(5) 0.3085(6) 0.0013(3)
H2G H 0.01412 0.30037 -0.01412
N2G N 0.1250(5) 0.5506(7) 0.0624(3)
C4G C 0.0618(5) 0.2554(6) 0.0163(3)
N3G N 0.1723(5) 0.4434(7) 0.0731(3)
C5G C 0.3179(6) 0.5100(6) 0.1682(3)
H3G H 0.30701 0.54339 0.18059
C6G C 0.4265(6) 0.4871(6) 0.1951(3)
C7G C 0.0830(5) 0.3890(8) 0.0328(3)
N4G N 0.2050(5) 0.5373(7) 0.0982(3)
C8G C 0.0543(5) 0.8752(6) 0.0373(3)
C9G C 0.2772(6) 0.4982(7) 0.1473(3)
H4G H 0.23804 0.52382 0.14501
C10G C 0.0544(5) 0.1828(5) 0.0082(3)
C11G C 0.0524(6) 0.3754(7) 0.0093(3)
H5G H 0.03997 0.41109 -0.00175
C12G C 0.0573(6) 0.7523(7) 0.0441(3)
H6G H 0.02371 0.74791 0.03119
C13G C 0.1259(6) 0.8156(9) 0.0707(3)
H7G H 0.13735 0.85812 0.07728
C14G C 0.1307(6) 0.4857(8) 0.0602(3)
N5G N 0.2473(5) 0.4313(7) 0.1070(2)
H8G H 0.25000 0.38574 0.10040
C15G C 0.1350(6) 0.6963(8) 0.0734(3)
C16G C 0.0842(7) 0.6911(9) 0.0551(3)
H9G H 0.06759 0.64904 0.04995
C17G C 0.2937(7) 0.4474(8) 0.1289(3)
C18G C 0.2033(7) 0.4755(10) 0.0922(3)
C19G C 0.0925(6) 0.2703(9) 0.0398(3)
H10G H 0.10856 0.23423 0.04993
C20G C 0.3891(8) 0.4204(8) 0.1527(3)
H11G H 0.42780 0.39393 0.15472
N6G N 0.1642(5) 0.6431(7) 0.0864(3)
H12G H 0.18661 0.65430 0.10039
C21G C 0.3461(7) 0.4078(8) 0.1317(3)
H13G H 0.35405 0.37232 0.11986
C22G C 0.1585(6) 0.7612(9) 0.0809(3)
H14G H 0.19506 0.76633 0.09246
C23G C 0.1016(6) 0.3359(10) 0.0500(3)
H15G H 0.11883 0.34374 0.06701
C24G C 0.1646(7) 0.5779(9) 0.0813(3)
Cd1B Cd 0.07088(3) 0.03320(3) 0.03308(2)
Cd1B* Cd 0.07088(3) 1.03320(3) 0.03308(2)
Cd1C Cd 0.92912(3) 0.96680(3) 0.53308(2)
Cd1D Cd -0.03320(3) 0.92912(3) 0.46692(2)
Cd1D* Cd 0.96680(3) 0.92912(3) 0.46692(2)
Cd1E Cd 0.03320(3) 0.07088(3) -0.03308(2)
Cd2B Cd -0.05912(3) 0.94088(3) 0.00000
Cd2C Cd 0.05912(3) 1.05912(3) 0.50000
O2B O 0.5289(4) 0.3305(4) 0.26344(16)
O2D O 0.6695(4) 0.4711(4) 0.23656(16)
O6B O 0.5773(4) 0.5698(4) 0.20470(17)
O6D O 0.4302(4) 0.4227(4) 0.29530(17)
O8B O 0.5104(4) 0.6319(4) 0.23175(17)
O8D O 0.3681(4) 0.4896(4) 0.26825(17)
O9B O 0.5725(3) 0.3603(4) 0.22398(18)
O9D O 0.6397(3) 0.4275(4) 0.27602(18)
#END
