
#######################################################################
#
#                 Cambridge Crystallographic Data Centre
#                                CCDC
#
#######################################################################
#
# If this CIF has been generated from an entry in the Cambridge
# Structural Database, then it will include bibliographic, chemical,
# crystal, experimental, refinement or atomic coordinate data resulting
# from the CCDC's data processing and validation procedures.
#
#######################################################################

data_CSD_CIF_VERZUP
_audit_creation_date 2013-04-24
_audit_creation_method CSD-ConQuest-V1
_database_code_CSD VERZUP
_database_code_depnum_ccdc_archive 'CCDC 909961'
_chemical_formula_sum 'C3 H7 N1 O7 Zn1'
_chemical_formula_moiety
;
(C3 H3 O6 Zn1 1-)n,n(H4 N1 O1 1+)
;
_journal_coden_Cambridge 9
_journal_volume 51
_journal_year 2012
_journal_page_first 13363
_journal_name_full 'Inorg.Chem. '
loop_
_publ_author_name
"Bin Liu"
"Ran Shang"
"Ke-Li Hu"
"Zhe-Ming Wang"
"Song Gao"
_chemical_name_systematic
;
catena-(hydroxyammonium tris(\m~2~-formato)-zinc)
;
_cell_volume    774.757
_exptl_crystal_colour 'colorless'
_exptl_crystal_density_diffrn 2.01
_exptl_special_details
;
P212121 polymorph
moisture-sensitive

;
_exptl_crystal_description 'block'
_diffrn_ambient_temperature 293
#These two values have been output from a single CSD field.
_refine_ls_R_factor_gt 0.019
_refine_ls_wR_factor_gt 0.019
_symmetry_cell_setting orthorhombic
_symmetry_space_group_name_H-M 'P 21 21 21'
_symmetry_Int_Tables_number 19
loop_
_symmetry_equiv_pos_site_id
_symmetry_equiv_pos_as_xyz
1 x,y,z
2 1/2-x,-y,1/2+z
3 -x,1/2+y,1/2-z
4 1/2+x,1/2-y,-z
_cell_length_a 7.6892(2)
_cell_length_b 7.7385(2)
_cell_length_c 13.0205(4)
_cell_angle_alpha 90
_cell_angle_beta 90
_cell_angle_gamma 90
_cell_formula_units_Z 4
loop_
_atom_type_symbol
_atom_type_radius_bond
C 0.68
H 0.23
N 0.68
O 0.68
Zn 1.22
loop_
_atom_site_label
_atom_site_type_symbol
_atom_site_fract_x
_atom_site_fract_y
_atom_site_fract_z
Zn1 Zn 0.55141(2) 0.49392(3) 0.084007(15)
C1 C 0.4251(2) 0.2261(3) 0.23711(15)
H1 H 0.53290 0.17550 0.22510
C2 C 0.2940(3) 0.7709(3) 0.02716(18)
H2 H 0.35730 0.77660 -0.03360
C3 C 0.3130(3) 0.2685(3) -0.03630(17)
H3 H 0.24610 0.27730 0.02300
O1 O 0.39013(18) 0.36258(19) 0.19000(11)
O2 O 0.32545(19) 0.15285(19) 0.29924(11)
O3 O 0.3433(2) 0.6662(2) 0.09153(11)
O4 O 0.16726(19) 0.87029(19) 0.03528(11)
O5 O 0.45045(19) 0.3508(2) -0.03920(12)
O6 O 0.25623(19) 0.1733(2) -0.10741(11)
O7 O 0.08297(18) 0.5109(2) 0.22867(13)
H4 H 0.18360 0.48700 0.21350
N1 N -0.0006(2) 0.3636(2) 0.26551(15)
H5 H 0.07690 0.27950 0.27420
H6 H -0.08090 0.32990 0.22050
H7 H -0.05120 0.38750 0.32530
Zn1B Zn 0.44859(2) -0.00608(3) 0.415993(15)
Zn1C Zn 0.05141(2) 0.00608(3) -0.084007(15)
Zn1C* Zn 0.05141(2) 1.00608(3) -0.084007(15)
O2B O 0.67455(19) 0.65285(19) 0.20076(11)
O4C O 0.66726(19) 0.62971(19) -0.03528(11)
O6C O 0.75623(19) 0.3267(2) 0.10741(11)
#END
