
#######################################################################
#
#                 Cambridge Crystallographic Data Centre
#                                CCDC
#
#######################################################################
#
# If this CIF has been generated from an entry in the Cambridge
# Structural Database, then it will include bibliographic, chemical,
# crystal, experimental, refinement or atomic coordinate data resulting
# from the CCDC's data processing and validation procedures.
#
#######################################################################

data_CSD_CIF_VERZUP01
_audit_creation_date 2016-04-26
_audit_creation_method CSD-ConQuest-V1
_database_code_CSD VERZUP01
_database_code_depnum_ccdc_archive 'CCDC 1469427'
_chemical_formula_sum 'C3 H7 N1 O7 Zn1'
_chemical_formula_moiety
;
(C3 H3 O6 Zn1 1-)n,n(H4 N1 O1 1+)
;
_journal_coden_Cambridge 1475
_journal_volume 7
_journal_year 2016
_journal_page_first 5108
_journal_name_full 'Chemical Science '
loop_
_publ_author_name
"G.Kieslich"
"S.Kumagai"
"A.C.Forse"
"Shijing Sun"
"S.Henke"
"M.Yamashita"
"C.P.Grey"
"A.K.Cheetham"
_chemical_name_systematic
;
catena-(Hydroxyammonium tris(\m~2~-formato)-zinc)
;
_cell_volume    766.185
_exptl_crystal_colour 'colorless'
_exptl_crystal_density_diffrn 2.028
_exptl_special_details
;
Pna21 polymorph

;
_exptl_crystal_description 'block'
_diffrn_ambient_temperature 119.8
_diffrn_special_details
;
twin

;
_refine_special_details
;
O7 and N2 disordered over two sites with occupancies 0.50:0.50.

;
#These two values have been output from a single CSD field.
_refine_ls_R_factor_gt 0.0264
_refine_ls_wR_factor_gt 0.0264
_symmetry_cell_setting orthorhombic
_symmetry_space_group_name_H-M 'P n a 21'
_symmetry_Int_Tables_number 33
loop_
_symmetry_equiv_pos_site_id
_symmetry_equiv_pos_as_xyz
1 x,y,z
2 -x,-y,1/2+z
3 1/2-x,1/2+y,1/2+z
4 1/2+x,1/2-y,z
_cell_length_a 8.61779(12)
_cell_length_b 7.73073(10)
_cell_length_c 11.50052(16)
_cell_angle_alpha 90
_cell_angle_beta 90
_cell_angle_gamma 90
_cell_formula_units_Z 4
loop_
_atom_type_symbol
_atom_type_radius_bond
C 0.68
H 0.23
N 0.68
O 0.68
Zn 1.22
loop_
_atom_site_label
_atom_site_type_symbol
_atom_site_fract_x
_atom_site_fract_y
_atom_site_fract_z
Zn1 Zn 0.02908(2) -0.00100(2) 0.17014(4)
O1 O 0.05646(14) 0.14109(16) 0.01494(10)
O2 O 0.24369(13) 0.07861(14) 0.24128(10)
O3 O -0.18783(13) -0.07563(15) 0.10473(11)
O4 O 0.43678(14) 0.26947(15) 0.23969(11)
O5 O 0.01323(15) 0.13491(16) -0.17507(10)
O6 O -0.37704(13) -0.26986(15) 0.10218(11)
C1 C 0.0328(2) 0.06170(19) -0.07953(14)
H1 H 0.02990 -0.05850 -0.07770
C2 C 0.31320(19) 0.2080(2) 0.19965(14)
H2 H 0.26990 0.26140 0.13490
C3 C -0.2438(2) -0.2188(2) 0.13241(15)
H3 H -0.18370 -0.29230 0.17800
O7 O -0.0818(15) 0.539(2) -0.1115(12)
H4 H -0.065(13) 0.578(10) -0.176(4)
N1 N 0.0620(2) 0.49380(19) -0.06203(15)
H5 H 0.082(4) 0.567(3) -0.0065(18)
H6 H 0.058(4) 0.3914(15) -0.031(2)
H7 H 0.136(3) 0.505(3) -0.113(2)
N2? N -0.0920(18) 0.4987(19) -0.1145(15)
H8? H -0.083(14) 0.598(6) -0.151(7)
H9? H -0.095(6) 0.410(6) -0.160(5)
Zn1A Zn -0.02908(2) 0.00100(2) -0.32986(4)
Zn1C Zn -0.47092(2) -0.49900(2) 0.17014(4)
Zn1C* Zn 0.52908(2) 0.50100(2) 0.17014(4)
O4C O -0.06322(14) 0.23053(15) 0.23969(11)
O5A O -0.01323(15) -0.13491(16) 0.32493(10)
O6C O 0.12296(13) -0.23014(15) 0.10218(11)
#END
