
#######################################################################
#
#                 Cambridge Crystallographic Data Centre
#                                CCDC
#
#######################################################################
#
# If this CIF has been generated from an entry in the Cambridge
# Structural Database, then it will include bibliographic, chemical,
# crystal, experimental, refinement or atomic coordinate data resulting
# from the CCDC's data processing and validation procedures.
#
#######################################################################

data_CSD_CIF_VERZOJ
_audit_creation_date 2013-04-24
_audit_creation_method CSD-ConQuest-V1
_database_code_CSD VERZOJ
_database_code_depnum_ccdc_archive 'CCDC 909960'
_chemical_formula_sum 'C3 H7 N1 Ni1 O7'
_chemical_formula_moiety
;
(C3 H3 Ni1 O6 1-)n,n(H4 N1 O1 1+)
;
_journal_coden_Cambridge 9
_journal_volume 51
_journal_year 2012
_journal_page_first 13363
_journal_name_full 'Inorg.Chem. '
loop_
_publ_author_name
"Bin Liu"
"Ran Shang"
"Ke-Li Hu"
"Zhe-Ming Wang"
"Song Gao"
_chemical_name_systematic
;
catena-(hydroxyammonium tris(\m~2~-formato)-nickel)
;
_cell_volume    754.945
_exptl_crystal_colour 'green'
_exptl_crystal_density_diffrn 2.004
_exptl_special_details
;
moisture-sensitive

;
_exptl_crystal_description 'block'
_diffrn_ambient_temperature 293
#These two values have been output from a single CSD field.
_refine_ls_R_factor_gt 0.0302
_refine_ls_wR_factor_gt 0.0302
_symmetry_cell_setting orthorhombic
_symmetry_space_group_name_H-M 'P 21 21 21'
_symmetry_Int_Tables_number 19
loop_
_symmetry_equiv_pos_site_id
_symmetry_equiv_pos_as_xyz
1 x,y,z
2 1/2-x,-y,1/2+z
3 -x,1/2+y,1/2-z
4 1/2+x,1/2-y,-z
_cell_length_a 7.6225(2)
_cell_length_b 7.7814(2)
_cell_length_c 12.7280(4)
_cell_angle_alpha 90
_cell_angle_beta 90
_cell_angle_gamma 90
_cell_formula_units_Z 4
loop_
_atom_type_symbol
_atom_type_radius_bond
C 0.68
H 0.23
N 0.68
Ni 1.24
O 0.68
loop_
_atom_site_label
_atom_site_type_symbol
_atom_site_fract_x
_atom_site_fract_y
_atom_site_fract_z
Ni1 Ni 0.54104(5) 0.49249(5) 0.08105(3)
C1 C 0.4465(5) 0.2354(4) 0.2431(3)
H1 H 0.56040 0.19640 0.23240
C2 C 0.2795(4) 0.7698(4) 0.0233(3)
H2 H 0.35570 0.79950 -0.03080
C3 C 0.3171(4) 0.2578(5) -0.0355(3)
H3 H 0.24440 0.27870 0.02180
O1 O 0.3947(3) 0.3605(3) 0.19037(16)
O2 O 0.3530(3) 0.1587(3) 0.30999(17)
O3 O 0.3145(3) 0.6382(3) 0.07638(18)
O4 O 0.1487(3) 0.8633(3) 0.03855(16)
O5 O 0.4569(3) 0.3387(3) -0.03986(17)
O6 O 0.2651(3) 0.1491(3) -0.10235(16)
O7 O 0.0700(4) 0.5924(3) 0.2184(2)
H4 H 0.17020 0.59370 0.19500
N1 N 0.0288(4) 0.4278(3) 0.2516(2)
H5 H 0.12620 0.36490 0.25470
H6 H -0.04580 0.38010 0.20630
H7 H -0.02050 0.43250 0.31490
Ni1B Ni 0.45896(5) -0.00751(5) 0.41895(3)
Ni1C Ni 0.04104(5) 0.00751(5) -0.08105(3)
Ni1C* Ni 0.04104(5) 1.00751(5) -0.08105(3)
O2B O 0.6470(3) 0.6587(3) 0.19001(17)
O4C O 0.6487(3) 0.6367(3) -0.03855(16)
O6C O 0.7651(3) 0.3509(3) 0.10235(16)
#END
