
#######################################################################
#
#                 Cambridge Crystallographic Data Centre
#                                CCDC
#
#######################################################################
#
# If this CIF has been generated from an entry in the Cambridge
# Structural Database, then it will include bibliographic, chemical,
# crystal, experimental, refinement or atomic coordinate data resulting
# from the CCDC's data processing and validation procedures.
#
#######################################################################

data_CSD_CIF_VESBAY
_audit_creation_date 2013-04-24
_audit_creation_method CSD-ConQuest-V1
_database_code_CSD VESBAY
_database_code_depnum_ccdc_archive 'CCDC 909962'
_chemical_formula_sum 'C3 H7 Mg1 N1 O7'
_chemical_formula_moiety
;
(C3 H3 Mg1 O6 1-)n,n(H4 N1 O1 1+)
;
_journal_coden_Cambridge 9
_journal_volume 51
_journal_year 2012
_journal_page_first 13363
_journal_name_full 'Inorg.Chem. '
loop_
_publ_author_name
"Bin Liu"
"Ran Shang"
"Ke-Li Hu"
"Zhe-Ming Wang"
"Song Gao"
_chemical_name_systematic
;
catena-(hydroxyammonium tris(\m~2~-formato)-magnesium)
;
_cell_volume    769.711
_exptl_crystal_colour 'colorless'
_exptl_crystal_density_diffrn 1.669
_exptl_special_details
;
moisture-sensitive

;
_exptl_crystal_description 'block'
_diffrn_ambient_temperature 293
#These two values have been output from a single CSD field.
_refine_ls_R_factor_gt 0.0263
_refine_ls_wR_factor_gt 0.0263
_symmetry_cell_setting orthorhombic
_symmetry_space_group_name_H-M 'P 21 21 21'
_symmetry_Int_Tables_number 19
loop_
_symmetry_equiv_pos_site_id
_symmetry_equiv_pos_as_xyz
1 x,y,z
2 1/2-x,-y,1/2+z
3 -x,1/2+y,1/2-z
4 1/2+x,1/2-y,-z
_cell_length_a 7.6883(2)
_cell_length_b 7.7875(2)
_cell_length_c 12.8558(4)
_cell_angle_alpha 90
_cell_angle_beta 90
_cell_angle_gamma 90
_cell_formula_units_Z 4
loop_
_atom_type_symbol
_atom_type_radius_bond
C 0.68
H 0.23
Mg 1.41
N 0.68
O 0.68
loop_
_atom_site_label
_atom_site_type_symbol
_atom_site_fract_x
_atom_site_fract_y
_atom_site_fract_z
Mg1 Mg 0.55363(5) 0.49437(6) 0.08445(4)
C1 C 0.4275(2) 0.2234(2) 0.23615(11)
H1 H 0.53340 0.17060 0.22190
C2 C 0.3028(2) 0.7788(2) 0.02788(13)
H2 H 0.37600 0.79890 -0.02840
C3 C 0.3101(2) 0.2760(2) -0.03726(13)
H3 H 0.23520 0.29810 0.01790
O1 O 0.39602(15) 0.36228(14) 0.19084(8)
O2 O 0.32831(15) 0.14995(14) 0.29880(9)
O3 O 0.34694(15) 0.66409(14) 0.08794(9)
O4 O 0.17129(14) 0.87066(15) 0.03392(8)
O5 O 0.45163(15) 0.35039(16) -0.03648(9)
O6 O 0.25786(14) 0.17326(14) -0.10562(8)
O7 O 0.08698(17) 0.50705(16) 0.23111(11)
H4 H 0.18520 0.48170 0.21150
N1 N 0.0016(2) 0.35967(19) 0.26595(11)
H5 H 0.07860 0.27550 0.27450
H6 H -0.07750 0.32790 0.21920
H7 H -0.05060 0.38170 0.32630
Mg1B Mg 0.44637(5) -0.00563(6) 0.41555(4)
Mg1C Mg 0.05363(5) 0.00563(6) -0.08445(4)
Mg1C* Mg 0.05363(5) 1.00563(6) -0.08445(4)
O2B O 0.67169(15) 0.64995(14) 0.20120(9)
O4C O 0.67129(14) 0.62934(15) -0.03392(8)
O6C O 0.75786(14) 0.32674(14) 0.10562(8)
#END
