
#######################################################################
#
#                 Cambridge Crystallographic Data Centre
#                                CCDC
#
#######################################################################
#
# If this CIF has been generated from an entry in the Cambridge
# Structural Database, then it will include bibliographic, chemical,
# crystal, experimental, refinement or atomic coordinate data resulting
# from the CCDC's data processing and validation procedures.
#
#######################################################################

data_CSD_CIF_VEWDUX
_audit_creation_date 2007-03-13
_audit_creation_method CSD-ConQuest-V1
_database_code_CSD VEWDUX
_database_code_depnum_ccdc_archive 'CCDC 605283'
_chemical_formula_sum 'C42 H56 Cu4 N14 O40 Si1 W12'
_chemical_formula_moiety
;
(C36 H48 Cu4 N12 4+)n,n(O40 Si1 W12 4-),n(C6 H8 N2)
;
_journal_coden_Cambridge 9
_journal_volume 45
_journal_year 2006
_journal_page_first 10702
_journal_name_full 'Inorg.Chem. '
loop_
_publ_author_name
"Xiang-Jian Kong"
"Yan-Ping Ren"
"Pei-Qing Zheng"
"Yu-Xiang Long"
"La-Sheng Long"
"Rong-Bin Huang"
"Lan-Sun Zheng"
_chemical_name_systematic
;
catena-(tetrakis(\m~2~-2,5-Dimethylpyrazine-N,N')-bis(\m~2~-2,3-dimethylpyrazi
ne-N,N')-tetra-copper(i) 
(\m~12~-silicato)-tetracosakis(\m~2~-oxo)-dodecaoxo-dodeca-tungsten 
2,5-dimethylpyrazine)
;
_cell_volume   3673.936
_exptl_crystal_colour 'red'
_exptl_crystal_density_diffrn 3.513
_exptl_crystal_description 'block'
_diffrn_ambient_temperature 173
_refine_special_details
;
The silicate moiety of the anion is disordered by symmetry.

;
#These two values have been output from a single CSD field.
_refine_ls_R_factor_gt 0.073
_refine_ls_wR_factor_gt 0.073
_symmetry_cell_setting monoclinic
_symmetry_space_group_name_H-M 'C 2/m'
_symmetry_Int_Tables_number 12
loop_
_symmetry_equiv_pos_site_id
_symmetry_equiv_pos_as_xyz
1 x,y,z
2 1/2+x,1/2+y,z
3 -x,y,-z
4 1/2-x,1/2+y,-z
5 -x,-y,-z
6 -1/2-x,-1/2-y,-z
7 x,-y,z
8 -1/2+x,-1/2-y,z
_cell_length_a 17.385(3)
_cell_length_b 18.976(4)
_cell_length_c 12.221(2)
_cell_angle_alpha 90
_cell_angle_beta 114.319(3)
_cell_angle_gamma 90
_cell_formula_units_Z 2
loop_
_atom_type_symbol
_atom_type_radius_bond
C 0.68
H 0.23
Cu 1.52
N 0.68
O 0.68
Si 1.20
W 1.37
loop_
_atom_site_label
_atom_site_type_symbol
_atom_site_fract_x
_atom_site_fract_y
_atom_site_fract_z
W1 W 0.44319(6) 0.59196(5) 0.20233(8)
W2 W 0.70959(7) 0.50000 0.03452(10)
W3 W 0.50000 0.68513(6) 0.00000
W4 W 0.65263(5) 0.59152(5) 0.23670(8)
Si1 Si 0.50000 0.50000 0.00000
O1 O 0.598(2) 0.50000 0.093(3)
O2 O 0.5189(15) 0.5686(13) 0.087(2)
O3 O 0.564(2) 0.50000 -0.064(3)
O4 O 0.673(2) 0.50000 0.302(2)
O5 O 0.50000 0.7741(11) 0.00000
O6 O 0.6035(12) 0.6649(15) 0.128(2)
O7 O 0.4463(12) 0.6669(15) 0.103(2)
O8 O 0.6622(15) 0.4327(9) -0.0813(16)
O9 O 0.7145(15) 0.5684(9) 0.1475(16)
O10 O 0.8128(15) 0.50000 0.054(3)
O11 O 0.7265(12) 0.6333(10) 0.3542(17)
O12 O 0.4151(10) 0.6392(9) 0.2968(14)
O13 O 0.445(2) 0.50000 0.259(2)
O14 O 0.5616(12) 0.5985(15) 0.280(2)
Cu1 Cu 0.2421(3) 0.8232(2) -0.2545(3)
N1 N 0.2456(13) 0.7824(9) -0.4034(15)
C1 C 0.3180(13) 0.7745(11) -0.4107(18)
C2 C 0.1767(16) 0.7574(12) -0.492(2)
H1 H 0.12340 0.76180 -0.48820
C3 C 0.401(2) 0.7969(19) -0.317(3)
H2 H 0.39200 0.81910 -0.25060
H3 H 0.42700 0.83080 -0.35150
H4 H 0.43730 0.75570 -0.28740
N2 N 0.2462(11) 0.7791(10) -0.1053(16)
C4 C 0.2988(15) 0.8017(12) 0.001(2)
H5 H 0.33700 0.83830 0.00430
C5 C 0.1981(14) 0.7246(14) -0.108(2)
C6 C 0.1413(19) 0.6945(14) -0.219(2)
H6 H 0.11210 0.65430 -0.20310
H7 H 0.09990 0.73000 -0.26580
H8 H 0.17320 0.67850 -0.26460
N3 N 0.2628(15) 0.9288(12) -0.2707(17)
C7 C 0.2028(16) 0.9655(16) -0.359(2)
C8 C 0.3224(17) 0.9626(14) -0.191(2)
H9 H 0.36750 0.93770 -0.13120
C9 C 0.134(4) 0.938(3) -0.461(5)
H10 H 0.10200 0.97710 -0.51200
H11 H 0.09730 0.91030 -0.43520
H12 H 0.15600 0.90800 -0.50720
N4 N 0.923(5) 0.50000 0.404(6)
C10 C 0.847(4) 0.50000 0.538(4)
H13 H 0.86100 0.50000 0.62440
H14 H 0.81360 0.45780 0.50130
H15 H 0.81360 0.54220 0.50130
C11 C 0.929(5) 0.50000 0.518(5)
C12 C 1.001(3) 0.50000 0.400(5)
H16 H 0.99990 0.50000 0.32140
W1F W 0.44319(6) 0.40804(5) 0.20233(8)
W1D W 0.55681(6) 0.40804(5) -0.20233(8)
W1B W 0.55681(6) 0.59196(5) -0.20233(8)
W2D W 0.29041(7) 0.50000 -0.03452(10)
W3F W 0.50000 0.31487(6) 0.00000
W4D W 0.34737(5) 0.40848(5) -0.23670(8)
W4F W 0.65263(5) 0.40848(5) 0.23670(8)
W4B W 0.34737(5) 0.59152(5) -0.23670(8)
O1D O 0.402(2) 0.50000 -0.093(3)
O2F O 0.5189(15) 0.4314(13) 0.087(2)
O2D O 0.4811(15) 0.4314(13) -0.087(2)
O2B O 0.4811(15) 0.5686(13) -0.087(2)
O3D O 0.436(2) 0.50000 0.064(3)
O4D O 0.327(2) 0.50000 -0.302(2)
O5F O 0.50000 0.2259(11) 0.00000
O6B O 0.3965(12) 0.6649(15) -0.128(2)
O6F O 0.6035(12) 0.3351(15) 0.128(2)
O6D O 0.3965(12) 0.3351(15) -0.128(2)
O7B O 0.5537(12) 0.6669(15) -0.103(2)
O7F O 0.4463(12) 0.3331(15) 0.103(2)
O7D O 0.5537(12) 0.3331(15) -0.103(2)
O8F O 0.6622(15) 0.5673(9) -0.0813(16)
O8D O 0.3378(15) 0.5673(9) 0.0813(16)
O8B O 0.3378(15) 0.4327(9) 0.0813(16)
O9F O 0.7145(15) 0.4316(9) 0.1475(16)
O9D O 0.2855(15) 0.4316(9) -0.1475(16)
O9B O 0.2855(15) 0.5684(9) -0.1475(16)
O10D O 0.1872(15) 0.50000 -0.054(3)
O11D O 0.2735(12) 0.3667(10) -0.3542(17)
O11F O 0.7265(12) 0.3667(10) 0.3542(17)
O11B O 0.2735(12) 0.6333(10) -0.3542(17)
O12F O 0.4151(10) 0.3608(9) 0.2968(14)
O12D O 0.5849(10) 0.3608(9) -0.2968(14)
O12B O 0.5849(10) 0.6392(9) -0.2968(14)
O13D O 0.555(2) 0.50000 -0.259(2)
O14F O 0.5616(12) 0.4015(15) 0.280(2)
O14D O 0.4384(12) 0.4015(15) -0.280(2)
O14B O 0.4384(12) 0.5985(15) -0.280(2)
Cu1E Cu 0.2579(3) 0.6768(2) -0.7455(3)
Cu1E* Cu 0.2579(3) 0.6768(2) 0.2545(3)
Cu1F Cu 0.2421(3) 1.1768(2) -0.2545(3)
Cu1* Cu 0.2421(3) 0.8232(2) -1.2545(3)
Cu1C Cu 0.2579(3) 0.3232(2) -0.7455(3)
Cu1** Cu 0.2421(3) 0.8232(2) 0.7455(3)
N1E N 0.2544(13) 0.7176(9) -0.5966(15)
N1E* N 0.2544(13) 0.7176(9) 0.4034(15)
N1* N 0.2456(13) 0.7824(9) 0.5966(15)
N1F N 0.2456(13) 1.2176(9) -0.4034(15)
C1E C 0.1820(13) 0.7255(11) -0.5893(18)
C1E* C 0.1820(13) 0.7255(11) 0.4107(18)
C1* C 0.3180(13) 0.7745(11) 0.5893(18)
C2E C 0.3233(16) 0.7426(12) -0.508(2)
C2E* C 0.3233(16) 0.7426(12) 0.492(2)
C2* C 0.1767(16) 0.7574(12) 0.508(2)
H1E H 0.37660 0.73820 -0.51180
H1E* H 0.37660 0.73820 0.48820
H1* H 0.12340 0.76180 0.51180
C3E C 0.099(2) 0.7031(19) -0.683(3)
C3E* C 0.099(2) 0.7031(19) 0.317(3)
C3* C 0.401(2) 0.7969(19) 0.683(3)
H2E H 0.10800 0.68090 -0.74940
H2E* H 0.10800 0.68090 0.25060
H2* H 0.39200 0.81910 0.74940
H3E H 0.07300 0.66920 -0.64850
H3E* H 0.07300 0.66920 0.35150
H3* H 0.42700 0.83080 0.64850
H4E H 0.06270 0.74430 -0.71260
H4E* H 0.06270 0.74430 0.28740
H4* H 0.43730 0.75570 0.71260
N2E N 0.2538(11) 0.7209(10) 0.1053(16)
N2E* N 0.2538(11) 0.7209(10) -0.8947(16)
N2* N 0.2462(11) 0.7791(10) -1.1053(16)
N2F N 0.2462(11) 1.2209(10) -0.1053(16)
C4E C 0.2012(15) 0.6983(12) -0.001(2)
C4E* C 0.2012(15) 0.6983(12) -1.001(2)
C4* C 0.2988(15) 0.8017(12) -0.999(2)
H5E H 0.16300 0.66170 -0.00430
H5E* H 0.16300 0.66170 -1.00430
H5* H 0.33700 0.83830 -0.99570
C5E C 0.3019(14) 0.7754(14) 0.108(2)
C5E* C 0.3019(14) 0.7754(14) -0.892(2)
C5* C 0.1981(14) 0.7246(14) -1.108(2)
C6E C 0.3587(19) 0.8055(14) 0.219(2)
C6E* C 0.3587(19) 0.8055(14) -0.781(2)
C6* C 0.1413(19) 0.6945(14) -1.219(2)
H6E H 0.38790 0.84570 0.20310
H6E* H 0.38790 0.84570 -0.79690
H6* H 0.11210 0.65430 -1.20310
H7E H 0.40010 0.77000 0.26580
H7E* H 0.40010 0.77000 -0.73420
H7* H 0.09990 0.73000 -1.26580
H8E H 0.32680 0.82150 0.26460
H8E* H 0.32680 0.82150 -0.73540
H8* H 0.17320 0.67850 -1.26460
N3F N 0.2628(15) 1.0712(12) -0.2707(17)
N3E N 0.2372(15) 0.5712(12) -0.7293(17)
N3C N 0.2372(15) 0.4288(12) -0.7293(17)
N3E* N 0.2372(15) 0.5712(12) 0.2707(17)
C7F C 0.2028(16) 1.0345(16) -0.359(2)
C7E C 0.2972(16) 0.5345(16) -0.641(2)
C7C C 0.2972(16) 0.4655(16) -0.641(2)
C8F C 0.3224(17) 1.0374(14) -0.191(2)
C8E C 0.1776(17) 0.5374(14) -0.809(2)
C8C C 0.1776(17) 0.4626(14) -0.809(2)
H9F H 0.36750 1.06230 -0.13120
H9E H 0.13250 0.56230 -0.86880
H9C H 0.13250 0.43770 -0.86880
C9F C 0.134(4) 1.062(3) -0.461(5)
C9E C 0.366(4) 0.562(3) -0.539(5)
C9C C 0.366(4) 0.438(3) -0.539(5)
H10F H 0.10200 1.02290 -0.51200
H10E H 0.39800 0.52290 -0.48800
H10C H 0.39800 0.47710 -0.48800
H11F H 0.09730 1.08970 -0.43520
H11E H 0.40270 0.58970 -0.56480
H11C H 0.40270 0.41030 -0.56480
H12F H 0.15600 1.09200 -0.50720
H12E H 0.34400 0.59200 -0.49280
H12C H 0.34400 0.40800 -0.49280
N4D N 1.077(5) 0.50000 0.596(6)
C10D C 1.153(4) 0.50000 0.462(4)
H13D H 1.13900 0.50000 0.37560
H14D H 1.18640 0.54220 0.49870
H14B H 1.18640 0.45780 0.49870
C11D C 1.071(5) 0.50000 0.482(5)
C12D C 0.999(3) 0.50000 0.600(5)
H16D H 1.00010 0.50000 0.67860
#END
