
#######################################################################
#
#                 Cambridge Crystallographic Data Centre
#                                CCDC
#
#######################################################################
#
# If this CIF has been generated from an entry in the Cambridge
# Structural Database, then it will include bibliographic, chemical,
# crystal, experimental, refinement or atomic coordinate data resulting
# from the CCDC's data processing and validation procedures.
#
#######################################################################

data_CSD_CIF_VEWFUZ
_audit_creation_date 2007-03-13
_audit_creation_method CSD-ConQuest-V1
_database_code_CSD VEWFUZ
_database_code_depnum_ccdc_archive 'CCDC 605288'
_chemical_formula_sum 'C36 H48 Cu4 N12 O40 Si1 W12'
_chemical_formula_moiety
;
(C36 H48 Cu4 N12 4+)n,n(O40 Si1 W12 4-)
;
_journal_coden_Cambridge 9
_journal_volume 45
_journal_year 2006
_journal_page_first 10702
_journal_name_full 'Inorg.Chem. '
loop_
_publ_author_name
"Xiang-Jian Kong"
"Yan-Ping Ren"
"Pei-Qing Zheng"
"Yu-Xiang Long"
"La-Sheng Long"
"Rong-Bin Huang"
"Lan-Sun Zheng"
_chemical_name_systematic
;
catena-(hexakis(\m~2~-2,3-Dimethylpyrazine-N,N')-tetra-copper(i) 
(\m~12~-silicato)-tetracosakis(\m~2~-oxo)-dodecaoxo-dodeca-tungsten)
;
_cell_volume   3500.069
_exptl_crystal_colour 'red'
_exptl_crystal_density_diffrn 3.584
_exptl_crystal_description 'plate'
_diffrn_ambient_temperature 173
_refine_special_details
;
The silicate moiety of the anion is disordered by symmetry.

;
#These two values have been output from a single CSD field.
_refine_ls_R_factor_gt 0.0798
_refine_ls_wR_factor_gt 0.0798
_symmetry_cell_setting monoclinic
_symmetry_space_group_name_H-M 'P 21/c'
_symmetry_Int_Tables_number 14
loop_
_symmetry_equiv_pos_site_id
_symmetry_equiv_pos_as_xyz
1 x,y,z
2 -x,1/2+y,1/2-z
3 -x,-y,-z
4 x,-1/2-y,-1/2+z
_cell_length_a 13.371(3)
_cell_length_b 21.109(5)
_cell_length_c 14.088(3)
_cell_angle_alpha 90
_cell_angle_beta 118.33
_cell_angle_gamma 90
_cell_formula_units_Z 2
loop_
_atom_type_symbol
_atom_type_radius_bond
C 0.68
H 0.23
Cu 1.52
N 0.68
O 0.64
Si 1.20
W 1.42
loop_
_atom_site_label
_atom_site_type_symbol
_atom_site_fract_x
_atom_site_fract_y
_atom_site_fract_z
W1 W 0.01033(4) 0.46356(3) 0.76236(5)
W2 W 0.16910(5) 0.37367(4) 0.99740(5)
W3 W -0.14845(5) 0.59353(4) 0.76943(5)
W4 W -0.12935(6) 0.36141(4) 0.85753(5)
W5 W 0.29744(5) 0.50864(5) 1.14939(5)
W6 W 0.15059(6) 0.59744(4) 0.91363(6)
Si1 Si 0.00000 0.50000 1.00000
O1 O 0.0959(6) 0.5473(4) 1.0393(10)
O2 O 0.0486(13) 0.4361(4) 1.0444(13)
O3? O -0.0555(16) 0.4984(10) 0.8790(5)
O4? O -0.0831(6) 0.5203(9) 1.0368(9)
O5 O -0.2678(10) 0.5407(9) 0.7569(9)
O6 O -0.1526(19) 0.3471(12) 0.9776(19)
O7 O 0.2697(16) 0.5564(11) 1.0203(12)
O8 O -0.2628(18) 0.4119(12) 0.7998(15)
O9 O 0.2824(13) 0.4318(11) 1.0676(11)
O10 O 0.1175(12) 0.5270(8) 0.8137(13)
O11 O -0.1893(12) 0.2969(7) 0.7959(11)
O12 O 0.0133(10) 0.443(1) 0.6523(11)
O13 O -0.0939(10) 0.4030(5) 0.7572(10)
O14 O 0.1703(12) 0.3598(11) 1.1347(10)
O15 O 0.2464(12) 0.3129(7) 0.9969(13)
O16 O -0.0009(12) 0.6274(8) 0.8249(13)
O17 O 0.2194(8) 0.6436(6) 0.8669(9)
O18 O 0.0251(10) 0.3361(6) 0.9361(9)
O19 O 0.4403(10) 0.5151(7) 1.2218(10)
O20 O -0.1039(10) 0.5235(6) 0.7114(18)
O21 O -0.2157(11) 0.6379(6) 0.6581(9)
O22 O 0.1246(10) 0.4087(5) 0.8599(10)
Cu1 Cu 0.23740(14) 0.17691(9) 1.15367(15)
Cu2 Cu -0.30700(16) 0.14028(11) 0.82295(17)
N1 N 0.0764(8) 0.1931(6) 1.0538(8)
C1 C 0.0381(11) 0.1788(7) 0.9512(11)
H1 H 0.09120 0.17510 0.92460
C2 C -0.0700(11) 0.1695(7) 0.8841(11)
H2 H -0.09270 0.16030 0.81070
C3 C -0.1166(10) 0.1937(7) 1.0162(10)
C4 C 0.0034(11) 0.2014(7) 1.0858(11)
C5 C -0.2013(12) 0.2004(10) 1.0503(12)
H3 H -0.27650 0.19190 0.98930
H4 H -0.18610 0.17020 1.10840
H5 H -0.19930 0.24360 1.07650
C6 C 0.0445(11) 0.2232(7) 1.2006(11)
H6 H 0.12750 0.22650 1.23750
H7 H 0.01140 0.26460 1.20040
H8 H 0.02110 0.19250 1.23840
N2 N -0.1501(10) 0.1726(7) 0.9171(10)
N3 N 0.5541(10) 0.3105(6) 1.2643(11)
C7 C 0.4894(12) 0.3128(8) 1.3123(12)
H9 H 0.50900 0.34110 1.37100
C8 C 0.3962(12) 0.2758(8) 1.2795(12)
H10 H 0.34830 0.28160 1.31150
C9 C 0.4355(11) 0.2287(9) 1.1591(12)
C10 C 0.5250(11) 0.2684(8) 1.1856(11)
C11 C 0.4070(15) 0.1808(11) 1.0732(12)
H11 H 0.34170 0.15580 1.06520
H12 H 0.47230 0.15280 1.09270
H13 H 0.38800 0.20220 1.00500
C12 C 0.5910(12) 0.2699(8) 1.1272(13)
H14 H 0.65050 0.30220 1.15890
H15 H 0.54070 0.28010 1.05120
H16 H 0.62600 0.22840 1.13230
N4 N 0.3691(9) 0.2311(5) 1.2034(9)
N5 N 0.2529(9) 0.0832(7) 1.1709(8)
C13 C 0.1990(12) 0.0469(8) 1.0822(15)
H17 H 0.14980 0.06610 1.01500
C14 C 0.2146(13) -0.0194(9) 1.0879(14)
H18 H 0.17490 -0.04430 1.02460
C15 C 0.3375(10) -0.0116(10) 1.2728(11)
C16 C 0.320(1) 0.0541(6) 1.2634(10)
C17 C 0.4111(12) -0.0414(7) 1.3753(11)
H19 H 0.41210 -0.08720 1.36520
H20 H 0.38260 -0.03250 1.42650
H21 H 0.48830 -0.02450 1.40360
C18 C 0.3761(12) 0.0952(10) 1.3634(11)
H22 H 0.35580 0.13960 1.34340
H23 H 0.45880 0.09030 1.39670
H24 H 0.35000 0.08220 1.41480
N6 N 0.2849(9) -0.0479(6) 1.1814(9)
W1B W -0.01033(4) 0.53644(3) 1.23764(5)
W2B W -0.16910(5) 0.62633(4) 1.00260(5)
W3B W 0.14845(5) 0.40647(4) 1.23057(5)
W4B W 0.12935(6) 0.63859(4) 1.14247(5)
W5B W -0.29744(5) 0.49136(5) 0.85061(5)
W6B W -0.15059(6) 0.40256(4) 1.08637(6)
O1B O -0.0959(6) 0.4527(4) 0.9607(10)
O2B O -0.0486(13) 0.5639(4) 0.9556(13)
O5B O 0.2678(10) 0.4593(9) 1.2431(9)
O6B O 0.1526(19) 0.6529(12) 1.0224(19)
O7B O -0.2697(16) 0.4436(11) 0.9797(12)
O8B O 0.2628(18) 0.5881(12) 1.2002(15)
O9B O -0.2824(13) 0.5682(11) 0.9324(11)
O10B O -0.1175(12) 0.4730(8) 1.1863(13)
O11B O 0.1893(12) 0.7031(7) 1.2041(11)
O12B O -0.0133(10) 0.557(1) 1.3477(11)
O13B O 0.0939(10) 0.5970(5) 1.2428(10)
O14B O -0.1703(12) 0.6402(11) 0.8653(10)
O15B O -0.2464(12) 0.6871(7) 1.0031(13)
O16B O 0.0009(12) 0.3726(8) 1.1751(13)
O17B O -0.2194(8) 0.3564(6) 1.1331(9)
O18B O -0.0251(10) 0.6639(6) 1.0639(9)
O19B O -0.4403(10) 0.4849(7) 0.7782(10)
O20B O 0.1039(10) 0.4765(6) 1.2886(18)
O21B O 0.2157(11) 0.3621(6) 1.3419(9)
O22B O -0.1246(10) 0.5913(5) 1.1401(10)
Cu1C Cu 1.23740(14) 0.32309(9) 1.65367(15)
Cu1C* Cu -0.76260(14) 0.32309(9) 0.65367(15)
Cu1A Cu 0.76260(14) 0.67691(9) 1.34633(15)
Cu2C Cu 0.69300(16) 0.35972(11) 1.32295(17)
Cu2B Cu 0.30700(16) -0.14028(11) 1.17705(17)
N1C N 1.0764(8) 0.3069(6) 1.5538(8)
C1C C 1.0381(11) 0.3212(7) 1.4512(11)
H1C H 1.09120 0.32490 1.42460
C2C C 0.9300(11) 0.3305(7) 1.3841(11)
H2C H 0.90730 0.33970 1.31070
C3C C 0.8834(10) 0.3063(7) 1.5162(10)
C4C C 1.0034(11) 0.2986(7) 1.5858(11)
C5C C 0.7987(12) 0.2996(10) 1.5503(12)
H3C H 0.72350 0.30810 1.48930
H4C H 0.81390 0.32980 1.60840
H5C H 0.80070 0.25640 1.57650
C6C C 1.0445(11) 0.2768(7) 1.7006(11)
H6C H 1.12750 0.27350 1.73750
H7C H 1.01140 0.23540 1.70040
H8C H 1.02110 0.30750 1.73840
N2C N 0.8499(10) 0.3274(7) 1.4171(10)
N2B N 0.1501(10) -0.1726(7) 1.0829(10)
N3C N -0.4459(10) 0.1895(6) 0.7643(11)
N3A N 0.4459(10) -0.1895(6) 1.2357(11)
C7C C -0.5106(12) 0.1872(8) 0.8123(12)
H9C H -0.49100 0.15890 0.87100
C8C C -0.6038(12) 0.2242(8) 0.7795(12)
H10C H -0.65170 0.21840 0.81150
C9C C -0.5645(11) 0.2713(9) 0.6591(12)
C10C C -0.4750(11) 0.2316(8) 0.6856(11)
C11C C -0.5930(15) 0.3192(11) 0.5732(12)
H11C H -0.65830 0.34420 0.56520
H12C H -0.52770 0.34720 0.59270
H13C H -0.61200 0.29780 0.50500
C12C C -0.4090(12) 0.2301(8) 0.6272(13)
H14C H -0.34950 0.19780 0.65890
H15C H -0.45930 0.21990 0.55120
H16C H -0.37400 0.27160 0.63230
N4C N -0.6309(9) 0.2689(5) 0.7034(9)
N5A N 0.7471(9) 0.5832(7) 1.3291(8)
C13A C 0.8010(12) 0.5469(8) 1.4178(15)
H17A H 0.85020 0.56610 1.48500
C14A C 0.7854(13) 0.4806(9) 1.4121(14)
H18A H 0.82510 0.45570 1.47540
C15A C 0.6625(10) 0.4884(10) 1.2272(11)
C16A C 0.680(1) 0.5541(6) 1.2366(10)
C17A C 0.5889(12) 0.4586(7) 1.1247(11)
H19A H 0.58790 0.41280 1.13480
H20A H 0.61740 0.46750 1.07350
H21A H 0.51170 0.47550 1.09640
C18A C 0.6239(12) 0.5952(10) 1.1366(11)
H22A H 0.64420 0.63960 1.15660
H23A H 0.54120 0.59030 1.10330
H24A H 0.65000 0.58220 1.08520
N6B N -0.2849(9) 0.0479(6) 0.8186(9)
N6A N 0.7151(9) 0.4521(6) 1.3186(9)
#END
