
#######################################################################
#
#                 Cambridge Crystallographic Data Centre
#                                CCDC
#
#######################################################################
#
# If this CIF has been generated from an entry in the Cambridge
# Structural Database, then it will include bibliographic, chemical,
# crystal, experimental, refinement or atomic coordinate data resulting
# from the CCDC's data processing and validation procedures.
#
#######################################################################

data_CSD_CIF_VEWFAF
_audit_creation_date 2007-03-13
_audit_creation_method CSD-ConQuest-V1
_database_code_CSD VEWFAF
_database_code_depnum_ccdc_archive 'CCDC 605284'
_chemical_formula_sum 'C40 H76 Cu2 N8 O62 Si1 W12'
_chemical_formula_moiety
;
(O40 Si1 W12 4-)n,n(C40 H40 Cu2 N8 O4 4+),18n(H2 O1)
;
_journal_coden_Cambridge 9
_journal_volume 45
_journal_year 2006
_journal_page_first 10702
_journal_name_full 'Inorg.Chem. '
loop_
_publ_author_name
"Xiang-Jian Kong"
"Yan-Ping Ren"
"Pei-Qing Zheng"
"Yu-Xiang Long"
"La-Sheng Long"
"Rong-Bin Huang"
"Lan-Sun Zheng"
_chemical_name_systematic
;
catena-(tetrakis(\m~2~-4,4'-Bipyridine-N,N')-tetra-aqua-di-copper(ii) 
(\m~12~-silicato)-tetracosakis(\m~2~-oxo)-dodecaoxo-dodeca-tungsten 
octadecahydrate)
;
_cell_volume   8743.735
_exptl_crystal_colour 'purple-red'
_exptl_crystal_density_diffrn 3.056
_exptl_crystal_description 'slice'
_diffrn_ambient_temperature 173
_refine_special_details
;
The silicate moiety of the anion is disordered by symmetry.

;
#These two values have been output from a single CSD field.
_refine_ls_R_factor_gt 0.0507
_refine_ls_wR_factor_gt 0.0507
_symmetry_cell_setting orthorhombic
_symmetry_space_group_name_H-M 'C c c m'
_symmetry_Int_Tables_number 66
loop_
_symmetry_equiv_pos_site_id
_symmetry_equiv_pos_as_xyz
1 x,y,z
2 1/2+x,1/2+y,z
3 -x,-y,z
4 -x,y,1/2-z
5 x,-y,1/2-z
6 1/2-x,1/2-y,z
7 1/2-x,1/2+y,1/2-z
8 1/2+x,1/2-y,1/2-z
9 -x,-y,-z
10 -1/2-x,-1/2-y,-z
11 x,y,-z
12 x,-y,-1/2+z
13 -x,y,-1/2+z
14 -1/2+x,-1/2+y,-z
15 -1/2+x,-1/2-y,-1/2+z
16 -1/2-x,-1/2+y,-1/2+z
_cell_length_a 17.740(5)
_cell_length_b 22.157(6)
_cell_length_c 22.245(6)
_cell_angle_alpha 90
_cell_angle_beta 90
_cell_angle_gamma 90
_cell_formula_units_Z 4
loop_
_atom_type_symbol
_atom_type_radius_bond
C 0.68
H 0.23
Cu 1.79
N 0.59
O 0.68
Si 1.20
W 1.40
loop_
_atom_site_label
_atom_site_type_symbol
_atom_site_fract_x
_atom_site_fract_y
_atom_site_fract_z
W1 W -0.39883(3) -0.17993(2) -0.07903(2)
W2 W -0.25000 -0.25000 -0.15838(3)
W3 W -0.21772(3) -0.11409(2) -0.07937(2)
W4 W -0.43040(5) -0.31607(4) 0.00000
Si1 Si -0.25000 -0.25000 0.00000
O1? O -0.2675(8) -0.2142(7) -0.0594(6)
O2 O -0.2910(13) -0.3159(10) 0.00000
O3 O -0.3443(13) -0.2328(11) 0.00000
O4 O -0.25000 -0.25000 -0.2353(7)
O5 O -0.4209(18) -0.1541(8) 0.00000
O6 O -0.1176(6) -0.1349(9) -0.0599(5)
O7 O -0.4415(13) -0.2549(5) -0.0593(5)
O8 O -0.3473(5) -0.2198(5) -0.1417(7)
O9 O -0.2311(9) -0.0838(14) 0.00000
O10 O -0.2138(5) -0.1710(4) -0.1433(7)
O11 O -0.3230(5) -0.1190(5) -0.0836(6)
O12 O -0.2045(7) -0.0487(4) -0.1182(5)
O13 O -0.4703(5) -0.1465(4) -0.1161(4)
O14 O -0.5181(7) -0.3459(6) 0.00000
Cu1 Cu -0.50000 0.00000 -0.25000
Cu2 Cu -0.50000 -0.50000 -0.25000
N1 N -0.50000 -0.0898(6) -0.25000
C1 C -0.4392(7) -0.1219(5) -0.2648(6)
H1 H -0.39550 -0.10010 -0.27660
C2 C -0.4344(7) -0.1836(5) -0.2645(6)
H2 H -0.38850 -0.20360 -0.27380
C3 C -0.50000 -0.2165(7) -0.25000
C4 C -0.50000 -0.2825(8) -0.25000
C5 C -0.4528(7) -0.3162(5) -0.2119(5)
H3 H -0.41900 -0.29590 -0.18560
C6 C -0.4550(6) -0.3786(5) -0.2120(5)
H4 H -0.42390 -0.40010 -0.18470
N2 N -0.50000 -0.4100(6) -0.25000
N3 N -0.50000 -0.50000 -0.1597(6)
C7 C -0.5539(7) -0.4713(5) -0.1277(5)
H5 H -0.59310 -0.45110 -0.14880
C8 C -0.5545(7) -0.4701(5) -0.0667(5)
H6 H -0.59300 -0.44840 -0.04640
C9 C -0.50000 -0.50000 -0.0331(8)
C10 C -0.50000 0.00000 -0.0332(7)
C11 C -0.4335(10) -0.0028(8) -0.0667(6)
H7 H -0.38650 -0.00450 -0.04640
C12 C -0.4348(11) -0.0033(8) -0.1277(6)
H8 H -0.38840 -0.00600 -0.14880
N4 N -0.50000 0.00000 -0.1599(6)
O15 O -0.3642(7) -0.50000 -0.25000
H9 H -0.331(8) -0.468(6) -0.258(7)
O16 O -0.2538(9) -0.6264(9) -0.1067(9)
H10 H -0.26250 -0.59520 -0.08560
H11 H -0.21380 -0.64440 -0.09540
O17 O -0.1219(8) -0.6764(8) -0.0654(8)
H12 H -0.08190 -0.66490 -0.08310
H13 H -0.12020 -0.66750 -0.02830
H14 H -0.12670 -0.71440 -0.06940
O18 O -0.2586(15) -0.5542(12) 0.00000
H15 H -0.29510 -0.52940 0.00000
H16 H -0.21870 -0.53290 0.00000
O19 O -0.3765(10) -0.7026(11) -0.094(1)
H17 H -0.34630 -0.68520 -0.11810
H18 H -0.38490 -0.68710 -0.05970
O20 O -0.6615(6) 0.00000 -0.25000
H19 H -0.68960 -0.03050 -0.24410
O21 O -0.2624(6) -0.5971(5) -0.2316(6)
H20 H -0.26170 -0.61260 -0.19660
H21 H -0.26320 -0.62380 -0.25900
W1E W -0.10117(3) -0.32007(2) -0.07903(2)
W1I W -0.10117(3) -0.32007(2) 0.07903(2)
W1J W -0.39883(3) -0.17993(2) 0.07903(2)
W2J W -0.25000 -0.25000 0.15838(3)
W3E W -0.28228(3) -0.38591(2) -0.07937(2)
W3I W -0.28228(3) -0.38591(2) 0.07937(2)
W3J W -0.21772(3) -0.11409(2) 0.07937(2)
W4I W -0.06960(5) -0.18393(4) 0.00000
O2I O -0.2090(13) -0.1841(10) 0.00000
O3I O -0.1557(13) -0.2672(11) 0.00000
O4J O -0.25000 -0.25000 0.2353(7)
O5I O -0.0791(18) -0.3459(8) 0.00000
O6E O -0.3824(6) -0.3651(9) -0.0599(5)
O6I O -0.3824(6) -0.3651(9) 0.0599(5)
O6J O -0.1176(6) -0.1349(9) 0.0599(5)
O7E O -0.0585(13) -0.2451(5) -0.0593(5)
O7J O -0.4415(13) -0.2549(5) 0.0593(5)
O7I O -0.0585(13) -0.2451(5) 0.0593(5)
O8E O -0.1527(5) -0.2802(5) -0.1417(7)
O8I O -0.1527(5) -0.2802(5) 0.1417(7)
O8J O -0.3473(5) -0.2198(5) 0.1417(7)
O9I O -0.2689(9) -0.4162(14) 0.00000
O10E O -0.2862(5) -0.3290(4) -0.1433(7)
O10I O -0.2862(5) -0.3290(4) 0.1433(7)
O10J O -0.2138(5) -0.1710(4) 0.1433(7)
O11E O -0.1770(5) -0.3810(5) -0.0836(6)
O11I O -0.1770(5) -0.3810(5) 0.0836(6)
O11J O -0.3230(5) -0.1190(5) 0.0836(6)
O12E O -0.2955(7) -0.4513(4) -0.1182(5)
O12I O -0.2955(7) -0.4513(4) 0.1182(5)
O12J O -0.2045(7) -0.0487(4) 0.1182(5)
O13E O -0.0297(5) -0.3535(4) -0.1161(4)
O13I O -0.0297(5) -0.3535(4) 0.1161(4)
O13J O -0.4703(5) -0.1465(4) 0.1161(4)
O14I O 0.0181(7) -0.1541(6) 0.00000
Cu1J Cu -0.50000 0.00000 0.25000
Cu2J Cu -0.50000 -0.50000 0.25000
Cu2* Cu -0.50000 0.50000 -0.25000
N1B N -0.50000 0.0898(6) -0.25000
C1C C -0.5608(7) -0.1219(5) -0.2352(6)
C1B C -0.5608(7) 0.1219(5) -0.2648(6)
C1D C -0.4392(7) 0.1219(5) -0.2352(6)
H1C H -0.60450 -0.10010 -0.22340
H1B H -0.60450 0.10010 -0.27660
H1D H -0.39550 0.10010 -0.22340
C2C C -0.5656(7) -0.1836(5) -0.2355(6)
C2B C -0.5656(7) 0.1836(5) -0.2645(6)
C2D C -0.4344(7) 0.1836(5) -0.2355(6)
H2C H -0.61150 -0.20360 -0.22620
H2B H -0.61150 0.20360 -0.27380
H2D H -0.38850 0.20360 -0.22620
C3B C -0.50000 0.2165(7) -0.25000
C4B C -0.50000 0.2825(8) -0.25000
C5C C -0.5472(7) -0.3162(5) -0.2881(5)
C5B C -0.5472(7) 0.3162(5) -0.2119(5)
C5D C -0.4528(7) 0.3162(5) -0.2881(5)
H3C H -0.58100 -0.29590 -0.31440
H3B H -0.58100 0.29590 -0.18560
H3D H -0.41900 0.29590 -0.31440
C6C C -0.5450(6) -0.3786(5) -0.2880(5)
C6B C -0.5450(6) 0.3786(5) -0.2120(5)
C6D C -0.4550(6) 0.3786(5) -0.2880(5)
H4C H -0.57610 -0.40010 -0.31530
H4B H -0.57610 0.40010 -0.18470
H4D H -0.42390 0.40010 -0.31530
N2B N -0.50000 0.4100(6) -0.25000
N2B* N -0.50000 -0.5900(6) -0.25000
N3J N -0.50000 -0.50000 0.1597(6)
N3C N -0.50000 -0.50000 -0.3403(6)
C7B C -0.4461(7) -0.5287(5) -0.1277(5)
C7J C -0.5539(7) -0.4713(5) 0.1277(5)
C7H C -0.4461(7) -0.5287(5) 0.1277(5)
H5B H -0.40690 -0.54890 -0.14880
H5H H -0.40690 -0.54890 0.14880
H5J H -0.59310 -0.45110 0.14880
C8B C -0.4455(7) -0.5299(5) -0.0667(5)
C8J C -0.5545(7) -0.4701(5) 0.0667(5)
C8H C -0.4455(7) -0.5299(5) 0.0667(5)
H6B H -0.40700 -0.55160 -0.04640
H6H H -0.40700 -0.55160 0.04640
H6J H -0.59300 -0.44840 0.04640
C9J C -0.50000 -0.50000 0.0331(8)
C10J C -0.50000 0.00000 0.0332(7)
C11J C -0.4335(10) -0.0028(8) 0.0667(6)
C11H C -0.5665(10) 0.0028(8) 0.0667(6)
C11B C -0.5665(10) 0.0028(8) -0.0667(6)
H7J H -0.38650 -0.00450 0.04640
H7H H -0.61350 0.00450 0.04640
H7B H -0.61350 0.00450 -0.04640
C12J C -0.4348(11) -0.0033(8) 0.1277(6)
C12H C -0.5652(11) 0.0033(8) 0.1277(6)
C12B C -0.5652(11) 0.0033(8) -0.1277(6)
H8J H -0.38840 -0.00600 0.14880
H8H H -0.61160 0.00600 0.14880
H8B H -0.61160 0.00600 -0.14880
N4J N -0.50000 0.00000 0.1599(6)
N4C N -0.50000 0.00000 -0.3401(6)
O15B O -0.6358(7) -0.50000 -0.25000
H9D H -0.331(8) -0.532(6) -0.242(7)
H9B H -0.669(8) -0.532(6) -0.258(7)
H9C H -0.669(8) -0.468(6) -0.242(7)
O20B O -0.3385(6) 0.00000 -0.25000
H19D H -0.68960 0.03050 -0.25590
H19B H -0.31040 0.03050 -0.24410
H19C H -0.31040 -0.03050 -0.25590
#END
