
#######################################################################
#
#                 Cambridge Crystallographic Data Centre
#                                CCDC
#
#######################################################################
#
# If this CIF has been generated from an entry in the Cambridge
# Structural Database, then it will include bibliographic, chemical,
# crystal, experimental, refinement or atomic coordinate data resulting
# from the CCDC's data processing and validation procedures.
#
#######################################################################

data_CSD_CIF_VEWFOT
_audit_creation_date 2007-03-13
_audit_creation_method CSD-ConQuest-V1
_database_code_CSD VEWFOT
_database_code_depnum_ccdc_archive 'CCDC 605287'
_chemical_formula_sum 'C24 H28 Cu4 N12 O42 Si1 W12'
_chemical_formula_moiety
;
(C24 H24 Cu4 N12 4+)n,n(O40 Si1 W12 4-),2n(H2 O1)
;
_journal_coden_Cambridge 9
_journal_volume 45
_journal_year 2006
_journal_page_first 10702
_journal_name_full 'Inorg.Chem. '
loop_
_publ_author_name
"Xiang-Jian Kong"
"Yan-Ping Ren"
"Pei-Qing Zheng"
"Yu-Xiang Long"
"La-Sheng Long"
"Rong-Bin Huang"
"Lan-Sun Zheng"
_chemical_name_systematic
;
catena-(hexakis(\m~2~-Pyrazine-N,N')-tetra-copper(i) 
(\m~12~-silicato)-tetracosakis(\m~2~-oxo)-dodecaoxo-dodeca-tungsten 
dihydrate)
;
_cell_volume   1545.097
_exptl_crystal_colour 'red'
_exptl_crystal_density_diffrn 3.917
_exptl_special_details
;
polymorph 1

;
_exptl_crystal_description 'plate'
_diffrn_ambient_temperature 173
_refine_special_details
;
The silicate moiety of the anion is disordered by symmetry.

;
#These two values have been output from a single CSD field.
_refine_ls_R_factor_gt 0.0754
_refine_ls_wR_factor_gt 0.0754
_symmetry_cell_setting triclinic
_symmetry_space_group_name_H-M 'P -1'
_symmetry_Int_Tables_number 2
loop_
_symmetry_equiv_pos_site_id
_symmetry_equiv_pos_as_xyz
1 x,y,z
2 -x,-y,-z
_cell_length_a 11.818(2)
_cell_length_b 12.130(2)
_cell_length_c 12.237(3)
_cell_angle_alpha 114.618(3)
_cell_angle_beta 99.606(3)
_cell_angle_gamma 95.554(3)
_cell_formula_units_Z 1
loop_
_atom_type_symbol
_atom_type_radius_bond
C 0.68
H 0.23
Cu 1.52
N 0.68
O 0.63
Si 1.20
W 1.39
loop_
_atom_site_label
_atom_site_type_symbol
_atom_site_fract_x
_atom_site_fract_y
_atom_site_fract_z
Cu1 Cu 0.2881(3) 0.4895(5) -0.2221(4)
Cu2 Cu -0.2538(4) 0.1933(5) -0.4334(7)
N1 N 0.1378(15) 0.3854(19) -0.2603(16)
C1 C 0.047(3) 0.418(2) -0.207(2)
H1 H 0.06500 0.49180 -0.13210
C2 C -0.061(3) 0.3630(19) -0.245(2)
H2 H -0.11780 0.39880 -0.20220
C3 C -0.013(3) 0.208(2) -0.399(2)
H3 H -0.03060 0.12640 -0.46430
C4 C 0.110(2) 0.282(2) -0.3561(19)
H4 H 0.16690 0.25160 -0.40170
N2 N -0.0913(15) 0.253(2) -0.347(2)
N3 N 0.2721(16) 0.7168(16) -0.4585(18)
C5 C 0.332(2) 0.7681(19) -0.3318(18)
H5 H 0.37010 0.85190 -0.29280
C6 C 0.3358(18) 0.7078(18) -0.2685(19)
H6 H 0.37240 0.74970 -0.18300
C7 C 0.235(2) 0.533(2) -0.4371(19)
H7 H 0.19680 0.44940 -0.47340
C8 C 0.2291(18) 0.5939(17) -0.5098(17)
H8 H 0.19530 0.55010 -0.59580
N4 N 0.2900(17) 0.5852(18) -0.3182(14)
N5 N -0.390(2) 0.080(2) -0.471(2)
C9 C -0.425(3) -0.015(3) -0.585(2)
H9 H -0.37800 -0.03290 -0.64420
C10 C -0.455(3) 0.090(3) -0.389(3)
H10 H -0.42290 0.14960 -0.30610
N6 N 0.4118(18) 0.4946(18) -0.0927(16)
C11 C 0.500(2) 0.602(2) -0.019(2)
H11 H 0.50080 0.67320 -0.03360
C12 C 0.4236(18) 0.3996(19) -0.0670(17)
H12 H 0.36930 0.32510 -0.11790
O1 O -0.3429(19) 1.3683(18) -0.2573(18)
W1 W 0.17773(7) 0.79506(7) 0.03447(7)
W2 W 0.00537(7) 0.72720(6) -0.25698(7)
W3 W 0.30524(7) 1.07530(7) 0.04834(7)
W4 W 0.18080(7) 1.07345(8) 0.28918(7)
W5 W 0.12360(8) 1.01475(8) -0.23632(7)
W6 W 0.12825(8) 1.28675(7) 0.02605(7)
Si1 Si 0.00000 1.00000 0.00000
O2 O 0.0972(13) 1.0680(17) -0.0289(19)
O3 O 0.009(2) 0.8672(9) -0.0437(18)
O4 O 0.123(2) 1.178(2) -0.1401(16)
O5 O 0.202(2) 0.9063(17) 0.2020(18)
O6 O 0.260(2) 1.0247(19) -0.126(2)
O7 O 0.256(3) 1.230(2) 0.0729(14)
O8 O 0.0301(18) 0.715(2) 0.0332(15)
O9 O 0.0988(15) 0.846(2) -0.275(3)
O10 O 0.0372(18) 1.0086(17) 0.306(2)
O11 O -0.123(2) 0.780(2) -0.318(2)
O12 O -0.0998(17) 0.6680(18) -0.1814(17)
O13 O 0.2639(18) 0.6973(18) 0.0472(17)
O14 O 0.0042(15) 0.5956(18) -0.3788(19)
O15 O 0.1270(16) 0.724(2) -0.1421(16)
O16 O 0.2916(19) 1.1169(13) 0.2116(17)
O17 O 0.2679(16) 1.1066(16) 0.4259(16)
O18 O 0.4512(15) 1.1180(14) 0.0739(15)
O19 O 0.289(2) 0.9113(15) 0.0218(16)
O20 O 0.1889(13) 1.4249(13) 0.0377(15)
O21 O 0.1797(14) 1.0159(16) -0.3505(14)
O22? O 0.011(2) 1.0606(16) 0.1377(8)
O23? O -0.1134(11) 1.0161(18) -0.0640(17)
Cu1A Cu 0.7119(3) 0.5105(5) 0.2221(4)
Cu1A* Cu -0.2881(3) 0.5105(5) -0.7779(4)
Cu2A Cu 0.2538(4) 0.8067(5) -0.5666(7)
Cu2A* Cu -0.7462(4) -0.1933(5) -0.5666(7)
Cu2A** Cu 1.2538(4) 0.8067(5) 0.4334(7)
N1A N 0.8622(15) 0.6146(19) 0.2603(16)
C1A C 0.953(3) 0.582(2) 0.207(2)
H1A H 0.93500 0.50820 0.13210
C2A C 1.061(3) 0.6370(19) 0.245(2)
H2A H 1.11780 0.60120 0.20220
C3A C 1.013(3) 0.792(2) 0.399(2)
H3A H 1.03060 0.87360 0.46430
C4A C 0.890(2) 0.718(2) 0.3561(19)
H4A H 0.83310 0.74840 0.40170
N2A N 1.0913(15) 0.747(2) 0.347(2)
N2A* N 0.0913(15) 0.747(2) -0.653(2)
N3A N -0.2721(16) 0.2832(16) -0.5415(18)
C5A C -0.332(2) 0.2319(19) -0.6682(18)
H5A H -0.37010 0.14810 -0.70720
C6A C -0.3358(18) 0.2922(18) -0.7315(19)
H6A H -0.37240 0.25030 -0.81700
C7A C -0.235(2) 0.467(2) -0.5629(19)
H7A H -0.19680 0.55060 -0.52660
C8A C -0.2291(18) 0.4061(17) -0.4902(17)
H8A H -0.19530 0.44990 -0.40420
N4A N -0.2900(17) 0.4148(18) -0.6818(14)
N4A* N 0.7100(17) 0.4148(18) 0.3182(14)
N5A N -0.610(2) -0.080(2) -0.529(2)
N5A* N 0.390(2) 0.920(2) -0.529(2)
C9A C -0.575(3) 0.015(3) -0.415(2)
H9A H -0.62200 0.03290 -0.35580
C10A C -0.545(3) -0.090(3) -0.611(3)
H10A H -0.57710 -0.14960 -0.69390
N6A N 0.5882(18) 0.5054(18) 0.0927(16)
C11A C 0.500(2) 0.398(2) 0.019(2)
H11A H 0.49920 0.32680 0.03360
C12A C 0.5764(18) 0.6004(19) 0.0670(17)
H12A H 0.63070 0.67490 0.11790
W1A W -0.17773(7) 1.20494(7) -0.03447(7)
W2A W -0.00537(7) 1.27280(6) 0.25698(7)
W3A W -0.30524(7) 0.92470(7) -0.04834(7)
W4A W -0.18080(7) 0.92655(8) -0.28918(7)
W5A W -0.12360(8) 0.98525(8) 0.23632(7)
W6A W -0.12825(8) 0.71325(7) -0.02605(7)
O2A O -0.0972(13) 0.9320(17) 0.0289(19)
O3A O -0.009(2) 1.1328(9) 0.0437(18)
O4A O -0.123(2) 0.822(2) 0.1401(16)
O5A O -0.202(2) 1.0937(17) -0.2020(18)
O6A O -0.260(2) 0.9753(19) 0.126(2)
O7A O -0.256(3) 0.770(2) -0.0729(14)
O8A O -0.0301(18) 1.285(2) -0.0332(15)
O9A O -0.0988(15) 1.154(2) 0.275(3)
O10A O -0.0372(18) 0.9914(17) -0.306(2)
O11A O 0.123(2) 1.220(2) 0.318(2)
O12A O 0.0998(17) 1.3320(18) 0.1814(17)
O13A O -0.2639(18) 1.3027(18) -0.0472(17)
O14A O -0.0042(15) 1.4044(18) 0.3788(19)
O15A O -0.1270(16) 1.276(2) 0.1421(16)
O16A O -0.2916(19) 0.8831(13) -0.2116(17)
O17A O -0.2679(16) 0.8934(16) -0.4259(16)
O18A O -0.4512(15) 0.8820(14) -0.0739(15)
O19A O -0.289(2) 1.0887(15) -0.0218(16)
O20A O -0.1889(13) 0.5751(13) -0.0377(15)
O21A O -0.1797(14) 0.9841(16) 0.3505(14)
#END
