
#######################################################################
#
#                 Cambridge Crystallographic Data Centre
#                                CCDC
#
#######################################################################
#
# If this CIF has been generated from an entry in the Cambridge
# Structural Database, then it will include bibliographic, chemical,
# crystal, experimental, refinement or atomic coordinate data resulting
# from the CCDC's data processing and validation procedures.
#
#######################################################################

data_CSD_CIF_VEWFIN
_audit_creation_date 2007-03-13
_audit_creation_method CSD-ConQuest-V1
_database_code_CSD VEWFIN
_database_code_depnum_ccdc_archive 'CCDC 605286'
_chemical_formula_sum 'C36 H48 Ag4 N12 O40 Si1 W12'
_chemical_formula_moiety
;
(C36 H48 Ag4 N12 4+)n,n(O40 Si1 W12 4-)
;
_journal_coden_Cambridge 9
_journal_volume 45
_journal_year 2006
_journal_page_first 10702
_journal_name_full 'Inorg.Chem. '
loop_
_publ_author_name
"Xiang-Jian Kong"
"Yan-Ping Ren"
"Pei-Qing Zheng"
"Yu-Xiang Long"
"La-Sheng Long"
"Rong-Bin Huang"
"Lan-Sun Zheng"
_chemical_name_systematic
;
catena-(hexakis(\m~2~-2,3-Dimethylpyrazine-N,N')-tetra-silver(i) 
(\m~12~-silicato)-tetracosakis(\m~2~-oxo)-dodecaoxo-dodeca-tungsten)
;
_cell_volume   6813.381
_exptl_crystal_colour 'yellow'
_exptl_crystal_density_diffrn 3.855
_exptl_crystal_description 'block'
_diffrn_ambient_temperature 293
_refine_special_details
;
The silicate moiety of the anion is disordered by symmetry.

;
#These two values have been output from a single CSD field.
_refine_ls_R_factor_gt 0.0965
_refine_ls_wR_factor_gt 0.0965
_symmetry_cell_setting orthorhombic
_symmetry_space_group_name_H-M 'P b c a'
_symmetry_Int_Tables_number 61
loop_
_symmetry_equiv_pos_site_id
_symmetry_equiv_pos_as_xyz
1 x,y,z
2 1/2-x,-y,1/2+z
3 -x,1/2+y,1/2-z
4 1/2+x,1/2-y,-z
5 -x,-y,-z
6 -1/2+x,y,-1/2-z
7 x,-1/2-y,-1/2+z
8 -1/2-x,-1/2+y,z
_cell_length_a 12.546(3)
_cell_length_b 23.138(5)
_cell_length_c 23.471(5)
_cell_angle_alpha 90
_cell_angle_beta 90
_cell_angle_gamma 90
_cell_formula_units_Z 4
loop_
_atom_type_symbol
_atom_type_radius_bond
C 0.68
H 0.23
Ag 1.59
N 0.68
O 0.67
Si 1.20
W 1.42
loop_
_atom_site_label
_atom_site_type_symbol
_atom_site_fract_x
_atom_site_fract_y
_atom_site_fract_z
W1 W 1.32177(11) 0.05752(6) 0.39971(6)
W2 W 1.57430(11) 0.11998(6) 0.41705(6)
W3 W 1.55087(11) -0.01680(6) 0.35426(6)
W4 W 1.25012(11) -0.06445(7) 0.48082(6)
W5 W 1.51968(12) 0.13757(6) 0.56270(7)
W6 W 1.26904(11) 0.07210(6) 0.54528(7)
Ag1 Ag 0.9658(2) -0.18294(12) 0.54343(14)
Ag2 Ag 1.0909(2) 0.08570(12) 0.68918(13)
Si1 Si 1.50000 0.00000 0.50000
O1 O 1.563(3) 0.0552(9) 0.4987(16)
O2? O 1.6142(11) -0.0131(16) 0.5142(15)
O3? O 1.492(3) 0.0282(14) 0.4429(8)
O4 O 1.545(3) -0.0401(13) 0.4552(12)
O5 O 1.534(3) 0.1567(19) 0.4867(14)
O6 O 1.614(2) 0.1766(11) 0.3778(11)
O7 O 1.236(2) 0.0833(13) 0.3502(13)
O8 O 1.495(3) -0.0935(18) 0.3689(19)
O9 O 1.211(3) 0.0003(16) 0.5275(16)
O10 O 1.432(2) 0.1148(13) 0.4016(13)
O11 O 1.602(2) 0.0593(12) 0.3628(12)
O12 O 1.5289(18) 0.2042(10) 0.5949(10)
O13 O 1.125(2) -0.0937(11) 0.4712(11)
O14 O 1.412(2) 0.0095(13) 0.3522(13)
O15 O 1.1574(18) 0.1072(9) 0.5698(9)
O16 O 1.686(3) -0.0425(16) 0.3848(16)
O17 O 1.371(3) 0.1291(18) 0.5507(18)
O18 O 1.338(3) -0.1112(18) 0.4419(18)
O19 O 1.572(3) -0.0228(15) 0.2842(14)
O20 O 1.257(4) -0.0154(13) 0.4209(14)
O21 O 1.270(3) 0.0882(15) 0.4670(15)
O22 O 1.707(4) 0.1026(19) 0.4506(19)
N1 N 1.223(2) 0.1144(12) 0.7445(13)
C1 C 1.244(2) 0.0846(13) 0.7912(12)
H1 H 1.18960 0.06170 0.80620
C2 C 1.346(3) 0.0852(15) 0.8207(15)
H2 H 1.36180 0.06160 0.85160
C3 C 1.397(3) 0.1565(14) 0.7572(14)
C4 C 1.478(3) 0.1995(17) 0.7380(18)
H3 H 1.54080 0.19620 0.76130
H4 H 1.44920 0.23780 0.74150
H5 H 1.49630 0.19220 0.69900
C5 C 1.295(3) 0.1534(15) 0.7291(15)
C6 C 1.269(2) 0.1882(13) 0.6803(13)
H6 H 1.19780 0.17980 0.66800
H7 H 1.31820 0.17990 0.65010
H8 H 1.27420 0.22840 0.69030
N2 N 1.415(2) 0.1242(12) 0.7980(12)
N3 N 1.067(3) -0.0015(13) 0.6432(14)
C7 C 1.012(3) -0.0003(14) 0.5950(14)
H9 H 0.98960 0.03400 0.57800
C8 C 0.990(2) -0.0532(12) 0.5726(12)
H10 H 0.95780 -0.05340 0.53690
C9 C 1.063(3) -0.1003(14) 0.6388(14)
C10 C 1.096(4) -0.1577(18) 0.6692(19)
H11 H 1.06840 -0.19000 0.64820
H12 H 1.06730 -0.15810 0.70710
H13 H 1.17230 -0.16020 0.67100
C11 C 1.094(3) -0.0503(14) 0.6671(14)
C12 C 1.158(4) -0.0451(19) 0.7228(19)
H14 H 1.17130 -0.00510 0.73070
H15 H 1.22410 -0.06530 0.71910
H16 H 1.11720 -0.06160 0.75340
N4 N 1.008(2) -0.1012(11) 0.5940(11)
N5 N 0.809(2) -0.2232(11) 0.5250(11)
C13 C 0.782(3) -0.2358(14) 0.4710(14)
H17 H 0.82970 -0.22510 0.44280
C14 C 0.692(2) -0.2622(11) 0.4537(12)
H18 H 0.68170 -0.27060 0.41540
C15 C 0.643(3) -0.2698(15) 0.5462(16)
C16 C 0.559(3) -0.2868(16) 0.5896(16)
H19 H 0.50270 -0.30730 0.57090
H20 H 0.53130 -0.25270 0.60740
H21 H 0.59110 -0.31120 0.61800
C17 C 0.741(3) -0.2397(16) 0.5620(16)
C18 C 0.761(4) -0.2271(18) 0.6232(17)
H22 H 0.82590 -0.20540 0.62690
H23 H 0.76730 -0.26270 0.64390
H24 H 0.70280 -0.20490 0.63830
N6 N 0.6190(19) -0.276(1) 0.492(1)
W1D W 1.67823(11) -0.05752(6) 0.60029(6)
W2D W 1.42570(11) -0.11998(6) 0.58295(6)
W3D W 1.44913(11) 0.01680(6) 0.64574(6)
W4D W 1.74988(11) 0.06445(7) 0.51918(6)
W5D W 1.48032(12) -0.13757(6) 0.43730(7)
W6D W 1.73096(11) -0.07210(6) 0.45472(7)
Ag1C Ag 1.4658(2) -0.31706(12) 0.45657(14)
Ag1C* Ag 0.4658(2) -0.31706(12) 0.45657(14)
Ag2E Ag 0.5909(2) 0.08570(12) 0.81082(13)
Ag2E* Ag 1.5909(2) 0.08570(12) 0.81082(13)
Ag2C Ag 1.5909(2) -0.58570(12) 0.31082(13)
O1D O 1.437(3) -0.0552(9) 0.5013(16)
O4D O 1.455(3) 0.0401(13) 0.5448(12)
O5D O 1.466(3) -0.1567(19) 0.5133(14)
O6D O 1.386(2) -0.1766(11) 0.6222(11)
O7D O 1.764(2) -0.0833(13) 0.6498(13)
O8D O 1.505(3) 0.0935(18) 0.6311(19)
O9D O 1.789(3) -0.0003(16) 0.4725(16)
O10D O 1.568(2) -0.1148(13) 0.5984(13)
O11D O 1.398(2) -0.0593(12) 0.6372(12)
O12D O 1.4711(18) -0.2042(10) 0.4051(10)
O13D O 1.875(2) 0.0937(11) 0.5288(11)
O14D O 1.588(2) -0.0095(13) 0.6478(13)
O15D O 1.8426(18) -0.1072(9) 0.4302(9)
O16D O 1.314(3) 0.0425(16) 0.6152(16)
O17D O 1.629(3) -0.1291(18) 0.4493(18)
O18D O 1.662(3) 0.1112(18) 0.5581(18)
O19D O 1.428(3) 0.0228(15) 0.7158(14)
O20D O 1.743(4) 0.0154(13) 0.5791(14)
O21D O 1.730(3) -0.0882(15) 0.5330(15)
O22D O 1.293(4) -0.1026(19) 0.5494(19)
N1E N 0.723(2) 0.1144(12) 0.7555(13)
C1E C 0.744(2) 0.0846(13) 0.7088(12)
H1E H 0.68960 0.06170 0.69380
C2E C 0.846(3) 0.0852(15) 0.6793(15)
H2E H 0.86180 0.06160 0.64840
C3E C 0.897(3) 0.1565(14) 0.7428(14)
C4E C 0.978(3) 0.1995(17) 0.7620(18)
H3E H 1.04080 0.19620 0.73870
H4E H 0.94920 0.23780 0.75850
H5E H 0.99630 0.19220 0.80100
C5E C 0.795(3) 0.1534(15) 0.7709(15)
C6E C 0.769(2) 0.1882(13) 0.8197(13)
H6E H 0.69780 0.17980 0.83200
H7E H 0.81820 0.17990 0.84990
H8E H 0.77420 0.22840 0.80970
N2E N 0.915(2) 0.1242(12) 0.7020(12)
N2* N 0.415(2) 0.1242(12) 0.7980(12)
N3C N 1.567(3) -0.4985(13) 0.3568(14)
N3E N 0.567(3) -0.0015(13) 0.8568(14)
C7C C 1.512(3) -0.4997(14) 0.4050(14)
H9C H 1.48960 -0.53400 0.42200
C8C C 1.490(2) -0.4468(12) 0.4274(12)
H10C H 1.45780 -0.44660 0.46310
C9C C 1.563(3) -0.3997(14) 0.3612(14)
C10C C 1.596(4) -0.3423(18) 0.3308(19)
H11C H 1.56840 -0.31000 0.35180
H12C H 1.56730 -0.34190 0.29290
H13C H 1.67230 -0.33980 0.32900
C11C C 1.594(3) -0.4497(14) 0.3329(14)
C12C C 1.658(4) -0.4549(19) 0.2772(19)
H14C H 1.67130 -0.49490 0.26930
H15C H 1.72410 -0.43470 0.28090
H16C H 1.61720 -0.43840 0.24660
N4C N 1.508(2) -0.3988(11) 0.4060(11)
N5C N 1.309(2) -0.2768(11) 0.4750(11)
C13C C 1.282(3) -0.2642(14) 0.5290(14)
H17C H 1.32970 -0.27490 0.55720
C14C C 1.192(2) -0.2378(11) 0.5463(12)
H18C H 1.18170 -0.22940 0.58460
C15C C 1.143(3) -0.2302(15) 0.4538(16)
C16C C 1.059(3) -0.2132(16) 0.4104(16)
H19C H 1.00270 -0.19270 0.42910
H20C H 1.03130 -0.24730 0.39260
H21C H 1.09110 -0.18880 0.38200
C17C C 1.241(3) -0.2603(16) 0.4380(16)
C18C C 1.261(4) -0.2729(18) 0.3768(17)
H22C H 1.32590 -0.29460 0.37310
H23C H 1.26730 -0.23730 0.35610
H24C H 1.20280 -0.29510 0.36170
N6C N 1.1190(19) -0.224(1) 0.508(1)
N6* N 1.6190(19) -0.276(1) 0.492(1)
#END
