
#######################################################################
#
#                 Cambridge Crystallographic Data Centre
#                                CCDC
#
#######################################################################
#
# If this CIF has been generated from an entry in the Cambridge
# Structural Database, then it will include bibliographic, chemical,
# crystal, experimental, refinement or atomic coordinate data resulting
# from the CCDC's data processing and validation procedures.
#
#######################################################################

data_CSD_CIF_VEWFOT01
_audit_creation_date 2012-06-18
_audit_creation_method CSD-ConQuest-V1
_database_code_CSD VEWFOT01
_database_code_depnum_ccdc_archive 'CCDC 773633'
_chemical_formula_sum 'C24 H28 Cu4 N12 O42 Si1 W12'
_chemical_formula_moiety
;
(C24 H24 Cu4 N12 4+)n,n(O40 Si1 W12 4-),2n(H2 O1)
;
_journal_coden_Cambridge 1295
_journal_volume 15
_journal_year 2012
_journal_page_first 238
_journal_name_full 'Inorg.Chem.Commun. '
loop_
_publ_author_name
"Qun Tang"
"Chun-Jing Zhang"
"Chun-Hua Zhang"
"Hui-Yuan Wang"
"Ya-Guang Chen"
"Shu-Xia Liu"
_chemical_name_systematic
;
catena-[hexakis(\m~2~-Pyrazine)-tetra-copper(i) 
(\m~12~-silicato)-tetracosakis(\m~2~-oxo)-dodeca-oxo-dodeca-tungsten 
dihydrate]
;
_cell_volume   2972.818
_exptl_crystal_colour 'red'
_exptl_crystal_density_diffrn 4.05
_exptl_special_details
;
polymorph 2

;
_exptl_crystal_description 'block'
_diffrn_ambient_temperature 293
_refine_special_details
;
The Keggin anion is disordered by symmetry.

;
#These two values have been output from a single CSD field.
_refine_ls_R_factor_gt 0.0819
_refine_ls_wR_factor_gt 0.0819
_symmetry_cell_setting monoclinic
_symmetry_space_group_name_H-M 'C 2/m'
_symmetry_Int_Tables_number 12
loop_
_symmetry_equiv_pos_site_id
_symmetry_equiv_pos_as_xyz
1 x,y,z
2 -x,y,-z
3 1/2+x,1/2+y,z
4 1/2-x,1/2+y,-z
5 -x,-y,-z
6 x,-y,z
7 -1/2-x,-1/2-y,-z
8 -1/2+x,-1/2-y,z
_cell_length_a 15.035(5)
_cell_length_b 20.369(5)
_cell_length_c 11.504(5)
_cell_angle_alpha 90
_cell_angle_beta 122.455(5)
_cell_angle_gamma 90
_cell_formula_units_Z 2
loop_
_atom_type_symbol
_atom_type_radius_bond
C 0.68
H 0.23
Cu 1.32
N 0.68
O 0.68
Si 1.20
W 1.38
loop_
_atom_site_label
_atom_site_type_symbol
_atom_site_fract_x
_atom_site_fract_y
_atom_site_fract_z
Cu1 Cu 0.2096(5) -0.3346(3) 0.7215(7)
N1 N 0.235(3) -0.2814(15) 0.884(3)
N2 N 0.234(2) -0.2884(15) 0.595(4)
N3 N 0.191(2) -0.4312(13) 0.753(4)
C1 C 0.331(3) -0.2787(17) 0.994(4)
H1 H 0.38800 -0.29850 0.99700
C2 C 0.299(3) -0.2354(19) 0.635(4)
H2 H 0.33520 -0.22250 0.72680
C3 C 0.186(3) -0.3017(19) 0.462(4)
H3 H 0.13980 -0.33710 0.42750
C4 C 0.271(3) -0.4633(2) 0.852(4)
H4 H 0.32840 -0.44050 0.92180
C5 C 0.156(3) -0.2565(19) 0.889(4)
H5 H 0.08840 -0.26200 0.81240
C6 C 0.106(3) -0.4632(2) 0.665(4)
H6 H 0.04570 -0.44040 0.60110
O1 O -0.501(7) -0.122(4) 0.187(9)
W1 W 0.00000 -0.17314(8) 0.50000
W2 W 0.25333(14) 0.00000 0.5523(2)
W3 W 0.04671(10) 0.08666(6) 0.27178(13)
W4 W 0.20731(11) -0.08620(6) 0.78039(13)
Si1 Si 0.00000 0.00000 0.50000
O2 O 0.059(6) 0.00000 0.418(7)
O3 O 0.129(6) 0.00000 0.617(8)
O4 O 0.371(3) 0.00000 0.576(3)
O5 O 0.0689(19) 0.1286(12) 0.165(2)
O6 O -0.105(2) 0.0914(14) 0.173(3)
O7 O 0.011(5) -0.257(2) 0.525(5)
O8 O 0.265(4) -0.065(2) 0.677(5)
O9 O 0.136(2) -0.1545(14) 0.651(3)
O10 O 0.027(3) 0.00000 0.193(4)
O11 O 0.3023(19) -0.1281(13) 0.908(3)
O12 O 0.052(2) -0.1538(14) 0.389(3)
O13 O 0.029(2) -0.0651(14) 0.594(3)
O14 O 0.236(3) 0.00000 0.851(4)
O15 O 0.185(2) 0.0622(14) 0.414(3)
Cu1F Cu 0.2904(5) -0.1654(3) 1.2785(7)
Cu1F* Cu 0.2904(5) -0.1654(3) 0.2785(7)
Cu1E Cu 0.2096(5) -0.6654(3) 0.7215(7)
Cu1* Cu 0.2096(5) -0.3346(3) 1.7215(7)
Cu1C Cu 0.2904(5) 0.1654(3) 1.2785(7)
Cu1** Cu 0.2096(5) -0.3346(3) -0.2785(7)
N1F N 0.265(3) -0.2186(15) 1.116(3)
N1F* N 0.265(3) -0.2186(15) 0.116(3)
N1* N 0.235(3) -0.2814(15) -0.116(3)
N1E N 0.235(3) -0.7186(15) 0.884(3)
N2F N 0.266(2) -0.2116(15) 0.405(4)
N2F* N 0.266(2) -0.2116(15) 1.405(4)
N2* N 0.234(2) -0.2884(15) 1.595(4)
N2E N 0.234(2) -0.7116(15) 0.595(4)
N3E N 0.191(2) -0.5688(13) 0.753(4)
N3F N 0.309(2) -0.0688(13) 1.247(4)
N3C N 0.309(2) 0.0688(13) 1.247(4)
N3F* N 0.309(2) -0.0688(13) 0.247(4)
C1F C 0.169(3) -0.2213(17) 1.006(4)
C1F* C 0.169(3) -0.2213(17) 0.006(4)
C1* C 0.331(3) -0.2787(17) -0.006(4)
H1F H 0.11200 -0.20150 1.00300
H1F* H 0.11200 -0.20150 0.00300
H1* H 0.38800 -0.29850 -0.00300
C2F C 0.201(3) -0.2646(19) 0.365(4)
C2F* C 0.201(3) -0.2646(19) 1.365(4)
C2* C 0.299(3) -0.2354(19) 1.635(4)
H2F H 0.16480 -0.27750 0.27320
H2F* H 0.16480 -0.27750 1.27320
H2* H 0.33520 -0.22250 1.72680
C3F C 0.314(3) -0.1983(19) 0.538(4)
C3F* C 0.314(3) -0.1983(19) 1.538(4)
C3* C 0.186(3) -0.3017(19) 1.462(4)
H3F H 0.36020 -0.16290 0.57250
H3F* H 0.36020 -0.16290 1.57250
H3* H 0.13980 -0.33710 1.42750
C4E C 0.271(3) -0.5367(2) 0.852(4)
C4F C 0.229(3) -0.0367(2) 1.148(4)
C4C C 0.229(3) 0.0367(2) 1.148(4)
H4E H 0.32840 -0.55950 0.92180
H4F H 0.17160 -0.05950 1.07820
H4C H 0.17160 0.05950 1.07820
C5F C 0.344(3) -0.2435(19) 1.111(4)
C5F* C 0.344(3) -0.2435(19) 0.111(4)
C5* C 0.156(3) -0.2565(19) -0.111(4)
H5F H 0.41160 -0.23800 1.18760
H5F* H 0.41160 -0.23800 0.18760
H5* H 0.08840 -0.26200 -0.18760
C6E C 0.106(3) -0.5368(2) 0.665(4)
C6F C 0.394(3) -0.0368(2) 1.335(4)
C6C C 0.394(3) 0.0368(2) 1.335(4)
H6E H 0.04570 -0.55960 0.60110
H6F H 0.45430 -0.05960 1.39890
H6C H 0.45430 0.05960 1.39890
W1D W 0.00000 0.17314(8) 0.50000
W2A W -0.25333(14) 0.00000 0.4477(2)
W3A W -0.04671(10) 0.08666(6) 0.72822(13)
W3E W 0.04671(10) -0.08666(6) 0.27178(13)
W3D W -0.04671(10) -0.08666(6) 0.72822(13)
W4D W -0.20731(11) 0.08620(6) 0.21961(13)
W4E W 0.20731(11) 0.08620(6) 0.78039(13)
W4A W -0.20731(11) -0.08620(6) 0.21961(13)
O2A O -0.059(6) 0.00000 0.582(7)
O3A O -0.129(6) 0.00000 0.383(8)
O4A O -0.371(3) 0.00000 0.424(3)
O5A O -0.0689(19) 0.1286(12) 0.835(2)
O5E O 0.0689(19) -0.1286(12) 0.165(2)
O5D O -0.0689(19) -0.1286(12) 0.835(2)
O6D O 0.105(2) -0.0914(14) 0.827(3)
O6A O 0.105(2) 0.0914(14) 0.827(3)
O6E O -0.105(2) -0.0914(14) 0.173(3)
O7A O -0.011(5) -0.257(2) 0.475(5)
O7E O 0.011(5) 0.257(2) 0.525(5)
O7D O -0.011(5) 0.257(2) 0.475(5)
O8E O 0.265(4) 0.065(2) 0.677(5)
O8A O -0.265(4) -0.065(2) 0.323(5)
O8D O -0.265(4) 0.065(2) 0.323(5)
O9A O -0.136(2) -0.1545(14) 0.349(3)
O9E O 0.136(2) 0.1545(14) 0.651(3)
O9D O -0.136(2) 0.1545(14) 0.349(3)
O10A O -0.027(3) 0.00000 0.807(4)
O11D O -0.3023(19) 0.1281(13) 0.092(3)
O11E O 0.3023(19) 0.1281(13) 0.908(3)
O11A O -0.3023(19) -0.1281(13) 0.092(3)
O12A O -0.052(2) -0.1538(14) 0.611(3)
O12E O 0.052(2) 0.1538(14) 0.389(3)
O12D O -0.052(2) 0.1538(14) 0.611(3)
O13E O 0.029(2) 0.0651(14) 0.594(3)
O13D O -0.029(2) 0.0651(14) 0.406(3)
O13A O -0.029(2) -0.0651(14) 0.406(3)
O14A O -0.236(3) 0.00000 0.149(4)
O15E O 0.185(2) -0.0622(14) 0.414(3)
O15A O -0.185(2) 0.0622(14) 0.586(3)
O15D O -0.185(2) -0.0622(14) 0.586(3)
#END
