
#######################################################################
#
#                 Cambridge Crystallographic Data Centre
#                                CCDC
#
#######################################################################
#
# If this CIF has been generated from an entry in the Cambridge
# Structural Database, then it will include bibliographic, chemical,
# crystal, experimental, refinement or atomic coordinate data resulting
# from the CCDC's data processing and validation procedures.
#
#######################################################################

data_CSD_CIF_VEWGAG
_audit_creation_date 2007-03-13
_audit_creation_method CSD-ConQuest-V1
_database_code_CSD VEWGAG
_database_code_depnum_ccdc_archive 'CCDC 605289'
_chemical_formula_sum 'C70 H62 Cu4 N14 O43 Si1 W12'
_chemical_formula_moiety
;
(C70 H56 Cu4 N14 4+)n,n(O40 Si1 W12 4-),3n(H2 O1)
;
_journal_coden_Cambridge 9
_journal_volume 45
_journal_year 2006
_journal_page_first 10702
_journal_name_full 'Inorg.Chem. '
loop_
_publ_author_name
"Xiang-Jian Kong"
"Yan-Ping Ren"
"Pei-Qing Zheng"
"Yu-Xiang Long"
"La-Sheng Long"
"Rong-Bin Huang"
"Lan-Sun Zheng"
_chemical_name_systematic
;
catena-(pentakis(\m~2~-4,4'-Bipyridine-N,N')-bis(4,4'-bipyridine-N)-tetra-copp
er(i) (\m~12~-silicato)-tetracosakis(\m~2~-oxo)-dodecaoxo-dodeca-tungsten 
trihydrate)
;
_cell_volume   2306.838
_exptl_crystal_colour 'yellow'
_exptl_crystal_density_diffrn 3.078
_exptl_crystal_description 'block'
_diffrn_ambient_temperature 293
_refine_special_details
;
The silicate moiety of the anion is disordered by symmetry.

;
#These two values have been output from a single CSD field.
_refine_ls_R_factor_gt 0.0627
_refine_ls_wR_factor_gt 0.0627
_symmetry_cell_setting triclinic
_symmetry_space_group_name_H-M 'P -1'
_symmetry_Int_Tables_number 2
loop_
_symmetry_equiv_pos_site_id
_symmetry_equiv_pos_as_xyz
1 x,y,z
2 -x,-y,-z
_cell_length_a 11.280(3)
_cell_length_b 14.974(4)
_cell_length_c 15.557(4)
_cell_angle_alpha 105.665(5)
_cell_angle_beta 102.262(5)
_cell_angle_gamma 106.328(4)
_cell_formula_units_Z 1
loop_
_atom_type_symbol
_atom_type_radius_bond
C 0.68
H 0.23
Cu 1.48
N 0.68
O 0.64
Si 1.20
W 1.40
loop_
_atom_site_label
_atom_site_type_symbol
_atom_site_fract_x
_atom_site_fract_y
_atom_site_fract_z
W1 W 0.82341(6) 0.61569(5) 0.65276(5)
W2 W 0.57601(7) 0.69607(4) 0.71181(4)
W3 W 0.49512(7) 0.73265(5) 0.49611(5)
W4 W 0.74818(6) 0.41952(5) 0.44032(5)
W5 W 0.74296(6) 0.65237(5) 0.43613(5)
W6 W 0.58051(7) 0.46362(5) 0.71663(5)
Si1 Si 0.50000 0.50000 0.50000
O1 O 0.4699(16) 0.5895(9) 0.5472(11)
O2 O 0.4714(17) 0.4259(10) 0.5505(10)
O3? O 0.4161(14) 0.4498(11) 0.3980(6)
O4? O 0.6427(9) 0.5335(12) 0.5053(11)
O5 O 0.7454(16) 0.7037(11) 0.7077(13)
O6 O 0.7473(16) 0.5295(10) 0.7116(13)
O7 O 0.6030(13) 0.5923(12) 0.3212(11)
O8 O 0.5751(13) 0.7660(11) 0.6249(10)
O9 O 0.5672(15) 0.5875(12) 0.7576(14)
O10 O 0.3921(13) 0.6521(12) 0.6737(9)
O11 O 0.6586(12) 0.7431(13) 0.4796(10)
O12 O 0.5811(13) 0.3451(13) 0.6342(11)
O13 O 0.8319(19) 0.678(1) 0.5611(9)
O14 O 0.8347(19) 0.5056(10) 0.5674(8)
O15 O 0.9781(12) 0.6713(9) 0.7266(9)
O16 O 0.7725(18) 0.5347(10) 0.4042(9)
O17 O 0.8621(16) 0.3760(12) 0.4125(10)
O18 O 0.6206(13) 0.4467(10) 0.8188(9)
O19 O 0.4900(13) 0.8435(9) 0.4909(10)
O20 O 0.6124(13) 0.7915(9) 0.8134(9)
O21 O 0.8560(14) 0.7266(10) 0.4057(9)
O22 O 0.6650(13) 0.3211(13) 0.4884(10)
Cu1 Cu 0.7128(2) 0.13152(17) -0.40156(16)
Cu2 Cu 0.1307(2) -0.09593(17) 0.03723(16)
N1 N 1.4469(16) 0.6743(12) -0.0277(11)
C1 C 1.410(2) 0.5894(16) -0.0095(16)
H1 H 1.46020 0.58680 0.04480
C2 C 1.3032(19) 0.5069(15) -0.0655(13)
H2 H 1.28430 0.44980 -0.05010
C3 C 1.2215(18) 0.5095(13) -0.1475(13)
C4 C 1.2625(18) 0.5986(12) -0.1636(13)
H3 H 1.21320 0.60590 -0.21550
C5 C 1.371(2) 0.6735(16) -0.1064(15)
H4 H 1.39540 0.72980 -0.12270
C6 C 1.1016(16) 0.4256(12) -0.2053(12)
C7 C 1.0790(19) 0.3298(15) -0.2030(14)
H5 H 1.14090 0.31740 -0.16280
C8 C 0.9656(19) 0.2545(13) -0.2602(15)
H6 H 0.95510 0.19090 -0.25950
C9 C 0.8886(18) 0.3570(13) -0.3207(12)
H7 H 0.82540 0.36710 -0.36220
C10 C 0.9989(19) 0.4353(12) -0.2650(13)
H8 H 1.00610 0.49810 -0.26700
N2 N 0.8687(13) 0.2659(10) -0.3171(10)
N3 N 0.6107(13) 0.0897(10) -0.3215(10)
C11 C 0.5952(18) 0.0027(13) -0.3090(13)
H9 H 0.63360 -0.03880 -0.33860
C12 C 0.524(2) -0.0268(15) -0.2535(15)
H10 H 0.51160 -0.08900 -0.24820
C13 C 0.4722(17) 0.0335(11) -0.2068(11)
C14 C 0.4867(17) 0.1247(12) -0.2194(12)
H11 H 0.45220 0.16840 -0.18850
C15 C 0.5550(16) 0.1472(12) -0.2801(10)
H12 H 0.56160 0.20570 -0.29200
C16 C 0.3920(17) 0.0017(12) -0.1477(10)
C17 C 0.3138(18) -0.0968(12) -0.1713(11)
H13 H 0.31110 -0.14520 -0.22450
C18 C 0.2416(17) -0.1219(12) -0.1163(12)
H14 H 0.19090 -0.18860 -0.13340
C19 C 0.3157(17) 0.0356(13) -0.0150(12)
H15 H 0.31780 0.08160 0.03970
C20 C 0.3938(18) 0.0686(12) -0.0666(12)
H16 H 0.44660 0.13520 -0.04650
N4 N 0.2383(14) -0.0583(10) -0.0402(10)
N5 N 0.0853(14) -0.2491(9) 0.0112(10)
C21 C 0.160(2) -0.2749(14) 0.0670(15)
H17 H 0.23620 -0.22610 0.11050
C22 C 0.1313(17) -0.3730(16) 0.0655(13)
H18 H 0.18850 -0.38740 0.10740
C23 C 0.0186(15) -0.4486(11) 0.0019(11)
C24 C -0.0550(18) -0.4206(13) -0.0586(14)
H19 H -0.12870 -0.46830 -0.10590
C25 C -0.0207(19) -0.3173(13) -0.0507(13)
H20 H -0.07560 -0.29930 -0.09070
N6 N 1.0541(14) -0.0473(10) -0.8678(10)
C26 C 1.114(2) 0.0413(14) -0.7950(16)
H21 H 1.19220 0.08450 -0.79460
C27 C 1.0672(17) 0.0703(13) -0.7225(13)
H22 H 1.11240 0.13170 -0.67460
C28 C 0.9490(16) 0.0065(11) -0.7205(11)
C29 C 0.8856(17) -0.0847(12) -0.7971(12)
H23 H 0.80630 -0.12890 -0.80080
C30 C 0.9432(15) -0.1076(12) -0.8668(11)
H24 H 0.90150 -0.16870 -0.91550
C31 C 0.8921(17) 0.0345(12) -0.6459(12)
C32 C 0.829(2) -0.0346(12) -0.6101(13)
H25 H 0.82340 -0.10020 -0.63300
C33 C 0.7749(17) -0.0062(13) -0.5421(13)
H26 H 0.73780 -0.05250 -0.51680
C34 C 0.8325(18) 0.1526(13) -0.5430(12)
H27 H 0.83560 0.21760 -0.51980
C35 C 0.8889(17) 0.1271(11) -0.6106(13)
H28 H 0.92690 0.17530 -0.63360
N7 N 0.7732(14) 0.0857(10) -0.510(1)
O23 O 0.342(4) 0.286(2) 0.795(3)
O24 O 0.2887(16) 0.3013(15) 0.0164(14)
W1A W 0.17659(6) 0.38431(5) 0.34724(5)
W2A W 0.42399(7) 0.30393(4) 0.28819(4)
W3A W 0.50488(7) 0.26735(5) 0.50389(5)
W4A W 0.25182(6) 0.58048(5) 0.55968(5)
W5A W 0.25704(6) 0.34763(5) 0.56387(5)
W6A W 0.41949(7) 0.53638(5) 0.28337(5)
O1A O 0.5301(16) 0.4105(9) 0.4528(11)
O2A O 0.5286(17) 0.5741(10) 0.4495(10)
O5A O 0.2546(16) 0.2963(11) 0.2923(13)
O6A O 0.2527(16) 0.4705(10) 0.2884(13)
O7A O 0.3970(13) 0.4077(12) 0.6788(11)
O8A O 0.4249(13) 0.2340(11) 0.3751(10)
O9A O 0.4328(15) 0.4125(12) 0.2424(14)
O10A O 0.6079(13) 0.3479(12) 0.3263(9)
O11A O 0.3414(12) 0.2569(13) 0.5204(10)
O12A O 0.4189(13) 0.6549(13) 0.3658(11)
O13A O 0.1681(19) 0.322(1) 0.4389(9)
O14A O 0.1653(19) 0.4944(10) 0.4326(8)
O15A O 0.0219(12) 0.3287(9) 0.2734(9)
O16A O 0.2275(18) 0.4653(10) 0.5958(9)
O17A O 0.1379(16) 0.6240(12) 0.5875(10)
O18A O 0.3794(13) 0.5533(10) 0.1812(9)
O19A O 0.5100(13) 0.1565(9) 0.5091(10)
O20A O 0.3876(13) 0.2085(9) 0.1866(9)
O21A O 0.1440(14) 0.2734(10) 0.5943(9)
O22A O 0.3350(13) 0.6789(13) 0.5116(10)
Cu1* Cu 1.7128(2) 0.13152(17) -1.40156(16)
Cu1** Cu -0.2872(2) 0.13152(17) 0.59844(16)
Cu2* Cu 1.1307(2) -0.09593(17) -0.96277(16)
Cu2A Cu -0.1307(2) -0.90407(17) -0.03723(16)
N1* N 2.4469(16) 0.6743(12) -1.0277(11)
C1* C 2.410(2) 0.5894(16) -1.0095(16)
H1* H 2.46020 0.58680 -0.95520
C2* C 2.3032(19) 0.5069(15) -1.0655(13)
H2* H 2.28430 0.44980 -1.05010
C3* C 2.2215(18) 0.5095(13) -1.1475(13)
C4* C 2.2625(18) 0.5986(12) -1.1636(13)
H3* H 2.21320 0.60590 -1.21550
C5* C 2.371(2) 0.6735(16) -1.1064(15)
H4* H 2.39540 0.72980 -1.12270
C6* C 2.1016(16) 0.4256(12) -1.2053(12)
C7* C 2.0790(19) 0.3298(15) -1.2030(14)
H5* H 2.14090 0.31740 -1.16280
C8* C 1.9656(19) 0.2545(13) -1.2602(15)
H6* H 1.95510 0.19090 -1.25950
C9* C 1.8886(18) 0.3570(13) -1.3207(12)
H7* H 1.82540 0.36710 -1.36220
C10* C 1.9989(19) 0.4353(12) -1.2650(13)
H8* H 2.00610 0.49810 -1.26700
N2* N 1.8687(13) 0.2659(10) -1.3171(10)
N3* N 1.6107(13) 0.0897(10) -1.3215(10)
C11* C 1.5952(18) 0.0027(13) -1.3090(13)
H9* H 1.63360 -0.03880 -1.33860
C12* C 1.524(2) -0.0268(15) -1.2535(15)
H10* H 1.51160 -0.08900 -1.24820
C13* C 1.4722(17) 0.0335(11) -1.2068(11)
C14* C 1.4867(17) 0.1247(12) -1.2194(12)
H11* H 1.45220 0.16840 -1.18850
C15* C 1.5550(16) 0.1472(12) -1.2801(10)
H12* H 1.56160 0.20570 -1.29200
C16* C 1.3920(17) 0.0017(12) -1.1477(10)
C17* C 1.3138(18) -0.0968(12) -1.1713(11)
H13* H 1.31110 -0.14520 -1.22450
C18* C 1.2416(17) -0.1219(12) -1.1163(12)
H14* H 1.19090 -0.18860 -1.13340
C19* C 1.3157(17) 0.0356(13) -1.0150(12)
H15* H 1.31780 0.08160 -0.96030
C20* C 1.3938(18) 0.0686(12) -1.0666(12)
H16* H 1.44660 0.13520 -1.04650
N4* N 1.2383(14) -0.0583(10) -1.0402(10)
N5A N -0.0853(14) -0.7509(9) -0.0112(10)
N5* N 1.0853(14) -0.2491(9) -0.9888(10)
C21A C -0.160(2) -0.7251(14) -0.0670(15)
H17A H -0.23620 -0.77390 -0.11050
C22A C -0.1313(17) -0.6270(16) -0.0655(13)
H18A H -0.18850 -0.61260 -0.10740
C23A C -0.0186(15) -0.5514(11) -0.0019(11)
C24A C 0.0550(18) -0.5794(13) 0.0586(14)
H19A H 0.12870 -0.53170 0.10590
C25A C 0.0207(19) -0.6827(13) 0.0507(13)
H20A H 0.07560 -0.70070 0.09070
N6* N 0.0541(14) -0.0473(10) 0.1322(10)
C26* C 0.114(2) 0.0413(14) 0.2050(16)
H21* H 0.19220 0.08450 0.20540
C27* C 0.0672(17) 0.0703(13) 0.2775(13)
H22* H 0.11240 0.13170 0.32540
C28* C -0.0510(16) 0.0065(11) 0.2795(11)
C29* C -0.1144(17) -0.0847(12) 0.2029(12)
H23* H -0.19370 -0.12890 0.19920
C30* C -0.0568(15) -0.1076(12) 0.1332(11)
H24* H -0.09850 -0.16870 0.08450
C31* C -0.1079(17) 0.0345(12) 0.3541(12)
C32* C -0.171(2) -0.0346(12) 0.3899(13)
H25* H -0.17660 -0.10020 0.36700
C33* C -0.2251(17) -0.0062(13) 0.4579(13)
H26* H -0.26220 -0.05250 0.48320
C34* C -0.1675(18) 0.1526(13) 0.4570(12)
H27* H -0.16440 0.21760 0.48020
C35* C -0.1111(17) 0.1271(11) 0.3894(13)
H28* H -0.07310 0.17530 0.36640
N7* N -0.2268(14) 0.0857(10) 0.490(1)
N7** N 1.7732(14) 0.0857(10) -1.510(1)
#END
