
#######################################################################
#
#                 Cambridge Crystallographic Data Centre
#                                CCDC
#
#######################################################################
#
# If this CIF has been generated from an entry in the Cambridge
# Structural Database, then it will include bibliographic, chemical,
# crystal, experimental, refinement or atomic coordinate data resulting
# from the CCDC's data processing and validation procedures.
#
#######################################################################

data_CSD_CIF_VEWGEK
_audit_creation_date 2007-03-13
_audit_creation_method CSD-ConQuest-V1
_database_code_CSD VEWGEK
_database_code_depnum_ccdc_archive 'CCDC 605290'
_chemical_formula_sum 'C60 H64 Cu2 N12 O48 Si1 W12'
_chemical_formula_moiety
;
(C40 H40 Cu2 N8 O4 4+)n,n(O40 Si1 W12 4-),2n(C10 H8 N2),4n(H2 O1)
;
_journal_coden_Cambridge 9
_journal_volume 45
_journal_year 2006
_journal_page_first 10702
_journal_name_full 'Inorg.Chem. '
loop_
_publ_author_name
"Xiang-Jian Kong"
"Yan-Ping Ren"
"Pei-Qing Zheng"
"Yu-Xiang Long"
"La-Sheng Long"
"Rong-Bin Huang"
"Lan-Sun Zheng"
_chemical_name_systematic
;
catena-(tetrakis(\m~2~-4,4'-Bipyridine-N,N')-tetra-aqua-tetra-copper 
(\m~12~-silicato)-tetracosakis(\m~2~-oxo)-dodecaoxo-dodeca-tungsten 
bis(4,4'-bipyridine) tetrahydrate)
;
_cell_volume   8506.746
_exptl_crystal_colour 'blue'
_exptl_crystal_density_diffrn 3.187
_exptl_crystal_description 'block'
_diffrn_ambient_temperature 173
#These two values have been output from a single CSD field.
_refine_ls_R_factor_gt 0.0404
_refine_ls_wR_factor_gt 0.0404
_symmetry_cell_setting orthorhombic
_symmetry_space_group_name_H-M 'C c m 21'
_symmetry_Int_Tables_number 36
loop_
_symmetry_equiv_pos_site_id
_symmetry_equiv_pos_as_xyz
1 x,y,z
2 -x,-y,1/2+z
3 -x,y,1/2+z
4 x,-y,z
5 1/2+x,1/2+y,z
6 1/2-x,1/2-y,1/2+z
7 1/2-x,1/2+y,1/2+z
8 1/2+x,1/2-y,z
_cell_length_a 22.098(4)
_cell_length_b 22.769(4)
_cell_length_c 16.907(3)
_cell_angle_alpha 90
_cell_angle_beta 90
_cell_angle_gamma 90
_cell_formula_units_Z 4
loop_
_atom_type_symbol
_atom_type_radius_bond
C 0.68
H 0.23
Cu 1.52
N 0.68
O 0.68
Si 1.20
W 1.37
loop_
_atom_site_label
_atom_site_type_symbol
_atom_site_fract_x
_atom_site_fract_y
_atom_site_fract_z
W1 W 0.303109(17) 0.425671(16) -0.15229(2)
W2 W 0.199477(17) 0.420854(17) -0.48606(2)
W3 W 0.24989(2) 0.347040(12) -0.32448(3)
W4 W 0.16972(3) 0.50000 -0.14659(4)
W5 W 0.34247(3) 0.50000 -0.49163(3)
W6 W 0.392798(17) 0.425726(16) -0.33196(2)
W7 W 0.115534(17) 0.420825(17) -0.31772(2)
Si1 Si 0.25222(16) 0.50000 -0.3196(2)
O1 O 0.3179(3) 0.50000 -0.3549(5)
O2 O 0.2199(2) 0.4434(2) -0.3494(3)
O3 O 0.2558(3) 0.50000 -0.2287(3)
O4 O 0.3733(5) 0.50000 -0.5806(6)
O5 O 0.3317(4) 0.3811(4) -0.0812(4)
O6 O 0.4547(3) 0.3815(3) -0.3271(5)
O7 O 0.2566(4) 0.2720(3) -0.3165(5)
O8 O 0.0460(3) 0.3906(3) -0.3064(5)
O9 O 0.1190(5) 0.50000 -0.0701(7)
O10 O 0.1635(3) 0.3511(3) -0.2989(4)
O11 O 0.3656(3) 0.4302(3) -0.2265(4)
O12 O 0.3287(4) 0.50000 -0.1086(6)
O13 O 0.4341(4) 0.50000 -0.3179(6)
O14 O 0.3293(3) 0.3697(3) -0.3466(5)
O15 O 0.2315(3) 0.3508(3) -0.4311(4)
O16 O 0.2809(3) 0.4431(4) -0.4992(5)
O17 O 0.1000(5) 0.50000 -0.3371(7)
O18 O 0.2245(3) 0.4411(3) -0.1042(4)
O19 O 0.1398(3) 0.4433(3) -0.2141(3)
O20 O 0.2655(3) 0.3730(3) -0.2199(4)
O21 O 0.1761(5) 0.50000 -0.4980(7)
O22 O 0.1258(3) 0.4094(3) -0.4283(4)
O23 O 0.3952(3) 0.4410(3) -0.4423(4)
O24 O 0.1787(4) 0.3907(4) -0.5723(5)
Cu1 Cu -0.01897(4) 0.25012(7) -0.07313(10)
N1 N -0.1089(3) 0.2498(5) -0.0727(7)
C1 C -0.1395(4) 0.2529(4) -0.1387(6)
H1 H -0.11760 0.25680 -0.18670
C2 C -0.2025(4) 0.2508(4) -0.1424(5)
H2 H -0.22270 0.25160 -0.19200
C3 C -0.2353(3) 0.2475(5) -0.0726(8)
C4 C -0.2018(4) 0.2453(4) -0.0032(6)
H3 H -0.22190 0.24220 0.04630
C5 C -0.1413(4) 0.2476(5) -0.0055(7)
H4 H -0.11990 0.24780 0.04330
C6 C -0.3019(3) 0.2462(5) -0.0714(8)
C7 C -0.3337(4) 0.2065(5) -0.1145(7)
H5 H -0.31330 0.17680 -0.14360
C8 C -0.3977(4) 0.2102(5) -0.1152(6)
H6 H -0.41970 0.18310 -0.14680
C9 C -0.3956(4) 0.2885(5) -0.0322(6)
H7 H -0.41680 0.31830 -0.00430
C10 C -0.3348(4) 0.2881(5) -0.0273(5)
H8 H -0.31430 0.31550 0.00550
N2 N -0.4282(3) 0.2497(5) -0.0738(6)
N3 N -0.0199(3) 0.3437(3) -0.0749(5)
C11 C -0.0305(5) 0.3758(5) -0.1406(7)
H9 H -0.03850 0.35480 -0.18800
C12 C -0.0308(4) 0.4338(4) -0.1448(7)
H10 H -0.03830 0.45280 -0.19390
C13 C -0.0196(4) 0.4688(4) -0.0735(6)
C14 C -0.0063(5) 0.4358(4) -0.0072(6)
H11 H 0.00460 0.45570 0.04010
C15 C -0.0082(5) 0.3727(5) -0.0066(7)
H12 H -0.00130 0.35160 0.04100
N4 N -0.0200(3) 0.1571(3) -0.0716(5)
C16 C -0.0087(5) 0.1246(4) -0.1320(5)
H13 H 0.00190 0.14420 -0.17960
C17 C -0.0104(7) 0.0650(5) -0.1342(8)
H14 H -0.00540 0.04540 -0.18340
C18 C -0.0192(4) 0.0330(4) -0.0679(7)
C19 C -0.0297(6) 0.0650(5) -0.0046(7)
H15 H -0.03810 0.04600 0.04410
C20 C -0.0287(5) 0.1265(4) -0.0074(8)
H16 H -0.03470 0.14720 0.04070
N5 N 0.1543(6) 0.3464(3) 0.1600(4)
C21 C 0.1608(12) 0.3781(3) 0.0918(6)
H17 H 0.16880 0.35840 0.04340
C22 C 0.1560(9) 0.4386(3) 0.0927(5)
H18 H 0.14840 0.45930 0.04490
C23 C 0.1621(6) 0.4689(3) 0.1626(4)
C24 C 0.1768(7) 0.4363(3) 0.2294(5)
H19 H 0.19420 0.45460 0.27450
C25 C 0.1658(9) 0.3765(3) 0.2289(6)
H20 H 0.16610 0.35560 0.27750
N6 N -0.1590(6) 0.1561(3) 0.1811(4)
C26 C -0.1490(9) 0.1263(3) 0.2499(6)
H21 H -0.13420 0.14730 0.29440
C27 C -0.1596(12) 0.0668(3) 0.2571(4)
H22 H -0.16270 0.04930 0.30800
C28 C -0.1658(5) 0.0329(3) 0.1900(4)
C29 C -0.1653(9) 0.0620(3) 0.1183(5)
H23 H -0.16070 0.04050 0.07060
C30 C -0.1715(7) 0.1223(3) 0.1161(6)
H24 H -0.18460 0.14070 0.06870
O25 O -0.0103(3) 0.2502(3) -0.2178(4)
H25 H 0.02340 0.23710 -0.23450
H26 H -0.03970 0.23320 -0.24080
O26 O -0.0079(3) 0.2517(3) 0.0698(4)
H27 H 0.02420 0.23470 0.08570
H28 H -0.03870 0.23860 0.09410
O27 O -0.0917(3) 0.2539(3) 0.1909(4)
H29 H -0.11160 0.28570 0.19410
H30 H -0.11440 0.22390 0.19420
O28 O 0.0974(3) 0.2420(3) 0.1608(6)
H31 H 0.11590 0.20940 0.15770
H32 H 0.12120 0.27110 0.15720
W1C W 0.303109(17) 0.574329(16) -0.15229(2)
W2C W 0.199477(17) 0.579146(17) -0.48606(2)
W3C W 0.24989(2) 0.652960(12) -0.32448(3)
W6C W 0.392798(17) 0.574274(16) -0.33196(2)
W7C W 0.115534(17) 0.579175(17) -0.31772(2)
O2C O 0.2199(2) 0.5566(2) -0.3494(3)
O5C O 0.3317(4) 0.6189(4) -0.0812(4)
O6C O 0.4547(3) 0.6185(3) -0.3271(5)
O7C O 0.2566(4) 0.7280(3) -0.3165(5)
O8C O 0.0460(3) 0.6094(3) -0.3064(5)
O10C O 0.1635(3) 0.6489(3) -0.2989(4)
O11C O 0.3656(3) 0.5698(3) -0.2265(4)
O14C O 0.3293(3) 0.6303(3) -0.3466(5)
O15C O 0.2315(3) 0.6492(3) -0.4311(4)
O16C O 0.2809(3) 0.5569(4) -0.4992(5)
O18C O 0.2245(3) 0.5589(3) -0.1042(4)
O19C O 0.1398(3) 0.5567(3) -0.2141(3)
O20C O 0.2655(3) 0.6270(3) -0.2199(4)
O22C O 0.1258(3) 0.5906(3) -0.4283(4)
O23C O 0.3952(3) 0.5590(3) -0.4423(4)
O24C O 0.1787(4) 0.6093(4) -0.5723(5)
Cu1G Cu 0.48103(4) 0.24988(7) -0.07313(10)
Cu1G* Cu -0.51897(4) 0.24988(7) -0.07313(10)
Cu1C Cu -0.01897(4) 0.74988(7) -0.07313(10)
Cu1C* Cu -0.01897(4) -0.25012(7) -0.07313(10)
N1G N 0.3911(3) 0.2502(5) -0.0727(7)
C1G C 0.3605(4) 0.2471(4) -0.1387(6)
H1G H 0.38240 0.24320 -0.18670
C2G C 0.2975(4) 0.2492(4) -0.1424(5)
H2G H 0.27730 0.24840 -0.19200
C3G C 0.2647(3) 0.2525(5) -0.0726(8)
C4G C 0.2982(4) 0.2547(4) -0.0032(6)
H3G H 0.27810 0.25780 0.04630
C5G C 0.3587(4) 0.2524(5) -0.0055(7)
H4G H 0.38010 0.25220 0.04330
C6G C 0.1981(3) 0.2538(5) -0.0714(8)
C7G C 0.1663(4) 0.2935(5) -0.1145(7)
H5G H 0.18670 0.32320 -0.14360
C8G C 0.1023(4) 0.2898(5) -0.1152(6)
H6G H 0.08030 0.31690 -0.14680
C9G C 0.1044(4) 0.2115(5) -0.0322(6)
H7G H 0.08320 0.18170 -0.00430
C10G C 0.1652(4) 0.2119(5) -0.0273(5)
H8G H 0.18570 0.18450 0.00550
N2G N 0.0718(3) 0.2503(5) -0.0738(6)
N2* N 0.5718(3) 0.2497(5) -0.0738(6)
N3C N -0.0199(3) 0.6563(3) -0.0749(5)
N3G N 0.4801(3) 0.1563(3) -0.0749(5)
C11C C -0.0305(5) 0.6242(5) -0.1406(7)
H9C H -0.03850 0.64520 -0.18800
C12C C -0.0308(4) 0.5662(4) -0.1448(7)
H10C H -0.03830 0.54720 -0.19390
C13C C -0.0196(4) 0.5312(4) -0.0735(6)
C14C C -0.0063(5) 0.5642(4) -0.0072(6)
H11C H 0.00460 0.54430 0.04010
C15C C -0.0082(5) 0.6273(5) -0.0066(7)
H12C H -0.00130 0.64840 0.04100
N4C N -0.0200(3) -0.1571(3) -0.0716(5)
N4G N 0.4800(3) 0.3429(3) -0.0716(5)
C16C C -0.0087(5) -0.1246(4) -0.1320(5)
H13C H 0.00190 -0.14420 -0.17960
C17C C -0.0104(7) -0.0650(5) -0.1342(8)
H14C H -0.00540 -0.04540 -0.18340
C18C C -0.0192(4) -0.0330(4) -0.0679(7)
C19C C -0.0297(6) -0.0650(5) -0.0046(7)
H15C H -0.03810 -0.04600 0.04410
C20C C -0.0287(5) -0.1265(4) -0.0074(8)
H16C H -0.03470 -0.14720 0.04070
N5C N 0.1543(6) 0.6536(3) 0.1600(4)
C21C C 0.1608(12) 0.6219(3) 0.0918(6)
H17C H 0.16880 0.64160 0.04340
C22C C 0.1560(9) 0.5614(3) 0.0927(5)
H18C H 0.14840 0.54070 0.04490
C23C C 0.1621(6) 0.5311(3) 0.1626(4)
C24C C 0.1768(7) 0.5637(3) 0.2294(5)
H19C H 0.19420 0.54540 0.27450
C25C C 0.1658(9) 0.6235(3) 0.2289(6)
H20C H 0.16610 0.64440 0.27750
N6C N -0.1590(6) -0.1561(3) 0.1811(4)
C26C C -0.1490(9) -0.1263(3) 0.2499(6)
H21C H -0.13420 -0.14730 0.29440
C27C C -0.1596(12) -0.0668(3) 0.2571(4)
H22C H -0.16270 -0.04930 0.30800
C28C C -0.1658(5) -0.0329(3) 0.1900(4)
C29C C -0.1653(9) -0.0620(3) 0.1183(5)
H23C H -0.16070 -0.04050 0.07060
C30C C -0.1715(7) -0.1223(3) 0.1161(6)
H24C H -0.18460 -0.14070 0.06870
O25G O 0.4897(3) 0.2498(3) -0.2178(4)
H25G H 0.52340 0.26290 -0.23450
H26G H 0.46030 0.26680 -0.24080
O26G O 0.4921(3) 0.2483(3) 0.0698(4)
H27G H 0.52420 0.26530 0.08570
H28G H 0.46130 0.26140 0.09410
#END
