
#######################################################################
#
#                 Cambridge Crystallographic Data Centre
#                                CCDC
#
#######################################################################
#
# If this CIF has been generated from an entry in the Cambridge
# Structural Database, then it will include bibliographic, chemical,
# crystal, experimental, refinement or atomic coordinate data resulting
# from the CCDC's data processing and validation procedures.
#
#######################################################################

data_CSD_CIF_VEWREX
_audit_creation_date 2018-06-05
_audit_creation_method CSD-ConQuest-V1
_database_code_CSD VEWREX
_database_code_depnum_ccdc_archive 'CCDC 1825681'
_chemical_formula_sum 'C96 H92 In3 N9 O29'
_chemical_formula_moiety
;
(C84 H48 In3 N4 O24 3-)n,2(C3 H7 N1 O1),3(H2 O1),3(C2 H8 N1 1+)
;
_journal_coden_Cambridge 1695
_journal_volume 6
_journal_year 2018
_journal_page_first 6440
_journal_name_full 'J.Mater.Chem.C '
loop_
_publ_author_name
"Hong-Ru Fu"
"Ying Zhao"
"Tao Xie"
"Min-Le Han"
"Lu-Fang Ma"
"Shuang-Quan Zang"
_chemical_name_systematic
;
catena-[diemthylammonium 
tetrakis(\m-4,4',4''-nitrilotribenzoato)-tri-indium(iii) 
N,N-dimethylformamide solvate trihydrate]
;
_cell_volume  11693.520
_exptl_crystal_colour 'light yellow'
_exptl_crystal_description 'block'
_diffrn_ambient_temperature 293
_refine_special_details
;
Disordered diemthylammonium cation, N,N-dimethylformamide and water solvent 
molecules were not modelled and the disordered density was taken into account 
using the SQUEEZE/PLATON procedure.
;
#These two values have been output from a single CSD field.
_refine_ls_R_factor_gt 0.0715
_refine_ls_wR_factor_gt 0.0715
_symmetry_cell_setting monoclinic
_symmetry_space_group_name_H-M 'C 2/c'
_symmetry_Int_Tables_number 15
loop_
_symmetry_equiv_pos_site_id
_symmetry_equiv_pos_as_xyz
1 x,y,z
2 -x,y,1/2-z
3 1/2+x,1/2+y,z
4 1/2-x,1/2+y,1/2-z
5 -x,-y,-z
6 x,-y,-1/2+z
7 -1/2-x,-1/2-y,-z
8 -1/2+x,-1/2-y,-1/2+z
_cell_length_a 21.3125(5)
_cell_length_b 42.5673(11)
_cell_length_c 12.9321(3)
_cell_angle_alpha 90
_cell_angle_beta 94.654(2)
_cell_angle_gamma 90
_cell_formula_units_Z 4
loop_
_atom_type_symbol
_atom_type_radius_bond
C 0.68
H 0.23
In 1.42
N 0.68
O 0.68
loop_
_atom_site_label
_atom_site_type_symbol
_atom_site_fract_x
_atom_site_fract_y
_atom_site_fract_z
In1 In 0.50000 0.59602(2) 0.25000
In2 In 0.13389(2) 0.34526(2) 0.55772(4)
O1 O 0.0266(2) 0.12041(11) 1.1047(4)
O2 O 0.4341(2) 0.55729(11) 0.2839(5)
O3 O 0.5562(2) 0.18434(12) 0.9719(4)
O4 O 0.5312(2) 0.14548(11) 1.0714(4)
O5 O 0.0804(2) 0.13126(11) 1.2485(4)
O6 O 0.1867(3) 0.35046(14) 0.4188(4)
N1 N 0.2546(2) 0.19285(14) 0.9184(5)
O7 O 0.4318(2) 0.57232(11) 0.1228(4)
O8 O 0.1946(3) 0.29945(16) 0.5734(5)
O9 O 0.1298(4) 0.31277(16) 0.6904(5)
C1 C 0.1195(3) 0.15042(15) 1.0923(6)
C2 C 0.4468(3) 0.17490(16) 0.9859(5)
C3 C 0.3187(3) 0.18654(17) 0.9401(5)
C4 C 0.3714(3) 0.52697(16) 0.1578(6)
N2 N 0.2595(3) 0.44909(15) 0.0759(5)
C5 C 0.0721(3) 0.13369(15) 1.1515(6)
C6 C 0.2086(3) 0.17819(15) 0.9785(6)
C7 C 0.1914(3) 0.26591(19) 0.7189(7)
C8 C 0.1720(4) 0.26325(18) 0.8183(7)
H1 H 0.14460 0.27810 0.84220
O10 O 0.1249(3) 0.38830(17) 0.4498(5)
C9 C 0.4020(3) 0.15328(17) 1.0131(5)
H2 H 0.41480 0.13500 1.04800
C10 C 0.3389(3) 0.15880(16) 0.9887(6)
H3 H 0.30950 0.14380 1.00480
C11 C 0.4139(3) 0.55386(17) 0.1884(7)
C12 C 0.1542(3) 0.16749(18) 0.9285(6)
H4 H 0.14730 0.16920 0.85680
C13 C 0.1095(3) 0.15405(16) 0.9860(7)
H5 H 0.07160 0.14730 0.95240
C14 C 0.2945(3) 0.42954(17) -0.0907(6)
H6 H 0.33590 0.43550 -0.07280
C15 C 0.2468(4) 0.43679(16) -0.0244(6)
C16 C 0.2178(3) 0.17637(17) 1.0840(6)
H7 H 0.25410 0.18480 1.11780
C17 C 0.5160(3) 0.16789(17) 1.0101(5)
C18 C 0.3469(4) 0.52346(18) 0.0597(7)
H8 H 0.35570 0.53850 0.01090
C19 C 0.1709(4) 0.2951(3) 0.6589(8)
C20 C 0.4274(3) 0.20193(17) 0.9374(6)
H9 H 0.45700 0.21680 0.92100
C21 C 0.3647(3) 0.20759(18) 0.9123(6)
H10 H 0.35260 0.22580 0.87620
C22 C 0.1735(3) 0.16204(17) 1.1414(6)
H11 H 0.18080 0.16040 1.21310
C23 C 0.2794(4) 0.41390(17) -0.1804(6)
H12 H 0.31100 0.40890 -0.22300
C24 C 0.2331(3) 0.21694(17) 0.8466(6)
C25 C 0.2969(4) 0.47541(16) 0.1014(6)
C26 C 0.2030(7) 0.3842(3) -0.3044(9)
C27 C 0.1895(4) 0.3956(2) 0.3100(6)
O11 O 0.1431(5) 0.38045(18) -0.3251(6)
C28 C 0.2306(4) 0.3829(2) 0.2468(7)
H13 H 0.24360 0.36210 0.25640
C29 C 0.3076(4) 0.49727(18) 0.0270(7)
H14 H 0.29040 0.49530 -0.04110
C30 C 0.3590(4) 0.50584(19) 0.2317(6)
H15 H 0.37480 0.50890 0.30010
C31 C 0.2311(4) 0.2434(2) 0.6844(7)
H16 H 0.24420 0.24490 0.61770
C32 C 0.1929(4) 0.23884(18) 0.8820(6)
H17 H 0.17980 0.23720 0.94870
C33 C 0.2182(4) 0.40515(17) -0.2103(7)
C34 C 0.2523(3) 0.2181(2) 0.7489(7)
H18 H 0.27860 0.20270 0.72520
C35 C 0.2369(4) 0.4311(2) 0.1577(6)
C36 C 0.3222(5) 0.47928(19) 0.2044(7)
H19 H 0.31450 0.46430 0.25430
C37 C 0.1648(4) 0.3768(2) 0.3966(7)
C38 C 0.1855(4) 0.4288(2) -0.0548(8)
H20 H 0.15340 0.43380 -0.01310
C39 C 0.2538(4) 0.4008(2) 0.1670(6)
H21 H 0.28030 0.39190 0.12150
C40 C 0.1719(4) 0.4130(2) -0.1486(8)
H22 H 0.13040 0.40790 -0.16940
C41 C 0.1721(6) 0.4261(2) 0.2991(9)
H23 H 0.14400 0.43470 0.34260
C42 C 0.1961(5) 0.4443(2) 0.2240(8)
H24 H 0.18500 0.46540 0.21760
O12 O 0.2391(7) 0.3733(2) -0.3528(8)
In2A In 0.86611(2) 0.34526(2) -0.05772(4)
O1A O 0.9734(2) 0.12041(11) -0.6047(4)
O2A O 0.5659(2) 0.55729(11) 0.2161(5)
O3A O 0.4438(2) 0.18434(12) -0.4719(4)
O4A O 0.4688(2) 0.14548(11) -0.5714(4)
O5A O 0.9196(2) 0.13126(11) -0.7485(4)
O6A O 0.8133(3) 0.35046(14) 0.0812(4)
N1A N 0.7454(2) 0.19285(14) -0.4184(5)
O7A O 0.5682(2) 0.57232(11) 0.3772(4)
O8A O 0.8054(3) 0.29945(16) -0.0734(5)
O9A O 0.8702(4) 0.31277(16) -0.1904(5)
C1A C 0.8805(3) 0.15042(15) -0.5923(6)
C2A C 0.5532(3) 0.17490(16) -0.4859(5)
C3A C 0.6813(3) 0.18654(17) -0.4401(5)
C4A C 0.6286(3) 0.52697(16) 0.3422(6)
N2A N 0.7405(3) 0.44909(15) 0.4241(5)
C5A C 0.9279(3) 0.13369(15) -0.6515(6)
C6A C 0.7914(3) 0.17819(15) -0.4785(6)
C7A C 0.8086(3) 0.26591(19) -0.2189(7)
C8A C 0.8280(4) 0.26325(18) -0.3183(7)
H1A H 0.85540 0.27810 -0.34220
O10A O 0.8751(3) 0.38830(17) 0.0502(5)
C9A C 0.5980(3) 0.15328(17) -0.5131(5)
H2A H 0.58520 0.13500 -0.54800
C10A C 0.6611(3) 0.15880(16) -0.4887(6)
H3A H 0.69050 0.14380 -0.50480
C11A C 0.5861(3) 0.55386(17) 0.3116(7)
C12A C 0.8458(3) 0.16749(18) -0.4285(6)
H4A H 0.85270 0.16920 -0.35680
C13A C 0.8905(3) 0.15405(16) -0.4860(7)
H5A H 0.92840 0.14730 -0.45240
C14A C 0.7055(3) 0.42954(17) 0.5907(6)
H6A H 0.66410 0.43550 0.57280
C15A C 0.7532(4) 0.43679(16) 0.5244(6)
C16A C 0.7822(3) 0.17637(17) -0.5840(6)
H7A H 0.74590 0.18480 -0.61780
C17A C 0.4840(3) 0.16789(17) -0.5101(5)
C18A C 0.6531(4) 0.52346(18) 0.4403(7)
H8A H 0.64430 0.53850 0.48910
C19A C 0.8291(4) 0.2951(3) -0.1589(8)
C20A C 0.5726(3) 0.20193(17) -0.4374(6)
H9A H 0.54300 0.21680 -0.42100
C21A C 0.6353(3) 0.20759(18) -0.4123(6)
H10A H 0.64740 0.22580 -0.37620
C22A C 0.8265(3) 0.16204(17) -0.6414(6)
H11A H 0.81920 0.16040 -0.71310
C23A C 0.7206(4) 0.41390(17) 0.6804(6)
H12A H 0.68900 0.40890 0.72300
C24A C 0.7669(3) 0.21694(17) -0.3466(6)
C25A C 0.7031(4) 0.47541(16) 0.3986(6)
C26A C 0.7970(7) 0.3842(3) 0.8044(9)
C27A C 0.8105(4) 0.3956(2) 0.1900(6)
O11A O 0.8569(5) 0.38045(18) 0.8251(6)
C28A C 0.7694(4) 0.3829(2) 0.2532(7)
H13A H 0.75640 0.36210 0.24360
C29A C 0.6924(4) 0.49727(18) 0.4730(7)
H14A H 0.70960 0.49530 0.54110
C30A C 0.6410(4) 0.50584(19) 0.2683(6)
H15A H 0.62520 0.50890 0.19990
C31A C 0.7689(4) 0.2434(2) -0.1844(7)
H16A H 0.75580 0.24490 -0.11770
C32A C 0.8071(4) 0.23884(18) -0.3820(6)
H17A H 0.82020 0.23720 -0.44870
C33A C 0.7818(4) 0.40515(17) 0.7103(7)
C34A C 0.7477(3) 0.2181(2) -0.2489(7)
H18A H 0.72140 0.20270 -0.22520
C35A C 0.7631(4) 0.4311(2) 0.3423(6)
C36A C 0.6778(5) 0.47928(19) 0.2956(7)
H19A H 0.68550 0.46430 0.24570
C37A C 0.8352(4) 0.3768(2) 0.1034(7)
C38A C 0.8145(4) 0.4288(2) 0.5548(8)
H20A H 0.84660 0.43380 0.51310
C39A C 0.7462(4) 0.4008(2) 0.3330(6)
H21A H 0.71970 0.39190 0.37850
C40A C 0.8281(4) 0.4130(2) 0.6486(8)
H22A H 0.86960 0.40790 0.66940
C41A C 0.8279(6) 0.4261(2) 0.2009(9)
H23A H 0.85600 0.43470 0.15740
C42A C 0.8039(5) 0.4443(2) 0.2760(8)
H24A H 0.81500 0.46540 0.28240
O12A O 0.7609(7) 0.3733(2) 0.8528(8)
In1B In 0.00000 0.09602(2) 1.25000
In1B* In 1.00000 0.09602(2) -0.75000
In2* In 0.13389(2) 0.34526(2) -0.44228(4)
In2A* In 0.86611(2) 0.34526(2) 0.94228(4)
In2F In 0.36611(2) 0.15474(2) -0.55772(4)
In2G In 0.63389(2) 0.15474(2) 1.05772(4)
O1B O 0.5266(2) 0.62041(11) 0.1047(4)
O1C O 0.4734(2) 0.62041(11) 0.3953(4)
O3F O 0.9438(2) 0.31566(12) 0.0281(4)
O3G O 0.0562(2) 0.31566(12) 0.4719(4)
O4F O 0.9688(2) 0.35452(11) -0.0714(4)
O4G O 0.0312(2) 0.35452(11) 0.5714(4)
O5B O 0.5804(2) 0.63126(11) 0.2485(4)
O5C O 0.4196(2) 0.63126(11) 0.2515(4)
O11* O 0.1431(5) 0.38045(18) 0.6749(6)
O11A* O 0.8569(5) 0.38045(18) -0.1749(6)
#END
