
#######################################################################
#
#                 Cambridge Crystallographic Data Centre
#                                CCDC
#
#######################################################################
#
# If this CIF has been generated from an entry in the Cambridge
# Structural Database, then it will include bibliographic, chemical,
# crystal, experimental, refinement or atomic coordinate data resulting
# from the CCDC's data processing and validation procedures.
#
#######################################################################

data_CSD_CIF_VEXGOX
_audit_creation_date 2018-06-05
_audit_creation_method CSD-ConQuest-V1
_database_code_CSD VEXGOX
_database_code_depnum_ccdc_archive 'CCDC 1847320'
_chemical_formula_sum 'C14 H24 Cl4 Fe1 N2 O4'
_chemical_formula_moiety
;
(C6 Cl4 Fe1 O4 2-)n,2(C4 H12 N1 1+)
;
_journal_coden_Cambridge 4
_journal_volume 140
_journal_year 2018
_journal_page_first 6550
_journal_name_full 'J.Am.Chem.Soc. '
loop_
_publ_author_name
"J.A.DeGayner"
"Kunyu Wang"
"T.David Harris"
_chemical_name_systematic
;
catena-[bis(tetramethylammonium) 
(\m-2,5-dichloro-3,6-dioxocyclohexa-1,4-diene-1,4-bis(olato))-dichloro-iron]
;
_cell_volume   2073.034
_exptl_crystal_colour 'dark brown'
_exptl_crystal_density_diffrn 1.544
_exptl_crystal_description 'plate'
_diffrn_ambient_temperature 250.1
#These two values have been output from a single CSD field.
_refine_ls_R_factor_gt 0.0727
_refine_ls_wR_factor_gt 0.0727
_symmetry_cell_setting monoclinic
_symmetry_space_group_name_H-M 'C 2/c'
_symmetry_Int_Tables_number 15
loop_
_symmetry_equiv_pos_site_id
_symmetry_equiv_pos_as_xyz
1 x,y,z
2 -x,y,1/2-z
3 1/2+x,1/2+y,z
4 1/2-x,1/2+y,1/2-z
5 -x,-y,-z
6 x,-y,-1/2+z
7 -1/2-x,-1/2-y,-z
8 -1/2+x,-1/2-y,-1/2+z
_cell_length_a 16.183(3)
_cell_length_b 9.4935(16)
_cell_length_c 13.961(2)
_cell_angle_alpha 90
_cell_angle_beta 104.871(10)
_cell_angle_gamma 90
_cell_formula_units_Z 4
loop_
_atom_type_symbol
_atom_type_radius_bond
C 0.68
H 0.23
Cl 0.99
Fe 1.52
N 0.68
O 0.68
loop_
_atom_site_label
_atom_site_type_symbol
_atom_site_fract_x
_atom_site_fract_y
_atom_site_fract_z
Fe1 Fe 0.50000 0.29128(15) 0.25000
Cl1 Cl 0.33898(13) 0.3218(2) 0.51501(15)
Cl2 Cl 0.40363(12) 0.1237(2) 0.15078(13)
O1 O 0.4269(3) 0.3204(5) 0.3525(3)
O2 O 0.4350(3) 0.5361(5) 0.6572(3)
C1 C 0.4589(4) 0.4016(7) 0.4245(4)
C2 C 0.4264(4) 0.4170(7) 0.5066(5)
C3 C 0.4623(4) 0.5156(7) 0.5827(5)
N1 N 0.3393(4) 0.8501(7) 0.3428(4)
C4 C 0.3199(7) 0.7260(11) 0.3987(7)
H1 H 0.25850 0.71190 0.38310
H2 H 0.34160 0.74270 0.46930
H3 H 0.34690 0.64280 0.38020
C5 C 0.4344(7) 0.8650(15) 0.3646(10)
H4 H 0.45900 0.85940 0.43560
H5 H 0.44840 0.95540 0.34040
H6 H 0.45740 0.79000 0.33200
C6 C 0.3013(9) 0.8273(13) 0.2376(7)
H7 H 0.32960 0.74890 0.21470
H8 H 0.30790 0.91160 0.20100
H9 H 0.24090 0.80610 0.22700
C7 C 0.3090(13) 0.9783(13) 0.3767(10)
H10 H 0.24790 0.97120 0.36970
H11 H 0.32040 1.05680 0.33750
H12 H 0.33810 0.99340 0.44590
Cl1D Cl 0.66102(13) 0.6782(2) 0.48499(15)
O1D O 0.5731(3) 0.6796(5) 0.6475(3)
O2D O 0.5650(3) 0.4639(5) 0.3428(3)
C1D C 0.5411(4) 0.5984(7) 0.5755(4)
C2D C 0.5736(4) 0.5830(7) 0.4934(5)
C3D C 0.5377(4) 0.4844(7) 0.4173(5)
Cl2A Cl 0.59637(12) 0.1237(2) 0.34922(13)
Fe1D Fe 0.50000 0.70872(15) 0.75000
O1A O 0.5731(3) 0.3204(5) 0.1475(3)
O2E O 0.4350(3) 0.4639(5) 0.1572(3)
#END
