
#######################################################################
#
#                 Cambridge Crystallographic Data Centre
#                                CCDC
#
#######################################################################
#
# If this CIF has been generated from an entry in the Cambridge
# Structural Database, then it will include bibliographic, chemical,
# crystal, experimental, refinement or atomic coordinate data resulting
# from the CCDC's data processing and validation procedures.
#
#######################################################################

data_CSD_CIF_VEXGOX01
_audit_creation_date 2018-06-05
_audit_creation_method CSD-ConQuest-V1
_database_code_CSD VEXGOX01
_database_code_depnum_ccdc_archive 'CCDC 1847321'
_chemical_formula_sum 'C14 H24 Cl4 Fe1 N2 O4'
_chemical_formula_moiety
;
(C6 Cl4 Fe1 O4 2-)n,2(C4 H12 N1 1+)
;
_journal_coden_Cambridge 4
_journal_volume 140
_journal_year 2018
_journal_page_first 6550
_journal_name_full 'J.Am.Chem.Soc. '
loop_
_publ_author_name
"J.A.DeGayner"
"Kunyu Wang"
"T.David Harris"
_chemical_name_systematic
;
catena-[bis(tetramethylammonium) 
(\m-2,5-dichloro-3,6-dioxocyclohexa-1,4-diene-1,4-bis(olato))-dichloro-iron]
;
_cell_volume   2007.041
_exptl_crystal_colour 'dark brown'
_exptl_crystal_density_diffrn 1.595
_exptl_crystal_description 'plate'
_diffrn_ambient_temperature 100.0
#These two values have been output from a single CSD field.
_refine_ls_R_factor_gt 0.0653
_refine_ls_wR_factor_gt 0.0653
_symmetry_cell_setting monoclinic
_symmetry_space_group_name_H-M 'C 2/c'
_symmetry_Int_Tables_number 15
loop_
_symmetry_equiv_pos_site_id
_symmetry_equiv_pos_as_xyz
1 x,y,z
2 -x,y,1/2-z
3 1/2+x,1/2+y,z
4 1/2-x,1/2+y,1/2-z
5 -x,-y,-z
6 x,-y,-1/2+z
7 -1/2-x,-1/2-y,-z
8 -1/2+x,-1/2-y,-1/2+z
_cell_length_a 16.1004(14)
_cell_length_b 9.3394(8)
_cell_length_c 13.8165(13)
_cell_angle_alpha 90
_cell_angle_beta 104.971(5)
_cell_angle_gamma 90
_cell_formula_units_Z 4
loop_
_atom_type_symbol
_atom_type_radius_bond
C 0.68
H 0.23
Cl 0.99
Fe 1.52
N 0.68
O 0.68
loop_
_atom_site_label
_atom_site_type_symbol
_atom_site_fract_x
_atom_site_fract_y
_atom_site_fract_z
Fe1 Fe 0.50000 0.30193(6) 0.75000
Cl1 Cl 0.66093(5) 0.31867(9) 0.48713(6)
Cl2 Cl 0.40600(5) 0.12617(8) 0.65492(5)
O1 O 0.57131(15) 0.3176(2) 0.65137(15)
O2 O 0.56615(14) 0.5390(2) 0.34042(15)
C1 C 0.53896(18) 0.4021(3) 0.57674(19)
C2 C 0.57283(18) 0.4183(3) 0.4941(2)
C3 C 0.53728(18) 0.5160(3) 0.4175(2)
N1 N 0.66020(18) 0.8447(3) 0.65479(19)
C4 C 0.7015(3) 0.8267(4) 0.7631(3)
H1 H 0.67790 0.74180 0.78810
H2 H 0.69040 0.91150 0.79960
H3 H 0.76370 0.81490 0.77330
C5 C 0.6812(2) 0.7194(4) 0.5995(3)
H4 H 0.74380 0.71110 0.61180
H5 H 0.65550 0.73220 0.52760
H6 H 0.65840 0.63220 0.62240
C6 C 0.6947(4) 0.9768(5) 0.6193(3)
H7 H 0.75740 0.96990 0.63340
H8 H 0.67930 1.06010 0.65410
H9 H 0.67010 0.98740 0.54700
C7 C 0.5661(3) 0.8578(6) 0.6353(4)
H10 H 0.54080 0.87050 0.56330
H11 H 0.55210 0.94090 0.67160
H12 H 0.54280 0.77090 0.65820
Cl1D Cl 0.33907(5) 0.68133(9) 0.51287(6)
O1D O 0.42869(15) 0.6824(2) 0.34863(15)
O2D O 0.43385(14) 0.4610(2) 0.65958(15)
C1D C 0.46104(18) 0.5979(3) 0.42326(19)
C2D C 0.42717(18) 0.5817(3) 0.5059(2)
C3D C 0.46272(18) 0.4840(3) 0.5825(2)
Cl2A Cl 0.59400(5) 0.12617(8) 0.84508(5)
Fe1D Fe 0.50000 0.69807(6) 0.25000
O1A O 0.42869(15) 0.3176(2) 0.84863(15)
O2E O 0.56615(14) 0.4610(2) 0.84042(15)
#END
