
#######################################################################
#
#                 Cambridge Crystallographic Data Centre
#                                CCDC
#
#######################################################################
#
# If this CIF has been generated from an entry in the Cambridge
# Structural Database, then it will include bibliographic, chemical,
# crystal, experimental, refinement or atomic coordinate data resulting
# from the CCDC's data processing and validation procedures.
#
#######################################################################

data_CSD_CIF_VEXYON
_audit_creation_date 2007-06-01
_audit_creation_method CSD-ConQuest-V1
_database_code_CSD VEXYON
_database_code_depnum_ccdc_archive 'CCDC 624533'
_chemical_formula_sum 'C106 H182.5 Cl6.5 Cu13 N102 O46'
_chemical_formula_moiety
;
(C18 H42 Cu1 N6 O6 2+)n,n(C72 H48 Cl3 Cu12 N96 O12 3-),3.5n(H1 Cl1),n(H3 O1 
1+),16n(C1 H4 O1),11n(H2 O1)
;
_journal_coden_Cambridge 179
_journal_volume 46
_journal_year 2007
_journal_page_first 1419
_journal_name_full 'Angew.Chem.,Int.Ed. '
loop_
_publ_author_name
"M.Dinca"
"Won Seok Han"
"Yun Liu"
"A.Dailly"
"C.M.Brown"
"J.R.Long"
_chemical_name_systematic
;
catena-(hexakis(dimethylformamide-copper(ii)) oxonium 
tris(\m~4~-chloro)-octakis(\m~6~-1,3,5-tris(tetrazol-5-yl)benzene)-dodeca-aqua
-dodeca-copper(ii) hydrogen chloride methanol solvate undecahydrate)
;
_cell_volume   6429.668
_exptl_crystal_colour 'green'
_exptl_special_details
;
Large structure in which program limits have been exceeded

;
_exptl_crystal_description 'parallelepiped'
_diffrn_ambient_temperature 159
_refine_special_details
;
Each DMF in the cation is disordered over four equivalent sites around the 
crystallographic four-fold rotation axis.
;
#These two values have been output from a single CSD field.
_refine_ls_R_factor_gt 0.0598
_refine_ls_wR_factor_gt 0.0598
_symmetry_cell_setting cubic
_symmetry_space_group_name_H-M 'P m -3 m'
_symmetry_Int_Tables_number 221
loop_
_symmetry_equiv_pos_site_id
_symmetry_equiv_pos_as_xyz
1 x,y,z
2 -y,x,z
3 x,-y,-z
4 z,x,y
5 -x,-y,z
6 y,x,-z
7 -x,z,y
8 y,-x,z
9 -x,y,-z
10 -z,-x,y
11 -y,-x,-z
12 x,-z,y
13 z,-x,-y
14 -x,-z,-y
15 -z,x,-y
16 x,z,-y
17 y,z,x
18 z,-y,x
19 -z,y,x
20 z,y,-x
21 y,-z,-x
22 -z,-y,-x
23 -y,z,-x
24 -y,-z,x
25 -x,-y,-z
26 y,-x,-z
27 -x,y,z
28 -z,-x,-y
29 x,y,-z
30 -y,-x,z
31 x,-z,-y
32 -y,x,-z
33 x,-y,z
34 z,x,-y
35 y,x,z
36 -x,z,-y
37 -z,x,y
38 x,z,y
39 z,-x,y
40 -x,-z,y
41 -y,-z,-x
42 -z,y,-x
43 z,-y,-x
44 -z,-y,x
45 -y,z,x
46 z,y,x
47 y,-z,x
48 y,z,-x
_cell_length_a 18.595(7)
_cell_length_b 18.595(7)
_cell_length_c 18.595(7)
_cell_angle_alpha 90
_cell_angle_beta 90
_cell_angle_gamma 90
_cell_formula_units_Z 1
loop_
_atom_type_symbol
_atom_type_radius_bond
C 0.68
H 0.23
Cl 0.99
Cu 1.18
N 0.68
O 0.68
loop_
_atom_site_label
_atom_site_type_symbol
_atom_site_fract_x
_atom_site_fract_y
_atom_site_fract_z
Cl1 Cl 0.50000 0.00000 0.00000
O1 O 0.50000 0.2564(4) 0.00000
N1 N 0.42504(18) 0.13009(19) -0.0792(2)
N2 N 0.36954(19) 0.1747(2) -0.0893(2)
C1 C 0.3362(4) 0.1485(3) -0.1485(3)
C2 C 0.2723(4) 0.1805(3) -0.1805(3)
C3 C 0.2413(3) 0.2413(3) -0.1491(4)
H1 H 0.26100 0.26100 -0.10760
Cu1 Cu 0.50000 0.13693(5) 0.00000
Cu2 Cu 0.00000 0.00000 0.00000
N3? N 0.0242(12) 0.00000 0.2225(12)
O2 O 0.00000 0.041(3) 0.095(3)
C4 C 0.00000 0.00000 0.158(3)
C5? C 0.00000 0.00000 0.2916(19)
C6? C 0.085(5) 0.00000 0.210(5)
N1DA N 0.42504(18) 0.07920(19) -0.13009(20)
N1H N 0.57496(18) 0.13009(19) 0.0792(2)
N1Z N 0.57496(18) 0.13009(19) -0.0792(2)
N1BA N 0.42504(18) 0.13009(19) 0.0792(2)
N2DA N 0.36954(19) 0.0893(2) -0.1747(2)
C2N C 0.1805(4) 0.2723(3) -0.1805(3)
C3T C 0.2413(3) 0.1491(3) -0.2413(4)
Cu1B Cu 0.50000 -0.13693(5) 0.00000
Cu1F Cu 0.50000 0.00000(5) 0.13693
Cu1M Cu 0.50000 0.00000(5) -0.13693
O2A O -0.04100 0.000(3) 0.095(3)
O2B O 0.00000 -0.041(3) -0.095(3)
O2C O 0.09500 0.000(3) 0.041(3)
O2D O 0.00000 -0.041(3) 0.095(3)
O2E O 0.04100 0.000(3) -0.095(3)
O2F O 0.00000 0.095(3) 0.041(3)
O2G O 0.04100 0.000(3) 0.095(3)
O2H O 0.00000 0.041(3) -0.095(3)
O2I O -0.09500 0.000(3) 0.041(3)
O2J O -0.04100 0.000(3) -0.095(3)
O2K O 0.00000 -0.095(3) 0.041(3)
O2L O 0.09500 0.000(3) -0.041(3)
O2M O 0.00000 -0.095(3) -0.041(3)
O2N O -0.09500 0.000(3) -0.041(3)
O2O O 0.00000 0.095(3) -0.041(3)
O2P O 0.04100 0.095(3) 0.000(3)
O2Q O 0.09500 -0.041(3) 0.000(3)
O2R O -0.09500 0.041(3) 0.000(3)
O2S O 0.09500 0.041(3) 0.000(3)
O2T O 0.04100 -0.095(3) 0.000(3)
O2U O -0.09500 -0.041(3) 0.000(3)
O2V O -0.04100 0.095(3) 0.000(3)
O2W O -0.04100 -0.095(3) 0.000(3)
#END
