
#######################################################################
#
#                 Cambridge Crystallographic Data Centre
#                                CCDC
#
#######################################################################
#
# If this CIF has been generated from an entry in the Cambridge
# Structural Database, then it will include bibliographic, chemical,
# crystal, experimental, refinement or atomic coordinate data resulting
# from the CCDC's data processing and validation procedures.
#
#######################################################################

data_CSD_CIF_VEYMUK
_audit_creation_date 2018-06-05
_audit_creation_method CSD-ConQuest-V1
_database_code_CSD VEYMUK
_database_code_depnum_ccdc_archive 'CCDC 1835754'
_chemical_formula_sum 'C9 H15 Mn2 Mo1 N9 O7'
_chemical_formula_moiety
;
H4 N1 1+,n(C9 H5 Mn2 Mo1 N8 O4 1-),3(H2 O1)
;
_journal_coden_Cambridge 222
_journal_volume 47
_journal_year 2018
_journal_page_first 11888
_journal_name_full 'Dalton Trans. '
loop_
_publ_author_name
"G.Handzlik"
"B.Sieklucka"
"D.Pinkowicz"
_chemical_name_systematic
;
catena-[ammonium 
(\m-formato)-octakis(\m-cyano)-diaqua-di-manganese(ii)-molybdenum(iv) 
trihydrate]
;
_cell_volume   1878.139
_exptl_crystal_colour 'yellow'
_exptl_special_details
;
Magnetic properties
Racemic twin

;
_exptl_crystal_description 'prism'
_diffrn_ambient_temperature 293
_diffrn_special_details
;
twin

;
_refine_special_details
;
N18 and O11 disordered over two sites with occupancies 0.5:0.5.

;
#These two values have been output from a single CSD field.
_refine_ls_R_factor_gt 0.023
_refine_ls_wR_factor_gt 0.023
_symmetry_cell_setting tetragonal
_symmetry_space_group_name_H-M 'I 4 c m'
_symmetry_Int_Tables_number 108
loop_
_symmetry_equiv_pos_site_id
_symmetry_equiv_pos_as_xyz
1 x,y,z
2 -x,-y,z
3 -y,x,z
4 y,-x,z
5 x,-y,1/2+z
6 -x,y,1/2+z
7 -y,-x,1/2+z
8 y,x,1/2+z
9 1/2+x,1/2+y,1/2+z
10 1/2-x,1/2-y,1/2+z
11 1/2-y,1/2+x,1/2+z
12 1/2+y,1/2-x,1/2+z
13 1/2+x,1/2-y,z
14 1/2-x,1/2+y,z
15 1/2-y,1/2-x,z
16 1/2+y,1/2+x,z
_cell_length_a 11.8998(4)
_cell_length_b 11.8998(4)
_cell_length_c 13.2632(5)
_cell_angle_alpha 90
_cell_angle_beta 90
_cell_angle_gamma 90
_cell_formula_units_Z 4
loop_
_atom_type_symbol
_atom_type_radius_bond
C 0.68
H 0.23
Mn 1.61
Mo 1.54
N 0.68
O 0.68
loop_
_atom_site_label
_atom_site_type_symbol
_atom_site_fract_x
_atom_site_fract_y
_atom_site_fract_z
Mo1 Mo 0.50000 0.50000 0.12401(8)
Mn1 Mn 0.18718(4) 0.31282(4) -0.12952(14)
C1 C 0.3668(6) 0.4321(7) 0.0338(6)
N1 N 0.2958(5) 0.3906(5) -0.0120(5)
C2 C 0.00000 0.50000 -0.1398(12)
H1 H 0.00000 0.50000 -0.20990
O1 O 0.0641(3) 0.4359(3) -0.0985(4)
O2 O 0.3192(3) 0.1808(3) -0.1490(8)
N2 N 0.4130(5) 0.2818(5) 0.2567(5)
C3 C 0.4456(6) 0.3553(6) 0.2117(6)
O3 O 0.3895(9) 0.1105(9) -0.3422(9)
N3 N 0.392(4) 0.108(4) 0.067(4)
O4? O 0.3848(9) 0.1152(9) 0.0669(16)
O1A O -0.0641(3) 0.5641(3) -0.0985(4)
Mn1A Mn -0.18718(4) 0.68718(4) -0.12952(14)
C1A C -0.3668(6) 0.5679(7) 0.0338(6)
N1A N -0.2958(5) 0.6094(5) -0.0120(5)
O2A O -0.3192(3) 0.8192(3) -0.1490(8)
C1C C 0.4321(6) 0.6332(7) 0.0338(6)
N1C N 0.3906(5) 0.7042(5) -0.0120(5)
N2C N 0.2818(5) 0.5870(5) 0.2567(5)
C3C C 0.3553(6) 0.5544(6) 0.2117(6)
N2A N 0.5870(5) 0.7182(5) 0.2567(5)
C3A C 0.5544(6) 0.6447(6) 0.2117(6)
C1B C 0.5679(6) 0.3668(7) 0.0338(6)
N1B N 0.6094(5) 0.2958(5) -0.0120(5)
N2B N 0.7182(5) 0.4130(5) 0.2567(5)
C3B C 0.6447(6) 0.4456(6) 0.2117(6)
Mo1* Mo -0.50000 0.50000 0.12401(8)
Mn1B Mn 0.68718(4) 0.18718(4) -0.12952(14)
Mn1C Mn 0.31282(4) 0.81282(4) -0.12952(14)
Mn1D Mn 0.18718(4) 0.68718(4) 0.37048(14)
Mn1E Mn 0.81282(4) 0.31282(4) 0.37048(14)
Mn1F Mn 0.68718(4) 0.81282(4) 0.37048(14)
Mn1G Mn 0.31282(4) 0.18718(4) 0.37048(14)
C1A* C 0.6332(6) 0.5679(7) 0.0338(6)
N1N N 0.1094(5) 0.2042(5) -0.0120(5)
N1O N -0.1094(5) 0.7958(5) -0.0120(5)
N2F N -0.2818(5) 0.5870(5) -0.2433(5)
N2G N 0.2818(5) 0.4130(5) -0.2433(5)
N2H N -0.0870(5) 0.7818(5) -0.2433(5)
N2I N 0.0870(5) 0.2182(5) -0.2433(5)
#END
