
#######################################################################
#
#                 Cambridge Crystallographic Data Centre
#                                CCDC
#
#######################################################################
#
# If this CIF has been generated from an entry in the Cambridge
# Structural Database, then it will include bibliographic, chemical,
# crystal, experimental, refinement or atomic coordinate data resulting
# from the CCDC's data processing and validation procedures.
#
#######################################################################

data_CSD_CIF_VEYNEV
_audit_creation_date 2018-06-05
_audit_creation_method CSD-ConQuest-V1
_database_code_CSD VEYNEV
_database_code_depnum_ccdc_archive 'CCDC 1835756'
_chemical_formula_sum 'C9 H15 Mn2 N9 Nb1 O7'
_chemical_formula_moiety
;
H4 N1 1+,n(C9 H5 Mn2 N8 Nb1 O4 1-),3(H2 O1)
;
_journal_coden_Cambridge 222
_journal_volume 47
_journal_year 2018
_journal_page_first 11888
_journal_name_full 'Dalton Trans. '
loop_
_publ_author_name
"G.Handzlik"
"B.Sieklucka"
"D.Pinkowicz"
_chemical_name_systematic
;
catena-[ammonium 
(\m-formato)-octakis(\m-cyano)-diaqua-di-manganese(ii)-niobium(iv) 
trihydrate]
;
_cell_volume   1958.344
_exptl_crystal_colour 'red'
_exptl_special_details
;
Magnetic properties
Air-sensitive

;
_exptl_crystal_description 'needle'
_diffrn_ambient_temperature 293
_diffrn_special_details
;
twin

;
_refine_special_details
;
N11 and O11 disordered over two sites with occupancies 0.5:0.5.

;
#These two values have been output from a single CSD field.
_refine_ls_R_factor_gt 0.0296
_refine_ls_wR_factor_gt 0.0296
_symmetry_cell_setting tetragonal
_symmetry_space_group_name_H-M 'I 4 c m'
_symmetry_Int_Tables_number 108
loop_
_symmetry_equiv_pos_site_id
_symmetry_equiv_pos_as_xyz
1 x,y,z
2 -x,-y,z
3 -y,x,z
4 y,-x,z
5 -x,y,1/2+z
6 x,-y,1/2+z
7 y,x,1/2+z
8 -y,-x,1/2+z
9 1/2+x,1/2+y,1/2+z
10 1/2-x,1/2-y,1/2+z
11 1/2-y,1/2+x,1/2+z
12 1/2+y,1/2-x,1/2+z
13 1/2-x,1/2+y,z
14 1/2+x,1/2-y,z
15 1/2+y,1/2+x,z
16 1/2-y,1/2-x,z
_cell_length_a 12.0732(1)
_cell_length_b 12.0732(1)
_cell_length_c 13.4352(3)
_cell_angle_alpha 90
_cell_angle_beta 90
_cell_angle_gamma 90
_cell_formula_units_Z 4
loop_
_atom_type_symbol
_atom_type_radius_bond
C 0.68
H 0.23
Mn 1.61
N 0.68
Nb 1.64
O 0.68
loop_
_atom_site_label
_atom_site_type_symbol
_atom_site_fract_x
_atom_site_fract_y
_atom_site_fract_z
Nb1 Nb 0.50000 0.50000 0.12424(8)
Mn1 Mn 0.18312(5) 0.31688(5) -0.12802(13)
C1 C 0.3587(6) 0.4315(8) 0.0334(5)
N1 N 0.2899(6) 0.3934(6) -0.0129(6)
C2 C 0.00000 0.50000 -0.1362(15)
H1 H 0.00000 0.50000 -0.20540
O1 O 0.0628(4) 0.4372(4) -0.0997(6)
O2 O 0.3151(4) 0.1849(4) -0.1418(11)
N2 N 0.4105(6) 0.2794(5) 0.2586(5)
C3 C 0.4433(7) 0.3521(6) 0.2127(6)
O3 O 0.6109(10) 0.1109(10) 0.1629(10)
N3 N 0.3853(14) 0.1147(14) 0.062(4)
O4? O 0.387(3) 0.113(3) 0.078(4)
O1A O -0.0628(4) 0.5628(4) -0.0997(6)
Mn1A Mn -0.18312(5) 0.68312(5) -0.12802(13)
C1A C -0.3587(6) 0.5685(8) 0.0334(5)
N1A N -0.2899(6) 0.6066(6) -0.0129(6)
O2A O -0.3151(4) 0.8151(4) -0.1418(11)
C1C C 0.4315(6) 0.6413(8) 0.0334(5)
N1C N 0.3934(6) 0.7101(6) -0.0129(6)
N2C N 0.2794(6) 0.5895(5) 0.2586(5)
C3C C 0.3521(7) 0.5567(6) 0.2127(6)
N2A N 0.5895(6) 0.7206(5) 0.2586(5)
C3A C 0.5567(7) 0.6479(6) 0.2127(6)
C1B C 0.5685(6) 0.3587(8) 0.0334(5)
N1B N 0.6066(6) 0.2899(6) -0.0129(6)
N2B N 0.7206(6) 0.4105(5) 0.2586(5)
C3B C 0.6479(7) 0.4433(6) 0.2127(6)
Nb1* Nb -0.50000 0.50000 0.12424(8)
Mn1B Mn 0.68312(5) 0.18312(5) -0.12802(13)
Mn1C Mn 0.31688(5) 0.81688(5) -0.12802(13)
Mn1D Mn 0.81688(5) 0.31688(5) 0.37198(13)
Mn1E Mn 0.18312(5) 0.68312(5) 0.37198(13)
Mn1F Mn 0.31688(5) 0.18312(5) 0.37198(13)
Mn1G Mn 0.68312(5) 0.81688(5) 0.37198(13)
C1A* C 0.6413(6) 0.5685(8) 0.0334(5)
N1N N -0.1066(6) 0.7899(6) -0.0129(6)
N1O N 0.1066(6) 0.2101(6) -0.0129(6)
N2F N 0.2794(6) 0.4105(5) -0.2414(5)
N2G N -0.2794(6) 0.5895(5) -0.2414(5)
N2H N -0.0895(6) 0.7794(5) -0.2414(5)
N2I N 0.0895(6) 0.2206(5) -0.2414(5)
#END
