
#######################################################################
#
#                 Cambridge Crystallographic Data Centre
#                                CCDC
#
#######################################################################
#
# If this CIF has been generated from an entry in the Cambridge
# Structural Database, then it will include bibliographic, chemical,
# crystal, experimental, refinement or atomic coordinate data resulting
# from the CCDC's data processing and validation procedures.
#
#######################################################################

data_CSD_CIF_VICSIL
_audit_creation_date 2013-05-24
_audit_creation_method CSD-ConQuest-V1
_database_code_CSD VICSIL
_database_code_depnum_ccdc_archive 'CCDC 903581'
_chemical_formula_sum 'C64 H82 Cu3 N18 O22 S2'
_chemical_formula_moiety
;
(C48 H46 Cu2 N12 O14 S2 1-)n,n(C16 H28 Cu1 N6 O4 1+),4n(H2 O1)
;
_journal_coden_Cambridge 222
_journal_volume 42
_journal_year 2013
_journal_page_first 9771
_journal_name_full 'Dalton Trans. '
loop_
_publ_author_name
"Min Li"
"Shan Zhao"
"Yan-Fen Peng"
"Bao-Long Li"
"Hai-Yan Li"
_chemical_name_systematic
;
catena-((\m~2~-1,1'-((2,3,5,6-Tetramethyl-1,4-phenylene)bis(methylene))bis(1H-
1,2,4-triazole))-tetra-aqua-copper 
bis(\m~3~-3,5-dicarboxylatobenzenesulfonate)-bis(\m~2~-1,1'-((2,3,5,6-tetramet
hyl-1,4-phenylene)bis(methylene))bis(1H-1,2,4-triazole))-di-copper 
tetrahydrate)
;
_cell_volume   1933.278
_exptl_crystal_colour 'blue'
_exptl_crystal_density_diffrn 1.469
_exptl_crystal_description 'prism'
_diffrn_ambient_temperature 220
_refine_special_details
;
O11 and O12 disordered over two sites with occupancies 0.75:0.25.

;
#These two values have been output from a single CSD field.
_refine_ls_R_factor_gt 0.0521
_refine_ls_wR_factor_gt 0.0521
_symmetry_cell_setting triclinic
_symmetry_space_group_name_H-M 'P -1'
_symmetry_Int_Tables_number 2
loop_
_symmetry_equiv_pos_site_id
_symmetry_equiv_pos_as_xyz
1 x,y,z
2 -x,-y,-z
_cell_length_a 9.7970(6)
_cell_length_b 14.1459(10)
_cell_length_c 15.7820(9)
_cell_angle_alpha 106.273(6)
_cell_angle_beta 100.855(5)
_cell_angle_gamma 105.968(6)
_cell_formula_units_Z 1
loop_
_atom_type_symbol
_atom_type_radius_bond
C 0.68
H 0.23
Cu 1.32
N 0.68
O 0.68
S 1.02
loop_
_atom_site_label
_atom_site_type_symbol
_atom_site_fract_x
_atom_site_fract_y
_atom_site_fract_z
Cu1 Cu -0.19523(4) 0.89383(3) 0.92725(3)
S1 S -0.02188(8) 0.48261(6) 0.70475(6)
O1 O -0.0563(2) 0.85018(18) 0.86639(15)
O2 O 0.1664(2) 0.95440(18) 0.96457(17)
O3 O 0.5944(2) 0.84864(18) 0.92721(16)
O4 O 0.5681(2) 0.7054(2) 0.81173(18)
O5 O -0.1283(3) 0.4568(2) 0.75497(18)
O6 O 0.0649(3) 0.41491(19) 0.69197(18)
O7 O -0.0931(3) 0.4931(2) 0.61876(17)
N1 N -0.2545(3) 1.0132(2) 0.71910(19)
N2 N -0.3365(3) 1.0571(3) 0.7676(2)
N3 N -0.2415(3) 0.9610(2) 0.8362(2)
N4 N -0.0515(3) 0.7553(2) 1.1075(2)
N5 N -0.0994(4) 0.8218(3) 1.1643(2)
N6 N -0.1379(3) 0.8369(2) 1.02513(19)
C1 C -0.3720(3) 1.0171(3) 0.5667(2)
C2 C -0.4662(3) 0.9150(3) 0.5147(2)
C3 C -0.5956(3) 0.8964(3) 0.4467(2)
C4 C -0.2295(3) 1.0350(3) 0.6368(2)
H1 H -0.17890 0.98970 0.60790
H2 H -0.16410 1.10800 0.65530
C5 C -0.4338(4) 0.8223(3) 0.5326(3)
H3 H -0.32780 0.84120 0.55790
H4 H -0.46890 0.76300 0.47520
H5 H -0.48400 0.80350 0.57600
C6 C -0.6927(4) 0.7841(3) 0.3881(3)
H6 H -0.64280 0.75390 0.34600
H7 H -0.78610 0.78310 0.35320
H8 H -0.71110 0.74330 0.42760
C7 C -0.3259(4) 1.0230(3) 0.8371(3)
H9 H -0.37250 1.03990 0.88320
C8 C -0.1987(3) 0.9575(3) 0.7612(2)
H10 H -0.13740 0.92090 0.74070
C9 C 0.0105(5) 0.5928(3) 1.0657(3)
C10 C 0.1353(5) 0.5864(3) 1.0375(3)
C11 C 0.1252(5) 0.4921(3) 0.9722(3)
C12 C 0.0199(5) 0.6890(3) 1.1427(3)
H11 H -0.02840 0.66660 1.18630
H12 H 0.12420 0.73050 1.17590
C13 C 0.2785(6) 0.6789(4) 1.0763(4)
H13 H 0.25690 0.74350 1.08900
H14 H 0.33490 0.67520 1.03190
H15 H 0.33570 0.67750 1.13290
C14 C 0.2609(5) 0.4822(4) 0.9435(4)
H16 H 0.32580 0.47050 0.99100
H17 H 0.31310 0.54620 0.93490
H18 H 0.23090 0.42340 0.88610
C15 C -0.1510(4) 0.8683(3) 1.1111(3)
H19 H -0.19360 0.91920 1.13130
C16 C -0.0739(4) 0.7658(3) 1.0258(2)
H20 H -0.04830 0.72830 0.97570
C17 C 0.1425(3) 0.7899(2) 0.8604(2)
C18 C 0.2955(3) 0.8128(3) 0.8793(2)
H21 H 0.36060 0.88090 0.91660
C19 C 0.3517(3) 0.7357(3) 0.8434(2)
C20 C 0.2559(3) 0.6342(3) 0.7897(2)
H22 H 0.29390 0.58180 0.76510
C21 C 0.1039(3) 0.6109(2) 0.7726(2)
C22 C 0.0478(3) 0.6888(2) 0.8064(2)
H23 H -0.05540 0.67310 0.79250
C23 C 0.0821(3) 0.8738(3) 0.9013(2)
C24 C 0.5175(3) 0.7643(3) 0.8617(2)
Cu2 Cu 0.50000 0.50000 0.50000
O8 O 0.5956(3) 0.4478(2) 0.59277(17)
H24 H 0.693(2) 0.463(3) 0.600(2)
H25 H 0.578(4) 0.465(3) 0.6468(16)
O9 O 0.5756(3) 0.3981(2) 0.38287(19)
H26 H 0.528(4) 0.361(3) 0.3255(15)
H27 H 0.662(3) 0.389(3) 0.397(3)
N7 N 0.1186(3) 0.2679(2) 0.4778(2)
N8 N 0.1172(3) 0.2327(2) 0.3874(2)
N9 N 0.3075(3) 0.3832(2) 0.4678(2)
C25 C 0.0048(4) 0.1006(3) 0.5037(3)
C26 C 0.1104(4) 0.0886(3) 0.5695(3)
C27 C 0.1047(4) -0.0130(3) 0.5665(3)
C28 C 0.0043(4) 0.2100(3) 0.5116(3)
H28 H -0.09340 0.20420 0.47660
H29 H 0.01980 0.25040 0.57640
C29 C 0.2293(4) 0.1827(3) 0.6448(3)
H30 H 0.21010 0.18730 0.70360
H31 H 0.22900 0.24600 0.63230
H32 H 0.32530 0.17530 0.64670
C30 C 0.2173(4) -0.0258(3) 0.6388(3)
H33 H 0.17730 -0.09390 0.64430
H34 H 0.23910 0.02910 0.69770
H35 H 0.30760 -0.02060 0.62070
C31 C 0.2326(3) 0.3051(3) 0.3855(2)
H36 H 0.26100 0.30300 0.33150
C32 C 0.2311(4) 0.3569(3) 0.5235(3)
H37 H 0.25350 0.39590 0.58650
O10 O 0.8436(3) 0.3655(3) 0.4354(2)
H38 H 0.866(5) 0.403(3) 0.4952(15)
H39 H 0.902(4) 0.395(3) 0.407(3)
O11 O 0.6039(6) 0.5049(5) 0.7746(4)
O12? O 0.5114(13) 0.4956(9) 0.7491(7)
N1A N -0.7455(3) 0.9868(2) 0.28090(19)
N2A N -0.6635(3) 0.9429(3) 0.2324(2)
N3A N -0.7585(3) 1.0390(2) 0.1638(2)
C1A C -0.6280(3) 0.9829(3) 0.4333(2)
C2A C -0.5338(3) 1.0850(3) 0.4853(2)
C3A C -0.4044(3) 1.1036(3) 0.5533(2)
C4A C -0.7705(3) 0.9650(3) 0.3632(2)
H1A H -0.82110 1.01030 0.39210
H2A H -0.83590 0.89200 0.34470
C5A C -0.5662(4) 1.1777(3) 0.4674(3)
H3A H -0.67220 1.15880 0.44210
H4A H -0.53110 1.23700 0.52480
H5A H -0.51600 1.19650 0.42400
C6A C -0.3073(4) 1.2159(3) 0.6119(3)
H6A H -0.35720 1.24610 0.65400
H7A H -0.21390 1.21690 0.64680
H8A H -0.28890 1.25670 0.57240
C7A C -0.6741(4) 0.9770(3) 0.1629(3)
H9A H -0.62750 0.96010 0.11680
C8A C -0.8013(3) 1.0425(3) 0.2388(2)
H10A H -0.86260 1.07910 0.25930
N4A N 0.0515(3) 0.2447(2) 0.8925(2)
N5A N 0.0994(4) 0.1782(3) 0.8357(2)
N6A N 0.1379(3) 0.1631(2) 0.97487(19)
C9A C -0.0105(5) 0.4072(3) 0.9343(3)
C10A C -0.1353(5) 0.4136(3) 0.9625(3)
C11A C -0.1252(5) 0.5079(3) 1.0278(3)
C12A C -0.0199(5) 0.3110(3) 0.8573(3)
H11A H 0.02840 0.33340 0.81370
H12A H -0.12420 0.26950 0.82410
C13A C -0.2785(6) 0.3211(4) 0.9237(4)
H13A H -0.25690 0.25650 0.91100
H14A H -0.33490 0.32480 0.96810
H15A H -0.33570 0.32250 0.86710
C14A C -0.2609(5) 0.5178(4) 1.0565(4)
H16A H -0.32580 0.52950 1.00900
H17A H -0.31310 0.45380 1.06510
H18A H -0.23090 0.57660 1.11390
C15A C 0.1510(4) 0.1317(3) 0.8889(3)
H19A H 0.19360 0.08080 0.86870
C16A C 0.0739(4) 0.2342(3) 0.9742(2)
H20A H 0.04830 0.27170 1.02430
Cu1A Cu -0.80477(4) 1.10617(3) 0.07275(3)
S1A S -0.97812(8) 1.51739(6) 0.29525(6)
O1A O -0.9437(2) 1.14982(18) 0.13361(15)
O2A O -1.1664(2) 1.04560(18) 0.03543(17)
O3A O -1.5944(2) 1.15136(18) 0.07279(16)
O4A O -1.5681(2) 1.2946(2) 0.18827(18)
O5A O -0.8717(3) 1.5432(2) 0.24503(18)
O6A O -1.0649(3) 1.58509(19) 0.30803(18)
O7A O -0.9069(3) 1.5069(2) 0.38124(17)
C17A C -1.1425(3) 1.2101(2) 0.1396(2)
C18A C -1.2955(3) 1.1872(3) 0.1207(2)
H21A H -1.36060 1.11910 0.08340
C19A C -1.3517(3) 1.2643(3) 0.1566(2)
C20A C -1.2559(3) 1.3658(3) 0.2103(2)
H22A H -1.29390 1.41820 0.23490
C21A C -1.1039(3) 1.3891(2) 0.2274(2)
C22A C -1.0478(3) 1.3112(2) 0.1936(2)
H23A H -0.94460 1.32690 0.20750
C23A C -1.0821(3) 1.1262(3) 0.0987(2)
C24A C -1.5175(3) 1.2357(3) 0.1383(2)
Cu1* Cu -1.19523(4) 0.89383(3) -0.07275(3)
Cu1** Cu 0.80477(4) 0.89383(3) 0.92725(3)
Cu1A* Cu -1.80477(4) 1.10617(3) 0.07275(3)
Cu1A** Cu 0.19523(4) 0.10617(3) 1.07275(3)
Cu1A*** Cu 0.19523(4) 1.10617(3) 1.07275(3)
O2* O -0.8336(2) 0.95440(18) -0.03543(17)
O2A* O -0.1664(2) 1.04560(18) 1.03543(17)
O3* O -0.4056(2) 0.84864(18) 0.92721(16)
O3A* O -0.5944(2) 1.15136(18) 0.07279(16)
N6A* N -0.8621(3) 1.1631(2) -0.02513(19)
N7A N -0.1186(3) -0.2679(2) 0.5222(2)
N8A N -0.1172(3) -0.2327(2) 0.6126(2)
N9A N -0.3075(3) -0.3832(2) 0.5322(2)
C25A C -0.0048(4) -0.1006(3) 0.4963(3)
C26A C -0.1104(4) -0.0886(3) 0.4305(3)
C27A C -0.1047(4) 0.0130(3) 0.4335(3)
C28A C -0.0043(4) -0.2100(3) 0.4884(3)
H28A H 0.09340 -0.20420 0.52340
H29A H -0.01980 -0.25040 0.42360
C29A C -0.2293(4) -0.1827(3) 0.3552(3)
H30A H -0.21010 -0.18730 0.29640
H31A H -0.22900 -0.24600 0.36770
H32A H -0.32530 -0.17530 0.35330
C30A C -0.2173(4) 0.0258(3) 0.3612(3)
H33A H -0.17730 0.09390 0.35570
H34A H -0.23910 -0.02910 0.30230
H35A H -0.30760 0.02060 0.37930
C31A C -0.2326(3) -0.3051(3) 0.6145(2)
H36A H -0.26100 -0.30300 0.66850
C32A C -0.2311(4) -0.3569(3) 0.4765(3)
H37A H -0.25350 -0.39590 0.41350
O8A O 0.4044(3) 0.5522(2) 0.40723(17)
H24A H 0.307(2) 0.537(3) 0.400(2)
H25A H 0.422(4) 0.535(3) 0.3532(16)
O9A O 0.4244(3) 0.6019(2) 0.61713(19)
H26A H 0.472(4) 0.639(3) 0.6745(15)
H27A H 0.338(3) 0.611(3) 0.603(3)
Cu2* Cu -0.50000 -0.50000 0.50000
N9A* N 0.6925(3) 0.6168(2) 0.5322(2)
#END
