
#######################################################################
#
#                 Cambridge Crystallographic Data Centre
#                                CCDC
#
#######################################################################
#
# If this CIF has been generated from an entry in the Cambridge
# Structural Database, then it will include bibliographic, chemical,
# crystal, experimental, refinement or atomic coordinate data resulting
# from the CCDC's data processing and validation procedures.
#
#######################################################################

data_CSD_CIF_VICVUA
_audit_creation_date 2013-05-24
_audit_creation_method CSD-ConQuest-V1
_database_code_CSD VICVUA
_database_code_depnum_ccdc_archive 'CCDC 899528'
_chemical_formula_sum 'C24 H116 Cu6 N20 O104 P2 Tb2 W22'
_chemical_formula_moiety
;
(C4 H18 Cu1 N4 O1 2+)2n,n(C16 H56 Cu4 N12 O90 P2 Tb2 W22 4-),12n(H2 O1)
;
_journal_coden_Cambridge 1350
_journal_volume 15
_journal_year 2013
_journal_page_first 5209
_journal_name_full 'CrystEngComm '
loop_
_publ_author_name
"Hai-Yan Zhao"
"Jun-Wei Zhao"
"Bai-Feng Yang"
"Huan He"
"Guo-Yu Yang"
_chemical_name_systematic
;
catena-[bis(Aqua-bis(1,2-diaminoethane)-copper(ii)) 
bis(\m~9~-phosphato)-(\m~4~-oxalato)-bis(\m~3~-oxo)-(\m~2~-oxalato)-hexatetrac
ontakis(\m~2~-oxo)-tetra-aqua-hexakis(1,2-diaminoethane)-docosa-oxo-tetra-copp
er-di-terbium-docosa-tungsten dodecahydrate]
;
_cell_volume   2993.219
_exptl_crystal_colour 'blue'
_exptl_crystal_density_diffrn 3.969
_exptl_crystal_description 'block'
_diffrn_ambient_temperature 293
#These two values have been output from a single CSD field.
_refine_ls_R_factor_gt 0.0399
_refine_ls_wR_factor_gt 0.0399
_symmetry_cell_setting triclinic
_symmetry_space_group_name_H-M 'P -1'
_symmetry_Int_Tables_number 2
loop_
_symmetry_equiv_pos_site_id
_symmetry_equiv_pos_as_xyz
1 x,y,z
2 -x,-y,-z
_cell_length_a 12.2417(4)
_cell_length_b 12.8209(5)
_cell_length_c 20.5866(8)
_cell_angle_alpha 94.519(3)
_cell_angle_beta 90.329(3)
_cell_angle_gamma 111.576(3)
_cell_formula_units_Z 1
loop_
_atom_type_symbol
_atom_type_radius_bond
C 0.68
H 0.23
Cu 1.32
N 0.68
O 0.68
P 1.05
Tb 1.94
W 1.62
loop_
_atom_site_label
_atom_site_type_symbol
_atom_site_fract_x
_atom_site_fract_y
_atom_site_fract_z
C1 C 0.5529(9) 0.4861(10) 0.4859(6)
C2 C 0.5298(10) 0.4566(10) 0.0040(6)
C3 C 0.7544(11) 0.8063(12) 0.1848(7)
H1 H 0.71310 0.76170 0.21930
H2 H 0.78810 0.88470 0.20180
C4 C 0.8494(10) 0.7662(11) 0.1596(7)
H3 H 0.89670 0.81690 0.12910
H4 H 0.90040 0.76480 0.19540
C5 C 0.8509(15) 0.6508(14) 0.3385(8)
H5 H 0.79800 0.69150 0.34250
H6 H 0.90390 0.68060 0.30380
C6 C 0.9196(16) 0.6692(14) 0.4002(9)
H7 H 0.99340 0.65990 0.39150
H8 H 0.93740 0.74580 0.41880
C7 C 0.7101(11) 0.2306(11) 0.4420(7)
H9 H 0.75990 0.20600 0.41310
H10 H 0.69090 0.18340 0.47810
C8 C 0.6009(12) 0.2216(11) 0.4062(7)
H11 H 0.56420 0.14700 0.38390
H12 H 0.54570 0.23450 0.43640
Cu1 Cu 0.64654(13) 0.64293(13) 0.08236(8)
Cu2 Cu 0.75446(13) 0.44793(14) 0.40002(8)
N1 N 0.6735(9) 0.7920(8) 0.1283(5)
H13 H 0.70560 0.84670 0.10150
H14 H 0.60510 0.79560 0.14180
N2 N 0.7926(8) 0.6532(9) 0.1270(5)
H15 H 0.77660 0.60190 0.15650
H16 H 0.84100 0.63890 0.09790
N3 N 0.7841(9) 0.5340(11) 0.3214(6)
H17 H 0.82350 0.50590 0.29270
H18 H 0.71510 0.52640 0.30220
N4 N 0.8583(10) 0.5935(9) 0.4456(6)
H19 H 0.81480 0.62370 0.47000
H20 H 0.91020 0.58160 0.47240
N5 N 0.7724(9) 0.3508(9) 0.4669(5)
H21 H 0.84910 0.36460 0.47470
H22 H 0.74160 0.36570 0.50440
N6 N 0.6336(9) 0.3078(9) 0.3583(5)
H23 H 0.56980 0.32140 0.34590
H24 H 0.66220 0.28290 0.32280
O1 O 0.5396(6) 0.5079(6) 0.2854(4)
O2 O 0.4126(7) 0.6500(7) 0.2685(4)
O3 O 0.3613(7) 0.3826(7) 0.3725(4)
O4 O 0.2410(6) 0.5219(7) 0.3608(4)
O5 O 0.6421(6) 0.4431(7) 0.1827(4)
O6 O 0.4527(6) 0.2854(6) 0.2430(4)
O7 O 0.4806(6) 0.5478(6) 0.1652(4)
O8 O 0.4083(6) 0.3300(6) 0.1273(4)
O9 O 0.3569(7) 0.1482(7) 0.0315(4)
O10 O 0.2340(7) 0.2957(6) 0.0373(4)
O11 O 0.1295(6) 0.0948(6) 0.0782(4)
O12 O 0.3048(6) 0.1275(6) 0.1633(4)
O13 O 0.1669(6) 0.2716(6) 0.1582(4)
O14 O 0.3130(6) 0.4231(6) 0.2319(4)
O15 O 0.2816(7) 0.2418(8) 0.4691(4)
O16 O 0.1325(7) 0.3106(7) 0.3918(4)
O17 O 0.1237(7) 0.1020(7) 0.3657(4)
O18 O 0.0539(7) 0.4845(8) 0.4403(4)
O19 O -0.0675(6) 0.3124(7) 0.3422(4)
O20 O 0.0389(6) 0.5157(7) 0.3069(4)
O21 O 0.0981(6) 0.3542(6) 0.2570(4)
O22 O -0.2595(7) 0.1577(8) 0.2729(5)
O23 O -0.1106(6) 0.3583(7) 0.2257(4)
O24 O -0.0349(7) 0.5822(7) 0.1962(4)
O25 O 0.0402(6) 0.4193(7) 0.1308(4)
O26 O 0.1921(6) 0.5731(7) 0.2109(4)
O27 O -0.0869(6) 0.1719(7) 0.1771(4)
O28 O -0.0477(7) 0.1224(7) 0.2929(4)
O29 O 0.0090(6) 0.2263(6) 0.0634(4)
O30 O 0.1088(7) 0.4269(7) 0.0006(4)
O31 O 0.2641(6) 0.4902(7) 0.1093(4)
O32 O -0.0352(7) -0.0938(7) 0.2985(4)
O33 O 0.3471(7) 0.1718(7) 0.3447(4)
O34 O 0.0285(6) 0.0417(7) 0.1910(4)
O35 O -0.1191(7) -0.0017(7) 0.0778(4)
O36 O 0.1960(7) 0.0148(7) 0.2615(4)
O37 O 0.2104(6) 0.2279(6) 0.2687(4)
O38 O 0.3910(7) 0.7176(7) 0.1495(4)
O39 O 0.4387(7) 0.0600(8) 0.2508(5)
O40 O 0.3989(9) 0.7420(8) 0.4025(5)
O41 O 0.6316(9) 0.7315(9) 0.3969(6)
O42 O 0.5811(7) 0.5146(8) 0.4308(4)
O43 O 0.5958(8) 0.4352(8) 0.5208(4)
O44 O 0.4904(6) 0.3650(7) -0.0291(4)
O45 O 0.6217(7) 0.4928(7) 0.0404(4)
P1 P 0.1984(2) 0.3199(2) 0.22955(13)
Tb1 Tb 0.44463(5) 0.57701(5) 0.36652(3)
W1 W 0.50281(4) 0.42839(4) 0.20771(2)
W2 W 0.29048(4) 0.20544(4) 0.08932(2)
W3 W 0.34688(4) 0.13425(4) 0.25322(2)
W4 W 0.25639(4) 0.25257(4) 0.38827(2)
W5 W 0.05577(4) 0.03938(4) 0.28331(2)
W6 W 0.09327(4) 0.43434(4) 0.36758(2)
W7 W -0.11158(4) 0.22496(4) 0.26457(2)
W8 W 0.02790(4) 0.48776(4) 0.21459(2)
W9 W -0.00490(4) 0.10801(4) 0.11762(2)
W10 W 0.13674(4) 0.37453(4) 0.07013(2)
W11 W 0.35184(4) 0.59618(4) 0.18897(2)
C9 C 0.6213(12) 0.1975(15) 0.1354(7)
H25 H 0.54660 0.19600 0.11830
H26 H 0.62920 0.22470 0.18110
C10 C 0.6235(16) 0.0797(15) 0.1283(9)
H27 H 0.67800 0.07390 0.16090
H28 H 0.54600 0.02580 0.13610
Cu3 Cu 0.74320(15) 0.18936(14) 0.01834(9)
N7 N 0.7844(14) 0.0968(11) -0.0517(8)
H29 H 0.82700 0.06080 -0.03460
H30 H 0.71840 0.04480 -0.07070
N8 N 0.8358(11) 0.3211(11) -0.0332(9)
H31 H 0.79030 0.35950 -0.04320
H32 H 0.89860 0.36830 -0.00910
N9 N 0.7200(13) 0.2756(11) 0.0990(7)
H33 H 0.78640 0.30220 0.12420
H34 H 0.70220 0.33440 0.08830
N10 N 0.6577(10) 0.0525(10) 0.0653(6)
H35 H 0.59330 0.00840 0.04120
H36 H 0.70450 0.01300 0.06920
O46 O 0.5626(7) 0.1674(8) -0.0394(5)
C11 C 0.873(2) 0.2793(18) -0.0910(12)
H37 H 0.83670 0.29850 -0.12780
H38 H 0.95740 0.31810 -0.09310
C12 C 0.849(2) 0.1650(18) -0.0980(13)
H39 H 0.92320 0.15470 -0.10070
H40 H 0.80720 0.13610 -0.13980
O47 O 0.5555(11) 0.8986(10) 0.2594(7)
O48 O 0.7107(14) 0.9460(13) 0.3641(9)
O49 O 0.222(2) 0.9545(16) 0.4361(11)
O50 O 0.241(2) 0.791(2) 0.3258(17)
O51 O 0.4339(14) 0.0624(12) 0.5263(8)
O52 O 0.926(3) 0.078(4) 0.4564(16)
C1A C 0.4471(9) 0.5139(10) 0.5141(6)
O42A O 0.4189(7) 0.4854(8) 0.5692(4)
O43A O 0.4042(8) 0.5648(8) 0.4792(4)
C2A C 0.4702(10) 0.5434(10) -0.0040(6)
O45A O 0.3783(7) 0.5072(7) -0.0404(4)
O44A O 0.5096(6) 0.6350(7) 0.0291(4)
C3A C 0.2456(11) 0.1937(12) -0.1848(7)
H1A H 0.28690 0.23830 -0.21930
H2A H 0.21190 0.11530 -0.20180
C4A C 0.1506(10) 0.2338(11) -0.1596(7)
H3A H 0.10330 0.18310 -0.12910
H4A H 0.09960 0.23520 -0.19540
Cu1A Cu 0.35346(13) 0.35707(13) -0.08236(8)
N1A N 0.3265(9) 0.2080(8) -0.1283(5)
H13A H 0.29440 0.15330 -0.10150
H14A H 0.39490 0.20440 -0.14180
N2A N 0.2074(8) 0.3468(9) -0.1270(5)
H15A H 0.22340 0.39810 -0.15650
H16A H 0.15900 0.36110 -0.09790
O1A O 0.4604(6) 0.4921(6) -0.2854(4)
O2A O 0.5874(7) 0.3500(7) -0.2685(4)
O3A O 0.6387(7) 0.6174(7) -0.3725(4)
O4A O 0.7590(6) 0.4781(7) -0.3608(4)
O5A O 0.3579(6) 0.5569(7) -0.1827(4)
O6A O 0.5473(6) 0.7146(6) -0.2430(4)
O7A O 0.5194(6) 0.4522(6) -0.1652(4)
O8A O 0.5917(6) 0.6700(6) -0.1273(4)
O9A O 0.6431(7) 0.8518(7) -0.0315(4)
O10A O 0.7660(7) 0.7043(6) -0.0373(4)
O11A O 0.8705(6) 0.9052(6) -0.0782(4)
O12A O 0.6952(6) 0.8725(6) -0.1633(4)
O13A O 0.8331(6) 0.7284(6) -0.1582(4)
O14A O 0.6870(6) 0.5769(6) -0.2319(4)
O15A O 0.7184(7) 0.7582(8) -0.4691(4)
O16A O 0.8675(7) 0.6894(7) -0.3918(4)
O17A O 0.8763(7) 0.8980(7) -0.3657(4)
O18A O 0.9461(7) 0.5155(8) -0.4403(4)
O19A O 1.0675(6) 0.6876(7) -0.3422(4)
O20A O 0.9611(6) 0.4843(7) -0.3069(4)
O21A O 0.9019(6) 0.6458(6) -0.2570(4)
O22A O 1.2595(7) 0.8423(8) -0.2729(5)
O23A O 1.1106(6) 0.6417(7) -0.2257(4)
O24A O 1.0349(7) 0.4178(7) -0.1962(4)
O25A O 0.9598(6) 0.5807(7) -0.1308(4)
O26A O 0.8079(6) 0.4269(7) -0.2109(4)
O27A O 1.0869(6) 0.8281(7) -0.1771(4)
O28A O 1.0477(7) 0.8776(7) -0.2929(4)
O29A O 0.9910(6) 0.7737(6) -0.0634(4)
O30A O 0.8912(7) 0.5731(7) -0.0006(4)
O31A O 0.7359(6) 0.5098(7) -0.1093(4)
O32A O 1.0352(7) 1.0938(7) -0.2985(4)
O33A O 0.6529(7) 0.8282(7) -0.3447(4)
O34A O 0.9715(6) 0.9583(7) -0.1910(4)
O35A O 1.1191(7) 1.0017(7) -0.0778(4)
O36A O 0.8040(7) 0.9852(7) -0.2615(4)
O37A O 0.7896(6) 0.7721(6) -0.2687(4)
O38A O 0.6090(7) 0.2824(7) -0.1495(4)
O39A O 0.5613(7) 0.9400(8) -0.2508(5)
O40A O 0.6011(9) 0.2580(8) -0.4025(5)
O41A O 0.3684(9) 0.2685(9) -0.3969(6)
P1A P 0.8016(2) 0.6801(2) -0.22955(13)
Tb1A Tb 0.55537(5) 0.42299(5) -0.36652(3)
W1A W 0.49719(4) 0.57161(4) -0.20771(2)
W2A W 0.70952(4) 0.79456(4) -0.08932(2)
W3A W 0.65312(4) 0.86575(4) -0.25322(2)
W4A W 0.74361(4) 0.74743(4) -0.38827(2)
W5A W 0.94423(4) 0.96062(4) -0.28331(2)
W6A W 0.90673(4) 0.56566(4) -0.36758(2)
W7A W 1.11158(4) 0.77504(4) -0.26457(2)
W8A W 0.97210(4) 0.51224(4) -0.21459(2)
W9A W 1.00490(4) 0.89199(4) -0.11762(2)
W10A W 0.86326(4) 0.62547(4) -0.07013(2)
W11A W 0.64816(4) 0.40382(4) -0.18897(2)
C5A C 0.1491(15) 0.3492(14) 0.6615(8)
H5A H 0.20200 0.30850 0.65750
H6A H 0.09610 0.31940 0.69620
C6A C 0.0804(16) 0.3308(14) 0.5998(9)
H7A H 0.00660 0.34010 0.60850
H8A H 0.06260 0.25420 0.58120
C7A C 0.2899(11) 0.7694(11) 0.5580(7)
H9A H 0.24010 0.79400 0.58690
H10A H 0.30910 0.81660 0.52190
C8A C 0.3991(12) 0.7784(11) 0.5938(7)
H11A H 0.43580 0.85300 0.61610
H12A H 0.45430 0.76550 0.56360
Cu2A Cu 0.24554(13) 0.55207(14) 0.59998(8)
N3A N 0.2159(9) 0.4660(11) 0.6786(6)
H17A H 0.17650 0.49410 0.70730
H18A H 0.28490 0.47360 0.69780
N4A N 0.1417(10) 0.4065(9) 0.5544(6)
H19A H 0.18520 0.37630 0.53000
H20A H 0.08980 0.41840 0.52760
N5A N 0.2276(9) 0.6492(9) 0.5331(5)
H21A H 0.15090 0.63540 0.52530
H22A H 0.25840 0.63430 0.49560
N6A N 0.3664(9) 0.6922(9) 0.6417(5)
H23A H 0.43020 0.67860 0.65410
H24A H 0.33780 0.71710 0.67720
O42A* O 0.4189(7) 0.4854(8) -0.4308(4)
O43* O 0.5958(8) 0.4352(8) -0.4792(4)
Tb1A* Tb 0.55537(5) 0.42299(5) 0.63348(3)
#END
