
#######################################################################
#
#                 Cambridge Crystallographic Data Centre
#                                CCDC
#
#######################################################################
#
# If this CIF has been generated from an entry in the Cambridge
# Structural Database, then it will include bibliographic, chemical,
# crystal, experimental, refinement or atomic coordinate data resulting
# from the CCDC's data processing and validation procedures.
#
#######################################################################

data_CSD_CIF_VICYOX
_audit_creation_date 2013-05-24
_audit_creation_method CSD-ConQuest-V1
_database_code_CSD VICYOX
_database_code_depnum_ccdc_archive 'CCDC 891954'
_chemical_formula_sum 'C42 H30 N8 O20 Zn3'
_chemical_formula_moiety
;
(C5 H7 N2 1+)2n,n(C32 H12 N4 O18 Zn3 2-),2n(H2 O1)
;
_journal_coden_Cambridge 1350
_journal_volume 15
_journal_year 2013
_journal_page_first 4970
_journal_name_full 'CrystEngComm '
loop_
_publ_author_name
"Feifei Xing"
"Juan Jia"
"Licong Liu"
"Lina Zhong"
"Min Shao"
"Yue-ling Bai"
"Yongmei Zhao"
"Shourong Zhu"
"Xiang He"
"Mingxing Li"
_chemical_name_systematic
;
catena-[bis(4-Aminopyridinium) 
bis(\m~7~-5-((3,5-dicarboxylatophenyl)-NNO-azoxy)benzene-1,3-dicarboxylato)-tr
i-zinc(ii) dihydrate]
;
_cell_volume   1062.210
_exptl_crystal_density_diffrn 1.818
_diffrn_ambient_temperature 296
#These two values have been output from a single CSD field.
_refine_ls_R_factor_gt 0.0664
_refine_ls_wR_factor_gt 0.0664
_symmetry_cell_setting triclinic
_symmetry_space_group_name_H-M 'P -1'
_symmetry_Int_Tables_number 2
loop_
_symmetry_equiv_pos_site_id
_symmetry_equiv_pos_as_xyz
1 x,y,z
2 -x,-y,-z
_cell_length_a 9.5593(13)
_cell_length_b 10.2131(14)
_cell_length_c 11.9424(16)
_cell_angle_alpha 110.091(2)
_cell_angle_beta 99.943(2)
_cell_angle_gamma 95.800(2)
_cell_formula_units_Z 1
loop_
_atom_type_symbol
_atom_type_radius_bond
C 0.68
H 0.23
N 0.68
O 0.68
Zn 1.22
loop_
_atom_site_label
_atom_site_type_symbol
_atom_site_fract_x
_atom_site_fract_y
_atom_site_fract_z
Zn1 Zn 1.00000 0.00000 0.50000
Zn2 Zn 0.03414(8) 0.29728(8) 0.73249(7)
C1 C 0.7638(7) 0.1740(7) 0.5650(6)
C2 C 0.6068(7) 0.1694(6) 0.5188(6)
C3 C 0.5169(7) 0.2210(6) 0.5976(6)
H1 H 0.55550 0.26450 0.68120
C4 C 0.3715(7) 0.2086(7) 0.5532(6)
C5 C 0.3154(7) 0.1487(8) 0.4278(6)
H2 H 0.21840 0.14430 0.39600
C6 C 0.4055(8) 0.0961(9) 0.3515(6)
C7 C 0.5491(8) 0.1023(8) 0.3939(6)
H3 H 0.60690 0.06260 0.34050
C8 C 0.2743(7) 0.2554(7) 0.6405(6)
C9 C 0.2048(10) -0.0662(9) 0.0352(7)
C10 C 0.1730(8) -0.2112(8) -0.0189(7)
H4 H 0.19450 -0.26740 0.02650
C11 C 0.1091(7) -0.2715(7) -0.1409(6)
C12 C 0.0770(7) -0.1854(7) -0.2066(6)
H5 H 0.03750 -0.22630 -0.29020
C13 C 0.1029(7) -0.0400(7) -0.1493(6)
C14 C 0.1665(9) 0.0205(7) -0.0274(6)
H6 H 0.18350 0.11830 0.01260
C15 C 0.0761(7) -0.4317(7) -0.2060(7)
C16 C 0.0573(7) 0.0494(7) -0.2225(6)
O1 O 0.8258(5) 0.0939(5) 0.4930(4)
O2 O 0.8231(5) 0.2594(5) 0.6720(4)
O3 O 0.1366(4) 0.2157(4) 0.5982(4)
O4 O 0.3267(5) 0.3293(5) 0.7487(4)
O5 O 0.0812(5) -0.5050(4) -0.1421(4)
O6 O 0.0425(6) -0.4834(5) -0.3209(4)
O7 O 0.0033(5) -0.0112(5) -0.3322(4)
O8 O 0.0790(5) 0.1825(5) -0.1646(4)
N1 N 0.3579(5) 0.0030(5) 0.2170(4)
N2 N 0.2443(5) 0.0272(5) 0.1774(4)
O9 O 0.4261(8) -0.0922(7) 0.1670(6)
C17 C 0.2717(10) 0.4273(9) 0.0728(9)
H7 H 0.19030 0.45670 0.04090
C18 C 0.2985(9) 0.4440(8) 0.1900(7)
H8 H 0.23680 0.48420 0.23930
C19 C 0.4214(9) 0.4002(8) 0.2383(8)
C20 C 0.5092(10) 0.3399(10) 0.1617(10)
H9 H 0.59140 0.30980 0.19120
C21 C 0.4730(11) 0.325(1) 0.0407(9)
H10 H 0.53030 0.28310 -0.01230
N3 N 0.3566(9) 0.3702(8) -0.0006(7)
H11 H 0.33600 0.36230 -0.07590
N4 N 0.4543(9) 0.4221(8) 0.3581(7)
H12 H 0.53150 0.39840 0.38850
H13 H 0.39810 0.45990 0.40430
O10 O 0.2233(5) 0.5252(5) 0.5028(4)
H14 H 0.18510 0.55000 0.56450
H15 H 0.14260 0.49570 0.45170
Zn2A Zn 0.96586(8) -0.29728(8) -0.73249(7)
C1A C 0.2362(7) -0.1740(7) -0.5650(6)
C2A C 0.3932(7) -0.1694(6) -0.5188(6)
C3A C 0.4831(7) -0.2210(6) -0.5976(6)
H1A H 0.44450 -0.26450 -0.68120
C4A C 0.6285(7) -0.2086(7) -0.5532(6)
C5A C 0.6846(7) -0.1487(8) -0.4278(6)
H2A H 0.78160 -0.14430 -0.39600
C6A C 0.5945(8) -0.0961(9) -0.3515(6)
C7A C 0.4509(8) -0.1023(8) -0.3939(6)
H3A H 0.39310 -0.06260 -0.34050
C8A C 0.7257(7) -0.2554(7) -0.6405(6)
C9A C 0.7952(10) 0.0662(9) -0.0352(7)
C10A C 0.8270(8) 0.2112(8) 0.0189(7)
H4A H 0.80550 0.26740 -0.02650
C11A C 0.8909(7) 0.2715(7) 0.1409(6)
C12A C 0.9230(7) 0.1854(7) 0.2066(6)
H5A H 0.96250 0.22630 0.29020
C13A C 0.8971(7) 0.0400(7) 0.1493(6)
C14A C 0.8335(9) -0.0205(7) 0.0274(6)
H6A H 0.81650 -0.11830 -0.01260
C15A C 0.9239(7) 0.4317(7) 0.2060(7)
C16A C 0.9427(7) -0.0494(7) 0.2225(6)
O1A O 0.1742(5) -0.0939(5) -0.4930(4)
O2A O 0.1769(5) -0.2594(5) -0.6720(4)
O3A O 0.8634(4) -0.2157(4) -0.5982(4)
O4A O 0.6733(5) -0.3293(5) -0.7487(4)
O5A O 0.9188(5) 0.5050(4) 0.1421(4)
O6A O 0.9575(6) 0.4834(5) 0.3209(4)
O7A O 0.9967(5) 0.0112(5) 0.3322(4)
O8A O 0.9210(5) -0.1825(5) 0.1646(4)
N1A N 0.6421(5) -0.0030(5) -0.2170(4)
N2A N 0.7557(5) -0.0272(5) -0.1774(4)
O9A O 0.5739(8) 0.0922(7) -0.1670(6)
Zn1* Zn 0.00000 0.00000 -0.50000
Zn1** Zn 0.00000 0.00000 0.50000
Zn1*** Zn 1.00000 0.00000 -0.50000
Zn2* Zn 0.03414(8) -0.70272(8) -0.26751(7)
Zn2** Zn 0.03414(8) 0.29728(8) -0.26751(7)
Zn2*** Zn 1.03414(8) 0.29728(8) 0.73249(7)
Zn2A* Zn -0.03414(8) -0.29728(8) -0.73249(7)
Zn2A** Zn 0.96586(8) -0.29728(8) 0.26751(7)
Zn2A*** Zn 0.96586(8) 0.70272(8) 0.26751(7)
O1A* O 1.1742(5) -0.0939(5) 0.5070(4)
O2* O -0.1769(5) 0.2594(5) 0.6720(4)
O2A* O 1.1769(5) -0.2594(5) -0.6720(4)
O3* O 1.1366(4) 0.2157(4) 0.5982(4)
O3A* O 0.8634(4) -0.2157(4) 0.4018(4)
O5* O 0.0812(5) 0.4950(4) 0.8579(4)
O5A* O 0.9188(5) -0.4950(4) -0.8579(4)
O6* O 0.0425(6) 0.5166(5) 0.6791(4)
O6A* O 0.9575(6) -0.5166(5) -0.6791(4)
O7* O 1.0033(5) -0.0112(5) 0.6678(4)
O8* O 0.0790(5) 0.1825(5) 0.8354(4)
O8A* O 0.9210(5) -0.1825(5) -0.8354(4)
#END
