
#######################################################################
#
#                 Cambridge Crystallographic Data Centre
#                                CCDC
#
#######################################################################
#
# If this CIF has been generated from an entry in the Cambridge
# Structural Database, then it will include bibliographic, chemical,
# crystal, experimental, refinement or atomic coordinate data resulting
# from the CCDC's data processing and validation procedures.
#
#######################################################################

data_CSD_CIF_VIDFIA
_audit_creation_date 2018-06-08
_audit_creation_method CSD-ConQuest-V1
_database_code_CSD VIDFIA
_database_code_depnum_ccdc_archive 'CCDC 1839229'
_chemical_formula_sum 'C46 H27 Cu1 Dy1 F30 N5 O12'
_chemical_formula_moiety
;
(C26 H23 Cu1 F6 N5 O4 1+)n,n(C20 H4 Dy1 F24 O8 1-)
;
_journal_coden_Cambridge 222
_journal_volume 47
_journal_year 2018
_journal_page_first 8142
_journal_name_full 'Dalton Trans. '
loop_
_publ_author_name
"Juan Sun"
"Meng Yang"
"Lu Xi"
"Yue Ma"
"Licun Li"
_chemical_name_systematic
;
catena-((\m-2-(4-(2-(2-pyridyl)-1H-imidazol-1-yl)phenyl)-4,4,5,5-tetramethylim
idazoline-1-oxyl-3-oxide 
radical)-(1,1,1,5,5,5-hexafluoroacetylacetonato)-copper(ii) 
tetrakis(1,1,1,5,5,5-hexafluoroacetylacetonato)-dysprosium(iii))
;
_cell_volume   5819.349
_exptl_crystal_colour 'green'
_exptl_crystal_density_diffrn 1.869
_exptl_crystal_description 'block'
_diffrn_ambient_temperature 113
#These two values have been output from a single CSD field.
_refine_ls_R_factor_gt 0.0411
_refine_ls_wR_factor_gt 0.0411
_symmetry_cell_setting monoclinic
_symmetry_space_group_name_H-M 'P 21/n'
_symmetry_Int_Tables_number 14
loop_
_symmetry_equiv_pos_site_id
_symmetry_equiv_pos_as_xyz
1 x,y,z
2 1/2-x,1/2+y,1/2-z
3 -x,-y,-z
4 -1/2+x,-1/2-y,-1/2+z
_cell_length_a 17.073(2)
_cell_length_b 20.108(2)
_cell_length_c 17.4970(19)
_cell_angle_alpha 90
_cell_angle_beta 104.351(2)
_cell_angle_gamma 90
_cell_formula_units_Z 4
loop_
_atom_type_symbol
_atom_type_radius_bond
C 0.68
H 0.23
Cu 1.32
Dy 1.92
F 0.64
N 0.68
O 0.68
loop_
_atom_site_label
_atom_site_type_symbol
_atom_site_fract_x
_atom_site_fract_y
_atom_site_fract_z
Dy1 Dy 0.31884(2) 0.13810(2) 0.26217(2)
F1 F 0.36895(17) 0.36394(12) 0.21935(19)
F2 F 0.05735(15) -0.00945(13) 0.32038(16)
F3 F 0.16109(16) 0.00398(13) 0.41710(15)
F4 F 0.32289(17) 0.34998(13) 0.09503(17)
O1 O 0.18235(16) 0.16464(13) 0.19562(17)
O2 O 0.23696(15) 0.07346(12) 0.32282(15)
F5 F 0.25120(16) 0.40155(11) 0.16151(17)
O3 O 0.31797(15) 0.23824(12) 0.19497(16)
F6 F 0.2433(2) 0.32450(16) 0.47587(19)
O4 O 0.26351(16) 0.05347(13) 0.17255(16)
O5 O 0.42733(17) 0.20032(14) 0.34183(17)
O6 O 0.26525(17) 0.20958(13) 0.34315(18)
F7 F 0.2058(2) 0.35696(14) 0.3562(2)
O7 O 0.40345(16) 0.05660(14) 0.33299(18)
F8 F 0.09244(17) 0.08864(12) 0.36625(18)
C1 C 0.1967(2) 0.02483(18) 0.1622(2)
F9 F 0.1539(2) 0.26980(16) 0.3935(2)
F10 F 0.1325(2) 0.05177(15) 0.03129(17)
C2 C 0.1210(2) 0.03011(19) 0.3496(2)
F11 F 0.5354(3) -0.0263(2) 0.4252(3)
C3 C 0.2662(2) 0.28374(18) 0.1778(2)
C4 C 0.4633(3) 0.0075(2) 0.2389(3)
H1 H 0.48820 -0.03090 0.22720
F12 F 0.4178(2) -0.0617(2) 0.4070(3)
C5 C 0.3017(2) 0.35090(19) 0.1639(3)
C6 C 0.1477(2) 0.2179(2) 0.1765(3)
C7 C 0.1756(2) 0.04027(17) 0.2928(2)
C8 C 0.1834(2) 0.2793(2) 0.1677(3)
H2 H 0.15130 0.31710 0.15510
C9 C 0.2888(3) 0.26165(19) 0.3796(2)
C10 C 0.2225(3) 0.3033(2) 0.4021(3)
C11 C 0.4307(3) 0.2526(2) 0.3810(3)
C12 C 0.4436(3) 0.0118(2) 0.3101(3)
C13 C 0.3673(3) 0.2862(2) 0.4009(3)
H3 H 0.37770 0.32590 0.42890
C14 C 0.4728(3) -0.0430(3) 0.3723(4)
F13 F 0.1039(2) -0.04322(17) 0.07026(19)
F14 F 0.2183(2) -0.02622(19) 0.04735(19)
C15 C 0.1503(2) 0.01506(17) 0.2164(2)
H4 H 0.10200 -0.00850 0.20150
C16 C 0.1624(3) 0.0012(2) 0.0773(3)
O8 O 0.41175(16) 0.11228(14) 0.18867(18)
F15 F 0.01687(17) 0.26151(17) 0.1158(2)
F16 F 0.5636(2) 0.2408(2) 0.4592(3)
F17 F 0.5190(2) 0.3373(2) 0.4489(3)
F18 F 0.5521(2) 0.2890(2) 0.3531(2)
C17 C 0.4475(2) 0.0581(2) 0.1840(3)
F19 F 0.5082(3) 0.1024(2) 0.0861(3)
F20 F 0.0263(2) 0.1603(2) 0.1204(3)
C18 C 0.0554(3) 0.2153(3) 0.1615(3)
F21 F 0.5231(3) -0.0011(3) 0.1080(3)
C19 C 0.5164(3) 0.2817(3) 0.4098(3)
F22 F 0.4880(4) -0.1003(2) 0.3389(3)
F23 F 0.0335(2) 0.2103(4) 0.2231(3)
C20 C 0.4752(3) 0.0491(3) 0.1083(4)
F24 F 0.4122(3) 0.0390(2) 0.0480(2)
Cu1 Cu 0.74204(2) 0.20493(2) 0.22626(2)
O9 O 0.71736(16) 0.14295(13) 0.30151(16)
O10 O 0.84425(14) 0.15908(12) 0.22867(14)
O11 O 0.89799(17) -0.03462(12) 0.37467(16)
N1 N 0.87232(18) 0.00589(14) 0.31864(17)
N2 N 1.25635(16) 0.23616(14) 0.63835(17)
N3 N 1.12934(17) 0.26536(15) 0.68763(18)
N4 N 1.03719(16) 0.21545(14) 0.59575(17)
C21 C 1.2625(2) 0.14265(19) 0.5238(2)
H5 H 1.26500 0.11120 0.48560
C22 C 1.1175(2) 0.22756(17) 0.6239(2)
O12 O 0.78860(17) 0.27606(13) 0.32120(16)
C23 C 0.88078(19) 0.07263(16) 0.3213(2)
N5 N 0.84949(17) 0.09647(14) 0.24850(17)
C24 C 1.1893(2) 0.15784(18) 0.5405(2)
H6 H 1.14210 0.13650 0.51380
C25 C 0.9241(2) 0.08443(17) 0.4665(2)
H7 H 0.90120 0.04320 0.47120
F25 F 0.7218(2) 0.04600(15) 0.41526(19)
C26 C 0.91894(18) 0.11146(16) 0.39137(19)
C27 C 1.1873(2) 0.20521(17) 0.5974(2)
F26 F 0.8499(2) 0.30165(15) 0.51557(18)
C28 C 0.9629(2) 0.11872(17) 0.5329(2)
H8 H 0.96600 0.10090 0.58260
C29 C 1.3321(2) 0.17499(19) 0.5649(2)
H9 H 1.38170 0.16590 0.55430
C30 C 0.9980(2) 0.24689(19) 0.6457(2)
H10 H 0.94260 0.24690 0.64140
C31 C 1.0546(2) 0.2775(2) 0.7015(2)
H11 H 1.04510 0.30270 0.74290
F27 F 0.6695(2) 0.11417(19) 0.48077(18)
C32 C 0.8241(2) -0.01899(19) 0.2394(2)
C33 C 0.7468(3) 0.0603(2) 0.1291(2)
H12 H 0.72980 0.02370 0.09360
H13 H 0.75340 0.09920 0.09960
H14 H 0.70670 0.06870 0.15790
C34 C 0.8270(2) 0.04326(19) 0.1868(2)
C35 C 0.7426(3) 0.2123(2) 0.4158(2)
H15 H 0.73720 0.21370 0.46740
C36 C 1.3261(2) 0.22092(19) 0.6219(2)
H16 H 1.37290 0.24210 0.64990
F28 F 0.6052(2) 0.0869(2) 0.3654(2)
C37 C 0.7782(3) 0.2674(2) 0.3875(2)
C38 C 0.7157(2) 0.1573(2) 0.3723(2)
C39 C 0.95316(19) 0.17377(16) 0.3852(2)
H17 H 0.94950 0.19220 0.33560
F29 F 0.8519(4) 0.3655(2) 0.4226(3)
C40 C 0.8084(4) 0.3223(2) 0.4483(3)
F30 F 0.7528(4) 0.3593(2) 0.4590(3)
C41 C 0.7396(3) -0.0355(2) 0.2505(3)
H18 H 0.71620 0.00370 0.26690
H19 H 0.74410 -0.06940 0.28990
H20 H 0.70580 -0.05110 0.20140
C42 C 0.8650(3) -0.0806(2) 0.2179(3)
H21 H 0.86090 -0.11610 0.25340
H22 H 0.92100 -0.07120 0.22180
H23 H 0.83920 -0.09370 0.16490
C43 C 0.6772(3) 0.1009(2) 0.4095(3)
C44 C 0.99748(18) 0.18003(17) 0.5255(2)
C45 C 0.9925(2) 0.20819(17) 0.4522(2)
H24 H 1.01520 0.24970 0.44810
C46 C 0.8954(3) 0.0419(2) 0.1447(2)
H25 H 0.88690 0.00580 0.10770
H26 H 0.94610 0.03600 0.18280
H27 H 0.89610 0.08310 0.11720
Cu1C Cu 1.24204(2) 0.29507(2) 0.72626(2)
N2C N 0.75635(16) 0.26384(14) 0.13835(17)
N3C N 0.62934(17) 0.23464(15) 0.18763(18)
#END
