
#######################################################################
#
#                 Cambridge Crystallographic Data Centre
#                                CCDC
#
#######################################################################
#
# If this CIF has been generated from an entry in the Cambridge
# Structural Database, then it will include bibliographic, chemical,
# crystal, experimental, refinement or atomic coordinate data resulting
# from the CCDC's data processing and validation procedures.
#
#######################################################################

data_CSD_CIF_VIDFOG
_audit_creation_date 2018-06-08
_audit_creation_method CSD-ConQuest-V1
_database_code_CSD VIDFOG
_database_code_depnum_ccdc_archive 'CCDC 1839228'
_chemical_formula_sum 'C46 H27 Cu1 F30 Gd1 N5 O12'
_chemical_formula_moiety
;
(C26 H23 Cu1 F6 N5 O4 1+)n,n(C20 H4 F24 Gd1 O8 1-)
;
_journal_coden_Cambridge 222
_journal_volume 47
_journal_year 2018
_journal_page_first 8142
_journal_name_full 'Dalton Trans. '
loop_
_publ_author_name
"Juan Sun"
"Meng Yang"
"Lu Xi"
"Yue Ma"
"Licun Li"
_chemical_name_systematic
;
catena-((\m-2-(4-(2-(2-pyridyl)-1H-imidazol-1-yl)phenyl)-4,4,5,5-tetramethylim
idazoline-1-oxyl-3-oxide 
radical)-(1,1,1,5,5,5-hexafluoroacetylacetonato)-copper(ii) 
tetrakis(1,1,1,5,5,5-hexafluoroacetylacetonato)-gadolinium(iii))
;
_cell_volume   5837.039
_exptl_crystal_colour 'green'
_exptl_crystal_density_diffrn 1.858
_exptl_crystal_description 'block'
_diffrn_ambient_temperature 113
#These two values have been output from a single CSD field.
_refine_ls_R_factor_gt 0.0425
_refine_ls_wR_factor_gt 0.0425
_symmetry_cell_setting monoclinic
_symmetry_space_group_name_H-M 'P 21/n'
_symmetry_Int_Tables_number 14
loop_
_symmetry_equiv_pos_site_id
_symmetry_equiv_pos_as_xyz
1 x,y,z
2 1/2-x,1/2+y,1/2-z
3 -x,-y,-z
4 -1/2+x,-1/2-y,-1/2+z
_cell_length_a 17.0661(14)
_cell_length_b 20.1979(15)
_cell_length_c 17.4936(14)
_cell_angle_alpha 90
_cell_angle_beta 104.535(2)
_cell_angle_gamma 90
_cell_formula_units_Z 4
loop_
_atom_type_symbol
_atom_type_radius_bond
C 0.68
H 0.23
Cu 1.32
F 0.64
Gd 1.96
N 0.68
O 0.68
loop_
_atom_site_label
_atom_site_type_symbol
_atom_site_fract_x
_atom_site_fract_y
_atom_site_fract_z
Gd1 Gd 0.81981(2) 0.13824(2) 0.26283(2)
F1 F 0.66118(17) 0.00413(14) 0.41754(15)
F2 F 0.55719(16) -0.00910(14) 0.32078(16)
F3 F 0.86766(18) 0.36455(13) 0.22050(19)
F4 F 0.82240(18) 0.35123(13) 0.09604(17)
O1 O 0.68185(17) 0.16529(14) 0.19517(18)
O2 O 0.81761(16) 0.23932(13) 0.19489(16)
O3 O 0.73730(16) 0.07310(13) 0.32326(15)
F5 F 0.74985(16) 0.40174(11) 0.16180(17)
F6 F 0.7443(2) 0.32570(17) 0.47685(18)
O4 O 0.76577(18) 0.21023(14) 0.34466(17)
O5 O 0.92872(18) 0.20184(15) 0.34408(17)
O6 O 0.76261(17) 0.05284(13) 0.17231(16)
C1 C 0.6959(3) 0.02495(19) 0.1618(2)
F7 F 0.7061(2) 0.35709(15) 0.35682(19)
O7 O 0.90619(18) 0.05556(15) 0.33396(18)
F8 F 0.6545(2) 0.27009(17) 0.3948(3)
F9 F 0.51601(18) 0.26122(18) 0.1148(2)
F10 F 0.59243(18) 0.08826(13) 0.36669(19)
F11 F 0.6321(2) 0.05156(15) 0.03092(16)
C2 C 0.8007(3) 0.3519(2) 0.1646(3)
C3 C 0.6209(2) 0.0303(2) 0.3495(3)
C4 C 0.7654(2) 0.28442(19) 0.1779(2)
C5 C 0.6473(2) 0.2186(2) 0.1767(3)
F12 F 1.0381(3) -0.0274(2) 0.4253(3)
F13 F 0.6017(3) -0.04216(19) 0.06995(19)
C6 C 0.6829(3) 0.2799(2) 0.1688(3)
H1 H 0.65080 0.31760 0.15740
C7 C 0.7896(3) 0.2622(2) 0.3812(2)
C8 C 0.9314(3) 0.2543(2) 0.3826(3)
C9 C 0.9752(3) -0.0440(3) 0.3719(4)
C10 C 0.6755(2) 0.04042(18) 0.2929(2)
C11 C 0.7226(3) 0.3039(2) 0.4032(3)
C12 C 0.9649(3) 0.0072(2) 0.2390(3)
H2 H 0.99000 -0.03100 0.22720
F14 F 0.9208(3) -0.0623(2) 0.4076(3)
C13 C 0.9455(3) 0.0110(2) 0.3106(3)
C14 C 0.8676(3) 0.2869(2) 0.4025(3)
H3 H 0.87760 0.32630 0.43080
F15 F 0.5337(2) 0.2152(4) 0.2244(3)
C15 C 0.6498(3) 0.01548(19) 0.2165(2)
H4 H 0.60140 -0.00780 0.20170
F16 F 0.7158(2) -0.0270(2) 0.04722(18)
C16 C 0.5550(3) 0.2160(3) 0.1618(4)
C17 C 0.6607(3) 0.0013(2) 0.0772(3)
O8 O 0.91359(17) 0.11150(14) 0.18861(18)
C18 C 0.9489(3) 0.0577(2) 0.1838(3)
F17 F 0.9896(4) -0.1005(2) 0.3385(3)
C19 C 0.9762(4) 0.0492(3) 0.1076(4)
F18 F 1.0514(3) 0.2919(3) 0.3533(2)
F19 F 1.0649(2) 0.2435(2) 0.4599(3)
F20 F 1.0190(2) 0.3390(2) 0.4497(3)
F21 F 0.9131(3) 0.0400(2) 0.0474(2)
F22 F 0.5252(2) 0.1612(2) 0.1238(4)
F23 F 1.0235(3) -0.0016(3) 0.1078(3)
F24 F 1.0113(3) 0.1015(2) 0.0881(3)
C20 C 1.0168(4) 0.2837(3) 0.4105(3)
Cu1 Cu 1.24181(3) 0.20459(2) 0.22657(3)
O9 O 1.21744(16) 0.14331(14) 0.30205(15)
O10 O 1.34376(15) 0.15858(13) 0.22886(14)
O11 O 1.39761(18) -0.03416(13) 0.37534(16)
N1 N 1.75583(18) 0.23713(16) 0.63853(18)
N2 N 1.37244(19) 0.00589(15) 0.31918(18)
N3 N 1.62906(19) 0.26534(16) 0.68850(18)
N4 N 1.53687(18) 0.21500(15) 0.59632(17)
O12 O 1.28913(18) 0.27567(14) 0.32160(16)
C21 C 1.4925(2) 0.20744(18) 0.4527(2)
H5 H 1.51540 0.24870 0.44860
C22 C 1.7625(2) 0.1433(2) 0.5242(2)
H6 H 1.76500 0.11200 0.48590
N5 N 1.34887(19) 0.09614(15) 0.24889(17)
C23 C 1.3803(2) 0.07261(18) 0.3218(2)
C24 C 1.6171(2) 0.22767(18) 0.6244(2)
F25 F 1.2212(2) 0.04691(15) 0.41612(19)
F26 F 1.3511(2) 0.30181(15) 0.51529(18)
C25 C 1.4233(2) 0.08452(18) 0.4668(2)
H7 H 1.40000 0.04360 0.47150
C26 C 1.6887(2) 0.15831(19) 0.5410(2)
H8 H 1.64150 0.13690 0.51450
C27 C 1.6872(2) 0.20558(18) 0.5980(2)
C28 C 1.4977(2) 0.2461(2) 0.6466(2)
H9 H 1.44230 0.24580 0.64270
C29 C 1.2421(3) 0.2126(2) 0.4162(2)
H10 H 1.23610 0.21430 0.46760
C30 C 1.4624(2) 0.11898(18) 0.5339(2)
H11 H 1.46530 0.10150 0.58370
C31 C 1.8319(2) 0.1757(2) 0.5654(2)
H12 H 1.88170 0.16650 0.55520
F27 F 1.1686(2) 0.11528(19) 0.48109(18)
C32 C 1.4187(2) 0.11104(18) 0.3920(2)
C33 C 1.4533(2) 0.17312(18) 0.3854(2)
H13 H 1.44980 0.19130 0.33580
C34 C 1.2788(3) 0.2671(2) 0.3884(3)
F28 F 1.1045(2) 0.0883(2) 0.3653(2)
C35 C 1.2459(3) 0.0600(2) 0.1294(2)
H14 H 1.22910 0.02360 0.09370
H15 H 1.25230 0.09890 0.10010
H16 H 1.20570 0.06800 0.15810
C36 C 1.3229(3) -0.0188(2) 0.2399(2)
C37 C 1.8260(2) 0.2219(2) 0.6219(2)
H17 H 1.87280 0.24330 0.64950
C38 C 1.3262(2) 0.0431(2) 0.1871(2)
F29 F 1.3511(6) 0.3654(3) 0.4223(2)
C39 C 1.2392(3) -0.0348(2) 0.2509(3)
H18 H 1.21610 0.00420 0.26760
H19 H 1.24360 -0.06880 0.29010
H20 H 1.20500 -0.05000 0.20170
F30 F 1.2510(4) 0.3569(3) 0.4610(3)
C40 C 1.3093(4) 0.3223(3) 0.4481(3)
C41 C 1.2150(2) 0.1577(2) 0.3727(2)
C42 C 1.3641(3) -0.0806(2) 0.2181(3)
H21 H 1.35930 -0.11610 0.25310
H22 H 1.42030 -0.07140 0.22280
H23 H 1.33850 -0.09310 0.16480
C43 C 1.1770(3) 0.1016(3) 0.4099(3)
C44 C 1.5548(2) 0.2768(2) 0.7025(2)
H24 H 1.54540 0.30180 0.74390
C45 C 1.4972(2) 0.17960(19) 0.5263(2)
C46 C 1.3946(3) 0.0415(2) 0.1453(2)
H25 H 1.38500 0.00640 0.10700
H26 H 1.44510 0.03390 0.18340
H27 H 1.39680 0.08300 0.11930
Cu1C Cu 1.74181(3) 0.29541(2) 0.72657(3)
N1C N 1.25583(18) 0.26287(16) 0.13853(18)
N3C N 1.12906(19) 0.23466(16) 0.18850(18)
#END
