
#######################################################################
#
#                 Cambridge Crystallographic Data Centre
#                                CCDC
#
#######################################################################
#
# If this CIF has been generated from an entry in the Cambridge
# Structural Database, then it will include bibliographic, chemical,
# crystal, experimental, refinement or atomic coordinate data resulting
# from the CCDC's data processing and validation procedures.
#
#######################################################################

data_CSD_CIF_VIDPAC
_audit_creation_date 2018-06-08
_audit_creation_method CSD-ConQuest-V1
_database_code_CSD VIDPAC
_database_code_depnum_ccdc_archive 'CCDC 1826735'
_chemical_formula_sum 'C58 H72 Co4 N4 O30'
_chemical_formula_moiety
;
(C48 H38 Co4 O26 2-)n,2(C3 H7 N1 O1),2(C2 H8 N1 1+),2(H2 O1)
;
_journal_coden_Cambridge 155
_journal_volume 480
_journal_year 2018
_journal_page_first 54
_journal_name_full 'Inorg.Chim.Acta '
loop_
_publ_author_name
"Yun-Xue Yin"
"Ming-Xing Li"
"Xiang He"
"Zhao-Xi Wang"
"Min Shao"
_chemical_name_systematic
;
catena-[bis(dimethylammonium) 
bis(\m-5,5'-[1,2-phenylenebis(methyleneoxy)]di(benzene-1,3-dicarboxylato))-bis
(\m-hydroxo)-tetra-aqua-tetra-cobalt(ii) N,N-dimethylformamide solvate 
dihydrate]
;
_cell_volume   6193.582
_exptl_crystal_colour 'purple'
_exptl_crystal_density_diffrn 1.635
_exptl_crystal_description 'block'
_diffrn_ambient_temperature 296
#These two values have been output from a single CSD field.
_refine_ls_R_factor_gt 0.0545
_refine_ls_wR_factor_gt 0.0545
_symmetry_cell_setting monoclinic
_symmetry_space_group_name_H-M 'C 2/c'
_symmetry_Int_Tables_number 15
loop_
_symmetry_equiv_pos_site_id
_symmetry_equiv_pos_as_xyz
1 x,y,z
2 -x,y,1/2-z
3 1/2+x,1/2+y,z
4 1/2-x,1/2+y,1/2-z
5 -x,-y,-z
6 x,-y,-1/2+z
7 -1/2-x,-1/2-y,-z
8 -1/2+x,-1/2-y,-1/2+z
_cell_length_a 18.834(5)
_cell_length_b 11.111(5)
_cell_length_c 29.598(10)
_cell_angle_alpha 90
_cell_angle_beta 90.495(6)
_cell_angle_gamma 90
_cell_formula_units_Z 4
loop_
_atom_type_symbol
_atom_type_radius_bond
C 0.68
H 0.23
Co 1.26
N 0.68
O 0.68
loop_
_atom_site_label
_atom_site_type_symbol
_atom_site_fract_x
_atom_site_fract_y
_atom_site_fract_z
C1 C 0.45555(14) 0.3292(2) 0.16482(10)
C2 C 0.44956(14) 0.2099(3) 0.14073(10)
C3 C 0.46243(14) 0.1027(2) 0.16342(10)
H1 H 0.47120 0.10330 0.19440
C4 C 0.46222(14) -0.0061(3) 0.1397(1)
C5 C 0.47441(14) -0.1232(2) 0.16388(10)
C6 C 0.44912(15) -0.0061(3) 0.09331(10)
H2 H 0.45140 -0.07780 0.07720
C7 C 0.43272(16) 0.0998(3) 0.07109(10)
C8 C 0.43384(16) 0.2084(3) 0.09461(10)
H3 H 0.42410 0.28000 0.07950
C9 C 0.3848(2) 0.1916(3) 0.00425(13)
H4 H 0.42130 0.24320 -0.00820
H5 H 0.35830 0.23780 0.02620
C10 C 0.33537(17) 0.1498(3) -0.03315(11)
C11 C 0.35367(18) 0.1696(3) -0.07777(12)
H6 H 0.39790 0.20220 -0.08440
C12 C 0.3071(2) 0.1416(4) -0.11254(12)
H7 H 0.31950 0.15770 -0.14230
C13 C 0.2423(2) 0.0900(4) -0.10327(14)
H8 H 0.21090 0.07090 -0.12660
C14 C 0.22466(19) 0.0668(3) -0.05904(13)
H9 H 0.18160 0.02940 -0.05290
C15 C 0.26928(18) 0.0977(3) -0.02355(12)
C16 C 0.2436(2) 0.0798(3) 0.02419(13)
H10 H 0.25620 0.14910 0.04250
H11 H 0.19240 0.07130 0.02420
C17 C 0.25546(16) -0.0616(3) 0.08433(11)
C18 C 0.29381(16) -0.1578(3) 0.10254(11)
H12 H 0.33100 -0.19060 0.08620
C19 C 0.27771(14) -0.2050(3) 0.14407(10)
C20 C 0.32296(14) -0.3047(3) 0.16222(11)
C21 C 0.22080(14) -0.1573(3) 0.16845(10)
H13 H 0.20910 -0.18930 0.19650
C22 C 0.18187(14) -0.0618(3) 0.15055(10)
C23 C 0.20018(15) -0.0119(3) 0.10915(11)
H14 H 0.17560 0.05460 0.09810
C24 C 0.11738(14) -0.0123(3) 0.17447(10)
Co1 Co 0.00000 -0.04209(5) 0.25000
Co2 Co 0.02430(2) 0.10217(3) 0.35412(2)
Co3 Co 0.00000 0.24483(5) 0.25000
O1 O 0.27577(13) -0.0256(2) 0.04249(8)
O2 O 0.36685(10) -0.3514(2) 0.13549(7)
O3 O 0.31483(11) -0.3360(2) 0.20314(8)
O4 O 0.08639(10) 0.07468(19) 0.15490(8)
O5 O 0.09956(10) -0.0587(2) 0.21118(7)
O6 O 0.04003(9) 0.10188(16) 0.28692(7)
O7 O 0.01148(13) 0.1033(2) 0.42609(8)
O8 O 0.10659(11) 0.2587(2) 0.21884(8)
O9 O 0.41730(13) 0.0897(2) 0.02604(8)
O10 O 0.49594(11) -0.21101(18) 0.14154(7)
O11 O 0.46085(11) -0.12400(19) 0.20609(7)
O12 O 0.45766(11) 0.32724(19) 0.20750(7)
O13 O 0.45914(12) 0.41968(19) 0.13989(8)
C25 C 0.1912(2) 0.6088(4) 0.28607(16)
H15 H 0.23260 0.64030 0.27140
H16 H 0.20450 0.57650 0.31500
H17 H 0.15720 0.67220 0.29010
C26 C 0.1294(2) 0.5595(4) 0.21545(16)
H18 H 0.09950 0.62730 0.22180
H19 H 0.10190 0.49770 0.20090
H20 H 0.16710 0.58420 0.19590
N1 N 0.15961(15) 0.5128(3) 0.25791(11)
H21 H 0.19300 0.45880 0.25150
C27 C 0.1209(2) 0.6635(5) 0.08464(19)
H22 H 0.10350 0.69350 0.11290
H23 H 0.17090 0.64790 0.08730
H24 H 0.09650 0.59040 0.07690
C28 C 0.1342(4) 0.7257(7) 0.0055(2)
H25 H 0.10230 0.67070 -0.00930
H26 H 0.18050 0.69000 0.00780
H27 H 0.13690 0.79880 -0.01160
C29 C 0.0761(2) 0.8547(4) 0.05741(15)
H28 H 0.05980 0.86810 0.08660
N2 N 0.10864(18) 0.7517(3) 0.04986(13)
O14 O 0.06522(18) 0.9345(3) 0.02952(12)
O15 O 0.21204(13) 0.9217(2) 0.27819(9)
C1A C -0.45555(14) 0.3292(2) 0.33518(10)
C2A C -0.44956(14) 0.2099(3) 0.35927(10)
C3A C -0.46243(14) 0.1027(2) 0.33658(10)
H1A H -0.47120 0.10330 0.30560
C4A C -0.46222(14) -0.0061(3) 0.3603(1)
C5A C -0.47441(14) -0.1232(2) 0.33612(10)
C6A C -0.44912(15) -0.0061(3) 0.40669(10)
H2A H -0.45140 -0.07780 0.42280
C7A C -0.43272(16) 0.0998(3) 0.42891(10)
C8A C -0.43384(16) 0.2084(3) 0.40539(10)
H3A H -0.42410 0.28000 0.42050
C9A C -0.3848(2) 0.1916(3) 0.49575(13)
H4A H -0.42130 0.24320 0.50820
H5A H -0.35830 0.23780 0.47380
C10A C -0.33537(17) 0.1498(3) 0.53315(11)
C11A C -0.35367(18) 0.1696(3) 0.57777(12)
H6A H -0.39790 0.20220 0.58440
C12A C -0.3071(2) 0.1416(4) 0.61254(12)
H7A H -0.31950 0.15770 0.64230
C13A C -0.2423(2) 0.0900(4) 0.60327(14)
H8A H -0.21090 0.07090 0.62660
C14A C -0.22466(19) 0.0668(3) 0.55904(13)
H9A H -0.18160 0.02940 0.55290
C15A C -0.26928(18) 0.0977(3) 0.52355(12)
C16A C -0.2436(2) 0.0798(3) 0.47581(13)
H10A H -0.25620 0.14910 0.45750
H11A H -0.19240 0.07130 0.47580
C17A C -0.25546(16) -0.0616(3) 0.41567(11)
C18A C -0.29381(16) -0.1578(3) 0.39746(11)
H12A H -0.33100 -0.19060 0.41380
C19A C -0.27771(14) -0.2050(3) 0.35593(10)
C20A C -0.32296(14) -0.3047(3) 0.33778(11)
C21A C -0.22080(14) -0.1573(3) 0.33155(10)
H13A H -0.20910 -0.18930 0.30350
C22A C -0.18187(14) -0.0618(3) 0.34945(10)
C23A C -0.20018(15) -0.0119(3) 0.39085(11)
H14A H -0.17560 0.05460 0.40190
C24A C -0.11738(14) -0.0123(3) 0.32553(10)
Co2A Co -0.02430(2) 0.10217(3) 0.14588(2)
O1A O -0.27577(13) -0.0256(2) 0.45751(8)
O2A O -0.36685(10) -0.3514(2) 0.36451(7)
O3A O -0.31483(11) -0.3360(2) 0.29686(8)
O4A O -0.08639(10) 0.07468(19) 0.34510(8)
O5A O -0.09956(10) -0.0587(2) 0.28882(7)
O6A O -0.04003(9) 0.10188(16) 0.21308(7)
O7A O -0.01148(13) 0.1033(2) 0.07391(8)
O8A O -0.10659(11) 0.2587(2) 0.28116(8)
O9A O -0.41730(13) 0.0897(2) 0.47396(8)
O10A O -0.49594(11) -0.21101(18) 0.35846(7)
O11A O -0.46085(11) -0.12400(19) 0.29391(7)
O12A O -0.45766(11) 0.32724(19) 0.29250(7)
O13A O -0.45914(12) 0.41968(19) 0.36011(8)
Co1B Co -0.50000 0.45791(5) 0.25000
Co1B* Co 0.50000 0.45791(5) 0.25000
Co2B Co -0.47570(2) -0.39783(3) 0.35412(2)
Co2B* Co -0.47570(2) 0.60217(3) 0.35412(2)
Co2C Co 0.47570(2) -0.39783(3) 0.14588(2)
Co2C* Co 0.47570(2) 0.60217(3) 0.14588(2)
Co3B Co -0.50000 -0.25517(5) 0.25000
Co3B* Co 0.50000 -0.25517(5) 0.25000
O2B O -0.13315(10) 0.1486(2) 0.13549(7)
O2C O 0.13315(10) 0.1486(2) 0.36451(7)
O10B O -0.00406(11) 0.28899(18) 0.14154(7)
O10C O 0.00406(11) 0.28899(18) 0.35846(7)
O11B O -0.03915(11) 0.37600(19) 0.20609(7)
O11C O 0.03915(11) 0.37600(19) 0.29391(7)
O12B O -0.04234(11) -0.17276(19) 0.20750(7)
O12C O 0.04234(11) -0.17276(19) 0.29250(7)
O13B O -0.04086(12) -0.08032(19) 0.13989(8)
O13C O 0.04086(12) -0.08032(19) 0.36011(8)
#END
