
#######################################################################
#
#                 Cambridge Crystallographic Data Centre
#                                CCDC
#
#######################################################################
#
# If this CIF has been generated from an entry in the Cambridge
# Structural Database, then it will include bibliographic, chemical,
# crystal, experimental, refinement or atomic coordinate data resulting
# from the CCDC's data processing and validation procedures.
#
#######################################################################

data_CSD_CIF_VIGFEY
_audit_creation_date 2013-05-24
_audit_creation_method CSD-ConQuest-V1
_database_code_CSD VIGFEY
_database_code_depnum_ccdc_archive 'CCDC 860827'
_chemical_formula_sum 'C36 H50 Ag3 N6 O16'
_chemical_formula_moiety
;
(C10 H8 Ag1 N2 1+)2n,n(C14 H12 Ag1 N2 O4 1-),0.5n(C4 H4 O4 2-),10n(H2 O1)
;
_journal_coden_Cambridge 369
_journal_volume 37
_journal_year 2012
_journal_page_first 345
_journal_name_full 'Transition Met.Chem. '
loop_
_publ_author_name
"Chong-chen Wang"
"Peng Wang"
"Guang-Liang Guo"
_chemical_name_systematic
;
catena-[bis((\m~2~-4,4'-Bipyridine-N,N')-silver(i)) 
(\m~2~-4,4'-bipyridine-N,N')-(succinato-O)-silver(i) hemikis(succinate) 
decahydrate]
;
_cell_volume   4328.382
_exptl_crystal_colour 'colorless'
_exptl_crystal_density_diffrn 1.759
_exptl_crystal_description 'block-like'
_diffrn_ambient_temperature 298
#These two values have been output from a single CSD field.
_refine_ls_R_factor_gt 0.0342
_refine_ls_wR_factor_gt 0.0342
_symmetry_cell_setting monoclinic
_symmetry_space_group_name_H-M 'P 21/n'
_symmetry_Int_Tables_number 14
loop_
_symmetry_equiv_pos_site_id
_symmetry_equiv_pos_as_xyz
1 x,y,z
2 1/2-x,1/2+y,1/2-z
3 -x,-y,-z
4 -1/2+x,-1/2-y,-1/2+z
_cell_length_a 13.1581(12)
_cell_length_b 18.089(2)
_cell_length_c 18.1897(19)
_cell_angle_alpha 90
_cell_angle_beta 91.276(1)
_cell_angle_gamma 90
_cell_formula_units_Z 4
loop_
_atom_type_symbol
_atom_type_radius_bond
C 0.68
H 0.23
Ag 1.45
N 0.68
O 0.68
loop_
_atom_site_label
_atom_site_type_symbol
_atom_site_fract_x
_atom_site_fract_y
_atom_site_fract_z
Ag1 Ag 0.35600(3) 0.758576(18) 0.496477(16)
N1 N 0.2505(2) 0.75086(17) 0.58510(16)
N2 N -0.0642(3) 0.75064(17) 0.89487(16)
C1 C 0.2015(3) 0.8121(2) 0.60508(19)
H1 H 0.21220 0.85520 0.57850
C2 C 0.1365(3) 0.8147(2) 0.66263(18)
H2 H 0.10400 0.85870 0.67420
C3 C 0.1191(3) 0.7512(2) 0.70391(18)
C4 C 0.1696(3) 0.6872(2) 0.68265(19)
H3 H 0.16030 0.64340 0.70830
C5 C 0.2333(3) 0.6888(2) 0.62372(19)
H4 H 0.26570 0.64540 0.61000
C6 C -0.0568(3) 0.6909(2) 0.8510(2)
H5 H -0.09180 0.64840 0.86410
C7 C -0.0014(3) 0.6892(2) 0.78905(18)
H6 H 0.00030 0.64640 0.76070
C8 C 0.0533(3) 0.7516(2) 0.76780(19)
C9 C 0.0454(3) 0.8140(2) 0.81302(19)
H7 H 0.07950 0.85730 0.80110
C10 C -0.0117(3) 0.8114(2) 0.8742(2)
H8 H -0.01500 0.85350 0.90340
O1 O 0.4651(2) 0.86827(14) 0.56172(14)
O2 O 0.3413(2) 0.90416(15) 0.48623(15)
C11 C 0.4175(3) 0.9173(2) 0.5263(2)
C12 C 0.4590(3) 0.9952(2) 0.5287(2)
H9 H 0.48770 1.00530 0.57720
H10 H 0.40440 1.03010 0.51910
Ag2 Ag 0.54868(3) 0.72363(2) 0.610832(17)
N3 N 0.4559(2) 0.73636(18) 0.70631(16)
N4 N 0.1474(2) 0.76969(18) 1.01809(15)
C13 C 0.4105(3) 0.8008(2) 0.7227(2)
H11 H 0.42000 0.84080 0.69150
C14 C 0.3509(3) 0.8106(2) 0.78274(19)
H12 H 0.32190 0.85650 0.79210
C15 C 0.3342(3) 0.7509(2) 0.82977(18)
C16 C 0.3813(3) 0.6845(2) 0.81302(19)
H13 H 0.37270 0.64340 0.84300
C17 C 0.4406(3) 0.6797(2) 0.7521(2)
H14 H 0.47170 0.63470 0.74210
C18 C 0.1539(3) 0.7062(2) 0.9794(2)
H15 H 0.11630 0.66570 0.99460
C19 C 0.2127(3) 0.6986(2) 0.91927(19)
H16 H 0.21470 0.65370 0.89450
C20 C 0.2697(3) 0.7578(2) 0.89504(19)
C21 C 0.2631(3) 0.8236(2) 0.93425(18)
H17 H 0.29950 0.86500 0.91970
C22 C 0.2024(3) 0.8268(2) 0.9945(2)
H18 H 0.19940 0.87110 1.02040
O3 O 0.4777(3) 0.59640(19) 0.54963(19)
H19 H 0.52250 0.58520 0.58220
H20 H 0.42590 0.56920 0.55540
Ag3 Ag 0.77065(3) 0.707902(18) 0.699707(16)
N5 N 0.6865(2) 0.72330(17) 0.80073(16)
N6 N 0.3776(2) 0.76952(17) 1.11177(16)
O4 O 0.8133(2) 0.57480(16) 0.71324(16)
O5 O 0.6663(2) 0.58074(16) 0.65273(15)
O6 O 0.8473(3) 0.4975(2) 0.51946(17)
O7 O 0.7073(3) 0.47520(19) 0.45594(17)
C23 C 0.6419(3) 0.7880(2) 0.8174(2)
H21 H 0.64860 0.82740 0.78500
C24 C 0.5875(3) 0.7988(2) 0.87922(19)
H22 H 0.55910 0.84480 0.88860
C25 C 0.5745(3) 0.7407(2) 0.92860(18)
C26 C 0.6215(3) 0.6747(2) 0.9121(2)
H23 H 0.61650 0.63480 0.94400
C27 C 0.6757(3) 0.6678(2) 0.84869(19)
H24 H 0.70630 0.62270 0.83870
C28 C 0.3877(3) 0.7039(2) 1.0782(2)
H25 H 0.34930 0.66430 1.09480
C29 C 0.4513(3) 0.6921(2) 1.0208(2)
H26 H 0.45550 0.64540 0.99960
C30 C 0.5097(3) 0.7501(2) 0.99415(18)
C31 C 0.5001(3) 0.8178(2) 1.02923(19)
H27 H 0.53780 0.85820 1.01380
C32 C 0.4351(3) 0.8250(2) 1.08667(19)
H28 H 0.43050 0.87080 1.10950
C33 C 0.7434(4) 0.5463(2) 0.6749(2)
C34 C 0.7533(3) 0.4651(2) 0.6553(2)
H29 H 0.82490 0.45230 0.65570
H30 H 0.72140 0.43600 0.69320
C35 C 0.7071(3) 0.4434(2) 0.5817(2)
H31 H 0.63650 0.45890 0.58050
H32 H 0.70800 0.38990 0.57810
C36 C 0.7582(4) 0.4750(2) 0.5140(2)
O8 O 0.0280(3) 0.47594(19) 0.59976(16)
H33 H -0.03080 0.48160 0.58020
H34 H 0.07180 0.48300 0.56680
O9 O 0.9853(3) 0.49670(19) 0.74900(16)
H35 H 1.00570 0.48710 0.70600
H36 H 0.93070 0.52160 0.74490
O10 O 0.2268(2) 0.01298(18) 0.42498(18)
H37 H 0.26040 -0.02210 0.44480
H38 H 0.26760 0.03940 0.40070
O11 O 0.7016(3) 0.5193(2) 0.31254(17)
H39 H 0.70790 0.50600 0.35720
H40 H 0.63930 0.51550 0.29970
O12 O 0.6313(3) 0.90181(18) 0.65454(16)
H41 H 0.58580 0.88850 0.62350
H42 H 0.60390 0.93010 0.68570
O13 O 0.8395(3) 0.9798(2) 0.4235(2)
H43 H 0.81520 0.98220 0.46640
H44 H 0.79060 0.98010 0.39220
O14 O 0.5048(3) 0.4948(2) 0.7175(2)
H45 H 0.55300 0.52010 0.70000
H46 H 0.51350 0.49200 0.76380
O15 O 0.3095(3) 0.0212(3) 0.6899(2)
H47 H 0.37100 0.01550 0.70410
H48 H 0.27150 0.00980 0.72540
O16 O 0.9731(3) 0.9826(3) 0.6327(2)
H49 H 0.91880 0.98760 0.60710
H50 H 1.02310 0.99640 0.60730
Ag1C Ag -0.14400(3) 0.741424(18) 0.996477(16)
N2C N 0.4358(3) 0.74936(17) 0.39487(16)
O1B O 0.5349(2) 1.13173(14) 0.43828(14)
O2B O 0.6587(2) 1.09584(15) 0.51377(15)
C11B C 0.5825(3) 1.0827(2) 0.4737(2)
C12B C 0.5410(3) 1.0048(2) 0.4713(2)
H9B H 0.51230 0.99470 0.42280
H10B H 0.59560 0.96990 0.48090
Ag2C Ag 0.04868(3) 0.77637(2) 1.110832(17)
N4C N 0.6474(2) 0.73031(18) 0.51809(15)
Ag3C Ag 0.27065(3) 0.792098(18) 1.199707(16)
N6C N 0.8776(2) 0.73048(17) 0.61177(16)
#END
