
#######################################################################
#
#                 Cambridge Crystallographic Data Centre
#                                CCDC
#
#######################################################################
#
# If this CIF has been generated from an entry in the Cambridge
# Structural Database, then it will include bibliographic, chemical,
# crystal, experimental, refinement or atomic coordinate data resulting
# from the CCDC's data processing and validation procedures.
#
#######################################################################

data_CSD_CIF_VIHHIE
_audit_creation_date 2007-10-23
_audit_creation_method CSD-ConQuest-V1
_database_code_CSD VIHHIE
_database_code_depnum_ccdc_archive 'CCDC 225148'
_chemical_formula_sum 'C48 H96 Br12 Cu6 Li3 O12'
_chemical_formula_moiety
;
(C16 H32 Li1 O4 1+)3n,n(Br12 Cu6 3-)
;
_journal_coden_Cambridge 1003
_journal_volume 37
_journal_year 2007
_journal_page_first 503
_journal_name_full 'J.Chem.Cryst. '
loop_
_publ_author_name
"G.Margraf"
"M.Bolte"
"M.Wagner"
"H.-W.Lerner"
_chemical_name_systematic
;
catena-[tris(tetrakis(Tetrahydrofuran)-lithium(i)) 
dodecakis(\m~2~-bromo)-tri-copper(ii)-tri-copper(i)]
;
_cell_volume   7429.227
_exptl_crystal_colour 'red'
_exptl_crystal_density_diffrn 1.99
_exptl_crystal_description 'needle'
_diffrn_ambient_temperature 100
#These two values have been output from a single CSD field.
_refine_ls_R_factor_gt 0.0469
_refine_ls_wR_factor_gt 0.0469
_symmetry_cell_setting monoclinic
_symmetry_space_group_name_H-M 'P 21/c'
_symmetry_Int_Tables_number 14
loop_
_symmetry_equiv_pos_site_id
_symmetry_equiv_pos_as_xyz
1 x,y,z
2 -x,1/2+y,1/2-z
3 -x,-y,-z
4 x,-1/2-y,-1/2+z
_cell_length_a 20.2502(12)
_cell_length_b 20.1923(12)
_cell_length_c 18.7067(13)
_cell_angle_alpha 90
_cell_angle_beta 103.772(5)
_cell_angle_gamma 90
_cell_formula_units_Z 4
loop_
_atom_type_symbol
_atom_type_radius_bond
C 0.68
H 0.23
Br 1.21
Cu 1.46
Li 0.88
O 0.68
loop_
_atom_site_label
_atom_site_type_symbol
_atom_site_fract_x
_atom_site_fract_y
_atom_site_fract_z
Cu1 Cu -0.13596(6) 0.12379(6) 0.23756(7)
Cu2 Cu 0.03408(5) 0.13106(5) 0.25449(6)
Cu3 Cu 0.20692(5) 0.12414(6) 0.26798(6)
Cu4 Cu 0.36727(6) 0.10315(5) 0.25809(6)
Cu5 Cu -0.47029(6) 0.09302(6) 0.24398(7)
Cu6 Cu -0.30250(5) 0.11108(5) 0.23495(6)
Br1 Br -0.06017(5) 0.19468(4) 0.18514(5)
Br2 Br -0.03785(5) 0.05805(4) 0.30446(5)
Br3 Br 0.10548(5) 0.15675(5) 0.17259(5)
Br4 Br 0.13153(4) 0.11407(5) 0.35473(5)
Br5 Br 0.27304(5) 0.02845(4) 0.23927(5)
Br6 Br 0.30970(5) 0.19324(4) 0.30191(5)
Br7 Br -0.57032(5) 0.16594(4) 0.18805(5)
Br8 Br -0.54275(5) 0.02523(5) 0.30374(5)
Br9 Br -0.40580(5) 0.08301(5) 0.14693(5)
Br10 Br -0.35924(5) 0.11573(5) 0.33428(5)
Br11 Br -0.21531(5) 0.18820(5) 0.29121(5)
Br12 Br -0.23040(5) 0.05426(5) 0.16972(5)
Li1 Li 0.5987(8) 0.3302(7) 0.4056(8)
O1 O 0.6079(3) 0.4215(3) 0.4319(3)
C1 C 0.6734(5) 0.4531(5) 0.4617(6)
H1 H 0.70360 0.44730 0.42760
H2 H 0.69570 0.43330 0.50980
C2 C 0.6598(5) 0.5254(5) 0.4707(6)
H3 H 0.67210 0.55190 0.43120
H4 H 0.68600 0.54180 0.51900
C3 C 0.5839(5) 0.5293(4) 0.4655(5)
H5 H 0.57360 0.52250 0.51410
H6 H 0.56480 0.57220 0.44480
C4 C 0.5579(4) 0.4729(5) 0.4138(5)
H7 H 0.51350 0.45720 0.42060
H8 H 0.55230 0.48700 0.36200
O2 O 0.6035(3) 0.3232(3) 0.3061(3)
C5 C 0.6462(6) 0.3637(6) 0.2738(6)
H9 H 0.69470 0.35560 0.29760
H10 H 0.63610 0.41120 0.27920
C6 C 0.6309(8) 0.3444(7) 0.1930(6)
H11 H 0.61320 0.38280 0.16130
H12 H 0.67240 0.32790 0.17960
C7 C 0.5836(12) 0.2961(12) 0.1848(8)
H13 H 0.60140 0.25580 0.16580
H14 H 0.54260 0.31040 0.14760
C8 C 0.5649(6) 0.2803(5) 0.2497(5)
H15 H 0.57540 0.23330 0.26280
H16 H 0.51560 0.28750 0.24400
O3 O 0.5238(3) 0.2832(3) 0.4289(4)
C9 C 0.4854(5) 0.3000(5) 0.4818(6)
H17 H 0.45500 0.33800 0.46390
H18 H 0.51640 0.31260 0.52920
C10 C 0.4449(6) 0.2414(5) 0.4917(6)
H19 H 0.39850 0.24370 0.45960
H20 H 0.44200 0.23690 0.54360
C11 C 0.4852(6) 0.1844(5) 0.4693(6)
H21 H 0.52300 0.17040 0.51060
H22 H 0.45560 0.14590 0.45160
C12 C 0.5111(6) 0.2155(4) 0.4081(5)
H23 H 0.55340 0.19350 0.40300
H24 H 0.47670 0.21200 0.36080
O4 O 0.6789(3) 0.2908(3) 0.4694(3)
C13 C 0.7427(6) 0.2738(7) 0.4515(7)
H25 H 0.76960 0.31410 0.44800
H26 H 0.73460 0.24960 0.40420
C14 C 0.7783(8) 0.2314(8) 0.5126(11)
H27 H 0.76860 0.18410 0.50090
H28 H 0.82800 0.23860 0.52310
C15 C 0.7516(9) 0.2515(15) 0.5745(10)
H29 H 0.77860 0.28860 0.60120
H30 H 0.75340 0.21410 0.60910
C16 C 0.6808(7) 0.2722(7) 0.5443(6)
H31 H 0.64890 0.23540 0.54580
H32 H 0.66880 0.31030 0.57210
Li2 Li 0.0080(8) 0.3911(8) 0.3840(8)
O5 O 0.0048(3) 0.3099(3) 0.4358(3)
C17 C -0.0252(6) 0.2961(4) 0.4969(5)
H33 H -0.07460 0.30510 0.48300
H34 H -0.00430 0.32440 0.53950
C18 C -0.0125(6) 0.2250(4) 0.5162(6)
H35 H -0.04860 0.20630 0.53770
H36 H 0.03220 0.21850 0.55090
C19 C -0.0140(6) 0.1949(5) 0.4421(6)
H37 H 0.01220 0.15310 0.44750
H38 H -0.06120 0.18600 0.41450
C20 C 0.0182(7) 0.2461(5) 0.4044(6)
H39 H 0.06770 0.23820 0.41320
H40 H -0.00180 0.24530 0.35070
O6 O -0.0812(3) 0.4082(3) 0.3272(4)
C21 C -0.1378(7) 0.3634(7) 0.3113(7)
H41 H -0.17330 0.37790 0.33620
H42 H -0.12300 0.31810 0.32850
C22 C -0.1646(6) 0.3643(5) 0.2295(6)
H43 H -0.21490 0.36590 0.21670
H44 H -0.14990 0.32420 0.20710
C23 C -0.1350(6) 0.4269(5) 0.2023(5)
H45 H -0.10440 0.41550 0.17000
H46 H -0.17160 0.45630 0.17500
C24 C -0.0958(5) 0.4596(5) 0.2735(6)
H47 H -0.05310 0.47970 0.26650
H48 H -0.12350 0.49460 0.28910
O7 O 0.0677(3) 0.3766(3) 0.3177(4)
C25 C 0.0519(5) 0.3625(4) 0.2379(5)
H49 H 0.03060 0.40150 0.20940
H50 H 0.02040 0.32440 0.22590
C26 C 0.1193(6) 0.3466(5) 0.2203(6)
H51 H 0.14040 0.38670 0.20490
H52 H 0.11410 0.31250 0.18130
C27 C 0.1609(6) 0.3202(5) 0.2949(6)
H53 H 0.14930 0.27350 0.30250
H54 H 0.21040 0.32360 0.29840
C28 C 0.1397(5) 0.3646(5) 0.3481(6)
H55 H 0.14720 0.34330 0.39700
H56 H 0.16560 0.40670 0.35320
O8 O 0.0499(3) 0.4635(3) 0.4432(3)
C29 C 0.0718(5) 0.5240(4) 0.4159(5)
H57 H 0.03380 0.55590 0.40300
H58 H 0.08930 0.51540 0.37160
C30 C 0.1288(5) 0.5511(4) 0.4790(5)
H59 H 0.16540 0.57200 0.45990
H60 H 0.11080 0.58380 0.50900
C31 C 0.1538(5) 0.4897(5) 0.5228(6)
H61 H 0.18590 0.46440 0.50060
H62 H 0.17630 0.50060 0.57450
C32 C 0.0899(5) 0.4527(5) 0.5179(5)
H63 H 0.09930 0.40490 0.52710
H64 H 0.06570 0.46960 0.55420
Li3 Li 0.2650(9) 0.3927(9) 0.0817(8)
O9 O 0.2417(3) 0.3048(3) 0.0482(3)
C33 C 0.2567(5) 0.2728(4) -0.0148(5)
H65 H 0.29440 0.29560 -0.03000
H66 H 0.21620 0.27270 -0.05670
C34 C 0.2766(5) 0.2036(4) 0.0100(5)
H67 H 0.26760 0.17250 -0.03220
H68 H 0.32530 0.20110 0.03560
C35 C 0.2325(6) 0.1887(5) 0.0611(6)
H69 H 0.18900 0.16860 0.03430
H70 H 0.25560 0.15790 0.10040
C36 C 0.2208(6) 0.2536(5) 0.0923(6)
H71 H 0.17200 0.25880 0.09160
H72 H 0.24740 0.25690 0.14390
O10 O 0.3266(3) 0.4319(3) 0.0275(3)
C37 C 0.3919(5) 0.4604(5) 0.0589(5)
H73 H 0.42780 0.42600 0.06640
H74 H 0.39240 0.48120 0.10690
C38 C 0.4036(6) 0.5111(6) 0.0054(6)
H75 H 0.43430 0.49390 -0.02430
H76 H 0.42360 0.55190 0.03100
C39 C 0.3334(6) 0.5244(5) -0.0425(6)
H77 H 0.30880 0.55770 -0.01990
H78 H 0.33550 0.53960 -0.09220
C40 C 0.3016(5) 0.4588(5) -0.0451(5)
H79 H 0.25140 0.46260 -0.05700
H80 H 0.31480 0.43040 -0.08250
O11 O 0.1885(3) 0.4487(3) 0.0789(3)
C41 C 0.1976(5) 0.5182(5) 0.0966(6)
H81 H 0.24570 0.53130 0.10310
H82 H 0.18310 0.52850 0.14230
C42 C 0.1532(6) 0.5533(6) 0.0319(7)
H83 H 0.13840 0.59680 0.04670
H84 H 0.17770 0.56010 -0.00750
C43 C 0.0947(6) 0.5086(6) 0.0069(7)
H85 H 0.08360 0.50400 -0.04730
H86 H 0.05430 0.52590 0.02180
C44 C 0.1162(5) 0.4431(6) 0.0434(5)
H87 H 0.08980 0.43320 0.08040
H88 H 0.10850 0.40710 0.00640
O12 O 0.3168(3) 0.3850(3) 0.1828(3)
C45 C 0.3073(6) 0.4258(5) 0.2414(5)
H89 H 0.25940 0.42390 0.24530
H90 H 0.31890 0.47230 0.23320
C46 C 0.3548(6) 0.3983(5) 0.3111(6)
H91 H 0.36900 0.43310 0.34890
H92 H 0.33350 0.36130 0.33220
C47 C 0.4138(6) 0.3747(7) 0.2812(6)
H93 H 0.44390 0.41180 0.27530
H94 H 0.44080 0.34050 0.31340
C48 C 0.3777(6) 0.3462(6) 0.2079(6)
H95 H 0.40680 0.34920 0.17240
H96 H 0.36610 0.29920 0.21330
Cu4* Cu -0.63273(6) 0.10315(5) 0.25809(6)
Br7* Br 0.42968(5) 0.16594(4) 0.18805(5)
Br8* Br 0.45725(5) 0.02523(5) 0.30374(5)
#END
