
#######################################################################
#
#                 Cambridge Crystallographic Data Centre
#                                CCDC
#
#######################################################################
#
# If this CIF has been generated from an entry in the Cambridge
# Structural Database, then it will include bibliographic, chemical,
# crystal, experimental, refinement or atomic coordinate data resulting
# from the CCDC's data processing and validation procedures.
#
#######################################################################

data_CSD_CIF_VIJNOT
_audit_creation_date 2013-10-03
_audit_creation_method CSD-ConQuest-V1
_database_code_CSD VIJNOT
_database_code_depnum_ccdc_archive 'CCDC 929457'
_chemical_formula_sum 'C34 H48 Co2 N14 O16 S4'
_chemical_formula_moiety
;
(C14 H16 Co1 N10 O8 S4 1-)n,n(C20 H24 Co1 N4 O4 1+),4n(H2 O1)
;
_journal_coden_Cambridge 369
_journal_volume 38
_journal_year 2013
_journal_page_first 757
_journal_name_full 'Transition Met.Chem. '
loop_
_publ_author_name
"Chao-Hong Su"
"Yu-Kui Wang"
"Fu-Ping Huang"
"He-Dong Bian"
"Qing Yu"
_chemical_name_systematic
;
catena-[tetra-aqua-bis(4,4'-bipyridine)-cobalt 
(\m~2~-4,4'-bipyridine)-bis(4-(sulfonatomethyl)-5-thioxo-4,5-dihydro-1H-tetraz
ol-1-yl)-diaqua-cobalt tetrahydrate]
;
_cell_volume   1251.110
_exptl_crystal_density_diffrn 1.533
_diffrn_ambient_temperature 298
#These two values have been output from a single CSD field.
_refine_ls_R_factor_gt 0.0745
_refine_ls_wR_factor_gt 0.0745
_symmetry_cell_setting triclinic
_symmetry_space_group_name_H-M 'P -1'
_symmetry_Int_Tables_number 2
loop_
_symmetry_equiv_pos_site_id
_symmetry_equiv_pos_as_xyz
1 x,y,z
2 -x,-y,-z
_cell_length_a 10.1567(11)
_cell_length_b 11.5085(12)
_cell_length_c 12.2008(15)
_cell_angle_alpha 111.215(2)
_cell_angle_beta 102.207(1)
_cell_angle_gamma 99.766(1)
_cell_formula_units_Z 1
loop_
_atom_type_symbol
_atom_type_radius_bond
C 0.68
H 0.23
Co 1.26
N 0.68
O 0.68
S 1.02
loop_
_atom_site_label
_atom_site_type_symbol
_atom_site_fract_x
_atom_site_fract_y
_atom_site_fract_z
Co1 Co 0.50000 0.50000 0.00000
N1 N 0.3807(6) 0.5231(5) 0.3270(5)
N2 N 0.5206(6) 0.5799(6) 0.3701(5)
N3 N 0.5585(6) 0.5927(5) 0.2788(5)
N4 N 0.4461(5) 0.5425(5) 0.1734(5)
N5 N 0.4859(5) 0.6877(5) 0.0014(5)
O1 O 0.1707(6) 0.6682(5) 0.4281(5)
O2 O 0.2101(7) 0.5905(6) 0.5893(6)
O3 O 0.3999(6) 0.7314(6) 0.5731(5)
O4 O 0.7127(4) 0.5849(4) 0.1004(4)
H1 H 0.76530 0.56920 0.05410
H2 H 0.73670 0.56070 0.15790
S1 S 0.1633(2) 0.4249(2) 0.11383(18)
S2 S 0.2704(2) 0.63366(19) 0.50966(18)
C1 C 0.3327(7) 0.4993(6) 0.2036(6)
C2 C 0.3047(7) 0.4924(6) 0.4045(7)
H3 H 0.35820 0.45460 0.45140
H4 H 0.21660 0.42850 0.35320
C3 C 0.5289(6) 0.7951(6) 0.1063(6)
H5 H 0.55550 0.78700 0.18030
C4 C 0.5355(6) 0.9180(6) 0.1098(6)
H6 H 0.56590 0.98950 0.18510
C5 C 0.4964(6) 0.9348(5) -0.0003(6)
C6 C 0.4477(6) 0.8227(6) -0.1081(6)
H7 H 0.41730 0.82780 -0.18330
C7 C 0.4439(7) 0.7032(6) -0.1050(6)
H8 H 0.41120 0.62990 -0.17910
Co2 Co 1.00000 0.00000 0.50000
N6 N 0.9429(6) 0.0267(5) 0.3299(5)
N7 N 0.7607(7) 0.0873(8) -0.2449(7)
O5 O 0.8220(5) -0.1644(5) 0.4316(5)
H9 H 0.82920 -0.23040 0.37470
H10 H 0.74430 -0.14840 0.40990
O6 O 1.1318(5) -0.1077(5) 0.4321(5)
H11 H 1.13740 -0.10910 0.36310
H12 H 1.10900 -0.18450 0.42700
C8 C 0.9446(8) 0.1431(7) 0.3268(7)
H13 H 0.97010 0.21590 0.40090
C9 C 0.9100(8) 0.1582(7) 0.2179(7)
H14 H 0.91410 0.24060 0.22050
C10 C 0.8689(6) 0.0522(6) 0.1040(6)
C11 C 0.8661(7) -0.0672(7) 0.1076(6)
H15 H 0.83960 -0.14140 0.03460
C12 C 0.9034(7) -0.0761(6) 0.2210(7)
H16 H 0.90050 -0.15740 0.22080
C13 C 0.8078(8) 0.1917(8) -0.1361(8)
H17 H 0.81750 0.27310 -0.13700
C14 C 0.8427(7) 0.1846(7) -0.0230(7)
H18 H 0.87530 0.26020 0.04910
C15 C 0.8291(6) 0.0650(7) -0.0168(6)
C16 C 0.7759(7) -0.0451(7) -0.1305(7)
H19 H 0.76260 -0.12780 -0.13210
C17 C 0.7433(8) -0.0291(9) -0.2408(8)
H20 H 0.70790 -0.10260 -0.31460
H21? H 0.83870 -0.16830 0.50130
O7 O 0.8776(6) 0.5857(6) 0.3179(6)
H22 H 0.96600 0.61300 0.34950
H23 H 0.84680 0.53080 0.34420
O8 O 0.5358(8) 0.8750(6) 0.4416(7)
H24 H 0.50020 0.83370 0.47830
H25 H 0.61520 0.86150 0.43980
H26? H 0.54480 0.95550 0.47910
N5A N 0.5141(5) 1.3123(5) -0.0014(5)
C3A C 0.4711(6) 1.2049(6) -0.1063(6)
H5A H 0.44450 1.21300 -0.18030
C4A C 0.4645(6) 1.0820(6) -0.1098(6)
H6A H 0.43410 1.01050 -0.18510
C5A C 0.5036(6) 1.0652(5) 0.0003(6)
C6A C 0.5523(6) 1.1773(6) 0.1081(6)
H7A H 0.58270 1.17220 0.18330
C7A C 0.5561(7) 1.2968(6) 0.1050(6)
H8A H 0.58880 1.37010 0.17910
N1A N 0.6193(6) 0.4769(5) -0.3270(5)
N2A N 0.4794(6) 0.4201(6) -0.3701(5)
N3A N 0.4415(6) 0.4073(5) -0.2788(5)
N4A N 0.5539(5) 0.4575(5) -0.1734(5)
O1A O 0.8293(6) 0.3318(5) -0.4281(5)
O2A O 0.7899(7) 0.4095(6) -0.5893(6)
O3A O 0.6001(6) 0.2686(6) -0.5731(5)
O4A O 0.2873(4) 0.4151(4) -0.1004(4)
H1A H 0.23470 0.43080 -0.05410
H2A H 0.26330 0.43930 -0.15790
S1A S 0.8367(2) 0.5751(2) -0.11383(18)
S2A S 0.7296(2) 0.36634(19) -0.50966(18)
C1A C 0.6673(7) 0.5007(6) -0.2036(6)
C2A C 0.6953(7) 0.5076(6) -0.4045(7)
H3A H 0.64180 0.54540 -0.45140
H4A H 0.78340 0.57150 -0.35320
Co1* Co 0.50000 1.50000 0.00000
N5A* N 0.5141(5) 0.3123(5) -0.0014(5)
N6A N 1.0571(6) -0.0267(5) 0.6701(5)
N7A N 1.2393(7) -0.0873(8) 1.2449(7)
O5A O 1.1780(5) 0.1644(5) 0.5684(5)
H9A H 1.17080 0.23040 0.62530
H10A H 1.25570 0.14840 0.59010
O6A O 0.8682(5) 0.1077(5) 0.5679(5)
H11A H 0.86260 0.10910 0.63690
H12A H 0.89100 0.18450 0.57300
C8A C 1.0554(8) -0.1431(7) 0.6732(7)
H13A H 1.02990 -0.21590 0.59910
C9A C 1.0900(8) -0.1582(7) 0.7821(7)
H14A H 1.08590 -0.24060 0.77950
C10A C 1.1311(6) -0.0522(6) 0.8960(6)
C11A C 1.1339(7) 0.0672(7) 0.8924(6)
H15A H 1.16040 0.14140 0.96540
C12A C 1.0966(7) 0.0761(6) 0.7790(7)
H16A H 1.09950 0.15740 0.77920
C13A C 1.1922(8) -0.1917(8) 1.1361(8)
H17A H 1.18250 -0.27310 1.13700
C14A C 1.1573(7) -0.1846(7) 1.0230(7)
H18A H 1.12470 -0.26020 0.95090
C15A C 1.1709(6) -0.0650(7) 1.0168(6)
C16A C 1.2241(7) 0.0451(7) 1.1305(7)
H19A H 1.23740 0.12780 1.13210
C17A C 1.2567(8) 0.0291(9) 1.2408(8)
H20A H 1.29210 0.10260 1.31460
#END
