
#######################################################################
#
#                 Cambridge Crystallographic Data Centre
#                                CCDC
#
#######################################################################
#
# If this CIF has been generated from an entry in the Cambridge
# Structural Database, then it will include bibliographic, chemical,
# crystal, experimental, refinement or atomic coordinate data resulting
# from the CCDC's data processing and validation procedures.
#
#######################################################################

data_CSD_CIF_VIKDID
_audit_creation_date 2007-10-23
_audit_creation_method CSD-ConQuest-V1
_database_code_CSD VIKDID
_database_code_depnum_ccdc_archive 'CCDC 660136'
_chemical_formula_sum 'C22 H52 O35 Zn3'
_chemical_formula_moiety
;
(H12 O6 Zn1 2+)n,2n(C11 H13 O11 Zn1 1-),7n(H2 O1)
;
_journal_coeditor_code "IUCr BT2477"
_journal_coden_Cambridge 1370
_journal_volume 63
_journal_year 2007
_journal_page_first m2378
_journal_name_full 'Acta Crystallogr.,Sect.E:Struct.Rep.Online '
loop_
_publ_author_name
"Yi-Hang Wen"
"S.W.Ng"
_chemical_name_systematic
;
catena-(Hexaaqua-zinc(ii) 
bis(\m~2~-(5-carboxylato-m-phenylenedioxydiacetato-O,O'))-triaqua-zinc(ii) 
heptahydrate)
;
_cell_volume   1001.586
_exptl_crystal_colour 'colorless'
_exptl_crystal_density_diffrn 1.779
_exptl_crystal_description 'prism'
_diffrn_ambient_temperature 295
#These two values have been output from a single CSD field.
_refine_ls_R_factor_gt 0.03
_refine_ls_wR_factor_gt 0.03
_symmetry_cell_setting triclinic
_symmetry_space_group_name_H-M 'P 1'
_symmetry_Int_Tables_number 1
loop_
_symmetry_equiv_pos_site_id
_symmetry_equiv_pos_as_xyz
1 x,y,z
_cell_length_a 7.2044(1)
_cell_length_b 11.2959(1)
_cell_length_c 13.6932(2)
_cell_angle_alpha 70.872(1)
_cell_angle_beta 76.436(1)
_cell_angle_gamma 74.589(1)
_cell_formula_units_Z 1
loop_
_atom_type_symbol
_atom_type_radius_bond
C 0.68
H 0.23
O 0.68
Zn 1.45
loop_
_atom_site_label
_atom_site_type_symbol
_atom_site_fract_x
_atom_site_fract_y
_atom_site_fract_z
Zn1 Zn 0.50020(4) 0.49999(3) 0.50000(2)
Zn2 Zn 1.09107(4) -0.01775(3) 0.75462(2)
Zn3 Zn 0.83895(6) -0.22965(4) 1.16257(3)
O1 O 0.6895(3) 0.4346(2) 0.38485(17)
O2 O 0.8194(3) 0.2799(2) 0.51287(16)
O3 O 1.1508(4) -0.07046(19) 0.32384(17)
O4 O 1.2618(4) -0.3575(2) 0.5234(2)
O5 O 1.3998(4) -0.2917(2) 0.3622(2)
O6 O 1.0672(4) 0.3287(2) 0.06085(16)
O7 O 1.1763(4) 0.3157(2) -0.20182(18)
O8 O 1.0586(5) 0.4765(2) -0.1298(2)
O9 O 0.9041(3) 0.05406(19) 0.86500(17)
O10 O 0.7751(4) 0.2131(2) 0.73999(16)
O11 O 0.4494(4) 0.55586(19) 0.93352(17)
O12 O 0.3162(4) 0.8365(2) 0.73159(19)
O13 O 0.1907(4) 0.7768(2) 0.8983(2)
O14 O 0.5828(4) 0.1589(2) 1.19514(16)
O15 O 0.4309(4) 0.1582(2) 1.45986(17)
O16 O 0.5407(5) 0.0034(2) 1.3813(2)
O17 O 0.4777(4) 0.3952(2) 0.65198(18)
H1 H 0.56760 0.33260 0.67570
H2 H 0.37170 0.38750 0.69490
O18 O 0.7069(4) 0.5919(2) 0.5134(2)
H3 H 0.78990 0.54590 0.55270
H4 H 0.67190 0.66670 0.52180
O19 O 0.3050(4) 0.4050(2) 0.4675(2)
H5 H 0.20630 0.41050 0.51410
H6 H 0.33980 0.33150 0.45840
O20 O 1.1147(4) 0.0933(3) 0.60334(19)
H7 H 1.22570 0.09590 0.56530
H8 H 1.02590 0.13970 0.56830
O21 O 0.8840(4) -0.1083(3) 0.7440(3)
H9 H 0.93170 -0.17000 0.71740
H10 H 0.78430 -0.06210 0.71600
O22 O 1.2974(4) 0.0640(3) 0.7922(2)
H11 H 1.26800 0.13510 0.80510
H12 H 1.40650 0.05460 0.75340
O23 O 0.5925(4) -0.1146(3) 1.2179(2)
H13 H 0.50770 -0.15670 1.26090
H14 H 0.60920 -0.06320 1.24710
O24 O 0.6677(4) -0.3664(2) 1.18827(19)
H15 H 0.69940 -0.42460 1.24390
H16 H 0.72410 -0.39930 1.13890
O25 O 0.9205(5) -0.3172(3) 1.3127(2)
H17 H 0.83920 -0.34650 1.36510
H18 H 1.02800 -0.37050 1.31140
O26 O 1.0768(4) -0.3539(3) 1.1004(2)
H19 H 1.07130 -0.39190 1.05760
H20 H 1.17890 -0.38930 1.12850
O27 O 1.0123(5) -0.1048(3) 1.1442(2)
H21 H 1.06280 -0.12810 1.19970
H22 H 0.93950 -0.02920 1.13920
O28 O 0.7652(4) -0.1549(2) 1.01018(18)
H23 H 0.77900 -0.20920 0.97660
H24 H 0.81720 -0.09310 0.97020
O29 O -0.0153(4) 0.4100(2) 0.6226(2)
H25 H 0.00810 0.41510 0.67940
H26 H -0.05820 0.34110 0.63770
O30 O 1.5912(6) -0.1901(3) 0.5556(2)
H27 H 1.49650 -0.19130 0.60620
H28 H 1.55900 -0.13030 0.50220
O31 O 1.6115(4) 0.0755(2) 0.6342(2)
H29 H 1.63900 0.14260 0.63610
H30 H 1.55410 0.09060 0.58300
O32 O 0.3399(5) -0.0597(4) 1.0130(3)
H31 H 0.34900 -0.13840 1.04550
H32 H 0.36180 -0.05000 0.94700
O33 O 0.9701(5) -0.3302(3) 0.6995(3)
H33 H 1.01210 -0.38880 0.75110
H34 H 1.05560 -0.32670 0.64490
O34 O 1.2910(5) -0.4540(3) 1.2606(3)
H35 H 1.37850 -0.40620 1.23770
H36 H 1.30350 -0.49560 1.32470
O35 O 0.7759(4) 0.6085(3) 0.9927(2)
H37 H 0.68120 0.60800 0.96640
H38 H 0.88220 0.57330 0.96210
C1 C 0.9180(4) 0.2574(3) 0.3402(2)
C2 C 0.9824(4) 0.1244(3) 0.3748(2)
H39 H 0.95910 0.07990 0.44540
C3 C 1.0815(5) 0.0614(3) 0.3009(2)
C4 C 1.1186(4) 0.1252(3) 0.1949(2)
H40 H 1.18900 0.08090 0.14680
C5 C 1.0486(4) 0.2556(3) 0.1624(2)
C6 C 0.9513(5) 0.3224(3) 0.2356(2)
H41 H 0.90900 0.41080 0.21360
C7 C 0.8031(4) 0.3279(3) 0.4184(2)
C8 C 1.1374(5) -0.1446(3) 0.4299(2)
H42 H 1.00490 -0.15700 0.45750
H43 H 1.17170 -0.10080 0.47130
C9 C 1.2758(5) -0.2724(3) 0.4360(3)
C10 C 1.1395(5) 0.2647(3) -0.0181(2)
H44 H 1.06510 0.20020 -0.00750
H45 H 1.27500 0.22260 -0.01520
C11 C 1.1210(5) 0.3627(3) -0.1237(2)
C12 C 0.7946(4) 0.1633(3) 0.8330(2)
C13 C 0.6929(4) 0.2321(3) 0.9140(2)
C14 C 0.6166(4) 0.3631(3) 0.8811(2)
H46 H 0.62610 0.40680 0.81010
C15 C 0.5266(5) 0.4270(3) 0.9558(2)
C16 C 0.5108(5) 0.3619(3) 1.0628(2)
H47 H 0.44860 0.40550 1.11240
C17 C 0.5881(4) 0.2331(3) 1.0936(2)
C18 C 0.6809(4) 0.1668(3) 1.0196(2)
H48 H 0.73420 0.07970 1.04100
C19 C 0.4421(5) 0.6258(3) 0.8262(2)
H49 H 0.39490 0.57890 0.79240
H50 H 0.57160 0.63770 0.78980
C20 C 0.3055(5) 0.7552(3) 0.8218(3)
C21 C 0.4896(5) 0.2183(3) 1.2755(2)
H51 H 0.35690 0.26100 1.26510
H52 H 0.55910 0.28180 1.27400
C22 C 0.4887(5) 0.1164(3) 1.3797(2)
Zn1* Zn 1.50020(4) -0.50001(3) 0.50000(2)
Zn2* Zn 0.09107(4) 0.98225(3) 0.75462(2)
O4* O 0.2618(4) 0.6425(2) 0.5234(2)
O12* O 1.3162(4) -0.1635(2) 0.73159(19)
#END
