
#######################################################################
#
#                 Cambridge Crystallographic Data Centre
#                                CCDC
#
#######################################################################
#
# If this CIF has been generated from an entry in the Cambridge
# Structural Database, then it will include bibliographic, chemical,
# crystal, experimental, refinement or atomic coordinate data resulting
# from the CCDC's data processing and validation procedures.
#
#######################################################################

data_CSD_CIF_VILDUP
_audit_creation_date 1991-09-04
_audit_creation_method CSD-ConQuest-V1
_database_code_CSD VILDUP
_chemical_formula_sum 'C9 H19 N1 O8 U1'
_chemical_formula_moiety
;
(C6 H16 N1 1+)n,n(C3 H3 O8 U1 1-)
;
_journal_coden_Cambridge 367
_journal_volume 15
_journal_year 1989
_journal_page_first 1708
_journal_name_full 'Koord.Khim.(Russ.)(Coord.Chem.) '
loop_
_publ_author_name
"G.A.Seisenbaeva"
"A.V.Polyakov"
"N.A.Santalova"
"K.M.Dunaeva"
_chemical_name_systematic
;
catena-(Triethylammonium 
bis(\m~2~-formato-O,O')-(formato-O)-dioxo-uranium(vi))
;
_cell_volume   2967.400
_exptl_crystal_colour 'yellow'
_exptl_special_details
;
Several coordinates have been amended by the author

;
_diffrn_ambient_temperature ?
_diffrn_special_details
;
The study was carried out at room temperature,in the range 283-303K

;
#These two values have been output from a single CSD field.
_refine_ls_R_factor_gt 0.029
_refine_ls_wR_factor_gt 0.029
_symmetry_cell_setting orthorhombic
_symmetry_space_group_name_H-M 'P b c a'
_symmetry_Int_Tables_number 61
loop_
_symmetry_equiv_pos_site_id
_symmetry_equiv_pos_as_xyz
1 x,y,z
2 1/2-x,1/2+y,z
3 x,1/2-y,1/2+z
4 1/2-x,-y,1/2+z
5 -x,-y,-z
6 -1/2+x,-1/2-y,-z
7 -x,-1/2+y,-1/2-z
8 -1/2+x,y,-1/2-z
_cell_length_a 12.980(5)
_cell_length_b 17.356(2)
_cell_length_c 13.172(2)
_cell_angle_alpha 90
_cell_angle_beta 90
_cell_angle_gamma 90
_cell_formula_units_Z 8
loop_
_atom_type_symbol
_atom_type_radius_bond
C 0.68
H 0.23
N 0.68
O 0.68
U 1.46
loop_
_atom_site_label
_atom_site_type_symbol
_atom_site_fract_x
_atom_site_fract_y
_atom_site_fract_z
U1 U 0.46716(2) 0.23844(1) 0.07122(1)
O1 O 0.4579(3) 0.3356(3) 0.1092(4)
O2 O 0.4774(4) 0.1427(3) 0.0301(4)
O3 O 0.3220(4) 0.2117(3) 0.1708(3)
O4 O 0.3152(3) 0.2525(3) -0.0332(3)
O5 O 0.5226(4) 0.2832(4) -0.0923(3)
O6 O 0.1523(4) 0.2555(4) -0.0761(3)
O7 O 0.5286(3) 0.2913(3) -0.2600(3)
O8 O 0.3045(5) 0.0886(4) 0.2080(5)
N1 N 0.2711(6) 0.4752(5) 0.3335(5)
C1 C 0.2790(5) 0.1551(5) 0.2133(6)
C2 C 0.2222(5) 0.2554(4) -0.0176(4)
C3 C 0.4904(7) 0.2662(5) -0.1784(5)
C4 C 0.267(1) 0.3996(6) 0.276(1)
C5 C 0.1709(9) 0.3882(7) 0.2177(9)
C6 C 0.380(1) 0.5014(8) 0.361(1)
C7 C 0.4444(9) 0.5162(8) 0.266(1)
C8 C 0.204(2) 0.467(1) 0.427(1)
C9 C 0.166(2) 0.535(1) 0.465(1)
H1 H 0.24500 0.51500 0.29000
O6E O 0.6523(4) 0.2445(4) 0.0761(3)
O7B O 0.5286(3) 0.2087(3) 0.2400(3)
U1E U -0.03284(2) 0.26156(1) -0.07122(1)
U1B U 0.46716(2) 0.26156(1) -0.42878(1)
#END
