
#######################################################################
#
#                 Cambridge Crystallographic Data Centre
#                                CCDC
#
#######################################################################
#
# If this CIF has been generated from an entry in the Cambridge
# Structural Database, then it will include bibliographic, chemical,
# crystal, experimental, refinement or atomic coordinate data resulting
# from the CCDC's data processing and validation procedures.
#
#######################################################################

data_CSD_CIF_VILGUV
_audit_creation_date 2018-11-08
_audit_creation_method CSD-ConQuest-V1
_database_code_CSD VILGUV
_database_code_depnum_ccdc_archive 'CCDC 1565359'
_chemical_formula_sum 'C68 H65 Cu2 N8 O57 P1 W12'
_chemical_formula_moiety
;
(C68 H52 Cu2 N8 O10 4+)n,O40 P1 W12 3-,6(H2 O1),H1 O1 1-
;
_journal_coden_Cambridge 1440
_journal_volume 10
_journal_year 2018
_journal_page_first 35671
_journal_name_full 'ACS Applied Materials and Interfaces '
loop_
_publ_author_name
"Xiaojuan Sun"
"Jie Zhang"
"Zhiyong Fu"
_chemical_name_systematic
;
catena-[tetrakis(\m-3-[4-(pyridin-4-yl)pyridin-1-ium-1-yl]benzoato)-diaqua-di-
copper(ii) 
(\m-phosphato)-tetracosakis(\m-oxido)-dodecaoxo-dodeca-tungsten(vi) hydroxide 
hexahydrate]
;
_cell_volume   5752.515
_exptl_crystal_colour 'green'
_exptl_crystal_density_diffrn 2.424
_exptl_special_details
;
We calculate void space in the structure

;
_exptl_crystal_description 'Block'
_diffrn_ambient_temperature 293
_refine_special_details
;
O21,O22,O23,O24 disordered by symmetry over two configurations with occupancy 
0.5; O31,O35,O40,O45 disordered by symmetry over two configurations with 
occupancy 0.5; O56 and O57 disordered over two sites with occupancies 
0.5:0.5.
;
#These two values have been output from a single CSD field.
_refine_ls_R_factor_gt 0.0552
_refine_ls_wR_factor_gt 0.0552
_symmetry_cell_setting triclinic
_symmetry_space_group_name_H-M 'P -1'
_symmetry_Int_Tables_number 2
loop_
_symmetry_equiv_pos_site_id
_symmetry_equiv_pos_as_xyz
1 x,y,z
2 -x,-y,-z
_cell_length_a 15.515(3)
_cell_length_b 16.214(3)
_cell_length_c 23.466(5)
_cell_angle_alpha 90.73(3)
_cell_angle_beta 97.26(3)
_cell_angle_gamma 100.57(3)
_cell_formula_units_Z 2
loop_
_atom_type_symbol
_atom_type_radius_bond
C 0.68
H 0.23
Cu 1.32
N 0.68
O 0.68
P 1.05
W 1.62
loop_
_atom_site_label
_atom_site_type_symbol
_atom_site_fract_x
_atom_site_fract_y
_atom_site_fract_z
Cu1 Cu 0.28298(10) 0.0167(1) 0.63498(7)
O1 O 0.3800(6) 0.0245(6) 0.6977(4)
O2 O 0.4625(9) 0.1381(8) 0.6674(5)
O3 O 0.3911(7) -0.3840(7) 0.1997(4)
O4 O 0.4788(9) -0.4591(9) 0.1652(5)
O5 O 0.1827(6) 0.0013(7) 0.5739(4)
O6 O 0.2712(7) 0.0963(7) 0.5329(5)
O7 O 0.2800(9) 0.5110(9) 1.0346(5)
O8 O 0.1891(8) 0.5704(7) 1.0784(5)
O9 O 0.2081(12) -0.0981(10) 0.6797(7)
H1 H 0.18040 -0.08500 0.70650
H2 H 0.23910 -0.13150 0.69570
O10 O 0.2115(9) -0.3339(7) 0.1910(5)
H3 H 0.23990 -0.28870 0.20820
H4 H 0.18750 -0.35940 0.21810
N1 N 0.5095(7) -0.0245(8) 0.8944(5)
C1 C 0.4452(10) 0.0865(10) 0.7035(6)
Cu2 Cu 0.29185(11) -0.40879(11) 0.13912(7)
N2 N 0.3483(7) -0.3127(7) 1.0934(5)
C2 C 0.5052(9) 0.0875(9) 0.7584(6)
N3 N 0.3422(7) -0.0578(7) 0.5895(5)
C3 C 0.4781(8) 0.0332(8) 0.8027(5)
H5 H 0.42170 0.00050 0.79950
N4 N 0.5190(7) -0.2962(7) 0.3995(4)
C4 C 0.5395(8) 0.0312(8) 0.8507(5)
N5 N 0.1067(8) 0.1393(7) 0.3429(5)
C5 C 0.6233(8) 0.0762(9) 0.8574(6)
H6 H 0.66300 0.07040 0.88960
N6 N 0.2466(8) 0.4857(7) 0.1794(5)
C6 C 0.6484(10) 0.1314(10) 0.8148(7)
H7 H 0.70430 0.16520 0.81910
N7 N 0.2359(8) 0.1024(8) 0.6780(5)
C7 C 0.5886(10) 0.1353(10) 0.7659(7)
H8 H 0.60590 0.17160 0.73730
N8 N 0.1044(9) 0.4052(8) 0.8469(5)
C8 C 0.4375(10) -0.0172(10) 0.9166(6)
H9 H 0.40680 0.02500 0.90450
C9 C 0.4062(9) -0.0725(9) 0.9585(6)
H10 H 0.35420 -0.06830 0.97310
C10 C 0.4526(8) -0.1309(9) 0.9767(6)
C11 C 0.5298(8) -0.1367(11) 0.9540(6)
H11 H 0.56340 -0.17640 0.96690
C12 C 0.5552(9) -0.0839(10) 0.9130(6)
H12 H 0.60600 -0.08870 0.89690
C13 C 0.4163(8) -0.1931(10) 1.0173(6)
C14 C 0.3272(9) -0.2121(9) 1.0217(6)
H13 H 0.28850 -0.18460 0.99910
C15 C 0.2948(9) -0.2709(10) 1.0591(6)
H14 H 0.23430 -0.28250 1.06100
C16 C 0.4339(10) -0.2921(12) 1.0909(8)
H15 H 0.47100 -0.31890 1.11540
C17 C 0.4731(9) -0.2344(11) 1.0551(8)
H16 H 0.53410 -0.22260 1.05540
C18 C 0.4242(11) -0.0397(12) 0.5818(8)
H17 H 0.45870 0.00840 0.60040
C19 C 0.4645(10) -0.0881(11) 0.5471(7)
H18 H 0.52330 -0.07000 0.54190
C20 C 0.4192(10) -0.1604(10) 0.5213(6)
C21 C 0.3307(11) -0.1779(12) 0.5311(8)
H19 H 0.29430 -0.22620 0.51400
C22 C 0.2974(11) -0.1290(12) 0.5634(8)
H20 H 0.23820 -0.14510 0.56850
C23 C 0.455(1) -0.2109(9) 0.4826(6)
C24 C 0.5426(9) -0.1907(9) 0.4722(6)
H21 H 0.58090 -0.14740 0.49380
C25 C 0.5736(9) -0.2336(9) 0.4306(6)
H22 H 0.63230 -0.21920 0.42420
C26 C 0.4359(11) -0.3207(13) 0.4101(8)
H23 H 0.40000 -0.36710 0.39010
C27 C 0.4041(11) -0.2784(12) 0.4497(8)
H24 H 0.34530 -0.29510 0.45530
C28 C 0.5467(9) -0.3409(9) 0.3538(6)
C29 C 0.6282(10) -0.3698(11) 0.3628(7)
H25 H 0.66440 -0.36030 0.39790
C30 C 0.6517(11) -0.4118(11) 0.3187(7)
H26 H 0.70620 -0.42870 0.32320
C31 C 0.5964(10) -0.4304(12) 0.2667(7)
H27 H 0.61120 -0.46330 0.23800
C32 C 0.520(1) -0.399(1) 0.2589(7)
C33 C 0.4947(9) -0.3538(8) 0.3027(6)
H28 H 0.44260 -0.33280 0.29680
C34 C 0.4577(11) -0.4172(10) 0.2032(6)
C35 C 0.2040(9) 0.0435(9) 0.5317(6)
C36 C 0.1407(8) 0.0279(8) 0.4761(5)
C37 C 0.1489(9) 0.0868(10) 0.4363(6)
H29 H 0.18960 0.13660 0.44390
C38 C 0.0950(9) 0.0719(9) 0.3832(6)
C39 C 0.0366(10) -0.0006(9) 0.3708(7)
H30 H 0.00340 -0.01010 0.33460
C40 C 0.0266(11) -0.0593(10) 0.4110(7)
H31 H -0.01450 -0.10880 0.40260
C41 C 0.0778(10) -0.0464(9) 0.4654(6)
H32 H 0.07000 -0.08600 0.49350
C42 C 0.1047(11) 0.2181(9) 0.3600(6)
H33 H 0.08790 0.22760 0.39580
C43 C 0.1265(11) 0.284(1) 0.3265(7)
H34 H 0.12560 0.33800 0.34010
C44 C 0.1498(10) 0.2727(8) 0.2727(6)
C45 C 0.1436(12) 0.1904(9) 0.2530(6)
H35 H 0.15340 0.17970 0.21550
C46 C 0.1235(12) 0.1259(10) 0.2878(6)
H36 H 0.12090 0.07130 0.27420
C47 C 0.1793(10) 0.3439(8) 0.2381(6)
C48 C 0.2197(11) 0.4221(10) 0.2679(6)
H37 H 0.22550 0.42770 0.30770
C49 C 0.2491(12) 0.4873(10) 0.2355(6)
H38 H 0.27330 0.53830 0.25490
C50 C 0.2093(12) 0.4103(10) 0.1525(7)
H39 H 0.20580 0.40510 0.11270
C51 C 0.1778(12) 0.3439(11) 0.1815(7)
H40 H 0.15300 0.29420 0.16070
C52 C 0.2006(10) 0.1671(10) 0.6523(6)
H41 H 0.19650 0.17110 0.61260
C53 C 0.1716(10) 0.2256(10) 0.6839(6)
H42 H 0.14930 0.26920 0.66550
C54 C 0.1750(9) 0.2206(10) 0.7417(6)
C55 C 0.2081(12) 0.1583(10) 0.7667(7)
H43 H 0.21070 0.15370 0.80630
C56 C 0.2396(11) 0.0987(13) 0.7342(7)
H44 H 0.26340 0.05620 0.75290
C57 C 0.1449(10) 0.2874(10) 0.7756(6)
C58 C 0.1344(14) 0.3617(13) 0.7578(7)
H45 H 0.13720 0.37290 0.71930
C59 C 0.1191(14) 0.4239(13) 0.7939(7)
H46 H 0.11930 0.47790 0.78120
C60 C 0.1056(14) 0.3267(10) 0.8663(8)
H47 H 0.09410 0.31400 0.90350
C61 C 0.1234(14) 0.2682(11) 0.8314(8)
H48 H 0.12170 0.21390 0.84400
C62 C 0.0950(11) 0.4672(9) 0.8890(6)
C63 C 0.0318(12) 0.5201(12) 0.8775(8)
H49 H -0.00390 0.51650 0.84220
C64 C 0.0248(13) 0.5774(11) 0.9205(8)
H50 H -0.01690 0.61210 0.91490
C65 C 0.0810(13) 0.5823(11) 0.9721(7)
H51 H 0.07680 0.62070 1.00100
C66 C 0.1441(11) 0.5297(10) 0.9811(6)
C67 C 0.1524(11) 0.474(1) 0.9400(6)
H52 H 0.19560 0.44090 0.94560
C68 C 0.2119(11) 0.5369(11) 1.0379(7)
O11 O 0.0146(8) 0.4226(7) 0.6441(5)
O12 O -0.0543(10) 0.2501(8) 0.6397(7)
O13 O -0.0814(7) 0.2763(10) 0.5219(5)
O14 O -0.0386(8) 0.4389(8) 0.2771(4)
O15 O 0.2098(9) 0.4523(6) 0.5675(5)
O16 O 0.2240(8) 0.2938(7) 0.5285(5)
O17 O 0.0598(7) 0.3028(11) 0.4665(5)
O18 O -0.0531(13) 0.4447(13) 0.4490(8)
O19 O -0.1741(9) 0.3278(8) 0.4306(7)
O20 O -0.0913(7) 0.1920(7) 0.4144(5)
O21 O -0.0351(10) 0.3501(10) 0.3775(6)
O22 O 0.036(1) 0.5252(10) 0.4455(7)
O23 O 0.0114(9) 0.4093(9) 0.5116(6)
O24 O 0.0935(9) 0.4922(9) 0.5003(6)
O25 O 0.1891(8) 0.4224(6) 0.4567(5)
O26 O 0.1472(8) 0.6289(7) 0.4104(6)
O27 O 0.2756(8) 0.5405(7) 0.3893(6)
O28 O 0.2369(9) 0.5750(7) 0.4992(5)
O29 O 0.1458(8) 0.5462(8) 0.6362(6)
O30 O 0.3158(7) 0.6011(8) 0.6103(6)
O31 O 0.0976(8) 0.4729(7) 0.3678(5)
O32 O 0.0792(7) 0.3265(10) 0.5797(5)
W1 W -0.03737(5) 0.33095(4) 0.59329(3)
P1 P 0.00000 0.50000 0.50000
W2 W 0.14991(3) 0.35875(4) 0.52009(2)
W3 W -0.06352(4) 0.29275(4) 0.44426(3)
W4 W -0.02736(4) 0.45930(4) 0.34934(2)
W5 W 0.18723(3) 0.52846(3) 0.42551(2)
W6 W 0.21314(4) 0.56997(4) 0.57619(3)
O33 O 1.0422(10) 0.9775(9) 0.0611(6)
O34 O 1.1724(8) 0.9430(8) 0.1016(7)
O35 O 1.2781(7) 1.0909(8) 0.1562(5)
O36 O 1.0961(7) 1.0480(8) 0.1500(7)
O37 O 0.9429(10) 1.0155(10) 0.0402(6)
O38 O 1.0197(8) 0.8913(8) 0.1336(8)
O39 O 0.9666(8) 0.9839(7) 0.2194(4)
O40 O 0.9383(7) 1.0898(7) 0.1307(5)
O41 O 0.8642(7) 0.9323(6) 0.1147(4)
O42 O 0.9103(10) 0.9375(11) -0.0110(6)
O43 O 0.8017(7) 1.0462(6) 0.0521(4)
O44 O 0.6884(6) 0.8941(7) 0.0649(6)
O45 O 0.7581(10) 0.9409(9) -0.0367(5)
O46 O 0.8221(11) 0.8278(10) 0.0249(5)
O47 O 1.0181(9) 0.9143(9) -0.0046(7)
O48 O 0.8374(10) 0.8331(9) -0.0836(5)
O49 O 0.8506(8) 0.6829(6) -0.0303(5)
O50 O 0.9938(7) 0.7890(8) -0.0651(5)
O51 O 1.1616(9) 0.7897(10) -0.0964(6)
O52 O 1.1327(7) 0.8336(8) 0.0130(5)
O53 O 0.9774(7) 0.7852(9) 0.0465(4)
O54 O 1.1245(8) 0.7750(8) 0.1232(5)
P2 P 1.00000 1.00000 0.00000
W7 W 1.18606(4) 1.05924(5) 0.10415(3)
W8 W 0.97776(4) 0.98975(4) 0.14880(2)
W9 W 0.78893(3) 0.92951(4) 0.04338(2)
W10 W 0.89779(4) 0.78564(3) -0.02198(2)
W11 W 1.10709(4) 0.85643(4) -0.06463(2)
W12 W 1.08645(4) 0.84669(4) 0.08314(3)
O55 O 0.2562(13) -0.2911(14) 0.3102(6)
H53 H 0.22490 -0.33960 0.30240
H54 H 0.29270 -0.29330 0.34010
O56 O 0.4258(19) -0.5156(18) 0.5113(12)
H55 H 0.44400 -0.47920 0.53870
O57 O 1.284(3) 0.690(3) -0.126(2)
H56 H 1.24130 0.66880 -0.10760
H57 H 1.31240 0.73870 -0.11540
O58? O 0.4650(16) -0.5572(16) 0.4514(11)
H58? H 0.44620 -0.59380 0.42430
O7* O 0.2800(9) -0.4890(9) 0.0346(5)
O8* O 0.1891(8) -0.4296(7) 0.0784(5)
Cu2* Cu 0.29185(11) -0.40879(11) 1.13912(7)
Cu2** Cu 0.29185(11) 0.59121(11) 0.13912(7)
Cu2*** Cu 0.29185(11) 0.59121(11) 1.13912(7)
N2* N 0.3483(7) -0.3127(7) 0.0934(5)
N6* N 0.2466(8) -0.5143(7) 0.1794(5)
O18A O 0.0531(13) 0.5553(13) 0.5510(8)
O22A O -0.036(1) 0.4748(10) 0.5545(7)
O23A O -0.0114(9) 0.5907(9) 0.4884(6)
O24A O -0.0935(9) 0.5078(9) 0.4997(6)
O11A O -0.0146(8) 0.5774(7) 0.3559(5)
O12A O 0.0543(10) 0.7499(8) 0.3603(7)
O13A O 0.0814(7) 0.7237(10) 0.4781(5)
O14A O 0.0386(8) 0.5611(8) 0.7229(4)
O15A O -0.2098(9) 0.5477(6) 0.4325(5)
O16A O -0.2240(8) 0.7062(7) 0.4715(5)
O17A O -0.0598(7) 0.6972(11) 0.5335(5)
O19A O 0.1741(9) 0.6722(8) 0.5694(7)
O20A O 0.0913(7) 0.8080(7) 0.5856(5)
O21A O 0.0351(10) 0.6499(10) 0.6225(6)
O25A O -0.1891(8) 0.5776(6) 0.5433(5)
O26A O -0.1472(8) 0.3711(7) 0.5896(6)
O27A O -0.2756(8) 0.4595(7) 0.6107(6)
O28A O -0.2369(9) 0.4250(7) 0.5008(5)
O29A O -0.1458(8) 0.4538(8) 0.3638(6)
O30A O -0.3158(7) 0.3989(8) 0.3897(6)
O31A O -0.0976(8) 0.5271(7) 0.6322(5)
O32A O -0.0792(7) 0.6735(10) 0.4203(5)
W1A W 0.03737(5) 0.66905(4) 0.40671(3)
W2A W -0.14991(3) 0.64125(4) 0.47991(2)
W3A W 0.06352(4) 0.70725(4) 0.55574(3)
W4A W 0.02736(4) 0.54070(4) 0.65066(2)
W5A W -0.18723(3) 0.47154(3) 0.57449(2)
W6A W -0.21314(4) 0.43003(4) 0.42381(3)
O33A O 0.9578(10) 1.0225(9) -0.0611(6)
O37A O 1.0571(10) 0.9845(10) -0.0402(6)
O42A O 1.0897(10) 1.0625(11) 0.0110(6)
O47A O 0.9819(9) 1.0857(9) 0.0046(7)
O34A O 0.8276(8) 1.0570(8) -0.1016(7)
O35A O 0.7219(7) 0.9091(8) -0.1562(5)
O36A O 0.9039(7) 0.9520(8) -0.1500(7)
O38A O 0.9803(8) 1.1087(8) -0.1336(8)
O39A O 1.0334(8) 1.0161(7) -0.2194(4)
O40A O 1.0617(7) 0.9102(7) -0.1307(5)
O41A O 1.1358(7) 1.0677(6) -0.1147(4)
O43A O 1.1983(7) 0.9538(6) -0.0521(4)
O44A O 1.3116(6) 1.1059(7) -0.0649(6)
O45A O 1.2419(10) 1.0591(9) 0.0367(5)
O46A O 1.1779(11) 1.1722(10) -0.0249(5)
O48A O 1.1626(10) 1.1669(9) 0.0836(5)
O49A O 1.1494(8) 1.3171(6) 0.0303(5)
O50A O 1.0062(7) 1.2110(8) 0.0651(5)
O51A O 0.8384(9) 1.2103(10) 0.0964(6)
O52A O 0.8673(7) 1.1664(8) -0.0130(5)
O53A O 1.0226(7) 1.2148(9) -0.0465(4)
O54A O 0.8755(8) 1.2250(8) -0.1232(5)
W7A W 0.81394(4) 0.94076(5) -0.10415(3)
W8A W 1.02224(4) 1.01025(4) -0.14880(2)
W9A W 1.21107(3) 1.07049(4) -0.04338(2)
W10A W 1.10221(4) 1.21436(3) 0.02198(2)
W11A W 0.89291(4) 1.14357(4) 0.06463(2)
W12A W 0.91355(4) 1.15331(4) -0.08314(3)
#END
