
#######################################################################
#
#                 Cambridge Crystallographic Data Centre
#                                CCDC
#
#######################################################################
#
# If this CIF has been generated from an entry in the Cambridge
# Structural Database, then it will include bibliographic, chemical,
# crystal, experimental, refinement or atomic coordinate data resulting
# from the CCDC's data processing and validation procedures.
#
#######################################################################

data_CSD_CIF_VILKIN
_audit_creation_date 2018-11-08
_audit_creation_method CSD-ConQuest-V1
_database_code_CSD VILKIN
_database_code_depnum_ccdc_archive 'CCDC 1818329'
_chemical_formula_sum 'C10 H19 N1 O12 U1'
_chemical_formula_moiety
;
(C10 H13 O10 U1 1-)n,H4 N1 O1 1+,H2 O1
;
_journal_coden_Cambridge 233
_journal_volume 63
_journal_year 2018
_journal_page_first 1309
_journal_name_full 'Zh.Neorg.Khim.(Russ.)(Russ.J.Inorg.Chem.) '
loop_
_publ_author_name
"S.A.Novikov"
"L.B.Serezhkina"
"M.S.Grigorev"
"N.V.Manakov"
"V.N.Serezhkin"
_chemical_name_systematic
;
catena-[hydroxyammonium dioxo-(\m-pentanedioato)-(pentanedioato)-uranium(vi) 
monohydrate]
;
_cell_volume   3359.692
_exptl_crystal_density_diffrn 2.306
_exptl_crystal_description 'block'
_diffrn_ambient_temperature 293
#These two values have been output from a single CSD field.
_refine_ls_R_factor_gt 0.0235
_refine_ls_wR_factor_gt 0.0235
_symmetry_cell_setting monoclinic
_symmetry_space_group_name_H-M 'C 2/c'
_symmetry_Int_Tables_number 15
loop_
_symmetry_equiv_pos_site_id
_symmetry_equiv_pos_as_xyz
1 x,y,z
2 -x,y,1/2-z
3 1/2+x,1/2+y,z
4 1/2-x,1/2+y,1/2-z
5 -x,-y,-z
6 x,-y,-1/2+z
7 -1/2-x,-1/2-y,-z
8 -1/2+x,-1/2-y,-1/2+z
_cell_length_a 24.3333(7)
_cell_length_b 9.3679(2)
_cell_length_c 18.4715(9)
_cell_angle_alpha 90
_cell_angle_beta 127.069(1)
_cell_angle_gamma 90
_cell_formula_units_Z 8
loop_
_atom_type_symbol
_atom_type_radius_bond
C 0.68
H 0.23
N 0.68
O 0.68
U 1.96
loop_
_atom_site_label
_atom_site_type_symbol
_atom_site_fract_x
_atom_site_fract_y
_atom_site_fract_z
U1 U 0.32326(2) 0.65590(2) 0.36641(2)
O1 O 0.30862(10) 0.82357(17) 0.39682(13)
O2 O 0.33908(9) 0.48868(17) 0.33924(11)
O3 O 0.40543(8) 0.77090(19) 0.34909(11)
O4 O 0.44932(9) 0.6892(2) 0.48300(12)
O5 O 0.76979(8) 0.77315(19) 0.71141(11)
O6 O 0.70122(9) 0.86614(18) 0.73787(11)
O7 O 0.36972(9) 0.5670(2) 0.51948(11)
O8 O 0.25985(9) 0.5422(2) 0.41721(11)
O9 O 0.46000(11) 0.7943(2) 0.80058(13)
O10 O 0.47497(13) 0.5662(2) 0.83902(14)
H1 H 0.5079(14) 0.583(4) 0.8903(15)
C1 C 0.45815(12) 0.7462(3) 0.42914(15)
C2 C 0.52830(13) 0.7787(4) 0.45604(16)
H2 H 0.52510 0.86150 0.42210
H3 H 0.54340 0.69890 0.43860
C3 C 0.58227(12) 0.8075(3) 0.55569(16)
H4 H 0.57160 0.89660 0.57140
H5 H 0.58080 0.73200 0.59050
C4 C 0.65394(12) 0.8162(2) 0.58167(15)
H6 H 0.66100 0.73510 0.55540
H7 H 0.65730 0.90190 0.55510
C5 C 0.71072(12) 0.8181(2) 0.68190(15)
C6 C 0.31254(13) 0.5255(3) 0.49822(15)
C7 C 0.30742(14) 0.4544(3) 0.56699(16)
H8 H 0.30030 0.35290 0.55410
H9 H 0.26730 0.49160 0.56020
C8 C 0.37037(14) 0.4754(3) 0.66490(16)
H10 H 0.36750 0.41230 0.70410
H11 H 0.41160 0.45100 0.67070
C9 C 0.37494(14) 0.6288(3) 0.69410(18)
H12 H 0.36770 0.69070 0.64700
H13 H 0.33750 0.64590 0.69810
C10 C 0.44085(14) 0.6715(3) 0.78223(17)
O11 O 0.60214(16) 0.8852(3) 0.3280(2)
H14 H 0.600(2) 0.949(3) 0.356(2)
N1 N 0.62652(11) 0.9567(2) 0.28614(14)
H15 H 0.61850 0.90400 0.24060
H16 H 0.67160 0.97150 0.32640
H17 H 0.60500 1.04010 0.26480
O12 O 0.59018(13) 1.0901(2) 0.41117(14)
H18 H 0.5505(10) 1.128(4) 0.386(2)
H19 H 0.6158(15) 1.126(4) 0.4613(15)
U1G U 0.82326(2) 0.84410(2) 0.86641(2)
O5G O 0.26979(8) 0.72685(19) 0.21141(11)
O6G O 0.20122(9) 0.63386(18) 0.23787(11)
#END
