
#######################################################################
#
#                 Cambridge Crystallographic Data Centre
#                                CCDC
#
#######################################################################
#
# If this CIF has been generated from an entry in the Cambridge
# Structural Database, then it will include bibliographic, chemical,
# crystal, experimental, refinement or atomic coordinate data resulting
# from the CCDC's data processing and validation procedures.
#
#######################################################################

data_CSD_CIF_VILVUJ
_audit_creation_date 2013-10-03
_audit_creation_method CSD-ConQuest-V1
_database_code_CSD VILVUJ
_database_code_depnum_ccdc_archive 'CCDC 919745'
_chemical_formula_sum 'C48 H40 Co1 K1 O4 P1'
_chemical_formula_moiety
;
(C24 H20 Co1 K1 O4 1-)n,n(C24 H20 P1 1+)
;
_journal_coden_Cambridge 580
_journal_volume 64
_journal_year 2013
_journal_page_first 209
_journal_name_full 'Polyhedron '
loop_
_publ_author_name
"J.M.Zadrozny"
"J.Telser"
"J.R.Long"
_chemical_name_systematic
;
catena-[Tetraphenylphosphonium tetrakis(\m~2~-phenolato)-cobalt-potassium ]
;
_cell_volume   2126.218
_exptl_crystal_colour 'blue'
_exptl_crystal_density_diffrn 1.265
_exptl_crystal_description 'Block'
_diffrn_ambient_temperature 100
#These two values have been output from a single CSD field.
_refine_ls_R_factor_gt 0.0332
_refine_ls_wR_factor_gt 0.0332
_symmetry_cell_setting tetragonal
_symmetry_space_group_name_H-M 'I -4'
_symmetry_Int_Tables_number 82
loop_
_symmetry_equiv_pos_site_id
_symmetry_equiv_pos_as_xyz
1 x,y,z
2 -x,-y,z
3 y,-x,-z
4 -y,x,-z
5 1/2+x,1/2+y,1/2+z
6 1/2-x,1/2-y,1/2+z
7 1/2+y,1/2-x,1/2-z
8 1/2-y,1/2+x,1/2-z
_cell_length_a 17.4460(15)
_cell_length_b 17.4460(15)
_cell_length_c 6.9858(6)
_cell_angle_alpha 90
_cell_angle_beta 90
_cell_angle_gamma 90
_cell_formula_units_Z 2
loop_
_atom_type_symbol
_atom_type_radius_bond
C 0.68
H 0.23
Co 1.26
K 2.03
O 0.68
P 1.05
loop_
_atom_site_label
_atom_site_type_symbol
_atom_site_fract_x
_atom_site_fract_y
_atom_site_fract_z
Co1 Co 0.50000 1.00000 0.75000
K1 K 0.50000 1.00000 1.25000
O1 O 0.56905(9) 0.95519(9) 0.9407(2)
C1 C 0.62976(13) 0.91246(12) 0.8998(3)
C2 C 0.64543(13) 0.88734(12) 0.7124(3)
H1 H 0.61180 0.90090 0.61090
C3 C 0.70990(13) 0.84278(14) 0.6749(4)
H2 H 0.71990 0.82640 0.54760
C4 C 0.75965(14) 0.82198(13) 0.8204(4)
H3 H 0.80340 0.79130 0.79350
C5 C 0.74501(13) 0.84634(13) 1.0054(4)
H4 H 0.77890 0.83230 1.10580
C6 C 0.68108(14) 0.89113(13) 1.0456(3)
H5 H 0.67200 0.90750 1.17320
P1 P 1.00000 1.00000 1.00000
C7 C 1.07502(12) 0.96445(12) 0.8486(3)
C8 C 1.05550(13) 0.91390(13) 0.7008(3)
H6 H 1.00340 0.90030 0.68040
C9 C 1.11210(14) 0.88381(13) 0.5845(3)
H7 H 1.09890 0.84930 0.48450
C10 C 1.18822(14) 0.90396(13) 0.6139(3)
H8 H 1.22710 0.88280 0.53450
C11 C 1.20777(12) 0.95458(12) 0.7581(4)
H9 H 1.25990 0.96870 0.77590
C12 C 1.15155(13) 0.98496(12) 0.8774(3)
H10 H 1.16510 1.01930 0.97740
O1A O 0.43095(9) 1.04481(9) 0.9407(2)
C1A C 0.37024(13) 1.08754(12) 0.8998(3)
C2A C 0.35457(13) 1.11266(12) 0.7124(3)
H1A H 0.38820 1.09910 0.61090
C3A C 0.29010(13) 1.15722(14) 0.6749(4)
H2A H 0.28010 1.17360 0.54760
C4A C 0.24035(14) 1.17802(13) 0.8204(4)
H3A H 0.19660 1.20870 0.79350
C5A C 0.25499(13) 1.15366(13) 1.0054(4)
H4A H 0.22110 1.16770 1.10580
C6A C 0.31892(14) 1.10887(13) 1.0456(3)
H5A H 0.32800 1.09250 1.17320
O1F O 0.45519(9) 0.93095(9) 0.5593(2)
C1F C 0.41246(13) 0.87024(12) 0.6002(3)
C2F C 0.38734(13) 0.85457(12) 0.7876(3)
H1F H 0.40090 0.88820 0.88910
C3F C 0.34278(13) 0.79010(14) 0.8251(4)
H2F H 0.32640 0.78010 0.95240
C4F C 0.32198(14) 0.74035(13) 0.6796(4)
H3F H 0.29130 0.69660 0.70650
C5F C 0.34634(13) 0.75499(13) 0.4946(4)
H4F H 0.33230 0.72110 0.39420
C6F C 0.39113(14) 0.81892(13) 0.4544(3)
H5F H 0.40750 0.82800 0.32680
O1G O 0.54481(9) 1.06905(9) 0.5593(2)
C1G C 0.58754(13) 1.12976(12) 0.6002(3)
C2G C 0.61266(13) 1.14543(12) 0.7876(3)
H1G H 0.59910 1.11180 0.88910
C3G C 0.65722(13) 1.20990(14) 0.8251(4)
H2G H 0.67360 1.21990 0.95240
C4G C 0.67802(14) 1.25965(13) 0.6796(4)
H3G H 0.70870 1.30340 0.70650
C5G C 0.65366(13) 1.24501(13) 0.4946(4)
H4G H 0.66770 1.27890 0.39420
C6G C 0.60887(14) 1.18108(13) 0.4544(3)
H5G H 0.59250 1.17200 0.32680
K1* K 0.50000 1.00000 0.25000
O1F* O 0.45519(9) 0.93095(9) 1.5593(2)
O1G* O 0.54481(9) 1.06905(9) 1.5593(2)
C7A C 0.92498(12) 1.03555(12) 0.8486(3)
C8A C 0.94450(13) 1.08610(13) 0.7008(3)
H6A H 0.99660 1.09970 0.68040
C9A C 0.88790(14) 1.11619(13) 0.5845(3)
H7A H 0.90110 1.15070 0.48450
C10A C 0.81178(14) 1.09604(13) 0.6139(3)
H8A H 0.77290 1.11720 0.53450
C11A C 0.79223(12) 1.04542(12) 0.7581(4)
H9A H 0.74010 1.03130 0.77590
C12A C 0.84845(13) 1.01504(12) 0.8774(3)
H10A H 0.83490 0.98070 0.97740
C7B C 0.96445(12) 0.92498(12) 1.1514(3)
C8B C 0.91390(13) 0.94450(13) 1.2992(3)
H6B H 0.90030 0.99660 1.31960
C9B C 0.88381(14) 0.88790(13) 1.4155(3)
H7B H 0.84930 0.90110 1.51550
C10B C 0.90396(14) 0.81178(13) 1.3861(3)
H8B H 0.88280 0.77290 1.46550
C11B C 0.95458(12) 0.79223(12) 1.2419(4)
H9B H 0.96870 0.74010 1.22410
C12B C 0.98496(13) 0.84845(12) 1.1226(3)
H10B H 1.01930 0.83490 1.02260
C7C C 1.03555(12) 1.07502(12) 1.1514(3)
C8C C 1.08610(13) 1.05550(13) 1.2992(3)
H6C H 1.09970 1.00340 1.31960
C9C C 1.11619(14) 1.11210(13) 1.4155(3)
H7C H 1.15070 1.09890 1.51550
C10C C 1.09604(14) 1.18822(13) 1.3861(3)
H8C H 1.11720 1.22710 1.46550
C11C C 1.04542(12) 1.20777(12) 1.2419(4)
H9C H 1.03130 1.25990 1.22410
C12C C 1.01504(13) 1.15155(12) 1.1226(3)
H10C H 0.98070 1.16510 1.02260
#END
