
#######################################################################
#
#                 Cambridge Crystallographic Data Centre
#                                CCDC
#
#######################################################################
#
# If this CIF has been generated from an entry in the Cambridge
# Structural Database, then it will include bibliographic, chemical,
# crystal, experimental, refinement or atomic coordinate data resulting
# from the CCDC's data processing and validation procedures.
#
#######################################################################

data_CSD_CIF_VINHEH
_audit_creation_date 2013-10-04
_audit_creation_method CSD-ConQuest-V1
_database_code_CSD VINHEH
_database_code_depnum_ccdc_archive 'CCDC 917251'
_chemical_formula_sum 'C61.75 H87.5 Cr3 Fe2 Mn2.5 N20 O48'
_chemical_formula_moiety
;
(C42 H24 Cr6 Mn5 O78 8-)0.5n,2n(C18 H24 Fe1 N10 2+),4.75n(C1 H4 O1),4.25n(H2 
O1)
;
_journal_coden_Cambridge 580
_journal_volume 64
_journal_year 2013
_journal_page_first 142
_journal_name_full 'Polyhedron '
loop_
_publ_author_name
"A.B.Djamaa"
"M.Clemente-Leon"
"E.Coronado"
"M.Lopez-Jorda"
_chemical_name_systematic
;
catena-[bis(tris(([2-((imidazole-4-yl)methylidene)amino]-ethyl)amin)-iron(ii))
 
hemikis(tetradecakis(\m~2~-oxalato)-hexamethanol-tetraoxalato-hexa-chromium-pe
nta-manganese) methanol solvate hydrate]
;
_cell_volume  10235.022
_exptl_crystal_colour 'black'
_exptl_crystal_description 'prism'
_diffrn_ambient_temperature 120
_refine_special_details
;
The structure is disordered.

;
#These two values have been output from a single CSD field.
_refine_ls_R_factor_gt 0.0961
_refine_ls_wR_factor_gt 0.0961
_symmetry_cell_setting monoclinic
_symmetry_space_group_name_H-M 'C 2'
_symmetry_Int_Tables_number 5
loop_
_symmetry_equiv_pos_site_id
_symmetry_equiv_pos_as_xyz
1 x,y,z
2 -x,y,-z
3 1/2+x,1/2+y,z
4 1/2-x,1/2+y,-z
_cell_length_a 39.821(4)
_cell_length_b 14.1428(8)
_cell_length_c 20.3826(17)
_cell_angle_alpha 90
_cell_angle_beta 116.922(11)
_cell_angle_gamma 90
_cell_formula_units_Z 4
loop_
_atom_type_symbol
_atom_type_radius_bond
C 0.68
H 0.23
Cr 1.39
Fe 1.52
Mn 1.61
N 0.68
O 0.68
loop_
_atom_site_label
_atom_site_type_symbol
_atom_site_fract_x
_atom_site_fract_y
_atom_site_fract_z
C1 C 0.2078(3) 0.8130(7) 0.0644(6)
H1 H 0.22420 0.85570 0.05310
H2 H 0.19310 0.77470 0.01980
C2 C 0.2328(3) 0.7466(7) 0.1262(6)
H3 H 0.24730 0.70530 0.10890
H4 H 0.25100 0.78410 0.16840
C3 C 0.2047(3) 0.5975(8) 0.1289(5)
H5 H 0.21480 0.57040 0.09890
C4 C 0.1827(3) 0.5438(7) 0.1549(6)
C5 C 0.1696(4) 0.4532(8) 0.1450(7)
H6 H 0.17390 0.40550 0.11680
C6 C 0.1512(4) 0.5333(10) 0.2153(7)
H7 H 0.14010 0.54810 0.24650
C7 C 0.1433(4) 0.8576(9) 0.0357(7)
H8 H 0.13750 0.85490 -0.01690
H9 H 0.13010 0.91310 0.04270
C8 C 0.1286(3) 0.7669(8) 0.0562(5)
H10 H 0.10100 0.76350 0.02630
H11 H 0.13980 0.71120 0.04400
C9 C 0.1110(3) 0.7813(7) 0.1476(8)
H12 H 0.08650 0.79920 0.11200
C10 C 0.1209(4) 0.7726(8) 0.2296(9)
C11 C 0.1015(4) 0.7831(9) 0.2648(8)
H13 H 0.07580 0.80020 0.24780
C12 C 0.1622(5) 0.7417(9) 0.3375(8)
H14 H 0.18500 0.72620 0.37960
C13 C 0.1964(3) 0.9489(8) 0.1276(7)
H15 H 0.18300 1.00610 0.10050
H16 H 0.22350 0.95750 0.14110
C14 C 0.1921(3) 0.9412(8) 0.1974(6)
H17 H 0.20400 0.99670 0.22920
H18 H 0.16510 0.94100 0.18510
C15 C 0.2407(4) 0.8581(9) 0.2945(7)
H19 H 0.25410 0.91580 0.31150
C16 C 0.2545(4) 0.7739(11) 0.3322(6)
C17 C 0.2861(6) 0.7503(12) 0.3925(8)
H20 H 0.30640 0.79030 0.42320
C18 C 0.2492(5) 0.6200(12) 0.3437(8)
H21 H 0.24030 0.55670 0.33730
N1 N 0.1826(3) 0.8687(6) 0.0791(5)
N2 N 0.2103(2) 0.6892(6) 0.1497(4)
N3 N 0.1488(3) 0.4440(7) 0.1841(5)
H22 H 0.13690 0.39360 0.18820
N4 N 0.1704(3) 0.5946(6) 0.1974(5)
N5 N 0.1372(2) 0.7633(6) 0.1294(5)
N6 N 0.1293(5) 0.7616(8) 0.3359(9)
H23 H 0.12540 0.76140 0.37500
N7 N 0.1568(4) 0.7478(6) 0.2690(6)
N8 N 0.2098(3) 0.8550(6) 0.2368(5)
N9 N 0.2825(5) 0.6591(12) 0.3988(9)
H24 H 0.29950 0.62500 0.43460
N10 N 0.2338(3) 0.6947(7) 0.3036(5)
Fe1 Fe 0.18690(5) 0.72596(10) 0.21321(8)
C19 C 0.3669(4) 0.9257(18) 0.0699(8)
H25 H 0.36710 0.92960 0.02160
H26 H 0.35250 0.86890 0.07010
C20 C 0.4081(5) 0.9185(18) 0.1327(12)
H27 H 0.42270 0.97470 0.13160
H28 H 0.42050 0.86150 0.12530
C21 C 0.4167(6) 0.8298(16) 0.2337(9)
H29 H 0.42360 0.78190 0.20940
C22 C 0.4155(6) 0.8168(14) 0.3007(10)
C23 C 0.4180(7) 0.738(2) 0.3385(14)
H30 H 0.42120 0.67410 0.32830
C24 C 0.4032(5) 0.8743(15) 0.3945(11)
H31 H 0.39550 0.91460 0.42250
C25 C 0.3672(10) 1.078(3) 0.0757(18)
H32 H 0.35470 1.10280 0.02490
H33 H 0.39320 1.05870 0.08730
H34 H 0.37370 1.23400 0.13310
C26 C 0.4317(5) 1.1692(11) 0.2300(9)
H35 H 0.43450 1.22560 0.20770
C27 C 0.4607(5) 1.1265(14) 0.2929(9)
C28 C 0.5016(6) 1.1453(17) 0.3334(12)
H36 H 0.51590 1.19440 0.32650
C29 C 0.4856(6) 1.0165(16) 0.3768(10)
H37 H 0.48750 0.96420 0.40750
C30 C 0.3151(4) 0.9891(12) 0.0811(7)
H38 H 0.30070 0.94750 0.03840
H39 H 0.30080 1.04880 0.07280
C31 C 0.3164(4) 0.9445(10) 0.1458(8)
H40 H 0.32580 0.87910 0.14820
H41 H 0.29040 0.94010 0.13990
C32 C 0.3231(4) 1.0390(9) 0.2477(8)
H42 H 0.29650 1.03820 0.22840
C33 C 0.3459(4) 1.0920(9) 0.3110(6)
C34 C 0.3416(4) 1.1468(9) 0.3600(7)
H43 H 0.31830 1.15970 0.36040
C35 C 0.4021(6) 1.1391(13) 0.3923(9)
H44 H 0.42860 1.14360 0.42120
N11 N 0.3495(4) 1.0097(10) 0.0819(7)
N12 N 0.4075(5) 0.9125(17) 0.2094(8)
N13 N 0.4139(6) 0.7849(17) 0.4080(12)
H45 H 0.41830 0.75470 0.44880
N14 N 0.4056(4) 0.8960(9) 0.3312(7)
N15 N 0.4005(4) 1.1204(8) 0.2067(7)
N16 N 0.5139(5) 1.0687(13) 0.3866(9)
H46 H 0.53720 1.05950 0.42040
N17 N 0.4530(4) 1.0420(9) 0.3191(7)
N18 N 0.3400(3) 0.9915(7) 0.2169(5)
N19 N 0.3738(4) 1.1797(9) 0.4064(6)
H47 H 0.37760 1.22090 0.44140
N20 N 0.3835(4) 1.0933(7) 0.3300(6)
Fe2 Fe 0.39756(6) 1.00622(13) 0.26330(11)
C36 C 0.3753(12) 1.160(3) 0.120(2)
C37 C 0.3852(5) 0.0232(10) 0.5389(7)
C38 C 0.3967(4) 0.0451(10) 0.6184(8)
C39 C 0.2549(5) 0.0326(8) 0.4267(7)
C40 C 0.2701(4) 0.1249(8) 0.4642(6)
C41 C 0.2419(3) 0.1953(8) 0.2291(7)
C42 C 0.2004(3) 0.2197(8) 0.1749(7)
C43 C 0.3024(3) 0.3496(7) 0.1181(5)
C44 C 0.2754(3) 0.4195(8) 0.1293(5)
C45 C 0.4212(4) 0.4638(9) 0.2244(7)
C46 C 0.4152(4) 0.5073(8) 0.1453(6)
C47 C 0.4788(3) 0.2929(10) 0.1098(6)
C48 C 0.5092(3) 0.3634(10) 0.1128(7)
C49 C 0.2004(3) 0.3682(7) 0.3735(5)
C50 C 0.1777(3) 0.3065(7) 0.4028(6)
C51 C 0.3032(3) 0.6901(7) 0.0431(6)
C52 C 0.2889(3) 0.5979(7) -0.0015(6)
O1 O 0.4257(3) 0.0752(8) 0.6635(6)
O2 O 0.4127(3) 0.0243(7) 0.5221(4)
O3 O 0.3659(2) 0.0260(5) 0.6311(3)
O4 O 0.3524(3) 0.0030(6) 0.4947(4)
O5 O 0.3009(2) 0.1182(5) 0.5248(4)
O6 O 0.2734(2) -0.0414(5) 0.4530(4)
O7 O 0.2535(3) 0.1999(5) 0.4369(4)
O8 O 0.2231(2) 0.0349(5) 0.3698(4)
O9 O 0.2488(2) 0.1671(5) 0.2906(4)
O10 O 0.1759(2) 0.2123(6) 0.1987(5)
O11 O 0.2647(2) 0.2110(5) 0.2045(4)
O12 O 0.1932(2) 0.2376(5) 0.1095(4)
O13 O 0.2889(2) 0.2671(4) 0.0981(4)
O14 O 0.2446(2) 0.3846(5) 0.1207(4)
O15 O 0.3327(2) 0.3768(5) 0.1286(4)
O16 O 0.2849(2) 0.5001(5) 0.1480(4)
O17 O 0.3960(3) 0.4734(6) 0.2379(4)
O18 O 0.3832(2) 0.5479(6) 0.1069(4)
O19 O 0.4515(3) 0.4232(6) 0.2562(4)
O20 O 0.4418(2) 0.5005(6) 0.1314(4)
O21 O 0.4655(2) 0.3121(6) 0.1549(4)
O22 O 0.5156(2) 0.4330(6) 0.1552(5)
O23 O 0.46887(19) 0.2275(6) 0.0656(4)
O24 O 0.5262(2) 0.3419(6) 0.0778(5)
O25 O 0.1735(2) 0.2227(6) 0.3891(4)
O26 O 0.2089(2) 0.3286(5) 0.3298(5)
O27 O 0.1658(2) 0.3498(5) 0.4420(4)
O28 O 0.2044(2) 0.4542(5) 0.3926(3)
O29 O 0.2995(2) 0.5229(5) 0.0256(4)
O30 O 0.3243(2) 0.6791(5) 0.1098(4)
O31 O 0.2643(2) 0.6119(5) -0.0700(4)
O32 O 0.2899(2) 0.7656(5) 0.0077(4)
O33 O 0.5305(3) 0.3802(9) 0.2975(7)
O34 O 0.5077(4) 0.5512(9) 0.2623(7)
O35 O 0.5576(7) 0.6060(15) 0.3614(10)
C53 C 0.5364(6) 0.5416(13) 0.3196(9)
O36 O 0.5846(7) 0.4387(19) 0.3963(13)
C54 C 0.5535(9) 0.4417(15) 0.341(2)
Cr1 Cr 0.32090(6) -0.01404(12) 0.54509(9)
Cr2 Cr 0.23975(5) 0.24810(11) 0.09758(9)
Cr3 Cr 0.48589(6) 0.43195(18) 0.21009(12)
Mn1 Mn 0.20177(5) 0.17389(11) 0.32181(9)
Mn2 Mn 0.34077(5) 0.53442(11) 0.14996(9)
Mn3 Mn 0.50000 0.22208(19) 0.00000
C55 C 0.1336(5) 0.0287(10) 0.2944(9)
H48 H 0.10990 0.00360 0.25580
H49 H 0.12870 0.06010 0.33210
H50 H 0.15140 -0.02340 0.31690
O37 O 0.1488(3) 0.0935(6) 0.2639(6)
C56 C 0.3278(5) 0.6686(10) 0.2643(8)
H51 H 0.33890 0.68730 0.31620
H52 H 0.30310 0.63940 0.25010
H53 H 0.32470 0.72460 0.23370
O38 O 0.3517(2) 0.6030(6) 0.2539(4)
C57 C 0.5636(6) 0.0586(14) 0.0509(12)
H54 H 0.57980 0.02090 0.09410
H55 H 0.57940 0.09450 0.03420
H56 H 0.54690 0.01650 0.01140
O39 O 0.5410(2) 0.1243(7) 0.0704(4)
C58 C 0.0082(6) 0.5247(15) 0.1802(11)
O40 O 0.0421(5) 0.5536(15) 0.1899(10)
C59 C 0.7917(7) 0.9169(18) 0.3073(11)
O41 O 0.8143(5) 0.9493(15) 0.3767(10)
O42 O 0.8109(4) 0.8449(11) 0.4833(8)
C60 C 0.7990(7) 0.9068(18) 0.5207(13)
C61 C 0.9011(8) 0.9215(16) 0.3996(16)
O43 O 0.8814(4) 1.0062(10) 0.3838(8)
C62 C 0.0660(7) 0.0608(19) 0.0853(15)
O44 O 0.1010(5) 0.1093(13) 0.1186(9)
C63 C 0.0828(8) 0.313(2) 0.2294(15)
O45 O 0.0957(7) 0.2999(18) 0.1734(15)
O46 O 0.8821(3) 0.7814(9) 0.5333(6)
O47 O 0.1234(4) 0.1455(12) 0.0219(9)
O48 O 0.8490(5) 0.1007(14) 0.5256(11)
O49 O 0.4860(8) 0.733(2) 0.2051(15)
O50 O 0.4088(7) 0.6273(19) 0.4902(14)
C64? C 0.3578(8) 1.117(2) 0.0842(16)
H57? H 0.36190 1.12650 0.04030
H58? H 0.33310 1.14610 0.07180
H59? H 0.36120 1.21640 0.12120
H60? H 0.39330 1.17990 0.10120
O51? O 0.5660(7) 0.4178(17) 0.4112(12)
C65? C 0.5430(13) 0.4379(15) 0.3490(13)
O52? O 0.0361(5) 0.6026(14) 0.1930(9)
O53? O 0.8146(8) 0.978(2) 0.5021(16)
O54? O 0.1150(6) 0.3008(14) 0.2207(12)
O55? O 0.1165(5) 0.1913(15) -0.0007(11)
C66? C 0.3675(8) 1.170(2) 0.1434(15)
H61? H 0.34420 1.17030 0.14930
C37A C 0.6148(5) 0.0232(10) -0.5389(7)
C38A C 0.6033(4) 0.0451(10) -0.6184(8)
C39A C 0.7451(5) 0.0326(8) -0.4267(7)
C40A C 0.7299(4) 0.1249(8) -0.4642(6)
C41A C 0.7581(3) 0.1953(8) -0.2291(7)
C42A C 0.7996(3) 0.2197(8) -0.1749(7)
C43A C 0.6976(3) 0.3496(7) -0.1181(5)
C44A C 0.7246(3) 0.4195(8) -0.1293(5)
C45A C 0.5788(4) 0.4638(9) -0.2244(7)
C46A C 0.5848(4) 0.5073(8) -0.1453(6)
C47A C 0.5212(3) 0.2929(10) -0.1098(6)
C48A C 0.4908(3) 0.3634(10) -0.1128(7)
C49A C 0.7996(3) 0.3682(7) -0.3735(5)
C50A C 0.8223(3) 0.3065(7) -0.4028(6)
C51A C 0.6968(3) 0.6901(7) -0.0431(6)
C52A C 0.7111(3) 0.5979(7) 0.0015(6)
O1A O 0.5743(3) 0.0752(8) -0.6635(6)
O2A O 0.5873(3) 0.0243(7) -0.5221(4)
O3A O 0.6341(2) 0.0260(5) -0.6311(3)
O4A O 0.6476(3) 0.0030(6) -0.4947(4)
O5A O 0.6991(2) 0.1182(5) -0.5248(4)
O6A O 0.7266(2) -0.0414(5) -0.4530(4)
O7A O 0.7465(3) 0.1999(5) -0.4369(4)
O8A O 0.7769(2) 0.0349(5) -0.3698(4)
O9A O 0.7512(2) 0.1671(5) -0.2906(4)
O10A O 0.8241(2) 0.2123(6) -0.1987(5)
O11A O 0.7353(2) 0.2110(5) -0.2045(4)
O12A O 0.8068(2) 0.2376(5) -0.1095(4)
O13A O 0.7111(2) 0.2671(4) -0.0981(4)
O14A O 0.7554(2) 0.3846(5) -0.1207(4)
O15A O 0.6673(2) 0.3768(5) -0.1286(4)
O16A O 0.7151(2) 0.5001(5) -0.1480(4)
O17A O 0.6040(3) 0.4734(6) -0.2379(4)
O18A O 0.6168(2) 0.5479(6) -0.1069(4)
O19A O 0.5485(3) 0.4232(6) -0.2562(4)
O20A O 0.5582(2) 0.5005(6) -0.1314(4)
O21A O 0.5345(2) 0.3121(6) -0.1549(4)
O22A O 0.4844(2) 0.4330(6) -0.1552(5)
O23A O 0.53113(19) 0.2275(6) -0.0656(4)
O24A O 0.4738(2) 0.3419(6) -0.0778(5)
O25A O 0.8265(2) 0.2227(6) -0.3891(4)
O26A O 0.7911(2) 0.3286(5) -0.3298(5)
O27A O 0.8342(2) 0.3498(5) -0.4420(4)
O28A O 0.7956(2) 0.4542(5) -0.3926(3)
O29A O 0.7005(2) 0.5229(5) -0.0256(4)
O30A O 0.6757(2) 0.6791(5) -0.1098(4)
O31A O 0.7357(2) 0.6119(5) 0.0700(4)
O32A O 0.7101(2) 0.7656(5) -0.0077(4)
O33A O 0.4695(3) 0.3802(9) -0.2975(7)
O34A O 0.4923(4) 0.5512(9) -0.2623(7)
O35A O 0.4424(7) 0.6060(15) -0.3614(10)
C53A C 0.4636(6) 0.5416(13) -0.3196(9)
O36A O 0.4154(7) 0.4387(19) -0.3963(13)
C54A C 0.4465(9) 0.4417(15) -0.341(2)
Cr1A Cr 0.67910(6) -0.01404(12) -0.54509(9)
Cr2A Cr 0.76025(5) 0.24810(11) -0.09758(9)
Cr3A Cr 0.51411(6) 0.43195(18) -0.21009(12)
Mn1A Mn 0.79823(5) 0.17389(11) -0.32181(9)
Mn2A Mn 0.65923(5) 0.53442(11) -0.14996(9)
C55A C 0.8664(5) 0.0287(10) -0.2944(9)
H48A H 0.89010 0.00360 -0.25580
H49A H 0.87130 0.06010 -0.33210
H50A H 0.84860 -0.02340 -0.31690
O37A O 0.8512(3) 0.0935(6) -0.2639(6)
C56A C 0.6722(5) 0.6686(10) -0.2643(8)
H51A H 0.66110 0.68730 -0.31620
H52A H 0.69690 0.63940 -0.25010
H53A H 0.67530 0.72460 -0.23370
O38A O 0.6483(2) 0.6030(6) -0.2539(4)
C57A C 0.4364(6) 0.0586(14) -0.0509(12)
H54A H 0.42020 0.02090 -0.09410
H55A H 0.42060 0.09450 -0.03420
H56A H 0.45310 0.01650 -0.01140
O39A O 0.4590(2) 0.1243(7) -0.0704(4)
O27B O 0.6658(2) -0.1502(5) -0.5580(4)
O27C O 0.3342(2) -0.1502(5) 0.5580(4)
O28B O 0.7044(2) -0.0458(5) -0.6074(3)
O28C O 0.2956(2) -0.0458(5) 0.6074(3)
O31B O 0.7643(2) 0.1119(5) -0.0700(4)
O31C O 0.2357(2) 0.1119(5) 0.0700(4)
O32B O 0.7899(2) 0.2656(5) 0.0077(4)
O32C O 0.2101(2) 0.2656(5) -0.0077(4)
Cr1B Cr 0.82090(6) 0.48596(12) -0.45491(9)
Cr1C Cr 0.17910(6) 0.48596(12) 0.45491(9)
Cr2B Cr 0.73975(5) 0.74810(11) 0.09758(9)
Cr2C Cr 0.26025(5) 0.74810(11) -0.09758(9)
#END
