
#######################################################################
#
#                 Cambridge Crystallographic Data Centre
#                                CCDC
#
#######################################################################
#
# If this CIF has been generated from an entry in the Cambridge
# Structural Database, then it will include bibliographic, chemical,
# crystal, experimental, refinement or atomic coordinate data resulting
# from the CCDC's data processing and validation procedures.
#
#######################################################################

data_CSD_CIF_VINMOX01
_audit_creation_date 2018-11-09
_audit_creation_method CSD-ConQuest-V1
_database_code_CSD VINMOX01
_database_code_depnum_ccdc_archive 'CCDC 1845895'
_chemical_formula_sum 'C14 H19 Cd1 Cl1 N9 P1'
_chemical_formula_moiety
;
(C8 H19 Cl1 P1 1+)n,n(C6 Cd1 N9 1-)
;
_journal_coden_Cambridge 182
_journal_volume 54
_journal_year 2018
_journal_page_first 13275
_journal_name_full 'Chem.Commun. '
loop_
_publ_author_name
"Meng-Meng Zhao"
"Lin Zhou"
"Ping-Ping Shi"
"Xuan Zheng"
"Xiao-Gang Chen"
"Ji-Xing Gao"
"Fu-Juan Geng"
"Qiong Ye"
"Da-Wei Fu"
_chemical_name_systematic
;
catena-((2-chloroethyl)(triethyl)phosphonium tris(\m-dicyanamide)-cadmium(ii))
;
_cell_volume   4387.085
_exptl_crystal_colour 'colorless'
_exptl_crystal_density_diffrn 1.49
_exptl_special_details
;
Pbcn polymorph

;
_exptl_crystal_description 'block'
_diffrn_ambient_temperature 333
_refine_special_details
;
The cations are disordered by symmetry.

;
#These two values have been output from a single CSD field.
_refine_ls_R_factor_gt 0.1289
_refine_ls_wR_factor_gt 0.1289
_symmetry_cell_setting orthorhombic
_symmetry_space_group_name_H-M 'P b c n'
_symmetry_Int_Tables_number 60
loop_
_symmetry_equiv_pos_site_id
_symmetry_equiv_pos_as_xyz
1 x,y,z
2 1/2-x,1/2-y,1/2+z
3 -x,y,1/2-z
4 1/2+x,1/2-y,-z
5 -x,-y,-z
6 -1/2+x,-1/2+y,-1/2-z
7 x,-y,-1/2+z
8 -1/2-x,-1/2+y,z
_cell_length_a 16.650(5)
_cell_length_b 16.667(5)
_cell_length_c 15.809(5)
_cell_angle_alpha 90
_cell_angle_beta 90
_cell_angle_gamma 90
_cell_formula_units_Z 8
loop_
_atom_type_symbol
_atom_type_radius_bond
C 0.68
H 0.23
Cd 1.44
Cl 0.99
N 0.68
P 1.05
loop_
_atom_site_label
_atom_site_type_symbol
_atom_site_fract_x
_atom_site_fract_y
_atom_site_fract_z
Cd1 Cd 0.18733(6) 0.29073(7) 0.50936(8)
C1 C 0.2853(15) 0.2903(15) 0.6927(15)
N1 N 0.1740(14) 0.1526(11) 0.5194(17)
N2 N 0.2453(13) 0.2994(13) 0.6417(13)
C2 C 0.1920(14) 0.0925(16) 0.503(2)
N3 N 0.3123(11) 0.2828(19) 0.4487(19)
C3 C 0.3681(14) 0.272(2) 0.4349(18)
N4 N 0.1986(15) 0.0219(12) 0.4702(18)
N5 N 0.3434(13) 0.2990(13) 0.7535(14)
N6 N 0.4432(11) 0.2621(17) 0.3856(14)
N7 N 0.3061(13) -0.0712(12) 0.5025(13)
C4 C 0.260(2) -0.0261(16) 0.4899(19)
C5 C 0.3482(13) 0.2445(17) 0.8160(15)
N8 N 0.3620(13) 0.2122(12) 0.8727(13)
C6 C 0.5061(13) 0.2323(18) 0.4203(16)
N9 N 0.5625(9) 0.2050(12) 0.4375(11)
P1 P 0.50000 -0.0069(4) 0.25000
C7 C 0.3992(4) 0.0184(8) 0.2816(11)
H1 H 0.41860 0.04280 0.33270
H2 H 0.38730 -0.03690 0.29280
C8 C 0.5380(6) 0.0680(5) 0.1783(7)
H3 H 0.49960 0.05710 0.13440
H4 H 0.58540 0.09140 0.15410
C9 C 0.3805(6) 0.1028(7) 0.2554(13)
H5 H 0.33770 0.06420 0.25530
H6 H 0.39080 0.11600 0.19730
C10 C 0.500(1) -0.1013(4) 0.1944(7)
H7 H 0.54960 -0.10910 0.16470
H8 H 0.45790 -0.09340 0.15370
Cl1 Cl 0.3166(19) 0.124(3) 0.3469(13)
C11 C 0.434(2) -0.1012(17) 0.129(2)
H9 H 0.43010 -0.14840 0.09470
H10 H 0.47700 -0.10830 0.16960
H11 H 0.38470 -0.09250 0.15860
C12 C 0.5082(7) 0.1491(4) 0.2044(12)
H12 H 0.46710 0.16700 0.16620
H13 H 0.48630 0.14490 0.26050
H14 H 0.55170 0.18690 0.20440
C13 C 0.5640(8) -0.0134(11) 0.3416(7)
H15 H 0.60310 -0.00680 0.29750
H16 H 0.57650 -0.06160 0.37200
C14 C 0.5204(18) -0.056(3) 0.4114(12)
H17 H 0.57310 -0.05190 0.43560
H18 H 0.50840 -0.00780 0.38060
H19 H 0.48160 -0.06310 0.45570
P2 P 0.50000 0.4907(13) 0.25000
C15 C 0.3645(9) 0.4018(14) 0.245(3)
H20 H 0.34550 0.42060 0.19130
H21 H 0.39270 0.35230 0.23610
Cl2 Cl 0.2651(10) 0.442(2) 0.2587(18)
C16 C 0.4171(7) 0.464(2) 0.2039(12)
H22 H 0.41940 0.50740 0.16430
H23 H 0.39120 0.48440 0.25370
C17 C 0.6275(15) 0.4105(19) 0.313(2)
H24 H 0.63530 0.36580 0.35050
H25 H 0.66170 0.40480 0.26470
H26 H 0.64060 0.45940 0.34220
C18 C 0.5381(13) 0.4139(12) 0.3012(13)
H27 H 0.52400 0.36550 0.27160
H28 H 0.50300 0.41990 0.34890
C19 C 0.4837(15) 0.5637(15) 0.3163(11)
H29 H 0.47580 0.61070 0.28220
H30 H 0.54060 0.55510 0.32030
C20 C 0.6324(13) 0.464(2) 0.156(2)
H31 H 0.66090 0.45520 0.10360
H32 H 0.65810 0.50550 0.18730
H33 H 0.63250 0.41490 0.18800
C21 C 0.5652(10) 0.5198(17) 0.1785(11)
H34 H 0.56650 0.56740 0.14430
H35 H 0.54120 0.47810 0.14500
C22 C 0.533(2) 0.568(2) 0.3959(16)
H36 H 0.56040 0.61420 0.41820
H37 H 0.47620 0.57930 0.39340
H38 H 0.54200 0.52290 0.43200
P3? P 0.50000 0.497(2) 0.25000
Cd1A Cd 0.31267(6) 0.20927(7) 1.00936(8)
Cd1C Cd 0.68733(6) 0.20927(7) 0.49064(8)
Cd1G Cd 0.31267(6) -0.20927(7) 0.50936(8)
N7G N 0.1939(13) 0.4288(12) 0.5025(13)
N8A N 0.1380(13) 0.2878(12) 0.3727(13)
N9C N 0.0625(9) 0.2950(12) 0.5625(11)
C7B C 0.6008(4) 0.0184(8) 0.2184(11)
H1B H 0.58140 0.04280 0.16730
H2B H 0.61270 -0.03690 0.20720
C8B C 0.4620(6) 0.0680(5) 0.3217(7)
H3B H 0.50040 0.05710 0.36560
H4B H 0.41460 0.09140 0.34590
C9B C 0.6195(6) 0.1028(7) 0.2446(13)
H5B H 0.66230 0.06420 0.24470
H6B H 0.60920 0.11600 0.30270
C10B C 0.500(1) -0.1013(4) 0.3056(7)
H7B H 0.45040 -0.10910 0.33530
H8B H 0.54210 -0.09340 0.34630
Cl1B Cl 0.6834(19) 0.124(3) 0.1531(13)
C11B C 0.566(2) -0.1012(17) 0.371(2)
H9B H 0.56990 -0.14840 0.40530
H10B H 0.52300 -0.10830 0.33040
H11B H 0.61530 -0.09250 0.34140
C12B C 0.4918(7) 0.1491(4) 0.2956(12)
H12B H 0.53290 0.16700 0.33380
H13B H 0.51370 0.14490 0.23950
H14B H 0.44830 0.18690 0.29560
C13B C 0.4360(8) -0.0134(11) 0.1584(7)
H15B H 0.39690 -0.00680 0.20250
H16B H 0.42350 -0.06160 0.12800
C14B C 0.4796(18) -0.056(3) 0.0886(12)
H17B H 0.42690 -0.05190 0.06440
H18B H 0.49160 -0.00780 0.11940
H19B H 0.51840 -0.06310 0.04430
C15B C 0.6355(9) 0.4018(14) 0.255(3)
H20B H 0.65450 0.42060 0.30870
H21B H 0.60730 0.35230 0.26390
Cl2B Cl 0.7349(10) 0.442(2) 0.2413(18)
C16B C 0.5829(7) 0.464(2) 0.2961(12)
H22B H 0.58060 0.50740 0.33570
H23B H 0.60880 0.48440 0.24630
C17B C 0.3725(15) 0.4105(19) 0.187(2)
H24B H 0.36470 0.36580 0.14950
H25B H 0.33830 0.40480 0.23530
H26B H 0.35940 0.45940 0.15780
C18B C 0.4619(13) 0.4139(12) 0.1988(13)
H27B H 0.47600 0.36550 0.22840
H28B H 0.49700 0.41990 0.15110
C19B C 0.5163(15) 0.5637(15) 0.1837(11)
H29B H 0.52420 0.61070 0.21780
H30B H 0.45940 0.55510 0.17970
C20B C 0.3676(13) 0.464(2) 0.344(2)
H31B H 0.33910 0.45520 0.39640
H32B H 0.34190 0.50550 0.31270
H33B H 0.36750 0.41490 0.31200
C21B C 0.4348(10) 0.5198(17) 0.3215(11)
H34B H 0.43350 0.56740 0.35570
H35B H 0.45880 0.47810 0.35500
C22B C 0.467(2) 0.568(2) 0.1041(16)
H36B H 0.43960 0.61420 0.08180
H37B H 0.52380 0.57930 0.10660
H38B H 0.45800 0.52290 0.06800
#END
