
#######################################################################
#
#                 Cambridge Crystallographic Data Centre
#                                CCDC
#
#######################################################################
#
# If this CIF has been generated from an entry in the Cambridge
# Structural Database, then it will include bibliographic, chemical,
# crystal, experimental, refinement or atomic coordinate data resulting
# from the CCDC's data processing and validation procedures.
#
#######################################################################

data_CSD_CIF_VINROZ
_audit_creation_date 1991-10-24
_audit_creation_method CSD-ConQuest-V1
_database_code_CSD VINROZ
_database_code_depnum_ccdc_archive 'CCDC 1284242'
_chemical_formula_sum 'C4 H9 Cu1 N1 O6'
_chemical_formula_moiety
;
(C3 H3 Cu1 O6 1-)n,n(C1 H6 N1 1+)
;
_journal_coden_Cambridge 367
_journal_volume 16
_journal_year 1990
_journal_page_first 218
_journal_name_full 'Koord.Khim.(Russ.)(Coord.Chem.) '
loop_
_publ_author_name
"G.A.Nifontova"
"O.S.Filipenko"
"A.S.Astokhova"
"I.P.Lavrent'ev"
"L.O.Atovmyan"
_chemical_name_systematic
;
catena-(Methylammonium tris(\m~2~-formato-O,O')-copper(ii))
;
_chemical_melting_point 441.15
_cell_volume    794.924
_exptl_crystal_colour 'turquoise'
_exptl_special_details
;
Melts with decomposition.

;
_diffrn_ambient_temperature ?
_diffrn_special_details
;
The study was carried out at room temperature,in the range 283-303K

;
#These two values have been output from a single CSD field.
_refine_ls_R_factor_gt 0.04
_refine_ls_wR_factor_gt 0.04
_symmetry_cell_setting orthorhombic
_symmetry_space_group_name_H-M 'P n a m'
_symmetry_Int_Tables_number 62
loop_
_symmetry_equiv_pos_site_id
_symmetry_equiv_pos_as_xyz
1 x,y,z
2 -x,-y,1/2+z
3 1/2+x,1/2-y,1/2-z
4 1/2-x,1/2+y,-z
5 -x,-y,-z
6 x,y,-1/2-z
7 -1/2-x,-1/2+y,-1/2+z
8 -1/2+x,-1/2-y,z
_cell_length_a 8.562(4)
_cell_length_b 8.110(4)
_cell_length_c 11.448(5)
_cell_angle_alpha 90
_cell_angle_beta 90
_cell_angle_gamma 90
_cell_formula_units_Z 4
loop_
_atom_type_symbol
_atom_type_radius_bond
C 0.68
H 0.23
Cu 1.52
N 0.68
O 0.68
loop_
_atom_site_label
_atom_site_type_symbol
_atom_site_fract_x
_atom_site_fract_y
_atom_site_fract_z
Cu1 Cu -0.50000 0.50000 0.50000
O1 O -0.4196(2) 0.2949(2) 0.4333(1)
O2 O -0.2531(2) 0.0868(2) 0.4374(2)
O3 O -0.5229(2) 0.3837(2) 0.6542(1)
C1 C -0.3019(3) 0.2220(3) 0.4721(2)
C2 C -0.5049(3) 0.4533(5) 0.75000
H1 H -0.253(3) 0.270(4) 0.523(3)
H2 H -0.454(9) 0.577(11) 0.75000
N1 N -0.4339(4) -0.0309(4) 0.25000
C3 C -0.5983(5) 0.0241(6) 0.25000
H3 H -0.610(17) 0.099(17) 0.25000
H4 H -0.647(10) -0.014(9) 0.303(8)
H5 H -0.443(6) -0.102(7) 0.25000
H6 H -0.384(5) 0.006(5) 0.191(4)
O2G O -0.7531(2) 0.4132(2) 0.4374(2)
Cu1G Cu 0.00000 0.00000 0.50000
Cu1G* Cu 0.00000 1.00000 0.50000
O1C O -0.0804(2) 0.7949(2) 0.5667(1)
C1C C -0.1981(3) 0.7220(3) 0.5279(2)
O2C O -0.2469(2) 0.5868(2) 0.5626(2)
O1D O -0.5804(2) 0.7051(2) 0.5667(1)
O3E O -0.5229(2) 0.3837(2) 0.8458(1)
Cu1A Cu -0.50000 0.50000 1.00000
O3D O -0.4771(2) 0.6163(2) 0.3458(1)
H1C H -0.247(3) 0.770(4) 0.477(3)
H4E H -0.647(10) -0.014(9) 0.197(8)
H6E H -0.384(5) 0.006(5) 0.309(4)
#END
