
#######################################################################
#
#                 Cambridge Crystallographic Data Centre
#                                CCDC
#
#######################################################################
#
# If this CIF has been generated from an entry in the Cambridge
# Structural Database, then it will include bibliographic, chemical,
# crystal, experimental, refinement or atomic coordinate data resulting
# from the CCDC's data processing and validation procedures.
#
#######################################################################

data_CSD_CIF_VINRUI
_audit_creation_date 2018-11-09
_audit_creation_method CSD-ConQuest-V1
_database_code_CSD VINRUI
_database_code_depnum_ccdc_archive 'CCDC 1856071'
_chemical_formula_sum 'C18 H68 N11 Ni7 O51 P1 W9'
_chemical_formula_moiety
;
(C14 H36 N7 Ni6 O43 P1 W9 2-)n,C4 H16 N4 Ni1 2+,8(H2 O1)
;
_journal_coden_Cambridge 1350
_journal_volume 20
_journal_year 2018
_journal_page_first 7507
_journal_name_full 'CrystEngComm '
loop_
_publ_author_name
"Ying-Xue Yin"
"Wei-Chao Chen"
"Wei Yao"
"Chao Qin"
"Zhong-Min Su"
_chemical_name_systematic
;
catena-[bis(ethylenediamine)-nickel(ii) 
(\m-phosphato)-(\m-5-aminoisophthalato)-tetracosakis(\m-oxo)-tris(ethylenediam
ine)-diaqua-nonaoxo-hexa-nickel-nona-tungsten octahydrate unknown solvate]
;
_cell_volume   6899.785
_exptl_crystal_colour 'green'
_exptl_crystal_density_diffrn 3.226
_exptl_crystal_description 'block'
_diffrn_ambient_temperature 296
_refine_special_details
;
Disordered solvent molecules were not modelled and the disordered density was 
taken into account using the SQUEEZE/PLATON procedure.
;
#These two values have been output from a single CSD field.
_refine_ls_R_factor_gt 0.0436
_refine_ls_wR_factor_gt 0.0436
_symmetry_cell_setting orthorhombic
_symmetry_space_group_name_H-M 'P 21 21 21'
_symmetry_Int_Tables_number 19
loop_
_symmetry_equiv_pos_site_id
_symmetry_equiv_pos_as_xyz
1 x,y,z
2 1/2-x,-y,1/2+z
3 -x,1/2+y,1/2-z
4 1/2+x,1/2-y,-z
_cell_length_a 13.407(5)
_cell_length_b 14.365(5)
_cell_length_c 35.826(13)
_cell_angle_alpha 90
_cell_angle_beta 90
_cell_angle_gamma 90
_cell_formula_units_Z 4
loop_
_atom_type_symbol
_atom_type_radius_bond
C 0.68
H 0.23
N 0.68
Ni 1.24
O 0.68
P 1.05
W 1.62
loop_
_atom_site_label
_atom_site_type_symbol
_atom_site_fract_x
_atom_site_fract_y
_atom_site_fract_z
W1 W 0.45804(5) 0.17759(4) 0.29613(2)
W2 W 0.33764(5) 0.28709(5) 0.37704(2)
W3 W 0.71024(5) 0.19402(4) 0.28317(2)
W4 W 0.86344(5) 0.32129(5) 0.35146(2)
W5 W 0.75229(5) 0.42680(5) 0.42567(2)
W6 W 0.47953(5) 0.40696(5) 0.43911(2)
W7 W 0.76829(5) 0.18655(5) 0.42257(2)
W8 W 0.49380(6) 0.16659(5) 0.43578(2)
W9 W 0.61701(6) 0.05514(5) 0.35388(2)
Ni1 Ni 0.45567(15) 0.49520(14) 0.34545(6)
Ni2 Ni 0.56469(15) 0.40033(14) 0.27754(6)
Ni3 Ni 0.33298(15) 0.39394(14) 0.28928(6)
Ni4 Ni 0.68926(15) 0.51113(14) 0.33642(6)
Ni5 Ni 0.58122(18) 0.61129(16) 0.40118(7)
Ni6 Ni 0.79540(16) 0.43477(15) 0.26993(6)
P1 P 0.5983(3) 0.3074(3) 0.36089(11)
O1 O 0.5667(8) 0.5902(7) 0.3458(3)
O2 O 0.4497(8) 0.4853(7) 0.2901(3)
O3 O 0.6679(8) 0.4996(7) 0.2824(3)
O4 O 0.4848(9) 0.4942(8) 0.4027(3)
O5 O 0.3652(8) 0.3821(8) 0.3458(3)
O6 O 1.3294(9) 0.5789(8) 0.3470(4)
O7 O 0.5054(9) 0.0614(8) 0.3220(3)
O8 O 0.7008(9) 0.5101(8) 0.3933(3)
O9 O 0.5296(9) 0.0893(8) 0.3938(3)
O10 O 0.4567(8) 0.2979(7) 0.2826(3)
O11 O 0.3504(9) 0.3665(9) 0.4197(4)
O12 O 0.8721(9) 0.2225(8) 0.3895(3)
O13 O 0.7853(9) 0.3010(8) 0.4468(3)
O14 O 0.5833(8) 0.3981(7) 0.3390(3)
O15 O 0.4795(10) 0.2798(9) 0.4617(4)
O16 O 0.3676(9) 0.1849(9) 0.4132(3)
O17 O 0.8111(8) 0.2279(8) 0.3185(3)
O18 O 0.7978(9) 0.4111(8) 0.3265(3)
O19 O 0.3813(9) 0.1994(8) 0.3393(3)
O20 O 0.6862(9) 0.3137(8) 0.2720(3)
O21 O 0.5774(9) 0.1561(8) 0.2670(3)
O22 O 0.6206(9) 0.4051(9) 0.4453(4)
O23 O 0.3672(9) 0.1283(8) 0.2686(4)
O24 O 0.8292(10) 0.1129(9) 0.4516(4)
O25 O 0.8657(9) 0.4015(8) 0.3955(3)
O26 O 0.5499(9) 0.4077(9) 0.2209(4)
H1 H 0.52311 0.46082 0.21401
H2 H 0.50670 0.36656 0.21273
O27 O 0.7005(9) 0.0755(8) 0.3130(4)
O28 O 0.7200(9) 0.1048(8) 0.3849(4)
O29 O 1.2376(9) 0.4944(8) 0.3062(4)
O30 O 0.4494(12) 0.6948(11) 0.4023(5)
O31 O 0.6301(10) -0.0603(8) 0.3596(4)
O32 O 0.7843(10) 0.1581(9) 0.2468(4)
O33 O 0.8855(9) 0.5497(8) 0.2852(4)
O34 O 0.6358(9) 0.1792(9) 0.4419(3)
O35 O 0.6988(8) 0.3093(8) 0.3812(3)
O36 O 0.4659(11) 0.0872(10) 0.4690(4)
O37 O 0.5138(9) 0.2963(8) 0.3908(3)
N1 N 0.6078(13) 0.6271(12) 0.4574(5)
N2 N 0.3082(12) 0.4012(11) 0.2330(5)
O38 O 0.7976(9) 0.6104(8) 0.3325(4)
N3 N 0.2137(12) 0.2979(11) 0.2890(5)
O39 O 0.8025(10) 0.4973(9) 0.4598(4)
N4 N 0.6831(13) 0.7199(12) 0.3943(5)
O40 O 0.4403(11) 0.4679(9) 0.4781(4)
N5 N 0.7835(12) 0.4546(11) 0.2135(5)
O41 O 0.2092(11) 0.2730(9) 0.3749(4)
C1 C 1.1538(14) 0.6053(12) 0.3406(6)
N6 N 0.9164(12) 0.351(1) 0.2549(4)
N7 N 1.0636(15) 0.7943(13) 0.4043(6)
H3 H 1.00899 0.82098 0.41092
H4 H 1.11919 0.81082 0.41428
C2 C 1.2463(13) 0.5558(12) 0.3307(6)
C3 C 0.7378(17) 0.7233(16) 0.4322(7)
H5 H 0.78348 0.67119 0.43422
H6 H 0.77597 0.78044 0.43418
C4 C 0.9727(13) 0.6949(12) 0.3601(5)
H7 H 0.91229 0.72166 0.36703
C5 C 0.6702(19) 0.7193(16) 0.4598(7)
H8 H 0.62574 0.77243 0.45805
H9 H 0.70390 0.72219 0.48373
C6 C 0.8775(12) 0.5917(11) 0.3159(5)
C7 C 1.0639(13) 0.5811(12) 0.3242(5)
H10 H 1.06324 0.53310 0.30681
C8 C 0.9749(13) 0.6254(12) 0.3326(5)
O42 O 0.5957(8) 0.2211(7) 0.3346(3)
C9 C 1.1542(13) 0.6752(12) 0.3668(6)
H11 H 1.21395 0.69166 0.37821
C10 C 1.0621(14) 0.7243(13) 0.3773(6)
C11 C 0.9294(15) 0.3593(15) 0.2149(6)
H12 H 0.95689 0.30137 0.20555
H13 H 0.97788 0.40794 0.21008
C12 C 0.8368(17) 0.3808(15) 0.1938(6)
H14 H 0.85330 0.40082 0.16872
H15 H 0.79522 0.32563 0.19212
C13 C 0.1834(16) 0.2883(14) 0.2484(6)
H16 H 0.21789 0.23497 0.23795
H17 H 0.11252 0.27518 0.24742
C14 C 0.2016(17) 0.3614(15) 0.2268(6)
H18 H 0.15293 0.40957 0.23210
H19 H 0.19410 0.34336 0.20089
O43 O 0.9835(9) 0.3285(9) 0.3369(4)
O44 O 0.5512(12) 0.2317(12) 0.1920(5)
H20 H 0.60558 0.22541 0.20396
H21 H 0.56900 0.23747 0.16938
O45 O 0.9412(12) 0.0587(12) 0.3431(5)
H22 H 0.89292 0.09528 0.33852
H23 H 0.91366 0.00862 0.35033
N8 N 0.2138(16) 0.2262(14) 0.4750(6)
N9 N 0.2055(16) 0.4207(16) 0.4758(6)
C15 C 0.1758(17) 0.1347(17) 0.4622(8)
H24 H 0.16882 0.09351 0.48351
H25 H 0.22363 0.10702 0.44519
C16 C 0.0770(18) 0.1439(18) 0.4429(8)
H26 H 0.08697 0.14074 0.41615
H27 H 0.03447 0.09230 0.45011
N10 N 0.0290(17) 0.4116(17) 0.4511(7)
C17 C 0.0703(19) 0.5063(18) 0.4472(8)
H28 H 0.02006 0.55255 0.45314
H29 H 0.09306 0.51668 0.42181
C18 C 0.1560(19) 0.5128(18) 0.4739(8)
H30 H 0.20298 0.55964 0.46550
H31 H 0.13199 0.53057 0.49846
N11 N 0.0278(17) 0.2303(16) 0.4521(7)
Ni7 Ni 0.1215(8) 0.2804(8) 0.4598(3)
Ni8? Ni 0.1199(4) 0.3348(5) 0.46283(18)
Ni1* Ni 1.45567(15) 0.49520(14) 0.34545(6)
Ni3* Ni 1.33298(15) 0.39394(14) 0.28928(6)
O6* O 0.3294(9) 0.5789(8) 0.3470(4)
O29* O 0.2376(9) 0.4944(8) 0.3062(4)
#END
