
#######################################################################
#
#                 Cambridge Crystallographic Data Centre
#                                CCDC
#
#######################################################################
#
# If this CIF has been generated from an entry in the Cambridge
# Structural Database, then it will include bibliographic, chemical,
# crystal, experimental, refinement or atomic coordinate data resulting
# from the CCDC's data processing and validation procedures.
#
#######################################################################

data_CSD_CIF_VIPJEK
_audit_creation_date 2008-01-22
_audit_creation_method CSD-ConQuest-V1
_database_code_CSD VIPJEK
_database_code_depnum_ccdc_archive 'CCDC 643467'
_chemical_formula_sum 'C32 H108 Cu12 N16 O62'
_chemical_formula_moiety
;
(C28 H48 Cu11 N12 O40 2-)n,n(C4 H20 Cu1 N4 O2 2+),20n(H2 O1)
;
_journal_coden_Cambridge 440
_journal_volume 31
_journal_year 2007
_journal_page_first 1798
_journal_name_full 'New J.Chem. '
loop_
_publ_author_name
"E.Gumienna-Kontecka"
"I.A.Golenya"
"N.M.Dudarenko"
"A.Dobosz"
"M.Haukka"
"I.O.Fritsky"
"J.Swiatek-Kozlowska"
_chemical_name_systematic
;
catena-(bis(Ethylenediamine)-diaqua-copper(ii) 
bis(\m~4~-malonomonohydroxamato-N,O,O,O,O',O'')-bis(\m~4~-malonomonohydroxamat
o-N,O,O,O',O'',O''')-tetrakis(\m~3~-malonomonohydroxamato-N,O,O,O',O'')-bis(\m
~2~-aqua)-bis(ethylenediamine)-hexaaqua-undeca-copper(ii) icosahydrate)
;
_cell_volume   2069.747
_exptl_crystal_colour 'blue green'
_exptl_crystal_density_diffrn 1.983
_exptl_special_details
;
magnetic properties

;
_exptl_crystal_description 'plate'
_diffrn_ambient_temperature 120
#These two values have been output from a single CSD field.
_refine_ls_R_factor_gt 0.0434
_refine_ls_wR_factor_gt 0.0434
_symmetry_cell_setting triclinic
_symmetry_space_group_name_H-M 'P -1'
_symmetry_Int_Tables_number 2
loop_
_symmetry_equiv_pos_site_id
_symmetry_equiv_pos_as_xyz
1 x,y,z
2 -x,-y,-z
_cell_length_a 11.2883(4)
_cell_length_b 13.0045(4)
_cell_length_c 14.3048(6)
_cell_angle_alpha 84.252(2)
_cell_angle_beta 82.162(2)
_cell_angle_gamma 88.661(2)
_cell_formula_units_Z 1
loop_
_atom_type_symbol
_atom_type_radius_bond
C 0.68
H 0.23
Cu 1.46
N 0.68
O 0.82
loop_
_atom_site_label
_atom_site_type_symbol
_atom_site_fract_x
_atom_site_fract_y
_atom_site_fract_z
Cu1 Cu -0.16838(4) 0.30331(4) -0.21611(4)
Cu2 Cu 0.11032(4) 0.15354(4) -0.03562(4)
Cu3 Cu 0.02413(4) 0.39091(4) 0.17881(4)
Cu4 Cu -0.26721(4) 0.53354(4) 0.00644(4)
Cu5 Cu -0.06169(4) 0.35647(4) -0.02993(3)
Cu6 Cu 0.00000 0.50000 -0.50000
O1 O 0.1317(4) -0.1183(3) -0.1450(3)
O2 O 0.1407(2) 0.0170(2) -0.0683(2)
O3 O -0.1107(2) 0.1629(2) -0.2435(2)
O4 O -0.0329(2) 0.2925(2) -0.1460(2)
O5 O -0.3012(3) 0.7805(2) 0.1481(2)
O6 O -0.3396(2) 0.6474(2) 0.0727(2)
O7 O -0.0817(2) 0.4949(2) 0.2399(2)
O8 O -0.0790(3) 0.4181(2) 0.0848(2)
O9 O 0.2905(3) 0.3072(3) 0.3312(3)
O10 O 0.1310(3) 0.3706(2) 0.2717(2)
O11 O 0.1898(2) 0.1342(2) 0.0781(2)
O12 O 0.0745(2) 0.2841(2) 0.0095(2)
O13 O -0.4666(3) 0.3630(3) -0.3435(3)
O14 O -0.3028(3) 0.3049(2) -0.2858(2)
O15 O -0.3684(2) 0.5406(2) -0.0942(2)
O16 O -0.1668(2) 0.4558(2) -0.08251(19)
O17 O -0.0331(3) 0.3828(2) -0.3454(2)
H1 H 0.00450 0.42080 -0.31360
H2 H 0.02250 0.32890 -0.37020
O18 O -0.1069(3) 0.2475(2) 0.2772(2)
H3 H -0.11850 0.19530 0.24520
H4 H -0.08570 0.20750 0.33000
O19 O -0.3965(3) 0.3831(2) 0.0839(2)
H5 H -0.46770 0.40860 0.08840
H6 H -0.38290 0.36390 0.14010
O20 O -0.2360(3) 0.2305(2) 0.0054(2)
H7 H -0.20190 0.19740 0.05620
H8 H -0.28520 0.27650 0.03300
N1 N 0.0144(3) 0.1905(2) -0.1370(2)
N2 N -0.2320(3) 0.4227(2) -0.1522(2)
N3 N 0.1110(3) 0.2949(3) 0.0986(2)
N4 N -0.1614(3) 0.4987(2) 0.1016(2)
N5 N 0.0713(5) 0.6150(3) -0.4424(3)
H9 H 0.03230 0.67640 -0.45660
H10 H 0.06350 0.60130 -0.37760
N6 N 0.1723(5) 0.4546(4) -0.5350(3)
H11 H 0.18090 0.38520 -0.51700
H12 H 0.19400 0.46580 -0.59950
C1 C 0.1025(4) -0.0274(3) -0.1325(3)
C2 C 0.0168(4) 0.0228(3) -0.1974(3)
H13 H 0.05590 0.01870 -0.26320
H14 H -0.05440 -0.02200 -0.18870
C3 C -0.0289(3) 0.1321(3) -0.1918(3)
C4 C -0.3907(4) 0.3686(3) -0.2885(3)
C5 C -0.4115(4) 0.4562(3) -0.2262(3)
H15 H -0.41110 0.52080 -0.26910
H16 H -0.49370 0.44840 -0.19220
C6 C -0.3318(4) 0.4735(3) -0.1534(3)
C7 C 0.1717(4) 0.2133(3) 0.1259(3)
C8 C 0.2250(4) 0.2110(3) 0.2173(3)
H17 H 0.31140 0.19550 0.20200
H18 H 0.18980 0.15110 0.25920
C9 C 0.2149(4) 0.3029(3) 0.2763(3)
C10 C -0.1570(4) 0.5323(3) 0.1832(3)
C11 C -0.2417(4) 0.6168(3) 0.2150(3)
H19 H -0.19880 0.66150 0.25110
H20 H -0.30820 0.58440 0.25970
C12 C -0.2961(3) 0.6863(3) 0.1388(3)
C13 C 0.1990(7) 0.6228(4) -0.4819(4)
H21 H 0.24270 0.66110 -0.44110
H22 H 0.20780 0.66000 -0.54630
C14 C 0.2483(7) 0.5148(5) -0.4860(4)
H23 H 0.33080 0.51690 -0.52010
H24 H 0.25110 0.48180 -0.42090
Cu7 Cu 0.50000 1.00000 0.00000
O21 O 0.5367(3) 0.8098(2) -0.0321(3)
H25 H 0.57380 0.76440 0.00270
H26 H 0.46260 0.79310 -0.02140
N7 N 0.3528(3) 0.9544(3) 0.0868(3)
H27 H 0.29750 1.00760 0.08980
H28 H 0.31920 0.89950 0.06460
N8 N 0.5803(3) 0.9845(3) 0.1173(3)
H29 H 0.62690 0.92550 0.11850
H30 H 0.62840 1.04030 0.11850
C15 C 0.3868(5) 0.9239(6) 0.1811(5)
H31 H 0.31890 0.93750 0.23000
H32 H 0.40430 0.84880 0.18730
C16 C 0.4885(5) 0.9784(7) 0.1969(4)
H33 H 0.52110 0.94340 0.25280
H34 H 0.46370 1.04920 0.21150
O22 O 0.0030(3) 0.1388(2) 0.4395(2)
H35 H -0.04120 0.10460 0.49430
H36 H 0.00300 0.08570 0.40080
O23 O 0.4602(5) 0.1778(4) 0.3862(3)
H37 H 0.37880 0.20890 0.40020
H38 H 0.46580 0.14890 0.44150
O24 O 0.6635(3) 0.3400(3) 0.2647(3)
H39 H 0.73980 0.31890 0.26670
H40 H 0.61810 0.33200 0.31760
O25 O 0.7166(5) 0.0486(4) 0.3706(4)
H41 H 0.65660 0.08170 0.37190
H42 H 0.71250 -0.01570 0.35960
O26 O 0.1300(3) 0.9547(3) 0.3945(2)
H43 H 0.10290 0.93920 0.34430
H44 H 0.21360 0.96060 0.39080
O27 O 0.3545(3) 0.9771(3) 0.4382(3)
H45 H 0.36350 1.04130 0.42090
H46 H 0.33240 0.96910 0.49770
O28 O 0.5042(3) 0.8034(2) 0.4298(2)
H47 H 0.44240 0.75880 0.41200
H48 H 0.44230 0.85440 0.45240
O29 O 0.7187(3) 0.8522(3) 0.3207(2)
H49 H 0.70980 0.82140 0.26200
H50 H 0.64580 0.83750 0.35870
O30 O 0.8785(3) 0.7582(2) 0.4306(2)
H51 H 0.90290 0.80100 0.46470
H52 H 0.82720 0.80090 0.40150
O31 O 0.5327(11) 0.4215(9) 0.4082(7)
H53 H 0.51380 0.48300 0.38920
H54 H 0.49280 0.39170 0.45780
O32 O 0.5944(10) 0.1534(8) 0.2438(8)
H55 H 0.66590 0.17180 0.24490
H56 H 0.54680 0.16180 0.29390
Cu1A Cu 0.16838(4) 0.69669(4) -0.78389(4)
Cu2A Cu -0.11032(4) 0.84646(4) 0.03562(4)
Cu2A* Cu -0.11032(4) 0.84646(4) -0.96438(4)
Cu2* Cu 0.11032(4) 0.15354(4) -1.03562(4)
Cu3A Cu -0.02413(4) 0.60909(4) -0.17881(4)
Cu3A* Cu -0.02413(4) 0.60909(4) -1.17881(4)
Cu3* Cu 0.02413(4) 0.39091(4) -0.82119(4)
Cu4A Cu 0.26721(4) 0.46646(4) -1.00644(4)
Cu5A Cu 0.06169(4) 0.64353(4) -0.97007(3)
O1A O -0.1317(4) 1.1183(3) -0.8550(3)
O2A O -0.1407(2) 0.9830(2) -0.9317(2)
O3A O 0.1107(2) 0.8371(2) -0.7565(2)
O4A O 0.0329(2) 0.7075(2) -0.8540(2)
O5A O 0.3012(3) 0.2195(2) -0.1481(2)
O5* O -0.3012(3) 0.7805(2) -0.8519(2)
O5A* O 0.3012(3) 0.2195(2) -1.1481(2)
O6A O 0.3396(2) 0.3526(2) -1.0727(2)
O7A O 0.0817(2) 0.5051(2) -1.2399(2)
O8A O 0.0790(3) 0.5819(2) -1.0848(2)
O9A O -0.2905(3) 0.6928(3) -1.3312(3)
O10A O -0.1310(3) 0.6294(2) -1.2717(2)
O11A O -0.1898(2) 0.8658(2) -1.0781(2)
O12A O -0.0745(2) 0.7159(2) -1.0095(2)
O13A O 0.4666(3) 0.6370(3) -0.6565(3)
O14A O 0.3028(3) 0.6951(2) -0.7142(2)
O15A O 0.3684(2) 0.4594(2) -0.9058(2)
O16A O 0.1668(2) 0.5442(2) 0.08251(19)
O16A* O 0.1668(2) 0.5442(2) -0.91749(19)
O16* O -0.1668(2) 0.4558(2) -1.08251(19)
O17A O 0.0331(3) 0.6172(2) -0.6546(2)
H1A H -0.00450 0.57920 -0.68640
H2A H -0.02250 0.67110 -0.62980
O18A O 0.1069(3) 0.7525(2) -1.2772(2)
H3A H 0.11850 0.80470 -1.24520
H4A H 0.08570 0.79250 -1.33000
O19A O 0.3965(3) 0.6169(2) -1.0839(2)
H5A H 0.46770 0.59140 -1.08840
H6A H 0.38290 0.63610 -1.14010
O20A O 0.2360(3) 0.7695(2) -1.0054(2)
H7A H 0.20190 0.80260 -1.05620
H8A H 0.28520 0.72350 -1.03300
N1A N -0.0144(3) 0.8095(2) -0.8630(2)
N2A N 0.2320(3) 0.5773(2) -0.8478(2)
N3A N -0.1110(3) 0.7051(3) -1.0986(2)
N4A N 0.1614(3) 0.5013(2) -1.1016(2)
N5A N -0.0713(5) 0.3850(3) -0.5576(3)
H9A H -0.03230 0.32360 -0.54340
H10A H -0.06350 0.39870 -0.62240
N6A N -0.1723(5) 0.5454(4) -0.4650(3)
H11A H -0.18090 0.61480 -0.48300
H12A H -0.19400 0.53420 -0.40050
C1A C -0.1025(4) 1.0274(3) -0.8675(3)
C2A C -0.0168(4) 0.9772(3) -0.8026(3)
H13A H -0.05590 0.98130 -0.73680
H14A H 0.05440 1.02200 -0.81130
C3A C 0.0289(3) 0.8679(3) -0.8082(3)
C4A C 0.3907(4) 0.6314(3) -0.7115(3)
C5A C 0.4115(4) 0.5438(3) -0.7738(3)
H15A H 0.41110 0.47920 -0.73090
H16A H 0.49370 0.55160 -0.80780
C6A C 0.3318(4) 0.5265(3) -0.8466(3)
C7A C -0.1717(4) 0.7867(3) -1.1259(3)
C8A C -0.2250(4) 0.7890(3) -1.2173(3)
H17A H -0.31140 0.80450 -1.20200
H18A H -0.18980 0.84890 -1.25920
C9A C -0.2149(4) 0.6971(3) -1.2763(3)
C10A C 0.1570(4) 0.4677(3) -1.1832(3)
C11A C 0.2417(4) 0.3832(3) -1.2150(3)
H19A H 0.19880 0.33850 -1.25110
H20A H 0.30820 0.41560 -1.25970
C12A C 0.2961(3) 0.3137(3) -1.1388(3)
C13A C -0.1990(7) 0.3772(4) -0.5181(4)
H21A H -0.24270 0.33890 -0.55890
H22A H -0.20780 0.34000 -0.45370
C14A C -0.2483(7) 0.4852(5) -0.5140(4)
H23A H -0.33080 0.48310 -0.47990
H24A H -0.25110 0.51820 -0.57910
O21A O 0.4633(3) 1.1902(2) 0.0321(3)
H25A H 0.42620 1.23560 -0.00270
H26A H 0.53740 1.20690 0.02140
N7A N 0.6472(3) 1.0456(3) -0.0868(3)
H27A H 0.70250 0.99240 -0.08980
H28A H 0.68080 1.10050 -0.06460
N8A N 0.4197(3) 1.0155(3) -0.1173(3)
H29A H 0.37310 1.07450 -0.11850
H30A H 0.37160 0.95970 -0.11850
C15A C 0.6132(5) 1.0761(6) -0.1811(5)
H31A H 0.68110 1.06250 -0.23000
H32A H 0.59570 1.15120 -0.18730
C16A C 0.5115(5) 1.0216(7) -0.1969(4)
H33A H 0.47890 1.05660 -0.25280
H34A H 0.53630 0.95080 -0.21150
#END
