
#######################################################################
#
#                 Cambridge Crystallographic Data Centre
#                                CCDC
#
#######################################################################
#
# If this CIF has been generated from an entry in the Cambridge
# Structural Database, then it will include bibliographic, chemical,
# crystal, experimental, refinement or atomic coordinate data resulting
# from the CCDC's data processing and validation procedures.
#
#######################################################################

data_CSD_CIF_VIPMUD
_audit_creation_date 2008-01-22
_audit_creation_method CSD-ConQuest-V1
_database_code_CSD VIPMUD
_database_code_depnum_ccdc_archive 'CCDC 636547'
_chemical_formula_sum 'C30 H22 Bi2 Fe1 I8 N6'
_chemical_formula_moiety
;
(Bi2 I8 2-)n,n(C30 H22 Fe1 N6 2+)
;
_journal_coden_Cambridge 971
_journal_volume 9
_journal_year 2007
_journal_page_first 895
_journal_name_full 'Solid State Sciences '
loop_
_publ_author_name
"M.A.Tershansy"
"A.M.Goforth"
"L.Peterson Junior"
"M.C.Burns"
"M.D.Smith"
"H.-C.zur Loye"
_chemical_name_systematic
;
catena-(bis(2,2':6',2''-Terpyridine)-iron(ii) 
tetrakis(\m~2~-iodo)-tetraiodo-di-bismuth(iii))
;
_cell_volume   4309.778
_exptl_crystal_colour 'dark red'
_exptl_crystal_density_diffrn 3.014
_exptl_special_details
;
isostructural with the Co(ii) analogue

;
_exptl_crystal_description 'block'
_diffrn_ambient_temperature 150
#These two values have been output from a single CSD field.
_refine_ls_R_factor_gt 0.0262
_refine_ls_wR_factor_gt 0.0262
_symmetry_cell_setting monoclinic
_symmetry_space_group_name_H-M 'P 21/n'
_symmetry_Int_Tables_number 14
loop_
_symmetry_equiv_pos_site_id
_symmetry_equiv_pos_as_xyz
1 x,y,z
2 1/2-x,1/2+y,1/2-z
3 -x,-y,-z
4 -1/2+x,-1/2-y,-1/2+z
_cell_length_a 16.4478(6)
_cell_length_b 16.0645(6)
_cell_length_c 16.4498(6)
_cell_angle_alpha 90
_cell_angle_beta 97.449(1)
_cell_angle_gamma 90
_cell_formula_units_Z 4
loop_
_atom_type_symbol
_atom_type_radius_bond
C 0.68
H 0.23
Bi 1.54
Fe 1.34
I 1.40
N 0.68
loop_
_atom_site_label
_atom_site_type_symbol
_atom_site_fract_x
_atom_site_fract_y
_atom_site_fract_z
Bi1 Bi 0.646722(13) 0.162750(13) 0.204157(13)
Bi2 Bi 0.844343(13) -0.000749(13) 0.214273(13)
I1 I 0.65999(3) 0.29729(2) 0.33304(2)
I2 I 0.61953(3) 0.28146(3) 0.06898(3)
I3 I 0.47187(2) 0.12843(3) 0.20523(2)
I4 I 0.84798(3) 0.18450(3) 0.20793(3)
I5 I 0.70955(2) 0.02842(2) 0.34504(2)
I6 I 0.67179(2) 0.01228(2) 0.08663(2)
I7 I 0.98578(3) -0.00649(3) 0.34003(3)
I8 I 0.93500(2) -0.00379(3) 0.07609(2)
C1 C 0.0900(4) 0.3616(4) 0.0094(3)
H1 H 0.13750 0.35190 -0.01640
C2 C 0.0156(4) 0.3744(4) -0.0390(4)
H2 H 0.01260 0.37540 -0.09710
C3 C -0.0543(4) 0.3859(5) -0.0015(4)
H3 H -0.10620 0.39340 -0.03340
C4 C -0.0474(4) 0.3863(4) 0.0828(4)
H4 H -0.09470 0.39450 0.10950
C5 C 0.0280(3) 0.3747(3) 0.1284(3)
C6 C 0.0435(4) 0.3748(3) 0.2188(3)
C7 C -0.0124(4) 0.3841(4) 0.2736(4)
H5 H -0.06880 0.39300 0.25450
C8 C 0.0144(4) 0.3804(4) 0.3564(4)
H6 H -0.02350 0.38640 0.39500
C9 C 0.0973(4) 0.3678(4) 0.3834(4)
H7 H 0.11650 0.36560 0.44040
C10 C 0.1515(3) 0.3587(3) 0.3261(3)
C11 C 0.2401(4) 0.3437(3) 0.3413(3)
C12 C 0.2852(4) 0.3353(3) 0.4181(3)
H8 H 0.25900 0.33840 0.46620
C13 C 0.3692(4) 0.3225(4) 0.4238(4)
H9 H 0.40140 0.31630 0.47570
C14 C 0.4050(4) 0.3188(3) 0.3530(4)
H10 H 0.46260 0.31140 0.35560
C15 C 0.3570(3) 0.3259(3) 0.2782(4)
H11 H 0.38270 0.32250 0.22990
C16 C 0.1328(3) 0.1762(4) 0.1949(3)
H12 H 0.09880 0.20140 0.23040
C17 C 0.1269(4) 0.0914(3) 0.1813(4)
H13 H 0.08910 0.05900 0.20680
C18 C 0.1755(4) 0.0548(4) 0.1312(4)
H14 H 0.17170 -0.00340 0.12120
C19 C 0.2310(4) 0.1026(4) 0.0946(4)
H15 H 0.26650 0.07740 0.06050
C20 C 0.2335(3) 0.1879(3) 0.1086(3)
C21 C 0.2852(3) 0.2468(3) 0.0700(3)
C22 C 0.3393(4) 0.2301(4) 0.0141(3)
H16 H 0.34920 0.17460 -0.00170
C23 C 0.3785(4) 0.2962(4) -0.0181(4)
H17 H 0.41590 0.28570 -0.05630
C24 C 0.3642(3) 0.3774(4) 0.0045(4)
H18 H 0.39100 0.42270 -0.01790
C25 C 0.3099(3) 0.3909(3) 0.0605(3)
C26 C 0.2830(3) 0.4702(3) 0.0926(3)
C27 C 0.3076(3) 0.5480(4) 0.0681(4)
H19 H 0.34480 0.55260 0.02870
C28 C 0.2774(4) 0.6185(4) 0.1017(4)
H20 H 0.29290 0.67220 0.08500
C29 C 0.2243(4) 0.6101(3) 0.1599(3)
H21 H 0.20420 0.65790 0.18480
C30 C 0.2009(3) 0.5313(3) 0.1815(3)
H22 H 0.16290 0.52590 0.22000
Fe1 Fe 0.19783(5) 0.34626(4) 0.16868(4)
N1 N 0.0971(3) 0.3624(3) 0.0916(3)
N2 N 0.1241(3) 0.3629(3) 0.2456(3)
N3 N 0.2752(3) 0.3375(3) 0.2705(3)
N4 N 0.1856(3) 0.2245(3) 0.1593(3)
N5 N 0.2715(3) 0.3260(3) 0.0924(3)
N6 N 0.2303(3) 0.4616(3) 0.1494(3)
Bi2A Bi 0.655657(13) 0.499251(13) 0.285727(13)
I1A I 0.84001(3) -0.20271(2) 0.16696(2)
#END
