
#######################################################################
#
#                 Cambridge Crystallographic Data Centre
#                                CCDC
#
#######################################################################
#
# If this CIF has been generated from an entry in the Cambridge
# Structural Database, then it will include bibliographic, chemical,
# crystal, experimental, refinement or atomic coordinate data resulting
# from the CCDC's data processing and validation procedures.
#
#######################################################################

data_CSD_CIF_VIPRAP
_audit_creation_date 2013-10-07
_audit_creation_method CSD-ConQuest-V1
_database_code_CSD VIPRAP
_database_code_depnum_ccdc_archive 'CCDC 914939'
_chemical_formula_sum 'C39 H69 Cd4 Mo12 N6 O75 P9'
_chemical_formula_moiety
;
(C13 H33 Cd4 Mo12 N2 O68 P9 4-)n,n(C26 H22 N4 4+),7n(H2 O1)
;
_journal_coden_Cambridge 1182
_journal_volume 24
_journal_year 2013
_journal_page_first 877
_journal_name_full 'Chin.Chem.Lett. '
loop_
_publ_author_name
"Xiu-Li Wang"
"Jing-Jing Cao"
"Ji-Lin Hou"
"Guo-Cheng Liu"
"Dan Zhao"
"Xiao-Jing Liu"
"Na Li"
"Ai-Xiang Tian"
_chemical_name_systematic
;
catena-(4,4',4'',4'''-(benzene-1,2,4,5-tetrayl)-tetrakis(pyridinium) 
bis(\m~7~-phosphato)-(\m~5~-hydrogen phosphato)-(\m~4~-hydrogen 
phosphato)-bis(\m~3~-hydrogen phosphato)-(\m~3~-dihydrogen 
phosphato)-tris(\m~3~-hydroxo)-pentakis(\m~3~-oxo)-bis(\m~2~-dihydrogen 
phosphato)-(\m~2~-hydroxo)-nonakis(\m~2~-oxo)-(4-(3-(pyridin-4-yl)propyl)pyrid
inium)-diaqua-dodecaoxo-tetra-cadmium-dodeca-molybdenum(v) heptahydrate)
;
_cell_volume   9297.866
_exptl_crystal_density_diffrn 2.644
_exptl_special_details
;
The anion H atoms have not been located and have been placed arbitrarily in 
the 2D diagram
;
_diffrn_ambient_temperature 293
#These two values have been output from a single CSD field.
_refine_ls_R_factor_gt 0.053
_refine_ls_wR_factor_gt 0.053
_symmetry_cell_setting monoclinic
_symmetry_space_group_name_H-M 'P 21/c'
_symmetry_Int_Tables_number 14
loop_
_symmetry_equiv_pos_site_id
_symmetry_equiv_pos_as_xyz
1 x,y,z
2 -x,1/2+y,1/2-z
3 -x,-y,-z
4 x,-1/2-y,-1/2+z
_cell_length_a 15.672(5)
_cell_length_b 23.839(5)
_cell_length_c 27.654(5)
_cell_angle_alpha 90
_cell_angle_beta 115.850(12)
_cell_angle_gamma 90
_cell_formula_units_Z 4
loop_
_atom_type_symbol
_atom_type_radius_bond
C 0.68
H 0.23
Cd 1.44
Mo 1.54
N 0.68
O 0.68
P 1.05
loop_
_atom_site_label
_atom_site_type_symbol
_atom_site_fract_x
_atom_site_fract_y
_atom_site_fract_z
C1 C 1.2586(13) 0.9329(8) 0.3391(7)
H1 H 1.29540 0.92710 0.37560
N1 N 1.2799(8) 0.9623(5) 0.5959(4)
O1 O 1.6568(4) 0.8346(3) 0.6054(2)
O2 O 1.8628(6) 0.9081(4) 0.8314(3)
H2 H 1.89730 0.87930 0.83540
H3 H 1.87550 0.92240 0.86190
P1 P 1.9885(2) 0.85478(13) 0.76022(11)
Mo1 Mo 1.46489(6) 0.76042(4) 0.64377(3)
Cd1 Cd 1.62951(5) 0.74392(3) 0.57348(3)
C2 C 1.2955(12) 0.9623(7) 0.3091(7)
H4 H 1.35780 0.97510 0.32480
N2 N 1.2419(10) 0.9712(6) 0.2595(6)
H5 H 1.26620 0.98790 0.24090
O3 O 1.5964(4) 0.6517(3) 0.5403(2)
O4 O 1.3883(5) 0.9085(3) 0.8092(3)
H6 H 1.37860 0.94280 0.81380
H7 H 1.36120 0.88780 0.82340
P2 P 1.47535(19) 0.87345(11) 0.71454(10)
Mo2 Mo 1.79011(7) 0.65163(4) 0.69577(3)
Cd2 Cd 1.39608(6) 0.99275(4) 0.67875(3)
C3 C 1.151(2) 0.9565(12) 0.2347(13)
H8 H 1.11320 0.96650 0.19930
O5 O 1.5368(5) 0.7176(3) 0.6131(3)
P3 P 1.2931(2) 1.09754(13) 0.72127(13)
Mo3 Mo 1.88364(6) 0.73974(4) 0.68929(3)
Cd3 Cd 1.54798(6) 0.89104(3) 0.85048(3)
C4 C 1.116(2) 0.9247(14) 0.2650(14)
H9 H 1.05360 0.91220 0.24870
O6 O 1.7632(5) 0.7052(3) 0.6372(3)
P4 P 1.70470(19) 0.77341(11) 0.72479(10)
Mo4 Mo 1.59203(6) 0.88131(4) 0.63847(3)
Cd4 Cd 1.70659(5) 0.88345(3) 0.79052(3)
C5 C 1.1676(14) 0.9125(9) 0.3146(10)
O7 O 1.6507(5) 0.6230(3) 0.6485(3)
P5 P 1.7765(2) 0.88930(12) 0.93088(10)
Mo5 Mo 1.54944(6) 0.66370(4) 0.66902(3)
C6 C 1.1402(19) 0.8829(9) 0.3633(15)
H10 H 1.07770 0.86600 0.34640
H11 H 1.18560 0.85370 0.38210
O8 O 1.4411(6) 1.0407(3) 0.6238(3)
P6 P 1.26452(19) 0.63610(12) 0.38494(10)
Mo6 Mo 1.46696(6) 0.83672(4) 0.45350(3)
C7 C 1.1422(17) 0.9296(11) 0.4051(9)
H12 H 1.20740 0.93850 0.42930
H13 H 1.11210 0.96360 0.38590
O9 O 1.4946(5) 0.7811(3) 0.5110(2)
P7 P 1.54768(18) 0.78609(11) 0.92182(10)
Mo7 Mo 1.70634(6) 0.82273(4) 0.47547(3)
C8 C 1.0955(17) 0.9111(11) 0.4346(9)
H14 H 1.09060 0.87050 0.43490
H15 H 1.03360 0.92810 0.42340
O10 O 1.7089(5) 0.9007(3) 0.7020(2)
P8 P 1.4518(2) 1.10293(12) 0.62782(11)
Mo8 Mo 1.48078(6) 0.61550(4) 0.48638(3)
C9 C 1.1712(19) 0.9352(13) 0.4881(11)
O11 O 1.8242(5) 0.8358(3) 0.9610(3)
P9 P 1.5998(2) 1.00914(12) 0.79874(11)
Mo9 Mo 1.37227(6) 0.74875(4) 0.45998(3)
C10 C 1.2358(14) 0.8988(8) 0.5224(7)
H16 H 1.24440 0.86360 0.51070
O12 O 2.0725(5) 0.8768(3) 0.7492(3)
Mo10 Mo 1.65863(6) 0.60500(4) 0.50600(3)
C11 C 1.2871(10) 0.9145(6) 0.5738(6)
H17 H 1.33220 0.88910 0.59610
O13 O 1.8903(5) 0.6957(3) 0.7503(3)
Mo11 Mo 1.78846(6) 0.72498(4) 0.50103(3)
C12 C 1.2151(15) 0.9979(8) 0.5629(8)
H18 H 1.20370 1.03080 0.57710
O14 O 1.7201(5) 0.7697(3) 0.5327(3)
Mo12 Mo 1.77103(6) 0.87235(4) 0.65905(3)
C13 C 1.165(2) 0.9881(13) 0.5092(13)
H19 H 1.12690 1.01610 0.48660
O15 O 1.1807(5) 0.6114(3) 0.3941(3)
O16 O 1.5568(5) 0.9805(3) 0.8324(3)
O17 O 1.5262(5) 1.1221(3) 0.6094(3)
O18 O 1.2407(5) 0.6320(3) 0.3265(3)
O19 O 1.8470(5) 0.8112(3) 0.6382(2)
O20 O 1.5047(5) 0.7135(3) 0.7074(3)
O21 O 1.8991(5) 0.8869(3) 0.7237(3)
O22 O 1.4890(5) 1.1217(3) 0.6885(3)
O23 O 1.7472(5) 0.7702(3) 0.4365(3)
O24 O 1.5248(5) 1.0307(3) 0.7452(3)
O25 O 1.6757(5) 0.9747(3) 0.7922(3)
O26 O 1.3552(5) 0.7403(3) 0.6034(3)
O27 O 1.7798(5) 0.6557(3) 0.5481(3)
O28 O 1.5425(5) 0.9133(3) 0.9425(3)
O29 O 1.5194(5) 0.9053(3) 0.6821(3)
O30 O 1.6586(5) 1.0631(3) 0.8323(3)
O31 O 1.8556(5) 0.9273(3) 0.9299(3)
O32 O 1.9773(5) 0.7921(3) 0.7468(3)
O33 O 1.4739(5) 0.8296(3) 0.5983(3)
O34 O 1.6921(4) 0.7096(3) 0.7160(3)
O35 O 1.3975(5) 0.9113(3) 0.7162(3)
O36 O 1.4692(5) 0.5614(3) 0.5214(3)
O37 O 1.6907(5) 0.5482(3) 0.5452(3)
O38 O 1.4293(5) 0.8186(3) 0.6858(3)
O39 O 1.5611(5) 0.9376(3) 0.5985(3)
O40 O 1.4723(4) 0.8055(3) 0.9407(3)
O41 O 1.5517(5) 0.8618(3) 0.7715(3)
O42 O 1.7274(5) 0.9203(3) 0.9613(3)
O43 O 1.5614(4) 0.7228(3) 0.9313(3)
O44 O 2.0121(5) 0.8645(4) 0.8187(3)
O45 O 1.2954(6) 1.0406(3) 0.7018(3)
O46 O 1.4074(5) 0.6758(3) 0.5090(3)
O47 O 1.4156(5) 0.8881(3) 0.4726(3)
O48 O 1.6093(4) 0.8016(3) 0.6874(2)
O49 O 1.2984(5) 0.7785(3) 0.4813(3)
O50 O 1.5171(5) 0.8019(3) 0.8638(2)
O51 O 1.7801(4) 0.7928(3) 0.7062(2)
O52 O 1.3899(5) 1.1172(3) 0.7621(3)
O53 O 1.2603(6) 1.1384(4) 0.6696(4)
O54 O 1.6428(4) 0.8152(3) 0.9585(2)
O55 O 1.7337(5) 0.7908(3) 0.7825(2)
O56 O 1.3631(5) 0.7945(3) 0.3997(3)
O57 O 1.6078(5) 0.8649(3) 0.4970(3)
O58 O 1.3523(5) 0.6022(3) 0.4203(3)
O59 O 1.2748(5) 0.6977(3) 0.4028(3)
O60 O 1.3572(5) 1.1341(3) 0.5977(3)
O61 O 1.8996(5) 0.7442(3) 0.5405(3)
O62 O 1.7989(5) 0.8665(3) 0.5066(3)
O63 O 1.7813(5) 0.9262(3) 0.6236(3)
O64 O 1.2192(5) 1.1058(3) 0.7418(3)
O65 O 1.8457(5) 0.6015(3) 0.6788(3)
O66 O 1.9602(5) 0.7098(3) 0.6702(3)
O67 O 1.4595(5) 0.6195(3) 0.6349(3)
O68 O 1.7038(5) 0.8757(3) 0.8744(3)
N3 N 0.9623(12) 0.7381(5) -0.1506(5)
H20 H 0.93630 0.73030 -0.18430
N4 N 1.2927(7) 0.7724(5) 0.2970(4)
H21 H 1.31770 0.77610 0.33140
N5 N 1.1716(13) 0.9688(6) -0.0133(8)
H22 H 1.17910 1.00190 -0.02320
N6 N 1.0813(9) 0.5619(5) 0.1620(5)
H23 H 1.07120 0.53180 0.17600
C14 C 1.0857(14) 0.9499(9) -0.0281(9)
H24 H 1.03430 0.97170 -0.05030
C15 C 1.0702(10) 0.8998(7) -0.0117(6)
H25 H 1.00830 0.88790 -0.02170
C16 C 1.1442(9) 0.8659(6) 0.0194(4)
C17 C 1.2355(9) 0.8856(6) 0.0320(5)
H26 H 1.28750 0.86260 0.05080
C18 C 1.2493(11) 0.9382(7) 0.0171(6)
H27 H 1.31000 0.95240 0.02740
C19 C 0.9129(10) 0.7305(7) -0.1229(6)
H28 H 0.85040 0.71820 -0.13970
C20 C 0.9552(10) 0.7411(7) -0.0689(5)
H29 H 0.92140 0.73510 -0.04880
C21 C 1.0468(8) 0.7604(5) -0.0440(4)
C22 C 1.0918(9) 0.7692(6) -0.0745(5)
H30 H 1.15290 0.78380 -0.05850
C23 C 1.0526(12) 0.7577(7) -0.1279(6)
H31 H 1.08630 0.76300 -0.14810
C24 C 1.0057(10) 0.5902(6) 0.1274(6)
H32 H 0.94460 0.57630 0.11630
C25 C 1.1719(11) 0.5769(7) 0.1767(6)
H33 H 1.22190 0.55390 0.19840
C26 C 1.1877(11) 0.6280(7) 0.1582(5)
H34 H 1.24950 0.64090 0.16990
C27 C 1.1138(10) 0.6602(6) 0.1227(5)
C28 C 1.0214(9) 0.6398(6) 0.1090(5)
H35 H 0.96970 0.66130 0.08660
C29 C 1.3011(10) 0.7855(6) 0.2165(5)
H36 H 1.33510 0.79770 0.19810
C30 C 1.2112(9) 0.7635(5) 0.1880(4)
C31 C 1.1648(9) 0.7446(5) 0.2186(5)
H37 H 1.10470 0.72870 0.20180
C32 C 1.2091(9) 0.7500(6) 0.2731(5)
H38 H 1.17880 0.73750 0.29350
C33 C 1.3406(10) 0.7896(7) 0.2713(5)
H39 H 1.40120 0.80440 0.29000
C34 C 1.0832(9) 0.7148(5) 0.0420(5)
H40 H 1.04650 0.68480 0.02240
C35 C 1.1291(11) 0.7133(6) 0.1002(5)
C36 C 1.1609(12) 0.7617(6) 0.1285(5)
C37 C 1.1742(10) 0.8109(6) 0.1019(5)
H41 H 1.21150 0.84060 0.12170
C38 C 1.1278(12) 0.8127(6) 0.0434(6)
C39 C 1.0954(11) 0.7641(6) 0.0149(5)
O69 O 1.4216(12) 1.0112(5) 0.5126(5)
H42 H 1.42630 1.01450 0.54430
H43 H 1.43140 0.97690 0.50800
O70 O 1.0736(12) 0.4752(7) 0.2196(9)
H44 H 1.09320 0.44370 0.21400
H45 H 1.11510 0.50020 0.22410
O71 O 1.6108(7) 0.7630(5) 0.3185(4)
H46 H 1.63940 0.77520 0.35050
H47 H 1.65230 0.74900 0.30990
O72 O 1.4212(11) 0.4915(5) 0.3747(5)
H48 H 1.40080 0.51830 0.35220
H49 H 1.40290 0.49620 0.39910
O73 O 0.9445(15) 0.9298(9) 0.0866(9)
H50 H 0.95670 0.92410 0.11930
H51 H 0.98660 0.91390 0.07960
O74 O 1.072(4) 0.5037(11) 0.328(3)
H52 H 1.03720 0.53300 0.31890
H53 H 1.05420 0.48330 0.34780
O75 O 1.1392(9) 0.9683(6) 0.1095(7)
H54 H 1.18470 0.94650 0.11340
H55 H 1.14360 0.99840 0.09420
Mo2A Mo 1.20989(7) 1.15163(4) 0.80423(3)
Mo5A Mo 1.45056(6) 1.16370(4) 0.83098(3)
Mo6B Mo 1.53304(6) 1.16328(4) 0.54650(3)
Mo6C Mo 1.46696(6) 0.66328(4) 0.95350(3)
Mo7B Mo 1.29366(6) 1.17727(4) 0.52453(3)
Mo7C Mo 1.70634(6) 0.67727(4) 0.97547(3)
Mo8C Mo 1.48078(6) 0.88450(4) 0.98638(3)
O11C O 1.8242(5) 0.6642(3) 0.4610(3)
Mo9C Mo 1.37227(6) 0.75125(4) 0.95998(3)
Mo10C Mo 1.65863(6) 0.89500(4) 1.00600(3)
Mo11C Mo 1.78846(6) 0.77502(4) 1.00103(3)
O17B O 1.4738(5) 0.8779(3) 0.3906(3)
O28C O 1.5425(5) 0.5867(3) 0.4425(3)
O40C O 1.4723(4) 0.6945(3) 0.4407(3)
O42C O 1.7274(5) 0.5797(3) 0.4613(3)
O43C O 1.5614(4) 0.7772(3) 0.4313(3)
O52A O 1.6101(5) 0.6172(3) 0.7379(3)
O54C O 1.6428(4) 0.6848(3) 0.4585(2)
O60B O 1.6428(5) 0.8659(3) 0.4023(3)
O64A O 1.7808(5) 0.6058(3) 0.7582(3)
#END
