
#######################################################################
#
#                 Cambridge Crystallographic Data Centre
#                                CCDC
#
#######################################################################
#
# If this CIF has been generated from an entry in the Cambridge
# Structural Database, then it will include bibliographic, chemical,
# crystal, experimental, refinement or atomic coordinate data resulting
# from the CCDC's data processing and validation procedures.
#
#######################################################################

data_CSD_CIF_VIQTOF
_audit_creation_date 2008-04-07
_audit_creation_method CSD-ConQuest-V1
_database_code_CSD VIQTOF
_database_code_depnum_ccdc_archive 'CCDC 641672'
_chemical_formula_sum 'C4 H24 Cu1 K2.6 Mo5 O35 P2 Rb1.4'
_chemical_formula_moiety
;
(C4 H10 Cu1 Mo5 O28 P2 4-)n,2.6n(K1 1+),1.4n(Rb1 1+),7n(H2 O1)
;
_journal_coden_Cambridge 1133
_journal_volume 18
_journal_year 2007
_journal_page_first 697
_journal_name_full 'J.Cluster Sci. '
loop_
_publ_author_name
"E.V.Chubarova"
"C.Klock"
"M.H.Dickman"
"U.Kortz"
_chemical_name_systematic
;
catena-(Tri-potassium rubidium 
bis(\m~6~-phosphonoacetato)-pentakis(\m~2~-oxo)-triaqua-decaoxo-copper(ii)-pen
ta-molybdenum heptahydrate)
;
_cell_volume   1684.572
_exptl_crystal_colour 'green'
_exptl_crystal_description 'irregular'
_diffrn_ambient_temperature 228
_refine_special_details
;
The alkali metal sites are disordered.

;
#These two values have been output from a single CSD field.
_refine_ls_R_factor_gt 0.0298
_refine_ls_wR_factor_gt 0.0298
_symmetry_cell_setting monoclinic
_symmetry_space_group_name_H-M 'P 21'
_symmetry_Int_Tables_number 4
loop_
_symmetry_equiv_pos_site_id
_symmetry_equiv_pos_as_xyz
1 x,y,z
2 -x,1/2+y,-z
_cell_length_a 10.0031(16)
_cell_length_b 12.2905(17)
_cell_length_c 13.711(2)
_cell_angle_alpha 90
_cell_angle_beta 92.071(8)
_cell_angle_gamma 90
_cell_formula_units_Z 2
loop_
_atom_type_symbol
_atom_type_radius_bond
C 0.68
H 0.23
Cu 1.52
K 1.33
Mo 1.40
O 0.68
P 1.05
Rb 1.47
loop_
_atom_site_label
_atom_site_type_symbol
_atom_site_fract_x
_atom_site_fract_y
_atom_site_fract_z
Rb1 Rb -0.20684(9) 0.37122(7) 0.20087(6)
Rb2? Rb 0.75629(11) 0.87914(10) 0.33252(8)
Rb3? Rb -0.03569(13) 0.58814(11) -0.00961(8)
K1? K -0.20684(9) 0.37122(7) 0.20087(6)
K2 K 0.75629(11) 0.87914(10) 0.33252(8)
K3 K -0.03569(13) 0.58814(11) -0.00961(8)
K4 K 0.20038(17) 0.24938(13) 0.37762(13)
Mo1 Mo 0.27061(5) 0.77106(4) 0.06098(4)
Mo2 Mo 0.05692(5) 0.64535(5) 0.24383(4)
Mo3 Mo 0.26769(5) 0.56376(5) 0.42626(4)
Mo4 Mo 0.58441(5) 0.57790(4) 0.34764(4)
Mo5 Mo 0.58336(5) 0.69122(5) 0.12212(4)
P1 P 0.32898(15) 0.51699(13) 0.17892(11)
P2 P 0.36313(15) 0.78810(13) 0.29669(11)
Cu1 Cu 0.52657(7) 0.13634(7) 0.26496(5)
O1 O 0.7438(5) 0.1313(5) 0.2400(4)
O2 O 0.4521(4) 0.6132(4) 0.4398(3)
O3 O -0.0773(4) 0.5802(5) 0.1914(4)
O4 O 0.2807(5) 0.4332(4) 0.4698(4)
O5 O 0.2186(5) 0.8959(4) 0.0191(3)
O6 O 0.3818(4) 0.5065(4) 0.2856(3)
O7 O 0.2147(5) 0.6361(5) 0.5230(3)
O8 O 0.7123(4) 0.7802(4) 0.1495(3)
O9 O 0.6324(5) 0.6248(4) 0.0197(3)
O10 O 0.2460(4) 0.6897(4) -0.0402(3)
O11 O 0.3801(4) 0.6214(3) 0.1311(3)
O12 O 0.5000(4) 0.7390(4) 0.2779(3)
O13 O 0.5222(4) 0.2666(4) 0.1854(3)
O14 O 0.6220(4) 0.5723(4) 0.2132(3)
O15 O 0.5202(5) 1.0052(4) 0.3411(3)
O16 O 0.3012(5) 0.2579(4) 0.1930(4)
O17 O 0.4605(4) 0.7950(4) 0.0655(3)
O18 O -0.0136(5) 0.7499(5) 0.3039(4)
O19 O 0.1798(4) 0.5145(4) 0.1716(3)
O20 O 0.2596(4) 0.6995(4) 0.3181(3)
O21 O 0.1025(4) 0.5489(4) 0.3523(3)
O22 O 0.3183(5) 1.0561(4) 0.3881(4)
O23 O 0.3125(4) 0.8564(4) 0.2112(3)
O24 O 0.6295(5) 0.4467(4) 0.3772(3)
O25 O 0.1208(4) 0.7260(4) 0.1339(3)
O26 O 0.7116(5) 0.6557(4) 0.3985(3)
C1 C 0.3965(7) 0.4075(5) 0.1099(4)
H1 H 0.33990 0.39640 0.05090
H2 H 0.48580 0.42810 0.08940
C2 C 0.4065(7) 0.3020(5) 0.1652(4)
C3 C 0.3828(7) 0.8703(5) 0.4049(5)
H3 H 0.30190 0.86550 0.44290
H4 H 0.45830 0.84320 0.44550
C4 C 0.4074(7) 0.9867(6) 0.3773(4)
O27 O 0.4895(5) 0.0407(4) 0.1476(4)
O28 O 0.5160(5) 0.2317(4) 0.3844(3)
O29 O -0.1651(5) 0.5529(4) -0.1880(4)
O30 O 0.9256(6) 0.8984(5) 0.0883(5)
O31 O -0.0417(6) 0.7952(6) -0.1022(5)
O32 O -0.0840(5) 0.5122(6) 0.4973(4)
O33 O 0.9647(6) 1.0404(7) 0.3199(4)
O34 O -0.0636(7) 0.3087(6) 0.3905(5)
Cu1* Cu 0.52657(7) 1.13634(7) 0.26496(5)
O15* O 0.5202(5) 0.0052(4) 0.3411(3)
#END
