
#######################################################################
#
#                 Cambridge Crystallographic Data Centre
#                                CCDC
#
#######################################################################
#
# If this CIF has been generated from an entry in the Cambridge
# Structural Database, then it will include bibliographic, chemical,
# crystal, experimental, refinement or atomic coordinate data resulting
# from the CCDC's data processing and validation procedures.
#
#######################################################################

data_CSD_CIF_VIQVAT
_audit_creation_date 2008-04-07
_audit_creation_method CSD-ConQuest-V1
_database_code_CSD VIQVAT
_database_code_depnum_ccdc_archive 'CCDC 641674'
_chemical_formula_sum 'C4 H28 Cu1 Mo5 Na2.75 O37 P2 Rb1.25'
_chemical_formula_moiety
;
(C4 H10 Cu1 Mo5 O28 P2 4-)n,2.75n(Na1 1+),1.25n(Rb1 1+),9n(H2 O1)
;
_journal_coden_Cambridge 1133
_journal_volume 18
_journal_year 2007
_journal_page_first 697
_journal_name_full 'J.Cluster Sci. '
loop_
_publ_author_name
"E.V.Chubarova"
"C.Klock"
"M.H.Dickman"
"U.Kortz"
_chemical_name_systematic
;
catena-(Tri-sodium rubidium 
bis(\m~6~-phosphonoacetato)-pentakis(\m~2~-oxo)-triaqua-decaoxo-copper(ii)-pen
ta-molybdenum nonahydrate)
;
_cell_volume   3581.025
_exptl_crystal_colour 'black'
_exptl_crystal_description 'tablet'
_diffrn_ambient_temperature 173
_refine_special_details
;
There is some disorder amongst the alkali metals.

;
#These two values have been output from a single CSD field.
_refine_ls_R_factor_gt 0.0576
_refine_ls_wR_factor_gt 0.0576
_symmetry_cell_setting monoclinic
_symmetry_space_group_name_H-M 'P 21/c'
_symmetry_Int_Tables_number 14
loop_
_symmetry_equiv_pos_site_id
_symmetry_equiv_pos_as_xyz
1 x,y,z
2 -x,1/2+y,1/2-z
3 -x,-y,-z
4 x,-1/2-y,-1/2+z
_cell_length_a 8.3413(7)
_cell_length_b 20.8899(11)
_cell_length_c 20.6589(18)
_cell_angle_alpha 90
_cell_angle_beta 95.853(4)
_cell_angle_gamma 90
_cell_formula_units_Z 4
loop_
_atom_type_symbol
_atom_type_radius_bond
C 0.68
H 0.23
Cu 1.52
Mo 1.41
Na 0.55
O 0.68
P 1.05
Rb 1.47
loop_
_atom_site_label
_atom_site_type_symbol
_atom_site_fract_x
_atom_site_fract_y
_atom_site_fract_z
Mo1 Mo 0.39535(9) 0.05950(3) 0.80224(4)
Mo2 Mo 0.51711(9) 0.21559(3) 0.80484(4)
Mo3 Mo 0.56630(8) 0.26791(3) 0.65272(4)
Mo4 Mo 0.50076(10) 0.14159(3) 0.54945(4)
Mo5 Mo 0.32344(8) 0.01459(3) 0.64372(3)
Cu1 Cu 0.87832(12) -0.11093(5) 0.72536(5)
P1 P 0.6727(3) 0.10976(10) 0.69764(11)
P2 P 0.2435(2) 0.16717(10) 0.6774(1)
C1 C 0.8543(10) 0.0845(4) 0.7461(5)
H1 H 0.94830 0.09890 0.72430
H2 H 0.85950 0.10630 0.78880
C2 C 0.0702(10) 0.2191(4) 0.6712(5)
H3 H 0.01970 0.21770 0.62570
H4 H -0.00880 0.20150 0.69910
C3 C 0.8689(10) 0.0135(4) 0.7576(5)
C4 C 0.1008(9) 0.2886(4) 0.6898(5)
O1 O 0.5046(8) -0.0018(3) 0.8402(3)
O2 O 0.2451(8) 0.0732(3) 0.8512(3)
O3 O 0.3895(9) 0.2455(3) 0.8574(3)
O4 O 0.7027(8) 0.2429(3) 0.8364(3)
O5 O 0.7506(8) 0.3022(3) 0.6753(3)
O6 O 0.4574(7) 0.3285(3) 0.6135(3)
O7 O 0.6202(9) 0.1137(3) 0.4926(3)
O8 O 0.3433(9) 0.1771(3) 0.5026(3)
O9 O 0.1540(8) -0.0196(3) 0.6037(3)
O10 O 0.4584(8) -0.0488(3) 0.6480(3)
O11 O 0.5266(7) 0.0680(3) 0.7139(3)
O12 O 0.8621(8) -0.0210(3) 0.7053(3)
O13 O 0.3101(7) 0.1605(3) 0.7488(3)
O14 O 0.5440(8) 0.1280(3) 0.8316(3)
O15 O 0.2710(7) 0.0125(3) 0.7332(3)
O16 O 0.6474(7) 0.1803(3) 0.7171(3)
O17 O 0.3703(7) 0.1936(3) 0.6356(3)
O18 O 0.8871(8) -0.0094(3) 0.8131(3)
O19 O 0.4684(7) 0.2753(3) 0.7341(3)
O20 O 0.6930(7) 0.1030(3) 0.6257(3)
O21 O 0.1804(7) 0.1039(3) 0.6503(3)
O22 O 0.1024(7) 0.2997(3) 0.7513(3)
O23 O 0.6185(8) 0.2181(3) 0.5798(3)
O24 O 0.1193(7) 0.3296(3) 0.6481(3)
O25 O 0.4041(7) 0.0641(3) 0.5754(3)
Rb1 Rb 0.84880(16) 0.15689(6) 0.41045(6)
Rb2 Rb -0.2328(6) -0.0174(2) 0.5580(2)
Na1 Na 0.7065(4) -0.08154(16) 0.85986(18)
Na2? Na 0.00000 0.00000 0.50000
Na3? Na 0.1463(14) 0.1389(6) 0.9347(5)
Na4 Na 0.201(3) 0.1606(9) 0.9221(10)
Na5 Na 1.021(2) 0.0209(9) 0.9061(9)
O26 O 0.8270(9) -0.1359(3) 0.6211(3)
O27 O 1.1234(7) -0.1069(3) 0.7322(3)
O28 O 0.6452(7) -0.1092(3) 0.7443(3)
O29 O -0.0318(10) 0.1077(4) 0.5378(4)
O30 O 1.0375(10) 0.2150(4) 0.8568(4)
O31 O 1.1612(10) -0.0749(3) 0.9044(5)
O32 O 0.8108(11) -0.0571(4) 0.9757(4)
O33 O 0.1331(11) 0.2816(4) 0.5205(4)
O34 O 0.4245(13) 0.1636(5) 0.9706(4)
O35 O 0.6715(12) 0.1267(5) 0.9460(5)
O36 O 0.8018(14) 0.2765(5) 0.4912(5)
O37 O 0.902(3) 0.0819(8) 0.9192(8)
O38 O 0.621(2) 0.0414(9) 1.0048(9)
Cu1A Cu 0.12168(12) 0.38907(5) 0.77464(5)
O22A O 0.8976(7) -0.2003(3) 0.7487(3)
#END
