
#######################################################################
#
#                 Cambridge Crystallographic Data Centre
#                                CCDC
#
#######################################################################
#
# If this CIF has been generated from an entry in the Cambridge
# Structural Database, then it will include bibliographic, chemical,
# crystal, experimental, refinement or atomic coordinate data resulting
# from the CCDC's data processing and validation procedures.
#
#######################################################################

data_CSD_CIF_VIRCIK
_audit_creation_date 2013-10-07
_audit_creation_method CSD-ConQuest-V1
_database_code_CSD VIRCIK
_database_code_depnum_ccdc_archive 'CCDC 927957'
_chemical_formula_sum 'C38 H47 Ag3 N6 O17 S1'
_chemical_formula_moiety
;
(C28 H19 Ag2 N4 O7 S1 1-)n,(C10 H8 Ag1 N2 1+)n,10(H2 O1)
;
_journal_coden_Cambridge 155
_journal_volume 407
_journal_year 2013
_journal_page_first 216
_journal_name_full 'Inorg.Chim.Acta '
loop_
_publ_author_name
"Jie Wang"
"V.Safarifard"
"Ai-Yin Wang"
"Yi Shen"
"Jin-Min Cai"
"Hong-Ping Xiao"
"A.Morsali"
_chemical_name_systematic
;
catena-[(\m~2~-2-sulfonatobenzene-1,4-dicarboxylato)-bis(\m~2~-4,4'-bipyridine
)-di-silver(i) (\m~2~-4,4'-bipyridine)-silver(i) decahydrate]
;
_cell_volume   4490.414
_exptl_crystal_colour 'colorless'
_exptl_crystal_density_diffrn 1.798
_exptl_crystal_description 'Prism'
_diffrn_ambient_temperature 298
#These two values have been output from a single CSD field.
_refine_ls_R_factor_gt 0.0388
_refine_ls_wR_factor_gt 0.0388
_symmetry_cell_setting monoclinic
_symmetry_space_group_name_H-M 'C c'
_symmetry_Int_Tables_number 9
loop_
_symmetry_equiv_pos_site_id
_symmetry_equiv_pos_as_xyz
1 x,y,z
2 x,-y,1/2+z
3 1/2+x,1/2+y,z
4 1/2+x,1/2-y,1/2+z
_cell_length_a 15.6825(7)
_cell_length_b 16.3751(8)
_cell_length_c 17.7881(9)
_cell_angle_alpha 90
_cell_angle_beta 100.577(1)
_cell_angle_gamma 90
_cell_formula_units_Z 4
loop_
_atom_type_symbol
_atom_type_radius_bond
C 0.68
H 0.23
Ag 1.45
N 0.68
O 0.68
S 1.02
loop_
_atom_site_label
_atom_site_type_symbol
_atom_site_fract_x
_atom_site_fract_y
_atom_site_fract_z
Ag1 Ag 0.41279(4) 0.93304(4) 0.28140(4)
N1 N 0.3285(4) 0.8314(4) 0.2873(4)
N2 N 0.0195(4) 0.5171(3) 0.2827(4)
C1 C 0.2948(6) 0.7924(6) 0.2233(5)
H1 H 0.31160 0.80800 0.17790
C2 C 0.2354(6) 0.7293(5) 0.2215(5)
H2 H 0.21440 0.70300 0.17540
C3 C 0.2077(4) 0.7055(4) 0.2852(4)
C4 C 0.2421(4) 0.7457(4) 0.3516(4)
H3 H 0.22470 0.73120 0.39700
C5 C 0.3032(5) 0.8085(5) 0.3518(4)
H4 H 0.32640 0.83450 0.39750
C6 C 0.1425(4) 0.6382(4) 0.2842(4)
C7 C 0.0880(5) 0.6176(5) 0.2188(4)
H5 H 0.09150 0.64350 0.17290
C8 C 0.0272(5) 0.5575(5) 0.2215(5)
H6 H -0.01080 0.54500 0.17640
C9 C 0.0738(5) 0.5351(4) 0.3459(4)
H7 H 0.07010 0.50640 0.39030
C10 C 0.1358(5) 0.5949(4) 0.3488(4)
H8 H 0.17330 0.60590 0.39460
S1 S 0.12774(10) 1.13337(12) 0.11731(10)
O1 O 0.3068(3) 1.0217(3) 0.1794(3)
O2 O 0.3215(4) 0.9903(4) 0.0621(3)
O3 O 0.1425(3) 1.1380(3) 0.1994(2)
O4 O 0.1211(4) 1.0497(4) 0.0879(3)
O5 O 0.0573(3) 1.1838(5) 0.0807(4)
O6 O 0.2281(4) 1.4246(3) 0.0376(4)
O7 O 0.3690(3) 1.4218(3) 0.0530(4)
C11 C 0.3073(4) 1.0385(4) 0.1126(4)
C12 C 0.2971(4) 1.1279(4) 0.0897(3)
C13 C 0.2232(3) 1.1745(4) 0.0904(3)
C14 C 0.2223(4) 1.2581(4) 0.0746(3)
H9 H 0.17190 1.28800 0.07400
C15 C 0.2968(4) 1.2970(4) 0.0596(3)
C16 C 0.3687(4) 1.2505(4) 0.0566(4)
H10 H 0.41800 1.27500 0.04450
C17 C 0.3686(4) 1.1663(4) 0.0716(3)
H11 H 0.41810 1.13580 0.06920
C18 C 0.2968(5) 1.3874(5) 0.0488(4)
Ag2 Ag 0.06290(3) 1.21610(4) 0.29887(3)
N3 N -0.0367(3) 1.1258(3) 0.2968(3)
N4 N -0.3490(3) 0.8165(3) 0.3003(3)
C19 C -0.0660(5) 1.1066(5) 0.3609(4)
H12 H -0.04440 1.13520 0.40560
C20 C -0.1263(4) 1.0469(4) 0.3633(3)
H13 H -0.14440 1.03470 0.40900
C21 C -0.1602(4) 1.0045(3) 0.2971(3)
C22 C -0.1292(5) 1.0249(4) 0.2315(4)
H14 H -0.15050 0.99820 0.18580
C23 C -0.0677(5) 1.0839(5) 0.2337(4)
H15 H -0.04650 1.09540 0.18930
C24 C -0.2260(4) 0.9388(3) 0.2981(4)
C25 C -0.2277(4) 0.8940(4) 0.3632(4)
H16 H -0.18700 0.90360 0.40730
C26 C -0.2898(4) 0.8349(4) 0.3626(4)
H17 H -0.29090 0.80630 0.40760
C27 C -0.3461(4) 0.8587(4) 0.2382(4)
H18 H -0.38590 0.84590 0.19420
C28 C -0.2878(4) 0.9211(4) 0.2339(4)
H19 H -0.29000 0.95050 0.18890
Ag3 Ag 0.27595(3) 0.09110(4) 0.32113(4)
N5 N 0.3682(3) 0.1892(3) 0.3266(3)
N6 N 0.6825(4) 0.4967(3) 0.3291(3)
C29 C 0.3707(5) 0.2346(4) 0.2653(4)
H20 H 0.33010 0.22470 0.22120
C30 C 0.4307(4) 0.2960(4) 0.2638(4)
H21 H 0.43110 0.32550 0.21920
C31 C 0.4906(4) 0.3130(3) 0.3296(3)
C32 C 0.4858(4) 0.2673(4) 0.3925(3)
H22 H 0.52380 0.27750 0.43820
C33 C 0.4252(5) 0.2061(4) 0.3889(4)
H23 H 0.42430 0.17500 0.43250
C34 C 0.5560(4) 0.3778(4) 0.3291(3)
C35 C 0.5904(4) 0.4197(4) 0.3949(4)
H24 H 0.57130 0.40820 0.44020
C36 C 0.6532(5) 0.4788(4) 0.3937(4)
H25 H 0.67570 0.50670 0.43850
C37 C 0.6501(4) 0.4561(4) 0.2654(4)
H26 H 0.67020 0.46830 0.22060
C38 C 0.5867(4) 0.3958(4) 0.2639(4)
H27 H 0.56550 0.36800 0.21870
O8 O 0.1055(5) 0.2017(4) 0.4693(4)
H28 H 0.12700 0.18440 0.43170
H29 H 0.05570 0.22200 0.45300
O9 O 0.0560(5) 0.3568(5) 0.4922(7)
H30 H 0.04760 0.40760 0.48430
H31 H 0.00790 0.33360 0.49400
O10 O 0.0452(4) 0.1029(3) 0.5705(4)
H32 H -0.00620 0.10070 0.54500
H33 H 0.04940 0.07250 0.60970
O11 O 0.4147(4) 0.0183(3) 0.9451(3)
H34 H 0.39030 0.03210 0.90030
H35 H 0.37940 0.02490 0.97570
O12 O 0.0483(4) 0.4271(6) 0.0278(5)
H36 H 0.07060 0.46440 0.05850
H37 H 0.04890 0.44200 -0.01790
O13 O 0.9044(6) 0.0845(4) 0.0294(4)
H38 H 0.94380 0.07650 0.06840
H39 H 0.90950 0.04970 -0.00490
O14 O 0.2143(6) 0.5905(5) 0.0603(4)
H40 H 0.22250 0.54020 0.07080
H41 H 0.20750 0.61620 0.10030
O15 O 0.9566(5) 0.3455(9) 0.1222(5)
H42 H 0.98730 0.32620 0.09170
H43 H 0.94540 0.39540 0.11160
O16 O 0.8429(13) 0.2120(9) 0.0649(8)
H44 H 0.88080 0.21340 0.10570
H45 H 0.85950 0.17970 0.03310
O17 O 0.7795(6) 0.3410(4) 1.0040(7)
H46 H 0.78330 0.35950 0.96010
H47 H 0.78260 0.38020 1.03570
Ag1B Ag -0.08721(4) 0.43304(4) 0.28140(4)
N2B N 0.5195(4) 1.0171(3) 0.2827(4)
Ag2B Ag -0.43710(3) 0.71610(4) 0.29887(3)
N4B N 0.1510(3) 1.3165(3) 0.3003(3)
Ag3B Ag 0.77595(3) 0.59110(4) 0.32113(4)
N6B N 0.1825(4) -0.0033(3) 0.3291(3)
#END
