
#######################################################################
#
#                 Cambridge Crystallographic Data Centre
#                                CCDC
#
#######################################################################
#
# If this CIF has been generated from an entry in the Cambridge
# Structural Database, then it will include bibliographic, chemical,
# crystal, experimental, refinement or atomic coordinate data resulting
# from the CCDC's data processing and validation procedures.
#
#######################################################################

data_CSD_CIF_VIRJEM
_audit_creation_date 2008-04-07
_audit_creation_method CSD-ConQuest-V1
_database_code_CSD VIRJEM
_database_code_depnum_ccdc_archive 'CCDC 632132'
_chemical_formula_sum 'C10 H20 Mn2 N2 O12'
_chemical_formula_moiety
;
(C4 H14 N2 2+)n,n(C6 H6 Mn2 O12 2-)
;
_journal_coden_Cambridge 9
_journal_volume 46
_journal_year 2007
_journal_page_first 8439
_journal_name_full 'Inorg.Chem. '
loop_
_publ_author_name
"Zheming Wang"
"Xueyu Zhang"
"S.R.Batten"
"M.Kurmoo"
"Song Gao"
_chemical_name_systematic
;
catena-(N,N'-Dimethylethylenediammonium 
hexakis(\m~2~-formato-O,O')-di-manganese(ii))
;
_cell_volume    902.607
_exptl_crystal_colour 'colorless'
_exptl_crystal_density_diffrn 1.73
_exptl_special_details
;
magnetic properties
isostructural with the cobalt analogue

;
_exptl_crystal_description 'block'
_diffrn_ambient_temperature 293
_refine_special_details
;
The nitrogen atoms of the cation are each disordered over three positions by 
symmetry.
;
#These two values have been output from a single CSD field.
_refine_ls_R_factor_gt 0.0318
_refine_ls_wR_factor_gt 0.0318
_symmetry_cell_setting hexagonal
_symmetry_space_group_name_H-M 'P -3 1 c'
_symmetry_Int_Tables_number 163
loop_
_symmetry_equiv_pos_site_id
_symmetry_equiv_pos_as_xyz
1 x,y,z
2 -y,x-y,z
3 -x+y,-x,z
4 -x+y,y,1/2-z
5 x,x-y,1/2-z
6 -y,-x,1/2-z
7 -x,-y,-z
8 y,-x+y,-z
9 x-y,x,-z
10 x-y,-y,-1/2+z
11 -x,-x+y,-1/2+z
12 y,x,-1/2+z
_cell_length_a 8.3176(4)
_cell_length_b 8.3176(4)
_cell_length_c 15.0651(5)
_cell_angle_alpha 90
_cell_angle_beta 90
_cell_angle_gamma 120
_cell_formula_units_Z 2
loop_
_atom_type_symbol
_atom_type_radius_bond
C 0.68
H 0.23
Mn 1.35
N 0.68
O 0.68
loop_
_atom_site_label
_atom_site_type_symbol
_atom_site_fract_x
_atom_site_fract_y
_atom_site_fract_z
Mn1 Mn 0.00000 0.00000 0.00000
Mn2 Mn 0.33330 0.66670 0.25000
O1 O -0.0151(2) 0.2079(2) 0.08246(10)
O2 O 0.1099(2) 0.4558(3) 0.1690(1)
C1 C 0.1104(3) 0.3265(3) 0.12803(14)
H1 H 0.21780 0.31870 0.13240
C2 C -0.33330 0.33330 0.0427(3)
C3 C -0.33330 0.33330 0.2045(4)
N1 N -0.3277(11) 0.2565(9) 0.1355(4)
Mn2* Mn -0.66670 -0.33330 0.25000
Mn2** Mn 0.33330 -0.33330 0.25000
Mn2K Mn -0.33330 -0.66670 -0.25000
Mn2K* Mn 0.66670 0.33330 -0.25000
Mn2K** Mn -0.33330 0.33330 -0.25000
O1A O -0.2079(2) -0.2230(2) 0.08246(10)
O1B O 0.2230(2) 0.0151(2) 0.08246(10)
O1F O 0.0151(2) -0.2079(2) -0.08246(10)
O1G O 0.2079(2) 0.2230(2) -0.08246(10)
O1H O -0.2230(2) -0.0151(2) -0.08246(10)
O2A O -0.4558(2) -0.3459(3) 0.1690(1)
O2B O 0.3459(2) -0.1099(3) 0.1690(1)
O2F O -0.1099(2) -0.4558(3) -0.1690(1)
O2G O 0.4558(2) 0.3459(3) -0.1690(1)
O2H O -0.3459(2) 0.1099(3) -0.1690(1)
O2A* O 0.5442(2) 0.6541(3) 0.1690(1)
O2B* O 0.3459(2) 0.8901(3) 0.1690(1)
O2C O 0.3459(2) 0.4558(3) 0.3310(1)
O2D O 0.1099(2) 0.6541(3) 0.3310(1)
O2E O 0.5442(2) 0.8901(3) 0.3310(1)
C1A C -0.3265(3) -0.2161(3) 0.12803(14)
C1B C 0.2161(3) -0.1104(3) 0.12803(14)
C1F C -0.1104(3) -0.3265(3) -0.12803(14)
C1G C 0.3265(3) 0.2161(3) -0.12803(14)
C1H C -0.2161(3) 0.1104(3) -0.12803(14)
H1A H -0.31870 -0.10090 0.13240
H1B H 0.10090 -0.21780 0.13240
H1F H -0.21780 -0.31870 -0.13240
H1G H 0.31870 0.10090 -0.13240
H1H H -0.10090 0.21780 -0.13240
C2C C -0.33340 0.33330 0.4573(3)
C3C C -0.33340 0.33330 0.2955(4)
N1C N -0.4158(11) 0.2565(9) 0.3645(4)
N1D N -0.3277(11) 0.4158(9) 0.3645(4)
N1E N -0.2565(11) 0.3277(9) 0.3645(4)
N1A N -0.2565(11) 0.4158(9) 0.1355(4)
N1B N -0.4158(11) 0.3277(9) 0.1355(4)
#END
