
#######################################################################
#
#                 Cambridge Crystallographic Data Centre
#                                CCDC
#
#######################################################################
#
# If this CIF has been generated from an entry in the Cambridge
# Structural Database, then it will include bibliographic, chemical,
# crystal, experimental, refinement or atomic coordinate data resulting
# from the CCDC's data processing and validation procedures.
#
#######################################################################

data_CSD_CIF_VIRKIQ
_audit_creation_date 2001-12-11
_audit_creation_method CSD-ConQuest-V1
_database_code_CSD VIRKIQ
_database_code_depnum_ccdc_archive 'CCDC 157825'
_chemical_formula_sum 'C8 H22 Mn2 N2 O14 P2'
_chemical_formula_moiety
;
(C6 H16 N2 2+)n,n(C2 H6 Mn2 O14 P2 2-)
;
_journal_coden_Cambridge 186
_journal_year 2001
_journal_page_first 1904
_journal_name_full 'J.Chem.Soc.,Dalton Trans. '
loop_
_publ_author_name
"Z.A.D.Lethbridge"
"S.K.Tiwary"
"A.Harrison"
"P.Lightfoot"
_chemical_name_systematic
;
catena-(trans-Cyclohexane-1,4-diammonium bis(\m~3~-hydrogen 
phosphato)-(\m~2~-oxalato)-diaqua-di-manganese(ii))
;
_cell_volume    843.855
_exptl_crystal_density_diffrn 2.133
_diffrn_ambient_temperature 273.2
#These two values have been output from a single CSD field.
_refine_ls_R_factor_gt 0.0299
_refine_ls_wR_factor_gt 0.0299
_symmetry_cell_setting monoclinic
_symmetry_space_group_name_H-M 'P 21/n'
_symmetry_Int_Tables_number 14
loop_
_symmetry_equiv_pos_site_id
_symmetry_equiv_pos_as_xyz
1 x,y,z
2 1/2+x,1/2-y,1/2+z
3 -x,-y,-z
4 -1/2-x,-1/2+y,-1/2-z
_cell_length_a 5.9778(3)
_cell_length_b 16.6747(8)
_cell_length_c 8.4660(4)
_cell_angle_alpha 90
_cell_angle_beta 90.384(1)
_cell_angle_gamma 90
_cell_formula_units_Z 2
loop_
_atom_type_symbol
_atom_type_radius_bond
C 0.68
H 0.23
Mn 1.35
N 0.68
O 0.68
P 1.05
loop_
_atom_site_label
_atom_site_type_symbol
_atom_site_fract_x
_atom_site_fract_y
_atom_site_fract_z
Mn1 Mn 0.5153(1) 0.17646(4) 0.50446(10)
P1 P 1.0071(2) 0.24515(8) 0.3775(2)
O1 O 0.5287(7) 0.1610(3) 0.2400(5)
O2 O 0.8234(6) 0.2440(2) 0.5008(4)
O3 O 0.7237(6) 0.0649(2) 0.5382(4)
O4 O 0.7193(6) -0.0691(2) 0.5150(4)
O5 O 1.0048(6) 0.1605(2) 0.2874(5)
O6 O 1.2373(5) 0.2557(2) 0.4507(4)
O7 O 0.9585(6) 0.3068(2) 0.2502(4)
N1 N 1.0100(8) 0.1310(3) -0.2194(5)
C1 C 1.0223(8) 0.0769(3) -0.0788(6)
C2 C 1.1972(9) 0.0124(3) -0.1009(6)
C3 C 0.7947(9) 0.0414(4) -0.0456(7)
C4 C 0.6288(8) -0.0010(4) 0.5160(5)
H1 H 0.44(1) 0.187(3) 0.175(7)
H2 H 0.65(1) 0.167(4) 0.203(7)
H3 H 1.04(1) 0.127(4) 0.333(7)
H4 H 1.149(8) 0.152(3) -0.242(5)
H5 H 0.95(1) 0.100(4) -0.301(7)
H6 H 0.89(1) 0.180(4) -0.194(7)
H7 H 1.076(7) 0.111(3) 0.015(5)
H8 H 0.744(9) 0.013(3) -0.133(7)
H9 H 0.689(8) 0.084(3) -0.035(5)
H10 H 1.152(9) -0.019(3) -0.193(6)
H11 H 1.337(9) 0.035(3) -0.128(6)
C4B C 0.3712(8) 0.0010(4) 0.4840(5)
O3B O 0.2763(6) -0.0649(2) 0.4618(4)
O4B O 0.2807(6) 0.0691(2) 0.4850(4)
C3B C 1.2053(9) -0.0414(4) 0.0456(7)
C1B C 0.9777(8) -0.0769(3) 0.0788(6)
N1B N 0.9900(8) -0.1310(3) 0.2194(5)
H4B H 0.851(8) -0.152(3) 0.242(5)
H5B H 1.05(1) -0.100(4) 0.301(7)
H6B H 1.11(1) -0.180(4) 0.194(7)
C2B C 0.8028(9) -0.0124(3) 0.1009(6)
H10B H 0.848(9) 0.019(3) 0.193(6)
H11B H 0.663(9) -0.035(3) 0.128(6)
H7B H 0.924(7) -0.111(3) -0.015(5)
H8B H 1.256(9) -0.013(3) 0.133(7)
H9B H 1.311(8) -0.084(3) 0.035(5)
P1* P 0.0071(2) 0.24515(8) 0.3775(2)
O2* O -0.1766(6) 0.2440(2) 0.5008(4)
O5* O 0.0048(6) 0.1605(2) 0.2874(5)
O6* O 0.2373(5) 0.2557(2) 0.4507(4)
O7* O -0.0415(6) 0.3068(2) 0.2502(4)
H3* H 0.04(1) 0.127(4) 0.333(7)
Mn1* Mn -0.4847(1) 0.17646(4) 0.50446(10)
O7A O 0.4585(6) 0.1932(2) 0.7502(4)
Mn1B Mn 0.4847(1) -0.17646(4) 0.49554(10)
Mn1** Mn 1.5153(1) 0.17646(4) 0.50446(10)
Mn1A Mn 1.0153(1) 0.32354(4) 0.00446(10)
Mn1A* Mn 0.0153(1) 0.32354(4) 0.00446(10)
O1* O -0.4713(7) 0.1610(3) 0.2400(5)
O3* O -0.2763(6) 0.0649(2) 0.5382(4)
O4B* O -0.7193(6) 0.0691(2) 0.4850(4)
O6** O -0.7627(5) 0.2557(2) 0.4507(4)
O7A* O -0.5415(6) 0.1932(2) 0.7502(4)
H1* H -0.56(1) 0.187(3) 0.175(7)
H2* H -0.35(1) 0.167(4) 0.203(7)
#END
