
#######################################################################
#
#                 Cambridge Crystallographic Data Centre
#                                CCDC
#
#######################################################################
#
# If this CIF has been generated from an entry in the Cambridge
# Structural Database, then it will include bibliographic, chemical,
# crystal, experimental, refinement or atomic coordinate data resulting
# from the CCDC's data processing and validation procedures.
#
#######################################################################

data_CSD_CIF_VITKUG
_audit_creation_date 2014-02-11
_audit_creation_method CSD-ConQuest-V1
_database_code_CSD VITKUG
_database_code_depnum_ccdc_archive 'CCDC 941918'
_chemical_formula_sum 'C26 H36 Cu4 N2 O24'
_chemical_formula_moiety
;
(C20 H6 Cu4 O18 2-)n,C6 H18 N2 2+,6(H2 O1)
;
_journal_coden_Cambridge 29
_journal_volume 640
_journal_year 2014
_journal_page_first 310
_journal_name_full 'Z.Anorg.Allg.Chem. '
loop_
_publ_author_name
"R.Koeferstein"
"C.Robl"
_chemical_name_systematic
;
catena-[hexane-1,6-diaminium 
(\m~8~-benzene-1,2,4,5-tetracarboxylato)-(\m~6~-benzene-1,2,4,5-tetracarboxyla
to)-bis(\m~3~-hydroxo)-tetra-copper hexahydrate]
;
_cell_volume   1866.837
_exptl_crystal_colour 'turquoise'
_exptl_crystal_density_diffrn 1.805
_exptl_crystal_description 'plate'
_diffrn_ambient_temperature 293
#These two values have been output from a single CSD field.
_refine_ls_R_factor_gt 0.0326
_refine_ls_wR_factor_gt 0.0326
_symmetry_cell_setting monoclinic
_symmetry_space_group_name_H-M 'P 2/c'
_symmetry_Int_Tables_number 13
loop_
_symmetry_equiv_pos_site_id
_symmetry_equiv_pos_as_xyz
1 x,y,z
2 -x,y,1/2-z
3 -x,-y,-z
4 x,-y,-1/2+z
_cell_length_a 11.5934(11)
_cell_length_b 10.5944(7)
_cell_length_c 15.822(2)
_cell_angle_alpha 90
_cell_angle_beta 106.130(11)
_cell_angle_gamma 90
_cell_formula_units_Z 2
loop_
_atom_type_symbol
_atom_type_radius_bond
C 0.68
H 0.23
Cu 1.32
N 0.68
O 0.68
loop_
_atom_site_label
_atom_site_type_symbol
_atom_site_fract_x
_atom_site_fract_y
_atom_site_fract_z
Cu1 Cu 0.01480(4) 0.63677(4) 0.00079(3)
Cu2 Cu 0.14067(4) 0.49758(4) 0.18562(3)
C1 C 0.0170(3) 0.1110(3) 0.2105(2)
C2 C 0.0176(3) -0.1183(3) 0.2108(2)
C3 C 0.0327(3) -0.0032(4) 0.1729(2)
C4 C 0.0387(3) 0.2308(3) 0.1667(2)
C5 C 0.0438(3) -0.2364(3) 0.1659(2)
O1 O 0.1042(2) 0.3137(2) 0.2120(2)
O2 O -0.0105(3) 0.2332(3) 0.0848(2)
O3 O 0.1082(2) -0.3195(2) 0.2107(2)
O4 O 0.0005(2) -0.2339(2) 0.0828(2)
O5 O 0.0058(2) 0.5016(2) 0.08290(14)
H1 H 0.0541(35) -0.0045(39) 0.1206(27)
H2 H -0.0613(25) 0.5050(48) 0.0994(30)
C6 C 0.3925(3) 0.4956(4) -0.0674(2)
C7 C 0.3897(3) 0.5059(4) 0.0200(2)
C8 C 0.4973(3) 0.5102(4) 0.0865(2)
C9 C 0.2783(3) 0.4828(4) -0.1407(2)
C10 C 0.2754(3) 0.5233(4) 0.0479(2)
O6 O 0.2842(2) 0.5125(3) -0.2173(2)
O7 O 0.1882(2) 0.4422(4) -0.1224(2)
O8 O 0.2520(2) 0.4405(3) 0.0975(2)
O9 O 0.2173(2) 0.6228(3) 0.0255(2)
H3 H 0.4990(34) 0.5203(38) 0.1481(26)
N1 N -0.2916(4) 0.1477(5) 0.0275(3)
C11 C -0.4065(6) 0.1402(7) -0.0430(5)
C12 C -0.3875(7) 0.1388(6) -0.1329(5)
C13 C -0.5084(9) 0.1354(8) -0.2041(6)
H4 H -0.3030(55) 0.1485(62) 0.0818(18)
H5 H -0.2541(50) 0.2160(36) 0.0132(39)
H6 H -0.2533(51) 0.0744(32) 0.0243(42)
H7 H -0.4509(63) 0.2077(49) -0.0369(55)
H8 H -0.4447(67) 0.0691(45) -0.0343(55)
H9 H -0.3469(67) 0.0705(51) -0.1434(55)
H10 H -0.3572(70) 0.2134(40) -0.1443(54)
H11 H -0.5481(68) 0.0652(48) -0.1954(55)
H12 H -0.5463(67) 0.2105(40) -0.2058(56)
O10 O -0.3736(4) 0.7835(4) -0.1356(3)
H13 H -0.3717(87) 0.7798(99) -0.1920(21)
H14 H -0.3384(80) 0.7077(43) -0.1213(64)
O11 O 0.3668(4) 0.2165(5) 0.3171(3)
H15 H 0.3268(77) 0.2901(48) 0.3133(64)
H16 H 0.4359(47) 0.2056(97) 0.3594(46)
O12 O 0.2059(6) 0.0845(6) -0.0006(4)
H17 H 0.1453(60) 0.1319(79) -0.0326(55)
H18 H 0.2643(65) 0.1409(73) 0.0223(63)
C1A C -0.0170(3) 0.1110(3) 0.2895(2)
C2A C -0.0176(3) -0.1183(3) 0.2892(2)
C3A C -0.0327(3) -0.0032(4) 0.3271(2)
C4A C -0.0387(3) 0.2308(3) 0.3333(2)
C5A C -0.0438(3) -0.2364(3) 0.3341(2)
O1A O -0.1042(2) 0.3137(2) 0.2880(2)
O2A O 0.0105(3) 0.2332(3) 0.4152(2)
O3A O -0.1082(2) -0.3195(2) 0.2893(2)
O4A O -0.0005(2) -0.2339(2) 0.4172(2)
H1A H -0.0541(35) -0.0045(39) 0.3794(27)
C6B C 0.6075(3) 0.5044(4) 0.0674(2)
C7B C 0.6103(3) 0.4941(4) -0.0200(2)
C8B C 0.5027(3) 0.4898(4) -0.0865(2)
C9B C 0.7217(3) 0.5172(4) 0.1407(2)
C10B C 0.7246(3) 0.4767(4) -0.0479(2)
O6B O 0.7158(2) 0.4875(3) 0.2173(2)
O7B O 0.8118(2) 0.5578(4) 0.1224(2)
O8B O 0.7480(2) 0.5595(3) -0.0975(2)
O9B O 0.7827(2) 0.3772(3) -0.0255(2)
H3B H 0.5010(34) 0.4797(38) -0.1481(26)
Cu1B Cu -0.01480(4) 0.36323(4) -0.00079(3)
Cu2B Cu -0.14067(4) 0.50242(4) -0.18562(3)
O5B O -0.0058(2) 0.4984(2) -0.08290(14)
H2B H 0.0613(25) 0.4950(48) -0.0994(30)
Cu1* Cu 0.01480(4) -0.36323(4) 0.00079(3)
Cu1C Cu 0.01480(4) 0.36323(4) 0.50079(3)
Cu1B* Cu 0.98520(4) 0.36323(4) -0.00079(3)
Cu1A Cu -0.01480(4) -0.36323(4) 0.49921(3)
Cu2* Cu 0.14067(4) -0.50242(4) 0.18562(3)
Cu2C Cu 0.14067(4) 0.50242(4) -0.31438(3)
Cu2B* Cu 0.85933(4) 0.50242(4) -0.18562(3)
Cu2A Cu -0.14067(4) -0.50242(4) 0.31438(3)
Cu2A* Cu -0.14067(4) 0.49758(4) 0.31438(3)
Cu2A** Cu 0.85933(4) 0.49758(4) 0.31438(3)
O1B O -0.1042(2) 0.6863(2) -0.2120(2)
O2B O 0.0105(3) 0.7668(3) -0.0848(2)
O3* O 0.1082(2) 0.6805(2) 0.2107(2)
O3B O -0.1082(2) 0.3195(2) -0.2107(2)
O4* O 0.0005(2) 0.7661(2) 0.0828(2)
O4B O -0.0005(2) 0.2339(2) -0.0828(2)
O6C O 0.2842(2) 0.4875(3) 0.2827(2)
O6A O -0.2842(2) 0.5125(3) -0.2827(2)
O8B* O -0.2520(2) 0.5595(3) -0.0975(2)
O9B* O -0.2173(2) 0.3772(3) -0.0255(2)
N1A N -0.7084(4) 0.1477(5) -0.5275(3)
C11A C -0.5935(6) 0.1402(7) -0.4570(5)
C12A C -0.6125(7) 0.1388(6) -0.3671(5)
C13A C -0.4916(9) 0.1354(8) -0.2959(6)
H4A H -0.6970(55) 0.1485(62) -0.5818(18)
H5A H -0.7459(50) 0.2160(36) -0.5132(39)
H6A H -0.7467(51) 0.0744(32) -0.5243(42)
H7A H -0.5491(63) 0.2077(49) -0.4631(55)
H8A H -0.5553(67) 0.0691(45) -0.4657(55)
H9A H -0.6531(67) 0.0705(51) -0.3566(55)
H10A H -0.6428(70) 0.2134(40) -0.3557(54)
H11A H -0.4519(68) 0.0652(48) -0.3046(55)
H12A H -0.4537(67) 0.2105(40) -0.2942(56)
#END
