
#######################################################################
#
#                 Cambridge Crystallographic Data Centre
#                                CCDC
#
#######################################################################
#
# If this CIF has been generated from an entry in the Cambridge
# Structural Database, then it will include bibliographic, chemical,
# crystal, experimental, refinement or atomic coordinate data resulting
# from the CCDC's data processing and validation procedures.
#
#######################################################################

data_CSD_CIF_VITKOA
_audit_creation_date 2014-02-11
_audit_creation_method CSD-ConQuest-V1
_database_code_CSD VITKOA
_database_code_depnum_ccdc_archive 'CCDC 941917'
_chemical_formula_sum 'C26 H42 Cu3 N2 O26'
_chemical_formula_moiety
;
(C20 H12 Cu3 O20 2-)n,n(C6 H18 N2 2+),6n(H2 O1)
;
_journal_coden_Cambridge 29
_journal_volume 640
_journal_year 2014
_journal_page_first 310
_journal_name_full 'Z.Anorg.Allg.Chem. '
loop_
_publ_author_name
"R.Koeferstein"
"C.Robl"
_chemical_name_systematic
;
catena-[hexane-1,6-diaminium 
(\m~6~-benzene-1,2,4,5-tetracarboxylato)-(\m~4~-benzene-1,2,4,5-tetracarboxyla
to)-tetraaqua-tri-copper hexahydrate]
;
_cell_volume    884.799
_exptl_crystal_colour 'light blue'
_exptl_crystal_density_diffrn 1.857
_exptl_crystal_description 'plate'
_diffrn_ambient_temperature 293
#These two values have been output from a single CSD field.
_refine_ls_R_factor_gt 0.0258
_refine_ls_wR_factor_gt 0.0258
_symmetry_cell_setting triclinic
_symmetry_space_group_name_H-M 'P -1'
_symmetry_Int_Tables_number 2
loop_
_symmetry_equiv_pos_site_id
_symmetry_equiv_pos_as_xyz
1 x,y,z
2 -x,-y,-z
_cell_length_a 7.7256(7)
_cell_length_b 11.1036(7)
_cell_length_c 11.1198(8)
_cell_angle_alpha 98.720(7)
_cell_angle_beta 108.246(9)
_cell_angle_gamma 95.559(7)
_cell_formula_units_Z 1
loop_
_atom_type_symbol
_atom_type_radius_bond
C 0.68
H 0.23
Cu 1.32
N 0.68
O 0.68
loop_
_atom_site_label
_atom_site_type_symbol
_atom_site_fract_x
_atom_site_fract_y
_atom_site_fract_z
Cu1 Cu 0.42356(4) 0.20994(3) -0.19453(3)
Cu2 Cu 0.00000 0.00000 0.00000
C1 C 0.0690(3) 0.0080(2) -0.3661(2)
C2 C 0.1895(3) -0.0008(2) -0.4377(2)
C3 C -0.1175(3) 0.0094(2) -0.4290(2)
C4 C 0.1310(3) 0.0148(2) -0.2218(2)
C5 C 0.3941(3) -0.0060(2) -0.3805(2)
C6 C -0.0615(3) 0.3734(2) -0.0192(2)
C7 C 0.0854(3) 0.4151(2) -0.0589(2)
C8 C 0.1451(4) 0.5408(2) -0.0379(2)
C9 C -0.1213(3) 0.2380(2) -0.0264(2)
C10 C 0.1726(3) 0.3296(2) -0.1331(2)
O1 O 0.0180(2) -0.0389(2) -0.1787(2)
O2 O 0.2880(2) 0.07175(15) -0.1503(2)
O3 O 0.4497(2) -0.1012(2) -0.4169(2)
O4 O 0.4998(2) 0.0876(2) -0.3030(2)
O5 O -0.2849(2) 0.2011(2) -0.0376(2)
O6 O 0.0070(2) 0.17289(15) -0.0133(2)
O7 O 0.0832(3) 0.2736(2) -0.2425(2)
O8 O 0.3453(2) 0.3261(2) -0.0780(2)
O9 O 0.5118(3) 0.3418(2) -0.2649(2)
O10 O -0.3304(3) -0.0635(2) -0.1047(2)
H1 H -0.1915(38) 0.0193(24) -0.3809(26)
H2 H 0.5840(57) 0.3309(37) -0.3013(39)
H3 H 0.5132(55) 0.4162(37) -0.2351(38)
H4 H 0.2364(39) 0.5656(24) -0.0651(25)
H5 H -0.3554(55) 0.0037(36) -0.1180(38)
H6 H -0.3407(57) -0.0679(37) -0.0387(40)
N1 N 0.2748(4) -0.7577(2) -0.6915(2)
C11 C 0.2630(5) -0.6779(3) -0.5747(3)
C12 C 0.0999(5) -0.6101(3) -0.6058(3)
C13 C 0.0858(4) -0.5308(3) -0.4862(3)
H7 H 0.2513(44) -0.7259(29) -0.5149(31)
H8 H 0.3685(47) -0.6260(29) -0.5384(31)
H9 H 0.0016(47) -0.6655(30) -0.6399(31)
H10 H 0.1112(44) -0.5593(29) -0.6654(31)
H11 H 0.0848(44) -0.5787(29) -0.4270(31)
H12 H 0.1967(46) -0.4657(29) -0.445(3)
H13 H 0.1629(50) -0.8144(31) -0.7406(32)
H14 H 0.3567(49) -0.8071(31) -0.6720(32)
H15 H 0.2998(48) -0.7115(32) -0.7471(33)
O11 O 0.6807(3) 0.2250(2) 0.2140(2)
H16 H 0.7074(53) 0.2292(34) 0.1300(38)
H17 H 0.5834(57) 0.1688(36) 0.2006(38)
O12 O 0.4631(3) -0.5917(2) 0.1886(2)
H18 H 0.5403(58) -0.6324(38) 0.2055(40)
H19 H 0.4241(55) -0.6114(35) 0.1048(40)
O13 O 0.2635(3) -0.3043(2) 0.3925(2)
H20 H 0.1628(58) -0.2972(37) 0.3449(39)
H21 H 0.3086(55) -0.2324(37) 0.4459(39)
C1A C -0.0690(3) -0.0080(2) -0.6339(2)
C2A C -0.1895(3) 0.0008(2) -0.5623(2)
C3A C 0.1175(3) -0.0094(2) -0.5710(2)
C4A C -0.1310(3) -0.0148(2) -0.7782(2)
C5A C -0.3941(3) 0.0060(2) -0.6195(2)
O1A O -0.0180(2) 0.0389(2) -0.8213(2)
O2A O -0.2880(2) -0.07175(15) -0.8497(2)
O3A O -0.4497(2) 0.1012(2) -0.5831(2)
O4A O -0.4998(2) -0.0876(2) -0.6970(2)
H1A H 0.1915(38) -0.0193(24) -0.6191(26)
C7A C -0.0854(3) 0.5849(2) 0.0589(2)
C8A C -0.1451(4) 0.4592(2) 0.0379(2)
C10A C -0.1726(3) 0.6704(2) 0.1331(2)
O7A O -0.0832(3) 0.7264(2) 0.2425(2)
O8A O -0.3453(2) 0.6739(2) 0.0780(2)
H4A H -0.2364(39) 0.4344(24) 0.0651(25)
C6A C 0.0615(3) 0.6266(2) 0.0192(2)
C9A C 0.1213(3) 0.7620(2) 0.0264(2)
O5A O 0.2849(2) 0.7989(2) 0.0376(2)
O6A O -0.0070(2) 0.82711(15) 0.0133(2)
Cu1A Cu -0.42356(4) -0.20994(3) -0.80547(3)
O9A O -0.5118(3) -0.3418(2) -0.7351(2)
H2A H -0.5840(57) -0.3309(37) -0.6987(39)
H3A H -0.5132(55) -0.4162(37) -0.7649(38)
O10A O 0.3304(3) 0.0635(2) 0.1047(2)
H5A H 0.3554(55) -0.0037(36) 0.1180(38)
H6A H 0.3407(57) 0.0679(37) 0.0387(40)
Cu1* Cu -0.57644(4) 0.20994(3) -0.19453(3)
Cu1A* Cu -0.42356(4) 0.79006(3) 0.19453(3)
Cu1A** Cu 0.57644(4) 0.79006(3) 0.19453(3)
Cu2* Cu 0.00000 0.00000 -1.00000
Cu2** Cu 0.00000 1.00000 0.00000
O1A* O -0.0180(2) 0.0389(2) 0.1787(2)
O5* O 0.7151(2) 0.2011(2) -0.0376(2)
O5A* O -0.7151(2) -0.2011(2) -0.9624(2)
O6A* O -0.0070(2) -0.17289(15) 0.0133(2)
O7A* O -0.0832(3) -0.2736(2) -0.7575(2)
O8A* O -0.3453(2) -0.3261(2) -0.9220(2)
N1A N -0.2748(4) -0.2423(2) -0.3085(2)
C11A C -0.2630(5) -0.3221(3) -0.4253(3)
C12A C -0.0999(5) -0.3899(3) -0.3942(3)
C13A C -0.0858(4) -0.4692(3) -0.5138(3)
H7A H -0.2513(44) -0.2741(29) -0.4851(31)
H8A H -0.3685(47) -0.3740(29) -0.4616(31)
H9A H -0.0016(47) -0.3345(30) -0.3601(31)
H10A H -0.1112(44) -0.4407(29) -0.3346(31)
H11A H -0.0848(44) -0.4213(29) -0.5730(31)
H12A H -0.1967(46) -0.5343(29) -0.555(3)
H13A H -0.1629(50) -0.1856(31) -0.2594(32)
H14A H -0.3567(49) -0.1929(31) -0.3280(32)
H15A H -0.2998(48) -0.2885(32) -0.2529(33)
#END
