
#######################################################################
#
#                 Cambridge Crystallographic Data Centre
#                                CCDC
#
#######################################################################
#
# If this CIF has been generated from an entry in the Cambridge
# Structural Database, then it will include bibliographic, chemical,
# crystal, experimental, refinement or atomic coordinate data resulting
# from the CCDC's data processing and validation procedures.
#
#######################################################################

data_CSD_CIF_VITNIX
_audit_creation_date 2014-02-11
_audit_creation_method CSD-ConQuest-V1
_database_code_CSD VITNIX
_database_code_depnum_ccdc_archive 'CCDC 963533'
_chemical_formula_sum 'C36 H42 Cu3 N6 O30 P2.5 W6'
_chemical_formula_moiety
;
(C36 H38 Cu3 N6 O8 P2 2+)n,0.5n(O40 P1 W12 4-),2n(H2 O1)
;
_journal_coden_Cambridge 208
_journal_volume 211
_journal_year 2014
_journal_page_first 200
_journal_name_full 'J.Solid State Chem. '
loop_
_publ_author_name
"Jinshuang Yan"
"XiaofangZhao"
"Jiao Huang"
"Kaining Gong"
"Zhangang Han"
"Xueliang Zhai"
_chemical_name_systematic
;
catena-[bis(\m~4~-Hydrogen 
phosphato)-tris(5,5'-dimethyl-2,2'-bipyridine)-tri-copper 
(\m~12~-phosphato)-tetracosakis(\m~2~-oxo)-dodeca-oxo-dodeca-tungste 
dihydrate]
;
_cell_volume   2722.438
_exptl_crystal_colour 'black'
_exptl_crystal_density_diffrn 2.94
_exptl_crystal_description 'block'
_diffrn_ambient_temperature 296
_refine_special_details
;
The central phosphate unit of the Keggin anion is disordered by symmetry.

;
#These two values have been output from a single CSD field.
_refine_ls_R_factor_gt 0.0685
_refine_ls_wR_factor_gt 0.0685
_symmetry_cell_setting triclinic
_symmetry_space_group_name_H-M 'P -1'
_symmetry_Int_Tables_number 2
loop_
_symmetry_equiv_pos_site_id
_symmetry_equiv_pos_as_xyz
1 x,y,z
2 -x,-y,-z
_cell_length_a 11.303(4)
_cell_length_b 14.935(5)
_cell_length_c 16.547(5)
_cell_angle_alpha 92.596(6)
_cell_angle_beta 92.460(5)
_cell_angle_gamma 102.299(5)
_cell_formula_units_Z 2
loop_
_atom_type_symbol
_atom_type_radius_bond
C 0.68
H 0.23
Cu 1.32
N 0.68
O 0.68
P 1.05
W 1.62
loop_
_atom_site_label
_atom_site_type_symbol
_atom_site_fract_x
_atom_site_fract_y
_atom_site_fract_z
W1 W 0.67830(8) -0.03275(7) 0.67332(5)
W2 W 0.61474(7) -0.01070(5) 0.30305(4)
W3 W 0.62259(7) 0.18872(5) 0.63868(5)
W4 W 0.54739(9) -0.22204(6) 0.53916(5)
W5 W 0.74260(7) 0.17364(6) 0.44409(5)
W6 W 0.78795(7) -0.05109(5) 0.47618(4)
P1 P 0.50000 0.00000 0.50000
O1 O 0.561(2) 0.1002(15) 0.5061(12)
O2 O 0.606(2) 0.0203(14) 0.4533(12)
O3 O 0.596(2) -0.0527(14) 0.5328(12)
O4 O 0.474(2) -0.0292(15) 0.4120(12)
O5 O 0.3911(14) -0.2315(12) 0.5742(8)
O6 O 0.7598(12) -0.0437(10) 0.7560(8)
O7 O 0.5280(12) -0.0337(10) 0.7182(11)
O8 O 0.7925(14) -0.0261(10) 0.5920(8)
O9 O 0.6928(15) -0.1656(10) 0.4916(8)
O10 O 0.5703(13) -0.3267(9) 0.5543(8)
O11 O 0.9194(15) -0.0775(10) 0.4652(9)
O12 O 0.7287(13) -0.0574(9) 0.3687(8)
O13 O 0.5110(14) -0.1319(10) 0.3068(10)
O14 O 0.8235(13) 0.0786(8) 0.4702(7)
O15 O 0.6688(13) -0.0175(9) 0.2120(7)
O16 O 0.6960(13) 0.1073(8) 0.3428(7)
O17 O 0.8578(13) 0.2559(9) 0.4203(8)
O18 O 0.5224(14) 0.2369(12) 0.5684(9)
O19 O 0.6835(11) 0.2786(9) 0.7028(8)
O20 O 0.7382(14) 0.2029(11) 0.5555(8)
O21 O 0.7005(13) 0.0952(10) 0.6736(10)
O22 O 0.6092(15) -0.1561(10) 0.6361(9)
P2 P 0.3260(4) 0.5461(3) 0.1198(2)
P3 P 0.1399(4) 0.3599(3) -0.0105(3)
Cu1 Cu 0.1933(2) 0.35810(18) 0.18530(13)
Cu2 Cu 0.3790(2) 0.50151(14) -0.06014(11)
Cu3 Cu 0.1264(2) 0.56332(14) -0.01740(12)
O23 O 0.4139(12) 0.5339(8) 0.0536(7)
O24 O 0.4014(13) 0.6361(10) 0.1688(8)
H1 H 0.36230 0.64970 0.20630
O25 O 0.3098(12) 0.4701(10) 0.1772(7)
O26 O 0.2098(12) 0.5650(8) 0.0877(7)
O27 O 0.2611(12) 0.3918(9) -0.0454(8)
O28 O 0.1480(14) 0.3343(10) 0.0755(8)
O29 O 0.0709(14) 0.2681(9) -0.0563(9)
H2 H 0.06240 0.27650 -0.10470
O30 O 0.0601(11) 0.4290(8) -0.0202(7)
C1 C 0.243(2) 0.7569(14) 0.0320(12)
H3 H 0.23110 0.73840 0.08450
C2 C 0.303(2) 0.8475(15) 0.0224(14)
C3 C 0.314(2) 0.8750(14) -0.0562(13)
H4 H 0.35550 0.93390 -0.06660
C4 C 0.262(2) 0.8109(13) -0.1202(12)
H5 H 0.26440 0.82920 -0.17320
C5 C 0.2091(18) 0.7234(12) -0.1056(10)
C6 C 0.1545(18) 0.6503(12) -0.1673(10)
C7 C 0.1543(19) 0.6599(14) -0.2496(11)
H6 H 0.18870 0.71580 -0.27020
C8 C 0.102(2) 0.5847(15) -0.3014(12)
H7 H 0.10350 0.59030 -0.35710
C9 C 0.0481(18) 0.5039(13) -0.2725(11)
C10 C 0.0498(17) 0.4974(13) -0.1905(11)
H8 H 0.01210 0.44230 -0.16980
C11 C -0.007(2) 0.4210(15) -0.3259(12)
H9 H 0.01470 0.43150 -0.38060
H10 H -0.09410 0.40930 -0.32380
H11 H 0.02150 0.36900 -0.30770
C12 C 0.356(2) 0.9109(14) 0.0935(13)
H12 H 0.42570 0.95430 0.07750
H13 H 0.38090 0.87590 0.13600
H14 H 0.29710 0.94300 0.11260
C13 C 0.525(2) 0.6950(14) -0.0424(12)
H15 H 0.51630 0.68870 0.01280
C14 C 0.596(2) 0.7772(15) -0.0653(15)
C15 C 0.601(2) 0.7846(17) -0.1492(15)
H16 H 0.64460 0.83770 -0.17000
C16 C 0.540(2) 0.7120(17) -0.2015(14)
H17 H 0.54050 0.71840 -0.25710
C17 C 0.4776(18) 0.6296(15) -0.1719(11)
C18 C 0.4247(19) 0.5485(15) -0.2216(10)
C19 C 0.4367(19) 0.5334(17) -0.3053(12)
H18 H 0.47540 0.58000 -0.33660
C20 C 0.388(2) 0.4457(18) -0.3389(13)
H19 H 0.39920 0.43460 -0.39350
C21 C 0.327(2) 0.3760(17) -0.2996(12)
C22 C 0.3210(18) 0.3972(15) -0.2175(12)
H20 H 0.28030 0.35100 -0.18670
C23 C 0.275(2) 0.2775(16) -0.3299(13)
H21 H 0.21390 0.24970 -0.29450
H22 H 0.33810 0.24390 -0.33070
H23 H 0.23880 0.27670 -0.38370
C24 C 0.664(2) 0.8475(17) -0.0075(15)
H24 H 0.74900 0.84770 -0.00880
H25 H 0.63740 0.83490 0.04590
H26 H 0.65060 0.90640 -0.02140
C25 C 0.0507(19) 0.1657(16) 0.1548(13)
H27 H 0.05730 0.17720 0.10020
C26 C -0.0134(19) 0.0788(16) 0.1756(13)
C27 C -0.0210(18) 0.0665(15) 0.2607(13)
H28 H -0.05660 0.00930 0.27850
C28 C 0.0215(17) 0.1349(15) 0.3141(12)
H29 H 0.00880 0.12740 0.36870
C29 C 0.0856(17) 0.2188(14) 0.2893(12)
C30 C 0.1415(16) 0.3000(13) 0.3423(11)
C31 C 0.1287(18) 0.3066(15) 0.4272(12)
H30 H 0.08780 0.25650 0.45360
C32 C 0.1784(19) 0.3893(16) 0.4703(13)
H31 H 0.17420 0.39390 0.52630
C33 C 0.234(2) 0.4648(16) 0.4298(12)
C34 C 0.2440(19) 0.4542(16) 0.3497(12)
H32 H 0.28540 0.50420 0.32330
C35 C 0.283(2) 0.5573(16) 0.4752(13)
H33 H 0.26810 0.55220 0.53170
H34 H 0.24300 0.60240 0.45370
H35 H 0.36860 0.57570 0.46890
C36 C -0.059(2) 0.0059(16) 0.1125(13)
H36 H -0.04400 -0.05120 0.13030
H37 H -0.01810 0.02070 0.06360
H38 H -0.14460 0.00030 0.10240
N1 N 0.2007(15) 0.6958(11) -0.0283(9)
N2 N 0.1041(14) 0.5676(10) -0.1382(9)
N3 N 0.4672(15) 0.6248(11) -0.0916(9)
N4 N 0.3692(15) 0.4793(12) -0.1784(9)
N5 N 0.1014(16) 0.2313(12) 0.2089(10)
N6 N 0.1979(15) 0.3760(12) 0.3049(10)
O31 O 0.0357(18) 0.8295(18) 0.3539(15)
O32 O 0.062(3) 0.762(2) 0.1993(13)
O1A O 0.439(2) -0.1002(15) 0.4939(12)
O2A O 0.394(2) -0.0203(14) 0.5467(12)
O3A O 0.404(2) 0.0527(14) 0.4672(12)
O4A O 0.526(2) 0.0292(15) 0.5880(12)
W1A W 0.32170(8) 0.03275(7) 0.32668(5)
W2A W 0.38526(7) 0.01070(5) 0.69695(4)
W3A W 0.37741(7) -0.18872(5) 0.36132(5)
W4A W 0.45261(9) 0.22204(6) 0.46084(5)
W5A W 0.25740(7) -0.17364(6) 0.55591(5)
W6A W 0.21205(7) 0.05109(5) 0.52382(4)
O5A O 0.6089(14) 0.2315(12) 0.4258(8)
O6A O 0.2402(12) 0.0437(10) 0.2440(8)
O7A O 0.4720(12) 0.0337(10) 0.2818(11)
O8A O 0.2075(14) 0.0261(10) 0.4080(8)
O9A O 0.3072(15) 0.1656(10) 0.5084(8)
O10A O 0.4297(13) 0.3267(9) 0.4457(8)
O11A O 0.0806(15) 0.0775(10) 0.5348(9)
O12A O 0.2713(13) 0.0574(9) 0.6313(8)
O13A O 0.4890(14) 0.1319(10) 0.6932(10)
O14A O 0.1765(13) -0.0786(8) 0.5298(7)
O15A O 0.3312(13) 0.0175(9) 0.7880(7)
O16A O 0.3040(13) -0.1073(8) 0.6572(7)
O17A O 0.1422(13) -0.2559(9) 0.5797(8)
O18A O 0.4776(14) -0.2369(12) 0.4316(9)
O19A O 0.3165(11) -0.2786(9) 0.2972(8)
O20A O 0.2618(14) -0.2029(11) 0.4445(8)
O21A O 0.2995(13) -0.0952(10) 0.3264(10)
O22A O 0.3908(15) 0.1561(10) 0.3639(9)
Cu2A Cu 0.6210(2) 0.49849(14) 0.06014(11)
Cu3A Cu -0.1264(2) 0.43668(14) 0.01740(12)
O23A O 0.5861(12) 0.4661(8) -0.0536(7)
O30A O -0.0601(11) 0.5710(8) 0.0202(7)
#END
