
#######################################################################
#
#                 Cambridge Crystallographic Data Centre
#                                CCDC
#
#######################################################################
#
# If this CIF has been generated from an entry in the Cambridge
# Structural Database, then it will include bibliographic, chemical,
# crystal, experimental, refinement or atomic coordinate data resulting
# from the CCDC's data processing and validation procedures.
#
#######################################################################

data_CSD_CIF_VITYUU
_audit_creation_date 2014-02-11
_audit_creation_method CSD-ConQuest-V1
_database_code_CSD VITYUU
_database_code_depnum_ccdc_archive 'CCDC 939027'
_chemical_formula_sum 'C57 H60 Eu3 N3 O36'
_chemical_formula_moiety
;
(H3 O1 1+)3n,n(C48 H22 Eu3 O26 3-),3n(C3 H7 N1 O1),4n(H2 O1)
;
_journal_coden_Cambridge 1350
_journal_volume 16
_journal_year 2014
_journal_page_first 2440
_journal_name_full 'CrystEngComm '
loop_
_publ_author_name
"Liying Zhang"
"Tianyou Song"
"Jianing Xu"
"Jiayin Sun"
"Shuangli Zeng"
"Yuncong Wu"
"Yong Fan"
"Li Wang"
_chemical_name_systematic
;
catena-[tris(Oxonium) 
tris(\m~6~-3,3',5,5'-biphenyltetracarboxylato)-diaqua-tri-europium 
N,N-dimethylformamide solvate tetrahydrate]
;
_cell_volume   1611.056
_exptl_crystal_colour 'colorless'
_exptl_special_details
;
Isomorphous with the Tb, Sm and Dy analogues.

;
_exptl_crystal_description 'sheet'
_diffrn_ambient_temperature 293
_refine_special_details
;
Disordered cation and solvent molecules were not modelled and the disordered 
density was taken into account using the SQUEEZE/PLATON procedure.
;
#These two values have been output from a single CSD field.
_refine_ls_R_factor_gt 0.0325
_refine_ls_wR_factor_gt 0.0325
_symmetry_cell_setting triclinic
_symmetry_space_group_name_H-M 'P -1'
_symmetry_Int_Tables_number 2
loop_
_symmetry_equiv_pos_site_id
_symmetry_equiv_pos_as_xyz
1 x,y,z
2 -x,-y,-z
_cell_length_a 11.660(2)
_cell_length_b 12.245(2)
_cell_length_c 13.568(3)
_cell_angle_alpha 64.88(3)
_cell_angle_beta 68.25(3)
_cell_angle_gamma 88.14(3)
_cell_formula_units_Z 1
loop_
_atom_type_symbol
_atom_type_radius_bond
C 0.68
H 0.23
Eu 1.98
O 0.68
loop_
_atom_site_label
_atom_site_type_symbol
_atom_site_fract_x
_atom_site_fract_y
_atom_site_fract_z
Eu1 Eu 0.00000 0.00000 0.00000
Eu2 Eu 0.07117(2) 0.17060(2) 0.17231(2)
O1 O 0.2100(3) 0.1936(3) -0.0201(3)
O2 O 0.0281(3) -0.0299(3) 0.1863(3)
O3 O 0.9343(3) 0.1573(3) 0.0559(3)
O4 O -0.0593(4) -0.1287(3) 0.6286(3)
O5 O 0.7660(3) -0.0555(3) -0.2083(3)
O6 O 0.0013(4) -0.3004(3) 0.7234(3)
O7 O 0.9767(3) 0.3313(3) 0.0549(3)
O8 O 0.7628(3) 0.6764(3) -0.0976(3)
O9 O -0.0410(4) -0.1889(3) 0.1804(3)
O10 O 0.2148(3) 0.0465(3) -0.0751(4)
O11 O 0.6434(4) 0.6723(4) -0.1914(4)
O12 O -0.1443(4) 0.0960(5) 0.3046(4)
C1 C -0.0068(4) -0.1440(4) 0.2337(4)
C2 C -0.0062(4) -0.2264(4) 0.3518(4)
C3 C 0.7108(5) 0.6230(5) -0.1345(5)
C4 C 0.2677(4) 0.1264(5) -0.0644(4)
C5 C 0.4081(4) 0.1387(4) -0.1067(4)
C6 C 0.4671(4) 0.0517(4) -0.1420(4)
H1 H 0.42150 -0.00410 -0.14840
C7 C 0.5917(4) 0.0495(4) -0.1668(4)
C8 C 0.6600(4) 0.1331(4) -0.1582(4)
H2 H 0.74520 0.13200 -0.17770
C9 C 0.6039(4) 0.2193(4) -0.1209(4)
C10 C 0.4754(4) 0.2212(4) -0.0967(4)
H3 H 0.43570 0.27880 -0.07380
C11 C -0.0234(5) -0.2293(5) 0.6364(4)
C12 C 0.9211(4) 0.2686(4) 0.0292(4)
C13 C 0.6533(5) -0.0519(4) -0.1913(4)
C14 C -0.0098(5) -0.1844(5) 0.4330(4)
H4 H -0.01070 -0.10230 0.41500
O13 O 0.5813(3) -0.1304(3) -0.1911(4)
C15 C -0.0039(5) -0.3498(5) 0.3798(4)
H5 H -0.00320 -0.37600 0.32450
C16 C -0.0027(5) -0.4348(5) 0.4865(5)
C17 C -0.0083(5) -0.3912(5) 0.5679(5)
H6 H -0.00950 -0.44570 0.64140
C18 C -0.0120(5) -0.2692(5) 0.5424(4)
C19 C 0.8162(5) 0.4438(5) -0.0599(5)
H7 H 0.86340 0.49240 -0.04720
C20 C 0.8331(5) 0.3231(5) -0.0302(4)
C21 C 0.7635(4) 0.2511(5) -0.0512(4)
H8 H 0.77460 0.17000 -0.03150
C22 C 0.6770(4) 0.2996(4) -0.1016(4)
C23 C 0.6590(5) 0.4215(5) -0.1288(5)
H9 H 0.60030 0.45410 -0.16020
C24 C 0.7294(5) 0.4932(4) -0.1084(5)
O2A O -0.0281(3) -0.9701(3) 0.8137(3)
O4A O 0.0593(4) -0.8713(3) 0.3714(3)
O6A O -0.0013(4) -0.6996(3) 0.2766(3)
O9A O 0.0410(4) -0.8111(3) 0.8196(3)
C1A C 0.0068(4) -0.8560(4) 0.7663(4)
C2A C 0.0062(4) -0.7736(4) 0.6482(4)
C11A C 0.0234(5) -0.7707(5) 0.3636(4)
C14A C 0.0098(5) -0.8156(5) 0.5670(4)
H4A H 0.01070 -0.89770 0.58500
C15A C 0.0039(5) -0.6502(5) 0.6202(4)
H5A H 0.00320 -0.62400 0.67550
C16A C 0.0027(5) -0.5652(5) 0.5135(5)
C17A C 0.0083(5) -0.6088(5) 0.4321(5)
H6A H 0.00950 -0.55430 0.35860
C18A C 0.0120(5) -0.7308(5) 0.4576(4)
Eu2A Eu -0.07117(2) -1.17060(2) 0.82769(2)
O1A O -0.2100(3) -1.1936(3) 1.0201(3)
O3A O -0.9343(3) -1.1573(3) 0.9441(3)
O5A O -0.7660(3) -0.9445(3) 1.2083(3)
O7A O -0.9767(3) -1.3313(3) 0.9451(3)
O8A O -0.7628(3) -1.6764(3) 1.0976(3)
O10A O -0.2148(3) -1.0465(3) 1.0751(4)
O11A O -0.6434(4) -1.6723(4) 1.1914(4)
O12A O 0.1443(4) -1.0960(5) 0.6954(4)
C3A C -0.7108(5) -1.6230(5) 1.1345(5)
C4A C -0.2677(4) -1.1264(5) 1.0644(4)
C5A C -0.4081(4) -1.1387(4) 1.1067(4)
C6A C -0.4671(4) -1.0517(4) 1.1420(4)
H1A H -0.42150 -0.99590 1.14840
C7A C -0.5917(4) -1.0495(4) 1.1668(4)
C8A C -0.6600(4) -1.1331(4) 1.1582(4)
H2A H -0.74520 -1.13200 1.17770
C9A C -0.6039(4) -1.2193(4) 1.1209(4)
C10A C -0.4754(4) -1.2212(4) 1.0967(4)
H3A H -0.43570 -1.27880 1.07380
C12A C -0.9211(4) -1.2686(4) 0.9708(4)
C13A C -0.6533(5) -0.9481(4) 1.1913(4)
O13A O -0.5813(3) -0.8696(3) 1.1911(4)
C19A C -0.8162(5) -1.4438(5) 1.0599(5)
H7A H -0.86340 -1.49240 1.04720
C20A C -0.8331(5) -1.3231(5) 1.0302(4)
C21A C -0.7635(4) -1.2511(5) 1.0512(4)
H8A H -0.77460 -1.17000 1.03150
C22A C -0.6770(4) -1.2996(4) 1.1016(4)
C23A C -0.6590(5) -1.4215(5) 1.1288(5)
H9A H -0.60030 -1.45410 1.16020
C24A C -0.7294(5) -1.4932(4) 1.1084(5)
Eu1* Eu -1.00000 -1.00000 1.00000
Eu1** Eu 0.00000 -1.00000 1.00000
Eu1*** Eu 1.00000 0.00000 0.00000
Eu2* Eu -0.92883(2) -1.82940(2) 1.17231(2)
Eu2** Eu -0.92883(2) -0.82940(2) 1.17231(2)
Eu2*** Eu 0.07117(2) -0.82940(2) 0.17231(2)
Eu2**** Eu 1.07117(2) 0.17060(2) 0.17231(2)
Eu2A* Eu -1.07117(2) -1.17060(2) 0.82769(2)
Eu2A** Eu -0.07117(2) -0.17060(2) 0.82769(2)
Eu2A*** Eu 0.92883(2) -0.17060(2) -0.17231(2)
Eu2A**** Eu 0.92883(2) 0.82940(2) -0.17231(2)
O2A* O -0.0281(3) 0.0299(3) -0.1863(3)
O3* O -0.0657(3) 0.1573(3) 0.0559(3)
O3A* O 0.0657(3) -1.1573(3) 0.9441(3)
O3A** O 0.0657(3) -0.1573(3) -0.0559(3)
O4* O -0.0593(4) -1.1287(3) 0.6286(3)
O4A* O 0.0593(4) 0.1287(3) 0.3714(3)
O5* O -0.2340(3) -1.0555(3) 0.7917(3)
O5A* O 0.2340(3) 0.0555(3) 0.2083(3)
O6* O 0.0013(4) -1.3004(3) 0.7234(3)
O6A* O -0.0013(4) 0.3004(3) 0.2766(3)
O7* O -0.0233(3) 0.3313(3) 0.0549(3)
O7A* O 0.0233(3) -1.3313(3) 0.9451(3)
O8* O -0.2372(3) -1.3236(3) 0.9024(3)
O8A* O 0.2372(3) 0.3236(3) 0.0976(3)
O9A* O 0.0410(4) 0.1889(3) -0.1804(3)
O10A* O -0.2148(3) -0.0465(3) 0.0751(4)
#END
