
#######################################################################
#
#                 Cambridge Crystallographic Data Centre
#                                CCDC
#
#######################################################################
#
# If this CIF has been generated from an entry in the Cambridge
# Structural Database, then it will include bibliographic, chemical,
# crystal, experimental, refinement or atomic coordinate data resulting
# from the CCDC's data processing and validation procedures.
#
#######################################################################

data_CSD_CIF_VITYOO
_audit_creation_date 2014-02-11
_audit_creation_method CSD-ConQuest-V1
_database_code_CSD VITYOO
_database_code_depnum_ccdc_archive 'CCDC 939026'
_chemical_formula_sum 'C38 H40 N2 Nd2 O24'
_chemical_formula_moiety
;
(C32 H20 Nd2 O20 2-)n,2n(H3 O1 1+),2n(C3 H7 N1 O1)
;
_journal_coden_Cambridge 1350
_journal_volume 16
_journal_year 2014
_journal_page_first 2440
_journal_name_full 'CrystEngComm '
loop_
_publ_author_name
"Liying Zhang"
"Tianyou Song"
"Jianing Xu"
"Jiayin Sun"
"Shuangli Zeng"
"Yuncong Wu"
"Yong Fan"
"Li Wang"
_chemical_name_systematic
;
catena-(bis(oxonium) 
(\m~6~-biphenyl-3,3',5,5'-tetracarboxylato)-(\m~4~-biphenyl-3,3',5,5'-tetracar
boxylato)-tetraaqua-di-neodymium N,N-dimethylformamide solvate)
;
_cell_volume   5791.214
_exptl_crystal_colour 'purple'
_exptl_crystal_description 'sheet'
_diffrn_ambient_temperature 293
_refine_special_details
;
The SQUEEZE/PLATON program has been used to model some disorder.

;
#These two values have been output from a single CSD field.
_refine_ls_R_factor_gt 0.0504
_refine_ls_wR_factor_gt 0.0504
_symmetry_cell_setting monoclinic
_symmetry_space_group_name_H-M 'C 2/c'
_symmetry_Int_Tables_number 15
loop_
_symmetry_equiv_pos_site_id
_symmetry_equiv_pos_as_xyz
1 x,y,z
2 -x,y,1/2-z
3 1/2+x,1/2+y,z
4 1/2-x,1/2+y,1/2-z
5 -x,-y,-z
6 x,-y,-1/2+z
7 -1/2-x,-1/2-y,-z
8 -1/2+x,-1/2-y,-1/2+z
_cell_length_a 12.143(2)
_cell_length_b 24.875(5)
_cell_length_c 19.669(4)
_cell_angle_alpha 90
_cell_angle_beta 102.90(3)
_cell_angle_gamma 90
_cell_formula_units_Z 4
loop_
_atom_type_symbol
_atom_type_radius_bond
C 0.68
H 0.23
Nd 2.01
O 0.68
loop_
_atom_site_label
_atom_site_type_symbol
_atom_site_fract_x
_atom_site_fract_y
_atom_site_fract_z
Nd1 Nd -0.07944(2) 0.449539(14) 0.055232(16)
O1 O 0.0597(6) 0.3899(3) 0.1368(4)
O2 O 0.0250(4) 0.3993(2) -0.0162(3)
O3 O -0.2582(4) 0.4532(2) 0.1030(3)
O4 O -0.0972(4) 0.4686(3) 0.1757(3)
O5 O -0.1618(5) 0.3588(3) 0.0485(4)
O6 O -0.2369(4) 0.4543(2) -0.0504(3)
O7 O 0.0917(4) 0.5013(2) 0.0703(2)
O8 O -0.1360(5) 0.5435(2) 0.0571(3)
C1 C 0.1123(7) 0.4120(3) -0.0355(5)
C2 C -0.2028(5) 0.4673(3) 0.1621(3)
C3 C 0.2063(11) 0.3708(4) -0.0213(11)
C4 C -0.2636(5) 0.4818(3) 0.2185(3)
C5 C 0.1827(11) 0.3172(4) -0.0136(10)
C6 C 0.3246(9) 0.3898(4) -0.0024(7)
C7 C -0.3807(5) 0.4821(3) 0.2052(3)
C8 C -0.2006(5) 0.4931(3) 0.2853(3)
C9 C 0.2730(13) 0.2818(6) 0.0115(10)
H1 H 0.10860 0.30470 -0.02470
C10 C 0.4158(10) 0.3562(6) 0.0237(11)
H2 H 0.33880 0.42610 -0.00820
H3 H -0.42210 0.47320 0.16090
C11 C -0.4377(5) 0.4955(3) 0.2574(3)
H4 H -0.12210 0.49190 0.29480
C12 C -0.2562(5) 0.5061(3) 0.3375(3)
C13 C 0.3911(13) 0.3019(6) 0.0311(9)
C14 C 0.5375(13) 0.3738(6) 0.0325(10)
C15 C -0.3735(5) 0.5083(3) 0.3233(3)
C16 C -0.1913(5) 0.5186(3) 0.4101(3)
H5 H 0.44940 0.27800 0.04860
O9 O 0.5349(11) 0.4206(6) 0.0375(6)
O10 O 0.6105(7) 0.3411(4) 0.0463(7)
H6 H -0.40960 0.51840 0.35830
O7D O -0.0917(4) 0.4987(2) -0.0703(2)
Nd1D Nd 0.07944(2) 0.550461(14) -0.055232(16)
O8D O 0.1360(5) 0.4565(2) -0.0571(3)
C9F C 0.2270(13) 0.2182(6) -0.0115(10)
C11A C -0.5623(5) 0.4955(3) 0.2426(3)
C5F C 0.3173(11) 0.1828(4) 0.0136(10)
C13F C 0.1089(13) 0.1981(6) -0.0311(9)
C7A C -0.6193(5) 0.4821(3) 0.2948(3)
C15A C -0.6265(5) 0.5083(3) 0.1767(3)
O6E O -0.2369(4) 0.5457(2) 0.4496(3)
O7A O -0.0917(4) 0.5013(2) 0.4297(2)
C3F C 0.2937(11) 0.1292(4) 0.0213(11)
H1F H 0.39140 0.19530 0.02470
C10F C 0.0842(10) 0.1438(6) -0.0237(11)
H5F H 0.05060 0.22200 -0.04860
C4A C -0.7364(5) 0.4818(3) 0.2815(3)
H3A H -0.57790 0.47320 0.33910
H6A H -0.59040 0.51840 0.14170
C12A C -0.7438(5) 0.5061(3) 0.1625(3)
Nd1E Nd -0.07944(2) 0.550461(14) 0.555232(16)
Nd1A Nd 0.07944(2) 0.449539(14) 0.444768(16)
C1F C 0.3877(7) 0.0880(3) 0.0355(5)
C6F C 0.1754(9) 0.1102(4) 0.0024(7)
C14F C -0.0375(13) 0.1262(6) -0.0325(10)
C2A C -0.7972(5) 0.4673(3) 0.3379(3)
C8A C -0.7994(5) 0.4931(3) 0.2147(3)
C16A C -0.8087(5) 0.5186(3) 0.0899(3)
O2F O 0.4750(4) 0.1007(2) 0.0162(3)
O8B O 0.3640(5) 0.0435(2) 0.0571(3)
H2F H 0.16120 0.07390 0.00820
O9F O -0.0349(11) 0.0794(6) -0.0375(6)
O10F O -0.1105(7) 0.1589(4) -0.0463(7)
O3A O -0.7418(4) 0.4532(2) 0.3970(3)
O4A O -0.9028(4) 0.4686(3) 0.3243(3)
H4A H -0.87790 0.49190 0.20520
O6D O -0.7631(4) 0.5457(2) 0.0504(3)
O7* O -0.9083(4) 0.5013(2) 0.0703(2)
Nd1F Nd 0.57944(2) 0.050461(14) -0.055232(16)
Nd1B Nd 0.42056(2) -0.050461(14) 0.055232(16)
Nd1A* Nd -0.92056(2) 0.449539(14) 0.444768(16)
Nd1D* Nd -0.92056(2) 0.550461(14) -0.055232(16)
Nd1* Nd -1.07944(2) 0.449539(14) 0.055232(16)
O1A O -1.0597(6) 0.3899(3) 0.3632(4)
O5A O -0.8382(5) 0.3588(3) 0.4515(4)
O6A O -0.7631(4) 0.4543(2) 0.5504(3)
O7A* O -1.0917(4) 0.5013(2) 0.4297(2)
O7E O -0.9083(4) 0.4987(2) 0.5703(2)
O2A O -1.0250(4) 0.3993(2) 0.5162(3)
O8A O -0.8640(5) 0.5435(2) 0.4429(3)
#END
