
#######################################################################
#
#                 Cambridge Crystallographic Data Centre
#                                CCDC
#
#######################################################################
#
# If this CIF has been generated from an entry in the Cambridge
# Structural Database, then it will include bibliographic, chemical,
# crystal, experimental, refinement or atomic coordinate data resulting
# from the CCDC's data processing and validation procedures.
#
#######################################################################

data_CSD_CIF_VITZIJ
_audit_creation_date 2014-02-11
_audit_creation_method CSD-ConQuest-V1
_database_code_CSD VITZIJ
_database_code_depnum_ccdc_archive 'CCDC 939030'
_chemical_formula_sum 'C57 H60 Dy3 N3 O36'
_chemical_formula_moiety
;
(H3 O1 1+)3n,n(C48 H22 Dy3 O26 3-),3n(C3 H7 N1 O1),4n(H2 O1)
;
_journal_coden_Cambridge 1350
_journal_volume 16
_journal_year 2014
_journal_page_first 2440
_journal_name_full 'CrystEngComm '
loop_
_publ_author_name
"Liying Zhang"
"Tianyou Song"
"Jianing Xu"
"Jiayin Sun"
"Shuangli Zeng"
"Yuncong Wu"
"Yong Fan"
"Li Wang"
_chemical_name_systematic
;
catena-[tris(Oxonium) 
tris(\m~6~-3,3',5,5'-biphenyltetracarboxylato)-diaqua-tri-dysprosium 
N,N-dimethylformamide solvate tetrahydrate]
;
_cell_volume   1597.522
_exptl_crystal_colour 'colorless'
_exptl_special_details
;
Isomorphous with the Tb, Sm and Eu analogues

;
_exptl_crystal_description 'sheet'
_diffrn_ambient_temperature 293
_refine_special_details
;
Disordered cation and solvent molecules were not modelled and the disordered 
density was taken into account using the SQUEEZE/PLATON procedure.
;
#These two values have been output from a single CSD field.
_refine_ls_R_factor_gt 0.0333
_refine_ls_wR_factor_gt 0.0333
_symmetry_cell_setting triclinic
_symmetry_space_group_name_H-M 'P -1'
_symmetry_Int_Tables_number 2
loop_
_symmetry_equiv_pos_site_id
_symmetry_equiv_pos_as_xyz
1 x,y,z
2 -x,-y,-z
_cell_length_a 11.5976(11)
_cell_length_b 12.2130(11)
_cell_length_c 13.5187(12)
_cell_angle_alpha 65.039(6)
_cell_angle_beta 68.351(6)
_cell_angle_gamma 87.858(6)
_cell_formula_units_Z 1
loop_
_atom_type_symbol
_atom_type_radius_bond
C 0.68
H 0.23
Dy 1.92
O 0.68
loop_
_atom_site_label
_atom_site_type_symbol
_atom_site_fract_x
_atom_site_fract_y
_atom_site_fract_z
O1 O 0.9715(4) 0.5286(3) 0.3120(4)
O2 O 1.0647(4) 0.3448(3) 0.4443(4)
Dy1 Dy 1.00000 0.50000 0.50000
O3 O 0.7895(4) 0.4534(4) 0.5720(4)
O4 O 1.0393(5) 0.6847(4) 0.3217(4)
Dy2 Dy 1.07124(3) 0.66999(2) 0.67256(2)
C1 C 0.9937(6) 0.3591(5) 0.7335(5)
C2 C 1.2653(6) 0.6278(5) 0.4378(5)
O5 O 1.2362(4) 0.5572(3) 0.7062(4)
O6 O 0.9789(4) 0.8278(3) 0.5548(4)
O7 O 1.0580(5) 0.6296(3) 0.8692(4)
O8 O 0.9950(5) 0.7999(4) 0.7756(4)
O9 O 1.2082(4) 0.6943(4) 0.4830(4)
O10 O 0.8548(5) 0.5961(5) 0.8025(4)
O11 O 1.2338(4) 0.8225(3) 0.6010(4)
C3 C 0.9947(6) 0.2748(5) 0.8522(5)
C4 C 1.4060(5) 0.6383(5) 0.3939(5)
C5 C 0.9974(6) 0.1503(5) 0.8794(5)
C6 C 0.9927(6) 0.3166(5) 0.9338(5)
C7 C 1.4747(5) 0.7227(5) 0.4030(5)
C8 C 1.4655(6) 0.5533(5) 0.3573(5)
C9 C 0.9983(7) 0.0657(5) 0.9870(5)
H1 H 0.99860 0.12400 0.82370
C10 C 0.9884(7) 0.2326(5) 1.0437(5)
H2 H 0.99420 0.39930 0.91500
C11 C 1.6013(6) 0.7195(4) 0.3783(5)
H3 H 1.43530 0.78100 0.42570
C12 C 1.5904(6) 0.5498(5) 0.3322(5)
H4 H 1.41990 0.49830 0.34990
C13 C 0.9942(6) 0.1081(5) 1.0684(5)
C14 C 0.9791(6) 0.2706(5) 1.1379(5)
C15 C 1.6754(6) 0.8006(5) 0.3974(5)
C16 C 1.6590(6) 0.6343(5) 0.3415(5)
C17 C 1.6543(6) 0.4494(5) 0.3069(5)
H5 H 0.99530 0.05350 1.14110
C18 C 1.7626(5) 0.7517(5) 0.4488(5)
C19 C 1.6597(6) 0.9215(5) 0.3707(5)
H6 H 1.74460 0.63320 0.32270
O12 O 1.5836(4) 0.3712(4) 0.3048(4)
C20 C 1.8338(6) 0.8222(5) 0.4697(5)
H7 H 1.77280 0.67020 0.46930
H8 H 1.60190 0.95540 0.33760
C21 C 1.7288(6) 0.9928(5) 0.3925(6)
C22 C 1.9227(5) 0.7670(5) 0.5283(5)
C23 C 1.8173(6) 0.9433(5) 0.4404(5)
C24 C 1.7116(6) 1.1223(5) 0.3654(6)
H9 H 1.86540 0.99190 0.45260
O13 O 1.6416(5) 1.1716(4) 0.3115(5)
O1A O 1.0285(4) 0.4714(3) 0.6880(4)
O2A O 0.9353(4) 0.6552(3) 0.5557(4)
O3A O 1.2105(4) 0.5466(4) 0.4280(4)
O4A O 0.9607(5) 0.3153(4) 0.6783(4)
C9A C 1.0017(7) -0.0657(5) 1.0130(5)
Dy2* Dy 1.07124(3) -0.33001(2) 0.67256(2)
C5A C 1.0026(6) -0.1503(5) 1.1206(5)
C13A C 1.0058(6) -0.1081(5) 0.9316(5)
O7A O 0.9420(5) 0.3704(3) 1.1308(4)
O8A O 1.0050(5) 0.2001(4) 1.2244(4)
O5A O 1.7638(4) 0.4428(3) 0.2938(4)
O7* O 1.0580(5) -0.3704(3) 0.8692(4)
O8* O 0.9950(5) -0.2001(4) 0.7756(4)
C3A C 1.0053(6) -0.2748(5) 1.1478(5)
H1A H 1.00140 -0.12400 1.17630
C10A C 1.0116(7) -0.2326(5) 0.9563(5)
H5A H 1.00470 -0.05350 0.85890
Dy2A Dy 0.92876(3) 0.33001(2) 1.32744(2)
Dy2A* Dy 1.92876(3) 0.33001(2) 0.32744(2)
C14A C 1.0209(6) -0.2706(5) 0.8621(5)
C6A C 1.0073(6) -0.3166(5) 1.0662(5)
C1A C 1.0063(6) -0.3591(5) 1.2665(5)
Dy1* Dy 2.00000 0.50000 0.50000
H2A H 1.00580 -0.39930 1.08500
O1* O 0.9715(4) -0.4714(3) 1.3120(4)
O4* O 1.0393(5) -0.3153(4) 1.3217(4)
O2A* O 1.9353(4) 0.6552(3) 0.5557(4)
O6* O 1.9789(4) 0.8278(3) 0.5548(4)
O11A O 1.7662(4) 1.1775(3) 0.3990(4)
Dy1** Dy 1.00000 -0.50000 1.50000
Dy2A** Dy 0.92876(3) -0.66999(2) 1.32744(2)
Dy2** Dy 2.07124(3) 0.66999(2) 0.67256(2)
Dy2A*** Dy 1.92876(3) 1.33001(2) 0.32744(2)
O3* O 0.7895(4) -0.5466(4) 1.5720(4)
O2* O 1.0647(4) -0.6552(3) 1.4443(4)
O11A* O 0.7662(4) -0.8225(3) 1.3990(4)
O9A O 0.7918(4) -0.6943(4) 1.5170(4)
O10A O 1.1452(5) -0.5961(5) 1.1975(4)
O7A* O 0.9420(5) -0.6296(3) 1.1308(4)
O5A* O 0.7638(4) -0.5572(3) 1.2938(4)
O6A O 1.0211(4) -0.8278(3) 1.4452(4)
O8A* O 1.0050(5) -0.7999(4) 1.2244(4)
C2A C 0.7347(6) -0.6278(5) 1.5622(5)
C4A C 0.5940(5) -0.6383(5) 1.6061(5)
C8A C 0.5345(6) -0.5533(5) 1.6427(5)
C7A C 0.5253(5) -0.7227(5) 1.5970(5)
C12A C 0.4096(6) -0.5498(5) 1.6678(5)
H4A H 0.58010 -0.49830 1.65010
C11A C 0.3987(6) -0.7195(4) 1.6217(5)
H3A H 0.56470 -0.78100 1.57430
C17A C 0.3457(6) -0.4494(5) 1.6931(5)
C16A C 0.3410(6) -0.6343(5) 1.6585(5)
C15A C 0.3246(6) -0.8006(5) 1.6026(5)
O5* O 0.2362(4) -0.4428(3) 1.7062(4)
O12A O 0.4164(4) -0.3712(4) 1.6952(4)
H6A H 0.25540 -0.63320 1.67730
C19A C 0.3403(6) -0.9215(5) 1.6293(5)
C18A C 0.2374(5) -0.7517(5) 1.5512(5)
Dy2*** Dy 0.07124(3) -0.33001(2) 1.67256(2)
C21A C 0.2712(6) -0.9928(5) 1.6075(6)
H8A H 0.39810 -0.95540 1.66240
H7A H 0.22720 -0.67020 1.53070
C20A C 0.1662(6) -0.8222(5) 1.5303(5)
C24A C 0.2884(6) -1.1223(5) 1.6346(6)
C23A C 0.1827(6) -0.9433(5) 1.5596(5)
C22A C 0.0773(5) -0.7670(5) 1.4717(5)
O11* O 0.2338(4) -1.1775(3) 1.6010(4)
O13A O 0.3584(5) -1.1716(4) 1.6885(5)
H9A H 0.13460 -0.99190 1.54740
O2** O 0.0647(4) -0.6552(3) 1.4443(4)
O6A* O 0.0211(4) -0.8278(3) 1.4452(4)
Dy2**** Dy 0.07124(3) -1.33001(2) 1.67256(2)
Dy1*** Dy 0.00000 -0.50000 1.50000
Dy2A**** Dy -0.07124(3) -0.66999(2) 1.32744(2)
#END
