
#######################################################################
#
#                 Cambridge Crystallographic Data Centre
#                                CCDC
#
#######################################################################
#
# If this CIF has been generated from an entry in the Cambridge
# Structural Database, then it will include bibliographic, chemical,
# crystal, experimental, refinement or atomic coordinate data resulting
# from the CCDC's data processing and validation procedures.
#
#######################################################################

data_CSD_CIF_VITZOP
_audit_creation_date 2014-02-11
_audit_creation_method CSD-ConQuest-V1
_database_code_CSD VITZOP
_database_code_depnum_ccdc_archive 'CCDC 939031'
_chemical_formula_sum 'C21 H21 Er2 N1 O16'
_chemical_formula_moiety
;
(C19 H13 Er2 O16 1-)n,n(C2 H8 N1 1+)
;
_journal_coden_Cambridge 1350
_journal_volume 16
_journal_year 2014
_journal_page_first 2440
_journal_name_full 'CrystEngComm '
loop_
_publ_author_name
"Liying Zhang"
"Tianyou Song"
"Jianing Xu"
"Jiayin Sun"
"Shuangli Zeng"
"Yuncong Wu"
"Yong Fan"
"Li Wang"
_chemical_name_systematic
;
catena-(dimethylammonium 
(\m~6~-biphenyl-3,3',5,5'-tetracarboxylato)-tris(\m~2~-formato)-diaqua-di-erbi
um)
;
_cell_volume   2376.489
_exptl_crystal_colour 'pink'
_exptl_crystal_description 'sheet'
_diffrn_ambient_temperature 293
#These two values have been output from a single CSD field.
_refine_ls_R_factor_gt 0.0193
_refine_ls_wR_factor_gt 0.0193
_symmetry_cell_setting monoclinic
_symmetry_space_group_name_H-M 'C 2/c'
_symmetry_Int_Tables_number 15
loop_
_symmetry_equiv_pos_site_id
_symmetry_equiv_pos_as_xyz
1 x,y,z
2 -x,y,1/2-z
3 1/2+x,1/2+y,z
4 1/2-x,1/2+y,1/2-z
5 -x,-y,-z
6 x,-y,-1/2+z
7 -1/2-x,-1/2-y,-z
8 -1/2+x,-1/2-y,-1/2+z
_cell_length_a 19.318(4)
_cell_length_b 14.082(3)
_cell_length_c 8.8793(18)
_cell_angle_alpha 90
_cell_angle_beta 100.31(3)
_cell_angle_gamma 90
_cell_formula_units_Z 4
loop_
_atom_type_symbol
_atom_type_radius_bond
C 0.68
H 0.23
Er 1.89
O 0.68
loop_
_atom_site_label
_atom_site_type_symbol
_atom_site_fract_x
_atom_site_fract_y
_atom_site_fract_z
O1 O 0.19967(11) 0.30406(14) 0.1467(2)
O2 O 0.09074(11) 0.25276(15) 0.0893(3)
C1 C 0.13606(16) 0.31634(19) 0.0833(3)
C2 C 0.50000 0.6330(3) 0.25000
O3 O 0.30365(15) 0.62736(16) 0.4930(3)
Er1 Er 0.328467(6) 0.651634(7) 0.241836(13)
O4 O 0.21438(12) 0.66769(15) 0.1335(3)
O5 O 0.14880(12) 0.73893(13) -0.0656(2)
O6 O 0.31189(14) 0.48837(14) 0.2787(3)
C3 C 0.12755(15) 0.57595(18) -0.0266(3)
O7 O 0.44270(11) 0.59175(16) 0.2513(3)
C4 C 0.16701(15) 0.66745(18) 0.0168(3)
O8 O 0.32601(15) 0.43818(14) 0.5171(3)
C5 C 0.30864(17) 0.4261(2) 0.3778(3)
C6 C 0.15136(15) 0.49123(19) 0.0460(3)
H1 H 0.19150 0.49030 0.12150
C7 C 0.06882(15) 0.57657(18) -0.1428(3)
H2 H 0.05430 0.63340 -0.19180
C8 C 0.11385(15) 0.40789(19) 0.0032(3)
C9 C 0.03120(15) 0.49317(19) -0.1875(3)
C10 C 0.05401(16) 0.41034(19) -0.1092(3)
H3 H 0.02830 0.35480 -0.13290
O1A O -0.19967(11) 0.30406(14) -0.6467(2)
O2A O -0.09074(11) 0.25276(15) -0.5893(3)
C1A C -0.13606(16) 0.31634(19) -0.5833(3)
O4A O -0.21438(12) 0.66769(15) -0.6335(3)
C3A C -0.12755(15) 0.57595(18) -0.4734(3)
C4A C -0.16701(15) 0.66745(18) -0.5168(3)
C6A C -0.15136(15) 0.49123(19) -0.5460(3)
H1A H -0.19150 0.49030 -0.62150
C7A C -0.06882(15) 0.57657(18) -0.3572(3)
H2A H -0.05430 0.63340 -0.30820
C8A C -0.11385(15) 0.40789(19) -0.5032(3)
C9A C -0.03120(15) 0.49317(19) -0.3125(3)
C10A C -0.05401(16) 0.41034(19) -0.3908(3)
H3A H -0.02830 0.35480 -0.36710
O5A O -0.14880(12) 0.73893(13) -0.4344(2)
O7A O 0.55730(11) 0.59175(16) 0.2487(3)
O3A O -0.30365(15) 0.62736(16) -0.9930(3)
Er1A Er -0.328467(6) 0.651634(7) -0.741836(13)
O6A O -0.31189(14) 0.48837(14) -0.7787(3)
O8A O -0.32601(15) 0.43818(14) -1.0171(3)
C5A C -0.30864(17) 0.4261(2) -0.8778(3)
O1B O -0.30033(11) 0.80406(14) -0.8533(2)
O1C O 0.30033(11) 0.80406(14) 0.3533(2)
O2B O -0.40926(11) 0.75276(15) -0.9107(3)
O2C O 0.40926(11) 0.75276(15) 0.4107(3)
Er1A* Er 0.671533(6) 0.651634(7) 0.258164(13)
Er1B Er -0.171533(6) 0.151634(7) -0.758164(13)
Er1C Er 0.171533(6) 0.151634(7) 0.258164(13)
Er1D Er -0.328467(6) 0.348366(7) -1.241836(13)
Er1E Er 0.328467(6) 0.348366(7) 0.741836(13)
Er1F Er 0.171533(6) 0.848366(7) -0.241836(13)
Er1G Er -0.171533(6) 0.848366(7) -0.258164(13)
O5F O 0.35120(12) 0.76107(13) 0.0656(2)
O5G O -0.35120(12) 0.76107(13) -0.5656(2)
O7A* O -0.44270(11) 0.59175(16) -0.7513(3)
O8D O -0.32601(15) 0.56182(14) -0.5171(3)
O8E O 0.32601(15) 0.56182(14) 0.0171(3)
#END
