
#######################################################################
#
#                 Cambridge Crystallographic Data Centre
#                                CCDC
#
#######################################################################
#
# If this CIF has been generated from an entry in the Cambridge
# Structural Database, then it will include bibliographic, chemical,
# crystal, experimental, refinement or atomic coordinate data resulting
# from the CCDC's data processing and validation procedures.
#
#######################################################################

data_CSD_CIF_VITZEF
_audit_creation_date 2014-02-11
_audit_creation_method CSD-ConQuest-V1
_database_code_CSD VITZEF
_database_code_depnum_ccdc_archive 'CCDC 939029'
_chemical_formula_sum 'C57 H60 N3 O36 Sm3'
_chemical_formula_moiety
;
(H3 O1 1+)3n,n(C48 H22 O26 Sm3 3-),3n(C3 H7 N1 O1),4n(H2 O1)
;
_journal_coden_Cambridge 1350
_journal_volume 16
_journal_year 2014
_journal_page_first 2440
_journal_name_full 'CrystEngComm '
loop_
_publ_author_name
"Liying Zhang"
"Tianyou Song"
"Jianing Xu"
"Jiayin Sun"
"Shuangli Zeng"
"Yuncong Wu"
"Yong Fan"
"Li Wang"
_chemical_name_systematic
;
catena-[tris(Oxonium) 
tris(\m~6~-3,3',5,5'-biphenyltetracarboxylato)-diaqua-tri-samarium 
N,N-dimethylformamide solvate tetrahydrate]
;
_cell_volume   1609.793
_exptl_crystal_colour 'colorless'
_exptl_special_details
;
Isomorphous with the Tb, Eu and Dy analogues.

;
_exptl_crystal_description 'sheet'
_diffrn_ambient_temperature 293
_refine_special_details
;
Disordered cation and solvent molecules were not modelled and the disordered 
density was taken into account using the SQUEEZE/PLATON procedure.
;
#These two values have been output from a single CSD field.
_refine_ls_R_factor_gt 0.0274
_refine_ls_wR_factor_gt 0.0274
_symmetry_cell_setting triclinic
_symmetry_space_group_name_H-M 'P -1'
_symmetry_Int_Tables_number 2
loop_
_symmetry_equiv_pos_site_id
_symmetry_equiv_pos_as_xyz
1 x,y,z
2 -x,-y,-z
_cell_length_a 11.647(2)
_cell_length_b 12.247(2)
_cell_length_c 13.604(3)
_cell_angle_alpha 65.01(3)
_cell_angle_beta 67.88(3)
_cell_angle_gamma 88.32(3)
_cell_formula_units_Z 1
loop_
_atom_type_symbol
_atom_type_radius_bond
C 0.68
H 0.23
O 0.68
Sm 1.98
loop_
_atom_site_label
_atom_site_type_symbol
_atom_site_fract_x
_atom_site_fract_y
_atom_site_fract_z
Sm1 Sm 0.50000 1.00000 0.50000
O1 O 0.4751(3) 1.0307(3) 0.3117(3)
O2 O 0.5403(3) 1.1900(3) 0.3197(3)
O3 O 0.2824(3) 0.9522(3) 0.5804(3)
O4 O 0.5673(3) 0.8423(2) 0.4421(2)
C1 C 0.4910(4) 0.8557(3) 0.7350(4)
Sm2 Sm 0.570525(19) 1.171174(17) 0.671858(17)
C2 C 0.7691(4) 1.1275(4) 0.4322(4)
C3 C 0.4923(4) 0.7727(4) 0.8524(3)
O5 O 0.7397(3) 1.3255(2) 0.5936(3)
O6 O 0.3524(3) 1.0969(4) 0.8070(3)
O7 O 0.7093(3) 1.1920(3) 0.4779(3)
O8 O 0.5004(3) 1.3023(3) 0.7760(3)
O9 O 0.5600(3) 1.1292(3) 0.8713(3)
O10 O 0.4748(3) 1.3319(3) 0.5556(3)
O11 O 0.7352(3) 1.0566(2) 0.7051(3)
C4 C 0.9082(4) 1.1373(3) 0.3928(3)
C5 C 0.4891(4) 0.8148(4) 0.9338(4)
C6 C 0.4962(4) 0.6500(4) 0.8795(4)
C7 C 0.9760(4) 1.2210(3) 0.4033(3)
C8 C 0.9683(4) 1.0514(4) 0.3575(4)
C9 C 0.4859(4) 0.7311(4) 1.0422(4)
H1 H 0.48910 0.89700 0.91570
C10 C 0.4977(4) 0.5645(4) 0.9864(4)
H2 H 0.49790 0.62400 0.82390
C11 C 1.1028(4) 1.2192(3) 0.3796(3)
H3 H 0.93600 1.27830 0.42640
H4 H 0.92350 0.99620 0.34960
C12 C 1.0928(4) 1.0486(4) 0.3345(3)
C13 C 0.4909(5) 0.6090(4) 1.0685(4)
C14 C 0.4752(4) 0.7705(4) 1.1364(4)
C15 C 1.1608(4) 1.1319(4) 0.3438(4)
C16 C 1.1752(4) 1.2981(3) 0.4005(4)
C17 C 1.1555(4) 0.9482(3) 0.3088(4)
H5 H 0.48980 0.55530 1.14180
H6 H 1.24590 1.13030 0.32620
C18 C 1.1585(4) 1.4197(4) 0.3745(4)
C19 C 1.2605(4) 1.2512(4) 0.4508(3)
O12 O 1.0826(3) 0.8689(3) 0.3103(3)
C20 C 1.2274(4) 1.4899(4) 0.3969(4)
H7 H 1.10090 1.45330 0.34210
C21 C 1.3300(4) 1.3223(4) 0.4725(4)
H8 H 1.27150 1.17020 0.47050
C22 C 1.2083(4) 1.6216(4) 0.3700(4)
C23 C 1.3134(4) 1.4433(4) 0.4439(4)
C24 C 1.4198(4) 1.2680(4) 0.5299(4)
O13 O 1.1420(3) 1.6702(3) 0.3132(3)
H9 H 1.36030 1.49230 0.45660
O1A O 0.5249(3) 0.9693(3) 0.6883(3)
O2A O 0.4597(3) 0.8100(3) 0.6803(3)
O3A O 0.7176(3) 1.0478(3) 0.4196(3)
O4A O 0.4327(3) 1.1577(2) 0.5579(2)
C10A C 0.5023(4) 0.4355(4) 1.0136(4)
O9A O 0.4400(3) 0.8708(3) 1.1287(3)
O8A O 0.4996(3) 0.6977(3) 1.2240(3)
C13A C 0.5091(5) 0.3910(4) 0.9315(4)
C6A C 0.5038(4) 0.3500(4) 1.1205(4)
O11A O 1.2648(3) 0.9434(2) 0.2949(3)
Sm2A Sm 0.429475(19) 0.828826(17) 1.328142(17)
H5A H 0.51020 0.44470 0.85820
C9A C 0.5141(4) 0.2689(4) 0.9578(4)
C3A C 0.5077(4) 0.2273(4) 1.1476(3)
H2A H 0.50210 0.37600 1.17610
Sm2A* Sm 1.429475(19) 0.828826(17) 0.328142(17)
C5A C 0.5109(4) 0.1852(4) 1.0662(4)
C14A C 0.5248(4) 0.2295(4) 0.8636(4)
C1A C 0.5090(4) 0.1443(3) 1.2650(4)
Sm2* Sm 0.570525(19) 0.171174(17) 0.671858(17)
H1A H 0.51090 0.10300 1.08430
O9* O 0.5600(3) 0.1292(3) 0.8713(3)
O8* O 0.5004(3) 0.3023(3) 0.7760(3)
O2* O 0.5403(3) 0.1900(3) 1.3197(3)
O1* O 0.4751(3) 0.0307(3) 1.3117(3)
O5A O 1.2603(3) 1.6745(2) 0.4064(3)
O4A* O 1.4327(3) 1.1577(2) 0.5579(2)
O10* O 1.4748(3) 1.3319(3) 0.5556(3)
Sm1* Sm 0.50000 0.00000 1.50000
Sm2A** Sm 0.429475(19) -0.171174(17) 1.328142(17)
Sm2A*** Sm 1.429475(19) 1.828826(17) 0.328142(17)
Sm2** Sm 1.570525(19) 1.171174(17) 0.671858(17)
Sm1** Sm 1.50000 1.00000 0.50000
O4* O 0.5673(3) -0.1577(2) 1.4421(2)
O3* O 0.2824(3) -0.0478(3) 1.5804(3)
O5A* O 0.2603(3) -0.3255(2) 1.4064(3)
O7A O 0.2907(3) -0.1920(3) 1.5221(3)
O6A O 0.6476(3) -0.0969(4) 1.1930(3)
O9A* O 0.4400(3) -0.1292(3) 1.1287(3)
O10A O 0.5252(3) -0.3319(3) 1.4444(3)
O11A* O 0.2648(3) -0.0566(2) 1.2949(3)
O8A* O 0.4996(3) -0.3023(3) 1.2240(3)
C2A C 0.2309(4) -0.1275(4) 1.5678(4)
C4A C 0.0918(4) -0.1373(3) 1.6072(3)
C7A C 0.0240(4) -0.2210(3) 1.5967(3)
C8A C 0.0317(4) -0.0514(4) 1.6425(4)
C11A C -0.1028(4) -0.2192(3) 1.6204(3)
H3A H 0.06400 -0.27830 1.57360
C12A C -0.0928(4) -0.0486(4) 1.6655(3)
H4A H 0.07650 0.00380 1.65040
C15A C -0.1608(4) -0.1319(4) 1.6562(4)
C16A C -0.1752(4) -0.2981(3) 1.5995(4)
C17A C -0.1555(4) 0.0518(3) 1.6912(4)
H6A H -0.24590 -0.13030 1.67380
C19A C -0.2605(4) -0.2512(4) 1.5492(3)
C18A C -0.1585(4) -0.4197(4) 1.6255(4)
O12A O -0.0826(3) 0.1311(3) 1.6897(3)
O11* O -0.2648(3) 0.0566(2) 1.7051(3)
C21A C -0.3300(4) -0.3223(4) 1.5275(4)
H8A H -0.27150 -0.17020 1.52950
C20A C -0.2274(4) -0.4899(4) 1.6031(4)
H7A H -0.10090 -0.45330 1.65790
Sm2*** Sm -0.429475(19) 0.171174(17) 1.671858(17)
C24A C -0.4198(4) -0.2680(4) 1.4701(4)
C23A C -0.3134(4) -0.4433(4) 1.5561(4)
C22A C -0.2083(4) -0.6216(4) 1.6300(4)
O4** O -0.4327(3) -0.1577(2) 1.4421(2)
O10A* O -0.4748(3) -0.3319(3) 1.4444(3)
H9A H -0.36030 -0.49230 1.54340
O13A O -0.1420(3) -0.6702(3) 1.6868(3)
O5* O -0.2603(3) -0.6745(2) 1.5936(3)
Sm1*** Sm -0.50000 0.00000 1.50000
Sm2A**** Sm -0.570525(19) -0.171174(17) 1.328142(17)
Sm2**** Sm -0.429475(19) -0.828826(17) 1.671858(17)
#END
