
#######################################################################
#
#                 Cambridge Crystallographic Data Centre
#                                CCDC
#
#######################################################################
#
# If this CIF has been generated from an entry in the Cambridge
# Structural Database, then it will include bibliographic, chemical,
# crystal, experimental, refinement or atomic coordinate data resulting
# from the CCDC's data processing and validation procedures.
#
#######################################################################

data_CSD_CIF_VITZAB
_audit_creation_date 2014-02-11
_audit_creation_method CSD-ConQuest-V1
_database_code_CSD VITZAB
_database_code_depnum_ccdc_archive 'CCDC 939028'
_chemical_formula_sum 'C57 H60 N3 O36 Tb3'
_chemical_formula_moiety
;
(C48 H22 O26 Tb3 3-)n,3n(H3 O1 1+),3n(C3 H7 N1 O1),4n(H2 O1)
;
_journal_coden_Cambridge 1350
_journal_volume 16
_journal_year 2014
_journal_page_first 2440
_journal_name_full 'CrystEngComm '
loop_
_publ_author_name
"Liying Zhang"
"Tianyou Song"
"Jianing Xu"
"Jiayin Sun"
"Shuangli Zeng"
"Yuncong Wu"
"Yong Fan"
"Li Wang"
_chemical_name_systematic
;
catena-(tris(oxonium) 
tris(\m~6~-biphenyl-3,3',5,5'-tetracarboxylato)-diaqua-tri-terbium 
N,N-dimethylformamide solvate tetrahydrate)
;
_cell_volume   1615.241
_exptl_crystal_colour 'colorless'
_exptl_crystal_description 'sheet'
_diffrn_ambient_temperature 293
_refine_special_details
;
The SQUEEZE/PLATON program has been used to model some disorder.

;
#These two values have been output from a single CSD field.
_refine_ls_R_factor_gt 0.0393
_refine_ls_wR_factor_gt 0.0393
_symmetry_cell_setting triclinic
_symmetry_space_group_name_H-M 'P -1'
_symmetry_Int_Tables_number 2
loop_
_symmetry_equiv_pos_site_id
_symmetry_equiv_pos_as_xyz
1 x,y,z
2 -x,-y,-z
_cell_length_a 11.609(2)
_cell_length_b 12.227(2)
_cell_length_c 13.554(3)
_cell_angle_alpha 65.00(3)
_cell_angle_beta 69.14(3)
_cell_angle_gamma 87.75(3)
_cell_formula_units_Z 1
loop_
_atom_type_symbol
_atom_type_radius_bond
C 0.68
H 0.23
O 0.68
Tb 1.94
loop_
_atom_site_label
_atom_site_type_symbol
_atom_site_fract_x
_atom_site_fract_y
_atom_site_fract_z
O1 O 0.6410(5) 0.9024(6) 0.2005(5)
O2 O 0.5619(5) 1.1299(4) -0.1306(4)
O3 O 0.4986(5) 1.3006(4) -0.2244(4)
C1 C 0.5238(6) 1.2287(5) -0.1363(5)
O4 O 1.2908(4) 0.8067(4) 0.5155(4)
O5 O 1.2891(4) 0.9537(4) 0.5705(4)
C2 C 1.2362(5) 0.8728(5) 0.5605(5)
C3 C 1.0264(5) 0.7785(5) 0.5953(5)
H1 H 1.06570 0.72110 0.57170
C4 C 1.0958(5) 0.8626(5) 0.6043(5)
C5 C 1.0375(5) 0.9487(5) 0.6400(5)
H2 H 1.08360 1.00450 0.64600
O6 O 0.7388(4) 1.0552(4) 0.7088(4)
O7 O 0.9202(4) 1.1299(4) 0.6919(5)
C6 C 0.8496(6) 1.0521(5) 0.6926(5)
C7 C 0.9113(5) 0.9511(5) 0.6665(5)
C8 C 0.8427(5) 0.8671(5) 0.6576(5)
H3 H 0.75760 0.86880 0.67630
C9 C 0.8990(5) 0.7800(5) 0.6211(5)
O8 O 0.7331(4) 0.3220(4) 0.6035(4)
C10 C 0.7892(6) 0.3777(6) 0.6344(6)
C11 C 0.7714(6) 0.5072(5) 0.6086(6)
C12 C 0.6826(6) 0.5559(6) 0.5606(6)
H4 H 0.63410 0.50740 0.54880
C13 C 0.6668(6) 0.6786(5) 0.5304(6)
Tb1 Tb 0.50000 1.00000 0.50000
Tb2 Tb 0.42632(2) 0.83031(2) 0.32690(2)
O9 O 0.5637(4) 0.8453(4) 0.4441(4)
O10 O 0.4681(5) 1.0297(4) 0.3129(4)
O11 O 0.5213(4) 0.6715(4) 0.4452(4)
O12 O 0.5339(6) 1.1856(4) 0.3233(4)
O13 O 0.8595(5) 0.3283(4) 0.6910(5)
C14 C 0.5023(5) 1.1412(5) 0.2667(5)
C15 C 0.5774(5) 0.7330(5) 0.4714(5)
C16 C 0.8254(5) 0.7006(5) 0.6021(5)
C17 C 0.5039(6) 1.2257(5) 0.1487(5)
C18 C 0.8418(6) 0.5791(5) 0.6290(6)
H5 H 0.90080 0.54560 0.66100
C19 C 0.5078(6) 1.1854(5) 0.0663(5)
H6 H 0.50780 1.10310 0.08440
C20 C 0.7380(5) 0.7491(5) 0.5514(6)
H7 H 0.72720 0.83050 0.53110
C21 C 0.5013(7) 1.3476(6) 0.1220(5)
H8 H 0.49950 1.37330 0.17800
C22 C 0.5011(7) 1.4337(5) 0.0143(5)
C23 C 0.5118(7) 1.2686(6) -0.0432(5)
C24 C 0.5087(7) 1.3905(6) -0.0681(6)
H9 H 0.51170 1.44550 -0.14200
O2A O 0.4381(5) 1.8701(4) 0.1306(4)
O3A O 0.5014(5) 1.6994(4) 0.2244(4)
C1A C 0.4762(6) 1.7713(5) 0.1363(5)
O10A O 0.5319(5) 1.9703(4) -0.3129(4)
O12A O 0.4661(6) 1.8144(4) -0.3233(4)
C14A C 0.4977(5) 1.8588(5) -0.2667(5)
C17A C 0.4961(6) 1.7743(5) -0.1487(5)
C19A C 0.4922(6) 1.8146(5) -0.0663(5)
H6A H 0.49220 1.89690 -0.08440
C21A C 0.4987(7) 1.6524(6) -0.1220(5)
H8A H 0.50050 1.62670 -0.17800
C22A C 0.4989(7) 1.5663(5) -0.0143(5)
C23A C 0.4882(7) 1.7314(6) 0.0432(5)
C24A C 0.4913(7) 1.6095(6) 0.0681(6)
H9A H 0.48830 1.55450 0.14200
O1A O 0.3590(5) 0.0976(6) 0.7995(5)
O4A O -0.2908(4) 0.1933(4) 0.4845(4)
O5A O -0.2891(4) 0.0463(4) 0.4295(4)
C2A C -0.2362(5) 0.1272(5) 0.4395(5)
C3A C -0.0264(5) 0.2215(5) 0.4047(5)
H1A H -0.06570 0.27890 0.42830
C4A C -0.0958(5) 0.1374(5) 0.3957(5)
C5A C -0.0375(5) 0.0513(5) 0.3600(5)
H2A H -0.08360 -0.00450 0.35400
O6A O 0.2612(4) -0.0552(4) 0.2912(4)
O7A O 0.0798(4) -0.1299(4) 0.3081(5)
C6A C 0.1504(6) -0.0521(5) 0.3074(5)
C7A C 0.0887(5) 0.0489(5) 0.3335(5)
C8A C 0.1573(5) 0.1329(5) 0.3424(5)
H3A H 0.24240 0.13120 0.32370
C9A C 0.1010(5) 0.2200(5) 0.3789(5)
O8A O 0.2669(4) 0.6780(4) 0.3965(4)
C10A C 0.2108(6) 0.6223(6) 0.3656(6)
C11A C 0.2286(6) 0.4928(5) 0.3914(6)
C12A C 0.3174(6) 0.4441(6) 0.4394(6)
H4A H 0.36590 0.49260 0.45120
C13A C 0.3332(6) 0.3214(5) 0.4696(6)
Tb2A Tb 0.57368(2) 0.16969(2) 0.67310(2)
O9A O 0.4363(4) 0.1547(4) 0.5559(4)
O11A O 0.4787(4) 0.3285(4) 0.5548(4)
O13A O 0.1405(5) 0.6717(4) 0.3090(5)
C15A C 0.4226(5) 0.2670(5) 0.5286(5)
C16A C 0.1746(5) 0.2994(5) 0.3979(5)
C18A C 0.1582(6) 0.4209(5) 0.3710(6)
H5A H 0.09920 0.45440 0.33900
C20A C 0.2620(5) 0.2509(5) 0.4486(6)
H7A H 0.27280 0.16950 0.46890
O2* O 0.5619(5) 0.1299(4) 0.8694(4)
O2A* O 0.4381(5) 0.8701(4) 0.1306(4)
O3* O 0.4986(5) 0.3006(4) 0.7756(4)
O3A* O 0.5014(5) 0.6994(4) 0.2244(4)
O4* O 0.2908(4) 0.8067(4) 0.5155(4)
O4A* O 0.7092(4) 0.1933(4) 0.4845(4)
O5* O 0.2891(4) 0.9537(4) 0.5705(4)
O5A* O 0.7109(4) 1.0463(4) 0.4295(4)
O6* O 0.7388(4) 0.0552(4) 0.7088(4)
O6A* O 0.2612(4) 0.9448(4) 0.2912(4)
Tb1* Tb -0.50000 0.00000 0.50000
Tb1** Tb 0.50000 0.00000 0.50000
Tb1*** Tb 0.50000 2.00000 -0.50000
Tb1**** Tb 1.50000 1.00000 0.50000
Tb2* Tb 0.42632(2) -0.16969(2) 0.32690(2)
Tb2** Tb 0.42632(2) 1.83031(2) 0.32690(2)
Tb2*** Tb 1.42632(2) 0.83031(2) 0.32690(2)
Tb2A* Tb -0.42632(2) 0.16969(2) 0.67310(2)
Tb2A** Tb 0.57368(2) 1.16969(2) -0.32690(2)
Tb2A*** Tb 0.57368(2) 1.16969(2) 0.67310(2)
Tb2A**** Tb 0.57368(2) 2.16969(2) -0.32690(2)
O9A* O 0.4363(4) 1.1547(4) 0.5559(4)
O10A* O 0.5319(5) -0.0297(4) 0.6871(4)
O10A** O 0.5319(5) 0.9703(4) 0.6871(4)
O12A* O 0.4661(6) 0.8144(4) 0.6767(4)
#END
