
#######################################################################
#
#                 Cambridge Crystallographic Data Centre
#                                CCDC
#
#######################################################################
#
# If this CIF has been generated from an entry in the Cambridge
# Structural Database, then it will include bibliographic, chemical,
# crystal, experimental, refinement or atomic coordinate data resulting
# from the CCDC's data processing and validation procedures.
#
#######################################################################

data_CSD_CIF_VIWFUE
_audit_creation_date 2014-02-12
_audit_creation_method CSD-ConQuest-V1
_database_code_CSD VIWFUE
_database_code_depnum_ccdc_archive 'CCDC 916575'
_chemical_formula_sum 'C76 H98 Mn3 N40 Nb2 O12'
_chemical_formula_moiety
;
(C66 H64 Mn3 N36 Nb2 O2 2-)n,2n(C5 H7 N2 1+),10n(H2 O1)
;
_journal_coden_Cambridge 1147
_journal_volume 13
_journal_year 2013
_journal_page_first 4673
_journal_name_full 'Cryst.Growth Des. '
loop_
_publ_author_name
"K.Imoto"
"K.Nakagawa"
"H.Miyahara"
"S.-i.Ohkoshi"
_chemical_name_systematic
;
catena-[bis(4-aminopyridinium) 
hexakis(\m~2~-cyano)-decakis(pyridin-4-amine)-diaqua-decacyano-tri-manganese-d
i-niobium decahydrate]
;
_cell_volume   9673.548
_exptl_crystal_colour 'yellow'
_exptl_crystal_density_diffrn 1.452
_exptl_crystal_description 'platelet'
_diffrn_ambient_temperature 90
_refine_special_details
;
C1,C10,C11,C12,C13,C14,C15,C16,C17,C18,C19,C2,C20,C21, 
C22,C23,C24,C25,C26,C27,C28,C29,C3,C30,C31,C32,C33,C34,C35,C36,C37,C38, 
C4,C5,C6,C7,C8,C9,Mn1,Mn2,N1,N10,N11,N12,N13,N14,N15,N16,N17,N18,N19,N2, 
N20,N3,N4,N5,N6,N7,N8,N9,Nb1,O1L,O1Z,O2Z,O3Z,O4Z,O5Z and O3Z2,O5Z2 disordered 
over two sites with occupancies 1.0:0.1000.
;
#These two values have been output from a single CSD field.
_refine_ls_R_factor_gt 0.0446
_refine_ls_wR_factor_gt 0.0446
_symmetry_cell_setting monoclinic
_symmetry_space_group_name_H-M 'C 2/c'
_symmetry_Int_Tables_number 15
loop_
_symmetry_equiv_pos_site_id
_symmetry_equiv_pos_as_xyz
1 x,y,z
2 -x,y,1/2-z
3 1/2+x,1/2+y,z
4 1/2-x,1/2+y,1/2-z
5 -x,-y,-z
6 x,-y,-1/2+z
7 -1/2-x,-1/2-y,-z
8 -1/2+x,-1/2-y,-1/2+z
_cell_length_a 19.1498(6)
_cell_length_b 17.7070(4)
_cell_length_c 29.3088(7)
_cell_angle_alpha 90
_cell_angle_beta 103.252(1)
_cell_angle_gamma 90
_cell_formula_units_Z 4
loop_
_atom_type_symbol
_atom_type_radius_bond
C 0.68
H 0.23
Mn 1.61
N 0.68
Nb 1.64
O 0.68
loop_
_atom_site_label
_atom_site_type_symbol
_atom_site_fract_x
_atom_site_fract_y
_atom_site_fract_z
Nb1 Nb 0.206915(11) 0.847105(13) 0.132074(8)
Mn1 Mn 0.25452(2) 0.60348(2) 0.255181(14)
Mn2 Mn 0.00000 1.00000 0.00000
O1 O 0.06533(11) 0.93028(13) -0.03991(7)
N1 N 0.23849(12) 0.70728(13) 0.21260(8)
N2 N 0.07317(12) 0.95164(13) 0.06350(8)
N3 N 0.22937(12) 1.00750(14) 0.19707(9)
N4 N 0.28936(13) 0.96497(15) 0.06842(9)
N5 N 0.07680(13) 0.85412(14) 0.19427(9)
N6 N 0.08247(13) 0.71960(14) 0.07677(9)
N7 N 0.38246(13) 0.84720(14) 0.19110(9)
N8 N 0.28110(14) 0.72489(16) 0.06612(9)
N9 N 0.15008(12) 0.55413(14) 0.21140(8)
N10 N -0.05779(14) 0.48252(17) 0.14675(11)
N11 N 0.32642(13) 0.55941(14) 0.20961(8)
N12 N 0.48799(19) 0.4975(2) 0.14239(11)
N13 N 0.18035(12) 0.65732(14) 0.29838(8)
N14 N 0.04405(16) 0.76405(19) 0.37146(10)
N15 N 0.35664(12) 0.65678(14) 0.30033(8)
N16 N 0.53291(18) 0.7743(3) 0.38017(11)
N17 N -0.07403(12) 0.90242(14) -0.00345(9)
N18 N -0.20071(17) 0.70779(18) -0.03223(11)
C1 C 0.22761(13) 0.75337(15) 0.18423(9)
C2 C 0.11894(14) 0.91717(15) 0.08669(9)
C3 C 0.22128(13) 0.95380(16) 0.17406(10)
C4 C 0.26163(14) 0.92472(16) 0.08976(10)
C5 C 0.12079(14) 0.85179(15) 0.17301(9)
C6 C 0.12385(14) 0.76237(15) 0.09663(9)
C7 C 0.32332(14) 0.84786(15) 0.17052(9)
C8 C 0.25756(14) 0.76697(16) 0.08866(10)
C9 C 0.10932(16) 0.59109(17) 0.17498(10)
C10 C 0.04009(16) 0.57077(17) 0.15335(11)
C11 C 0.00958(15) 0.50709(17) 0.16883(11)
C12 C 0.05187(16) 0.46678(17) 0.20604(11)
C13 C 0.12001(16) 0.49207(17) 0.2260(1)
C14 C 0.33652(16) 0.59566(17) 0.17131(10)
C15 C 0.39003(18) 0.57879(18) 0.14857(11)
C16 C 0.43679(17) 0.51872(19) 0.16468(11)
C17 C 0.42573(17) 0.47986(19) 0.20404(11)
C18 C 0.37180(16) 0.50218(17) 0.22518(10)
C19 C 0.37483(16) 0.65227(19) 0.34725(11)
C20 C 0.43202(18) 0.6902(3) 0.37530(11)
C21 C 0.47670(17) 0.7342(2) 0.35433(11)
C22 C 0.45887(16) 0.73774(18) 0.30517(11)
C23 C 0.39987(16) 0.69954(18) 0.28043(10)
C24 C 0.13004(15) 0.70829(16) 0.27811(10)
C25 C 0.08343(15) 0.74344(17) 0.30041(10)
C26 C 0.08638(15) 0.72685(18) 0.34756(10)
C27 C 0.13688(15) 0.67289(18) 0.3689(1)
C28 C 0.18140(15) 0.64029(17) 0.34333(10)
C29 C -0.14350(15) 0.90521(18) -0.02734(11)
C30 C -0.18730(16) 0.84357(19) -0.03662(11)
C31 C -0.16011(17) 0.77082(18) -0.02248(11)
C32 C -0.08835(16) 0.76775(17) 0.00291(11)
C33 C -0.04890(15) 0.83309(17) 0.01128(10)
H1 H 0.10920 0.94100 -0.03690
H2 H 0.06970 0.88270 -0.03390
H3 H 0.12940 0.63400 0.16330
H4 H 0.01350 0.60000 0.12810
H5 H -0.07690 0.44330 0.16000
H6 H -0.08520 0.51720 0.12880
H7 H 0.03380 0.42240 0.21750
H8 H 0.52140 0.46210 0.15290
H9 H 0.49110 0.52320 0.11590
H10 H 0.14770 0.46430 0.25160
H11 H 0.30460 0.63560 0.15910
H12 H 0.00210 0.77850 0.35310
H13 H 0.03860 0.74460 0.39890
H14 H 0.39520 0.60760 0.12220
H15 H 0.55210 0.74910 0.40710
H16 H 0.56790 0.78310 0.36460
H17 H 0.45540 0.43810 0.21620
H18 H 0.36640 0.47560 0.25230
H19 H -0.18220 0.66500 -0.01920
H20 H -0.24950 0.70970 -0.04340
H21 H 0.34650 0.62090 0.36220
H22 H 0.44090 0.68630 0.40850
H23 H 0.48760 0.76650 0.28910
H24 H 0.38880 0.70350 0.24720
H25 H 0.12680 0.72060 0.24610
H26 H 0.04940 0.77880 0.28400
H27 H 0.14050 0.65880 0.40060
H28 H 0.21490 0.60350 0.35850
H29 H -0.16290 0.95300 -0.03830
H30 H -0.23610 0.84950 -0.05260
H31 H -0.06730 0.72080 0.01420
H32 H -0.00060 0.82940 0.02860
O2 O -0.13835(16) 0.57950(15) 0.02461(10)
O3 O 0.01297(17) 0.58632(16) 0.0328(1)
O4 O 0.0077(2) 0.5626(3) -0.05882(12)
O5? O 0.0705(19) 0.609(3) -0.0457(11)
O6 O 0.10066(13) 0.77762(14) -0.02080(8)
O7 O 0.21826(13) 0.92893(14) -0.02977(8)
O8? O 0.2105(12) 1.0085(13) -0.0286(8)
N19 N -0.2339(2) 0.5372(2) -0.08512(12)
N20 N -0.2061(3) 0.6735(3) -0.19186(16)
C34 C -0.1675(3) 0.5456(3) -0.09276(14)
C35 C -0.1560(3) 0.5935(3) -0.12680(14)
C36 C -0.2140(3) 0.6308(2) -0.15520(15)
C37 C -0.2818(3) 0.6221(3) -0.14549(17)
C38 C -0.2898(3) 0.5755(3) -0.11022(16)
H33 H -0.24060 0.50580 -0.06320
H34 H -0.12850 0.51810 -0.07430
H35 H -0.10880 0.60140 -0.13110
H36 H -0.32190 0.64860 -0.16340
H37 H -0.33560 0.57000 -0.10330
Nb1D Nb -0.206915(11) 1.152895(13) -0.132074(8)
Mn1D Mn -0.25452(2) 1.39652(2) -0.255181(14)
O1D O -0.06533(11) 1.06972(13) 0.03991(7)
N1D N -0.23849(12) 1.29272(13) -0.21260(8)
N2D N -0.07317(12) 1.04836(13) -0.06350(8)
N3D N -0.22937(12) 0.99250(14) -0.19707(9)
N4D N -0.28936(13) 1.03503(15) -0.06842(9)
N5D N -0.07680(13) 1.14588(14) -0.19427(9)
N6D N -0.08247(13) 1.28040(14) -0.07677(9)
N7D N -0.38246(13) 1.15280(14) -0.19110(9)
N8D N -0.28110(14) 1.27511(16) -0.06612(9)
N9D N -0.15008(12) 1.44587(14) -0.21140(8)
N10D N 0.05779(14) 1.51748(17) -0.14675(11)
N11D N -0.32642(13) 1.44059(14) -0.20961(8)
N12D N -0.48799(19) 1.5025(2) -0.14239(11)
N13D N -0.18035(12) 1.34268(14) -0.29838(8)
N14D N -0.04405(16) 1.23595(19) -0.37146(10)
N15D N -0.35664(12) 1.34322(14) -0.30033(8)
N16D N -0.53291(18) 1.2257(3) -0.38017(11)
N17D N 0.07403(12) 1.09758(14) 0.00345(9)
N18D N 0.20071(17) 1.29221(18) 0.03223(11)
C1D C -0.22761(13) 1.24663(15) -0.18423(9)
C2D C -0.11894(14) 1.08283(15) -0.08669(9)
C3D C -0.22128(13) 1.04620(16) -0.17406(10)
C4D C -0.26163(14) 1.07528(16) -0.08976(10)
C5D C -0.12079(14) 1.14821(15) -0.17301(9)
C6D C -0.12385(14) 1.23763(15) -0.09663(9)
C7D C -0.32332(14) 1.15214(15) -0.17052(9)
C8D C -0.25756(14) 1.23303(16) -0.08866(10)
C9D C -0.10932(16) 1.40891(17) -0.17498(10)
C10D C -0.04009(16) 1.42923(17) -0.15335(11)
C11D C -0.00958(15) 1.49291(17) -0.16883(11)
C12D C -0.05187(16) 1.53322(17) -0.20604(11)
C13D C -0.12001(16) 1.50793(17) -0.2260(1)
C14D C -0.33652(16) 1.40434(17) -0.17131(10)
C15D C -0.39003(18) 1.42121(18) -0.14857(11)
C16D C -0.43679(17) 1.48128(19) -0.16468(11)
C17D C -0.42573(17) 1.52014(19) -0.20404(11)
C18D C -0.37180(16) 1.49782(17) -0.22518(10)
C19D C -0.37483(16) 1.34773(19) -0.34725(11)
C20D C -0.43202(18) 1.3098(3) -0.37530(11)
C21D C -0.47670(17) 1.2658(2) -0.35433(11)
C22D C -0.45887(16) 1.26226(18) -0.30517(11)
C23D C -0.39987(16) 1.30046(18) -0.28043(10)
C24D C -0.13004(15) 1.29171(16) -0.27811(10)
C25D C -0.08343(15) 1.25656(17) -0.30041(10)
C26D C -0.08638(15) 1.27315(18) -0.34756(10)
C27D C -0.13688(15) 1.32711(18) -0.3689(1)
C28D C -0.18140(15) 1.35971(17) -0.34333(10)
C29D C 0.14350(15) 1.09479(18) 0.02734(11)
C30D C 0.18730(16) 1.15643(19) 0.03662(11)
C31D C 0.16011(17) 1.22918(18) 0.02248(11)
C32D C 0.08835(16) 1.23225(17) -0.00291(11)
C33D C 0.04890(15) 1.16691(17) -0.01128(10)
H1D H -0.10920 1.05900 0.03690
H2D H -0.06970 1.11730 0.03390
H3D H -0.12940 1.36600 -0.16330
H4D H -0.01350 1.40000 -0.12810
H5D H 0.07690 1.55670 -0.16000
H6D H 0.08520 1.48280 -0.12880
H7D H -0.03380 1.57760 -0.21750
H8D H -0.52140 1.53790 -0.15290
H9D H -0.49110 1.47680 -0.11590
H10D H -0.14770 1.53570 -0.25160
H11D H -0.30460 1.36440 -0.15910
H12D H -0.00210 1.22150 -0.35310
H13D H -0.03860 1.25540 -0.39890
H14D H -0.39520 1.39240 -0.12220
H15D H -0.55210 1.25090 -0.40710
H16D H -0.56790 1.21690 -0.36460
H17D H -0.45540 1.56190 -0.21620
H18D H -0.36640 1.52440 -0.25230
H19D H 0.18220 1.33500 0.01920
H20D H 0.24950 1.29030 0.04340
H21D H -0.34650 1.37910 -0.36220
H22D H -0.44090 1.31370 -0.40850
H23D H -0.48760 1.23350 -0.28910
H24D H -0.38880 1.29650 -0.24720
H25D H -0.12680 1.27940 -0.24610
H26D H -0.04940 1.22120 -0.28400
H27D H -0.14050 1.34120 -0.40060
H28D H -0.21490 1.39650 -0.35850
H29D H 0.16290 1.04700 0.03830
H30D H 0.23610 1.15050 0.05260
H31D H 0.06730 1.27920 -0.01420
H32D H 0.00060 1.17060 -0.02860
Mn1C Mn 0.24548(2) 1.10348(2) 0.244819(14)
Mn1G Mn -0.24548(2) 0.89652(2) -0.244819(14)
N3C N 0.27063(12) 0.50750(14) 0.30293(9)
N3G N -0.27063(12) 1.49250(14) -0.30293(9)
#END
