
#######################################################################
#
#                 Cambridge Crystallographic Data Centre
#                                CCDC
#
#######################################################################
#
# If this CIF has been generated from an entry in the Cambridge
# Structural Database, then it will include bibliographic, chemical,
# crystal, experimental, refinement or atomic coordinate data resulting
# from the CCDC's data processing and validation procedures.
#
#######################################################################

data_CSD_CIF_VIWMUK
_audit_creation_date 2008-04-06
_audit_creation_method CSD-ConQuest-V1
_database_code_CSD VIWMUK
_database_code_depnum_ccdc_archive 'CCDC 677470'
_chemical_formula_sum 'C64 H56 Bi4 N12 O36'
_chemical_formula_moiety
;
(C4 H12 N2 2+)2n,n(C56 H28 Bi4 N8 O34 4-),2n(H2 O1)
;
_journal_coeditor_code "IUCr BI2264"
_journal_coden_Cambridge 1370
_journal_volume 64
_journal_year 2008
_journal_page_first m374
_journal_name_full 'Acta Crystallogr.,Sect.E:Struct.Rep.Online '
loop_
_publ_author_name
"H.Aghabozorg"
"A.Nemati"
"Z.Derikvand"
"M.Ghadermazi"
_chemical_name_systematic
;
catena-(bis(Piperazinedi-ium) 
tetrakis(\m~2~-pyridine-2,6-dicarboxylato-N,O,O,O')-tetrakis(\m~2~-pyridine-2,
6-dicarboxylato-N,O,O',O'')-diaqua-tetra-bismuth(iii) dihydrate)
;
_cell_volume   1669.646
_exptl_crystal_colour 'colorless'
_exptl_crystal_density_diffrn 2.392
_exptl_crystal_description 'prism'
_diffrn_ambient_temperature 100
#These two values have been output from a single CSD field.
_refine_ls_R_factor_gt 0.0218
_refine_ls_wR_factor_gt 0.0218
_symmetry_cell_setting triclinic
_symmetry_space_group_name_H-M 'P -1'
_symmetry_Int_Tables_number 2
loop_
_symmetry_equiv_pos_site_id
_symmetry_equiv_pos_as_xyz
1 x,y,z
2 -x,-y,-z
_cell_length_a 10.8111(4)
_cell_length_b 12.1660(5)
_cell_length_c 14.0402(5)
_cell_angle_alpha 96.094(1)
_cell_angle_beta 93.169(1)
_cell_angle_gamma 113.848(1)
_cell_formula_units_Z 1
loop_
_atom_type_symbol
_atom_type_radius_bond
C 0.68
H 0.23
Bi 1.87
N 0.68
O 0.71
loop_
_atom_site_label
_atom_site_type_symbol
_atom_site_fract_x
_atom_site_fract_y
_atom_site_fract_z
Bi1 Bi 0.187854(12) 0.622892(10) 0.307230(9)
Bi2 Bi -0.184337(12) 0.356548(10) 0.178059(9)
O1 O 0.0427(2) 0.3934(2) 0.26028(18)
O2 O 0.0375(3) 0.2059(2) 0.23943(18)
O3 O 0.4159(2) 0.7303(2) 0.35552(17)
O4 O 0.6152(3) 0.7375(2) 0.41582(19)
O5 O 0.1821(3) 0.8179(2) 0.39201(17)
O6 O 0.2563(3) 1.0190(2) 0.39225(18)
O7 O 0.2296(2) 0.5669(2) 0.15750(17)
O8 O 0.2740(3) 0.6124(2) 0.01038(17)
O9 O -0.0239(2) 0.5885(2) 0.20041(18)
O10 O -0.0098(2) 0.7798(2) 0.21948(19)
O11 O -0.4218(2) 0.2606(2) 0.15982(18)
O12 O -0.6215(2) 0.2613(2) 0.11226(19)
O13 O 0.1855(3) 0.5630(2) 0.66433(17)
O14 O 0.2198(3) 0.5886(2) 0.51207(18)
O15 O 0.2214(2) 0.8519(2) 0.89877(17)
O16 O 0.2602(3) 1.0419(2) 0.87588(18)
N1 N 0.3057(3) 0.4903(3) 0.3281(2)
N2 N 0.2716(3) 0.7927(2) 0.2211(2)
N3 N -0.2965(3) 0.4993(2) 0.1700(2)
N4 N 0.2525(3) 0.7964(2) 0.7158(2)
C1 C 0.0944(4) 0.3157(3) 0.2662(2)
C2 C 0.2423(4) 0.3687(3) 0.3098(2)
C3 C 0.3090(4) 0.2964(3) 0.3301(2)
H1 H 0.26270 0.21050 0.31750
C4 C 0.4432(4) 0.3505(3) 0.3688(3)
H2 H 0.48990 0.30210 0.38410
C5 C 0.5101(4) 0.4771(3) 0.3854(3)
H3 H 0.60330 0.51650 0.41040
C6 C 0.4356(3) 0.5435(3) 0.3640(2)
C7 C 0.4970(3) 0.6814(3) 0.3806(2)
C8 C 0.2402(3) 0.9155(3) 0.3569(3)
C9 C 0.2945(3) 0.9050(3) 0.2603(2)
C10 C 0.3618(3) 1.0040(3) 0.2131(3)
H4 H 0.37860 1.08380 0.24140
C11 C 0.4038(4) 0.9842(3) 0.1244(3)
H5 H 0.45210 1.05090 0.09180
C12 C 0.3756(3) 0.8668(3) 0.0827(3)
H6 H 0.40160 0.85130 0.02090
C13 C 0.3087(3) 0.7735(3) 0.1339(2)
C14 C 0.2686(3) 0.6421(3) 0.0956(2)
C15 C -0.0753(4) 0.6690(3) 0.2024(2)
C16 C -0.2269(3) 0.6196(3) 0.1788(2)
C17 C -0.2899(4) 0.6960(3) 0.1640(3)
H7 H -0.23920 0.78160 0.17320
C18 C -0.4288(4) 0.6453(3) 0.1355(3)
H8 H -0.47430 0.69550 0.12290
C19 C -0.5008(4) 0.5192(3) 0.1255(3)
H9 H -0.59590 0.48190 0.10620
C20 C -0.4299(3) 0.4504(3) 0.1445(2)
C21 C -0.4988(3) 0.3139(3) 0.1373(2)
C22 C 0.2236(3) 0.6285(3) 0.5981(3)
C23 C 0.2778(3) 0.7640(3) 0.6278(2)
C24 C 0.3469(3) 0.8492(3) 0.5702(2)
H10 H 0.36930 0.82510 0.50930
C25 C 0.3832(3) 0.9717(3) 0.6035(3)
H11 H 0.43010 1.03250 0.56520
C26 C 0.3498(3) 1.0034(3) 0.6934(3)
H12 H 0.37020 1.08580 0.71660
C27 C 0.2863(3) 0.9129(3) 0.7482(2)
C28 C 0.2530(3) 0.9378(3) 0.8490(3)
O17 O 0.0082(3) 0.3774(2) 0.0319(2)
H13 H 0.08260 0.42110 0.06660
H14 H 0.01350 0.40620 -0.02110
N5 N 0.1037(3) 1.1154(3) 0.4887(2)
H15 H 0.13500 1.19690 0.49710
H16 H 0.17040 1.09940 0.46360
C29 C -0.0256(4) 1.0593(3) 0.4221(3)
H17 H -0.00780 1.08480 0.35770
H18 H -0.09310 1.08760 0.44710
C30 C 0.0819(4) 1.0776(3) 0.5865(3)
H19 H 0.01730 1.10650 0.61590
H20 H 0.16920 1.11430 0.62860
N6 N -0.8584(3) 0.0656(3) 0.0345(2)
H21 H -0.81470 0.05900 -0.01710
H22 H -0.78440 0.11110 0.07610
C31 C -0.9440(4) 0.1308(3) 0.0061(3)
H23 H -0.88680 0.20610 -0.01890
H24 H -0.98300 0.15340 0.06320
C32 C -0.9431(4) -0.0495(3) 0.0703(3)
H25 H -0.98230 -0.03120 0.12870
H26 H -0.88540 -0.09170 0.08780
O18 O -0.0696(3) 0.6708(2) 0.5000(2)
H27 H -0.11770 0.59510 0.49690
H28 H -0.01420 0.69580 0.45830
Bi1A Bi -0.187854(12) 0.377108(10) -0.307230(9)
Bi1A* Bi -0.187854(12) 0.377108(10) 0.692770(9)
Bi2A Bi 0.184337(12) 0.643452(10) -0.178059(9)
Bi2A* Bi 0.184337(12) 0.643452(10) 0.821941(9)
O1A O -0.0427(2) 0.6066(2) -0.26028(18)
O2A O -0.0375(3) 0.7941(2) -0.23943(18)
O3A O -0.4159(2) 0.2697(2) -0.35552(17)
O4A O -0.6152(3) 0.2625(2) -0.41582(19)
O5A O -0.1821(3) 0.1821(2) -0.39201(17)
O6A O -0.2563(3) -0.0190(2) -0.39225(18)
O7A O -0.2296(2) 0.4331(2) -0.15750(17)
O8A O -0.2740(3) 0.3876(2) -0.01038(17)
O9A O 0.0239(2) 0.4115(2) -0.20041(18)
O10A O 0.0098(2) 0.2202(2) -0.21948(19)
O11A O 0.4218(2) 0.7394(2) -0.15982(18)
O12A O 0.6215(2) 0.7387(2) -0.11226(19)
O13A O -0.1855(3) 0.4370(2) 0.33567(17)
O13* O 0.1855(3) 0.5630(2) -0.33567(17)
O14A O -0.2198(3) 0.4114(2) 0.48793(18)
O14A* O -0.2198(3) 0.4114(2) -0.51207(18)
O15A O -0.2214(2) 0.1481(2) 0.10123(17)
O15* O 0.2214(2) 0.8519(2) -0.10123(17)
O16A O -0.2602(3) -0.0419(2) 0.12412(18)
N1A N -0.3057(3) 0.5097(3) -0.3281(2)
N2A N -0.2716(3) 0.2073(2) -0.2211(2)
N3A N 0.2965(3) 0.5007(2) -0.1700(2)
N4A N -0.2525(3) 0.2036(2) 0.2842(2)
N4* N 0.2525(3) 0.7964(2) -0.2842(2)
C1A C -0.0944(4) 0.6843(3) -0.2662(2)
C2A C -0.2423(4) 0.6313(3) -0.3098(2)
C3A C -0.3090(4) 0.7036(3) -0.3301(2)
H1A H -0.26270 0.78950 -0.31750
C4A C -0.4432(4) 0.6495(3) -0.3688(3)
H2A H -0.48990 0.69790 -0.38410
C5A C -0.5101(4) 0.5229(3) -0.3854(3)
H3A H -0.60330 0.48350 -0.41040
C6A C -0.4356(3) 0.4565(3) -0.3640(2)
C7A C -0.4970(3) 0.3186(3) -0.3806(2)
C8A C -0.2402(3) 0.0845(3) -0.3569(3)
C9A C -0.2945(3) 0.0950(3) -0.2603(2)
C10A C -0.3618(3) -0.0040(3) -0.2131(3)
H4A H -0.37860 -0.08380 -0.24140
C11A C -0.4038(4) 0.0158(3) -0.1244(3)
H5A H -0.45210 -0.05090 -0.09180
C12A C -0.3756(3) 0.1332(3) -0.0827(3)
H6A H -0.40160 0.14870 -0.02090
C13A C -0.3087(3) 0.2265(3) -0.1339(2)
C14A C -0.2686(3) 0.3579(3) -0.0956(2)
C15A C 0.0753(4) 0.3310(3) -0.2024(2)
C16A C 0.2269(3) 0.3804(3) -0.1788(2)
C17A C 0.2899(4) 0.3040(3) -0.1640(3)
H7A H 0.23920 0.21840 -0.17320
C18A C 0.4288(4) 0.3547(3) -0.1355(3)
H8A H 0.47430 0.30450 -0.12290
C19A C 0.5008(4) 0.4808(3) -0.1255(3)
H9A H 0.59590 0.51810 -0.10620
C20A C 0.4299(3) 0.5496(3) -0.1445(2)
C21A C 0.4988(3) 0.6861(3) -0.1373(2)
C22A C -0.2236(3) 0.3715(3) 0.4019(3)
C23A C -0.2778(3) 0.2360(3) 0.3722(2)
C24A C -0.3469(3) 0.1508(3) 0.4298(2)
H10A H -0.36930 0.17490 0.49070
C25A C -0.3832(3) 0.0283(3) 0.3965(3)
H11A H -0.43010 -0.03250 0.43480
C26A C -0.3498(3) -0.0034(3) 0.3066(3)
H12A H -0.37020 -0.08580 0.28340
C27A C -0.2863(3) 0.0871(3) 0.2518(2)
C28A C -0.2530(3) 0.0622(3) 0.1510(3)
O17A O -0.0082(3) 0.6226(2) -0.0319(2)
H13A H -0.08260 0.57890 -0.06660
H14A H -0.01350 0.59380 0.02110
N5A N -0.1037(3) 0.8846(3) 0.5113(2)
H15A H -0.13500 0.80310 0.50290
H16A H -0.17040 0.90060 0.53640
C29A C 0.0256(4) 0.9407(3) 0.5779(3)
H17A H 0.00780 0.91520 0.64230
H18A H 0.09310 0.91240 0.55290
C30A C -0.0819(4) 0.9224(3) 0.4135(3)
H19A H -0.01730 0.89350 0.38410
H20A H -0.16920 0.88570 0.37140
N6A N -1.1416(3) -0.0656(3) -0.0345(2)
H21A H -1.18530 -0.05900 0.01710
H22A H -1.21560 -0.11110 -0.07610
C31A C -1.0560(4) -0.1308(3) -0.0061(3)
H23A H -1.11320 -0.20610 0.01890
H24A H -1.01700 -0.15340 -0.06320
C32A C -1.0569(4) 0.0495(3) -0.0703(3)
H25A H -1.01770 0.03120 -0.12870
H26A H -1.11460 0.09170 -0.08780
#END
