
#######################################################################
#
#                 Cambridge Crystallographic Data Centre
#                                CCDC
#
#######################################################################
#
# If this CIF has been generated from an entry in the Cambridge
# Structural Database, then it will include bibliographic, chemical,
# crystal, experimental, refinement or atomic coordinate data resulting
# from the CCDC's data processing and validation procedures.
#
#######################################################################

data_CSD_CIF_VIXKUJ
_audit_creation_date 2008-08-21
_audit_creation_method CSD-ConQuest-V1
_database_code_CSD VIXKUJ
_database_code_depnum_ccdc_archive 'CCDC 669272'
_chemical_formula_sum 'C68 H108 Cu3 F30 N20 O6 V7'
_chemical_formula_moiety
;
(C1 H6 N1 1+)8n,n(C60 H60 Cu3 F30 N12 O6 V7 8-)
;
_journal_coden_Cambridge 182
_journal_year 2008
_journal_page_first 1401
_journal_name_full 'Chem.Commun. '
loop_
_publ_author_name
"T.Mahenthirarajah"
"P.Lightfoot"
_chemical_name_systematic
;
catena-[octakis(Methylammonium) 
hexakis(\m~2~-fluoro)-hexakis(\m~2~-oxo)-dodecakis(pyridine)-tetracosafluoro-t
ri-copper(ii)-hepta-vanadium(iv)]
;
_cell_volume   4487.471
_exptl_crystal_colour 'blue'
_exptl_crystal_density_diffrn 1.79
_exptl_special_details
;
magnetic properties

;
_exptl_crystal_description 'prism'
_diffrn_ambient_temperature 93
#These two values have been output from a single CSD field.
_refine_ls_R_factor_gt 0.034
_refine_ls_wR_factor_gt 0.034
_symmetry_cell_setting cubic
_symmetry_space_group_name_H-M 'P n -3 n'
_symmetry_Int_Tables_number 222
loop_
_symmetry_equiv_pos_site_id
_symmetry_equiv_pos_as_xyz
1 x,y,z
2 1/2-y,x,z
3 y,x,1/2-z
4 y,1/2-x,z
5 y,z,x
6 1/2-z,y,x
7 z,1/2-y,x
8 z,y,1/2-x
9 z,x,y
10 1/2-x,z,y
11 x,1/2-z,y
12 x,z,1/2-y
13 x,1/2-y,1/2-z
14 1/2-x,1/2-y,z
15 1/2-x,y,1/2-z
16 1/2-y,1/2-x,1/2-z
17 1/2-y,1/2-z,x
18 y,1/2-z,1/2-x
19 1/2-y,z,1/2-x
20 1/2-z,1/2-y,1/2-x
21 1/2-z,x,1/2-y
22 1/2-z,1/2-x,y
23 z,1/2-x,1/2-y
24 1/2-x,1/2-z,1/2-y
25 -x,-y,-z
26 -1/2+y,-x,-z
27 -y,-x,-1/2+z
28 -y,-1/2+x,-z
29 -y,-z,-x
30 -1/2+z,-y,-x
31 -z,-1/2+y,-x
32 -z,-y,-1/2+x
33 -z,-x,-y
34 -1/2+x,-z,-y
35 -x,-1/2+z,-y
36 -x,-z,-1/2+y
37 -x,-1/2+y,-1/2+z
38 -1/2+x,-1/2+y,-z
39 -1/2+x,-y,-1/2+z
40 -1/2+y,-1/2+x,-1/2+z
41 -1/2+y,-1/2+z,-x
42 -y,-1/2+z,-1/2+x
43 -1/2+y,-z,-1/2+x
44 -1/2+z,-1/2+y,-1/2+x
45 -1/2+z,-x,-1/2+y
46 -1/2+z,-1/2+x,-y
47 -z,-1/2+x,-1/2+y
48 -1/2+x,-1/2+z,-1/2+y
_cell_length_a 16.4943(14)
_cell_length_b 16.4943(14)
_cell_length_c 16.4943(14)
_cell_angle_alpha 90
_cell_angle_beta 90
_cell_angle_gamma 90
_cell_formula_units_Z 2
loop_
_atom_type_symbol
_atom_type_radius_bond
C 0.68
H 0.23
Cu 1.52
F 0.67
N 0.68
O 0.68
V 1.36
loop_
_atom_site_label
_atom_site_type_symbol
_atom_site_fract_x
_atom_site_fract_y
_atom_site_fract_z
Cu1 Cu 0.75000 0.25000 0.25000
V1 V 0.51442(5) 0.25000 0.25000
V2 V 0.25000 0.25000 0.25000
F1 F 0.49362(9) 0.36289(8) 0.24372(8)
F2 F 0.3678(2) 0.25000 0.25000
O1 O 0.61408(19) 0.25000 0.25000
N1 N 0.75000 0.33729(11) 0.16271(11)
N2 N 0.38118(13) 0.38118(13) 0.11882(13)
C1 C 0.69232(13) 0.39545(13) 0.04315(13)
H1 H 0.65330 0.39310 0.00250
C2 C 0.69331(13) 0.33759(14) 0.10439(12)
H2 H 0.65340 0.29780 0.10500
C3 C 0.75000 0.45678(13) 0.04322(13)
H3 H 0.75000 0.49660 0.00340
C4 C 0.43250(16) 0.43250(16) 0.06750(16)
H4 H 0.4004(18) 0.3705(19) 0.1633(17)
H5 H 0.407(2) 0.437(2) 0.0135(19)
Cu1A Cu 0.25000 0.75000 0.25000
Cu1A* Cu 0.25000 -0.25000 0.25000
Cu1D Cu 0.25000 0.25000 0.75000
Cu1D* Cu 0.25000 0.25000 -0.25000
Cu1* Cu -0.25000 0.25000 0.25000
V1A V 0.25000(5) 0.51442 0.25000
V1C V 0.25000(5) -0.01442 0.25000
V1D V 0.25000(5) 0.25000 0.51442
V1G V 0.25000(5) 0.25000 -0.01442
V1I V -0.01442(5) 0.25000 0.25000
F1J F 0.49362(9) 0.25628(8) 0.36289(8)
F1K F 0.49362(9) 0.24372(8) 0.13711(8)
F1L F 0.49362(9) 0.13711(8) 0.25628(8)
F1A F 0.13711(9) 0.49362(8) 0.24372(8)
F1H F 0.24372(9) 0.49362(8) 0.36289(8)
F1T F 0.25628(9) 0.49362(8) 0.13711(8)
F1B F 0.36289(9) 0.49362(8) 0.25628(8)
F1C F 0.36289(9) 0.00638(8) 0.24372(8)
F1U F 0.25628(9) 0.00638(8) 0.36289(8)
F1V F 0.24372(9) 0.00638(8) 0.13711(8)
F1O F 0.13711(9) 0.00638(8) 0.25628(8)
F1D F 0.36289(9) 0.24372(8) 0.49362(8)
F1E F 0.25628(9) 0.36289(8) 0.49362(8)
F1F F 0.24372(9) 0.13711(8) 0.49362(8)
F1P F 0.13711(9) 0.25628(8) 0.49362(8)
F1G F 0.24372(9) 0.36289(8) 0.00638(8)
F1Q F 0.36289(9) 0.25628(8) 0.00638(8)
F1R F 0.13711(9) 0.24372(8) 0.00638(8)
F1S F 0.25628(9) 0.13711(8) 0.00638(8)
F1I F 0.00638(9) 0.24372(8) 0.36289(8)
F1N F 0.00638(9) 0.36289(8) 0.25628(8)
F1M F 0.00638(9) 0.13711(8) 0.24372(8)
F1W F 0.00638(9) 0.25628(8) 0.13711(8)
F2A F 0.2500(2) 0.36780 0.25000
F2C F 0.2500(2) 0.13220 0.25000
F2D F 0.2500(2) 0.25000 0.36780
F2G F 0.2500(2) 0.25000 0.13220
F2I F 0.1322(2) 0.25000 0.25000
O1A O 0.25000(19) 0.61408 0.25000
O1C O 0.25000(19) -0.11408 0.25000
O1D O 0.25000(19) 0.25000 0.61408
O1G O 0.25000(19) 0.25000 -0.11408
O1I O -0.11408(19) 0.25000 0.25000
O1I* O 0.88592(19) 0.25000 0.25000
O1C* O 0.25000(19) 0.88592 0.25000
O1A* O 0.25000(19) -0.38592 0.25000
N1I N 0.75000 0.16271(11) 0.33729(11)
N1J N 0.75000 0.33729(11) 0.33729(11)
N1K N 0.75000 0.16271(11) 0.16271(11)
N1A N 0.16271 0.75000(11) 0.16271(11)
N1B N 0.33729 0.75000(11) 0.33729(11)
N1H N 0.16271 0.75000(11) 0.33729(11)
N1C N 0.33729 0.75000(11) 0.16271(11)
N1C* N 0.33729 -0.25000(11) 0.16271(11)
N1H* N 0.16271 -0.25000(11) 0.33729(11)
N1B* N 0.33729 -0.25000(11) 0.33729(11)
N1A* N 0.16271 -0.25000(11) 0.16271(11)
C1W C 0.80768(13) 0.45685(13) 0.10455(13)
C1I C 0.80768(13) 0.04315(13) 0.39545(13)
C1L C 0.69232(13) 0.10455(13) 0.45685(13)
C1J C 0.69232(13) 0.45685(13) 0.39545(13)
C1N C 0.80768(13) 0.39545(13) 0.45685(13)
C1K C 0.69232(13) 0.04315(13) 0.10455(13)
C1M C 0.80768(13) 0.10455(13) 0.04315(13)
C1A C 0.10455(13) 0.69232(13) 0.04315(13)
C1V C 0.04315(13) 0.80768(13) 0.10455(13)
C1U C 0.45685(13) 0.80768(13) 0.39545(13)
C1B C 0.39545(13) 0.69232(13) 0.45685(13)
C1H C 0.04315(13) 0.69232(13) 0.39545(13)
C1O C 0.10455(13) 0.80768(13) 0.45685(13)
C1T C 0.45685(13) 0.69232(13) 0.10455(13)
C1C C 0.39545(13) 0.80768(13) 0.04315(13)
C1C* C 0.39545(13) -0.19232(13) 0.04315(13)
C1T* C 0.45685(13) -0.30768(13) 0.10455(13)
C1H* C 0.04315(13) -0.30768(13) 0.39545(13)
C1O* C 0.10455(13) -0.19232(13) 0.45685(13)
C1U* C 0.45685(13) -0.19232(13) 0.39545(13)
C1B* C 0.39545(13) -0.30768(13) 0.45685(13)
C1V* C 0.04315(13) -0.19232(13) 0.10455(13)
C1A* C 0.10455(13) -0.30768(13) 0.04315(13)
H1W H 0.84670 0.49750 0.10690
H1I H 0.84670 0.00250 0.39310
H1L H 0.65330 0.10690 0.49750
H1J H 0.65330 0.49750 0.39310
H1N H 0.84670 0.39310 0.49750
H1K H 0.65330 0.00250 0.10690
H1M H 0.84670 0.10690 0.00250
H1A H 0.10690 0.65330 0.00250
H1V H 0.00250 0.84670 0.10690
H1U H 0.49750 0.84670 0.39310
H1B H 0.39310 0.65330 0.49750
H1H H 0.00250 0.65330 0.39310
H1O H 0.10690 0.84670 0.49750
H1T H 0.49750 0.65330 0.10690
H1C H 0.39310 0.84670 0.00250
H1C* H 0.39310 -0.15330 0.00250
H1T* H 0.49750 -0.34670 0.10690
H1H* H 0.00250 -0.34670 0.39310
H1O* H 0.10690 -0.15330 0.49750
H1U* H 0.49750 -0.15330 0.39310
H1B* H 0.39310 -0.34670 0.49750
H1V* H 0.00250 -0.15330 0.10690
H1A* H 0.10690 -0.34670 0.00250
C2W C 0.80669(13) 0.39561(14) 0.16241(12)
C2I C 0.80669(13) 0.10439(14) 0.33759(12)
C2L C 0.69331(13) 0.16241(14) 0.39561(12)
C2J C 0.69331(13) 0.39561(14) 0.33759(12)
C2N C 0.80669(13) 0.33759(14) 0.39561(12)
C2K C 0.69331(13) 0.10439(14) 0.16241(12)
C2M C 0.80669(13) 0.16241(14) 0.10439(12)
C2A C 0.16241(13) 0.69331(14) 0.10439(12)
C2V C 0.10439(13) 0.80669(14) 0.16241(12)
C2U C 0.39561(13) 0.80669(14) 0.33759(12)
C2B C 0.33759(13) 0.69331(14) 0.39561(12)
C2H C 0.10439(13) 0.69331(14) 0.33759(12)
C2O C 0.16241(13) 0.80669(14) 0.39561(12)
C2T C 0.39561(13) 0.69331(14) 0.16241(12)
C2C C 0.33759(13) 0.80669(14) 0.10439(12)
C2C* C 0.33759(13) -0.19331(14) 0.10439(12)
C2T* C 0.39561(13) -0.30669(14) 0.16241(12)
C2H* C 0.10439(13) -0.30669(14) 0.33759(12)
C2O* C 0.16241(13) -0.19331(14) 0.39561(12)
C2U* C 0.39561(13) -0.19331(14) 0.33759(12)
C2B* C 0.33759(13) -0.30669(14) 0.39561(12)
C2V* C 0.10439(13) -0.19331(14) 0.16241(12)
C2A* C 0.16241(13) -0.30669(14) 0.10439(12)
H2W H 0.84660 0.39500 0.20220
H2I H 0.84660 0.10500 0.29780
H2L H 0.65340 0.20220 0.39500
H2J H 0.65340 0.39500 0.29780
H2N H 0.84660 0.29780 0.39500
H2K H 0.65340 0.10500 0.20220
H2M H 0.84660 0.20220 0.10500
H2A H 0.20220 0.65340 0.10500
H2V H 0.10500 0.84660 0.20220
H2U H 0.39500 0.84660 0.29780
H2B H 0.29780 0.65340 0.39500
H2H H 0.10500 0.65340 0.29780
H2O H 0.20220 0.84660 0.39500
H2T H 0.39500 0.65340 0.20220
H2C H 0.29780 0.84660 0.10500
H2C* H 0.29780 -0.15340 0.10500
H2T* H 0.39500 -0.34660 0.20220
H2H* H 0.10500 -0.34660 0.29780
H2O* H 0.20220 -0.15340 0.39500
H2U* H 0.39500 -0.15340 0.29780
H2B* H 0.29780 -0.34660 0.39500
H2V* H 0.10500 -0.15340 0.20220
H2A* H 0.20220 -0.34660 0.10500
C3I C 0.75000 0.04322(13) 0.45678(13)
C3J C 0.75000 0.45678(13) 0.45678(13)
C3K C 0.75000 0.04322(13) 0.04322(13)
C3A C 0.04322 0.75000(13) 0.04322(13)
C3B C 0.45678 0.75000(13) 0.45678(13)
C3H C 0.04322 0.75000(13) 0.45678(13)
C3C C 0.45678 0.75000(13) 0.04322(13)
C3C* C 0.45678 -0.25000(13) 0.04322(13)
C3H* C 0.04322 -0.25000(13) 0.45678(13)
C3B* C 0.45678 -0.25000(13) 0.45678(13)
C3A* C 0.04322 -0.25000(13) 0.04322(13)
H3I H 0.75000 0.00340 0.49660
H3J H 0.75000 0.49660 0.49660
H3K H 0.75000 0.00340 0.00340
H3A H 0.00340 0.75000 0.00340
H3B H 0.49660 0.75000 0.49660
H3H H 0.00340 0.75000 0.49660
H3C H 0.49660 0.75000 0.00340
H3C* H 0.49660 -0.25000 0.00340
H3H* H 0.00340 -0.25000 0.49660
H3B* H 0.49660 -0.25000 0.49660
H3A* H 0.00340 -0.25000 0.00340
H4Q H 0.3705(18) 0.3367(19) 0.0996(17)
H4T H 0.3367(18) 0.4004(19) 0.1295(17)
H5Q H 0.437(2) 0.4865(20) 0.0930(19)
H5T H 0.4865(20) 0.407(2) 0.0630(19)
#END
