
#######################################################################
#
#                 Cambridge Crystallographic Data Centre
#                                CCDC
#
#######################################################################
#
# If this CIF has been generated from an entry in the Cambridge
# Structural Database, then it will include bibliographic, chemical,
# crystal, experimental, refinement or atomic coordinate data resulting
# from the CCDC's data processing and validation procedures.
#
#######################################################################

data_CSD_CIF_VIYSON
_audit_creation_date 2014-02-13
_audit_creation_method CSD-ConQuest-V1
_database_code_CSD VIYSON
_database_code_depnum_ccdc_archive 'CCDC 934851'
_chemical_formula_sum 'C38 H38 N2 O14 P2 Zn3'
_chemical_formula_moiety
;
(C28 H14 O14 P2 Zn3 2-)n,2n(C5 H12 N1 1+)
;
_journal_coden_Cambridge 1295
_journal_volume 37
_journal_year 2013
_journal_page_first 93
_journal_name_full 'Inorg.Chem.Commun. '
loop_
_publ_author_name
"Wenyan Dan"
"Xiaofeng Liu"
"Mingli Deng"
"Yun ling"
"Zhenxia Chen"
"Yaming Zhou"
_chemical_name_systematic
;
catena-[bis(piperidinium) 
bis(\m~6~-4'-phosphonatobiphenyl-3,5-dicarboxylato)-tri-zinc]
;
_cell_volume   4206.483
_exptl_crystal_density_diffrn 1.587
_diffrn_ambient_temperature 293
#These two values have been output from a single CSD field.
_refine_ls_R_factor_gt 0.0471
_refine_ls_wR_factor_gt 0.0471
_symmetry_cell_setting orthorhombic
_symmetry_space_group_name_H-M 'P b c n'
_symmetry_Int_Tables_number 60
loop_
_symmetry_equiv_pos_site_id
_symmetry_equiv_pos_as_xyz
1 x,y,z
2 1/2-x,1/2-y,1/2+z
3 1/2+x,1/2-y,-z
4 -x,y,1/2-z
5 -x,-y,-z
6 -1/2+x,-1/2+y,-1/2-z
7 -1/2-x,-1/2+y,z
8 x,-y,-1/2+z
_cell_length_a 20.458(3)
_cell_length_b 12.1157(17)
_cell_length_c 16.971(2)
_cell_angle_alpha 90
_cell_angle_beta 90
_cell_angle_gamma 90
_cell_formula_units_Z 4
loop_
_atom_type_symbol
_atom_type_radius_bond
C 0.68
H 0.23
N 0.68
O 0.68
P 1.05
Zn 1.22
loop_
_atom_site_label
_atom_site_type_symbol
_atom_site_fract_x
_atom_site_fract_y
_atom_site_fract_z
Zn1 Zn -0.08750(3) 0.54354(4) 0.44291(3)
Zn2 Zn 0.00000 0.61899(6) 0.25000
O1 O -0.02377(16) 0.4408(3) 0.4029(2)
O2 O 0.05703(15) 0.5496(3) 0.32304(18)
O3 O 0.09417(15) 0.4623(3) 0.44514(18)
O4 O 0.0591(2) -0.2720(3) 0.2081(2)
O5 O 0.07665(17) -0.2952(3) 0.0803(2)
O6 O 0.32694(16) 0.0356(3) 0.1062(2)
O7 O 0.30719(17) -0.1217(3) 0.0428(2)
P1 P 0.04626(6) 0.45137(11) 0.37768(7)
C1 C 0.0687(2) 0.3298(4) 0.3228(3)
C2 C 0.1056(2) 0.3394(4) 0.2546(3)
H1 H 0.11600 0.40930 0.23560
C3 C 0.1271(2) 0.2474(4) 0.2144(3)
H2 H 0.15120 0.25630 0.16840
C4 C 0.1137(2) 0.1425(4) 0.2412(3)
C5 C 0.1384(2) 0.0444(4) 0.1977(3)
C6 C 0.1999(2) 0.0441(4) 0.1631(3)
H3 H 0.22650 0.10590 0.16860
C7 C 0.2230(2) -0.0455(4) 0.1206(3)
C8 C 0.1830(2) -0.1364(4) 0.1102(3)
H4 H 0.19690 -0.19510 0.07900
C9 C 0.1222(2) -0.1398(4) 0.1462(3)
C10 C 0.1006(2) -0.0505(4) 0.1900(3)
H5 H 0.06010 -0.05400 0.21470
C11 C 0.0770(3) 0.1329(4) 0.3096(3)
H6 H 0.06720 0.06310 0.32900
C12 C 0.0549(3) 0.2248(4) 0.3496(3)
H7 H 0.03040 0.21580 0.39520
C13 C 0.2905(2) -0.0448(4) 0.0859(3)
C14 C 0.0825(2) -0.2436(4) 0.1437(3)
N1 N 0.3534(2) 0.1920(4) 0.3983(3)
H8 H 0.34130 0.16150 0.44440
H9 H 0.37850 0.14270 0.37260
C15 C 0.2533(5) 0.3003(11) 0.3898(6)
H10 H 0.23590 0.27080 0.43860
H11 H 0.21670 0.31870 0.35590
C16 C 0.2944(4) 0.2149(7) 0.3506(4)
H12 H 0.26930 0.14750 0.34420
H13 H 0.30730 0.24050 0.29880
C17 C 0.3920(4) 0.2910(6) 0.4142(4)
H14 H 0.40860 0.32080 0.36500
H15 H 0.42900 0.27230 0.44730
C18 C 0.3508(6) 0.3752(7) 0.4543(6)
H16 H 0.33740 0.34740 0.50550
H17 H 0.37630 0.44170 0.46270
C19 C 0.2919(8) 0.4022(10) 0.4068(8)
H18 H 0.30510 0.43640 0.35770
H19 H 0.26490 0.45440 0.43540
Zn1C Zn 0.08750(3) 0.54354(4) 0.05709(3)
O1C O 0.02377(16) 0.4408(3) 0.0971(2)
O2C O -0.05703(15) 0.5496(3) 0.17696(18)
O3C O -0.09417(15) 0.4623(3) 0.05486(18)
O4C O -0.0591(2) -0.2720(3) 0.2919(2)
O5C O -0.07665(17) -0.2952(3) 0.4197(2)
O6C O -0.32694(16) 0.0356(3) 0.3938(2)
O7C O -0.30719(17) -0.1217(3) 0.4572(2)
P1C P -0.04626(6) 0.45137(11) 0.12232(7)
C1C C -0.0687(2) 0.3298(4) 0.1772(3)
C2C C -0.1056(2) 0.3394(4) 0.2454(3)
H1C H -0.11600 0.40930 0.26440
C3C C -0.1271(2) 0.2474(4) 0.2856(3)
H2C H -0.15120 0.25630 0.33160
C4C C -0.1137(2) 0.1425(4) 0.2588(3)
C5C C -0.1384(2) 0.0444(4) 0.3023(3)
C6C C -0.1999(2) 0.0441(4) 0.3369(3)
H3C H -0.22650 0.10590 0.33140
C7C C -0.2230(2) -0.0455(4) 0.3794(3)
C8C C -0.1830(2) -0.1364(4) 0.3898(3)
H4C H -0.19690 -0.19510 0.42100
C9C C -0.1222(2) -0.1398(4) 0.3538(3)
C10C C -0.1006(2) -0.0505(4) 0.3100(3)
H5C H -0.06010 -0.05400 0.28530
C11C C -0.0770(3) 0.1329(4) 0.1904(3)
H6C H -0.06720 0.06310 0.17100
C12C C -0.0549(3) 0.2248(4) 0.1504(3)
H7C H -0.03040 0.21580 0.10480
C13C C -0.2905(2) -0.0448(4) 0.4141(3)
C14C C -0.0825(2) -0.2436(4) 0.3563(3)
Zn1* Zn -0.08750(3) -0.45646(4) 0.44291(3)
Zn1C* Zn 0.08750(3) -0.45646(4) 0.05709(3)
Zn1D Zn 0.08750(3) 0.45646(4) 0.55709(3)
Zn1E Zn 0.41250(3) 0.04354(4) 0.05709(3)
Zn1F Zn -0.41250(3) 0.04354(4) 0.44291(3)
Zn1G Zn -0.08750(3) 0.45646(4) -0.05709(3)
Zn2* Zn 0.00000 -0.38101(6) 0.25000
O3D O -0.09417(15) 0.5377(3) 0.55486(18)
O3G O 0.09417(15) 0.5377(3) -0.05486(18)
O4* O 0.0591(2) 0.7280(3) 0.2081(2)
O4C* O -0.0591(2) 0.7280(3) 0.2919(2)
O5* O 0.07665(17) 0.7048(3) 0.0803(2)
O5C* O -0.07665(17) 0.7048(3) 0.4197(2)
O6E O -0.17306(16) 0.5356(3) 0.3938(2)
O6F O 0.17306(16) 0.5356(3) 0.1062(2)
#END
