
#######################################################################
#
#                 Cambridge Crystallographic Data Centre
#                                CCDC
#
#######################################################################
#
# If this CIF has been generated from an entry in the Cambridge
# Structural Database, then it will include bibliographic, chemical,
# crystal, experimental, refinement or atomic coordinate data resulting
# from the CCDC's data processing and validation procedures.
#
#######################################################################

data_CSD_CIF_VIYTAA
_audit_creation_date 2014-02-13
_audit_creation_method CSD-ConQuest-V1
_database_code_CSD VIYTAA
_database_code_depnum_ccdc_archive 'CCDC 934849'
_chemical_formula_sum 'C40 H46 N2 O14 P2 Zn3'
_chemical_formula_moiety
;
(C28 H14 O14 P2 Zn3 2-)n,2n(C6 H16 N1 1+)
;
_journal_coden_Cambridge 1295
_journal_volume 37
_journal_year 2013
_journal_page_first 93
_journal_name_full 'Inorg.Chem.Commun. '
loop_
_publ_author_name
"Wenyan Dan"
"Xiaofeng Liu"
"Mingli Deng"
"Yun ling"
"Zhenxia Chen"
"Yaming Zhou"
_chemical_name_systematic
;
catena-[bis(triethylammonium) 
bis(\m~6~-4'-phosphonatobiphenyl-3,5-dicarboxylato)-tri-zinc]
;
_cell_volume   4217.722
_exptl_crystal_density_diffrn 1.633
_diffrn_ambient_temperature 296
#These two values have been output from a single CSD field.
_refine_ls_R_factor_gt 0.039
_refine_ls_wR_factor_gt 0.039
_symmetry_cell_setting orthorhombic
_symmetry_space_group_name_H-M 'P b c n'
_symmetry_Int_Tables_number 60
loop_
_symmetry_equiv_pos_site_id
_symmetry_equiv_pos_as_xyz
1 x,y,z
2 1/2-x,1/2-y,1/2+z
3 -x,y,1/2-z
4 1/2+x,1/2-y,-z
5 -x,-y,-z
6 -1/2+x,-1/2+y,-1/2-z
7 x,-y,-1/2+z
8 -1/2-x,-1/2+y,z
_cell_length_a 20.5835(16)
_cell_length_b 12.0082(9)
_cell_length_c 17.0640(14)
_cell_angle_alpha 90
_cell_angle_beta 90
_cell_angle_gamma 90
_cell_formula_units_Z 4
loop_
_atom_type_symbol
_atom_type_radius_bond
C 0.68
H 0.23
N 0.68
O 0.68
P 1.05
Zn 1.22
loop_
_atom_site_label
_atom_site_type_symbol
_atom_site_fract_x
_atom_site_fract_y
_atom_site_fract_z
Zn1 Zn 0.587555(18) 0.04008(3) 0.05610(2)
O1 O 0.67402(13) 0.0347(2) 0.10392(18)
C1 C 0.70989(19) -0.0458(3) 0.0854(2)
C2 C 0.77804(18) -0.0439(3) 0.1181(2)
O2 O 0.69246(15) -0.1253(3) 0.0452(2)
C3 C 0.80009(18) 0.0471(3) 0.1605(2)
C4 C 0.8178(2) -0.1355(3) 0.1082(2)
H1 H 0.77340 0.10910 0.16590
C5 C 0.86153(18) 0.0475(3) 0.1952(2)
C6 C 0.87839(19) -0.1380(3) 0.1432(3)
H2 H 0.80390 -0.19540 0.07790
C7 C 0.88536(18) 0.1456(3) 0.2396(2)
C8 C 0.89978(19) -0.0474(3) 0.1872(3)
C9 C 0.9180(2) -0.2427(3) 0.1404(3)
C10 C 0.8709(2) 0.2527(3) 0.2146(2)
C11 C 0.9229(2) 0.1351(4) 0.3070(3)
H3 H 0.94020 -0.05040 0.21160
O3 O 0.92069(15) -0.2968(2) 0.0783(2)
O4 O 0.9456(3) -0.2653(3) 0.2020(2)
H4 H 0.84630 0.26280 0.16940
C12 C 0.8924(2) 0.3441(3) 0.2555(2)
H5 H 0.93370 0.06430 0.32480
C13 C 0.9444(2) 0.2268(3) 0.3478(3)
Zn2 Zn 1.00000 -0.37749(5) 0.25000
H6 H 0.88200 0.41480 0.23740
C14 C 0.92922(17) 0.3338(3) 0.3231(2)
H7 H 0.96940 0.21690 0.39260
O5 O 0.97659(13) 0.4409(2) 0.09735(17)
O6 O 0.90648(14) 0.5325(3) -0.05517(16)
P1 P 0.95344(4) 0.45530(8) 0.37745(5)
O7 O 0.94395(14) 0.5536(2) 0.32230(16)
C15 C 0.8928(12) 0.7885(11) 0.4098(16)
H8 H 0.89540 0.84020 0.36630
H9 H 0.92050 0.72520 0.39810
C16 C 0.9159(7) 0.8442(17) 0.4830(7)
H10 H 0.88370 0.89610 0.50060
H11 H 0.95570 0.88300 0.47250
H12 H 0.92320 0.78910 0.52280
C17 C 0.7763(14) 0.8351(12) 0.4436(9)
H13 H 0.79100 0.86990 0.49180
H14 H 0.73600 0.79670 0.45520
C18 C 0.7623(10) 0.9255(16) 0.3848(15)
H15 H 0.72510 0.96740 0.40140
H16 H 0.75380 0.89260 0.33460
H17 H 0.79920 0.97410 0.38080
N1 N 0.8255(9) 0.7509(10) 0.4196(5)
H18 H 0.82520 0.69490 0.45550
C19 C 0.8079(8) 0.7028(17) 0.3422(15)
H19 H 0.84660 0.67660 0.31560
H20 H 0.78760 0.75930 0.30980
C20 C 0.7616(13) 0.608(4) 0.3548(13)
H21 H 0.74640 0.58090 0.30510
H22 H 0.72530 0.63250 0.38560
H23 H 0.78360 0.54840 0.38190
O1G O 0.82598(13) 0.5347(2) 0.10392(18)
Zn1G Zn 0.912445(18) -0.45992(3) 0.05610(2)
Zn1G* Zn 0.912445(18) 0.54008(3) 0.05610(2)
O4B O 1.0544(3) -0.2653(3) 0.2980(2)
O3* O 0.92069(15) 0.7032(2) 0.0783(2)
C9B C 1.0820(2) -0.2427(3) 0.3596(3)
P1B P 1.04656(4) 0.45530(8) 0.12255(5)
O5B O 1.02341(13) 0.4409(2) 0.40265(17)
O6F O 0.90648(14) 0.4675(3) 0.44483(16)
O3B O 1.07931(15) -0.2968(2) 0.4217(2)
C6B C 1.12161(19) -0.1380(3) 0.3568(3)
O7B O 1.05605(14) 0.5536(2) 0.17770(16)
O6D O 1.09352(14) 0.4675(3) 0.05517(16)
C14B C 1.07078(17) 0.3338(3) 0.1769(2)
Zn1E Zn 1.087555(18) 0.54008(3) 0.44390(2)
Zn1A Zn 0.912445(18) 0.45992(3) 0.55610(2)
Zn2* Zn 1.00000 0.62251(5) 0.25000
Zn1E* Zn 1.087555(18) -0.45992(3) 0.44390(2)
C8B C 1.10022(19) -0.0474(3) 0.3128(3)
C4B C 1.1822(2) -0.1355(3) 0.3918(2)
Zn1C Zn 1.087555(18) 0.45992(3) -0.05610(2)
C12B C 1.1076(2) 0.3441(3) 0.2445(2)
C13B C 1.0556(2) 0.2268(3) 0.1522(3)
O6B O 1.09352(14) 0.5325(3) 0.55517(16)
O1E O 1.17402(13) 0.5347(2) 0.39608(18)
O3B* O 1.07931(15) 0.7032(2) 0.4217(2)
O4* O 0.9456(3) 0.7347(3) 0.2020(2)
O4B* O 1.0544(3) 0.7347(3) 0.2980(2)
H3B H 1.05980 -0.05040 0.28840
C5B C 1.13847(18) 0.0475(3) 0.3048(2)
C2B C 1.22196(18) -0.0439(3) 0.3819(2)
H2B H 1.19610 -0.19540 0.42210
C10B C 1.1291(2) 0.2527(3) 0.2854(2)
H6B H 1.11800 0.41480 0.26260
C11B C 1.0771(2) 0.1351(4) 0.1930(3)
H7B H 1.03060 0.21690 0.10740
C3B C 1.19991(18) 0.0471(3) 0.3395(2)
C7B C 1.11464(18) 0.1456(3) 0.2604(2)
C1B C 1.29011(19) -0.0458(3) 0.4146(2)
H4B H 1.15370 0.26280 0.33060
H5B H 1.06630 0.06430 0.17520
H1B H 1.22660 0.10910 0.33410
O1B O 1.32598(13) 0.0347(2) 0.39608(18)
O2B O 1.30754(15) -0.1253(3) 0.4548(2)
Zn1B Zn 1.412445(18) 0.04008(3) 0.44390(2)
#END
