
#######################################################################
#
#                 Cambridge Crystallographic Data Centre
#                                CCDC
#
#######################################################################
#
# If this CIF has been generated from an entry in the Cambridge
# Structural Database, then it will include bibliographic, chemical,
# crystal, experimental, refinement or atomic coordinate data resulting
# from the CCDC's data processing and validation procedures.
#
#######################################################################

data_CSD_CIF_VIYVIK
_audit_creation_date 2014-02-13
_audit_creation_method CSD-ConQuest-V1
_database_code_CSD VIYVIK
_database_code_depnum_ccdc_archive 'CCDC 948115'
_chemical_formula_sum 'C36 H34 N2 O14 P2 Zn3'
_chemical_formula_moiety
;
(C4 H10 N1 1+)2n,n(C28 H14 O14 P2 Zn3 2-)
;
_journal_coden_Cambridge 1295
_journal_volume 37
_journal_year 2013
_journal_page_first 93
_journal_name_full 'Inorg.Chem.Commun. '
loop_
_publ_author_name
"Wenyan Dan"
"Xiaofeng Liu"
"Mingli Deng"
"Yun ling"
"Zhenxia Chen"
"Yaming Zhou"
_chemical_name_systematic
;
catena-[bis(Pyrrolidinium) 
bis(\m~6~-(3',5'-dicarboxylatobiphenyl-4-yl)phosphonato)-tri-zinc]
;
_cell_volume   4180.483
_exptl_crystal_colour 'yellow'
_exptl_crystal_density_diffrn 1.552
_exptl_crystal_description 'block'
_diffrn_ambient_temperature 296
#These two values have been output from a single CSD field.
_refine_ls_R_factor_gt 0.0311
_refine_ls_wR_factor_gt 0.0311
_symmetry_cell_setting orthorhombic
_symmetry_space_group_name_H-M 'P b c n'
_symmetry_Int_Tables_number 60
loop_
_symmetry_equiv_pos_site_id
_symmetry_equiv_pos_as_xyz
1 x,y,z
2 1/2-x,1/2-y,1/2+z
3 -x,y,1/2-z
4 1/2+x,1/2-y,-z
5 -x,-y,-z
6 -1/2+x,-1/2+y,-1/2-z
7 x,-y,-1/2+z
8 -1/2-x,-1/2+y,z
_cell_length_a 20.4782(13)
_cell_length_b 12.0724(8)
_cell_length_c 16.9099(11)
_cell_angle_alpha 90
_cell_angle_beta 90
_cell_angle_gamma 90
_cell_formula_units_Z 4
loop_
_atom_type_symbol
_atom_type_radius_bond
C 0.68
H 0.23
N 0.68
O 0.68
P 1.05
Zn 1.22
loop_
_atom_site_label
_atom_site_type_symbol
_atom_site_fract_x
_atom_site_fract_y
_atom_site_fract_z
Zn1 Zn 0.587472(12) 0.04387(2) 0.057034(16)
Zn2 Zn 1.00000 0.62287(3) 0.25000
P1 P 0.95311(3) 0.45499(5) 0.37653(4)
O1 O 0.94214(15) -0.2673(2) 0.20604(15)
O2 O 0.92257(10) -0.29462(16) 0.07919(13)
O3 O 0.69408(11) -0.12018(18) 0.03987(14)
O4 O 0.67372(9) 0.03509(17) 0.10453(12)
O5 O 0.94183(9) 0.55392(14) 0.3215(1)
O6 O 0.90631(9) 0.46580(16) 0.44522(10)
O7 O 1.02391(9) 0.44426(15) 0.40037(12)
C1 C 0.92970(12) 0.3334(2) 0.32214(15)
C2 C 0.94435(15) 0.2284(2) 0.34849(18)
H1 H 0.96910 0.21960 0.39420
C3 C 0.92289(15) 0.1360(2) 0.30821(19)
H2 H 0.93350 0.06590 0.32710
C4 C 0.88563(12) 0.1459(2) 0.23980(16)
C5 C 0.86189(12) 0.0473(2) 0.19573(16)
C6 C 0.89982(12) -0.0478(2) 0.18860(17)
H3 H 0.94000 -0.05140 0.21410
C7 C 0.87855(12) -0.1373(2) 0.14384(16)
C8 C 0.81803(13) -0.1345(2) 0.10718(16)
H4 H 0.80420 -0.19340 0.07590
C9 C 0.77832(12) -0.0426(2) 0.11775(15)
C10 C 0.80045(12) 0.0476(2) 0.16035(16)
H5 H 0.77380 0.10960 0.16550
C11 C 0.87154(14) 0.2514(2) 0.21325(17)
H6 H 0.84710 0.26020 0.16730
C12 C 0.89294(14) 0.3440(2) 0.25333(16)
H7 H 0.88270 0.41420 0.23420
C13 C 0.91761(13) -0.2419(2) 0.14173(18)
C14 C 0.71018(13) -0.0436(2) 0.08365(16)
C15 C 0.6234(4) 0.7052(5) 0.9168(4)
H8 H 0.59250 0.68130 0.87680
H9 H 0.60120 0.70900 0.96740
C16 C 0.6805(6) 0.6289(7) 0.9206(7)
H10 H 0.69630 0.62270 0.97450
H11 H 0.66850 0.55570 0.90200
C17 C 0.7286(6) 0.675(1) 0.8719(8)
H12 H 0.73210 0.63190 0.82370
H13 H 0.77040 0.67240 0.89870
C18 C 0.7128(3) 0.7884(7) 0.8525(4)
H14 H 0.70640 0.79710 0.79600
H15 H 0.74720 0.83820 0.86960
N1 N 0.65129(16) 0.8100(2) 0.89651(18)
H16 H 0.65970 0.84940 0.94060
H17 H 0.62340 0.84890 0.86620
Zn1B Zn 1.412528(12) 0.04387(2) 0.442966(16)
P1B P 1.04689(3) 0.45499(5) 0.12347(4)
O1B O 1.05786(15) -0.2673(2) 0.29396(15)
O2B O 1.07743(10) -0.29462(16) 0.42081(13)
O3B O 1.30592(11) -0.12018(18) 0.46013(14)
O4B O 1.32628(9) 0.03509(17) 0.39547(12)
O5B O 1.05817(9) 0.55392(14) 0.1785(1)
O6B O 1.09369(9) 0.46580(16) 0.05478(10)
O7B O 0.97609(9) 0.44426(15) 0.09963(12)
C1B C 1.07030(12) 0.3334(2) 0.17786(15)
C2B C 1.05565(15) 0.2284(2) 0.15151(18)
H1B H 1.03090 0.21960 0.10580
C3B C 1.07711(15) 0.1360(2) 0.19179(19)
H2B H 1.06650 0.06590 0.17290
C4B C 1.11437(12) 0.1459(2) 0.26020(16)
C5B C 1.13811(12) 0.0473(2) 0.30427(16)
C6B C 1.10018(12) -0.0478(2) 0.31140(17)
H3B H 1.06000 -0.05140 0.28590
C7B C 1.12145(12) -0.1373(2) 0.35616(16)
C8B C 1.18197(13) -0.1345(2) 0.39282(16)
H4B H 1.19580 -0.19340 0.42410
C9B C 1.22168(12) -0.0426(2) 0.38225(15)
C10B C 1.19955(12) 0.0476(2) 0.33965(16)
H5B H 1.22620 0.10960 0.33450
C11B C 1.12846(14) 0.2514(2) 0.28675(17)
H6B H 1.15290 0.26020 0.33270
C12B C 1.10706(14) 0.3440(2) 0.24667(16)
H7B H 1.11730 0.41420 0.26580
C13B C 1.08239(13) -0.2419(2) 0.35827(18)
C14B C 1.28982(13) -0.0436(2) 0.41635(16)
Zn1A Zn 0.912528(12) 0.45613(2) 0.557034(16)
Zn1C Zn 1.087472(12) 0.45613(2) -0.057034(16)
Zn1E Zn 1.087472(12) -0.45613(2) 0.442966(16)
Zn1E* Zn 1.087472(12) 0.54387(2) 0.442966(16)
Zn1G Zn 0.912528(12) -0.45613(2) 0.057034(16)
Zn1G* Zn 0.912528(12) 0.54387(2) 0.057034(16)
Zn2* Zn 1.00000 -0.37713(3) 0.25000
O1* O 0.94214(15) 0.7327(2) 0.20604(15)
O1B* O 1.05786(15) 0.7327(2) 0.29396(15)
O2E O 1.42257(10) 0.20538(16) 0.42081(13)
O2G O 0.57743(10) 0.20538(16) 0.07919(13)
O6A O 0.59369(9) 0.03420(16) -0.05478(10)
O6C O 1.40631(9) 0.03420(16) 0.55478(10)
O7E O 0.52391(9) -0.05574(15) 0.09963(12)
O7G O 1.47609(9) -0.05574(15) 0.40037(12)
#END
