
#######################################################################
#
#                 Cambridge Crystallographic Data Centre
#                                CCDC
#
#######################################################################
#
# If this CIF has been generated from an entry in the Cambridge
# Structural Database, then it will include bibliographic, chemical,
# crystal, experimental, refinement or atomic coordinate data resulting
# from the CCDC's data processing and validation procedures.
#
#######################################################################

data_CSD_CIF_VIYXOT
_audit_creation_date 2019-03-12
_audit_creation_method CSD-ConQuest-V1
_database_code_CSD VIYXOT
_database_code_depnum_ccdc_archive 'CCDC 1849335'
_chemical_formula_sum 'C51 H49 Eu2 N5 O19'
_chemical_formula_moiety
;
(C44 H22 Eu2 N2 O16 2-)n,2(C2 H8 N1 1+),2(H2 O1),C3 H7 N1 O1
;
_journal_coden_Cambridge 222
_journal_volume 48
_journal_year 2019
_journal_page_first 4489
_journal_name_full 'Dalton Trans. '
loop_
_publ_author_name
"Wei-Ming Liao"
"Mei-Juan Wei"
"Jun-Ting Mo"
"Peng-Yan Fu"
"Ya-Nan Fan"
"Mei Pan"
"Cheng-Yong Su"
_chemical_name_systematic
;
catena-[bis(dimethylammonium) 
bis(\m-2^2^-amino[1^1^,2^1^:2^4^,3^1^-terphenyl]-1^3^,1^5^,3^3^,3^5^-tetracarb
oxylato)-di-europium(iii) N,N-dimethylformamide solvate dihydrate]
;
_cell_volume   1407.910
_exptl_crystal_description 'block'
_diffrn_ambient_temperature 293
_refine_special_details
;
C10A,C11A,C13A,C14A,N2A and C10,C11,C13,C14,N2 disordered over two sites with 
occupancies 0.5:0.5; The SQUEEZE/PLATON program has been used to model some 
disorder.
;
#These two values have been output from a single CSD field.
_refine_ls_R_factor_gt 0.0573
_refine_ls_wR_factor_gt 0.0573
_symmetry_cell_setting triclinic
_symmetry_space_group_name_H-M 'P -1'
_symmetry_Int_Tables_number 2
loop_
_symmetry_equiv_pos_site_id
_symmetry_equiv_pos_as_xyz
1 x,y,z
2 -x,-y,-z
_cell_length_a 10.0077(6)
_cell_length_b 10.3815(5)
_cell_length_c 15.9271(7)
_cell_angle_alpha 71.109(4)
_cell_angle_beta 85.541(4)
_cell_angle_gamma 64.379(5)
_cell_formula_units_Z 1
loop_
_atom_type_symbol
_atom_type_radius_bond
C 0.68
H 0.23
Eu 1.98
N 0.68
O 0.68
loop_
_atom_site_label
_atom_site_type_symbol
_atom_site_fract_x
_atom_site_fract_y
_atom_site_fract_z
Eu1 Eu 0.09230(3) 0.27659(3) 0.08378(2)
O1 O 0.0046(4) 0.6120(5) 0.0634(3)
O2 O 0.1593(5) 0.5846(5) 0.8916(3)
O3 O 0.2609(5) 0.3706(5) 1.0040(3)
O4 O 0.7108(5) -0.0426(5) 0.9340(3)
O5 O 0.1157(5) 0.4046(5) 0.1777(3)
O6 O 0.6583(5) -0.1101(4) 0.8283(3)
C1 C 0.0640(6) 0.5464(6) 0.1411(4)
C2 C 0.0762(7) 0.6369(6) 0.1937(4)
C3 C 0.2427(6) 0.4464(6) 0.9221(4)
C4 C 0.0376(7) 0.7885(7) 0.1556(4)
H1 H -0.00020 0.83730 0.09660
C5 C 0.5035(7) 0.1391(7) 0.8324(4)
C6 C 0.0550(7) 0.8692(7) 0.2056(4)
C7 C 0.3225(7) 0.3652(7) 0.8583(4)
C8 C 0.6308(7) -0.0139(7) 0.8665(4)
C9 C 0.1471(9) 0.6426(8) 0.3349(4)
C10 C 0.4330(7) 0.2197(7) 0.8907(4)
H2 H 0.46040 0.17540 0.95140
C11 C 0.2830(7) 0.4310(7) 0.7681(4)
H3 H 0.21100 0.53020 0.74660
C12 C 0.3485(8) 0.3523(7) 0.7083(4)
C13 C 0.1315(8) 0.5628(7) 0.2835(4)
H4 H 0.15780 0.46000 0.30870
C14 C 0.1103(8) 0.7938(7) 0.2950(4)
H5 H 0.12230 0.84770 0.32820
C15 C 0.3016(9) 0.4250(8) 0.6119(4)
C16 C 0.2039(9) 0.5642(8) 0.4304(4)
C17 C 0.4592(8) 0.2042(7) 0.7421(4)
H6 H 0.50340 0.14880 0.70370
C18 C 0.2812(16) 0.6199(16) 0.4711(9)
H7 H 0.29900 0.70200 0.43750
C19 C 0.3292(15) 0.5518(14) 0.5604(8)
C20 C 0.2390(18) 0.3676(16) 0.5692(9)
H8 H 0.22940 0.27980 0.60080
C21 C 0.1895(17) 0.4363(15) 0.4803(9)
H9 H 0.14550 0.39510 0.45380
N1 N 0.397(3) 0.621(4) 0.5956(17)
H10 H 0.40530 0.69960 0.56190
H11 H 0.42850 0.58310 0.65080
O7 O -0.0168(5) 1.0997(5) 0.0841(3)
O8 O 0.0619(5) 1.0914(5) 0.2120(3)
C22 C 0.0297(7) 1.0297(7) 0.1647(4)
C23? C 0.160(2) 0.542(2) 0.5838(13)
H12? H 0.09480 0.57060 0.62630
C24? C 0.114(3) 0.615(3) 0.4964(13)
H13? H 0.02220 0.69880 0.47990
C25? C 0.375(3) 0.372(3) 0.5469(14)
H14? H 0.46420 0.28450 0.56270
C26? C 0.326(3) 0.440(3) 0.4595(15)
N2? N 0.431(3) 0.381(4) 0.3937(17)
H15? H 0.41000 0.42930 0.33770
H16? H 0.51120 0.29950 0.41210
O9 O 0.2936(8) 0.8314(10) -0.0168(6)
H17 H 0.21460 0.84210 -0.04050
H18 H 0.30920 0.90890 -0.04220
N3 N 0.5244(11) 0.2630(14) 0.1448(7)
H19 H 0.56550 0.24510 0.09580
H20 H 0.45210 0.23280 0.15470
C27 C 0.4616(15) 0.4214(18) 0.1305(12)
H21 H 0.38520 0.47340 0.08280
H22 H 0.53770 0.45620 0.11530
H23 H 0.41970 0.44120 0.18380
C28 C 0.643(2) 0.170(2) 0.2237(11)
H24 H 0.72640 0.19320 0.21040
H25 H 0.67390 0.06430 0.23400
H26 H 0.60100 0.19430 0.27600
O1A O -0.0046(4) 0.3880(5) -0.0634(3)
O2A O -0.1593(5) 0.4154(5) -0.8916(3)
O3A O -0.2609(5) 0.6294(5) -1.0040(3)
O4A O -0.7108(5) 1.0426(5) -0.9340(3)
O5A O -0.1157(5) 0.5954(5) -0.1777(3)
O6A O -0.6583(5) 1.1101(4) -0.8283(3)
C1A C -0.0640(6) 0.4536(6) -0.1411(4)
C2A C -0.0762(7) 0.3631(6) -0.1937(4)
C3A C -0.2427(6) 0.5536(6) -0.9221(4)
C4A C -0.0376(7) 0.2115(7) -0.1556(4)
H1A H 0.00020 0.16270 -0.09660
C5A C -0.5035(7) 0.8609(7) -0.8324(4)
C6A C -0.0550(7) 0.1308(7) -0.2056(4)
C7A C -0.3225(7) 0.6348(7) -0.8583(4)
C8A C -0.6308(7) 1.0139(7) -0.8665(4)
C9A C -0.1471(9) 0.3574(8) -0.3349(4)
C10A C -0.4330(7) 0.7803(7) -0.8907(4)
H2A H -0.46040 0.82460 -0.95140
C11A C -0.2830(7) 0.5690(7) -0.7681(4)
H3A H -0.21100 0.46980 -0.74660
C12A C -0.3485(8) 0.6477(7) -0.7083(4)
C13A C -0.1315(8) 0.4372(7) -0.2835(4)
H4A H -0.15780 0.54000 -0.30870
C14A C -0.1103(8) 0.2062(7) -0.2950(4)
H5A H -0.12230 0.15230 -0.32820
C15A C -0.3016(9) 0.5750(8) -0.6119(4)
C16A C -0.2039(9) 0.4358(8) -0.4304(4)
C17A C -0.4592(8) 0.7958(7) -0.7421(4)
H6A H -0.50340 0.85120 -0.70370
C18A C -0.2812(16) 0.3801(16) -0.4711(9)
H7A H -0.29900 0.29800 -0.43750
C19A C -0.3292(15) 0.4482(14) -0.5604(8)
C20A C -0.2390(18) 0.6324(16) -0.5692(9)
H8A H -0.22940 0.72020 -0.60080
C21A C -0.1895(17) 0.5637(15) -0.4803(9)
H9A H -0.14550 0.60490 -0.45380
N1A N -0.397(3) 0.379(4) -0.5956(17)
H10A H -0.40530 0.30040 -0.56190
H11A H -0.42850 0.41690 -0.65080
O7A O 0.0168(5) -0.0997(5) -0.0841(3)
O8A O -0.0619(5) -0.0914(5) -0.2120(3)
C22A C -0.0297(7) -0.0297(7) -0.1647(4)
Eu1A Eu -0.09230(3) 0.72341(3) -0.08378(2)
Eu1* Eu -0.90770(3) 1.27659(3) -0.91622(2)
Eu1** Eu 0.09230(3) 0.27659(3) -0.91622(2)
Eu1*** Eu 0.09230(3) 0.27659(3) 1.08378(2)
Eu1**** Eu 0.09230(3) 1.27659(3) 0.08378(2)
Eu1A* Eu -0.09230(3) -0.27659(3) -0.08378(2)
Eu1A** Eu -0.09230(3) 0.72341(3) -1.08378(2)
Eu1A*** Eu -0.09230(3) 0.72341(3) 0.91622(2)
Eu1A**** Eu 0.90770(3) -0.27659(3) 0.91622(2)
O2* O 0.1593(5) 0.5846(5) -0.1084(3)
O2A* O -0.1593(5) 0.4154(5) 0.1084(3)
O3* O 0.2609(5) 0.3706(5) 0.0040(3)
O3A* O -0.2609(5) 0.6294(5) -0.0040(3)
O4* O -0.2892(5) 0.9574(5) -0.0660(3)
O4A* O 0.2892(5) 0.0426(5) 0.0660(3)
O6* O -0.3417(5) 0.8899(4) -0.1717(3)
O6A* O 0.3417(5) 0.1101(4) 0.1717(3)
O7* O -0.0168(5) 0.0997(5) 0.0841(3)
O7A* O 0.0168(5) 0.9003(5) -0.0841(3)
O8* O 0.0619(5) 0.0914(5) 0.2120(3)
O8A* O -0.0619(5) 0.9086(5) -0.2120(3)
#END
