
#######################################################################
#
#                 Cambridge Crystallographic Data Centre
#                                CCDC
#
#######################################################################
#
# If this CIF has been generated from an entry in the Cambridge
# Structural Database, then it will include bibliographic, chemical,
# crystal, experimental, refinement or atomic coordinate data resulting
# from the CCDC's data processing and validation procedures.
#
#######################################################################

data_CSD_CIF_VOBKAA
_audit_creation_date 2014-02-14
_audit_creation_method CSD-ConQuest-V1
_database_code_CSD VOBKAA
_database_code_depnum_ccdc_archive 'CCDC 965870'
_chemical_formula_sum 'C44 H60 Cd3 N6 O32'
_chemical_formula_moiety
;
(C34 H30 Cd3 N2 O30 2-)n,2n(C3 H7 N1 O1),2n(C2 H8 N1 1+)
;
_journal_coden_Cambridge 1295
_journal_volume 38
_journal_year 2013
_journal_page_first 11
_journal_name_full 'Inorg.Chem.Commun. '
loop_
_publ_author_name
"Yan-Fei Chen"
"Hua-Bin Zhang"
"Shu-Mei Chen"
_chemical_name_systematic
;
catena-[bis(dimetylammonium) 
bis(\m-2,3,5,6-tetrahydroxyterephthalato)-bis(\m-acetato)-(\m-2,5-dihydroxy-3,
6-dioxidobenzene-1,4-dicarboxylate)-bis(N,N-dimethylformamide)-tri-cadmium 
N,N-dimethylformamide solvate]
;
_cell_volume   2981.476
_exptl_crystal_colour 'blue'
_exptl_crystal_density_diffrn 1.696
_exptl_crystal_description 'sheet'
_diffrn_ambient_temperature 293
#These two values have been output from a single CSD field.
_refine_ls_R_factor_gt 0.0479
_refine_ls_wR_factor_gt 0.0479
_symmetry_cell_setting monoclinic
_symmetry_space_group_name_H-M 'P 21/c'
_symmetry_Int_Tables_number 14
loop_
_symmetry_equiv_pos_site_id
_symmetry_equiv_pos_as_xyz
1 x,y,z
2 -x,1/2+y,1/2-z
3 -x,-y,-z
4 x,-1/2-y,-1/2+z
_cell_length_a 18.1128(8)
_cell_length_b 8.7931(3)
_cell_length_c 19.2053(8)
_cell_angle_alpha 90
_cell_angle_beta 102.909(4)
_cell_angle_gamma 90
_cell_formula_units_Z 2
loop_
_atom_type_symbol
_atom_type_radius_bond
C 0.68
H 0.23
Cd 1.44
N 0.68
O 0.68
loop_
_atom_site_label
_atom_site_type_symbol
_atom_site_fract_x
_atom_site_fract_y
_atom_site_fract_z
Cd1 Cd 0.20866(3) 0.90703(5) 0.04758(2)
Cd2 Cd 0.00000 1.00000 0.00000
O1 O 0.0763(3) 1.1598(6) -0.0448(3)
C1 C 0.1171(4) 1.4196(8) -0.3494(3)
C2 C 0.1293(4) 1.2173(8) -0.1440(3)
O2 O 0.1783(3) 1.4342(6) -0.3703(3)
O3 O 0.1908(3) 1.0665(7) -0.0472(3)
C3 C 0.0586(4) 1.3492(9) -0.2475(4)
O4 O 0.0536(3) 1.4613(7) -0.3837(3)
O5 O 0.0874(3) 0.8150(6) 0.0054(3)
C4 C 0.0620(4) 1.2826(8) -0.1816(4)
C5 C 0.0979(4) 0.6963(8) -0.0286(4)
O6 O 0.3169(3) 0.8264(7) 0.0087(4)
C6 C 0.1886(4) 1.2869(10) -0.2394(4)
C7 C 0.1327(4) 1.1425(8) -0.0733(3)
C8 C 0.4765(5) 1.0900(9) 0.0482(5)
O7 O 0.3342(3) 1.0239(7) 0.0801(4)
C9 C 0.0310(6) 0.6167(11) -0.0709(6)
H1 H -0.01210 0.63650 -0.05080
H2 H 0.04060 0.50930 -0.07010
H3 H 0.02080 0.65240 -0.11930
C10 C 0.1920(4) 1.2181(9) -0.1738(4)
C11 C 0.1220(4) 1.3508(8) -0.2772(3)
C12 C 0.3558(4) 0.9371(10) 0.0376(5)
C13 C 0.4317(4) 0.9700(9) 0.0189(5)
O8 O 0.2358(4) 0.7337(7) 0.1415(3)
C14 C 0.2013(8) 0.7386(13) 0.1927(7)
H4 H 0.14920 0.75170 0.17780
N1 N 0.2230(5) 0.7296(13) 0.2558(4)
C15 C 0.5439(5) 1.1192(10) 0.0313(5)
O9 O 0.2592(6) 1.1406(17) -0.1450(6)
H5 H 0.25700 1.10490 -0.10600
O10 O -0.0070(6) 1.4087(17) -0.2778(6)
H6 H -0.00560 1.44000 -0.31770
O11 O 0.4621(8) 1.1661(18) 0.101(1)
O12 O -0.0077(6) 1.2828(15) -0.1620(6)
H7 H -0.00660 1.22140 -0.12970
O13 O 0.2551(7) 1.305(2) -0.2602(7)
H8 H 0.24630 1.32320 -0.30320
O14 O 0.5802(8) 1.2493(17) 0.0581(9)
H9 H 0.61810 1.26060 0.04190
C16 C 0.1819(12) 0.742(2) 0.3113(10)
H10 H 0.20300 0.82280 0.34330
H11 H 0.18540 0.64810 0.33720
H12 H 0.12970 0.76410 0.29050
C17 C 0.3038(10) 0.688(4) 0.2833(14)
H13 H 0.33140 0.70580 0.24690
H14 H 0.30720 0.58220 0.29630
H15 H 0.32480 0.74860 0.32450
O15 O 0.1635(4) 0.6540(8) -0.0278(3)
N2 N 0.2858(5) 2.0082(8) -0.4514(4)
H16 H 0.25170 1.93460 -0.46770
H17 H 0.32480 1.96590 -0.42010
C18 C 0.3130(8) 2.0735(14) -0.5112(8)
H18 H 0.32130 1.99360 -0.54260
H19 H 0.35960 2.12680 -0.49330
H20 H 0.27580 2.14300 -0.53690
C19 C 0.2508(9) 2.1244(12) -0.4153(8)
H21 H 0.22080 2.19080 -0.45010
H22 H 0.28960 2.18230 -0.38420
H23 H 0.21910 2.07680 -0.38780
N3 N 0.5212(7) 1.8019(19) -0.3222(8)
O16 O 0.4190(8) 1.9343(18) -0.3587(8)
C20 C 0.5607(15) 1.683(4) -0.293(2)
H24 H 0.58510 1.70550 -0.24480
H25 H 0.59830 1.65920 -0.31990
H26 H 0.52750 1.59750 -0.29450
C21 C 0.566(2) 1.920(9) -0.341(4)
H27 H 0.53400 2.00250 -0.36200
H28 H 0.59340 1.88230 -0.37500
H29 H 0.60130 1.95520 -0.29920
C22 C 0.4587(15) 1.835(4) -0.341(2)
H30 H 0.42960 1.74760 -0.34080
O6B O 0.6831(3) 1.1736(7) -0.0087(4)
C8B C 0.5235(5) 0.9100(9) -0.0482(5)
O7B O 0.6658(3) 0.9761(7) -0.0801(4)
C12B C 0.6442(4) 1.0629(10) -0.0376(5)
C13B C 0.5683(4) 1.0300(9) -0.0189(5)
C15B C 0.4561(5) 0.8808(10) -0.0313(5)
O11B O 0.5379(8) 0.8339(18) -0.101(1)
O14B O 0.4198(8) 0.7507(17) -0.0581(9)
H9B H 0.38190 0.73940 -0.04190
Cd1B Cd -0.20866(3) 1.09297(5) -0.04758(2)
O1B O -0.0763(3) 0.8402(6) 0.0448(3)
C1B C -0.1171(4) 0.5804(8) 0.3494(3)
C2B C -0.1293(4) 0.7827(8) 0.1440(3)
O2B O -0.1783(3) 0.5658(6) 0.3703(3)
O3B O -0.1908(3) 0.9335(7) 0.0472(3)
C3B C -0.0586(4) 0.6508(9) 0.2475(4)
O4B O -0.0536(3) 0.5387(7) 0.3837(3)
O5B O -0.0874(3) 1.1850(6) -0.0054(3)
C4B C -0.0620(4) 0.7174(8) 0.1816(4)
C5B C -0.0979(4) 1.3037(8) 0.0286(4)
C6B C -0.1886(4) 0.7131(10) 0.2394(4)
C7B C -0.1327(4) 0.8575(8) 0.0733(3)
C9B C -0.0310(6) 1.3833(11) 0.0709(6)
H1B H 0.01210 1.36350 0.05080
H2B H -0.04060 1.49070 0.07010
H3B H -0.02080 1.34760 0.11930
C10B C -0.1920(4) 0.7819(9) 0.1738(4)
C11B C -0.1220(4) 0.6492(8) 0.2772(3)
O8B O -0.2358(4) 1.2663(7) -0.1415(3)
C14B C -0.2013(8) 1.2614(13) -0.1927(7)
H4B H -0.14920 1.24830 -0.17780
N1B N -0.2230(5) 1.2704(13) -0.2558(4)
O9B O -0.2592(6) 0.8594(17) 0.1450(6)
H5B H -0.25700 0.89510 0.10600
O10B O 0.0070(6) 0.5913(17) 0.2778(6)
H6B H 0.00560 0.56000 0.31770
O12B O 0.0077(6) 0.7172(15) 0.1620(6)
H7B H 0.00660 0.77860 0.12970
O13B O -0.2551(7) 0.695(2) 0.2602(7)
H8B H -0.24630 0.67680 0.30320
C16B C -0.1819(12) 1.258(2) -0.3113(10)
H10B H -0.20300 1.17720 -0.34330
H11B H -0.18540 1.35190 -0.33720
H12B H -0.12970 1.23590 -0.29050
C17B C -0.3038(10) 1.312(4) -0.2833(14)
H13B H -0.33140 1.29420 -0.24690
H14B H -0.30720 1.41780 -0.29630
H15B H -0.32480 1.25140 -0.32450
O15B O -0.1635(4) 1.3460(8) 0.0278(3)
Cd1A Cd -0.20866(3) 0.40703(5) 0.45242(2)
Cd1B* Cd 0.79134(3) 1.09297(5) -0.04758(2)
Cd1C Cd 0.20866(3) 1.59297(5) -0.45242(2)
Cd2A Cd 0.00000 0.50000 0.50000
Cd2A* Cd 0.00000 1.50000 -0.50000
O2A O -0.1783(3) 0.9342(6) -0.1297(3)
O2C O 0.1783(3) 1.0658(6) 0.1297(3)
O4A O -0.0536(3) 0.9613(7) -0.1163(3)
O4C O 0.0536(3) 1.0387(7) 0.1163(3)
O6B* O -0.3169(3) 1.1736(7) -0.0087(4)
O7B* O -0.3342(3) 0.9761(7) -0.0801(4)
#END
