
#######################################################################
#
#                 Cambridge Crystallographic Data Centre
#                                CCDC
#
#######################################################################
#
# If this CIF has been generated from an entry in the Cambridge
# Structural Database, then it will include bibliographic, chemical,
# crystal, experimental, refinement or atomic coordinate data resulting
# from the CCDC's data processing and validation procedures.
#
#######################################################################

data_CSD_CIF_VOCDAS
_audit_creation_date 1992-04-28
_audit_creation_method CSD-ConQuest-V1
_database_code_CSD VOCDAS
_chemical_formula_sum 'C12 H24 Co1.5 N1 O14'
_chemical_formula_moiety
;
(C12 H10 Co1 N1 O7 1-)n,0.5n(H12 Co1 O6 2+),4n(H2 O1)
;
_journal_coden_Cambridge 580
_journal_volume 9
_journal_year 1990
_journal_page_first 2873
_journal_name_full 'Polyhedron '
loop_
_publ_author_name
"Zhang Hualin"
"Li Peiyi"
"Wang Boyi"
"Wu Jianhua"
"Zheng Peiju"
_chemical_name_systematic
;
catena-((\m~2~-o-Aminophenol-N,N,O-triacetato-O,O',O'',O''',N)-cobalt(ii) 
hexa-aqua-cobalt(ii) tetrahydrate)
;
_cell_volume   4153.643
_exptl_crystal_density_diffrn 1.582
_diffrn_ambient_temperature ?
_diffrn_special_details
;
The study was carried out at room temperature,in the range 283-303K

;
#These two values have been output from a single CSD field.
_refine_ls_R_factor_gt 0.063
_refine_ls_wR_factor_gt 0.063
_symmetry_cell_setting orthorhombic
_symmetry_space_group_name_H-M 'P b n m'
_symmetry_Int_Tables_number 62
loop_
_symmetry_equiv_pos_site_id
_symmetry_equiv_pos_as_xyz
1 x,y,z
2 1/2-x,1/2+y,z
3 1/2+x,1/2-y,1/2+z
4 -x,-y,1/2+z
5 -x,-y,-z
6 -1/2+x,-1/2-y,-z
7 -1/2-x,-1/2+y,-1/2-z
8 x,y,-1/2-z
_cell_length_a 9.343(2)
_cell_length_b 18.447(3)
_cell_length_c 24.100(5)
_cell_angle_alpha 90
_cell_angle_beta 90
_cell_angle_gamma 90
_cell_formula_units_Z 8
loop_
_atom_type_symbol
_atom_type_radius_bond
C 0.68
Co 1.33
N 0.68
O 0.68
loop_
_atom_site_label
_atom_site_type_symbol
_atom_site_fract_x
_atom_site_fract_y
_atom_site_fract_z
Co1 Co 0.1408(1) 0.19779(5) -0.51910(4)
Co2 Co 0.50000 0.19126(9) -0.25000
O1 O 0.1800(6) 0.2296(3) -0.5999(2)
O2 O 0.3562(7) 0.2410(4) -0.6616(3)
O3 O 0.2020(6) 0.1559(3) -0.4437(2)
O4 O 0.3645(7) 0.0894(4) -0.3996(3)
O5 O 0.0171(5) 0.1074(3) -0.5423(3)
O6 O -0.2975(5) 0.2003(3) -0.5086(2)
O7 O -0.0670(5) 0.2293(3) -0.5055(3)
O8 O 0.50000 0.3059(6) -0.25000
O9 O 0.4969(7) 0.1933(4) -0.3356(2)
O10 O 0.2860(9) 0.1795(5) -0.25000
O11 O 0.50000 0.0751(6) -0.25000
O12 O 0.7334(8) 0.1944(5) -0.25000
O13 O 0.1449(7) 0.2281(4) -0.3431(3)
O14 O 0.302(2) 0.3584(6) -0.3275(5)
O15 O 0.296(3) -0.0010(8) -0.3142(6)
O16 O 0.323(4) 0.466(1) -0.75000
O17 O 0.50000 0.119(2) -0.75000
N1 N 0.3059(6) 0.1178(3) -0.5464(3)
C1 C 0.2337(8) 0.0539(4) -0.5680(3)
C2 C 0.3100(9) -0.0045(5) -0.5895(4)
C3 C 0.240(1) -0.0646(5) -0.6089(5)
C4 C 0.092(1) -0.0679(5) -0.6074(5)
C5 C 0.0142(9) -0.0110(5) -0.5856(4)
C6 C 0.0847(8) 0.0490(4) -0.5663(4)
C7 C 0.3888(8) 0.1554(4) -0.5895(4)
C8 C 0.3015(8) 0.2128(5) -0.6192(3)
C9 C 0.3906(8) 0.1008(4) -0.4960(4)
C10 C 0.3112(8) 0.1158(4) -0.4424(4)
C11 C -0.1353(8) 0.1119(4) -0.5384(4)
C12 C -0.1688(7) 0.1864(4) -0.5159(3)
O6E O 0.2025(5) 0.2997(3) -0.4914(2)
Co1E Co -0.3592(1) 0.30221(5) -0.48090(4)
O9G O 0.4969(7) 0.1933(4) -0.1644(2)
#END
