
#######################################################################
#
#                 Cambridge Crystallographic Data Centre
#                                CCDC
#
#######################################################################
#
# If this CIF has been generated from an entry in the Cambridge
# Structural Database, then it will include bibliographic, chemical,
# crystal, experimental, refinement or atomic coordinate data resulting
# from the CCDC's data processing and validation procedures.
#
#######################################################################

data_CSD_CIF_VOCLUV
_audit_creation_date 2008-08-21
_audit_creation_method CSD-ConQuest-V1
_database_code_CSD VOCLUV
_database_code_depnum_ccdc_archive 'CCDC 693751'
_chemical_formula_sum 'C6 H4 Na4 Np2 O18'
_chemical_formula_moiety
;
(Na1 1+)4n,n(C6 Np2 O16 4-),2n(H2 O1)
;
_journal_coden_Cambridge 513
_journal_volume 49
_journal_year 2007
_journal_page_first 102
_journal_name_full 'Radiokhimiya(Russ.)(Radiochem.) '
loop_
_publ_author_name
"I.A.Charushnikova"
"N.N.Krot"
"I.N.Polyakova"
_chemical_name_systematic
;
catena-[Tetra-sodium 
(\m~2~-oxalato-O,O',O'',O''')-bis(\m~2~-oxalato-O,O,O')-tetraoxo-di-neptunium(
v) dihydrate]
;
_cell_volume    428.485
_exptl_crystal_colour 'green'
_exptl_crystal_density_diffrn 3.603
_exptl_crystal_description 'plate'
_diffrn_ambient_temperature 295
#These two values have been output from a single CSD field.
_refine_ls_R_factor_gt 0.0398
_refine_ls_wR_factor_gt 0.0398
_symmetry_cell_setting triclinic
_symmetry_space_group_name_H-M 'P -1'
_symmetry_Int_Tables_number 2
loop_
_symmetry_equiv_pos_site_id
_symmetry_equiv_pos_as_xyz
1 x,y,z
2 -x,-y,-z
_cell_length_a 6.7556(7)
_cell_length_b 8.362(2)
_cell_length_c 8.6526(9)
_cell_angle_alpha 76.909(17)
_cell_angle_beta 71.051(9)
_cell_angle_gamma 69.101(16)
_cell_formula_units_Z 1
loop_
_atom_type_symbol
_atom_type_radius_bond
C 0.68
H 0.23
Na 0.97
Np 1.45
O 0.68
loop_
_atom_site_label
_atom_site_type_symbol
_atom_site_fract_x
_atom_site_fract_y
_atom_site_fract_z
Np1 Np 0.03587(4) 0.16326(3) 0.27375(3)
O1 O 0.2873(12) 0.1833(9) 0.2956(9)
O2 O -0.2095(12) 0.1419(10) 0.2465(10)
O3 O -0.1126(11) 0.1373(8) 0.5777(8)
O4 O -0.2512(13) 0.4194(8) 0.5933(8)
O5 O -0.2761(12) 0.0658(8) 0.8934(8)
O6 O -0.3792(13) 0.3404(8) 0.9313(8)
O7 O -0.1384(13) 0.4767(9) 0.2085(9)
O8 O -0.1454(11) 0.7157(8) 0.0224(7)
C1 C -0.2147(15) 0.2675(11) 0.6551(11)
C2 C -0.2975(14) 0.2243(9) 0.8453(11)
C3 C -0.0832(13) 0.556(1) 0.0699(10)
Na1 Na 0.3619(6) 0.0370(4) -0.1760(5)
Na2 Na 0.4894(6) 0.3858(5) 0.2118(5)
O9 O 0.3480(19) 0.2319(10) 0.5961(11)
H1 H 0.28(2) 0.23(2) 0.530(17)
H2 H 0.40(3) 0.314(16) 0.57(2)
Np1A Np -0.03587(4) -0.16326(3) 0.72625(3)
Np1A* Np -0.03587(4) 0.83674(3) -0.27375(3)
O1A O -0.2873(12) -0.1833(9) 0.7044(9)
O2A O 0.2095(12) -0.1419(10) 0.7535(10)
O3A O 0.1126(11) -0.1373(8) 0.4223(8)
O4A O 0.2512(13) -0.4194(8) 0.4067(8)
O5A O 0.2761(12) -0.0658(8) 0.1066(8)
O6A O 0.3792(13) -0.3404(8) 0.0687(8)
O7A O 0.1384(13) 0.5233(9) -0.2085(9)
O7A* O 0.1384(13) -0.4767(9) 0.7915(9)
O8A O 0.1454(11) 0.2843(8) -0.0224(7)
O8* O -0.1454(11) -0.2843(8) 1.0224(7)
C1A C 0.2147(15) -0.2675(11) 0.3449(11)
C2A C 0.2975(14) -0.2243(9) 0.1547(11)
C3A C 0.0832(13) 0.444(1) -0.0699(10)
#END
