
#######################################################################
#
#                 Cambridge Crystallographic Data Centre
#                                CCDC
#
#######################################################################
#
# If this CIF has been generated from an entry in the Cambridge
# Structural Database, then it will include bibliographic, chemical,
# crystal, experimental, refinement or atomic coordinate data resulting
# from the CCDC's data processing and validation procedures.
#
#######################################################################

data_CSD_CIF_VOFBOI
_audit_creation_date 2009-01-06
_audit_creation_method CSD-ConQuest-V1
_database_code_CSD VOFBOI
_database_code_depnum_ccdc_archive 'CCDC 700123'
_chemical_formula_sum 'C80 H72 Au4 Br8 F32 N2 Tl2'
_chemical_formula_moiety
;
(C48 Au4 Br8 F32 Tl2 2-)n,2n(C16 H36 N1 1+)
;
_journal_coden_Cambridge 579
_journal_volume 27
_journal_year 2008
_journal_page_first 2971
_journal_name_full 'Organometallics '
loop_
_publ_author_name
"E.J.Fernandez"
"A.Laguna"
"T.Lasanta"
"J.M.Lopez-de-Luzuriaga"
"M.Montiel"
"M.E.Olmos"
_chemical_name_systematic
;
catena-(bis(Tetra-n-butylammonium) 
bis(\m~3~-thallium)-tetrakis(bis(2-bromo-3,4,5,6-tetrafluorophenyl)-gold(i)))
;
_cell_volume   2364.760
_exptl_crystal_colour 'yellow'
_exptl_crystal_density_diffrn 2.461
_exptl_crystal_description 'prism'
_exptl_crystal_preparation 'n-hexane/toluene/THF'
_diffrn_ambient_temperature 173
#These two values have been output from a single CSD field.
_refine_ls_R_factor_gt 0.0658
_refine_ls_wR_factor_gt 0.0658
_symmetry_cell_setting triclinic
_symmetry_space_group_name_H-M 'P -1'
_symmetry_Int_Tables_number 2
loop_
_symmetry_equiv_pos_site_id
_symmetry_equiv_pos_as_xyz
1 x,y,z
2 -x,-y,-z
_cell_length_a 11.5160(2)
_cell_length_b 13.9090(3)
_cell_length_c 16.5790(4)
_cell_angle_alpha 109.171(1)
_cell_angle_beta 96.968(1)
_cell_angle_gamma 104.685(1)
_cell_formula_units_Z 1
loop_
_atom_type_symbol
_atom_type_radius_bond
C 0.68
H 0.23
Au 1.50
Br 1.21
F 0.64
N 0.68
Tl 1.55
loop_
_atom_site_label
_atom_site_type_symbol
_atom_site_fract_x
_atom_site_fract_y
_atom_site_fract_z
Au1 Au 0.17211(4) 0.19973(4) 0.39630(3)
Tl1 Tl 0.22193(4) 0.43286(4) 0.46119(3)
Au2 Au 0.00000 0.50000 0.50000
Au3 Au 0.50000 0.50000 0.50000
C1 C 0.2621(10) 0.2123(8) 0.5172(8)
C2 C 0.2337(9) 0.2532(8) 0.5975(7)
C3 C 0.2839(12) 0.2372(11) 0.6702(8)
C4 C 0.3637(14) 0.1781(13) 0.6645(10)
C5 C 0.3955(13) 0.1387(12) 0.5873(9)
C6 C 0.3459(12) 0.1551(11) 0.5155(9)
Br1 Br 0.12740(14) 0.33852(12) 0.6132(1)
F1 F 0.2539(10) 0.2790(8) 0.7480(5)
F2 F 0.4096(10) 0.1628(9) 0.7359(6)
F3 F 0.4765(8) 0.0823(8) 0.5819(7)
F4 F 0.3839(9) 0.1120(7) 0.4423(5)
C7 C 0.0858(10) 0.1716(8) 0.2694(8)
C8 C -0.0140(12) 0.0805(10) 0.2196(9)
C9 C -0.0601(15) 0.0568(13) 0.1295(10)
C10 C -0.0051(15) 0.1244(14) 0.0933(11)
C11 C 0.0902(19) 0.2118(17) 0.1372(11)
C12 C 0.1390(19) 0.2392(17) 0.2261(9)
Br2 Br -0.09205(16) -0.01154(14) 0.26886(12)
F5 F -0.1534(10) -0.0292(10) 0.0830(7)
F6 F -0.0511(14) 0.1019(12) 0.0064(6)
F7 F 0.1411(16) 0.2778(12) 0.0976(8)
F8 F 0.2309(5) 0.3284(4) 0.2551(4)
C13 C 0.0936(12) 0.6297(11) 0.6166(9)
C14 C 0.0782(12) 0.6222(12) 0.6978(9)
C15 C 0.1541(17) 0.7113(17) 0.7768(11)
C16 C 0.2363(17) 0.7974(16) 0.7716(13)
C17 C 0.2435(17) 0.8000(16) 0.6918(17)
C18 C 0.1758(14) 0.7176(11) 0.6073(16)
Br3 Br -0.0374(2) 0.51047(18) 0.70897(13)
F9 F 0.1403(15) 0.7032(14) 0.8547(7)
F10 F 0.2994(13) 0.8749(12) 0.8471(10)
F11 F 0.3242(11) 0.8886(10) 0.6871(12)
F12 F 0.1942(8) 0.7339(7) 0.5499(6)
C19 C 0.4991(9) 0.4885(8) 0.6211(9)
C20 C 0.5605(10) 0.4307(9) 0.6539(10)
C21 C 0.5584(14) 0.4308(12) 0.7372(11)
C22 C 0.4997(15) 0.4882(12) 0.7894(10)
C23 C 0.4364(15) 0.5431(13) 0.7585(10)
C24 C 0.4376(12) 0.5443(11) 0.6762(9)
Br4 Br 0.64217(15) 0.34599(13) 0.58465(14)
F13 F 0.6208(11) 0.377(1) 0.7703(8)
F14 F 0.5002(14) 0.4874(11) 0.8715(7)
F15 F 0.3696(11) 0.5975(9) 0.8084(6)
F16 F 0.3705(7) 0.6024(6) 0.6548(6)
N1 N 0.2227(11) -0.1554(9) 0.1920(7)
C25 C 0.0893(14) -0.2097(13) 0.141(1)
H1 H 0.03950 -0.16490 0.16810
H2 H 0.08520 -0.21150 0.08050
C26 C 0.0315(17) -0.3208(13) 0.1362(11)
H3 H 0.02860 -0.32010 0.19580
H4 H 0.08150 -0.36660 0.11110
C27 C -0.103(2) -0.368(2) 0.0770(15)
H5 H -0.14920 -0.31690 0.09870
H6 H -0.09840 -0.37410 0.01640
C28 C -0.171(3) -0.471(2) 0.075(2)
H7 H -0.25330 -0.49460 0.03820
H8 H -0.17690 -0.46510 0.13510
H9 H -0.12750 -0.52240 0.05190
C29 C 0.2571(12) -0.0398(11) 0.1971(10)
H10 H 0.23340 -0.04050 0.13750
H11 H 0.20790 -0.00270 0.23370
C30 C 0.3898(14) 0.0237(12) 0.2336(10)
H12 H 0.44020 -0.00840 0.19510
H13 H 0.41640 0.02280 0.29240
C31 C 0.4090(15) 0.1410(12) 0.2405(10)
H14 H 0.35090 0.16960 0.27310
H15 H 0.49370 0.18570 0.27370
C32 C 0.3885(19) 0.1480(16) 0.1500(14)
H16 H 0.40120 0.22290 0.15670
H17 H 0.30410 0.10480 0.11740
H18 H 0.44690 0.12100 0.11800
C33 C 0.3081(15) -0.2105(12) 0.1451(9)
H19 H 0.39260 -0.17470 0.18210
H20 H 0.28330 -0.28540 0.14190
C34 C 0.3135(19) -0.2132(18) 0.0536(10)
H21 H 0.23380 -0.26050 0.01320
H22 H 0.32510 -0.14020 0.05370
C35 C 0.412(3) -0.2508(18) 0.0210(13)
H23 H 0.40980 -0.31650 0.03270
H24 H 0.39400 -0.27130 -0.04340
C36 C 0.527(3) -0.182(3) 0.0542(15)
H25 H 0.58540 -0.21630 0.02920
H26 H 0.54630 -0.16040 0.11800
H27 H 0.53230 -0.11820 0.03960
C37 C 0.2391(12) -0.1638(11) 0.2800(9)
H28 H 0.32640 -0.12660 0.31100
H29 H 0.22170 -0.24030 0.27140
C38 C 0.1572(13) -0.1168(11) 0.3399(9)
H30 H 0.17380 -0.04000 0.34960
H31 H 0.06930 -0.15450 0.31050
C39 C 0.1823(14) -0.1286(12) 0.4269(9)
H32 H 0.16040 -0.20590 0.41670
H33 H 0.27160 -0.09610 0.45330
C40 C 0.1140(16) -0.0786(13) 0.4907(11)
H34 H 0.13530 -0.08960 0.54540
H35 H 0.02530 -0.11160 0.46610
H36 H 0.13660 -0.00160 0.50270
Au1A Au -0.17211(4) 0.80027(4) 0.60370(3)
Tl1A Tl -0.22193(4) 0.56714(4) 0.53881(3)
Tl1A* Tl 0.77807(4) 0.56714(4) 0.53881(3)
Au3* Au -0.50000 0.50000 0.50000
C1A C -0.2621(10) 0.7877(8) 0.4828(8)
C2A C -0.2337(9) 0.7468(8) 0.4025(7)
C3A C -0.2839(12) 0.7628(11) 0.3298(8)
C4A C -0.3637(14) 0.8219(13) 0.3355(10)
C5A C -0.3955(13) 0.8613(12) 0.4127(9)
C6A C -0.3459(12) 0.8449(11) 0.4845(9)
Br1A Br -0.12740(14) 0.66148(12) 0.3868(1)
F1A F -0.2539(10) 0.7210(8) 0.2520(5)
F2A F -0.4096(10) 0.8372(9) 0.2641(6)
F3A F -0.4765(8) 0.9177(8) 0.4181(7)
F4A F -0.3839(9) 0.8880(7) 0.5577(5)
C7A C -0.0858(10) 0.8284(8) 0.7306(8)
C8A C 0.0140(12) 0.9195(10) 0.7804(9)
C9A C 0.0601(15) 0.9432(13) 0.8705(10)
C10A C 0.0051(15) 0.8756(14) 0.9067(11)
C11A C -0.0902(19) 0.7882(17) 0.8628(11)
C12A C -0.1390(19) 0.7608(17) 0.7739(9)
Br2A Br 0.09205(16) 1.01154(14) 0.73114(12)
F5A F 0.1534(10) 1.0292(10) 0.9170(7)
F6A F 0.0511(14) 0.8981(12) 0.9936(6)
F7A F -0.1411(16) 0.7222(12) 0.9024(8)
F8A F -0.2309(5) 0.6716(4) 0.7449(4)
C13A C -0.0936(12) 0.3703(11) 0.3834(9)
C14A C -0.0782(12) 0.3778(12) 0.3022(9)
C15A C -0.1541(17) 0.2887(17) 0.2232(11)
C16A C -0.2363(17) 0.2026(16) 0.2284(13)
C17A C -0.2435(17) 0.2000(16) 0.3082(17)
C18A C -0.1758(14) 0.2824(11) 0.3927(16)
Br3A Br 0.0374(2) 0.48953(18) 0.29103(13)
F9A F -0.1403(15) 0.2968(14) 0.1453(7)
F10A F -0.2994(13) 0.1251(12) 0.1529(10)
F11A F -0.3242(11) 0.1114(10) 0.3129(12)
F12A F -0.1942(8) 0.2661(7) 0.4501(6)
C19A C 0.5009(9) 0.5115(8) 0.3789(9)
C20A C 0.4395(10) 0.5693(9) 0.3461(10)
C21A C 0.4416(14) 0.5692(12) 0.2628(11)
C22A C 0.5003(15) 0.5118(12) 0.2106(10)
C23A C 0.5636(15) 0.4569(13) 0.2415(10)
C24A C 0.5624(12) 0.4557(11) 0.3238(9)
Br4A Br 0.35783(15) 0.65401(13) 0.41535(14)
F13A F 0.3792(11) 0.623(1) 0.2297(8)
F14A F 0.4998(14) 0.5126(11) 0.1285(7)
F15A F 0.6304(11) 0.4025(9) 0.1916(6)
F16A F 0.6295(7) 0.3976(6) 0.3452(6)
#END
