
#######################################################################
#
#                 Cambridge Crystallographic Data Centre
#                                CCDC
#
#######################################################################
#
# If this CIF has been generated from an entry in the Cambridge
# Structural Database, then it will include bibliographic, chemical,
# crystal, experimental, refinement or atomic coordinate data resulting
# from the CCDC's data processing and validation procedures.
#
#######################################################################

data_CSD_CIF_VOFBIC
_audit_creation_date 2009-01-06
_audit_creation_method CSD-ConQuest-V1
_database_code_CSD VOFBIC
_database_code_depnum_ccdc_archive 'CCDC 700122'
_chemical_formula_sum 'C104 H72 Au6 F48 I12 N2 Tl4'
_chemical_formula_moiety
;
(C72 Au6 F48 I12 Tl4 2-)n,2n(C16 H36 N1 1+)
;
_journal_coden_Cambridge 579
_journal_volume 27
_journal_year 2008
_journal_page_first 2971
_journal_name_full 'Organometallics '
loop_
_publ_author_name
"E.J.Fernandez"
"A.Laguna"
"T.Lasanta"
"J.M.Lopez-de-Luzuriaga"
"M.Montiel"
"M.E.Olmos"
_chemical_name_systematic
;
catena-(bis(Tetra-n-butylammonium) 
tetrakis(\m~3~-thallium)-hexakis(bis(2-iodo-3,4,5,6-tetrafluorophenyl)-gold(i)
))
;
_cell_volume   3539.446
_exptl_crystal_colour 'green'
_exptl_crystal_density_diffrn 2.713
_exptl_crystal_description 'prism'
_exptl_crystal_preparation 'n-hexane/toluene/THF'
_diffrn_ambient_temperature 173
#These two values have been output from a single CSD field.
_refine_ls_R_factor_gt 0.0549
_refine_ls_wR_factor_gt 0.0549
_symmetry_cell_setting triclinic
_symmetry_space_group_name_H-M 'P -1'
_symmetry_Int_Tables_number 2
loop_
_symmetry_equiv_pos_site_id
_symmetry_equiv_pos_as_xyz
1 x,y,z
2 -x,-y,-z
_cell_length_a 13.7380(2)
_cell_length_b 15.2812(2)
_cell_length_c 18.1752(3)
_cell_angle_alpha 102.704(1)
_cell_angle_beta 104.618(1)
_cell_angle_gamma 96.847(1)
_cell_formula_units_Z 1
loop_
_atom_type_symbol
_atom_type_radius_bond
C 0.68
H 0.23
Au 1.52
F 0.64
I 1.40
N 0.68
Tl 1.55
loop_
_atom_site_label
_atom_site_type_symbol
_atom_site_fract_x
_atom_site_fract_y
_atom_site_fract_z
Au1 Au 0.00000 0.00000 0.00000
Tl1 Tl 0.05374(4) -0.00307(4) 0.19045(4)
Au2 Au 0.07893(3) 0.05327(3) 0.39062(3)
Tl2 Tl 0.28700(4) -0.01259(4) 0.39885(3)
Au3 Au 0.22059(3) -0.11773(3) 0.22372(3)
Au4 Au 0.50000 0.00000 0.50000
C1 C 0.1246(9) 0.1054(8) 0.0424(6)
C2 C 0.2065(8) 0.1071(8) 0.0125(6)
C3 C 0.2867(9) 0.1805(10) 0.0402(8)
C4 C 0.2857(12) 0.2546(10) 0.0982(9)
C5 C 0.2056(13) 0.2547(10) 0.1294(9)
C6 C 0.1266(10) 0.1796(8) 0.1004(8)
I1 I 0.21662(8) 0.00036(8) -0.07788(6)
F1 F 0.3665(7) 0.1853(8) 0.0101(7)
F2 F 0.3625(9) 0.3269(8) 0.1254(8)
F3 F 0.2057(10) 0.3247(6) 0.1910(6)
F4 F 0.0501(8) 0.1840(6) 0.1376(6)
C7 C 0.1117(7) 0.1813(8) 0.3775(6)
C8 C 0.1992(8) 0.2484(7) 0.4247(6)
C9 C 0.2154(10) 0.3349(8) 0.4157(7)
C10 C 0.1467(10) 0.3625(9) 0.3600(7)
C11 C 0.0613(11) 0.3003(8) 0.3130(7)
C12 C 0.0458(9) 0.2136(8) 0.3225(7)
I2 I 0.30783(7) 0.21655(6) 0.51432(5)
F5 F 0.2988(7) 0.3961(5) 0.4607(6)
F6 F 0.1631(9) 0.4456(6) 0.3498(6)
F7 F -0.0086(7) 0.3255(6) 0.2581(5)
F8 F -0.0415(6) 0.1553(5) 0.2728(5)
C13 C 0.0351(7) -0.0696(8) 0.4111(6)
C14 C -0.0532(8) -0.1317(7) 0.3642(6)
C15 C -0.0867(9) -0.2129(7) 0.3814(8)
C16 C -0.0309(9) -0.2334(9) 0.4467(8)
C17 C 0.0571(11) -0.1765(9) 0.4946(9)
C18 C 0.0866(9) -0.0962(9) 0.4757(7)
I3 I -0.14443(7) -0.10445(7) 0.26316(6)
F9 F -0.1698(7) -0.2715(6) 0.3352(6)
F10 F -0.0615(8) -0.3136(6) 0.4629(6)
F11 F 0.1099(8) -0.1956(7) 0.5590(6)
F12 F 0.1736(5) -0.0410(5) 0.5294(4)
C19 C 0.1250(9) -0.2176(8) 0.2438(6)
C20 C 0.0329(9) -0.2668(7) 0.1892(7)
C21 C -0.0256(9) -0.3379(8) 0.1984(8)
C22 C 0.0038(10) -0.3683(10) 0.2661(7)
C23 C 0.0950(11) -0.3241(9) 0.3214(8)
C24 C 0.1494(9) -0.2519(8) 0.3106(7)
I4 I -0.01862(9) -0.23013(7) 0.08252(6)
F13 F -0.1148(8) -0.3838(7) 0.1457(6)
F14 F -0.0535(9) -0.4387(7) 0.2769(7)
F15 F 0.1261(8) -0.3526(6) 0.3885(5)
F16 F 0.2371(6) -0.2117(6) 0.3685(5)
C25 C 0.3207(8) -0.0360(8) 0.1852(6)
C26 C 0.3579(8) 0.0548(10) 0.2070(7)
C27 C 0.4304(9) 0.0917(13) 0.1752(9)
C28 C 0.4671(14) 0.0429(12) 0.1230(11)
C29 C 0.4324(12) -0.0449(15) 0.1025(9)
C30 C 0.3599(11) -0.0856(7) 0.1310(8)
I5 I 0.30903(10) 0.14263(8) 0.28772(7)
F17 F 0.4682(9) 0.1815(9) 0.1990(7)
F18 F 0.5358(9) 0.0749(12) 0.0901(8)
F19 F 0.4692(11) -0.1078(12) 0.0435(8)
F20 F 0.3342(6) -0.1718(4) 0.0903(4)
C31 C 0.5539(9) 0.0209(9) 0.4077(7)
C32 C 0.5546(8) -0.0477(11) 0.3442(8)
C33 C 0.5998(10) -0.0282(14) 0.2870(8)
C34 C 0.6451(13) 0.0593(11) 0.2955(11)
C35 C 0.6424(13) 0.1285(13) 0.3567(13)
C36 C 0.5969(13) 0.1085(8) 0.4115(8)
I6 I 0.48259(10) -0.17698(8) 0.32839(8)
F21 F 0.5978(8) -0.0950(9) 0.2255(7)
F22 F 0.6882(11) 0.0757(12) 0.2381(9)
F23 F 0.6872(11) 0.2078(11) 0.3539(11)
F24 F 0.6022(6) 0.1886(5) 0.4593(5)
N1 N 0.6334(9) 0.4797(8) 0.2612(7)
C37 C 0.7223(11) 0.4964(10) 0.3346(9)
H1 H 0.72470 0.55690 0.36930
H2 H 0.78640 0.49920 0.31900
C38 C 0.7198(13) 0.4256(15) 0.3819(12)
H3 H 0.66400 0.43110 0.40710
H4 H 0.70470 0.36380 0.34580
C39 C 0.8194(15) 0.4368(17) 0.4446(12)
H5 H 0.83820 0.50060 0.47760
H6 H 0.81020 0.39640 0.47900
C40 C 0.9027(18) 0.4151(17) 0.4114(15)
H7 H 0.96610 0.42510 0.45410
H8 H 0.91160 0.45450 0.37680
H9 H 0.88610 0.35100 0.38100
C41 C 0.5320(11) 0.4682(9) 0.2779(9)
H10 H 0.52320 0.41160 0.29550
H11 H 0.47760 0.45920 0.22790
C42 C 0.5147(13) 0.5475(10) 0.3402(11)
H12 H 0.57290 0.56220 0.38870
H13 H 0.51290 0.60240 0.31990
C43 C 0.4176(17) 0.5237(13) 0.3597(17)
H14 H 0.41870 0.46770 0.37850
H15 H 0.35940 0.51070 0.31140
C44 C 0.4020(19) 0.5997(14) 0.4220(17)
H16 H 0.33740 0.58160 0.43300
H17 H 0.39990 0.65500 0.40320
H18 H 0.45870 0.61170 0.47030
C45 C 0.6342(13) 0.393(1) 0.2007(9)
H19 H 0.62150 0.34060 0.22300
H20 H 0.57560 0.38540 0.15360
C46 C 0.7281(17) 0.3867(14) 0.1740(12)
H21 H 0.78740 0.39220 0.22010
H22 H 0.74180 0.43820 0.15100
C47 C 0.718(2) 0.2966(19) 0.1127(15)
H23 H 0.65920 0.29260 0.06650
H24 H 0.70070 0.24560 0.13550
C48 C 0.813(3) 0.282(3) 0.083(2)
H25 H 0.79950 0.22210 0.04610
H26 H 0.87230 0.28620 0.12840
H27 H 0.82850 0.32970 0.05710
C49 C 0.6487(13) 0.5634(10) 0.229(1)
H28 H 0.64920 0.61810 0.27010
H29 H 0.71720 0.56960 0.22030
C50 C 0.5716(16) 0.5641(14) 0.1540(12)
H30 H 0.50250 0.55910 0.16160
H31 H 0.57110 0.51070 0.11150
C51 C 0.5969(19) 0.651(2) 0.1302(16)
H32 H 0.59840 0.70360 0.17370
H33 H 0.66660 0.65530 0.12370
C52 C 0.528(4) 0.660(4) 0.059(3)
H34 H 0.55160 0.71690 0.04750
H35 H 0.45890 0.65940 0.06520
H36 H 0.52530 0.60810 0.01470
Tl1A Tl -0.05374(4) 0.00307(4) -0.19045(4)
Au2A Au -0.07893(3) -0.05327(3) -0.39062(3)
Tl2A Tl -0.28700(4) 0.01259(4) -0.39885(3)
Tl2A* Tl 0.71300(4) 0.01259(4) 0.60115(3)
Au3A Au -0.22059(3) 0.11773(3) -0.22372(3)
Au4* Au -0.50000 0.00000 -0.50000
C1A C -0.1246(9) -0.1054(8) -0.0424(6)
C2A C -0.2065(8) -0.1071(8) -0.0125(6)
C3A C -0.2867(9) -0.1805(10) -0.0402(8)
C4A C -0.2857(12) -0.2546(10) -0.0982(9)
C5A C -0.2056(13) -0.2547(10) -0.1294(9)
C6A C -0.1266(10) -0.1796(8) -0.1004(8)
I1A I -0.21662(8) -0.00036(8) 0.07788(6)
F1A F -0.3665(7) -0.1853(8) -0.0101(7)
F2A F -0.3625(9) -0.3269(8) -0.1254(8)
F3A F -0.2057(10) -0.3247(6) -0.1910(6)
F4A F -0.0501(8) -0.1840(6) -0.1376(6)
C7A C -0.1117(7) -0.1813(8) -0.3775(6)
C8A C -0.1992(8) -0.2484(7) -0.4247(6)
C9A C -0.2154(10) -0.3349(8) -0.4157(7)
C10A C -0.1467(10) -0.3625(9) -0.3600(7)
C11A C -0.0613(11) -0.3003(8) -0.3130(7)
C12A C -0.0458(9) -0.2136(8) -0.3225(7)
I2A I -0.30783(7) -0.21655(6) -0.51432(5)
F5A F -0.2988(7) -0.3961(5) -0.4607(6)
F6A F -0.1631(9) -0.4456(6) -0.3498(6)
F7A F 0.0086(7) -0.3255(6) -0.2581(5)
F8A F 0.0415(6) -0.1553(5) -0.2728(5)
C13A C -0.0351(7) 0.0696(8) -0.4111(6)
C14A C 0.0532(8) 0.1317(7) -0.3642(6)
C15A C 0.0867(9) 0.2129(7) -0.3814(8)
C16A C 0.0309(9) 0.2334(9) -0.4467(8)
C17A C -0.0571(11) 0.1765(9) -0.4946(9)
C18A C -0.0866(9) 0.0962(9) -0.4757(7)
I3A I 0.14443(7) 0.10445(7) -0.26316(6)
F9A F 0.1698(7) 0.2715(6) -0.3352(6)
F10A F 0.0615(8) 0.3136(6) -0.4629(6)
F11A F -0.1099(8) 0.1956(7) -0.5590(6)
F12A F -0.1736(5) 0.0410(5) -0.5294(4)
C19A C -0.1250(9) 0.2176(8) -0.2438(6)
C20A C -0.0329(9) 0.2668(7) -0.1892(7)
C21A C 0.0256(9) 0.3379(8) -0.1984(8)
C22A C -0.0038(10) 0.3683(10) -0.2661(7)
C23A C -0.0950(11) 0.3241(9) -0.3214(8)
C24A C -0.1494(9) 0.2519(8) -0.3106(7)
I4A I 0.01862(9) 0.23013(7) -0.08252(6)
F13A F 0.1148(8) 0.3838(7) -0.1457(6)
F14A F 0.0535(9) 0.4387(7) -0.2769(7)
F15A F -0.1261(8) 0.3526(6) -0.3885(5)
F16A F -0.2371(6) 0.2117(6) -0.3685(5)
C25A C -0.3207(8) 0.0360(8) -0.1852(6)
C26A C -0.3579(8) -0.0548(10) -0.2070(7)
C27A C -0.4304(9) -0.0917(13) -0.1752(9)
C28A C -0.4671(14) -0.0429(12) -0.1230(11)
C29A C -0.4324(12) 0.0449(15) -0.1025(9)
C30A C -0.3599(11) 0.0856(7) -0.1310(8)
I5A I -0.30903(10) -0.14263(8) -0.28772(7)
F17A F -0.4682(9) -0.1815(9) -0.1990(7)
F18A F -0.5358(9) -0.0749(12) -0.0901(8)
F19A F -0.4692(11) 0.1078(12) -0.0435(8)
F20A F -0.3342(6) 0.1718(4) -0.0903(4)
C31A C 0.4461(9) -0.0209(9) 0.5923(7)
C32A C 0.4454(8) 0.0477(11) 0.6558(8)
C33A C 0.4002(10) 0.0282(14) 0.7130(8)
C34A C 0.3549(13) -0.0593(11) 0.7045(11)
C35A C 0.3576(13) -0.1285(13) 0.6433(13)
C36A C 0.4031(13) -0.1085(8) 0.5885(8)
I6A I 0.51741(10) 0.17698(8) 0.67161(8)
F21A F 0.4022(8) 0.0950(9) 0.7745(7)
F22A F 0.3118(11) -0.0757(12) 0.7619(9)
F23A F 0.3128(11) -0.2078(11) 0.6461(11)
F24A F 0.3978(6) -0.1886(5) 0.5407(5)
#END
