
#######################################################################
#
#                 Cambridge Crystallographic Data Centre
#                                CCDC
#
#######################################################################
#
# If this CIF has been generated from an entry in the Cambridge
# Structural Database, then it will include bibliographic, chemical,
# crystal, experimental, refinement or atomic coordinate data resulting
# from the CCDC's data processing and validation procedures.
#
#######################################################################

data_CSD_CIF_VOHMOX
_audit_creation_date 2019-07-26
_audit_creation_method CSD-ConQuest-V1
_database_code_CSD VOHMOX
_database_code_depnum_ccdc_archive 'CCDC 1912643'
_chemical_formula_sum 'C44 H40 Ag4 N24 O52 V1 W12'
_chemical_formula_moiety
;
(C22 H16 Ag2 N12 O44 V1 W12 2-)n,n(C22 H16 Ag2 N12 O4 2+),4(H2 O1)
;
_journal_coden_Cambridge 208
_journal_volume 277
_journal_year 2019
_journal_page_first 779
_journal_name_full 'J.Solid State Chem. '
loop_
_publ_author_name
"Lei Liu"
"Hai-Yan Zhang"
"Yong-Mei Wang"
"Hai-Jun Wang"
"Song Chen"
"Jing-Wen Sun"
_chemical_name_systematic
;
catena-[triacontakis(\m-oxo)-bis(\m-3,5-di(1H-1,2,4-triazol-1-yl)benzoic 
acid)-decaoxo-di-silver-dodeca-tungsten-vanadium 
bis(\m-3,5-di(1H-1,2,4-triazol-1-yl)benzoic acid)-di-silver tetrahydrate]
;
_cell_volume   2155.206
_exptl_crystal_colour 'yellow'
_exptl_crystal_description 'block'
_diffrn_ambient_temperature 293
_refine_special_details
;
The structure is disordered. Disordered water solvent molecules were not 
modelled and the disordered density was taken into account using the 
SQUEEZE/PLATON procedure.
;
#These two values have been output from a single CSD field.
_refine_ls_R_factor_gt 0.0717
_refine_ls_wR_factor_gt 0.0717
_symmetry_cell_setting triclinic
_symmetry_space_group_name_H-M 'P -1'
_symmetry_Int_Tables_number 2
loop_
_symmetry_equiv_pos_site_id
_symmetry_equiv_pos_as_xyz
1 x,y,z
2 -x,-y,-z
_cell_length_a 13.222(5)
_cell_length_b 13.363(5)
_cell_length_c 13.882(5)
_cell_angle_alpha 117.761(5)
_cell_angle_beta 92.655(5)
_cell_angle_gamma 94.284(5)
_cell_formula_units_Z 1
loop_
_atom_type_symbol
_atom_type_radius_bond
C 0.68
H 0.23
Ag 1.45
N 0.68
O 0.68
V 1.53
W 1.62
loop_
_atom_site_label
_atom_site_type_symbol
_atom_site_fract_x
_atom_site_fract_y
_atom_site_fract_z
C1 C 0.6925(18) 0.140(3) -0.057(2)
H1 H 0.66530 0.12871 -0.12455
N1 N 0.7904(14) 0.143(2) -0.0335(15)
N2 N 0.7927(13) 0.1666(18) 0.0756(15)
C2 C 0.8904(16) 0.1809(19) 0.1324(18)
C3 C 0.6997(17) 0.173(2) 0.106(2)
H2 H 0.68350 0.18843 0.17616
C4 C 0.8968(17) 0.236(3) 0.247(2)
H3 H 0.83972 0.26215 0.28443
N3 N 1.1521(14) 0.1382(18) 0.0733(18)
C5 C 0.988(2) 0.249(3) 0.302(2)
C6 C 1.000(3) 0.311(4) 0.425(3)
C7 C 1.0679(15) 0.1683(19) 0.1354(19)
C8 C 1.0755(18) 0.217(2) 0.247(2)
H4 H 1.13836 0.22952 0.28565
C9 C 0.9697(17) 0.148(2) 0.0751(19)
H5 H 0.96271 0.11415 -0.00084
C10 C 1.2363(19) 0.095(2) -0.060(3)
H6 H 1.25329 0.07192 -0.13071
C11 C 1.2547(19) 0.147(3) 0.109(2)
H7 H 1.28054 0.16839 0.18032
N4 N 1.1446(15) 0.106(2) -0.0351(18)
N5 N 0.6335(15) 0.156(2) 0.0266(16)
O1 O 0.2637(17) -0.1878(17) 0.4540(15)
O2 O 0.2699(16) -0.1129(17) 0.3087(15)
O3 O 0.2251(17) 0.0195(16) 0.5079(15)
O4 O 0.1632(17) 0.062(2) 0.3415(17)
O5 O 0.363(2) 0.063(2) 0.302(2)
O6 O 0.437(2) 0.076(3) 0.454(2)
O7 O 0.4808(19) -0.129(2) 0.403(2)
O8 O 0.498(2) 0.236(2) 0.433(2)
O9 O 0.352(2) -0.115(2) 0.652(2)
O10 O 0.407(2) 0.270(3) 0.697(2)
O11 O 0.517(2) -0.057(2) 0.219(2)
O12 O 0.5874(14) -0.2627(16) 0.1065(13)
O13 O 0.4225(17) 0.4122(17) 0.6055(19)
O14 O 0.5073(15) 0.1430(17) 0.2127(15)
O15 O 0.1583(16) -0.0754(18) 0.6342(17)
O16 O 0.319(2) 0.090(2) 0.702(2)
O17 O 0.4159(18) -0.307(3) 0.368(2)
O18 O 0.320(2) 0.196(2) 0.501(2)
O19 O 0.3854(17) -0.0436(19) 0.4664(18)
O20 O 0.422(2) -0.233(2) 0.225(2)
O21 O 0.911(2) 0.344(3) 0.467(2)
O22 O 1.077(2) 0.330(4) 0.482(3)
O23 O 0.2412(18) -0.3426(18) 0.2341(16)
O24 O 0.436(2) 0.006(3) 0.601(2)
V1 V 0.50000 0.00000 0.50000
Ag1 Ag 0.46999(14) 0.1391(3) 0.02545(18)
W1 W 0.27089(7) 0.04591(9) 0.39326(8)
W2 W 0.32563(7) -0.23394(8) 0.32115(7)
W3 W 0.26449(7) -0.05537(9) 0.58757(8)
W4 W 0.50561(10) 0.09805(10) 0.30536(8)
W5 W 0.44526(10) 0.27941(9) 0.57163(10)
W6 W 0.56122(9) -0.18176(10) 0.23333(7)
N6 N 1.3082(16) 0.119(2) 0.024(2)
C12 C 0.079(2) 0.645(2) 1.043(2)
H8 H 0.12962 0.66568 1.09961
C13 C -0.0223(18) 0.6700(19) 1.063(2)
C14 C -0.095(2) 0.635(2) 0.975(2)
H9 H -0.16219 0.64927 0.98634
C15 C -0.065(2) 0.578(2) 0.869(2)
C16 C 0.029(2) 0.550(2) 0.845(2)
H10 H 0.04635 0.50877 0.77394
C17 C 0.0983(18) 0.588(2) 0.935(2)
N7 N 0.2076(18) 0.566(2) 0.9206(19)
N8 N 0.249(3) 0.556(3) 0.828(2)
C18 C 0.343(3) 0.537(3) 0.844(4)
H11 H 0.39189 0.52682 0.79517
C19 C 0.277(3) 0.553(3) 0.986(3)
H12 H 0.26659 0.55765 1.05408
C20 C -0.145(3) 0.548(3) 0.773(3)
N9 N -0.0469(15) 0.7301(19) 1.1697(18)
C21 C 0.011(2) 0.825(3) 1.256(3)
H13 H 0.07145 0.86255 1.25211
N10 N -0.1330(19) 0.698(2) 1.206(2)
C22 C -0.125(2) 0.777(2) 1.312(2)
H14 H -0.17341 0.78000 1.35905
N11 N -0.0412(16) 0.851(2) 1.3440(19)
N12 N 0.363(2) 0.533(2) 0.938(3)
O25 O -0.231(2) 0.588(2) 0.797(2)
O26 O -0.122(2) 0.491(2) 0.678(2)
Ag2 Ag 0.00000 1.00000 1.50000
Ag3 Ag 0.50000 0.50000 1.00000
C1A C 0.3075(18) -0.140(3) 1.057(2)
H1A H 0.33470 -0.12871 1.12455
N1A N 0.2096(14) -0.143(2) 1.0335(15)
N2A N 0.2073(13) -0.1666(18) 0.9244(15)
C2A C 0.1096(16) -0.1809(19) 0.8676(18)
C3A C 0.3003(17) -0.173(2) 0.894(2)
H2A H 0.31650 -0.18843 0.82384
C4A C 0.1032(17) -0.236(3) 0.753(2)
H3A H 0.16028 -0.26215 0.71557
N3A N -0.1521(14) -0.1382(18) 0.9267(18)
C5A C 0.012(2) -0.249(3) 0.698(2)
C6A C 0.000(3) -0.311(4) 0.575(3)
C7A C -0.0679(15) -0.1683(19) 0.8646(19)
C8A C -0.0755(18) -0.217(2) 0.753(2)
H4A H -0.13836 -0.22952 0.71435
C9A C 0.0303(17) -0.148(2) 0.9249(19)
H5A H 0.03729 -0.11415 1.00084
C10A C -0.2363(19) -0.095(2) 1.060(3)
H6A H -0.25329 -0.07192 1.13071
C11A C -0.2547(19) -0.147(3) 0.891(2)
H7A H -0.28054 -0.16839 0.81968
N4A N -0.1446(15) -0.106(2) 1.0351(18)
N5A N 0.3665(15) -0.156(2) 0.9734(16)
O1A O 0.7363(17) 0.1878(17) 0.5460(15)
O2A O 0.7301(16) 0.1129(17) 0.6913(15)
O3A O 0.7749(17) -0.0195(16) 0.4921(15)
O4A O 0.8368(17) -0.062(2) 0.6585(17)
O5A O 0.637(2) -0.063(2) 0.698(2)
O6A O 0.563(2) -0.076(3) 0.546(2)
O7A O 0.5192(19) 0.129(2) 0.597(2)
O8A O 0.502(2) -0.236(2) 0.567(2)
O9A O 0.648(2) 0.115(2) 0.348(2)
O10A O 0.593(2) -0.270(3) 0.303(2)
O11A O 0.483(2) 0.057(2) 0.781(2)
O12A O 0.4126(14) 0.2627(16) 0.8935(13)
O13A O 0.5775(17) -0.4122(17) 0.3945(19)
O14A O 0.4927(15) -0.1430(17) 0.7873(15)
O15A O 0.8417(16) 0.0754(18) 0.3658(17)
O16A O 0.681(2) -0.090(2) 0.298(2)
O17A O 0.5841(18) 0.307(3) 0.632(2)
O18A O 0.680(2) -0.196(2) 0.499(2)
O19A O 0.6146(17) 0.0436(19) 0.5336(18)
O20A O 0.578(2) 0.233(2) 0.775(2)
O21A O 0.089(2) -0.344(3) 0.533(2)
O22A O -0.077(2) -0.330(4) 0.518(3)
O23A O 0.7588(18) 0.3426(18) 0.7659(16)
O24A O 0.564(2) -0.006(3) 0.399(2)
Ag1A Ag 0.53001(14) -0.1391(3) 0.97455(18)
W1A W 0.72911(7) -0.04591(9) 0.60674(8)
W2A W 0.67437(7) 0.23394(8) 0.67885(7)
W3A W 0.73551(7) 0.05537(9) 0.41243(8)
W4A W 0.49439(10) -0.09805(10) 0.69464(8)
W5A W 0.55474(10) -0.27941(9) 0.42837(10)
W6A W 0.43878(9) 0.18176(10) 0.76667(7)
N6A N -0.3082(16) -0.119(2) 0.976(2)
Ag1* Ag 1.46999(14) 0.1391(3) 0.02545(18)
Ag1A* Ag -0.46999(14) -0.1391(3) 0.97455(18)
N6* N 0.3082(16) 0.119(2) 0.024(2)
N6A* N 0.6918(16) -0.119(2) 0.976(2)
C12A C -0.079(2) 1.355(2) 1.957(2)
H8A H -0.12962 1.33432 1.90039
C13A C 0.0223(18) 1.3300(19) 1.937(2)
C14A C 0.095(2) 1.365(2) 2.025(2)
H9A H 0.16219 1.35073 2.01366
C15A C 0.065(2) 1.422(2) 2.131(2)
C16A C -0.029(2) 1.450(2) 2.155(2)
H10A H -0.04635 1.49123 2.22606
C17A C -0.0983(18) 1.412(2) 2.065(2)
N7A N -0.2076(18) 1.434(2) 2.0794(19)
N8A N -0.249(3) 1.444(3) 2.172(2)
C18A C -0.343(3) 1.463(3) 2.156(4)
H11A H -0.39189 1.47318 2.20483
C19A C -0.277(3) 1.447(3) 2.014(3)
H12A H -0.26659 1.44235 1.94592
C20A C 0.145(3) 1.452(3) 2.227(3)
N9A N 0.0469(15) 1.2699(19) 1.8303(18)
C21A C -0.011(2) 1.175(3) 1.744(3)
H13A H -0.07145 1.13745 1.74789
N10A N 0.1330(19) 1.302(2) 1.794(2)
C22A C 0.125(2) 1.223(2) 1.688(2)
H14A H 0.17341 1.22000 1.64095
N11A N 0.0412(16) 1.149(2) 1.6560(19)
N12A N -0.363(2) 1.467(2) 2.062(3)
O25A O 0.231(2) 1.412(2) 2.203(2)
O26A O 0.122(2) 1.509(2) 2.322(2)
N12A* N 0.637(2) 0.467(2) 1.062(3)
Ag3* Ag -0.50000 1.50000 2.00000
#END
