
#######################################################################
#
#                 Cambridge Crystallographic Data Centre
#                                CCDC
#
#######################################################################
#
# If this CIF has been generated from an entry in the Cambridge
# Structural Database, then it will include bibliographic, chemical,
# crystal, experimental, refinement or atomic coordinate data resulting
# from the CCDC's data processing and validation procedures.
#
#######################################################################

data_CSD_CIF_VOHTOE
_audit_creation_date 2019-07-27
_audit_creation_method CSD-ConQuest-V1
_database_code_CSD VOHTOE
_database_code_depnum_ccdc_archive 'CCDC 1872355'
_chemical_formula_sum 'C30 H24 La1 N1 O8'
_chemical_formula_moiety
;
(C28 H16 La1 O8 1-)n,C2 H8 N1 1+
;
_journal_coden_Cambridge 1147
_journal_volume 19
_journal_year 2019
_journal_page_first 4854
_journal_name_full 'Cryst.Growth Des. '
loop_
_publ_author_name
"A.R.K.Chatenever"
"L.R.Warne"
"J.E.Matsuoka"
"S.J.Wang"
"E.W.Reinheimer"
"P.LeMagueres"
"Honghan Fei"
"Xueling Song"
"S.R.J.Oliver"
_chemical_name_systematic
;
catena-[dimethylammonium 
bis(\m-[1,1'-biphenyl]-4,4'-dicarboxylato)-lanthanum(iii)]
;
_cell_volume   2584.514
_exptl_crystal_colour 'colorless'
_exptl_crystal_density_diffrn 1.71
_exptl_crystal_description 'plate'
_diffrn_ambient_temperature 100
#These two values have been output from a single CSD field.
_refine_ls_R_factor_gt 0.0489
_refine_ls_wR_factor_gt 0.0489
_symmetry_cell_setting orthorhombic
_symmetry_space_group_name_H-M 'P b c n'
_symmetry_Int_Tables_number 60
loop_
_symmetry_equiv_pos_site_id
_symmetry_equiv_pos_as_xyz
1 x,y,z
2 1/2-x,1/2-y,1/2+z
3 -x,y,1/2-z
4 1/2+x,1/2-y,-z
5 -x,-y,-z
6 -1/2+x,-1/2+y,-1/2-z
7 x,-y,-1/2+z
8 -1/2-x,-1/2+y,z
_cell_length_a 28.1888(18)
_cell_length_b 11.7883(12)
_cell_length_c 7.7777(8)
_cell_angle_alpha 90
_cell_angle_beta 90
_cell_angle_gamma 90
_cell_formula_units_Z 4
loop_
_atom_type_symbol
_atom_type_radius_bond
C 0.68
H 0.23
La 2.07
N 0.68
O 0.68
loop_
_atom_site_label
_atom_site_type_symbol
_atom_site_fract_x
_atom_site_fract_y
_atom_site_fract_z
La1 La 0.00000 0.33203(4) 0.25000
O1 O 0.44369(15) 0.7442(4) 0.4754(7)
O2 O 0.44125(17) 0.6626(4) 0.2225(7)
O3 O 0.04213(15) 0.6398(4) 0.4815(7)
O4 O 0.05286(16) 0.4823(4) 0.3285(7)
C1 C 0.0678(2) 0.5666(6) 0.4087(10)
C2 C 0.1507(2) 0.4938(6) 0.3598(8)
H1 H 0.13760 0.42680 0.31830
C3 C 0.4218(3) 0.6885(6) 0.3623(10)
C4 C 0.1994(2) 0.5064(6) 0.3655(9)
H2 H 0.21860 0.44640 0.33110
C5 C 0.1213(2) 0.5806(6) 0.4158(9)
C6 C 0.2202(2) 0.6065(6) 0.4213(9)
C7 C 0.1909(2) 0.6936(6) 0.4770(9)
H3 H 0.20410 0.76170 0.51390
C8 C 0.3478(2) 0.5859(6) 0.2751(10)
H4 H 0.36490 0.55010 0.18850
C9 C 0.3711(2) 0.6580(5) 0.3904(9)
C10 C 0.1416(2) 0.6800(6) 0.4780(9)
H5 H 0.12240 0.73760 0.52050
C11 C 0.3448(2) 0.7106(6) 0.5168(10)
H6 H 0.35970 0.75840 0.59490
C12 C 0.2726(2) 0.6221(6) 0.4155(9)
C13 C 0.2994(2) 0.5671(6) 0.2887(9)
H7 H 0.28450 0.51750 0.21280
C14 C 0.2964(2) 0.6928(6) 0.5284(10)
H8 H 0.27940 0.72940 0.61440
N1 N 0.50000 0.6779(7) 0.75000
C15 C 0.4600(3) 0.6088(8) 0.8179(12)
H9 H 0.45040 0.55460 0.73270
H10 H 0.43380 0.65760 0.84510
H11 H 0.47010 0.56960 0.91980
H12 H 0.515(3) 0.724(8) 0.817(11)
O1B O -0.44369(15) 0.7442(4) 0.0246(7)
O2B O -0.44125(17) 0.6626(4) 0.2775(7)
O3B O -0.04213(15) 0.6398(4) 0.0185(7)
O4B O -0.05286(16) 0.4823(4) 0.1715(7)
C1B C -0.0678(2) 0.5666(6) 0.0913(10)
C2B C -0.1507(2) 0.4938(6) 0.1402(8)
H1B H -0.13760 0.42680 0.18170
C3B C -0.4218(3) 0.6885(6) 0.1377(10)
C4B C -0.1994(2) 0.5064(6) 0.1345(9)
H2B H -0.21860 0.44640 0.16890
C5B C -0.1213(2) 0.5806(6) 0.0842(9)
C6B C -0.2202(2) 0.6065(6) 0.0787(9)
C7B C -0.1909(2) 0.6936(6) 0.0230(9)
H3B H -0.20410 0.76170 -0.01390
C8B C -0.3478(2) 0.5859(6) 0.2249(10)
H4B H -0.36490 0.55010 0.31150
C9B C -0.3711(2) 0.6580(5) 0.1096(9)
C10B C -0.1416(2) 0.6800(6) 0.0220(9)
H5B H -0.12240 0.73760 -0.02050
C11B C -0.3448(2) 0.7106(6) -0.0168(10)
H6B H -0.35970 0.75840 -0.09490
C12B C -0.2726(2) 0.6221(6) 0.0845(9)
C13B C -0.2994(2) 0.5671(6) 0.2113(9)
H7B H -0.28450 0.51750 0.28720
C14B C -0.2964(2) 0.6928(6) -0.0284(10)
H8B H -0.27940 0.72940 -0.11440
La1D La 0.00000 0.66797(4) -0.25000
La1D* La 0.00000 0.66797(4) 0.75000
La1E La -0.50000 0.83203(4) 0.25000
La1E* La 0.50000 0.83203(4) 0.25000
O1E O -0.05631(15) 0.2442(4) 0.0246(7)
O1G O 0.05631(15) 0.2442(4) 0.4754(7)
O2E O -0.05875(17) 0.1626(4) 0.2775(7)
O2G O 0.05875(17) 0.1626(4) 0.2225(7)
O3D O -0.04213(15) 0.3602(4) 0.5185(7)
O3F O 0.04213(15) 0.3602(4) -0.0185(7)
C15B C 0.5400(3) 0.6088(8) 0.6821(12)
H9B H 0.54960 0.55460 0.76730
H10B H 0.56620 0.65760 0.65490
H11B H 0.52990 0.56960 0.58020
H12B H 0.485(3) 0.724(8) 0.683(11)
#END
