
#######################################################################
#
#                 Cambridge Crystallographic Data Centre
#                                CCDC
#
#######################################################################
#
# If this CIF has been generated from an entry in the Cambridge
# Structural Database, then it will include bibliographic, chemical,
# crystal, experimental, refinement or atomic coordinate data resulting
# from the CCDC's data processing and validation procedures.
#
#######################################################################

data_CSD_CIF_VOHVEU
_audit_creation_date 2009-01-06
_audit_creation_method CSD-ConQuest-V1
_database_code_CSD VOHVEU
_database_code_depnum_ccdc_archive 'CCDC 633767'
_chemical_formula_sum 'C42 H31 N3 O18 Zn3'
_chemical_formula_moiety
;
(C10 H11 N3 2+)n,n(C32 H16 O16 Zn3 2-),2n(H2 O1)
;
_journal_coeditor_code "IUCr TK2328"
_journal_coden_Cambridge 1370
_journal_volume 64
_journal_year 2008
_journal_page_first m1601
_journal_name_full 'Acta Crystallogr.,Sect.E:Struct.Rep.Online '
loop_
_publ_author_name
"M.A.Braverman"
"R.L.LaDuca"
_chemical_name_systematic
;
catena-((4,4'-iminodipyridinium) 
bis(\m~4~-isophthalato-O,O',O'',O'')-(\m~3~-isophthalato-O,O',O'')-(\m~3~-isop
hthalato-O,O',O'',O''')-tri-zinc(ii) dihydrate)
;
_cell_volume   2035.199
_exptl_crystal_colour 'colorless'
_exptl_crystal_density_diffrn 1.729
_exptl_crystal_description 'block'
_diffrn_ambient_temperature 173
_refine_special_details
;
One water molecule is disordered equally over two sites.

;
#These two values have been output from a single CSD field.
_refine_ls_R_factor_gt 0.034
_refine_ls_wR_factor_gt 0.034
_symmetry_cell_setting triclinic
_symmetry_space_group_name_H-M 'P -1'
_symmetry_Int_Tables_number 2
loop_
_symmetry_equiv_pos_site_id
_symmetry_equiv_pos_as_xyz
1 x,y,z
2 -x,-y,-z
_cell_length_a 9.5780(13)
_cell_length_b 10.2149(14)
_cell_length_c 21.246(3)
_cell_angle_alpha 78.801(2)
_cell_angle_beta 86.868(2)
_cell_angle_gamma 87.773(2)
_cell_formula_units_Z 2
loop_
_atom_type_symbol
_atom_type_radius_bond
C 0.68
H 0.23
N 0.68
O 0.68
Zn 1.43
loop_
_atom_site_label
_atom_site_type_symbol
_atom_site_fract_x
_atom_site_fract_y
_atom_site_fract_z
Zn1 Zn 0.19902(3) 0.26767(3) 0.246490(13)
Zn2 Zn 0.26205(3) 0.12585(3) 0.120459(13)
Zn3 Zn 0.12868(3) 0.40139(3) 0.372471(12)
O1 O 0.25397(19) 0.31307(16) 0.07148(8)
O2 O 0.3318(2) 0.7891(3) 0.26301(11)
H1 H 0.263(3) 0.747(4) 0.2846(15)
H2 H 0.304(4) 0.816(4) 0.2245(10)
O3 O 0.24293(18) 0.39914(16) 0.16108(8)
O4 O 0.0297(4) 1.2705(5) -0.01008(17)
O5 O 0.3008(2) 1.01970(17) 0.04816(8)
O6? O 0.0059(6) 0.9448(6) 0.0086(2)
O7 O 0.2498(2) 0.89274(18) 0.14176(8)
O8 O 0.16648(18) 0.22390(16) 0.42778(8)
O9 O 0.15301(18) 0.14730(16) 0.33667(8)
O10 O 0.12225(19) -0.47631(16) 0.43426(8)
O11 O 0.1139(2) -0.33392(17) 0.34139(8)
O12 O 0.01511(17) 0.36945(17) 0.24508(8)
O13 O -0.06132(17) 0.39961(17) 0.34319(8)
O14 O -0.71777(16) 0.41254(16) 0.30577(8)
O15 O -0.58193(19) 0.4146(2) 0.38758(8)
O16 O 0.45204(17) 0.12092(17) 0.15619(8)
O17 O 0.38613(17) 0.17370(17) 0.25117(8)
O18 O 0.9879(2) 0.1151(2) 0.11281(9)
O19 O 1.11797(17) 0.12825(16) 0.19406(8)
N1 N -0.1435(3) 0.8121(4) 0.11834(13)
H3 H -0.096(4) 0.819(4) 0.0802(13)
N2 N -0.3877(2) 0.7558(2) 0.28617(10)
H4 H -0.4749(19) 0.770(3) 0.2783(14)
N3 N -0.3498(2) 0.6593(2) 0.48259(11)
H5 H -0.346(3) 0.635(3) 0.5245(9)
C1 C 0.2898(3) 0.5447(2) 0.06242(11)
C2 C 0.2758(3) 0.6576(2) 0.09009(11)
H6 H 0.24430 0.64970 0.13280
C3 C 0.3089(3) 0.7831(2) 0.05381(11)
C4 C 0.3613(3) 0.7939(2) -0.00916(12)
H7 H 0.38630 0.87670 -0.03300
C5 C 0.3764(3) 0.6809(3) -0.03659(12)
H8 H 0.41200 0.68810 -0.07870
C6 C 0.3384(3) 0.5574(3) -0.00129(12)
H9 H 0.34550 0.48270 -0.02040
C7 C 0.2587(2) 0.4086(2) 0.10189(11)
C8 C 0.2853(3) 0.9050(2) 0.08303(12)
C9 C 0.1663(2) -0.0103(2) 0.43341(11)
C10 C 0.1514(2) -0.1155(2) 0.40159(11)
H10 H 0.14660 -0.09850 0.35710
C11 C 0.1436(2) -0.2461(2) 0.43602(11)
C12 C 0.1530(3) -0.2708(2) 0.50250(11)
H11 H 0.14700 -0.35770 0.52580
C13 C 0.1712(3) -0.1665(2) 0.53413(12)
H12 H 0.17960 -0.18370 0.57840
C14 C 0.1768(3) -0.0366(2) 0.49976(12)
H13 H 0.18770 0.03330 0.52120
C15 C 0.1636(2) 0.1306(2) 0.39605(11)
C16 C 0.1254(2) -0.3577(2) 0.40070(11)
C17 C -0.2241(2) 0.4197(2) 0.26180(11)
C18 C -0.3393(2) 0.4109(2) 0.30544(11)
H14 H -0.32640 0.38840 0.34930
C19 C -0.4731(2) 0.4356(2) 0.28326(11)
C20 C -0.4919(3) 0.4767(2) 0.21774(11)
H15 H -0.58120 0.49780 0.20300
C21 C -0.3769(3) 0.4861(2) 0.17443(11)
H16 H -0.38950 0.51370 0.13070
C22 C -0.2433(3) 0.4545(2) 0.19603(11)
H17 H -0.16710 0.45660 0.16680
C23 C -0.0791(2) 0.3933(2) 0.28499(11)
C24 C -0.5976(2) 0.4193(2) 0.32967(11)
C25 C -0.0791(3) 0.7817(4) 0.17389(15)
H18 H 0.01810 0.77410 0.17310
C26 C -0.1520(3) 0.7618(3) 0.23121(13)
H19 H -0.10540 0.74070 0.26930
C27 C -0.2983(3) 0.7733(2) 0.23259(12)
C28 C -0.3620(3) 0.8093(3) 0.17313(13)
H20 H -0.45880 0.82020 0.17230
C29 C -0.2832(4) 0.8282(4) 0.11717(14)
H21 H -0.32590 0.85220 0.07810
C30 C -0.2372(3) 0.6433(3) 0.44465(13)
H22 H -0.15370 0.61130 0.46320
C31 C -0.2419(3) 0.6728(3) 0.37923(13)
H23 H -0.16250 0.65960 0.35370
C32 C -0.3657(3) 0.7229(2) 0.35070(12)
C33 C -0.4817(3) 0.7387(3) 0.39210(13)
H24 H -0.56640 0.77170 0.37520
C34 C -0.4708(3) 0.7060(4) 0.45719(14)
H25 H -0.54860 0.71620 0.48420
C35 C 0.6209(2) 0.1089(2) 0.23487(11)
C36 C 0.7377(2) 0.1208(2) 0.19237(11)
H26 H 0.72640 0.14280 0.14830
C37 C 0.8713(2) 0.0996(2) 0.21573(11)
C38 C 0.8875(2) 0.0575(2) 0.28136(12)
H27 H 0.97660 0.04090 0.29700
C39 C 0.7707(3) 0.0402(2) 0.32346(11)
H28 H 0.78160 0.00850 0.36710
C40 C 0.6379(3) 0.0698(2) 0.30081(12)
H29 H 0.56040 0.06380 0.32940
C41 C 0.4750(2) 0.1373(2) 0.21204(11)
C42 C 0.9977(2) 0.1169(2) 0.17032(12)
Zn1* Zn -0.80098(3) 0.26767(3) 0.246490(13)
Zn1** Zn 1.19902(3) 0.26767(3) 0.246490(13)
Zn2* Zn 0.26205(3) 1.12585(3) 0.120459(13)
Zn2** Zn 1.26205(3) 0.12585(3) 0.120459(13)
Zn3* Zn 0.12868(3) -0.59861(3) 0.372471(12)
Zn3** Zn -0.87132(3) 0.40139(3) 0.372471(12)
O5* O 0.3008(2) 0.01970(17) 0.04816(8)
O7* O 0.2498(2) -0.10726(18) 0.14176(8)
O10* O 0.12225(19) 0.52369(16) 0.43426(8)
O14* O 0.28223(16) 0.41254(16) 0.30577(8)
O19* O 0.11797(17) 0.12825(16) 0.19406(8)
#END
