
#######################################################################
#
#                 Cambridge Crystallographic Data Centre
#                                CCDC
#
#######################################################################
#
# If this CIF has been generated from an entry in the Cambridge
# Structural Database, then it will include bibliographic, chemical,
# crystal, experimental, refinement or atomic coordinate data resulting
# from the CCDC's data processing and validation procedures.
#
#######################################################################

data_CSD_CIF_VOJCUV
_audit_creation_date 2019-07-29
_audit_creation_method CSD-ConQuest-V1
_database_code_CSD VOJCUV
_database_code_depnum_ccdc_archive 'CCDC 1943777'
_chemical_formula_sum 'C32 H60 O54 Si1 U6'
_chemical_formula_moiety
;
2(H3 O1 1+),n(C32 H18 O34 Si1 U6 2-),18(H2 O1)
;
_journal_coden_Cambridge 1078
_journal_year 2019
_journal_name_full 'CSD Communication(Private Communication) '
loop_
_publ_author_name
"Chao Liu"
"Shuai Niu"
"Xin-Xue Yang"
"Weidong Yu"
"Xiao-Yi Yi"
"Qing-Jiang Pan"
"Zhongming Sun"
_chemical_name_systematic
;
catena-[bis(oxonium) 
(\m-5,5',5'',5'''-silanetetrayltetra(benzene-1,3-dicarboxylato))-hexakis(\m-hy
droxo)-dodeca-oxo-hexa-uranium octadecahydrate]
;
_cell_volume  18085.232
_exptl_crystal_colour 'yellowish yellow'
_exptl_crystal_density_diffrn 2.025
_exptl_crystal_description 'block'
_diffrn_ambient_temperature 150
_refine_special_details
;
Disordered cation and solvent molecules were not modelled and the disordered 
density was taken into account using the SQUEEZE/PLATON procedure.
;
#These two values have been output from a single CSD field.
_refine_ls_R_factor_gt 0.0274
_refine_ls_wR_factor_gt 0.0274
_symmetry_cell_setting tetragonal
_symmetry_space_group_name_H-M 'I 41/a c d'
_symmetry_Int_Tables_number 142
loop_
_symmetry_equiv_pos_site_id
_symmetry_equiv_pos_as_xyz
1 x,y,z
2 1/2-x,-y,1/2+z
3 1/4-y,3/4+x,1/4+z
4 1/4+y,1/4-x,3/4+z
5 1/2-x,y,-z
6 x,-y,1/2-z
7 1/4+y,3/4+x,3/4-z
8 1/4-y,1/4-x,1/4-z
9 1/2+x,1/2+y,1/2+z
10 -x,1/2-y,z
11 3/4-y,1/4+x,3/4+z
12 3/4+y,3/4-x,1/4+z
13 -x,1/2+y,1/2-z
14 1/2+x,1/2-y,-z
15 3/4+y,1/4+x,1/4-z
16 3/4-y,3/4-x,3/4-z
17 -x,-y,-z
18 -1/2+x,y,-1/2-z
19 -1/4+y,-3/4-x,-1/4-z
20 -1/4-y,-1/4+x,-3/4-z
21 -1/2+x,-y,z
22 -x,y,-1/2+z
23 -1/4-y,-3/4-x,-3/4+z
24 -1/4+y,-1/4+x,-1/4+z
25 -1/2-x,-1/2-y,-1/2-z
26 x,-1/2+y,-z
27 -3/4+y,-1/4-x,-3/4-z
28 -3/4-y,-3/4+x,-1/4-z
29 x,-1/2-y,-1/2+z
30 -1/2-x,-1/2+y,z
31 -3/4-y,-1/4-x,-1/4+z
32 -3/4+y,-3/4+x,-3/4+z
_cell_length_a 21.9739(6)
_cell_length_b 21.9739(6)
_cell_length_c 37.455(2)
_cell_angle_alpha 90
_cell_angle_beta 90
_cell_angle_gamma 90
_cell_formula_units_Z 8
loop_
_atom_type_symbol
_atom_type_radius_bond
C 0.68
H 0.23
O 0.68
Si 1.20
U 1.96
loop_
_atom_site_label
_atom_site_type_symbol
_atom_site_fract_x
_atom_site_fract_y
_atom_site_fract_z
U1 U 0.66696(2) 0.43247(2) 0.47502(2)
U2 U 0.72897(2) 0.47897(2) 0.37500
Si1 Si 0.50000 0.75000 0.37500
O1 O 0.6721(2) 0.4221(2) 0.37500
O2 O 0.6541(2) 0.55234(19) 0.38982(12)
O3 O 0.7860(2) 0.5360(2) 0.37500
O4 O 0.7121(2) 0.4937(2) 0.31578(12)
O5 O 0.6490(2) 0.36903(19) 0.44862(13)
O6 O 0.6837(2) 0.4951(2) 0.50304(12)
O7 O 0.6196(2) 0.4996(2) 0.43603(12)
O8 O 0.75000 0.3838(3) 0.50000
O9 O 0.37407(19) 0.6226(2) 0.47390(13)
O10 O 0.4368(2) 0.5628(2) 0.50244(13)
C1 C 0.4257(3) 0.5989(3) 0.47730(19)
C2 C 0.4749(3) 0.6141(3) 0.45058(17)
C3 C 0.4688(3) 0.6662(3) 0.42921(16)
H1 H 0.43448 0.69195 0.43226
C4 C 0.5123(3) 0.6807(3) 0.40361(15)
C5 C 0.6159(3) 0.5438(3) 0.41502(16)
C6 C 0.5227(3) 0.5754(3) 0.44587(17)
H2 H 0.52673 0.54018 0.46040
C7 C 0.5648(3) 0.5878(3) 0.42002(16)
C8 C 0.5610(2) 0.6401(2) 0.39923(16)
H3 H 0.59154 0.64840 0.38196
O2I O 0.3459(2) 0.94766(19) 0.38982(12)
O7I O 0.3804(2) 1.0004(2) 0.43603(12)
O9I O 0.62593(19) 0.8774(2) 0.47390(13)
O10I O 0.5632(2) 0.9372(2) 0.50244(13)
C1I C 0.5743(3) 0.9011(3) 0.47730(19)
C2I C 0.5251(3) 0.8859(3) 0.45058(17)
C3I C 0.5312(3) 0.8338(3) 0.42921(16)
H1I H 0.56552 0.80805 0.43226
C4I C 0.4877(3) 0.8193(3) 0.40361(15)
C5I C 0.3841(3) 0.9562(3) 0.41502(16)
C6I C 0.4773(3) 0.9246(3) 0.44587(17)
H2I H 0.47327 0.95982 0.46040
C7I C 0.4352(3) 0.9122(3) 0.42002(16)
C8I C 0.4390(2) 0.8599(2) 0.39923(16)
H3I H 0.40846 0.85160 0.38196
O2R O 0.30234(20) 0.59590(19) 0.36018(12)
O7R O 0.2496(2) 0.6304(2) 0.31397(12)
O9R O 0.37260(19) 0.87593(20) 0.27610(13)
O10R O 0.3128(2) 0.8132(2) 0.24756(13)
C1R C 0.3489(3) 0.8243(3) 0.27270(19)
C2R C 0.3641(3) 0.7751(3) 0.29942(17)
C3R C 0.4162(3) 0.7812(3) 0.32079(16)
H1R H 0.44195 0.81552 0.31774
C4R C 0.4307(3) 0.7377(3) 0.34639(15)
C5R C 0.2938(3) 0.6341(3) 0.33498(16)
C6R C 0.3254(3) 0.7273(3) 0.30413(17)
H2R H 0.29018 0.72327 0.28960
C7R C 0.3378(3) 0.6852(3) 0.32998(16)
C8R C 0.3901(2) 0.6890(2) 0.35077(16)
H3R H 0.39840 0.65846 0.36804
O2AA O 0.69766(20) 0.90410(19) 0.36018(12)
O7AA O 0.7504(2) 0.8696(2) 0.31397(12)
O9AA O 0.62740(19) 0.62407(20) 0.27610(13)
O10AA O 0.6872(2) 0.6868(2) 0.24756(13)
C1AA C 0.6511(3) 0.6757(3) 0.27270(19)
C2AA C 0.6359(3) 0.7249(3) 0.29942(17)
C3AA C 0.5838(3) 0.7188(3) 0.32079(16)
H1AA H 0.55805 0.68448 0.31774
C4AA C 0.5693(3) 0.7623(3) 0.34639(15)
C5AA C 0.7062(3) 0.8659(3) 0.33498(16)
C6AA C 0.6746(3) 0.7727(3) 0.30413(17)
H2AA H 0.70982 0.77673 0.28960
C7AA C 0.6622(3) 0.8148(3) 0.32998(16)
C8AA C 0.6099(2) 0.8110(2) 0.35077(16)
H3AA H 0.60160 0.84154 0.36804
U1D U 0.83304(2) 0.43247(2) 0.52498(2)
O5D O 0.8510(2) 0.36903(19) 0.55138(13)
O6D O 0.8163(2) 0.4951(2) 0.49696(12)
U1F U 0.68247(2) 0.41696(2) 0.27498(2)
O4F O 0.7437(2) 0.4621(2) 0.43422(12)
O5F O 0.61903(20) 0.39900(19) 0.30138(13)
O6F O 0.7451(2) 0.4337(2) 0.24696(12)
O8C O 0.63380 0.5000(3) 0.25000
U1I U 0.33304(2) 1.06753(2) 0.47502(2)
O5I O 0.3510(2) 1.13097(19) 0.44862(13)
O6I O 0.3163(2) 1.0049(2) 0.50304(12)
U2I U 0.27103(2) 1.02103(2) 0.37500
O1I O 0.3279(2) 1.0779(2) 0.37500
O3I O 0.2140(2) 0.9640(2) 0.37500
O4B O 0.7563(2) 0.4621(2) 0.56578(12)
O4O O 0.2563(2) 1.0379(2) 0.43422(12)
U1C U 0.68247(2) 0.58304(2) 0.22502(2)
U1J U 0.31753(2) 0.91696(2) 0.22502(2)
U1P U 0.33304(2) 0.56753(2) 0.52498(2)
U1R U 0.18247(2) 0.58304(2) 0.27498(2)
U1Y U 0.66696(2) 0.93247(2) 0.52498(2)
U1AA U 0.81753(2) 0.91696(2) 0.27498(2)
U2B U 0.77103(2) 0.47897(2) 0.62500
U2R U 0.22897(2) 0.52103(2) 0.37500
U2AA U 0.77103(2) 0.97897(2) 0.37500
O2F O 0.80234(20) 0.40410(19) 0.36018(12)
O2O O 0.19766(20) 1.09590(19) 0.36018(12)
O4I O 0.2879(2) 1.0063(2) 0.31578(12)
O7D O 0.8804(2) 0.4996(2) 0.56397(12)
O7F O 0.7496(2) 0.3696(2) 0.31397(12)
O8I O 0.25000 1.1162(3) 0.50000
O9P O 0.62593(19) 0.3774(2) 0.52610(13)
O9T O 0.87407(19) 0.3774(2) 0.47390(13)
O9Y O 0.37407(19) 1.1226(2) 0.52610(13)
O9DA O 0.62740(19) 0.37593(20) 0.22390(13)
O10P O 0.5632(2) 0.4372(2) 0.49756(13)
O10T O 0.9368(2) 0.4372(2) 0.50244(13)
O10Y O 0.4368(2) 1.0628(2) 0.49756(13)
O10DA O 0.6872(2) 0.3132(2) 0.25244(13)
#END
