
#######################################################################
#
#                 Cambridge Crystallographic Data Centre
#                                CCDC
#
#######################################################################
#
# If this CIF has been generated from an entry in the Cambridge
# Structural Database, then it will include bibliographic, chemical,
# crystal, experimental, refinement or atomic coordinate data resulting
# from the CCDC's data processing and validation procedures.
#
#######################################################################

data_CSD_CIF_VOJPIU
_audit_creation_date 2009-05-27
_audit_creation_method CSD-ConQuest-V1
_database_code_CSD VOJPIU
_database_code_depnum_ccdc_archive 'CCDC 642469'
_chemical_formula_sum 'C52 H72 Cu2 N8 O48 Si1 W12'
_chemical_formula_moiety
;
(C52 H60 Cu2 N8 O2 4+)n,n(O40 Si1 W12 4-),6n(H2 O1)
;
_journal_coden_Cambridge 208
_journal_volume 181
_journal_year 2008
_journal_page_first 556
_journal_name_full 'J.Solid State Chem. '
loop_
_publ_author_name
"Xiuli Wang"
"Hongyan Lin"
"Yanfeng Bi"
"Baokuan Chen"
"Guocheng Liu"
_chemical_name_systematic
;
catena-(tetrakis(\m~2~-1,3-bis(4-pyridyl)propane)-diaqua-di-copper(ii) 
(\m~12~-silicato)-tetracosakis(\m~2~-oxo)-dodecaoxo-dodeca-tungsten 
hexahydrate)
;
_cell_volume   7956.000
_exptl_crystal_colour 'dark blue'
_exptl_crystal_density_diffrn 3.315
_exptl_crystal_description 'block'
_diffrn_ambient_temperature 293
_refine_special_details
;
Four keggin O atoms are disordered by symmetry with occupancy 0.5.

;
#These two values have been output from a single CSD field.
_refine_ls_R_factor_gt 0.0826
_refine_ls_wR_factor_gt 0.0826
_symmetry_cell_setting orthorhombic
_symmetry_space_group_name_H-M 'P b c n'
_symmetry_Int_Tables_number 60
loop_
_symmetry_equiv_pos_site_id
_symmetry_equiv_pos_as_xyz
1 x,y,z
2 1/2-x,1/2-y,1/2+z
3 -x,y,1/2-z
4 1/2+x,1/2-y,-z
5 -x,-y,-z
6 -1/2+x,-1/2+y,-1/2-z
7 x,-y,-1/2+z
8 -1/2-x,-1/2+y,z
_cell_length_a 23.0085(19)
_cell_length_b 14.6379(12)
_cell_length_c 23.6226(19)
_cell_angle_alpha 90
_cell_angle_beta 90
_cell_angle_gamma 90
_cell_formula_units_Z 4
loop_
_atom_type_symbol
_atom_type_radius_bond
C 0.68
H 0.23
Cu 1.52
N 0.68
O 0.70
Si 1.20
W 1.34
loop_
_atom_site_label
_atom_site_type_symbol
_atom_site_fract_x
_atom_site_fract_y
_atom_site_fract_z
O1 O 0.3507(12) 0.3117(17) 0.7151(11)
Cu1 Cu 0.28929(19) 0.1748(3) 0.74235(15)
N1 N 0.2699(11) 0.2359(18) 0.8159(11)
N2 N 0.1924(10) 0.3886(16) 1.1702(10)
N3 N 0.3532(11) 0.1008(15) 0.7820(9)
N4 N 0.7176(9) -0.2714(15) 0.7926(8)
C1 C 0.2602(13) 0.322(2) 0.8173(13)
H1 H 0.26830 0.35430 0.78440
C2 C 0.2387(12) 0.3723(19) 0.8630(12)
H2 H 0.23540 0.43560 0.86110
C3 C 0.2228(15) 0.326(2) 0.9103(14)
C4 C 0.2353(13) 0.2356(19) 0.9076(12)
H3 H 0.22860 0.20200 0.94040
C5 C 0.2570(19) 0.188(3) 0.8621(17)
H4 H 0.26220 0.12470 0.86350
C6 C 0.1412(13) 0.372(2) 1.1461(13)
H5 H 0.11550 0.33140 1.16290
C7 C 0.1257(13) 0.4163(19) 1.0955(12)
H6 H 0.08770 0.41200 1.08240
C8 C 0.1653(13) 0.465(2) 1.0655(13)
C9 C 0.2197(16) 0.482(2) 1.0896(15)
H7 H 0.24640 0.52070 1.07220
C10 C 0.2327(14) 0.438(2) 1.1418(14)
H8 H 0.27000 0.44350 1.15670
C11 C 0.1905(15) 0.368(2) 0.9566(14)
H9 H 0.20590 0.34330 0.99180
H10 H 0.15050 0.34730 0.95370
C12 C 0.1901(16) 0.470(2) 0.9613(14)
H11 H 0.22950 0.49090 0.96860
H12 H 0.17820 0.49560 0.92510
C13 C 0.1509(17) 0.507(3) 1.0067(14)
H13 H 0.11080 0.49400 0.99710
H14 H 0.15520 0.57310 1.00860
C14 C 0.3539(13) 0.012(2) 0.7790(12)
H15 H 0.32690 -0.01580 0.75510
C15 C 0.3903(11) -0.0449(17) 0.8075(11)
H16 H 0.38700 -0.10820 0.80690
C16 C 0.4339(13) 0.002(2) 0.8385(12)
C17 C 0.4329(13) 0.096(2) 0.8430(13)
H17 H 0.45820 0.12820 0.86650
C18 C 0.3940(15) 0.138(2) 0.8122(15)
H18 H 0.39570 0.20110 0.81190
C19 C 0.7207(12) -0.230(2) 0.8444(13)
H19 H 0.75620 -0.22620 0.86300
C20 C 0.6719(14) -0.196(2) 0.8690(13)
H20 H 0.67490 -0.17630 0.90630
C21 C 0.6205(12) -0.1872(18) 0.8442(12)
C22 C 0.6162(12) -0.2276(18) 0.7909(11)
H21 H 0.58140 -0.22800 0.77080
C23 C 0.6684(12) -0.2686(19) 0.7683(12)
H22 H 0.66570 -0.29550 0.73270
C24 C 0.4785(13) -0.058(2) 0.8726(13)
H23 H 0.49470 -0.02120 0.90300
H24 H 0.45820 -0.10890 0.88940
C25 C 0.5261(13) -0.092(2) 0.8370(13)
H25 H 0.54820 -0.04140 0.82160
H26 H 0.51040 -0.12710 0.80560
C26 C 0.5646(12) -0.151(2) 0.8717(12)
H27 H 0.57550 -0.11690 0.90520
H28 H 0.54200 -0.20320 0.88420
O2 O 0.1953(14) 0.0331(19) 0.7736(13)
W1 W 0.37378(5) 0.38016(8) 0.53843(5)
W2 W 0.63202(5) 0.38114(9) 0.48266(6)
W3 W 0.50588(6) 0.26195(8) 0.52218(5)
W4 W 0.43375(5) 0.35031(8) 0.40182(5)
W5 W 0.57285(5) 0.41251(9) 0.61903(5)
W6 W 0.56037(5) 0.47078(8) 0.36370(5)
Si1 Si 0.50000 0.50000 0.50000
O3 O 0.5424(14) 0.413(2) 0.5231(13)
O4 O 0.4851(14) 0.479(2) 0.4326(14)
O5 O 0.4420(15) 0.497(3) 0.5358(16)
O6 O 0.5313(15) 0.586(2) 0.5033(14)
O7 O 0.4014(10) 0.2752(16) 0.3577(9)
O8 O 0.5088(12) 0.1453(18) 0.5337(11)
O9 O 0.5040(11) 0.3769(17) 0.3729(12)
O10 O 0.6056(10) 0.3681(16) 0.6753(9)
O11 O 0.4321(12) 0.295(2) 0.5481(11)
O12 O 0.3787(11) 0.3545(18) 0.460(1)
O13 O 0.6942(12) 0.327(2) 0.4737(12)
O14 O 0.5885(12) 0.4608(18) 0.2986(11)
O15 O 0.4028(13) 0.463(2) 0.3758(14)
O16 O 0.3141(11) 0.3261(19) 0.5558(11)
O17 O 0.3440(14) 0.4960(19) 0.5211(12)
O18 O 0.6066(13) 0.3922(18) 0.4063(12)
O19 O 0.4767(13) 0.268(2) 0.4498(13)
O20 O 0.3941(15) 0.430(2) 0.6094(13)
O21 O 0.5860(13) 0.269(2) 0.4927(13)
O22 O 0.5354(16) 0.306(3) 0.5917(15)
O23 O 0.6309(14) 0.390(2) 0.5618(13)
O24 O 0.5010(15) 0.448(2) 0.6559(16)
O1A O 0.1493(12) 0.1883(17) 0.2151(11)
Cu1A Cu 0.21071(19) 0.3252(3) 0.24235(15)
Cu1A* Cu 0.21071(19) 0.3252(3) 1.24235(15)
Cu1E Cu 0.78929(19) -0.3252(3) 0.75765(15)
Cu1E* Cu -0.21071(19) 0.6748(3) 0.75765(15)
N1A N 0.2301(11) 0.2641(18) 0.3159(11)
N2A N 0.3076(10) 0.1114(16) 0.6702(10)
N2* N 0.1924(10) 0.3886(16) 0.1702(10)
N3E N -0.1468(11) 0.6008(15) 0.7180(9)
N3A N 0.1468(11) 0.3992(15) 0.2820(9)
N4E N 0.2176(9) 0.2286(15) 0.7074(8)
N4D N 0.2824(9) 0.2714(15) 0.2074(8)
C1A C 0.2398(13) 0.178(2) 0.3173(13)
H1A H 0.23170 0.14570 0.28440
C2A C 0.2613(12) 0.1277(19) 0.3630(12)
H2A H 0.26460 0.06440 0.36110
C3A C 0.2772(15) 0.174(2) 0.4103(14)
C4A C 0.2647(13) 0.2644(19) 0.4076(12)
H3A H 0.27140 0.29800 0.44040
C5A C 0.2430(19) 0.312(3) 0.3621(17)
H4A H 0.23780 0.37530 0.36350
C6A C 0.3588(13) 0.128(2) 0.6461(13)
H5A H 0.38450 0.16860 0.66290
C7A C 0.3743(13) 0.0837(19) 0.5955(12)
H6A H 0.41230 0.08800 0.58240
C8A C 0.3347(13) 0.035(2) 0.5655(13)
C9A C 0.2803(16) 0.018(2) 0.5896(15)
H7A H 0.25360 -0.02070 0.57220
C10A C 0.2673(14) 0.062(2) 0.6418(14)
H8A H 0.23000 0.05650 0.65670
C11A C 0.3095(15) 0.132(2) 0.4566(14)
H9A H 0.29410 0.15670 0.49180
H10A H 0.34950 0.15270 0.45370
C12A C 0.3099(16) 0.030(2) 0.4613(14)
H11A H 0.27050 0.00910 0.46860
H12A H 0.32180 0.00440 0.42510
C13A C 0.3491(17) -0.007(3) 0.5067(14)
H13A H 0.38920 0.00600 0.49710
H14A H 0.34480 -0.07310 0.50860
C14E C -0.1461(13) 0.512(2) 0.7210(12)
H15E H -0.17310 0.48420 0.74490
C15E C -0.1097(11) 0.4551(17) 0.6925(11)
H16E H -0.11300 0.39180 0.69310
C16E C -0.0661(13) 0.502(2) 0.6615(12)
C17E C -0.0671(13) 0.596(2) 0.6570(13)
H17E H -0.04180 0.62820 0.63350
C18E C -0.1060(15) 0.638(2) 0.6878(15)
H18E H -0.10430 0.70110 0.68810
C19E C 0.2207(12) 0.270(2) 0.6556(13)
H19E H 0.25620 0.27380 0.63700
C20E C 0.1719(14) 0.304(2) 0.6310(13)
H20E H 0.17490 0.32370 0.59370
C21E C 0.1205(12) 0.3128(18) 0.6558(12)
C22E C 0.1162(12) 0.2724(18) 0.7091(11)
H21E H 0.08140 0.27200 0.72920
C23E C 0.1684(12) 0.2314(19) 0.7317(12)
H22E H 0.16570 0.20450 0.76730
C24E C -0.0215(13) 0.442(2) 0.6274(13)
H23E H -0.00530 0.47880 0.59700
H24E H -0.04180 0.39110 0.61060
C25E C 0.0261(13) 0.408(2) 0.6630(13)
H25E H 0.04820 0.45860 0.67840
H26E H 0.01040 0.37290 0.69440
C26E C 0.0646(12) 0.349(2) 0.6283(12)
H27E H 0.07550 0.38310 0.59480
H28E H 0.04200 0.29680 0.61580
W1D W 0.62622(5) 0.61984(8) 0.46157(5)
W2D W 0.36798(5) 0.61886(9) 0.51734(6)
W3D W 0.49412(6) 0.73805(8) 0.47782(5)
W4D W 0.56625(5) 0.64969(8) 0.59818(5)
W5D W 0.42715(5) 0.58749(9) 0.38097(5)
W6D W 0.43963(5) 0.52922(8) 0.63630(5)
O3D O 0.4576(14) 0.587(2) 0.4769(13)
O4D O 0.5149(14) 0.521(2) 0.5674(14)
O5D O 0.5580(15) 0.503(3) 0.4642(16)
O6D O 0.4687(15) 0.414(2) 0.4967(14)
O7D O 0.5986(10) 0.7248(16) 0.6423(9)
O8D O 0.4912(12) 0.8547(18) 0.4663(11)
O9D O 0.4960(11) 0.6231(17) 0.6271(12)
O10D O 0.3944(10) 0.6319(16) 0.3247(9)
O11D O 0.5679(12) 0.705(2) 0.4519(11)
O12D O 0.6213(11) 0.6455(18) 0.540(1)
O13D O 0.3058(12) 0.673(2) 0.5263(12)
O14D O 0.4115(12) 0.5392(18) 0.7014(11)
O15D O 0.5972(13) 0.537(2) 0.6242(14)
O16D O 0.6859(11) 0.6739(19) 0.4442(11)
O17D O 0.6560(14) 0.5040(19) 0.4789(12)
O18D O 0.3934(13) 0.6078(18) 0.5937(12)
O19D O 0.5233(13) 0.732(2) 0.5502(13)
O20D O 0.6059(15) 0.570(2) 0.3906(13)
O21D O 0.4140(13) 0.731(2) 0.5073(13)
O22D O 0.4646(16) 0.694(3) 0.4083(15)
O23D O 0.3691(14) 0.610(2) 0.4382(13)
O24D O 0.4990(15) 0.552(2) 0.3441(16)
#END
