
#######################################################################
#
#                 Cambridge Crystallographic Data Centre
#                                CCDC
#
#######################################################################
#
# If this CIF has been generated from an entry in the Cambridge
# Structural Database, then it will include bibliographic, chemical,
# crystal, experimental, refinement or atomic coordinate data resulting
# from the CCDC's data processing and validation procedures.
#
#######################################################################

data_CSD_CIF_VOJQIV
_audit_creation_date 2009-05-27
_audit_creation_method CSD-ConQuest-V1
_database_code_CSD VOJQIV
_database_code_depnum_ccdc_archive 'CCDC 658566'
_chemical_formula_sum 'C140 H136 Cu4 N28 O134 P4 W36'
_chemical_formula_moiety
;
(C90 H76 Cu3 N18 O2 6+)n,0.5n(C60 H48 Cu2 N12 4+),2n(C10 H10 N2 2+),2n(O62 P2 
W18 6-),8n(H2 O1)
;
_journal_coden_Cambridge 208
_journal_volume 181
_journal_year 2008
_journal_page_first 637
_journal_name_full 'J.Solid State Chem. '
loop_
_publ_author_name
"Jun-Wei Zhao"
"Shou-Tian Zheng"
"Wei Liu"
"Guo-Yu Yang"
_chemical_name_systematic
;
catena-(tris(\m~2~-4,4'-bipyridine)-hexakis(4,4'-bipyridine)-diaqua-tri-copper
(ii) 
hemikis(bis(\m~2~-4,4'-bipyridine)-tetrakis(4,4'-bipyridine)-di-copper(ii)) 
bis(4,4'-bipyridinium) 
bis(bis(\m~9~-phosphato)-hexatricontakis(\m~2~-oxo)-octadecaoxo-octadeca-tungs
ten(vi)) octahydrate)
;
_cell_volume  23214.352
_exptl_crystal_colour 'cyan'
_exptl_crystal_density_diffrn 3.248
_exptl_special_details
;
Two additional weak Cu-O bonds have been described but have not been depicted 
due to the complexity of the structure and the weakness of the bond. The two 
additional bonds would mean that the Cu bonded to an aqua ligand would be 
bonded to two aqua ligands and the other Cu in the same polymer would be 
bonded to two O polyoxoanions
;
_exptl_crystal_description 'needle'
_diffrn_ambient_temperature 293
#These two values have been output from a single CSD field.
_refine_ls_R_factor_gt 0.0627
_refine_ls_wR_factor_gt 0.0627
_symmetry_cell_setting orthorhombic
_symmetry_space_group_name_H-M 'I b a 2'
_symmetry_Int_Tables_number 45
loop_
_symmetry_equiv_pos_site_id
_symmetry_equiv_pos_as_xyz
1 x,y,z
2 -x,-y,z
3 1/2+x,1/2-y,z
4 1/2-x,1/2+y,z
5 1/2+x,1/2+y,1/2+z
6 1/2-x,1/2-y,1/2+z
7 x,-y,1/2+z
8 -x,y,1/2+z
_cell_length_a 22.277(8)
_cell_length_b 47.04(2)
_cell_length_c 22.153(8)
_cell_angle_alpha 90
_cell_angle_beta 90
_cell_angle_gamma 90
_cell_formula_units_Z 4
loop_
_atom_type_symbol
_atom_type_radius_bond
C 0.68
H 0.23
Cu 1.15
N 0.66
O 0.72
P 1.05
W 1.37
loop_
_atom_site_label
_atom_site_type_symbol
_atom_site_fract_x
_atom_site_fract_y
_atom_site_fract_z
W1 W -0.21017(1) 0.393450(4) -0.47164(1)
W2 W -0.26267(1) 0.457800(4) -0.42750(1)
W3 W -0.127020(9) 0.434400(5) -0.377930(11)
W4 W -0.181250(9) 0.446780(5) -0.22226(1)
W5 W -0.118360(9) 0.376830(5) -0.26361(1)
W6 W -0.193620(9) 0.335040(4) -0.36042(1)
W7 W -0.344990(9) 0.356100(4) -0.411860(9)
W8 W -0.399830(9) 0.420600(4) -0.376450(9)
W9 W -0.318500(9) 0.466720(4) -0.27033(1)
W10 W -0.387540(8) 0.432160(4) -0.133520(9)
W11 W -0.250750(9) 0.411040(5) -0.08927(1)
W12 W -0.192600(9) 0.340470(5) -0.132250(11)
W13 W -0.270970(9) 0.300310(4) -0.22910(1)
W14 W -0.421330(9) 0.322610(4) -0.27737(1)
W15 W -0.473140(8) 0.387400(4) -0.240060(9)
W16 W -0.457130(9) 0.365550(4) -0.07968(1)
W17 W -0.320410(9) 0.346490(5) -0.02541(1)
W18 W -0.39610(1) 0.301890(4) -0.11796(1)
P1 P -0.25725(5) 0.40121(3) -0.32149(6)
P2 P -0.33473(5) 0.36477(2) -0.17988(5)
O1 O -0.19023(17) 0.38235(9) -0.54282(19)
O2 O -0.13480(15) 0.41349(7) -0.44981(16)
O3 O -0.22604(15) 0.41555(7) -0.37727(19)
O4 O -0.28556(18) 0.37755(7) -0.45887(18)
O5 O -0.18242(14) 0.36226(7) -0.42250(16)
O6 O -0.24223(18) 0.43021(7) -0.48974(19)
O7 O -0.2806(2) 0.48578(9) -0.47027(19)
O8 O -0.28089(17) 0.47031(8) -0.34934(18)
O9 O -0.33900(17) 0.43833(6) -0.42073(17)
O10 O -0.17744(16) 0.46296(7) -0.41383(17)
O11 O -0.05777(15) 0.45072(8) -0.38728(19)
O12 O -0.10658(16) 0.40282(10) -0.33488(18)
O13 O -0.15249(14) 0.45014(7) -0.30242(15)
O14 O -0.12728(18) 0.46648(10) -0.18557(19)
O15 O -0.22461(15) 0.43331(8) -0.15307(19)
O16 O -0.26053(14) 0.42367(6) -0.27080(18)
O17 O -0.24076(15) 0.47495(7) -0.23543(15)
O18 O -0.14510(16) 0.40925(8) -0.22391(18)
O19 O -0.04406(15) 0.37517(10) -0.24393(17)
O20 O -0.15111(15) 0.35365(8) -0.2036(2)
O21 O -0.21772(13) 0.37565(7) -0.30393(15)
O22 O -0.12207(15) 0.34627(8) -0.32222(17)
O23 O -0.16812(17) 0.30566(8) -0.39770(19)
O24 O -0.22130(14) 0.31633(8) -0.28785(17)
O25 O -0.27571(17) 0.33659(8) -0.38391(15)
O26 O -0.36762(15) 0.33430(7) -0.46869(18)
O27 O -0.39187(16) 0.34234(8) -0.34888(17)
O28 O -0.31893(13) 0.39095(6) -0.34269(17)
O29 O -0.39878(14) 0.38718(8) -0.42469(15)
O30 O -0.46150(18) 0.43680(7) -0.40659(18)
O31 O -0.44215(14) 0.39924(7) -0.31336(15)
O32 O -0.37655(15) 0.44516(8) -0.31123(18)
O33 O -0.3495(2) 0.49954(8) -0.26712(19)
O34 O -0.34583(16) 0.45212(7) -0.19622(16)
O35 O -0.42953(14) 0.45932(7) -0.10715(15)
O36 O -0.42094(13) 0.40247(8) -0.08861(16)
O37 O -0.32013(13) 0.39538(7) -0.16137(15)
O38 O -0.43447(15) 0.41800(7) -0.19881(16)
O39 O -0.32253(15) 0.43559(7) -0.08208(16)
O40 O -0.2077(2) 0.42663(10) -0.0327(2)
O41 O -0.2953(2) 0.38398(8) -0.03958(17)
O42 O -0.20428(14) 0.38035(8) -0.11572(16)
O43 O -0.13077(17) 0.33208(10) -0.0921(2)
O44 O -0.25205(15) 0.33339(8) -0.07029(18)
O45 O -0.27835(14) 0.34679(7) -0.19480(16)
O46 O -0.20881(14) 0.30498(7) -0.16906(19)
O47 O -0.26308(15) 0.26524(7) -0.2439(2)
O48 O -0.32565(17) 0.29476(8) -0.1593(2)
O49 O -0.34070(13) 0.30908(7) -0.27230(17)
O50 O -0.45682(18) 0.29422(8) -0.31160(19)
O51 O -0.38130(15) 0.36383(7) -0.23168(17)
O52 O -0.42849(15) 0.31131(7) -0.19633(17)
O53 O -0.48412(15) 0.34928(7) -0.26900(19)
O54 O -0.54584(14) 0.39988(7) -0.24711(16)
O55 O -0.48220(13) 0.37054(6) -0.15774(16)
O56 O -0.51898(16) 0.37190(8) -0.03880(17)
O57 O -0.36606(13) 0.35020(6) -0.12266(14)
O58 O -0.46066(12) 0.32568(6) -0.08472(15)
O59 O -0.40012(15) 0.35960(9) -0.01358(19)
O60 O -0.29745(17) 0.34059(10) 0.04690(19)
O61 O -0.35502(15) 0.30980(7) -0.04691(17)
O62 O -0.42142(19) 0.26868(10) -0.1029(2)
Cu1 Cu -0.50000 0.50000 -0.09581(4)
Cu2 Cu -0.81431(3) 0.328790(14) -0.21099(4)
O63 O -0.75544(16) 0.30647(8) -0.2788(2)
N1 N -0.50000 0.50000 -0.1881(3)
N2 N -0.50000 0.50000 -0.5064(3)
N3 N -0.57014(18) 0.47210(9) -0.0956(2)
N4 N -0.7559(2) 0.36065(10) -0.1909(3)
N5 N -0.7854(2) 0.30645(9) -0.1364(3)
N6 N -0.7003(3) 0.22509(13) 0.1171(3)
N7 N -0.8832(2) 0.30152(10) -0.2192(2)
N8 N -1.1548(3) 0.22463(13) -0.2523(3)
N9 N -0.84734(19) 0.35203(11) -0.2823(2)
N10 N -0.9797(2) 0.40236(12) -0.5540(3)
C1 C -0.5094(2) 0.47552(10) -0.2203(2)
H1 H -0.51660 0.45860 -0.20000
C2 C -0.50834(19) 0.47583(9) -0.2829(2)
H2 H -0.51360 0.45870 -0.30330
C3 C -0.50000 0.50000 -0.3159(4)
C4 C -0.50000 0.50000 -0.3802(4)
C5 C -0.5508(2) 0.49177(9) -0.4727(2)
H3 H -0.58530 0.48590 -0.49290
C6 C -0.5506(2) 0.49227(12) -0.4109(2)
H4 H -0.58500 0.48730 -0.38970
C7 C -0.65796(19) 0.45654(10) -0.1464(2)
H5 H -0.68900 0.46030 -0.17330
C8 C -0.6178(2) 0.47809(12) -0.1276(3)
H6 H -0.62550 0.49690 -0.13810
C9 C -0.5633(2) 0.44566(10) -0.0705(3)
H7 H -0.53210 0.44230 -0.04360
C10 C -0.6017(2) 0.42459(13) -0.0847(3)
H8 H -0.59570 0.40670 -0.06800
C11 C -0.6487(2) 0.42852(10) -0.1223(2)
C12 C -0.6856(2) 0.40431(10) -0.1461(3)
C13 C -0.6642(2) 0.37864(12) -0.1505(3)
H9 H -0.62560 0.37480 -0.13700
C14 C -0.7000(3) 0.35611(13) -0.1761(3)
H10 H -0.68320 0.33820 -0.18210
C15 C -0.7780(2) 0.38769(10) -0.1837(3)
H11 H -0.81800 0.39070 -0.19380
C16 C -0.7462(2) 0.41068(14) -0.1630(4)
H12 H -0.76250 0.42880 -0.16020
C17 C -0.7575(3) 0.26154(12) -0.0957(3)
H13 H -0.75130 0.24210 -0.10030
C18 C -0.7759(3) 0.27817(14) -0.1419(3)
H14 H -0.78230 0.26980 -0.17940
C19 C -0.7761(3) 0.31864(12) -0.0809(3)
H15 H -0.78450 0.33790 -0.07580
C20 C -0.7559(3) 0.30395(11) -0.0349(3)
H16 H -0.74660 0.31290 0.00130
C21 C -0.7486(3) 0.27516(12) -0.0411(3)
C22 C -0.7235(3) 0.25668(12) 0.0119(3)
C23 C -0.7069(4) 0.26820(18) 0.0677(4)
H17 H -0.71020 0.28780 0.07220
C24 C -0.6860(3) 0.25292(15) 0.1165(4)
H18 H -0.66350 0.26130 0.14710
C25 C -0.7127(4) 0.21093(17) 0.0655(4)
H19 H -0.70800 0.19140 0.06210
C26 C -0.7335(5) 0.22807(19) 0.0167(4)
H20 H -0.75520 0.21920 -0.01380
C27 C -0.9513(3) 0.27524(17) -0.2830(4)
H21 H -0.95950 0.26850 -0.32160
C28 C -0.9032(3) 0.29101(13) -0.2688(3)
H22 H -0.87920 0.29530 -0.30200
C29 C -0.9191(3) 0.29478(16) -0.1707(3)
H23 H -0.90630 0.29980 -0.13220
C30 C -0.9744(3) 0.2806(2) -0.1770(3)
H24 H -1.00040 0.27860 -0.14450
C31 C -0.9881(3) 0.27009(11) -0.2321(4)
C32 C -1.0475(3) 0.25542(12) -0.2427(3)
C33 C -1.0615(3) 0.23348(15) -0.2026(3)
H25 H -1.03780 0.23070 -0.16850
C34 C -1.1112(4) 0.2155(2) -0.2133(5)
H26 H -1.11420 0.19800 -0.19430
C35 C -1.1418(3) 0.24777(16) -0.2864(4)
H27 H -1.17180 0.25300 -0.31340
C36 C -1.0916(3) 0.26480(16) -0.2878(4)
H28 H -1.08630 0.28010 -0.31380
C37 C -0.9337(3) 0.36993(15) -0.3390(3)
H29 H -0.97410 0.37490 -0.33910
C38 C -0.9072(2) 0.35853(18) -0.2848(3)
H30 H -0.93110 0.35550 -0.25100
C39 C -0.8169(3) 0.35677(16) -0.3298(3)
H31 H -0.77590 0.35310 -0.32830
C40 C -0.8404(3) 0.36712(13) -0.3843(3)
H32 H -0.81470 0.36970 -0.41690
C41 C -0.8998(3) 0.37357(16) -0.3910(3)
C42 C -0.9279(3) 0.38477(13) -0.4458(3)
C43 C -0.8970(3) 0.38284(18) -0.5009(3)
H33 H -0.85970 0.37400 -0.50280
C44 C -0.9232(3) 0.3944(2) -0.5534(4)
H34 H -0.90010 0.39640 -0.58810
C45 C -1.0106(3) 0.40404(19) -0.5016(3)
H35 H -1.04720 0.41360 -0.50010
C46 C -0.9870(3) 0.39123(14) -0.4495(4)
H36 H -1.01220 0.38710 -0.41720
Cu3 Cu 0.00000 0.50000 -0.38011(4)
N11 N 0.00000 0.50000 -0.2916(3)
N12 N 0.00000 0.50000 -0.4704(3)
N13 N -0.08305(17) 0.51836(14) -0.3778(2)
N14 N -0.3654(2) 0.58387(14) -0.3630(3)
C47 C -0.0064(2) 0.52305(12) -0.2588(2)
H37 H -0.01300 0.54000 -0.27940
C48 C -0.0042(3) 0.52457(16) -0.1949(4)
H38 H -0.00560 0.54190 -0.17460
C49 C 0.00000 0.50000 -0.1655(4)
C50 C 0.00000 0.50000 -0.0987(4)
C51 C -0.0455(3) 0.48943(16) -0.5019(3)
H39 H -0.07930 0.48290 -0.48160
C52 C -0.0438(3) 0.5121(2) -0.0643(3)
H40 H -0.07430 0.52190 -0.08390
C53 C -0.1789(2) 0.52361(11) -0.3323(3)
H41 H -0.20460 0.51830 -0.30130
C54 C -0.1228(3) 0.51091(12) -0.3352(3)
H42 H -0.11260 0.49700 -0.30710
C55 C -0.0985(3) 0.53941(14) -0.4138(4)
H43 H -0.06990 0.54720 -0.43940
C56 C -0.1563(2) 0.55019(15) -0.4144(3)
H44 H -0.16760 0.56280 -0.44470
C57 C -0.1974(3) 0.54253(16) -0.3705(4)
C58 C -0.2571(3) 0.55592(13) -0.3687(3)
C59 C -0.2903(3) 0.56164(13) -0.4190(3)
H45 H -0.27860 0.55490 -0.45660
C60 C -0.3439(3) 0.57845(18) -0.4120(3)
H46 H -0.36280 0.58540 -0.44640
C61 C -0.3380(3) 0.57637(16) -0.3142(4)
H47 H -0.35460 0.58150 -0.27730
C62 C -0.2820(3) 0.56022(19) -0.3145(4)
H48 H -0.26480 0.55330 -0.27920
O64 O -0.8923(3) 0.35783(15) -0.1250(4)
O65 O -1.0313(3) 0.59741(16) -1.1647(4)
O66 O -0.1818(5) 0.5287(3) -0.1639(6)
O67 O -0.4030(4) 0.3096(2) -0.5841(5)
N15 N -0.4811(6) 0.7717(3) -0.4855(7)
N16 N -0.4262(2) 0.63226(16) -0.3726(3)
C63 C -0.5224(4) 0.7276(2) -0.4479(5)
H49 H -0.55620 0.71620 -0.44350
C64 C -0.5284(7) 0.7573(3) -0.4728(8)
H50 H -0.56620 0.76520 -0.47880
C65 C -0.4284(6) 0.7626(2) -0.4725(6)
H51 H -0.39510 0.77410 -0.47950
C66 C -0.4204(5) 0.7349(2) -0.4474(5)
H52 H -0.38140 0.72850 -0.44120
C67 C -0.4665(3) 0.71730(13) -0.4319(5)
C68 C -0.4521(3) 0.68760(15) -0.4114(3)
C69 C -0.4045(3) 0.68405(17) -0.3719(4)
H53 H -0.38020 0.69890 -0.35870
C70 C -0.3974(4) 0.6567(2) -0.3547(3)
H54 H -0.36780 0.65400 -0.32570
C71 C -0.4724(3) 0.63874(17) -0.4064(4)
H55 H -0.49770 0.62390 -0.41770
C72 C -0.4868(3) 0.66508(15) -0.4263(3)
H56 H -0.52060 0.66770 -0.45030
Cu1F Cu -0.50000 0.50000 -0.59581(4)
Cu2A Cu -0.18569(3) 0.671210(14) -0.21099(4)
O63A O -0.24456(16) 0.69353(8) -0.2788(2)
N2F N -0.50000 0.50000 -0.0064(3)
N3A N -0.42986(18) 0.52790(9) -0.0956(2)
N4A N -0.2441(2) 0.63935(10) -0.1909(3)
N5A N -0.2146(2) 0.69355(9) -0.1364(3)
N6A N -0.2997(3) 0.77491(13) 0.1171(3)
N7A N -0.1168(2) 0.69848(10) -0.2192(2)
N8A N 0.1548(3) 0.77537(13) -0.2523(3)
N9A N -0.15266(19) 0.64797(11) -0.2823(2)
N10A N -0.0203(2) 0.59764(12) -0.5540(3)
C1A C -0.4906(2) 0.52448(10) -0.2203(2)
H1A H -0.48340 0.54140 -0.20000
C2A C -0.49166(19) 0.52417(9) -0.2829(2)
H2A H -0.48640 0.54130 -0.30330
C5A C -0.4492(2) 0.50823(9) -0.4727(2)
H3A H -0.41470 0.51410 -0.49290
C6A C -0.4494(2) 0.50773(12) -0.4109(2)
H4A H -0.41500 0.51270 -0.38970
C7A C -0.34204(19) 0.54346(10) -0.1464(2)
H5A H -0.31100 0.53970 -0.17330
C8A C -0.3822(2) 0.52191(12) -0.1276(3)
H6A H -0.37450 0.50310 -0.13810
C9A C -0.4367(2) 0.55434(10) -0.0705(3)
H7A H -0.46790 0.55770 -0.04360
C10A C -0.3983(2) 0.57541(13) -0.0847(3)
H8A H -0.40430 0.59330 -0.06800
C11A C -0.3513(2) 0.57148(10) -0.1223(2)
C12A C -0.3144(2) 0.59569(10) -0.1461(3)
C13A C -0.3358(2) 0.62136(12) -0.1505(3)
H9A H -0.37440 0.62520 -0.13700
C14A C -0.3000(3) 0.64389(13) -0.1761(3)
H10A H -0.31680 0.66180 -0.18210
C15A C -0.2220(2) 0.61231(10) -0.1837(3)
H11A H -0.18200 0.60930 -0.19380
C16A C -0.2538(2) 0.58932(14) -0.1630(4)
H12A H -0.23750 0.57120 -0.16020
C17A C -0.2425(3) 0.73846(12) -0.0957(3)
H13A H -0.24870 0.75790 -0.10030
C18A C -0.2241(3) 0.72183(14) -0.1419(3)
H14A H -0.21770 0.73020 -0.17940
C19A C -0.2239(3) 0.68136(12) -0.0809(3)
H15A H -0.21550 0.66210 -0.07580
C20A C -0.2441(3) 0.69605(11) -0.0349(3)
H16A H -0.25340 0.68710 0.00130
C21A C -0.2514(3) 0.72484(12) -0.0411(3)
C22A C -0.2765(3) 0.74332(12) 0.0119(3)
C23A C -0.2931(4) 0.73180(18) 0.0677(4)
H17A H -0.28980 0.71220 0.07220
C24A C -0.3140(3) 0.74708(15) 0.1165(4)
H18A H -0.33650 0.73870 0.14710
C25A C -0.2873(4) 0.78907(17) 0.0655(4)
H19A H -0.29200 0.80860 0.06210
C26A C -0.2665(5) 0.77193(19) 0.0167(4)
H20A H -0.24480 0.78080 -0.01380
C27A C -0.0487(3) 0.72476(17) -0.2830(4)
H21A H -0.04050 0.73150 -0.32160
C28A C -0.0968(3) 0.70899(13) -0.2688(3)
H22A H -0.12080 0.70470 -0.30200
C29A C -0.0809(3) 0.70522(16) -0.1707(3)
H23A H -0.09370 0.70020 -0.13220
C30A C -0.0256(3) 0.7194(2) -0.1770(3)
H24A H 0.00040 0.72140 -0.14450
C31A C -0.0119(3) 0.72991(11) -0.2321(4)
C32A C 0.0475(3) 0.74458(12) -0.2427(3)
C33A C 0.0615(3) 0.76652(15) -0.2026(3)
H25A H 0.03780 0.76930 -0.16850
C34A C 0.1112(4) 0.7845(2) -0.2133(5)
H26A H 0.11420 0.80200 -0.19430
C35A C 0.1418(3) 0.75223(16) -0.2864(4)
H27A H 0.17180 0.74700 -0.31340
C36A C 0.0916(3) 0.73520(16) -0.2878(4)
H28A H 0.08630 0.71990 -0.31380
C37A C -0.0663(3) 0.63007(15) -0.3390(3)
H29A H -0.02590 0.62510 -0.33910
C38A C -0.0928(2) 0.64147(18) -0.2848(3)
H30A H -0.06890 0.64450 -0.25100
C39A C -0.1831(3) 0.64323(16) -0.3298(3)
H31A H -0.22410 0.64690 -0.32830
C40A C -0.1596(3) 0.63288(13) -0.3843(3)
H32A H -0.18530 0.63030 -0.41690
C41A C -0.1002(3) 0.62643(16) -0.3910(3)
C42A C -0.0721(3) 0.61523(13) -0.4458(3)
C43A C -0.1030(3) 0.61716(18) -0.5009(3)
H33A H -0.14030 0.62600 -0.50280
C44A C -0.0768(3) 0.6056(2) -0.5534(4)
H34A H -0.09990 0.60360 -0.58810
C45A C 0.0106(3) 0.59596(19) -0.5016(3)
H35A H 0.04720 0.58640 -0.50010
C46A C -0.0130(3) 0.60877(14) -0.4495(4)
H36A H 0.01220 0.61290 -0.41720
Cu3F Cu 0.00000 0.50000 -0.88011(4)
Cu3F* Cu 0.00000 0.50000 0.11989(4)
N11F N 0.00000 0.50000 -0.7916(3)
N11F* N 0.00000 0.50000 0.2084(3)
N12F N 0.00000 0.50000 0.0296(3)
N13A N 0.08305(17) 0.48164(14) -0.3778(2)
N13F N -0.08305(17) 0.48164(14) 0.1222(2)
N13G N 0.08305(17) 0.51836(14) 0.1222(2)
N14A N 0.3654(2) 0.41613(14) -0.3630(3)
N14G N 0.3654(2) 0.58387(14) 0.1370(3)
N14F N -0.3654(2) 0.41613(14) 0.1370(3)
C47A C 0.0064(2) 0.47695(12) -0.2588(2)
C47G C 0.0064(2) 0.52305(12) -0.7588(2)
C47F C -0.0064(2) 0.47695(12) -0.7588(2)
H37A H 0.01300 0.46000 -0.27940
H37G H 0.01300 0.54000 -0.77940
H37F H -0.01300 0.46000 -0.77940
C48A C 0.0042(3) 0.47543(16) -0.1949(4)
C48F C -0.0042(3) 0.47543(16) -0.6949(4)
C48G C 0.0042(3) 0.52457(16) -0.6949(4)
H38A H 0.00560 0.45810 -0.17460
H38G H 0.00560 0.54190 -0.67460
H38F H -0.00560 0.45810 -0.67460
C49F C 0.00000 0.50000 -0.6655(4)
C50F C 0.00000 0.50000 -0.5987(4)
C51A C 0.0455(3) 0.51057(16) -0.5019(3)
C51F C -0.0455(3) 0.51057(16) -0.0019(3)
C51G C 0.0455(3) 0.48943(16) -0.0019(3)
H39A H 0.07930 0.51710 -0.48160
H39F H -0.07930 0.51710 0.01840
H39G H 0.07930 0.48290 0.01840
C52A C 0.0438(3) 0.4879(2) -0.0643(3)
C52F C -0.0438(3) 0.4879(2) -0.5643(3)
C52G C 0.0438(3) 0.5121(2) -0.5643(3)
H40A H 0.07430 0.47810 -0.08390
H40F H -0.07430 0.47810 -0.58390
H40G H 0.07430 0.52190 -0.58390
C53A C 0.1789(2) 0.47639(11) -0.3323(3)
C53G C 0.1789(2) 0.52361(11) 0.1677(3)
C53F C -0.1789(2) 0.47639(11) 0.1677(3)
H41A H 0.20460 0.48170 -0.30130
H41G H 0.20460 0.51830 0.19870
H41F H -0.20460 0.48170 0.19870
C54A C 0.1228(3) 0.48909(12) -0.3352(3)
C54F C -0.1228(3) 0.48909(12) 0.1648(3)
C54G C 0.1228(3) 0.51091(12) 0.1648(3)
H42A H 0.11260 0.50300 -0.30710
H42G H 0.11260 0.49700 0.19290
H42F H -0.11260 0.50300 0.19290
C55A C 0.0985(3) 0.46059(14) -0.4138(4)
C55F C -0.0985(3) 0.46059(14) 0.0862(4)
C55G C 0.0985(3) 0.53941(14) 0.0862(4)
H43A H 0.06990 0.45280 -0.43940
H43G H 0.06990 0.54720 0.06060
H43F H -0.06990 0.45280 0.06060
C56A C 0.1563(2) 0.44981(15) -0.4144(3)
C56G C 0.1563(2) 0.55019(15) 0.0856(3)
C56F C -0.1563(2) 0.44981(15) 0.0856(3)
H44A H 0.16760 0.43720 -0.44470
H44G H 0.16760 0.56280 0.05530
H44F H -0.16760 0.43720 0.05530
C57A C 0.1974(3) 0.45747(16) -0.3705(4)
C57G C 0.1974(3) 0.54253(16) 0.1295(4)
C57F C -0.1974(3) 0.45747(16) 0.1295(4)
C58A C 0.2571(3) 0.44408(13) -0.3687(3)
C58G C 0.2571(3) 0.55592(13) 0.1313(3)
C58F C -0.2571(3) 0.44408(13) 0.1313(3)
C59A C 0.2903(3) 0.43836(13) -0.4190(3)
C59G C 0.2903(3) 0.56164(13) 0.0810(3)
C59F C -0.2903(3) 0.43836(13) 0.0810(3)
H45A H 0.27860 0.44510 -0.45660
H45G H 0.27860 0.55490 0.04340
H45F H -0.27860 0.44510 0.04340
C60A C 0.3439(3) 0.42155(18) -0.4120(3)
C60G C 0.3439(3) 0.57845(18) 0.0880(3)
C60F C -0.3439(3) 0.42155(18) 0.0880(3)
H46A H 0.36280 0.41460 -0.44640
H46G H 0.36280 0.58540 0.05360
H46F H -0.36280 0.41460 0.05360
C61A C 0.3380(3) 0.42363(16) -0.3142(4)
C61G C 0.3380(3) 0.57637(16) 0.1858(4)
C61F C -0.3380(3) 0.42363(16) 0.1858(4)
H47A H 0.35460 0.41850 -0.27730
H47G H 0.35460 0.58150 0.22270
H47F H -0.35460 0.41850 0.22270
C62A C 0.2820(3) 0.43978(19) -0.3145(4)
C62G C 0.2820(3) 0.56022(19) 0.1855(4)
C62F C -0.2820(3) 0.43978(19) 0.1855(4)
H48A H 0.26480 0.44670 -0.27920
H48G H 0.26480 0.55330 0.22080
H48F H -0.26480 0.44670 0.22080
#END
