
#######################################################################
#
#                 Cambridge Crystallographic Data Centre
#                                CCDC
#
#######################################################################
#
# If this CIF has been generated from an entry in the Cambridge
# Structural Database, then it will include bibliographic, chemical,
# crystal, experimental, refinement or atomic coordinate data resulting
# from the CCDC's data processing and validation procedures.
#
#######################################################################

data_CSD_CIF_VOJXOI
_audit_creation_date 2009-05-28
_audit_creation_method CSD-ConQuest-V1
_database_code_CSD VOJXOI
_database_code_depnum_ccdc_archive 'CCDC 269138'
_chemical_formula_sum 'C66 H209 Bi4 Cu10.5 N44 Na15 O192.5 W36'
_chemical_formula_moiety
;
(Na1 1+)15n,1.5n(C12 H20 Cu1 N8 O2 2+),n(C12 H18 Cu1 N8 O1 2+),n(C36 H52 Bi4 
Cu8 N24 O134 W36 20-),54.5n(H2 O1)
;
_journal_coden_Cambridge 9
_journal_volume 47
_journal_year 2008
_journal_page_first 4166
_journal_name_full 'Inorg.Chem. '
loop_
_publ_author_name
"Hong Liu"
"Chao Qin"
"Yong-Ge Wei"
"Lin Xu"
"Guang-Gang Gao"
"Feng-Yan Li"
"Xiao-Shu Qu"
_chemical_name_systematic
;
catena-(pentadecasodium(i) sesquikis(diaqua-tetrakis(imidazole)-copper(ii)) 
aqua-tetrakis(imidazole)-copper(ii) 
dodecakis(\m~4~-oxo)-tridecakis(\m~3~-oxo)-pentaheptacontakis(\m~2~-oxo)-diaqu
a-dodecakis(imidazole)-dotriacontaoxo-tetra-bismuth-octa-copper(ii)-hexatriaco
nta-tungsten hydrate)
;
_cell_volume  14763.972
_exptl_crystal_colour 'grey blue'
_exptl_crystal_density_diffrn 2.934
_exptl_special_details
;
antiferromagnetic
The Na atoms are octahedrally coordinated but due to the size and complexity 
of the structure we have had to input them as ionic. In reality the Na atoms 
are coordinated by four O atoms from two [BiW!9$O!33$] and two terminal water 
molecules
;
_exptl_crystal_description 'block'
_diffrn_ambient_temperature 293
_refine_special_details
;
The structure is disordered.

;
#These two values have been output from a single CSD field.
_refine_ls_R_factor_gt 0.0665
_refine_ls_wR_factor_gt 0.0665
_symmetry_cell_setting triclinic
_symmetry_space_group_name_H-M 'P -1'
_symmetry_Int_Tables_number 2
loop_
_symmetry_equiv_pos_site_id
_symmetry_equiv_pos_as_xyz
1 x,y,z
2 -x,-y,-z
_cell_length_a 23.076(5)
_cell_length_b 24.945(5)
_cell_length_c 28.420(6)
_cell_angle_alpha 70.02(3)
_cell_angle_beta 74.65(3)
_cell_angle_gamma 80.01(3)
_cell_formula_units_Z 2
loop_
_atom_type_symbol
_atom_type_radius_bond
C 0.68
H 0.23
Bi 1.54
Cu 1.18
N 0.68
Na 0.82
O 0.93
W 1.22
loop_
_atom_site_label
_atom_site_type_symbol
_atom_site_fract_x
_atom_site_fract_y
_atom_site_fract_z
Bi1 Bi 0.25277(4) 0.76990(3) 0.13622(3)
Bi2 Bi 0.36664(4) 0.81866(3) 0.22123(3)
Bi3 Bi -0.16189(4) 0.72420(3) -0.41280(3)
Bi4 Bi -0.04008(4) 0.77134(3) -0.33302(3)
W1 W 0.30226(4) 0.85784(4) 0.00547(3)
W2 W 0.17589(4) 0.90405(3) 0.07515(3)
W3 W 0.09830(4) 0.80704(4) 0.19800(4)
W4 W 0.15870(4) 0.67222(4) 0.23784(4)
W5 W 0.29868(5) 0.61873(4) 0.16097(4)
W6 W 0.36665(4) 0.70764(4) 0.04998(4)
W7 W 0.17036(4) 0.81329(4) 0.01327(3)
W8 W 0.09367(4) 0.71382(4) 0.13714(4)
W9 W 0.23459(5) 0.66142(4) 0.05966(4)
W10 W 0.45540(4) 0.92551(4) 0.11981(3)
W11 W 0.32832(4) 0.97101(3) 0.18933(4)
W12 W 0.25310(4) 0.87050(4) 0.31217(3)
W13 W 0.31153(4) 0.73500(4) 0.35405(4)
W14 W 0.45190(4) 0.68682(4) 0.27441(4)
W15 W 0.52005(4) 0.77584(4) 0.16405(4)
W16 W 0.45586(4) 0.94311(4) 0.23197(4)
W17 W 0.38069(4) 0.84220(4) 0.35510(3)
W18 W 0.52274(4) 0.79217(4) 0.27593(4)
W19 W -0.11377(5) 0.81090(4) -0.54603(4)
W20 W -0.05485(5) 0.65913(4) -0.49877(4)
W21 W -0.12152(5) 0.57190(4) -0.38645(4)
W22 W -0.25704(5) 0.62913(4) -0.30801(4)
W23 W -0.31163(5) 0.76560(4) -0.34901(4)
W24 W -0.23544(5) 0.86056(4) -0.47402(4)
W25 W -0.24881(5) 0.76925(4) -0.53268(4)
W26 W -0.18980(5) 0.61614(4) -0.48533(4)
W27 W -0.32616(5) 0.67331(4) -0.40659(4)
W28 W 0.04873(5) 0.87596(4) -0.43818(4)
W29 W 0.10816(4) 0.72357(4) -0.39435(4)
W30 W 0.04118(5) 0.63667(4) -0.28117(4)
W31 W -0.09233(5) 0.69038(4) -0.19869(4)
W32 W -0.14599(5) 0.82708(4) -0.23995(4)
W33 W -0.07254(5) 0.92459(4) -0.36487(4)
W34 W 0.05845(5) 0.89200(4) -0.32814(4)
W35 W 0.11981(5) 0.73951(4) -0.28509(4)
W36 W -0.01461(5) 0.79365(4) -0.20179(4)
Cu1 Cu -0.19034(13) 0.84323(10) -0.35675(10)
Cu2 Cu -0.01024(13) 0.76702(11) -0.46323(10)
Cu3 Cu -0.10841(13) 0.63277(11) -0.29367(11)
Cu4 Cu 0.30482(13) 0.6787(1) 0.25574(11)
Cu5 Cu 0.21568(12) 0.88748(10) 0.19406(10)
Cu6 Cu 0.40450(12) 0.81477(10) 0.09065(10)
Cu7 Cu -0.34982(15) 0.78113(12) -0.63711(12)
Cu8 Cu 0.07715(15) 0.81012(12) -0.09543(13)
O1 O -0.2115(7) 0.8601(7) -0.2121(7)
O2 O 0.2429(6) 0.8460(6) -0.0290(6)
O3 O 0.0981(6) 0.6618(6) 0.2032(5)
O4 O 0.4102(7) 0.8814(6) 0.1076(6)
O5 O 0.0514(7) 0.7698(6) 0.1706(6)
O6 O 0.0329(8) 0.6907(7) 0.1286(6)
O7 O -0.0010(8) 0.8348(6) -0.4498(6)
O8 O 0.1124(6) 0.7761(6) 0.0739(6)
O9 O 0.1331(7) 0.8195(6) -0.0347(5)
O10 O -0.2896(8) 0.7751(7) -0.5779(6)
O11 O 0.4692(8) 0.6125(6) 0.3010(6)
O12 O -0.2968(6) 0.8189(6) -0.4173(6)
O13 O -0.1942(7) 0.6582(6) -0.3021(7)
O14 O 0.5673(7) 0.7855(6) 0.2105(6)
O15 O 0.1437(8) 0.9742(6) 0.0642(6)
O16 O -0.1130(6) 0.8777(6) -0.3788(5)
O17 O -0.0660(8) 0.8462(7) -0.6036(6)
O18 O 0.3920(7) 0.6910(6) 0.2426(6)
O19 O 0.3008(7) 0.8796(6) 0.3574(6)
O20 O -0.1768(7) 0.8000(6) -0.5781(6)
O21 O 0.2613(8) 0.5999(6) 0.1140(7)
O22 O 0.1407(7) 0.8846(6) 0.0261(5)
O23 O 0.4035(7) 0.8980(5) 0.2008(6)
O24 O -0.0362(8) 0.6954(6) -0.4593(6)
O25 O 0.4547(6) 0.7818(5) 0.2346(5)
O26 O 0.2462(7) 0.9242(7) 0.0169(6)
O27 O 0.1602(8) 0.7297(7) -0.3508(6)
O28 O 0.0576(6) 0.7508(6) -0.2291(6)
O29 O -0.1901(6) 0.7750(5) -0.4818(5)
O30 O 0.3976(7) 0.8567(7) 0.4040(7)
O31 O 0.1084(7) 0.8209(6) -0.3172(6)
O32 O 0.4562(7) 0.8038(6) 0.3294(6)
O33 O -0.0018(8) 0.8507(6) -0.3567(6)
O34 O 0.3219(7) 0.6625(6) 0.1901(6)
O35 O 0.2093(7) 0.7382(6) 0.0217(6)
O36 O -0.0496(8) 0.7234(5) -0.1636(6)
O37 O -0.3686(9) 0.8044(7) -0.3195(7)
O38 O 0.5815(7) 0.7635(7) 0.1179(6)
O39 O 0.2384(7) 0.8501(6) 0.2615(6)
O40 O -0.2743(8) 0.8406(6) -0.5211(6)
O41 O 0.5129(7) 0.6981(6) 0.2101(6)
O42 O 0.0457(6) 0.7314(6) -0.3198(5)
O43 O 0.5125(7) 0.7120(6) 0.3001(6)
O44 O -0.1471(7) 0.6565(6) -0.4433(6)
O45 O 0.3488(7) 0.7698(6) 0.3914(5)
O46 O 0.2745(6) 0.7035(5) 0.1038(5)
O47 O 0.0894(7) 0.9079(6) -0.4012(6)
O48 O -0.3219(8) 0.6207(6) -0.3409(6)
O49 O -0.0929(8) 0.8345(6) -0.1965(5)
O50 O -0.1195(8) 0.6804(7) -0.2495(7)
O51 O 0.0887(9) 0.9103(7) -0.4986(6)
O52 O 0.2243(6) 0.8197(5) 0.0674(5)
O53 O -0.3053(7) 0.7325(6) -0.4703(6)
O54 O 0.4349(7) 0.6968(7) 0.0085(7)
O55 O -0.1681(8) 0.8787(6) -0.5329(6)
O56 O 0.1595(7) 0.6694(5) 0.1060(6)
O57 O -0.0612(7) 0.7722(6) -0.2561(6)
O58 O 0.3853(7) 0.7422(6) 0.0903(6)
O59 O 0.3382(7) 0.8516(6) 0.0577(5)
O60 O 0.2166(8) 0.6259(6) 0.2009(6)
O61 O -0.0749(8) 0.8068(6) -0.4967(6)
O62 O 0.2929(7) 0.9228(6) 0.1724(5)
O63 O 0.2218(7) 0.8954(6) 0.1205(6)
O64 O -0.2115(8) 0.5770(6) -0.5163(7)
O65 O 0.4540(7) 0.7754(6) 0.1385(6)
O66 O 0.0994(7) 0.7362(6) 0.2530(6)
O67 O -0.0126(8) 0.6550(6) -0.2239(6)
O68 O 0.3868(6) 0.9860(5) 0.1244(6)
O69 O 0.2141(7) 0.6209(6) 0.0287(6)
O70 O 0.5101(7) 0.8587(6) 0.1394(6)
O71 O -0.0089(7) 0.9465(6) -0.3403(6)
O72 O 0.4889(7) 0.9601(6) 0.1590(6)
O73 O -0.0860(7) 0.7327(6) -0.5403(6)
O74 O -0.2624(7) 0.6252(7) -0.4383(6)
O75 O 0.3414(6) 0.8207(5) 0.2975(6)
O76 O 0.3177(7) 0.6709(6) 0.0235(6)
O77 O -0.2101(8) 0.6941(6) -0.5261(6)
O78 O -0.0946(6) 0.6148(6) -0.3580(6)
O79 O 0.3696(8) 0.6326(6) 0.1051(6)
O80 O 0.1152(7) 0.8612(6) 0.1295(5)
O81 O -0.2013(8) 0.5801(6) -0.3451(6)
O82 O 0.2906(8) 0.7250(6) 0.3010(6)
O83 O 0.4955(7) 0.9611(7) 0.0588(6)
O84 O 0.2422(6) 0.7921(6) 0.3615(5)
O85 O -0.1078(8) 0.6241(6) -0.5233(5)
O86 O 0.3332(7) 0.7802(5) 0.0101(6)
O87 O -0.0219(7) 0.6456(6) -0.3112(6)
O88 O 0.4077(7) 0.9093(6) 0.2983(5)
O89 O 0.1632(7) 0.8286(6) 0.2096(6)
O90 O -0.1097(8) 0.8923(6) -0.2920(6)
O91 O 0.1657(6) 0.7438(6) 0.1637(5)
O92 O 0.0391(7) 0.7256(6) -0.4159(6)
O93 O -0.1620(8) 0.5538(6) -0.4319(6)
O94 O 0.0995(7) 0.6449(6) -0.3478(6)
O95 O 0.2200(7) 0.7036(6) 0.2447(6)
O96 O -0.0162(8) 0.9386(6) -0.4318(6)
O97 O 0.1030(7) 0.8058(6) -0.4201(6)
O98 O -0.2443(7) 0.7821(6) -0.3377(6)
O99 O 0.2825(8) 1.0366(6) 0.1737(7)
O100 O 0.0104(8) 0.8080(6) -0.1551(6)
O101 O -0.0511(8) 0.5856(6) -0.4439(6)
O102 O -0.3916(9) 0.6514(7) -0.4134(7)
O103 O -0.3141(8) 0.6947(7) -0.2918(6)
O104 O 0.3517(7) 0.8946(6) -0.0489(6)
O105 O 0.3230(8) 0.5488(7) 0.1934(7)
O106 O -0.2497(6) 0.7002(6) -0.3826(5)
O107 O 0.0538(8) 0.5626(7) -0.2552(7)
O108 O 0.1378(8) 0.6218(6) 0.2966(6)
O109 O 0.1026(8) 0.9335(7) -0.3163(7)
O110 O 0.0145(8) 0.8571(6) -0.2598(6)
O111 O -0.3627(8) 0.7298(6) -0.3738(7)
O112 O 0.3927(7) 0.7024(6) 0.3310(6)
O113 O 0.5082(7) 0.8730(6) 0.2443(6)
O114 O -0.1896(7) 0.8520(6) -0.4287(6)
O115 O 0.1061(7) 0.6592(7) -0.2606(6)
O116 O -0.1574(7) 0.7493(6) -0.1900(6)
O117 O -0.1189(8) 0.6347(7) -0.1432(7)
O118 O -0.1106(9) 0.9896(6) -0.3806(7)
O119 O -0.1672(8) 0.8082(6) -0.2885(6)
O120 O 0.2884(8) 0.9379(7) 0.2623(6)
O121 O 0.4950(7) 0.9886(6) 0.2435(7)
O122 O 0.3881(7) 0.9947(5) 0.2166(6)
O123 O 0.283(1) 0.6790(7) 0.4074(7)
O124 O 0.1840(8) 0.7338(8) -0.2617(8)
O125 O 0.1662(8) 0.7093(8) -0.4426(7)
O126 O 0.1847(7) 0.9015(6) 0.3383(6)
O127 O 0.0141(8) 0.6465(7) -0.5391(6)
O128 O 0.5830(8) 0.7901(6) 0.3024(7)
O129 O 0.0363(8) 0.8429(6) 0.2281(7)
O130 O -0.2786(9) 0.5793(7) -0.2492(7)
O131 O -0.0983(10) 0.5020(6) -0.3534(7)
O132 O -0.2684(9) 0.9300(7) -0.4840(6)
O133 O 0.4754(11) 0.8357(8) 0.0153(8)
O134 O 0.0572(12) 0.7777(12) -0.5397(10)
N1 N -0.0038(17) 0.9686(11) -0.0911(13)
N2 N -0.2530(9) 0.9140(7) -0.3447(7)
N3 N 0.1501(10) 0.9564(8) 0.2074(7)
N4 N 0.1012(8) 1.0306(7) 0.2341(7)
N5 N 0.297(1) 0.5939(7) 0.3100(7)
N6 N 0.1349(11) 0.8557(10) -0.1562(8)
N7 N 0.1307(11) 0.7397(8) -0.1017(9)
N8 N 0.0176(9) 0.7649(9) -0.0366(8)
N9 N -0.0402(13) 0.7293(12) 0.0393(10)
N10 N 0.2771(9) 0.5054(7) 0.3460(8)
N11 N -0.4199(9) 0.7697(8) -0.5782(8)
N12 N -0.4707(15) 0.736(1) -0.5004(10)
N13 N -0.1195(9) 0.5487(8) -0.2376(8)
N14 N -0.1517(12) 0.4630(8) -0.1961(8)
N15 N -0.1788(14) 0.7898(14) -0.7302(13)
N16 N 0.0255(9) 0.8833(8) -0.0900(9)
N17 N 0.1921(13) 0.6816(14) -0.1337(14)
N18 N 0.1748(15) 0.9013(14) -0.2366(11)
N19 N -0.3619(17) 0.9555(12) -0.6510(16)
N20 N -0.294(2) 0.6109(13) -0.6139(16)
N21 N -0.3337(9) 0.6984(8) -0.6276(8)
N22 N -0.2738(11) 0.7890(8) -0.6938(8)
N23 N -0.3640(8) 0.8665(7) -0.6528(7)
N24 N -0.2971(10) 0.9870(9) -0.3194(9)
C1 C 0.0052(13) 0.7609(11) 0.0121(12)
C2 C 0.1517(12) 0.9945(10) 0.2322(10)
C3 C -0.5091(12) 0.7778(11) -0.5281(10)
C4 C -0.2883(17) 0.6623(13) -0.6135(14)
C5 C -0.3049(13) 0.9349(11) -0.3618(12)
C6 C 0.1290(15) 0.8771(13) -0.2040(12)
C7 C -0.4752(11) 0.7958(11) -0.5760(12)
C8 C -0.1005(19) 0.5270(11) -0.1915(12)
C9 C -0.1207(17) 0.4772(14) -0.1648(15)
C10 C -0.4176(16) 0.7340(12) -0.5302(11)
C11 C -0.2511(14) 0.9486(10) -0.3175(9)
C12 C -0.0509(10) 0.9430(9) -0.0806(10)
C13 C -0.1479(14) 0.5076(10) -0.2370(12)
C14 C -0.3327(12) 0.9816(12) -0.3486(13)
C15 C -0.0186(16) 0.7317(13) -0.0420(13)
C16 C -0.0347(14) 0.8910(13) -0.0796(13)
C17 C 0.0957(12) 0.9712(10) 0.1932(10)
C18 C -0.0545(16) 0.7076(14) 0.0057(12)
C19 C 0.0485(13) 0.9329(9) -0.0973(12)
C20 C -0.3511(12) 0.8970(12) -0.6275(12)
C21 C 0.1595(14) 0.7054(12) -0.0671(12)
C22 C 0.0627(13) 1.0157(11) 0.2107(11)
C23 C 0.2660(13) 0.5533(10) 0.3129(11)
C24 C 0.1894(15) 0.8658(17) -0.1550(14)
C25 C 0.3185(17) 0.5134(11) 0.3676(13)
C26 C 0.3305(13) 0.5677(12) 0.3450(12)
C27 C -0.3772(15) 0.9566(12) -0.6940(15)
C28 C -0.3763(15) 0.9033(12) -0.6971(12)
C29 C -0.3482(19) 0.6125(12) -0.6267(15)
C30 C -0.2682(15) 0.7797(14) -0.7369(16)
C31 C -0.2237(14) 0.7967(16) -0.6883(15)
C32 C 0.1981(17) 0.6685(15) -0.0854(14)
C33 C 0.1507(17) 0.7251(15) -0.1453(15)
C34 C -0.3708(19) 0.6644(14) -0.6313(15)
C35 C 0.2153(18) 0.8917(18) -0.2068(18)
C36 C -0.2068(17) 0.7813(18) -0.7614(19)
H1 H -0.00450 1.00420 -0.09400
H2 H 0.09370 1.05800 0.24750
H3 H -0.05710 0.72350 0.07120
H4 H 0.26110 0.47410 0.35300
H5 H -0.48080 0.71510 -0.46890
H6 H -0.16870 0.43240 -0.18930
H7 H -0.14060 0.79080 -0.73460
H8 H 0.21280 0.66380 -0.15480
H9 H 0.17870 0.91910 -0.26890
H10 H -0.35940 0.98360 -0.64080
H11 H -0.26890 0.58130 -0.60720
H12 H -0.30430 1.01270 -0.30410
H13 H 0.02600 0.77830 0.02610
H14 H 0.18380 0.99530 0.24590
H15 H -0.54890 0.79010 -0.51600
H16 H -0.25630 0.67160 -0.60450
H17 H -0.31960 0.91860 -0.38080
H18 H 0.09430 0.87480 -0.21370
H19 H -0.48860 0.82280 -0.60370
H20 H -0.07670 0.54550 -0.18120
H21 H -0.11590 0.45520 -0.13200
H22 H -0.38350 0.71190 -0.52030
H23 H -0.22120 0.94540 -0.30000
H24 H -0.09050 0.95930 -0.07460
H25 H -0.16450 0.51000 -0.26420
H26 H -0.36720 1.00420 -0.35720
H27 H -0.01940 0.72590 -0.07250
H28 H -0.06060 0.86320 -0.07280
H29 H 0.08250 0.95370 0.17440
H30 H -0.08290 0.68180 0.01360
H31 H 0.08840 0.94060 -0.10440
H32 H -0.33650 0.88130 -0.59760
H33 H 0.15330 0.70700 -0.03390
H34 H 0.02390 1.03190 0.20750
H35 H 0.23850 0.55880 0.29270
H36 H 0.20610 0.85770 -0.12660
H37 H 0.33550 0.48640 0.39330
H38 H 0.35800 0.58510 0.35240
H39 H -0.38720 0.99010 -0.71880
H40 H -0.38280 0.89400 -0.72420
H41 H -0.36430 0.58320 -0.63100
H42 H -0.29890 0.77330 -0.74940
H43 H -0.21780 0.80560 -0.66080
H44 H 0.22390 0.63970 -0.06860
H45 H 0.13840 0.74160 -0.17610
H46 H -0.40950 0.67750 -0.63680
H47 H 0.25500 0.90110 -0.21920
H48 H -0.18920 0.77710 -0.79350
Cu9 Cu 0.18379(17) 0.07619(17) 0.87892(15)
O135 O 0.1851(12) -0.0213(9) 0.9284(10)
N25 N 0.2006(15) 0.1107(14) 1.0034(15)
N26 N 0.1802(12) 0.0621(10) 0.8156(10)
N27 N 0.2759(13) 0.0716(15) 0.8595(12)
N28 N 0.1888(12) 0.1066(11) 0.9321(11)
N29 N 0.0956(11) 0.0899(11) 0.9001(9)
N30 N 0.0009(10) 0.1291(10) 0.9077(10)
N31 N 0.1970(19) 0.0585(13) 0.7353(14)
N32 N 0.3696(14) 0.087(2) 0.8369(12)
C37 C 0.216(2) 0.0692(15) 0.7687(13)
C38 C 0.0617(12) 0.0687(14) 0.9496(12)
C39 C 0.0060(15) 0.0928(14) 0.9534(12)
C40 C 0.2116(19) 0.0777(18) 0.9731(16)
C41 C 0.1312(18) 0.0487(16) 0.8036(15)
C42 C 0.0561(16) 0.1264(14) 0.8752(14)
C43 C 0.1683(18) 0.1624(15) 0.9863(14)
C44 C 0.3702(18) 0.034(3) 0.8396(18)
C45 C 0.163(2) 0.1595(15) 0.9422(13)
C46 C 0.312(2) 0.1104(17) 0.8489(16)
C47 C 0.313(3) 0.024(2) 0.848(2)
C48 C 0.143(2) 0.0456(16) 0.7567(18)
H49 H 0.21290 0.10040 1.03160
H50 H -0.03100 0.15030 0.90000
H51 H 0.21640 0.05970 0.70470
H52 H 0.40130 0.10510 0.82860
H53 H 0.25430 0.08170 0.76090
H54 H 0.07640 0.04120 0.97640
H55 H -0.02450 0.08570 0.98300
H56 H 0.23160 0.04100 0.97950
H57 H 0.09400 0.04260 0.82640
H58 H 0.06490 0.14720 0.84050
H59 H 0.15420 0.19120 1.00140
H60 H 0.40400 0.00790 0.83620
H61 H 0.14430 0.18920 0.91950
H62 H 0.30060 0.14780 0.84940
H63 H 0.29960 -0.00870 0.84670
H64 H 0.11620 0.03580 0.74190
Cu10 Cu 0.50000 1.00000 0.50000
O136 O 0.6123(18) 1.0269(13) 0.4566(19)
N33 N 0.5923(12) 0.8400(11) 0.5438(11)
N34 N 0.4828(15) 0.9628(15) 0.3713(12)
N35 N 0.4899(12) 0.9955(8) 0.4315(10)
N36 N 0.5313(10) 0.9181(9) 0.5207(9)
C49 C 0.4889(15) 0.9463(11) 0.4200(11)
C50 C 0.4849(17) 1.0376(11) 0.3909(13)
C51 C 0.4795(12) 1.0184(10) 0.3546(11)
C52 C 0.5005(16) 0.8694(13) 0.5507(12)
C53 C 0.5867(14) 0.8968(13) 0.5173(14)
C54 C 0.5376(14) 0.8255(13) 0.5639(15)
H65 H 0.62520 0.81820 0.54660
H66 H 0.48120 0.94070 0.35420
H67 H 0.49190 0.90890 0.44180
H68 H 0.48500 1.07590 0.38760
H69 H 0.47420 1.04100 0.32220
H70 H 0.45880 0.86920 0.55960
H71 H 0.61940 0.91800 0.49880
H72 H 0.52710 0.78910 0.58450
Cu11 Cu 0.50000 0.50000 0.50000
O137 O 0.545(2) 0.4967(19) 0.407(2)
N37 N 0.4502(17) 0.6659(11) 0.4166(13)
N38 N 0.4716(13) 0.5806(10) 0.474(1)
N39 N 0.6709(14) 0.5212(13) 0.5048(14)
N40 N 0.5766(12) 0.5213(9) 0.5060(11)
C55 C 0.6460(19) 0.5718(13) 0.5089(15)
C56 C 0.6309(14) 0.4921(13) 0.5043(12)
C57 C 0.5877(16) 0.5736(10) 0.5063(14)
C58 C 0.4741(14) 0.6153(12) 0.4233(12)
C59 C 0.4417(19) 0.6179(12) 0.4979(16)
C60 C 0.4276(16) 0.6700(15) 0.4650(18)
H73 H 0.44860 0.69220 0.38790
H74 H 0.70850 0.50970 0.50280
H75 H 0.66440 0.60000 0.51270
H76 H 0.63880 0.45480 0.50300
H77 H 0.55960 0.60540 0.50490
H78 H 0.49250 0.60160 0.39570
H79 H 0.43130 0.60930 0.53340
H80 H 0.40670 0.70190 0.47370
Cu12 Cu 0.00000 0.50000 0.00000
O138 O 0.104(2) 0.440(2) 0.011(2)
N41 N 0.0190(12) 0.5502(10) 0.0343(10)
N42 N 0.0611(15) 0.6104(13) 0.0539(16)
N43 N 0.0388(14) 0.5501(11) -0.0664(12)
N44 N 0.0543(17) 0.6201(14) -0.1420(13)
C61 C 0.0630(18) 0.5864(13) 0.0169(14)
C62 C 0.0158(15) 0.5938(15) 0.0920(13)
C63 C -0.006(2) 0.5547(18) 0.0805(17)
C64 C 0.0167(16) 0.5956(12) -0.1006(17)
C65 C 0.100(2) 0.5467(15) -0.0958(16)
C66 C 0.104(2) 0.5878(19) -0.1412(14)
H81 H 0.08620 0.63310 0.05230
H82 H 0.04730 0.65150 -0.16540
H83 H 0.08990 0.59370 -0.01490
H84 H 0.00160 0.60640 0.12060
H85 H -0.03550 0.53220 0.10330
H86 H -0.02390 0.60900 -0.09460
H87 H 0.13140 0.52040 -0.08490
H88 H 0.13810 0.59230 -0.16820
Na1 Na 0.3170(4) 0.9421(3) 0.0791(4)
Na2 Na -0.0925(5) 0.8966(4) 0.5266(4)
Na3 Na 0.1824(5) 0.7657(4) 0.2973(4)
Na4 Na -0.2237(5) 0.7244(4) 0.7472(4)
Na5 Na 0.4317(5) 0.6746(4) 0.1585(4)
Na6 Na 0.4828(6) 0.9405(5) -0.0158(5)
Na7 Na 0.0121(5) 0.6262(4) 0.6068(4)
Na8 Na 0.1350(6) 0.9113(4) 0.4177(4)
Na9 Na 0.3659(13) 0.4581(9) 0.1863(11)
Na10 Na -0.1127(11) 0.7056(11) 0.3698(8)
Na11 Na 0.060(3) 0.730(2) 0.3978(18)
Na12 Na 0.248(2) 0.9751(16) 0.492(2)
Na13 Na 0.283(3) 1.140(3) 0.129(3)
Na14 Na 0.041(2) 0.5347(19) 0.5162(15)
Na15 Na 0.0524(17) 0.5890(14) 0.3646(14)
O139 O 0.5909(14) 0.9134(10) -0.0457(12)
O140 O 0.3751(10) 0.9845(8) -0.0079(8)
O141 O 0.1687(11) 0.8057(11) 0.4505(9)
O142 O 0.2415(12) 1.0256(8) 0.0882(8)
O143 O -0.0403(11) 0.9592(8) 0.4513(9)
O144 O 0.2348(10) 0.9140(11) 0.4393(9)
O145 O 0.0259(15) 0.526(1) 0.6616(12)
O146 O -0.0764(12) 0.8210(11) 0.3033(10)
O147 O 0.4761(13) 0.9317(10) -0.0974(11)
O148 O 0.3777(15) 0.1057(12) 0.9494(11)
O149 O 0.1278(18) 0.5540(15) 0.4380(15)
O150 O 0.4437(17) 0.5726(11) 0.2147(16)
O151 O -0.1586(12) 0.9826(8) 0.5324(10)
O152 O 0.5214(18) 0.6567(15) 0.0976(15)
O153 O 0.893(2) 0.711(2) 0.149(2)
O154 O 0.406(2) 0.4458(19) 0.2613(19)
O155 O -0.2468(19) 0.6384(16) 0.8199(16)
O156 O 0.1626(15) 0.6787(12) 0.3706(12)
O157 O 0.0093(19) 0.5957(15) 0.2715(17)
O158 O 0.3088(18) 0.7626(15) 0.9109(15)
O159 O 0.0222(17) 0.6933(14) 0.3447(14)
O160 O 0.0451(14) 0.8933(13) 0.4037(15)
O161 O 0.0912(16) 0.6009(13) 0.5441(13)
O162 O -0.045(2) 0.564(2) 0.411(2)
O163 O -0.3121(18) 0.7876(15) 0.7772(15)
O164 O 0.0919(18) 0.8257(15) 0.3238(15)
O165 O 0.9399(12) 0.7389(13) 0.2283(16)
O166 O 0.288(2) 0.4813(17) 0.1278(17)
O167 O 0.773(2) 0.4291(19) 0.525(2)
O168 O 0.268(2) 1.2524(19) 0.1170(19)
O169 O 0.956(2) 0.5596(18) 0.2037(18)
O170 O 0.164(3) 1.140(2) 0.109(2)
O171 O 0.208(3) 0.517(2) 0.007(2)
O172 O 0.215(3) 0.846(3) 0.573(3)
O173 O 0.549(2) 0.8836(19) 0.7295(19)
O174 O 0.072(3) 0.045(2) 0.679(2)
O175 O 0.291(2) 0.7675(19) 0.4930(19)
O176 O 0.214(2) 0.074(2) 0.629(2)
O177 O 0.460(3) 0.804(2) 0.932(2)
O178 O 0.843(3) 0.718(2) 0.935(2)
O179 O 0.214(3) 0.587(2) 0.733(2)
O180 O 0.571(3) 0.761(2) 0.021(2)
O181 O 0.660(3) 0.686(3) 0.220(3)
O182 O 0.815(4) 0.444(3) 0.365(3)
O183 O 0.569(4) 0.847(3) 0.889(3)
O184 O -0.133(4) 0.637(3) 0.316(3)
O185 O 0.349(4) 0.916(3) 0.486(3)
O186 O 0.384(4) 0.343(3) 0.206(3)
O187 O 0.441(5) 0.524(4) 0.120(4)
O188 O 0.751(3) 0.058(3) 0.342(3)
O189 O 0.334(3) 0.875(3) 0.861(3)
O190 O 0.169(3) 0.998(3) 0.580(3)
O191 O -0.488(3) 0.588(3) 0.624(3)
O192? O 0.607(3) 0.894(2) 0.803(2)
O193? O 0.758(7) 0.146(6) 0.346(6)
Cu7* Cu 0.65018(15) 0.78113(12) 0.36289(12)
O128* O -0.4170(8) 0.7901(6) -0.6976(7)
O136A O 0.3877(18) 0.9731(13) 0.5434(19)
N33A N 0.4077(12) 1.1600(11) 0.4562(11)
N34A N 0.5172(15) 1.0372(15) 0.6287(12)
N35A N 0.5101(12) 1.0045(8) 0.5685(10)
N36A N 0.4687(10) 1.0819(9) 0.4793(9)
C49A C 0.5111(15) 1.0537(11) 0.5800(11)
C50A C 0.5151(17) 0.9624(11) 0.6091(13)
C51A C 0.5205(12) 0.9816(10) 0.6454(11)
C52A C 0.4995(16) 1.1306(13) 0.4493(12)
C53A C 0.4133(14) 1.1032(13) 0.4827(14)
C54A C 0.4624(14) 1.1745(13) 0.4361(15)
H65A H 0.37480 1.18180 0.45340
H66A H 0.51880 1.05930 0.64580
H67A H 0.50810 1.09110 0.55820
H68A H 0.51500 0.92410 0.61240
H69A H 0.52580 0.95900 0.67780
H70A H 0.54120 1.13080 0.44040
H71A H 0.38060 1.08200 0.50120
H72A H 0.47290 1.21090 0.41550
O137A O 0.455(2) 0.5033(19) 0.593(2)
N37A N 0.5498(17) 0.3341(11) 0.5834(13)
N38A N 0.5284(13) 0.4194(10) 0.526(1)
N39A N 0.3291(14) 0.4788(13) 0.4952(14)
N40A N 0.4234(12) 0.4787(9) 0.4940(11)
C55A C 0.3540(19) 0.4282(13) 0.4911(15)
C56A C 0.3691(14) 0.5079(13) 0.4957(12)
C57A C 0.4123(16) 0.4264(10) 0.4937(14)
C58A C 0.5259(14) 0.3847(12) 0.5767(12)
C59A C 0.5583(19) 0.3821(12) 0.5021(16)
C60A C 0.5724(16) 0.3300(15) 0.5350(18)
H73A H 0.55140 0.30780 0.61210
H74A H 0.29150 0.49030 0.49720
H75A H 0.33560 0.40000 0.48730
H76A H 0.36120 0.54520 0.49700
H77A H 0.44040 0.39460 0.49510
H78A H 0.50750 0.39840 0.60430
H79A H 0.56870 0.39070 0.46660
H80A H 0.59330 0.29810 0.52630
O138A O -0.104(2) 0.560(2) -0.011(2)
N41A N -0.0190(12) 0.4498(10) -0.0343(10)
N42A N -0.0611(15) 0.3896(13) -0.0539(16)
N43A N -0.0388(14) 0.4499(11) 0.0664(12)
N44A N -0.0543(17) 0.3799(14) 0.1420(13)
C61A C -0.0630(18) 0.4136(13) -0.0169(14)
C62A C -0.0158(15) 0.4062(15) -0.0920(13)
C63A C 0.006(2) 0.4453(18) -0.0805(17)
C64A C -0.0167(16) 0.4044(12) 0.1006(17)
C65A C -0.100(2) 0.4533(15) 0.0958(16)
C66A C -0.104(2) 0.4122(19) 0.1412(14)
H81A H -0.08620 0.36690 -0.05230
H82A H -0.04730 0.34850 0.16540
H83A H -0.08990 0.40630 0.01490
H84A H -0.00160 0.39360 -0.12060
H85A H 0.03550 0.46780 -0.10330
H86A H 0.02390 0.39100 0.09460
H87A H -0.13140 0.47960 0.08490
H88A H -0.13810 0.40770 0.16820
#END
