
#######################################################################
#
#                 Cambridge Crystallographic Data Centre
#                                CCDC
#
#######################################################################
#
# If this CIF has been generated from an entry in the Cambridge
# Structural Database, then it will include bibliographic, chemical,
# crystal, experimental, refinement or atomic coordinate data resulting
# from the CCDC's data processing and validation procedures.
#
#######################################################################

data_CSD_CIF_VOJXUO
_audit_creation_date 2009-05-27
_audit_creation_method CSD-ConQuest-V1
_database_code_CSD VOJXUO
_database_code_depnum_ccdc_archive 'CCDC 647038'
_chemical_formula_sum 'C66 H204 Cu10.5 N44 Na15 O190 Sb4 W36'
_chemical_formula_moiety
;
(Na1 1+)15n,1.5n(C12 H20 Cu1 N8 O2 2+),n(C12 H18 Cu1 N8 O1 2+),n(C36 H52 Cu8 
N24 O134 Sb4 W36 20-),52n(H2 O1)
;
_journal_coden_Cambridge 9
_journal_volume 47
_journal_year 2008
_journal_page_first 4166
_journal_name_full 'Inorg.Chem. '
loop_
_publ_author_name
"Hong Liu"
"Chao Qin"
"Yong-Ge Wei"
"Lin Xu"
"Guang-Gang Gao"
"Feng-Yan Li"
"Xiao-Shu Qu"
_chemical_name_systematic
;
catena-(pentadecasodium(i) sesquikis(diaqua-tetrakis(imidazole)-copper(ii)) 
aqua-tetrakis(imidazole)-copper(ii) 
dodecakis(\m~4~-oxo)-octaoctacontakis(\m~2~-oxo)-diaqua-dodecakis(imidazole)-d
otriacontaoxo-tetra-antimony(iii)-octa-copper(ii)-hexatriaconta-tungsten 
hydrate)
;
_cell_volume  14411.995
_exptl_crystal_colour 'blue green'
_exptl_crystal_density_diffrn 2.924
_exptl_special_details
;
antiferromagnetic
Study temperature given as 273 K in CIF. The Na atoms are coordinated but due 
to the size and complexity of the structure we have had to input them as 
ionic. Only thirteen Na ions could be resolved which led to an uncertainty in 
the Na packing
;
_exptl_crystal_description 'block'
_diffrn_ambient_temperature 190
#These two values have been output from a single CSD field.
_refine_ls_R_factor_gt 0.0888
_refine_ls_wR_factor_gt 0.0888
_symmetry_cell_setting triclinic
_symmetry_space_group_name_H-M 'P -1'
_symmetry_Int_Tables_number 2
loop_
_symmetry_equiv_pos_site_id
_symmetry_equiv_pos_as_xyz
1 x,y,z
2 -x,-y,-z
_cell_length_a 22.909(6)
_cell_length_b 24.833(6)
_cell_length_c 28.216(7)
_cell_angle_alpha 69.956(3)
_cell_angle_beta 73.716(3)
_cell_angle_gamma 79.628(3)
_cell_formula_units_Z 2
loop_
_atom_type_symbol
_atom_type_radius_bond
C 0.68
H 0.23
Cu 1.52
N 0.68
Na 0.57
O 0.68
Sb 1.46
W 1.37
loop_
_atom_site_label
_atom_site_type_symbol
_atom_site_fract_x
_atom_site_fract_y
_atom_site_fract_z
W1 W 0.33956(12) 0.83017(10) 0.76320(9)
W2 W 0.19353(11) 0.64185(10) 0.9972(1)
W3 W 0.40124(11) 0.69449(10) 0.80250(9)
W4 W 0.32310(11) 0.59591(9) 0.92588(9)
W5 W 0.19700(12) 0.88213(10) 0.8417(1)
W6 W 0.12775(12) 0.79182(10) 0.95356(10)
W7 W 0.32624(11) 0.6873(1) 0.98928(9)
W8 W 0.61151(12) 0.68784(10) 1.54891(10)
W9 W 0.73524(12) 0.63795(10) 1.47474(10)
W10 W 0.18846(12) 0.76679(10) 0.64582(9)
W11 W 0.17304(12) 0.52962(10) 0.80957(10)
W12 W 0.44889(12) 0.62434(10) 1.44128(10)
W13 W 0.04617(11) 0.81501(10) 0.72633(10)
W14 W 0.12074(11) 0.65841(10) 0.64373(9)
W15 W 0.24970(12) 0.63082(10) 0.68647(10)
W16 W 0.04272(12) 0.57406(10) 0.8816(1)
W17 W 0.57191(12) 0.57512(10) 1.36561(10)
W18 W 0.64574(12) 0.67316(10) 1.24029(10)
W19 W 0.61951(12) 0.92788(10) 1.38987(10)
W20 W 0.59104(12) 0.81078(10) 1.20004(10)
W21 W 0.45606(12) 0.86466(10) 1.28379(10)
W22 W 0.74844(12) 0.7292(1) 1.5349(1)
W23 W 0.75626(12) 0.87114(10) 1.3089(1)
W24 W 0.55117(12) 0.83965(10) 1.50387(10)
W25 W -0.02273(11) 0.72356(10) 0.8378(1)
W26 W 0.81180(12) 0.73344(10) 1.3492(1)
W27 W 0.82621(11) 0.8263(1) 1.4077(1)
W28 W 0.38806(12) 0.77664(11) 1.39863(10)
W29 W 0.04391(12) 0.5570(1) 0.7677(1)
W30 W 0.68780(12) 0.88252(10) 1.4898(1)
W31 W 0.43889(13) 0.6083(1) 1.33005(10)
W32 W 0.51272(13) 0.70709(10) 1.20297(10)
W33 W -0.02350(11) 0.70796(10) 0.72448(10)
W34 W 0.37655(12) 0.76133(11) 1.28817(10)
W35 W 0.40383(12) 0.78817(10) 0.86502(10)
W36 W 0.26057(12) 0.83932(10) 0.94401(10)
Sb1 Sb 0.12923(17) 0.68038(15) 0.77656(15)
Sb2 Sb 0.53459(18) 0.72783(15) 1.33281(14)
Sb3 Sb 0.66433(18) 0.77622(15) 1.41776(15)
Sb4 Sb 0.24800(17) 0.73242(15) 0.86851(14)
Cu1 Cu 0.6890(3) 0.6569(3) 1.3577(3)
Cu2 Cu 0.6061(3) 0.8670(3) 1.2963(3)
Cu3 Cu 0.5090(3) 0.7327(3) 1.4652(3)
Cu4 Cu 0.2843(3) 0.6139(3) 0.8060(3)
Cu5 Cu 0.1937(3) 0.8213(3) 0.7460(3)
Cu6 Cu 0.0934(3) 0.6851(3) 0.9106(3)
Cu7 Cu 0.4206(4) 0.6903(3) 1.0966(3)
Cu8 Cu -0.1496(3) 0.7183(3) 0.6388(3)
N1 N 0.3647(19) 0.6430(17) 1.1552(16)
C1 C 0.304(2) 0.635(2) 1.157(2)
N2 N 0.2747(19) 0.609(3) 1.209(2)
C2 C 0.317(3) 0.601(2) 1.2404(14)
C3 C 0.372(2) 0.622(2) 1.207(2)
N3 N 0.4779(16) 0.7377(17) 1.0405(14)
C4 C 0.515(2) 0.7763(19) 1.0432(14)
N4 N 0.5539(17) 0.7974(16) 0.9933(17)
C5 C 0.5412(17) 0.7720(17) 0.9597(12)
C6 C 0.4942(18) 0.7351(16) 0.9888(17)
N5 N -0.2215(13) 0.7097(15) 0.6931(13)
C7 C -0.2825(16) 0.7061(16) 0.6927(14)
N6 N -0.3214(13) 0.7145(17) 0.7391(16)
C8 C -0.284(2) 0.723(2) 0.7681(13)
C9 C -0.2227(18) 0.7204(18) 0.7397(16)
O1 O 0.0057(14) 0.5116(13) 0.7534(12)
O2 O 0.3364(14) 0.7680(14) 1.3549(12)
O3 O 0.6886(14) 0.7266(13) 1.4828(12)
O4 O 0.0236(16) 0.8872(15) 0.6995(14)
O5 O 0.2733(15) 0.6838(13) 0.9283(13)
O6 O 0.3369(13) 0.8330(12) 0.8979(11)
O7 O 0.0520(14) 0.7177(13) 0.7676(12)
O8 O 0.6897(14) 0.6477(13) 1.4319(12)
O9 O 0.6071(15) 0.8757(14) 1.5287(13)
O10 O 0.1755(14) 0.8289(13) 0.9807(12)
O11 O 0.3625(15) 0.6798(14) 1.0368(13)
O12 O 0.0890(15) 0.6172(14) 0.8968(13)
O13 O 0.3949(13) 0.6947(12) 1.4217(11)
O14 O -0.0145(15) 0.7863(13) 0.7017(12)
O15 O 0.5011(16) 0.6640(15) 1.4553(14)
O16 O 0.8204(13) 0.8783(12) 1.3436(11)
O17 O 0.5526(15) 0.9142(14) 1.4492(13)
O18 O 0.2239(11) 0.7945(10) 0.9013(10)
O19 O 0.4624(14) 0.6627(13) 0.7715(12)
O20 O 0.3907(16) 0.8391(15) 1.2633(13)
O21 O 0.1136(16) 0.5024(16) 0.7847(14)
O22 O 0.4068(15) 0.5900(14) 1.5022(13)
O23 O 0.1509(17) 0.7317(16) 0.6084(14)
O24 O 0.3589(13) 0.6158(12) 0.9733(11)
O25 O 0.7616(16) 0.8733(15) 1.4400(14)
O26 O 0.1595(15) 0.7204(14) 0.9976(13)
O27 O 0.7732(14) 0.6577(13) 1.5222(12)
O28 O 0.2765(14) 0.8777(13) 0.9758(12)
O29 O 0.5496(15) 0.7782(14) 1.1658(13)
O30 O 0.4000(14) 0.8421(13) 0.7985(12)
O31 O 0.6626(17) 0.6262(16) 1.5354(14)
O32 O 0.3620(16) 0.5280(15) 0.9367(14)
O33 O 0.6474(13) 0.8406(12) 1.4458(11)
O34 O 0.8556(14) 0.7741(13) 1.3794(12)
O35 O 0.2780(16) 0.6025(15) 0.8803(14)
O36 O 0.5180(15) 0.8574(14) 1.3135(13)
O37 O 0.4409(16) 0.7499(14) 1.2296(13)
O38 O 0.6609(14) 0.9455(13) 1.4367(12)
O39 O 0.3971(18) 0.8519(17) 1.3520(15)
O40 O 0.7953(15) 0.6802(14) 1.4187(13)
O41 O 0.4992(13) 0.6541(12) 1.3545(11)
O42 O 0.1028(15) 0.6040(13) 0.7948(12)
O43 O 0.0075(15) 0.5445(14) 0.8402(12)
O44 O 0.2100(15) 0.5743(14) 0.8268(13)
O45 O 0.4532(14) 0.7698(13) 1.3239(12)
O46 O 0.2533(14) 0.5779(14) 0.9835(12)
O47 O 0.4693(16) 0.8094(15) 0.8737(14)
O48 O 0.1068(16) 0.7584(14) 0.9146(13)
O49 O 0.1559(15) 0.6796(14) 0.7051(13)
O50 O 0.5641(16) 0.6522(15) 1.6078(14)
O51 O 0.3872(18) 0.6824(17) 1.3231(16)
O52 O 0.4866(15) 0.8544(13) 1.5444(12)
O53 O 0.8042(14) 0.7678(13) 1.4720(12)
O54 O 0.5811(15) 0.7668(14) 1.5470(13)
O55 O 0.1086(13) 0.7969(11) 0.6684(11)
O56 O -0.0167(16) 0.6395(15) 0.8642(14)
O57 O 0.1065(14) 0.6428(13) 0.5939(12)
O58 O 0.6525(15) 0.7528(14) 1.1900(13)
O59 O 0.4848(14) 0.6456(13) 1.2624(12)
O60 O 0.7092(15) 0.8053(14) 1.5282(13)
O61 O 0.2114(14) 0.7782(12) 0.6989(12)
O62 O 0.3834(12) 0.6374(11) 0.8733(10)
O63 O 0.3276(15) 0.7910(14) 1.4474(13)
O64 O 0.5135(16) 0.8420(15) 1.2254(14)
O65 O -0.0086(16) 0.6241(15) 0.7567(14)
O66 O 0.2017(14) 0.6209(13) 0.6390(12)
O67 O 0.5296(14) 0.8049(13) 1.4653(12)
O68 O 0.6672(14) 0.6911(13) 1.2909(12)
O69 O 0.4569(14) 0.7726(13) 1.4219(12)
O70 O 0.2135(16) 0.5644(15) 0.7338(14)
O71 O 0.2524(15) 0.6546(14) 1.0300(13)
O72 O 0.1482(14) 0.6003(13) 1.0537(12)
O73 O 0.7477(16) 0.7119(15) 1.3403(14)
O74 O 0.7792(15) 0.9246(14) 1.2489(13)
O75 O 0.6749(15) 0.6984(14) 1.5814(13)
O76 O 0.5067(15) 0.5536(14) 1.3412(13)
O77 O 0.5720(14) 0.6901(13) 1.5010(12)
O78 O 0.3300(14) 0.7554(13) 0.8398(12)
O79 O 0.0898(17) 0.5892(16) 0.7010(15)
O80 O 0.5147(14) 0.5625(13) 1.4332(12)
O81 O 0.4040(16) 0.5911(15) 1.4070(14)
O82 O 0.1280(17) 0.8647(16) 0.8978(14)
O83 O 0.3384(16) 0.6717(15) 0.7885(14)
O84 O 0.2774(14) 0.8760(13) 0.8039(12)
O85 O 0.3134(17) 0.7654(16) 1.2671(16)
O86 O 0.2221(15) 0.8213(14) 0.5914(13)
O87 O 0.6134(13) 0.6238(12) 1.3804(11)
O88 O 0.2332(17) 0.9020(16) 0.8908(14)
O89 O 0.5907(16) 0.8886(15) 1.3571(14)
O90 O -0.0138(15) 0.8033(14) 0.7904(13)
O91 O 0.0600(17) 0.8014(15) 0.9957(14)
O92 O 0.771(2) 0.5712(19) 1.4800(17)
O93 O 0.5917(16) 0.6713(15) 1.1988(14)
O94 O 0.0466(15) 0.7271(14) 0.8583(13)
O95 O 0.8100(15) 0.8056(14) 1.2944(12)
O96 O 0.2791(15) 0.7998(14) 0.7545(13)
O97 O 0.6130(15) 0.5028(14) 1.3809(13)
O98 O 0.7476(13) 0.7998(12) 1.3866(11)
O99 O -0.0824(14) 0.7100(13) 0.6955(12)
O100 O 0.3205(16) 0.5974(15) 0.6584(14)
O101 O 0.0450(14) 0.6945(13) 0.6710(12)
O102 O 0.1073(13) 0.8114(12) 0.7601(11)
O103 O 0.3926(18) 0.5623(17) 1.3232(15)
O104 O 0.4894(15) 0.6943(13) 1.1534(12)
O105 O 0.3873(15) 0.7248(14) 0.9268(13)
O106 O 0.5582(15) 0.7280(14) 1.2584(13)
O107 O 0.8749(18) 0.6993(16) 1.3176(15)
O108 O 0.2573(16) 0.7085(15) 0.6391(14)
O109 O 0.3652(15) 0.8815(14) 0.7042(13)
O110 O 0.5977(15) 0.9979(14) 1.3599(13)
O111 O 0.2143(16) 0.4631(15) 0.8247(14)
O112 O 0.4421(19) 0.9407(18) 1.2560(16)
O113 O 0.4023(14) 0.7660(13) 0.7465(12)
O114 O 0.6988(15) 0.9187(13) 1.3482(12)
O115 O 0.7073(15) 0.9209(14) 1.5219(13)
O116 O 0.2826(14) 0.7634(13) 0.9840(12)
O117 O 0.6072(14) 0.6069(13) 1.2948(12)
O118 O 0.6136(15) 0.8646(14) 1.1456(13)
O119 O 0.4442(14) 0.7370(13) 0.8290(12)
O120 O 0.6170(15) 0.8200(13) 1.2491(12)
O121 O -0.2096(16) 0.7207(15) 0.5818(14)
O122 O 0.1739(15) 0.8395(14) 0.8070(13)
O123 O 0.0000(16) 0.5359(15) 0.9420(14)
O124 O 0.8879(16) 0.8475(15) 1.4152(14)
O125 O 0.1747(17) 0.9533(15) 0.8102(14)
O126 O -0.0681(16) 0.7178(15) 0.7881(14)
O127 O 0.7094(14) 0.6402(13) 1.2137(12)
O128 O 0.1583(15) 0.6483(14) 0.9464(13)
O129 O 0.2656(16) 0.6481(15) 0.7379(14)
O130 O 0.6919(15) 0.8446(14) 1.3023(13)
O131 O 0.1136(17) 0.5172(16) 0.8767(15)
O132 O -0.0871(17) 0.7351(16) 0.8833(15)
N7 N 0.3520(14) 0.5423(13) 0.7934(13)
C10 C 0.3516(15) 0.5066(16) 0.7635(14)
N8 N 0.4063(17) 0.4691(13) 0.7624(13)
C11 C 0.4405(13) 0.4817(16) 0.7916(15)
C12 C 0.4069(16) 0.5269(15) 0.8107(14)
N9 N -0.0827(13) 0.7304(16) 0.5764(13)
C13 C -0.0243(16) 0.6996(13) 0.5778(12)
N10 N 0.0145(13) 0.7184(16) 0.5274(15)
C14 C -0.020(2) 0.7607(17) 0.4949(11)
C15 C -0.0800(17) 0.7682(15) 0.5251(16)
C16 C 0.6442(17) 0.9953(16) 1.2428(11)
C17 C 0.6533(15) 1.0391(12) 1.1940(13)
N11 N 0.6282(19) 1.0232(16) 1.1606(11)
C18 C 0.6036(17) 0.9695(15) 1.1888(15)
N12 N 0.6135(17) 0.9523(12) 1.2396(13)
N13 N 0.7514(15) 0.5820(15) 1.3472(16)
C19 C 0.7500(16) 0.5457(18) 1.3181(16)
N14 N 0.8043(19) 0.5076(15) 1.3173(14)
C20 C 0.8393(14) 0.5204(16) 1.3457(16)
C21 C 0.8066(17) 0.5664(15) 1.3642(13)
N15 N 0.4688(18) 0.6212(15) 1.0884(15)
C22 C 0.4453(15) 0.570(2) 1.0923(18)
N16 N 0.495(2) 0.5277(14) 1.0875(17)
C23 C 0.5494(16) 0.5522(17) 1.0806(15)
C24 C 0.5332(17) 0.6100(15) 1.0811(15)
O133 O 0.012(2) 0.664(2) 0.984(2)
N17 N 0.3668(15) 0.7586(13) 1.1064(15)
C25 C 0.3356(17) 0.7964(16) 1.0688(11)
N18 N 0.2987(16) 0.8389(14) 1.0901(16)
C26 C 0.3070(19) 0.8273(18) 1.1408(16)
C27 C 0.3491(19) 0.7776(18) 1.1508(12)
N19 N 0.2008(16) 0.9051(11) 0.6893(13)
C28 C 0.2340(15) 0.9465(15) 0.6923(12)
N20 N 0.2226(16) 0.9995(12) 0.6543(14)
C29 C 0.1824(17) 0.9909(15) 0.6279(13)
C30 C 0.1689(16) 0.9326(16) 0.6495(15)
O134 O 0.440(3) 0.702(3) 1.552(2)
N21 N -0.165(2) 0.7991(14) 0.6280(15)
C31 C -0.1246(17) 0.834(2) 0.632(2)
N22 N -0.155(3) 0.8905(18) 0.626(2)
C32 C -0.214(2) 0.8900(17) 0.6186(19)
C33 C -0.2198(17) 0.834(2) 0.6200(19)
N23 N -0.1372(16) 0.6350(11) 0.6558(14)
C34 C -0.1182(17) 0.5941(16) 0.6994(13)
N24 N -0.1230(19) 0.5383(13) 0.6985(15)
C35 C -0.1449(19) 0.5446(14) 0.6543(17)
C36 C -0.1537(17) 0.6044(17) 0.6280(12)
H1 H 0.28710 0.64490 1.12840
H2 H 0.23770 0.59970 1.22060
H3 H 0.30930 0.58470 1.27630
H4 H 0.40770 0.62200 1.21690
H5 H 0.51360 0.78600 1.07250
H6 H 0.58060 0.82150 0.98490
H7 H 0.56030 0.77830 0.92480
H8 H 0.47710 0.71300 0.97630
H9 H -0.29480 0.69940 0.66670
H10 H -0.36050 0.71430 0.74800
H11 H -0.29820 0.72990 0.80010
H12 H -0.18890 0.72470 0.74980
H13 H 0.32090 0.50760 0.74740
H14 H 0.41690 0.44340 0.74680
H15 H 0.47830 0.46340 0.79720
H16 H 0.41890 0.54350 0.83110
H17 H -0.01340 0.67200 0.60670
H18 H 0.05230 0.70620 0.51830
H19 H -0.00550 0.78020 0.45990
H20 H -0.11190 0.79330 0.51340
H21 H 0.65620 0.99490 1.27180
H22 H 0.67230 1.07240 1.18540
H23 H 0.62790 1.04260 1.12890
H24 H 0.58440 0.94920 1.17620
H25 H 0.71900 0.54670 1.30250
H26 H 0.81420 0.48150 1.30210
H27 H 0.87700 0.50200 1.35130
H28 H 0.81910 0.58330 1.38400
H29 H 0.40440 0.56570 1.09720
H30 H 0.49270 0.49310 1.08860
H31 H 0.58880 0.53370 1.07640
H32 H 0.56010 0.63600 1.07730
H33 H 0.33890 0.79390 1.03600
H34 H 0.27540 0.86680 1.07490
H35 H 0.28830 0.84850 1.16340
H36 H 0.36270 0.76060 1.18120
H37 H 0.25890 0.93990 0.71510
H38 H 0.23750 1.03120 0.64840
H39 H 0.16750 1.01870 0.60110
H40 H 0.14360 0.91540 0.63940
H41 H -0.08530 0.82270 0.63670
H42 H -0.14040 0.91970 0.62640
H43 H -0.24330 0.92120 0.61380
H44 H -0.25380 0.82120 0.61630
H45 H -0.10500 0.60240 0.72420
H46 H -0.11420 0.50620 0.72070
H47 H -0.15230 0.51490 0.64440
H48 H -0.16780 0.62070 0.59780
N25 N 0.2266(17) 0.430(3) 1.146(2)
C37 C 0.187(3) 0.3883(18) 1.153(2)
N26 N 0.126(2) 0.415(2) 1.1607(16)
C38 C 0.128(2) 0.472(2) 1.1587(19)
C39 C 0.190(3) 0.481(2) 1.150(2)
Cu9 Cu 0.3162(4) 0.4244(4) 1.1230(4)
N27 N 0.319(2) 0.4360(18) 1.1859(15)
C40 C 0.3729(17) 0.449(2) 1.1925(17)
N28 N 0.361(2) 0.4536(18) 1.2433(19)
C41 C 0.299(2) 0.4430(19) 1.2681(13)
C42 C 0.2729(16) 0.432(2) 1.2326(19)
N29 N 0.3130(19) 0.3933(19) 1.0741(14)
C43 C 0.2897(19) 0.4234(16) 1.0294(17)
N30 N 0.301(2) 0.387(2) 0.9981(15)
C44 C 0.331(3) 0.334(2) 1.023(2)
C45 C 0.339(3) 0.3380(18) 1.070(2)
O135 O 0.3217(18) 0.5219(17) 1.0731(15)
N31 N 0.4065(14) 0.4101(19) 1.0979(18)
C46 C 0.449(2) 0.3699(17) 1.1232(13)
N32 N 0.5073(16) 0.3739(16) 1.0876(17)
C47 C 0.5004(18) 0.4167(18) 1.0404(14)
C48 C 0.438(2) 0.4391(16) 1.0468(16)
H49 H 0.19870 0.35070 1.15240
H50 H 0.09370 0.39860 1.16560
H51 H 0.09470 0.49920 1.16260
H52 H 0.20460 0.51540 1.14690
H53 H 0.40990 0.45430 1.16780
H54 H 0.38660 0.46130 1.25670
H55 H 0.27930 0.44320 1.30170
H56 H 0.23290 0.42400 1.23890
H57 H 0.27040 0.46060 1.02210
H58 H 0.29140 0.39500 0.96890
H59 H 0.34430 0.30240 1.01120
H60 H 0.35730 0.30950 1.09430
H61 H 0.44070 0.34520 1.15710
H62 H 0.54070 0.35400 1.09360
H63 H 0.53130 0.42810 1.01050
H64 H 0.42100 0.46760 1.02180
Cu10 Cu 0.00000 1.00000 0.50000
N33 N -0.0748(14) 0.975(2) 0.4946(16)
C49 C -0.128(2) 1.0144(14) 0.4990(18)
N34 N -0.1776(14) 0.9883(18) 0.4978(17)
C50 C -0.155(2) 0.9329(17) 0.4927(17)
C51 C -0.0917(19) 0.9247(16) 0.4907(19)
N35 N -0.0260(16) 1.0795(12) 0.4747(15)
C52 C -0.0224(16) 1.1147(16) 0.4224(13)
N36 N -0.0571(17) 1.1680(13) 0.4231(14)
C53 C -0.0821(17) 1.1658(16) 0.4758(17)
C54 C -0.0628(19) 1.1111(18) 0.5076(11)
O136 O 0.046(4) 1.005(3) 0.405(3)
H65 H -0.12990 1.05080 0.50210
H66 H -0.21470 1.00330 0.49980
H67 H -0.17810 0.90650 0.49100
H68 H -0.06570 0.89210 0.48750
H69 H -0.00110 1.10460 0.39300
H70 H -0.06210 1.19660 0.39640
H71 H -0.10670 1.19510 0.48740
H72 H -0.07260 1.09820 0.54370
Cu11 Cu 0.00000 0.50000 0.50000
N37 N -0.0316(19) 0.5820(12) 0.4789(14)
C55 C -0.0939(16) 0.6009(18) 0.4787(17)
N38 N -0.0978(16) 0.6607(18) 0.4511(17)
C56 C -0.038(2) 0.6787(13) 0.4342(15)
C57 C 0.0030(14) 0.6300(17) 0.4514(15)
C58 C -0.017(2) 0.5407(13) 0.3881(17)
C59 C -0.0235(19) 0.5207(18) 0.3484(12)
N39 N -0.0227(18) 0.4598(18) 0.3681(15)
C60 C -0.0159(18) 0.4422(13) 0.4199(15)
N40 N -0.0126(16) 0.4922(17) 0.4322(12)
O137 O 0.116(3) 0.531(3) 0.449(2)
H73 H -0.12640 0.57810 0.49400
H74 H -0.13060 0.68220 0.44560
H75 H -0.02730 0.71580 0.41530
H76 H 0.04500 0.62970 0.44560
H77 H -0.01640 0.57890 0.38560
H78 H -0.02740 0.54350 0.31540
H79 H -0.02570 0.43750 0.35150
H80 H -0.01400 0.40450 0.44180
Cu12 Cu 0.50000 0.00000 1.00000
N41 N 0.459(2) -0.0504(17) 1.0669(13)
C61 C 0.4870(16) -0.0984(18) 1.1001(17)
N42 N 0.443(2) -0.1182(16) 1.1476(14)
C62 C 0.3877(17) -0.082(2) 1.1437(18)
C63 C 0.397(2) -0.0405(18) 1.094(2)
N43 N 0.526(2) 0.0479(16) 1.0330(17)
C64 C 0.5709(17) 0.0880(19) 1.0124(14)
N44 N 0.567(2) 0.1157(17) 1.050(2)
C65 C 0.519(2) 0.0926(19) 1.0937(15)
C66 C 0.4943(17) 0.0507(18) 1.0832(16)
O138 O 0.605(3) -0.066(3) 1.013(3)
H81 H 0.52710 -0.11420 1.09220
H82 H 0.44910 -0.14690 1.17410
H83 H 0.35150 -0.08590 1.16930
H84 H 0.36850 -0.01170 1.08110
H85 H 0.59820 0.09500 0.98010
H86 H 0.58870 0.14180 1.04680
H87 H 0.50670 0.10300 1.12390
H88 H 0.46260 0.02890 1.10530
Na1 Na 0.2769(10) 0.222(1) 0.7469(9)
Na2 Na 0.5150(11) 0.1265(10) 0.6028(9)
Na3 Na 0.4112(10) 0.3968(9) 0.5249(8)
Na4 Na 0.1822(9) 0.5578(8) 0.9195(8)
Na5 Na 0.0652(10) 0.8249(9) 0.8432(9)
Na6 Na 0.3209(10) 0.7353(9) 0.7031(8)
O139 O 0.120(3) 0.919(3) 1.041(3)
Na7 Na 0.155(3) 0.579(3) 0.506(3)
Na8 Na 0.269(2) 0.582(2) 0.556(2)
Na9 Na -0.126(2) 0.658(2) 0.878(2)
Na10 Na 0.0207(18) 0.5596(16) 1.0153(15)
Na11 Na 0.428(2) 0.9013(19) 0.6195(17)
Na12 Na 0.617(2) 0.4116(19) 0.4135(18)
Na13 Na 0.788(3) 0.259(3) 0.498(3)
Na14 Na 0.245(3) 0.870(3) 0.493(3)
O140 O 0.462(2) 0.457(2) 0.450(2)
O141 O 0.523(2) 0.022(2) 0.6642(19)
O142 O 0.3374(19) 0.4854(18) 0.5330(16)
O143 O 0.049(3) 0.925(3) 0.790(2)
O144 O 0.125(2) 0.5086(18) 1.0056(17)
O145 O 0.256(2) 0.478(2) 0.9102(19)
O146 O 0.186(3) 0.293(3) 0.774(3)
O147 O 0.339(3) 0.828(2) 0.632(2)
O148 O 0.419(3) 0.699(3) 0.659(3)
O149 O 0.223(4) 0.358(3) 0.876(3)
O150 O 0.601(3) 0.107(3) 0.535(3)
O151 O -0.110(2) 0.902(2) 0.832(2)
O152 O -0.186(2) 0.805(2) 0.8305(19)
O153 O -0.023(2) 0.886(2) 1.0596(18)
O154 O 0.053(2) 0.973(2) 0.941(2)
O155 O 0.041(3) 0.732(3) 1.102(3)
O156 O -0.179(3) 0.827(3) 0.941(2)
O157 O 0.474(2) 0.805(2) 0.659(2)
O158 O 0.180(3) 0.745(3) 1.090(2)
O159 O 0.044(2) 0.370(2) 0.737(2)
O160 O 0.3893(19) 0.2084(18) 0.3650(17)
O161 O 0.019(2) 0.257(2) 0.692(2)
O162 O 0.679(3) 0.303(2) 0.455(2)
O163 O 0.575(2) 0.678(2) 0.6991(19)
O164 O 0.128(3) 1.048(3) 0.814(2)
O165 O -0.440(2) 0.764(2) 0.771(2)
O166 O 0.248(3) 0.524(3) 0.511(2)
O167 O 0.097(3) 0.052(3) 0.735(3)
O168 O 0.133(3) 0.698(3) 0.459(3)
O169 O 0.380(3) 0.949(3) 0.556(2)
O170 O 0.018(2) 0.568(2) 1.102(2)
O171 O 0.563(4) -0.065(3) 0.799(3)
O172 O 0.540(4) -0.058(4) 0.583(4)
O173 O 0.274(4) 0.924(3) 0.512(3)
W22* W -0.25156(12) 0.7292(1) 0.5349(1)
O121* O 0.7904(16) 0.7207(15) 1.5818(14)
N33A N 0.0748(14) 1.025(2) 0.5054(16)
C49A C 0.128(2) 0.9856(14) 0.5010(18)
N34A N 0.1776(14) 1.0117(18) 0.5022(17)
C50A C 0.155(2) 1.0671(17) 0.5073(17)
C51A C 0.0917(19) 1.0753(16) 0.5093(19)
N35A N 0.0260(16) 0.9205(12) 0.5253(15)
C52A C 0.0224(16) 0.8853(16) 0.5776(13)
N36A N 0.0571(17) 0.8320(13) 0.5769(14)
C53A C 0.0821(17) 0.8342(16) 0.5242(17)
C54A C 0.0628(19) 0.8889(18) 0.4924(11)
O136A O -0.046(4) 0.995(3) 0.595(3)
H65A H 0.12990 0.94920 0.49790
H66A H 0.21470 0.99670 0.50020
H67A H 0.17810 1.09350 0.50900
H68A H 0.06570 1.10790 0.51250
H69A H 0.00110 0.89540 0.60700
H70A H 0.06210 0.80340 0.60360
H71A H 0.10670 0.80490 0.51260
H72A H 0.07260 0.90180 0.45630
N37A N 0.0316(19) 0.4180(12) 0.5211(14)
C55A C 0.0939(16) 0.3991(18) 0.5213(17)
N38A N 0.0978(16) 0.3393(18) 0.5489(17)
C56A C 0.038(2) 0.3213(13) 0.5658(15)
C57A C -0.0030(14) 0.3700(17) 0.5486(15)
C58A C 0.017(2) 0.4593(13) 0.6119(17)
C59A C 0.0235(19) 0.4793(18) 0.6516(12)
N39A N 0.0227(18) 0.5402(18) 0.6319(15)
C60A C 0.0159(18) 0.5578(13) 0.5801(15)
N40A N 0.0126(16) 0.5078(17) 0.5678(12)
O137A O -0.116(3) 0.469(3) 0.551(2)
H73A H 0.12640 0.42190 0.50600
H74A H 0.13060 0.31780 0.55440
H75A H 0.02730 0.28420 0.58470
H76A H -0.04500 0.37030 0.55440
H77A H 0.01640 0.42110 0.61440
H78A H 0.02740 0.45650 0.68460
H79A H 0.02570 0.56250 0.64850
H80A H 0.01400 0.59550 0.55820
N41A N 0.541(2) 0.0504(17) 0.9331(13)
C61A C 0.5130(16) 0.0984(18) 0.8999(17)
N42A N 0.557(2) 0.1182(16) 0.8524(14)
C62A C 0.6123(17) 0.082(2) 0.8563(18)
C63A C 0.603(2) 0.0405(18) 0.906(2)
N43A N 0.474(2) -0.0479(16) 0.9670(17)
C64A C 0.4291(17) -0.0880(19) 0.9876(14)
N44A N 0.433(2) -0.1157(17) 0.950(2)
C65A C 0.481(2) -0.0926(19) 0.9063(15)
C66A C 0.5057(17) -0.0507(18) 0.9168(16)
O138A O 0.395(3) 0.066(3) 0.987(3)
H81A H 0.47290 0.11420 0.90780
H82A H 0.55090 0.14690 0.82590
H83A H 0.64850 0.08590 0.83070
H84A H 0.63150 0.01170 0.91890
H85A H 0.40180 -0.09500 1.01990
H86A H 0.41130 -0.14180 0.95320
H87A H 0.49330 -0.10300 0.87610
H88A H 0.53740 -0.02890 0.89470
#END
