
#######################################################################
#
#                 Cambridge Crystallographic Data Centre
#                                CCDC
#
#######################################################################
#
# If this CIF has been generated from an entry in the Cambridge
# Structural Database, then it will include bibliographic, chemical,
# crystal, experimental, refinement or atomic coordinate data resulting
# from the CCDC's data processing and validation procedures.
#
#######################################################################

data_CSD_CIF_VOKJUD
_audit_creation_date 2019-07-29
_audit_creation_method CSD-ConQuest-V1
_database_code_CSD VOKJUD
_database_code_depnum_ccdc_archive 'CCDC 1943857'
_chemical_formula_sum 'C22 H30 Cd2 Cl2 N2 O9'
_chemical_formula_moiety
;
(C16 H8 Cd2 Cl2 O8 2-)n,2(C2 H8 N1 1+),C2 H6 O1
;
_journal_coden_Cambridge 1078
_journal_year 2019
_journal_name_full 'CSD Communication(Private Communication) '
loop_
_publ_author_name
"wang wangzheng"
_chemical_name_systematic
;
catena-[bis(dimethylammonium) bis(\m-chloro)-bis(\m-terephthalato)-di-cadmium 
ethanol solvate]
;
_cell_volume   2845.886
_exptl_crystal_density_diffrn 1.779
_exptl_crystal_description 'block'
_diffrn_ambient_temperature 150
_refine_special_details
;
C11,O5 disordered by symmetry over two configurations with occupancy 0.5.

;
#These two values have been output from a single CSD field.
_refine_ls_R_factor_gt 0.0474
_refine_ls_wR_factor_gt 0.0474
_symmetry_cell_setting monoclinic
_symmetry_space_group_name_H-M 'C 2/c'
_symmetry_Int_Tables_number 15
loop_
_symmetry_equiv_pos_site_id
_symmetry_equiv_pos_as_xyz
1 x,y,z
2 -x,y,1/2-z
3 1/2+x,1/2+y,z
4 1/2-x,1/2+y,1/2-z
5 -x,-y,-z
6 x,-y,-1/2+z
7 -1/2-x,-1/2-y,-z
8 -1/2+x,-1/2-y,-1/2+z
_cell_length_a 13.0184(8)
_cell_length_b 15.4963(7)
_cell_length_c 15.3062(8)
_cell_angle_alpha 90
_cell_angle_beta 112.832(7)
_cell_angle_gamma 90
_cell_formula_units_Z 4
loop_
_atom_type_symbol
_atom_type_radius_bond
C 0.68
H 0.23
Cd 1.44
Cl 0.99
N 0.68
O 0.68
loop_
_atom_site_label
_atom_site_type_symbol
_atom_site_fract_x
_atom_site_fract_y
_atom_site_fract_z
Cd1 Cd 0.50000 0.50342(3) 0.75000
Cd2 Cd 0.50000 0.73910(3) 0.75000
Cl1 Cl 0.36354(10) 0.62128(7) 0.74971(11)
O1 O 0.3598(3) 0.3927(2) 0.7086(2)
O2 O 0.4271(3) 0.4376(2) 0.6047(2)
O3 O 0.5887(3) 0.8457(2) 0.6968(2)
O4 O 0.4148(3) 0.8121(2) 0.6041(2)
C1 C 0.3674(4) 0.3870(3) 0.6293(4)
C2 C 0.3214(4) 0.3039(3) 0.4776(4)
H1 H 0.37000 0.34090 0.46210
C3 C 0.3053(4) 0.3164(3) 0.5617(3)
C4 C 0.2338(4) 0.2629(3) 0.5836(4)
H2 H 0.22230 0.27160 0.64050
C5 C 0.5015(4) 0.8580(3) 0.6236(3)
C6 C 0.5951(4) 0.9828(3) 0.5801(4)
H3 H 0.66030 0.97090 0.63470
C7 C 0.5015(4) 0.9311(3) 0.5586(3)
C8 C 0.4064(4) 0.9485(3) 0.4776(3)
H4 H 0.34250 0.91280 0.46210
N1 N 0.2888(4) 0.6280(4) 0.3614(4)
H5 H 0.21520 0.63170 0.35080
H6 H 0.29440 0.61590 0.30520
C9 C 0.3388(7) 0.5593(6) 0.4273(6)
H7 H 0.29520 0.50640 0.40520
H8 H 0.34020 0.57490 0.48980
H9 H 0.41510 0.54960 0.43190
C10 C 0.3426(8) 0.7106(6) 0.3971(7)
H10 H 0.30740 0.75580 0.35020
H11 H 0.42190 0.70680 0.40830
H12 H 0.33470 0.72460 0.45660
O5? O 0.1071(11) 0.5020(7) 0.8022(9)
H13? H 0.05630 0.47040 0.75030
C11? C 0.0881(11) 0.5804(8) 0.8141(12)
H14? H 0.15650 0.61280 0.82140
H15? H 0.08040 0.58390 0.87580
C12? C 0.00000 0.6258(10) 0.75000
H16? H -0.00060 0.62480 0.68710
H17? H -0.06830 0.60160 0.74910
H18? H 0.00710 0.68420 0.77230
O1F O 0.1402(3) 0.1073(2) 0.2914(2)
O2F O 0.0729(3) 0.0624(2) 0.3953(2)
C1F C 0.1326(4) 0.1130(3) 0.3707(4)
C2F C 0.1786(4) 0.1961(3) 0.5224(4)
H1F H 0.13000 0.15910 0.53790
C3F C 0.1947(4) 0.1836(3) 0.4383(3)
C4F C 0.2662(4) 0.2371(3) 0.4164(4)
H2F H 0.27770 0.22840 0.35950
O3D O 0.4113(3) 1.1543(2) 0.3032(2)
O4D O 0.5852(3) 1.1879(2) 0.3959(2)
C5D C 0.4985(4) 1.1420(3) 0.3764(3)
C6D C 0.4049(4) 1.0172(3) 0.4199(4)
H3D H 0.33970 1.02910 0.36530
C7D C 0.4985(4) 1.0689(3) 0.4414(3)
C8D C 0.5936(4) 1.0515(3) 0.5224(3)
H4D H 0.65750 1.08720 0.53790
Cl1A Cl 0.63646(10) 0.62128(7) 0.75029(11)
Cd1F Cd 0.00000 -0.00342(3) 0.25000
Cd2D Cd 0.50000 1.26090(3) 0.25000
O1A O 0.6402(3) 0.3927(2) 0.7914(2)
O2A O 0.5729(3) 0.4376(2) 0.8953(2)
O3A O 0.4113(3) 0.8457(2) 0.8032(2)
O4A O 0.5852(3) 0.8121(2) 0.8959(2)
#END
