
#######################################################################
#
#                 Cambridge Crystallographic Data Centre
#                                CCDC
#
#######################################################################
#
# If this CIF has been generated from an entry in the Cambridge
# Structural Database, then it will include bibliographic, chemical,
# crystal, experimental, refinement or atomic coordinate data resulting
# from the CCDC's data processing and validation procedures.
#
#######################################################################

data_CSD_CIF_VOLXIF
_audit_creation_date 2014-08-21
_audit_creation_method CSD-ConQuest-V1
_database_code_CSD VOLXIF
_database_code_depnum_ccdc_archive 'CCDC 1020575'
_chemical_formula_sum 'C12 H18 N2 O16 Zn2'
_chemical_formula_moiety
;
(C6 O12 Zn2 2-)n,n(C6 H10 O4),2n(H4 N1 1+)
;
_journal_coden_Cambridge 4
_journal_volume 136
_journal_year 2014
_journal_page_first 7701
_journal_name_full 'J.Am.Chem.Soc. '
loop_
_publ_author_name
"M.Sadakiyo"
"T.Yamada"
"K.Honda"
"H.Matsui"
"H.Kitagawa"
_chemical_name_systematic
;
catena-(bis(Ammonium) tris(\m~2~-oxalato)-di-zinc adipic acid)
;
_cell_volume   1104.510
_exptl_crystal_colour 'colorless'
_exptl_crystal_density_diffrn 1.735
_exptl_crystal_description 'block'
_diffrn_ambient_temperature 113
#These two values have been output from a single CSD field.
_refine_ls_R_factor_gt 0.0523
_refine_ls_wR_factor_gt 0.0523
_symmetry_cell_setting monoclinic
_symmetry_space_group_name_H-M 'P 21/c'
_symmetry_Int_Tables_number 14
loop_
_symmetry_equiv_pos_site_id
_symmetry_equiv_pos_as_xyz
1 x,y,z
2 -x,1/2+y,1/2-z
3 -x,-y,-z
4 x,-1/2-y,-1/2+z
_cell_length_a 7.7002(7)
_cell_length_b 16.4928(10)
_cell_length_c 9.1611(8)
_cell_angle_alpha 90
_cell_angle_beta 108.314(1)
_cell_angle_gamma 90
_cell_formula_units_Z 2
loop_
_atom_type_symbol
_atom_type_radius_bond
C 0.68
N 0.68
O 0.68
Zn 1.22
loop_
_atom_site_label
_atom_site_type_symbol
_atom_site_fract_x
_atom_site_fract_y
_atom_site_fract_z
Zn1 Zn 0.02930(6) 0.16343(3) 0.99248(5)
O1 O -0.1251(4) 0.25052(19) 0.8455(4)
O2 O -0.1379(4) 0.07038(18) 0.8727(3)
O3 O -0.1251(4) 0.32205(19) 0.6390(4)
O4 O -0.1738(4) -0.06356(18) 0.8894(3)
O5 O 0.1937(4) 0.18157(19) 0.8528(3)
O6 O 0.2044(4) 0.26015(19) 0.6569(3)
C1 C 0.1321(5) 0.2343(3) 0.7526(5)
C2 C -0.0907(5) 0.0019(2) 0.9310(4)
C3 C -0.0566(6) 0.2721(3) 0.7464(5)
O7 O 0.4266(4) 0.0255(2) 0.7991(4)
O8 O 0.5471(4) 0.0895(2) 0.6391(4)
C4 C 0.4095(6) 0.0546(3) 0.6724(5)
C5 C 0.2327(6) 0.0555(3) 0.5409(5)
C6 C 0.0898(6) -0.0022(3) 0.5661(5)
N1 N 0.5106(5) 0.1365(2) 1.0957(4)
O2B O 0.1379(4) -0.07038(18) 1.1273(3)
C2B C 0.0907(5) -0.0019(2) 1.0690(4)
O4B O 0.1738(4) 0.06356(18) 1.1106(3)
Zn1B Zn -0.02930(6) -0.16343(3) 1.00752(5)
O1B O 0.1251(4) -0.25052(19) 1.1545(4)
O3B O 0.1251(4) -0.32205(19) 1.3610(4)
O5B O -0.1937(4) -0.18157(19) 1.1472(3)
O6B O -0.2044(4) -0.26015(19) 1.3431(3)
C1B C -0.1321(5) -0.2343(3) 1.2474(5)
C3B C 0.0566(6) -0.2721(3) 1.2536(5)
Zn1A Zn -0.02930(6) -0.33657(3) 1.50752(5)
Zn1C Zn 0.02930(6) 0.33657(3) 0.49248(5)
O3A O 0.1251(4) -0.17795(19) 0.8610(4)
O3C O -0.1251(4) 0.17795(19) 1.1390(4)
O6A O -0.2044(4) -0.23985(19) 0.8431(3)
O6C O 0.2044(4) 0.23985(19) 1.1569(3)
O7B O -0.4266(4) -0.0255(2) 0.2009(4)
O8B O -0.5471(4) -0.0895(2) 0.3609(4)
C4B C -0.4095(6) -0.0546(3) 0.3276(5)
C5B C -0.2327(6) -0.0555(3) 0.4591(5)
C6B C -0.0898(6) 0.0022(3) 0.4339(5)
#END
