
#######################################################################
#
#                 Cambridge Crystallographic Data Centre
#                                CCDC
#
#######################################################################
#
# If this CIF has been generated from an entry in the Cambridge
# Structural Database, then it will include bibliographic, chemical,
# crystal, experimental, refinement or atomic coordinate data resulting
# from the CCDC's data processing and validation procedures.
#
#######################################################################

data_CSD_CIF_VOLXEB
_audit_creation_date 2014-08-21
_audit_creation_method CSD-ConQuest-V1
_database_code_CSD VOLXEB
_database_code_depnum_ccdc_archive 'CCDC 1020574'
_chemical_formula_sum 'C12 H22 N2 O18 Zn2'
_chemical_formula_moiety
;
(C6 O12 Zn2 2-)n,n(C6 H10 O4),2n(H4 N1 1+),2n(H2 O1)
;
_journal_coden_Cambridge 4
_journal_volume 136
_journal_year 2014
_journal_page_first 7701
_journal_name_full 'J.Am.Chem.Soc. '
loop_
_publ_author_name
"M.Sadakiyo"
"T.Yamada"
"K.Honda"
"H.Matsui"
"H.Kitagawa"
_chemical_name_systematic
;
catena-(Ammonium tris(\m~2~-oxalato)-di-zinc adipic acid dihydrate)
;
_cell_volume   1111.981
_exptl_crystal_colour 'colorless'
_exptl_crystal_density_diffrn 1.831
_exptl_crystal_description 'block'
_diffrn_ambient_temperature 113
#These two values have been output from a single CSD field.
_refine_ls_R_factor_gt 0.058
_refine_ls_wR_factor_gt 0.058
_symmetry_cell_setting monoclinic
_symmetry_space_group_name_H-M 'P 21/c'
_symmetry_Int_Tables_number 14
loop_
_symmetry_equiv_pos_site_id
_symmetry_equiv_pos_as_xyz
1 x,y,z
2 -x,1/2+y,1/2-z
3 -x,-y,-z
4 x,-1/2-y,-1/2+z
_cell_length_a 7.606(7)
_cell_length_b 16.812(14)
_cell_length_c 8.963(7)
_cell_angle_alpha 90
_cell_angle_beta 104.019(4)
_cell_angle_gamma 90
_cell_formula_units_Z 2
loop_
_atom_type_symbol
_atom_type_radius_bond
C 0.68
N 0.68
O 0.68
Zn 1.22
loop_
_atom_site_label
_atom_site_type_symbol
_atom_site_fract_x
_atom_site_fract_y
_atom_site_fract_z
Zn1 Zn 0.52407(7) 0.16059(3) 0.49845(4)
O1 O 0.6513(4) -0.06951(16) 0.6056(3)
O2 O 0.3655(4) 0.24809(17) 0.3633(3)
O3 O 0.6859(4) 0.25621(17) 0.1400(3)
O4 O 0.6756(4) 0.17617(18) 0.3374(3)
O5 O 0.3733(4) 0.32528(18) 0.1618(3)
O6 O 0.6703(4) 0.06317(16) 0.6020(3)
C1 C 0.5938(5) -0.00153(19) 0.5597(4)
C2 C 0.6162(5) 0.2311(2) 0.2434(4)
C3 C 0.4359(5) 0.2714(2) 0.2583(4)
O7 O 0.8934(4) 0.01377(18) 0.3158(3)
O8 O 1.0408(4) 0.08383(18) 0.1717(3)
C4 C 0.5768(6) -0.0004(2) 0.0746(5)
C5 C 0.7381(6) 0.0493(3) 0.0552(4)
C6 C 0.8944(6) 0.0461(2) 0.1947(4)
O9 O 1.0343(5) 0.19645(19) 0.9141(3)
N1 N 0.9972(5) 0.1463(2) 0.5819(4)
O6B O 0.3297(4) -0.06317(16) 0.3980(3)
C1B C 0.4062(5) 0.00153(19) 0.4403(4)
O1B O 0.3487(4) 0.06951(16) 0.3944(3)
Zn1B Zn 0.47593(7) -0.16059(3) 0.50155(4)
O2B O 0.6345(4) -0.24809(17) 0.6367(3)
O3B O 0.3141(4) -0.25621(17) 0.8600(3)
O4B O 0.3244(4) -0.17617(18) 0.6626(3)
O5B O 0.6267(4) -0.32528(18) 0.8382(3)
C2B C 0.3838(5) -0.2311(2) 0.7566(4)
C3B C 0.5641(5) -0.2714(2) 0.7417(4)
Zn1A Zn 0.47593(7) -0.33941(3) 1.00155(4)
Zn1C Zn 0.52407(7) 0.33941(3) -0.00155(4)
O3A O 0.3141(4) -0.24379(17) 0.3600(3)
O3C O 0.6859(4) 0.24379(17) 0.6400(3)
O5A O 0.6267(4) -0.17472(18) 0.3382(3)
O5C O 0.3733(4) 0.17472(18) 0.6618(3)
O7B O 0.1066(4) -0.01377(18) -0.3158(3)
O8B O -0.0408(4) -0.08383(18) -0.1717(3)
C4B C 0.4232(6) 0.0004(2) -0.0746(5)
C5B C 0.2619(6) -0.0493(3) -0.0552(4)
C6B C 0.1056(6) -0.0461(2) -0.1947(4)
#END
