
#######################################################################
#
#                 Cambridge Crystallographic Data Centre
#                                CCDC
#
#######################################################################
#
# If this CIF has been generated from an entry in the Cambridge
# Structural Database, then it will include bibliographic, chemical,
# crystal, experimental, refinement or atomic coordinate data resulting
# from the CCDC's data processing and validation procedures.
#
#######################################################################

data_CSD_CIF_VONDEJ
_audit_creation_date 2014-08-21
_audit_creation_method CSD-ConQuest-V1
_database_code_CSD VONDEJ
_database_code_depnum_ccdc_archive 'CCDC 999126'
_chemical_formula_sum 'C12 H42 O26 P6 Zn5'
_chemical_formula_moiety
;
(H12 O6 Zn1 2+)n,n(C12 H26 O18 P6 Zn4 2-),2n(H2 O1)
;
_journal_coden_Cambridge 1147
_journal_volume 14
_journal_year 2014
_journal_page_first 3612
_journal_name_full 'Cryst.Growth Des. '
loop_
_publ_author_name
"K.J.Gagnon"
"S.J.Teat"
"Z.J.Beal"
"A.M.Embry"
"M.E.Strayer"
"A.Clearfield"
_chemical_name_systematic
;
catena-[Hexa-aqua-zinc(ii) 
bis(\m~6~-butane-1,4-diylbis(phosphonato))-(\m~4~-butane-1,4-diylbis(hydrogen 
phosphonato))-tetra-zinc dihydrate]
;
_cell_volume   1873.024
_exptl_crystal_colour 'colorless'
_exptl_crystal_density_diffrn 1.977
_exptl_crystal_description 'plate'
_diffrn_ambient_temperature 110
_diffrn_special_details
;
twin

;
#These two values have been output from a single CSD field.
_refine_ls_R_factor_gt 0.1187
_refine_ls_wR_factor_gt 0.1187
_symmetry_cell_setting monoclinic
_symmetry_space_group_name_H-M 'P 21/c'
_symmetry_Int_Tables_number 14
loop_
_symmetry_equiv_pos_site_id
_symmetry_equiv_pos_as_xyz
1 x,y,z
2 -x,1/2+y,1/2-z
3 -x,-y,-z
4 x,-1/2-y,-1/2+z
_cell_length_a 10.5536(9)
_cell_length_b 17.3130(11)
_cell_length_c 10.3937(7)
_cell_angle_alpha 90
_cell_angle_beta 99.502(5)
_cell_angle_gamma 90
_cell_formula_units_Z 2
loop_
_atom_type_symbol
_atom_type_radius_bond
C 0.68
H 0.23
O 0.68
P 1.05
Zn 1.22
loop_
_atom_site_label
_atom_site_type_symbol
_atom_site_fract_x
_atom_site_fract_y
_atom_site_fract_z
Zn1 Zn 1.15130(14) 0.16519(8) 0.82231(14)
Zn2 Zn 0.94998(14) 0.16724(8) 1.11638(14)
P1 P 1.8700(3) 0.28625(19) 1.3260(3)
P2 P 1.2256(3) 0.2267(2) 1.1000(3)
O1 O 1.1359(9) 0.1597(5) 1.1234(9)
O2 O 1.9672(9) 0.3500(5) 1.3032(10)
O3 O 1.9096(9) 0.2072(5) 1.2790(9)
O4 O 0.9037(9) 0.0570(5) 1.1177(9)
O5 O 1.2318(10) 0.2361(6) 0.956(1)
O6 O 1.8543(9) 0.2817(5) 1.4688(9)
O7 O 1.1801(9) 0.3034(5) 1.1504(9)
O8 O 0.7761(9) -0.0611(5) 1.1484(9)
C1 C 1.4862(14) 0.2661(9) 1.1653(18)
H1 H 1.50150 0.26290 1.07400
H2 H 1.45500 0.31890 1.17930
C2 C 1.3815(14) 0.2078(8) 1.1847(15)
H3 H 1.37730 0.20510 1.27900
H4 H 1.40820 0.15620 1.15780
C3 C 1.6110(13) 0.2534(9) 1.2552(15)
H5 H 1.64030 0.19990 1.24410
H6 H 1.59650 0.25910 1.34640
C4 C 1.7176(14) 0.3097(8) 1.2313(14)
H7 H 1.72510 0.30880 1.13760
H8 H 1.69340 0.36280 1.25320
P3 P 0.7892(4) 0.0090(2) 1.0634(4)
O9 O 0.7961(10) -0.0154(6) 0.9202(10)
H9 H 0.81860 -0.06190 0.91890
C5 C 0.5266(15) 0.0358(9) 0.9673(17)
H10 H 0.54640 0.02070 0.88090
H11 H 0.45990 0.07650 0.95350
C6 C 0.6478(15) 0.0683(9) 1.0507(17)
H12 H 0.62930 0.07760 1.13970
H13 H 0.66710 0.11890 1.01410
Zn3 Zn 1.00000 0.00000 1.50000
O10 O 1.0610(11) -0.0124(6) 1.3189(11)
H14 H 1.04630 0.03130 1.26930
H15 H 1.14710 -0.02250 1.32790
O11 O 1.1936(13) 0.0025(8) 1.5941(13)
H16 H 1.22250 -0.04280 1.64960
H17 H 1.25760 0.00510 1.53510
O12 O 1.0011(16) -0.1152(7) 1.5185(12)
H18 H 0.92090 -0.13360 1.52240
H19 H 1.02820 -0.13960 1.45000
O13 O 1.295(2) 0.091(2) 1.410(2)
O4B O 0.0963(9) -0.0570(5) 0.8823(9)
P3B P 0.2108(4) -0.0090(2) 0.9366(4)
O9B O 0.2039(10) 0.0154(6) 1.0798(10)
H9B H 0.18140 0.06190 1.08110
C5B C 0.4734(15) -0.0358(9) 1.0327(17)
H10B H 0.45360 -0.02070 1.11910
H11B H 0.54010 -0.07650 1.04650
C6B C 0.3522(15) -0.0683(9) 0.9493(17)
H12B H 0.37070 -0.07760 0.86030
H13B H 0.33290 -0.11890 0.98590
O8B O 0.2239(9) 0.0611(5) 0.8516(9)
Zn1B Zn -0.15130(14) -0.16519(8) 1.17769(14)
Zn2B Zn 0.05002(14) -0.16724(8) 0.88362(14)
P1B P -0.8700(3) -0.28625(19) 0.6740(3)
P2B P -0.2256(3) -0.2267(2) 0.9000(3)
O1B O -0.1359(9) -0.1597(5) 0.8766(9)
O2B O -0.9672(9) -0.3500(5) 0.6968(10)
O3B O -0.9096(9) -0.2072(5) 0.7210(9)
O5B O -0.2318(10) -0.2361(6) 1.044(1)
O6B O -0.8543(9) -0.2817(5) 0.5312(9)
O7B O -0.1801(9) -0.3034(5) 0.8496(9)
C1B C -0.4862(14) -0.2661(9) 0.8347(18)
H1B H -0.50150 -0.26290 0.92600
H2B H -0.45500 -0.31890 0.82070
C2B C -0.3815(14) -0.2078(8) 0.8153(15)
H3B H -0.37730 -0.20510 0.72100
H4B H -0.40820 -0.15620 0.84220
C3B C -0.6110(13) -0.2534(9) 0.7448(15)
H5B H -0.64030 -0.19990 0.75590
H6B H -0.59650 -0.25910 0.65360
C4B C -0.7176(14) -0.3097(8) 0.7687(14)
H7B H -0.72510 -0.30880 0.86240
H8B H -0.69340 -0.36280 0.74680
Zn1* Zn 0.15130(14) 0.16519(8) 0.82231(14)
Zn1A Zn -1.15130(14) -0.33481(8) 0.67769(14)
Zn1A* Zn -0.15130(14) -0.33481(8) 0.67769(14)
Zn1B* Zn 0.84870(14) -0.16519(8) 1.17769(14)
Zn1C Zn 1.15130(14) 0.33481(8) 1.32231(14)
Zn1C* Zn 2.15130(14) 0.33481(8) 1.32231(14)
Zn2* Zn 1.94998(14) 0.16724(8) 1.11638(14)
Zn2A Zn -0.94998(14) -0.33276(8) 0.38362(14)
Zn2B* Zn -0.94998(14) -0.16724(8) 0.88362(14)
Zn2C Zn 1.94998(14) 0.33276(8) 1.61638(14)
O2A O 0.0328(9) -0.1500(5) 1.1968(10)
O2C O 0.9672(9) 0.1500(5) 0.8032(10)
O3* O 0.9096(9) 0.2072(5) 1.2790(9)
O3B* O 0.0904(9) -0.2072(5) 0.7210(9)
O6A O 0.1457(9) -0.2183(5) 1.0312(9)
O6C O 0.8543(9) 0.2183(5) 0.9688(9)
O7A O -0.1801(9) -0.1966(5) 1.3496(9)
O7C O 1.1801(9) 0.1966(5) 0.6504(9)
O8* O -0.2239(9) -0.0611(5) 1.1484(9)
O8B* O 1.2239(9) 0.0611(5) 0.8516(9)
O10B O 0.9390(11) 0.0124(6) 1.6811(11)
H14B H 0.95370 -0.03130 1.73070
H15B H 0.85290 0.02250 1.67210
O11B O 0.8064(13) -0.0025(8) 1.4059(13)
H16B H 0.77750 0.04280 1.35040
H17B H 0.74240 -0.00510 1.46490
O12B O 0.9989(16) 0.1152(7) 1.4815(12)
H18B H 1.07910 0.13360 1.47760
H19B H 0.97180 0.13960 1.55000
#END
