
#######################################################################
#
#                 Cambridge Crystallographic Data Centre
#                                CCDC
#
#######################################################################
#
# If this CIF has been generated from an entry in the Cambridge
# Structural Database, then it will include bibliographic, chemical,
# crystal, experimental, refinement or atomic coordinate data resulting
# from the CCDC's data processing and validation procedures.
#
#######################################################################

data_CSD_CIF_VOPBEK
_audit_creation_date 2019-07-31
_audit_creation_method CSD-ConQuest-V1
_database_code_CSD VOPBEK
_database_code_depnum_ccdc_archive 'CCDC 1938580'
_chemical_formula_sum 'C104 H128 Mo2 N26 O34 P4 Yb2'
_chemical_formula_moiety
;
(C32 H32 Mo2 N24 O16 Yb2 2-)n,2(C36 H30 N1 P2 1+),18(H2 O1)
;
_journal_coden_Cambridge 1747
_journal_volume 6
_journal_year 2019
_journal_page_first 2423
_journal_name_full 'Inorg.Chem.Front. '
loop_
_publ_author_name
"R.Jankowski"
"J.J.Zakrzewski"
"O.Surma"
"Shin-ichi Ohkoshi"
"S.Chorazy"
"B.Sieklucka"
_chemical_name_systematic
;
catena-[bis(bis(triphenylphosphine)iminium) bis(\m-cyano)-bis(\m-pyrazine 
N,N'-dioxide)-octaaqua-tetradecakis(cyano)-bis(pyrazine 
N,N'-dioxide)-di-molybdenum-di-ytterbium octadecahydrate]
;
_cell_volume   6186.183
_exptl_crystal_colour 'red'
_exptl_crystal_description 'block'
_diffrn_ambient_temperature 100
_refine_special_details
;
O8A and C9 disordered over two sites with occupancies 0.9:0.3; There is 
disorder between water and methanol ligands; the authors' formula is given as 
Yb2 Mo2 C104.6 H86 N26 O34 P4.
;
#These two values have been output from a single CSD field.
_refine_ls_R_factor_gt 0.121
_refine_ls_wR_factor_gt 0.121
_symmetry_cell_setting monoclinic
_symmetry_space_group_name_H-M 'P 21/c'
_symmetry_Int_Tables_number 14
loop_
_symmetry_equiv_pos_site_id
_symmetry_equiv_pos_as_xyz
1 x,y,z
2 -x,1/2+y,1/2-z
3 -x,-y,-z
4 x,-1/2-y,-1/2+z
_cell_length_a 11.1351(11)
_cell_length_b 13.0368(13)
_cell_length_c 42.691(4)
_cell_angle_alpha 90
_cell_angle_beta 93.430(2)
_cell_angle_gamma 90
_cell_formula_units_Z 2
loop_
_atom_type_symbol
_atom_type_radius_bond
C 0.68
H 0.23
Mo 1.54
N 0.68
O 0.68
P 1.05
Yb 1.87
loop_
_atom_site_label
_atom_site_type_symbol
_atom_site_fract_x
_atom_site_fract_y
_atom_site_fract_z
Yb1 Yb 0.25206(6) 0.77993(4) 0.49647(2)
Mo1 Mo 0.64813(10) 0.71694(9) 0.42096(3)
O1 O 0.3272(9) 0.9418(8) 0.4894(2)
H1 H 0.30353 0.98232 0.50374
H2 H 0.29684 0.96844 0.47236
O2 O 0.0977(8) 0.9012(7) 0.5014(2)
O3 O 0.0717(9) 0.6936(7) 0.4939(2)
O4 O 0.4316(10) 0.7865(9) 0.5285(3)
H3 H 0.46572 0.72582 0.53089
H4 H 0.41246 0.80272 0.54743
O5 O 0.2051(10) 0.7699(8) 0.5488(2)
H5 H 0.26268 0.74281 0.56108
H6 H 0.14497 0.72591 0.55079
O6 O 0.1742(9) 0.7906(8) 0.4448(2)
O7 O 0.2965(8) 0.6107(7) 0.4993(2)
O8 O -0.2463(10) 0.8999(9) 0.5830(3)
N1 N 0.3983(10) 0.5568(8) 0.4999(3)
N2 N 0.4121(10) 0.7577(8) 0.4625(3)
N3 N 0.041(1) 0.5967(8) 0.4971(3)
N4 N 0.0119(10) 0.9002(8) 0.5211(3)
N5 N -0.1643(10) 0.9015(9) 0.5627(3)
N6 N 0.7302(11) 0.6474(9) 0.4933(3)
N7 N 0.9397(11) 0.7620(9) 0.4244(3)
C1 C 0.4955(11) 0.7440(9) 0.4478(3)
N8 N 0.7390(12) 0.4767(10) 0.4167(3)
N9 N 0.7064(11) 0.9329(9) 0.4594(3)
C2 C -0.0289(11) 0.5544(10) 0.4736(3)
H7 H -0.04922 0.59242 0.45501
C3 C 0.4603(11) 0.5382(9) 0.5269(3)
N10 N 0.5096(12) 0.9054(12) 0.3815(3)
C4 C 0.5611(12) 0.481(1) 0.5277(3)
H8 H 0.60392 0.46667 0.54708
C5 C 0.6862(11) 0.8582(9) 0.4455(3)
C6 C 0.0286(12) 0.9522(10) 0.5484(3)
H9 H 0.10169 0.98813 0.55301
C7 C 0.6995(11) 0.6700(9) 0.4680(3)
N11 N 0.7245(14) 0.6804(10) 0.3479(3)
C8 C 0.8375(12) 0.7463(10) 0.4218(3)
C9 C 0.0703(12) 0.5449(10) 0.5233(3)
H10 H 0.11927 0.57576 0.53967
C10 C 0.5575(12) 0.8371(11) 0.3941(3)
C11 C -0.1795(15) 0.8511(11) 0.5347(4)
H11 H -0.25267 0.81582 0.52964
C12 C -0.0913(12) 0.8507(11) 0.5140(3)
H12 H -0.10291 0.81541 0.49460
C13 C 0.7082(12) 0.561(1) 0.4194(3)
N12 N 0.4199(13) 0.575(1) 0.3926(3)
C14 C 0.6959(12) 0.6952(10) 0.3732(3)
C15 C 0.4982(13) 0.6264(11) 0.4013(3)
C16 C -0.0592(12) 0.9531(11) 0.5692(3)
H13 H -0.04723 0.98983 0.58841
C17? C 0.236(5) 0.839(4) 0.4214(10)
O9 O 0.2562(10) 0.8968(9) 0.3965(3)
P1 P 0.2392(3) 0.8154(3) 0.72863(9)
P2 P -0.0026(3) 0.8283(3) 0.69708(9)
N13 N 0.1009(11) 0.7892(10) 0.7212(3)
C18 C 0.0489(12) 0.9094(11) 0.6670(3)
C19 C 0.3365(14) 0.7333(11) 0.7074(4)
C20 C 0.3782(14) 0.8339(12) 0.7846(3)
H14 H 0.43445 0.87005 0.77286
C21 C 0.2708(14) 0.7958(10) 0.7699(3)
C22 C 0.2866(15) 0.6602(11) 0.6869(3)
H15 H 0.20169 0.65510 0.68365
C23 C 0.1669(15) 1.0314(13) 0.6253(4)
H16 H 0.20667 1.07310 0.61094
C24 C -0.1183(15) 0.8964(13) 0.7176(4)
C25 C 0.4808(14) 0.6013(12) 0.6753(4)
H17 H 0.52987 0.55527 0.66448
C26 C 0.2309(15) 1.0204(12) 0.7408(4)
H18 H 0.18316 0.99919 0.75734
C27 C 0.4004(15) 0.8177(12) 0.8166(4)
H19 H 0.47181 0.84419 0.82690
C28 C 0.1169(12) 0.8642(11) 0.6440(3)
H20 H 0.12209 0.79163 0.64252
C29 C 0.2783(12) 0.9476(10) 0.7216(3)
C30 C 0.4613(15) 0.7408(13) 0.7115(4)
H21 H 0.49657 0.79092 0.72536
C31 C 0.3488(14) 0.9775(13) 0.6974(4)
H22 H 0.38259 0.92766 0.68428
C32 C 0.0428(15) 1.0166(12) 0.6690(4)
H23 H -0.00118 1.04781 0.68481
C33 C -0.0636(12) 0.6229(11) 0.6935(3)
H24 H -0.01181 0.61434 0.71185
C34 C 0.1765(14) 0.9257(13) 0.6233(4)
H25 H 0.22339 0.89546 0.60782
C35 C 0.3597(15) 0.5952(12) 0.6713(4)
H26 H 0.32450 0.54510 0.65742
C36 C -0.0759(14) 0.7203(12) 0.6791(4)
C37 C 0.2524(16) 1.1256(13) 0.7362(4)
H27 H 0.21960 1.17566 0.74944
C38 C 0.5340(14) 0.6753(15) 0.6954(5)
H28 H 0.61914 0.68065 0.69806
C39 C -0.1138(18) 0.8939(15) 0.7501(5)
H29 H -0.04780 0.86166 0.76124
C40 C 0.3695(14) 1.0830(14) 0.6926(4)
H30 H 0.41630 1.10456 0.67590
C41 C -0.2156(19) 0.9418(17) 0.7002(5)
H31 H -0.22105 0.94303 0.67790
C42 C 0.1011(14) 1.0775(11) 0.6477(4)
H32 H 0.09550 1.15016 0.64869
C43 C -0.306(2) 0.986(2) 0.7186(6)
H33 H -0.37270 1.02062 0.70833
C44 C -0.204(2) 0.9376(18) 0.7665(6)
H34 H -0.20021 0.93820 0.78878
C45 C -0.1276(15) 0.5401(12) 0.6808(4)
H35 H -0.11865 0.47441 0.69027
C46 C 0.3210(17) 0.7640(12) 0.8335(4)
H36 H 0.33990 0.75031 0.85505
C47 C 0.1909(17) 0.7416(13) 0.7873(4)
H37 H 0.12053 0.71257 0.77716
C48 C 0.3222(15) 1.1545(13) 0.7120(4)
H38 H 0.33776 1.22521 0.70871
C49 C -0.1536(14) 0.7313(13) 0.6521(4)
H39 H -0.16268 0.79608 0.64201
C50 C 0.2135(18) 0.7296(13) 0.8195(4)
H40 H 0.15548 0.69790 0.83177
C51 C -0.2026(15) 0.5519(14) 0.6548(4)
H41 H -0.24610 0.49425 0.64660
C52 C -0.2175(16) 0.6458(15) 0.6401(4)
H42 H -0.27077 0.65245 0.62201
C53 C -0.299(2) 0.980(2) 0.7495(6)
H43 H -0.36377 1.00650 0.76048
O10 O -0.1924(10) 0.6066(8) 0.5558(2)
O11 O 0.9921(14) 0.6014(11) 0.3657(4)
O12 O 0.0055(9) 0.7175(9) 0.5770(2)
O13 O 0.6150(13) 0.2751(11) 0.4057(3)
O14 O 0.466(1) 1.0357(8) 0.4494(3)
O15 O 0.0941(10) 0.6001(9) 0.6268(3)
O16 O -0.1882(10) 0.4132(8) 0.5830(3)
O17 O 0.603(2) 0.7146(18) 0.5714(5)
O18 O 0.479(2) 0.1235(17) 0.3750(6)
O3B O -0.0717(9) 0.3064(7) 0.5061(2)
N3B N -0.041(1) 0.4033(8) 0.5029(3)
C2B C 0.0289(11) 0.4456(10) 0.5264(3)
H7B H 0.04922 0.40758 0.54499
C9B C -0.0703(12) 0.4551(10) 0.4767(3)
H10B H -0.11927 0.42424 0.46033
O7B O 0.7035(8) 0.3893(7) 0.5007(2)
N1B N 0.6017(10) 0.4432(8) 0.5001(3)
C3B C 0.5397(11) 0.4618(9) 0.4731(3)
C4B C 0.4389(12) 0.519(1) 0.4723(3)
H8B H 0.39608 0.53333 0.45292
Yb1B Yb -0.25206(6) 0.22007(4) 0.50353(2)
Mo1B Mo -0.64813(10) 0.28306(9) 0.57904(3)
O1B O -0.3272(9) 0.0582(8) 0.5106(2)
H1B H -0.30353 0.01768 0.49626
H2B H -0.29684 0.03156 0.52764
O2B O -0.0977(8) 0.0988(7) 0.4986(2)
O4B O -0.4316(10) 0.2135(9) 0.4715(3)
H3B H -0.46572 0.27418 0.46911
H4B H -0.41246 0.19728 0.45257
O5B O -0.2051(10) 0.2301(8) 0.4512(2)
H5B H -0.26268 0.25719 0.43892
H6B H -0.14497 0.27409 0.44921
O6B O -0.1742(9) 0.2094(8) 0.5552(2)
O8B O 0.2463(10) 0.1001(9) 0.4170(3)
N2B N -0.4121(10) 0.2423(8) 0.5375(3)
N4B N -0.0119(10) 0.0998(8) 0.4789(3)
N5B N 0.1643(10) 0.0985(9) 0.4373(3)
N6B N -0.7302(11) 0.3526(9) 0.5067(3)
N7B N -0.9397(11) 0.2380(9) 0.5756(3)
C1B C -0.4955(11) 0.2560(9) 0.5522(3)
N8B N -0.7390(12) 0.5233(10) 0.5833(3)
N9B N -0.7064(11) 0.0671(9) 0.5406(3)
N10B N -0.5096(12) 0.0946(12) 0.6185(3)
C5B C -0.6862(11) 0.1418(9) 0.5545(3)
C6B C -0.0286(12) 0.0478(10) 0.4516(3)
H9B H -0.10169 0.01187 0.44699
C7B C -0.6995(11) 0.3300(9) 0.5320(3)
N11B N -0.7245(14) 0.3196(10) 0.6521(3)
C8B C -0.8375(12) 0.2537(10) 0.5782(3)
C10B C -0.5575(12) 0.1629(11) 0.6059(3)
C11B C 0.1795(15) 0.1489(11) 0.4653(4)
H11B H 0.25267 0.18418 0.47036
C12B C 0.0913(12) 0.1493(11) 0.4860(3)
H12B H 0.10291 0.18459 0.50540
C13B C -0.7082(12) 0.439(1) 0.5806(3)
N12B N -0.4199(13) 0.425(1) 0.6074(3)
C14B C -0.6959(12) 0.3048(10) 0.6268(3)
C15B C -0.4982(13) 0.3736(11) 0.5987(3)
C16B C 0.0592(12) 0.0469(11) 0.4308(3)
H13B H 0.04723 0.01017 0.41159
Yb1B* Yb 0.74794(6) 0.22007(4) 0.50353(2)
O7B* O -0.2965(8) 0.3893(7) 0.5007(2)
O9B O -0.2562(10) 0.1032(9) 0.6035(3)
#END
