
#######################################################################
#
#                 Cambridge Crystallographic Data Centre
#                                CCDC
#
#######################################################################
#
# If this CIF has been generated from an entry in the Cambridge
# Structural Database, then it will include bibliographic, chemical,
# crystal, experimental, refinement or atomic coordinate data resulting
# from the CCDC's data processing and validation procedures.
#
#######################################################################

data_CSD_CIF_VOPKUJ
_audit_creation_date 2019-07-31
_audit_creation_method CSD-ConQuest-V1
_database_code_CSD VOPKUJ
_database_code_depnum_ccdc_archive 'CCDC 1911091'
_chemical_formula_sum 'C108.6 H140 Er2 N26 O35.4 P4 W2'
_chemical_formula_moiety
;
2(C36 H30 N1 P2 1+),n(C32 H32 Er2 N24 O16 W2 2-),4.6(C1 H4 O1),14.8(H2 O1)
;
_journal_coden_Cambridge 1747
_journal_volume 6
_journal_year 2019
_journal_page_first 2423
_journal_name_full 'Inorg.Chem.Front. '
loop_
_publ_author_name
"R.Jankowski"
"J.J.Zakrzewski"
"O.Surma"
"Shin-ichi Ohkoshi"
"S.Chorazy"
"B.Sieklucka"
_chemical_name_systematic
;
catena-[bis(bis(triphenylphosphino)iminium) bis(\m-cyano)-bis(\m-pyrazine 
N,N'-dioxide)-octa-aqua-tetradecacyano-bis(pyrazine 
N,N'-dioxide)-di-erbium(iii)-di-tungsten(iv) methanol solvate hydrate]
;
_cell_volume   6358.722
_exptl_crystal_colour 'black'
_exptl_crystal_density_diffrn 1.664
_exptl_crystal_description 'block'
_diffrn_ambient_temperature 100
_refine_special_details
;
O8A and C9 disordered over two sites with occupancies 0.7:0.3.

;
#These two values have been output from a single CSD field.
_refine_ls_R_factor_gt 0.0589
_refine_ls_wR_factor_gt 0.0589
_symmetry_cell_setting monoclinic
_symmetry_space_group_name_H-M 'P 21/c'
_symmetry_Int_Tables_number 14
loop_
_symmetry_equiv_pos_site_id
_symmetry_equiv_pos_as_xyz
1 x,y,z
2 -x,1/2+y,1/2-z
3 -x,-y,-z
4 x,-1/2-y,-1/2+z
_cell_length_a 11.1835(5)
_cell_length_b 13.2011(5)
_cell_length_c 43.0944(18)
_cell_angle_alpha 90
_cell_angle_beta 91.900(1)
_cell_angle_gamma 90
_cell_formula_units_Z 2
loop_
_atom_type_symbol
_atom_type_radius_bond
C 0.68
H 0.23
Er 1.89
N 0.68
O 0.68
P 1.05
W 1.62
loop_
_atom_site_label
_atom_site_type_symbol
_atom_site_fract_x
_atom_site_fract_y
_atom_site_fract_z
Er1 Er 0.25126(3) 0.77690(3) 0.49746(2)
W1 W 0.65736(3) 0.72315(3) 0.42243(2)
O1 O 0.3246(5) 0.9378(4) 0.49041(13)
H1 H 0.40211 0.93551 0.48761
H2 H 0.31926 0.97497 0.50734
O2 O 0.0974(5) 0.8992(4) 0.50120(13)
O3 O 0.0688(5) 0.6928(4) 0.49491(12)
O4 O 0.4249(5) 0.7817(5) 0.53065(13)
H3 H 0.45815 0.72209 0.53187
H4 H 0.40508 0.79425 0.54958
O5 O 0.1931(5) 0.7647(4) 0.54965(12)
H5 H 0.24617 0.72991 0.56132
H6 H 0.12668 0.72761 0.55117
O6 O 0.1811(5) 0.7850(5) 0.44561(12)
O7 O 0.2945(5) 0.6067(4) 0.49960(13)
O8 O -0.2573(5) 0.9098(5) 0.58147(13)
N1 N 0.3979(6) 0.5555(5) 0.49989(15)
N2 N 0.4197(5) 0.7568(5) 0.46439(15)
N3 N 0.0379(6) 0.5965(5) 0.49749(15)
N4 N 0.0098(6) 0.9006(5) 0.52088(15)
N5 N -0.1714(6) 0.9089(5) 0.56166(16)
N6 N 0.7319(6) 0.6523(5) 0.49438(16)
N7 N 0.9481(6) 0.7688(6) 0.42634(16)
C1 C 0.5017(7) 0.7449(5) 0.44960(17)
N8 N 0.7511(7) 0.4851(5) 0.41775(17)
N9 N 0.7092(6) 0.9383(5) 0.46001(18)
C2 C -0.0290(7) 0.5551(6) 0.4744(2)
H7 H -0.04944 0.59298 0.45683
C3 C 0.4556(7) 0.5336(6) 0.52671(19)
H8 H 0.42529 0.55647 0.54529
N10 N 0.5205(6) 0.9113(6) 0.38508(17)
C4 C 0.5585(7) 0.4782(6) 0.52707(19)
H9 H 0.59846 0.46359 0.54581
C5 C 0.6910(7) 0.8626(6) 0.44654(19)
C6 C 0.0219(7) 0.9541(6) 0.5477(2)
H10 H 0.09300 0.98838 0.55221
C7 C 0.7047(7) 0.6755(6) 0.46910(18)
N11 N 0.7453(7) 0.6943(6) 0.34975(17)
C8 C 0.8469(7) 0.7511(6) 0.42378(19)
C9 C 0.0672(7) 0.5435(6) 0.52317(19)
H11 H 0.11276 0.57316 0.53917
C10 C 0.5696(7) 0.8436(6) 0.39725(19)
C11 C -0.1847(7) 0.8552(6) 0.5348(2)
H12 H -0.25546 0.82008 0.53058
C12 C -0.0948(7) 0.8524(6) 0.51408(19)
H13 H -0.10538 0.81757 0.49543
C13 C 0.7191(7) 0.5676(6) 0.42025(18)
N12 N 0.4319(7) 0.5923(6) 0.39002(18)
C14 C 0.7126(7) 0.7064(6) 0.3752(2)
C15 C 0.5108(8) 0.6368(6) 0.40081(19)
C16 C -0.0671(7) 0.9581(6) 0.56767(19)
H14 H -0.05704 0.99515 0.58593
C17? C 0.230(2) 0.8267(18) 0.4191(6)
O9 O 0.2668(8) 0.8894(7) 0.3977(2)
P1 P 0.24876(18) 0.79949(15) 0.72963(5)
P2 P 0.00467(19) 0.81603(17) 0.70232(5)
N13 N 0.1111(6) 0.7732(6) 0.72380(15)
C18 C 0.0491(7) 0.9030(6) 0.67279(19)
C19 C 0.3412(7) 0.7166(7) 0.70747(18)
C20 C 0.3844(8) 0.8266(7) 0.7840(2)
H15 H 0.42911 0.87226 0.77273
C21 C 0.2852(7) 0.7771(7) 0.76983(18)
C22 C 0.2914(8) 0.6606(7) 0.6831(2)
H16 H 0.21043 0.66765 0.67785
C23 C 0.1490(8) 1.0341(7) 0.6302(2)
H17 H 0.18232 1.07765 0.61590
C24 C -0.1044(7) 0.8756(7) 0.7266(2)
C25 C 0.4824(8) 0.5853(6) 0.6733(2)
H18 H 0.52967 0.54272 0.66172
C26 C 0.2406(8) 1.0045(7) 0.7410(2)
H19 H 0.19537 0.98660 0.75786
C27 C 0.4148(9) 0.8063(7) 0.8149(2)
H20 H 0.48104 0.83772 0.82431
C28 C 0.1041(7) 0.8643(7) 0.64667(19)
H21 H 0.10731 0.79474 0.64331
C29 C 0.2870(7) 0.9275(6) 0.72181(18)
C30 C 0.4634(8) 0.7051(6) 0.7149(2)
H22 H 0.49809 0.74107 0.73142
C31 C 0.3541(8) 0.9566(7) 0.6968(2)
H23 H 0.38550 0.90752 0.68392
C32 C 0.0436(7) 1.0084(6) 0.6775(2)
H24 H 0.00632 1.03437 0.69475
C33 C -0.0604(8) 0.6147(7) 0.6950(2)
H25 H -0.01061 0.60304 0.71234
C34 C 0.1542(8) 0.9316(7) 0.6256(2)
H26 H 0.19161 0.90629 0.60829
C35 C 0.3602(8) 0.5943(7) 0.6664(2)
H27 H 0.32498 0.55579 0.65046
C36 C -0.0708(7) 0.7117(7) 0.68290(19)
C37 C 0.2616(8) 1.1056(7) 0.7350(2)
H28 H 0.23064 1.15511 0.74780
C38 C 0.5326(8) 0.6406(7) 0.6978(2)
H29 H 0.61380 0.63411 0.70274
C39 C -0.0935(8) 0.8704(7) 0.7582(2)
H30 H -0.02515 0.84218 0.76753
C40 C 0.3751(8) 1.0598(7) 0.6909(2)
H31 H 0.42024 1.07877 0.67406
C41 C -0.2079(8) 0.9179(7) 0.7126(2)
H32 H -0.21700 0.92011 0.69112
C42 C 0.0940(8) 1.0736(7) 0.6562(2)
H33 H 0.09115 1.14330 0.65923
C43 C -0.2962(9) 0.9561(7) 0.7309(3)
H34 H -0.36402 0.98540 0.72162
C44 C -0.1838(10) 0.9069(8) 0.7764(2)
H35 H -0.17652 0.90166 0.79794
C45 C -0.1233(8) 0.5352(7) 0.6816(2)
H36 H -0.11466 0.47017 0.68965
C46 C 0.3467(10) 0.7395(8) 0.8318(2)
H37 H 0.36561 0.72778 0.85267
C47 C 0.2196(9) 0.7096(8) 0.7868(2)
H38 H 0.15410 0.67666 0.77752
C48 C 0.3286(8) 1.1331(7) 0.7100(2)
H39 H 0.34257 1.20122 0.70598
C49 C -0.1460(7) 0.7289(8) 0.6569(2)
H40 H -0.15372 0.79376 0.64866
C50 C 0.2516(11) 0.6908(9) 0.8176(2)
H41 H 0.20772 0.64446 0.82886
C51 C -0.1985(8) 0.5522(8) 0.6563(2)
H42 H -0.24264 0.49892 0.64764
C52 C -0.2092(8) 0.6490(8) 0.6435(2)
H43 H -0.25852 0.65986 0.62600
C53 C -0.2852(9) 0.9515(8) 0.7627(3)
H44 H -0.34469 0.97782 0.77496
O10 O -0.2159(6) 0.6184(5) 0.55765(15)
H45 H -0.189(13) 0.552(5) 0.563(3)
H46 H -0.227(13) 0.611(9) 0.5359(7)
O11 O 0.9917(7) 0.6005(6) 0.3689(2)
H47 H 0.92386 0.59921 0.36107
C54 C 1.0569(14) 0.6765(10) 0.3552(4)
H48 H 1.02585 0.68823 0.33449
H49 H 1.13931 0.65642 0.35451
H50 H 1.05091 0.73755 0.36716
O12 O 0.4371(8) 0.3856(7) 0.4086(2)
O13 O -0.0100(5) 0.7212(5) 0.57766(14)
H51 H -0.07(1) 0.684(10) 0.567(3)
H52 H 0.015(13) 0.686(10) 0.596(2)
O14 O 0.6203(7) 0.2561(5) 0.40873(16)
H53 H 0.578(10) 0.221(10) 0.393(2)
H54 H 0.682(9) 0.285(10) 0.397(2)
C55 C -0.4191(9) 0.8640(9) 0.6433(3)
H55 H -0.36182 0.90670 0.63352
H56 H -0.39936 0.79429 0.63974
H57 H -0.41755 0.87725 0.66518
O15 O -0.5363(7) 0.8847(6) 0.63037(17)
H58 H -0.531(14) 0.948(6) 0.620(3)
O16 O 0.4644(5) 1.0386(5) 0.45072(14)
H59 H 0.532(7) 1.018(11) 0.440(2)
H60 H 0.409(8) 1.051(11) 0.4339(19)
O17 O 0.0904(6) 0.6060(5) 0.62511(14)
H61 H 0.054(11) 0.543(5) 0.629(3)
H62 H 0.142(10) 0.588(9) 0.609(2)
O18 O -0.179(1) 0.4254(6) 0.5802(2)
O3B O -0.0688(5) 0.3072(4) 0.50509(12)
N3B N -0.0379(6) 0.4035(5) 0.50251(15)
C2B C 0.0290(7) 0.4449(6) 0.5256(2)
H7B H 0.04944 0.40702 0.54317
C9B C -0.0672(7) 0.4565(6) 0.47683(19)
H11B H -0.11276 0.42684 0.46083
O7B O 0.7055(5) 0.3933(4) 0.50040(13)
N1B N 0.6021(6) 0.4445(5) 0.50011(15)
C3B C 0.5444(7) 0.4664(6) 0.47329(19)
H8B H 0.57471 0.44353 0.45471
C4B C 0.4415(7) 0.5218(6) 0.47293(19)
H9B H 0.40154 0.53641 0.45419
Er1B Er -0.25126(3) 0.22310(3) 0.50254(2)
W1B W -0.65736(3) 0.27685(3) 0.57757(2)
O1B O -0.3246(5) 0.0622(4) 0.50959(13)
H1B H -0.40211 0.06449 0.51239
H2B H -0.31926 0.02503 0.49266
O2B O -0.0974(5) 0.1008(4) 0.49880(13)
O4B O -0.4249(5) 0.2183(5) 0.46935(13)
H3B H -0.45815 0.27791 0.46813
H4B H -0.40508 0.20575 0.45042
O5B O -0.1931(5) 0.2353(4) 0.45035(12)
H5B H -0.24617 0.27009 0.43868
H6B H -0.12668 0.27239 0.44883
O6B O -0.1811(5) 0.2150(5) 0.55439(12)
O8B O 0.2573(5) 0.0902(5) 0.41853(13)
N2B N -0.4197(5) 0.2432(5) 0.53561(15)
N4B N -0.0098(6) 0.0994(5) 0.47912(15)
N5B N 0.1714(6) 0.0911(5) 0.43834(16)
N6B N -0.7319(6) 0.3477(5) 0.50562(16)
N7B N -0.9481(6) 0.2312(6) 0.57366(16)
C1B C -0.5017(7) 0.2551(5) 0.55040(17)
N8B N -0.7511(7) 0.5149(5) 0.58225(17)
N9B N -0.7092(6) 0.0617(5) 0.53999(18)
N10B N -0.5205(6) 0.0887(6) 0.61492(17)
C5B C -0.6910(7) 0.1374(6) 0.55346(19)
C6B C -0.0219(7) 0.0459(6) 0.4523(2)
H10B H -0.09300 0.01162 0.44779
C7B C -0.7047(7) 0.3245(6) 0.53090(18)
N11B N -0.7453(7) 0.3057(6) 0.65025(17)
C8B C -0.8469(7) 0.2489(6) 0.57622(19)
C10B C -0.5696(7) 0.1564(6) 0.60275(19)
C11B C 0.1847(7) 0.1448(6) 0.4652(2)
H12B H 0.25546 0.17992 0.46942
C12B C 0.0948(7) 0.1476(6) 0.48592(19)
H13B H 0.10538 0.18243 0.50457
C13B C -0.7191(7) 0.4324(6) 0.57975(18)
N12B N -0.4319(7) 0.4077(6) 0.60998(18)
C14B C -0.7126(7) 0.2936(6) 0.6248(2)
C15B C -0.5108(8) 0.3632(6) 0.59919(19)
C16B C 0.0671(7) 0.0419(6) 0.43233(19)
H14B H 0.05704 0.00485 0.41407
Er1B* Er 0.74874(3) 0.22310(3) 0.50254(2)
O7B* O -0.2945(5) 0.3933(4) 0.50040(13)
O9B O -0.2668(8) 0.1106(7) 0.6023(2)
#END
