
#######################################################################
#
#                 Cambridge Crystallographic Data Centre
#                                CCDC
#
#######################################################################
#
# If this CIF has been generated from an entry in the Cambridge
# Structural Database, then it will include bibliographic, chemical,
# crystal, experimental, refinement or atomic coordinate data resulting
# from the CCDC's data processing and validation procedures.
#
#######################################################################

data_CSD_CIF_VOPLEU
_audit_creation_date 2019-07-31
_audit_creation_method CSD-ConQuest-V1
_database_code_CSD VOPLEU
_database_code_depnum_ccdc_archive 'CCDC 1911095'
_chemical_formula_sum 'C108.6 H140 N26 O35.4 P4 W2 Yb2'
_chemical_formula_moiety
;
(C32 H32 N24 O16 W2 Yb2 2-)n,2(C36 H30 N1 P2 1+),4.6(C1 H4 O1),14.8(H2 O1)
;
_journal_coden_Cambridge 1747
_journal_volume 6
_journal_year 2019
_journal_page_first 2423
_journal_name_full 'Inorg.Chem.Front. '
loop_
_publ_author_name
"R.Jankowski"
"J.J.Zakrzewski"
"O.Surma"
"Shin-ichi Ohkoshi"
"S.Chorazy"
"B.Sieklucka"
_chemical_name_systematic
;
catena-[bis(bis(triphenylphosphino)iminium) bis(\m-cyano)-bis(\m-pyrazine 
N,N'-dioxide)-octa-aqua-tetradecacyano-bis(pyrazine 
N,N'-dioxide)-di-tungsten(iv)-di-ytterbium(iii) methanol solvate hydrate]
;
_cell_volume   6298.103
_exptl_crystal_colour 'black'
_exptl_crystal_density_diffrn 1.686
_exptl_crystal_description 'block'
_diffrn_ambient_temperature 100
_refine_special_details
;
O8A and C9 disordered over two sites with occupancies 0.7:0.3.

;
#These two values have been output from a single CSD field.
_refine_ls_R_factor_gt 0.0944
_refine_ls_wR_factor_gt 0.0944
_symmetry_cell_setting monoclinic
_symmetry_space_group_name_H-M 'P 21/c'
_symmetry_Int_Tables_number 14
loop_
_symmetry_equiv_pos_site_id
_symmetry_equiv_pos_as_xyz
1 x,y,z
2 -x,1/2+y,1/2-z
3 -x,-y,-z
4 x,-1/2-y,-1/2+z
_cell_length_a 11.1666(3)
_cell_length_b 13.1043(4)
_cell_length_c 43.0681(13)
_cell_angle_alpha 90
_cell_angle_beta 92.060(1)
_cell_angle_gamma 90
_cell_formula_units_Z 2
loop_
_atom_type_symbol
_atom_type_radius_bond
C 0.68
H 0.23
N 0.68
O 0.68
P 1.05
W 1.62
Yb 1.87
loop_
_atom_site_label
_atom_site_type_symbol
_atom_site_fract_x
_atom_site_fract_y
_atom_site_fract_z
Yb1 Yb 0.25189(4) 0.77717(4) 0.49726(2)
W1 W 0.65553(4) 0.72205(4) 0.42225(2)
O1 O 0.3271(8) 0.9364(7) 0.4902(2)
H1 H 0.38093 0.94966 0.50457
H2 H 0.27204 0.98170 0.49292
O2 O 0.0980(7) 0.8992(6) 0.50093(19)
O3 O 0.0710(7) 0.6941(6) 0.49479(19)
O4 O 0.4254(7) 0.7819(8) 0.5304(2)
H3 H 0.47782 0.73802 0.52442
H4 H 0.40803 0.76158 0.54882
O5 O 0.1951(7) 0.7667(7) 0.54895(19)
H5 H 0.25104 0.73637 0.56091
H6 H 0.13246 0.72543 0.55066
O6 O 0.1801(7) 0.7863(7) 0.44575(19)
O7 O 0.2938(7) 0.6082(6) 0.4999(2)
O8 O -0.2545(8) 0.9075(8) 0.5813(2)
N1 N 0.3973(8) 0.5559(7) 0.4999(2)
N2 N 0.4178(8) 0.7561(7) 0.4643(2)
N3 N 0.0394(8) 0.5965(7) 0.4972(2)
N4 N 0.0104(8) 0.9007(7) 0.5207(2)
N5 N -0.1703(8) 0.9069(7) 0.5615(2)
N6 N 0.7314(9) 0.6504(8) 0.4940(2)
N7 N 0.9472(9) 0.7667(9) 0.4261(3)
C1 C 0.5000(9) 0.7448(7) 0.4494(2)
N8 N 0.7451(10) 0.4812(8) 0.4175(3)
N9 N 0.7081(10) 0.9374(8) 0.4602(3)
C2 C -0.0277(10) 0.5546(9) 0.4740(3)
H7 H -0.04643 0.59199 0.45617
C3 C 0.4570(11) 0.5354(9) 0.5266(3)
H8 H 0.42744 0.55896 0.54520
N10 N 0.5213(10) 0.9138(10) 0.3854(3)
C4 C 0.5604(11) 0.4806(9) 0.5269(3)
H9 H 0.60213 0.46829 0.54562
C5 C 0.6905(10) 0.8626(9) 0.4466(3)
C6 C 0.0253(10) 0.9529(9) 0.5476(3)
H10 H 0.09756 0.98554 0.55241
C7 C 0.7040(9) 0.6739(8) 0.4688(3)
N11 N 0.7409(10) 0.6935(8) 0.3496(3)
C8 C 0.8461(11) 0.7498(8) 0.4238(3)
C9 C 0.0686(10) 0.5440(9) 0.5231(3)
H11 H 0.11572 0.57372 0.53894
C10 C 0.5688(10) 0.8451(10) 0.3971(3)
C11 C -0.1834(10) 0.8551(9) 0.5346(3)
H12 H -0.25499 0.82121 0.52992
C12 C -0.0929(10) 0.8516(8) 0.5139(3)
H13 H -0.10295 0.81551 0.49540
C13 C 0.7153(11) 0.5641(11) 0.4203(3)
N12 N 0.4273(10) 0.5928(10) 0.3902(3)
C14 C 0.7098(11) 0.7050(9) 0.3749(3)
C15 C 0.5079(11) 0.6374(10) 0.4005(3)
C16 C -0.0654(10) 0.9573(10) 0.5675(3)
H14 H -0.05602 0.99540 0.58561
C17? C 0.232(4) 0.829(3) 0.4188(10)
O9 O 0.2662(11) 0.8896(10) 0.3979(3)
P1 P 0.2479(3) 0.7980(2) 0.72946(7)
P2 P 0.0037(3) 0.8144(3) 0.70173(7)
N13 N 0.1092(9) 0.7711(9) 0.7233(2)
C18 C 0.0489(10) 0.9026(9) 0.6726(3)
C19 C 0.3416(10) 0.7121(9) 0.7073(3)
C20 C 0.3828(11) 0.8242(10) 0.7845(3)
H15 H 0.42795 0.87015 0.77330
C21 C 0.2832(11) 0.7742(11) 0.7700(3)
C22 C 0.2902(11) 0.6567(10) 0.6831(3)
H16 H 0.20930 0.66438 0.67772
C23 C 0.1489(11) 1.0346(12) 0.6303(3)
H17 H 0.18273 1.07825 0.61599
C24 C -0.1062(12) 0.8741(11) 0.7257(3)
C25 C 0.4822(12) 0.583(1) 0.6733(3)
H18 H 0.52934 0.54037 0.66151
C26 C 0.2412(11) 1.0044(10) 0.7408(3)
H19 H 0.19655 0.98675 0.75784
C27 C 0.4126(12) 0.8043(10) 0.8154(3)
H20 H 0.48057 0.83389 0.82472
C28 C 0.1043(11) 0.8637(10) 0.6466(3)
H21 H 0.10673 0.79368 0.64314
C29 C 0.2862(10) 0.9271(9) 0.7220(3)
C30 C 0.4640(11) 0.7040(9) 0.7146(3)
H22 H 0.49827 0.74131 0.73097
C31 C 0.3537(11) 0.956(1) 0.6965(3)
H23 H 0.38412 0.90651 0.68343
C32 C 0.0423(11) 1.0085(10) 0.6768(3)
H24 H 0.00412 1.03445 0.69396
C33 C -0.0605(12) 0.6128(11) 0.6954(3)
H25 H -0.01081 0.60177 0.71287
C34 C 0.1557(11) 0.9306(11) 0.6260(3)
H26 H 0.19549 0.90487 0.60913
C35 C 0.3604(12) 0.5897(10) 0.6670(3)
H27 H 0.32509 0.54846 0.65162
C36 C -0.0715(11) 0.7082(10) 0.6825(3)
C37 C 0.2617(13) 1.1052(11) 0.7347(3)
H28 H 0.23001 1.15481 0.74746
C38 C 0.5336(12) 0.6402(11) 0.6972(3)
H29 H 0.61561 0.63562 0.70158
C39 C -0.0948(13) 0.8709(10) 0.7576(3)
H30 H -0.02562 0.84369 0.76699
C40 C 0.3747(12) 1.0592(10) 0.6908(3)
H31 H 0.42039 1.07775 0.67410
C41 C -0.2094(13) 0.9165(12) 0.7116(4)
H32 H -0.21835 0.91903 0.69009
C42 C 0.0918(12) 1.0752(11) 0.6558(3)
H33 H 0.08706 1.14540 0.65859
C43 C -0.2990(13) 0.9549(13) 0.7301(4)
H34 H -0.36760 0.98331 0.72074
C44 C -0.1850(15) 0.9076(12) 0.7761(4)
H35 H -0.17738 0.90315 0.79762
C45 C -0.1264(13) 0.5319(12) 0.6816(3)
H36 H -0.12051 0.46692 0.69016
C46 C 0.3423(16) 0.7414(13) 0.8321(4)
H37 H 0.36075 0.73016 0.85302
C47 C 0.2150(13) 0.7114(13) 0.7871(3)
H38 H 0.14832 0.67963 0.77786
C48 C 0.3292(12) 1.1349(11) 0.7096(3)
H39 H 0.34335 1.20346 0.70557
C49 C -0.1449(11) 0.7262(13) 0.6560(3)
H40 H -0.15068 0.79114 0.64733
C50 C 0.2436(17) 0.6941(16) 0.8181(4)
H41 H 0.19651 0.65069 0.82962
C51 C -0.1997(12) 0.5477(12) 0.6554(3)
H42 H -0.24211 0.49370 0.64630
C52 C -0.2089(11) 0.6450(13) 0.6429(3)
H43 H -0.25884 0.65614 0.62553
C53 C -0.2871(13) 0.9513(13) 0.7618(4)
H44 H -0.34702 0.97788 0.77392
O10 O -0.2071(10) 0.6167(8) 0.5570(2)
H45 H -0.202(18) 0.544(2) 0.557(5)
H46 H -0.212(18) 0.628(16) 0.5353(10)
O11 O 0.9905(11) 0.6018(10) 0.3668(4)
H47 H 0.92426 0.62396 0.37098
C54 C 1.054(5) 0.675(4) 0.3553(12)
H48 H 1.02990 0.68532 0.33389
H49 H 1.13745 0.65634 0.35659
H50 H 1.04230 0.73652 0.36675
O12 O 0.436(2) 0.384(2) 0.4095(6)
O13 O -0.0056(8) 0.7200(9) 0.5772(2)
H51 H -0.075(19) 0.698(16) 0.571(5)
H52 H 0.030(19) 0.695(16) 0.593(5)
O14 O 0.6223(12) 0.2613(10) 0.4092(3)
H53 H 0.573(19) 0.236(17) 0.393(5)
H54 H 0.683(19) 0.270(17) 0.396(5)
C55 C -0.4201(15) 0.8602(13) 0.6425(4)
H55 H -0.36185 0.89375 0.63021
H56 H -0.40480 0.78813 0.64278
H57 H -0.41468 0.88622 0.66337
O15 O -0.5362(10) 0.8787(10) 0.6296(3)
H58 H -0.528(18) 0.948(5) 0.623(5)
O16 O 0.4636(8) 1.0395(8) 0.4507(3)
H59 H 0.51(2) 1.020(19) 0.444(6)
H60 H 0.411(19) 1.055(17) 0.439(5)
O17 O 0.0907(9) 0.6036(8) 0.6254(2)
H61 H 0.064(19) 0.547(17) 0.629(5)
H62 H 0.13(2) 0.586(17) 0.613(5)
O18 O -0.1882(12) 0.4207(9) 0.5813(3)
O3B O -0.0710(7) 0.3059(6) 0.50521(19)
N3B N -0.0394(8) 0.4035(7) 0.5028(2)
C2B C 0.0277(10) 0.4454(9) 0.5260(3)
H7B H 0.04643 0.40801 0.54383
C9B C -0.0686(10) 0.4560(9) 0.4769(3)
H11B H -0.11572 0.42628 0.46106
O7B O 0.7062(7) 0.3918(6) 0.5001(2)
N1B N 0.6027(8) 0.4441(7) 0.5001(2)
C3B C 0.5430(11) 0.4646(9) 0.4734(3)
H8B H 0.57256 0.44104 0.45480
C4B C 0.4396(11) 0.5194(9) 0.4731(3)
H9B H 0.39787 0.53171 0.45438
Yb1B Yb -0.25189(4) 0.22283(4) 0.50274(2)
W1B W -0.65553(4) 0.27795(4) 0.57775(2)
O1B O -0.3271(8) 0.0636(7) 0.5098(2)
H1B H -0.38093 0.05034 0.49543
H2B H -0.27204 0.01830 0.50708
O2B O -0.0980(7) 0.1008(6) 0.49907(19)
O4B O -0.4254(7) 0.2181(8) 0.4696(2)
H3B H -0.47782 0.26198 0.47558
H4B H -0.40803 0.23842 0.45118
O5B O -0.1951(7) 0.2333(7) 0.45105(19)
H5B H -0.25104 0.26363 0.43909
H6B H -0.13246 0.27457 0.44934
O6B O -0.1801(7) 0.2137(7) 0.55425(19)
O8B O 0.2545(8) 0.0925(8) 0.4187(2)
N2B N -0.4178(8) 0.2439(7) 0.5357(2)
N4B N -0.0104(8) 0.0993(7) 0.4793(2)
N5B N 0.1703(8) 0.0931(7) 0.4385(2)
N6B N -0.7314(9) 0.3496(8) 0.5060(2)
N7B N -0.9472(9) 0.2333(9) 0.5739(3)
C1B C -0.5000(9) 0.2552(7) 0.5506(2)
N8B N -0.7451(10) 0.5188(8) 0.5825(3)
N9B N -0.7081(10) 0.0626(8) 0.5398(3)
N10B N -0.5213(10) 0.0862(10) 0.6146(3)
C5B C -0.6905(10) 0.1374(9) 0.5534(3)
C6B C -0.0253(10) 0.0471(9) 0.4524(3)
H10B H -0.09756 0.01446 0.44759
C7B C -0.7040(9) 0.3261(8) 0.5312(3)
N11B N -0.7409(10) 0.3065(8) 0.6504(3)
C8B C -0.8461(11) 0.2502(8) 0.5762(3)
C10B C -0.5688(10) 0.1549(10) 0.6029(3)
C11B C 0.1834(10) 0.1449(9) 0.4654(3)
H12B H 0.25499 0.17879 0.47008
C12B C 0.0929(10) 0.1484(8) 0.4861(3)
H13B H 0.10295 0.18449 0.50460
C13B C -0.7153(11) 0.4359(11) 0.5797(3)
N12B N -0.4273(10) 0.4072(10) 0.6098(3)
C14B C -0.7098(11) 0.2950(9) 0.6251(3)
C15B C -0.5079(11) 0.3626(10) 0.5995(3)
C16B C 0.0654(10) 0.0427(10) 0.4325(3)
H14B H 0.05602 0.00460 0.41439
Yb1B* Yb 0.74811(4) 0.22283(4) 0.50274(2)
O7B* O -0.2938(7) 0.3918(6) 0.5001(2)
O9B O -0.2662(11) 0.1104(10) 0.6021(3)
#END
