
#######################################################################
#
#                 Cambridge Crystallographic Data Centre
#                                CCDC
#
#######################################################################
#
# If this CIF has been generated from an entry in the Cambridge
# Structural Database, then it will include bibliographic, chemical,
# crystal, experimental, refinement or atomic coordinate data resulting
# from the CCDC's data processing and validation procedures.
#
#######################################################################

data_CSD_CIF_VOPLAQ
_audit_creation_date 2019-07-31
_audit_creation_method CSD-ConQuest-V1
_database_code_CSD VOPLAQ
_database_code_depnum_ccdc_archive 'CCDC 1911094'
_chemical_formula_sum 'C108.6 H140 Mo2 N26 O35.4 P4 Yb2'
_chemical_formula_moiety
;
2(C36 H30 N1 P2 1+),n(C32 H32 Mo2 N24 O16 Yb2 2-),4.6(C1 H4 O1),14.8(H2 O1)
;
_journal_coden_Cambridge 1747
_journal_volume 6
_journal_year 2019
_journal_page_first 2423
_journal_name_full 'Inorg.Chem.Front. '
loop_
_publ_author_name
"R.Jankowski"
"J.J.Zakrzewski"
"O.Surma"
"Shin-ichi Ohkoshi"
"S.Chorazy"
"B.Sieklucka"
_chemical_name_systematic
;
catena-[bis(bis(triphenylphosphino)iminium) bis(\m-cyano)-bis(\m-pyrazine 
N,N'-dioxide)-octa-aqua-tetradecacyano-bis(pyrazine 
N,N'-dioxide)-di-molybdenum(iv)-di-ytterbium(iii) methanol solvate hydrate]
;
_cell_volume   6339.001
_exptl_crystal_colour 'red'
_exptl_crystal_density_diffrn 1.585
_exptl_crystal_description 'block'
_diffrn_ambient_temperature 100
_refine_special_details
;
The structure is disordered.

;
#These two values have been output from a single CSD field.
_refine_ls_R_factor_gt 0.0487
_refine_ls_wR_factor_gt 0.0487
_symmetry_cell_setting monoclinic
_symmetry_space_group_name_H-M 'P 21/c'
_symmetry_Int_Tables_number 14
loop_
_symmetry_equiv_pos_site_id
_symmetry_equiv_pos_as_xyz
1 x,y,z
2 -x,1/2+y,1/2-z
3 -x,-y,-z
4 x,-1/2-y,-1/2+z
_cell_length_a 11.1828(4)
_cell_length_b 13.1725(5)
_cell_length_c 43.0580(16)
_cell_angle_alpha 90
_cell_angle_beta 91.951(1)
_cell_angle_gamma 90
_cell_formula_units_Z 2
loop_
_atom_type_symbol
_atom_type_radius_bond
C 0.68
H 0.23
Mo 1.54
N 0.68
O 0.68
P 1.05
Yb 1.87
loop_
_atom_site_label
_atom_site_type_symbol
_atom_site_fract_x
_atom_site_fract_y
_atom_site_fract_z
Yb1 Yb 0.25161(2) 0.77633(2) 0.49727(2)
O1 O 0.3263(3) 0.9356(2) 0.49059(8)
O2 O 0.0986(3) 0.8978(2) 0.50098(7)
O3 O 0.0709(3) 0.6928(2) 0.49471(8)
O4 O 0.4243(3) 0.7815(3) 0.53016(8)
O5 O 0.1942(3) 0.7652(3) 0.54899(7)
O6 O 0.1805(3) 0.7844(3) 0.44596(7)
O7 O 0.2958(3) 0.6067(2) 0.49955(8)
N1 N 0.4178(3) 0.7569(3) 0.46430(9)
H1 H 0.31364 0.97240 0.50664
H2 H 0.28683 0.96573 0.47573
N2 N 0.0108(3) 0.8995(3) 0.52052(9)
N3 N 0.0387(3) 0.5968(3) 0.49734(9)
H3 H 0.47556 0.73613 0.52460
H4 H 0.40633 0.76339 0.54875
H5 H 0.25276 0.74047 0.56124
H6 H 0.13622 0.71957 0.55097
N4 N 0.3972(3) 0.5561(3) 0.49972(9)
C1 C 0.5003(4) 0.7446(3) 0.44952(10)
C2 C 0.0246(4) 0.9529(4) 0.54730(11)
C3 C -0.0936(4) 0.8518(3) 0.51381(11)
C4 C -0.0295(4) 0.5549(4) 0.47425(11)
C5 C 0.0686(4) 0.5434(3) 0.52298(11)
C6 C 0.4563(4) 0.5355(3) 0.52681(11)
C7 C 0.4413(4) 0.5206(3) 0.47296(11)
Mo1 Mo 0.65652(3) 0.72335(3) 0.42252(2)
H7 H 0.09780 0.98710 0.55203
C8 C -0.0671(4) 0.9574(4) 0.56755(11)
C9 C -0.1848(4) 0.8557(4) 0.53427(11)
H8 H -0.10404 0.81541 0.49486
H9 H -0.05035 0.59323 0.45617
H10 H 0.11667 0.57338 0.53912
H11 H 0.42645 0.56015 0.54578
H12 H 0.40034 0.53495 0.45376
C10 C 0.6912(4) 0.8633(4) 0.44697(11)
C11 C 0.7040(4) 0.6755(4) 0.46946(11)
C12 C 0.8467(4) 0.7523(3) 0.42418(10)
C13 C 0.5698(4) 0.8445(4) 0.39719(11)
C14 C 0.7179(4) 0.5676(4) 0.41995(10)
C15 C 0.7123(4) 0.7073(4) 0.37507(11)
C16 C 0.5103(4) 0.6383(4) 0.40087(11)
N5 N -0.1706(3) 0.9076(3) 0.56141(9)
H13 H -0.05775 0.99593 0.58612
H14 H -0.25815 0.82193 0.52945
N6 N 0.7084(4) 0.9382(3) 0.4603(1)
N7 N 0.7304(3) 0.6520(3) 0.49445(9)
N8 N 0.9478(4) 0.7697(4) 0.42666(10)
N9 N 0.5211(4) 0.9122(3) 0.3853(1)
N10 N 0.7498(4) 0.4850(3) 0.4180(1)
N11 N 0.7449(4) 0.6953(3) 0.3501(1)
N12 N 0.4316(4) 0.5923(4) 0.3903(1)
O8 O -0.2563(3) 0.9095(3) 0.58110(8)
O9 O 0.2668(4) 0.8895(4) 0.39808(11)
P1 P 0.24859(11) 0.79817(9) 0.72960(3)
P2 P 0.00454(11) 0.81476(10) 0.70231(3)
N13 N 0.1111(3) 0.7722(3) 0.72374(9)
C17 C 0.0484(4) 0.9024(4) 0.67278(11)
C18 C 0.3413(4) 0.7148(4) 0.70738(11)
C19 C 0.3847(5) 0.8251(4) 0.78444(12)
H15 H 0.43163 0.87088 0.77292
C20 C 0.2854(4) 0.7773(4) 0.77006(11)
C21 C 0.2907(5) 0.6582(4) 0.68309(11)
H16 H 0.20768 0.66419 0.67803
C22 C 0.1490(5) 1.0337(4) 0.63041(12)
H17 H 0.18385 1.07861 0.61603
C23 C -0.1060(4) 0.8738(4) 0.72602(12)
C24 C 0.4821(5) 0.5840(4) 0.67325(12)
H18 H 0.53009 0.53957 0.66153
C25 C 0.2411(5) 1.0039(4) 0.74094(12)
H19 H 0.19519 0.98533 0.75822
C26 C 0.4147(5) 0.8059(4) 0.81532(12)
H20 H 0.48273 0.83767 0.82489
C27 C 0.1040(4) 0.8636(4) 0.64658(11)
H21 H 0.10752 0.79244 0.64323
C28 C 0.2873(4) 0.9277(4) 0.72188(11)
C29 C 0.4636(4) 0.7048(4) 0.71476(12)
H22 H 0.49868 0.74246 0.73153
C30 C 0.3548(4) 0.9562(4) 0.69651(12)
H23 H 0.38620 0.90577 0.68329
C31 C 0.0430(4) 1.0072(4) 0.67733(12)
H24 H 0.00486 1.03393 0.69494
C32 C -0.0590(5) 0.6131(4) 0.69535(12)
H25 H -0.00743 0.60131 0.71297
C33 C 0.1538(4) 0.9302(4) 0.62554(11)
H26 H 0.19146 0.90430 0.60774
C34 C 0.3614(5) 0.5928(4) 0.66612(12)
H27 H 0.32633 0.55417 0.64956
C35 C -0.0705(4) 0.7102(4) 0.68317(11)
C36 C 0.2614(5) 1.1051(4) 0.73491(12)
H28 H 0.22892 1.15592 0.74783
C37 C 0.5337(5) 0.6399(4) 0.69759(12)
H29 H 0.61682 0.63384 0.70249
C38 C -0.0938(5) 0.8683(4) 0.75816(12)
H30 H -0.02427 0.83856 0.76763
C39 C 0.3760(5) 1.0584(4) 0.69067(13)
H31 H 0.42227 1.07754 0.67352
C40 C -0.2081(5) 0.9180(5) 0.71234(14)
H32 H -0.21713 0.92230 0.69036
C41 C 0.0935(5) 1.0724(4) 0.65614(13)
H33 H 0.08994 1.14367 0.65926
C42 C -0.2967(5) 0.9558(5) 0.73107(16)
H34 H -0.36629 0.98588 0.72175
C43 C -0.1841(6) 0.9065(5) 0.77661(14)
H35 H -0.17594 0.90246 0.79861
C44 C -0.1227(5) 0.5328(4) 0.68179(13)
H36 H -0.11482 0.46632 0.69015
C45 C 0.3464(6) 0.7411(5) 0.83203(13)
H37 H 0.36620 0.72919 0.85335
C46 C 0.2174(6) 0.7107(5) 0.78709(12)
H38 H 0.15014 0.67764 0.77761
C47 C 0.3297(5) 1.1326(4) 0.70979(12)
H39 H 0.34462 1.20227 0.70573
C48 C -0.1454(4) 0.7271(5) 0.65705(12)
H40 H -0.15326 0.79326 0.64847
C49 C 0.2484(7) 0.6927(6) 0.81811(15)
H41 H 0.20221 0.64704 0.82984
C50 C -0.1979(5) 0.5502(5) 0.65602(14)
H42 H -0.24200 0.49557 0.64690
C51 C -0.2087(5) 0.6459(5) 0.64366(14)
H43 H -0.25964 0.65697 0.62587
C52 C -0.2848(5) 0.9500(5) 0.76297(15)
H44 H -0.34597 0.97603 0.77553
O10 O -0.2135(4) 0.6170(3) 0.55781(9)
H45 H -0.198(6) 0.551(2) 0.5619(12)
H46 H -0.219(6) 0.624(4) 0.5372(5)
O11 O 0.9914(4) 0.6010(4) 0.36859(13)
H47 H 0.92078 0.62022 0.37115
C53 C 1.0559(14) 0.6788(11) 0.3572(4)
H48 H 1.02949 0.69230 0.33563
H49 H 1.14094 0.66077 0.35787
H50 H 1.04382 0.73969 0.36978
O12 O 0.4384(5) 0.3862(5) 0.40842(15)
H51 H 0.356(2) 0.406(4) 0.4087(13)
H52 H 0.429(4) 0.327(3) 0.4228(11)
O13 O -0.0081(3) 0.7207(3) 0.57701(8)
H53 H -0.078(3) 0.695(4) 0.5696(13)
H54 H 0.019(4) 0.688(5) 0.5928(12)
O14 O 0.6214(4) 0.2566(4) 0.40915(10)
H55 H 0.570(3) 0.302(4) 0.4008(11)
H56 H 0.689(3) 0.263(4) 0.3975(12)
C54 C -0.4201(6) 0.8616(5) 0.64279(15)
H57 H -0.36224 0.90732 0.63347
H58 H -0.39878 0.79107 0.63828
H59 H -0.41895 0.87197 0.66533
O15 O -0.5363(4) 0.8824(4) 0.63017(10)
H60 H -0.522(6) 0.952(2) 0.6245(14)
O16 O 0.4643(3) 1.0388(3) 0.45137(9)
H61 H 0.520(6) 1.016(5) 0.4442(15)
H62 H 0.412(6) 1.055(5) 0.4406(15)
O17 O -0.1580(12) 0.4319(12) 0.5776(4)
O18 O 0.0905(4) 0.6060(3) 0.62484(9)
H63 H 0.065(6) 0.554(5) 0.6302(16)
H64 H 0.135(6) 0.589(5) 0.6119(16)
O19? O -0.2016(11) 0.4159(12) 0.5824(4)
C55? C 0.2331(14) 0.8273(13) 0.4192(3)
C5B C -0.0686(4) 0.4566(3) 0.47702(11)
C4B C 0.0295(4) 0.4451(4) 0.52575(11)
C7B C 0.5587(4) 0.4794(3) 0.52704(11)
C6B C 0.5437(4) 0.4645(3) 0.47319(11)
N3B N -0.0387(3) 0.4032(3) 0.50266(9)
H10B H -0.11667 0.42662 0.46088
H9B H 0.05035 0.40677 0.54383
N4B N 0.6028(3) 0.4439(3) 0.50028(9)
H12B H 0.59966 0.46505 0.54624
H11B H 0.57355 0.43985 0.45422
O3B O -0.0709(3) 0.3072(2) 0.50529(8)
O7B O 0.7042(3) 0.3933(2) 0.50045(8)
Yb1B Yb -0.25161(2) 0.22367(2) 0.50273(2)
Yb1B* Yb 0.74839(2) 0.22367(2) 0.50273(2)
O1B O -0.3263(3) 0.0644(2) 0.50941(8)
O2B O -0.0986(3) 0.1022(2) 0.49902(7)
O4B O -0.4243(3) 0.2185(3) 0.46984(8)
O5B O -0.1942(3) 0.2348(3) 0.45101(7)
O6B O -0.1805(3) 0.2156(3) 0.55404(7)
N1B N -0.4178(3) 0.2431(3) 0.53570(9)
O7B* O -0.2958(3) 0.3933(2) 0.50045(8)
H1B H -0.31364 0.02760 0.49336
H2B H -0.28683 0.03427 0.52427
N2B N -0.0108(3) 0.1005(3) 0.47948(9)
H3B H -0.47556 0.26387 0.47540
H4B H -0.40633 0.23661 0.45125
H5B H -0.25276 0.25953 0.43876
H6B H -0.13622 0.28043 0.44903
C1B C -0.5003(4) 0.2554(3) 0.55048(10)
C2B C -0.0246(4) 0.0471(4) 0.45270(11)
C3B C 0.0936(4) 0.1482(3) 0.48619(11)
Mo1B Mo -0.65652(3) 0.27665(3) 0.57748(2)
H7B H -0.09780 0.01290 0.44797
C8B C 0.0671(4) 0.0426(4) 0.43245(11)
C9B C 0.1848(4) 0.1443(4) 0.46573(11)
H8B H 0.10404 0.18459 0.50514
C10B C -0.6912(4) 0.1367(4) 0.55303(11)
C11B C -0.7040(4) 0.3245(4) 0.53054(11)
C12B C -0.8467(4) 0.2477(3) 0.57582(10)
C13B C -0.5698(4) 0.1555(4) 0.60281(11)
C14B C -0.7179(4) 0.4324(4) 0.58005(10)
C15B C -0.7123(4) 0.2927(4) 0.62493(11)
C16B C -0.5103(4) 0.3617(4) 0.59913(11)
N5B N 0.1706(3) 0.0924(3) 0.43859(9)
H13B H 0.05775 0.00407 0.41388
H14B H 0.25815 0.17807 0.47055
N6B N -0.7084(4) 0.0618(3) 0.5397(1)
N7B N -0.7304(3) 0.3480(3) 0.50555(9)
N8B N -0.9478(4) 0.2303(4) 0.57334(10)
N9B N -0.5211(4) 0.0878(3) 0.6147(1)
N10B N -0.7498(4) 0.5150(3) 0.5820(1)
N11B N -0.7449(4) 0.3047(3) 0.6499(1)
N12B N -0.4316(4) 0.4077(4) 0.6097(1)
O8B O 0.2563(3) 0.0905(3) 0.41890(8)
#END
