
#######################################################################
#
#                 Cambridge Crystallographic Data Centre
#                                CCDC
#
#######################################################################
#
# If this CIF has been generated from an entry in the Cambridge
# Structural Database, then it will include bibliographic, chemical,
# crystal, experimental, refinement or atomic coordinate data resulting
# from the CCDC's data processing and validation procedures.
#
#######################################################################

data_CSD_CIF_VOPLIY
_audit_creation_date 2019-07-31
_audit_creation_method CSD-ConQuest-V1
_database_code_CSD VOPLIY
_database_code_depnum_ccdc_archive 'CCDC 1911096'
_chemical_formula_sum 'C108.6 H140 Er2 Mo2 N26 O35.4 P4'
_chemical_formula_moiety
;
2(C36 H30 N1 P2 1+),n(C32 H32 Er2 Mo2 N24 O16 2-),4.6(C1 H4 O1),14.8(H2 O1)
;
_journal_coden_Cambridge 1747
_journal_volume 6
_journal_year 2019
_journal_page_first 2423
_journal_name_full 'Inorg.Chem.Front. '
loop_
_publ_author_name
"R.Jankowski"
"J.J.Zakrzewski"
"O.Surma"
"Shin-ichi Ohkoshi"
"S.Chorazy"
"B.Sieklucka"
_chemical_name_systematic
;
catena-[bis(bis(triphenylphosphino)iminium) bis(\m-cyano)-bis(\m-pyrazine 
N,N'-dioxide)-octa-aqua-tetradecacyano-bis(pyrazine 
N,N'-dioxide)-di-erbium(iii)-di-molybdenum(iv) methanol solvate hydrate]
;
_cell_volume   6350.926
_exptl_crystal_colour 'red'
_exptl_crystal_density_diffrn 1.576
_exptl_crystal_description 'block'
_diffrn_ambient_temperature 100
_refine_special_details
;
The structure is disordered.

;
#These two values have been output from a single CSD field.
_refine_ls_R_factor_gt 0.0531
_refine_ls_wR_factor_gt 0.0531
_symmetry_cell_setting monoclinic
_symmetry_space_group_name_H-M 'P 21/c'
_symmetry_Int_Tables_number 14
loop_
_symmetry_equiv_pos_site_id
_symmetry_equiv_pos_as_xyz
1 x,y,z
2 -x,1/2+y,1/2-z
3 -x,-y,-z
4 x,-1/2-y,-1/2+z
_cell_length_a 11.1793(3)
_cell_length_b 13.1976(4)
_cell_length_c 43.0696(13)
_cell_angle_alpha 90
_cell_angle_beta 91.918(1)
_cell_angle_gamma 90
_cell_formula_units_Z 2
loop_
_atom_type_symbol
_atom_type_radius_bond
C 0.68
H 0.23
Er 1.89
Mo 1.54
N 0.68
O 0.68
P 1.05
loop_
_atom_site_label
_atom_site_type_symbol
_atom_site_fract_x
_atom_site_fract_y
_atom_site_fract_z
Er1 Er 0.25118(2) 0.77700(2) 0.49746(2)
O1 O 0.3265(3) 0.9373(3) 0.49047(9)
O2 O 0.0972(3) 0.8985(2) 0.50136(8)
O3 O 0.0690(3) 0.6928(2) 0.49474(8)
O4 O 0.4241(3) 0.7822(3) 0.53070(8)
O5 O 0.1929(3) 0.7649(3) 0.54955(8)
O6 O 0.1800(3) 0.7850(3) 0.44562(8)
O7 O 0.2963(3) 0.6067(2) 0.49963(9)
N1 N 0.4193(4) 0.7572(3) 0.46431(10)
H1 H 0.30810 0.97565 0.50572
H2 H 0.29159 0.96531 0.47450
N2 N 0.0093(3) 0.9002(3) 0.52093(10)
N3 N 0.0376(3) 0.5970(3) 0.4974(1)
H3 H 0.47562 0.73705 0.52507
H4 H 0.40624 0.76366 0.54927
H5 H 0.25114 0.73927 0.56173
H6 H 0.13425 0.71987 0.55146
N4 N 0.3976(4) 0.5560(3) 0.49997(10)
C1 C 0.5021(4) 0.7445(3) 0.44962(11)
C2 C 0.0227(4) 0.9539(4) 0.54758(12)
C3 C -0.0946(4) 0.8520(4) 0.51423(12)
C4 C -0.0293(4) 0.5549(4) 0.47412(12)
C5 C 0.0676(4) 0.5433(4) 0.52298(11)
C6 C 0.4561(4) 0.5350(4) 0.52682(11)
C7 C 0.4413(5) 0.5213(4) 0.47284(12)
Mo1 Mo 0.65740(3) 0.72327(3) 0.42249(2)
H7 H 0.09545 0.98891 0.55212
C8 C -0.0678(4) 0.9578(4) 0.56789(12)
C9 C -0.1854(4) 0.8559(4) 0.53461(12)
H8 H -0.10466 0.81530 0.49534
H9 H -0.04957 0.59279 0.45595
H10 H 0.11558 0.57342 0.53911
H11 H 0.42610 0.55943 0.54579
H12 H 0.40059 0.53632 0.45368
C10 C 0.6915(4) 0.8632(4) 0.44669(12)
C11 C 0.7049(4) 0.6756(4) 0.46924(11)
C12 C 0.8475(4) 0.7520(4) 0.42400(11)
C13 C 0.5698(4) 0.8440(4) 0.39718(11)
C14 C 0.7191(5) 0.5680(4) 0.41997(11)
C15 C 0.7127(4) 0.7071(4) 0.37494(11)
C16 C 0.5114(5) 0.6381(4) 0.40090(11)
N5 N -0.1715(4) 0.9078(3) 0.56186(10)
H13 H -0.05794 0.99595 0.58649
H14 H -0.25877 0.82227 0.52977
N6 N 0.7092(4) 0.9380(4) 0.46014(11)
N7 N 0.7313(4) 0.6525(3) 0.49436(10)
N8 N 0.9482(4) 0.7694(4) 0.42645(11)
N9 N 0.5210(4) 0.9112(4) 0.38527(11)
N10 N 0.7516(4) 0.4860(4) 0.41775(10)
N11 N 0.7457(5) 0.6954(4) 0.35015(11)
N12 N 0.4316(4) 0.5929(4) 0.39044(11)
O8 O -0.2569(3) 0.9093(3) 0.58152(9)
O9 O 0.2669(5) 0.8890(4) 0.39756(13)
P1 P 0.24896(12) 0.79902(10) 0.72967(3)
P2 P 0.00481(12) 0.81554(10) 0.70246(3)
N13 N 0.1110(4) 0.7735(4) 0.72385(10)
C17 C 0.0489(4) 0.9031(4) 0.67293(12)
C18 C 0.3421(5) 0.7152(4) 0.70749(11)
C19 C 0.3844(5) 0.8258(4) 0.78443(13)
H15 H 0.43034 0.87225 0.77291
C20 C 0.2862(5) 0.7772(4) 0.77010(12)
C21 C 0.2907(5) 0.6598(4) 0.68302(12)
H16 H 0.20772 0.66639 0.67791
C22 C 0.1489(5) 1.0342(4) 0.63056(13)
H17 H 0.18350 1.07896 0.61609
C23 C -0.1055(5) 0.8747(4) 0.72631(12)
C24 C 0.4820(5) 0.5856(4) 0.67330(13)
H18 H 0.52992 0.54144 0.66150
C25 C 0.2410(5) 1.0040(4) 0.74095(13)
H19 H 0.19466 0.98577 0.75817
C26 C 0.4154(6) 0.8068(5) 0.81528(14)
H20 H 0.48255 0.83951 0.82492
C27 C 0.1036(5) 0.8643(4) 0.64670(12)
H21 H 0.10632 0.79327 0.64324
C28 C 0.2871(4) 0.9283(4) 0.72202(12)
C29 C 0.4636(5) 0.7052(4) 0.71485(13)
H22 H 0.49866 0.74280 0.73162
C30 C 0.3554(5) 0.9566(4) 0.69660(13)
H23 H 0.38741 0.90627 0.68348
C31 C 0.0437(5) 1.0078(4) 0.67756(13)
H24 H 0.00585 1.03428 0.69523
C32 C -0.0581(5) 0.6146(4) 0.69542(13)
H25 H -0.00597 0.60274 0.71292
C33 C 0.1536(5) 0.9306(5) 0.62586(13)
H26 H 0.19163 0.90461 0.60814
C34 C 0.3612(5) 0.5951(4) 0.66614(12)
H27 H 0.32621 0.55686 0.64950
C35 C -0.0704(4) 0.7111(4) 0.68332(12)
C36 C 0.2621(6) 1.1051(5) 0.73481(13)
H28 H 0.23025 1.15582 0.74781
C37 C 0.5335(5) 0.6407(5) 0.69779(13)
H29 H 0.61650 0.63401 0.70282
C38 C -0.0936(5) 0.8688(4) 0.75841(13)
H30 H -0.02416 0.83896 0.76785
C39 C 0.3760(5) 1.0586(5) 0.69073(13)
H31 H 0.42203 1.07783 0.67355
C40 C -0.2073(5) 0.9188(5) 0.71268(15)
H32 H -0.21590 0.92307 0.69070
C41 C 0.0937(5) 1.0728(4) 0.65642(14)
H33 H 0.09021 1.14395 0.65959
C42 C -0.2964(5) 0.9565(5) 0.73120(16)
H34 H -0.36597 0.98653 0.72188
C43 C -0.1839(6) 0.9067(5) 0.77688(15)
H35 H -0.17617 0.90238 0.79887
C44 C -0.1222(6) 0.5348(5) 0.68189(14)
H36 H -0.11420 0.46847 0.69025
C45 C 0.3482(7) 0.7403(5) 0.83174(14)
H37 H 0.36875 0.72748 0.85296
C46 C 0.2194(6) 0.7103(5) 0.78707(14)
H38 H 0.15219 0.67712 0.77760
C47 C 0.3295(5) 1.1326(4) 0.70984(13)
H39 H 0.34409 1.20212 0.70575
C48 C -0.1454(5) 0.7285(5) 0.65734(14)
H40 H -0.15297 0.79475 0.64889
C49 C 0.2509(8) 0.6916(6) 0.81794(16)
H41 H 0.20541 0.64521 0.82961
C50 C -0.1979(5) 0.5520(5) 0.65616(15)
H42 H -0.24199 0.49737 0.64707
C51 C -0.2091(5) 0.6481(5) 0.64379(15)
H43 H -0.26028 0.65955 0.62608
C52 C -0.2840(5) 0.9503(5) 0.76302(16)
H44 H -0.34516 0.97631 0.77557
O10 O -0.2156(4) 0.6175(3) 0.55794(9)
H45 H -0.203(6) 0.551(2) 0.5621(12)
H46 H -0.231(6) 0.622(4) 0.5374(5)
O11 O 0.9914(5) 0.6010(4) 0.36866(14)
H47 H 0.92046 0.62015 0.37074
C53 C 1.0569(12) 0.6787(9) 0.3565(4)
H48 H 1.02592 0.69435 0.33549
H49 H 1.14100 0.65825 0.35564
H50 H 1.05049 0.73883 0.36968
O12 O 0.4385(5) 0.3867(4) 0.40821(13)
H51 H 0.355(2) 0.398(4) 0.4085(15)
H52 H 0.446(4) 0.323(3) 0.4198(11)
O13 O -0.0104(3) 0.7216(3) 0.57755(9)
H53 H -0.077(4) 0.690(4) 0.5707(14)
H54 H 0.018(5) 0.685(5) 0.5942(13)
O14 O 0.6210(4) 0.2561(4) 0.40882(10)
H55 H 0.557(2) 0.249(5) 0.3958(9)
H56 H 0.686(3) 0.266(5) 0.3971(11)
C54 C -0.4205(6) 0.8629(6) 0.64299(16)
H57 H -0.36223 0.90764 0.63344
H58 H -0.40029 0.79215 0.63866
H59 H -0.41874 0.87399 0.66550
O15 O -0.5364(4) 0.8844(4) 0.63053(11)
H60 H -0.531(6) 0.952(2) 0.6253(16)
O16 O 0.4645(4) 1.0383(3) 0.45092(10)
H61 H 0.520(7) 1.016(6) 0.4439(17)
H62 H 0.408(6) 1.055(5) 0.4375(16)
O17 O -0.1545(13) 0.4343(12) 0.5780(4)
O18 O 0.0899(4) 0.6066(3) 0.62496(10)
H63 H 0.059(6) 0.558(6) 0.6301(17)
H64 H 0.142(6) 0.590(5) 0.6129(17)
O19? O -0.1995(12) 0.4171(12) 0.5819(4)
C55? C 0.2325(15) 0.8263(13) 0.4187(3)
O3B O -0.0690(3) 0.3072(2) 0.50526(8)
N3B N -0.0376(3) 0.4030(3) 0.5026(1)
C4B C 0.0293(4) 0.4451(4) 0.52588(12)
C5B C -0.0676(4) 0.4567(4) 0.47702(11)
H9B H 0.04957 0.40721 0.54405
H10B H -0.11558 0.42658 0.46089
O7B O 0.7037(3) 0.3933(2) 0.50037(9)
N4B N 0.6024(4) 0.4440(3) 0.50003(10)
C6B C 0.5439(4) 0.4650(4) 0.47318(11)
C7B C 0.5587(5) 0.4787(4) 0.52716(12)
H11B H 0.57390 0.44057 0.45421
H12B H 0.59940 0.46368 0.54632
Er1B Er -0.25118(2) 0.22300(2) 0.50254(2)
O1B O -0.3265(3) 0.0627(3) 0.50953(9)
O2B O -0.0972(3) 0.1015(2) 0.49864(8)
O4B O -0.4241(3) 0.2178(3) 0.46930(8)
O5B O -0.1929(3) 0.2351(3) 0.45045(8)
O6B O -0.1800(3) 0.2150(3) 0.55438(8)
N1B N -0.4193(4) 0.2428(3) 0.53569(10)
H1B H -0.30810 0.02435 0.49428
H2B H -0.29159 0.03469 0.52550
N2B N -0.0093(3) 0.0998(3) 0.47907(10)
H3B H -0.47562 0.26295 0.47493
H4B H -0.40624 0.23634 0.45073
H5B H -0.25114 0.26073 0.43827
H6B H -0.13425 0.28013 0.44854
C1B C -0.5021(4) 0.2555(3) 0.55038(11)
C2B C -0.0227(4) 0.0461(4) 0.45242(12)
C3B C 0.0946(4) 0.1480(4) 0.48577(12)
Mo1B Mo -0.65740(3) 0.27673(3) 0.57751(2)
H7B H -0.09545 0.01109 0.44788
C8B C 0.0678(4) 0.0422(4) 0.43211(12)
C9B C 0.1854(4) 0.1441(4) 0.46539(12)
H8B H 0.10466 0.18470 0.50466
C10B C -0.6915(4) 0.1368(4) 0.55331(12)
C11B C -0.7049(4) 0.3244(4) 0.53076(11)
C12B C -0.8475(4) 0.2480(4) 0.57600(11)
C13B C -0.5698(4) 0.1560(4) 0.60282(11)
C14B C -0.7191(5) 0.4320(4) 0.58003(11)
C15B C -0.7127(4) 0.2929(4) 0.62506(11)
C16B C -0.5114(5) 0.3619(4) 0.59910(11)
N5B N 0.1715(4) 0.0922(3) 0.43814(10)
H13B H 0.05794 0.00405 0.41351
H14B H 0.25877 0.17773 0.47023
N6B N -0.7092(4) 0.0620(4) 0.53986(11)
N7B N -0.7313(4) 0.3475(3) 0.50564(10)
N8B N -0.9482(4) 0.2306(4) 0.57355(11)
N9B N -0.5210(4) 0.0888(4) 0.61473(11)
N10B N -0.7516(4) 0.5140(4) 0.58225(10)
N11B N -0.7457(5) 0.3046(4) 0.64985(11)
N12B N -0.4316(4) 0.4071(4) 0.60956(11)
O8B O 0.2569(3) 0.0907(3) 0.41848(9)
Er1B* Er 0.74882(2) 0.22300(2) 0.50254(2)
O7B* O -0.2963(3) 0.3933(2) 0.50037(9)
#END
