
#######################################################################
#
#                 Cambridge Crystallographic Data Centre
#                                CCDC
#
#######################################################################
#
# If this CIF has been generated from an entry in the Cambridge
# Structural Database, then it will include bibliographic, chemical,
# crystal, experimental, refinement or atomic coordinate data resulting
# from the CCDC's data processing and validation procedures.
#
#######################################################################

data_CSD_CIF_VOPQAV
_audit_creation_date 2019-07-31
_audit_creation_method CSD-ConQuest-V1
_database_code_CSD VOPQAV
_database_code_depnum_ccdc_archive 'CCDC 1938579'
_chemical_formula_sum 'C104 H128 N26 O34 P4 W2 Yb2'
_chemical_formula_moiety
;
2(C36 H30 N1 P2 1+),(C32 H32 N24 O16 W2 Yb2 2-)n,18(H2 O1)
;
_journal_coden_Cambridge 1747
_journal_volume 6
_journal_year 2019
_journal_page_first 2423
_journal_name_full 'Inorg.Chem.Front. '
loop_
_publ_author_name
"R.Jankowski"
"J.J.Zakrzewski"
"O.Surma"
"Shin-ichi Ohkoshi"
"S.Chorazy"
"B.Sieklucka"
_chemical_name_systematic
;
catena-[bis(bis(triphenylphosphino)iminium) bis(\m-cyano)-bis(\m-pyrazine 
N,N'-dioxide)-octa-aqua-tetradecacyano-bis(pyrazine 
N,N'-dioxide)-di-tungsten(iv)-di-ytterbium(iii) octadecahydrate]
;
_cell_volume   6225.669
_exptl_crystal_colour 'black'
_exptl_crystal_density_diffrn 1.648
_exptl_crystal_description 'block'
_diffrn_ambient_temperature 100
_refine_special_details
;
O8A and C9 disordered over two sites with occupancies 0.9:0.3.

;
#These two values have been output from a single CSD field.
_refine_ls_R_factor_gt 0.1077
_refine_ls_wR_factor_gt 0.1077
_symmetry_cell_setting monoclinic
_symmetry_space_group_name_H-M 'P 21/c'
_symmetry_Int_Tables_number 14
loop_
_symmetry_equiv_pos_site_id
_symmetry_equiv_pos_as_xyz
1 x,y,z
2 -x,1/2+y,1/2-z
3 -x,-y,-z
4 x,-1/2-y,-1/2+z
_cell_length_a 11.1462(13)
_cell_length_b 13.0441(17)
_cell_length_c 42.861(5)
_cell_angle_alpha 90
_cell_angle_beta 92.511(3)
_cell_angle_gamma 90
_cell_formula_units_Z 2
loop_
_atom_type_symbol
_atom_type_radius_bond
C 0.68
H 0.23
N 0.68
O 0.68
P 1.05
W 1.62
Yb 1.87
loop_
_atom_site_label
_atom_site_type_symbol
_atom_site_fract_x
_atom_site_fract_y
_atom_site_fract_z
Yb1 Yb 0.25175(6) 0.77835(7) 0.49717(2)
W1 W 0.65311(6) 0.71945(7) 0.42170(2)
O1 O 0.3281(11) 0.9378(10) 0.4905(3)
H1 H 0.33326 0.97025 0.50820
H2 H 0.27812 0.97479 0.47922
O2 O 0.0971(9) 0.9001(9) 0.5010(3)
O3 O 0.0694(10) 0.6937(8) 0.4945(3)
O4 O 0.4271(10) 0.7824(11) 0.5300(3)
H3 H 0.47080 0.72613 0.52886
H4 H 0.40703 0.78344 0.54955
O5 O 0.1972(10) 0.7698(10) 0.5492(2)
H5 H 0.25199 0.73744 0.56116
H6 H 0.13279 0.73021 0.55087
O6 O 0.1780(9) 0.7885(10) 0.4455(3)
O7 O 0.2941(9) 0.6101(8) 0.4996(2)
O8 O -0.2534(10) 0.9062(10) 0.5822(3)
N1 N 0.3976(12) 0.5571(11) 0.5000(3)
N2 N 0.4168(11) 0.7571(10) 0.4634(3)
N3 N 0.0399(11) 0.5973(11) 0.4970(3)
N4 N 0.0104(11) 0.9003(11) 0.5212(3)
N5 N -0.1684(12) 0.9038(11) 0.5621(3)
N6 N 0.7302(13) 0.6484(11) 0.4936(3)
N7 N 0.9441(13) 0.7630(12) 0.4252(3)
C1 C 0.4998(13) 0.7434(12) 0.4485(4)
N8 N 0.7399(14) 0.4779(12) 0.4175(3)
N9 N 0.7095(12) 0.9378(11) 0.4598(3)
C2 C -0.0264(14) 0.5535(13) 0.4733(4)
H7 H -0.04325 0.59038 0.45446
C3 C 0.4577(13) 0.5367(13) 0.5273(4)
N10 N 0.5189(14) 0.9127(13) 0.3841(4)
C4 C 0.5605(16) 0.4791(14) 0.5271(4)
H8 H 0.60315 0.46432 0.54622
C5 C 0.6912(13) 0.8613(12) 0.4460(4)
C6 C 0.0248(16) 0.9526(14) 0.5471(4)
H9 H 0.09743 0.98893 0.55152
C7 C 0.7039(13) 0.6727(12) 0.4689(4)
N11 N 0.7347(14) 0.6874(12) 0.3487(3)
C8 C 0.8419(14) 0.7470(12) 0.4227(4)
C9 C 0.0691(13) 0.5444(12) 0.5234(4)
H10 H 0.11864 0.57472 0.53946
C10 C 0.5685(15) 0.8406(14) 0.3958(4)
C11 C -0.1833(15) 0.8526(13) 0.5356(4)
H11 H -0.25649 0.81724 0.53105
C12 C -0.0932(14) 0.8501(14) 0.5144(4)
H12 H -0.10416 0.81340 0.49535
C13 C 0.7108(15) 0.5599(14) 0.4202(4)
N12 N 0.4220(14) 0.5860(13) 0.3914(4)
C14 C 0.7034(15) 0.7003(13) 0.3741(4)
C15 C 0.5043(15) 0.6329(14) 0.4007(4)
C16 C -0.0668(14) 0.9549(14) 0.5681(4)
H13 H -0.05662 0.99325 0.58686
C17? C 0.238(5) 0.825(5) 0.420(1)
O9 O 0.2637(12) 0.8939(11) 0.3969(3)
P1 P 0.2448(4) 0.8036(4) 0.72909(11)
P2 P 0.0017(4) 0.8199(4) 0.70034(12)
N13 N 0.1065(12) 0.7781(13) 0.7222(3)
C18 C 0.0488(15) 0.9067(14) 0.6705(4)
C19 C 0.3371(14) 0.7220(17) 0.7074(4)
C20 C 0.3794(19) 0.8265(14) 0.7844(4)
H14 H 0.43021 0.86862 0.77265
C21 C 0.2789(16) 0.7824(17) 0.7699(4)
C22 C 0.2904(16) 0.6579(14) 0.6846(5)
H15 H 0.20641 0.65982 0.67976
C23 C 0.1544(16) 1.0359(17) 0.6289(5)
H16 H 0.19145 1.08053 0.61474
C24 C -0.1085(18) 0.8791(16) 0.7234(5)
C25 C 0.4827(17) 0.5900(18) 0.6743(5)
H17 H 0.53169 0.54643 0.66247
C26 C 0.2374(14) 1.0089(15) 0.7399(4)
H18 H 0.19023 0.98882 0.75682
C27 C 0.4071(19) 0.8104(15) 0.8157(5)
H19 H 0.47784 0.83941 0.82516
C28 C 0.1084(14) 0.8670(14) 0.6454(4)
H20 H 0.11140 0.79482 0.64255
C29 C 0.2829(16) 0.9352(14) 0.7214(4)
C30 C 0.4629(17) 0.7148(19) 0.7132(5)
H21 H 0.49956 0.75602 0.72918
C31 C 0.3533(14) 0.9630(15) 0.6968(4)
H22 H 0.38612 0.91210 0.68382
C32 C 0.0415(16) 1.0114(15) 0.6743(5)
H23 H 0.00077 1.03826 0.69152
C33 C -0.0661(16) 0.6164(14) 0.6945(4)
H24 H -0.01861 0.60597 0.71319
C34 C 0.1629(16) 0.9302(16) 0.6248(5)
H25 H 0.20555 0.90264 0.60797
C35 C 0.3605(16) 0.5904(15) 0.6684(4)
H26 H 0.32464 0.54491 0.65345
C36 C -0.0724(14) 0.7132(16) 0.6813(4)
C37 C 0.2574(17) 1.1135(16) 0.7350(4)
H27 H 0.22368 1.16358 0.74811
C38 C 0.5340(17) 0.6504(19) 0.6965(5)
H28 H 0.61838 0.64866 0.70067
C39 C -0.0982(18) 0.8762(16) 0.7554(5)
H29 H -0.02856 0.84663 0.76536
C40 C 0.3751(17) 1.0662(15) 0.6916(5)
H30 H 0.42297 1.08558 0.67474
C41 C -0.2112(19) 0.9249(17) 0.7093(5)
H31 H -0.21992 0.92898 0.68720
C42 C 0.0922(16) 1.0777(16) 0.6537(4)
H32 H 0.08515 1.14983 0.65611
C43 C -0.301(2) 0.9648(18) 0.7278(5)
H33 H -0.36964 0.99581 0.71791
C44 C -0.1879(18) 0.9157(16) 0.7737(5)
H34 H -0.17991 0.91301 0.79587
C45 C -0.1280(18) 0.5345(16) 0.6810(4)
H35 H -0.12044 0.46774 0.68973
C46 C 0.332(2) 0.7524(16) 0.8331(5)
H36 H 0.34991 0.74259 0.85475
C47 C 0.2051(19) 0.7259(19) 0.7875(5)
H37 H 0.13418 0.69806 0.77775
C48 C 0.3277(16) 1.1424(16) 0.7105(5)
H38 H 0.34350 1.21276 0.70672
C49 C -0.1475(16) 0.7293(18) 0.6544(5)
H39 H -0.15484 0.79546 0.64525
C50 C 0.229(2) 0.707(2) 0.8188(5)
H40 H 0.17699 0.66534 0.83042
C51 C -0.1997(18) 0.5509(19) 0.6549(5)
H41 H -0.24303 0.49487 0.64586
C52 C -0.2114(17) 0.6454(18) 0.6414(5)
H42 H -0.26252 0.65450 0.62330
C53 C -0.292(2) 0.9602(18) 0.7586(5)
H43 H -0.35427 0.98652 0.77068
O10 O -0.1977(11) 0.6103(10) 0.5564(3)
O11 O 0.9899(13) 0.6032(11) 0.3643(4)
O12 O -0.0006(9) 0.7175(11) 0.5778(3)
O13 O 0.6220(14) 0.2655(13) 0.4081(3)
O14 O 0.4652(10) 1.0375(10) 0.4498(3)
O15 O 0.0908(11) 0.6014(11) 0.6258(3)
O16 O -0.1903(11) 0.4146(10) 0.5827(3)
O17 O 0.587(8) 0.693(7) 0.574(2)
O18 O 0.513(2) 0.1247(17) 0.3697(5)
O3B O -0.0694(10) 0.3063(8) 0.5055(3)
N3B N -0.0399(11) 0.4027(11) 0.5030(3)
C2B C 0.0264(14) 0.4465(13) 0.5267(4)
H7B H 0.04325 0.40962 0.54554
C9B C -0.0691(13) 0.4556(12) 0.4766(4)
H10B H -0.11864 0.42528 0.46054
O7B O 0.7059(9) 0.3899(8) 0.5004(2)
N1B N 0.6024(12) 0.4429(11) 0.5000(3)
C3B C 0.5423(13) 0.4633(13) 0.4727(4)
C4B C 0.4395(16) 0.5209(14) 0.4729(4)
H8B H 0.39685 0.53568 0.45378
Yb1B Yb -0.25175(6) 0.22165(7) 0.50283(2)
W1B W -0.65311(6) 0.28055(7) 0.57830(2)
O1B O -0.3281(11) 0.0622(10) 0.5095(3)
H1B H -0.33326 0.02975 0.49180
H2B H -0.27812 0.02521 0.52078
O2B O -0.0971(9) 0.0999(9) 0.4990(3)
O4B O -0.4271(10) 0.2176(11) 0.4700(3)
H3B H -0.47080 0.27387 0.47114
H4B H -0.40703 0.21656 0.45045
O5B O -0.1972(10) 0.2302(10) 0.4508(2)
H5B H -0.25199 0.26256 0.43884
H6B H -0.13279 0.26979 0.44913
O6B O -0.1780(9) 0.2115(10) 0.5545(3)
O8B O 0.2534(10) 0.0938(10) 0.4178(3)
N2B N -0.4168(11) 0.2429(10) 0.5366(3)
N4B N -0.0104(11) 0.0997(11) 0.4788(3)
N5B N 0.1684(12) 0.0962(11) 0.4379(3)
N6B N -0.7302(13) 0.3516(11) 0.5064(3)
N7B N -0.9441(13) 0.2370(12) 0.5748(3)
C1B C -0.4998(13) 0.2566(12) 0.5515(4)
N8B N -0.7399(14) 0.5221(12) 0.5825(3)
N9B N -0.7095(12) 0.0622(11) 0.5402(3)
N10B N -0.5189(14) 0.0873(13) 0.6159(4)
C5B C -0.6912(13) 0.1387(12) 0.5540(4)
C6B C -0.0248(16) 0.0474(14) 0.4529(4)
H9B H -0.09743 0.01107 0.44848
C7B C -0.7039(13) 0.3273(12) 0.5311(4)
N11B N -0.7347(14) 0.3126(12) 0.6513(3)
C8B C -0.8419(14) 0.2530(12) 0.5773(4)
C10B C -0.5685(15) 0.1594(14) 0.6042(4)
C11B C 0.1833(15) 0.1474(13) 0.4644(4)
H11B H 0.25649 0.18276 0.46895
C12B C 0.0932(14) 0.1499(14) 0.4856(4)
H12B H 0.10416 0.18660 0.50465
C13B C -0.7108(15) 0.4401(14) 0.5798(4)
N12B N -0.4220(14) 0.4140(13) 0.6086(4)
C14B C -0.7034(15) 0.2997(13) 0.6259(4)
C15B C -0.5043(15) 0.3671(14) 0.5993(4)
C16B C 0.0668(14) 0.0451(14) 0.4319(4)
H13B H 0.05662 0.00675 0.41314
Yb1B* Yb 0.74825(6) 0.22165(7) 0.50283(2)
O7B* O -0.2941(9) 0.3899(8) 0.5004(2)
O9B O -0.2637(12) 0.1061(11) 0.6031(3)
#END
