
#######################################################################
#
#                 Cambridge Crystallographic Data Centre
#                                CCDC
#
#######################################################################
#
# If this CIF has been generated from an entry in the Cambridge
# Structural Database, then it will include bibliographic, chemical,
# crystal, experimental, refinement or atomic coordinate data resulting
# from the CCDC's data processing and validation procedures.
#
#######################################################################

data_CSD_CIF_VORNAR24
_audit_creation_date 2014-12-23
_audit_creation_method CSD-ConQuest-V1
_database_code_CSD VORNAR24
_database_code_depnum_ccdc_archive 'CCDC 1016172'
_chemical_formula_sum 'C23 H16 Cu1 N4 S16'
_chemical_formula_moiety
;
C10 H8 S8 1+,C10 H8 S8,n(C3 Cu1 N4 1-)
;
_journal_coden_Cambridge 1695
_journal_volume 3
_journal_year 2015
_journal_page_first 1378
_journal_name_full 'J.Mater.Chem.C '
loop_
_publ_author_name
"T.Hiramatsu"
"Y.Yoshida"
"G.Saito"
"A.Otsuka"
"H.Yamochi"
"M.Maesato"
"Y.Shimizu"
"H.Ito"
"H.Kishida"
_chemical_name_systematic
;
catena-(bis(bis(Ethylenedithio)tetrathiafulvalene) 
(\m-cyano)-(dicyanamide)-copper)
;
_cell_volume   1635.790
_exptl_crystal_colour 'black'
_exptl_crystal_density_diffrn 1.878
_exptl_special_details
;
Magnetic properties, electronic property
kappa polymorph

;
_exptl_crystal_description 'elongate hexagonal plate'
_exptl_crystal_preparation 'electrocrystallization'
_diffrn_ambient_temperature 200
#These two values have been output from a single CSD field.
_refine_ls_R_factor_gt 0.0386
_refine_ls_wR_factor_gt 0.0386
_symmetry_cell_setting monoclinic
_symmetry_space_group_name_H-M 'P 21'
_symmetry_Int_Tables_number 4
loop_
_symmetry_equiv_pos_site_id
_symmetry_equiv_pos_as_xyz
1 x,y,z
2 -x,1/2+y,-z
_cell_length_a 15.947(2)
_cell_length_b 8.5931(11)
_cell_length_c 12.7978(17)
_cell_angle_alpha 90
_cell_angle_beta 111.133(2)
_cell_angle_gamma 90
_cell_formula_units_Z 2
loop_
_atom_type_symbol
_atom_type_radius_bond
C 0.68
H 0.23
Cu 1.32
N 0.68
S 1.02
loop_
_atom_site_label
_atom_site_type_symbol
_atom_site_fract_x
_atom_site_fract_y
_atom_site_fract_z
Cu1 Cu 0.01014(6) -0.15960(14) 0.40832(9)
C1 C 0.0126(5) -0.3592(10) 0.4671(7)
N1 N 0.0149(4) -0.0648(9) 0.2728(6)
N2 N -0.0131(4) 0.0259(8) 0.4886(6)
C2 C 0.0123(5) 0.0202(10) 0.1982(8)
N3 N 0.0074(4) 0.1027(9) 0.1101(6)
C3 C 0.0016(5) 0.2519(11) 0.1217(8)
N4 N -0.0074(6) 0.3812(13) 0.1157(9)
C4 C 0.4671(4) 0.6241(10) 0.1486(6)
C5 C 0.5411(4) 0.6268(10) 0.1200(6)
C6 C 0.3457(5) 0.7045(9) 0.2280(6)
C7 C 0.3075(5) 0.5935(10) 0.1502(6)
C8 C 0.6981(5) 0.6933(9) 0.1156(6)
C9 C 0.6679(5) 0.5721(10) 0.0447(6)
C10 C 0.1950(5) 0.7059(11) 0.2803(7)
H1 H 0.20900 0.60500 0.32190
H2 H 0.15600 0.76750 0.31120
C11 C 0.1429(5) 0.6723(10) 0.1604(7)
H3 H 0.13460 0.77130 0.11680
H4 H 0.08190 0.63340 0.15320
C12 C 0.8611(5) 0.6862(9) 0.0788(6)
H5 H 0.90710 0.75710 0.06810
H6 H 0.89380 0.59740 0.12680
C13 C 0.8019(5) 0.6230(11) -0.0346(6)
H7 H 0.84150 0.58030 -0.07310
H8 H 0.76700 0.71130 -0.08100
S1 S 0.45749(12) 0.7498(2) 0.25101(16)
S2 S 0.37491(11) 0.5050(2) 0.08612(16)
S3 S 0.62658(12) 0.7620(2) 0.18013(16)
S4 S 0.55999(12) 0.5019(2) 0.02415(16)
S5 S 0.29889(13) 0.8109(3) 0.30808(18)
S6 S 0.19582(13) 0.5308(3) 0.1006(2)
S7 S 0.80013(12) 0.7922(2) 0.15256(17)
S8 S 0.72457(13) 0.4743(3) -0.03016(18)
C14 C 0.4631(4) 0.3434(11) 0.3723(5)
C15 C 0.5381(4) 0.3431(11) 0.3449(5)
C16 C 0.3445(4) 0.3908(9) 0.4622(6)
C17 C 0.3110(4) 0.2766(9) 0.3881(6)
C18 C 0.6991(4) 0.3743(9) 0.3477(6)
C19 C 0.6610(4) 0.2681(9) 0.2688(6)
C20 C 0.2073(4) 0.3449(11) 0.5388(5)
H9 H 0.23390 0.24810 0.58120
H10 H 0.16750 0.39240 0.57530
C21 C 0.1503(4) 0.3008(10) 0.4197(6)
H11 H 0.13150 0.39760 0.37380
H12 H 0.09470 0.24700 0.41960
C22 C 0.8432(5) 0.3795(9) 0.2838(6)
H13 H 0.81040 0.44740 0.21830
H14 H 0.90890 0.40000 0.30470
C23 C 0.8248(5) 0.2107(10) 0.2479(7)
H15 H 0.85410 0.14280 0.31460
H16 H 0.85350 0.18750 0.19190
S9 S 0.44973(11) 0.4645(2) 0.47460(16)
S10 S 0.37536(12) 0.2155(2) 0.30932(17)
S11 S 0.63048(11) 0.4634(2) 0.41066(15)
S12 S 0.54700(12) 0.2258(2) 0.23928(16)
S13 S 0.29660(13) 0.4789(3) 0.54942(17)
S14 S 0.20915(12) 0.1745(2) 0.35557(17)
S15 S 0.81078(11) 0.4343(2) 0.39913(16)
S16 S 0.70712(13) 0.1601(3) 0.18756(18)
C1A C -0.0126(5) 0.1408(10) 0.5329(7)
Cu1A Cu -0.01014(6) 0.34040(14) 0.59168(9)
#END
