
#######################################################################
#
#                 Cambridge Crystallographic Data Centre
#                                CCDC
#
#######################################################################
#
# If this CIF has been generated from an entry in the Cambridge
# Structural Database, then it will include bibliographic, chemical,
# crystal, experimental, refinement or atomic coordinate data resulting
# from the CCDC's data processing and validation procedures.
#
#######################################################################

data_CSD_CIF_VORNAR20
_audit_creation_date 1994-07-13
_audit_creation_method CSD-ConQuest-V1
_database_code_CSD VORNAR20
_chemical_formula_sum 'C23 H16 Cu1 N4 S16'
_chemical_formula_moiety
;
(C10 H8 S8 1+)n,n(C10 H8 S8),n(C3 Cu1 N4 1-)
;
_journal_coden_Cambridge 4
_journal_volume 115
_journal_year 1993
_journal_page_first 11319
_journal_name_full 'J.Am.Chem.Soc. '
loop_
_publ_author_name
"H.Yamochi"
"T.Komatsu"
"N.Matsukawa"
"G.Saito"
"T.Mori"
"M.Kusunoki"
"K.Sakaguchi"
_chemical_name_systematic
;
catena-(bis(bis(Ethylenedithio)tetrathiafulvalene) 
((\m~2~-cyano)-dicyanamide)-copper)
;
_cell_volume   1663.450
_exptl_crystal_colour 'black'
_exptl_crystal_density_diffrn 1.846
_diffrn_ambient_temperature ?
_diffrn_special_details
;
The study was carried out at room temperature,in the range 283-303K

;
#These two values have been output from a single CSD field.
_refine_ls_R_factor_gt 0.0506
_refine_ls_wR_factor_gt 0.0506
_symmetry_cell_setting monoclinic
_symmetry_space_group_name_H-M 'P 21'
_symmetry_Int_Tables_number 4
loop_
_symmetry_equiv_pos_site_id
_symmetry_equiv_pos_as_xyz
1 x,y,z
2 -x,1/2+y,-z
_cell_length_a 16.00(1)
_cell_length_b 8.631(4)
_cell_length_c 12.90(3)
_cell_angle_alpha 90
_cell_angle_beta 110.97(8)
_cell_angle_gamma 90
_cell_formula_units_Z 2
loop_
_atom_type_symbol
_atom_type_radius_bond
C 0.68
H 0.23
Cu 1.52
N 0.68
S 1.02
loop_
_atom_site_label
_atom_site_type_symbol
_atom_site_fract_x
_atom_site_fract_y
_atom_site_fract_z
S1 S 0.55936 1.06398 0.02449
S2 S 0.62710 0.80620 0.18068
S3 S 0.72372 1.09096 -0.02995
S4 S 0.80036 0.77757 0.15276
S5 S 0.37530 1.06163 0.08715
S6 S 0.45753 0.81625 0.25015
S7 S 0.19706 1.03671 0.10198
S8 S 0.29861 0.75658 0.30759
C1 C 0.53942 0.93904 0.12097
C2 C 0.66556 0.99812 0.04458
C3 C 0.69723 0.87778 0.11481
C4 C 0.80296 0.94387 -0.03609
C5 C 0.86276 0.88582 0.08165
C6 C 0.46565 0.94297 0.15025
C7 C 0.30758 0.97375 0.15091
C8 C 0.34523 0.86673 0.22624
C9 C 0.14464 0.89978 0.16547
C10 C 0.19311 0.86178 0.28230
H1 H 0.84227 0.98821 -0.07397
H2 H 0.76920 0.85390 -0.08029
H3 H 0.91058 0.81715 0.07403
H4 H 0.89144 0.97757 0.12806
H5 H 0.13524 0.80120 0.12206
H6 H 0.08507 0.94297 0.15936
H7 H 0.20688 0.96044 0.35278
H8 H 0.15344 0.79648 0.30934
S9 S 0.37554 0.35156 0.30970
S10 S 0.44924 0.10530 0.47332
S11 S 0.21011 0.39311 0.35616
S12 S 0.29712 0.09059 0.54931
S13 S 0.54710 0.34352 0.23997
S14 S 0.63046 0.10798 0.41096
S15 S 0.70554 0.40794 0.18766
S16 S 0.80880 0.13515 0.39681
C11 C 0.46185 0.22766 0.37272
C12 C 0.31056 0.29646 0.38730
C13 C 0.34567 0.18142 0.46278
C14 C 0.15052 0.26671 0.41850
C15 C 0.20756 0.22659 0.53822
C16 C 0.53735 0.22799 0.34480
C17 C 0.66137 0.30230 0.26790
C18 C 0.69822 0.19733 0.34777
C19 C 0.82450 0.35759 0.25093
C20 C 0.84233 0.18970 0.28123
H9 H 0.13400 0.16898 0.37420
H10 H 0.09460 0.31967 0.41734
H11 H 0.23454 0.32419 0.57788
H12 H 0.16799 0.18031 0.57500
H13 H 0.85136 0.42087 0.31981
H14 H 0.85462 0.38497 0.19741
H15 H 0.80851 0.12488 0.21534
H16 H 0.90779 0.16918 0.30183
Cu1 Cu 0.00970 0.72088 0.40963
N1 N 0.00562 0.46796 0.11380
N2 N -0.00657 0.19599 0.10984
N3 N 0.01638 0.63408 0.27733
C21 C 0.00144 0.32384 0.12247
C22 C 0.01181 0.55029 0.20193
N4 N -0.01318 0.53987 0.48801
C23 C -0.01304 0.42145 0.53100
C23A C 0.01304 0.92145 0.46900
Cu1A Cu -0.00970 0.22088 0.59037
#END
