
#######################################################################
#
#                 Cambridge Crystallographic Data Centre
#                                CCDC
#
#######################################################################
#
# If this CIF has been generated from an entry in the Cambridge
# Structural Database, then it will include bibliographic, chemical,
# crystal, experimental, refinement or atomic coordinate data resulting
# from the CCDC's data processing and validation procedures.
#
#######################################################################

data_CSD_CIF_VORNAR22
_audit_creation_date 2014-12-23
_audit_creation_method CSD-ConQuest-V1
_database_code_CSD VORNAR22
_database_code_depnum_ccdc_archive 'CCDC 1016170'
_chemical_formula_sum 'C23 H16 Cu1 N4 S16'
_chemical_formula_moiety
;
C10 H8 S8 1+,C10 H8 S8,n(C3 Cu1 N4 1-)
;
_journal_coden_Cambridge 1695
_journal_volume 3
_journal_year 2015
_journal_page_first 1378
_journal_name_full 'J.Mater.Chem.C '
loop_
_publ_author_name
"T.Hiramatsu"
"Y.Yoshida"
"G.Saito"
"A.Otsuka"
"H.Yamochi"
"M.Maesato"
"Y.Shimizu"
"H.Ito"
"H.Kishida"
_chemical_name_systematic
;
catena-(bis(bis(Ethylenedithio)tetrathiafulvalene) 
(\m-cyano)-(dicyanamide)-copper)
;
_cell_volume   1617.855
_exptl_crystal_colour 'black'
_exptl_crystal_density_diffrn 1.899
_exptl_special_details
;
Magnetic properties, electronic property
kappa polymorph

;
_exptl_crystal_description 'elongate hexagonal plate'
_exptl_crystal_preparation 'electrocrystallization'
_diffrn_ambient_temperature 100
#These two values have been output from a single CSD field.
_refine_ls_R_factor_gt 0.0356
_refine_ls_wR_factor_gt 0.0356
_symmetry_cell_setting monoclinic
_symmetry_space_group_name_H-M 'P 21'
_symmetry_Int_Tables_number 4
loop_
_symmetry_equiv_pos_site_id
_symmetry_equiv_pos_as_xyz
1 x,y,z
2 -x,1/2+y,-z
_cell_length_a 15.9296(17)
_cell_length_b 8.5690(9)
_cell_length_c 12.7261(14)
_cell_angle_alpha 90
_cell_angle_beta 111.355(1)
_cell_angle_gamma 90
_cell_formula_units_Z 2
loop_
_atom_type_symbol
_atom_type_radius_bond
C 0.68
H 0.23
Cu 1.32
N 0.68
S 1.02
loop_
_atom_site_label
_atom_site_type_symbol
_atom_site_fract_x
_atom_site_fract_y
_atom_site_fract_z
Cu1 Cu 0.01012(6) -0.16211(12) 0.40684(8)
C1 C 0.0135(4) -0.3634(8) 0.4668(6)
N1 N 0.0153(4) -0.0671(7) 0.2719(5)
N2 N -0.0135(3) 0.0229(7) 0.4881(5)
C2 C 0.0129(4) 0.0189(8) 0.1974(6)
N3 N 0.0077(4) 0.1034(7) 0.1093(5)
C3 C 0.0019(4) 0.2546(9) 0.1208(6)
N4 N -0.0066(4) 0.3857(9) 0.1186(6)
C4 C 0.4668(4) 0.6228(8) 0.1480(5)
C5 C 0.5416(4) 0.6265(8) 0.1203(5)
C6 C 0.3454(4) 0.7028(8) 0.2279(6)
C7 C 0.3062(4) 0.5925(8) 0.1492(6)
C8 C 0.6985(4) 0.6938(8) 0.1154(5)
C9 C 0.6683(4) 0.5713(9) 0.0447(6)
C10 C 0.1946(4) 0.7061(9) 0.2811(6)
H1 H 0.20890 0.60450 0.32240
H2 H 0.15570 0.76730 0.31250
C11 C 0.1418(4) 0.6735(8) 0.1580(6)
H3 H 0.13450 0.77300 0.11450
H4 H 0.08020 0.63590 0.14970
C12 C 0.8614(4) 0.6858(8) 0.0792(5)
H5 H 0.90850 0.75540 0.06960
H6 H 0.89300 0.59570 0.12740
C13 C 0.8022(4) 0.6246(9) -0.0354(5)
H7 H 0.84160 0.58310 -0.07470
H8 H 0.76660 0.71340 -0.08130
S1 S 0.45763(11) 0.7493(2) 0.25154(14)
S2 S 0.37435(10) 0.5029(2) 0.08559(13)
S3 S 0.62609(10) 0.7632(2) 0.17977(14)
S4 S 0.56008(10) 0.5003(2) 0.02350(13)
S5 S 0.29847(11) 0.8116(2) 0.30845(14)
S6 S 0.19426(11) 0.5306(2) 0.09832(19)
S7 S 0.80031(10) 0.7946(2) 0.15283(14)
S8 S 0.72508(11) 0.4728(2) -0.03018(14)
C14 C 0.4634(4) 0.3446(9) 0.3729(5)
C15 C 0.5382(4) 0.3453(9) 0.3447(5)
C16 C 0.3443(4) 0.3913(8) 0.4622(5)
C17 C 0.3106(4) 0.2772(8) 0.3876(5)
C18 C 0.6994(4) 0.3754(8) 0.3479(5)
C19 C 0.6611(4) 0.2683(8) 0.2686(5)
C20 C 0.2067(4) 0.3443(10) 0.5397(5)
H9 H 0.23400 0.24740 0.58220
H10 H 0.16690 0.39110 0.57660
C21 C 0.1494(4) 0.3001(9) 0.4197(5)
H11 H 0.13020 0.39720 0.37350
H12 H 0.09380 0.24570 0.41950
C22 C 0.8433(4) 0.3812(7) 0.2829(5)
H13 H 0.80950 0.44890 0.21710
H14 H 0.90900 0.40290 0.30300
C23 C 0.8255(4) 0.2123(8) 0.2474(6)
H15 H 0.85540 0.14470 0.31470
H16 H 0.85400 0.18920 0.19090
S9 S 0.44976(10) 0.4664(2) 0.47529(13)
S10 S 0.37516(10) 0.2158(2) 0.30891(14)
S11 S 0.63076(10) 0.4660(2) 0.41116(13)
S12 S 0.54684(10) 0.2270(2) 0.23847(14)
S13 S 0.29643(11) 0.4814(2) 0.55032(14)
S14 S 0.20857(10) 0.1741(2) 0.35515(14)
S15 S 0.81205(10) 0.4354(2) 0.40100(14)
S16 S 0.70720(11) 0.1601(2) 0.18673(15)
C1A C -0.0135(4) 0.1366(8) 0.5332(6)
Cu1A Cu -0.01012(6) 0.33789(12) 0.59316(8)
#END
