
#######################################################################
#
#                 Cambridge Crystallographic Data Centre
#                                CCDC
#
#######################################################################
#
# If this CIF has been generated from an entry in the Cambridge
# Structural Database, then it will include bibliographic, chemical,
# crystal, experimental, refinement or atomic coordinate data resulting
# from the CCDC's data processing and validation procedures.
#
#######################################################################

data_CSD_CIF_VORNAR26
_audit_creation_date 2014-12-23
_audit_creation_method CSD-ConQuest-V1
_database_code_CSD VORNAR26
_database_code_depnum_ccdc_archive 'CCDC 1016174'
_chemical_formula_sum 'C23 H16 Cu1 N4 S16'
_chemical_formula_moiety
;
C10 H8 S8 1+,C10 H8 S8,n(C3 Cu1 N4 1-)
;
_journal_coden_Cambridge 1695
_journal_volume 3
_journal_year 2015
_journal_page_first 1378
_journal_name_full 'J.Mater.Chem.C '
loop_
_publ_author_name
"T.Hiramatsu"
"Y.Yoshida"
"G.Saito"
"A.Otsuka"
"H.Yamochi"
"M.Maesato"
"Y.Shimizu"
"H.Ito"
"H.Kishida"
_chemical_name_systematic
;
catena-(bis(bis(Ethylenedithio)tetrathiafulvalene) 
(\m-cyano)-(dicyanamide)-copper)
;
_cell_volume   1657.740
_exptl_crystal_colour 'black'
_exptl_crystal_density_diffrn 1.853
_exptl_special_details
;
Magnetic properties, electronic property
kappa polymorph

;
_exptl_crystal_description 'elongate hexagonal plate'
_exptl_crystal_preparation 'electrocrystallization'
_diffrn_ambient_temperature 298
#These two values have been output from a single CSD field.
_refine_ls_R_factor_gt 0.0429
_refine_ls_wR_factor_gt 0.0429
_symmetry_cell_setting monoclinic
_symmetry_space_group_name_H-M 'P 21'
_symmetry_Int_Tables_number 4
loop_
_symmetry_equiv_pos_site_id
_symmetry_equiv_pos_as_xyz
1 x,y,z
2 -x,1/2+y,-z
_cell_length_a 15.975(3)
_cell_length_b 8.6198(15)
_cell_length_c 12.885(2)
_cell_angle_alpha 90
_cell_angle_beta 110.882(2)
_cell_angle_gamma 90
_cell_formula_units_Z 2
loop_
_atom_type_symbol
_atom_type_radius_bond
C 0.68
H 0.23
Cu 1.32
N 0.68
S 1.02
loop_
_atom_site_label
_atom_site_type_symbol
_atom_site_fract_x
_atom_site_fract_y
_atom_site_fract_z
Cu1 Cu 0.00981(7) -0.15678(16) 0.40983(11)
C1 C 0.0121(6) -0.3554(11) 0.4671(8)
N1 N 0.0145(5) -0.0621(11) 0.2742(7)
N2 N -0.0121(4) 0.0294(9) 0.4903(7)
C2 C 0.0109(5) 0.0223(12) 0.1993(9)
N3 N 0.0067(5) 0.0999(11) 0.1122(7)
C3 C 0.0004(6) 0.2500(14) 0.1206(9)
N4 N -0.0073(7) 0.3761(16) 0.1113(11)
C4 C 0.4670(5) 0.6244(11) 0.1490(6)
C5 C 0.5419(5) 0.6280(11) 0.1219(6)
C6 C 0.3462(5) 0.7044(10) 0.2275(7)
C7 C 0.3074(5) 0.5942(11) 0.1504(7)
C8 C 0.6974(5) 0.6944(10) 0.1146(7)
C9 C 0.6672(5) 0.5740(11) 0.0438(7)
C10 C 0.1949(6) 0.7077(13) 0.2778(9)
H1 H 0.20820 0.60860 0.32090
H2 H 0.15570 0.77110 0.30710
C11 C 0.1433(6) 0.6697(12) 0.1623(9)
H3 H 0.13210 0.76720 0.11730
H4 H 0.08390 0.62720 0.15770
C12 C 0.8604(5) 0.6852(11) 0.0790(7)
H5 H 0.90670 0.75550 0.06890
H6 H 0.89240 0.59620 0.12630
C13 C 0.8018(6) 0.6232(12) -0.0338(7)
H7 H 0.84150 0.57950 -0.07150
H8 H 0.76810 0.71200 -0.07990
S1 S 0.45749(14) 0.7504(3) 0.25055(19)
S2 S 0.37554(13) 0.5073(3) 0.08705(18)
S3 S 0.62698(14) 0.7603(3) 0.18076(19)
S4 S 0.55986(14) 0.5035(2) 0.02520(18)
S5 S 0.29905(16) 0.8107(3) 0.3075(2)
S6 S 0.19730(16) 0.5313(3) 0.1023(3)
S7 S 0.79943(14) 0.7906(3) 0.1515(2)
S8 S 0.72283(16) 0.4769(3) -0.0313(2)
C14 C 0.4629(4) 0.3402(12) 0.3730(6)
C15 C 0.5384(4) 0.3405(12) 0.3460(6)
C16 C 0.3442(5) 0.389(1) 0.4611(6)
C17 C 0.3104(5) 0.2765(10) 0.3871(6)
C18 C 0.6982(4) 0.3721(10) 0.3468(7)
C19 C 0.6598(5) 0.2665(10) 0.2683(7)
C20 C 0.2068(5) 0.3444(13) 0.5374(6)
H9 H 0.23260 0.24790 0.57980
H10 H 0.16680 0.39270 0.57290
C21 C 0.1512(5) 0.3006(11) 0.4196(7)
H11 H 0.13290 0.39720 0.37420
H12 H 0.09540 0.24730 0.41910
C22 C 0.8417(5) 0.3767(11) 0.2841(7)
H13 H 0.81010 0.44520 0.21930
H14 H 0.90740 0.39590 0.30540
C23 C 0.8229(6) 0.2091(11) 0.2470(9)
H15 H 0.85210 0.14040 0.31240
H16 H 0.85130 0.18710 0.19080
S9 S 0.44938(13) 0.4624(3) 0.47400(18)
S10 S 0.37556(14) 0.2150(3) 0.30972(19)
S11 S 0.62999(13) 0.4601(3) 0.41019(18)
S12 S 0.54680(14) 0.2244(3) 0.24034(18)
S13 S 0.29664(15) 0.4768(3) 0.5482(2)
S14 S 0.20976(14) 0.1746(3) 0.3560(2)
S15 S 0.80918(13) 0.4328(3) 0.39676(19)
S16 S 0.70624(15) 0.1592(3) 0.1880(2)
C1A C -0.0121(6) 0.1446(11) 0.5329(8)
Cu1A Cu -0.00981(7) 0.34322(16) 0.59017(11)
#END
