
#######################################################################
#
#                 Cambridge Crystallographic Data Centre
#                                CCDC
#
#######################################################################
#
# If this CIF has been generated from an entry in the Cambridge
# Structural Database, then it will include bibliographic, chemical,
# crystal, experimental, refinement or atomic coordinate data resulting
# from the CCDC's data processing and validation procedures.
#
#######################################################################

data_CSD_CIF_VOSTEE
_audit_creation_date 2015-02-10
_audit_creation_method CSD-ConQuest-V1
_database_code_CSD VOSTEE
_database_code_depnum_ccdc_archive 'CCDC 1041350'
_chemical_formula_sum 'C38 H36 Cu2 N18 O44 Si1 W12'
_chemical_formula_moiety
;
(H2 O40 Si1 W12 2-)n,2n(C19 H13 Cu1 N9 1+),4n(H2 O1)
;
_journal_coden_Cambridge 1295
_journal_volume 55
_journal_year 2015
_journal_page_first 108
_journal_name_full 'Inorg.Chem.Commun. '
loop_
_publ_author_name
"Xue-jing Dui"
"Xiao-yuan Wu"
"Teng Teng"
"Lei Zhang"
"Hui-fen Chen"
"Wen-bin Yang"
"Can-zhong Lu"
_chemical_name_systematic
;
catena-(bis((\m~2~-3,5-bis(5-(Pyridin-4-yl)-1H-1,2,4-triazol-3-yl)pyridine)-co
pper) 
(\m~12~-silicato)-bis(\m~2~-hydroxo)-docosakis(\m~2~-oxo)-dodecaoxo-dodeca-tun
gsten tetrahydrate)
;
_cell_volume   3596.406
_exptl_crystal_colour 'faint yellow'
_exptl_crystal_density_diffrn 3.519
_exptl_crystal_description 'Prism'
_diffrn_ambient_temperature 293
_refine_special_details
;
O1,O2,O3,O4 disordered by symmetry over two configurations with occupancy 
0.50.
;
#These two values have been output from a single CSD field.
_refine_ls_R_factor_gt 0.0631
_refine_ls_wR_factor_gt 0.0631
_symmetry_cell_setting monoclinic
_symmetry_space_group_name_H-M 'P 21/c'
_symmetry_Int_Tables_number 14
loop_
_symmetry_equiv_pos_site_id
_symmetry_equiv_pos_as_xyz
1 x,y,z
2 -x,1/2+y,1/2-z
3 -x,-y,-z
4 x,-1/2-y,-1/2+z
_cell_length_a 11.997(6)
_cell_length_b 23.872(13)
_cell_length_c 12.574(6)
_cell_angle_alpha 90
_cell_angle_beta 92.925(13)
_cell_angle_gamma 90
_cell_formula_units_Z 2
loop_
_atom_type_symbol
_atom_type_radius_bond
C 0.68
H 0.23
Cu 1.32
N 0.68
O 0.68
Si 1.20
W 1.62
loop_
_atom_site_label
_atom_site_type_symbol
_atom_site_fract_x
_atom_site_fract_y
_atom_site_fract_z
W1 W 0.16267(6) 0.43315(3) 0.70440(6)
W2 W -0.05743(6) 0.52367(3) 0.77073(6)
W3 W 0.20955(6) 0.40339(3) 0.43496(7)
W4 W -0.11779(6) 0.39191(3) 0.64855(6)
W5 W -0.07564(7) 0.37173(3) 0.37546(7)
W6 W 0.28596(6) 0.53532(4) 0.54598(7)
Si1 Si 0.00000 0.50000 0.50000
O1 O 0.4222(10) 0.5522(6) 0.5703(11)
O2 O -0.1075(14) 0.3105(6) 0.3164(11)
O3 O -0.0843(11) 0.5328(7) 0.9006(11)
O4 O -0.1751(12) 0.3417(6) 0.7212(13)
O5 O 0.2382(14) 0.3987(6) 0.8017(13)
O6 O 0.3101(13) 0.3598(6) 0.4030(13)
O7 O 0.3002(16) 0.4702(7) 0.4670(16)
O8 O -0.1309(11) 0.4540(6) 0.7455(16)
O9 O -0.0959(17) 0.3506(9) 0.5233(14)
O10 O 0.0312(12) 0.3853(7) 0.6939(17)
O11 O 0.0845(11) 0.4828(5) 0.7852(16)
O12 O 0.2644(17) 0.4897(7) 0.6700(13)
O13 O 0.0807(13) 0.3583(8) 0.4082(15)
O14 O -0.1781(13) 0.5605(7) 0.7042(16)
O15 O -0.2168(17) 0.4051(8) 0.3726(12)
O16 O 0.2084(16) 0.3912(7) 0.5812(14)
O17 O 0.2538(17) 0.5766(9) 0.4225(12)
O18 O 0.0338(13) 0.5885(7) 0.7441(18)
O19 O 0.1226(15) 0.4748(8) 0.5352(16)
O20 O 0.0346(18) 0.4541(8) 0.4052(19)
O21 O -0.0919(19) 0.4451(9) 0.4984(17)
O22 O -0.0034(18) 0.4708(9) 0.618(2)
Cu1 Cu 0.1102(3) 0.21098(14) 0.3455(2)
N1 N -0.6289(12) -0.0160(6) 0.7415(15)
N2 N -0.4065(11) -0.1267(6) 0.5067(12)
N3 N 0.0091(12) 0.1815(6) 0.4422(12)
N4 N -0.4193(12) 0.1244(6) 0.7067(13)
N5 N -0.3109(13) 0.0747(6) 0.5996(14)
C1 C -0.3979(13) 0.0755(7) 0.6605(14)
C2 C -0.1076(17) 0.1106(8) 0.5042(16)
H1 H -0.12240 0.07250 0.50830
N6 N -0.3367(13) 0.1560(7) 0.6726(14)
H2 H -0.32610 0.19060 0.68910
C3 C -0.4880(13) -0.1231(8) 0.5803(15)
C4 C -0.5150(14) -0.0693(8) 0.6339(16)
C5 C -0.0201(16) 0.1290(8) 0.4467(17)
H3 H 0.01990 0.10280 0.40940
C6 C -0.4739(14) 0.0268(7) 0.6699(14)
N7 N -0.5388(15) -0.1705(7) 0.6002(16)
C7 C -0.5679(18) 0.0266(9) 0.7331(17)
H4 H -0.58550 0.05900 0.76980
C8 C -0.4452(14) -0.0239(7) 0.6232(14)
H5 H -0.38060 -0.02700 0.58580
C9 C -0.4086(16) -0.1800(7) 0.4802(15)
C10 C -0.1721(17) 0.1473(7) 0.5548(15)
N8 N -0.4852(14) -0.2081(7) 0.5365(16)
H6 H -0.49810 -0.24350 0.53290
N9 N -0.2033(16) -0.2551(7) 0.2541(14)
C11 C -0.2717(14) 0.1259(8) 0.6085(15)
C12 C -0.1394(17) 0.2036(8) 0.5596(17)
H7 H -0.17470 0.22940 0.60180
C13 C -0.051(2) 0.2190(9) 0.4975(18)
H8 H -0.03190 0.25670 0.49380
C14 C -0.6057(14) -0.0657(7) 0.6957(18)
H9 H -0.65050 -0.09680 0.70590
C15 C -0.302(2) -0.2793(9) 0.278(2)
H10 H -0.32490 -0.31170 0.24230
C16 C -0.3435(16) -0.2070(8) 0.4004(15)
C17 C -0.1765(18) -0.2070(9) 0.3028(17)
H11 H -0.11010 -0.18980 0.28580
C18 C -0.2384(19) -0.1814(9) 0.3749(18)
H12 H -0.21450 -0.14820 0.40750
C19 C -0.3679(18) -0.2576(9) 0.354(2)
H13 H -0.43020 -0.27750 0.37360
O23 O -0.336(2) 0.264(1) 0.748(2)
O24 O -0.549(2) -0.3194(11) 0.560(2)
O19B O -0.1226(15) 0.5252(8) 0.4648(16)
O20B O -0.0346(18) 0.5459(8) 0.5948(19)
O21B O 0.0919(19) 0.5549(9) 0.5016(17)
O22B O 0.0034(18) 0.5292(9) 0.382(2)
W1B W -0.16267(6) 0.56685(3) 0.29560(6)
W2B W 0.05743(6) 0.47633(3) 0.22927(6)
W3B W -0.20955(6) 0.59661(3) 0.56504(7)
W4B W 0.11779(6) 0.60809(3) 0.35145(6)
W5B W 0.07564(7) 0.62827(3) 0.62454(7)
W6B W -0.28596(6) 0.46468(4) 0.45402(7)
O1B O -0.4222(10) 0.4478(6) 0.4297(11)
O2B O 0.1075(14) 0.6895(6) 0.6836(11)
O3B O 0.0843(11) 0.4672(7) 0.0994(11)
O4B O 0.1751(12) 0.6583(6) 0.2788(13)
O5B O -0.2382(14) 0.6013(6) 0.1983(13)
O6B O -0.3101(13) 0.6402(6) 0.5970(13)
O7B O -0.3002(16) 0.5298(7) 0.5330(16)
O8B O 0.1309(11) 0.5460(6) 0.2545(16)
O9B O 0.0959(17) 0.6494(9) 0.4767(14)
O10B O -0.0312(12) 0.6147(7) 0.3061(17)
O11B O -0.0845(11) 0.5172(5) 0.2148(16)
O12B O -0.2644(17) 0.5103(7) 0.3300(13)
O13B O -0.0807(13) 0.6417(8) 0.5918(15)
O14B O 0.1781(13) 0.4395(7) 0.2958(16)
O15B O 0.2168(17) 0.5949(8) 0.6274(12)
O16B O -0.2084(16) 0.6088(7) 0.4188(14)
O17B O -0.2538(17) 0.4234(9) 0.5775(12)
O18B O -0.0338(13) 0.4115(7) 0.2559(18)
Cu1A Cu -0.1102(3) -0.28902(14) 0.1545(2)
N9A N 0.2033(16) 0.2449(7) 0.2459(14)
#END
