
#######################################################################
#
#                 Cambridge Crystallographic Data Centre
#                                CCDC
#
#######################################################################
#
# If this CIF has been generated from an entry in the Cambridge
# Structural Database, then it will include bibliographic, chemical,
# crystal, experimental, refinement or atomic coordinate data resulting
# from the CCDC's data processing and validation procedures.
#
#######################################################################

data_CSD_CIF_VOSTAA
_audit_creation_date 2015-02-10
_audit_creation_method CSD-ConQuest-V1
_database_code_CSD VOSTAA
_database_code_depnum_ccdc_archive 'CCDC 1041351'
_chemical_formula_sum 'C36 H43 Cl1 Cu4 N12 O54 Si1 W12'
_chemical_formula_moiety
;
(C36 H33 Cl1 Cu4 N12 O9 4+)n,n(O40 Si1 W12 4-),5n(H2 O1)
;
_journal_coden_Cambridge 1295
_journal_volume 55
_journal_year 2015
_journal_page_first 108
_journal_name_full 'Inorg.Chem.Commun. '
loop_
_publ_author_name
"Xue-jing Dui"
"Xiao-yuan Wu"
"Teng Teng"
"Lei Zhang"
"Hui-fen Chen"
"Wen-bin Yang"
"Can-zhong Lu"
_chemical_name_systematic
;
catena-(tris(\m~3~-Hydroxo)-(\m~3~-chloro)-tris(\m~2~-4,4'-(1,3,4-oxadiazole-2
,5-diyl)dipyridine)-triaqua-tetra-copper 
(\m~12~-silicato)-tetracosakis(\m~2~-oxo)-dodecaoxo-dodeca-tungsten 
pentahydrate)
;
_cell_volume   5854.795
_exptl_crystal_colour 'blue'
_exptl_crystal_density_diffrn 3.43
_exptl_crystal_description 'block'
_diffrn_ambient_temperature 293
#These two values have been output from a single CSD field.
_refine_ls_R_factor_gt 0.0415
_refine_ls_wR_factor_gt 0.0415
_symmetry_cell_setting rhombohedral
_symmetry_space_group_name_H-M 'R 3 m'
_symmetry_Int_Tables_number 160
loop_
_symmetry_equiv_pos_site_id
_symmetry_equiv_pos_as_xyz
1 x,y,z
2 -y,x-y,z
3 -x+y,-x,z
4 -y,-x,z
5 x,x-y,z
6 -x+y,y,z
7 2/3+x,1/3+y,1/3+z
8 2/3-y,1/3+x-y,1/3+z
9 2/3-x+y,1/3-x,1/3+z
10 2/3-y,1/3-x,1/3+z
11 2/3+x,1/3+x-y,1/3+z
12 2/3-x+y,1/3+y,1/3+z
13 1/3+x,2/3+y,2/3+z
14 1/3-y,2/3+x-y,2/3+z
15 1/3-x+y,2/3-x,2/3+z
16 1/3-y,2/3-x,2/3+z
17 1/3+x,2/3+x-y,2/3+z
18 1/3-x+y,2/3+y,2/3+z
_cell_length_a 16.9191(4)
_cell_length_b 16.9191(4)
_cell_length_c 23.6171(4)
_cell_angle_alpha 90
_cell_angle_beta 90
_cell_angle_gamma 120
_cell_formula_units_Z 3
loop_
_atom_type_symbol
_atom_type_radius_bond
C 0.68
H 0.23
Cl 0.99
Cu 1.32
N 0.68
O 0.68
Si 1.20
W 1.62
loop_
_atom_site_label
_atom_site_type_symbol
_atom_site_fract_x
_atom_site_fract_y
_atom_site_fract_z
Si1 Si 0.00000 0.00000 -0.1600(6)
W1 W -0.20405(5) 0.00708(7) -0.16401(4)
W2 W -0.13204(8) -0.06602(4) -0.03619(5)
W3 W -0.07274(4) 0.07274(4) -0.28057(5)
O1 O 0.00000 0.00000 -0.0891(14)
O2 O -0.0521(6) -0.1042(12) -0.1862(9)
O3 O -0.3107(9) -0.0098(10) -0.1559(7)
O4 O -0.2266(12) -0.1133(6) -0.1789(8)
O5 O -0.1759(10) -0.0088(10) -0.0885(7)
O6 O -0.1368(7) 0.1368(7) -0.1499(10)
O7 O -0.1877(9) 0.0311(10) -0.2442(6)
O8 O -0.0515(6) -0.1030(13) -0.0060(8)
O9 O -0.2139(15) -0.1070(7) 0.0144(9)
O10 O -0.0969(7) 0.0969(7) -0.3421(12)
O11 O -0.1025(15) -0.0512(7) -0.2858(9)
Cu1 Cu -0.26781(12) 0.26781(12) -0.36504(18)
Cu2 Cu -0.33330 0.33330 -0.4671(3)
Cl1 Cl -0.33330 0.33330 -0.2836(6)
C1 C -0.0821(15) 0.2960(15) -0.3731(10)
H1 H -0.10260 0.27040 -0.40870
C2 C -0.1074(16) 0.3470(14) -0.2896(10)
H2 H -0.14650 0.35620 -0.26640
C3 C -0.0213(16) 0.3750(15) -0.2694(12)
H3 H -0.00190 0.40220 -0.23410
C4 C 0.0360(15) 0.3595(15) -0.3059(10)
C5 C 0.1276(14) 0.3831(14) -0.2861(9)
C6 C 0.0063(15) 0.3196(14) -0.3579(10)
H4 H 0.04350 0.30880 -0.38180
N1 N -0.1399(12) 0.3077(11) -0.3399(9)
N2 N 0.1761(12) 0.4350(12) -0.2426(8)
O12 O 0.1740(7) 0.3479(14) -0.3161(10)
O13 O -0.3837(8) 0.2326(16) -0.401(1)
H5 H -0.41100 0.17810 -0.41320
O14 O -0.2699(11) 0.460(2) -0.5144(13)
H6 H -0.30550 0.46970 -0.53440
O15 O -0.4677(9) 0.0645(19) -0.4425(16)
O16 O -0.103(4) 0.4484(18) -0.157(2)
O2A O 0.1042(6) 0.0521(12) -0.1862(9)
O2B O -0.0521(6) 0.0521(12) -0.1862(9)
W1A W -0.00708(5) -0.21113(7) -0.16401(4)
W2A W 0.06602(8) -0.06602(4) -0.03619(5)
W3A W -0.07274(4) -0.14548(4) -0.28057(5)
O3A O 0.0098(9) -0.3009(10) -0.1559(7)
O4A O 0.1133(12) -0.1133(6) -0.1789(8)
O5A O 0.0088(10) -0.1671(10) -0.0885(7)
O6A O -0.1368(7) -0.2736(7) -0.1499(10)
O7A O -0.0311(9) -0.2188(10) -0.2442(6)
O8A O 0.1030(6) 0.0515(13) -0.0060(8)
O9A O 0.1070(15) -0.1069(7) 0.0144(9)
O10A O -0.0969(7) -0.1938(7) -0.3421(12)
O11A O 0.0512(15) -0.0513(7) -0.2858(9)
W1B W 0.21113(5) 0.20405(7) -0.16401(4)
W2B W 0.06602(8) 0.13204(4) -0.03619(5)
W3B W 0.14548(4) 0.07274(4) -0.28057(5)
O3B O 0.3009(9) 0.3107(10) -0.1559(7)
O4B O 0.1133(12) 0.2266(6) -0.1789(8)
O5B O 0.1671(10) 0.1759(10) -0.0885(7)
O6B O 0.2736(7) 0.1368(7) -0.1499(10)
O7B O 0.2188(9) 0.1877(10) -0.2442(6)
O8B O -0.0515(6) 0.0515(13) -0.0060(8)
O9B O 0.1069(15) 0.2139(7) 0.0144(9)
O10B O 0.1938(7) 0.0969(7) -0.3421(12)
O11B O 0.0513(15) 0.1025(7) -0.2858(9)
W1C W -0.00708(5) 0.20405(7) -0.16401(4)
O3C O 0.0098(9) 0.3107(10) -0.1559(7)
O5C O 0.0088(10) 0.1759(10) -0.0885(7)
O7C O -0.0311(9) 0.1877(10) -0.2442(6)
W1D W -0.20405(5) -0.21113(7) -0.16401(4)
O3D O -0.3107(9) -0.3009(10) -0.1559(7)
O5D O -0.1759(10) -0.1671(10) -0.0885(7)
O7D O -0.1877(9) -0.2188(10) -0.2442(6)
W1E W 0.21113(5) 0.00708(7) -0.16401(4)
O3E O 0.3009(9) -0.0098(10) -0.1559(7)
O5E O 0.1671(10) -0.0088(10) -0.0885(7)
O7E O 0.2188(9) 0.0311(10) -0.2442(6)
C1E C 0.3781(15) 0.2960(15) -0.3731(10)
H1E H 0.37300 0.27040 -0.40870
C2E C 0.4544(16) 0.3470(14) -0.2896(10)
H2E H 0.50270 0.35620 -0.26640
C3E C 0.3963(16) 0.3750(15) -0.2694(12)
H3E H 0.40410 0.40220 -0.23410
C4E C 0.3235(15) 0.3595(15) -0.3059(10)
C5E C 0.2555(14) 0.3831(14) -0.2861(9)
C6E C 0.3133(15) 0.3196(14) -0.3579(10)
H4E H 0.26530 0.30880 -0.38180
N1E N 0.4476(12) 0.3077(11) -0.3399(9)
N2E N 0.2589(12) 0.4350(12) -0.2426(8)
H6E H -0.22480 0.46970 -0.53440
Cu1A Cu -0.26781(12) -0.53562(12) -0.36504(18)
C1A C -0.2960(15) -0.3781(15) -0.3731(10)
H1A H -0.27040 -0.37300 -0.40870
C2A C -0.3470(16) -0.4544(14) -0.2896(10)
H2A H -0.35620 -0.50270 -0.26640
C3A C -0.3750(16) -0.3963(15) -0.2694(12)
H3A H -0.40220 -0.40410 -0.23410
C4A C -0.3595(15) -0.3235(15) -0.3059(10)
C5A C -0.3831(14) -0.2555(14) -0.2861(9)
C6A C -0.3196(15) -0.3133(14) -0.3579(10)
H4A H -0.30880 -0.26530 -0.38180
N1A N -0.3077(12) -0.4476(11) -0.3399(9)
N2A N -0.4350(12) -0.2589(12) -0.2426(8)
O12A O -0.3479(7) -0.1739(14) -0.3161(10)
C1C C -0.2960(15) 0.0821(15) -0.3731(10)
H1C H -0.27040 0.10260 -0.40870
C2C C -0.3470(16) 0.1074(14) -0.2896(10)
H2C H -0.35620 0.14650 -0.26640
C3C C -0.3750(16) 0.0213(15) -0.2694(12)
H3C H -0.40220 0.00190 -0.23410
C4C C -0.3595(15) -0.0360(15) -0.3059(10)
C5C C -0.3831(14) -0.1276(14) -0.2861(9)
C6C C -0.3196(15) -0.0063(14) -0.3579(10)
H4C H -0.30880 -0.04350 -0.38180
N1C N -0.3077(12) 0.1399(11) -0.3399(9)
N2C N -0.4350(12) -0.1761(12) -0.2426(8)
Cu1B Cu -0.46438(12) 0.26781(12) -0.36504(18)
C1B C -0.6219(15) 0.0821(15) -0.3731(10)
H1B H -0.62700 0.10260 -0.40870
C2B C -0.5456(16) 0.1074(14) -0.2896(10)
H2B H -0.49730 0.14650 -0.26640
C3B C -0.6037(16) 0.0213(15) -0.2694(12)
H3B H -0.59590 0.00190 -0.23410
C4B C -0.6765(15) -0.0360(15) -0.3059(10)
C5B C -0.7445(14) -0.1276(14) -0.2861(9)
C6B C -0.6867(15) -0.0063(14) -0.3579(10)
H4B H -0.73470 -0.04350 -0.38180
N1B N -0.5524(12) 0.1399(11) -0.3399(9)
N2B N -0.7411(12) -0.1761(12) -0.2426(8)
O12B O -0.8261(7) -0.1740(14) -0.3161(10)
O13B O -0.3837(8) 0.3837(16) -0.401(1)
H5B H -0.41090 0.41100 -0.41320
O14B O -0.2701(11) 0.2699(20) -0.5144(13)
H6B H -0.22480 0.30550 -0.53440
C1D C -1.0821(15) -0.3781(15) -0.3731(10)
H1D H -1.10260 -0.37300 -0.40870
C2D C -1.1074(16) -0.4544(14) -0.2896(10)
H2D H -1.14650 -0.50270 -0.26640
C3D C -1.0213(16) -0.3963(15) -0.2694(12)
H3D H -1.00190 -0.40410 -0.23410
C4D C -0.9640(15) -0.3235(15) -0.3059(10)
C5D C -0.8724(14) -0.2555(14) -0.2861(9)
C6D C -0.9937(15) -0.3133(14) -0.3579(10)
H4D H -0.95650 -0.26530 -0.38180
N1D N -1.1399(12) -0.4476(11) -0.3399(9)
N2D N -0.8239(12) -0.2589(12) -0.2426(8)
H6D H -0.30550 0.22480 -0.53440
O13A O -0.2326(8) 0.3837(16) -0.401(1)
H5A H -0.17810 0.41090 -0.41320
O14A O -0.4600(11) 0.2701(20) -0.5144(13)
H6A H -0.46970 0.22480 -0.53440
H6C H -0.46970 0.30550 -0.53440
Cu1A* Cu -1.26781(12) -0.53562(12) -0.36504(18)
Cu1A** Cu -0.26781(12) 0.46438(12) -0.36504(18)
Cu1B* Cu 0.53562(12) 0.26781(12) -0.36504(18)
Cl1* Cl -0.33330 -0.66670 -0.2836(6)
N1D* N -0.1399(12) -0.4476(11) -0.3399(9)
N1E* N -0.5524(12) 0.3077(11) -0.3399(9)
O13A* O -0.2326(8) -0.6163(16) -0.401(1)
O13B* O -0.3837(8) -0.6163(16) -0.401(1)
#END
