
#######################################################################
#
#                 Cambridge Crystallographic Data Centre
#                                CCDC
#
#######################################################################
#
# If this CIF has been generated from an entry in the Cambridge
# Structural Database, then it will include bibliographic, chemical,
# crystal, experimental, refinement or atomic coordinate data resulting
# from the CCDC's data processing and validation procedures.
#
#######################################################################

data_CSD_CIF_VOSTII
_audit_creation_date 2015-02-10
_audit_creation_method CSD-ConQuest-V1
_database_code_CSD VOSTII
_database_code_depnum_ccdc_archive 'CCDC 1041416'
_chemical_formula_sum 'C38 H35 Ag2 N18 O44 P1 W12'
_chemical_formula_moiety
;
(H1 O40 P1 W12 2-)n,2n(C19 H13 Ag1 N9 1+),4n(H2 O1)
;
_journal_coden_Cambridge 1295
_journal_volume 55
_journal_year 2015
_journal_page_first 108
_journal_name_full 'Inorg.Chem.Commun. '
loop_
_publ_author_name
"Xue-jing Dui"
"Xiao-yuan Wu"
"Teng Teng"
"Lei Zhang"
"Hui-fen Chen"
"Wen-bin Yang"
"Can-zhong Lu"
_chemical_name_systematic
;
catena-(bis((\m~2~-3,5-bis(5-(Pyridin-4-yl)-1H-1,2,4-triazol-3-yl)pyridine)-si
lver) 
(\m~12~-phosphato)-(\m~2~-hydroxo)-tricosakis(\m~2~-oxo)-dodecaoxo-dodeca-tung
sten tetrahydrate)
;
_cell_volume   3596.697
_exptl_crystal_colour 'faint yellow'
_exptl_crystal_density_diffrn 3.602
_exptl_crystal_description 'Prism'
_diffrn_ambient_temperature 293
_refine_special_details
;
O15,O17,O21,O22 disordered by symmetry over two configurations with occupancy 
0.50.
;
#These two values have been output from a single CSD field.
_refine_ls_R_factor_gt 0.0624
_refine_ls_wR_factor_gt 0.0624
_symmetry_cell_setting monoclinic
_symmetry_space_group_name_H-M 'P 21/c'
_symmetry_Int_Tables_number 14
loop_
_symmetry_equiv_pos_site_id
_symmetry_equiv_pos_as_xyz
1 x,y,z
2 -x,1/2+y,1/2-z
3 -x,-y,-z
4 x,-1/2-y,-1/2+z
_cell_length_a 12.013(3)
_cell_length_b 23.785(6)
_cell_length_c 12.623(3)
_cell_angle_alpha 90
_cell_angle_beta 94.281(5)
_cell_angle_gamma 90
_cell_formula_units_Z 2
loop_
_atom_type_symbol
_atom_type_radius_bond
C 0.68
H 0.23
Ag 1.45
N 0.68
O 0.68
P 1.05
W 1.62
loop_
_atom_site_label
_atom_site_type_symbol
_atom_site_fract_x
_atom_site_fract_y
_atom_site_fract_z
P1 P 0.50000 0.00000 0.00000
O1 O 0.747(2) -0.0746(9) -0.0753(18)
O2 O 0.5825(14) 0.1419(8) -0.0845(17)
O3 O 0.6763(13) 0.0589(7) -0.1943(16)
O4 O 0.4631(13) 0.0878(8) -0.2445(17)
O5 O 0.5349(17) 0.0458(8) -0.0885(18)
O6 O 0.5338(13) 0.1162(7) 0.1943(17)
O7 O 0.705(2) 0.1102(8) 0.0851(14)
O8 O 0.4091(18) 0.1500(9) 0.0287(15)
O9 O 0.5854(12) 0.0185(6) 0.2871(18)
O10 O 0.284(2) 0.0884(9) -0.1333(19)
O11 O 0.7592(19) 0.0095(7) 0.1690(13)
O12 O 0.800(2) 0.0313(7) -0.0284(13)
O13 O 0.9207(11) -0.0525(7) 0.0711(11)
O14 O 0.6279(12) -0.0454(6) -0.2408(17)
O15 O 0.7431(14) 0.1019(7) 0.3009(13)
O16 O 0.8094(13) 0.1420(6) -0.0920(13)
O17 O 0.3288(14) 0.1594(6) 0.2163(12)
O18 O 0.3899(14) 0.1911(6) -0.1844(12)
O19 O 0.5803(12) 0.0332(7) -0.3967(12)
W1 W 0.78514(6) -0.03557(4) 0.04934(7)
W2 W 0.42412(7) 0.12866(3) -0.12490(7)
W3 W 0.70828(7) 0.09633(3) -0.06223(7)
W4 W 0.38483(7) 0.10811(3) 0.14651(7)
W5 W 0.55313(7) 0.02361(3) -0.26861(6)
W6 W 0.66472(7) 0.06696(3) 0.20553(6)
O20 O 0.499(2) 0.0282(9) 0.1172(19)
O21 O 0.412(2) 0.0533(9) -0.0022(19)
O22 O 0.625(2) 0.0260(9) 0.0386(19)
Ag1 Ag 1.60444(19) 0.21497(9) 0.34274(17)
C1 C 1.441(2) 0.2191(10) 0.5122(19)
H1 H 1.46060 0.25680 0.51060
N1 N 1.0112(17) -0.2093(8) 0.5538(16)
H2 H 0.99950 -0.24500 0.55130
C2 C 1.1606(19) -0.2054(9) 0.4203(16)
N2 N 1.1592(14) 0.1574(7) 0.6791(13)
H3 H 1.17120 0.19190 0.69690
C3 C 0.9262(16) 0.0255(9) 0.7374(18)
H4 H 0.91010 0.05810 0.77400
N3 N 0.8639(14) -0.0164(7) 0.7487(15)
C4 C 0.8862(16) -0.0662(9) 0.701(2)
H5 H 0.83940 -0.09690 0.70860
N4 N 0.9606(15) -0.1725(7) 0.6140(14)
C5 C 1.3547(19) 0.2031(9) 0.572(2)
H6 H 1.32260 0.22850 0.61650
N5 N 1.4976(16) 0.1821(8) 0.4563(15)
C6 C 1.0415(14) -0.0234(8) 0.6286(15)
H7 H 1.10200 -0.02550 0.58690
N6 N 1.0760(14) 0.1246(7) 0.7146(14)
C7 C 1.3765(18) 0.1091(9) 0.5031(16)
H8 H 1.35600 0.07140 0.49830
N7 N 1.1794(13) 0.0729(6) 0.6026(13)
C8 C 1.0912(16) 0.0751(8) 0.6657(15)
N8 N 1.0841(13) -0.1259(7) 0.5187(12)
C9 C 1.3172(19) 0.1480(8) 0.5628(15)
N9 N 1.2978(19) -0.2455(10) 0.2748(18)
C10 C 1.2209(16) 0.1275(8) 0.6110(16)
C11 C 1.0160(14) 0.0274(8) 0.6755(15)
C12 C 1.4657(17) 0.1296(9) 0.4524(16)
H9 H 1.50560 0.10460 0.41320
C13 C 0.9782(16) -0.0711(8) 0.6430(16)
C14 C 1.0070(15) -0.1239(8) 0.5935(15)
C15 C 1.0854(16) -0.1801(8) 0.4964(15)
C16 C 1.255(2) -0.1750(9) 0.3961(18)
H10 H 1.27280 -0.14060 0.42820
C17 C 1.135(2) -0.2583(10) 0.376(2)
H11 H 1.07640 -0.27990 0.39810
C18 C 1.3203(18) -0.1978(10) 0.3235(18)
H12 H 1.38430 -0.17850 0.30770
C19 C 1.199(3) -0.2762(13) 0.300(2)
H13 H 1.18020 -0.30910 0.26370
O23 O 0.165(2) 0.2653(10) 0.7443(19)
O24 O -0.037(2) -0.3177(10) 0.5731(19)
O5B O 0.4651(17) -0.0458(8) 0.0885(18)
O20B O 0.501(2) -0.0282(9) -0.1172(19)
O21B O 0.588(2) -0.0533(9) 0.0022(19)
O22B O 0.375(2) -0.0260(9) -0.0386(19)
O1B O 0.253(2) 0.0746(9) 0.0753(18)
O2B O 0.4175(14) -0.1419(8) 0.0845(17)
O3B O 0.3237(13) -0.0589(7) 0.1943(16)
O4B O 0.5369(13) -0.0878(8) 0.2445(17)
O6B O 0.4662(13) -0.1162(7) -0.1943(17)
O7B O 0.295(2) -0.1102(8) -0.0851(14)
O8B O 0.5909(18) -0.1500(9) -0.0287(15)
O9B O 0.4146(12) -0.0185(6) -0.2871(18)
O10B O 0.716(2) -0.0884(9) 0.1333(19)
O11B O 0.2408(19) -0.0095(7) -0.1690(13)
O12B O 0.200(2) -0.0313(7) 0.0284(13)
O13B O 0.0793(11) 0.0525(7) -0.0711(11)
O14B O 0.3721(12) 0.0454(6) 0.2408(17)
O15B O 0.2569(14) -0.1019(7) -0.3009(13)
O16B O 0.1906(13) -0.1420(6) 0.0920(13)
O17B O 0.6712(14) -0.1594(6) -0.2163(12)
O18B O 0.6101(14) -0.1911(6) 0.1844(12)
O19B O 0.4197(12) -0.0332(7) 0.3967(12)
W1B W 0.21486(6) 0.03557(4) -0.04934(7)
W2B W 0.57588(7) -0.12866(3) 0.12490(7)
W3B W 0.29172(7) -0.09633(3) 0.06223(7)
W4B W 0.61517(7) -0.10811(3) -0.14651(7)
W5B W 0.44687(7) -0.02361(3) 0.26861(6)
W6B W 0.33528(7) -0.06696(3) -0.20553(6)
Ag1A Ag 1.39556(19) -0.28503(9) 0.15726(17)
N9A N 1.7022(19) 0.2545(10) 0.2252(18)
#END
