
#######################################################################
#
#                 Cambridge Crystallographic Data Centre
#                                CCDC
#
#######################################################################
#
# If this CIF has been generated from an entry in the Cambridge
# Structural Database, then it will include bibliographic, chemical,
# crystal, experimental, refinement or atomic coordinate data resulting
# from the CCDC's data processing and validation procedures.
#
#######################################################################

data_CSD_CIF_VOSWIL
_audit_creation_date 2015-02-10
_audit_creation_method CSD-ConQuest-V1
_database_code_CSD VOSWIL
_database_code_depnum_ccdc_archive 'CCDC 1032828'
_chemical_formula_sum 'C60 H64 N2 O32 Zn5'
_chemical_formula_moiety
;
(C48 H24 O28 Zn5 2-)n,2n(C4 H12 N1 1+),2n(C2 H6 O1),2n(H2 O1)
;
_journal_coden_Cambridge 1147
_journal_volume 15
_journal_year 2015
_journal_page_first 1481
_journal_name_full 'Cryst.Growth Des. '
loop_
_publ_author_name
"Xiuyan Wan"
"Feilong Jiang"
"Lian Chen"
"Mingyan Wu"
"Mingjian Zhang"
"Jie Pan"
"Kongzhao Su"
"Yan Yang"
"Maochun Hong"
_chemical_name_systematic
;
catena-(bis(Diethylammonium) 
bis(\m~9~-1,1':4',1''-terphenyl-2',3,3'',5,5',5''-hexacarboxylato)-tetra-aqua-
penta-zinc ethanol solvate dihydrate)
;
_cell_volume   7398.603
_exptl_crystal_colour 'colorless'
_exptl_crystal_density_diffrn 1.242
_exptl_crystal_description 'prism'
_diffrn_ambient_temperature 100
_refine_special_details
;
O16 and O15 disordered over two sites with occupancies 0.52:0.48; Zn3 and Zn4 
disordered over two sites with occupancies 0.780:0.220. The SQUEEZE/PLATON 
program was used to model the disordered ethanol solvent molecules and 
cations.
;
#These two values have been output from a single CSD field.
_refine_ls_R_factor_gt 0.0652
_refine_ls_wR_factor_gt 0.0652
_symmetry_cell_setting monoclinic
_symmetry_space_group_name_H-M 'I 2/c'
_symmetry_Int_Tables_number 15
loop_
_symmetry_equiv_pos_site_id
_symmetry_equiv_pos_as_xyz
1 x,y,z
2 -x,y,1/2-z
3 1/2+x,1/2+y,1/2+z
4 1/2-x,1/2+y,-z
5 -x,-y,-z
6 x,-y,-1/2+z
7 -1/2-x,-1/2-y,-1/2-z
8 -1/2+x,-1/2-y,z
_cell_length_a 15.4272(2)
_cell_length_b 29.4160(4)
_cell_length_c 16.3560(2)
_cell_angle_alpha 90
_cell_angle_beta 94.595(1)
_cell_angle_gamma 90
_cell_formula_units_Z 4
loop_
_atom_type_symbol
_atom_type_radius_bond
C 0.68
H 0.23
O 0.68
Zn 1.22
loop_
_atom_site_label
_atom_site_type_symbol
_atom_site_fract_x
_atom_site_fract_y
_atom_site_fract_z
Zn1 Zn 0.50000 0.15902(2) 0.25000
Zn2 Zn 0.28095(3) 0.15656(2) 0.32783(3)
Zn3 Zn 0.27459(5) 0.48553(3) 0.79747(5)
O1 O 0.4548(2) 0.20908(12) 0.3201(2)
O2 O 0.31824(18) 0.21801(9) 0.35085(19)
O3 O 0.6603(2) 0.33478(11) 0.3525(2)
O4 O 0.6082(2) 0.40551(12) 0.3469(3)
O5 O 0.22792(17) 0.36718(9) 0.28459(17)
O6 O 0.10714(19) 0.34235(9) 0.33872(18)
O7 O 0.3676(2) 0.47806(14) 0.6448(2)
O8 O 0.2564(2) 0.44726(11) 0.7026(2)
O9 O -0.1322(3) 0.42186(17) 0.6358(3)
O10 O -0.1678(3) 0.49431(17) 0.6530(3)
O11 O 0.0544(2) 0.60786(12) 0.6853(3)
O12 O 0.16978(19) 0.60370(9) 0.61148(18)
O13 O 0.2939(3) 0.54884(14) 0.7566(3)
O14 O 0.3615(9) 0.4591(6) 0.8736(8)
C1 C 0.3937(2) 0.23223(13) 0.3424(2)
C2 C 0.4941(2) 0.29915(14) 0.3514(2)
H1 H 0.53770 0.28050 0.33070
C3 C 0.5114(3) 0.34428(13) 0.3694(3)
C4 C 0.5998(3) 0.36369(16) 0.3555(3)
C5 C 0.4479(3) 0.37196(13) 0.3997(3)
H2 H 0.46000 0.40310 0.41100
C6 C 0.3670(2) 0.35407(13) 0.4135(3)
C7 C 0.3488(2) 0.30846(12) 0.3936(2)
H3 H 0.29290 0.29620 0.40080
C8 C 0.4129(2) 0.28106(13) 0.3634(2)
C9 C 0.3007(2) 0.38205(12) 0.4509(2)
C10 C 0.2129(2) 0.38270(12) 0.4232(2)
C11 C 0.1786(2) 0.36170(12) 0.3434(2)
C12 C 0.1537(2) 0.40792(13) 0.4649(2)
H4 H 0.09390 0.40720 0.44570
C13 C 0.1791(3) 0.43386(13) 0.5333(3)
C14 C 0.2672(3) 0.43243(13) 0.5629(3)
C15 C 0.3263(3) 0.40701(13) 0.5217(3)
H5 H 0.38570 0.40660 0.54230
C16 C 0.2999(3) 0.45458(15) 0.6420(3)
C17 C 0.1164(3) 0.46434(13) 0.5702(2)
C18 C 0.0343(3) 0.44870(15) 0.5875(3)
H6 H 0.01780 0.41820 0.57510
C19 C -0.0237(3) 0.47795(16) 0.6230(3)
C20 C -0.1137(4) 0.46328(18) 0.6384(4)
C21 C -0.0003(3) 0.52251(14) 0.6408(3)
H7 H -0.03930 0.54200 0.66620
C22 C 0.0804(3) 0.53884(13) 0.6216(2)
C23 C 0.1028(3) 0.58700(13) 0.6402(3)
C24 C 0.1381(2) 0.51021(13) 0.5855(2)
H8 H 0.19240 0.52170 0.57110
H9 H 0.35140 0.55350 0.77790
H10 H 0.27630 0.57790 0.76040
Zn4? Zn 0.38035(17) 0.49318(10) 0.77167(17)
O15 O 0.50000 0.5362(2) 0.75000
H11 H 0.53730 0.55630 0.77480
O16? O 0.3936(10) 0.4850(6) 0.8502(8)
Zn2A Zn -0.28095(3) 0.15656(2) 1.17217(3)
Zn3A Zn -0.27459(5) 0.48553(3) 0.70253(5)
O1A O -0.4548(2) 0.20908(12) 1.1799(2)
O2A O -0.31824(18) 0.21801(9) 1.14915(19)
O3A O -0.6603(2) 0.33478(11) 1.1475(2)
O4A O -0.6082(2) 0.40551(12) 1.1531(3)
O5A O -0.22792(17) 0.36718(9) 1.21541(17)
O6A O -0.10714(19) 0.34235(9) 1.16128(18)
O7A O -0.3676(2) 0.47806(14) 0.8552(2)
O8A O -0.2564(2) 0.44726(11) 0.7974(2)
O9A O 0.1322(3) 0.42186(17) 0.8642(3)
O10A O 0.1678(3) 0.49431(17) 0.8470(3)
O11A O -0.0544(2) 0.60786(12) 0.8147(3)
O12A O -0.16978(19) 0.60370(9) 0.88852(18)
O13A O -0.2939(3) 0.54884(14) 0.7434(3)
O14A O -0.3615(9) 0.4591(6) 0.6264(8)
C1A C -0.3937(2) 0.23223(13) 1.1576(2)
C2A C -0.4941(2) 0.29915(14) 1.1486(2)
H1A H -0.53770 0.28050 1.16930
C3A C -0.5114(3) 0.34428(13) 1.1306(3)
C4A C -0.5998(3) 0.36369(16) 1.1445(3)
C5A C -0.4479(3) 0.37196(13) 1.1003(3)
H2A H -0.46000 0.40310 1.08900
C6A C -0.3670(2) 0.35407(13) 1.0865(3)
C7A C -0.3488(2) 0.30846(12) 1.1064(2)
H3A H -0.29290 0.29620 1.09920
C8A C -0.4129(2) 0.28106(13) 1.1366(2)
C9A C -0.3007(2) 0.38205(12) 1.0491(2)
C10A C -0.2129(2) 0.38270(12) 1.0768(2)
C11A C -0.1786(2) 0.36170(12) 1.1566(2)
C12A C -0.1537(2) 0.40792(13) 1.0351(2)
H4A H -0.09390 0.40720 1.05430
C13A C -0.1791(3) 0.43386(13) 0.9667(3)
C14A C -0.2672(3) 0.43243(13) 0.9371(3)
C15A C -0.3263(3) 0.40701(13) 0.9783(3)
H5A H -0.38570 0.40660 0.95770
C16A C -0.2999(3) 0.45458(15) 0.8580(3)
C17A C -0.1164(3) 0.46434(13) 0.9298(2)
C18A C -0.0343(3) 0.44870(15) 0.9125(3)
H6A H -0.01780 0.41820 0.92490
C19A C 0.0237(3) 0.47795(16) 0.8770(3)
C20A C 0.1137(4) 0.46328(18) 0.8616(4)
C21A C 0.0003(3) 0.52251(14) 0.8592(3)
H7A H 0.03930 0.54200 0.83380
C22A C -0.0804(3) 0.53884(13) 0.8784(2)
C23A C -0.1028(3) 0.58700(13) 0.8598(3)
C24A C -0.1381(2) 0.51021(13) 0.9145(2)
H8A H -0.19240 0.52170 0.92890
H9A H -0.35140 0.55350 0.72210
H10A H -0.27630 0.57790 0.73960
Zn1* Zn -0.50000 0.15902(2) 1.25000
Zn1B Zn 0.00000 0.65902(2) 0.75000
Zn1F Zn 0.00000 0.34098(2) 0.25000
Zn1F* Zn 0.00000 0.34098(2) 1.25000
Zn2B Zn -0.21905(3) 0.65656(2) 0.82783(3)
Zn2C Zn 0.21905(3) 0.65656(2) 0.67217(3)
Zn2F Zn -0.78095(3) 0.34344(2) 1.17217(3)
Zn2F* Zn 0.21905(3) 0.34344(2) 0.17217(3)
Zn2G Zn -0.21905(3) 0.34344(2) 1.32783(3)
Zn2G* Zn 0.78095(3) 0.34344(2) 0.32783(3)
O1A* O 0.5452(2) 0.20908(12) 0.1799(2)
O3F O -0.1603(2) 0.16522(11) 1.1475(2)
O3G O 0.1603(2) 0.16522(11) 0.3525(2)
O5F O 0.27208(17) 0.13282(9) 0.21541(17)
O5G O -0.27208(17) 0.13282(9) 1.28459(17)
O6F O 0.39286(19) 0.15765(9) 0.16128(18)
O6G O 0.60714(19) 0.15765(9) 0.33872(18)
O11B O 0.5544(2) 0.10786(12) 0.1853(3)
O11C O 0.4456(2) 0.10786(12) 0.3147(3)
O12B O -0.33022(19) 0.10370(9) 1.11148(18)
O12C O 0.33022(19) 0.10370(9) 0.38852(18)
H11A H 0.46270 0.55630 0.72520
O15* O -0.50000 0.5362(2) 0.75000
#END
