
#######################################################################
#
#                 Cambridge Crystallographic Data Centre
#                                CCDC
#
#######################################################################
#
# If this CIF has been generated from an entry in the Cambridge
# Structural Database, then it will include bibliographic, chemical,
# crystal, experimental, refinement or atomic coordinate data resulting
# from the CCDC's data processing and validation procedures.
#
#######################################################################

data_CSD_CIF_VOSWOR
_audit_creation_date 2015-02-10
_audit_creation_method CSD-ConQuest-V1
_database_code_CSD VOSWOR
_database_code_depnum_ccdc_archive 'CCDC 1032832'
_chemical_formula_sum 'C68 H76 N4 O26 Zn4'
_chemical_formula_moiety
;
(C48 H16 O24 Zn4 4-)n,4n(C4 H12 N1 1+),2n(C2 H6 O1)
;
_journal_coden_Cambridge 1147
_journal_volume 15
_journal_year 2015
_journal_page_first 1481
_journal_name_full 'Cryst.Growth Des. '
loop_
_publ_author_name
"Xiuyan Wan"
"Feilong Jiang"
"Lian Chen"
"Mingyan Wu"
"Mingjian Zhang"
"Jie Pan"
"Kongzhao Su"
"Yan Yang"
"Maochun Hong"
_chemical_name_systematic
;
catena-(tetrakis(Diethylammonium) 
bis(\m~8~-1,1':4',1''-terphenyl-2',3,3'',5,5',5''-hexacarboxylato)-tetra-zinc 
ethanol solvate)
;
_cell_volume   3361.025
_exptl_crystal_colour 'colorless'
_exptl_crystal_density_diffrn 1.223
_exptl_crystal_description 'block'
_diffrn_ambient_temperature 100
_refine_special_details
;
The SQUEEZE/PLATON program was used to model the disordered cations and 
solvent molecules.
;
#These two values have been output from a single CSD field.
_refine_ls_R_factor_gt 0.0437
_refine_ls_wR_factor_gt 0.0437
_symmetry_cell_setting monoclinic
_symmetry_space_group_name_H-M 'P 21/c'
_symmetry_Int_Tables_number 14
loop_
_symmetry_equiv_pos_site_id
_symmetry_equiv_pos_as_xyz
1 x,y,z
2 -x,1/2+y,1/2-z
3 -x,-y,-z
4 x,-1/2-y,-1/2+z
_cell_length_a 15.0872(5)
_cell_length_b 9.0103(3)
_cell_length_c 24.9822(8)
_cell_angle_alpha 90
_cell_angle_beta 98.240(3)
_cell_angle_gamma 90
_cell_formula_units_Z 2
loop_
_atom_type_symbol
_atom_type_radius_bond
C 0.68
H 0.23
O 0.68
Zn 1.22
loop_
_atom_site_label
_atom_site_type_symbol
_atom_site_fract_x
_atom_site_fract_y
_atom_site_fract_z
Zn1 Zn 0.31936(3) 0.68085(5) 0.30697(2)
Zn2 Zn 0.18173(3) 0.80903(5) 0.19070(2)
O1 O 0.18991(17) 0.6702(3) 0.30097(10)
O2 O 0.30883(17) 0.8166(3) 0.19163(10)
O3 O -0.22253(19) 0.5183(3) 0.41592(11)
O4 O -0.21568(19) 0.9873(3) 0.36108(12)
O5 O 0.36845(16) 0.6234(3) 0.24078(10)
O6 O 0.62866(18) 0.3773(3) 0.18567(11)
O7 O 0.13444(17) 0.8730(3) 0.25683(10)
O8 O 0.71381(19) 0.4849(3) 0.13092(12)
O9 O 0.7186(2) 1.0589(4) 0.08337(12)
O10 O -0.12001(18) 0.4308(3) 0.36731(10)
O11 O -0.12047(19) 1.1231(3) 0.32146(11)
O12 O 0.61304(18) 1.0631(3) 0.13589(10)
C1 C 0.6403(3) 1.0436(4) 0.09048(16)
C2 C -0.1463(3) 0.4793(4) 0.40986(15)
C3 C 0.1358(2) 0.7780(4) 0.29399(14)
C4 C -0.0044(2) 0.8863(4) 0.31930(14)
H1 H -0.00650 0.95320 0.28970
C5 C 0.0695(2) 0.6885(4) 0.37420(15)
H2 H 0.11900 0.62320 0.38270
C6 C 0.4331(3) 0.8960(4) 0.00157(15)
H3 H 0.38670 0.82540 0.00300
C7 C 0.5044(2) 0.8021(4) 0.09131(15)
C8 C -0.0715(3) 0.4960(4) 0.45766(15)
C9 C 0.0007(3) 0.6886(4) 0.40590(14)
C10 C -0.1430(3) 1.0073(4) 0.34499(14)
C11 C 0.3673(3) 0.7134(4) 0.20242(15)
C12 C 0.0657(3) 0.7845(4) 0.32986(15)
C13 C 0.5078(2) 0.6034(4) 0.17712(15)
H4 H 0.50910 0.53610 0.20650
C14 C 0.4381(3) 0.7051(4) 0.16686(14)
C15 C -0.0714(3) 0.8891(4) 0.35256(15)
C16 C 0.5026(2) 0.9087(4) 0.04573(14)
C17 C 0.6475(3) 0.4785(4) 0.15381(14)
C18 C -0.0687(3) 0.7875(4) 0.39529(15)
H5 H -0.11530 0.78730 0.41710
C19 C 0.4361(3) 0.8026(4) 0.12289(14)
H6 H 0.38730 0.86950 0.11470
C20 C 0.5682(3) 1.0152(4) 0.04364(15)
C21 C 0.5763(2) 0.5990(4) 0.14455(14)
C22 C 0.0732(3) 0.5884(4) 0.49583(15)
H7 H 0.12430 0.64780 0.49290
C23 C 0.5749(3) 0.6998(4) 0.10336(15)
H8 H 0.62280 0.70060 0.08240
C24 C 0.0037(2) 0.5887(4) 0.45416(14)
O1B O -0.18991(17) 0.3298(3) 0.69903(10)
O3B O 0.22253(19) 0.4817(3) 0.58408(11)
O4B O 0.21568(19) 0.0127(3) 0.63892(12)
O7B O -0.13444(17) 0.1270(3) 0.74317(10)
O10B O 0.12001(18) 0.5692(3) 0.63269(10)
O11B O 0.12047(19) -0.1231(3) 0.67854(11)
C2B C 0.1463(3) 0.5207(4) 0.59014(15)
C3B C -0.1358(2) 0.2220(4) 0.70601(14)
C4B C 0.0044(2) 0.1137(4) 0.68070(14)
H1B H 0.00650 0.04680 0.71030
C5B C -0.0695(2) 0.3115(4) 0.62580(15)
H2B H -0.11900 0.37680 0.61730
C8B C 0.0715(3) 0.5040(4) 0.54234(15)
C9B C -0.0007(3) 0.3114(4) 0.59410(14)
C10B C 0.1430(3) -0.0073(4) 0.65501(14)
C12B C -0.0657(3) 0.2155(4) 0.67014(15)
C15B C 0.0714(3) 0.1109(4) 0.64744(15)
C18B C 0.0687(3) 0.2125(4) 0.60471(15)
H5B H 0.11530 0.21270 0.58290
C22B C -0.0732(3) 0.4116(4) 0.50417(15)
H7B H -0.12430 0.35220 0.50710
C24B C -0.0037(2) 0.4113(4) 0.54584(14)
O2B O 0.69117(17) 1.1834(3) -0.19163(10)
O5B O 0.63155(16) 1.3766(3) -0.24078(10)
O6B O 0.37134(18) 1.6227(3) -0.18567(11)
O8B O 0.28619(19) 1.5151(3) -0.13092(12)
O9B O 0.2814(2) 0.9411(4) -0.08337(12)
O12B O 0.38696(18) 0.9369(3) -0.13589(10)
C1B C 0.3597(3) 0.9564(4) -0.09048(16)
C6B C 0.5669(3) 1.1040(4) -0.00157(15)
H3B H 0.61330 1.17460 -0.00300
C7B C 0.4956(2) 1.1979(4) -0.09131(15)
C11B C 0.6327(3) 1.2866(4) -0.20242(15)
C13B C 0.4922(2) 1.3966(4) -0.17712(15)
H4B H 0.49090 1.46390 -0.20650
C14B C 0.5619(3) 1.2949(4) -0.16686(14)
C16B C 0.4974(2) 1.0913(4) -0.04573(14)
C17B C 0.3525(3) 1.5215(4) -0.15381(14)
C19B C 0.5639(3) 1.1974(4) -0.12289(14)
H6B H 0.61270 1.13050 -0.11470
C20B C 0.4318(3) 0.9848(4) -0.04364(15)
C21B C 0.4237(2) 1.4010(4) -0.14455(14)
C23B C 0.4251(3) 1.3002(4) -0.10336(15)
H8B H 0.37720 1.29940 -0.08240
Zn1B Zn -0.31936(3) 0.31915(5) 0.69303(2)
Zn2B Zn -0.18173(3) 0.19097(5) 0.80930(2)
Zn1A Zn 0.68064(3) 0.18085(5) 0.19303(2)
Zn1A* Zn 0.68064(3) 1.18085(5) 0.19303(2)
Zn1B* Zn 0.68064(3) 1.31915(5) -0.30697(2)
Zn1C Zn 0.31936(3) 0.81915(5) -0.19303(2)
Zn1C* Zn 0.31936(3) 1.81915(5) -0.19303(2)
Zn2A Zn -0.18173(3) 0.30903(5) 0.30930(2)
Zn2A* Zn -0.18173(3) 1.30903(5) 0.30930(2)
Zn2B* Zn 0.81827(3) 1.19097(5) -0.19070(2)
Zn2C Zn 0.18173(3) -0.30903(5) 0.69070(2)
Zn2C* Zn 0.18173(3) 0.69097(5) 0.69070(2)
O2B* O -0.30883(17) 0.1834(3) 0.80837(10)
O5B* O -0.36845(16) 0.3766(3) 0.75922(10)
O6A O 0.37134(18) 0.8773(3) 0.31433(11)
O6C O -0.37134(18) 0.1227(3) 0.68567(11)
O10A O 0.12001(18) 0.9308(3) 0.13269(10)
O10C O -0.12001(18) 0.0692(3) 0.86731(10)
O11A O 0.12047(19) 0.6231(3) 0.17854(11)
O11C O -0.12047(19) 0.3769(3) 0.82146(11)
O12A O 0.38696(18) 0.5631(3) 0.36411(10)
O12C O -0.38696(18) 0.4369(3) 0.63589(10)
#END
