
#######################################################################
#
#                 Cambridge Crystallographic Data Centre
#                                CCDC
#
#######################################################################
#
# If this CIF has been generated from an entry in the Cambridge
# Structural Database, then it will include bibliographic, chemical,
# crystal, experimental, refinement or atomic coordinate data resulting
# from the CCDC's data processing and validation procedures.
#
#######################################################################

data_CSD_CIF_VOVBAM
_audit_creation_date 2019-11-26
_audit_creation_method CSD-ConQuest-V1
_database_code_CSD VOVBAM
_database_code_depnum_ccdc_archive 'CCDC 1942941'
_chemical_formula_sum 'C30 H40 Cu2 I3 N5 O2 S3'
_chemical_formula_moiety
;
(C24 H21 Cu2 I3 N3 S3 1-)n,C4 H9 N1 O1,H2 O1,C2 H8 N1 1+
;
_journal_coden_Cambridge 222
_journal_volume 48
_journal_year 2019
_journal_page_first 17800
_journal_name_full 'Dalton Trans. '
loop_
_publ_author_name
"Kan Li"
"Jing-jing Li"
"Ni Zhao"
"Ting-ting Xie"
"Bin Di"
"Li-li Xu"
_chemical_name_systematic
;
catena-[dimethylammonium 
(\m-4,4',4''-[benzene-1,3,5-triyltris(methylenesulfanediyl)]tripyridine)-tris(
\m-iodo)-di-copper(i) N,N-dimethylacetamide solvate monohydrate]
;
_cell_volume   7568.669
_exptl_crystal_colour 'yellow'
_exptl_crystal_description 'block'
_diffrn_ambient_temperature 100.2
_diffrn_radiation_probe x-ray
_diffrn_source synchrotron
_refine_special_details
;
C29,C30,N5 disordered by symmetry over two configurations with occupancy 0.5; 
Cu2 and Cu3 disordered over two sites with occupancies 0.892:0.108; 
H7A,H7B,O7 disordered by symmetry over two configurations with occupancies 
0.25,0.25,0.5; O2 and O3 disordered over two sites with occupancies 0.5:0.5.
;
#These two values have been output from a single CSD field.
_refine_ls_R_factor_gt 0.1032
_refine_ls_wR_factor_gt 0.1032
_symmetry_cell_setting monoclinic
_symmetry_space_group_name_H-M 'C 2/c'
_symmetry_Int_Tables_number 15
loop_
_symmetry_equiv_pos_site_id
_symmetry_equiv_pos_as_xyz
1 x,y,z
2 -x,y,1/2-z
3 1/2+x,1/2+y,z
4 1/2-x,1/2+y,1/2-z
5 -x,-y,-z
6 x,-y,-1/2+z
7 -1/2-x,-1/2-y,-z
8 -1/2+x,-1/2-y,-1/2+z
_cell_length_a 37.334(4)
_cell_length_b 11.7895(12)
_cell_length_c 19.3724(19)
_cell_angle_alpha 90
_cell_angle_beta 117.422(3)
_cell_angle_gamma 90
_cell_formula_units_Z 8
loop_
_atom_type_symbol
_atom_type_radius_bond
C 0.68
H 0.23
Cu 1.32
I 1.40
N 0.68
O 0.68
S 1.02
loop_
_atom_site_label
_atom_site_type_symbol
_atom_site_fract_x
_atom_site_fract_y
_atom_site_fract_z
I1 I 0.28123(3) 0.49873(9) 0.78000(5)
I2 I 0.39512(3) 0.44204(7) 0.98011(6)
Cu1 Cu 0.35344(7) 0.58494(16) 0.87211(12)
Cu2 Cu 0.35067(8) 0.41266(16) 0.80306(15)
S1 S 0.37020(12) -0.1219(3) 0.4612(2)
S2 S 0.37014(12) -0.1226(3) 0.7463(2)
S3 S 0.21469(14) 0.1328(3) 0.4591(3)
N1 N 0.3554(4) 0.2525(10) 0.3981(7)
C1 C 0.2042(5) -0.0184(12) 0.4567(8)
H1 H 0.18967 -0.03429 0.48620
H2 H 0.18787 -0.04332 0.40355
C2 C 0.2423(4) -0.0760(11) 0.4904(8)
N2 N 0.3539(4) 0.2525(11) 0.7804(7)
C3 C 0.2631(4) -0.1023(11) 0.4474(8)
H3 H 0.25087 -0.08560 0.39450
C4 C 0.3006(4) -0.1512(11) 0.4802(7)
C5 C 0.3248(5) 0.0734(12) 0.3939(8)
H4 H 0.30138 0.03022 0.37690
C6 C 0.3009(4) -0.1525(10) 0.6038(7)
C7 C 0.2632(4) -0.1015(10) 0.5705(7)
H5 H 0.25129 -0.08342 0.60201
C8 C 0.3951(5) 0.0904(13) 0.4552(9)
H6 H 0.42069 0.05861 0.48065
C9 C 0.3219(4) 0.1868(11) 0.3774(7)
H7 H 0.29647 0.21997 0.35141
C10 C 0.3205(4) -0.1814(11) 0.6896(7)
H8 H 0.32229 -0.26333 0.69497
H9 H 0.30313 -0.15492 0.71106
C11 C 0.3194(4) -0.1752(10) 0.5594(7)
H10 H 0.34507 -0.20718 0.58217
C12 C 0.3615(4) 0.0222(12) 0.4351(8)
C13 C 0.3243(4) 0.0713(11) 0.7335(8)
H11 H 0.30105 0.02749 0.70956
C14 C 0.3611(5) 0.0216(11) 0.7558(8)
C15 C 0.1689(5) 0.2030(12) 0.4259(9)
N3 N 0.1000(5) 0.3250(12) 0.3739(10)
C16 C 0.3897(5) 0.2013(14) 0.8029(9)
H12 H 0.41270 0.24613 0.82677
C17 C 0.3911(5) 0.2038(13) 0.4383(9)
H13 H 0.41424 0.24812 0.45553
C18 C 0.3212(5) 0.1841(13) 0.7458(8)
H14 H 0.29566 0.21517 0.72974
C19 C 0.3199(4) -0.1799(11) 0.4297(8)
H15 H 0.30255 -0.15277 0.37746
H16 H 0.32138 -0.26180 0.42703
C20 C 0.3950(5) 0.0896(13) 0.7934(9)
H17 H 0.42078 0.05927 0.81162
C21 C 0.1322(5) 0.1475(13) 0.3971(9)
H18 H 0.13076 0.06876 0.39502
C22 C 0.1349(5) 0.3788(13) 0.4004(9)
H19 H 0.13542 0.45771 0.40102
C23 C 0.0980(6) 0.2125(16) 0.3717(12)
H20 H 0.07295 0.17718 0.35256
C24 C 0.1698(5) 0.3197(13) 0.4268(9)
H21 H 0.19433 0.35782 0.44548
I3 I 0.39241(3) 0.55637(8) 0.77033(6)
O1 O 0.2817(6) 0.5019(18) 0.8881(12)
O2 O 0.3915(7) 0.4449(16) 1.0976(12)
O3 O 0.3966(7) 0.5600(16) 0.6711(13)
O4 O 0.4926(5) 0.1360(15) 0.9151(10)
N4 N 0.5045(5) 0.2453(18) 1.0180(13)
C25 C 0.4979(6) 0.2362(16) 0.9459(11)
C26 C 0.4982(8) 0.336(2) 0.9036(18)
H22 H 0.49662 0.31210 0.85498
H23 H 0.52270 0.37815 0.93241
H24 H 0.47546 0.38363 0.89401
C27 C 0.5101(9) 0.353(3) 1.0569(18)
H25 H 0.52517 0.40431 1.04181
H26 H 0.52485 0.33807 1.11170
H27 H 0.48443 0.38540 1.04520
C28 C 0.503(1) 0.150(3) 1.063(2)
H28 H 0.48927 0.08707 1.02959
H29 H 0.48895 0.17152 1.09182
H30 H 0.53007 0.12798 1.09835
O5 O 0.4647(7) 0.053(2) 0.6497(15)
H31 H 0.43901 0.03068 0.62234
H32 H 0.46359 0.11936 0.66571
O6 O 0.50000 0.583(4) 0.75000
H33 H 0.48838 0.62686 0.76820
O7? O 0.2812(6) 0.5045(18) 0.6576(12)
Cu3? Cu 0.39756 0.56360 0.89401
C29? C 0.5025(16) -0.1143(16) 0.747(3)
H34? H 0.49206 -0.06758 0.70129
H35? H 0.53137 -0.11616 0.77006
H36? H 0.49441 -0.08347 0.78362
C30? C 0.4456(6) -0.253(2) 0.6720(13)
H37? H 0.44489 -0.29557 0.62919
H38? H 0.43127 -0.18294 0.65325
H39? H 0.43303 -0.29630 0.69700
N5? N 0.4873(5) -0.2303(17) 0.7291(12)
H40? H 0.49114 -0.26223 0.77359
H41? H 0.50306 -0.26712 0.71334
H42? H 0.52015 0.62066 0.75346
Cu1E Cu 0.35344(7) 0.41506(16) 0.37211(12)
N1E N 0.3554(4) 0.7475(10) 0.8981(7)
H33A H 0.51162 0.62686 0.73180
#END
