
#######################################################################
#
#                 Cambridge Crystallographic Data Centre
#                                CCDC
#
#######################################################################
#
# If this CIF has been generated from an entry in the Cambridge
# Structural Database, then it will include bibliographic, chemical,
# crystal, experimental, refinement or atomic coordinate data resulting
# from the CCDC's data processing and validation procedures.
#
#######################################################################

data_CSD_CIF_VOVKUO
_audit_creation_date 2015-02-10
_audit_creation_method CSD-ConQuest-V1
_database_code_CSD VOVKUO
_database_code_depnum_ccdc_archive 'CCDC 999782'
_chemical_formula_sum 'C20 H54.66 N4 O67.33 U12'
_chemical_formula_moiety
;
(C20 H16 O56 U12 4-)n,4(H4 N1 1+),11.33(H2 O1)
;
_journal_coden_Cambridge 208
_journal_volume 226
_journal_year 2015
_journal_page_first 42
_journal_name_full 'J.Solid State Chem. '
loop_
_publ_author_name
"Yingjie Zhang"
"M.Bhadbhade"
"I.Karatchevtseva"
"J.R.Price"
"Hao Liu"
"Zhaoming Zhang"
"Linggen Kong"
"Jiri Cejka"
"Kim Lu"
"G.R.Lumpkin"
_chemical_name_systematic
;
catena-[tetrakis(ammonium) 
bis(\m~8~-benzene-1,2,4,5-tetracarboxylato)-dodecakis(\m~3~-hydroxo)-tetrakis(
\m~2~-oxido)-tetracosaoxo-dodeca-uranium hydrate]
;
_cell_volume   4187.636
_exptl_crystal_colour 'yellow'
_exptl_crystal_density_diffrn 3.358
_exptl_special_details
;
The anion H atoms have not been located and have been placed arbitrarily in 
the 2D diagram
;
_exptl_crystal_description 'needles'
_diffrn_ambient_temperature 100
_diffrn_radiation_probe x-ray
_diffrn_source synchrotron
#These two values have been output from a single CSD field.
_refine_ls_R_factor_gt 0.0612
_refine_ls_wR_factor_gt 0.0612
_symmetry_cell_setting orthorhombic
_symmetry_space_group_name_H-M 'P n n m'
_symmetry_Int_Tables_number 58
loop_
_symmetry_equiv_pos_site_id
_symmetry_equiv_pos_as_xyz
1 x,y,z
2 -x,-y,z
3 1/2+x,1/2-y,1/2-z
4 1/2-x,1/2+y,1/2-z
5 -x,-y,-z
6 x,y,-z
7 -1/2-x,-1/2+y,-1/2+z
8 -1/2+x,-1/2-y,-1/2+z
_cell_length_a 12.647(3)
_cell_length_b 13.284(3)
_cell_length_c 24.926(5)
_cell_angle_alpha 90
_cell_angle_beta 90
_cell_angle_gamma 90
_cell_formula_units_Z 2
loop_
_atom_type_symbol
_atom_type_radius_bond
C 0.68
H 0.23
N 0.68
O 0.68
U 1.96
loop_
_atom_site_label
_atom_site_type_symbol
_atom_site_fract_x
_atom_site_fract_y
_atom_site_fract_z
O1 O 0.5925(11) 0.3358(11) 0.7272(6)
U1 U 0.61111(6) 0.21192(6) 0.80253(3)
O2 O 0.5785(13) 0.1148(12) 0.7565(6)
O3 O 0.6376(13) 0.3138(13) 0.8475(7)
U2 U 0.76106(6) 0.30727(6) 0.67798(3)
O4 O 0.7183(13) 0.1964(12) 0.6479(6)
O5 O 0.8032(12) 0.4222(12) 0.7055(6)
U3 U 0.90564(6) 0.17151(6) 0.79409(3)
O6 O 0.8909(12) 0.0496(12) 0.7636(6)
O7 O 0.9260(14) 0.2872(14) 0.8243(7)
O8 O 0.7565(11) 0.1279(13) 0.8472(6)
O9 O 0.9331(10) 0.2283(11) 0.7005(5)
O10 O 0.7582(12) 0.2371(15) 0.7569(6)
O11 O 0.6581(13) 0.3965(14) 0.6120(6)
O12 O 0.4848(13) 0.3935(15) 0.6299(6)
O13 O 0.8738(10) 0.3418(11) 0.6030(5)
O14 O 1.0326(11) 0.3913(11) 0.6308(5)
C1 C 0.5631(18) 0.4142(19) 0.6002(8)
C2 C 0.5357(16) 0.4607(17) 0.5478(8)
C3 C 0.573(2) 0.421(2) 0.50000
H1 H 0.62160 0.36890 0.50000
C4 C 0.9572(15) 0.3932(16) 0.5990(8)
C5 C 0.9740(15) 0.4531(15) 0.5488(7)
C6 C 0.949(2) 0.409(2) 0.50000
H2 H 0.91380 0.34710 0.50000
N1 N 0.793(3) 0.4829(19) 0.1810(9)
O15 O 0.049(6) 0.142(7) 0.470(3)
O16 O 0.683(6) 0.089(6) 0.50000
O17 O 0.533(4) 0.180(4) 0.440(2)
O18 O 0.871(4) 0.156(4) 0.459(2)
O19 O 0.808(6) 0.251(5) 0.053(3)
O20 O 0.739(8) 0.200(8) 0.045(4)
O21 O 0.9195(19) 0.0674(17) 0.3662(11)
O11A O 0.3419(13) 0.6035(14) 0.6120(6)
O12A O 0.5152(13) 0.6065(15) 0.6299(6)
C1A C 0.4369(18) 0.5858(19) 0.6002(8)
C2A C 0.4643(16) 0.5393(17) 0.5478(8)
C3A C 0.427(2) 0.579(2) 0.50000
H1A H 0.37840 0.63110 0.50000
O11D O 0.3419(13) 0.6035(14) 0.3880(6)
O12D O 0.5152(13) 0.6065(15) 0.3701(6)
C1D C 0.4369(18) 0.5858(19) 0.3998(8)
C2D C 0.4643(16) 0.5393(17) 0.4522(8)
O11E O 0.6581(13) 0.3965(14) 0.3880(6)
O12E O 0.4848(13) 0.3935(15) 0.3701(6)
C1E C 0.5631(18) 0.4142(19) 0.3998(8)
C2E C 0.5357(16) 0.4607(17) 0.4522(8)
O13A O 1.1262(10) 0.6582(11) 0.6030(5)
O14A O 0.9674(11) 0.6087(11) 0.6308(5)
C4A C 1.0428(15) 0.6068(16) 0.5990(8)
C5A C 1.0260(15) 0.5469(15) 0.5488(7)
C6A C 1.051(2) 0.591(2) 0.50000
H2A H 1.08620 0.65290 0.50000
O13D O 1.1262(10) 0.6582(11) 0.3970(5)
O14D O 0.9674(11) 0.6087(11) 0.3692(5)
C4D C 1.0428(15) 0.6068(16) 0.4010(8)
C5D C 1.0260(15) 0.5469(15) 0.4512(7)
O13E O 0.8738(10) 0.3418(11) 0.3970(5)
O14E O 1.0326(11) 0.3913(11) 0.3692(5)
C4E C 0.9572(15) 0.3932(16) 0.4010(8)
C5E C 0.9740(15) 0.4531(15) 0.4512(7)
O1A O 0.4075(11) 0.6642(11) 0.7272(6)
U1A U 0.38889(6) 0.78808(6) 0.80253(3)
O2A O 0.4215(13) 0.8852(12) 0.7565(6)
O3A O 0.3624(13) 0.6862(13) 0.8475(7)
U2A U 0.23894(6) 0.69273(6) 0.67798(3)
O4A O 0.2817(13) 0.8036(12) 0.6479(6)
O5A O 0.1968(12) 0.5778(12) 0.7055(6)
U3A U 0.09436(6) 0.82849(6) 0.79409(3)
O6A O 0.1091(12) 0.9504(12) 0.7636(6)
O7A O 0.0740(14) 0.7128(14) 0.8243(7)
O8A O 0.2435(11) 0.8721(13) 0.8472(6)
O9A O 0.0669(10) 0.7717(11) 0.7005(5)
O10A O 0.2418(12) 0.7629(15) 0.7569(6)
O1D O 0.4075(11) 0.6642(11) 0.2728(6)
U1D U 0.38889(6) 0.78808(6) 0.19747(3)
O2D O 0.4215(13) 0.8852(12) 0.2435(6)
O3D O 0.3624(13) 0.6862(13) 0.1525(7)
U2D U 0.23894(6) 0.69273(6) 0.32202(3)
O4D O 0.2817(13) 0.8036(12) 0.3521(6)
O5D O 0.1968(12) 0.5778(12) 0.2945(6)
U3D U 0.09436(6) 0.82849(6) 0.20591(3)
O6D O 0.1091(12) 0.9504(12) 0.2364(6)
O7D O 0.0740(14) 0.7128(14) 0.1757(7)
O8D O 0.2435(11) 0.8721(13) 0.1528(6)
O9D O 0.0669(10) 0.7717(11) 0.2995(5)
O10D O 0.2418(12) 0.7629(15) 0.2431(6)
O1E O 0.5925(11) 0.3358(11) 0.2728(6)
U1E U 0.61111(6) 0.21192(6) 0.19747(3)
O2E O 0.5785(13) 0.1148(12) 0.2435(6)
O3E O 0.6376(13) 0.3138(13) 0.1525(7)
U2E U 0.76106(6) 0.30727(6) 0.32202(3)
O4E O 0.7183(13) 0.1964(12) 0.3521(6)
O5E O 0.8032(12) 0.4222(12) 0.2945(6)
U3E U 0.90564(6) 0.17151(6) 0.20591(3)
O6E O 0.8909(12) 0.0496(12) 0.2364(6)
O7E O 0.9260(14) 0.2872(14) 0.1757(7)
O8E O 0.7565(11) 0.1279(13) 0.1528(6)
O9E O 0.9331(10) 0.2283(11) 0.2995(5)
O10E O 0.7582(12) 0.2371(15) 0.2431(6)
O1B O 1.0925(11) 0.1642(11) 0.7728(6)
O1C O -0.0925(11) 0.8358(11) 0.7728(6)
O1F O -0.0925(11) 0.8358(11) 0.2272(6)
O1G O 1.0925(11) 0.1642(11) 0.2272(6)
U1B U 1.11111(6) 0.28808(6) 0.69747(3)
U1C U -0.11111(6) 0.71192(6) 0.69747(3)
U1C* U 0.88889(6) 0.71192(6) 0.69747(3)
U1F U -0.11111(6) 0.71192(6) 0.30253(3)
U1F* U 0.88889(6) 0.71192(6) 0.30253(3)
U1G U 1.11111(6) 0.28808(6) 0.30253(3)
U2A* U 1.23894(6) 0.69273(6) 0.67798(3)
U2D* U 1.23894(6) 0.69273(6) 0.32202(3)
U3B U 0.40564(6) 0.32849(6) 0.70591(3)
U3C U 0.59436(6) 0.67151(6) 0.70591(3)
U3F U 0.59436(6) 0.67151(6) 0.29409(3)
U3G U 0.40564(6) 0.32849(6) 0.29409(3)
O9B O 0.4331(10) 0.2717(11) 0.7995(5)
O9C O 0.5669(10) 0.7283(11) 0.7995(5)
O9F O 0.5669(10) 0.7283(11) 0.2005(5)
O9G O 0.4331(10) 0.2717(11) 0.2005(5)
O12B O 0.9848(13) 0.1065(15) 0.8701(6)
O12C O 0.0152(13) 0.8935(15) 0.8701(6)
O12F O 0.0152(13) 0.8935(15) 0.1299(6)
O12G O 0.9848(13) 0.1065(15) 0.1299(6)
O13A* O 0.1262(10) 0.6582(11) 0.6030(5)
O13D* O 0.1262(10) 0.6582(11) 0.3970(5)
O14B O 0.5326(11) 0.1087(11) 0.8692(5)
O14C O 0.4674(11) 0.8913(11) 0.8692(5)
O14F O 0.4674(11) 0.8913(11) 0.1308(5)
O14G O 0.5326(11) 0.1087(11) 0.1308(5)
#END
