
#######################################################################
#
#                 Cambridge Crystallographic Data Centre
#                                CCDC
#
#######################################################################
#
# If this CIF has been generated from an entry in the Cambridge
# Structural Database, then it will include bibliographic, chemical,
# crystal, experimental, refinement or atomic coordinate data resulting
# from the CCDC's data processing and validation procedures.
#
#######################################################################

data_CSD_CIF_VOVNUS
_audit_creation_date 2019-11-27
_audit_creation_method CSD-ConQuest-V1
_database_code_CSD VOVNUS
_database_code_depnum_ccdc_archive 'CCDC 1868638'
_chemical_formula_sum 'C20 H28 Co2 N12 O14'
_chemical_formula_moiety
;
(C4 H12 Co1 N2 O4 2+)n,n(C16 H4 Co1 N10 O4 2-),6(H2 O1)
;
_journal_coden_Cambridge 1830
_journal_volume 6
_journal_year 2018
_journal_page_first 115
_journal_name_full 'Inorganics '
loop_
_publ_author_name
"H.Kumagai"
"S.Yagishita"
"K.Kanazashi"
"M.Ishii"
"S.Hayami"
"H.Konaka"
"R.Ishikawa"
"S.Kawata"
_chemical_name_systematic
;
catena-[((\m-pyrazine)-tetra-aqua-cobalt(ii)) 
((\m-pyrazine)-bis(5,6-dicyanopyrazine-2,3-diolato)-cobalt(ii)) hexahydrate]
;
_cell_volume    792.482
_exptl_crystal_colour 'yellow'
_exptl_crystal_density_diffrn 1.631
_exptl_crystal_description 'Prism'
_diffrn_ambient_temperature 106
_refine_special_details
;
O7 and O8 disordered over two sites with occupancies 0.75:0.25.

;
#These two values have been output from a single CSD field.
_refine_ls_R_factor_gt 0.0977
_refine_ls_wR_factor_gt 0.0977
_symmetry_cell_setting triclinic
_symmetry_space_group_name_H-M 'P -1'
_symmetry_Int_Tables_number 2
loop_
_symmetry_equiv_pos_site_id
_symmetry_equiv_pos_as_xyz
1 x,y,z
2 -x,-y,-z
_cell_length_a 7.0728(9)
_cell_length_b 10.3625(13)
_cell_length_c 12.0604(16)
_cell_angle_alpha 67.284(4)
_cell_angle_beta 81.212(4)
_cell_angle_gamma 77.056(4)
_cell_formula_units_Z 1
loop_
_atom_type_symbol
_atom_type_radius_bond
C 0.68
H 0.23
Co 1.26
N 0.68
O 0.68
loop_
_atom_site_label
_atom_site_type_symbol
_atom_site_fract_x
_atom_site_fract_y
_atom_site_fract_z
Co1 Co 0.50000 0.00000 0.00000
O1 O 0.4461(5) 0.0884(4) 0.1325(3)
O2 O 0.4468(6) 0.2164(4) -0.1076(3)
N1 N 0.3300(7) 0.2969(5) 0.1581(4)
N2 N 0.3110(7) 0.4319(5) -0.0950(4)
N3 N 0.1323(9) 0.5803(5) 0.2455(5)
N4 N 0.1021(8) 0.7711(6) -0.1096(5)
N5 N 0.2016(7) 0.0032(6) 0.0005(6)
C1 C 0.3865(8) 0.2240(6) 0.0881(5)
C2 C 0.3823(8) 0.2936(5) -0.0447(5)
C3 C 0.2571(8) 0.4394(5) 0.1034(5)
C4 C 0.2490(9) 0.5038(7) -0.0165(6)
C5 C 0.1888(9) 0.5180(6) 0.1828(6)
C6 C 0.1685(8) 0.6518(6) -0.0697(5)
C7 C 0.1004(8) -0.0810(6) 0.0944(6)
H1 H 0.16743 -0.14120 0.16401
C8 C 0.0941(8) 0.0856(7) -0.0963(6)
H2 H 0.15473 0.14743 -0.16638
Co2 Co 0.50000 0.00000 0.50000
O3 O 0.5639(6) -0.0672(4) 0.3533(3)
O4 O 0.4613(6) 0.2104(4) 0.3868(4)
N6 N 0.7962(7) -0.0022(7) 0.5032(6)
C9 C 0.9132(9) 0.0350(7) 0.3988(6)
H3 H 0.85700 0.06064 0.32480
C10 C 0.8932(9) -0.0374(7) 0.6051(6)
H4 H 0.82193 -0.06446 0.68143
H5 H 0.53201 -0.00848 0.27405
H6 H 0.54613 -0.15619 0.35850
H7 H 0.41826 0.21519 0.31399
H8 H 0.53298 0.28332 0.36988
O5 O 0.7278(11) 0.3736(7) 0.3394(5)
H9 H 0.68024 0.45707 0.27188
H10 H 0.73958 0.42507 0.39092
O6 O 0.4969(17) 0.3129(6) 0.6436(5)
H11 H 0.63250 0.30429 0.61339
H12 H 0.475(8) 0.295(6) 0.726(2)
O7 O 0.773(2) 0.4612(12) 0.5113(10)
H13 H 0.77280 0.56150 0.50150
H14 H 0.875(11) 0.382(9) 0.508(14)
O8? O 0.998(4) 0.326(3) 0.499(2)
H15? H 0.96760 0.22560 0.50540
N5A N -0.2016(7) -0.0032(6) -0.0005(6)
C7A C -0.1004(8) 0.0810(6) -0.0944(6)
H1A H -0.16743 0.14120 -0.16401
C8A C -0.0941(8) -0.0856(7) 0.0963(6)
H2A H -0.15473 -0.14743 0.16638
O1A O 0.5539(5) -0.0884(4) -0.1325(3)
O2A O 0.5532(6) -0.2164(4) 0.1076(3)
N1A N 0.6700(7) -0.2969(5) -0.1581(4)
N2A N 0.6890(7) -0.4319(5) 0.0950(4)
N3A N 0.8677(9) -0.5803(5) -0.2455(5)
N4A N 0.8979(8) -0.7711(6) 0.1096(5)
C1A C 0.6135(8) -0.2240(6) -0.0881(5)
C2A C 0.6177(8) -0.2936(5) 0.0447(5)
C3A C 0.7429(8) -0.4394(5) -0.1034(5)
C4A C 0.7510(9) -0.5038(7) 0.0165(6)
C5A C 0.8112(9) -0.5180(6) -0.1828(6)
C6A C 0.8315(8) -0.6518(6) 0.0697(5)
Co1* Co -0.50000 0.00000 0.00000
N5A* N 0.7984(7) -0.0032(6) -0.0005(6)
N6A N 1.2038(7) 0.0022(7) 0.4968(6)
C9A C 1.0868(9) -0.0350(7) 0.6012(6)
H3A H 1.14300 -0.06064 0.67520
C10A C 1.1068(9) 0.0374(7) 0.3949(6)
H4A H 1.17807 0.06446 0.31857
O3A O 0.4361(6) 0.0672(4) 0.6467(3)
O4A O 0.5387(6) -0.2104(4) 0.6132(4)
H5A H 0.46799 0.00848 0.72595
H6A H 0.45387 0.15619 0.64150
H7A H 0.58174 -0.21519 0.68601
H8A H 0.46702 -0.28332 0.63012
Co2* Co 1.50000 0.00000 0.50000
N6A* N 0.2038(7) 0.0022(7) 0.4968(6)
#END
