
#######################################################################
#
#                 Cambridge Crystallographic Data Centre
#                                CCDC
#
#######################################################################
#
# If this CIF has been generated from an entry in the Cambridge
# Structural Database, then it will include bibliographic, chemical,
# crystal, experimental, refinement or atomic coordinate data resulting
# from the CCDC's data processing and validation procedures.
#
#######################################################################

data_CSD_CIF_VOXZAL
_audit_creation_date 2015-02-11
_audit_creation_method CSD-ConQuest-V1
_database_code_CSD VOXZAL
_database_code_depnum_ccdc_archive 'CCDC 1034210'
_chemical_formula_sum 'C24 H46 Cd2 N6 O4 S4'
_chemical_formula_moiety
;
(C8 H6 Cd2 N4 O4 S4 2-)n,2n(C8 H20 N1 1+)
;
_journal_coden_Cambridge 222
_journal_volume 44
_journal_year 2015
_journal_page_first 5095
_journal_name_full 'Dalton Trans. '
loop_
_publ_author_name
"Bing Guo"
"Xiao Zhang"
"Yan-Ning Wang"
"Jing-Jing Huang"
"Jie-Hui Yu"
"Ji-Qing Xu"
_chemical_name_systematic
;
catena-(bis(Di-n-butylammonium) 
tetrakis(\m~2~-thiocyanato-N,S)-bis(acetato-O,O')-di-cadmium)
;
_cell_volume   3883.272
_exptl_crystal_colour 'yellow'
_exptl_crystal_density_diffrn 1.429
_exptl_crystal_description 'block'
_diffrn_ambient_temperature 293
#These two values have been output from a single CSD field.
_refine_ls_R_factor_gt 0.0324
_refine_ls_wR_factor_gt 0.0324
_symmetry_cell_setting orthorhombic
_symmetry_space_group_name_H-M 'P n a 21'
_symmetry_Int_Tables_number 33
loop_
_symmetry_equiv_pos_site_id
_symmetry_equiv_pos_as_xyz
1 x,y,z
2 -x,-y,1/2+z
3 1/2-x,1/2+y,1/2+z
4 1/2+x,1/2-y,z
_cell_length_a 17.0284(14)
_cell_length_b 13.2610(8)
_cell_length_c 17.1968(9)
_cell_angle_alpha 90
_cell_angle_beta 90
_cell_angle_gamma 90
_cell_formula_units_Z 4
loop_
_atom_type_symbol
_atom_type_radius_bond
C 0.68
H 0.23
Cd 1.44
N 0.68
O 0.68
S 1.02
loop_
_atom_site_label
_atom_site_type_symbol
_atom_site_fract_x
_atom_site_fract_y
_atom_site_fract_z
Cd1 Cd -0.78165(3) 0.06321(3) -0.56197(3)
Cd2 Cd -0.72180(2) -0.07512(3) -0.24555(3)
O1 O -0.6399(2) 0.0662(2) -0.2060(3)
O2 O -0.5923(3) -0.0860(3) -0.2011(3)
O3 O -0.9114(3) 0.0597(3) -0.6101(4)
O4 O -0.8558(3) -0.0868(3) -0.5963(3)
N1 N -0.7712(4) 0.2310(4) -0.5601(4)
N2 N -0.6723(4) -0.0684(5) -0.3693(5)
N3 N -0.7511(4) 0.2604(3) -0.7520(4)
N4 N -0.8298(4) 0.0566(5) -0.4377(4)
C1 C -0.7526(4) 0.3115(4) -0.5746(4)
C2 C -0.6645(3) -0.0513(5) -0.4344(4)
C3 C -0.7384(3) 0.1782(4) -0.7354(4)
C4 C -0.8371(3) 0.0411(5) -0.3741(5)
C5 C -0.9144(4) -0.0349(5) -0.6148(4)
C6 C -0.9866(5) -0.0880(8) -0.6450(7)
H1 H -1.00630 -0.05280 -0.68970
H2 H -1.02620 -0.08910 -0.60530
H3 H -0.97330 -0.15590 -0.65930
C7 C -0.5843(3) 0.0083(4) -0.1950(4)
C8 C -0.5043(4) 0.0499(6) -0.1742(6)
H4 H -0.46460 0.01410 -0.20260
H5 H -0.49540 0.04190 -0.11950
H6 H -0.50220 0.12020 -0.18750
S1 S -0.72538(13) 0.42749(11) -0.59325(13)
S2 S -0.65066(10) -0.02875(14) -0.52713(11)
S3 S -0.72066(13) 0.06123(12) -0.71117(14)
S4 S -0.85062(9) 0.02069(12) -0.27968(11)
N5 N -0.9848(2) 0.2362(4) -0.6613(3)
H7 H -0.95140 0.18710 -0.64650
H8 H -0.95680 0.29340 -0.66630
C9 C -1.0313(11) 0.2532(16) -0.3747(7)
H9 H -0.99040 0.30180 -0.36620
H10 H -1.01150 0.18680 -0.36460
H11 H -1.07440 0.26700 -0.34030
C10 C -1.0593(6) 0.2597(10) -0.4584(5)
H12 H -1.08920 0.19920 -0.46960
H13 H -1.09510 0.31630 -0.46240
C11 C -1.0032(5) 0.2702(7) -0.5150(4)
H14 H -0.96110 0.22210 -0.50640
H15 H -0.98100 0.33750 -0.51310
C12 C -1.0434(4) 0.2504(5) -0.6000(4)
H16 H -1.07660 0.19110 -0.59710
H17 H -1.07650 0.30750 -0.61320
C13 C -1.0183(4) 0.2095(5) -0.7375(3)
H18 H -1.04950 0.26520 -0.75700
H19 H -1.05230 0.15120 -0.73210
C14 C -0.9537(5) 0.1865(8) -0.7932(4)
H20 H -0.92690 0.24910 -0.80510
H21 H -0.91620 0.14320 -0.76690
C15 C -0.9752(8) 0.1374(11) -0.8681(5)
H22 H -1.00210 0.07440 -0.85760
H23 H -1.01090 0.18080 -0.89660
C16 C -0.9051(10) 0.1175(13) -0.9159(10)
H24 H -0.92090 0.10360 -0.96840
H25 H -0.87750 0.06030 -0.89530
H26 H -0.87140 0.17540 -0.91520
N6 N -0.7958(3) -0.2752(3) -0.6169(3)
H27 H -0.82720 -0.22060 -0.61580
H28 H -0.82220 -0.32440 -0.64170
C17 C -0.7059(7) -0.1608(7) -0.8766(5)
H29 H -0.66030 -0.15800 -0.90930
H30 H -0.73120 -0.09620 -0.87610
H31 H -0.74170 -0.21060 -0.89630
C18 C -0.6818(4) -0.1887(5) -0.7953(5)
H32 H -0.64410 -0.24340 -0.79760
H33 H -0.65610 -0.13130 -0.77130
C19 C -0.7489(4) -0.2199(5) -0.7462(5)
H34 H -0.77510 -0.27650 -0.77080
H35 H -0.78620 -0.16480 -0.74350
C20 C -0.7257(3) -0.2500(6) -0.6636(5)
H36 H -0.69080 -0.30780 -0.66550
H37 H -0.69760 -0.19480 -0.63920
C21 C -0.7826(5) -0.3072(5) -0.5382(4)
H38 H -0.76330 -0.25100 -0.50750
H39 H -0.74320 -0.36010 -0.53730
C22 C -0.8628(6) -0.3483(8) -0.5019(5)
H40 H -0.90200 -0.29560 -0.50600
H41 H -0.88070 -0.40470 -0.53310
C23 C -0.8591(7) -0.3784(10) -0.4272(7)
H42 H -0.84640 -0.32070 -0.39480
H43 H -0.81700 -0.42720 -0.42170
C24 C -0.9346(7) -0.4248(9) -0.3986(7)
H44 H -0.94970 -0.47860 -0.43290
H45 H -0.97510 -0.37450 -0.39770
H46 H -0.92700 -0.45100 -0.34710
Cd2B Cd -0.77820(2) 0.42488(3) -0.74555(3)
N3B N -0.7489(4) -0.2396(3) -0.2520(4)
S1B S -0.77462(13) -0.07251(11) -0.09325(13)
#END
