
#######################################################################
#
#                 Cambridge Crystallographic Data Centre
#                                CCDC
#
#######################################################################
#
# If this CIF has been generated from an entry in the Cambridge
# Structural Database, then it will include bibliographic, chemical,
# crystal, experimental, refinement or atomic coordinate data resulting
# from the CCDC's data processing and validation procedures.
#
#######################################################################

data_CSD_CIF_VOYCER
_audit_creation_date 1992-12-16
_audit_creation_method CSD-ConQuest-V1
_database_code_CSD VOYCER
_chemical_formula_sum 'C34 H43 N1 O4 Sn1'
_chemical_formula_moiety
;
(C22 H19 O4 Sn1 1-)n,n(C12 H24 N1 1+)
;
_journal_coden_Cambridge 1093
_journal_volume 2
_journal_year 1991
_journal_page_first 495
_journal_name_full 'Heteroat.Chem. '
loop_
_publ_author_name
"S.W.Ng"
"V.G.Kumar Das"
"Gaoyi Xiao"
"D.van der Helm"
"J.Holecek"
"A.Lycka"
_chemical_name_systematic
;
catena-(Dicyclohexylammonium (\m~2~-succinato)-triphenyl-tin)
;
_cell_volume   3068.131
_exptl_crystal_density_diffrn 1.403
_diffrn_ambient_temperature 138
#These two values have been output from a single CSD field.
_refine_ls_R_factor_gt 0.0261
_refine_ls_wR_factor_gt 0.0261
_symmetry_cell_setting orthorhombic
_symmetry_space_group_name_H-M 'P n a a'
_symmetry_Int_Tables_number 56
loop_
_symmetry_equiv_pos_site_id
_symmetry_equiv_pos_as_xyz
1 x,y,z
2 -x,1/2+y,1/2+z
3 1/2+x,1/2-y,z
4 1/2-x,-y,1/2+z
5 -x,-y,-z
6 x,-1/2-y,-1/2-z
7 -1/2-x,-1/2+y,-z
8 -1/2+x,y,-1/2-z
_cell_length_a 18.931(4)
_cell_length_b 17.280(6)
_cell_length_c 9.379(2)
_cell_angle_alpha 90
_cell_angle_beta 90
_cell_angle_gamma 90
_cell_formula_units_Z 4
loop_
_atom_type_symbol
_atom_type_radius_bond
C 0.68
N 0.68
O 0.68
Sn 1.46
loop_
_atom_site_label
_atom_site_type_symbol
_atom_site_fract_x
_atom_site_fract_y
_atom_site_fract_z
Sn1 Sn 0.18649(1) 0.25000 0.75000
C1 C 0.2291(1) 0.1425(1) 0.6800(2)
C2 C 0.2904(4) 0.1082(1) 0.7302(3)
C3 C 0.3135(1) 0.0380(2) 0.6744(4)
C4 C 0.2742(2) 0.0007(1) 0.5702(3)
C5 C 0.2129(2) 0.0333(2) 0.5225(4)
C6 C 0.1905(1) 0.1040(2) 0.5750(3)
O1 O 0.1789(1) 0.2091(1) 0.9731(2)
C7 C 0.2304(1) 0.2132(1) 1.0613(2)
O2 O 0.2935(1) 0.2225(1) 1.0272(2)
C8 C 0.2104(1) 0.2087(1) 1.2174(2)
C9 C 0.0743(2) 0.25000 0.75000
C10 C 0.0357(1) 0.1940(1) 0.8246(3)
C11 C -0.0377(1) 0.1934(1) 0.8224(3)
C12 C -0.0746(2) 0.25000 0.75000
N1 N 0.3911(1) 0.25000 1.25000
C13 C 0.4331(1) 0.1774(2) 1.2766(3)
C14 C 0.3821(1) 0.1104(1) 1.3025(3)
C15 C 0.4226(2) 0.0354(2) 1.3293(4)
C16 C 0.4735(2) 0.0178(2) 1.2084(4)
C17 C 0.5232(2) 0.0849(2) 1.1836(4)
C18 C 0.4829(1) 0.1602(2) 1.1527(3)
C1E C 0.2291(1) 0.3575(1) 0.8200(2)
O1E O 0.1789(1) 0.2909(1) 0.5269(2)
C8E C 0.2104(1) 0.2913(1) 1.2826(2)
C10E C 0.0357(1) 0.3060(1) 0.6754(3)
C11E C -0.0377(1) 0.3066(1) 0.6776(3)
C2E C 0.2904(4) 0.3918(1) 0.7698(3)
C6E C 0.1905(1) 0.3960(2) 0.9250(3)
C7E C 0.2304(1) 0.2868(1) 1.4387(2)
C3E C 0.3135(1) 0.4620(2) 0.8256(4)
C5E C 0.2129(2) 0.4667(2) 0.9775(4)
C4E C 0.2742(2) 0.4993(1) 0.9298(3)
C13E C 0.4331(1) 0.3226(2) 1.2234(3)
C14E C 0.3821(1) 0.3896(1) 1.1975(3)
C18E C 0.4829(1) 0.3398(2) 1.3473(3)
C15E C 0.4226(2) 0.4646(2) 1.1707(4)
C17E C 0.5232(2) 0.4151(2) 1.3164(4)
C16E C 0.4735(2) 0.4822(2) 1.2916(4)
O1E* O 0.1789(1) 0.2909(1) 1.5269(2)
O2E O 0.2935(1) 0.2775(1) 1.4728(2)
Sn1* Sn 0.18649(1) 0.25000 1.75000
#END
