
#######################################################################
#
#                 Cambridge Crystallographic Data Centre
#                                CCDC
#
#######################################################################
#
# If this CIF has been generated from an entry in the Cambridge
# Structural Database, then it will include bibliographic, chemical,
# crystal, experimental, refinement or atomic coordinate data resulting
# from the CCDC's data processing and validation procedures.
#
#######################################################################

data_CSD_CIF_VOYGOH
_audit_creation_date 2015-02-11
_audit_creation_method CSD-ConQuest-V1
_database_code_CSD VOYGOH
_database_code_depnum_ccdc_archive 'CCDC 990006'
_chemical_formula_sum 'C138 H258 Mo24 N6 O98 P2 Zn8'
_chemical_formula_moiety
;
(C42 H30 Mo24 O92 P2 Zn8 6-)n,6n(C16 H36 N1 1+),6n(H2 O1)
;
_journal_coden_Cambridge 1147
_journal_volume 15
_journal_year 2015
_journal_page_first 449
_journal_name_full 'Cryst.Growth Des. '
loop_
_publ_author_name
"G.Rousseau"
"L.M.Rodriguez-Albelo"
"W.Salomon"
"P.Mialane"
"J.Marrot"
"Floriant Doungmene"
"I.-M.Mbomekalle"
"P.de Oliveira"
"A.Dolbecq"
_chemical_name_systematic
;
catena-(hexakis(Tetra-n-butylammonium) 
(\m~2~-phosphato)-(\m~11~-phosphato)-hexacosakis(\m~3~-oxo)-tris(\m~2~-bipheny
l-4,4'-dicarboxylato)-hexakis(\m~2~-hydroxo)-hexadecakis(\m~2~-oxo)-tetracosao
xo-tetracosa-molybdenum-octa-zinc hexahydrate)
;
_cell_volume  22315.024
_exptl_crystal_colour 'black'
_exptl_crystal_density_diffrn 1.922
_exptl_special_details
;
The water molecules do not appear to have been modelled. We have assigned 
hydrogen atoms to the hydroxo groups arbitrarily
;
_exptl_crystal_description 'parallelepiped'
_diffrn_ambient_temperature 293
#These two values have been output from a single CSD field.
_refine_ls_R_factor_gt 0.0637
_refine_ls_wR_factor_gt 0.0637
_symmetry_cell_setting monoclinic
_symmetry_space_group_name_H-M 'P 21/n'
_symmetry_Int_Tables_number 14
loop_
_symmetry_equiv_pos_site_id
_symmetry_equiv_pos_as_xyz
1 x,y,z
2 1/2-x,1/2+y,1/2-z
3 -x,-y,-z
4 -1/2+x,-1/2-y,-1/2+z
_cell_length_a 21.6854(9)
_cell_length_b 29.7276(11)
_cell_length_c 34.8286(14)
_cell_angle_alpha 90
_cell_angle_beta 96.342(1)
_cell_angle_gamma 90
_cell_formula_units_Z 4
loop_
_atom_type_symbol
_atom_type_radius_bond
C 0.68
H 0.23
Mo 1.54
N 0.68
O 0.68
P 1.05
Zn 1.22
loop_
_atom_site_label
_atom_site_type_symbol
_atom_site_fract_x
_atom_site_fract_y
_atom_site_fract_z
Mo1 Mo 0.07166(2) 0.917199(18) 0.030506(15)
Mo2 Mo -0.01416(3) 0.929028(18) -0.060150(15)
Mo3 Mo 0.22927(3) 1.04081(2) -0.013346(16)
Mo4 Mo 0.14997(3) 1.05207(2) -0.095622(16)
Mo5 Mo 0.01962(3) 0.986028(19) -0.110957(15)
Mo6 Mo 0.17295(3) 0.964124(19) 0.047860(15)
Mo7 Mo 0.30894(3) 0.94157(2) 0.000333(17)
Mo8 Mo 0.06175(3) 0.830741(18) -0.035056(16)
Mo9 Mo 0.18108(3) 0.81127(2) -0.078468(17)
Mo10 Mo 0.30746(3) 0.87758(2) -0.051075(17)
Mo11 Mo 0.21815(3) 0.89054(2) -0.143798(17)
Mo12 Mo 0.15478(3) 0.96407(2) -0.159030(16)
Zn1 Zn 0.06743(3) 1.02877(2) -0.016801(19)
Zn2 Zn 0.06030(4) 0.86935(3) -0.13045(2)
Zn3 Zn 0.20399(4) 0.84881(3) 0.01832(2)
Zn4 Zn 0.28811(4) 0.99119(3) -0.09345(2)
P1 P 0.15571(7) 0.93337(5) -0.05593(4)
O1 O 0.00928(18) 1.07116(13) 0.00228(11)
O2 O 0.09197(19) 0.98026(13) 0.02131(11)
O3 O 0.01820(19) 0.99019(13) -0.05526(11)
O4 O 0.09851(19) 0.91217(14) -0.03938(11)
O5 O 0.1425(2) 1.04847(14) -0.03858(12)
O6 O 0.0160(2) 0.92047(15) -0.11058(12)
O7 O -0.0060(2) 0.86128(14) -0.05700(13)
O8 O 0.1537(2) 0.82198(14) -0.02576(13)
O9 O 0.0928(2) 0.83044(14) -0.08783(12)
O10 O 0.2341(2) 1.03336(15) -0.07044(12)
O11 O 0.0618(2) 0.85231(14) 0.01343(12)
O12 O 0.1987(2) 1.02522(15) 0.03094(12)
O13 O 0.2612(2) 0.81951(16) -0.05739(13)
O14 O 0.3134(2) 0.94336(16) -0.05540(13)
O15 O 0.2749(2) 0.88075(15) -0.00124(12)
O16 O -0.0911(2) 0.93306(16) -0.06955(14)
O17 O 0.1323(2) 0.96676(14) -0.08877(11)
O18 O 0.1701(2) 0.97239(17) 0.09483(12)
O19 O 0.0665(2) 1.04389(15) -0.10491(12)
O20 O 0.1289(2) 0.90185(16) -0.15200(12)
O21 O 0.2664(2) 0.94696(16) 0.05023(12)
O22 O 0.2376(2) 0.95363(16) -0.13300(13)
O23 O -0.0500(2) 1.00304(16) -0.13088(14)
O24 O 0.19688(19) 0.95725(14) -0.02281(11)
O25 O 0.3015(2) 1.00835(16) -0.00479(14)
O26 O 0.1954(2) 0.89639(14) -0.07311(12)
O27 O 0.3010(2) 0.87913(17) -0.11039(13)
O28 O 0.0601(2) 0.97665(16) -0.16206(12)
O29 O 0.0361(2) 0.77801(15) -0.03221(15)
O30 O 0.0472(2) 0.91434(15) 0.07400(12)
O31 O 0.15954(19) 0.89989(14) 0.03889(12)
O32 O 0.1694(2) 1.02699(16) -0.14068(13)
O33 O 0.1603(3) 1.10746(16) -0.10186(15)
O34 O 0.1930(2) 0.82957(16) -0.12741(13)
O35 O 0.1630(3) 0.96957(19) -0.20573(13)
O36 O 0.2400(3) 0.87955(19) -0.18750(14)
O37 O 0.3803(2) 0.85847(19) -0.04219(16)
O38 O 0.3821(2) 0.93670(19) 0.02049(15)
O39 O 0.1743(3) 0.75470(16) -0.08292(15)
O40 O 0.2518(2) 1.09450(17) -0.00512(15)
C1 C 0.4896(4) 0.6358(3) 0.3001(2)
C2 C 0.4547(4) 0.6622(3) 0.2672(2)
C3 C 0.4563(7) 0.7075(4) 0.2673(3)
H1 H 0.47830 0.72250 0.28790
C4 C 0.4254(7) 0.7325(4) 0.2371(3)
H2 H 0.42620 0.76370 0.23840
C5 C 0.3940(4) 0.7120(3) 0.2056(2)
C6 C 0.3921(5) 0.6663(3) 0.2060(2)
H3 H 0.37060 0.65120 0.18530
C7 C 0.4219(5) 0.6418(3) 0.2367(2)
H4 H 0.41930 0.61060 0.23620
C8 C 0.3626(5) 0.7404(3) 0.1737(2)
C9 C 0.3747(6) 0.7847(4) 0.1726(3)
H5 H 0.40330 0.79710 0.19150
C10 C 0.3457(6) 0.8127(3) 0.1437(3)
H6 H 0.35510 0.84320 0.14370
C11 C 0.3040(4) 0.7956(3) 0.1157(2)
C12 C 0.2932(6) 0.7507(3) 0.1159(3)
H7 H 0.26630 0.73790 0.09630
C13 C 0.3223(6) 0.7237(4) 0.1453(3)
H8 H 0.31350 0.69300 0.14520
C14 C 0.2724(4) 0.8271(3) 0.0853(2)
O41 O 0.4967(3) 0.59541(19) 0.29683(15)
O42 O 0.5094(3) 0.66042(18) 0.32916(14)
O43 O 0.2375(3) 0.80832(19) 0.05839(16)
O44 O 0.2816(3) 0.8672(2) 0.08878(17)
C15 C 0.6181(4) 1.0459(3) -0.3652(2)
C16 C 0.5824(4) 1.0363(3) -0.3316(2)
C17 C 0.5987(5) 1.0017(4) -0.3066(3)
H9 H 0.63150 0.98290 -0.31100
C18 C 0.5670(5) 0.9944(4) -0.2747(3)
H10 H 0.57940 0.97110 -0.25780
C19 C 0.5179(4) 1.0207(3) -0.2675(3)
C20 C 0.5022(5) 1.0554(3) -0.2927(3)
H11 H 0.46870 1.07370 -0.28870
C21 C 0.5343(4) 1.0639(3) -0.3237(3)
H12 H 0.52350 1.08850 -0.33960
C22 C 0.4827(5) 1.0113(3) -0.2341(3)
C23 C 0.4790(6) 0.9684(4) -0.2197(4)
H13 H 0.49960 0.94510 -0.23090
C24 C 0.4453(6) 0.9587(4) -0.1890(4)
H14 H 0.44200 0.92920 -0.18050
C25 C 0.4171(4) 0.9927(3) -0.1713(3)
C26 C 0.4204(5) 1.0351(4) -0.1846(3)
H15 H 0.40100 1.05840 -0.17270
C27 C 0.4528(5) 1.0439(4) -0.2159(3)
H16 H 0.45410 1.07330 -0.22480
C28 C 0.3805(4) 0.9805(4) -0.1379(3)
O45 O 0.6175(3) 1.0843(2) -0.37831(17)
O46 O 0.3530(3) 1.0130(2) -0.12264(17)
O47 O 0.6475(3) 1.01172(19) -0.37758(16)
O48 O 0.3794(3) 0.9406(2) -0.1285(2)
Mo13 Mo 0.92250(2) 1.070024(17) -0.544273(14)
Mo14 Mo 1.00845(2) 1.084063(17) -0.453992(15)
Mo15 Mo 0.97789(3) 1.041460(19) -0.393336(15)
Mo16 Mo 0.82519(3) 1.017093(19) -0.552462(15)
Mo17 Mo 0.85336(3) 0.969743(19) -0.394468(16)
Mo18 Mo 0.92633(3) 1.171980(18) -0.497235(16)
Mo19 Mo 0.80347(3) 1.199423(19) -0.460183(17)
Mo20 Mo 0.77443(3) 0.957959(19) -0.476899(16)
Mo21 Mo 0.68684(3) 1.04881(2) -0.510082(17)
Mo22 Mo 0.83997(3) 1.07241(2) -0.351266(16)
Mo23 Mo 0.77169(3) 1.13875(2) -0.381144(17)
Mo24 Mo 0.68166(3) 1.12503(2) -0.473272(18)
Zn5 Zn 0.93444(3) 0.97418(2) -0.476638(19)
Zn6 Zn 0.92808(4) 1.15945(3) -0.39717(2)
Zn7 Zn 0.78634(4) 1.13614(3) -0.54503(2)
Zn8 Zn 0.71119(4) 1.02648(3) -0.40971(2)
P2 P 0.83865(7) 1.07498(5) -0.45699(4)
O49 O 0.9481(2) 1.06235(16) -0.58730(12)
O50 O 0.90728(18) 1.01068(13) -0.52322(11)
O51 O 0.83354(19) 1.08222(14) -0.55616(12)
O52 O 0.99616(19) 0.93048(13) -0.48953(11)
O53 O 0.9277(2) 1.13775(14) -0.54033(12)
O54 O 1.0855(2) 1.08354(15) -0.44407(13)
O55 O 0.98002(19) 1.02263(13) -0.44681(11)
O56 O 0.9770(2) 1.10534(14) -0.40663(12)
O57 O 0.9957(2) 1.14905(14) -0.47034(13)
O58 O 1.0479(2) 1.03161(17) -0.37038(13)
O59 O 0.9358(2) 0.98205(14) -0.38740(12)
O60 O 0.9341(2) 1.06208(15) -0.34665(12)
O61 O 0.8293(2) 0.99639(17) -0.59652(13)
O62 O 0.8043(2) 0.96202(15) -0.52327(12)
O63 O 0.7309(2) 1.03113(15) -0.55775(13)
O64 O 0.8477(3) 0.91733(16) -0.37701(14)
O65 O 0.8308(2) 1.00596(15) -0.35594(13)
O66 O 0.8615(2) 0.95885(14) -0.45088(12)
O67 O 0.7678(2) 0.97950(15) -0.42264(12)
O68 O 0.6140(2) 1.04624(18) -0.53097(16)
O69 O 0.7165(2) 1.10904(15) -0.52071(13)
O70 O 0.6802(2) 1.06213(15) -0.45572(13)
O71 O 0.6998(2) 0.98548(15) -0.49139(14)
O72 O 0.8320(3) 1.07990(18) -0.30469(14)
O73 O 0.7570(2) 1.07416(15) -0.37856(13)
O74 O 0.8611(2) 1.13156(15) -0.37079(12)
O75 O 0.7479(3) 1.16086(18) -0.34139(15)
O76 O 0.7928(2) 1.19461(15) -0.40910(13)
O77 O 0.6872(2) 1.13981(16) -0.41514(14)
O78 O 0.9477(2) 1.22373(14) -0.51064(15)
O79 O 0.8932(2) 1.18533(14) -0.44614(12)
O80 O 0.8333(2) 1.17547(14) -0.50833(13)
O81 O 0.79986(19) 1.04180(14) -0.48432(12)
O82 O 0.86379(19) 1.05157(13) -0.41849(11)
O83 O 0.7960(2) 1.11464(14) -0.44745(12)
O84 O 0.89432(19) 1.09256(13) -0.47755(11)
O85 O 0.6080(2) 1.13986(18) -0.48622(17)
O86 O 0.7549(2) 0.90351(16) -0.47362(16)
O87 O 0.7245(2) 1.18375(15) -0.47859(14)
O88 O 0.8054(2) 1.25543(16) -0.46782(16)
C29 C 0.9878(4) 1.1779(3) -0.3264(2)
C30 C 1.0156(4) 1.2073(3) -0.2939(2)
C31 C 1.0616(6) 1.1907(3) -0.2690(3)
H17 H 1.07520 1.16130 -0.27180
C32 C 1.0891(6) 1.2176(4) -0.2391(3)
H18 H 1.12170 1.20580 -0.22250
C33 C 1.0703(6) 1.2600(4) -0.2335(3)
C34 C 1.0234(6) 1.2769(4) -0.2587(3)
H19 H 1.00950 1.30620 -0.25550
C35 C 0.9960(6) 1.2509(4) -0.2894(3)
H20 H 0.96460 1.26300 -0.30680
C36 C 1.1021(6) 1.2880(4) -0.2019(3)
C37 C 1.1253(8) 1.2674(4) -0.1677(3)
H21 H 1.11830 1.23690 -0.16410
C38 C 1.1591(7) 1.2922(4) -0.1387(3)
H22 H 1.17250 1.27860 -0.11520
C39 C 1.1726(5) 1.3360(3) -0.1443(2)
C40 C 1.1486(5) 1.3570(3) -0.1775(3)
H23 H 1.15550 1.38760 -0.18080
C41 C 1.1142(6) 1.3327(4) -0.2060(3)
H24 H 1.09880 1.34720 -0.22880
C42 C 1.2129(4) 1.3610(3) -0.1132(2)
O89 O 0.9882(3) 1.1375(2) -0.32119(18)
O90 O 0.9677(3) 1.19827(18) -0.35755(15)
O91 O 1.2100(3) 1.4020(2) -0.11173(15)
O92 O 1.2482(3) 1.3360(2) -0.09083(17)
N1 N 0.9180(4) 0.3889(3) -0.0723(3)
C43 C 0.9799(5) 0.3910(4) -0.0889(4)
H25 H 1.01220 0.38140 -0.06910
H26 H 0.97890 0.36970 -0.11010
C44 C 0.9968(5) 0.4366(4) -0.1034(3)
C45 C 1.0523(7) 0.4297(5) -0.1260(5)
H27 H 1.08320 0.41190 -0.11050
H28 H 1.03900 0.41270 -0.14930
C46 C 1.0800(8) 0.4708(6) -0.1366(5)
H29 H 1.08680 0.49000 -0.11440
H30 H 1.05300 0.48550 -0.15630
H31 H 1.11900 0.46440 -0.14610
C47 C 0.9114(6) 0.3407(4) -0.0577(5)
H32 H 0.91570 0.32010 -0.07880
H33 H 0.94520 0.33470 -0.03770
C48 C 0.8518(7) 0.3311(5) -0.0420(5)
H34 H 0.84320 0.35550 -0.02480
H35 H 0.81890 0.33080 -0.06320
C49 C 0.8502(8) 0.2889(5) -0.0210(7)
H36 H 0.88210 0.28890 0.00080
H37 H 0.85820 0.26400 -0.03780
C50 C 0.7885(8) 0.2836(6) -0.0074(5)
H38 H 0.75710 0.29380 -0.02700
H39 H 0.78670 0.30100 0.01570
H40 H 0.78170 0.25240 -0.00190
C51 C 0.9176(6) 0.4214(4) -0.0397(4)
H41 H 0.87770 0.41940 -0.02980
H42 H 0.92120 0.45150 -0.05000
C52 C 0.9675(7) 0.4156(4) -0.0062(4)
H43 H 0.96740 0.38460 0.00240
H44 H 1.00760 0.42140 -0.01520
C53 C 0.9602(8) 0.4456(5) 0.0271(5)
H45 H 0.96070 0.47650 0.01830
H46 H 0.91980 0.44000 0.03560
C54 C 1.0054(11) 0.4406(8) 0.0588(7)
H47 H 1.01230 0.40920 0.06410
H48 H 0.99140 0.45490 0.08100
H49 H 1.04340 0.45430 0.05310
C55 C 0.8627(6) 0.4018(5) -0.1008(5)
H50 H 0.82530 0.39870 -0.08820
H51 H 0.86660 0.43330 -0.10750
C56 C 0.8554(10) 0.3746(8) -0.1375(7)
H52 H 0.85400 0.34280 -0.13150
H53 H 0.89000 0.38000 -0.15230
C57 C 0.7929(9) 0.3898(8) -0.1611(7)
H54 H 0.75790 0.38130 -0.14760
H55 H 0.79240 0.42220 -0.16460
C58 C 0.7898(9) 0.3678(7) -0.1974(7)
H56 H 0.82870 0.37120 -0.20790
H57 H 0.75730 0.38080 -0.21470
H58 H 0.78150 0.33640 -0.19410
N2 N -0.1569(5) 0.7949(3) -0.1045(3)
C59 C -0.1701(6) 0.7811(5) -0.0648(3)
H59 H -0.21290 0.78840 -0.06190
H60 H -0.16560 0.74870 -0.06260
C60 C -0.1295(6) 0.8025(5) -0.0322(4)
H61 H -0.08660 0.79450 -0.03440
H62 H -0.13290 0.83490 -0.03460
C61 C -0.1447(11) 0.7894(8) 0.0056(5)
H63 H -0.14170 0.75690 0.00780
H64 H -0.18740 0.79760 0.00780
C62 C -0.1052(13) 0.8096(9) 0.0379(8)
H65 H -0.06790 0.82090 0.02880
H66 H -0.09460 0.78730 0.05740
H67 H -0.12700 0.83380 0.04860
C63 C -0.1634(7) 0.8457(4) -0.1096(4)
H68 H -0.15550 0.85300 -0.13570
H69 H -0.13120 0.86000 -0.09220
C64 C -0.2257(7) 0.8667(6) -0.1026(5)
H70 H -0.25900 0.84790 -0.11450
H71 H -0.22880 0.86740 -0.07500
C65 C -0.2340(8) 0.9123(6) -0.1179(5)
H72 H -0.20070 0.93090 -0.10560
H73 H -0.22940 0.91140 -0.14530
C66 C -0.2920(11) 0.9341(7) -0.1132(8)
H74 H -0.32100 0.92850 -0.13560
H75 H -0.28540 0.96580 -0.11020
H76 H -0.30820 0.92220 -0.09070
C67 C -0.2048(7) 0.7705(4) -0.1326(4)
H77 H -0.24590 0.77780 -0.12580
H78 H -0.19900 0.73830 -0.12900
C68 C -0.2028(9) 0.7813(6) -0.1759(5)
H79 H -0.16840 0.76610 -0.18580
H80 H -0.19880 0.81340 -0.17990
C69 C -0.2657(10) 0.7638(8) -0.1959(5)
H81 H -0.26870 0.73170 -0.19150
H82 H -0.29940 0.77840 -0.18460
C70 C -0.2718(13) 0.7725(9) -0.2370(6)
H83 H -0.23400 0.76430 -0.24730
H84 H -0.28000 0.80390 -0.24160
H85 H -0.30550 0.75500 -0.24950
C71 C -0.0931(6) 0.7826(4) -0.1112(4)
H86 H -0.06460 0.80060 -0.09420
H87 H -0.08730 0.79070 -0.13750
C72 C -0.0751(8) 0.7335(5) -0.1052(5)
H88 H -0.07370 0.72590 -0.07810
H89 H -0.10590 0.71450 -0.11960
C73 C -0.0123(11) 0.7252(6) -0.1189(6)
H90 H -0.01550 0.73250 -0.14610
H91 H 0.01660 0.74650 -0.10560
C74 C 0.0126(11) 0.6850(7) -0.1145(8)
H92 H 0.02580 0.67990 -0.08760
H93 H 0.04780 0.68320 -0.12890
H94 H -0.01750 0.66280 -0.12370
N3 N 0.5623(4) 0.8678(3) 0.0099(3)
C75 C 0.5483(6) 0.8341(4) -0.0208(4)
H95 H 0.55140 0.80450 -0.00910
H96 H 0.50560 0.83820 -0.03180
C76 C 0.5876(6) 0.8347(4) -0.0523(5)
H97 H 0.63010 0.82760 -0.04250
H98 H 0.58690 0.86440 -0.06390
C77 C 0.5627(10) 0.8001(7) -0.0822(6)
H99 H 0.56360 0.77050 -0.07040
H100 H 0.52000 0.80720 -0.09160
C78 C 0.6003(9) 0.8003(5) -0.1139(5)
H101 H 0.59370 0.82780 -0.12810
H102 H 0.58900 0.77530 -0.13060
H103 H 0.64330 0.79790 -0.10400
C79 C 0.5645(6) 0.9154(3) -0.0069(4)
H104 H 0.57210 0.93660 0.01430
H105 H 0.59940 0.91710 -0.02200
C80 C 0.5084(6) 0.9295(4) -0.0314(4)
H106 H 0.47440 0.93160 -0.01560
H107 H 0.49770 0.90650 -0.05080
C81 C 0.5153(8) 0.9748(4) -0.0518(5)
H108 H 0.47430 0.98450 -0.06270
H109 H 0.53020 0.99680 -0.03230
C82 C 0.5564(12) 0.9762(8) -0.0826(7)
H110 H 0.55810 1.00630 -0.09240
H111 H 0.54060 0.95640 -0.10320
H112 H 0.59730 0.96670 -0.07250
C83 C 0.5111(6) 0.8630(5) 0.0360(4)
H113 H 0.47170 0.86960 0.02110
H114 H 0.50990 0.83190 0.04440
C84 C 0.5179(8) 0.8924(7) 0.0707(5)
H115 H 0.51170 0.92380 0.06370
H116 H 0.55840 0.88890 0.08530
C85 C 0.4663(9) 0.8753(6) 0.0936(5)
H117 H 0.42690 0.88850 0.08350
H118 H 0.46290 0.84290 0.09130
C86 C 0.4809(14) 0.8876(10) 0.1337(7)
H119 H 0.51410 0.86900 0.14530
H120 H 0.44490 0.88340 0.14710
H121 H 0.49330 0.91860 0.13540
C87 C 0.6256(5) 0.8615(5) 0.0318(4)
H122 H 0.65610 0.86460 0.01350
H123 H 0.63260 0.88590 0.05020
C88 C 0.6382(6) 0.8194(6) 0.0525(5)
H124 H 0.64430 0.79490 0.03500
H125 H 0.60470 0.81170 0.06770
C89 C 0.6989(12) 0.8304(10) 0.0789(9)
H126 H 0.73050 0.84320 0.06450
H127 H 0.69160 0.85030 0.10000
C90 C 0.7142(16) 0.7854(10) 0.0921(10)
H128 H 0.68240 0.76510 0.08160
H129 H 0.71740 0.78450 0.11980
H130 H 0.75320 0.77670 0.08360
N4 N 0.3253(4) 0.6830(3) -0.1068(2)
C91 C 0.2614(5) 0.6664(4) -0.0993(3)
H131 H 0.24300 0.68870 -0.08360
H132 H 0.23550 0.66470 -0.12380
C92 C 0.2598(6) 0.6217(4) -0.0795(4)
H133 H 0.27890 0.62440 -0.05310
H134 H 0.28360 0.60010 -0.09260
C93 C 0.1937(7) 0.6046(5) -0.0794(5)
H135 H 0.19360 0.57930 -0.06180
H136 H 0.16840 0.62820 -0.07000
C94 C 0.1660(11) 0.5905(8) -0.1178(7)
H137 H 0.19090 0.56720 -0.12730
H138 H 0.16420 0.61570 -0.13500
H139 H 0.12490 0.57930 -0.11610
C95 C 0.3564(5) 0.6494(3) -0.1308(3)
H140 H 0.39730 0.66070 -0.13430
H141 H 0.36200 0.62160 -0.11620
C96 C 0.3233(5) 0.6386(4) -0.1699(3)
H142 H 0.32640 0.66420 -0.18690
H143 H 0.27970 0.63370 -0.16750
C97 C 0.3495(6) 0.5974(4) -0.1880(3)
H144 H 0.39340 0.60180 -0.18970
H145 H 0.34500 0.57150 -0.17160
C98 C 0.3172(7) 0.5878(5) -0.2280(5)
H146 H 0.27310 0.58650 -0.22700
H147 H 0.33140 0.55960 -0.23710
H148 H 0.32650 0.61140 -0.24540
C99 C 0.3668(5) 0.6885(3) -0.0690(3)
H149 H 0.40780 0.69700 -0.07490
H150 H 0.37050 0.65940 -0.05630
C100 C 0.3460(7) 0.7225(4) -0.0404(3)
H151 H 0.34480 0.75230 -0.05180
H152 H 0.30440 0.71510 -0.03460
C101 C 0.3895(8) 0.7226(5) -0.0037(5)
H153 H 0.38410 0.69470 0.01000
H154 H 0.43180 0.72310 -0.01030
C102 C 0.3812(10) 0.7607(7) 0.0227(6)
H155 H 0.39930 0.78730 0.01310
H156 H 0.40120 0.75380 0.04800
H157 H 0.33770 0.76550 0.02400
C103 C 0.3154(5) 0.7275(3) -0.1275(3)
H158 H 0.29210 0.72200 -0.15240
H159 H 0.28980 0.74620 -0.11280
C104 C 0.3723(6) 0.7535(4) -0.1339(4)
H160 H 0.40170 0.73410 -0.14490
H161 H 0.39190 0.76510 -0.10950
C105 C 0.3533(8) 0.7931(4) -0.1619(5)
H162 H 0.34400 0.78140 -0.18790
H163 H 0.31590 0.80700 -0.15450
C106 C 0.4015(9) 0.8271(5) -0.1618(6)
H164 H 0.40730 0.84140 -0.13700
H165 H 0.38940 0.84910 -0.18140
H166 H 0.43950 0.81310 -0.16710
N5 N 0.6485(6) 0.6064(4) -0.3091(2)
C107 C 0.6601(8) 0.5597(6) -0.3167(4)
H167 H 0.69860 0.55730 -0.32830
H168 H 0.62700 0.54850 -0.33530
C108 C 0.6643(12) 0.5302(8) -0.2811(7)
H169 H 0.69620 0.54080 -0.26150
H170 H 0.62490 0.52880 -0.27040
C109 C 0.6808(13) 0.4865(9) -0.2968(8)
H171 H 0.64890 0.47710 -0.31690
H172 H 0.71970 0.48890 -0.30800
C110 C 0.6864(11) 0.4550(8) -0.2665(7)
H173 H 0.65310 0.45910 -0.25080
H174 H 0.72540 0.45910 -0.25100
H175 H 0.68440 0.42510 -0.27710
C111 C 0.5844(9) 0.6114(6) -0.2919(5)
H176 H 0.58810 0.59760 -0.26650
H177 H 0.57600 0.64310 -0.28860
C112 C 0.5294(8) 0.5903(8) -0.3166(6)
H178 H 0.53460 0.55790 -0.31620
H179 H 0.53020 0.60020 -0.34310
C113 C 0.4624(12) 0.6020(7) -0.3034(7)
H180 H 0.43370 0.57710 -0.30760
H181 H 0.46510 0.61150 -0.27660
C114 C 0.4472(15) 0.6372(11) -0.3287(9)
H182 H 0.48130 0.65790 -0.32760
H183 H 0.41120 0.65230 -0.32150
H184 H 0.43870 0.62560 -0.35450
C115 C 0.6456(9) 0.6313(8) -0.3475(4)
H185 H 0.61290 0.61830 -0.36540
H186 H 0.68450 0.62690 -0.35840
C116 C 0.6334(15) 0.6828(9) -0.3438(6)
H187 H 0.60030 0.68850 -0.32780
H188 H 0.67050 0.69840 -0.33290
C117 C 0.6151(13) 0.6968(10) -0.3845(9)
H189 H 0.65040 0.71220 -0.39330
H190 H 0.60880 0.66960 -0.39980
C118 C 0.5614(11) 0.7251(8) -0.3943(7)
H191 H 0.56090 0.73530 -0.42040
H192 H 0.56340 0.75050 -0.37720
H193 H 0.52440 0.70820 -0.39160
C119 C 0.6920(9) 0.6296(5) -0.2795(3)
H194 H 0.68600 0.61910 -0.25380
H195 H 0.68550 0.66190 -0.28060
C120 C 0.7626(14) 0.6167(11) -0.2901(9)
H196 H 0.77050 0.58460 -0.28940
H197 H 0.77160 0.62920 -0.31450
C121 C 0.7972(15) 0.6424(11) -0.2539(9)
H198 H 0.80120 0.67410 -0.25990
H199 H 0.77370 0.63970 -0.23190
C122 C 0.8530(15) 0.624(1) -0.2459(9)
H200 H 0.85130 0.60150 -0.22630
H201 H 0.88230 0.64680 -0.23670
H202 H 0.86560 0.61040 -0.26880
N6 N 0.6219(4) 0.6125(3) 0.1935(2)
C123 C 0.6711(6) 0.5843(5) 0.1785(3)
H203 H 0.65110 0.56140 0.16150
H204 H 0.69530 0.60310 0.16310
C124 C 0.7137(9) 0.5619(6) 0.2088(6)
H205 H 0.68970 0.54670 0.22680
H206 H 0.73930 0.58440 0.22310
C125 C 0.7546(10) 0.5283(7) 0.1912(6)
H207 H 0.72940 0.50370 0.17990
H208 H 0.77440 0.54270 0.17080
C126 C 0.8030(9) 0.5101(7) 0.2208(6)
H209 H 0.83110 0.53380 0.22980
H210 H 0.82560 0.48660 0.20960
H211 H 0.78370 0.49820 0.24210
C127 C 0.5769(6) 0.5847(5) 0.2134(3)
H212 H 0.60040 0.56900 0.23470
H213 H 0.54910 0.60520 0.22460
C128 C 0.5392(9) 0.5517(7) 0.1909(6)
H214 H 0.56660 0.53030 0.18050
H215 H 0.51620 0.56700 0.16930
C129 C 0.4914(7) 0.5246(5) 0.2133(5)
H216 H 0.47570 0.54270 0.23330
H217 H 0.45690 0.51320 0.19590
C130 C 0.5304(10) 0.4893(7) 0.2292(7)
H218 H 0.51390 0.47720 0.25150
H219 H 0.57130 0.50080 0.23660
H220 H 0.53230 0.46600 0.21030
C131 C 0.6461(7) 0.6470(5) 0.2240(4)
H221 H 0.66850 0.63140 0.24560
H222 H 0.61100 0.66210 0.23330
C132 C 0.6900(9) 0.6832(6) 0.2084(5)
H223 H 0.66750 0.69840 0.18640
H224 H 0.72510 0.66790 0.19920
C133 C 0.7162(10) 0.7212(7) 0.2401(6)
H225 H 0.75570 0.71220 0.25380
H226 H 0.72100 0.75020 0.22800
C134 C 0.6655(11) 0.7224(8) 0.2667(7)
H227 H 0.64080 0.74900 0.26150
H228 H 0.68390 0.72290 0.29310
H229 H 0.63980 0.69630 0.26240
C135 C 0.5916(7) 0.6382(5) 0.1569(4)
H230 H 0.62420 0.65550 0.14680
H231 H 0.57820 0.61570 0.13760
C136 C 0.5402(11) 0.6683(8) 0.1592(7)
H232 H 0.55650 0.69520 0.17230
H233 H 0.51290 0.65420 0.17600
C137 C 0.4975(13) 0.6842(10) 0.1207(8)
H234 H 0.48980 0.66100 0.10120
H235 H 0.45940 0.69920 0.12560
C138 C 0.5473(11) 0.7141(8) 0.1146(6)
H236 H 0.55010 0.73740 0.13380
H237 H 0.53960 0.72740 0.08940
H238 H 0.58560 0.69770 0.11650
Mo1B Mo -0.07166(2) 1.082801(18) -0.030506(15)
Mo2B Mo 0.01416(3) 1.070972(18) 0.060150(15)
Zn1B Zn -0.06743(3) 0.97123(2) 0.016801(19)
Zn2C Zn 0.56030(4) 0.63065(3) 0.36955(2)
O1B O -0.00928(18) 0.92884(13) -0.00228(11)
O42C O 0.0094(3) 0.83958(18) -0.17084(14)
Mo13B Mo 1.07750(2) 0.929976(17) -0.455727(14)
Mo14B Mo 0.99155(2) 0.915937(17) -0.546008(15)
Zn5B Zn 1.06556(3) 1.02582(2) -0.523362(19)
Zn7C Zn 1.28634(4) 1.36386(3) -0.04503(2)
O52B O 1.00384(19) 1.06952(13) -0.51047(11)
O92C O 0.7482(3) 1.1640(2) -0.59083(17)
#END
