
#######################################################################
#
#                 Cambridge Crystallographic Data Centre
#                                CCDC
#
#######################################################################
#
# If this CIF has been generated from an entry in the Cambridge
# Structural Database, then it will include bibliographic, chemical,
# crystal, experimental, refinement or atomic coordinate data resulting
# from the CCDC's data processing and validation procedures.
#
#######################################################################

data_CSD_CIF_VOYHEY
_audit_creation_date 2015-02-11
_audit_creation_method CSD-ConQuest-V1
_database_code_CSD VOYHEY
_database_code_depnum_ccdc_archive 'CCDC 990009'
_chemical_formula_sum 'C70 H138 Mo12 N7 O50 P1 Zn4'
_chemical_formula_moiety
;
(C22 H18 Mo12 N4 O44 P1 Zn4 3-)n,3n(C16 H36 N1 1+),6n(H2 O1)
;
_journal_coden_Cambridge 1147
_journal_volume 15
_journal_year 2015
_journal_page_first 449
_journal_name_full 'Cryst.Growth Des. '
loop_
_publ_author_name
"G.Rousseau"
"L.M.Rodriguez-Albelo"
"W.Salomon"
"P.Mialane"
"J.Marrot"
"Floriant Doungmene"
"I.-M.Mbomekalle"
"P.de Oliveira"
"A.Dolbecq"
_chemical_name_systematic
;
catena-(tris(Tetra-n-butylammonium) 
(\m~9~-phosphato)-dodecakis(\m~3~-oxo)-(\m~2~-isophthalato)-decakis(\m~2~-oxo)
-bis(\m~2~-hydroxo)-bis(benzimidazole)-dodecaoxo-dodeca-molybdenum-tetra-zinc 
hexahydrate)
;
_cell_volume  10903.164
_exptl_crystal_colour 'black'
_exptl_crystal_density_diffrn 2.023
_exptl_special_details
;
We have assigned hydrogen atoms to the hydroxo groups arbitrarily

;
_exptl_crystal_description 'parallelepiped'
_diffrn_ambient_temperature 293
#These two values have been output from a single CSD field.
_refine_ls_R_factor_gt 0.0572
_refine_ls_wR_factor_gt 0.0572
_symmetry_cell_setting monoclinic
_symmetry_space_group_name_H-M 'P 21/c'
_symmetry_Int_Tables_number 14
loop_
_symmetry_equiv_pos_site_id
_symmetry_equiv_pos_as_xyz
1 x,y,z
2 -x,1/2+y,1/2-z
3 -x,-y,-z
4 x,-1/2-y,-1/2+z
_cell_length_a 26.362(15)
_cell_length_b 15.478(10)
_cell_length_c 27.341(18)
_cell_angle_alpha 90
_cell_angle_beta 102.221(16)
_cell_angle_gamma 90
_cell_formula_units_Z 4
loop_
_atom_type_symbol
_atom_type_radius_bond
C 0.68
H 0.23
Mo 1.54
N 0.68
O 0.68
P 1.05
Zn 1.22
loop_
_atom_site_label
_atom_site_type_symbol
_atom_site_fract_x
_atom_site_fract_y
_atom_site_fract_z
Mo1 Mo 0.31895(2) 0.61842(4) 0.34947(2)
Mo2 Mo 0.24853(3) 0.60471(4) 0.53091(2)
Mo3 Mo 0.36112(2) 0.46193(4) 0.36311(2)
Mo4 Mo 0.16676(2) 0.29213(4) 0.33048(2)
Mo5 Mo 0.29028(2) 0.27099(4) 0.35373(2)
Mo6 Mo 0.25492(2) 0.71659(4) 0.43292(2)
Mo7 Mo 0.17893(2) 0.64110(4) 0.32369(2)
Mo8 Mo 0.11892(2) 0.50160(5) 0.31799(2)
Mo9 Mo 0.30634(3) 0.40327(5) 0.53910(2)
Mo10 Mo 0.35365(3) 0.34152(4) 0.47009(2)
Mo11 Mo 0.16639(3) 0.42657(5) 0.51297(2)
Mo12 Mo 0.11171(3) 0.38069(5) 0.42393(2)
Zn1 Zn 0.23749(3) 0.44784(5) 0.27953(3)
Zn2 Zn 0.35865(3) 0.57808(6) 0.48020(3)
Zn3 Zn 0.13689(3) 0.61431(6) 0.43794(3)
Zn4 Zn 0.22544(4) 0.24776(6) 0.45412(3)
P1 P 0.24014(7) 0.47317(12) 0.41298(6)
O1 O 0.29782(18) 0.6439(3) 0.48801(16)
O2 O 0.28953(19) 0.3067(3) 0.49124(17)
O3 O 0.20430(17) 0.6605(3) 0.47014(16)
O4 O 0.35514(19) 0.4564(3) 0.50182(16)
O5 O 0.12470(19) 0.4943(3) 0.45738(18)
O6 O 0.23126(17) 0.3336(3) 0.30862(15)
O7 O 0.18224(17) 0.5273(3) 0.29282(16)
O8 O 0.36120(17) 0.5617(3) 0.40886(17)
O9 O 0.30142(17) 0.5082(3) 0.31482(15)
O10 O 0.30694(18) 0.7100(3) 0.39892(17)
O11 O 0.13017(18) 0.6006(3) 0.36520(18)
O12 O 0.28681(17) 0.4176(3) 0.40483(16)
O13 O 0.24117(18) 0.4774(3) 0.47017(16)
O14 O 0.24528(16) 0.5665(3) 0.39144(15)
O15 O 0.20124(18) 0.7284(3) 0.37910(17)
O16 O 0.1710(2) 0.3268(3) 0.46914(18)
O17 O 0.1915(2) 0.5443(3) 0.54054(17)
O18 O 0.4017(2) 0.2859(4) 0.50652(19)
O19 O 0.22723(18) 0.2494(3) 0.38273(16)
O20 O 0.2951(2) 0.1781(3) 0.32189(18)
O21 O 0.2549(2) 0.6855(3) 0.57369(18)
O22 O 0.14317(18) 0.7047(3) 0.27982(18)
O23 O 0.36086(18) 0.6696(3) 0.32072(18)
O24 O 0.18801(17) 0.4331(3) 0.38593(16)
O25 O 0.06932(19) 0.5317(4) 0.2718(2)
O26 O 0.2343(2) 0.3756(3) 0.55541(17)
O27 O 0.25028(16) 0.6616(3) 0.30433(16)
O28 O 0.39170(18) 0.3937(3) 0.42334(18)
O29 O 0.41272(18) 0.4748(4) 0.33681(19)
O30 O 0.2621(2) 0.8174(3) 0.45836(18)
O31 O 0.33440(17) 0.3467(3) 0.33187(16)
O32 O 0.08302(18) 0.4444(4) 0.36359(18)
O33 O 0.1501(2) 0.2024(4) 0.29420(19)
O34 O 0.2971(2) 0.5259(3) 0.56145(16)
O35 O 0.1251(2) 0.3986(4) 0.5499(2)
O36 O 0.13130(17) 0.3800(3) 0.29356(17)
O37 O 0.12665(18) 0.2847(3) 0.37771(18)
O38 O 0.0582(2) 0.3419(4) 0.4416(2)
O39 O 0.3430(2) 0.3612(4) 0.59149(18)
O40 O 0.32983(19) 0.2518(3) 0.41598(17)
O41 O 0.2378(2) 0.4556(3) 0.20891(17)
O42 O 0.2453(2) 0.6014(3) 0.21264(18)
O43 O 0.2174(3) 0.3655(4) -0.01792(18)
O44 O 0.2263(3) 0.2969(4) 0.0557(2)
C1 C 0.2297(3) 0.4526(5) 0.1080(3)
H1 H 0.22860 0.40120 0.12540
C2 C 0.2357(3) 0.5306(5) 0.1338(3)
C3 C 0.2375(4) 0.6066(6) 0.1084(3)
H2 H 0.24080 0.65860 0.12580
C4 C 0.2344(6) 0.6070(6) 0.0564(3)
H3 H 0.23710 0.65840 0.03950
C5 C 0.2271(5) 0.5275(6) 0.0303(3)
H4 H 0.22330 0.52670 -0.00430
C6 C 0.2254(4) 0.4504(5) 0.0563(3)
C7 C 0.2401(3) 0.5316(5) 0.1896(3)
C8 C 0.2219(4) 0.3637(6) 0.0300(3)
N1 N 0.4243(2) 0.6295(4) 0.5190(2)
N2 N 0.5075(3) 0.6389(5) 0.5522(2)
H5 H 0.53890 0.62300 0.56440
C9 C 0.4373(4) 0.7167(7) 0.5264(4)
C10 C 0.4076(6) 0.7882(10) 0.5157(7)
H6 H 0.37240 0.78370 0.50170
C11 C 0.4312(7) 0.8692(11) 0.5261(9)
H7 H 0.41140 0.91940 0.52080
C12 C 0.4861(8) 0.8738(11) 0.5451(10)
H8 H 0.50200 0.92760 0.54950
C13 C 0.5161(6) 0.8006(9) 0.5569(7)
H9 H 0.55150 0.80310 0.57060
C14 C 0.4895(4) 0.7230(7) 0.5466(4)
C15 C 0.4675(3) 0.5870(6) 0.5352(3)
H10 H 0.47000 0.52710 0.53480
N3 N 0.0821(2) 0.6791(4) 0.4639(2)
N4 N 0.0186(3) 0.7038(6) 0.5030(3)
H11 H -0.00710 0.69390 0.51700
C16 C 0.0384(4) 0.7834(7) 0.4964(4)
C17 C 0.0254(6) 0.8681(10) 0.5082(7)
H12 H -0.00260 0.87930 0.52300
C18 C 0.0569(9) 0.9346(13) 0.4964(11)
H13 H 0.04940 0.99150 0.50300
C19 C 0.0965(8) 0.9185(11) 0.4763(10)
H14 H 0.11800 0.96470 0.47280
C20 C 0.1099(4) 0.8357(7) 0.4592(4)
H15 H 0.13590 0.82760 0.44140
C21 C 0.0796(3) 0.7673(6) 0.4721(3)
C22 C 0.0456(3) 0.6434(7) 0.4841(3)
H16 H 0.03960 0.58430 0.48510
N5 N 0.4119(3) 0.1354(6) 0.6563(3)
C23 C 0.3742(6) 0.1327(9) 0.6053(5)
H17 H 0.34230 0.10570 0.60990
H18 H 0.36590 0.19180 0.59490
C24 C 0.3913(7) 0.087(1) 0.5633(5)
H19 H 0.42180 0.11550 0.55640
H20 H 0.40080 0.02800 0.57320
C25 C 0.3501(7) 0.0864(10) 0.5175(6)
H21 H 0.32200 0.05060 0.52410
H22 H 0.33670 0.14480 0.51220
C26 C 0.3619(12) 0.0574(14) 0.4715(7)
H23 H 0.39870 0.06050 0.47380
H24 H 0.34450 0.09350 0.44460
H25 H 0.35050 -0.00120 0.46530
C27 C 0.4219(4) 0.0433(8) 0.6780(5)
H26 H 0.43580 0.00900 0.65420
H27 H 0.44860 0.04710 0.70830
C28 C 0.3765(6) -0.0053(10) 0.6902(7)
H28 H 0.34680 0.00170 0.66270
H29 H 0.36760 0.02060 0.71960
C29 C 0.3859(6) -0.1016(10) 0.6999(7)
H30 H 0.35700 -0.12550 0.71240
H31 H 0.38670 -0.13010 0.66850
C30 C 0.4342(8) -0.1206(15) 0.7358(9)
H32 H 0.46330 -0.10530 0.72150
H33 H 0.43570 -0.18110 0.74360
H34 H 0.43550 -0.08770 0.76580
C31 C 0.3880(4) 0.1919(8) 0.6898(4)
H35 H 0.35510 0.16640 0.69260
H36 H 0.38040 0.24750 0.67340
C32 C 0.4196(5) 0.2083(10) 0.7429(5)
H37 H 0.45610 0.21370 0.74220
H38 H 0.41570 0.15990 0.76430
C33 C 0.4006(7) 0.2919(13) 0.7640(6)
H39 H 0.40670 0.34140 0.74420
H40 H 0.36380 0.28820 0.76350
C34 C 0.4291(7) 0.3001(15) 0.8135(8)
H41 H 0.46100 0.32990 0.81350
H42 H 0.43660 0.24370 0.82780
H43 H 0.40920 0.33210 0.83290
C35 C 0.4628(4) 0.1716(8) 0.6497(4)
H44 H 0.47600 0.13450 0.62660
H45 H 0.48710 0.16840 0.68170
C36 C 0.4629(4) 0.2632(7) 0.6308(4)
H46 H 0.45960 0.30290 0.65740
H47 H 0.43330 0.27170 0.60340
C37 C 0.5125(5) 0.2823(10) 0.6132(5)
H48 H 0.54200 0.27660 0.64110
H49 H 0.51660 0.24080 0.58770
C38 C 0.5111(6) 0.3692(10) 0.5929(6)
H50 H 0.48500 0.37230 0.56250
H51 H 0.54430 0.38310 0.58590
H52 H 0.50300 0.40960 0.61670
N6 N 0.2725(3) 0.5615(6) 0.7174(3)
C39 C 0.3117(5) 0.5872(13) 0.6912(5)
H53 H 0.29540 0.57450 0.65670
H54 H 0.31080 0.64970 0.69360
C40 C 0.3617(6) 0.5717(15) 0.6922(6)
H55 H 0.36330 0.50940 0.68900
H56 H 0.37880 0.58410 0.72650
C41 C 0.3973(6) 0.6028(14) 0.6637(6)
H57 H 0.38230 0.59230 0.62860
H58 H 0.40010 0.66490 0.66810
C42 C 0.4467(8) 0.5687(19) 0.6741(10)
H59 H 0.45840 0.56260 0.70960
H60 H 0.46970 0.60670 0.66150
H61 H 0.44650 0.51320 0.65840
C43 C 0.2536(6) 0.4782(10) 0.7011(9)
H62 H 0.25440 0.48110 0.66590
H63 H 0.28330 0.44260 0.71570
C44 C 0.2144(7) 0.4218(11) 0.7002(8)
H64 H 0.18390 0.45730 0.68830
H65 H 0.21520 0.41270 0.73540
C45 C 0.1988(7) 0.3407(12) 0.6792(8)
H66 H 0.17130 0.31810 0.69410
H67 H 0.18500 0.34750 0.64360
C46 C 0.2398(7) 0.2818(11) 0.6865(5)
H68 H 0.25800 0.28700 0.65980
H69 H 0.22640 0.22420 0.68700
H70 H 0.26310 0.29370 0.71780
C47 C 0.2968(10) 0.5461(14) 0.7724(6)
H71 H 0.27110 0.51800 0.78760
H72 H 0.32540 0.50600 0.77420
C48 C 0.3147(7) 0.6162(12) 0.8003(7)
H73 H 0.28610 0.65550 0.80070
H74 H 0.33990 0.64610 0.78520
C49 C 0.3417(7) 0.5895(12) 0.8574(6)
H75 H 0.34110 0.63870 0.87920
H76 H 0.32190 0.54330 0.86840
C50 C 0.3984(8) 0.5595(14) 0.8618(7)
H77 H 0.40210 0.53410 0.83070
H78 H 0.40700 0.51740 0.88800
H79 H 0.42130 0.60820 0.86930
C51 C 0.2220(6) 0.6221(9) 0.7136(5)
H80 H 0.19800 0.59330 0.73060
H81 H 0.23270 0.67550 0.73140
C52 C 0.1962(9) 0.6420(14) 0.6658(6)
H82 H 0.17990 0.59020 0.64970
H83 H 0.22100 0.66220 0.64670
C53 C 0.1539(7) 0.7130(13) 0.6653(7)
H84 H 0.12960 0.69730 0.68600
H85 H 0.16900 0.76900 0.67550
C54 C 0.1292(8) 0.7105(14) 0.6108(7)
H86 H 0.14980 0.74360 0.59240
H87 H 0.09490 0.73470 0.60560
H88 H 0.12710 0.65180 0.59930
N7 N 0.0029(3) 0.2886(7) 0.2002(4)
C55 C 0.0488(5) 0.3361(10) 0.1887(5)
H89 H 0.08030 0.30500 0.20350
H90 H 0.05090 0.39280 0.20410
C56 C 0.0461(6) 0.3468(14) 0.1328(7)
H91 H 0.04200 0.29040 0.11700
H92 H 0.01590 0.38110 0.11840
C57 C 0.0941(7) 0.3900(14) 0.1216(8)
H93 H 0.09260 0.38880 0.08580
H94 H 0.12490 0.35880 0.13810
C58 C 0.0972(7) 0.4875(18) 0.1408(9)
H95 H 0.06470 0.51590 0.12810
H96 H 0.12440 0.51720 0.12910
H97 H 0.10450 0.48830 0.17670
C59 C -0.0040(6) 0.1982(12) 0.1753(6)
H98 H -0.01540 0.20660 0.13950
H99 H -0.03190 0.16890 0.18670
C60 C 0.0438(8) 0.1364(15) 0.1841(6)
H100 H 0.04800 0.10490 0.21540
H101 H 0.07570 0.16620 0.18240
C61 C 0.0227(6) 0.0746(12) 0.1351(7)
H102 H -0.01340 0.05880 0.13170
H103 H 0.02800 0.10070 0.10430
C62 C 0.0562(7) 0.0052(13) 0.1504(9)
H104 H 0.04970 -0.01830 0.18090
H105 H 0.09150 0.02480 0.15570
H106 H 0.05040 -0.03850 0.12490
C63 C 0.0172(5) 0.2792(13) 0.2586(6)
H107 H 0.04980 0.24830 0.26770
H108 H 0.02250 0.33640 0.27320
C64 C -0.0235(7) 0.2319(14) 0.2813(8)
H109 H -0.03010 0.17550 0.26590
H110 H -0.05570 0.26430 0.27410
C65 C -0.0055(6) 0.2208(14) 0.3389(6)
H111 H 0.01270 0.27220 0.35350
H112 H -0.03540 0.21200 0.35390
C66 C 0.0279(8) 0.1482(14) 0.3482(10)
H113 H 0.00750 0.09650 0.34720
H114 H 0.05030 0.15370 0.38060
H115 H 0.04840 0.14510 0.32310
C67 C -0.0494(7) 0.3341(15) 0.1811(7)
H116 H -0.05500 0.34190 0.14510
H117 H -0.07730 0.29860 0.18810
C68 C -0.0498(9) 0.418(2) 0.2053(12)
H118 H -0.02310 0.45340 0.19580
H119 H -0.03970 0.40900 0.24120
C69 C -0.0998(8) 0.4701(18) 0.1951(10)
H120 H -0.10910 0.47770 0.22740
H121 H -0.09050 0.52700 0.18490
C70 C -0.1433(7) 0.4486(13) 0.1634(8)
H122 H -0.16350 0.49960 0.15340
H123 H -0.16280 0.40930 0.17950
H124 H -0.13510 0.42140 0.13450
Zn4C Zn 0.22544(4) 0.25224(6) -0.04588(3)
O43C O 0.2174(3) 0.1345(4) 0.48208(18)
#END
