
#######################################################################
#
#                 Cambridge Crystallographic Data Centre
#                                CCDC
#
#######################################################################
#
# If this CIF has been generated from an entry in the Cambridge
# Structural Database, then it will include bibliographic, chemical,
# crystal, experimental, refinement or atomic coordinate data resulting
# from the CCDC's data processing and validation procedures.
#
#######################################################################

data_CSD_CIF_VOYYAJ
_audit_creation_date 1993-02-02
_audit_creation_method CSD-ConQuest-V1
_database_code_CSD VOYYAJ
_chemical_formula_sum 'C31 H59 Cr1 Na1 O33.5 S4'
_chemical_formula_moiety
;
(C28 H28 Na1 O20 S4 3-)n,n(C3 H6 O1),n(H12 Cr1 O6 3+),6.5n(H2 O1)
;
_journal_coden_Cambridge 9
_journal_volume 31
_journal_year 1992
_journal_page_first 603
_journal_name_full 'Inorg.Chem. '
loop_
_publ_author_name
"J.L.Atwood"
"G.W.Orr"
"N.C.Means"
"F.Hamada"
"Hongming Zhang"
"S.G.Bott"
"K.D.Robinson"
_chemical_name_systematic
;
catena-((\m~2~-25,26,27-Trihydroxycalix(4)arene-28-oxide-5,11,17,23-tetrasulfo
nate)-tetra-aqua-sodium hexa-aqua-chromium acetone clathrate hydrate)
;
_cell_volume   5084.821
_exptl_crystal_colour 'pale blue'
_exptl_crystal_density_diffrn 1.54
_diffrn_ambient_temperature ?
_diffrn_special_details
;
The study was carried out at room temperature,in the range 283-303K

;
_refine_special_details
;
The sodium ion is disordered over two positions. There are also several 
partially occupied water sites.
;
#These two values have been output from a single CSD field.
_refine_ls_R_factor_gt 0.069
_refine_ls_wR_factor_gt 0.069
_symmetry_cell_setting monoclinic
_symmetry_space_group_name_H-M 'P 21/n'
_symmetry_Int_Tables_number 14
loop_
_symmetry_equiv_pos_site_id
_symmetry_equiv_pos_as_xyz
1 x,y,z
2 1/2-x,1/2+y,1/2-z
3 -x,-y,-z
4 -1/2+x,-1/2-y,-1/2+z
_cell_length_a 12.206(6)
_cell_length_b 31.251(4)
_cell_length_c 13.420(6)
_cell_angle_alpha 90
_cell_angle_beta 96.63(3)
_cell_angle_gamma 90
_cell_formula_units_Z 4
loop_
_atom_type_symbol
_atom_type_radius_bond
C 0.68
H 0.23
Cr 1.35
Na 1.70
O 0.68
S 1.02
loop_
_atom_site_label
_atom_site_type_symbol
_atom_site_fract_x
_atom_site_fract_y
_atom_site_fract_z
Cr1 Cr 0.7182(2) 0.00178(7) 0.6502(1)
Na1 Na 0.694(2) 0.1189(9) 0.254(2)
Na2? Na 0.725(3) 0.136(1) 0.275(3)
S1 S 0.9397(3) 0.0851(1) 0.4151(2)
S2 S 1.5524(2) 0.12326(9) 0.4745(2)
S3 S 1.3280(3) 0.1118(1) 0.9769(2)
S4 S 0.7446(3) 0.1381(1) 0.8707(2)
O1 O 1.0498(6) 0.2654(2) 0.5008(6)
O2 O 1.0218(7) 0.0671(3) 0.3557(7)
O3 O 0.8275(7) 0.0833(3) 0.3631(7)
O4 O 0.9471(8) 0.0647(3) 0.5129(6)
O5 O 1.2585(6) 0.2583(2) 0.5916(5)
O6 O 1.6512(6) 0.1242(3) 0.5482(6)
O7 O 1.4971(7) 0.0822(2) 0.4778(6)
O8 O 1.5765(7) 0.1346(3) 0.3744(6)
O9 O 1.2303(6) 0.2787(2) 0.7882(5)
O10 O 1.3794(7) 0.1229(4) 1.0769(6)
O11 O 1.2238(8) 0.0903(3) 0.9826(8)
O12 O 1.403(1) 0.0881(4) 0.9218(8)
O13 O 1.0144(6) 0.2686(3) 0.7004(6)
O14 O 0.6339(7) 0.1414(3) 0.8167(6)
O15 O 0.7507(9) 0.1445(4) 0.9776(6)
O16 O 0.7948(7) 0.0974(3) 0.8470(6)
C1 C 1.0221(9) 0.2237(4) 0.4813(8)
C2 C 0.9250(9) 0.2055(3) 0.5102(8)
C3 C 0.902(1) 0.1642(4) 0.4882(8)
C4 C 0.972(1) 0.1389(4) 0.4361(8)
C5 C 1.0677(9) 0.1579(4) 0.4067(8)
C6 C 1.0920(9) 0.1994(4) 0.4291(8)
C7 C 1.1986(9) 0.2187(4) 0.3976(8)
C8 C 1.3212(9) 0.2253(3) 0.5638(8)
C9 C 1.3007(9) 0.2061(3) 0.4705(8)
C10 C 1.3713(9) 0.1749(4) 0.4443(8)
C11 C 1.4626(9) 0.1629(4) 0.5114(8)
C12 C 1.4797(9) 0.1811(4) 0.6054(8)
C13 C 1.4125(9) 0.2131(4) 0.6326(8)
C14 C 1.4301(9) 0.2340(4) 0.7367(8)
C15 C 1.2532(9) 0.2395(3) 0.8265(8)
C16 C 1.3491(9) 0.2166(4) 0.8065(8)
C17 C 1.3697(9) 0.1775(4) 0.8520(8)
C18 C 1.2992(9) 0.1604(4) 0.9154(8)
C19 C 1.204(1) 0.1833(4) 0.9330(8)
C20 C 1.1817(9) 0.2220(4) 0.8888(8)
C21 C 1.0775(9) 0.2458(4) 0.9090(8)
C22 C 0.9538(9) 0.2389(4) 0.7429(8)
C23 C 0.9764(9) 0.2275(4) 0.8442(8)
C24 C 0.9112(9) 0.1972(4) 0.8833(9)
C25 C 0.8233(9) 0.1781(4) 0.8228(8)
C26 C 0.8038(9) 0.1898(4) 0.7228(8)
C27 C 0.8649(9) 0.2200(4) 0.6815(8)
C28 C 0.84829 0.2307(4) 0.5712(8)
O17 O 0.5891(7) 0.0055(3) 0.7238(7)
O18 O 0.6965(6) -0.0595(3) 0.6317(6)
O19 O 0.8490(7) -0.0027(3) 0.5768(6)
O20 O 0.7424(7) 0.0635(3) 0.6669(6)
O21 O 0.8121(7) -0.0091(3) 0.7771(6)
O22 O 0.6252(6) 0.0119(3) 0.5223(6)
O23 O 0.6014(7) 0.1516(3) 0.1200(7)
O24 O 1.2457(8) 0.1169(3) 1.2330(6)
O25 O 0.4914(8) 0.0767(3) 0.7451(7)
O26 O 0.8547(9) 0.1587(3) 0.1824(7)
O27 O 0.7003(9) 0.0073(4) 0.3486(7)
O28 O 1.242(1) 0.0058(4) 1.0430(7)
O29 O 1.0265(9) 0.1045(5) 0.1614(8)
O30 O 1.0279(9) 0.0024(4) 0.8263(8)
O31 O 0.522(1) 0.0609(5) 0.220(1)
O32 O 1.024(1) -0.0632(5) 0.0192(9)
O33 O 1.570(2) 0.0333(7) 1.010(1)
O34 O 0.752(2) 0.0613(8) 0.138(2)
O35 O 1.1530(9) 0.0533(4) 0.7103(8)
C29 C 1.147(1) 0.0916(6) 0.687(1)
C30 C 1.058(2) 0.1179(6) 0.726(1)
C31 C 1.228(2) 0.1100(7) 0.624(1)
H1 H 1.0160(6) 0.2800(2) 0.5547(6)
H2 H 1.1945(6) 0.2644(3) 0.5499(5)
H3 H 1.2573(6) 0.2983(2) 0.7415(6)
H4 H 1.0334(6) 0.2988(3) 0.7170(6)
H5 H 0.835(1) 0.1510(4) 0.5102(8)
H6 H 1.1191(9) 0.1403(4) 0.3706(8)
H7 H 1.2089(9) 0.2082(4) 0.3289(8)
H8 H 1.1921(9) 0.2506(4) 0.3965(8)
H9 H 1.3577(9) 0.1607(4) 0.3773(8)
H10 H 1.5419(9) 0.1706(4) 0.6543(8)
H11 H 1.4186(9) 0.2655(4) 0.7284(8)
H12 H 1.5072(9) 0.2283(4) 0.7676(8)
H13 H 1.4369(9) 0.1612(4) 0.8388(8)
H14 H 1.152(1) 0.1708(4) 0.9781(8)
H15 H 1.0674(9) 0.2421(4) 0.9813(8)
H16 H 1.0843(9) 0.2769(4) 0.8936(8)
H17 H 0.9265(9) 0.1888(4) 0.9556(9)
H18 H 0.7429(9) 0.1753(4) 0.6791(8)
H19 H 0.7704(9) 0.2236(4) 0.5448(8)
H20 H 0.8615(9) 0.2620(4) 0.5622(8)
H21 H 0.5231(7) -0.0215(3) 0.7424(7)
H22 H 0.7002(6) -0.0817(3) 0.6725(6)
H23 H 0.6252(6) -0.0678(3) 0.5913(6)
H24 H 0.8968(7) -0.0316(3) 0.5851(6)
H25 H 0.8967(7) 0.0237(3) 0.5566(6)
H26 H 0.7235(7) 0.0826(3) 0.6276(6)
H27 H 0.7614(7) 0.0755(3) 0.7308(6)
H28 H 0.7842(7) -0.0006(3) 0.8459(6)
H29 H 0.8888(7) -0.0047(3) 0.7949(6)
H30 H 0.6500(6) 0.0066(3) 0.4661(6)
H31 H 0.5196(7) 0.1409(3) 0.1044(7)
H32 H 0.6570(7) 0.1491(3) 0.0675(7)
H33 H 1.2359(8) 0.1471(3) 1.2649(6)
H34 H 1.2932(8) 0.1228(3) 1.1904(6)
H35 H 0.5118(8) 0.0425(3) 0.7227(7)
H36 H 0.4498(8) 0.0736(3) 0.7943(7)
H37 H 0.8182(9) 0.1532(3) 0.1095(7)
H38 H 0.7714(9) -0.0184(4) 0.3569(7)
H39 H 0.7460(9) 0.0349(4) 0.3538(7)
H40 H 1.228(1) 0.0384(4) 1.0072(8)
H41 H 1.181(1) -0.0123(4) 1.0099(8)
H42 H 1.1070(9) 0.1095(5) 0.1894(8)
H43 H 1.0171(9) 0.0914(5) 0.2303(8)
H44 H 1.0744(9) 0.0201(4) 0.7837(8)
H45 H 1.0095(9) 0.0238(4) 0.8818(8)
H46 H 0.561(1) 0.0609(5) 0.145(1)
H47 H 1.085(1) -0.0658(5) 0.0558(9)
H48 H 1.005(1) -0.0777(5) -0.0458(9)
H49 H 1.638(2) 0.0194(7) 0.992(1)
H50 H 1.510(2) 0.0527(7) 0.979(1)
O8* O 0.5765(7) 0.1346(3) 0.3744(6)
Na1* Na 1.694(2) 0.1189(9) 0.254(2)
#END
