
#######################################################################
#
#                 Cambridge Crystallographic Data Centre
#                                CCDC
#
#######################################################################
#
# If this CIF has been generated from an entry in the Cambridge
# Structural Database, then it will include bibliographic, chemical,
# crystal, experimental, refinement or atomic coordinate data resulting
# from the CCDC's data processing and validation procedures.
#
#######################################################################

data_CSD_CIF_VUBGAD
_audit_creation_date 2019-11-28
_audit_creation_method CSD-ConQuest-V1
_database_code_CSD VUBGAD
_database_code_depnum_ccdc_archive 'CCDC 1859127'
_chemical_formula_sum 'C11 H13 Li2 N1 O7'
_chemical_formula_moiety
;
(C9 H5 Li2 O7 1-)n,C2 H8 N1 1+
;
_journal_coden_Cambridge 910
_journal_volume 29
_journal_year 2019
_journal_page_first 1447
_journal_name_full 'J.Inorg.Organomet.Polym.Mater. '
loop_
_publ_author_name
"Zhi-Qiang Jiang"
"Yu Du"
"Xue-Jun Zhu"
"Jin Lu"
"Zai-Chun Huang"
"Yu-Feng Li"
"Yao Kang"
_chemical_name_systematic
;
catena-[dimethylammonium (\m-benzene-1,3,5-tricarboxylato)-aqua-di-lithium]
;
_cell_volume   1342.440
_exptl_crystal_density_diffrn 1.402
_exptl_crystal_description 'block'
_diffrn_ambient_temperature 293
#These two values have been output from a single CSD field.
_refine_ls_R_factor_gt 0.1148
_refine_ls_wR_factor_gt 0.1148
_symmetry_cell_setting orthorhombic
_symmetry_space_group_name_H-M 'P n a 21'
_symmetry_Int_Tables_number 33
loop_
_symmetry_equiv_pos_site_id
_symmetry_equiv_pos_as_xyz
1 x,y,z
2 -x,-y,1/2+z
3 1/2+x,1/2-y,z
4 1/2-x,1/2+y,1/2+z
_cell_length_a 11.30(3)
_cell_length_b 14.40(4)
_cell_length_c 8.25(2)
_cell_angle_alpha 90
_cell_angle_beta 90
_cell_angle_gamma 90
_cell_formula_units_Z 4
loop_
_atom_type_symbol
_atom_type_radius_bond
C 0.68
H 0.23
Li 1.28
N 0.68
O 0.68
loop_
_atom_site_label
_atom_site_type_symbol
_atom_site_fract_x
_atom_site_fract_y
_atom_site_fract_z
O1 O 1.0477(5) 0.7818(3) 0.4885(8)
O2 O 0.8502(4) 0.7676(3) 0.4521(8)
O3 O 1.3275(5) 0.5192(4) 0.3059(8)
O4 O 0.6886(5) 0.4513(4) 0.2180(8)
O5 O 1.2488(5) 0.3841(4) 0.2148(8)
O6 O 0.8093(5) 0.3241(3) 0.2525(7)
C1 C 0.8759(7) 0.5742(5) 0.3489(10)
H1 H 0.79960 0.59760 0.36030
C2 C 1.0110(7) 0.4458(5) 0.2782(10)
H2 H 1.02260 0.38430 0.24780
C3 C 1.2388(6) 0.4659(5) 0.2716(9)
C4 C 1.1107(6) 0.5040(5) 0.3037(10)
C5 C 0.7884(7) 0.4149(5) 0.2524(9)
C6 C 1.0929(6) 0.5976(5) 0.3588(9)
H3 H 1.15770 0.63560 0.37940
C7 C 0.9569(7) 0.7327(4) 0.4476(10)
C8 C 0.9759(7) 0.6323(5) 0.3821(9)
C9 C 0.8935(6) 0.4799(5) 0.2982(10)
Li1 Li 1.2133(13) 0.7726(8) 0.5823(18)
O7 O 1.0408(4) 1.0000(4) 0.5069(9)
H4 H 1.07060 0.99940 0.59760
Li2 Li 0.8985(11) 0.9114(9) 0.5018(17)
C10 C 0.6494(8) 0.6859(7) 1.0912(12)
H5 H 0.72180 0.65700 1.05690
H6 H 0.61570 0.65110 1.17910
H7 H 0.66540 0.74820 1.12650
N1 N 0.5631(6) 0.6882(5) 0.9509(11)
H8 H 0.58030 0.66760 0.85590
C11 C 0.4444(8) 0.7296(6) 0.9921(15)
H9 H 0.39460 0.72850 0.89790
H10 H 0.45480 0.79260 1.02750
H11 H 0.40820 0.69400 1.07720
O2B O 1.3502(4) 0.7324(3) 0.4521(8)
O3B O 0.8275(5) 0.9808(4) 0.3059(8)
O4C O 0.8114(5) 0.9513(4) 0.7180(8)
O5C O 1.2512(5) 0.8841(4) 0.7148(8)
O6A O 1.1907(5) 0.6759(3) 0.7525(7)
Li1A Li 0.7867(13) 0.2274(8) 0.0823(18)
Li1B Li 0.7133(13) 0.7274(8) 0.5823(18)
Li1C Li 1.2867(13) 0.2726(8) 0.0823(18)
Li2B Li 1.3985(11) 0.5886(9) 0.5018(17)
Li2C Li 0.6015(11) 0.4114(9) 0.0018(17)
#END
