
#######################################################################
#
#                 Cambridge Crystallographic Data Centre
#                                CCDC
#
#######################################################################
#
# If this CIF has been generated from an entry in the Cambridge
# Structural Database, then it will include bibliographic, chemical,
# crystal, experimental, refinement or atomic coordinate data resulting
# from the CCDC's data processing and validation procedures.
#
#######################################################################

data_CSD_CIF_VUBGIL
_audit_creation_date 2019-11-28
_audit_creation_method CSD-ConQuest-V1
_database_code_CSD VUBGIL
_database_code_depnum_ccdc_archive 'CCDC 1859129'
_chemical_formula_sum 'C11 H11 Li2 N1 O6'
_chemical_formula_moiety
;
(C9 H3 Li2 O6 1-)n,C2 H8 N1 1+
;
_journal_coden_Cambridge 910
_journal_volume 29
_journal_year 2019
_journal_page_first 1447
_journal_name_full 'J.Inorg.Organomet.Polym.Mater. '
loop_
_publ_author_name
"Zhi-Qiang Jiang"
"Yu Du"
"Xue-Jun Zhu"
"Jin Lu"
"Zai-Chun Huang"
"Yu-Feng Li"
"Yao Kang"
_chemical_name_systematic
;
catena-[dimethylammonium (\m-benzene-1,3,5-tricarboxylato)-di-lithium]
;
_cell_volume   1177.921
_exptl_crystal_density_diffrn 1.5
_exptl_crystal_description 'block'
_diffrn_ambient_temperature 293
#These two values have been output from a single CSD field.
_refine_ls_R_factor_gt 0.0505
_refine_ls_wR_factor_gt 0.0505
_symmetry_cell_setting orthorhombic
_symmetry_space_group_name_H-M 'P n a 21'
_symmetry_Int_Tables_number 33
loop_
_symmetry_equiv_pos_site_id
_symmetry_equiv_pos_as_xyz
1 x,y,z
2 -x,-y,1/2+z
3 1/2+x,1/2-y,z
4 1/2-x,1/2+y,1/2+z
_cell_length_a 10.2811(6)
_cell_length_b 14.1244(7)
_cell_length_c 8.1116(6)
_cell_angle_alpha 90
_cell_angle_beta 90
_cell_angle_gamma 90
_cell_formula_units_Z 4
loop_
_atom_type_symbol
_atom_type_radius_bond
C 0.68
H 0.23
Li 1.28
N 0.68
O 0.68
loop_
_atom_site_label
_atom_site_type_symbol
_atom_site_fract_x
_atom_site_fract_y
_atom_site_fract_z
O1 O 0.6754(3) 0.23480(19) 0.0586(5)
O2 O 0.4724(3) 0.2819(2) 0.0518(4)
O3 O 0.1778(3) -0.0853(2) -0.2064(5)
C1 C 0.6122(4) 0.0536(3) -0.0587(6)
H1 H 0.69940 0.06810 -0.04210
C2 C 0.5567(4) 0.2190(3) 0.0320(6)
C3 C 0.3877(4) 0.1005(3) -0.0548(6)
H2 H 0.32480 0.14670 -0.03740
O4 O 0.1249(3) 0.0409(2) -0.0624(5)
O5 O 0.6476(3) -0.1950(2) -0.1517(4)
C4 C 0.3502(4) 0.0096(3) -0.1051(6)
C5 C 0.4457(4) -0.0581(3) -0.1302(6)
H3 H 0.42170 -0.11920 -0.16010
C6 C 0.2077(4) -0.0138(3) -0.1271(7)
O6 O 0.7902(3) -0.0782(2) -0.1936(5)
C7 C 0.5176(4) 0.1219(3) -0.0307(5)
C8 C 0.6797(4) -0.1090(3) -0.1545(5)
C9 C 0.5766(4) -0.0365(3) -0.1114(6)
Li1 Li 0.8212(7) 0.2055(5) 0.1906(11)
Li2 Li 0.8849(9) -0.1278(5) -0.3785(12)
C10 C 0.8597(7) 0.1542(5) 0.6866(9)
H4 H 0.80290 0.10130 0.70510
H5 H 0.82520 0.19300 0.59980
H6 H 0.86660 0.19090 0.78580
C11 C 1.0815(7) 0.1957(6) 0.6142(11)
H7 H 1.16330 0.16700 0.58700
H8 H 1.09080 0.23280 0.71270
H9 H 1.05420 0.23590 0.52520
N1 N 0.9830(6) 0.1212(6) 0.6414(12)
H10 H 1.00020 0.06190 0.63030
O1C O 0.8246(3) -0.26520(19) -0.4414(5)
O2B O 0.9724(3) 0.2181(2) 0.0518(4)
O2C O 1.0276(3) -0.2181(2) -0.4482(4)
O3A O 0.8222(3) 0.0853(2) 0.2936(5)
O4A O 0.8751(3) -0.0409(2) -0.5624(5)
O5C O 0.8524(3) 0.3050(2) 0.3483(4)
Li1A Li 0.1788(7) -0.2055(5) -0.3094(11)
Li1B Li 0.3212(7) 0.2945(5) 0.1906(11)
Li1C Li 0.6788(7) -0.2945(5) -0.3094(11)
Li2A Li 0.1151(9) 0.1278(5) 0.1215(12)
Li2C Li 0.6151(9) 0.3722(5) 0.1215(12)
#END
