
#######################################################################
#
#                 Cambridge Crystallographic Data Centre
#                                CCDC
#
#######################################################################
#
# If this CIF has been generated from an entry in the Cambridge
# Structural Database, then it will include bibliographic, chemical,
# crystal, experimental, refinement or atomic coordinate data resulting
# from the CCDC's data processing and validation procedures.
#
#######################################################################

data_CSD_CIF_VUBGEH
_audit_creation_date 2019-11-28
_audit_creation_method CSD-ConQuest-V1
_database_code_CSD VUBGEH
_database_code_depnum_ccdc_archive 'CCDC 1859128'
_chemical_formula_sum 'C20 H17 Li2 N1 O12'
_chemical_formula_moiety
;
(C18 H9 Li2 O12 1-)n,C2 H8 N1 1+
;
_journal_coden_Cambridge 910
_journal_volume 29
_journal_year 2019
_journal_page_first 1447
_journal_name_full 'J.Inorg.Organomet.Polym.Mater. '
loop_
_publ_author_name
"Zhi-Qiang Jiang"
"Yu Du"
"Xue-Jun Zhu"
"Jin Lu"
"Zai-Chun Huang"
"Yu-Feng Li"
"Yao Kang"
_chemical_name_systematic
;
catena-[dimethylammonium 
(\m-5-carboxybenzene-1,3-dicarboxylato)-(\m-3,5-dicarboxybenzoato)-di-lithium]

;
_cell_volume   4198.958
_exptl_crystal_density_diffrn 1.503
_exptl_crystal_description 'block'
_diffrn_ambient_temperature 293
#These two values have been output from a single CSD field.
_refine_ls_R_factor_gt 0.0392
_refine_ls_wR_factor_gt 0.0392
_symmetry_cell_setting monoclinic
_symmetry_space_group_name_H-M 'C 2/c'
_symmetry_Int_Tables_number 15
loop_
_symmetry_equiv_pos_site_id
_symmetry_equiv_pos_as_xyz
1 x,y,z
2 -x,y,1/2-z
3 1/2+x,1/2+y,z
4 1/2-x,1/2+y,1/2-z
5 -x,-y,-z
6 x,-y,-1/2+z
7 -1/2-x,-1/2-y,-z
8 -1/2+x,-1/2-y,-1/2+z
_cell_length_a 13.4394(5)
_cell_length_b 9.0445(3)
_cell_length_c 34.8718(13)
_cell_angle_alpha 90
_cell_angle_beta 97.858(4)
_cell_angle_gamma 90
_cell_formula_units_Z 8
loop_
_atom_type_symbol
_atom_type_radius_bond
C 0.68
H 0.23
Li 1.28
N 0.68
O 0.68
loop_
_atom_site_label
_atom_site_type_symbol
_atom_site_fract_x
_atom_site_fract_y
_atom_site_fract_z
Li1 Li 0.4401(3) -0.1500(3) 0.08333(9)
Li2 Li 0.3465(3) 0.1556(4) 0.12730(9)
O1 O 0.42861(10) 0.16553(13) 0.08626(4)
O2 O 0.41566(11) -0.00526(13) 0.04054(4)
O3 O 0.29776(10) 0.35608(14) -0.11160(4)
O4 O 0.41786(11) 0.19031(15) -0.09659(4)
O5 O 0.36466(11) 0.76222(14) -0.00582(4)
O6 O 0.37630(12) 0.68313(13) 0.05518(4)
O7 O 0.39346(11) 0.03787(14) 0.17460(4)
O8 O 0.38756(12) -0.13170(14) 0.12985(4)
O9 O 0.37284(11) -0.65432(14) 0.15697(4)
O10 O 0.38498(11) -0.73358(14) 0.21825(4)
O11 O 0.34636(12) -0.37887(15) 0.31982(4)
O12 O 0.35110(11) -0.13520(14) 0.30935(4)
C1 C 0.39027(13) 0.24559(18) 0.02135(5)
C2 C 0.38258(14) 0.2133(2) -0.01783(5)
C3 C 0.36294(13) 0.32422(19) -0.04544(5)
C4 C 0.35271(14) 0.4696(2) -0.03349(6)
C5 C 0.36466(13) 0.50342(19) 0.00572(5)
C6 C 0.38201(14) 0.39099(19) 0.03300(5)
C7 C 0.41242(13) 0.12643(19) 0.05143(5)
C8 C 0.35991(14) 0.2865(2) -0.08753(5)
C9 C 0.36820(14) 0.65736(19) 0.02070(5)
C10 C 0.38693(13) -0.21491(18) 0.19346(5)
C11 C 0.39100(13) -0.36123(19) 0.18150(5)
C12 C 0.38059(13) -0.47599(19) 0.20701(5)
C13 C 0.36851(14) -0.4452(2) 0.24512(5)
C14 C 0.36643(13) -0.29960(19) 0.25738(5)
C15 C 0.37523(13) -0.1848(2) 0.23152(5)
C16 C 0.39055(13) -0.09495(19) 0.16396(5)
C17 C 0.37923(14) -0.62896(19) 0.19157(5)
C18 C 0.35407(14) -0.2623(2) 0.29826(5)
H1 H 0.3913(13) 0.114(2) -0.0268(5)
H2 H 0.3408(14) 0.542(2) -0.0515(6)
H3 H 0.3746(17) 0.843(3) 0.0072(7)
H4 H 0.3913(13) 0.4140(18) 0.0598(6)
H5 H 0.389(2) -0.832(3) 0.2059(8)
H6 H 0.3383(19) -0.352(3) 0.3452(8)
H7 H 0.4032(13) -0.3851(19) 0.1546(5)
H8 H 0.3582(14) -0.525(2) 0.2616(6)
H9 H 0.3729(13) -0.082(2) 0.2405(5)
N1 N 0.38928(13) 0.09798(19) 0.36559(5)
H10 H 0.43020 0.02440 0.36810
C19 C 0.38318(19) 0.1993(3) 0.33282(8)
H11 H 0.43080 0.17020 0.31610
H12 H 0.39810 0.29790 0.34210
H13 H 0.31660 0.19650 0.31870
C20 C 0.3208(2) 0.1299(3) 0.39404(8)
H14 H 0.33040 0.05780 0.41440
H15 H 0.25260 0.12580 0.38160
H16 H 0.33470 0.22670 0.40470
Li1* Li 0.4401(3) 0.8500(3) 0.08333(9)
Li1D Li 0.5599(3) 0.1500(3) -0.08333(9)
Li2* Li 0.3465(3) -0.8444(4) 0.12730(9)
Li2F Li 0.1535(3) 0.3444(4) -0.12730(9)
O3F O 0.20224(10) 0.14392(14) 0.11160(4)
O4D O 0.58214(11) -0.19031(15) 0.09659(4)
O6* O 0.37630(12) -0.31687(13) 0.05518(4)
O9* O 0.37284(11) 0.34568(14) 0.15697(4)
#END
