
#######################################################################
#
#                 Cambridge Crystallographic Data Centre
#                                CCDC
#
#######################################################################
#
# If this CIF has been generated from an entry in the Cambridge
# Structural Database, then it will include bibliographic, chemical,
# crystal, experimental, refinement or atomic coordinate data resulting
# from the CCDC's data processing and validation procedures.
#
#######################################################################

data_CSD_CIF_VUBNUE
_audit_creation_date 2019-11-28
_audit_creation_method CSD-ConQuest-V1
_database_code_CSD VUBNUE
_database_code_depnum_ccdc_archive 'CCDC 1961426'
_chemical_formula_sum 'C50 H46 In3 N9 O24'
_chemical_formula_moiety
;
(C14 H6 In1 N2 O8 1-)3n,n(C4 H12 N1 1+),2n(C2 H8 N1 1+)
;
_journal_coden_Cambridge 222
_journal_volume 48
_journal_year 2019
_journal_page_first 17858
_journal_name_full 'Dalton Trans. '
loop_
_publ_author_name
"Guodong Li"
"Guoxun Ji"
"Wei Liu"
"Jiarong Zhang"
"Liping Song"
"Liwei Cheng"
"Xia Wang"
"Yanlong Wang"
"Jianjun Liu"
"Xudan Chen"
"Xinli Sun"
"Juan Diwu"
_chemical_name_systematic
;
catena-(bis(dimethylammonium) tetramethylammonium 
bis(\m-pyridine-2,5-dicarboxylato)-indium unknown solvate)
;
_chemical_name_common
;
SZ-6
;
_cell_volume  11167.176
_exptl_crystal_colour 'colorless'
_exptl_crystal_description 'bulk'
_diffrn_ambient_temperature 296
_refine_special_details
;
The SQUEEZE/PLATON program has been used to model some disorder.

;
#These two values have been output from a single CSD field.
_refine_ls_R_factor_gt 0.0516
_refine_ls_wR_factor_gt 0.0516
_symmetry_cell_setting rhombohedral
_symmetry_space_group_name_H-M 'R -3 c'
_symmetry_Int_Tables_number 167
loop_
_symmetry_equiv_pos_site_id
_symmetry_equiv_pos_as_xyz
1 x,y,z
2 -y,x-y,z
3 -x+y,-x,z
4 y,x,1/2-z
5 x-y,-y,1/2-z
6 -x,-x+y,1/2-z
7 2/3+x,1/3+y,1/3+z
8 2/3-y,1/3+x-y,1/3+z
9 2/3-x+y,1/3-x,1/3+z
10 2/3+y,1/3+x,5/6-z
11 2/3+x-y,1/3-y,5/6-z
12 2/3-x,1/3-x+y,5/6-z
13 1/3+x,2/3+y,2/3+z
14 1/3-y,2/3+x-y,2/3+z
15 1/3-x+y,2/3-x,2/3+z
16 1/3+y,2/3+x,1/6-z
17 1/3+x-y,2/3-y,1/6-z
18 1/3-x,2/3-x+y,1/6-z
19 -x,-y,-z
20 y,-x+y,-z
21 x-y,x,-z
22 -y,-x,-1/2+z
23 -x+y,y,-1/2+z
24 x,x-y,-1/2+z
25 -2/3-x,-1/3-y,-1/3-z
26 -2/3+y,-1/3-x+y,-1/3-z
27 -2/3+x-y,-1/3+x,-1/3-z
28 -2/3-y,-1/3-x,-5/6+z
29 -2/3-x+y,-1/3+y,-5/6+z
30 -2/3+x,-1/3+x-y,-5/6+z
31 -1/3-x,-2/3-y,-2/3-z
32 -1/3+y,-2/3-x+y,-2/3-z
33 -1/3+x-y,-2/3+x,-2/3-z
34 -1/3-y,-2/3-x,-1/6+z
35 -1/3-x+y,-2/3+y,-1/6+z
36 -1/3+x,-2/3+x-y,-1/6+z
_cell_length_a 15.7163(18)
_cell_length_b 15.7163(18)
_cell_length_c 52.205(10)
_cell_angle_alpha 90
_cell_angle_beta 90
_cell_angle_gamma 120
_cell_formula_units_Z 6
loop_
_atom_type_symbol
_atom_type_radius_bond
C 0.68
H 0.23
In 1.42
N 0.68
O 0.68
loop_
_atom_site_label
_atom_site_type_symbol
_atom_site_fract_x
_atom_site_fract_y
_atom_site_fract_z
In1 In 0.19993(3) 0.86659(3) 0.08333
N1 N 0.3389(3) 0.9061(3) 0.10573(8)
C1 C 0.3478(4) 0.9508(4) 0.1281(1)
C2 C 0.4061(3) 0.8806(4) 0.09955(10)
H1 H 0.40072 0.85053 0.08383
C3 C 0.4213(5) 0.9698(5) 0.14526(12)
H2 H 0.42546 1.00036 0.16084
C4 C 0.4902(5) 0.9414(5) 0.13843(13)
H3 H 0.54095 0.95280 0.14959
C5 C 0.4823(4) 0.8971(4) 0.11545(10)
C6 C 0.2689(4) 0.9776(4) 0.13341(11)
O1 O 0.2064(3) 0.9584(3) 0.11608(7)
O2 O 0.2717(4) 1.0159(4) 0.15419(8)
C7 C 0.5547(4) 0.8663(4) 0.10804(12)
O3 O 0.5482(3) 0.8332(3) 0.08567(8)
O4 O 0.6179(3) 0.8740(4) 0.1228(1)
C8 C 0.33333 0.66667 0.0460(5)
H4 H 0.28005 0.60557 0.05211
N2 N 0.33333 0.66667 0.0177(7)
C9 C 0.429(3) 0.776(3) 0.0083(7)
H5 H 0.43171 0.77946 -0.01002
H6 H 0.42017 0.82847 0.01489
H7 H 0.48907 0.78299 0.01489
N1A N 0.0939(3) 0.4328(3) 0.10573(8)
C1A C 0.0492(4) 0.3970(4) 0.1281(1)
C2A C 0.1194(3) 0.5255(4) 0.09955(10)
H1A H 0.14947 0.55019 0.08383
C3A C 0.0302(5) 0.4515(5) 0.14526(12)
H2A H -0.00036 0.42510 0.16084
C4A C 0.0586(5) 0.5488(5) 0.13843(13)
H3A H 0.04720 0.58815 0.14959
C5A C 0.1029(4) 0.5852(4) 0.11545(10)
C6A C 0.0224(4) 0.2913(4) 0.13341(11)
O1A O 0.0416(3) 0.2480(3) 0.11608(7)
O2A O -0.0159(4) 0.2558(4) 0.15419(8)
C7A C 0.1337(4) 0.6884(4) 0.10804(12)
O3A O 0.1668(3) 0.7150(3) 0.08567(8)
O4A O 0.1260(3) 0.7439(4) 0.1228(1)
In1A In 0.13341(3) 0.33334(3) 0.08333
In1B In 0.66666(3) 0.80007(3) 0.08333
N1O N 0.239433(300) 1.005567(300) 0.060937(80)
O1O O 0.291733(300) 0.873067(300) 0.050587(70)
O3P O 0.048333(300) 0.833467(300) 0.080997(80)
O4P O 0.077233(300) 0.792667(400) 0.043867(100)
H4A H 0.39443 0.67448 0.05211
C9A C 0.224(3) 0.653(3) 0.0083(7)
H5A H 0.22054 0.65225 -0.01002
H6A H 0.17153 0.59170 0.01489
H7A H 0.21701 0.70608 0.01489
H4B H 0.32552 0.71995 0.05211
C9B C 0.347(3) 0.571(3) 0.0083(7)
H5B H 0.34775 0.56829 -0.01002
H6B H 0.40830 0.57983 0.01489
H7B H 0.29392 0.51093 0.01489
#END
