
#######################################################################
#
#                 Cambridge Crystallographic Data Centre
#                                CCDC
#
#######################################################################
#
# If this CIF has been generated from an entry in the Cambridge
# Structural Database, then it will include bibliographic, chemical,
# crystal, experimental, refinement or atomic coordinate data resulting
# from the CCDC's data processing and validation procedures.
#
#######################################################################

data_CSD_CIF_VUCCUT
_audit_creation_date 2015-02-13
_audit_creation_method CSD-ConQuest-V1
_database_code_CSD VUCCUT
_database_code_depnum_ccdc_archive 'CCDC 964899'
_chemical_formula_sum 'C18 H42 Ce3 Co1 N6 O30'
_chemical_formula_moiety
;
(C18 H12 Ce3 O24 2-)n,H18 Co1 N6 2+,6(H2 O1)
;
_journal_coden_Cambridge 513
_journal_volume 56
_journal_year 2014
_journal_page_first 364
_journal_name_full 'Radiokhimiya(Russ.)(Radiochem.) '
loop_
_publ_author_name
"I.A.Charushnikova"
"N.N.Krot"
"V.I.Makarenkov"
"Z.A.Starikova"
_chemical_name_systematic
;
catena-[hexakis(\m-malonato)-tri-cerium hexaammine-cobalt hexahydrate]
;
_cell_volume   2801.828
_exptl_crystal_colour 'orange'
_exptl_crystal_density_diffrn 2.315
_exptl_crystal_description 'prism'
_diffrn_ambient_temperature 296
#These two values have been output from a single CSD field.
_refine_ls_R_factor_gt 0.0205
_refine_ls_wR_factor_gt 0.0205
_symmetry_cell_setting rhombohedral
_symmetry_space_group_name_H-M 'R -3'
_symmetry_Int_Tables_number 148
loop_
_symmetry_equiv_pos_site_id
_symmetry_equiv_pos_as_xyz
1 x,y,z
2 -y,x-y,z
3 -x+y,-x,z
4 2/3+x,1/3+y,1/3+z
5 2/3-y,1/3+x-y,1/3+z
6 2/3-x+y,1/3-x,1/3+z
7 1/3+x,2/3+y,2/3+z
8 1/3-y,2/3+x-y,2/3+z
9 1/3-x+y,2/3-x,2/3+z
10 -x,-y,-z
11 y,-x+y,-z
12 x-y,x,-z
13 -2/3-x,-1/3-y,-1/3-z
14 -2/3+y,-1/3-x+y,-1/3-z
15 -2/3+x-y,-1/3+x,-1/3-z
16 -1/3-x,-2/3-y,-2/3-z
17 -1/3+y,-2/3-x+y,-2/3-z
18 -1/3+x-y,-2/3+x,-2/3-z
_cell_length_a 10.2024(4)
_cell_length_b 10.2024(4)
_cell_length_c 31.0818(13)
_cell_angle_alpha 90
_cell_angle_beta 90
_cell_angle_gamma 120
_cell_formula_units_Z 3
loop_
_atom_type_symbol
_atom_type_radius_bond
C 0.68
H 0.23
Ce 2.04
Co 1.26
N 0.68
O 0.68
loop_
_atom_site_label
_atom_site_type_symbol
_atom_site_fract_x
_atom_site_fract_y
_atom_site_fract_z
Ce1 Ce 0.66670 0.33330 0.33330
O1 O 0.3872(2) 0.2422(2) 0.31190(6)
O2 O 0.50231(18) 0.1774(2) 0.26380(5)
C1 C 0.3867(3) 0.1826(3) 0.27689(7)
Ce2 Ce 0.66670 0.33330 0.201429(6)
C2 C 0.2502(3) 0.1213(3) 0.24825(8)
O3 O 0.41162(19) 0.3282(2) 0.20223(6)
O4 O 0.4966(2) 0.1421(2) 0.14848(6)
H1 H 0.16590 0.11570 0.26420
H2 H 0.22240 0.01960 0.23920
C3 C 0.2804(2) 0.2202(3) 0.20885(7)
Co1 Co 0.33330 0.66670 0.16670
N1 N 0.3356(3) 0.5093(3) 0.13054(8)
H3 H 0.26900 0.41830 0.14070
H4 H 0.42780 0.52010 0.13090
H5 H 0.31120 0.51830 0.10360
O5 O 0.2998(11) 0.4753(10) 0.29298(19)
O1A O 0.7578(2) 0.1450(2) 0.31190(6)
O2A O 0.82260(18) 0.32491(20) 0.26380(5)
O1B O 0.8550(2) 0.6128(2) 0.31190(6)
O2B O 0.67509(18) 0.49769(20) 0.26380(5)
O1L O 0.946133(200) 0.424467(200) 0.354767(60)
O1M O 0.575533(200) 0.521667(200) 0.354767(60)
O1N O 0.478333(200) 0.053867(200) 0.354767(60)
O2L O 0.831023(180) 0.489267(200) 0.402867(50)
O2M O 0.510733(180) 0.341757(200) 0.402867(50)
O2N O 0.658243(180) 0.168977(200) 0.402867(50)
C1A C 0.8174(3) 0.2041(3) 0.27689(7)
C1B C 0.7959(3) 0.6133(3) 0.27689(7)
C1L C 0.946633(300) 0.484067(300) 0.389777(70)
C1M C 0.515933(300) 0.462567(300) 0.389777(70)
C1N C 0.537433(300) 0.053367(300) 0.389777(70)
Ce2L Ce 0.66663 0.33337 0.465238(6)
O3A O 0.67180(19) 0.08342(20) 0.20223(6)
O3B O 0.91658(19) 0.58838(20) 0.20223(6)
O4A O 0.8579(2) 0.3545(2) 0.14848(6)
O4B O 0.6455(2) 0.5034(2) 0.14848(6)
C2A C 0.8787(3) 0.1289(3) 0.24825(8)
C2B C 0.8711(3) 0.7498(3) 0.24825(8)
C2L C 1.083133(300) 0.545367(300) 0.418417(80)
C2M C 0.454633(300) 0.537767(300) 0.418417(80)
C2N C 0.462233(300) -0.083133(300) 0.418417(80)
O4N O 0.687833(200) 0.163267(200) 0.518187(60)
O4M O 0.475433(200) 0.312167(200) 0.518187(60)
O4L O 0.836733(200) 0.524567(200) 0.518187(60)
O3M O 0.661533(190) 0.583247(200) 0.464437(60)
O3L O 0.921713(190) 0.338467(200) 0.464437(60)
O3N O 0.416753(190) 0.078287(200) 0.464437(60)
C3A C 0.7798(2) 0.0602(3) 0.20885(7)
C3B C 0.9398(2) 0.7196(3) 0.20885(7)
H1A H 0.88430 0.05020 0.26420
H2A H 0.98040 0.20280 0.23920
H1B H 0.94980 0.83410 0.26420
H2B H 0.79720 0.77760 0.23920
C3L C 1.052933(200) 0.446467(300) 0.457817(70)
H2L H 1.11093 0.64707 0.42747
H1L H 1.16743 0.55097 0.40247
H1M H 0.44903 0.61647 0.40247
C3M C 0.553533(200) 0.606467(300) 0.457817(70)
H2M H 0.35293 0.46387 0.42747
C3N C 0.393533(200) -0.052933(300) 0.457817(70)
H1N H 0.38353 -0.16743 0.40247
H2N H 0.53613 -0.11093 0.42747
O4O O 0.170067(200) 0.191233(200) 0.184853(60)
O4P O 0.808767(200) -0.021167(200) 0.184853(60)
O4Q O 1.021167(200) 0.829933(200) 0.184853(60)
O4C O 1.163267(200) 0.475433(200) 0.481813(60)
O4D O 0.524567(200) 0.687833(200) 0.481813(60)
O4E O 0.312167(200) -0.163267(200) 0.481813(60)
Ce2O Ce -0.00003 0.00003 0.131904(6)
Ce2O* Ce 0.99997 0.00003 0.131904(6)
Ce2O** Ce 0.99997 1.00003 0.131904(6)
Ce2C Ce 1.33337 0.66663 0.534762(6)
Ce2C* Ce 0.33337 0.66663 0.534762(6)
Ce2C** Ce 0.33337 -0.33337 0.534762(6)
N1A N 0.4907(3) 0.8263(3) 0.13054(8)
H3A H 0.58170 0.85070 0.14070
H4A H 0.47990 0.90770 0.13090
H5A H 0.48170 0.79290 0.10360
N1B N 0.1737(3) 0.6644(3) 0.13054(8)
H3B H 0.14930 0.73100 0.14070
H4B H 0.09230 0.57220 0.13090
H5B H 0.20710 0.68880 0.10360
N1O N 0.331067(300) 0.824033(300) 0.202793(80)
H3O H 0.39767 0.91503 0.19263
H4O H 0.23887 0.81323 0.20243
H5O H 0.35547 0.81503 0.22973
N1P N 0.175967(300) 0.507033(300) 0.202793(80)
H3P H 0.08497 0.48263 0.19263
H4P H 0.18677 0.42563 0.20243
H5P H 0.18497 0.54043 0.22973
N1Q N 0.492967(300) 0.668933(300) 0.202793(80)
H3Q H 0.51737 0.60233 0.19263
H4Q H 0.57437 0.76113 0.20243
H5Q H 0.45957 0.64453 0.22973
#END
