
#######################################################################
#
#                 Cambridge Crystallographic Data Centre
#                                CCDC
#
#######################################################################
#
# If this CIF has been generated from an entry in the Cambridge
# Structural Database, then it will include bibliographic, chemical,
# crystal, experimental, refinement or atomic coordinate data resulting
# from the CCDC's data processing and validation procedures.
#
#######################################################################

data_CSD_CIF_VUCCON
_audit_creation_date 2015-02-13
_audit_creation_method CSD-ConQuest-V1
_database_code_CSD VUCCON
_database_code_depnum_ccdc_archive 'CCDC 964898'
_chemical_formula_sum 'C18 H42 Co1 La3 N6 O30'
_chemical_formula_moiety
;
(C18 H12 La3 O24 2-)n,H18 Co1 N6 2+,6(H2 O1)
;
_journal_coden_Cambridge 513
_journal_volume 56
_journal_year 2014
_journal_page_first 364
_journal_name_full 'Radiokhimiya(Russ.)(Radiochem.) '
loop_
_publ_author_name
"I.A.Charushnikova"
"N.N.Krot"
"V.I.Makarenkov"
"Z.A.Starikova"
_chemical_name_systematic
;
catena-[hexakis(\m-malonato)-tri-lanthanum hexaammine-cobalt hexahydrate]
;
_cell_volume   2818.964
_exptl_crystal_colour 'orange'
_exptl_crystal_density_diffrn 2.294
_exptl_crystal_description 'prism'
_diffrn_ambient_temperature 296
#These two values have been output from a single CSD field.
_refine_ls_R_factor_gt 0.0199
_refine_ls_wR_factor_gt 0.0199
_symmetry_cell_setting rhombohedral
_symmetry_space_group_name_H-M 'R -3'
_symmetry_Int_Tables_number 148
loop_
_symmetry_equiv_pos_site_id
_symmetry_equiv_pos_as_xyz
1 x,y,z
2 -y,x-y,z
3 -x+y,-x,z
4 2/3+x,1/3+y,1/3+z
5 2/3-y,1/3+x-y,1/3+z
6 2/3-x+y,1/3-x,1/3+z
7 1/3+x,2/3+y,2/3+z
8 1/3-y,2/3+x-y,2/3+z
9 1/3-x+y,2/3-x,2/3+z
10 -x,-y,-z
11 y,-x+y,-z
12 x-y,x,-z
13 -2/3-x,-1/3-y,-1/3-z
14 -2/3+y,-1/3-x+y,-1/3-z
15 -2/3+x-y,-1/3+x,-1/3-z
16 -1/3-x,-2/3-y,-2/3-z
17 -1/3+y,-2/3-x+y,-2/3-z
18 -1/3+x-y,-2/3+x,-2/3-z
_cell_length_a 10.2105(1)
_cell_length_b 10.2105(1)
_cell_length_c 31.2223(5)
_cell_angle_alpha 90
_cell_angle_beta 90
_cell_angle_gamma 120
_cell_formula_units_Z 3
loop_
_atom_type_symbol
_atom_type_radius_bond
C 0.68
H 0.23
Co 1.26
La 2.07
N 0.68
O 0.68
loop_
_atom_site_label
_atom_site_type_symbol
_atom_site_fract_x
_atom_site_fract_y
_atom_site_fract_z
La1 La 0.00000 0.00000 0.00000
La2 La 0.00000 0.00000 0.131704(3)
O1 O 0.28224(14) 0.19255(15) 0.02156(4)
O2 O 0.16627(11) 0.01084(11) 0.06913(3)
O3 O 0.25472(11) 0.25039(12) 0.13081(3)
O4 O 0.49572(13) 0.35542(13) 0.14837(3)
C1 C 0.28158(14) 0.13215(15) 0.05631(4)
C2 C 0.41735(15) 0.20646(17) 0.08514(4)
H1 H 0.446(2) 0.135(2) 0.0958(7)
H2 H 0.500(2) 0.285(2) 0.0703(7)
C3 C 0.38616(13) 0.27459(13) 0.12442(4)
Co1 Co 0.33330 0.66670 0.16670
N1 N 0.33494(16) 0.82605(15) 0.13084(5)
H3 H 0.40300 0.91630 0.14100
H4 H 0.24380 0.81740 0.13130
H5 H 0.35880 0.81650 0.10410
O5 O 0.0377(9) -0.1533(5) 0.37415(14)
O1A O -0.19255(14) 0.08969(15) 0.02156(4)
O2A O -0.01084(11) 0.15543(11) 0.06913(3)
O3A O -0.25039(11) 0.00433(12) 0.13081(3)
O4A O -0.35542(13) 0.14030(13) 0.14837(3)
C1A C -0.13215(14) 0.14943(15) 0.05631(4)
C2A C -0.20646(15) 0.21089(17) 0.08514(4)
H1A H -0.135(2) 0.311(2) 0.0958(7)
H2A H -0.285(2) 0.215(2) 0.0703(7)
C3A C -0.27459(13) 0.11157(13) 0.12442(4)
O1B O -0.08969(14) -0.28224(15) 0.02156(4)
O2B O -0.15543(11) -0.16627(11) 0.06913(3)
O3B O -0.00433(11) -0.25472(12) 0.13081(3)
O4B O -0.14030(13) -0.49572(13) 0.14837(3)
C1B C -0.14943(14) -0.28158(15) 0.05631(4)
C2B C -0.21089(15) -0.41735(17) 0.08514(4)
H1B H -0.311(2) -0.446(2) 0.0958(7)
H2B H -0.215(2) -0.500(2) 0.0703(7)
C3B C -0.11157(13) -0.38616(13) 0.12442(4)
La2I La 0.00000 0.00000 -0.131704(3)
O1I O -0.28224(14) -0.19255(15) -0.02156(4)
O2I O -0.16627(11) -0.01084(11) -0.06913(3)
O3I O -0.25472(11) -0.25039(12) -0.13081(3)
O4I O -0.49572(13) -0.35542(13) -0.14837(3)
C1I C -0.28158(14) -0.13215(15) -0.05631(4)
C2I C -0.41735(15) -0.20646(17) -0.08514(4)
H1I H -0.446(2) -0.135(2) -0.0958(7)
H2I H -0.500(2) -0.285(2) -0.0703(7)
C3I C -0.38616(13) -0.27459(13) -0.12442(4)
O1J O 0.19255(14) -0.08969(15) -0.02156(4)
O2J O 0.01084(11) -0.15543(11) -0.06913(3)
O3J O 0.25039(11) -0.00433(12) -0.13081(3)
O4J O 0.35542(13) -0.14030(13) -0.14837(3)
C1J C 0.13215(14) -0.14943(15) -0.05631(4)
C2J C 0.20646(15) -0.21089(17) -0.08514(4)
H1J H 0.135(2) -0.311(2) -0.0958(7)
H2J H 0.285(2) -0.215(2) -0.0703(7)
C3J C 0.27459(13) -0.11157(13) -0.12442(4)
O1K O 0.08969(14) 0.28224(15) -0.02156(4)
O2K O 0.15543(11) 0.16627(11) -0.06913(3)
O3K O 0.00433(11) 0.25472(12) -0.13081(3)
O4K O 0.14030(13) 0.49572(13) -0.14837(3)
C1K C 0.14943(14) 0.28158(15) -0.05631(4)
C2K C 0.21089(15) 0.41735(17) -0.08514(4)
H1K H 0.311(2) 0.446(2) -0.0958(7)
H2K H 0.215(2) 0.500(2) -0.0703(7)
C3K C 0.11157(13) 0.38616(13) -0.12442(4)
La2F La -0.66667 -0.33333 -0.201629(3)
La2F* La 0.33333 -0.33333 -0.201629(3)
La2F** La 0.33333 0.66667 -0.201629(3)
La2O La -0.33333 -0.66667 0.201629(3)
La2O* La -0.33333 0.33333 0.201629(3)
La2O** La 0.66667 0.33333 0.201629(3)
O4F O -0.170947(130) 0.022087(130) -0.184963(30)
O4G O -0.022087(130) -0.193033(130) -0.184963(30)
O4H O 0.193033(130) 0.170947(130) -0.184963(30)
O4O O 0.170947(130) -0.022087(130) 0.184963(30)
O4P O 0.022087(130) 0.193033(130) 0.184963(30)
O4Q O -0.193033(130) -0.170947(130) 0.184963(30)
N1A N 0.17395(16) 0.50889(15) 0.13084(5)
H3A H 0.08370 0.48670 0.14100
H4A H 0.18260 0.42640 0.13130
H5A H 0.18350 0.54230 0.10410
N1B N 0.49111(16) 0.66506(15) 0.13084(5)
H3B H 0.51330 0.59700 0.14100
H4B H 0.57360 0.75620 0.13130
H5B H 0.45770 0.64120 0.10410
N1O N 0.331727(160) 0.507283(150) 0.202493(50)
H3O H 0.26367 0.41703 0.19233
H4O H 0.42287 0.51593 0.20203
H5O H 0.30787 0.51683 0.22923
N1P N 0.492717(160) 0.824443(150) 0.202493(50)
H3P H 0.58297 0.84663 0.19233
H4P H 0.48407 0.90693 0.20203
H5P H 0.48317 0.79103 0.22923
N1Q N 0.175557(160) 0.668273(150) 0.202493(50)
H3Q H 0.15337 0.73633 0.19233
H4Q H 0.09307 0.57713 0.20203
H5Q H 0.20897 0.69213 0.22923
#END
