
#######################################################################
#
#                 Cambridge Crystallographic Data Centre
#                                CCDC
#
#######################################################################
#
# If this CIF has been generated from an entry in the Cambridge
# Structural Database, then it will include bibliographic, chemical,
# crystal, experimental, refinement or atomic coordinate data resulting
# from the CCDC's data processing and validation procedures.
#
#######################################################################

data_CSD_CIF_VUCDEE
_audit_creation_date 2015-02-13
_audit_creation_method CSD-ConQuest-V1
_database_code_CSD VUCDEE
_database_code_depnum_ccdc_archive 'CCDC 964901'
_chemical_formula_sum 'C18 H42 Co1 N6 O30 Pr3'
_chemical_formula_moiety
;
(C18 H12 O24 Pr3 2-)n,H18 Co1 N6 2+,6(H2 O1)
;
_journal_coden_Cambridge 513
_journal_volume 56
_journal_year 2014
_journal_page_first 364
_journal_name_full 'Radiokhimiya(Russ.)(Radiochem.) '
loop_
_publ_author_name
"I.A.Charushnikova"
"N.N.Krot"
"V.I.Makarenkov"
"Z.A.Starikova"
_chemical_name_systematic
;
catena-[hexakis(\m-malonato)-tri-praseodymium hexaammine-cobalt hexahydrate]
;
_cell_volume   2776.306
_exptl_crystal_colour 'orange'
_exptl_crystal_density_diffrn 2.34
_exptl_crystal_description 'prism'
_diffrn_ambient_temperature 296
#These two values have been output from a single CSD field.
_refine_ls_R_factor_gt 0.0161
_refine_ls_wR_factor_gt 0.0161
_symmetry_cell_setting rhombohedral
_symmetry_space_group_name_H-M 'R -3'
_symmetry_Int_Tables_number 148
loop_
_symmetry_equiv_pos_site_id
_symmetry_equiv_pos_as_xyz
1 x,y,z
2 -y,x-y,z
3 -x+y,-x,z
4 2/3+x,1/3+y,1/3+z
5 2/3-y,1/3+x-y,1/3+z
6 2/3-x+y,1/3-x,1/3+z
7 1/3+x,2/3+y,2/3+z
8 1/3-y,2/3+x-y,2/3+z
9 1/3-x+y,2/3-x,2/3+z
10 -x,-y,-z
11 y,-x+y,-z
12 x-y,x,-z
13 -2/3-x,-1/3-y,-1/3-z
14 -2/3+y,-1/3-x+y,-1/3-z
15 -2/3+x-y,-1/3+x,-1/3-z
16 -1/3-x,-2/3-y,-2/3-z
17 -1/3+y,-2/3-x+y,-2/3-z
18 -1/3+x-y,-2/3+x,-2/3-z
_cell_length_a 10.1821(1)
_cell_length_b 10.1821(1)
_cell_length_c 30.9216(6)
_cell_angle_alpha 90
_cell_angle_beta 90
_cell_angle_gamma 120
_cell_formula_units_Z 3
loop_
_atom_type_symbol
_atom_type_radius_bond
C 0.68
H 0.23
Co 1.26
N 0.68
O 0.68
Pr 2.03
loop_
_atom_site_label
_atom_site_type_symbol
_atom_site_fract_x
_atom_site_fract_y
_atom_site_fract_z
Pr1 Pr 0.00000 0.00000 0.00000
Pr2 Pr 0.00000 0.00000 0.132003(2)
O1 O 0.27781(10) 0.18659(10) 0.02133(3)
O2 O 0.16268(7) 0.00656(8) 0.06990(2)
O3 O 0.25444(8) 0.24843(9) 0.13144(3)
O4 O 0.49701(9) 0.35411(9) 0.14869(2)
C1 C 0.27828(9) 0.12737(10) 0.05658(3)
C2 C 0.41594(10) 0.20272(11) 0.08518(3)
H1 H 0.50030 0.28130 0.06900
H2 H 0.44360 0.12860 0.09420
C3 C 0.38606(9) 0.27214(9) 0.12480(2)
Co1 Co 0.33330 0.66670 0.16670
N1 N 0.33603(12) 0.82715(11) 0.13063(4)
H3 H 0.40490 0.91740 0.14080
H4 H 0.24500 0.81930 0.13120
H5 H 0.35940 0.81730 0.10350
O5 O 0.4942(4) 0.8593(6) 0.04105(14)
O1A O -0.18659(10) 0.09122(10) 0.02133(3)
O2A O -0.00656(7) 0.15612(8) 0.06990(2)
O3A O -0.24843(8) 0.00601(9) 0.13144(3)
O4A O -0.35411(9) 0.14290(9) 0.14869(2)
C1A C -0.12737(9) 0.15091(10) 0.05658(3)
C2A C -0.20272(10) 0.21322(11) 0.08518(3)
H1A H -0.28130 0.21900 0.06900
H2A H -0.12860 0.31500 0.09420
C3A C -0.27214(9) 0.11392(9) 0.12480(2)
O1B O -0.09122(10) -0.27781(10) 0.02133(3)
O2B O -0.15612(7) -0.16268(8) 0.06990(2)
O3B O -0.00601(8) -0.25444(9) 0.13144(3)
O4B O -0.14290(9) -0.49701(9) 0.14869(2)
C1B C -0.15091(9) -0.27828(10) 0.05658(3)
C2B C -0.21322(10) -0.41594(11) 0.08518(3)
H1B H -0.21900 -0.50030 0.06900
H2B H -0.31500 -0.44360 0.09420
C3B C -0.11392(9) -0.38606(9) 0.12480(2)
Pr2I Pr 0.00000 0.00000 -0.132003(2)
O1I O -0.27781(10) -0.18659(10) -0.02133(3)
O2I O -0.16268(7) -0.00656(8) -0.06990(2)
O3I O -0.25444(8) -0.24843(9) -0.13144(3)
O4I O -0.49701(9) -0.35411(9) -0.14869(2)
C1I C -0.27828(9) -0.12737(10) -0.05658(3)
C2I C -0.41594(10) -0.20272(11) -0.08518(3)
H1I H -0.50030 -0.28130 -0.06900
H2I H -0.44360 -0.12860 -0.09420
C3I C -0.38606(9) -0.27214(9) -0.12480(2)
O1J O 0.18659(10) -0.09122(10) -0.02133(3)
O2J O 0.00656(7) -0.15612(8) -0.06990(2)
O3J O 0.24843(8) -0.00601(9) -0.13144(3)
O4J O 0.35411(9) -0.14290(9) -0.14869(2)
C1J C 0.12737(9) -0.15091(10) -0.05658(3)
C2J C 0.20272(10) -0.21322(11) -0.08518(3)
H1J H 0.28130 -0.21900 -0.06900
H2J H 0.12860 -0.31500 -0.09420
C3J C 0.27214(9) -0.11392(9) -0.12480(2)
O1K O 0.09122(10) 0.27781(10) -0.02133(3)
O2K O 0.15612(7) 0.16268(8) -0.06990(2)
O3K O 0.00601(8) 0.25444(9) -0.13144(3)
O4K O 0.14290(9) 0.49701(9) -0.14869(2)
C1K C 0.15091(9) 0.27828(10) -0.05658(3)
C2K C 0.21322(10) 0.41594(11) -0.08518(3)
H1K H 0.21900 0.50030 -0.06900
H2K H 0.31500 0.44360 -0.09420
C3K C 0.11392(9) 0.38606(9) -0.12480(2)
Pr2F Pr -0.66667 -0.33333 -0.201330(2)
Pr2F* Pr 0.33333 -0.33333 -0.201330(2)
Pr2F** Pr 0.33333 0.66667 -0.201330(2)
Pr2O Pr -0.33333 -0.66667 0.201330(2)
Pr2O* Pr -0.33333 0.33333 0.201330(2)
Pr2O** Pr 0.66667 0.33333 0.201330(2)
O4F O -0.169657(90) 0.020777(90) -0.184643(20)
O4G O -0.020777(90) -0.190433(90) -0.184643(20)
O4H O 0.190433(90) 0.169657(90) -0.184643(20)
O4O O 0.169657(90) -0.020777(90) 0.184643(20)
O4P O 0.020777(90) 0.190433(90) 0.184643(20)
O4Q O -0.190433(90) -0.169657(90) 0.184643(20)
N1A N 0.17285(12) 0.50888(11) 0.13063(4)
H3A H 0.08260 0.48750 0.14080
H4A H 0.18070 0.42570 0.13120
H5A H 0.18270 0.54210 0.10350
N1B N 0.49112(12) 0.66397(11) 0.13063(4)
H3B H 0.51250 0.59510 0.14080
H4B H 0.57430 0.75500 0.13120
H5B H 0.45790 0.64060 0.10350
N1O N 0.330637(120) 0.506183(110) 0.202703(40)
H3O H 0.26177 0.41593 0.19253
H4O H 0.42167 0.51403 0.20213
H5O H 0.30727 0.51603 0.22983
N1P N 0.493817(120) 0.824453(110) 0.202703(40)
H3P H 0.58407 0.84583 0.19253
H4P H 0.48597 0.90763 0.20213
H5P H 0.48397 0.79123 0.22983
N1Q N 0.175547(120) 0.669363(110) 0.202703(40)
H3Q H 0.15417 0.73823 0.19253
H4Q H 0.09237 0.57833 0.20213
H5Q H 0.20877 0.69273 0.22983
#END
