
#######################################################################
#
#                 Cambridge Crystallographic Data Centre
#                                CCDC
#
#######################################################################
#
# If this CIF has been generated from an entry in the Cambridge
# Structural Database, then it will include bibliographic, chemical,
# crystal, experimental, refinement or atomic coordinate data resulting
# from the CCDC's data processing and validation procedures.
#
#######################################################################

data_CSD_CIF_VUCDAA
_audit_creation_date 2015-02-13
_audit_creation_method CSD-ConQuest-V1
_database_code_CSD VUCDAA
_database_code_depnum_ccdc_archive 'CCDC 964900'
_chemical_formula_sum 'C18 H42 Co1 N6 Nd3 O30'
_chemical_formula_moiety
;
(C18 H12 Nd3 O24 2-)n,H18 Co1 N6 2+,6(H2 O1)
;
_journal_coden_Cambridge 513
_journal_volume 56
_journal_year 2014
_journal_page_first 364
_journal_name_full 'Radiokhimiya(Russ.)(Radiochem.) '
loop_
_publ_author_name
"I.A.Charushnikova"
"N.N.Krot"
"V.I.Makarenkov"
"Z.A.Starikova"
_chemical_name_systematic
;
catena-[hexakis(\m-malonato)-tri-neodymium hexaammine-cobalt hexahydrate]
;
_cell_volume   2815.500
_exptl_crystal_colour 'orange'
_exptl_crystal_density_diffrn 2.325
_exptl_crystal_description 'prism'
_diffrn_ambient_temperature 296
#These two values have been output from a single CSD field.
_refine_ls_R_factor_gt 0.0162
_refine_ls_wR_factor_gt 0.0162
_symmetry_cell_setting rhombohedral
_symmetry_space_group_name_H-M 'R -3'
_symmetry_Int_Tables_number 148
loop_
_symmetry_equiv_pos_site_id
_symmetry_equiv_pos_as_xyz
1 x,y,z
2 -y,x-y,z
3 -x+y,-x,z
4 2/3+x,1/3+y,1/3+z
5 2/3-y,1/3+x-y,1/3+z
6 2/3-x+y,1/3-x,1/3+z
7 1/3+x,2/3+y,2/3+z
8 1/3-y,2/3+x-y,2/3+z
9 1/3-x+y,2/3-x,2/3+z
10 -x,-y,-z
11 y,-x+y,-z
12 x-y,x,-z
13 -2/3-x,-1/3-y,-1/3-z
14 -2/3+y,-1/3-x+y,-1/3-z
15 -2/3+x-y,-1/3+x,-1/3-z
16 -1/3-x,-2/3-y,-2/3-z
17 -1/3+y,-2/3-x+y,-2/3-z
18 -1/3+x-y,-2/3+x,-2/3-z
_cell_length_a 10.2386(5)
_cell_length_b 10.2386(5)
_cell_length_c 31.013(3)
_cell_angle_alpha 90
_cell_angle_beta 90
_cell_angle_gamma 120
_cell_formula_units_Z 3
loop_
_atom_type_symbol
_atom_type_radius_bond
C 0.68
H 0.23
Co 1.26
N 0.68
Nd 2.01
O 0.68
loop_
_atom_site_label
_atom_site_type_symbol
_atom_site_fract_x
_atom_site_fract_y
_atom_site_fract_z
Nd1 Nd 0.00000 0.00000 0.00000
Nd2 Nd 0.00000 0.00000 0.131880(3)
O1 O 0.27699(15) 0.09118(17) 0.02120(4)
O2 O 0.16173(12) 0.15617(13) 0.06997(4)
O3 O 0.25427(12) 0.00638(14) 0.13160(4)
O4 O 0.49723(13) 0.14376(14) 0.14898(4)
C1 C 0.27795(15) 0.15146(16) 0.05656(4)
C2 C 0.41571(16) 0.21365(17) 0.08514(5)
H1 H 0.44350 0.31510 0.09410
H2 H 0.49930 0.21900 0.06900
C3 C 0.38618(15) 0.11475(15) 0.12496(4)
Co1 Co 0.33330 0.66670 0.16670
N1 N 0.33649(18) 0.50882(17) 0.13053(5)
H3 H 0.27010 0.41820 0.14070
H4 H 0.42840 0.51980 0.13110
H5 H 0.31250 0.51750 0.10350
O5 O 0.3627(8) -0.1425(7) 0.03996(15)
O1A O -0.09118(15) 0.18581(17) 0.02120(4)
O2A O -0.15617(12) 0.00556(13) 0.06997(4)
O3A O -0.00638(12) 0.24789(14) 0.13160(4)
O4A O -0.14376(13) 0.35347(14) 0.14898(4)
C1A C -0.15146(15) 0.12649(16) 0.05656(4)
C2A C -0.21365(16) 0.20206(17) 0.08514(5)
H1A H -0.31510 0.12840 0.09410
H2A H -0.21900 0.28030 0.06900
C3A C -0.11475(15) 0.27143(15) 0.12496(4)
O1B O -0.18581(15) -0.27699(17) 0.02120(4)
O2B O -0.00556(12) -0.16173(13) 0.06997(4)
O3B O -0.24789(12) -0.25427(14) 0.13160(4)
O4B O -0.35347(13) -0.49723(14) 0.14898(4)
C1B C -0.12649(15) -0.27795(16) 0.05656(4)
C2B C -0.20206(16) -0.41571(17) 0.08514(5)
H1B H -0.12840 -0.44350 0.09410
H2B H -0.28030 -0.49930 0.06900
C3B C -0.27143(15) -0.38618(15) 0.12496(4)
Nd2I Nd 0.00000 0.00000 -0.131880(3)
O1I O -0.27699(15) -0.09118(17) -0.02120(4)
O2I O -0.16173(12) -0.15617(13) -0.06997(4)
O3I O -0.25427(12) -0.00638(14) -0.13160(4)
O4I O -0.49723(13) -0.14376(14) -0.14898(4)
C1I C -0.27795(15) -0.15146(16) -0.05656(4)
C2I C -0.41571(16) -0.21365(17) -0.08514(5)
H1I H -0.44350 -0.31510 -0.09410
H2I H -0.49930 -0.21900 -0.06900
C3I C -0.38618(15) -0.11475(15) -0.12496(4)
O1J O 0.09118(15) -0.18581(17) -0.02120(4)
O2J O 0.15617(12) -0.00556(13) -0.06997(4)
O3J O 0.00638(12) -0.24789(14) -0.13160(4)
O4J O 0.14376(13) -0.35347(14) -0.14898(4)
C1J C 0.15146(15) -0.12649(16) -0.05656(4)
C2J C 0.21365(16) -0.20206(17) -0.08514(5)
H1J H 0.31510 -0.12840 -0.09410
H2J H 0.21900 -0.28030 -0.06900
C3J C 0.11475(15) -0.27143(15) -0.12496(4)
O1K O 0.18581(15) 0.27699(17) -0.02120(4)
O2K O 0.00556(12) 0.16173(13) -0.06997(4)
O3K O 0.24789(12) 0.25427(14) -0.13160(4)
O4K O 0.35347(13) 0.49723(14) -0.14898(4)
C1K C 0.12649(15) 0.27795(16) -0.05656(4)
C2K C 0.20206(16) 0.41571(17) -0.08514(5)
H1K H 0.12840 0.44350 -0.09410
H2K H 0.28030 0.49930 -0.06900
C3K C 0.27143(15) 0.38618(15) -0.12496(4)
Nd2F Nd -0.66667 -0.33333 -0.201453(3)
Nd2F* Nd 0.33333 -0.33333 -0.201453(3)
Nd2F** Nd 0.33333 0.66667 -0.201453(3)
Nd2O Nd -0.33333 -0.66667 0.201453(3)
Nd2O* Nd -0.33333 0.33333 0.201453(3)
Nd2O** Nd 0.66667 0.33333 0.201453(3)
O4F O -0.169437(130) -0.189573(140) -0.184353(40)
O4G O 0.189573(130) 0.020137(140) -0.184353(40)
O4H O -0.020137(130) 0.169437(140) -0.184353(40)
O4O O 0.169437(130) 0.189573(140) 0.184353(40)
O4P O -0.189573(130) -0.020137(140) 0.184353(40)
O4Q O 0.020137(130) -0.169437(140) 0.184353(40)
N1A N 0.49118(18) 0.82767(17) 0.13053(5)
H3A H 0.58180 0.85190 0.14070
H4A H 0.48020 0.90860 0.13110
H5A H 0.48250 0.79500 0.10350
N1B N 0.17233(18) 0.66351(17) 0.13053(5)
H3B H 0.14810 0.72990 0.14070
H4B H 0.09140 0.57160 0.13110
H5B H 0.20500 0.68750 0.10350
N1O N 0.330177(180) 0.824513(170) 0.202803(50)
H3O H 0.39657 0.91513 0.19263
H4O H 0.23827 0.81353 0.20223
H5O H 0.35417 0.81583 0.22983
N1P N 0.175487(180) 0.505663(170) 0.202803(50)
H3P H 0.08487 0.48143 0.19263
H4P H 0.18647 0.42473 0.20223
H5P H 0.18417 0.53833 0.22983
N1Q N 0.494337(180) 0.669823(170) 0.202803(50)
H3Q H 0.51857 0.60343 0.19263
H4Q H 0.57527 0.76173 0.20223
H5Q H 0.46167 0.64583 0.22983
#END
