
#######################################################################
#
#                 Cambridge Crystallographic Data Centre
#                                CCDC
#
#######################################################################
#
# If this CIF has been generated from an entry in the Cambridge
# Structural Database, then it will include bibliographic, chemical,
# crystal, experimental, refinement or atomic coordinate data resulting
# from the CCDC's data processing and validation procedures.
#
#######################################################################

data_CSD_CIF_VUCHIN
_audit_creation_date 2019-11-29
_audit_creation_method CSD-ConQuest-V1
_database_code_CSD VUCHIN
_database_code_depnum_ccdc_archive 'CCDC 1952264'
_chemical_formula_sum 'C50 H51 Cl6 Co3 N13 O22'
_chemical_formula_moiety
;
(C48 H31 Cl6 Co3 N12 O16 1-)n,C2 H8 N1 1+,6(H2 O1)
;
_journal_coden_Cambridge 208
_journal_volume 282
_journal_year 2020
_journal_page_first 121093
_journal_name_full 'J.Solid State Chem. '
loop_
_publ_author_name
"S.Ghosh"
"C.Maity"
"G.C.Nayak"
"H.P.Nayek"
_chemical_name_systematic
;
catena-[dimethylammonium 
(\m-hydroxo)-bis(\m-3,3',3''-(1,3,5-triazine-2,4,6-triyltriazanediyl)tris(4-ch
lorobenzoato))-triaqua-tri-cobalt hexahydrate]
;
_cell_volume   4413.228
_exptl_crystal_colour 'purple'
_exptl_crystal_density_diffrn 1.186
_exptl_special_details
;
We calculate void space in the structure

;
_exptl_crystal_description 'hexagonal'
_diffrn_ambient_temperature 110
_diffrn_special_details
;
twin

;
_refine_special_details
;
C9 disordered over three configurations with occupancy 0.6667.

;
#These two values have been output from a single CSD field.
_refine_ls_R_factor_gt 0.0989
_refine_ls_wR_factor_gt 0.0989
_symmetry_cell_setting hexagonal
_symmetry_space_group_name_H-M 'P -6 2 c'
_symmetry_Int_Tables_number 190
loop_
_symmetry_equiv_pos_site_id
_symmetry_equiv_pos_as_xyz
1 x,y,z
2 -y,x-y,z
3 -x+y,-x,z
4 x,y,1/2-z
5 -y,x-y,1/2-z
6 -x+y,-x,1/2-z
7 y,x,-z
8 x-y,-y,-z
9 -x,-x+y,-z
10 y,x,1/2+z
11 x-y,-y,1/2+z
12 -x,-x+y,1/2+z
_cell_length_a 13.9294(15)
_cell_length_b 13.9294(15)
_cell_length_c 26.264(3)
_cell_angle_alpha 90
_cell_angle_beta 90
_cell_angle_gamma 120
_cell_formula_units_Z 2
loop_
_atom_type_symbol
_atom_type_radius_bond
C 0.68
H 0.23
Cl 0.99
Co 1.26
N 0.68
O 0.68
loop_
_atom_site_label
_atom_site_type_symbol
_atom_site_fract_x
_atom_site_fract_y
_atom_site_fract_z
C1 C 0.5582(8) 0.2755(9) 0.6184(5)
C2 C 0.3695(9) 0.2454(10) 0.6178(5)
C3 C 0.2697(10) 0.1835(10) 0.5887(5)
C4 C 0.1849(9) 0.2097(10) 0.5904(5)
H1 H 0.11756 0.16628 0.57233
C5 C 0.2008(10) 0.2983(11) 0.6183(5)
H2 H 0.14676 0.32086 0.61713
C6 C 0.2951(8) 0.3575(10) 0.6487(4)
C7 C 0.3784(9) 0.3315(10) 0.6473(5)
H3 H 0.44341 0.37377 0.66697
C8 C 0.3097(8) 0.4507(8) 0.6819(5)
N1 N 0.4484(7) 0.2103(8) 0.6175(4)
H4 H 0.42276 0.13836 0.61669
N2 N 0.6024(7) 0.3822(7) 0.6178(4)
O1 O 0.4063(7) 0.5226(7) 0.6943(3)
O2 O 0.6145(11) 0.6371(12) 0.75000
O3 O 0.222(1) 0.4526(7) 0.6929(4)
O4 O 0.33333 0.66667 0.75000
Cl1 Cl 0.2557(3) 0.0772(3) 0.54976(13)
Co1 Co 0.46731(15) 0.64779(14) 0.75000
C9 C 0.567(3) 0.218(3) 0.75000
H5 H 0.49872 0.22232 0.75000
H6 H 0.56813 0.17774 0.71953
N3 N 0.66667 0.33333 0.75000
H7? H 0.56813 0.17774 0.71953
O5 O 0.5844(10) 0.6065(10) 0.6207(5)
C1A C 0.7245(8) 0.2827(9) 0.6184(5)
C2A C 0.7546(9) 0.1241(10) 0.6178(5)
C3A C 0.8165(10) 0.0862(10) 0.5887(5)
C4A C 0.7903(9) -0.0248(10) 0.5904(5)
H1A H 0.83372 -0.04872 0.57233
C5A C 0.7017(10) -0.0975(11) 0.6183(5)
H2A H 0.67914 -0.17410 0.61713
C6A C 0.6425(8) -0.0624(10) 0.6487(4)
C7A C 0.6685(9) 0.0469(10) 0.6473(5)
H3A H 0.62623 0.06964 0.66697
C8A C 0.5493(8) -0.1410(8) 0.6819(5)
N1A N 0.7897(7) 0.2381(8) 0.6175(4)
H4A H 0.86164 0.28439 0.61669
N2A N 0.6178(7) 0.2202(7) 0.6178(4)
O1A O 0.4774(7) -0.1163(7) 0.6943(3)
Cl1A Cl 0.9228(3) 0.1785(3) 0.54976(13)
O3A O 0.5474(10) -0.2306(7) 0.6929(4)
C1B C 0.7173(8) 0.4418(9) 0.6184(5)
C2B C 0.8759(9) 0.6305(10) 0.6178(5)
C3B C 0.9138(10) 0.7303(10) 0.5887(5)
C4B C 1.0248(9) 0.8151(10) 0.5904(5)
H1B H 1.04872 0.88244 0.57233
C5B C 1.0975(10) 0.7992(11) 0.6183(5)
H2B H 1.17410 0.85324 0.61713
C6B C 1.0624(8) 0.7049(10) 0.6487(4)
C7B C 0.9531(9) 0.6216(10) 0.6473(5)
H3B H 0.93036 0.55659 0.66697
C8B C 1.1410(8) 0.6903(8) 0.6819(5)
N1B N 0.7619(7) 0.5516(8) 0.6175(4)
H4B H 0.71561 0.57724 0.61669
N2B N 0.7798(7) 0.3976(7) 0.6178(4)
O1B O 1.1163(7) 0.5937(7) 0.6943(3)
Cl1B Cl 0.8215(3) 0.7443(3) 0.54976(13)
O3B O 1.2306(10) 0.7780(7) 0.6929(4)
O2A O 0.3629(11) -0.0226(12) 0.75000
Co1A Co 0.35221(15) -0.18048(14) 0.75000
C1C C 0.5582(8) 0.2755(9) 0.8816(5)
C2C C 0.3695(9) 0.2454(10) 0.8822(5)
C3C C 0.2697(10) 0.1835(10) 0.9113(5)
C4C C 0.1849(9) 0.2097(10) 0.9096(5)
H1C H 0.11756 0.16628 0.92767
C5C C 0.2008(10) 0.2983(11) 0.8817(5)
H2C H 0.14676 0.32086 0.88287
C6C C 0.2951(8) 0.3575(10) 0.8513(4)
C7C C 0.3784(9) 0.3315(10) 0.8527(5)
H3C H 0.44341 0.37377 0.83303
C8C C 0.3097(8) 0.4507(8) 0.8181(5)
N1C N 0.4484(7) 0.2103(8) 0.8825(4)
H4C H 0.42276 0.13836 0.88331
N2C N 0.6024(7) 0.3822(7) 0.8822(4)
O1C O 0.4063(7) 0.5226(7) 0.8057(3)
O3C O 0.222(1) 0.4526(7) 0.8071(4)
Cl1C Cl 0.2557(3) 0.0772(3) 0.95024(13)
C1D C 0.7245(8) 0.2827(9) 0.8816(5)
C2D C 0.7546(9) 0.1241(10) 0.8822(5)
C3D C 0.8165(10) 0.0862(10) 0.9113(5)
C4D C 0.7903(9) -0.0248(10) 0.9096(5)
H1D H 0.83372 -0.04872 0.92767
C5D C 0.7017(10) -0.0975(11) 0.8817(5)
H2D H 0.67914 -0.17410 0.88287
C6D C 0.6425(8) -0.0624(10) 0.8513(4)
C7D C 0.6685(9) 0.0469(10) 0.8527(5)
H3D H 0.62623 0.06964 0.83303
C8D C 0.5493(8) -0.1410(8) 0.8181(5)
N1D N 0.7897(7) 0.2381(8) 0.8825(4)
H4D H 0.86164 0.28439 0.88331
N2D N 0.6178(7) 0.2202(7) 0.8822(4)
O1D O 0.4774(7) -0.1163(7) 0.8057(3)
Cl1D Cl 0.9228(3) 0.1785(3) 0.95024(13)
O3D O 0.5474(10) -0.2306(7) 0.8071(4)
C1E C 0.7173(8) 0.4418(9) 0.8816(5)
C2E C 0.8759(9) 0.6305(10) 0.8822(5)
C3E C 0.9138(10) 0.7303(10) 0.9113(5)
C4E C 1.0248(9) 0.8151(10) 0.9096(5)
H1E H 1.04872 0.88244 0.92767
C5E C 1.0975(10) 0.7992(11) 0.8817(5)
H2E H 1.17410 0.85324 0.88287
C6E C 1.0624(8) 0.7049(10) 0.8513(4)
C7E C 0.9531(9) 0.6216(10) 0.8527(5)
H3E H 0.93036 0.55659 0.83303
C8E C 1.1410(8) 0.6903(8) 0.8181(5)
N1E N 0.7619(7) 0.5516(8) 0.8825(4)
H4E H 0.71561 0.57724 0.88331
N2E N 0.7798(7) 0.3976(7) 0.8822(4)
O1E O 1.1163(7) 0.5937(7) 0.8057(3)
Cl1E Cl 0.8215(3) 0.7443(3) 0.95024(13)
O3E O 1.2306(10) 0.7780(7) 0.8071(4)
O2B O 0.0226(11) 0.3855(12) 0.75000
Co1B Co 0.18048(15) 0.53269(14) 0.75000
O1B* O 0.1163(7) 0.5937(7) 0.6943(3)
O1E* O 0.1163(7) 0.5937(7) 0.8057(3)
O3A* O 0.5474(10) 0.7694(7) 0.6929(4)
O3B* O 0.2306(10) -0.2220(7) 0.6929(4)
O3D* O 0.5474(10) 0.7694(7) 0.8071(4)
O3E* O 0.2306(10) -0.2220(7) 0.8071(4)
O4* O 0.33333 -0.33333 0.75000
Co1* Co 0.46731(15) -0.35221(14) 0.75000
Co1A* Co 0.35221(15) 0.81952(14) 0.75000
Co1A** Co 1.35221(15) 0.81952(14) 0.75000
Co1B* Co 1.18048(15) 0.53269(14) 0.75000
H6C H 0.56813 0.17774 0.78047
C9A C 0.782(3) 0.349(3) 0.75000
H5A H 0.77768 0.27640 0.75000
H6A H 0.82226 0.39039 0.71953
H6D H 0.82226 0.39039 0.78047
#END
