
#######################################################################
#
#                 Cambridge Crystallographic Data Centre
#                                CCDC
#
#######################################################################
#
# If this CIF has been generated from an entry in the Cambridge
# Structural Database, then it will include bibliographic, chemical,
# crystal, experimental, refinement or atomic coordinate data resulting
# from the CCDC's data processing and validation procedures.
#
#######################################################################

data_CSD_CIF_VUCTUL
_audit_creation_date 2019-11-29
_audit_creation_method CSD-ConQuest-V1
_database_code_CSD VUCTUL
_database_code_depnum_ccdc_archive 'CCDC 1960359'
_chemical_formula_sum 'C19 H26 Cl1 Cu3 I2 N3 O6 Sb1'
_chemical_formula_moiety
;
(C18 H20 Cl1 Cu3 I2 N2 O6 Sb1 1-)n,n(C1 H6 N1 1+)
;
_journal_coden_Cambridge 182
_journal_volume 55
_journal_year 2019
_journal_page_first 15113
_journal_name_full 'Chem.Commun. '
loop_
_publ_author_name
"Li-Dan Lin"
"Zhong Li"
"Jin-Hua Liu"
"Yan-Qiong Sun"
"Xin-Xiong Li"
"Shou-Tian Zheng"
_chemical_name_systematic
;
catena-(methylammonium 
(\m-chloro)-bis(\m-iodo)-bis(\m-2-(oxymethyl)-2-(pyridin-4-yl)propane-1,3-diol
ato)-antimony-tri-copper(i))
;
_cell_volume   5285.725
_exptl_crystal_colour 'colorless'
_exptl_crystal_density_diffrn 2.483
_exptl_crystal_description 'block'
_diffrn_ambient_temperature 296
#These two values have been output from a single CSD field.
_refine_ls_R_factor_gt 0.0342
_refine_ls_wR_factor_gt 0.0342
_symmetry_cell_setting orthorhombic
_symmetry_space_group_name_H-M 'P b c n'
_symmetry_Int_Tables_number 60
loop_
_symmetry_equiv_pos_site_id
_symmetry_equiv_pos_as_xyz
1 x,y,z
2 1/2-x,1/2-y,1/2+z
3 -x,y,1/2-z
4 1/2+x,1/2-y,-z
5 -x,-y,-z
6 -1/2+x,-1/2+y,-1/2-z
7 x,-y,-1/2+z
8 -1/2-x,-1/2+y,z
_cell_length_a 12.5861(12)
_cell_length_b 13.0814(12)
_cell_length_c 32.104(3)
_cell_angle_alpha 90
_cell_angle_beta 90
_cell_angle_gamma 90
_cell_formula_units_Z 8
loop_
_atom_type_symbol
_atom_type_radius_bond
C 0.68
H 0.23
Cl 0.99
Cu 1.32
I 1.40
N 0.68
O 0.68
Sb 1.39
loop_
_atom_site_label
_atom_site_type_symbol
_atom_site_fract_x
_atom_site_fract_y
_atom_site_fract_z
Sb1 Sb -0.19224(3) 0.37749(3) 0.53594(2)
I1 I -0.39775(3) 0.86468(3) 0.30682(2)
I2 I -0.34198(3) 0.60379(3) 0.22709(2)
Cu1 Cu -0.46187(7) 0.66728(7) 0.28930(2)
Cu2 Cu -0.41352(7) 0.81404(9) 0.22772(3)
Cu3 Cu -0.19746(8) 0.82336(11) 0.23457(3)
Cl1 Cl -0.28800(12) 0.87609(13) 0.18262(5)
O1 O -0.3444(3) 0.3662(3) 0.52052(14)
O2 O -0.1570(4) 0.3362(4) 0.47818(13)
O3 O -0.1958(4) 0.5206(3) 0.51676(14)
O4 O -0.2036(5) 0.2391(4) 0.55748(16)
N1 N -0.4180(4) 0.5985(4) 0.34326(16)
O5 O -0.2143(5) 0.4324(5) 0.59140(16)
C1 C -0.4468(5) 0.5363(5) 0.41271(19)
H1 H -0.49360 0.52830 0.43490
O6 O -0.0387(4) 0.3757(6) 0.54554(17)
C2 C -0.4821(5) 0.5800(5) 0.37563(19)
H2 H -0.55360 0.59710 0.37330
C3 C -0.3426(5) 0.5048(5) 0.41663(18)
C4 C -0.2960(5) 0.4588(5) 0.45630(18)
C5 C -0.0862(5) 0.3005(5) 0.61396(19)
C6 C -0.0255(5) 0.2683(5) 0.65274(19)
C7 C -0.1299(5) 0.2093(5) 0.5888(2)
H3 H -0.07110 0.17360 0.57590
H4 H -0.16460 0.16210 0.60780
C8 C -0.1793(5) 0.3722(5) 0.62523(19)
H5 H -0.23830 0.33130 0.63530
H6 H -0.15730 0.41690 0.64770
C9 C 0.0204(6) 0.3416(6) 0.6782(2)
H7 H 0.00830 0.41040 0.67280
C10 C -0.0046(5) 0.3581(6) 0.5862(2)
H8 H 0.01150 0.42330 0.59920
H9 H 0.06060 0.31870 0.58530
C11 C -0.0073(5) 0.1673(5) 0.6643(2)
H10 H -0.03810 0.11450 0.64910
C12 C -0.2761(5) 0.5234(6) 0.3825(2)
H11 H -0.20490 0.50470 0.38350
C13 C -0.3171(5) 0.5695(6) 0.3476(2)
H12 H -0.27120 0.58140 0.32540
C14 C -0.2335(8) 0.3605(8) 0.4473(3)
H13 H -0.28310 0.30410 0.44490
H14 H -0.19760 0.36780 0.42070
C15 C -0.3790(7) 0.4261(10) 0.4873(3)
H15 H -0.41220 0.48700 0.49850
H16 H -0.43350 0.38830 0.47240
C16 C 0.0840(5) 0.3138(7) 0.7114(2)
H17 H 0.11470 0.36520 0.72740
N2 N 0.1035(4) 0.2164(6) 0.72166(18)
C17 C 0.0554(6) 0.1449(6) 0.6980(2)
H18 H 0.06540 0.07650 0.70480
C18 C -0.2201(8) 0.5363(7) 0.4746(3)
H19 H -0.15450 0.53470 0.45870
H20 H -0.25070 0.60390 0.47150
N3 N -0.0645(4) 0.6752(4) 0.54252(16)
C19 C -0.0567(6) 0.6672(6) 0.5886(2)
I1B I -0.60225(3) 0.86468(3) 0.19318(2)
I2B I -0.65802(3) 0.60379(3) 0.27291(2)
Cu1B Cu -0.53813(7) 0.66728(7) 0.21070(2)
Cu2B Cu -0.58648(7) 0.81404(9) 0.27228(3)
Cu3D Cu 0.19746(8) 0.17664(11) 0.76543(3)
N2D N -0.1035(4) 0.7836(6) 0.27834(18)
#END
