
#######################################################################
#
#                 Cambridge Crystallographic Data Centre
#                                CCDC
#
#######################################################################
#
# If this CIF has been generated from an entry in the Cambridge
# Structural Database, then it will include bibliographic, chemical,
# crystal, experimental, refinement or atomic coordinate data resulting
# from the CCDC's data processing and validation procedures.
#
#######################################################################

data_CSD_CIF_VUCTOE
_audit_creation_date 2015-02-13
_audit_creation_method CSD-ConQuest-V1
_database_code_CSD VUCTOE
_database_code_depnum_ccdc_archive 'CCDC 1023612'
_chemical_formula_sum 'C10 H19 Mn5 N2 O26 P3'
_chemical_formula_moiety
;
(C6 H7 Mn5 O26 P3 2-)n,n(C4 H12 N2 2+)
;
_journal_coden_Cambridge 9
_journal_volume 54
_journal_year 2015
_journal_page_first 19
_journal_name_full 'Inorg.Chem. '
loop_
_publ_author_name
"Lindong Luan"
"Hejun Ding"
"Meng Yang"
"Zhien Lin"
"Hui Huang"
_chemical_name_systematic
;
catena-[piperazinediium tris(\m-hydrogen 
phosphato)-tris(\m-oxalato)-diaqua-penta-manganese]
;
_cell_volume   1304.724
_exptl_crystal_colour 'light pink'
_exptl_crystal_density_diffrn 2.42
_exptl_crystal_description 'block'
_diffrn_ambient_temperature 293
#These two values have been output from a single CSD field.
_refine_ls_R_factor_gt 0.0336
_refine_ls_wR_factor_gt 0.0336
_symmetry_cell_setting triclinic
_symmetry_space_group_name_H-M 'P -1'
_symmetry_Int_Tables_number 2
loop_
_symmetry_equiv_pos_site_id
_symmetry_equiv_pos_as_xyz
1 x,y,z
2 -x,-y,-z
_cell_length_a 7.7266(3)
_cell_length_b 7.9643(4)
_cell_length_c 21.2205(8)
_cell_angle_alpha 90.298(4)
_cell_angle_beta 92.209(3)
_cell_angle_gamma 90.805(4)
_cell_formula_units_Z 2
loop_
_atom_type_symbol
_atom_type_radius_bond
C 0.68
H 0.23
Mn 1.61
N 0.68
O 0.68
P 1.05
loop_
_atom_site_label
_atom_site_type_symbol
_atom_site_fract_x
_atom_site_fract_y
_atom_site_fract_z
Mn1 Mn 0.61130(6) 0.60285(6) 0.60548(2)
Mn2 Mn 0.29072(6) 0.84870(6) 0.55381(2)
Mn3 Mn 0.20044(6) 0.67359(6) 0.82351(2)
Mn4 Mn 0.52334(6) 0.42480(6) 0.87939(2)
Mn5 Mn 0.59743(6) 0.81821(7) 0.97460(2)
P1 P 0.58733(10) 0.74633(11) 0.45622(4)
P2 P 0.26565(10) 0.57450(11) 0.97999(4)
P3 P 0.3231(1) 0.05334(11) 0.88056(4)
O1 O 0.5082(3) 0.7126(3) 0.52057(10)
O2 O 0.7856(3) 0.7022(3) 0.46353(10)
H1 H 0.79890 0.60350 0.45390
O3 O 0.5001(3) 0.6346(3) 0.40543(10)
O4 O 0.5795(3) 0.9280(3) 0.4372(1)
O5 O 0.4103(3) 0.6520(3) 1.02233(10)
O6 O 0.3220(3) 0.5841(3) 0.91185(10)
O7 O 0.1074(3) 0.6948(3) 0.98683(11)
H2 H 0.01880 0.63860 0.99100
O8 O 0.2147(3) 0.3967(3) 0.99782(11)
O9 O 0.4156(3) 0.2010(3) 0.85274(10)
O10 O 0.1313(3) 0.1124(3) 0.89545(12)
H3 H 0.11010 0.19980 0.87660
O11 O 0.4044(3) 0.0028(3) 0.94464(10)
O12 O 0.3034(3) -0.0915(3) 0.83565(10)
O13 O 0.8711(3) 0.5107(3) 0.58961(11)
O14 O 1.1317(3) 0.6051(3) 0.56393(11)
O15 O 0.7850(3) 0.8242(3) 0.62137(10)
O16 O 1.0406(3) 0.9202(3) 0.59120(11)
O17 O 0.4225(3) 0.5358(3) 0.78878(10)
O18 O 0.6089(3) 0.5430(3) 0.71106(10)
O19 O 0.1996(3) 0.7201(3) 0.71954(10)
O20 O 0.3962(3) 0.7457(3) 0.64521(10)
O21 O 0.7738(3) 0.3551(3) 0.84932(11)
O22 O 1.0337(3) 0.4492(3) 0.82479(13)
O23 O 0.6811(3) 0.6716(3) 0.87848(10)
O24 O 0.9414(3) 0.7625(3) 0.84915(11)
O25 O 0.1652(3) 0.8270(3) 0.45908(10)
H4 H 0.13550 0.72800 0.45560
H5 H 0.08020 0.88660 0.45440
O26 O 0.8087(3) 0.9820(3) 0.94802(12)
H6 H 0.81200 1.07140 0.96770
H7 H 0.89860 0.96420 0.93230
C1 C 0.9826(4) 0.6240(4) 0.58308(14)
C2 C 0.9326(4) 0.8061(4) 0.60015(14)
C3 C 0.4712(4) 0.5788(4) 0.73479(14)
C4 C 0.3406(4) 0.6915(4) 0.69713(14)
C5 C 0.8840(4) 0.4697(4) 0.84257(15)
C6 C 0.8294(4) 0.6511(4) 0.85815(14)
N1 N 0.2978(3) 0.8504(4) 0.33199(12)
H8 H 0.27660 0.94090 0.35590
H9 H 0.35070 0.77390 0.35680
N2 N 0.1622(4) 0.9476(4) 0.21066(13)
H10 H 0.10990 1.02230 0.18490
H11 H 0.18640 0.85630 0.18760
C7 C 0.1298(4) 0.7782(5) 0.30596(16)
H12 H 0.05410 0.75390 0.34030
H13 H 0.15090 0.67380 0.28400
C8 C 0.0431(5) 0.8992(5) 0.26125(16)
H14 H -0.06120 0.84760 0.24250
H15 H 0.01010 0.99870 0.28420
C9 C 0.4144(5) 0.8998(5) 0.28123(16)
H16 H 0.44550 0.80100 0.25750
H17 H 0.51980 0.95010 0.29960
C10 C 0.3265(5) 1.0227(5) 0.23797(17)
H18 H 0.30140 1.12430 0.26120
H19 H 0.40250 1.05240 0.20430
Mn1A Mn 0.38870(6) 0.39715(6) 0.39452(2)
Mn2* Mn 1.29072(6) 0.84870(6) 0.55381(2)
Mn2A Mn 0.70928(6) 1.15130(6) 0.44619(2)
Mn3* Mn 0.20044(6) -0.32641(6) 0.82351(2)
Mn3** Mn 1.20044(6) 0.67359(6) 0.82351(2)
Mn4A Mn 0.47666(6) 0.57520(6) 1.12061(2)
Mn5* Mn 0.59743(6) -0.18179(7) 0.97460(2)
Mn5A Mn 0.40257(6) 0.18179(7) 1.02540(2)
O3A O 0.4999(3) 0.3654(3) 0.59457(10)
O4A O 0.4205(3) 1.0720(3) 0.5628(1)
O5A O 0.5897(3) 0.3480(3) 0.97767(10)
O8A O 0.7853(3) 0.6033(3) 1.00218(11)
O11* O 0.4044(3) 1.0028(3) 0.94464(10)
O11A O 0.5956(3) 0.9972(3) 1.05536(10)
O12* O 0.3034(3) 0.9085(3) 0.83565(10)
O14* O 0.1317(3) 0.6051(3) 0.56393(11)
O16* O 0.0406(3) 0.9202(3) 0.59120(11)
O22* O 0.0337(3) 0.4492(3) 0.82479(13)
O24* O -0.0586(3) 0.7625(3) 0.84915(11)
#END
