
#######################################################################
#
#                 Cambridge Crystallographic Data Centre
#                                CCDC
#
#######################################################################
#
# If this CIF has been generated from an entry in the Cambridge
# Structural Database, then it will include bibliographic, chemical,
# crystal, experimental, refinement or atomic coordinate data resulting
# from the CCDC's data processing and validation procedures.
#
#######################################################################

data_CSD_CIF_VUCVAT
_audit_creation_date 2019-11-29
_audit_creation_method CSD-ConQuest-V1
_database_code_CSD VUCVAT
_database_code_depnum_ccdc_archive 'CCDC 1960360'
_chemical_formula_sum 'C23 H40.5 Cu1 I1 N4.5 O10 Sb1'
_chemical_formula_moiety
;
(C18 H20 Cu1 I1 N2 O6 Sb1 1-)n,n(C2 H8 N1 1+),1.5n(C2 H5 N1 O1),2.5n(H2 O1)
;
_journal_coden_Cambridge 182
_journal_volume 55
_journal_year 2019
_journal_page_first 15113
_journal_name_full 'Chem.Commun. '
loop_
_publ_author_name
"Li-Dan Lin"
"Zhong Li"
"Jin-Hua Liu"
"Yan-Qiong Sun"
"Xin-Xiong Li"
"Shou-Tian Zheng"
_chemical_name_systematic
;
catena-(dimethylammonium 
(\m-iodo)-bis(\m-2-(oxymethyl)-2-(4-pyridyl)propane-1,3-diolato)-antimony-copp
er N-methylformamide solvate hydrate)
;
_cell_volume   3546.440
_exptl_crystal_colour 'yellow'
_exptl_crystal_description 'block'
_diffrn_ambient_temperature 296
_refine_special_details
;
The SQUEEZE/PLATON program was used to model the disordered.

;
#These two values have been output from a single CSD field.
_refine_ls_R_factor_gt 0.0607
_refine_ls_wR_factor_gt 0.0607
_symmetry_cell_setting monoclinic
_symmetry_space_group_name_H-M 'C 2/m'
_symmetry_Int_Tables_number 12
loop_
_symmetry_equiv_pos_site_id
_symmetry_equiv_pos_as_xyz
1 x,y,z
2 -x,y,-z
3 1/2+x,1/2+y,z
4 1/2-x,1/2+y,-z
5 -x,-y,-z
6 x,-y,z
7 -1/2-x,-1/2-y,-z
8 -1/2+x,-1/2-y,z
_cell_length_a 17.557(3)
_cell_length_b 26.674(4)
_cell_length_c 8.0497(12)
_cell_angle_alpha 90
_cell_angle_beta 109.822(3)
_cell_angle_gamma 90
_cell_formula_units_Z 4
loop_
_atom_type_symbol
_atom_type_radius_bond
C 0.68
H 0.23
Cu 1.32
I 1.40
N 0.68
O 0.68
Sb 1.39
loop_
_atom_site_label
_atom_site_type_symbol
_atom_site_fract_x
_atom_site_fract_y
_atom_site_fract_z
Sb1 Sb 0.25000 -0.25000 1.50000
Cu1 Cu 0.00000 -0.04954(4) 0.50000
I1 I 0.11365(5) 0.00000 0.41887(9)
N1 N 0.0585(5) -0.0910(2) 0.7172(7)
O1 O 0.2977(5) -0.2349(3) 1.3169(10)
O2 O 0.2226(6) -0.1796(3) 1.5124(9)
O3 O 0.1462(6) -0.2606(3) 1.3133(9)
C1 C 0.0677(8) -0.0755(4) 0.8786(12)
H1 H 0.04740 -0.04410 0.89080
C2 C 0.1274(6) -0.1654(3) 0.8544(10)
H2 H 0.14830 -0.19630 0.83820
C3 C 0.1053(8) -0.1025(4) 1.0303(12)
H3 H 0.11030 -0.08840 1.13910
C4 C 0.1357(5) -0.1501(3) 1.0248(9)
C5 C 0.0892(5) -0.1364(3) 0.7098(9)
H4 H 0.08440 -0.14920 0.59910
C6 C 0.1735(6) -0.1819(3) 1.1858(10)
C7 C 0.1873(8) -0.1533(4) 1.3568(11)
H5 H 0.22110 -0.12450 1.35740
H6 H 0.13540 -0.14070 1.35640
C8 C 0.1241(10) -0.2244(6) 1.1777(19)
H7 H 0.07080 -0.21220 1.16810
H8 H 0.11850 -0.24170 1.06810
C9 C 0.2603(8) -0.1969(5) 1.1885(16)
H9 H 0.25660 -0.20890 1.07230
H10 H 0.29440 -0.16730 1.21360
N1F N 0.4415(5) -0.4090(2) 2.2828(7)
O1F O 0.2023(5) -0.2651(3) 1.6831(10)
O2F O 0.2774(6) -0.3204(3) 1.4876(9)
O3F O 0.3538(6) -0.2394(3) 1.6867(9)
C1F C 0.4323(8) -0.4245(4) 2.1214(12)
H1F H 0.45260 -0.45590 2.10920
C2F C 0.3726(6) -0.3346(3) 2.1456(10)
H2F H 0.35170 -0.30370 2.16180
C3F C 0.3947(8) -0.3975(4) 1.9697(12)
H3F H 0.38970 -0.41160 1.86090
C4F C 0.3643(5) -0.3499(3) 1.9752(9)
C5F C 0.4108(5) -0.3636(3) 2.2902(9)
H4F H 0.41560 -0.35080 2.40090
C6F C 0.3265(6) -0.3181(3) 1.8142(10)
C7F C 0.3127(8) -0.3467(4) 1.6432(11)
H5F H 0.27890 -0.37550 1.64260
H6F H 0.36460 -0.35930 1.64360
C8F C 0.3759(10) -0.2756(6) 1.8223(19)
H7F H 0.42920 -0.28780 1.83190
H8F H 0.38150 -0.25830 1.93190
C9F C 0.2397(8) -0.3031(5) 1.8115(16)
H9F H 0.24340 -0.29110 1.92770
H10F H 0.20560 -0.33270 1.78640
Cu1D Cu 0.00000 0.04954(4) 0.50000
Cu1F Cu 0.50000 -0.45046(4) 2.50000
I1A I -0.11365(5) 0.00000 0.58113(9)
N1A N -0.0585(5) -0.0910(2) 0.2828(7)
#END
