
#######################################################################
#
#                 Cambridge Crystallographic Data Centre
#                                CCDC
#
#######################################################################
#
# If this CIF has been generated from an entry in the Cambridge
# Structural Database, then it will include bibliographic, chemical,
# crystal, experimental, refinement or atomic coordinate data resulting
# from the CCDC's data processing and validation procedures.
#
#######################################################################

data_CSD_CIF_VUCZUR
_audit_creation_date 2019-11-29
_audit_creation_method CSD-ConQuest-V1
_database_code_CSD VUCZUR
_database_code_depnum_ccdc_archive 'CCDC 1938088'
_chemical_formula_sum 'C29 H24 Mn1 N1 O8'
_chemical_formula_moiety
;
(C22 H13 Mn1 O7 1-)n,0.5(C14 H18 N2 2+),H2 O1
;
_journal_coden_Cambridge 222
_journal_volume 48
_journal_year 2019
_journal_page_first 17770
_journal_name_full 'Dalton Trans. '
loop_
_publ_author_name
"Wei-Qiu Kan"
"Yuan-Chun He"
"Shi-Zheng Wen"
"Pu-Su Zhao"
_chemical_name_systematic
;
catena-[hemikis(1,1'-diethyl-4,4'-bipyridin-1-ium) 
(\m-5-[(2'-carboxylato[1,1'-biphenyl]-4-yl)methoxy]benzene-1,3-dicarboxylato)-
manganese(ii) monohydrate]
;
_cell_volume   1238.935
_exptl_crystal_colour 'yellow'
_exptl_crystal_density_diffrn 1.526
_exptl_crystal_description 'block'
_diffrn_ambient_temperature 293
#These two values have been output from a single CSD field.
_refine_ls_R_factor_gt 0.043
_refine_ls_wR_factor_gt 0.043
_symmetry_cell_setting triclinic
_symmetry_space_group_name_H-M 'P -1'
_symmetry_Int_Tables_number 2
loop_
_symmetry_equiv_pos_site_id
_symmetry_equiv_pos_as_xyz
1 x,y,z
2 -x,-y,-z
_cell_length_a 9.6652(8)
_cell_length_b 11.6743(12)
_cell_length_c 11.8784(10)
_cell_angle_alpha 71.653(5)
_cell_angle_beta 80.651(5)
_cell_angle_gamma 78.363(6)
_cell_formula_units_Z 2
loop_
_atom_type_symbol
_atom_type_radius_bond
C 0.68
H 0.23
Mn 1.61
N 0.68
O 0.68
loop_
_atom_site_label
_atom_site_type_symbol
_atom_site_fract_x
_atom_site_fract_y
_atom_site_fract_z
Mn1 Mn 0.12060(4) 0.43800(4) 0.09077(4)
C1 C -0.1739(3) 0.3689(3) 0.1636(2)
C2 C -0.6772(3) 0.3058(3) 0.2744(2)
C3 C -0.5265(3) 0.2719(3) 0.3055(2)
C4 C -0.4918(3) 0.1957(3) 0.4170(2)
H1 H -0.56180 0.15950 0.47230
C5 C -0.3533(3) 0.1733(3) 0.4461(2)
C6 C -0.2471(3) 0.2253(3) 0.3644(2)
H2 H -0.15430 0.20960 0.38360
C7 C -0.2822(3) 0.3021(3) 0.2523(2)
C8 C -0.4199(3) 0.3238(2) 0.2240(2)
H3 H -0.44160 0.37420 0.14900
C9 C -0.1946(3) 0.0624(3) 0.5948(2)
H4 H -0.14710 0.13320 0.57320
H5 H -0.14030 0.00500 0.55390
C10 C -0.2019(3) 0.0034(3) 0.7279(2)
C11 C -0.3259(3) -0.0240(3) 0.7980(3)
H6 H -0.40930 -0.00950 0.76260
C12 C -0.3277(3) -0.0731(3) 0.9210(2)
H7 H -0.41270 -0.09080 0.96680
C13 C -0.2054(3) -0.0962(3) 0.9767(2)
C14 C -0.0797(3) -0.0734(3) 0.9049(2)
H8 H 0.00470 -0.09150 0.93960
C15 C -0.0778(3) -0.0241(3) 0.7826(3)
H9 H 0.00770 -0.00920 0.73630
C16 C -0.2075(3) -0.1339(3) 1.1093(2)
C17 C -0.2894(3) -0.0580(3) 1.1723(2)
H10 H -0.34960 0.01020 1.13180
C18 C -0.2851(3) -0.0797(3) 1.2932(3)
H11 H -0.34310 -0.02770 1.33300
C19 C -0.1941(3) -0.1792(3) 1.3550(3)
H12 H -0.18730 -0.19270 1.43550
C20 C -0.1134(3) -0.2585(3) 1.2945(2)
H13 H -0.05280 -0.32590 1.33550
C21 C -0.1210(3) -0.2395(3) 1.1734(2)
C22 C -0.0514(3) -0.3388(3) 1.1203(2)
O1 O -0.0530(2) 0.35918(19) 0.19626(17)
O2 O -0.2122(2) 0.43193(18) 0.06285(16)
O3 O -0.69277(19) 0.36378(18) 0.16532(16)
O4 O -0.7760(2) 0.2789(2) 0.35342(18)
O5 O -0.3342(2) 0.0986(2) 0.55951(17)
O6 O 0.0572(2) -0.40923(18) 1.16316(17)
O7 O -0.1105(2) -0.35191(19) 1.03919(17)
C23 C -0.3081(4) 0.2277(3) 0.9540(3)
H14 H -0.29270 0.20270 1.03670
H15 H -0.22010 0.24180 0.90540
H16 H -0.34390 0.16470 0.93680
C24 C -0.4141(3) 0.3434(3) 0.9275(2)
H17 H -0.50270 0.32960 0.97740
H18 H -0.37870 0.40670 0.94610
C25 C -0.5702(3) 0.3936(3) 0.7695(3)
H19 H -0.64350 0.36940 0.82820
C26 C -0.5956(3) 0.4382(3) 0.6521(3)
H20 H -0.68640 0.44460 0.63180
C27 C -0.4874(3) 0.4736(3) 0.5634(2)
C28 C -0.3532(3) 0.4604(3) 0.5988(3)
H21 H -0.27710 0.48120 0.54180
C29 C -0.3327(3) 0.4171(3) 0.7165(3)
H22 H -0.24300 0.40980 0.73920
N1 N -0.4403(2) 0.3848(2) 0.7999(2)
O8 O -1.0419(3) 0.4180(3) 0.4341(2)
H23 H -1.05000 0.44580 0.35760
H24 H -0.95610 0.38510 0.42350
Mn1* Mn -0.87940(4) 0.43800(4) 0.09077(4)
Mn1** Mn 0.12060(4) -0.56200(4) 1.09077(4)
Mn1A Mn -0.12060(4) -0.43800(4) 0.90923(4)
Mn1A* Mn -0.12060(4) 0.56200(4) -0.09077(4)
O2A O 0.2122(2) 0.56807(18) -0.06285(16)
O3* O 0.30723(19) 0.36378(18) 0.16532(16)
O6* O 0.0572(2) 0.59077(18) 0.16316(17)
O7A O 0.1105(2) 0.35191(19) -0.03919(17)
C23A C -0.6919(4) 0.7723(3) 0.0460(3)
H14A H -0.70730 0.79730 -0.03670
H15A H -0.77990 0.75820 0.09460
H16A H -0.65610 0.83530 0.06320
C24A C -0.5859(3) 0.6566(3) 0.0725(2)
H17A H -0.49730 0.67040 0.02260
H18A H -0.62130 0.59330 0.05390
C25A C -0.4298(3) 0.6064(3) 0.2305(3)
H19A H -0.35650 0.63060 0.17180
C26A C -0.4044(3) 0.5618(3) 0.3479(3)
H20A H -0.31360 0.55540 0.36820
C27A C -0.5126(3) 0.5264(3) 0.4366(2)
C28A C -0.6468(3) 0.5396(3) 0.4012(3)
H21A H -0.72290 0.51880 0.45820
C29A C -0.6673(3) 0.5829(3) 0.2835(3)
H22A H -0.75700 0.59020 0.26080
N1A N -0.5597(2) 0.6152(2) 0.2001(2)
#END
