
#######################################################################
#
#                 Cambridge Crystallographic Data Centre
#                                CCDC
#
#######################################################################
#
# If this CIF has been generated from an entry in the Cambridge
# Structural Database, then it will include bibliographic, chemical,
# crystal, experimental, refinement or atomic coordinate data resulting
# from the CCDC's data processing and validation procedures.
#
#######################################################################

data_CSD_CIF_VUDKUB
_audit_creation_date 2010-06-10
_audit_creation_method CSD-ConQuest-V1
_database_code_CSD VUDKUB
_database_code_depnum_ccdc_archive 'CCDC 726860'
_chemical_formula_sum 'C20 H22 Ag3 I3 N6 O1 S1'
_chemical_formula_moiety
;
(C18 H16 Ag1 N6 1+)n,n(Ag2 I3 1-),n(C2 H6 O1 S1)
;
_journal_coden_Cambridge 222
_journal_year 2009
_journal_page_first 7152
_journal_name_full 'Dalton Trans. '
loop_
_publ_author_name
"C.Deissler"
"F.Rominger"
"D.Kunz"
_chemical_name_systematic
;
catena-((1,1'-(2,2'-Bipyridin-6,6'-diyl)-bis(3-methyl-1H-imidazol-1-yl-2-ylide
ne))-silver(i) (\m~4~-iodo)-bis(\m~2~-iodo)-di-silver dimethylsulfoxide 
solvate)
;
_cell_volume   1512.670
_exptl_crystal_colour 'colorless'
_exptl_crystal_density_diffrn 2.412
_exptl_crystal_description 'polyhedron'
_diffrn_ambient_temperature 200
_refine_special_details
;
The dmso solvent is equally disordered over two sites by symmetry.

;
#These two values have been output from a single CSD field.
_refine_ls_R_factor_gt 0.0881
_refine_ls_wR_factor_gt 0.0881
_symmetry_cell_setting orthorhombic
_symmetry_space_group_name_H-M 'P m m a'
_symmetry_Int_Tables_number 51
loop_
_symmetry_equiv_pos_site_id
_symmetry_equiv_pos_as_xyz
1 x,y,z
2 1/2-x,-y,z
3 -x,y,-z
4 1/2+x,-y,-z
5 -x,-y,-z
6 -1/2+x,y,-z
7 x,-y,z
8 -1/2-x,y,z
_cell_length_a 6.7715(4)
_cell_length_b 15.2581(5)
_cell_length_c 14.6406(7)
_cell_angle_alpha 90
_cell_angle_beta 90
_cell_angle_gamma 90
_cell_formula_units_Z 2
loop_
_atom_type_symbol
_atom_type_radius_bond
C 0.68
H 0.23
Ag 1.40
I 1.40
N 0.68
O 0.68
S 1.02
loop_
_atom_site_label
_atom_site_type_symbol
_atom_site_fract_x
_atom_site_fract_y
_atom_site_fract_z
Ag1 Ag 0.25000 0.50000 -0.1699(4)
Ag2 Ag 0.50000 0.1080(2) 0.50000
I1 I 0.75000 0.00000 0.3843(2)
I2 I 0.75000 0.1971(3) 0.6172(3)
C1 C 0.25000 0.593(4) 0.159(4)
H1 H 0.25000 0.56800 0.21850
C2 C 0.25000 0.682(3) 0.142(3)
H2 H 0.25000 0.71740 0.19590
C3 C 0.25000 0.730(3) 0.061(3)
H3 H 0.25000 0.79250 0.05700
C4 C 0.25000 0.672(3) -0.015(3)
N1 N 0.25000 0.581(2) -0.010(3)
C5 C 0.25000 0.548(3) 0.081(3)
C6 C 0.25000 0.639(3) -0.183(3)
N2 N 0.25000 0.692(2) -0.107(2)
C7 C 0.25000 0.781(3) -0.139(3)
H4 H 0.25000 0.83200 -0.10180
C8 C 0.25000 0.779(3) -0.228(3)
H5 H 0.25000 0.82890 -0.26720
N3 N 0.25000 0.689(3) -0.256(3)
C9 C 0.25000 0.657(3) -0.343(3)
H6 H 0.24910 0.59260 -0.34140
H7 H 0.36770 0.67760 -0.37570
S1 S 0.25000 0.00000 0.0851(14)
O1 O 0.25000 0.063(4) 0.020(4)
C10 C 0.443(7) 0.00000 0.164(3)
H8? H 0.42490 0.04860 0.20720
H9? H 0.56890 0.00690 0.13220
H10 H 0.44290 -0.05560 0.19790
H11? H 0.13140 0.32310 -0.37550
Ag2A Ag 1.00000 -0.1080(2) 0.50000
Ag2D Ag 0.50000 -0.1080(2) 0.50000
Ag2E Ag 1.00000 0.1080(2) 0.50000
Ag2E* Ag 0.00000 0.1080(2) 0.50000
I1B I 0.25000 0.00000 0.6157(2)
I1B* I 1.25000 0.00000 0.6157(2)
I2B I 0.25000 0.1971(3) 0.3828(3)
I2A I 0.75000 -0.1971(3) 0.6172(3)
I2C I 1.25000 -0.1971(3) 0.3828(3)
C1A C 0.25000 0.407(4) 0.159(4)
H1A H 0.25000 0.43200 0.21850
C2A C 0.25000 0.318(3) 0.142(3)
H2A H 0.25000 0.28260 0.19590
C3A C 0.25000 0.270(3) 0.061(3)
H3A H 0.25000 0.20750 0.05700
C4A C 0.25000 0.328(3) -0.015(3)
N1A N 0.25000 0.419(2) -0.010(3)
C5A C 0.25000 0.452(3) 0.081(3)
C6A C 0.25000 0.361(3) -0.183(3)
N2A N 0.25000 0.308(2) -0.107(2)
C7A C 0.25000 0.219(3) -0.139(3)
H4A H 0.25000 0.16800 -0.10180
C8A C 0.25000 0.221(3) -0.228(3)
H5A H 0.25000 0.17110 -0.26720
N3A N 0.25000 0.311(3) -0.256(3)
C9A C 0.25000 0.343(3) -0.343(3)
H6A H 0.25090 0.40740 -0.34140
H7A H 0.13230 0.32240 -0.37570
H7F H 0.36770 0.32240 -0.37570
H7G H 0.13230 0.67760 -0.37570
O1A O 0.25000 -0.063(4) 0.020(4)
C10A C 0.057(7) 0.00000 0.164(3)
H10F H 0.44290 0.05560 0.19790
H10A H 0.05710 0.05560 0.19790
H10G H 0.05710 -0.05560 0.19790
#END
