
#######################################################################
#
#                 Cambridge Crystallographic Data Centre
#                                CCDC
#
#######################################################################
#
# If this CIF has been generated from an entry in the Cambridge
# Structural Database, then it will include bibliographic, chemical,
# crystal, experimental, refinement or atomic coordinate data resulting
# from the CCDC's data processing and validation procedures.
#
#######################################################################

data_CSD_CIF_VUDPAO
_audit_creation_date 2019-11-29
_audit_creation_method CSD-ConQuest-V1
_database_code_CSD VUDPAO
_database_code_depnum_ccdc_archive 'CCDC 1938083'
_chemical_formula_sum 'C56 H44 Co2 N2 O16'
_chemical_formula_moiety
;
(C22 H13 Co1 O7 1-)2n,n(C12 H14 N2 2+),2n(H2 O1)
;
_journal_coden_Cambridge 222
_journal_volume 48
_journal_year 2019
_journal_page_first 17770
_journal_name_full 'Dalton Trans. '
loop_
_publ_author_name
"Wei-Qiu Kan"
"Yuan-Chun He"
"Shi-Zheng Wen"
"Pu-Su Zhao"
_chemical_name_systematic
;
catena-(1,1'-dimethyl-4,4'-bi-(pyridin-1-ium) 
bis((\m-3-carboxylato-5-[(2'-carboxylato[1,1'-biphenyl]-4-yl)methoxy]benzoate)
-cobalt) dihydrate)
;
_cell_volume   1175.920
_exptl_crystal_colour 'green'
_exptl_crystal_density_diffrn 1.58
_exptl_crystal_description 'block'
_diffrn_ambient_temperature 293
#These two values have been output from a single CSD field.
_refine_ls_R_factor_gt 0.0433
_refine_ls_wR_factor_gt 0.0433
_symmetry_cell_setting triclinic
_symmetry_space_group_name_H-M 'P -1'
_symmetry_Int_Tables_number 2
loop_
_symmetry_equiv_pos_site_id
_symmetry_equiv_pos_as_xyz
1 x,y,z
2 -x,-y,-z
_cell_length_a 9.5637(17)
_cell_length_b 10.988(2)
_cell_length_c 11.922(2)
_cell_angle_alpha 72.491(3)
_cell_angle_beta 83.489(3)
_cell_angle_gamma 80.575(3)
_cell_formula_units_Z 1
loop_
_atom_type_symbol
_atom_type_radius_bond
C 0.68
H 0.23
Co 1.26
N 0.68
O 0.68
loop_
_atom_site_label
_atom_site_type_symbol
_atom_site_fract_x
_atom_site_fract_y
_atom_site_fract_z
Co1 Co 0.88704(4) 0.05465(4) 0.91106(3)
C1 C 0.6849(3) 0.1865(3) 0.7284(3)
C2 C 0.1754(3) 0.1319(3) 0.8477(2)
C3 C 0.5309(3) 0.2204(3) 0.7009(2)
C4 C 0.4254(3) 0.1733(3) 0.7846(2)
H1 H 0.44940 0.12600 0.86040
C5 C 0.2844(3) 0.1955(3) 0.7576(2)
C6 C 0.2467(3) 0.2684(3) 0.6445(2)
H2 H 0.15250 0.28440 0.62560
C7 C 0.3526(3) 0.3164(3) 0.5609(2)
C8 C 0.4934(3) 0.2928(3) 0.5881(2)
H3 H 0.56310 0.32540 0.53100
C9 C 0.1903(3) 0.4264(4) 0.4105(3)
H4 H 0.14260 0.49140 0.44680
H5 H 0.13720 0.35360 0.43480
C10 C 0.1967(3) 0.4807(3) 0.2781(2)
C11 C 0.0719(3) 0.5254(3) 0.2214(2)
H6 H -0.01470 0.52540 0.26570
C12 C 0.0742(3) 0.5699(3) 0.1000(2)
H7 H -0.01120 0.59860 0.06390
C13 C 0.2006(3) 0.5727(3) 0.0308(2)
C14 C 0.3241(3) 0.5320(4) 0.0892(3)
H8 H 0.41090 0.53560 0.04530
C15 C 0.3231(3) 0.4861(4) 0.2104(3)
H9 H 0.40850 0.45860 0.24650
C16 C 0.2041(3) 0.6124(3) -0.1003(2)
C17 C 0.2845(3) 0.5334(3) -0.1626(3)
H10 H 0.33910 0.45860 -0.12130
C18 C 0.2858(3) 0.5628(3) -0.2841(3)
H11 H 0.34340 0.50970 -0.32350
C19 C 0.2017(3) 0.6708(3) -0.3467(3)
H12 H 0.19990 0.68980 -0.42810
C20 C 0.1205(3) 0.7501(3) -0.2871(3)
H13 H 0.06210 0.82210 -0.32870
C21 C 0.1239(3) 0.7249(3) -0.1658(2)
C22 C 0.0551(3) 0.8290(3) -0.1117(3)
O1 O 0.7061(2) 0.1285(2) 0.83608(17)
O2 O 0.7778(2) 0.2125(3) 0.64863(19)
O3 O 0.2161(2) 0.0722(2) 0.94856(16)
O4 O 0.0530(2) 0.1381(2) 0.81467(17)
O5 O 0.3297(2) 0.3869(2) 0.44640(18)
O6 O 0.1191(2) 0.8452(2) -0.03206(18)
O7 O -0.0559(2) 0.8981(2) -0.1537(2)
C23 C 0.3523(4) 0.0639(4) 0.3965(3)
H14 H 0.27410 0.04870 0.45020
C24 C 0.3318(4) 0.1170(4) 0.2795(3)
H15 H 0.24030 0.13640 0.25390
C25 C 0.5746(4) 0.1153(4) 0.2365(3)
H16 H 0.65050 0.13470 0.18120
C26 C 0.5999(4) 0.0602(3) 0.3533(3)
H17 H 0.69260 0.04140 0.37640
C27 C 0.4875(3) 0.0324(3) 0.4369(3)
C28 C 0.4183(5) 0.1929(4) 0.0746(3)
H18 H 0.50740 0.20540 0.02970
H19 H 0.35720 0.27370 0.06090
H20 H 0.37430 0.13290 0.05080
N1 N 0.4431(3) 0.1413(3) 0.2015(2)
O8 O 1.0366(3) 0.0860(3) 0.5693(3)
H21 H 0.9509(18) 0.096(3) 0.593(4)
H22 H 1.0735(12) 0.0185(8) 0.5554(11)
Co1* Co -0.11296(4) 0.05465(4) 0.91106(3)
Co1** Co -0.11296(4) 1.05465(4) -0.08894(3)
Co1A Co 0.11296(4) -0.05465(4) 1.08894(3)
Co1A* Co 0.11296(4) 0.94535(4) 0.08894(3)
O3A O 0.7839(2) -0.0722(2) 1.05144(16)
O4* O 1.0530(2) 0.1381(2) 0.81467(17)
O6A O 0.8809(2) 0.1548(2) 1.03206(18)
O7* O 0.9441(2) -0.1019(2) 0.8463(2)
C23A C 0.6477(4) -0.0639(4) 0.6035(3)
H14A H 0.72590 -0.04870 0.54980
C24A C 0.6682(4) -0.1170(4) 0.7205(3)
H15A H 0.75970 -0.13640 0.74610
C25A C 0.4254(4) -0.1153(4) 0.7635(3)
H16A H 0.34950 -0.13470 0.81880
C26A C 0.4001(4) -0.0602(3) 0.6467(3)
H17A H 0.30740 -0.04140 0.62360
C27A C 0.5125(3) -0.0324(3) 0.5631(3)
C28A C 0.5817(5) -0.1929(4) 0.9254(3)
H18A H 0.49260 -0.20540 0.97030
H19A H 0.64280 -0.27370 0.93910
H20A H 0.62570 -0.13290 0.94920
N1A N 0.5569(3) -0.1413(3) 0.7985(2)
#END
