
#######################################################################
#
#                 Cambridge Crystallographic Data Centre
#                                CCDC
#
#######################################################################
#
# If this CIF has been generated from an entry in the Cambridge
# Structural Database, then it will include bibliographic, chemical,
# crystal, experimental, refinement or atomic coordinate data resulting
# from the CCDC's data processing and validation procedures.
#
#######################################################################

data_CSD_CIF_VUDPES
_audit_creation_date 2019-11-29
_audit_creation_method CSD-ConQuest-V1
_database_code_CSD VUDPES
_database_code_depnum_ccdc_archive 'CCDC 1938084'
_chemical_formula_sum 'C56 H44 Mn2 N2 O16'
_chemical_formula_moiety
;
2(C22 H13 Mn1 O7 1-)n,C12 H14 N2 2+,2(H2 O1)
;
_journal_coden_Cambridge 222
_journal_volume 48
_journal_year 2019
_journal_page_first 17770
_journal_name_full 'Dalton Trans. '
loop_
_publ_author_name
"Wei-Qiu Kan"
"Yuan-Chun He"
"Shi-Zheng Wen"
"Pu-Su Zhao"
_chemical_name_systematic
;
catena-(1,1'-dimethyl-4,4'-bi-(pyridin-1-ium) 
bis((\m-3-carboxylato-5-[(2'-carboxylato[1,1'-biphenyl]-4-yl)methoxy]benzoate)
-manganese) dihydrate)
;
_cell_volume   1168.797
_exptl_crystal_colour 'yellow'
_exptl_crystal_density_diffrn 1.578
_exptl_crystal_description 'block'
_diffrn_ambient_temperature 293
#These two values have been output from a single CSD field.
_refine_ls_R_factor_gt 0.0429
_refine_ls_wR_factor_gt 0.0429
_symmetry_cell_setting triclinic
_symmetry_space_group_name_H-M 'P -1'
_symmetry_Int_Tables_number 2
loop_
_symmetry_equiv_pos_site_id
_symmetry_equiv_pos_as_xyz
1 x,y,z
2 -x,-y,-z
_cell_length_a 9.6912(5)
_cell_length_b 10.6438(5)
_cell_length_c 12.0650(5)
_cell_angle_alpha 72.106(2)
_cell_angle_beta 83.744(2)
_cell_angle_gamma 81.562(2)
_cell_formula_units_Z 1
loop_
_atom_type_symbol
_atom_type_radius_bond
C 0.68
H 0.23
Mn 1.61
N 0.68
O 0.68
loop_
_atom_site_label
_atom_site_type_symbol
_atom_site_fract_x
_atom_site_fract_y
_atom_site_fract_z
Mn1 Mn 0.61952(4) 0.44264(4) 0.09144(3)
C1 C 0.4537(3) 0.6715(3) 0.1202(2)
C2 C 0.3781(3) 0.7771(3) 0.1699(2)
C3 C 0.3790(3) 0.7542(3) 0.2903(2)
H1 H 0.43890 0.68380 0.33320
C4 C 0.2927(3) 0.8341(3) 0.3468(2)
H2 H 0.29250 0.81640 0.42730
C5 C 0.2063(3) 0.9410(3) 0.2818(2)
H3 H 0.14570 0.99420 0.31870
C6 C 0.2108(3) 0.9682(3) 0.1615(2)
H4 H 0.15550 1.04250 0.11850
C7 C 0.2953(3) 0.8881(3) 0.1030(2)
C8 C 0.2986(3) 0.9259(3) -0.0271(2)
C9 C 0.1760(3) 0.9654(3) -0.0844(2)
H5 H 0.09070 0.96130 -0.04060
C10 C 0.1771(3) 1.0111(3) -0.2053(2)
H6 H 0.09310 1.03770 -0.24120
C11 C 0.3019(3) 1.0173(3) -0.2727(2)
C12 C 0.4255(3) 0.9734(3) -0.2166(2)
H7 H 0.51040 0.97370 -0.26080
C13 C 0.4244(3) 0.9294(3) -0.0960(2)
H8 H 0.50860 0.90180 -0.06030
C14 C 0.3079(3) 1.0718(3) -0.4040(2)
H9 H 0.36010 1.14800 -0.42970
H10 H 0.35430 1.00460 -0.43890
C15 C 0.1478(3) 1.1779(3) -0.5535(2)
C16 C 0.0088(3) 1.2010(3) -0.5803(2)
H11 H -0.06040 1.17020 -0.52250
C17 C -0.0273(3) 1.2703(3) -0.6938(2)
C18 C 0.0780(3) 1.3151(3) -0.7790(2)
H12 H 0.05510 1.35930 -0.85530
C19 C 0.2167(3) 1.2950(3) -0.7518(2)
C20 C 0.2529(3) 1.2253(3) -0.6381(2)
H13 H 0.34570 1.21080 -0.61930
C21 C -0.1784(3) 1.3043(3) -0.7226(2)
C22 C 0.3253(3) 1.3572(3) -0.8428(2)
O1 O 0.5662(2) 0.60903(19) 0.16277(17)
O2 O 0.3960(2) 0.64513(19) 0.04314(16)
O3 O 0.1689(2) 1.1101(2) -0.43857(16)
O4 O -0.2716(2) 1.2800(3) -0.64298(18)
O5 O -0.1976(2) 1.3613(2) -0.83060(16)
O6 O 0.2865(2) 1.4127(2) -0.94466(16)
O7 O 0.4454(2) 1.3537(2) -0.81041(16)
C23 C 0.0817(4) 1.6096(3) -0.7618(3)
H14 H 0.15820 1.62550 -0.81560
C24 C 0.1023(3) 1.5566(3) -0.6446(3)
H15 H 0.19270 1.53730 -0.62000
C25 C -0.0107(3) 1.5316(3) -0.5629(2)
C26 C -0.1431(3) 1.5664(3) -0.6047(3)
H16 H -0.22150 1.55440 -0.55260
C27 C -0.1594(4) 1.6183(3) -0.7222(3)
H17 H -0.24870 1.63960 -0.74900
C28 C -0.0685(4) 1.6865(4) -0.9253(3)
H18 H -0.16680 1.70240 -0.93660
H19 H -0.02480 1.62070 -0.96140
H20 H -0.02750 1.76770 -0.95980
N1 N -0.0476(3) 1.6384(2) -0.7987(2)
O8 O 0.4677(3) 0.4101(3) 0.4355(2)
H21 H 0.442(4) 0.412(5) 0.3702(18)
H22 H 0.5379(19) 0.449(4) 0.434(3)
Mn1* Mn -0.38048(4) 1.44264(4) -0.90856(3)
Mn1** Mn 0.61952(4) 1.44264(4) -0.90856(3)
Mn1A Mn 0.38048(4) 0.55736(4) -0.09144(3)
Mn1A* Mn 0.38048(4) 1.55736(4) -1.09144(3)
O2A O 0.6040(2) 0.35487(19) -0.04314(16)
O5* O 0.8024(2) 0.3613(2) 0.16940(16)
O6A O 0.7135(2) 0.5873(2) -0.05534(16)
O7* O 0.4454(2) 0.3537(2) 0.18959(16)
C23A C -0.0817(4) 1.3904(3) -0.2382(3)
H14A H -0.15820 1.37450 -0.18440
C24A C -0.1023(3) 1.4434(3) -0.3554(3)
H15A H -0.19270 1.46270 -0.38000
C25A C 0.0107(3) 1.4684(3) -0.4371(2)
C26A C 0.1431(3) 1.4336(3) -0.3953(3)
H16A H 0.22150 1.44560 -0.44740
C27A C 0.1594(4) 1.3817(3) -0.2778(3)
H17A H 0.24870 1.36040 -0.25100
C28A C 0.0685(4) 1.3135(4) -0.0747(3)
H18A H 0.16680 1.29760 -0.06340
H19A H 0.02480 1.37930 -0.03860
H20A H 0.02750 1.23230 -0.04020
N1A N 0.0476(3) 1.3616(2) -0.2013(2)
#END
