
#######################################################################
#
#                 Cambridge Crystallographic Data Centre
#                                CCDC
#
#######################################################################
#
# If this CIF has been generated from an entry in the Cambridge
# Structural Database, then it will include bibliographic, chemical,
# crystal, experimental, refinement or atomic coordinate data resulting
# from the CCDC's data processing and validation procedures.
#
#######################################################################

data_CSD_CIF_VUGQUL
_audit_creation_date 2015-06-13
_audit_creation_method CSD-ConQuest-V1
_database_code_CSD VUGQUL
_database_code_depnum_ccdc_archive 'CCDC 898180'
_chemical_formula_sum 'C16 H28 Co1 N6 O14'
_chemical_formula_moiety
;
(C12 H4 Co1 N4 O8 2-)n,n(C4 H12 N2 2+),6n(H2 O1)
;
_journal_coeditor_code "ov3064"
_journal_coden_Cambridge 1777
_journal_volume 71
_journal_year 2015
_journal_page_first 539
_journal_name_full 'Acta Crystallogr.,Sect.C:Cryst.Struct.Chem. '
loop_
_publ_author_name
"M.Ghadermazi"
"J.Attar Gharamaleki"
"M.M.Olmstead"
"M.Almasi"
_chemical_name_systematic
;
catena-[piperazinediium bis(\m-pyrazine-2,3-dicarboxylato)-cobalt hexahydrate]
;
_cell_volume   1187.870
_exptl_crystal_colour 'gold'
_exptl_crystal_density_diffrn 1.642
_exptl_crystal_description 'lath'
_diffrn_ambient_temperature 90
#These two values have been output from a single CSD field.
_refine_ls_R_factor_gt 0.0255
_refine_ls_wR_factor_gt 0.0255
_symmetry_cell_setting monoclinic
_symmetry_space_group_name_H-M 'P 21/n'
_symmetry_Int_Tables_number 14
loop_
_symmetry_equiv_pos_site_id
_symmetry_equiv_pos_as_xyz
1 x,y,z
2 1/2-x,1/2+y,1/2-z
3 -x,-y,-z
4 -1/2+x,-1/2-y,-1/2+z
_cell_length_a 6.5238(2)
_cell_length_b 17.3808(5)
_cell_length_c 10.6599(3)
_cell_angle_alpha 90
_cell_angle_beta 100.656(3)
_cell_angle_gamma 90
_cell_formula_units_Z 2
loop_
_atom_type_symbol
_atom_type_radius_bond
C 0.68
H 0.23
Co 1.26
N 0.68
O 0.68
loop_
_atom_site_label
_atom_site_type_symbol
_atom_site_fract_x
_atom_site_fract_y
_atom_site_fract_z
Co1 Co 0.00000 0.00000 0.00000
O1 O 0.23666(12) -0.04985(5) 0.12825(7)
O2 O 0.55067(13) -0.02475(5) 0.24765(8)
O3 O 0.80158(13) 0.13153(5) 0.30239(8)
O4 O 0.92673(12) 0.06019(5) 0.15954(8)
N1 N 0.23817(14) 0.08169(5) 0.00078(9)
N2 N 0.57931(15) 0.17953(6) 0.03747(9)
C1 C 0.41064(16) 0.06441(6) 0.08623(10)
C2 C 0.58346(16) 0.11325(6) 0.10262(10)
C3 C 0.40667(18) 0.19561(7) -0.04732(11)
H1 H 0.40060 0.24190 -0.09530
C4 C 0.23572(17) 0.14636(7) -0.06702(11)
H2 H 0.11630 0.15880 -0.12920
C5 C 0.40230(17) -0.00927(6) 0.16184(10)
C6 C 0.78639(17) 0.09878(6) 0.19544(10)
N3 N 0.09950(16) 0.07302(6) 0.49606(10)
H3 H 0.019(3) 0.0943(10) 0.4241(16)
H4 H 0.194(3) 0.1075(10) 0.5287(16)
C7 C 0.20088(19) 0.00148(7) 0.46019(12)
H5 H 0.29460 -0.01970 0.53600
H6 H 0.28580 0.01350 0.39470
C8 C -0.03635(19) 0.05733(7) 0.59170(11)
H7 H -0.10430 0.10560 0.61150
H8 H 0.04980 0.03790 0.67170
O5 O 0.22510(15) 0.31043(6) 0.23296(9)
H9 H 0.285(3) 0.2712(8) 0.2771(16)
H10 H 0.232(3) 0.3492(8) 0.2872(16)
O6 O 0.35034(15) 0.19415(6) 0.59026(10)
H11 H 0.471(2) 0.1953(13) 0.6459(17)
H12 H 0.288(3) 0.2389(8) 0.591(2)
O7 O 0.41755(17) 0.18273(7) 0.34547(11)
H13 H 0.427(3) 0.1796(11) 0.4310(9)
H14 H 0.5462(19) 0.1699(13) 0.3368(19)
O1B O -0.23666(12) 0.04985(5) -0.12825(7)
O2B O -0.55067(13) 0.02475(5) -0.24765(8)
O3B O -0.80158(13) -0.13153(5) -0.30239(8)
O4B O -0.92673(12) -0.06019(5) -0.15954(8)
N1B N -0.23817(14) -0.08169(5) -0.00078(9)
N2B N -0.57931(15) -0.17953(6) -0.03747(9)
C1B C -0.41064(16) -0.06441(6) -0.08623(10)
C2B C -0.58346(16) -0.11325(6) -0.10262(10)
C3B C -0.40667(18) -0.19561(7) 0.04732(11)
H1B H -0.40060 -0.24190 0.09530
C4B C -0.23572(17) -0.14636(7) 0.06702(11)
H2B H -0.11630 -0.15880 0.12920
C5B C -0.40230(17) 0.00927(6) -0.16184(10)
C6B C -0.78639(17) -0.09878(6) -0.19544(10)
Co1* Co -1.00000 0.00000 0.00000
Co1** Co 1.00000 0.00000 0.00000
O4* O -0.07327(12) 0.06019(5) 0.15954(8)
O4B* O 0.07327(12) -0.06019(5) -0.15954(8)
N3B N -0.09950(16) -0.07302(6) 0.50394(10)
H3B H -0.019(3) -0.0943(10) 0.5759(16)
H4B H -0.194(3) -0.1075(10) 0.4713(16)
C7B C -0.20088(19) -0.00148(7) 0.53981(12)
H5B H -0.29460 0.01970 0.46400
H6B H -0.28580 -0.01350 0.60530
C8B C 0.03635(19) -0.05733(7) 0.40830(11)
H7B H 0.10430 -0.10560 0.38850
H8B H -0.04980 -0.03790 0.32830
#END
