
#######################################################################
#
#                 Cambridge Crystallographic Data Centre
#                                CCDC
#
#######################################################################
#
# If this CIF has been generated from an entry in the Cambridge
# Structural Database, then it will include bibliographic, chemical,
# crystal, experimental, refinement or atomic coordinate data resulting
# from the CCDC's data processing and validation procedures.
#
#######################################################################

data_CSD_CIF_VUHFAG
_audit_creation_date 2010-05-26
_audit_creation_method CSD-ConQuest-V1
_database_code_CSD VUHFAG
_database_code_depnum_ccdc_archive 'CCDC 693394'
_chemical_formula_sum 'C56 H64 Cu3 N16 O44 P1 W12'
_chemical_formula_moiety
;
(C14 H14 Cu1 N4 1+)3n,n(O40 P1 W12 3-),n(C14 H14 N4),4n(H2 O1)
;
_journal_coden_Cambridge 1350
_journal_volume 11
_journal_year 2009
_journal_page_first 902
_journal_name_full 'CrystEngComm '
loop_
_publ_author_name
"Peng-Peng Zhang"
"Jun Peng"
"Jing-Quan Sha"
"Ai-Xiang Tian"
"Hai-Jun Pang"
"Yuan Chen"
"Min Zhu"
_chemical_name_systematic
;
catena-(tris((\m~2~-1,4-bis(Imidazol-1-ylmethyl)benzene)-copper(i)) 
(\m~12~-phosphato)-tetracosakis(\m~2~-oxo)-dodecaoxo-dodeca-tungsten(vi) 
1,4-bis(imidazol-1-ylmethyl)benzene tetrahydrate)
;
_cell_volume   2091.357
_exptl_crystal_colour 'brown'
_exptl_crystal_density_diffrn 3.243
_exptl_crystal_description 'block'
_diffrn_ambient_temperature 293
_refine_special_details
;
O13,O16,O21,O22 disordered by symmetry over two sites with occupancy 0.50.

;
#These two values have been output from a single CSD field.
_refine_ls_R_factor_gt 0.0506
_refine_ls_wR_factor_gt 0.0506
_symmetry_cell_setting triclinic
_symmetry_space_group_name_H-M 'P -1'
_symmetry_Int_Tables_number 2
loop_
_symmetry_equiv_pos_site_id
_symmetry_equiv_pos_as_xyz
1 x,y,z
2 -x,-y,-z
_cell_length_a 13.264(3)
_cell_length_b 13.611(3)
_cell_length_c 14.666(3)
_cell_angle_alpha 109.40(3)
_cell_angle_beta 116.56(3)
_cell_angle_gamma 98.51(3)
_cell_formula_units_Z 1
loop_
_atom_type_symbol
_atom_type_radius_bond
C 0.68
H 0.23
Cu 1.32
N 0.68
O 0.68
P 1.05
W 1.35
loop_
_atom_site_label
_atom_site_type_symbol
_atom_site_fract_x
_atom_site_fract_y
_atom_site_fract_z
W1 W 0.55270(6) 0.47928(6) -0.24814(5)
W2 W 0.39774(6) 0.65546(5) -0.33264(5)
W3 W 0.81242(5) 0.56854(5) -0.39239(6)
W4 W 0.70965(6) 0.72770(5) -0.22876(5)
W5 W 0.64755(6) 0.31938(6) -0.41927(6)
W6 W 0.33695(6) 0.25377(5) -0.51992(6)
P1 P 0.50000 0.50000 -0.50000
Cu1 Cu 1.39649(18) 1.57177(17) 0.91465(18)
Cu2 Cu 1.50000 1.00000 0.50000
N1 N 1.7158(11) 1.7915(10) 1.1933(10)
N2 N 1.5466(12) 1.6823(11) 1.0268(11)
N3 N 2.0639(12) 2.3752(10) 1.6453(12)
N4 N 1.6110(13) 1.0542(12) 0.8219(11)
N5 N 1.5415(11) 1.0451(11) 0.6507(11)
N6 N 0.9059(13) 0.2043(11) 0.9258(12)
N7 N 2.2394(12) 2.4666(11) 1.8032(12)
N8 N 0.9184(16) 0.0459(14) 0.8362(17)
C1 C 1.6086(13) 1.7145(12) 1.1409(13)
H1 H 1.57960 1.68610 1.17750
C2 C 1.8070(15) 1.8443(14) 1.3146(14)
H2 H 1.87570 1.82130 1.32580
H3 H 1.77460 1.81890 1.35370
C3 C 2.0482(14) 2.3656(14) 1.7282(15)
H4 H 1.97710 2.32880 1.71930
C4 C 2.1606(15) 2.4224(15) 1.8285(14)
H5 H 2.17950 2.42950 1.90000
C5 C 1.9514(14) 2.0336(15) 1.3835(13)
H6 H 1.99830 1.99880 1.36280
C6 C 2.1778(17) 2.4372(14) 1.6948(15)
H7 H 2.20980 2.45730 1.65600
C7 C 1.7819(14) 2.0228(12) 1.4008(13)
H8 H 1.71230 1.98190 1.39150
C8 C 1.6216(16) 1.7449(14) 1.0109(14)
H9 H 1.60400 1.74200 0.94090
C9 C 1.8197(14) 2.1396(15) 1.4496(14)
H10 H 1.77360 2.17580 1.47030
C10 C 1.9872(15) 2.1485(12) 1.4301(13)
H11 H 2.05450 2.18840 1.43540
C11 C 1.9279(14) 2.2028(14) 1.4674(13)
C12 C 0.9214(16) 0.3018(14) 1.0193(14)
H12 H 0.84610 0.29380 1.01670
H13 H 0.98160 0.30780 1.09190
C13 C 1.0820(16) 0.4638(15) 1.0667(16)
H14 H 1.13780 0.44090 1.11300
C14 C 0.9603(14) 0.4051(13) 1.0089(13)
C15 C 1.5730(15) 1.0118(13) 0.9570(13)
C16 C 1.4533(16) 0.9908(16) 0.8925(14)
H15 H 1.42030 0.98310 0.81850
C17 C 1.5505(15) 1.1468(13) 0.7244(14)
H16 H 1.53110 1.20270 0.70480
C18 C 1.5780(13) 0.9898(12) 0.7141(12)
H17 H 1.57980 0.91830 0.68710
C19 C 1.9677(15) 2.3272(13) 1.5249(14)
H18 H 1.99600 2.35700 1.48560
H19 H 1.89950 2.34870 1.51940
C20 C 1.7233(15) 1.8103(14) 1.1098(14)
H20 H 1.78840 1.86040 1.12080
C21 C 1.8482(13) 1.9692(12) 1.3669(12)
C22 C 0.8620(18) 0.0828(18) 0.7567(17)
H21 H 0.83360 0.04700 0.67920
C23 C 0.9445(18) 0.1180(19) 0.933(2)
H22 H 0.98500 0.11220 1.00090
C24 C 0.8559(16) 0.1811(15) 0.8127(15)
H23 H 0.82330 0.22550 0.78020
C25 C 1.5915(14) 1.1515(12) 0.8280(13)
H24 H 1.60420 1.21000 0.89200
C26 C 1.6563(16) 1.0235(15) 0.9145(14)
H25 H 1.66870 0.95350 0.88870
H26 H 1.73370 1.07950 0.97730
C27 C 1.6211(16) 1.0194(15) 1.0654(15)
H27 H 1.70250 1.03120 1.10970
C28 C 0.8790(14) 0.4429(13) 0.9446(15)
H28 H 0.79700 0.40540 0.90810
O1 O 1.0121(12) 0.8746(11) 0.8195(11)
O2 O 0.7754(14) 0.6731(11) -0.4508(11)
O3 O 1.1873(14) 0.7543(14) -0.1718(15)
O4 O 0.8057(11) 0.8332(9) -0.1036(9)
O5 O 0.7192(10) 0.2346(9) -0.3814(9)
O6 O 0.9585(9) 0.6001(12) -0.3445(9)
O7 O 0.5639(10) 0.7450(11) -0.2495(11)
O8 O 0.8160(12) 0.6628(11) -0.2623(12)
O9 O 0.7010(13) 0.7912(11) -0.3275(12)
O10 O 0.6766(10) 0.6120(11) -0.1897(12)
O11 O 0.5799(10) 0.4685(9) -0.130(1)
O12 O 0.2599(9) 0.1378(9) -0.5296(9)
O13 O 0.3759(11) 0.7177(11) -0.4370(11)
O14 O 0.3470(11) 0.7267(11) -0.2557(11)
O15 O 0.6191(16) 0.5879(15) -0.4253(15)
O16 O 0.2560(12) 0.5329(11) -0.4534(12)
O17 O 0.4868(15) 0.2290(14) -0.4881(15)
O18 O 0.5062(15) 0.4173(14) -0.4436(15)
O19 O 0.4132(15) 0.3469(14) -0.3611(14)
O20 O 0.7791(13) 0.448(1) -0.3633(10)
O21 O 0.4451(11) 0.5616(10) -0.2653(10)
O22 O 0.6440(15) 0.4031(14) -0.2879(15)
O23 O 0.3998(15) 0.5410(14) -0.5010(15)
O24 O 0.5285(17) 0.5687(16) -0.3828(16)
W1A W 0.44730(6) 0.52072(6) -0.75186(5)
W2A W 0.60226(6) 0.34454(5) -0.66736(5)
W3A W 0.18758(5) 0.43146(5) -0.60761(6)
W4A W 0.29035(6) 0.27230(5) -0.77124(5)
W5A W 0.35245(6) 0.68062(6) -0.58073(6)
W6A W 0.66305(6) 0.74623(5) -0.48008(6)
Cu1* Cu 2.39649(18) 2.57177(17) 1.91465(18)
Cu2* Cu 1.50000 1.00000 1.50000
N4A N 1.3890(13) 0.9458(12) 1.1781(11)
N5A N 1.4585(11) 0.9549(11) 1.3493(11)
N5A* N 1.4585(11) 0.9549(11) 0.3493(11)
N6A N 1.0941(13) 0.7957(11) 1.0742(12)
N7* N 1.2394(12) 1.4666(11) 0.8032(12)
N8A N 1.0816(16) 0.9541(14) 1.1638(17)
C12A C 1.0786(16) 0.6982(14) 0.9807(14)
H12A H 1.15390 0.70620 0.98330
H13A H 1.01840 0.69220 0.90810
C13A C 0.9180(16) 0.5362(15) 0.9333(16)
H14A H 0.86220 0.55910 0.88700
C14A C 1.0397(14) 0.5949(13) 0.9911(13)
C15A C 1.4270(15) 0.9882(13) 1.0430(13)
C16A C 1.5467(16) 1.0092(16) 1.1075(14)
H15A H 1.57970 1.01690 1.18150
C17A C 1.4495(15) 0.8532(13) 1.2756(14)
H16A H 1.46890 0.79730 1.29520
C18A C 1.4220(13) 1.0102(12) 1.2859(12)
H17A H 1.42020 1.08170 1.31290
C22A C 1.1380(18) 0.9172(18) 1.2433(17)
H21A H 1.16640 0.95300 1.32080
C23A C 1.0555(18) 0.8820(19) 1.067(2)
H22A H 1.01500 0.88780 0.99910
C24A C 1.1441(16) 0.8189(15) 1.1873(15)
H23A H 1.17670 0.77450 1.21980
C25A C 1.4085(14) 0.8485(12) 1.1720(13)
H24A H 1.39580 0.79000 1.10800
C26A C 1.3437(16) 0.9765(15) 1.0855(14)
H25A H 1.33130 1.04650 1.11130
H26A H 1.26630 0.92050 1.02270
C27A C 1.3789(16) 0.9806(15) 0.9346(15)
H27A H 1.29750 0.96880 0.89030
C28A C 1.1210(14) 0.5571(13) 1.0554(15)
H28A H 1.20300 0.59460 1.09190
O2A O 0.2246(14) 0.3269(11) -0.5492(11)
O4A O 0.1943(11) 0.1668(9) -0.8964(9)
O5A O 0.2808(10) 0.7654(9) -0.6186(9)
O6A O 0.0415(9) 0.3999(12) -0.6555(9)
O7A O 0.4361(10) 0.2550(11) -0.7505(11)
O8A O 0.1840(12) 0.3372(11) -0.7377(12)
O9A O 0.2990(13) 0.2088(11) -0.6725(12)
O10A O 0.3234(10) 0.3880(11) -0.8103(12)
O11A O 0.4201(10) 0.5315(9) -0.870(1)
O12A O 0.7401(9) 0.8622(9) -0.4704(9)
O13A O 0.6241(11) 0.2823(11) -0.5630(11)
O14A O 0.6530(11) 0.2733(11) -0.7443(11)
O15A O 0.3809(16) 0.4121(15) -0.5747(15)
O16A O 0.7440(12) 0.4671(11) -0.5466(12)
O17A O 0.5132(15) 0.7710(14) -0.5119(15)
O18A O 0.4938(15) 0.5827(14) -0.5564(15)
O19A O 0.5868(15) 0.6531(14) -0.6389(14)
O20A O 0.2209(13) 0.552(1) -0.6367(10)
O21A O 0.5549(11) 0.4384(10) -0.7347(10)
O22A O 0.3560(15) 0.5969(14) -0.7121(15)
O23A O 0.6002(15) 0.4590(14) -0.4990(15)
O24A O 0.4715(17) 0.4313(16) -0.6172(16)
#END
