
#######################################################################
#
#                 Cambridge Crystallographic Data Centre
#                                CCDC
#
#######################################################################
#
# If this CIF has been generated from an entry in the Cambridge
# Structural Database, then it will include bibliographic, chemical,
# crystal, experimental, refinement or atomic coordinate data resulting
# from the CCDC's data processing and validation procedures.
#
#######################################################################

data_CSD_CIF_VUHFEK
_audit_creation_date 2010-05-26
_audit_creation_method CSD-ConQuest-V1
_database_code_CSD VUHFEK
_database_code_depnum_ccdc_archive 'CCDC 693395'
_chemical_formula_sum 'C42 H42 Cu3 Mo12 N12 O40 P1'
_chemical_formula_moiety
;
(C42 H42 Cu3 N12 3+)n,n(Mo12 O40 P1 3-)
;
_journal_coden_Cambridge 1350
_journal_volume 11
_journal_year 2009
_journal_page_first 902
_journal_name_full 'CrystEngComm '
loop_
_publ_author_name
"Peng-Peng Zhang"
"Jun Peng"
"Jing-Quan Sha"
"Ai-Xiang Tian"
"Hai-Jun Pang"
"Yuan Chen"
"Min Zhu"
_chemical_name_systematic
;
catena-(tris(\m~2~-1,4-bis(Imidazol-1-ylmethyl)benzene)-tri-copper(i) 
(\m~12~-phosphato)-tetracosakis(\m~2~-oxo)-dodecaoxo-dodeca-molybdenum(vi))
;
_cell_volume   1723.642
_exptl_crystal_colour 'dark red'
_exptl_crystal_density_diffrn 2.628
_exptl_crystal_description 'block'
_diffrn_ambient_temperature 296
_refine_special_details
;
O15,O17,O20,O5 disordered by symmetry over two sites with occupancy 0.50.

;
#These two values have been output from a single CSD field.
_refine_ls_R_factor_gt 0.0459
_refine_ls_wR_factor_gt 0.0459
_symmetry_cell_setting triclinic
_symmetry_space_group_name_H-M 'P -1'
_symmetry_Int_Tables_number 2
loop_
_symmetry_equiv_pos_site_id
_symmetry_equiv_pos_as_xyz
1 x,y,z
2 -x,-y,-z
_cell_length_a 11.0336(15)
_cell_length_b 12.6711(17)
_cell_length_c 13.1776(18)
_cell_angle_alpha 104.684(2)
_cell_angle_beta 97.188(2)
_cell_angle_gamma 100.502(2)
_cell_formula_units_Z 1
loop_
_atom_type_symbol
_atom_type_radius_bond
C 0.68
H 0.23
Cu 1.32
Mo 1.39
N 0.68
O 0.68
P 1.05
loop_
_atom_site_label
_atom_site_type_symbol
_atom_site_fract_x
_atom_site_fract_y
_atom_site_fract_z
P1 P 0.00000 0.00000 0.50000
Mo1 Mo 0.00375(6) 0.17322(5) 0.75887(5)
Mo2 Mo -0.28718(6) -0.17691(5) 0.34496(5)
Mo3 Mo -0.04313(6) -0.12271(5) 0.71140(5)
Mo4 Mo 0.04763(6) 0.29528(5) 0.54739(6)
Mo5 Mo -0.28392(6) -0.00578(6) 0.60582(5)
Mo6 Mo -0.23938(6) 0.11764(6) 0.39499(6)
Cu1 Cu -0.73088(12) 0.75436(10) 0.12107(9)
N1 N -0.7417(6) 1.0051(6) -0.0125(5)
N2 N -0.7455(6) 0.5512(5) 0.3104(5)
N3 N -0.0867(7) 1.4625(6) 0.1039(6)
N4 N -0.7347(6) 0.6430(5) 0.1896(5)
N5 N -0.2326(6) 1.4494(5) 0.2004(5)
N6 N -0.7183(7) 0.8593(6) 0.0429(6)
C1 C -0.1696(9) 1.3676(7) 0.2076(7)
H1 H -0.18490 1.31600 0.24610
C2 C -0.6592(8) 0.9546(7) -0.0680(6)
H2 H -0.62050 0.97780 -0.11990
C3 C -0.7382(8) 0.4758(8) 0.2175(7)
H3 H -0.73770 0.40050 0.20660
C4 C -0.7319(9) 0.5342(8) 0.1455(7)
H4 H -0.72630 0.50420 0.07460
C5 C -0.7426(8) 0.6493(6) 0.2911(6)
H5 H -0.74560 0.71440 0.34190
C6 C -0.3476(8) 1.4637(7) 0.2438(7)
H6 H -0.33690 1.45810 0.31630
H7 H -0.36100 1.53770 0.24590
C7 C -0.5186(8) 1.2975(7) 0.2210(6)
H8 H -0.49030 1.30000 0.29130
C8 C -0.1827(9) 1.5050(7) 0.1377(7)
H9 H -0.20970 1.56440 0.11970
C9 C -0.6454(9) 0.8678(7) -0.0339(7)
H10 H -0.59440 0.81950 -0.05780
C10 C -0.7692(8) 1.1132(7) -0.0128(7)
H11 H -0.78210 1.11850 -0.08540
H12 H -0.84570 1.11980 0.01490
C11 C -0.5036(8) 1.3734(7) 0.0721(7)
H13 H -0.46520 1.42710 0.04250
C12 C -0.7754(9) 0.9432(7) 0.0527(7)
H14 H -0.83160 0.95770 0.09870
C13 C -0.6191(8) 1.2133(7) 0.1603(6)
H15 H -0.65780 1.16020 0.19040
C14 C -0.7453(8) 0.5272(8) 0.4137(7)
H16 H -0.76820 0.58780 0.46340
H17 H -0.80740 0.45910 0.40490
C15 C -0.6048(8) 1.2884(7) 0.0113(6)
H18 H -0.63360 1.28580 -0.05890
C16 C -0.0802(9) 1.3774(8) 0.1470(8)
H19 H -0.02280 1.33210 0.13660
C17 C -0.6040(8) 0.4100(7) 0.4744(6)
H20 H -0.67300 0.35020 0.45730
C18 C -0.6173(8) 0.5134(7) 0.4592(6)
C19 C -0.5136(8) 0.6015(7) 0.4847(6)
H21 H -0.52280 0.66970 0.47430
C20 C -0.6629(7) 1.2076(6) 0.0546(6)
C21 C -0.4600(8) 1.3777(6) 0.1781(6)
Cu2 Cu 0.00000 1.50000 0.00000
O1 O -0.3005(8) -0.0360(5) 0.3223(5)
O2 O -0.2080(5) -0.1003(4) 0.6697(5)
O3 O 0.0029(6) 0.2762(7) 0.6792(6)
O4 O -0.1442(8) -0.0119(7) 0.4762(7)
O5 O 0.1764(6) 0.1865(7) 0.7568(6)
O6 O -0.2967(8) 0.0921(5) 0.5169(5)
O7 O -0.1240(5) 0.2467(6) 0.4877(5)
O8 O -0.4138(6) -0.0060(6) 0.6558(6)
O9 O -0.3359(8) -0.1270(5) 0.4779(5)
O10 O 0.0019(5) 0.0299(4) 0.7848(5)
O11 O -0.2103(6) -0.2791(7) 0.3976(6)
O12 O 0.1263(5) -0.1224(6) 0.7031(5)
O13 O 0.0237(8) -0.0953(7) 0.5516(6)
O14 O -0.3450(6) 0.1778(5) 0.3466(5)
O15 O 0.0575(8) 0.1134(7) 0.5860(7)
O16 O -0.0669(6) -0.1787(5) 0.8100(5)
O17 O -0.4183(5) -0.2598(5) 0.2705(4)
O18 O 0.0548(8) -0.0075(7) 0.4035(7)
O19 O 0.0065(6) 0.2515(5) 0.8817(4)
O20 O -0.1708(5) 0.1189(4) 0.7092(5)
O21 O 0.0712(6) 0.4316(4) 0.5715(4)
O22 O -0.0851(7) -0.2517(6) 0.5914(5)
Mo1A Mo -0.00375(6) -0.17322(5) 0.24113(5)
Mo2A Mo 0.28718(6) 0.17691(5) 0.65504(5)
Mo3A Mo 0.04313(6) 0.12271(5) 0.28860(5)
Mo4A Mo -0.04763(6) -0.29528(5) 0.45261(6)
Mo5A Mo 0.28392(6) 0.00578(6) 0.39418(5)
Mo6A Mo 0.23938(6) -0.11764(6) 0.60501(6)
Cu1A Cu 0.73088(12) 2.24564(10) -0.12107(9)
Cu1A* Cu -0.26912(12) 0.24564(10) 0.87893(9)
N1A N 0.7417(6) 1.9949(6) 0.0125(5)
N2A N -0.2545(6) 0.4488(5) 0.6896(5)
N3A N 0.0867(7) 1.5375(6) -0.1039(6)
N4A N -0.2653(6) 0.3570(5) 0.8104(5)
N4A* N 0.7347(6) 2.3570(5) -0.1896(5)
N5A N 0.2326(6) 1.5506(5) -0.2004(5)
N6A N 0.7183(7) 2.1407(6) -0.0429(6)
C1A C 0.1696(9) 1.6324(7) -0.2076(7)
H1A H 0.18490 1.68400 -0.24610
C2A C 0.6592(8) 2.0454(7) 0.0680(6)
H2A H 0.62050 2.02220 0.11990
C3A C -0.2618(8) 0.5242(8) 0.7825(7)
H3A H -0.26230 0.59950 0.79340
C4A C -0.2681(9) 0.4658(8) 0.8545(7)
H4A H -0.27370 0.49580 0.92540
C5A C -0.2574(8) 0.3507(6) 0.7089(6)
H5A H -0.25440 0.28560 0.65810
C6A C 0.3476(8) 1.5363(7) -0.2438(7)
H6A H 0.33690 1.54190 -0.31630
H7A H 0.36100 1.46230 -0.24590
C7A C 0.5186(8) 1.7025(7) -0.2210(6)
H8A H 0.49030 1.70000 -0.29130
C8A C 0.1827(9) 1.4950(7) -0.1377(7)
H9A H 0.20970 1.43560 -0.11970
C9A C 0.6454(9) 2.1322(7) 0.0339(7)
H10A H 0.59440 2.18050 0.05780
C10A C 0.7692(8) 1.8868(7) 0.0128(7)
H11A H 0.78210 1.88150 0.08540
H12A H 0.84570 1.88020 -0.01490
C11A C 0.5036(8) 1.6266(7) -0.0721(7)
H13A H 0.46520 1.57290 -0.04250
C12A C 0.7754(9) 2.0568(7) -0.0527(7)
H14A H 0.83160 2.04230 -0.09870
C13A C 0.6191(8) 1.7867(7) -0.1603(6)
H15A H 0.65780 1.83980 -0.19040
C14A C -0.2547(8) 0.4728(8) 0.5863(7)
H16A H -0.23180 0.41220 0.53660
H17A H -0.19260 0.54090 0.59510
C15A C 0.6048(8) 1.7116(7) -0.0113(6)
H18A H 0.63360 1.71420 0.05890
C16A C 0.0802(9) 1.6226(8) -0.1470(8)
H19A H 0.02280 1.66790 -0.13660
C17A C -0.3960(8) 0.5900(7) 0.5256(6)
H20A H -0.32700 0.64980 0.54270
C18A C -0.3827(8) 0.4866(7) 0.5408(6)
C19A C -0.4864(8) 0.3985(7) 0.5153(6)
H21A H -0.47720 0.33030 0.52570
C20A C 0.6629(7) 1.7924(6) -0.0546(6)
C21A C 0.4600(8) 1.6223(6) -0.1781(6)
O1A O 0.3005(8) 0.0360(5) 0.6777(5)
O2A O 0.2080(5) 0.1003(4) 0.3303(5)
O3A O -0.0029(6) -0.2762(7) 0.3208(6)
O4A O 0.1442(8) 0.0119(7) 0.5238(7)
O5A O -0.1764(6) -0.1865(7) 0.2432(6)
O6A O 0.2967(8) -0.0921(5) 0.4831(5)
O7A O 0.1240(5) -0.2467(6) 0.5123(5)
O8A O 0.4138(6) 0.0060(6) 0.3442(6)
O9A O 0.3359(8) 0.1270(5) 0.5221(5)
O10A O -0.0019(5) -0.0299(4) 0.2152(5)
O11A O 0.2103(6) 0.2791(7) 0.6024(6)
O12A O -0.1263(5) 0.1224(6) 0.2969(5)
O13A O -0.0237(8) 0.0953(7) 0.4484(6)
O14A O 0.3450(6) -0.1778(5) 0.6534(5)
O15A O -0.0575(8) -0.1134(7) 0.4140(7)
O16A O 0.0669(6) 0.1787(5) 0.1900(5)
O17A O 0.4183(5) 0.2598(5) 0.7295(4)
O18A O -0.0548(8) 0.0075(7) 0.5965(7)
O19A O -0.0065(6) -0.2515(5) 0.1183(4)
O20A O 0.1708(5) -0.1189(4) 0.2908(5)
O21A O -0.0712(6) -0.4316(4) 0.4285(4)
O22A O 0.0851(7) 0.2517(6) 0.4086(5)
#END
