
#######################################################################
#
#                 Cambridge Crystallographic Data Centre
#                                CCDC
#
#######################################################################
#
# If this CIF has been generated from an entry in the Cambridge
# Structural Database, then it will include bibliographic, chemical,
# crystal, experimental, refinement or atomic coordinate data resulting
# from the CCDC's data processing and validation procedures.
#
#######################################################################

data_CSD_CIF_VUKSOL
_audit_creation_date 2015-06-19
_audit_creation_method CSD-ConQuest-V1
_database_code_CSD VUKSOL
_database_code_depnum_ccdc_archive 'CCDC 1036655'
_chemical_formula_sum 'C34 H38 N4 O22 Zn3'
_chemical_formula_moiety
;
(C24 H8 O20 Zn3 2-)n,2n(C3 H7 N1 O1),2n(C2 H8 N1 1+)
;
_journal_coden_Cambridge 1350
_journal_volume 17
_journal_year 2015
_journal_page_first 5101
_journal_name_full 'CrystEngComm '
loop_
_publ_author_name
"Huan-Huan Li"
"Zheng Niu"
"Long Chen"
"Hao-Bin Jiang"
"Ya-Ping Wang"
"Peng Cheng"
_chemical_name_systematic
;
catena-[bis(dimethylammonium) tetrakis(\m-furan-2,5-dicarboxylato)-tri-zinc 
N,N-dimethylformamide solvate]
;
_cell_volume   2500.221
_exptl_crystal_colour 'colorless'
_exptl_crystal_density_diffrn 1.396
_exptl_special_details
;
for isomer see [VUKSIF]

;
_exptl_crystal_description 'block'
_diffrn_ambient_temperature 120
_refine_special_details
;
C19',C20',N3' and C19,C20,N3 disordered over two sites with occupancies 
0.519:0.481.
;
#These two values have been output from a single CSD field.
_refine_ls_R_factor_gt 0.0832
_refine_ls_wR_factor_gt 0.0832
_symmetry_cell_setting monoclinic
_symmetry_space_group_name_H-M 'P 21/c'
_symmetry_Int_Tables_number 14
loop_
_symmetry_equiv_pos_site_id
_symmetry_equiv_pos_as_xyz
1 x,y,z
2 -x,1/2+y,1/2-z
3 -x,-y,-z
4 x,-1/2-y,-1/2+z
_cell_length_a 9.3468(12)
_cell_length_b 15.2267(8)
_cell_length_c 17.6517(8)
_cell_angle_alpha 90
_cell_angle_beta 95.599(8)
_cell_angle_gamma 90
_cell_formula_units_Z 2
loop_
_atom_type_symbol
_atom_type_radius_bond
C 0.68
H 0.23
N 0.68
O 0.68
Zn 1.22
loop_
_atom_site_label
_atom_site_type_symbol
_atom_site_fract_x
_atom_site_fract_y
_atom_site_fract_z
Zn1 Zn -0.07258(8) 0.60963(5) 0.33770(4)
Zn2 Zn 0.00000 0.50000 0.50000
O1 O 0.7332(5) 0.5694(3) 0.3588(3)
O2 O 0.8032(5) 0.4622(4) 0.4418(4)
O3 O 0.4547(4) 0.5377(3) 0.3752(2)
O4 O 0.2034(6) 0.6203(4) 0.3270(3)
O5 O 0.0749(5) 0.5236(3) 0.3835(3)
O6 O -0.0584(6) 0.7192(3) 0.3983(3)
O7 O -0.0543(5) 0.6435(3) 0.5084(3)
O8 O -0.0839(5) 0.7988(3) 0.5854(2)
O9 O -0.1198(8) 0.9843(4) 0.7057(4)
O10 O -0.0899(5) 0.8434(4) 0.7332(3)
C1 C 0.7106(7) 0.5049(5) 0.4004(4)
C2 C 0.5586(7) 0.4797(5) 0.4036(4)
C3 C 0.4965(8) 0.4069(5) 0.4326(5)
H1 H 0.54380 0.35780 0.45420
C4 C 0.3451(7) 0.4214(5) 0.4229(4)
H2 H 0.27410 0.38370 0.43710
C5 C 0.3248(7) 0.5005(5) 0.3890(4)
C6 C 0.1959(7) 0.5543(5) 0.3647(4)
C7 C -0.0618(7) 0.7118(5) 0.4708(4)
C8 C -0.0840(8) 0.7986(5) 0.5079(4)
C9 C -0.1076(13) 0.8800(5) 0.4800(5)
H3 H -0.11360 0.89650 0.42900
C10 C -0.1215(12) 0.9355(6) 0.5426(5)
H4 H -0.13740 0.99580 0.54080
C11 C -0.1078(8) 0.8860(5) 0.6044(4)
C12 C -0.1047(8) 0.9074(5) 0.6869(4)
O11 O 0.239(2) 0.8595(14) 0.4044(13)
N1 N 0.451(2) 0.8085(14) 0.4447(13)
C13 C 0.329(3) 0.8100(18) 0.4079(16)
H5 H 0.30870 0.76060 0.37770
C14 C 0.543(3) 0.7544(12) 0.4077(13)
H6 H 0.54640 0.77460 0.35640
H7 H 0.50710 0.69520 0.40710
H8 H 0.63720 0.75620 0.43420
C15 C 0.500(3) 0.8909(18) 0.4878(16)
H9 H 0.52120 0.93570 0.45230
H10 H 0.58400 0.87830 0.52150
H11 H 0.42440 0.91100 0.51680
O12 O 0.431(2) 1.0800(14) 0.6997(11)
N2 N 0.4208(19) 0.9166(14) 0.6836(10)
C16 C 0.491(3) 1.0046(17) 0.7042(14)
H12 H 0.58840 1.00350 0.72170
C17 C 0.2780(19) 0.9108(17) 0.6459(12)
H13 H 0.22340 0.86890 0.67170
H14 H 0.28250 0.89250 0.59420
H15 H 0.23240 0.96730 0.64660
C18 C 0.496(2) 0.8451(14) 0.7056(11)
H16 H 0.52010 0.81340 0.66160
H17 H 0.43940 0.80830 0.73530
H18 H 0.58240 0.86220 0.73580
N3? N 0.0528(19) 0.8278(12) 0.2674(10)
H19? H 0.08570 0.86110 0.30670
H20? H 0.05720 0.77170 0.28160
C19? C 0.140(4) 0.8434(19) 0.1985(16)
H21? H 0.24060 0.84360 0.21530
H22? H 0.11320 0.89900 0.17560
H23? H 0.11950 0.79740 0.16180
C20? C -0.104(4) 0.854(3) 0.238(2)
H24? H -0.15990 0.86160 0.27990
H25? H -0.14590 0.80890 0.20470
H26? H -0.10250 0.90830 0.20980
N4 N 0.0118(18) 0.8520(11) 0.1858(9)
H27 H -0.03070 0.81500 0.15160
H28 H 0.02360 0.90330 0.16310
C21 C 0.155(3) 0.8159(17) 0.2177(16)
H29 H 0.14090 0.76140 0.24330
H30 H 0.20140 0.85710 0.25310
H31 H 0.21420 0.80610 0.17700
C22 C -0.085(4) 0.864(3) 0.2550(18)
H32 H -0.03970 0.90580 0.29060
H33 H -0.09470 0.80890 0.27990
H34 H -0.17810 0.88560 0.23590
Zn1B Zn 0.07258(8) 0.39037(5) 0.66230(4)
O1B O -0.7332(5) 0.4306(3) 0.6412(3)
O2B O -0.8032(5) 0.5378(4) 0.5582(4)
O3B O -0.4547(4) 0.4623(3) 0.6248(2)
O4B O -0.2034(6) 0.3797(4) 0.6730(3)
O5B O -0.0749(5) 0.4764(3) 0.6165(3)
O6B O 0.0584(6) 0.2808(3) 0.6017(3)
O7B O 0.0543(5) 0.3565(3) 0.4916(3)
O8B O 0.0839(5) 0.2012(3) 0.4146(2)
O9B O 0.1198(8) 0.0157(4) 0.2943(4)
O10B O 0.0899(5) 0.1566(4) 0.2668(3)
C1B C -0.7106(7) 0.4951(5) 0.5996(4)
C2B C -0.5586(7) 0.5203(5) 0.5964(4)
C3B C -0.4965(8) 0.5931(5) 0.5674(5)
H1B H -0.54380 0.64220 0.54580
C4B C -0.3451(7) 0.5786(5) 0.5771(4)
H2B H -0.27410 0.61630 0.56290
C5B C -0.3248(7) 0.4995(5) 0.6110(4)
C6B C -0.1959(7) 0.4457(5) 0.6353(4)
C7B C 0.0618(7) 0.2882(5) 0.5292(4)
C8B C 0.0840(8) 0.2014(5) 0.4921(4)
C9B C 0.1076(13) 0.1200(5) 0.5200(5)
H3B H 0.11360 0.10350 0.57100
C10B C 0.1215(12) 0.0645(6) 0.4574(5)
H4B H 0.13740 0.00420 0.45920
C11B C 0.1078(8) 0.1140(5) 0.3956(4)
C12B C 0.1047(8) 0.0926(5) 0.3131(4)
Zn1* Zn 0.92742(8) 0.60963(5) 0.33770(4)
Zn1A Zn 0.07258(8) 0.10963(5) 0.16230(4)
Zn1B* Zn -0.92742(8) 0.39037(5) 0.66230(4)
Zn1C Zn -0.07258(8) 0.89037(5) 0.83770(4)
Zn2* Zn -1.00000 0.50000 0.50000
Zn2** Zn 1.00000 0.50000 0.50000
O1* O -0.2668(5) 0.5694(3) 0.3588(3)
O1B* O 0.2668(5) 0.4306(3) 0.6412(3)
O2* O -0.1968(5) 0.4622(4) 0.4418(4)
O2B* O 0.1968(5) 0.5378(4) 0.5582(4)
O10A O 0.0899(5) 0.3434(4) 0.7668(3)
O10C O -0.0899(5) 0.6566(4) 0.2332(3)
#END
