
#######################################################################
#
#                 Cambridge Crystallographic Data Centre
#                                CCDC
#
#######################################################################
#
# If this CIF has been generated from an entry in the Cambridge
# Structural Database, then it will include bibliographic, chemical,
# crystal, experimental, refinement or atomic coordinate data resulting
# from the CCDC's data processing and validation procedures.
#
#######################################################################

data_CSD_CIF_VULMEV
_audit_creation_date 2010-05-26
_audit_creation_method CSD-ConQuest-V1
_database_code_CSD VULMEV
_database_code_depnum_ccdc_archive 'CCDC 706590'
_chemical_formula_sum 'C72 H62 In2 N12 O31'
_chemical_formula_moiety
;
(C10 H10 N2 2+)3n,n(C21 H11 In1 N3 O13 3-),n(C21 H9 In1 N3 O12 3-),6n(H2 O1)
;
_journal_coden_Cambridge 1350
_journal_volume 11
_journal_year 2009
_journal_page_first 918
_journal_name_full 'CrystEngComm '
loop_
_publ_author_name
"Qiang Gao"
"Fei-Long Jiang"
"Ming-Yan Wu"
"You-Gui Huang"
"Da-Qing Yuan"
"Wei Wei"
"Mao-Chun Hong"
_chemical_name_systematic
;
catena-(tris(4,4'-Bipyridinediium) 
(\m~2~-pyridine-2,5-dicarboxylato)-bis(pyridine-2,5-dicarboxylato)-aqua-indium
(iii) 
(\m~2~-pyridine-2,5-dicarboxylato)-bis(pyridine-2,5-dicarboxylato)-indium(iii)
 hexahydrate)
;
_cell_volume   4034.697
_exptl_crystal_colour 'colorless'
_exptl_crystal_density_diffrn 1.499
_exptl_crystal_description 'prism'
_diffrn_ambient_temperature 293
#These two values have been output from a single CSD field.
_refine_ls_R_factor_gt 0.072
_refine_ls_wR_factor_gt 0.072
_symmetry_cell_setting triclinic
_symmetry_space_group_name_H-M 'P -1'
_symmetry_Int_Tables_number 2
loop_
_symmetry_equiv_pos_site_id
_symmetry_equiv_pos_as_xyz
1 x,y,z
2 -x,-y,-z
_cell_length_a 8.958(2)
_cell_length_b 14.948(3)
_cell_length_c 30.757(8)
_cell_angle_alpha 89.685(6)
_cell_angle_beta 89.532(5)
_cell_angle_gamma 78.434(5)
_cell_formula_units_Z 2
loop_
_atom_type_symbol
_atom_type_radius_bond
C 0.68
H 0.23
In 1.42
N 0.68
O 0.68
loop_
_atom_site_label
_atom_site_type_symbol
_atom_site_fract_x
_atom_site_fract_y
_atom_site_fract_z
In1 In 0.08296(4) 0.55286(2) 0.131366(12)
In2 In 0.57411(4) 0.73201(2) 0.395619(12)
O1 O 0.0264(5) 0.4710(3) 0.18833(13)
O2 O -0.0162(8) 0.4641(4) 0.25841(17)
O3 O 0.3643(7) 0.8268(3) 0.1979(2)
O4 O 0.3382(7) 0.8452(4) 0.2692(2)
O5 O 0.0387(5) 0.6952(3) 0.10871(14)
O6 O -0.1312(6) 0.8116(3) 0.08276(19)
O7 O -0.5113(6) 0.4695(4) 0.17441(18)
O8 O -0.6763(5) 0.5468(4) 0.12636(16)
O9 O 0.0419(5) 0.4227(3) 0.10760(13)
O10 O 0.0503(7) 0.3220(3) 0.05387(17)
O11 O 0.377(1) 0.7087(4) -0.0118(2)
O12 O 0.4209(7) 0.6135(4) -0.06626(17)
O13 O 0.4550(5) 0.6647(3) 0.44993(14)
O14 O 0.4036(7) 0.6580(3) 0.52117(16)
O15 O 0.8071(7) 1.0157(3) 0.46958(17)
O16 O 0.7379(6) 1.0450(3) 0.53823(17)
O17 O 0.5485(5) 0.8820(3) 0.37350(14)
O18 O 0.3943(6) 1.0104(3) 0.35345(18)
O19 O -0.0101(6) 0.6448(4) 0.3907(3)
O20 O -0.1900(5) 0.7675(3) 0.39151(15)
O21 O 0.4898(5) 0.6091(3) 0.36801(13)
O22 O 0.4894(8) 0.5148(4) 0.31265(18)
O23 O 0.8693(7) 0.8828(4) 0.25578(18)
O24 O 0.8592(7) 0.8112(4) 0.19445(17)
O25 O 0.7420(6) 0.6078(3) 0.41825(19)
O26 O -0.5913(14) 0.3973(6) 0.2517(3)
O27 O -0.7864(18) 0.2896(9) 0.2732(6)
O28 O 0.7198(11) 0.4296(5) 0.4155(3)
O29 O 0.6721(16) 1.0678(10) 0.3717(5)
O30 O 0.1616(14) 1.1405(8) 0.3167(5)
N1 N 0.1254(5) 0.6241(3) 0.19491(15)
N2 N -0.1782(5) 0.6006(3) 0.12693(14)
N3 N 0.1450(6) 0.5379(3) 0.05620(15)
N4 N 0.5895(5) 0.8049(3) 0.46106(15)
N5 N 0.3216(5) 0.7955(3) 0.38257(15)
N6 N 0.6348(5) 0.7148(3) 0.32250(15)
N7 N 0.6727(10) 0.4900(5) 0.5693(5)
H1 H 0.61870 0.44900 0.57300
N8 N 1.0688(7) 0.8415(4) 0.5339(2)
H2 H 1.11200 0.88720 0.52930
N9 N -0.4853(9) -0.0420(5) 0.1998(3)
H3 H -0.52940 -0.08790 0.20230
N10 N -0.1080(9) 0.3189(5) 0.1733(5)
H4 H -0.05910 0.36240 0.16950
N11 N 0.4252(8) 0.2732(4) 0.1006(2)
H5 H 0.47440 0.31120 0.08900
N12 N 0.0285(10) -0.0220(6) 0.2063(3)
H6 H -0.02110 -0.05600 0.22080
C1 C 0.0299(8) 0.4982(4) 0.2271(2)
C2 C 0.0927(7) 0.5843(4) 0.2321(2)
C3 C 0.1218(9) 0.6193(5) 0.2728(2)
H7 H 0.09290 0.59360 0.29840
C4 C 0.1933(9) 0.6916(5) 0.2742(2)
H8 H 0.21630 0.71480 0.30070
C5 C 0.2318(7) 0.7305(4) 0.2352(2)
C6 C 0.1910(7) 0.6967(4) 0.1968(2)
H9 H 0.20960 0.72550 0.17100
C7 C 0.3151(9) 0.8081(5) 0.2366(3)
C8 C -0.0958(7) 0.7348(4) 0.0990(2)
C9 C -0.2226(7) 0.6849(4) 0.10955(18)
C10 C -0.3720(7) 0.7207(4) 0.1018(2)
H10 H -0.40020 0.77830 0.08930
C11 C -0.4833(7) 0.6704(4) 0.1129(2)
H11 H -0.58570 0.69410 0.10760
C12 C -0.4386(6) 0.5856(4) 0.13165(18)
C13 C -0.2824(6) 0.5532(4) 0.13849(18)
H12 H -0.25090 0.49640 0.15160
C14 C -0.5494(7) 0.5281(5) 0.1458(2)
C15 C 0.0753(7) 0.3936(4) 0.0684(2)
C16 C 0.1510(7) 0.4535(4) 0.04043(19)
C17 C 0.2168(9) 0.4251(5) 0.0010(2)
H13 H 0.21240 0.36800 -0.01010
C18 C 0.2904(9) 0.4850(5) -0.0217(2)
H14 H 0.34200 0.46650 -0.04750
C19 C 0.2866(8) 0.5702(5) -0.0062(2)
C20 C 0.2121(8) 0.5954(4) 0.0331(2)
H15 H 0.20880 0.65400 0.04370
C21 C 0.3652(10) 0.6380(5) -0.0291(3)
C22 C 0.4552(7) 0.6914(4) 0.4891(2)
C23 C 0.5261(6) 0.7742(3) 0.49669(18)
C24 C 0.5329(8) 0.8142(4) 0.5360(2)
H16 H 0.49190 0.79090 0.56050
C25 C 0.6002(8) 0.8893(4) 0.5401(2)
H17 H 0.60030 0.91860 0.56670
C26 C 0.6665(7) 0.9192(4) 0.50427(19)
C27 C 0.6571(6) 0.8761(4) 0.4644(2)
H18 H 0.69910 0.89760 0.43960
C28 C 0.7416(7) 1.0004(4) 0.5061(2)
C29 C 0.4173(7) 0.9302(4) 0.36479(19)
C30 C 0.2855(7) 0.8824(4) 0.36985(18)
C31 C 0.1377(8) 0.9260(4) 0.3629(2)
H19 H 0.11480 0.98690 0.35430
C32 C 0.0236(8) 0.8770(4) 0.3691(2)
H20 H -0.07760 0.90550 0.36500
C33 C 0.0591(6) 0.7860(4) 0.38125(19)
C34 C 0.2126(6) 0.7473(4) 0.3877(2)
H21 H 0.23960 0.68620 0.39580
C35 C -0.0565(7) 0.7270(4) 0.3880(2)
C36 C 0.5211(8) 0.5827(4) 0.3297(2)
C37 C 0.6009(8) 0.6435(4) 0.3020(2)
C38 C 0.6279(9) 0.6277(5) 0.2576(2)
H22 H 0.59570 0.58020 0.24350
C39 C 0.7041(9) 0.6854(5) 0.2360(2)
H23 H 0.72960 0.67440 0.20680
C40 C 0.7439(7) 0.7590(5) 0.2559(2)
C41 C 0.7059(7) 0.7708(4) 0.2999(2)
H24 H 0.73140 0.82020 0.31420
C42 C 0.8277(9) 0.8212(6) 0.2329(3)
C43 C 0.6976(15) 0.5414(8) 0.6038(5)
H25 H 0.66060 0.53130 0.63140
C44 C 0.7295(14) 0.5009(6) 0.5295(6)
H26 H 0.71160 0.46360 0.50680
C45 C 0.7801(15) 0.6092(7) 0.5965(4)
H27 H 0.79680 0.64650 0.61940
C46 C 0.8132(11) 0.5662(5) 0.5222(4)
H28 H 0.85340 0.57300 0.49470
C47 C 0.8382(8) 0.6221(4) 0.5554(3)
C48 C 0.9223(7) 0.6983(4) 0.5483(2)
C49 C 0.9475(11) 0.7531(5) 0.5815(3)
H29 H 0.91290 0.74410 0.60940
C50 C 0.9726(9) 0.7175(4) 0.5079(2)
H30 H 0.95810 0.68200 0.48420
C51 C 1.0241(13) 0.8215(6) 0.5732(3)
H31 H 1.04620 0.85600 0.59650
C52 C 1.0445(10) 0.7894(5) 0.5027(2)
H32 H 1.07790 0.80130 0.47500
C53 C -0.4843(10) 0.0100(7) 0.2333(3)
H33 H -0.52720 -0.00440 0.25940
C54 C -0.4239(11) -0.0287(6) 0.1629(4)
H34 H -0.42810 -0.06730 0.13960
C55 C -0.4161(10) 0.0916(6) 0.2306(3)
H35 H -0.42050 0.13200 0.25370
C56 C -0.3523(10) 0.0436(5) 0.1590(3)
H36 H -0.30590 0.05160 0.13250
C57 C -0.3440(8) 0.1047(5) 0.1911(3)
C58 C -0.2629(8) 0.1823(4) 0.1843(3)
C59 C -0.2390(12) 0.2368(6) 0.2197(4)
H37 H -0.27760 0.22810 0.24720
C60 C -0.2119(10) 0.2019(6) 0.1439(4)
H38 H -0.23290 0.16830 0.12020
C61 C -0.1534(14) 0.3057(6) 0.2117(5)
H39 H -0.13040 0.34110 0.23450
C62 C -0.1309(12) 0.2696(8) 0.1375(5)
H40 H -0.09340 0.28130 0.11020
C63 C 0.3643(8) 0.2883(5) 0.1397(3)
H41 H 0.37590 0.34040 0.15450
C64 C 0.4098(12) 0.1984(7) 0.0792(4)
H42 H 0.45350 0.18730 0.05170
C65 C 0.2852(9) 0.2302(5) 0.1590(3)
H43 H 0.24590 0.24230 0.18690
C66 C 0.3279(12) 0.1356(6) 0.0976(4)
H44 H 0.31930 0.08300 0.08260
C67 C 0.2625(9) 0.1528(6) 0.1373(3)
C68 C 0.1754(9) 0.0872(6) 0.1597(4)
C69 C 0.1524(12) 0.0895(7) 0.2051(4)
H45 H 0.19480 0.13210 0.22010
C70 C 0.1202(13) 0.0214(7) 0.1359(5)
H46 H 0.12980 0.01510 0.10590
C71 C 0.0757(14) 0.0371(7) 0.2299(4)
H47 H 0.05990 0.04330 0.25980
C72 C 0.0399(9) -0.0406(6) 0.1659(3)
H48 H 0.00210 -0.08910 0.15450
O31 O -0.1574(9) 0.1700(6) 0.3190(3)
In1* In -0.91704(4) 0.55286(2) 0.131366(12)
In2* In -0.42589(4) 0.73201(2) 0.395619(12)
O8* O 0.3237(5) 0.5468(4) 0.12636(16)
O20* O 0.8100(5) 0.7675(3) 0.39151(15)
#END
