
#######################################################################
#
#                 Cambridge Crystallographic Data Centre
#                                CCDC
#
#######################################################################
#
# If this CIF has been generated from an entry in the Cambridge
# Structural Database, then it will include bibliographic, chemical,
# crystal, experimental, refinement or atomic coordinate data resulting
# from the CCDC's data processing and validation procedures.
#
#######################################################################

data_CSD_CIF_VULREA
_audit_creation_date 2010-05-26
_audit_creation_method CSD-ConQuest-V1
_database_code_CSD VULREA
_database_code_depnum_ccdc_archive 'CCDC 715030'
_chemical_formula_sum 'C4 H16 Mn2 N2 O12 P2'
_chemical_formula_moiety
;
(C2 H6 Mn2 O12 P2 2-)n,n(C2 H10 N2 2+)
;
_journal_coden_Cambridge 208
_journal_volume 182
_journal_year 2009
_journal_page_first 2491
_journal_name_full 'J.Solid State Chem. '
loop_
_publ_author_name
"P.Ramaswamy"
"S.Mandal"
"S.Natarajan"
_chemical_name_systematic
;
catena-(ethylenediammonium 
bis(\m~3~-phosphito)-(\m~2~-oxalato)-diaqua-di-manganese(ii))
;
_cell_volume    681.144
_exptl_crystal_colour 'pink'
_exptl_crystal_density_diffrn 2.223
_exptl_crystal_description 'plate-like'
_diffrn_ambient_temperature 293
#These two values have been output from a single CSD field.
_refine_ls_R_factor_gt 0.036
_refine_ls_wR_factor_gt 0.036
_symmetry_cell_setting monoclinic
_symmetry_space_group_name_H-M 'P 21/c'
_symmetry_Int_Tables_number 14
loop_
_symmetry_equiv_pos_site_id
_symmetry_equiv_pos_as_xyz
1 x,y,z
2 -x,1/2+y,1/2-z
3 -x,-y,-z
4 x,-1/2-y,-1/2+z
_cell_length_a 7.8371(14)
_cell_length_b 8.7545(15)
_cell_length_c 10.1003(18)
_cell_angle_alpha 90
_cell_angle_beta 100.605(3)
_cell_angle_gamma 90
_cell_formula_units_Z 2
loop_
_atom_type_symbol
_atom_type_radius_bond
C 0.68
H 0.23
Mn 1.61
N 0.68
O 0.68
P 1.05
loop_
_atom_site_label
_atom_site_type_symbol
_atom_site_fract_x
_atom_site_fract_y
_atom_site_fract_z
Mn1 Mn 0.33276(5) 0.49478(4) 0.17857(4)
P1 P 0.65587(8) 0.71053(7) 0.10274(6)
H1 H 0.78220 0.69960 0.12720
O1 O 0.5800(2) 0.5933(2) 0.18678(19)
O2 O 0.6162(3) 0.8754(2) 0.13592(19)
O3 O 0.6110(3) 0.6833(2) -0.04825(19)
O4 O 0.1750(2) 0.6261(2) 0.0089(2)
O5 O -0.0589(3) 0.5988(2) -0.1513(2)
O6 O 0.2993(3) 0.7110(2) 0.2988(2)
C1 C 0.0331(3) 0.5650(3) -0.0418(3)
N1 N 0.2379(3) 0.5303(3) 0.5749(2)
H2 H 0.30160 0.49910 0.65240
H3 H 0.23820 0.63190 0.57180
H4 H 0.28230 0.49310 0.50660
C2 C 0.0565(4) 0.4748(3) 0.5650(3)
H5 H 0.00900 0.51390 0.64050
H6 H 0.05660 0.36410 0.56990
H7 H 0.403(4) 0.751(6) 0.349(5)
H8 H 0.241(6) 0.760(6) 0.361(4)
Mn1B Mn -0.33276(5) 0.50522(4) -0.17857(4)
Mn1* Mn -0.66724(5) 0.49478(4) 0.17857(4)
Mn1A Mn 0.66724(5) 0.99478(4) 0.32143(4)
Mn1B* Mn 0.66724(5) 0.50522(4) -0.17857(4)
Mn1C Mn -0.66724(5) 0.00522(4) -0.32143(4)
P1B P -0.65587(8) 0.28947(7) -0.10274(6)
H1B H -0.78220 0.30040 -0.12720
O1B O -0.5800(2) 0.4067(2) -0.18678(19)
O2B O -0.6162(3) 0.1246(2) -0.13592(19)
O2A O 0.3838(3) 0.3754(2) 0.36408(19)
O2C O -0.3838(3) 0.6246(2) -0.36408(19)
O3B O -0.6110(3) 0.3167(2) 0.04825(19)
O3* O -0.3890(3) 0.6833(2) -0.04825(19)
O3B* O 0.3890(3) 0.3167(2) 0.04825(19)
O4B O -0.1750(2) 0.3739(2) -0.0089(2)
O5B O 0.0589(3) 0.4012(2) 0.1513(2)
O6B O -0.2993(3) 0.2890(2) -0.2988(2)
C1B C -0.0331(3) 0.4350(3) 0.0418(3)
N1B N -0.2379(3) 0.4697(3) 0.4251(2)
H2B H -0.30160 0.50090 0.34760
H3B H -0.23820 0.36810 0.42820
H4B H -0.28230 0.50690 0.49340
C2B C -0.0565(4) 0.5252(3) 0.4350(3)
H5B H -0.00900 0.48610 0.35950
H6B H -0.05660 0.63590 0.43010
H7B H -0.403(4) 0.249(6) -0.349(5)
H8B H -0.241(6) 0.240(6) -0.361(4)
#END
