
#######################################################################
#
#                 Cambridge Crystallographic Data Centre
#                                CCDC
#
#######################################################################
#
# If this CIF has been generated from an entry in the Cambridge
# Structural Database, then it will include bibliographic, chemical,
# crystal, experimental, refinement or atomic coordinate data resulting
# from the CCDC's data processing and validation procedures.
#
#######################################################################

data_CSD_CIF_VUMYOT
_audit_creation_date 2015-06-19
_audit_creation_method CSD-ConQuest-V1
_database_code_CSD VUMYOT
_database_code_depnum_ccdc_archive 'CCDC 1046019'
_chemical_formula_sum 'C32 H32 Ag7 N16 O42 P1 W12'
_chemical_formula_moiety
;
(C32 H28 Ag7 N16 3+)n,O40 P1 W12 3-,2(H2 O1)
;
_journal_coden_Cambridge 1500
_journal_volume 5
_journal_year 2015
_journal_page_first 53757
_journal_name_full 'RSC Advances '
loop_
_publ_author_name
"Ai-Xiang Tian"
"Xue Hou"
"Jun Ying"
"Guo-Cheng Liu"
"Yang Yang"
"Ya-Li Ning"
"Tian-Jiao Li"
"Xiu-Li Wang"
_chemical_name_systematic
;
catena-(tetrakis(\m-5-(2-methylphenyl)tetrazolato)-hepta-silver 
(\m-phosphato)-tetradecakis(\m-oxo)-dodecaoxo-dodeca-tungsten dihydrate)
;
_cell_volume   1788.360
_exptl_crystal_colour 'yellow'
_exptl_crystal_density_diffrn 3.993
_exptl_crystal_description 'block'
_diffrn_ambient_temperature 296
_refine_special_details
;
The structure is disordered.

;
#These two values have been output from a single CSD field.
_refine_ls_R_factor_gt 0.0442
_refine_ls_wR_factor_gt 0.0442
_symmetry_cell_setting triclinic
_symmetry_space_group_name_H-M 'P -1'
_symmetry_Int_Tables_number 2
loop_
_symmetry_equiv_pos_site_id
_symmetry_equiv_pos_as_xyz
1 x,y,z
2 -x,-y,-z
_cell_length_a 12.083(5)
_cell_length_b 12.283(5)
_cell_length_c 12.941(5)
_cell_angle_alpha 73.276(6)
_cell_angle_beta 76.471(7)
_cell_angle_gamma 86.012(7)
_cell_formula_units_Z 1
loop_
_atom_type_symbol
_atom_type_radius_bond
C 0.68
H 0.23
Ag 1.45
N 0.68
O 0.68
P 1.05
W 1.62
loop_
_atom_site_label
_atom_site_type_symbol
_atom_site_fract_x
_atom_site_fract_y
_atom_site_fract_z
P1 P 0.50000 1.50000 -0.50000
W1 W 0.31297(5) 1.33952(5) -0.57850(5)
W2 W 0.60941(5) 1.26706(5) -0.60685(4)
W3 W 0.20483(4) 1.57819(5) -0.47983(4)
W4 W 0.42591(5) 1.21385(5) -0.33877(5)
W5 W 0.60370(5) 1.37894(5) -0.25480(4)
W6 W 0.30804(5) 1.44839(5) -0.23502(4)
O1 O 0.4011(14) 1.5101(16) -0.5513(13)
O2 O 0.5261(13) 1.5791(13) -0.6210(13)
O3 O 0.4713(13) 1.3787(14) -0.5047(13)
O4 O 0.6053(13) 1.4561(14) -0.5672(12)
O5 O 0.3230(9) 1.2439(14) -0.4380(9)
O6 O 0.7324(12) 1.3028(10) -0.5528(9)
O7 O 0.6550(11) 1.3236(10) -0.1399(8)
O8 O 0.4532(9) 1.4216(10) -0.1942(13)
O9 O 0.2049(12) 1.4915(9) -0.3309(9)
O10 O 0.4625(10) 1.2834(13) -0.6351(9)
O11 O 0.5406(9) 1.1888(14) -0.4569(8)
O12 O 0.7320(11) 1.3598(9) -0.3691(9)
O13 O 0.5380(9) 1.2523(11) -0.2729(14)
O14 O 0.3235(9) 1.3007(11) -0.2562(13)
O15 O 0.2255(10) 1.2645(11) -0.6184(10)
O16 O 0.6615(9) 1.1566(9) -0.6562(9)
O17 O 0.6599(12) 1.3935(9) -0.7329(9)
O18 O 0.2113(11) 1.4324(9) -0.5099(8)
O19 O 0.0653(9) 1.6136(11) -0.4688(11)
O20 O 0.3499(11) 1.4675(9) -0.7058(9)
O21 O 0.3910(9) 1.0786(8) -0.2635(8)
O22 O 0.2169(9) 1.4257(10) -0.1105(8)
Ag1 Ag 0.00000 0.50000 0.00000
Ag2 Ag 0.13499(9) 0.28204(11) 0.11857(11)
Ag3 Ag 0.33416(8) 0.56564(9) -0.00742(9)
Ag4 Ag 0.37406(8) 0.88401(9) -0.16848(10)
C1 C 0.3083(15) 0.0400(15) 0.1055(15)
C2 C 0.2498(17) -0.0648(16) 0.1356(19)
H1 H 0.23470 -0.09430 0.08170
C3 C 0.2179(17) -0.1187(17) 0.240(2)
H2 H 0.18230 -0.18870 0.25870
C4 C 0.2327(15) -0.0804(16) 0.3199(17)
H3 H 0.20520 -0.12230 0.39290
C5 C 0.2932(16) 0.0299(14) 0.2967(15)
H4 H 0.30910 0.05790 0.35130
C6 C 0.3232(11) 0.0862(11) 0.1817(13)
C7 C 0.3734(10) 0.2049(10) 0.144(1)
C8 C 0.350(3) 0.092(2) -0.0149(19)
H5 H 0.38830 0.16180 -0.02710
H6 H 0.28630 0.10720 -0.05000
H7 H 0.40140 0.04060 -0.04580
C9 C 0.0868(11) 0.9635(13) -0.1873(14)
C10 C 0.0679(12) 0.9972(17) -0.2944(15)
C11 C 0.0615(13) 1.1125(18) -0.3440(18)
H8 H 0.04980 1.13880 -0.41560
C12 C 0.0736(17) 1.1934(19) -0.282(3)
H9 H 0.07250 1.27150 -0.31460
C13 C 0.0856(16) 1.1525(16) -0.183(3)
H10 H 0.08690 1.20290 -0.14190
C14 C 0.0965(13) 1.0412(15) -0.1346(17)
H11 H 0.11100 1.01740 -0.06400
C15 C 0.1045(9) 0.8399(11) -0.1321(10)
C16 C 0.0553(19) 0.914(2) -0.3544(15)
H12 H 0.04330 0.95420 -0.42650
H13 H -0.00860 0.86580 -0.31370
H14 H 0.12320 0.86890 -0.36200
N1 N 0.4830(8) 0.2321(9) 0.1301(10)
N2 N 0.4854(9) 0.3465(9) 0.0889(9)
N3 N 0.3825(8) 0.3844(9) 0.0794(8)
N4 N 0.3122(8) 0.2956(9) 0.1133(8)
N5 N 0.0316(10) 0.754(1) -0.1057(11)
N6 N 0.0880(9) 0.6576(9) -0.0542(10)
N7 N 0.1864(9) 0.6891(9) -0.0493(9)
N8 N 0.1999(8) 0.8006(9) -0.0961(9)
O23 O 0.9247(14) 1.5462(17) -1.2192(12)
O1A O 0.5989(14) 1.4899(16) -0.4487(13)
O2A O 0.4739(13) 1.4209(13) -0.3790(13)
O3A O 0.5287(13) 1.6213(14) -0.4953(13)
O4A O 0.3947(13) 1.5439(14) -0.4328(12)
W1A W 0.68703(5) 1.66048(5) -0.42150(5)
W2A W 0.39059(5) 1.73294(5) -0.39315(4)
W3A W 0.79517(4) 1.42181(5) -0.52017(4)
W4A W 0.57409(5) 1.78615(5) -0.66123(5)
W5A W 0.39630(5) 1.62106(5) -0.74520(4)
W6A W 0.69196(5) 1.55161(5) -0.76498(4)
O5A O 0.6770(9) 1.7561(14) -0.5620(9)
O6A O 0.2676(12) 1.6972(10) -0.4472(9)
O7A O 0.3450(11) 1.6764(10) -0.8601(8)
O8A O 0.5468(9) 1.5784(10) -0.8058(13)
O9A O 0.7951(12) 1.5085(9) -0.6691(9)
O10A O 0.5375(10) 1.7166(13) -0.3649(9)
O11A O 0.4594(9) 1.8112(14) -0.5431(8)
O12A O 0.2680(11) 1.6402(9) -0.6309(9)
O13A O 0.4620(9) 1.7477(11) -0.7271(14)
O14A O 0.6765(9) 1.6993(11) -0.7438(13)
O15A O 0.7745(10) 1.7355(11) -0.3816(10)
O16A O 0.3385(9) 1.8434(9) -0.3438(9)
O17A O 0.3401(12) 1.6065(9) -0.2671(9)
O18A O 0.7887(11) 1.5676(9) -0.4901(8)
O19A O 0.9347(9) 1.3864(11) -0.5312(11)
O20A O 0.6501(11) 1.5325(9) -0.2942(9)
O21A O 0.6090(9) 1.9214(8) -0.7365(8)
O22A O 0.7831(9) 1.5743(10) -0.8895(8)
Ag2A Ag -0.13499(9) 0.71796(11) -0.11857(11)
Ag3A Ag -0.33416(8) 0.43436(9) 0.00742(9)
Ag4A Ag -0.37406(8) 0.11599(9) 0.16848(10)
C1A C -0.3083(15) 0.9600(15) -0.1055(15)
C2A C -0.2498(17) 1.0648(16) -0.1356(19)
H1A H -0.23470 1.09430 -0.08170
C3A C -0.2179(17) 1.1187(17) -0.240(2)
H2A H -0.18230 1.18870 -0.25870
C4A C -0.2327(15) 1.0804(16) -0.3199(17)
H3A H -0.20520 1.12230 -0.39290
C5A C -0.2932(16) 0.9701(14) -0.2967(15)
H4A H -0.30910 0.94210 -0.35130
C6A C -0.3232(11) 0.9138(11) -0.1817(13)
C7A C -0.3734(10) 0.7951(10) -0.144(1)
C8A C -0.350(3) 0.908(2) 0.0149(19)
H5A H -0.38830 0.83820 0.02710
H6A H -0.28630 0.89280 0.05000
H7A H -0.40140 0.95940 0.04580
C9A C -0.0868(11) 0.0365(13) 0.1873(14)
C10A C -0.0679(12) 0.0028(17) 0.2944(15)
C11A C -0.0615(13) -0.1125(18) 0.3440(18)
H8A H -0.04980 -0.13880 0.41560
C12A C -0.0736(17) -0.1934(19) 0.282(3)
H9A H -0.07250 -0.27150 0.31460
C13A C -0.0856(16) -0.1525(16) 0.183(3)
H10A H -0.08690 -0.20290 0.14190
C14A C -0.0965(13) -0.0412(15) 0.1346(17)
H11A H -0.11100 -0.01740 0.06400
C15A C -0.1045(9) 0.1601(11) 0.1321(10)
C16A C -0.0553(19) 0.086(2) 0.3544(15)
H12A H -0.04330 0.04580 0.42650
H13A H 0.00860 0.13420 0.31370
H14A H -0.12320 0.13110 0.36200
N1A N -0.4830(8) 0.7679(9) -0.1301(10)
N2A N -0.4854(9) 0.6535(9) -0.0889(9)
N3A N -0.3825(8) 0.6156(9) -0.0794(8)
N4A N -0.3122(8) 0.7044(9) -0.1133(8)
N5A N -0.0316(10) 0.246(1) 0.1057(11)
N6A N -0.0880(9) 0.3424(9) 0.0542(10)
N7A N -0.1864(9) 0.3109(9) 0.0493(9)
N8A N -0.1999(8) 0.1994(9) 0.0961(9)
Ag3* Ag -0.66584(8) 0.56564(9) -0.00742(9)
Ag3A* Ag 0.66584(8) 0.43436(9) 0.00742(9)
Ag4* Ag -0.62594(8) 0.88401(9) -0.16848(10)
Ag4A* Ag 0.62594(8) 0.11599(9) 0.16848(10)
N1* N -0.5170(8) 0.2321(9) 0.1301(10)
N1A* N 0.5170(8) 0.7679(9) -0.1301(10)
N2* N -0.5146(9) 0.3465(9) 0.0889(9)
N2A* N 0.5146(9) 0.6535(9) -0.0889(9)
#END
