
#######################################################################
#
#                 Cambridge Crystallographic Data Centre
#                                CCDC
#
#######################################################################
#
# If this CIF has been generated from an entry in the Cambridge
# Structural Database, then it will include bibliographic, chemical,
# crystal, experimental, refinement or atomic coordinate data resulting
# from the CCDC's data processing and validation procedures.
#
#######################################################################

data_CSD_CIF_VUMYUZ
_audit_creation_date 2015-06-19
_audit_creation_method CSD-ConQuest-V1
_database_code_CSD VUMYUZ
_database_code_depnum_ccdc_archive 'CCDC 1046020'
_chemical_formula_sum 'C64 H59 Ag10 N32 O41 P1 W12'
_chemical_formula_moiety
;
(C64 H57 Ag10 N32 3+)n,O40 P1 W12 3-,H2 O1
;
_journal_coden_Cambridge 1500
_journal_volume 5
_journal_year 2015
_journal_page_first 53757
_journal_name_full 'RSC Advances '
loop_
_publ_author_name
"Ai-Xiang Tian"
"Xue Hou"
"Jun Ying"
"Guo-Cheng Liu"
"Yang Yang"
"Ya-Li Ning"
"Tian-Jiao Li"
"Xiu-Li Wang"
_chemical_name_systematic
;
catena-(heptakis(\m-5-(3-methylphenyl)tetrazolato)-(\m-5-(3-methylphenyl)tetra
zole)-deca-silver 
(\m-phosphato)-tetradecakis(\m-oxo)-dodecaoxo-dodeca-tungsten monohydrate)
;
_cell_volume  10278.077
_exptl_crystal_colour 'yellow'
_exptl_crystal_density_diffrn 3.39
_exptl_crystal_description 'block'
_diffrn_ambient_temperature 293
_refine_special_details
;
The structure is disordered.

;
#These two values have been output from a single CSD field.
_refine_ls_R_factor_gt 0.0428
_refine_ls_wR_factor_gt 0.0428
_symmetry_cell_setting monoclinic
_symmetry_space_group_name_H-M 'P 21/c'
_symmetry_Int_Tables_number 14
loop_
_symmetry_equiv_pos_site_id
_symmetry_equiv_pos_as_xyz
1 x,y,z
2 -x,1/2+y,1/2-z
3 -x,-y,-z
4 x,-1/2-y,-1/2+z
_cell_length_a 24.980(3)
_cell_length_b 19.327(3)
_cell_length_c 21.407(3)
_cell_angle_alpha 90
_cell_angle_beta 96.019(2)
_cell_angle_gamma 90
_cell_formula_units_Z 4
loop_
_atom_type_symbol
_atom_type_radius_bond
C 0.68
H 0.23
Ag 1.45
N 0.68
O 0.68
P 1.05
W 1.62
loop_
_atom_site_label
_atom_site_type_symbol
_atom_site_fract_x
_atom_site_fract_y
_atom_site_fract_z
P1 P -0.74001(9) 0.47869(13) -1.25010(11)
W1 W -0.829205(19) 0.44359(3) -1.13470(2)
W2 W -0.623749(18) 0.37393(3) -1.25807(2)
W3 W -0.763959(18) 0.62260(3) -1.35379(2)
W4 W -0.749686(18) 0.58727(3) -1.11749(2)
W5 W -0.821923(18) 0.32804(3) -1.27117(2)
W6 W -0.738466(18) 0.36770(3) -1.38223(2)
W7 W -0.708007(19) 0.33725(3) -1.14638(2)
W8 W -0.659418(17) 0.63041(2) -1.23747(2)
W9 W -0.652211(18) 0.52293(3) -1.36366(2)
W10 W -0.628641(17) 0.48134(2) -1.13225(2)
W11 W -0.849919(17) 0.46700(3) -1.36881(2)
W12 W -0.854782(18) 0.58264(3) -1.23253(2)
O1 O -0.7764(3) 0.5096(4) -1.2046(3)
O2 O -0.7148(3) 0.5367(4) -1.2843(3)
O3 O -0.6953(3) 0.4363(4) -1.2139(3)
O4 O -0.7726(3) 0.4319(4) -1.2971(3)
O5 O -0.6088(3) 0.5278(5) -1.4190(3)
O6 O -0.7058(4) 0.2681(5) -1.0988(4)
O7 O -0.7389(3) 0.6406(5) -1.0548(4)
O8 O -0.6213(3) 0.7000(4) -1.2169(4)
O9 O -0.5703(3) 0.3280(5) -1.2775(4)
O10 O -0.8104(3) 0.6252(4) -1.2875(3)
O11 O -0.6799(3) 0.3479(4) -1.3199(3)
O12 O -0.6258(3) 0.5957(4) -1.3086(3)
O13 O -0.7819(3) 0.3064(4) -1.3394(3)
O14 O -0.7066(3) 0.5875(4) -1.3964(3)
O15 O -0.7598(3) 0.3111(4) -1.2141(3)
O16 O -0.6567(3) 0.3978(4) -1.1018(3)
O17 O -0.8041(3) 0.4127(4) -1.4143(3)
O18 O -0.7641(3) 0.3919(4) -1.1186(3)
O19 O -0.7110(3) 0.6704(4) -1.2997(4)
O20 O -0.8436(3) 0.3858(4) -1.2056(3)
O21 O -0.8750(3) 0.5137(5) -1.1753(3)
O22 O -0.8144(3) 0.6240(4) -1.1618(3)
O23 O -0.9098(3) 0.6338(5) -1.2407(4)
O24 O -0.6522(3) 0.3138(4) -1.1991(4)
O25 O -0.5917(3) 0.4264(4) -1.1884(3)
O26 O -0.8685(3) 0.3828(4) -1.3288(3)
O27 O -0.8697(3) 0.5166(4) -1.2981(3)
O28 O -0.8067(3) 0.5455(4) -1.3826(3)
O29 O -0.7937(3) 0.5176(4) -1.0866(3)
O30 O -0.6263(3) 0.5586(4) -1.1886(3)
O31 O -0.6996(3) 0.4510(4) -1.3935(3)
O32 O -0.6212(3) 0.4566(4) -1.3073(3)
O33 O -0.6891(3) 0.5283(4) -1.1047(3)
O34 O -0.7249(3) 0.3191(5) -1.4436(3)
O35 O -0.7103(3) 0.6313(4) -1.1790(3)
O36 O -0.8689(3) 0.4097(5) -1.0842(4)
O37 O -0.9040(3) 0.4792(4) -1.4214(3)
O38 O -0.7891(3) 0.6871(4) -1.4030(4)
O39 O -0.5794(3) 0.4992(4) -1.0750(3)
O40 O -0.8601(3) 0.2564(5) -1.2656(4)
Ag1 Ag -0.01057(4) 0.20635(5) -0.72355(4)
Ag2 Ag 0.05897(5) 0.51842(6) -0.76549(5)
Ag3 Ag -0.26666(4) 0.32836(7) -1.07470(5)
Ag4 Ag -0.40656(4) 0.21858(6) -1.12524(5)
Ag5 Ag -0.46281(4) 0.28686(5) -1.28454(4)
Ag6 Ag -0.44675(4) 0.48102(5) -1.26947(4)
Ag7 Ag -0.50875(5) 0.56715(5) -1.43398(4)
Ag8 Ag 0.19452(6) 0.71268(7) -0.55199(7)
Ag9 Ag -0.07831(4) 0.29205(6) -0.87751(6)
C1 C -0.4860(4) 0.6336(6) -1.2362(4)
C2 C -0.4672(4) 0.6259(6) -1.1704(5)
C3 C -0.4413(4) 0.6803(6) -1.1379(5)
H1 H -0.43730 0.72190 -1.15880
C4 C -0.4214(4) 0.6747(7) -1.0756(5)
C5 C -0.4289(5) 0.6133(8) -1.0456(5)
H2 H -0.41460 0.60820 -1.00400
C6 C -0.4569(5) 0.5590(7) -1.0747(6)
H3 H -0.46300 0.51890 -1.05250
C7 C -0.4759(5) 0.5649(6) -1.1377(5)
H4 H -0.49440 0.52830 -1.15820
C8 C -0.3909(5) 0.7341(8) -1.0424(6)
H5 H -0.37990 0.72130 -0.99970
H6 H -0.41380 0.77400 -1.04310
H7 H -0.35980 0.74450 -1.06340
C9 C -0.4701(4) 0.3435(6) -1.4330(5)
C10 C -0.4609(4) 0.2769(6) -1.4622(5)
C11 C -0.4234(5) 0.2319(6) -1.4325(5)
H8 H -0.40540 0.24330 -1.39370
C12 C -0.4125(6) 0.1683(7) -1.4618(6)
H9 H -0.38630 0.13880 -1.44290
C13 C -0.4399(5) 0.1505(8) -1.5165(7)
H10 H -0.43270 0.10820 -1.53450
C14 C -0.4786(5) 0.1932(7) -1.5469(5)
C15 C -0.4885(4) 0.2571(7) -1.5195(5)
H11 H -0.51390 0.28690 -1.53980
C16 C -0.5138(6) 0.1691(8) -1.6050(6)
H12 H -0.50160 0.12470 -1.61770
H13 H -0.51160 0.20180 -1.63830
H14 H -0.55040 0.16560 -1.59560
C17 C -0.3587(4) 0.4255(6) -1.1528(5)
C18 C -0.3350(4) 0.4904(6) -1.1268(5)
C19 C -0.3357(5) 0.5489(7) -1.1653(6)
H15 H -0.35250 0.54710 -1.20620
C20 C -0.3110(5) 0.6107(8) -1.1421(6)
C21 C -0.2882(5) 0.6102(8) -1.0802(8)
H16 H -0.27200 0.65040 -1.06350
C22 C -0.2884(5) 0.5530(8) -1.0428(7)
H17 H -0.27280 0.55510 -1.00140
C23 C -0.3113(5) 0.4931(7) -1.0654(6)
H18 H -0.31110 0.45410 -1.03990
C24 C -0.3128(7) 0.6714(8) -1.1857(8)
H19 H -0.29530 0.71020 -1.16430
H20 H -0.34960 0.68300 -1.19910
H21 H -0.29460 0.65990 -1.22160
C25 C -0.1508(5) 0.4037(8) -1.0352(5)
C26 C -0.1557(5) 0.4608(9) -1.0798(6)
C27 C -0.1403(6) 0.5306(9) -1.0619(6)
H22 H -0.12590 0.53880 -1.02070
C28 C -0.1458(7) 0.5842(9) -1.1018(7)
C29 C -0.1659(7) 0.5695(13) -1.1640(9)
H23 H -0.17080 0.60520 -1.19320
C30 C -0.1787(8) 0.5008(15) -1.1826(8)
H24 H -0.18910 0.49060 -1.22460
C31 C -0.1757(7) 0.4503(11) -1.1391(7)
H25 H -0.18820 0.40640 -1.15090
C32 C -0.1323(9) 0.6575(11) -1.0837(9)
H26 H -0.11860 0.65930 -1.04010
H27 H -0.16410 0.68550 -1.09040
H28 H -0.10560 0.67470 -1.10880
C33 C 0.0329(4) 0.3614(6) -0.7423(4)
C34 C 0.0500(5) 0.3695(6) -0.6746(5)
C35 C 0.0342(6) 0.4260(8) -0.6421(6)
H29 H 0.01110 0.45890 -0.66190
C36 C 0.0537(8) 0.4329(10) -0.5787(8)
H30 H 0.04390 0.47110 -0.55600
C37 C 0.0868(8) 0.3844(10) -0.5502(7)
H31 H 0.09870 0.38960 -0.50780
C38 C 0.1024(6) 0.3303(9) -0.5803(6)
C39 C 0.0822(5) 0.3206(7) -0.6435(5)
H32 H 0.09080 0.28050 -0.66430
C40 C 0.1393(8) 0.2782(10) -0.5452(8)
H33 H 0.14850 0.29380 -0.50290
H34 H 0.17150 0.27350 -0.56570
H35 H 0.12140 0.23430 -0.54480
C41 C 0.1368(4) 0.5929(7) -0.6496(6)
C42 C 0.1672(5) 0.5348(7) -0.6197(5)
C43 C 0.1911(5) 0.5392(7) -0.5596(5)
H36 H 0.18560 0.57810 -0.53560
C44 C 0.2228(6) 0.4871(8) -0.5345(6)
H37 H 0.23930 0.49060 -0.49360
C45 C 0.2305(6) 0.4287(8) -0.5699(7)
H38 H 0.25230 0.39320 -0.55240
C46 C 0.2069(5) 0.4223(8) -0.6299(6)
C47 C 0.1751(5) 0.4744(7) -0.6540(5)
H39 H 0.15790 0.47010 -0.69450
C48 C 0.2177(7) 0.362(1) -0.6685(7)
H40 H 0.19810 0.36660 -0.70930
H41 H 0.20640 0.32070 -0.64880
H42 H 0.25550 0.35950 -0.67270
C49 C -0.3179(8) 0.1524(10) -0.9572(7)
C50 C -0.3027(8) 0.1284(11) -0.8899(7)
C51 C -0.2738(7) 0.1679(8) -0.8438(11)
H43 H -0.26100 0.21140 -0.85370
C52 C -0.2639(7) 0.1426(10) -0.7829(9)
C53 C -0.2829(7) 0.0776(10) -0.7682(6)
H44 H -0.27620 0.06060 -0.72750
C54 C -0.3118(6) 0.0380(7) -0.8143(8)
H45 H -0.32450 -0.00540 -0.80450
C55 C -0.3217(6) 0.0634(10) -0.8752(7)
H46 H -0.34100 0.03700 -0.90610
C56 C -0.2251(9) 0.1930(11) -0.7369(10)
H47 H -0.21940 0.17290 -0.69580
H48 H -0.24190 0.23750 -0.73440
H49 H -0.19110 0.19840 -0.75360
N1 N -0.5100(3) 0.6892(4) -1.2618(4)
N2 N -0.5211(3) 0.6752(5) -1.3236(4)
N3 N -0.5032(4) 0.6142(5) -1.3350(4)
N4 N -0.4812(4) 0.5854(5) -1.2808(4)
N5 N -0.4798(4) 0.4032(5) -1.4648(4)
N6 N -0.4826(4) 0.4513(5) -1.4190(4)
N7 N -0.4743(4) 0.4223(5) -1.3646(4)
N8 N -0.4662(3) 0.3535(5) -1.3706(4)
N9 N -0.3984(4) 0.4177(5) -1.1992(4)
N10 N -0.4060(4) 0.3489(5) -1.2062(4)
N11 N -0.3723(4) 0.3153(5) -1.1663(4)
N12 N -0.3411(4) 0.3620(5) -1.1319(4)
N13 N -0.1805(4) 0.3487(7) -1.0401(5)
N14 N -0.1617(4) 0.3083(6) -0.9922(5)
N15 N -0.1217(4) 0.3408(6) -0.9600(4)
N16 N -0.1131(4) 0.3995(6) -0.9856(5)
N17 N 0.0342(4) 0.4109(6) -0.7836(4)
N18 N 0.0149(4) 0.3830(6) -0.8386(4)
N19 N 0.0035(4) 0.3181(5) -0.8298(4)
N20 N 0.0147(3) 0.3022(5) -0.7676(4)
N21 N 0.1428(4) 0.6566(6) -0.6262(5)
N22 N 0.1093(4) 0.6971(6) -0.6641(5)
N23 N 0.0854(4) 0.6582(6) -0.7092(5)
N24 N 0.1020(4) 0.5941(5) -0.7007(4)
N25 N -0.3596(5) 0.1485(6) -0.9997(5)
N26 N -0.3512(4) 0.1964(5) -1.0414(4)
N27 N -0.3065(4) 0.2263(6) -1.0251(5)
N28 N -0.2835(5) 0.1992(8) -0.9716(6)
Ag10 Ag 0.02115(8) -0.06395(9) -0.56042(7)
C57 C -0.0148(5) 0.1583(7) -0.5746(5)
C58 C -0.0277(5) 0.2280(7) -0.5513(6)
C59 C -0.0044(5) 0.2502(7) -0.4921(6)
H50 H 0.01980 0.22230 -0.46770
C60 C -0.0187(6) 0.3156(8) -0.4707(6)
C61 C -0.0567(6) 0.3538(8) -0.5078(8)
H51 H -0.06700 0.39670 -0.49340
C62 C -0.0799(6) 0.3304(9) -0.5656(9)
H52 H -0.10490 0.35730 -0.58990
C63 C -0.0655(5) 0.2679(8) -0.5861(7)
H53 H -0.08140 0.25140 -0.62440
C64 C 0.0112(6) 0.3428(8) -0.4088(6)
H54 H -0.00230 0.38780 -0.39970
H55 H 0.00560 0.31160 -0.37520
H56 H 0.04900 0.34590 -0.41310
N29 N 0.0004(4) 0.1038(5) -0.5392(4)
N30 N 0.0053(4) 0.0514(5) -0.5815(5)
N31 N -0.0047(4) 0.0750(6) -0.6375(4)
N32 N -0.0169(4) 0.1434(5) -0.6359(4)
O41 O 0.0359(3) 0.0895(6) -0.7619(4)
Ag11? Ag 0.06928(13) -0.0207(2) -0.55673(15)
Ag12? Ag -0.02958(16) -0.0872(2) -0.56353(14)
Ag1A Ag 0.01057(4) 0.70635(5) -0.77645(4)
Ag2A Ag -0.05897(5) 0.01842(6) -0.73451(5)
Ag4A Ag -0.59344(4) 0.71858(6) -1.37476(5)
Ag5A Ag -0.53719(4) 0.78686(5) -1.21546(4)
Ag7B Ag -0.49125(5) 0.43285(5) -1.56602(4)
Ag8A Ag -0.19452(6) 0.21268(7) -0.94801(7)
Ag9A Ag 0.07831(4) 0.79205(6) -0.62249(6)
N1A N -0.4900(3) 0.1892(4) -1.2382(4)
N2A N -0.4789(3) 0.1752(5) -1.1764(4)
N5B N -0.5202(4) 0.5968(5) -1.5352(4)
N14A N 0.1617(4) 0.8083(6) -0.5078(5)
N16A N 0.1131(4) -0.1005(6) -0.5144(5)
N18A N -0.0149(4) -0.1170(6) -0.6614(4)
N22A N -0.1093(4) 0.1971(6) -0.8359(5)
N23A N -0.0854(4) 0.1582(6) -0.7908(5)
N28A N 0.2835(5) 0.6992(8) -0.5284(6)
Ag10A Ag -0.02115(8) 0.43605(9) -0.93958(7)
Ag10B Ag -0.02115(8) 0.06395(9) -0.43958(7)
N29B N -0.0004(4) -0.1038(5) -0.4608(4)
N31A N 0.0047(4) 0.5750(6) -0.8625(4)
#END
