
#######################################################################
#
#                 Cambridge Crystallographic Data Centre
#                                CCDC
#
#######################################################################
#
# If this CIF has been generated from an entry in the Cambridge
# Structural Database, then it will include bibliographic, chemical,
# crystal, experimental, refinement or atomic coordinate data resulting
# from the CCDC's data processing and validation procedures.
#
#######################################################################

data_CSD_CIF_VUNHAO
_audit_creation_date 2010-06-03
_audit_creation_method CSD-ConQuest-V1
_database_code_CSD VUNHAO
_database_code_depnum_ccdc_archive 'CCDC 694346'
_chemical_formula_sum 'C52 H82 Cu2 Fe3 N38 O5'
_chemical_formula_moiety
;
(C18 H36 Cu1 N7 1+)2n,n(C16 H4 Fe3 N24 O2 2-),3n(H2 O1)
;
_journal_coden_Cambridge 1147
_journal_volume 9
_journal_year 2009
_journal_page_first 4102
_journal_name_full 'Cryst.Growth Des. '
loop_
_publ_author_name
"J.Suarez-Varela"
"J.M.Moreno"
"I.B.Maimoun"
"F.Lloret"
"J.Mrozinski"
"R.Kivekas"
"E.Colacio"
_chemical_name_systematic
;
catena-(bis((rac-5,5,7,12,12,14-hexamethyl-1,4,8,11-tetraazacyclotetradecane)-
(dicyanamide-N)-copper(ii)) 
octakis(\m~2~-dicyanamide-N,N'')-diaqua-tri-iron(ii) trihydrate)
;
_cell_volume   7689.461
_exptl_crystal_colour 'blue'
_exptl_crystal_density_diffrn 1.394
_exptl_crystal_description 'prism'
_diffrn_ambient_temperature 294
#These two values have been output from a single CSD field.
_refine_ls_R_factor_gt 0.1109
_refine_ls_wR_factor_gt 0.1109
_symmetry_cell_setting orthorhombic
_symmetry_space_group_name_H-M 'P c a 21'
_symmetry_Int_Tables_number 29
loop_
_symmetry_equiv_pos_site_id
_symmetry_equiv_pos_as_xyz
1 x,y,z
2 -x,-y,1/2+z
3 1/2+x,-y,z
4 1/2-x,y,1/2+z
_cell_length_a 29.846(17)
_cell_length_b 21.310(8)
_cell_length_c 12.090(8)
_cell_angle_alpha 90
_cell_angle_beta 90
_cell_angle_gamma 90
_cell_formula_units_Z 4
loop_
_atom_type_symbol
_atom_type_radius_bond
C 0.68
H 0.23
Cu 1.32
Fe 1.52
N 0.68
O 0.68
loop_
_atom_site_label
_atom_site_type_symbol
_atom_site_fract_x
_atom_site_fract_y
_atom_site_fract_z
Cu1 Cu 0.38684(3) 0.62095(4) 0.17080
Cu2 Cu 0.63749(3) 0.93092(4) 0.14635(11)
Fe1 Fe 0.47485(4) 1.24062(5) 0.15566(15)
Fe2 Fe 0.64892(3) 1.11245(5) 0.66380(14)
Fe3 Fe 0.65784(4) 1.54653(5) 0.16011(15)
O1 O 0.66851(17) 1.2141(2) 0.6501(6)
O2 O 0.7011(3) 1.6294(4) 0.1958(8)
O3 O 0.8001(4) 0.7460(5) 0.6036(12)
O4 O 0.7232(7) 1.6664(10) 0.426(2)
O5 O 0.3265(6) 1.2727(9) 0.1038(19)
N1 N 0.5175(3) 1.1797(4) 0.2560(8)
C1 C 0.5372(3) 1.1466(4) 0.3098(8)
N2 N 0.5565(3) 1.1049(4) 0.3702(8)
C2 C 0.5844(3) 1.1139(4) 0.4453(8)
N3 N 0.6087(2) 1.1140(3) 0.5128(7)
N4 N 0.5304(3) 1.3025(4) 0.1207(8)
C3 C 0.5522(3) 1.3416(5) 0.0826(9)
N5 N 0.5758(3) 1.3802(4) 0.0288(9)
C4 C 0.5986(3) 1.4249(5) 0.0893(9)
N6 N 0.6179(3) 1.4654(4) 0.1211(8)
N7 N 0.4321(3) 1.3007(4) 0.0634(9)
C5 C 0.4264(4) 1.3454(6) 0.0078(11)
N8 N 0.4278(3) 1.4016(5) -0.0374(9)
C6 C 0.3999(3) 1.4103(5) -0.1171(9)
N9 N 0.3811(3) 1.4294(5) -0.1904(9)
N10 N 0.4906(3) 1.1917(4) 0.0103(8)
C7 C 0.5034(3) 1.1734(4) -0.0723(8)
N11 N 0.5126(2) 1.1516(3) -0.1767(6)
C8 C 0.5554(3) 1.1473(4) -0.2097(9)
N12 N 0.5897(3) 1.1431(4) -0.2492(8)
N13 N 0.4214(3) 1.1756(4) 0.1927(7)
C9 C 0.4061(3) 1.1301(5) 0.2306(9)
N14 N 0.3878(3) 1.0816(4) 0.2827(9)
C10 C 0.3769(3) 1.0302(5) 0.234(1)
N15 N 0.3666(3) 0.9836(5) 0.1916(9)
N16 N 0.4577(3) 1.2954(4) 0.3046(8)
C11 C 0.4508(3) 1.3146(4) 0.3895(8)
N17 N 0.4497(3) 1.3414(4) 0.4847(9)
C12 C 0.4129(3) 1.3692(4) 0.5183(9)
N18 N 0.3835(3) 1.3972(4) 0.5670(9)
N19 N 0.6899(3) 1.1116(4) 0.8118(8)
C13 C 0.7063(3) 1.0928(5) 0.8898(9)
N20 N 0.7250(3) 1.0650(5) 0.9714(9)
C14 C 0.7612(3) 1.0828(4) 1.0206(9)
N21 N 0.7936(2) 1.0916(4) 1.0710(7)
N22 N 0.7022(3) 1.4947(4) 0.2615(8)
C15 C 0.7349(3) 1.4871(4) 0.3083(9)
N23 N 0.7726(3) 1.4660(4) 0.3591(8)
C16 C 0.7877(4) 1.4963(5) 0.4522(10)
N24 N 0.8001(3) 1.5245(4) 0.5208(9)
N25 N 0.3461(3) 0.6680(4) 0.3058(8)
C17 C 0.3247(4) 0.6880(6) 0.3757(8)
N26 N 0.3083(4) 0.6912(7) 0.4791(11)
C18 C 0.2705(3) 0.7251(8) 0.4936(19)
N27 N 0.2343(4) 0.7347(7) 0.5230(15)
N28 N 0.6911(3) 0.9094(4) 0.0252(9)
C19 C 0.7056(4) 0.9034(6) -0.0610(12)
N29 N 0.7261(5) 0.9058(7) -0.1606(14)
C20 C 0.7240(7) 0.8514(10) -0.221(2)
N30 N 0.7335(5) 0.8147(8) -0.2905(16)
N31 N 0.4251(2) 0.6981(3) 0.1645(7)
H1 H 0.40630 0.73140 0.17220
C21 C 0.4528(3) 0.6960(4) 0.2666(8)
H2 H 0.43450 0.70280 0.33170
H3 H 0.47620 0.72760 0.26430
C22 C 0.4733(4) 0.6288(5) 0.2671(12)
H4 H 0.48970 0.62100 0.19920
H5 H 0.49350 0.62350 0.32930
N32 N 0.4336(2) 0.5844(3) 0.2766(7)
H6 H 0.42250 0.58910 0.34620
C23 C 0.4477(3) 0.5164(5) 0.2660(9)
C24 C 0.4043(4) 0.4776(5) 0.2682(11)
H7 H 0.41290 0.43380 0.27440
H8 H 0.38850 0.48840 0.33560
C25 C 0.3723(3) 0.4826(4) 0.1763(11)
H9 H 0.38800 0.47870 0.10540
N33 N 0.3478(2) 0.5448(3) 0.1817(7)
H10 H 0.33480 0.54640 0.24980
C26 C 0.3112(4) 0.5585(7) 0.1004(9)
H11 H 0.29620 0.51940 0.08290
H12 H 0.28940 0.58550 0.13620
C27 C 0.3251(4) 0.5889(6) -0.0058(10)
H13 H 0.29930 0.60490 -0.04570
H14 H 0.34100 0.55950 -0.05280
N34 N 0.3553(3) 0.6413(4) 0.0306(7)
H15 H 0.33750 0.67510 0.04450
C28 C 0.3844(3) 0.6581(5) -0.0642(10)
C29 C 0.4126(3) 0.7132(4) -0.0345(8)
H16 H 0.39260 0.74730 -0.01470
H17 H 0.42840 0.72620 -0.10080
C30 C 0.4479(3) 0.7066(4) 0.0602(8)
H18 H 0.46630 0.66950 0.04560
C31 C 0.4789(4) 0.4979(6) 0.3678(12)
H19 H 0.48650 0.45420 0.36310
H20 H 0.46330 0.50570 0.43580
H21 H 0.50580 0.52260 0.36580
C32 C 0.4723(3) 0.5028(4) 0.1628(10)
H22 H 0.45670 0.52120 0.10140
H23 H 0.47420 0.45820 0.15260
H24 H 0.50190 0.52010 0.16740
C33 C 0.3390(4) 0.4271(5) 0.1916(14)
H25 H 0.35560 0.38880 0.20000
H26 H 0.31990 0.42420 0.12790
H27 H 0.32110 0.43420 0.25640
C34 C 0.4151(4) 0.6042(5) -0.1008(11)
H28 H 0.44220 0.60500 -0.05810
H29 H 0.42220 0.60890 -0.17780
H30 H 0.40010 0.56480 -0.08950
C35 C 0.3557(5) 0.6829(7) -0.1596(15)
H31 H 0.34370 0.64820 -0.20070
H32 H 0.37380 0.70830 -0.20750
H33 H 0.33160 0.70770 -0.13050
C36 C 0.4793(3) 0.7666(4) 0.0593(9)
H34 H 0.46160 0.80350 0.07200
H35 H 0.49390 0.76980 -0.01110
H36 H 0.50140 0.76270 0.11660
N35 N 0.6549(2) 1.0214(4) 0.1402(9)
H37 H 0.67000 1.02640 0.07550
C37 C 0.6886(4) 1.0302(6) 0.2296(11)
H38 H 0.71790 1.01930 0.20060
H39 H 0.68940 1.07420 0.24960
C38 C 0.6809(4) 0.9938(6) 0.3285(12)
H40 H 0.65740 1.01340 0.37190
H41 H 0.70800 0.99310 0.37290
N36 N 0.6677(3) 0.9288(4) 0.3003(8)
H42 H 0.69390 0.90750 0.29070
C39 C 0.6427(3) 0.8939(5) 0.3911(8)
C40 C 0.6358(3) 0.8255(4) 0.3555(9)
H43 H 0.62330 0.80250 0.41750
H44 H 0.66480 0.80740 0.33870
C41 C 0.6047(3) 0.8160(4) 0.2540(9)
H45 H 0.57730 0.84020 0.26690
N37 N 0.6244(2) 0.8380(3) 0.1514(8)
H46 H 0.65060 0.81700 0.14070
C42 C 0.5961(3) 0.8292(4) 0.0518(8)
H47 H 0.58140 0.78870 0.05610
H48 H 0.61510 0.82900 -0.01330
C43 C 0.5609(3) 0.8799(4) 0.0393(9)
H49 H 0.54490 0.87510 -0.02990
H50 H 0.53960 0.87820 0.09970
N38 N 0.5858(2) 0.9395(3) 0.0410(7)
H51 H 0.59900 0.94140 -0.02680
C44 C 0.5567(3) 0.9985(4) 0.0458(7)
C45 C 0.5880(3) 1.0560(5) 0.0455(10)
H52 H 0.60580 1.05350 -0.02140
H53 H 0.56910 1.09280 0.03820
C46 C 0.6203(3) 1.0689(4) 0.1404(11)
H54 H 0.60330 1.06410 0.20940
C47 C 0.5986(4) 0.9272(6) 0.4190(13)
H55 H 0.58790 0.91260 0.48930
H56 H 0.57680 0.91800 0.36290
H57 H 0.60360 0.97160 0.42230
C48 C 0.6736(3) 0.8909(6) 0.4889(9)
H58 H 0.68040 0.93270 0.51330
H59 H 0.70080 0.86980 0.46820
H60 H 0.65930 0.86820 0.54770
C49 C 0.5915(3) 0.7433(4) 0.2518(10)
H61 H 0.61400 0.72020 0.21210
H62 H 0.56310 0.73830 0.21570
H63 H 0.58960 0.72780 0.32620
C50 C 0.5255(4) 1.0013(6) -0.0557(11)
H64 H 0.51640 0.95960 -0.07540
H65 H 0.54120 1.02000 -0.11670
H66 H 0.49960 1.02600 -0.03830
C51 C 0.5280(3) 0.9982(4) 0.1449(8)
H67 H 0.50450 1.02860 0.13640
H68 H 0.54570 1.00850 0.20870
H69 H 0.51510 0.95730 0.15430
C52 C 0.6351(4) 1.1365(5) 0.1336(11)
H70 H 0.66110 1.13960 0.08710
H71 H 0.64230 1.15150 0.20640
H72 H 0.61140 1.16150 0.10310
Fe2* Fe 0.64892(3) 1.11245(5) -0.33620(14)
Fe2A Fe 0.35108(3) 0.88755(5) 0.16380(14)
Fe2C Fe 0.85108(3) 1.11245(5) 1.16380(14)
Fe3A Fe 0.34216(4) 1.45347(5) -0.33989(15)
Fe3A* Fe 0.34216(4) 1.45347(5) 0.66011(15)
Fe3C Fe 0.84216(4) 1.54653(5) 0.66011(15)
N9A N 0.6189(3) 1.5706(5) 0.3096(9)
N12* N 0.5897(3) 1.1431(4) 0.7508(8)
N15A N 0.6334(3) 1.0164(5) 0.6916(9)
N18A N 0.6165(3) 1.6028(4) 0.0670(9)
N21C N 0.7064(2) 1.0916(4) 0.5710(7)
N24C N 0.6999(3) 1.5245(4) 0.0208(9)
#END
