
#######################################################################
#
#                 Cambridge Crystallographic Data Centre
#                                CCDC
#
#######################################################################
#
# If this CIF has been generated from an entry in the Cambridge
# Structural Database, then it will include bibliographic, chemical,
# crystal, experimental, refinement or atomic coordinate data resulting
# from the CCDC's data processing and validation procedures.
#
#######################################################################

data_CSD_CIF_VUNJAR
_audit_creation_date 2015-06-19
_audit_creation_method CSD-ConQuest-V1
_database_code_CSD VUNJAR
_database_code_depnum_ccdc_archive 'CCDC 1043315'
_chemical_formula_sum 'C29.5 H37.5 N4.5 O13.5 Zn1'
_chemical_formula_moiety
;
(C24 H12 N2 O10 Zn1 2-)n,0.5(C3 H7 N1 O1),2(C2 H8 N1 1+),3(H2 O1)
;
_journal_coden_Cambridge 29
_journal_volume 641
_journal_year 2015
_journal_page_first 1125
_journal_name_full 'Z.Anorg.Allg.Chem. '
loop_
_publ_author_name
"Chengmiao Wang"
"Fengqin Wang"
"Caifu Dong"
"Zongchao Yu"
"Zechuan Wang"
"Yongnan Zhao"
"Guodong Li"
_chemical_name_systematic
;
catena-[bis(dimethylammonium) 
(\m-5,5'-[benzene-1,4-diylbis(carbonylimino)]dibenzene-1,3-dicarboxylato)-zinc
 N,N-dimethylformamide solvate trihydrate]
;
_cell_volume   1805.840
_exptl_crystal_colour 'colorless'
_exptl_crystal_density_diffrn 1.354
_exptl_crystal_description 'block'
_diffrn_ambient_temperature 293
_refine_special_details
;
C30,C31,N5 and C30',C31',N5' disordered over two sites with occupancies 
0.7307:0.2693.
;
#These two values have been output from a single CSD field.
_refine_ls_R_factor_gt 0.0764
_refine_ls_wR_factor_gt 0.0764
_symmetry_cell_setting triclinic
_symmetry_space_group_name_H-M 'P -1'
_symmetry_Int_Tables_number 2
loop_
_symmetry_equiv_pos_site_id
_symmetry_equiv_pos_as_xyz
1 x,y,z
2 -x,-y,-z
_cell_length_a 10.143(2)
_cell_length_b 10.328(2)
_cell_length_c 18.048(4)
_cell_angle_alpha 102.71(3)
_cell_angle_beta 101.23(3)
_cell_angle_gamma 90.79(3)
_cell_formula_units_Z 2
loop_
_atom_type_symbol
_atom_type_radius_bond
C 0.68
H 0.23
N 0.68
O 0.68
Zn 1.22
loop_
_atom_site_label
_atom_site_type_symbol
_atom_site_fract_x
_atom_site_fract_y
_atom_site_fract_z
Zn1 Zn 0.050027(4) 0.044907(4) 0.315796(2)
O1 O 0.11003(5) 0.23923(4) 0.40034(3)
O2 O 0.04963(6) 0.29640(5) 0.28989(3)
O3 O 0.02314(7) 0.78753(5) 0.30066(3)
O4 O 0.09418(6) 0.93467(4) 0.40991(3)
O5 O 0.38417(7) 0.51325(6) 0.60856(3)
O6 O 0.61085(6) 0.72366(6) 0.99844(3)
O7 O 0.87508(4) 0.98111(4) 1.20940(3)
O8 O 0.81710(5) 1.06597(4) 1.32124(2)
O9 O 0.33066(6) 1.03550(7) 1.33855(3)
O10 O 0.18181(5) 0.99707(5) 1.23067(3)
N1 N 0.23809(6) 0.66693(5) 0.60634(3)
H1 H 0.20330 0.73130 0.63360
N2 N 0.43744(6) 0.84676(5) 1.01670(3)
H2 H 0.36050 0.86760 0.99420
C1 C 0.08871(7) 0.32822(6) 0.36218(3)
C2 C 0.11192(6) 0.46955(6) 0.40559(3)
C3 C 0.16091(7) 0.50023(6) 0.48385(3)
H3 H 0.17700 0.43230 0.51020
C4 C 0.18768(7) 0.63587(6) 0.52566(3)
C5 C 0.15441(7) 0.73652(6) 0.49011(3)
H4 H 0.16680 0.82440 0.51800
C6 C 0.10094(7) 0.70536(6) 0.41045(3)
C7 C 0.08048(6) 0.57185(6) 0.36839(4)
H5 H 0.04560 0.55260 0.31530
C8 C 0.06843(7) 0.81557(6) 0.36970(4)
C9 C 0.33330(8) 0.60652(7) 0.64369(4)
C10 C 0.37605(7) 0.65864(6) 0.72585(3)
C11 C 0.50886(8) 0.67536(7) 0.75804(4)
H6 H 0.57240 0.66140 0.72670
C12 C 0.55038(7) 0.71398(7) 0.83924(4)
H7 H 0.64190 0.72640 0.86100
C13 C 0.45786(7) 0.73396(6) 0.88751(3)
C14 C 0.32039(7) 0.71560(7) 0.85422(4)
H8 H 0.25700 0.72810 0.88570
C15 C 0.27973(8) 0.67952(6) 0.77582(4)
H9 H 0.18820 0.66810 0.75400
C16 C 0.50754(8) 0.76852(7) 0.97220(4)
C17 C 0.47657(7) 0.89907(6) 1.09720(3)
C18 C 0.60946(6) 0.92961(6) 1.13324(3)
H10 H 0.67680 0.91540 1.10450
C19 C 0.64249(6) 0.98177(6) 1.21284(3)
C20 C 0.54102(6) 1.00357(6) 1.25562(3)
H11 H 0.56430 1.03710 1.30900
C21 C 0.40799(6) 0.97687(6) 1.22101(3)
C22 C 0.37543(6) 0.92370(6) 1.14077(4)
H12 H 0.28570 0.90450 1.11610
C23 C 0.78630(6) 1.01207(6) 1.25046(3)
C24 C 0.30162(7) 1.00638(7) 1.26631(4)
O11 O 0.82137(9) 0.42146(10) 0.87243(6)
N3 N 0.61136(9) 0.38045(8) 0.80667(5)
C25 C 0.70019(13) 0.41731(11) 0.87060(8)
H13 H 0.67050 0.44160 0.91710
C26 C 0.64301(18) 0.34840(16) 0.73069(9)
H14 H 0.70650 0.41490 0.72660
H15 H 0.56230 0.34570 0.69220
H16 H 0.68130 0.26320 0.72250
C27 C 0.47047(13) 0.37005(12) 0.80419(10)
H17 H 0.45530 0.36020 0.85360
H18 H 0.43030 0.29400 0.76470
H19 H 0.43070 0.44890 0.79260
N4 N 0.05125(7) 0.26599(6) 0.86912(3)
H20 H -0.02840 0.28720 0.84420
H21 H 0.06920 0.18550 0.84320
C28 C 0.03997(10) 0.25804(10) 0.94665(5)
H22 H 0.12820 0.25660 0.97750
H23 H -0.01190 0.17830 0.94430
H24 H -0.00380 0.33390 0.96960
C29 C 0.15625(10) 0.36394(11) 0.86745(6)
H25 H 0.13580 0.45090 0.89290
H26 H 0.15990 0.36310 0.81460
H27 H 0.24170 0.34190 0.89370
N5 N 0.69052(13) 0.84779(13) 0.50746(6)
H28 H 0.75120 0.82000 0.54330
H29 H 0.68370 0.93570 0.52450
C30 C 0.55437(18) 0.77541(18) 0.49814(10)
H30 H 0.53130 0.78440 0.54810
H31 H 0.55900 0.68290 0.47510
H32 H 0.48700 0.81330 0.46540
C31 C 0.74015(17) 0.82230(15) 0.42982(8)
H33 H 0.82880 0.86360 0.43840
H34 H 0.67980 0.85920 0.39300
H35 H 0.74260 0.72830 0.41010
N6? N 0.68596(18) 0.83258(9) 0.50001(6)
H36? H 0.72340 0.88440 0.54660
H37? H 0.59750 0.84700 0.49140
C32? C 0.6993(3) 0.69052(8) 0.50625(8)
H38? H 0.64700 0.67190 0.54210
H39? H 0.79220 0.67630 0.52450
H40? H 0.66730 0.63260 0.45620
C33? C 0.74473(17) 0.88105(10) 0.44003(5)
H41? H 0.75490 0.97640 0.45360
H42? H 0.68570 0.85250 0.39030
H43? H 0.83110 0.84520 0.43790
O12 O 0.18799(6) 0.95548(7) 0.97770(3)
H44 H 0.14604(16) 1.00903(16) 1.00690(6)
H45 H 0.1451(3) 0.9208(2) 0.93186(5)
O13 O 0.96473(10) 0.64203(8) 0.84999(4)
O14 O 0.91122(7) 0.89760(7) 0.89626(4)
Zn1* Zn 0.050027(4) 1.044907(4) 0.315796(2)
Zn1** Zn 0.050027(4) 1.044907(4) 1.315796(2)
Zn1*** Zn 1.050027(4) 1.044907(4) 1.315796(2)
O4* O 0.09418(6) -0.06533(4) 0.40991(3)
O7* O -0.12492(4) -0.01889(4) 0.20940(3)
O8* O -0.18290(5) 0.06597(4) 0.32124(2)
O10* O 0.18181(5) -0.00293(5) 0.23067(3)
#END
