
#######################################################################
#
#                 Cambridge Crystallographic Data Centre
#                                CCDC
#
#######################################################################
#
# If this CIF has been generated from an entry in the Cambridge
# Structural Database, then it will include bibliographic, chemical,
# crystal, experimental, refinement or atomic coordinate data resulting
# from the CCDC's data processing and validation procedures.
#
#######################################################################

data_CSD_CIF_VUSFIB
_audit_creation_date 2020-09-07
_audit_creation_method CSD-ConQuest-V1
_database_code_CSD VUSFIB
_database_code_depnum_ccdc_archive 'CCDC 1983027'
_chemical_formula_sum 'C26 H31 N2 O21 S2 Sm1'
_chemical_formula_moiety
;
(C16 H10 O16 S2 Sm1 3-)n,C10 H8 N2,2(H2 O1),3(H3 O1 1+)
;
_journal_coden_Cambridge 1350
_journal_volume 22
_journal_year 2020
_journal_page_first 6116
_journal_name_full 'CrystEngComm '
loop_
_publ_author_name
"M.B.Coban"
"Elif Gungor"
"Y.Acar"
"F.K.Alpaslan"
"H.K.Subasat"
_chemical_name_systematic
;
catena-[tris(oxonium) 
bis(\m-2-sulfonatobenzene-1,4-dicarboxylato)-diaqua-samarium(iii) 
4,4'-bipyridine dihydrate]
;
_cell_volume   1685.057
_exptl_crystal_colour 'light orange'
_exptl_crystal_density_diffrn 1.811
_exptl_special_details
;
The reported structure does not charge balance, to achieve charge balance 
three water molecules have been converted to oxonium cations
;
_exptl_crystal_description 'block'
_diffrn_ambient_temperature 293
#These two values have been output from a single CSD field.
_refine_ls_R_factor_gt 0.0401
_refine_ls_wR_factor_gt 0.0401
_symmetry_cell_setting triclinic
_symmetry_space_group_name_H-M 'P -1'
_symmetry_Int_Tables_number 2
loop_
_symmetry_equiv_pos_site_id
_symmetry_equiv_pos_as_xyz
1 x,y,z
2 -x,-y,-z
_cell_length_a 9.0648(4)
_cell_length_b 10.3588(6)
_cell_length_c 18.876(1)
_cell_angle_alpha 78.990(5)
_cell_angle_beta 77.823(4)
_cell_angle_gamma 80.206(4)
_cell_formula_units_Z 2
loop_
_atom_type_symbol
_atom_type_radius_bond
C 0.68
H 0.23
N 0.68
O 0.68
S 1.02
Sm 1.98
loop_
_atom_site_label
_atom_site_type_symbol
_atom_site_fract_x
_atom_site_fract_y
_atom_site_fract_z
Sm1 Sm 0.47960(2) 0.52162(2) 0.23163(2)
S1 S -0.16108(11) 0.30207(11) 0.26966(6)
S2 S 1.19619(12) 0.61375(11) 0.11008(6)
O1 O 0.4002(3) 0.3056(3) 0.24301(18)
H1 H 0.47171 0.24375 0.25475
H2 H 0.38039 0.29575 0.20174
O2 O 0.6299(3) 0.5216(3) 0.11219(17)
H3 H 0.57188 0.52700 0.08090
H4 H 0.69214 0.44923 0.11128
O3 O 0.6374(3) 0.6482(3) 0.26233(17)
O4 O 0.2454(3) 0.5799(3) 0.31479(16)
O5 O 0.5914(3) 0.8309(3) 0.3125(2)
O6 O 1.0923(3) 0.5467(3) 0.08614(17)
O7 O 1.2793(3) 0.6974(3) 0.05125(17)
O8 O 1.2921(3) 0.5209(3) 0.15543(16)
O9 O 1.4058(3) 0.7433(3) 0.17924(17)
O10 O 1.3360(3) 0.9558(3) 0.1437(2)
O11 O 0.1276(3) 0.6880(3) 0.40631(17)
O12 O -0.0148(3) 0.2886(4) 0.2236(2)
O13 O -0.2798(3) 0.3673(3) 0.22992(16)
O14 O -0.1995(4) 0.1794(3) 0.31487(19)
O15 O -0.5029(3) 0.4059(3) 0.35612(16)
O16 O -0.4532(3) 0.2931(3) 0.46158(17)
C1 C 0.6752(4) 0.7528(4) 0.2744(2)
C2 C 0.8350(4) 0.7817(4) 0.2409(2)
C3 C 0.9306(4) 0.7029(4) 0.1938(2)
H5 H 0.89245 0.63658 0.17895
C4 C 1.0809(4) 0.7208(4) 0.1685(2)
C5 C 1.1393(4) 0.8215(4) 0.1894(2)
C6 C 1.0411(4) 0.9048(4) 0.2337(2)
H6 H 1.07630 0.97520 0.24617
C7 C 0.8923(4) 0.8833(4) 0.2592(2)
H7 H 0.82868 0.93876 0.28963
C8 C 1.3064(5) 0.8400(4) 0.1692(2)
C9 C 0.1346(4) 0.6053(4) 0.3621(2)
C10 C -0.0060(4) 0.5407(4) 0.3732(2)
C11 C -0.0180(4) 0.4611(4) 0.3242(2)
H8 H 0.06237 0.44523 0.28581
C12 C -0.1499(4) 0.4050(4) 0.3325(2)
C13 C -0.2697(4) 0.4263(4) 0.3911(2)
C14 C -0.2537(4) 0.5020(4) 0.4408(2)
H9 H -0.33149 0.51447 0.48074
C15 C -0.1228(4) 0.5595(4) 0.4316(2)
H10 H -0.11347 0.61135 0.46514
C16 C -0.4191(4) 0.3711(4) 0.4023(2)
O17 O 0.5263(4) 0.0928(3) 0.3250(3)
H11 H 0.61411 0.11494 0.32108
H12 H 0.53543 0.01482 0.31517
O18 O 0.2657(4) 0.2220(3) 0.1461(2)
H13 H 0.17090 0.24108 0.16175
H14 H 0.28452 0.14174 0.13896
O19 O 0.3458(3) 0.7917(4) 0.41066(19)
H15 H 0.37533 0.76027 0.45110
H16 H 0.42107 0.78582 0.37542
O20 O 0.9035(4) 0.3706(4) 0.06659(18)
H17 H 0.90004 0.39140 0.02109
H18 H 0.96137 0.41722 0.07760
O21 O 0.4247(5) 0.3403(5) 0.0142(2)
H19 H 0.52008 0.31463 0.00712
H20 H 0.38644 0.31707 0.05908
N1 N 0.3086(4) 0.1780(4) 0.4676(2)
C17 C 0.2176(5) 0.1977(5) 0.4191(3)
H21 H 0.23674 0.25932 0.37658
C18 C 0.0955(5) 0.1292(5) 0.4302(3)
H22 H 0.03334 0.14386 0.39531
C19 C 0.0655(4) 0.0385(4) 0.4935(2)
C20 C 0.1632(6) 0.0203(6) 0.5415(3)
H23 H 0.14852 -0.04156 0.58426
C21 C 0.2817(6) 0.0914(6) 0.5276(3)
H24 H 0.34567 0.07837 0.56168
N2 N 0.6289(4) 0.9668(4) 0.0936(3)
C22 C 0.6985(6) 0.8856(6) 0.0481(4)
H25 H 0.64750 0.82024 0.04049
C23 C 0.8453(5) 0.8947(6) 0.0113(3)
H26 H 0.89320 0.83423 -0.01978
C24 C 0.9215(4) 0.9928(5) 0.0201(3)
C25 C 0.8463(5) 1.0733(5) 0.0691(3)
H27 H 0.89491 1.13852 0.07869
C26 C 0.6999(6) 1.0598(5) 0.1044(3)
H28 H 0.64992 1.11748 0.13674
Sm1* Sm -0.52040(2) 0.52162(2) 0.23163(2)
Sm1** Sm 1.47960(2) 0.52162(2) 0.23163(2)
O8* O 0.2921(3) 0.5209(3) 0.15543(16)
O9* O 0.4058(3) 0.7433(3) 0.17924(17)
O13* O 0.7202(3) 0.3673(3) 0.22992(16)
O15* O 0.4971(3) 0.4059(3) 0.35612(16)
N1A N -0.3086(4) -0.1780(4) 0.5324(2)
C17A C -0.2176(5) -0.1977(5) 0.5809(3)
H21A H -0.23674 -0.25932 0.62342
C18A C -0.0955(5) -0.1292(5) 0.5698(3)
H22A H -0.03334 -0.14386 0.60469
C19A C -0.0655(4) -0.0385(4) 0.5065(2)
C20A C -0.1632(6) -0.0203(6) 0.4585(3)
H23A H -0.14852 0.04156 0.41574
C21A C -0.2817(6) -0.0914(6) 0.4724(3)
H24A H -0.34567 -0.07837 0.43832
N2A N 1.3711(4) 1.0332(4) -0.0936(3)
C22A C 1.3015(6) 1.1144(6) -0.0481(4)
H25A H 1.35250 1.17976 -0.04049
C23A C 1.1547(5) 1.1053(6) -0.0113(3)
H26A H 1.10680 1.16576 0.01978
C24A C 1.0785(4) 1.0072(5) -0.0201(3)
C25A C 1.1537(5) 0.9267(5) -0.0691(3)
H27A H 1.10509 0.86148 -0.07869
C26A C 1.3001(6) 0.9402(5) -0.1044(3)
H28A H 1.35008 0.88252 -0.13674
#END
