
#######################################################################
#
#                 Cambridge Crystallographic Data Centre
#                                CCDC
#
#######################################################################
#
# If this CIF has been generated from an entry in the Cambridge
# Structural Database, then it will include bibliographic, chemical,
# crystal, experimental, refinement or atomic coordinate data resulting
# from the CCDC's data processing and validation procedures.
#
#######################################################################

data_CSD_CIF_VUSQIK
_audit_creation_date 2010-10-12
_audit_creation_method CSD-ConQuest-V1
_database_code_CSD VUSQIK
_database_code_depnum_ccdc_archive 'CCDC 743138'
_chemical_formula_sum 'C50 H55 N10 Ni1 O64 Sb1 W18'
_chemical_formula_moiety
;
(C10 H10 N2 2+)2n,n(C30 H27 N6 Ni1 O60 Sb1 W18 4-),4n(H2 O1)
;
_journal_coden_Cambridge 119
_journal_volume 968
_journal_year 2010
_journal_page_first 76
_journal_name_full 'J.Mol.Struct. '
loop_
_publ_author_name
"Wei Zhang"
"Shuxia Liu"
"Ping Sun"
"Chundan Zhang"
"Fengji Ma"
"Dan Feng"
_chemical_name_systematic
;
catena-(bis(4,4'-bipyridine-diium) 
hexakis(\m~4~-oxo)-(\m~2~-4,4'-bipyridine)-(\m~2~-hydroxo)-heptatriacontakis(\
m~2~-oxo)-hexadecaoxo-bis(4,4'-bipyridinium)-antimony-nickel(ii)-octadeca-tung
sten(vi) tetrahydrate)
;
_cell_volume   9144.971
_exptl_crystal_colour 'light green'
_exptl_special_details
;
isomorphous with the Cu analogue

;
_exptl_crystal_description 'block'
_diffrn_ambient_temperature 296
_refine_special_details
;
The Sb atom and the bipyridine cation are disordered by symmetry.

;
#These two values have been output from a single CSD field.
_refine_ls_R_factor_gt 0.0503
_refine_ls_wR_factor_gt 0.0503
_symmetry_cell_setting orthorhombic
_symmetry_space_group_name_H-M 'P c c n'
_symmetry_Int_Tables_number 56
loop_
_symmetry_equiv_pos_site_id
_symmetry_equiv_pos_as_xyz
1 x,y,z
2 1/2-x,1/2-y,z
3 -x,1/2+y,1/2-z
4 1/2+x,-y,1/2-z
5 -x,-y,-z
6 -1/2+x,-1/2+y,-z
7 x,-1/2-y,-1/2+z
8 -1/2-x,y,-1/2+z
_cell_length_a 19.0435(12)
_cell_length_b 21.6023(14)
_cell_length_c 22.2298(14)
_cell_angle_alpha 90
_cell_angle_beta 90
_cell_angle_gamma 90
_cell_formula_units_Z 4
loop_
_atom_type_symbol
_atom_type_radius_bond
C 0.68
H 0.23
N 0.68
Ni 1.24
O 0.68
Sb 1.16
W 1.29
loop_
_atom_site_label
_atom_site_type_symbol
_atom_site_fract_x
_atom_site_fract_y
_atom_site_fract_z
Sb1 Sb 0.03459(13) 0.01133(12) -0.03682(12)
W1 W 0.16071(4) 0.10758(4) 0.03924(4)
W2 W 0.22922(4) 0.06413(4) -0.09133(4)
W3 W 0.20349(5) -0.03880(5) 0.01848(5)
W4 W 0.09720(6) -0.13685(5) -0.08680(5)
W5 W 0.07865(5) 0.13080(5) -0.17444(4)
W6 W 0.00918(5) 0.17772(4) -0.04459(4)
W7 W 0.03507(5) 0.07590(5) 0.16056(5)
W8 W -0.08449(5) 0.09054(5) -0.13702(4)
W9 W 0.12617(5) -0.03361(5) -0.19589(4)
Ni1 Ni 0.25000 0.25000 0.09618(14)
O1 O 0.1642(8) 0.1149(7) -0.1306(6)
O2 O 0.1365(7) 0.0332(6) -0.0271(6)
O3 O 0.1957(7) 0.1638(6) 0.0876(5)
O4 O 0.1680(7) -0.0957(7) -0.0389(7)
O5 O 0.2633(7) -0.0001(7) -0.0418(7)
O6 O 0.0210(7) 0.0845(6) -0.0923(6)
O7 O -0.0138(8) 0.1475(7) 0.1355(7)
O8 O 0.2146(7) 0.0385(6) 0.0649(6)
O9 O 0.1973(7) 0.0009(8) -0.1461(7)
O10 O -0.0745(8) 0.1683(7) -0.0924(7)
O11 O 0.1471(8) -0.1099(10) -0.1604(8)
O12 O 0.0842(8) 0.0783(6) 0.0848(6)
O13 O 0.3078(8) 0.0828(7) -0.1242(7)
O14 O -0.0361(8) 0.0606(7) 0.2205(6)
O15 O 0.2315(7) 0.1168(6) -0.0231(6)
O16 O 0.0575(7) -0.0403(6) -0.1097(6)
O17 O 0.0958(7) 0.1558(6) -0.0063(6)
O18 O 0.1204(8) -0.0543(6) 0.0662(7)
O19 O 0.0950(8) 0.1089(8) 0.2076(7)
O20 O -0.0172(9) 0.1248(8) -0.1958(7)
O21 O -0.0026(8) 0.2514(8) -0.0215(7)
O22 O 0.0572(7) 0.1957(6) -0.1185(6)
O23 O -0.1594(9) 0.1070(9) -0.1758(8)
O24 O -0.0369(7) 0.1335(7) 0.0174(7)
O25 O 0.1251(9) -0.2121(8) -0.0850(9)
O26 O 0.0919(8) 0.0481(7) -0.2022(6)
O27 O 0.0647(8) -0.0097(7) 0.1652(5)
O28 O 0.2643(9) -0.0837(8) 0.0549(8)
O29 O 0.1068(9) 0.1739(8) -0.2319(7)
O30 O 0.1702(10) -0.0435(9) -0.2617(8)
N1 N 0.25000 0.25000 0.0045(9)
N2 N 0.3483(8) 0.2000(8) 0.1044(6)
N3 N 0.25000 0.25000 -0.3123(9)
N4 N 0.656(2) 0.0431(19) 0.1734(19)
H1 H 0.69380 0.02240 0.18110
N5? N 0.957(3) 0.303(2) 0.805(2)
N6? N 0.989(3) 0.446(2) 0.950(2)
C1 C 0.4709(13) 0.1349(11) 0.1311(10)
C2 C 0.4711(10) 0.2007(11) 0.1219(13)
H2 H 0.51250 0.22340 0.12330
C3 C 0.4088(11) 0.2282(11) 0.111(1)
H3 H 0.40880 0.27110 0.10800
C4 C 0.3477(12) 0.1375(10) 0.1141(13)
H4 H 0.30600 0.11510 0.11150
C5 C 0.4105(13) 0.1080(11) 0.1279(13)
H5 H 0.40890 0.06570 0.13540
C6 C 0.5408(13) 0.1053(14) 0.1467(13)
C7 C 0.547(2) 0.0523(17) 0.1824(15)
H6 H 0.50410 0.03850 0.19810
C8 C 0.599(2) 0.019(2) 0.1975(16)
H7 H 0.59790 -0.01580 0.22170
C9 C 0.6675(19) 0.094(2) 0.139(3)
H8 H 0.71180 0.10590 0.12580
C10 C 0.6048(18) 0.126(2) 0.124(2)
H9 H 0.60660 0.16140 0.09960
C11 C 0.2224(11) 0.2975(10) -0.2819(8)
H10 H 0.20400 0.33070 -0.30340
C12 C 0.2200(11) 0.2992(10) -0.2197(9)
H11 H 0.19920 0.33210 -0.19950
C13 C 0.25000 0.25000 -0.1885(11)
C14 C 0.1935(11) 0.2696(10) -0.0276(8)
H12 H 0.15410 0.28290 -0.00660
C15 C 0.1917(10) 0.2708(10) -0.0889(8)
H13 H 0.15210 0.28520 -0.10900
C16 C 0.25000 0.25000 -0.1211(11)
C17? C 0.9455(18) 0.521(3) 1.024(2)
C18? C 0.942(3) 0.478(3) 0.978(3)
C19? C 0.989(3) 0.446(2) 0.950(2)
C20? C 0.9703(14) 0.3970(12) 0.9038(11)
C21? C 0.902(3) 0.322(3) 0.840(3)
C22? C 0.9083(18) 0.364(2) 0.883(2)
C23? C 1.019(2) 0.329(2) 0.8205(19)
C24? C 1.0254(15) 0.3698(18) 0.8663(19)
O31 O 0.7219(18) 0.9611(16) 0.278(2)
O32 O 0.909(3) 0.223(2) 0.739(2)
Sb1A Sb 0.46541(13) 0.48867(12) -0.03682(12)
Sb1D Sb -0.03459(13) -0.01133(12) 0.03682(12)
Sb1E Sb 0.53459(13) 0.51133(12) 0.03682(12)
W1A W 0.33929(4) 0.39242(4) 0.03924(4)
W1D W -0.16071(4) -0.10758(4) -0.03924(4)
W2A W 0.27078(4) 0.43587(4) -0.09133(4)
W2D W -0.22922(4) -0.06413(4) 0.09133(4)
W3A W 0.29651(5) 0.53880(5) 0.01848(5)
W3D W -0.20349(5) 0.03880(5) -0.01848(5)
W4A W 0.40280(6) 0.63685(5) -0.08680(5)
W4D W -0.09720(6) 0.13685(5) 0.08680(5)
W4E W 0.59720(6) 0.36315(5) 0.08680(5)
W5A W 0.42135(5) 0.36920(5) -0.17444(4)
W5D W -0.07865(5) -0.13080(5) 0.17444(4)
W6A W 0.49082(5) 0.32228(4) -0.04459(4)
W6D W -0.00918(5) -0.17772(4) 0.04459(4)
W7A W 0.46493(5) 0.42410(5) 0.16056(5)
W7D W -0.03507(5) -0.07590(5) -0.16056(5)
W8A W 0.58449(5) 0.40946(5) -0.13702(4)
W8D W 0.08449(5) -0.09054(5) 0.13702(4)
W8E W 0.41551(5) 0.59054(5) 0.13702(4)
W9A W 0.37383(5) 0.53361(5) -0.19589(4)
W9D W -0.12617(5) 0.03361(5) 0.19589(4)
W9E W 0.62617(5) 0.46639(5) 0.19589(4)
Ni1F Ni 0.25000 0.25000 -0.40382(14)
Ni1D Ni -0.25000 -0.25000 -0.09618(14)
O1A O 0.3358(8) 0.3851(7) -0.1306(6)
O1D O -0.1642(8) -0.1149(7) 0.1306(6)
O2A O 0.3635(7) 0.4668(6) -0.0271(6)
O2D O -0.1365(7) -0.0332(6) 0.0271(6)
O3A O 0.3043(7) 0.3362(6) 0.0876(5)
O3D O -0.1957(7) -0.1638(6) -0.0876(5)
O4A O 0.3320(7) 0.5957(7) -0.0389(7)
O4D O -0.1680(7) 0.0957(7) 0.0389(7)
O5A O 0.2367(7) 0.5001(7) -0.0418(7)
O5D O -0.2633(7) 0.0001(7) 0.0418(7)
O6A O 0.4790(7) 0.4155(6) -0.0923(6)
O6D O -0.0210(7) -0.0845(6) 0.0923(6)
O7A O 0.5138(8) 0.3525(7) 0.1355(7)
O7D O 0.0138(8) -0.1475(7) -0.1355(7)
O7E O 0.4862(8) 0.6475(7) -0.1355(7)
O8A O 0.2854(7) 0.4615(6) 0.0649(6)
O8D O -0.2146(7) -0.0385(6) -0.0649(6)
O9A O 0.3027(7) 0.4991(8) -0.1461(7)
O9D O -0.1973(7) -0.0009(8) 0.1461(7)
O10A O 0.5745(8) 0.3317(7) -0.0924(7)
O10D O 0.0745(8) -0.1683(7) 0.0924(7)
O11A O 0.3529(8) 0.6099(10) -0.1604(8)
O11D O -0.1471(8) 0.1099(10) 0.1604(8)
O12A O 0.4158(8) 0.4217(6) 0.0848(6)
O12D O -0.0842(8) -0.0783(6) -0.0848(6)
O13A O 0.1922(8) 0.4172(7) -0.1242(7)
O13D O -0.3078(8) -0.0828(7) 0.1242(7)
O14A O 0.5361(8) 0.4394(7) 0.2205(6)
O14D O 0.0361(8) -0.0606(7) -0.2205(6)
O14E O 0.4639(8) 0.5606(7) -0.2205(6)
O15A O 0.2685(7) 0.3832(6) -0.0231(6)
O15D O -0.2315(7) -0.1168(6) 0.0231(6)
O16D O -0.0575(7) 0.0403(6) 0.1097(6)
O16A O 0.4425(7) 0.5403(6) -0.1097(6)
O16E O 0.5575(7) 0.4597(6) 0.1097(6)
O17A O 0.4042(7) 0.3442(6) -0.0063(6)
O17D O -0.0958(7) -0.1558(6) 0.0063(6)
O18A O 0.3796(8) 0.5543(6) 0.0662(7)
O18D O -0.1204(8) 0.0543(6) -0.0662(7)
O18E O 0.6204(8) 0.4457(6) -0.0662(7)
O19A O 0.4050(8) 0.3911(8) 0.2076(7)
O19D O -0.0950(8) -0.1089(8) -0.2076(7)
O20A O 0.5172(9) 0.3752(8) -0.1958(7)
O20D O 0.0172(9) -0.1248(8) 0.1958(7)
O21A O 0.5026(8) 0.2486(8) -0.0215(7)
O21D O 0.0026(8) -0.2514(8) 0.0215(7)
O22A O 0.4428(7) 0.3043(6) -0.1185(6)
O22D O -0.0572(7) -0.1957(6) 0.1185(6)
O23A O 0.6594(9) 0.3930(9) -0.1758(8)
O23D O 0.1594(9) -0.1070(9) 0.1758(8)
O24A O 0.5369(7) 0.3665(7) 0.0174(7)
O24D O 0.0369(7) -0.1335(7) -0.0174(7)
O24E O 0.4631(7) 0.6335(7) -0.0174(7)
O25A O 0.3749(9) 0.7121(8) -0.0850(9)
O25D O -0.1251(9) 0.2121(8) 0.0850(9)
O26A O 0.4081(8) 0.4519(7) -0.2022(6)
O26D O -0.0919(8) -0.0481(7) 0.2022(6)
O27A O 0.4353(8) 0.5097(7) 0.1652(5)
O27D O -0.0647(8) 0.0097(7) -0.1652(5)
O27E O 0.5647(8) 0.4903(7) -0.1652(5)
O28A O 0.2357(9) 0.5837(8) 0.0549(8)
O28D O -0.2643(9) 0.0837(8) -0.0549(8)
O29A O 0.3932(9) 0.3261(8) -0.2319(7)
O29D O -0.1068(9) -0.1739(8) 0.2319(7)
O30A O 0.3298(10) 0.5435(9) -0.2617(8)
O30D O -0.1702(10) 0.0435(9) 0.2617(8)
N2A N 0.1517(8) 0.3000(8) 0.1044(6)
N3F N 0.25000 0.25000 0.1877(9)
N4A N -0.156(2) 0.4569(19) 0.1734(19)
H1A H -0.19380 0.47760 0.18110
C1A C 0.0291(13) 0.3651(11) 0.1311(10)
C2A C 0.0289(10) 0.2993(11) 0.1219(13)
H2A H -0.01250 0.27660 0.12330
C3A C 0.0912(11) 0.2718(11) 0.111(1)
H3A H 0.09120 0.22890 0.10800
C4A C 0.1523(12) 0.3625(10) 0.1141(13)
H4A H 0.19400 0.38490 0.11150
C5A C 0.0895(13) 0.3920(11) 0.1279(13)
H5A H 0.09110 0.43430 0.13540
C6A C -0.0408(13) 0.3947(14) 0.1467(13)
C7A C -0.047(2) 0.4477(17) 0.1824(15)
H6A H -0.00410 0.46150 0.19810
C8A C -0.099(2) 0.481(2) 0.1975(16)
H7A H -0.09790 0.51580 0.22170
C9A C -0.1675(19) 0.406(2) 0.139(3)
H8A H -0.21180 0.39410 0.12580
C10A C -0.1048(18) 0.374(2) 0.124(2)
H9A H -0.10660 0.33860 0.09960
C11A C 0.2776(11) 0.2025(10) -0.2819(8)
H10A H 0.29600 0.16930 -0.30340
C12A C 0.2800(11) 0.2008(10) -0.2197(9)
H11A H 0.30080 0.16790 -0.19950
C14A C 0.3065(11) 0.2304(10) -0.0276(8)
H12A H 0.34590 0.21710 -0.00660
C15A C 0.3083(10) 0.2292(10) -0.0889(8)
H13A H 0.34790 0.21480 -0.10900
#END
