
#######################################################################
#
#                 Cambridge Crystallographic Data Centre
#                                CCDC
#
#######################################################################
#
# If this CIF has been generated from an entry in the Cambridge
# Structural Database, then it will include bibliographic, chemical,
# crystal, experimental, refinement or atomic coordinate data resulting
# from the CCDC's data processing and validation procedures.
#
#######################################################################

data_CSD_CIF_VUSQOQ
_audit_creation_date 2010-10-11
_audit_creation_method CSD-ConQuest-V1
_database_code_CSD VUSQOQ
_database_code_depnum_ccdc_archive 'CCDC 743139'
_chemical_formula_sum 'C50 H57 Cu1 N10 O65 Sb1 W18'
_chemical_formula_moiety
;
(C10 H10 N2 2+)2n,n(C30 H27 Cu1 N6 O60 Sb1 W18 4-),5n(H2 O1)
;
_journal_coden_Cambridge 119
_journal_volume 968
_journal_year 2010
_journal_page_first 76
_journal_name_full 'J.Mol.Struct. '
loop_
_publ_author_name
"Wei Zhang"
"Shuxia Liu"
"Ping Sun"
"Chundan Zhang"
"Fengji Ma"
"Dan Feng"
_chemical_name_systematic
;
catena-(bis(4,4'-bipyridine-diium) 
hexakis(\m~4~-oxo)-(\m~2~-4,4'-bipyridine)-(\m~2~-hydroxo)-heptatriacontakis(\
m~2~-oxo)-hexadecaoxo-bis(4,4'-bipyridinium)-antimony-copper(ii)-octadeca-tung
sten(vi) pentahydrate)
;
_cell_volume   9112.083
_exptl_crystal_colour 'light blue'
_exptl_special_details
;
isomorphous with the Ni analogue

;
_exptl_crystal_description 'block'
_diffrn_ambient_temperature 296
_refine_special_details
;
The Sb atom and the bipyridine cation are disordered by symmetry.

;
#These two values have been output from a single CSD field.
_refine_ls_R_factor_gt 0.0689
_refine_ls_wR_factor_gt 0.0689
_symmetry_cell_setting orthorhombic
_symmetry_space_group_name_H-M 'P c c n'
_symmetry_Int_Tables_number 56
loop_
_symmetry_equiv_pos_site_id
_symmetry_equiv_pos_as_xyz
1 x,y,z
2 1/2-x,1/2-y,z
3 -x,1/2+y,1/2-z
4 1/2+x,-y,1/2-z
5 -x,-y,-z
6 -1/2+x,-1/2+y,-z
7 x,-1/2-y,-1/2+z
8 -1/2-x,y,-1/2+z
_cell_length_a 18.980(3)
_cell_length_b 21.854(3)
_cell_length_c 21.968(3)
_cell_angle_alpha 90
_cell_angle_beta 90
_cell_angle_gamma 90
_cell_formula_units_Z 4
loop_
_atom_type_symbol
_atom_type_radius_bond
C 0.68
H 0.23
Cu 1.37
N 0.68
O 0.68
Sb 1.19
W 1.32
loop_
_atom_site_label
_atom_site_type_symbol
_atom_site_fract_x
_atom_site_fract_y
_atom_site_fract_z
O1 O 0.718(4) 0.542(3) 0.211(3)
O2 O 0.408(4) 0.775(3) 0.239(3)
Sb1 Sb 0.4659(2) 0.0126(2) 0.53797(18)
W1 W 0.33964(8) 0.10225(7) 0.45621(6)
W2 W 0.42028(9) 0.13567(8) 0.67116(7)
W3 W 0.27009(8) 0.06448(8) 0.58944(7)
W4 W 0.49002(8) 0.17734(8) 0.53799(7)
W5 W 0.4635(1) 0.06642(10) 0.33530(7)
W6 W 0.58463(9) 0.09662(9) 0.63560(7)
W7 W 0.62566(10) 0.02562(9) 0.30026(7)
W8 W 0.40369(10) -0.13213(9) 0.59419(8)
W9 W 0.29604(9) -0.04160(8) 0.48293(8)
Cu1 Cu 0.25000 0.25000 0.3895(2)
O3 O 0.537(1) 0.0479(10) 0.2799(9)
O4 O 0.2365(11) 0.0001(11) 0.5421(10)
O5 O 0.3605(12) 0.0329(10) 0.5272(9)
O6 O 0.5152(14) 0.1314(12) 0.6923(9)
O7 O 0.4417(11) -0.0360(9) 0.6112(9)
O8 O 0.2859(12) 0.0337(12) 0.4346(10)
O9 O 0.4149(11) 0.0706(11) 0.4140(9)
O10 O 0.4786(11) 0.0866(10) 0.5907(9)
O11 O 0.3345(14) 0.1184(12) 0.6261(10)
O12 O 0.3817(13) -0.0567(10) 0.4338(9)
O13 O 0.1928(13) 0.0837(11) 0.6211(10)
O14 O 0.3298(12) -0.0934(13) 0.5425(12)
O15 O 0.4305(11) -0.0205(10) 0.3326(9)
O16 O 0.5118(14) 0.1416(12) 0.3604(11)
O17 O 0.3063(11) 0.1513(10) 0.4036(10)
O18 O 0.6462(13) 0.1060(12) 0.3381(15)
O19 O 0.6586(13) 0.1148(12) 0.6728(10)
O20 O 0.5706(11) 0.1713(11) 0.5851(10)
O21 O 0.4092(12) 0.0588(14) 0.7033(10)
O22 O 0.5352(11) 0.1311(11) 0.4801(10)
O23 O 0.4026(13) 0.0993(14) 0.2894(10)
O24 O 0.2313(13) -0.0874(13) 0.4460(11)
O25 O 0.6675(14) 0.0350(12) 0.2330(11)
O26 O 0.2685(11) 0.114(1) 0.5197(9)
O27 O 0.4401(13) 0.197(1) 0.6107(11)
O28 O 0.4019(11) 0.1517(10) 0.4993(9)
O29 O 0.5033(13) 0.2502(14) 0.5135(12)
O30 O 0.3024(13) 0.0059(12) 0.6468(10)
O31 O 0.3717(15) -0.2067(13) 0.5964(13)
O32 O 0.3928(14) 0.1850(14) 0.7281(9)
N1 N 0.25000 0.25000 0.4812(14)
N2 N 0.25000 0.25000 0.7982(13)
N3 N 0.1551(13) 0.2046(12) 0.3826(11)
N4 N -0.165(3) 0.061(3) 0.344(2)
H1 H -0.20530 0.04250 0.34130
C1 C 0.3087(14) 0.2658(16) 0.5121(13)
H2 H 0.35030 0.27270 0.49080
C2 C 0.3084(14) 0.2720(15) 0.5756(11)
H3 H 0.34660 0.29080 0.59430
C3 C 0.25000 0.25000 0.614(2)
C4 C 0.279(2) 0.296(2) 0.7694(14)
H4 H 0.29860 0.32830 0.79150
C5 C 0.2805(17) 0.2975(16) 0.7060(14)
H5 H 0.30170 0.32960 0.68510
C6 C 0.25000 0.25000 0.6760(18)
C7 C 0.095(2) 0.2379(17) 0.3795(17)
H6 H 0.09730 0.28020 0.38420
C8 C 0.0257(19) 0.2081(16) 0.3688(15)
H7 H -0.01620 0.23000 0.36710
C9 C 0.150(3) 0.139(2) 0.3729(19)
H8 H 0.19080 0.11510 0.37270
C10 C 0.086(2) 0.1124(18) 0.3640(16)
H9 H 0.08320 0.07020 0.35970
C11 C 0.0281(17) 0.1453(17) 0.3615(15)
C12 C -0.047(2) 0.1181(19) 0.3560(18)
C13 C -0.106(3) 0.131(3) 0.391(3)
H10 H -0.09910 0.15700 0.42420
C14 C -0.173(4) 0.110(3) 0.382(3)
H11 H -0.21440 0.12620 0.39800
C15 C -0.055(2) 0.064(2) 0.318(2)
H12 H -0.01570 0.04890 0.29770
C16 C -0.121(2) 0.033(2) 0.3126(19)
H13 H -0.12910 -0.00160 0.28930
N5? N 0.557(4) 0.297(3) 0.699(3)
N6? N 0.517(4) 0.439(3) 0.554(3)
C17? C 0.452(4) 0.466(4) 0.527(4)
C18? C 0.570(4) 0.482(4) 0.529(4)
C19? C 0.483(4) 0.561(3) 0.446(3)
C20? C 0.530(2) 0.390(2) 0.603(2)
C21? C 0.492(3) 0.323(3) 0.695(2)
C22? C 0.479(2) 0.367(2) 0.649(2)
C23? C 0.610(3) 0.313(3) 0.661(4)
C24? C 0.597(3) 0.356(3) 0.614(3)
Sb1A Sb 0.0341(2) 0.4874(2) 0.53797(18)
Sb1D Sb 0.5341(2) -0.0126(2) 0.46203(18)
Sb1E Sb -0.0341(2) 0.5126(2) 0.46203(18)
W1A W 0.16036(8) 0.39775(7) 0.45621(6)
W1D W 0.66036(8) -0.10225(7) 0.54379(6)
W2A W 0.07972(9) 0.36433(8) 0.67116(7)
W2D W 0.57972(9) -0.13567(8) 0.32884(7)
W3A W 0.22991(8) 0.43552(8) 0.58944(7)
W3D W 0.72991(8) -0.06448(8) 0.41056(7)
W4A W 0.00998(8) 0.32266(8) 0.53799(7)
W4D W 0.50998(8) -0.17734(8) 0.46201(7)
W5A W 0.0365(1) 0.43358(10) 0.33530(7)
W5D W 0.5365(1) -0.06642(10) 0.66470(7)
W6A W -0.08463(9) 0.40338(9) 0.63560(7)
W6D W 0.41537(9) -0.09662(9) 0.36440(7)
W6E W 0.08463(9) 0.59662(9) 0.36440(7)
W7A W -0.12566(10) 0.47438(9) 0.30026(7)
W7D W 0.37434(10) -0.02562(9) 0.69974(7)
W7E W 0.12566(10) 0.52562(9) 0.69974(7)
W8D W 0.59631(10) 0.13213(9) 0.40581(8)
W8E W -0.09631(10) 0.36787(9) 0.40581(8)
W8A W 0.09631(10) 0.63213(9) 0.59419(8)
W9A W 0.20396(9) 0.54160(8) 0.48293(8)
W9D W 0.70396(9) 0.04160(8) 0.51707(8)
Cu1F Cu 0.25000 0.25000 0.8895(2)
Cu1D Cu 0.75000 -0.25000 0.6105(2)
O3A O -0.037(1) 0.4521(10) 0.2799(9)
O3D O 0.463(1) -0.0479(10) 0.7201(9)
O4A O 0.2635(11) 0.4999(11) 0.5421(10)
O4D O 0.7635(11) -0.0001(11) 0.4579(10)
O5A O 0.1395(12) 0.4671(10) 0.5272(9)
O5D O 0.6395(12) -0.0329(10) 0.4728(9)
O6A O -0.0152(14) 0.3686(12) 0.6923(9)
O6D O 0.4848(14) -0.1314(12) 0.3077(9)
O7D O 0.5583(11) 0.0360(9) 0.3888(9)
O7A O 0.0583(11) 0.5360(9) 0.6112(9)
O7E O -0.0583(11) 0.4640(9) 0.3888(9)
O8A O 0.2141(12) 0.4663(12) 0.4346(10)
O8D O 0.7141(12) -0.0337(12) 0.5654(10)
O9A O 0.0851(11) 0.4294(11) 0.4140(9)
O9D O 0.5851(11) -0.0706(11) 0.5860(9)
O10A O 0.0214(11) 0.4134(10) 0.5907(9)
O10D O 0.5214(11) -0.0866(10) 0.4093(9)
O11A O 0.1655(14) 0.3816(12) 0.6261(10)
O11D O 0.6655(14) -0.1184(12) 0.3739(10)
O12A O 0.1183(13) 0.5567(10) 0.4338(9)
O12D O 0.6183(13) 0.0567(10) 0.5662(9)
O12E O -0.1183(13) 0.4433(10) 0.5662(9)
O13A O 0.3072(13) 0.4163(11) 0.6211(10)
O13D O 0.8072(13) -0.0837(11) 0.3789(10)
O14A O 0.1702(12) 0.5934(13) 0.5425(12)
O14D O 0.6702(12) 0.0934(13) 0.4575(12)
O15A O 0.0695(11) 0.5205(10) 0.3326(9)
O15D O 0.5695(11) 0.0205(10) 0.6674(9)
O15E O -0.0695(11) 0.4795(10) 0.6674(9)
O16A O -0.0118(14) 0.3584(12) 0.3604(11)
O16D O 0.4882(14) -0.1416(12) 0.6396(11)
O17A O 0.1937(11) 0.3487(10) 0.4036(10)
O17D O 0.6937(11) -0.1513(10) 0.5964(10)
O18D O 0.3538(13) -0.1060(12) 0.6619(15)
O18A O -0.1462(13) 0.3940(12) 0.3381(15)
O19A O -0.1586(13) 0.3852(12) 0.6728(10)
O20A O -0.0706(11) 0.3287(11) 0.5851(10)
O20D O 0.4294(11) -0.1713(11) 0.4149(10)
O21D O 0.5908(12) -0.0588(14) 0.2967(10)
O21A O 0.0908(12) 0.4412(14) 0.7033(10)
O21E O -0.0908(12) 0.5588(14) 0.2967(10)
O22A O -0.0352(11) 0.3689(11) 0.4801(10)
O22D O 0.4648(11) -0.1311(11) 0.5199(10)
O23A O 0.0974(13) 0.4007(14) 0.2894(10)
O23D O 0.5974(13) -0.0993(14) 0.7106(10)
O24A O 0.2687(13) 0.5874(13) 0.4460(11)
O24D O 0.7687(13) 0.0874(13) 0.5540(11)
O25A O -0.1675(14) 0.4650(12) 0.2330(11)
O26A O 0.2315(11) 0.386(1) 0.5197(9)
O26D O 0.7315(11) -0.114(1) 0.4803(9)
O27A O 0.0599(13) 0.303(1) 0.6107(11)
O27D O 0.5599(13) -0.197(1) 0.3893(11)
O28A O 0.0981(11) 0.3483(10) 0.4993(9)
O28D O 0.5981(11) -0.1517(10) 0.5007(9)
O29A O -0.0033(13) 0.2498(14) 0.5135(12)
O29D O 0.4967(13) -0.2502(14) 0.4865(12)
O30A O 0.1976(13) 0.4941(12) 0.6468(10)
O30D O 0.6976(13) -0.0059(12) 0.3532(10)
O30E O -0.1976(13) 0.5059(12) 0.3532(10)
O31D O 0.6283(15) 0.2067(13) 0.4036(13)
O32A O 0.1072(14) 0.3150(14) 0.7281(9)
O32D O 0.6072(14) -0.1850(14) 0.2719(9)
N2F N 0.25000 0.25000 0.2982(13)
N3A N 0.3449(13) 0.2954(12) 0.3826(11)
N4A N 0.665(3) 0.439(3) 0.344(2)
H1A H 0.70530 0.45750 0.34130
C1A C 0.1913(14) 0.2342(16) 0.5121(13)
H2A H 0.14970 0.22730 0.49080
C2A C 0.1916(14) 0.2280(15) 0.5756(11)
H3A H 0.15340 0.20920 0.59430
C4A C 0.221(2) 0.204(2) 0.7694(14)
H4A H 0.20140 0.17170 0.79150
C5A C 0.2195(17) 0.2025(16) 0.7060(14)
H5A H 0.19830 0.17040 0.68510
C7A C 0.405(2) 0.2621(17) 0.3795(17)
H6A H 0.40270 0.21980 0.38420
C8A C 0.4743(19) 0.2919(16) 0.3688(15)
H7A H 0.51620 0.27000 0.36710
C9A C 0.350(3) 0.361(2) 0.3729(19)
H8A H 0.30920 0.38490 0.37270
C10A C 0.414(2) 0.3876(18) 0.3640(16)
H9A H 0.41680 0.42980 0.35970
C11A C 0.4719(17) 0.3547(17) 0.3615(15)
C12A C 0.547(2) 0.3819(19) 0.3560(18)
C13A C 0.606(3) 0.369(3) 0.391(3)
H10A H 0.59910 0.34300 0.42420
C14A C 0.673(4) 0.390(3) 0.382(3)
H11A H 0.71440 0.37380 0.39800
C15A C 0.555(2) 0.436(2) 0.318(2)
H12A H 0.51570 0.45110 0.29770
C16A C 0.621(2) 0.467(2) 0.3126(19)
H13A H 0.62910 0.50160 0.28930
#END
