
#######################################################################
#
#                 Cambridge Crystallographic Data Centre
#                                CCDC
#
#######################################################################
#
# If this CIF has been generated from an entry in the Cambridge
# Structural Database, then it will include bibliographic, chemical,
# crystal, experimental, refinement or atomic coordinate data resulting
# from the CCDC's data processing and validation procedures.
#
#######################################################################

data_CSD_CIF_VUTBAQ
_audit_creation_date 2020-09-07
_audit_creation_method CSD-ConQuest-V1
_database_code_CSD VUTBAQ
_database_code_depnum_ccdc_archive 'CCDC 1939689'
_chemical_formula_sum 'C7 H10 Eu1 N4 O6.5'
_chemical_formula_moiety
;
(C5 H1 Eu1 N3 O6 1-)n,C2 H8 N1 1+,0.5(H2 O1)
;
_journal_coden_Cambridge 367
_journal_volume 46
_journal_year 2020
_journal_page_first 394
_journal_name_full 'Koord.Khim.(Russ.)(Coord.Chem.) '
loop_
_publ_author_name
"Yu.A.Belousov"
"V.E.Goncharenko"
"A.M.Lunev"
"A.V.Sidoruk"
"S.I.Bezzubov"
"I.V.Taidakov"
_chemical_name_systematic
;
catena-[dimethylammonium 
(\m-4,5-dicarboxylato-1,2,3-triazolato)-(\m-formato)-europium(iii) 
hemihydrate]
;
_cell_volume   1141.372
_exptl_crystal_colour 'colorless'
_exptl_crystal_density_diffrn 2.364
_exptl_special_details
;
Magnetic properties,Luminescent

;
_exptl_crystal_description 'block'
_exptl_crystal_preparation 'N,N-dimethylformamide / water'
_diffrn_ambient_temperature 120
_diffrn_special_details
;
twin

;
_refine_special_details
;
C7,N4 and C8,N5 disordered over two sites with occupancies 0.5:0.5.

;
#These two values have been output from a single CSD field.
_refine_ls_R_factor_gt 0.0281
_refine_ls_wR_factor_gt 0.0281
_symmetry_cell_setting orthorhombic
_symmetry_space_group_name_H-M 'P n a 21'
_symmetry_Int_Tables_number 33
loop_
_symmetry_equiv_pos_site_id
_symmetry_equiv_pos_as_xyz
1 x,y,z
2 -x,-y,1/2+z
3 1/2+x,1/2-y,z
4 1/2-x,1/2+y,1/2+z
_cell_length_a 12.7834(4)
_cell_length_b 10.0323(3)
_cell_length_c 8.8998(4)
_cell_angle_alpha 90
_cell_angle_beta 90
_cell_angle_gamma 90
_cell_formula_units_Z 4
loop_
_atom_type_symbol
_atom_type_radius_bond
C 0.68
H 0.23
Eu 1.98
N 0.68
O 0.68
loop_
_atom_site_label
_atom_site_type_symbol
_atom_site_fract_x
_atom_site_fract_y
_atom_site_fract_z
Eu1 Eu 0.69733(2) 0.63183(2) 0.76285(14)
O1 O 0.7321(7) 0.7841(11) 0.5739(11)
O2 O 0.7482(5) 0.9639(9) 0.4265(10)
O3 O 0.6190(3) 0.1658(5) 0.2731(17)
O4 O 0.4572(4) 0.2310(5) 0.2239(5)
C1 C 0.7401(9) 0.3851(12) 0.5149(13)
C2 C 0.7545(11) 0.9031(13) 0.5475(15)
H1 H 0.77960 0.95330 0.63050
C3 C 0.5429(5) 0.2437(6) 0.2910(7)
O5 O 0.7875(6) 0.297(1) 0.4509(10)
N1 N 0.4832(5) 0.5213(6) 0.5298(7)
N2 N 0.5814(5) 0.5111(6) 0.5698(7)
N3 N 0.4613(5) 0.4287(6) 0.4234(7)
C4 C 0.6274(6) 0.4094(7) 0.4907(8)
O6 O 0.7843(5) 0.4663(8) 0.6056(8)
C5 C 0.5500(5) 0.3576(7) 0.3986(8)
C6 C 0.9254(6) 0.2333(7) 0.768(2)
H2 H 0.91540 0.19710 0.66660
H3 H 0.85950 0.22780 0.82370
H4 H 0.97940 0.18180 0.82020
N4 N 0.9603(8) 0.3816(10) 0.757(4)
H5 H 0.91250 0.42610 0.70000
H6 H 0.95870 0.41740 0.85050
C7 C 1.0652(15) 0.406(2) 0.692(3)
H7 H 1.06220 0.39630 0.58250
H8 H 1.11510 0.34180 0.73350
H9 H 1.08780 0.49680 0.71720
O7 O 1.002(1) 0.5100(14) 0.5485(11)
H10 H 1.06850 0.51220 0.54770
H11 H 0.98700 0.44600 0.60710
H12? H 0.92420 0.27950 0.67070
H13? H 0.85540 0.19910 0.79060
H14? H 0.97510 0.15900 0.76320
N5? N 0.9568(10) 0.3240(14) 0.8821(16)
H15? H 0.94360 0.28820 0.97420
H16? H 0.91990 0.40120 0.87370
C8? C 1.0702(14) 0.352(2) 0.867(2)
H17? H 1.08400 0.39030 0.76750
H18? H 1.10970 0.26870 0.87780
H19? H 1.09200 0.41500 0.94480
Eu1A Eu 0.30267(2) 0.36817(2) 0.26285(14)
Eu1C Eu 0.80267(2) 0.13183(2) 0.26285(14)
Eu1C* Eu 0.80267(2) 1.13183(2) 0.26285(14)
O2C O 0.7518(5) 0.4639(9) 0.9265(10)
O3C O 0.8810(3) 0.6658(5) 0.7731(17)
O4A O 0.5428(4) 0.7690(5) 0.7239(5)
O5C O 0.7125(6) 0.797(1) 0.9509(10)
N3A N 0.5387(5) 0.5713(6) 0.9234(7)
#END
