
#######################################################################
#
#                 Cambridge Crystallographic Data Centre
#                                CCDC
#
#######################################################################
#
# If this CIF has been generated from an entry in the Cambridge
# Structural Database, then it will include bibliographic, chemical,
# crystal, experimental, refinement or atomic coordinate data resulting
# from the CCDC's data processing and validation procedures.
#
#######################################################################

data_CSD_CIF_VUVWOA
_audit_creation_date 2015-10-27
_audit_creation_method CSD-ConQuest-V1
_database_code_CSD VUVWOA
_database_code_depnum_ccdc_archive 'CCDC 1049916'
_chemical_formula_sum 'C30 H31 Cu3 N6 O43 Si1 W12'
_chemical_formula_moiety
;
(C20 H17 Cu2 N4 O40 Si1 W12 1-)n,n(C10 H8 Cu1 N2 1+),3(H2 O1)
;
_journal_coden_Cambridge 1133
_journal_volume 26
_journal_year 2015
_journal_page_first 2005
_journal_name_full 'J.Cluster Sci. '
loop_
_publ_author_name
"Jie Luo"
"Jian-Cai Liu"
"Bo Shao"
"Li-Juan Chen"
"Jun-Wei Zhao"
_chemical_name_systematic
;
catena-[(\m-4,4'-bipyridine)-copper 
(\m-silicato)-bis(4,4'-bipyridine)-(\m-hydroxo)-pentacosa(\m-oxo)-decaoxo-di-c
opper-dodeca-tungsten trihydrate]
;
_cell_volume   1512.324
_exptl_crystal_colour 'black'
_exptl_crystal_density_diffrn 3.94
_exptl_crystal_description 'cubic'
_diffrn_ambient_temperature 296
_refine_special_details
;
O15,O20,O23,O5 disordered by symmetry over two configurations with occupancy 
0.50; O3W disordered by symmetry over two configurations with occupancy 0.50.
;
#These two values have been output from a single CSD field.
_refine_ls_R_factor_gt 0.0927
_refine_ls_wR_factor_gt 0.0927
_symmetry_cell_setting triclinic
_symmetry_space_group_name_H-M 'P -1'
_symmetry_Int_Tables_number 2
loop_
_symmetry_equiv_pos_site_id
_symmetry_equiv_pos_as_xyz
1 x,y,z
2 -x,-y,-z
_cell_length_a 10.887(8)
_cell_length_b 11.591(8)
_cell_length_c 13.279(10)
_cell_angle_alpha 113.310(13)
_cell_angle_beta 96.328(13)
_cell_angle_gamma 95.334(13)
_cell_formula_units_Z 1
loop_
_atom_type_symbol
_atom_type_radius_bond
C 0.68
H 0.23
Cu 1.32
N 0.68
O 0.68
Si 1.20
W 1.62
loop_
_atom_site_label
_atom_site_type_symbol
_atom_site_fract_x
_atom_site_fract_y
_atom_site_fract_z
Si1 Si 0.50000 1.00000 0.00000
W1 W 0.25541(9) 1.01600(8) -0.19081(8)
W2 W 0.21085(9) 1.08024(8) 0.08579(8)
W3 W 0.22967(9) 0.76801(10) -0.10055(8)
W4 W 0.47299(13) 0.75114(11) 0.09046(10)
W5 W 0.45536(11) 1.06418(9) 0.27476(8)
W6 W 0.48036(13) 1.31186(10) 0.18279(9)
O1 O 0.147(2) 1.0257(19) -0.2826(18)
O2 O 0.2051(19) 0.8510(16) -0.1961(15)
O3 O 0.187(2) 1.0886(19) -0.0543(18)
O4 O 0.078(3) 1.117(2) 0.128(2)
O5 O 0.423(3) 1.076(2) 0.095(2)
O6 O 0.289(2) 1.0547(18) 0.2116(17)
O7 O 0.307(2) 1.2425(19) 0.1414(17)
O8 O 0.173(2) 0.8982(13) 0.0103(14)
O9 O 0.105(2) 0.6556(16) -0.1473(16)
O10 O 0.292(2) 0.6952(18) 0.0069(17)
O11 O 0.647(2) 0.8288(19) 0.150(2)
O12 O 0.4606(18) 0.6367(15) 0.138(2)
O13 O 0.429(2) 0.8838(19) 0.212(2)
O14 O 0.542(3) 0.966(3) 0.106(2)
O15 O 0.620(3) 1.060(2) 0.279(2)
O16 O 0.4381(18) 1.0934(18) 0.4067(14)
O17 O 0.485(3) 1.235(2) 0.290(2)
O18 O 0.637(2) 1.287(2) 0.185(2)
O19 O 0.557(3) 1.157(3) 0.037(2)
O20 O 0.485(3) 1.361(2) 0.058(2)
O21 O 0.4762(15) 1.4609(13) 0.2754(14)
O22 O 0.628(3) 1.029(3) 0.035(2)
Cu1 Cu 0.5152(3) 1.7257(4) 0.3699(4)
N1 N 0.344(2) 1.729(2) 0.3685(16)
N2 N -0.311(2) 1.733(2) 0.3697(19)
C1 C 0.172(2) 1.837(2) 0.439(2)
H1 H 0.14490 1.90830 0.48960
C2 C 0.292(2) 1.836(2) 0.435(2)
H2 H 0.34690 1.91000 0.47870
C3 C 0.258(3) 1.628(3) 0.305(2)
H3 H 0.28610 1.55290 0.26190
C4 C 0.134(2) 1.628(2) 0.302(2)
H4 H 0.07920 1.55630 0.25270
C5 C 0.084(2) 1.732(2) 0.369(2)
C6 C -0.051(2) 1.737(2) 0.372(2)
C7 C -0.142(4) 1.650(3) 0.281(3)
H5 H -0.11630 1.59000 0.21990
C8 C -0.222(3) 1.819(2) 0.461(2)
H6 H -0.24980 1.87630 0.52290
C9 C -0.099(2) 1.818(2) 0.460(2)
H7 H -0.04360 1.87620 0.52170
C10 C -0.263(2) 1.655(2) 0.285(2)
H8 H -0.31900 1.60010 0.22240
O23 O 0.207(6) 1.409(6) 0.004(5)
O24 O 0.028(8) 0.762(7) 0.117(7)
O25 O 0.071(9) 0.522(10) 0.016(9)
Cu2 Cu 0.50000 1.50000 0.50000
N3 N 0.677(2) 1.503(3) 0.514(2)
C11 C 0.718(3) 1.401(3) 0.445(2)
H9 H 0.65910 1.32970 0.40080
C12 C 0.846(3) 1.394(3) 0.436(2)
H10 H 0.87130 1.32090 0.38740
C13 C 0.932(3) 1.501(2) 0.503(2)
C14 C 0.885(3) 1.603(3) 0.580(2)
H11 H 0.93940 1.67370 0.63060
C15 C 0.761(3) 1.601(3) 0.580(3)
H12 H 0.73400 1.67210 0.62980
O5A O 0.577(3) 0.924(2) -0.095(2)
O14A O 0.458(3) 1.034(3) -0.106(2)
O19A O 0.443(3) 0.843(3) -0.037(2)
O22A O 0.372(3) 0.971(3) -0.035(2)
W1A W 0.74459(9) 0.98400(8) 0.19081(8)
W2A W 0.78915(9) 0.91976(8) -0.08579(8)
W3A W 0.77033(9) 1.23199(10) 0.10055(8)
W4A W 0.52701(13) 1.24886(11) -0.09046(10)
W5A W 0.54464(11) 0.93582(9) -0.27476(8)
W6A W 0.51964(13) 0.68814(10) -0.18279(9)
O1A O 0.853(2) 0.9743(19) 0.2826(18)
O2A O 0.7949(19) 1.1490(16) 0.1961(15)
O3A O 0.813(2) 0.9114(19) 0.0543(18)
O4A O 0.922(3) 0.883(2) -0.128(2)
O6A O 0.711(2) 0.9453(18) -0.2116(17)
O7A O 0.693(2) 0.7575(19) -0.1414(17)
O8A O 0.827(2) 1.1018(13) -0.0103(14)
O9A O 0.895(2) 1.3444(16) 0.1473(16)
O10A O 0.708(2) 1.3048(18) -0.0069(17)
O11A O 0.353(2) 1.1712(19) -0.150(2)
O12A O 0.5394(18) 1.3633(15) -0.138(2)
O13A O 0.571(2) 1.1162(19) -0.212(2)
O15A O 0.380(3) 0.940(2) -0.279(2)
O16A O 0.5619(18) 0.9066(18) -0.4067(14)
O17A O 0.515(3) 0.765(2) -0.290(2)
O18A O 0.363(2) 0.713(2) -0.185(2)
O20A O 0.515(3) 0.639(2) -0.058(2)
O21A O 0.5238(15) 0.5391(13) -0.2754(14)
Cu1A Cu 0.4848(3) 0.2743(4) -0.3699(4)
N1A N 0.656(2) 0.271(2) -0.3685(16)
N2A N 1.311(2) 0.267(2) -0.3697(19)
C1A C 0.828(2) 0.163(2) -0.439(2)
H1A H 0.85510 0.09170 -0.48960
C2A C 0.708(2) 0.164(2) -0.435(2)
H2A H 0.65310 0.09000 -0.47870
C3A C 0.742(3) 0.372(3) -0.305(2)
H3A H 0.71390 0.44710 -0.26190
C4A C 0.866(2) 0.372(2) -0.302(2)
H4A H 0.92080 0.44370 -0.25270
C5A C 0.916(2) 0.268(2) -0.369(2)
C6A C 1.051(2) 0.263(2) -0.372(2)
C7A C 1.142(4) 0.350(3) -0.281(3)
H5A H 1.11630 0.41000 -0.21990
C8A C 1.222(3) 0.181(2) -0.461(2)
H6A H 1.24980 0.12370 -0.52290
C9A C 1.099(2) 0.182(2) -0.460(2)
H7A H 1.04360 0.12380 -0.52170
C10A C 1.263(2) 0.345(2) -0.285(2)
H8A H 1.31900 0.39990 -0.22240
Cu1* Cu -0.4848(3) 1.7257(4) 0.3699(4)
Cu1A* Cu 1.4848(3) 0.2743(4) -0.3699(4)
N2* N 0.689(2) 1.733(2) 0.3697(19)
N2A* N 0.311(2) 0.267(2) -0.3697(19)
N3A N 1.323(2) 1.497(3) 0.486(2)
C11A C 1.282(3) 1.599(3) 0.555(2)
H9A H 1.34090 1.67030 0.59920
C12A C 1.154(3) 1.606(3) 0.564(2)
H10A H 1.12870 1.67910 0.61260
C13A C 1.068(3) 1.499(2) 0.497(2)
C14A C 1.115(3) 1.397(3) 0.420(2)
H11A H 1.06060 1.32630 0.36940
C15A C 1.239(3) 1.399(3) 0.420(3)
H12A H 1.26600 1.32790 0.37020
Cu2* Cu 1.50000 1.50000 0.50000
N3A* N 0.323(2) 1.497(3) 0.486(2)
#END
