
#######################################################################
#
#                 Cambridge Crystallographic Data Centre
#                                CCDC
#
#######################################################################
#
# If this CIF has been generated from an entry in the Cambridge
# Structural Database, then it will include bibliographic, chemical,
# crystal, experimental, refinement or atomic coordinate data resulting
# from the CCDC's data processing and validation procedures.
#
#######################################################################

data_CSD_CIF_VUVZAP
_audit_creation_date 2015-10-27
_audit_creation_method CSD-ConQuest-V1
_database_code_CSD VUVZAP
_database_code_depnum_ccdc_archive 'CCDC 994491'
_chemical_formula_sum 'C30 H28 Br2 Co1 In2 N4 O14'
_chemical_formula_moiety
;
(C18 H6 Br2 Co1 In2 O14 2-)n,2(C6 H11 N2 1+)
;
_journal_coden_Cambridge 1133
_journal_volume 26
_journal_year 2015
_journal_page_first 1959
_journal_name_full 'J.Cluster Sci. '
loop_
_publ_author_name
"Sa-Ying Li"
"Zhi-Hong Liu"
_chemical_name_systematic
;
catena-(bis(1-Ethyl-3-methylimidazolium) 
bis(\m~5~-benzene-1,3,5-tricarboxylato)-bis(\m~2~-oxo)-dibromo-cobalt-di-indiu
m)
;
_cell_volume   1884.468
_exptl_crystal_colour 'red'
_exptl_crystal_density_diffrn 1.968
_exptl_crystal_description 'block'
_diffrn_ambient_temperature 296
#These two values have been output from a single CSD field.
_refine_ls_R_factor_gt 0.0464
_refine_ls_wR_factor_gt 0.0464
_symmetry_cell_setting monoclinic
_symmetry_space_group_name_H-M 'P 21/c'
_symmetry_Int_Tables_number 14
loop_
_symmetry_equiv_pos_site_id
_symmetry_equiv_pos_as_xyz
1 x,y,z
2 -x,1/2+y,1/2-z
3 -x,-y,-z
4 x,-1/2-y,-1/2+z
_cell_length_a 10.273(7)
_cell_length_b 11.318(8)
_cell_length_c 16.461(11)
_cell_angle_alpha 90
_cell_angle_beta 100.064(11)
_cell_angle_gamma 90
_cell_formula_units_Z 2
loop_
_atom_type_symbol
_atom_type_radius_bond
C 0.68
H 0.23
Br 1.21
Co 1.26
In 1.42
N 0.68
O 0.68
loop_
_atom_site_label
_atom_site_type_symbol
_atom_site_fract_x
_atom_site_fract_y
_atom_site_fract_z
In1 In 0.73797(4) 0.19724(4) 0.07669(3)
Co1 Co 0.50000 0.00000 0.00000
Br1 Br 0.71171(11) 0.36718(10) -0.03166(7)
O1 O 1.1056(4) -0.2002(4) 0.3391(3)
O2 O 0.5722(4) -0.3378(4) 0.4580(3)
O3 O 0.7667(4) 0.0552(4) 0.1671(3)
O4 O 1.0431(4) -0.3262(4) 0.4255(3)
O5 O 0.4198(4) -0.2479(4) 0.3647(3)
C1 C 0.6800(6) -0.0210(5) 0.1755(4)
O6 O 0.5748(4) -0.0397(4) 0.1275(3)
C2 C 0.6120(6) -0.1498(6) 0.2864(4)
H1 H 0.52410 -0.13150 0.26610
C3 C 0.8436(6) -0.1283(6) 0.2810(4)
H2 H 0.91110 -0.09130 0.25960
O7 O 0.6715(4) 0.0741(5) -0.0140(3)
C4 C 1.0150(6) -0.2478(6) 0.3701(4)
C5 C 0.5378(6) -0.2757(5) 0.3950(4)
C6 C 0.7127(5) -0.1005(5) 0.2503(3)
C7 C 0.6440(5) -0.2263(6) 0.3526(4)
C8 C 0.7756(6) -0.2603(6) 0.3792(4)
H3 H 0.79650 -0.31600 0.42100
C9 C 0.8739(6) -0.2107(6) 0.3432(4)
C10 C 0.0952(11) 0.3995(10) 0.8607(7)
H4 H 0.09590 0.47920 0.84690
N1 N 0.0300(9) 0.2223(7) 0.8808(5)
N2 N 0.2022(8) 0.3340(8) 0.8928(5)
C11 C 0.158(1) 0.2260(9) 0.9064(5)
H5 H 0.20980 0.16350 0.93020
C12 C -0.0115(12) 0.3303(10) 0.8524(7)
H6 H -0.09800 0.35230 0.83110
C13 C -0.0526(12) 0.117(1) 0.8812(8)
H7 H 0.00060 0.05270 0.90640
H8 H -0.09060 0.09640 0.82550
H9 H -0.12190 0.13300 0.91190
C14 C 0.3400(11) 0.3725(12) 0.9067(8)
H10 H 0.35720 0.42200 0.95540
H11 H 0.39740 0.30390 0.91640
C15 C 0.3695(13) 0.4367(12) 0.8376(9)
H12 H 0.45930 0.46400 0.84950
H13 H 0.31100 0.50310 0.82690
H14 H 0.35810 0.38610 0.79010
In1B In 0.26203(4) -0.19724(4) -0.07669(3)
Br1B Br 0.28829(11) -0.36718(10) 0.03166(7)
O1B O -0.1056(4) 0.2002(4) -0.3391(3)
O2B O 0.4278(4) 0.3378(4) -0.4580(3)
O3B O 0.2333(4) -0.0552(4) -0.1671(3)
O4B O -0.0431(4) 0.3262(4) -0.4255(3)
O5B O 0.5802(4) 0.2479(4) -0.3647(3)
C1B C 0.3200(6) 0.0210(5) -0.1755(4)
O6B O 0.4252(4) 0.0397(4) -0.1275(3)
C2B C 0.3880(6) 0.1498(6) -0.2864(4)
H1B H 0.47590 0.13150 -0.26610
C3B C 0.1564(6) 0.1283(6) -0.2810(4)
H2B H 0.08890 0.09130 -0.25960
O7B O 0.3285(4) -0.0741(5) 0.0140(3)
C4B C -0.0150(6) 0.2478(6) -0.3701(4)
C5B C 0.4622(6) 0.2757(5) -0.3950(4)
C6B C 0.2873(5) 0.1005(5) -0.2503(3)
C7B C 0.3560(5) 0.2263(6) -0.3526(4)
C8B C 0.2244(6) 0.2603(6) -0.3792(4)
H3B H 0.20350 0.31600 -0.42100
C9B C 0.1261(6) 0.2107(6) -0.3432(4)
In1A In 0.26203(4) -0.30276(4) 0.42331(3)
In1A* In 1.26203(4) -0.30276(4) 0.42331(3)
In1C In -0.26203(4) 0.30276(4) -0.42331(3)
In1C* In 0.73797(4) 0.30276(4) -0.42331(3)
Co1A Co 0.50000 -0.50000 0.50000
Co1A* Co 0.50000 0.50000 -0.50000
O1A O 0.8944(4) 0.2998(4) 0.1609(3)
O1C O 0.1056(4) -0.2998(4) -0.1609(3)
O2A O 0.4278(4) 0.1622(4) 0.0420(3)
O2C O 0.5722(4) -0.1622(4) -0.0420(3)
O4A O 0.9569(4) 0.1738(4) 0.0745(3)
O4C O 0.0431(4) -0.1738(4) -0.0745(3)
O5A O 0.5802(4) 0.2521(4) 0.1353(3)
O5C O 0.4198(4) -0.2521(4) -0.1353(3)
#END
