
#######################################################################
#
#                 Cambridge Crystallographic Data Centre
#                                CCDC
#
#######################################################################
#
# If this CIF has been generated from an entry in the Cambridge
# Structural Database, then it will include bibliographic, chemical,
# crystal, experimental, refinement or atomic coordinate data resulting
# from the CCDC's data processing and validation procedures.
#
#######################################################################

data_CSD_CIF_VUXGOM
_audit_creation_date 2015-10-28
_audit_creation_method CSD-ConQuest-V1
_database_code_CSD VUXGOM
_database_code_depnum_ccdc_archive 'CCDC 1033958'
_chemical_formula_sum 'C72 H52 Br2 N4 O20 Sr5'
_chemical_formula_moiety
;
(C60 H30 Br2 O20 Sr5 2-)n,2(C6 H11 N2 1+)
;
_journal_coden_Cambridge 910
_journal_volume 25
_journal_year 2015
_journal_page_first 1103
_journal_name_full 'J.Inorg.Organomet.Polym.Mater. '
loop_
_publ_author_name
"Shun-Shun Liu"
"Meng Cheng"
"Bing Li"
"Wen-Hui Shi"
"Yan Bai"
"Dong-Bin Dang"
_chemical_name_systematic
;
catena-[bis(3-ethyl-1-methyl-1H-imidazol-3-ium) 
pentakis(\m-naphthalene-1,4-dicarboxyato)-bis(\m-bromo)-penta-strontium]
;
_cell_volume   6950.808
_exptl_crystal_colour 'yellow'
_exptl_crystal_density_diffrn 1.807
_exptl_crystal_description 'block'
_diffrn_ambient_temperature 296
#These two values have been output from a single CSD field.
_refine_ls_R_factor_gt 0.08
_refine_ls_wR_factor_gt 0.08
_symmetry_cell_setting orthorhombic
_symmetry_space_group_name_H-M 'P 21 21 21'
_symmetry_Int_Tables_number 19
loop_
_symmetry_equiv_pos_site_id
_symmetry_equiv_pos_as_xyz
1 x,y,z
2 1/2-x,-y,1/2+z
3 -x,1/2+y,1/2-z
4 1/2+x,1/2-y,-z
_cell_length_a 14.023(2)
_cell_length_b 20.762(3)
_cell_length_c 23.874(3)
_cell_angle_alpha 90
_cell_angle_beta 90
_cell_angle_gamma 90
_cell_formula_units_Z 4
loop_
_atom_type_symbol
_atom_type_radius_bond
C 0.68
H 0.23
Br 1.21
N 0.68
O 0.68
Sr 1.95
loop_
_atom_site_label
_atom_site_type_symbol
_atom_site_fract_x
_atom_site_fract_y
_atom_site_fract_z
Sr1 Sr -0.09275(9) 0.22621(6) 0.50234(6)
Sr2 Sr 0.13247(9) 0.72356(6) 0.49672(5)
Sr3 Sr -0.32923(9) 0.32584(6) 0.55014(5)
Sr4 Sr -0.12452(9) 0.67104(6) 0.45438(5)
Sr5 Sr -0.22787(12) 0.49960(7) 0.50695(6)
Br1 Br -0.15402(17) 0.36682(11) 0.47519(12)
Br2 Br 0.1976(2) 0.86305(12) 0.47149(15)
O1 O -0.2687(13) 0.4195(7) 0.6057(6)
O2 O -0.1923(14) 0.5033(7) 0.6138(6)
O3 O -0.3306(14) 0.4276(7) 0.9049(6)
O4 O -0.2266(10) 0.5018(8) 0.9019(5)
C1 C -0.2378(11) 0.4575(7) 0.6323(6)
C2 C -0.2777(15) 0.4633(9) 0.8804(7)
C3 C -0.2522(13) 0.4572(8) 0.6976(7)
C4 C -0.1780(14) 0.4576(9) 0.7315(7)
H1 H -0.11780 0.45600 0.71520
C5 C -0.1826(13) 0.4602(9) 0.7897(7)
H2 H -0.12680 0.46220 0.81070
C6 C -0.2731(15) 0.4597(7) 0.8170(7)
C7 C -0.3572(12) 0.4612(8) 0.7807(8)
C8 C -0.4491(15) 0.4646(9) 0.8034(8)
H3 H -0.45540 0.46330 0.84210
C9 C -0.5296(16) 0.4696(10) 0.7719(10)
H4 H -0.58980 0.47190 0.78820
C10 C -0.5168(16) 0.4712(9) 0.7133(10)
H5 H -0.57050 0.47560 0.69080
C11 C -0.4338(16) 0.4668(9) 0.689(1)
H6 H -0.42970 0.46580 0.65010
C12 C -0.3493(12) 0.4635(8) 0.7221(7)
O5 O -0.2006(9) 0.2609(5) 0.5955(4)
O6 O -0.058(1) 0.2242(9) 0.6086(5)
O7 O -0.2917(11) 0.2728(7) 0.8775(4)
O8 O -0.1501(10) 0.2420(6) 0.9019(5)
C13 C -0.1398(10) 0.2414(7) 0.6254(6)
C14 C -0.2103(13) 0.2547(9) 0.8673(6)
C15 C -0.1574(12) 0.2384(7) 0.6893(6)
C16 C -0.2130(12) 0.2860(8) 0.7103(6)
H7 H -0.24110 0.31640 0.68690
C17 C -0.2271(12) 0.2881(8) 0.7692(6)
H8 H -0.26600 0.32020 0.78380
C18 C -0.1882(12) 0.2471(7) 0.8041(6)
C19 C -0.1340(11) 0.1927(7) 0.7830(6)
C20 C -0.0950(11) 0.1440(8) 0.8165(6)
H9 H -0.10210 0.14740 0.85510
C21 C -0.0501(15) 0.0949(9) 0.7972(7)
H10 H -0.02950 0.06310 0.82180
C22 C -0.0312(13) 0.0880(8) 0.7389(8)
H11 H 0.00470 0.05420 0.72440
C23 C -0.0709(13) 0.1362(9) 0.7049(8)
H12 H -0.06520 0.13200 0.66620
C24 C -0.1173(11) 0.1887(7) 0.7256(6)
O9 O 0.0780(6) 0.2647(4) 0.5031(5)
O10 O 0.2309(6) 0.2872(4) 0.5117(4)
O11 O 0.0593(8) 0.6184(5) 0.5184(5)
O12 O -0.0800(8) 0.5700(5) 0.5161(5)
C25 C 0.1456(11) 0.3050(6) 0.5100(6)
C26 C 0.0077(11) 0.5683(7) 0.5159(7)
C27 C 0.1203(10) 0.3754(6) 0.5153(6)
C28 C 0.0523(9) 0.3951(7) 0.5517(6)
H13 H 0.02680 0.36560 0.57690
C29 C 0.0202(11) 0.4576(6) 0.5523(6)
H14 H -0.02900 0.46920 0.57640
C30 C 0.0583(10) 0.5014(6) 0.5189(6)
C31 C 0.1284(12) 0.4876(7) 0.4808(6)
C32 C 0.1712(13) 0.5314(7) 0.4406(7)
H15 H 0.14980 0.57370 0.43890
C33 C 0.2405(19) 0.5124(11) 0.4059(8)
H16 H 0.27080 0.54290 0.38360
C34 C 0.2690(16) 0.4475(8) 0.4022(7)
H17 H 0.31180 0.43440 0.37470
C35 C 0.2333(13) 0.4042(8) 0.4394(7)
H18 H 0.25800 0.36260 0.43990
C36 C 0.1603(10) 0.4203(7) 0.4770(6)
O13 O 0.3117(6) 0.7156(4) 0.5009(4)
O14 O 0.4647(6) 0.7353(4) 0.4912(5)
O15 O 0.4841(7) 0.3797(5) 0.4963(6)
O16 O 0.6211(7) 0.4334(5) 0.5026(5)
C37 C 0.3967(10) 0.6962(7) 0.4946(6)
C38 C 0.5313(10) 0.4301(7) 0.4954(6)
C39 C 0.4212(10) 0.6249(7) 0.4921(6)
C40 C 0.487(1) 0.6056(7) 0.4564(7)
H19 H 0.51360 0.63510 0.43150
C41 C 0.5178(10) 0.5408(7) 0.4552(6)
H20 H 0.56250 0.52780 0.42870
C42 C 0.4831(10) 0.4977(6) 0.4919(6)
C43 C 0.4076(10) 0.5150(7) 0.5287(5)
C44 C 0.3653(12) 0.4695(7) 0.5636(7)
H21 H 0.38850 0.42750 0.56490
C45 C 0.2882(13) 0.4874(9) 0.5964(8)
H22 H 0.25710 0.45610 0.61750
C46 C 0.2573(12) 0.5476(9) 0.5988(8)
H23 H 0.20830 0.55820 0.62340
C47 C 0.2973(13) 0.5954(8) 0.5649(7)
H24 H 0.27550 0.63760 0.56710
C48 C 0.3716(12) 0.5788(7) 0.5270(7)
O17 O 0.0229(8) 0.6909(6) 0.4046(4)
O18 O 0.1787(9) 0.6943(7) 0.3966(4)
O19 O -0.0478(12) 0.6940(7) 0.1195(5)
O20 O 0.1022(11) 0.7070(8) 0.0983(5)
C49 C 0.0975(12) 0.6886(8) 0.3750(6)
C50 C 0.0415(17) 0.6967(8) 0.1311(8)
C51 C 0.0868(10) 0.6865(7) 0.3122(6)
C52 C 0.0017(13) 0.7005(8) 0.2912(6)
H25 H -0.04940 0.70770 0.31520
C53 C -0.0127(13) 0.7046(8) 0.2300(6)
H26 H -0.07170 0.71600 0.21520
C54 C 0.0629(12) 0.6913(7) 0.1955(6)
C55 C 0.1530(11) 0.6732(8) 0.2168(6)
C56 C 0.2261(14) 0.6550(8) 0.1805(7)
H27 H 0.21730 0.65960 0.14210
C57 C 0.3120(17) 0.630(1) 0.2002(10)
H28 H 0.36020 0.61720 0.17590
C58 C 0.3229(18) 0.6248(10) 0.2617(8)
H29 H 0.37810 0.60730 0.27710
C59 C 0.2523(11) 0.6454(9) 0.2949(8)
H30 H 0.26100 0.64340 0.33350
C60 C 0.1651(11) 0.6702(7) 0.2742(6)
C61 C 0.375(2) 0.7843(14) 0.3634(12)
H31 H 0.40490 0.74410 0.35350
H32 H 0.32170 0.77620 0.38720
H33 H 0.42070 0.81090 0.38280
N1 N 0.3435(17) 0.8172(13) 0.3125(10)
C62 C 0.3547(15) 0.7845(8) 0.2606(13)
H34 H 0.38060 0.74370 0.25580
N2 N 0.3192(18) 0.8252(13) 0.2176(9)
C63 C 0.2862(17) 0.8829(10) 0.2428(13)
H35 H 0.25940 0.91790 0.22410
C64 C 0.3012(17) 0.8780(11) 0.3014(12)
H36 H 0.28600 0.90920 0.32790
C65 C 0.329(3) 0.8105(13) 0.1576(10)
H37 H 0.38180 0.78000 0.15680
H38 H 0.27290 0.78520 0.14950
C66 C 0.343(3) 0.8478(17) 0.1064(11)
H39 H 0.40200 0.83510 0.08890
H40 H 0.34580 0.89280 0.11540
H41 H 0.29120 0.84000 0.08120
C67 C -0.004(2) 0.8695(15) 0.1399(9)
H42 H -0.05580 0.87140 0.11330
H43 H 0.03240 0.83130 0.13350
H44 H 0.03550 0.90670 0.13550
N3 N -0.0339(19) 0.8641(10) 0.2922(8)
C68 C 0.0210(12) 0.8662(9) 0.2422(11)
H45 H 0.08720 0.86620 0.24000
N4 N -0.0431(19) 0.8682(10) 0.1962(7)
C69 C -0.1375(15) 0.8674(10) 0.2177(10)
H46 H -0.19320 0.86830 0.19660
C70 C -0.1318(16) 0.8648(11) 0.2770(9)
H47 H -0.18320 0.86380 0.30170
C71 C 0.008(2) 0.8584(15) 0.3483(10)
H48 H 0.02740 0.81360 0.34950
H49 H -0.04760 0.86080 0.37240
C72 C 0.082(3) 0.891(2) 0.3820(14)
H50 H 0.07110 0.88200 0.42100
H51 H 0.07960 0.93610 0.37550
H52 H 0.14360 0.87440 0.37150
Sr1B Sr 0.09275(9) 0.72621(6) -0.00234(6)
Sr1C Sr 0.40725(9) 0.27379(6) 0.49766(6)
Sr2B Sr -0.13247(9) 0.22356(6) 1.00328(5)
Sr2C Sr 0.63247(9) 0.77644(6) 0.50328(5)
Sr3* Sr 0.67077(9) 0.32584(6) 0.55014(5)
Sr3A Sr -0.17077(9) 0.67416(6) 0.05014(5)
Sr3C Sr 0.17077(9) 0.17416(6) 0.44986(5)
Sr4A Sr -0.37548(9) 0.32896(6) 0.95438(5)
Sr4C Sr 0.37548(9) 0.82896(6) 0.54562(5)
Sr5* Sr 0.77213(12) 0.49960(7) 0.50695(6)
Sr5A Sr -0.27213(12) 0.50040(7) 1.00695(6)
Sr5C Sr 0.27213(12) 1.00040(7) 0.49305(6)
Br2C Br -0.3024(2) 0.63695(12) 0.52851(15)
O3A O -0.1694(14) 0.5724(7) 0.4049(6)
O4A O -0.2734(10) 0.4982(8) 0.4019(5)
O7A O -0.2083(11) 0.7272(7) 0.3775(4)
O8B O 0.1501(10) 0.7420(6) 0.5981(5)
O9C O -0.4220(6) 0.2353(4) 0.4969(5)
O10C O -0.2691(6) 0.2128(4) 0.4883(4)
O13C O -0.1883(6) 0.7844(4) 0.4991(4)
O14C O -0.0353(6) 0.7647(4) 0.5088(5)
O15C O -0.0159(7) 0.1203(5) 0.5037(6)
O16* O -0.3789(7) 0.4334(5) 0.5026(5)
O19A O -0.4522(12) 0.3060(7) 0.6195(5)
O20B O -0.1022(11) 0.2070(8) 0.4017(5)
#END
