
#######################################################################
#
#                 Cambridge Crystallographic Data Centre
#                                CCDC
#
#######################################################################
#
# If this CIF has been generated from an entry in the Cambridge
# Structural Database, then it will include bibliographic, chemical,
# crystal, experimental, refinement or atomic coordinate data resulting
# from the CCDC's data processing and validation procedures.
#
#######################################################################

data_CSD_CIF_VUYROZ
_audit_creation_date 2020-09-07
_audit_creation_method CSD-ConQuest-V1
_database_code_CSD VUYROZ
_database_code_depnum_ccdc_archive 'CCDC 1554325'
_chemical_formula_sum 'C16 H24 Er2 N4 O21'
_chemical_formula_moiety
;
(C8 H4 Er2 O18 2-)n,2(C4 H7 N2 1+),3(H2 O1)
;
_journal_coden_Cambridge 182
_journal_volume 56
_journal_year 2020
_journal_page_first 11386
_journal_name_full 'Chem.Commun. '
loop_
_publ_author_name
"D.Prodius"
"M.Klocke"
"V.Smetana"
"T.Alammar"
"M.P.Garcia"
"T.L.Windus"
"I.C.Nlebedim"
"Anja-Verena Mudring"
_chemical_name_systematic
;
catena-[bis(1-methyl-1H-imidazol-3-ium) 
tetrakis(\m-oxalato)-diaqua-di-erbium(iii) trihydrate]
;
_cell_volume   1325.430
_diffrn_ambient_temperature 296
_diffrn_special_details
;
twin

;
#These two values have been output from a single CSD field.
_refine_ls_R_factor_gt 0.0225
_refine_ls_wR_factor_gt 0.0225
_symmetry_cell_setting monoclinic
_symmetry_space_group_name_H-M 'C 2'
_symmetry_Int_Tables_number 5
loop_
_symmetry_equiv_pos_site_id
_symmetry_equiv_pos_as_xyz
1 x,y,z
2 -x,y,-z
3 1/2+x,1/2+y,z
4 1/2-x,1/2+y,-z
_cell_length_a 14.6700(13)
_cell_length_b 11.5086(10)
_cell_length_c 9.198(1)
_cell_angle_alpha 90
_cell_angle_beta 121.404(1)
_cell_angle_gamma 90
_cell_formula_units_Z 2
loop_
_atom_type_symbol
_atom_type_radius_bond
C 0.68
H 0.23
Er 1.89
N 0.68
O 0.68
loop_
_atom_site_label
_atom_site_type_symbol
_atom_site_fract_x
_atom_site_fract_y
_atom_site_fract_z
Er1 Er -0.16714(2) -0.2583(3) -0.38985(2)
O1 O -0.3408(10) -0.5623(7) -0.6991(14)
O2 O -0.2899(11) -0.3784(10) -0.6106(14)
O3 O 0.0170(3) -0.255(2) -0.1742(5)
O4 O -0.072(1) -0.3728(11) -0.4927(18)
O5 O 0.1383(3) -0.2616(17) 0.1052(5)
C1 C 0.00000 -0.322(3) -0.50000
O6 O -0.0723(10) -0.1418(11) -0.4847(16)
O7 O -0.1617(9) -0.4529(9) -0.2955(12)
O8 O -0.3307(3) -0.2656(18) -0.3793(6)
C2 C 0.0456(4) -0.260(2) -0.0192(6)
O9 O -0.2079(9) -0.6346(9) -0.3763(14)
C3 C -0.2858(10) -0.4913(10) -0.5808(14)
C4 C -0.2109(10) -0.5352(11) -0.3958(14)
C5 C 0.00000 -0.188(3) -0.50000
O10 O 0.50000 -0.0536(10) 1.00000
N1 N 0.5953(7) -0.2636(16) 0.9485(11)
H1 H 0.57920 -0.33510 0.95160
N2 N 0.6869(7) -0.0979(8) 0.9916(12)
C6 C 0.5836(9) -0.0717(11) 0.8736(15)
H2 H 0.55740 -0.00020 0.82090
C7 C 0.6936(8) -0.2106(8) 1.0384(14)
H3 H 0.75610 -0.24720 1.12010
C8 C 0.7287(12) -0.0022(13) 0.9390(16)
H4 H 0.68660 0.06620 0.92090
H5 H 0.80150 0.01260 1.02640
H6 H 0.72540 -0.02260 0.83520
C9 C 0.5260(8) -0.1699(10) 0.8479(12)
H7 H 0.45240 -0.17590 0.77560
O11 O -0.4951(7) -0.4051(6) -0.5717(11)
O3A O -0.0170(3) -0.255(2) 0.1742(5)
O5A O -0.1383(3) -0.2616(17) -0.1052(5)
C2A C -0.0456(4) -0.260(2) 0.0192(6)
O4A O 0.072(1) -0.3728(11) -0.5073(18)
O6A O 0.0723(10) -0.1418(11) -0.5153(16)
Er1A Er 0.16714(2) -0.2583(3) -0.61015(2)
O1A O 0.3408(10) -0.5623(7) -0.3009(14)
O2A O 0.2899(11) -0.3784(10) -0.3894(14)
O7A O 0.1617(9) -0.4529(9) -0.7045(12)
O8A O 0.3307(3) -0.2656(18) -0.6207(6)
O9A O 0.2079(9) -0.6346(9) -0.6237(14)
C3A C 0.2858(10) -0.4913(10) -0.4192(14)
C4A C 0.2109(10) -0.5352(11) -0.6042(14)
Er1A* Er 0.16714(2) -0.2583(3) 0.38985(2)
Er1B Er 0.33286(2) -0.7583(3) -0.38985(2)
Er1C Er -0.33286(2) -0.7583(3) -0.61015(2)
O1B O 0.1592(10) -0.0623(7) -0.6991(14)
O1C O -0.1592(10) -0.0623(7) -0.3009(14)
O3A* O -0.0170(3) -0.255(2) -0.8258(5)
O5* O 0.1383(3) -0.2616(17) -0.8948(5)
O9B O 0.2921(9) -0.1346(9) -0.3763(14)
O9C O -0.2921(9) -0.1346(9) -0.6237(14)
#END
