
#######################################################################
#
#                 Cambridge Crystallographic Data Centre
#                                CCDC
#
#######################################################################
#
# If this CIF has been generated from an entry in the Cambridge
# Structural Database, then it will include bibliographic, chemical,
# crystal, experimental, refinement or atomic coordinate data resulting
# from the CCDC's data processing and validation procedures.
#
#######################################################################

data_CSD_CIF_VUYSOA
_audit_creation_date 2020-09-07
_audit_creation_method CSD-ConQuest-V1
_database_code_CSD VUYSOA
_database_code_depnum_ccdc_archive 'CCDC 1554327'
_chemical_formula_sum 'C32 H44 Ho4 N8 O40'
_chemical_formula_moiety
;
(C16 H8 Ho4 O36 4-)n,4(C4 H7 N2 1+),4(H2 O1)
;
_journal_coden_Cambridge 182
_journal_volume 56
_journal_year 2020
_journal_page_first 11386
_journal_name_full 'Chem.Commun. '
loop_
_publ_author_name
"D.Prodius"
"M.Klocke"
"V.Smetana"
"T.Alammar"
"M.P.Garcia"
"T.L.Windus"
"I.C.Nlebedim"
"Anja-Verena Mudring"
_chemical_name_systematic
;
catena-[tetrakis(3-methyl-1H-imidazol-3-ium) 
octakis(\m-oxalato)-tetra-aqua-tetra-holmium(iii) tetrahydrate]
;
_cell_volume   2464.246
_exptl_crystal_description 'block'
_diffrn_ambient_temperature 296
#These two values have been output from a single CSD field.
_refine_ls_R_factor_gt 0.0517
_refine_ls_wR_factor_gt 0.0517
_symmetry_cell_setting monoclinic
_symmetry_space_group_name_H-M 'P 21/n'
_symmetry_Int_Tables_number 14
loop_
_symmetry_equiv_pos_site_id
_symmetry_equiv_pos_as_xyz
1 x,y,z
2 1/2-x,1/2+y,1/2-z
3 -x,-y,-z
4 -1/2+x,-1/2-y,-1/2+z
_cell_length_a 10.023(2)
_cell_length_b 17.357(4)
_cell_length_c 14.354(3)
_cell_angle_alpha 90
_cell_angle_beta 99.312(12)
_cell_angle_gamma 90
_cell_formula_units_Z 2
loop_
_atom_type_symbol
_atom_type_radius_bond
C 0.68
H 0.23
Ho 1.92
N 0.68
O 0.68
loop_
_atom_site_label
_atom_site_type_symbol
_atom_site_fract_x
_atom_site_fract_y
_atom_site_fract_z
Ho1 Ho -0.00645(3) 0.62525(2) 0.34209(2)
Ho2 Ho 0.51141(3) 0.84011(2) 0.40687(2)
O1 O 0.3518(6) 0.7630(4) 0.4772(4)
O2 O -0.2524(5) 0.6385(4) 0.3359(4)
O3 O 0.3690(5) 0.9411(4) 0.3280(4)
O4 O 0.1480(6) 0.7071(4) 0.2695(4)
O5 O 0.6182(5) 1.0017(4) 0.2024(4)
O6 O -0.2398(5) 0.8290(3) 0.4087(4)
O7 O -0.1167(6) 0.6601(4) 0.1860(4)
O8 O -0.4177(6) 0.7170(4) 0.3661(5)
O9 O 0.6247(5) 0.9625(3) 0.4415(4)
O10 O 0.5759(6) 0.8844(4) 0.2591(4)
O11 O 0.5865(5) 1.0841(3) 0.4801(4)
O12 O -0.0738(5) 0.7530(4) 0.3763(4)
O13 O 0.1181(5) 0.5128(4) 0.4259(4)
O14 O 0.0769(6) 0.4101(4) 0.5118(4)
O15 O 0.3935(5) 1.0553(4) 0.2616(4)
O16 O 0.6260(6) 0.8072(4) 0.5605(4)
O17 O 0.3316(5) 0.7838(4) 0.2926(4)
O18 O 0.1761(5) 0.6816(4) 0.4530(4)
C1 C 0.2437(7) 0.7407(5) 0.3194(5)
C2 C -0.2947(8) 0.7015(5) 0.3603(5)
C3 C 0.2602(7) 0.7275(5) 0.4259(5)
C4 C 0.5502(7) 0.9556(5) 0.2432(5)
C5 C 0.4268(7) 0.9852(5) 0.2809(5)
C6 C -0.1937(7) 0.7682(5) 0.3847(5)
C7 C 0.0566(8) 0.4783(5) 0.4824(5)
C8 C 0.5598(7) 1.0124(5) 0.4782(5)
N1 N 1.0022(8) 1.0622(7) 0.3697(7)
C9 C 1.0178(17) 1.1428(11) 0.3682(13)
H1 H 0.93210 1.16710 0.36960
H2 H 1.08110 1.15870 0.42230
H3 H 1.05090 1.15770 0.31170
C10 C 0.9156(14) 0.9527(9) 0.3862(9)
H4 H 0.85400 0.91390 0.39330
C11 C 0.8934(10) 1.0255(10) 0.3814(9)
H5 H 0.81100 1.04870 0.38570
C12 C 1.1021(12) 1.0148(10) 0.3683(9)
H6 H 1.19080 1.02600 0.36150
N2 N 1.0456(17) 0.9443(12) 0.379(1)
H7 H 1.08780 0.90100 0.38090
O19 O 0.1743(8) 0.2975(5) 0.4038(5)
O20 O 0.2028(7) 0.7129(5) 0.6491(5)
C13 C 0.4064(10) 0.5194(11) 0.6416(8)
H8 H 0.33930 0.48380 0.64830
N3 N 0.5280(11) 0.5059(11) 0.6258(8)
C14 C 0.3996(17) 0.5961(13) 0.6461(11)
H9 H 0.32250 0.62450 0.65140
C15 C 0.587(2) 0.4342(11) 0.6164(14)
H10 H 0.52130 0.39440 0.61950
H11 H 0.61830 0.43160 0.55670
H12 H 0.66200 0.42720 0.66650
C16 C 0.6042(16) 0.5662(13) 0.6231(14)
H13 H 0.69280 0.56990 0.61180
N4 N 0.5156(17) 0.6238(19) 0.6418(17)
H14 H 0.53660 0.67170 0.64950
O9B O 0.3753(5) 1.0375(3) 0.5585(4)
C8B C 0.4402(7) 0.9876(5) 0.5218(5)
O11B O 0.4135(5) 0.9159(3) 0.5199(4)
O13B O -0.1181(5) 0.4872(4) 0.5741(4)
C7B C -0.0566(8) 0.5217(5) 0.5176(5)
O14B O -0.0769(6) 0.5899(4) 0.4882(4)
Ho1B Ho 0.00645(3) 0.37475(2) 0.65791(2)
Ho2B Ho -0.51141(3) 0.15989(2) 0.59313(2)
O1B O -0.3518(6) 0.2370(4) 0.5228(4)
O2B O 0.2524(5) 0.3615(4) 0.6641(4)
O3B O -0.3690(5) 0.0589(4) 0.6720(4)
O4B O -0.1480(6) 0.2929(4) 0.7305(4)
O5B O -0.6182(5) -0.0017(4) 0.7976(4)
O6B O 0.2398(5) 0.1710(3) 0.5913(4)
O7B O 0.1167(6) 0.3399(4) 0.8140(4)
O8B O 0.4177(6) 0.2830(4) 0.6339(5)
O10B O -0.5759(6) 0.1156(4) 0.7409(4)
O12B O 0.0738(5) 0.2470(4) 0.6237(4)
O15B O -0.3935(5) -0.0553(4) 0.7384(4)
O16B O -0.6260(6) 0.1928(4) 0.4395(4)
O17B O -0.3316(5) 0.2162(4) 0.7074(4)
O18B O -0.1761(5) 0.3184(4) 0.5470(4)
C1B C -0.2437(7) 0.2593(5) 0.6806(5)
C2B C 0.2947(8) 0.2985(5) 0.6397(5)
C3B C -0.2602(7) 0.2725(5) 0.5741(5)
C4B C -0.5502(7) 0.0444(5) 0.7568(5)
C5B C -0.4268(7) 0.0148(5) 0.7191(5)
C6B C 0.1937(7) 0.2318(5) 0.6153(5)
Ho1A Ho 0.50645(3) 1.12525(2) 0.15791(2)
Ho1C Ho -0.50645(3) -0.12525(2) 0.84209(2)
Ho2* Ho -0.48859(3) 0.84011(2) 0.40687(2)
Ho2B* Ho 0.48859(3) 0.15989(2) 0.59313(2)
Ho2B** Ho 0.48859(3) 1.15989(2) 0.59313(2)
O5A O -0.1182(5) 0.5017(4) 0.2976(4)
O5C O 0.1182(5) 0.4983(4) 0.7024(4)
O6* O 0.7602(5) 0.8290(3) 0.4087(4)
O6B* O -0.7602(5) 0.1710(3) 0.5913(4)
O8* O 0.5823(6) 0.7170(4) 0.3661(5)
O8B* O -0.5823(6) 0.2830(4) 0.6339(5)
O9B* O -0.6247(5) 0.0375(3) 0.5585(4)
O11* O -0.4135(5) 0.0841(3) 0.4801(4)
O15A O 0.1065(5) 0.5553(4) 0.2384(4)
O15C O -0.1065(5) 0.4447(4) 0.7616(4)
#END
