
#######################################################################
#
#                 Cambridge Crystallographic Data Centre
#                                CCDC
#
#######################################################################
#
# If this CIF has been generated from an entry in the Cambridge
# Structural Database, then it will include bibliographic, chemical,
# crystal, experimental, refinement or atomic coordinate data resulting
# from the CCDC's data processing and validation procedures.
#
#######################################################################

data_CSD_CIF_VUYSEQ
_audit_creation_date 2020-09-07
_audit_creation_method CSD-ConQuest-V1
_database_code_CSD VUYSEQ
_database_code_depnum_ccdc_archive 'CCDC 1554323'
_chemical_formula_sum 'C18 H26 Ho2 N4 O20'
_chemical_formula_moiety
;
(C8 H4 Ho2 O18 2-)n,2(C5 H9 N2 1+),2(H2 O1)
;
_journal_coden_Cambridge 182
_journal_volume 56
_journal_year 2020
_journal_page_first 11386
_journal_name_full 'Chem.Commun. '
loop_
_publ_author_name
"D.Prodius"
"M.Klocke"
"V.Smetana"
"T.Alammar"
"M.P.Garcia"
"T.L.Windus"
"I.C.Nlebedim"
"Anja-Verena Mudring"
_chemical_name_systematic
;
catena-[bis(3-ethyl-1H-imidazol-3-ium) 
tetrakis(\m-oxalato)-diaqua-di-holmium(iii) dihydrate]
;
_cell_volume   1388.097
_exptl_crystal_description 'block'
_diffrn_ambient_temperature 296
#These two values have been output from a single CSD field.
_refine_ls_R_factor_gt 0.0411
_refine_ls_wR_factor_gt 0.0411
_symmetry_cell_setting monoclinic
_symmetry_space_group_name_H-M 'P 21/n'
_symmetry_Int_Tables_number 14
loop_
_symmetry_equiv_pos_site_id
_symmetry_equiv_pos_as_xyz
1 x,y,z
2 1/2-x,1/2+y,1/2-z
3 -x,-y,-z
4 -1/2+x,-1/2-y,-1/2+z
_cell_length_a 9.6712(2)
_cell_length_b 11.3857(3)
_cell_length_c 12.6870(3)
_cell_angle_alpha 90
_cell_angle_beta 96.475(1)
_cell_angle_gamma 90
_cell_formula_units_Z 2
loop_
_atom_type_symbol
_atom_type_radius_bond
C 0.68
H 0.23
Ho 1.92
N 0.68
O 0.68
loop_
_atom_site_label
_atom_site_type_symbol
_atom_site_fract_x
_atom_site_fract_y
_atom_site_fract_z
Ho1 Ho 0.77291(2) 0.47664(2) 0.15627(2)
O1 O 0.8652(3) 0.6714(3) 0.1666(3)
C1 C 1.0584(5) 0.4872(4) 0.0452(4)
O2 O 1.0200(3) 0.4642(3) 0.1338(3)
O3 O 0.6596(3) 0.7737(3) 0.3563(2)
O4 O 1.1805(4) 0.4892(3) 0.0220(3)
O5 O 0.8393(3) 0.8528(3) 0.2284(3)
C2 C 0.7095(4) 0.6990(3) 0.2986(3)
O6 O 0.9382(4) 0.4618(3) 0.3243(3)
O7 O 0.6836(3) 0.5911(3) 0.2939(2)
O8 O 0.5938(4) 0.6065(3) 0.0753(3)
C3 C 0.8145(4) 0.7446(3) 0.2248(3)
C4 C 0.5022(4) 0.5669(4) 0.0082(3)
O9 O 0.4123(4) 0.6247(3) -0.0494(3)
N1 N 0.6727(10) 0.5228(7) 0.5433(6)
H1 H 0.66790 0.59490 0.52300
C5 C 0.6759(11) 0.3345(9) 0.5361(6)
H2 H 0.67880 0.25800 0.51070
C6 C 0.6681(7) 0.4253(6) 0.4805(4)
H3 H 0.66030 0.42630 0.40680
C7 C 0.6863(15) 0.4824(8) 0.6439(6)
H4 H 0.69810 0.52720 0.70550
N2 N 0.6794(11) 0.3652(8) 0.6379(9)
C8 C 0.6629(14) 0.291(1) 0.7488(11)
H5 H 0.62360 0.33730 0.80220
H6 H 0.61290 0.21750 0.73660
C9 C 0.7956(14) 0.2778(9) 0.7673(11)
H7 H 0.81730 0.23440 0.83190
H8 H 0.82900 0.23580 0.70970
H9 H 0.83940 0.35350 0.77410
O10 O 0.5218(6) 0.1410(4) 0.0371(4)
C1B C 0.9416(5) 0.5128(4) -0.0452(4)
O2B O 0.9800(3) 0.5358(3) -0.1338(3)
O4B O 0.8195(4) 0.5108(3) -0.0220(3)
O8B O 0.4062(4) 0.3935(3) -0.0753(3)
C4B C 0.4978(4) 0.4331(4) -0.0082(3)
O9B O 0.5877(4) 0.3753(3) 0.0494(3)
Ho1B Ho 0.22709(2) 0.52336(2) -0.15627(2)
O1B O 0.1348(3) 0.3286(3) -0.1666(3)
O3B O 0.3404(3) 0.2263(3) -0.3563(2)
O5B O 0.1607(3) 0.1472(3) -0.2284(3)
C2B C 0.2905(4) 0.3010(3) -0.2986(3)
O6B O 0.0618(4) 0.5382(3) -0.3243(3)
O7B O 0.3164(3) 0.4089(3) -0.2939(2)
C3B C 0.1855(4) 0.2554(3) -0.2248(3)
Ho1A Ho 0.72709(2) 0.97664(2) 0.34373(2)
Ho1B* Ho 1.22709(2) 0.52336(2) -0.15627(2)
Ho1C Ho 0.27291(2) 0.02336(2) -0.34373(2)
O2B* O -0.0200(3) 0.5358(3) -0.1338(3)
O3A O 0.8404(3) 0.2737(3) 0.1437(2)
O3C O 0.1596(3) 0.7263(3) -0.1437(2)
O4* O 0.1805(4) 0.4892(3) 0.0220(3)
O5A O 0.6607(3) 0.3528(3) 0.2716(3)
O5C O 0.3393(3) 0.6472(3) -0.2716(3)
#END
