
#######################################################################
#
#                 Cambridge Crystallographic Data Centre
#                                CCDC
#
#######################################################################
#
# If this CIF has been generated from an entry in the Cambridge
# Structural Database, then it will include bibliographic, chemical,
# crystal, experimental, refinement or atomic coordinate data resulting
# from the CCDC's data processing and validation procedures.
#
#######################################################################

data_CSD_CIF_VUYTER
_audit_creation_date 2020-09-07
_audit_creation_method CSD-ConQuest-V1
_database_code_CSD VUYTER
_database_code_depnum_ccdc_archive 'CCDC 1554320'
_chemical_formula_sum 'C42 H62 N12 O28 Yb2'
_chemical_formula_moiety
;
(C12 O24 Yb2 6-)n,6(C5 H9 N2 1+),4(H2 O1)
;
_journal_coden_Cambridge 182
_journal_volume 56
_journal_year 2020
_journal_page_first 11386
_journal_name_full 'Chem.Commun. '
loop_
_publ_author_name
"D.Prodius"
"M.Klocke"
"V.Smetana"
"T.Alammar"
"M.P.Garcia"
"T.L.Windus"
"I.C.Nlebedim"
"Anja-Verena Mudring"
_chemical_name_systematic
;
catena-[hexakis(3-ethyl-1H-imidazol-3-ium) 
bis(\m-oxalato)-tetrakis(oxalato)-di-ytterbium(iii) tetrahydrate]
;
_cell_volume   1467.982
_diffrn_ambient_temperature 296
#These two values have been output from a single CSD field.
_refine_ls_R_factor_gt 0.0457
_refine_ls_wR_factor_gt 0.0457
_symmetry_cell_setting triclinic
_symmetry_space_group_name_H-M 'P -1'
_symmetry_Int_Tables_number 2
loop_
_symmetry_equiv_pos_site_id
_symmetry_equiv_pos_as_xyz
1 x,y,z
2 -x,-y,-z
_cell_length_a 8.8524(18)
_cell_length_b 10.434(2)
_cell_length_c 15.937(3)
_cell_angle_alpha 87.131(2)
_cell_angle_beta 87.135(2)
_cell_angle_gamma 88.571(2)
_cell_formula_units_Z 1
loop_
_atom_type_symbol
_atom_type_radius_bond
C 0.68
H 0.23
N 0.68
O 0.68
Yb 1.87
loop_
_atom_site_label
_atom_site_type_symbol
_atom_site_fract_x
_atom_site_fract_y
_atom_site_fract_z
C1 C 0.0344(7) -0.0684(6) -0.0024(4)
C2 C 0.4765(6) 0.0572(6) -0.0303(4)
C3 C 0.3269(7) 0.3440(6) 0.1668(4)
C4 C 0.4361(7) 0.2537(6) 0.2168(4)
C5 C 0.0548(7) 0.0471(7) 0.2959(4)
C6 C 0.1362(8) -0.0870(7) 0.2906(4)
O1 O 0.5534(5) 0.0746(4) -0.0969(3)
O2 O 0.3625(5) 0.1234(4) -0.0054(3)
O3 O 0.2432(5) 0.2899(4) 0.1175(3)
O4 O -0.0217(5) -0.1402(4) -0.0526(3)
O5 O 0.2151(5) -0.1016(5) 0.2232(3)
O6 O 0.1403(5) -0.0947(4) 0.0458(3)
O7 O -0.0320(6) 0.0664(5) 0.3585(3)
O8 O 0.0802(5) 0.1257(5) 0.2345(3)
O9 O 0.3239(5) 0.4614(5) 0.1786(3)
O10 O 0.4235(5) 0.1364(4) 0.2063(3)
O11 O 0.5240(6) 0.3053(5) 0.2635(4)
O12 O 0.1154(7) -0.1674(6) 0.3498(4)
Yb1 Yb 0.23824(3) 0.06547(3) 0.12298(2)
C7 C -0.0398(6) 0.4726(6) -0.1273(4)
H1 H -0.13510 0.49700 -0.14530
C8 C 0.0613(8) 0.5517(7) -0.1020(5)
H2 H 0.04950 0.64020 -0.09930
C9 C 0.1574(8) 0.3546(7) -0.0929(5)
H3 H 0.22340 0.28550 -0.08260
C10 C 0.3262(8) 0.5276(7) -0.0492(5)
H4 H 0.41040 0.50010 -0.08580
H5 H 0.34040 0.48840 0.00640
C11 C 0.3282(8) 0.6701(8) -0.0446(6)
H6 H 0.30650 0.70970 -0.09850
H7 H 0.42630 0.69520 -0.02920
H8 H 0.25320 0.69700 -0.00320
N1 N 0.1838(6) 0.4815(5) -0.0808(4)
N2 N 0.0172(8) 0.3495(7) -0.1227(5)
H9 H -0.02740 0.28180 -0.13620
C12 C 0.5381(8) -0.4149(7) 0.2638(4)
H10 H 0.47540 -0.47940 0.24900
C13 C 0.645(1) -0.0882(7) 0.2744(5)
H11 H 0.67740 -0.06080 0.32770
H12 H 0.54790 -0.04670 0.26400
C14 C 0.7577(9) -0.0469(8) 0.2060(6)
H13 H 0.85190 -0.09240 0.21380
H14 H 0.77310 0.04370 0.20790
H15 H 0.72060 -0.06530 0.15240
C15 C 0.5134(9) -0.2910(8) 0.2508(5)
H16 H 0.42960 -0.25350 0.22560
C16 C 0.7292(10) -0.3161(8) 0.3118(6)
H17 H 0.82020 -0.29880 0.33510
N3 N 0.6273(7) -0.2274(6) 0.2796(4)
N4 N 0.6718(11) -0.4330(8) 0.3029(6)
H18 H 0.71180 -0.50560 0.31890
C17 C 0.1347(8) 0.1070(7) 0.5246(4)
H19 H 0.08070 0.05790 0.56560
C18 C 0.0947(10) 0.2197(9) 0.4957(5)
H20 H 0.00700 0.26430 0.51260
C19 C 0.308(1) 0.1697(9) 0.4299(6)
H21 H 0.39340 0.17300 0.39340
C20 C 0.1990(16) 0.3887(15) 0.3918(12)
H22 H 0.24360 0.44960 0.42680
H23 H 0.26540 0.38150 0.34180
C21 C 0.0644(16) 0.4392(15) 0.3674(12)
H24 H 0.01270 0.37670 0.33800
H25 H 0.08170 0.51390 0.33090
H26 H 0.00370 0.46270 0.41610
N5 N 0.1982(9) 0.2630(8) 0.4379(5)
N6 N 0.2689(10) 0.0708(10) 0.4854(6)
H27 H 0.31870 -0.00010 0.49400
O13 O 0.7136(8) 0.2193(8) 0.3833(4)
O14 O 0.6881(18) 0.3095(12) 0.5445(7)
C1A C -0.0344(7) 0.0684(6) 0.0024(4)
O6A O -0.1403(5) 0.0947(4) -0.0458(3)
O4A O 0.0217(5) 0.1402(4) 0.0526(3)
C2A C 0.5235(6) -0.0572(6) 0.0303(4)
O2A O 0.6375(5) -0.1234(4) 0.0054(3)
O1A O 0.4466(5) -0.0746(4) 0.0969(3)
C3A C -0.3269(7) -0.3440(6) -0.1668(4)
C4A C -0.4361(7) -0.2537(6) -0.2168(4)
C5A C -0.0548(7) -0.0471(7) -0.2959(4)
C6A C -0.1362(8) 0.0870(7) -0.2906(4)
O3A O -0.2432(5) -0.2899(4) -0.1175(3)
O5A O -0.2151(5) 0.1016(5) -0.2232(3)
O7A O 0.0320(6) -0.0664(5) -0.3585(3)
O8A O -0.0802(5) -0.1257(5) -0.2345(3)
O9A O -0.3239(5) -0.4614(5) -0.1786(3)
O10A O -0.4235(5) -0.1364(4) -0.2063(3)
O11A O -0.5240(6) -0.3053(5) -0.2635(4)
O12A O -0.1154(7) 0.1674(6) -0.3498(4)
Yb1A Yb -0.23824(3) -0.06547(3) -0.12298(2)
O1* O -0.4466(5) 0.0746(4) -0.0969(3)
O2A* O -0.3625(5) -0.1234(4) 0.0054(3)
Yb1A* Yb 0.76176(3) -0.06547(3) -0.12298(2)
#END
