
#######################################################################
#
#                 Cambridge Crystallographic Data Centre
#                                CCDC
#
#######################################################################
#
# If this CIF has been generated from an entry in the Cambridge
# Structural Database, then it will include bibliographic, chemical,
# crystal, experimental, refinement or atomic coordinate data resulting
# from the CCDC's data processing and validation procedures.
#
#######################################################################

data_CSD_CIF_VUZVER
_audit_creation_date 2003-03-19
_audit_creation_method CSD-ConQuest-V1
_database_code_CSD VUZVER
_chemical_formula_sum 'C3 H13 Ni4 O10 P2'
_chemical_formula_moiety
;
(H3 O1 1+)n,n(C3 H10 Ni4 O9 P2 1-)
;
_journal_coden_Cambridge 971
_journal_volume 4
_journal_year 2002
_journal_page_first 1179
_journal_name_full 'Solid State Sciences '
loop_
_publ_author_name
"N.Guillou"
"Qiuming Gao"
"M.Nogues"
"A.K.Cheetham"
"G.Ferey"
_chemical_name_systematic
;
catena-(Oxonium 
(\m~14~-propyldiphosphonato)-bis(\m~3~-hydroxo)-aqua-tetra-nickel)
;
_chemical_name_common
;
VSB-6
;
_chemical_melting_point 673.15
_cell_volume    518.261
_exptl_special_details
;
Melts above 673.15K
powder data

;
_diffrn_ambient_temperature ?
_diffrn_special_details
;
The study was carried out at room temperature,in the range 283-303K

;
_refine_special_details
;
The hydroxyl sites are partially occupied by fluorine atoms. The nickel atoms 
are also disordered with a total occupancy of 5.4.
;
#These two values have been output from a single CSD field.
_refine_ls_R_factor_gt 0.068
_refine_ls_wR_factor_gt 0.068
_symmetry_cell_setting orthorhombic
_symmetry_space_group_name_H-M 'P m m n'
_symmetry_Int_Tables_number 59
loop_
_symmetry_equiv_pos_site_id
_symmetry_equiv_pos_as_xyz
1 x,y,z
2 1/2-x,1/2-y,z
3 1/2+x,-y,-z
4 -x,1/2+y,-z
5 -x,-y,-z
6 -1/2+x,-1/2+y,-z
7 -1/2-x,y,z
8 x,-1/2-y,z
_cell_length_a 17.937(1)
_cell_length_b 6.4299(4)
_cell_length_c 4.4936(3)
_cell_angle_alpha 90
_cell_angle_beta 90
_cell_angle_gamma 90
_cell_formula_units_Z 1
loop_
_atom_type_symbol
_atom_type_radius_bond
C 0.68
Ni 1.20
O 0.93
P 1.00
loop_
_atom_site_label
_atom_site_type_symbol
_atom_site_fract_x
_atom_site_fract_y
_atom_site_fract_z
Ni1 Ni 0.50000 0.00000 0.00000
Ni2 Ni 0.5917(5) -0.25000 0.369(2)
P1 P 0.4106(3) -0.25000 -0.487(1)
O1 O 0.5687(5) -0.25000 -0.177(2)
O2 O 0.4176(4) -0.0457(8) -0.296(1)
O3 O 0.4729(5) -0.25000 -0.738(2)
O4 O 0.296(1) 0.25000 -0.344(5)
O5 O 0.25000 0.25000 0.178(5)
C1 C 0.3227(5) -0.25000 -0.658(3)
C2 C 0.25000 -0.25000 -0.463(4)
O1C O 0.4313(5) 0.25000 0.177(2)
O2D O 0.5824(4) 0.0457(8) 0.296(1)
O3* O 0.4729(5) -0.25000 0.262(2)
O3C O 0.5271(5) 0.25000 -0.262(2)
Ni1C Ni 0.50000 -0.50000 0.00000
Ni2* Ni 0.5917(5) -0.25000 -0.631(2)
Ni1C* Ni 0.50000 0.50000 0.00000
Ni2C Ni 0.4083(5) 0.25000 -0.369(2)
Ni2C* Ni 0.4083(5) 0.25000 0.631(2)
Ni1* Ni 0.50000 0.00000 -1.00000
Ni1C** Ni 0.50000 -0.50000 -1.00000
O2G O 0.4176(4) -0.4543(8) -0.296(1)
O3C* O 0.5271(5) -0.75000 -0.262(2)
Ni2C** Ni 0.4083(5) -0.75000 -0.369(2)
C1A C 0.1773(5) -0.25000 -0.658(3)
P1A P 0.0894(3) -0.25000 -0.487(1)
O2F O 0.0824(4) -0.0457(8) -0.296(1)
O2A O 0.0824(4) -0.4543(8) -0.296(1)
O3A O 0.0271(5) -0.25000 -0.738(2)
Ni1B Ni 0.00000 0.00000 0.00000
Ni2B Ni 0.0917(5) 0.25000 -0.369(2)
Ni1A Ni 0.00000 -0.50000 0.00000
Ni2B* Ni 0.0917(5) -0.75000 -0.369(2)
Ni1A* Ni 0.00000 -0.50000 -1.00000
Ni1B* Ni 0.00000 0.00000 -1.00000
Ni2A Ni -0.0917(5) -0.25000 -0.631(2)
O1C* O 0.4313(5) -0.75000 0.177(2)
O2C O 0.5824(4) -0.5457(8) 0.296(1)
O1* O 0.5687(5) -0.25000 0.823(2)
O4C O 0.704(1) -0.25000 0.344(5)
O2G* O 0.4176(4) 0.5457(8) -0.296(1)
O1C** O 0.4313(5) 0.25000 -0.823(2)
#END
