
#######################################################################
#
#                 Cambridge Crystallographic Data Centre
#                                CCDC
#
#######################################################################
#
# If this CIF has been generated from an entry in the Cambridge
# Structural Database, then it will include bibliographic, chemical,
# crystal, experimental, refinement or atomic coordinate data resulting
# from the CCDC's data processing and validation procedures.
#
#######################################################################

data_CSD_CIF_WAFPUR
_audit_creation_date 2016-02-22
_audit_creation_method CSD-ConQuest-V1
_database_code_CSD WAFPUR
_database_code_depnum_ccdc_archive 'CCDC 1424109'
_chemical_formula_sum 'C64 H84 Cl1 Mo13 N17 O48 P1 Zn3'
_chemical_formula_moiety
;
(C48 H40 Cl1 Mo1 N16 O4 Zn3 3+)n,n(Mo12 O40 P1 4-),4n(H2 O1),n(C16 H36 N1 1+)
;
_journal_coden_Cambridge 1699
_journal_volume 4
_journal_year 2016
_journal_page_first 3947
_journal_name_full 'J.Mater.Chem.A '
loop_
_publ_author_name
"Xiaojian Yang"
"Xiaojia Feng"
"Huaqiao Tan"
"Hongying Zang"
"Xinlong Wang"
"Yonghui Wang"
"Enbo Wang"
"Yangguang Li"
_chemical_name_systematic
;
catena-[tetra-n-butylammonium 
tris(\m-oxo)-tetrakis(\m-1,1'-(1,4-phenylene)di(1H-imidazole))-chloro-oxo-moly
bdenum-tri-zinc 
tetracosakis(\m-oxo)-(\m-phosphato)-dodecaoxo-molybdenum(v)-undeca-molybdenum(
vi) tetrahydrate]
;
_cell_volume   4938.950
_exptl_crystal_colour 'black'
_exptl_crystal_density_diffrn 2.266
_exptl_crystal_description 'block'
_diffrn_ambient_temperature 298
_refine_special_details
;
The structure is disordered; Disordered water solvent molecules were not 
modelled and the disordered density was taken into account using the 
SQUEEZE/PLATON procedure.
;
#These two values have been output from a single CSD field.
_refine_ls_R_factor_gt 0.0468
_refine_ls_wR_factor_gt 0.0468
_symmetry_cell_setting monoclinic
_symmetry_space_group_name_H-M 'P 21/m'
_symmetry_Int_Tables_number 11
loop_
_symmetry_equiv_pos_site_id
_symmetry_equiv_pos_as_xyz
1 x,y,z
2 -x,1/2+y,-z
3 -x,-y,-z
4 x,-1/2-y,z
_cell_length_a 13.7949(5)
_cell_length_b 18.8786(6)
_cell_length_c 19.6726(8)
_cell_angle_alpha 90
_cell_angle_beta 105.417(4)
_cell_angle_gamma 90
_cell_formula_units_Z 2
loop_
_atom_type_symbol
_atom_type_radius_bond
C 0.68
H 0.23
Cl 0.99
Mo 1.54
N 0.68
O 0.68
P 1.05
Zn 1.22
loop_
_atom_site_label
_atom_site_type_symbol
_atom_site_fract_x
_atom_site_fract_y
_atom_site_fract_z
Mo1 Mo 0.83474(6) 0.25000 0.04911(4)
O1 O 0.9340(3) 0.3198(2) 0.0632(2)
O2 O 0.9188(4) 0.25000 0.1747(3)
O3 O 0.7464(3) 0.3181(2) 0.0762(2)
O4 O 0.7872(5) 0.25000 -0.0404(3)
Mo2 Mo 1.03279(5) 0.34011(3) 0.15305(3)
P1 P 0.86772(16) 0.25000 0.23442(12)
Mo3 Mo 0.66052(5) 0.34747(3) 0.13078(3)
O5 O 1.0900(5) 0.25000 0.1397(4)
O6 O 1.1090(4) 0.3964(2) 0.1246(3)
O7 O 0.9358(3) 0.4041(2) 0.1713(2)
O8 O 1.0896(3) 0.3360(2) 0.2497(2)
O9 O 0.9470(5) 0.25000 0.3058(3)
O10 O 0.8021(3) 0.3163(2) 0.2288(2)
O11 O 0.6260(5) 0.25000 0.1347(4)
O12 O 0.7405(3) 0.4320(2) 0.1560(2)
O13 O 0.5591(3) 0.3789(3) 0.0702(3)
O14 O 0.6201(3) 0.3612(2) 0.2156(2)
Mo4 Mo 0.85838(5) 0.43883(3) 0.23231(4)
Mo5 Mo 1.07512(5) 0.34049(3) 0.34721(3)
Mo6 Mo 0.91613(7) 0.25000 0.42163(5)
Mo7 Mo 0.70283(5) 0.34929(3) 0.31003(4)
O15 O 0.7769(4) 0.4320(2) 0.2957(3)
O16 O 0.9704(4) 0.4040(2) 0.3072(2)
O17 O 0.8854(4) 0.5262(3) 0.2357(3)
O18 O 1.1719(4) 0.3947(3) 0.3837(3)
O19 O 1.0223(4) 0.3201(3) 0.4231(2)
O20 O 1.1415(5) 0.25000 0.3599(4)
O21 O 0.9169(6) 0.25000 0.5068(4)
O22 O 0.8202(4) 0.3197(3) 0.3825(2)
O23 O 0.6668(5) 0.25000 0.3026(4)
O24 O 0.6299(4) 0.3822(3) 0.3574(3)
N1 N 0.7001(4) 1.0066(3) -0.2393(3)
O25 O 1.2945(4) 0.6732(3) -0.7651(3)
Zn1 Zn 1.21603(6) 0.59110(4) -0.75480(4)
Mo8 Mo 1.36653(6) 0.75000 -0.73588(5)
N2 N 1.4860(5) 0.6562(3) -0.8901(3)
C1 C 1.5452(6) 0.5978(4) -0.8861(4)
N3 N 1.3921(4) 0.5651(3) -0.9352(3)
C2 C 1.4898(5) 0.5411(4) -0.9134(4)
C3 C 1.3883(5) 1.5093(4) -0.7796(4)
H1 H 1.42000 1.55040 -0.78840
N4 N 1.3541(4) 1.3984(3) -0.7666(3)
C4 C 1.3557(5) 1.3222(4) -0.7660(4)
N5 N 0.8775(5) 1.0669(3) -0.4264(3)
C5 C 0.9410(6) 1.0338(4) -0.4641(4)
H2 H 1.51250 1.00480 -0.91690
C6 C 1.1261(5) 0.9827(4) -1.0172(4)
H3 H 1.06210 0.96360 -1.02410
C7 C 1.1384(6) 1.0481(4) -1.0444(4)
N6 N 1.0486(8) 1.0832(6) -1.0835(5)
C8 C 1.2826(5) 1.0600(3) -0.7525(4)
C9 C 0.9611(6) 0.9827(4) -0.5704(4)
H4 H 0.93510 0.97080 -0.61760
C10 C 1.4216(5) 1.4437(4) -0.7832(4)
H5 H 1.48030 1.43100 -0.79480
C11 C 1.3217(5) 1.2137(4) -0.7164(4)
C12 C 1.3904(6) 1.2134(4) -0.8147(4)
H6 H 1.41400 1.18870 -0.84800
C13 C 0.9802(8) 1.0530(7) -1.1382(6)
C14 C 0.9260(6) 1.1592(4) -1.1219(4)
H7 H 0.88660 1.19980 -1.12680
C15 C 1.2006(6) 0.8874(4) -0.5473(4)
H8 H 1.22260 0.87060 -0.50130
C16 C 1.0983(6) 0.9828(4) -0.4661(4)
C17 C 1.0151(6) 1.1488(4) -1.0734(4)
H9 H 1.04760 1.18110 -1.03920
H10 H 1.22760 1.07700 -0.73850
N7 N 0.9044(7) 1.0999(5) -1.1619(5)
H11 H 0.98450 0.49200 -1.15630
C18 C 0.8845(6) 1.0567(4) -0.3581(4)
H12 H 0.93190 1.02790 -0.32820
C19 C 1.3931(6) 0.6348(4) -0.9203(4)
H13 H 1.33660 0.66370 -0.92980
N8 N 1.1865(4) 0.9060(3) -0.6611(3)
C20 C 1.2387(6) 0.8718(4) -0.6018(4)
C21 C 1.3145(6) 0.4574(4) -0.9954(4)
H14 H 1.37790 0.43700 -0.98810
O26 O 1.4747(5) 0.75000 -0.7664(4)
C22 C 1.2301(6) 0.4212(4) -1.0318(5)
H15 H 1.23610 0.37550 -1.04780
C23 C 1.2103(5) 0.5548(4) -0.9793(4)
H16 H 1.20340 0.59930 -0.96090
C24 C 1.3042(5) 0.9756(4) -0.9699(4)
O27 O 1.4046(6) 0.75000 -0.6464(4)
H17 H 1.29870 1.31100 -0.68280
H18 H 0.83550 1.02890 -0.55670
H19 H 0.70700 1.15820 -0.40070
Zn2 Zn 1.53408(9) 0.75000 -0.84765(7)
H20 H 1.61450 0.90280 -0.86700
Cl1 Cl 1.7008(2) 0.75000 -0.8295(2)
O28 O 1.1915(8) 0.25000 0.0268(6)
O29 O 0.3995(12) 0.25000 0.0126(9)
N9 N 0.7153(13) 0.75000 0.4123(9)
C25 C 0.7184(17) 0.75000 0.4883(10)
C26 C 0.6172(17) 0.75000 0.5021(14)
C27 C 0.543(2) 0.7114(14) 0.5302(18)
C28 C 0.4541(19) 0.75000 0.5430(14)
C29 C 0.8179(15) 0.7250(15) 0.4092(15)
C30 C 0.857(2) 0.7013(14) 0.3477(15)
C31 C 0.9425(18) 0.75000 0.3421(12)
C32 C 0.9790(19) 0.75000 0.2787(12)
C33 C 0.6618(12) 0.6861(8) 0.3774(9)
C34 C 0.671(3) 0.6201(13) 0.4235(14)
C35 C 0.628(3) 0.5705(18) 0.3604(17)
C36 C 0.649(3) 0.5662(19) 0.2889(16)
N10? N 1.0860(17) 0.6022(13) 0.1745(12)
C37? C 1.0293(19) 0.5527(15) 0.1316(14)
H21? H 1.04590 0.50520 0.12900
N11? N 0.9441(18) 0.5848(13) 0.0932(13)
C38? C 0.9482(14) 0.6541(9) 0.1123(10)
H22? H 0.89960 0.68820 0.09420
C39? C 1.0359(14) 0.6649(9) 0.1626(10)
H23? H 1.05780 0.70760 0.18500
C40? C 0.708(2) 0.6133(11) 0.387(2)
C41? C 0.635(2) 0.5532(19) 0.391(2)
C42? C 0.531(2) 0.5489(18) 0.3998(19)
O1C O 0.9340(3) 0.1802(2) 0.0632(2)
O3C O 0.7464(3) 0.1819(2) 0.0762(2)
Mo2C Mo 1.03279(5) 0.15989(3) 0.15305(3)
Mo3C Mo 0.66052(5) 0.15253(3) 0.13078(3)
O10C O 0.8021(3) 0.1837(2) 0.2288(2)
O6C O 1.1090(4) 0.1036(2) 0.1246(3)
O7C O 0.9358(3) 0.0959(2) 0.1713(2)
O8C O 1.0896(3) 0.1640(2) 0.2497(2)
O12C O 0.7405(3) 0.0680(2) 0.1560(2)
O13C O 0.5591(3) 0.1211(3) 0.0702(3)
O14C O 0.6201(3) 0.1388(2) 0.2156(2)
Mo5C Mo 1.07512(5) 0.15951(3) 0.34721(3)
Mo4C Mo 0.85838(5) 0.06117(3) 0.23231(4)
Mo7C Mo 0.70283(5) 0.15071(3) 0.31003(4)
O19C O 1.0223(4) 0.1799(3) 0.4231(2)
O22C O 0.8202(4) 0.1803(3) 0.3825(2)
O18C O 1.1719(4) 0.1053(3) 0.3837(3)
O16C O 0.9704(4) 0.0960(2) 0.3072(2)
O15C O 0.7769(4) 0.0680(2) 0.2957(3)
O17C O 0.8854(4) -0.0262(3) 0.2357(3)
O24C O 0.6299(4) 0.1178(3) 0.3574(3)
Zn1A Zn 0.78397(6) 1.09110(4) -0.24520(4)
C2C C 1.4898(5) 0.9589(4) -0.9134(4)
C1C C 1.5452(6) 0.9022(4) -0.8861(4)
N4C N 1.3541(4) 1.1016(3) -0.7666(3)
C4C C 1.3557(5) 1.1778(4) -0.7660(4)
C3C C 1.3883(5) 0.9907(4) -0.7796(4)
C10C C 1.4216(5) 1.0563(4) -0.7832(4)
C5B C 1.0590(6) 0.9662(4) -0.5359(4)
H1C H 1.42000 0.94960 -0.78840
H5C H 1.48030 1.06900 -0.79480
N1B N 1.2999(4) 0.9934(3) -0.7607(3)
N7C N 0.9044(7) 0.4001(5) -1.1619(5)
C14C C 0.9260(6) 0.3408(4) -1.1219(4)
C13C C 0.9802(8) 0.4470(7) -1.1382(6)
N6C N 1.0486(8) 0.4168(6) -1.0835(5)
O25A O 0.7055(4) 1.1732(3) -0.2349(3)
N7* N 0.9044(7) 1.0999(5) -0.1619(5)
C9B C 1.0389(6) 1.0173(4) -0.4296(4)
C7C C 1.1384(6) 0.4519(4) -1.0444(4)
C17C C 1.0151(6) 0.3512(4) -1.0734(4)
C6C C 1.1261(5) 0.5173(4) -1.0172(4)
Zn1B Zn 0.78397(6) 0.40890(4) -1.24520(4)
H3C H 1.06210 0.53640 -1.02410
H9C H 1.04760 0.31890 -1.03920
H2C H 1.51250 0.49520 -0.91690
C16B C 0.9017(6) 1.0172(4) -0.5339(4)
H7C H 0.88660 0.30020 -1.12680
Zn1C Zn 1.21603(6) 0.90890(4) -0.75480(4)
C23C C 1.2103(5) 0.9452(4) -0.9793(4)
H4B H 1.06490 1.02920 -0.38240
C12C C 1.3904(6) 1.2866(4) -0.8147(4)
H6C H 1.41400 1.31130 -0.84800
N8B N 0.8135(4) 1.0940(3) -0.3389(3)
C20B C 0.7613(6) 1.1282(4) -0.3982(4)
C11C C 1.3217(5) 1.2863(4) -0.7164(4)
Zn1A* Zn 0.78397(6) 1.09110(4) -1.24520(4)
N5B N 1.1225(5) 0.9331(3) -0.5736(3)
C18B C 1.1155(6) 0.9433(4) -0.6419(4)
H11C H 0.98450 1.00800 -1.15630
C15B C 0.7994(6) 1.1126(4) -0.4527(4)
N7B N 1.0956(7) 0.9001(5) -0.8381(5)
H18B H 1.16450 0.97110 -0.44330
H8B H 0.77740 1.12940 -0.49870
N2C N 1.4860(5) 0.8438(3) -0.8901(3)
C19C C 1.3931(6) 0.8652(4) -0.9203(4)
O25C O 1.2945(4) 0.8268(3) -0.7651(3)
N3C N 1.3921(4) 0.9349(3) -0.9352(3)
C21C C 1.3145(6) 1.0426(4) -0.9954(4)
H16C H 1.20340 0.90070 -0.96090
C22C C 1.2301(6) 1.0788(4) -1.0318(5)
H15C H 1.23610 1.12450 -1.04780
H13C H 1.33660 0.83630 -0.92980
H14C H 1.37790 1.06300 -0.98810
C24C C 1.3042(5) 0.5244(4) -0.9699(4)
H20C H 1.61450 0.59720 -0.86700
N1A N 1.2999(4) 1.5066(3) -0.7607(3)
Zn1* Zn 1.21603(6) 1.59110(4) -0.75480(4)
H19B H 1.29300 0.84180 -0.59930
C8C C 1.2826(5) 1.4400(3) -0.7525(4)
H17C H 1.29870 1.18900 -0.68280
H12B H 1.06810 0.97210 -0.67180
H10C H 1.22760 1.42300 -0.73850
C27C C 0.543(2) 0.7886(14) 0.5302(18)
C29C C 0.8179(15) 0.7750(15) 0.4092(15)
C30C C 0.857(2) 0.7987(14) 0.3477(15)
C33C C 0.6618(12) 0.8139(8) 0.3774(9)
C34C C 0.671(3) 0.8799(13) 0.4235(14)
C35C C 0.628(3) 0.9295(18) 0.3604(17)
C36C C 0.649(3) 0.9338(19) 0.2889(16)
#END
