
#######################################################################
#
#                 Cambridge Crystallographic Data Centre
#                                CCDC
#
#######################################################################
#
# If this CIF has been generated from an entry in the Cambridge
# Structural Database, then it will include bibliographic, chemical,
# crystal, experimental, refinement or atomic coordinate data resulting
# from the CCDC's data processing and validation procedures.
#
#######################################################################

data_CSD_CIF_WAJTEJ
_audit_creation_date 2016-02-23
_audit_creation_method CSD-ConQuest-V1
_database_code_CSD WAJTEJ
_database_code_depnum_ccdc_archive 'CCDC 1413005'
_chemical_formula_sum 'C38 H46 Cd1 N8 O10'
_chemical_formula_moiety
;
(C28 H16 Cd1 N4 O8 2-)n,2(C3 H7 N1 O1),2(C2 H8 N1 1+)
;
_journal_coden_Cambridge 29
_journal_volume 642
_journal_year 2016
_journal_page_first 323
_journal_name_full 'Z.Anorg.Allg.Chem. '
loop_
_publ_author_name
"Feng-Ji Ma"
"Cai-Xia Yu"
"Xi Feng"
"Cui-Fang Hu"
"Yun-Feng Shi"
"Mei He"
"Lei-Lei Liu"
_chemical_name_systematic
;
catena-(bis(Dimethylammonium) 
bis(\m~2~-3,3'-diazene-1,2-diyldibenzoato)-cadmium(ii) dimethylformamide 
solvate)
;
_cell_volume   4155.469
_exptl_crystal_colour 'yellow'
_exptl_crystal_density_diffrn 1.418
_exptl_crystal_description 'block'
_diffrn_ambient_temperature 296
#These two values have been output from a single CSD field.
_refine_ls_R_factor_gt 0.0323
_refine_ls_wR_factor_gt 0.0323
_symmetry_cell_setting monoclinic
_symmetry_space_group_name_H-M 'P 21/n'
_symmetry_Int_Tables_number 14
loop_
_symmetry_equiv_pos_site_id
_symmetry_equiv_pos_as_xyz
1 x,y,z
2 1/2-x,1/2+y,1/2-z
3 -x,-y,-z
4 -1/2+x,-1/2-y,-1/2+z
_cell_length_a 9.6304(19)
_cell_length_b 21.850(4)
_cell_length_c 19.770(4)
_cell_angle_alpha 90
_cell_angle_beta 92.70(3)
_cell_angle_gamma 90
_cell_formula_units_Z 4
loop_
_atom_type_symbol
_atom_type_radius_bond
C 0.68
H 0.23
Cd 1.44
N 0.68
O 0.68
loop_
_atom_site_label
_atom_site_type_symbol
_atom_site_fract_x
_atom_site_fract_y
_atom_site_fract_z
Cd1 Cd 0.64548(2) 0.252924(8) 0.505543(10)
C1 C 0.8228(3) 0.20554(14) 0.60685(15)
C2 C 0.8837(3) 0.16788(13) 0.66499(14)
C3 C 0.9671(3) 0.19539(15) 0.71572(16)
H1 H 0.98750 0.23690 0.71330
C4 C 1.0201(4) 0.16076(17) 0.76999(18)
H2 H 1.07620 0.17920 0.80370
C5 C 0.9898(4) 0.09943(16) 0.77402(17)
H3 H 1.02610 0.07630 0.81020
C6 C 0.9053(3) 0.07215(13) 0.72425(15)
C7 C 0.8527(3) 0.10648(12) 0.66986(14)
H4 H 0.79620 0.08790 0.63640
C8 C 0.7553(3) -0.07508(12) 0.69723(14)
C9 C 0.8299(3) -0.11620(14) 0.73818(15)
H5 H 0.90070 -0.10240 0.76800
C10 C 0.7983(4) -0.17747(14) 0.73425(16)
H6 H 0.84600 -0.20510 0.76260
C11 C 0.6964(3) -0.19837(14) 0.68851(15)
H7 H 0.67910 -0.24010 0.68480
C12 C 0.6196(3) -0.15768(13) 0.64795(14)
C13 C 0.6486(3) -0.09578(13) 0.65379(14)
H8 H 0.59570 -0.06780 0.62820
C14 C 0.5083(3) -0.17937(15) 0.59730(15)
C15 C 0.4754(3) 0.31105(15) 0.59663(15)
C16 C 0.3735(3) 0.33596(13) 0.64505(14)
C17 C 0.3168(3) 0.29884(13) 0.69322(15)
H9 H 0.34290 0.25790 0.69640
C18 C 0.2219(4) 0.32207(14) 0.73664(16)
H10 H 0.18660 0.29690 0.76960
C19 C 0.1785(3) 0.38217(13) 0.73179(16)
H11 H 0.11250 0.39730 0.76030
C20 C 0.2351(3) 0.41972(12) 0.68355(14)
C21 C 0.3330(3) 0.39687(13) 0.64153(14)
H12 H 0.37250 0.42270 0.61040
C22 C 0.0712(3) 0.56492(12) 0.69462(14)
C23 C -0.0327(3) 0.58987(14) 0.73192(15)
H13 H -0.08070 0.56540 0.76140
C24 C -0.0650(3) 0.65136(15) 0.72516(17)
H14 H -0.13390 0.66840 0.75070
C25 C 0.0044(3) 0.68744(13) 0.68074(15)
H15 H -0.01680 0.72890 0.67700
C26 C 0.1054(3) 0.66248(12) 0.64169(13)
C27 C 0.1394(3) 0.60131(12) 0.64905(14)
H16 H 0.20830 0.58440 0.62340
C28 C 0.1785(3) 0.70063(13) 0.59072(14)
N1 N 0.8782(3) 0.00823(11) 0.73161(13)
N2 N 0.7816(3) -0.01088(11) 0.69363(12)
N3 N 0.2007(3) 0.48259(10) 0.67328(12)
N4 N 0.1024(3) 0.50167(11) 0.70624(12)
O1 O 0.7577(2) 0.17644(9) 0.56018(10)
O2 O 0.8348(3) 0.26187(10) 0.60763(13)
O3 O 0.5105(2) -0.23440(11) 0.58035(13)
O4 O 0.4235(3) -0.14131(12) 0.57409(14)
O5 O 0.4872(3) 0.25448(10) 0.59099(13)
O6 O 0.5420(2) 0.34786(11) 0.56269(12)
O7 O 0.2549(2) 0.67199(9) 0.55127(10)
O8 O 0.1607(3) 0.75661(9) 0.58919(13)
C29 C 0.0782(6) -0.1063(2) 0.6193(2)
H17 H 0.05020 -0.14640 0.63320
H18 H -0.00200 -0.08030 0.61420
H19 H 0.14240 -0.08940 0.65280
C30 C 0.1919(5) -0.0522(2) 0.5288(3)
H20 H 0.23330 -0.05900 0.48620
H21 H 0.25950 -0.03440 0.56020
H22 H 0.11440 -0.02490 0.52240
N5 N 0.1440(3) -0.11058(12) 0.55570(14)
H23 H 0.08360 -0.12750 0.52500
H24 H 0.21740 -0.13600 0.56080
C31 C 0.8137(6) 0.4425(4) 0.6185(3)
H25 H 0.85980 0.40860 0.64070
H26 H 0.73130 0.45260 0.64160
H27 H 0.87490 0.47720 0.61910
C32 C 0.7083(6) 0.4738(2) 0.5104(3)
H28 H 0.68950 0.45880 0.46520
H29 H 0.76730 0.50910 0.50900
H30 H 0.62250 0.48470 0.53000
N6 N 0.7770(3) 0.42652(14) 0.55084(16)
H31 H 0.72090 0.39360 0.55120
H32 H 0.85480 0.41540 0.53050
C33 C -0.2330(6) -0.1029(2) 0.4750(2)
H33 H -0.27880 -0.10450 0.51540
C34 C -0.2473(5) -0.0989(4) 0.3560(3)
H34 H -0.31760 -0.09610 0.32010
H35 H -0.19560 -0.13610 0.35130
H36 H -0.18560 -0.06450 0.35380
C35 C -0.4597(4) -0.0979(2) 0.4177(3)
H37 H -0.49560 -0.09510 0.37170
H38 H -0.49030 -0.06320 0.44290
H39 H -0.49290 -0.13480 0.43780
N7 N -0.3105(3) -0.09883(15) 0.41899(16)
O9 O -0.1046(4) -0.10477(17) 0.47926(19)
C36 C 1.0654(4) 0.3498(2) 0.5174(2)
H40 H 1.00600 0.32810 0.54430
C37 C 1.2586(4) 0.34996(18) 0.4459(2)
H41 H 1.32320 0.32080 0.42910
H42 H 1.30850 0.38080 0.47180
H43 H 1.20780 0.36880 0.40850
C38 C 1.1715(4) 0.25316(16) 0.4959(3)
H44 H 1.24870 0.23810 0.47180
H45 H 1.08710 0.23490 0.47780
H46 H 1.18440 0.24280 0.54300
N8 N 1.1628(3) 0.31906(13) 0.48869(16)
O10 O 1.0457(3) 0.40548(13) 0.51180(15)
Cd1B Cd 0.35452(2) -0.252924(8) 0.494457(10)
Cd1B* Cd 0.35452(2) 0.747076(8) 0.494457(10)
O3B O 0.4895(2) 0.23440(11) 0.41965(13)
O7B O 0.7451(2) 0.32801(9) 0.44873(10)
O8B O 0.8393(3) 0.24339(9) 0.41081(13)
#END
