
#######################################################################
#
#                 Cambridge Crystallographic Data Centre
#                                CCDC
#
#######################################################################
#
# If this CIF has been generated from an entry in the Cambridge
# Structural Database, then it will include bibliographic, chemical,
# crystal, experimental, refinement or atomic coordinate data resulting
# from the CCDC's data processing and validation procedures.
#
#######################################################################

data_CSD_CIF_WAKXUC
_audit_creation_date 2005-08-24
_audit_creation_method CSD-ConQuest-V1
_database_code_CSD WAKXUC
_database_code_depnum_ccdc_archive 'CCDC 223467'
_chemical_formula_sum 'C6 H57.14 Al1 Na7 O42.57 P6'
_chemical_formula_moiety
;
(C6 H24 Al1 Na7 O31 P6 10-)n,10n(H3 O1 1+),1.57n(H2 O1)
;
_journal_coden_Cambridge 229
_journal_volume 264
_journal_year 2004
_journal_page_first 400
_journal_name_full 'J.Cryst.Growth '
loop_
_publ_author_name
"Zongbin Wu"
"Zhongmin Liu"
"Peng Tian"
"Yue Yang"
"Lei Xu"
"Haibin Song"
"Xinhe Bao"
"Xiumei Liu"
"Xianchun Liu"
_chemical_name_systematic
;
catena-[Decaoxonium tris(\m~7~-dihydrogen 
1-hydroxyethylidenediphosphonato)-heptakis(\m~2~-oxo)-triaqua-aluminium-hepta-
sodium hydrate]
;
_cell_volume   2407.591
_exptl_crystal_density_diffrn 1.634
_exptl_special_details
;
isostructural with the 2.5 hydrate, the 1.48 hydrate and the dioxonium 
nona-sodium-octa-aqua-1.75 hydrate
Formulation not given in paper- authors state there are protonated water 
molecules which balance the charge on the aluminodiphosphonate framework. We 
have input 10 oxonium ions and given the framework a charge of 10-, adding 2 
protons each to the diphosphonate ligands. No reply from authors with regard 
to structure clarification
;
_diffrn_ambient_temperature 293
_refine_special_details
;
Some water molecules are disordered.

;
#These two values have been output from a single CSD field.
_refine_ls_R_factor_gt 0.0628
_refine_ls_wR_factor_gt 0.0628
_symmetry_cell_setting hexagonal
_symmetry_space_group_name_H-M 'P -3'
_symmetry_Int_Tables_number 147
loop_
_symmetry_equiv_pos_site_id
_symmetry_equiv_pos_as_xyz
1 x,y,z
2 -y,x-y,z
3 -x+y,-x,z
4 -x,-y,-z
5 y,-x+y,-z
6 x-y,x,-z
_cell_length_a 17.776(4)
_cell_length_b 17.776(4)
_cell_length_c 8.798(4)
_cell_angle_alpha 90
_cell_angle_beta 90
_cell_angle_gamma 120
_cell_formula_units_Z 2
loop_
_atom_type_symbol
_atom_type_radius_bond
C 0.68
H 0.23
Al 1.27
Na 1.43
O 0.82
P 1.05
loop_
_atom_site_label
_atom_site_type_symbol
_atom_site_fract_x
_atom_site_fract_y
_atom_site_fract_z
Al1 Al 0.66670 0.33330 1.0075(3)
Na1 Na 0.66670 0.33330 0.6530(4)
Na2 Na 0.55435(13) 0.13465(13) 0.7796(2)
Na3 Na 0.42897(14) 0.38787(13) 1.0612(2)
P1 P 0.47088(8) 0.24874(8) 0.88157(14)
P2 P 0.50977(8) 0.16002(8) 1.13772(14)
O1 O 0.4375(2) 0.1721(2) 0.7760(4)
O2 O 0.5704(2) 0.3000(2) 0.8751(4)
O3 O 0.4358(2) 0.3089(2) 0.8527(4)
O4 O 0.4975(2) 0.0896(2) 1.0293(4)
O5 O 0.6034(2) 0.2367(2) 1.1326(4)
O6 O 0.4862(2) 0.1291(2) 1.3015(4)
O7 O 0.4634(2) 0.2806(2) 1.1760(4)
H1 H 0.51460 0.31790 1.16700
C1 C 0.3472(3) 0.1430(4) 1.0952(6)
H2 H 0.31420 0.16950 1.06260
H3 H 0.33470 0.12650 1.20010
H4 H 0.33170 0.09250 1.03460
C2 C 0.4442(3) 0.2079(3) 1.0767(5)
O8 O 0.6132(3) 0.1975(3) 0.5361(4)
O9 O 0.4370(3) 0.2226(3) 0.4932(5)
O10 O 0.4553(3) -0.0081(3) 0.6805(5)
O11 O 0.2860(3) 0.2980(3) 1.2081(6)
O12 O 0.3702(4) 0.3486(4) 0.5945(6)
O13 O 0.3500(4) 0.2592(4) 0.3876(6)
O14? O 0.3021(15) 0.2301(14) 0.441(3)
O15 O 0.2418(16) 0.1757(17) 0.763(3)
O16 O 0.137(3) 0.001(3) 0.849(5)
O17? O 0.1447(15) 0.0093(15) 0.930(3)
O18 O 0.2176(17) 0.1377(17) 0.471(3)
O19? O 0.222(2) 0.096(2) 0.432(3)
O20? O 0.00000 0.00000 0.436(7)
Na2A Na 0.86535(13) 0.41970(13) 0.7796(2)
Na2B Na 0.58030(13) 0.44565(13) 0.7796(2)
Na2E Na 0.41970(13) 0.55435(13) 1.2204(2)
Na3A Na 0.61213(14) 0.04110(13) 1.0612(2)
Na3B Na 0.95890(14) 0.57103(13) 1.0612(2)
Na3D Na 0.38787(14) -0.04110(13) 0.9388(2)
Na3E Na 1.04110(14) 0.42897(13) 0.9388(2)
Na3C Na 0.57103(14) 0.61213(13) 0.9388(2)
P1A P 0.75126(8) 0.22214(8) 0.88157(14)
P1B P 0.77786(8) 0.52912(8) 0.88157(14)
P2A P 0.83998(8) 0.34975(8) 1.13772(14)
P2B P 0.65025(8) 0.49023(8) 1.13772(14)
O1A O 0.8279(2) 0.2654(2) 0.7760(4)
O1B O 0.7346(2) 0.5625(2) 0.7760(4)
O2A O 0.7000(2) 0.2704(2) 0.8751(4)
O2B O 0.7296(2) 0.4296(2) 0.8751(4)
O3A O 0.6911(2) 0.1269(2) 0.8527(4)
O3B O 0.8731(2) 0.5642(2) 0.8527(4)
O4A O 0.9104(2) 0.4079(2) 1.0293(4)
O4B O 0.5921(2) 0.5025(2) 1.0293(4)
O4E O 0.4079(2) 0.4975(2) 0.9707(4)
O4C O 0.5025(2) -0.0896(2) 0.9707(4)
O4D O 1.0896(2) 0.5921(2) 0.9707(4)
O5A O 0.7633(2) 0.3667(2) 1.1326(4)
O5B O 0.6333(2) 0.3966(2) 1.1326(4)
O6A O 0.8709(2) 0.3571(2) 1.3015(4)
O6B O 0.6429(2) 0.5138(2) 1.3015(4)
O7A O 0.7194(2) 0.1828(2) 1.1760(4)
O7B O 0.8172(2) 0.5366(2) 1.1760(4)
H1A H 0.68210 0.19670 1.16700
H1B H 0.80330 0.48540 1.16700
C1A C 0.8570(3) 0.2042(4) 1.0952(6)
C1B C 0.7958(3) 0.6528(4) 1.0952(6)
H2A H 0.83050 0.14470 1.06260
H2B H 0.85530 0.68580 1.06260
H3A H 0.87350 0.20820 1.20010
H3B H 0.79180 0.66530 1.20010
H4A H 0.90750 0.23920 1.03460
H4B H 0.76080 0.66830 1.03460
C2A C 0.7921(3) 0.2363(3) 1.0767(5)
C2B C 0.7637(3) 0.5558(3) 1.0767(5)
O8A O 0.8025(3) 0.4157(3) 0.5361(4)
O8B O 0.5843(3) 0.3868(3) 0.5361(4)
O10E O 0.4634(3) 0.4553(3) 1.3195(5)
O10A O 1.0081(3) 0.4634(3) 0.6805(5)
O10B O 0.5366(3) 0.5447(3) 0.6805(5)
O10C O 0.5447(3) 0.0081(3) 1.3195(5)
O10D O 0.9919(3) 0.5366(3) 1.3195(5)
O11A O 0.7020(3) -0.0120(3) 1.2081(6)
O11B O 1.0120(3) 0.7140(3) 1.2081(6)
#END
