
#######################################################################
#
#                 Cambridge Crystallographic Data Centre
#                                CCDC
#
#######################################################################
#
# If this CIF has been generated from an entry in the Cambridge
# Structural Database, then it will include bibliographic, chemical,
# crystal, experimental, refinement or atomic coordinate data resulting
# from the CCDC's data processing and validation procedures.
#
#######################################################################

data_CSD_CIF_WALTAI
_audit_creation_date 2020-11-27
_audit_creation_method CSD-ConQuest-V1
_database_code_CSD WALTAI
_database_code_depnum_ccdc_archive 'CCDC 2022223'
_chemical_formula_sum 'C36 H60 Cl6 Cu3 N18 O8'
_chemical_formula_moiety
;
(C36 H54 Cl6 Cu3 N18 O6 2-)n,2(H3 O1 1+)
;
_journal_coden_Cambridge 1147
_journal_volume 21
_journal_year 2020
_journal_page_first 333
_journal_name_full 'Cryst.Growth Des. '
loop_
_publ_author_name
"Zi-You Zhang"
"Guan-Dong Zhang"
"Xi-Xi Sheng"
"Qian-Wen Ding"
"Yu-Zhuo Bai"
"Yan Su"
"Hong-Ke Liu"
"Zhi Su"
_chemical_name_systematic
;
catena-(dioxonium 
bis(\m-1,1',1''-[(2,4,6-trimethylbenzene-1,3,5-triyl)tris(methylene)]tris(1H-1
,2,4-triazole))-hexa-aqua-hexachloro-tri-copper unknown solvate)
;
_cell_volume   3933.356
_exptl_crystal_colour 'green'
_exptl_crystal_density_diffrn 1.614
_exptl_crystal_description 'block'
_diffrn_ambient_temperature 296.1
_refine_special_details
;
The SQUEEZE/PLATON program was used to model some disorder.

;
#These two values have been output from a single CSD field.
_refine_ls_R_factor_gt 0.0394
_refine_ls_wR_factor_gt 0.0394
_symmetry_cell_setting rhombohedral
_symmetry_space_group_name_H-M 'R -3'
_symmetry_Int_Tables_number 148
loop_
_symmetry_equiv_pos_site_id
_symmetry_equiv_pos_as_xyz
1 x,y,z
2 -y,x-y,z
3 -x+y,-x,z
4 2/3+x,1/3+y,1/3+z
5 2/3-y,1/3+x-y,1/3+z
6 2/3-x+y,1/3-x,1/3+z
7 1/3+x,2/3+y,2/3+z
8 1/3-y,2/3+x-y,2/3+z
9 1/3-x+y,2/3-x,2/3+z
10 -x,-y,-z
11 y,-x+y,-z
12 x-y,x,-z
13 -2/3-x,-1/3-y,-1/3-z
14 -2/3+y,-1/3-x+y,-1/3-z
15 -2/3+x-y,-1/3+x,-1/3-z
16 -1/3-x,-2/3-y,-2/3-z
17 -1/3+y,-2/3-x+y,-2/3-z
18 -1/3+x-y,-2/3+x,-2/3-z
_cell_length_a 14.569(3)
_cell_length_b 14.569(3)
_cell_length_c 21.398(4)
_cell_angle_alpha 90
_cell_angle_beta 90
_cell_angle_gamma 120
_cell_formula_units_Z 3
loop_
_atom_type_symbol
_atom_type_radius_bond
C 0.68
H 0.23
Cl 0.99
Cu 1.32
N 0.68
O 0.68
loop_
_atom_site_label
_atom_site_type_symbol
_atom_site_fract_x
_atom_site_fract_y
_atom_site_fract_z
Cu1 Cu 0.16667 0.33333 0.33333
Cl1 Cl -0.01722(5) 0.22714(7) 0.31052(3)
N1 N 0.14282(16) 0.38907(16) 0.51914(9)
N2 N 0.13251(18) 0.34187(17) 0.42213(9)
N3 N 0.06504(19) 0.28519(18) 0.51708(11)
C1 C 0.25722(19) 0.55908(18) 0.5741(1)
C2 C 0.36519(19) 0.58989(19) 0.57332(10)
C3 C 0.1754(2) 0.44263(19) 0.58001(11)
H1 H 0.20439 0.40790 0.60530
H2 H 0.11353 0.43566 0.60142
C4 C 0.1825(2) 0.4211(2) 0.46245(11)
H3 H 0.23696 0.48873 0.45239
O1 O 0.1633(3) 0.4926(3) 0.30165(16)
H4 H 0.14806 0.51986 0.33217
H5 H 0.22997 0.51844 0.30433
C5 C 0.0612(2) 0.2612(2) 0.45781(13)
H6 H 0.01371 0.19468 0.44177
C6 C 0.3987(2) 0.5068(2) 0.56949(14)
H7 H 0.37767 0.46497 0.60696
H8 H 0.47433 0.54112 0.56501
H9 H 0.36542 0.46178 0.53409
O2 O 0.33333 0.66667 0.4040(2)
H10 H 0.29985 0.67719 0.36483
H11? H 0.36378 0.73604 0.39125
N1A N 0.61093(16) 0.75375(16) 0.51914(9)
N2A N 0.65813(18) 0.79064(17) 0.42213(9)
N3A N 0.71481(19) 0.77985(18) 0.51708(11)
C1A C 0.44092(19) 0.69814(18) 0.5741(1)
C2A C 0.41011(19) 0.77530(19) 0.57332(10)
C3A C 0.55737(20) 0.73277(19) 0.58001(11)
H1A H 0.59210 0.79648 0.60530
H2A H 0.56434 0.67787 0.60142
C4A C 0.5789(2) 0.7614(2) 0.46245(11)
H3A H 0.51127 0.74822 0.45239
C5A C 0.7388(2) 0.8000(2) 0.45781(13)
H6A H 0.80532 0.81903 0.44177
C6A C 0.4932(2) 0.8919(2) 0.56949(14)
H7A H 0.53503 0.91270 0.60696
H8A H 0.45888 0.93321 0.56501
H9A H 0.53822 0.90364 0.53409
N1B N 0.24625(16) 0.85718(16) 0.51914(9)
N2B N 0.20936(18) 0.86749(17) 0.42213(9)
N3B N 0.22015(19) 0.93496(18) 0.51708(11)
C1B C 0.30186(19) 0.74278(18) 0.5741(1)
C2B C 0.22470(19) 0.63481(19) 0.57332(10)
C3B C 0.26723(20) 0.82460(19) 0.58001(11)
H1B H 0.20352 0.79561 0.60530
H2B H 0.32213 0.88647 0.60142
C4B C 0.2386(2) 0.8175(2) 0.46245(11)
H3B H 0.25178 0.76304 0.45239
C5B C 0.2000(2) 0.9388(2) 0.45781(13)
H6B H 0.18097 0.98629 0.44177
C6B C 0.1081(2) 0.6013(2) 0.56949(14)
H7B H 0.08730 0.62233 0.60696
H8B H 0.06679 0.52567 0.56501
H9B H 0.09636 0.63458 0.53409
Cu1A Cu 0.66667 0.83333 0.33333
Cl1A Cl 0.77286(5) 0.75564(7) 0.31052(3)
O1A O 0.5074(3) 0.6707(3) 0.30165(16)
H4A H 0.48014 0.62820 0.33217
H5A H 0.48156 0.71153 0.30433
Cu1B Cu 0.16667 0.83333 0.33333
Cl1B Cl 0.24436(5) 1.01722(7) 0.31052(3)
O1B O 0.3293(3) 0.8367(3) 0.30165(16)
H4B H 0.37180 0.85194 0.33217
H5B H 0.28847 0.77002 0.30433
Cl1L Cl 0.350553(50) 0.439527(70) 0.356147(30)
N1L N 0.190513(160) 0.277597(160) 0.147527(90)
N2L N 0.200823(180) 0.324797(170) 0.244537(90)
N3L N 0.268293(190) 0.381477(180) 0.149587(110)
C1L C 0.076113(190) 0.107587(180) 0.092567(100)
C2L C -0.031857(190) 0.076777(190) 0.093347(100)
C3L C 0.157933(200) 0.224037(190) 0.086657(110)
H1L H 0.12895 0.25876 0.06137
H2L H 0.21981 0.23101 0.06525
C4L C 0.150833(200) 0.245567(200) 0.204217(110)
H3L H 0.09638 0.17793 0.21427
O1L O 0.170033(300) 0.174067(300) 0.365017(160)
H4L H 0.18528 0.14681 0.33450
H5L H 0.10336 0.14822 0.36234
C5L C 0.272133(200) 0.405467(200) 0.208857(130)
H6L H 0.31962 0.47199 0.22490
C6L C -0.065367(200) 0.159867(200) 0.097177(140)
H7L H -0.04434 0.20170 0.05970
H8L H -0.14100 0.12554 0.10166
H9L H -0.03209 0.20489 0.13258
N1M N -0.277597(160) -0.087083(160) 0.147527(90)
N2M N -0.324797(180) -0.123973(170) 0.244537(90)
N3M N -0.381477(190) -0.113183(180) 0.149587(110)
C1M C -0.107587(190) -0.031473(180) 0.092567(100)
C2M C -0.076777(190) -0.108633(190) 0.093347(100)
C3M C -0.224037(200) -0.066103(190) 0.086657(110)
H1M H -0.25876 -0.12981 0.06137
H2M H -0.23101 -0.01120 0.06525
C4M C -0.245567(200) -0.094733(200) 0.204217(110)
H3M H -0.17793 -0.08156 0.21427
C5M C -0.405467(200) -0.133333(200) 0.208857(130)
H6M H -0.47199 -0.15237 0.22490
C6M C -0.159867(200) -0.225233(200) 0.097177(140)
H7M H -0.20170 -0.24603 0.05970
H8M H -0.12554 -0.26654 0.10166
H9M H -0.20489 -0.23697 0.13258
N1N N 0.087083(160) -0.190513(160) 0.147527(90)
N2N N 0.123973(180) -0.200823(170) 0.244537(90)
N3N N 0.113183(190) -0.268293(180) 0.149587(110)
C1N C 0.031473(190) -0.076113(180) 0.092567(100)
C2N C 0.108633(190) 0.031857(190) 0.093347(100)
C3N C 0.066103(200) -0.157933(190) 0.086657(110)
H1N H 0.12981 -0.12895 0.06137
H2N H 0.01120 -0.21981 0.06525
C4N C 0.094733(200) -0.150833(200) 0.204217(110)
H3N H 0.08156 -0.09638 0.21427
C5N C 0.133333(200) -0.272133(200) 0.208857(130)
H6N H 0.15237 -0.31962 0.22490
C6N C 0.225233(200) 0.065367(200) 0.097177(140)
H7N H 0.24603 0.04434 0.05970
H8N H 0.26654 0.14100 0.10166
H9N H 0.23697 0.03209 0.13258
O1M O 0.825933(300) 0.995967(300) 0.365017(160)
H4M H 0.85319 1.03847 0.33450
H5M H 0.85178 0.95513 0.36234
O1N O 0.004033(300) 0.829967(300) 0.365017(160)
H4N H -0.03847 0.81472 0.33450
H5N H 0.04487 0.89664 0.36234
Cl1M Cl 0.560473(50) 0.911027(70) 0.356147(30)
Cl1N Cl 0.088973(50) 0.649447(70) 0.356147(30)
Cu1A* Cu -0.33333 -0.16667 0.33333
Cu1B* Cu 0.16667 -0.16667 0.33333
N2M* N 0.675203(180) 0.876027(170) 0.244537(90)
N2N* N 0.123973(180) 0.799177(170) 0.244537(90)
H10A H 0.32281 0.62266 0.36483
H10B H 0.37734 0.70015 0.36483
#END
