
#######################################################################
#
#                 Cambridge Crystallographic Data Centre
#                                CCDC
#
#######################################################################
#
# If this CIF has been generated from an entry in the Cambridge
# Structural Database, then it will include bibliographic, chemical,
# crystal, experimental, refinement or atomic coordinate data resulting
# from the CCDC's data processing and validation procedures.
#
#######################################################################

data_CSD_CIF_WALZAO
_audit_creation_date 2020-11-27
_audit_creation_method CSD-ConQuest-V1
_database_code_CSD WALZAO
_database_code_depnum_ccdc_archive 'CCDC 2008501'
_chemical_formula_sum 'C112 H90 Ca3 N12 O20'
_chemical_formula_moiety
;
(C96 H60 Ca3 N8 O20 2-)n,2(C8 H15 N2 1+)
;
_journal_coden_Cambridge 222
_journal_volume 49
_journal_year 2020
_journal_page_first 17772
_journal_name_full 'Dalton Trans. '
loop_
_publ_author_name
"Jian-Hua Qin"
"Hua Zhang"
"Pengfei Sun"
"Ya-Dan Huang"
"Qingming Shen"
"Xiao-Gang Yang"
"Lu-Fang Ma"
_chemical_name_systematic
;
catena-[bis(1-butyl-3-methylimidazolium) 
bis(\m-4,4',4'',4'''-(porphyrin-5,10,15,20-tetrayl)tetrabenzoato)-bis(\m-aqua)
-diaqua-tri-calcium(ii)]
;
_cell_volume   2884.450
_exptl_crystal_colour 'violet'
_exptl_crystal_description 'block'
_diffrn_ambient_temperature 293
_refine_special_details
;
Disordered cation molecules (1-butyl-3-methylimidazolium) were not modelled 
and the disordered density was taken into account using the SQUEEZE/PLATON 
procedure.
;
#These two values have been output from a single CSD field.
_refine_ls_R_factor_gt 0.0893
_refine_ls_wR_factor_gt 0.0893
_symmetry_cell_setting triclinic
_symmetry_space_group_name_H-M 'P -1'
_symmetry_Int_Tables_number 2
loop_
_symmetry_equiv_pos_site_id
_symmetry_equiv_pos_as_xyz
1 x,y,z
2 -x,-y,-z
_cell_length_a 11.9690(9)
_cell_length_b 15.4198(10)
_cell_length_c 17.4200(14)
_cell_angle_alpha 74.789(6)
_cell_angle_beta 70.647(7)
_cell_angle_gamma 76.008(6)
_cell_formula_units_Z 1
loop_
_atom_type_symbol
_atom_type_radius_bond
C 0.68
H 0.23
Ca 1.76
N 0.68
O 0.68
loop_
_atom_site_label
_atom_site_type_symbol
_atom_site_fract_x
_atom_site_fract_y
_atom_site_fract_z
Ca1 Ca 0.50000 1.00000 0.00000
Ca2 Ca 0.17877(7) 1.02744(5) 0.05467(5)
O1 O 0.3548(3) 0.9605(2) 0.11936(19)
O2 O 0.1848(3) 0.9112(2) 0.1813(2)
O3 O 1.1016(3) 0.1384(2) 0.1368(2)
O4 O 1.2409(3) 0.2228(3) 0.1082(3)
O5 O 1.2498(3) 0.2186(2) 0.8764(2)
O6 O 1.1158(3) 0.12665(19) 0.93957(18)
O7 O 0.3817(3) 0.9493(2) 0.9475(2)
O8 O 0.2070(3) 0.90836(19) 0.97522(18)
O9 O -0.0240(2) 1.00357(19) 0.09823(17)
H1 H -0.08937 1.03927 0.09691
H2 H -0.02872 0.95939 0.07889
O10 O 0.3457(3) 1.12636(19) -0.00600(19)
N1 N 0.5441(3) 0.6471(2) 0.5583(2)
H3 H 0.59205 0.59559 0.55888
N2 N 0.6920(3) 0.5379(2) 0.6624(2)
N3 N 0.8358(3) 0.4373(2) 0.5333(2)
H4 H 0.77425 0.48011 0.53870
N4 N 0.6726(3) 0.5317(2) 0.4356(2)
C1 C 0.2905(4) 0.9094(3) 0.1775(3)
C2 C 0.3460(4) 0.8465(3) 0.2421(3)
C3 C 0.2771(4) 0.7956(3) 0.3111(3)
H5 H 0.19562 0.80022 0.31785
C4 C 0.3294(4) 0.7369(3) 0.3712(3)
H6 H 0.28201 0.70439 0.41856
C5 C 0.4505(4) 0.7275(3) 0.3601(2)
C6 C 0.5179(4) 0.7784(4) 0.2910(3)
H7 H 0.59991 0.77257 0.28324
C7 C 0.4659(4) 0.8384(4) 0.2326(3)
H8 H 0.51284 0.87322 0.18681
C8 C 1.1408(4) 0.2021(3) 0.1458(3)
C9 C 1.0596(4) 0.2575(3) 0.2102(3)
C10 C 0.9482(4) 0.2375(3) 0.2590(3)
H9 H 0.92050 0.18976 0.25166
C11 C 0.8779(4) 0.2867(3) 0.3179(3)
H10 H 0.80269 0.27242 0.34944
C12 C 0.9163(4) 0.3570(3) 0.3314(3)
C13 C 1.0274(5) 0.3771(3) 0.2836(3)
H11 H 1.05520 0.42408 0.29213
C14 C 1.0996(4) 0.3278(3) 0.2220(3)
H12 H 1.17400 0.34282 0.18942
C15 C 1.1539(4) 0.1942(3) 0.8868(3)
C16 C 1.0770(4) 0.2502(3) 0.8312(3)
C17 C 1.1227(4) 0.3169(3) 0.7647(3)
H13 H 1.19991 0.32747 0.75514
C18 C 1.0548(4) 0.3676(3) 0.7127(3)
H14 H 1.08767 0.41058 0.66727
C19 C 0.9383(4) 0.3552(3) 0.7274(3)
C20 C 0.8916(4) 0.2894(3) 0.7948(3)
H15 H 0.81340 0.28022 0.80547
C21 C 0.9603(4) 0.2376(3) 0.8458(3)
H16 H 0.92805 0.19365 0.89053
C22 C 0.3161(4) 0.9052(3) 0.9359(3)
C23 C 0.3709(4) 0.8440(3) 0.8731(3)
C24 C 0.3017(4) 0.8004(3) 0.8513(3)
H17 H 0.21906 0.80867 0.87581
C25 C 0.3527(4) 0.7445(3) 0.7937(3)
H18 H 0.30387 0.71655 0.77938
C26 C 0.4757(4) 0.7299(3) 0.7572(3)
C27 C 0.5453(4) 0.7744(3) 0.7795(3)
H19 H 0.62810 0.76542 0.75567
C28 C 0.4951(4) 0.8308(3) 0.8353(3)
H20 H 0.54352 0.86041 0.84828
C29 C 0.5116(4) 0.6651(3) 0.4220(2)
C30 C 0.4949(4) 0.6936(3) 0.4947(2)
C31 C 0.4219(4) 0.7754(3) 0.5182(3)
H21 H 0.37812 0.82009 0.48681
C32 C 0.4275(4) 0.7768(3) 0.5948(3)
H22 H 0.38816 0.82234 0.62512
C33 C 0.5049(4) 0.6953(3) 0.6198(3)
C34 C 0.5337(4) 0.6695(3) 0.6950(3)
C35 C 0.6166(4) 0.5932(3) 0.7152(3)
C36 C 0.6411(4) 0.5637(3) 0.7944(3)
H23 H 0.60094 0.58871 0.84141
C37 C 0.7331(4) 0.4928(3) 0.7878(3)
H24 H 0.76900 0.46071 0.82922
C38 C 0.7656(4) 0.4760(3) 0.7056(2)
C39 C 0.8629(4) 0.4132(3) 0.6715(3)
C40 C 0.8973(4) 0.3983(3) 0.5909(3)
C41 C 0.9952(4) 0.3322(4) 0.5574(3)
H25 H 1.05211 0.29626 0.58327
C42 C 0.9901(4) 0.3313(3) 0.4802(3)
H26 H 1.04294 0.29483 0.44388
C43 C 0.8882(4) 0.3970(3) 0.4658(3)
C44 C 0.8430(4) 0.4102(3) 0.3978(3)
C45 C 0.7393(4) 0.4704(3) 0.3869(2)
C46 C 0.6929(4) 0.4836(3) 0.3168(3)
H27 H 0.72059 0.44929 0.27547
C47 C 0.6015(4) 0.5553(3) 0.3232(3)
H28 H 0.55518 0.58010 0.28655
C48 C 0.5892(4) 0.5864(3) 0.3980(2)
H29 H 0.312(6) 1.155(4) 0.034(3)
H30 H 0.316(6) 1.151(5) -0.047(3)
Ca2A Ca 0.82123(7) 0.97256(5) -0.05467(5)
O1A O 0.6452(3) 1.0395(2) -0.11936(19)
O2A O 0.8152(3) 1.0888(2) -0.1813(2)
O3A O -0.1016(3) 1.8616(2) -0.1368(2)
O4A O -0.2409(3) 1.7772(3) -0.1082(3)
O5A O -0.2498(3) 1.7814(2) -0.8764(2)
O6A O -0.1158(3) 1.87335(19) -0.93957(18)
O7A O 0.6183(3) 1.0507(2) -0.9475(2)
O8A O 0.7930(3) 1.09164(19) -0.97522(18)
O9A O 1.0240(2) 0.99643(19) -0.09823(17)
H1A H 1.08937 0.96073 -0.09691
H2A H 1.02872 1.04061 -0.07889
O10A O 0.6543(3) 0.87364(19) 0.00600(19)
N1A N 0.4559(3) 1.3529(2) -0.5583(2)
H3A H 0.40795 1.40441 -0.55888
N2A N 0.3080(3) 1.4621(2) -0.6624(2)
N3A N 0.1642(3) 1.5627(2) -0.5333(2)
H4A H 0.22575 1.51988 -0.53870
N4A N 0.3274(3) 1.4683(2) -0.4356(2)
C1A C 0.7095(4) 1.0906(3) -0.1775(3)
C2A C 0.6540(4) 1.1535(3) -0.2421(3)
C3A C 0.7229(4) 1.2044(3) -0.3111(3)
H5A H 0.80438 1.19978 -0.31785
C4A C 0.6706(4) 1.2631(3) -0.3712(3)
H6A H 0.71799 1.29561 -0.41856
C5A C 0.5495(4) 1.2725(3) -0.3601(2)
C6A C 0.4821(4) 1.2216(4) -0.2910(3)
H7A H 0.40009 1.22743 -0.28324
C7A C 0.5341(4) 1.1616(4) -0.2326(3)
H8A H 0.48716 1.12678 -0.18681
C8A C -0.1408(4) 1.7979(3) -0.1458(3)
C9A C -0.0596(4) 1.7425(3) -0.2102(3)
C10A C 0.0518(4) 1.7625(3) -0.2590(3)
H9A H 0.07950 1.81024 -0.25166
C11A C 0.1221(4) 1.7133(3) -0.3179(3)
H10A H 0.19731 1.72758 -0.34944
C12A C 0.0837(4) 1.6430(3) -0.3314(3)
C13A C -0.0274(5) 1.6229(3) -0.2836(3)
H11A H -0.05520 1.57592 -0.29213
C14A C -0.0996(4) 1.6722(3) -0.2220(3)
H12A H -0.17400 1.65718 -0.18942
C15A C -0.1539(4) 1.8058(3) -0.8868(3)
C16A C -0.0770(4) 1.7498(3) -0.8312(3)
C17A C -0.1227(4) 1.6831(3) -0.7647(3)
H13A H -0.19991 1.67253 -0.75514
C18A C -0.0548(4) 1.6324(3) -0.7127(3)
H14A H -0.08767 1.58942 -0.66727
C19A C 0.0617(4) 1.6448(3) -0.7274(3)
C20A C 0.1084(4) 1.7106(3) -0.7948(3)
H15A H 0.18660 1.71978 -0.80547
C21A C 0.0397(4) 1.7624(3) -0.8458(3)
H16A H 0.07195 1.80635 -0.89053
C22A C 0.6839(4) 1.0948(3) -0.9359(3)
C23A C 0.6291(4) 1.1560(3) -0.8731(3)
C24A C 0.6983(4) 1.1996(3) -0.8513(3)
H17A H 0.78094 1.19133 -0.87581
C25A C 0.6473(4) 1.2555(3) -0.7937(3)
H18A H 0.69613 1.28345 -0.77938
C26A C 0.5243(4) 1.2701(3) -0.7572(3)
C27A C 0.4547(4) 1.2256(3) -0.7795(3)
H19A H 0.37190 1.23458 -0.75567
C28A C 0.5049(4) 1.1692(3) -0.8353(3)
H20A H 0.45648 1.13959 -0.84828
C29A C 0.4884(4) 1.3349(3) -0.4220(2)
C30A C 0.5051(4) 1.3064(3) -0.4947(2)
C31A C 0.5781(4) 1.2246(3) -0.5182(3)
H21A H 0.62188 1.17991 -0.48681
C32A C 0.5725(4) 1.2232(3) -0.5948(3)
H22A H 0.61184 1.17766 -0.62512
C33A C 0.4951(4) 1.3047(3) -0.6198(3)
C34A C 0.4663(4) 1.3305(3) -0.6950(3)
C35A C 0.3834(4) 1.4068(3) -0.7152(3)
C36A C 0.3589(4) 1.4363(3) -0.7944(3)
H23A H 0.39906 1.41129 -0.84141
C37A C 0.2669(4) 1.5072(3) -0.7878(3)
H24A H 0.23100 1.53929 -0.82922
C38A C 0.2344(4) 1.5240(3) -0.7056(2)
C39A C 0.1371(4) 1.5868(3) -0.6715(3)
C40A C 0.1027(4) 1.6017(3) -0.5909(3)
C41A C 0.0048(4) 1.6678(4) -0.5574(3)
H25A H -0.05211 1.70374 -0.58327
C42A C 0.0099(4) 1.6687(3) -0.4802(3)
H26A H -0.04294 1.70517 -0.44388
C43A C 0.1118(4) 1.6030(3) -0.4658(3)
C44A C 0.1570(4) 1.5898(3) -0.3978(3)
C45A C 0.2607(4) 1.5296(3) -0.3869(2)
C46A C 0.3071(4) 1.5164(3) -0.3168(3)
H27A H 0.27941 1.55071 -0.27547
C47A C 0.3985(4) 1.4447(3) -0.3232(3)
H28A H 0.44482 1.41990 -0.28655
C48A C 0.4108(4) 1.4136(3) -0.3980(2)
H29A H 0.688(6) 0.845(4) -0.034(3)
H30A H 0.684(6) 0.849(5) 0.047(3)
Ca1* Ca 0.50000 1.00000 -1.00000
Ca1** Ca 0.50000 1.00000 1.00000
Ca2* Ca 0.17877(7) 1.02744(5) 1.05467(5)
Ca2** Ca 1.17877(7) 0.02744(5) 0.05467(5)
Ca2*** Ca 1.17877(7) 0.02744(5) 1.05467(5)
Ca2A* Ca -0.17877(7) 1.97256(5) -1.05467(5)
Ca2A** Ca -0.17877(7) 1.97256(5) -0.05467(5)
Ca2A*** Ca 0.82123(7) 0.97256(5) -1.05467(5)
O3* O 0.1016(3) 1.1384(2) 0.1368(2)
O3A* O 0.8984(3) 0.8616(2) -0.1368(2)
O6* O 0.1158(3) 1.12665(19) -0.06043(18)
O6A* O 0.8842(3) 0.87335(19) 0.06043(18)
O7* O 0.3817(3) 0.9493(2) -0.0525(2)
O7A* O 0.6183(3) 1.0507(2) 0.0525(2)
O8* O 0.2070(3) 0.90836(19) -0.02478(18)
O8A* O 0.7930(3) 1.09164(19) 0.02478(18)
#END
