
#######################################################################
#
#                 Cambridge Crystallographic Data Centre
#                                CCDC
#
#######################################################################
#
# If this CIF has been generated from an entry in the Cambridge
# Structural Database, then it will include bibliographic, chemical,
# crystal, experimental, refinement or atomic coordinate data resulting
# from the CCDC's data processing and validation procedures.
#
#######################################################################

data_CSD_CIF_WANBIY
_audit_creation_date 2012-07-11
_audit_creation_method CSD-ConQuest-V1
_database_code_CSD WANBIY
_database_code_depnum_ccdc_archive 'CCDC 831776'
_chemical_formula_sum 'C28 H128 K5 N4 Na6 O185 P5 Pr4 W30'
_chemical_formula_moiety
;
(C28 H36 N4 O139 P5 Pr4 W30 11-)n,5n(K1 1+),6n(Na1 1+),46n(H2 O1)
;
_journal_coden_Cambridge 222
_journal_volume 41
_journal_year 2012
_journal_page_first 2399
_journal_name_full 'Dalton Trans. '
loop_
_publ_author_name
"Chao Qin"
"Xue-Zhi Song"
"Sheng-Qun Su"
"Song Dang"
"Jing Feng"
"Shu-Yan Song"
"Zhao-Min Hao"
"Hong-Jie Zhang"
_chemical_name_systematic
;
catena-(Hexa-sodium penta-potassium 
pentakis(\m~6~-phosphato)-tetrakis(\m~2~-pyridine-2,6-dicarboxylato)-octahexac
ontakis(\m~2~-oxo)-triacosa-oxo-dodeca-aqua-tetra-praseodymium-triaconta-tungs
ten hydrate)
;
_cell_volume  17801.092
_exptl_crystal_colour 'green'
_exptl_crystal_density_diffrn 3.75
_exptl_crystal_description 'block'
_diffrn_ambient_temperature 173
_refine_special_details
;
The SQUEEZE/PLATON program has been used to model some disorder.

;
#These two values have been output from a single CSD field.
_refine_ls_R_factor_gt 0.0324
_refine_ls_wR_factor_gt 0.0324
_symmetry_cell_setting monoclinic
_symmetry_space_group_name_H-M 'C 2/c'
_symmetry_Int_Tables_number 15
loop_
_symmetry_equiv_pos_site_id
_symmetry_equiv_pos_as_xyz
1 x,y,z
2 -x,y,1/2-z
3 1/2+x,1/2+y,z
4 1/2-x,1/2+y,1/2-z
5 -x,-y,-z
6 x,-y,-1/2+z
7 -1/2-x,-1/2-y,-z
8 -1/2+x,-1/2-y,-1/2+z
_cell_length_a 22.9090(13)
_cell_length_b 30.1561(16)
_cell_length_c 27.7203(16)
_cell_angle_alpha 90
_cell_angle_beta 111.637(1)
_cell_angle_gamma 90
_cell_formula_units_Z 4
loop_
_atom_type_symbol
_atom_type_radius_bond
C 0.68
H 0.23
K 1.48
N 0.68
Na 1.41
O 0.68
P 1.05
Pr 1.98
W 1.42
loop_
_atom_site_label
_atom_site_type_symbol
_atom_site_fract_x
_atom_site_fract_y
_atom_site_fract_z
Pr1 Pr 0.40996(3) 0.34651(2) 0.87959(2)
Pr2 Pr 0.71138(3) 0.347790(19) 0.88927(2)
W1 W 0.74995(2) 0.542670(14) 0.811560(18)
W2 W 0.556690(19) 0.551520(14) 0.881000(17)
W3 W 0.141119(19) 0.240246(14) 0.881169(17)
W4 W 0.021081(19) 0.243980(14) 0.618510(17)
W5 W 0.29328(2) 0.162610(14) 0.813050(18)
W6 W 0.19029(2) 0.122430(14) 0.880320(17)
W7 W 0.07191(2) 0.126832(14) 0.618383(17)
W8 W 0.45387(2) 0.460830(14) 0.813550(17)
W9 W 0.17831(2) 0.034768(14) 0.683815(18)
W10 W 0.23803(2) 0.150885(14) 0.684761(18)
W11 W 0.239164(19) 0.281551(14) 0.813193(17)
W12 W 0.189733(19) 0.271913(14) 0.685087(17)
W13 W 0.06259(2) 0.349560(14) 0.686120(18)
W14 W 0.61875(2) 0.467130(14) 0.814170(17)
W15 W 0.10291(2) 0.349624(14) 0.814405(18)
P1 P 0.08890(12) 0.25042(9) 0.74960(11)
P2 P 0.50000 0.54091(12) 0.75000
P3 P 0.14353(12) 0.12200(9) 0.74949(11)
Na1? Na -0.0235(4) 0.1565(3) 0.6975(4)
O1 O 0.0235(4) 0.1565(3) 0.8025(4)
K1 K -0.1611(2) -0.00501(16) 0.46916(18)
K2 K 0.2992(2) 0.28699(18) 0.96000(19)
C1 C 0.7846(5) 0.3046(4) 1.0096(5)
C2 C 0.7166(5) 0.3036(4) 1.0058(4)
C3 C 0.6998(5) 0.2877(4) 1.0457(5)
H1 H 0.73030 0.27720 1.07730
C4 C 0.6358(6) 0.2877(4) 1.0372(5)
H2 H 0.62190 0.27830 1.06390
C5 C 0.5922(5) 0.3015(4) 0.9897(5)
H3 H 0.54840 0.30050 0.98270
C6 C 0.6147(5) 0.3166(3) 0.9535(5)
C7 C 0.5726(5) 0.3330(4) 0.9004(5)
C8 C 0.2998(5) 0.3850(4) 0.7658(5)
C9 C 0.2481(5) 0.4065(4) 0.7320(5)
H4 H 0.23910 0.40520 0.69580
C10 C 0.2094(5) 0.4300(4) 0.7506(5)
H5 H 0.17310 0.44460 0.72740
C11 C 0.2242(6) 0.4319(4) 0.8032(5)
H6 H 0.19760 0.44740 0.81690
C12 C 0.2780(5) 0.4111(4) 0.8364(5)
C13 C 0.2989(6) 0.4110(4) 0.8947(5)
C14 C 0.3407(5) 0.3555(4) 0.7504(5)
N1 N 0.6756(4) 0.3178(3) 0.9601(4)
N2 N 0.3156(4) 0.3883(3) 0.8174(4)
O2 O 0.0558(4) 0.3935(2) 0.6446(3)
O3 O 0.1363(3) 0.3259(2) 0.6890(3)
O4 O 0.0930(3) 0.3804(2) 0.7508(3)
O5 O 0.0231(3) 0.3581(2) 0.8090(3)
O6 O 0.1821(4) 0.2522(2) 0.9455(3)
O7 O 0.1398(3) 0.3908(2) 0.8575(3)
O8 O 0.1167(3) 0.3009(2) 0.8589(3)
O9 O 0.0613(3) 0.2327(2) 0.8851(3)
O10 O 0.1879(3) 0.3269(2) 0.8107(3)
O11 O 0.2103(3) 0.2500(2) 0.8586(3)
O12 O 0.0892(3) 0.2269(2) 0.7981(3)
O13 O 0.0691(3) 0.3002(2) 0.7494(3)
O14 O 0.1571(3) 0.2506(2) 0.7494(3)
O15 O 0.1539(3) 0.1793(2) 0.8836(3)
O16 O 0.1107(3) 0.2514(2) 0.6402(3)
O17 O 0.2269(3) 0.2180(2) 0.6899(3)
O18 O 0.3070(3) 0.1585(2) 0.7488(3)
O19 O 0.2773(4) 0.1564(3) 0.6427(3)
O20 O 0.1526(3) 0.1535(2) 0.6402(3)
O21 O 0.2327(3) 0.0914(2) 0.6877(3)
O22 O 0.0182(3) 0.3033(2) 0.6395(3)
O23 O 0.0451(3) 0.2283(2) 0.7008(3)
O24 O 0.0053(4) 0.2546(3) 0.5544(3)
O25 O 0.0333(3) 0.1817(2) 0.6150(3)
O26 O 0.0606(3) 0.1213(3) 0.5540(3)
O27 O 0.2053(3) 0.0111(2) 0.6398(3)
O28 O 0.1148(3) 0.0713(2) 0.6405(3)
O29 O 0.3738(3) 0.4927(2) 0.8094(3)
O30 O 0.5026(3) 0.5969(2) 0.8837(3)
O31 O 0.5953(3) 0.4338(2) 0.7508(3)
O32 O 0.4461(3) 0.4194(2) 0.8539(3)
O33 O 0.4912(3) 0.5080(2) 0.8606(3)
O34 O 0.5856(4) 0.5381(3) 0.9457(3)
O35 O 0.5301(3) 0.4469(3) 0.8122(3)
O36 O 0.6068(3) 0.5086(2) 0.8598(3)
O37 O 0.6192(3) 0.5952(2) 0.8849(3)
O38 O 0.4789(3) 0.5687(2) 0.7011(3)
O39 O 0.5547(3) 0.5096(2) 0.7498(3)
O40 O 0.1296(3) 0.1304(2) 0.7986(3)
O41 O 0.2387(4) 0.1187(2) 0.9448(3)
O42 O 0.6588(3) 0.4251(2) 0.8562(3)
O43 O 0.6828(3) 0.4958(2) 0.8067(3)
O44 O 0.7159(3) 0.5694(2) 0.8580(3)
O45 O 0.2511(3) 0.1529(2) 0.8582(3)
O46 O 0.8112(4) 0.5116(3) 0.8524(3)
O47 O 0.3708(4) 0.1624(3) 0.8544(3)
O48 O 0.7473(3) 0.5203(2) 0.7469(3)
O49 O 0.2902(3) 0.0943(2) 0.8092(3)
O50 O 0.2790(3) 0.2220(2) 0.8075(3)
O51 O 0.1989(3) 0.1518(2) 0.7493(3)
O52 O 0.0852(3) 0.1314(2) 0.7009(3)
O53 O 0.3103(3) 0.3024(2) 0.8565(3)
O54 O 0.2184(3) 0.2988(2) 0.6436(3)
O55 O 0.5151(4) 0.3300(3) 0.8886(4)
O56 O 0.2683(4) 0.4314(3) 0.9161(4)
O57 O 0.3475(4) 0.3884(3) 0.9180(3)
O58 O 0.3873(4) 0.3367(3) 0.7858(3)
O59 O 0.3308(4) 0.3488(3) 0.7033(3)
O60 O 0.7928(3) 0.3178(3) 0.9698(3)
O61 O 0.8264(4) 0.2916(3) 1.0509(3)
O62 O 0.5980(4) 0.3490(3) 0.8709(3)
O63 O 0.2493(3) 0.2934(2) 0.7488(3)
O64 O 0.1642(3) 0.0734(2) 0.7488(3)
O65 O 0.6680(4) 0.2680(3) 0.8697(3)
O66 O 0.8099(4) 0.3877(3) 0.8938(4)
O67 O 0.7307(5) 0.4057(3) 0.9588(4)
O68 O 0.4256(4) 0.3028(3) 0.9610(4)
O69 O 0.4240(4) 0.2632(3) 0.8619(4)
O70 O 0.4819(4) 0.3941(3) 0.9561(3)
O71 O 0.2187(7) 0.3541(5) 0.9547(5)
O72? O 0.2024(12) 0.3934(9) 0.9568(10)
O73 O 0.3421(10) 0.2082(7) 0.9543(7)
O74? O 0.3949(19) 0.1607(13) 0.9571(16)
O75 O 0.3856(5) 0.3538(3) 1.0196(4)
O76 O -0.2242(5) -0.0028(3) 0.5452(4)
O77 O -0.1880(8) -0.0966(5) 0.4522(6)
O78 O -0.0476(5) 0.0130(3) 0.4533(4)
O79 O -0.0910(5) -0.0693(3) 0.5556(4)
K3 K 0.3660(4) 0.2463(3) 0.7364(4)
Na2? Na 0.4672(6) 0.2091(4) 0.7438(5)
Na3 Na 0.0997(7) 0.3435(4) 0.9514(5)
Na4? Na 0.0917(5) 0.3245(4) 0.5416(6)
Na5 Na 0.4679(7) 0.2101(5) 0.9517(5)
Na6? Na -0.0185(7) 0.4507(5) 0.9275(6)
O80 O 0.50000 0.3537(7) 0.75000
O81 O -0.0538(8) 0.4700(5) 0.7607(7)
O82 O 0.5541(9) 0.1777(7) 0.9138(8)
O83 O 0.0046(10) 0.3855(7) 0.9808(8)
O84 O 0.4830(9) 0.2696(7) 0.6970(8)
O85? O 0.4771(15) 0.2425(11) 0.6728(13)
O86 O 0.1441(11) 0.5335(8) 0.7889(10)
O87? O 0.1271(18) 0.5382(12) 0.7527(16)
O88 O 0.1799(12) 0.5016(8) 0.8934(10)
O89 O 0.4457(15) 0.1673(11) 0.7648(14)
O90? O 0.458(3) 0.1423(18) 0.803(2)
O91 O 0.4083(15) 0.1625(10) 0.6679(13)
O92 O -0.1258(13) 0.4533(9) 0.9476(11)
O93 O -0.3345(13) 0.0425(9) 0.5258(11)
O94 O -0.3008(19) -0.0956(14) 0.4303(16)
O95 O -0.051(2) 0.5023(15) 0.8645(18)
O96 O 0.0833(15) 0.4148(10) 1.0752(13)
O97 O 0.0801(19) 0.4399(13) 0.9309(16)
Pr1A Pr -0.40996(3) 0.34651(2) 0.62041(2)
Pr1A* Pr 0.59004(3) 0.34651(2) 0.62041(2)
Pr2A Pr 0.28862(3) 0.347790(19) 0.61073(2)
Pr2* Pr -0.28862(3) 0.347790(19) 0.88927(2)
Pr2A* Pr -0.71138(3) 0.347790(19) 0.61073(2)
W1A W 0.25005(2) 0.542670(14) 0.688440(18)
W1B W 0.24995(2) 0.042670(14) 0.811560(18)
W1C W -0.24995(2) 0.042670(14) 0.688440(18)
W2A W 0.443310(19) 0.551520(14) 0.619000(17)
W2B W 0.056690(19) 0.051520(14) 0.881000(17)
W2C W -0.056690(19) 0.051520(14) 0.619000(17)
W3A W -0.141119(19) 0.240246(14) 0.618831(17)
W4A W -0.021081(19) 0.243980(14) 0.881490(17)
W5A W -0.29328(2) 0.162610(14) 0.686950(18)
W6A W -0.19029(2) 0.122430(14) 0.619680(17)
W6B W 0.69029(2) 0.622430(14) 0.880320(17)
W7A W -0.07191(2) 0.126832(14) 0.881617(17)
W7C W 0.42809(2) 0.626832(14) 0.881617(17)
W8A W -0.45387(2) 0.460830(14) 0.686450(17)
W8A* W 0.54613(2) 0.460830(14) 0.686450(17)
W8C W 0.04613(2) -0.039170(14) 0.686450(17)
W9A W -0.17831(2) 0.034768(14) 0.816185(18)
W9C W 0.32169(2) 0.534768(14) 0.816185(18)
W9B W 0.67831(2) 0.534768(14) 0.683815(18)
W10A W -0.23803(2) 0.150885(14) 0.815239(18)
W11A W -0.239164(19) 0.281551(14) 0.686807(17)
W12A W -0.189733(19) 0.271913(14) 0.814913(17)
W13A W -0.06259(2) 0.349560(14) 0.813880(18)
W14A W 0.38125(2) 0.467130(14) 0.685830(17)
W15A W -0.10291(2) 0.349624(14) 0.685595(18)
P1A P -0.08890(12) 0.25042(9) 0.75040(11)
P3A P -0.14353(12) 0.12200(9) 0.75051(11)
C1A C -0.7846(5) 0.3046(4) 0.4904(5)
C2A C -0.7166(5) 0.3036(4) 0.4942(4)
C3A C -0.6998(5) 0.2877(4) 0.4543(5)
H1A H -0.73030 0.27720 0.42270
C4A C -0.6358(6) 0.2877(4) 0.4628(5)
H2A H -0.62190 0.27830 0.43610
C5A C -0.5922(5) 0.3015(4) 0.5103(5)
H3A H -0.54840 0.30050 0.51730
C6A C -0.6147(5) 0.3166(3) 0.5465(5)
C7A C -0.5726(5) 0.3330(4) 0.5996(5)
C8A C 0.7002(5) 0.3850(4) 0.7342(5)
C9A C 0.7519(5) 0.4065(4) 0.7680(5)
H4A H 0.76090 0.40520 0.80420
C10A C 0.7906(5) 0.4300(4) 0.7494(5)
H5A H 0.82690 0.44460 0.77260
C11A C 0.7758(6) 0.4319(4) 0.6968(5)
H6A H 0.80240 0.44740 0.68310
C12A C 0.7220(5) 0.4111(4) 0.6636(5)
C13A C 0.7011(6) 0.4110(4) 0.6053(5)
C14A C 0.6593(5) 0.3555(4) 0.7496(5)
N1A N -0.6756(4) 0.3178(3) 0.5399(4)
N1A* N 0.3244(4) 0.3178(3) 0.5399(4)
N2A N 0.6844(4) 0.3883(3) 0.6826(4)
N2A* N -0.3156(4) 0.3883(3) 0.6826(4)
O2A O -0.0558(4) 0.3935(2) 0.8554(3)
O3A O -0.1363(3) 0.3259(2) 0.8110(3)
O4A O -0.0930(3) 0.3804(2) 0.7492(3)
O5A O -0.0231(3) 0.3581(2) 0.6910(3)
O6A O -0.1821(4) 0.2522(2) 0.5545(3)
O7A O -0.1398(3) 0.3908(2) 0.6425(3)
O8A O -0.1167(3) 0.3009(2) 0.6411(3)
O9A O -0.0613(3) 0.2327(2) 0.6149(3)
O10A O -0.1879(3) 0.3269(2) 0.6893(3)
O11A O -0.2103(3) 0.2500(2) 0.6414(3)
O12A O -0.0892(3) 0.2269(2) 0.7019(3)
O13A O -0.0691(3) 0.3002(2) 0.7506(3)
O14A O -0.1571(3) 0.2506(2) 0.7506(3)
O15A O -0.1539(3) 0.1793(2) 0.6164(3)
O16A O -0.1107(3) 0.2514(2) 0.8598(3)
O17A O -0.2269(3) 0.2180(2) 0.8101(3)
O18A O -0.3070(3) 0.1585(2) 0.7512(3)
O19A O -0.2773(4) 0.1564(3) 0.8573(3)
O20A O -0.1526(3) 0.1535(2) 0.8598(3)
O21A O -0.2327(3) 0.0914(2) 0.8123(3)
O22A O -0.0182(3) 0.3033(2) 0.8605(3)
O23A O -0.0451(3) 0.2283(2) 0.7992(3)
O24A O -0.0053(4) 0.2546(3) 0.9456(3)
O25A O -0.0333(3) 0.1817(2) 0.8850(3)
O26A O -0.0606(3) 0.1213(3) 0.9460(3)
O27A O -0.2053(3) 0.0111(2) 0.8602(3)
O28A O -0.1148(3) 0.0713(2) 0.8595(3)
O29C O 0.1262(3) -0.0073(2) 0.6906(3)
O29A O -0.3738(3) 0.4927(2) 0.6906(3)
O29B O -0.1262(3) -0.0073(2) 0.8094(3)
O30C O -0.0026(3) 0.0969(2) 0.6163(3)
O30A O 0.4974(3) 0.5969(2) 0.6163(3)
O30B O 0.0026(3) 0.0969(2) 0.8837(3)
O31A O 0.4047(3) 0.4338(2) 0.7492(3)
O31* O -0.4047(3) 0.4338(2) 0.7508(3)
O32A O -0.4461(3) 0.4194(2) 0.6461(3)
O33A O 0.5088(3) 0.5080(2) 0.6394(3)
O33A* O -0.4912(3) 0.5080(2) 0.6394(3)
O34A O 0.4144(4) 0.5381(3) 0.5543(3)
O35A O 0.4699(3) 0.4469(3) 0.6878(3)
O35A* O -0.5301(3) 0.4469(3) 0.6878(3)
O36A O 0.3932(3) 0.5086(2) 0.6402(3)
O37B O 0.1192(3) 0.0952(2) 0.8849(3)
O37A O 0.3808(3) 0.5952(2) 0.6151(3)
O37C O -0.1192(3) 0.0952(2) 0.6151(3)
O38A O 0.5211(3) 0.5687(2) 0.7989(3)
O39A O 0.4453(3) 0.5096(2) 0.7502(3)
O39* O -0.4453(3) 0.5096(2) 0.7498(3)
O40A O -0.1296(3) 0.1304(2) 0.7014(3)
O41A O -0.2387(4) 0.1187(2) 0.5552(3)
O42A O 0.3412(3) 0.4251(2) 0.6438(3)
O43A O 0.3172(3) 0.4958(2) 0.6933(3)
O44B O 0.2159(3) 0.0694(2) 0.8580(3)
O44A O 0.2841(3) 0.5694(2) 0.6420(3)
O44C O -0.2159(3) 0.0694(2) 0.6420(3)
O45A O -0.2511(3) 0.1529(2) 0.6418(3)
O46A O 0.1888(4) 0.5116(3) 0.6476(3)
O47A O -0.3708(4) 0.1624(3) 0.6456(3)
O48B O 0.2473(3) 0.0203(2) 0.7469(3)
O48A O 0.2527(3) 0.5203(2) 0.7531(3)
O48C O -0.2473(3) 0.0203(2) 0.7531(3)
O49A O -0.2902(3) 0.0943(2) 0.6908(3)
O49B O 0.7902(3) 0.5943(2) 0.8092(3)
O49C O 0.2098(3) 0.5943(2) 0.6908(3)
O50A O -0.2790(3) 0.2220(2) 0.6925(3)
O51A O -0.1989(3) 0.1518(2) 0.7507(3)
O52A O -0.0852(3) 0.1314(2) 0.7991(3)
O53A O -0.3103(3) 0.3024(2) 0.6435(3)
O54A O -0.2184(3) 0.2988(2) 0.8564(3)
O54A* O 0.7816(3) 0.2988(2) 0.8564(3)
O55A O -0.5151(4) 0.3300(3) 0.6114(4)
O56A O 0.7317(4) 0.4314(3) 0.5839(4)
O57A O 0.6525(4) 0.3884(3) 0.5820(3)
O57A* O -0.3475(4) 0.3884(3) 0.5820(3)
O58A O 0.6127(4) 0.3367(3) 0.7142(3)
O58A* O -0.3873(4) 0.3367(3) 0.7142(3)
O59A O 0.6692(4) 0.3488(3) 0.7967(3)
O60A O -0.7928(3) 0.3178(3) 0.5302(3)
O60A* O 0.2072(3) 0.3178(3) 0.5302(3)
O61A O -0.8264(4) 0.2916(3) 0.4491(3)
O62A O -0.5980(4) 0.3490(3) 0.6291(3)
O62A* O 0.4020(4) 0.3490(3) 0.6291(3)
O63A O -0.2493(3) 0.2934(2) 0.7512(3)
O64A O -0.1642(3) 0.0734(2) 0.7512(3)
O64B O 0.6642(3) 0.5734(2) 0.7488(3)
O64C O 0.3358(3) 0.5734(2) 0.7512(3)
O65A O 0.3320(4) 0.2680(3) 0.6303(3)
O66A O 0.1901(4) 0.3877(3) 0.6062(4)
O67A O 0.2693(5) 0.4057(3) 0.5412(4)
O68A O -0.4256(4) 0.3028(3) 0.5390(4)
O69A O -0.4240(4) 0.2632(3) 0.6381(4)
O70A O -0.4819(4) 0.3941(3) 0.5439(3)
#END
