
#######################################################################
#
#                 Cambridge Crystallographic Data Centre
#                                CCDC
#
#######################################################################
#
# If this CIF has been generated from an entry in the Cambridge
# Structural Database, then it will include bibliographic, chemical,
# crystal, experimental, refinement or atomic coordinate data resulting
# from the CCDC's data processing and validation procedures.
#
#######################################################################

data_CSD_CIF_WANBOE
_audit_creation_date 2012-07-11
_audit_creation_method CSD-ConQuest-V1
_database_code_CSD WANBOE
_database_code_depnum_ccdc_archive 'CCDC 831777'
_chemical_formula_sum 'C16 H97 N2 Na8 O164 P5 Pr4 W30'
_chemical_formula_moiety
;
(C16 H49 N2 O140 P5 Pr4 W30 8-)n,24n(H2 O1),8n(Na1 1+)
;
_journal_coden_Cambridge 222
_journal_volume 41
_journal_year 2012
_journal_page_first 2399
_journal_name_full 'Dalton Trans. '
loop_
_publ_author_name
"Chao Qin"
"Xue-Zhi Song"
"Sheng-Qun Su"
"Song Dang"
"Jing Feng"
"Shu-Yan Song"
"Zhao-Min Hao"
"Hong-Jie Zhang"
_chemical_name_systematic
;
catena-(Octa-sodium 
pentakis(\m~6~-phosphato)-(\m~3~-pyridine-2,6-dicarboxylato)-(\m~2~-pyridine-2
,6-dicarboxylato)-(\m~2~-acetato)-pentahexacontakis(\m~2~-oxo)-icosa-aqua-pent
acosaoxo-tetra-praseodymium-triaconta-tungsten tetracontahydrate)
;
_cell_volume   7946.773
_exptl_crystal_colour 'green'
_exptl_crystal_density_diffrn 3.912
_exptl_crystal_description 'block'
_diffrn_ambient_temperature 173
_refine_special_details
;
The SQUEEZE/PLATON program has been used to model some disorder.

;
#These two values have been output from a single CSD field.
_refine_ls_R_factor_gt 0.0771
_refine_ls_wR_factor_gt 0.0771
_symmetry_cell_setting triclinic
_symmetry_space_group_name_H-M 'P -1'
_symmetry_Int_Tables_number 2
loop_
_symmetry_equiv_pos_site_id
_symmetry_equiv_pos_as_xyz
1 x,y,z
2 -x,-y,-z
_cell_length_a 17.7879(12)
_cell_length_b 17.9800(13)
_cell_length_c 26.7420(18)
_cell_angle_alpha 88.791(1)
_cell_angle_beta 79.049(1)
_cell_angle_gamma 71.306(1)
_cell_formula_units_Z 2
loop_
_atom_type_symbol
_atom_type_radius_bond
C 0.68
H 0.23
N 0.68
Na 1.11
O 0.68
P 1.05
Pr 2.03
W 1.32
loop_
_atom_site_label
_atom_site_type_symbol
_atom_site_fract_x
_atom_site_fract_y
_atom_site_fract_z
Pr1 Pr 0.39872(11) 0.92559(9) 1.07540(6)
Pr2 Pr -0.26758(11) 0.74591(10) 0.88498(7)
Pr3 Pr -0.22994(13) 1.28357(11) 0.77651(8)
Pr4 Pr 0.07949(14) 0.62537(11) 0.42828(7)
W1 W 0.07825(8) 0.64227(7) 0.88980(5)
W2 W 0.16101(8) 0.78486(7) 0.94118(5)
W3 W 0.25802(8) 1.03904(7) 0.89173(5)
W4 W -0.00027(8) 0.55438(7) 0.73055(5)
W5 W 0.33925(8) 0.84386(7) 0.95240(5)
W6 W 0.12103(8) 1.13528(7) 0.80037(5)
W7 W 0.26349(8) 0.48622(7) 0.91000(5)
W8 W 0.27779(8) 0.40913(7) 0.71914(5)
W9 W 0.50137(8) 0.77513(7) 0.86194(5)
W10 W 0.08273(8) 0.97904(7) 0.88436(5)
W11 W -0.04852(8) 0.74779(7) 0.79814(5)
W12 W 0.42389(8) 0.97198(7) 0.80331(5)
W13 W 0.40454(8) 0.87460(7) 0.68764(5)
W14 W 0.13286(9) 0.45281(7) 0.82320(5)
W15 W 0.34460(9) 0.63439(7) 0.96251(5)
W16 W 0.27120(9) 0.85206(7) 0.60104(5)
W17 W 0.15552(9) 1.06476(7) 0.62576(5)
W18 W -0.04787(8) 0.95465(7) 0.79617(5)
W19 W 0.27380(8) 0.64317(7) 0.60513(5)
W20 W -0.08824(8) 0.74478(7) 0.66985(5)
W21 W -0.01403(8) 1.10904(7) 0.71281(5)
W22 W 0.14572(8) 0.51753(7) 0.62748(5)
W23 W 0.29294(8) 1.08326(7) 0.71383(5)
W24 W 0.41199(8) 0.42381(7) 0.80884(5)
W25 W 0.49508(9) 0.56722(7) 0.86392(5)
W26 W 0.48476(8) 0.68226(7) 0.74679(5)
W27 W 0.40505(8) 0.53846(7) 0.69551(5)
W28 W 0.06838(9) 0.71588(7) 0.57347(5)
W29 W 0.06961(9) 0.92690(7) 0.57062(5)
W30 W -0.08969(8) 0.95600(7) 0.66504(5)
P1 P 0.1022(5) 0.6878(4) 0.6955(3)
P2 P 0.1014(5) 0.9169(4) 0.6918(3)
P3 P 0.2466(5) 0.9416(4) 0.7877(3)
P4 P 0.3343(5) 0.7308(4) 0.8515(3)
P5 P 0.2454(5) 0.5748(4) 0.7950(3)
Na1? Na 0.2709(13) 0.7495(11) 0.7250(8)
O1 O 0.2709(13) 0.7495(11) 0.7250(8)
Na2? Na 0.1429(13) 0.7896(12) 0.8030(8)
O2 O 0.1429(13) 0.7896(12) 0.8030(8)
O3 O 0.3152(12) 0.5425(11) 0.9363(7)
O4 O 0.0766(12) 0.3994(11) 0.8498(8)
O5 O 0.2868(12) 0.7436(10) 0.6050(7)
O6 O 0.2039(11) 1.110(1) 0.8510(7)
O7 O 0.4552(14) 0.4918(12) 0.8466(8)
O8 O 0.0830(11) 1.0659(10) 0.8438(7)
O9 O 0.2341(12) 0.5552(10) 0.6144(7)
O10 O 0.1088(11) 0.7274(10) 0.9137(7)
O11 O 0.3671(12) 0.7266(10) 0.9686(7)
O12 O 0.4607(12) 0.8886(11) 0.8394(7)
O13 O -0.0405(12) 0.8489(11) 0.8043(7)
O14 O 0.0727(12) 0.5560(11) 0.8505(7)
O15 O -0.0323(12) 0.6388(11) 0.7791(7)
O16 O 0.1759(11) 0.9195(10) 0.8187(7)
O17 O -0.0570(12) 0.6414(11) 0.6853(8)
O18 O 0.4416(11) 0.7715(10) 0.7082(7)
O19 O -0.0571(12) 1.0559(11) 0.6779(7)
O20 O 0.5175(13) 0.6733(11) 0.8747(8)
O21 O 0.3561(12) 1.0568(11) 0.7613(7)
O22 O -0.0894(12) 1.1973(11) 0.7268(7)
O23 O 0.3433(13) 0.8463(12) 0.6436(8)
O24 O 0.2443(14) 0.7570(12) 0.8659(8)
O25 O 0.3173(12) 0.9391(10) 0.9243(7)
O26 O 0.0493(12) 1.1388(10) 0.6541(7)
O27 O 0.1132(13) 0.8776(12) 0.9099(8)
O28 O 0.0159(13) 0.9535(12) 0.8444(8)
O29 O 0.4420(12) 0.9085(11) 0.7445(7)
O30 O 0.5048(13) 0.6026(12) 0.7940(8)
O31 O 0.3613(11) 0.7219(10) 0.7951(7)
O32 O -0.1428(11) 0.7621(10) 0.8380(7)
O33 O 0.2044(12) 1.1624(11) 0.7569(7)
O34 O 0.3476(12) 0.9826(11) 0.6807(7)
O35 O 0.2329(11) 0.9654(10) 0.6086(7)
O36 O 0.2977(12) 0.6017(10) 0.7515(7)
O37 O 0.4420(12) 0.6205(11) 0.7111(8)
O38 O 0.0920(11) 0.5983(10) 0.5932(7)
O39 O 0.1859(12) 0.6885(10) 0.6746(7)
O40 O 0.1682(12) 0.5728(10) 0.9134(7)
O41 O 0.2029(12) 0.4409(11) 0.8666(7)
O42 O 0.1001(12) 0.6030(11) 0.6968(8)
O43 O -0.1907(12) 0.7633(11) 0.6676(8)
O44 O 0.0685(12) 0.4895(11) 0.7691(7)
O45 O 0.4562(12) 0.8175(10) 0.9297(7)
O46 O 0.0628(13) 1.1374(12) 0.7536(8)
O47 O 0.4944(14) 0.3429(13) 0.8011(8)
O48 O 0.2440(12) 1.0940(11) 0.9456(7)
O49 O 0.0128(12) 0.7116(11) 0.8482(8)
O50 O 0.1717(12) 0.9966(11) 0.9083(7)
O51 O 0.2111(11) 1.0908(10) 0.6703(7)
O52 O -0.1423(12) 0.9965(10) 0.8336(7)
O53 O -0.0335(12) 1.0498(11) 0.7685(7)
O54 O 0.3647(13) 1.0402(12) 0.8621(8)
O55 O 0.3376(13) 0.8693(12) 1.0159(8)
O56 O 0.0675(11) 0.9026(10) 0.7458(7)
O57 O 0.5069(13) 0.7504(12) 0.7920(8)
O58 O 0.0705(12) 1.2250(11) 0.8317(8)
O59 O 0.5958(12) 0.5164(11) 0.8641(8)
O60 O 0.3382(14) 0.6097(13) 0.5481(8)
O61 O 0.3336(14) 0.6063(13) 1.0242(9)
O62 O 0.4891(13) 0.4898(12) 0.6501(8)
O63 O 0.2104(12) 0.5158(11) 0.7737(7)
O64 O 0.2376(13) 0.8367(11) 0.9544(8)
O65 O 0.4407(13) 0.4851(12) 0.7550(8)
O66 O 0.2056(12) 0.4465(11) 0.6798(7)
O67 O 0.5758(15) 0.6542(13) 0.7113(9)
O68 O 0.1882(12) 0.8634(11) 0.6730(7)
O69 O 0.3296(11) 0.3208(7) 0.6914(7)
O70 O 0.1766(14) 1.1191(13) 0.5735(9)
O71 O 0.3032(11) 0.9532(10) 0.8229(7)
O72 O 0.3328(11) 1.1423(9) 0.6765(6)
O73 O -0.0882(13) 0.7748(11) 0.7376(8)
O74 O 0.0023(13) 0.6450(11) 0.9402(8)
O75 O 0.0711(12) 0.9349(10) 0.5073(7)
O76 O -0.0836(12) 0.5214(10) 0.7445(7)
O77 O -0.0435(12) 0.7274(10) 0.5966(7)
O78 O 0.0691(11) 0.7257(9) 0.7464(6)
O79 O 0.3445(11) 0.6056(10) 0.6491(7)
O80 O 0.4520(11) 0.5732(10) 0.9351(7)
O81 O 0.0989(12) 1.0025(11) 0.6890(8)
O82 O 0.0464(12) 0.7308(10) 0.6565(7)
O83 O 0.1769(13) 0.8637(11) 0.5717(8)
O84 O -0.0927(12) 0.8599(11) 0.6593(7)
O85 O 0.3587(12) 0.4064(11) 0.8745(7)
O86 O 0.3003(11) 0.5298(10) 0.8326(7)
O87 O -0.0485(12) 0.9661(11) 0.5937(7)
O88 O 0.0525(11) 0.4981(10) 0.6649(7)
O89 O 0.5041(13) 1.0075(12) 0.7907(8)
O90 O 0.1745(12) 0.4449(11) 0.5807(7)
O91 O 0.2135(11) 1.0215(10) 0.7626(7)
O92 O 0.2090(11) 0.3762(10) 0.7718(7)
O93 O 0.3707(12) 0.7878(10) 0.8732(7)
O94 O 0.3488(12) 0.3917(11) 0.7736(8)
O95 O 0.0720(13) 0.6900(11) 0.5092(8)
O96 O 0.2952(12) 0.8786(10) 0.7463(7)
O97 O 0.0489(13) 0.8213(12) 0.5700(8)
O98 O 0.2375(14) 0.4335(12) 0.9612(8)
O99 O 0.0924(13) 1.0139(11) 0.5863(8)
O100 O 0.0447(14) 0.9086(13) 0.6566(8)
O101 O -0.0902(12) 0.9495(10) 0.7341(7)
O102 O 0.5970(12) 0.7762(11) 0.8609(7)
O103 O 0.3432(12) 0.4693(11) 0.6926(7)
O104 O 0.2414(13) 0.6867(12) 0.9582(8)
O105 O -0.1901(13) 1.0111(12) 0.6648(8)
O106 O 0.1778(12) 0.6409(10) 0.8240(7)
O107 O 0.3670(12) 0.6497(11) 0.8773(7)
O108 O 0.0064(12) 1.0273(11) 0.9355(7)
O109 O 0.3323(12) 0.8473(11) 0.5455(8)
O110 O 0.4883(14) 0.8682(13) 0.6415(9)
O111 O 0.1006(13) 0.8065(11) 1.0014(8)
O112 O 0.1766(12) 0.6904(11) 0.5749(7)
O113 O -0.3711(12) 0.7907(11) 0.9604(8)
O114 O 0.5295(12) 0.8812(11) 1.0120(7)
O115 O -0.1472(15) 1.3657(13) 0.7432(9)
O116 O 0.3402(16) 0.8355(13) 1.1282(10)
O117 O 0.3417(13) 0.9936(11) 1.1615(8)
O118 O -0.3291(14) 1.2830(13) 0.8553(9)
O119 O -0.0639(17) 0.6635(16) 0.4608(10)
O120 O 0.1467(15) 0.6146(13) 0.3398(9)
O121 O -0.1921(17) 0.7210(14) 0.4520(11)
O122 O -0.3157(16) 0.8813(14) 0.8609(11)
N1 N -0.0100(11) 0.6628(10) 0.3614(6)
C1 C -0.0924(11) 0.6869(11) 0.3770(7)
C2 C -0.1414(12) 0.7032(12) 0.3416(8)
H1 H -0.19850 0.71990 0.35240
C3 C -0.1080(13) 0.6955(13) 0.2906(8)
H2 H -0.14190 0.70690 0.26610
C4 C -0.0255(13) 0.6715(13) 0.2750(7)
H3 H -0.00240 0.66610 0.23970
C5 C 0.0235(11) 0.6551(11) 0.3104(7)
C6 C -0.109(2) 1.367(2) 0.6994(14)
C7 C -0.125(3) 0.693(2) 0.4348(14)
N2 N 0.4682(10) 0.7786(7) 1.0576(6)
C8 C 0.5389(10) 0.7496(9) 1.0202(6)
C9 C 0.5713(10) 0.6685(9) 1.0073(7)
H4 H 0.61900 0.64890 0.98190
C10 C 0.5331(12) 0.6165(7) 1.0319(7)
H5 H 0.55490 0.56180 1.02320
C11 C 0.4624(11) 0.6456(9) 1.0694(7)
H6 H 0.43660 0.61050 1.08600
C12 C 0.4299(9) 0.7266(9) 1.0823(6)
C13 C -0.4309(19) 0.8089(17) 0.9937(12)
C14 C 0.361(2) 0.7655(19) 1.1239(12)
C15 C 0.271(2) 1.088(2) 1.2264(13)
H7 H 0.27110 1.04020 1.24480
H8 H 0.30240 1.11460 1.24130
H9 H 0.21560 1.12300 1.22890
C16 C 0.311(2) 1.0648(18) 1.1685(12)
O123 O 0.0362(15) 0.7763(14) 0.4167(9)
O124 O 0.5016(13) 0.8747(12) 1.1336(8)
O125 O 0.3839(13) 1.0182(12) 1.0013(8)
O126 O 0.4676(12) 1.0278(10) 1.0835(7)
O127 O 0.2497(13) 1.0015(12) 1.0804(8)
O128 O 0.0555(15) 0.5043(14) 0.3960(9)
O129 O -0.2501(16) 0.7067(14) 0.7901(10)
O130 O -0.1501(17) 0.6034(16) 0.8549(10)
O131 O -0.2072(14) 0.6713(12) 0.9548(8)
O132 O -0.2268(14) 0.8336(13) 0.9383(9)
O133 O -0.3175(15) 0.6295(14) 0.8887(9)
O134 O -0.1355(19) 1.2540(18) 0.8362(12)
O135 O -0.2522(18) 1.4006(17) 0.8430(12)
O136 O -0.345(2) 1.407(2) 0.7657(14)
O137 O -0.349(2) 1.253(2) 0.7581(14)
O138 O -0.237(2) 1.272(2) 0.6836(13)
O139 O -0.2135(18) 1.1421(17) 0.7891(12)
O140 O 0.210(2) 0.6593(19) 0.4240(12)
O141 O 0.0693(18) 0.5303(17) 0.5001(12)
O142 O 0.218(2) 0.512(2) 0.4189(14)
Na3 Na 0.1313(15) 1.0068(14) 1.0191(9)
Na4 Na -0.1764(14) 0.4846(14) 0.8091(9)
Na5 Na 0.6364(14) 0.7485(14) 1.1133(9)
Na6 Na 0.0836(15) 1.1010(14) 0.4956(9)
Na7 Na -0.3329(19) 0.7488(19) 0.5016(12)
Na8 Na 0.2594(16) 0.4915(16) 1.0577(10)
Na9 Na 0.1405(17) 0.8591(17) 0.4066(11)
O143 O 0.4399(14) 1.2037(16) 0.6424(11)
O144 O 0.6298(19) 0.7983(18) 0.7285(12)
O145 O 0.1281(15) 0.2837(14) 0.9025(9)
O146 O 0.0735(18) 1.1689(17) 1.0405(11)
O147 O 0.7679(13) 0.7473(13) 1.0413(8)
O148 O 0.0834(17) 0.4025(14) 0.9626(10)
O149 O 0.713(2) 0.765(2) 1.1833(15)
O150 O 0.106(2) 0.621(2) 1.0361(16)
O151 O -0.280(2) 0.557(2) 0.7758(13)
O152 O -0.121(2) 0.632(2) 0.5568(15)
O153 O 0.915(2) 0.521(2) 0.9346(13)
O154 O 0.391(2) 0.886(2) 1.2350(14)
O155 O -0.162(3) 1.159(2) 0.9082(16)
O156 O 0.243(2) 0.769(2) 0.4744(14)
O157 O -0.079(2) 0.387(2) 0.8542(15)
O158 O 0.457(3) 1.192(3) 0.7440(17)
O159 O 0.178(4) 1.195(4) 0.456(2)
O160 O 0.213(3) 0.406(3) 0.329(2)
O161 O -0.324(4) 1.476(4) 0.678(2)
Pr2* Pr 0.73242(11) 0.74591(10) 0.88498(7)
O102* O -0.4030(12) 0.7762(11) 0.8609(7)
O114* O -0.4705(12) 0.8812(11) 1.0120(7)
O118A O 0.3291(14) 0.7170(13) 1.1447(9)
O120A O -0.1467(15) 1.3854(13) 0.6602(9)
O122A O 0.3157(16) 1.1187(14) 1.1391(11)
C5A C -0.0235(11) 1.3449(11) 0.6896(7)
C6A C 0.109(2) 0.633(2) 0.3006(14)
C8* C -0.4611(10) 0.7496(9) 1.0202(6)
C13* C 0.5691(19) 0.8089(17) 0.9937(12)
C14A C -0.361(2) 1.2345(19) 0.8761(12)
C16A C -0.311(2) 0.9352(18) 0.8315(12)
#END
