
#######################################################################
#
#                 Cambridge Crystallographic Data Centre
#                                CCDC
#
#######################################################################
#
# If this CIF has been generated from an entry in the Cambridge
# Structural Database, then it will include bibliographic, chemical,
# crystal, experimental, refinement or atomic coordinate data resulting
# from the CCDC's data processing and validation procedures.
#
#######################################################################

data_CSD_CIF_WANCAR
_audit_creation_date 2012-07-11
_audit_creation_method CSD-ConQuest-V1
_database_code_CSD WANCAR
_database_code_depnum_ccdc_archive 'CCDC 831779'
_chemical_formula_sum 'C14 H52 Gd2 N2 Na11 O160 P8 W30'
_chemical_formula_moiety
;
(C14 H26 Gd2 N2 O147 P8 W30 11-)n,13n(H2 O1),11n(Na1 1+)
;
_journal_coden_Cambridge 222
_journal_volume 41
_journal_year 2012
_journal_page_first 2399
_journal_name_full 'Dalton Trans. '
loop_
_publ_author_name
"Chao Qin"
"Xue-Zhi Song"
"Sheng-Qun Su"
"Song Dang"
"Jing Feng"
"Shu-Yan Song"
"Zhao-Min Hao"
"Hong-Jie Zhang"
_chemical_name_systematic
;
catena-(Undeca-sodium 
pentakis(\m~6~-phosphato)-(\m~3~-pyridine-2,6-dicarboxylato)-(\m~2~-pyridine-2
,6-dicarboxylato)-(\m~2~-acetato)-pentahexacontakis(\m~2~-oxo)-icosa-aqua-pent
;
_cell_volume   3549.238
_exptl_crystal_colour 'green'
_exptl_crystal_description 'block'
_diffrn_ambient_temperature 173
_refine_special_details
;
Na3 disordered by symmetry over two sites with occupancy 0.25; Na5 disordered 
by symmetry over two sites with occupancy 0.25; Na6 disordered by symmetry 
over two sites with occupancy 0.25; Na8 disordered by symmetry over two sites 
with occupancy 0.25; O6W,O7W disordered by symmetry over two sites with 
occupancy 0.25 and a number of W atoms are disordered by symmetry. The 
SQUEEZE/PLATON program may have been used.
;
#These two values have been output from a single CSD field.
_refine_ls_R_factor_gt 0.0894
_refine_ls_wR_factor_gt 0.0894
_symmetry_cell_setting triclinic
_symmetry_space_group_name_H-M 'P -1'
_symmetry_Int_Tables_number 2
loop_
_symmetry_equiv_pos_site_id
_symmetry_equiv_pos_as_xyz
1 x,y,z
2 -x,-y,-z
_cell_length_a 15.6819(10)
_cell_length_b 15.723(1)
_cell_length_c 17.2434(11)
_cell_angle_alpha 67.175(1)
_cell_angle_beta 65.072(1)
_cell_angle_gamma 82.998(1)
_cell_formula_units_Z 1
loop_
_atom_type_symbol
_atom_type_radius_bond
C 0.68
H 0.23
Gd 1.96
N 0.68
Na 1.51
O 0.73
P 1.05
W 1.17
loop_
_atom_site_label
_atom_site_type_symbol
_atom_site_fract_x
_atom_site_fract_y
_atom_site_fract_z
Gd1 Gd 0.01942(12) 1.46019(12) 0.83546(12)
W1 W 0.22575(10) 1.29844(9) 0.88564(10)
W2 W 0.1017(1) 1.17263(10) 1.14397(10)
W3 W 0.42252(11) 1.29788(10) 0.66415(9)
W4 W 0.62007(11) 1.15395(12) 0.57008(10)
W5 W 0.76631(12) 1.26605(11) 0.59519(10)
W6 W 0.10973(10) 0.95389(11) 1.33716(9)
W7 W 0.56578(12) 1.40269(10) 0.69749(12)
W8 W 0.36584(12) 1.41169(11) 0.91477(14)
W9 W 0.25059(11) 1.27891(12) 1.17201(13)
W10 W 0.24882(11) 1.06383(14) 1.37235(12)
O1 O 0.2604(18) 1.0064(17) 1.2682(18)
O2 O 0.0898(16) 1.0767(16) 1.2564(16)
O3 O 0.6466(18) 1.1600(17) 0.6871(17)
O4 O 0.7726(17) 1.2547(16) 0.7059(16)
O5 O 0.2241(18) 1.1764(17) 1.2896(17)
O6 O 0.706(2) 1.0535(19) 0.574(2)
O7 O 0.4975(17) 1.2605(16) 0.7615(16)
O8 O -0.0059(17) 0.9206(16) 1.4040(16)
O9 O -0.2264(18) 0.8968(18) 1.5424(18)
O10 O 0.2243(17) 1.3642(16) 1.2169(17)
O11 O 0.2864(18) 1.3629(17) 1.0419(17)
O12 O 0.6685(16) 1.3475(15) 0.6228(16)
O13 O 0.3449(18) 1.2652(17) 0.9259(17)
O14 O 0.6152(18) 1.1629(17) 0.4675(17)
O15 O 0.1269(16) 1.0117(15) 1.4110(15)
O16 O 0.8649(18) 1.0843(17) 0.7578(17)
O17 O 0.4553(19) 1.4268(18) 0.7938(18)
O18 O 0.8566(18) 1.3476(17) 0.5135(17)
O19 O 0.3778(16) 1.1006(16) 1.2977(16)
O20 O 0.1520(17) 1.2591(16) 1.0166(16)
O21 O 0.1233(16) 1.2639(15) 1.1836(16)
O22 O 0.4649(17) 1.3633(16) 0.9514(17)
O23 O -0.0143(19) 1.1873(18) 1.1660(18)
O24 O 0.8415(17) 1.1600(16) 0.6033(17)
O25 O 0.3702(17) 1.5225(16) 0.9037(16)
O26 O 0.8718(16) 0.9217(15) 0.9031(16)
O27 O 0.3737(16) 1.3361(15) 0.5876(15)
O28 O 0.2618(16) 1.4088(15) 0.8860(16)
O29 O 0.4959(15) 1.4057(14) 0.6285(14)
O30 O 0.7780(18) 0.8239(17) 1.1021(17)
O31 O 0.6085(17) 1.5123(16) 0.6430(17)
O32 O 0.3749(16) 1.2647(15) 1.1465(15)
O33 O 0.5335(17) 1.2479(16) 0.5948(16)
O34 O 0.2558(15) 1.1687(14) 1.1199(14)
O35 O 0.7225(18) 1.2417(17) 0.5169(17)
O36 O 0.4760(15) 0.9356(14) 1.3409(15)
O37 O 0.3228(17) 1.3225(17) 0.7608(17)
O38 O 0.1344(15) 1.3404(14) 0.8560(14)
O39 O 0.6194(15) 1.3598(14) 0.7837(14)
O40 O 0.6300(16) 0.8284(15) 1.2689(15)
W11? W 0.30019(18) 1.08406(19) 0.84577(17)
W12 W 0.5031(2) 1.26575(19) 1.04742(18)
W13 W 0.50195(19) 1.05592(18) 1.24690(18)
W14? W 0.2999(2) 0.7401(2) 1.1687(2)
W15? W 0.1789(2) 0.9591(2) 1.10083(18)
O41 O 0.554(3) 1.341(3) 1.065(3)
O42 O 0.775(3) 1.337(2) 0.819(3)
O43 O 0.218(3) 1.057(3) 0.819(3)
O44 O 0.083(3) 0.914(3) 1.104(3)
O45 O 0.554(3) 1.104(3) 1.294(3)
O46 O 0.523(4) 1.150(4) 1.147(4)
O47 O 0.611(3) 1.005(3) 1.186(3)
O48 O 0.752(3) 0.997(3) 1.022(3)
O49 O 0.753(4) 1.154(3) 0.875(4)
O50? O 0.396(4) 0.751(4) 1.046(4)
O51 O 0.598(4) 1.167(4) 0.846(4)
O52 O 0.433(3) 1.170(3) 1.026(3)
O53 O 0.300(3) 1.016(3) 1.101(3)
O54 O 0.394(3) 1.119(3) 0.891(3)
O55 O 0.438(3) 0.993(3) 1.190(3)
W16 W 0.78801(18) 1.17374(18) 0.81454(18)
W17 W 0.60034(18) 0.95846(19) 1.22901(18)
W18 W 0.79344(19) 0.95914(18) 1.00822(17)
W19? W 0.5264(2) 0.82496(18) 0.83083(18)
W20? W 0.41143(18) 0.69190(18) 1.08443(17)
P1 P 0.5563(11) 1.1662(10) 0.7805(10)
P2 P 0.4348(13) 1.2145(13) 0.8710(13)
P3 P 0.3394(12) 1.1738(10) 1.0186(11)
P4 P 0.3055(11) 1.0717(10) 1.1540(11)
P5 P 0.3439(14) 0.9360(14) 1.2373(14)
O56 O 0.550(3) 1.079(3) 1.183(3)
O57 O 0.700(3) 0.973(3) 1.112(3)
O58 O 0.781(4) 1.070(4) 0.922(4)
O59 O 0.695(6) 1.234(5) 0.877(6)
O60? O 0.454(3) 0.770(3) 0.958(3)
O61 O 0.505(3) 1.203(2) 0.915(3)
O62 O 0.325(3) 0.914(3) 1.167(3)
O63 O 0.407(3) 1.099(3) 1.127(3)
O64 O 0.490(3) 1.084(3) 0.822(3)
O65 O 0.323(3) 1.090(3) 1.004(3)
O66 O 0.479(3) 0.755(3) 0.797(3)
O67 O 0.353(3) 0.618(3) 1.078(3)
O68 O 0.876(3) 1.230(3) 0.806(3)
O69 O 0.883(3) 0.985(3) 1.021(3)
O70 O 0.661(3) 0.992(3) 1.276(3)
Na1? Na 0.4378(16) 0.9522(15) 0.9868(15)
O71 O 0.4378(16) 0.9522(15) 0.9868(15)
O72 O 0.069(2) 1.4339(19) 0.6978(19)
O73 O 0.181(2) 1.424(2) 0.5655(19)
O74 O 0.1020(18) 1.5418(17) 0.8793(16)
O75 O 0.222(2) 1.6368(19) 0.838(2)
N1 N 0.1824(15) 1.5228(15) 0.7179(14)
C1 C 0.2195(15) 1.5001(16) 0.6425(15)
C2 C 0.3105(17) 1.5237(18) 0.5832(16)
H1 H 0.33660 1.50770 0.53030
C3 C 0.3645(17) 1.5699(18) 0.5993(18)
H2 H 0.42850 1.58640 0.55760
C4 C 0.3275(17) 1.5925(18) 0.6747(18)
H3 H 0.36550 1.62500 0.68600
C5 C 0.2364(16) 1.5690(17) 0.7339(16)
C6 C 0.152(3) 1.447(2) 0.635(2)
C7 C 0.191(3) 1.585(2) 0.819(2)
O76 O -0.0626(19) 1.3090(19) 0.8922(19)
O77 O -0.1199(19) 1.4801(19) 0.7982(19)
O78 O -0.109(2) 1.5261(18) 0.9459(19)
O79 O -0.019(2) 1.372(2) 1.005(2)
O80 O 0.011(2) 1.6202(19) 0.746(2)
Na2 Na 0.243(1) 0.6411(11) 0.9856(10)
Na3? Na 0.3060(11) 1.3423(10) 0.4869(10)
Na4? Na 0.298(3) 1.803(2) 0.722(2)
Na5? Na 0.527(3) 0.526(2) 0.959(2)
Na6? Na 0.147(3) 1.760(3) 0.654(3)
Na7? Na 1.023(3) 1.421(3) 0.404(2)
Na8? Na -0.012(3) 1.145(3) 0.996(3)
Na9 Na -0.123(3) 0.794(3) 1.477(3)
O81 O 0.455(4) 1.271(3) 0.414(3)
O82 O -0.233(3) 0.804(3) 1.407(3)
O83 O 0.125(3) 0.931(3) 0.828(3)
O84? O 0.551(4) 0.613(3) 0.762(3)
O85 O 0.814(4) 1.052(4) 0.345(4)
O86 O 0.604(5) 1.599(5) 0.773(5)
O87 O -0.036(4) 1.132(4) 1.411(4)
O88 O 0.126(4) 1.211(4) 0.765(4)
O89 O 0.180(7) 0.538(5) 1.339(4)
O90? O 0.259(7) 0.820(6) 0.931(7)
Gd1A Gd 0.98058(12) 0.53981(12) 1.16454(12)
W1A W 0.77425(10) 0.70156(9) 1.11436(10)
W2A W 0.8983(1) 0.82737(10) 0.85603(10)
W3A W 0.57748(11) 0.70212(10) 1.33585(9)
W4A W 0.37993(11) 0.84605(12) 1.42992(10)
W5A W 0.23369(12) 0.73395(11) 1.40481(10)
W6A W 0.89027(10) 1.04611(11) 0.66284(9)
W6A* W -0.10973(10) 1.04611(11) 1.66284(9)
W7A W 0.43422(12) 0.59731(10) 1.30251(12)
W8A W 0.63416(12) 0.58831(11) 1.08523(14)
W9A W 0.74941(11) 0.72109(12) 0.82799(13)
W10A W 0.75118(11) 0.93617(14) 0.62765(12)
W10A* W -0.24882(11) 0.93617(14) 1.62765(12)
O1A O 0.7396(18) 0.9936(17) 0.7318(18)
O2A O 0.9102(16) 0.9233(16) 0.7436(16)
O3A O 0.3534(18) 0.8400(17) 1.3129(17)
O4A O 0.2274(17) 0.7453(16) 1.2941(16)
O5A O 0.7759(18) 0.8236(17) 0.7104(17)
O6A O 0.294(2) 0.9465(19) 1.426(2)
O7A O 0.5025(17) 0.7395(16) 1.2385(16)
O8A O 0.0059(17) 1.0794(16) 1.5960(16)
O8A* O 1.0059(17) 1.0794(16) 0.5960(16)
O9A O 0.2264(18) 1.1032(18) 1.4576(18)
O9* O 0.7736(18) 0.8968(18) 0.5424(18)
O10A O 0.7757(17) 0.6358(16) 0.7831(17)
O11A O 0.7136(18) 0.6371(17) 0.9581(17)
O12A O 0.3315(16) 0.6525(15) 1.3772(16)
O13A O 0.6551(18) 0.7348(17) 1.0741(17)
O14A O 0.3848(18) 0.8371(17) 1.5325(17)
O15A O 0.8731(16) 0.9883(15) 0.5890(15)
O16A O 0.1351(18) 0.9157(17) 1.2422(17)
O17A O 0.5447(19) 0.5732(18) 1.2062(18)
O18A O 0.1434(18) 0.6524(17) 1.4865(17)
O19A O 0.6222(16) 0.8994(16) 0.7023(16)
O20A O 0.8480(17) 0.7409(16) 0.9834(16)
O21A O 0.8767(16) 0.7361(15) 0.8164(16)
O22A O 0.5351(17) 0.6367(16) 1.0486(17)
O23A O 1.0143(19) 0.8127(18) 0.8340(18)
O24A O 0.1585(17) 0.8400(16) 1.3967(17)
O25A O 0.6298(17) 0.4775(16) 1.0963(16)
O26A O 0.1282(16) 1.0783(15) 1.0969(16)
O27A O 0.6263(16) 0.6639(15) 1.4124(15)
O28A O 0.7382(16) 0.5912(15) 1.1140(16)
O29A O 0.5041(15) 0.5943(14) 1.3715(14)
O30A O 0.2220(18) 1.1761(17) 0.8979(17)
O31A O 0.3915(17) 0.4877(16) 1.3570(17)
O32A O 0.6251(16) 0.7353(15) 0.8535(15)
O33A O 0.4665(17) 0.7521(16) 1.4052(16)
O34A O 0.7442(15) 0.8313(14) 0.8801(14)
O35A O 0.2775(18) 0.7583(17) 1.4831(17)
O36A O 0.5240(15) 1.0644(14) 0.6591(15)
O37A O 0.6772(17) 0.6775(17) 1.2392(17)
O38A O 0.8656(15) 0.6596(14) 1.1440(14)
O39A O 0.3806(15) 0.6402(14) 1.2163(14)
O40A O 0.3700(16) 1.1716(15) 0.7311(15)
W12A W 0.4969(2) 0.73425(19) 0.95258(18)
W13A W 0.49805(19) 0.94408(18) 0.75310(18)
O41A O 0.446(3) 0.659(3) 0.935(3)
O42A O 0.225(3) 0.663(2) 1.181(3)
O45A O 0.446(3) 0.896(3) 0.706(3)
O46A O 0.477(4) 0.850(4) 0.853(4)
O47A O 0.389(3) 0.995(3) 0.814(3)
O48A O 0.248(3) 1.003(3) 0.978(3)
O49A O 0.247(4) 0.846(3) 1.125(4)
O51A O 0.402(4) 0.833(4) 1.154(4)
O52A O 0.567(3) 0.830(3) 0.974(3)
O53A O 0.700(3) 0.984(3) 0.899(3)
O54A O 0.606(3) 0.881(3) 1.109(3)
O55A O 0.562(3) 1.007(3) 0.810(3)
W16A W 0.21199(18) 0.82626(18) 1.18546(18)
W17A W 0.39966(18) 1.04154(19) 0.77099(18)
W18A W 0.20656(19) 1.04086(18) 0.99178(17)
P1A P 0.4437(11) 0.8338(10) 1.2195(10)
P2A P 0.5652(13) 0.7855(13) 1.1290(13)
P3A P 0.6606(12) 0.8262(10) 0.9814(11)
P4A P 0.6945(11) 0.9283(10) 0.8460(11)
P5A P 0.6561(14) 1.0640(14) 0.7627(14)
O56A O 0.450(3) 0.921(3) 0.817(3)
O57A O 0.300(3) 1.027(3) 0.888(3)
O58A O 0.219(4) 0.930(4) 1.078(4)
O59A O 0.305(6) 0.766(5) 1.123(6)
O61A O 0.495(3) 0.797(2) 1.085(3)
O62A O 0.675(3) 1.086(3) 0.833(3)
O63A O 0.593(3) 0.901(3) 0.873(3)
O64A O 0.510(3) 0.916(3) 1.178(3)
O65A O 0.677(3) 0.910(3) 0.996(3)
O68A O 0.124(3) 0.770(3) 1.194(3)
O69A O 0.117(3) 1.015(3) 0.979(3)
O70A O 0.339(3) 1.008(3) 0.724(3)
O72A O 0.931(2) 0.5661(19) 1.3022(19)
O73A O 0.819(2) 0.576(2) 1.4345(19)
O74A O 0.8980(18) 0.4582(17) 1.1207(16)
O75A O 0.778(2) 0.3632(19) 1.162(2)
N1A N 0.8176(15) 0.4772(15) 1.2821(14)
C1A C 0.7805(15) 0.4999(16) 1.3575(15)
C2A C 0.6895(17) 0.4763(18) 1.4168(16)
H1A H 0.66340 0.49230 1.46970
C3A C 0.6355(17) 0.4301(18) 1.4007(18)
H2A H 0.57150 0.41360 1.44240
C4A C 0.6725(17) 0.4075(18) 1.3253(18)
H3A H 0.63450 0.37500 1.31400
C5A C 0.7636(16) 0.4310(17) 1.2661(16)
C6A C 0.848(3) 0.553(2) 1.365(2)
C7A C 0.809(3) 0.415(2) 1.181(2)
O76A O 1.0626(19) 0.6910(19) 1.1078(19)
O77A O 1.1199(19) 0.5199(19) 1.2018(19)
O78A O 1.109(2) 0.4739(18) 1.0541(19)
O79A O 1.019(2) 0.628(2) 0.995(2)
O80A O 0.989(2) 0.3798(19) 1.254(2)
Na9A Na 0.123(3) 1.206(3) 1.523(3)
O82A O 0.233(3) 1.196(3) 1.593(3)
#END
