
#######################################################################
#
#                 Cambridge Crystallographic Data Centre
#                                CCDC
#
#######################################################################
#
# If this CIF has been generated from an entry in the Cambridge
# Structural Database, then it will include bibliographic, chemical,
# crystal, experimental, refinement or atomic coordinate data resulting
# from the CCDC's data processing and validation procedures.
#
#######################################################################

data_CSD_CIF_WANCEV
_audit_creation_date 2012-07-11
_audit_creation_method CSD-ConQuest-V1
_database_code_CSD WANCEV
_database_code_depnum_ccdc_archive 'CCDC 831780'
_chemical_formula_sum 'C14 H52 N2 Na11 O160 P8 Sm2 W30'
_chemical_formula_moiety
;
(C14 H26 N2 O147 P8 Sm2 W30 11-)n,13n(H2 O1),11n(Na1 1+)
;
_journal_coden_Cambridge 222
_journal_volume 41
_journal_year 2012
_journal_page_first 2399
_journal_name_full 'Dalton Trans. '
loop_
_publ_author_name
"Chao Qin"
"Xue-Zhi Song"
"Sheng-Qun Su"
"Song Dang"
"Jing Feng"
"Shu-Yan Song"
"Zhao-Min Hao"
"Hong-Jie Zhang"
_chemical_name_systematic
;
catena-(Undeca-sodium 
pentakis(\m~6~-phosphato)-(\m~3~-pyridine-2,6-dicarboxylato)-(\m~2~-pyridine-2
,6-dicarboxylato)-(\m~2~-acetato)-pentahexacontakis(\m~2~-oxo)-icosa-aqua-pent
acosaoxo-di-samarium-triaconta-tungsten undecahydrate)
;
_cell_volume   3544.060
_exptl_crystal_colour 'green'
_exptl_crystal_description 'block'
_diffrn_ambient_temperature 173
_refine_special_details
;
The W and Na atoms are disordered by symmetry over two sites with occupancy 
0.25; O15W,O6W,O8W disordered by symmetry over two sites with occupancy 0.25.
;
#These two values have been output from a single CSD field.
_refine_ls_R_factor_gt 0.1155
_refine_ls_wR_factor_gt 0.1155
_symmetry_cell_setting triclinic
_symmetry_space_group_name_H-M 'P -1'
_symmetry_Int_Tables_number 2
loop_
_symmetry_equiv_pos_site_id
_symmetry_equiv_pos_as_xyz
1 x,y,z
2 -x,-y,-z
_cell_length_a 15.6850(14)
_cell_length_b 15.7190(14)
_cell_length_c 17.2013(15)
_cell_angle_alpha 67.211(1)
_cell_angle_beta 65.172(1)
_cell_angle_gamma 83.081(2)
_cell_formula_units_Z 1
loop_
_atom_type_symbol
_atom_type_radius_bond
C 0.68
H 0.23
N 0.68
Na 1.66
O 0.68
P 1.05
Sm 1.98
W 1.12
loop_
_atom_site_label
_atom_site_type_symbol
_atom_site_fract_x
_atom_site_fract_y
_atom_site_fract_z
Sm1 Sm 0.01884(16) 0.46047(17) 0.33546(15)
W1 W 0.22587(13) 0.29756(12) 0.38566(12)
W2 W 0.10204(12) 0.17166(14) 0.64452(13)
W3 W 0.57770(14) -0.29770(14) 0.83617(12)
W4 W 0.38026(14) -0.15414(16) 0.93020(13)
W5 W 0.23405(15) -0.26688(15) 0.90538(13)
W6 W 0.11038(13) -0.04716(14) 0.83769(12)
W7 W 0.43488(16) -0.40258(14) 0.80231(16)
W8 W 0.63473(17) -0.41128(15) 0.5848(2)
W9 W 0.75100(14) -0.06281(19) 0.12656(16)
W10 W 0.74925(15) -0.27801(17) 0.32720(18)
W11 W 0.3993(2) 0.0418(3) 0.2710(2)
W12 W 0.2066(2) 0.0403(2) 0.4920(2)
W13 W 0.5260(3) -0.1750(2) 0.3307(2)
W14 W 0.2129(2) -0.1740(2) 0.6854(2)
W15 W 0.4118(2) -0.3083(2) 0.5847(2)
O1 O 0.310(4) -0.240(4) 0.625(5)
O2 O 0.459(4) -0.231(4) 0.455(4)
O3 O 0.450(4) -0.072(3) 0.316(4)
O4 O 0.306(4) 0.033(5) 0.382(5)
O5 O 0.221(4) -0.076(4) 0.576(4)
O6 O 0.351(5) -0.383(4) 0.576(4)
O7 O 0.124(4) -0.232(4) 0.696(4)
O8 O 0.117(5) 0.013(5) 0.475(5)
O9 O 0.340(5) 0.004(5) 0.227(5)
O10 O 0.477(4) -0.245(4) 0.302(4)
O11 O 0.492(4) -0.211(4) 0.589(3)
O12 O 0.320(4) -0.089(4) 0.670(3)
O13 O 0.322(4) 0.091(4) 0.503(3)
O14 O 0.511(4) -0.082(4) 0.675(3)
O15 O 0.595(4) -0.101(4) 0.372(4)
W16? W 0.4975(3) -0.2664(3) 0.4523(2)
W17 W 0.3006(2) -0.2605(3) 0.6686(3)
W18? W 0.4987(2) -0.0565(2) 0.2524(2)
W19? W 0.3008(2) 0.0832(3) 0.3454(2)
W20? W 0.1795(2) -0.0419(3) 0.6008(2)
P1 P 0.6959(14) -0.0713(14) 0.3445(13)
P2 P 0.4431(13) -0.1660(13) 0.7211(12)
P3 P 0.3387(15) 0.1735(15) 0.5180(14)
P4 P 0.5654(18) -0.2167(18) 0.6288(17)
P5 P 0.3423(19) -0.0673(19) 0.7407(18)
O16 O 0.446(4) -0.342(4) 0.433(4)
O17 O 0.230(4) -0.336(3) 0.676(4)
O18 O 0.446(4) 0.892(4) 0.210(4)
O19 O -0.217(5) -0.058(5) 0.681(4)
O20 O 0.082(4) -0.085(4) 0.601(4)
O21 O 0.249(4) -0.156(4) 0.621(4)
O22 O 0.399(4) -0.172(4) 0.659(4)
O23 O 0.571(4) -0.171(4) 0.471(3)
O24 O 0.246(4) 0.005(4) 0.478(4)
O25 O 0.391(4) -0.254(4) 0.552(4)
O26 O 0.435(4) -0.008(4) 0.693(4)
O27 O 0.397(4) -0.003(5) 0.308(5)
O28 O 0.396(4) 0.120(4) 0.390(3)
O29 O 0.480(6) -0.157(5) 0.360(5)
O30 O 0.300(4) 0.015(4) 0.602(3)
Na1? Na 0.437(2) -0.047(2) 0.4857(19)
O31? O 0.437(2) -0.047(2) 0.4857(19)
O32 O 0.1324(19) 0.3371(19) 0.3581(18)
O33 O 0.145(2) -0.346(2) 0.985(2)
O34 O 0.394(2) -0.513(2) 0.856(2)
O35 O 0.5038(18) -0.4048(17) 0.8699(17)
O36 O 0.3309(19) -0.3478(19) 0.8788(18)
O37 O 0.278(2) -0.243(2) 0.984(2)
O38 O 0.744(2) -0.167(2) 0.3809(19)
O39 O 0.153(2) 0.257(2) 0.518(2)
O40 O 0.222(2) 0.177(2) 0.398(2)
O41 O 0.6291(19) -0.5205(19) 0.5958(18)
O42 O 0.533(2) -0.364(2) 0.548(2)
O43 O 0.623(2) -0.266(2) 0.3511(19)
O44 O 0.383(2) -0.164(2) 1.032(2)
O45 O 0.262(2) 0.409(2) 0.385(2)
O46 O 0.125(2) 0.263(2) 0.685(2)
O47 O 0.136(3) -0.086(3) 0.744(2)
O48 O 0.128(2) 0.078(2) 0.596(2)
O49 O 0.229(2) -0.256(2) 0.794(2)
O50 O 0.526(2) 0.067(2) 0.157(2)
O51 O 0.623(2) -0.104(2) 0.201(2)
O52 O 0.777(2) -0.173(2) 0.209(2)
O53 O 0.128(2) 0.012(2) 0.913(2)
O54 O 0.628(2) -0.335(2) 0.914(2)
O55 O 0.357(3) -0.160(3) 0.810(2)
O56 O 0.773(3) -0.363(3) 0.283(3)
O57 O 0.502(2) -0.260(2) 0.739(2)
O58 O 0.326(2) 0.320(2) 0.261(2)
O59 O 0.379(2) -0.363(2) 0.717(2)
O60 O 0.715(2) -0.364(2) 0.458(2)
O61 O 0.468(2) -0.248(2) 0.905(2)
O62 O 0.295(2) -0.051(2) 0.923(2)
O63 O 0.161(2) -0.161(2) 0.8974(19)
O64 O 0.370(2) 0.171(2) 0.233(2)
O65 O 0.549(3) -0.426(3) 0.702(3)
O66 O 0.740(2) -0.003(2) 0.232(2)
O67 O 0.090(2) 0.076(2) 0.758(2)
O68 O -0.016(2) 0.186(2) 0.667(2)
O69 O 0.773(3) -0.102(3) 0.042(2)
O70 O 0.346(2) 0.265(2) 0.427(2)
O71 O -0.005(2) -0.084(2) 0.903(2)
O72 O 0.223(3) 0.639(3) 0.335(3)
O73 O 0.104(2) 0.544(2) 0.376(2)
O74 O 0.069(3) 0.435(3) 0.196(3)
O75 O 0.183(3) 0.424(2) 0.065(2)
O76 O -0.016(3) 0.371(3) 0.504(3)
O77 O -0.065(3) 0.307(2) 0.394(3)
O78 O -0.122(3) 0.480(3) 0.301(3)
O79 O -0.112(3) 0.525(2) 0.449(2)
O80 O 0.012(3) 0.624(3) 0.242(2)
N1 N 0.1838(18) 0.5226(19) 0.2173(18)
C1 C 0.2210(19) 0.501(2) 0.1419(19)
C2 C 0.312(2) 0.524(2) 0.084(2)
H1 H 0.33810 0.50800 0.03030
C3 C 0.365(2) 0.569(2) 0.101(2)
H2 H 0.42940 0.58510 0.05940
C4 C 0.328(2) 0.591(3) 0.176(2)
H3 H 0.36590 0.62280 0.18810
C5 C 0.237(2) 0.568(2) 0.234(2)
C6 C 0.191(3) 0.585(3) 0.320(3)
C7 C 0.154(3) 0.444(3) 0.132(3)
Na2 Na -0.2444(14) 0.3570(15) 0.5164(14)
Na3? Na 0.3069(14) 0.3416(14) -0.0135(13)
Na4 Na 0.528(3) -0.476(3) 0.456(3)
Na5 Na 0.303(3) 0.804(3) 0.220(3)
Na6? Na -0.025(3) -0.425(3) 1.094(3)
Na7 Na -0.121(3) 0.061(3) 0.669(3)
Na8 Na 0.151(4) 0.759(4) 0.153(4)
Na9 Na 0.874(5) -0.206(5) -0.024(5)
O81 O 0.456(4) 0.272(4) -0.087(4)
O82 O 0.564(5) -0.391(5) 0.264(5)
O83 O 0.765(4) -0.191(4) -0.095(4)
O84 O -0.015(5) 0.143(4) 0.499(4)
O85 O 0.028(5) 0.863(5) 0.088(5)
O86 O 0.177(8) -0.458(7) 0.837(5)
O87 O 0.958(6) -0.310(6) -0.083(6)
O88 O -0.272(7) 0.181(7) 0.558(7)
O89 O -0.184(6) 0.052(6) 0.843(6)
O90 O 0.770(7) -0.338(7) 0.108(6)
O91 O 0.947(6) -0.258(6) 0.068(6)
W3A W 0.42230(14) 0.29770(14) 0.16383(12)
W4A W 0.61974(14) 0.15414(16) 0.06980(13)
W8A W 0.36527(17) 0.41128(15) 0.4152(2)
W9A W 0.24900(14) 0.06281(19) 0.87344(16)
W10A W 0.25075(15) 0.27801(17) 0.67280(18)
O6A O -0.351(5) 0.383(4) 0.424(4)
O14A O 0.489(4) 0.082(4) 0.325(3)
P1A P 0.3041(14) 0.0713(14) 0.6555(13)
P3A P 0.6613(15) -0.1735(15) 0.4820(14)
P4A P 0.4346(18) 0.2167(18) 0.3712(17)
P5A P 0.6577(19) 0.0673(19) 0.2593(18)
O23A O 0.429(4) 0.171(4) 0.529(3)
O28A O 0.604(4) -0.120(4) 0.610(3)
O30A O 0.700(4) -0.015(4) 0.398(3)
O38A O 0.256(2) 0.167(2) 0.6191(19)
O45A O 0.738(2) -0.409(2) 0.615(2)
O46A O 0.875(2) -0.263(2) 0.315(2)
O50A O 0.474(2) -0.067(2) 0.843(2)
O53A O 0.872(2) -0.012(2) 0.087(2)
O58A O 0.674(2) -0.320(2) 0.739(2)
O62A O 0.705(2) 0.051(2) 0.077(2)
O64A O 0.630(2) -0.171(2) 0.767(2)
O66A O 0.260(2) 0.003(2) 0.768(2)
O70A O 0.654(2) -0.265(2) 0.573(2)
O71* O 0.995(2) -0.084(2) -0.097(2)
O72A O -0.223(3) 0.361(3) 0.665(3)
Na2A Na 0.2444(14) -0.3570(15) 0.4836(14)
Na2A* Na 0.2444(14) 0.6430(15) 0.4836(14)
Na4A Na 0.472(3) -0.524(3) 0.544(3)
Na5A Na -0.303(3) 0.196(3) 0.780(3)
Na7A Na 0.121(3) 0.939(3) 0.331(3)
Na9* Na -0.126(5) -0.206(5) 0.976(5)
#END
