
#######################################################################
#
#                 Cambridge Crystallographic Data Centre
#                                CCDC
#
#######################################################################
#
# If this CIF has been generated from an entry in the Cambridge
# Structural Database, then it will include bibliographic, chemical,
# crystal, experimental, refinement or atomic coordinate data resulting
# from the CCDC's data processing and validation procedures.
#
#######################################################################

data_CSD_CIF_WANROT
_audit_creation_date 2005-09-01
_audit_creation_method CSD-ConQuest-V1
_database_code_CSD WANROT
_database_code_depnum_ccdc_archive 'CCDC 238248'
_chemical_formula_sum 'C6 H11 Co1 N1 O8'
_chemical_formula_moiety
;
(C6 H7 Co1 O8 1-)n,n(H4 N1 1+)
;
_journal_coden_Cambridge 1147
_journal_volume 5
_journal_year 2005
_journal_page_first 1109
_journal_name_full 'Cryst.Growth Des. '
loop_
_publ_author_name
"Zhao-Hui Zhou"
"Yuan-Fu Deng"
"Hui Lin Wan"
_chemical_name_systematic
;
catena-(Ammonium (\m~3~-hydrogen citrato-O,O',O'',O''',O'''')-aqua-cobalt(ii))
;
_cell_volume    938.917
_exptl_crystal_colour 'light red'
_exptl_crystal_density_diffrn 2.01
_exptl_crystal_description 'plane'
_diffrn_ambient_temperature 296
#These two values have been output from a single CSD field.
_refine_ls_R_factor_gt 0.0549
_refine_ls_wR_factor_gt 0.0549
_symmetry_cell_setting monoclinic
_symmetry_space_group_name_H-M 'P 21/c'
_symmetry_Int_Tables_number 14
loop_
_symmetry_equiv_pos_site_id
_symmetry_equiv_pos_as_xyz
1 x,y,z
2 -x,1/2+y,1/2-z
3 -x,-y,-z
4 x,-1/2-y,-1/2+z
_cell_length_a 11.8034(9)
_cell_length_b 8.3749(6)
_cell_length_c 9.5543(7)
_cell_angle_alpha 90
_cell_angle_beta 96.213(1)
_cell_angle_gamma 90
_cell_formula_units_Z 4
loop_
_atom_type_symbol
_atom_type_radius_bond
C 0.68
H 0.23
Co 1.33
N 0.68
O 0.68
loop_
_atom_site_label
_atom_site_type_symbol
_atom_site_fract_x
_atom_site_fract_y
_atom_site_fract_z
Co1 Co 0.19785(5) 0.10283(6) 0.01804(6)
O1 O 0.1677(2) 0.1057(3) -0.2014(3)
O2 O 0.3236(2) -0.0435(4) -0.0476(3)
O3 O 0.3200(3) -0.2587(3) -0.1829(3)
O4 O -0.0574(2) -0.2284(3) -0.0913(3)
O5 O 0.0936(2) -0.1011(3) 0.0062(3)
O6 O 0.2917(2) 0.1894(3) -0.4955(3)
O7 O 0.4059(2) 0.0392(4) -0.3551(3)
O8 O 0.2589(4) 0.0530(4) 0.2245(3)
H1 H 0.256(5) 0.107(4) 0.299(3)
H2 H 0.276(5) -0.043(2) 0.246(5)
C1 C 0.1852(3) -0.0528(5) -0.2519(4)
C2 C 0.2863(3) -0.1265(5) -0.1544(4)
C3 C 0.0767(3) -0.1513(5) -0.2426(4)
H3 H 0.01630 -0.10700 -0.30800
H4 H 0.09050 -0.25950 -0.27290
C4 C 0.0354(4) -0.1586(5) -0.0984(4)
C5 C 0.2141(3) -0.0457(5) -0.4033(4)
H5 H 0.14730 -0.01240 -0.46440
H6 H 0.23560 -0.15130 -0.43270
C6 C 0.3116(3) 0.0707(5) -0.4183(4)
N1 N 0.4979(3) -0.2240(5) 0.1138(4)
H7 H 0.133(4) 0.167(5) -0.262(4)
H8 H 0.444(2) -0.172(4) 0.069(3)
H9 H 0.472(3) -0.315(2) 0.137(3)
H10 H 0.523(3) -0.174(4) 0.188(2)
H11 H 0.551(2) -0.238(4) 0.063(3)
Co1B Co -0.19785(5) -0.10283(6) -0.01804(6)
Co1C Co 0.19785(5) 0.39717(6) -0.48196(6)
O4B O 0.0574(2) 0.2284(3) 0.0913(3)
O6C O 0.2917(2) 0.3106(3) 0.0045(3)
#END
