
#######################################################################
#
#                 Cambridge Crystallographic Data Centre
#                                CCDC
#
#######################################################################
#
# If this CIF has been generated from an entry in the Cambridge
# Structural Database, then it will include bibliographic, chemical,
# crystal, experimental, refinement or atomic coordinate data resulting
# from the CCDC's data processing and validation procedures.
#
#######################################################################

data_CSD_CIF_WAQDOJ
_audit_creation_date 2012-05-22
_audit_creation_method CSD-ConQuest-V1
_database_code_CSD WAQDOJ
_database_code_depnum_ccdc_archive 'CCDC 845965'
_chemical_formula_sum 'C61 H51 Mg6 N5 O14'
_chemical_formula_moiety
;
(C2 H8 N1 1+)2n,n(C57 H35 Mg6 N3 O14 2-)
;
_journal_coden_Cambridge 222
_journal_volume 41
_journal_year 2012
_journal_page_first 2866
_journal_name_full 'Dalton Trans. '
loop_
_publ_author_name
"Quanguo Zhai"
"Qipu Lin"
"Tao Wu"
"Shou-Tian Zheng"
"Xianhui Bu"
"Pingyun Feng"
_chemical_name_systematic
;
catena-[bis(Dimethylammonium) 
tris(\m~5~-4,4'-pyridine-3,5-diyldibenzoato)-bis(\m~3~-hydroxo)-hexa-magnesium
(ii) unknown solvate]
;
_chemical_name_common
;
CPF-3
;
_cell_volume  14953.322
_exptl_crystal_colour 'grey'
_exptl_crystal_description 'cubic'
_diffrn_ambient_temperature 296
_refine_special_details
;
Disordered cations and solvent molecules were not modelled and the disordered 
density was taken into account using the SQUEEZE/PLATON procedure. The paper 
states the network has a total guest-accessible volume of 9252 A$3! per unit 
cell, though no further details on solvent composition are given.
;
#These two values have been output from a single CSD field.
_refine_ls_R_factor_gt 0.0772
_refine_ls_wR_factor_gt 0.0772
_symmetry_cell_setting rhombohedral
_symmetry_space_group_name_H-M 'R -3 c'
_symmetry_Int_Tables_number 167
loop_
_symmetry_equiv_pos_site_id
_symmetry_equiv_pos_as_xyz
1 x,y,z
2 -y,x-y,z
3 -x+y,-x,z
4 y,x,1/2-z
5 x-y,-y,1/2-z
6 -x,-x+y,1/2-z
7 2/3+x,1/3+y,1/3+z
8 2/3-y,1/3+x-y,1/3+z
9 2/3-x+y,1/3-x,1/3+z
10 2/3+y,1/3+x,5/6-z
11 2/3+x-y,1/3-y,5/6-z
12 2/3-x,1/3-x+y,5/6-z
13 1/3+x,2/3+y,2/3+z
14 1/3-y,2/3+x-y,2/3+z
15 1/3-x+y,2/3-x,2/3+z
16 1/3+y,2/3+x,1/6-z
17 1/3+x-y,2/3-y,1/6-z
18 1/3-x,2/3-x+y,1/6-z
19 -x,-y,-z
20 y,-x+y,-z
21 x-y,x,-z
22 -y,-x,-1/2+z
23 -x+y,y,-1/2+z
24 x,x-y,-1/2+z
25 -2/3-x,-1/3-y,-1/3-z
26 -2/3+y,-1/3-x+y,-1/3-z
27 -2/3+x-y,-1/3+x,-1/3-z
28 -2/3-y,-1/3-x,-5/6+z
29 -2/3-x+y,-1/3+y,-5/6+z
30 -2/3+x,-1/3+x-y,-5/6+z
31 -1/3-x,-2/3-y,-2/3-z
32 -1/3+y,-2/3-x+y,-2/3-z
33 -1/3+x-y,-2/3+x,-2/3-z
34 -1/3-y,-2/3-x,-1/6+z
35 -1/3-x+y,-2/3+y,-1/6+z
36 -1/3+x,-2/3+x-y,-1/6+z
_cell_length_a 19.4789(3)
_cell_length_b 19.4789(3)
_cell_length_c 45.5070(12)
_cell_angle_alpha 90
_cell_angle_beta 90
_cell_angle_gamma 120
_cell_formula_units_Z 6
loop_
_atom_type_symbol
_atom_type_radius_bond
C 0.68
H 0.23
Mg 1.41
N 0.68
O 0.68
loop_
_atom_site_label
_atom_site_type_symbol
_atom_site_fract_x
_atom_site_fract_y
_atom_site_fract_z
Mg1 Mg 0.66670 0.23161(6) 0.08330
O1 O 0.74153(11) 0.26099(11) 0.04771(4)
O2 O 0.81716(11) 0.39168(11) 0.05371(4)
N1 N 1.11680 0.45007(15) -0.08330
C1 C 1.06516(18) 0.43123(17) -0.06194(6)
H1 H 1.07900 0.46580 -0.04610
C2 C 0.9897(2) 0.36162(18) -0.06144(6)
C3 C 0.97370 0.3070(2) -0.08330
H2 H 0.92600 0.25930 -0.08330
C4 C 0.79669(17) 0.32861(16) 0.04044(5)
C5 C 0.83936(18) 0.33370(16) 0.01237(6)
C6 C 0.8873(2) 0.40826(19) -0.00072(7)
H3 H 0.88730 0.45290 0.00650
C7 C 0.9346(2) 0.41439(19) -0.02465(7)
H4 H 0.96560 0.46370 -0.03340
C8 C 0.93702(18) 0.34872(15) -0.03594(6)
C9 C 0.8910(2) 0.2784(2) -0.02354(7)
H5 H 0.89110 0.23390 -0.03090
C10 C 0.8420(2) 0.2702(2) 0.00068(7)
H6 H 0.81060 0.22020 0.00890
O3 O 0.66670 0.33330 0.08330
Mg1I Mg 0.89828 0.000033(60) -0.24997
Mg1G Mg 0.43506 -0.231577(60) 0.41663
Mg1B Mg 0.56491 0.33330(6) 0.08330
Mg1J Mg 0.10176 0.101723(60) -0.24997
Mg1A Mg 0.76839 0.43509(6) 0.08330
Mg1S Mg 1.23161 0.56491(6) -0.08330
Mg1J* Mg 1.10176 0.101723(60) -0.24997
Mg1AA Mg 0.10172 -0.000033(60) 0.24997
Mg1H Mg 0.23158 -0.333367(60) 0.41663
Mg1R Mg 0.33330 -0.23161(6) -0.08330
Mg1K Mg -0.00003 -0.101757(60) -0.24997
Mg1K* Mg 0.99997 -0.101757(60) -0.24997
O1I O 0.927657(110) 0.074863(110) -0.214377(40)
O1Q O 0.591803(110) 0.186127(110) 0.118957(40)
O1G O 0.405677(110) -0.186127(110) 0.381043(40)
O1B O 0.51946(11) 0.25847(11) 0.04771(4)
O1J O 0.147207(110) 0.072343(110) -0.214377(40)
O1N O 0.852793(110) -0.074863(110) -0.285623(40)
O1D O 0.48054(11) -0.26099(11) 0.45229(4)
O1O O 0.594323(110) 0.408197(110) 0.118957(40)
O1M O 0.072343(110) 0.147207(110) -0.285623(40)
O1A O 0.73901(11) 0.48054(11) 0.04771(4)
O1P O 0.813873(110) 0.405677(110) 0.118957(40)
O2I O 1.058347(110) 0.150493(110) -0.220377(40)
O2Q O 0.516173(110) 0.241187(110) 0.112957(40)
O2G O 0.274987(110) -0.241187(110) 0.387043(40)
O2B O 0.57452(11) 0.18284(11) 0.05371(4)
O2J O 0.092147(110) -0.058347(110) -0.220377(40)
O2P O 0.758813(110) 0.274987(110) 0.112957(40)
O2K O 0.849507(110) -0.092147(110) -0.220377(40)
O2M O 0.941653(110) 0.092147(110) -0.279623(40)
O2F O 0.483827(110) -0.274987(110) 0.387043(40)
O2C O 0.39168(11) -0.18284(11) 0.44629(4)
O2A O 0.60832(11) 0.42548(11) 0.05371(4)
O2I* O 0.058347(110) 0.150493(110) -0.220377(40)
O2L O 0.150493(110) 0.058347(110) -0.279623(40)
O2O O 0.725013(110) 0.483827(110) 0.112957(40)
N1Q N 0.21653 -0.000063(150) 0.24997
N1B N 0.33327 -0.11680(15) -0.08330
N1T N 0.66673 0.11680(15) 0.08330
N1IA N 0.78347 0.000063(150) -0.24997
N1DA N 0.54987 -0.116737(150) 0.41663
N1S N 0.45007 0.33327(15) 0.08330
N1GA N 0.21660 0.216533(150) -0.24997
N1R N 0.88320 0.54993(15) 0.08330
C1I C 1.097897(180) 0.398493(170) -0.104727(60)
C1Q C 0.268173(180) 0.032737(170) 0.228607(60)
C1G C 0.235437(180) -0.032737(170) 0.271393(60)
C1B C 0.36607(18) -0.06516(17) -0.06194(6)
C1J C 0.300597(180) -0.097897(170) -0.104727(60)
H1I H 1.13247 0.41233 -0.12057
H1Q H 0.25433 0.05347 0.21277
H1G H 0.20087 -0.05347 0.28723
H1B H 0.38680 -0.07900 -0.04610
H1J H 0.27987 -0.13247 -0.12057
C2I C 1.028287(200) 0.323033(180) -0.105227(60)
C2Q C 0.343633(200) 0.038587(180) 0.228107(60)
C2G C 0.305047(200) -0.038587(180) 0.271893(60)
C2B C 0.37192(20) 0.01030(18) -0.06144(6)
C2J C 0.294747(200) -0.028287(180) -0.105227(60)
C3Q C 0.35963 -0.000033(200) 0.24997
C3B C 0.33330 0.0263(2) -0.08330
H2Q H 0.40733 -0.00003 0.24997
H2B H 0.33330 0.07400 -0.08330
C4I C 0.995277(170) 0.130023(160) -0.207107(50)
C4Q C 0.536643(170) 0.198587(160) 0.126227(50)
C4G C 0.338057(170) -0.198587(160) 0.373773(50)
C4B C 0.53192(17) 0.20331(16) 0.04044(5)
C4J C 0.134747(170) 0.004723(160) -0.207107(50)
C5I C 1.000367(180) 0.172693(160) -0.179037(60)
C5Q C 0.493973(180) 0.161007(160) 0.154297(60)
C5G C 0.332967(180) -0.161007(160) 0.345703(60)
C5B C 0.49434(18) 0.16064(16) 0.01237(6)
C5J C 0.172327(180) -0.000367(160) -0.179037(60)
C6I C 1.074927(200) 0.220633(190) -0.165947(70)
C6Q C 0.446033(200) 0.187627(190) 0.167387(70)
C6G C 0.258407(200) -0.187627(190) 0.332613(70)
C6B C 0.52096(20) 0.11270(19) -0.00072(7)
C6J C 0.145707(200) -0.074927(190) -0.165947(70)
H3I H 1.11957 0.22063 -0.17317
H3Q H 0.44603 0.23227 0.16017
H3G H 0.21377 -0.23227 0.33983
H3B H 0.56560 0.11270 0.00650
H3J H 0.10107 -0.11957 -0.17317
C7I C 1.081057(200) 0.267933(190) -0.142017(70)
C7Q C 0.398733(200) 0.146457(190) 0.191317(70)
C7G C 0.252277(200) -0.146457(190) 0.308683(70)
C7B C 0.47979(20) 0.06540(19) -0.02465(7)
C7J C 0.186877(200) -0.081057(190) -0.142017(70)
H4I H 1.13037 0.29893 -0.13327
H4Q H 0.36773 0.16477 0.20007
H4G H 0.20297 -0.16477 0.29993
H4B H 0.49810 0.03440 -0.03340
H4J H 0.16857 -0.13037 -0.13327
C8I C 1.015387(180) 0.270353(150) -0.130727(60)
C8Q C 0.396313(180) 0.078367(150) 0.202607(60)
C8G C 0.317947(180) -0.078367(150) 0.297393(60)
C8B C 0.41170(18) 0.06298(15) -0.03594(6)
C8J C 0.254967(180) -0.015387(150) -0.130727(60)
C9I C 0.945067(200) 0.224333(200) -0.143127(70)
C9Q C 0.442333(200) 0.054067(200) 0.190207(70)
C9G C 0.388267(200) -0.054067(200) 0.309793(70)
C9B C 0.3874(2) 0.1090(2) -0.02354(7)
C9J C 0.279267(200) 0.054933(200) -0.143127(70)
H5I H 0.90057 0.22443 -0.13577
H5Q H 0.44223 0.00947 0.19757
H5G H 0.43277 -0.00947 0.30243
H5B H 0.34280 0.10890 -0.03090
H5J H 0.32387 0.09943 -0.13577
C10I C 0.936867(200) 0.175333(200) -0.167347(70)
C10Q C 0.491333(200) 0.094867(200) 0.165987(70)
C10G C 0.396467(200) -0.094867(200) 0.334013(70)
C10B C 0.4282(2) 0.1580(2) 0.00068(7)
C10J C 0.238467(200) 0.063133(200) -0.167347(70)
H6I H 0.88687 0.14393 -0.17557
H6Q H 0.52273 0.07627 0.15777
H6G H 0.44647 -0.07627 0.34223
H6B H 0.40960 0.18940 0.00890
H6J H 0.25707 0.11313 -0.17557
O3I O 0.99997 0.00003 -0.24997
O3G O 0.33337 -0.33327 0.41663
O3J O 0.00007 0.00003 -0.24997
#END
