
#######################################################################
#
#                 Cambridge Crystallographic Data Centre
#                                CCDC
#
#######################################################################
#
# If this CIF has been generated from an entry in the Cambridge
# Structural Database, then it will include bibliographic, chemical,
# crystal, experimental, refinement or atomic coordinate data resulting
# from the CCDC's data processing and validation procedures.
#
#######################################################################

data_CSD_CIF_WARTAL
_audit_creation_date 2005-12-05
_audit_creation_method CSD-ConQuest-V1
_database_code_CSD WARTAL
_database_code_depnum_ccdc_archive 'CCDC 249334'
_chemical_formula_sum 'C20 H42 Bi2 N4 O42 Pb2'
_chemical_formula_moiety
;
(C2 H10 N2 2+)2n,2n(H3 O1 1+),n(C16 H8 Bi2 O36 Pb2 6-),4n(H2 O1)
;
_journal_coden_Cambridge 603
_journal_volume 24
_journal_year 2005
_journal_page_first 846
_journal_name_full 'Jiegou Huaxue(Chin.)(Chin.J.Struct.Chem.) '
loop_
_publ_author_name
"Wen-Jun Guo"
"Han-Hui Zhang"
"Chang-Cang Huang"
"Rui-Qing Sun"
"Yi-Ping Chen"
"Yan-Ning Cao"
_chemical_name_systematic
;
catena-(bis(1,2-Ethylenediammonium) oxonium 
octakis(\m~2~-oxalato)-tetra-aqua-di-bismuth-di-lead tetrahydrate)
;
_cell_volume   2186.046
_exptl_crystal_colour 'colorless'
_exptl_crystal_density_diffrn 2.8
_exptl_crystal_description 'Block'
_diffrn_ambient_temperature 293
_refine_special_details
;
One ethylenediammonium molecule is disordered over two sites with occupancies 
0.60:0.40.
;
#These two values have been output from a single CSD field.
_refine_ls_R_factor_gt 0.0505
_refine_ls_wR_factor_gt 0.0505
_symmetry_cell_setting monoclinic
_symmetry_space_group_name_H-M 'P 21/c'
_symmetry_Int_Tables_number 14
loop_
_symmetry_equiv_pos_site_id
_symmetry_equiv_pos_as_xyz
1 x,y,z
2 -x,1/2+y,1/2-z
3 -x,-y,-z
4 x,-1/2-y,-1/2+z
_cell_length_a 11.6160(13)
_cell_length_b 12.7426(16)
_cell_length_c 15.5683(5)
_cell_angle_alpha 90
_cell_angle_beta 108.442(4)
_cell_angle_gamma 90
_cell_formula_units_Z 2
loop_
_atom_type_symbol
_atom_type_radius_bond
C 0.68
H 0.23
Bi 1.54
N 0.68
O 0.68
Pb 1.54
loop_
_atom_site_label
_atom_site_type_symbol
_atom_site_fract_x
_atom_site_fract_y
_atom_site_fract_z
Pb1 Pb 0.23880(4) 0.72139(3) 0.16994(3)
Bi1 Bi -0.19332(4) 0.71515(3) 0.32659(3)
O1 O 0.0284(7) 0.7802(6) 0.1494(6)
O2 O 0.1778(7) 0.6895(7) 0.3035(5)
O3 O 0.4172(7) 0.6943(7) 0.3028(6)
O4 O 0.4273(7) 0.7606(7) 0.1391(6)
O5 O 0.2674(8) 0.8828(6) 0.2590(6)
O6 O 0.2042(7) 0.8851(6) 0.0784(5)
O7 O 0.0977(8) 0.5619(7) 0.1354(7)
O8 O 0.3372(8) 0.5451(7) 0.1534(7)
O9 O 0.0230(7) 0.6823(7) 0.3583(5)
O10 O -0.1277(7) 0.7523(7) 0.1983(6)
O11 O 0.0895(8) 0.3897(7) 0.1494(8)
O12 O 0.3226(7) 0.3724(6) 0.1608(7)
O13 O 0.6275(8) 0.7325(7) 0.1877(7)
O14 O 0.6110(7) 0.6491(7) 0.3435(6)
O15 O 0.2145(8) 1.0492(6) 0.2598(6)
O16 O 0.1536(7) 1.0526(6) 0.0765(6)
O17 O 0.1792(9) 0.6881(7) -0.0019(6)
O18 O -0.1545(10) 0.7588(7) 0.4894(6)
O19 O -0.1521(8) 0.5368(7) 0.0686(7)
O20 O 0.4055(10) 0.2479(8) 0.4935(7)
O21 O 0.1971(14) 0.4555(10) 0.3999(11)
C1 C 0.0706(11) 0.7043(9) 0.2971(9)
C2 C -0.0168(11) 0.7485(10) 0.2085(8)
C3 C 0.5261(11) 0.7305(9) 0.2001(9)
C4 C 0.5175(11) 0.6880(9) 0.2883(8)
C5 C 0.2265(10) 0.9666(9) 0.2209(8)
C6 C 0.1895(10) 0.9680(9) 0.1149(8)
C7 C 0.1454(11) 0.4716(10) 0.1471(10)
C8 C 0.2806(11) 0.4634(10) 0.1551(9)
C9 C 0.4701(13) 0.5317(10) 0.5281(9)
H1 H 0.43030 0.48490 0.55890
H2 H 0.53110 0.57130 0.57360
C10 C -0.4492(16) 0.4857(14) 0.0396(14)
N1 N 0.3793(10) 0.6049(9) 0.4689(7)
H3 H 0.34470 0.64210 0.50250
H4 H 0.32280 0.56830 0.42780
H5 H 0.41620 0.64810 0.44110
N2 N -0.4752(15) 0.4099(17) 0.0962(13)
N3? N -0.395(3) 0.394(3) 0.0478(19)
Pb1A Pb -0.23880(4) 0.22139(3) 0.33006(3)
Pb1A* Pb -0.23880(4) 1.22139(3) 0.33006(3)
Pb1* Pb -0.76120(4) 0.72139(3) 0.16994(3)
Bi1A Bi 0.19332(4) 0.21515(3) 0.17341(3)
Bi1* Bi 0.80668(4) 0.71515(3) 0.32659(3)
Bi1A* Bi 0.19332(4) 1.21515(3) 0.17341(3)
O1A O -0.0284(7) 0.2802(6) 0.3506(6)
O2A O -0.1778(7) 0.1895(7) 0.1965(5)
O3* O -0.5828(7) 0.6943(7) 0.3028(6)
O3A O -0.4172(7) 0.1943(7) 0.1972(6)
O4* O -0.5727(7) 0.7606(7) 0.1391(6)
O4A O -0.4273(7) 0.2606(7) 0.3609(6)
O5A O -0.2674(8) 0.3828(6) 0.2410(6)
O6A O -0.2042(7) 0.3851(6) 0.4216(5)
O7A O -0.0977(8) 1.0619(7) 0.3646(7)
O7A* O -0.0977(8) 0.0619(7) 0.3646(7)
O8A O -0.3372(8) 1.0451(7) 0.3466(7)
O8A* O -0.3372(8) 0.0451(7) 0.3466(7)
O9A O -0.0230(7) 0.1823(7) 0.1417(5)
O10A O 0.1277(7) 0.2523(7) 0.3017(6)
O11A O -0.0895(8) 0.8897(7) 0.3506(8)
O12A O -0.3226(7) 0.8724(6) 0.3392(7)
O13* O -0.3725(8) 0.7325(7) 0.1877(7)
O13A O 0.3725(8) 0.2325(7) 0.3123(7)
O14* O -0.3890(7) 0.6491(7) 0.3435(6)
O14A O 0.3890(7) 0.1491(7) 0.1565(6)
O15A O -0.2145(8) 0.5492(6) 0.2402(6)
O15* O 0.2145(8) 0.0492(6) 0.2598(6)
O16A O -0.1536(7) 0.5526(6) 0.4235(6)
O16* O 0.1536(7) 0.0526(6) 0.0765(6)
O17A O -0.1792(9) 0.1881(7) 0.5019(6)
O18A O 0.1545(10) 0.2588(7) 0.0106(6)
C1A C -0.0706(11) 0.2043(9) 0.2029(9)
C2A C 0.0168(11) 0.2485(10) 0.2915(8)
C3* C -0.4739(11) 0.7305(9) 0.2001(9)
C4* C -0.4825(11) 0.6880(9) 0.2883(8)
C5A C -0.2265(10) 0.4666(9) 0.2791(8)
C6A C -0.1895(10) 0.4680(9) 0.3851(8)
C7A C -0.1454(11) 0.9716(10) 0.3529(10)
C8A C -0.2806(11) 0.9634(10) 0.3449(9)
C9B C 0.5299(13) 0.4683(10) 0.4719(9)
H1B H 0.56970 0.51510 0.44110
H2B H 0.46890 0.42870 0.42640
C10B C -0.5508(16) 0.5143(14) -0.0396(14)
N1B N 0.6207(10) 0.3951(9) 0.5311(7)
H3B H 0.65530 0.35790 0.49750
H4B H 0.67720 0.43170 0.57220
H5B H 0.58380 0.35190 0.55890
N2B N -0.5248(15) 0.5901(17) -0.0962(13)
#END
