
#######################################################################
#
#                 Cambridge Crystallographic Data Centre
#                                CCDC
#
#######################################################################
#
# If this CIF has been generated from an entry in the Cambridge
# Structural Database, then it will include bibliographic, chemical,
# crystal, experimental, refinement or atomic coordinate data resulting
# from the CCDC's data processing and validation procedures.
#
#######################################################################

data_CSD_CIF_WASQIT
_audit_creation_date 2017-04-17
_audit_creation_method CSD-ConQuest-V1
_database_code_CSD WASQIT
_database_code_depnum_ccdc_archive 'CCDC 1493034'
_chemical_formula_sum 'C59 H47 In1 N2 O9'
_chemical_formula_moiety
;
(C54 H32 In1 O8 1-)n,C2 H8 N1 1+,x(C3 H7 N1 O1)
;
_journal_coden_Cambridge 1089
_journal_volume 29
_journal_year 2017
_journal_page_first 1605637
_journal_name_full 'Adv.Mater. '
loop_
_publ_author_name
"R.Medishetty"
"V.Nalla"
"L.Nemec"
"S.Henke"
"D.Mayer"
"Handong Sun"
"K.Reuter"
"R.A.Fischer"
_chemical_name_systematic
;
catena-[dimethylammonium 
(\m-4',4'',4''',4''''-(ethene-1,1,2,2-tetrayl)tetra([1,1'-biphenyl]-4-carboxyl
ato))-indium(iii) N,N-dimethylformamide solvate]
;
_cell_volume  18731.578
_exptl_crystal_colour 'orange'
_exptl_crystal_description 'prism'
_diffrn_ambient_temperature 113
_refine_special_details
;
The MASK/OLEX2 program has been used to model some disorder.

;
#These two values have been output from a single CSD field.
_refine_ls_R_factor_gt 0.0826
_refine_ls_wR_factor_gt 0.0826
_symmetry_cell_setting monoclinic
_symmetry_space_group_name_H-M 'C 2/c'
_symmetry_Int_Tables_number 15
loop_
_symmetry_equiv_pos_site_id
_symmetry_equiv_pos_as_xyz
1 x,y,z
2 -x,y,1/2-z
3 1/2+x,1/2+y,z
4 1/2-x,1/2+y,1/2-z
5 -x,-y,-z
6 x,-y,-1/2+z
7 -1/2-x,-1/2-y,-z
8 -1/2+x,-1/2-y,-1/2+z
_cell_length_a 38.3323(6)
_cell_length_b 15.1848(3)
_cell_length_c 32.1945(5)
_cell_angle_alpha 90
_cell_angle_beta 91.6553(13)
_cell_angle_gamma 90
_cell_formula_units_Z 8
loop_
_atom_type_symbol
_atom_type_radius_bond
C 0.68
H 0.23
In 1.42
N 0.68
O 0.68
loop_
_atom_site_label
_atom_site_type_symbol
_atom_site_fract_x
_atom_site_fract_y
_atom_site_fract_z
In1 In 0.78590(2) 1.04024(2) 0.80123(2)
O1 O 0.74270(8) 1.0611(2) 0.75276(10)
O2 O 0.75807(7) 0.9257(2) 0.7680(1)
O3 O 0.31493(7) 0.6417(2) 0.76391(9)
O4 O 0.32898(9) 0.5041(2) 0.75737(10)
O5 O 0.74468(9) 0.9782(2) 0.34705(10)
O6 O 0.75883(7) 0.8418(2) 0.33424(9)
O7 O 0.31291(8) 0.5715(2) 0.33846(10)
O8 O 0.32925(7) 0.4344(2) 0.34840(9)
C1 C 0.73882(11) 0.9791(3) 0.74819(14)
C2 C 0.71050(12) 0.9439(3) 0.71981(15)
C3 C 0.68748(13) 1.0030(3) 0.69961(16)
H1 H 0.69040 1.06340 0.70290
C4 C 0.66009(14) 0.9698(3) 0.6745(2)
H2 H 0.64480 1.00870 0.66110
C5 C 0.65547(12) 0.8801(3) 0.66950(15)
C6 C 0.67923(12) 0.8220(3) 0.68844(15)
H3 H 0.67700 0.76170 0.68400
C7 C 0.70630(13) 0.8541(3) 0.71403(16)
H4 H 0.72160 0.81500 0.72730
C8 C 0.62582(11) 0.8460(3) 0.64419(14)
C9 C 0.61164(11) 0.8911(3) 0.61070(14)
H5 H 0.62110 0.94530 0.60370
C10 C 0.58378(10) 0.8587(3) 0.58703(14)
H6 H 0.57500 0.89080 0.56450
C11 C 0.5688(1) 0.7775(3) 0.59705(12)
C12 C 0.58210(11) 0.7323(3) 0.63140(14)
H7 H 0.57160 0.67990 0.63930
C13 C 0.61028(13) 0.7632(3) 0.65385(14)
H8 H 0.61950 0.72990 0.67580
C14 C 0.53837(9) 0.7404(3) 0.57247(12)
C15 C 0.50789(10) 0.7169(3) 0.59801(12)
C16 C 0.49270(15) 0.7787(4) 0.62280(19)
H9 H 0.50140 0.83590 0.62320
C17 C 0.46513(15) 0.7581(4) 0.6468(2)
H10 H 0.45550 0.80190 0.66310
C18 C 0.45109(10) 0.6752(3) 0.64773(13)
C19 C 0.46811(17) 0.6129(4) 0.6255(2)
H11 H 0.46170 0.55420 0.62820
C20 C 0.49437(16) 0.6339(4) 0.5994(2)
H12 H 0.50320 0.59060 0.58220
C21 C 0.42061(11) 0.6525(3) 0.67355(13)
C22 C 0.39978(14) 0.7157(4) 0.69040(19)
H13 H 0.40450 0.77470 0.68520
C23 C 0.37173(14) 0.6941(4) 0.71520(18)
H14 H 0.35830 0.73860 0.72640
C24 C 0.36393(11) 0.6083(3) 0.72304(13)
C25 C 0.3847(2) 0.5438(4) 0.7068(3)
H15 H 0.38040 0.48490 0.71290
C26 C 0.4122(2) 0.5660(5) 0.6811(3)
H16 H 0.42500 0.52150 0.66880
C27 C 0.33388(11) 0.5847(3) 0.74940(12)
C28 C 0.53859(9) 0.7285(3) 0.53111(12)
C29 C 0.56946(10) 0.7486(3) 0.50554(12)
C30 C 0.56648(12) 0.8132(4) 0.47492(15)
H17 H 0.54520 0.84140 0.47000
C31 C 0.59513(12) 0.8359(4) 0.45171(16)
H18 H 0.59300 0.88170 0.43270
C32 C 0.62663(10) 0.7925(3) 0.45603(13)
C33 C 0.62922(10) 0.7258(3) 0.48595(14)
H19 H 0.65000 0.69470 0.48920
C34 C 0.60124(10) 0.7048(3) 0.51106(14)
H20 H 0.60380 0.66170 0.53140
C35 C 0.65695(11) 0.8178(3) 0.43090(14)
C36 C 0.66277(16) 0.9046(4) 0.4214(2)
H21 H 0.64760 0.94680 0.43150
C37 C 0.69036(17) 0.9324(4) 0.3975(2)
H22 H 0.69420 0.99190 0.39270
C38 C 0.71203(11) 0.8682(3) 0.38090(13)
C39 C 0.70709(12) 0.7818(4) 0.39022(17)
H23 H 0.72200 0.73960 0.37960
C40 C 0.67974(12) 0.7551(4) 0.41565(16)
H24 H 0.67690 0.69590 0.42220
C41 C 0.74017(10) 0.8965(3) 0.35259(13)
C42 C 0.50745(10) 0.6978(3) 0.50655(12)
C43 C 0.47526(11) 0.7395(3) 0.50849(14)
H25 H 0.47260 0.78690 0.52640
C44 C 0.44731(11) 0.7115(3) 0.48406(15)
H26 H 0.42640 0.74230 0.48500
C45 C 0.44946(11) 0.6385(3) 0.45810(13)
C46 C 0.48184(12) 0.5961(4) 0.45630(17)
H27 H 0.48440 0.54770 0.43900
C47 C 0.51004(12) 0.6258(4) 0.48002(18)
H28 H 0.53130 0.59680 0.47820
C48 C 0.41887(11) 0.6055(3) 0.43228(14)
C49 C 0.39504(13) 0.6649(3) 0.41548(16)
H29 H 0.39800 0.72480 0.42030
C50 C 0.36678(13) 0.6356(3) 0.39147(17)
H30 H 0.35080 0.67600 0.38040
C51 C 0.36215(13) 0.5485(3) 0.38393(16)
C52 C 0.38543(12) 0.4865(3) 0.40157(15)
H31 H 0.38190 0.42660 0.39740
C53 C 0.41416(12) 0.5168(3) 0.42559(15)
H32 H 0.43010 0.47670 0.43700
C54 C 0.33293(11) 0.5162(3) 0.35553(13)
N1 N 0.6972(4) 0.8534(7) 0.5742(4)
C55 C 0.6945(3) 0.7595(7) 0.5791(4)
C56 C 0.6797(7) 0.8885(12) 0.5374(6)
N2 N 0.7347(6) 0.4268(12) 0.5477(5)
C57 C 0.7357(6) 0.3851(12) 0.5074(5)
C58 C 0.7157(4) 0.5093(9) 0.5491(5)
N3 N 0.3767(4) 0.6011(10) 0.5336(5)
C59 C 0.3992(8) 0.5257(14) 0.5401(10)
C60 C 0.3809(7) 0.6709(12) 0.5642(7)
N4 N 0.6660(5) 1.2251(10) 0.7549(5)
C61 C 0.6541(8) 1.2291(18) 0.7116(5)
C62 C 0.6540(7) 1.1485(14) 0.7775(7)
In1B In 0.28590(2) 0.54024(2) 0.80123(2)
In1E In 0.78590(2) 0.95976(2) 0.30123(2)
In1G In 0.28590(2) 0.45976(2) 0.30123(2)
O3B O 0.81493(7) 1.1417(2) 0.76391(9)
O4B O 0.82898(9) 1.0041(2) 0.75737(10)
O5E O 0.74468(9) 1.0218(2) 0.84705(10)
O6E O 0.75883(7) 1.1582(2) 0.83424(9)
O7G O 0.81291(8) 0.9285(2) 0.83846(10)
O8G O 0.82925(7) 1.0656(2) 0.84840(9)
#END
