
#######################################################################
#
#                 Cambridge Crystallographic Data Centre
#                                CCDC
#
#######################################################################
#
# If this CIF has been generated from an entry in the Cambridge
# Structural Database, then it will include bibliographic, chemical,
# crystal, experimental, refinement or atomic coordinate data resulting
# from the CCDC's data processing and validation procedures.
#
#######################################################################

data_CSD_CIF_WASRAM
_audit_creation_date 2017-04-17
_audit_creation_method CSD-ConQuest-V1
_database_code_CSD WASRAM
_database_code_depnum_ccdc_archive 'CCDC 1493033'
_chemical_formula_sum 'C56 H41 N1 O8 Zn1'
_chemical_formula_moiety
;
(C54 H33 O8 Zn1 1-)n,C2 H8 N1 1+
;
_journal_coden_Cambridge 1089
_journal_volume 29
_journal_year 2017
_journal_page_first 1605637
_journal_name_full 'Adv.Mater. '
loop_
_publ_author_name
"R.Medishetty"
"V.Nalla"
"L.Nemec"
"S.Henke"
"D.Mayer"
"Handong Sun"
"K.Reuter"
"R.A.Fischer"
_chemical_name_systematic
;
catena-[dimethylammonium 
(\m-4',4'',4''',4''''-(ethene-1,1,2,2-tetrayl)tetra([1,1'-biphenyl]-4-carboxyl
ato))-zinc(ii)]
;
_cell_volume   4429.027
_exptl_crystal_colour 'orange'
_exptl_crystal_density_diffrn 1.382
_diffrn_ambient_temperature 100
_diffrn_special_details
;
twin

;
#These two values have been output from a single CSD field.
_refine_ls_R_factor_gt 0.1053
_refine_ls_wR_factor_gt 0.1053
_symmetry_cell_setting monoclinic
_symmetry_space_group_name_H-M 'P 21/c'
_symmetry_Int_Tables_number 14
loop_
_symmetry_equiv_pos_site_id
_symmetry_equiv_pos_as_xyz
1 x,y,z
2 -x,1/2+y,1/2-z
3 -x,-y,-z
4 x,-1/2-y,-1/2+z
_cell_length_a 10.1691(4)
_cell_length_b 10.1917(4)
_cell_length_c 42.7903(18)
_cell_angle_alpha 90
_cell_angle_beta 92.925(2)
_cell_angle_gamma 90
_cell_formula_units_Z 4
loop_
_atom_type_symbol
_atom_type_radius_bond
C 0.68
H 0.23
N 0.68
O 0.68
Zn 1.22
loop_
_atom_site_label
_atom_site_type_symbol
_atom_site_fract_x
_atom_site_fract_y
_atom_site_fract_z
Zn1 Zn 0.69681(11) 0.17170(12) 0.50542(2)
O1 O 0.6696(7) 0.4806(6) 0.03444(14)
O2 O 0.4917(7) 0.3579(7) 0.03015(15)
O3 O 0.6036(6) 0.2650(7) 0.47174(14)
O4 O 0.6508(7) 0.4656(6) 0.49008(15)
O5 O -0.0628(6) 1.1082(6) 0.02008(15)
O6 O -0.2251(6) 1.2224(6) 0.04114(13)
O7 O -0.1557(6) 1.1015(6) 0.48036(13)
O8 O -0.0941(7) 1.3033(6) 0.46671(13)
C1 C 0.5608(9) 0.4424(8) 0.04434(19)
C2 C 0.5207(9) 0.4879(8) 0.07586(19)
C3 C 0.3921(8) 0.4841(9) 0.0837(2)
C4 C 0.3578(8) 0.5194(9) 0.11381(18)
C5 C 0.4517(7) 0.5582(8) 0.13663(17)
C6 C 0.5825(8) 0.5584(11) 0.12778(19)
C7 C 0.6173(9) 0.5262(10) 0.09830(19)
C8 C 0.4146(8) 0.5946(8) 0.16870(18)
C9 C 0.2881(9) 0.5818(11) 0.17822(18)
C10 C 0.2482(9) 0.6255(10) 0.2072(2)
C11 C 0.3404(8) 0.6851(8) 0.22797(17)
C12 C 0.4714(7) 0.6890(8) 0.21977(17)
C13 C 0.5068(7) 0.6453(8) 0.19070(18)
C14 C 0.2983(7) 0.7471(8) 0.25749(17)
C15 C 0.3609(8) 0.6950(7) 0.28707(16)
C16 C 0.4177(9) 0.7761(9) 0.3097(2)
C17 C 0.4726(9) 0.7258(8) 0.33767(18)
C18 C 0.4667(8) 0.5919(8) 0.34489(16)
C19 C 0.4145(8) 0.5079(8) 0.32129(17)
C20 C 0.3644(7) 0.5583(7) 0.29261(16)
C21 C 0.5146(7) 0.5409(7) 0.37569(17)
C22 C 0.5177(8) 0.6236(8) 0.40233(19)
C23 C 0.5524(8) 0.5761(9) 0.43160(19)
C24 C 0.5829(8) 0.4420(8) 0.43631(18)
C25 C 0.5811(8) 0.3606(8) 0.41005(19)
C26 C 0.5495(8) 0.4089(8) 0.38081(18)
C27 C 0.6149(8) 0.3880(8) 0.4684(2)
C28 C -0.1293(8) 1.1505(7) 0.04347(17)
C29 C -0.0788(8) 1.1079(8) 0.07541(18)
C30 C -0.1625(9) 1.1050(9) 0.09954(17)
C31 C -0.1162(9) 1.0689(10) 0.12928(19)
C32 C 0.0148(8) 1.0375(7) 0.13602(17)
C33 C 0.0980(8) 1.0449(8) 0.11176(18)
C34 C 0.0516(9) 1.0771(8) 0.0810(2)
C35 C 0.0634(8) 0.9982(8) 0.16784(18)
C36 C -0.0228(8) 0.9430(8) 0.18933(19)
C37 C 0.0224(8) 0.9016(8) 0.21782(19)
C38 C 0.1594(8) 0.9044(8) 0.22685(16)
C39 C 0.2407(9) 0.9628(9) 0.20649(18)
C40 C 0.1936(8) 1.0080(9) 0.17765(18)
C41 C 0.2068(7) 0.8420(8) 0.25718(17)
C42 C 0.1513(8) 0.8944(8) 0.28569(16)
C43 C 0.1528(7) 1.0295(7) 0.29210(16)
C44 C 0.1111(7) 1.0766(7) 0.32036(17)
C45 C 0.0593(7) 0.9933(8) 0.34266(17)
C46 C 0.0448(10) 0.8602(9) 0.3346(2)
C47 C 0.0919(10) 0.8130(9) 0.30712(19)
C48 C 0.0165(7) 1.0411(8) 0.37337(17)
C49 C -0.0142(9) 1.1735(9) 0.37811(19)
C50 C -0.0495(9) 1.2178(8) 0.40717(19)
C51 C -0.0596(8) 1.1302(9) 0.43187(18)
C52 C -0.0273(9) 1.0006(9) 0.4276(2)
C53 C 0.0132(9) 0.9571(9) 0.39917(19)
C54 C -0.1061(8) 1.1835(9) 0.46209(17)
H1 H 0.32570 0.45720 0.06870
H2 H 0.26790 0.51680 0.11880
H3 H -0.11520 1.08940 0.00490
H4 H 0.65000 0.58190 0.14290
H5 H 0.70700 0.53000 0.09310
H6 H 0.22450 0.54120 0.16440
H7 H 0.15960 0.61470 0.21280
H8 H 0.53710 0.72190 0.23430
H9 H 0.59660 0.65010 0.18560
H10 H 0.41930 0.86810 0.30620
H11 H 0.51530 0.78400 0.35230
H12 H 0.41320 0.41590 0.32480
H13 H 0.33240 0.49980 0.27670
H14 H 0.49530 0.71360 0.39990
H15 H 0.55590 0.63420 0.44900
H16 H 0.60210 0.27030 0.41250
H17 H 0.55120 0.35130 0.36340
H18 H -0.25250 1.12780 0.09580
H19 H -0.17620 1.06550 0.14560
H20 H 0.18910 1.02790 0.11580
H21 H 0.11010 1.07750 0.06440
H22 H -0.11390 0.93510 0.18350
H23 H -0.03830 0.86980 0.23220
H24 H 0.33150 0.97260 0.21230
H25 H 0.25350 1.04720 0.16410
H26 H 0.18260 1.08920 0.27700
H27 H 0.11790 1.16780 0.32470
H28 H 0.00210 0.80220 0.34830
H29 H 0.08370 0.72200 0.30260
H30 H -0.01080 1.23370 0.36120
H31 H -0.06680 1.30840 0.41020
H32 H -0.03290 0.94050 0.44450
H33 H 0.03940 0.86820 0.39700
N1 N 0.3096(7) 0.2827(7) 0.48889(15)
C55 C 0.2631(9) 0.2985(9) 0.4564(2)
C56 C 0.2138(11) 0.2205(12) 0.5089(2)
H34 H 0.33090 0.36310 0.49690
H35 H 0.38440 0.23350 0.48950
H36 H 0.32640 0.35120 0.44530
H37 H 0.17740 0.34270 0.45550
H38 H 0.25400 0.21200 0.44650
H39 H 0.22180 0.25910 0.52990
H40 H 0.23140 0.12600 0.51030
H41 H 0.12450 0.23480 0.49990
Zn1* Zn -0.30319(11) 1.17170(12) 0.50542(2)
Zn1C Zn -0.30319(11) 1.32830(12) 0.00542(2)
Zn1C* Zn 0.69681(11) 0.32830(12) 0.00542(2)
O1C O 0.6696(7) 0.0194(6) 0.53444(14)
O2C O 0.4917(7) 0.1421(7) 0.53015(15)
O6C O 0.7749(6) 0.2776(6) 0.54114(13)
O7* O 0.8443(6) 0.1015(6) 0.48036(13)
#END
