
#######################################################################
#
#                 Cambridge Crystallographic Data Centre
#                                CCDC
#
#######################################################################
#
# If this CIF has been generated from an entry in the Cambridge
# Structural Database, then it will include bibliographic, chemical,
# crystal, experimental, refinement or atomic coordinate data resulting
# from the CCDC's data processing and validation procedures.
#
#######################################################################

data_CSD_CIF_WASVAO
_audit_creation_date 2005-12-05
_audit_creation_method CSD-ConQuest-V1
_database_code_CSD WASVAO
_database_code_depnum_ccdc_archive 'CCDC 262218'
_chemical_formula_sum 'C40 H58 Mo12 N8 Na1 O52 P1 Zn4'
_chemical_formula_moiety
;
(C10 H10 N2 2+)n,n(Na1 1+),n(C30 H28 Mo12 N6 O42 P1 Zn4 3-),10n(H2 O1)
;
_journal_coden_Cambridge 1290
_journal_year 2005
_journal_page_first 3009
_journal_name_full 'Eur.J.Inorg.Chem. '
loop_
_publ_author_name
"A.Dolbecq"
"C.Mellot-Draznieks"
"P.Mialane"
"J.Marrot"
"G.Ferey"
"F.Secheresse"
_chemical_name_systematic
;
catena-(Sodium 4,4'-bipyridinium 
(\m~4~-phosphato)-dodecakis(\m~3~-oxo)-tris(\m~2~-4,4'-bipyridine)-dodecakis(\
m~2~-oxo)-diaqua-dodecaoxa-dodeca-molybdenum-tetra-zinc decahydrate)
;
_cell_volume   3421.134
_exptl_crystal_colour 'black'
_exptl_crystal_description 'parallelepiped'
_diffrn_ambient_temperature 293
_refine_special_details
;
The sodium cation is reported as disordered and does not appear to have been 
modelled.
;
#These two values have been output from a single CSD field.
_refine_ls_R_factor_gt 0.0815
_refine_ls_wR_factor_gt 0.0815
_symmetry_cell_setting monoclinic
_symmetry_space_group_name_H-M 'P 21/m'
_symmetry_Int_Tables_number 11
loop_
_symmetry_equiv_pos_site_id
_symmetry_equiv_pos_as_xyz
1 x,y,z
2 -x,1/2+y,-z
3 -x,-y,-z
4 x,-1/2-y,z
_cell_length_a 11.6693(2)
_cell_length_b 17.7590(4)
_cell_length_c 17.2028(1)
_cell_angle_alpha 90
_cell_angle_beta 106.334(1)
_cell_angle_gamma 90
_cell_formula_units_Z 2
loop_
_atom_type_symbol
_atom_type_radius_bond
C 0.68
H 0.23
Mo 1.34
N 0.68
O 0.74
P 1.05
Zn 1.45
loop_
_atom_site_label
_atom_site_type_symbol
_atom_site_fract_x
_atom_site_fract_y
_atom_site_fract_z
Mo1 Mo 0.32001(17) 0.25000 0.78762(12)
Mo2 Mo 0.51982(13) 0.15359(8) 0.93688(9)
Mo3 Mo 0.70610(15) 0.07151(11) 0.89383(11)
Mo4 Mo 0.72692(15) 0.07298(10) 0.70087(12)
Mo5 Mo 0.55399(13) 0.15403(8) 0.57764(9)
Mo6 Mo 0.33383(18) 0.25000 0.64097(12)
Mo7 Mo 0.92941(12) 0.17640(8) 0.84547(10)
Zn1 Zn 0.43898(16) 0.06636(10) 0.73252(11)
Zn2 Zn 0.8366(3) 0.25000 0.6367(2)
Zn3 Zn 0.7912(3) 0.25000 0.9885(2)
P1 P 0.6271(5) 0.25000 0.7794(3)
O1 O 0.1704(13) 0.25000 0.7649(9)
O2 O 0.3579(9) 0.1718(5) 0.7202(6)
O3 O 0.3579(9) 0.1746(7) 0.8760(7)
O4 O 0.5445(13) 0.25000 0.8345(9)
O5 O 0.4998(11) 0.0961(7) 1.0075(7)
O6 O 0.5321(13) 0.25000 0.991(1)
O7 O 0.5329(9) 0.0860(5) 0.8482(6)
O8 O 0.6956(10) 0.1572(8) 0.9622(7)
O9 O 0.7199(12) -0.0025(10) 0.957(1)
O10 O 0.7052(10) 0.0241(6) 0.7957(7)
O11 O 0.8716(9) 0.0993(6) 0.9139(7)
O12 O 0.7075(9) 0.1796(5) 0.7985(6)
O13 O 0.7462(13) -0.0005(8) 0.6454(11)
O14 O 0.8837(9) 0.0999(6) 0.7563(7)
O15 O 0.7253(10) 0.1601(7) 0.6294(7)
O16 O 0.5511(9) 0.0863(5) 0.6666(6)
O17 O 0.5430(11) 0.0974(7) 0.5004(7)
O18 O 0.5675(15) 0.25000 0.5313(11)
O19 O 0.387(1) 0.1743(6) 0.5686(7)
O20 O 0.5541(13) 0.25000 0.6907(9)
O21 O 0.1886(12) 0.25000 0.593(1)
O22 O 1.0750(9) 0.1577(6) 0.8779(7)
O23 O 0.9049(12) 0.25000 0.7588(10)
O24 O 0.8998(12) 0.25000 0.9246(9)
O25 O 0.9875(16) 0.1665(11) 0.6483(13)
C1 C 0.4659(14) -0.2090(8) 0.7496(10)
C2 C 0.4551(18) -0.1664(9) 0.8137(10)
H1 H 0.44670 -0.19020 0.85990
C3 C 0.4565(16) -0.0894(8) 0.8108(9)
H2 H 0.45080 -0.06250 0.85590
N1 N 0.4657(12) -0.0513(7) 0.7458(8)
C4 C 0.4783(19) -0.0901(10) 0.6852(11)
H3 H 0.48850 -0.06380 0.64090
C5 C 0.4775(18) -0.1686(10) 0.6813(11)
H4 H 0.48440 -0.19360 0.63530
C6 C 0.0557(17) 0.0074(11) 0.5297(12)
C7 C 0.1617(18) 0.0116(11) 0.5090(13)
H5 H 0.16190 0.00430 0.45550
C8 C 0.2685(19) 0.0269(11) 0.5682(13)
H6 H 0.33780 0.03160 0.55200
N2 N 0.2762(14) 0.0347(9) 0.6437(10)
C9 C 0.177(2) 0.0296(13) 0.6666(15)
H7 H 0.18080 0.03470 0.72120
C10 C 0.062(2) 0.0164(13) 0.6091(15)
H8 H -0.00630 0.01400 0.62620
C11 C 0.863(2) 0.25000 0.3601(16)
C12 C 0.841(3) 0.1877(17) 0.3979(19)
H9 H 0.82450 0.14340 0.36800
C13 C 0.842(3) 0.1850(15) 0.4780(19)
H10 H 0.84150 0.13900 0.50370
N3 N 0.842(2) 0.25000 0.5187(14)
C14 C 0.865(2) 0.25000 0.2726(17)
C15 C 0.8634(19) 0.1868(13) 0.2312(14)
H11 H 0.86680 0.14080 0.25770
C16 C 0.857(2) 0.1874(15) 0.1513(16)
H12 H 0.86300 0.14230 0.12540
N4 N 0.843(2) 0.25000 0.1101(16)
C17 C 0.218(2) 0.25000 0.2419(15)
C18 C 0.223(2) 0.3138(14) 0.2858(14)
H13 H 0.21130 0.36010 0.25940
C19 C 0.244(3) 0.3118(15) 0.3665(15)
H14 H 0.24760 0.35690 0.39460
N5 N 0.258(3) 0.25000 0.406(2)
H15 H 0.27690 0.25000 0.45800
C20 C 0.225(2) 0.25000 0.1590(14)
C21 C 0.225(2) 0.1834(14) 0.1161(15)
H16 H 0.20910 0.13840 0.13880
C22 C 0.248(3) 0.1813(14) 0.0392(17)
H17 H 0.25000 0.13720 0.01050
N6 N 0.266(3) 0.25000 0.013(2)
H18 H 0.29410 0.25000 -0.02840
O26 O 0.033(2) 0.9755(13) 0.8060(15)
O27 O 0.990(3) 0.945(2) 0.930(2)
O28 O 0.2536(16) 0.0238(10) 0.8697(11)
Mo2C Mo 0.51982(13) 0.34641(8) 0.93688(9)
Mo3C Mo 0.70610(15) 0.42849(11) 0.89383(11)
Mo4C Mo 0.72692(15) 0.42702(10) 0.70087(12)
Mo5C Mo 0.55399(13) 0.34597(8) 0.57764(9)
Mo7C Mo 0.92941(12) 0.32360(8) 0.84547(10)
Zn1C Zn 0.43898(16) 0.43364(10) 0.73252(11)
Zn1C* Zn 0.43898(16) -0.56636(10) 0.73252(11)
Zn1B Zn -0.43898(16) -0.06636(10) 0.26748(11)
Zn3* Zn 0.7912(3) 0.25000 -0.0115(2)
O2C O 0.3579(9) 0.3282(5) 0.7202(6)
O3C O 0.3579(9) 0.3254(7) 0.8760(7)
O5C O 0.4998(11) 0.4039(7) 1.0075(7)
O7C O 0.5329(9) 0.4140(5) 0.8482(6)
O8C O 0.6956(10) 0.3428(8) 0.9622(7)
O9C O 0.7199(12) 0.5025(10) 0.957(1)
O10C O 0.7052(10) 0.4759(6) 0.7957(7)
O11C O 0.8716(9) 0.4007(6) 0.9139(7)
O12C O 0.7075(9) 0.3204(5) 0.7985(6)
O13C O 0.7462(13) 0.5005(8) 0.6454(11)
O14C O 0.8837(9) 0.4001(6) 0.7563(7)
O15C O 0.7253(10) 0.3399(7) 0.6294(7)
O16C O 0.5511(9) 0.4137(5) 0.6666(6)
O17C O 0.5430(11) 0.4026(7) 0.5004(7)
O19C O 0.387(1) 0.3257(6) 0.5686(7)
O22C O 1.0750(9) 0.3423(6) 0.8779(7)
O25C O 0.9875(16) 0.3335(11) 0.6483(13)
C1C C 0.4659(14) -0.2910(8) 0.7496(10)
C2C C 0.4551(18) -0.3336(9) 0.8137(10)
H1C H 0.44670 -0.30980 0.85990
C3C C 0.4565(16) -0.4106(8) 0.8108(9)
H2C H 0.45080 -0.43750 0.85590
N1C N 0.4657(12) -0.4487(7) 0.7458(8)
N1C* N 0.4657(12) 0.5513(7) 0.7458(8)
C4C C 0.4783(19) -0.4099(10) 0.6852(11)
H3C H 0.48850 -0.43620 0.64090
C5C C 0.4775(18) -0.3314(10) 0.6813(11)
H4C H 0.48440 -0.30640 0.63530
C6B C -0.0557(17) -0.0074(11) 0.4703(12)
C7B C -0.1617(18) -0.0116(11) 0.4910(13)
H5B H -0.16190 -0.00430 0.54450
C8B C -0.2685(19) -0.0269(11) 0.4318(13)
H6B H -0.33780 -0.03160 0.44800
N2B N -0.2762(14) -0.0347(9) 0.3563(10)
N2C N 0.2762(14) 0.4653(9) 0.6437(10)
C9B C -0.177(2) -0.0296(13) 0.3334(15)
H7B H -0.18080 -0.03470 0.27880
C10B C -0.062(2) -0.0164(13) 0.3909(15)
H8B H 0.00630 -0.01400 0.37380
C12C C 0.841(3) 0.3123(17) 0.3979(19)
H9C H 0.82450 0.35660 0.36800
C13C C 0.842(3) 0.3150(15) 0.4780(19)
H10C H 0.84150 0.36100 0.50370
C15C C 0.8634(19) 0.3132(13) 0.2312(14)
H11C H 0.86680 0.35920 0.25770
C16C C 0.857(2) 0.3126(15) 0.1513(16)
H12C H 0.86300 0.35770 0.12540
N4* N 0.843(2) 0.25000 1.1101(16)
C18C C 0.223(2) 0.1862(14) 0.2858(14)
H13C H 0.21130 0.13990 0.25940
C19C C 0.244(3) 0.1882(15) 0.3665(15)
H14C H 0.24760 0.14310 0.39460
C21C C 0.225(2) 0.3166(14) 0.1161(15)
H16C H 0.20910 0.36160 0.13880
C22C C 0.248(3) 0.3187(14) 0.0392(17)
H17C H 0.25000 0.36280 0.01050
#END
