
#######################################################################
#
#                 Cambridge Crystallographic Data Centre
#                                CCDC
#
#######################################################################
#
# If this CIF has been generated from an entry in the Cambridge
# Structural Database, then it will include bibliographic, chemical,
# crystal, experimental, refinement or atomic coordinate data resulting
# from the CCDC's data processing and validation procedures.
#
#######################################################################

data_CSD_CIF_WATCIE
_audit_creation_date 2005-12-05
_audit_creation_method CSD-ConQuest-V1
_database_code_CSD WATCIE
_database_code_depnum_ccdc_archive 'CCDC 260196'
_chemical_formula_sum 'C4 H46 Ca3 Mo9 N1 O49'
_chemical_formula_moiety
;
(C4 H26 Ca3 Mo9 O41 1-)n,n(H4 N1 1+),8n(H2 O1)
;
_journal_coden_Cambridge 119
_journal_volume 751
_journal_year 2005
_journal_page_first 29
_journal_name_full 'J.Mol.Struct. '
loop_
_publ_author_name
"Qi Li"
"Guang Liu"
"Shi-Wei Zhang"
_chemical_name_systematic
;
catena-(Diammonium 
tetrakis(\m~3~-hydroxo)-icosakis(\m~3~-oxo)-tetradecakis(\m~2~-oxo)-tetrakis(\
m~2~-acetato)-octadeca-aqua-octadecaoxo-penta-calcium-octa-molybdenum(v)-deca-
molybdenum(vi) hexadecahydrate)
;
_cell_volume   2153.550
_exptl_crystal_colour 'red'
_exptl_special_details
;
Polymer software creates only half of the true unit of Ca5 (not Ca6 as 
implied in our formula); the true fw and dx are 1856.08 and 2.862 - the CCDC 
calculated values reflect the additional half-calcium in our formula
;
_exptl_crystal_description 'Block'
_diffrn_ambient_temperature 173
_refine_special_details
;
The ammonium ion could not be distinguished from the water molecules; one O 
atom is relabelled as N to match the structure.
;
#These two values have been output from a single CSD field.
_refine_ls_R_factor_gt 0.0369
_refine_ls_wR_factor_gt 0.0369
_symmetry_cell_setting triclinic
_symmetry_space_group_name_H-M 'P -1'
_symmetry_Int_Tables_number 2
loop_
_symmetry_equiv_pos_site_id
_symmetry_equiv_pos_as_xyz
1 x,y,z
2 -x,-y,-z
_cell_length_a 10.441(2)
_cell_length_b 15.126(3)
_cell_length_c 15.300(3)
_cell_angle_alpha 109.91(3)
_cell_angle_beta 100.48(3)
_cell_angle_gamma 100.60(3)
_cell_formula_units_Z 2
loop_
_atom_type_symbol
_atom_type_radius_bond
C 0.68
H 0.23
Ca 1.69
Mo 1.39
N 0.68
O 0.68
loop_
_atom_site_label
_atom_site_type_symbol
_atom_site_fract_x
_atom_site_fract_y
_atom_site_fract_z
Mo1 Mo 0.22511(5) 0.02510(4) 0.24682(3)
Mo2 Mo 0.30546(4) 0.17982(3) 0.21047(3)
Mo3 Mo 0.24190(5) 0.20887(3) -0.03544(3)
Mo4 Mo 0.10478(5) 0.07727(4) -0.20572(3)
Mo5 Mo 0.06747(5) 0.18823(4) 0.35090(3)
Mo6 Mo 0.15957(5) 0.38114(4) 0.30263(3)
Mo7 Mo 0.10176(5) 0.41027(3) 0.06542(3)
Mo8 Mo -0.06221(5) 0.24521(4) -0.14651(3)
Mo9 Mo 0.38428(5) 0.37645(4) 0.17471(4)
Ca1 Ca 0.00000 0.00000 0.00000
Ca2 Ca -0.21934(12) 0.39185(9) 0.18419(9)
Ca3 Ca 0.42947(18) 0.63606(13) 0.40369(16)
O1 O 0.2771(4) 0.1652(3) 0.3311(3)
O2 O 0.2754(4) 0.2215(3) 0.1009(3)
O3 O -0.0850(4) 0.1068(3) -0.1796(3)
O4 O 0.1048(4) 0.2222(3) 0.2271(3)
H1 H 0.02950 0.19440 0.16860
O5 O 0.1476(4) 0.2209(3) -0.1556(3)
O6 O 0.0304(4) 0.0572(3) 0.2593(3)
O7 O 0.2965(4) 0.3623(3) 0.0456(3)
O8 O 0.1750(4) 0.3815(3) 0.1783(3)
O9 O 0.0477(4) 0.2496(3) -0.0059(3)
H2 H -0.00360 0.21290 0.02410
O10 O 0.1384(4) 0.0738(3) -0.0770(3)
O11 O 0.1889(4) 0.0500(3) 0.1285(3)
O12 O 0.3529(4) 0.3322(3) 0.2779(3)
O13 O 0.1684(4) 0.3251(3) 0.3985(3)
O14 O 0.0504(4) 0.3772(3) -0.0710(3)
O15 O 0.2635(5) 0.4938(3) 0.3764(3)
O16 O 0.3667(4) -0.0132(3) 0.2491(3)
O17 O 0.4661(4) 0.1720(3) 0.2171(3)
O18 O -0.0478(4) 0.4184(3) 0.0962(3)
O19 O -0.0927(4) 0.2009(3) 0.3381(3)
O20 O -0.2109(4) 0.2523(3) -0.1184(3)
O21 O 0.1966(4) 0.5279(3) 0.1016(3)
O22 O 0.3967(4) 0.2050(3) -0.0515(3)
O23 O 0.4275(4) 0.5004(3) 0.2405(3)
O24 O 0.1098(5) 0.1763(3) 0.4599(3)
O25 O -0.0001(4) 0.3959(3) 0.2884(3)
O26 O -0.0859(4) 0.2530(3) -0.2572(3)
O27 O 0.2323(4) 0.0436(3) -0.2509(3)
O28 O 0.5372(4) 0.3534(3) 0.1641(3)
O29 O 0.0093(4) 0.0789(3) -0.3419(3)
O30 O -0.2101(4) 0.0014(3) -0.3724(3)
O31 O -0.0889(4) 0.1303(3) 0.0622(3)
O32 O -0.2073(5) 0.2343(4) 0.1121(4)
C1 C -0.1107(6) 0.0449(4) -0.3933(4)
C2 C -0.1445(7) 0.0555(6) -0.4880(5)
H3 H -0.23920 0.02640 -0.51880
H4 H -0.09300 0.02340 -0.52850
H5 H -0.12310 0.12340 -0.47750
C3 C -0.2026(6) 0.1508(5) 0.0720(5)
C4 C -0.3290(7) 0.0688(5) 0.0331(6)
H6 H -0.30780 0.00830 0.00360
H7 H -0.39240 0.07900 -0.01400
H8 H -0.36790 0.06660 0.08490
O33 O -0.2778(5) 0.3098(4) 0.2957(4)
O34 O -0.3487(5) 0.3393(5) 0.0123(4)
O35 O -0.1893(7) 0.5199(5) 0.3418(6)
O36 O -0.2211(9) 0.5415(5) 0.1588(7)
O37 O 0.3126(8) 0.6716(5) 0.2871(5)
O38 O 0.4430(7) 0.6216(6) 0.5644(5)
O39 O 0.6231(7) 0.5794(6) 0.4403(5)
O40 O 0.2626(8) 0.7098(6) 0.4765(7)
O41 O 0.5634(10) 0.7968(7) 0.4833(8)
O42 O -0.370(3) 0.6716(18) 0.2175(16)
O43? O -0.4203(18) 0.6885(11) 0.2936(13)
N1 N -0.6408(5) 0.8866(4) 0.6365(4)
O44 O -0.1547(12) 0.7262(7) 0.3427(8)
O45 O -0.4936(13) 0.8397(12) 0.2559(16)
O46 O 0.0292(13) 0.5805(9) 0.4936(8)
O47 O -0.482(2) 0.4358(14) -0.0738(14)
O48 O -0.522(2) 0.9449(15) 0.4231(15)
O49 O -0.010(2) 0.6909(17) 0.3964(17)
Mo1A Mo -0.22511(5) -0.02510(4) -0.24682(3)
Mo4A Mo -0.10478(5) -0.07727(4) 0.20572(3)
Mo5A Mo -0.06747(5) -0.18823(4) -0.35090(3)
Mo8A Mo 0.06221(5) -0.24521(4) 0.14651(3)
Ca2* Ca 0.78066(12) 0.39185(9) 0.18419(9)
O3A O 0.0850(4) -0.1068(3) 0.1796(3)
O6A O -0.0304(4) -0.0572(3) -0.2593(3)
O10A O -0.1384(4) -0.0738(3) 0.0770(3)
O11A O -0.1889(4) -0.0500(3) -0.1285(3)
O28* O -0.4628(4) 0.3534(3) 0.1641(3)
O30A O 0.2101(4) -0.0014(3) 0.3724(3)
O31A O 0.0889(4) -0.1303(3) -0.0622(3)
#END
