
#######################################################################
#
#                 Cambridge Crystallographic Data Centre
#                                CCDC
#
#######################################################################
#
# If this CIF has been generated from an entry in the Cambridge
# Structural Database, then it will include bibliographic, chemical,
# crystal, experimental, refinement or atomic coordinate data resulting
# from the CCDC's data processing and validation procedures.
#
#######################################################################

data_CSD_CIF_WATGUU
_audit_creation_date 2005-12-05
_audit_creation_method CSD-ConQuest-V1
_database_code_CSD WATGUU
_database_code_depnum_ccdc_archive 'CCDC 266599'
_chemical_formula_sum 'C24 H26 Cr1 Mo6 N4 Na3 O32'
_chemical_formula_moiety
;
(C12 H16 Cr1 Mo6 N2 Na1 O28 2-)n,2n(C6 H5 N1 O2),2n(Na1 1+)
;
_journal_coden_Cambridge 119
_journal_volume 751
_journal_year 2005
_journal_page_first 184
_journal_name_full 'J.Mol.Struct. '
loop_
_publ_author_name
"Haiyan An"
"Dongrong Xiao"
"Enbo Wang"
"Chunyan Sun"
"Yangguang Li"
"Lin Xu"
_chemical_name_systematic
;
catena-(Di-sodium 
hexakis(\m~3~-hydroxo)-decakis(\m~2~-oxo)-bis(pyridinium-3-carboxylato-O)-octa
oxo-chromium-hexa-molybdenum-sodium bis(pyridinium-3-carboxylate))
;
_cell_volume   4350.661
_exptl_crystal_colour 'purple'
_exptl_crystal_density_diffrn 2.411
_exptl_crystal_description 'block'
_diffrn_ambient_temperature 293
#These two values have been output from a single CSD field.
_refine_ls_R_factor_gt 0.0487
_refine_ls_wR_factor_gt 0.0487
_symmetry_cell_setting monoclinic
_symmetry_space_group_name_H-M 'C 2/c'
_symmetry_Int_Tables_number 15
loop_
_symmetry_equiv_pos_site_id
_symmetry_equiv_pos_as_xyz
1 x,y,z
2 1/2+x,1/2+y,z
3 -x,y,1/2-z
4 1/2-x,1/2+y,1/2-z
5 -x,-y,-z
6 -1/2-x,-1/2-y,-z
7 x,-y,-1/2+z
8 -1/2+x,-1/2-y,-1/2+z
_cell_length_a 22.045(4)
_cell_length_b 9.4640(19)
_cell_length_c 21.088(4)
_cell_angle_alpha 90
_cell_angle_beta 98.56(3)
_cell_angle_gamma 90
_cell_formula_units_Z 4
loop_
_atom_type_symbol
_atom_type_radius_bond
C 0.68
H 0.23
Cr 1.35
Mo 1.34
N 0.68
Na 1.56
O 0.68
loop_
_atom_site_label
_atom_site_type_symbol
_atom_site_fract_x
_atom_site_fract_y
_atom_site_fract_z
Cr1 Cr 0.00000 1.00000 0.00000
Mo1 Mo -0.09381(2) 0.82878(5) 0.08287(2)
Mo2 Mo -0.14759(2) 1.08585(6) -0.01934(2)
Mo3 Mo 0.05246(2) 0.74126(5) 0.10194(3)
Na1 Na 0.00000 0.8908(4) 0.25000
Na2 Na -0.0227(2) 1.3886(5) 0.0790(3)
O1 O -0.20921(19) 0.9824(5) -0.0482(2)
O2 O -0.1766(2) 1.2434(5) 0.0023(2)
O3 O 0.0843(2) 0.5839(5) 0.0855(3)
O4 O 0.0507(2) 0.7426(5) 0.1831(2)
O5 O -0.1568(2) 0.7300(5) 0.0541(3)
O6 O -0.00347(17) 0.9462(4) 0.08935(19)
O7 O -0.12254(18) 1.1306(5) -0.1023(2)
O8 O -0.08010(17) 0.9020(4) -0.01941(19)
O9 O -0.03290(19) 0.6911(4) 0.0713(2)
O10 O -0.12745(19) 1.0183(5) 0.0676(2)
O11 O -0.05032(17) 1.1743(4) -0.0006(2)
O12 O -0.0898(2) 0.8314(5) 0.1647(2)
O13 O -0.0378(2) 1.0885(5) 0.3103(3)
O14 O -0.0866(3) 1.2394(5) 0.3687(2)
O15 O 0.3070(3) 1.2195(7) 0.2687(3)
O16 O 0.3194(3) 1.4503(6) 0.2883(3)
N1 N -0.1308(5) 1.4827(10) 0.1983(5)
H1 H -0.13740 1.57230 0.19690
N2 N 0.2165(3) 1.3112(8) 0.0862(3)
H2 H 0.20230 1.24470 0.06040
C1 C -0.1098(4) 1.4149(8) 0.2568(4)
H3 H -0.10550 1.46500 0.29510
C2 C -0.0954(3) 1.2727(7) 0.2564(3)
C3 C -0.1047(3) 1.2019(8) 0.1985(4)
H4 H -0.09470 1.10660 0.19720
C4 C -0.1276(4) 1.2677(9) 0.1451(3)
H5 H -0.13450 1.21590 0.10730
C5 C -0.1408(5) 1.4011(14) 0.1430(5)
H6 H -0.15710 1.44260 0.10420
C6 C -0.0712(3) 1.1936(7) 0.3174(3)
C7 C 0.2446(3) 1.2752(9) 0.1458(4)
H7 H 0.24800 1.18100 0.15840
C8 C 0.2679(3) 1.3811(7) 0.1871(3)
C9 C 0.2609(3) 1.5207(8) 0.1674(4)
H8 H 0.27550 1.59380 0.19500
C10 C 0.2319(4) 1.5496(9) 0.1060(4)
H9 H 0.22750 1.64290 0.09230
C11 C 0.2097(3) 1.4445(10) 0.0658(4)
H10 H 0.19020 1.46470 0.02460
C12 C 0.2999(3) 1.3407(8) 0.2527(4)
Mo1D Mo 0.09381(2) 1.17122(5) -0.08287(2)
Mo2D Mo 0.14759(2) 0.91415(6) 0.01934(2)
Mo3D Mo -0.05246(2) 1.25874(5) -0.10194(3)
Na1F Na 0.00000 1.1092(4) -0.25000
O1D O 0.20921(19) 1.0176(5) 0.0482(2)
O2D O 0.1766(2) 0.7566(5) -0.0023(2)
O3D O -0.0843(2) 1.4161(5) -0.0855(3)
O4D O -0.0507(2) 1.2574(5) -0.1831(2)
O4B O -0.0507(2) 0.7426(5) 0.3169(2)
O5D O 0.1568(2) 1.2700(5) -0.0541(3)
O6D O 0.00347(17) 1.0538(4) -0.08935(19)
O7D O 0.12254(18) 0.8694(5) 0.1023(2)
O8D O 0.08010(17) 1.0980(4) 0.01941(19)
O9D O 0.03290(19) 1.3089(4) -0.0713(2)
O10D O 0.12745(19) 0.9817(5) -0.0676(2)
O11D O 0.05032(17) 0.8257(4) 0.0006(2)
O12D O 0.0898(2) 1.1686(5) -0.1647(2)
O12B O 0.0898(2) 0.8314(5) 0.3353(2)
O13B O 0.0378(2) 1.0885(5) 0.1897(3)
O14B O 0.0866(3) 1.2394(5) 0.1313(2)
N1B N 0.1308(5) 1.4827(10) 0.3017(5)
H1B H 0.13740 1.57230 0.30310
C1B C 0.1098(4) 1.4149(8) 0.2432(4)
H3B H 0.10550 1.46500 0.20490
C2B C 0.0954(3) 1.2727(7) 0.2436(3)
C3B C 0.1047(3) 1.2019(8) 0.3015(4)
H4B H 0.09470 1.10660 0.30280
C4B C 0.1276(4) 1.2677(9) 0.3549(3)
H5B H 0.13450 1.21590 0.39270
C5B C 0.1408(5) 1.4011(14) 0.3570(5)
H6B H 0.15710 1.44260 0.39580
C6B C 0.0712(3) 1.1936(7) 0.1826(3)
#END
