
#######################################################################
#
#                 Cambridge Crystallographic Data Centre
#                                CCDC
#
#######################################################################
#
# If this CIF has been generated from an entry in the Cambridge
# Structural Database, then it will include bibliographic, chemical,
# crystal, experimental, refinement or atomic coordinate data resulting
# from the CCDC's data processing and validation procedures.
#
#######################################################################

data_CSD_CIF_WAVCII
_audit_creation_date 2017-04-19
_audit_creation_method CSD-ConQuest-V1
_database_code_CSD WAVCII
_database_code_depnum_ccdc_archive 'CCDC 1421085'
_chemical_formula_sum 'C36 H56 Co2 Mo8 N24 O26'
_chemical_formula_moiety
;
2(C18 H28 Co1 N12 2+)n,Mo8 O26 4-
;
_journal_coden_Cambridge 2020
_journal_volume 1
_journal_year 2016
_journal_page_first 4879
_journal_name_full 'Chem. Sel. '
loop_
_publ_author_name
"Wenlong Sun"
"Chunjing Zhang"
"Haijun Pang"
"Huiyuan Ma"
"Zhuanfang Zhang"
"Mo Wang"
_chemical_name_systematic
;
catena-[bis((\m-1,1'-pentane-1,5-diylbis(1H-1,2,4-triazole))-cobalt(ii)) 
dodecakis(\m-oxo)-tetradecaoxo-octa-molybdenum]
;
_cell_volume   3187.035
_exptl_crystal_colour 'purple'
_exptl_crystal_density_diffrn 2.216
_exptl_crystal_description 'block'
_diffrn_ambient_temperature 293
#These two values have been output from a single CSD field.
_refine_ls_R_factor_gt 0.0665
_refine_ls_wR_factor_gt 0.0665
_symmetry_cell_setting monoclinic
_symmetry_space_group_name_H-M 'P 21/n'
_symmetry_Int_Tables_number 14
loop_
_symmetry_equiv_pos_site_id
_symmetry_equiv_pos_as_xyz
1 x,y,z
2 1/2-x,1/2+y,1/2-z
3 -x,-y,-z
4 -1/2+x,-1/2-y,-1/2+z
_cell_length_a 13.478(5)
_cell_length_b 14.829(5)
_cell_length_c 15.963(5)
_cell_angle_alpha 90
_cell_angle_beta 92.651(5)
_cell_angle_gamma 90
_cell_formula_units_Z 2
loop_
_atom_type_symbol
_atom_type_radius_bond
C 0.68
H 0.23
Co 1.26
Mo 1.54
N 0.68
O 0.68
loop_
_atom_site_label
_atom_site_type_symbol
_atom_site_fract_x
_atom_site_fract_y
_atom_site_fract_z
Mo1 Mo 0.79876(4) -0.01911(4) 0.43703(4)
Mo2 Mo 0.99684(4) -0.15585(4) 0.39293(4)
Mo3 Mo 0.99018(4) -0.07956(4) 0.58075(3)
Mo4 Mo 0.79087(5) 0.05434(5) 0.62939(4)
O1 O 1.0585(4) -0.2438(4) 0.4397(3)
O2 O 1.0531(4) -0.1711(4) 0.6165(3)
O3 O 0.7468(4) 0.0772(4) 0.3973(3)
O4 O 0.8952(4) -0.0660(4) 0.6508(3)
O5 O 0.9147(4) -0.2071(4) 0.3232(4)
O6 O 0.7377(4) -0.1020(4) 0.3832(4)
O7 O 0.7439(4) -0.0269(4) 0.5421(3)
O8 O 0.9221(4) -0.0157(3) 0.3716(3)
O9 O 0.9194(4) 0.0508(4) 0.5223(3)
O10 O 0.9098(4) -0.1299(3) 0.4871(3)
O11 O 0.7331(4) 0.1495(4) 0.5919(4)
O12 O 0.7266(5) 0.0234(5) 0.7122(4)
O13 O 0.9090(4) 0.1106(4) 0.6800(3)
Co1 Co 0.33900(7) -0.18241(7) 0.71316(6)
N1 N 1.0373(5) -0.4433(5) 0.7090(5)
C1 C 0.4201(7) -0.4006(7) 0.3663(7)
H1 H 0.43590 -0.34300 0.39240
H2 H 0.39360 -0.38880 0.30990
C2 C 0.6551(5) -0.3943(6) 0.2791(4)
H3 H 0.64250 -0.42690 0.23000
N2 N 0.6015(5) -0.3999(5) 0.3451(4)
C3 C 0.3407(8) -0.4463(8) 0.4151(7)
H4 H 0.33270 -0.50780 0.39520
H5 H 0.36270 -0.44890 0.47380
C4 C 0.9211(8) -0.3136(7) 0.7245(7)
H6 H 0.89230 -0.34830 0.76880
H7 H 0.92370 -0.25110 0.74250
N3 N 0.2524(6) -0.4339(5) 0.6251(5)
C5 C 0.2843(7) -0.3752(7) 0.6810(5)
H8 H 0.31020 -0.39150 0.73390
C6 C 0.2426(6) -0.4001(7) 0.4080(5)
H9 H 0.20780 -0.41860 0.35620
H10 H 0.25310 -0.33540 0.40520
C7 C 0.8555(7) -0.3201(8) 0.6488(7)
H11 H 0.84320 -0.38300 0.63510
H12 H 0.88670 -0.29200 0.60190
C8 C 1.0493(7) -0.5705(7) 0.6534(6)
H13 H 1.04590 -0.61700 0.61440
N4 N 1.0162(7) -0.4870(6) 0.6380(5)
C9 C 0.4631(8) -0.1697(9) 0.5580(7)
H14 H 0.41100 -0.14530 0.52520
N5 N 0.6016(6) -0.2186(6) 0.5967(5)
C10 C 1.0805(6) -0.4981(6) 0.7629(6)
H15 H 1.10310 -0.48140 0.81660
C11 C 0.1782(6) -0.4212(6) 0.4815(5)
H16 H 0.11210 -0.39710 0.47010
H17 H 0.17260 -0.48600 0.48770
C12 C 0.7038(8) -0.2530(12) 0.5884(8)
H18 H 0.70060 -0.30770 0.55500
H19 H 0.74120 -0.20880 0.55800
N6 N 0.2208(5) -0.3820(5) 0.5603(4)
C13 C 1.0253(7) -0.3461(6) 0.7140(8)
H20 H 1.04960 -0.31940 0.66340
H21 H 1.06680 -0.32400 0.76090
N7 N 1.0882(5) -0.5792(5) 0.7326(5)
N8 N 0.7278(5) -0.3381(5) 0.2904(4)
N9 N 0.4538(5) -0.1958(6) 0.6387(5)
C14 C 0.7559(7) -0.2719(9) 0.6651(7)
H22 H 0.71570 -0.31000 0.69940
H23 H 0.76920 -0.21610 0.69540
N10 N 0.2762(5) -0.2882(5) 0.6552(4)
C15 C 0.5422(7) -0.2245(9) 0.6596(7)
H24 H 0.56130 -0.24650 0.71250
N11 N 0.6423(7) -0.3454(7) 0.4068(5)
N12 N 0.5514(7) -0.1821(9) 0.5307(6)
C16 C 0.5155(7) -0.4549(7) 0.3611(6)
H25 H 0.52770 -0.48720 0.41340
H26 H 0.50670 -0.49920 0.31660
C17 C 0.2356(6) -0.2954(6) 0.5774(5)
H27 H 0.22040 -0.24760 0.54140
C18 C 0.7192(9) -0.3106(8) 0.3704(6)
H28 H 0.76350 -0.27080 0.39720
Mo1B Mo 1.20124(4) 0.01911(4) 0.56297(4)
Mo2B Mo 1.00316(4) 0.15585(4) 0.60707(4)
Mo3B Mo 1.00982(4) 0.07956(4) 0.41925(3)
Mo4B Mo 1.20913(5) -0.05434(5) 0.37061(4)
O1B O 0.9415(4) 0.2438(4) 0.5603(3)
O2B O 0.9469(4) 0.1711(4) 0.3835(3)
O3B O 1.2532(4) -0.0772(4) 0.6027(3)
O4B O 1.1048(4) 0.0660(4) 0.3492(3)
O5B O 1.0853(4) 0.2071(4) 0.6768(4)
O6B O 1.2623(4) 0.1020(4) 0.6168(4)
O7B O 1.2561(4) 0.0269(4) 0.4579(3)
O8B O 1.0779(4) 0.0157(3) 0.6284(3)
O9B O 1.0806(4) -0.0508(4) 0.4777(3)
O10B O 1.0902(4) 0.1299(3) 0.5129(3)
O11B O 1.2669(4) -0.1495(4) 0.4081(4)
O12B O 1.2734(5) -0.0234(5) 0.2878(4)
O13B O 1.0910(4) -0.1106(4) 0.3200(3)
Co1A Co 1.16100(7) -0.68241(7) 0.78684(6)
Co1C Co 0.83900(7) -0.31759(7) 0.21316(6)
N7A N 0.4118(5) -0.0792(5) 0.7674(5)
N8C N 0.2278(5) -0.1619(5) 0.7904(4)
#END
