
#######################################################################
#
#                 Cambridge Crystallographic Data Centre
#                                CCDC
#
#######################################################################
#
# If this CIF has been generated from an entry in the Cambridge
# Structural Database, then it will include bibliographic, chemical,
# crystal, experimental, refinement or atomic coordinate data resulting
# from the CCDC's data processing and validation procedures.
#
#######################################################################

data_CSD_CIF_WAVLIR
_audit_creation_date 2017-04-19
_audit_creation_method CSD-ConQuest-V1
_database_code_CSD WAVLIR
_database_code_depnum_ccdc_archive 'CCDC 1508581'
_chemical_formula_sum 'C54 H44 Co3 N4 O16'
_chemical_formula_moiety
;
(C50 H28 Co3 N2 O16 2-)n,2n(C2 H8 N1 1+)
;
_journal_coden_Cambridge 1350
_journal_volume 19
_journal_year 2017
_journal_page_first 2723
_journal_name_full 'CrystEngComm '
loop_
_publ_author_name
"O.Akintola"
"S.Ziegenbalg"
"A.Buchholz"
"H.Gorls"
"W.Plass"
_chemical_name_systematic
;
catena-(bis(dimethylammonium) 
bis(\m-nitrilotribenzoato)-(\m-terephthalato)-tri-cobalt)
;
_chemical_name_common
;
JUMP-1
;
_cell_volume  21028.922
_exptl_crystal_colour 'pink'
_exptl_crystal_description 'prism'
_diffrn_ambient_temperature 133
_refine_special_details
;
The SQUEEZE/PLATON program was used to model the disordered cations.

;
#These two values have been output from a single CSD field.
_refine_ls_R_factor_gt 0.0649
_refine_ls_wR_factor_gt 0.0649
_symmetry_cell_setting orthorhombic
_symmetry_space_group_name_H-M 'C m c a'
_symmetry_Int_Tables_number 64
loop_
_symmetry_equiv_pos_site_id
_symmetry_equiv_pos_as_xyz
1 x,y,z
2 -x,1/2-y,1/2+z
3 -x,1/2+y,1/2-z
4 x,-y,-z
5 1/2+x,1/2+y,z
6 1/2-x,-y,1/2+z
7 1/2-x,y,1/2-z
8 1/2+x,1/2-y,-z
9 -x,-y,-z
10 x,-1/2+y,-1/2-z
11 x,-1/2-y,-1/2+z
12 -x,y,z
13 -1/2-x,-1/2-y,-z
14 -1/2+x,y,-1/2-z
15 -1/2+x,-y,-1/2+z
16 -1/2-x,-1/2+y,z
_cell_length_a 33.6004(6)
_cell_length_b 26.9604(5)
_cell_length_c 23.2138(5)
_cell_angle_alpha 90
_cell_angle_beta 90
_cell_angle_gamma 90
_cell_formula_units_Z 8
loop_
_atom_type_symbol
_atom_type_radius_bond
C 0.68
H 0.23
Co 1.26
N 0.68
O 0.68
loop_
_atom_site_label
_atom_site_type_symbol
_atom_site_fract_x
_atom_site_fract_y
_atom_site_fract_z
Co1 Co 0.25000 0.869797(17) 0.75000
Co2 Co 0.339954(11) 0.888341(14) 0.700748(17)
O1 O 0.32386(6) 0.83136(7) 0.65239(9)
O2 O 0.26500(6) 0.81474(7) 0.69390(8)
O3 O 0.31164(6) 0.62758(7) 0.27526(9)
O4 O 0.34872(6) 0.56155(8) 0.29244(9)
O5 O 0.18273(7) 0.44616(7) 0.65827(9)
O6 O 0.24272(7) 0.42716(8) 0.69263(11)
O7 O 0.39682(7) 0.90284(12) 0.68141(14)
O8 O 0.39522(8) 0.83930(15) 0.73715(16)
N1 N 0.29074(11) 0.61715(9) 0.54825(12)
C1 C 0.29365(8) 0.80473(10) 0.66148(11)
C2 C 0.29221(9) 0.7559(1) 0.63091(12)
C3 C 0.32284(10) 0.74203(11) 0.59310(14)
H1 H 0.34430 0.76420 0.58610
C4 C 0.32209(10) 0.69646(11) 0.56592(14)
H2 H 0.34290 0.68740 0.54030
C5 C 0.29126(11) 0.66437(10) 0.57607(13)
C6 C 0.26085(11) 0.67753(12) 0.61324(14)
H3 H 0.23950 0.65530 0.62020
C7 C 0.26175(10) 0.72297(11) 0.63993(14)
H4 H 0.24070 0.73180 0.66530
C8 C 0.30061(10) 0.61303(10) 0.48925(13)
C9 C 0.29158(9) 0.65026(10) 0.45002(13)
H5 H 0.27910 0.67980 0.46310
C10 C 0.30031(9) 0.64501(11) 0.39310(13)
H6 H 0.29420 0.67110 0.36700
C11 C 0.31821(9) 0.6016(1) 0.37252(13)
C12 C 0.32764(10) 0.56446(10) 0.41174(13)
H7 H 0.34020 0.53500 0.39870
C13 C 0.31895(11) 0.56989(10) 0.46913(14)
H8 H 0.32550 0.54410 0.49540
C14 C 0.32703(9) 0.59550(11) 0.31046(12)
C15 C 0.27287(12) 0.57621(11) 0.57717(14)
C16 C 0.24038(12) 0.55254(12) 0.55289(14)
H9 H 0.23050 0.56280 0.51640
C17 C 0.22239(11) 0.51370(11) 0.58226(14)
H10 H 0.19950 0.49820 0.56650
C18 C 0.23755(10) 0.49751(10) 0.63419(13)
C19 C 0.2705(1) 0.52071(11) 0.65729(14)
H11 H 0.28150 0.50900 0.69250
C20 C 0.28758(11) 0.56068(12) 0.62976(14)
H12 H 0.30940 0.57750 0.64690
C21 C 0.21966(9) 0.45359(10) 0.66427(13)
C22 C 0.41395(12) 0.87065(18) 0.7087(2)
C23 C 0.45852(11) 0.86938(18) 0.7082(2)
C24 C 0.47944(13) 0.8353(2) 0.7404(2)
H13 H 0.46540 0.81150 0.76290
C25 C 0.47886(12) 0.90386(19) 0.6759(2)
H14 H 0.46470 0.92760 0.65370
O7K O 0.60318(7) 0.90284(12) 0.68141(14)
O8K O 0.60478(8) 0.83930(15) 0.73715(16)
C22K C 0.58605(12) 0.87065(18) 0.7087(2)
C23K C 0.54148(11) 0.86938(18) 0.7082(2)
C24K C 0.52056(13) 0.8353(2) 0.7404(2)
H13K H 0.53460 0.81150 0.76290
C25K C 0.52114(12) 0.90386(19) 0.6759(2)
H14K H 0.53530 0.92760 0.65370
Co2F Co 0.160046(11) 0.888341(14) 0.799252(17)
O1F O 0.17614(6) 0.83136(7) 0.84761(9)
O2F O 0.23500(6) 0.81474(7) 0.80610(8)
O3F O 0.18836(6) 0.62758(7) 1.22474(9)
O4F O 0.15128(6) 0.56155(8) 1.20756(9)
O5F O 0.31727(7) 0.44616(7) 0.84173(9)
O6F O 0.25728(7) 0.42716(8) 0.80737(11)
N1F N 0.20926(11) 0.61715(9) 0.95175(12)
C1F C 0.20635(8) 0.80473(10) 0.83852(11)
C2F C 0.20779(9) 0.7559(1) 0.86909(12)
C3F C 0.17716(10) 0.74203(11) 0.90690(14)
H1F H 0.15570 0.76420 0.91390
C4F C 0.17791(10) 0.69646(11) 0.93408(14)
H2F H 0.15710 0.68740 0.95970
C5F C 0.20874(11) 0.66437(10) 0.92393(13)
C6F C 0.23915(11) 0.67753(12) 0.88676(14)
H3F H 0.26050 0.65530 0.87980
C7F C 0.23825(10) 0.72297(11) 0.86007(14)
H4F H 0.25930 0.73180 0.83470
C8F C 0.19939(10) 0.61303(10) 1.01075(13)
C9F C 0.20842(9) 0.65026(10) 1.04998(13)
H5F H 0.22090 0.67980 1.03690
C10F C 0.19969(9) 0.64501(11) 1.10690(13)
H6F H 0.20580 0.67110 1.13300
C11F C 0.18179(9) 0.6016(1) 1.12748(13)
C12F C 0.17236(10) 0.56446(10) 1.08826(13)
H7F H 0.15980 0.53500 1.10130
C13F C 0.18105(11) 0.56989(10) 1.03087(14)
H8F H 0.17450 0.54410 1.00460
C14F C 0.17297(9) 0.59550(11) 1.18954(12)
C15F C 0.22713(12) 0.57621(11) 0.92283(14)
C16F C 0.25962(12) 0.55254(12) 0.94711(14)
H9F H 0.26950 0.56280 0.98360
C17F C 0.27761(11) 0.51370(11) 0.91774(14)
H10F H 0.30050 0.49820 0.93350
C18F C 0.26245(10) 0.49751(10) 0.86581(13)
C19F C 0.2295(1) 0.52071(11) 0.84271(14)
H11F H 0.21850 0.50900 0.80750
C20F C 0.21242(11) 0.56068(12) 0.87024(14)
H12F H 0.19060 0.57750 0.85310
C21F C 0.28034(9) 0.45359(10) 0.83573(13)
Co1I Co 0.25000 0.369797(17) 0.75000
Co1J Co 0.25000 0.630203(17) 0.25000
Co1J* Co 0.25000 0.630203(17) 1.25000
Co2I Co 0.339954(11) 0.388341(14) 0.799252(17)
Co2J Co 0.339954(11) 0.611659(14) 0.200748(17)
Co2K Co 0.660046(11) 0.888341(14) 0.700748(17)
Co2L Co 0.160046(11) 0.611659(14) 1.299252(17)
Co2O Co 0.160046(11) 0.388341(14) 0.700748(17)
O3J O 0.31164(6) 0.87242(7) 0.77526(9)
O3L O 0.18836(6) 0.87242(7) 0.72474(9)
O5I O 0.18273(7) 0.94616(7) 0.84173(9)
O5O O 0.31727(7) 0.94616(7) 0.65827(9)
O6I O 0.24272(7) 0.92716(8) 0.80737(11)
O6O O 0.25728(7) 0.92716(8) 0.69263(11)
O7F O 0.10318(7) 0.90284(12) 0.81859(14)
O8F O 0.10478(8) 0.83930(15) 0.76285(16)
#END
