
#######################################################################
#
#                 Cambridge Crystallographic Data Centre
#                                CCDC
#
#######################################################################
#
# If this CIF has been generated from an entry in the Cambridge
# Structural Database, then it will include bibliographic, chemical,
# crystal, experimental, refinement or atomic coordinate data resulting
# from the CCDC's data processing and validation procedures.
#
#######################################################################

data_CSD_CIF_WAVQER
_audit_creation_date 2012-06-19
_audit_creation_method CSD-ConQuest-V1
_database_code_CSD WAVQER
_database_code_depnum_ccdc_archive 'CCDC 850061'
_chemical_formula_sum 'C38 H44 In3 N4 O26 Sm1'
_chemical_formula_moiety
;
(C2 H8 N1 1+)n,n(C36 H34 In3 N3 O25 Sm1 1-),n(H2 O1)
;
_journal_coden_Cambridge 4
_journal_volume 134
_journal_year 2012
_journal_page_first 4517
_journal_name_full 'J.Am.Chem.Soc. '
loop_
_publ_author_name
"Shou-Tian Zheng"
"Tao Wu"
"Chengtsung Chou"
"A.Fuhr"
"Pingyun Feng"
"X.Bu"
_chemical_name_systematic
;
catena-(Dimethylammonium 
(\m~6~-benzene-1,3,5-tricarboxylato)-bis(\m~3~-benzene-1,3,5-tricarboxylato)-t
etrakis(\m~3~-hydroxo)-tris(dimethylformamide)-tri-indium-samarium 
monohydrate)
;
_cell_volume   4813.540
_exptl_crystal_colour 'colorless'
_exptl_crystal_description 'block'
_diffrn_ambient_temperature 296
#These two values have been output from a single CSD field.
_refine_ls_R_factor_gt 0.036
_refine_ls_wR_factor_gt 0.036
_symmetry_cell_setting cubic
_symmetry_space_group_name_H-M 'P 21 3'
_symmetry_Int_Tables_number 198
loop_
_symmetry_equiv_pos_site_id
_symmetry_equiv_pos_as_xyz
1 x,y,z
2 1/2-x,-y,1/2+z
3 -x,1/2+y,1/2-z
4 1/2+x,1/2-y,-z
5 z,x,y
6 1/2+z,1/2-x,-y
7 1/2-z,-x,1/2+y
8 -z,1/2+x,1/2-y
9 y,z,x
10 -y,1/2+z,1/2-x
11 1/2+y,1/2-z,-x
12 1/2-y,-z,1/2+x
_cell_length_a 16.8845(2)
_cell_length_b 16.8845(2)
_cell_length_c 16.8845(2)
_cell_angle_alpha 90
_cell_angle_beta 90
_cell_angle_gamma 90
_cell_formula_units_Z 4
loop_
_atom_type_symbol
_atom_type_radius_bond
C 0.68
H 0.23
In 1.42
N 0.68
O 0.68
Sm 1.98
loop_
_atom_site_label
_atom_site_type_symbol
_atom_site_fract_x
_atom_site_fract_y
_atom_site_fract_z
Sm1 Sm 1.08394(3) 1.41606(3) 0.58394(3)
In1 In 0.99224(4) 1.61415(4) 0.54975(4)
O1 O 0.9398(3) 1.5602(3) 0.4398(3)
O2 O 1.0888(4) 1.5426(3) 0.5056(3)
O3 O 1.0384(4) 1.7186(4) 0.4996(4)
O4 O 1.0707(5) 1.3647(4) 0.7172(4)
O5 O 0.8869(4) 1.6632(4) 0.5968(4)
O6 O 0.8851(5) 1.5800(5) 0.7001(4)
C1 C 1.1229(6) 1.6271(5) 0.7738(5)
O7 O 0.9467(5) 1.7432(5) 0.4090(5)
C2 C 1.0957(7) 1.4023(8) 0.9244(6)
H1 H 1.15030 1.41670 0.91800
H2 H 1.09200 1.35660 0.95810
H3 H 1.06730 1.44560 0.94800
O8 O 1.0536(4) 1.6466(4) 0.6541(4)
N1 N 1.0617(5) 1.3841(5) 0.8477(5)
C3 C 1.0583(6) 1.8315(5) 0.4209(6)
C4 C 1.1248(6) 1.8535(6) 0.4632(6)
H4 H 1.14080 1.82330 0.50650
C5 C 1.0879(5) 1.5951(6) 0.6967(5)
C6 C 1.0099(6) 1.7595(6) 0.4436(7)
C7 C 1.1014(7) 1.3855(6) 0.7813(6)
H5 H 1.15380 1.40240 0.78180
C8 C 1.0903(5) 1.6947(6) 0.8094(5)
H6 H 1.04520 1.71830 0.78850
C9 C 0.8593(6) 1.6378(6) 0.6627(6)
C10 C 0.7503(5) 1.6555(5) 0.7618(5)
H7 H 0.76900 1.61130 0.78880
C11 C 0.7893(6) 1.6821(6) 0.6951(6)
C12 C 0.9802(7) 1.3631(8) 0.8487(7)
H8 H 0.96270 1.35260 0.79560
H9 H 0.94980 1.40600 0.87050
H10 H 0.97300 1.31660 0.88060
O9 O 1.0960(4) 1.5242(4) 0.6820(4)
O10 O 0.8068(9) 1.6932(9) 0.3068(9)
Sm1A Sm 0.41606(3) 1.58394(3) 1.08394(3)
Sm1A* Sm 1.41606(3) 1.58394(3) 1.08394(3)
Sm1B Sm 0.91606(3) 1.91606(3) 0.91606(3)
Sm1C Sm 0.58394(3) 2.08394(3) 0.41606(3)
In1D In 0.54975(4) 1.99224(4) 0.61415(4)
In1H In 0.61415(4) 1.54975(4) 0.99224(4)
In1A In 0.50776(4) 1.38585(4) 1.04975(4)
In1C In 0.49224(4) 1.88585(4) 0.45025(4)
In1E In 1.04975(4) 1.50776(4) 0.38585(4)
In1F In 0.95025(4) 2.00776(4) 0.11415(4)
In1G In 0.45025(4) 1.49224(4) 0.88585(4)
In1G* In 1.45025(4) 1.49224(4) 0.88585(4)
In1I In 0.38585(4) 2.04975(4) 0.50776(4)
In1I* In 1.38585(4) 2.04975(4) 0.50776(4)
In1J In 1.11415(4) 1.95025(4) 1.00776(4)
In1K In 0.88585(4) 1.45025(4) 0.49224(4)
O1A O 0.5602(3) 1.4398(3) 0.9398(3)
O1C O 0.4398(3) 1.9398(3) 0.5602(3)
O2D O 0.5056(4) 2.0888(3) 0.5426(3)
O2H O 0.5426(4) 1.5056(3) 1.0888(3)
O2C O 0.5888(4) 1.9574(3) 0.4944(3)
O2E O 1.0056(4) 1.4112(3) 0.4574(3)
O2G O 0.4944(4) 1.5888(3) 0.9574(3)
O2K O 0.9574(4) 1.4944(3) 0.5888(3)
O3F O 1.0004(4) 1.9616(4) 0.2186(4)
O3I O 1.2814(4) 1.9996(4) 0.4616(4)
O3D O 0.4996(4) 2.0384(4) 0.7186(4)
O3H O 0.7186(4) 1.4996(4) 1.0384(4)
O4E O 1.2172(5) 1.4293(4) 0.6353(4)
O4K O 1.1353(5) 1.2828(4) 0.5707(4)
O5D O 0.5968(4) 1.8869(4) 0.6632(4)
O5H O 0.6632(4) 1.5968(4) 0.8869(4)
O6D O 0.7001(5) 1.8851(5) 0.5800(4)
O6H O 0.5800(5) 1.7001(5) 0.8851(4)
C1G C 1.2262(6) 1.6229(5) 0.8729(5)
C1J C 1.1271(6) 1.7262(5) 0.8771(5)
O7F O 1.0910(5) 2.0533(5) 0.2432(5)
O7I O 1.2568(5) 1.9090(5) 0.5533(5)
C2E C 1.4244(7) 1.4043(8) 0.5977(6)
C2K C 1.0977(7) 1.0756(8) 0.5957(6)
H1E H 1.41800 1.34970 0.58330
H1K H 1.08330 1.08200 0.65030
H2E H 1.45810 1.40800 0.64340
H2K H 1.14340 1.04190 0.59200
H3E H 1.44800 1.43270 0.55440
H3K H 1.05440 1.05200 0.56730
O8G O 1.3459(4) 1.5536(4) 0.8534(4)
O8J O 1.1466(4) 1.8459(4) 0.9464(4)
O8D O 0.6541(4) 2.0536(4) 0.6466(4)
O8H O 0.6466(4) 1.6541(4) 1.0536(4)
N1E N 1.3477(5) 1.4383(5) 0.6159(5)
N1K N 1.1159(5) 1.1523(5) 0.5617(5)
C3F C 1.0791(6) 1.9417(5) 0.3315(6)
C3I C 1.1685(6) 1.9209(5) 0.4417(6)
C4F C 1.0368(6) 1.8752(6) 0.3535(6)
C4I C 1.1465(6) 1.9632(6) 0.3752(6)
H4F H 0.99350 1.85920 0.32330
H4I H 1.17670 2.00650 0.35920
C5G C 1.3033(5) 1.5879(6) 0.9049(5)
C5J C 1.0951(5) 1.8033(6) 0.9121(5)
C6F C 1.0564(6) 1.9901(6) 0.2595(7)
C6I C 1.2405(6) 1.9436(6) 0.4901(7)
C7E C 1.2813(7) 1.3986(6) 0.6145(6)
C7K C 1.1145(7) 1.2187(6) 0.6014(6)
H5E H 1.28180 1.34620 0.59760
H5K H 1.09760 1.21820 0.65380
C8G C 1.1906(5) 1.5903(6) 0.8053(5)
C8J C 1.1947(5) 1.6906(6) 0.9097(5)
H6G H 1.21150 1.54520 0.78170
H6J H 1.21830 1.71150 0.95480
C9D C 0.6627(6) 1.8593(6) 0.6378(6)
C9H C 0.6378(6) 1.6627(6) 0.8593(6)
C10D C 0.7618(5) 1.7503(5) 0.6555(5)
C10H C 0.6555(5) 1.7618(5) 0.7503(5)
H7D H 0.78880 1.76900 0.61130
H7H H 0.61130 1.78880 0.76900
C11D C 0.6951(6) 1.7893(6) 0.6821(6)
C11H C 0.6821(6) 1.6951(6) 0.7893(6)
C12E C 1.3487(7) 1.5198(8) 0.6369(7)
C12K C 1.1369(7) 1.1513(8) 0.4802(7)
H8E H 1.29560 1.53730 0.64740
H8K H 1.14740 1.20440 0.46270
H9E H 1.37050 1.55020 0.59400
H9K H 1.09400 1.12950 0.44980
H10E H 1.38060 1.52700 0.68340
H10K H 1.18340 1.11940 0.47300
O9G O 1.3180(4) 1.5960(4) 0.9758(4)
O9J O 1.0242(4) 1.8180(4) 0.9040(4)
O9E O 1.1820(4) 1.4040(4) 0.4758(4)
O9K O 0.9758(4) 1.3180(4) 0.5960(4)
#END
