
#######################################################################
#
#                 Cambridge Crystallographic Data Centre
#                                CCDC
#
#######################################################################
#
# If this CIF has been generated from an entry in the Cambridge
# Structural Database, then it will include bibliographic, chemical,
# crystal, experimental, refinement or atomic coordinate data resulting
# from the CCDC's data processing and validation procedures.
#
#######################################################################

data_CSD_CIF_WAVVIA
_audit_creation_date 2012-07-11
_audit_creation_method CSD-ConQuest-V1
_database_code_CSD WAVVIA
_database_code_depnum_ccdc_archive 'CCDC 749220'
_chemical_formula_sum 'C80 H75 Cu4 N8 O29.5'
_chemical_formula_moiety
;
(C80 H56 Cu3 N8 O20 1-)n,n(H12 Cu1 O6 1+),3.5n(H2 O1)
;
_journal_coden_Cambridge 222
_journal_volume 41
_journal_year 2012
_journal_page_first 1961
_journal_name_full 'Dalton Trans. '
loop_
_publ_author_name
"Yun Gong"
"JianBo Qin"
"Tao Wu"
"JingHua Li"
"Li Yang"
"Rong Cao"
_chemical_name_systematic
;
catena-(bis(\m~2~-3,3'4,4'-oxydiphthalato)-tetrakis(\m~2~-4,4'-ethene-1,2-diyl
dipyridine)-diaqua-tri-copper hexa-aqua-copper hydrate)
;
_cell_volume   4046.858
_exptl_crystal_colour 'blue'
_exptl_crystal_density_diffrn 1.539
_exptl_crystal_description 'prism'
_diffrn_ambient_temperature 293
#These two values have been output from a single CSD field.
_refine_ls_R_factor_gt 0.0605
_refine_ls_wR_factor_gt 0.0605
_symmetry_cell_setting monoclinic
_symmetry_space_group_name_H-M 'P 21/n'
_symmetry_Int_Tables_number 14
loop_
_symmetry_equiv_pos_site_id
_symmetry_equiv_pos_as_xyz
1 x,y,z
2 1/2-x,1/2+y,1/2-z
3 -x,-y,-z
4 -1/2+x,-1/2-y,-1/2+z
_cell_length_a 13.287(4)
_cell_length_b 18.455(5)
_cell_length_c 16.997(5)
_cell_angle_alpha 90
_cell_angle_beta 103.840(4)
_cell_angle_gamma 90
_cell_formula_units_Z 2
loop_
_atom_type_symbol
_atom_type_radius_bond
C 0.68
H 0.23
Cu 1.47
N 0.68
O 0.68
loop_
_atom_site_label
_atom_site_type_symbol
_atom_site_fract_x
_atom_site_fract_y
_atom_site_fract_z
Cu1 Cu 0.12997(3) 0.75466(2) 0.23873(3)
Cu2 Cu 0.00000 0.00000 0.50000
O1 O 0.17377(19) 0.69693(12) 0.33877(15)
N1 N 0.2793(2) 0.76401(15) 0.23364(19)
O2 O 0.1674(2) 0.61666(14) 0.24098(16)
N2 N 0.0792(2) -0.19880(16) 1.12843(18)
O3 O 0.2181(3) 0.42087(15) 0.55961(18)
O4 O 0.1937(2) 0.45246(15) 0.23132(17)
O5 O 0.0615(3) 0.09568(14) 0.51635(18)
C1 C 0.1871(3) 0.57320(17) 0.3761(2)
C2 C 0.0707(3) -0.0981(2) 1.0395(2)
H1 H 0.09150 -0.05110 1.03140
O6 O 0.0333(2) 0.48538(19) 0.23565(18)
C3 C 0.1814(3) 0.22357(19) 0.5485(2)
C4 C 0.6010(3) 0.7654(2) 0.2404(3)
H2 H 0.63890 0.80340 0.26890
C5 C 0.1760(2) 0.63185(18) 0.3137(2)
C6 C 0.1645(3) 0.50090(17) 0.3539(2)
C7 C 0.1703(3) 0.44892(19) 0.4145(2)
H3 H 0.15370 0.40090 0.40080
C8 C 0.0759(3) 0.21987(19) 0.5459(2)
C9 C 0.0120(3) -0.2333(2) 1.0689(2)
H4 H -0.00850 -0.27990 1.07880
C10 C 0.2231(3) 0.54064(19) 0.5171(2)
H5 H 0.24300 0.55370 0.57150
C11 C 0.3487(3) 0.7922(2) 0.2960(2)
H6 H 0.32570 0.81080 0.33940
C12 C 0.0032(3) -0.1346(2) 0.9770(2)
C13 C 0.0168(3) 0.1498(2) 0.5376(2)
C14 C 0.4165(3) 0.7355(2) 0.1717(2)
H7 H 0.43750 0.71480 0.12830
C15 C 0.1279(3) 0.4780(2) 0.2660(2)
C16 C 0.4888(3) 0.7646(2) 0.2357(3)
C17 C 0.3131(3) 0.7371(2) 0.1722(2)
H8 H 0.26500 0.71860 0.12770
O7 O 0.2786(3) 0.12142(19) 0.6102(2)
C18 C 0.2153(3) 0.59173(19) 0.4577(2)
H9 H 0.22920 0.64000 0.47220
O8 O -0.0707(3) 0.14833(19) 0.5521(3)
C19 C 0.4525(3) 0.7949(2) 0.2987(3)
H10 H 0.49830 0.81680 0.34220
O9 O 0.1368(2) 0.86558(15) 0.30591(19)
C20 C 0.0645(4) 0.3507(2) 0.5474(3)
H11 H 0.02590 0.39280 0.54700
O10 O 0.2794(3) 0.1494(2) 0.4835(2)
C21 C 0.2269(3) 0.2923(2) 0.5512(2)
H12 H 0.29730 0.29670 0.55370
C22 C 0.2516(3) 0.1585(2) 0.5481(3)
C23 C 0.1671(3) 0.35328(19) 0.5501(2)
C24 C 0.2010(3) 0.4691(2) 0.4951(2)
C25 C 0.1068(3) -0.1313(2) 1.1132(2)
H13 H 0.15200 -0.10600 1.15420
C26 C -0.0280(3) -0.2034(2) 0.9943(2)
H14 H -0.07580 -0.22900 0.95530
C27 C 0.0191(3) 0.2830(2) 0.5454(3)
H15 H -0.05120 0.27980 0.54380
C28 C -0.0281(3) -0.1068(2) 0.8937(2)
H16 H -0.08880 -0.12440 0.85990
Cu3 Cu 0.50000 1.00000 0.50000
O11 O 0.5840(3) 0.98253(18) 0.41292(18)
O12 O 0.5755(2) 0.91390(17) 0.57279(18)
O13 O 0.3818(3) 0.9292(2) 0.4333(2)
C29 C 0.6525(3) 0.7181(3) 0.2086(3)
H17 H 0.61710 0.67940 0.17940
O14 O 0.8345(4) 0.4580(3) 0.2695(4)
O15 O 0.2039(5) -0.0465(4) 0.5313(5)
O16 O 0.7256(6) 0.1956(6) 0.5134(6)
N3 N 0.9791(2) 0.73761(16) 0.23756(19)
C30 C 0.8273(3) 0.6639(2) 0.2189(3)
H18 H 0.79800 0.61780 0.21250
C31 C 0.7653(3) 0.7241(2) 0.2177(3)
C32 C 0.9187(3) 0.7957(2) 0.2367(3)
H19 H 0.94940 0.84130 0.24280
C33 C 0.8137(3) 0.7910(2) 0.2273(3)
H20 H 0.77480 0.83290 0.22730
C34 C 0.9336(3) 0.6723(2) 0.2299(3)
H21 H 0.97470 0.63120 0.23200
N4 N -0.0013(3) -0.00944(17) 0.6164(2)
C35 C -0.0806(3) -0.0518(2) 0.7200(2)
H22 H -0.13870 -0.07030 0.73450
C36 C -0.0825(3) -0.0382(2) 0.6400(2)
H23 H -0.14220 -0.04930 0.60070
C37 C 0.0256(3) -0.0582(2) 0.8647(2)
H24 H 0.07840 -0.03470 0.90190
C38 C 0.0832(4) 0.0081(2) 0.6735(3)
H25 H 0.13820 0.03030 0.65800
C39 C 0.0103(3) -0.0373(2) 0.7789(2)
C40 C 0.0918(3) -0.0054(2) 0.7542(3)
H26 H 0.15220 0.00680 0.79210
Cu1B Cu -0.12997(3) -0.75466(2) 0.76127(3)
Cu1* Cu 0.12997(3) -0.24534(2) 1.23873(3)
Cu1** Cu 1.12997(3) 0.75466(2) 0.23873(3)
Cu1B* Cu -0.12997(3) 0.24534(2) -0.23873(3)
Cu1*** Cu -0.87003(3) 0.75466(2) 0.23873(3)
O1B O -0.17377(19) -0.69693(12) 0.66123(15)
N1* N -0.7207(2) 0.76401(15) 0.23364(19)
N1B N -0.2793(2) -0.76401(15) 0.76636(19)
O2B O -0.1674(2) -0.61666(14) 0.75902(16)
N2B N -0.0792(2) 0.19880(16) -0.12843(18)
N2* N 0.0792(2) 0.80120(16) 0.12843(18)
N2B* N -0.0792(2) -0.80120(16) 0.87157(18)
O3B O -0.2181(3) -0.42087(15) 0.44039(18)
O4B O -0.1937(2) -0.45246(15) 0.76868(17)
O5B O -0.0615(3) -0.09568(14) 0.48365(18)
C1B C -0.1871(3) -0.57320(17) 0.6239(2)
C2B C -0.0707(3) 0.0981(2) -0.0395(2)
H1B H -0.09150 0.05110 -0.03140
O6B O -0.0333(2) -0.48538(19) 0.76435(18)
C3B C -0.1814(3) -0.22357(19) 0.4515(2)
C4* C -0.3990(3) 0.7654(2) 0.2404(3)
H2* H -0.36110 0.80340 0.26890
C5B C -0.1760(2) -0.63185(18) 0.6863(2)
C6B C -0.1645(3) -0.50090(17) 0.6461(2)
C7B C -0.1703(3) -0.44892(19) 0.5855(2)
H3B H -0.15370 -0.40090 0.59920
C8B C -0.0759(3) -0.21987(19) 0.4541(2)
C9B C -0.0120(3) 0.2333(2) -0.0689(2)
H4B H 0.00850 0.27990 -0.07880
C10B C -0.2231(3) -0.54064(19) 0.4829(2)
H5B H -0.24300 -0.55370 0.42850
C11* C -0.6513(3) 0.7922(2) 0.2960(2)
H6* H -0.67430 0.81080 0.33940
C12B C -0.0032(3) 0.1346(2) 0.0230(2)
C13B C -0.0168(3) -0.1498(2) 0.4624(2)
C14* C -0.5835(3) 0.7355(2) 0.1717(2)
H7* H -0.56250 0.71480 0.12830
C15B C -0.1279(3) -0.4780(2) 0.7340(2)
C16* C -0.5112(3) 0.7646(2) 0.2357(3)
C17* C -0.6869(3) 0.7371(2) 0.1722(2)
H8* H -0.73500 0.71860 0.12770
O7B O -0.2786(3) -0.12142(19) 0.3898(2)
C18B C -0.2153(3) -0.59173(19) 0.5423(2)
H9B H -0.22920 -0.64000 0.52780
O8B O 0.0707(3) -0.14833(19) 0.4479(3)
C19* C -0.5475(3) 0.7949(2) 0.2987(3)
H10* H -0.50170 0.81680 0.34220
O9B O -0.1368(2) -0.86558(15) 0.69409(19)
C20B C -0.0645(4) -0.3507(2) 0.4526(3)
H11B H -0.02590 -0.39280 0.45300
O10B O -0.2794(3) -0.1494(2) 0.5165(2)
C21B C -0.2269(3) -0.2923(2) 0.4488(2)
H12B H -0.29730 -0.29670 0.44630
C22B C -0.2516(3) -0.1585(2) 0.4519(3)
C23B C -0.1671(3) -0.35328(19) 0.4499(2)
C24B C -0.2010(3) -0.4691(2) 0.5049(2)
C25B C -0.1068(3) 0.1313(2) -0.1132(2)
H13B H -0.15200 0.10600 -0.15420
C26B C 0.0280(3) 0.2034(2) 0.0057(2)
H14B H 0.07580 0.22900 0.04470
C27B C -0.0191(3) -0.2830(2) 0.4546(3)
H15B H 0.05120 -0.27980 0.45620
C28B C 0.0281(3) 0.1068(2) 0.1063(2)
H16B H 0.08880 0.12440 0.14010
O11B O 0.4160(3) 1.01747(18) 0.58708(18)
O12B O 0.4245(2) 1.08610(17) 0.42721(18)
O13B O 0.6182(3) 1.0708(2) 0.5667(2)
C29* C -0.3475(3) 0.7181(3) 0.2086(3)
H17* H -0.38290 0.67940 0.17940
N3* N -0.0209(2) 0.73761(16) 0.23756(19)
N3B N 0.0209(2) -0.73761(16) 0.76244(19)
C30* C -0.1727(3) 0.6639(2) 0.2189(3)
H18* H -0.20200 0.61780 0.21250
C31* C -0.2347(3) 0.7241(2) 0.2177(3)
C32* C -0.0813(3) 0.7957(2) 0.2367(3)
H19* H -0.05060 0.84130 0.24280
C33* C -0.1863(3) 0.7910(2) 0.2273(3)
H20* H -0.22520 0.83290 0.22730
C34* C -0.0664(3) 0.6723(2) 0.2299(3)
H21* H -0.02530 0.63120 0.23200
N4B N 0.0013(3) 0.00944(17) 0.3836(2)
C35B C 0.0806(3) 0.0518(2) 0.2800(2)
H22B H 0.13870 0.07030 0.26550
C36B C 0.0825(3) 0.0382(2) 0.3600(2)
H23B H 0.14220 0.04930 0.39930
C37B C -0.0256(3) 0.0582(2) 0.1353(2)
H24B H -0.07840 0.03470 0.09810
C38B C -0.0832(4) -0.0081(2) 0.3265(3)
H25B H -0.13820 -0.03030 0.34200
C39B C -0.0103(3) 0.0373(2) 0.2211(2)
C40B C -0.0918(3) 0.0054(2) 0.2458(3)
H26B H -0.15220 -0.00680 0.20790
#END
