
#######################################################################
#
#                 Cambridge Crystallographic Data Centre
#                                CCDC
#
#######################################################################
#
# If this CIF has been generated from an entry in the Cambridge
# Structural Database, then it will include bibliographic, chemical,
# crystal, experimental, refinement or atomic coordinate data resulting
# from the CCDC's data processing and validation procedures.
#
#######################################################################

data_CSD_CIF_WAVWEX
_audit_creation_date 2012-07-11
_audit_creation_method CSD-ConQuest-V1
_database_code_CSD WAVWEX
_database_code_depnum_ccdc_archive 'CCDC 787899'
_chemical_formula_sum 'C58 H70 N4 O19 Zn2'
_chemical_formula_moiety
;
(C32 H12 O18 Zn2 4-)n,2n(C13 H28 N2 2+),n(H2 O1)
;
_journal_coden_Cambridge 222
_journal_volume 41
_journal_year 2012
_journal_page_first 1961
_journal_name_full 'Dalton Trans. '
loop_
_publ_author_name
"Yun Gong"
"JianBo Qin"
"Tao Wu"
"JingHua Li"
"Li Yang"
"Rong Cao"
_chemical_name_systematic
;
catena-(bis(4,4'-Propane-1,3-diyldipiperidinium) 
bis(\m~2~-2-carboxy-4-(4-carboxy-3-carboxylatophenoxy)benzoato)-di-zinc 
monohydrate)
;
_cell_volume   1407.034
_exptl_crystal_colour 'white'
_exptl_crystal_density_diffrn 1.482
_exptl_crystal_description 'prism'
_diffrn_ambient_temperature 293
#These two values have been output from a single CSD field.
_refine_ls_R_factor_gt 0.0483
_refine_ls_wR_factor_gt 0.0483
_symmetry_cell_setting triclinic
_symmetry_space_group_name_H-M 'P -1'
_symmetry_Int_Tables_number 2
loop_
_symmetry_equiv_pos_site_id
_symmetry_equiv_pos_as_xyz
1 x,y,z
2 -x,-y,-z
_cell_length_a 9.7725(9)
_cell_length_b 11.5217(10)
_cell_length_c 12.8609(13)
_cell_angle_alpha 99.200(4)
_cell_angle_beta 99.788(5)
_cell_angle_gamma 91.110(5)
_cell_formula_units_Z 1
loop_
_atom_type_symbol
_atom_type_radius_bond
C 0.68
H 0.23
N 0.68
O 0.68
Zn 1.22
loop_
_atom_site_label
_atom_site_type_symbol
_atom_site_fract_x
_atom_site_fract_y
_atom_site_fract_z
Zn1 Zn 0.79996(5) 0.07830(4) 0.49905(3)
O1 O 0.9020(3) 0.2128(2) 0.4700(2)
O2 O 1.0610(3) 0.3062(3) 0.4062(2)
O3 O 1.0522(4) -0.1334(3) 0.2774(3)
O4 O 0.3269(3) -0.0284(3) -0.3598(2)
O5 O 0.3539(3) 0.1409(3) -0.4171(2)
O6 O 1.0804(3) 0.0160(3) 0.4129(2)
O7 O 0.6509(3) 0.1198(3) -0.4174(2)
O8 O 0.7354(3) 0.2522(3) 0.0416(2)
O9 O 0.6947(3) 0.3116(3) -0.3493(2)
C1 C 0.8415(4) 0.0662(4) 0.0662(3)
H1 H 0.81730 0.03490 -0.00600
C2 C 0.9151(4) 0.0024(4) 0.1375(3)
H2 H 0.93880 -0.07340 0.11220
C3 C 0.9553(4) 0.0476(4) 0.2459(3)
C4 C 0.9211(4) 0.1622(3) 0.2836(3)
C5 C 0.8453(4) 0.2260(4) 0.2125(3)
H3 H 0.82150 0.30190 0.23710
C6 C 0.8047(4) 0.1781(4) 0.1056(3)
C7 C 0.9682(4) 0.2296(4) 0.3961(3)
C8 C 1.0344(4) -0.0303(4) 0.3166(3)
C9 C 0.6528(4) 0.2018(4) -0.0547(3)
C10 C 0.6856(4) 0.2307(4) -0.1479(3)
H4 H 0.76400 0.27870 -0.14530
C11 C 0.6012(4) 0.1879(3) -0.2459(3)
C12 C 0.4833(4) 0.1160(3) -0.2491(3)
C13 C 0.4519(4) 0.0879(4) -0.1539(3)
H5 H 0.37360 0.03990 -0.15570
C14 C 0.5362(4) 0.1309(4) -0.0563(3)
H6 H 0.51470 0.11230 0.00690
C15 C 0.3824(4) 0.0750(4) -0.3505(3)
C16 C 0.6524(4) 0.2118(4) -0.3459(3)
N1 N 0.0085(4) 0.3521(3) -0.3273(3)
H7 H -0.03880 0.35700 -0.39280
H8 H -0.02390 0.28690 -0.30740
N2 N 0.4311(4) 0.1791(4) 0.3952(3)
H9 H 0.51220 0.15110 0.38050
H10 H 0.41050 0.14750 0.45070
C17 C 0.2406(5) 0.3359(5) -0.2236(4)
H11 H 0.21200 0.26550 -0.19880
H12 H 0.33850 0.33170 -0.22800
C18 C 0.3122(5) 0.4511(5) -0.0363(4)
H13 H 0.40610 0.43710 -0.04870
H14 H 0.31260 0.53150 0.00050
C19 C 0.4467(7) 0.3092(5) 0.4257(4)
H15 H 0.52400 0.32990 0.48450
H16 H 0.36310 0.33870 0.44980
C20 C 0.3897(5) 0.3910(5) 0.1414(4)
H17 H 0.47720 0.36400 0.12280
H18 H 0.40220 0.47510 0.16670
C21 C 0.2795(5) 0.3709(4) 0.0391(4)
H19 H 0.27790 0.28950 0.00450
H20 H 0.18840 0.38650 0.05710
C22 C 0.3605(5) 0.3319(4) 0.2338(3)
H21 H 0.27220 0.35970 0.25240
C23 C 0.3467(5) 0.1982(4) 0.2066(4)
H22 H 0.27080 0.17530 0.14710
H23 H 0.43140 0.16880 0.18450
C24 C 0.4720(6) 0.3666(5) 0.3317(4)
H24 H 0.47580 0.45150 0.35270
H25 H 0.56140 0.34440 0.31370
C25 C -0.0182(5) 0.4542(4) -0.2527(4)
H26 H -0.11640 0.45380 -0.24860
H27 H 0.00540 0.52530 -0.27860
C26 C 0.0652(5) 0.4546(5) -0.1430(4)
H28 H 0.03120 0.39000 -0.11290
H29 H 0.05170 0.52740 -0.09710
C27 C 0.2193(5) 0.4431(4) -0.1445(3)
H30 H 0.24810 0.51080 -0.17440
C28 C 0.3201(5) 0.1428(4) 0.3006(4)
H31 H 0.23110 0.16620 0.31870
H32 H 0.31580 0.05780 0.28100
C29 C 0.1575(5) 0.3405(5) -0.3334(4)
H33 H 0.19140 0.40700 -0.36110
H34 H 0.16930 0.26930 -0.38200
O10 O 0.7968(8) 0.4694(5) 0.5069(4)
Zn1A Zn 0.20004(5) -0.07830(4) -0.49905(3)
Zn1* Zn -0.20004(5) 0.07830(4) -0.50095(3)
Zn1** Zn 0.79996(5) 0.07830(4) -0.50095(3)
Zn1A* Zn 0.20004(5) -0.07830(4) 0.50095(3)
Zn1A** Zn 1.20004(5) -0.07830(4) 0.50095(3)
O1A O 0.0980(3) -0.2128(2) -0.4700(2)
O2A O -0.0610(3) -0.3062(3) -0.4062(2)
O3A O -0.0522(4) 0.1334(3) -0.2774(3)
O4A O 0.6731(3) 0.0284(3) 0.3598(2)
O5A O 0.6461(3) -0.1409(3) 0.4171(2)
O6A O -0.0804(3) -0.0160(3) -0.4129(2)
O6* O 0.0804(3) 0.0160(3) -0.5871(2)
O6A* O 0.9196(3) -0.0160(3) 0.5871(2)
O7A O 0.3491(3) -0.1198(3) 0.4174(2)
O7* O 0.6509(3) 0.1198(3) 0.5826(2)
O7A* O 0.3491(3) -0.1198(3) -0.5826(2)
O8A O 0.2646(3) -0.2522(3) -0.0416(2)
O9A O 0.3053(3) -0.3116(3) 0.3493(2)
C1A C 0.1585(4) -0.0662(4) -0.0662(3)
H1A H 0.18270 -0.03490 0.00600
C2A C 0.0849(4) -0.0024(4) -0.1375(3)
H2A H 0.06120 0.07340 -0.11220
C3A C 0.0447(4) -0.0476(4) -0.2459(3)
C4A C 0.0789(4) -0.1622(3) -0.2836(3)
C5A C 0.1547(4) -0.2260(4) -0.2125(3)
H3A H 0.17850 -0.30190 -0.23710
C6A C 0.1953(4) -0.1781(4) -0.1056(3)
C7A C 0.0318(4) -0.2296(4) -0.3961(3)
C8A C -0.0344(4) 0.0303(4) -0.3166(3)
C9A C 0.3472(4) -0.2018(4) 0.0547(3)
C10A C 0.3144(4) -0.2307(4) 0.1479(3)
H4A H 0.23600 -0.27870 0.14530
C11A C 0.3988(4) -0.1879(3) 0.2459(3)
C12A C 0.5167(4) -0.1160(3) 0.2491(3)
C13A C 0.5481(4) -0.0879(4) 0.1539(3)
H5A H 0.62640 -0.03990 0.15570
C14A C 0.4638(4) -0.1309(4) 0.0563(3)
H6A H 0.48530 -0.11230 -0.00690
C15A C 0.6176(4) -0.0750(4) 0.3505(3)
C16A C 0.3476(4) -0.2118(4) 0.3459(3)
#END
