
#######################################################################
#
#                 Cambridge Crystallographic Data Centre
#                                CCDC
#
#######################################################################
#
# If this CIF has been generated from an entry in the Cambridge
# Structural Database, then it will include bibliographic, chemical,
# crystal, experimental, refinement or atomic coordinate data resulting
# from the CCDC's data processing and validation procedures.
#
#######################################################################

data_CSD_CIF_WAWKUD
_audit_creation_date 2017-04-19
_audit_creation_method CSD-ConQuest-V1
_database_code_CSD WAWKUD
_database_code_depnum_ccdc_archive 'CCDC 1520657'
_chemical_formula_sum 'C65 H65 In1 N6 O21'
_chemical_formula_moiety
;
(C48 H22 In1 O16 1-)n,n(C2 H8 N1 1+),5n(C3 H7 N1 O1)
;
_journal_coden_Cambridge 1147
_journal_volume 17
_journal_year 2017
_journal_page_first 2453
_journal_name_full 'Cryst.Growth Des. '
loop_
_publ_author_name
"Nian Zhao"
"Fuxing Sun"
"Ning Zhang"
"Guangshan Zhu"
_chemical_name_systematic
;
catena-[dimethylammonium 
(\m-5,5',5'',5'''-(pyrene-1,3,6,8-tetrayl)tetrakis(3-carboxybenzoato))-indium(
iii) N,N-dimethylformamide solvate]
;
_chemical_name_common
;
JUC-138
;
_cell_volume  10743.480
_exptl_crystal_colour 'colorless'
_exptl_crystal_description 'Block'
_diffrn_ambient_temperature 293
_refine_special_details
;
Disordered N,N-dimethylformamide solvent molecules and dimethylammonium 
cations were not modelled and the disordered density was taken into account 
using the SQUEEZE/PLATON procedure.
;
#These two values have been output from a single CSD field.
_refine_ls_R_factor_gt 0.0753
_refine_ls_wR_factor_gt 0.0753
_symmetry_cell_setting monoclinic
_symmetry_space_group_name_H-M 'C 2/c'
_symmetry_Int_Tables_number 15
loop_
_symmetry_equiv_pos_site_id
_symmetry_equiv_pos_as_xyz
1 x,y,z
2 -x,y,1/2-z
3 1/2+x,1/2+y,z
4 1/2-x,1/2+y,1/2-z
5 -x,-y,-z
6 x,-y,-1/2+z
7 -1/2-x,-1/2-y,-z
8 -1/2+x,-1/2-y,-1/2+z
_cell_length_a 27.8539(9)
_cell_length_b 11.6538(4)
_cell_length_c 33.5236(8)
_cell_angle_alpha 90
_cell_angle_beta 99.148(3)
_cell_angle_gamma 90
_cell_formula_units_Z 4
loop_
_atom_type_symbol
_atom_type_radius_bond
C 0.68
H 0.23
In 1.42
O 0.68
loop_
_atom_site_label
_atom_site_type_symbol
_atom_site_fract_x
_atom_site_fract_y
_atom_site_fract_z
C1 C 0.81503(19) 0.2406(6) 0.35660(18)
C2 C 0.86800(18) 0.2475(5) 0.35729(15)
C3 C 0.89031(18) 0.1881(5) 0.32861(15)
H1 H 0.87190 0.14070 0.30980
C4 C 0.93933(17) 0.2001(4) 0.32851(13)
C5 C 0.96694(16) 0.2702(4) 0.35620(13)
H2 H 1.00010 0.27730 0.35570
C6 C 0.94617(16) 0.3304(4) 0.38485(13)
C7 C 0.89672(18) 0.3192(5) 0.38433(14)
H3 H 0.88210 0.36110 0.40270
C8 C 0.96337(18) 0.1317(5) 0.29849(15)
C9 C 0.97508(16) 0.4108(4) 0.41249(13)
C10 C 1.00253(18) 0.4944(4) 0.39667(14)
H4 H 1.00320 0.49330 0.36900
C11 C 1.02853(15) 0.5780(4) 0.41927(13)
C12 C 1.02761(13) 0.5856(4) 0.46086(13)
C13 C 1.00070(16) 0.4975(4) 0.47857(12)
C14 C 0.97516(14) 0.4091(4) 0.45488(13)
C15 C 0.95229(17) 0.3214(4) 0.47405(14)
H5 H 0.93770 0.26060 0.45880
C16 C 1.04876(16) 0.6756(4) 0.48529(13)
H6 H 1.06390 0.73500 0.47350
C17 C 1.05700(14) 0.6598(4) 0.39849(13)
C18 C 1.03548(15) 0.7195(4) 0.36539(13)
H7 H 1.00210 0.71260 0.35710
C19 C 1.06214(16) 0.7900(4) 0.34386(13)
C20 C 1.11203(17) 0.7973(4) 0.35560(14)
H8 H 1.13030 0.84270 0.34080
C21 C 1.13515(16) 0.7384(5) 0.38899(14)
C22 C 1.10696(15) 0.6707(4) 0.41065(13)
H9 H 1.12180 0.63210 0.43360
C23 C 1.03819(16) 0.8583(4) 0.30875(14)
C24 C 1.18880(18) 0.7459(6) 0.40105(16)
In1 In 1.00000 0.99479(4) 0.25000
O1 O 0.78884(17) 0.1819(7) 0.33156(18)
O2 O 0.79936(12) 0.2963(4) 0.38522(12)
H10 H 0.76840 0.30750 0.38400
O3 O 0.93523(13) 0.0742(3) 0.27218(11)
O4 O 1.00770(12) 0.1301(3) 0.30054(10)
O5 O 0.99268(11) 0.8584(3) 0.29905(10)
O6 O 1.06468(12) 0.9142(3) 0.28831(10)
O7 O 1.21072(13) 0.8095(4) 0.37972(14)
O8 O 1.20838(13) 0.6891(5) 0.43025(14)
H11 H 1.23840 0.67570 0.43780
C1D C 1.18497(19) 0.7594(6) 0.64340(18)
C2D C 1.13200(18) 0.7525(5) 0.64271(15)
C3D C 1.10969(18) 0.8119(5) 0.67139(15)
H1D H 1.12810 0.85930 0.69020
C4D C 1.06067(17) 0.7999(4) 0.67149(13)
C5D C 1.03306(16) 0.7298(4) 0.64380(13)
H2D H 0.99990 0.72270 0.64430
C6D C 1.05383(16) 0.6696(4) 0.61515(13)
C7D C 1.10328(18) 0.6808(5) 0.61567(14)
H3D H 1.11790 0.63890 0.59730
C8D C 1.03663(18) 0.8683(5) 0.70151(15)
C9D C 1.02492(16) 0.5892(4) 0.58751(13)
C10D C 0.99747(18) 0.5056(4) 0.60333(14)
H4D H 0.99680 0.50670 0.63100
C11D C 0.97147(15) 0.4220(4) 0.58073(13)
C12D C 0.97239(13) 0.4144(4) 0.53914(13)
C13D C 0.99930(16) 0.5025(4) 0.52143(12)
C14D C 1.02484(14) 0.5909(4) 0.54512(13)
C15D C 1.04771(17) 0.6786(4) 0.52595(14)
H5D H 1.06230 0.73940 0.54120
C16D C 0.95124(16) 0.3244(4) 0.51471(13)
H6D H 0.93610 0.26500 0.52650
C17D C 0.94300(14) 0.3402(4) 0.60151(13)
C18D C 0.96452(15) 0.2805(4) 0.63461(13)
H7D H 0.99790 0.28740 0.64290
C19D C 0.93786(16) 0.2100(4) 0.65614(13)
C20D C 0.88797(17) 0.2027(4) 0.64440(14)
H8D H 0.86970 0.15730 0.65920
C21D C 0.86485(16) 0.2616(5) 0.61101(14)
C22D C 0.89304(15) 0.3293(4) 0.58935(13)
H9D H 0.87820 0.36790 0.56640
C23D C 0.96181(16) 0.1417(4) 0.69125(14)
C24D C 0.81120(18) 0.2541(6) 0.59895(16)
O1D O 1.21116(17) 0.8181(7) 0.66844(18)
O2D O 1.20064(12) 0.7037(4) 0.61478(12)
H10D H 1.23160 0.69250 0.61600
O3D O 1.06477(13) 0.9258(3) 0.72782(11)
O4D O 0.99230(12) 0.8699(3) 0.69946(10)
O5D O 1.00732(11) 0.1416(3) 0.70095(10)
O6D O 0.93532(12) 0.0858(3) 0.71169(10)
O7D O 0.78928(13) 0.1905(4) 0.62028(14)
O8D O 0.79162(13) 0.3109(5) 0.56975(14)
H11D H 0.76160 0.32430 0.56220
In1* In 1.00000 -0.00521(4) 0.25000
In1D In 1.00000 0.00521(4) 0.75000
In1D* In 1.00000 1.00521(4) 0.75000
O3* O 0.93523(13) 1.0742(3) 0.27218(11)
O3A O 1.06477(13) 1.0742(3) 0.22782(11)
O4* O 1.00770(12) 1.1301(3) 0.30054(10)
O4A O 0.99230(12) 1.1301(3) 0.19946(10)
O5A O 1.00732(11) 0.8584(3) 0.20095(10)
O6A O 0.93532(12) 0.9142(3) 0.21169(10)
#END
