
#######################################################################
#
#                 Cambridge Crystallographic Data Centre
#                                CCDC
#
#######################################################################
#
# If this CIF has been generated from an entry in the Cambridge
# Structural Database, then it will include bibliographic, chemical,
# crystal, experimental, refinement or atomic coordinate data resulting
# from the CCDC's data processing and validation procedures.
#
#######################################################################

data_CSD_CIF_WAWWAV
_audit_creation_date 2017-04-20
_audit_creation_method CSD-ConQuest-V1
_database_code_CSD WAWWAV
_database_code_depnum_ccdc_archive 'CCDC 1527582'
_chemical_formula_sum 'C10 H24 N2 Na2 O14 Pd1 S2'
_chemical_formula_moiety
;
(C10 H12 N2 Na1 O8 Pd1 S2 1-)n,n(H8 Na1 O4 1+),2(H2 O1)
;
_journal_coden_Cambridge 222
_journal_volume 46
_journal_year 2017
_journal_page_first 5801
_journal_name_full 'Dalton Trans. '
loop_
_publ_author_name
"Yu Cui"
"Zi-Man Chen"
"Xuan-Feng Jiang"
"Jin Tong"
"Shu-Yan Yu"
_chemical_name_systematic
;
catena-[bis(\m-aqua)-diaqua-sodium 
bis(\m-oxy(dioxo)sulfanyl)-diaqua-(2,2'-bipyridine)-palladium-sodium 
dihydrate]
;
_cell_volume   1090.475
_exptl_crystal_colour 'light yellow'
_exptl_crystal_density_diffrn 1.866
_exptl_crystal_description 'block'
_diffrn_ambient_temperature 100
#These two values have been output from a single CSD field.
_refine_ls_R_factor_gt 0.0489
_refine_ls_wR_factor_gt 0.0489
_symmetry_cell_setting triclinic
_symmetry_space_group_name_H-M 'P -1'
_symmetry_Int_Tables_number 2
loop_
_symmetry_equiv_pos_site_id
_symmetry_equiv_pos_as_xyz
1 x,y,z
2 -x,-y,-z
_cell_length_a 6.9785(3)
_cell_length_b 11.4585(4)
_cell_length_c 14.2260(5)
_cell_angle_alpha 80.189(3)
_cell_angle_beta 88.135(3)
_cell_angle_gamma 76.622(3)
_cell_formula_units_Z 2
loop_
_atom_type_symbol
_atom_type_radius_bond
C 0.68
H 0.23
N 0.68
Na 1.66
O 0.68
Pd 1.39
S 1.02
loop_
_atom_site_label
_atom_site_type_symbol
_atom_site_fract_x
_atom_site_fract_y
_atom_site_fract_z
Pd1 Pd 0.26466(4) 0.52640(2) 0.19562(2)
N1 N 0.3530(5) 0.4101(3) 0.0914(3)
N2 N 0.1594(5) 0.6446(3) 0.0671(3)
C1 C 0.4421(6) 0.2914(4) 0.1077(3)
H1 H 0.48910 0.25630 0.16890
C2 C 0.4673(7) 0.2191(5) 0.0382(4)
H2 H 0.53090 0.13730 0.05200
C3 C 0.3964(7) 0.2705(5) -0.0524(4)
H3 H 0.41130 0.22360 -0.10060
C4 C 0.3028(7) 0.3924(5) -0.0709(3)
H4 H 0.25560 0.42850 -0.13190
C5 C 0.2799(6) 0.4607(4) 0.0026(3)
C6 C 0.1796(6) 0.5908(4) -0.0114(3)
C7 C 0.1087(7) 0.6567(5) -0.0994(3)
H5 H 0.11980 0.61840 -0.15260
C8 C 0.0218(7) 0.7789(5) -0.1076(3)
H6 H -0.02850 0.82360 -0.16590
C9 C 0.0106(7) 0.8339(5) -0.0283(3)
H7 H -0.04340 0.91690 -0.03260
C10 C 0.0811(7) 0.7637(4) 0.0584(3)
H8 H 0.07360 0.80090 0.11210
S1 S 0.42772(14) 0.39761(9) 0.31927(7)
S2 S 0.09292(14) 0.64623(9) 0.29439(7)
O1 O 0.4626(4) 0.4511(3) 0.4018(2)
O2 O 0.3171(4) 0.3008(3) 0.3482(2)
O3 O 0.6215(4) 0.3424(3) 0.2794(2)
O4 O 0.0545(4) 0.5817(3) 0.3889(2)
O5 O 0.1962(4) 0.7438(3) 0.3033(2)
O6 O -0.0982(4) 0.7018(3) 0.2437(2)
Na1 Na 0.2497(2) 0.49006(15) 0.52973(12)
O7 O 0.4054(4) 0.3065(3) 0.6313(2)
H9 H 0.32920 0.29430 0.67720
H10 H 0.52950 0.30400 0.64700
O8 O 0.0827(5) 0.6569(3) 0.5984(2)
H11 H -0.02410 0.65510 0.61570
H12 H 0.14610 0.65340 0.63620
Na2 Na 0.7531(2) 0.00308(15) 0.49352(11)
O9 O 1.0553(4) -0.1350(3) 0.4641(2)
H13 H 1.07800 -0.18320 0.50230
H14 H 1.09360 -0.16370 0.41390
O10 O 0.7883(5) 0.0913(3) 0.3290(2)
H15 H 0.72780 0.14970 0.32020
H16 H 0.91800 0.08470 0.33240
O11 O 0.4473(4) 0.1353(3) 0.5144(2)
H17 H 0.43190 0.18270 0.56000
H18 H 0.41000 0.18220 0.46640
O12 O 0.8102(5) -0.0879(3) 0.6617(2)
H19 H 0.76400 -0.05180 0.70330
H20 H 0.762(10) -0.132(6) 0.666(5)
O13 O 0.6838(5) 0.0481(3) 0.8014(2)
H21 H 0.53950 0.05520 0.81030
H22 H 0.70520 0.09770 0.78100
O14 O 0.2852(5) 0.0504(3) 0.8046(2)
H23 H 0.22510 0.10770 0.79400
H24 H 0.27460 0.01530 0.76730
O1A O 0.5374(4) 0.5489(3) 0.5982(2)
O4A O -0.0545(4) 0.4183(3) 0.6111(2)
Na1A Na -0.2497(2) 0.50994(15) 0.47027(12)
Na1A* Na 0.7503(2) 0.50994(15) 0.47027(12)
Na2A Na 0.2469(2) -0.00308(15) 0.50648(11)
Na2A* Na 1.2469(2) -0.00308(15) 0.50648(11)
O9A O 0.9447(4) 0.1350(3) 0.5359(2)
O11A O 0.5527(4) -0.1353(3) 0.4856(2)
#END
