
#######################################################################
#
#                 Cambridge Crystallographic Data Centre
#                                CCDC
#
#######################################################################
#
# If this CIF has been generated from an entry in the Cambridge
# Structural Database, then it will include bibliographic, chemical,
# crystal, experimental, refinement or atomic coordinate data resulting
# from the CCDC's data processing and validation procedures.
#
#######################################################################

data_CSD_CIF_WAXRAQ
_audit_creation_date 2012-05-22
_audit_creation_method CSD-ConQuest-V1
_database_code_CSD WAXRAQ
_database_code_depnum_ccdc_archive 'CCDC 847708'
_chemical_formula_sum 'C84 H86 N56 Ni7 O79 P2 W22'
_chemical_formula_moiety
;
(C30 H30 N20 Ni4 O78 P2 W22 6-)n,3n(C18 H18 N12 Ni1 2+),n(H2 O1)
;
_journal_coden_Cambridge 644
_journal_volume 66
_journal_year 2011
_journal_page_first 1237
_journal_name_full 'Z.Naturforsch.,B:Chem.Sci. '
loop_
_publ_author_name
"Lin-Heng Wei"
"Zi-liang Wang"
"Ming-Xue Li"
_chemical_name_systematic
;
catena-[tris(tris(2,2'-Biimidazole)-nickel) 
bis(\m~12~-phosphato)-dopentacosakis(\m~2~-oxo)-(\m~2~-2,2'-biimidazole)-octad
ecaoxo-tetrakis(2,2'-biimidazole)-tetra-nickel-docosa-tungsten monohydrate]
;
_cell_volume  16186.422
_exptl_crystal_colour 'yellow'
_exptl_crystal_density_diffrn 3.143
_exptl_crystal_description 'block'
_diffrn_ambient_temperature 296
#These two values have been output from a single CSD field.
_refine_ls_R_factor_gt 0.0522
_refine_ls_wR_factor_gt 0.0522
_symmetry_cell_setting monoclinic
_symmetry_space_group_name_H-M 'C 2/c'
_symmetry_Int_Tables_number 15
loop_
_symmetry_equiv_pos_site_id
_symmetry_equiv_pos_as_xyz
1 x,y,z
2 -x,y,1/2-z
3 1/2+x,1/2+y,z
4 1/2-x,1/2+y,1/2-z
5 -x,-y,-z
6 x,-y,-1/2+z
7 -1/2-x,-1/2-y,-z
8 -1/2+x,-1/2-y,-1/2+z
_cell_length_a 29.111(6)
_cell_length_b 26.407(5)
_cell_length_c 25.128(8)
_cell_angle_alpha 90
_cell_angle_beta 123.076(2)
_cell_angle_gamma 90
_cell_formula_units_Z 4
loop_
_atom_type_symbol
_atom_type_radius_bond
C 0.68
H 0.23
N 0.68
Ni 1.28
O 0.68
P 1.05
W 1.40
loop_
_atom_site_label
_atom_site_type_symbol
_atom_site_fract_x
_atom_site_fract_y
_atom_site_fract_z
P1 P 0.27592(15) 0.47692(14) -0.07699(18)
W1 W 0.16399(3) 0.39527(3) -0.18244(3)
W2 W 0.28142(3) 0.38917(3) -0.18129(4)
W3 W 0.27080(3) 0.43084(3) 0.05291(3)
W4 W 0.26503(3) 0.56001(3) 0.02842(4)
W5 W 0.15552(3) 0.48516(3) -0.07379(4)
W6 W 0.15866(3) 0.53533(3) -0.20803(4)
W7 W 0.26864(3) 0.61115(3) -0.10666(4)
W8 W 0.27605(3) 0.52965(3) -0.20804(3)
W9 W 0.39388(3) 0.55326(3) 0.03042(3)
W10 W 0.39600(3) 0.42341(3) 0.05260(3)
W11 W 0.40059(3) 0.47261(3) -0.07192(3)
Ni1 Ni 0.27855(8) 0.35029(8) -0.05852(10)
Ni2 Ni 0.32921(9) 0.39030(8) 0.22011(11)
Ni3 Ni 0.01542(11) 0.31952(10) 0.52205(12)
Ni4 Ni 0.00000 0.20427(14) 0.25000
C1 C 0.3367(9) 0.2531(8) -0.0229(11)
H1 H 0.35950 0.26650 -0.03470
C2 C 0.3419(9) 0.2054(9) 0.0017(12)
H2 H 0.36720 0.18070 0.00810
C3 C 0.2731(7) 0.2467(8) -0.0044(9)
C4 C 0.2377(8) 0.3201(8) 0.2252(8)
H3 H 0.22330 0.34240 0.24120
C5 C 0.2227(8) 0.2708(8) 0.2099(9)
H4 H 0.19580 0.25350 0.21190
C6 C 0.2874(8) 0.2896(7) 0.1935(9)
C7 C 0.3310(8) 0.2897(7) 0.1809(9)
C8 C 0.3872(9) 0.2736(9) 0.1516(10)
H5 H 0.40570 0.25810 0.13540
C9 C 0.3943(8) 0.3207(7) 0.1737(9)
H6 H 0.41980 0.34320 0.17590
C10 C 0.4012(8) 0.4817(8) 0.2141(10)
H7 H 0.38090 0.49000 0.17110
C11 C 0.4466(9) 0.5049(7) 0.2575(10)
H8 H 0.46320 0.53200 0.25070
C12 C 0.4283(7) 0.4449(6) 0.3001(9)
C13 C 0.4242(7) 0.4108(7) 0.3423(8)
C14 C 0.4322(8) 0.3669(8) 0.4224(11)
H9 H 0.44420 0.35490 0.46280
C15 C 0.3874(8) 0.3519(7) 0.3666(10)
H10 H 0.36330 0.32670 0.36240
C16 C 0.0587(8) 0.1270(8) 0.2053(10)
H11 H 0.03230 0.12340 0.16220
C17 C 0.1111(8) 0.1068(9) 0.238(1)
H12 H 0.12630 0.08680 0.22080
C18 C 0.0992(8) 0.1474(7) 0.3034(10)
C19 C 0.1056(8) 0.1748(8) 0.3582(11)
C20 C 0.1297(11) 0.2082(8) 0.4467(13)
H13 H 0.15100 0.21870 0.48880
C21 C 0.0776(10) 0.2227(8) 0.4050(12)
H14 H 0.05630 0.24310 0.41340
C22 C -0.0890(12) 0.2740(11) 0.2538(12)
H15 H -0.11120 0.25000 0.25630
C23 C -0.0978(16) 0.3264(14) 0.2465(17)
H16 H -0.12730 0.34350 0.24280
C24 C -0.0235(11) 0.3081(10) 0.2515(13)
C25 C 0.0275(9) 0.2785(9) 0.6533(10)
H17 H 0.04500 0.30600 0.68020
C26 C 0.0172(9) 0.2367(9) 0.6710(11)
H18 H 0.02560 0.22880 0.71150
C27 C -0.0114(8) 0.2347(8) 0.5708(10)
C28 C -0.0321(8) 0.2191(7) 0.5065(9)
C29 C -0.0450(9) 0.2291(9) 0.4134(11)
H19 H -0.04260 0.24170 0.38040
C30 C -0.0737(9) 0.1856(10) 0.4105(11)
H20 H -0.09540 0.16450 0.37600
C31 C 0.0086(11) 0.3787(9) 0.4039(11)
H21 H -0.02870 0.38530 0.37780
C32 C 0.0468(12) 0.3969(11) 0.3937(13)
H22 H 0.04100 0.41590 0.35940
C33 C 0.0850(11) 0.3518(9) 0.4799(13)
C34 C 0.122(1) 0.3267(10) 0.5417(13)
C35 C 0.1902(13) 0.3032(13) 0.6308(16)
H23 H 0.22540 0.29660 0.66530
C36 C 0.1443(10) 0.2891(10) 0.6266(11)
H24 H 0.14240 0.27120 0.65720
C37 C -0.1146(11) 0.3479(11) 0.4153(12)
H25 H -0.12830 0.31810 0.39210
C38 C -0.1419(11) 0.3928(14) 0.4006(13)
H26 H -0.17660 0.39980 0.36510
C39 C -0.0587(9) 0.3997(11) 0.4901(13)
C40 C -0.0100(9) 0.4197(9) 0.5467(12)
C41 C 0.0549(11) 0.4587(10) 0.6287(15)
H27 H 0.07460 0.48310 0.65980
C42 C 0.0723(10) 0.4152(9) 0.6225(11)
H28 H 0.10790 0.40340 0.65000
N1 N 0.2921(6) 0.2790(5) -0.0279(7)
N2 N 0.3018(7) 0.2020(7) 0.0150(8)
H29 H 0.29590 0.17680 0.03220
N3 N 0.2770(6) 0.3321(6) 0.2135(7)
N4 N 0.3591(6) 0.3320(5) 0.1932(7)
N5 N 0.3468(7) 0.2521(6) 0.1575(7)
H30 H 0.33440 0.22170 0.14830
N6 N 0.2552(7) 0.2519(6) 0.1912(9)
H31 H 0.25520 0.22120 0.17990
N7 N 0.3881(6) 0.4441(6) 0.2406(7)
N8 N 0.3823(6) 0.3787(6) 0.3172(7)
N9 N 0.4565(6) 0.4045(6) 0.4061(8)
H32 H 0.48630 0.42060 0.43190
N10 N 0.4649(7) 0.4815(6) 0.3146(8)
H33 H 0.49340 0.48880 0.35130
N11 N 0.0532(6) 0.1534(6) 0.2490(8)
N12 N 0.0619(7) 0.2015(7) 0.3474(9)
N13 N 0.1464(7) 0.1770(7) 0.4196(8)
H34 H 0.17720 0.16120 0.43770
N14 N 0.1356(7) 0.1211(6) 0.2978(8)
H35 H 0.16890 0.11470 0.32770
N15 N -0.0418(9) 0.2651(7) 0.2565(9)
N16 N -0.0563(13) 0.3479(11) 0.2456(13)
H36 H -0.05140 0.37950 0.24220
N17 N 0.0098(7) 0.2781(6) 0.5904(8)
N18 N -0.0204(7) 0.2504(6) 0.4742(8)
N19 N -0.0623(7) 0.1817(6) 0.4707(8)
H37 H -0.07380 0.15750 0.48340
N20 N -0.0089(7) 0.2059(6) 0.6181(8)
H38 H -0.02080 0.17560 0.61530
N21 N 0.0322(8) 0.3491(7) 0.4577(8)
N22 N 0.1002(8) 0.3055(6) 0.5692(8)
N23 N 0.1780(9) 0.3290(11) 0.5768(12)
H39 H 0.19960 0.34270 0.56780
N24 N 0.0954(11) 0.3810(11) 0.4450(11)
H40 H 0.12740 0.38870 0.45340
N25 N -0.0628(7) 0.3536(7) 0.4707(8)
N26 N 0.0335(7) 0.3894(7) 0.5723(8)
N27 N 0.0002(9) 0.4607(9) 0.5785(11)
H41 H -0.02250 0.48490 0.57040
N28 N -0.1069(8) 0.4263(8) 0.4503(10)
H42 H -0.11390 0.45700 0.45490
O1 O 0.1012(6) 0.3710(5) -0.2359(6)
O2 O 0.2911(5) 0.3586(5) -0.2350(6)
O3 O 0.2784(5) 0.4048(5) 0.1199(6)
O4 O 0.2678(5) 0.6087(5) 0.0745(6)
O5 O 0.0909(5) 0.4883(5) -0.0882(6)
O6 O 0.0950(5) 0.5549(5) -0.2682(6)
O7 O 0.2717(6) 0.6760(5) -0.1054(6)
O8 O 0.2856(5) 0.4521(5) 0.2330(5)
O9 O 0.4396(5) 0.5985(5) 0.0768(6)
O10 O 0.4500(5) 0.3929(5) 0.1183(6)
O11 O 0.4514(5) 0.4682(5) -0.0856(6)
O12 O 0.1515(5) 0.4297(5) -0.1226(6)
O13 O 0.1551(5) 0.4663(4) -0.2154(6)
O14 O 0.2038(5) 0.3832(5) -0.2226(6)
O15 O 0.1973(5) 0.3431(5) -0.1280(5)
O16 O 0.2660(5) 0.4598(4) -0.2166(5)
O17 O 0.3529(5) 0.4187(4) -0.1225(6)
O18 O 0.2936(5) 0.3378(4) -0.1275(5)
O19 O 0.1936(5) 0.4467(4) 0.0027(6)
O20 O 0.2618(5) 0.3782(4) 0.0033(6)
O21 O 0.3452(4) 0.4384(4) 0.0755(5)
O22 O 0.2773(5) 0.5035(4) 0.0782(5)
O23 O 0.1889(5) 0.5444(4) -0.0188(6)
O24 O 0.1486(5) 0.5280(4) -0.1388(6)
O25 O 0.3384(5) 0.5566(5) 0.0509(6)
O26 O 0.2514(5) 0.5960(4) -0.0445(5)
O27 O 0.1925(5) 0.5997(4) -0.1692(5)
O28 O 0.1990(5) 0.5394(5) -0.2490(5)
O29 O 0.3402(5) 0.5913(5) -0.0442(6)
O30 O 0.2829(4) 0.5940(4) -0.1702(5)
O31 O 0.3483(5) 0.5166(4) -0.1393(5)
O32 O 0.4239(4) 0.4954(4) 0.0807(5)
O33 O 0.4231(5) 0.5299(4) -0.0172(5)
O34 O 0.3565(5) 0.3732(4) 0.0013(6)
O35 O 0.4301(4) 0.4329(4) 0.0038(5)
O36 O 0.2583(4) 0.4251(4) -0.1097(5)
O37 O 0.2523(5) 0.4849(4) -0.0365(5)
O38 O 0.2552(5) 0.5189(5) -0.1267(5)
O39 O 0.3391(4) 0.4800(4) -0.0349(5)
O40 O 0.00000 0.4500(9) 0.25000
P1E P 0.27592(15) 0.52308(14) 0.42301(18)
W1E W 0.16399(3) 0.60473(3) 0.31756(3)
W2E W 0.28142(3) 0.61083(3) 0.31871(4)
W3E W 0.27080(3) 0.56916(3) 0.55291(3)
W4E W 0.26503(3) 0.43999(3) 0.52842(4)
W5E W 0.15552(3) 0.51484(3) 0.42621(4)
W6E W 0.15866(3) 0.46467(3) 0.29197(4)
W7E W 0.26864(3) 0.38885(3) 0.39334(4)
W8E W 0.27605(3) 0.47035(3) 0.29196(3)
W9E W 0.39388(3) 0.44674(3) 0.53042(3)
W10E W 0.39600(3) 0.57659(3) 0.55260(3)
W11E W 0.40059(3) 0.52739(3) 0.42808(3)
Ni1F Ni 0.22145(8) 0.14971(8) 0.05852(10)
Ni1E Ni 0.27855(8) 0.64971(8) 0.44148(10)
Ni2E Ni 0.32921(9) 0.60970(8) -0.27989(11)
Ni2E* Ni 0.32921(9) 0.60970(8) 0.72011(11)
C1F C 0.1633(9) 0.2469(8) 0.0229(11)
H1F H 0.14050 0.23350 0.03470
C2F C 0.1581(9) 0.2946(9) -0.0017(12)
H2F H 0.13280 0.31930 -0.00810
C3F C 0.2269(7) 0.2533(8) 0.0044(9)
C4E C 0.2377(8) 0.6799(8) -0.2748(8)
H3E H 0.22330 0.65760 -0.25880
C5E C 0.2227(8) 0.7292(8) -0.2901(9)
H4E H 0.19580 0.74650 -0.28810
C6E C 0.2874(8) 0.7104(7) -0.3065(9)
C7E C 0.3310(8) 0.7103(7) -0.3191(9)
C8E C 0.3872(9) 0.7264(9) -0.3484(10)
H5E H 0.40570 0.74190 -0.36460
C9E C 0.3943(8) 0.6793(7) -0.3263(9)
H6E H 0.41980 0.65680 -0.32410
C10E C 0.4012(8) 0.5183(8) -0.2859(10)
H7E H 0.38090 0.51000 -0.32890
C11E C 0.4466(9) 0.4951(7) -0.2425(10)
H8E H 0.46320 0.46800 -0.24930
C12E C 0.4283(7) 0.5551(6) -0.1999(9)
C13E C 0.4242(7) 0.5892(7) -0.1577(8)
C14E C 0.4322(8) 0.6331(8) -0.0776(11)
H9E H 0.44420 0.64510 -0.03720
C15E C 0.3874(8) 0.6481(7) -0.1334(10)
H10E H 0.36330 0.67330 -0.13760
C16A C -0.0587(8) 0.1270(8) 0.2947(10)
H11A H -0.03230 0.12340 0.33780
C17A C -0.1111(8) 0.1068(9) 0.262(1)
H12A H -0.12630 0.08680 0.27920
C18A C -0.0992(8) 0.1474(7) 0.1966(10)
C19A C -0.1056(8) 0.1748(8) 0.1418(11)
C20A C -0.1297(11) 0.2082(8) 0.0533(13)
H13A H -0.15100 0.21870 0.01120
C21A C -0.0776(10) 0.2227(8) 0.0950(12)
H14A H -0.05630 0.24310 0.08660
C22A C 0.0890(12) 0.2740(11) 0.2462(12)
H15A H 0.11120 0.25000 0.24370
C23A C 0.0978(16) 0.3264(14) 0.2535(17)
H16A H 0.12730 0.34350 0.25720
C24A C 0.0235(11) 0.3081(10) 0.2485(13)
N1F N 0.2079(6) 0.2210(5) 0.0279(7)
N2F N 0.1982(7) 0.2980(7) -0.0150(8)
H29F H 0.20410 0.32320 -0.03220
N3E N 0.2770(6) 0.6679(6) -0.2865(7)
N4E N 0.3591(6) 0.6680(5) -0.3068(7)
N5E N 0.3468(7) 0.7479(6) -0.3425(7)
H30E H 0.33440 0.77830 -0.35170
N6E N 0.2552(7) 0.7481(6) -0.3088(9)
H31E H 0.25520 0.77880 -0.32010
N7E N 0.3881(6) 0.5559(6) -0.2594(7)
N8E N 0.3823(6) 0.6213(6) -0.1828(7)
N9E N 0.4565(6) 0.5955(6) -0.0939(8)
H32E H 0.48630 0.57940 -0.06810
N10E N 0.4649(7) 0.5185(6) -0.1854(8)
H33E H 0.49340 0.51120 -0.14870
N11A N -0.0532(6) 0.1534(6) 0.2510(8)
N12A N -0.0619(7) 0.2015(7) 0.1526(9)
N13A N -0.1464(7) 0.1770(7) 0.0804(8)
H34A H -0.17720 0.16120 0.06230
N14A N -0.1356(7) 0.1211(6) 0.2022(8)
H35A H -0.16890 0.11470 0.17230
N15A N 0.0418(9) 0.2651(7) 0.2435(9)
N16A N 0.0563(13) 0.3479(11) 0.2544(13)
H36A H 0.05140 0.37950 0.25780
O1E O 0.1012(6) 0.6290(5) 0.2641(6)
O2E O 0.2911(5) 0.6414(5) 0.2650(6)
O3E O 0.2784(5) 0.5952(5) -0.3801(6)
O3E* O 0.2784(5) 0.5952(5) 0.6199(6)
O4E O 0.2678(5) 0.3913(5) 0.5745(6)
O5E O 0.0909(5) 0.5117(5) 0.4118(6)
O6E O 0.0950(5) 0.4451(5) 0.2318(6)
O7E O 0.2717(6) 0.3240(5) 0.3946(6)
O8E O 0.2856(5) 0.5479(5) -0.2670(5)
O9E O 0.4396(5) 0.4015(5) 0.5768(6)
O10E O 0.4500(5) 0.6071(5) 0.6183(6)
O11E O 0.4514(5) 0.5318(5) 0.4144(6)
O12E O 0.1515(5) 0.5703(5) 0.3774(6)
O13E O 0.1551(5) 0.5337(4) 0.2846(6)
O14E O 0.2038(5) 0.6168(5) 0.2774(6)
O15E O 0.1973(5) 0.6569(5) 0.3720(5)
O15F O 0.3027(5) 0.1569(5) 0.1280(5)
O16E O 0.2660(5) 0.5402(4) 0.2834(5)
O17E O 0.3529(5) 0.5813(4) 0.3775(6)
O18E O 0.2936(5) 0.6622(4) 0.3725(5)
O18F O 0.2064(5) 0.1622(4) 0.1275(5)
O19E O 0.1936(5) 0.5533(4) 0.5027(6)
O20E O 0.2618(5) 0.6218(4) 0.5033(6)
O20F O 0.2382(5) 0.1218(4) -0.0033(6)
O21E O 0.3452(4) 0.5616(4) 0.5755(5)
O22E O 0.2773(5) 0.4965(4) 0.5782(5)
O23E O 0.1889(5) 0.4556(4) 0.4812(6)
O24E O 0.1486(5) 0.4720(4) 0.3612(6)
O25E O 0.3384(5) 0.4434(5) 0.5509(6)
O26E O 0.2514(5) 0.4040(4) 0.4555(5)
O27E O 0.1925(5) 0.4003(4) 0.3308(5)
O28E O 0.1990(5) 0.4606(5) 0.2510(5)
O29E O 0.3402(5) 0.4087(5) 0.4558(6)
O30E O 0.2829(4) 0.4060(4) 0.3298(5)
O31E O 0.3483(5) 0.4834(4) 0.3607(5)
O32E O 0.4239(4) 0.5046(4) 0.5807(5)
O33E O 0.4231(5) 0.4701(4) 0.4828(5)
O34E O 0.3565(5) 0.6268(4) 0.5013(6)
O34F O 0.1435(5) 0.1268(4) -0.0013(6)
O35E O 0.4301(4) 0.5671(4) 0.5038(5)
O36E O 0.2583(4) 0.5749(4) 0.3903(5)
O36F O 0.2417(4) 0.0749(4) 0.1097(5)
O37E O 0.2523(5) 0.5151(4) 0.4635(5)
O38E O 0.2552(5) 0.4811(5) 0.3733(5)
O39E O 0.3391(4) 0.5200(4) 0.4651(5)
#END
