
#######################################################################
#
#                 Cambridge Crystallographic Data Centre
#                                CCDC
#
#######################################################################
#
# If this CIF has been generated from an entry in the Cambridge
# Structural Database, then it will include bibliographic, chemical,
# crystal, experimental, refinement or atomic coordinate data resulting
# from the CCDC's data processing and validation procedures.
#
#######################################################################

data_CSD_CIF_WAZRAT
_audit_creation_date 2017-08-22
_audit_creation_method CSD-ConQuest-V1
_database_code_CSD WAZRAT
_database_code_depnum_ccdc_archive 'CCDC 991329'
_chemical_formula_sum 'C56 H56 Cu4 N16 O40 Si1 W12'
_chemical_formula_moiety
;
(C28 H28 Cu2 N8 2+)2n,O40 Si1 W12 4-
;
_journal_coden_Cambridge 211
_journal_volume 67
_journal_year 2014
_journal_page_first 2820
_journal_name_full 'J.Coord.Chem. '
loop_
_publ_author_name
"Chunyan Zhao"
"Huiyuan Ma"
"Haijun Pang"
"Shaobin Li"
"Yan Yu"
"Tingting Yu"
"Zhuanfang Zhang"
_chemical_name_systematic
;
catena-(bis(bis(\m-1,1'-[1,4-phenylenebis(methylene)]bis(1H-pyrazole))-di-copp
er(i)) (\m-silicato)-tetracosakis(\m-oxo)-dodecaoxo-dodeca-tungsten unknown 
solvate)
;
_cell_volume   9263.362
_exptl_crystal_colour 'blue'
_exptl_crystal_density_diffrn 2.973
_exptl_crystal_description 'block'
_diffrn_ambient_temperature 296
_refine_special_details
;
The structure is disordered; The SQUEEZE/PLATON program has been used to 
model some disorder.
;
#These two values have been output from a single CSD field.
_refine_ls_R_factor_gt 0.0774
_refine_ls_wR_factor_gt 0.0774
_symmetry_cell_setting monoclinic
_symmetry_space_group_name_H-M 'C 2/c'
_symmetry_Int_Tables_number 15
loop_
_symmetry_equiv_pos_site_id
_symmetry_equiv_pos_as_xyz
1 x,y,z
2 -x,y,1/2-z
3 1/2+x,1/2+y,z
4 1/2-x,1/2+y,1/2-z
5 -x,-y,-z
6 x,-y,-1/2+z
7 -1/2-x,-1/2-y,-z
8 -1/2+x,-1/2-y,-1/2+z
_cell_length_a 18.228(5)
_cell_length_b 22.470(5)
_cell_length_c 22.666(5)
_cell_angle_alpha 90
_cell_angle_beta 93.785(5)
_cell_angle_gamma 90
_cell_formula_units_Z 4
loop_
_atom_type_symbol
_atom_type_radius_bond
C 0.68
H 0.23
Cu 1.32
N 0.68
O 0.68
Si 1.20
W 1.62
loop_
_atom_site_label
_atom_site_type_symbol
_atom_site_fract_x
_atom_site_fract_y
_atom_site_fract_z
W1 W 0.61408(5) 0.16877(4) 0.56804(5)
W2 W 0.79785(6) 0.16764(4) 0.62857(4)
W3 W 0.67351(5) 0.12190(4) 0.43125(4)
W4 W 0.93235(5) 0.24756(5) 0.56013(5)
W5 W 0.85485(5) 0.11909(4) 0.49273(4)
W6 W 0.68997(6) 0.29765(5) 0.63576(4)
O1 O 1.0201(8) 0.2465(8) 0.5900(8)
O2 O 0.6352(12) 0.1191(10) 0.5068(9)
O3 O 0.6342(9) 0.3504(8) 0.5837(7)
O4 O 0.8832(13) 0.2112(10) 0.6218(10)
O5 O 0.8163(10) 0.1299(7) 0.6902(7)
O6 O 0.7590(8) 0.0910(8) 0.4681(7)
O7 O 0.6023(12) 0.1799(9) 0.4114(9)
O8 O 0.5506(8) 0.1291(7) 0.6001(8)
O9 O 0.6359(10) 0.0610(7) 0.3990(8)
O10 O 0.8262(12) 0.114(1) 0.5710(8)
O11 O 0.7006(11) 0.1417(9) 0.6078(9)
O12 O 0.8132(12) 0.2084(9) 0.5325(10)
O13 O 0.6612(8) 0.3203(9) 0.6991(7)
O14 O 0.9059(9) 0.0583(7) 0.4885(9)
O15 O 0.9298(12) 0.1745(10) 0.5193(10)
O16 O 0.7722(10) 0.3480(8) 0.6292(8)
O17 O 0.6196(12) 0.2381(10) 0.6152(10)
O18 O 0.7587(13) 0.2366(11) 0.6590(11)
O19 O 0.5574(13) 0.215(1) 0.5135(10)
O20 O 0.8241(11) 0.2897(9) 0.511(1)
O21 O 0.7341(11) 0.3081(9) 0.5379(9)
O22 O 0.7792(14) 0.2705(9) 0.4334(10)
Si1 Si 0.75000 0.25000 0.50000
N1 N 0.8525(16) 0.8373(13) 0.6142(13)
N2 N 0.6662(10) 0.9004(7) 0.5714(10)
N3 N 0.6517(11) 0.9598(8) 0.5713(9)
N4 N 0.8742(12) 1.0716(10) 0.8327(10)
N5 N 0.8984(14) 1.0153(10) 0.8407(10)
N6 N 0.9089(18) 0.8258(16) 0.5754(15)
Cu1 Cu 0.76019(18) 0.86866(18) 0.58813(17)
Cu2 Cu 0.7791(3) 1.0947(2) 0.8042(4)
C1 C 0.737(2) 0.9690(16) 0.7526(15)
H1 H 0.70730 0.96260 0.78380
C2 C 0.7043(18) 0.9754(15) 0.6935(14)
H2 H 0.65400 0.97100 0.68520
C3 C 0.7497(17) 0.9882(13) 0.6507(13)
C4 C 0.8531(17) 0.9830(13) 0.7170(13)
H3 H 0.90390 0.98490 0.72370
C5 C 0.8244(16) 0.9915(13) 0.6597(13)
H4 H 0.85430 0.99920 0.62890
C6 C 0.8138(17) 0.9723(13) 0.7637(13)
C7 C 0.731(2) 0.8357(16) 0.4275(15)
H5 H 0.70560 0.80450 0.40880
C8 C 0.7170(15) 0.9975(13) 0.5862(12)
H6 H 0.70340 1.03900 0.58090
H7 H 0.75450 0.98850 0.55910
C9 C 0.949(3) 0.819(2) 0.659(3)
H8 H 0.98250 0.80910 0.69010
C10 C 0.963(3) 0.819(2) 0.605(2)
H9 H 1.00990 0.81560 0.59180
C11 C 0.5857(19) 0.9708(16) 0.5574(15)
H10 H 0.56450 1.00850 0.55510
C12 C 0.5490(16) 0.9172(17) 0.5458(17)
H11 H 0.49940 0.91090 0.53560
C13 C 0.849(2) 0.9673(15) 0.8258(15)
H12 H 0.81050 0.96680 0.85350
H13 H 0.87530 0.92990 0.82970
C14 C 0.6036(15) 0.8768(13) 0.5530(12)
H14 H 0.59720 0.83630 0.54560
C15 C 0.9686(19) 1.0148(16) 0.8664(15)
H15 H 0.99720 0.98150 0.87610
C16 C 0.987(2) 1.0695(16) 0.8744(15)
H16 H 1.03230 1.08290 0.89060
C17 C 0.9319(19) 1.1030(13) 0.8562(15)
H17 H 0.93220 1.14430 0.85910
C18 C 0.878(2) 0.8330(18) 0.6657(19)
H18 H 0.85460 0.83840 0.70050
C19 C 0.799(2) 0.8205(15) 0.4640(16)
H19 H 0.81530 0.78170 0.47120
C20 C 0.705(2) 0.8885(16) 0.4196(17)
C21 C 0.841(3) 0.875(2) 0.488(2)
C22 C 0.913(3) 0.870(2) 0.527(2)
H20 H 0.92520 0.90900 0.54420
H21 H 0.95260 0.85920 0.50240
N7 N 0.6813(15) 0.8792(14) 0.2944(14)
C23 C 0.6584(19) 0.8401(16) 0.2513(15)
H22 H 0.68180 0.83250 0.21680
C24 C 0.595(2) 0.8141(17) 0.2674(18)
H23 H 0.56820 0.78550 0.24590
C25 C 0.579(2) 0.8371(18) 0.3205(17)
H24 H 0.53920 0.82710 0.34160
N8 N 0.632(2) 0.8774(16) 0.3372(13)
C26 C 0.634(3) 0.914(2) 0.3896(18)
H25 H 0.59190 0.90750 0.41260
H26 H 0.63870 0.95600 0.38070
C27 C 0.749(2) 0.9351(18) 0.4469(18)
H27 H 0.73310 0.97440 0.44470
C28 C 0.810(2) 0.9231(18) 0.4732(18)
H28 H 0.83750 0.95660 0.48390
O12F O 0.6868(12) 0.2916(9) 0.4675(10)
O20F O 0.6759(11) 0.2103(9) 0.489(1)
O21F O 0.7659(11) 0.1919(9) 0.4621(9)
O22F O 0.7208(14) 0.2295(9) 0.5666(10)
W1F W 0.88592(5) 0.33123(4) 0.43196(5)
W2F W 0.70215(6) 0.33236(4) 0.37143(4)
W3F W 0.82649(5) 0.37810(4) 0.56875(4)
W4F W 0.56765(5) 0.25244(5) 0.43987(5)
W5F W 0.64515(5) 0.38091(4) 0.50727(4)
W6F W 0.81003(6) 0.20235(5) 0.36424(4)
O1F O 0.4799(8) 0.2535(8) 0.4100(8)
O2F O 0.8648(12) 0.3809(10) 0.4932(9)
O3F O 0.8658(9) 0.1496(8) 0.4163(7)
O4F O 0.6168(13) 0.2888(10) 0.3782(10)
O5F O 0.6837(10) 0.3701(7) 0.3098(7)
O6F O 0.7410(8) 0.4090(8) 0.5319(7)
O7F O 0.8977(12) 0.3201(9) 0.5886(9)
O8F O 0.9494(8) 0.3709(7) 0.3999(8)
O9F O 0.8641(10) 0.4390(7) 0.6010(8)
O10F O 0.6738(12) 0.386(1) 0.4290(8)
O11F O 0.7994(11) 0.3583(9) 0.3922(9)
O13F O 0.8388(8) 0.1797(9) 0.3009(7)
O14F O 0.5941(9) 0.4417(7) 0.5115(9)
O15F O 0.5702(12) 0.3255(10) 0.4807(10)
O16F O 0.7278(10) 0.1520(8) 0.3708(8)
O17F O 0.8804(12) 0.2619(10) 0.3848(10)
O18F O 0.7413(13) 0.2634(11) 0.3410(11)
O19F O 0.9426(13) 0.285(1) 0.4865(10)
Cu2E Cu 0.7791(3) 0.9053(2) 0.3042(4)
N7E N 0.6813(15) 1.1208(14) 0.7944(14)
#END
