
#######################################################################
#
#                 Cambridge Crystallographic Data Centre
#                                CCDC
#
#######################################################################
#
# If this CIF has been generated from an entry in the Cambridge
# Structural Database, then it will include bibliographic, chemical,
# crystal, experimental, refinement or atomic coordinate data resulting
# from the CCDC's data processing and validation procedures.
#
#######################################################################

data_CSD_CIF_WEBKOF
_audit_creation_date 2012-11-16
_audit_creation_method CSD-ConQuest-V1
_database_code_CSD WEBKOF
_database_code_depnum_ccdc_archive 'CCDC 879983'
_chemical_formula_sum 'C128 H164 In5 N7 O48 Zn1'
_chemical_formula_moiety
;
(C72 H24 In5 O48 Zn1 7-)n,7n(C8 H20 N1 1+)
;
_journal_coden_Cambridge 4
_journal_volume 134
_journal_year 2012
_journal_page_first 11936
_journal_name_full 'J.Am.Chem.Soc. '
loop_
_publ_author_name
"Shou-Tian Zheng"
"Chengyu Mao"
"Tao Wu"
"Sangyune Lee"
"Pingyun Feng"
"Xianhui Bu"
_chemical_name_systematic
;
catena-(heptakis(di-n-butylammonium) 
octakis(\m~3~-benzene-1,3,5-tricarboxylato)-zinc-penta-indium)
;
_chemical_name_common
;
CPM-26-Zn
;
_cell_volume   8933.430
_exptl_crystal_density_diffrn 1.193
_diffrn_ambient_temperature 296
_refine_special_details
;
The disordered cation molecules were not modelled and the disordered density 
was taken into account using the SQUEEZE/PLATON procedure.
;
#These two values have been output from a single CSD field.
_refine_ls_R_factor_gt 0.0482
_refine_ls_wR_factor_gt 0.0482
_symmetry_cell_setting tetragonal
_symmetry_space_group_name_H-M 'I -4'
_symmetry_Int_Tables_number 82
loop_
_symmetry_equiv_pos_site_id
_symmetry_equiv_pos_as_xyz
1 x,y,z
2 -x,-y,z
3 y,-x,-z
4 -y,x,-z
5 1/2+x,1/2+y,1/2+z
6 1/2-x,1/2-y,1/2+z
7 1/2+y,1/2-x,1/2-z
8 1/2-y,1/2+x,1/2-z
_cell_length_a 22.7219(3)
_cell_length_b 22.7219(3)
_cell_length_c 17.3033(6)
_cell_angle_alpha 90
_cell_angle_beta 90
_cell_angle_gamma 90
_cell_formula_units_Z 2
loop_
_atom_type_symbol
_atom_type_radius_bond
C 0.68
H 0.23
In 1.42
O 0.68
Zn 1.22
loop_
_atom_site_label
_atom_site_type_symbol
_atom_site_fract_x
_atom_site_fract_y
_atom_site_fract_z
In1 In 0.79933(2) 0.79987(2) 0.40891(3)
In2 In 0.50000 0.50000 0.50000
Zn1 Zn 0.50000 1.00000 0.75000
O1 O 0.7791(3) 0.7582(2) 0.5232(3)
O2 O 0.7304(3) 0.7014(3) 0.7875(3)
O3 O 0.7121(3) 0.8507(3) 0.4388(4)
O4 O 0.6528(3) 0.6481(3) 0.8091(3)
O5 O 0.7303(2) 1.1361(3) 0.6161(3)
O6 O 0.8022(3) 1.1057(3) 0.5409(3)
O7 O 0.7980(3) 0.8902(3) 0.4622(4)
O8 O 0.7332(3) 0.7215(2) 0.4234(3)
O9 O 0.5532(3) 0.5444(3) 0.5907(4)
O10 O 0.5780(3) 0.5640(3) 0.4731(4)
O11 O 0.5721(3) 1.0069(3) 0.6905(5)
O12 O 0.5456(3) 0.9290(3) 0.6174(5)
C1 C 0.6350(4) 0.6096(3) 0.5735(4)
C2 C 0.6418(4) 0.6177(4) 0.6509(6)
H1 H 0.61840 0.59680 0.68540
C3 C 0.7420(4) 0.7238(3) 0.4942(5)
C4 C 0.6841(4) 0.6575(4) 0.6789(4)
C5 C 0.6659(4) 0.6408(4) 0.5231(5)
H2 H 0.65990 0.63490 0.47050
C6 C 0.7186(4) 0.6894(4) 0.6278(5)
H3 H 0.74800 0.71440 0.64580
C7 C 0.5827(5) 0.5707(4) 0.5480(5)
C8 C 0.7079(4) 0.6831(4) 0.5477(5)
C9 C 0.7214(4) 1.0372(3) 0.5706(5)
C10 C 0.6708(4) 1.0296(4) 0.6048(5)
H4 H 0.65570 1.05980 0.63530
C11 C 0.6592(4) 0.9323(4) 0.5470(6)
H5 H 0.63730 0.89890 0.53570
C12 C 0.7148(4) 0.9395(4) 0.5137(6)
C13 C 0.6364(4) 0.9745(4) 0.5966(6)
C14 C 0.7484(4) 0.9919(3) 0.5227(5)
H6 H 0.78500 0.99700 0.49960
C15 C 0.7456(5) 0.8918(4) 0.4609(6)
C16 C 0.5779(5) 0.9684(6) 0.6362(7)
C17 C 0.7516(4) 1.0945(5) 0.5794(5)
C18 C 0.6889(6) 0.6708(4) 0.7635(6)
In1A In 0.20067(2) 0.20013(2) 0.40891(3)
In1B In 0.79987(2) 0.20067(2) 0.59109(3)
In1C In 0.20013(2) 0.79933(2) 0.59109(3)
In1* In -0.20067(2) 0.79987(2) 0.40891(3)
In1A* In 1.20067(2) 0.20013(2) 0.40891(3)
In1B* In 0.79987(2) 1.20067(2) 0.59109(3)
In1C* In 0.20013(2) -0.20067(2) 0.59109(3)
In1D In 0.29933(2) 0.29987(2) 0.90891(3)
In1E In 0.70067(2) 0.70013(2) 0.90891(3)
In1F In 0.29987(2) 0.70067(2) 0.09109(3)
In1G In 0.70013(2) 0.29933(2) 0.09109(3)
Zn1* Zn 0.50000 0.00000 0.75000
Zn1B Zn 0.00000 0.50000 0.25000
Zn1B* Zn 1.00000 0.50000 0.25000
O1A O 0.2209(3) 0.2418(2) 0.5232(3)
O1B O 0.7582(3) 0.2209(2) 0.4768(3)
O1C O 0.2418(3) 0.7791(2) 0.4768(3)
O2A O 0.2696(3) 0.2986(3) 0.7875(3)
O2B O 0.7014(3) 0.2696(3) 0.2125(3)
O2C O 0.2986(3) 0.7304(3) 0.2125(3)
O2D O 0.2304(3) 0.2014(3) 0.2875(3)
O2E O 0.7696(3) 0.7986(3) 0.2875(3)
O2F O 0.2014(3) 0.7696(3) 0.7125(3)
O2G O 0.7986(3) 0.2304(3) 0.7125(3)
O3A O 0.2879(3) 0.1493(3) 0.4388(4)
O3B O 0.8507(3) 0.2879(3) 0.5612(4)
O3C O 0.1493(3) 0.7121(3) 0.5612(4)
O4A O 0.3472(3) 0.3519(3) 0.8091(3)
O4B O 0.6481(3) 0.3472(3) 0.1909(3)
O4C O 0.3519(3) 0.6528(3) 0.1909(3)
O4D O 0.1528(3) 0.1481(3) 0.3091(3)
O4E O 0.8472(3) 0.8519(3) 0.3091(3)
O4F O 0.1481(3) 0.8472(3) 0.6909(3)
O4G O 0.8519(3) 0.1528(3) 0.6909(3)
O5A O 0.2697(2) -0.1361(3) 0.6161(3)
O5B O 1.1361(2) 0.2697(3) 0.3839(3)
O5C O -0.1361(2) 0.7303(3) 0.3839(3)
O5* O 0.7303(2) 0.1361(3) 0.6161(3)
O5A* O 0.2697(2) 0.8639(3) 0.6161(3)
O5B* O 0.1361(2) 0.2697(3) 0.3839(3)
O5C* O 0.8639(2) 0.7303(3) 0.3839(3)
O6A O 0.1978(3) -0.1057(3) 0.5409(3)
O6B O 1.1057(3) 0.1978(3) 0.4591(3)
O6C O -0.1057(3) 0.8022(3) 0.4591(3)
O6* O 0.8022(3) 0.1057(3) 0.5409(3)
O6A* O 0.1978(3) 0.8943(3) 0.5409(3)
O6B* O 0.1057(3) 0.1978(3) 0.4591(3)
O6C* O 0.8943(3) 0.8022(3) 0.4591(3)
O7A O 0.2020(3) 0.1098(3) 0.4622(4)
O7B O 0.8902(3) 0.2020(3) 0.5378(4)
O7C O 0.1098(3) 0.7980(3) 0.5378(4)
O8A O 0.2668(3) 0.2785(2) 0.4234(3)
O8B O 0.7215(3) 0.2668(2) 0.5766(3)
O8C O 0.2785(3) 0.7332(2) 0.5766(3)
O9A O 0.4468(3) 0.4556(3) 0.5907(4)
O9B O 0.5444(3) 0.4468(3) 0.4093(4)
O9C O 0.4556(3) 0.5532(3) 0.4093(4)
O10A O 0.4220(3) 0.4360(3) 0.4731(4)
O10B O 0.5640(3) 0.4220(3) 0.5269(4)
O10C O 0.4360(3) 0.5780(3) 0.5269(4)
O11A O 0.4279(3) -0.0069(3) 0.6905(5)
O11B O 1.0069(3) 0.4279(3) 0.3095(5)
O11C O -0.0069(3) 0.5721(3) 0.3095(5)
O11A* O 0.4279(3) 0.9931(3) 0.6905(5)
O11F O 0.5069(3) 0.9279(3) 0.8095(5)
O11G O 0.4931(3) 1.0721(3) 0.8095(5)
O12A O 0.4544(3) 0.0710(3) 0.6174(5)
O12B O 0.9290(3) 0.4544(3) 0.3826(5)
O12C O 0.0710(3) 0.5456(3) 0.3826(5)
C1A C 0.3650(4) 0.3904(3) 0.5735(4)
C1B C 0.6096(4) 0.3650(3) 0.4265(4)
C1C C 0.3904(4) 0.6350(3) 0.4265(4)
C2A C 0.3582(4) 0.3823(4) 0.6509(6)
C2B C 0.6177(4) 0.3582(4) 0.3491(6)
C2C C 0.3823(4) 0.6418(4) 0.3491(6)
H1A H 0.38160 0.40320 0.68540
H1B H 0.59680 0.38160 0.31460
H1C H 0.40320 0.61840 0.31460
C3A C 0.2580(4) 0.2762(3) 0.4942(5)
C3B C 0.7238(4) 0.2580(3) 0.5058(5)
C3C C 0.2762(4) 0.7420(3) 0.5058(5)
C4A C 0.3159(4) 0.3425(4) 0.6789(4)
C4B C 0.6575(4) 0.3159(4) 0.3211(4)
C4C C 0.3425(4) 0.6841(4) 0.3211(4)
C5A C 0.3341(4) 0.3592(4) 0.5231(5)
C5B C 0.6408(4) 0.3341(4) 0.4769(5)
C5C C 0.3592(4) 0.6659(4) 0.4769(5)
H2A H 0.34010 0.36510 0.47050
H2B H 0.63490 0.34010 0.52950
H2C H 0.36510 0.65990 0.52950
C6A C 0.2814(4) 0.3106(4) 0.6278(5)
C6B C 0.6894(4) 0.2814(4) 0.3722(5)
C6C C 0.3106(4) 0.7186(4) 0.3722(5)
H3A H 0.25200 0.28560 0.64580
H3B H 0.71440 0.25200 0.35420
H3C H 0.28560 0.74800 0.35420
C7A C 0.4173(5) 0.4293(4) 0.5480(5)
C7B C 0.5707(5) 0.4173(4) 0.4520(5)
C7C C 0.4293(5) 0.5827(4) 0.4520(5)
C8A C 0.2921(4) 0.3169(4) 0.5477(5)
C8B C 0.6831(4) 0.2921(4) 0.4523(5)
C8C C 0.3169(4) 0.7079(4) 0.4523(5)
C9A C 0.2786(4) -0.0372(3) 0.5706(5)
C9B C 1.0372(4) 0.2786(3) 0.4294(5)
C9C C -0.0372(4) 0.7214(3) 0.4294(5)
C10A C 0.3292(4) -0.0296(4) 0.6048(5)
C10B C 1.0296(4) 0.3292(4) 0.3952(5)
C10C C -0.0296(4) 0.6708(4) 0.3952(5)
H4A H 0.34430 -0.05980 0.63530
H4B H 1.05980 0.34430 0.36470
H4C H -0.05980 0.65570 0.36470
C11A C 0.3408(4) 0.0677(4) 0.5470(6)
C11B C 0.9323(4) 0.3408(4) 0.4530(6)
C11C C 0.0677(4) 0.6592(4) 0.4530(6)
H5A H 0.36270 0.10110 0.53570
H5B H 0.89890 0.36270 0.46430
H5C H 0.10110 0.63730 0.46430
C12A C 0.2852(4) 0.0605(4) 0.5137(6)
C12B C 0.9395(4) 0.2852(4) 0.4863(6)
C12C C 0.0605(4) 0.7148(4) 0.4863(6)
C13A C 0.3636(4) 0.0255(4) 0.5966(6)
C13B C 0.9745(4) 0.3636(4) 0.4034(6)
C13C C 0.0255(4) 0.6364(4) 0.4034(6)
C14A C 0.2516(4) 0.0081(3) 0.5227(5)
C14B C 0.9919(4) 0.2516(3) 0.4773(5)
C14C C 0.0081(4) 0.7484(3) 0.4773(5)
H6A H 0.21500 0.00300 0.49960
H6B H 0.99700 0.21500 0.50040
H6C H 0.00300 0.78500 0.50040
C15A C 0.2544(5) 0.1082(4) 0.4609(6)
C15B C 0.8918(5) 0.2544(4) 0.5391(6)
C15C C 0.1082(5) 0.7456(4) 0.5391(6)
C16A C 0.4221(5) 0.0316(6) 0.6362(7)
C16B C 0.9684(5) 0.4221(6) 0.3638(7)
C16C C 0.0316(5) 0.5779(6) 0.3638(7)
C17A C 0.2484(4) -0.0945(5) 0.5794(5)
C17B C 1.0945(4) 0.2484(5) 0.4206(5)
C17C C -0.0945(4) 0.7516(5) 0.4206(5)
C17* C 0.7516(4) 0.0945(5) 0.5794(5)
C17A* C 0.2484(4) 0.9055(5) 0.5794(5)
C17B* C 0.0945(4) 0.2484(5) 0.4206(5)
C17C* C 0.9055(4) 0.7516(5) 0.4206(5)
C18A C 0.3111(6) 0.3292(4) 0.7635(6)
C18B C 0.6708(6) 0.3111(4) 0.2365(6)
C18C C 0.3292(6) 0.6889(4) 0.2365(6)
C18D C 0.1889(6) 0.1708(4) 0.2635(6)
C18E C 0.8111(6) 0.8292(4) 0.2635(6)
C18F C 0.1708(6) 0.8111(4) 0.7365(6)
C18G C 0.8292(6) 0.1889(4) 0.7365(6)
#END
