
#######################################################################
#
#                 Cambridge Crystallographic Data Centre
#                                CCDC
#
#######################################################################
#
# If this CIF has been generated from an entry in the Cambridge
# Structural Database, then it will include bibliographic, chemical,
# crystal, experimental, refinement or atomic coordinate data resulting
# from the CCDC's data processing and validation procedures.
#
#######################################################################

data_CSD_CIF_WEBKIZ
_audit_creation_date 2012-11-16
_audit_creation_method CSD-ConQuest-V1
_database_code_CSD WEBKIZ
_database_code_depnum_ccdc_archive 'CCDC 879982'
_chemical_formula_sum 'C128 H164 Co1 In5 N7 O48'
_chemical_formula_moiety
;
(C72 H24 Co1 In5 O48 7-)n,7n(C8 H20 N1 1+)
;
_journal_coden_Cambridge 4
_journal_volume 134
_journal_year 2012
_journal_page_first 11936
_journal_name_full 'J.Am.Chem.Soc. '
loop_
_publ_author_name
"Shou-Tian Zheng"
"Chengyu Mao"
"Tao Wu"
"Sangyune Lee"
"Pingyun Feng"
"Xianhui Bu"
_chemical_name_systematic
;
catena-(heptakis(di-n-butylammonium) 
octakis(\m~3~-benzene-1,3,5-tricarboxylato)-cobalt-penta-indium)
;
_cell_volume   8907.951
_exptl_crystal_density_diffrn 1.194
_exptl_special_details
;
CPM-26-Co

;
_diffrn_ambient_temperature 296
_refine_special_details
;
The disordered cation molecules were not modelled and the disordered density 
was taken into account using the SQUEEZE/PLATON procedure.
;
#These two values have been output from a single CSD field.
_refine_ls_R_factor_gt 0.0661
_refine_ls_wR_factor_gt 0.0661
_symmetry_cell_setting tetragonal
_symmetry_space_group_name_H-M 'I -4'
_symmetry_Int_Tables_number 82
loop_
_symmetry_equiv_pos_site_id
_symmetry_equiv_pos_as_xyz
1 x,y,z
2 -x,-y,z
3 y,-x,-z
4 -y,x,-z
5 1/2+x,1/2+y,1/2+z
6 1/2-x,1/2-y,1/2+z
7 1/2+y,1/2-x,1/2-z
8 1/2-y,1/2+x,1/2-z
_cell_length_a 22.7880(16)
_cell_length_b 22.7880(16)
_cell_length_c 17.1540(3)
_cell_angle_alpha 90
_cell_angle_beta 90
_cell_angle_gamma 90
_cell_formula_units_Z 2
loop_
_atom_type_symbol
_atom_type_radius_bond
C 0.68
H 0.23
Co 1.26
In 1.42
O 0.68
loop_
_atom_site_label
_atom_site_type_symbol
_atom_site_fract_x
_atom_site_fract_y
_atom_site_fract_z
In1 In 1.00000 0.50000 0.75000
In2 In 0.80218(4) 0.29900(4) 1.15944(4)
Co1 Co 1.00000 0.00000 1.50000
O1 O 0.8012(5) 0.2709(4) 1.0356(4)
O2 O 0.8550(5) 0.3468(4) 1.0583(5)
O3 O 0.8544(5) 0.2137(5) 1.1872(6)
O4 O 0.8935(5) 0.2949(3) 1.2129(6)
O5 O 1.1378(4) 0.2309(4) 1.3693(5)
O6 O 1.1110(4) 0.3025(5) 1.2881(6)
O7 O 0.7741(4) 0.2704(4) 0.6715(6)
O8 O 0.9344(5) 0.4221(5) 0.7273(7)
O9 O 0.7372(4) 0.2260(6) 0.7724(5)
O10 O 0.9540(4) 0.4470(5) 0.8354(6)
O11 O 1.0105(4) 0.0726(5) 1.4394(8)
O12 O 0.9322(4) 0.0468(6) 1.3664(9)
C1 C 0.8911(5) 0.3685(6) 0.8233(8)
C2 C 0.8616(6) 0.3363(6) 0.7709(9)
H1 H 0.86850 0.34120 0.71790
C3 C 0.8416(5) 0.3153(5) 0.9251(7)
C4 C 1.0995(9) 0.2469(12) 1.3300(16)
C5 C 0.8186(7) 0.2934(6) 0.7979(7)
C6 C 0.7724(6) 0.2636(6) 0.7448(9)
C7 C 0.9268(7) 0.4203(8) 0.7983(7)
C8 C 0.8846(7) 0.3572(7) 0.9019(8)
H2 H 0.90760 0.37640 0.93870
C9 C 0.8300(6) 0.3144(9) 1.0113(10)
C10 C 0.8158(7) 0.2826(6) 0.8745(7)
H3 H 0.79450 0.25040 0.89170
C11 C 1.0395(8) 0.2217(6) 1.3231(9)
C12 C 0.9792(7) 0.1398(6) 1.3492(12)
C13 C 1.0286(7) 0.1759(6) 1.3543(12)
H4 H 1.05790 0.16210 1.38740
C14 C 0.9926(6) 0.2489(6) 1.2707(9)
H5 H 0.99680 0.28600 1.24900
C15 C 0.9459(6) 0.2166(7) 1.2581(13)
C16 C 0.9718(11) 0.0752(9) 1.3884(13)
C17 C 0.9354(6) 0.1609(6) 1.2930(11)
H6 H 0.90230 0.13890 1.28080
C18 C 0.8965(9) 0.2472(7) 1.2065(13)
In2A In 1.19782(4) 0.70100(4) 1.15944(4)
In2F In 0.79900(4) 0.69782(4) 0.34056(4)
In2G In 1.20100(4) 0.30218(4) 0.34056(4)
In2G* In 1.20100(4) 0.30218(4) 1.34056(4)
In2E In 0.69782(4) 0.20100(4) 0.65944(4)
In2D In 1.30218(4) 0.79900(4) 0.65944(4)
In2C In 0.70100(4) 0.80218(4) 0.84056(4)
In2B In 1.29900(4) 0.19782(4) 0.84056(4)
In2F* In 0.79900(4) 0.69782(4) 1.34056(4)
Co1D Co 0.50000 0.50000 1.00000
Co1* Co 1.00000 1.00000 1.50000
Co1D* Co 1.50000 0.50000 1.00000
O1A O 1.1988(5) 0.7291(4) 1.0356(4)
O1F O 0.7709(5) 0.6988(4) 0.4644(4)
O1G O 1.2291(5) 0.3012(4) 0.4644(4)
O2A O 1.1450(5) 0.6532(4) 1.0583(5)
O2F O 0.8468(5) 0.6450(4) 0.4417(5)
O2G O 1.1532(5) 0.3550(4) 0.4417(5)
O3F O 0.7137(5) 0.6456(5) 1.3128(6)
O3A O 1.1456(5) 0.7863(5) 1.1872(6)
O3G O 1.2863(5) 0.3544(5) 1.3128(6)
O3F* O 0.7137(5) 0.6456(5) 0.3128(6)
O3G* O 1.2863(5) 0.3544(5) 0.3128(6)
O4F O 0.7949(5) 0.6065(3) 1.2871(6)
O4A O 1.1065(5) 0.7051(3) 1.2129(6)
O4G O 1.2051(5) 0.3935(3) 1.2871(6)
O4F* O 0.7949(5) 0.6065(3) 0.2871(6)
O4G* O 1.2051(5) 0.3935(3) 0.2871(6)
O5F O 0.7309(4) 0.3622(4) 1.1307(5)
O5A O 0.8622(4) 0.7691(4) 1.3693(5)
O5G O 1.2691(4) 0.6378(4) 1.1307(5)
O5A* O 0.8622(4) 0.7691(4) 0.3693(5)
O5* O 1.1378(4) 0.2309(4) 0.3693(5)
O6F O 0.8025(4) 0.3890(5) 1.2119(6)
O6A O 0.8890(4) 0.6975(5) 1.2881(6)
O6G O 1.1975(4) 0.6110(5) 1.2119(6)
O6A* O 0.8890(4) 0.6975(5) 0.2881(6)
O6* O 1.1110(4) 0.3025(5) 0.2881(6)
O7A O 1.2259(4) 0.7296(4) 0.6715(6)
O7F O 0.7704(4) 0.7259(4) 0.8285(6)
O7G O 1.2296(4) 0.2741(4) 0.8285(6)
O7E O 0.7259(4) 0.2296(4) 1.1715(6)
O7D O 1.2741(4) 0.7704(4) 1.1715(6)
O7C O 0.7296(4) 0.7741(4) 0.3285(6)
O7B O 1.2704(4) 0.2259(4) 0.3285(6)
O8A O 1.0656(5) 0.5779(5) 0.7273(7)
O8F O 0.9221(5) 0.5656(5) 0.7727(7)
O8G O 1.0779(5) 0.4344(5) 0.7727(7)
O9A O 1.2628(4) 0.7740(6) 0.7724(5)
O9F O 0.7260(4) 0.7628(6) 0.7276(5)
O9G O 1.2740(4) 0.2372(6) 0.7276(5)
O9E O 0.7628(4) 0.2740(6) 1.2724(5)
O9D O 1.2372(4) 0.7260(6) 1.2724(5)
O9C O 0.7740(4) 0.7372(6) 0.2276(5)
O9B O 1.2260(4) 0.2628(6) 0.2276(5)
O10A O 1.0460(4) 0.5530(5) 0.8354(6)
O10F O 0.9470(4) 0.5460(5) 0.6646(6)
O10G O 1.0530(4) 0.4540(5) 0.6646(6)
O11F O 0.5726(4) 0.4895(5) 1.0606(8)
O11A O 0.9895(4) 0.9274(5) 1.4394(8)
O11G O 1.4274(4) 0.5105(5) 1.0606(8)
O11A* O 0.9895(4) -0.0726(5) 1.4394(8)
O11B O 1.0726(4) -0.0105(5) 1.5606(8)
O11C O 0.9274(4) 0.0105(5) 1.5606(8)
O12F O 0.5468(4) 0.5678(6) 1.1336(9)
O12A O 1.0678(4) 0.9532(6) 1.3664(9)
O12G O 1.4532(4) 0.4322(6) 1.1336(9)
C1A C 1.1089(5) 0.6315(6) 0.8233(8)
C1F C 0.8685(5) 0.6089(6) 0.6767(8)
C1G C 1.1315(5) 0.3911(6) 0.6767(8)
C2A C 1.1384(6) 0.6637(6) 0.7709(9)
C2F C 0.8363(6) 0.6384(6) 0.7291(9)
C2G C 1.1637(6) 0.3616(6) 0.7291(9)
H1A H 1.13150 0.65880 0.71790
H1F H 0.84120 0.63150 0.78210
H1G H 1.15880 0.36850 0.78210
C3A C 1.1584(5) 0.6847(5) 0.9251(7)
C3F C 0.8153(5) 0.6584(5) 0.5749(7)
C3G C 1.1847(5) 0.3416(5) 0.5749(7)
C4F C 0.7469(9) 0.4005(12) 1.1700(16)
C4A C 0.9005(9) 0.7531(12) 1.3300(16)
C4G C 1.2531(9) 0.5995(12) 1.1700(16)
C5A C 1.1814(7) 0.7066(6) 0.7979(7)
C5F C 0.7934(7) 0.6814(6) 0.7021(7)
C5G C 1.2066(7) 0.3186(6) 0.7021(7)
C6A C 1.2276(6) 0.7364(6) 0.7448(9)
C6F C 0.7636(6) 0.7276(6) 0.7552(9)
C6G C 1.2364(6) 0.2724(6) 0.7552(9)
C7A C 1.0732(7) 0.5797(8) 0.7983(7)
C7F C 0.9203(7) 0.5732(8) 0.7017(7)
C7G C 1.0797(7) 0.4268(8) 0.7017(7)
C8A C 1.1154(7) 0.6428(7) 0.9019(8)
C8F C 0.8572(7) 0.6154(7) 0.5981(8)
C8G C 1.1428(7) 0.3846(7) 0.5981(8)
H2A H 1.09240 0.62360 0.93870
H2F H 0.87640 0.59240 0.56130
H2G H 1.12360 0.40760 0.56130
C9A C 1.1700(6) 0.6856(9) 1.0113(10)
C9F C 0.8144(6) 0.6700(9) 0.4887(10)
C9G C 1.1856(6) 0.3300(9) 0.4887(10)
C10A C 1.1842(7) 0.7174(6) 0.8745(7)
C10F C 0.7826(7) 0.6842(6) 0.6255(7)
C10G C 1.2174(7) 0.3158(6) 0.6255(7)
H3A H 1.20550 0.74960 0.89170
H3F H 0.75040 0.70550 0.60830
H3G H 1.24960 0.29450 0.60830
C11F C 0.7217(8) 0.4605(6) 1.1769(9)
C11A C 0.9605(8) 0.7783(6) 1.3231(9)
C11G C 1.2783(8) 0.5395(6) 1.1769(9)
C12F C 0.6398(7) 0.5208(6) 1.1508(12)
C12A C 1.0208(7) 0.8602(6) 1.3492(12)
C12G C 1.3602(7) 0.4792(6) 1.1508(12)
C13F C 0.6759(7) 0.4714(6) 1.1457(12)
C13A C 0.9714(7) 0.8241(6) 1.3543(12)
C13G C 1.3241(7) 0.5286(6) 1.1457(12)
H4F H 0.66210 0.44210 1.11260
H4A H 0.94210 0.83790 1.38740
H4G H 1.33790 0.55790 1.11260
C14F C 0.7489(6) 0.5074(6) 1.2293(9)
C14A C 1.0074(6) 0.7511(6) 1.2707(9)
C14G C 1.2511(6) 0.4926(6) 1.2293(9)
H5F H 0.78600 0.50320 1.25100
H5A H 1.00320 0.71400 1.24900
H5G H 1.21400 0.49680 1.25100
C15F C 0.7166(6) 0.5541(7) 1.2419(13)
C15A C 1.0541(6) 0.7834(7) 1.2581(13)
C15G C 1.2834(6) 0.4459(7) 1.2419(13)
C16F C 0.5752(11) 0.5282(9) 1.1116(13)
C16A C 1.0282(11) 0.9248(9) 1.3884(13)
C16G C 1.4248(11) 0.4718(9) 1.1116(13)
C17F C 0.6609(6) 0.5646(6) 1.2070(11)
C17A C 1.0646(6) 0.8391(6) 1.2930(11)
C17G C 1.3391(6) 0.4354(6) 1.2070(11)
H6F H 0.63890 0.59770 1.21920
H6A H 1.09770 0.86110 1.28080
H6G H 1.36110 0.40230 1.21920
C18F C 0.7472(9) 0.6035(7) 1.2935(13)
C18A C 1.1035(9) 0.7528(7) 1.2065(13)
C18G C 1.2528(9) 0.3965(7) 1.2935(13)
#END
