
#######################################################################
#
#                 Cambridge Crystallographic Data Centre
#                                CCDC
#
#######################################################################
#
# If this CIF has been generated from an entry in the Cambridge
# Structural Database, then it will include bibliographic, chemical,
# crystal, experimental, refinement or atomic coordinate data resulting
# from the CCDC's data processing and validation procedures.
#
#######################################################################

data_CSD_CIF_WEBZEK
_audit_creation_date 2013-02-01
_audit_creation_method CSD-ConQuest-V1
_database_code_CSD WEBZEK
_database_code_depnum_ccdc_archive 'CCDC 728873'
_chemical_formula_sum 'C201 H288 Cd7 N18 O83'
_chemical_formula_moiety
;
(C2 H8 N1 1+)6n,n(C128 H96 Cd6 O48 6-),n(C32 H24 Cd1 O12),7n(C2 H7 N1),5n(C3 
H7 N1 O1),18n(H2 O1)
;
_journal_coden_Cambridge 1350
_journal_volume 14
_journal_year 2012
_journal_page_first 5720
_journal_name_full 'CrystEngComm '
loop_
_publ_author_name
"Heng Xu"
"Weiwei Bao"
"Yan Xu"
"Xiaolan Liu"
"Xuan Shen"
"Dunru Zhu"
_chemical_name_systematic
;
catena-(hexakis(Dimethylammonium) 
tetrakis((\m~4~-2,2'-dimethoxybiphenyl-4,4'-dicarboxylato)-(\m~3~-2,2'-dimetho
xybiphenyl-4,4'-dicarboxylato)-hexa-cadmium) 
bis(\m~2~2,2'-dimethoxybiphenyl-4,4'-dicarboxylato)-cadmium dimethylamine 
N,N-dimethylformamide solvate octadecahydrate)
;
_cell_volume  21481.593
_exptl_crystal_colour 'colorless'
_exptl_special_details
;
Published density is 1.324; we calculate 1.568

;
_exptl_crystal_description 'octahedron'
_diffrn_ambient_temperature 291
_refine_special_details
;
The structure is disordered.

;
#These two values have been output from a single CSD field.
_refine_ls_R_factor_gt 0.0514
_refine_ls_wR_factor_gt 0.0514
_symmetry_cell_setting tetragonal
_symmetry_space_group_name_H-M 'I -4 2 d'
_symmetry_Int_Tables_number 122
loop_
_symmetry_equiv_pos_site_id
_symmetry_equiv_pos_as_xyz
1 x,y,z
2 -x,-y,z
3 y,-x,-z
4 -y,x,-z
5 1/2-x,y,3/4-z
6 1/2+x,-y,3/4-z
7 1/2-y,-x,3/4+z
8 1/2+y,x,3/4+z
9 1/2+x,1/2+y,1/2+z
10 1/2-x,1/2-y,1/2+z
11 1/2+y,1/2-x,1/2-z
12 1/2-y,1/2+x,1/2-z
13 -x,1/2+y,1/4-z
14 x,1/2-y,1/4-z
15 -y,1/2-x,1/4+z
16 y,1/2+x,1/4+z
_cell_length_a 22.180(3)
_cell_length_b 22.180(3)
_cell_length_c 43.666(9)
_cell_angle_alpha 90
_cell_angle_beta 90
_cell_angle_gamma 90
_cell_formula_units_Z 4
loop_
_atom_type_symbol
_atom_type_radius_bond
C 0.68
H 0.23
Cd 1.49
N 0.68
O 0.68
loop_
_atom_site_label
_atom_site_type_symbol
_atom_site_fract_x
_atom_site_fract_y
_atom_site_fract_z
C1 C 0.5891(3) 0.4854(3) 0.45645(14)
C2 C 0.6395(3) 0.4851(3) 0.43282(14)
C3 C 0.6439(3) 0.4381(3) 0.41193(13)
H1 H 0.61610 0.40610 0.41330
C4 C 0.6882(3) 0.4393(3) 0.38932(14)
H2 H 0.69110 0.40780 0.37530
C5 C 0.7279(3) 0.4875(2) 0.38771(13)
C6 C 0.7235(3) 0.5348(3) 0.40853(12)
C7 C 0.6792(3) 0.5335(2) 0.43112(13)
H3 H 0.67610 0.56500 0.44510
C8 C 0.7575(3) 0.6354(2) 0.42019(12)
H4 H 0.72840 0.65750 0.40850
H5 H 0.79510 0.65680 0.42030
H6 H 0.74330 0.63080 0.44080
Cd1 Cd 0.50000 0.50000 0.50000
O1 O 0.5480(2) 0.44701(19) 0.45495(10)
O2 O 0.58901(17) 0.52452(18) 0.47554(8)
O3 O 0.76554(18) 0.57797(18) 0.40697(9)
C9 C 0.4231(2) 0.2219(2) 0.39602(12)
H7 H 0.45400 0.20590 0.40910
H8 H 0.38460 0.21790 0.40590
H9 H 0.43100 0.26370 0.39200
C10 C 0.3839(3) 0.2249(3) 0.34551(14)
H10 H 0.35120 0.20060 0.33810
H11 H 0.40770 0.23860 0.32850
H12 H 0.36800 0.25900 0.35640
N1 N 0.4225(2) 0.1881(2) 0.36666(11)
H13 H 0.40680 0.15100 0.36930
H14 H 0.46010 0.18440 0.35910
C11 C 0.4597(5) 0.3709(6) 0.4106(3)
H15 H 0.42220 0.35040 0.41410
H16 H 0.46920 0.39560 0.42800
H17 H 0.49120 0.34170 0.40770
C12 C 0.3984(5) 0.3919(5) 0.3636(3)
H18 H 0.39230 0.41960 0.34700
H19 H 0.36370 0.39230 0.37670
H20 H 0.40410 0.35200 0.35550
N2 N 0.4544(4) 0.4107(4) 0.3819(2)
H21 H 0.45120 0.44970 0.38740
H22 H 0.48760 0.40650 0.37030
O4 O 0.7024(5) 0.2977(5) 0.1757(3)
H23 H 0.73310 0.28370 0.16640
H24 H 0.67170 0.29490 0.16420
O5 O 0.6282(4) 0.7565(5) 0.4920(2)
H25 H 0.65960 0.73480 0.49030
H26 H 0.60250 0.73850 0.50320
O6 O 0.0100(4) 0.7354(4) 0.30016(19)
H27 H 0.02030 0.75590 0.28460
H28 H -0.02460 0.72010 0.29710
O7 O 0.7345(4) 0.2343(4) 0.2420(2)
H29 H 0.71550 0.20210 0.23790
H30 H 0.74550 0.25110 0.22540
O8 O 0.5226(4) 0.9128(4) 0.3674(2)
H31 H 0.53810 0.94020 0.35630
H32 H 0.51630 0.92660 0.38530
C13 C 0.6313(3) 0.0563(3) 0.37335(12)
C14 C 0.6292(3) 0.0202(3) 0.34468(12)
C15 C 0.5781(3) 0.0149(3) 0.32648(13)
H33 H 0.54370 0.03720 0.33110
C16 C 0.5783(3) -0.0237(2) 0.30141(13)
H34 H 0.54410 -0.02730 0.28920
C17 C 0.6297(2) -0.0570(2) 0.29453(14)
C18 C 0.6808(3) -0.0516(3) 0.31273(12)
C19 C 0.6806(3) -0.0130(2) 0.33780(13)
H35 H 0.71480 -0.00950 0.35000
C20 C 0.6279(3) -0.1025(2) 0.26901(13)
C21 C 0.6023(3) -0.1585(3) 0.27381(14)
H36 H 0.58530 -0.16830 0.29260
C22 C 0.6024(3) -0.2004(3) 0.24959(13)
H37 H 0.58610 -0.23850 0.25270
C23 C 0.6262(3) -0.1860(2) 0.22134(12)
C24 C 0.6519(3) -0.1309(3) 0.21736(15)
H38 H 0.66860 -0.12140 0.19840
C25 C 0.6542(3) -0.0881(3) 0.24079(14)
C26 C 0.6308(3) -0.2313(3) 0.19642(12)
C27 C 0.7943(3) -0.0528(3) 0.31011(13)
H39 H 0.82200 -0.05490 0.29320
H40 H 0.80990 -0.07550 0.32700
H41 H 0.78930 -0.01140 0.31610
C28 C 0.7256(3) -0.0356(3) 0.20890(17)
H42 H 0.70320 -0.03940 0.19020
H43 H 0.75340 -0.06860 0.21070
H44 H 0.74750 0.00180 0.20870
C29 C 0.8687(3) 0.2280(3) 0.36430(13)
C30 C 0.8732(3) 0.2746(2) 0.38921(12)
C31 C 0.8187(2) 0.2836(2) 0.40709(11)
H45 H 0.78290 0.26320 0.40300
C32 C 0.8240(3) 0.3249(3) 0.43058(11)
C33 C 0.8698(3) 0.3610(2) 0.43595(10)
C34 C 0.9204(3) 0.3545(3) 0.41633(12)
H46 H 0.95280 0.38080 0.41820
C35 C 0.9220(3) 0.3075(2) 0.39336(14)
H47 H 0.95660 0.30070 0.38180
C36 C 0.8703(3) 0.4096(3) 0.45976(12)
C37 C 0.8271(3) 0.4547(2) 0.45976(12)
H48 H 0.79850 0.45460 0.44420
C38 C 0.8238(3) 0.5004(3) 0.48190(13)
H49 H 0.79280 0.52860 0.48190
C39 C 0.8694(3) 0.5016(2) 0.50399(14)
C40 C 0.9147(2) 0.4568(3) 0.50424(13)
H50 H 0.94460 0.45620 0.51920
C41 C 0.9127(3) 0.4145(3) 0.48179(14)
C42 C 0.8690(3) 0.5460(2) 0.52893(11)
C43 C 0.7205(2) 0.3023(3) 0.44528(13)
H51 H 0.69930 0.31590 0.42740
H52 H 0.69480 0.30570 0.46290
H53 H 0.73230 0.26100 0.44260
C44 C 1.0204(3) 0.3725(3) 0.49741(14)
H54 H 1.04940 0.39090 0.48400
H55 H 1.03390 0.33270 0.50280
H56 H 1.01630 0.39630 0.51560
Cd2 Cd 0.629445(18) 0.131555(18) 0.425087(9)
Cd3 Cd 0.75000 0.13215(2) 0.37500
O9 O 0.57899(19) 0.08377(19) 0.38055(9)
O10 O 0.67580(18) 0.06395(16) 0.38879(9)
O11 O 0.61665(17) -0.28674(17) 0.20357(8)
O12 O 0.63680(15) -0.21459(16) 0.17119(7)
O13 O 0.73676(17) -0.07734(17) 0.30094(9)
O14 O 0.68552(19) -0.03627(18) 0.23404(9)
O15 O 0.82273(18) 0.20043(17) 0.35943(9)
O16 O 0.91786(18) 0.21449(18) 0.35109(9)
O17 O 0.82770(18) 0.58781(19) 0.52906(9)
O18 O 0.90930(19) 0.55080(17) 0.54818(8)
O19 O 0.77115(18) 0.33727(19) 0.44955(10)
O20 O 0.95846(15) 0.36827(18) 0.48086(8)
O21? O 0.5226(5) 0.0235(4) 0.4189(2)
H57? H 0.48880 0.03020 0.41040
H58? H 0.52500 -0.01360 0.42370
O22? O 0.4851(3) 0.4992(7) 0.35208(19)
H59? H 0.49570 0.48690 0.33440
H60? H 0.45410 0.52130 0.34970
C1D C 0.9109(3) 0.4854(3) 0.29355(14)
C1A C 0.4109(3) 0.5146(3) 0.45645(14)
C1E C 0.0891(3) 0.5146(3) 0.29355(14)
C2D C 0.8605(3) 0.4851(3) 0.31718(14)
C2A C 0.3605(3) 0.5149(3) 0.43282(14)
C2E C 0.1395(3) 0.5149(3) 0.31718(14)
C3D C 0.8561(3) 0.4381(3) 0.33807(13)
C3A C 0.3561(3) 0.5619(3) 0.41193(13)
C3E C 0.1439(3) 0.5619(3) 0.33807(13)
H1D H 0.88390 0.40610 0.33670
H1A H 0.38390 0.59390 0.41330
H1E H 0.11610 0.59390 0.33670
C4D C 0.8118(3) 0.4393(3) 0.36068(14)
C4A C 0.3118(3) 0.5607(3) 0.38932(14)
C4E C 0.1882(3) 0.5607(3) 0.36068(14)
H2D H 0.80890 0.40780 0.37470
H2A H 0.30890 0.59220 0.37530
H2E H 0.19110 0.59220 0.37470
C5D C 0.7721(3) 0.4875(2) 0.36229(13)
C5A C 0.2721(3) 0.5125(2) 0.38771(13)
C5E C 0.2279(3) 0.5125(2) 0.36229(13)
C6D C 0.7765(3) 0.5348(3) 0.34147(12)
C6A C 0.2765(3) 0.4652(3) 0.40853(12)
C6E C 0.2235(3) 0.4652(3) 0.34147(12)
C7D C 0.8208(3) 0.5335(2) 0.31888(13)
C7A C 0.3208(3) 0.4665(2) 0.43112(13)
C7E C 0.1792(3) 0.4665(2) 0.31888(13)
H3D H 0.82390 0.56500 0.30490
H3A H 0.32390 0.43500 0.44510
H3E H 0.17610 0.43500 0.30490
C8D C 0.7425(3) 0.6354(2) 0.32981(12)
C8A C 0.2425(3) 0.3646(2) 0.42019(12)
C8E C 0.2575(3) 0.3646(2) 0.32981(12)
H4D H 0.77160 0.65750 0.34150
H4A H 0.27160 0.34250 0.40850
H4E H 0.22840 0.34250 0.34150
H5D H 0.70490 0.65680 0.32970
H5A H 0.20490 0.34320 0.42030
H5E H 0.29510 0.34320 0.32970
H6D H 0.75670 0.63080 0.30920
H6A H 0.25670 0.36920 0.44080
H6E H 0.24330 0.36920 0.30920
Cd1D Cd 1.00000 0.50000 0.25000
Cd1D* Cd 0.00000 0.50000 0.25000
O1D O 0.9520(2) 0.44701(19) 0.29505(10)
O1A O 0.4520(2) 0.55299(19) 0.45495(10)
O1E O 0.0480(2) 0.55299(19) 0.29505(10)
O1B O 0.44701(20) 0.45200(19) 0.54505(10)
O1C O 0.55299(20) 0.54800(19) 0.54505(10)
O2D O 0.91099(17) 0.52452(18) 0.27446(8)
O2A O 0.41099(17) 0.47548(18) 0.47554(8)
O2E O 0.08901(17) 0.47548(18) 0.27446(8)
O2B O 0.52452(17) 0.41099(18) 0.52446(8)
O2C O 0.47548(17) 0.58901(18) 0.52446(8)
O3D O 0.73446(18) 0.57797(18) 0.34303(9)
O3A O 0.23446(18) 0.42203(18) 0.40697(9)
O3E O 0.26554(18) 0.42203(18) 0.34303(9)
C13D C 0.8687(3) 0.0563(3) 0.37665(12)
C13K C 0.4437(3) 0.1313(3) 0.12665(12)
C13O C 1.0563(3) 0.1313(3) 0.62335(12)
C14D C 0.8708(3) 0.0202(3) 0.40532(12)
C14K C 0.4798(3) 0.1292(3) 0.15532(12)
C14O C 1.0202(3) 0.1292(3) 0.59468(12)
C15D C 0.9219(3) 0.0149(3) 0.42352(13)
C15K C 0.4851(3) 0.0781(3) 0.17352(13)
C15O C 1.0149(3) 0.0781(3) 0.57648(13)
H33D H 0.95630 0.03720 0.41890
H33K H 0.46280 0.04370 0.16890
H33O H 1.03720 0.04370 0.58110
C16D C 0.9217(3) -0.0237(2) 0.44859(13)
C16K C 0.5237(3) 0.0783(2) 0.19859(13)
C16O C 0.9763(3) 0.0783(2) 0.55141(13)
H34D H 0.95590 -0.02730 0.46080
H34K H 0.52730 0.04410 0.21080
H34O H 0.97270 0.04410 0.53920
C17D C 0.8703(2) -0.0570(2) 0.45547(14)
C17K C 0.5570(2) 0.1297(2) 0.20547(14)
C17O C 0.9430(2) 0.1297(2) 0.54453(14)
C18D C 0.8192(3) -0.0516(3) 0.43727(12)
C18K C 0.5516(3) 0.1808(3) 0.18727(12)
C18O C 0.9484(3) 0.1808(3) 0.56273(12)
C19D C 0.8194(3) -0.0130(2) 0.41220(13)
C19K C 0.5130(3) 0.1806(2) 0.16220(13)
C19O C 0.9870(3) 0.1806(2) 0.58780(13)
H35D H 0.78520 -0.00950 0.40000
H35K H 0.50950 0.21480 0.15000
H35O H 0.99050 0.21480 0.60000
C20D C 0.8721(3) -0.1025(2) 0.48099(13)
C20K C 0.6025(3) 0.1279(2) 0.23099(13)
C20O C 0.8975(3) 0.1279(2) 0.51901(13)
C21D C 0.8977(3) -0.1585(3) 0.47619(14)
C21K C 0.6585(3) 0.1023(3) 0.22619(14)
C21O C 0.8415(3) 0.1023(3) 0.52381(14)
H36D H 0.91470 -0.16830 0.45740
H36K H 0.66830 0.08530 0.20740
H36O H 0.83170 0.08530 0.54260
C22D C 0.8976(3) -0.2004(3) 0.50041(13)
C22K C 0.7004(3) 0.1024(3) 0.25041(13)
C22O C 0.7996(3) 0.1024(3) 0.49959(13)
H37D H 0.91390 -0.23850 0.49730
H37K H 0.73850 0.08610 0.24730
H37O H 0.76150 0.08610 0.50270
C23D C 0.8738(3) -0.1860(2) 0.52866(12)
C23K C 0.6860(3) 0.1262(2) 0.27866(12)
C23O C 0.8140(3) 0.1262(2) 0.47134(12)
C24D C 0.8481(3) -0.1309(3) 0.53264(15)
C24K C 0.6309(3) 0.1519(3) 0.28264(15)
C24O C 0.8691(3) 0.1519(3) 0.46736(15)
H38D H 0.83140 -0.12140 0.55160
H38K H 0.62140 0.16860 0.30160
H38O H 0.87860 0.16860 0.44840
C25D C 0.8458(3) -0.0881(3) 0.50921(14)
C25K C 0.5881(3) 0.1542(3) 0.25921(14)
C25O C 0.9119(3) 0.1542(3) 0.49079(14)
C26D C 0.8692(3) -0.2313(3) 0.55358(12)
C26K C 0.7313(3) 0.1308(3) 0.30358(12)
C26O C 0.7687(3) 0.1308(3) 0.44642(12)
C27D C 0.7057(3) -0.0528(3) 0.43989(13)
C27K C 0.5528(3) 0.2943(3) 0.18989(13)
C27O C 0.9472(3) 0.2943(3) 0.56011(13)
H39D H 0.67800 -0.05490 0.45680
H39K H 0.55490 0.32200 0.20680
H39O H 0.94510 0.32200 0.54320
H40D H 0.69010 -0.07550 0.42300
H40K H 0.57550 0.30990 0.17300
H40O H 0.92450 0.30990 0.57700
H41D H 0.71070 -0.01140 0.43390
H41K H 0.51140 0.28930 0.18390
H41O H 0.98860 0.28930 0.56610
C28D C 0.7744(3) -0.0356(3) 0.54110(17)
C28K C 0.5356(3) 0.2256(3) 0.29110(17)
C28O C 0.9644(3) 0.2256(3) 0.45890(17)
H42D H 0.79680 -0.03940 0.55980
H42K H 0.53940 0.20320 0.30980
H42O H 0.96060 0.20320 0.44020
H43D H 0.74660 -0.06860 0.53930
H43K H 0.56860 0.25340 0.28930
H43O H 0.93140 0.25340 0.46070
H44D H 0.75250 0.00180 0.54130
H44K H 0.49820 0.24750 0.29130
H44O H 1.00180 0.24750 0.45870
C29D C 0.6313(3) 0.2280(3) 0.38570(13)
C29B C 0.2280(3) 0.1313(3) 0.63570(13)
C29K C 0.2720(3) 0.3687(3) 0.13570(13)
C30D C 0.6268(3) 0.2746(2) 0.36079(12)
C30B C 0.2746(3) 0.1268(2) 0.61079(12)
C30K C 0.2254(3) 0.3732(2) 0.11079(12)
C31D C 0.6813(2) 0.2836(2) 0.34291(11)
C31B C 0.2836(2) 0.1813(2) 0.59291(11)
C31K C 0.2164(2) 0.3187(2) 0.09291(11)
H45D H 0.71710 0.26320 0.34700
H45B H 0.26320 0.21710 0.59700
H45K H 0.23680 0.28290 0.09700
C32D C 0.6760(3) 0.3249(3) 0.31942(11)
C32B C 0.3249(3) 0.1760(3) 0.56942(11)
C32K C 0.1751(3) 0.3240(3) 0.06942(11)
C33D C 0.6302(3) 0.3610(2) 0.31405(10)
C33B C 0.3610(3) 0.1302(2) 0.56405(10)
C33K C 0.1390(3) 0.3698(2) 0.06405(10)
C34D C 0.5796(3) 0.3545(3) 0.33367(12)
C34B C 0.3545(3) 0.0796(3) 0.58367(12)
C34K C 0.1455(3) 0.4204(3) 0.08367(12)
H46D H 0.54720 0.38080 0.33180
H46B H 0.38080 0.04720 0.58180
H46K H 0.11920 0.45280 0.08180
C35D C 0.5780(3) 0.3075(2) 0.35664(14)
C35B C 0.3075(3) 0.0780(2) 0.60664(14)
C35K C 0.1925(3) 0.4220(2) 0.10664(14)
H47D H 0.54340 0.30070 0.36820
H47B H 0.30070 0.04340 0.61820
H47K H 0.19930 0.45660 0.11820
C36D C 0.6297(3) 0.4096(3) 0.29024(12)
C36B C 0.4096(3) 0.1297(3) 0.54024(12)
C36K C 0.0904(3) 0.3703(3) 0.04024(12)
C37D C 0.6729(3) 0.4547(2) 0.29024(12)
C37B C 0.4547(3) 0.1729(2) 0.54024(12)
C37K C 0.0453(3) 0.3271(2) 0.04024(12)
H48D H 0.70150 0.45460 0.30580
H48B H 0.45460 0.20150 0.55580
H48K H 0.04540 0.29850 0.05580
C38D C 0.6762(3) 0.5004(3) 0.26810(13)
C38B C 0.5004(3) 0.1762(3) 0.51810(13)
C38K C -0.0004(3) 0.3238(3) 0.01810(13)
H49D H 0.70720 0.52860 0.26810
H49B H 0.52860 0.20720 0.51810
H49K H -0.02860 0.29280 0.01810
C39D C 0.6306(3) 0.5016(2) 0.24601(14)
C39B C 0.5016(3) 0.1306(2) 0.49601(14)
C39K C -0.0016(3) 0.3694(2) -0.00399(14)
C40D C 0.5853(2) 0.4568(3) 0.24576(13)
C40B C 0.4568(2) 0.0853(3) 0.49576(13)
C40K C 0.0432(2) 0.4147(3) -0.00424(13)
H50D H 0.55540 0.45620 0.23080
H50B H 0.45620 0.05540 0.48080
H50K H 0.04380 0.44460 -0.01920
C41D C 0.5873(3) 0.4145(3) 0.26821(14)
C41B C 0.4145(3) 0.0873(3) 0.51821(14)
C41K C 0.0855(3) 0.4127(3) 0.01821(14)
C42D C 0.6310(3) 0.5460(2) 0.22107(11)
C42B C 0.5460(3) 0.1310(2) 0.47107(11)
C42K C -0.0460(3) 0.3690(2) -0.02893(11)
C43D C 0.7795(2) 0.3023(3) 0.30472(13)
C43B C 0.3023(2) 0.2795(3) 0.55472(13)
C43K C 0.1977(2) 0.2205(3) 0.05472(13)
H51D H 0.80070 0.31590 0.32260
H51B H 0.31590 0.30070 0.57260
H51K H 0.18410 0.19930 0.07260
H52D H 0.80520 0.30570 0.28710
H52B H 0.30570 0.30520 0.53710
H52K H 0.19430 0.19480 0.03710
H53D H 0.76770 0.26100 0.30740
H53B H 0.26100 0.26770 0.55740
H53K H 0.23900 0.23230 0.05740
C44D C 0.4796(3) 0.3725(3) 0.25259(14)
C44B C 0.3725(3) -0.0204(3) 0.50259(14)
C44K C 0.1275(3) 0.5204(3) 0.00259(14)
H54D H 0.45060 0.39090 0.26600
H54B H 0.39090 -0.04940 0.51600
H54K H 0.10910 0.54940 0.01600
H55D H 0.46610 0.33270 0.24720
H55B H 0.33270 -0.03390 0.49720
H55K H 0.16730 0.53390 -0.00280
H56D H 0.48370 0.39630 0.23440
H56B H 0.39630 -0.01630 0.48440
H56K H 0.10370 0.51630 -0.01560
Cd2D Cd 0.870555(18) 0.131555(18) 0.324913(9)
Cd2K Cd 0.368445(18) 0.129445(18) 0.074913(9)
Cd2O Cd 1.131555(18) 0.129445(18) 0.675087(9)
Cd2G Cd 0.631555(18) -0.370555(18) 0.175087(9)
Cd2C Cd 0.868445(18) 0.629445(18) 0.574913(9)
Cd2C* Cd 0.868445(18) -0.370555(18) 0.574913(9)
Cd2G* Cd 0.631555(18) 0.629445(18) 0.175087(9)
Cd2O* Cd 0.131555(18) 0.129445(18) 0.675087(9)
Cd2F Cd 0.368445(18) 0.370555(18) 0.175087(9)
Cd2I Cd -0.129445(18) 0.368445(18) -0.074913(9)
Cd3F Cd 0.36785 0.25000(2) 0.12500
Cd3G Cd 0.63215 -0.25000(2) 0.12500
Cd3C Cd 0.86785 -0.25000(2) 0.62500
Cd3B Cd 1.13215 0.25000(2) 0.62500
Cd3B* Cd 0.13215 0.25000(2) 0.62500
O9D O 0.92101(19) 0.08377(19) 0.36945(9)
O9K O 0.41623(19) 0.07899(19) 0.11945(9)
O9O O 1.08377(19) 0.07899(19) 0.63055(9)
O10D O 0.82420(18) 0.06395(16) 0.36121(9)
O10K O 0.43605(18) 0.17580(16) 0.11121(9)
O10O O 1.06395(18) 0.17580(16) 0.63879(9)
O10F O 0.43605(18) 0.32420(16) 0.13879(9)
O11D O 0.88335(17) -0.28674(17) 0.54643(8)
O11K O 0.78674(17) 0.11665(17) 0.29643(8)
O11O O 0.71326(17) 0.11665(17) 0.45357(8)
O11L O 0.38335(17) 0.21326(17) 0.04643(8)
O11H O 1.11665(17) 0.21326(17) 0.70357(8)
O12D O 0.86320(15) -0.21459(16) 0.57881(7)
O12K O 0.71459(15) 0.13680(16) 0.32881(7)
O12O O 0.78541(15) 0.13680(16) 0.42119(7)
O12A O 0.36320(15) 0.21459(16) 0.17119(7)
O12L O 0.36320(15) 0.28541(16) 0.07881(7)
O13D O 0.76324(17) -0.07734(17) 0.44906(9)
O13K O 0.57734(17) 0.23676(17) 0.19906(9)
O13O O 0.92266(17) 0.23676(17) 0.55094(9)
O14D O 0.81448(19) -0.03627(18) 0.51596(9)
O14K O 0.53627(19) 0.18552(18) 0.26596(9)
O14O O 0.96373(19) 0.18552(18) 0.48404(9)
O15D O 0.67727(18) 0.20043(17) 0.39057(9)
O15B O 0.20043(18) 0.17727(17) 0.64057(9)
O15K O 0.29957(18) 0.32273(17) 0.14057(9)
O15F O 0.29957(18) 0.17727(17) 0.10943(9)
O15B* O 1.20043(18) 0.17727(17) 0.64057(9)
O16D O 0.58214(18) 0.21449(18) 0.39891(9)
O16B O 0.21449(18) 0.08214(18) 0.64891(9)
O16K O 0.28551(18) 0.41786(18) 0.14891(9)
O16F O 0.28551(18) 0.08214(18) 0.10109(9)
O16B* O 1.21449(18) 0.08214(18) 0.64891(9)
O17D O 0.67230(18) 0.58781(19) 0.22094(9)
O17B O 0.58781(18) 0.17230(19) 0.47094(9)
O17K O -0.08781(18) 0.32770(19) -0.02906(9)
O17F O 0.91219(18) 0.17230(19) 0.27906(9)
O17H O 0.32770(18) 0.08781(19) 0.02906(9)
O17L O 1.17230(18) 0.08781(19) 0.72094(9)
O18D O 0.59070(19) 0.55080(17) 0.20182(8)
O18B O 0.55080(19) 0.09070(17) 0.45182(8)
O18K O -0.05080(19) 0.40930(17) -0.04818(8)
O18F O 0.94920(19) 0.09070(17) 0.29818(8)
O18H O 0.40930(19) 0.05080(17) 0.04818(8)
O18L O 1.09070(19) 0.05080(17) 0.70182(8)
O19D O 0.72885(18) 0.33727(19) 0.30045(10)
O19B O 0.33727(18) 0.22885(19) 0.55045(10)
O19K O 0.16273(18) 0.27115(19) 0.05045(10)
O20D O 0.54154(15) 0.36827(18) 0.26914(8)
O20B O 0.36827(15) 0.04154(18) 0.51914(8)
O20K O 0.13173(15) 0.45846(18) 0.01914(8)
#END
