
#######################################################################
#
#                 Cambridge Crystallographic Data Centre
#                                CCDC
#
#######################################################################
#
# If this CIF has been generated from an entry in the Cambridge
# Structural Database, then it will include bibliographic, chemical,
# crystal, experimental, refinement or atomic coordinate data resulting
# from the CCDC's data processing and validation procedures.
#
#######################################################################

data_CSD_CIF_WECBEN
_audit_creation_date 2013-02-01
_audit_creation_method CSD-ConQuest-V1
_database_code_CSD WECBEN
_database_code_depnum_ccdc_archive 'CCDC 884213'
_chemical_formula_sum 'C72 H134 N8 O51 Zn8'
_chemical_formula_moiety
;
(C6 H16 N1 1+)8n,n(C24 O48 Zn8 8-),3n(H2 O1)
;
_journal_coden_Cambridge 1350
_journal_volume 14
_journal_year 2012
_journal_page_first 5734
_journal_name_full 'CrystEngComm '
loop_
_publ_author_name
"Chunmei Duan"
"Daibing Luo"
"Hongmei Zhang"
"Maoping Kang"
"Zhien Lin"
_chemical_name_systematic
;
catena-(octakis(Di-isopropylamine) dodecakis(\m~2~-oxalato)-octa-zinc 
trihydrate)
;
_cell_volume   2643.393
_exptl_crystal_colour 'colorless'
_exptl_crystal_density_diffrn 1.54
_exptl_crystal_description 'block'
_diffrn_ambient_temperature 293
_refine_special_details
;
C34,C35,C36 and C34',C35',C36' disordered over two sites with occupancies 
0.50:0.50.
;
#These two values have been output from a single CSD field.
_refine_ls_R_factor_gt 0.0526
_refine_ls_wR_factor_gt 0.0526
_symmetry_cell_setting triclinic
_symmetry_space_group_name_H-M 'P -1'
_symmetry_Int_Tables_number 2
loop_
_symmetry_equiv_pos_site_id
_symmetry_equiv_pos_as_xyz
1 x,y,z
2 -x,-y,-z
_cell_length_a 9.4178(3)
_cell_length_b 15.4572(6)
_cell_length_c 18.2451(9)
_cell_angle_alpha 95.399(4)
_cell_angle_beta 91.352(4)
_cell_angle_gamma 90.312(3)
_cell_formula_units_Z 1
loop_
_atom_type_symbol
_atom_type_radius_bond
C 0.68
H 0.23
N 0.73
O 0.68
Zn 1.22
loop_
_atom_site_label
_atom_site_type_symbol
_atom_site_fract_x
_atom_site_fract_y
_atom_site_fract_z
Zn1 Zn 0.25341(6) 0.08870(4) 0.02975(3)
Zn2 Zn 0.12112(6) 0.41788(4) 0.11214(3)
Zn3 Zn 0.11070(7) 0.58318(4) 0.38737(4)
Zn4 Zn 0.25004(6) 0.91445(4) 0.46921(3)
O1 O 0.3124(4) 0.2117(2) 0.0059(2)
O2 O 0.1666(4) 0.1604(2) 0.1192(2)
O3 O 0.2669(4) 0.3497(2) 0.0449(2)
O4 O 0.0973(4) 0.2960(2) 0.1480(2)
O5 O -0.0218(3) 0.4709(2) 0.1895(2)
O6 O 0.2610(3) 0.4696(2) 0.1965(2)
O7 O -0.0278(3) 0.5306(2) 0.3046(2)
O8 O 0.2567(3) 0.5368(3) 0.3090(2)
O9 O 0.0869(4) 0.7047(2) 0.3519(2)
O10 O 0.2532(4) 0.6543(2) 0.4606(2)
O11 O 0.1588(4) 0.8413(2) 0.3804(2)
O12 O 0.3038(4) 0.7910(2) 0.4969(2)
O13 O 0.3622(3) 0.0238(2) -0.05982(19)
O14 O 0.0542(3) 0.0975(2) -0.0319(2)
O15 O 0.5561(3) -0.0542(2) -0.08214(19)
O16 O -0.1500(3) 0.0261(2) -0.0508(2)
O17 O -0.0398(4) 0.3984(2) 0.0283(2)
O18 O -0.1385(4) 0.4677(2) -0.0609(2)
O19 O -0.0467(4) 0.5989(2) 0.4684(2)
O20 O -0.1349(4) 0.5315(2) 0.5598(2)
O21 O 0.4340(4) 0.9485(3) 0.4175(2)
O22 O 0.1469(3) 1.0286(2) 0.4512(2)
O23 O -0.0548(3) 1.0994(2) 0.4719(2)
O24 O 0.6312(3) 1.0266(2) 0.44016(19)
N1 N 0.3345(5) -0.0101(3) -0.2219(3)
H1 H 0.36510 -0.01530 -0.17540
H2 H 0.34640 -0.06210 -0.24760
N2 N -0.1445(4) 0.7571(3) 0.5458(3)
H3 H -0.08620 0.80250 0.54110
H4 H -0.10400 0.70990 0.52260
N3 N -0.1220(4) 0.2459(3) -0.0655(2)
H5 H -0.06690 0.20220 -0.05240
H6 H -0.09660 0.29370 -0.03590
N4 N 0.5528(5) 0.4482(4) 0.2220(4)
C1 C 0.2558(5) 0.2694(3) 0.0481(3)
C2 C 0.1650(5) 0.2390(3) 0.1107(3)
C3 C 0.0339(5) 0.5012(3) 0.2477(3)
C4 C 0.1990(5) 0.5027(3) 0.2522(3)
C5 C 0.1565(5) 0.7634(4) 0.3905(3)
C6 C 0.2451(5) 0.7330(3) 0.4550(3)
C7 C 0.4774(5) -0.0088(3) -0.0404(3)
C8 C -0.0281(5) 0.0350(3) -0.0238(3)
C9 C -0.0515(5) 0.4613(3) -0.0093(3)
C10 C -0.0528(5) 0.5371(3) 0.5076(3)
C11 C 0.0272(5) 1.0363(3) 0.4779(3)
C12 C 0.5174(5) 0.9925(3) 0.4593(3)
C13 C 0.1078(7) -0.0683(5) -0.1883(4)
H7 H 0.14900 -0.07490 -0.14050
H8 H 0.12240 -0.12030 -0.22020
H9 H 0.00780 -0.05790 -0.18390
C14 C 0.1772(6) 0.0077(4) -0.2201(3)
H10 H 0.16220 0.06000 -0.18640
C15 C 0.1186(7) 0.0243(5) -0.2960(4)
H11 H 0.16830 0.07250 -0.31330
H12 H 0.01920 0.03740 -0.29290
H13 H 0.13120 -0.02660 -0.32960
C16 C 0.5796(7) 0.0200(5) -0.2480(4)
H14 H 0.58450 -0.03680 -0.27400
H15 H 0.60550 0.01670 -0.19710
H16 H 0.64380 0.05860 -0.26910
C17 C 0.4301(7) 0.0539(4) -0.2536(3)
H17 H 0.40450 0.05530 -0.30590
C18 C 0.4133(9) 0.1417(5) -0.2165(5)
H18 H 0.31620 0.15940 -0.22160
H19 H 0.47410 0.18150 -0.23850
H20 H 0.43840 0.14150 -0.16530
C19 C -0.3774(7) 0.6974(5) 0.5084(6)
H21 H -0.46530 0.70720 0.48290
H22 H -0.39570 0.68930 0.55890
H23 H -0.33290 0.64640 0.48540
C20 C -0.2824(6) 0.7731(4) 0.5054(4)
H24 H -0.32780 0.82460 0.52970
C21 C -0.2440(8) 0.7911(5) 0.4276(4)
H25 H -0.32890 0.80250 0.40010
H26 H -0.19700 0.74150 0.40390
H27 H -0.18190 0.84080 0.42980
C22 C -0.0014(8) 0.7259(5) 0.6521(4)
H28 H 0.03410 0.67580 0.62330
H29 H -0.00120 0.71520 0.70310
H30 H 0.05800 0.77530 0.64610
C23 C -0.1496(7) 0.7437(4) 0.6268(3)
H31 H -0.20840 0.69230 0.63230
C24 C -0.2166(8) 0.8211(5) 0.6690(4)
H32 H -0.21990 0.81170 0.72020
H33 H -0.31130 0.82860 0.65010
H34 H -0.16120 0.87230 0.66360
C25 C -0.1276(11) 0.1845(5) -0.1944(4)
H35 H -0.10500 0.19500 -0.24390
H36 H -0.22780 0.17410 -0.19160
H37 H -0.07670 0.13450 -0.18080
C26 C -0.0859(7) 0.2621(4) -0.1429(3)
H38 H -0.14160 0.31180 -0.15660
C27 C 0.0648(8) 0.2849(5) -0.1456(4)
H39 H 0.08500 0.33500 -0.11170
H40 H 0.08710 0.29750 -0.19460
H41 H 0.12130 0.23700 -0.13220
C28 C -0.3713(7) 0.2932(5) -0.0705(5)
H42 H -0.36650 0.29770 -0.12250
H43 H -0.34530 0.34790 -0.04420
H44 H -0.46630 0.27790 -0.05850
C29 C -0.2707(6) 0.2242(4) -0.0491(4)
H45 H -0.29710 0.16870 -0.07650
C30 C -0.2763(8) 0.2147(4) 0.0322(4)
H46 H -0.21100 0.17060 0.04470
H47 H -0.37080 0.19850 0.04440
H48 H -0.25060 0.26900 0.05940
C31 C 0.4640(7) 0.3000(5) 0.2323(5)
H49 H 0.37030 0.31860 0.21950
H50 H 0.47830 0.30830 0.28480
H51 H 0.47440 0.23960 0.21580
C32 C 0.5714(7) 0.3522(4) 0.1962(5)
H52 H 0.55420 0.34410 0.14280
C33 C 0.7222(8) 0.3238(5) 0.2127(5)
H53 H 0.73250 0.26340 0.19610
H54 H 0.74130 0.33230 0.26490
H55 H 0.78800 0.35770 0.18780
C34 C 0.552(2) 0.4895(13) 0.0796(11)
C35 C 0.6255(15) 0.5112(10) 0.1548(12)
C36 C 0.6068(18) 0.6001(12) 0.1922(11)
O25 O 0.3635(5) -0.1486(3) -0.3354(3)
O26 O -0.3106(11) 0.4858(9) 0.3482(8)
C37? C 0.610(2) 0.5096(15) 0.1135(16)
C38? C 0.6355(15) 0.5153(10) 0.2013(11)
C39? C 0.605(2) 0.6011(13) 0.2499(12)
Zn1A Zn 0.74659(6) -0.08870(4) -0.02975(3)
Zn1A* Zn -0.25341(6) -0.08870(4) -0.02975(3)
Zn2A Zn 0.87888(6) -0.41788(4) -0.11214(3)
Zn2A* Zn -0.12112(6) 0.58212(4) -0.11214(3)
Zn3A Zn 0.88930(7) -0.58318(4) -0.38737(4)
Zn3A* Zn -0.11070(7) 0.41682(4) 0.61263(4)
Zn4A Zn 0.74996(6) -0.91445(4) -0.46921(3)
Zn4A* Zn -0.25004(6) 1.08555(4) 0.53079(3)
Zn4A** Zn 0.74996(6) 1.08555(4) 0.53079(3)
O1A O 0.6876(4) -0.2117(2) -0.0059(2)
O2A O 0.8334(4) -0.1604(2) -0.1192(2)
O3A O 0.7331(4) -0.3497(2) -0.0449(2)
O4A O 0.9027(4) -0.2960(2) -0.1480(2)
O5A O 1.0218(3) -0.4709(2) -0.1895(2)
O6A O 0.7390(3) -0.4696(2) -0.1965(2)
O7A O 1.0278(3) -0.5306(2) -0.3046(2)
O8A O 0.7433(3) -0.5368(3) -0.3090(2)
O9A O 0.9131(4) -0.7047(2) -0.3519(2)
O10A O 0.7468(4) -0.6543(2) -0.4606(2)
O11A O 0.8412(4) -0.8413(2) -0.3804(2)
O12A O 0.6962(4) -0.7910(2) -0.4969(2)
O13A O 0.6378(3) -0.0238(2) 0.05982(19)
O14A O -0.0542(3) -0.0975(2) 0.0319(2)
O14A* O 0.9458(3) -0.0975(2) 0.0319(2)
O15A O 0.4439(3) 0.0542(2) 0.08214(19)
O16A O 0.1500(3) -0.0261(2) 0.0508(2)
O16* O 0.8500(3) 0.0261(2) -0.0508(2)
O17A O 0.0398(4) 0.6016(2) -0.0283(2)
O17A* O 1.0398(4) -0.3984(2) -0.0283(2)
O18A O 0.1385(4) 0.5323(2) 0.0609(2)
O18* O 0.8615(4) -0.5323(2) -0.0609(2)
O19A O 0.0467(4) 0.4011(2) 0.5316(2)
O19A* O 1.0467(4) -0.5989(2) -0.4684(2)
O20A O 0.1349(4) 0.4685(2) 0.4402(2)
O20* O 0.8651(4) -0.4685(2) -0.4402(2)
O21A O 0.5660(4) 1.0515(3) 0.5825(2)
O21A* O 0.5660(4) -0.9485(3) -0.4175(2)
O22A O -0.1469(3) 0.9714(2) 0.5488(2)
O22A* O 0.8531(3) -1.0286(2) -0.4512(2)
O23A O 0.0548(3) 0.9006(2) 0.5281(2)
O23* O 0.9452(3) -0.9006(2) -0.5281(2)
O24A O 0.3688(3) 0.9734(2) 0.55984(19)
O24* O 0.6312(3) -0.9734(2) -0.55984(19)
C1A C 0.7442(5) -0.2694(3) -0.0481(3)
C2A C 0.8350(5) -0.2390(3) -0.1107(3)
C3A C 0.9661(5) -0.5012(3) -0.2477(3)
C4A C 0.8010(5) -0.5027(3) -0.2522(3)
C5A C 0.8435(5) -0.7634(4) -0.3905(3)
C6A C 0.7549(5) -0.7330(3) -0.4550(3)
C7A C 0.5226(5) 0.0088(3) 0.0404(3)
C8A C 0.0281(5) -0.0350(3) 0.0238(3)
C9A C 0.0515(5) 0.5387(3) 0.0093(3)
C10A C 0.0528(5) 0.4629(3) 0.4924(3)
C11A C -0.0272(5) 0.9637(3) 0.5221(3)
C12A C 0.4826(5) 1.0075(3) 0.5407(3)
#END
