
#######################################################################
#
#                 Cambridge Crystallographic Data Centre
#                                CCDC
#
#######################################################################
#
# If this CIF has been generated from an entry in the Cambridge
# Structural Database, then it will include bibliographic, chemical,
# crystal, experimental, refinement or atomic coordinate data resulting
# from the CCDC's data processing and validation procedures.
#
#######################################################################

data_CSD_CIF_WECBOX
_audit_creation_date 2013-02-01
_audit_creation_method CSD-ConQuest-V1
_database_code_CSD WECBOX
_database_code_depnum_ccdc_archive 'CCDC 884215'
_chemical_formula_sum 'C18 H44 Mn4 N4 O34 P4'
_chemical_formula_moiety
;
(C5 H16 N2 2+)2n,n(C8 H8 Mn4 O32 P4 4-),2n(H2 O1)
;
_journal_coden_Cambridge 1350
_journal_volume 14
_journal_year 2012
_journal_page_first 5734
_journal_name_full 'CrystEngComm '
loop_
_publ_author_name
"Chunmei Duan"
"Daibing Luo"
"Hongmei Zhang"
"Maoping Kang"
"Zhien Lin"
_chemical_name_systematic
;
catena-(bis(N,N-Dimethylaminopropylammonium) 
tetrakis((\m~2~-oxalato)-(\m~2~-hydrogen phosphato))-tetra-manganese 
dihydrate)
;
_cell_volume   4173.912
_exptl_crystal_colour 'light pink'
_exptl_crystal_density_diffrn 1.916
_exptl_crystal_description 'rod'
_diffrn_ambient_temperature 293
#These two values have been output from a single CSD field.
_refine_ls_R_factor_gt 0.0382
_refine_ls_wR_factor_gt 0.0382
_symmetry_cell_setting orthorhombic
_symmetry_space_group_name_H-M 'P b c a'
_symmetry_Int_Tables_number 61
loop_
_symmetry_equiv_pos_site_id
_symmetry_equiv_pos_as_xyz
1 x,y,z
2 1/2-x,-y,1/2+z
3 -x,1/2+y,1/2-z
4 1/2+x,1/2-y,-z
5 -x,-y,-z
6 -1/2+x,y,-1/2-z
7 x,-1/2-y,-1/2+z
8 -1/2-x,-1/2+y,z
_cell_length_a 9.6900(6)
_cell_length_b 14.4331(8)
_cell_length_c 29.8442(8)
_cell_angle_alpha 90
_cell_angle_beta 90
_cell_angle_gamma 90
_cell_formula_units_Z 4
loop_
_atom_type_symbol
_atom_type_radius_bond
C 0.68
H 0.23
Mn 1.61
N 0.68
O 0.68
P 1.05
loop_
_atom_site_label
_atom_site_type_symbol
_atom_site_fract_x
_atom_site_fract_y
_atom_site_fract_z
Mn1 Mn 0.13053(4) 0.23551(4) 0.700512(15)
Mn2 Mn 0.24975(4) 0.45728(4) 0.546064(15)
P1 P 0.06314(8) 0.29612(7) 0.59580(3)
P2 P 0.28638(8) 0.53050(7) 0.65278(3)
O1 O 0.3254(3) 0.5029(3) 0.60690(8)
O2 O 0.3939(2) 0.49025(19) 0.68610(8)
H1 H 0.37130 0.43750 0.69320
O3 O 0.1427(2) 0.49169(18) 0.66564(8)
H2 H 0.13630 0.43790 0.65700
O4 O 0.2817(3) 0.6326(2) 0.65879(10)
O5 O 0.1881(2) 0.3217(2) 0.56932(8)
O6 O 0.0759(2) 0.32026(17) 0.64442(7)
O7 O -0.0689(2) 0.34434(19) 0.57759(8)
H3 H -0.04960 0.39680 0.56910
O8 O 0.0284(2) 0.19072(19) 0.58922(8)
H4 H 0.07410 0.15970 0.60680
O9 O 0.4461(2) 0.39624(19) 0.52473(8)
O10 O 0.6449(2) 0.4318(2) 0.49199(8)
O11 O 0.1305(2) 0.42305(18) 0.48493(7)
O12 O -0.0680(2) 0.45352(18) 0.45081(7)
O13 O -0.0729(2) 0.17063(17) 0.70349(7)
O14 O 0.0157(2) 0.31810(18) 0.75027(8)
O15 O -0.2684(2) 0.1722(2) 0.74166(8)
O16 O -0.1780(2) 0.31753(17) 0.78965(7)
N1 N -0.5559(4) 0.2255(3) 0.58343(17)
H5 H -0.62850 0.26300 0.58180
H6 H -0.58450 0.16760 0.58790
H7 H -0.50840 0.22840 0.55790
N2 N -0.2439(3) 0.0468(2) 0.65545(9)
H8 H -0.18190 0.08510 0.66890
C1 C 0.5260(3) 0.4502(3) 0.50465(10)
C2 C 0.0187(3) 0.4642(2) 0.48163(9)
C3 C -0.1511(3) 0.2020(2) 0.73337(10)
C4 C -0.0986(3) 0.2865(2) 0.76006(10)
C5 C -0.4702(5) 0.2531(3) 0.61948(14)
H9 H -0.52340 0.25080 0.64700
H10 H -0.44200 0.31680 0.61480
C6 C -0.3431(4) 0.1939(3) 0.62498(15)
H11 H -0.30230 0.18340 0.59570
H12 H -0.27630 0.22730 0.64300
C7 C -0.3719(3) 0.1018(3) 0.64670(12)
H13 H -0.41960 0.11210 0.67480
H14 H -0.43260 0.06610 0.62740
C8 C -0.2720(5) -0.0306(3) 0.68683(15)
H15 H -0.31330 -0.00670 0.71370
H16 H -0.18710 -0.06130 0.69410
H17 H -0.33400 -0.07390 0.67300
C9 C -0.1801(4) 0.0122(3) 0.61348(13)
H18 H -0.09770 -0.02180 0.62050
H19 H -0.15730 0.06370 0.59450
H20 H -0.24390 -0.02770 0.59820
O17 O -0.2346(4) 0.2758(2) 0.52024(12)
H21 H -0.30290 0.22010 0.50960
H22 H -0.28050 0.32470 0.50750
Mn1D Mn -0.13053(4) 0.76449(4) 0.299488(15)
Mn1A Mn 0.36947(4) 0.76449(4) 0.200512(15)
Mn1C Mn -0.36947(4) 0.26449(4) 0.299488(15)
Mn1E Mn -0.36947(4) 0.23551(4) 0.799488(15)
Mn1G Mn 0.36947(4) 0.73551(4) 0.700512(15)
Mn2D Mn -0.24975(4) 0.54272(4) 0.453936(15)
Mn2D* Mn 0.75025(4) 0.54272(4) 0.453936(15)
P1D P -0.06314(8) 0.70388(7) 0.40420(3)
P2D P -0.28638(8) 0.46950(7) 0.34722(3)
O1D O -0.3254(3) 0.4971(3) 0.39310(8)
O2D O -0.3939(2) 0.50975(19) 0.31390(8)
H1D H -0.37130 0.56250 0.30680
O3D O -0.1427(2) 0.50831(18) 0.33436(8)
H2D H -0.13630 0.56210 0.34300
O4D O -0.2817(3) 0.3674(2) 0.34121(10)
O4C O -0.2183(3) 0.8674(2) 0.34121(10)
O4G O 0.2183(3) 0.1326(2) 0.65879(10)
O5D O -0.1881(2) 0.6783(2) 0.43068(8)
O6D O -0.0759(2) 0.67974(17) 0.35558(7)
O7D O 0.0689(2) 0.65566(19) 0.42241(8)
H3D H 0.04960 0.60320 0.43090
O8D O -0.0284(2) 0.80928(19) 0.41078(8)
H4D H -0.07410 0.84030 0.39320
O9D O 0.5539(2) 0.60376(19) 0.47527(8)
O9D* O -0.4461(2) 0.60376(19) 0.47527(8)
O10D O 0.3551(2) 0.5682(2) 0.50801(8)
O10* O -0.3551(2) 0.4318(2) 0.49199(8)
O11D O -0.1305(2) 0.57695(18) 0.51507(7)
O12D O 0.0680(2) 0.54648(18) 0.54919(7)
O13D O 0.0729(2) 0.82937(17) 0.29651(7)
O14D O -0.0157(2) 0.68190(18) 0.24973(8)
O15D O 0.2684(2) 0.8278(2) 0.25834(8)
O15A O -0.2316(2) 0.8278(2) 0.24166(8)
O15E O 0.2316(2) 0.1722(2) 0.75834(8)
O16D O 0.1780(2) 0.68247(17) 0.21035(7)
O16A O -0.3220(2) 0.68247(17) 0.28965(7)
O16E O 0.3220(2) 0.31753(17) 0.71035(7)
C1D C 0.4740(3) 0.5498(3) 0.49535(10)
C2D C -0.0187(3) 0.5358(2) 0.51837(9)
C3D C 0.1511(3) 0.7980(2) 0.26663(10)
C4D C 0.0986(3) 0.7135(2) 0.23994(10)
#END
