
#######################################################################
#
#                 Cambridge Crystallographic Data Centre
#                                CCDC
#
#######################################################################
#
# If this CIF has been generated from an entry in the Cambridge
# Structural Database, then it will include bibliographic, chemical,
# crystal, experimental, refinement or atomic coordinate data resulting
# from the CCDC's data processing and validation procedures.
#
#######################################################################

data_CSD_CIF_WECMUP
_audit_creation_date 2017-08-22
_audit_creation_method CSD-ConQuest-V1
_database_code_CSD WECMUP
_database_code_depnum_ccdc_archive 'CCDC 868928'
_chemical_formula_sum 'C60 H60 Cu4 N18 O80 P2 W18'
_chemical_formula_moiety
;
O62 P2 W18 6-,2n(C30 H26 Cu2 N9 O7 3+),4(H2 O1)
;
_journal_coden_Cambridge 211
_journal_volume 67
_journal_year 2014
_journal_page_first 506
_journal_name_full 'J.Coord.Chem. '
loop_
_publ_author_name
"Chunling Wang"
"Yuanhang Ren"
"Sujiao Feng"
"Zuping Kong"
"Yichen Hu"
"Bin Yue"
"Mingli Deng"
"Heyong He"
_chemical_name_systematic
;
catena-[bis((\m-hydroxo)-(\m-isonicotinic 
acid)-bis(\m-4,4'-(1,3,4-oxadiazole-2,5-diyl)dipyridine)-diaqua-di-copper) 
hexatriacontakis(\m-oxo)-bis(\m-phosphato)-octadecaoxo-octadeca-tungsten 
tetrahydrate]
;
_cell_volume  10997.558
_exptl_crystal_colour 'blue'
_exptl_crystal_density_diffrn 3.56
_exptl_crystal_description 'block'
_diffrn_ambient_temperature 293
_refine_special_details
;
The structure is disordered.

;
#These two values have been output from a single CSD field.
_refine_ls_R_factor_gt 0.0422
_refine_ls_wR_factor_gt 0.0422
_symmetry_cell_setting orthorhombic
_symmetry_space_group_name_H-M 'C m c 21'
_symmetry_Int_Tables_number 36
loop_
_symmetry_equiv_pos_site_id
_symmetry_equiv_pos_as_xyz
1 x,y,z
2 -x,-y,1/2+z
3 x,-y,1/2+z
4 -x,y,z
5 1/2+x,1/2+y,z
6 1/2-x,1/2-y,1/2+z
7 1/2+x,1/2-y,1/2+z
8 1/2-x,1/2+y,z
_cell_length_a 15.164(5)
_cell_length_b 26.274(9)
_cell_length_c 27.603(9)
_cell_angle_alpha 90
_cell_angle_beta 90
_cell_angle_gamma 90
_cell_formula_units_Z 4
loop_
_atom_type_symbol
_atom_type_radius_bond
C 0.68
H 0.23
Cu 1.32
N 0.68
O 0.68
P 1.05
W 1.62
loop_
_atom_site_label
_atom_site_type_symbol
_atom_site_fract_x
_atom_site_fract_y
_atom_site_fract_z
P1 P 0.00000 0.25088(19) 0.1835(2)
P2 P 0.00000 0.26276(19) 0.0408(2)
W1 W 0.11100(5) 0.36768(2) 0.18881(2)
W2 W 0.12063(5) 0.13805(3) 0.17014(2)
W3 W 0.11155(5) 0.27857(3) 0.29187(2)
W4 W 0.23167(4) 0.24776(3) 0.17872(3)
W5 W 0.10967(5) 0.37877(3) 0.05396(3)
W6 W 0.12079(5) 0.14878(3) 0.03499(2)
W7 W 0.23144(5) 0.25929(3) 0.04356(3)
W8 W 0.00000 0.16759(3) 0.28293(3)
W9 W 0.00000 0.19908(4) -0.07100(3)
W10 W 0.11113(5) 0.30990(3) -0.06257(3)
O1 O 0.2382(6) 0.2437(4) 0.1107(5)
O2 O 0.00000 0.2683(6) -0.0159(6)
O3 O 0.0878(8) 0.1712(4) -0.0281(4)
O4 O 0.1385(8) 0.1453(5) 0.1031(4)
O5 O 0.00000 0.2455(5) 0.2397(5)
O6 O 0.1031(7) 0.3590(4) -0.0126(4)
O7 O 0.2254(8) 0.1765(4) 0.1832(4)
O8 O 0.0995(8) 0.3820(4) 0.1221(4)
O9 O 0.0849(9) 0.1484(4) 0.2370(4)
O10 O 0.3420(9) 0.2593(5) 0.1897(5)
O11 O 0.0896(8) 0.2447(5) -0.0906(5)
O12 O 0.1603(10) 0.0905(5) 0.0192(4)
O13 O 0.0903(7) 0.2099(4) 0.3127(4)
O14 O 0.1924(8) 0.3153(4) 0.1737(4)
O15 O 0.1021(8) 0.3370(4) 0.2512(4)
O16 O 0.00000 0.4124(5) 0.0487(6)
O17 O 0.00000 0.3998(5) 0.2002(6)
O18 O 0.0863(7) 0.2256(4) 0.1647(4)
O19 O 0.2246(8) 0.1884(4) 0.0302(4)
O20 O 0.00000 0.1352(5) 0.0437(6)
O21 O 0.1610(9) 0.0779(4) 0.1778(4)
O22 O 0.1875(8) 0.3246(4) 0.0611(4)
O23 O 0.00000 0.3319(6) -0.0765(6)
O24 O 0.1888(8) 0.2748(5) -0.0189(4)
O25 O 0.3395(8) 0.2709(5) 0.0343(5)
O26 O 0.1914(8) 0.2531(4) 0.2449(4)
O27 O 0.00000 0.2966(6) 0.3170(6)
O28 O 0.1810(8) 0.2988(5) 0.3360(4)
O29 O 0.00000 0.1262(5) 0.1564(5)
O30 O 0.0850(8) 0.2338(4) 0.0541(4)
O31 O 0.1786(9) 0.3372(6) -0.1022(4)
O32 O 0.00000 0.1172(6) 0.3227(6)
O33 O 0.00000 0.3072(5) 0.1729(5)
O34 O 0.00000 0.3163(6) 0.0609(6)
O35 O 0.1797(10) 0.4282(5) 0.0462(4)
O36 O 0.00000 0.1576(7) -0.1184(6)
O37 O 0.1778(9) 0.4172(4) 0.2038(4)
C1 C 0.1275(9) 0.3903(7) 0.6130(6)
H1 H 0.13210 0.35610 0.60450
C2 C 0.1285(11) 0.4030(6) 0.6617(7)
H2 H 0.14800 0.38020 0.68510
C3 C 0.072(2) 0.4817(11) 0.6393(11)
H3 H 0.04280 0.51210 0.65040
C4 C 0.071(2) 0.4721(13) 0.5912(13)
H4 H 0.04360 0.49440 0.56820
C5 C 0.1203(16) 0.4249(8) 0.5774(8)
C6 C 0.1211(13) 0.4171(7) 0.5264(8)
C7 C 0.1166(11) 0.4249(6) 0.4491(6)
C8 C 0.1200(14) 0.4502(7) 0.4027(7)
C9 C 0.1162(17) 0.5000(11) 0.3993(11)
H5 H 0.11340 0.52040 0.42680
C10 C 0.116(3) 0.520(2) 0.3547(18)
H6 H 0.11430 0.55530 0.35260
C11 C 0.1228(16) 0.4458(8) 0.3160(7)
H7 H 0.12210 0.42660 0.28780
C12 C 0.127(2) 0.4222(8) 0.3606(8)
H8 H 0.13550 0.38710 0.36230
C13 C 0.00000 0.6222(12) 0.2759(13)
C14 C 0.00000 0.6813(11) 0.2856(11)
C15 C -0.082(2) 0.7061(10) 0.2891(8)
H9 H -0.13560 0.68870 0.28780
C16 C -0.0774(19) 0.7596(10) 0.2948(11)
H10 H -0.12910 0.77850 0.29750
Cu1 Cu 0.1124(3) 0.53001(10) 0.24658(9)
N1 N 0.1003(16) 0.4491(8) 0.6734(9)
N2 N 0.1045(13) 0.3702(8) 0.5085(8)
N3 N 0.110(2) 0.3786(7) 0.4580(8)
N4 N 0.1194(15) 0.4948(7) 0.3138(6)
N5 N 0.00000 0.7832(11) 0.2962(11)
H11 H 0.00000 0.81580 0.29820
O38 O 0.1259(15) 0.4495(6) 0.4910(6)
O39 O 0.0745(11) 0.6063(5) 0.2744(6)
O40 O 0.00000 0.5003(7) 0.2340(7)
H12 H 0.00000 0.46770 0.22100
O41 O 0.2397(12) 0.5494(6) 0.2569(6)
C17 C 0.1430(12) 0.9215(7) 0.3587(6)
H13 H 0.15630 0.88710 0.35640
C18 C 0.1373(14) 0.9429(8) 0.4034(8)
H14 H 0.14430 0.92220 0.43040
C19 C 0.1082(17) 1.0194(11) 0.3714(11)
H15 H 0.09390 1.05350 0.37580
C20 C 0.1139(16) 0.9995(10) 0.3213(10)
H16 H 0.10700 1.02050 0.29440
C21 C 0.1300(13) 0.9487(7) 0.3168(7)
C22 C 0.1243(11) 0.9247(6) 0.2687(6)
C23 C 0.1241(16) 0.9157(7) 0.1938(7)
C24 C 0.1267(19) 0.9247(8) 0.1423(7)
C25 C 0.122(3) 0.9758(17) 0.1309(16)
H17 H 0.13580 1.00160 0.15280
C26 C 0.093(3) 0.9860(19) 0.0771(17)
H18 H 0.06490 1.01630 0.06850
C27 C 0.1206(13) 0.9038(7) 0.0595(6)
H19 H 0.12650 0.87840 0.03620
C28 C 0.1249(14) 0.8909(7) 0.1068(7)
H20 H 0.12660 0.85660 0.11480
C29 C 0.00000 0.8797(9) -0.0544(9)
C30 C 0.00000 0.8209(10) -0.0657(10)
C31 C -0.0762(15) 0.7945(8) -0.0668(9)
H21 H -0.13050 0.81080 -0.06510
C32 C -0.0697(14) 0.7402(7) -0.0706(8)
H22 H -0.11910 0.71930 -0.07300
Cu2 Cu 0.1101(3) 0.97464(11) -0.02598(10)
N6 N 0.1223(10) 0.9913(6) 0.4099(6)
N7 N 0.1260(13) 0.8758(6) 0.2637(6)
N8 N 0.1293(11) 0.8703(6) 0.2146(7)
N9 N 0.1082(19) 0.9511(7) 0.0453(8)
N10 N 0.00000 0.7246(12) -0.0704(12)
H23 H 0.00000 0.69180 -0.07000
O42 O 0.0745(10) 0.8991(5) -0.0513(5)
O43 O 0.00000 1.0119(6) -0.0141(6)
H24 H 0.00000 1.04520 -0.00280
O44 O 0.2434(18) 0.9491(10) -0.0360(9)
O45 O 0.1256(14) 0.9525(6) 0.2270(6)
O46 O 0.00000 0.2917(8) 0.5534(8)
O47 O 0.2723(14) 0.6297(8) 0.3168(9)
C33? C 0.1647(14) 0.4825(7) 0.6471(8)
H25? H 0.18590 0.51500 0.65790
C34? C 0.169(2) 0.4653(14) 0.5991(13)
H26? H 0.20860 0.48320 0.57820
N11? N 0.1465(17) 0.4455(9) 0.6803(10)
O18C O -0.0863(7) 0.2256(4) 0.1647(4)
O30C O -0.0850(8) 0.2338(4) 0.0541(4)
W1C W -0.11100(5) 0.36768(2) 0.18881(2)
W2C W -0.12063(5) 0.13805(3) 0.17014(2)
W3C W -0.11155(5) 0.27857(3) 0.29187(2)
W4C W -0.23167(4) 0.24776(3) 0.17872(3)
W5C W -0.10967(5) 0.37877(3) 0.05396(3)
W6C W -0.12079(5) 0.14878(3) 0.03499(2)
W7C W -0.23144(5) 0.25929(3) 0.04356(3)
W10C W -0.11113(5) 0.30990(3) -0.06257(3)
O1C O -0.2382(6) 0.2437(4) 0.1107(5)
O3C O -0.0878(8) 0.1712(4) -0.0281(4)
O4C O -0.1385(8) 0.1453(5) 0.1031(4)
O6C O -0.1031(7) 0.3590(4) -0.0126(4)
O7C O -0.2254(8) 0.1765(4) 0.1832(4)
O8C O -0.0995(8) 0.3820(4) 0.1221(4)
O9C O -0.0849(9) 0.1484(4) 0.2370(4)
O10C O -0.3420(9) 0.2593(5) 0.1897(5)
O11C O -0.0896(8) 0.2447(5) -0.0906(5)
O12C O -0.1603(10) 0.0905(5) 0.0192(4)
O13C O -0.0903(7) 0.2099(4) 0.3127(4)
O14C O -0.1924(8) 0.3153(4) 0.1737(4)
O15C O -0.1021(8) 0.3370(4) 0.2512(4)
O19C O -0.2246(8) 0.1884(4) 0.0302(4)
O21C O -0.1610(9) 0.0779(4) 0.1778(4)
O22C O -0.1875(8) 0.3246(4) 0.0611(4)
O24C O -0.1888(8) 0.2748(5) -0.0189(4)
O25C O -0.3395(8) 0.2709(5) 0.0343(5)
O26C O -0.1914(8) 0.2531(4) 0.2449(4)
O28C O -0.1810(8) 0.2988(5) 0.3360(4)
O31C O -0.1786(9) 0.3372(6) -0.1022(4)
O35C O -0.1797(10) 0.4282(5) 0.0462(4)
O37C O -0.1778(9) 0.4172(4) 0.2038(4)
C1C C -0.1275(9) 0.3903(7) 0.6130(6)
H1C H -0.13210 0.35610 0.60450
C2C C -0.1285(11) 0.4030(6) 0.6617(7)
H2C H -0.14800 0.38020 0.68510
C3C C -0.072(2) 0.4817(11) 0.6393(11)
H3C H -0.04280 0.51210 0.65040
C4C C -0.071(2) 0.4721(13) 0.5912(13)
H4C H -0.04360 0.49440 0.56820
C5C C -0.1203(16) 0.4249(8) 0.5774(8)
C6C C -0.1211(13) 0.4171(7) 0.5264(8)
C7C C -0.1166(11) 0.4249(6) 0.4491(6)
C8C C -0.1200(14) 0.4502(7) 0.4027(7)
C9C C -0.1162(17) 0.5000(11) 0.3993(11)
H5C H -0.11340 0.52040 0.42680
C10C C -0.116(3) 0.520(2) 0.3547(18)
H6C H -0.11430 0.55530 0.35260
C11C C -0.1228(16) 0.4458(8) 0.3160(7)
H7C H -0.12210 0.42660 0.28780
C12C C -0.127(2) 0.4222(8) 0.3606(8)
H8C H -0.13550 0.38710 0.36230
N1C N -0.1003(16) 0.4491(8) 0.6734(9)
N2C N -0.1045(13) 0.3702(8) 0.5085(8)
N3C N -0.110(2) 0.3786(7) 0.4580(8)
N4C N -0.1194(15) 0.4948(7) 0.3138(6)
O38C O -0.1259(15) 0.4495(6) 0.4910(6)
C15C C 0.082(2) 0.7061(10) 0.2891(8)
H9C H 0.13560 0.68870 0.28780
C16C C 0.0774(19) 0.7596(10) 0.2948(11)
H10C H 0.12910 0.77850 0.29750
O39C O -0.0745(11) 0.6063(5) 0.2744(6)
Cu1C Cu -0.1124(3) 0.53001(10) 0.24658(9)
O41C O -0.2397(12) 0.5494(6) 0.2569(6)
Cu1A Cu -0.1124(3) 0.46999(10) 0.74658(9)
Cu1B Cu 0.1124(3) 0.46999(10) 0.74658(9)
N1A N -0.1003(16) 0.5509(8) 0.1734(9)
N1B N 0.1003(16) 0.5509(8) 0.1734(9)
C31C C 0.0762(15) 0.7945(8) -0.0668(9)
H21C H 0.13050 0.81080 -0.06510
C32C C 0.0697(14) 0.7402(7) -0.0706(8)
H22C H 0.11910 0.71930 -0.07300
O42C O -0.0745(10) 0.8991(5) -0.0513(5)
C17C C -0.1430(12) 0.9215(7) 0.3587(6)
H13C H -0.15630 0.88710 0.35640
C18C C -0.1373(14) 0.9429(8) 0.4034(8)
H14C H -0.14430 0.92220 0.43040
C19C C -0.1082(17) 1.0194(11) 0.3714(11)
H15C H -0.09390 1.05350 0.37580
C20C C -0.1139(16) 0.9995(10) 0.3213(10)
H16C H -0.10700 1.02050 0.29440
C21C C -0.1300(13) 0.9487(7) 0.3168(7)
C22C C -0.1243(11) 0.9247(6) 0.2687(6)
C23C C -0.1241(16) 0.9157(7) 0.1938(7)
C24C C -0.1267(19) 0.9247(8) 0.1423(7)
C25C C -0.122(3) 0.9758(17) 0.1309(16)
H17C H -0.13580 1.00160 0.15280
C26C C -0.093(3) 0.9860(19) 0.0771(17)
H18C H -0.06490 1.01630 0.06850
C27C C -0.1206(13) 0.9038(7) 0.0595(6)
H19C H -0.12650 0.87840 0.03620
C28C C -0.1249(14) 0.8909(7) 0.1068(7)
H20C H -0.12660 0.85660 0.11480
Cu2C Cu -0.1101(3) 0.97464(11) -0.02598(10)
N6C N -0.1223(10) 0.9913(6) 0.4099(6)
N7C N -0.1260(13) 0.8758(6) 0.2637(6)
N8C N -0.1293(11) 0.8703(6) 0.2146(7)
N9C N -0.1082(19) 0.9511(7) 0.0453(8)
O44C O -0.2434(18) 0.9491(10) -0.0360(9)
O45C O -0.1256(14) 0.9525(6) 0.2270(6)
Cu2A Cu -0.1101(3) 1.02536(11) 0.47402(10)
Cu2B Cu 0.1101(3) 1.02536(11) 0.47402(10)
N6A N -0.1223(10) 1.0087(6) -0.0901(6)
N6B N 0.1223(10) 1.0087(6) -0.0901(6)
#END
