
#######################################################################
#
#                 Cambridge Crystallographic Data Centre
#                                CCDC
#
#######################################################################
#
# If this CIF has been generated from an entry in the Cambridge
# Structural Database, then it will include bibliographic, chemical,
# crystal, experimental, refinement or atomic coordinate data resulting
# from the CCDC's data processing and validation procedures.
#
#######################################################################

data_CSD_CIF_WECNEA
_audit_creation_date 2017-08-22
_audit_creation_method CSD-ConQuest-V1
_database_code_CSD WECNEA
_database_code_depnum_ccdc_archive 'CCDC 868926'
_chemical_formula_sum 'C44 H54 Cl1 Cu3 N14 O46 Si1 W12'
_chemical_formula_moiety
;
(C24 H18 Cl1 Cu2 N8 O3 1+)n,O40 Si1 W12 4-,n(C12 H10 Cu1 N4 O2 1+),2(C4 H12 
N1 1+),H2 O1
;
_journal_coden_Cambridge 211
_journal_volume 67
_journal_year 2014
_journal_page_first 506
_journal_name_full 'J.Coord.Chem. '
loop_
_publ_author_name
"Chunling Wang"
"Yuanhang Ren"
"Sujiao Feng"
"Zuping Kong"
"Yichen Hu"
"Bin Yue"
"Mingli Deng"
"Heyong He"
_chemical_name_systematic
;
catena-[bis(tetramethylammonium) 
(\m-4,4'-(1,3,4-oxadiazole-2,5-diyl)dipyridine)-aqua-copper 
(\m-chloro)-bis(\m-4,4'-(1,3,4-oxadiazole-2,5-diyl)dipyridine)-aqua-di-copper 
(\m-orthosilicato)-tetracosakis(\m-oxo)-dodecaoxo-dodeca-tungsten 
monohydrate]
;
_cell_volume   3826.515
_exptl_crystal_colour 'orange'
_exptl_crystal_density_diffrn 3.431
_exptl_special_details
;
The free water molecule included in the formula appears to have not been 
modelled
;
_exptl_crystal_description 'block'
_diffrn_ambient_temperature 293
#These two values have been output from a single CSD field.
_refine_ls_R_factor_gt 0.0535
_refine_ls_wR_factor_gt 0.0535
_symmetry_cell_setting triclinic
_symmetry_space_group_name_H-M 'P -1'
_symmetry_Int_Tables_number 2
loop_
_symmetry_equiv_pos_site_id
_symmetry_equiv_pos_as_xyz
1 x,y,z
2 -x,-y,-z
_cell_length_a 13.616(4)
_cell_length_b 14.252(4)
_cell_length_c 22.046(6)
_cell_angle_alpha 75.313(4)
_cell_angle_beta 80.192(4)
_cell_angle_gamma 68.120(4)
_cell_formula_units_Z 2
loop_
_atom_type_symbol
_atom_type_radius_bond
C 0.68
H 0.23
Cl 0.99
Cu 1.32
N 0.68
O 0.68
Si 1.20
W 1.62
loop_
_atom_site_label
_atom_site_type_symbol
_atom_site_fract_x
_atom_site_fract_y
_atom_site_fract_z
Si1 Si 0.8112(4) 0.5135(3) 0.74389(19)
W1 W 0.99203(6) 0.35157(6) 0.64591(3)
W2 W 0.98440(6) 0.65307(6) 0.72479(3)
W3 W 0.72433(6) 0.40355(6) 0.89696(3)
W4 W 0.70590(6) 0.77964(6) 0.68531(3)
W5 W 0.89975(6) 0.24656(6) 0.80773(3)
W6 W 0.90092(6) 0.60633(6) 0.58771(3)
W7 W 0.54281(6) 0.64371(6) 0.70740(4)
W8 W 0.62211(6) 0.68483(6) 0.83285(3)
W9 W 0.73894(6) 0.46852(6) 0.61063(3)
W10 W 0.90064(6) 0.55841(6) 0.87187(3)
W11 W 0.64614(6) 0.36220(6) 0.77189(3)
W12 W 1.07627(6) 0.39670(6) 0.78407(3)
O1 O 0.7093(8) 0.6178(8) 0.7433(5)
O2 O 0.6411(9) 0.5465(9) 0.8708(5)
O3 O 1.0537(10) 0.7371(10) 0.7005(6)
O4 O 0.9674(10) 0.1185(9) 0.8276(5)
O5 O 0.5759(9) 0.7651(9) 0.6706(5)
O6 O 0.9039(9) 0.5224(8) 0.7713(5)
O7 O 0.9433(9) 0.2765(9) 0.7205(5)
O8 O 0.6268(9) 0.5781(9) 0.6422(5)
O9 O 0.5114(10) 0.6894(9) 0.7852(5)
O10 O 0.7834(9) 0.7120(9) 0.6192(5)
O11 O 0.7589(9) 0.6493(9) 0.8545(5)
O12 O 0.9173(12) 0.5848(12) 0.9403(6)
O13 O 0.8288(9) 0.2717(9) 0.8902(5)
O14 O 0.8453(8) 0.4948(8) 0.6728(5)
O15 O 1.0329(9) 0.4501(9) 0.8598(5)
O16 O 0.8390(9) 0.7384(9) 0.7156(5)
O17 O 0.639(1) 0.7965(11) 0.7673(5)
O18 O 1.0968(9) 0.5219(9) 0.7463(6)
O19 O 1.0627(9) 0.3785(9) 0.7030(5)
O20 O 0.9405(10) 0.6756(10) 0.5208(5)
O21 O 0.7845(8) 0.4191(8) 0.7889(4)
O22 O 0.5622(9) 0.5057(9) 0.7535(5)
O23 O 0.5491(10) 0.7539(9) 0.8884(6)
O24 O 0.680(1) 0.3756(9) 0.9749(6)
O25 O 0.8762(9) 0.3607(9) 0.6049(5)
O26 O 0.7681(9) 0.2416(9) 0.7908(5)
O27 O 0.5537(10) 0.3068(10) 0.7717(6)
O28 O 0.9994(10) 0.3003(9) 0.8177(5)
O29 O 0.9756(10) 0.6178(10) 0.6485(5)
O30 O 0.6993(9) 0.3812(9) 0.6870(5)
O31 O 0.6768(10) 0.4472(12) 0.5557(6)
O32 O 0.9576(10) 0.6501(9) 0.8128(5)
O33 O 0.8025(9) 0.5662(9) 0.5581(5)
O34 O 0.6321(9) 0.3669(9) 0.8607(5)
O35 O 0.8329(10) 0.4558(10) 0.8997(5)
O36 O 0.6772(10) 0.903(1) 0.6502(6)
O37 O 1.0017(9) 0.4672(10) 0.5878(5)
O38 O 0.4172(10) 0.6856(11) 0.6840(7)
O39 O 1.0900(11) 0.2524(11) 0.6172(6)
O40 O 1.2037(11) 0.3185(11) 0.7961(6)
Cu1 Cu 0.1558(2) -0.0122(2) 0.59239(13)
O41 O 0.6312(10) 0.0832(10) 0.5484(6)
O42 O 0.2041(11) -0.1670(12) 0.6507(7)
C1 C 0.8483(15) 0.0029(15) 0.5683(9)
H1 H 0.81340 -0.04390 0.57320
C2 C 0.8579(15) 0.1741(16) 0.5354(8)
H2 H 0.82740 0.24450 0.51930
C3 C 0.7960(15) 0.1051(15) 0.5445(8)
C4 C 0.6875(15) 0.1466(14) 0.5306(9)
C5 C 0.5363(16) 0.1474(15) 0.5273(10)
C6 C 0.4414(14) 0.1032(15) 0.5440(8)
C7 C 0.3468(18) 0.1577(17) 0.5182(11)
H3 H 0.34010 0.21850 0.48840
C8 C 0.2694(18) 0.128(2) 0.5336(10)
H4 H 0.20400 0.17240 0.51950
C9 C 0.3693(16) -0.0281(16) 0.5957(8)
H5 H 0.37800 -0.09300 0.62130
C10 C 0.4604(14) 0.0131(13) 0.5809(8)
H6 H 0.52570 -0.02410 0.59730
C11 C 0.9590(15) 0.1338(15) 0.5508(8)
H7 H 0.99610 0.17920 0.54380
C12 C 0.9504(18) -0.0329(15) 0.5852(9)
H8 H 0.98170 -0.10230 0.60360
N1 N 0.6320(15) 0.2356(14) 0.5015(9)
N2 N 0.5322(13) 0.2391(14) 0.5000(8)
N3 N 0.2757(12) 0.0297(12) 0.5715(6)
N4 N 1.0102(12) 0.0364(12) 0.5749(7)
Cu2 Cu 1.0135(2) -0.1256(3) 0.92143(16)
Cu3 Cu 1.0879(2) -0.0679(2) 0.77593(14)
Cl1 Cl 1.1188(5) -0.2241(5) 0.8463(3)
O43 O 0.4683(13) -0.0157(13) 0.9180(7)
O44 O 0.5576(10) 0.0401(11) 0.7451(6)
C13 C 0.806(2) 0.027(2) 0.9128(9)
H9 H 0.84360 0.07180 0.90890
C14 C 0.694(2) 0.067(2) 0.9101(11)
H10 H 0.65790 0.13740 0.90590
C15 C 0.6424(19) 0.0054(18) 0.9134(9)
C16 C 0.6932(19) -0.1052(19) 0.9237(10)
H11 H 0.65770 -0.15160 0.92880
C17 C 0.805(3) -0.134(2) 0.9253(11)
H12 H 0.84330 -0.20450 0.92990
C18 C 0.524(2) 0.045(2) 0.9141(10)
C19 C 0.3651(16) 0.052(2) 0.9177(10)
C20 C 0.2210(18) -0.1328(19) 0.9440(11)
H13 H 0.23450 -0.20310 0.94890
C21 C 0.299(2) -0.106(2) 0.9391(11)
H14 H 0.36700 -0.15500 0.94350
C22 C 0.2836(16) 0.0079(17) 0.9259(9)
C23 C 0.1752(17) 0.0767(19) 0.9268(9)
H15 H 0.15640 0.14770 0.92200
C24 C 0.0965(18) 0.0256(18) 0.9359(10)
H16 H 0.02500 0.06670 0.93640
C25 C 0.3077(17) -0.077(2) 0.7757(11)
H17 H 0.31920 -0.14590 0.79500
C26 C 0.1914(18) 0.0836(17) 0.736(1)
H18 H 0.12360 0.12850 0.72630
C27 C 0.8986(17) 0.0685(15) 0.7118(9)
H19 H 0.93940 0.11010 0.69430
C28 C 0.7913(16) 0.1083(16) 0.6998(9)
H20 H 0.76240 0.17260 0.67390
C29 C 0.7349(15) 0.0520(15) 0.7263(8)
C30 C 0.7750(16) -0.0416(15) 0.7602(9)
H21 H 0.73120 -0.08020 0.77740
C31 C 0.8798(18) -0.0826(17) 0.7704(10)
H22 H 0.90710 -0.14970 0.79340
C32 C 0.6199(15) 0.0927(14) 0.7118(8)
C33 C 0.4614(18) 0.0954(16) 0.7193(10)
C34 C 0.3899(17) -0.0475(15) 0.7643(8)
H23 H 0.45710 -0.09360 0.77440
C35 C 0.3723(15) 0.0609(15) 0.7352(8)
C36 C 0.266(2) 0.1171(19) 0.7249(10)
H24 H 0.24960 0.18740 0.70780
N5 N 0.1203(14) -0.0713(17) 0.9431(8)
N6 N 0.8587(16) -0.0769(18) 0.9211(9)
N7 N 0.4654(17) 0.148(2) 0.9089(11)
N8 N 0.3581(16) 0.1382(16) 0.9148(11)
N9 N 0.2068(12) -0.0172(14) 0.7621(7)
N10 N 0.9472(13) -0.0257(12) 0.7469(7)
N11 N 0.5690(15) 0.1741(13) 0.6707(8)
N12 N 0.4692(14) 0.1775(12) 0.6759(8)
O45 O 1.0101(15) -0.2827(18) 1.0112(10)
C37 C 0.714(3) 0.591(3) 0.3970(11)
H25 H 0.78950 0.56300 0.38670
H26 H 0.70080 0.59450 0.44080
H27 H 0.68670 0.65990 0.37190
C38 C 0.6442(19) 0.558(2) 0.3147(10)
H28 H 0.68160 0.60370 0.29310
H29 H 0.56960 0.59200 0.31010
H30 H 0.66960 0.49710 0.29700
C39 C 0.562(3) 0.570(3) 0.4181(17)
H31 H 0.51300 0.61350 0.38760
H32 H 0.56800 0.61000 0.44550
H33 H 0.53770 0.51550 0.44240
C40 C 0.737(3) 0.422(2) 0.4003(14)
H34 H 0.76120 0.39440 0.36280
H35 H 0.70240 0.37960 0.43020
H36 H 0.79670 0.42180 0.41810
N13 N 0.6633(12) 0.5269(13) 0.3844(7)
C41 C 0.7844(18) 0.478(2) 0.0626(12)
H37 H 0.82830 0.51810 0.05980
H38 H 0.77800 0.47150 0.02120
H39 H 0.81600 0.40990 0.08770
C42 C 0.610(2) 0.603(2) 0.0423(14)
H40 H 0.54480 0.64510 0.06140
H41 H 0.59370 0.56690 0.01630
H42 H 0.64740 0.64670 0.01690
C43 C 0.6293(19) 0.449(2) 0.1129(12)
H43 H 0.68250 0.38490 0.13040
H44 H 0.60240 0.43930 0.07820
H45 H 0.57220 0.46810 0.14460
C44 C 0.673(3) 0.576(3) 0.1398(17)
H46 H 0.74420 0.55860 0.14970
H47 H 0.63120 0.55520 0.17700
H48 H 0.64240 0.64950 0.12490
N14 N 0.6757(14) 0.5287(14) 0.0914(9)
Cu1* Cu 1.1558(2) -0.0122(2) 0.59239(13)
N4* N 0.0102(12) 0.0364(12) 0.5749(7)
Cu2* Cu 0.0135(2) -0.1256(3) 0.92143(16)
Cu3* Cu 0.0879(2) -0.0679(2) 0.77593(14)
N5* N 1.1203(14) -0.0713(17) 0.9431(8)
N9* N 1.2068(12) -0.0172(14) 0.7621(7)
#END
