
#######################################################################
#
#                 Cambridge Crystallographic Data Centre
#                                CCDC
#
#######################################################################
#
# If this CIF has been generated from an entry in the Cambridge
# Structural Database, then it will include bibliographic, chemical,
# crystal, experimental, refinement or atomic coordinate data resulting
# from the CCDC's data processing and validation procedures.
#
#######################################################################

data_CSD_CIF_WEFCUH
_audit_creation_date 2012-11-29
_audit_creation_method CSD-ConQuest-V1
_database_code_CSD WEFCUH
_database_code_depnum_ccdc_archive 'CCDC 861209'
_chemical_formula_sum 'C14 H17 N2 O9 Sm1'
_chemical_formula_moiety
;
(C12 H9 N1 O9 Sm1 1-)n,n(C2 H8 N1 1+)
;
_journal_coden_Cambridge 1350
_journal_volume 14
_journal_year 2012
_journal_page_first 6055
_journal_name_full 'CrystEngComm '
loop_
_publ_author_name
"Jie Ma"
"Fei-Long Jiang"
"Lian Chen"
"Ming-Yan Wu"
"Shu-Quan Zhang"
"Ke-cai Xiong"
"Dong Han"
"Mao-Chun Hong"
_chemical_name_systematic
;
catena-((\m~4~-5-[bis(carboxylatomethyl)amino]benzene-1,3-dicarboxylato)-aqua-
samarium(iii) dimethylammonium)
;
_cell_volume    843.428
_exptl_crystal_colour 'colorless'
_exptl_crystal_density_diffrn 1.999
_exptl_crystal_description 'block'
_diffrn_ambient_temperature 293.1
#These two values have been output from a single CSD field.
_refine_ls_R_factor_gt 0.0302
_refine_ls_wR_factor_gt 0.0302
_symmetry_cell_setting triclinic
_symmetry_space_group_name_H-M 'P -1'
_symmetry_Int_Tables_number 2
loop_
_symmetry_equiv_pos_site_id
_symmetry_equiv_pos_as_xyz
1 x,y,z
2 -x,-y,-z
_cell_length_a 9.630(3)
_cell_length_b 10.182(3)
_cell_length_c 10.687(3)
_cell_angle_alpha 106.573(3)
_cell_angle_beta 107.2
_cell_angle_gamma 110.615(2)
_cell_formula_units_Z 2
loop_
_atom_type_symbol
_atom_type_radius_bond
C 0.68
H 0.23
N 0.68
O 0.68
Sm 1.78
loop_
_atom_site_label
_atom_site_type_symbol
_atom_site_fract_x
_atom_site_fract_y
_atom_site_fract_z
Sm1 Sm 0.33424(3) 0.06038(3) 0.38556(2)
O1 O 0.3437(5) -0.0727(6) 0.1824(4)
N1 N 0.2429(6) -0.3735(5) -0.4325(5)
C1 C 0.3637(7) -0.1541(7) 0.0847(6)
O2 O 0.4443(6) -0.2220(6) 0.1048(5)
N2 N 0.8213(7) 0.7065(6) 0.0013(6)
C2 C 0.2784(7) -0.1744(6) -0.0678(6)
O3 O -0.0663(5) -0.0058(4) -0.1874(4)
C3 C 0.1692(7) -0.1091(6) -0.0992(6)
H1 H 0.15480 -0.04710 -0.02400
O4 O -0.1280(5) -0.1305(5) -0.4171(4)
C4 C 0.0861(7) -0.1398(6) -0.2424(6)
O5 O 0.3757(4) -0.1113(4) -0.4916(4)
C5 C 0.1113(6) -0.2228(6) -0.3522(5)
H2 H 0.05570 -0.23740 -0.44870
O6 O 0.1338(5) -0.2072(5) -0.6723(4)
C6 C 0.2200(6) -0.2870(6) -0.3225(5)
O7 O 0.5772(5) -0.2826(5) -0.3538(5)
C7 C 0.3016(7) -0.2591(7) -0.1782(6)
H3 H 0.37550 -0.29990 -0.15550
O8 O 0.5650(6) -0.4558(5) -0.2691(5)
C8 C -0.0402(6) -0.0884(6) -0.2838(6)
O9 O 0.4511(5) 0.2318(4) 0.6414(4)
C9 C 0.1760(7) -0.3828(6) -0.5767(5)
H4 H 0.21060 -0.44450 -0.63830
H5 H 0.05380 -0.43910 -0.61950
C10 C 0.2305(7) -0.2232(6) -0.5806(5)
C11 C 0.3124(7) -0.4772(6) -0.4108(6)
H6 H 0.27000 -0.52400 -0.35160
H7 H 0.27160 -0.56320 -0.50680
C12 C 0.5002(7) -0.3992(6) -0.3369(6)
C13 C 0.8965(9) 0.5993(9) -0.0189(8)
H8 H 0.97870 0.62330 0.07590
H9 H 0.95020 0.61420 -0.08240
H10 H 0.80960 0.49090 -0.06340
C14 C 0.7344(10) 0.6831(11) 0.0939(10)
H11 H 0.61670 0.64770 0.03800
H12 H 0.78240 0.78170 0.17970
H13 H 0.74690 0.60450 0.12490
Sm1A Sm -0.33424(3) -0.06038(3) -0.38556(2)
Sm1A* Sm 0.66576(3) -0.06038(3) -0.38556(2)
Sm1* Sm 0.33424(3) 0.06038(3) -0.61444(2)
O3A O 0.0663(5) 0.0058(4) 0.1874(4)
O4A O 0.1280(5) 0.1305(5) 0.4171(4)
O5A O 0.6243(4) 0.1113(4) 0.4916(4)
O5* O 0.3757(4) -0.1113(4) 0.5084(4)
O6* O 0.1338(5) -0.2072(5) 0.3277(4)
O7A O 0.4228(5) 0.2826(5) 0.3538(5)
#END
