
#######################################################################
#
#                 Cambridge Crystallographic Data Centre
#                                CCDC
#
#######################################################################
#
# If this CIF has been generated from an entry in the Cambridge
# Structural Database, then it will include bibliographic, chemical,
# crystal, experimental, refinement or atomic coordinate data resulting
# from the CCDC's data processing and validation procedures.
#
#######################################################################

data_CSD_CIF_WEFCIV
_audit_creation_date 2012-11-29
_audit_creation_method CSD-ConQuest-V1
_database_code_CSD WEFCIV
_database_code_depnum_ccdc_archive 'CCDC 861207'
_chemical_formula_sum 'C14 H17 Eu1 N2 O9'
_chemical_formula_moiety
;
(C12 H9 Eu1 N1 O9 1-)n,n(C2 H8 N1 1+)
;
_journal_coden_Cambridge 1350
_journal_volume 14
_journal_year 2012
_journal_page_first 6055
_journal_name_full 'CrystEngComm '
loop_
_publ_author_name
"Jie Ma"
"Fei-Long Jiang"
"Lian Chen"
"Ming-Yan Wu"
"Shu-Quan Zhang"
"Ke-cai Xiong"
"Dong Han"
"Mao-Chun Hong"
_chemical_name_systematic
;
catena-((\m~4~-5-[bis(carboxylatomethyl)amino]benzene-1,3-dicarboxylato)-aqua-
europium(iii) dimethylammonium)
;
_cell_volume    841.410
_exptl_crystal_colour 'colorless'
_exptl_crystal_density_diffrn 2.01
_exptl_crystal_description 'block'
_diffrn_ambient_temperature 293.1
#These two values have been output from a single CSD field.
_refine_ls_R_factor_gt 0.028
_refine_ls_wR_factor_gt 0.028
_symmetry_cell_setting triclinic
_symmetry_space_group_name_H-M 'P -1'
_symmetry_Int_Tables_number 2
loop_
_symmetry_equiv_pos_site_id
_symmetry_equiv_pos_as_xyz
1 x,y,z
2 -x,-y,-z
_cell_length_a 9.6579(16)
_cell_length_b 10.1549(18)
_cell_length_c 10.6914(16)
_cell_angle_alpha 106.576(2)
_cell_angle_beta 107.444(3)
_cell_angle_gamma 110.660(4)
_cell_formula_units_Z 2
loop_
_atom_type_symbol
_atom_type_radius_bond
C 0.68
H 0.23
Eu 1.75
N 0.68
O 0.68
loop_
_atom_site_label
_atom_site_type_symbol
_atom_site_fract_x
_atom_site_fract_y
_atom_site_fract_z
Eu1 Eu -0.164999(19) 0.060598(19) 0.885460(16)
O1 O -0.1571(4) -0.0710(4) 0.6827(3)
N1 N -0.2578(4) -0.3722(4) 0.0679(4)
C1 C -0.1354(5) -0.1510(5) 0.5864(4)
N2 N 0.6791(5) 0.2979(5) 0.4972(5)
O2 O -0.0547(5) -0.2206(5) 0.6060(4)
C2 C -0.5436(5) -0.0900(5) 0.2146(4)
O3 O -0.5682(3) -0.0079(3) 0.3121(3)
C3 C -0.2220(5) -0.1720(5) 0.4330(4)
O4 O -0.6307(4) -0.1325(4) 0.0830(3)
C4 C -0.3310(5) -0.1116(5) 0.4020(4)
H1 H -0.34720 -0.05250 0.47750
O5 O 0.0659(4) -0.4568(4) 0.2297(4)
C5 C -0.4160(5) -0.1400(5) 0.2571(4)
O6 O 0.0770(4) -0.2821(4) 0.1462(4)
C6 C -0.3898(5) -0.2241(4) 0.1481(4)
H2 H -0.44700 -0.24060 0.05100
O7 O -0.1236(3) -0.1127(3) 0.0080(3)
C7 C -0.2811(5) -0.2855(4) 0.1772(4)
O8 O -0.3659(3) -0.2040(3) -0.1707(3)
C8 C -0.1976(5) -0.2567(5) 0.3233(4)
H3 H -0.12290 -0.29660 0.34660
O9 O -0.0480(4) 0.2294(4) 1.1388(3)
C9 C -0.1895(5) -0.4758(5) 0.0888(4)
H4 H -0.23120 -0.52230 0.14830
H5 H -0.23180 -0.56250 -0.00760
C10 C 0.0000(5) -0.3982(5) 0.1626(4)
C11 C -0.3264(5) -0.3804(5) -0.0765(4)
H6 H -0.29590 -0.44480 -0.14010
H7 H -0.44850 -0.43390 -0.11770
C12 C -0.2691(5) -0.2230(5) -0.0792(4)
C13 C 0.6037(7) 0.3998(7) 0.5198(6)
H8 H 0.68930 0.50960 0.56570
H9 H 0.55120 0.38190 0.58320
H10 H 0.52020 0.37610 0.42550
C14 C 0.7648(8) 0.3186(8) 0.4064(8)
H11 H 0.68420 0.28440 0.30690
H12 H 0.82220 0.25590 0.40470
H13 H 0.84540 0.42930 0.44690
H14 H -0.01700 0.32970 1.17410
H15 H -0.02760 0.21090 1.21380
H16 H 0.60420 0.19870 0.45200
H17 H 0.73700 0.31370 0.58580
Eu1A Eu -0.835001(19) -0.060598(19) 0.114540(16)
Eu1A* Eu 0.164999(19) -0.060598(19) 0.114540(16)
Eu1* Eu -0.164999(19) 0.060598(19) -0.114540(16)
O3A O -0.4318(3) 0.0079(3) 0.6879(3)
O4A O -0.3693(4) 0.1325(4) 0.9170(3)
O6A O -0.0770(4) 0.2821(4) 0.8538(4)
O7A O 0.1236(3) 0.1127(3) 0.9920(3)
O7* O -0.1236(3) -0.1127(3) 1.0080(3)
O8* O -0.3659(3) -0.2040(3) 0.8293(3)
#END
