
#######################################################################
#
#                 Cambridge Crystallographic Data Centre
#                                CCDC
#
#######################################################################
#
# If this CIF has been generated from an entry in the Cambridge
# Structural Database, then it will include bibliographic, chemical,
# crystal, experimental, refinement or atomic coordinate data resulting
# from the CCDC's data processing and validation procedures.
#
#######################################################################

data_CSD_CIF_WEGDIX
_audit_creation_date 2013-01-14
_audit_creation_method CSD-ConQuest-V1
_database_code_CSD WEGDIX
_database_code_depnum_ccdc_archive 'CCDC 874218'
_chemical_formula_sum 'C19 H29 Cd2 N5 O9 S3'
_chemical_formula_moiety
;
(C2 H8 N1 1+)2n,n(C12 H6 Cd2 N2 O8 S3 2-),n(C3 H7 N1 O1)
;
_journal_coden_Cambridge 1295
_journal_volume 22
_journal_year 2012
_journal_page_first 101
_journal_name_full 'Inorg.Chem.Commun. '
loop_
_publ_author_name
"Shao-Ming Fang"
"Min Chen"
"Xiao-Gang Yang"
"Jing-Yun Hu"
"Chun-Sen Liu"
_chemical_name_systematic
;
catena-(bis(Dimethylammonium) 
bis(\m~3~-6-sulfanylnicotinato)-(\m~2~-sulfato)-di-cadmium 
N,N-dimethylformamide solvate)
;
_cell_volume   1561.682
_exptl_crystal_colour 'colorless'
_exptl_crystal_density_diffrn 1.685
_exptl_crystal_description 'prism'
_diffrn_ambient_temperature 294
#These two values have been output from a single CSD field.
_refine_ls_R_factor_gt 0.0326
_refine_ls_wR_factor_gt 0.0326
_symmetry_cell_setting triclinic
_symmetry_space_group_name_H-M 'P -1'
_symmetry_Int_Tables_number 2
loop_
_symmetry_equiv_pos_site_id
_symmetry_equiv_pos_as_xyz
1 x,y,z
2 -x,-y,-z
_cell_length_a 7.8398(3)
_cell_length_b 14.425(1)
_cell_length_c 14.4884(10)
_cell_angle_alpha 90.760(6)
_cell_angle_beta 97.907(5)
_cell_angle_gamma 105.506(5)
_cell_formula_units_Z 2
loop_
_atom_type_symbol
_atom_type_radius_bond
C 0.68
H 0.23
Cd 1.54
N 0.68
O 0.68
S 1.02
loop_
_atom_site_label
_atom_site_type_symbol
_atom_site_fract_x
_atom_site_fract_y
_atom_site_fract_z
Cd1 Cd 1.27558(4) 1.03618(2) 1.006591(19)
Cd2 Cd 1.44139(4) 1.52703(2) 1.353570(19)
C1 C 1.2719(6) 1.2431(3) 1.1123(3)
H1 H 1.38080 1.24080 1.14560
C2 C 1.2036(5) 1.3169(3) 1.1340(3)
C3 C 1.0402(6) 1.3197(3) 1.0832(3)
H2 H 0.98880 1.36880 1.09560
C4 C 0.9563(6) 1.2494(3) 1.0148(3)
H3 H 0.84780 1.25090 0.98040
C5 C 1.0329(5) 1.1759(3) 0.9967(3)
C6 C 1.2989(6) 1.3922(3) 1.2108(3)
C7 C 1.3955(5) 1.1731(3) 0.8308(3)
H4 H 1.35670 1.22030 0.85950
C8 C 1.4675(5) 1.1943(3) 0.7498(3)
C9 C 1.5191(5) 1.1223(3) 0.7070(3)
H5 H 1.56700 1.13340 0.65170
C10 C 1.5001(5) 1.0340(3) 0.7459(3)
H6 H 1.53300 0.98510 0.71660
C11 C 1.4305(5) 1.0191(3) 0.8301(3)
C12 C 1.4934(6) 1.2932(3) 0.7127(3)
C13 C 0.9786(8) 0.2457(4) 0.6831(5)
H7 H 1.10280 0.24690 0.69190
H8 H 0.91990 0.21050 0.62560
H9 H 0.92350 0.21500 0.73410
C14 C 1.0152(9) 0.3960(6) 0.7655(5)
H10 H 0.93530 0.36790 0.80840
H11 H 1.01160 0.46130 0.75650
H12 H 1.13480 0.39520 0.79030
C15 C 0.1978(8) 0.6865(5) 0.7124(4)
H13 H 0.29680 0.69540 0.76180
H14 H 0.10100 0.63400 0.72550
H15 H 0.15920 0.74430 0.70790
C16 C 0.3779(8) 0.7436(5) 0.5873(5)
H16 H 0.32100 0.79380 0.57190
H17 H 0.41430 0.72150 0.53230
H18 H 0.48100 0.76810 0.63370
C17 C 0.7553(17) 0.9723(10) 0.5357(9)
H19 H 0.69190 0.93930 0.48060
C18 C 0.8574(14) 0.8391(7) 0.5633(10)
H20 H 0.97660 0.84090 0.55300
H21 H 0.77810 0.82400 0.50520
H22 H 0.81870 0.79070 0.60650
C19 C 0.9516(15) 0.9646(10) 0.6782(8)
H23 H 0.99830 0.91760 0.71180
H24 H 0.87710 0.98790 0.71480
H25 H 1.04890 1.01730 0.66600
N1 N 1.1910(4) 1.1736(2) 1.0457(2)
N2 N 1.3781(4) 1.0889(2) 0.8708(2)
N3 N 0.9628(6) 0.3429(3) 0.6798(3)
H26 H 1.03000 0.37390 0.63820
H27 H 0.84820 0.34080 0.65910
N4 N 0.2539(6) 0.6645(3) 0.6233(3)
H28 H 0.30440 0.61550 0.63110
H29 H 0.15560 0.64430 0.58030
N5 N 0.8559(10) 0.9243(5) 0.5982(6)
O1 O 1.2267(5) 1.4553(2) 1.2297(2)
O2 O 1.4457(5) 1.3880(2) 1.2527(2)
O3 O 1.4186(5) 1.3488(2) 0.7452(2)
O4 O 1.5890(4) 1.3155(2) 0.6500(2)
O5 O 1.3692(4) 1.4035(2) 1.4691(2)
O6 O 1.1868(4) 1.5103(2) 1.4384(2)
O7 O 1.2693(4) 1.4712(2) 1.59641(18)
O8 O 1.0582(4) 1.3521(2) 1.4917(2)
O9 O 0.7483(11) 1.0554(5) 0.5513(5)
S1 S 0.93636(14) 1.08569(8) 0.90914(7)
S2 S 1.40639(14) 0.91283(7) 0.88891(7)
S3 S 1.21752(13) 1.43342(7) 1.49727(7)
Cd1A Cd 0.72442(4) 0.96382(2) 0.993409(19)
Cd1A* Cd 1.72442(4) 0.96382(2) 0.993409(19)
Cd2A Cd 1.55861(4) 1.47297(2) 0.646430(19)
Cd2A* Cd 1.55861(4) 1.47297(2) 1.646430(19)
O3A O 1.5814(5) 1.6512(2) 1.2548(2)
O4A O 1.4110(4) 1.6845(2) 1.3500(2)
O7A O 1.7307(4) 1.5288(2) 1.40359(18)
S1A S 1.06364(14) 0.91431(8) 1.09086(7)
S2A S 1.59361(14) 1.08717(7) 1.11109(7)
#END
