
#######################################################################
#
#                 Cambridge Crystallographic Data Centre
#                                CCDC
#
#######################################################################
#
# If this CIF has been generated from an entry in the Cambridge
# Structural Database, then it will include bibliographic, chemical,
# crystal, experimental, refinement or atomic coordinate data resulting
# from the CCDC's data processing and validation procedures.
#
#######################################################################

data_CSD_CIF_WEHDUK
_audit_creation_date 2012-11-29
_audit_creation_method CSD-ConQuest-V1
_database_code_CSD WEHDUK
_database_code_depnum_ccdc_archive 'CCDC 891834'
_chemical_formula_sum 'C93 H146 Mn6 N10 O61 Yb4'
_chemical_formula_moiety
;
(C43 H47 Mn3 N4 O18 Yb2 3+)n,n(C44 H51 Mn3 N4 O19 Yb2 1-),2n(N1 O3 1-),6n(C1 
H4 O1),12n(H2 O1)
;
_journal_coden_Cambridge 222
_journal_volume 41
_journal_year 2012
_journal_page_first 10518
_journal_name_full 'Dalton Trans. '
loop_
_publ_author_name
"Yong Zheng"
"La-Sheng Long"
"Rong-Bin Huang"
"Lan-Sun Zheng"
_chemical_name_systematic
;
catena-(tris(\m~4~-(S,E)-4-(2-hydroxybenzylideneamino)-2-hydroxybutanoato)-(\m
~2~-pyridine-2-carboxylato))-tris(\m~2~-methoxo)-methanol--tri-manganese-di-yt
terbium tris(\m~4~-(S,E)-4-(2-hydroxybenzylideneami 
no)-2-hydroxybutanoato)-tris(\m~2~-methoxo)-(pyridine-2-carboxylato)-bis(metha
nol)-tri-manganese-di-ytterbium dinitrate methanol solvate dodecahydrate
;
_cell_volume  55019.887
_exptl_crystal_colour 'green/black'
_exptl_special_details
;
Large structure in which program limits have been exceeded. A full set of 
coordinates are available from the deposited CIF
;
_exptl_crystal_description 'sheet'
_diffrn_ambient_temperature 123
_refine_special_details
;
The SQUEEZE/PLATON program has been used to model some disorder.

;
#These two values have been output from a single CSD field.
_refine_ls_R_factor_gt 0.0478
_refine_ls_wR_factor_gt 0.0478
_symmetry_cell_setting rhombohedral
_symmetry_space_group_name_H-M 'R 3 2'
_symmetry_Int_Tables_number 155
loop_
_symmetry_equiv_pos_site_id
_symmetry_equiv_pos_as_xyz
1 x,y,z
2 -y,x-y,z
3 -x+y,-x,z
4 y,x,-z
5 x-y,-y,-z
6 -x,-x+y,-z
7 2/3+x,1/3+y,1/3+z
8 2/3-y,1/3+x-y,1/3+z
9 2/3-x+y,1/3-x,1/3+z
10 2/3+y,1/3+x,1/3-z
11 2/3+x-y,1/3-y,1/3-z
12 2/3-x,1/3-x+y,1/3-z
13 1/3+x,2/3+y,2/3+z
14 1/3-y,2/3+x-y,2/3+z
15 1/3-x+y,2/3-x,2/3+z
16 1/3+y,2/3+x,2/3-z
17 1/3+x-y,2/3-y,2/3-z
18 1/3-x,2/3-x+y,2/3-z
_cell_length_a 28.2738(4)
_cell_length_b 28.2738(4)
_cell_length_c 79.4732(15)
_cell_angle_alpha 90
_cell_angle_beta 90
_cell_angle_gamma 120
_cell_formula_units_Z 18
loop_
_atom_type_symbol
_atom_type_radius_bond
C 0.68
H 0.23
Mn 1.51
N 0.68
O 0.68
Yb 1.38
loop_
_atom_site_label
_atom_site_type_symbol
_atom_site_fract_x
_atom_site_fract_y
_atom_site_fract_z
Yb1 Yb 0.774873(17) -0.33330 0.66670
Yb2 Yb 0.620650(16) -0.401850(17) 0.679580(5)
Mn1 Mn 0.88513(5) -0.23824(5) 0.685775(15)
Mn2 Mn 0.66107(6) -0.18044(6) 0.674680(18)
Mn3 Mn 0.61675(6) -0.42378(6) 0.720796(16)
O1 O 0.9454(3) -0.1738(3) 0.67729(8)
O2 O 0.8212(2) -0.3052(2) 0.69148(6)
O3 O 0.7145(2) -0.3588(2) 0.68986(6)
O4 O 0.7068(2) -0.3753(3) 0.71771(7)
O5 O 0.5948(3) -0.1780(3) 0.67673(9)
O6 O 0.7231(2) -0.1890(2) 0.67022(7)
O7 O 0.7615(2) -0.2553(2) 0.67078(6)
O8 O 0.8334(2) -0.1987(3) 0.68662(7)
O9 O 0.6233(3) -0.4746(3) 0.73383(7)
O10 O 0.6076(2) -0.3770(2) 0.70562(7)
O11 O 0.6467(3) -0.3076(3) 0.68062(7)
O12 O 0.6329(3) -0.2453(3) 0.69389(8)
O13 O 0.7879(5) 0.0352(4) 0.61178(12)
O14 O 0.7271(6) 0.0548(4) 0.6210(1)
O15 O 0.8613(2) -0.2643(2) 0.66326(6)
O16 O 0.9387(3) -0.2779(3) 0.68851(10)
O17 O 0.5312(3) -0.4334(3) 0.67667(8)
O18 O 0.6118(2) -0.4618(2) 0.69980(7)
O19 O 0.5270(3) -0.4662(3) 0.72657(10)
N1 N 0.9057(3) -0.2135(3) 0.70971(9)
N2 N 0.6962(3) -0.1280(3) 0.69446(10)
N3 N 0.6307(4) -0.3763(3) 0.7409(1)
N4 N 0.6931(3) -0.1066(3) 0.6563(1)
C1 C 0.9827(4) -0.1279(4) 0.68521(15)
C2 C 1.0188(4) -0.0845(5) 0.67574(16)
H1 H 1.01730 -0.08730 0.66380
C3 C 1.0569(5) -0.0375(4) 0.68314(18)
H2 H 1.08030 -0.00740 0.67620
C4 C 1.0626(7) -0.0322(7) 0.6999(2)
H3 H 1.09050 0.00010 0.70510
C5 C 1.0260(6) -0.0758(6) 0.70915(18)
H4 H 1.02970 -0.07200 0.72100
C6 C 0.9836(5) -0.1256(5) 0.70323(15)
C7 C 0.9468(4) -0.1671(4) 0.71369(13)
H5 H 0.95300 -0.16020 0.72540
C8 C 0.8736(4) -0.2506(4) 0.72332(10)
H6 H 0.88160 -0.22970 0.73390
H7 H 0.88470 -0.27850 0.72480
C9 C 0.8135(4) -0.2785(4) 0.71992(11)
H8 H 0.80400 -0.25130 0.71570
H9 H 0.79340 -0.29380 0.73060
C10 C 0.7958(4) -0.3235(4) 0.70720(9)
H10 H 0.80660 -0.34990 0.71160
C11 C 0.7347(4) -0.3545(4) 0.70472(10)
C12 C 0.5819(5) -0.1550(5) 0.69004(16)
C13 C 0.5257(6) -0.1672(6) 0.68933(18)
H11 H 0.50180 -0.18890 0.68060
C14 C 0.5088(6) -0.1459(6) 0.70179(17)
H12 H 0.47250 -0.15230 0.70120
C15 C 0.5389(6) -0.1175(6) 0.71444(17)
H13 H 0.52500 -0.10450 0.72300
C16 C 0.5912(6) -0.1073(5) 0.71474(15)
H14 H 0.61370 -0.08560 0.72370
C17 C 0.6148(5) -0.1258(5) 0.70307(14)
C18 C 0.6704(5) -0.1118(5) 0.70403(13)
H15 H 0.69120 -0.08740 0.71280
C19 C 0.7537(6) -0.1088(6) 0.69802(13)
H16 H 0.76320 -0.09100 0.70920
H17 H 0.77670 -0.08140 0.68950
C20 C 0.7654(4) -0.1568(5) 0.69780(11)
H18 H 0.79950 -0.14640 0.70410
H19 H 0.73510 -0.18910 0.70330
C21 C 0.7711(4) -0.1705(4) 0.67979(10)
H20 H 0.79970 -0.13590 0.67440
C22 C 0.7918(4) -0.2101(4) 0.67915(10)
C23 C 0.6534(4) -0.4658(4) 0.74717(12)
C24 C 0.6674(5) -0.5045(5) 0.75223(12)
H21 H 0.65680 -0.53640 0.74570
C25 C 0.6969(5) -0.4956(5) 0.76689(15)
H22 H 0.70620 -0.52230 0.77010
C26 C 0.7135(5) -0.4513(6) 0.77695(15)
H23 H 0.73320 -0.44790 0.78700
C27 C 0.7017(5) -0.4122(6) 0.77264(13)
H24 H 0.71350 -0.38090 0.77960
C28 C 0.6723(4) -0.4174(5) 0.75805(12)
C29 C 0.6558(5) -0.3779(4) 0.75429(14)
H25 H 0.66420 -0.35030 0.76250
C30 C 0.6196(5) -0.3302(5) 0.73953(13)
H26 H 0.57960 -0.34500 0.73970
H27 H 0.63520 -0.30620 0.74950
C31 C 0.6427(4) -0.2971(4) 0.72403(10)
H28 H 0.68070 -0.28940 0.72250
H29 H 0.64370 -0.26180 0.72530
C32 C 0.6093(4) -0.3266(4) 0.70878(12)
H30 H 0.57100 -0.33480 0.71080
C33 C 0.6304(4) -0.2907(4) 0.69317(12)
C34 C 0.6633(5) -0.0851(4) 0.65223(12)
H31 H 0.62770 -0.10030 0.65680
C35 C 0.6818(5) -0.0408(4) 0.64141(13)
H32 H 0.65910 -0.02560 0.63910
C36 C 0.7330(6) -0.0184(4) 0.63389(13)
C37 C 0.7638(5) -0.0416(4) 0.63818(13)
H33 H 0.79920 -0.02840 0.63350
C38 C 0.7424(5) -0.0842(4) 0.64926(12)
H34 H 0.76470 -0.09920 0.65220
C39 C 0.7522(7) 0.0281(5) 0.62097(13)
C40 C 0.8902(4) -0.2454(6) 0.64914(11)
H35 H 0.92640 -0.21450 0.65180
H36 H 0.87120 -0.23330 0.64140
H37 H 0.89410 -0.27450 0.64380
C41 C 0.9841(8) -0.2602(8) 0.6806(3)
H38 H 1.00000 -0.28310 0.68340
H39 H 1.00940 -0.22240 0.68400
H40 H 0.97760 -0.26150 0.66850
C42 C 0.4952(5) -0.4212(7) 0.68404(17)
H41 H 0.45920 -0.44300 0.67880
H42 H 0.50780 -0.38230 0.68250
H43 H 0.49260 -0.42970 0.69610
C43 C 0.6332(4) -0.4965(4) 0.69902(11)
H44 H 0.62390 -0.51830 0.70940
H45 H 0.67300 -0.47480 0.69790
H46 H 0.61780 -0.52080 0.68930
C44 C 0.4943(5) -0.5211(5) 0.72505(17)
H47 H 0.45670 -0.53120 0.72790
H48 H 0.50690 -0.53960 0.73270
H49 H 0.49580 -0.53210 0.71350
Yb3 Yb 1.229397(17) 0.33330 0.83330
Yb4 Yb 1.311920(15) 0.259960(15) 0.843080(5)
Mn4 Mn 1.16895(5) 0.33791(5) 0.798050(13)
Mn5 Mn 1.45293(5) 0.40052(6) 0.790719(18)
Mn6 Mn 1.24501(5) 0.13738(5) 0.825586(17)
O20 O 1.1658(3) 0.3938(2) 0.78624(6)
O21 O 1.1734(2) 0.2850(2) 0.81186(6)
O22 O 1.2375(2) 0.2569(2) 0.82697(6)
O23 O 1.1936(2) 0.1710(2) 0.81657(7)
O24 O 1.5178(3) 0.3986(3) 0.78895(10)
O25 O 1.3901(2) 0.4079(2) 0.79505(7)
O26 O 1.2980(2) 0.3671(2) 0.81123(6)
O27 O 1.2514(2) 0.3648(2) 0.78761(6)
O28 O 1.1831(2) 0.0710(2) 0.83185(7)
O29 O 1.3076(2) 0.2061(2) 0.82169(7)
O30 O 1.3582(2) 0.3109(2) 0.81906(7)
O31 O 1.4040(3) 0.3114(2) 0.79570(8)
O32 O 0.8856(5) 0.2535(4) 0.81351(15)
O33 O 0.8973(3) 0.1961(3) 0.83126(8)
O34 O 1.2019(2) 0.3819(2) 0.81793(6)
O35 O 1.3806(2) 0.2502(3) 0.85279(8)
O36 O 1.4976(3) 0.4898(3) 0.78241(8)
O37 O 1.2518(2) 0.1706(2) 0.84708(7)
N5 N 1.1449(3) 0.2914(3) 0.77749(8)
N6 N 1.4343(3) 0.3781(3) 0.76647(10)
N7 N 1.2381(3) 0.1123(3) 0.80099(10)
C45 C 1.1771(4) 0.4064(4) 0.77046(11)
C46 C 1.1945(5) 0.4590(5) 0.76498(13)
H50 H 1.19750 0.48570 0.77290
C47 C 1.2077(5) 0.4739(5) 0.74816(12)
H51 H 1.21880 0.51020 0.74480
C48 C 1.2052(5) 0.4374(6) 0.73633(14)
H52 H 1.21610 0.44840 0.72500
C49 C 1.1861(4) 0.3841(5) 0.74137(11)
H53 H 1.18170 0.35800 0.73310
C50 C 1.1731(4) 0.3668(4) 0.75790(11)
C51 C 1.1528(4) 0.3118(4) 0.76233(10)
H54 H 1.14390 0.28680 0.75330
C52 C 1.1254(4) 0.2328(4) 0.77940(11)
H55 H 1.11990 0.21610 0.76810
H56 H 1.08960 0.21530 0.78520
C53 C 1.1644(4) 0.2213(3) 0.78928(9)
H57 H 1.15470 0.18270 0.78760
H58 H 1.20210 0.24480 0.78510
C54 C 1.1619(3) 0.2319(3) 0.80770(9)
H59 H 1.12390 0.20600 0.81160
C55 C 1.2015(3) 0.2183(3) 0.81762(10)
C56 C 1.5363(5) 0.3809(4) 0.77711(17)
C57 C 1.5830(5) 0.3774(5) 0.77966(19)
H60 H 1.60070 0.38820 0.79030
C58 C 1.6054(6) 0.3591(6) 0.7676(2)
H61 H 1.63870 0.35960 0.76950
C59 C 1.5771(8) 0.3400(7) 0.7526(2)
H62 H 1.59080 0.32510 0.74450
C60 C 1.5300(6) 0.3414(5) 0.74858(19)
H63 H 1.51280 0.32950 0.73790
C61 C 1.5092(5) 0.3608(4) 0.76082(17)
C62 C 1.4599(4) 0.3622(4) 0.75643(14)
H64 H 1.44540 0.35070 0.74540
C63 C 1.3863(4) 0.3799(5) 0.75855(13)
H65 H 1.39720 0.41820 0.75580
H66 H 1.37580 0.35870 0.74790
C64 C 1.3379(4) 0.3567(4) 0.77031(10)
H67 H 1.30460 0.34860 0.76390
H68 H 1.33230 0.32200 0.77510
C65 C 1.3462(3) 0.3956(4) 0.78422(10)
H69 H 1.35310 0.43070 0.77900
C66 C 1.2927(4) 0.3733(3) 0.79510(11)
C67 C 1.1427(4) 0.0366(4) 0.82272(13)
C68 C 1.0942(4) -0.0030(4) 0.83059(15)
H70 H 1.09200 -0.00240 0.84250
C69 C 1.0510(4) -0.0416(4) 0.82206(18)
H71 H 1.02010 -0.06880 0.82790
C70 C 1.0520(4) -0.0414(4) 0.80486(19)
H72 H 1.02050 -0.06780 0.79900
C71 C 1.0974(4) -0.0039(4) 0.79562(15)
H73 H 1.09790 -0.00450 0.78370
C72 C 1.1443(4) 0.0364(4) 0.80534(13)
C73 C 1.1906(4) 0.0714(4) 0.79559(13)
H74 H 1.18750 0.06500 0.78380
C74 C 1.2815(4) 0.1427(4) 0.78900(11)
H75 H 1.26680 0.13190 0.77750
H76 H 1.31040 0.13310 0.79050
C75 C 1.3058(4) 0.2029(4) 0.79091(13)
H77 H 1.27600 0.21170 0.79080
H78 H 1.32970 0.22130 0.78110
C76 C 1.3386(4) 0.2257(4) 0.80679(11)
H79 H 1.36620 0.21350 0.80700
C77 C 1.3702(4) 0.2879(4) 0.80725(11)
N8 N 1.0812(3) 0.3068(2) 0.80653(7)
C78 C 1.0593(2) 0.2656(3) 0.81857(8)
H80 H 1.08100 0.25170 0.82310
C79 C 1.0057(3) 0.2449(3) 0.82393(9)
H81 H 0.99080 0.21680 0.83220
C80 C 0.9741(3) 0.2653(2) 0.81726(10)
C81 C 0.9960(2) 0.3065(3) 0.80522(10)
H82 H 0.97430 0.32040 0.80070
C82 C 1.0495(3) 0.3271(3) 0.79986(8)
H83 H 1.06450 0.35530 0.79160
C83 C 0.9130(5) 0.2342(5) 0.82110(17)
C84 C 1.2281(4) 0.4406(4) 0.81643(11)
H84 H 1.25060 0.45250 0.80620
H85 H 1.25120 0.45770 0.82630
H86 H 1.20020 0.45140 0.81570
C85 C 1.4188(8) 0.2410(8) 0.84400(18)
H87 H 1.44450 0.23970 0.85210
H88 H 1.43900 0.27070 0.83600
H89 H 1.39950 0.20620 0.83800
C86 C 1.5452(6) 0.5090(6) 0.77166(18)
H90 H 1.55970 0.54770 0.76900
H91 H 1.53490 0.48780 0.76120
H92 H 1.57330 0.50440 0.77750
C87 C 1.2127(4) 0.1504(4) 0.86060(13)
H93 H 1.22660 0.17600 0.87010
H94 H 1.20670 0.11470 0.86430
H95 H 1.17810 0.14660 0.85670
Yb2J Yb 0.689167(16) -0.264817(17) 0.653753(5)
Mn2J Mn 0.508177(60) -0.486227(60) 0.658653(18)
O2J O 0.793067(200) -0.361467(200) 0.641853(60)
O3J O 0.739967(200) -0.307867(200) 0.643473(60)
O6J O 0.578767(200) -0.477667(200) 0.663113(70)
O7J O 0.683467(200) -0.411367(200) 0.662553(60)
O11J O 0.620967(300) -0.359067(300) 0.652713(70)
O15J O 0.792267(200) -0.402367(200) 0.670073(60)
O17J O 0.631267(300) -0.233267(300) 0.656663(80)
Yb4P Yb 1.385293(15) 0.406707(15) 0.823587(5)
Mn5P Mn 1.385743(50) 0.266147(60) 0.875948(18)
Mn6A Mn 0.86262(5) 0.10763(5) 0.825586(17)
O21P O 1.221733(200) 0.381667(200) 0.854807(60)
O22P O 1.313933(200) 0.409767(200) 0.839697(60)
O25P O 1.315533(200) 0.258767(200) 0.871617(70)
O26P O 1.264233(200) 0.299567(200) 0.855437(60)
O30P O 1.380633(200) 0.355767(200) 0.847607(70)
O33B O 1.2988(3) 0.1027(3) 0.83126(8)
O34P O 1.153333(200) 0.284767(200) 0.848737(60)
O35P O 1.463733(200) 0.416467(300) 0.813877(80)
#END
