
#######################################################################
#
#                 Cambridge Crystallographic Data Centre
#                                CCDC
#
#######################################################################
#
# If this CIF has been generated from an entry in the Cambridge
# Structural Database, then it will include bibliographic, chemical,
# crystal, experimental, refinement or atomic coordinate data resulting
# from the CCDC's data processing and validation procedures.
#
#######################################################################

data_CSD_CIF_WEHJAV05
_audit_creation_date 2014-12-23
_audit_creation_method CSD-ConQuest-V1
_database_code_CSD WEHJAV05
_database_code_depnum_ccdc_archive 'CCDC 1016188'
_chemical_formula_sum 'C22 H16 Cl1 Cu1 N3 S16'
_chemical_formula_moiety
;
C10 H8 S8 1+,C10 H8 S8,n(C2 Cl1 Cu1 N3 1-)
;
_journal_coden_Cambridge 1695
_journal_volume 3
_journal_year 2015
_journal_page_first 1378
_journal_name_full 'J.Mater.Chem.C '
loop_
_publ_author_name
"T.Hiramatsu"
"Y.Yoshida"
"G.Saito"
"A.Otsuka"
"H.Yamochi"
"M.Maesato"
"Y.Shimizu"
"H.Ito"
"H.Kishida"
_chemical_name_systematic
;
catena-(bis(bis(Ethylenedithio)tetrathiafulvalenium) 
(\m~2~-dicyanoamido)-chloro-copper(i))
;
_cell_volume   3266.401
_exptl_crystal_colour 'black'
_exptl_crystal_density_diffrn 1.9
_exptl_special_details
;
Magnetic properties, electronic property
kappa polymorph

;
_exptl_crystal_description 'elongate block'
_exptl_crystal_preparation 'electrocrystallization'
_diffrn_ambient_temperature 250
_refine_special_details
;
C10A,C9A and C10B,C9B disordered over two sites with occupancies 0.839:0.161.

;
#These two values have been output from a single CSD field.
_refine_ls_R_factor_gt 0.0436
_refine_ls_wR_factor_gt 0.0436
_symmetry_cell_setting orthorhombic
_symmetry_space_group_name_H-M 'P n m a'
_symmetry_Int_Tables_number 62
loop_
_symmetry_equiv_pos_site_id
_symmetry_equiv_pos_as_xyz
1 x,y,z
2 1/2-x,-y,1/2+z
3 1/2+x,1/2-y,1/2-z
4 -x,1/2+y,-z
5 -x,-y,-z
6 -1/2+x,y,-1/2-z
7 -1/2-x,-1/2+y,-1/2+z
8 x,-1/2-y,z
_cell_length_a 12.9262(8)
_cell_length_b 29.8480(18)
_cell_length_c 8.4661(5)
_cell_angle_alpha 90
_cell_angle_beta 90
_cell_angle_gamma 90
_cell_formula_units_Z 4
loop_
_atom_type_symbol
_atom_type_radius_bond
C 0.68
H 0.23
Cl 0.99
Cu 1.32
N 0.68
S 1.02
loop_
_atom_site_label
_atom_site_type_symbol
_atom_site_fract_x
_atom_site_fract_y
_atom_site_fract_z
C1 C 0.6394(3) -0.01842(11) 0.3595(4)
C2 C 0.5786(3) 0.01871(11) 0.3579(4)
C3 C 0.7783(3) -0.07843(11) 0.4104(4)
C4 C 0.7189(3) -0.09553(11) 0.2947(4)
C5 C 0.5048(3) 0.09825(11) 0.3882(4)
C6 C 0.4465(3) 0.07865(11) 0.2755(4)
C7 C 0.9095(3) -0.15050(16) 0.3792(5)
H1 H 0.94620 -0.14030 0.28170
H2 H 0.95710 -0.17120 0.43700
C8 C 0.8155(4) -0.17630(13) 0.3307(5)
H3 H 0.77540 -0.18440 0.42760
H4 H 0.83810 -0.20490 0.27950
C9 C 0.4207(5) 0.17923(17) 0.2994(10)
H5 H 0.40020 0.20990 0.33480
H6 H 0.46430 0.18270 0.20250
C10 C 0.3243(6) 0.1537(2) 0.2560(8)
H7 H 0.28110 0.17280 0.18480
H8 H 0.28340 0.14800 0.35420
S1 S 0.74531(7) -0.02553(3) 0.48342(11)
S2 S 0.61497(7) -0.06287(3) 0.23195(11)
S3 S 0.59966(7) 0.06517(3) 0.47735(11)
S4 S 0.47270(7) 0.02266(3) 0.23193(11)
S5 S 0.88561(8) -0.10247(4) 0.50191(14)
S6 S 0.73153(8) -0.14682(3) 0.19706(12)
S7 S 0.50016(10) 0.15339(3) 0.45538(13)
S8 S 0.34835(9) 0.10184(4) 0.16098(13)
C11? C 0.392(2) 0.1735(8) 0.387(4)
H9? H 0.33350 0.16020 0.44800
H10? H 0.39120 0.20660 0.40570
C12? C 0.375(3) 0.1649(9) 0.216(3)
H11? H 0.43790 0.17520 0.15680
H12? H 0.31550 0.18340 0.17970
C13 C 0.8515(4) 0.25000 0.6016(7)
C14 C 0.9793(4) 0.25000 0.7899(7)
N1 N 0.7710(4) 0.25000 0.5436(6)
N2 N 0.9467(4) 0.25000 0.6456(7)
N3 N 1.0236(4) 0.25000 0.9082(6)
Cu1 Cu 0.63482(5) 0.25000 0.43627(9)
Cl1 Cl 0.64583(10) 0.25000 0.17268(13)
N3B N 0.5236(4) 0.25000 0.5918(6)
Cu1B Cu 1.13482(5) 0.25000 1.06373(9)
#END
