
#######################################################################
#
#                 Cambridge Crystallographic Data Centre
#                                CCDC
#
#######################################################################
#
# If this CIF has been generated from an entry in the Cambridge
# Structural Database, then it will include bibliographic, chemical,
# crystal, experimental, refinement or atomic coordinate data resulting
# from the CCDC's data processing and validation procedures.
#
#######################################################################

data_CSD_CIF_WEHJAV02
_audit_creation_date 2014-12-23
_audit_creation_method CSD-ConQuest-V1
_database_code_CSD WEHJAV02
_database_code_depnum_ccdc_archive 'CCDC 1016185'
_chemical_formula_sum 'C22 H16 Cl1 Cu1 N3 S16'
_chemical_formula_moiety
;
C10 H8 S8 1+,C10 H8 S8,n(C2 Cl1 Cu1 N3 1-)
;
_journal_coden_Cambridge 1695
_journal_volume 3
_journal_year 2015
_journal_page_first 1378
_journal_name_full 'J.Mater.Chem.C '
loop_
_publ_author_name
"T.Hiramatsu"
"Y.Yoshida"
"G.Saito"
"A.Otsuka"
"H.Yamochi"
"M.Maesato"
"Y.Shimizu"
"H.Ito"
"H.Kishida"
_chemical_name_systematic
;
catena-(bis(bis(Ethylenedithio)tetrathiafulvalenium) 
(\m~2~-dicyanoamido)-chloro-copper(i))
;
_cell_volume   3207.303
_exptl_crystal_colour 'black'
_exptl_crystal_density_diffrn 1.935
_exptl_special_details
;
Magnetic properties, electronic property
kappa polymorph

;
_exptl_crystal_description 'elongate block'
_exptl_crystal_preparation 'electrocrystallization'
_diffrn_ambient_temperature 100
#These two values have been output from a single CSD field.
_refine_ls_R_factor_gt 0.0394
_refine_ls_wR_factor_gt 0.0394
_symmetry_cell_setting orthorhombic
_symmetry_space_group_name_H-M 'P n m a'
_symmetry_Int_Tables_number 62
loop_
_symmetry_equiv_pos_site_id
_symmetry_equiv_pos_as_xyz
1 x,y,z
2 1/2-x,-y,1/2+z
3 1/2+x,1/2-y,1/2-z
4 -x,1/2+y,-z
5 -x,-y,-z
6 -1/2+x,y,-1/2-z
7 -1/2-x,-1/2+y,-1/2+z
8 x,-1/2-y,z
_cell_length_a 12.8852(7)
_cell_length_b 29.5759(17)
_cell_length_c 8.4161(5)
_cell_angle_alpha 90
_cell_angle_beta 90
_cell_angle_gamma 90
_cell_formula_units_Z 4
loop_
_atom_type_symbol
_atom_type_radius_bond
C 0.68
H 0.23
Cl 0.99
Cu 1.32
N 0.68
S 1.02
loop_
_atom_site_label
_atom_site_type_symbol
_atom_site_fract_x
_atom_site_fract_y
_atom_site_fract_z
C1 C 0.6400(2) -0.01844(11) 0.3603(4)
C2 C 0.5777(2) 0.01875(10) 0.3590(4)
C3 C 0.7821(2) -0.07814(11) 0.4092(4)
C4 C 0.7222(2) -0.09579(11) 0.2933(4)
C5 C 0.5004(2) 0.09849(10) 0.3883(4)
C6 C 0.4428(3) 0.07826(11) 0.2746(4)
C7 C 0.9148(3) -0.15117(12) 0.3798(4)
H1 H 0.95190 -0.14160 0.28100
H2 H 0.96200 -0.17190 0.43950
C8 C 0.8186(3) -0.17724(11) 0.3326(4)
H3 H 0.77760 -0.18420 0.43040
H4 H 0.84020 -0.20660 0.28390
C9 C 0.4145(3) 0.17993(12) 0.3005(5)
H5 H 0.39310 0.21080 0.33580
H6 H 0.45810 0.18350 0.20290
C10 C 0.3183(3) 0.15319(12) 0.2581(5)
H7 H 0.27300 0.17230 0.18880
H8 H 0.27880 0.14660 0.35780
S1 S 0.74700(6) -0.02506(3) 0.48455(10)
S2 S 0.61551(6) -0.06355(3) 0.23299(10)
S3 S 0.59685(6) 0.06589(3) 0.47889(10)
S4 S 0.47103(6) 0.02166(3) 0.23203(10)
S5 S 0.89120(7) -0.10167(3) 0.5003(1)
S6 S 0.73622(7) -0.14731(3) 0.19371(10)
S7 S 0.49327(8) 0.15418(3) 0.45630(11)
S8 S 0.34401(7) 0.10082(3) 0.1578(1)
C11 C 0.8460(4) 0.25000 0.5966(6)
C12 C 0.9736(4) 0.25000 0.7877(6)
N1 N 0.7644(3) 0.25000 0.5390(5)
N2 N 0.9421(3) 0.25000 0.6414(5)
N3 N 1.0165(3) 0.25000 0.9088(5)
Cu1 Cu 0.62724(5) 0.25000 0.43438(7)
Cl1 Cl 0.64037(7) 0.25000 0.16833(10)
N3B N 0.5165(3) 0.25000 0.5912(5)
Cu1B Cu 1.12724(5) 0.25000 1.06562(7)
#END
