
#######################################################################
#
#                 Cambridge Crystallographic Data Centre
#                                CCDC
#
#######################################################################
#
# If this CIF has been generated from an entry in the Cambridge
# Structural Database, then it will include bibliographic, chemical,
# crystal, experimental, refinement or atomic coordinate data resulting
# from the CCDC's data processing and validation procedures.
#
#######################################################################

data_CSD_CIF_WEHJAV04
_audit_creation_date 2014-12-23
_audit_creation_method CSD-ConQuest-V1
_database_code_CSD WEHJAV04
_database_code_depnum_ccdc_archive 'CCDC 1016187'
_chemical_formula_sum 'C22 H16 Cl1 Cu1 N3 S16'
_chemical_formula_moiety
;
C10 H8 S8 1+,C10 H8 S8,n(C2 Cl1 Cu1 N3 1-)
;
_journal_coden_Cambridge 1695
_journal_volume 3
_journal_year 2015
_journal_page_first 1378
_journal_name_full 'J.Mater.Chem.C '
loop_
_publ_author_name
"T.Hiramatsu"
"Y.Yoshida"
"G.Saito"
"A.Otsuka"
"H.Yamochi"
"M.Maesato"
"Y.Shimizu"
"H.Ito"
"H.Kishida"
_chemical_name_systematic
;
catena-(bis(bis(Ethylenedithio)tetrathiafulvalenium) 
(\m~2~-dicyanoamido)-chloro-copper(i))
;
_cell_volume   3245.839
_exptl_crystal_colour 'black'
_exptl_crystal_density_diffrn 1.912
_exptl_special_details
;
Magnetic properties, electronic property
kappa polymorph

;
_exptl_crystal_description 'elongate block'
_exptl_crystal_preparation 'electrocrystallization'
_diffrn_ambient_temperature 200
_refine_special_details
;
C10A,C9A and C10B,C9B disordered over two sites with occupancies 0.869:0.131.

;
#These two values have been output from a single CSD field.
_refine_ls_R_factor_gt 0.042
_refine_ls_wR_factor_gt 0.042
_symmetry_cell_setting orthorhombic
_symmetry_space_group_name_H-M 'P n m a'
_symmetry_Int_Tables_number 62
loop_
_symmetry_equiv_pos_site_id
_symmetry_equiv_pos_as_xyz
1 x,y,z
2 1/2-x,-y,1/2+z
3 1/2+x,1/2-y,1/2-z
4 -x,1/2+y,-z
5 -x,-y,-z
6 -1/2+x,y,-1/2-z
7 -1/2-x,-1/2+y,-1/2+z
8 x,-1/2-y,z
_cell_length_a 12.9062(7)
_cell_length_b 29.7595(16)
_cell_length_c 8.4509(5)
_cell_angle_alpha 90
_cell_angle_beta 90
_cell_angle_gamma 90
_cell_formula_units_Z 4
loop_
_atom_type_symbol
_atom_type_radius_bond
C 0.68
H 0.23
Cl 0.99
Cu 1.32
N 0.68
S 1.02
loop_
_atom_site_label
_atom_site_type_symbol
_atom_site_fract_x
_atom_site_fract_y
_atom_site_fract_z
C1 C 0.6397(2) -0.01843(11) 0.3601(4)
C2 C 0.5783(2) 0.01871(10) 0.3583(4)
C3 C 0.7796(2) -0.07845(11) 0.4103(4)
C4 C 0.7199(2) -0.09567(11) 0.2943(4)
C5 C 0.5034(3) 0.09831(10) 0.3884(4)
C6 C 0.4455(3) 0.07853(11) 0.2754(4)
C7 C 0.9112(3) -0.15080(14) 0.3792(5)
H1 H 0.94800 -0.14070 0.28130
H2 H 0.95870 -0.17160 0.43740
C8 C 0.8164(3) -0.17664(12) 0.3310(4)
H3 H 0.77600 -0.18440 0.42820
H4 H 0.83870 -0.20540 0.28040
C9 C 0.4187(4) 0.17944(15) 0.2997(8)
H5 H 0.39770 0.21020 0.33500
H6 H 0.46230 0.18290 0.20270
C10 C 0.3225(5) 0.15353(18) 0.2565(7)
H7 H 0.27870 0.17260 0.18580
H8 H 0.28200 0.14760 0.35510
S1 S 0.74598(6) -0.02543(3) 0.48398(10)
S2 S 0.61527(7) -0.06304(3) 0.23207(10)
S3 S 0.59882(6) 0.06540(3) 0.47809(10)
S4 S 0.47224(7) 0.02240(3) 0.23202(10)
S5 S 0.88740(8) -0.10235(3) 0.50173(12)
S6 S 0.73298(7) -0.14702(3) 0.19602(11)
S7 S 0.49789(9) 0.15364(3) 0.45598(12)
S8 S 0.34691(8) 0.10154(3) 0.16007(12)
C11? C 0.389(2) 0.1740(9) 0.388(4)
H9? H 0.33030 0.16020 0.44820
H10? H 0.38770 0.20710 0.40810
C12? C 0.374(3) 0.1656(9) 0.217(3)
H11? H 0.43760 0.17590 0.15940
H12? H 0.31480 0.18430 0.17930
C13 C 0.8495(4) 0.25000 0.5999(6)
C14 C 0.9774(4) 0.25000 0.7891(7)
N1 N 0.7686(4) 0.25000 0.5420(6)
N2 N 0.9454(4) 0.25000 0.6440(6)
N3 N 1.0209(3) 0.25000 0.9086(6)
Cu1 Cu 0.63209(5) 0.25000 0.43551(8)
Cl1 Cl 0.64390(9) 0.25000 0.17111(12)
N3B N 0.5209(3) 0.25000 0.5914(6)
Cu1B Cu 1.13209(5) 0.25000 1.06449(8)
#END
