
#######################################################################
#
#                 Cambridge Crystallographic Data Centre
#                                CCDC
#
#######################################################################
#
# If this CIF has been generated from an entry in the Cambridge
# Structural Database, then it will include bibliographic, chemical,
# crystal, experimental, refinement or atomic coordinate data resulting
# from the CCDC's data processing and validation procedures.
#
#######################################################################

data_CSD_CIF_WEHJAV06
_audit_creation_date 2014-12-23
_audit_creation_method CSD-ConQuest-V1
_database_code_CSD WEHJAV06
_database_code_depnum_ccdc_archive 'CCDC 1016189'
_chemical_formula_sum 'C22 H16 Cl1 Cu1 N3 S16'
_chemical_formula_moiety
;
C10 H8 S8 1+,C10 H8 S8,n(C2 Cl1 Cu1 N3 1-)
;
_journal_coden_Cambridge 1695
_journal_volume 3
_journal_year 2015
_journal_page_first 1378
_journal_name_full 'J.Mater.Chem.C '
loop_
_publ_author_name
"T.Hiramatsu"
"Y.Yoshida"
"G.Saito"
"A.Otsuka"
"H.Yamochi"
"M.Maesato"
"Y.Shimizu"
"H.Ito"
"H.Kishida"
_chemical_name_systematic
;
catena-(bis(bis(Ethylenedithio)tetrathiafulvalenium) 
(\m~2~-dicyanoamido)-chloro-copper(i))
;
_cell_volume   3289.236
_exptl_crystal_colour 'black'
_exptl_crystal_density_diffrn 1.887
_exptl_special_details
;
Magnetic properties, electronic property
kappa polymorph

;
_exptl_crystal_description 'elongate block'
_exptl_crystal_preparation 'electrocrystallization'
_diffrn_ambient_temperature 298
_refine_special_details
;
C10A,C9A and C10B,C9B disordered over two sites with occupancies 0.831:0.169.

;
#These two values have been output from a single CSD field.
_refine_ls_R_factor_gt 0.0458
_refine_ls_wR_factor_gt 0.0458
_symmetry_cell_setting orthorhombic
_symmetry_space_group_name_H-M 'P n m a'
_symmetry_Int_Tables_number 62
loop_
_symmetry_equiv_pos_site_id
_symmetry_equiv_pos_as_xyz
1 x,y,z
2 1/2-x,-y,1/2+z
3 1/2+x,1/2-y,1/2-z
4 -x,1/2+y,-z
5 -x,-y,-z
6 -1/2+x,y,-1/2-z
7 -1/2-x,-1/2+y,-1/2+z
8 x,-1/2-y,z
_cell_length_a 12.9550(8)
_cell_length_b 29.9368(18)
_cell_length_c 8.4811(5)
_cell_angle_alpha 90
_cell_angle_beta 90
_cell_angle_gamma 90
_cell_formula_units_Z 4
loop_
_atom_type_symbol
_atom_type_radius_bond
C 0.68
H 0.23
Cl 0.99
Cu 1.32
N 0.68
S 1.02
loop_
_atom_site_label
_atom_site_type_symbol
_atom_site_fract_x
_atom_site_fract_y
_atom_site_fract_z
C1 C 0.6391(3) -0.01841(11) 0.3589(4)
C2 C 0.5788(3) 0.01873(11) 0.3574(4)
C3 C 0.7772(3) -0.07834(12) 0.4103(4)
C4 C 0.7180(3) -0.09538(11) 0.2950(4)
C5 C 0.5061(3) 0.09813(11) 0.3874(4)
C6 C 0.4478(3) 0.07872(11) 0.2754(4)
C7 C 0.9076(4) -0.15027(17) 0.3795(6)
H1 H 0.94460 -0.14010 0.28240
H2 H 0.95490 -0.17090 0.43740
C8 C 0.8145(4) -0.17589(13) 0.3305(5)
H3 H 0.77450 -0.18420 0.42710
H4 H 0.83730 -0.20420 0.27870
C9 C 0.4226(5) 0.17889(18) 0.2993(8)
H5 H 0.40210 0.20940 0.33520
H6 H 0.46610 0.18250 0.20280
C10 C 0.3270(5) 0.1538(2) 0.2550(8)
H7 H 0.28470 0.17290 0.18290
H8 H 0.28530 0.14840 0.35240
S1 S 0.74458(7) -0.02560(3) 0.48276(11)
S2 S 0.61454(8) -0.06272(3) 0.23189(11)
S3 S 0.60042(7) 0.06496(3) 0.47638(11)
S4 S 0.47303(8) 0.02290(3) 0.23177(11)
S5 S 0.88393(9) -0.10245(4) 0.50167(15)
S6 S 0.73010(9) -0.14660(3) 0.19810(13)
S7 S 0.50232(11) 0.15313(3) 0.45448(14)
S8 S 0.34985(10) 0.10208(4) 0.16165(14)
C11? C 0.3945(16) 0.1737(7) 0.387(3)
H9? H 0.33560 0.16030 0.44710
H10? H 0.39360 0.20670 0.40650
C12? C 0.379(2) 0.1652(8) 0.216(3)
H11? H 0.44280 0.17490 0.15810
H12? H 0.32070 0.18410 0.17770
C13 C 0.8531(4) 0.25000 0.6033(7)
C14 C 0.9814(4) 0.25000 0.7908(8)
N1 N 0.7736(4) 0.25000 0.5458(6)
N2 N 0.9481(5) 0.25000 0.6469(7)
N3 N 1.0266(4) 0.25000 0.9080(6)
Cu1 Cu 0.63788(6) 0.25000 0.43724(9)
Cl1 Cl 0.64796(12) 0.25000 0.17425(14)
N3B N 0.5266(4) 0.25000 0.5920(6)
Cu1B Cu 1.13788(6) 0.25000 1.06276(9)
#END
