
#######################################################################
#
#                 Cambridge Crystallographic Data Centre
#                                CCDC
#
#######################################################################
#
# If this CIF has been generated from an entry in the Cambridge
# Structural Database, then it will include bibliographic, chemical,
# crystal, experimental, refinement or atomic coordinate data resulting
# from the CCDC's data processing and validation procedures.
#
#######################################################################

data_CSD_CIF_WEHQIM
_audit_creation_date 2017-08-24
_audit_creation_method CSD-ConQuest-V1
_database_code_CSD WEHQIM
_database_code_depnum_ccdc_archive 'CCDC 1545737'
_chemical_formula_sum 'C56 H114.4 I30 K6 N8 Ni2 O49.2 Pb9'
_chemical_formula_moiety
;
(C28 H28 N4 Ni1 O10)2n,n(I30 Pb9 6-),6(K1 1+),29.2(H2 O1)
;
_journal_coden_Cambridge 222
_journal_volume 46
_journal_year 2017
_journal_page_first 11556
_journal_name_full 'Dalton Trans. '
loop_
_publ_author_name
"Jian-Jun Liu"
"Yue-Bin Shan"
"Wen-Xin Dai"
"Chang-Cang Huang"
"Mei-Jin Lin"
_chemical_name_systematic
;
catena-[hexa-potassium 
bis(bis(\m-2,2'-(4,4'-bipyridinium-1,1'-diyl)diacetato)-di-aqua-nickel(ii)) 
cosakis(\m-iodo)-decaiodo-nona-lead hydrate]
;
_cell_volume   8676.512
_exptl_crystal_colour 'red'
_exptl_crystal_density_diffrn 2.816
_exptl_crystal_description 'block'
_diffrn_ambient_temperature 153
_refine_special_details
;
O10 disordered by symmetry over two configurations with occupancy 0.5; O11 
disordered by symmetry over two configurations with occupancy 0.5.
;
#These two values have been output from a single CSD field.
_refine_ls_R_factor_gt 0.0429
_refine_ls_wR_factor_gt 0.0429
_symmetry_cell_setting monoclinic
_symmetry_space_group_name_H-M 'C 2/m'
_symmetry_Int_Tables_number 12
loop_
_symmetry_equiv_pos_site_id
_symmetry_equiv_pos_as_xyz
1 x,y,z
2 -x,y,-z
3 1/2+x,1/2+y,z
4 1/2-x,1/2+y,-z
5 -x,-y,-z
6 x,-y,z
7 -1/2-x,-1/2-y,-z
8 -1/2+x,-1/2-y,z
_cell_length_a 23.839(5)
_cell_length_b 23.108(5)
_cell_length_c 15.993(3)
_cell_angle_alpha 90
_cell_angle_beta 99.99(3)
_cell_angle_gamma 90
_cell_formula_units_Z 2
loop_
_atom_type_symbol
_atom_type_radius_bond
C 0.68
H 0.23
I 1.40
K 2.03
N 0.68
Ni 1.24
O 0.68
Pb 1.46
loop_
_atom_site_label
_atom_site_type_symbol
_atom_site_fract_x
_atom_site_fract_y
_atom_site_fract_z
Ni1 Ni 0.31151(8) 0.00000 -0.21808(11)
N1 N 0.1773(4) 0.1684(4) -0.1259(6)
N2 N -0.0725(4) 0.3122(4) -0.3040(6)
C1 C 0.2425(5) 0.0942(5) -0.1625(7)
C2 C 0.2284(5) 0.1354(5) -0.0942(7)
H1 H 0.22270 0.11300 -0.04360
H2 H 0.26070 0.16230 -0.07680
C3 C 0.1809(6) 0.2164(5) -0.1683(9)
H3 H 0.21720 0.23170 -0.17310
C4 C 0.1318(5) 0.2450(5) -0.2065(8)
H4 H 0.13490 0.28040 -0.23550
C5 C 0.0785(5) 0.2227(5) -0.2028(7)
C6 C 0.0759(5) 0.1710(5) -0.1592(7)
H5 H 0.04010 0.15440 -0.15480
C7 C 0.1249(5) 0.1444(5) -0.1228(7)
H6 H 0.12290 0.10850 -0.09460
C8 C 0.0258(5) 0.2530(5) -0.2412(7)
C9 C 0.0249(5) 0.2939(5) -0.3021(8)
H7 H 0.05850 0.30180 -0.32440
C10 C -0.0232(5) 0.3235(6) -0.3313(8)
H8 H -0.02240 0.35310 -0.37220
C11 C -0.0744(5) 0.2718(5) -0.2435(8)
H9 H -0.10890 0.26480 -0.22320
C12 C -0.0275(5) 0.2416(5) -0.2121(8)
H10 H -0.02920 0.21260 -0.17060
C13 C -0.1244(5) 0.3496(5) -0.3302(7)
H11 H -0.15930 0.32580 -0.33350
H12 H -0.12390 0.36620 -0.38710
C14 C -0.1255(5) 0.3984(5) -0.2662(7)
O1 O 0.2833(3) 0.0598(3) -0.1387(4)
O2 O 0.2135(3) 0.0981(4) -0.2339(5)
O3 O -0.0940(4) 0.3954(4) -0.1963(5)
O4 O -0.1618(3) 0.4369(3) -0.2929(4)
O5 O 0.3888(4) 0.00000 -0.1361(6)
O6 O 0.2360(4) 0.00000 -0.3082(6)
Pb1 Pb 0.50000 0.00000 0.50000
Pb2 Pb 0.36944(3) 0.00000 0.29920(4)
Pb3 Pb 0.20344(2) 0.11198(2) 0.20562(3)
Pb4 Pb 0.04133(3) 0.00000 0.13233(4)
I1 I 0.50917(5) 0.00000 0.30288(7)
I2 I 0.40090(3) 0.09514(3) 0.44975(5)
I3 I 0.24192(4) 0.00000 0.33524(6)
I4 I 0.33796(4) 0.09961(3) 0.16488(5)
I5 I 0.17197(5) 0.00000 0.06531(7)
I6 I 0.23749(5) 0.19856(4) 0.35108(6)
I7 I 0.16769(4) 0.21481(4) 0.08485(5)
I8 I 0.08496(4) 0.09801(4) 0.27133(5)
I9 I -0.07464(5) 0.00000 0.20156(8)
I10 I 0.00000 -0.09915(5) 0.00000
K1 K 0.3342(2) 0.00000 0.0013(2)
K2 K 0.1360(3) 0.00000 0.4936(5)
K3 K 0.30532(16) 0.00000 0.5628(2)
O7 O -0.2755(4) 0.5858(4) -0.4877(6)
O8 O 0.0234(9) 0.00000 0.4177(10)
O9 O 0.4516(9) 0.00000 0.0663(13)
O10 O 0.0859(11) 0.0767(8) 0.6023(12)
O11 O 0.3979(12) -0.1248(12) -0.0288(12)
N1E N 0.1773(4) -0.1684(4) -0.1259(6)
N2E N -0.0725(4) -0.3122(4) -0.3040(6)
C1E C 0.2425(5) -0.0942(5) -0.1625(7)
C2E C 0.2284(5) -0.1354(5) -0.0942(7)
H1E H 0.22270 -0.11300 -0.04360
H2E H 0.26070 -0.16230 -0.07680
C3E C 0.1809(6) -0.2164(5) -0.1683(9)
H3E H 0.21720 -0.23170 -0.17310
C4E C 0.1318(5) -0.2450(5) -0.2065(8)
H4E H 0.13490 -0.28040 -0.23550
C5E C 0.0785(5) -0.2227(5) -0.2028(7)
C6E C 0.0759(5) -0.1710(5) -0.1592(7)
H5E H 0.04010 -0.15440 -0.15480
C7E C 0.1249(5) -0.1444(5) -0.1228(7)
H6E H 0.12290 -0.10850 -0.09460
C8E C 0.0258(5) -0.2530(5) -0.2412(7)
C9E C 0.0249(5) -0.2939(5) -0.3021(8)
H7E H 0.05850 -0.30180 -0.32440
C10E C -0.0232(5) -0.3235(6) -0.3313(8)
H8E H -0.02240 -0.35310 -0.37220
C11E C -0.0744(5) -0.2718(5) -0.2435(8)
H9E H -0.10890 -0.26480 -0.22320
C12E C -0.0275(5) -0.2416(5) -0.2121(8)
H10E H -0.02920 -0.21260 -0.17060
C13E C -0.1244(5) -0.3496(5) -0.3302(7)
H11E H -0.15930 -0.32580 -0.33350
H12E H -0.12390 -0.36620 -0.38710
C14E C -0.1255(5) -0.3984(5) -0.2662(7)
O1E O 0.2833(3) -0.0598(3) -0.1387(4)
O2E O 0.2135(3) -0.0981(4) -0.2339(5)
O3E O -0.0940(4) -0.3954(4) -0.1963(5)
O4E O -0.1618(3) -0.4369(3) -0.2929(4)
Ni1B Ni -0.18849(8) -0.50000 -0.21808(11)
Ni1B* Ni -0.18849(8) 0.50000 -0.21808(11)
O4B O 0.3382(3) -0.0631(3) -0.2929(4)
O4G O 0.3382(3) 0.0631(3) -0.2929(4)
Pb2A Pb -0.36944(3) 0.00000 -0.29920(4)
Pb3A Pb -0.20344(2) 0.11198(2) -0.20562(3)
Pb4A Pb -0.04133(3) 0.00000 -0.13233(4)
I1A I -0.50917(5) 0.00000 -0.30288(7)
I2A I -0.40090(3) 0.09514(3) -0.44975(5)
I3A I -0.24192(4) 0.00000 -0.33524(6)
I4A I -0.33796(4) 0.09961(3) -0.16488(5)
I5A I -0.17197(5) 0.00000 -0.06531(7)
I6A I -0.23749(5) 0.19856(4) -0.35108(6)
I7A I -0.16769(4) 0.21481(4) -0.08485(5)
I8A I -0.08496(4) 0.09801(4) -0.27133(5)
I9A I 0.07464(5) 0.00000 -0.20156(8)
Pb3D Pb -0.20344(2) -0.11198(2) -0.20562(3)
I2D I -0.40090(3) -0.09514(3) -0.44975(5)
I4D I -0.33796(4) -0.09961(3) -0.16488(5)
I6D I -0.23749(5) -0.19856(4) -0.35108(6)
I7D I -0.16769(4) -0.21481(4) -0.08485(5)
I8D I -0.08496(4) -0.09801(4) -0.27133(5)
I10D I 0.00000 0.09915(5) 0.00000
Pb3E Pb 0.20344(2) -0.11198(2) 0.20562(3)
I2E I 0.40090(3) -0.09514(3) 0.44975(5)
I4E I 0.33796(4) -0.09961(3) 0.16488(5)
I6E I 0.23749(5) -0.19856(4) 0.35108(6)
I7E I 0.16769(4) -0.21481(4) 0.08485(5)
I8E I 0.08496(4) -0.09801(4) 0.27133(5)
Pb1* Pb -0.50000 0.00000 -0.50000
I1A* I 0.49083(5) 0.00000 0.69712(7)
I2A* I 0.59910(3) 0.09514(3) 0.55025(5)
I2D* I 0.59910(3) -0.09514(3) 0.55025(5)
#END
