
#######################################################################
#
#                 Cambridge Crystallographic Data Centre
#                                CCDC
#
#######################################################################
#
# If this CIF has been generated from an entry in the Cambridge
# Structural Database, then it will include bibliographic, chemical,
# crystal, experimental, refinement or atomic coordinate data resulting
# from the CCDC's data processing and validation procedures.
#
#######################################################################

data_CSD_CIF_WEMKUW
_audit_creation_date 2013-04-25
_audit_creation_method CSD-ConQuest-V1
_database_code_CSD WEMKUW
_database_code_depnum_ccdc_archive 'CCDC 900074'
_chemical_formula_sum 'C60 H96 Cu4 N4 O48 P12'
_chemical_formula_moiety
;
(C36 H56 Cu4 O40 P12 4-)n,2n(C12 H12 N2 2+),8n(H2 O1)
;
_journal_coden_Cambridge 1350
_journal_volume 15
_journal_year 2013
_journal_page_first 1860
_journal_name_full 'CrystEngComm '
loop_
_publ_author_name
"Si-Fu Tang"
"Xiao-Bo Pan"
"Xiao-Xia Lv"
"Shi-Hai Yan"
"Xian-Rui Xu"
"Liang-Jun Li"
"Xue-Bo Zhao"
_chemical_name_systematic
;
catena-(bis(4,4'-ethene-1,2-diyldipyridinium) 
tetrakis(\m~4~-(benzene-1,3,5-triyltrimethanediyl)tris[hydrogen 
(phosphonato)])-tetra-aqua-tetra-copper(ii) octahydrate)
;
_cell_volume   2123.668
_exptl_crystal_colour 'green'
_exptl_crystal_density_diffrn 1.773
_exptl_crystal_description 'plate'
_diffrn_ambient_temperature 296
#These two values have been output from a single CSD field.
_refine_ls_R_factor_gt 0.0745
_refine_ls_wR_factor_gt 0.0745
_symmetry_cell_setting triclinic
_symmetry_space_group_name_H-M 'P -1'
_symmetry_Int_Tables_number 2
loop_
_symmetry_equiv_pos_site_id
_symmetry_equiv_pos_as_xyz
1 x,y,z
2 -x,-y,-z
_cell_length_a 7.5069(5)
_cell_length_b 12.8076(10)
_cell_length_c 22.2479(17)
_cell_angle_alpha 93.887(4)
_cell_angle_beta 94.965(4)
_cell_angle_gamma 92.390(4)
_cell_formula_units_Z 1
loop_
_atom_type_symbol
_atom_type_radius_bond
C 0.68
H 0.23
Cu 1.32
N 0.68
O 0.68
P 1.05
loop_
_atom_site_label
_atom_site_type_symbol
_atom_site_fract_x
_atom_site_fract_y
_atom_site_fract_z
Cu1 Cu 0.40667(12) 0.70250(7) 0.78060(4)
Cu2 Cu -0.05366(12) 0.18514(7) 0.27758(4)
O1 O 0.0440(8) 0.1761(5) 0.1980(3)
H1 H 0.03830 0.24000 0.19020
H2 H 0.13330 0.13750 0.20020
O2 O 0.7633(8) 0.5848(4) 1.1889(3)
O3 O 0.5271(8) 0.6830(4) 0.7053(3)
H3 H 0.53710 0.74390 0.69250
H4 H 0.61430 0.64410 0.70010
O4 O 0.5921(8) 0.4983(5) 1.0972(3)
H5 H 0.53350 0.44320 1.08790
O5 O 0.5352(8) 0.4368(4) 1.2024(3)
O6 O 0.1238(13) 0.3437(7) 0.1328(4)
H6 H 0.09320 0.29440 0.10590
H7 H 0.06810 0.39330 0.11740
O7 O 0.5052(7) 0.9873(4) 1.2687(2)
H8 H 0.40280 0.96130 1.26430
O8 O -0.4818(9) 0.1731(5) 0.3782(3)
H9 H -0.42320 0.11840 0.37290
H10 H -0.58430 0.14270 0.36900
O9 O 0.3594(7) 1.0845(4) 1.1827(2)
O10 O 0.3128(17) 0.0026(8) 0.5255(5)
H11 H 0.28180 0.03170 0.55820
H12 H 0.40950 -0.01590 0.54370
O11 O 0.6474(6) 1.1557(4) 1.2430(2)
O12 O -0.0671(13) 0.4609(8) 0.0510(5)
H13 H -0.16040 0.49170 0.03900
H14 H -0.01100 0.51630 0.06710
O13 O 0.5740(7) 0.6646(4) 0.9414(2)
O14 O 0.6114(8) 0.8537(5) 0.9225(3)
H15 H 0.61590 0.87070 0.88770
O15 O 0.3587(7) 0.7415(4) 0.8631(2)
O16 O -0.2111(8) 0.0086(4) 0.6226(3)
H16 H -0.15660 -0.03400 0.60300
O17 O -0.2130(7) 0.1197(4) 0.7164(2)
O18 O -0.0338(8) -0.0462(4) 0.7179(2)
O19 O -0.0272(7) 0.4946(4) 0.7565(2)
H17 H 0.06560 0.47230 0.77190
O20 O -0.1575(7) 0.5958(4) 0.6750(2)
O21 O 0.1216(7) 0.6701(4) 0.7385(2)
O22 O 0.0797(10) 0.1227(5) 0.4470(3)
O23 O 0.1697(8) 0.2999(6) 0.4183(3)
H18 H 0.15460 0.32990 0.38690
O24 O -0.1035(7) 0.2061(4) 0.3623(2)
N1 N -0.3847(9) 0.2523(6) 0.6388(3)
H19 H -0.33970 0.20630 0.66830
N2 N 0.9163(10) 0.7251(6) 1.1213(3)
H20 H 0.88550 0.66570 1.14310
P1 P 0.5873(3) 0.52817(18) 1.16668(10)
P2 P 0.5346(3) 1.05980(15) 1.21592(9)
P3 P 0.4735(3) 0.75742(18) 0.92272(9)
P4 P -0.0962(3) 0.04503(16) 0.68324(10)
P5 P 0.0185(3) 0.57281(16) 0.70855(9)
P6 P 0.0089(3) 0.22128(18) 0.42265(9)
C1 C 0.4402(12) 0.7134(6) 1.1368(4)
C2 C 0.5347(11) 0.8033(6) 1.1643(4)
H21 H 0.57790 0.80380 1.20480
C3 C 0.5658(11) 0.8908(6) 1.1335(3)
C4 C 0.4972(10) 0.8896(6) 1.0724(3)
H22 H 0.51380 0.94840 1.05080
C5 C 0.4040(11) 0.7995(6) 1.0441(3)
C6 C 0.3766(11) 0.7127(6) 1.0766(4)
H23 H 0.31470 0.65330 1.05770
C7 C 0.4089(12) 0.6167(7) 1.1722(4)
H24 H 0.29650 0.58070 1.15650
H25 H 0.40010 0.63870 1.21430
C8 C 0.6656(11) 0.9883(6) 1.1647(3)
H26 H 0.70050 1.03390 1.13430
H27 H 0.77400 0.96780 1.18700
C9 C 0.3272(11) 0.7963(7) 0.9781(3)
H28 H 0.28770 0.86560 0.97000
H29 H 0.22220 0.74880 0.97300
C10 C 0.0741(10) 0.2128(6) 0.6323(3)
C11 C 0.1264(10) 0.3120(6) 0.6587(3)
H30 H 0.18050 0.31810 0.69810
C12 C 0.1012(10) 0.4018(6) 0.6287(3)
C13 C 0.0207(10) 0.3912(6) 0.5694(3)
H31 H 0.00430 0.45080 0.54820
C14 C -0.0349(10) 0.2948(6) 0.5416(3)
C15 C -0.0083(10) 0.2062(6) 0.5732(3)
H32 H -0.04620 0.14080 0.55470
C16 C 0.1029(10) 0.1146(6) 0.6655(3)
H33 H 0.17660 0.13370 0.70290
H34 H 0.16960 0.06730 0.64100
C17 C 0.1639(10) 0.5092(6) 0.6589(3)
H35 H 0.18520 0.55550 0.62720
H36 H 0.27800 0.50190 0.68180
C18 C -0.1252(10) 0.2798(6) 0.4770(3)
H37 H -0.15910 0.34770 0.46410
H38 H -0.23420 0.23650 0.47740
C19 C -0.5321(11) 0.4520(6) 0.5018(4)
H39 H -0.61150 0.42420 0.46980
C20 C -0.4921(10) 0.3839(6) 0.5511(4)
C21 C -0.5323(11) 0.2769(7) 0.5429(4)
H40 H -0.59540 0.24870 0.50730
C22 C -0.4780(12) 0.2116(7) 0.5883(4)
H41 H -0.50690 0.14000 0.58320
C23 C -0.3509(11) 0.3548(7) 0.6492(4)
H42 H -0.28970 0.38100 0.68560
C24 C -0.4050(11) 0.4222(7) 0.6070(4)
H43 H -0.38400 0.49400 0.61550
C25 C 1.0315(12) 0.9904(8) 1.0277(4)
H44 H 1.10560 1.04250 1.04930
C26 C 0.996(1) 0.8954(6) 1.0582(4)
C27 C 0.9007(11) 0.8066(7) 1.0311(4)
H45 H 0.86770 0.80320 0.98970
C28 C 0.8545(11) 0.7253(7) 1.0628(4)
H46 H 0.78080 0.66990 1.04440
C29 C 1.0171(12) 0.8046(7) 1.1509(4)
H47 H 1.05790 0.80090 1.19130
C30 C 1.0612(11) 0.8945(7) 1.1202(4)
H48 H 1.13000 0.95080 1.13990
Cu1A Cu -0.40667(12) -0.70250(7) 0.21940(4)
Cu1* Cu -0.59333(12) -1.29750(7) -0.21940(4)
Cu1** Cu -0.59333(12) -0.29750(7) -0.21940(4)
Cu1A* Cu 0.59333(12) 0.29750(7) 1.21940(4)
Cu1A** Cu 0.59333(12) 1.29750(7) 1.21940(4)
Cu2A Cu 0.05366(12) -0.18514(7) 0.72242(4)
Cu2* Cu -0.05366(12) -0.81486(7) 0.27758(4)
Cu2** Cu 0.94634(12) 1.18514(7) 1.27758(4)
Cu2A* Cu -0.94634(12) -1.18514(7) -0.27758(4)
Cu2A** Cu 0.05366(12) 0.81486(7) 0.72242(4)
O1A O -0.0440(8) -0.1761(5) 0.8020(3)
H1A H -0.03830 -0.24000 0.80980
H2A H -0.13330 -0.13750 0.79980
O2A O -0.7633(8) -0.5848(4) -0.1889(3)
O3A O -0.5271(8) -0.6830(4) 0.2947(3)
H3A H -0.53710 -0.74390 0.30750
H4A H -0.61430 -0.64410 0.29990
O4A O -0.5921(8) -0.4983(5) -0.0972(3)
H5A H -0.53350 -0.44320 -0.08790
O5A O -0.5352(8) -0.4368(4) -0.2024(3)
O5* O -0.4648(8) -0.5632(4) 0.2024(3)
O5A* O 0.4648(8) 0.5632(4) 0.7976(3)
O7A O -0.5052(7) -0.9873(4) -0.2687(2)
H8A H -0.40280 -0.96130 -0.26430
O9A O -0.3594(7) -1.0845(4) -0.1827(2)
O11A O -0.6474(6) -1.1557(4) -0.2430(2)
O11* O -0.3526(6) -0.8443(4) 0.2430(2)
O11** O -0.3526(6) 0.1557(4) 0.2430(2)
O11A* O 0.3526(6) -0.1557(4) 0.7570(2)
O11A** O 0.3526(6) 0.8443(4) 0.7570(2)
O13A O -0.5740(7) -0.6646(4) 0.0586(2)
O14A O -0.6114(8) -0.8537(5) 0.0775(3)
H15A H -0.61590 -0.87070 0.11230
O15A O -0.3587(7) -0.7415(4) 0.1369(2)
O16A O 0.2111(8) -0.0086(4) 0.3774(3)
H16A H 0.15660 0.03400 0.39700
O17A O 0.2130(7) -0.1197(4) 0.2836(2)
O18A O 0.0338(8) 0.0462(4) 0.2821(2)
O19A O 0.0272(7) -0.4946(4) 0.2435(2)
H17A H -0.06560 -0.47230 0.22810
O20A O 0.1575(7) -0.5958(4) 0.3250(2)
O21A O -0.1216(7) -0.6701(4) 0.2615(2)
O21* O 0.1216(7) -0.3299(4) 0.7385(2)
O21A* O -0.1216(7) 0.3299(4) 0.2615(2)
O22A O -0.0797(10) -0.1227(5) 0.5530(3)
O23A O -0.1697(8) -0.2999(6) 0.5817(3)
H18A H -0.15460 -0.32990 0.61310
O24A O 0.1035(7) -0.2061(4) 0.6377(2)
N1A N -0.6153(9) 0.7477(6) 0.3612(3)
H19A H -0.66030 0.79370 0.33170
N2A N 1.0837(10) 1.2749(6) 0.8787(3)
H20A H 1.11450 1.33430 0.85690
P1A P -0.5873(3) -0.52817(18) -0.16668(10)
P2A P -0.5346(3) -1.05980(15) -0.21592(9)
P3A P -0.4735(3) -0.75742(18) 0.07728(9)
P4A P 0.0962(3) -0.04503(16) 0.31676(10)
P5A P -0.0185(3) -0.57281(16) 0.29145(9)
P6A P -0.0089(3) -0.22128(18) 0.57735(9)
C1A C -0.4402(12) -0.7134(6) -0.1368(4)
C2A C -0.5347(11) -0.8033(6) -0.1643(4)
H21A H -0.57790 -0.80380 -0.20480
C3A C -0.5658(11) -0.8908(6) -0.1335(3)
C4A C -0.4972(10) -0.8896(6) -0.0724(3)
H22A H -0.51380 -0.94840 -0.05080
C5A C -0.4040(11) -0.7995(6) -0.0441(3)
C6A C -0.3766(11) -0.7127(6) -0.0766(4)
H23A H -0.31470 -0.65330 -0.05770
C7A C -0.4089(12) -0.6167(7) -0.1722(4)
H24A H -0.29650 -0.58070 -0.15650
H25A H -0.40010 -0.63870 -0.21430
C8A C -0.6656(11) -0.9883(6) -0.1647(3)
H26A H -0.70050 -1.03390 -0.13430
H27A H -0.77400 -0.96780 -0.18700
C9A C -0.3272(11) -0.7963(7) 0.0219(3)
H28A H -0.28770 -0.86560 0.03000
H29A H -0.22220 -0.74880 0.02700
C10A C -0.0741(10) -0.2128(6) 0.3677(3)
C11A C -0.1264(10) -0.3120(6) 0.3413(3)
H30A H -0.18050 -0.31810 0.30190
C12A C -0.1012(10) -0.4018(6) 0.3713(3)
C13A C -0.0207(10) -0.3912(6) 0.4306(3)
H31A H -0.00430 -0.45080 0.45180
C14A C 0.0349(10) -0.2948(6) 0.4584(3)
C15A C 0.0083(10) -0.2062(6) 0.4268(3)
H32A H 0.04620 -0.14080 0.44530
C16A C -0.1029(10) -0.1146(6) 0.3345(3)
H33A H -0.17660 -0.13370 0.29710
H34A H -0.16960 -0.06730 0.35900
C17A C -0.1639(10) -0.5092(6) 0.3411(3)
H35A H -0.18520 -0.55550 0.37280
H36A H -0.27800 -0.50190 0.31820
C18A C 0.1252(10) -0.2798(6) 0.5230(3)
H37A H 0.15910 -0.34770 0.53590
H38A H 0.23420 -0.23650 0.52260
C19A C -0.4679(11) 0.5480(6) 0.4982(4)
H39A H -0.38850 0.57580 0.53020
C20A C -0.5079(10) 0.6161(6) 0.4489(4)
C21A C -0.4677(11) 0.7231(7) 0.4571(4)
H40A H -0.40460 0.75130 0.49270
C22A C -0.5220(12) 0.7884(7) 0.4117(4)
H41A H -0.49310 0.86000 0.41680
C23A C -0.6491(11) 0.6452(7) 0.3508(4)
H42A H -0.71030 0.61900 0.31440
C24A C -0.5950(11) 0.5778(7) 0.3930(4)
H43A H -0.61600 0.50600 0.38450
C25A C 0.9685(12) 1.0096(8) 0.9723(4)
H44A H 0.89440 0.95750 0.95070
C26A C 1.004(1) 1.1046(6) 0.9418(4)
C27A C 1.0993(11) 1.1934(7) 0.9689(4)
H45A H 1.13230 1.19680 1.01030
C28A C 1.1455(11) 1.2747(7) 0.9372(4)
H46A H 1.21920 1.33010 0.95560
C29A C 0.9829(12) 1.1954(7) 0.8491(4)
H47A H 0.94210 1.19910 0.80870
C30A C 0.9388(11) 1.1055(7) 0.8798(4)
H48A H 0.87000 1.04920 0.86010
#END
