
#######################################################################
#
#                 Cambridge Crystallographic Data Centre
#                                CCDC
#
#######################################################################
#
# If this CIF has been generated from an entry in the Cambridge
# Structural Database, then it will include bibliographic, chemical,
# crystal, experimental, refinement or atomic coordinate data resulting
# from the CCDC's data processing and validation procedures.
#
#######################################################################

data_CSD_CIF_WEMYOC
_audit_creation_date 1994-12-05
_audit_creation_method CSD-ConQuest-V1
_database_code_CSD WEMYOC
_chemical_formula_sum 'C8 H18 Br4 Cu4 N2 O4'
_chemical_formula_moiety
;
(C8 H18 Cu2 N2 O4 2+)n,n(Br4 Cu2 2-)
;
_journal_coden_Cambridge 367
_journal_volume 20
_journal_year 1994
_journal_page_first 208
_journal_name_full 'Koord.Khim.(Russ.)(Coord.Chem.) '
loop_
_publ_author_name
"B.M.Mykhalichko"
"V.V.Olijnyk"
"M.G.Mys'kiv"
"V.K.Pecharsky"
"F.Khalil'"
_chemical_name_systematic
;
catena-(bis((\m~2~-Formato-O,O')-(\h^2^-ammonioallyl)-copper(i) 
bis(\m~2~-bromo)-copper(i)))
;
_cell_volume   3617.358
_exptl_crystal_density_diffrn 2.865
_exptl_special_details
;
I-centred tetragonal polymorph

;
_diffrn_ambient_temperature ?
_diffrn_special_details
;
The study was carried out at room temperature,in the range 283-303K

;
#These two values have been output from a single CSD field.
_refine_ls_R_factor_gt 0.0351
_refine_ls_wR_factor_gt 0.0351
_symmetry_cell_setting tetragonal
_symmetry_space_group_name_H-M 'I 41/a'
_symmetry_Int_Tables_number 88
loop_
_symmetry_equiv_pos_site_id
_symmetry_equiv_pos_as_xyz
1 x,y,z
2 1/2+x,1/2+y,1/2+z
3 3/4-y,1/4+x,1/4+z
4 1/4-y,3/4+x,3/4+z
5 1/2-x,-y,1/2+z
6 -x,1/2-y,z
7 3/4+y,3/4-x,3/4+z
8 1/4+y,1/4-x,1/4+z
9 -x,-y,-z
10 -1/2-x,-1/2-y,-1/2-z
11 -3/4+y,-1/4-x,-1/4-z
12 -1/4+y,-3/4-x,-3/4-z
13 -1/2+x,y,-1/2-z
14 x,-1/2+y,-z
15 -3/4-y,-3/4+x,-3/4-z
16 -1/4-y,-1/4+x,-1/4-z
_cell_length_a 17.073(8)
_cell_length_b 17.073(8)
_cell_length_c 12.410(5)
_cell_angle_alpha 90
_cell_angle_beta 90
_cell_angle_gamma 90
_cell_formula_units_Z 8
loop_
_atom_type_symbol
_atom_type_radius_bond
C 0.68
H 0.23
Br 1.21
Cu 1.28
N 0.68
O 0.68
loop_
_atom_site_label
_atom_site_type_symbol
_atom_site_fract_x
_atom_site_fract_y
_atom_site_fract_z
Cu1 Cu 0.7586(1) 0.00005 0.1366(1)
Br1 Br 0.65194(5) 0.05260(5) 0.01629(8)
Br2 Br 0.81827(6) 0.09549(6) 0.25981(9)
Cu2 Cu 0.56117(6) 0.18428(6) 0.0959(1)
O1 O 0.6125(3) 0.2641(4) 0.0040(5)
O2 O 0.4763(4) 0.1395(4) 0.0097(6)
C1 C 0.5864(5) 0.3309(5) -0.0188(8)
C2 C 0.6074(6) 0.1877(6) 0.2477(9)
C3 C 0.5419(5) 0.1435(8) 0.2479(7)
C4 C 0.5431(5) 0.0570(5) 0.2589(8)
N1 N 0.4967(4) 0.0144(4) 0.1765(8)
H1 H 0.505(7) 0.023(7) 0.098(11)
H2 H 0.454(4) 0.028(4) 0.177(7)
H3 H 0.480(7) -0.057(7) 0.205(10)
H4 H 0.612(4) 0.248(5) 0.255(6)
H5 H 0.650(8) 0.178(7) 0.252(10)
H6 H 0.495(5) 0.165(5) 0.281(7)
H7 H 0.592(3) 0.036(3) 0.263(5)
H8 H 0.528(5) 0.055(5) 0.353(8)
H9 H 0.627(6) 0.354(7) -0.055(10)
Br1B Br 0.69740(5) -0.09806(5) 0.26629(8)
Br2F Br 0.84549(6) -0.06827(6) 0.00981(9)
Cu1F Cu 0.75005(10) -0.00860 -0.1134(1)
Cu1B Cu 0.74995(10) 0.00860 0.3866(1)
C1E C 0.4136(5) 0.1691(5) -0.0188(8)
O2E O 0.5237(4) 0.3605(4) 0.0097(6)
O1E O 0.3875(3) 0.2359(4) 0.0040(5)
H9E H 0.373(6) 0.146(7) -0.055(10)
Cu2E Cu 0.43883(6) 0.31572(6) 0.0959(1)
Br1F Br 0.80260(5) 0.09806(5) -0.23371(8)
Br2D Br 0.68173(6) -0.09549(6) -0.24019(9)
C2E C 0.3926(6) 0.3123(6) 0.2477(9)
C3E C 0.4581(5) 0.3565(8) 0.2479(7)
H4E H 0.388(4) 0.252(5) 0.255(6)
H5E H 0.350(8) 0.322(7) 0.252(10)
C4E C 0.4569(5) 0.4430(5) 0.2589(8)
H6E H 0.505(5) 0.335(5) 0.281(7)
N1E N 0.5033(4) 0.4856(4) 0.1765(8)
H7E H 0.408(3) 0.464(3) 0.263(5)
H8E H 0.472(5) 0.445(5) 0.353(8)
H1E H 0.495(7) 0.477(7) 0.098(11)
H2E H 0.546(4) 0.472(4) 0.177(7)
H3E H 0.520(7) 0.557(7) 0.205(10)
#END
