
#######################################################################
#
#                 Cambridge Crystallographic Data Centre
#                                CCDC
#
#######################################################################
#
# If this CIF has been generated from an entry in the Cambridge
# Structural Database, then it will include bibliographic, chemical,
# crystal, experimental, refinement or atomic coordinate data resulting
# from the CCDC's data processing and validation procedures.
#
#######################################################################

data_CSD_CIF_WENSOA
_audit_creation_date 2017-12-28
_audit_creation_method CSD-ConQuest-V1
_database_code_CSD WENSOA
_database_code_depnum_ccdc_archive 'CCDC 1572038'
_chemical_formula_sum 'C40 H46 Cd3 N8 O24'
_chemical_formula_moiety
;
(C36 H18 Cd3 N6 O18 2-)n,2(C2 H8 N1 1+),6(H2 O1)
;
_journal_coden_Cambridge 580
_journal_volume 144
_journal_year 2018
_journal_page_first 6
_journal_name_full 'Polyhedron '
loop_
_publ_author_name
"Li Ma"
"Hua Wu"
"Jin Yang"
"Ying-Ying Liu"
"Jian-Fang Ma"
_chemical_name_systematic
;
catena-[bis(dimethylammonium) 
bis(\m-5,5'-(1H-1,2,4-triazole-3,5-diyl)di(benzene-1,3-dicarboxylato))-diaqua-
tri-cadmium(ii) hexahydrate]
;
_cell_volume  10491.527
_exptl_crystal_colour 'colorless'
_exptl_crystal_density_diffrn 1.722
_exptl_crystal_description 'block'
_diffrn_ambient_temperature 293
_refine_special_details
;
The SQUEEZE/PLATON program has been used to model some disorder.

;
#These two values have been output from a single CSD field.
_refine_ls_R_factor_gt 0.042
_refine_ls_wR_factor_gt 0.042
_symmetry_cell_setting monoclinic
_symmetry_space_group_name_H-M 'C 2/c'
_symmetry_Int_Tables_number 15
loop_
_symmetry_equiv_pos_site_id
_symmetry_equiv_pos_as_xyz
1 x,y,z
2 -x,y,1/2-z
3 1/2+x,1/2+y,z
4 1/2-x,1/2+y,1/2-z
5 -x,-y,-z
6 x,-y,-1/2+z
7 -1/2-x,-1/2-y,-z
8 -1/2+x,-1/2-y,-1/2+z
_cell_length_a 33.2297(12)
_cell_length_b 20.0890(9)
_cell_length_c 15.9769(5)
_cell_angle_alpha 90
_cell_angle_beta 100.360(3)
_cell_angle_gamma 90
_cell_formula_units_Z 8
loop_
_atom_type_symbol
_atom_type_radius_bond
C 0.68
H 0.23
Cd 1.44
N 0.68
O 0.68
loop_
_atom_site_label
_atom_site_type_symbol
_atom_site_fract_x
_atom_site_fract_y
_atom_site_fract_z
Cd1 Cd 0.631523(9) 0.254010(15) 0.235221(17)
C1 C 0.65443(12) 0.3495(2) 0.3875(2)
C2 C 0.72367(11) 0.4120(2) 0.6829(3)
C3 C 0.65204(11) 0.3761(2) 0.4747(2)
C4 C 0.68757(11) 0.3867(2) 0.5341(2)
H1 H 0.71290 0.38010 0.51830
C5 C 0.68602(11) 0.4070(2) 0.6165(2)
C6 C 0.64802(11) 0.4229(2) 0.6379(2)
H2 H 0.64660 0.43890 0.69190
C7 C 0.61238(11) 0.4145(2) 0.5778(2)
C8 C 0.61445(11) 0.3897(2) 0.4977(2)
H3 H 0.59040 0.38200 0.45900
C9 C 0.57238(11) 0.4336(2) 0.5970(2)
C10 C 0.50926(11) 0.4473(2) 0.5935(3)
C11 C 0.46489(11) 0.4383(2) 0.5654(2)
C12 C 0.43605(11) 0.4638(2) 0.6101(2)
H4 H 0.44450 0.48790 0.65990
C13 C 0.39429(11) 0.4530(2) 0.5801(2)
C14 C 0.38212(11) 0.4172(2) 0.5054(2)
H5 H 0.35440 0.41130 0.48450
C15 C 0.41043(11) 0.3903(2) 0.4618(2)
C16 C 0.45173(11) 0.4006(2) 0.4915(2)
H6 H 0.47090 0.38240 0.46230
C17 C 0.36266(12) 0.4816(2) 0.6269(2)
C18 C 0.39778(12) 0.3477(2) 0.3848(2)
C19 C 0.37425(11) 0.1588(2) 0.1451(2)
C20 C 0.29221(11) 0.0465(2) -0.1104(3)
C21 C 0.37155(11) 0.1235(2) 0.0621(2)
C22 C 0.33437(11) 0.1024(2) 0.0163(2)
H7 H 0.31050 0.11040 0.03740
C23 C 0.33226(11) 0.0694(2) -0.0608(2)
C24 C 0.36775(11) 0.0577(2) -0.0922(3)
H8 H 0.36650 0.03550 -0.14380
C25 C 0.40516(11) 0.0788(2) -0.0473(2)
C26 C 0.40712(11) 0.1126(2) 0.0296(2)
H9 H 0.43210 0.12780 0.05900
C27 C 0.44342(12) 0.0643(2) -0.0774(2)
C28 C 0.50493(12) 0.0560(3) -0.0912(3)
C29 C 0.55003(11) 0.0656(2) -0.0740(3)
C30 C 0.57334(11) 0.0376(2) -0.1283(3)
H10 H 0.56050 0.01600 -0.17730
C31 C 0.61577(11) 0.0416(2) -0.1104(2)
C32 C 0.63470(11) 0.07316(19) -0.0366(2)
H11 H 0.66310 0.07430 -0.02280
C33 C 0.61119(11) 0.1033(2) 0.0170(2)
C34 C 0.56922(11) 0.0999(2) -0.0027(2)
H12 H 0.55350 0.12080 0.03220
C35 C 0.64076(12) 0.0068(2) -0.1667(2)
C36 C 0.63156(12) 0.1367(2) 0.0982(2)
N1 N 0.53669(9) 0.4170(2) 0.5518(2)
N2 N 0.56694(9) 0.47047(19) 0.6637(2)
H13 H 0.58630 0.48560 0.70190
N3 N 0.52591(9) 0.48079(19) 0.6624(2)
N4 N 0.48062(9) 0.0841(2) -0.0405(2)
N5 N 0.44575(10) 0.0263(2) -0.1450(2)
H14 H 0.42520 0.00810 -0.17730
N6 N 0.48546(10) 0.0206(2) -0.1556(2)
O1 O 0.62471(9) 0.31627(16) 0.35117(18)
O2 O 0.68666(8) 0.35977(14) 0.35782(17)
O3 O 0.70508(14) 0.2513(2) 0.2342(5)
O4 O 0.75657(8) 0.38960(15) 0.66378(18)
O5 O 0.72184(8) 0.43432(15) 0.75486(18)
O6 O 0.37341(8) 0.51005(15) 0.69670(16)
O7 O 0.32555(8) 0.47607(15) 0.59221(17)
O8 O 0.35999(8) 0.33482(16) 0.36079(17)
O9 O 0.42412(8) 0.32169(16) 0.34827(19)
O10 O 0.40754(8) 0.18191(15) 0.18119(17)
O11 O 0.34100(8) 0.16679(15) 0.17391(17)
O12 O 0.26058(8) 0.05465(18) -0.0791(2)
O13 O 0.29057(8) 0.02367(15) -0.18434(18)
O14 O 0.62285(8) -0.02235(14) -0.23298(17)
O15 O 0.67890(8) 0.00603(15) -0.14523(17)
O16 O 0.66785(8) 0.11887(15) 0.12942(16)
O17 O 0.61098(9) 0.17922(16) 0.12866(19)
Cd2 Cd 0.292983(8) 0.532806(16) 0.680343(17)
O18 O 0.29777(10) 0.57976(18) 0.80703(19)
Cd3 Cd 0.689160(8) -0.069845(16) -0.248144(17)
Cd1A Cd 0.368477(9) 0.254010(15) 0.264779(17)
O2D O 0.31334(8) 0.64023(14) 0.64218(17)
O4C O 0.74343(8) -0.11040(15) -0.16378(18)
O5A O 0.27816(8) 0.43432(15) 0.74514(18)
O8A O 0.64001(8) 0.33482(16) 0.13921(17)
O9A O 0.57588(8) 0.32169(16) 0.15173(19)
O10A O 0.59246(8) 0.18191(15) 0.31881(17)
O11A O 0.65900(8) 0.16679(15) 0.32609(17)
O11D O 0.65900(8) -0.16679(15) -0.17391(17)
O12C O 0.23942(8) 0.55465(18) 0.5791(2)
O13A O 0.70943(8) 0.02367(15) -0.31566(18)
O13C O 0.20943(8) 0.52367(15) 0.68434(18)
O16E O 0.66785(8) -0.11887(15) -0.37058(16)
Cd2A Cd 0.707017(8) 0.532806(16) 0.819657(17)
Cd2C Cd 0.207017(8) 0.032806(16) -0.180343(17)
Cd2D Cd 0.707017(8) 0.467194(16) 0.319657(17)
Cd3A Cd 0.310840(8) -0.069845(16) -0.251856(17)
Cd3C Cd 0.810840(8) 0.430155(16) 0.748144(17)
Cd3D Cd 0.310840(8) 0.069845(16) 0.248144(17)
Cd3E Cd 0.689160(8) 0.069845(16) 0.251856(17)
#END
