
#######################################################################
#
#                 Cambridge Crystallographic Data Centre
#                                CCDC
#
#######################################################################
#
# If this CIF has been generated from an entry in the Cambridge
# Structural Database, then it will include bibliographic, chemical,
# crystal, experimental, refinement or atomic coordinate data resulting
# from the CCDC's data processing and validation procedures.
#
#######################################################################

data_CSD_CIF_WEPHOR
_audit_creation_date 2017-12-28
_audit_creation_method CSD-ConQuest-V1
_database_code_CSD WEPHOR
_database_code_depnum_ccdc_archive 'CCDC 1570105'
_chemical_formula_sum 'C7 H12 Ga1 Mn1 N1 O12'
_chemical_formula_moiety
;
C1 H6 N1 1+,n(C6 H6 Ga1 Mn1 O12 1-)
;
_journal_coden_Cambridge 9
_journal_volume 57
_journal_year 2018
_journal_page_first 537
_journal_name_full 'Inorg.Chem. '
loop_
_publ_author_name
"Kai Wang"
"Jian-Bo Xiong"
"Bin Xia"
"Qing-Lun Wang"
"Yu-Zhang Tong"
"Yue Ma"
"Xian-He Bu"
_chemical_name_systematic
;
catena-[methylammonium hexakis(\m-formato)-gallium(iii)-manganese(ii)]
;
_cell_volume    818.000
_exptl_crystal_colour 'colorless'
_exptl_crystal_density_diffrn 1.708
_exptl_crystal_description 'block'
_diffrn_ambient_temperature 113
_refine_special_details
;
The structure is disordered by symmetry.

;
#These two values have been output from a single CSD field.
_refine_ls_R_factor_gt 0.0377
_refine_ls_wR_factor_gt 0.0377
_symmetry_cell_setting hexagonal
_symmetry_space_group_name_H-M 'P -3 1 c'
_symmetry_Int_Tables_number 163
loop_
_symmetry_equiv_pos_site_id
_symmetry_equiv_pos_as_xyz
1 x,y,z
2 -y,x-y,z
3 -x+y,-x,z
4 -y,-x,1/2-z
5 -x+y,y,1/2-z
6 x,x-y,1/2-z
7 -x,-y,-z
8 y,-x+y,-z
9 x-y,x,-z
10 y,x,-1/2+z
11 x-y,-y,-1/2+z
12 -x,-x+y,-1/2+z
_cell_length_a 8.2484(13)
_cell_length_b 8.2484(13)
_cell_length_c 13.883(3)
_cell_angle_alpha 90
_cell_angle_beta 90
_cell_angle_gamma 120
_cell_formula_units_Z 2
loop_
_atom_type_symbol
_atom_type_radius_bond
C 0.68
H 0.23
Ga 1.22
Mn 1.61
N 0.68
O 0.68
loop_
_atom_site_label
_atom_site_type_symbol
_atom_site_fract_x
_atom_site_fract_y
_atom_site_fract_z
Mn1 Mn 0.66670 0.33330 0.25000
Ga1 Ga 0.00000 0.00000 0.00000
O1 O 0.4493(3) 0.3393(3) 0.16520(17)
O2 O 0.1875(3) 0.2043(3) 0.08022(16)
C1 C 0.3322(4) 0.2101(4) 0.1146(2)
H1 H 0.35200 0.11100 0.10110
N1 N 0.2711(9) 0.5422(18) 0.25000
C2 C 0.33330 0.66670 0.1707(11)
O1A O -0.3393(3) 0.1100(3) 0.16520(17)
O2A O -0.2043(3) -0.0168(3) 0.08022(16)
C1A C -0.2101(4) 0.1221(4) 0.1146(2)
H1A H -0.11100 0.24100 0.10110
O1B O -0.1100(3) -0.4493(3) 0.16520(17)
O2B O 0.0168(3) -0.1875(3) 0.08022(16)
C1B C -0.1221(4) -0.3322(4) 0.1146(2)
H1B H -0.24100 -0.35200 0.10110
O1E O 0.4493(3) 0.1100(3) 0.33480(17)
O2E O 0.1875(3) -0.0168(3) 0.41978(16)
C1E C 0.3322(4) 0.1221(4) 0.3854(2)
H1E H 0.35200 0.24100 0.39890
O1C O 0.6607(3) 0.5507(3) 0.33480(17)
O2C O 0.7957(3) 0.8125(3) 0.41978(16)
C1C C 0.7899(4) 0.6678(4) 0.3854(2)
H1C H 0.88900 0.64800 0.39890
O1D O 0.8900(3) 0.3393(3) 0.33480(17)
O2D O 1.0168(3) 0.2043(3) 0.41978(16)
C1D C 0.8779(4) 0.2101(4) 0.3854(2)
H1D H 0.75900 0.11100 0.39890
Mn1* Mn -0.33330 -0.66670 0.25000
Mn1** Mn -0.33330 0.33330 0.25000
Ga1C Ga 0.00000 0.00000 0.50000
Ga1C* Ga 1.00000 0.00000 0.50000
Ga1C** Ga 1.00000 1.00000 0.50000
O1A* O 0.6607(3) 0.1100(3) 0.16520(17)
O1B* O 0.8900(3) 0.5507(3) 0.16520(17)
O2F O -0.1875(3) -0.2043(3) -0.08022(16)
O2G O 0.2043(3) 0.0168(3) -0.08022(16)
O2H O -0.0168(3) 0.1875(3) -0.08022(16)
N1A N 0.4578(9) 0.7289(18) 0.25000
N1B N 0.2711(9) 0.7289(18) 0.25000
C2C C 0.33330 0.66670 0.3293(11)
#END
