
#######################################################################
#
#                 Cambridge Crystallographic Data Centre
#                                CCDC
#
#######################################################################
#
# If this CIF has been generated from an entry in the Cambridge
# Structural Database, then it will include bibliographic, chemical,
# crystal, experimental, refinement or atomic coordinate data resulting
# from the CCDC's data processing and validation procedures.
#
#######################################################################

data_CSD_CIF_WEPHOR01
_audit_creation_date 2017-12-28
_audit_creation_method CSD-ConQuest-V1
_database_code_CSD WEPHOR01
_database_code_depnum_ccdc_archive 'CCDC 1570106'
_chemical_formula_sum 'C7 H12 Ga1 Mn1 N1 O12'
_chemical_formula_moiety
;
C1 H6 N1 1+,n(C6 H6 Ga1 Mn1 O12 1-)
;
_journal_coden_Cambridge 9
_journal_volume 57
_journal_year 2018
_journal_page_first 537
_journal_name_full 'Inorg.Chem. '
loop_
_publ_author_name
"Kai Wang"
"Jian-Bo Xiong"
"Bin Xia"
"Qing-Lun Wang"
"Yu-Zhang Tong"
"Yue Ma"
"Xian-He Bu"
_chemical_name_systematic
;
catena-[methylammonium hexakis(\m-formato)-gallium(iii)-manganese(ii)]
;
_cell_volume    818.285
_exptl_crystal_colour 'colorless'
_exptl_crystal_density_diffrn 1.708
_exptl_crystal_description 'block'
_diffrn_ambient_temperature 293
_refine_special_details
;
The structure is disordered by symmetry.

;
#These two values have been output from a single CSD field.
_refine_ls_R_factor_gt 0.0339
_refine_ls_wR_factor_gt 0.0339
_symmetry_cell_setting hexagonal
_symmetry_space_group_name_H-M 'P -3 1 c'
_symmetry_Int_Tables_number 163
loop_
_symmetry_equiv_pos_site_id
_symmetry_equiv_pos_as_xyz
1 x,y,z
2 -y,x-y,z
3 -x+y,-x,z
4 -y,-x,1/2-z
5 -x+y,y,1/2-z
6 x,x-y,1/2-z
7 -x,-y,-z
8 y,-x+y,-z
9 x-y,x,-z
10 y,x,-1/2+z
11 x-y,-y,-1/2+z
12 -x,-x+y,-1/2+z
_cell_length_a 8.23(9)
_cell_length_b 8.23(9)
_cell_length_c 13.95(15)
_cell_angle_alpha 90
_cell_angle_beta 90
_cell_angle_gamma 120
_cell_formula_units_Z 2
loop_
_atom_type_symbol
_atom_type_radius_bond
C 0.68
H 0.23
Ga 1.22
Mn 1.61
N 0.68
O 0.68
loop_
_atom_site_label
_atom_site_type_symbol
_atom_site_fract_x
_atom_site_fract_y
_atom_site_fract_z
Mn1 Mn 0.66670 0.33330 0.25000
Ga1 Ga 0.00000 0.00000 0.00000
O1 O 0.4485(3) 0.3382(3) 0.16512(14)
O2 O 0.1892(3) 0.2045(3) 0.07968(12)
C1 C 0.3315(3) 0.2095(4) 0.11549(17)
H1 H 0.34980 0.10850 0.10360
N1 N 0.2716(10) 0.5432(19) 0.25000
C2 C 0.33330 0.66670 0.1583(11)
O1A O -0.3382(3) 0.1103(3) 0.16512(14)
O2A O -0.2045(3) -0.0153(3) 0.07968(12)
C1A C -0.2095(3) 0.1220(4) 0.11549(17)
H1A H -0.10850 0.24130 0.10360
O1B O -0.1103(3) -0.4485(3) 0.16512(14)
O2B O 0.0153(3) -0.1892(3) 0.07968(12)
C1B C -0.1220(3) -0.3315(4) 0.11549(17)
H1B H -0.24130 -0.34980 0.10360
O1E O 0.4485(3) 0.1103(3) 0.33488(14)
O2E O 0.1892(3) -0.0153(3) 0.42032(12)
C1E C 0.3315(3) 0.1220(4) 0.38451(17)
H1E H 0.34980 0.24130 0.39640
O1C O 0.6618(3) 0.5515(3) 0.33488(14)
O2C O 0.7955(3) 0.8108(3) 0.42032(12)
C1C C 0.7905(3) 0.6685(4) 0.38451(17)
H1C H 0.89150 0.65020 0.39640
O1D O 0.8897(3) 0.3382(3) 0.33488(14)
O2D O 1.0153(3) 0.2045(3) 0.42032(12)
C1D C 0.8780(3) 0.2095(4) 0.38451(17)
H1D H 0.75870 0.10850 0.39640
Mn1* Mn -0.33330 -0.66670 0.25000
Mn1** Mn -0.33330 0.33330 0.25000
Ga1C Ga 0.00000 0.00000 0.50000
Ga1C* Ga 1.00000 0.00000 0.50000
Ga1C** Ga 1.00000 1.00000 0.50000
O1A* O 0.6618(3) 0.1103(3) 0.16512(14)
O1B* O 0.8897(3) 0.5515(3) 0.16512(14)
O2F O -0.1892(3) -0.2045(3) -0.07968(12)
O2G O 0.2045(3) 0.0153(3) -0.07968(12)
O2H O -0.0153(3) 0.1892(3) -0.07968(12)
N1A N 0.4568(10) 0.7284(19) 0.25000
N1B N 0.2716(10) 0.7284(19) 0.25000
C2C C 0.33330 0.66670 0.3417(11)
#END
