
#######################################################################
#
#                 Cambridge Crystallographic Data Centre
#                                CCDC
#
#######################################################################
#
# If this CIF has been generated from an entry in the Cambridge
# Structural Database, then it will include bibliographic, chemical,
# crystal, experimental, refinement or atomic coordinate data resulting
# from the CCDC's data processing and validation procedures.
#
#######################################################################

data_CSD_CIF_WEPJAF
_audit_creation_date 2017-12-28
_audit_creation_method CSD-ConQuest-V1
_database_code_CSD WEPJAF
_database_code_depnum_ccdc_archive 'CCDC 1570107'
_chemical_formula_sum 'C8 H14 Ga1 Mn1 N1 O12'
_chemical_formula_moiety
;
C2 H8 N1 1+,n(C6 H6 Ga1 Mn1 O12 1-)
;
_journal_coden_Cambridge 9
_journal_volume 57
_journal_year 2018
_journal_page_first 537
_journal_name_full 'Inorg.Chem. '
loop_
_publ_author_name
"Kai Wang"
"Jian-Bo Xiong"
"Bin Xia"
"Qing-Lun Wang"
"Yu-Zhang Tong"
"Yue Ma"
"Xian-He Bu"
_chemical_name_systematic
;
catena-[dimethylammonium hexakis(\m-formato)-gallium(iii)-manganese(ii)]
;
_cell_volume    811.729
_exptl_crystal_colour 'colorless'
_exptl_crystal_density_diffrn 1.771
_exptl_crystal_description 'block'
_diffrn_ambient_temperature 113
_refine_special_details
;
N1 disordered by symmetry over three configurations with occupancy 0.3333.

;
#These two values have been output from a single CSD field.
_refine_ls_R_factor_gt 0.0163
_refine_ls_wR_factor_gt 0.0163
_symmetry_cell_setting hexagonal
_symmetry_space_group_name_H-M 'P -3 1 c'
_symmetry_Int_Tables_number 163
loop_
_symmetry_equiv_pos_site_id
_symmetry_equiv_pos_as_xyz
1 x,y,z
2 -y,x-y,z
3 -x+y,-x,z
4 -y,-x,1/2-z
5 -x+y,y,1/2-z
6 x,x-y,1/2-z
7 -x,-y,-z
8 y,-x+y,-z
9 x-y,x,-z
10 y,x,-1/2+z
11 x-y,-y,-1/2+z
12 -x,-x+y,-1/2+z
_cell_length_a 8.2687(12)
_cell_length_b 8.2687(12)
_cell_length_c 13.709(3)
_cell_angle_alpha 90
_cell_angle_beta 90
_cell_angle_gamma 120
_cell_formula_units_Z 2
loop_
_atom_type_symbol
_atom_type_radius_bond
C 0.68
H 0.23
Ga 1.22
Mn 1.61
N 0.68
O 0.68
loop_
_atom_site_label
_atom_site_type_symbol
_atom_site_fract_x
_atom_site_fract_y
_atom_site_fract_z
Mn1 Mn 0.66670 0.33330 0.25000
Ga1 Ga 1.00000 0.00000 0.00000
O1 O 1.01822(12) 0.20502(13) 0.08121(7)
O2 O 0.89020(14) 0.34083(14) 0.16468(7)
C1 C 0.87891(19) 0.20977(18) 0.11572(9)
H1 H 0.76070 0.10860 0.10360
C2 C 0.33330 0.66670 0.1567(7)
N1 N 0.2794(4) 0.5587(9) 0.25000
O1A O 0.79498(12) -0.18680(13) 0.08121(7)
O2A O 0.65917(14) -0.45063(14) 0.16468(7)
C1A C 0.79023(19) -0.33086(18) 0.11572(9)
H1A H 0.89140 -0.34790 0.10360
O1A* O 0.79498(12) 0.81320(13) 0.08121(7)
O2A* O 0.65917(14) 0.54937(14) 0.16468(7)
C1A* C 0.79023(19) 0.66914(18) 0.11572(9)
H1A* H 0.89140 0.65210 0.10360
O1B O 0.18680(12) -0.01822(13) 0.08121(7)
O2B O 0.45063(14) 0.10980(14) 0.16468(7)
C1B C 0.33086(19) 0.12109(18) 0.11572(9)
H1B H 0.34790 0.23930 0.10360
O1B* O 1.18680(12) -0.01822(13) 0.08121(7)
O2B* O 1.45063(14) 0.10980(14) 0.16468(7)
C1B* C 1.33086(19) 0.12109(18) 0.11572(9)
H1B* H 1.34790 0.23930 0.10360
O1C O 0.79498(12) -0.01822(13) 0.41879(7)
O2C O 0.65917(14) 0.10980(14) 0.33532(7)
C1C C 0.79023(19) 0.12109(18) 0.38428(9)
H1C H 0.89140 0.23930 0.39640
Mn1* Mn 0.66670 -0.66670 0.25000
Mn1** Mn 1.66670 0.33330 0.25000
Ga1* Ga 0.00000 0.00000 0.00000
Ga1** Ga 1.00000 1.00000 0.00000
Ga1C Ga 1.00000 0.00000 0.50000
O1F O 0.98178(12) -0.20502(13) -0.08121(7)
O1G O 1.20502(12) 0.18680(13) -0.08121(7)
O1H O 0.81320(12) 0.01822(13) -0.08121(7)
O2D O 0.45063(14) 0.34083(14) 0.33532(7)
O2E O 0.89020(14) 0.54937(14) 0.33532(7)
N1A N 0.4413(4) 0.7207(9) 0.25000
N1B N 0.2793(4) 0.7206(9) 0.25000
C2C C 0.33330 0.66670 0.3433(7)
#END
