
#######################################################################
#
#                 Cambridge Crystallographic Data Centre
#                                CCDC
#
#######################################################################
#
# If this CIF has been generated from an entry in the Cambridge
# Structural Database, then it will include bibliographic, chemical,
# crystal, experimental, refinement or atomic coordinate data resulting
# from the CCDC's data processing and validation procedures.
#
#######################################################################

data_CSD_CIF_WEPJIN
_audit_creation_date 2017-12-28
_audit_creation_method CSD-ConQuest-V1
_database_code_CSD WEPJIN
_database_code_depnum_ccdc_archive 'CCDC 1570109'
_chemical_formula_sum 'C8 H14 Ga1 Mn1 N1 O12'
_chemical_formula_moiety
;
C2 H8 N1 1+,n(C6 H6 Ga1 Mn1 O12 1-)
;
_journal_coden_Cambridge 9
_journal_volume 57
_journal_year 2018
_journal_page_first 537
_journal_name_full 'Inorg.Chem. '
loop_
_publ_author_name
"Kai Wang"
"Jian-Bo Xiong"
"Bin Xia"
"Qing-Lun Wang"
"Yu-Zhang Tong"
"Yue Ma"
"Xian-He Bu"
_chemical_name_systematic
;
catena-[ethylammonium hexakis(\m-formato)-gallium(iii)-manganese(ii)]
;
_cell_volume    827.685
_exptl_crystal_colour 'colorless'
_exptl_crystal_description 'block'
_diffrn_ambient_temperature 113
_refine_special_details
;
The cation is disordered by symmetry.

;
#These two values have been output from a single CSD field.
_refine_ls_R_factor_gt 0.0349
_refine_ls_wR_factor_gt 0.0349
_symmetry_cell_setting hexagonal
_symmetry_space_group_name_H-M 'P -3 1 c'
_symmetry_Int_Tables_number 163
loop_
_symmetry_equiv_pos_site_id
_symmetry_equiv_pos_as_xyz
1 x,y,z
2 -y,x-y,z
3 -x+y,-x,z
4 -y,-x,1/2-z
5 -x+y,y,1/2-z
6 x,x-y,1/2-z
7 -x,-y,-z
8 y,-x+y,-z
9 x-y,x,-z
10 y,x,-1/2+z
11 x-y,-y,-1/2+z
12 -x,-x+y,-1/2+z
_cell_length_a 8.2488(18)
_cell_length_b 8.2488(18)
_cell_length_c 14.046(4)
_cell_angle_alpha 90
_cell_angle_beta 90
_cell_angle_gamma 120
_cell_formula_units_Z 2
loop_
_atom_type_symbol
_atom_type_radius_bond
C 0.68
H 0.23
Ga 1.22
Mn 1.61
N 0.68
O 0.68
loop_
_atom_site_label
_atom_site_type_symbol
_atom_site_fract_x
_atom_site_fract_y
_atom_site_fract_z
Ga1 Ga 1.00000 1.00000 0.00000
O1 O 0.7965(4) 0.8100(3) 0.07956(18)
C1 C 0.7928(5) 0.6694(5) 0.1166(2)
O2 O 0.6638(4) 0.5519(4) 0.16556(19)
H1 H 0.89500 0.65310 0.10610
Mn1 Mn 0.66670 0.33330 0.25000
C2 C 0.33330 0.66670 0.0806(8)
H2 H 0.21560 0.64820 0.05780
N1 N 0.4570(19) 0.7285(10) 0.25000
C3 C 0.33330 0.66670 0.1930(17)
O1A O 1.1900(4) 0.9865(3) 0.07956(18)
O1B O 1.0135(4) 1.2035(3) 0.07956(18)
O1F O 1.2035(4) 1.1900(3) -0.07956(18)
O1G O 0.8100(4) 1.0135(3) -0.07956(18)
O1H O 0.9865(4) 0.7965(3) -0.07956(18)
C1A C 1.3306(5) 1.1234(5) 0.1166(2)
C1B C 0.8766(5) 1.2072(5) 0.1166(2)
O2A O 1.4481(4) 1.1119(4) 0.16556(19)
H1A H 1.34690 1.24190 0.10610
O2B O 0.8881(4) 1.3362(4) 0.16556(19)
H1B H 0.75810 1.10500 0.10610
Mn1* Mn 1.66670 1.33330 0.25000
Mn1** Mn 0.66670 1.33330 0.25000
O2A* O 0.4481(4) 0.1119(4) 0.16556(19)
O2B* O 0.8881(4) 0.3362(4) 0.16556(19)
O2C O 0.4481(4) 0.3362(4) 0.33444(19)
O2D O 0.8881(4) 0.5519(4) 0.33444(19)
O2E O 0.6638(4) 0.1119(4) 0.33444(19)
C1A* C 0.3306(5) 0.1234(5) 0.1166(2)
C1B* C 0.8766(5) 0.2072(5) 0.1166(2)
C1C C 0.3306(5) 0.2072(5) 0.3834(2)
O1A* O 0.1900(4) -0.0135(3) 0.07956(18)
H1A* H 0.34690 0.24190 0.10610
O1B* O 1.0135(4) 0.2035(3) 0.07956(18)
H1B* H 0.75810 0.10500 0.10610
O1C O 0.1900(4) 0.2035(3) 0.42044(18)
H1C H 0.34690 0.10500 0.39390
Ga1* Ga 0.00000 0.00000 0.00000
Ga1** Ga 1.00000 0.00000 0.00000
Ga1C Ga 0.00000 0.00000 0.50000
H2A H 0.35180 0.56740 0.05780
N1A N 0.2715(19) 0.7285(10) 0.25000
H2B H 0.43260 0.78440 0.05780
N1B N 0.2715(19) 0.543(1) 0.25000
C2C C 0.33330 0.66670 0.4194(8)
H2C H 0.35180 0.78440 0.44220
C3C C 0.33330 0.66670 0.3070(17)
H2D H 0.43260 0.64820 0.44220
H2E H 0.21560 0.56740 0.44220
#END
