
#######################################################################
#
#                 Cambridge Crystallographic Data Centre
#                                CCDC
#
#######################################################################
#
# If this CIF has been generated from an entry in the Cambridge
# Structural Database, then it will include bibliographic, chemical,
# crystal, experimental, refinement or atomic coordinate data resulting
# from the CCDC's data processing and validation procedures.
#
#######################################################################

data_CSD_CIF_WEPJIN01
_audit_creation_date 2017-12-28
_audit_creation_method CSD-ConQuest-V1
_database_code_CSD WEPJIN01
_database_code_depnum_ccdc_archive 'CCDC 1570110'
_chemical_formula_sum 'C8 H14 Ga1 Mn1 N1 O12'
_chemical_formula_moiety
;
C2 H8 N1 1+,n(C6 H6 Ga1 Mn1 O12 1-)
;
_journal_coden_Cambridge 9
_journal_volume 57
_journal_year 2018
_journal_page_first 537
_journal_name_full 'Inorg.Chem. '
loop_
_publ_author_name
"Kai Wang"
"Jian-Bo Xiong"
"Bin Xia"
"Qing-Lun Wang"
"Yu-Zhang Tong"
"Yue Ma"
"Xian-He Bu"
_chemical_name_systematic
;
catena-[ethylammonium hexakis(\m-formato)-gallium(iii)-manganese(ii)]
;
_cell_volume    825.767
_exptl_crystal_colour 'colorless'
_exptl_crystal_density_diffrn 1.753
_exptl_crystal_description 'block'
_diffrn_ambient_temperature 293
_refine_special_details
;
The cation is disordered by symmetry.

;
#These two values have been output from a single CSD field.
_refine_ls_R_factor_gt 0.0447
_refine_ls_wR_factor_gt 0.0447
_symmetry_cell_setting hexagonal
_symmetry_space_group_name_H-M 'P -3 1 c'
_symmetry_Int_Tables_number 163
loop_
_symmetry_equiv_pos_site_id
_symmetry_equiv_pos_as_xyz
1 x,y,z
2 -y,x-y,z
3 -x+y,-x,z
4 -y,-x,1/2-z
5 -x+y,y,1/2-z
6 x,x-y,1/2-z
7 -x,-y,-z
8 y,-x+y,-z
9 x-y,x,-z
10 y,x,-1/2+z
11 x-y,-y,-1/2+z
12 -x,-x+y,-1/2+z
_cell_length_a 8.2354(3)
_cell_length_b 8.2354(3)
_cell_length_c 14.0591(8)
_cell_angle_alpha 90
_cell_angle_beta 90
_cell_angle_gamma 120
_cell_formula_units_Z 2
loop_
_atom_type_symbol
_atom_type_radius_bond
C 0.68
H 0.23
Ga 1.22
Mn 1.61
N 0.68
O 0.68
loop_
_atom_site_label
_atom_site_type_symbol
_atom_site_fract_x
_atom_site_fract_y
_atom_site_fract_z
Mn1 Mn 0.33330 0.66670 0.25000
Ga1 Ga 0.00000 0.00000 0.00000
O1 O 0.3360(6) 0.4483(5) 0.1660(3)
O2 O 0.2037(5) 0.1907(5) 0.0795(2)
C1 C 0.2070(7) 0.3302(7) 0.1167(3)
H1 H 0.10430 0.34620 0.10630
C2 C 0.66670 0.33330 0.081(1)
H2 H 0.78560 0.35450 0.05830
C3 C 0.66670 0.33330 0.188(2)
N1 N 0.543(3) 0.2713(14) 0.25000
O1A O -0.4483(6) -0.1123(5) 0.1660(3)
O2A O -0.1907(5) 0.0130(5) 0.0795(2)
C1A C -0.3302(7) -0.1232(7) 0.1167(3)
H1A H -0.34620 -0.24190 0.10630
O1B O 0.1123(6) -0.3360(5) 0.1660(3)
O2B O -0.0130(5) -0.2037(5) 0.0795(2)
C1B C 0.1232(7) -0.2070(7) 0.1167(3)
H1B H 0.24190 -0.10430 0.10630
O1D O 0.1123(6) 0.4483(5) 0.3340(3)
O2D O -0.0130(5) 0.1907(5) 0.4205(2)
C1D C 0.1232(7) 0.3302(7) 0.3833(3)
H1D H 0.24190 0.34620 0.39370
O1C O 0.5517(6) 0.6640(5) 0.3340(3)
O2C O 0.8093(5) 0.7963(5) 0.4205(2)
C1C C 0.6698(7) 0.7930(7) 0.3833(3)
H1C H 0.65380 0.89570 0.39370
O1E O 0.3360(6) 0.8877(5) 0.3340(3)
O2E O 0.2037(5) 1.0130(5) 0.4205(2)
C1E C 0.2070(7) 0.8768(7) 0.3833(3)
H1E H 0.10430 0.75810 0.39370
Mn1* Mn -0.66670 -0.33330 0.25000
Mn1** Mn 0.33330 -0.33330 0.25000
Ga1C Ga 0.00000 0.00000 0.50000
Ga1C* Ga 0.00000 1.00000 0.50000
Ga1C** Ga 1.00000 1.00000 0.50000
O1A* O 0.5517(6) 0.8877(5) 0.1660(3)
O1B* O 0.1123(6) 0.6640(5) 0.1660(3)
O2F O -0.2037(5) -0.1907(5) -0.0795(2)
O2G O 0.1907(5) -0.0130(5) -0.0795(2)
O2H O 0.0130(5) 0.2037(5) -0.0795(2)
H2A H 0.64550 0.43110 0.05830
N1A N 0.7287(30) 0.2717(14) 0.25000
H2B H 0.56890 0.21440 0.05830
N1B N 0.7283(30) 0.4570(14) 0.25000
C2C C 0.66670 0.33330 0.419(1)
H2C H 0.64550 0.21440 0.44170
C3C C 0.66670 0.33330 0.312(2)
H2D H 0.56890 0.35450 0.44170
H2E H 0.78560 0.43110 0.44170
#END
