
#######################################################################
#
#                 Cambridge Crystallographic Data Centre
#                                CCDC
#
#######################################################################
#
# If this CIF has been generated from an entry in the Cambridge
# Structural Database, then it will include bibliographic, chemical,
# crystal, experimental, refinement or atomic coordinate data resulting
# from the CCDC's data processing and validation procedures.
#
#######################################################################

data_CSD_CIF_WEPJAF01
_audit_creation_date 2017-12-28
_audit_creation_method CSD-ConQuest-V1
_database_code_CSD WEPJAF01
_database_code_depnum_ccdc_archive 'CCDC 1570108'
_chemical_formula_sum 'C8 H14 Ga1 Mn1 N1 O12'
_chemical_formula_moiety
;
C2 H8 N1 1+,n(C6 H6 Ga1 Mn1 O12 1-)
;
_journal_coden_Cambridge 9
_journal_volume 57
_journal_year 2018
_journal_page_first 537
_journal_name_full 'Inorg.Chem. '
loop_
_publ_author_name
"Kai Wang"
"Jian-Bo Xiong"
"Bin Xia"
"Qing-Lun Wang"
"Yu-Zhang Tong"
"Yue Ma"
"Xian-He Bu"
_chemical_name_systematic
;
catena-[dimethylammonium hexakis(\m-formato)-gallium(iii)-manganese(ii)]
;
_cell_volume    819.450
_exptl_crystal_colour 'colorless'
_exptl_crystal_density_diffrn 1.754
_exptl_crystal_description 'block'
_diffrn_ambient_temperature 293
_refine_special_details
;
N1 disordered by symmetry over three configurations with occupancy 0.3333.

;
#These two values have been output from a single CSD field.
_refine_ls_R_factor_gt 0.0186
_refine_ls_wR_factor_gt 0.0186
_symmetry_cell_setting hexagonal
_symmetry_space_group_name_H-M 'P -3 1 c'
_symmetry_Int_Tables_number 163
loop_
_symmetry_equiv_pos_site_id
_symmetry_equiv_pos_as_xyz
1 x,y,z
2 -y,x-y,z
3 -x+y,-x,z
4 -y,-x,1/2-z
5 -x+y,y,1/2-z
6 x,x-y,1/2-z
7 -x,-y,-z
8 y,-x+y,-z
9 x-y,x,-z
10 y,x,-1/2+z
11 x-y,-y,-1/2+z
12 -x,-x+y,-1/2+z
_cell_length_a 8.2856(8)
_cell_length_b 8.2856(8)
_cell_length_c 13.783(2)
_cell_angle_alpha 90
_cell_angle_beta 90
_cell_angle_gamma 120
_cell_formula_units_Z 2
loop_
_atom_type_symbol
_atom_type_radius_bond
C 0.68
H 0.23
Ga 1.22
Mn 1.61
N 0.68
O 0.68
loop_
_atom_site_label
_atom_site_type_symbol
_atom_site_fract_x
_atom_site_fract_y
_atom_site_fract_z
Mn1 Mn 0.66670 0.33330 0.25000
Ga1 Ga 1.00000 0.00000 0.00000
O1 O 0.66161(16) 0.11108(17) 0.16445(9)
O2 O 0.79662(15) -0.01550(13) 0.08085(8)
C1 C 0.7909(2) 0.1213(2) 0.11617(11)
H1 H 0.89240 0.23930 0.10490
C2 C 0.33330 0.66670 0.1530(12)
N1 N 0.4348(14) 0.7174(7) 0.25000
O1A O 0.88892(16) -0.44947(17) 0.16445(9)
O2A O 1.01550(15) -0.18788(13) 0.08085(8)
C1A C 0.8787(2) -0.3304(2) 0.11617(11)
H1A H 0.76070 -0.34690 0.10490
O1A* O 0.88892(16) 0.55053(17) 0.16445(9)
O2A* O 1.01550(15) 0.81212(13) 0.08085(8)
C1A* C 0.8787(2) 0.6696(2) 0.11617(11)
H1A* H 0.76070 0.65310 0.10490
O1B O 0.44947(16) 0.33839(17) 0.16445(9)
O2B O 0.18788(15) 0.20338(13) 0.08085(8)
C1B C 0.3304(2) 0.2091(2) 0.11617(11)
H1B H 0.34690 0.10760 0.10490
O1B* O 1.44947(16) 0.33839(17) 0.16445(9)
O2B* O 1.18788(15) 0.20338(13) 0.08085(8)
C1B* C 1.3304(2) 0.2091(2) 0.11617(11)
H1B* H 1.34690 0.10760 0.10490
O1C O 0.88892(16) 0.33839(17) 0.33555(9)
O2C O 1.01550(15) 0.20338(13) 0.41915(8)
C1C C 0.8787(2) 0.2091(2) 0.38383(11)
H1C H 0.76070 0.10760 0.39510
Mn1* Mn 0.66670 -0.66670 0.25000
Mn1** Mn 1.66670 0.33330 0.25000
Ga1* Ga 0.00000 0.00000 0.00000
Ga1** Ga 1.00000 1.00000 0.00000
Ga1C Ga 1.00000 0.00000 0.50000
O1D O 0.44947(16) 0.11108(17) 0.33555(9)
O1E O 0.66161(16) 0.55053(17) 0.33555(9)
O2F O 1.20338(15) 0.01550(13) -0.08085(8)
O2G O 0.98450(15) 0.18788(13) -0.08085(8)
O2H O 0.81212(15) -0.20338(13) -0.08085(8)
N1A N 0.2826(14) 0.7174(7) 0.25000
N1B N 0.2826(14) 0.5652(7) 0.25000
C2C C 0.33330 0.66670 0.3470(12)
#END
