
#######################################################################
#
#                 Cambridge Crystallographic Data Centre
#                                CCDC
#
#######################################################################
#
# If this CIF has been generated from an entry in the Cambridge
# Structural Database, then it will include bibliographic, chemical,
# crystal, experimental, refinement or atomic coordinate data resulting
# from the CCDC's data processing and validation procedures.
#
#######################################################################

data_CSD_CIF_WEPZEX
_audit_creation_date 2006-11-14
_audit_creation_method CSD-ConQuest-V1
_database_code_CSD WEPZEX
_database_code_depnum_ccdc_archive 'CCDC 290110'
_chemical_formula_sum 'C48 H47 K2 N8 O23.5 Sm2'
_chemical_formula_moiety
;
(C48 H32 N8 O16 Sm2 2-)n,2n(K1 1+),7.5n(H2 O1)
;
_journal_coden_Cambridge 580
_journal_volume 25
_journal_year 2006
_journal_page_first 2471
_journal_name_full 'Polyhedron '
loop_
_publ_author_name
"P.C.R.Soares-Santos"
"F.A.A.Paz"
"R.A.S.Ferreira"
"J.Klinowski"
"L.D.Carlos"
"T.Trindade"
"H.I.S.Nogueira"
_chemical_name_systematic
;
catena-(di-potassium 
bis(\m~2~-picolinato)-hexakis(picolinato)-di-samarium(iii) hydrate)
;
_cell_volume   8795.091
_exptl_crystal_colour 'colorless'
_exptl_crystal_density_diffrn 1.689
_exptl_special_details
;
photoluminescent

;
_exptl_crystal_description 'plate'
_diffrn_ambient_temperature 180
#These two values have been output from a single CSD field.
_refine_ls_R_factor_gt 0.0657
_refine_ls_wR_factor_gt 0.0657
_symmetry_cell_setting hexagonal
_symmetry_space_group_name_H-M 'P 65'
_symmetry_Int_Tables_number 170
loop_
_symmetry_equiv_pos_site_id
_symmetry_equiv_pos_as_xyz
1 x,y,z
2 -y,x-y,2/3+z
3 -x+y,-x,1/3+z
4 -x,-y,1/2+z
5 y,-x+y,1/6+z
6 x-y,x,5/6+z
_cell_length_a 12.7777(18)
_cell_length_b 12.7777(18)
_cell_length_c 62.202(12)
_cell_angle_alpha 90
_cell_angle_beta 90
_cell_angle_gamma 120
_cell_formula_units_Z 6
loop_
_atom_type_symbol
_atom_type_radius_bond
C 0.68
H 0.23
K 1.53
N 0.68
O 0.68
Sm 1.80
loop_
_atom_site_label
_atom_site_type_symbol
_atom_site_fract_x
_atom_site_fract_y
_atom_site_fract_z
Sm1 Sm 0.53159(8) 1.07620(8) 0.54490(3)
Sm2 Sm 0.46849(8) 0.54458(8) 0.55564(3)
O1 O 0.3469(11) 0.9253(11) 0.5296(2)
O2 O 0.1602(12) 0.7585(15) 0.5335(3)
O3 O 0.6006(12) 1.0058(10) 0.5158(2)
O4 O 0.7293(12) 1.0336(11) 0.4889(2)
O5 O 0.6209(12) 1.1769(12) 0.5773(2)
O6 O 0.7632(15) 1.2642(17) 0.6022(3)
O7 O 0.4721(11) 0.8945(11) 0.5651(2)
O8 O 0.4775(11) 0.7399(10) 0.5519(2)
O9 O 0.6536(11) 0.5779(11) 0.5710(2)
O10 O 0.8378(15) 0.5998(17) 0.5670(3)
O11 O 0.3983(11) 0.4073(11) 0.5846(2)
O12 O 0.2715(12) 0.3054(11) 0.6118(2)
O13 O 0.3763(13) 0.5553(11) 0.5230(2)
O14 O 0.2351(15) 0.4971(14) 0.4986(3)
O15 O 0.5237(10) 1.2621(10) 0.5485(2)
O16 O 0.5262(11) 1.4217(12) 0.5353(2)
N1 N 0.7361(10) 1.242(1) 0.5274(2)
N2 N 0.7249(10) 1.0598(11) 0.5603(2)
N3 N 0.5206(11) 0.6798(10) 0.59126(16)
N4 N 0.6683(11) 0.6797(11) 0.5330(2)
N5 N 0.2649(10) 0.5073(12) 0.5731(2)
N6 N 0.2743(11) 0.3347(9) 0.5402(2)
N7 N 0.4797(11) 1.1589(10) 0.50939(16)
C1 C 0.244(2) 0.857(2) 0.5395(4)
N8 N 0.3314(11) 1.0094(13) 0.5677(2)
C2 C 0.2312(14) 0.9073(13) 0.5608(2)
C3 C 0.1279(11) 0.8569(11) 0.5728(2)
H1 H 0.05810 0.78560 0.56800
C4 C 0.1249(11) 0.9092(13) 0.5919(2)
H2 H 0.05310 0.87430 0.60030
C5 C 0.2255(14) 1.0119(13) 0.5988(2)
H3 H 0.22370 1.04860 0.61200
C6 C 0.3287(11) 1.0616(11) 0.5867(2)
H4 H 0.39870 1.13260 0.59150
C7 C 0.6927(19) 1.0696(16) 0.5043(3)
C8 C 0.7718(11) 1.2043(9) 0.5098(2)
C9 C 0.8716(12) 1.2843(11) 0.49844(18)
H5 H 0.89620 1.25770 0.48620
C10 C 0.9361(11) 1.4024(10) 0.5047(2)
H6 H 1.00550 1.45810 0.49680
C11 C 0.9005(12) 1.4404(9) 0.5224(2)
H7 H 0.94520 1.52250 0.52680
C12 C 0.8002(12) 1.3597(11) 0.53373(19)
H8 H 0.77530 1.38580 0.54600
C13 C 0.712(2) 1.187(2) 0.5871(4)
C14 C 0.7677(12) 1.1183(12) 0.5793(2)
C15 C 0.8533(12) 1.1053(12) 0.59042(18)
H9 H 0.88330 1.14600 0.60370
C16 C 0.8956(11) 1.0341(12) 0.5824(2)
H10 H 0.95480 1.02500 0.59000
C17 C 0.8525(12) 0.9760(12) 0.5633(2)
H11 H 0.88210 0.92670 0.55760
C18 C 0.7669(11) 0.9884(11) 0.55219(18)
H12 H 0.73670 0.94740 0.53890
C19 C 0.4856(14) 0.8054(16) 0.5674(3)
C20 C 0.5072(12) 0.7786(11) 0.58938(16)
C21 C 0.5237(12) 0.8505(9) 0.60686(19)
H13 H 0.51430 0.91940 0.60550
C22 C 0.5537(12) 0.823(1) 0.62625(17)
H14 H 0.56520 0.87280 0.63840
C23 C 0.5674(12) 0.7235(11) 0.62823(16)
H15 H 0.58830 0.70400 0.64170
C24 C 0.5505(12) 0.6526(9) 0.61063(19)
H16 H 0.55980 0.58360 0.61190
C25 C 0.751(2) 0.6130(18) 0.5611(4)
C26 C 0.7678(14) 0.6761(11) 0.53969(19)
C27 C 0.8706(11) 0.7276(12) 0.5275(2)
H17 H 0.94000 0.72500 0.53220
C28 C 0.8734(11) 0.7830(12) 0.5085(2)
H18 H 0.94470 0.81880 0.50000
C29 C 0.7735(14) 0.7867(12) 0.50176(19)
H19 H 0.77530 0.82530 0.48860
C30 C 0.6707(11) 0.7346(12) 0.5140(2)
H20 H 0.60100 0.73660 0.50940
C31 C 0.3074(17) 0.3783(17) 0.5963(3)
C32 C 0.2298(11) 0.4340(12) 0.5907(2)
C33 C 0.1291(11) 0.4126(12) 0.60197(18)
H21 H 0.10480 0.36140 0.61420
C34 C 0.0634(10) 0.4646(12) 0.5956(2)
H22 H -0.00660 0.44990 0.60340
C35 C 0.0987(11) 0.5383(12) 0.5778(2)
H23 H 0.05310 0.57450 0.57330
C36 C 0.1999(11) 0.5594(12) 0.56669(19)
H24 H 0.22470 0.61060 0.55440
C37 C 0.286(2) 0.475(2) 0.5132(3)
C38 C 0.2325(12) 0.3511(9) 0.5209(2)
C39 C 0.1481(13) 0.2529(11) 0.50965(18)
H25 H 0.11890 0.26400 0.49630
C40 C 0.1060(12) 0.1392(9) 0.5176(2)
H26 H 0.04760 0.07100 0.50980
C41 C 0.1477(12) 0.1235(8) 0.5368(2)
H27 H 0.11800 0.04440 0.54230
C42 C 0.2322(12) 0.2212(10) 0.54804(18)
H28 H 0.26160 0.20980 0.56140
C43 C 0.5185(15) 1.3217(17) 0.5334(3)
C44 C 0.4933(12) 1.2726(11) 0.51115(16)
C45 C 0.4765(12) 1.3266(9) 0.49357(19)
H29 H 0.48590 1.40500 0.49480
C46 C 0.4462(12) 1.268(1) 0.47424(17)
H30 H 0.43470 1.30570 0.46200
C47 C 0.4325(12) 1.155(1) 0.47247(16)
H31 H 0.41120 1.11390 0.45910
C48 C 0.4496(11) 1.1019(9) 0.49010(19)
H32 H 0.44020 1.02350 0.48880
K1 K 0.3879(5) 0.7623(4) 0.50960(8)
K2 K 0.6124(5) 0.3744(4) 0.59091(9)
O17 O 0.9316(19) 1.0641(19) 0.4672(5)
O18 O 0.533(2) 1.0826(17) 0.6316(5)
O19 O 0.466(2) 0.284(2) 0.6242(4)
O20 O 0.542(2) 0.819(2) 0.4770(4)
O21 O 0.113(2) 0.726(2) 0.4915(4)
O22 O 0.895(2) 0.629(2) 0.6092(4)
O23 O 1.0630(19) 0.9221(19) 0.4622(3)
O24 O 0.227(4) 0.694(4) 0.4699(8)
Sm2* Sm 0.46849(8) 1.54458(8) 0.55564(3)
O16* O 0.5262(11) 0.4217(12) 0.5353(2)
#END
