
#######################################################################
#
#                 Cambridge Crystallographic Data Centre
#                                CCDC
#
#######################################################################
#
# If this CIF has been generated from an entry in the Cambridge
# Structural Database, then it will include bibliographic, chemical,
# crystal, experimental, refinement or atomic coordinate data resulting
# from the CCDC's data processing and validation procedures.
#
#######################################################################

data_CSD_CIF_WETPUJ
_audit_creation_date 2018-01-03
_audit_creation_method CSD-ConQuest-V1
_database_code_CSD WETPUJ
_database_code_depnum_ccdc_archive 'CCDC 1814572'
_chemical_formula_sum 'C92 H140 N8 O82 Zn8'
_chemical_formula_moiety
;
(C82 H80 N6 O56 Zn7 2-)n,n(C10 H16 N2 O4 Zn1 2+),22(H2 O1)
;
_journal_coden_Cambridge 1078
_journal_year 2018
_journal_name_full 'CSD Communication(Private Communication) '
loop_
_publ_author_name
"Huiliang Wen"
"Chong-Bo Liu"
_chemical_name_systematic
;
catena-[(\m-4,4'-bipyridine)-tetraaqua-zinc(ii) 
tetrakis(\m-3,4,5-tris(carboxylatomethoxy)benzoato)-tris(\m-4,4'-bipyridine)-d
odecahydrate-hept-zinc(ii) docosahydrate]
;
_cell_volume  12138.954
_exptl_crystal_colour 'colorless'
_exptl_crystal_density_diffrn 1.747
_exptl_crystal_description 'block'
_diffrn_ambient_temperature 296
#These two values have been output from a single CSD field.
_refine_ls_R_factor_gt 0.0485
_refine_ls_wR_factor_gt 0.0485
_symmetry_cell_setting orthorhombic
_symmetry_space_group_name_H-M 'P c c n'
_symmetry_Int_Tables_number 56
loop_
_symmetry_equiv_pos_site_id
_symmetry_equiv_pos_as_xyz
1 x,y,z
2 1/2-x,1/2-y,z
3 -x,1/2+y,1/2-z
4 1/2+x,-y,1/2-z
5 -x,-y,-z
6 -1/2+x,-1/2+y,-z
7 x,-1/2-y,-1/2+z
8 -1/2-x,y,-1/2+z
_cell_length_a 36.709(6)
_cell_length_b 14.468(2)
_cell_length_c 22.856(4)
_cell_angle_alpha 90
_cell_angle_beta 90
_cell_angle_gamma 90
_cell_formula_units_Z 4
loop_
_atom_type_symbol
_atom_type_radius_bond
C 0.68
H 0.23
N 0.68
O 0.68
Zn 1.22
loop_
_atom_site_label
_atom_site_type_symbol
_atom_site_fract_x
_atom_site_fract_y
_atom_site_fract_z
C1 C 0.04651(15) 0.0433(4) 0.6694(3)
C2 C 0.00636(14) 0.0289(4) 0.6752(2)
C3 C -0.01434(15) 0.0165(4) 0.6251(2)
H1 H -0.00340 0.02000 0.58850
C4 C -0.05133(14) -0.0012(4) 0.6294(2)
C5 C -0.06718(15) -0.0069(4) 0.6841(2)
C6 C -0.04688(15) 0.0073(4) 0.7339(2)
C7 C -0.00986(15) 0.0245(4) 0.7304(2)
H2 H 0.00390 0.03290 0.76410
C8 C -0.05982(16) 0.0072(4) 0.5262(2)
H3 H -0.07660 -0.01380 0.49630
H4 H -0.03690 -0.02490 0.52060
C9 C -0.05388(18) 0.1102(4) 0.5199(2)
C10 C -0.11584(16) -0.1155(4) 0.6735(3)
H5 H -0.09760 -0.14270 0.64810
H6 H -0.13860 -0.11250 0.65190
C11 C -0.12081(14) -0.1761(4) 0.7272(3)
C12 C -0.04977(16) 0.0280(4) 0.8390(2)
H7 H -0.04180 0.09180 0.83750
H8 H -0.02880 -0.01080 0.84700
C13 C -0.07811(16) 0.0158(4) 0.8862(3)
C14 C 0.29867(16) 0.0157(4) 0.7243(3)
C15 C 0.25770(15) 0.0102(4) 0.7211(3)
C16 C 0.23903(15) 0.0122(4) 0.6685(3)
H9 H 0.25160 0.01730 0.63330
C17 C 0.20152(15) 0.0065(4) 0.6691(3)
C18 C 0.18287(14) -0.0064(4) 0.7216(3)
C19 C 0.20179(15) -0.0061(4) 0.7745(2)
C20 C 0.23945(15) 0.0018(4) 0.7737(3)
H10 H 0.25240 0.00140 0.80860
C21 C 0.19194(16) 0.0424(5) 0.5671(3)
H11 H 0.20440 -0.00620 0.54570
H12 H 0.20900 0.09270 0.57340
C22 C 0.15954(18) 0.0762(5) 0.5326(3)
C23 C 0.13375(17) -0.1112(4) 0.7256(3)
H13 H 0.11410 -0.11530 0.75380
H14 H 0.15380 -0.14840 0.73990
C24 C 0.12087(17) -0.1495(5) 0.6674(3)
C25 C 0.19970(17) -0.0297(4) 0.8775(3)
H15 H 0.21530 -0.08330 0.87280
H16 H 0.18190 -0.04450 0.90750
C26 C 0.22287(16) 0.0508(4) 0.8989(3)
C27 C 0.03130(16) 0.2816(4) 0.3801(2)
H17 H 0.05140 0.30730 0.39890
C28 C 0.03203(17) 0.2753(4) 0.3206(3)
H18 H 0.05210 0.29680 0.30000
C29 C 0.00293(16) 0.2371(4) 0.2911(2)
C30 C -0.02617(16) 0.2065(4) 0.3244(3)
H19 H -0.04630 0.17970 0.30650
C31 C -0.02495(17) 0.2161(4) 0.3844(3)
H20 H -0.04480 0.19590 0.40630
C32 C 0.00195(16) 0.2314(4) 0.2264(2)
C33 C 0.03315(16) 0.2168(4) 0.1936(2)
H21 H 0.05530 0.20780 0.21260
C34 C 0.03215(16) 0.2151(4) 0.1339(3)
H22 H 0.05380 0.20530 0.11360
C35 C -0.02906(16) 0.2405(4) 0.1345(3)
H23 H -0.05080 0.24870 0.11440
C36 C -0.03002(16) 0.2428(4) 0.1948(2)
H24 H -0.05200 0.25190 0.21420
C37 C 0.21919(15) 0.2427(4) 0.7630(2)
H25 H 0.19740 0.23670 0.78330
C38 C 0.21784(15) 0.2434(4) 0.7026(2)
H26 H 0.19560 0.23950 0.68330
C39 C 0.25000 0.25000 0.6709(3)
C40 C 0.25000 0.25000 0.6063(3)
C41 C 0.22199(16) 0.2900(4) 0.5738(3)
H27 H 0.20230 0.31720 0.59290
C42 C 0.22333(17) 0.2895(4) 0.5134(3)
H28 H 0.20450 0.31840 0.49310
N1 N 0.00359(13) 0.2531(3) 0.4129(2)
N2 N 0.00132(13) 0.2272(3) 0.10325(19)
N3 N 0.25000 0.25000 0.7941(3)
N4 N 0.25000 0.25000 0.4821(3)
O1 O 0.05961(10) 0.0627(3) 0.61959(17)
O2 O 0.06671(11) 0.0328(3) 0.7128(2)
O3 O -0.07424(10) -0.0148(3) 0.58306(16)
O4 O -0.08021(12) 0.1632(3) 0.5279(2)
O5 O -0.02204(11) 0.1352(3) 0.50762(17)
O6 O -0.10467(10) -0.0231(3) 0.68978(16)
O7 O -0.12239(12) -0.2610(3) 0.71977(18)
O8 O -0.12325(11) -0.1382(3) 0.77655(18)
O9 O -0.06613(10) 0.0022(3) 0.78511(17)
O10 O -0.06723(11) 0.0192(3) 0.93771(17)
O11 O -0.11080(11) 0.0034(3) 0.87142(17)
O12 O 0.31689(11) 0.0104(3) 0.6771(2)
O13 O 0.31396(12) 0.0234(4) 0.7725(2)
O14 O 0.17921(10) 0.0081(3) 0.62151(18)
O15 O 0.16598(12) 0.0996(4) 0.4809(2)
O16 O 0.12894(11) 0.0802(3) 0.55552(17)
O17 O 0.14543(10) -0.0159(3) 0.72081(17)
O18 O 0.11172(12) -0.0943(3) 0.62782(19)
O19 O 0.11898(15) -0.2352(3) 0.6631(2)
O20 O 0.18089(10) -0.0141(3) 0.82377(17)
O21 O 0.21405(10) 0.1322(3) 0.88398(17)
O22 O 0.24903(13) 0.0306(3) 0.9312(2)
O23 O 0.13057(11) 0.1652(3) 0.66991(18)
H29 H 0.12720 0.20830 0.64660
H30 H 0.12780 0.18250 0.70420
O24 O 0.05254(11) 0.1977(3) 0.51743(18)
H31 H 0.05510 0.16260 0.54600
H32 H 0.07270 0.21910 0.50710
O25 O 0.02691(12) 0.3919(3) 0.49915(18)
H33 H 0.02430 0.42860 0.47120
H34 H 0.03400 0.42140 0.52890
O26 O -0.04949(11) 0.3324(3) 0.50850(17)
H35 H -0.05340 0.36660 0.48010
H36 H -0.06360 0.28770 0.50930
O27 O -0.13011(15) 0.1298(3) 0.7654(2)
H37 H -0.13690 0.12600 0.72960
H38 H -0.10750 0.13310 0.76700
O28 O 0.20239(10) 0.3359(3) 0.88374(18)
H39 H 0.22170 0.37030 0.88170
H40 H 0.19140 0.34580 0.91510
Zn1 Zn 0.114571(18) 0.04344(5) 0.63745(3)
Zn2 Zn 0.002116(19) 0.26243(5) 0.50779(3)
Zn3 Zn -0.130977(18) -0.00366(5) 0.78771(3)
Zn4 Zn 0.25000 0.25000 0.88784(4)
C43 C 0.22344(18) 0.7103(5) 0.8787(3)
H41 H 0.20430 0.68290 0.89910
C44 C 0.22263(18) 0.7076(5) 0.8181(3)
H42 H 0.20380 0.67740 0.79880
C45 C 0.25000 0.75000 0.7866(3)
C46 C 0.25000 0.75000 0.7219(3)
C47 C 0.21950(18) 0.7294(5) 0.6897(3)
H43 H 0.19790 0.71450 0.70890
C48 C 0.22030(18) 0.7305(5) 0.6295(3)
H44 H 0.19900 0.71680 0.60930
N5 N 0.25000 0.75000 0.9095(3)
N6 N 0.25000 0.75000 0.5987(3)
O29 O 0.24286(15) 0.8922(3) 1.0070(2)
H45 H 0.26570 0.88710 1.00430
H46 H 0.23330 0.91640 0.97620
O30 O 0.19121(13) 0.7290(4) 1.0028(2)
H47 H 0.19710 0.78450 1.00400
H48 H 0.20430 0.69550 1.02440
Zn5 Zn 0.25000 0.75000 1.00385(4)
O31 O 0.11806(12) 0.2476(4) 0.4739(2)
H49 H 0.11860 0.27390 0.44070
H50 H 0.13050 0.19800 0.47360
O32 O 0.12804(14) 0.3065(3) 0.5917(2)
H51 H 0.12410 0.29630 0.55650
H52 H 0.12550 0.36170 0.60000
O33 O 0.08589(14) 0.0155(3) 0.8285(2)
H53 H 0.09610 -0.03280 0.84010
H54 H 0.10010 0.05990 0.82920
O34 O 0.12826(17) 0.6954(5) 0.5491(3)
H55 H 0.14280 0.72890 0.52140
H56 H 0.12730 0.72640 0.58020
O35 O 0.14898(16) 0.5964(4) 0.9457(3)
H57 H 0.13010 0.60780 0.96530
H58 H 0.16510 0.57030 0.96880
O36 O 0.18668(16) 0.9728(4) 0.0595(3)
H59 H 0.20380 0.99530 0.03740
H60 H 0.16620 0.98100 0.04400
O37 O 0.03057(13) 0.9894(3) 0.90878(19)
H61 H 0.03260 0.93840 0.92560
H62 H 0.04790 0.99820 0.88610
O38 O 0.11747(19) 0.8549(4) 0.8920(3)
H63 H 0.12840 0.84210 0.92310
H64 H 0.09700 0.87670 0.89920
O39 O 0.12547(16) 1.0130(5) 0.9829(3)
H65 H 0.12860 0.95680 0.99090
H66 H 0.12200 1.02070 0.94560
O40 O 0.13732(12) 0.1497(3) 0.87973(19)
H67 H 0.13280 0.17250 0.84700
H68 H 0.15790 0.12580 0.88020
O41 O 0.87410(19) 0.1863(4) 0.6578(3)
H69 H 0.86620 0.14950 0.63290
H70 H 0.88100 0.23510 0.64220
C37A C 0.28081(15) 0.2573(4) 0.7630(2)
H25A H 0.30260 0.26330 0.78330
C38A C 0.28216(15) 0.2566(4) 0.7026(2)
H26A H 0.30440 0.26050 0.68330
C41A C 0.27801(16) 0.2100(4) 0.5738(3)
H27A H 0.29770 0.18280 0.59290
C42A C 0.27667(17) 0.2105(4) 0.5134(3)
H28A H 0.29550 0.18160 0.49310
C1A C 0.45349(15) 0.4567(4) 0.6694(3)
C2A C 0.49364(14) 0.4711(4) 0.6752(2)
C3A C 0.51434(15) 0.4835(4) 0.6251(2)
H1A H 0.50340 0.48000 0.58850
C4A C 0.55133(14) 0.5012(4) 0.6294(2)
C5A C 0.56718(15) 0.5069(4) 0.6841(2)
C6A C 0.54688(15) 0.4927(4) 0.7339(2)
C7A C 0.50986(15) 0.4755(4) 0.7304(2)
H2A H 0.49610 0.46710 0.76410
C8A C 0.55982(16) 0.4928(4) 0.5262(2)
H3A H 0.57660 0.51380 0.49630
H4A H 0.53690 0.52490 0.52060
C9A C 0.55388(18) 0.3898(4) 0.5199(2)
C10A C 0.61584(16) 0.6155(4) 0.6735(3)
H5A H 0.59760 0.64270 0.64810
H6A H 0.63860 0.61250 0.65190
C11A C 0.62081(14) 0.6761(4) 0.7272(3)
C12A C 0.54977(16) 0.4720(4) 0.8390(2)
H7A H 0.54180 0.40820 0.83750
H8A H 0.52880 0.51080 0.84700
C13A C 0.57811(16) 0.4842(4) 0.8862(3)
C14A C 0.20133(16) 0.4843(4) 0.7243(3)
C15A C 0.24230(15) 0.4898(4) 0.7211(3)
C16A C 0.26097(15) 0.4878(4) 0.6685(3)
H9A H 0.24840 0.48270 0.63330
C17A C 0.29848(15) 0.4935(4) 0.6691(3)
C18A C 0.31713(14) 0.5064(4) 0.7216(3)
C19A C 0.29821(15) 0.5061(4) 0.7745(2)
C20A C 0.26055(15) 0.4982(4) 0.7737(3)
H10A H 0.24760 0.49860 0.80860
C21A C 0.30806(16) 0.4576(5) 0.5671(3)
H11A H 0.29560 0.50620 0.54570
H12A H 0.29100 0.40730 0.57340
C22A C 0.34046(18) 0.4238(5) 0.5326(3)
C23A C 0.36625(17) 0.6112(4) 0.7256(3)
H13A H 0.38590 0.61530 0.75380
H14A H 0.34620 0.64840 0.73990
C24A C 0.37913(17) 0.6495(5) 0.6674(3)
C25A C 0.30030(17) 0.5297(4) 0.8775(3)
H15A H 0.28470 0.58330 0.87280
H16A H 0.31810 0.54450 0.90750
C26A C 0.27713(16) 0.4492(4) 0.8989(3)
C27A C 0.46870(16) 0.2184(4) 0.3801(2)
H17A H 0.44860 0.19270 0.39890
C28A C 0.46797(17) 0.2247(4) 0.3206(3)
H18A H 0.44790 0.20320 0.30000
C29A C 0.49707(16) 0.2629(4) 0.2911(2)
C30A C 0.52617(16) 0.2935(4) 0.3244(3)
H19A H 0.54630 0.32030 0.30650
C31A C 0.52495(17) 0.2839(4) 0.3844(3)
H20A H 0.54480 0.30410 0.40630
C32A C 0.49805(16) 0.2686(4) 0.2264(2)
C33A C 0.46685(16) 0.2832(4) 0.1936(2)
H21A H 0.44470 0.29220 0.21260
C34A C 0.46785(16) 0.2849(4) 0.1339(3)
H22A H 0.44620 0.29470 0.11360
C35A C 0.52906(16) 0.2595(4) 0.1345(3)
H23A H 0.55080 0.25130 0.11440
C36A C 0.53002(16) 0.2572(4) 0.1948(2)
H24A H 0.55200 0.24810 0.21420
N1A N 0.49641(13) 0.2469(3) 0.4129(2)
N2A N 0.49868(13) 0.2728(3) 0.10325(19)
O1A O 0.44039(10) 0.4373(3) 0.61959(17)
O2A O 0.43329(11) 0.4672(3) 0.7128(2)
O3A O 0.57424(10) 0.5148(3) 0.58306(16)
O4A O 0.58021(12) 0.3368(3) 0.5279(2)
O5A O 0.52204(11) 0.3648(3) 0.50762(17)
O6A O 0.60467(10) 0.5231(3) 0.68978(16)
O7A O 0.62239(12) 0.7610(3) 0.71977(18)
O8A O 0.62325(11) 0.6382(3) 0.77655(18)
O9A O 0.56613(10) 0.4978(3) 0.78511(17)
O10A O 0.56723(11) 0.4808(3) 0.93771(17)
O11A O 0.61080(11) 0.4966(3) 0.87142(17)
O12A O 0.18311(11) 0.4896(3) 0.6771(2)
O13A O 0.18604(12) 0.4766(4) 0.7725(2)
O14A O 0.32079(10) 0.4919(3) 0.62151(18)
O15A O 0.33402(12) 0.4004(4) 0.4809(2)
O16A O 0.37106(11) 0.4198(3) 0.55552(17)
O17A O 0.35457(10) 0.5159(3) 0.72081(17)
O18A O 0.38828(12) 0.5943(3) 0.62782(19)
O19A O 0.38102(15) 0.7352(3) 0.6631(2)
O20A O 0.31911(10) 0.5141(3) 0.82377(17)
O21A O 0.28595(10) 0.3678(3) 0.88398(17)
O22A O 0.25097(13) 0.4694(3) 0.9312(2)
O23A O 0.36943(11) 0.3348(3) 0.66991(18)
H29A H 0.37280 0.29170 0.64660
H30A H 0.37220 0.31750 0.70420
O24A O 0.44746(11) 0.3023(3) 0.51743(18)
H31A H 0.44490 0.33740 0.54600
H32A H 0.42730 0.28090 0.50710
O25A O 0.47309(12) 0.1081(3) 0.49915(18)
H33A H 0.47570 0.07140 0.47120
H34A H 0.46600 0.07860 0.52890
O26A O 0.54949(11) 0.1676(3) 0.50850(17)
H35A H 0.55340 0.13340 0.48010
H36A H 0.56360 0.21230 0.50930
O27A O 0.63011(15) 0.3702(3) 0.7654(2)
H37A H 0.63690 0.37400 0.72960
H38A H 0.60750 0.36690 0.76700
O28A O 0.29761(10) 0.1641(3) 0.88374(18)
H39A H 0.27830 0.12970 0.88170
H40A H 0.30860 0.15420 0.91510
Zn1A Zn 0.385429(18) 0.45656(5) 0.63745(3)
Zn2A Zn 0.497884(19) 0.23757(5) 0.50779(3)
Zn3A Zn 0.630977(18) 0.50366(5) 0.78771(3)
N2F N 0.00132(13) 0.2728(3) 0.60325(19)
N2G N 0.49868(13) 0.2272(3) 0.60325(19)
N4F N 0.25000 0.25000 0.9821(3)
O12B O 0.68311(11) 0.5104(3) 0.8229(2)
O12C O -0.18311(11) -0.0104(3) 0.8229(2)
O13B O 0.68604(12) 0.5234(4) 0.7275(2)
O13C O -0.18604(12) -0.0234(4) 0.7275(2)
Zn2F Zn 0.002116(19) 0.23757(5) 0.00779(3)
Zn2G Zn 0.497884(19) 0.26243(5) 0.00779(3)
Zn3B Zn 0.130977(18) 0.49634(5) 0.71229(3)
Zn3C Zn 0.369023(18) 0.00366(5) 0.71229(3)
Zn4F Zn 0.25000 0.25000 0.38784(4)
C43A C 0.27656(18) 0.7897(5) 0.8787(3)
H41A H 0.29570 0.81710 0.89910
C44A C 0.27737(18) 0.7924(5) 0.8181(3)
H42A H 0.29620 0.82260 0.79880
C47A C 0.28050(18) 0.7706(5) 0.6897(3)
H43A H 0.30210 0.78550 0.70890
C48A C 0.27970(18) 0.7695(5) 0.6295(3)
H44A H 0.30100 0.78320 0.60930
O29A O 0.25714(15) 0.6078(3) 1.0070(2)
H45A H 0.23430 0.61290 1.00430
H46A H 0.26670 0.58360 0.97620
O30A O 0.30879(13) 0.7710(4) 1.0028(2)
H47A H 0.30290 0.71550 1.00400
H48A H 0.29570 0.80450 1.02440
N6F N 0.25000 0.75000 1.0987(3)
Zn5F Zn 0.25000 0.75000 0.50385(4)
#END
