
#######################################################################
#
#                 Cambridge Crystallographic Data Centre
#                                CCDC
#
#######################################################################
#
# If this CIF has been generated from an entry in the Cambridge
# Structural Database, then it will include bibliographic, chemical,
# crystal, experimental, refinement or atomic coordinate data resulting
# from the CCDC's data processing and validation procedures.
#
#######################################################################

data_CSD_CIF_WETRIW
_audit_creation_date 1995-01-12
_audit_creation_method CSD-ConQuest-V1
_database_code_CSD WETRIW
_chemical_formula_sum 'C30 H48 Bi1 K3 N6 O12 S6'
_chemical_formula_moiety
;
(C12 H24 K1 O6 1+)2n,n(C6 Bi1 K1 N6 S6 2-)
;
_journal_coden_Cambridge 186
_journal_year 1994
_journal_page_first 1327
_journal_name_full 'J.Chem.Soc.,Dalton Trans. '
loop_
_publ_author_name
"A.Crispini"
"R.J.Errington"
"G.A.Fisher"
"F.J.Funke"
"N.C.Norman"
"A.G.Orpen"
"S.E.Stratford"
"O.Struve"
_chemical_name_systematic
;
catena-(bis(18-Crown-6-potassium) 
bis(\m~4~-thiocyanato-S,S,S,S,N)-bis(\m~2~-thiocyanato-S,N)-bis(\m~2~-isothioc
yanato-N,S)-bismuth-potassium)
;
_cell_volume   5051.822
_exptl_crystal_colour 'yellow'
_exptl_crystal_density_diffrn 1.58
_exptl_special_details
;
yellow orthorhombic polymorph

;
_diffrn_ambient_temperature ?
_diffrn_special_details
;
The study was carried out at room temperature,in the range 283-303K

;
#These two values have been output from a single CSD field.
_refine_ls_R_factor_gt 0.066
_refine_ls_wR_factor_gt 0.066
_symmetry_cell_setting orthorhombic
_symmetry_space_group_name_H-M 'P n m a'
_symmetry_Int_Tables_number 62
loop_
_symmetry_equiv_pos_site_id
_symmetry_equiv_pos_as_xyz
1 x,y,z
2 1/2-x,1/2+y,1/2+z
3 x,1/2-y,z
4 1/2-x,-y,1/2+z
5 -x,-y,-z
6 -1/2+x,-1/2-y,-1/2-z
7 -x,-1/2+y,-z
8 -1/2+x,y,-1/2-z
_cell_length_a 29.072(12)
_cell_length_b 14.828(6)
_cell_length_c 11.719(6)
_cell_angle_alpha 90
_cell_angle_beta 90
_cell_angle_gamma 90
_cell_formula_units_Z 4
loop_
_atom_type_symbol
_atom_type_radius_bond
C 0.68
H 0.23
Bi 1.54
K 1.87
N 0.68
O 0.68
S 1.09
loop_
_atom_site_label
_atom_site_type_symbol
_atom_site_fract_x
_atom_site_fract_y
_atom_site_fract_z
Bi1 Bi 0.1228(1) 0.25000 0.1051(1)
K1 K 0.1209(2) 0.25000 0.6105(4)
K2 K 0.2892(2) 0.25000 -1.0190(4)
K3 K 0.4669(2) 0.25000 0.2593(4)
S1 S 0.0717(2) 0.1120(4) 0.2100(4)
C1 C 0.0810(5) 0.1290(11) 0.3457(13)
N1 N 0.0876(5) 0.1389(11) 0.4405(11)
S2 S 0.1744(2) 0.1103(5) 0.0026(4)
C2 C 0.1656(5) 0.1284(11) -0.1309(13)
N2 N 0.1590(6) 0.1371(10) -0.2243(11)
S3 S 0.0227(2) 0.25000 -0.2451(5)
C3 C 0.0474(7) 0.25000 -0.1221(16)
N3 N 0.0611(8) 0.25000 -0.0363(16)
S4 S 0.2175(2) 0.25000 0.4629(4)
C4 C 0.1933(6) 0.25000 0.3385(17)
N4 N 0.1789(7) 0.25000 0.2479(17)
O1 O 0.3023(5) 0.25000 -0.7858(12)
O2 O 0.3113(3) 0.0883(6) -0.9045(8)
O3 O 0.2978(3) 0.0859(7) -1.1402(7)
O4 O 0.3111(4) 0.25000 -1.2585(10)
O5 O 0.4386(6) 0.25000 0.4880(17)
O6 O 0.4333(4) 0.0871(9) 0.3644(9)
O7 O 0.4564(4) 0.0860(9) 0.1322(10)
O8 O 0.4372(7) 0.25000 0.0194(20)
C5 C 0.3159(5) 0.1691(10) -0.7337(13)
C6 C 0.2962(5) 0.0911(10) -0.7913(12)
C7 C 0.2961(5) 0.0094(10) -0.9651(12)
C8 C 0.3147(5) 0.0087(11) -1.0804(11)
C9 C 0.3146(5) 0.0920(11) -1.2528(12)
C10 C 0.2942(5) 0.1704(10) -1.3099(13)
C11 C 0.4230(6) 0.1709(12) 0.5298(16)
C12 C 0.4413(6) 0.0910(13) 0.4819(15)
C13 C 0.4461(6) 0.0131(12) 0.3034(14)
C14 C 0.4365(6) 0.0166(13) 0.1880(14)
C15 C 0.4462(9) 0.0981(16) 0.0194(21)
C16 C 0.4459(12) 0.1734(20) -0.0168(26)
H1 H 0.3062(5) 0.1694(10) -0.6545(13)
H2 H 0.3492(5) 0.1647(10) -0.7353(13)
H3 H 0.3053(5) 0.0363(10) -0.7522(12)
H4 H 0.2629(5) 0.0949(40) -0.7894(12)
H5 H 0.2628(5) 0.0088(10) -0.9684(12)
H6 H 0.3061(5) -0.0442(10) -0.9248(12)
H7 H 0.3481(5) 0.0102(11) -1.0777(11)
H8 H 0.3054(5) -0.0460(11) -1.1196(11)
H9 H 0.3068(5) 0.0375(11) -1.2944(12)
H10 H 0.3478(5) 0.0978(11) -1.2517(12)
H11 H 0.3021(5) 0.1698(10) -1.3903(13)
H12 H 0.2610(5) 0.1683(10) -1.3033(13)
H13 H 0.3899(6) 0.1696(12) 0.5199(16)
H14 H 0.4290(6) 0.1699(12) 0.6112(16)
H15 H 0.4742(6) 0.0887(13) 0.4961(15)
H16 H 0.4273(6) 0.0390(13) 0.5184(15)
H17 H 0.4308(6) -0.0393(12) 0.3355(15)
H18 H 0.4790(6) 0.0044(12) 0.3130(4)
H19 H 0.4466(6) -0.0393(13) 0.1531(14)
H20 H 0.4035(6) 0.0207(13) 0.1781(14)
H21 H 0.4683(9) 0.0637(16) -0.0250(21)
H22 H 0.4162(9) 0.0719(16) 0.0053(21)
H23 H 0.4261(12) 0.1686(20) -0.0832(26)
H24 H 0.4767(12) 0.1802(20) -0.0474(26)
C10B C 0.2942(5) 0.3296(10) -1.3099(13)
C9B C 0.3146(5) 0.4080(11) -1.2528(12)
O3B O 0.2978(3) 0.4141(7) -1.1402(7)
C8B C 0.3147(5) 0.4913(11) -1.0804(11)
C7B C 0.2961(5) 0.4906(10) -0.9651(12)
O2B O 0.3113(3) 0.4117(6) -0.9045(8)
C6B C 0.2962(5) 0.4089(10) -0.7913(12)
C5B C 0.3159(5) 0.3309(10) -0.7337(13)
H1B H 0.3062(5) 0.3306(10) -0.6545(13)
H2B H 0.3492(5) 0.3353(10) -0.7353(13)
H3B H 0.3053(5) 0.4637(10) -0.7522(12)
H4B H 0.2629(5) 0.4051(40) -0.7894(12)
H5B H 0.2628(5) 0.4912(10) -0.9684(12)
H6B H 0.3061(5) 0.5442(10) -0.9248(12)
H7B H 0.3481(5) 0.4898(11) -1.0777(11)
H8B H 0.3054(5) 0.5460(11) -1.1196(11)
H9B H 0.3068(5) 0.4625(11) -1.2944(12)
H10B H 0.3478(5) 0.4022(11) -1.2517(12)
H11B H 0.3021(5) 0.3302(10) -1.3903(13)
H12B H 0.2610(5) 0.3317(10) -1.3033(13)
C16B C 0.4459(12) 0.3266(20) -0.0168(26)
C15B C 0.4462(9) 0.4019(16) 0.0194(21)
O7B O 0.4564(4) 0.4140(9) 0.1322(10)
C14B C 0.4365(6) 0.4834(13) 0.1880(14)
C13B C 0.4461(6) 0.4869(12) 0.3034(14)
O6B O 0.4333(4) 0.4129(9) 0.3644(9)
C12B C 0.4413(6) 0.4090(13) 0.4819(15)
C11B C 0.4230(6) 0.3291(12) 0.5298(16)
H13B H 0.3899(6) 0.3304(12) 0.5199(16)
H14B H 0.4290(6) 0.3301(12) 0.6112(16)
H15B H 0.4742(6) 0.4113(13) 0.4961(15)
H16B H 0.4273(6) 0.4610(13) 0.5184(15)
H17B H 0.4308(6) 0.5393(12) 0.3355(15)
H18B H 0.4790(6) 0.4956(12) 0.3130(4)
H19B H 0.4466(6) 0.5393(13) 0.1531(14)
H20B H 0.4035(6) 0.4793(13) 0.1781(14)
H21B H 0.4683(9) 0.4363(16) -0.0250(21)
H22B H 0.4162(9) 0.4281(16) 0.0053(21)
H23B H 0.4261(12) 0.3314(20) -0.0832(26)
H24B H 0.4767(12) 0.3198(20) -0.0474(26)
S1B S 0.0717(2) 0.3880(4) 0.2100(4)
C1B C 0.0810(5) 0.3710(11) 0.3457(13)
N1B N 0.0876(5) 0.3611(11) 0.4405(11)
S2B S 0.1744(2) 0.3897(5) 0.0026(4)
C2B C 0.1656(5) 0.3716(11) -0.1309(13)
N2B N 0.1590(6) 0.3629(10) -0.2243(11)
N2* N 0.1590(6) 0.1371(10) 0.7757(11)
N2B* N 0.1590(6) 0.3629(10) 0.7757(11)
S3* S 0.0227(2) 0.25000 0.7549(5)
K1* K 0.1209(2) 0.25000 -0.3895(4)
#END
