
#######################################################################
#
#                 Cambridge Crystallographic Data Centre
#                                CCDC
#
#######################################################################
#
# If this CIF has been generated from an entry in the Cambridge
# Structural Database, then it will include bibliographic, chemical,
# crystal, experimental, refinement or atomic coordinate data resulting
# from the CCDC's data processing and validation procedures.
#
#######################################################################

data_CSD_CIF_WEVJEP
_audit_creation_date 2018-01-04
_audit_creation_method CSD-ConQuest-V1
_database_code_CSD WEVJEP
_database_code_depnum_ccdc_archive 'CCDC 1579368'
_chemical_formula_sum 'C29 H35 N3 O13 U1'
_chemical_formula_moiety
;
(C21 H11 O10 U1 1-)n,2(C3 H7 N1 O1),C2 H8 N1 1+,H2 O1
;
_journal_coden_Cambridge 182
_journal_volume 54
_journal_year 2018
_journal_page_first 627
_journal_name_full 'Chem.Commun. '
loop_
_publ_author_name
"Xia Wang"
"Yanlong Wang"
"Xing Dai"
"M.A.Silver"
"Wei Liu"
"Yuxiang Li"
"Zhuanling Bai"
"Daxiang Gui"
"Lanhua Chen"
"Juan Diwu"
"Ruhong Zhou"
"Zhifang Chai"
"Shuao Wang"
_chemical_name_systematic
;
catena-[dimethylammonium 
(\m-4,4'-[(5-carboxylato-1,3-phenylene)bis(oxy)]dibenzoato)-dioxo-uranium 
N,N-dimethylformamide solvate monohydrate]
;
_cell_volume   1636.974
_exptl_crystal_colour 'yellow'
_exptl_crystal_density_diffrn 1.768
_exptl_crystal_description 'bulk'
_diffrn_ambient_temperature 168
_diffrn_special_details
;
twin

;
#These two values have been output from a single CSD field.
_refine_ls_R_factor_gt 0.0506
_refine_ls_wR_factor_gt 0.0506
_symmetry_cell_setting monoclinic
_symmetry_space_group_name_H-M 'P 21'
_symmetry_Int_Tables_number 4
loop_
_symmetry_equiv_pos_site_id
_symmetry_equiv_pos_as_xyz
1 x,y,z
2 -x,1/2+y,-z
_cell_length_a 11.217(2)
_cell_length_b 10.2614(18)
_cell_length_c 14.346(3)
_cell_angle_alpha 90
_cell_angle_beta 97.541(6)
_cell_angle_gamma 90
_cell_formula_units_Z 2
loop_
_atom_type_symbol
_atom_type_radius_bond
C 0.68
H 0.23
N 0.68
O 0.68
U 1.96
loop_
_atom_site_label
_atom_site_type_symbol
_atom_site_fract_x
_atom_site_fract_y
_atom_site_fract_z
U1 U -0.83068(3) 0.07498(10) 1.19987(3)
O1 O -1.0240(7) 0.579(2) 1.6852(5)
O2 O -0.2850(8) 0.569(2) 0.9345(6)
O3 O -0.2525(8) 0.4181(11) 1.3684(7)
O4 O -0.7696(9) -0.0741(9) 1.2456(7)
O5 O -0.4922(9) 0.4389(13) 1.6128(7)
C1 C -0.5574(13) 0.2899(13) 1.3774(9)
O6 O -0.7484(8) 0.1815(10) 1.3488(7)
C2 C -0.7967(12) 0.557(2) 1.6252(9)
H1 H -0.85450 0.61290 1.59170
O7 O -0.8926(9) 0.2242(11) 1.1557(8)
C3 C -0.3061(13) 0.5496(17) 1.1291(10)
H2 H -0.35630 0.61110 1.09340
C4 C -0.6528(12) 0.2129(14) 1.3185(9)
C5 C -0.9427(12) 0.5150(13) 1.7373(9)
C6 C -0.2056(12) 0.5099(14) 0.9884(10)
O8 O -0.6358(8) 0.1825(10) 1.2358(6)
O9 O -0.1132(9) 0.4681(12) 0.9534(7)
C7 C -0.7400(12) 0.4128(15) 1.7521(10)
H3 H -0.75790 0.36880 1.80690
C8 C -0.6873(12) 0.5401(13) 1.5935(10)
H4 H -0.66900 0.58580 1.53960
O10 O -0.9658(9) 0.4755(11) 1.8162(7)
C9 C -0.4507(12) 0.3217(14) 1.3422(9)
H5 H -0.43800 0.29560 1.28070
C10 C -0.8244(12) 0.4942(14) 1.7037(9)
C11 C -0.2198(12) 0.4821(14) 1.0874(10)
C12 C -0.1447(13) 0.3934(15) 1.1402(9)
H6 H -0.08310 0.34990 1.11290
C13 C -0.3788(12) 0.4332(14) 1.4869(9)
H7 H -0.31800 0.48310 1.52300
C14 C -0.3193(14) 0.5274(14) 1.2229(10)
H8 H -0.37810 0.57430 1.25120
C15 C -0.6054(11) 0.4572(16) 1.6403(10)
C16 C -0.2483(11) 0.4390(14) 1.2739(9)
C17 C -0.3649(11) 0.3915(13) 1.3982(9)
C18 C -0.1608(13) 0.3692(15) 1.2332(10)
H9 H -0.11280 0.30580 1.26890
C19 C -0.6283(13) 0.3947(16) 1.7209(11)
H10 H -0.56920 0.34020 1.75480
C20 C -0.4844(13) 0.4006(14) 1.5227(9)
C21 C -0.5727(13) 0.3267(15) 1.4692(9)
H11 H -0.64310 0.30130 1.49490
C22 C -0.775(4) -0.483(3) 1.249(3)
H12 H -0.70540 -0.48200 1.29850
H13 H -0.84320 -0.52420 1.27350
H14 H -0.75450 -0.53230 1.19490
C23 C -0.912(2) -0.344(2) 1.1450(18)
H15 H -0.92980 -0.25240 1.12820
H16 H -0.89360 -0.39120 1.08940
H17 H -0.98230 -0.38320 1.16800
N1 N -0.8062(19) -0.350(2) 1.2206(16)
H18 H -0.735(14) -0.325(13) 1.204(10)
H19 H -0.850(4) -0.32(3) 1.263(13)
C24 C 0.050(2) 0.368(2) 1.4507(15)
H20 H 0.12810 0.34980 1.42940
H21 H -0.01420 0.35450 1.39860
H22 H 0.04860 0.45840 1.47240
N2 N 0.0330(11) 0.2806(13) 1.5276(9)
C25 C 0.1244(16) 0.1835(18) 1.5563(13)
H23 H 0.19100 0.19360 1.51900
H24 H 0.15440 0.19490 1.62310
H25 H 0.08970 0.09620 1.54620
O11 O -0.0937(15) 0.2094(17) 1.6278(12)
C26 C -0.068(2) 0.292(3) 1.5654(18)
H26 H -0.12260 0.36050 1.54630
C27 C -0.4040(18) 0.143(2) 1.1033(14)
H27 H -0.34700 0.07280 1.09620
H28 H -0.36750 0.20530 1.15070
H29 H -0.47730 0.10700 1.12340
C28 C -0.3807(17) 0.166(2) 0.9388(14)
H30 H -0.32670 0.09460 0.94840
O12 O -0.3993(12) 0.2134(14) 0.8627(10)
N3 N -0.4341(13) 0.2105(17) 1.0133(11)
C29 C -0.512(3) 0.310(3) 1.012(3)
H31 H -0.53610 0.32120 1.07510
H32 H -0.47340 0.39060 0.99430
H33 H -0.58320 0.29230 0.96690
O13 O 0.1829(13) 0.4016(16) 0.9927(11)
H34 H 0.115(13) 0.426(13) 0.947(9)
H35 H 0.149(11) 0.309(13) 0.985(8)
U1A U -1.16932(3) 0.57498(10) 1.80013(3)
U1A* U -0.16932(3) 0.57498(10) 0.80013(3)
O1A O -0.9760(7) 0.079(2) 1.3148(5)
O2A O -0.7150(8) 0.069(2) 1.0655(6)
O9A O -0.8868(9) -0.0319(12) 1.0466(7)
O10A O -1.0342(9) -0.0245(11) 1.1838(7)
#END
