
#######################################################################
#
#                 Cambridge Crystallographic Data Centre
#                                CCDC
#
#######################################################################
#
# If this CIF has been generated from an entry in the Cambridge
# Structural Database, then it will include bibliographic, chemical,
# crystal, experimental, refinement or atomic coordinate data resulting
# from the CCDC's data processing and validation procedures.
#
#######################################################################

data_CSD_CIF_WEVJIT
_audit_creation_date 2018-01-04
_audit_creation_method CSD-ConQuest-V1
_database_code_CSD WEVJIT
_database_code_depnum_ccdc_archive 'CCDC 1579369'
_chemical_formula_sum 'C23 H25.8 N1 O13.4 U1'
_chemical_formula_moiety
;
(C21 H11 O10 U1 1-)n,C2 H8 N1 1+,3.4(H2 O1)
;
_journal_coden_Cambridge 182
_journal_volume 54
_journal_year 2018
_journal_page_first 627
_journal_name_full 'Chem.Commun. '
loop_
_publ_author_name
"Xia Wang"
"Yanlong Wang"
"Xing Dai"
"M.A.Silver"
"Wei Liu"
"Yuxiang Li"
"Zhuanling Bai"
"Daxiang Gui"
"Lanhua Chen"
"Juan Diwu"
"Ruhong Zhou"
"Zhifang Chai"
"Shuao Wang"
_chemical_name_systematic
;
catena-[dimethylammonium 
(\m-4,4'-((5-carboxylato-1,3-phenylene)bis(oxy))dibenzoato)-dioxo-uranium 
hydrate]
;
_cell_volume   1521.458
_exptl_crystal_colour 'yellow'
_exptl_crystal_density_diffrn 1.678
_exptl_crystal_description 'bulk'
_diffrn_ambient_temperature 168
_diffrn_special_details
;
twin

;
_refine_special_details
;
Disordered dimethylammonium ions and water solvent molecules were not 
modelled and the disordered density was taken into account using the 
SQUEEZE/PLATON procedure.
;
#These two values have been output from a single CSD field.
_refine_ls_R_factor_gt 0.0533
_refine_ls_wR_factor_gt 0.0533
_symmetry_cell_setting monoclinic
_symmetry_space_group_name_H-M 'P 21'
_symmetry_Int_Tables_number 4
loop_
_symmetry_equiv_pos_site_id
_symmetry_equiv_pos_as_xyz
1 x,y,z
2 -x,1/2+y,-z
_cell_length_a 11.4098(16)
_cell_length_b 9.3291(13)
_cell_length_c 14.383(2)
_cell_angle_alpha 90
_cell_angle_beta 96.391(4)
_cell_angle_gamma 90
_cell_formula_units_Z 2
loop_
_atom_type_symbol
_atom_type_radius_bond
C 0.68
H 0.23
O 0.68
U 1.96
loop_
_atom_site_label
_atom_site_type_symbol
_atom_site_fract_x
_atom_site_fract_y
_atom_site_fract_z
U1 U 0.83361(3) 0.66226(17) 0.80681(3)
O1 O 0.6328(8) 0.5677(12) 0.7691(7)
O2 O 0.2824(7) 0.163(3) 1.0594(6)
O3 O 1.0273(8) 0.169(3) 0.3114(6)
O4 O 0.5038(10) 0.3170(13) 0.3844(8)
C1 C 0.9446(13) 0.2143(18) 0.2576(10)
C2 C 0.5775(13) 0.4297(14) 0.5311(9)
H1 H 0.64740 0.46060 0.50690
C3 C 0.2508(12) 0.2879(16) 0.7198(9)
C4 C 0.1993(13) 0.2156(18) 1.0025(10)
C5 C 0.7015(13) 0.2156(17) 0.4126(11)
H2 H 0.68760 0.18000 0.47230
O5 O 0.9613(11) 0.2430(18) 0.1747(8)
O6 O 0.2600(9) 0.3115(13) 0.6260(7)
C6 C 0.3153(12) 0.181(3) 0.8699(10)
H3 H 0.36890 0.12190 0.90750
O7 O 0.7879(12) 0.8384(14) 0.7770(11)
C7 C 0.8063(12) 0.1935(14) 0.3798(9)
H4 H 0.86740 0.14600 0.41830
O8 O 0.7440(9) 0.5779(12) 0.6541(7)
C8 C 0.4916(13) 0.3499(15) 0.4753(9)
C9 C 0.3879(12) 0.3099(16) 0.5083(10)
H5 H 0.33020 0.25680 0.46990
C10 C 0.3686(11) 0.3488(16) 0.5999(9)
C11 C 0.6474(12) 0.5389(18) 0.6831(9)
C12 C 0.8271(11) 0.2383(19) 0.2917(10)
C13 C 0.5572(13) 0.4627(15) 0.6239(9)
C14 C 0.6294(14) 0.3318(18) 0.2702(12)
H6 H 0.56650 0.37370 0.23050
C15 C 0.1541(13) 0.347(2) 0.7556(12)
H7 H 0.10080 0.40590 0.71740
O9 O 0.1018(11) 0.2423(19) 1.0323(9)
C16 C 0.3319(14) 0.2090(17) 0.7761(12)
H8 H 0.39980 0.17270 0.75140
C17 C 0.1356(14) 0.319(2) 0.8460(11)
H9 H 0.06490 0.35250 0.86780
C18 C 0.4522(12) 0.4269(16) 0.6575(9)
H10 H 0.43710 0.45490 0.71850
C19 C 0.2171(14) 0.2443(19) 0.9077(11)
O10 O 0.8795(10) 0.4843(15) 0.8382(9)
C20 C 0.7349(15) 0.313(2) 0.2372(12)
H11 H 0.74730 0.34970 0.17750
C21 C 0.6110(12) 0.2938(15) 0.3559(10)
U1A U 0.16639(3) 0.16226(17) 1.19319(3)
U1A* U 1.16639(3) 0.16226(17) 0.19319(3)
O2A O 0.7176(7) 0.663(3) 0.9406(6)
O3A O 0.9727(8) 0.669(3) 0.6886(6)
O5A O 1.0387(11) 0.7430(18) 0.8253(8)
O9A O 0.8982(11) 0.7423(19) 0.9677(9)
#END
