
#######################################################################
#
#                 Cambridge Crystallographic Data Centre
#                                CCDC
#
#######################################################################
#
# If this CIF has been generated from an entry in the Cambridge
# Structural Database, then it will include bibliographic, chemical,
# crystal, experimental, refinement or atomic coordinate data resulting
# from the CCDC's data processing and validation procedures.
#
#######################################################################

data_CSD_CIF_WEVVOL
_audit_creation_date 2018-01-04
_audit_creation_method CSD-ConQuest-V1
_database_code_CSD WEVVOL
_database_code_depnum_ccdc_archive 'CCDC 1568894'
_chemical_formula_sum 'C29 H26 Cd2 N2 O11'
_chemical_formula_moiety
;
(C27 H18 Cd2 N1 O11 1-)n,C2 H8 N1 1+
;
_journal_coden_Cambridge 1350
_journal_volume 20
_journal_year 2018
_journal_page_first 477
_journal_name_full 'CrystEngComm '
loop_
_publ_author_name
"Yang-Tian Yan"
"Jiao Liu"
"Guo-Ping Yang"
"Fang Zhang"
"Ya-Ke Fan"
"Wen-Yan Zhang"
"Yao-Yu Wang"
_chemical_name_systematic
;
catena-[dimethylammonium 
(\m-[1^1^,2^1^:2^3^,3^1^-terphenyl]-1^3^,1^5^,2^4^,3^3^,3^5^-pentacarboxylato)
-(N,N-dimethylacetamide)-di-cadmium]
;
_cell_volume   8517.718
_exptl_crystal_colour 'colorless'
_exptl_crystal_description 'block'
_diffrn_ambient_temperature 296.1
_refine_special_details
;
Disordered dimethylammonium ions were not modelled and the disordered density 
was taken into account using the SQUEEZE/PLATON procedure.
;
#These two values have been output from a single CSD field.
_refine_ls_R_factor_gt 0.0589
_refine_ls_wR_factor_gt 0.0589
_symmetry_cell_setting monoclinic
_symmetry_space_group_name_H-M 'C 2/c'
_symmetry_Int_Tables_number 15
loop_
_symmetry_equiv_pos_site_id
_symmetry_equiv_pos_as_xyz
1 x,y,z
2 -x,y,1/2-z
3 1/2+x,1/2+y,z
4 1/2-x,1/2+y,1/2-z
5 -x,-y,-z
6 x,-y,-1/2+z
7 -1/2-x,-1/2-y,-z
8 -1/2+x,-1/2-y,-1/2+z
_cell_length_a 31.84(1)
_cell_length_b 13.478(4)
_cell_length_c 19.854(6)
_cell_angle_alpha 90
_cell_angle_beta 91.365(6)
_cell_angle_gamma 90
_cell_formula_units_Z 8
loop_
_atom_type_symbol
_atom_type_radius_bond
C 0.68
H 0.23
Cd 1.44
N 0.68
O 0.68
loop_
_atom_site_label
_atom_site_type_symbol
_atom_site_fract_x
_atom_site_fract_y
_atom_site_fract_z
O1 O 0.14116(15) 0.4712(4) 0.3610(3)
Cd1 Cd 0.17482(2) -0.38013(3) 0.35994(2)
Cd2 Cd 0.10359(2) 0.66437(4) 0.48999(3)
C1 C 0.09886(19) 0.2963(4) 0.3933(4)
H1 H 0.12610 0.29260 0.37780
C2 C 0.13829(19) -0.0793(4) 0.3937(4)
C3 C 0.08068(19) 0.3886(4) 0.3992(3)
C4 C 0.09862(19) 0.1077(4) 0.4039(4)
C5 C 0.1566(2) -0.1795(4) 0.3837(4)
C6 C 0.07855(19) 0.2085(5) 0.4094(4)
C7 C 0.0762(2) 0.0221(5) 0.4048(4)
H2 H 0.04710 0.02550 0.40700
C8 C 0.14244(18) 0.1000(4) 0.3977(4)
H3 H 0.15850 0.15770 0.39790
C9 C 0.03781(19) 0.2176(5) 0.4345(4)
H4 H 0.02350 0.16090 0.44750
C10 C 0.16231(18) 0.0096(4) 0.3912(3)
C11 C 0.0407(2) 0.3959(5) 0.4236(4)
H5 H 0.02850 0.45790 0.42910
C12 C 0.0184(2) 0.3103(5) 0.4402(4)
C13 C 0.0956(2) -0.0713(5) 0.4026(4)
H6 H 0.07940 -0.12840 0.40710
C14 C 0.27899(18) -0.0155(4) 0.4373(3)
C15 C 0.29642(19) 0.0217(5) 0.3780(3)
H7 H 0.32540 0.02630 0.37470
C16 C 0.27067(19) 0.0519(4) 0.3240(3)
C17 C 0.20933(18) 0.0095(4) 0.3881(3)
C18 C 0.2352(2) -0.0212(5) 0.4395(4)
H8 H 0.22320 -0.04720 0.47800
C19 C 0.22771(18) 0.0457(4) 0.3296(3)
H9 H 0.21050 0.06610 0.29370
C20 C 0.3067(2) -0.0554(5) 0.4917(3)
C21 C 0.2905(2) 0.0833(5) 0.2593(3)
C22 C -0.0257(2) 0.3181(5) 0.4648(4)
O2 O 0.26833(15) 0.0814(4) 0.2064(3)
O3 O -0.04730(15) 0.3946(4) 0.4511(3)
O4 O 0.32867(15) 0.1087(4) 0.2603(3)
O5 O 0.28906(16) -0.0831(4) 0.5458(3)
O6 O 0.34560(15) -0.0551(4) 0.4837(3)
O7 O -0.04019(15) 0.2501(4) 0.5008(3)
C23 C 0.1053(2) 0.4806(5) 0.3847(4)
O8 O 0.08822(16) 0.5636(3) 0.3972(3)
O9 O 0.18918(16) -0.1940(3) 0.3538(3)
O10 O 0.13569(15) -0.2559(3) 0.4060(3)
O11 O 0.1315(2) 0.7523(6) 0.5780(4)
C24 C 0.2085(3) 0.7854(9) 0.5893(7)
H10 H 0.21350 0.84910 0.60980
H11 H 0.20600 0.79300 0.54130
H12 H 0.23160 0.74200 0.60020
C25 C 0.1694(6) 0.7429(9) 0.6150(9)
N1 N 0.1670(4) 0.7076(8) 0.6717(8)
C26 C 0.1230(5) 0.6631(11) 0.6928(10)
H13 H 0.10200 0.67970 0.65920
H14 H 0.11520 0.69040 0.73540
H15 H 0.12510 0.59220 0.69650
C27 C 0.2056(5) 0.7025(10) 0.7164(7)
H16 H 0.22530 0.65690 0.69760
H17 H 0.19800 0.68020 0.76040
H18 H 0.21810 0.76710 0.71980
O1* O 0.14116(15) -0.5288(4) 0.3610(3)
Cd1* Cd 0.17482(2) 0.61987(3) 0.35994(2)
Cd1C Cd 0.32518(2) 0.11987(3) 0.14006(2)
Cd1F Cd 0.32518(2) -0.11987(3) 0.64006(2)
Cd2* Cd 0.10359(2) -0.33563(4) 0.48999(3)
Cd2D Cd -0.10359(2) 0.33563(4) 0.51001(3)
Cd2F Cd 0.39641(2) -0.16437(4) 0.51001(3)
O2C O 0.23167(15) -0.4186(4) 0.2936(3)
O3D O 0.04730(15) 0.6054(4) 0.5489(3)
O4C O 0.17133(15) -0.3913(4) 0.2397(3)
O5F O 0.21094(16) -0.4169(4) 0.4542(3)
O6F O 0.15440(15) 0.5551(4) 0.5163(3)
O7D O 0.04019(15) 0.7499(4) 0.4992(3)
O10* O 0.13569(15) 0.7441(3) 0.4060(3)
#END
