
#######################################################################
#
#                 Cambridge Crystallographic Data Centre
#                                CCDC
#
#######################################################################
#
# If this CIF has been generated from an entry in the Cambridge
# Structural Database, then it will include bibliographic, chemical,
# crystal, experimental, refinement or atomic coordinate data resulting
# from the CCDC's data processing and validation procedures.
#
#######################################################################

data_CSD_CIF_WEWDIM
_audit_creation_date 2007-05-17
_audit_creation_method CSD-ConQuest-V1
_database_code_CSD WEWDIM
_database_code_depnum_ccdc_archive 'CCDC 236408'
_chemical_formula_sum 'C62 H96 Br4 Cu6 N8 O2 S6 W2'
_chemical_formula_moiety
;
(C16 H36 N1 1+)2n,n(C30 H24 Br4 Cu6 N6 O2 S6 W2 2-)
;
_journal_coden_Cambridge 1147
_journal_volume 7
_journal_year 2007
_journal_page_first 373
_journal_name_full 'Cryst.Growth Des. '
loop_
_publ_author_name
"Kai Liang"
"He-Gen Zheng"
"Ying-Lin Song"
"Yi-Zhi Li"
"Xin-Quan Xin"
_chemical_name_systematic
;
catena-(bis(Tetra-n-butylammonium) 
hexakis(\m~3~-sulfido)-tris(\m~2~-4,4'-bipyridine-N,N')-tetrabromo-dioxo-hexa-
copper-di-tungsten)
;
_cell_volume   2011.771
_exptl_crystal_colour 'red'
_exptl_crystal_density_diffrn 1.854
_exptl_crystal_description 'block'
_diffrn_ambient_temperature 293
#These two values have been output from a single CSD field.
_refine_ls_R_factor_gt 0.0348
_refine_ls_wR_factor_gt 0.0348
_symmetry_cell_setting triclinic
_symmetry_space_group_name_H-M 'P -1'
_symmetry_Int_Tables_number 2
loop_
_symmetry_equiv_pos_site_id
_symmetry_equiv_pos_as_xyz
1 x,y,z
2 -x,-y,-z
_cell_length_a 9.843(1)
_cell_length_b 12.974(1)
_cell_length_c 17.362(2)
_cell_angle_alpha 97.65(1)
_cell_angle_beta 101.50(1)
_cell_angle_gamma 108.65(1)
_cell_formula_units_Z 1
loop_
_atom_type_symbol
_atom_type_radius_bond
C 0.68
H 0.23
Br 1.21
Cu 1.46
N 0.68
O 0.68
S 1.02
W 1.37
loop_
_atom_site_label
_atom_site_type_symbol
_atom_site_fract_x
_atom_site_fract_y
_atom_site_fract_z
W1 W 0.75977(2) 0.718480(17) 0.69904(1)
Br1 Br 0.99688(7) 0.64173(6) 0.93951(4)
Br2 Br 1.07681(8) 1.10878(6) 0.72683(4)
C1 C 0.7111(6) 0.1911(4) 0.6452(3)
H1 H 0.78670 0.16990 0.67690
H2 H 0.61640 0.13210 0.63770
C2 C 0.7412(7) 0.1978(5) 0.5633(3)
H3 H 0.66520 0.21640 0.52950
H4 H 0.83670 0.25490 0.56900
C3 C 0.7404(7) 0.0856(5) 0.5263(3)
H5 H 0.65060 0.02790 0.52860
H6 H 0.82470 0.07210 0.55680
C4 C 0.7479(7) 0.0805(6) 0.4397(3)
H7 H 0.74680 0.00850 0.41710
H8 H 0.83770 0.13670 0.43760
H9 H 0.66400 0.09320 0.40950
C5 C 0.5970(6) 0.3398(5) 0.6455(3)
H10 H 0.59750 0.40680 0.67810
H11 H 0.63020 0.35990 0.59880
C6 C 0.4412(6) 0.2582(5) 0.6178(3)
H12 H 0.40870 0.23530 0.66410
H13 H 0.43890 0.19260 0.58270
C7 C 0.3344(6) 0.3060(5) 0.5734(3)
H14 H 0.33780 0.37080 0.60980
H15 H 0.37190 0.33200 0.52920
C8 C 0.1797(6) 0.2352(6) 0.5409(4)
H16 H 0.12640 0.27570 0.51350
H17 H 0.13770 0.21220 0.58390
H18 H 0.17280 0.17070 0.50370
C9 C 0.6643(6) 0.2704(4) 0.7719(3)
H19 H 0.57150 0.20730 0.75640
H20 H 0.73920 0.24650 0.80140
C10 C 0.6462(7) 0.3624(5) 0.8295(3)
H21 H 0.73570 0.42810 0.84350
H22 H 0.56430 0.38210 0.80320
C11 C 0.6180(7) 0.3250(5) 0.9023(3)
H23 H 0.70030 0.30530 0.92810
H24 H 0.52940 0.25860 0.88760
C12 C 0.5984(8) 0.4101(6) 0.9602(4)
H25 H 0.58070 0.38140 1.00690
H26 H 0.51540 0.42860 0.93560
H27 H 0.68650 0.47570 0.97580
C13 C 0.8547(6) 0.3972(5) 0.7128(3)
H28 H 0.84340 0.46310 0.74000
H29 H 0.87920 0.41160 0.66290
C14 C 0.9831(6) 0.3738(5) 0.7668(4)
H30 H 0.97040 0.37620 0.82090
H31 H 0.98120 0.30010 0.74580
C15 C 1.1327(6) 0.4612(5) 0.7689(4)
H32 H 1.14470 0.45870 0.71460
H33 H 1.13390 0.53480 0.78970
C16 C 1.2558(7) 0.4416(6) 0.8191(4)
H34 H 1.34780 0.49690 0.81890
H35 H 1.25510 0.36900 0.79840
H36 H 1.24540 0.44600 0.87320
C17 C 0.1703(5) 1.0515(5) 1.0722(3)
H37 H 0.13970 1.02510 1.11540
C18 C 0.2258(5) 0.9869(5) 1.0253(3)
H38 H 0.23520 0.92200 1.03870
C19 C 0.2655(5) 1.0208(5) 0.9603(3)
C20 C 0.2431(6) 1.1150(5) 0.9443(3)
H39 H 0.26530 1.13830 0.89840
C21 C 0.1887(6) 1.1789(5) 0.9928(3)
H40 H 0.17420 1.24220 0.97920
C22 C 0.4410(6) 0.9406(5) 0.7993(3)
H41 H 0.47360 0.96970 0.75730
C23 C 0.3777(6) 1.0004(5) 0.8443(3)
H42 H 0.36730 1.06540 0.83170
C24 C 0.3304(5) 0.9601(4) 0.9086(3)
C25 C 0.3419(6) 0.8611(5) 0.9192(3)
H43 H 0.30600 0.82920 0.95940
C26 C 0.4057(6) 0.8067(5) 0.8716(3)
H44 H 0.41290 0.73970 0.88160
C27 C 0.2026(5) 0.6726(4) 0.6521(3)
H45 H 0.19930 0.72160 0.69540
C28 C 0.0700(6) 0.6067(4) 0.5969(3)
H46 H -0.01910 0.61090 0.60460
C29 C 0.0698(5) 0.5346(4) 0.5304(3)
C30 C 0.2047(5) 0.5323(4) 0.5262(3)
H47 H 0.21170 0.48510 0.48300
C31 C 0.3288(6) 0.5966(4) 0.5829(3)
H48 H 0.41810 0.59000 0.57770
Cu1 Cu 0.53154(6) 0.76241(5) 0.73550(3)
Cu2 Cu 0.87757(7) 0.73523(5) 0.85708(3)
Cu3 Cu 0.92125(7) 0.93178(6) 0.71867(4)
N1 N 0.4588(4) 0.8475(4) 0.8103(2)
N2 N 0.3325(4) 0.6699(3) 0.6468(2)
N3 N 0.1574(4) 1.1457(4) 1.0606(2)
N4 N 0.7075(5) 0.2980(4) 0.6940(3)
O1 O 0.7400(3) 0.6144(3) 0.61977(18)
S1 S 0.63101(13) 0.64011(11) 0.78262(7)
S2 S 1.00029(13) 0.80181(11) 0.76532(7)
S3 S 0.67760(14) 0.85184(12) 0.65851(7)
W1A W 0.24023(2) 1.281520(17) 1.30096(1)
Br1A Br 0.00312(7) 1.35827(6) 1.06049(4)
Br2A Br -0.07681(8) 0.89122(6) 1.27317(4)
C17A C 0.8297(5) 0.9485(5) 0.9278(3)
H37A H 0.86030 0.97490 0.88460
C18A C 0.7742(5) 1.0131(5) 0.9747(3)
H38A H 0.76480 1.07800 0.96130
C19A C 0.7345(5) 0.9792(5) 1.0397(3)
C20A C 0.7569(6) 0.8850(5) 1.0557(3)
H39A H 0.73470 0.86170 1.10160
C21A C 0.8113(6) 0.8211(5) 1.0072(3)
H40A H 0.82580 0.75780 1.02080
C22A C 0.5590(6) 1.0594(5) 1.2007(3)
H41A H 0.52640 1.03030 1.24270
C23A C 0.6223(6) 0.9996(5) 1.1557(3)
H42A H 0.63270 0.93460 1.16830
C24A C 0.6696(5) 1.0399(4) 1.0914(3)
C25A C 0.6581(6) 1.1389(5) 1.0808(3)
H43A H 0.69400 1.17080 1.04060
C26A C 0.5943(6) 1.1933(5) 1.1284(3)
H44A H 0.58710 1.26030 1.11840
C27A C -0.2026(5) 0.3274(4) 0.3479(3)
H45A H -0.19930 0.27840 0.30460
C28A C -0.0700(6) 0.3933(4) 0.4031(3)
H46A H 0.01910 0.38910 0.39540
C29A C -0.0698(5) 0.4654(4) 0.4696(3)
C30A C -0.2047(5) 0.4677(4) 0.4738(3)
H47A H -0.21170 0.51490 0.51700
C31A C -0.3288(6) 0.4034(4) 0.4171(3)
H48A H -0.41810 0.41000 0.42230
Cu1A Cu 0.46846(6) 1.23759(5) 1.26450(3)
Cu1A* Cu -0.53154(6) 0.23759(5) 0.26450(3)
Cu2A Cu 0.12243(7) 1.26477(5) 1.14292(3)
Cu3A Cu 0.07875(7) 1.06822(6) 1.28133(4)
N1A N 0.5412(4) 1.1525(4) 1.1897(2)
N2A N -0.3325(4) 0.3301(3) 0.3532(2)
N2A* N 0.6675(4) 1.3301(3) 1.3532(2)
N3A N 0.8426(4) 0.8543(4) 0.9394(2)
O1A O 0.2600(3) 1.3856(3) 1.38023(18)
S1A S 0.36899(13) 1.35989(11) 1.21738(7)
S2A S -0.00029(13) 1.19819(11) 1.23468(7)
S3A S 0.32240(14) 1.14816(12) 1.34149(7)
#END
