
#######################################################################
#
#                 Cambridge Crystallographic Data Centre
#                                CCDC
#
#######################################################################
#
# If this CIF has been generated from an entry in the Cambridge
# Structural Database, then it will include bibliographic, chemical,
# crystal, experimental, refinement or atomic coordinate data resulting
# from the CCDC's data processing and validation procedures.
#
#######################################################################

data_CSD_CIF_WEWMUJ02
_audit_creation_date 2019-02-09
_audit_creation_method CSD-ConQuest-V1
_database_code_CSD WEWMUJ02
_database_code_depnum_ccdc_archive 'CCDC 1896313'
_chemical_formula_sum 'C160 H320 Cu8 N16 O64'
_chemical_formula_moiety
;
(C32 Cu8 O64 16-)n,16(C8 H20 N1 1+)
;
_journal_coden_Cambridge 1078
_journal_year 2019
_journal_name_full 'CSD Communication(Private Communication) '
loop_
_publ_author_name
"Bin Zhang"
_chemical_name_systematic
;
catena-[hexadecakis(di-n-butylammonium) 
octakis(\m-oxalato)-octakis(oxalato)-octa-copper(ii)]
;
_cell_volume   5136.291
_exptl_crystal_colour 'cyan'
_exptl_crystal_density_diffrn 1.293
_exptl_crystal_description 'block'
_diffrn_ambient_temperature 80
#These two values have been output from a single CSD field.
_refine_ls_R_factor_gt 0.0231
_refine_ls_wR_factor_gt 0.0231
_symmetry_cell_setting triclinic
_symmetry_space_group_name_H-M 'P -1'
_symmetry_Int_Tables_number 2
loop_
_symmetry_equiv_pos_site_id
_symmetry_equiv_pos_as_xyz
1 x,y,z
2 -x,-y,-z
_cell_length_a 13.6655(1)
_cell_length_b 18.2920(1)
_cell_length_c 21.3097(2)
_cell_angle_alpha 101.705(1)
_cell_angle_beta 92.402(1)
_cell_angle_gamma 99.034(1)
_cell_formula_units_Z 1
loop_
_atom_type_symbol
_atom_type_radius_bond
C 0.68
H 0.23
Cu 1.32
N 0.68
O 0.68
loop_
_atom_site_label
_atom_site_type_symbol
_atom_site_fract_x
_atom_site_fract_y
_atom_site_fract_z
C1 C -0.62448(8) 0.31949(6) 1.11366(5)
C2 C -0.57257(8) 0.25572(6) 1.07635(5)
C3 C -0.55311(7) 0.50511(6) 0.98823(5)
C4 C -0.53831(8) 0.27041(6) 0.87258(5)
C5 C -0.58861(8) 0.21785(6) 0.80836(5)
C6 C -0.38822(8) 0.04817(6) 0.82687(5)
C7 C -0.35506(8) 0.03543(6) 0.75669(5)
C8 C -0.26555(8) 0.27811(6) 0.73561(5)
C9 C -0.20051(8) 0.24966(6) 0.78377(5)
C10 C -0.06006(8) 0.47544(6) 0.68998(5)
C11 C -0.09403(8) 0.49117(6) 0.75995(5)
C12 C 0.11797(8) 0.29279(6) 0.70280(5)
C13 C 0.06010(8) 0.23918(6) 0.64111(5)
C14 C 0.05270(7) -0.00724(6) 0.51038(5)
C15 C 0.06667(8) 0.24056(6) 0.43428(5)
C16 C 0.11630(8) 0.17603(6) 0.39596(5)
O1 O -0.63320(6) 0.37208(4) 1.08268(4)
O2 O -0.54837(6) 0.26408(4) 1.02045(4)
O3 O -0.65294(7) 0.31596(5) 1.16678(4)
O4 O -0.55763(6) 0.20185(5) 1.09980(4)
O5 O -0.62028(6) 0.44681(4) 0.97958(4)
O6 O -0.56489(6) 0.56829(4) 0.97983(4)
O7 O -0.59550(6) 0.31030(4) 0.90495(4)
O8 O -0.67859(6) 0.21528(5) 0.79592(4)
O9 O -0.45038(6) 0.26944(4) 0.88679(4)
O10 O -0.53319(6) 0.18050(4) 0.77298(4)
O11 O -0.40787(6) 0.11419(4) 0.84976(4)
O12 O -0.35533(6) 0.08877(4) 0.72825(4)
O13 O -0.39327(6) -0.00380(4) 0.85625(4)
O14 O -0.32963(6) -0.02741(4) 0.73512(4)
O15 O -0.35792(6) 0.26299(5) 0.73838(4)
O16 O -0.24523(6) 0.21532(5) 0.82206(4)
O17 O -0.22038(6) 0.31492(5) 0.69890(4)
O18 O -0.10802(6) 0.26377(4) 0.78071(4)
O19 O -0.04788(6) 0.40725(4) 0.66777(4)
O20 O -0.08967(7) 0.44054(5) 0.79095(4)
O21 O -0.04783(7) 0.52655(5) 0.65970(4)
O22 O -0.12497(6) 0.55261(4) 0.77818(4)
O23 O 0.06787(6) 0.33341(4) 0.73977(4)
O24 O -0.02708(6) 0.24460(4) 0.62916(4)
O25 O 0.20801(6) 0.29313(4) 0.71237(4)
O26 O 0.11090(6) 0.19390(4) 0.60825(4)
O27 O 0.11879(6) 0.05109(4) 0.52980(4)
O28 O 0.06469(6) -0.07380(4) 0.50636(4)
O29 O 0.05050(6) 0.23565(4) 0.49243(4)
O30 O 0.12828(6) 0.12437(4) 0.42742(4)
O31 O 0.04591(7) 0.29205(5) 0.40986(4)
O32 O 0.13960(7) 0.17830(5) 0.34158(4)
Cu1 Cu -0.57697(2) 0.35585(2) 0.99708(2)
Cu2 Cu -0.39099(2) 0.19187(2) 0.79694(2)
Cu3 Cu -0.07325(2) 0.33181(2) 0.72119(2)
Cu4 Cu 0.08133(2) 0.14529(2) 0.51652(2)
C17 C 0.15374(8) 0.28956(6) 0.87227(5)
H1 H 0.17140 0.23880 0.85730
H2 H 0.08580 0.28860 0.85380
C18 C 0.15486(8) 0.30673(7) 0.94513(5)
H3 H 0.12610 0.35320 0.95950
H4 H 0.22450 0.31660 0.96360
C19 C 0.09663(10) 0.24210(7) 0.97042(6)
H5 H 0.13100 0.19770 0.96160
H6 H 0.02970 0.22720 0.94740
C20 C 0.08612(11) 0.26454(8) 1.04263(6)
H7 H 0.04750 0.30590 1.05110
H8 H 0.15220 0.28130 1.06540
H9 H 0.05190 0.22080 1.05770
C21 C 0.20245(8) 0.42596(6) 0.86449(5)
H10 H 0.20970 0.44480 0.91170
H11 H 0.13280 0.42560 0.84940
C22 C 0.27188(9) 0.47854(6) 0.83306(6)
H12 H 0.26470 0.45930 0.78590
H13 H 0.34140 0.47860 0.84820
C23 C 0.25052(11) 0.55968(7) 0.84822(7)
H14 H 0.18280 0.56010 0.83000
H15 H 0.25230 0.57740 0.89540
C24 C 0.32485(14) 0.61429(8) 0.82132(7)
H16 H 0.32070 0.59870 0.77440
H17 H 0.39220 0.61370 0.83870
H18 H 0.30950 0.66560 0.83360
N1 N 0.22504(7) 0.34706(5) 0.84857(4)
H19 H 0.28730 0.34740 0.86570
H20 H 0.22510 0.33240 0.80510
C25 C 0.37811(9) 0.22120(7) 0.64301(6)
H21 H 0.44060 0.20020 0.64320
H22 H 0.38910 0.27070 0.67370
C26 C 0.35247(11) 0.23278(8) 0.57590(6)
H23 H 0.33680 0.18290 0.54570
H24 H 0.29270 0.25720 0.57640
C27 C 0.43794(12) 0.28179(9) 0.55262(7)
H25 H 0.49660 0.25600 0.55010
H26 H 0.45600 0.33050 0.58410
C28 C 0.41147(17) 0.29746(11) 0.48665(9)
H27 H 0.38950 0.24930 0.45590
H28 H 0.47000 0.32550 0.47190
H29 H 0.35790 0.32760 0.48990
C29 C 0.30367(8) 0.08680(6) 0.64376(5)
H30 H 0.36840 0.07750 0.66030
H31 H 0.29970 0.07250 0.59620
C30 C 0.21990(8) 0.03842(6) 0.66881(5)
H32 H 0.15550 0.05000 0.65420
H33 H 0.22610 0.05110 0.71640
C31 C 0.22135(9) -0.04604(6) 0.64553(6)
H34 H 0.22050 -0.05790 0.59800
H35 H 0.28370 -0.05820 0.66290
C32 C 0.13333(10) -0.09520(7) 0.66608(7)
H36 H 0.07140 -0.08380 0.64850
H37 H 0.13480 -0.08470 0.71310
H38 H 0.13700 -0.14870 0.64990
N2 N 0.29739(7) 0.16862(5) 0.66434(4)
H39 H 0.29900 0.18060 0.70800
H40 H 0.23780 0.17640 0.64870
C33 C 0.26610(9) -0.03170(7) 0.41105(5)
H41 H 0.30650 -0.06860 0.38970
H42 H 0.21840 -0.05800 0.43630
C34 C 0.33359(9) 0.03341(8) 0.45593(6)
H43 H 0.36390 0.01320 0.49040
H44 H 0.29200 0.06980 0.47650
C35 C 0.41706(10) 0.07678(9) 0.42547(7)
H45 H 0.38750 0.09580 0.39000
H46 H 0.45050 0.12120 0.45810
C36 C 0.49467(11) 0.02981(12) 0.39919(8)
H47 H 0.46300 -0.01300 0.36520
H48 H 0.52450 0.01070 0.43390
H49 H 0.54640 0.06140 0.38150
C37 C 0.12878(9) -0.06411(6) 0.32476(6)
H50 H 0.07810 -0.07730 0.35430
H51 H 0.15640 -0.11030 0.30700
C38 C 0.08038(9) -0.03695(7) 0.27036(6)
H52 H 0.13150 -0.02300 0.24130
H53 H 0.05260 0.00900 0.28840
C39 C -0.00243(9) -0.09707(7) 0.23172(7)
H54 H 0.02510 -0.14320 0.21400
H55 H -0.05400 -0.11060 0.26060
C40 C -0.04956(12) -0.06946(8) 0.17705(8)
H56 H -0.00060 -0.06190 0.14560
H57 H -0.07190 -0.02140 0.19410
H58 H -0.10660 -0.10720 0.15620
N3 N 0.21020(7) -0.00422(5) 0.36118(4)
H59 H 0.25320 0.01130 0.33310
H60 H 0.18360 0.03640 0.38050
C41 C 0.24127(8) 0.14776(7) 0.19814(6)
H61 H 0.22750 0.19810 0.19380
H62 H 0.21690 0.13800 0.23930
C42 C 0.18545(9) 0.08758(7) 0.14288(6)
H63 H 0.11330 0.08570 0.14700
H64 H 0.20130 0.03770 0.14700
C43 C 0.20817(9) 0.09961(7) 0.07583(6)
H65 H 0.20810 0.15340 0.07450
H66 H 0.27540 0.08840 0.06690
C44 C 0.13272(11) 0.04942(8) 0.02395(7)
H67 H 0.15000 0.05870 -0.01820
H68 H 0.06630 0.06120 0.03210
H69 H 0.13340 -0.00390 0.02470
C45 C 0.40506(9) 0.19773(6) 0.25917(5)
H70 H 0.37680 0.18180 0.29730
H71 H 0.39660 0.25090 0.26110
C46 C 0.51494(9) 0.19258(7) 0.26046(6)
H72 H 0.54260 0.20720 0.22170
H73 H 0.52320 0.13950 0.25940
C47 C 0.57254(10) 0.24381(8) 0.32020(7)
H74 H 0.54580 0.22840 0.35890
H75 H 0.56270 0.29660 0.32180
C48 C 0.68337(11) 0.24069(9) 0.32136(8)
H76 H 0.71070 0.25740 0.28380
H77 H 0.69350 0.18860 0.32030
H78 H 0.71720 0.27410 0.36070
N4 N 0.35076(7) 0.14863(5) 0.19971(4)
H79 H 0.36260 0.10050 0.19670
H80 H 0.37470 0.16530 0.16500
C49 C 0.22000(8) 0.34169(6) 0.30128(5)
H81 H 0.24370 0.35430 0.26090
H82 H 0.23970 0.29290 0.30510
C50 C 0.26802(9) 0.40335(7) 0.35805(6)
H83 H 0.25010 0.45240 0.35330
H84 H 0.24210 0.39170 0.39820
C51 C 0.38053(9) 0.40984(8) 0.36259(6)
H85 H 0.40580 0.41930 0.32160
H86 H 0.39810 0.36120 0.36880
C52 C 0.43104(11) 0.47337(9) 0.41765(7)
H87 H 0.41260 0.52150 0.41230
H88 H 0.50330 0.47680 0.41740
H89 H 0.40970 0.46260 0.45860
C53 C 0.05821(8) 0.28277(6) 0.23968(5)
H90 H 0.07480 0.23140 0.23650
H91 H 0.08100 0.30160 0.20150
C54 C -0.05381(9) 0.27900(7) 0.24120(6)
H92 H -0.06890 0.33110 0.25180
H93 H -0.07750 0.25290 0.27550
C55 C -0.10954(9) 0.23718(8) 0.17700(6)
H94 H -0.18180 0.23450 0.18130
H95 H -0.09140 0.26680 0.14390
C56 C -0.08818(10) 0.15720(7) 0.15400(6)
H96 H -0.13110 0.13210 0.11520
H97 H -0.10120 0.12840 0.18770
H98 H -0.01840 0.15960 0.14430
N5 N 0.10984(7) 0.33418(5) 0.29900(4)
H99 H 0.09300 0.38090 0.30190
H100 H 0.08810 0.31650 0.33380
C57 C 0.24884(8) 0.54504(6) 0.10721(5)
H101 H 0.30760 0.56320 0.08540
H102 H 0.22840 0.58950 0.13490
C58 C 0.16475(9) 0.50521(7) 0.05742(6)
H103 H 0.10740 0.48480 0.07930
H104 H 0.18660 0.46210 0.02870
C59 C 0.13224(9) 0.55881(7) 0.01728(6)
H105 H 0.19100 0.58250 -0.00150
H106 H 0.08480 0.52910 -0.01860
C60 C 0.08354(10) 0.62099(8) 0.05604(7)
H107 H 0.05630 0.64930 0.02700
H108 H 0.13320 0.65550 0.08730
H109 H 0.02980 0.59820 0.07870
C61 C 0.35003(9) 0.52799(7) 0.20249(5)
H110 H 0.35820 0.49070 0.22930
H111 H 0.32520 0.57090 0.22950
C62 C 0.45032(9) 0.55659(7) 0.18031(6)
H112 H 0.44100 0.58850 0.14880
H113 H 0.47950 0.51290 0.15840
C63 C 0.52206(9) 0.60281(7) 0.23643(6)
H114 H 0.58410 0.62360 0.21920
H115 H 0.49210 0.64620 0.25820
C64 C 0.54794(10) 0.55785(8) 0.28593(6)
H116 H 0.56460 0.50940 0.26380
H117 H 0.49090 0.54840 0.31120
H118 H 0.60500 0.58680 0.31450
N6 N 0.27530(7) 0.49182(5) 0.14752(5)
H119 H 0.21900 0.47100 0.16320
H120 H 0.29960 0.45350 0.12210
C65 C 0.11443(9) 0.62182(7) 0.49318(6)
H121 H 0.12430 0.56840 0.48110
H122 H 0.10650 0.63360 0.53990
C66 C 0.20576(9) 0.67340(7) 0.47854(6)
H123 H 0.21250 0.66150 0.43170
H124 H 0.26540 0.66190 0.50000
C67 C 0.20359(9) 0.75806(7) 0.49974(6)
H125 H 0.14980 0.77160 0.47410
H126 H 0.18900 0.76960 0.54550
C68 C 0.30238(10) 0.80565(8) 0.49131(8)
H127 H 0.31730 0.79400 0.44610
H128 H 0.35530 0.79400 0.51820
H129 H 0.29800 0.85950 0.50420
C69 C -0.06583(9) 0.57364(6) 0.46264(5)
H130 H -0.07580 0.57410 0.50850
H131 H -0.05410 0.52250 0.44190
C70 C -0.15858(9) 0.59084(7) 0.43011(6)
H132 H -0.14490 0.59690 0.38600
H133 H -0.17410 0.63940 0.45420
C71 C -0.24859(11) 0.52881(8) 0.42668(8)
H134 H -0.25260 0.51440 0.46890
H135 H -0.30960 0.54920 0.41790
C72 C -0.24528(15) 0.45895(9) 0.37557(10)
H136 H -0.24610 0.47200 0.33320
H137 H -0.30320 0.42040 0.37700
H138 H -0.18440 0.43910 0.38330
N7 N 0.02240(7) 0.63113(5) 0.45768(4)
H139 H 0.03370 0.62780 0.41550
H140 H 0.00860 0.67820 0.47330
C73 C 0.39111(8) 0.87307(6) -0.01903(5)
H141 H 0.42330 0.88430 -0.05750
H142 H 0.35820 0.91630 -0.00080
C74 C 0.31351(9) 0.80173(7) -0.03857(6)
H143 H 0.34760 0.75870 -0.05550
H144 H 0.26850 0.80790 -0.07400
C75 C 0.25080(9) 0.78155(7) 0.01501(7)
H145 H 0.20530 0.73310 -0.00200
H146 H 0.29530 0.77360 0.05000
C76 C 0.18952(10) 0.84147(9) 0.04296(7)
H147 H 0.14420 0.84900 0.00890
H148 H 0.23400 0.88930 0.06120
H149 H 0.15100 0.82460 0.07670
C77 C 0.55241(8) 0.92954(6) 0.04298(5)
H150 H 0.52740 0.97650 0.06180
H151 H 0.58140 0.93610 0.00230
C78 C 0.63258(9) 0.91649(7) 0.08937(6)
H152 H 0.67080 0.87910 0.06620
H153 H 0.60090 0.89530 0.12420
C79 C 0.70353(9) 0.99031(7) 0.11867(6)
H154 H 0.76520 0.97790 0.13690
H155 H 0.72160 1.01790 0.08430
C80 C 0.65867(10) 1.04176(8) 0.17138(7)
H156 H 0.59780 1.05460 0.15360
H157 H 0.70650 1.08830 0.18800
H158 H 0.64290 1.01540 0.20640
N8 N 0.46833(7) 0.86457(5) 0.02942(4)
H159 H 0.43980 0.86040 0.06660
H160 H 0.49240 0.82110 0.01480
C3A C -0.44689(7) 0.49489(6) 1.01177(5)
O5A O -0.37972(6) 0.55319(4) 1.02042(4)
O6A O -0.43511(6) 0.43171(4) 1.02017(4)
C14A C -0.05270(7) 0.00724(6) 0.48962(5)
O27A O -0.11879(6) -0.05109(4) 0.47020(4)
O28A O -0.06469(6) 0.07380(4) 0.49364(4)
C1A C -0.37552(8) 0.68051(6) 0.88634(5)
C2A C -0.42743(8) 0.74428(6) 0.92365(5)
C4A C -0.46169(8) 0.72959(6) 1.12742(5)
C5A C -0.41139(8) 0.78215(6) 1.19164(5)
C6A C -0.61178(8) 0.95183(6) 1.17313(5)
C7A C -0.64494(8) 0.96457(6) 1.24331(5)
C8A C -0.73445(8) 0.72189(6) 1.26439(5)
C9A C -0.79949(8) 0.75034(6) 1.21623(5)
C10A C -0.93994(8) 0.52456(6) 1.31002(5)
C11A C -0.90597(8) 0.50883(6) 1.24005(5)
C12A C -1.11797(8) 0.70721(6) 1.29720(5)
C13A C -1.06010(8) 0.76082(6) 1.35889(5)
C15A C -1.06667(8) 0.75944(6) 1.56572(5)
C16A C -1.11630(8) 0.82397(6) 1.60404(5)
O1A O -0.36680(6) 0.62792(4) 0.91732(4)
O2A O -0.45163(6) 0.73592(4) 0.97955(4)
O3A O -0.34706(7) 0.68404(5) 0.83322(4)
O4A O -0.44237(6) 0.79815(5) 0.90020(4)
O7A O -0.40450(6) 0.68970(4) 1.09505(4)
O8A O -0.32141(6) 0.78472(5) 1.20408(4)
O9A O -0.54962(6) 0.73056(4) 1.11321(4)
O10A O -0.46681(6) 0.81950(4) 1.22702(4)
O11A O -0.59213(6) 0.88581(4) 1.15024(4)
O12A O -0.64467(6) 0.91123(4) 1.27175(4)
O13A O -0.60673(6) 1.00380(4) 1.14375(4)
O14A O -0.67037(6) 1.02741(4) 1.26488(4)
O15A O -0.64208(6) 0.73701(5) 1.26162(4)
O16A O -0.75477(6) 0.78468(5) 1.17794(4)
O17A O -0.77962(6) 0.68508(5) 1.30110(4)
O18A O -0.89198(6) 0.73623(4) 1.21929(4)
O19A O -0.95212(6) 0.59275(4) 1.33223(4)
O20A O -0.91033(7) 0.55946(5) 1.20905(4)
O21A O -0.95217(7) 0.47345(5) 1.34030(4)
O22A O -0.87503(6) 0.44739(4) 1.22182(4)
O23A O -1.06787(6) 0.66659(4) 1.26023(4)
O24A O -0.97292(6) 0.75540(4) 1.37084(4)
O25A O -1.20801(6) 0.70687(4) 1.28763(4)
O26A O -1.11090(6) 0.80610(4) 1.39175(4)
O29A O -1.05050(6) 0.76435(4) 1.50757(4)
O30A O -1.12828(6) 0.87563(4) 1.57258(4)
O31A O -1.04591(7) 0.70795(5) 1.59014(4)
O32A O -1.13960(7) 0.82170(5) 1.65842(4)
Cu1A Cu -0.42303(2) 0.64415(2) 1.00292(2)
Cu2A Cu -0.60901(2) 0.80813(2) 1.20306(2)
Cu3A Cu -0.92675(2) 0.66819(2) 1.27881(2)
Cu4A Cu -1.08133(2) 0.85471(2) 1.48348(2)
O27A* O -1.11879(6) 0.94891(4) 1.47020(4)
O28* O -0.93531(6) 0.92620(4) 1.50636(4)
Cu4A* Cu -0.08133(2) -0.14529(2) 0.48348(2)
#END
