
#######################################################################
#
#                 Cambridge Crystallographic Data Centre
#                                CCDC
#
#######################################################################
#
# If this CIF has been generated from an entry in the Cambridge
# Structural Database, then it will include bibliographic, chemical,
# crystal, experimental, refinement or atomic coordinate data resulting
# from the CCDC's data processing and validation procedures.
#
#######################################################################

data_CSD_CIF_WEWMUJ01
_audit_creation_date 2019-02-09
_audit_creation_method CSD-ConQuest-V1
_database_code_CSD WEWMUJ01
_database_code_depnum_ccdc_archive 'CCDC 1896311'
_chemical_formula_sum 'C80 H160 Cu4 N8 O32'
_chemical_formula_moiety
;
(C16 Cu4 O32 8-)n,8(C8 H20 N1 1+)
;
_journal_coden_Cambridge 1078
_journal_year 2019
_journal_name_full 'CSD Communication(Private Communication) '
loop_
_publ_author_name
"Bin Zhang"
_chemical_name_systematic
;
catena-[octakis(di-n-butylammonium) 
tetrakis(\m-oxalato)-tetrakis(oxalato)-tetra-copper(ii)]
;
_cell_volume   2617.999
_exptl_crystal_colour 'cyan'
_exptl_crystal_density_diffrn 1.269
_exptl_crystal_description 'block'
_diffrn_ambient_temperature 180
_refine_special_details
;
C27A,C28A and C27B,C28B disordered over two sites with occupancies 
0.585:0.415; C47A,C48A and C47B,C48B disordered over two sites with 
occupancies 0.607:0.393.
;
#These two values have been output from a single CSD field.
_refine_ls_R_factor_gt 0.0659
_refine_ls_wR_factor_gt 0.0659
_symmetry_cell_setting triclinic
_symmetry_space_group_name_H-M 'P -1'
_symmetry_Int_Tables_number 2
loop_
_symmetry_equiv_pos_site_id
_symmetry_equiv_pos_as_xyz
1 x,y,z
2 -x,-y,-z
_cell_length_a 13.5224(4)
_cell_length_b 13.7774(4)
_cell_length_c 16.3936(5)
_cell_angle_alpha 109.481(3)
_cell_angle_beta 91.465(2)
_cell_angle_gamma 112.531(3)
_cell_formula_units_Z 1
loop_
_atom_type_symbol
_atom_type_radius_bond
C 0.68
H 0.23
Cu 1.32
N 0.68
O 0.68
loop_
_atom_site_label
_atom_site_type_symbol
_atom_site_fract_x
_atom_site_fract_y
_atom_site_fract_z
C1 C 0.2776(3) 1.2146(3) 0.5569(3)
H1 H 0.26910 1.28670 0.57820
H2 H 0.34010 1.22540 0.52530
C2 C 0.3008(4) 1.1863(4) 0.6339(3)
H3 H 0.30830 1.11360 0.61220
H4 H 0.23840 1.17610 0.66550
C3 C 0.4038(5) 1.2771(5) 0.6979(4)
H5 H 0.39360 1.34780 0.72440
H6 H 0.46500 1.29290 0.66530
C4 C 0.4325(6) 1.2414(8) 0.7713(5)
H7 H 0.37690 1.23580 0.80880
H8 H 0.50340 1.29780 0.80680
H9 H 0.43570 1.16760 0.74530
C5 C 0.1440(5) 1.1482(4) 0.4198(3)
H10 H 0.15160 1.22740 0.44080
H11 H 0.06670 1.09770 0.39420
C6 C 0.2129(11) 1.1312(10) 0.3504(5)
H12 H 0.28960 1.18430 0.37650
H13 H 0.20850 1.05340 0.33310
C7 C 0.1831(12) 1.1479(10) 0.2709(6)
H14 H 0.19270 1.22730 0.28670
H15 H 0.10560 1.09800 0.24570
C8 C 0.252(2) 1.122(2) 0.2034(9)
H16 H 0.25210 1.04810 0.19490
H17 H 0.32690 1.18050 0.22390
H18 H 0.22260 1.12060 0.14760
N1 N 0.1771(3) 1.1237(2) 0.4950(2)
H19 H 0.18740 1.05890 0.47350
H20 H 0.12140 1.11070 0.52570
C9 C -0.4623(4) 0.2154(4) 0.0487(3)
H21 H -0.48600 0.20320 0.10250
H22 H -0.51580 0.15320 -0.00270
C10 C -0.4584(6) 0.3273(6) 0.0510(7)
H23 H -0.43860 0.33760 -0.00420
H24 H -0.40210 0.38980 0.10050
C11 C -0.5690(9) 0.331(1) 0.0619(13)
H25 H -0.62460 0.27030 0.01110
H26 H -0.59010 0.31740 0.11580
C12 C -0.565(2) 0.4432(19) 0.068(3)
H27 H -0.55880 0.44970 0.01030
H28 H -0.50110 0.50370 0.11110
H29 H -0.63100 0.44960 0.08620
C13 C -0.3490(3) 0.1097(3) 0.0442(3)
H30 H -0.40000 0.04430 -0.00690
H31 H -0.37240 0.09810 0.09830
C14 C -0.2363(5) 0.1142(6) 0.0414(5)
H32 H -0.21060 0.13290 -0.00980
H33 H -0.18680 0.17580 0.09510
C15 C -0.2301(6) 0.0067(8) 0.0349(6)
H34 H -0.28130 -0.05560 -0.01770
H35 H -0.25270 -0.01060 0.08720
C16 C -0.1149(10) 0.0124(15) 0.0285(11)
H36 H -0.10000 0.00810 -0.03050
H37 H -0.10950 -0.05100 0.03980
H38 H -0.06170 0.08400 0.07210
N2 N -0.3543(2) 0.2137(3) 0.04290(19)
H39 H -0.33440 0.22270 -0.00760
H40 H -0.30510 0.27370 0.08870
C17 C 0.0329(4) 0.6365(4) 0.1085(3)
H41 H -0.03540 0.56860 0.07830
H42 H 0.07670 0.65320 0.06340
C18 C 0.0064(7) 0.7371(6) 0.1575(6)
H43 H -0.02410 0.72620 0.20960
H44 H 0.07490 0.80680 0.17880
C19 C -0.0688(12) 0.7532(12) 0.1057(10)
H45 H -0.05430 0.73670 0.04480
H46 H -0.05940 0.83290 0.13060
C20 C -0.1802(13) 0.6780(18) 0.1051(13)
H47 H -0.22790 0.71680 0.10630
H48 H -0.18220 0.65730 0.15690
H49 H -0.20520 0.60940 0.05180
C21 C 0.1263(4) 0.5204(4) 0.1297(3)
H50 H 0.17380 0.53800 0.08700
H51 H 0.06070 0.45020 0.09750
C22 C 0.1856(9) 0.5021(8) 0.1980(7)
H52 H 0.26080 0.56180 0.21450
H53 H 0.15120 0.51610 0.25070
C23 C 0.0822(15) 0.3008(16) 0.1762(14)
H54 H 0.03440 0.27810 0.12100
H55 H 0.04960 0.33060 0.22590
H56 H 0.09170 0.23510 0.17950
N3 N 0.0941(2) 0.6143(2) 0.17064(19)
H57 H 0.05260 0.59840 0.21130
H58 H 0.15510 0.67840 0.19960
C24 C 0.1937(16) 0.3932(15) 0.1797(16)
H59 H 0.24780 0.40150 0.22630
H60 H 0.21860 0.37090 0.12290
H61? H 0.12510 0.45460 0.21940
H62? H 0.21500 0.44970 0.16160
C25? C 0.2605(11) 0.5610(12) 0.2685(8)
H63? H 0.23830 0.61890 0.30670
H64? H 0.32770 0.60240 0.24960
C26? C 0.2941(16) 0.5080(17) 0.3285(11)
H65? H 0.23590 0.48380 0.36140
H66? H 0.36110 0.56440 0.36980
H67? H 0.30650 0.44240 0.29220
C27 C 0.4276(3) 0.9475(3) 0.2155(2)
C28 C 0.3253(3) 0.8342(3) 0.1888(2)
C29 C 0.4958(2) 1.0581(2) 0.51716(17)
C30 C 0.1303(3) 0.8160(2) 0.40095(19)
C31 C 0.0152(3) 0.8165(3) 0.4115(2)
C32 C -0.1454(3) 0.4531(3) 0.2186(2)
C33 C -0.2277(4) 0.4012(3) 0.2740(2)
C34 C -0.0108(3) 0.5445(3) 0.5378(2)
O1 O 0.44852(19) 1.0079(2) 0.29811(15)
O2 O 0.2745(2) 0.8197(2) 0.25161(15)
O3 O 0.4791(3) 0.9712(3) 0.15955(19)
O4 O 0.2960(3) 0.7659(3) 0.11289(17)
O5 O 0.20477(18) 0.91251(18) 0.41046(16)
O6 O 0.0039(2) 0.9041(2) 0.42190(19)
O7 O 0.1393(2) 0.72700(19) 0.38470(16)
O8 O -0.05972(19) 0.72505(19) 0.40769(17)
O9 O 0.42282(17) 1.06647(18) 0.47384(14)
O10 O 0.55989(18) 1.13341(17) 0.58342(14)
O11 O -0.0588(2) 0.5383(2) 0.26321(15)
O12 O -0.2078(3) 0.4553(2) 0.35451(18)
O13 O -0.1668(2) 0.4119(2) 0.13783(17)
O14 O -0.3057(3) 0.3096(3) 0.23231(19)
O15 O -0.0249(3) 0.6203(2) 0.51975(16)
O16 O -0.0116(3) 0.5334(2) 0.61075(16)
Cu1 Cu 0.34311(3) 0.93647(3) 0.36633(2)
Cu2 Cu -0.03470(4) 0.58954(3) 0.39231(3)
C35 C -0.1528(7) 0.0915(7) 0.3492(9)
H68 H -0.08670 0.16370 0.37100
H69 H -0.15790 0.05470 0.39240
C36 C -0.1435(13) 0.0207(11) 0.2678(8)
H70 H -0.10650 0.06660 0.23410
H71 H -0.21610 -0.03420 0.23480
H72 H -0.10130 -0.01960 0.27780
C37 C -0.4675(13) 0.3165(9) 0.4281(10)
H73 H -0.53210 0.24900 0.42570
H74 H -0.47400 0.32410 0.37050
C38 C -0.4706(18) 0.4217(12) 0.4993(16)
H75 H -0.47660 0.47290 0.47110
H76 H -0.53650 0.39730 0.52560
C39 C -0.370(3) 0.488(3) 0.5731(15)
H77 H -0.33410 0.43870 0.57410
H78 H -0.39330 0.51290 0.62970
H79 H -0.32000 0.55380 0.56240
N4 N -0.3619(3) 0.2180(3) 0.3596(2)
H80 H -0.35370 0.24930 0.31790
H81 H -0.42450 0.15360 0.34060
C40 C -0.3685(8) 0.2954(5) 0.4401(4)
H82 H -0.30270 0.36760 0.45870
H83 H -0.37250 0.26370 0.48660
C41 C -0.2704(7) 0.1906(7) 0.3717(12)
H84 H -0.20850 0.25360 0.36480
H85 H -0.25980 0.20490 0.43530
C42 C -0.2493(8) 0.1154(8) 0.3418(13)
H86 H -0.26810 0.09540 0.27780
H87 H -0.30640 0.05450 0.35500
H88? H -0.46180 0.38040 0.48150
H89? H -0.53060 0.24910 0.42780
C43? C -0.4975(11) 0.3427(13) 0.3483(13)
H90? H -0.48510 0.29190 0.29470
H91? H -0.57610 0.32560 0.34080
C44? C -0.4323(18) 0.4669(16) 0.357(2)
H92? H -0.44520 0.47380 0.30040
H93? H -0.35450 0.48870 0.37380
H94? H -0.45580 0.51680 0.40190
C29A C 0.5042(2) 0.9419(2) 0.48284(17)
O9A O 0.57718(17) 0.93353(18) 0.52616(14)
O10A O 0.44011(18) 0.86659(17) 0.41658(14)
C34A C 0.0108(3) 0.4555(3) 0.4622(2)
O15A O 0.0249(3) 0.3797(2) 0.48025(16)
O16A O 0.0116(3) 0.4666(2) 0.38925(16)
C27A C -0.4276(3) 0.0525(3) 0.7845(2)
C28A C -0.3253(3) 0.1658(3) 0.8112(2)
C30A C -0.1303(3) 0.1840(2) 0.59905(19)
C31A C -0.0152(3) 0.1835(3) 0.5885(2)
C32A C 0.1454(3) 0.5469(3) 0.7814(2)
C33A C 0.2277(4) 0.5988(3) 0.7260(2)
O1A O -0.44852(19) -0.0079(2) 0.70189(15)
O2A O -0.2745(2) 0.1803(2) 0.74839(15)
O3A O -0.4791(3) 0.0288(3) 0.84045(19)
O4A O -0.2960(3) 0.2341(3) 0.88711(17)
O5A O -0.20477(18) 0.08749(18) 0.58954(16)
O6A O -0.0039(2) 0.0959(2) 0.57810(19)
O7A O -0.1393(2) 0.27300(19) 0.61530(16)
O8A O 0.05972(19) 0.27495(19) 0.59231(17)
O11A O 0.0588(2) 0.4617(2) 0.73679(15)
O12A O 0.2078(3) 0.5447(2) 0.64549(18)
O13A O 0.1668(2) 0.5881(2) 0.86217(17)
O14A O 0.3057(3) 0.6904(3) 0.76769(19)
Cu1A Cu -0.34311(3) 0.06353(3) 0.63367(2)
Cu2A Cu 0.03470(4) 0.41046(3) 0.60769(3)
O9A* O -0.42282(17) -0.06647(18) 0.52616(14)
O10* O -0.44011(18) 0.13341(17) 0.58342(14)
Cu1A* Cu 0.65689(3) 1.06353(3) 0.63367(2)
#END
