
#######################################################################
#
#                 Cambridge Crystallographic Data Centre
#                                CCDC
#
#######################################################################
#
# If this CIF has been generated from an entry in the Cambridge
# Structural Database, then it will include bibliographic, chemical,
# crystal, experimental, refinement or atomic coordinate data resulting
# from the CCDC's data processing and validation procedures.
#
#######################################################################

data_CSD_CIF_WEWMUJ
_audit_creation_date 2018-05-18
_audit_creation_method CSD-ConQuest-V1
_database_code_CSD WEWMUJ
_database_code_depnum_ccdc_archive 'CCDC 1843936'
_chemical_formula_sum 'C80 H160 Cu4 N8 O32'
_chemical_formula_moiety
;
(C16 Cu4 O32 8-)n,8(C8 H20 N1 1+)
;
_journal_coden_Cambridge 1078
_journal_year 2018
_journal_name_full 'CSD Communication(Private Communication) '
loop_
_publ_author_name
"Bin Zhang"
_chemical_name_systematic
;
catena-[octakis(di-n-butylammonium) 
tetrakis(\m-oxalato)-tetrakis(oxalato)-tetra-copper(ii)]
;
_cell_volume   2615.393
_exptl_crystal_colour 'green'
_exptl_crystal_density_diffrn 1.27
_exptl_crystal_description 'needle'
_diffrn_ambient_temperature 170
_refine_special_details
;
The structure is disordered.

;
#These two values have been output from a single CSD field.
_refine_ls_R_factor_gt 0.082
_refine_ls_wR_factor_gt 0.082
_symmetry_cell_setting triclinic
_symmetry_space_group_name_H-M 'P -1'
_symmetry_Int_Tables_number 2
loop_
_symmetry_equiv_pos_site_id
_symmetry_equiv_pos_as_xyz
1 x,y,z
2 -x,-y,-z
_cell_length_a 13.4579(4)
_cell_length_b 13.7234(4)
_cell_length_c 16.3627(5)
_cell_angle_alpha 109.330(3)
_cell_angle_beta 90.691(2)
_cell_angle_gamma 111.833(3)
_cell_formula_units_Z 1
loop_
_atom_type_symbol
_atom_type_radius_bond
C 0.68
H 0.23
Cu 1.32
N 0.68
O 0.68
loop_
_atom_site_label
_atom_site_type_symbol
_atom_site_fract_x
_atom_site_fract_y
_atom_site_fract_z
C1 C 0.2757(4) 1.2101(4) 0.5588(4)
H1 H 0.26630 1.28210 0.58050
H2 H 0.33970 1.22120 0.52820
C2 C 0.2949(5) 1.1782(6) 0.6353(4)
H3 H 0.30410 1.10610 0.61330
H4 H 0.23040 1.16650 0.66540
C3 C 0.3951(7) 1.2681(9) 0.7014(5)
H5 H 0.38300 1.33800 0.72850
H6 H 0.45860 1.28550 0.67060
C4 C 0.4185(10) 1.2263(12) 0.7739(6)
H7 H 0.36490 1.22750 0.81380
H8 H 0.49120 1.27570 0.80690
H9 H 0.41410 1.14920 0.74690
C5 C 0.1483(6) 1.1491(5) 0.4214(4)
H10 H 0.15580 1.22830 0.44260
H11 H 0.07150 1.10030 0.39600
C6 C 0.2181(11) 1.1322(10) 0.3513(5)
H12 H 0.29460 1.18240 0.37670
H13 H 0.21220 1.05360 0.33180
C7 C 0.1888(13) 1.1551(10) 0.2737(6)
H14 H 0.19880 1.23490 0.29240
H15 H 0.11130 1.10790 0.24990
C8 C 0.255(2) 1.1318(17) 0.2025(8)
H16 H 0.32980 1.18850 0.22160
H17 H 0.22420 1.13490 0.14940
H18 H 0.25510 1.05680 0.19010
N1 N 0.1786(4) 1.1223(3) 0.4967(3)
H19 H 0.12160 1.10880 0.52680
H20 H 0.18980 1.05760 0.47520
C9 C -0.4623(5) 0.2222(6) 0.0545(5)
H21 H -0.48650 0.20680 0.10750
H22 H -0.51570 0.16330 0.00310
C10 C -0.4589(7) 0.3348(8) 0.0614(7)
H23 H -0.43380 0.35050 0.00870
H24 H -0.40600 0.39350 0.11310
C11 C -0.5698(10) 0.3414(10) 0.0699(11)
H25 H -0.59640 0.32290 0.12130
H26 H -0.62210 0.28500 0.01700
C12 C -0.5640(17) 0.4598(19) 0.081(2)
H27 H -0.51660 0.51500 0.13550
H28 H -0.63680 0.45970 0.08250
H29 H -0.53490 0.47970 0.03120
C13 C -0.3513(4) 0.1107(5) 0.0465(4)
H30 H -0.40370 0.04650 -0.00290
H31 H -0.37320 0.10050 0.10160
C14 C -0.2397(6) 0.1106(7) 0.0393(5)
H32 H -0.18820 0.17100 0.09110
H33 H -0.21540 0.12660 -0.01350
C15 C -0.2386(6) -0.0024(8) 0.0334(6)
H34 H -0.29100 -0.06270 -0.01810
H35 H -0.26270 -0.01780 0.08640
C16 C -0.1246(9) -0.0060(12) 0.0250(8)
H36 H -0.10810 -0.00980 -0.03390
H37 H -0.12420 -0.07250 0.03490
H38 H -0.06990 0.06210 0.06870
N2 N -0.3554(4) 0.2167(4) 0.0453(3)
H39 H -0.30540 0.27560 0.08980
H40 H -0.33640 0.22490 -0.00600
C17 C 0.0396(5) 0.6399(5) 0.1075(4)
H41 H -0.02950 0.57460 0.07870
H42 H 0.08410 0.65380 0.06170
C18 C 0.0168(9) 0.7430(6) 0.1557(7)
H43 H -0.00420 0.73860 0.21260
H44 H 0.08540 0.81020 0.16880
C19 C -0.0605(13) 0.7598(12) 0.1151(13)
H45 H -0.04520 0.75370 0.05500
H46 H -0.05320 0.83800 0.14650
C20 C -0.1750(11) 0.6831(15) 0.1086(11)
H47 H -0.18390 0.60500 0.07840
H48 H -0.22260 0.70110 0.07560
H49 H -0.19390 0.69280 0.16760
C21 C 0.1266(6) 0.5169(5) 0.1281(4)
H50 H 0.18410 0.53650 0.09200
H51 H 0.06260 0.45210 0.08920
C22 C 0.1701(10) 0.4825(10) 0.2055(7)
C23 C 0.1816(16) 0.3774(13) 0.1672(10)
C24 C 0.0779(18) 0.302(2) 0.1709(16)
H52 H 0.05140 0.33680 0.22340
H53 H 0.08270 0.23300 0.17310
H54 H 0.02790 0.28260 0.11860
N3 N 0.0972(3) 0.6146(3) 0.1693(3)
H55 H 0.05480 0.60080 0.21050
H56 H 0.15880 0.67650 0.19740
C25 C 0.4295(5) 0.9421(5) 0.2120(4)
C26 C 0.3309(5) 0.8299(5) 0.1880(4)
C27 C 0.4955(3) 1.0583(3) 0.5147(3)
C28 C 0.1313(4) 0.8144(4) 0.3993(3)
C29 C 0.0166(4) 0.8160(4) 0.4099(3)
C30 C -0.1459(4) 0.4534(4) 0.2177(3)
C31 C -0.2297(5) 0.4032(5) 0.2730(3)
C32 C -0.0143(5) 0.5423(4) 0.5370(3)
O1 O 0.4502(3) 1.0031(3) 0.2950(2)
O2 O 0.2794(3) 0.8148(3) 0.2516(2)
O3 O 0.4795(4) 0.9669(4) 0.1556(3)
O4 O 0.3020(4) 0.7600(4) 0.1121(2)
O5 O 0.2066(3) 0.9089(3) 0.4098(2)
O6 O 0.0059(3) 0.9055(3) 0.4211(3)
O7 O 0.1390(3) 0.7229(3) 0.3818(2)
O8 O -0.0601(3) 0.7249(3) 0.4054(2)
O9 O 0.4222(3) 1.0647(3) 0.4705(2)
O10 O 0.5587(3) 1.1352(2) 0.5796(2)
O11 O -0.0589(3) 0.5374(3) 0.2620(2)
O12 O -0.2093(3) 0.4563(3) 0.3542(2)
O13 O -0.1648(3) 0.4121(3) 0.1369(2)
O14 O -0.3090(4) 0.3140(4) 0.2316(2)
O15 O -0.0337(3) 0.6163(3) 0.5176(2)
O16 O -0.0140(4) 0.5330(3) 0.6104(2)
Cu1 Cu 0.34539(5) 0.93354(5) 0.36449(4)
Cu2 Cu -0.03879(6) 0.58711(5) 0.39049(4)
C33? C -0.3161(17) 0.4118(17) 0.5381(14)
N4? N -0.2361(14) 0.2759(15) 0.4476(12)
C34? C -0.2653(7) 0.1690(11) 0.3953(8)
C35? C -0.219(2) 0.1303(17) 0.3019(13)
C36? C -0.1501(8) 0.1038(10) 0.3486(7)
H57? H -0.18750 0.06560 0.38800
H58? H -0.08370 0.17030 0.38180
C37? C -0.1268(14) 0.0203(12) 0.2643(9)
H59? H -0.19560 -0.03650 0.22820
H60? H -0.08610 -0.01700 0.28300
H61? H -0.08430 0.06300 0.23010
C38? C -0.263(2) 0.181(3) 0.332(3)
C39? C -0.3603(10) 0.2950(6) 0.4547(8)
C40? C -0.4897(14) 0.3021(14) 0.4184(11)
C41? C -0.5023(16) 0.3416(17) 0.3429(13)
C42? C -0.4477(18) 0.4766(18) 0.3596(14)
C43? C -0.4608(10) 0.2308(10) 0.3294(8)
N5? N -0.3629(5) 0.2159(5) 0.3585(4)
C44? C -0.4198(15) 0.4157(14) 0.5643(12)
C45? C 0.296(2) 0.507(2) 0.3297(17)
C46? C 0.238(4) 0.538(4) 0.225(2)
C47? C -0.4117(19) 0.5326(19) 0.6225(15)
C27A C 0.5045(3) 0.9417(3) 0.4853(3)
O9A O 0.5778(3) 0.9353(3) 0.5295(2)
O10A O 0.4413(3) 0.8648(2) 0.4204(2)
C32A C 0.0143(5) 0.4577(4) 0.4630(3)
O15A O 0.0337(3) 0.3837(3) 0.4824(2)
O16A O 0.0140(4) 0.4670(3) 0.3896(2)
C25A C -0.4295(5) 0.0579(5) 0.7880(4)
C26A C -0.3309(5) 0.1701(5) 0.8120(4)
C28A C -0.1313(4) 0.1856(4) 0.6007(3)
C29A C -0.0166(4) 0.1840(4) 0.5901(3)
C30A C 0.1459(4) 0.5466(4) 0.7823(3)
C31A C 0.2297(5) 0.5968(5) 0.7270(3)
O1A O -0.4502(3) -0.0031(3) 0.7050(2)
O2A O -0.2794(3) 0.1852(3) 0.7484(2)
O3A O -0.4795(4) 0.0331(4) 0.8444(3)
O4A O -0.3020(4) 0.2400(4) 0.8879(2)
O5A O -0.2066(3) 0.0911(3) 0.5902(2)
O6A O -0.0059(3) 0.0945(3) 0.5789(3)
O7A O -0.1390(3) 0.2771(3) 0.6182(2)
O8A O 0.0601(3) 0.2751(3) 0.5946(2)
O11A O 0.0589(3) 0.4626(3) 0.7380(2)
O12A O 0.2093(3) 0.5437(3) 0.6458(2)
O13A O 0.1648(3) 0.5879(3) 0.8631(2)
O14A O 0.3090(4) 0.6860(4) 0.7684(2)
Cu1A Cu -0.34539(5) 0.06646(5) 0.63551(4)
Cu2A Cu 0.03879(6) 0.41289(5) 0.60951(4)
O9A* O -0.4222(3) -0.0647(3) 0.5295(2)
O10* O -0.4413(3) 0.1352(2) 0.5796(2)
Cu1A* Cu 0.65461(5) 1.06646(5) 0.63551(4)
#END
