
#######################################################################
#
#                 Cambridge Crystallographic Data Centre
#                                CCDC
#
#######################################################################
#
# If this CIF has been generated from an entry in the Cambridge
# Structural Database, then it will include bibliographic, chemical,
# crystal, experimental, refinement or atomic coordinate data resulting
# from the CCDC's data processing and validation procedures.
#
#######################################################################

data_CSD_CIF_WEWMUJ03
_audit_creation_date 2019-02-09
_audit_creation_method CSD-ConQuest-V1
_database_code_CSD WEWMUJ03
_database_code_depnum_ccdc_archive 'CCDC 1896314'
_chemical_formula_sum 'C160 H320 Cu8 N16 O64'
_chemical_formula_moiety
;
(C32 Cu8 O64 16-)n,16(C8 H20 N1 1+)
;
_journal_coden_Cambridge 1078
_journal_year 2019
_journal_name_full 'CSD Communication(Private Communication) '
loop_
_publ_author_name
"Bin Zhang"
_chemical_name_systematic
;
catena-[hexadecakis(di-n-butylammonium) 
octakis(\m-oxalato)-octakis(oxalato)-octa-copper(ii)]
;
_cell_volume   5177.443
_exptl_crystal_colour 'cyan'
_exptl_crystal_density_diffrn 1.283
_exptl_crystal_description 'block'
_diffrn_ambient_temperature 140
#These two values have been output from a single CSD field.
_refine_ls_R_factor_gt 0.0403
_refine_ls_wR_factor_gt 0.0403
_symmetry_cell_setting triclinic
_symmetry_space_group_name_H-M 'P -1'
_symmetry_Int_Tables_number 2
loop_
_symmetry_equiv_pos_site_id
_symmetry_equiv_pos_as_xyz
1 x,y,z
2 -x,-y,-z
_cell_length_a 13.7175(1)
_cell_length_b 18.3394(2)
_cell_length_c 21.3555(2)
_cell_angle_alpha 101.865(1)
_cell_angle_beta 92.098(1)
_cell_angle_gamma 99.145(1)
_cell_formula_units_Z 1
loop_
_atom_type_symbol
_atom_type_radius_bond
C 0.68
H 0.23
Cu 1.32
N 0.68
O 0.68
loop_
_atom_site_label
_atom_site_type_symbol
_atom_site_fract_x
_atom_site_fract_y
_atom_site_fract_z
C1 C -0.62613(15) 0.32052(11) 1.11278(9)
C2 C -0.57418(14) 0.25679(10) 1.07606(9)
C3 C -0.55255(12) 0.50508(10) 0.98810(8)
C4 C -0.53830(14) 0.27001(10) 0.87235(8)
C5 C -0.58801(14) 0.21753(10) 0.80814(8)
C6 C -0.38920(14) 0.04742(10) 0.82731(9)
C7 C -0.35506(14) 0.03476(11) 0.75744(9)
C8 C -0.26586(14) 0.27631(10) 0.73578(9)
C9 C -0.20112(14) 0.24854(10) 0.78409(9)
C10 C -0.06221(15) 0.47330(11) 0.68974(10)
C11 C -0.09560(16) 0.48938(11) 0.75968(10)
C12 C 0.11623(14) 0.29135(10) 0.70255(8)
C13 C 0.05947(13) 0.23821(9) 0.64061(8)
C14 C 0.05245(12) -0.00707(10) 0.51034(8)
C15 C 0.06791(15) 0.24064(10) 0.43417(9)
C16 C 0.11674(15) 0.17599(10) 0.39581(9)
O1 O -0.63435(11) 0.37261(7) 1.08172(6)
O2 O -0.54923(11) 0.26479(7) 1.02025(6)
O3 O -0.65462(14) 0.31754(10) 1.16584(8)
O4 O -0.56018(12) 0.20319(8) 1.09936(7)
O5 O -0.61933(9) 0.44686(7) 0.97880(7)
O6 O -0.5640(1) 0.56817(7) 0.98018(7)
O7 O -0.59547(10) 0.30999(8) 0.90464(6)
O8 O -0.6771(1) 0.21572(8) 0.79536(7)
O9 O -0.4514(1) 0.26881(8) 0.88669(7)
O10 O -0.53291(10) 0.17954(8) 0.77349(6)
O11 O -0.40871(10) 0.11336(7) 0.85015(6)
O12 O -0.35547(12) 0.08760(8) 0.72900(7)
O13 O -0.39514(12) -0.00441(8) 0.85645(7)
O14 O -0.32900(11) -0.02749(8) 0.73618(7)
O15 O -0.35784(10) 0.26102(8) 0.73861(7)
O16 O -0.24569(10) 0.21445(8) 0.82232(7)
O17 O -0.22083(11) 0.31272(9) 0.69902(7)
O18 O -0.10912(10) 0.26279(8) 0.78082(7)
O19 O -0.04931(11) 0.40547(7) 0.66774(7)
O20 O -0.09144(13) 0.43917(9) 0.79057(7)
O21 O -0.05094(14) 0.52379(9) 0.65923(8)
O22 O -0.12569(13) 0.55082(8) 0.77812(8)
O23 O 0.06632(10) 0.33204(8) 0.73932(6)
O24 O -0.02727(10) 0.24319(8) 0.62882(6)
O25 O 0.20544(10) 0.29141(8) 0.71245(7)
O26 O 0.11061(10) 0.19381(7) 0.60749(6)
O27 O 0.11827(9) 0.05124(7) 0.52907(6)
O28 O 0.06422(10) -0.07322(7) 0.50679(7)
O29 O 0.05145(11) 0.23580(7) 0.49206(6)
O30 O 0.12802(11) 0.12441(7) 0.42696(6)
O31 O 0.04813(13) 0.29206(9) 0.41003(7)
O32 O 0.14002(14) 0.17800(9) 0.34154(7)
Cu1 Cu -0.57714(2) 0.35602(2) 0.99641(2)
Cu2 Cu -0.39128(2) 0.19047(2) 0.79725(2)
Cu3 Cu -0.07436(2) 0.33034(2) 0.72115(2)
Cu4 Cu 0.08099(2) 0.14526(2) 0.51592(2)
C17 C 0.15348(15) 0.28866(12) 0.87183(10)
H1 H 0.17010 0.23770 0.85650
H2 H 0.08580 0.28840 0.85390
C18 C 0.15525(16) 0.30568(14) 0.94446(11)
H3 H 0.12840 0.35280 0.95930
H4 H 0.22470 0.31420 0.96250
C19 C 0.0954(2) 0.24217(15) 0.96975(13)
H5 H 0.12780 0.19700 0.96050
H6 H 0.02840 0.22870 0.94730
C20 C 0.0862(2) 0.26520(19) 1.04226(14)
H7 H 0.04710 0.30600 1.05100
H8 H 0.15230 0.28280 1.06420
H9 H 0.05340 0.22160 1.05780
C21 C 0.20384(16) 0.42437(11) 0.86373(10)
H10 H 0.21090 0.44320 0.91080
H11 H 0.13470 0.42440 0.84870
C22 C 0.27357(19) 0.47634(12) 0.83262(11)
H12 H 0.26680 0.45700 0.78560
H13 H 0.34250 0.47610 0.84780
C23 C 0.2534(3) 0.55752(15) 0.84762(14)
H14 H 0.18650 0.55830 0.82890
H15 H 0.25380 0.57500 0.89470
C24 C 0.3288(4) 0.61211(18) 0.82172(18)
H16 H 0.32570 0.59710 0.77480
H17 H 0.39540 0.61090 0.83940
H18 H 0.31400 0.66340 0.83430
N1 N 0.22511(12) 0.34546(9) 0.84790(8)
H19 H 0.28700 0.34550 0.86480
H20 H 0.22500 0.33060 0.80450
C25 C 0.37960(18) 0.22165(13) 0.64376(11)
H21 H 0.44230 0.20170 0.64620
H22 H 0.38810 0.27170 0.67360
C26 C 0.3578(3) 0.23086(18) 0.57582(14)
H23 H 0.34810 0.18050 0.54650
H24 H 0.29510 0.25090 0.57390
C27 C 0.4360(3) 0.2814(2) 0.55293(19)
H25 H 0.49780 0.25980 0.55100
H26 H 0.44930 0.33120 0.58320
C28 C 0.4032(6) 0.2916(3) 0.4849(2)
H27 H 0.38310 0.24180 0.45630
H28 H 0.45860 0.32020 0.46770
H29 H 0.34730 0.31920 0.48810
C29 C 0.30383(15) 0.08752(11) 0.64312(9)
H30 H 0.36830 0.07810 0.65910
H31 H 0.29950 0.07340 0.59570
C30 C 0.22070(15) 0.03926(12) 0.66834(10)
H32 H 0.15650 0.05050 0.65380
H33 H 0.22670 0.05230 0.71580
C31 C 0.22218(17) -0.04488(12) 0.64552(11)
H34 H 0.22150 -0.05700 0.59810
H35 H 0.28450 -0.05660 0.66270
C32 C 0.1355(2) -0.09443(15) 0.66603(14)
H36 H 0.07350 -0.08390 0.64850
H37 H 0.13670 -0.08380 0.71300
H38 H 0.14010 -0.14770 0.64990
N2 N 0.29818(12) 0.16921(9) 0.66398(8)
H39 H 0.29860 0.18080 0.70750
H40 H 0.23940 0.17730 0.64800
C33 C 0.26472(19) -0.03133(14) 0.41029(11)
H41 H 0.30370 -0.06910 0.38900
H42 H 0.21690 -0.05640 0.43610
C34 C 0.33347(19) 0.03321(18) 0.45407(11)
H43 H 0.36200 0.01340 0.48910
H44 H 0.29340 0.07110 0.47390
C35 C 0.4181(2) 0.0735(2) 0.42339(15)
H45 H 0.39060 0.09130 0.38690
H46 H 0.45170 0.11850 0.45510
C36 C 0.4943(2) 0.0246(3) 0.39944(17)
H47 H 0.46220 -0.01970 0.36730
H48 H 0.52380 0.00810 0.43550
H49 H 0.54630 0.05400 0.38000
C37 C 0.12830(17) -0.06381(12) 0.32492(11)
H50 H 0.07790 -0.07650 0.35470
H51 H 0.15540 -0.11010 0.30730
C38 C 0.08017(18) -0.03710(13) 0.27049(13)
H52 H 0.13120 -0.02370 0.24120
H53 H 0.05310 0.00910 0.28840
C39 C -0.0027(2) -0.09659(14) 0.23235(15)
H54 H 0.02420 -0.14300 0.21460
H55 H -0.05410 -0.10970 0.26140
C40 C -0.0490(3) -0.06937(18) 0.17831(19)
H56 H -0.00110 -0.06430 0.14580
H57 H -0.06810 -0.02020 0.19500
H58 H -0.10770 -0.10590 0.15890
N3 N 0.20973(12) -0.00405(9) 0.36068(8)
H59 H 0.25260 0.01090 0.33240
H60 H 0.18360 0.03680 0.37990
C41 C 0.24228(16) 0.14868(12) 0.19828(10)
H61 H 0.22910 0.19910 0.19410
H62 H 0.21790 0.13910 0.23940
C42 C 0.18604(17) 0.08898(13) 0.14335(11)
H63 H 0.20160 0.03910 0.14730
H64 H 0.11430 0.08730 0.14820
C43 C 0.2069(2) 0.09996(17) 0.07674(13)
H65 H 0.27370 0.08860 0.06720
H66 H 0.20690 0.15350 0.07520
C44 C 0.1311(3) 0.0496(2) 0.02546(16)
H67 H 0.14370 0.06240 -0.01620
H68 H 0.06430 0.05760 0.03650
H69 H 0.13650 -0.00350 0.02320
C45 C 0.40574(16) 0.19842(12) 0.25815(10)
H70 H 0.37740 0.18340 0.29650
H71 H 0.39800 0.25150 0.25970
C46 C 0.51451(18) 0.19280(14) 0.25935(12)
H72 H 0.54220 0.20640 0.22030
H73 H 0.52210 0.13990 0.25880
C47 C 0.5722(2) 0.24443(18) 0.31820(15)
H74 H 0.54490 0.23050 0.35720
H75 H 0.56390 0.29720 0.31890
C48 C 0.6819(2) 0.2398(2) 0.31948(19)
H76 H 0.70940 0.25370 0.28100
H77 H 0.69070 0.18800 0.32050
H78 H 0.71630 0.27460 0.35780
N4 N 0.35103(13) 0.14901(9) 0.19937(8)
H79 H 0.36240 0.10090 0.19660
H80 H 0.37480 0.16500 0.16440
C49 C 0.22058(15) 0.34283(11) 0.3021(1)
H81 H 0.24510 0.35570 0.26200
H82 H 0.23920 0.29370 0.30550
C50 C 0.26845(18) 0.40334(14) 0.35900(11)
H83 H 0.25210 0.45280 0.35460
H84 H 0.24140 0.39170 0.39880
C51 C 0.3793(2) 0.40846(18) 0.36394(13)
H85 H 0.40570 0.41760 0.32320
H86 H 0.39550 0.35960 0.37020
C52 C 0.4299(3) 0.4716(3) 0.41932(17)
H87 H 0.40600 0.51870 0.41710
H88 H 0.50170 0.47870 0.41600
H89 H 0.41430 0.45780 0.46020
C53 C 0.05950(15) 0.28475(11) 0.24082(10)
H90 H 0.07580 0.23350 0.23780
H91 H 0.08260 0.30320 0.20260
C54 C -0.05191(17) 0.28087(16) 0.24193(12)
H92 H -0.06690 0.33290 0.25210
H93 H -0.07600 0.25530 0.27640
C55 C -0.10706(19) 0.23845(18) 0.17815(14)
H94 H -0.17900 0.23650 0.18240
H95 H -0.08810 0.26740 0.14480
C56 C -0.0874(2) 0.15824(17) 0.15563(15)
H96 H -0.13030 0.13330 0.11700
H97 H -0.10130 0.13000 0.18950
H98 H -0.01790 0.15970 0.14590
N5 N 0.11102(13) 0.33618(9) 0.29964(8)
H99 H 0.08860 0.31910 0.33450
H100 H 0.09500 0.38290 0.30220
C57 C 0.25002(16) 0.54603(12) 0.10668(10)
H101 H 0.30890 0.56390 0.08490
H102 H 0.22970 0.59050 0.13440
C58 C 0.16670(19) 0.50620(14) 0.05729(11)
H103 H 0.10950 0.48600 0.07930
H104 H 0.18860 0.46300 0.02880
C59 C 0.1342(2) 0.55907(16) 0.01677(12)
H105 H 0.19280 0.58300 -0.00180
H106 H 0.08750 0.52890 -0.01910
C60 C 0.0844(2) 0.62053(17) 0.05525(15)
H107 H 0.05730 0.64850 0.02620
H108 H 0.13320 0.65530 0.08670
H109 H 0.03080 0.59740 0.07770
C61 C 0.34876(18) 0.52856(13) 0.20178(11)
H110 H 0.35650 0.49110 0.22820
H111 H 0.32370 0.57120 0.22900
C62 C 0.44775(19) 0.55713(14) 0.18030(13)
H112 H 0.43880 0.58940 0.14930
H113 H 0.47680 0.51370 0.15800
C63 C 0.51924(19) 0.60270(14) 0.23645(13)
H114 H 0.58170 0.62290 0.21940
H115 H 0.49010 0.64630 0.25830
C64 C 0.5429(3) 0.55769(18) 0.28506(15)
H116 H 0.55680 0.50860 0.26280
H117 H 0.48620 0.54990 0.31100
H118 H 0.60100 0.58540 0.31300
N6 N 0.27517(13) 0.49282(10) 0.14657(8)
H119 H 0.21870 0.47200 0.16190
H120 H 0.29950 0.45470 0.12110
C65 C 0.11344(18) 0.62294(13) 0.49272(12)
H121 H 0.12350 0.56970 0.48100
H122 H 0.10580 0.63530 0.53940
C66 C 0.20471(19) 0.67462(15) 0.47723(13)
H123 H 0.26440 0.66270 0.49770
H124 H 0.21030 0.66300 0.43030
C67 C 0.20370(19) 0.75805(15) 0.49885(14)
H125 H 0.19090 0.76940 0.54490
H126 H 0.14920 0.77190 0.47450
C68 C 0.3017(2) 0.8055(2) 0.48892(19)
H127 H 0.31630 0.79240 0.44380
H128 H 0.35480 0.79530 0.51600
H129 H 0.29670 0.85930 0.50050
C69 C -0.06575(17) 0.57334(12) 0.46199(11)
H130 H -0.07700 0.57400 0.50760
H131 H -0.05280 0.52250 0.44170
C70 C -0.15759(19) 0.58907(15) 0.42849(15)
H132 H -0.17450 0.63720 0.45220
H133 H -0.14250 0.59540 0.38470
C71 C -0.2463(3) 0.5270(2) 0.42372(19)
H134 H -0.25190 0.51270 0.46590
H135 H -0.30680 0.54710 0.41420
C72 C -0.2421(4) 0.4586(2) 0.3743(3)
H136 H -0.24400 0.47090 0.33180
H137 H -0.29880 0.41960 0.37650
H138 H -0.18060 0.43990 0.38170
N7 N 0.02159(13) 0.63131(9) 0.45767(8)
H139 H 0.03310 0.62850 0.41560
H140 H 0.00700 0.67800 0.47360
C73 C 0.39327(16) 0.87281(12) -0.01901(10)
H141 H 0.42580 0.88410 -0.05740
H142 H 0.36070 0.91610 -0.00060
C74 C 0.31565(19) 0.80237(14) -0.03895(12)
H143 H 0.27170 0.80900 -0.07440
H144 H 0.34920 0.75910 -0.05580
C75 C 0.2528(2) 0.78302(16) 0.01370(14)
H145 H 0.29660 0.77550 0.04890
H146 H 0.20770 0.73460 -0.00320
C76 C 0.1914(2) 0.8427(2) 0.04101(16)
H147 H 0.14720 0.85020 0.00660
H148 H 0.23550 0.89040 0.05960
H149 H 0.15190 0.82590 0.07430
C77 C 0.55409(15) 0.92850(11) 0.04219(10)
H150 H 0.52990 0.97570 0.06110
H151 H 0.58290 0.93470 0.00140
C78 C 0.63333(17) 0.91491(13) 0.08801(12)
H152 H 0.67140 0.87770 0.06460
H153 H 0.60140 0.89340 0.12250
C79 C 0.70400(19) 0.98819(16) 0.11771(15)
H154 H 0.76520 0.97550 0.13570
H155 H 0.72260 1.01600 0.08360
C80 C 0.6595(2) 1.0394(2) 0.17055(16)
H156 H 0.59900 1.05220 0.15310
H157 H 0.70730 1.08580 0.18710
H158 H 0.64380 1.01310 0.20540
N8 N 0.46979(12) 0.86426(8) 0.02919(7)
H159 H 0.44120 0.86070 0.06650
H160 H 0.49310 0.82050 0.01470
C3A C -0.44745(12) 0.49492(10) 1.01190(8)
O5A O -0.38067(9) 0.55314(7) 1.02120(7)
O6A O -0.4360(1) 0.43183(7) 1.01982(7)
C14A C -0.05245(12) 0.00707(10) 0.48966(8)
O27A O -0.11827(9) -0.05124(7) 0.47093(6)
O28A O -0.06422(10) 0.07322(7) 0.49321(7)
C1A C -0.37387(15) 0.67948(11) 0.88722(9)
C2A C -0.42582(14) 0.74321(10) 0.92394(9)
C4A C -0.46170(14) 0.72999(10) 1.12765(8)
C5A C -0.41199(14) 0.78247(10) 1.19186(8)
C6A C -0.61080(14) 0.95258(10) 1.17269(9)
C7A C -0.64494(14) 0.96524(11) 1.24256(9)
C8A C -0.73414(14) 0.72369(10) 1.26422(9)
C9A C -0.79888(14) 0.75146(10) 1.21591(9)
C10A C -0.93779(15) 0.52670(11) 1.31026(10)
C11A C -0.90440(16) 0.51062(11) 1.24032(10)
C12A C -1.11623(14) 0.70865(10) 1.29745(8)
C13A C -1.05947(13) 0.76179(9) 1.35939(8)
C15A C -1.06791(15) 0.75936(10) 1.56583(9)
C16A C -1.11674(15) 0.82401(10) 1.60419(9)
O1A O -0.36565(11) 0.62739(7) 0.91828(6)
O2A O -0.45077(11) 0.73521(7) 0.97975(6)
O3A O -0.34538(14) 0.68246(10) 0.83416(8)
O4A O -0.43982(12) 0.79681(8) 0.90064(7)
O7A O -0.40453(10) 0.69001(8) 1.09536(6)
O8A O -0.3229(1) 0.78428(8) 1.20464(7)
O9A O -0.5486(1) 0.73119(8) 1.11331(7)
O10A O -0.46709(10) 0.82046(8) 1.22651(6)
O11A O -0.59129(10) 0.88664(7) 1.14985(6)
O12A O -0.64453(12) 0.91240(8) 1.27100(7)
O13A O -0.60486(12) 1.00441(8) 1.14355(7)
O14A O -0.67100(11) 1.02749(8) 1.26382(7)
O15A O -0.64216(10) 0.73898(8) 1.26139(7)
O16A O -0.75431(10) 0.78555(8) 1.17768(7)
O17A O -0.77917(11) 0.68728(9) 1.30098(7)
O18A O -0.89088(10) 0.73721(8) 1.21918(7)
O19A O -0.95069(11) 0.59453(7) 1.33226(7)
O20A O -0.90856(13) 0.56083(9) 1.20943(7)
O21A O -0.94906(14) 0.47621(9) 1.34077(8)
O22A O -0.87431(13) 0.44918(8) 1.22188(8)
O23A O -1.06632(10) 0.66796(8) 1.26068(6)
O24A O -0.97273(10) 0.75681(8) 1.37118(6)
O25A O -1.20544(10) 0.70859(8) 1.28755(7)
O26A O -1.11061(10) 0.80619(7) 1.39251(6)
O29A O -1.05145(11) 0.76420(7) 1.50794(6)
O30A O -1.12802(11) 0.87559(7) 1.57304(6)
O31A O -1.04813(13) 0.70794(9) 1.58997(7)
O32A O -1.14002(14) 0.82200(9) 1.65846(7)
Cu1A Cu -0.42286(2) 0.64398(2) 1.00359(2)
Cu2A Cu -0.60872(2) 0.80953(2) 1.20275(2)
Cu3A Cu -0.92564(2) 0.66966(2) 1.27885(2)
Cu4A Cu -1.08099(2) 0.85474(2) 1.48408(2)
O27A* O -1.11827(9) 0.94876(7) 1.47093(6)
O28* O -0.93578(10) 0.92678(7) 1.50679(7)
Cu4A* Cu -0.08099(2) -0.14526(2) 0.48408(2)
#END
