
#######################################################################
#
#                 Cambridge Crystallographic Data Centre
#                                CCDC
#
#######################################################################
#
# If this CIF has been generated from an entry in the Cambridge
# Structural Database, then it will include bibliographic, chemical,
# crystal, experimental, refinement or atomic coordinate data resulting
# from the CCDC's data processing and validation procedures.
#
#######################################################################

data_CSD_CIF_WEWNAP
_audit_creation_date 2013-05-26
_audit_creation_method CSD-ConQuest-V1
_database_code_CSD WEWNAP
_database_code_depnum_ccdc_archive 'CCDC 766457'
_chemical_formula_sum 'C27 H21 Fe3 Na1 O23'
_chemical_formula_moiety
;
(C27 H11 Fe3 O18 1-)n,n(Na1 1+),5n(H2 O1)
;
_journal_coden_Cambridge 179
_journal_volume 51
_journal_year 2012
_journal_page_first 12490
_journal_name_full 'Angew.Chem.,Int.Ed. '
loop_
_publ_author_name
"T.B.Celic"
"M.Rangus"
"K.Lazar"
"V.Kaucic"
"N.Z.Logar"
_chemical_name_systematic
;
catena-[Sodium 
(\m~6~-benzene-1,3,5-tricarboxylato)-bis(\m~5~-benzene-1,3-dicarboxylato-5-car
boxylic acid)-tri-iron(ii) pentahydrate]
;
_cell_volume   1609.350
_exptl_crystal_colour 'brown'
_exptl_crystal_description 'prismatic'
_diffrn_ambient_temperature 293
_refine_special_details
;
NaA and NaB,O14 disordered over two sites with occupancies 0.338:0.162; O11 
and O15 disordered over two sites with occupancies 0.50:0.50.
;
#These two values have been output from a single CSD field.
_refine_ls_R_factor_gt 0.0962
_refine_ls_wR_factor_gt 0.0962
_symmetry_cell_setting monoclinic
_symmetry_space_group_name_H-M 'P 2/c'
_symmetry_Int_Tables_number 13
loop_
_symmetry_equiv_pos_site_id
_symmetry_equiv_pos_as_xyz
1 x,y,z
2 -x,y,1/2-z
3 -x,-y,-z
4 x,-y,-1/2+z
_cell_length_a 9.6790(1)
_cell_length_b 12.5770(2)
_cell_length_c 14.0811(2)
_cell_angle_alpha 90
_cell_angle_beta 110.137(1)
_cell_angle_gamma 90
_cell_formula_units_Z 2
loop_
_atom_type_symbol
_atom_type_radius_bond
C 0.68
H 0.23
Fe 1.52
Na 1.66
O 0.68
loop_
_atom_site_label
_atom_site_type_symbol
_atom_site_fract_x
_atom_site_fract_y
_atom_site_fract_z
Fe1 Fe -0.94350(11) 0.77529(8) 0.15073(7)
Fe2 Fe 0.00000 1.00000 0.00000
O1 O -0.7005(7) 0.7662(5) 0.1473(5)
O2 O -0.0174(8) 0.7217(4) -0.0006(4)
O3 O -0.0391(10) 0.3814(5) -0.1834(5)
O4 O -0.0309(9) 0.8716(4) -0.0880(4)
O5 O -0.1257(9) 0.9369(8) 0.0849(7)
O6 O -0.8341(5) 0.9108(4) 0.1195(4)
O7 O -0.1472(8) 0.8068(7) 0.1821(5)
O8 O -0.6101(12) 1.2583(8) 0.1019(14)
O9 O -0.3760(12) 1.2725(8) 0.1221(12)
H1 H -0.39820 1.33560 0.11370
C1 C -0.4512(8) 0.8798(6) 0.1357(5)
H2 H -0.44230 0.80620 0.14060
C2 C -0.5964(8) 1.0395(6) 0.1248(6)
H3 H -0.68430 1.07180 0.12150
C3 C -0.5833(7) 0.9287(6) 0.1293(5)
C4 C -0.3456(8) 1.0527(7) 0.1284(6)
H4 H -0.26640 1.09340 0.12640
C5 C -0.3332(8) 0.9416(6) 0.1347(5)
C6 C -0.4742(8) 1.1019(6) 0.1252(6)
C7 C -0.7115(7) 0.8632(6) 0.1305(5)
C8 C 0.00000 0.4265(8) -0.25000
C9 C 0.00000 0.5457(8) -0.25000
C10 C -0.0115(10) 0.6007(5) -0.1674(5)
H5 H -0.01860 0.56340 -0.11230
C11 C -0.0122(9) 0.7112(5) -0.1670(5)
C12 C -0.1930(8) 0.8932(7) 0.1341(6)
C13 C -0.0211(8) 0.7724(5) -0.0786(5)
C14 C -0.4901(11) 1.2180(8) 0.1152(10)
C15 C 0.00000 0.7652(6) -0.25000
H6 H 0.00000 0.83910 -0.25000
Na1 Na -0.77410 1.3860(6) -0.01720
O10 O -0.74800 1.4321(6) 0.02880
O11 O -0.50000 1.6161(6) 0.25000
O12 O -0.62260 1.5028(6) -0.10880
Na2? Na -0.68560 1.5781(6) 0.17040
O13? O -0.46200 1.6690(6) 0.15080
O14? O -0.77060 1.5395(6) 0.06530
O2A O 0.0174(8) 0.7217(4) -0.4994(4)
O3A O 0.0391(10) 0.3814(5) -0.3166(5)
O4A O 0.0309(9) 0.8716(4) -0.4120(4)
C10A C 0.0115(10) 0.6007(5) -0.3326(5)
H5A H 0.01860 0.56340 -0.38770
C11A C 0.0122(9) 0.7112(5) -0.3330(5)
C13A C 0.0211(8) 0.7724(5) -0.4214(5)
Fe1A Fe -0.05650(11) 0.77529(8) -0.65073(7)
O1A O -0.2995(7) 0.7662(5) -0.6473(5)
O5A O -0.8743(9) 0.9369(8) -0.5849(7)
O6A O -0.1659(5) 0.9108(4) -0.6195(4)
O7A O -0.8528(8) 0.8068(7) -0.6821(5)
O8A O -0.3899(12) 1.2583(8) -0.6019(14)
O9A O -0.6240(12) 1.2725(8) -0.6221(12)
H1A H -0.60180 1.33560 -0.61370
C1A C -0.5488(8) 0.8798(6) -0.6357(5)
H2A H -0.55770 0.80620 -0.64060
C2A C -0.4036(8) 1.0395(6) -0.6248(6)
H3A H -0.31570 1.07180 -0.62150
C3A C -0.4167(7) 0.9287(6) -0.6293(5)
C4A C -0.6544(8) 1.0527(7) -0.6284(6)
H4A H -0.73360 1.09340 -0.62640
C5A C -0.6668(8) 0.9416(6) -0.6347(5)
C6A C -0.5258(8) 1.1019(6) -0.6252(6)
C7A C -0.2885(7) 0.8632(6) -0.6305(5)
C12A C -0.8070(8) 0.8932(7) -0.6341(6)
C14A C -0.5099(11) 1.2180(8) -0.6152(10)
Fe1* Fe -0.94350(11) 0.77529(8) -0.84927(7)
Fe1** Fe 0.05650(11) 0.77529(8) 0.15073(7)
Fe1A* Fe -1.05650(11) 0.77529(8) -0.65073(7)
Fe1A** Fe -0.05650(11) 0.77529(8) 0.34927(7)
Fe1B Fe -0.05650(11) 0.22471(8) -0.15073(7)
Fe1C Fe 0.05650(11) 0.22471(8) -0.34927(7)
Fe2* Fe -1.00000 1.00000 0.00000
Fe2A Fe -1.00000 1.00000 -0.50000
Fe2A* Fe 0.00000 1.00000 -0.50000
O2* O -1.0174(8) 0.7217(4) -0.0006(4)
O3B O -0.9609(10) 0.6186(5) 0.1834(5)
O3C O -0.0391(10) 0.6186(5) -0.6834(5)
O4B O 0.0309(9) 1.1284(4) 0.0880(4)
O5B O 0.1257(9) 1.0631(8) -0.0849(7)
O6* O 0.1659(5) 0.9108(4) 0.1195(4)
O6B O -0.1659(5) 1.0892(4) -0.1195(4)
O7* O -1.1472(8) 0.8068(7) 0.1821(5)
O7** O -0.1472(8) 0.8068(7) -0.8179(5)
O7A* O -0.8528(8) 0.8068(7) 0.3179(5)
O7A** O 0.1472(8) 0.8068(7) -0.6821(5)
#END
