
#######################################################################
#
#                 Cambridge Crystallographic Data Centre
#                                CCDC
#
#######################################################################
#
# If this CIF has been generated from an entry in the Cambridge
# Structural Database, then it will include bibliographic, chemical,
# crystal, experimental, refinement or atomic coordinate data resulting
# from the CCDC's data processing and validation procedures.
#
#######################################################################

data_CSD_CIF_WEXRIC
_audit_creation_date 2013-05-26
_audit_creation_method CSD-ConQuest-V1
_database_code_CSD WEXRIC
_database_code_depnum_ccdc_archive 'CCDC 741979'
_chemical_formula_sum 'C74 H60 Cl2 Cu4 N13 O68 P2 W18'
_chemical_formula_moiety
;
(C24 H16 Cl1 Cu1 N4 1+)2n,n(C26 H22 Cu2 N5 O65 P2 W18 2-),3n(H2 O1)
;
_journal_coden_Cambridge 1350
_journal_volume 15
_journal_year 2013
_journal_page_first 5156
_journal_name_full 'CrystEngComm '
loop_
_publ_author_name
"Kai Yu"
"Yang Yu"
"Bo-Dong Jiang"
"Bai-Bin Zhou"
_chemical_name_systematic
;
catena-[bis(Chloro-bis(1,10-phenanthroline)-copper(ii)) 
bis(\m~9~-phosphato)-(\m~2~-glycinato)-octatriacontakis(\m~2~-oxo)-aqua-bis(1,
10-phenanthroline)-hexadeca-oxo-di-copper(ii)-octadeca-tungsten trihydrate]
;
_cell_volume  11242.240
_exptl_crystal_colour 'blue'
_exptl_crystal_density_diffrn 3.494
_exptl_crystal_description 'block'
_diffrn_ambient_temperature 293
#These two values have been output from a single CSD field.
_refine_ls_R_factor_gt 0.0405
_refine_ls_wR_factor_gt 0.0405
_symmetry_cell_setting monoclinic
_symmetry_space_group_name_H-M 'P 21/c'
_symmetry_Int_Tables_number 14
loop_
_symmetry_equiv_pos_site_id
_symmetry_equiv_pos_as_xyz
1 x,y,z
2 -x,1/2+y,1/2-z
3 -x,-y,-z
4 x,-1/2-y,-1/2+z
_cell_length_a 17.4716(6)
_cell_length_b 19.9622(7)
_cell_length_c 32.5448(12)
_cell_angle_alpha 90
_cell_angle_beta 97.927(1)
_cell_angle_gamma 90
_cell_formula_units_Z 4
loop_
_atom_type_symbol
_atom_type_radius_bond
C 0.68
H 0.23
Cl 0.99
Cu 1.32
N 0.68
O 0.68
P 1.05
W 1.62
loop_
_atom_site_label
_atom_site_type_symbol
_atom_site_fract_x
_atom_site_fract_y
_atom_site_fract_z
O1 O 0.7150(7) 0.9234(6) 0.1695(4)
H1 H 0.70580 0.89810 0.14840
H2 H 0.74410 0.95740 0.16880
O2 O 0.7791(5) 0.9236(4) 0.2506(3)
H3 H 0.76580 0.92530 0.22450
H4 H 0.82540 0.93240 0.26090
O3 O 0.1241(4) 0.9685(4) 0.4262(2)
W1 W 0.14155(2) 0.587191(19) 0.391285(12)
W2 W 0.35822(2) 0.587195(18) 0.403698(12)
W3 W 0.36143(2) 0.892221(19) 0.419352(12)
W4 W 0.35950(2) 0.74197(2) 0.466150(12)
W5 W 0.14353(2) 0.892261(19) 0.406334(13)
W6 W 0.34993(2) 0.762985(19) 0.248985(12)
W7 W 0.35051(2) 0.597741(18) 0.299776(12)
W8 W 0.52790(2) 0.70112(2) 0.313484(12)
W9 W 0.53126(2) 0.844350(19) 0.369254(12)
W10 W 0.13264(2) 0.762090(19) 0.236160(12)
W11 W 0.53210(2) 0.694144(19) 0.417916(12)
W12 W 0.14272(2) 0.74179(2) 0.453243(12)
W13 W -0.04067(2) 0.70363(2) 0.280518(13)
W14 W -0.03511(2) 0.69172(2) 0.384496(13)
W15 W 0.13397(2) 0.597302(19) 0.287577(12)
W16 W -0.03710(2) 0.844970(19) 0.339072(13)
W17 W 0.35063(2) 0.903375(19) 0.305879(12)
W18 W 0.13292(2) 0.903135(19) 0.292769(13)
P1 P 0.36108(13) 0.74735(11) 0.35775(7)
P2 P 0.13161(13) 0.74716(11) 0.34439(7)
O4 O 0.2422(4) 0.9033(3) 0.2910(2)
O5 O 0.2518(4) 0.8905(3) 0.4215(2)
O6 O 0.2433(4) 0.5866(3) 0.2988(2)
O7 O 0.4640(4) 0.7300(3) 0.4516(2)
O8 O 0.2527(4) 0.7545(3) 0.4627(2)
O9 O 0.2501(4) 0.5764(3) 0.3925(2)
O10 O 0.5758(4) 0.7813(3) 0.4111(2)
O11 O 0.2406(4) 0.7756(3) 0.2403(2)
O12 O 0.3355(4) 0.6744(3) 0.3536(2)
O13 O 0.0411(4) 0.7470(3) 0.3394(2)
O14 O 0.0374(4) 0.6226(3) 0.3834(2)
O15 O 0.0368(4) 0.8718(3) 0.3830(2)
O16 O 0.4621(4) 0.6219(3) 0.4076(2)
O17 O 0.1583(4) 0.6742(3) 0.34293(19)
O18 O 0.3308(4) 0.6731(3) 0.2650(2)
O19 O 0.4641(4) 0.8728(3) 0.4073(2)
O20 O 0.0309(4) 0.6307(3) 0.2853(2)
O21 O 0.1303(4) 0.8364(3) 0.4523(2)
O22 O 0.1517(4) 0.6722(3) 0.2544(2)
O23 O 0.0294(4) 0.7464(3) 0.2496(2)
O24 O 0.1623(4) 0.6562(3) 0.4320(2)
O25 O 0.4525(4) 0.7469(3) 0.36288(19)
O26 O 0.0383(4) 0.7291(3) 0.4276(2)
O27 O 0.4540(4) 0.7469(3) 0.2735(2)
O28 O 0.5708(4) 0.7882(3) 0.3296(2)
O29 O 0.1607(4) 0.7802(3) 0.3858(2)
O30 O 0.3378(4) 0.9133(3) 0.3619(2)
O31 O 0.3690(4) 0.5484(3) 0.35058(19)
O32 O 0.3338(4) 0.7877(3) 0.3184(2)
O33 O -0.0781(4) 0.7797(3) 0.3742(2)
O34 O 0.3416(4) 0.6553(3) 0.4424(2)
O35 O -0.0792(4) 0.6692(3) 0.3295(2)
O36 O 0.1547(4) 0.7869(3) 0.30783(19)
O37 O 0.3383(4) 0.7812(3) 0.39649(19)
O38 O -0.0813(4) 0.7892(3) 0.2933(2)
O39 O 0.4574(4) 0.8789(3) 0.3277(2)
Cu1 Cu -0.23656(7) 0.64051(6) 0.39690(4)
Cu2 Cu 0.74043(8) 0.90135(6) 0.36768(4)
O40 O 0.3664(4) 0.5372(4) 0.2651(2)
O41 O 0.6043(4) 0.6614(4) 0.4540(2)
O42 O 0.3807(4) 0.9681(4) 0.4421(2)
O43 O 0.1154(4) 0.5345(3) 0.2514(2)
O44 O 0.3699(4) 0.9835(4) 0.2921(2)
O45 O 0.1240(4) 0.5199(4) 0.4206(2)
O46 O 0.6029(4) 0.9049(4) 0.3736(2)
O47 O 0.4554(4) 0.6313(3) 0.3103(2)
O48 O 0.1567(4) 0.9133(3) 0.3515(2)
O49 O 0.0301(4) 0.8806(3) 0.3034(2)
O50 O 0.3643(4) 0.8569(3) 0.2559(2)
O51 O 0.1167(4) 0.8563(3) 0.2414(2)
O52 O 0.7518(4) 0.7048(4) 0.3510(2)
O53 O 0.1234(4) 0.5487(3) 0.3368(2)
O54 O 0.1305(4) 0.7246(4) 0.5032(2)
O55 O 0.5731(4) 0.6707(3) 0.3673(2)
O56 O 0.3771(4) 0.8369(3) 0.4671(2)
O57 O 0.5936(4) 0.6734(4) 0.2833(2)
O58 O 0.3805(4) 0.7246(4) 0.5178(2)
O59 O -0.2545(4) 0.7096(4) 0.4371(2)
H5 H -0.21640 0.73000 0.45070
H6 H -0.30030 0.71930 0.44100
O60 O 0.1115(4) 0.7535(4) 0.1840(2)
O61 O -0.1033(4) 0.6563(4) 0.4117(2)
O62 O -0.1071(4) 0.9048(4) 0.3389(2)
O63 O 0.7468(4) 0.8050(4) 0.3802(2)
O64 O 0.3784(4) 0.5199(3) 0.4351(2)
O65 O 0.1136(4) 0.9827(4) 0.2769(2)
O66 O 0.3632(4) 0.7555(4) 0.1978(2)
O67 O -0.1127(4) 0.6769(4) 0.2427(2)
N1 N 0.7239(4) 0.8694(4) 0.3099(2)
C1 C 0.7465(6) 0.7679(5) 0.3491(3)
N2 N -0.2422(5) 0.5660(5) 0.4373(3)
N3 N 0.7456(5) 0.9999(5) 0.3576(3)
N4 N 0.7512(5) 0.9290(5) 0.4270(3)
N5 N -0.2395(5) 0.5658(4) 0.3573(3)
C2 C 0.7373(6) 0.7991(5) 0.3071(3)
H7 H 0.78360 0.79160 0.29440
H8 H 0.69420 0.77850 0.28970
C3 C 0.7483(6) 0.9959(5) 0.4309(3)
C4 C 0.7471(6) 1.0348(5) 0.3939(3)
C5 C 0.7468(7) 1.0278(6) 0.4691(4)
C6 C 0.7484(7) 0.9864(6) 0.5042(4)
H9 H 0.74860 1.00540 0.53030
C7 C -0.2448(6) 0.5055(5) 0.3746(3)
C8 C -0.2465(7) 0.5052(6) 0.4187(4)
C9 C -0.2351(7) 0.5672(6) 0.3163(4)
H10 H -0.23040 0.60820 0.30320
C10 C 0.7519(8) 1.1390(7) 0.3582(4)
H11 H 0.75420 1.18560 0.35800
C11 C 0.7499(7) 0.9187(6) 0.4998(4)
H12 H 0.74850 0.89080 0.52260
C12 C 0.7481(7) 1.1045(6) 0.3954(4)
C13 C -0.2429(7) 0.5693(6) 0.4779(4)
H13 H -0.24020 0.61100 0.49070
C14 C 0.7464(8) 1.1004(7) 0.4701(4)
H14 H 0.74510 1.12250 0.49520
C15 C -0.2474(7) 0.4448(6) 0.3529(4)
C16 C -0.2475(8) 0.5107(7) 0.5024(4)
H15 H -0.24660 0.51430 0.53100
C17 C 0.7535(7) 0.8918(6) 0.4608(4)
H16 H 0.75780 0.84560 0.45830
C18 C 0.7471(7) 1.0332(6) 0.3222(4)
H17 H 0.74490 1.00990 0.29730
C19 C -0.2534(8) 0.4501(7) 0.4841(4)
H18 H -0.25790 0.41170 0.49980
C20 C -0.2375(8) 0.5089(7) 0.2933(4)
H19 H -0.23450 0.51160 0.26500
C21 C 0.7521(8) 1.1041(7) 0.3225(4)
H20 H 0.75560 1.12690 0.29790
C22 C 0.7481(8) 1.1360(7) 0.4353(4)
H21 H 0.74930 1.18250 0.43690
C23 C -0.2525(8) 0.4451(7) 0.4413(4)
C24 C -0.2441(8) 0.4480(7) 0.3108(4)
H22 H -0.24640 0.40920 0.29480
C25 C -0.2545(8) 0.3825(8) 0.3758(5)
H23 H -0.25770 0.34170 0.36200
C26 C -0.2564(9) 0.3845(8) 0.4167(5)
H24 H -0.26050 0.34400 0.43040
Cu3 Cu 0.56242(9) 0.77711(7) 0.12361(4)
N6 N 0.5182(5) 0.6906(5) 0.1464(3)
N7 N 0.5671(5) 0.7190(5) 0.0749(3)
N8 N 0.5160(5) 0.8590(5) 0.0904(3)
N9 N 0.5503(6) 0.8356(5) 0.1710(3)
C27 C 0.5024(6) 0.6443(5) 0.1151(3)
C28 C 0.4901(7) 0.9387(6) 0.1888(4)
C29 C 0.4933(7) 0.9066(6) 0.1169(4)
C30 C 0.5277(7) 0.6602(6) 0.0766(4)
C31 C 0.5104(7) 0.8931(6) 0.1604(3)
C32 C 0.5154(7) 0.6157(6) 0.0431(4)
C33 C 0.4541(7) 0.9659(6) 0.1034(4)
C34 C 0.4991(7) 0.6723(6) 0.1821(4)
H25 H 0.50910 0.70250 0.20390
C35 C 0.5930(7) 0.6882(6) 0.0074(4)
H26 H 0.61800 0.69740 -0.01540
C36 C 0.5736(7) 0.8254(6) 0.2114(4)
H27 H 0.60210 0.78690 0.21910
C37 C 0.5004(7) 0.8724(6) 0.0497(4)
H28 H 0.51440 0.84110 0.03090
C38 C 0.5495(7) 0.6329(7) 0.0079(4)
H29 H 0.54190 0.60540 -0.01540
Cl1 Cl 0.6861(8) 0.7893(7) 0.1366(4)
C39 C 0.4502(7) 0.5403(6) 0.0837(4)
H30 H 0.42370 0.50040 0.08600
C40 C 0.5579(7) 0.8684(6) 0.2423(4)
H31 H 0.57600 0.85960 0.27000
C41 C 0.4727(7) 0.5566(6) 0.0474(4)
H32 H 0.46010 0.52860 0.02460
C42 C 0.4479(8) 0.9984(7) 0.1751(4)
H33 H 0.43090 1.02790 0.19400
C43 C 0.4659(7) 0.5832(6) 0.1194(4)
C44 C 0.4426(8) 0.9764(7) 0.0605(4)
H34 H 0.41930 1.01600 0.05020
C45 C 0.4637(8) 0.9322(7) 0.0342(4)
H35 H 0.45450 0.94020 0.00580
C46 C 0.6003(7) 0.7316(6) 0.0411(4)
H36 H 0.62910 0.77060 0.04000
C47 C 0.4482(8) 0.5674(7) 0.1590(4)
H37 H 0.42490 0.52680 0.16380
C48 C 0.5145(7) 0.9248(6) 0.2311(4)
H38 H 0.50120 0.95370 0.25140
C49 C 0.4657(8) 0.6124(7) 0.1903(5)
H39 H 0.45510 0.60270 0.21690
C50 C 0.4340(8) 1.0102(7) 0.1345(4)
H40 H 0.40940 1.05010 0.12580
Cu4 Cu 0.91674(9) 0.76188(8) 0.08325(5)
Cl2 Cl 0.7853(4) 0.7787(3) 0.05775(19)
N10 N 0.9761(6) 0.8441(5) 0.0597(3)
N11 N 0.9618(6) 0.6782(5) 0.1178(3)
N12 N 0.9338(6) 0.7009(5) 0.0382(3)
N13 N 0.9225(6) 0.8221(5) 0.1321(3)
C51 C 0.9913(7) 0.6331(6) 0.0936(4)
C52 C 0.9962(7) 0.8884(6) 0.0906(4)
C53 C 0.9685(8) 0.8768(6) 0.1289(4)
C54 C 0.9769(7) 0.6463(6) 0.0497(4)
C55 C 1.0068(8) 0.6028(7) 0.0219(4)
C56 C 1.0294(8) 0.5752(7) 0.1080(4)
C57 C 0.9856(8) 0.9200(7) 0.1625(4)
C58 C 1.0511(8) 0.5473(7) 0.0386(4)
H41 H 1.07380 0.51980 0.02060
C59 C 1.0396(8) 0.9478(7) 0.0852(4)
C60 C 0.9690(8) 0.6653(7) 0.1586(4)
H42 H 0.95150 0.69670 0.17630
C61 C 0.9373(8) 0.6651(7) -0.0321(5)
H43 H 0.92130 0.67100 -0.06040
C62 C 1.0020(8) 0.6061(7) 0.1752(5)
H44 H 1.00220 0.59680 0.20320
C63 C 0.9111(9) 0.7098(7) -0.0035(4)
H45 H 0.87850 0.74510 -0.01280
C64 C 0.9990(8) 0.8567(7) 0.0237(5)
H46 H 0.98810 0.82520 0.00270
C65 C 1.0618(8) 0.5326(7) 0.0798(4)
H47 H 1.09010 0.49500 0.08940
C66 C 1.0341(9) 0.5615(8) 0.1507(4)
H48 H 1.05850 0.52290 0.16200
C67 C 0.9844(9) 0.6151(8) -0.0195(5)
H49 H 1.00270 0.58770 -0.03910
C68 C 1.0344(10) 0.9790(8) 0.1552(5)
H50 H 1.04920 1.00850 0.17690
C69 C 0.9565(10) 0.9076(8) 0.1981(5)
H51 H 0.97010 0.93470 0.22120
C70 C 1.0575(9) 0.9575(8) 0.0452(5)
H52 H 1.08400 0.99610 0.03960
C71 C 0.8906(9) 0.8129(7) 0.1653(4)
H53 H 0.85590 0.77780 0.16630
C72 C 0.9081(8) 0.8562(7) 0.2002(5)
H54 H 0.88600 0.84870 0.22420
C73 C 1.0565(9) 0.9903(8) 0.1203(5)
H55 H 1.08540 1.02870 0.11750
C74 C 1.0385(9) 0.9142(8) 0.0151(5)
H56 H 1.05110 0.92190 -0.01130
O68 O 0.1318(18) 0.7484(14) 0.0943(9)
H57 H 0.17820 0.76240 0.09870
H58 H 0.11020 0.74180 0.06960
O69 O 0.7307(17) 0.7093(15) 0.2028(9)
H59 H 0.72960 0.74220 0.18610
H60 H 0.77050 0.68450 0.20700
Cu1* Cu 0.76344(7) 0.64051(6) 0.39690(4)
O52* O -0.2482(4) 0.7048(4) 0.3510(2)
#END
