
#######################################################################
#
#                 Cambridge Crystallographic Data Centre
#                                CCDC
#
#######################################################################
#
# If this CIF has been generated from an entry in the Cambridge
# Structural Database, then it will include bibliographic, chemical,
# crystal, experimental, refinement or atomic coordinate data resulting
# from the CCDC's data processing and validation procedures.
#
#######################################################################

data_CSD_CIF_WEXWOO01
_audit_creation_date 2020-11-12
_audit_creation_method CSD-ConQuest-V1
_database_code_CSD WEXWOO01
_database_code_depnum_ccdc_archive 'CCDC 1894268'
_chemical_formula_sum 'C22 H32 Br3 N3 O8 Pb2'
_chemical_formula_moiety
;
(C16 H8 Br3 O8 Pb2 3-)n,3(C2 H8 N1 1+)
;
_journal_coden_Cambridge 1078
_journal_year 2020
_journal_name_full 'CSD Communication(Private Communication) '
loop_
_publ_author_name
"Chengdong Peng"
_chemical_name_systematic
;
catena-[tris(dimethylammonium) 
(\m-bromo)-bis(\m-benzene-1,4-dicarboxylato)-dibromo-di-lead(ii) ]
;
_cell_volume   3133.400
_exptl_crystal_colour 'colorless'
_exptl_crystal_density_diffrn 2.375
_exptl_crystal_description 'rod'
_diffrn_ambient_temperature 298
#These two values have been output from a single CSD field.
_refine_ls_R_factor_gt 0.0233
_refine_ls_wR_factor_gt 0.0233
_symmetry_cell_setting tetragonal
_symmetry_space_group_name_H-M 'P 43 21 2'
_symmetry_Int_Tables_number 96
loop_
_symmetry_equiv_pos_site_id
_symmetry_equiv_pos_as_xyz
1 x,y,z
2 -x,-y,1/2+z
3 1/2-y,1/2+x,3/4+z
4 1/2+y,1/2-x,1/4+z
5 1/2-x,1/2+y,3/4-z
6 1/2+x,1/2-y,1/4-z
7 y,x,-z
8 -y,-x,1/2-z
_cell_length_a 13.8256(7)
_cell_length_b 13.8256(7)
_cell_length_c 16.3926(8)
_cell_angle_alpha 90
_cell_angle_beta 90
_cell_angle_gamma 90
_cell_formula_units_Z 4
loop_
_atom_type_symbol
_atom_type_radius_bond
C 0.68
H 0.23
Br 1.21
N 0.68
O 0.68
Pb 1.46
loop_
_atom_site_label
_atom_site_type_symbol
_atom_site_fract_x
_atom_site_fract_y
_atom_site_fract_z
Pb1 Pb 0.578705(14) 0.630068(15) 0.326219(13)
Br1 Br 0.51785(6) 0.62336(7) 0.15670(4)
Br2 Br 0.67074(6) 0.67074(6) 0.50000
O1 O 0.7446(3) 0.6471(3) 0.2762(3)
O2 O 0.7242(3) 0.4948(3) 0.3114(3)
O3 O 1.2233(3) 0.5511(3) 0.1693(3)
O4 O 1.1993(3) 0.3962(3) 0.1939(3)
C1 C 0.8767(4) 0.5392(4) 0.2550(3)
C2 C 0.9322(4) 0.6111(4) 0.2200(4)
H1 H 0.90590 0.67230 0.21230
C3 C 1.0267(4) 0.5931(4) 0.1961(4)
H2 H 1.06350 0.64160 0.17190
C4 C 1.0658(4) 0.5013(4) 0.2089(4)
C5 C 1.0080(4) 0.4290(4) 0.2411(4)
H3 H 1.03250 0.36680 0.24710
C6 C 0.9144(4) 0.4487(4) 0.2642(4)
H4 H 0.87640 0.39970 0.28620
C7 C 1.1712(4) 0.4823(4) 0.1900(3)
C8 C 0.7745(4) 0.5626(4) 0.2834(3)
N1 N 0.6891(4) 0.3344(4) 0.4126(3)
H5 H 0.72530 0.37540 0.38280
H6 H 0.72710 0.28440 0.42700
C9 C 0.6584(7) 0.3836(6) 0.4857(5)
H7 H 0.61600 0.43590 0.47140
H8 H 0.71400 0.40870 0.51370
H9 H 0.62490 0.33900 0.52050
C10 C 0.6128(7) 0.2984(7) 0.3621(5)
H10 H 0.57400 0.35140 0.34330
H11 H 0.57330 0.25470 0.39310
H12 H 0.64000 0.26500 0.31620
N2 N 1.2773(4) 0.7227(4) 0.25000
H13 H 1.33820 0.72920 0.26870
C11 C 1.2121(8) 0.7361(8) 0.3164(6)
H14 H 1.19450 0.80310 0.32010
H15 H 1.24270 0.71630 0.36630
H16 H 1.15510 0.69780 0.30770
H17? H 1.33820 0.72920 0.26870
Pb1F Pb 0.630068(14) 0.578705(15) 0.673781(13)
Br1F Br 0.62336(6) 0.51785(7) 0.84330(4)
O1F O 0.6471(3) 0.7446(3) 0.7238(3)
O2F O 0.4948(3) 0.7242(3) 0.6886(3)
O3F O 0.5511(3) 1.2233(3) 0.8307(3)
O4F O 0.3962(3) 1.1993(3) 0.8061(3)
C1F C 0.5392(4) 0.8767(4) 0.7450(3)
C2F C 0.6111(4) 0.9322(4) 0.7800(4)
H1F H 0.67230 0.90590 0.78770
C3F C 0.5931(4) 1.0267(4) 0.8039(4)
H2F H 0.64160 1.06350 0.82810
C4F C 0.5013(4) 1.0658(4) 0.7911(4)
C5F C 0.4290(4) 1.0080(4) 0.7589(4)
H3F H 0.36680 1.03250 0.75290
C6F C 0.4487(4) 0.9144(4) 0.7358(4)
H4F H 0.39970 0.87640 0.71380
C7F C 0.4823(4) 1.1712(4) 0.8100(3)
C8F C 0.5626(4) 0.7745(4) 0.7166(3)
Pb1A Pb 0.421295(14) 0.369932(15) 0.826219(13)
Pb1A* Pb 0.421295(14) 1.369932(15) 0.826219(13)
Pb1G Pb 0.369932(14) 0.421295(15) 0.173781(13)
Pb1G* Pb 1.369932(14) 0.421295(15) 0.173781(13)
Br1A Br 0.48215(6) 0.37664(7) 0.65670(4)
Br1G Br 0.37664(6) 0.48215(7) 0.34330(4)
O3A O 0.7767(3) 0.4489(3) 0.6693(3)
O3G O 0.4489(3) 0.7767(3) 0.3307(3)
O4A O 0.8007(3) 0.6038(3) 0.6939(3)
O4G O 0.6038(3) 0.8007(3) 0.3061(3)
H13G H 1.27080 0.66180 0.23130
C11G C 1.2639(8) 0.7879(8) 0.1836(6)
H14G H 1.19690 0.80550 0.17990
H15G H 1.28370 0.75730 0.13370
H16G H 1.30220 0.84490 0.19230
#END
