
#######################################################################
#
#                 Cambridge Crystallographic Data Centre
#                                CCDC
#
#######################################################################
#
# If this CIF has been generated from an entry in the Cambridge
# Structural Database, then it will include bibliographic, chemical,
# crystal, experimental, refinement or atomic coordinate data resulting
# from the CCDC's data processing and validation procedures.
#
#######################################################################

data_CSD_CIF_WEYPUN
_audit_creation_date 2013-05-26
_audit_creation_method CSD-ConQuest-V1
_database_code_CSD WEYPUN
_database_code_depnum_ccdc_archive 'CCDC 711649'
_chemical_formula_sum 'C16 H16 Mn1 N2 O6'
_chemical_formula_moiety
;
(C9 H3 Mn1 O6 1-)n,C7 H13 N2 1+
;
_journal_coden_Cambridge 1147
_journal_volume 13
_journal_year 2013
_journal_page_first 1260
_journal_name_full 'Cryst.Growth Des. '
loop_
_publ_author_name
"Ling Xu"
"Young-Uk Kwon"
"B.de Castro"
"L.Cunha-Silva"
_chemical_name_systematic
;
catena-(3-Methyl-1-n-propylimidazol-3-ium 
(\m~4~-benzene-1,3,5-tricarboxylato)-manganese)
;
_cell_volume   3171.976
_exptl_crystal_colour 'pale red'
_exptl_crystal_density_diffrn 1.622
_exptl_crystal_description 'block'
_diffrn_ambient_temperature 173
#These two values have been output from a single CSD field.
_refine_ls_R_factor_gt 0.0744
_refine_ls_wR_factor_gt 0.0744
_symmetry_cell_setting orthorhombic
_symmetry_space_group_name_H-M 'P b c a'
_symmetry_Int_Tables_number 61
loop_
_symmetry_equiv_pos_site_id
_symmetry_equiv_pos_as_xyz
1 x,y,z
2 1/2-x,-y,1/2+z
3 -x,1/2+y,1/2-z
4 1/2+x,1/2-y,-z
5 -x,-y,-z
6 -1/2+x,y,-1/2-z
7 x,-1/2-y,-1/2+z
8 -1/2-x,-1/2+y,z
_cell_length_a 12.6358(8)
_cell_length_b 15.2897(9)
_cell_length_c 16.4183(10)
_cell_angle_alpha 90
_cell_angle_beta 90
_cell_angle_gamma 90
_cell_formula_units_Z 8
loop_
_atom_type_symbol
_atom_type_radius_bond
C 0.68
H 0.23
Mn 1.61
N 0.68
O 0.68
loop_
_atom_site_label
_atom_site_type_symbol
_atom_site_fract_x
_atom_site_fract_y
_atom_site_fract_z
Mn1 Mn 0.00789(3) 0.08922(2) 0.39866(2)
C1 C -0.23571(19) 0.08361(16) 0.59831(16)
C2 C -0.2811(2) 0.16029(16) 0.59008(17)
H1 H -0.25370 0.20160 0.55240
C3 C -0.3703(2) 0.18108(16) 0.63720(17)
C4 C -0.41544(19) 0.12412(16) 0.69381(16)
H2 H -0.47700 0.13980 0.72360
C5 C -0.36932(19) 0.04795(16) 0.70420(17)
C6 C -0.27899(19) 0.02727(16) 0.65625(16)
H3 H -0.24630 -0.02800 0.66410
C7 C -0.14192(19) 0.06072(16) 0.54166(17)
C8 C -0.4172(2) 0.26479(16) 0.62872(17)
C9 C -0.4157(2) -0.00973(16) 0.77074(16)
O1 O -0.09388(13) 0.11880(11) 0.50384(12)
O2 O -0.11824(13) -0.01315(11) 0.53287(12)
O3 O -0.50681(15) 0.27966(13) 0.66182(15)
O4 O -0.36744(15) 0.31874(12) 0.58838(13)
O5 O -0.50945(16) 0.00025(14) 0.79493(14)
O6 O -0.36041(16) -0.06408(13) 0.80365(16)
N1 N -0.9372(3) 0.2776(3) 0.63671(19)
N2 N -0.7939(2) 0.2066(2) 0.6199(2)
C10 C -0.8557(4) 0.3252(3) 0.6656(2)
H4 H -0.86130 0.38110 0.69050
C11 C -0.7673(3) 0.2821(3) 0.6539(2)
H5 H -0.69790 0.30120 0.66720
C12 C -0.8980(3) 0.2073(3) 0.6097(2)
H6 H -0.93760 0.16130 0.58540
C13 C -1.0502(4) 0.2979(4) 0.6360(4)
H7 H -1.08900 0.24980 0.61020
H8 H -1.06210 0.35190 0.60530
H9 H -1.07530 0.30550 0.69200
C14 C -0.7036(5) 0.1589(4) 0.5642(4)
H10 H -0.72860 0.13940 0.51000
H11 H -0.63600 0.19140 0.56030
C15 C -0.7054(4) 0.0967(3) 0.6218(3)
H12 H -0.77420 0.06620 0.62700
H13 H -0.67880 0.11620 0.67550
C16 C -0.6164(5) 0.0433(4) 0.5659(4)
H14 H -0.59740 -0.01150 0.59310
H15 H -0.55310 0.07960 0.55940
H16 H -0.64650 0.03040 0.51220
Mn1A Mn -0.50789(3) -0.08922(2) 0.89866(2)
Mn1C Mn -0.49211(3) 0.41078(2) 0.60134(2)
Mn1D Mn -0.00789(3) -0.08922(2) 0.60134(2)
O2D O 0.11824(13) 0.01315(11) 0.46713(12)
O3C O -0.00681(15) 0.22034(13) 0.33818(15)
O4C O 0.13256(15) 0.18126(12) 0.41162(13)
O5A O 0.00945(16) -0.00025(14) 0.29493(14)
O6A O -0.13959(16) 0.06408(13) 0.30365(16)
#END
