
#######################################################################
#
#                 Cambridge Crystallographic Data Centre
#                                CCDC
#
#######################################################################
#
# If this CIF has been generated from an entry in the Cambridge
# Structural Database, then it will include bibliographic, chemical,
# crystal, experimental, refinement or atomic coordinate data resulting
# from the CCDC's data processing and validation procedures.
#
#######################################################################

data_CSD_CIF_WEYQAU06
_audit_creation_date 2015-10-15
_audit_creation_method CSD-ConQuest-V1
_database_code_CSD WEYQAU06
_database_code_depnum_ccdc_archive 'CCDC 1431445'
_chemical_formula_sum 'C15 H14 Mn1 N2 O6'
_chemical_formula_moiety
;
(C6 H11 N2 1+)n,n(C9 H3 Mn1 O6 1-)
;
_journal_coden_Cambridge 1743
_journal_volume 70
_journal_year 2014
_journal_page_first 595
_journal_name_full 'Acta Crystallogr.,Sect.B:Struct.Sci.,Cryst.Eng. and Mat. '
loop_
_publ_author_name
"S.R.Madsen"
"N.Lock"
"J.Overgaard"
"B.B.Iversen"
_chemical_name_systematic
;
catena-[(1-Ethyl-3-methyl-1H-imidazol-3-ium) 
(\m~4~-benzene-1,3,5-tricarboxylato)-manganese(ii)]
;
_cell_volume   3057.254
_exptl_crystal_colour 'colorless'
_exptl_crystal_density_diffrn 1.622
_exptl_special_details
;
Crystal C (synthesized in 1-ethyl-3-methylimidazolium bromide)

;
_exptl_crystal_description 'prism'
_diffrn_ambient_temperature 220.2
_refine_special_details
;
C10,C11,C12,C13,C14,C15,N1,N2 and C10A,C11A,C12A,C13A,C14A,C15A,N1A,N2A 
disordered over two sites with occupancies 0.779:0.221.
;
#These two values have been output from a single CSD field.
_refine_ls_R_factor_gt 0.0656
_refine_ls_wR_factor_gt 0.0656
_symmetry_cell_setting orthorhombic
_symmetry_space_group_name_H-M 'P b c a'
_symmetry_Int_Tables_number 61
loop_
_symmetry_equiv_pos_site_id
_symmetry_equiv_pos_as_xyz
1 x,y,z
2 1/2-x,-y,1/2+z
3 1/2+x,1/2-y,-z
4 -x,1/2+y,1/2-z
5 -x,-y,-z
6 -1/2+x,y,-1/2-z
7 -1/2-x,-1/2+y,z
8 x,-1/2-y,-1/2+z
_cell_length_a 14.7960(5)
_cell_length_b 12.4275(4)
_cell_length_c 16.6266(5)
_cell_angle_alpha 90
_cell_angle_beta 90
_cell_angle_gamma 90
_cell_formula_units_Z 8
loop_
_atom_type_symbol
_atom_type_radius_bond
C 0.68
H 0.23
Mn 1.61
N 0.68
O 0.68
loop_
_atom_site_label
_atom_site_type_symbol
_atom_site_fract_x
_atom_site_fract_y
_atom_site_fract_z
O1 O 0.52558(19) 0.1198(2) 1.00406(16)
O2 O 0.50140(19) 0.0825(2) 0.87482(17)
C1 C 0.7691(3) 0.4236(4) 0.9967(2)
O3 O 0.5945(2) 0.3492(2) 0.66820(17)
C2 C 0.5964(3) 0.2302(3) 0.9055(2)
C3 C 0.5933(3) 0.2693(3) 0.8270(2)
H1 H 0.55720 0.23310 0.78820
C4 C 0.6369(3) 0.4005(3) 0.7191(2)
O4 O 0.6725(2) 0.4899(2) 0.70368(18)
C5 C 0.7035(3) 0.3706(3) 0.9388(2)
C6 C 0.6526(3) 0.2807(3) 0.9610(3)
H2 H 0.65640 0.25380 1.01440
C7 C 0.6418(3) 0.3601(3) 0.8042(2)
C8 C 0.6951(3) 0.4115(3) 0.8611(2)
H3 H 0.72620 0.47560 0.84690
C9 C 0.5380(3) 0.1375(3) 0.9298(2)
O5 O 0.7911(2) 0.5172(3) 0.9860(2)
O6 O 0.8016(2) 0.3674(3) 1.05218(19)
Mn1 Mn 0.60452(4) 0.48381(5) 0.57981(4)
C10 C 0.3934(8) 0.2204(10) 0.6360(7)
H4 H 0.44100 0.16730 0.64590
H5 H 0.41200 0.26850 0.59230
H6 H 0.33750 0.18330 0.62070
C11 C 0.3871(6) 0.5180(7) 0.8286(5)
H7 H 0.32710 0.55090 0.83810
H8 H 0.42060 0.56380 0.79000
C12 C 0.4376(7) 0.5101(9) 0.9051(6)
H9 H 0.44650 0.58230 0.92750
H10 H 0.49650 0.47660 0.89520
H11 H 0.40330 0.46620 0.94330
N1 N 0.3777(4) 0.2832(5) 0.7090(4)
C13 C 0.3443(5) 0.2462(7) 0.7817(5)
H12 H 0.32540 0.17450 0.79200
C14 C 0.3426(7) 0.3232(7) 0.8329(6)
H13 H 0.32130 0.31930 0.88670
C15 C 0.3962(5) 0.3878(6) 0.7220(6)
H14 H 0.41970 0.43680 0.68350
N2 N 0.3765(4) 0.4103(5) 0.7960(4)
C16? C 0.3463(16) 0.2276(16) 0.7534(12)
H15? H 0.32380 0.15820 0.76650
C17? C 0.3989(13) 0.3680(13) 0.6860(12)
H16? H 0.42230 0.40930 0.64270
C18? C 0.3829(16) 0.4063(15) 0.7605(14)
H17? H 0.38920 0.47790 0.77970
C19? C 0.347(3) 0.369(4) 0.8828(19)
H18? H 0.31210 0.31820 0.91680
H19? H 0.30590 0.43030 0.87270
C20? C 0.418(3) 0.414(5) 0.938(3)
H20? H 0.43330 0.48720 0.92220
H21? H 0.47270 0.36860 0.93530
H22? H 0.39550 0.41370 0.99370
C21? C 0.382(3) 0.199(3) 0.6100(18)
H23? H 0.42400 0.13880 0.61820
H24? H 0.40450 0.24450 0.56610
H25? H 0.32230 0.17120 0.59620
N3? N 0.3766(14) 0.2609(14) 0.6817(12)
N4? N 0.354(2) 0.3134(18) 0.8033(13)
O1G O 0.52558(19) 0.3802(2) 0.50406(16)
O2C O 0.49860(19) 0.5825(2) 0.62518(17)
O5A O 0.7089(2) 0.4828(3) 0.4860(2)
O6A O 0.6984(2) 0.6326(3) 0.55218(19)
Mn1A Mn 0.89548(4) 0.51619(5) 1.07981(4)
Mn1C Mn 0.39548(4) -0.01619(5) 0.92019(4)
Mn1G Mn 0.60452(4) 0.01619(5) 1.07981(4)
#END
