
#######################################################################
#
#                 Cambridge Crystallographic Data Centre
#                                CCDC
#
#######################################################################
#
# If this CIF has been generated from an entry in the Cambridge
# Structural Database, then it will include bibliographic, chemical,
# crystal, experimental, refinement or atomic coordinate data resulting
# from the CCDC's data processing and validation procedures.
#
#######################################################################

data_CSD_CIF_WEYQAU09
_audit_creation_date 2015-10-15
_audit_creation_method CSD-ConQuest-V1
_database_code_CSD WEYQAU09
_database_code_depnum_ccdc_archive 'CCDC 1431448'
_chemical_formula_sum 'C15 H14 Mn1 N2 O6'
_chemical_formula_moiety
;
(C6 H11 N2 1+)n,n(C9 H3 Mn1 O6 1-)
;
_journal_coden_Cambridge 1743
_journal_volume 70
_journal_year 2014
_journal_page_first 595
_journal_name_full 'Acta Crystallogr.,Sect.B:Struct.Sci.,Cryst.Eng. and Mat. '
loop_
_publ_author_name
"S.R.Madsen"
"N.Lock"
"J.Overgaard"
"B.B.Iversen"
_chemical_name_systematic
;
catena-[(1-Ethyl-3-methyl-1H-imidazol-3-ium) 
(\m~4~-benzene-1,3,5-tricarboxylato)-manganese(ii)]
;
_cell_volume   3101.266
_exptl_crystal_colour 'colorless'
_exptl_crystal_density_diffrn 1.599
_exptl_special_details
;
Crystal C (synthesized in 1-ethyl-3-methylimidazolium bromide)

;
_exptl_crystal_description 'prism'
_diffrn_ambient_temperature 320.1
_refine_special_details
;
C10,C11,C12,C13,C14,C15,N1,N2 and C10A,C11A,C12A,C13A,C14A,C15A,N1A,N2A 
disordered over two sites with occupancies 0.811:0.189.
;
#These two values have been output from a single CSD field.
_refine_ls_R_factor_gt 0.0733
_refine_ls_wR_factor_gt 0.0733
_symmetry_cell_setting orthorhombic
_symmetry_space_group_name_H-M 'P b c a'
_symmetry_Int_Tables_number 61
loop_
_symmetry_equiv_pos_site_id
_symmetry_equiv_pos_as_xyz
1 x,y,z
2 1/2-x,-y,1/2+z
3 1/2+x,1/2-y,-z
4 -x,1/2+y,1/2-z
5 -x,-y,-z
6 -1/2+x,y,-1/2-z
7 -1/2-x,-1/2+y,z
8 x,-1/2-y,-1/2+z
_cell_length_a 14.9773(6)
_cell_length_b 12.5017(5)
_cell_length_c 16.5629(6)
_cell_angle_alpha 90
_cell_angle_beta 90
_cell_angle_gamma 90
_cell_formula_units_Z 8
loop_
_atom_type_symbol
_atom_type_radius_bond
C 0.68
H 0.23
Mn 1.61
N 0.68
O 0.68
loop_
_atom_site_label
_atom_site_type_symbol
_atom_site_fract_x
_atom_site_fract_y
_atom_site_fract_z
C1 C 0.7683(4) 0.4214(5) 1.0008(3)
O1 O 0.5281(2) 0.1192(3) 1.00679(19)
C2 C 0.6341(3) 0.4040(4) 0.7228(3)
O2 O 0.5008(2) 0.0867(3) 0.8773(2)
C3 C 0.5918(3) 0.2721(4) 0.8306(3)
H1 H 0.55600 0.23780 0.79270
C4 C 0.5385(3) 0.1389(4) 0.9332(3)
Mn1 Mn 0.60384(5) 0.48631(6) 0.58239(4)
O3 O 0.5930(3) 0.3536(3) 0.6717(2)
C5 C 0.7026(3) 0.3697(4) 0.9428(3)
C6 C 0.6525(3) 0.2806(4) 0.9643(3)
H2 H 0.65690 0.25320 1.01640
C7 C 0.6400(3) 0.3615(4) 0.8084(3)
C8 C 0.6939(3) 0.4122(4) 0.8650(3)
H3 H 0.72420 0.47450 0.85120
C9 C 0.5964(3) 0.2325(4) 0.9094(3)
O4 O 0.8011(3) 0.3655(3) 1.0547(3)
O5 O 0.6695(3) 0.4928(3) 0.7080(2)
O6 O 0.7925(3) 0.5136(3) 0.9896(3)
N1? N 0.374(3) 0.2788(19) 0.7178(18)
C10? C 0.352(2) 0.288(2) 0.7950(18)
H4? H 0.32640 0.23620 0.82790
C11? C 0.395(2) 0.3746(19) 0.6805(15)
H5? H 0.40640 0.38810 0.62620
C12? C 0.394(3) 0.444(2) 0.7444(18)
H6? H 0.40540 0.51730 0.73990
C13? C 0.342(4) 0.415(5) 0.899(2)
H7? H 0.29520 0.36450 0.91350
H8? H 0.31790 0.48670 0.90260
C14? C 0.421(5) 0.402(7) 0.953(5)
H9? H 0.40370 0.36500 1.00160
H10? H 0.44420 0.47140 0.96740
H11? H 0.46670 0.36180 0.92610
C15? C 0.365(5) 0.190(4) 0.661(3)
H12? H 0.36090 0.21730 0.60730
H13? H 0.31210 0.15020 0.67400
H14? H 0.41620 0.14400 0.66560
N2? N 0.374(2) 0.393(2) 0.8165(16)
C16 C 0.3894(9) 0.2173(11) 0.6263(8)
H15 H 0.43500 0.16490 0.63600
H16 H 0.40700 0.26260 0.58230
H17 H 0.33450 0.18180 0.61300
C17 C 0.3838(9) 0.5212(11) 0.8169(8)
H18 H 0.41540 0.56730 0.77940
H19 H 0.32500 0.55160 0.82620
C18 C 0.4324(12) 0.5159(15) 0.8928(11)
H20 H 0.39620 0.48120 0.93280
H21 H 0.44670 0.58700 0.91050
H22 H 0.48650 0.47610 0.88520
C19 C 0.3439(6) 0.2451(8) 0.7727(6)
H23 H 0.32590 0.17550 0.78400
C20 C 0.3420(7) 0.3251(9) 0.8256(7)
H24 H 0.32350 0.32370 0.87910
N3 N 0.3745(7) 0.4116(7) 0.7813(6)
C21 C 0.3933(7) 0.3829(8) 0.7153(7)
H25 H 0.41830 0.42960 0.67780
N4 N 0.3771(8) 0.2800(7) 0.6966(6)
O1G O 0.5281(2) 0.3808(3) 0.50679(19)
O2C O 0.4992(2) 0.5867(3) 0.6227(2)
Mn1A Mn 0.89616(5) 0.51369(6) 1.08239(4)
Mn1C Mn 0.39616(5) -0.01369(6) 0.91761(4)
Mn1G Mn 0.60384(5) 0.01369(6) 1.08239(4)
O4A O 0.6989(3) 0.6345(3) 0.5547(3)
O6A O 0.7075(3) 0.4864(3) 0.4896(3)
#END
