
#######################################################################
#
#                 Cambridge Crystallographic Data Centre
#                                CCDC
#
#######################################################################
#
# If this CIF has been generated from an entry in the Cambridge
# Structural Database, then it will include bibliographic, chemical,
# crystal, experimental, refinement or atomic coordinate data resulting
# from the CCDC's data processing and validation procedures.
#
#######################################################################

data_CSD_CIF_WEYQAU13
_audit_creation_date 2016-05-28
_audit_creation_method CSD-ConQuest-V1
_database_code_CSD WEYQAU13
_database_code_depnum_ccdc_archive 'CCDC 1471915'
_chemical_formula_sum 'C15 H14 Mn1 N2 O6'
_chemical_formula_moiety
;
(C9 H3 Mn1 O6 1-)n,C6 H11 N2 1+
;
_journal_coeditor_code "bm5080"
_journal_coden_Cambridge 1743
_journal_volume 72
_journal_year 2016
_journal_page_first 389
_journal_name_full 'Acta Crystallogr.,Sect.B:Struct.Sci.,Cryst.Eng. and Mat. '
loop_
_publ_author_name
"S.R.Madsen"
"S.A.Moggach"
"J.Overgaard"
"B.Brummerstedt Iversen"
_chemical_name_systematic
;
catena-[1-ethyl-3-methyl-1H-imidazol-3-ium 
(\m-1,3,5-tricarboxylatobenzene)-manganese]
;
_cell_volume   2839.317
_exptl_crystal_colour 'colorless'
_exptl_crystal_density_diffrn 1.746
_exptl_crystal_description 'prismatic'
_diffrn_ambient_temperature 296.1
_diffrn_ambient_pressure 1700000.0
#These two values have been output from a single CSD field.
_refine_ls_R_factor_gt 0.0631
_refine_ls_wR_factor_gt 0.0631
_symmetry_cell_setting orthorhombic
_symmetry_space_group_name_H-M 'P b c a'
_symmetry_Int_Tables_number 61
loop_
_symmetry_equiv_pos_site_id
_symmetry_equiv_pos_as_xyz
1 x,y,z
2 1/2-x,-y,1/2+z
3 -x,1/2+y,1/2-z
4 1/2+x,1/2-y,-z
5 -x,-y,-z
6 -1/2+x,y,-1/2-z
7 x,-1/2-y,-1/2+z
8 -1/2-x,-1/2+y,z
_cell_length_a 14.1985(9)
_cell_length_b 12.0745(9)
_cell_length_c 16.5616(11)
_cell_angle_alpha 90
_cell_angle_beta 90
_cell_angle_gamma 90
_cell_formula_units_Z 8
loop_
_atom_type_symbol
_atom_type_radius_bond
C 0.68
H 0.23
Mn 1.61
N 0.68
O 0.68
loop_
_atom_site_label
_atom_site_type_symbol
_atom_site_fract_x
_atom_site_fract_y
_atom_site_fract_z
Mn1 Mn 0.60887(8) 0.47342(11) 0.56774(7)
O1 O 0.7928(4) 0.5241(5) 0.9676(3)
O2 O 0.7903(4) 0.3774(5) 1.0457(3)
O3 O 0.6019(4) 0.3225(5) 0.6506(3)
O4 O 0.4963(3) 0.0668(5) 0.8674(3)
C1 C 0.6440(5) 0.2816(7) 0.9513(5)
H1 H 0.64270 0.26090 1.00540
O5 O 0.5094(3) 0.1190(5) 0.9954(3)
C2 C 0.7644(5) 0.4282(8) 0.9847(5)
C3 C 0.6964(5) 0.4046(8) 0.8465(5)
H2 H 0.72870 0.46810 0.83100
C4 C 0.6456(6) 0.3804(8) 0.7026(5)
C5 C 0.6985(5) 0.3701(7) 0.9274(4)
C6 C 0.5277(5) 0.1313(7) 0.9205(5)
O6 O 0.6879(4) 0.4680(5) 0.6838(3)
C7 C 0.5934(5) 0.2541(7) 0.8135(5)
H3 H 0.55950 0.21400 0.77540
C8 C 0.5905(5) 0.2227(7) 0.8948(5)
C9 C 0.6461(5) 0.3442(7) 0.7896(4)
C10 C 0.3471(7) 0.2137(10) 0.7638(7)
H4 H 0.32490 0.14200 0.77150
C11 C 0.3872(8) 0.1967(11) 0.6156(7)
H5 H 0.32550 0.17880 0.59580
H6 H 0.42250 0.12970 0.62330
H7 H 0.41900 0.24300 0.57720
C12 C 0.3527(7) 0.2914(9) 0.8207(7)
H8 H 0.33580 0.28440 0.87470
C13 C 0.4016(8) 0.4917(10) 0.8221(7)
H9 H 0.34420 0.53470 0.81730
H10 H 0.45140 0.53150 0.79450
N1 N 0.3789(5) 0.2555(8) 0.6930(5)
C14 C 0.4269(9) 0.4789(12) 0.9103(7)
H11 H 0.38150 0.43190 0.93630
H12 H 0.42690 0.55020 0.93590
H13 H 0.48840 0.44630 0.91490
N2 N 0.3881(5) 0.3832(8) 0.7838(6)
C15 C 0.4041(6) 0.3598(9) 0.7054(7)
H14 H 0.42850 0.40810 0.66700
Mn1A Mn 0.89113(8) 0.52658(11) 1.06774(7)
Mn1B Mn 0.39113(8) -0.02658(11) 0.93226(7)
Mn1F Mn 0.60887(8) 0.02658(11) 1.06774(7)
O1A O 0.7072(4) 0.4759(5) 0.4676(3)
O2A O 0.7097(4) 0.6226(5) 0.5457(3)
O4B O 0.5037(3) 0.5668(5) 0.6326(3)
O5F O 0.5094(3) 0.3810(5) 0.4954(3)
#END
