
#######################################################################
#
#                 Cambridge Crystallographic Data Centre
#                                CCDC
#
#######################################################################
#
# If this CIF has been generated from an entry in the Cambridge
# Structural Database, then it will include bibliographic, chemical,
# crystal, experimental, refinement or atomic coordinate data resulting
# from the CCDC's data processing and validation procedures.
#
#######################################################################

data_CSD_CIF_WEYQAU16
_audit_creation_date 2016-05-28
_audit_creation_method CSD-ConQuest-V1
_database_code_CSD WEYQAU16
_database_code_depnum_ccdc_archive 'CCDC 1471918'
_chemical_formula_sum 'C15 H14 Mn1 N2 O6'
_chemical_formula_moiety
;
(C9 H3 Mn1 O6 1-)n,C6 H11 N2 1+
;
_journal_coeditor_code "bm5080"
_journal_coden_Cambridge 1743
_journal_volume 72
_journal_year 2016
_journal_page_first 389
_journal_name_full 'Acta Crystallogr.,Sect.B:Struct.Sci.,Cryst.Eng. and Mat. '
loop_
_publ_author_name
"S.R.Madsen"
"S.A.Moggach"
"J.Overgaard"
"B.Brummerstedt Iversen"
_chemical_name_systematic
;
catena-[1-ethyl-3-methyl-1H-imidazol-3-ium 
(\m-1,3,5-tricarboxylatobenzene)-manganese]
;
_cell_volume   2656.841
_exptl_crystal_colour 'colorless'
_exptl_crystal_density_diffrn 1.866
_exptl_crystal_description 'prismatic'
_diffrn_ambient_temperature 296.1
_diffrn_ambient_pressure 4300000.0
#These two values have been output from a single CSD field.
_refine_ls_R_factor_gt 0.1022
_refine_ls_wR_factor_gt 0.1022
_symmetry_cell_setting orthorhombic
_symmetry_space_group_name_H-M 'P b c a'
_symmetry_Int_Tables_number 61
loop_
_symmetry_equiv_pos_site_id
_symmetry_equiv_pos_as_xyz
1 x,y,z
2 1/2-x,-y,1/2+z
3 -x,1/2+y,1/2-z
4 1/2+x,1/2-y,-z
5 -x,-y,-z
6 -1/2+x,y,-1/2-z
7 x,-1/2-y,-1/2+z
8 -1/2-x,-1/2+y,z
_cell_length_a 14.140(5)
_cell_length_b 11.319(5)
_cell_length_c 16.600(6)
_cell_angle_alpha 90
_cell_angle_beta 90
_cell_angle_gamma 90
_cell_formula_units_Z 8
loop_
_atom_type_symbol
_atom_type_radius_bond
C 0.68
H 0.23
Mn 1.61
N 0.68
O 0.68
loop_
_atom_site_label
_atom_site_type_symbol
_atom_site_fract_x
_atom_site_fract_y
_atom_site_fract_z
Mn1 Mn 0.6118(4) 0.4661(6) 0.5563(4)
O1 O 0.8014(17) 0.524(3) 0.9476(15)
O2 O 0.7842(18) 0.381(3) 1.037(2)
O3 O 0.6092(16) 0.296(2) 0.6352(16)
O4 O 0.4832(16) 0.052(2) 0.8644(15)
C1 C 0.638(3) 0.290(4) 0.939(3)
H1 H 0.63060 0.27860 0.99460
O5 O 0.4982(15) 0.122(2) 0.9913(17)
C2 C 0.762(3) 0.423(5) 0.974(3)
C3 C 0.705(3) 0.398(4) 0.829(2)
H2 H 0.74720 0.45470 0.80940
C4 C 0.652(3) 0.368(5) 0.689(3)
C5 C 0.699(3) 0.371(4) 0.911(3)
C6 C 0.519(3) 0.133(4) 0.917(3)
O6 O 0.7042(18) 0.448(3) 0.6632(15)
C7 C 0.596(3) 0.244(4) 0.803(2)
H3 H 0.56660 0.19430 0.76540
C8 C 0.586(3) 0.221(4) 0.883(3)
C9 C 0.645(3) 0.335(4) 0.778(3)
C10 C 0.347(3) 0.197(4) 0.756(2)
H4 H 0.32280 0.12100 0.76140
C11 C 0.389(3) 0.181(4) 0.604(2)
H5 H 0.32830 0.14830 0.59050
H6 H 0.43550 0.11950 0.60470
H7 H 0.40620 0.23930 0.56450
C12 C 0.349(3) 0.274(4) 0.818(2)
H8 H 0.32440 0.26600 0.87020
C13 C 0.412(3) 0.478(4) 0.828(3)
H9 H 0.36080 0.53200 0.81470
H10 H 0.47010 0.51270 0.80840
N1 N 0.384(2) 0.237(3) 0.684(2)
C14 C 0.418(3) 0.468(4) 0.918(3)
H11 H 0.36870 0.41600 0.93700
H12 H 0.40990 0.54440 0.94180
H13 H 0.47830 0.43620 0.93280
N2 N 0.396(2) 0.368(3) 0.785(2)
C15 C 0.414(2) 0.345(3) 0.707(2)
H14 H 0.44440 0.39820 0.67210
Mn1A Mn 0.8882(4) 0.5339(6) 1.0563(4)
Mn1B Mn 0.3882(4) -0.0339(6) 0.9437(4)
Mn1F Mn 0.6118(4) 0.0339(6) 1.0563(4)
O1A O 0.6986(17) 0.476(3) 0.4476(15)
O2A O 0.7158(18) 0.619(3) 0.537(2)
O4B O 0.5168(16) 0.552(2) 0.6356(15)
O5F O 0.4982(15) 0.378(2) 0.4913(17)
#END
