
#######################################################################
#
#                 Cambridge Crystallographic Data Centre
#                                CCDC
#
#######################################################################
#
# If this CIF has been generated from an entry in the Cambridge
# Structural Database, then it will include bibliographic, chemical,
# crystal, experimental, refinement or atomic coordinate data resulting
# from the CCDC's data processing and validation procedures.
#
#######################################################################

data_CSD_CIF_WEYQAU04
_audit_creation_date 2015-10-15
_audit_creation_method CSD-ConQuest-V1
_database_code_CSD WEYQAU04
_database_code_depnum_ccdc_archive 'CCDC 1431443'
_chemical_formula_sum 'C15 H14 Mn1 N2 O6'
_chemical_formula_moiety
;
(C6 H11 N2 1+)n,n(C9 H3 Mn1 O6 1-)
;
_journal_coden_Cambridge 1743
_journal_volume 70
_journal_year 2014
_journal_page_first 595
_journal_name_full 'Acta Crystallogr.,Sect.B:Struct.Sci.,Cryst.Eng. and Mat. '
loop_
_publ_author_name
"S.R.Madsen"
"N.Lock"
"J.Overgaard"
"B.B.Iversen"
_chemical_name_systematic
;
catena-[(1-Ethyl-3-methyl-1H-imidazol-3-ium) 
(\m~4~-benzene-1,3,5-tricarboxylato)-manganese(ii)]
;
_cell_volume   3018.331
_exptl_crystal_colour 'colorless'
_exptl_crystal_density_diffrn 1.643
_exptl_special_details
;
Crystal C (synthesized in 1-ethyl-3-methylimidazolium bromide)

;
_exptl_crystal_description 'prism'
_diffrn_ambient_temperature 99.9
_refine_special_details
;
C10,C11,C12,C13,C14,C15,N1,N2 and C10A,C11A,C12A,C13A,C14A,C15A,N1A,N2A 
disordered over two sites with occupancies 0.821:0.179.
;
#These two values have been output from a single CSD field.
_refine_ls_R_factor_gt 0.0545
_refine_ls_wR_factor_gt 0.0545
_symmetry_cell_setting orthorhombic
_symmetry_space_group_name_H-M 'P b c a'
_symmetry_Int_Tables_number 61
loop_
_symmetry_equiv_pos_site_id
_symmetry_equiv_pos_as_xyz
1 x,y,z
2 1/2-x,-y,1/2+z
3 1/2+x,1/2-y,-z
4 -x,1/2+y,1/2-z
5 -x,-y,-z
6 -1/2+x,y,-1/2-z
7 -1/2-x,-1/2+y,z
8 x,-1/2-y,-1/2+z
_cell_length_a 14.6452(4)
_cell_length_b 12.3672(4)
_cell_length_c 16.6648(5)
_cell_angle_alpha 90
_cell_angle_beta 90
_cell_angle_gamma 90
_cell_formula_units_Z 8
loop_
_atom_type_symbol
_atom_type_radius_bond
C 0.68
H 0.23
Mn 1.61
N 0.68
O 0.68
loop_
_atom_site_label
_atom_site_type_symbol
_atom_site_fract_x
_atom_site_fract_y
_atom_site_fract_z
O1 O 0.67534(15) 0.48793(17) 0.70085(13)
O2 O 0.79050(15) 0.52091(18) 0.98389(14)
O3 O 0.59521(15) 0.34538(17) 0.66611(13)
O4 O 0.80125(15) 0.36977(17) 1.05109(13)
C1 C 0.7686(2) 0.4263(3) 0.99452(18)
C2 C 0.63842(19) 0.3976(2) 0.71656(18)
C3 C 0.6427(2) 0.3582(2) 0.80239(18)
O5 O 0.50136(14) 0.07963(16) 0.87377(12)
Mn1 Mn 0.60517(3) 0.48140(4) 0.57834(3)
C4 C 0.5370(2) 0.1366(2) 0.92869(18)
C5 C 0.6522(2) 0.2816(2) 0.95925(18)
H1 H 0.65580 0.25540 1.01270
C6 C 0.5963(2) 0.2297(2) 0.90395(18)
C7 C 0.7030(2) 0.3719(2) 0.93676(18)
C8 C 0.5933(2) 0.2670(2) 0.82546(18)
H2 H 0.55710 0.22990 0.78700
C9 C 0.6959(2) 0.4119(2) 0.85911(18)
H3 H 0.72740 0.47610 0.84460
O6 O 0.52298(14) 0.12024(16) 1.00259(12)
N1? N 0.370(4) 0.268(3) 0.701(2)
N2? N 0.3647(15) 0.3603(19) 0.8094(11)
C10? C 0.4020(18) 0.3697(18) 0.6809(14)
H4? H 0.42230 0.39430 0.62990
C11? C 0.3978(19) 0.4266(19) 0.7499(15)
H5? H 0.41480 0.50020 0.75640
C12? C 0.3395(19) 0.378(3) 0.8925(13)
H6? H 0.30600 0.31420 0.91240
H7? H 0.29730 0.44090 0.89510
C13? C 0.418(3) 0.399(4) 0.946(2)
H8? H 0.47420 0.37140 0.92150
H9? H 0.40820 0.36320 0.99780
H10? H 0.42450 0.47740 0.95500
C14? C 0.374(3) 0.185(3) 0.637(3)
H11? H 0.35870 0.21850 0.58520
H12? H 0.33030 0.12780 0.64900
H13? H 0.43580 0.15490 0.63420
C15? C 0.354(3) 0.260(2) 0.7805(19)
H14? H 0.33920 0.19630 0.80980
C16 C 0.3976(3) 0.3836(5) 0.7212(4)
H15 H 0.42140 0.43220 0.68230
C17 C 0.3927(5) 0.2209(6) 0.6330(4)
H16 H 0.33330 0.19690 0.61260
H17 H 0.43160 0.15790 0.64270
H18 H 0.42180 0.26820 0.59340
C18 C 0.3436(7) 0.2363(7) 0.7774(5)
H19 H 0.32310 0.16420 0.78510
C19 C 0.3433(3) 0.3161(4) 0.8317(3)
H20 H 0.32300 0.31020 0.88570
C20 C 0.3891(3) 0.5158(4) 0.8330(3)
H21 H 0.32830 0.54800 0.84310
H22 H 0.42280 0.56440 0.79630
C21 C 0.4400(4) 0.5063(5) 0.9105(3)
H23 H 0.49950 0.47260 0.90070
H24 H 0.40490 0.46160 0.94800
H25 H 0.44890 0.57840 0.93350
N3 N 0.3798(7) 0.2800(6) 0.7077(5)
N4 N 0.3780(3) 0.4101(4) 0.7954(3)
O2A O 0.70950(15) 0.47909(18) 0.48389(14)
O4A O 0.69875(15) 0.63023(17) 0.55109(13)
O5C O 0.49864(14) 0.57963(16) 0.62623(12)
Mn1A Mn 0.89483(3) 0.51860(4) 1.07834(3)
Mn1C Mn 0.39483(3) -0.01860(4) 0.92166(3)
Mn1G Mn 0.60517(3) 0.01860(4) 1.07834(3)
O6G O 0.52298(14) 0.37976(16) 0.50259(12)
#END
