
#######################################################################
#
#                 Cambridge Crystallographic Data Centre
#                                CCDC
#
#######################################################################
#
# If this CIF has been generated from an entry in the Cambridge
# Structural Database, then it will include bibliographic, chemical,
# crystal, experimental, refinement or atomic coordinate data resulting
# from the CCDC's data processing and validation procedures.
#
#######################################################################

data_CSD_CIF_WEYQAU01
_audit_creation_date 2015-10-15
_audit_creation_method CSD-ConQuest-V1
_database_code_CSD WEYQAU01
_database_code_depnum_ccdc_archive 'CCDC 1431440'
_chemical_formula_sum 'C15 H14 Mn1 N2 O6'
_chemical_formula_moiety
;
(C6 H11 N2 1+)n,n(C9 H3 Mn1 O6 1-)
;
_journal_coden_Cambridge 1743
_journal_volume 70
_journal_year 2014
_journal_page_first 595
_journal_name_full 'Acta Crystallogr.,Sect.B:Struct.Sci.,Cryst.Eng. and Mat. '
loop_
_publ_author_name
"S.R.Madsen"
"N.Lock"
"J.Overgaard"
"B.B.Iversen"
_chemical_name_systematic
;
catena-[(1-Ethyl-3-methyl-1H-imidazol-3-ium) 
(\m~4~-benzene-1,3,5-tricarboxylato)-manganese(ii)]
;
_cell_volume   3024.123
_exptl_crystal_colour 'colorless'
_exptl_crystal_density_diffrn 1.636
_exptl_special_details
;
Crystal A (synthesized in 1-ethyl-3-methylimidazolium tosylate)

;
_exptl_crystal_description 'prismatic'
_diffrn_ambient_temperature 100
_refine_special_details
;
C10,C11,C12,C13,C14,C15,N1,N2 and C10A,C11A,C12A,C13A,C14A,C15A,N1A,N2A 
disordered over two sites with occupancies 0.833:0.167.
;
#These two values have been output from a single CSD field.
_refine_ls_R_factor_gt 0.0287
_refine_ls_wR_factor_gt 0.0287
_symmetry_cell_setting orthorhombic
_symmetry_space_group_name_H-M 'P b c a'
_symmetry_Int_Tables_number 61
loop_
_symmetry_equiv_pos_site_id
_symmetry_equiv_pos_as_xyz
1 x,y,z
2 1/2-x,-y,1/2+z
3 1/2+x,1/2-y,-z
4 -x,1/2+y,1/2-z
5 -x,-y,-z
6 -1/2+x,y,-1/2-z
7 -1/2-x,-1/2+y,z
8 x,-1/2-y,-1/2+z
_cell_length_a 14.66658(13)
_cell_length_b 12.39497(9)
_cell_length_c 16.63509(14)
_cell_angle_alpha 90
_cell_angle_beta 90
_cell_angle_gamma 90
_cell_formula_units_Z 8
loop_
_atom_type_symbol
_atom_type_radius_bond
C 0.68
Mn 1.61
N 0.68
O 0.68
loop_
_atom_site_label
_atom_site_type_symbol
_atom_site_fract_x
_atom_site_fract_y
_atom_site_fract_z
Mn1 Mn 0.60521(2) 0.48211(2) 0.57858(2)
O1 O 0.59455(10) 0.34596(11) 0.66585(8)
O2 O 0.67486(10) 0.48798(11) 0.70128(8)
O3 O 0.70905(11) 0.47937(11) 0.48412(9)
O4 O 0.69872(10) 0.63114(11) 0.55141(8)
O5 O 0.49860(9) 0.57987(10) 0.62631(8)
O6 O 0.52326(9) 0.38012(10) 0.50253(7)
C1 C 0.63727(13) 0.39929(15) 0.71807(11)
C2 C 0.64237(13) 0.35806(14) 0.80271(11)
C3 C 0.69562(12) 0.41130(15) 0.85950(11)
C4 C 0.59313(12) 0.26701(15) 0.82532(11)
C5 C 0.70287(13) 0.37141(15) 0.93758(11)
C6 C 0.59608(12) 0.22966(14) 0.90429(11)
C7 C 0.65238(13) 0.28092(14) 0.95974(11)
C8 C 0.76842(13) 0.42328(15) 0.99526(11)
C9 C 0.53716(12) 0.13615(14) 0.92866(11)
C10 C 0.3436(4) 0.2375(4) 0.7759(3)
C11 C 0.3921(2) 0.2204(3) 0.6314(2)
C12 C 0.3426(2) 0.3163(3) 0.8314(2)
C13 C 0.3886(2) 0.5147(2) 0.8322(2)
N1 N 0.3794(6) 0.2794(4) 0.7058(3)
C14 C 0.4395(2) 0.5047(3) 0.9112(2)
N2 N 0.37718(16) 0.4083(2) 0.7948(2)
C15 C 0.39740(19) 0.3835(3) 0.7201(3)
C16? C 0.3434(14) 0.3807(17) 0.8949(10)
C17? C 0.462(2) 0.137(3) 0.623(2)
N3? N 0.374(4) 0.267(2) 0.7045(15)
C18? C 0.3942(11) 0.4246(12) 0.7521(11)
N4? N 0.3646(10) 0.3582(13) 0.8110(8)
C19? C 0.3696(17) 0.1812(19) 0.6413(15)
C20? C 0.357(2) 0.2568(18) 0.7844(14)
C21? C 0.4023(11) 0.3689(12) 0.6829(9)
O3A O 0.79095(11) 0.52063(11) 0.98412(9)
O4A O 0.80128(10) 0.36886(11) 1.05141(8)
O5C O 0.50140(9) 0.07987(10) 0.87369(8)
O6G O 0.52326(9) 0.11988(10) 1.00253(7)
Mn1A Mn 0.89479(2) 0.51789(2) 1.07858(2)
Mn1C Mn 0.39479(2) -0.01789(2) 0.92142(2)
Mn1G Mn 0.60521(2) 0.01789(2) 1.07858(2)
#END
