
#######################################################################
#
#                 Cambridge Crystallographic Data Centre
#                                CCDC
#
#######################################################################
#
# If this CIF has been generated from an entry in the Cambridge
# Structural Database, then it will include bibliographic, chemical,
# crystal, experimental, refinement or atomic coordinate data resulting
# from the CCDC's data processing and validation procedures.
#
#######################################################################

data_CSD_CIF_WEYQAU08
_audit_creation_date 2015-10-15
_audit_creation_method CSD-ConQuest-V1
_database_code_CSD WEYQAU08
_database_code_depnum_ccdc_archive 'CCDC 1431447'
_chemical_formula_sum 'C15 H14 Mn1 N2 O6'
_chemical_formula_moiety
;
(C6 H11 N2 1+)n,n(C9 H3 Mn1 O6 1-)
;
_journal_coden_Cambridge 1743
_journal_volume 70
_journal_year 2014
_journal_page_first 595
_journal_name_full 'Acta Crystallogr.,Sect.B:Struct.Sci.,Cryst.Eng. and Mat. '
loop_
_publ_author_name
"S.R.Madsen"
"N.Lock"
"J.Overgaard"
"B.B.Iversen"
_chemical_name_systematic
;
catena-[(1-Ethyl-3-methyl-1H-imidazol-3-ium) 
(\m~4~-benzene-1,3,5-tricarboxylato)-manganese(ii)]
;
_cell_volume   3087.310
_exptl_crystal_colour 'colorless'
_exptl_crystal_density_diffrn 1.606
_exptl_special_details
;
Crystal C (synthesized in 1-ethyl-3-methylimidazolium bromide)

;
_exptl_crystal_description 'prism'
_diffrn_ambient_temperature 300.1
_refine_special_details
;
C10,C11,C12,C13,C14,C15,N1,N2 and C10A,C11A,C12A,C13A,C14A,C15A,N1A,N2A 
disordered over two sites with occupancies 0.786:0.214.
;
#These two values have been output from a single CSD field.
_refine_ls_R_factor_gt 0.0662
_refine_ls_wR_factor_gt 0.0662
_symmetry_cell_setting orthorhombic
_symmetry_space_group_name_H-M 'P b c a'
_symmetry_Int_Tables_number 61
loop_
_symmetry_equiv_pos_site_id
_symmetry_equiv_pos_as_xyz
1 x,y,z
2 1/2-x,-y,1/2+z
3 1/2+x,1/2-y,-z
4 -x,1/2+y,1/2-z
5 -x,-y,-z
6 -1/2+x,y,-1/2-z
7 -1/2-x,-1/2+y,z
8 x,-1/2-y,-1/2+z
_cell_length_a 14.9204(6)
_cell_length_b 12.4737(5)
_cell_length_c 16.5884(6)
_cell_angle_alpha 90
_cell_angle_beta 90
_cell_angle_gamma 90
_cell_formula_units_Z 8
loop_
_atom_type_symbol
_atom_type_radius_bond
C 0.68
H 0.23
Mn 1.61
N 0.68
O 0.68
loop_
_atom_site_label
_atom_site_type_symbol
_atom_site_fract_x
_atom_site_fract_y
_atom_site_fract_z
Mn1 Mn 0.60400(4) 0.48558(5) 0.58142(4)
O1 O 0.5928(2) 0.3525(3) 0.67086(18)
O2 O 0.6704(2) 0.4915(3) 0.70604(19)
O3 O 0.5276(2) 0.3805(2) 0.50571(17)
O4 O 0.4986(2) 0.5854(2) 0.62340(17)
O5 O 0.7082(2) 0.4849(3) 0.4887(2)
O6 O 0.6983(2) 0.6336(3) 0.5535(2)
C1 C 0.6353(3) 0.4028(3) 0.7216(3)
C2 C 0.6404(3) 0.3614(3) 0.8073(2)
C3 C 0.6941(3) 0.4125(3) 0.8639(2)
C4 C 0.5922(3) 0.2710(3) 0.8294(2)
H1 H 0.72440 0.47500 0.85000
C5 C 0.7030(3) 0.3704(3) 0.9414(2)
C6 C 0.5968(3) 0.2318(3) 0.9075(2)
H2 H 0.55640 0.23640 0.79160
C7 C 0.7687(3) 0.4223(4) 0.9990(3)
C8 C 0.6524(3) 0.2810(3) 0.9627(3)
C9 C 0.5387(3) 0.1389(3) 0.9321(2)
H3 H 0.65610 0.25410 1.01490
C10 C 0.3914(9) 0.2210(11) 0.6355(8)
H4 H 0.43800 0.16960 0.64540
H5 H 0.40860 0.26690 0.59170
H6 H 0.33700 0.18420 0.62200
C11 C 0.3853(6) 0.5197(8) 0.8213(6)
H7 H 0.41730 0.56220 0.78160
H8 H 0.32680 0.55190 0.82970
C12 C 0.4333(9) 0.5182(12) 0.8943(9)
H9 H 0.48820 0.47920 0.88710
H10 H 0.39790 0.48390 0.93520
H11 H 0.44660 0.59030 0.91050
C13 C 0.3438(6) 0.2491(7) 0.7805(5)
H12 H 0.32630 0.17900 0.79130
C14 C 0.3404(7) 0.3252(8) 0.8300(7)
H13 H 0.31840 0.32200 0.88240
C15 C 0.3944(6) 0.3879(7) 0.7191(6)
H14 H 0.41680 0.43470 0.68040
N1 N 0.3773(4) 0.2851(5) 0.7074(4)
N2 N 0.3751(5) 0.4134(5) 0.7929(5)
N3? N 0.3748(15) 0.2591(14) 0.6764(13)
C16? C 0.3466(19) 0.2289(17) 0.7496(14)
H15? H 0.32510 0.16120 0.76280
C17? C 0.3957(13) 0.3679(14) 0.6821(12)
H16? H 0.41770 0.40900 0.63980
C18? C 0.3801(17) 0.4054(16) 0.7559(14)
H17? H 0.38480 0.47570 0.77400
C19? C 0.359(3) 0.362(4) 0.8825(18)
H18? H 0.34960 0.30130 0.91770
H19? H 0.30270 0.40170 0.88450
C20? C 0.422(3) 0.435(5) 0.934(3)
H20? H 0.39700 0.50560 0.93710
H21? H 0.47980 0.43730 0.90970
H22? H 0.42650 0.40520 0.98740
C21? C 0.381(3) 0.199(3) 0.6064(18)
H23? H 0.43380 0.15520 0.60840
H24? H 0.38420 0.24600 0.56070
H25? H 0.32910 0.15390 0.60150
N4? N 0.354(2) 0.3119(19) 0.8011(13)
O5A O 0.7918(2) 0.5151(3) 0.9887(2)
O6A O 0.8017(2) 0.3664(3) 1.0535(2)
O3G O 0.5276(2) 0.1195(2) 1.00571(17)
O4C O 0.5014(2) 0.0854(2) 0.87660(17)
Mn1A Mn 0.89600(4) 0.51442(5) 1.08142(4)
Mn1G Mn 0.60400(4) 0.01442(5) 1.08142(4)
Mn1C Mn 0.39600(4) -0.01442(5) 0.91858(4)
#END
