
#######################################################################
#
#                 Cambridge Crystallographic Data Centre
#                                CCDC
#
#######################################################################
#
# If this CIF has been generated from an entry in the Cambridge
# Structural Database, then it will include bibliographic, chemical,
# crystal, experimental, refinement or atomic coordinate data resulting
# from the CCDC's data processing and validation procedures.
#
#######################################################################

data_CSD_CIF_WEYQAU03
_audit_creation_date 2015-10-15
_audit_creation_method CSD-ConQuest-V1
_database_code_CSD WEYQAU03
_database_code_depnum_ccdc_archive 'CCDC 1431442'
_chemical_formula_sum 'C15 H14 Mn1 N2 O6'
_chemical_formula_moiety
;
(C6 H11 N2 1+)n,n(C9 H3 Mn1 O6 1-)
;
_journal_coden_Cambridge 1743
_journal_volume 70
_journal_year 2014
_journal_page_first 595
_journal_name_full 'Acta Crystallogr.,Sect.B:Struct.Sci.,Cryst.Eng. and Mat. '
loop_
_publ_author_name
"S.R.Madsen"
"N.Lock"
"J.Overgaard"
"B.B.Iversen"
_chemical_name_systematic
;
catena-[(1-Ethyl-3-methyl-1H-imidazol-3-ium) 
(\m~4~-benzene-1,3,5-tricarboxylato)-manganese(ii)]
;
_cell_volume   3093.991
_exptl_crystal_colour 'colorless'
_exptl_crystal_density_diffrn 1.6
_exptl_special_details
;
Crystal A (synthesized in 1-ethyl-3-methylimidazolium tosylate)

;
_exptl_crystal_description 'prismatic'
_diffrn_ambient_temperature 293.0
_refine_special_details
;
C10,C11,C12,C13,C14,C15,N1,N2 and C10A,C11A,C12A,C13A,C14A,C15A,N1A,N2A 
disordered over two sites with occupancies 0.873:0.127.
;
#These two values have been output from a single CSD field.
_refine_ls_R_factor_gt 0.0334
_refine_ls_wR_factor_gt 0.0334
_symmetry_cell_setting orthorhombic
_symmetry_space_group_name_H-M 'P b c a'
_symmetry_Int_Tables_number 61
loop_
_symmetry_equiv_pos_site_id
_symmetry_equiv_pos_as_xyz
1 x,y,z
2 1/2-x,-y,1/2+z
3 1/2+x,1/2-y,-z
4 -x,1/2+y,1/2-z
5 -x,-y,-z
6 -1/2+x,y,-1/2-z
7 -1/2-x,-1/2+y,z
8 x,-1/2-y,-1/2+z
_cell_length_a 14.92869(16)
_cell_length_b 12.49901(11)
_cell_length_c 16.58142(15)
_cell_angle_alpha 90
_cell_angle_beta 90
_cell_angle_gamma 90
_cell_formula_units_Z 8
loop_
_atom_type_symbol
_atom_type_radius_bond
C 0.68
H 0.23
Mn 1.61
N 0.68
O 0.68
loop_
_atom_site_label
_atom_site_type_symbol
_atom_site_fract_x
_atom_site_fract_y
_atom_site_fract_z
Mn1 Mn 0.60410(2) 0.48591(2) 0.58143(2)
O1 O 0.79177(14) 0.51580(14) 0.98821(12)
O2 O 0.80154(13) 0.36592(14) 1.05358(11)
O3 O 0.59201(12) 0.35245(13) 0.67052(9)
O4 O 0.50145(10) 0.08519(12) 0.87635(9)
C1 C 0.65298(14) 0.28080(16) 0.96329(12)
H1 H 0.65760 0.25350 1.01530
O5 O 0.52765(11) 0.11921(12) 1.00551(8)
C2 C 0.76854(15) 0.42048(18) 0.99881(13)
C3 C 0.69402(14) 0.41214(16) 0.86382(12)
H2 H 0.72450 0.47440 0.84980
C4 C 0.63408(14) 0.40394(17) 0.72266(13)
C5 C 0.70263(14) 0.37062(17) 0.94150(12)
C6 C 0.53869(13) 0.13850(15) 0.93182(12)
O6 O 0.67059(12) 0.49162(13) 0.70615(10)
C7 C 0.59214(14) 0.27078(16) 0.82931(12)
H3 H 0.55660 0.23610 0.79140
C8 C 0.59647(13) 0.23162(16) 0.90767(12)
C9 C 0.64023(14) 0.36115(16) 0.80707(12)
C10 C 0.3428(4) 0.2416(5) 0.7722(4)
H4 H 0.32490 0.17140 0.78130
C11 C 0.3904(4) 0.2203(5) 0.6267(4)
H5 H 0.43280 0.16410 0.63690
H6 H 0.41330 0.26670 0.58540
H7 H 0.33470 0.18970 0.60920
C12 C 0.3408(3) 0.3208(4) 0.8264(3)
H8 H 0.32100 0.31610 0.87940
C13 C 0.3846(3) 0.5189(4) 0.8221(4)
H9 H 0.32620 0.55020 0.83190
H10 H 0.41650 0.56430 0.78430
N1 N 0.3760(5) 0.2814(4) 0.7003(4)
C14 C 0.4373(4) 0.5117(6) 0.9019(5)
H11 H 0.49710 0.48720 0.89120
H12 H 0.40800 0.46230 0.93750
H13 H 0.43960 0.58100 0.92670
N2 N 0.3742(2) 0.4115(3) 0.7880(3)
C15 C 0.3941(3) 0.3837(4) 0.7147(4)
H14 H 0.41840 0.43000 0.67660
C16? C 0.347(3) 0.390(4) 0.8942(17)
H15? H 0.40210 0.38070 0.92370
H16? H 0.30250 0.34250 0.91560
H17? H 0.32720 0.46240 0.89910
C17? C 0.467(4) 0.148(7) 0.640(5)
H18? H 0.47650 0.12230 0.58640
H19? H 0.47580 0.09130 0.67800
H20? H 0.50760 0.20550 0.65140
N3? N 0.379(3) 0.273(2) 0.7110(14)
C18? C 0.391(2) 0.429(2) 0.7490(16)
H21? H 0.40210 0.50240 0.75370
N4? N 0.3623(18) 0.365(2) 0.8105(13)
C19? C 0.372(4) 0.189(3) 0.647(3)
H22? H 0.35080 0.21940 0.59690
H23? H 0.33100 0.13250 0.66380
C20? C 0.354(3) 0.264(2) 0.7873(15)
H24? H 0.33630 0.20370 0.81630
C21? C 0.401(2) 0.3718(19) 0.6803(13)
H25? H 0.41750 0.39270 0.62860
Mn1A Mn 0.89590(2) 0.51409(2) 1.08143(2)
Mn1C Mn 0.39590(2) -0.01409(2) 0.91857(2)
Mn1G Mn 0.60410(2) 0.01409(2) 1.08143(2)
O1A O 0.70823(14) 0.48420(14) 0.48821(12)
O2A O 0.69846(13) 0.63408(14) 0.55358(11)
O4C O 0.49855(10) 0.58519(12) 0.62365(9)
O5G O 0.52765(11) 0.38079(12) 0.50551(8)
#END
