
#######################################################################
#
#                 Cambridge Crystallographic Data Centre
#                                CCDC
#
#######################################################################
#
# If this CIF has been generated from an entry in the Cambridge
# Structural Database, then it will include bibliographic, chemical,
# crystal, experimental, refinement or atomic coordinate data resulting
# from the CCDC's data processing and validation procedures.
#
#######################################################################

data_CSD_CIF_WEYQAU05
_audit_creation_date 2015-10-15
_audit_creation_method CSD-ConQuest-V1
_database_code_CSD WEYQAU05
_database_code_depnum_ccdc_archive 'CCDC 1431444'
_chemical_formula_sum 'C15 H14 Mn1 N2 O6'
_chemical_formula_moiety
;
(C6 H11 N2 1+)n,n(C9 H3 Mn1 O6 1-)
;
_journal_coden_Cambridge 1743
_journal_volume 70
_journal_year 2014
_journal_page_first 595
_journal_name_full 'Acta Crystallogr.,Sect.B:Struct.Sci.,Cryst.Eng. and Mat. '
loop_
_publ_author_name
"S.R.Madsen"
"N.Lock"
"J.Overgaard"
"B.B.Iversen"
_chemical_name_systematic
;
catena-[(1-Ethyl-3-methyl-1H-imidazol-3-ium) 
(\m~4~-benzene-1,3,5-tricarboxylato)-manganese(ii)]
;
_cell_volume   3034.138
_exptl_crystal_colour 'colorless'
_exptl_crystal_density_diffrn 1.634
_exptl_special_details
;
Crystal C (synthesized in 1-ethyl-3-methylimidazolium bromide)

;
_exptl_crystal_description 'prism'
_diffrn_ambient_temperature 160.2
_refine_special_details
;
C10,C11,C12,C13,C14,C15,N1,N2 and C10A,C11A,C12A,C13A,C14A,C15A,N1A,N2A 
disordered over two sites with occupancies 0.797:0.203.
;
#These two values have been output from a single CSD field.
_refine_ls_R_factor_gt 0.0658
_refine_ls_wR_factor_gt 0.0658
_symmetry_cell_setting orthorhombic
_symmetry_space_group_name_H-M 'P b c a'
_symmetry_Int_Tables_number 61
loop_
_symmetry_equiv_pos_site_id
_symmetry_equiv_pos_as_xyz
1 x,y,z
2 1/2-x,-y,1/2+z
3 1/2+x,1/2-y,-z
4 -x,1/2+y,1/2-z
5 -x,-y,-z
6 -1/2+x,y,-1/2-z
7 -1/2-x,-1/2+y,z
8 x,-1/2-y,-1/2+z
_cell_length_a 14.7079(5)
_cell_length_b 12.3931(4)
_cell_length_c 16.6458(5)
_cell_angle_alpha 90
_cell_angle_beta 90
_cell_angle_gamma 90
_cell_formula_units_Z 8
loop_
_atom_type_symbol
_atom_type_radius_bond
C 0.68
H 0.23
Mn 1.61
N 0.68
O 0.68
loop_
_atom_site_label
_atom_site_type_symbol
_atom_site_fract_x
_atom_site_fract_y
_atom_site_fract_z
O1 O 0.50141(19) 0.0806(2) 0.87398(17)
O2 O 0.5952(2) 0.3468(2) 0.66660(18)
O3 O 0.52422(19) 0.1201(2) 1.00315(16)
O4 O 0.6741(2) 0.4887(2) 0.70191(17)
C1 C 0.5376(3) 0.1371(3) 0.9291(2)
C2 C 0.5932(3) 0.2675(3) 0.8258(2)
H1 H 0.55760 0.23050 0.78700
C3 C 0.7687(3) 0.4254(4) 0.9951(2)
O5 O 0.7907(2) 0.5191(2) 0.98469(19)
C4 C 0.6528(3) 0.2812(3) 0.9597(2)
H2 H 0.65720 0.25410 1.01300
C5 C 0.7030(3) 0.3715(3) 0.9376(2)
C6 C 0.6954(3) 0.4113(3) 0.8599(2)
H3 H 0.72710 0.47520 0.84540
C7 C 0.5964(3) 0.2302(3) 0.9047(2)
C8 C 0.6424(3) 0.3592(3) 0.8034(2)
C9 C 0.6377(3) 0.3984(3) 0.7175(2)
O6 O 0.8017(2) 0.3687(2) 1.05136(18)
Mn1 Mn 0.60497(4) 0.48245(5) 0.57893(4)
C10 C 0.3911(7) 0.2212(8) 0.6321(5)
H4 H 0.43570 0.16360 0.64080
H5 H 0.41280 0.26940 0.58960
H6 H 0.33280 0.18940 0.61620
C11 C 0.3884(5) 0.5157(6) 0.8324(5)
H7 H 0.32800 0.54800 0.84270
H8 H 0.42180 0.56390 0.79530
C12 C 0.4387(6) 0.5073(7) 0.9084(5)
H9 H 0.49850 0.47510 0.89830
H10 H 0.40460 0.46170 0.94590
H11 H 0.44650 0.57940 0.93160
C13 C 0.3451(6) 0.2363(7) 0.7739(5)
H12 H 0.32610 0.16360 0.78090
C14 C 0.3434(5) 0.3171(6) 0.8310(4)
H13 H 0.32320 0.31030 0.88490
N1 N 0.3794(7) 0.2817(6) 0.7054(4)
C15 C 0.3966(5) 0.3849(6) 0.7216(5)
H14 H 0.42070 0.43430 0.68360
N2 N 0.3768(4) 0.4102(5) 0.7950(4)
C16? C 0.3485(15) 0.2618(18) 0.7903(12)
H15? H 0.32420 0.20340 0.82050
C17? C 0.4002(13) 0.3676(14) 0.6852(12)
H16? H 0.41870 0.39400 0.63410
C18? C 0.3936(17) 0.4206(17) 0.7537(13)
H17? H 0.40660 0.49540 0.75870
N3? N 0.374(3) 0.2631(18) 0.7062(15)
C19? C 0.345(2) 0.381(3) 0.8978(15)
H18? H 0.31680 0.31490 0.92080
H19? H 0.29880 0.43870 0.89960
C20? C 0.424(3) 0.413(5) 0.951(2)
H20? H 0.48070 0.38500 0.92790
H21? H 0.41530 0.38330 1.00470
H22? H 0.42720 0.49190 0.95390
C21? C 0.381(5) 0.184(4) 0.641(3)
H23? H 0.44550 0.16490 0.63380
H24? H 0.35710 0.21440 0.59170
H25? H 0.34690 0.11880 0.65570
N4? N 0.367(2) 0.360(2) 0.8152(12)
O1C O 0.49859(19) 0.5806(2) 0.62602(17)
O3G O 0.52422(19) 0.3799(2) 0.50315(16)
O5A O 0.7093(2) 0.4809(2) 0.48469(19)
O6A O 0.6983(2) 0.6313(2) 0.55136(18)
Mn1A Mn 0.89503(4) 0.51755(5) 1.07893(4)
Mn1C Mn 0.39503(4) -0.01755(5) 0.92107(4)
Mn1G Mn 0.60497(4) 0.01755(5) 1.07893(4)
#END
