
#######################################################################
#
#                 Cambridge Crystallographic Data Centre
#                                CCDC
#
#######################################################################
#
# If this CIF has been generated from an entry in the Cambridge
# Structural Database, then it will include bibliographic, chemical,
# crystal, experimental, refinement or atomic coordinate data resulting
# from the CCDC's data processing and validation procedures.
#
#######################################################################

data_CSD_CIF_WEYQAU11
_audit_creation_date 2016-05-28
_audit_creation_method CSD-ConQuest-V1
_database_code_CSD WEYQAU11
_database_code_depnum_ccdc_archive 'CCDC 1471913'
_chemical_formula_sum 'C15 H14 Mn1 N2 O6'
_chemical_formula_moiety
;
(C9 H3 Mn1 O6 1-)n,C6 H11 N2 1+
;
_journal_coeditor_code "bm5080"
_journal_coden_Cambridge 1743
_journal_volume 72
_journal_year 2016
_journal_page_first 389
_journal_name_full 'Acta Crystallogr.,Sect.B:Struct.Sci.,Cryst.Eng. and Mat. '
loop_
_publ_author_name
"S.R.Madsen"
"S.A.Moggach"
"J.Overgaard"
"B.Brummerstedt Iversen"
_chemical_name_systematic
;
catena-[1-ethyl-3-methyl-1H-imidazol-3-ium 
(\m-1,3,5-tricarboxylatobenzene)-manganese]
;
_cell_volume   3016.416
_exptl_crystal_colour 'colorless'
_exptl_crystal_density_diffrn 1.644
_exptl_crystal_description 'prismatic'
_diffrn_ambient_temperature 296.1
_diffrn_ambient_pressure 300000.0
#These two values have been output from a single CSD field.
_refine_ls_R_factor_gt 0.0621
_refine_ls_wR_factor_gt 0.0621
_symmetry_cell_setting orthorhombic
_symmetry_space_group_name_H-M 'P b c a'
_symmetry_Int_Tables_number 61
loop_
_symmetry_equiv_pos_site_id
_symmetry_equiv_pos_as_xyz
1 x,y,z
2 1/2-x,-y,1/2+z
3 -x,1/2+y,1/2-z
4 1/2+x,1/2-y,-z
5 -x,-y,-z
6 -1/2+x,y,-1/2-z
7 x,-1/2-y,-1/2+z
8 -1/2-x,-1/2+y,z
_cell_length_a 14.6480(9)
_cell_length_b 12.4006(10)
_cell_length_c 16.6062(10)
_cell_angle_alpha 90
_cell_angle_beta 90
_cell_angle_gamma 90
_cell_formula_units_Z 8
loop_
_atom_type_symbol
_atom_type_radius_bond
C 0.68
H 0.23
Mn 1.61
N 0.68
O 0.68
loop_
_atom_site_label
_atom_site_type_symbol
_atom_site_fract_x
_atom_site_fract_y
_atom_site_fract_z
Mn1 Mn 0.60520(7) 0.48195(9) 0.57808(6)
O1 O 0.7902(3) 0.5197(5) 0.9834(3)
O2 O 0.7999(3) 0.3701(5) 1.0508(3)
O3 O 0.5952(3) 0.3443(4) 0.6655(3)
O4 O 0.5010(3) 0.0802(4) 0.8738(3)
C1 C 0.6509(4) 0.2817(6) 0.9595(4)
H1 H 0.65420 0.25610 1.01210
O5 O 0.5232(3) 0.1195(4) 1.0025(3)
C2 C 0.7671(5) 0.4247(7) 0.9949(5)
C3 C 0.6950(4) 0.4109(6) 0.8593(4)
H2 H 0.72560 0.47370 0.84500
C4 C 0.6372(5) 0.3995(6) 0.7173(4)
C5 C 0.7023(4) 0.3716(6) 0.9373(4)
C6 C 0.5367(4) 0.1362(6) 0.9290(4)
O6 O 0.6742(3) 0.4860(4) 0.7007(3)
C7 C 0.5929(4) 0.2674(6) 0.8252(4)
H3 H 0.55790 0.23160 0.78690
C8 C 0.5946(4) 0.2296(6) 0.9039(4)
C9 C 0.6427(4) 0.3577(6) 0.8030(4)
C10 C 0.3454(6) 0.2373(9) 0.7733(6)
H4 H 0.32650 0.16690 0.78310
C11 C 0.3894(8) 0.2121(10) 0.6276(8)
H5 H 0.33180 0.18220 0.61130
H6 H 0.43210 0.15480 0.63700
H7 H 0.41220 0.25840 0.58580
C12 C 0.3455(6) 0.3178(9) 0.8279(7)
H8 H 0.32670 0.31410 0.88130
C13 C 0.3902(8) 0.512(1) 0.8268(8)
H9 H 0.33100 0.54570 0.83420
H10 H 0.42650 0.55780 0.79200
N1 N 0.3771(4) 0.2746(7) 0.7018(6)
C14 C 0.4374(9) 0.4992(13) 0.9079(9)
H11 H 0.49680 0.46820 0.90010
H12 H 0.40170 0.45290 0.94180
H13 H 0.44350 0.56860 0.93300
N2 N 0.3785(5) 0.4046(7) 0.7890(6)
C15 C 0.3978(6) 0.3780(8) 0.7132(7)
H14 H 0.42180 0.42410 0.67450
Mn1A Mn 0.89480(7) 0.51805(9) 1.07808(6)
Mn1B Mn 0.39480(7) -0.01805(9) 0.92192(6)
Mn1F Mn 0.60520(7) 0.01805(9) 1.07808(6)
O1A O 0.7098(3) 0.4803(5) 0.4834(3)
O2A O 0.7001(3) 0.6299(5) 0.5508(3)
O4B O 0.4990(3) 0.5802(4) 0.6262(3)
O5F O 0.5232(3) 0.3805(4) 0.5025(3)
#END
