
#######################################################################
#
#                 Cambridge Crystallographic Data Centre
#                                CCDC
#
#######################################################################
#
# If this CIF has been generated from an entry in the Cambridge
# Structural Database, then it will include bibliographic, chemical,
# crystal, experimental, refinement or atomic coordinate data resulting
# from the CCDC's data processing and validation procedures.
#
#######################################################################

data_CSD_CIF_WEYQAU12
_audit_creation_date 2016-05-28
_audit_creation_method CSD-ConQuest-V1
_database_code_CSD WEYQAU12
_database_code_depnum_ccdc_archive 'CCDC 1471914'
_chemical_formula_sum 'C15 H14 Mn1 N2 O6'
_chemical_formula_moiety
;
(C9 H3 Mn1 O6 1-)n,C6 H11 N2 1+
;
_journal_coeditor_code "bm5080"
_journal_coden_Cambridge 1743
_journal_volume 72
_journal_year 2016
_journal_page_first 389
_journal_name_full 'Acta Crystallogr.,Sect.B:Struct.Sci.,Cryst.Eng. and Mat. '
loop_
_publ_author_name
"S.R.Madsen"
"S.A.Moggach"
"J.Overgaard"
"B.Brummerstedt Iversen"
_chemical_name_systematic
;
catena-[1-ethyl-3-methyl-1H-imidazol-3-ium 
(\m-1,3,5-tricarboxylatobenzene)-manganese]
;
_cell_volume   2934.906
_exptl_crystal_colour 'colorless'
_exptl_crystal_density_diffrn 1.689
_exptl_crystal_description 'prismatic'
_diffrn_ambient_temperature 296.1
_diffrn_ambient_pressure 700000.0
#These two values have been output from a single CSD field.
_refine_ls_R_factor_gt 0.0514
_refine_ls_wR_factor_gt 0.0514
_symmetry_cell_setting orthorhombic
_symmetry_space_group_name_H-M 'P b c a'
_symmetry_Int_Tables_number 61
loop_
_symmetry_equiv_pos_site_id
_symmetry_equiv_pos_as_xyz
1 x,y,z
2 1/2-x,-y,1/2+z
3 -x,1/2+y,1/2-z
4 1/2+x,1/2-y,-z
5 -x,-y,-z
6 -1/2+x,y,-1/2-z
7 x,-1/2-y,-1/2+z
8 -1/2-x,-1/2+y,z
_cell_length_a 14.3847(6)
_cell_length_b 12.2888(6)
_cell_length_c 16.6029(7)
_cell_angle_alpha 90
_cell_angle_beta 90
_cell_angle_gamma 90
_cell_formula_units_Z 8
loop_
_atom_type_symbol
_atom_type_radius_bond
C 0.68
H 0.23
Mn 1.61
N 0.68
O 0.68
loop_
_atom_site_label
_atom_site_type_symbol
_atom_site_fract_x
_atom_site_fract_y
_atom_site_fract_z
Mn1 Mn 1.10689(5) 1.47768(7) 0.92615(4)
O1 O 1.2903(3) 1.5225(3) 0.5225(2)
O2 O 1.2958(3) 1.3740(3) 0.4509(2)
O3 O 1.0985(2) 1.3346(3) 0.8411(2)
O4 O 0.9994(2) 1.0740(3) 0.6291(2)
C1 C 1.1481(3) 1.2816(5) 0.5444(3)
H1 H 1.14970 1.25780 0.49120
O5 O 1.0170(2) 1.1193(3) 0.5007(2)
C2 C 1.2652(4) 1.4266(5) 0.5092(3)
C3 C 1.1952(3) 1.4083(5) 0.6465(3)
H2 H 1.22640 1.47140 0.66150
C4 C 1.1407(4) 1.3905(5) 0.7889(3)
C5 C 1.2005(3) 1.3723(5) 0.5670(3)
C6 C 1.0336(3) 1.1336(5) 0.5742(3)
O6 O 1.1794(2) 1.4782(3) 0.8062(2)
C7 C 1.0934(3) 1.2607(5) 0.6794(3)
H3 H 1.05890 1.22250 0.71740
C8 C 1.0932(3) 1.2263(5) 0.6003(3)
C9 C 1.1441(3) 1.3515(5) 0.7033(3)
C10 C 0.8459(5) 1.2275(7) 0.7301(5)
H4 H 0.82470 1.15690 0.72180
C11 C 0.8872(6) 1.2060(8) 0.8768(6)
H5 H 0.82760 1.17790 0.89240
H6 H 0.91000 1.25390 0.91810
H7 H 0.93000 1.14690 0.86970
C12 C 0.8485(5) 1.3045(7) 0.6739(6)
H8 H 0.83080 1.29880 0.62020
C13 C 0.8948(6) 1.5026(7) 0.6743(6)
H9 H 0.93630 1.54670 0.70670
H10 H 0.83510 1.53920 0.67150
N1 N 0.8782(3) 1.2661(5) 0.8013(4)
C14 C 0.9343(7) 1.4901(9) 0.5905(6)
H11 H 0.99410 1.45560 0.59360
H12 H 0.94080 1.56050 0.56620
H13 H 0.89320 1.44620 0.55860
N2 N 0.8830(4) 1.3937(6) 0.7125(5)
C15 C 0.9011(4) 1.3709(6) 0.7894(5)
H14 H 0.92510 1.41850 0.82760
Mn1A Mn 1.39311(5) 1.52232(7) 0.42615(4)
Mn1B Mn 0.89311(5) 0.97768(7) 0.57385(4)
Mn1F Mn 1.10689(5) 1.02232(7) 0.42615(4)
O1A O 1.2097(3) 1.4775(3) 1.0225(2)
O2A O 1.2042(3) 1.6260(3) 0.9509(2)
O4B O 1.0006(2) 1.5740(3) 0.8709(2)
O5F O 1.0170(2) 1.3807(3) 1.0007(2)
#END
