
#######################################################################
#
#                 Cambridge Crystallographic Data Centre
#                                CCDC
#
#######################################################################
#
# If this CIF has been generated from an entry in the Cambridge
# Structural Database, then it will include bibliographic, chemical,
# crystal, experimental, refinement or atomic coordinate data resulting
# from the CCDC's data processing and validation procedures.
#
#######################################################################

data_CSD_CIF_WEZZIL
_audit_creation_date 2007-05-17
_audit_creation_method CSD-ConQuest-V1
_database_code_CSD WEZZIL
_database_code_depnum_ccdc_archive 'CCDC 610482'
_chemical_formula_sum 'C30 H30 As2 Cu2 Mo6 N6 O27'
_chemical_formula_moiety
;
(C20 H16 Cu2 N4)n,n(C10 H10 N2 2+),n(H2 As2 Mo6 O26 2-),n(H2 O1)
;
_journal_coden_Cambridge 9
_journal_volume 46
_journal_year 2007
_journal_page_first 1563
_journal_name_full 'Inorg.Chem. '
loop_
_publ_author_name
"Chunyan Sun"
"Yangguang Li"
"Enbo Wang"
"Dongrong Xiao"
"Haiyan An"
"Lin Xu"
_chemical_name_systematic
;
catena-((bis(\m~2~-4,4'-bipyridinium)-di-copper) 4,4'-bipyridinium 
bis(\m~6~-hydrogen arsenato)-hexakis(\m~2~-oxo)-dodecaoxo-hexa-molybdenum 
monohydrate)
;
_cell_volume   1226.495
_exptl_crystal_colour 'red'
_exptl_crystal_density_diffrn 2.382
_exptl_crystal_description 'block'
_diffrn_ambient_temperature 293
_refine_special_details
;
A Cu atom is disordered equally over two sites and a water molecule is 
disordered by symmetry.
;
#These two values have been output from a single CSD field.
_refine_ls_R_factor_gt 0.0785
_refine_ls_wR_factor_gt 0.0785
_symmetry_cell_setting triclinic
_symmetry_space_group_name_H-M 'P -1'
_symmetry_Int_Tables_number 2
loop_
_symmetry_equiv_pos_site_id
_symmetry_equiv_pos_as_xyz
1 x,y,z
2 -x,-y,-z
_cell_length_a 10.852(2)
_cell_length_b 11.389(2)
_cell_length_c 11.976(2)
_cell_angle_alpha 66.89(3)
_cell_angle_beta 84.75(3)
_cell_angle_gamma 64.78(3)
_cell_formula_units_Z 1
loop_
_atom_type_symbol
_atom_type_radius_bond
C 0.68
H 0.23
As 1.21
Cu 1.52
Mo 1.37
N 0.68
O 0.68
loop_
_atom_site_label
_atom_site_type_symbol
_atom_site_fract_x
_atom_site_fract_y
_atom_site_fract_z
Mo1 Mo 0.15025(12) 0.35554(14) 0.30884(11)
O1 O -0.0590(11) 0.6932(11) 0.3662(10)
O2 O -0.395(4) 1.080(4) 0.480(4)
O3 O -0.0642(11) 0.4461(13) 0.3863(10)
O4? O -0.520(5) 0.671(5) 0.437(4)
O5 O -0.514(6) 0.705(7) 0.523(6)
O6 O 0.0979(10) 0.5527(12) 0.2211(10)
O7 O 0.1735(11) 0.6931(13) 0.4182(12)
O8 O 0.1583(11) 0.2010(12) 0.4576(11)
O9 O 0.0693(13) 0.3306(15) 0.2072(12)
O10 O 0.3171(11) 0.2899(13) 0.2866(11)
O11 O 0.3286(11) 0.5874(16) 0.2638(13)
O12 O 0.0846(12) 0.8091(14) 0.1758(11)
O13 O 0.0777(12) 0.8130(13) 0.5894(12)
O14 O -0.0540(12) 0.9538(13) 0.3603(12)
O15 O -0.2903(10) 0.6808(13) 0.314(1)
O16 O -0.1864(10) 0.5612(11) 0.5544(9)
Cu1 Cu -0.9200(7) 0.8974(8) 0.9314(6)
Cu2? Cu -0.9318(7) 0.9387(8) 0.8748(6)
N1 N -0.7457(11) 0.9062(13) 0.9074(15)
N2 N -0.0890(12) 0.8958(13) 0.8985(13)
N3 N 0.7928(15) 0.3710(18) 0.1831(15)
H1 H 0.86360 0.34700 0.22830
C1 C -0.6633(14) 0.8421(15) 1.0063(14)
H2 H -0.69520 0.80130 1.07940
C2 C -0.5319(13) 0.8307(14) 1.0099(13)
H3 H -0.47750 0.78300 1.08330
C3 C -0.4820(11) 0.8916(13) 0.9017(12)
C4 C -0.5690(14) 0.9551(19) 0.7976(16)
H4 H -0.54090 0.99400 0.72160
C5 C -0.699(2) 0.960(2) 0.808(2)
H5 H -0.75720 1.00640 0.73690
C6 C -0.1281(14) 0.8148(17) 0.9998(17)
H6 H -0.06840 0.76120 1.07040
Mo2 Mo 0.00554(12) 0.79615(14) 0.47624(11)
C7 C -0.2509(12) 0.8098(15) 1.0013(13)
H7 H -0.27150 0.75070 1.07190
C8 C -0.3440(11) 0.8877(14) 0.9033(12)
C9 C -0.3023(14) 0.9667(15) 0.7988(13)
H8 H -0.36040 1.02050 0.72720
C10 C -0.1726(16) 0.9647(16) 0.8018(16)
C11 C 0.693(2) 0.333(3) 0.239(2)
H9 H 0.70360 0.26990 0.31920
C12 C 0.5698(19) 0.3982(19) 0.1619(18)
H10 H 0.49180 0.39060 0.19630
C13 C 0.5626(14) 0.4699(16) 0.0426(13)
Mo3 Mo 0.15807(12) 0.64881(13) 0.28641(11)
C14 C 0.6791(18) 0.4898(19) -0.0036(19)
H11 H 0.67940 0.53890 -0.08650
C15 C 0.7890(18) 0.4379(19) 0.0722(17)
H12 H 0.86540 0.45220 0.04090
H13 H -0.14570 1.01530 0.73020
As1 As -0.14417(12) 0.59209(14) 0.40659(11)
Mo1A Mo -0.15025(12) 0.64446(14) 0.69116(11)
O1A O 0.0590(11) 0.3068(11) 0.6338(10)
O3A O 0.0642(11) 0.5539(13) 0.6137(10)
O6A O -0.0979(10) 0.4473(12) 0.7789(10)
O7A O -0.1735(11) 0.3069(13) 0.5818(12)
O8A O -0.1583(11) 0.7990(12) 0.5424(11)
O9A O -0.0693(13) 0.6694(15) 0.7928(12)
O10A O -0.3171(11) 0.7101(13) 0.7134(11)
O11A O -0.3286(11) 0.4126(16) 0.7362(13)
O12A O -0.0846(12) 0.1909(14) 0.8242(11)
O13A O -0.0777(12) 0.1870(13) 0.4106(12)
O14A O 0.0540(12) 0.0462(13) 0.6397(12)
O15A O 0.2903(10) 0.3192(13) 0.686(1)
O16A O 0.1864(10) 0.4388(11) 0.4456(9)
Cu1* Cu -1.9200(7) 0.8974(8) 0.9314(6)
Cu1A Cu -1.0800(7) 1.1026(8) 1.0686(6)
Cu1** Cu 0.0800(7) 0.8974(8) 0.9314(6)
Cu1A* Cu -2.0800(7) 1.1026(8) 1.0686(6)
N1* N -1.7457(11) 0.9062(13) 0.9074(15)
N2* N -1.0890(12) 0.8958(13) 0.8985(13)
N2** N -2.0890(12) 0.8958(13) 0.8985(13)
N3A N 0.2072(15) 0.6290(18) -0.1831(15)
H1A H 0.13640 0.65300 -0.22830
C1* C -1.6633(14) 0.8421(15) 1.0063(14)
H2* H -1.69520 0.80130 1.07940
C2* C -1.5319(13) 0.8307(14) 1.0099(13)
H3* H -1.47750 0.78300 1.08330
C3* C -1.4820(11) 0.8916(13) 0.9017(12)
C4* C -1.5690(14) 0.9551(19) 0.7976(16)
H4* H -1.54090 0.99400 0.72160
C5* C -1.699(2) 0.960(2) 0.808(2)
H5* H -1.75720 1.00640 0.73690
C6* C -1.1281(14) 0.8148(17) 0.9998(17)
H6* H -1.06840 0.76120 1.07040
Mo2A Mo -0.00554(12) 0.20385(14) 0.52376(11)
C7* C -1.2509(12) 0.8098(15) 1.0013(13)
H7* H -1.27150 0.75070 1.07190
C8* C -1.3440(11) 0.8877(14) 0.9033(12)
C9* C -1.3023(14) 0.9667(15) 0.7988(13)
H8* H -1.36040 1.02050 0.72720
C10* C -1.1726(16) 0.9647(16) 0.8018(16)
C11A C 0.307(2) 0.667(3) -0.239(2)
H9A H 0.29640 0.73010 -0.31920
C12A C 0.4302(19) 0.6018(19) -0.1619(18)
H10A H 0.50820 0.60940 -0.19630
C13A C 0.4374(14) 0.5301(16) -0.0426(13)
Mo3A Mo -0.15807(12) 0.35119(13) 0.71359(11)
C14A C 0.3209(18) 0.5102(19) 0.0036(19)
H11A H 0.32060 0.46110 0.08650
C15A C 0.2110(18) 0.5621(19) -0.0722(17)
H12A H 0.13460 0.54780 -0.04090
H13* H -1.14570 1.01530 0.73020
As1A As 0.14417(12) 0.40791(14) 0.59341(11)
#END
