
#######################################################################
#
#                 Cambridge Crystallographic Data Centre
#                                CCDC
#
#######################################################################
#
# If this CIF has been generated from an entry in the Cambridge
# Structural Database, then it will include bibliographic, chemical,
# crystal, experimental, refinement or atomic coordinate data resulting
# from the CCDC's data processing and validation procedures.
#
#######################################################################

data_CSD_CIF_WIBNOL
_audit_creation_date 2007-05-17
_audit_creation_method CSD-ConQuest-V1
_database_code_CSD WIBNOL
_database_code_depnum_ccdc_archive 'CCDC 641877'
_chemical_formula_sum 'C130 H270 Co8 N52 Ni7 O93'
_chemical_formula_moiety
;
(C70 H36 Co8 N28 Ni1 O48 12-)n,2n(C10 H28 N4 Ni1 O2 2+),4n(C10 H24 N4 Ni1 
2+),41n(H2 O1)
;
_journal_coden_Cambridge 9
_journal_volume 46
_journal_year 2007
_journal_page_first 1034
_journal_name_full 'Inorg.Chem. '
loop_
_publ_author_name
"Ai-Ling Cheng"
"Na Liu"
"Jian-Yong Zhang"
"En-Qing Gao"
_chemical_name_systematic
;
catena-(bis[diaqua-(1,4,8,11-tetra-azacyclotetradecane)-nickel(ii)] 
tetrakis[1,4,8,11-tetra-azacyclotetradecane] 
bis(\m~3~-imidazole-4,5-dicarboxylato)-decakis(\m~2~-imidazole-4,5-dicarboxyla
to)-(1,4,8,11-tetra-azacyclotetradecane)-hexa-cobalt(iii)-di-cobalt(ii)-nickel
(ii) hydrate)
;
_cell_volume   5058.227
_exptl_crystal_colour 'pink'
_exptl_crystal_density_diffrn 1.619
_exptl_crystal_description 'block'
_diffrn_ambient_temperature 293
#These two values have been output from a single CSD field.
_refine_ls_R_factor_gt 0.069
_refine_ls_wR_factor_gt 0.069
_symmetry_cell_setting triclinic
_symmetry_space_group_name_H-M 'P -1'
_symmetry_Int_Tables_number 2
loop_
_symmetry_equiv_pos_site_id
_symmetry_equiv_pos_as_xyz
1 x,y,z
2 -x,-y,-z
_cell_length_a 18.057(4)
_cell_length_b 18.204(4)
_cell_length_c 19.226(4)
_cell_angle_alpha 112.441(3)
_cell_angle_beta 98.555(4)
_cell_angle_gamma 112.615(4)
_cell_formula_units_Z 1
loop_
_atom_type_symbol
_atom_type_radius_bond
C 0.68
H 0.23
Co 1.33
N 0.68
Ni 1.50
O 0.68
loop_
_atom_site_label
_atom_site_type_symbol
_atom_site_fract_x
_atom_site_fract_y
_atom_site_fract_z
Co1 Co 0.44466(5) 0.76968(5) 0.62973(5)
Co2 Co 0.38584(5) 0.48799(6) 0.74012(5)
Co3 Co 0.21214(5) 0.18910(5) 0.39738(5)
Co4 Co 0.26485(5) 0.46464(5) 0.27516(5)
Ni1 Ni 0.50000 1.00000 0.50000
Ni2 Ni 1.00000 0.50000 0.50000
Ni3 Ni 0.50000 0.00000 0.00000
Ni4 Ni 0.26205(7) 0.52139(8) 0.00104(6)
Ni5 Ni 0.00000 0.00000 0.00000
Ni6 Ni 1.00000 1.00000 0.50000
N1 N 0.4166(3) 0.6781(3) 0.6675(3)
N2 N 0.3939(3) 0.5750(3) 0.7072(3)
N3 N 0.3310(3) 0.3862(3) 0.6344(3)
N4 N 0.2663(3) 0.2768(3) 0.5085(3)
N5 N 0.2190(3) 0.2736(3) 0.3605(3)
N6 N 0.2359(3) 0.3676(3) 0.3107(3)
N7 N 0.3227(3) 0.5695(3) 0.3874(3)
N8 N 0.3887(3) 0.6799(3) 0.5141(3)
N9 N 0.5615(3) 0.7919(3) 0.6320(3)
N10 N 0.6861(3) 0.8104(3) 0.6203(3)
N11 N 0.5018(3) 0.4905(3) 0.2535(3)
N12 N 0.3753(3) 0.4717(3) 0.2602(3)
N13 N 0.4880(5) 0.9476(5) 0.3809(4)
H1 H 0.52060 0.99890 0.37910
N14 N 0.3850(4) 0.9954(5) 0.4650(6)
H2 H 0.34580 0.94470 0.46370
N15 N 1.0727(3) 0.5315(4) 0.4345(3)
H3 H 1.05060 0.48060 0.38620
N16 N 0.9044(3) 0.5157(4) 0.4438(3)
H4 H 0.87210 0.46410 0.39590
N17 N 0.4750(6) 0.1052(6) 0.0277(5)
H5 H 0.48890 0.12570 -0.00740
N18 N 0.6101(6) 0.0864(6) 0.0931(6)
H6 H 0.60220 0.07870 0.13600
N19 N 0.2977(4) 0.6113(5) 0.1125(4)
H7 H 0.27710 0.58070 0.13920
N20 N 0.1735(5) 0.5539(6) -0.0194(5)
H8 H 0.19440 0.59490 -0.03700
N21 N 0.2285(6) 0.4312(6) -0.1114(5)
H9 H 0.25880 0.46260 -0.13380
N22 N 0.3497(5) 0.4885(6) 0.0234(5)
H10 H 0.33180 0.45410 0.04780
N23 N 0.0644(4) 0.1300(4) 0.0610(4)
H11 H 0.07910 0.14950 0.02550
N24 N 0.1054(4) -0.0005(4) 0.0393(4)
H12 H 0.10180 -0.01140 0.08140
N25 N 0.9886(5) 0.8983(5) 0.4089(5)
H13 H 1.03900 0.91900 0.40010
N26 N 0.9733(5) 1.0525(5) 0.4367(4)
H14 H 1.02290 1.08220 0.42980
C1 C 0.4454(4) 0.6274(4) 0.6822(4)
H15 H 0.49560 0.62770 0.67600
C2 C 0.3412(4) 0.6590(4) 0.6834(4)
C3 C 0.3279(4) 0.5940(4) 0.7088(4)
C4 C 0.2979(5) 0.7096(5) 0.6697(4)
C5 C 0.2640(4) 0.5446(5) 0.7375(4)
C6 C 0.3064(3) 0.3663(4) 0.5588(4)
H16 H 0.31590 0.40970 0.54200
C7 C 0.3039(4) 0.3049(4) 0.6340(4)
C8 C 0.2633(4) 0.2373(4) 0.5571(4)
C9 C 0.3291(4) 0.3144(5) 0.7161(4)
C10 C 0.2161(4) 0.1366(4) 0.5134(5)
C11 C 0.2695(4) 0.3242(4) 0.3355(3)
H17 H 0.32270 0.32920 0.33520
C12 C 0.1461(3) 0.2808(4) 0.3484(3)
C13 C 0.1569(3) 0.3394(4) 0.3176(3)
C14 C 0.0815(4) 0.2280(4) 0.3749(4)
C15 C 0.1037(5) 0.3760(5) 0.2917(4)
C16 C 0.3554(3) 0.5909(4) 0.4626(4)
H18 H 0.35560 0.54880 0.47870
C17 C 0.3356(4) 0.6493(4) 0.3881(4)
C18 C 0.3778(4) 0.7179(4) 0.4679(4)
C19 C 0.3013(5) 0.6461(5) 0.3128(4)
C20 C 0.4182(4) 0.8181(4) 0.5115(5)
C21 C 0.6021(4) 0.7627(4) 0.5847(4)
H19 H 0.57460 0.71450 0.53260
C22 C 0.6237(4) 0.8623(4) 0.7022(4)
C23 C 0.7020(4) 0.8741(4) 0.6959(4)
C24 C 0.5924(5) 0.9070(4) 0.7653(4)
C25 C 0.7951(4) 0.9338(4) 0.7462(4)
C26 C 0.4583(4) 0.5164(4) 0.3000(4)
H20 H 0.48370 0.56040 0.35380
C27 C 0.4425(4) 0.4254(4) 0.1791(4)
C28 C 0.3644(4) 0.4159(4) 0.1835(4)
C29 C 0.4777(5) 0.3865(5) 0.1184(4)
C30 C 0.2753(4) 0.3666(5) 0.1266(5)
C31 C 0.5317(6) 0.8957(6) 0.3547(5)
H21 H 0.49320 0.83290 0.33860
H22 H 0.54240 0.89780 0.30730
C32 C 0.4075(6) 0.9228(6) 0.3347(6)
H23 H 0.37080 0.85900 0.31670
H24 H 0.41190 0.92910 0.28740
C33 C 0.3632(6) 0.9748(7) 0.3738(7)
H25 H 0.30190 0.93890 0.34580
H26 H 0.38320 1.03120 0.37140
C34 C 0.3692(8) 1.0612(9) 0.5069(11)
H27 H 0.30950 1.04350 0.48440
H28 H 0.40410 1.11620 0.50550
C35 C 0.6109(8) 0.9233(8) 0.4112(8)
H29 H 0.62820 0.87900 0.38420
H30 H 0.65110 0.97960 0.41470
C36 C 1.1580(4) 0.5491(5) 0.4746(4)
H31 H 1.19050 0.61070 0.51870
H32 H 1.18850 0.54220 0.43710
C37 C 1.0772(5) 0.6062(5) 0.4176(5)
H33 H 1.11140 0.61240 0.38370
H34 H 1.10520 0.66290 0.46760
C38 C 0.9905(6) 0.5890(5) 0.3772(5)
H35 H 0.96160 0.52980 0.32990
H36 H 0.99770 0.63350 0.35910
C39 C 0.9322(5) 0.5920(6) 0.4268(5)
H37 H 0.96230 0.64850 0.47700
H38 H 0.88230 0.59050 0.39790
C40 C 1.1483(5) 0.4829(5) 0.5055(5)
H39 H 1.20450 0.49750 0.53610
H40 H 1.12260 0.42230 0.46040
C41 C 0.3328(8) 0.0174(8) -0.0617(9)
H41 H 0.35740 0.03200 -0.09920
H42 H 0.27900 0.01860 -0.07060
C42 C 0.3906(8) 0.0908(9) 0.0202(7)
H43 H 0.38850 0.14610 0.02970
H44 H 0.37290 0.07390 0.05950
C43 C 0.5395(7) 0.1791(6) 0.1075(6)
H45 H 0.52130 0.16990 0.14980
H46 H 0.54670 0.23740 0.11450
C44 C 0.6239(8) 0.1766(7) 0.1105(7)
H47 H 0.64450 0.19170 0.07150
H48 H 0.66670 0.22090 0.16330
C45 C 0.3128(6) -0.0789(8) -0.0830(7)
H49 H 0.26400 -0.12170 -0.13230
H50 H 0.29950 -0.09190 -0.04050
C46 C 0.2553(6) 0.6680(7) 0.1159(5)
H51 H 0.25590 0.69920 0.16980
H52 H 0.28470 0.71290 0.10030
C47 C 0.1662(7) 0.6049(7) 0.0592(5)
H53 H 0.13670 0.63820 0.05420
H54 H 0.13510 0.56350 0.07740
C48 C 0.0896(7) 0.4811(8) -0.0819(6)
H55 H 0.06380 0.43540 -0.06600
H56 H 0.05190 0.50650 -0.08690
C49 C 0.0989(7) 0.4388(8) -0.1595(6)
H57 H 0.13060 0.48580 -0.17210
H58 H 0.04260 0.39960 -0.20070
C50 C 0.1433(9) 0.3847(8) -0.1618(7)
H59 H 0.11120 0.33830 -0.14890
H60 H 0.14110 0.35400 -0.21650
C51 C 0.2634(8) 0.3710(7) -0.1096(7)
H61 H 0.23000 0.33050 -0.09160
H62 H 0.26120 0.33450 -0.16290
C52 C 0.3518(7) 0.4271(8) -0.0546(7)
H63 H 0.38700 0.46260 -0.07540
H64 H 0.37480 0.38950 -0.04700
C53 C 0.4361(7) 0.5607(8) 0.0761(7)
H65 H 0.45850 0.59930 0.05250
H66 H 0.47280 0.53430 0.08120
C54 C 0.4377(6) 0.6166(6) 0.1571(6)
H67 H 0.49660 0.65910 0.19240
H68 H 0.41200 0.57740 0.17920
C55 C 0.3905(6) 0.6680(6) 0.1542(6)
H69 H 0.40120 0.71050 0.20880
H70 H 0.41350 0.70300 0.12790
C56 C 0.0286(6) 0.1821(5) 0.1029(5)
H71 H 0.07000 0.24610 0.12820
H72 H 0.01610 0.16750 0.14470
C57 C 0.1458(5) 0.1532(5) 0.1171(5)
H73 H 0.13630 0.14620 0.16310
H74 H 0.18780 0.21570 0.13610
C58 C 0.1776(5) 0.0909(5) 0.0736(5)
H75 H 0.19430 0.10270 0.03170
H76 H 0.22640 0.09840 0.11030
C59 C 0.1239(6) -0.0678(6) -0.0133(5)
H77 H 0.17640 -0.06150 0.01620
H78 H 0.13300 -0.05630 -0.05740
C60 C -0.0531(8) 0.1640(7) 0.0469(6)
H79 H -0.04140 0.17470 0.00300
H80 H -0.07180 0.20600 0.07610
C61 C 0.9553(9) 1.1247(9) 0.4873(10)
H81 H 0.96310 1.16770 0.46740
H82 H 0.89680 1.09800 0.48590
C62 C 0.9075(6) 0.9933(9) 0.3548(7)
H83 H 0.85250 0.96070 0.35840
H84 H 0.90250 1.03060 0.33130
C63 C 0.9303(9) 0.9278(11) 0.3029(7)
H85 H 0.98860 0.95950 0.30550
H86 H 0.89290 0.89780 0.24770
C64 C 0.9215(7) 0.8569(7) 0.3303(7)
H87 H 0.86550 0.83130 0.33480
H88 H 0.92620 0.80810 0.29050
C65 C 0.9872(9) 0.8310(8) 0.4334(9)
H89 H 0.92980 0.79480 0.43050
H90 H 1.00340 0.79070 0.39730
O1 O 0.3359(3) 0.7628(3) 0.6442(3)
O2 O 0.2285(3) 0.6941(4) 0.6794(3)
O3 O 0.2061(3) 0.5592(4) 0.7488(4)
O4 O 0.2806(3) 0.4846(3) 0.7486(3)
O5 O 0.3685(3) 0.3977(3) 0.7726(3)
O6 O 0.3122(4) 0.2480(4) 0.7275(3)
O7 O 0.1987(3) 0.0893(3) 0.5458(3)
O8 O 0.1925(3) 0.1029(3) 0.4357(3)
O9 O 0.1032(3) 0.1806(3) 0.4002(3)
O10 O 0.0144(3) 0.2315(3) 0.3725(3)
O11 O 0.0293(3) 0.3507(4) 0.2922(3)
O12 O 0.1426(3) 0.4359(3) 0.2714(3)
O13 O 0.2729(3) 0.5678(4) 0.2515(3)
O14 O 0.2951(4) 0.7075(4) 0.3074(4)
O15 O 0.4244(3) 0.8619(3) 0.4731(3)
O16 O 0.4490(3) 0.8534(3) 0.5870(3)
O17 O 0.5106(3) 0.8731(3) 0.7399(3)
O18 O 0.6407(3) 0.9675(4) 0.8314(3)
O19 O 0.8202(3) 0.9979(3) 0.8126(3)
O20 O 0.8433(3) 0.9099(3) 0.7109(3)
O21 O 0.5603(3) 0.4202(3) 0.1490(2)
O22 O 0.4349(3) 0.3318(4) 0.0498(3)
O23 O 0.2585(3) 0.3203(4) 0.0528(3)
O24 O 0.2202(3) 0.3767(3) 0.1553(3)
O25 O 0.50000 0.50000 0.50000
O26 O 0.9352(3) 0.3554(3) 0.4064(3)
O27 O 0.4370(5) -0.0515(5) 0.0818(4)
O28 O 0.3507(5) 0.6429(5) 0.9562(4)
O29 O 0.4794(5) 0.2208(6) 0.9337(5)
O30 O 0.8862(7) 0.2173(7) 0.8054(8)
O31 O 0.9662(5) 0.5352(6) 0.8148(5)
O32 O 0.8696(5) 0.3408(6) 0.7564(5)
O33 O 0.8621(5) 0.0859(4) 0.6451(4)
O34 O 0.7572(5) 0.1630(5) 0.4245(5)
O35 O 0.7358(5) 0.0351(5) 0.2744(4)
O36 O 0.5744(5) 0.0205(5) 0.2211(5)
O37 O 0.8752(4) 0.1184(5) 0.2261(4)
O38 O 0.8759(5) 0.3340(6) 0.1952(4)
O39 O 0.7863(9) 0.2772(8) 0.0393(7)
O40 O 1.0293(6) 0.2574(6) 0.9145(5)
O41 O 0.0970(5) 0.1607(8) 0.9265(5)
O42 O 0.7357(4) 0.8232(4) 0.0735(4)
O43 O 0.6671(5) 0.8442(5) 0.1967(4)
O44 O 0.2239(6) 0.8485(5) 0.1094(5)
O45 O 0.2148(6) 0.8237(5) 0.4238(5)
O46 O 0.0973(5) 0.3947(5) 0.0628(4)
O47 O 0.0084(4) 0.9726(6) 0.8221(5)
Co1A Co 0.55534(5) 1.23032(5) 0.37027(5)
Co2A Co 0.61416(5) 1.51201(6) 0.25988(5)
Co2A* Co 0.61416(5) 0.51201(6) 0.25988(5)
Co2* Co 0.38584(5) 1.48799(6) 0.74012(5)
Co3A Co 0.78786(5) 1.81090(5) 0.60262(5)
Co3A* Co 0.78786(5) 0.81090(5) 0.60262(5)
Co3* Co 0.21214(5) 1.18910(5) 0.39738(5)
Co4A Co 0.73515(5) 1.53536(5) 0.72484(5)
N1A N 0.5834(3) 1.3219(3) 0.3325(3)
N2A N 0.6061(3) 1.4250(3) 0.2928(3)
N3A N 0.6690(3) 1.6138(3) 0.3656(3)
N4A N 0.7337(3) 1.7232(3) 0.4915(3)
N5A N 0.7810(3) 1.7264(3) 0.6395(3)
N6A N 0.7641(3) 1.6324(3) 0.6893(3)
N7A N 0.6773(3) 1.4305(3) 0.6126(3)
N8A N 0.6113(3) 1.3201(3) 0.4859(3)
N9A N 0.4385(3) 1.2081(3) 0.3680(3)
N10A N 0.3139(3) 1.1896(3) 0.3797(3)
N10A* N 0.3139(3) 0.1896(3) 0.3797(3)
N10* N 0.6861(3) 1.8104(3) 0.6203(3)
N11A N 0.4982(3) 1.5095(3) 0.7465(3)
N11A* N 0.4982(3) 0.5095(3) 0.7465(3)
N11* N 0.5018(3) 1.4905(3) 0.2535(3)
N12A N 0.6247(3) 1.5283(3) 0.7398(3)
N13A N 0.5120(5) 1.0524(5) 0.6191(4)
H1A H 0.47940 1.00110 0.62090
N14A N 0.6150(4) 1.0046(5) 0.5350(6)
H2A H 0.65420 1.05530 0.53630
N15A N 0.9273(3) 0.4685(4) 0.5655(3)
H3A H 0.94940 0.51940 0.61380
N16A N 1.0956(3) 0.4843(4) 0.5562(3)
H4A H 1.12790 0.53590 0.60410
N17A N 0.5250(6) -0.1052(6) -0.0277(5)
H5A H 0.51110 -0.12570 0.00740
N18A N 0.3899(6) -0.0864(6) -0.0931(6)
H6A H 0.39780 -0.07870 -0.13600
N23A N -0.0644(4) -0.1300(4) -0.0610(4)
H11A H -0.07910 -0.14950 -0.02550
N24A N -0.1054(4) 0.0005(4) -0.0393(4)
H12A H -0.10180 0.01140 -0.08140
N25A N 1.0114(5) 1.1017(5) 0.5911(5)
H13A H 0.96100 1.08100 0.59990
N26A N 1.0267(5) 0.9475(5) 0.5633(4)
H14A H 0.97710 0.91780 0.57020
C1A C 0.5546(4) 1.3726(4) 0.3178(4)
H15A H 0.50440 1.37230 0.32400
C2A C 0.6588(4) 1.3410(4) 0.3166(4)
C3A C 0.6721(4) 1.4060(4) 0.2912(4)
C4A C 0.7021(5) 1.2904(5) 0.3303(4)
C5A C 0.7360(4) 1.4554(5) 0.2625(4)
C6A C 0.6936(3) 1.6337(4) 0.4412(4)
H16A H 0.68410 1.59030 0.45800
C7A C 0.6961(4) 1.6951(4) 0.3660(4)
C8A C 0.7367(4) 1.7627(4) 0.4429(4)
C9A C 0.6709(4) 1.6856(5) 0.2839(4)
C10A C 0.7839(4) 1.8634(4) 0.4866(5)
C11A C 0.7305(4) 1.6758(4) 0.6645(3)
H17A H 0.67730 1.67080 0.66480
C12A C 0.8539(3) 1.7192(4) 0.6516(3)
C13A C 0.8431(3) 1.6606(4) 0.6824(3)
C14A C 0.9185(4) 1.7720(4) 0.6251(4)
C15A C 0.8963(5) 1.6240(5) 0.7083(4)
C16A C 0.6446(3) 1.4091(4) 0.5374(4)
H18A H 0.64440 1.45120 0.52130
C17A C 0.6644(4) 1.3507(4) 0.6119(4)
C18A C 0.6222(4) 1.2821(4) 0.5321(4)
C19A C 0.6987(5) 1.3539(5) 0.6872(4)
C20A C 0.5818(4) 1.1819(4) 0.4885(5)
C21A C 0.3979(4) 1.2373(4) 0.4153(4)
H19A H 0.42540 1.28550 0.46740
C22A C 0.3763(4) 1.1377(4) 0.2978(4)
C23A C 0.2980(4) 1.1259(4) 0.3041(4)
C24A C 0.4076(5) 1.0930(4) 0.2347(4)
C25A C 0.2049(4) 1.0662(4) 0.2538(4)
C26A C 0.5417(4) 1.4836(4) 0.7000(4)
H20A H 0.51630 1.43960 0.64620
C27A C 0.5575(4) 1.5746(4) 0.8209(4)
C28A C 0.6356(4) 1.5841(4) 0.8165(4)
C29A C 0.5223(5) 1.6135(5) 0.8816(4)
C30A C 0.7247(4) 1.6334(5) 0.8734(5)
C31A C 0.4683(6) 1.1043(6) 0.6453(5)
H21A H 0.50680 1.16710 0.66140
H22A H 0.45760 1.10220 0.69270
C32A C 0.5925(6) 1.0772(6) 0.6653(6)
H23A H 0.62920 1.14100 0.68330
H24A H 0.58810 1.07090 0.71260
C33A C 0.6368(6) 1.0252(7) 0.6262(7)
H25A H 0.69810 1.06110 0.65420
H26A H 0.61680 0.96880 0.62860
C34A C 0.6308(8) 0.9388(9) 0.4931(11)
H27A H 0.69050 0.95650 0.51560
H28A H 0.59590 0.88380 0.49450
C35A C 0.3891(8) 1.0767(8) 0.5888(8)
H29A H 0.37180 1.12100 0.61580
H30A H 0.34890 1.02040 0.58530
C36A C 0.8420(4) 0.4509(5) 0.5254(4)
H31A H 0.80950 0.38930 0.48130
H32A H 0.81150 0.45780 0.56290
C37A C 0.9228(5) 0.3938(5) 0.5824(5)
H33A H 0.88860 0.38760 0.61630
H34A H 0.89480 0.33710 0.53240
C38A C 1.0095(6) 0.4110(5) 0.6228(5)
H35A H 1.03840 0.47020 0.67010
H36A H 1.00230 0.36650 0.64090
C39A C 1.0678(5) 0.4080(6) 0.5732(5)
H37A H 1.03770 0.35150 0.52300
H38A H 1.11770 0.40950 0.60210
C40A C 0.8517(5) 0.5171(5) 0.4945(5)
H39A H 0.79550 0.50250 0.46390
H40A H 0.87740 0.57770 0.53960
C41A C 0.6672(8) -0.0174(8) 0.0617(9)
H41A H 0.64260 -0.03200 0.09920
H42A H 0.72100 -0.01860 0.07060
C42A C 0.6094(8) -0.0908(9) -0.0202(7)
H43A H 0.61150 -0.14610 -0.02970
H44A H 0.62710 -0.07390 -0.05950
C43A C 0.4605(7) -0.1791(6) -0.1075(6)
H45A H 0.47870 -0.16990 -0.14980
H46A H 0.45330 -0.23740 -0.11450
C44A C 0.3761(8) -0.1766(7) -0.1105(7)
H47A H 0.35550 -0.19170 -0.07150
H48A H 0.33330 -0.22090 -0.16330
C45A C 0.6872(6) 0.0789(8) 0.0830(7)
H49A H 0.73600 0.12170 0.13230
H50A H 0.70050 0.09190 0.04050
C56A C -0.0286(6) -0.1821(5) -0.1029(5)
H71A H -0.07000 -0.24610 -0.12820
H72A H -0.01610 -0.16750 -0.14470
C57A C -0.1458(5) -0.1532(5) -0.1171(5)
H73A H -0.13630 -0.14620 -0.16310
H74A H -0.18780 -0.21570 -0.13610
C58A C -0.1776(5) -0.0909(5) -0.0736(5)
H75A H -0.19430 -0.10270 -0.03170
H76A H -0.22640 -0.09840 -0.11030
C59A C -0.1239(6) 0.0678(6) 0.0133(5)
H77A H -0.17640 0.06150 -0.01620
H78A H -0.13300 0.05630 0.05740
C60A C 0.0531(8) -0.1640(7) -0.0469(6)
H79A H 0.04140 -0.17470 -0.00300
H80A H 0.07180 -0.20600 -0.07610
C61A C 1.0447(9) 0.8753(9) 0.5127(10)
H81A H 1.03690 0.83230 0.53260
H82A H 1.10320 0.90200 0.51410
C62A C 1.0925(6) 1.0067(9) 0.6452(7)
H83A H 1.14750 1.03930 0.64160
H84A H 1.09750 0.96940 0.66870
C63A C 1.0697(9) 1.0722(11) 0.6971(7)
H85A H 1.01140 1.04050 0.69450
H86A H 1.10710 1.10220 0.75230
C64A C 1.0785(7) 1.1431(7) 0.6697(7)
H87A H 1.13450 1.16870 0.66520
H88A H 1.07380 1.19190 0.70950
C65A C 1.0128(9) 1.1690(8) 0.5666(9)
H89A H 1.07020 1.20520 0.56950
H90A H 0.99660 1.20930 0.60270
O1A O 0.6641(3) 1.2372(3) 0.3558(3)
O2A O 0.7715(3) 1.3059(4) 0.3206(3)
O3A O 0.7939(3) 1.4408(4) 0.2512(4)
O4A O 0.7194(3) 1.5154(3) 0.2514(3)
O5A O 0.6315(3) 1.6023(3) 0.2274(3)
O6A O 0.6878(4) 1.7520(4) 0.2725(3)
O7A O 0.8013(3) 1.9107(3) 0.4542(3)
O8A O 0.8075(3) 1.8971(3) 0.5643(3)
O9A O 0.8968(3) 1.8194(3) 0.5998(3)
O10A O 0.9856(3) 1.7685(3) 0.6275(3)
O11A O 0.9707(3) 1.6493(4) 0.7078(3)
O12A O 0.8574(3) 1.5641(3) 0.7286(3)
O13A O 0.7271(3) 1.4322(4) 0.7485(3)
O14A O 0.7049(4) 1.2925(4) 0.6926(4)
O15A O 0.5756(3) 1.1381(3) 0.5269(3)
O16A O 0.5510(3) 1.1466(3) 0.4130(3)
O17A O 0.4894(3) 1.1269(3) 0.2601(3)
O18A O 0.3593(3) 1.0325(4) 0.1686(3)
O19A O 0.1798(3) 1.0021(3) 0.1874(3)
O20A O 0.1567(3) 1.0901(3) 0.2891(3)
O20A* O 0.1567(3) 0.0901(3) 0.2891(3)
O20* O 0.8433(3) 1.9099(3) 0.7109(3)
O21A O 0.4397(3) 1.5798(3) 0.8510(2)
O21A* O 0.4397(3) 0.5798(3) 0.8510(2)
O21* O 0.5603(3) 1.4202(3) 0.1490(2)
O22A O 0.5651(3) 1.6682(4) 0.9502(3)
O23A O 0.7415(3) 1.6797(4) 0.9472(3)
O24A O 0.7798(3) 1.6233(3) 0.8447(3)
O26A O 1.0648(3) 0.6446(3) 0.5936(3)
O27A O 0.5630(5) 0.0515(5) -0.0818(4)
#END
