
#######################################################################
#
#                 Cambridge Crystallographic Data Centre
#                                CCDC
#
#######################################################################
#
# If this CIF has been generated from an entry in the Cambridge
# Structural Database, then it will include bibliographic, chemical,
# crystal, experimental, refinement or atomic coordinate data resulting
# from the CCDC's data processing and validation procedures.
#
#######################################################################

data_CSD_CIF_WICNOM
_audit_creation_date 2007-09-20
_audit_creation_method CSD-ConQuest-V1
_database_code_CSD WICNOM
_database_code_depnum_ccdc_archive 'CCDC 636056'
_chemical_formula_sum 'C21 H15 La1 N3 O14'
_chemical_formula_moiety
;
(C16 H10 La1 N2 O14 1-)n,0.5n(C10 H10 N2 2+)
;
_journal_coden_Cambridge 1350
_journal_volume 9
_journal_year 2007
_journal_page_first 515
_journal_name_full 'CrystEngComm '
loop_
_publ_author_name
"Jun-Wei Ye"
"Jia Wang"
"Jing-Ying Zhang"
"Ping Zhang"
"Yue Wang"
_chemical_name_systematic
;
catena-(hemikis(4,4'-Bipyridinium) 
(\m~4~-5-nitroisophthalato-O,O',O'',O''')-diaqua-(5-nitroisophthalato-O,O')-la
nthanum(iii))
;
_cell_volume   1207.525
_exptl_crystal_colour 'red'
_exptl_crystal_density_diffrn 1.849
_exptl_crystal_description 'block'
_diffrn_ambient_temperature 293
#These two values have been output from a single CSD field.
_refine_ls_R_factor_gt 0.0474
_refine_ls_wR_factor_gt 0.0474
_symmetry_cell_setting triclinic
_symmetry_space_group_name_H-M 'P -1'
_symmetry_Int_Tables_number 2
loop_
_symmetry_equiv_pos_site_id
_symmetry_equiv_pos_as_xyz
1 x,y,z
2 -x,-y,-z
_cell_length_a 9.798(2)
_cell_length_b 10.729(2)
_cell_length_c 13.238(3)
_cell_angle_alpha 94.33(3)
_cell_angle_beta 102.05(3)
_cell_angle_gamma 115.42(3)
_cell_formula_units_Z 2
loop_
_atom_type_symbol
_atom_type_radius_bond
C 0.68
H 0.23
La 1.80
N 0.68
O 0.68
loop_
_atom_site_label
_atom_site_type_symbol
_atom_site_fract_x
_atom_site_fract_y
_atom_site_fract_z
La1 La 0.27263(3) 0.03368(2) -0.515890(19)
O1 O 0.4727(4) 0.1478(3) -0.3360(3)
O2 O 0.2310(4) 0.0116(4) -0.3304(3)
O3 O 0.1306(11) -0.0747(10) 0.0083(7)
O4 O 0.3022(10) 0.0426(7) 0.1574(4)
O5 O 0.8307(10) 0.3898(11) 0.1316(5)
O6 O 0.8859(9) 0.370(1) -0.0110(6)
O7 O -0.0098(4) 0.1523(3) -0.4521(3)
O8 O 0.2377(4) 0.2398(3) -0.4550(3)
O9 O 0.5290(4) 0.7638(4) -0.4308(3)
O10 O 0.3796(5) 0.8681(3) -0.4637(3)
O11 O -0.0545(5) 0.6877(4) -0.2870(4)
O12 O -0.1814(5) 0.4668(5) -0.2986(4)
O13 O 0.2696(4) -0.0995(4) -0.6839(3)
O14 O 0.0962(5) 0.0642(4) -0.6765(4)
N1 N 0.7941(9) 0.3419(8) 0.0409(5)
N2 N -0.0720(5) 0.5704(5) -0.3095(3)
N3 N -0.8941(11) -0.7563(10) -0.0471(8)
H1 H -0.98910 -0.82100 -0.05960
C1 C 0.4288(6) 0.1214(5) -0.1675(4)
C2 C 0.3249(7) 0.0575(6) -0.1095(4)
H2 H 0.22140 -0.00600 -0.14320
C3 C 0.3759(9) 0.0887(7) -0.0005(5)
C4 C 0.5263(9) 0.1815(7) 0.0492(4)
H3 H 0.56020 0.20280 0.12220
C5 C 0.6286(8) 0.2441(7) -0.0102(5)
C6 C 0.5811(7) 0.2153(6) -0.1183(4)
H4 H 0.65130 0.25880 -0.15720
C7 C 0.3732(5) 0.0922(5) -0.2858(4)
C8 C 0.2586(11) 0.0134(9) 0.0599(7)
C9 C 0.1396(4) 0.3970(4) -0.4124(3)
C10 C 0.2660(4) 0.5128(4) -0.4282(3)
H5 H 0.34410 0.50060 -0.45050
C11 C 0.2764(5) 0.6472(4) -0.4108(3)
C12 C 0.1640(5) 0.6657(4) -0.3717(3)
H6 H 0.17000 0.75450 -0.35850
C13 C 0.0445(5) 0.5516(4) -0.3530(3)
C14 C 0.0297(4) 0.4163(4) -0.3739(3)
H7 H -0.05400 0.34020 -0.36180
C15 C 0.1214(5) 0.2516(4) -0.4424(4)
C16 C 0.4052(5) 0.7682(4) -0.4359(4)
C17 C -0.8295(13) -0.7150(12) -0.1246(10)
H8 H -0.89140 -0.75510 -0.19320
C18 C -0.6802(12) -0.6188(12) -0.1105(9)
H9 H -0.63960 -0.59690 -0.16790
C19 C -0.5926(10) -0.5565(8) -0.0153(9)
C20 C -0.6596(13) -0.5966(12) 0.0667(11)
H10 H -0.60040 -0.55440 0.13560
C21 C -0.8102(13) -0.6964(12) 0.0477(11)
H11 H -0.85340 -0.72180 0.10370
La1A La -0.27263(3) -0.03368(2) -0.484110(19)
La1A* La 0.72737(3) 0.96632(2) -0.484110(19)
La1* La 0.27263(3) 1.03368(2) -0.515890(19)
O7A O 0.0098(4) -0.1523(3) -0.5479(3)
O9A O 0.4710(4) 0.2362(4) -0.5692(3)
O10* O 0.3796(5) -0.1319(3) -0.4637(3)
N3A N -0.1059(11) -0.2437(10) 0.0471(8)
H1A H -0.01090 -0.17900 0.05960
C17A C -0.1705(13) -0.2850(12) 0.1246(10)
H8A H -0.10860 -0.24490 0.19320
C18A C -0.3198(12) -0.3812(12) 0.1105(9)
H9A H -0.36040 -0.40310 0.16790
C19A C -0.4074(10) -0.4435(8) 0.0153(9)
C20A C -0.3404(13) -0.4034(12) -0.0667(11)
H10A H -0.39960 -0.44560 -0.13560
C21A C -0.1898(13) -0.3036(12) -0.0477(11)
H11A H -0.14660 -0.27820 -0.10370
#END
