
#######################################################################
#
#                 Cambridge Crystallographic Data Centre
#                                CCDC
#
#######################################################################
#
# If this CIF has been generated from an entry in the Cambridge
# Structural Database, then it will include bibliographic, chemical,
# crystal, experimental, refinement or atomic coordinate data resulting
# from the CCDC's data processing and validation procedures.
#
#######################################################################

data_CSD_CIF_WICNUS
_audit_creation_date 2007-09-20
_audit_creation_method CSD-ConQuest-V1
_database_code_CSD WICNUS
_database_code_depnum_ccdc_archive 'CCDC 636058'
_chemical_formula_sum 'C21 H19 N3 Nd1 O16'
_chemical_formula_moiety
;
(C16 H10 N2 Nd1 O14 1-)n,0.5n(C10 H10 N2 2+),2n(H2 O1)
;
_journal_coden_Cambridge 1350
_journal_volume 9
_journal_year 2007
_journal_page_first 515
_journal_name_full 'CrystEngComm '
loop_
_publ_author_name
"Jun-Wei Ye"
"Jia Wang"
"Jing-Ying Zhang"
"Ping Zhang"
"Yue Wang"
_chemical_name_systematic
;
catena-(hemikis(4,4'-Bipyridinium) 
(\m~4~-5-nitroisophthalato-O,O',O'',O''')-diaqua-(5-nitroisophthalato-O,O')-ne
odymium(iii) dihydrate)
;
_cell_volume   1208.835
_exptl_crystal_colour 'yellow'
_exptl_crystal_density_diffrn 1.961
_exptl_crystal_description 'block'
_diffrn_ambient_temperature 293
#These two values have been output from a single CSD field.
_refine_ls_R_factor_gt 0.0383
_refine_ls_wR_factor_gt 0.0383
_symmetry_cell_setting triclinic
_symmetry_space_group_name_H-M 'P -1'
_symmetry_Int_Tables_number 2
loop_
_symmetry_equiv_pos_site_id
_symmetry_equiv_pos_as_xyz
1 x,y,z
2 -x,-y,-z
_cell_length_a 9.885(2)
_cell_length_b 10.786(2)
_cell_length_c 13.178(3)
_cell_angle_alpha 94.95(3)
_cell_angle_beta 101.36(3)
_cell_angle_gamma 116.45(3)
_cell_formula_units_Z 2
loop_
_atom_type_symbol
_atom_type_radius_bond
C 0.68
H 0.23
N 0.68
Nd 1.76
O 0.68
loop_
_atom_site_label
_atom_site_type_symbol
_atom_site_fract_x
_atom_site_fract_y
_atom_site_fract_z
O1 O -0.305(3) 0.727(3) -0.258(2)
O2 O -0.4655(19) 0.4563(19) -0.3032(13)
Nd1 Nd 0.26436(2) 0.03320(2) -0.514060(17)
O3 O -0.0023(4) 0.1490(3) -0.4527(3)
O4 O 0.2467(4) 0.2453(4) -0.4539(3)
O5 O 0.5197(4) 0.7779(4) -0.4420(3)
O6 O 0.3553(5) 0.8674(3) -0.4683(3)
O7 O -0.0676(7) 0.6744(6) -0.2876(6)
O8 O -0.1847(5) 0.4537(5) -0.2945(5)
O9 O 0.4663(4) 0.1445(4) -0.3398(3)
O10 O 0.2247(4) 0.0133(4) -0.3301(3)
O11 O 0.1390(13) -0.0628(12) 0.0187(8)
O12 O 0.3257(11) 0.0523(9) 0.1654(5)
O13 O 0.8448(12) 0.3991(12) 0.1275(6)
O14 O 0.8948(11) 0.3632(12) -0.0202(8)
O15 O 0.1021(5) 0.0675(5) -0.6726(3)
O16 O 0.2728(4) -0.0940(4) -0.6779(3)
N1 N -0.0794(5) 0.5577(5) -0.3080(4)
N2 N 0.8039(11) 0.3444(11) 0.0341(6)
N3 N -0.8954(15) 0.2399(13) -0.0559(11)
H1 H -0.99100 0.17470 -0.06920
C1 C 0.1435(5) 0.3981(4) -0.4124(3)
C2 C 0.2656(5) 0.5174(4) -0.4303(3)
H2 H 0.34440 0.50910 -0.45400
C3 C 0.2706(5) 0.6493(4) -0.4129(3)
C4 C 0.1567(5) 0.6630(4) -0.3721(3)
H3 H 0.15900 0.75020 -0.35930
C5 C 0.0406(5) 0.5441(5) -0.3512(4)
C6 C 0.0309(5) 0.4126(4) -0.3710(3)
H4 H -0.04970 0.33460 -0.35700
C7 C 0.1289(5) 0.2538(4) -0.4418(3)
C8 C 0.3908(5) 0.7737(4) -0.4429(3)
C9 C 0.4275(7) 0.1226(6) -0.1690(4)
C10 C 0.3290(9) 0.0607(7) -0.1069(5)
H5 H 0.22440 -0.00340 -0.13860
C11 C 0.3840(12) 0.0930(9) 0.0035(6)
C12 C 0.5410(12) 0.1887(9) 0.0498(5)
H6 H 0.58020 0.21280 0.12280
C13 C 0.6347(10) 0.2452(9) -0.0127(5)
C14 C 0.5845(8) 0.2164(7) -0.1217(5)
H7 H 0.65360 0.25850 -0.16220
C15 C 0.3681(6) 0.0914(5) -0.2867(4)
C16 C 0.2767(16) 0.0229(12) 0.0708(8)
C17 C -0.8316(16) 0.2797(14) -0.1317(12)
H8 H -0.89130 0.23880 -0.20110
C18 C -0.6782(18) 0.3809(15) -0.1128(14)
H9 H -0.63650 0.40630 -0.16980
C19 C -0.5833(17) 0.4465(13) -0.0111(13)
C20 C -0.6580(16) 0.4063(14) 0.0675(13)
H10 H -0.60550 0.45000 0.13770
C21 C -0.8128(17) 0.2997(16) 0.0410(15)
H11 H -0.85950 0.26980 0.09530
Nd1A Nd -0.26436(2) -0.03320(2) -0.485940(17)
Nd1A* Nd 0.73564(2) 0.96680(2) -0.485940(17)
Nd1* Nd 0.26436(2) 1.03320(2) -0.514060(17)
O3A O 0.0023(4) -0.1490(3) -0.5473(3)
O5A O 0.4803(4) 0.2221(4) -0.5580(3)
O6* O 0.3553(5) -0.1326(3) -0.4683(3)
N3A N -0.1046(15) 0.7601(13) 0.0559(11)
H1A H -0.00900 0.82530 0.06920
C17A C -0.1684(16) 0.7203(14) 0.1317(12)
H8A H -0.10870 0.76120 0.20110
C18A C -0.3218(18) 0.6191(15) 0.1128(14)
H9A H -0.36350 0.59370 0.16980
C19A C -0.4167(17) 0.5535(13) 0.0111(13)
C20A C -0.3420(16) 0.5937(14) -0.0675(13)
H10A H -0.39450 0.55000 -0.13770
C21A C -0.1872(17) 0.7003(16) -0.0410(15)
H11A H -0.14050 0.73020 -0.09530
#END
