
#######################################################################
#
#                 Cambridge Crystallographic Data Centre
#                                CCDC
#
#######################################################################
#
# If this CIF has been generated from an entry in the Cambridge
# Structural Database, then it will include bibliographic, chemical,
# crystal, experimental, refinement or atomic coordinate data resulting
# from the CCDC's data processing and validation procedures.
#
#######################################################################

data_CSD_CIF_WICPAA
_audit_creation_date 2007-09-20
_audit_creation_method CSD-ConQuest-V1
_database_code_CSD WICPAA
_database_code_depnum_ccdc_archive 'CCDC 636059'
_chemical_formula_sum 'C21 H11 N3 O12 Sm1'
_chemical_formula_moiety
;
(C16 H6 N2 O12 Sm1 1-)n,0.5n(C10 H10 N2 2+)
;
_journal_coden_Cambridge 1350
_journal_volume 9
_journal_year 2007
_journal_page_first 515
_journal_name_full 'CrystEngComm '
loop_
_publ_author_name
"Jun-Wei Ye"
"Jia Wang"
"Jing-Ying Zhang"
"Ping Zhang"
"Yue Wang"
_chemical_name_systematic
;
catena-(hemikis(4,4'-Bipyridinium) 
(\m~3~-5-nitroisophthalato-O,O',O'',O''')-(\m~3~-5-nitroisophthalato-O,O,O',O'
')-samarium(iii))
;
_cell_volume   1056.213
_exptl_crystal_colour 'colorless'
_exptl_crystal_density_diffrn 2.037
_exptl_crystal_description 'block'
_diffrn_ambient_temperature 293
#These two values have been output from a single CSD field.
_refine_ls_R_factor_gt 0.0363
_refine_ls_wR_factor_gt 0.0363
_symmetry_cell_setting triclinic
_symmetry_space_group_name_H-M 'P -1'
_symmetry_Int_Tables_number 2
loop_
_symmetry_equiv_pos_site_id
_symmetry_equiv_pos_as_xyz
1 x,y,z
2 -x,-y,-z
_cell_length_a 8.6638(17)
_cell_length_b 9.3886(19)
_cell_length_c 13.781(3)
_cell_angle_alpha 85.33(3)
_cell_angle_beta 78.10(3)
_cell_angle_gamma 74.43(3)
_cell_formula_units_Z 2
loop_
_atom_type_symbol
_atom_type_radius_bond
C 0.68
H 0.23
N 0.68
O 0.78
Sm 1.68
loop_
_atom_site_label
_atom_site_type_symbol
_atom_site_fract_x
_atom_site_fract_y
_atom_site_fract_z
Sm1 Sm 0.66362(3) 0.55352(3) 0.58346(2)
O1 O 0.8822(5) 0.3560(4) 0.5260(3)
O2 O 1.1465(5) 0.3092(4) 0.4653(3)
O3 O 1.4254(5) -0.2859(5) 0.6866(3)
O4 O 1.4937(5) -0.2097(4) 0.5317(3)
O5 O 0.8206(8) -0.1919(9) 0.7929(6)
O6 O 0.6675(7) -0.0446(7) 0.7037(6)
O7 O 0.5426(5) 0.3624(5) 0.6762(3)
O8 O 0.3689(5) 0.4774(4) 0.5808(3)
O9 O -0.2277(5) 0.5041(5) 0.7273(3)
O10 O -0.2731(5) 0.3650(6) 0.8634(4)
O11 O 0.1595(8) -0.0727(7) 0.9147(6)
O12 O 0.3933(9) -0.0313(8) 0.9064(6)
N1 N 0.7990(8) -0.0970(7) 0.7299(5)
N2 N 0.2572(8) 0.0008(6) 0.8870(5)
N3 N 0.4181(6) 0.4452(6) 0.9145(4)
H1 H 0.52120 0.43130 0.89240
C1 C 1.0497(6) 0.1286(5) 0.5698(4)
C2 C 1.2047(6) 0.0359(5) 0.5659(4)
H2 H 1.29430 0.06300 0.52720
C3 C 1.2271(6) -0.0969(6) 0.6192(4)
C4 C 1.0942(7) -0.1386(6) 0.6763(4)
H3 H 1.10810 -0.22560 0.71480
C5 C 0.9431(7) -0.0490(6) 0.6746(4)
C6 C 0.9144(7) 0.0866(6) 0.6244(4)
H4 H 0.80920 0.14690 0.62720
C7 C 1.0234(6) 0.2769(5) 0.5169(4)
C8 C 1.3929(7) -0.2019(5) 0.6122(4)
C9 C 0.2795(6) 0.3205(6) 0.7117(4)
C10 C 0.1154(7) 0.3869(6) 0.7151(4)
H5 H 0.08370 0.47040 0.67550
C11 C -0.0034(7) 0.3286(6) 0.7782(4)
C12 C 0.0453(7) 0.1995(7) 0.8336(4)
H6 H -0.03200 0.15850 0.87470
C13 C 0.2056(7) 0.1349(6) 0.8269(5)
C14 C 0.3277(7) 0.1936(6) 0.7688(4)
H7 H 0.43760 0.14910 0.76840
C15 C 0.4074(6) 0.3888(6) 0.6512(4)
C16 C -0.1822(7) 0.4045(7) 0.7898(4)
C17 C 0.3656(9) 0.3428(9) 0.9733(6)
H8 H 0.43970 0.25820 0.99130
C18 C 0.2006(8) 0.3617(8) 1.0076(6)
H9 H 0.16390 0.28880 1.04820
C19 C 0.0885(6) 0.4882(6) 0.9826(4)
C20 C 0.1525(8) 0.5925(8) 0.9207(5)
H10 H 0.08260 0.67890 0.90120
C21 C 0.3177(8) 0.5681(8) 0.8887(5)
H11 H 0.35940 0.63880 0.84830
Sm1A Sm 1.33638(3) 0.44648(3) 0.41654(2)
Sm1* Sm 1.66362(3) -0.44648(3) 0.58346(2)
Sm1A* Sm 0.33638(3) 0.44648(3) 0.41654(2)
Sm1** Sm -0.33638(3) 0.55352(3) 0.58346(2)
O2A O 0.8535(5) 0.6908(4) 0.5347(3)
O3* O 0.4254(5) 0.7141(5) 0.6866(3)
O4* O 0.4937(5) 0.7903(4) 0.5317(3)
O8A O 0.6311(5) 0.5226(4) 0.4192(3)
O9* O 0.7723(5) 0.5041(5) 0.7273(3)
N3A N -0.4181(6) 0.5548(6) 1.0855(4)
H1A H -0.52120 0.56870 1.10760
C17A C -0.3656(9) 0.6572(9) 1.0267(6)
H8A H -0.43970 0.74180 1.00870
C18A C -0.2006(8) 0.6383(8) 0.9924(6)
H9A H -0.16390 0.71120 0.95180
C19A C -0.0885(6) 0.5118(6) 1.0174(4)
C20A C -0.1525(8) 0.4075(8) 1.0793(5)
H10A H -0.08260 0.32110 1.09880
C21A C -0.3177(8) 0.4319(8) 1.1113(5)
H11A H -0.35940 0.36120 1.15170
#END
