
#######################################################################
#
#                 Cambridge Crystallographic Data Centre
#                                CCDC
#
#######################################################################
#
# If this CIF has been generated from an entry in the Cambridge
# Structural Database, then it will include bibliographic, chemical,
# crystal, experimental, refinement or atomic coordinate data resulting
# from the CCDC's data processing and validation procedures.
#
#######################################################################

data_CSD_CIF_WICPEE
_audit_creation_date 2007-09-20
_audit_creation_method CSD-ConQuest-V1
_database_code_CSD WICPEE
_database_code_depnum_ccdc_archive 'CCDC 636060'
_chemical_formula_sum 'C21 H11 Eu1 N3 O12'
_chemical_formula_moiety
;
(C16 H6 Eu1 N2 O12 1-)n,0.5n(C10 H10 N2 2+)
;
_journal_coden_Cambridge 1350
_journal_volume 9
_journal_year 2007
_journal_page_first 515
_journal_name_full 'CrystEngComm '
loop_
_publ_author_name
"Jun-Wei Ye"
"Jia Wang"
"Jing-Ying Zhang"
"Ping Zhang"
"Yue Wang"
_chemical_name_systematic
;
catena-(hemikis(4,4'-Bipyridinium) 
(\m~3~-5-nitroisophthalato-O,O',O'',O''')-(\m~3~-5-nitroisophthalato-O,O,O',O'
')-europium(iii))
;
_cell_volume   1059.358
_exptl_crystal_colour 'yellow'
_exptl_crystal_density_diffrn 2.036
_exptl_special_details
;
photoluminescent

;
_exptl_crystal_description 'block'
_diffrn_ambient_temperature 293
#These two values have been output from a single CSD field.
_refine_ls_R_factor_gt 0.0219
_refine_ls_wR_factor_gt 0.0219
_symmetry_cell_setting triclinic
_symmetry_space_group_name_H-M 'P -1'
_symmetry_Int_Tables_number 2
loop_
_symmetry_equiv_pos_site_id
_symmetry_equiv_pos_as_xyz
1 x,y,z
2 -x,-y,-z
_cell_length_a 8.6559(17)
_cell_length_b 9.3993(19)
_cell_length_c 13.812(3)
_cell_angle_alpha 85.16(3)
_cell_angle_beta 78.16(3)
_cell_angle_gamma 74.51(3)
_cell_formula_units_Z 2
loop_
_atom_type_symbol
_atom_type_radius_bond
C 0.68
H 0.23
Eu 1.68
N 0.68
O 0.78
loop_
_atom_site_label
_atom_site_type_symbol
_atom_site_fract_x
_atom_site_fract_y
_atom_site_fract_z
Eu1 Eu 0.664842(15) 0.553435(14) 0.583124(10)
O1 O 0.5429(3) 0.3636(3) 0.6733(2)
O2 O 0.3679(3) 0.4789(3) 0.57946(18)
O3 O -0.2278(3) 0.5041(3) 0.7264(2)
O4 O -0.2723(3) 0.3660(4) 0.8634(2)
O5 O 0.1614(6) -0.0717(5) 0.9147(4)
O6 O 0.3956(5) -0.0313(6) 0.9047(4)
O7 O 0.8831(3) 0.3571(3) 0.5271(2)
O8 O 1.1466(3) 0.3096(3) 0.4642(2)
O9 O 1.4949(3) -0.2103(3) 0.5310(2)
O10 O 1.4285(3) -0.2870(3) 0.6849(2)
O11 O 0.8224(5) -0.1936(6) 0.7925(4)
O12 O 0.6689(4) -0.0451(4) 0.7049(4)
N1 N 0.2598(5) 0.0004(4) 0.8854(3)
N2 N 0.8014(5) -0.0981(4) 0.7303(3)
N3 N 0.5810(4) 0.5554(4) 0.0865(2)
H1 H 0.47800 0.56980 0.10910
C1 C 0.2794(4) 0.3217(4) 0.7121(2)
C2 C 0.1140(4) 0.3887(4) 0.7155(2)
H2 H 0.08230 0.47230 0.67590
C3 C -0.0036(4) 0.3306(4) 0.7779(2)
C4 C 0.0439(4) 0.2014(4) 0.8328(3)
H3 H -0.03360 0.15960 0.87310
C5 C 0.2087(4) 0.1360(4) 0.8263(3)
C6 C 0.3292(4) 0.1948(4) 0.7687(3)
H4 H 0.43920 0.15080 0.76800
C7 C 0.4061(4) 0.3906(4) 0.6494(3)
C8 C -0.1826(4) 0.4065(4) 0.7887(3)
C9 C 1.0506(4) 0.1285(3) 0.5702(2)
C10 C 1.2072(4) 0.0348(3) 0.5650(2)
H5 H 1.29650 0.06160 0.52570
C11 C 1.2293(4) -0.0992(3) 0.6188(3)
C12 C 1.0969(4) -0.1406(4) 0.6762(3)
H6 H 1.11090 -0.22790 0.71420
C13 C 0.9436(4) -0.0490(4) 0.6754(3)
C14 C 0.9156(4) 0.0854(4) 0.6247(3)
H7 H 0.81030 0.14510 0.62680
C15 C 1.0248(4) 0.2772(3) 0.5167(2)
C16 C 1.3955(4) -0.2034(3) 0.6118(3)
C17 C 0.6348(5) 0.6571(6) 0.0263(4)
H8 H 0.56110 0.74120 0.00730
C18 C 0.8002(5) 0.6376(5) -0.0080(3)
H9 H 0.83790 0.70980 -0.04910
C19 C 0.9103(4) 0.5115(4) 0.0183(2)
C20 C 0.8480(5) 0.4078(5) 0.0793(3)
H10 H 0.91820 0.32110 0.09800
C21 C 0.6822(5) 0.4327(5) 0.1125(3)
H11 H 0.64090 0.36250 0.15370
Eu1A Eu 0.335158(15) 0.446565(14) 0.416876(10)
Eu1* Eu -0.335158(15) 0.553435(14) 0.583124(10)
Eu1A* Eu 1.335158(15) 0.446565(14) 0.416876(10)
Eu1** Eu 1.664842(15) -0.446565(14) 0.583124(10)
O2A O 0.6321(3) 0.5211(3) 0.42054(18)
O3* O 0.7722(3) 0.5041(3) 0.7264(2)
O8A O 0.8534(3) 0.6904(3) 0.5358(2)
O9* O 0.4949(3) 0.7897(3) 0.5310(2)
O10* O 0.4285(3) 0.7130(3) 0.6849(2)
N3A N 1.4190(4) 0.4446(4) -0.0865(2)
H1A H 1.52200 0.43020 -0.10910
C17A C 1.3652(5) 0.3429(6) -0.0263(4)
H8A H 1.43890 0.25880 -0.00730
C18A C 1.1998(5) 0.3624(5) 0.0080(3)
H9A H 1.16210 0.29020 0.04910
C19A C 1.0897(4) 0.4885(4) -0.0183(2)
C20A C 1.1520(5) 0.5922(5) -0.0793(3)
H10A H 1.08180 0.67890 -0.09800
C21A C 1.3178(5) 0.5673(5) -0.1125(3)
H11A H 1.35910 0.63750 -0.15370
#END
