
#######################################################################
#
#                 Cambridge Crystallographic Data Centre
#                                CCDC
#
#######################################################################
#
# If this CIF has been generated from an entry in the Cambridge
# Structural Database, then it will include bibliographic, chemical,
# crystal, experimental, refinement or atomic coordinate data resulting
# from the CCDC's data processing and validation procedures.
#
#######################################################################

data_CSD_CIF_WICPII
_audit_creation_date 2007-09-20
_audit_creation_method CSD-ConQuest-V1
_database_code_CSD WICPII
_database_code_depnum_ccdc_archive 'CCDC 636061'
_chemical_formula_sum 'C21 H11 N3 O12 Tb1'
_chemical_formula_moiety
;
(C16 H6 N2 O12 Tb1 1-)n,0.5n(C10 H10 N2 2+)
;
_journal_coden_Cambridge 1350
_journal_volume 9
_journal_year 2007
_journal_page_first 515
_journal_name_full 'CrystEngComm '
loop_
_publ_author_name
"Jun-Wei Ye"
"Jia Wang"
"Jing-Ying Zhang"
"Ping Zhang"
"Yue Wang"
_chemical_name_systematic
;
catena-(hemikis(4,4'-Bipyridinium) 
(\m~3~-5-nitroisophthalato-O,O',O'',O''')-(\m~3~-5-nitroisophthalato-O,O',O'')
-terbium(iii))
;
_cell_volume   1056.057
_exptl_crystal_colour 'colorless'
_exptl_crystal_density_diffrn 2.064
_exptl_crystal_description 'block'
_diffrn_ambient_temperature 293
#These two values have been output from a single CSD field.
_refine_ls_R_factor_gt 0.0293
_refine_ls_wR_factor_gt 0.0293
_symmetry_cell_setting triclinic
_symmetry_space_group_name_H-M 'P -1'
_symmetry_Int_Tables_number 2
loop_
_symmetry_equiv_pos_site_id
_symmetry_equiv_pos_as_xyz
1 x,y,z
2 -x,-y,-z
_cell_length_a 8.6598(17)
_cell_length_b 9.3878(19)
_cell_length_c 13.796(3)
_cell_angle_alpha 85.10(3)
_cell_angle_beta 78.24(3)
_cell_angle_gamma 74.21(3)
_cell_formula_units_Z 2
loop_
_atom_type_symbol
_atom_type_radius_bond
C 0.56
H 0.23
N 0.68
O 0.68
Tb 1.76
loop_
_atom_site_label
_atom_site_type_symbol
_atom_site_fract_x
_atom_site_fract_y
_atom_site_fract_z
Tb1 Tb 0.66799(2) 0.55396(2) 0.583522(16)
O1 O 0.4304(5) 0.7095(4) 0.6836(3)
O2 O 0.4990(5) 0.7881(4) 0.5307(3)
O3 O 0.1474(5) 1.3089(4) 0.4634(3)
O4 O -0.1154(5) 1.3597(4) 0.5298(3)
O5 O -0.3287(6) 0.9556(7) 0.7044(5)
O6 O -0.1751(8) 0.8023(8) 0.7906(6)
O7 O 0.5419(5) 0.3688(4) 0.6686(3)
O8 O 0.3613(5) 0.4811(4) 0.5761(3)
O9 O -0.2301(5) 0.5043(5) 0.7267(3)
O10 O -0.2716(5) 0.3635(6) 0.8623(3)
O11 O 0.1682(9) -0.0707(7) 0.9148(6)
O12 O 0.4009(8) -0.0294(9) 0.9032(6)
N1 N -0.1966(7) 0.9002(7) 0.7288(5)
N2 N 0.2647(8) 0.0019(7) 0.8852(5)
N3 N 0.4189(6) 0.4439(6) 0.9134(4)
H1 H 0.52200 0.42940 0.89100
C1 C 0.2319(6) 0.8996(5) 0.6176(4)
C2 C 0.2092(6) 1.0342(5) 0.5644(4)
H2 H 0.29830 1.06160 0.52560
C3 C 0.0525(6) 1.1276(5) 0.5697(3)
C4 C -0.0823(6) 1.0851(6) 0.6237(4)
H3 H -0.18750 1.14580 0.62590
C5 C -0.0545(7) 0.9484(6) 0.6744(4)
C6 C 0.0994(7) 0.8580(6) 0.6750(4)
H4 H 0.11440 0.77060 0.71320
C7 C 0.3977(6) 0.7942(5) 0.6105(4)
C8 C 0.0263(6) 1.2769(5) 0.5168(4)
C9 C 0.2786(6) 0.3247(5) 0.7098(3)
C10 C 0.1116(6) 0.3910(5) 0.7141(4)
H5 H 0.07750 0.47460 0.67470
C11 C -0.0021(6) 0.3312(6) 0.7773(4)
C12 C 0.0475(7) 0.2012(6) 0.8328(4)
H6 H -0.02850 0.15880 0.87390
C13 C 0.2115(7) 0.1382(6) 0.8248(4)
C14 C 0.3304(6) 0.1967(6) 0.7664(4)
H7 H 0.44080 0.15240 0.76490
C15 C 0.4045(6) 0.3927(6) 0.6466(4)
C16 C -0.1824(6) 0.4050(6) 0.7888(4)
C17 C 0.3168(8) 0.5667(8) 0.8869(5)
H8 H 0.35760 0.63680 0.84540
C18 C 0.1507(7) 0.5921(7) 0.9200(5)
H9 H 0.07980 0.67850 0.90070
C19 C 0.0901(6) 0.4887(6) 0.9821(4)
C20 C 0.2009(7) 0.3617(8) 1.0084(5)
H10 H 0.16400 0.28910 1.04930
C21 C 0.3655(8) 0.3430(9) 0.9739(6)
H11 H 0.43980 0.25890 0.99310
Tb1A Tb 0.33201(2) 1.44604(2) 0.416478(16)
Tb1* Tb -0.33201(2) 1.55396(2) 0.583522(16)
Tb1A* Tb 0.33201(2) 0.44604(2) 0.416478(16)
Tb1** Tb -0.33201(2) 0.55396(2) 0.583522(16)
O3A O 0.8526(5) 0.6911(4) 0.5366(3)
O4* O 0.8846(5) 0.3597(4) 0.5298(3)
O8A O 0.6387(5) 0.5189(4) 0.4239(3)
O9* O 0.7699(5) 0.5043(5) 0.7267(3)
N3A N -0.4189(6) 0.5561(6) 1.0866(4)
H1A H -0.52200 0.57060 1.10900
C17A C -0.3168(8) 0.4333(8) 1.1131(5)
H8A H -0.35760 0.36320 1.15460
C18A C -0.1507(7) 0.4079(7) 1.0800(5)
H9A H -0.07980 0.32150 1.09930
C19A C -0.0901(6) 0.5113(6) 1.0179(4)
C20A C -0.2009(7) 0.6383(8) 0.9916(5)
H10A H -0.16400 0.71090 0.95070
C21A C -0.3655(8) 0.6570(9) 1.0261(6)
H11A H -0.43980 0.74110 1.00690
#END
