
#######################################################################
#
#                 Cambridge Crystallographic Data Centre
#                                CCDC
#
#######################################################################
#
# If this CIF has been generated from an entry in the Cambridge
# Structural Database, then it will include bibliographic, chemical,
# crystal, experimental, refinement or atomic coordinate data resulting
# from the CCDC's data processing and validation procedures.
#
#######################################################################

data_CSD_CIF_WICPUU
_audit_creation_date 2007-09-20
_audit_creation_method CSD-ConQuest-V1
_database_code_CSD WICPUU
_database_code_depnum_ccdc_archive 'CCDC 636063'
_chemical_formula_sum 'C21 H11 N3 O12 Yb1'
_chemical_formula_moiety
;
(C16 H6 N2 O12 Yb1 1-)n,0.5n(C10 H10 N2 2+)
;
_journal_coden_Cambridge 1350
_journal_volume 9
_journal_year 2007
_journal_page_first 515
_journal_name_full 'CrystEngComm '
loop_
_publ_author_name
"Jun-Wei Ye"
"Jia Wang"
"Jing-Ying Zhang"
"Ping Zhang"
"Yue Wang"
_chemical_name_systematic
;
catena-(hemikis(4,4'-Bipyridinium) 
(\m~3~-5-nitroisophthalato-O,O',O'',O''')-(\m~3~-5-nitroisophthalato-O,O',O'')
-ytterbium(iii))
;
_cell_volume   1054.878
_exptl_crystal_colour 'colorless'
_exptl_crystal_density_diffrn 2.11
_exptl_crystal_description 'block'
_diffrn_ambient_temperature 293
#These two values have been output from a single CSD field.
_refine_ls_R_factor_gt 0.0392
_refine_ls_wR_factor_gt 0.0392
_symmetry_cell_setting triclinic
_symmetry_space_group_name_H-M 'P -1'
_symmetry_Int_Tables_number 2
loop_
_symmetry_equiv_pos_site_id
_symmetry_equiv_pos_as_xyz
1 x,y,z
2 -x,-y,-z
_cell_length_a 8.6721(17)
_cell_length_b 9.3671(19)
_cell_length_c 13.849(3)
_cell_angle_alpha 84.74(3)
_cell_angle_beta 77.93(3)
_cell_angle_gamma 73.63(3)
_cell_formula_units_Z 2
loop_
_atom_type_symbol
_atom_type_radius_bond
C 0.68
H 0.23
N 0.68
O 0.68
Yb 1.61
loop_
_atom_site_label
_atom_site_type_symbol
_atom_site_fract_x
_atom_site_fract_y
_atom_site_fract_z
Yb1 Yb 0.67602(3) -0.44479(3) -0.41500(2)
O1 O 0.4372(7) -0.2982(6) -0.3192(4)
O2 O 0.5078(7) -0.2155(6) -0.4700(4)
O3 O 0.1471(7) 0.3079(6) -0.5408(4)
O4 O -0.1108(6) 0.3636(6) -0.4617(4)
O5 O -0.3293(9) -0.0461(9) -0.2981(7)
O6 O -0.1671(11) -0.2035(11) -0.2128(7)
O7 O 1.2674(7) -0.3591(9) -0.8615(5)
O8 O 1.2357(7) -0.5052(7) -0.7276(4)
O9 O 0.6517(7) -0.4854(6) -0.5674(4)
O10 O 0.4625(6) -0.3799(6) -0.6556(5)
O11 O 0.5851(11) 0.0204(12) -0.9008(8)
O12 O 0.8165(12) 0.0697(11) -0.9129(9)
N1 N -0.191(1) -0.1027(9) -0.2740(7)
N2 N 0.7243(10) -0.0051(9) -0.8823(7)
N3 N 0.4214(9) -0.5581(9) -0.0861(5)
H1 H 0.52480 -0.57300 -0.10810
C1 C 0.2383(9) -0.1043(8) -0.3841(5)
C2 C 0.2142(8) 0.0310(8) -0.4380(5)
H2 H 0.30250 0.05700 -0.47890
C3 C 0.0566(8) 0.1273(8) -0.4302(5)
C4 C -0.0762(9) 0.0841(8) -0.3768(5)
H3 H -0.18190 0.14530 -0.37470
C5 C -0.0493(9) -0.0527(9) -0.3259(6)
C6 C 0.1038(10) -0.1466(8) -0.3273(6)
H4 H 0.11820 -0.23660 -0.29120
C7 C 0.4047(9) -0.2105(8) -0.3918(6)
C8 C 0.0285(9) 0.2780(7) -0.4825(5)
C9 C 0.3176(11) -0.4353(11) -0.1142(7)
H5 H 0.35800 -0.36580 -0.15670
C10 C 0.1506(11) -0.4090(11) -0.0812(7)
H6 H 0.08000 -0.32180 -0.10110
C11 C 0.0875(9) -0.5117(10) -0.0187(5)
C12 C 0.1991(11) -0.6389(12) 0.0083(8)
H7 H 0.16190 -0.71200 0.04870
C13 C 0.3666(11) -0.6583(13) -0.0244(8)
H8 H 0.44060 -0.74170 -0.00300
C14 C 1.0010(9) -0.3335(8) -0.7758(5)
C15 C 0.8878(9) -0.3918(8) -0.7109(5)
H9 H 0.92460 -0.47450 -0.67080
C16 C 0.7218(9) -0.3302(8) -0.7041(5)
C17 C 0.6655(10) -0.2047(9) -0.7625(6)
H10 H 0.55430 -0.16440 -0.76170
C18 C 0.7824(10) -0.1411(9) -0.8225(6)
C19 C 0.9451(10) -0.2031(9) -0.8321(6)
H11 H 1.01900 -0.16050 -0.87500
C20 C 1.1834(9) -0.4049(9) -0.7884(6)
C21 C 0.6018(9) -0.4027(8) -0.6377(5)
Yb1A Yb 0.32398(3) 0.44479(3) -0.58500(2)
Yb1* Yb -0.32398(3) 0.55521(3) -0.41500(2)
Yb1A* Yb 1.32398(3) -0.55521(3) -0.58500(2)
Yb1A** Yb 0.32398(3) -0.55521(3) -0.58500(2)
O3A O 0.8529(7) -0.3079(6) -0.4592(4)
O4* O 0.8892(6) -0.6364(6) -0.4617(4)
O8A O 0.7643(7) -0.4948(7) -0.2724(4)
O10A O 0.5375(6) -0.6201(6) -0.3444(5)
N3A N -0.4214(9) -0.4419(9) 0.0861(5)
H1A H -0.52480 -0.42700 0.10810
C9A C -0.3176(11) -0.5647(11) 0.1142(7)
H5A H -0.35800 -0.63420 0.15670
C10A C -0.1506(11) -0.5910(11) 0.0812(7)
H6A H -0.08000 -0.67820 0.10110
C11A C -0.0875(9) -0.4883(10) 0.0187(5)
C12A C -0.1991(11) -0.3611(12) -0.0083(8)
H7A H -0.16190 -0.28800 -0.04870
C13A C -0.3666(11) -0.3417(13) 0.0244(8)
H8A H -0.44060 -0.25830 0.00300
#END
