
#######################################################################
#
#                 Cambridge Crystallographic Data Centre
#                                CCDC
#
#######################################################################
#
# If this CIF has been generated from an entry in the Cambridge
# Structural Database, then it will include bibliographic, chemical,
# crystal, experimental, refinement or atomic coordinate data resulting
# from the CCDC's data processing and validation procedures.
#
#######################################################################

data_CSD_CIF_WICPOO
_audit_creation_date 2007-09-20
_audit_creation_method CSD-ConQuest-V1
_database_code_CSD WICPOO
_database_code_depnum_ccdc_archive 'CCDC 636062'
_chemical_formula_sum 'C21 H11 Ho1 N3 O12'
_chemical_formula_moiety
;
(C16 H6 Ho1 N2 O12 1-)n,0.5n(C10 H10 N2 2+)
;
_journal_coden_Cambridge 1350
_journal_volume 9
_journal_year 2007
_journal_page_first 515
_journal_name_full 'CrystEngComm '
loop_
_publ_author_name
"Jun-Wei Ye"
"Jia Wang"
"Jing-Ying Zhang"
"Ping Zhang"
"Yue Wang"
_chemical_name_systematic
;
catena-(hemikis(4,4'-Bipyridinium) 
(\m~3~-5-nitroisophthalato-O,O',O'',O''')-(\m~3~-5-nitroisophthalato-O,O',O'')
-holmium(iii))
;
_cell_volume   1054.126
_exptl_crystal_colour 'yellow'
_exptl_crystal_density_diffrn 2.086
_exptl_crystal_description 'block'
_diffrn_ambient_temperature 293
#These two values have been output from a single CSD field.
_refine_ls_R_factor_gt 0.0228
_refine_ls_wR_factor_gt 0.0228
_symmetry_cell_setting triclinic
_symmetry_space_group_name_H-M 'P -1'
_symmetry_Int_Tables_number 2
loop_
_symmetry_equiv_pos_site_id
_symmetry_equiv_pos_as_xyz
1 x,y,z
2 -x,-y,-z
_cell_length_a 8.6712(17)
_cell_length_b 9.3753(19)
_cell_length_c 13.804(3)
_cell_angle_alpha 84.93(3)
_cell_angle_beta 77.99(3)
_cell_angle_gamma 73.92(3)
_cell_formula_units_Z 2
loop_
_atom_type_symbol
_atom_type_radius_bond
C 0.68
H 0.23
Ho 1.63
N 0.68
O 0.68
loop_
_atom_site_label
_atom_site_type_symbol
_atom_site_fract_x
_atom_site_fract_y
_atom_site_fract_z
Ho1 Ho 0.671470(18) -0.445370(18) -0.415980(12)
O1 O 0.4604(3) -0.3739(3) -0.6628(2)
O2 O 0.6453(4) -0.4839(3) -0.5727(2)
O3 O 1.2314(4) -0.5036(4) -0.7269(2)
O4 O 1.2720(4) -0.3628(5) -0.8622(3)
O5 O 0.8271(7) 0.0698(6) -0.9134(5)
O6 O 0.5945(6) 0.0251(7) -0.9022(5)
O7 O -0.1128(4) 0.3608(3) -0.4668(3)
O8 O 0.1490(4) 0.3074(3) -0.5393(2)
O9 O 0.5025(4) -0.2131(4) -0.4702(2)
O10 O 0.4343(4) -0.2941(4) -0.3174(2)
O11 O -0.1710(6) -0.2007(6) -0.2107(4)
O12 O -0.3267(5) -0.0451(5) -0.2953(4)
N1 N 0.7303(6) -0.0044(5) -0.8840(4)
N2 N -0.1938(5) -0.1006(5) -0.2718(4)
N3 N 0.4202(4) -0.5580(5) -0.0866(3)
H1 H 0.52350 -0.57290 -0.10890
C1 C 0.7215(5) -0.3278(4) -0.7072(3)
C2 C 0.8876(5) -0.3915(4) -0.7129(3)
H2 H 0.92250 -0.47520 -0.67350
C3 C 1.0032(5) -0.3322(5) -0.7768(3)
C4 C 0.9517(5) -0.2036(5) -0.8321(3)
H3 H 1.02720 -0.16120 -0.87380
C5 C 0.7846(5) -0.1390(5) -0.8240(3)
C6 C 0.6690(5) -0.2008(5) -0.7641(3)
H4 H 0.55800 -0.15800 -0.76200
C7 C 0.5992(5) -0.3971(4) -0.6425(3)
C8 C 1.1827(5) -0.4052(5) -0.7882(3)
C9 C 0.0542(4) 0.1280(4) -0.4306(3)
C10 C 0.2100(5) 0.0333(4) -0.4366(3)
H5 H 0.29880 0.06020 -0.47630
C11 C 0.2344(4) -0.1020(4) -0.3835(3)
C12 C 0.1016(5) -0.1442(5) -0.3267(3)
H6 H 0.11630 -0.23300 -0.28960
C13 C -0.0517(5) -0.0522(5) -0.3262(3)
C14 C -0.0803(5) 0.0854(4) -0.3764(3)
H7 H -0.18570 0.14640 -0.37370
C15 C 0.0276(5) 0.2772(4) -0.4828(3)
C16 C 0.4019(5) -0.2074(4) -0.3902(3)
C17 C 0.3180(6) -0.4354(6) -0.1135(4)
H8 H 0.35910 -0.36600 -0.15570
C18 C 0.1505(6) -0.4079(6) -0.0802(4)
H9 H 0.08020 -0.32050 -0.09940
C19 C 0.0894(5) -0.5114(5) -0.0183(3)
C20 C 0.2016(6) -0.6385(6) 0.0084(4)
H10 H 0.16480 -0.71080 0.04990
C21 C 0.3663(6) -0.6582(7) -0.0258(4)
H11 H 0.44040 -0.74260 -0.00610
Ho1A Ho 0.328530(18) -0.554630(18) -0.584020(12)
Ho1A* Ho 1.328530(18) -0.554630(18) -0.584020(12)
Ho1A** Ho 0.328530(18) 0.445370(18) -0.584020(12)
Ho1* Ho -0.328530(18) 0.554630(18) -0.415980(12)
O1A O 0.5396(3) -0.6261(3) -0.3372(2)
O3A O 0.7686(4) -0.4964(4) -0.2731(2)
O7* O 0.8872(4) -0.6392(3) -0.4668(3)
O8A O 0.8510(4) -0.3074(3) -0.4607(2)
N3A N -0.4202(4) -0.4420(5) 0.0866(3)
H1A H -0.52350 -0.42710 0.10890
C17A C -0.3180(6) -0.5646(6) 0.1135(4)
H8A H -0.35910 -0.63400 0.15570
C18A C -0.1505(6) -0.5921(6) 0.0802(4)
H9A H -0.08020 -0.67950 0.09940
C19A C -0.0894(5) -0.4886(5) 0.0183(3)
C20A C -0.2016(6) -0.3615(6) -0.0084(4)
H10A H -0.16480 -0.28920 -0.04990
C21A C -0.3663(6) -0.3418(7) 0.0258(4)
H11A H -0.44040 -0.25740 0.00610
#END
