
#######################################################################
#
#                 Cambridge Crystallographic Data Centre
#                                CCDC
#
#######################################################################
#
# If this CIF has been generated from an entry in the Cambridge
# Structural Database, then it will include bibliographic, chemical,
# crystal, experimental, refinement or atomic coordinate data resulting
# from the CCDC's data processing and validation procedures.
#
#######################################################################

data_CSD_CIF_WICQAB
_audit_creation_date 2007-09-20
_audit_creation_method CSD-ConQuest-V1
_database_code_CSD WICQAB
_database_code_depnum_ccdc_archive 'CCDC 636057'
_chemical_formula_sum 'C21 H19 N3 O16 Pr1'
_chemical_formula_moiety
;
(C16 H10 N2 O14 Pr1 1-)n,0.5n(C10 H10 N2 2+),2n(H2 O1)
;
_journal_coden_Cambridge 1350
_journal_volume 9
_journal_year 2007
_journal_page_first 515
_journal_name_full 'CrystEngComm '
loop_
_publ_author_name
"Jun-Wei Ye"
"Jia Wang"
"Jing-Ying Zhang"
"Ping Zhang"
"Yue Wang"
_chemical_name_systematic
;
catena-(hemikis(4,4'-Bipyridinium) 
(\m~4~-5-nitroisophthalato-O,O',O'',O''')-diaqua-(5-nitroisophthalato-O,O')-pr
aseodymium(iii) dihydrate)
;
_cell_volume   1230.852
_exptl_crystal_colour 'yellow'
_exptl_crystal_density_diffrn 1.917
_exptl_crystal_description 'block'
_diffrn_ambient_temperature 293
#These two values have been output from a single CSD field.
_refine_ls_R_factor_gt 0.0425
_refine_ls_wR_factor_gt 0.0425
_symmetry_cell_setting triclinic
_symmetry_space_group_name_H-M 'P -1'
_symmetry_Int_Tables_number 2
loop_
_symmetry_equiv_pos_site_id
_symmetry_equiv_pos_as_xyz
1 x,y,z
2 -x,-y,-z
_cell_length_a 9.978(2)
_cell_length_b 10.900(2)
_cell_length_c 13.237(3)
_cell_angle_alpha 74.72(3)
_cell_angle_beta 78.43(3)
_cell_angle_gamma 62.90(3)
_cell_formula_units_Z 2
loop_
_atom_type_symbol
_atom_type_radius_bond
C 0.68
H 0.23
N 0.68
O 0.68
Pr 1.82
loop_
_atom_site_label
_atom_site_type_symbol
_atom_site_fract_x
_atom_site_fract_y
_atom_site_fract_z
Pr1 Pr 0.227030(14) -0.468220(12) 0.513950(11)
O1 O 0.3226(2) -0.35791(19) 0.33876(15)
O2 O 0.2102(2) -0.4877(2) 0.32948(16)
O3 O 0.2013(5) -0.5576(4) -0.0245(3)
O4 O 0.2933(4) -0.4520(4) -0.1673(2)
O5 O 0.4414(5) -0.0977(5) -0.1223(3)
O6 O 0.5365(4) -0.1401(4) 0.0199(4)
O7 O 0.5193(2) -0.3661(2) 0.53106(17)
O8 O 0.2692(2) -0.28327(19) 0.55265(18)
O9 O -0.0033(2) 0.24852(19) 0.54431(19)
O10 O 0.1448(2) 0.34968(19) 0.54319(18)
O11 O 0.6152(3) 0.0625(3) 0.7063(2)
O12 O 0.7247(3) -0.1575(3) 0.7124(3)
O13 O 0.3621(2) -0.5909(2) 0.67761(16)
O14 O 0.0314(2) -0.4394(2) 0.67179(19)
O15 O 0.9614(4) -0.7595(4) 0.2585(3)
O16 O 0.0873(4) -0.0459(4) 0.3169(4)
N1 N 0.4626(5) -0.1569(4) -0.0326(3)
N2 N 0.6209(3) -0.0447(3) 0.6916(2)
N3 N 0.8655(4) -0.2595(4) 0.0579(3)
H1 H 0.83180 -0.32260 0.07140
C1 C 0.3077(3) -0.3786(3) 0.1684(2)
C2 C 0.2697(4) -0.4409(3) 0.1059(2)
H2 H 0.22820 -0.50460 0.13670
C3 C 0.2947(4) -0.4067(4) -0.0036(3)
C4 C 0.3545(4) -0.3121(4) -0.0490(3)
H3 H 0.36850 -0.28710 -0.12180
C5 C 0.3936(4) -0.2543(4) 0.0147(3)
C6 C 0.3689(3) -0.2851(3) 0.1232(2)
H4 H 0.39350 -0.24290 0.16470
C7 C 0.2799(3) -0.4106(3) 0.2860(2)
C8 C 0.2596(5) -0.4769(4) -0.0722(3)
C9 C 0.3793(3) -0.1478(2) 0.58414(19)
C10 C 0.2518(3) -0.0191(2) 0.5657(2)
H5 H 0.16840 -0.01410 0.54070
C11 C 0.2500(3) 0.1018(2) 0.5850(2)
C12 C 0.3705(3) 0.0921(2) 0.6275(2)
H6 H 0.36990 0.17150 0.64170
C13 C 0.4917(3) -0.0368(3) 0.6488(2)
C14 C 0.4996(3) -0.1572(2) 0.6267(2)
H7 H 0.58410 -0.24240 0.64020
C15 C 0.3910(3) -0.2757(2) 0.5532(2)
C16 C 0.1203(3) 0.2437(2) 0.5551(2)
C17 C 0.8975(5) -0.2247(5) 0.1360(4)
H8 H 0.88580 -0.27020 0.20500
C18 C 0.9477(5) -0.1213(5) 0.1151(4)
H9 H 0.96740 -0.09620 0.17060
C19 C 0.9693(4) -0.0547(4) 0.0141(3)
C20 C 0.9339(5) -0.0940(5) -0.0646(4)
H10 H 0.94310 -0.04990 -0.13440
C21 C 0.8850(5) -0.1983(5) -0.0390(4)
H11 H 0.86520 -0.22630 -0.09280
Pr1A Pr 0.772970(14) -0.531780(12) 0.486050(11)
Pr1A* Pr -0.227030(14) 0.468220(12) 0.486050(11)
Pr1* Pr 0.227030(14) 0.531780(12) 0.513950(11)
O7A O 0.4807(2) -0.6339(2) 0.46894(17)
O9A O 0.0033(2) -0.24852(19) 0.45569(19)
O10* O 0.1448(2) -0.65032(19) 0.54319(18)
N3A N 1.1345(4) 0.2595(4) -0.0579(3)
H1A H 1.16820 0.32260 -0.07140
C17A C 1.1025(5) 0.2247(5) -0.1360(4)
H8A H 1.11420 0.27020 -0.20500
C18A C 1.0523(5) 0.1213(5) -0.1151(4)
H9A H 1.03260 0.09620 -0.17060
C19A C 1.0307(4) 0.0547(4) -0.0141(3)
C20A C 1.0661(5) 0.0940(5) 0.0646(4)
H10A H 1.05690 0.04990 0.13440
C21A C 1.1150(5) 0.1983(5) 0.0390(4)
H11A H 1.13480 0.22630 0.09280
#END
