
#######################################################################
#
#                 Cambridge Crystallographic Data Centre
#                                CCDC
#
#######################################################################
#
# If this CIF has been generated from an entry in the Cambridge
# Structural Database, then it will include bibliographic, chemical,
# crystal, experimental, refinement or atomic coordinate data resulting
# from the CCDC's data processing and validation procedures.
#
#######################################################################

data_CSD_CIF_WIDVUA
_audit_creation_date 1995-04-19
_audit_creation_method CSD-ConQuest-V1
_database_code_CSD WIDVUA
_database_code_depnum_ccdc_archive 'CCDC 1293293'
_database_code_depnum_ccdc_fiz 'CSD 57935'
_chemical_formula_sum 'C10 H12 Cu2 N6 O4 S4'
_chemical_formula_moiety
;
(C8 Cu2 O4 S4 2-)n,2n(C1 H6 N3 1+)
;
_journal_coden_Cambridge 48
_journal_volume 127
_journal_year 1994
_journal_page_first 605
_journal_name_full 'Chem.Ber. '
loop_
_publ_author_name
"U.Kleinitz"
"R.Mattes"
_chemical_name_systematic
;
catena-(bis(Guanidinium) bis(\m~3~-dithiosquarato-S,S,S')-di-copper(i))
;
_cell_volume    910.721
_exptl_crystal_colour 'dark brown'
_exptl_crystal_density_diffrn 1.95
_diffrn_ambient_temperature ?
_diffrn_special_details
;
The study was carried out at room temperature,in the range 283-303K

;
#These two values have been output from a single CSD field.
_refine_ls_R_factor_gt 0.056
_refine_ls_wR_factor_gt 0.056
_symmetry_cell_setting monoclinic
_symmetry_space_group_name_H-M 'P 21/n'
_symmetry_Int_Tables_number 14
loop_
_symmetry_equiv_pos_site_id
_symmetry_equiv_pos_as_xyz
1 x,y,z
2 1/2-x,1/2+y,1/2-z
3 -x,-y,-z
4 -1/2+x,-1/2-y,-1/2+z
_cell_length_a 3.89
_cell_length_b 11.811(2)
_cell_length_c 19.830(4)
_cell_angle_alpha 90
_cell_angle_beta 91.62(3)
_cell_angle_gamma 90
_cell_formula_units_Z 2
loop_
_atom_type_symbol
_atom_type_radius_bond
C 0.68
H 0.23
Cu 1.08
N 0.68
O 0.68
S 1.02
loop_
_atom_site_label
_atom_site_type_symbol
_atom_site_fract_x
_atom_site_fract_y
_atom_site_fract_z
Cu1 Cu 0.1447(2) 0.0499(1) 0.4501(1)
S1 S 0.1376(4) -0.0577(1) 0.3557(1)
S2 S -0.3466(3) 0.1455(1) 0.4675(1)
C1 C 0.3147(13) -0.1752(5) 0.3899(3)
C2 C -0.3988(12) 0.2065(5) 0.5444(3)
C3 C -0.5664(14) 0.3113(5) 0.5653(3)
C4 C 0.4706(14) -0.2785(5) 0.3628(3)
O1 O -0.7251(12) 0.3876(4) 0.5386(2)
O2 O 0.5179(12) -0.3189(4) 0.3076(2)
C5 C -0.4836(15) 0.1140(5) 0.8397(3)
N1 N -0.6398(15) 0.0525(5) 0.7930(2)
N2 N -0.4521(16) 0.0755(5) 0.9013(3)
N3 N -0.3590(15) 0.2145(5) 0.8242(3)
H1 H -0.66310 0.07660 0.75270
H2 H -0.72020 -0.01190 0.80350
H3 H -0.53320 0.01100 0.91130
H4 H -0.34890 0.11510 0.93140
H5 H -0.38130 0.23920 0.78410
H6 H -0.25560 0.25420 0.85430
S2* S 0.6534(3) 0.1455(1) 0.4675(1)
Cu1* Cu -0.8553(2) 0.0499(1) 0.4501(1)
C2B C 0.3988(12) -0.2065(5) 0.4556(3)
C1B C -0.3147(13) 0.1752(5) 0.6101(3)
C4B C -0.4706(14) 0.2785(5) 0.6372(3)
C3B C 0.5664(14) -0.3113(5) 0.4347(3)
S2B S 0.3466(3) -0.1455(1) 0.5325(1)
S1B S -0.1376(4) 0.0577(1) 0.6443(1)
O2B O -0.5179(12) 0.3189(4) 0.6924(2)
O1B O 0.7251(12) -0.3876(4) 0.4614(2)
Cu1B Cu -0.1447(2) -0.0499(1) 0.5499(1)
Cu1B* Cu 0.8553(2) -0.0499(1) 0.5499(1)
S2B* S -0.6534(3) -0.1455(1) 0.5325(1)
#END
