
#######################################################################
#
#                 Cambridge Crystallographic Data Centre
#                                CCDC
#
#######################################################################
#
# If this CIF has been generated from an entry in the Cambridge
# Structural Database, then it will include bibliographic, chemical,
# crystal, experimental, refinement or atomic coordinate data resulting
# from the CCDC's data processing and validation procedures.
#
#######################################################################

data_CSD_CIF_WIDWOX
_audit_creation_date 2013-05-26
_audit_creation_method CSD-ConQuest-V1
_database_code_CSD WIDWOX
_database_code_depnum_ccdc_archive 'CCDC 930406'
_chemical_formula_sum 'C62 H193 Ag8 Cl1 La1 N12 Ni6 O61 S12'
_chemical_formula_moiety
;
(C62 H128 Ag8 Cl1 La1 N12 Ni6 O30 S12 3-)n,3n(H3 O1 1+),28n(H2 O1)
;
_journal_coden_Cambridge 1147
_journal_volume 13
_journal_year 2013
_journal_page_first 918
_journal_name_full 'Cryst.Growth Des. '
loop_
_publ_author_name
"Zhong-Yi Li"
"He-Qing Huang"
"Long Xu"
"Rui-Bin Liu"
"Jian-Jun Zhang"
"Shu-Qin Liu"
"Chun-Ying Duan"
_chemical_name_systematic
;
catena-(Trioxonium 
(\m~5~-chloro)-tris(\m~4~-3-sulfanyl-D-valyl)-nonakis(\m~3~-3-sulfanyl-D-valyl
)-acetato-tetra-aqua-hexa-nickel-lanthanum-octa-silver hydrate)
;
_cell_volume  28101.391
_exptl_crystal_colour 'red'
_exptl_crystal_density_diffrn 1.819
_exptl_special_details
;
Absolute configuration

;
_exptl_crystal_description 'Block'
_diffrn_ambient_temperature 293
_refine_special_details
;
Disordered oxonium ions and water molecules were not modelled and the 
disordered density was taken into account using the SQUEEZE/PLATON procedure.
;
#These two values have been output from a single CSD field.
_refine_ls_R_factor_gt 0.0468
_refine_ls_wR_factor_gt 0.0468
_symmetry_cell_setting tetragonal
_symmetry_space_group_name_H-M 'P 41 21 2'
_symmetry_Int_Tables_number 92
loop_
_symmetry_equiv_pos_site_id
_symmetry_equiv_pos_as_xyz
1 x,y,z
2 -x,-y,1/2+z
3 1/2-y,1/2+x,1/4+z
4 1/2+y,1/2-x,3/4+z
5 1/2-x,1/2+y,1/4-z
6 1/2+x,1/2-y,3/4-z
7 y,x,-z
8 -y,-x,1/2-z
_cell_length_a 24.3687(14)
_cell_length_b 24.3687(14)
_cell_length_c 47.322(6)
_cell_angle_alpha 90
_cell_angle_beta 90
_cell_angle_gamma 90
_cell_formula_units_Z 8
loop_
_atom_type_symbol
_atom_type_radius_bond
C 0.68
H 0.23
Ag 1.45
Cl 0.99
La 2.07
N 0.68
Ni 1.24
O 0.68
S 1.02
loop_
_atom_site_label
_atom_site_type_symbol
_atom_site_fract_x
_atom_site_fract_y
_atom_site_fract_z
La1 La 0.08148(2) 0.37847(2) 0.637236(11)
Cl1 Cl 0.23546(8) 0.62421(8) 0.46086(4)
Ag1 Ag 0.12970(3) 0.70674(4) 0.441151(17)
Ag2 Ag 0.14749(3) 0.60745(3) 0.499872(15)
Ag3 Ag 0.18913(3) 0.50353(3) 0.462873(14)
Ag4 Ag 0.20192(3) 0.59285(3) 0.406453(15)
Ag5 Ag 0.26758(3) 0.73702(3) 0.460550(14)
Ag6 Ag 0.27796(3) 0.65584(3) 0.518664(14)
Ag7 Ag 0.32518(3) 0.55688(3) 0.477451(14)
Ag8 Ag 0.33970(3) 0.63970(3) 0.412680(18)
Ni1 Ni 0.04422(4) 0.56512(4) 0.43659(2)
Ni2 Ni 0.42624(4) 0.68774(4) 0.48227(2)
Ni3 Ni 0.23553(4) 0.74759(4) 0.37710(2)
Ni4 Ni 0.24293(4) 0.49593(4) 0.54525(2)
Ni5 Ni 0.16095(5) 0.77355(4) 0.52076(2)
Ni6 Ni 0.31556(4) 0.47307(4) 0.40471(2)
S1 S 0.07610(9) 0.62913(8) 0.46366(5)
S2 S 0.12423(8) 0.53340(8) 0.42521(4)
S3 S 0.34549(8) 0.71651(8) 0.49471(4)
S4 S 0.39535(8) 0.62083(8) 0.45655(4)
S5 S 0.29624(8) 0.73224(8) 0.40944(4)
S6 S 0.17599(9) 0.69066(9) 0.39416(5)
S7 S 0.29866(8) 0.55738(8) 0.52940(4)
S8 S 0.17753(8) 0.51334(8) 0.51540(4)
S9 S 0.18271(9) 0.68855(9) 0.52777(4)
S10 S 0.17549(10) 0.77081(9) 0.47583(5)
S11 S 0.28565(8) 0.48045(8) 0.44756(4)
S12 S 0.29410(9) 0.55595(8) 0.39264(4)
O1 O -0.1169(4) 0.6148(7) 0.4730(2)
O2 O -0.1070(5) 0.6996(6) 0.4748(3)
O3 O 0.0442(3) 0.3681(3) 0.39161(18)
O4 O -0.0214(2) 0.4278(2) 0.38042(12)
O5 O 0.4870(3) 0.8240(3) 0.54194(14)
O6 O 0.4188(3) 0.8125(3) 0.57270(13)
O7 O 0.5891(3) 0.6094(4) 0.4615(2)
O8 O 0.5714(4) 0.6005(4) 0.4130(3)
O9 O 0.4289(2) 0.8416(3) 0.35970(13)
O10 O 0.3506(3) 0.8865(3) 0.35441(17)
O11 O 0.1154(5) 0.7550(5) 0.3042(2)
O12 O 0.0411(3) 0.7508(3) 0.3277(2)
O13 O 0.3886(3) 0.4498(3) 0.59960(15)
O14 O 0.4106(3) 0.5349(3) 0.61250(15)
O15 O 0.1185(3) 0.3915(3) 0.58878(13)
O16 O 0.0690(4) 0.3675(4) 0.55245(18)
O17 O 0.2032(3) 0.7233(4) 0.62615(14)
O18 O 0.1256(3) 0.7670(3) 0.61482(14)
O19 O 0.1291(6) 0.9539(3) 0.5067(2)
O20 O 0.0892(6) 0.9444(4) 0.4638(3)
O21 O 0.3629(3) 0.2986(2) 0.43429(14)
O22 O 0.2843(3) 0.2866(3) 0.45622(15)
O23 O 0.3405(4) 0.4485(3) 0.31093(15)
O24 O 0.3788(4) 0.5308(3) 0.30239(17)
O25 O 0.0871(3) 0.4333(3) 0.68706(15)
O26 O 0.0492(5) 0.2853(3) 0.61945(18)
O27 O -0.0122(2) 0.3868(2) 0.66323(12)
O28 O 0.1666(4) 0.3151(3) 0.6300(2)
O29 O 0.0018(2) 0.3898(3) 0.60202(13)
N1 N -0.0286(3) 0.5934(3) 0.44434(17)
N2 N 0.0124(3) 0.5055(3) 0.41503(15)
N3 N 0.4565(3) 0.7390(3) 0.50947(14)
N4 N 0.4992(3) 0.6707(3) 0.46856(15)
N5 N 0.2873(3) 0.7972(3) 0.35988(14)
N6 N 0.1831(3) 0.7657(3) 0.34837(19)
N7 N 0.2958(3) 0.4812(3) 0.57435(14)
N8 N 0.1993(3) 0.4359(3) 0.55904(16)
N9 N 0.1576(3) 0.7833(3) 0.56148(15)
N10 N 0.1324(3) 0.8462(3) 0.51635(15)
N11 N 0.3276(3) 0.3966(3) 0.41133(13)
N12 N 0.3465(3) 0.4629(3) 0.36743(14)
C1 C -0.0314(4) 0.6475(4) 0.4572(2)
H1 H -0.02460 0.67570 0.44290
C2 C 0.0112(4) 0.6522(4) 0.48084(19)
C3 C 0.0195(4) 0.7114(4) 0.4915(2)
H2 H -0.01350 0.72400 0.50040
H3 H 0.02810 0.73490 0.47580
H4 H 0.04920 0.71220 0.50480
C4 C -0.0016(4) 0.6156(4) 0.5055(2)
H5 H -0.03500 0.62760 0.51430
H6 H 0.02790 0.61730 0.51890
H7 H -0.00590 0.57850 0.49900
C5 C -0.0892(6) 0.6559(7) 0.4703(3)
C6 C 0.0489(3) 0.4577(3) 0.41188(18)
H8 H 0.05430 0.44160 0.43070
C7 C 0.1052(3) 0.4766(3) 0.40105(18)
C8 C 0.1015(4) 0.4983(4) 0.37104(17)
H9 H 0.09160 0.46890 0.35850
H10 H 0.13640 0.51300 0.36550
H11 H 0.07420 0.52660 0.37010
C9 C 0.1494(4) 0.4338(4) 0.4029(2)
H12 H 0.14050 0.40380 0.39060
H13 H 0.15200 0.42080 0.42200
H14 H 0.18380 0.44960 0.39730
C10 C 0.0219(4) 0.4135(4) 0.3928(2)
C11 C 0.4181(3) 0.7557(3) 0.53062(17)
H15 H 0.41020 0.72360 0.54240
C12 C 0.3641(3) 0.7750(3) 0.51792(17)
C13 C 0.3717(4) 0.8258(3) 0.49937(19)
H16 H 0.38130 0.85660 0.51100
H17 H 0.33810 0.83350 0.48960
H18 H 0.40040 0.81920 0.48590
C14 C 0.3187(4) 0.7815(4) 0.53976(19)
H19 H 0.32740 0.81160 0.55210
H20 H 0.31560 0.74840 0.55060
H21 H 0.28460 0.78870 0.53030
C15 C 0.4436(4) 0.8020(3) 0.5508(2)
C16 C 0.4996(4) 0.6323(4) 0.4437(2)
H22 H 0.48820 0.65300 0.42700
C17 C 0.4608(3) 0.5859(4) 0.44753(19)
C18 C 0.4520(4) 0.5518(4) 0.42176(19)
H23 H 0.48550 0.53320 0.41700
H24 H 0.44120 0.57490 0.40630
H25 H 0.42380 0.52520 0.42530
C19 C 0.4757(4) 0.5507(4) 0.4728(2)
H26 H 0.50930 0.53160 0.46910
H27 H 0.44690 0.52470 0.47630
H28 H 0.48030 0.57370 0.48910
C20 C 0.5603(7) 0.6136(6) 0.4392(4)
C21 C 0.3453(3) 0.7941(3) 0.36968(18)
H29 H 0.36230 0.76180 0.36090
C22 C 0.3468(4) 0.7865(3) 0.40141(18)
C23 C 0.4014(4) 0.7679(6) 0.4135(3)
H30 H 0.42880 0.79520 0.40970
H31 H 0.41190 0.73380 0.40490
H32 H 0.39790 0.76280 0.43350
C24 C 0.3298(6) 0.8389(4) 0.4164(2)
H33 H 0.35600 0.86740 0.41240
H34 H 0.32860 0.83260 0.43640
H35 H 0.29420 0.85000 0.40990
C25 C 0.3775(4) 0.8454(4) 0.3601(2)
C26 C 0.1250(4) 0.7486(3) 0.3543(2)
H36 H 0.10870 0.77320 0.36840
C27 C 0.1239(4) 0.6887(3) 0.36544(19)
C28 C 0.0704(4) 0.6707(5) 0.3778(3)
H37 H 0.04310 0.66930 0.36320
H38 H 0.05920 0.69630 0.39210
H39 H 0.07460 0.63490 0.38610
C29 C 0.1457(6) 0.6486(4) 0.3430(2)
H40 H 0.11990 0.64600 0.32770
H41 H 0.15070 0.61300 0.35130
H42 H 0.18020 0.66170 0.33580
C30 C 0.0909(5) 0.7505(4) 0.3265(3)
C31 C 0.3359(4) 0.5253(4) 0.58006(17)
H43 H 0.31770 0.55480 0.59060
C32 C 0.3590(3) 0.5486(3) 0.55293(17)
C33 C 0.3858(4) 0.6036(4) 0.5575(2)
H44 H 0.41710 0.59940 0.56960
H45 H 0.36000 0.62830 0.56610
H46 H 0.39740 0.61830 0.53960
C34 C 0.3990(4) 0.5087(4) 0.53805(19)
H47 H 0.43090 0.50350 0.54970
H48 H 0.40980 0.52380 0.52020
H49 H 0.38110 0.47410 0.53510
C35 C 0.3835(4) 0.4997(5) 0.59916(19)
C36 C 0.1486(3) 0.4214(3) 0.54301(17)
H50 H 0.15840 0.39740 0.52720
C37 C 0.1201(3) 0.4749(3) 0.53109(17)
C38 C 0.0964(4) 0.5070(4) 0.5552(2)
H51 H 0.06650 0.48690 0.56340
H52 H 0.08340 0.54180 0.54840
H53 H 0.12430 0.51290 0.56920
C39 C 0.0807(4) 0.4612(4) 0.50778(19)
H54 H 0.05030 0.44100 0.51540
H55 H 0.09910 0.43930 0.49380
H56 H 0.06770 0.49440 0.49920
C40 C 0.1087(4) 0.3894(4) 0.5635(2)
C41 C 0.1832(4) 0.7383(3) 0.57789(16)
H57 H 0.22300 0.74140 0.57550
C42 C 0.1658(3) 0.6820(3) 0.56604(17)
C43 C 0.1033(4) 0.6722(4) 0.5693(2)
H58 H 0.09440 0.66860 0.58890
H59 H 0.09320 0.63920 0.55950
H60 H 0.08360 0.70270 0.56140
C44 C 0.1972(4) 0.6350(4) 0.57814(17)
H61 H 0.18880 0.63140 0.59790
H62 H 0.23580 0.64150 0.57590
H63 H 0.18730 0.60180 0.56840
C45 C 0.1707(4) 0.7453(4) 0.6093(2)
C46 C 0.1203(5) 0.8611(4) 0.4865(2)
H64 H 0.08590 0.84390 0.48050
C47 C 0.1665(7) 0.8436(4) 0.4669(2)
C48 C 0.2233(6) 0.8734(4) 0.4739(3)
H65 H 0.22050 0.91170 0.46940
H66 H 0.25210 0.85710 0.46290
H67 H 0.23140 0.86920 0.49370
C49 C 0.1141(8) 0.9265(6) 0.4858(4)
C50 C 0.1547(7) 0.8485(7) 0.4359(4)
H68 H 0.15020 0.88650 0.43100
H69 H 0.12170 0.82880 0.43150
H70 H 0.18480 0.83340 0.42530
C51 C 0.2993(3) 0.3745(3) 0.43707(16)
H71 H 0.25990 0.37300 0.43300
C52 C 0.3075(3) 0.4129(3) 0.46115(16)
C53 C 0.3678(3) 0.4161(3) 0.46898(17)
H72 H 0.37980 0.38120 0.47610
H73 H 0.37290 0.44370 0.48320
H74 H 0.38890 0.42550 0.45250
C54 C 0.2754(4) 0.3986(4) 0.48699(17)
H75 H 0.28710 0.36350 0.49390
H76 H 0.23710 0.39710 0.48240
H77 H 0.28150 0.42590 0.50120
C55 C 0.3194(5) 0.3143(4) 0.44295(19)
C56 C 0.3505(4) 0.5128(3) 0.34913(18)
H78 H 0.38330 0.53320 0.35490
C57 C 0.3009(4) 0.5497(4) 0.35402(18)
C58 C 0.2506(5) 0.5241(4) 0.3424(2)
H79 H 0.25400 0.52090 0.32220
H80 H 0.21940 0.54650 0.34690
H81 H 0.24590 0.48830 0.35040
C59 C 0.3105(5) 0.6073(4) 0.3424(2)
H82 H 0.31430 0.60550 0.32220
H83 H 0.34340 0.62220 0.35040
H84 H 0.27990 0.63030 0.34710
C60 C 0.3582(5) 0.4957(5) 0.3189(2)
O30 O 0.1684(5) 0.4137(5) 0.6645(2)
C61 C 0.1348(7) 0.4377(7) 0.6873(4)
C62 C 0.1662(8) 0.4714(8) 0.7136(4)
H85 H 0.14930 0.46200 0.73130
H86 H 0.16310 0.51020 0.71050
H87 H 0.20430 0.46130 0.71410
La1C La -0.12153(2) 0.41852(2) 0.387236(11)
La1D La 0.41852(2) 0.87847(2) 0.612764(11)
O4B O 0.0722(2) 0.4786(2) 0.63042(12)
O6D O 0.0812(3) 0.3125(3) 0.67730(13)
#END
