
#######################################################################
#
#                 Cambridge Crystallographic Data Centre
#                                CCDC
#
#######################################################################
#
# If this CIF has been generated from an entry in the Cambridge
# Structural Database, then it will include bibliographic, chemical,
# crystal, experimental, refinement or atomic coordinate data resulting
# from the CCDC's data processing and validation procedures.
#
#######################################################################

data_CSD_CIF_WIDWIR
_audit_creation_date 2013-05-26
_audit_creation_method CSD-ConQuest-V1
_database_code_CSD WIDWIR
_database_code_depnum_ccdc_archive 'CCDC 930407'
_chemical_formula_sum 'C30 H66 Ag3 Co2 La1 N6 O17 S6'
_chemical_formula_moiety
;
(C30 H54 Ag3 Co2 La1 N6 O12 S6 2-)n,2n(H3 O1 1+),3n(H2 O1)
;
_journal_coden_Cambridge 1147
_journal_volume 13
_journal_year 2013
_journal_page_first 918
_journal_name_full 'Cryst.Growth Des. '
loop_
_publ_author_name
"Zhong-Yi Li"
"He-Qing Huang"
"Long Xu"
"Rui-Bin Liu"
"Jian-Jun Zhang"
"Shu-Qin Liu"
"Chun-Ying Duan"
_chemical_name_systematic
;
catena-(Dioxonium 
hexakis(\m~3~-3-sulfanyl-D-valyl)-di-cobalt-lanthanum-tri-silver trihydrate)
;
_cell_volume   3733.534
_exptl_crystal_colour 'black'
_exptl_crystal_density_diffrn 2.076
_exptl_special_details
;
Absolute configuration
Hydrogen atoms on the water and oxonium ion were not loacted
;
_exptl_crystal_description 'block'
_diffrn_ambient_temperature 293
#These two values have been output from a single CSD field.
_refine_ls_R_factor_gt 0.0477
_refine_ls_wR_factor_gt 0.0477
_symmetry_cell_setting hexagonal
_symmetry_space_group_name_H-M 'P 32 2 1'
_symmetry_Int_Tables_number 154
loop_
_symmetry_equiv_pos_site_id
_symmetry_equiv_pos_as_xyz
1 x,y,z
2 -y,x-y,2/3+z
3 -x+y,-x,1/3+z
4 y,x,-z
5 x-y,-y,1/3-z
6 -x,-x+y,2/3-z
_cell_length_a 10.1695(9)
_cell_length_b 10.1695(9)
_cell_length_c 41.686(7)
_cell_angle_alpha 90
_cell_angle_beta 90
_cell_angle_gamma 120
_cell_formula_units_Z 3
loop_
_atom_type_symbol
_atom_type_radius_bond
C 0.68
H 0.23
Ag 1.45
Co 1.26
La 2.07
N 0.68
O 0.68
S 1.02
loop_
_atom_site_label
_atom_site_type_symbol
_atom_site_fract_x
_atom_site_fract_y
_atom_site_fract_z
La1 La 2.00000 1.59436(9) -0.16670
Ag1 Ag 1.8424(1) 2.00000 -0.33330
Ag2 Ag 1.67084(10) 2.16137(8) -0.325862(14)
Co1 Co 1.62957(14) 1.91289(16) -0.25214(3)
S1 S 1.8586(3) 2.0346(3) -0.27694(5)
S2 S 1.5473(3) 2.0592(3) -0.27594(5)
S3 S 1.5309(3) 1.7349(3) -0.29115(5)
O1 O 1.8456(9) 1.6471(9) -0.20713(18)
O2 O 2.0725(9) 1.8480(9) -0.19945(19)
O3 O 1.8254(10) 2.3430(9) -0.18529(17)
O4 O 1.5985(13) 2.3129(13) -0.1760(2)
O5 O 1.1320(8) 1.5945(9) -0.21524(15)
O6 O 1.1527(11) 1.3862(10) -0.2196(2)
N1 N 1.7173(9) 1.8062(9) -0.22886(17)
H1 H 1.68190 1.78980 -0.20860
H2 H 1.68370 1.71490 -0.23810
N2 N 1.6968(9) 2.0667(9) -0.21705(17)
H3 H 1.68220 2.01820 -0.19820
H4 H 1.79730 2.13040 -0.21920
N3 N 1.4289(9) 1.7806(9) -0.23007(16)
H5 H 1.44530 1.78350 -0.20880
H6 H 1.36830 1.82010 -0.23360
C1 C 1.9521(12) 1.9309(12) -0.2619(2)
C2 C 1.8844(12) 1.8847(12) -0.2276(2)
H7 H 1.91940 1.97790 -0.21510
C3 C 1.9398(13) 1.7858(13) -0.2104(2)
C4 C 2.1197(12) 2.0373(13) -0.2610(3)
H8 H 2.16970 1.98360 -0.25390
H9 H 2.14210 2.11890 -0.24640
H10 H 2.15500 2.07760 -0.28200
C5 C 1.9159(12) 1.7894(12) -0.2815(2)
H11 H 1.97180 1.74410 -0.27310
H12 H 1.94400 1.81770 -0.30350
H13 H 1.80910 1.71780 -0.28030
C6 C 1.6301(11) 2.2268(11) -0.24926(18)
C7 C 1.6212(12) 2.1584(12) -0.2155(2)
H14 H 1.51390 2.09030 -0.21030
C8 C 1.6890(17) 2.2789(14) -0.1896(3)
C9 C 1.7919(12) 2.3454(11) -0.2586(2)
H15 H 1.82920 2.42970 -0.24400
H16 H 1.79250 2.38030 -0.28000
H17 H 1.85590 2.30110 -0.25760
C10 C 1.5299(13) 2.3004(14) -0.2510(2)
H18 H 1.57160 2.38830 -0.23730
H19 H 1.42900 2.22880 -0.24390
H20 H 1.52650 2.33020 -0.27270
C11 C 1.3304(11) 1.6090(11) -0.2769(2)
C12 C 1.3473(12) 1.6184(11) -0.2407(2)
H21 H 1.41240 1.57620 -0.23510
C13 C 1.2749(13) 1.4517(12) -0.2899(3)
H22 H 1.17240 1.38560 -0.28300
H23 H 1.33880 1.41400 -0.28220
H24 H 1.27830 1.45530 -0.31300
C14 C 1.2277(11) 1.6687(12) -0.2891(2)
H25 H 1.12570 1.60320 -0.28180
H26 H 1.22930 1.67090 -0.31210
H27 H 1.26390 1.76950 -0.28100
C15 C 1.1954(14) 1.5218(14) -0.2230(2)
O7 O 2.00000 1.1815(15) -0.16670
O8 O 1.7263(13) 1.8765(14) -0.1590(2)
O9 O 1.547(3) 2.0010(19) -0.1499(4)
Ag2D Ag 1.50947(10) 1.83863(8) -0.340805(14)
Co1D Co 1.71668(14) 2.08711(16) -0.414527(30)
S1D S 1.8240(3) 1.9654(3) -0.389727(50)
S2D S 1.4881(3) 1.9408(3) -0.390727(50)
S3D S 1.7960(3) 2.2651(3) -0.375517(50)
O1D O 2.1985(9) 2.3529(9) -0.459537(180)
O2D O 2.2245(9) 2.1520(9) -0.467217(190)
O3D O 1.4824(10) 1.6570(9) -0.481377(170)
O4D O 1.2856(13) 1.6871(13) -0.490667(200)
O5D O 1.5375(8) 2.4055(9) -0.451427(150)
O6D O 1.7665(11) 2.6138(10) -0.447067(200)
N1D N 1.9111(9) 2.1938(9) -0.437807(170)
H1D H 1.89210 2.21020 -0.45807
H2D H 1.96880 2.28510 -0.42857
N2D N 1.6301(9) 1.9333(9) -0.449617(170)
H3D H 1.66400 1.98180 -0.46847
H4D H 1.66690 1.86960 -0.44747
N3D N 1.6483(9) 2.2194(9) -0.436597(160)
H5D H 1.66180 2.21650 -0.45787
H6D H 1.54820 2.17990 -0.43307
C1D C 2.0212(12) 2.0691(12) -0.404767(200)
C2D C 1.9997(12) 2.1153(12) -0.439067(200)
H7D H 1.94150 2.02210 -0.45157
C3D C 2.1540(13) 2.2142(13) -0.456267(200)
C4D C 2.0824(12) 1.9627(13) -0.405667(300)
H8D H 2.18610 2.01640 -0.41277
H9D H 2.02320 1.88110 -0.42027
H10D H 2.07740 1.92240 -0.38467
C5D C 2.1265(12) 2.2106(12) -0.385167(200)
H11D H 2.22770 2.25590 -0.39357
H12D H 2.12630 2.18230 -0.36317
H13D H 2.09130 2.28220 -0.38637
C6D C 1.4033(11) 1.7732(11) -0.417407(180)
C7D C 1.4628(12) 1.8416(12) -0.451167(200)
H14D H 1.42360 1.90970 -0.45637
C8D C 1.4101(17) 1.7211(14) -0.477067(300)
C9D C 1.4465(12) 1.6546(11) -0.408067(200)
H15D H 1.39950 1.57030 -0.42267
H16D H 1.41220 1.61970 -0.38667
H17D H 1.55480 1.69890 -0.40907
C10D C 1.2295(13) 1.6996(14) -0.415667(200)
H18D H 1.18330 1.61170 -0.42937
H19D H 1.20020 1.77120 -0.42277
H20D H 1.19630 1.66980 -0.39397
C11D C 1.7214(11) 2.3910(11) -0.389767(200)
C12D C 1.7289(12) 2.3816(11) -0.425967(200)
H21D H 1.83620 2.42380 -0.43157
C13D C 1.8232(13) 2.5483(12) -0.376767(300)
H22D H 1.78680 2.61440 -0.38367
H23D H 1.92480 2.58600 -0.38447
H24D H 1.82300 2.54470 -0.35367
C14D C 1.5590(11) 2.3313(12) -0.377567(200)
H25D H 1.52250 2.39680 -0.38487
H26D H 1.55840 2.32910 -0.35457
H27D H 1.49440 2.23050 -0.38567
C15D C 1.6736(14) 2.4782(14) -0.443667(200)
La1* La 1.00000 1.59436(9) -0.16670
La1** La 2.00000 2.59436(9) -0.16670
La1A La 1.40564 1.40564(9) -0.50003
La1A* La 1.40564 2.40564(9) -0.50003
La1A** La 2.40564 2.40564(9) -0.50003
O1E O 2.1544(9) 1.8015(9) -0.126203(180)
O2E O 1.9275(9) 1.7755(9) -0.133883(190)
O3* O 1.8254(10) 1.3430(9) -0.18529(17)
O3E O 2.1746(10) 1.5176(9) -0.148043(170)
O5* O 2.1320(8) 1.5945(9) -0.21524(15)
O5E O 1.8680(8) 1.4625(9) -0.118093(150)
#END
