
#######################################################################
#
#                 Cambridge Crystallographic Data Centre
#                                CCDC
#
#######################################################################
#
# If this CIF has been generated from an entry in the Cambridge
# Structural Database, then it will include bibliographic, chemical,
# crystal, experimental, refinement or atomic coordinate data resulting
# from the CCDC's data processing and validation procedures.
#
#######################################################################

data_CSD_CIF_WIDWEN
_audit_creation_date 2013-05-26
_audit_creation_method CSD-ConQuest-V1
_database_code_CSD WIDWEN
_database_code_depnum_ccdc_archive 'CCDC 930408'
_chemical_formula_sum 'C30 H66 Ag3 Co2 Eu1 N6 O17 S6'
_chemical_formula_moiety
;
(C30 H54 Ag3 Co2 Eu1 N6 O12 S6 2-)n,2n(H3 O1 1+),3n(H2 O1)
;
_journal_coden_Cambridge 1147
_journal_volume 13
_journal_year 2013
_journal_page_first 918
_journal_name_full 'Cryst.Growth Des. '
loop_
_publ_author_name
"Zhong-Yi Li"
"He-Qing Huang"
"Long Xu"
"Rui-Bin Liu"
"Jian-Jun Zhang"
"Shu-Qin Liu"
"Chun-Ying Duan"
_chemical_name_systematic
;
catena-(Dioxonium 
hexakis(\m~3~-3-sulfanyl-D-valyl)-di-cobalt-europium-tri-silver trihydrate)
;
_cell_volume   3708.362
_exptl_crystal_colour 'brown black'
_exptl_crystal_density_diffrn 2.107
_exptl_special_details
;
Hydrogen atoms on the water and oxonium ion were not loacted

;
_exptl_crystal_description 'block'
_diffrn_ambient_temperature 296
#These two values have been output from a single CSD field.
_refine_ls_R_factor_gt 0.0588
_refine_ls_wR_factor_gt 0.0588
_symmetry_cell_setting hexagonal
_symmetry_space_group_name_H-M 'P 32 2 1'
_symmetry_Int_Tables_number 154
loop_
_symmetry_equiv_pos_site_id
_symmetry_equiv_pos_as_xyz
1 x,y,z
2 -y,x-y,2/3+z
3 -x+y,-x,1/3+z
4 y,x,-z
5 x-y,-y,1/3-z
6 -x,-x+y,2/3-z
_cell_length_a 10.1532(8)
_cell_length_b 10.1532(8)
_cell_length_c 41.538(6)
_cell_angle_alpha 90
_cell_angle_beta 90
_cell_angle_gamma 120
_cell_formula_units_Z 3
loop_
_atom_type_symbol
_atom_type_radius_bond
C 0.68
H 0.23
Ag 1.45
Co 1.26
Eu 1.98
N 0.68
O 0.68
S 1.02
loop_
_atom_site_label
_atom_site_type_symbol
_atom_site_fract_x
_atom_site_fract_y
_atom_site_fract_z
Eu1 Eu 1.00000 1.39936(8) 0.33330
Ag1 Ag 0.84658(12) 0.84658(12) 0.50000
Ag2 Ag 0.51098(11) 0.67405(12) 0.506902(18)
Co1 Co 0.63389(17) 0.71558(17) 0.41816(3)
S1 S 0.8634(4) 0.8276(4) 0.44329(6)
C1 C 0.9182(15) 1.1273(14) 0.4463(3)
H1 H 0.97140 1.22750 0.43710
H2 H 0.94820 1.13160 0.46830
H3 H 0.81070 1.08910 0.44520
N1 N 0.7219(12) 0.9127(12) 0.3944(2)
H4 H 0.68640 0.89330 0.37400
H5 H 0.68780 0.97030 0.40360
C2 C 0.9399(17) 1.1530(16) 0.3754(3)
C3 C 0.8905(14) 1.0023(14) 0.3932(3)
H6 H 0.92680 0.94430 0.38090
C4 C 1.1235(15) 1.0855(18) 0.4266(4)
H7 H 1.17340 1.18800 0.41870
H8 H 1.14430 1.02320 0.41250
H9 H 1.16060 1.08410 0.44780
S2 S 0.5517(4) 0.4868(3) 0.44280(6)
O1 O 0.8469(11) 1.1962(10) 0.3719(2)
O2 O 1.0752(11) 1.2265(12) 0.3647(2)
C5 C 0.9558(14) 1.0251(14) 0.4280(3)
S3 S 0.5323(3) 0.7964(3) 0.45680(6)
N2 N 0.7052(12) 0.6283(11) 0.3832(2)
H10 H 0.69070 0.66040 0.36410
H11 H 0.80590 0.66580 0.38560
C6 C 0.6281(14) 0.4579(14) 0.3826(3)
H12 H 0.52050 0.41890 0.37760
C7 C 0.5344(16) 0.2287(13) 0.4183(3)
H13 H 0.57510 0.18070 0.40490
H14 H 0.43380 0.20070 0.41120
H15 H 0.53020 0.19620 0.44020
C8 C 0.7989(15) 0.4468(15) 0.4257(3)
H16 H 0.83700 0.40000 0.41120
H17 H 0.80000 0.41370 0.44730
H18 H 0.86190 0.55530 0.42450
C9 C 0.6363(14) 0.4013(13) 0.4163(3)
C10 C 0.6932(16) 0.4023(15) 0.3567(3)
O3 O 0.8304(10) 0.4717(11) 0.3530(2)
O4 O 0.5989(13) 0.2795(13) 0.3425(3)
N3 N 0.4288(11) 0.6418(12) 0.3959(2)
H19 H 0.44370 0.65020 0.37450
H20 H 0.36780 0.54260 0.40050
C11 C 0.2255(15) 0.5510(15) 0.4556(3)
H21 H 0.12390 0.51310 0.44770
H22 H 0.22520 0.55310 0.47870
H23 H 0.26270 0.48570 0.44840
C12 C 0.3289(14) 0.7123(13) 0.4427(3)
C13 C 0.2707(17) 0.8194(16) 0.4554(3)
H24 H 0.16690 0.78010 0.44900
H25 H 0.33230 0.91950 0.44670
H26 H 0.27720 0.82430 0.47850
C14 C 0.3496(14) 0.7258(15) 0.4054(3)
H27 H 0.41490 0.83340 0.39990
C15 C 0.1929(17) 0.6646(17) 0.3877(3)
O5 O 0.1336(10) 0.530(1) 0.37970(18)
O6 O 0.1491(13) 0.7569(14) 0.3855(3)
O7 O 0.00000 0.8117(18) 0.33330
O8 O 0.2816(17) 0.1159(19) 0.3421(3)
O9 O 0.473(3) -0.005(4) 0.3493(7)
Ag2C Ag 0.67405(11) 0.51098(12) 0.493098(18)
Co1C Co 0.71558(17) 0.63389(17) 0.58184(3)
S1C S 0.8276(4) 0.8634(4) 0.55671(6)
C1C C 1.1273(15) 0.9182(14) 0.5537(3)
H1C H 1.22750 0.97140 0.56290
H2C H 1.13160 0.94820 0.53170
H3C H 1.08910 0.81070 0.55480
N1C N 0.9127(12) 0.7219(12) 0.6056(2)
H4C H 0.89330 0.68640 0.62600
H5C H 0.97030 0.68780 0.59640
C2C C 1.1530(17) 0.9399(16) 0.6246(3)
C3C C 1.0023(14) 0.8905(14) 0.6068(3)
H6C H 0.94430 0.92680 0.61910
C4C C 1.0855(15) 1.1235(18) 0.5734(4)
H7C H 1.18800 1.17340 0.58130
H8C H 1.02320 1.14430 0.58750
H9C H 1.08410 1.16060 0.55220
S2C S 0.4868(4) 0.5517(3) 0.55720(6)
O1C O 1.1962(11) 0.8469(10) 0.6281(2)
O2C O 1.2265(11) 1.0752(12) 0.6353(2)
C5C C 1.0251(14) 0.9558(14) 0.5720(3)
S3C S 0.7964(3) 0.5323(3) 0.54320(6)
N2C N 0.6283(12) 0.7052(11) 0.6168(2)
H10C H 0.66040 0.69070 0.63590
H11C H 0.66580 0.80590 0.61440
C6C C 0.4579(14) 0.6281(14) 0.6174(3)
H12C H 0.41890 0.52050 0.62240
C7C C 0.2287(16) 0.5344(13) 0.5817(3)
H13C H 0.18070 0.57510 0.59510
H14C H 0.20070 0.43380 0.58880
H15C H 0.19620 0.53020 0.55980
C8C C 0.4468(15) 0.7989(15) 0.5743(3)
H16C H 0.40000 0.83700 0.58880
H17C H 0.41370 0.80000 0.55270
H18C H 0.55530 0.86190 0.57550
C9C C 0.4013(14) 0.6363(13) 0.5837(3)
C10C C 0.4023(16) 0.6932(15) 0.6433(3)
O3C O 0.4717(10) 0.8304(11) 0.6470(2)
O4C O 0.2795(13) 0.5989(13) 0.6575(3)
N3C N 0.6418(11) 0.4288(12) 0.6041(2)
H19C H 0.65020 0.44370 0.62550
H20C H 0.54260 0.36780 0.59950
C11C C 0.5510(15) 0.2255(15) 0.5444(3)
H21C H 0.51310 0.12390 0.55230
H22C H 0.55310 0.22520 0.52130
H23C H 0.48570 0.26270 0.55160
C12C C 0.7123(14) 0.3289(13) 0.5573(3)
C13C C 0.8194(17) 0.2707(16) 0.5446(3)
H24C H 0.78010 0.16690 0.55100
H25C H 0.91950 0.33230 0.55330
H26C H 0.82430 0.27720 0.52150
C14C C 0.7258(14) 0.3496(15) 0.5946(3)
H27C H 0.83340 0.41490 0.60010
C15C C 0.6646(17) 0.1929(17) 0.6123(3)
O5C O 0.530(1) 0.1336(10) 0.62030(18)
O6C O 0.7569(13) 0.1491(14) 0.6145(3)
Eu1* Eu 0.00000 0.39936(8) 0.33330
Eu1** Eu 1.00000 0.39936(8) 0.33330
Eu1B Eu 0.39936 0.00000(8) 0.66663
Eu1B* Eu 0.39936 1.00000(8) 0.66663
Eu1B** Eu 1.39936 1.00000(8) 0.66663
O1E O 1.1531(11) 1.3493(10) 0.294767(200)
O2E O 0.9248(11) 1.1513(12) 0.301967(200)
O3* O 0.8304(10) 1.4717(11) 0.3530(2)
O3E O 1.1696(10) 1.6413(11) 0.313667(200)
O5* O 1.1336(10) 1.530(1) 0.37970(18)
O5E O 0.8664(10) 1.3964(10) 0.286967(180)
#END
