
#######################################################################
#
#                 Cambridge Crystallographic Data Centre
#                                CCDC
#
#######################################################################
#
# If this CIF has been generated from an entry in the Cambridge
# Structural Database, then it will include bibliographic, chemical,
# crystal, experimental, refinement or atomic coordinate data resulting
# from the CCDC's data processing and validation procedures.
#
#######################################################################

data_CSD_CIF_WIHDUN
_audit_creation_date 2007-09-20
_audit_creation_method CSD-ConQuest-V1
_database_code_CSD WIHDUN
_database_code_depnum_ccdc_archive 'CCDC 648017'
_chemical_formula_sum 'C13 H19 N2 Ni1 O10.5'
_chemical_formula_moiety
;
(C3 H12 N2 2+)n,n(C10 H6 Ni1 O10 2-),0.5n(H2 O1)
;
_journal_coeditor_code "IUCr CV2264"
_journal_coden_Cambridge 1370
_journal_volume 63
_journal_year 2007
_journal_page_first m2022
_journal_name_full 'Acta Crystallogr.,Sect.E:Struct.Rep.Online '
loop_
_publ_author_name
"H.Aghabozorg"
"Z.Bahrami"
"M.Tabatabaie"
"M.Ghadermazi"
"J.A.Gharamaleki"
_chemical_name_systematic
;
catena-(Propane-1,3-diammonium 
(\m~4~-benzene-1,2,4,5-tetracarboxylato)-diaqua-nickel(ii) hemihydrate)
;
_cell_volume   1664.634
_exptl_crystal_colour 'colorless'
_exptl_crystal_density_diffrn 1.716
_exptl_crystal_description 'prism'
_diffrn_ambient_temperature 100.0
_diffrn_special_details
;
twin

;
_refine_special_details
;
The solvent water molecule is disordered between two positions related by a 
mirror plane.
;
#These two values have been output from a single CSD field.
_refine_ls_R_factor_gt 0.0278
_refine_ls_wR_factor_gt 0.0278
_symmetry_cell_setting orthorhombic
_symmetry_space_group_name_H-M 'I m a 2'
_symmetry_Int_Tables_number 46
loop_
_symmetry_equiv_pos_site_id
_symmetry_equiv_pos_as_xyz
1 x,y,z
2 -x,-y,z
3 1/2+x,-y,z
4 1/2-x,y,z
5 1/2+x,1/2+y,1/2+z
6 1/2-x,1/2-y,1/2+z
7 x,1/2-y,1/2+z
8 -x,1/2+y,1/2+z
_cell_length_a 16.3724(6)
_cell_length_b 7.1673(4)
_cell_length_c 14.1857(8)
_cell_angle_alpha 90
_cell_angle_beta 90
_cell_angle_gamma 90
_cell_formula_units_Z 4
loop_
_atom_type_symbol
_atom_type_radius_bond
C 0.68
H 0.23
N 0.68
Ni 1.50
O 0.55
loop_
_atom_site_label
_atom_site_type_symbol
_atom_site_fract_x
_atom_site_fract_y
_atom_site_fract_z
N1 N 0.59831(9) 0.2336(2) 0.13471(12)
H1 H 0.55170 0.25170 0.10070
H2 H 0.60230 0.30680 0.18620
H3 H 0.59820 0.11680 0.16180
C1 C 0.67406(11) 0.2598(3) 0.07757(14)
H4 H 0.67540 0.38830 0.05210
H5 H 0.67370 0.17190 0.02370
C2 C 0.75000 0.2259(4) 0.1374(2)
H6 H 0.75000 0.09600 0.16110
H7 H 0.75000 0.31130 0.19220
Ni1 Ni 0.50000 0.50000 0.35324(4)
O1 O 0.40867(9) 0.4393(2) 0.44765(10)
O2 O 0.46016(8) 0.19013(19) 0.5225(1)
O3 O 0.41573(8) 0.0581(2) 0.74825(10)
O4 O 0.43957(8) 0.36127(18) 0.71826(10)
O5 O 0.54310(7) 0.22702(15) 0.35648(11)
H8 H 0.51960 0.17390 0.30580
H9 H 0.52040 0.19360 0.41180
C3 C 0.25000 0.3097(4) 0.50968(18)
H10 H 0.25000 0.34990 0.44590
C4 C 0.32398(11) 0.2805(3) 0.55610(13)
C5 C 0.32397(11) 0.2229(2) 0.65041(13)
C6 C 0.25000 0.1941(4) 0.69672(17)
H11 H 0.25000 0.15440 0.76060
C7 C 0.40460(11) 0.3053(3) 0.50457(12)
C8 C 0.40005(11) 0.2128(2) 0.70882(13)
O6 O 0.7040(7) 0.0338(19) 0.3588(14)
H12? H 0.75000 -0.03260 0.33120
H13 H 0.65750 -0.02520 0.32980
N1C N 0.90169(9) 0.2336(2) 0.13471(12)
H1C H 0.94830 0.25170 0.10070
H2C H 0.89770 0.30680 0.18620
H3C H 0.90180 0.11680 0.16180
C1C C 0.82594(11) 0.2598(3) 0.07757(14)
H4C H 0.82460 0.38830 0.05210
H5C H 0.82630 0.17190 0.02370
Ni1F Ni 0.50000 0.00000 0.85324(4)
Ni1D Ni 0.00000 0.00000 0.85324(4)
Ni1B Ni 0.00000 0.50000 0.35324(4)
O1C O 0.09133(9) 0.4393(2) 0.44765(10)
O1A O 0.59133(9) 0.5607(2) 0.44765(10)
O2C O 0.03984(8) 0.19013(19) 0.5225(1)
O3C O 0.08427(8) 0.0581(2) 0.74825(10)
O3F O 0.41573(8) 0.4419(2) 0.24825(10)
O3G O 0.58427(8) 0.5581(2) 0.24825(10)
O4C O 0.06043(8) 0.36127(18) 0.71826(10)
O5A O 0.45690(7) 0.77298(15) 0.35648(11)
H8A H 0.48040 0.82610 0.30580
H9A H 0.47960 0.80640 0.41180
C4C C 0.17602(11) 0.2805(3) 0.55610(13)
C5C C 0.17603(11) 0.2229(2) 0.65041(13)
C7C C 0.09540(11) 0.3053(3) 0.50457(12)
C8C C 0.09995(11) 0.2128(2) 0.70882(13)
#END
