
#######################################################################
#
#                 Cambridge Crystallographic Data Centre
#                                CCDC
#
#######################################################################
#
# If this CIF has been generated from an entry in the Cambridge
# Structural Database, then it will include bibliographic, chemical,
# crystal, experimental, refinement or atomic coordinate data resulting
# from the CCDC's data processing and validation procedures.
#
#######################################################################

data_CSD_CIF_WIHHAZ
_audit_creation_date 2018-05-23
_audit_creation_method CSD-ConQuest-V1
_database_code_CSD WIHHAZ
_database_code_depnum_ccdc_archive 'CCDC 1820611'
_chemical_formula_sum 'C130 H167 Cl3 N34 O68 Tb6'
_chemical_formula_moiety
;
9(C2 H8 N1 1+),2n(C54 H36 N12 O30 Tb3 3-),3(Cl1 1-),C4 H9 N1 O1,7(H2 O1)
;
_journal_coden_Cambridge 182
_journal_volume 54
_journal_year 2018
_journal_page_first 5972
_journal_name_full 'Chem.Commun. '
loop_
_publ_author_name
"Wei Du"
"Zhifeng Zhu"
"Yue-Ling Bai"
"Zhen Yang"
"Shourong Zhu"
"Jiaqiang Xu"
"Zhaoxiong Xie"
"Jianhui Fang"
_chemical_name_systematic
;
catena-[nonakis(dimethylammonium) 
bis(bis(\m-5,5',5''-(1,3,5-triazine-2,4,6-triyltriimino)tri-1,3-benzenedicarbo
xylato)-hexa-aqua-tri-terbium(iii)) trichloride N,N-dimethylacetamide solvate 
heptahydrate]
;
_cell_volume 165284.760
_exptl_crystal_colour 'colorless'
_exptl_crystal_description 'block'
_diffrn_ambient_temperature 173.0
_refine_special_details
;
Disordered cation and solvent molecules were not modelled and the disordered 
density was taken into account using the SQUEEZE/PLATON procedure.
;
#These two values have been output from a single CSD field.
_refine_ls_R_factor_gt 0.0668
_refine_ls_wR_factor_gt 0.0668
_symmetry_cell_setting cubic
_symmetry_space_group_name_H-M 'F m -3 c'
_symmetry_Int_Tables_number 226
loop_
_symmetry_equiv_pos_site_id
_symmetry_equiv_pos_as_xyz
1 x,y,z
2 -x,-y,z
3 -x,y,-z
4 x,-y,-z
5 z,x,y
6 z,-x,-y
7 -z,-x,y
8 -z,x,-y
9 y,z,x
10 -y,z,-x
11 y,-z,-x
12 -y,-z,x
13 1/2+y,1/2+x,1/2-z
14 1/2-y,1/2-x,1/2-z
15 1/2+y,1/2-x,1/2+z
16 1/2-y,1/2+x,1/2+z
17 1/2+x,1/2+z,1/2-y
18 1/2-x,1/2+z,1/2+y
19 1/2-x,1/2-z,1/2-y
20 1/2+x,1/2-z,1/2+y
21 1/2+z,1/2+y,1/2-x
22 1/2+z,1/2-y,1/2+x
23 1/2-z,1/2+y,1/2+x
24 1/2-z,1/2-y,1/2-x
25 x,1/2+y,1/2+z
26 -x,1/2-y,1/2+z
27 -x,1/2+y,1/2-z
28 x,1/2-y,1/2-z
29 z,1/2+x,1/2+y
30 z,1/2-x,1/2-y
31 -z,1/2-x,1/2+y
32 -z,1/2+x,1/2-y
33 y,1/2+z,1/2+x
34 -y,1/2+z,1/2-x
35 y,1/2-z,1/2-x
36 -y,1/2-z,1/2+x
37 1/2+y,x,-z
38 1/2-y,-x,-z
39 1/2+y,-x,z
40 1/2-y,x,z
41 1/2+x,z,-y
42 1/2-x,z,y
43 1/2-x,-z,-y
44 1/2+x,-z,y
45 1/2+z,y,-x
46 1/2+z,-y,x
47 1/2-z,y,x
48 1/2-z,-y,-x
49 1/2+x,y,1/2+z
50 1/2-x,-y,1/2+z
51 1/2-x,y,1/2-z
52 1/2+x,-y,1/2-z
53 1/2+z,x,1/2+y
54 1/2+z,-x,1/2-y
55 1/2-z,-x,1/2+y
56 1/2-z,x,1/2-y
57 1/2+y,z,1/2+x
58 1/2-y,z,1/2-x
59 1/2+y,-z,1/2-x
60 1/2-y,-z,1/2+x
61 y,1/2+x,-z
62 -y,1/2-x,-z
63 y,1/2-x,z
64 -y,1/2+x,z
65 x,1/2+z,-y
66 -x,1/2+z,y
67 -x,1/2-z,-y
68 x,1/2-z,y
69 z,1/2+y,-x
70 z,1/2-y,x
71 -z,1/2+y,x
72 -z,1/2-y,-x
73 1/2+x,1/2+y,z
74 1/2-x,1/2-y,z
75 1/2-x,1/2+y,-z
76 1/2+x,1/2-y,-z
77 1/2+z,1/2+x,y
78 1/2+z,1/2-x,-y
79 1/2-z,1/2-x,y
80 1/2-z,1/2+x,-y
81 1/2+y,1/2+z,x
82 1/2-y,1/2+z,-x
83 1/2+y,1/2-z,-x
84 1/2-y,1/2-z,x
85 y,x,1/2-z
86 -y,-x,1/2-z
87 y,-x,1/2+z
88 -y,x,1/2+z
89 x,z,1/2-y
90 -x,z,1/2+y
91 -x,-z,1/2-y
92 x,-z,1/2+y
93 z,y,1/2-x
94 z,-y,1/2+x
95 -z,y,1/2+x
96 -z,-y,1/2-x
97 -x,-y,-z
98 x,y,-z
99 x,-y,z
100 -x,y,z
101 -z,-x,-y
102 -z,x,y
103 z,x,-y
104 z,-x,y
105 -y,-z,-x
106 y,-z,x
107 -y,z,x
108 y,z,-x
109 -1/2-y,-1/2-x,-1/2+z
110 -1/2+y,-1/2+x,-1/2+z
111 -1/2-y,-1/2+x,-1/2-z
112 -1/2+y,-1/2-x,-1/2-z
113 -1/2-x,-1/2-z,-1/2+y
114 -1/2+x,-1/2-z,-1/2-y
115 -1/2+x,-1/2+z,-1/2+y
116 -1/2-x,-1/2+z,-1/2-y
117 -1/2-z,-1/2-y,-1/2+x
118 -1/2-z,-1/2+y,-1/2-x
119 -1/2+z,-1/2-y,-1/2-x
120 -1/2+z,-1/2+y,-1/2+x
121 -x,-1/2-y,-1/2-z
122 x,-1/2+y,-1/2-z
123 x,-1/2-y,-1/2+z
124 -x,-1/2+y,-1/2+z
125 -z,-1/2-x,-1/2-y
126 -z,-1/2+x,-1/2+y
127 z,-1/2+x,-1/2-y
128 z,-1/2-x,-1/2+y
129 -y,-1/2-z,-1/2-x
130 y,-1/2-z,-1/2+x
131 -y,-1/2+z,-1/2+x
132 y,-1/2+z,-1/2-x
133 -1/2-y,-x,z
134 -1/2+y,x,z
135 -1/2-y,x,-z
136 -1/2+y,-x,-z
137 -1/2-x,-z,y
138 -1/2+x,-z,-y
139 -1/2+x,z,y
140 -1/2-x,z,-y
141 -1/2-z,-y,x
142 -1/2-z,y,-x
143 -1/2+z,-y,-x
144 -1/2+z,y,x
145 -1/2-x,-y,-1/2-z
146 -1/2+x,y,-1/2-z
147 -1/2+x,-y,-1/2+z
148 -1/2-x,y,-1/2+z
149 -1/2-z,-x,-1/2-y
150 -1/2-z,x,-1/2+y
151 -1/2+z,x,-1/2-y
152 -1/2+z,-x,-1/2+y
153 -1/2-y,-z,-1/2-x
154 -1/2+y,-z,-1/2+x
155 -1/2-y,z,-1/2+x
156 -1/2+y,z,-1/2-x
157 -y,-1/2-x,z
158 y,-1/2+x,z
159 -y,-1/2+x,-z
160 y,-1/2-x,-z
161 -x,-1/2-z,y
162 x,-1/2-z,-y
163 x,-1/2+z,y
164 -x,-1/2+z,-y
165 -z,-1/2-y,x
166 -z,-1/2+y,-x
167 z,-1/2-y,-x
168 z,-1/2+y,x
169 -1/2-x,-1/2-y,-z
170 -1/2+x,-1/2+y,-z
171 -1/2+x,-1/2-y,z
172 -1/2-x,-1/2+y,z
173 -1/2-z,-1/2-x,-y
174 -1/2-z,-1/2+x,y
175 -1/2+z,-1/2+x,-y
176 -1/2+z,-1/2-x,y
177 -1/2-y,-1/2-z,-x
178 -1/2+y,-1/2-z,x
179 -1/2-y,-1/2+z,x
180 -1/2+y,-1/2+z,-x
181 -y,-x,-1/2+z
182 y,x,-1/2+z
183 -y,x,-1/2-z
184 y,-x,-1/2-z
185 -x,-z,-1/2+y
186 x,-z,-1/2-y
187 x,z,-1/2+y
188 -x,z,-1/2-y
189 -z,-y,-1/2+x
190 -z,y,-1/2-x
191 z,-y,-1/2-x
192 z,y,-1/2+x
_cell_length_a 54.8796(9)
_cell_length_b 54.8796(9)
_cell_length_c 54.8796(9)
_cell_angle_alpha 90
_cell_angle_beta 90
_cell_angle_gamma 90
_cell_formula_units_Z 16
loop_
_atom_type_symbol
_atom_type_radius_bond
C 0.68
H 0.23
Cl 0.99
N 0.68
O 0.68
Tb 1.94
loop_
_atom_site_label
_atom_site_type_symbol
_atom_site_fract_x
_atom_site_fract_y
_atom_site_fract_z
Tb1 Tb 0.39942(2) 0.50000 0.25405(2)
O1 O 0.39047(9) 0.53032(7) 0.27963(7)
O2 O 0.47007(7) 0.57330(7) 0.26499(6)
O3 O 0.35523(13) 0.50000 0.25157(11)
O4 O 0.47183(8) 0.61147(9) 0.27782(8)
O5 O 0.36707(10) 0.54171(9) 0.31013(10)
O6 O 0.43520(13) 0.50000 0.27798(10)
C1 C 0.46153(11) 0.59110(11) 0.27752(9)
C2 C 0.42347(11) 0.56753(11) 0.28775(9)
H1 H 0.42774 0.55547 0.27609
C3 C 0.38543(13) 0.54440(11) 0.29671(11)
C4 C 0.40191(13) 0.56555(13) 0.30095(12)
C5 C 0.43857(13) 0.58722(12) 0.29180(11)
C6 C 0.43266(16) 0.60455(15) 0.30903(14)
H2 H 0.44323 0.61801 0.31165
N1 N 0.39402(17) 0.64127(17) 0.37295(18)
N2 N 0.40801(17) 0.61992(17) 0.34042(17)
H3 H 0.41865 0.63191 0.34018
C7 C 0.39618(18) 0.58186(17) 0.31881(17)
H4 H 0.38213 0.57943 0.32864
C8 C 0.3910(2) 0.6215(2) 0.3581(2)
C9 C 0.4113(2) 0.60248(19) 0.32263(19)
Cl1 Cl 0.50000 0.50000 0.31148(3)
O1E O 0.27963(9) 0.60953(7) 0.46968(7)
O2E O 0.26499(7) 0.52993(7) 0.42670(6)
O4E O 0.27782(8) 0.52817(9) 0.38853(8)
O5E O 0.31013(10) 0.63293(9) 0.45829(10)
C1E C 0.27752(11) 0.53847(11) 0.40890(9)
C2E C 0.28775(11) 0.57653(11) 0.43247(9)
H1E H 0.27609 0.57226 0.44453
C3E C 0.29671(13) 0.61457(11) 0.45560(11)
C4E C 0.30095(13) 0.59809(13) 0.43445(12)
C5E C 0.29180(13) 0.56143(12) 0.41278(11)
C6E C 0.30903(16) 0.56734(15) 0.39545(14)
H2E H 0.31165 0.55677 0.38199
N1E N 0.37295(17) 0.60598(17) 0.35873(18)
N2E N 0.34042(17) 0.59199(17) 0.38008(17)
H3E H 0.34018 0.58135 0.36809
C7E C 0.31881(18) 0.60382(17) 0.41814(17)
H4E H 0.32864 0.61787 0.42057
C8E C 0.3581(2) 0.6090(2) 0.3785(2)
C9E C 0.32263(20) 0.58870(19) 0.39752(19)
O1K O 0.46968(9) 0.72037(7) 0.39047(7)
O2K O 0.42670(7) 0.73501(7) 0.47007(6)
O4K O 0.38853(8) 0.72218(9) 0.47183(8)
O5K O 0.45829(10) 0.68987(9) 0.36707(10)
C1K C 0.40890(11) 0.72248(11) 0.46153(9)
C2K C 0.43247(11) 0.71225(11) 0.42347(9)
H1K H 0.44453 0.72391 0.42774
C3K C 0.45560(13) 0.70329(11) 0.38543(11)
C4K C 0.43445(13) 0.69905(13) 0.40191(12)
C5K C 0.41278(13) 0.70820(12) 0.43857(11)
C6K C 0.39545(16) 0.69097(15) 0.43266(14)
H2K H 0.38199 0.68835 0.44323
N1K N 0.35873(17) 0.62705(17) 0.39402(18)
N2K N 0.38008(17) 0.65958(17) 0.40801(17)
H3K H 0.36809 0.65982 0.41865
C7K C 0.41814(18) 0.68119(17) 0.39618(17)
H4K H 0.42057 0.67136 0.38213
C8K C 0.3785(2) 0.6419(2) 0.3910(2)
C9K C 0.39752(20) 0.67737(19) 0.41130(19)
Tb1E Tb 0.25405(2) 0.60058 0.50000(2)
O3E O 0.25157(13) 0.64477 0.50000(11)
O6E O 0.27798(13) 0.56480 0.5000(1)
Tb1K Tb 0.50000(2) 0.74595 0.39942(2)
O3K O 0.50000(13) 0.74843 0.35523(11)
O6K O 0.50000(13) 0.72202 0.4352(1)
O1LA O 0.03032(9) 0.60953(7) 0.27963(7)
O2LA O 0.07330(7) 0.52993(7) 0.26499(6)
O4LA O 0.11147(8) 0.52817(9) 0.27782(8)
O5LA O 0.04171(10) 0.63293(9) 0.31013(10)
C1LA C 0.09110(11) 0.53847(11) 0.27752(9)
C2LA C 0.06753(11) 0.57653(11) 0.28775(9)
H1LA H 0.05547 0.57226 0.27609
C3LA C 0.04440(13) 0.61457(11) 0.29671(11)
C4LA C 0.06555(13) 0.59809(13) 0.30095(12)
C5LA C 0.08722(13) 0.56143(12) 0.29180(11)
C6LA C 0.10455(16) 0.56734(15) 0.30903(14)
H2LA H 0.11801 0.55677 0.31165
N1LA N 0.14127(17) 0.60598(17) 0.37295(18)
N2LA N 0.11992(17) 0.59199(17) 0.34042(17)
H3LA H 0.13191 0.58135 0.34018
C7LA C 0.08186(18) 0.60382(17) 0.31881(17)
H4LA H 0.07943 0.61787 0.32864
C8LA C 0.1215(2) 0.6090(2) 0.3581(2)
C9LA C 0.10248(20) 0.58870(19) 0.32263(19)
O1PA O 0.10953(9) 0.72037(7) 0.46968(7)
O2PA O 0.02993(7) 0.73501(7) 0.42670(6)
O4PA O 0.02817(8) 0.72218(9) 0.38853(8)
O5PA O 0.13293(10) 0.68987(9) 0.45829(10)
C1PA C 0.03847(11) 0.72248(11) 0.40890(9)
C2PA C 0.07653(11) 0.71225(11) 0.43247(9)
H1PA H 0.07226 0.72391 0.44453
C3PA C 0.11457(13) 0.70329(11) 0.45560(11)
C4PA C 0.09809(13) 0.69905(13) 0.43445(12)
C5PA C 0.06143(13) 0.70820(12) 0.41278(11)
C6PA C 0.06734(16) 0.69097(15) 0.39545(14)
H2PA H 0.05677 0.68835 0.38199
N1PA N 0.10598(17) 0.62705(17) 0.35873(18)
N2PA N 0.09199(17) 0.65958(17) 0.38008(17)
H3PA H 0.08135 0.65982 0.36809
C7PA C 0.10382(18) 0.68119(17) 0.41814(17)
H4PA H 0.11787 0.67136 0.42057
C8PA C 0.1090(2) 0.6419(2) 0.3785(2)
C9PA C 0.0887(2) 0.67737(19) 0.39752(19)
O1TA O 0.22037(9) 0.53032(7) 0.39047(7)
O2TA O 0.23501(7) 0.57330(7) 0.47007(6)
O4TA O 0.22218(8) 0.61147(9) 0.47183(8)
O5TA O 0.18987(10) 0.54171(9) 0.36707(10)
C1TA C 0.22248(11) 0.59110(11) 0.46153(9)
C2TA C 0.21225(11) 0.56753(11) 0.42347(9)
H1TA H 0.22391 0.55547 0.42774
C3TA C 0.20329(13) 0.54440(11) 0.38543(11)
C4TA C 0.19905(13) 0.56555(13) 0.40191(12)
C5TA C 0.20820(13) 0.58722(12) 0.43857(11)
C6TA C 0.19097(16) 0.60455(15) 0.43266(14)
H2TA H 0.18835 0.61801 0.44323
N1TA N 0.12705(17) 0.64127(17) 0.39402(18)
N2TA N 0.15958(17) 0.61992(17) 0.40801(17)
H3TA H 0.15982 0.63191 0.41865
C7TA C 0.18119(18) 0.58186(17) 0.39618(17)
H4TA H 0.17136 0.57943 0.38213
C8TA C 0.1419(2) 0.6215(2) 0.3910(2)
C9TA C 0.17737(20) 0.60248(19) 0.41130(19)
Tb1LA Tb 0.00000(2) 0.60058 0.25405(2)
Tb1PA Tb 0.10058(2) 0.74595 0.50000(2)
Tb1TA Tb 0.24595(2) 0.50000 0.39942(2)
Tb1XA Tb 0.10058(2) 0.50000 0.24595(2)
Tb1LB Tb 0.39942(2) 0.75405 0.50000(2)
Tb1BC Tb 0.00000(2) 0.75405 0.39942(2)
Tb1GC Tb 0.50000(2) 0.60058 0.24595(2)
O1TC O 0.39047(9) 0.46968(7) 0.27963(7)
O1YC O 0.27963(9) 0.60953(7) 0.53032(7)
O1AD O 0.53032(9) 0.72037(7) 0.39047(7)
O2LB O 0.47007(7) 0.76499(7) 0.42670(6)
O2GC O 0.42670(7) 0.52993(7) 0.23501(6)
O2KE O 0.23501(7) 0.57330(7) 0.52993(6)
O2GF O 0.52993(7) 0.76499(7) 0.42670(6)
O2ZF O 0.42670(7) 0.47007(7) 0.23501(6)
O4LB O 0.47183(8) 0.77782(9) 0.38853(8)
O4GC O 0.38853(8) 0.52817(9) 0.22218(8)
O4KE O 0.22218(8) 0.61147(9) 0.52817(8)
O4GF O 0.52817(8) 0.77782(9) 0.38853(8)
O4ZF O 0.38853(8) 0.47183(9) 0.22218(8)
#END
