
#######################################################################
#
#                 Cambridge Crystallographic Data Centre
#                                CCDC
#
#######################################################################
#
# If this CIF has been generated from an entry in the Cambridge
# Structural Database, then it will include bibliographic, chemical,
# crystal, experimental, refinement or atomic coordinate data resulting
# from the CCDC's data processing and validation procedures.
#
#######################################################################

data_CSD_CIF_WIHTAK
_audit_creation_date 2013-10-17
_audit_creation_method CSD-ConQuest-V1
_database_code_CSD WIHTAK
_database_code_depnum_ccdc_archive 'CCDC 916942'
_chemical_formula_sum 'C5 H9 Gd1 N2 O8'
_chemical_formula_moiety
;
(C4 H4 Gd1 O8 1-)n,n(C1 H5 N2 1+)
;
_journal_coden_Cambridge 208
_journal_volume 201
_journal_year 2013
_journal_page_first 172
_journal_name_full 'J.Solid State Chem. '
loop_
_publ_author_name
"Xue Ma"
"Jing Tian"
"H.-Y.Yang"
"Kai Zhao"
"Xia Li"
_chemical_name_systematic
;
catena-(aminomethaniminium tetrakis(\m~2~-formato)-gadolinium)
;
_cell_volume   1055.742
_exptl_crystal_colour 'colorless'
_exptl_crystal_density_diffrn 2.406
_exptl_crystal_description 'Block'
_diffrn_ambient_temperature 296
#These two values have been output from a single CSD field.
_refine_ls_R_factor_gt 0.0196
_refine_ls_wR_factor_gt 0.0196
_symmetry_cell_setting orthorhombic
_symmetry_space_group_name_H-M 'C 2 2 21'
_symmetry_Int_Tables_number 20
loop_
_symmetry_equiv_pos_site_id
_symmetry_equiv_pos_as_xyz
1 x,y,z
2 -x,-y,1/2+z
3 -x,y,1/2-z
4 x,-y,-z
5 1/2+x,1/2+y,z
6 1/2-x,1/2-y,1/2+z
7 1/2-x,1/2+y,1/2-z
8 1/2+x,1/2-y,-z
_cell_length_a 6.6916(19)
_cell_length_b 18.581(6)
_cell_length_c 8.491(3)
_cell_angle_alpha 90
_cell_angle_beta 90
_cell_angle_gamma 90
_cell_formula_units_Z 4
loop_
_atom_type_symbol
_atom_type_radius_bond
C 0.68
H 0.23
Gd 1.96
N 0.68
O 0.68
loop_
_atom_site_label
_atom_site_type_symbol
_atom_site_fract_x
_atom_site_fract_y
_atom_site_fract_z
Gd1 Gd 0.50000 0.357304(11) 0.25000
O1 O 0.4850(8) 0.45009(15) 0.0677(3)
O2 O 0.3225(5) 0.31801(16) 0.0156(4)
O3 O 0.1630(4) 0.40620(15) 0.2735(5)
O4 O 0.1816(5) 0.24351(16) -0.1541(4)
C1 C 0.2675(8) 0.2576(3) -0.0275(5)
H1 H 0.29230 0.21930 0.04040
C2 C 0.00000 0.3757(3) 0.25000
H2 H 0.00000 0.32560 0.25000
C3 C 0.5735(9) 0.50000 0.00000
H3 H 0.711(3) 0.50000 0.00000
C4 C 0.00000 0.5943(3) 0.25000
H4 H 0.00000 0.64430 0.25000
N1 N -0.1372(6) 0.5619(2) 0.3319(5)
H5 H -0.14150 0.51560 0.33450
H6 H -0.22370 0.58670 0.38360
O1C O 0.4850(8) 0.54991(15) -0.0677(3)
O3B O -0.1630(4) 0.40620(15) 0.2265(5)
O2B O 0.6775(5) 0.31801(16) 0.4844(4)
O4B O 0.8184(5) 0.24351(16) 0.6541(4)
C1B C 0.7325(8) 0.2576(3) 0.5275(5)
H1B H 0.70770 0.21930 0.45960
Gd1* Gd -0.50000 0.357304(11) 0.25000
Gd1A Gd 0.50000 0.642696(11) -0.25000
Gd1E Gd 0.00000 0.142696(11) -0.25000
Gd1E* Gd 1.00000 0.142696(11) 0.75000
O1B O 0.5150(8) 0.45009(15) 0.4323(3)
O3B* O 0.8370(4) 0.40620(15) 0.2265(5)
O4E O 0.3184(5) 0.25649(16) 0.3459(4)
O4G O 0.6816(5) 0.25649(16) 0.1541(4)
N1B N 0.1372(6) 0.5619(2) 0.1681(5)
H5B H 0.14150 0.51560 0.16550
H6B H 0.22370 0.58670 0.11640
#END
