
#######################################################################
#
#                 Cambridge Crystallographic Data Centre
#                                CCDC
#
#######################################################################
#
# If this CIF has been generated from an entry in the Cambridge
# Structural Database, then it will include bibliographic, chemical,
# crystal, experimental, refinement or atomic coordinate data resulting
# from the CCDC's data processing and validation procedures.
#
#######################################################################

data_CSD_CIF_WIJTOY
_audit_creation_date 2000-11-01
_audit_creation_method CSD-ConQuest-V1
_database_code_CSD WIJTOY
_database_code_depnum_ccdc_archive 'CCDC 148880'
_chemical_formula_sum 'C12 H36 Ga4 N4 O30 P6'
_chemical_formula_moiety
;
(C5 H14 N2 2+)2n,n(C2 H4 Ga4 O28 P6 4-),2n(H2 O1)
;
_journal_coden_Cambridge 9
_journal_volume 39
_journal_year 2000
_journal_page_first 3374
_journal_name_full 'Inorg.Chem. '
loop_
_publ_author_name
"Kwang-Hwa Lii"
"Ching-Yeh Chen"
_chemical_name_systematic
;
catena-(bis((R)-2-Methylpiperidinium) 
bis(\m~4~-phosphato)-bis(\m~3~-phosphato)-(\m~2~-oxalato)-bis(dihydrogen 
phosphato)-tetra-gallium(iii) dihydrate)
;
_cell_volume   1847.842
_exptl_crystal_colour 'colorless'
_exptl_crystal_density_diffrn 2.123
_exptl_crystal_description 'plate'
_diffrn_ambient_temperature ?
_diffrn_special_details
;
The study was carried out at room temperature,in the range 283-303K

;
#These two values have been output from a single CSD field.
_refine_ls_R_factor_gt 0.0348
_refine_ls_wR_factor_gt 0.0348
_symmetry_cell_setting monoclinic
_symmetry_space_group_name_H-M 'P 21'
_symmetry_Int_Tables_number 4
loop_
_symmetry_equiv_pos_site_id
_symmetry_equiv_pos_as_xyz
1 x,y,z
2 -x,1/2+y,-z
_cell_length_a 8.0248(4)
_cell_length_b 25.9554(14)
_cell_length_c 9.0127(5)
_cell_angle_alpha 90
_cell_angle_beta 100.151(1)
_cell_angle_gamma 90
_cell_formula_units_Z 2
loop_
_atom_type_symbol
_atom_type_radius_bond
C 0.68
Ga 1.22
N 0.68
O 0.68
P 1.05
loop_
_atom_site_label
_atom_site_type_symbol
_atom_site_fract_x
_atom_site_fract_y
_atom_site_fract_z
P1 P 0.2164(2) 0.33268(7) -0.0196(2)
P2 P 0.2952(2) 0.34319(7) -0.4914(2)
P3 P -0.1721(2) 0.26044(8) -0.6741(2)
P4 P 0.1635(2) 0.17398(9) -0.3925(2)
P5 P 0.3536(2) 0.50208(8) -0.1120(2)
P6 P 0.6853(2) 0.41554(8) 0.1640(2)
O1 O 0.1553(5) 0.2894(2) -0.1300(4)
O2 O 0.3123(5) 0.3751(2) -0.0849(5)
O3 O 0.3248(5) 0.3065(2) 0.1172(4)
O4 O 0.0677(5) 0.3599(2) 0.0363(4)
O5 O 0.3544(5) 0.3857(2) -0.3806(5)
O6 O 0.2009(5) 0.3004(2) -0.4272(5)
O7 O 0.1845(6) 0.3701(2) -0.6286(5)
O8 O 0.4434(5) 0.3164(2) -0.5475(4)
O9 O -0.1464(6) 0.2839(2) -0.5182(5)
O10 O -0.0387(6) 0.2816(2) -0.7633(5)
O11 O -0.3462(5) 0.2783(2) -0.7603(5)
O12 O -0.1675(6) 0.2019(2) -0.6781(6)
O13 O 0.0548(6) 0.2127(2) -0.3263(5)
O14 O 0.2361(7) 0.1329(2) -0.2840(6)
O15 O 0.0638(8) 0.1479(3) -0.5355(6)
O16 O 0.3150(8) 0.2040(3) -0.4414(8)
O17 O 0.4522(6) 0.4638(2) -0.1873(5)
O18 O 0.2675(7) 0.5427(2) -0.2176(6)
O19 O 0.4712(7) 0.5299(2) 0.0193(5)
O20 O 0.2139(8) 0.4724(3) -0.0408(8)
O21 O 0.6601(5) 0.3949(2) 0.0064(5)
O22 O 0.5478(6) 0.3938(2) 0.2483(5)
O23 O 0.8589(6) 0.3972(3) 0.2505(5)
O24 O 0.6845(6) 0.4731(2) 0.1747(6)
O25 O -0.1964(5) 0.2731(2) -0.2296(5)
O26 O -0.0627(5) 0.3595(2) -0.3179(5)
O27 O -0.4259(5) 0.3170(2) -0.1922(5)
O28 O -0.2935(6) 0.4033(2) -0.2822(5)
N1 N 0.1041(9) 0.0385(3) -0.3544(7)
N2 N -0.1583(8) -0.0202(3) -0.5352(7)
C1 C 0.0242(11) -0.0280(4) -0.5506(9)
C2 C -0.1812(11) -0.0037(3) -0.3802(8)
C3 C -0.3626(11) 0.0065(4) -0.3787(10)
C4 C 0.1194(10) 0.0213(4) -0.5119(9)
C5 C -0.0765(11) 0.0464(4) -0.3401(10)
N3 N 0.3977(8) 0.6385(3) -0.1477(7)
N4 N 0.6694(10) 0.6958(3) 0.0301(8)
C6 C 0.2117(11) 0.6568(3) 0.0345(9)
C7 C 0.3925(12) 0.6509(4) 0.0172(8)
C8 C 0.5784(11) 0.6323(4) -0.1737(10)
C9 C 0.4914(13) 0.7029(4) 0.0519(9)
C10 C 0.6777(12) 0.6814(5) -0.1328(9)
C11 C -0.2072(8) 0.3629(3) -0.2831(6)
C12 C -0.2837(8) 0.3122(3) -0.2320(6)
O29 O -0.1203(13) 0.5317(6) -0.0609(17)
O30 O 0.6303(11) 0.1492(4) -0.4628(10)
Ga1 Ga 0.00934(8) 0.28500 -0.32853(7)
Ga2 Ga 0.50180(8) 0.39120(3) -0.18296(7)
Ga3 Ga 0.01355(8) 0.34913(4) -0.77810(7)
Ga4 Ga 0.49963(8) 0.32627(4) 0.26741(7)
Ga3* Ga 0.01355(8) 0.34913(4) 0.22190(7)
Ga4* Ga 0.49963(8) 0.32627(4) -0.73259(7)
Ga4** Ga -0.50037(8) 0.32627(4) -0.73259(7)
Ga3** Ga 1.01355(8) 0.34913(4) 0.22190(7)
Ga2* Ga -0.49820(8) 0.39120(3) -0.18296(7)
O27* O 0.5741(5) 0.3170(2) -0.1922(5)
O28* O 0.7065(6) 0.4033(2) -0.2822(5)
O8* O 0.4434(5) 0.3164(2) 0.4525(4)
O11* O 0.6538(5) 0.2783(2) 0.2397(5)
O4* O 0.0677(5) 0.3599(2) -0.9637(4)
O23* O -0.1411(6) 0.3972(3) -0.7495(5)
#END
