
#######################################################################
#
#                 Cambridge Crystallographic Data Centre
#                                CCDC
#
#######################################################################
#
# If this CIF has been generated from an entry in the Cambridge
# Structural Database, then it will include bibliographic, chemical,
# crystal, experimental, refinement or atomic coordinate data resulting
# from the CCDC's data processing and validation procedures.
#
#######################################################################

data_CSD_CIF_WIKDIF
_audit_creation_date 2013-10-18
_audit_creation_method CSD-ConQuest-V1
_database_code_CSD WIKDIF
_database_code_depnum_ccdc_archive 'CCDC 967034; CCDC 425043'
_chemical_formula_sum 'C12 H12 Ag6 N46 O36'
_chemical_formula_moiety
;
(H6 Ag1 N2 1+)2n,n(C12 Ag4 N42 O36 2-)
;
_journal_coden_Cambridge 9
_journal_volume 52
_journal_year 2013
_journal_page_first 7249
_journal_name_full 'Inorg.Chem. '
loop_
_publ_author_name
"R.Haiges"
"K.O.Christe"
_chemical_name_systematic
;
catena-[bis(Diammine-silver) 
tetrakis(\m~3~-5-trinitromethyltetrazolato)-bis(\m~2~-5-trinitromethyltetrazol
ato)-tetra-silver ]
;
_cell_volume   5575.255
_exptl_crystal_density_diffrn 2.411
_diffrn_ambient_temperature 100
#These two values have been output from a single CSD field.
_refine_ls_R_factor_gt 0.0494
_refine_ls_wR_factor_gt 0.0494
_symmetry_cell_setting monoclinic
_symmetry_space_group_name_H-M 'P 21/c'
_symmetry_Int_Tables_number 14
loop_
_symmetry_equiv_pos_site_id
_symmetry_equiv_pos_as_xyz
1 x,y,z
2 -x,1/2+y,1/2-z
3 -x,-y,-z
4 x,-1/2-y,-1/2+z
_cell_length_a 11.7121(19)
_cell_length_b 22.171(4)
_cell_length_c 21.479(3)
_cell_angle_alpha 90
_cell_angle_beta 91.600(2)
_cell_angle_gamma 90
_cell_formula_units_Z 4
loop_
_atom_type_symbol
_atom_type_radius_bond
C 0.68
H 0.23
Ag 1.45
N 0.68
O 0.68
loop_
_atom_site_label
_atom_site_type_symbol
_atom_site_fract_x
_atom_site_fract_y
_atom_site_fract_z
Ag1 Ag 1.40031(3) 0.751258(18) 0.078393(17)
Ag2 Ag 1.11329(3) 0.81547(19) 0.024303(18)
Ag3 Ag 0.89698(3) 0.682938(19) -0.009698(18)
Ag4 Ag 0.60871(3) 0.745534(18) -0.059603(17)
C1 C 0.2689(4) 0.8016(2) -0.1087(2)
C2 C 0.1694(4) 0.8065(3) -0.1530(2)
C3 C 0.7456(5) 0.6069(3) -0.1778(2)
C4 C 0.7408(5) 0.5710(3) -0.2363(3)
C5 C 0.7391(4) 0.6918(2) 0.1253(2)
C6 C 0.8385(4) 0.6820(3) 0.1684(2)
C7 C 0.7655(4) 0.8704(2) -0.0061(2)
C8 C 0.6681(4) 0.9128(2) -0.0042(3)
C9 C 1.2390(4) 0.6270(2) 0.0345(2)
C10 C 1.3373(4) 0.5845(2) 0.0328(2)
C11 C 1.2487(4) 0.8816(2) 0.2006(2)
C12 C 1.2382(5) 0.9182(2) 0.2573(2)
N1 N 0.3731(4) 0.7890(2) -0.1271(2)
N2 N 0.4334(3) 0.7850(2) -0.07358(19)
N3 N 0.3677(4) 0.7944(2) -0.02580(19)
N4 N 0.2607(4) 0.8052(2) -0.0470(2)
N5 N 0.0720(4) 0.7626(2) -0.1355(2)
N6 N 0.2076(4) 0.7890(2) -0.2181(2)
N7 N 0.1160(4) 0.8693(2) -0.1568(2)
N8 N 0.6605(4) 0.6441(2) -0.1635(2)
N9 N 0.6992(4) 0.6719(2) -0.1124(2)
N10 N 0.8023(4) 0.6513(2) -0.0970(2)
N11 N 0.8341(4) 0.6102(2) -0.1381(2)
N12 N 0.8113(5) 0.6003(3) -0.2864(2)
N13 N 0.6166(5) 0.5669(3) -0.2607(3)
N14 N 0.7798(5) 0.5055(2) -0.2310(3)
N15 N 0.7461(4) 0.6872(2) 0.0635(2)
N16 N 0.6405(4) 0.7007(2) 0.0425(2)
N17 N 0.5753(4) 0.7124(2) 0.09034(19)
N18 N 0.6365(4) 0.7072(2) 0.1436(2)
N19 N 0.9254(4) 0.7337(3) 0.1687(2)
N20 N 0.9038(5) 0.6245(3) 0.1503(2)
N21 N 0.8004(4) 0.6735(2) 0.2359(2)
N22 N 0.7555(3) 0.8133(2) -0.0246(2)
N23 N 0.8613(4) 0.7920(2) -0.0204(2)
N24 N 0.9324(4) 0.8357(2) -0.0005(2)
N25 N 0.8729(4) 0.8864(2) 0.0086(2)
N26 N 0.7108(4) 0.9770(2) 0.0100(3)
N27 N 0.6045(4) 0.9145(2) -0.0681(2)
N28 N 0.5798(4) 0.8984(2) 0.0444(2)
N29 N 1.1332(4) 0.6116(2) 0.0166(2)
N30 N 1.0748(4) 0.6629(2) 0.0232(2)
N31 N 1.1439(4) 0.7065(2) 0.0444(2)
N32 N 1.2492(4) 0.6845(2) 0.0518(2)
N33 N 1.2963(4) 0.5193(2) 0.0251(2)
N34 N 1.4190(4) 0.5978(2) -0.0208(2)
N35 N 1.4109(4) 0.5864(2) 0.0934(2)
N36 N 1.1684(4) 0.8848(2) 0.1550(2)
N37 N 1.2073(4) 0.8477(2) 0.1118(2)
N38 N 1.3057(4) 0.8238(2) 0.1314(2)
N39 N 1.3339(4) 0.8450(2) 0.1877(2)
N40 N 1.1121(4) 0.9338(2) 0.2654(2)
N41 N 1.2830(4) 0.8894(2) 0.3179(2)
N42 N 1.3015(4) 0.9792(2) 0.2534(2)
O1 O 0.1021(4) 0.7162(2) -0.1122(3)
O2 O -0.0232(4) 0.7796(3) -0.1466(2)
O3 O 0.2566(4) 0.8281(2) -0.2460(2)
O4 O 0.1929(4) 0.7376(2) -0.2332(2)
O5 O 0.0624(4) 0.8817(2) -0.2046(2)
O6 O 0.1303(5) 0.9005(2) -0.1120(2)
O7 O 0.8022(6) 0.6541(3) -0.2892(3)
O8 O 0.8690(4) 0.5682(3) -0.3182(2)
O9 O 0.5538(4) 0.5405(3) -0.2266(3)
O10 O 0.5959(5) 0.5888(3) -0.3111(2)
O11 O 0.8450(4) 0.4921(2) -0.1903(2)
O12 O 0.7412(5) 0.4723(2) -0.2718(3)
O13 O 0.9807(5) 0.7406(3) 0.2164(2)
O14 O 0.9324(4) 0.7609(2) 0.12052(19)
O15 O 0.8442(5) 0.5826(2) 0.1344(2)
O16 O 1.0071(4) 0.6263(3) 0.1552(2)
O17 O 0.7631(4) 0.7182(2) 0.25959(19)
O18 O 0.8105(4) 0.6233(2) 0.2580(2)
O19 O 0.7153(4) 1.0113(2) -0.0329(3)
O20 O 0.7384(4) 0.9851(2) 0.0642(3)
O21 O 0.5805(4) 0.8476(2) 0.0643(2)
O22 O 0.5164(4) 0.9395(2) 0.0586(2)
O23 O 0.5022(4) 0.9210(2) -0.0688(2)
O24 O 0.6643(5) 0.9086(3) -0.1122(2)
O25 O 1.2575(4) 0.5068(2) -0.0257(2)
O26 O 1.3041(4) 0.4875(2) 0.0705(2)
O27 O 1.4269(4) 0.65032(19) -0.03446(19)
O28 O 1.4671(5) 0.5552(2) -0.0432(3)
O29 O 1.3594(5) 0.5949(2) 0.1401(2)
O30 O 1.5135(4) 0.5785(2) 0.0881(2)
O31 O 1.0503(4) 0.8911(2) 0.27512(19)
O32 O 1.0852(4) 0.9865(2) 0.2595(2)
O33 O 1.3154(4) 0.9974(2) 0.2019(2)
O34 O 1.3288(4) 1.0026(2) 0.3028(2)
O35 O 1.2273(4) 0.8955(2) 0.3637(2)
O36 O 1.3747(4) 0.8650(2) 0.3148(2)
Ag5 Ag 1.00000 0.50000 0.00000
N43 N 0.9788(4) 0.4732(2) 0.0931(2)
H1 H 0.91650 0.44880 0.09530
H2 H 0.96880 0.50640 0.11720
H3 H 1.04200 0.45280 0.10690
Ag6 Ag 0.49679(4) 0.31133(2) 0.73379(2)
N44 N 0.5078(6) 0.4062(3) 0.7264(3)
H4 H 0.43820 0.42140 0.71480
H5 H 0.55970 0.41600 0.69730
H6 H 0.53020 0.42200 0.76380
N45 N 0.4740(4) 0.2206(2) 0.7518(2)
H7 H 0.42470 0.21620 0.78350
H8 H 0.54240 0.20370 0.76280
H9 H 0.44500 0.20210 0.71710
Ag7 Ag 1.00000 0.00000 1.00000
N46 N 0.9569(5) 0.0028(2) 0.9026(3)
H10 H 1.01740 -0.01020 0.88060
H11 H 0.93920 0.04130 0.89130
H12 H 0.89570 -0.02160 0.89450
Ag1* Ag 0.40031(3) 0.751258(18) 0.078393(17)
Ag2* Ag 0.11329(3) 0.81547(19) 0.024303(18)
N3* N 1.3677(4) 0.7944(2) -0.02580(19)
N4* N 1.2607(4) 0.8052(2) -0.0470(2)
N17* N 1.5753(4) 0.7124(2) 0.09034(19)
N43B N 1.0212(4) 0.5268(2) -0.0931(2)
H1B H 1.08350 0.55120 -0.09530
H2B H 1.03120 0.49360 -0.11720
H3B H 0.95800 0.54720 -0.10690
N46B N 1.0431(5) -0.0028(2) 1.0974(3)
H10B H 0.98260 0.01020 1.11940
H11B H 1.06080 -0.04130 1.10870
H12B H 1.10430 0.02160 1.10550
#END
