
#######################################################################
#
#                 Cambridge Crystallographic Data Centre
#                                CCDC
#
#######################################################################
#
# If this CIF has been generated from an entry in the Cambridge
# Structural Database, then it will include bibliographic, chemical,
# crystal, experimental, refinement or atomic coordinate data resulting
# from the CCDC's data processing and validation procedures.
#
#######################################################################

data_CSD_CIF_WIKLAF
_audit_creation_date 2013-10-18
_audit_creation_method CSD-ConQuest-V1
_database_code_CSD WIKLAF
_database_code_depnum_ccdc_archive 'CCDC 966999'
_chemical_formula_sum 'C22 H64 N2 O28 P6 U3'
_chemical_formula_moiety
;
(C6 H16 O24 P6 U3 2-)n,2(C8 H20 N1 1+),4(H2 O1)
;
_journal_coden_Cambridge 9
_journal_volume 52
_journal_year 2013
_journal_page_first 7100
_journal_name_full 'Inorg.Chem. '
loop_
_publ_author_name
"Tao Tian"
"Weiting Yang"
"Hao Wang"
"Song Dang"
"Qing-Jiang Pan"
"Zhong-Ming Sun"
_chemical_name_systematic
;
catena-[bis(tetraethylammonim) 
bis(\m~4~-[2-(hydroxyphosphinato)ethyl]phosphonato)-(\m~4~-ethane-1,2-diylbis[
hydrogen (phosphonato)])-hexaoxo-tri-uranium tetrahydrate]
;
_chemical_name_common
;
EDP-U
;
_cell_volume   1201.951
_exptl_crystal_density_diffrn 2.361
_diffrn_ambient_temperature 293
#These two values have been output from a single CSD field.
_refine_ls_R_factor_gt 0.0354
_refine_ls_wR_factor_gt 0.0354
_symmetry_cell_setting triclinic
_symmetry_space_group_name_H-M 'P -1'
_symmetry_Int_Tables_number 2
loop_
_symmetry_equiv_pos_site_id
_symmetry_equiv_pos_as_xyz
1 x,y,z
2 -x,-y,-z
_cell_length_a 8.4769(8)
_cell_length_b 9.7317(9)
_cell_length_c 14.7070(15)
_cell_angle_alpha 83.848(1)
_cell_angle_beta 85.158(1)
_cell_angle_gamma 89.304(1)
_cell_formula_units_Z 1
loop_
_atom_type_symbol
_atom_type_radius_bond
C 0.68
H 0.23
N 0.68
O 0.68
P 1.05
U 1.96
loop_
_atom_site_label
_atom_site_type_symbol
_atom_site_fract_x
_atom_site_fract_y
_atom_site_fract_z
U1 U 0.00000 0.50000 0.50000
U2 U -0.00862(3) 0.61681(2) 0.832030(15)
P1 P 0.2733(2) 0.65328(18) 0.63720(11)
P2 P 0.7292(2) 0.45347(18) 0.69739(11)
P3 P 0.26738(19) 0.60380(17) 1.00212(11)
O1 O 0.0860(6) 0.3350(5) 0.4826(3)
O2 O 0.0845(6) 0.4539(5) 0.8202(3)
O3 O -0.0996(5) 0.7814(5) 0.8406(3)
O4 O 0.2069(6) 0.5449(5) 0.5829(3)
O5 O 0.3519(6) 0.7746(5) 0.5733(3)
H1 H 0.30470 0.78840 0.52680
O6 O 0.1488(6) 0.7093(5) 0.7049(3)
O7 O 0.8012(6) 0.5738(5) 0.7397(3)
O8 O 0.6660(6) 0.3389(5) 0.7683(3)
O9 O 0.8518(6) 0.3982(5) 0.6254(3)
O10 O 0.1864(5) 0.6751(5) 0.9210(3)
O11 O 0.1741(6) 0.4799(5) 1.0497(3)
O12 O 0.2967(6) 0.7119(5) 1.0680(3)
H2 H 0.30600 0.67280 1.11950
C1 C 0.4336(8) 0.5784(7) 0.6979(4)
H3 H 0.47580 0.64740 0.73220
H4 H 0.39330 0.50270 0.74160
C2 C 0.5675(8) 0.5246(7) 0.6349(5)
H5 H 0.60670 0.59960 0.59030
H6 H 0.52630 0.45380 0.60180
C3 C 0.4565(8) 0.5386(7) 0.9614(4)
H7 H 0.44140 0.47660 0.91540
H8 H 0.52140 0.61500 0.93230
O13 O 0.0852(17) 0.0878(14) 0.3929(10)
O14 O 0.2479(8) 0.8551(7) 0.4212(4)
C4 C 0.1249(8) 0.0271(8) 0.7902(6)
H9 H 0.12170 -0.02580 0.73810
H10 H 0.10400 -0.03640 0.84530
C5 C -0.0064(9) 0.1315(9) 0.7865(7)
H11 H -0.10580 0.08500 0.78700
H12 H 0.01010 0.19360 0.73130
H13 H -0.00780 0.18280 0.83880
C6 C 0.3354(9) 0.1839(7) 0.7042(5)
H14 H 0.26390 0.26240 0.70510
H15 H 0.44160 0.21800 0.70740
C7 C 0.3287(12) 0.124(1) 0.6128(6)
H16 H 0.35640 0.19430 0.56330
H17 H 0.22350 0.09170 0.60790
H18 H 0.40200 0.04830 0.60980
C8 C 0.3056(10) 0.1640(8) 0.8716(6)
H19 H 0.41340 0.19730 0.86970
H20 H 0.23690 0.24430 0.86520
C9 C 0.2646(13) 0.0864(11) 0.9632(7)
H21 H 0.27610 0.14590 1.01020
H22 H 0.33420 0.00830 0.97150
H23 H 0.15710 0.05500 0.96680
C10 C 0.4020(8) -0.0409(7) 0.7936(5)
H24 H 0.36730 -0.10380 0.84700
H25 H 0.39090 -0.08850 0.73980
C11 C 0.5751(9) -0.0101(8) 0.7978(6)
H26 H 0.63460 -0.09480 0.79940
H27 H 0.58880 0.03360 0.85210
H28 H 0.61210 0.05050 0.74470
N1 N 0.2925(7) 0.0832(6) 0.7898(4)
P3A P 0.73262(19) 0.39620(17) 0.99788(11)
O10A O 0.8136(5) 0.3249(5) 1.0790(3)
O11A O 0.8259(6) 0.5201(5) 0.9503(3)
O12A O 0.7033(6) 0.2881(5) 0.9320(3)
H2A H 0.69400 0.32720 0.88050
C3A C 0.5435(8) 0.4614(7) 1.0386(4)
H7A H 0.55860 0.52340 1.08460
H8A H 0.47860 0.38500 1.06770
U2A U 0.00862(3) 0.38319(2) 0.167970(15)
P1A P -0.2733(2) 0.34672(18) 0.36280(11)
P2A P -0.7292(2) 0.54653(18) 0.30261(11)
O1A O -0.0860(6) 0.6650(5) 0.5174(3)
O2A O -0.0845(6) 0.5461(5) 0.1798(3)
O3A O 0.0996(5) 0.2186(5) 0.1594(3)
O4A O -0.2069(6) 0.4551(5) 0.4171(3)
O5A O -0.3519(6) 0.2254(5) 0.4267(3)
H1A H -0.30470 0.21160 0.47320
O6A O -0.1488(6) 0.2907(5) 0.2951(3)
O7A O -0.8012(6) 0.4262(5) 0.2603(3)
O8A O -0.6660(6) 0.6611(5) 0.2317(3)
O9A O -0.8518(6) 0.6018(5) 0.3746(3)
C1A C -0.4336(8) 0.4216(7) 0.3021(4)
H3A H -0.47580 0.35260 0.26780
H4A H -0.39330 0.49730 0.25840
C2A C -0.5675(8) 0.4754(7) 0.3651(5)
H5A H -0.60670 0.40040 0.40970
H6A H -0.52630 0.54620 0.39820
U1* U -1.00000 0.50000 0.50000
U1** U 1.00000 0.50000 0.50000
U2* U 0.99138(3) 0.61681(2) 0.832030(15)
U2A* U -0.99138(3) 0.38319(2) 0.167970(15)
U2A** U 0.00862(3) 0.38319(2) 1.167970(15)
U2A*** U 1.00862(3) 0.38319(2) 1.167970(15)
O7* O -0.1988(6) 0.5738(5) 0.7397(3)
O7A* O 0.1988(6) 0.4262(5) 0.2603(3)
O9* O -0.1482(6) 0.3982(5) 0.6254(3)
O9A* O 0.1482(6) 0.6018(5) 0.3746(3)
O10A* O -0.1864(5) 0.3249(5) 0.0790(3)
O11* O 0.1741(6) 0.4799(5) 0.0497(3)
O11A* O -0.1741(6) 0.5201(5) 0.9503(3)
#END
