
#######################################################################
#
#                 Cambridge Crystallographic Data Centre
#                                CCDC
#
#######################################################################
#
# If this CIF has been generated from an entry in the Cambridge
# Structural Database, then it will include bibliographic, chemical,
# crystal, experimental, refinement or atomic coordinate data resulting
# from the CCDC's data processing and validation procedures.
#
#######################################################################

data_CSD_CIF_WIKLOT
_audit_creation_date 2013-10-18
_audit_creation_method CSD-ConQuest-V1
_database_code_CSD WIKLOT
_database_code_depnum_ccdc_archive 'CCDC 967001'
_chemical_formula_sum 'C30 H36 N4 O22 P6 U2'
_chemical_formula_moiety
;
(C6 H18 O22 P6 U2 2-)n,2n(C12 H9 N2 1+)
;
_journal_coden_Cambridge 9
_journal_volume 52
_journal_year 2013
_journal_page_first 7100
_journal_name_full 'Inorg.Chem. '
loop_
_publ_author_name
"Tao Tian"
"Weiting Yang"
"Hao Wang"
"Song Dang"
"Qing-Jiang Pan"
"Zhong-Ming Sun"
_chemical_name_systematic
;
catena-[bis(1,10-phenanthrolin-1-ium) bis(\m~3~-ethane-1,2-diylbis[hydrogen 
(phosphonato)])-(\m~2~-ethane-1,2-diylbis[hydrogen 
(phosphonato)])-tetraoxo-di-uranium]
;
_cell_volume   3996.860
_exptl_crystal_density_diffrn 2.437
_diffrn_ambient_temperature 273
#These two values have been output from a single CSD field.
_refine_ls_R_factor_gt 0.0247
_refine_ls_wR_factor_gt 0.0247
_symmetry_cell_setting monoclinic
_symmetry_space_group_name_H-M 'C 2/c'
_symmetry_Int_Tables_number 15
loop_
_symmetry_equiv_pos_site_id
_symmetry_equiv_pos_as_xyz
1 x,y,z
2 -x,y,1/2-z
3 1/2+x,1/2+y,z
4 1/2-x,1/2+y,1/2-z
5 -x,-y,-z
6 x,-y,-1/2+z
7 -1/2-x,-1/2-y,-z
8 -1/2+x,-1/2-y,-1/2+z
_cell_length_a 25.4936(10)
_cell_length_b 11.6771(5)
_cell_length_c 13.4533(5)
_cell_angle_alpha 90
_cell_angle_beta 93.638(1)
_cell_angle_gamma 90
_cell_formula_units_Z 4
loop_
_atom_type_symbol
_atom_type_radius_bond
C 0.68
H 0.23
N 0.68
O 0.68
P 1.05
U 1.96
loop_
_atom_site_label
_atom_site_type_symbol
_atom_site_fract_x
_atom_site_fract_y
_atom_site_fract_z
U1 U 0.307140(7) 0.050744(17) 0.054968(13)
P1 P 0.33630(5) 0.09996(13) 0.32221(10)
P2 P 0.24016(5) 0.28532(12) 0.16068(10)
P3 P 0.44522(6) -0.03021(13) 0.12008(11)
O1 O 0.26738(15) -0.0739(3) 0.0575(3)
O2 O 0.34665(14) 0.1762(3) 0.0547(3)
O3 O 0.34268(15) 0.0283(3) 0.4145(3)
O4 O 0.31649(15) 0.0305(3) 0.2330(3)
O5 O 0.39009(14) 0.1601(3) 0.3029(3)
H1 H 0.40650 0.12040 0.26530
O6 O 0.18739(14) 0.2998(3) 0.2157(3)
H2 H 0.18420 0.36680 0.23260
O7 O 0.24478(14) 0.3777(3) 0.0826(2)
O8 O 0.24051(14) 0.1635(3) 0.1240(3)
O9 O 0.47293(15) -0.1365(3) 0.1659(3)
O10 O 0.38694(15) -0.0481(3) 0.1068(3)
O11 O 0.45898(15) 0.0744(3) 0.1880(3)
H3 H 0.48590 0.06090 0.22260
C1 C 0.2942(2) 0.2201(5) 0.3410(4)
H4 H 0.25900 0.19200 0.34940
H5 H 0.30630 0.25830 0.40230
C2 C 0.2918(2) 0.3088(5) 0.2556(4)
H6 H 0.32510 0.30830 0.22480
H7 H 0.28730 0.38430 0.28390
C3 C 0.4699(2) -0.0039(6) -0.0009(4)
H8 H 0.45810 -0.06510 -0.04570
H9 H 0.45500 0.06710 -0.02720
N1 N 0.06985(17) -0.1562(4) -0.1129(3)
H10 H 0.05080 -0.21640 -0.12260
N2 N -0.03616(18) -0.1489(4) -0.1384(3)
C4 C 0.1219(2) -0.1693(5) -0.0974(4)
H11 H 0.13690 -0.24190 -0.09830
C5 C 0.1536(2) -0.0731(6) -0.0799(4)
H12 H 0.18970 -0.08100 -0.06810
C6 C 0.1307(2) 0.0336(5) -0.0804(4)
H13 H 0.15160 0.09790 -0.06790
C7 C 0.0765(2) 0.0463(5) -0.0995(4)
C8 C 0.0499(2) 0.1538(5) -0.1045(4)
H14 H 0.06930 0.22070 -0.09510
C9 C -0.0024(2) 0.1610(5) -0.1223(4)
H15 H -0.01840 0.23250 -0.12710
C10 C -0.0339(2) 0.0596(5) -0.1341(4)
C11 C -0.0891(2) 0.0612(5) -0.1495(4)
H16 H -0.10720 0.13030 -0.15470
C12 C -0.1159(2) -0.0414(6) -0.1567(4)
H17 H -0.15240 -0.04260 -0.16580
C13 C -0.0876(2) -0.1429(6) -0.1501(4)
H18 H -0.10630 -0.21120 -0.15420
C14 C -0.0096(2) -0.0481(5) -0.1301(4)
C15 C 0.0460(2) -0.0540(5) -0.1140(4)
P3D P 0.55478(6) 0.03021(13) -0.12008(11)
O9D O 0.52707(15) 0.1365(3) -0.1659(3)
O10D O 0.61306(15) 0.0481(3) -0.1068(3)
O11D O 0.54102(15) -0.0744(3) -0.1880(3)
H3D H 0.51410 -0.06090 -0.22260
C3D C 0.5301(2) 0.0039(6) 0.0009(4)
H8D H 0.54190 0.06510 0.04570
H9D H 0.54500 -0.06710 0.02720
U1D U 0.692860(7) -0.050744(17) -0.054968(13)
P1D P 0.66370(5) -0.09996(13) -0.32221(10)
P2D P 0.75984(5) -0.28532(12) -0.16068(10)
O1D O 0.73262(15) 0.0739(3) -0.0575(3)
O2D O 0.65335(14) -0.1762(3) -0.0547(3)
O3D O 0.65732(15) -0.0283(3) -0.4145(3)
O4D O 0.68351(15) -0.0305(3) -0.2330(3)
O5D O 0.60991(14) -0.1601(3) -0.3029(3)
H1D H 0.59350 -0.12040 -0.26530
O6D O 0.81261(14) -0.2998(3) -0.2157(3)
H2D H 0.81580 -0.36680 -0.23260
O7D O 0.75522(14) -0.3777(3) -0.0826(2)
O8D O 0.75949(14) -0.1635(3) -0.1240(3)
C1D C 0.7058(2) -0.2201(5) -0.3410(4)
H4D H 0.74100 -0.19200 -0.34940
H5D H 0.69370 -0.25830 -0.40230
C2D C 0.7082(2) -0.3088(5) -0.2556(4)
H6D H 0.67490 -0.30830 -0.22480
H7D H 0.71270 -0.38430 -0.28390
U1A U 0.692860(7) 0.050744(17) -0.554968(13)
U1B U 0.807140(7) -0.449256(17) 0.054968(13)
U1E U 0.307140(7) -0.050744(17) 0.554968(13)
U1F U 0.192860(7) 0.449256(17) -0.054968(13)
O3A O 0.65732(15) 0.0283(3) 0.0855(3)
O3E O 0.34268(15) -0.0283(3) -0.0855(3)
O7B O 0.74478(14) -0.1223(3) 0.0826(2)
O7F O 0.25522(14) 0.1223(3) -0.0826(2)
#END
