
#######################################################################
#
#                 Cambridge Crystallographic Data Centre
#                                CCDC
#
#######################################################################
#
# If this CIF has been generated from an entry in the Cambridge
# Structural Database, then it will include bibliographic, chemical,
# crystal, experimental, refinement or atomic coordinate data resulting
# from the CCDC's data processing and validation procedures.
#
#######################################################################

data_CSD_CIF_WIKZAT
_audit_creation_date 2013-10-18
_audit_creation_method CSD-ConQuest-V1
_database_code_CSD WIKZAT
_database_code_depnum_ccdc_archive 'CCDC 966917'
_chemical_formula_sum 'C30 H23 Cu1 N2 Na1 O8'
_chemical_formula_moiety
;
(C24 H12 Cu1 Na1 O8 1-)n,n(C6 H11 N2 1+)
;
_journal_coden_Cambridge 9
_journal_volume 52
_journal_year 2013
_journal_page_first 6773
_journal_name_full 'Inorg.Chem. '
loop_
_publ_author_name
"Qing-Yan Liu"
"Wei-Lu Xiong"
"Cai-Ming Liu"
"Yu-Ling Wang"
"Jia-Jia Wei"
"Zuo-Juan Xiahou"
"Li-Hua Xiong"
_chemical_name_systematic
;
catena-(1-Ethyl-3-methylimidazolium 
(\m~5~-naphthalene-1,4-dicarboxylato)-(\m~4~-naphthalene-1,4-dicarboxylato)-co
pper-sodium)
;
_cell_volume   2729.176
_exptl_crystal_colour 'blue'
_exptl_crystal_density_diffrn 1.524
_exptl_crystal_description 'block'
_diffrn_ambient_temperature 273
#These two values have been output from a single CSD field.
_refine_ls_R_factor_gt 0.0375
_refine_ls_wR_factor_gt 0.0375
_symmetry_cell_setting tetragonal
_symmetry_space_group_name_H-M 'P 41'
_symmetry_Int_Tables_number 76
loop_
_symmetry_equiv_pos_site_id
_symmetry_equiv_pos_as_xyz
1 x,y,z
2 -x,-y,1/2+z
3 -y,x,1/4+z
4 y,-x,3/4+z
_cell_length_a 10.6642(10)
_cell_length_b 10.6642(10)
_cell_length_c 23.998(5)
_cell_angle_alpha 90
_cell_angle_beta 90
_cell_angle_gamma 90
_cell_formula_units_Z 4
loop_
_atom_type_symbol
_atom_type_radius_bond
C 0.68
H 0.23
Cu 1.32
N 0.68
Na 1.66
O 0.68
loop_
_atom_site_label
_atom_site_type_symbol
_atom_site_fract_x
_atom_site_fract_y
_atom_site_fract_z
Cu1 Cu 0.64842(4) 0.60909(4) 0.14864(3)
Na1 Na 0.63200(18) 0.50901(19) 0.01503(11)
O1 O 0.8297(2) 0.5924(3) 0.14719(18)
O2 O 0.8092(3) 0.6177(4) 0.05610(16)
O3 O 1.4893(3) 0.6248(3) 0.06564(18)
O4 O 1.4642(3) 0.6258(3) 0.15746(18)
O5 O 0.6708(3) 0.7884(3) 0.15257(17)
O6 O 0.6462(3) 0.7797(3) 0.24410(15)
O7 O 0.6292(3) 1.4491(3) 0.23266(18)
O8 O 0.6334(3) 1.4274(3) 0.14075(18)
C1 C 1.0152(4) 0.6174(4) 0.0966(2)
C2 C 1.0816(4) 0.5495(4) 0.1354(2)
H1 H 1.03880 0.49840 0.16030
C3 C 1.2123(4) 0.5558(4) 0.1379(2)
H2 H 1.25430 0.50990 0.16500
C4 C 1.2800(4) 0.6277(4) 0.1017(2)
C5 C 1.2169(4) 0.6982(4) 0.0607(2)
C6 C 1.2798(5) 0.7754(5) 0.0219(2)
H3 H 1.36700 0.77860 0.02210
C7 C 1.2156(5) 0.8441(6) -0.0152(3)
H4 H 1.25980 0.89460 -0.03990
C8 C 1.0867(5) 0.8426(5) -0.0182(3)
H5 H 1.04530 0.89160 -0.04450
C9 C 1.0208(5) 0.7694(5) 0.0174(2)
H6 H 0.93380 0.76780 0.01510
C10 C 1.0817(4) 0.6954(4) 0.0579(2)
C11 C 0.8743(4) 0.6096(5) 0.0986(2)
C12 C 1.4211(5) 0.6266(5) 0.1079(3)
C13 C 0.6759(4) 0.9791(4) 0.2007(2)
C14 C 0.5902(4) 1.0447(4) 0.2322(2)
H7 H 0.53590 1.00120 0.25560
C15 C 0.5834(5) 1.1758(4) 0.2297(2)
H8 H 0.52580 1.21800 0.25200
C16 C 0.6599(4) 1.2425(4) 0.1950(2)
C17 C 0.7540(4) 1.1802(4) 0.1641(2)
C18 C 0.8438(4) 1.2449(4) 0.1308(2)
H9 H 0.83920 1.33180 0.12820
C19 C 0.9357(5) 1.1835(5) 0.1030(2)
H10 H 0.99200 1.22830 0.08100
C20 C 0.9463(4) 1.0533(5) 0.1070(2)
H11 H 1.01170 1.01180 0.08920
C21 C 0.8610(4) 0.9877(4) 0.1370(2)
H12 H 0.86660 0.90060 0.13790
C22 C 0.7633(4) 1.0475(4) 0.16703(19)
C23 C 0.6637(4) 0.8375(4) 0.2005(2)
C24 C 0.6391(5) 1.3849(5) 0.1897(3)
N1 N 0.8938(7) 0.4982(5) 0.3206(3)
N2 N 0.9730(5) 0.6509(5) 0.2742(2)
C25 C 0.8690(7) 0.5908(6) 0.2866(3)
H13 H 0.78970 0.61110 0.27330
C26 C 1.0661(7) 0.5949(8) 0.3034(3)
H14 H 1.14980 0.61920 0.30320
C27 C 1.0185(8) 0.4994(8) 0.3325(4)
H15 H 1.06160 0.44500 0.35590
C28 C 0.8030(9) 0.4083(7) 0.3436(4)
H16 H 0.80160 0.41660 0.38390
H17 H 0.72000 0.42880 0.32980
C29 C 0.8319(10) 0.2786(7) 0.3292(4)
H18 H 0.77030 0.22410 0.34540
H19 H 0.91340 0.25730 0.34320
H20 H 0.83100 0.26920 0.28940
C30 C 0.9810(6) 0.7607(6) 0.2390(3)
H21 H 0.90010 0.77830 0.22340
H22 H 1.03990 0.74550 0.20950
H23 H 1.00850 0.83100 0.26080
Cu1* Cu 0.64842(4) 1.60909(4) 0.14864(3)
Cu1** Cu 1.64842(4) 0.60909(4) 0.14864(3)
Na1* Na 1.63200(18) 0.50901(19) 0.01503(11)
Na1B Na 0.49099(18) 0.63200(19) 0.26503(11)
Na1B* Na 0.49099(18) 1.63200(19) 0.26503(11)
Na1B** Na 1.49099(18) 0.63200(19) 0.26503(11)
O3* O 0.4893(3) 0.6248(3) 0.06564(18)
O4* O 0.4642(3) 0.6258(3) 0.15746(18)
O4C O 0.6258(3) 0.5358(3) -0.09254(18)
O6C O 0.7797(3) 0.3538(3) -0.00590(15)
O7* O 0.6292(3) 0.4491(3) 0.23266(18)
O7C O 0.4491(3) 0.3708(3) -0.01734(18)
O8* O 0.6334(3) 0.4274(3) 0.14075(18)
#END
