
#######################################################################
#
#                 Cambridge Crystallographic Data Centre
#                                CCDC
#
#######################################################################
#
# If this CIF has been generated from an entry in the Cambridge
# Structural Database, then it will include bibliographic, chemical,
# crystal, experimental, refinement or atomic coordinate data resulting
# from the CCDC's data processing and validation procedures.
#
#######################################################################

data_CSD_CIF_WIMCAZ
_audit_creation_date 2018-10-24
_audit_creation_method CSD-ConQuest-V1
_database_code_CSD WIMCAZ
_database_code_depnum_ccdc_archive 'CCDC 1875016'
_chemical_formula_sum 'C54 H54 N6 Ni3 O18'
_chemical_formula_moiety
;
(C46 H30 N4 Ni3 O18 2-)n,2n(C4 H12 N1 1+)
;
_journal_coden_Cambridge 1078
_journal_year 2018
_journal_name_full 'CSD Communication(Private Communication) '
loop_
_publ_author_name
"Wenjuan Ji"
_chemical_name_systematic
;
catena-[(\m-[1,1':4',1''-terphenyl]-3,5,3'',5''-tetracarboxylato)-bis(\m-aqua)
-bis(\m-pyridine-4-carboxylato)-bis(pyridine-4-carboxylic acid)-tri-nickel 
unknown solvate]
;
_chemical_name_common
;
SXNU-J2
;
_cell_volume   6641.076
_exptl_crystal_colour 'green'
_exptl_crystal_description 'Plate'
_diffrn_ambient_temperature 273.1
_refine_special_details
;
The SQUEEZE/PLATON program was used to model the cations.

;
#These two values have been output from a single CSD field.
_refine_ls_R_factor_gt 0.0981
_refine_ls_wR_factor_gt 0.0981
_symmetry_cell_setting monoclinic
_symmetry_space_group_name_H-M 'C 2/c'
_symmetry_Int_Tables_number 15
loop_
_symmetry_equiv_pos_site_id
_symmetry_equiv_pos_as_xyz
1 x,y,z
2 -x,y,1/2-z
3 1/2+x,1/2+y,z
4 1/2-x,1/2+y,1/2-z
5 -x,-y,-z
6 x,-y,-1/2+z
7 -1/2-x,-1/2-y,-z
8 -1/2+x,-1/2-y,-1/2+z
_cell_length_a 33.556(4)
_cell_length_b 14.8134(18)
_cell_length_c 13.4540(16)
_cell_angle_alpha 90
_cell_angle_beta 96.769(3)
_cell_angle_gamma 90
_cell_formula_units_Z 4
loop_
_atom_type_symbol
_atom_type_radius_bond
C 0.68
H 0.23
N 0.68
Ni 1.24
O 0.68
loop_
_atom_site_label
_atom_site_type_symbol
_atom_site_fract_x
_atom_site_fract_y
_atom_site_fract_z
Ni1 Ni 0.16054(2) 0.29541(5) 0.34483(6)
Ni2 Ni 0.25000 0.25000 0.50000
N1 N 0.0987(2) 0.3221(5) 0.3346(6)
N2 N 0.16903(19) 0.6090(4) 0.7372(4)
O1 O 0.14560(15) 0.1969(3) 0.2378(4)
O2 O 0.20025(17) 0.1107(4) 0.2662(5)
O3 O 0.21011(15) -0.1552(4) 0.0380(4)
O4 O 0.15279(16) -0.2034(3) -0.0475(4)
O5 O 0.22133(14) 0.2580(3) 0.3540(3)
O6 O 0.21868(16) 0.3518(4) 0.5543(4)
O7 O 0.16703(17) 0.3980(3) 0.4475(4)
O8 O -0.0341(4) 0.4066(14) 0.4507(14)
H1 H -0.01390 0.43650 0.46840
O9 O -0.0466(4) 0.2801(10) 0.3493(13)
C1 C 0.1654(2) 0.1267(5) 0.2258(5)
C2 C 0.1456(2) 0.0549(5) 0.1576(6)
C3 C 0.1049(2) 0.0599(6) 0.1266(7)
H2 H 0.09000 0.10670 0.14990
C4 C 0.0858(2) -0.0035(7) 0.0614(8)
C5 C 0.1090(2) -0.0716(6) 0.0269(7)
H3 H 0.09670 -0.11460 -0.01680
C6 C 0.1498(2) -0.0777(5) 0.0555(6)
C7 C 0.1680(2) -0.0150(5) 0.1229(6)
H4 H 0.19530 -0.01970 0.14490
C8 C 0.1733(2) -0.1520(5) 0.0122(5)
C9 C 0.0415(3) -0.0015(7) 0.0303(9)
C10 C 0.0252(3) -0.0333(11) -0.0603(12)
H5 H 0.04220 -0.05730 -0.10330
C11 C 0.0154(3) 0.0314(10) 0.0911(11)
H6 H 0.02510 0.05290 0.15430
C12 C 0.1901(2) 0.4019(5) 0.5268(5)
C13 C 0.1824(2) 0.4753(5) 0.5991(5)
C14 C 0.1519(3) 0.5378(6) 0.5794(6)
H7 H 0.13520 0.53580 0.51910
C15 C 0.1463(3) 0.6032(6) 0.6497(6)
H8 H 0.12580 0.64500 0.63500
C16 C 0.1987(3) 0.5495(6) 0.7550(6)
H9 H 0.21520 0.55330 0.81560
C17 C 0.2065(3) 0.4831(6) 0.6895(6)
H10 H 0.22780 0.44360 0.70540
C18 C 0.0719(3) 0.2500(8) 0.3226(10)
H11 H 0.08080 0.19480 0.30120
C19 C 0.0332(4) 0.2575(10) 0.3411(12)
H12 H 0.01620 0.20790 0.33060
C20 C 0.0184(4) 0.3370(11) 0.3750(12)
C21 C 0.0444(4) 0.4103(10) 0.3863(12)
H13 H 0.03540 0.46540 0.40820
C22 C 0.0831(3) 0.4021(8) 0.3656(9)
H14 H 0.09970 0.45260 0.37270
C23 C -0.0250(5) 0.3407(14) 0.3932(17)
O1D O -0.14560(15) -0.1969(3) -0.2378(4)
O2D O -0.20025(17) -0.1107(4) -0.2662(5)
O3D O -0.21011(15) 0.1552(4) -0.0380(4)
O4D O -0.15279(16) 0.2034(3) 0.0475(4)
C1D C -0.1654(2) -0.1267(5) -0.2258(5)
C2D C -0.1456(2) -0.0549(5) -0.1576(6)
C3D C -0.1049(2) -0.0599(6) -0.1266(7)
H2D H -0.09000 -0.10670 -0.14990
C4D C -0.0858(2) 0.0035(7) -0.0614(8)
C5D C -0.1090(2) 0.0716(6) -0.0269(7)
H3D H -0.09670 0.11460 0.01680
C6D C -0.1498(2) 0.0777(5) -0.0555(6)
C7D C -0.1680(2) 0.0150(5) -0.1229(6)
H4D H -0.19530 0.01970 -0.14490
C8D C -0.1733(2) 0.1520(5) -0.0122(5)
C9D C -0.0415(3) 0.0015(7) -0.0303(9)
C10D C -0.0252(3) 0.0333(11) 0.0603(12)
H5D H -0.04220 0.05730 0.10330
C11D C -0.0154(3) -0.0314(10) -0.0911(11)
H6D H -0.02510 -0.05290 -0.15430
Ni1A Ni -0.16054(2) 0.29541(5) 0.15517(6)
N1A N -0.0987(2) 0.3221(5) 0.1654(6)
N2A N -0.16903(19) 0.6090(4) -0.2372(4)
O5A O -0.22133(14) 0.2580(3) 0.1460(3)
O6A O -0.21868(16) 0.3518(4) -0.0543(4)
O7A O -0.16703(17) 0.3980(3) 0.0525(4)
O8A O 0.0341(4) 0.4066(14) 0.0493(14)
H1A H 0.01390 0.43650 0.03160
O9A O 0.0466(4) 0.2801(10) 0.1507(13)
C12A C -0.1901(2) 0.4019(5) -0.0268(5)
C13A C -0.1824(2) 0.4753(5) -0.0991(5)
C14A C -0.1519(3) 0.5378(6) -0.0794(6)
H7A H -0.13520 0.53580 -0.01910
C15A C -0.1463(3) 0.6032(6) -0.1497(6)
H8A H -0.12580 0.64500 -0.13500
C16A C -0.1987(3) 0.5495(6) -0.2550(6)
H9A H -0.21520 0.55330 -0.31560
C17A C -0.2065(3) 0.4831(6) -0.1895(6)
H10A H -0.22780 0.44360 -0.20540
C18A C -0.0719(3) 0.2500(8) 0.1774(10)
H11A H -0.08080 0.19480 0.19880
C19A C -0.0332(4) 0.2575(10) 0.1589(12)
H12A H -0.01620 0.20790 0.16940
C20A C -0.0184(4) 0.3370(11) 0.1250(12)
C21A C -0.0444(4) 0.4103(10) 0.1137(12)
H13A H -0.03540 0.46540 0.09180
C22A C -0.0831(3) 0.4021(8) 0.1344(9)
H14A H -0.09970 0.45260 0.12730
C23A C 0.0250(5) 0.3407(14) 0.1068(17)
Ni1D Ni -0.16054(2) -0.29541(5) -0.34483(6)
Ni1D* Ni -0.16054(2) 0.70459(5) -0.34483(6)
Ni1E Ni 0.16054(2) -0.29541(5) -0.15517(6)
Ni1E* Ni 0.16054(2) 0.70459(5) 0.84483(6)
Ni2A Ni -0.25000 0.25000 0.00000
Ni2C Ni 0.25000 -0.25000 0.00000
N2D N -0.16903(19) 0.3910(4) 0.2628(4)
N2E N 0.16903(19) 0.3910(4) 0.2372(4)
O1A O -0.14560(15) 0.1969(3) 0.2622(4)
O3C O 0.28989(15) 0.3448(4) 0.4620(4)
O3E O 0.21011(15) 0.1552(4) 0.5380(4)
O4E O 0.15279(16) 0.2034(3) 0.4525(4)
O5F O 0.27867(14) 0.2420(3) 0.6460(3)
O6F O 0.28132(16) 0.1482(4) 0.4457(4)
#END
