
#######################################################################
#
#                 Cambridge Crystallographic Data Centre
#                                CCDC
#
#######################################################################
#
# If this CIF has been generated from an entry in the Cambridge
# Structural Database, then it will include bibliographic, chemical,
# crystal, experimental, refinement or atomic coordinate data resulting
# from the CCDC's data processing and validation procedures.
#
#######################################################################

data_CSD_CIF_WIMHUW
_audit_creation_date 2008-01-08
_audit_creation_method CSD-ConQuest-V1
_database_code_CSD WIMHUW
_database_code_depnum_ccdc_archive 'CCDC 662403'
_chemical_formula_sum 'C20 H16 Ag2 N4 O20 V8'
_chemical_formula_moiety
;
(C20 H16 Ag2 N4 2+)n,n(O20 V8 2-)
;
_journal_coden_Cambridge 9
_journal_volume 46
_journal_year 2007
_journal_page_first 6440
_journal_name_full 'Inorg.Chem. '
loop_
_publ_author_name
"Bangbo Yan"
"P.A.Maggard"
_chemical_name_systematic
;
catena-(bis(\m~2~-4,4'-Bipyridine-N,N')-di-silver 
octakis(\m~3~-oxo)-tetrakis(\m~2~-oxo)-octaoxo-octa-vanadium)
;
_cell_volume    787.326
_exptl_crystal_density_diffrn 2.648
_exptl_crystal_description 'plate'
_diffrn_ambient_temperature 273
#These two values have been output from a single CSD field.
_refine_ls_R_factor_gt 0.0787
_refine_ls_wR_factor_gt 0.0787
_symmetry_cell_setting triclinic
_symmetry_space_group_name_H-M 'P -1'
_symmetry_Int_Tables_number 2
loop_
_symmetry_equiv_pos_site_id
_symmetry_equiv_pos_as_xyz
1 x,y,z
2 -x,-y,-z
_cell_length_a 3.5731(4)
_cell_length_b 10.4293(11)
_cell_length_c 21.196(2)
_cell_angle_alpha 89.031(5)
_cell_angle_beta 89.322(5)
_cell_angle_gamma 85.546(5)
_cell_formula_units_Z 1
loop_
_atom_type_symbol
_atom_type_radius_bond
C 0.68
H 0.23
Ag 1.57
N 0.68
O 0.68
V 1.28
loop_
_atom_site_label
_atom_site_type_symbol
_atom_site_fract_x
_atom_site_fract_y
_atom_site_fract_z
Ag1 Ag 0.9860(4) 0.94686(14) 0.25214(5)
V1 V 0.7291(6) 0.5672(2) 0.28484(10)
V2 V 1.2739(6) 0.3913(2) 0.20798(10)
V3 V 1.2455(6) 0.4921(2) 0.06019(10)
V4 V 0.7597(6) 0.4867(2) 0.44038(10)
O1 O 0.758(2) 0.4677(9) 0.0349(4)
O2 O 1.209(3) 0.6228(9) 0.0963(5)
O3 O 1.273(2) 0.3741(8) 0.1214(4)
O4 O 0.761(2) 0.4477(10) 0.2098(4)
O5 O 0.245(2) 0.5110(12) 0.2837(4)
O6 O 0.731(2) 0.5851(9) 0.3715(4)
O7 O 0.800(3) 0.3439(10) 0.4173(5)
O8 O 0.247(2) 0.5192(10) 0.4632(4)
O9 O 0.695(3) 0.7116(9) 0.2589(4)
O10 O 1.306(3) 0.2471(9) 0.2341(4)
N1 N 0.807(3) 0.9665(11) 0.1577(5)
N2 N 1.174(3) 0.9630(12) 0.3458(5)
C1 C 0.693(4) 0.8661(14) 0.1262(6)
H1 H 0.68840 0.78640 0.14650
C2 C 0.583(4) 0.8797(13) 0.0649(6)
H2 H 0.51520 0.80760 0.04380
C3 C 0.569(4) 0.9943(16) 0.0333(6)
C4 C 0.680(4) 1.0982(12) 0.0659(7)
H3 H 0.67710 1.17920 0.04690
C5 C 0.793(4) 1.0790(14) 0.1268(7)
H4 H 0.86530 1.14980 0.14830
C6 C 1.234(4) 0.8604(14) 0.3859(7)
H5 H 1.18640 0.77920 0.37200
C7 C 1.361(4) 0.8721(13) 0.4456(6)
H6 H 1.40150 0.79950 0.47150
C8 C 1.430(4) 0.9904(13) 0.4678(6)
C9 C 1.359(4) 1.0978(12) 0.4258(7)
H7 H 1.40100 1.18020 0.43870
C10 C 1.232(4) 1.0795(14) 0.3673(7)
H8 H 1.18330 1.15070 0.34090
Ag1A Ag 0.0140(4) 1.05314(14) -0.25214(5)
Ag1A* Ag 2.0140(4) 1.05314(14) 0.74786(5)
V1* V 1.7291(6) 0.5672(2) 0.28484(10)
V1** V -0.2709(6) 0.5672(2) 0.28484(10)
V2* V 0.2739(6) 0.3913(2) 0.20798(10)
V2** V 2.2739(6) 0.3913(2) 0.20798(10)
V3* V 0.2455(6) 0.4921(2) 0.06019(10)
V3A V 0.7545(6) 0.5079(2) -0.06019(10)
V3** V 2.2455(6) 0.4921(2) 0.06019(10)
V3A* V 1.7545(6) 0.5079(2) -0.06019(10)
V4* V 1.7597(6) 0.4867(2) 0.44038(10)
V4** V -0.2403(6) 0.4867(2) 0.44038(10)
V4A V 0.2403(6) 0.5133(2) 0.55962(10)
V4A* V 1.2403(6) 0.5133(2) 0.55962(10)
O1* O 1.758(2) 0.4677(9) 0.0349(4)
O1A O 1.242(2) 0.5323(9) -0.0349(4)
O1** O -0.242(2) 0.4677(9) 0.0349(4)
O1A* O 0.242(2) 0.5323(9) -0.0349(4)
O2* O 0.209(3) 0.6228(9) 0.0963(5)
O3* O 0.273(2) 0.3741(8) 0.1214(4)
O4* O 1.761(2) 0.4477(10) 0.2098(4)
O4** O -0.239(2) 0.4477(10) 0.2098(4)
O5* O 1.245(2) 0.5110(12) 0.2837(4)
O5** O 2.245(2) 0.5110(12) 0.2837(4)
O6* O 1.731(2) 0.5851(9) 0.3715(4)
O7* O 1.800(3) 0.3439(10) 0.4173(5)
O8* O 1.247(2) 0.5192(10) 0.4632(4)
O8A O 0.753(2) 0.4808(10) 0.5368(4)
O8** O 2.247(2) 0.5192(10) 0.4632(4)
O8A* O 1.753(2) 0.4808(10) 0.5368(4)
O9* O 1.695(3) 0.7116(9) 0.2589(4)
O10* O 0.306(3) 0.2471(9) 0.2341(4)
N1A N 0.193(3) 1.0335(11) -0.1577(5)
N2A N 1.826(3) 1.0370(12) 0.6542(5)
N2A* N -0.174(3) 1.0370(12) -0.3458(5)
C1A C 0.307(4) 1.1339(14) -0.1262(6)
H1A H 0.31160 1.21360 -0.14650
C2A C 0.417(4) 1.1203(13) -0.0649(6)
H2A H 0.48480 1.19240 -0.04380
C3A C 0.431(4) 1.0057(16) -0.0333(6)
C4A C 0.320(4) 0.9018(12) -0.0659(7)
H3A H 0.32290 0.82080 -0.04690
C5A C 0.207(4) 0.9210(14) -0.1268(7)
H4A H 0.13470 0.85020 -0.14830
C6A C 1.766(4) 1.1396(14) 0.6141(7)
H5A H 1.81360 1.22080 0.62800
C7A C 1.639(4) 1.1279(13) 0.5544(6)
H6A H 1.59850 1.20050 0.52850
C8A C 1.570(4) 1.0096(13) 0.5322(6)
C9A C 1.641(4) 0.9022(12) 0.5742(7)
H7A H 1.59900 0.81980 0.56130
C10A C 1.768(4) 0.9205(14) 0.6327(7)
H8A H 1.81670 0.84930 0.65910
#END
