
#######################################################################
#
#                 Cambridge Crystallographic Data Centre
#                                CCDC
#
#######################################################################
#
# If this CIF has been generated from an entry in the Cambridge
# Structural Database, then it will include bibliographic, chemical,
# crystal, experimental, refinement or atomic coordinate data resulting
# from the CCDC's data processing and validation procedures.
#
#######################################################################

data_CSD_CIF_WIMMAH
_audit_creation_date 2008-01-08
_audit_creation_method CSD-ConQuest-V1
_database_code_CSD WIMMAH
_database_code_depnum_ccdc_archive 'CCDC 613135'
_chemical_formula_sum 'C48 H60 N4 O42 U4'
_chemical_formula_moiety
;
(C48 H24 O32 U4 4-)n,4n(H4 N1 1+),10n(H2 O1)
;
_journal_coden_Cambridge 9
_journal_volume 46
_journal_year 2007
_journal_page_first 6594
_journal_name_full 'Inorg.Chem. '
loop_
_publ_author_name
"Yong Bok Go"
"Xiqu Wang"
"A.J.Jacobson"
_chemical_name_systematic
;
catena-(tetrakis(Ammonium) 
hexakis(\m~2~-1,4-benzenedicarboxylato-O,O',O'',O''')-octaoxo-tetra-uranium(vi
) decahydrate)
;
_cell_volume   1677.536
_exptl_crystal_colour 'yellow'
_exptl_crystal_density_diffrn 2.284
_exptl_crystal_description 'block'
_diffrn_ambient_temperature 293
_refine_special_details
;
Two of the water molecule sites are disordered.

;
#These two values have been output from a single CSD field.
_refine_ls_R_factor_gt 0.0275
_refine_ls_wR_factor_gt 0.0275
_symmetry_cell_setting triclinic
_symmetry_space_group_name_H-M 'P -1'
_symmetry_Int_Tables_number 2
loop_
_symmetry_equiv_pos_site_id
_symmetry_equiv_pos_as_xyz
1 x,y,z
2 -x,-y,-z
_cell_length_a 10.453(8)
_cell_length_b 12.316(9)
_cell_length_c 13.441(10)
_cell_angle_alpha 78.490(11)
_cell_angle_beta 82.169(13)
_cell_angle_gamma 85.569(13)
_cell_formula_units_Z 1
loop_
_atom_type_symbol
_atom_type_radius_bond
C 0.68
H 0.23
N 0.68
O 0.68
U 1.46
loop_
_atom_site_label
_atom_site_type_symbol
_atom_site_fract_x
_atom_site_fract_y
_atom_site_fract_z
U1 U -0.206339(18) 0.338425(15) 0.086635(15)
U2 U 0.603655(18) 0.187015(14) 0.591652(14)
O1 O -0.0607(4) 0.3937(3) 0.1909(3)
O2 O -0.0987(4) 0.2172(3) 0.2275(3)
O3 O -0.2653(4) 0.1422(3) 0.1063(3)
O4 O -0.3435(4) 0.2611(3) -0.0163(3)
O5 O -0.3076(4) 0.4773(3) -0.0380(3)
O6 O -0.1860(4) 0.5432(3) 0.0527(3)
O7 O 0.3929(4) 0.1409(3) 0.5548(3)
O8 O 0.4552(4) 0.3049(3) 0.4810(4)
O9 O 0.6916(4) 0.3698(3) 0.5092(4)
O10 O 0.8098(4) 0.2576(3) 0.6101(4)
O11 O -0.2746(4) 1.0588(3) -0.2857(3)
O12 O -0.4563(4) 1.0025(3) -0.3141(3)
O13 O -0.0758(4) 0.3166(4) -0.0063(3)
O14 O -0.3361(4) 0.3570(3) 0.1813(3)
O15 O 0.5263(4) 0.2467(3) 0.6939(3)
O16 O 0.6817(4) 0.1296(4) 0.4891(3)
C1 C -0.0393(5) 0.2981(4) 0.2414(4)
C2 C 0.0595(5) 0.2810(4) 0.3148(4)
C3 C 0.1389(5) 0.3672(4) 0.3128(4)
H1 H 0.12500 0.43580 0.27100
C4 C 0.2385(5) 0.3508(4) 0.3732(4)
H2 H 0.29150 0.40850 0.37160
C5 C 0.2598(5) 0.2497(4) 0.4356(4)
C6 C 0.1788(5) 0.1637(4) 0.4393(4)
H3 H 0.19180 0.09560 0.48220
C7 C 0.0791(5) 0.1797(4) 0.3794(4)
H4 H 0.02490 0.12240 0.38230
C8 C 0.3743(5) 0.2309(4) 0.4934(4)
C9 C -0.2590(5) 0.5600(4) -0.0168(4)
C10 C -0.2889(5) 0.6731(4) -0.0743(4)
C11 C -0.2154(5) 0.7613(4) -0.0714(4)
H5 H -0.15190 0.75210 -0.02790
C12 C -0.2376(5) 0.8635(4) -0.1341(4)
H6 H -0.18810 0.92270 -0.13300
C13 C -0.3337(5) 0.8773(4) -0.1985(4)
C14 C -0.4099(5) 0.7893(4) -0.1979(4)
H7 H -0.47620 0.79920 -0.23900
C15 C -0.3875(5) 0.6874(4) -0.1366(4)
H8 H -0.43810 0.62850 -0.13680
C16 C -0.3560(5) 0.9844(4) -0.2690(4)
C17 C -0.3381(5) 0.1640(4) 0.0355(4)
C18 C -0.4195(5) 0.0782(4) 0.0160(4)
C19 C -0.4138(5) -0.0307(4) 0.0713(4)
H9 H -0.35560 -0.05090 0.11920
C20 C -0.5076(5) 0.1078(4) -0.0559(4)
H10 H -0.51250 0.17990 -0.09320
C21 C 1.0047(5) 0.4092(5) 0.5791(5)
H11 H 1.00810 0.34840 0.63250
C22 C 0.9018(5) 0.4263(4) 0.5227(4)
C23 C 0.7953(6) 0.3476(5) 0.5476(5)
C24 C 0.8970(6) 0.5174(5) 0.4437(5)
H12 H 0.82740 0.52930 0.40580
N1 N 0.7463(5) 0.0276(4) 0.3066(4)
N2 N 0.5734(7) 0.5101(5) 0.3292(5)
O17 O 0.6350(7) 0.4191(4) 0.7824(4)
O18 O 0.7818(8) 0.6414(6) 0.2237(5)
O19? O 0.998(7) 0.033(3) 0.002(6)
O20 O 0.895(3) 0.166(3) 0.837(2)
O21 O 0.875(5) 0.846(3) 0.237(7)
O22? O 0.887(4) 0.856(2) 0.165(3)
O23 O 0.0041(8) 0.9174(8) 0.3245(9)
U1A U -0.793661(18) -0.338425(15) -0.086635(15)
U1* U 0.793661(18) -0.661575(15) 1.086635(15)
U2* U -0.396345(18) 1.187015(14) -0.408348(14)
U2A U 1.396345(18) 0.812985(14) 0.408348(14)
U2A* U -1.603655(18) -0.187015(14) -0.591652(14)
O1A O -0.9393(4) -0.3937(3) -0.1909(3)
O2A O -0.9013(4) -0.2172(3) -0.2275(3)
O3A O -0.7347(4) -0.1422(3) -0.1063(3)
O4A O -0.6565(4) -0.2611(3) 0.0163(3)
O5* O 0.6924(4) -0.5227(3) 0.9620(3)
O5A O -0.6924(4) -0.4773(3) 0.0380(3)
O6* O 0.8140(4) -0.4568(3) 1.0527(3)
O6A O -0.8140(4) -0.5432(3) -0.0527(3)
O7A O -1.3929(4) -0.1409(3) -0.5548(3)
O7* O -0.6071(4) 1.1409(3) -0.4452(3)
O8A O -1.4552(4) -0.3049(3) -0.4810(4)
O8* O -0.5448(4) 1.3049(3) -0.5190(4)
O9A O 1.3084(4) 0.6302(3) 0.4908(4)
O9* O -0.3084(4) 1.3698(3) -0.4908(4)
O10A O 1.1902(4) 0.7424(3) 0.3899(4)
O10* O -0.1902(4) 1.2576(3) -0.3899(4)
O11* O 0.7254(4) 0.0588(3) 0.7143(3)
O12* O 0.5437(4) 0.0025(3) 0.6859(3)
O13A O -0.9242(4) -0.3166(4) 0.0063(3)
O14A O -0.6639(4) -0.3570(3) -0.1813(3)
O15* O -0.4737(4) 1.2467(3) -0.3061(3)
O16* O -0.3183(4) 1.1296(4) -0.5109(3)
C1A C -0.9607(5) -0.2981(4) -0.2414(4)
C2A C -1.0595(5) -0.2810(4) -0.3148(4)
C3A C -1.1389(5) -0.3672(4) -0.3128(4)
H1A H -1.12500 -0.43580 -0.27100
C4A C -1.2385(5) -0.3508(4) -0.3732(4)
H2A H -1.29150 -0.40850 -0.37160
C5A C -1.2598(5) -0.2497(4) -0.4356(4)
C6A C -1.1788(5) -0.1637(4) -0.4393(4)
H3A H -1.19180 -0.09560 -0.48220
C7A C -1.0791(5) -0.1797(4) -0.3794(4)
H4A H -1.02490 -0.12240 -0.38230
C8A C -1.3743(5) -0.2309(4) -0.4934(4)
C9* C 0.7410(5) -0.4400(4) 0.9832(4)
C10* C 0.7111(5) -0.3269(4) 0.9257(4)
C11* C 0.7846(5) -0.2387(4) 0.9286(4)
H5* H 0.84810 -0.24790 0.97210
C12* C 0.7624(5) -0.1365(4) 0.8659(4)
H6* H 0.81190 -0.07730 0.86700
C13* C 0.6663(5) -0.1227(4) 0.8015(4)
C14* C 0.5901(5) -0.2107(4) 0.8021(4)
H7* H 0.52380 -0.20080 0.76100
C15* C 0.6125(5) -0.3126(4) 0.8634(4)
H8* H 0.56190 -0.37150 0.86320
C16* C 0.6440(5) -0.0156(4) 0.7310(4)
C17A C -0.6619(5) -0.1640(4) -0.0355(4)
C18A C -0.5805(5) -0.0782(4) -0.0160(4)
C19A C -0.5862(5) 0.0307(4) -0.0713(4)
H9A H -0.64440 0.05090 -0.11920
C20A C -0.4924(5) -0.1078(4) 0.0559(4)
H10A H -0.48750 -0.17990 0.09320
C21A C 0.9953(5) 0.5908(5) 0.4209(5)
H11A H 0.99190 0.65160 0.36750
C22A C 1.0982(5) 0.5737(4) 0.4773(4)
C23A C 1.2047(6) 0.6524(5) 0.4524(5)
C24A C 1.1030(6) 0.4826(5) 0.5563(5)
H12A H 1.17260 0.47070 0.59420
#END
