
#######################################################################
#
#                 Cambridge Crystallographic Data Centre
#                                CCDC
#
#######################################################################
#
# If this CIF has been generated from an entry in the Cambridge
# Structural Database, then it will include bibliographic, chemical,
# crystal, experimental, refinement or atomic coordinate data resulting
# from the CCDC's data processing and validation procedures.
#
#######################################################################

data_CSD_CIF_WIMWIA
_audit_creation_date 2013-10-18
_audit_creation_method CSD-ConQuest-V1
_database_code_CSD WIMWIA
_database_code_depnum_ccdc_archive 'CCDC 921235'
_chemical_formula_sum 'C44 H48 N2 O16 Zn3'
_chemical_formula_moiety
;
(C6 H16 N1 1+)2n,n(C32 H16 O16 Zn3 2-)
;
_journal_coden_Cambridge 208
_journal_volume 206
_journal_year 2013
_journal_page_first 27
_journal_name_full 'J.Solid State Chem. '
loop_
_publ_author_name
"Junkuo Gao"
"Kaiqi Ye"
"Mi He"
"Wei-Wei Xiong"
"Wenfang Cao"
"Zhi Yi Lee"
"Yue Wang"
"Tom Wu"
"Fengwei Huo"
"Xiaogang Liu"
"Qichun Zhang"
_chemical_name_systematic
;
catena-[bis(Triethylammonium) 
bis(\m~4~-isophthalato)-bis(\m~3~-isophthalato)-tri-zinc]
;
_cell_volume   4764.652
_exptl_crystal_colour 'white'
_exptl_crystal_density_diffrn 1.474
_exptl_crystal_description 'Block'
_diffrn_ambient_temperature 103
#These two values have been output from a single CSD field.
_refine_ls_R_factor_gt 0.0459
_refine_ls_wR_factor_gt 0.0459
_symmetry_cell_setting orthorhombic
_symmetry_space_group_name_H-M 'P b c a'
_symmetry_Int_Tables_number 61
loop_
_symmetry_equiv_pos_site_id
_symmetry_equiv_pos_as_xyz
1 x,y,z
2 1/2-x,-y,1/2+z
3 -x,1/2+y,1/2-z
4 1/2+x,1/2-y,-z
5 -x,-y,-z
6 -1/2+x,y,-1/2-z
7 x,-1/2-y,-1/2+z
8 -1/2-x,-1/2+y,z
_cell_length_a 14.085(3)
_cell_length_b 14.019(3)
_cell_length_c 24.130(5)
_cell_angle_alpha 90
_cell_angle_beta 90
_cell_angle_gamma 90
_cell_formula_units_Z 4
loop_
_atom_type_symbol
_atom_type_radius_bond
C 0.68
H 0.23
N 0.68
O 0.68
Zn 1.22
loop_
_atom_site_label
_atom_site_type_symbol
_atom_site_fract_x
_atom_site_fract_y
_atom_site_fract_z
Zn1 Zn 0.43961(6) 0.09067(6) 0.37345(3)
Zn2 Zn 0.50000 0.00000 0.50000
O1 O 0.5491(4) 0.1640(4) 0.3941(2)
O2 O 0.5910(4) 0.1133(4) 0.4778(2)
O3 O 0.8070(5) 0.3252(5) 0.5917(3)
O4 O 0.8789(4) 0.4416(4) 0.5504(2)
O5 O 0.4798(4) -0.0417(4) 0.3557(2)
O6 O 0.5360(4) -0.0860(4) 0.4383(2)
O7 O 0.5933(4) -0.3867(4) 0.2037(2)
O8 O 0.5633(4) -0.2317(4) 0.1931(2)
C1 C 0.6506(5) 0.2594(5) 0.4460(3)
C2 C 0.7022(5) 0.2786(5) 0.4937(3)
H1 H 0.70030 0.23520 0.52290
C3 C 0.7566(6) 0.3611(5) 0.4992(3)
C4 C 0.7559(6) 0.4264(6) 0.4572(3)
H2 H 0.78930 0.48320 0.46100
C5 C 0.7061(6) 0.4086(6) 0.4091(4)
H3 H 0.70730 0.45300 0.38040
C6 C 0.6547(6) 0.3263(6) 0.4032(3)
H4 H 0.62220 0.31480 0.37030
C7 C 0.5920(6) 0.1716(6) 0.4390(4)
C8 C 0.8172(6) 0.3762(7) 0.5508(4)
C9 C 0.5554(6) -0.1909(5) 0.3638(3)
C10 C 0.5522(5) -0.2062(6) 0.3069(3)
H5 H 0.52740 -0.15890 0.28400
C11 C 0.5848(5) -0.2897(6) 0.2836(3)
C12 C 0.6209(7) -0.3585(6) 0.3177(4)
H6 H 0.64210 -0.41580 0.30280
C13 C 0.6262(8) -0.3436(7) 0.3740(4)
H7 H 0.65380 -0.38960 0.39660
C14 C 0.5908(7) -0.2608(6) 0.3971(4)
H8 H 0.59110 -0.25280 0.43540
C15 C 0.5208(5) -0.0992(6) 0.3880(4)
C16 C 0.5804(5) -0.3021(7) 0.2225(3)
N1 N 0.6576(12) -0.4274(9) 0.6660(7)
H9 H 0.62900 -0.37200 0.67640
C17 C 0.7512(18) -0.4123(18) 0.6840(16)
H10 H 0.77350 -0.47550 0.69390
H11 H 0.78530 -0.39560 0.65040
C18 C 0.7876(14) -0.3570(17) 0.7216(13)
H12 H 0.85550 -0.36230 0.72090
H13 H 0.76440 -0.37560 0.75740
H14 H 0.76960 -0.29210 0.71430
C19 C 0.665(3) -0.4130(17) 0.5941(16)
H15 H 0.67690 -0.34740 0.58310
H16 H 0.71180 -0.45500 0.57710
C20 C 0.5897(19) -0.437(3) 0.5867(16)
H17 H 0.57610 -0.43490 0.54780
H18 H 0.54720 -0.39450 0.60600
H19 H 0.58150 -0.50050 0.60030
C21 C 0.6087(13) -0.5013(14) 0.7051(13)
H20 H 0.61540 -0.47970 0.74310
H21 H 0.54140 -0.50320 0.69660
C22 C 0.6446(12) -0.5920(15) 0.7011(14)
H22 H 0.60630 -0.63470 0.72270
H23 H 0.70860 -0.59280 0.71470
H24 H 0.64390 -0.61190 0.66300
Zn1D Zn 0.56039(6) -0.09067(6) 0.62655(3)
O1D O 0.4509(4) -0.1640(4) 0.6059(2)
O2D O 0.4090(4) -0.1133(4) 0.5222(2)
O3D O 0.1930(5) -0.3252(5) 0.4083(3)
O4D O 0.1211(4) -0.4416(4) 0.4496(2)
O5D O 0.5202(4) 0.0417(4) 0.6443(2)
O6D O 0.4640(4) 0.0860(4) 0.5617(2)
O7D O 0.4067(4) 0.3867(4) 0.7963(2)
O8D O 0.4367(4) 0.2317(4) 0.8069(2)
C1D C 0.3494(5) -0.2594(5) 0.5540(3)
C2D C 0.2978(5) -0.2786(5) 0.5063(3)
H1D H 0.29970 -0.23520 0.47710
C3D C 0.2434(6) -0.3611(5) 0.5008(3)
C4D C 0.2441(6) -0.4264(6) 0.5428(3)
H2D H 0.21070 -0.48320 0.53900
C5D C 0.2939(6) -0.4086(6) 0.5909(4)
H3D H 0.29270 -0.45300 0.61960
C6D C 0.3453(6) -0.3263(6) 0.5968(3)
H4D H 0.37780 -0.31480 0.62970
C7D C 0.4080(6) -0.1716(6) 0.5610(4)
C8D C 0.1828(6) -0.3762(7) 0.4492(4)
C9D C 0.4446(6) 0.1909(5) 0.6362(3)
C10D C 0.4478(5) 0.2062(6) 0.6931(3)
H5D H 0.47260 0.15890 0.71600
C11D C 0.4152(5) 0.2897(6) 0.7164(3)
C12D C 0.3791(7) 0.3585(6) 0.6823(4)
H6D H 0.35790 0.41580 0.69720
C13D C 0.3738(8) 0.3436(7) 0.6260(4)
H7D H 0.34620 0.38960 0.60340
C14D C 0.4092(7) 0.2608(6) 0.6029(4)
H8D H 0.40890 0.25280 0.56460
C15D C 0.4792(5) 0.0992(6) 0.6120(4)
C16D C 0.4196(5) 0.3021(7) 0.7775(3)
Zn1B Zn 0.56039(6) -0.40933(6) 0.12655(3)
Zn1C Zn 0.93961(6) 0.40933(6) 0.62655(3)
Zn1F Zn 0.43961(6) 0.40933(6) 0.87345(3)
Zn1G Zn 0.06039(6) -0.40933(6) 0.37345(3)
Zn2C Zn 0.00000 -0.50000 0.50000
Zn2C* Zn 1.00000 0.50000 0.50000
O3C O 0.3070(5) 0.1748(5) 0.4083(3)
O3G O 0.6930(5) -0.1748(5) 0.5917(3)
O4C O 0.3789(4) 0.0584(4) 0.4496(2)
O4G O 0.6211(4) -0.0584(4) 0.5504(2)
O7B O 0.4067(4) 0.1133(4) 0.2963(2)
O7F O 0.5933(4) -0.1133(4) 0.7037(2)
#END
