
#######################################################################
#
#                 Cambridge Crystallographic Data Centre
#                                CCDC
#
#######################################################################
#
# If this CIF has been generated from an entry in the Cambridge
# Structural Database, then it will include bibliographic, chemical,
# crystal, experimental, refinement or atomic coordinate data resulting
# from the CCDC's data processing and validation procedures.
#
#######################################################################

data_CSD_CIF_WIMWEW
_audit_creation_date 2013-10-18
_audit_creation_method CSD-ConQuest-V1
_database_code_CSD WIMWEW
_database_code_depnum_ccdc_archive 'CCDC 921236'
_chemical_formula_sum 'C44 H48 Co3 N2 O16'
_chemical_formula_moiety
;
(C6 H16 N1 1+)2n,n(C32 H16 Co3 O16 2-)
;
_journal_coden_Cambridge 208
_journal_volume 206
_journal_year 2013
_journal_page_first 27
_journal_name_full 'J.Solid State Chem. '
loop_
_publ_author_name
"Junkuo Gao"
"Kaiqi Ye"
"Mi He"
"Wei-Wei Xiong"
"Wenfang Cao"
"Zhi Yi Lee"
"Yue Wang"
"Tom Wu"
"Fengwei Huo"
"Xiaogang Liu"
"Qichun Zhang"
_chemical_name_systematic
;
catena-[bis(Triethylammonium) 
bis(\m~4~-isophthalato)-bis(\m~3~-isophthalato)-tri-cobalt]
;
_cell_volume   4828.197
_exptl_crystal_colour 'purple'
_exptl_crystal_density_diffrn 1.427
_exptl_crystal_description 'Block'
_diffrn_ambient_temperature 103
#These two values have been output from a single CSD field.
_refine_ls_R_factor_gt 0.0707
_refine_ls_wR_factor_gt 0.0707
_symmetry_cell_setting orthorhombic
_symmetry_space_group_name_H-M 'P b c a'
_symmetry_Int_Tables_number 61
loop_
_symmetry_equiv_pos_site_id
_symmetry_equiv_pos_as_xyz
1 x,y,z
2 1/2-x,-y,1/2+z
3 -x,1/2+y,1/2-z
4 1/2+x,1/2-y,-z
5 -x,-y,-z
6 -1/2+x,y,-1/2-z
7 x,-1/2-y,-1/2+z
8 -1/2-x,-1/2+y,z
_cell_length_a 13.9335(6)
_cell_length_b 14.1020(6)
_cell_length_c 24.5722(11)
_cell_angle_alpha 90
_cell_angle_beta 90
_cell_angle_gamma 90
_cell_formula_units_Z 4
loop_
_atom_type_symbol
_atom_type_radius_bond
C 0.68
H 0.23
Co 1.26
N 0.68
O 0.68
loop_
_atom_site_label
_atom_site_type_symbol
_atom_site_fract_x
_atom_site_fract_y
_atom_site_fract_z
Co1 Co 0.43012(4) 0.09594(4) 0.62672(2)
Co2 Co 0.50000 0.00000 0.50000
O1 O 0.3039(2) 0.1573(3) 0.59249(13)
O2 O 0.3811(2) 0.0538(2) 0.54455(11)
O3 O 0.0860(2) 0.3821(2) 0.48295(13)
O4 O 0.0384(3) 0.3315(3) 0.40122(14)
O5 O 0.4675(3) -0.0369(2) 0.64380(12)
O6 O 0.5411(2) -0.0745(2) 0.56599(12)
O7 O 0.5589(3) -0.2245(3) 0.80657(13)
O8 O 0.5854(3) -0.3779(2) 0.79436(13)
C1 C 0.2507(3) 0.1325(3) 0.50050(16)
C2 C 0.1969(3) 0.2153(3) 0.49686(17)
H1 H 0.19680 0.25820 0.52560
C3 C 0.1434(3) 0.2344(3) 0.45045(17)
C4 C 0.1429(4) 0.1688(3) 0.40796(19)
H2 H 0.10750 0.18120 0.37660
C5 C 0.1946(4) 0.0860(3) 0.4122(2)
H3 H 0.19260 0.04210 0.38400
C6 C 0.2494(3) 0.0673(3) 0.45792(19)
H4 H 0.28510 0.01170 0.46020
C7 C 0.3151(3) 0.1146(3) 0.54806(16)
C8 C 0.0847(3) 0.3242(3) 0.44506(17)
C9 C 0.5529(4) -0.1814(3) 0.63812(17)
C10 C 0.5467(3) -0.1972(3) 0.69384(15)
H5 H 0.51900 -0.15150 0.71610
C11 C 0.5815(4) -0.2802(3) 0.71656(17)
C12 C 0.6222(6) -0.3484(4) 0.6833(2)
H6 H 0.64530 -0.40450 0.69820
C13 C 0.6287(8) -0.3327(5) 0.6275(2)
H7 H 0.65550 -0.37890 0.60520
C14 C 0.5955(6) -0.2489(4) 0.6049(2)
H8 H 0.60170 -0.23790 0.56780
C15 C 0.5173(3) -0.0906(3) 0.61367(16)
C16 C 0.5748(3) -0.2940(3) 0.77724(17)
N1 N 0.8452(10) 0.0642(10) 0.3244(5)
H9 H 0.87540 0.12010 0.31750
C17 C 0.8917(15) -0.0101(13) 0.2833(8)
H10 H 0.88410 0.01050 0.24590
H11 H 0.95940 -0.01900 0.29090
C18 C 0.7183(15) 0.1195(14) 0.2703(8)
H12 H 0.65120 0.13400 0.27300
H13 H 0.72760 0.06990 0.24410
H14 H 0.75280 0.17510 0.25900
C19 C 0.8700(12) 0.0916(11) 0.4191(7)
H15 H 0.89620 0.07060 0.45320
H16 H 0.80150 0.09700 0.42220
H17 H 0.89680 0.15220 0.40990
C20 C 0.758(2) 0.085(2) 0.3294(10)
H18 H 0.75030 0.13510 0.35600
H19 H 0.72220 0.03000 0.34180
C21 C 0.836(2) -0.100(2) 0.2940(12)
H20 H 0.85790 -0.14870 0.27000
H21 H 0.76890 -0.08810 0.28770
H22 H 0.84540 -0.11890 0.33100
C22 C 0.893(2) 0.025(2) 0.3779(11)
H23 H 0.86750 -0.03710 0.38690
H24 H 0.96200 0.01980 0.37350
Co1D Co 0.56988(4) -0.09594(4) 0.37328(2)
O1D O 0.6961(2) -0.1573(3) 0.40751(13)
O2D O 0.6189(2) -0.0538(2) 0.45545(11)
O3D O 0.9140(2) -0.3821(2) 0.51705(13)
O4D O 0.9616(3) -0.3315(3) 0.59878(14)
O5D O 0.5325(3) 0.0369(2) 0.35620(12)
O6D O 0.4589(2) 0.0745(2) 0.43401(12)
O7D O 0.4411(3) 0.2245(3) 0.19343(13)
O8D O 0.4146(3) 0.3779(2) 0.20564(13)
C1D C 0.7493(3) -0.1325(3) 0.49950(16)
C2D C 0.8031(3) -0.2153(3) 0.50314(17)
H1D H 0.80320 -0.25820 0.47440
C3D C 0.8566(3) -0.2344(3) 0.54955(17)
C4D C 0.8571(4) -0.1688(3) 0.59204(19)
H2D H 0.89250 -0.18120 0.62340
C5D C 0.8054(4) -0.0860(3) 0.5878(2)
H3D H 0.80740 -0.04210 0.61600
C6D C 0.7506(3) -0.0673(3) 0.54208(19)
H4D H 0.71490 -0.01170 0.53980
C7D C 0.6849(3) -0.1146(3) 0.45194(16)
C8D C 0.9153(3) -0.3242(3) 0.55494(17)
C9D C 0.4471(4) 0.1814(3) 0.36188(17)
C10D C 0.4533(3) 0.1972(3) 0.30616(15)
H5D H 0.48100 0.15150 0.28390
C11D C 0.4185(4) 0.2802(3) 0.28344(17)
C12D C 0.3778(6) 0.3484(4) 0.3167(2)
H6D H 0.35470 0.40450 0.30180
C13D C 0.3713(8) 0.3327(5) 0.3725(2)
H7D H 0.34450 0.37890 0.39480
C14D C 0.4045(6) 0.2489(4) 0.3951(2)
H8D H 0.39830 0.23790 0.43220
C15D C 0.4827(3) 0.0906(3) 0.38633(16)
C16D C 0.4252(3) 0.2940(3) 0.22276(17)
Co1B Co 0.56988(4) -0.40406(4) 0.87328(2)
Co1C Co -0.06988(4) 0.40406(4) 0.37328(2)
Co1F Co 0.43012(4) 0.40406(4) 0.12672(2)
Co1G Co 1.06988(4) -0.40406(4) 0.62672(2)
Co2C Co 0.00000 0.50000 0.50000
Co2C* Co 1.00000 -0.50000 0.50000
O3C O 0.5860(2) 0.1179(2) 0.51705(13)
O3G O 0.4140(2) -0.1179(2) 0.48295(13)
O4C O 0.5384(3) 0.1685(3) 0.59878(14)
O4G O 0.4616(3) -0.1685(3) 0.40122(14)
O8B O 0.4146(3) 0.1221(2) 0.70564(13)
O8F O 0.5854(3) -0.1221(2) 0.29436(13)
#END
