
#######################################################################
#
#                 Cambridge Crystallographic Data Centre
#                                CCDC
#
#######################################################################
#
# If this CIF has been generated from an entry in the Cambridge
# Structural Database, then it will include bibliographic, chemical,
# crystal, experimental, refinement or atomic coordinate data resulting
# from the CCDC's data processing and validation procedures.
#
#######################################################################

data_CSD_CIF_WIMWOG
_audit_creation_date 2013-10-18
_audit_creation_method CSD-ConQuest-V1
_database_code_CSD WIMWOG
_database_code_depnum_ccdc_archive 'CCDC 921234'
_chemical_formula_sum 'C44 H48 Fe3 N2 O16'
_chemical_formula_moiety
;
(C6 H16 N1 1+)2n,n(C32 H16 Fe3 O16 2-)
;
_journal_coden_Cambridge 208
_journal_volume 206
_journal_year 2013
_journal_page_first 27
_journal_name_full 'J.Solid State Chem. '
loop_
_publ_author_name
"Junkuo Gao"
"Kaiqi Ye"
"Mi He"
"Wei-Wei Xiong"
"Wenfang Cao"
"Zhi Yi Lee"
"Yue Wang"
"Tom Wu"
"Fengwei Huo"
"Xiaogang Liu"
"Qichun Zhang"
_chemical_name_systematic
;
catena-[bis(Triethylammonium) 
(\m~5~-isophthalato-O,O,O',O',O'',O''')-(\m~5~-isophthalato-O,O,O',O'',O'',O''
')-(\m~4~-isophthalato-O,O',O'',O''')-(\m~2~-isophthalato-O,O')-tri-iron]
;
_cell_volume   4489.501
_exptl_crystal_colour 'yellow'
_exptl_crystal_density_diffrn 1.52
_exptl_crystal_description 'Block'
_diffrn_ambient_temperature 103
#These two values have been output from a single CSD field.
_refine_ls_R_factor_gt 0.0423
_refine_ls_wR_factor_gt 0.0423
_symmetry_cell_setting orthorhombic
_symmetry_space_group_name_H-M 'P c a 21'
_symmetry_Int_Tables_number 29
loop_
_symmetry_equiv_pos_site_id
_symmetry_equiv_pos_as_xyz
1 x,y,z
2 -x,-y,1/2+z
3 1/2+x,-y,z
4 1/2-x,y,1/2+z
_cell_length_a 34.8919(16)
_cell_length_b 9.5607(4)
_cell_length_c 13.4581(6)
_cell_angle_alpha 90
_cell_angle_beta 90
_cell_angle_gamma 90
_cell_formula_units_Z 4
loop_
_atom_type_symbol
_atom_type_radius_bond
C 0.68
H 0.23
Fe 1.52
N 0.68
O 0.68
loop_
_atom_site_label
_atom_site_type_symbol
_atom_site_fract_x
_atom_site_fract_y
_atom_site_fract_z
Fe1 Fe 0.496170(17) -0.39844(5) 0.53689(5)
Fe2 Fe 0.579047(16) -0.35666(5) 0.69194(4)
Fe3 Fe 0.588834(16) -0.57668(5) 0.88648(4)
O1 O 0.60107(9) -0.3917(3) 0.5485(2)
O2 O 0.54661(10) -0.4001(3) 0.4570(2)
O3 O 0.55375(9) -0.5894(3) 0.1219(2)
O4 O 0.60622(9) -0.5482(3) 0.0317(2)
O5 O 0.57818(8) -0.6134(3) 0.7264(2)
O6 O 0.53166(8) -0.4902(3) 0.6618(2)
O7 O 0.50733(10) -1.2193(3) 0.6145(2)
O8 O 0.5641(1) -1.1520(3) 0.6716(2)
O9 O 0.64267(8) -0.4996(3) 0.8526(2)
O10 O 0.63311(9) -0.3295(3) 0.7410(2)
O11 O 0.73869(12) -0.0165(4) 0.6499(4)
O12 O 0.78539(12) 0.0209(5) 0.7583(3)
O13 O 0.58873(9) -0.8264(3) 0.8930(2)
O14 O 0.53823(8) -0.6951(2) 0.91729(19)
O15 O 0.51659(10) -1.4163(3) 0.9645(2)
O16 O 0.56342(8) -1.3744(3) 0.8564(2)
C1 C 0.60545(12) -0.4248(5) 0.3744(3)
C2 C 0.58774(13) -0.4802(4) 0.2917(3)
H1 H 0.56210 -0.50640 0.29470
C3 C 0.60826(12) -0.4971(4) 0.2034(3)
C4 C 0.64587(14) -0.4599(5) 0.1989(4)
H2 H 0.65930 -0.47050 0.13970
C5 C 0.66453(16) -0.4055(7) 0.2828(4)
H3 H 0.69030 -0.38140 0.28040
C6 C 0.64337(14) -0.3887(5) 0.3696(4)
H4 H 0.65530 -0.35200 0.42560
C7 C 0.58212(14) -0.4039(4) 0.4682(3)
C8 C 0.58709(13) -0.5506(4) 0.1110(3)
C9 C 0.52158(12) -0.7348(4) 0.6778(3)
C10 C 0.53775(12) -0.8668(4) 0.6720(3)
H5 H 0.56410 -0.87820 0.67870
C11 C 0.51419(13) -0.9831(4) 0.6559(3)
C12 C 0.47441(13) -0.9662(4) 0.6524(3)
H6 H 0.45870 -1.04340 0.64230
C13 C 0.45857(13) -0.8352(4) 0.6638(3)
H7 H 0.43210 -0.82430 0.66420
C14 C 0.48210(13) -0.7203(4) 0.6748(3)
H8 H 0.47130 -0.63180 0.68020
C15 C 0.54569(11) -0.6076(4) 0.6893(3)
C16 C 0.53042(15) -1.1291(4) 0.6462(3)
C17 C 0.69068(13) -0.3267(5) 0.8325(3)
C18 C 0.70590(14) -0.2224(5) 0.7720(4)
H9 H 0.69330 -0.19800 0.71350
C19 C 0.73975(14) -0.1540(5) 0.7979(4)
C20 C 0.75856(14) -0.1905(6) 0.8843(5)
H10 H 0.78080 -0.14360 0.90250
C21 C 0.74440(16) -0.2966(6) 0.9439(5)
H11 H 0.75740 -0.32260 1.00140
C22 C 0.71030(14) -0.3644(5) 0.9170(4)
H12 H 0.70080 -0.43590 0.95690
C23 C 0.65308(12) -0.3900(5) 0.8066(3)
C24 C 0.75541(18) -0.0388(6) 0.7288(6)
C25 C 0.52784(12) -0.9412(4) 0.9010(3)
C26 C 0.54265(11) -1.0768(4) 0.8941(3)
H13 H 0.56890 -1.08980 0.88660
C27 C 0.51874(12) -1.1912(4) 0.8984(3)
C28 C 0.47955(13) -1.1715(4) 0.9047(3)
H14 H 0.46330 -1.24840 0.90820
C29 C 0.46459(13) -1.0384(4) 0.9057(3)
H15 H 0.43820 -1.02580 0.90730
C30 C 0.48838(12) -0.9238(4) 0.9045(3)
H16 H 0.47800 -0.83430 0.90590
C31 C 0.55363(13) -0.8174(4) 0.9039(3)
C32 C 0.53462(12) -1.3397(4) 0.9053(3)
N1 N 0.83270(14) 0.0465(5) 0.5988(4)
H17 H 0.80800 0.04480 0.65690
C33 C 0.83804(19) -0.1099(6) 0.5926(5)
H18 H 0.84580 -0.14440 0.65730
H19 H 0.81360 -0.15270 0.57630
C34 C 0.8664(2) -0.1537(7) 0.5191(5)
H20 H 0.86890 -0.25370 0.52040
H21 H 0.89070 -0.11170 0.53430
H22 H 0.85830 -0.12450 0.45410
C35 C 0.8150(2) 0.0998(9) 0.5039(6)
H23 H 0.83400 0.09620 0.45130
H24 H 0.79400 0.03870 0.48520
C36 C 0.8005(3) 0.2446(9) 0.5128(8)
H25 H 0.79080 0.27500 0.44970
H26 H 0.82100 0.30520 0.53320
H27 H 0.78030 0.24750 0.56130
C37 C 0.8664(2) 0.1261(7) 0.6312(6)
H28 H 0.87930 0.18770 0.58950
C38 C 0.8779(2) 0.1018(8) 0.7328(6)
H29 H 0.90070 0.15450 0.74690
H30 H 0.88300 0.00400 0.74220
H31 H 0.85780 0.13070 0.77680
H32 H 0.70510 0.10610 0.61770
N2 N 0.67516(18) 0.1367(8) 0.6115(6)
C39 C 0.6842(4) 0.1991(9) 0.5171(11)
H33 H 0.69010 0.12710 0.46880
H34 H 0.70630 0.26010 0.52360
C40 C 0.6500(8) 0.2813(16) 0.4842(13)
H35 H 0.65520 0.32420 0.42120
H36 H 0.64440 0.35240 0.53240
H37 H 0.62830 0.21990 0.47780
C41 C 0.6700(4) 0.2428(15) 0.6909(11)
H38 H 0.66200 0.19720 0.75190
H39 H 0.65020 0.30850 0.67170
C42 C 0.7084(3) 0.3224(12) 0.7085(12)
H40 H 0.70500 0.39090 0.75990
H41 H 0.71610 0.36820 0.64820
H42 H 0.72790 0.25710 0.72830
C43 C 0.6411(3) 0.0323(11) 0.6134(10)
H43 H 0.64090 -0.01810 0.67600
H44 H 0.61710 0.08290 0.60750
C44 C 0.6452(2) -0.0709(9) 0.5270(7)
H45 H 0.62420 -0.13570 0.52790
H46 H 0.66890 -0.12110 0.53350
H47 H 0.64520 -0.02050 0.46530
Fe1* Fe 0.496170(17) -1.39844(5) 0.53689(5)
Fe1A Fe 0.503830(17) -1.60156(5) 1.03689(5)
Fe1A* Fe 0.503830(17) -0.60156(5) 0.03689(5)
Fe1A** Fe 0.503830(17) -0.60156(5) 1.03689(5)
Fe2* Fe 0.579047(16) -1.35666(5) 0.69194(4)
Fe3* Fe 0.588834(16) -1.57668(5) 0.88648(4)
Fe3** Fe 0.588834(16) -0.57668(5) -0.11352(4)
O3A O 0.44625(9) -0.4106(3) 0.6219(2)
O4* O 0.60622(9) -0.5482(3) 1.0317(2)
O7* O 0.50733(10) -0.2193(3) 0.6145(2)
O8* O 0.5641(1) -0.1520(3) 0.6716(2)
O14A O 0.46177(8) -0.3049(2) 0.41729(19)
O15A O 0.48341(10) -0.5837(3) 0.4645(2)
O16* O 0.56342(8) -0.3744(3) 0.8564(2)
#END
