
#######################################################################
#
#                 Cambridge Crystallographic Data Centre
#                                CCDC
#
#######################################################################
#
# If this CIF has been generated from an entry in the Cambridge
# Structural Database, then it will include bibliographic, chemical,
# crystal, experimental, refinement or atomic coordinate data resulting
# from the CCDC's data processing and validation procedures.
#
#######################################################################

data_CSD_CIF_WIMWUM
_audit_creation_date 2013-10-18
_audit_creation_method CSD-ConQuest-V1
_database_code_CSD WIMWUM
_database_code_depnum_ccdc_archive 'CCDC 921233'
_chemical_formula_sum 'C44 H48 Cd3 N2 O16'
_chemical_formula_moiety
;
(C6 H16 N1 1+)2n,n(C32 H16 Cd3 O16 2-)
;
_journal_coden_Cambridge 208
_journal_volume 206
_journal_year 2013
_journal_page_first 27
_journal_name_full 'J.Solid State Chem. '
loop_
_publ_author_name
"Junkuo Gao"
"Kaiqi Ye"
"Mi He"
"Wei-Wei Xiong"
"Wenfang Cao"
"Zhi Yi Lee"
"Yue Wang"
"Tom Wu"
"Fengwei Huo"
"Xiaogang Liu"
"Qichun Zhang"
_chemical_name_systematic
;
catena-[bis(Triethylammonium) 
bis(\m~4~-isophthalato)-bis(\m~3~-isophthalato)-tri-cadmium]
;
_cell_volume   1133.828
_exptl_crystal_colour 'white'
_exptl_crystal_density_diffrn 1.755
_exptl_crystal_description 'Block'
_diffrn_ambient_temperature 103
#These two values have been output from a single CSD field.
_refine_ls_R_factor_gt 0.0307
_refine_ls_wR_factor_gt 0.0307
_symmetry_cell_setting triclinic
_symmetry_space_group_name_H-M 'P 1'
_symmetry_Int_Tables_number 1
loop_
_symmetry_equiv_pos_site_id
_symmetry_equiv_pos_as_xyz
1 x,y,z
_cell_length_a 9.873(2)
_cell_length_b 10.470(2)
_cell_length_c 12.138(2)
_cell_angle_alpha 100.95(3)
_cell_angle_beta 111.89(3)
_cell_angle_gamma 92.56(3)
_cell_formula_units_Z 1
loop_
_atom_type_symbol
_atom_type_radius_bond
C 0.68
H 0.23
Cd 1.44
N 0.68
O 0.68
loop_
_atom_site_label
_atom_site_type_symbol
_atom_site_fract_x
_atom_site_fract_y
_atom_site_fract_z
Cd1 Cd -0.07508(3) 0.47918(3) 0.55325(3)
Cd2 Cd 0.09963(13) 0.75583(11) 0.80164(11)
Cd3 Cd 0.27469(3) 1.03231(3) 1.05033(3)
O1 O -0.0798(13) 0.2650(9) 0.5789(10)
O2 O -0.1772(11) 0.2954(9) 0.3935(9)
O3 O -0.1127(13) -0.3646(9) 0.4517(9)
O4 O -0.0098(12) -0.1959(11) 0.6155(9)
O5 O 0.1464(9) 0.5609(8) 0.7042(7)
O6 O 0.2056(10) 0.4406(7) 0.5619(7)
O7 O 0.7424(10) 0.5164(10) 0.6134(9)
O8 O 0.9026(10) 0.6388(10) 0.794(1)
O9 O 0.2665(12) 1.2558(8) 1.0265(8)
O10 O 0.3794(12) 1.2083(8) 1.2047(7)
O11 O 0.2193(10) 1.7167(6) 0.9869(6)
O12 O 0.3038(11) 1.8755(8) 1.1536(8)
O13 O 0.0531(10) 0.9522(9) 0.9016(9)
O14 O -0.0090(11) 1.0637(10) 1.0466(9)
O15 O -0.7017(11) 0.8773(11) 0.809(1)
O16 O -0.5401(10) 0.9849(8) 0.9876(8)
C1 C -0.1793(7) 0.0758(4) 0.4105(6)
C2 C -0.1200(7) -0.0129(5) 0.4818(4)
H1 H -0.06270 0.01710 0.56440
C3 C -0.1464(8) -0.1465(5) 0.4298(4)
C4 C -0.2321(9) -0.1913(4) 0.3064(5)
H2 H -0.24970 -0.28070 0.27160
C5 C -0.2914(9) -0.1026(6) 0.2350(4)
H3 H -0.34870 -0.13260 0.15250
C6 C -0.2650(8) 0.0310(5) 0.2871(5)
H4 H -0.30470 0.09030 0.23930
C7 C -0.1384(16) 0.2215(12) 0.4665(13)
C8 C -0.0874(12) -0.2516(13) 0.5022(11)
C9 C 0.4009(5) 0.5605(6) 0.7473(5)
C10 C 0.5072(6) 0.5551(6) 0.6976(4)
H5 H 0.47930 0.52920 0.61370
C11 C 0.6552(6) 0.5884(6) 0.7732(6)
C12 C 0.6969(5) 0.6271(7) 0.8986(5)
H6 H 0.79600 0.64940 0.94920
C13 C 0.5907(7) 0.6325(8) 0.9483(4)
H7 H 0.61860 0.65830 1.03210
C14 C 0.4427(6) 0.5992(6) 0.8726(5)
H8 H 0.37160 0.60270 0.90590
C15 C 0.2403(12) 0.5195(10) 0.6631(9)
C16 C 0.7792(15) 0.5897(9) 0.7240(14)
C17 C 0.3838(8) 1.4366(4) 1.1906(5)
C18 C 0.3231(6) 1.5274(6) 1.1221(4)
H9 H 0.26310 1.49910 1.04000
C19 C 0.3522(8) 1.6604(5) 1.1764(6)
C20 C 0.4419(9) 1.7027(4) 1.2992(6)
H10 H 0.46140 1.79170 1.33560
C21 C 0.5026(7) 1.6120(5) 1.3677(4)
H11 H 0.56260 1.64030 1.44990
C22 C 0.4735(8) 1.4789(4) 1.3134(5)
H12 H 0.51410 1.41820 1.35920
C23 C 0.3429(10) 1.2936(9) 1.1399(10)
C24 C 0.2831(12) 1.7531(8) 1.0966(10)
C25 C -0.2027(6) 0.9612(6) 0.8630(5)
C26 C -0.3117(8) 0.9602(7) 0.9096(4)
H13 H -0.28710 0.98840 0.99290
C27 C -0.4573(7) 0.9169(7) 0.8318(6)
C28 C -0.4940(6) 0.8747(7) 0.7073(6)
H14 H -0.59150 0.84580 0.65520
C29 C -0.3851(7) 0.8757(6) 0.6607(4)
H15 H -0.40960 0.84750 0.57750
C30 C -0.2394(7) 0.9190(6) 0.7386(5)
H16 H -0.16650 0.91970 0.70740
C31 C -0.0436(12) 0.9948(11) 0.9428(11)
C32 C -0.5738(11) 0.9345(11) 0.8826(11)
N1 N 0.3123(10) 0.1989(6) 0.5450(8)
H17 H 0.27350 0.28110 0.55200
C33 C 0.2194(11) 0.0662(14) 0.4779(10)
H18 H 0.28290 -0.00230 0.48920
H19 H 0.14860 0.05130 0.51350
C34 C 0.137(3) 0.057(4) 0.3408(15)
H20 H 0.10970 0.14110 0.32750
H21 H 0.04970 -0.00550 0.31060
H22 H 0.19920 0.02860 0.29880
C35 C 0.4207(13) 0.2329(10) 0.4874(9)
H23 H 0.37040 0.20990 0.39940
H24 H 0.45100 0.32680 0.51150
C36 C 0.297(3) 0.204(2) 0.7426(17)
H25 H 0.35340 0.20780 0.82720
H26 H 0.22820 0.12510 0.70840
H27 H 0.24400 0.27870 0.73480
C37 C 0.3925(10) 0.2039(9) 0.6797(7)
H28 H 0.44660 0.12890 0.68910
H29 H 0.46340 0.28250 0.71640
C38 C 0.541(2) 0.171(3) 0.520(3)
H30 H 0.60480 0.19580 0.48190
H31 H 0.51250 0.07750 0.49420
H32 H 0.59280 0.19400 0.60680
N2 N -0.0979(16) 0.3281(17) 0.0624(14)
H33 H -0.09920 0.23940 0.04640
C39 C -0.2577(15) 0.3489(17) 0.030(2)
H34 H -0.26930 0.43360 0.00830
H35 H -0.31630 0.28300 -0.04280
C40 C -0.319(2) 0.345(3) 0.119(2)
H36 H -0.42470 0.32620 0.07970
H37 H -0.29350 0.42800 0.17620
H38 H -0.28160 0.27750 0.16180
C41 C -0.0438(12) 0.3714(11) -0.0235(10)
H39 H 0.06180 0.36940 0.00940
H40 H -0.05830 0.46300 -0.01880
C42 C -0.097(2) 0.309(2) -0.1544(16)
H41 H -0.03970 0.34980 -0.19040
H42 H -0.19850 0.32010 -0.19380
H43 H -0.08670 0.21750 -0.16410
C43 C -0.0005(18) 0.3731(12) 0.1937(14)
H44 H -0.04640 0.33550 0.24030
H45 H 0.09130 0.33660 0.20640
C44 C 0.031(3) 0.499(3) 0.239(2)
H46 H 0.07820 0.51500 0.32650
H47 H -0.05770 0.53970 0.21740
H48 H 0.09620 0.53580 0.20800
Cd1* Cd -0.07508(3) -0.52082(3) 0.55325(3)
Cd1** Cd 0.92492(3) 0.47918(3) 0.55325(3)
Cd2* Cd -0.90037(13) 0.75583(11) 0.80164(11)
Cd2** Cd 0.09963(13) -0.24417(11) 0.80164(11)
Cd2*** Cd 0.09963(13) 1.75583(11) 0.80164(11)
Cd2**** Cd 1.09963(13) 0.75583(11) 0.80164(11)
Cd3* Cd -0.72531(3) 1.03231(3) 1.05033(3)
Cd3** Cd 0.27469(3) 2.03231(3) 1.05033(3)
O3* O -0.1127(13) 0.6354(9) 0.4517(9)
O4* O -0.0098(12) 0.8041(11) 0.6155(9)
O7* O -0.2576(10) 0.5164(10) 0.6134(9)
O8* O -0.0974(10) 0.6388(10) 0.794(1)
O11* O 0.2193(10) 0.7167(6) 0.9869(6)
O12* O 0.3038(11) 0.8755(8) 1.1536(8)
O15* O 0.2983(11) 0.8773(11) 0.809(1)
O16* O 0.4599(10) 0.9849(8) 0.9876(8)
#END
