
#######################################################################
#
#                 Cambridge Crystallographic Data Centre
#                                CCDC
#
#######################################################################
#
# If this CIF has been generated from an entry in the Cambridge
# Structural Database, then it will include bibliographic, chemical,
# crystal, experimental, refinement or atomic coordinate data resulting
# from the CCDC's data processing and validation procedures.
#
#######################################################################

data_CSD_CIF_WIMXAT
_audit_creation_date 2013-10-18
_audit_creation_method CSD-ConQuest-V1
_database_code_CSD WIMXAT
_database_code_depnum_ccdc_archive 'CCDC 921232'
_chemical_formula_sum 'C14 H20 Cl1 N1 O4 Zn1'
_chemical_formula_moiety
;
C6 H16 N1 1+,(C8 H4 Cl1 O4 Zn1 1-)n
;
_journal_coden_Cambridge 208
_journal_volume 206
_journal_year 2013
_journal_page_first 27
_journal_name_full 'J.Solid State Chem. '
loop_
_publ_author_name
"Junkuo Gao"
"Kaiqi Ye"
"Mi He"
"Wei-Wei Xiong"
"Wenfang Cao"
"Zhi Yi Lee"
"Yue Wang"
"Tom Wu"
"Fengwei Huo"
"Xiaogang Liu"
"Qichun Zhang"
_chemical_name_systematic
;
catena-[Triethylammonium (\m~3~-isophthalato)-chloro-zinc]
;
_cell_volume   3292.908
_exptl_crystal_colour 'white'
_exptl_crystal_density_diffrn 1.481
_exptl_crystal_description 'Block'
_diffrn_ambient_temperature 103
#These two values have been output from a single CSD field.
_refine_ls_R_factor_gt 0.0394
_refine_ls_wR_factor_gt 0.0394
_symmetry_cell_setting orthorhombic
_symmetry_space_group_name_H-M 'P b c a'
_symmetry_Int_Tables_number 61
loop_
_symmetry_equiv_pos_site_id
_symmetry_equiv_pos_as_xyz
1 x,y,z
2 1/2-x,-y,1/2+z
3 -x,1/2+y,1/2-z
4 1/2+x,1/2-y,-z
5 -x,-y,-z
6 -1/2+x,y,-1/2-z
7 x,-1/2-y,-1/2+z
8 -1/2-x,-1/2+y,z
_cell_length_a 13.6934(5)
_cell_length_b 15.0491(6)
_cell_length_c 15.9793(6)
_cell_angle_alpha 90
_cell_angle_beta 90
_cell_angle_gamma 90
_cell_formula_units_Z 8
loop_
_atom_type_symbol
_atom_type_radius_bond
C 0.68
H 0.23
Cl 0.99
N 0.68
O 0.68
Zn 1.22
loop_
_atom_site_label
_atom_site_type_symbol
_atom_site_fract_x
_atom_site_fract_y
_atom_site_fract_z
Zn1 Zn 0.51984(2) 0.38490(2) 0.56147(2)
Cl1 Cl 0.52236(8) 0.42548(7) 0.69438(6)
O1 O 0.58700(14) 0.27273(13) 0.53878(13)
O2 O 0.46096(15) 0.20699(15) 0.59869(15)
O3 O 0.89054(14) -0.03970(14) 0.49349(13)
O4 O 0.89060(13) 0.10802(13) 0.49112(13)
C1 C 0.5987(2) 0.11855(18) 0.56390(17)
C2 C 0.69477(19) 0.11588(18) 0.53644(17)
H1 H 0.72530 0.16810 0.51960
C3 C 0.7461(2) 0.03636(18) 0.53379(17)
C4 C 0.7001(2) -0.0414(2) 0.5588(2)
H2 H 0.73370 -0.09510 0.55700
C5 C 0.6049(3) -0.0392(2) 0.5860(3)
H3 H 0.57400 -0.09150 0.60210
C6 C 0.5554(2) 0.0404(2) 0.5895(2)
H4 H 0.49160 0.04140 0.60950
C7 C 0.5444(2) 0.2048(2) 0.56784(19)
C8 C 0.8500(2) 0.0343(2) 0.50478(17)
N1 N 0.3279(2) 0.1935(2) 0.72406(19)
H5 H 0.37330 0.21090 0.68590
C9 C 0.2716(5) 0.1164(5) 0.6832(6)
H6 H 0.23920 0.14260 0.63510
H7 H 0.32160 0.07760 0.66060
C10 C 0.2135(7) 0.0684(5) 0.7125(6)
H8 H 0.19240 0.02640 0.67110
H9 H 0.15840 0.10230 0.73170
H10 H 0.24200 0.03720 0.75890
C11 C 0.2677(4) 0.2717(4) 0.7407(4)
H11 H 0.21200 0.25260 0.77360
H12 H 0.30550 0.31180 0.77540
C12 C 0.2328(5) 0.3198(5) 0.6739(4)
H13 H 0.19630 0.36990 0.69410
H14 H 0.19110 0.28280 0.64050
H15 H 0.28660 0.34030 0.64050
C13 C 0.3819(4) 0.1654(6) 0.7972(4)
H16 H 0.33760 0.17080 0.84440
H17 H 0.39470 0.10250 0.79020
C14 C 0.4680(4) 0.2033(4) 0.8216(3)
H18 H 0.49050 0.17530 0.87190
H19 H 0.45810 0.26560 0.83160
H20 H 0.51580 0.19570 0.77820
Zn1C Zn 1.01984(2) 0.11510(2) 0.43853(2)
Zn1G Zn 0.98016(2) -0.11510(2) 0.56147(2)
O3G O 0.60946(14) 0.46030(14) 0.49349(13)
O4C O 0.39060(13) 0.39198(13) 0.50888(13)
#END
