
#######################################################################
#
#                 Cambridge Crystallographic Data Centre
#                                CCDC
#
#######################################################################
#
# If this CIF has been generated from an entry in the Cambridge
# Structural Database, then it will include bibliographic, chemical,
# crystal, experimental, refinement or atomic coordinate data resulting
# from the CCDC's data processing and validation procedures.
#
#######################################################################

data_CSD_CIF_WIMXEX
_audit_creation_date 2013-10-18
_audit_creation_method CSD-ConQuest-V1
_database_code_CSD WIMXEX
_database_code_depnum_ccdc_archive 'CCDC 921231'
_chemical_formula_sum 'C36 H44 Cl2 Fe3 N2 O12'
_chemical_formula_moiety
;
(C6 H16 N1 1+)2n,n(C24 H12 Cl2 Fe3 O12 2-)
;
_journal_coden_Cambridge 208
_journal_volume 206
_journal_year 2013
_journal_page_first 27
_journal_name_full 'J.Solid State Chem. '
loop_
_publ_author_name
"Junkuo Gao"
"Kaiqi Ye"
"Mi He"
"Wei-Wei Xiong"
"Wenfang Cao"
"Zhi Yi Lee"
"Yue Wang"
"Tom Wu"
"Fengwei Huo"
"Xiaogang Liu"
"Qichun Zhang"
_chemical_name_systematic
;
catena-[bis(Triethylammonium) 
bis(\m~4~-terephthalato-O,O,O',O'',O''')-(\m~4~-terephthalato-O,O',O'',O''')-d
ichloro-tri-iron]
;
_cell_volume   2140.641
_exptl_crystal_colour 'yellow'
_exptl_crystal_density_diffrn 1.451
_exptl_crystal_description 'Block'
_diffrn_ambient_temperature 103
#These two values have been output from a single CSD field.
_refine_ls_R_factor_gt 0.075
_refine_ls_wR_factor_gt 0.075
_symmetry_cell_setting monoclinic
_symmetry_space_group_name_H-M 'P 21/c'
_symmetry_Int_Tables_number 14
loop_
_symmetry_equiv_pos_site_id
_symmetry_equiv_pos_as_xyz
1 x,y,z
2 -x,1/2+y,1/2-z
3 -x,-y,-z
4 x,-1/2-y,-1/2+z
_cell_length_a 13.434(3)
_cell_length_b 11.284(2)
_cell_length_c 15.127(3)
_cell_angle_alpha 90
_cell_angle_beta 111.01(3)
_cell_angle_gamma 90
_cell_formula_units_Z 2
loop_
_atom_type_symbol
_atom_type_radius_bond
C 0.68
H 0.23
Cl 0.99
Fe 1.52
N 0.68
O 0.68
loop_
_atom_site_label
_atom_site_type_symbol
_atom_site_fract_x
_atom_site_fract_y
_atom_site_fract_z
Fe1 Fe 0.76716(7) 0.09936(7) 0.07018(7)
Fe2 Fe 0.50000 0.00000 0.00000
Cl1 Cl 0.93064(13) 0.19349(15) 0.08833(14)
O1 O 0.6463(3) -0.0015(4) 0.1172(3)
O2 O 0.8185(4) -0.0249(4) 0.1831(4)
O3 O 0.7531(4) -0.4868(4) 0.4632(4)
O4 O 0.5773(4) -0.4577(4) 0.4057(4)
O5 O 0.6838(4) 0.2477(4) 0.0577(4)
O6 O 0.5170(4) 0.1801(3) -0.0142(4)
C1 C 0.7104(5) -0.1514(5) 0.2376(5)
C2 C 0.7968(5) -0.2196(6) 0.2906(5)
H1 H 0.86400 -0.20390 0.28870
C3 C 0.7838(5) -0.3114(6) 0.3464(6)
H2 H 0.84210 -0.35700 0.38190
C4 C 0.6834(5) -0.3349(5) 0.3493(5)
C5 C 0.5975(5) -0.2657(6) 0.2963(6)
H3 H 0.53040 -0.28010 0.29880
C6 C 0.6107(5) -0.1759(6) 0.2402(5)
H4 H 0.55220 -0.13120 0.20370
C7 C 0.7245(5) -0.0539(5) 0.1748(5)
C8 C 0.6694(6) -0.4334(5) 0.4110(5)
C9 C 0.5835(5) 0.2604(5) 0.0181(6)
C10 C 0.5408(5) 0.3859(5) 0.0091(6)
C11 C 0.4329(6) 0.4049(6) -0.0288(7)
H5 H 0.38690 0.34040 -0.04730
C12 C 0.3907(6) 0.5195(6) -0.0402(7)
H6 H 0.31750 0.53170 -0.06820
N1 N 1.0851(6) -0.2299(6) 0.1221(6)
H7 H 1.07570 -0.23720 0.05960
C13 C 1.2010(16) -0.2651(14) 0.1780(11)
H8 H 1.24170 -0.19210 0.19380
H9 H 1.20200 -0.29870 0.23740
C14 C 1.2540(12) -0.3371(18) 0.1446(13)
H10 H 1.32570 -0.34430 0.18900
H11 H 1.25510 -0.30690 0.08560
H12 H 1.22040 -0.41360 0.13440
C15 C 1.0082(17) -0.3069(17) 0.1387(13)
H13 H 1.04730 -0.37670 0.16990
H14 H 0.98550 -0.26690 0.18510
C16 C 0.9206(13) -0.346(2) 0.0727(13)
H15 H 0.88360 -0.39800 0.10070
H16 H 0.93890 -0.38840 0.02560
H17 H 0.87550 -0.28020 0.04370
C17 C 1.0696(8) -0.1022(7) 0.1387(7)
H18 H 1.11720 -0.05600 0.11690
H19 H 0.99720 -0.08050 0.09990
C18 C 1.0880(9) -0.0681(8) 0.2383(7)
H20 H 1.07540 0.01530 0.24120
H21 H 1.16040 -0.08590 0.27730
H22 H 1.04030 -0.11160 0.26050
O5B O 0.3162(4) 0.7523(4) -0.0577(4)
O6B O 0.4830(4) 0.8199(3) 0.0142(4)
C9B C 0.4165(5) 0.7396(5) -0.0181(6)
C10B C 0.4592(5) 0.6141(5) -0.0091(6)
C11B C 0.5671(6) 0.5951(6) 0.0288(7)
H5B H 0.61310 0.65960 0.04730
C12B C 0.6093(6) 0.4805(6) 0.0402(7)
H6B H 0.68250 0.46830 0.06820
Fe1B Fe 0.23284(7) -0.09936(7) -0.07018(7)
Cl1B Cl 0.06936(13) -0.19349(15) -0.08833(14)
O1B O 0.3537(3) 0.0015(4) -0.1172(3)
O2B O 0.1815(4) 0.0249(4) -0.1831(4)
O3B O 0.2469(4) 0.4868(4) -0.4632(4)
O4B O 0.4227(4) 0.4577(4) -0.4057(4)
C1B C 0.2896(5) 0.1514(5) -0.2376(5)
C2B C 0.2032(5) 0.2196(6) -0.2906(5)
H1B H 0.13600 0.20390 -0.28870
C3B C 0.2162(5) 0.3114(6) -0.3464(6)
H2B H 0.15790 0.35700 -0.38190
C4B C 0.3166(5) 0.3349(5) -0.3493(5)
C5B C 0.4025(5) 0.2657(6) -0.2963(6)
H3B H 0.46960 0.28010 -0.29880
C6B C 0.3893(5) 0.1759(6) -0.2402(5)
H4B H 0.44780 0.13120 -0.20370
C7B C 0.2755(5) 0.0539(5) -0.1748(5)
C8B C 0.3306(6) 0.4334(5) -0.4110(5)
Fe1A Fe 0.23284(7) 0.59936(7) -0.57018(7)
Fe1B* Fe 0.23284(7) 0.90064(7) -0.07018(7)
Fe1C Fe 0.76716(7) -0.59936(7) 0.57018(7)
Fe2* Fe 0.50000 1.00000 0.00000
Fe2A Fe 0.50000 -0.50000 0.50000
Fe2A* Fe 0.50000 0.50000 -0.50000
O3A O 0.2469(4) 0.0132(4) 0.0368(4)
O3C O 0.7531(4) -0.0132(4) -0.0368(4)
O4A O 0.4227(4) 0.0423(4) 0.0943(4)
O4C O 0.5773(4) -0.0423(4) -0.0943(4)
O5B* O 0.3162(4) -0.2477(4) -0.0577(4)
O6B* O 0.4830(4) -0.1801(3) 0.0142(4)
#END
