
#######################################################################
#
#                 Cambridge Crystallographic Data Centre
#                                CCDC
#
#######################################################################
#
# If this CIF has been generated from an entry in the Cambridge
# Structural Database, then it will include bibliographic, chemical,
# crystal, experimental, refinement or atomic coordinate data resulting
# from the CCDC's data processing and validation procedures.
#
#######################################################################

data_CSD_CIF_WIMXOH
_audit_creation_date 2013-10-18
_audit_creation_method CSD-ConQuest-V1
_database_code_CSD WIMXOH
_database_code_depnum_ccdc_archive 'CCDC 921229'
_chemical_formula_sum 'C36 H44 Cl2 N2 O12 Zn3'
_chemical_formula_moiety
;
(C24 H12 Cl2 O12 Zn3 2-)n,2n(C6 H16 N1 1+)
;
_journal_coden_Cambridge 208
_journal_volume 206
_journal_year 2013
_journal_page_first 27
_journal_name_full 'J.Solid State Chem. '
loop_
_publ_author_name
"Junkuo Gao"
"Kaiqi Ye"
"Mi He"
"Wei-Wei Xiong"
"Wenfang Cao"
"Zhi Yi Lee"
"Yue Wang"
"Tom Wu"
"Fengwei Huo"
"Xiaogang Liu"
"Qichun Zhang"
_chemical_name_systematic
;
catena-[bis(Triethylammonium) 
bis(\m~4~-terephthalato-O,O',O'',O''')-(\m~4~-terephthalato-O,O,O'',O'')-dichl
oro-tri-zinc]
;
_cell_volume   2114.187
_exptl_crystal_colour 'white'
_exptl_crystal_density_diffrn 1.509
_exptl_crystal_description 'Block'
_diffrn_ambient_temperature 103
#These two values have been output from a single CSD field.
_refine_ls_R_factor_gt 0.0582
_refine_ls_wR_factor_gt 0.0582
_symmetry_cell_setting monoclinic
_symmetry_space_group_name_H-M 'P 21/n'
_symmetry_Int_Tables_number 14
loop_
_symmetry_equiv_pos_site_id
_symmetry_equiv_pos_as_xyz
1 x,y,z
2 1/2-x,1/2+y,1/2-z
3 -x,-y,-z
4 -1/2+x,-1/2-y,-1/2+z
_cell_length_a 12.884(9)
_cell_length_b 10.024(7)
_cell_length_c 17.347(13)
_cell_angle_alpha 90
_cell_angle_beta 109.32(1)
_cell_angle_gamma 90
_cell_formula_units_Z 2
loop_
_atom_type_symbol
_atom_type_radius_bond
C 0.68
H 0.23
Cl 0.99
N 0.68
O 0.68
Zn 1.22
loop_
_atom_site_label
_atom_site_type_symbol
_atom_site_fract_x
_atom_site_fract_y
_atom_site_fract_z
Zn1 Zn 0.80649(8) 0.06536(9) 0.07727(6)
Zn2 Zn 1.00000 0.00000 0.00000
Cl1 Cl 0.6834(2) 0.2000(3) 0.10064(18)
O1 O 0.7209(5) -0.0554(6) -0.0101(4)
O2 O 0.8646(5) -0.1094(7) -0.0498(4)
O3 O 0.5235(6) -0.4275(6) -0.3866(4)
O4 O 0.3925(5) -0.4562(6) -0.3305(4)
O5 O 0.9022(5) 0.1682(5) 0.0286(4)
O6 O 0.9734(6) 0.2607(6) 0.1522(4)
C1 C 0.6922(7) -0.1974(9) -0.1234(5)
C2 C 0.7328(8) -0.2507(11) -0.1818(6)
H1 H 0.80640 -0.23870 -0.17640
C3 C 0.6649(9) -0.3212(11) -0.2475(7)
H2 H 0.69290 -0.35590 -0.28640
C4 C 0.5555(8) -0.3404(9) -0.2558(5)
C5 C 0.5146(7) -0.2902(9) -0.1984(6)
H3 H 0.44130 -0.30410 -0.20350
C6 C 0.5826(7) -0.2185(9) -0.1327(5)
H4 H 0.55410 -0.18410 -0.09410
C7 C 0.7671(8) -0.1157(9) -0.0555(6)
C8 C 0.4852(9) -0.4127(8) -0.3297(6)
C9 C 0.9780(8) 0.3845(9) 0.0376(6)
C10 C 0.9590(8) 0.3891(9) -0.0457(6)
H5 H 0.93440 0.31270 -0.07680
C11 C 1.0248(9) 0.4980(9) 0.0834(6)
H6 H 1.04480 0.49580 0.14000
C12 C 0.9510(7) 0.2635(9) 0.0760(7)
N1 N 0.5398(17) -0.2378(18) 0.1872(8)
H7 H 0.53980 -0.25240 0.24330
C13 C 0.593(4) -0.110(3) 0.188(2)
H8 H 0.63990 -0.12320 0.15540
H9 H 0.53420 -0.05130 0.15660
C14 C 0.6470(19) -0.043(2) 0.2463(17)
H10 H 0.68090 0.02920 0.22720
H11 H 0.70290 -0.09790 0.28300
H12 H 0.60000 -0.00810 0.27430
C15 C 0.431(5) -0.230(7) 0.127(2)
H13 H 0.40320 -0.14040 0.12820
H14 H 0.43710 -0.24460 0.07370
C16 C 0.361(3) -0.312(4) 0.137(2)
H15 H 0.28920 -0.28840 0.10150
H16 H 0.36290 -0.30900 0.19280
H17 H 0.37910 -0.40040 0.12430
C17 C 0.597(3) -0.348(2) 0.1686(13)
H18 H 0.55470 -0.42780 0.16880
H19 H 0.66660 -0.35660 0.21250
C18 C 0.621(2) -0.343(3) 0.0865(12)
H20 H 0.66340 -0.42000 0.08260
H21 H 0.66120 -0.26370 0.08430
H22 H 0.55270 -0.34350 0.04180
O5B O 1.0978(5) 0.8318(5) -0.0286(4)
O6B O 1.0266(6) 0.7393(6) -0.1522(4)
C9B C 1.0220(8) 0.6155(9) -0.0376(6)
C10B C 1.0410(8) 0.6109(9) 0.0457(6)
H5B H 1.06560 0.68730 0.07680
C11B C 0.9752(9) 0.5020(9) -0.0834(6)
H6B H 0.95520 0.50420 -0.14000
C12B C 1.0490(7) 0.7365(9) -0.0760(7)
Zn1B Zn 1.19351(8) -0.06536(9) -0.07727(6)
Cl1B Cl 1.3166(2) -0.2000(3) -0.10064(18)
O1B O 1.2791(5) 0.0554(6) 0.0101(4)
O2B O 1.1354(5) 0.1094(7) 0.0498(4)
O3B O 1.4765(6) 0.4275(6) 0.3866(4)
O4B O 1.6075(5) 0.4562(6) 0.3305(4)
C1B C 1.3078(7) 0.1974(9) 0.1234(5)
C2B C 1.2672(8) 0.2507(11) 0.1818(6)
H1B H 1.19360 0.23870 0.17640
C3B C 1.3351(9) 0.3212(11) 0.2475(7)
H2B H 1.30710 0.35590 0.28640
C4B C 1.4445(8) 0.3404(9) 0.2558(5)
C5B C 1.4854(7) 0.2902(9) 0.1984(6)
H3B H 1.55870 0.30410 0.20350
C6B C 1.4174(7) 0.2185(9) 0.1327(5)
H4B H 1.44590 0.18410 0.09410
C7B C 1.2329(8) 0.1157(9) 0.0555(6)
C8B C 1.5148(9) 0.4127(8) 0.3297(6)
Zn1A Zn 1.69351(8) 0.56536(9) 0.42273(6)
Zn1B* Zn 1.19351(8) 0.93464(9) -0.07727(6)
Zn1C Zn 0.30649(8) -0.56536(9) -0.42273(6)
Zn2* Zn 1.00000 1.00000 0.00000
Zn2A Zn 0.50000 -0.50000 -0.50000
Zn2A* Zn 1.50000 0.50000 0.50000
O3A O 0.9765(6) 0.0725(6) -0.1134(4)
O3C O 1.0235(6) -0.0725(6) 0.1134(4)
O4A O 1.1075(5) 0.0438(6) -0.1695(4)
O4C O 0.8925(5) -0.0438(6) 0.1695(4)
O5B* O 1.0978(5) -0.1682(5) -0.0286(4)
#END
