
#######################################################################
#
#                 Cambridge Crystallographic Data Centre
#                                CCDC
#
#######################################################################
#
# If this CIF has been generated from an entry in the Cambridge
# Structural Database, then it will include bibliographic, chemical,
# crystal, experimental, refinement or atomic coordinate data resulting
# from the CCDC's data processing and validation procedures.
#
#######################################################################

data_CSD_CIF_WINBIF
_audit_creation_date 2008-01-08
_audit_creation_method CSD-ConQuest-V1
_database_code_CSD WINBIF
_database_code_depnum_ccdc_archive 'CCDC 667202'
_chemical_formula_sum 'C64.66 H106 N3 O15.33 S3.33 Zn2'
_chemical_formula_moiety
;
(C16 H36 N1 1+)2n,n(C28 H24 O14 S2 Zn2 2-),1.33n(C2 H6 O1 S1),0.5n(C4 H4 N2)
;
_journal_coeditor_code "IUCr HB2568"
_journal_coden_Cambridge 1370
_journal_volume 63
_journal_year 2007
_journal_page_first m2788
_journal_name_full 'Acta Crystallogr.,Sect.E:Struct.Rep.Online '
loop_
_publ_author_name
"Shi-Yao Yang"
"Chao Du"
"Rong-Bin Huang"
"S.W.Ng"
_chemical_name_systematic
;
catena-(bis(Tetra-n-butylammonium) tris(\m~2~-terephthalato)-bis(dimethyl 
sulfoxide)-di-zinc(ii) dimethyl sulfoxide pyrazine solvate)
;
_cell_volume   3829.155
_exptl_crystal_colour 'colorless'
_exptl_crystal_description 'Irregular block'
_diffrn_ambient_temperature 223
_refine_special_details
;
One n-butyl group is disordered over two sites with occupancies 0.67:0.33.

;
#These two values have been output from a single CSD field.
_refine_ls_R_factor_gt 0.0601
_refine_ls_wR_factor_gt 0.0601
_symmetry_cell_setting monoclinic
_symmetry_space_group_name_H-M 'P 21/n'
_symmetry_Int_Tables_number 14
loop_
_symmetry_equiv_pos_site_id
_symmetry_equiv_pos_as_xyz
1 x,y,z
2 1/2-x,1/2+y,1/2-z
3 -x,-y,-z
4 -1/2+x,-1/2-y,-1/2+z
_cell_length_a 11.1722(5)
_cell_length_b 24.8188(11)
_cell_length_c 13.9443(6)
_cell_angle_alpha 90
_cell_angle_beta 97.968(1)
_cell_angle_gamma 90
_cell_formula_units_Z 2
loop_
_atom_type_symbol
_atom_type_radius_bond
C 0.68
H 0.23
N 0.68
O 0.68
S 1.02
Zn 1.44
loop_
_atom_site_label
_atom_site_type_symbol
_atom_site_fract_x
_atom_site_fract_y
_atom_site_fract_z
Zn1 Zn -0.14399(3) -0.857130(13) 0.16492(2)
S1 S -1.11009(8) -1.07300(4) -0.17523(7)
S2 S -0.4312(3) -0.01844(14) -0.33374(17)
O1 O -0.59927(19) -0.67880(9) 0.54995(15)
O2 O -0.5151(2) -0.74012(12) 0.65341(16)
O3 O -0.1890(2) -0.83652(10) 0.29338(17)
O4 O 0.1951(2) -0.71184(13) -0.31478(17)
O5 O -0.2673(2) -0.91262(9) 0.12520(16)
O6 O -0.1877(2) -0.95312(10) 0.00593(19)
O7 O -1.0176(2) -1.10747(10) -0.21670(17)
O8 O -0.4809(8) 0.0295(4) -0.3672(7)
N1 N -0.0194(2) -0.31477(11) -0.40284(18)
C1 C -0.5326(3) -0.72000(13) 0.5728(2)
C2 C -0.4686(3) -0.74255(13) 0.4923(2)
C3 C -0.4834(3) -0.71959(14) 0.4013(2)
H1 H -0.53600 -0.69010 0.38780
C4 C -0.4214(3) -0.73963(15) 0.3296(2)
H2 H -0.43390 -0.72420 0.26740
C5 C -0.3412(3) -0.78209(13) 0.3485(2)
C6 C -0.3251(3) -0.80457(15) 0.4402(2)
H3 H -0.27040 -0.83320 0.45430
C7 C -0.3888(3) -0.78525(15) 0.5113(2)
H4 H -0.37790 -0.80120 0.57300
C8 C -0.2740(3) -0.80337(14) 0.2692(2)
C9 C -0.2701(2) -0.94486(11) 0.0538(2)
C10 C -0.3894(2) -0.97407(11) 0.0268(2)
C11 C -0.4800(3) -0.97137(12) 0.0859(2)
H5 H -0.46650 -0.95200 0.14440
C12 C -0.5895(3) -0.99688(12) 0.0594(2)
H6 H -0.34990 -1.00540 -0.09970
C13 C -1.0989(3) -1.08585(16) -0.0495(3)
H7 H -1.13010 -1.12160 -0.03930
H8 H -1.01500 -1.08380 -0.02060
H9 H -1.14570 -1.05930 -0.01970
C14 C -1.0479(4) -1.00670(17) -0.1675(3)
H10 H -1.04640 -0.99260 -0.23220
H11 H -1.09720 -0.98350 -0.13290
H12 H -0.96620 -1.00790 -0.13320
C15 C -0.5479(17) -0.0620(6) -0.3685(9)
H13 H -0.61200 -0.05580 -0.32950
H14 H -0.51930 -0.09880 -0.35960
H15 H -0.57870 -0.05610 -0.43630
C16 C -0.3388(17) -0.0352(10) -0.4047(10)
H16 H -0.26800 -0.01230 -0.39350
H17 H -0.37690 -0.03120 -0.47120
H18 H -0.31500 -0.07250 -0.39300
C17 C -0.1265(3) -0.34826(13) -0.3807(2)
H19 H -0.19620 -0.33950 -0.42890
H20 H -0.10730 -0.38630 -0.38910
C18 C -0.1636(4) -0.34139(16) -0.2812(3)
H21 H -0.19320 -0.30470 -0.27370
H22 H -0.09420 -0.34760 -0.23130
C19 C -0.2633(3) -0.38206(15) -0.2704(3)
H23 H -0.32750 -0.37820 -0.32550
H24 H -0.23010 -0.41850 -0.27280
C20 C -0.3183(5) -0.3760(2) -0.1775(4)
H25 H -0.38060 -0.40300 -0.17540
H26 H -0.35350 -0.34040 -0.17510
H27 H -0.25590 -0.38070 -0.12240
C21 C -0.0015(3) -0.33020(14) -0.5051(2)
H28 H 0.01470 -0.36900 -0.50580
H29 H -0.07810 -0.32410 -0.54720
C22 C 0.0968(3) -0.30206(15) -0.5500(2)
H30 H 0.17310 -0.30370 -0.50600
H31 H 0.07550 -0.26410 -0.56180
C23 C 0.1112(3) -0.32969(16) -0.6450(2)
H32 H 0.03200 -0.33180 -0.68500
H33 H 0.13990 -0.36660 -0.63140
C24 C 0.1989(4) -0.3008(2) -0.7019(3)
H34 H 0.20360 -0.32000 -0.76190
H35 H 0.27830 -0.29960 -0.66370
H36 H 0.17060 -0.26430 -0.71650
C25 C 0.0928(3) -0.32630(15) -0.3317(3)
H37 H 0.07820 -0.31460 -0.26720
H38 H 0.15940 -0.30450 -0.34970
C26 C 0.1329(4) -0.38484(19) -0.3253(4)
H39 H 0.06940 -0.40710 -0.30370
H40 H 0.14700 -0.39760 -0.38930
C27 C 0.2475(5) -0.3898(3) -0.2547(5)
H41 H 0.30830 -0.36560 -0.27560
H42 H 0.23110 -0.37730 -0.19110
C28 C 0.2987(10) -0.4445(4) -0.2441(10)
H43 H 0.37080 -0.44410 -0.19650
H44 H 0.31930 -0.45660 -0.30590
H45 H 0.23970 -0.46880 -0.22280
C29 C -0.0437(3) -0.25466(13) -0.3949(2)
H46 H -0.04680 -0.24590 -0.32680
H47 H 0.02440 -0.23480 -0.41520
C30 C -0.1596(3) -0.23497(14) -0.4545(3)
H48 H -0.22930 -0.24850 -0.42630
H49 H -0.16470 -0.24910 -0.52060
C31 C -0.1635(5) -0.17379(16) -0.4575(4)
H50 H -0.15740 -0.16010 -0.39120
H51 H -0.24170 -0.16230 -0.49220
H52? H -0.14220 -0.15940 -0.39200
H53? H -0.10440 -0.16040 -0.49750
C32 C -0.0632(9) -0.1489(4) -0.5064(10)
H54 H -0.07040 -0.11000 -0.50590
H55 H -0.06980 -0.16150 -0.57280
H56 H 0.01460 -0.15940 -0.47180
C33? C -0.2891(11) -0.1548(9) -0.499(2)
H57? H -0.29080 -0.11570 -0.50090
H58? H -0.34730 -0.16780 -0.45910
H59? H -0.30950 -0.16870 -0.56450
N2 N -0.5645(13) -0.4999(6) -0.9268(9)
C34 C -0.4757(17) -0.4675(8) -0.9302(14)
H60 H -0.45720 -0.44190 -0.88070
C35 C -0.585(2) -0.5308(8) -1.0040(14)
H61 H -0.65320 -0.55350 -1.00870
Zn1C Zn -0.64399(3) -0.642870(13) 0.66492(2)
Zn1C* Zn 0.35601(3) -0.642870(13) -0.33508(2)
Zn1B Zn -0.85601(3) -1.142870(13) -0.16492(2)
S1B S 0.11009(8) -0.92700(4) 0.17523(7)
O1C O -0.09927(19) -0.82120(9) 0.04995(15)
O1A O -0.90073(19) -1.17880(9) -0.04995(15)
O2C O -0.0151(2) -0.75988(12) 0.15341(16)
O3C O 0.3110(2) -0.66348(10) -0.20662(17)
O3B O -0.8110(2) -1.16348(10) -0.29338(17)
O4C O -0.3049(2) -0.78816(13) 0.18522(17)
O5B O -0.7327(2) -1.08738(9) -0.12520(16)
O6B O -0.8123(2) -1.04688(10) -0.00593(19)
O7B O 0.0176(2) -0.89253(10) 0.21670(17)
C1C C -0.0326(3) -0.78000(13) 0.0728(2)
C2C C 0.0314(3) -0.75745(13) -0.0077(2)
C3C C 0.0166(3) -0.78041(14) -0.0987(2)
H1C H -0.03600 -0.80990 -0.11220
C4C C 0.0786(3) -0.76037(15) -0.1704(2)
H2C H 0.06610 -0.77580 -0.23260
C5C C 0.1588(3) -0.71791(13) -0.1515(2)
C6C C 0.1749(3) -0.69543(15) -0.0598(2)
H3C H 0.22960 -0.66680 -0.04570
C7C C 0.1112(3) -0.71475(15) 0.0113(2)
H4C H 0.12210 -0.69880 0.07300
C8C C 0.2260(3) -0.69663(14) -0.2308(2)
C9B C -0.7299(2) -1.05514(11) -0.0538(2)
C10B C -0.6106(2) -1.02593(11) -0.0268(2)
C11B C -0.5200(3) -1.02863(12) -0.0859(2)
H5B H -0.53350 -1.04800 -0.14440
C12B C -0.4105(3) -1.00312(12) -0.0594(2)
H6B H -0.65010 -0.99460 0.09970
C13B C 0.0989(3) -0.91415(16) 0.0495(3)
H7B H 0.13010 -0.87840 0.03930
H8B H 0.01500 -0.91620 0.02060
H9B H 0.14570 -0.94070 0.01970
C14B C 0.0479(4) -0.99330(17) 0.1675(3)
H10B H 0.04640 -1.00740 0.23220
H11B H 0.09720 -1.01650 0.13290
H12B H -0.03380 -0.99210 0.13320
N2B N -0.4355(13) -0.5001(6) -1.0732(9)
C34B C -0.5243(17) -0.5325(8) -1.0698(14)
H60B H -0.54280 -0.55810 -1.11930
C35B C -0.415(2) -0.4692(8) -0.9960(14)
H61B H -0.34680 -0.44650 -0.99130
#END
