
#######################################################################
#
#                 Cambridge Crystallographic Data Centre
#                                CCDC
#
#######################################################################
#
# If this CIF has been generated from an entry in the Cambridge
# Structural Database, then it will include bibliographic, chemical,
# crystal, experimental, refinement or atomic coordinate data resulting
# from the CCDC's data processing and validation procedures.
#
#######################################################################

data_CSD_CIF_WINCEC
_audit_creation_date 2008-01-08
_audit_creation_method CSD-ConQuest-V1
_database_code_CSD WINCEC
_database_code_depnum_ccdc_archive 'CCDC 667206'
_chemical_formula_sum 'C13 H19 Co1 N2 O10.5'
_chemical_formula_moiety
;
(C3 H12 N2 2+)n,n(C10 H6 Co1 O10 2-),0.5n(H2 O1)
;
_journal_coeditor_code "IUCr OM2167"
_journal_coden_Cambridge 1370
_journal_volume 63
_journal_year 2007
_journal_page_first m2793
_journal_name_full 'Acta Crystallogr.,Sect.E:Struct.Rep.Online '
loop_
_publ_author_name
"H.Aghabozorg"
"J.A.Gharamaleki"
"E.Motyeian"
"M.Ghadermazi"
_chemical_name_systematic
;
catena-(Propane-1,3-diammonium 
(\m~4~-benzene-1,2,4,5-tetracarboxylato)-diaqua-cobalt(ii) hemihydrate)
;
_cell_volume   1678.764
_exptl_crystal_colour 'colorless'
_exptl_crystal_density_diffrn 1.702
_exptl_crystal_description 'prism'
_diffrn_ambient_temperature 100
_diffrn_special_details
;
racemic twin

;
_refine_special_details
;
The water molecule is disordered.

;
#These two values have been output from a single CSD field.
_refine_ls_R_factor_gt 0.0219
_refine_ls_wR_factor_gt 0.0219
_symmetry_cell_setting orthorhombic
_symmetry_space_group_name_H-M 'I m a 2'
_symmetry_Int_Tables_number 46
loop_
_symmetry_equiv_pos_site_id
_symmetry_equiv_pos_as_xyz
1 x,y,z
2 -x,-y,z
3 1/2+x,-y,z
4 1/2-x,y,z
5 1/2+x,1/2+y,1/2+z
6 1/2-x,1/2-y,1/2+z
7 x,1/2-y,1/2+z
8 -x,1/2+y,1/2+z
_cell_length_a 16.4011(3)
_cell_length_b 7.1786(1)
_cell_length_c 14.2586(2)
_cell_angle_alpha 90
_cell_angle_beta 90
_cell_angle_gamma 90
_cell_formula_units_Z 4
loop_
_atom_type_symbol
_atom_type_radius_bond
C 0.68
H 0.23
Co 1.33
N 0.68
O 0.56
loop_
_atom_site_label
_atom_site_type_symbol
_atom_site_fract_x
_atom_site_fract_y
_atom_site_fract_z
Co1 Co 0.50000 -0.50000 -0.17251(2)
O1 O 0.59187(6) -0.43889(14) -0.26664(6)
O2 O 0.54019(5) -0.19011(13) -0.34170(6)
O3 O 0.56026(5) -0.36184(13) -0.53656(7)
O4 O 0.58410(6) -0.05896(14) -0.56637(6)
C1 C 0.75000 -0.3092(3) -0.32939(12)
H1 H 0.75000 -0.34830 -0.26570
C2 C 0.67589(7) -0.28092(16) -0.37548(9)
C3 C 0.67626(7) -0.22442(17) -0.46926(8)
C4 C 0.75000 -0.1944(2) -0.51565(12)
H2 H 0.75000 -0.15350 -0.57900
C5 C 0.59580(7) -0.30529(17) -0.32394(8)
C6 C 0.59980(7) -0.21361(17) -0.52772(8)
O5 O 0.45721(5) -0.22279(11) -0.17604(8)
H3 H 0.47700 -0.18080 -0.12190
H4 H 0.48060 -0.17450 -0.22680
N1 N 0.40163(6) -0.26598(16) -0.45362(8)
H5 H 0.44600 -0.25780 -0.41560
H6 H 0.40440 -0.17590 -0.49840
H7 H 0.40060 -0.38000 -0.48150
C7 C 0.32604(8) -0.24009(19) -0.39680(9)
H8 H 0.32480 -0.11190 -0.37120
H9 H 0.32640 -0.32820 -0.34340
C8 C 0.25000 -0.2735(3) -0.45660(14)
H10 H 0.25000 -0.40290 -0.48050
H11 H 0.25000 -0.18770 -0.51100
O6 O 0.2991(5) -0.0219(12) -0.1781(7)
H12? H 0.33330 -0.11550 -0.18950
H13? H 0.25000 -0.06800 -0.18990
Co1F Co 0.50000 0.00000 -0.67251(2)
Co1D Co 1.00000 0.00000 -0.67251(2)
Co1B Co 1.00000 -0.50000 -0.17251(2)
O1A O 0.40813(6) -0.56111(14) -0.26664(6)
O1C O 0.90813(6) -0.43889(14) -0.26664(6)
O2C O 0.95981(5) -0.19011(13) -0.34170(6)
O3C O 0.93974(5) -0.36184(13) -0.53656(7)
O4F O 0.58410(6) -0.44104(14) -0.06637(6)
O4G O 0.41590(6) -0.55896(14) -0.06637(6)
O4C O 0.91590(6) -0.05896(14) -0.56637(6)
C2C C 0.82411(7) -0.28092(16) -0.37548(9)
C3C C 0.82374(7) -0.22442(17) -0.46926(8)
C5C C 0.90420(7) -0.30529(17) -0.32394(8)
C6C C 0.90020(7) -0.21361(17) -0.52772(8)
O5A O 0.54279(5) -0.77721(11) -0.17604(8)
H3A H 0.52300 -0.81920 -0.12190
H4A H 0.51940 -0.82550 -0.22680
N1C N 0.09837(6) -0.26598(16) -0.45362(8)
H5C H 0.05400 -0.25780 -0.41560
H6C H 0.09560 -0.17590 -0.49840
H7C H 0.09940 -0.38000 -0.48150
C7C C 0.17396(8) -0.24009(19) -0.39680(9)
H8C H 0.17520 -0.11190 -0.37120
H9C H 0.17360 -0.32820 -0.34340
#END
