
#######################################################################
#
#                 Cambridge Crystallographic Data Centre
#                                CCDC
#
#######################################################################
#
# If this CIF has been generated from an entry in the Cambridge
# Structural Database, then it will include bibliographic, chemical,
# crystal, experimental, refinement or atomic coordinate data resulting
# from the CCDC's data processing and validation procedures.
#
#######################################################################

data_CSD_CIF_WIPCIJ
_audit_creation_date 2013-10-18
_audit_creation_method CSD-ConQuest-V1
_database_code_CSD WIPCIJ
_database_code_depnum_ccdc_archive 'CCDC 902538'
_chemical_formula_sum 'C60 H54 Ag4 N12 O14'
_chemical_formula_moiety
;
(C14 H14 Ag1 N4 1+)3n,n(C18 H8 Ag1 O12 3-),2n(H2 O1)
;
_journal_coden_Cambridge 208
_journal_volume 200
_journal_year 2013
_journal_page_first 197
_journal_name_full 'J.Solid State Chem. '
loop_
_publ_author_name
"Xian-Ying Duan"
"Jing Yao"
"Chang-Sheng Lu"
"Qing-Jin Meng"
_chemical_name_systematic
;
catena-[tris((\m~2~-1,1'-(1,4-Phenylenebis(methylene))bis(1H-imidazole))-silve
r(i)) bis(4-carboxybenzene-1,3-dicarboxylato)-silver(i) dihydrate]
;
_cell_volume   1434.946
_exptl_crystal_colour 'colorless'
_exptl_crystal_density_diffrn 1.85
_exptl_crystal_description 'block'
_diffrn_ambient_temperature 293
#These two values have been output from a single CSD field.
_refine_ls_R_factor_gt 0.052
_refine_ls_wR_factor_gt 0.052
_symmetry_cell_setting triclinic
_symmetry_space_group_name_H-M 'P -1'
_symmetry_Int_Tables_number 2
loop_
_symmetry_equiv_pos_site_id
_symmetry_equiv_pos_as_xyz
1 x,y,z
2 -x,-y,-z
_cell_length_a 9.9653(15)
_cell_length_b 10.5546(15)
_cell_length_c 14.521(2)
_cell_angle_alpha 85.115(3)
_cell_angle_beta 77.177(3)
_cell_angle_gamma 74.563(3)
_cell_formula_units_Z 1
loop_
_atom_type_symbol
_atom_type_radius_bond
C 0.68
H 0.23
Ag 1.45
N 0.68
O 0.68
loop_
_atom_site_label
_atom_site_type_symbol
_atom_site_fract_x
_atom_site_fract_y
_atom_site_fract_z
Ag1 Ag 1.00000 0.50000 0.50000
O1 O 0.8161(5) 1.3483(4) 0.7207(3)
H1 H 0.84220 1.28580 0.75580
O2 O 0.7733(4) 1.3787(4) 0.5783(3)
O3 O 0.8886(4) 1.1744(4) 0.8281(3)
O4 O 0.9557(5) 0.9595(5) 0.8351(3)
O5 O 0.9464(4) 0.6663(3) 0.6165(3)
O6 O 0.8655(4) 0.7306(4) 0.4872(2)
C1 C 0.8269(5) 1.1565(5) 0.6345(3)
C2 C 0.7982(5) 1.1251(5) 0.5514(3)
H2 H 0.76660 1.19260 0.50970
C3 C 0.8150(5) 0.9973(5) 0.5288(3)
H3 H 0.79320 0.97970 0.47300
C4 C 0.8646(5) 0.8944(4) 0.5889(3)
C5 C 0.8924(5) 0.9254(5) 0.6718(3)
H4 H 0.92490 0.85680 0.71250
C6 C 0.8746(5) 1.0538(5) 0.6982(3)
C7 C 0.8038(6) 1.3055(6) 0.6431(5)
C8 C 0.9110(6) 1.0614(7) 0.7932(4)
C9 C 0.8934(5) 0.7531(5) 0.5630(3)
Ag2 Ag 0.57859(5) 0.79599(4) 0.49501(3)
N1 N 0.5209(5) 0.6663(4) -0.2210(2)
N2 N 0.5118(5) 0.7478(4) -0.3632(2)
N3 N 0.6316(4) 0.8584(4) 0.3555(2)
N4 N 0.6246(4) 0.9205(4) 0.2089(2)
C10 C 0.5760(7) 0.5910(5) -0.1424(3)
H5 H 0.51620 0.53290 -0.11450
H6 H 0.67130 0.53720 -0.16570
C11 C 0.5929(6) 0.6698(5) -0.3098(3)
H7 H 0.68700 0.62400 -0.33120
C12 C 0.3824(6) 0.7930(5) -0.3047(3)
H8 H 0.30300 0.84910 -0.32300
C13 C 0.3874(6) 0.7440(5) -0.2169(3)
H9 H 0.31400 0.76010 -0.16380
C14 C 0.5487(5) 0.9094(5) 0.2955(3)
H10 H 0.44990 0.93450 0.31160
C15 C 0.7671(6) 0.8367(5) 0.3030(3)
H11 H 0.84930 0.80010 0.32610
C16 C 0.7638(5) 0.8763(5) 0.2127(3)
H12 H 0.84140 0.87380 0.16300
C17 C 0.5681(6) 0.9720(5) 0.1244(3)
H13 H 0.62110 1.03250 0.09050
H14 H 0.46960 1.02090 0.14360
C18 C 0.5760(5) 0.8657(5) 0.0586(3)
C19 C 0.4664(5) 0.8055(5) 0.0705(3)
H15 H 0.39000 0.82710 0.12140
C20 C 0.4685(6) 0.7139(5) 0.0081(3)
H16 H 0.39390 0.67370 0.01750
C21 C 0.5799(6) 0.6809(5) -0.0683(3)
C22 C 0.6915(5) 0.7402(5) -0.0787(3)
H17 H 0.76870 0.71850 -0.12920
C23 C 0.6890(5) 0.8301(5) -0.0154(3)
H18 H 0.76530 0.86770 -0.02290
Ag3 Ag 0.50000 0.50000 0.50000
N5 N 0.8048(4) 0.5180(4) 0.2501(2)
N6 N 0.6200(4) 0.5245(4) 0.3647(2)
C24 C 0.9763(5) 0.5017(5) 0.0981(3)
C25 C 0.9464(5) 0.4052(5) 0.0539(3)
H19 H 0.91010 0.34020 0.09010
C26 C 0.9696(5) 0.4038(5) -0.0428(3)
H20 H 0.94830 0.33790 -0.07130
C27 C 0.9528(5) 0.5038(6) 0.2037(3)
H21 H 1.01020 0.42280 0.22630
H22 H 0.98460 0.57610 0.22090
C28 C 0.6874(5) 0.5798(5) 0.2146(3)
H23 H 0.68640 0.61340 0.15340
C29 C 0.5741(5) 0.5829(5) 0.2849(3)
H24 H 0.47970 0.61870 0.28050
C30 C 0.7570(5) 0.4873(5) 0.3405(3)
H25 H 0.81570 0.44420 0.38120
O7 O 0.1507(4) 0.8910(4) 0.9591(3)
H26 H 0.07640 0.93320 0.93960
H27 H 0.12990 0.83390 1.00080
O1A O 1.1839(5) -0.3483(4) 0.2793(3)
H1A H 1.15780 -0.28580 0.24420
O2A O 1.2267(4) -0.3787(4) 0.4217(3)
O3A O 1.1114(4) -0.1744(4) 0.1719(3)
O4A O 1.0443(5) 0.0405(5) 0.1649(3)
O5A O 1.0536(4) 0.3337(3) 0.3835(3)
O6A O 1.1345(4) 0.2694(4) 0.5128(2)
C1A C 1.1731(5) -0.1565(5) 0.3655(3)
C2A C 1.2018(5) -0.1251(5) 0.4486(3)
H2A H 1.23340 -0.19260 0.49030
C3A C 1.1850(5) 0.0027(5) 0.4712(3)
H3A H 1.20680 0.02030 0.52700
C4A C 1.1354(5) 0.1056(4) 0.4111(3)
C5A C 1.1076(5) 0.0746(5) 0.3282(3)
H4A H 1.07510 0.14320 0.28750
C6A C 1.1254(5) -0.0538(5) 0.3018(3)
C7A C 1.1962(6) -0.3055(6) 0.3569(5)
C8A C 1.0890(6) -0.0614(7) 0.2068(4)
C9A C 1.1066(5) 0.2469(5) 0.4370(3)
Ag2* Ag 0.57859(5) 0.79599(4) -0.50499(3)
N2* N 0.5118(5) 0.7478(4) 0.6368(2)
N5A N 1.1952(4) 0.4820(4) -0.2501(2)
N6A N 1.3800(4) 0.4755(4) -0.3647(2)
C24A C 1.0237(5) 0.4983(5) -0.0981(3)
C25A C 1.0536(5) 0.5948(5) -0.0539(3)
H19A H 1.08990 0.65980 -0.09010
C26A C 1.0304(5) 0.5962(5) 0.0428(3)
H20A H 1.05170 0.66210 0.07130
C27A C 1.0472(5) 0.4962(6) -0.2037(3)
H21A H 0.98980 0.57720 -0.22630
H22A H 1.01540 0.42390 -0.22090
C28A C 1.3126(5) 0.4202(5) -0.2146(3)
H23A H 1.31360 0.38660 -0.15340
C29A C 1.4259(5) 0.4171(5) -0.2849(3)
H24A H 1.52030 0.38130 -0.28050
C30A C 1.2430(5) 0.5127(5) -0.3405(3)
H25A H 1.18430 0.55580 -0.38120
Ag3* Ag 1.50000 0.50000 -0.50000
N6A* N 0.3800(4) 0.4755(4) 0.6353(2)
#END
