
#######################################################################
#
#                 Cambridge Crystallographic Data Centre
#                                CCDC
#
#######################################################################
#
# If this CIF has been generated from an entry in the Cambridge
# Structural Database, then it will include bibliographic, chemical,
# crystal, experimental, refinement or atomic coordinate data resulting
# from the CCDC's data processing and validation procedures.
#
#######################################################################

data_CSD_CIF_WIPLOY
_audit_creation_date 2013-10-18
_audit_creation_method CSD-ConQuest-V1
_database_code_CSD WIPLOY
_database_code_depnum_ccdc_archive 'CCDC 899418'
_chemical_formula_sum 'C111 H125 Eu4 N9 O46'
_chemical_formula_moiety
;
(C2 H8 N1 1+)4n,n(C94 H58 Eu4 N2 O36 4-),3n(C3 H7 N1 O1),7n(H2 O1)
;
_journal_coden_Cambridge 9
_journal_volume 52
_journal_year 2013
_journal_page_first 7658
_journal_name_full 'Inorg.Chem. '
loop_
_publ_author_name
"Yan-Li Gai"
"Fei-Long Jiang"
"Lian Chen"
"Yang Bu"
"Kong-Zhao Su"
"S.A.Al-Thabaiti"
"Mao-Chun Hong"
_chemical_name_systematic
;
catena-[tetrakis(Dimethylammonium) 
bis(\m~6~-1,1':4',1''-terphenyl-3,3'',5,5''-tetracarboxylato)-bis(\m~4~-1,1':4
',1''-terphenyl-3,3'',5,5''-tetracarboxylato)-diaqua-(N,N-dimethylformamide-O)
-tetra-europium N,N-dimethylformamide solvate heptahydrate]
;
_cell_volume   3117.073
_exptl_crystal_colour 'colorless'
_exptl_crystal_description 'prism'
_diffrn_ambient_temperature 293
_refine_special_details
;
Disordered cations and solvent molecules were not modelled and the disordered 
density was taken into account using the SQUEEZE/PLATON procedure. The unit 
cell was found to contain a void of 1296 A$3! holding 362 electrons. The 
N,N-dimethylformamide ligand has been modelled with half occupancy.
;
#These two values have been output from a single CSD field.
_refine_ls_R_factor_gt 0.0518
_refine_ls_wR_factor_gt 0.0518
_symmetry_cell_setting triclinic
_symmetry_space_group_name_H-M 'P -1'
_symmetry_Int_Tables_number 2
loop_
_symmetry_equiv_pos_site_id
_symmetry_equiv_pos_as_xyz
1 x,y,z
2 -x,-y,-z
_cell_length_a 10.984(4)
_cell_length_b 16.101(6)
_cell_length_c 19.692(8)
_cell_angle_alpha 74.149(14)
_cell_angle_beta 74.035(14)
_cell_angle_gamma 72.054(14)
_cell_formula_units_Z 1
loop_
_atom_type_symbol
_atom_type_radius_bond
C 0.68
H 0.23
Eu 1.98
N 0.68
O 0.68
loop_
_atom_site_label
_atom_site_type_symbol
_atom_site_fract_x
_atom_site_fract_y
_atom_site_fract_z
Eu1 Eu 0.39854(3) 0.90186(2) 0.239002(19)
Eu2 Eu -0.05620(3) 1.17628(2) 0.226584(19)
O1 O 0.3321(5) 0.7652(3) 0.3200(3)
O2 O 0.3195(5) 0.8741(3) 0.3715(3)
O3 O 0.1362(6) 0.8383(3) 0.6412(3)
O4 O 0.0883(5) 0.7103(3) 0.7011(3)
O5 O 0.3678(7) 1.0164(4) 0.1278(4)
O6 O -0.0107(5) 1.0237(3) 0.2430(4)
O7 O -0.4039(5) 0.9358(3) 0.2506(3)
O8 O -0.4036(5) 0.7946(3) 0.2797(3)
O9 O 0.1334(5) 0.1407(3) 0.2778(3)
O10 O 0.3266(5) 0.0426(3) 0.2733(3)
O11 O 0.7279(5) 0.1370(3) 0.2517(3)
O12 O 0.7195(5) 0.2791(3) 0.2266(3)
O13 O -0.1126(10) 1.1932(7) 0.1074(5)
O14 O 0.0543(5) 1.2894(3) 0.1394(3)
O15 O 0.1434(5) 1.1506(3) 0.1269(3)
O16 O 0.4170(5) 1.1311(4) -0.1279(3)
O17 O 0.5758(6) 1.2011(4) -0.1615(3)
C1 C 0.2976(7) 0.7980(5) 0.3748(4)
C2 C 0.2277(8) 0.7517(5) 0.4446(4)
C3 C 0.2069(7) 0.7793(5) 0.5090(4)
H1 H 0.23610 0.82770 0.50930
C4 C 0.1430(8) 0.7347(5) 0.5723(4)
C5 C 0.0943(8) 0.6651(6) 0.5703(4)
H2 H 0.04930 0.63600 0.61280
C6 C 0.1113(9) 0.6382(5) 0.5063(4)
C7 C 0.1799(8) 0.6809(6) 0.4436(4)
H3 H 0.19430 0.66260 0.40050
C8 C 0.1224(7) 0.7622(5) 0.6424(4)
C9 C 0.0552(10) 0.5669(6) 0.5036(4)
C10 C 0.0097(13) 0.5705(7) 0.4445(5)
H4 H 0.01310 0.61920 0.40620
C11 C 0.0404(12) 0.4949(7) 0.5602(5)
H5 H 0.06540 0.49110 0.60260
C12 C 0.0592(7) 0.9465(5) 0.2440(4)
C13 C -0.0055(7) 0.8741(4) 0.2490(4)
C14 C -0.1405(7) 0.8958(5) 0.2547(4)
H6 H -0.18950 0.95430 0.25460
C15 C -0.2014(7) 0.8297(5) 0.2605(4)
C16 C -0.1272(7) 0.7425(5) 0.2600(4)
H7 H -0.16950 0.69850 0.26550
C17 C 0.0116(7) 0.7184(5) 0.2514(4)
C18 C 0.0698(6) 0.7859(4) 0.2470(4)
H8 H 0.15990 0.77250 0.24260
C19 C -0.3449(7) 0.8548(5) 0.2642(4)
C20 C 0.0879(7) 0.6248(4) 0.2496(4)
C21 C 0.0378(8) 0.5635(5) 0.2353(5)
H9 H -0.04470 0.58170 0.22430
C22 C 0.1093(7) 0.4755(5) 0.2374(5)
H10 H 0.07180 0.43590 0.22880
C23 C 0.2331(7) 0.4444(4) 0.2515(4)
C24 C 0.2848(7) 0.5070(5) 0.2634(5)
H11 H 0.36880 0.48870 0.27250
C25 C 0.2168(7) 0.5953(5) 0.2620(4)
H12 H 0.25560 0.63510 0.26930
C26 C 0.3098(7) 0.3493(4) 0.2545(4)
C27 C 0.4444(7) 0.3269(4) 0.2461(4)
H13 H 0.48680 0.37160 0.23820
C28 C 0.5181(6) 0.2385(4) 0.2493(4)
C29 C 0.4565(6) 0.1717(4) 0.2588(4)
H14 H 0.50510 0.11280 0.26170
C30 C 0.3231(7) 0.1924(4) 0.2640(4)
C31 C 0.2520(7) 0.2811(5) 0.2631(4)
H15 H 0.16160 0.29480 0.26860
C32 C 0.6638(7) 0.2170(4) 0.2414(4)
C33 C 0.2564(7) 0.1192(5) 0.2711(4)
C34 C 0.1437(8) 1.2316(5) 0.1086(4)
C35 C 0.2508(8) 1.2589(5) 0.0491(4)
C36 C 0.3070(8) 1.2125(5) -0.0056(4)
H16 H 0.27700 1.16470 -0.00620
C37 C 0.4096(8) 1.2371(5) -0.0605(4)
C38 C 0.4525(9) 1.3077(6) -0.0586(5)
H17 H 0.51990 1.32420 -0.09540
C39 C 0.3989(9) 1.3551(5) -0.0040(5)
C40 C 0.2948(8) 1.3304(5) 0.0491(4)
H18 H 0.25430 1.36300 0.08520
C41 C 0.4691(8) 1.1875(5) -0.1196(4)
C42 C 0.4614(11) 1.4427(7) 0.0627(5)
H19 H 0.43680 1.40390 0.10540
C43 C 0.450(1) 1.4296(6) -0.0030(5)
C44 C 0.4911(12) 1.4868(7) -0.0648(5)
H20 H 0.48730 1.47880 -0.10910
O18 O 0.1791(5) 0.9262(4) 0.2391(4)
N1 N -0.1198(13) 1.2812(9) -0.0024(7)
C45 C -0.1488(16) 1.2612(12) 0.0676(8)
H21 H -0.20610 1.30680 0.08980
C46 C -0.0276(16) 1.2229(12) -0.0419(8)
H22 H 0.05750 1.21720 -0.03430
H23 H -0.02900 1.24510 -0.09220
H24 H -0.04700 1.16560 -0.02670
C47 C -0.1681(18) 1.3632(11) -0.0469(9)
H25 H -0.25360 1.39160 -0.02310
H26 H -0.17340 1.35280 -0.09160
H27 H -0.11030 1.40110 -0.05640
O1A O -0.3321(5) 0.2348(3) 0.6800(3)
O2A O -0.3195(5) 0.1259(3) 0.6285(3)
O3A O -0.1362(6) 0.1617(3) 0.3588(3)
O4A O -0.0883(5) 0.2897(3) 0.2989(3)
C1A C -0.2976(7) 0.2020(5) 0.6252(4)
C2A C -0.2277(8) 0.2483(5) 0.5554(4)
C3A C -0.2069(7) 0.2207(5) 0.4910(4)
H1A H -0.23610 0.17230 0.49070
C4A C -0.1430(8) 0.2653(5) 0.4277(4)
C5A C -0.0943(8) 0.3349(6) 0.4297(4)
H2A H -0.04930 0.36400 0.38720
C6A C -0.1113(9) 0.3618(5) 0.4937(4)
C7A C -0.1799(8) 0.3191(6) 0.5564(4)
H3A H -0.19430 0.33740 0.59950
C8A C -0.1224(7) 0.2378(5) 0.3576(4)
C9A C -0.0552(10) 0.4331(6) 0.4964(4)
C10A C -0.0097(13) 0.4295(7) 0.5555(5)
H4A H -0.01310 0.38080 0.59380
C11A C -0.0404(12) 0.5051(7) 0.4398(5)
H5A H -0.06540 0.50890 0.39740
O14A O 0.9457(5) 1.7106(3) -0.1394(3)
O15A O 0.8566(5) 1.8494(3) -0.1269(3)
O16A O 0.5830(5) 1.8689(4) 0.1279(3)
O17A O 0.4242(6) 1.7989(4) 0.1615(3)
C34A C 0.8563(8) 1.7684(5) -0.1086(4)
C35A C 0.7492(8) 1.7411(5) -0.0491(4)
C36A C 0.6930(8) 1.7875(5) 0.0056(4)
H16A H 0.72300 1.83530 0.00620
C37A C 0.5904(8) 1.7629(5) 0.0605(4)
C38A C 0.5475(9) 1.6923(6) 0.0586(5)
H17A H 0.48010 1.67580 0.09540
C39A C 0.6011(9) 1.6449(5) 0.0040(5)
C40A C 0.7052(8) 1.6696(5) -0.0491(4)
H18A H 0.74570 1.63700 -0.08520
C41A C 0.5309(8) 1.8125(5) 0.1196(4)
C42A C 0.5386(11) 1.5573(7) -0.0627(5)
H19A H 0.56320 1.59610 -0.10540
C43A C 0.550(1) 1.5704(6) 0.0030(5)
C44A C 0.5089(12) 1.5132(7) 0.0648(5)
H20A H 0.51270 1.52120 0.10910
Eu1A Eu -0.39854(3) 0.09814(2) 0.760998(19)
Eu2A Eu 0.05620(3) -0.17628(2) 0.773416(19)
O5A O -0.3678(7) -0.0164(4) 0.8722(4)
O6A O 0.0107(5) -0.0237(3) 0.7570(4)
O7A O 0.4039(5) 0.0642(3) 0.7494(3)
O8A O 0.4036(5) 0.2054(3) 0.7203(3)
O9A O -0.1334(5) 0.8593(3) 0.7222(3)
O10A O -0.3266(5) 0.9574(3) 0.7267(3)
O11A O -0.7279(5) 0.8630(3) 0.7483(3)
O12A O -0.7195(5) 0.7209(3) 0.7734(3)
O13A O 0.1126(10) -0.1932(7) 0.8926(5)
C12A C -0.0592(7) 0.0535(5) 0.7560(4)
C13A C 0.0055(7) 0.1259(4) 0.7510(4)
C14A C 0.1405(7) 0.1042(5) 0.7453(4)
H6A H 0.18950 0.04570 0.74540
C15A C 0.2014(7) 0.1703(5) 0.7395(4)
C16A C 0.1272(7) 0.2575(5) 0.7400(4)
H7A H 0.16950 0.30150 0.73450
C17A C -0.0116(7) 0.2816(5) 0.7486(4)
C18A C -0.0698(6) 0.2141(4) 0.7530(4)
H8A H -0.15990 0.22750 0.75740
C19A C 0.3449(7) 0.1452(5) 0.7358(4)
C20A C -0.0879(7) 0.3752(4) 0.7504(4)
C21A C -0.0378(8) 0.4365(5) 0.7647(5)
H9A H 0.04470 0.41830 0.77570
C22A C -0.1093(7) 0.5245(5) 0.7626(5)
H10A H -0.07180 0.56410 0.77120
C23A C -0.2331(7) 0.5556(4) 0.7485(4)
C24A C -0.2848(7) 0.4930(5) 0.7366(5)
H11A H -0.36880 0.51130 0.72750
C25A C -0.2168(7) 0.4047(5) 0.7380(4)
H12A H -0.25560 0.36490 0.73070
C26A C -0.3098(7) 0.6507(4) 0.7455(4)
C27A C -0.4444(7) 0.6731(4) 0.7539(4)
H13A H -0.48680 0.62840 0.76180
C28A C -0.5181(6) 0.7615(4) 0.7507(4)
C29A C -0.4565(6) 0.8283(4) 0.7412(4)
H14A H -0.50510 0.88720 0.73830
C30A C -0.3231(7) 0.8076(4) 0.7360(4)
C31A C -0.2520(7) 0.7189(5) 0.7369(4)
H15A H -0.16160 0.70520 0.73140
C32A C -0.6638(7) 0.7830(4) 0.7586(4)
C33A C -0.2564(7) 0.8808(5) 0.7289(4)
O18A O -0.1791(5) 0.0738(4) 0.7609(4)
N1A N 0.1198(13) -0.2812(9) 1.0024(7)
C45A C 0.1488(16) -0.2612(12) 0.9324(8)
H21A H 0.20610 -0.30680 0.91020
C46A C 0.0276(16) -0.2229(12) 1.0419(8)
H22A H -0.05750 -0.21720 1.03430
H23A H 0.02900 -0.24510 1.09220
H24A H 0.04700 -0.16560 1.02670
C47A C 0.1681(18) -0.3632(11) 1.0469(9)
H25A H 0.25360 -0.39160 1.02310
H26A H 0.17340 -0.35280 1.09160
H27A H 0.11030 -0.40110 1.05640
Eu1* Eu -0.60146(3) 0.90186(2) 0.239002(19)
Eu1** Eu 0.39854(3) -0.09814(2) 0.239002(19)
Eu1*** Eu 0.39854(3) 1.90186(2) 0.239002(19)
Eu1A* Eu -0.39854(3) 1.09814(2) 0.760998(19)
Eu1A** Eu 0.60146(3) 0.09814(2) 0.760998(19)
Eu1A*** Eu 0.60146(3) 1.09814(2) -0.239002(19)
Eu2* Eu -0.05620(3) 0.17628(2) 0.226584(19)
Eu2** Eu 0.94380(3) 0.17628(2) 0.226584(19)
Eu2A* Eu -0.94380(3) 0.82372(2) 0.773416(19)
Eu2A** Eu 0.05620(3) 0.82372(2) 0.773416(19)
Eu2A*** Eu 1.05620(3) 1.82372(2) -0.226584(19)
O3* O 0.1362(6) -0.1617(3) 0.6412(3)
O3A* O -0.1362(6) 1.1617(3) 0.3588(3)
O4* O 0.0883(5) -0.2897(3) 0.7011(3)
O4A* O -0.0883(5) 1.2897(3) 0.2989(3)
O7* O 0.5961(5) 0.9358(3) 0.2506(3)
O7A* O -0.5961(5) 0.0642(3) 0.7494(3)
O8* O 0.5964(5) 0.7946(3) 0.2797(3)
O8A* O -0.5964(5) 0.2054(3) 0.7203(3)
O9* O 0.1334(5) 1.1407(3) 0.2778(3)
O9A* O -0.1334(5) -0.1407(3) 0.7222(3)
O10* O 0.3266(5) 1.0426(3) 0.2733(3)
O10A* O -0.3266(5) -0.0426(3) 0.7267(3)
O11* O -0.2721(5) 1.1370(3) 0.2517(3)
O11A* O 0.2721(5) -0.1370(3) 0.7483(3)
O12* O -0.2805(5) 1.2791(3) 0.2266(3)
O12A* O 0.2805(5) -0.2791(3) 0.7734(3)
O14A* O -0.0543(5) -0.2894(3) 0.8606(3)
O15A* O -0.1434(5) -0.1506(3) 0.8731(3)
O16* O -0.5830(5) 0.1311(4) 0.8721(3)
O16A* O 0.5830(5) 0.8689(4) 0.1279(3)
O17* O -0.4242(6) 0.2011(4) 0.8385(3)
O17A* O 0.4242(6) 0.7989(4) 0.1615(3)
#END
