
#######################################################################
#
#                 Cambridge Crystallographic Data Centre
#                                CCDC
#
#######################################################################
#
# If this CIF has been generated from an entry in the Cambridge
# Structural Database, then it will include bibliographic, chemical,
# crystal, experimental, refinement or atomic coordinate data resulting
# from the CCDC's data processing and validation procedures.
#
#######################################################################

data_CSD_CIF_WIPPES
_audit_creation_date 2013-10-18
_audit_creation_method CSD-ConQuest-V1
_database_code_CSD WIPPES
_database_code_depnum_ccdc_archive 'CCDC 896629'
_chemical_formula_sum 'C75 H83 Cd3 N7 O25'
_chemical_formula_moiety
;
(C56 H32 Cd3 O20 2-)n,5n(C3 H7 N1 O1),2n(C2 H8 N1 1+)
;
_journal_coden_Cambridge 1347
_journal_volume 181
_journal_year 2013
_journal_page_first 262
_journal_name_full 'Microporous and Mesoporous Materials '
loop_
_publ_author_name
"Xiao-Feng Wang"
"Yun-Kai Sun"
"Shu-Hong Wang"
_chemical_name_systematic
;
catena-[bis(dimethylammonium) 
bis(\m~4~-4,4'-oxydibenzoato)-bis(\m~3~-4,4'-oxydibenzoato)-tri-cadmium(ii) 
N,N-dimethylformamide solvate]
;
_cell_volume   2121.555
_exptl_crystal_colour 'colorless'
_exptl_crystal_density_diffrn 1.424
_exptl_crystal_description 'block'
_diffrn_ambient_temperature 293
#These two values have been output from a single CSD field.
_refine_ls_R_factor_gt 0.058
_refine_ls_wR_factor_gt 0.058
_symmetry_cell_setting triclinic
_symmetry_space_group_name_H-M 'P -1'
_symmetry_Int_Tables_number 2
loop_
_symmetry_equiv_pos_site_id
_symmetry_equiv_pos_as_xyz
1 x,y,z
2 -x,-y,-z
_cell_length_a 11.687(2)
_cell_length_b 14.419(3)
_cell_length_c 14.710(3)
_cell_angle_alpha 112.180(5)
_cell_angle_beta 104.093(5)
_cell_angle_gamma 100.391(6)
_cell_formula_units_Z 1
loop_
_atom_type_symbol
_atom_type_radius_bond
C 0.68
H 0.23
Cd 1.44
N 0.68
O 0.68
loop_
_atom_site_label
_atom_site_type_symbol
_atom_site_fract_x
_atom_site_fract_y
_atom_site_fract_z
Cd1 Cd -1.00000 -0.50000 0.50000
Cd2 Cd -0.81476(3) -0.50468(3) 0.34753(3)
O1 O -0.6571(3) -0.3895(3) 0.3313(3)
O2 O -0.7817(4) -0.5296(3) 0.1919(3)
O3 O -0.4668(4) -0.3111(4) -0.0092(3)
O4 O -0.7923(3) -0.4281(3) -0.4746(3)
O5 O -0.6305(4) -0.4781(3) -0.5001(3)
O6 O -1.0396(4) -0.3909(3) 0.4353(3)
O7 O -0.9496(4) -0.4187(3) 0.3138(3)
O8 O -1.2227(4) -0.0939(3) 0.2511(4)
O9 O -0.8439(4) 0.3205(3) 0.3152(3)
O10 O -1.0003(4) 0.3781(3) 0.3429(3)
C1 C -0.6962(5) -0.4443(4) 0.2349(4)
C2 C -0.6384(5) -0.4093(4) 0.1682(4)
C3 C -0.5560(5) -0.3103(5) 0.2099(4)
H1 H -0.53630 -0.26480 0.27990
C4 C -0.5025(5) -0.2779(5) 0.1489(4)
H2 H -0.44750 -0.21070 0.17720
C5 C -0.5314(5) -0.3462(5) 0.0455(4)
C6 C -0.6131(5) -0.4455(5) 0.0018(4)
H3 H -0.63180 -0.49120 -0.06800
C7 C -0.6665(5) -0.4757(4) 0.0639(4)
H4 H -0.72290 -0.54240 0.03510
C8 C -0.5247(5) -0.3431(5) -0.1140(4)
C9 C -0.6469(5) -0.3490(5) -0.1548(4)
H5 H -0.69350 -0.33260 -0.11120
C10 C -0.7000(5) -0.3795(5) -0.2608(4)
H6 H -0.78240 -0.38390 -0.28830
C11 C -0.6307(5) -0.4036(4) -0.3261(4)
C12 C -0.5053(5) -0.3956(4) -0.2827(4)
H7 H -0.45800 -0.41160 -0.32570
C13 C -0.4529(5) -0.3643(5) -0.1771(4)
H8 H -0.36980 -0.35750 -0.14850
C14 C -0.6865(5) -0.4386(4) -0.4396(4)
C15 C -0.9500(5) 0.3056(4) 0.3231(4)
C16 C -1.0200(5) 0.1994(4) 0.3056(4)
C17 C -1.1388(6) 0.1794(5) 0.3063(5)
H9 H -1.17560 0.23290 0.31910
C18 C -1.2044(6) 0.0809(5) 0.2883(6)
H10 H -1.28540 0.06780 0.28790
C19 C -1.1499(5) 0.0028(4) 0.2709(5)
C20 C -1.0305(6) 0.0208(5) 0.2716(6)
H11 H -0.99270 -0.03200 0.26160
C21 C -0.9683(6) 0.1188(5) 0.2876(5)
H12 H -0.88800 0.13120 0.28610
C22 C -1.1658(5) -0.1608(5) 0.2789(5)
C23 C -1.1158(6) -0.1379(5) 0.3819(5)
H13 H -1.11450 -0.07520 0.43350
C24 C -1.0669(6) -0.2081(5) 0.4092(5)
H14 H -1.03450 -0.19320 0.47930
C25 C -1.0662(5) -0.2991(4) 0.3340(4)
C26 C -1.1159(7) -0.3212(5) 0.2297(5)
H15 H -1.11510 -0.38270 0.17780
C27 C -1.1672(7) -0.2510(5) 0.2026(5)
H16 H -1.20190 -0.26610 0.13270
C28 C -1.0138(5) -0.3764(4) 0.3633(4)
N1 N -1.5766(5) -0.6597(4) -0.4759(4)
H17 H -1.50360 -0.64890 -0.42920
H18 H -1.57350 -0.60080 -0.48440
C29 C -1.6744(7) -0.6776(6) -0.4329(7)
H19 H -1.65880 -0.61700 -0.36880
H20 H -1.67560 -0.73790 -0.41950
H21 H -1.75300 -0.68950 -0.48210
C30 C -1.5932(7) -0.7457(5) -0.5764(6)
H22 H -1.52680 -0.72760 -0.60020
H23 H -1.67070 -0.75740 -0.62670
H24 H -1.59300 -0.80860 -0.56800
O11 O -1.5993(7) -0.8922(6) -0.4433(6)
C31 C -1.6087(8) -0.9773(7) -0.4373(7)
H25 H -1.56240 -0.97650 -0.37570
N2 N -1.6819(7) -1.0681(6) -0.5149(6)
C32 C -1.7497(13) -1.0746(11) -0.6111(10)
H26 H -1.74860 -1.00540 -0.60380
H27 H -1.83360 -1.11710 -0.63310
H28 H -1.71320 -1.10590 -0.66240
C33 C -1.6856(12) -1.1646(9) -0.5065(9)
H29 H -1.63670 -1.14920 -0.43700
H30 H -1.65300 -1.20660 -0.55560
H31 H -1.76970 -1.20230 -0.52140
O12 O -1.518(3) 0.061(2) 0.2353(19)
N3 N -1.654(3) 0.0293(19) 0.084(3)
C34 C -1.598(3) 0.080(2) 0.184(2)
H32 H -1.62290 0.13650 0.22000
C35 C -1.751(3) 0.054(3) 0.024(3)
H33 H -1.77080 0.11130 0.07020
H34 H -1.82350 -0.00670 -0.01330
H35 H -1.72390 0.07280 -0.02480
C36 C -1.6134(16) -0.0628(16) 0.0268(12)
H36 H -1.55080 -0.07180 0.07590
H37 H -1.58040 -0.04990 -0.02260
H38 H -1.68310 -0.12540 -0.00960
O13 O -1.1692(16) -0.8917(16) -0.1613(12)
C37 C -1.1566(16) -0.7933(16) -0.1090(12)
H39 H -1.21190 -0.76550 -0.13920
N4 N -1.069(2) -0.726(2) -0.0133(19)
C38 C -0.986(3) -0.775(3) 0.029(2)
H40 H -1.00710 -0.84730 -0.01990
H41 H -0.99330 -0.77020 0.09380
H42 H -0.90250 -0.73900 0.04010
C39 C -1.066(3) -0.624(2) 0.033(2)
H43 H -1.12530 -0.61020 -0.01380
H44 H -0.98490 -0.57940 0.05120
H45 H -1.08680 -0.61110 0.09550
Cd2A Cd -1.18524(3) -0.49532(3) -0.34753(3)
O1A O -1.3429(3) -0.6105(3) -0.3313(3)
O2A O -1.2183(4) -0.4704(3) -0.1919(3)
O3A O -1.5332(4) -0.6889(4) 0.0092(3)
O4A O -1.2077(3) -0.5719(3) 0.4746(3)
O5A O -1.3695(4) -0.5219(3) 0.5001(3)
O6A O -0.9604(4) -0.6091(3) -0.4353(3)
O7A O -1.0504(4) -0.5813(3) -0.3138(3)
O8A O -0.7773(4) -0.9061(3) -0.2511(4)
O9A O -1.1561(4) -1.3205(3) -0.3152(3)
O10A O -0.9997(4) -1.3781(3) -0.3429(3)
C1A C -1.3038(5) -0.5557(4) -0.2349(4)
C2A C -1.3616(5) -0.5907(4) -0.1682(4)
C3A C -1.4440(5) -0.6897(5) -0.2099(4)
H1A H -1.46370 -0.73520 -0.27990
C4A C -1.4975(5) -0.7221(5) -0.1489(4)
H2A H -1.55250 -0.78930 -0.17720
C5A C -1.4686(5) -0.6538(5) -0.0455(4)
C6A C -1.3869(5) -0.5545(5) -0.0018(4)
H3A H -1.36820 -0.50880 0.06800
C7A C -1.3335(5) -0.5243(4) -0.0639(4)
H4A H -1.27710 -0.45760 -0.03510
C8A C -1.4753(5) -0.6569(5) 0.1140(4)
C9A C -1.3531(5) -0.6510(5) 0.1548(4)
H5A H -1.30650 -0.66740 0.11120
C10A C -1.3000(5) -0.6205(5) 0.2608(4)
H6A H -1.21760 -0.61610 0.28830
C11A C -1.3693(5) -0.5964(4) 0.3261(4)
C12A C -1.4947(5) -0.6044(4) 0.2827(4)
H7A H -1.54200 -0.58840 0.32570
C13A C -1.5471(5) -0.6357(5) 0.1771(4)
H8A H -1.63020 -0.64250 0.14850
C14A C -1.3135(5) -0.5614(4) 0.4396(4)
C15A C -1.0500(5) -1.3056(4) -0.3231(4)
C16A C -0.9800(5) -1.1994(4) -0.3056(4)
C17A C -0.8612(6) -1.1794(5) -0.3063(5)
H9A H -0.82440 -1.23290 -0.31910
C18A C -0.7956(6) -1.0809(5) -0.2883(6)
H10A H -0.71460 -1.06780 -0.28790
C19A C -0.8501(5) -1.0028(4) -0.2709(5)
C20A C -0.9695(6) -1.0208(5) -0.2716(6)
H11A H -1.00730 -0.96800 -0.26160
C21A C -1.0317(6) -1.1188(5) -0.2876(5)
H12A H -1.11200 -1.13120 -0.28610
C22A C -0.8342(5) -0.8392(5) -0.2789(5)
C23A C -0.8842(6) -0.8621(5) -0.3819(5)
H13A H -0.88550 -0.92480 -0.43350
C24A C -0.9331(6) -0.7919(5) -0.4092(5)
H14A H -0.96550 -0.80680 -0.47930
C25A C -0.9338(5) -0.7009(4) -0.3340(4)
C26A C -0.8841(7) -0.6788(5) -0.2297(5)
H15A H -0.88490 -0.61730 -0.17780
C27A C -0.8328(7) -0.7490(5) -0.2026(5)
H16A H -0.79810 -0.73390 -0.13270
C28A C -0.9862(5) -0.6236(4) -0.3633(4)
Cd1* Cd -1.00000 -1.50000 -0.50000
Cd1** Cd -1.00000 -0.50000 -0.50000
Cd1*** Cd -1.00000 0.50000 0.50000
Cd2* Cd -0.81476(3) -0.50468(3) -0.65247(3)
Cd2** Cd -0.81476(3) 0.49532(3) 0.34753(3)
Cd2A* Cd -1.18524(3) -1.49532(3) -0.34753(3)
Cd2A** Cd -1.18524(3) -0.49532(3) 0.65247(3)
O4* O -0.7923(3) -0.4281(3) 0.5254(3)
O4A* O -1.2077(3) -0.5719(3) -0.5254(3)
O5* O -0.6305(4) -0.4781(3) 0.4999(3)
O5A* O -1.3695(4) -0.5219(3) -0.4999(3)
O6A* O -0.9604(4) -0.6091(3) 0.5647(3)
O9* O -0.8439(4) -0.6795(3) 0.3152(3)
O9A* O -1.1561(4) -0.3205(3) -0.3152(3)
O10* O -1.0003(4) -0.6219(3) 0.3429(3)
O10A* O -0.9997(4) -0.3781(3) -0.3429(3)
O10A** O -0.9997(4) -0.3781(3) 0.6571(3)
#END
