
#######################################################################
#
#                 Cambridge Crystallographic Data Centre
#                                CCDC
#
#######################################################################
#
# If this CIF has been generated from an entry in the Cambridge
# Structural Database, then it will include bibliographic, chemical,
# crystal, experimental, refinement or atomic coordinate data resulting
# from the CCDC's data processing and validation procedures.
#
#######################################################################

data_CSD_CIF_WIPPIW
_audit_creation_date 2013-10-18
_audit_creation_method CSD-ConQuest-V1
_database_code_CSD WIPPIW
_database_code_depnum_ccdc_archive 'CCDC 896628'
_chemical_formula_sum 'C61 H61 Cd3 N5 O19'
_chemical_formula_moiety
;
(C48 H24 Cd3 O16 2-)n,2n(C2 H8 N1 1+),3n(C3 H7 N1 O1)
;
_journal_coden_Cambridge 1347
_journal_volume 181
_journal_year 2013
_journal_page_first 262
_journal_name_full 'Microporous and Mesoporous Materials '
loop_
_publ_author_name
"Xiao-Feng Wang"
"Yun-Kai Sun"
"Shu-Hong Wang"
_chemical_name_systematic
;
catena-[bis(dimethylammonium) 
bis(\m~4~-naphthalene-2,6-dicarboxylato)-bis(\m~3~-naphthalene-2,6-dicarboxyla
to)-tri-cadmium(ii) N,N-dimethylformamide solvate]
;
_cell_volume  28691.210
_exptl_crystal_colour 'colorless'
_exptl_crystal_description 'block'
_diffrn_ambient_temperature 293
_refine_special_details
;
Disordered solvent molecules were not modelled and the disordered density was 
taken into account using the SQUEEZE/PLATON procedure.
;
#These two values have been output from a single CSD field.
_refine_ls_R_factor_gt 0.0661
_refine_ls_wR_factor_gt 0.0661
_symmetry_cell_setting orthorhombic
_symmetry_space_group_name_H-M 'F d d 2'
_symmetry_Int_Tables_number 43
loop_
_symmetry_equiv_pos_site_id
_symmetry_equiv_pos_as_xyz
1 x,y,z
2 -x,-y,z
3 1/4+x,1/4-y,1/4+z
4 1/4-x,1/4+y,1/4+z
5 x,1/2+y,1/2+z
6 -x,1/2-y,1/2+z
7 1/4+x,3/4-y,3/4+z
8 1/4-x,3/4+y,3/4+z
9 1/2+x,y,1/2+z
10 1/2-x,-y,1/2+z
11 3/4+x,1/4-y,3/4+z
12 3/4-x,1/4+y,3/4+z
13 1/2+x,1/2+y,z
14 1/2-x,1/2-y,z
15 3/4+x,3/4-y,1/4+z
16 3/4-x,3/4+y,1/4+z
_cell_length_a 32.68(7)
_cell_length_b 34.95(8)
_cell_length_c 25.12(4)
_cell_angle_alpha 90
_cell_angle_beta 90
_cell_angle_gamma 90
_cell_formula_units_Z 16
loop_
_atom_type_symbol
_atom_type_radius_bond
C 0.68
H 0.23
Cd 1.44
N 0.68
O 0.68
loop_
_atom_site_label
_atom_site_type_symbol
_atom_site_fract_x
_atom_site_fract_y
_atom_site_fract_z
Cd1 Cd 0.49786(2) 0.14656(2) 0.88496(4)
Cd2 Cd 0.56981(3) 0.24939(3) 0.66463(5)
Cd3 Cd 0.53199(3) 0.19610(3) 0.77117(5)
C1 C 0.6454(5) 0.1628(4) 0.7849(8)
H1 H 0.62690 0.17720 0.80460
C2 C 0.6468(4) 0.1681(3) 0.7355(7)
C3 C 0.6753(5) 0.1431(5) 0.6991(8)
H2 H 0.67740 0.14690 0.66130
C4 C 0.6983(5) 0.1141(6) 0.7308(9)
H3 H 0.71400 0.09640 0.71210
C5 C 0.6983(4) 0.1118(4) 0.7793(8)
C6 C 0.6717(5) 0.1347(5) 0.8138(9)
C7 C 0.6712(6) 0.1289(5) 0.8690(9)
H4 H 0.64990 0.14070 0.88960
C8 C 0.6975(6) 0.1045(6) 0.8918(8)
H5 H 0.69720 0.10150 0.92860
C9 C 0.7253(5) 0.0835(4) 0.8618(7)
C10 C 0.7266(5) 0.0861(5) 0.8078(10)
H6 H 0.74540 0.07160 0.78870
C11 C 0.6191(5) 0.1936(4) 0.6999(8)
C12 C 0.7589(6) 0.0562(6) 0.885(1)
O1 O 0.6263(3) 0.1987(3) 0.6548(5)
O2 O 0.5940(3) 0.2115(3) 0.7329(4)
O3 O 0.7541(3) 0.0567(3) 0.9376(6)
O4 O 0.7778(3) 0.0339(3) 0.8610(5)
C13 C 0.6582(5) 0.3251(4) 0.9845(8)
H7 H 0.67020 0.34150 0.95990
C14 C 0.6653(5) 0.3292(4) 1.0344(8)
C15 C 0.6515(4) 0.3000(3) 1.0724(5)
H8 H 0.65800 0.30220 1.10950
C16 C 0.6268(5) 0.2721(4) 1.0522(7)
H9 H 0.61530 0.25460 1.07580
C17 C 0.6180(4) 0.2682(4) 0.9997(7)
C18 C 0.6315(5) 0.2949(4) 0.9669(8)
C19 C 0.6249(6) 0.2939(4) 0.9088(10)
H10 H 0.63750 0.31150 0.88640
C20 C 0.5976(5) 0.2640(5) 0.8875(7)
H11 H 0.58870 0.26360 0.85110
C21 C 0.5838(4) 0.2353(4) 0.9267(7)
C22 C 0.5925(4) 0.2382(3) 0.9788(6)
H12 H 0.58170 0.22020 1.00210
C23 C 0.6941(5) 0.3609(4) 1.0537(8)
C24 C 0.5578(5) 0.2029(5) 0.9040(8)
O5 O 0.7038(3) 0.3562(3) 1.1000(5)
O6 O 0.7047(3) 0.3840(3) 1.0214(5)
O7 O 0.5573(3) 0.2012(3) 0.8542(6)
O8 O 0.5382(3) 0.1846(3) 0.9357(4)
C25 C 0.3936(6) 0.0455(6) 0.9458(9)
H13 H 0.39080 0.04000 0.90980
C26 C 0.4186(6) 0.0718(5) 0.9715(9)
C27 C 0.4206(6) 0.0753(5) 1.0261(9)
H14 H 0.43780 0.09410 1.03960
C28 C 0.3994(7) 0.0537(7) 1.0626(10)
H15 H 0.40150 0.05870 1.09890
C29 C 0.3755(6) 0.0251(6) 1.0447(9)
C30 C 0.3735(6) 0.0296(6) 0.9904(9)
C31 C 0.3502(7) 0.0017(6) 0.9683(9)
H16 H 0.34740 -0.00280 0.93200
C32 C 0.3310(5) -0.0195(5) 1.0087(8)
H17 H 0.31370 -0.03800 0.99450
C33 C 0.3306(5) -0.0203(5) 1.0646(8)
C34 C 0.3575(6) 0.0057(5) 1.0873(9)
H18 H 0.36180 0.00870 1.12490
C35 C 0.4506(6) 0.0985(5) 0.9393(10)
C36 C 0.3032(4) -0.0508(4) 1.0903(8)
O9 O 0.4476(3) 0.0988(3) 0.8911(5)
O10 O 0.4697(4) 0.1208(4) 0.9666(5)
O11 O 0.3068(3) -0.0530(3) 1.1408(6)
O12 O 0.2798(3) -0.0690(2) 1.0619(4)
C37 C 0.7281(5) 0.4277(4) 0.5702(5)
H19 H 0.74150 0.44370 0.59610
C38 C 0.7356(4) 0.4335(4) 0.5164(6)
C39 C 0.7140(5) 0.4121(5) 0.4788(5)
H20 H 0.71560 0.41850 0.44290
C40 C 0.6900(7) 0.3812(6) 0.4949(5)
H21 H 0.68240 0.36140 0.47020
C41 C 0.6814(4) 0.3767(3) 0.5470(5)
C42 C 0.7006(4) 0.3993(4) 0.5866(4)
C43 C 0.6931(5) 0.3906(5) 0.6393(5)
H22 H 0.70610 0.40450 0.66760
C44 C 0.6675(5) 0.3606(5) 0.6535(6)
H23 H 0.65770 0.35430 0.68840
C45 C 0.6486(4) 0.3389(4) 0.6139(7)
C46 C 0.6558(5) 0.3463(4) 0.5610(7)
H24 H 0.64140 0.33030 0.53610
C47 C 0.7627(5) 0.4650(5) 0.4965(9)
C48 C 0.6181(7) 0.3055(6) 0.6234(14)
O13 O 0.7704(3) 0.4931(3) 0.5239(4)
O14 O 0.7725(3) 0.4619(3) 0.4489(6)
O15 O 0.5969(5) 0.2859(4) 0.5951(7)
O16 O 0.6201(4) 0.2976(4) 0.6737(7)
N1 N 0.5369(5) 0.2941(5) 0.5166(9)
H25 H 0.54220 0.31060 0.49010
H26 H 0.56010 0.29160 0.53570
C49 C 0.5042(8) 0.3117(7) 0.5527(12)
H27 H 0.51330 0.33620 0.56510
H28 H 0.49950 0.29520 0.58270
H29 H 0.47920 0.31470 0.53300
C50 C 0.5278(7) 0.2584(7) 0.4939(10)
H30 H 0.54980 0.25070 0.47100
H31 H 0.50300 0.26040 0.47350
H32 H 0.52430 0.23980 0.52160
N2? N 0.50000 0.00000 0.9779(13)
H33? H 0.47530 0.00590 0.99160
H34? H 0.50880 -0.02240 0.99160
C51? C 0.50000 0.00000 0.9105(11)
H35? H 0.48140 -0.01920 0.89780
H36? H 0.52710 -0.00540 0.89780
H37? H 0.49150 0.02460 0.89780
C52? C 0.5333(7) 0.0320(7) 0.9820(9)
H38? H 0.53860 0.03750 1.01870
H39? H 0.52360 0.05470 0.96450
H40? H 0.55800 0.02350 0.96510
Cd1C Cd 0.75214(2) 0.39656(2) 1.13496(4)
Cd1O Cd 0.25214(2) -0.10344(2) 1.13496(4)
Cd2B Cd 0.81981(3) 0.00061(3) 0.91463(5)
Cd2F Cd 0.81981(3) 0.50061(3) 0.41463(5)
Cd3B Cd 0.78199(3) 0.05390(3) 1.02117(5)
Cd3C Cd 0.71801(3) 0.44610(3) 1.02117(5)
Cd3F Cd 0.78199(3) 0.55390(3) 0.52117(5)
Cd3O Cd 0.21801(3) -0.05390(3) 1.02117(5)
O3J O 0.5041(3) 0.1933(3) 0.6876(6)
O4J O 0.5278(3) 0.2161(3) 0.6110(5)
O5G O 0.5462(3) 0.1062(3) 0.8500(5)
O6G O 0.5453(3) 0.1340(3) 0.7714(5)
O11K O 0.4432(3) 0.1970(3) 0.8908(6)
O12K O 0.4702(3) 0.1810(2) 0.8119(4)
O13N O 0.5204(3) 0.2569(3) 0.7739(4)
O14N O 0.5225(3) 0.2881(3) 0.6989(6)
#END
