
#######################################################################
#
#                 Cambridge Crystallographic Data Centre
#                                CCDC
#
#######################################################################
#
# If this CIF has been generated from an entry in the Cambridge
# Structural Database, then it will include bibliographic, chemical,
# crystal, experimental, refinement or atomic coordinate data resulting
# from the CCDC's data processing and validation procedures.
#
#######################################################################

data_CSD_CIF_WISXAA
_audit_creation_date 2018-10-28
_audit_creation_method CSD-ConQuest-V1
_database_code_CSD WISXAA
_database_code_depnum_ccdc_archive 'CCDC 1863956'
_chemical_formula_sum 'C36 H48 N12 Nd4 O36 P4'
_chemical_formula_moiety
;
(C12 H6 Nd4 O36 P4 6-)n,6(C4 H7 N2 1+)
;
_journal_coden_Cambridge 9
_journal_volume 57
_journal_year 2018
_journal_page_first 14031
_journal_name_full 'Inorg.Chem. '
loop_
_publ_author_name
"Ting Li"
"Xiujuan Qi"
"Jing Li"
"Hongmei Zeng"
"Guohong Zou"
"Zhien Lin"
_chemical_name_systematic
;
catena-[hexakis(5-methyl-1H-imidazol-3-ium) 
bis(\m-phosphonato)-bis(\m-hydrogen 
phosphito)-hexakis(\m-oxalato)-tetra-neodymium(iii)]
;
_cell_volume   5717.447
_exptl_crystal_colour 'light violet'
_exptl_crystal_density_diffrn 2.237
_exptl_crystal_description 'block'
_diffrn_ambient_temperature 295.6
#These two values have been output from a single CSD field.
_refine_ls_R_factor_gt 0.064
_refine_ls_wR_factor_gt 0.064
_symmetry_cell_setting orthorhombic
_symmetry_space_group_name_H-M 'P 21 21 21'
_symmetry_Int_Tables_number 19
loop_
_symmetry_equiv_pos_site_id
_symmetry_equiv_pos_as_xyz
1 x,y,z
2 1/2-x,-y,1/2+z
3 -x,1/2+y,1/2-z
4 1/2+x,1/2-y,-z
_cell_length_a 12.2278(2)
_cell_length_b 13.8480(2)
_cell_length_c 33.7650(7)
_cell_angle_alpha 90
_cell_angle_beta 90
_cell_angle_gamma 90
_cell_formula_units_Z 4
loop_
_atom_type_symbol
_atom_type_radius_bond
C 0.68
H 0.23
N 0.68
Nd 2.01
O 0.68
P 1.05
loop_
_atom_site_label
_atom_site_type_symbol
_atom_site_fract_x
_atom_site_fract_y
_atom_site_fract_z
Nd1 Nd 0.75328(8) 0.99726(6) 0.34892(3)
Nd2 Nd 0.72513(7) 0.49687(6) 0.40046(3)
Nd3 Nd 0.22229(8) 0.52294(7) 0.34229(3)
Nd4 Nd 0.25636(7) 0.02528(6) 0.40663(3)
P1 P 0.7920(4) 0.7320(3) 0.35663(13)
H1 H 0.75930 0.70650 0.32320
P2 P 0.6576(4) 0.2409(4) 0.36887(14)
H2 H 0.64040 0.24580 0.33250
P3 P 0.1813(5) 0.7731(4) 0.38578(15)
H3 H 0.18210 0.74090 0.42030
P4 P 0.2697(5) 0.2674(3) 0.35901(13)
H4 H 0.23450 0.22090 0.33000
O1 O 0.7769(13) 0.8356(10) 0.3681(4)
O2 O 0.7371(13) 0.6624(9) 0.3841(4)
O3 O 0.9122(12) 0.7077(10) 0.3507(4)
O4 O 0.7045(14) 0.3354(10) 0.3813(5)
O5 O 0.5456(12) 0.2195(11) 0.3875(4)
O6 O 0.7332(12) 0.1557(9) 0.3741(4)
O7 O 0.2108(13) 0.6937(9) 0.3567(4)
O8 O 0.0638(14) 0.8054(11) 0.3803(6)
H5 H 0.02250 0.76540 0.39010
O9 O 0.2503(13) 0.8621(9) 0.3849(4)
O10 O 0.2105(12) 0.3621(9) 0.3660(4)
O11 O 0.2577(12) 0.1947(9) 0.3917(4)
O12 O 0.3908(13) 0.2869(12) 0.3481(5)
H6 H 0.42960 0.24500 0.35790
O13 O 0.5573(10) 1.0135(11) 0.3290(3)
O14 O 0.3845(10) 1.0316(11) 0.3496(4)
O15 O 0.6191(9) 0.9823(10) 0.4035(4)
O16 O 0.4468(10) 1.0108(12) 0.4254(4)
O17 O 0.5948(10) 0.5076(11) 0.3425(4)
O18 O 0.4187(11) 0.5210(12) 0.3220(4)
O19 O 0.5291(10) 0.5041(12) 0.4173(4)
O20 O 0.3558(10) 0.5240(12) 0.3967(4)
O21 O 0.0913(9) 0.5338(11) 0.3966(4)
O22 O -0.0840(11) 0.5153(11) 0.4182(4)
O23 O 0.0266(10) 0.5078(10) 0.3221(4)
O24 O -0.1455(10) 0.4892(11) 0.3436(4)
O25 O 0.2319(13) 0.6094(9) 0.2787(4)
O26 O 0.2465(12) 0.6045(9) 0.2128(3)
O27 O 0.2319(12) 0.4178(9) 0.2815(3)
O28 O 0.2409(12) 0.4121(9) 0.2149(3)
O29 O 0.1254(10) 0.0276(11) 0.3495(4)
O30 O -0.0486(11) 0.0067(11) 0.3292(4)
O31 O 0.0603(10) 0.0243(11) 0.4254(4)
O32 O -0.1127(9) 0.0084(10) 0.4048(4)
O33 O 0.2497(12) 0.1151(9) 0.4705(3)
O34 O 0.2376(13) 0.1115(9) 0.5372(4)
O35 O 0.2451(12) -0.0752(9) 0.4683(4)
O36 O 0.2172(13) -0.0808(10) 0.5339(4)
C1 C 0.4827(13) 1.0179(14) 0.3554(6)
C2 C 0.5221(13) 1.0008(12) 0.3987(5)
C3 C 0.4956(15) 0.5134(15) 0.3477(6)
C4 C 0.4551(13) 0.5153(15) 0.3913(5)
C5 C -0.0076(14) 0.5214(14) 0.3924(6)
C6 C -0.0478(13) 0.5058(12) 0.3479(5)
C7 C 0.2396(15) 0.5660(13) 0.2459(6)
C8 C 0.2351(15) 0.4547(13) 0.2478(6)
C9 C 0.0258(14) 0.0173(13) 0.3550(5)
C10 C -0.0148(13) 0.0154(13) 0.3989(6)
C11 C 0.2423(17) 0.0732(15) 0.5036(5)
C12 C 0.2336(15) -0.0375(14) 0.5021(5)
N1 N 0.3613(17) 0.7673(14) 0.4992(5)
H7 H 0.32280 0.81000 0.48700
N2 N 0.411(3) 0.671(2) 0.5440(8)
H8 H 0.41410 0.63960 0.56580
C13 C 0.486(3) 0.741(2) 0.4413(8)
H9 H 0.42450 0.74350 0.42370
H10 H 0.53460 0.69000 0.43300
H11 H 0.52410 0.80120 0.44090
C14 C 0.445(2) 0.720(2) 0.4840(9)
C15 C 0.477(4) 0.658(3) 0.5114(11)
H12 H 0.53400 0.61320 0.50920
C16 C 0.347(3) 0.739(2) 0.5359(7)
H13 H 0.29550 0.76440 0.55330
N3 N 0.4862(16) 0.6725(15) 0.2725(5)
H14 H 0.46580 0.61890 0.28300
N4 N 0.5368(16) 0.7747(18) 0.2294(6)
H15 H 0.55620 0.79990 0.20720
C17 C 0.488(2) 0.7632(19) 0.3361(7)
H16 H 0.41590 0.74060 0.34310
H17 H 0.49580 0.82920 0.34420
H18 H 0.54170 0.72420 0.34900
C18 C 0.5021(15) 0.7561(17) 0.2923(6)
C19 C 0.533(2) 0.8213(17) 0.2645(7)
H19 H 0.54800 0.88620 0.26880
C20 C 0.507(2) 0.686(2) 0.2346(7)
H20 H 0.50060 0.63900 0.21490
N5 N 0.7596(17) 0.4146(13) 0.2136(5)
H21 H 0.76880 0.44180 0.19090
N6 N 0.7401(15) 0.3060(13) 0.2557(5)
H22 H 0.73430 0.25000 0.26650
C21 C 0.748(3) 0.5669(17) 0.2520(9)
H23 H 0.76320 0.58270 0.27910
H24 H 0.67860 0.59430 0.24460
H25 H 0.80420 0.59250 0.23530
C22 C 0.7432(18) 0.4618(15) 0.2476(6)
C23 C 0.7301(19) 0.3921(14) 0.2746(5)
H26 H 0.71660 0.40100 0.30140
C24 C 0.760(2) 0.3218(15) 0.2195(6)
H27 H 0.77170 0.27490 0.20030
N7 N -0.0026(15) 0.3478(14) 0.2679(5)
H28 H -0.00390 0.40380 0.27890
N8 N 0.0164(16) 0.2393(17) 0.2252(6)
H29 H 0.03030 0.21130 0.20310
C25 C -0.036(2) 0.2582(18) 0.3307(6)
H30 H 0.00860 0.30560 0.34390
H31 H -0.01730 0.19510 0.34030
H32 H -0.11140 0.27110 0.33580
C26 C -0.0150(16) 0.2628(16) 0.2873(6)
C27 C -0.0032(19) 0.1931(18) 0.2593(8)
H33 H -0.00780 0.12670 0.26310
C28 C 0.012(2) 0.332(2) 0.2302(7)
H34 H 0.01710 0.37870 0.21050
N9 N 0.2032(18) 0.4129(17) 0.5270(6)
H35 H 0.19660 0.43460 0.55070
N10 N 0.230(2) 0.3142(18) 0.4826(12)
H36 H 0.24380 0.26080 0.47050
C29 C 0.152(3) 0.567(2) 0.4929(10)
H37 H 0.13380 0.58790 0.51920
H38 H 0.08810 0.57140 0.47640
H39 H 0.20840 0.60760 0.48240
C30 C 0.191(2) 0.4648(18) 0.4941(7)
C31 C 0.209(2) 0.4050(19) 0.4639(6)
H40 H 0.20750 0.41900 0.43700
C32 C 0.227(3) 0.324(2) 0.5176(13)
H41 H 0.23960 0.27550 0.53590
N11 N 0.4754(17) 0.1936(19) 0.4968(8)
H42 H 0.46950 0.13180 0.49650
N12 N 0.4887(19) 0.346(3) 0.4753(8)
H43 H 0.49160 0.39540 0.46010
C33 C 0.472(2) 0.2309(19) 0.5720(6)
H44 H 0.53970 0.25080 0.58420
H45 H 0.46250 0.16280 0.57590
H46 H 0.41260 0.26520 0.58380
C34 C 0.4766(17) 0.2522(17) 0.5289(6)
C35 C 0.4864(15) 0.3454(15) 0.5148(6)
H47 H 0.49070 0.40030 0.53060
C36 C 0.4855(17) 0.2543(19) 0.4643(6)
H48 H 0.48960 0.23340 0.43820
Nd1* Nd -0.24672(8) -0.00274(6) 0.34892(3)
Nd1** Nd 0.75328(8) -0.00274(6) 0.34892(3)
Nd1B Nd 0.24672(8) 0.49726(6) 0.15108(3)
Nd2* Nd -0.27487(7) 0.49687(6) 0.40046(3)
Nd2C Nd 0.22513(7) 0.00313(6) 0.59954(3)
Nd4* Nd 0.25636(7) 1.02528(6) 0.40663(3)
O6* O 0.7332(12) 1.1557(9) 0.3741(4)
O9* O 0.2503(13) -0.1379(9) 0.3849(4)
O14* O 0.3845(10) 0.0316(11) 0.3496(4)
O16* O 0.4468(10) 0.0108(12) 0.4254(4)
O22* O 0.9160(11) 0.5153(11) 0.4182(4)
O24* O 0.8545(10) 0.4892(11) 0.3436(4)
O26B O 0.7535(12) 1.1045(9) 0.2872(3)
O28B O 0.7591(12) 0.9121(9) 0.2851(3)
O30* O 0.9514(11) 1.0067(11) 0.3292(4)
O32* O 0.8873(9) 1.0084(10) 0.4048(4)
O34C O 0.7376(13) 0.3885(9) 0.4628(4)
O36C O 0.7172(13) 0.5808(10) 0.4661(4)
#END
