
#######################################################################
#
#                 Cambridge Crystallographic Data Centre
#                                CCDC
#
#######################################################################
#
# If this CIF has been generated from an entry in the Cambridge
# Structural Database, then it will include bibliographic, chemical,
# crystal, experimental, refinement or atomic coordinate data resulting
# from the CCDC's data processing and validation procedures.
#
#######################################################################

data_CSD_CIF_WITJOA
_audit_creation_date 2014-03-04
_audit_creation_method CSD-ConQuest-V1
_database_code_CSD WITJOA
_database_code_depnum_ccdc_archive 'CCDC 928834'
_chemical_formula_sum 'C48 H44 Mn3 N2 O23 S3'
_chemical_formula_moiety
;
(C42 H27 Mn3 O20 S3 1-)n,2n(C3 H7 N1 O1),n(H3 O1 1+)
;
_journal_coden_Cambridge 1147
_journal_volume 14
_journal_year 2014
_journal_page_first 310
_journal_name_full 'Cryst.Growth Des. '
loop_
_publ_author_name
"S.Bhattacharya"
"M.Gnanavel"
"A.J.Bhattacharyya"
"S.Natarajan"
_chemical_name_systematic
;
catena-[oxonium 
(\m~5~-4,4'-sulfonyldibenzoato)-bis(\m~4~-4,4'-sulfonyldibenzoato)-(\m~3~-hydr
oxo)-(aqua)-tri-manganese N,N-dimethylformamide solvate]
;
_cell_volume   7038.712
_exptl_crystal_colour 'yellow'
_exptl_crystal_description 'block'
_diffrn_ambient_temperature 120
_refine_special_details
;
Disordered solvent molecules were not modelled and the disordered density was 
taken into account using the SQUEEZE/PLATON procedure.
;
#These two values have been output from a single CSD field.
_refine_ls_R_factor_gt 0.0647
_refine_ls_wR_factor_gt 0.0647
_symmetry_cell_setting monoclinic
_symmetry_space_group_name_H-M 'P 21/n'
_symmetry_Int_Tables_number 14
loop_
_symmetry_equiv_pos_site_id
_symmetry_equiv_pos_as_xyz
1 x,y,z
2 1/2-x,1/2+y,1/2-z
3 -x,-y,-z
4 -1/2+x,-1/2-y,-1/2+z
_cell_length_a 15.9995(5)
_cell_length_b 18.1852(7)
_cell_length_c 24.8199(7)
_cell_angle_alpha 90
_cell_angle_beta 102.917(3)
_cell_angle_gamma 90
_cell_formula_units_Z 4
loop_
_atom_type_symbol
_atom_type_radius_bond
C 0.68
H 0.23
Mn 1.61
N 0.68
O 0.68
S 1.02
loop_
_atom_site_label
_atom_site_type_symbol
_atom_site_fract_x
_atom_site_fract_y
_atom_site_fract_z
Mn1 Mn 0.44614(4) 0.92938(3) 0.52057(2)
Mn2 Mn 0.59070(4) 0.88112(3) 0.42317(2)
Mn3 Mn 0.53544(4) 0.75007(4) 0.51480(3)
S1 S 0.09855(7) 0.74178(7) 0.62098(5)
S2 S 0.48144(7) 0.80093(9) 0.86260(4)
S3 S 0.95446(7) 1.00258(8) 0.70564(6)
O1 O 0.46072(19) 0.87809(17) 0.59708(11)
O2 O 0.85373(18) 0.63772(16) 0.96928(11)
O3 O 0.53699(14) 0.86308(13) 0.49104(9)
H1 H 0.58740 0.87750 0.51940
O4 O 0.55362(16) 1.00197(15) 0.55219(9)
O5 O 0.35313(16) 1.00168(15) 0.54883(9)
O6 O 1.0560(2) 0.7085(2) 0.86898(15)
O7 O -0.29165(19) 0.83110(17) 0.46863(13)
O8 O 0.53022(17) 1.06763(17) 0.62384(10)
O9 O 0.33445(18) 1.05156(18) 0.62591(11)
O10 O 1.0295(2) 0.7882(2) 0.93148(15)
O11 O -0.32624(19) 0.76009(19) 0.53476(13)
O12 O 0.89590(19) 0.75413(17) 0.99045(13)
O13 O 0.5486(3) 0.6347(3) 0.53823(19)
O14 O 0.53258(19) 0.77201(19) 0.60128(12)
O15 O 0.1244(2) 0.68238(19) 0.59034(18)
O16 O 0.1028(2) 0.7325(2) 0.67983(15)
O17 O 0.4255(2) 0.7411(3) 0.86884(14)
O18 O 0.4644(2) 0.8727(2) 0.88122(13)
O19 O 0.9794(2) 1.0721(2) 0.73271(17)
O20 O 0.9949(2) 0.9781(3) 0.66206(15)
C1 C 0.3217(3) 1.0005(2) 0.59112(15)
C2 C 0.2645(2) 0.9365(2) 0.59917(15)
C3 C 0.2375(3) 0.8870(3) 0.55699(18)
H2 H 0.25410 0.89290 0.52370
C4 C 0.1862(3) 0.8288(3) 0.56379(19)
H3 H 0.16880 0.79520 0.53520
C5 C 0.1606(3) 0.8198(2) 0.61233(17)
C6 C 0.1862(3) 0.8688(3) 0.65470(19)
H4 H 0.16810 0.86270 0.68750
C7 C 0.2391(3) 0.9281(3) 0.64905(18)
H5 H 0.25700 0.96110 0.67790
C8 C -0.0091(3) 0.7623(2) 0.5883(2)
C9 C -0.0315(3) 0.7832(4) 0.5345(2)
H6 H 0.01050 0.78960 0.51450
C10 C -0.1175(3) 0.7951(4) 0.5092(2)
H7 H -0.13270 0.81160 0.47280
C11 C -0.1807(3) 0.7820(2) 0.53883(18)
C12 C -0.1579(3) 0.7583(3) 0.59190(18)
H8 H -0.20030 0.74740 0.61090
C13 C -0.0713(3) 0.7499(3) 0.61871(19)
H9 H -0.05590 0.73640 0.65580
C14 C -0.2750(3) 0.7921(3) 0.51121(19)
C15 C 0.4959(3) 0.8217(3) 0.62162(16)
C16 C 0.4930(3) 0.8168(3) 0.68188(16)
C17 C 0.4641(3) 0.8757(2) 0.70764(16)
H10 H 0.44670 0.91850 0.68780
C18 C 0.4607(3) 0.8717(3) 0.76337(17)
H11 H 0.44120 0.91140 0.78080
C19 C 0.4869(3) 0.8075(3) 0.79200(16)
C20 C 0.5148(3) 0.7472(3) 0.76686(18)
H12 H 0.53110 0.70410 0.78670
C21 C 0.5182(3) 0.7519(3) 0.71106(18)
H13 H 0.53720 0.71210 0.69360
C22 C 0.5864(3) 0.7737(3) 0.89540(16)
C23 C 0.6481(3) 0.8277(3) 0.91561(17)
H14 H 0.63340 0.87720 0.91270
C24 C 0.7309(3) 0.8063(3) 0.93984(17)
H15 H 0.77240 0.84130 0.95410
C25 C 0.7515(3) 0.7309(2) 0.94263(15)
C26 C 0.6907(3) 0.6785(3) 0.92177(15)
H16 H 0.70560 0.62900 0.92290
C27 C 0.6062(3) 0.7004(3) 0.89873(16)
H17 H 0.56410 0.66550 0.88580
C28 C 0.8422(3) 0.7064(2) 0.96958(16)
C29 C 0.5776(3) 1.0308(2) 0.60033(15)
C30 C 0.6710(3) 1.0202(2) 0.62847(14)
C31 C 0.7069(3) 1.0620(3) 0.67484(15)
H18 H 0.67240 1.09380 0.68960
C32 C 0.7935(3) 1.0566(2) 0.69928(17)
H19 H 0.81790 1.08570 0.72950
C33 C 0.8426(3) 1.0070(3) 0.67779(17)
C34 C 0.8065(3) 0.9634(3) 0.63259(18)
H20 H 0.84020 0.92970 0.61890
C35 C 0.7202(3) 0.9704(3) 0.60792(17)
H21 H 0.69570 0.94140 0.57760
C36 C 0.9713(3) 0.9334(3) 0.75663(18)
C37 C 0.9604(4) 0.9492(3) 0.8093(2)
H22 H 0.93970 0.99490 0.81710
C38 C 0.9807(4) 0.8960(3) 0.8500(2)
H23 H 0.97520 0.90670 0.88570
C39 C 1.0090(3) 0.8275(3) 0.8384(2)
C40 C 1.0168(3) 0.8120(3) 0.78519(18)
H24 H 1.03530 0.76570 0.77690
C41 C 0.9970(3) 0.8655(3) 0.7439(2)
H25 H 1.00140 0.85490 0.70800
C42 C 1.0331(3) 0.7707(3) 0.8830(2)
H26 H 0.515(2) 0.629(2) 0.5599(13)
H27 H 0.538(4) 0.609(3) 0.5088(16)
O21 O 0.3605(5) 1.0482(5) 0.7658(4)
N1 N 0.5037(3) 1.0651(3) 0.79373(19)
C43 C 0.4384(8) 1.0696(5) 0.7515(3)
C44 C 0.5867(8) 1.0838(10) 0.7776(5)
C45 C 0.5044(9) 1.0483(5) 0.8480(3)
O22 O 0.7510(4) 0.6971(4) 0.70762(19)
N2 N 0.7413(3) 0.8067(3) 0.7517(2)
C46 C 0.7300(5) 0.7662(6) 0.7075(3)
C47 C 0.7094(5) 0.8831(4) 0.7511(4)
C48 C 0.7786(4) 0.7741(4) 0.8057(3)
O23 O 0.6534(5) 0.5972(5) 0.6434(3)
H28 H 0.689(4) 0.636(4) 0.662(4)
H29 H 0.686(4) 0.570(3) 0.622(2)
H30 H 0.606(4) 0.619(5) 0.618(3)
Mn1B Mn 0.55386(4) 1.07062(3) 0.47943(2)
Mn1C Mn 0.94614(4) 0.57062(3) 1.02057(2)
Mn2* Mn -0.40930(4) 0.88112(3) 0.42317(2)
Mn2B Mn 0.40930(4) 1.11888(3) 0.57683(2)
Mn2C Mn 1.09070(4) 0.61888(3) 0.92317(2)
Mn3* Mn -0.46456(4) 0.75007(4) 0.51480(3)
Mn3C Mn 1.03544(4) 0.74993(4) 1.01480(3)
O2C O 0.35373(18) 0.86228(16) 0.46928(11)
O4B O 0.44638(16) 0.99803(15) 0.44781(9)
O5B O 0.64687(16) 0.99832(15) 0.45117(9)
O6C O 0.5560(2) 0.7915(2) 0.36898(15)
O7* O 0.70835(19) 0.83110(17) 0.46863(13)
O8B O 0.46978(17) 0.93237(17) 0.37616(10)
O9B O 0.66555(18) 0.94844(18) 0.37409(11)
O10C O 0.5295(2) 0.7118(2) 0.43148(15)
O11* O 0.67376(19) 0.76009(19) 0.53476(13)
O12C O 0.39590(19) 0.74587(17) 0.49045(13)
#END
