
#######################################################################
#
#                 Cambridge Crystallographic Data Centre
#                                CCDC
#
#######################################################################
#
# If this CIF has been generated from an entry in the Cambridge
# Structural Database, then it will include bibliographic, chemical,
# crystal, experimental, refinement or atomic coordinate data resulting
# from the CCDC's data processing and validation procedures.
#
#######################################################################

data_CSD_CIF_WITJUG
_audit_creation_date 2014-03-04
_audit_creation_method CSD-ConQuest-V1
_database_code_CSD WITJUG
_database_code_depnum_ccdc_archive 'CCDC 928835'
_chemical_formula_sum 'C108 H126 Mn7 N8 O56 S6'
_chemical_formula_moiety
;
(C84 H60 Mn7 O44 S6 2-)n,2n(H2 O1),2n(H3 O1 1+),8n(C3 H7 N1 O1)
;
_journal_coden_Cambridge 1147
_journal_volume 14
_journal_year 2014
_journal_page_first 310
_journal_name_full 'Cryst.Growth Des. '
loop_
_publ_author_name
"S.Bhattacharya"
"M.Gnanavel"
"A.J.Bhattacharyya"
"S.Natarajan"
_chemical_name_systematic
;
catena-[dioxonium 
bis(\m~5~-4,4'-sulfonyldibenzoato)-tetrakis(\m~4~-4,4'-sulfonyldibenzoato)-tet
rakis(\m~3~-hydroxo)-tetraaqua-hepta-manganese N,N-dimethylformamide solvate 
dihydrate]
;
_cell_volume   7378.328
_exptl_crystal_colour 'white'
_exptl_crystal_description 'Block'
_diffrn_ambient_temperature 120
_refine_special_details
;
Disordered solvent molecules were not modelled and the disordered density was 
taken into account using the SQUEEZE/PLATON procedure.
;
#These two values have been output from a single CSD field.
_refine_ls_R_factor_gt 0.0696
_refine_ls_wR_factor_gt 0.0696
_symmetry_cell_setting monoclinic
_symmetry_space_group_name_H-M 'P 21/n'
_symmetry_Int_Tables_number 14
loop_
_symmetry_equiv_pos_site_id
_symmetry_equiv_pos_as_xyz
1 x,y,z
2 1/2-x,1/2+y,1/2-z
3 -x,-y,-z
4 -1/2+x,-1/2-y,-1/2+z
_cell_length_a 18.0352(10)
_cell_length_b 25.8676(13)
_cell_length_c 18.0584(9)
_cell_angle_alpha 90
_cell_angle_beta 118.861(3)
_cell_angle_gamma 90
_cell_formula_units_Z 2
loop_
_atom_type_symbol
_atom_type_radius_bond
C 0.68
H 0.23
Mn 1.61
O 0.68
S 1.02
loop_
_atom_site_label
_atom_site_type_symbol
_atom_site_fract_x
_atom_site_fract_y
_atom_site_fract_z
Mn1 Mn 1.00000 0.00000 0.00000
Mn2 Mn 0.92690(5) 0.08314(3) -0.19842(5)
Mn3 Mn 0.89337(6) 0.00004(3) 0.10682(6)
Mn4 Mn 0.80174(5) 0.08320(3) -0.07292(5)
S1 S 0.53421(10) -0.09614(5) -0.46593(10)
S2 S 0.43971(17) -0.17623(8) -0.2282(2)
S3 S 0.7724(2) -0.17614(9) 0.44001(17)
O1 O 0.91579(17) 0.04786(9) 0.02127(16)
O2 O 1.02073(17) 0.04811(9) -0.08492(16)
O3 O 0.8905(2) -0.03242(12) -0.1099(2)
O4 O 0.6293(3) -0.34689(13) -0.4408(2)
O5 O 0.2303(3) -0.11371(14) -0.0187(3)
O6 O 0.7204(2) 0.01703(14) -0.0954(2)
O7 O 0.6936(3) 0.12280(17) -0.1755(3)
O8 O 0.8373(2) 0.04624(11) -0.1629(2)
O9 O 0.5591(3) -0.34678(13) -0.3710(3)
O10 O 0.9819(3) -0.11439(14) 0.2311(3)
O11 O 0.9050(3) 0.01695(14) 0.7211(2)
O12 O 0.8237(3) 0.12281(17) -0.3070(3)
O13 O 0.1920(4) -0.0518(2) -0.1123(3)
O14 O 0.8872(3) -0.0517(2) 0.1918(3)
O15 O 0.7931(3) -0.04188(17) 0.0042(3)
O16 O 1.0035(3) -0.04181(17) 0.7925(3)
O17 O 0.5404(3) -0.08091(14) -0.5394(2)
O18 O 0.4610(3) -0.08082(14) -0.4600(3)
O19 O 0.3961(5) -0.1687(3) -0.3188(5)
O20 O 0.4702(4) -0.22679(19) -0.1950(6)
O21 O 0.6842(6) -0.1703(3) 0.3977(4)
O22 O 0.8051(6) -0.22737(19) 0.4698(4)
C1 C 0.8357(4) -0.00378(19) -0.1645(3)
C2 C 0.7611(3) -0.02695(17) -0.2387(3)
C3 C 0.6999(4) 0.00270(18) -0.3001(3)
H1 H 0.70530 0.03850 -0.29490
C4 C 0.6304(4) -0.01751(19) -0.3695(4)
H2 H 0.58960 0.00380 -0.41030
C5 C 0.6238(3) -0.07139(17) -0.3761(3)
C6 C 0.6856(4) -0.10227(18) -0.3148(4)
H3 H 0.68130 -0.13810 -0.31960
C7 C 0.7523(4) -0.08025(17) -0.2479(3)
H4 H 0.79330 -0.10140 -0.20700
C8 C 0.5452(3) -0.16307(16) -0.4548(3)
C9 C 0.5137(3) -0.18952(19) -0.4096(4)
H5 H 0.48430 -0.17180 -0.38710
C10 C 0.5257(3) -0.24161(18) -0.3976(3)
H6 H 0.50260 -0.25920 -0.36870
C11 C 0.5719(3) -0.26863(16) -0.4280(3)
C12 C 0.6030(4) -0.24182(18) -0.4738(3)
H7 H 0.63270 -0.25950 -0.49610
C13 C 0.5903(4) -0.18921(19) -0.4867(3)
H8 H 0.61220 -0.17150 -0.51670
C14 C 0.5878(4) -0.32505(17) -0.4125(4)
C15 C 0.7317(5) -0.0264(2) -0.0611(5)
C16 C 0.6576(4) -0.0630(2) -0.1043(5)
C17 C 0.5924(5) -0.0544(3) -0.1859(5)
H9 H 0.59290 -0.02440 -0.21400
C18 C 0.5257(5) -0.0897(3) -0.2270(5)
H10 H 0.48340 -0.08330 -0.28210
C19 C 0.5230(5) -0.1330(3) -0.1861(6)
C20 C 0.5865(5) -0.1430(3) -0.1056(7)
H11 H 0.58370 -0.17300 -0.07870
C21 C 0.6576(5) -0.1085(2) -0.0612(6)
H12 H 0.70100 -0.11590 -0.00710
C22 C 0.3758(5) -0.1543(3) -0.1863(5)
C23 C 0.3210(5) -0.1154(3) -0.2259(5)
H13 H 0.31500 -0.10260 -0.27670
C24 C 0.2736(5) -0.0943(3) -0.1917(4)
H14 H 0.23860 -0.06600 -0.21700
C25 C 0.2794(4) -0.1163(2) -0.1187(4)
C26 C 0.3309(5) -0.1562(2) -0.0816(5)
H15 H 0.33380 -0.17100 -0.03330
C27 C 0.3810(5) -0.1760(2) -0.1154(5)
H16 H 0.41730 -0.20370 -0.08950
C28 C 0.2296(4) -0.0921(2) -0.0798(5)
C29 C 0.9196(5) -0.0922(2) 0.2288(4)
C30 C 0.8819(4) -0.1165(2) 0.2797(4)
C31 C 0.8104(5) -0.0955(3) 0.2735(4)
H17 H 0.78570 -0.06720 0.23820
C32 C 0.7733(5) -0.1159(4) 0.3199(5)
H18 H 0.72210 -0.10290 0.31260
C33 C 0.8127(6) -0.1543(3) 0.3747(5)
C34 C 0.8845(6) -0.1758(2) 0.3823(5)
H19 H 0.91110 -0.20260 0.42040
C35 C 0.9193(5) -0.1566(2) 0.3308(4)
H20 H 0.96700 -0.17190 0.33310
C36 C 0.8141(6) -0.1327(3) 0.5230(5)
C37 C 0.7741(5) -0.0897(3) 0.5265(4)
H21 H 0.71900 -0.08310 0.48450
C38 C 0.8160(5) -0.0549(2) 0.5941(4)
H22 H 0.78790 -0.02490 0.59510
C39 C 0.8965(5) -0.0633(2) 0.6587(4)
C40 C 0.9401(6) -0.1080(3) 0.6578(4)
H23 H 0.99470 -0.11510 0.70060
C41 C 0.8950(7) -0.1427(2) 0.5860(5)
H24 H 0.92180 -0.17270 0.58290
C42 C 0.9401(5) -0.0257(2) 0.7321(4)
O23 O 0.9990(7) 0.1455(3) 0.1292(4)
O24 O 0.8696(4) -0.1459(3) 0.0035(7)
Mn2B Mn 0.07310(5) -0.08314(3) 0.19842(5)
Mn3B Mn 0.10663(6) -0.00004(3) -0.10682(6)
Mn4B Mn 0.19826(5) -0.08320(3) 0.07292(5)
S1B S 0.46579(10) 0.09614(5) 0.46593(10)
S2B S 0.56029(17) 0.17623(8) 0.2282(2)
S3B S 0.2276(2) 0.17614(9) -0.44001(17)
O1B O 0.08421(17) -0.04786(9) -0.02127(16)
O2B O -0.02073(17) -0.04811(9) 0.08492(16)
O3B O 0.1095(2) 0.03242(12) 0.1099(2)
O4B O 0.3707(3) 0.34689(13) 0.4408(2)
O5B O 0.7697(3) 0.11371(14) 0.0187(3)
O6B O 0.2796(2) -0.01703(14) 0.0954(2)
O7B O 0.3064(3) -0.12280(17) 0.1755(3)
O8B O 0.1627(2) -0.04624(11) 0.1629(2)
O9B O 0.4409(3) 0.34678(13) 0.3710(3)
O10B O 0.0181(3) 0.11439(14) -0.2311(3)
O11B O 0.0950(3) -0.01695(14) -0.7211(2)
O12B O 0.1763(3) -0.12281(17) 0.3070(3)
O13B O 0.8080(4) 0.0518(2) 0.1123(3)
O14B O 0.1128(3) 0.0517(2) -0.1918(3)
O15B O 0.2069(3) 0.04188(17) -0.0042(3)
O16B O -0.0035(3) 0.04181(17) -0.7925(3)
O17B O 0.4596(3) 0.08091(14) 0.5394(2)
O18B O 0.5390(3) 0.08082(14) 0.4600(3)
O19B O 0.6039(5) 0.1687(3) 0.3188(5)
O20B O 0.5298(4) 0.22679(19) 0.1950(6)
O21B O 0.3158(6) 0.1703(3) -0.3977(4)
O22B O 0.1949(6) 0.22737(19) -0.4698(4)
C1B C 0.1643(4) 0.00378(19) 0.1645(3)
C2B C 0.2389(3) 0.02695(17) 0.2387(3)
C3B C 0.3001(4) -0.00270(18) 0.3001(3)
H1B H 0.29470 -0.03850 0.29490
C4B C 0.3696(4) 0.01751(19) 0.3695(4)
H2B H 0.41040 -0.00380 0.41030
C5B C 0.3762(3) 0.07139(17) 0.3761(3)
C6B C 0.3144(4) 0.10227(18) 0.3148(4)
H3B H 0.31870 0.13810 0.31960
C7B C 0.2477(4) 0.08025(17) 0.2479(3)
H4B H 0.20670 0.10140 0.20700
C8B C 0.4548(3) 0.16307(16) 0.4548(3)
C9B C 0.4863(3) 0.18952(19) 0.4096(4)
H5B H 0.51570 0.17180 0.38710
C10B C 0.4743(3) 0.24161(18) 0.3976(3)
H6B H 0.49740 0.25920 0.36870
C11B C 0.4281(3) 0.26863(16) 0.4280(3)
C12B C 0.3970(4) 0.24182(18) 0.4738(3)
H7B H 0.36730 0.25950 0.49610
C13B C 0.4097(4) 0.18921(19) 0.4867(3)
H8B H 0.38780 0.17150 0.51670
C14B C 0.4122(4) 0.32505(17) 0.4125(4)
C15B C 0.2683(5) 0.0264(2) 0.0611(5)
C16B C 0.3424(4) 0.0630(2) 0.1043(5)
C17B C 0.4076(5) 0.0544(3) 0.1859(5)
H9B H 0.40710 0.02440 0.21400
C18B C 0.4743(5) 0.0897(3) 0.2270(5)
H10B H 0.51660 0.08330 0.28210
C19B C 0.4770(5) 0.1330(3) 0.1861(6)
C20B C 0.4135(5) 0.1430(3) 0.1056(7)
H11B H 0.41630 0.17300 0.07870
C21B C 0.3424(5) 0.1085(2) 0.0612(6)
H12B H 0.29900 0.11590 0.00710
C22B C 0.6242(5) 0.1543(3) 0.1863(5)
C23B C 0.6790(5) 0.1154(3) 0.2259(5)
H13B H 0.68500 0.10260 0.27670
C24B C 0.7264(5) 0.0943(3) 0.1917(4)
H14B H 0.76140 0.06600 0.21700
C25B C 0.7206(4) 0.1163(2) 0.1187(4)
C26B C 0.6691(5) 0.1562(2) 0.0816(5)
H15B H 0.66620 0.17100 0.03330
C27B C 0.6190(5) 0.1760(2) 0.1154(5)
H16B H 0.58270 0.20370 0.08950
C28B C 0.7704(4) 0.0921(2) 0.0798(5)
C29B C 0.0804(5) 0.0922(2) -0.2288(4)
C30B C 0.1181(4) 0.1165(2) -0.2797(4)
C31B C 0.1896(5) 0.0955(3) -0.2735(4)
H17B H 0.21430 0.06720 -0.23820
C32B C 0.2267(5) 0.1159(4) -0.3199(5)
H18B H 0.27790 0.10290 -0.31260
C33B C 0.1873(6) 0.1543(3) -0.3747(5)
C34B C 0.1155(6) 0.1758(2) -0.3823(5)
H19B H 0.08890 0.20260 -0.42040
C35B C 0.0807(5) 0.1566(2) -0.3308(4)
H20B H 0.03300 0.17190 -0.33310
C36B C 0.1859(6) 0.1327(3) -0.5230(5)
C37B C 0.2259(5) 0.0897(3) -0.5265(4)
H21B H 0.28100 0.08310 -0.48450
C38B C 0.1840(5) 0.0549(2) -0.5941(4)
H22B H 0.21210 0.02490 -0.59510
C39B C 0.1035(5) 0.0633(2) -0.6587(4)
C40B C 0.0599(6) 0.1080(3) -0.6578(4)
H23B H 0.00530 0.11510 -0.70060
C41B C 0.1050(7) 0.1427(2) -0.5860(5)
H24B H 0.07820 0.17270 -0.58290
C42B C 0.0599(5) 0.0257(2) -0.7321(4)
Mn1* Mn 0.00000 0.00000 0.00000
Mn2* Mn -0.07310(5) 0.08314(3) -0.19842(5)
Mn2** Mn 0.92690(5) 0.08314(3) 0.80158(5)
Mn2A Mn 0.57310(5) -0.41686(3) -0.30158(5)
Mn2B* Mn 0.07310(5) -0.08314(3) -0.80158(5)
Mn2B** Mn 1.07310(5) -0.08314(3) 0.19842(5)
Mn2C Mn 0.42690(5) 0.41686(3) 0.30158(5)
Mn3* Mn -0.10663(6) 0.00004(3) -0.89318(6)
Mn3** Mn -0.10663(6) 0.00004(3) 0.10682(6)
Mn3B* Mn 1.10663(6) -0.00004(3) -0.10682(6)
Mn3B** Mn 1.10663(6) -0.00004(3) 0.89318(6)
Mn4A Mn 0.69826(5) -0.41680(3) -0.42708(5)
Mn4C Mn 0.30174(5) 0.41680(3) 0.42708(5)
O1B* O 1.08421(17) -0.04786(9) -0.02127(16)
O2* O 0.02073(17) 0.04811(9) -0.08492(16)
O2B* O 0.97927(17) -0.04811(9) 0.08492(16)
O3B* O 1.1095(2) 0.03242(12) 0.1099(2)
O4A O 0.8707(3) 0.15311(13) -0.0592(2)
O4C O 0.1293(3) -0.15311(13) 0.0592(2)
O9A O 0.9409(3) 0.15322(13) -0.1290(3)
O9C O 0.0591(3) -0.15322(13) 0.1290(3)
O10* O -0.0181(3) -0.11439(14) 0.2311(3)
O10B* O 1.0181(3) 0.11439(14) -0.2311(3)
O11* O 0.9050(3) 0.01695(14) -0.2789(2)
O11B* O 0.0950(3) -0.01695(14) 0.2789(2)
O16* O 0.0035(3) -0.04181(17) -0.2075(3)
O16B* O 0.9965(3) 0.04181(17) 0.2075(3)
#END
