
#######################################################################
#
#                 Cambridge Crystallographic Data Centre
#                                CCDC
#
#######################################################################
#
# If this CIF has been generated from an entry in the Cambridge
# Structural Database, then it will include bibliographic, chemical,
# crystal, experimental, refinement or atomic coordinate data resulting
# from the CCDC's data processing and validation procedures.
#
#######################################################################

data_CSD_CIF_WITQEY
_audit_creation_date 2019-02-20
_audit_creation_method CSD-ConQuest-V1
_database_code_CSD WITQEY
_database_code_depnum_ccdc_archive 'CCDC 1542798'
_chemical_formula_sum 'C38 H46 N12 O24 Zn3'
_chemical_formula_moiety
;
2(C19 H15 N6 O8 Zn1 1-)n,H12 O6 Zn1 2+,2(H2 O1)
;
_journal_coden_Cambridge 82
_journal_volume 59
_journal_year 2018
_journal_page_first 1456
_journal_name_full 'Zh.Strukt.Khim.(Russ.)(J.Struct.Chem.) '
loop_
_publ_author_name
"S.B.Miao"
"C.Y.Xu"
"B.M.Ji"
_chemical_name_systematic
;
catena-[hexaaqua-zinc 
bis((\m-4,4'-(1,3-phenylene)bis(4H-1,2,4-triazole))-diaqua-(benzene-1,3,5-tric
arboxylato)-zinc) dihydrate]
;
_cell_volume   1150.727
_exptl_crystal_colour 'colorless'
_exptl_crystal_density_diffrn 1.805
_exptl_crystal_description 'block'
_diffrn_ambient_temperature 296
#These two values have been output from a single CSD field.
_refine_ls_R_factor_gt 0.0355
_refine_ls_wR_factor_gt 0.0355
_symmetry_cell_setting triclinic
_symmetry_space_group_name_H-M 'P -1'
_symmetry_Int_Tables_number 2
loop_
_symmetry_equiv_pos_site_id
_symmetry_equiv_pos_as_xyz
1 x,y,z
2 -x,-y,-z
_cell_length_a 6.588(4)
_cell_length_b 11.757(7)
_cell_length_c 15.724(9)
_cell_angle_alpha 76.883(6)
_cell_angle_beta 86.094(7)
_cell_angle_gamma 75.989(7)
_cell_formula_units_Z 1
loop_
_atom_type_symbol
_atom_type_radius_bond
C 0.68
H 0.23
N 0.68
O 0.68
Zn 1.22
loop_
_atom_site_label
_atom_site_type_symbol
_atom_site_fract_x
_atom_site_fract_y
_atom_site_fract_z
Zn1 Zn 0.50000 0.00000 0.50000
O1 O 0.5585(4) 0.15934(18) 0.49010(14)
H1 H 0.46190 0.21140 0.46490
H2 H 0.62600 0.18350 0.52140
O2 O 0.8007(4) -0.05114(19) 0.42227(15)
H3 H 0.82040 0.00850 0.38710
H4 H 0.91250 -0.09720 0.44140
O3 O 0.3468(4) 0.06305(19) 0.38109(15)
H5 H 0.32850 0.00610 0.36310
H6 H 0.33470 0.12590 0.34480
Zn2 Zn 0.75876(7) 1.14635(3) 0.11304(2)
N1 N 0.7229(3) 0.79168(19) 0.20634(14)
N2 N 0.7299(4) 0.9766(2) 0.14495(15)
N3 N 0.7209(4) 0.9172(2) 0.07904(16)
N4 N 0.8091(3) 0.35825(19) 0.28304(14)
N5 N 0.8092(4) 0.2253(2) 0.20712(15)
N6 N 0.8658(4) 0.1643(2) 0.29106(16)
O4 O 0.7505(4) 1.19302(19) -0.01251(13)
O5 O 0.7736(5) 1.3696(3) 0.00373(15)
O6 O 0.6829(4) 1.65196(18) -0.39820(13)
O7 O 0.6874(3) 1.70557(17) -0.27315(13)
O8 O 0.8137(3) 1.22499(19) -0.41581(14)
O9 O 0.7446(4) 1.0966(2) -0.29516(16)
O10 O 0.4178(3) 1.22117(19) 0.12466(14)
H7 H 0.38880 1.24660 0.16760
H8 H 0.33690 1.18280 0.11310
O11 O 1.1272(4) 1.0727(2) 0.10724(17)
H9 H 1.20590 1.03500 0.14910
H10 H 1.15930 1.04460 0.06370
C1 C 0.7517(4) 1.3418(3) -0.14071(18)
C2 C 0.7646(4) 1.2572(3) -0.19108(19)
H11 H 0.77470 1.17710 -0.16370
C3 C 0.7625(4) 1.2905(2) -0.28158(19)
C4 C 0.7426(4) 1.4107(2) -0.32112(18)
H12 H 0.74140 1.43390 -0.38170
C5 C 0.7245(4) 1.4973(2) -0.27205(17)
C6 C 0.7313(4) 1.4620(2) -0.18122(18)
H13 H 0.72230 1.51890 -0.14770
C7 C 0.7584(5) 1.3019(3) -0.0432(2)
C8 C 0.7743(5) 1.1966(3) -0.3350(2)
C9 C 0.6951(4) 1.6280(2) -0.31746(18)
C10 C 0.7374(4) 0.6824(2) 0.27156(17)
C11 C 0.7652(4) 0.5753(2) 0.24521(17)
H14 H 0.77160 0.57350 0.18630
C12 C 0.7834(4) 0.4706(2) 0.30895(18)
C13 C 0.7752(5) 0.4722(3) 0.39654(18)
H15 H 0.78630 0.40130 0.43860
C14 C 0.7506(5) 0.5802(3) 0.42113(19)
H16 H 0.74800 0.58180 0.48010
C15 C 0.7297(5) 0.6863(3) 0.35864(18)
H17 H 0.71060 0.75920 0.37530
C16 C 0.7311(5) 0.9004(2) 0.21915(19)
H18 H 0.73680 0.91810 0.27350
C17 C 0.7161(5) 0.8085(3) 0.1185(2)
H19 H 0.70890 0.74870 0.08970
C18 C 0.7756(5) 0.3395(2) 0.20433(18)
H20 H 0.73440 0.39990 0.15500
C19 C 0.8658(5) 0.2465(2) 0.33406(19)
H21 H 0.90060 0.23060 0.39260
O12 O 0.7569(5) 0.5968(2) 1.01794(18)
H22 H 0.72860 0.53590 1.00870
H23 H 0.70470 0.66090 0.97300
O1A O 0.4415(4) -0.15934(18) 0.50990(14)
H1A H 0.53810 -0.21140 0.53510
H2A H 0.37400 -0.18350 0.47860
O2A O 0.1993(4) 0.05114(19) 0.57773(15)
H3A H 0.17960 -0.00850 0.61290
H4A H 0.08750 0.09720 0.55860
O3A O 0.6532(4) -0.06305(19) 0.61891(15)
H5A H 0.67150 -0.00610 0.63690
H6A H 0.66530 -0.12590 0.65520
Zn2* Zn 0.75876(7) 0.14635(3) 0.11304(2)
N5* N 0.8092(4) 1.2253(2) 0.20712(15)
#END
