
#######################################################################
#
#                 Cambridge Crystallographic Data Centre
#                                CCDC
#
#######################################################################
#
# If this CIF has been generated from an entry in the Cambridge
# Structural Database, then it will include bibliographic, chemical,
# crystal, experimental, refinement or atomic coordinate data resulting
# from the CCDC's data processing and validation procedures.
#
#######################################################################

data_CSD_CIF_WIVJUI
_audit_creation_date 2014-03-04
_audit_creation_method CSD-ConQuest-V1
_database_code_CSD WIVJUI
_database_code_depnum_ccdc_archive 'CCDC 990036'
_chemical_formula_sum 'C20 H26 N2 O8 P2 U1'
_chemical_formula_moiety
;
(C12 H11 O8 P2 U1 1-)n,n(C8 H15 N2 1+)
;
_journal_coden_Cambridge 1147
_journal_volume 14
_journal_year 2014
_journal_page_first 228
_journal_name_full 'Cryst.Growth Des. '
loop_
_publ_author_name
"T.Gannon Parker"
"J.N.Cross"
"M.J.Polinski"
"Jian Lin"
"T.E.Albrecht-Schmitt"
_chemical_name_systematic
;
catena-[1-butyl-3-methylimidazol-3-ium (\m~2~-hydrogen 
phenylphosphonate)-(\m~2~-phenylphosphonate)-dioxo-uranium]
;
_cell_volume   2457.346
_exptl_crystal_colour 'yellow green'
_exptl_crystal_density_diffrn 1.953
_exptl_crystal_description 'Columnar'
_diffrn_ambient_temperature 296
#These two values have been output from a single CSD field.
_refine_ls_R_factor_gt 0.0265
_refine_ls_wR_factor_gt 0.0265
_symmetry_cell_setting monoclinic
_symmetry_space_group_name_H-M 'P 21/c'
_symmetry_Int_Tables_number 14
loop_
_symmetry_equiv_pos_site_id
_symmetry_equiv_pos_as_xyz
1 x,y,z
2 -x,1/2+y,1/2-z
3 -x,-y,-z
4 x,-1/2-y,-1/2+z
_cell_length_a 10.225(2)
_cell_length_b 10.197(2)
_cell_length_c 23.917(5)
_cell_angle_alpha 90
_cell_angle_beta 99.794(2)
_cell_angle_gamma 90
_cell_formula_units_Z 4
loop_
_atom_type_symbol
_atom_type_radius_bond
C 0.68
H 0.23
N 0.68
O 0.68
P 1.05
U 1.96
loop_
_atom_site_label
_atom_site_type_symbol
_atom_site_fract_x
_atom_site_fract_y
_atom_site_fract_z
U1 U 0.254370(12) 0.422277(12) 0.492163(6)
P1 P 0.50464(9) 0.41335(9) 0.40271(4)
C1 C 0.4312(4) 0.4821(4) 0.33523(16)
C2 C 0.5120(5) 0.5124(5) 0.29625(18)
H1 H 0.60040 0.48610 0.30330
C3 C 0.2983(4) 0.5184(5) 0.3227(2)
H2 H 0.24150 0.49800 0.34800
C4 C 0.4644(6) 0.5810(5) 0.2469(2)
H3 H 0.52090 0.60230 0.22160
C5 C 0.2497(6) 0.5847(6) 0.2729(2)
H4 H 0.16040 0.60730 0.26450
C6 C 0.3339(6) 0.6172(6) 0.2357(2)
H5 H 0.30170 0.66380 0.20280
P2 P -0.07227(9) 0.42224(10) 0.40660(4)
O1 O 0.2559(3) 0.2565(3) 0.51592(11)
O2 O 0.3930(2) 0.3608(2) 0.43162(11)
O3 O 0.2571(3) 0.5871(2) 0.46785(13)
O4 O 0.5996(2) 0.3066(2) 0.39241(12)
O5 O 0.5738(3) 0.5302(2) 0.43632(11)
O6 O -0.1572(3) 0.2968(3) 0.40290(13)
H6 H -0.23610 0.31670 0.39660
O7 O -0.1174(3) 0.5243(3) 0.44518(11)
O8 O 0.0714(2) 0.3822(3) 0.42370(12)
C7 C -0.0973(4) 0.4919(4) 0.33680(17)
C8 C -0.1016(6) 0.4142(5) 0.2889(2)
H7 H -0.08460 0.32480 0.29290
C9 C -0.1216(5) 0.6256(5) 0.3288(2)
H8 H -0.11890 0.67990 0.36030
C10 C -0.1311(7) 0.4691(7) 0.2350(2)
H9 H -0.13450 0.41590 0.20320
C11 C -0.1552(6) 0.6009(7) 0.2283(3)
H10 H -0.17500 0.63690 0.19210
C12 C -0.1499(6) 0.6790(6) 0.2747(2)
H11 H -0.16540 0.76850 0.27020
N1 N 0.6459(4) 0.4194(3) 0.04893(16)
N2 N 0.5056(4) 0.3869(3) 0.10573(16)
C13 C 0.5848(4) 0.3293(4) 0.07518(19)
H12 H 0.59630 0.23920 0.07240
C14 C 0.7464(5) 0.3930(5) 0.0133(2)
H13 H 0.74780 0.46500 -0.01310
H14 H 0.72240 0.31400 -0.00870
C15 C 0.6021(5) 0.5406(4) 0.0637(2)
H15 H 0.62840 0.62160 0.05160
C16 C 0.5155(5) 0.5203(4) 0.09860(19)
H16 H 0.47010 0.58460 0.11510
C17 C 0.8834(5) 0.3762(5) 0.0479(2)
H17 H 0.87970 0.30850 0.07610
H18 H 0.94300 0.34610 0.02310
C18 C 0.4243(5) 0.3201(5) 0.1416(2)
H19 H 0.41050 0.23080 0.12940
H20 H 0.34010 0.36370 0.13860
H21 H 0.46870 0.32210 0.18030
C19 C 0.9400(5) 0.4982(5) 0.0775(2)
H22 H 0.88190 0.52750 0.10310
H23 H 0.94260 0.56660 0.04960
C20 C 1.0785(6) 0.4785(6) 0.1109(3)
H24 H 1.07530 0.41680 0.14100
H25 H 1.11230 0.56080 0.12680
H26 H 1.13560 0.44560 0.08620
U1B U -0.254370(12) 0.577723(12) 0.507837(6)
U1B* U 0.745630(12) 0.577723(12) 0.507837(6)
O5B O 0.4262(3) 0.4698(2) 0.56368(11)
O7B O 0.1174(3) 0.4757(3) 0.55482(11)
#END
