
#######################################################################
#
#                 Cambridge Crystallographic Data Centre
#                                CCDC
#
#######################################################################
#
# If this CIF has been generated from an entry in the Cambridge
# Structural Database, then it will include bibliographic, chemical,
# crystal, experimental, refinement or atomic coordinate data resulting
# from the CCDC's data processing and validation procedures.
#
#######################################################################

data_CSD_CIF_WIVKET
_audit_creation_date 2014-03-04
_audit_creation_method CSD-ConQuest-V1
_database_code_CSD WIVKET
_database_code_depnum_ccdc_archive 'CCDC 990038'
_chemical_formula_sum 'C11 H22 N2 O8 P2 U1'
_chemical_formula_moiety
;
(C3 H7 O8 P2 U1 1-)n,n(C8 H15 N2 1+)
;
_journal_coden_Cambridge 1147
_journal_volume 14
_journal_year 2014
_journal_page_first 228
_journal_name_full 'Cryst.Growth Des. '
loop_
_publ_author_name
"T.Gannon Parker"
"J.N.Cross"
"M.J.Polinski"
"Jian Lin"
"T.E.Albrecht-Schmitt"
_chemical_name_systematic
;
catena-[3-butyl-1-methyl-1H-imidazol-3-ium 
(\m~4~-(3-phosphonopropyl)phosphonate)-dioxo-uranium]
;
_cell_volume    880.269
_exptl_crystal_colour 'yellow green'
_exptl_crystal_density_diffrn 2.302
_exptl_crystal_description 'Plate'
_diffrn_ambient_temperature 296
#These two values have been output from a single CSD field.
_refine_ls_R_factor_gt 0.0199
_refine_ls_wR_factor_gt 0.0199
_symmetry_cell_setting triclinic
_symmetry_space_group_name_H-M 'P -1'
_symmetry_Int_Tables_number 2
loop_
_symmetry_equiv_pos_site_id
_symmetry_equiv_pos_as_xyz
1 x,y,z
2 -x,-y,-z
_cell_length_a 9.8611(7)
_cell_length_b 10.0415(7)
_cell_length_c 10.7103(7)
_cell_angle_alpha 71.712(1)
_cell_angle_beta 65.666(1)
_cell_angle_gamma 68.082(1)
_cell_formula_units_Z 2
loop_
_atom_type_symbol
_atom_type_radius_bond
C 0.68
H 0.23
N 0.68
O 0.68
P 1.05
U 1.96
loop_
_atom_site_label
_atom_site_type_symbol
_atom_site_fract_x
_atom_site_fract_y
_atom_site_fract_z
U1 U 0.287971(13) 0.400591(13) -0.495453(12)
P1 P 0.90434(10) 0.39814(9) -1.24801(9)
O1 O 0.2098(3) 0.5793(2) -0.4539(3)
C1 C 0.7195(4) 0.5697(4) -0.8844(3)
H1 H 0.75430 0.65710 -0.92690
H2 H 0.79490 0.49770 -0.84300
P2 P 0.53747(10) 0.61309(9) -0.74778(9)
O2 O 0.3718(3) 0.2219(2) -0.5353(2)
C2 C 0.7188(4) 0.5102(4) -1.0002(3)
H3 H 0.67600 0.42750 -0.95900
H4 H 0.65410 0.58540 -1.05090
O3 O 1.0783(3) 0.3366(2) -1.3212(2)
C3 C 0.8849(4) 0.4627(4) -1.1007(3)
H5 H 0.92810 0.54490 -1.13550
H6 H 0.94680 0.38570 -1.04850
O4 O 0.8312(3) 0.5298(2) -1.3421(2)
O5 O 0.5660(3) 0.6735(2) -0.6483(2)
O6 O 0.4889(3) 0.4724(2) -0.6775(2)
O7 O 0.8245(3) 0.2772(2) -1.1923(2)
H7 H 0.74600 0.30570 -1.21370
O8 O 0.4202(3) 0.7318(2) -0.8118(2)
N1 N 0.2230(3) 1.0576(3) -0.6287(3)
N2 N 0.1781(3) 0.9465(3) -0.4139(3)
C4 C 0.2735(4) 0.9384(4) -0.5441(4)
H8 H 0.36120 0.86140 -0.57120
C5 C 0.0620(4) 1.0773(4) -0.4165(4)
H9 H -0.02080 1.11070 -0.34020
C6 C 0.0912(4) 1.1465(4) -0.5496(4)
H10 H 0.03330 1.23780 -0.58290
C7 C 0.2975(5) 1.0922(4) -0.7804(4)
H11 H 0.34920 1.16510 -0.80250
H12 H 0.22030 1.12870 -0.82480
H13 H 0.37190 1.00540 -0.81300
C8 C 0.1891(5) 0.8346(4) -0.2886(4)
H14 H 0.28950 0.76240 -0.31090
H15 H 0.10980 0.78530 -0.25840
C9 C 0.1685(4) 0.9022(4) -0.1708(4)
H16 H 0.07080 0.97850 -0.15310
H17 H 0.16320 0.82790 -0.08660
C10 C 0.2988(4) 0.9668(4) -0.2021(4)
H18 H 0.39670 0.89070 -0.21870
H19 H 0.30470 1.04130 -0.28630
C11 C 0.2732(5) 1.0338(4) -0.0826(4)
H20 H 0.17750 1.11070 -0.06730
H21 H 0.35740 1.07300 -0.10530
H22 H 0.26860 0.96000 0.00060
U1* U 1.287971(13) 0.400591(13) -1.495453(12)
U1A U 0.712029(13) 0.599409(13) -1.504547(12)
U1A* U 0.712029(13) 0.599409(13) -0.504547(12)
O3* O 0.0783(3) 0.3366(2) -0.3212(2)
O4A O 0.1688(3) 0.4702(2) -0.6579(2)
O5A O 0.4340(3) 0.3265(2) -0.3517(2)
#END
