
#######################################################################
#
#                 Cambridge Crystallographic Data Centre
#                                CCDC
#
#######################################################################
#
# If this CIF has been generated from an entry in the Cambridge
# Structural Database, then it will include bibliographic, chemical,
# crystal, experimental, refinement or atomic coordinate data resulting
# from the CCDC's data processing and validation procedures.
#
#######################################################################

data_CSD_CIF_WIVKIX
_audit_creation_date 2014-03-04
_audit_creation_method CSD-ConQuest-V1
_database_code_CSD WIVKIX
_database_code_depnum_ccdc_archive 'CCDC 990039'
_chemical_formula_sum 'C30 H44 N4 O24 P6 U2'
_chemical_formula_moiety
;
(C18 H18 O22 P6 U2 2-)n,2(C6 H11 N2 1+),2(H2 O1)
;
_journal_coden_Cambridge 1147
_journal_volume 14
_journal_year 2014
_journal_page_first 228
_journal_name_full 'Cryst.Growth Des. '
loop_
_publ_author_name
"T.Gannon Parker"
"J.N.Cross"
"M.J.Polinski"
"Jian Lin"
"T.E.Albrecht-Schmitt"
_chemical_name_systematic
;
catena-[bis(1-ethyl-3-methyl-1H-imidazol-3-ium) 
bis(\m~4~-1,4-phenylenebis(phosphonic 
acid))-(\m~2~-1,4-phenylenebis(phosphonic acid))-tetraoxo-di-uranium 
dihydrate]
;
_cell_volume   1116.510
_exptl_crystal_colour 'yellow green'
_exptl_crystal_density_diffrn 2.235
_exptl_crystal_description 'Block'
_diffrn_ambient_temperature 100
_refine_special_details
;
C12,C13,C14,C15,N1,N2 and C12',C13',C14',C15',N1',N2' disordered over two 
sites with occupancies 0.50:0.50.
;
#These two values have been output from a single CSD field.
_refine_ls_R_factor_gt 0.0185
_refine_ls_wR_factor_gt 0.0185
_symmetry_cell_setting triclinic
_symmetry_space_group_name_H-M 'P -1'
_symmetry_Int_Tables_number 2
loop_
_symmetry_equiv_pos_site_id
_symmetry_equiv_pos_as_xyz
1 x,y,z
2 -x,-y,-z
_cell_length_a 8.8825(5)
_cell_length_b 11.7704(7)
_cell_length_c 12.1185(7)
_cell_angle_alpha 118.082(1)
_cell_angle_beta 90.882(1)
_cell_angle_gamma 91.923(1)
_cell_formula_units_Z 1
loop_
_atom_type_symbol
_atom_type_radius_bond
C 0.68
H 0.23
N 0.68
O 0.68
P 1.05
U 1.96
loop_
_atom_site_label
_atom_site_type_symbol
_atom_site_fract_x
_atom_site_fract_y
_atom_site_fract_z
U1 U 0.022447(9) 0.229699(8) 0.772216(8)
P1 P 0.17857(7) 0.06857(6) 0.93291(6)
P2 P 0.17559(7) 0.46110(6) 1.09194(6)
P3 P 0.17247(7) -0.09080(6) 0.54121(6)
O1 O -0.1303(2) 0.15894(18) 0.81501(18)
O2 O 0.1768(2) 0.29953(18) 0.73046(18)
O3 O 0.2016(2) 0.13969(17) 0.85898(16)
O4 O 0.0706(2) 0.37989(17) 0.98254(17)
O5 O 0.0806(2) 0.02225(17) 0.61737(17)
O6 O 0.1246(2) 0.59098(17) 1.18521(17)
O7 O 0.2064(2) 0.38420(18) 1.16715(18)
H1 H 0.16110 0.31150 1.13060
O8 O 0.0998(2) 0.14287(17) 1.05598(17)
O9 O 0.0916(2) -0.06365(18) 0.84945(17)
H2 H 0.03410 -0.08160 0.89400
O10 O 0.2051(2) -0.16580(19) 0.61828(18)
H3 H 0.16240 -0.13010 0.68700
O11 O 0.1067(2) -0.19044(18) 0.41617(17)
C1 C 0.3576(3) 0.4835(2) 1.0405(2)
C2 C 0.4120(3) 0.6052(3) 1.0640(3)
H4 H 0.35230 0.67770 1.10750
C3 C 0.3599(3) 0.0302(2) 0.9694(2)
C4 C 0.3560(3) -0.0384(3) 0.5176(2)
C5 C 0.3725(3) -0.0104(3) 1.0599(3)
H5 H 0.28520 -0.01780 1.10080
C6 C 0.4288(3) -0.1119(3) 0.4064(2)
H6 H 0.38010 -0.18830 0.34260
C7 C 0.4887(3) 0.0404(3) 0.9090(3)
H7 H 0.48110 0.06770 0.84690
C8 C 0.5529(3) 0.6216(3) 1.0243(3)
H8 H 0.58900 0.70530 1.04140
C9 C 0.4279(3) 0.0739(3) 0.6112(2)
H9 H 0.37870 0.12420 0.68690
O12 O 0.1135(3) 0.5583(2) 1.4241(2)
C10 C 0.2538(4) -0.5621(4) 0.5806(4)
H10 H 0.15030 -0.54280 0.58660
C11 C 0.4983(5) -0.5625(6) 0.6024(6)
H11 H 0.59720 -0.53280 0.63750
N1 N 0.3179(12) -0.6757(8) 0.491(1)
C12 C 0.4709(9) -0.6605(8) 0.5149(7)
H12 H 0.54270 -0.72100 0.46710
N2 N 0.3646(7) -0.4896(7) 0.6530(7)
C13 C 0.2036(16) -0.3569(14) 0.8232(15)
H13 H 0.11940 -0.36760 0.76540
H14 H 0.19830 -0.27390 0.89900
H15 H 0.19780 -0.42690 0.84540
C14 C 0.3462(9) -0.3604(7) 0.7628(7)
H16 H 0.43100 -0.34060 0.82400
H17 H 0.34890 -0.29370 0.73490
C15 C 0.222(2) -0.774(3) 0.390(2)
H18 H 0.21780 -0.85280 0.39750
H19 H 0.26350 -0.79130 0.30910
H20 H 0.12010 -0.74230 0.39490
N3? N 0.3096(10) -0.4607(8) 0.6937(8)
C16? C 0.4548(12) -0.4801(10) 0.6928(9)
H21? H 0.52020 -0.42890 0.76300
N4? N 0.3469(17) -0.6294(9) 0.5199(11)
C17? C 0.222(3) -0.814(2) 0.390(2)
H22? H 0.20220 -0.81940 0.46660
H23? H 0.22750 -0.90140 0.31970
H24? H 0.14150 -0.76950 0.37270
C18? C 0.3379(18) -0.7570(16) 0.4023(13)
H25? H 0.35140 -0.74200 0.32920
H26? H 0.42100 -0.80990 0.40470
C19? C 0.231(3) -0.364(2) 0.794(2)
H27? H 0.19390 -0.39910 0.84850
H28? H 0.14560 -0.33830 0.76040
H29? H 0.29950 -0.28920 0.84280
P1A P 0.82143(7) -0.06857(6) 1.06709(6)
O3A O 0.7984(2) -0.13969(17) 1.14102(16)
O8A O 0.9002(2) -0.14287(17) 0.94402(17)
O9A O 0.9084(2) 0.06365(18) 1.15055(17)
H2A H 0.96590 0.08160 1.10600
C3A C 0.6401(3) -0.0302(2) 1.0306(2)
C5A C 0.6275(3) 0.0104(3) 0.9401(3)
H5A H 0.71480 0.01780 0.89920
C7A C 0.5113(3) -0.0404(3) 1.0910(3)
H7A H 0.51890 -0.06770 1.15310
P2A P 0.82441(7) 0.53890(6) 0.90806(6)
O4A O 0.9294(2) 0.62011(17) 1.01746(17)
O7A O 0.7936(2) 0.61580(18) 0.83285(18)
H1A H 0.83890 0.68850 0.86940
C1A C 0.6424(3) 0.5165(2) 0.9595(2)
C2A C 0.5880(3) 0.3948(3) 0.9360(3)
H4A H 0.64770 0.32230 0.89250
C8A C 0.4471(3) 0.3784(3) 0.9757(3)
H8A H 0.41100 0.29470 0.95860
O6A O 0.8754(2) 0.40902(17) 0.81479(17)
P3A P 0.82753(7) 0.09080(6) 0.45879(6)
O5A O 0.9194(2) -0.02225(17) 0.38263(17)
O10A O 0.7949(2) 0.16580(19) 0.38172(18)
H3A H 0.83760 0.13010 0.31300
C4A C 0.6440(3) 0.0384(3) 0.4824(2)
C6A C 0.5712(3) 0.1119(3) 0.5936(2)
H6A H 0.61990 0.18830 0.65740
C9A C 0.5721(3) -0.0739(3) 0.3888(2)
H9A H 0.62130 -0.12420 0.31310
O11A O 0.8933(2) 0.19044(18) 0.58383(17)
U1A U -0.022447(9) -0.229699(8) 0.227784(8)
O1A O 0.1303(2) -0.15894(18) 0.18499(18)
O2A O -0.1768(2) -0.29953(18) 0.26954(18)
U1* U 1.022447(9) 0.229699(8) 0.772216(8)
U1A* U -0.022447(9) 0.770301(8) 1.227784(8)
U1A** U 0.977553(9) -0.229699(8) 0.227784(8)
U1A*** U 0.977553(9) -0.229699(8) 1.227784(8)
U1A**** U 0.977553(9) 0.770301(8) 1.227784(8)
O3A* O -0.2016(2) -0.13969(17) 0.14102(16)
O4A* O -0.0706(2) -0.37989(17) 0.01746(17)
O5A* O -0.0806(2) -0.02225(17) 0.38263(17)
O6* O 0.1246(2) -0.40902(17) 0.18521(17)
O6A* O -0.1246(2) 0.40902(17) 0.81479(17)
O11A* O -0.1067(2) 0.19044(18) 0.58383(17)
#END
