
#######################################################################
#
#                 Cambridge Crystallographic Data Centre
#                                CCDC
#
#######################################################################
#
# If this CIF has been generated from an entry in the Cambridge
# Structural Database, then it will include bibliographic, chemical,
# crystal, experimental, refinement or atomic coordinate data resulting
# from the CCDC's data processing and validation procedures.
#
#######################################################################

data_CSD_CIF_WIVKOD
_audit_creation_date 2014-03-04
_audit_creation_method CSD-ConQuest-V1
_database_code_CSD WIVKOD
_database_code_depnum_ccdc_archive 'CCDC 990040'
_chemical_formula_sum 'C28 H58 N4 O34 P8 U5'
_chemical_formula_moiety
;
(C12 H28 O34 P8 U5 2-)n,2(C8 H15 N2 1+)
;
_journal_coden_Cambridge 1147
_journal_volume 14
_journal_year 2014
_journal_page_first 228
_journal_name_full 'Cryst.Growth Des. '
loop_
_publ_author_name
"T.Gannon Parker"
"J.N.Cross"
"M.J.Polinski"
"Jian Lin"
"T.E.Albrecht-Schmitt"
_chemical_name_systematic
;
catena-[bis(3-butyl-1-methyl-1H-imidazol-3-ium) 
tetrakis(\m~5~-(3-phosphonopropyl)phosphonate)-decaoxo-penta-uranium unknown 
solvate]
;
_cell_volume   1478.027
_exptl_crystal_colour 'yellow green'
_exptl_crystal_density_diffrn 2.733
_exptl_crystal_description 'Block'
_diffrn_ambient_temperature 100
_refine_special_details
;
C13A,C14A and C13B,C14B disordered over two sites with occupancies 0.50:0.50; 
The SQUEEZE/PLATON program has been used to model some disorder.
;
#These two values have been output from a single CSD field.
_refine_ls_R_factor_gt 0.0198
_refine_ls_wR_factor_gt 0.0198
_symmetry_cell_setting triclinic
_symmetry_space_group_name_H-M 'P -1'
_symmetry_Int_Tables_number 2
loop_
_symmetry_equiv_pos_site_id
_symmetry_equiv_pos_as_xyz
1 x,y,z
2 -x,-y,-z
_cell_length_a 9.4611(18)
_cell_length_b 13.424(3)
_cell_length_c 13.453(3)
_cell_angle_alpha 67.360(3)
_cell_angle_beta 70.649(4)
_cell_angle_gamma 88.418(4)
_cell_formula_units_Z 1
loop_
_atom_type_symbol
_atom_type_radius_bond
C 0.68
H 0.23
N 0.68
O 0.68
P 1.05
U 1.96
loop_
_atom_site_label
_atom_site_type_symbol
_atom_site_fract_x
_atom_site_fract_y
_atom_site_fract_z
U1 U 0.977133(14) -0.922139(10) 0.346070(11)
P1 P 1.26631(10) -0.85155(7) 0.38341(8)
O1 O 1.0749(3) -1.0223(2) 0.3039(2)
U2 U 1.291290(14) -0.679155(10) 0.077266(11)
P2 P 0.52524(10) -0.56753(8) 0.18082(8)
O2 O 0.8775(3) -0.8245(2) 0.3905(2)
U3 U 1.00000 -1.00000 0.00000
P3 P 1.72121(10) -1.05542(8) 0.28023(8)
O3 O 1.1359(3) -0.9438(2) 0.4668(2)
P4 P 0.99951(10) -0.74905(7) 0.04756(8)
O4 O 1.2156(3) -0.8020(2) 0.2778(2)
O5 O 1.0480(3) -0.8033(2) 0.1548(2)
O6 O 1.7658(3) -0.9769(2) 0.3248(2)
O7 O 1.1952(3) -0.5791(2) 0.1193(2)
C1 C 1.4307(4) -0.9900(3) 0.2898(3)
H1 H 1.36400 -0.96650 0.24370
H2 H 1.38520 -1.06170 0.35260
O8 O 1.3903(3) -0.7795(2) 0.0371(2)
C2 C 0.6771(4) -0.6113(3) 0.2332(3)
H3 H 0.69390 -0.56260 0.26890
H4 H 0.64350 -0.68490 0.29500
O9 O 0.4853(3) -0.6458(2) 0.1346(2)
C3 C 0.8294(4) -0.6152(3) 0.1480(3)
H5 H 0.90390 -0.63350 0.18760
H6 H 0.86450 -0.54220 0.08510
O10 O 1.1298(3) -0.6617(2) -0.0360(2)
C4 C 1.5854(4) -1.0024(3) 0.2133(3)
H7 H 1.62950 -0.93010 0.15130
H8 H 1.56950 -1.05030 0.17650
C5 C 0.8243(4) -0.6979(3) 0.0960(3)
H9 H 0.78900 -0.66360 0.03030
H10 H 0.74870 -0.76000 0.15430
O11 O 0.5626(3) -0.4503(2) 0.0959(2)
C6 C 1.4384(4) -0.9081(3) 0.3421(3)
H11 H 1.51850 -0.84820 0.28570
H12 H 1.46780 -0.94450 0.41060
O12 O 1.1647(3) -1.0052(2) 0.0361(2)
O13 O 0.9669(3) -0.8319(2) 0.0041(2)
O14 O 1.8543(3) -1.0766(2) 0.1936(2)
O15 O 0.3893(3) -0.5687(2) 0.2878(2)
H13 H 0.36300 -0.63260 0.33740
O16 O 1.6398(3) -1.1645(2) 0.3825(2)
H14 H 1.67090 -1.17500 0.43700
O17 O 1.2886(3) -0.7727(2) 0.4332(2)
N1 N 0.7726(4) -0.7493(3) 0.8023(3)
C7 C 1.2066(9) -0.5471(8) 0.5769(6)
H15 H 1.17880 -0.57360 0.52590
H16 H 1.14650 -0.48660 0.58210
N2 N 0.9954(4) -0.6651(3) 0.7447(3)
C8 C 0.6532(6) -0.8310(5) 0.8268(5)
H17 H 0.69730 -0.89610 0.82040
H18 H 0.60070 -0.80180 0.77160
H19 H 0.58130 -0.84990 0.90490
C9 C 1.1589(6) -0.6381(4) 0.6955(4)
H20 H 1.20710 -0.70330 0.69050
H21 H 1.19370 -0.61590 0.74640
C10 C 0.8901(6) -0.6043(4) 0.7874(4)
H22 H 0.91150 -0.53700 0.79050
C11 C 0.7538(6) -0.6571(4) 0.8234(4)
H23 H 0.66040 -0.63470 0.85740
C12 C 0.9210(5) -0.7521(4) 0.7541(4)
H24 H 0.96510 -0.80750 0.73070
C13 C 1.3660(13) -0.5026(10) 0.5209(10)
H25 H 1.42440 -0.55600 0.49530
H26 H 1.40230 -0.49360 0.57840
C14 C 1.3999(17) -0.3913(11) 0.4156(12)
H27 H 1.38190 -0.33230 0.44240
H28 H 1.33370 -0.39010 0.37250
H29 H 1.50540 -0.38180 0.36560
C15? C 1.163(2) -0.4198(16) 0.5546(17)
H30? H 1.05780 -0.41740 0.55530
H31? H 1.16490 -0.40430 0.62040
C16? C 1.244(3) -0.3457(15) 0.4650(19)
H32? H 1.27730 -0.37170 0.40310
H33? H 1.33200 -0.32280 0.47720
H34? H 1.18640 -0.28390 0.44390
U1A U 1.022867(14) -1.077861(10) -0.346070(11)
P1A P 0.73369(10) -1.14845(7) -0.38341(8)
O1A O 0.9251(3) -0.9777(2) -0.3039(2)
U2A U 0.708710(14) -1.320845(10) -0.077266(11)
P2A P 1.47476(10) -1.43247(8) -0.18082(8)
O2A O 1.1225(3) -1.1755(2) -0.3905(2)
P3A P 0.27879(10) -0.94458(8) -0.28023(8)
O3A O 0.8641(3) -1.0562(2) -0.4668(2)
P4A P 1.00049(10) -1.25095(7) -0.04756(8)
O4A O 0.7844(3) -1.1980(2) -0.2778(2)
O5A O 0.9520(3) -1.1967(2) -0.1548(2)
O6A O 0.2342(3) -1.0231(2) -0.3248(2)
O7A O 0.8048(3) -1.4209(2) -0.1193(2)
C1A C 0.5693(4) -1.0100(3) -0.2898(3)
H1A H 0.63600 -1.03350 -0.24370
H2A H 0.61480 -0.93830 -0.35260
O8A O 0.6097(3) -1.2205(2) -0.0371(2)
C2A C 1.3229(4) -1.3887(3) -0.2332(3)
H3A H 1.30610 -1.43740 -0.26890
H4A H 1.35650 -1.31510 -0.29500
O9A O 1.5147(3) -1.3542(2) -0.1346(2)
C3A C 1.1706(4) -1.3848(3) -0.1480(3)
H5A H 1.09610 -1.36650 -0.18760
H6A H 1.13550 -1.45780 -0.08510
O10A O 0.8702(3) -1.3383(2) 0.0360(2)
C4A C 0.4146(4) -0.9976(3) -0.2133(3)
H7A H 0.37050 -1.06990 -0.15130
H8A H 0.43050 -0.94970 -0.17650
C5A C 1.1757(4) -1.3021(3) -0.0960(3)
H9A H 1.21100 -1.33640 -0.03030
H10A H 1.25130 -1.24000 -0.15430
O11A O 1.4374(3) -1.5497(2) -0.0959(2)
C6A C 0.5616(4) -1.0919(3) -0.3421(3)
H11A H 0.48150 -1.15180 -0.28570
H12A H 0.53220 -1.05550 -0.41060
O12A O 0.8353(3) -0.9948(2) -0.0361(2)
O13A O 1.0331(3) -1.1681(2) -0.0041(2)
O14A O 0.1457(3) -0.9234(2) -0.1936(2)
O15A O 1.6107(3) -1.4313(2) -0.2878(2)
H13A H 1.63700 -1.36740 -0.33740
O16A O 0.3602(3) -0.8355(2) -0.3825(2)
H14A H 0.32910 -0.82500 -0.43700
O17A O 0.7114(3) -1.2273(2) -0.4332(2)
U1* U 0.977133(14) -0.922139(10) -0.653930(11)
U1** U 1.977133(14) -0.922139(10) 0.346070(11)
U1A* U 0.022867(14) -1.077861(10) -0.346070(11)
U1A** U 1.022867(14) -1.077861(10) 0.653930(11)
U2* U 0.291290(14) -0.679155(10) 0.077266(11)
U2** U 1.291290(14) -1.679155(10) 0.077266(11)
U2A* U 0.708710(14) -0.320845(10) -0.077266(11)
U2A** U 1.708710(14) -1.320845(10) -0.077266(11)
U3* U 0.00000 -1.00000 0.00000
U3** U 2.00000 -1.00000 0.00000
O3* O 1.1359(3) -0.9438(2) -0.5332(2)
O3A* O 0.8641(3) -1.0562(2) 0.5332(2)
O6* O 0.7658(3) -0.9769(2) 0.3248(2)
O6A* O 1.2342(3) -1.0231(2) -0.3248(2)
O9* O 1.4853(3) -0.6458(2) 0.1346(2)
O9A* O 0.5147(3) -1.3542(2) -0.1346(2)
O11* O 0.5626(3) -1.4503(2) 0.0959(2)
O11A* O 1.4374(3) -0.5497(2) -0.0959(2)
O14* O 0.8543(3) -1.0766(2) 0.1936(2)
O14A* O 1.1457(3) -0.9234(2) -0.1936(2)
#END
