
#######################################################################
#
#                 Cambridge Crystallographic Data Centre
#                                CCDC
#
#######################################################################
#
# If this CIF has been generated from an entry in the Cambridge
# Structural Database, then it will include bibliographic, chemical,
# crystal, experimental, refinement or atomic coordinate data resulting
# from the CCDC's data processing and validation procedures.
#
#######################################################################

data_CSD_CIF_WIWXUY
_audit_creation_date 2019-02-20
_audit_creation_method CSD-ConQuest-V1
_database_code_CSD WIWXUY
_database_code_depnum_ccdc_archive 'CCDC 1883155'
_chemical_formula_sum 'C83.5 H91.5 Cl2 In3 N5.5 O27.5'
_chemical_formula_moiety
;
(C70 H40 Cl2 In3 O20 3-)n,3(C2 H8 N1 1+),2.5(C3 H7 N1 O1),5(H2 O1)
;
_journal_coden_Cambridge 1695
_journal_volume 7
_journal_year 2019
_journal_page_first 3049
_journal_name_full 'J.Mater.Chem.C '
loop_
_publ_author_name
"Zhao-Feng Wu"
"Bin Tan"
"E.Velasco"
"Hao Wang"
"Nan-Nan Shen"
"Yu-Jie Gao"
"Xu Zhang"
"Kun Zhu"
"Guo-Yu Zhang"
"Yan-Yao Liu"
"Xiu-Ze Hei"
"Xiao-Ying Huang"
"Jing Li"
_chemical_name_systematic
;
catena-[tris(dimethylammonium) 
pentakis(\m-[1,1'-biphenyl]-4,4'-dicarboxylato)-dichloro-tri-indium 
N,N-dimethylformamide solvate pentahydrate]
;
_cell_volume   4912.283
_exptl_crystal_colour 'colorless'
_exptl_crystal_density_diffrn 1.43
_exptl_crystal_description 'block'
_diffrn_ambient_temperature 295
_diffrn_special_details
;
twin

;
_refine_special_details
;
Disordered cation and solvent molecules were not modelled and the disordered 
density was taken into account using the SQUEEZE/PLATON procedure.
;
#These two values have been output from a single CSD field.
_refine_ls_R_factor_gt 0.0632
_refine_ls_wR_factor_gt 0.0632
_symmetry_cell_setting orthorhombic
_symmetry_space_group_name_H-M 'P 2 2 21'
_symmetry_Int_Tables_number 17
loop_
_symmetry_equiv_pos_site_id
_symmetry_equiv_pos_as_xyz
1 x,y,z
2 -x,-y,1/2+z
3 x,-y,-z
4 -x,y,1/2-z
_cell_length_a 9.3390(2)
_cell_length_b 15.6217(5)
_cell_length_c 33.6709(19)
_cell_angle_alpha 90
_cell_angle_beta 90
_cell_angle_gamma 90
_cell_formula_units_Z 2
loop_
_atom_type_symbol
_atom_type_radius_bond
C 0.68
H 0.23
Cl 0.99
In 1.42
O 0.68
loop_
_atom_site_label
_atom_site_type_symbol
_atom_site_fract_x
_atom_site_fract_y
_atom_site_fract_z
In1 In 0.50000 0.44407(7) 0.25000
In2 In -0.17384(7) 0.05412(5) -0.12062(2)
Cl1 Cl -0.2643(4) -0.0877(2) -0.12588(13)
O1 O 0.6346(8) 0.5512(7) 0.2331(2)
O2 O 0.742(1) 0.4325(7) 0.2229(3)
O3 O 1.5886(9) 0.8969(6) 0.1011(3)
O4 O 1.6934(8) 0.8624(5) 0.1569(2)
O5 O 0.4156(9) 0.4517(6) 0.1861(3)
O6 O 0.4333(11) 0.3284(7) 0.2128(3)
O7 O -0.0724(8) 0.1655(5) -0.08889(19)
O8 O -0.1321(7) 0.0532(5) -0.05543(17)
O9 O 0.0866(9) 0.0035(6) -0.1218(3)
O10 O -0.0350(7) 0.0608(6) -0.1714(2)
C1 C 0.7479(11) 0.5104(9) 0.2215(4)
C2 C 0.8674(11) 0.5605(9) 0.2063(3)
C3 C 0.8597(13) 0.6462(9) 0.2032(4)
H1 H 0.77452 0.67340 0.20994
C4 C 0.9744(11) 0.6958(8) 0.1901(4)
H2 H 0.96305 0.75453 0.18667
C5 C 1.1015(10) 0.6589(7) 0.1825(3)
C6 C 1.1143(11) 0.5706(8) 0.1867(4)
H3 H 1.20179 0.54446 0.18146
C7 C 0.9967(13) 0.5199(7) 0.1986(4)
H4 H 1.00568 0.46093 0.20131
C8 C 1.2268(11) 0.7082(7) 0.1703(3)
C9 C 1.2161(12) 0.7638(8) 0.1376(4)
H5 H 1.13037 0.76791 0.12371
C10 C 1.3319(11) 0.8123(6) 0.1262(3)
H6 H 1.32306 0.84927 0.10467
C11 C 1.4606(10) 0.8072(7) 0.1459(3)
C12 C 1.4699(12) 0.7522(9) 0.1783(4)
H7 H 1.55435 0.74930 0.19293
C13 C 1.3556(12) 0.7022(7) 0.1889(4)
H8 H 1.36638 0.66298 0.20947
C14 C 1.5884(12) 0.8584(7) 0.1335(3)
C15 C 0.3973(13) 0.3754(8) 0.1851(4)
C16 C 0.3346(15) 0.3362(7) 0.1476(4)
C17 C 0.320(2) 0.2531(9) 0.1443(4)
H9 H 0.35993 0.21985 0.16433
C18 C 0.2451(18) 0.2066(8) 0.1120(4)
H10 H 0.22819 0.14792 0.11155
C19 C 0.2028(19) 0.2656(8) 0.0813(4)
C20 C 0.2208(18) 0.3511(8) 0.0843(4)
H11 H 0.18956 0.38649 0.06382
C21 C 0.2861(17) 0.3873(8) 0.1179(4)
H12 H 0.29611 0.44636 0.11976
C22 C 0.1303(16) 0.2279(9) 0.0457(3)
C23 C 0.0489(15) 0.1561(9) 0.0482(3)
H13 H 0.03724 0.12909 0.07264
C24 C -0.0163(14) 0.1229(8) 0.0150(3)
H14 H -0.06950 0.07273 0.01723
C25 C -0.0046(15) 0.1624(8) -0.0214(3)
C26 C 0.0795(17) 0.2342(8) -0.0239(3)
H15 H 0.09397 0.26037 -0.04835
C27 C 0.1419(17) 0.2673(7) 0.0092(4)
H16 H 0.19382 0.31793 0.00717
C28 C -0.0738(11) 0.1248(7) -0.0570(3)
C29 C 0.0775(11) 0.0289(8) -0.1574(4)
C30 C 0.2056(10) 0.0250(7) -0.1843(3)
C31 C 0.1941(10) 0.0549(9) -0.2227(3)
H17 H 0.10820 0.07842 -0.23146
C32 C 0.3081(10) 0.0502(9) -0.2479(3)
H18 H 0.29752 0.07062 -0.27365
C33 C 0.4379(11) 0.0167(7) -0.2368(3)
C34 C 0.4471(12) -0.0132(9) -0.1977(3)
H19 H 0.53382 -0.03494 -0.18861
C35 C 0.3340(12) -0.0115(7) -0.1728(3)
H20 H 0.34251 -0.03508 -0.14751
O9C O 0.9134(9) 0.0035(6) -0.3782(3)
O10C O 1.0350(7) 0.0608(6) -0.3286(2)
C29C C 0.9225(11) 0.0289(8) -0.3426(4)
C30C C 0.7944(10) 0.0250(7) -0.3157(3)
C31C C 0.8059(10) 0.0549(9) -0.2773(3)
H17C H 0.89180 0.07842 -0.26854
C32C C 0.6919(10) 0.0502(9) -0.2521(3)
H18C H 0.70248 0.07062 -0.22635
C33C C 0.5621(11) 0.0167(7) -0.2632(3)
C34C C 0.5529(12) -0.0132(9) -0.3023(3)
H19C H 0.46618 -0.03494 -0.31139
C35C C 0.6660(12) -0.0115(7) -0.3272(3)
H20C H 0.65749 -0.03508 -0.35249
In2C In 1.17384(7) 0.05412(5) -0.37938(2)
Cl1C Cl 1.2643(4) -0.0877(2) -0.37412(13)
O5C O 0.5844(9) 0.4517(6) -0.6861(3)
O6C O 0.5667(11) 0.3284(7) -0.7128(3)
O7C O 1.0724(8) 0.1655(5) -0.41111(19)
O8C O 1.1321(7) 0.0532(5) -0.44457(17)
C15C C 0.6027(13) 0.3754(8) -0.6851(4)
C16C C 0.6654(15) 0.3362(7) -0.6476(4)
C17C C 0.680(2) 0.2531(9) -0.6443(4)
H9C H 0.64007 0.21985 -0.66433
C18C C 0.7549(18) 0.2066(8) -0.6120(4)
H10C H 0.77181 0.14792 -0.61155
C19C C 0.7972(19) 0.2656(8) -0.5813(4)
C20C C 0.7792(18) 0.3511(8) -0.5843(4)
H11C H 0.81044 0.38649 -0.56382
C21C C 0.7139(17) 0.3873(8) -0.6179(4)
H12C H 0.70389 0.44636 -0.61976
C22C C 0.8697(16) 0.2279(9) -0.5457(3)
C23C C 0.9511(15) 0.1561(9) -0.5482(3)
H13C H 0.96276 0.12909 -0.57264
C24C C 1.0163(14) 0.1229(8) -0.5150(3)
H14C H 1.06950 0.07273 -0.51723
C25C C 1.0046(15) 0.1624(8) -0.4786(3)
C26C C 0.9205(17) 0.2342(8) -0.4761(3)
H15C H 0.90603 0.26037 -0.45165
C27C C 0.8581(17) 0.2673(7) -0.5092(4)
H16C H 0.80618 0.31793 -0.50718
C28C C 1.0738(11) 0.1248(7) -0.4430(3)
O1C O 0.3654(8) 0.5512(7) 0.2669(2)
O2C O 0.258(1) 0.4325(7) 0.2771(3)
O3C O -0.5886(9) 0.8969(6) 0.3989(3)
O4C O -0.6934(8) 0.8624(5) 0.3431(2)
C1C C 0.2521(11) 0.5104(9) 0.2785(4)
C2C C 0.1326(11) 0.5605(9) 0.2937(3)
C3C C 0.1403(13) 0.6462(9) 0.2968(4)
H1C H 0.22548 0.67340 0.29006
C4C C 0.0256(11) 0.6958(8) 0.3099(4)
H2C H 0.03695 0.75453 0.31333
C5C C -0.1015(10) 0.6589(7) 0.3175(3)
C6C C -0.1143(11) 0.5706(8) 0.3133(4)
H3C H -0.20179 0.54446 0.31854
C7C C 0.0033(13) 0.5199(7) 0.3014(4)
H4C H -0.00568 0.46093 0.29869
C8C C -0.2268(11) 0.7082(7) 0.3297(3)
C9C C -0.2161(12) 0.7638(8) 0.3624(4)
H5C H -0.13037 0.76791 0.37629
C10C C -0.3319(11) 0.8123(6) 0.3738(3)
H6C H -0.32306 0.84927 0.39533
C11C C -0.4606(10) 0.8072(7) 0.3541(3)
C12C C -0.4699(12) 0.7522(9) 0.3217(4)
H7C H -0.55435 0.74930 0.30707
C13C C -0.3556(12) 0.7022(7) 0.3111(4)
H8C H -0.36638 0.66298 0.29053
C14C C -0.5884(12) 0.8584(7) 0.3665(3)
In1* In 0.50000 0.44407(7) -0.75000
In2A In -0.82616(7) 0.94588(5) 0.37938(2)
In2B In 1.82616(7) 0.94588(5) 0.12062(2)
O3A O 1.4114(9) 0.1031(6) -0.3989(3)
O3B O -0.4114(9) 0.1031(6) -0.1011(3)
O4A O 1.3066(8) 0.1376(5) -0.3431(2)
O4B O -0.3066(8) 0.1376(5) -0.1569(2)
O5C* O 0.5844(9) 0.4517(6) 0.3139(3)
O6C* O 0.5667(11) 0.3284(7) 0.2872(3)
#END
