
#######################################################################
#
#                 Cambridge Crystallographic Data Centre
#                                CCDC
#
#######################################################################
#
# If this CIF has been generated from an entry in the Cambridge
# Structural Database, then it will include bibliographic, chemical,
# crystal, experimental, refinement or atomic coordinate data resulting
# from the CCDC's data processing and validation procedures.
#
#######################################################################

data_CSD_CIF_WOBDIC
_audit_creation_date 2014-03-08
_audit_creation_method CSD-ConQuest-V1
_database_code_CSD WOBDIC
_database_code_depnum_ccdc_archive 'CCDC 963235'
_chemical_formula_sum 'C20 H17 Ag1 Mo4 N12 O13'
_chemical_formula_moiety
;
(C10 H8 Ag1 Mo4 N6 O13 1-)n,n(C10 H9 N6 1+)
;
_journal_coden_Cambridge 1295
_journal_volume 41
_journal_year 2014
_journal_page_first 84
_journal_name_full 'Inorg.Chem.Commun. '
loop_
_publ_author_name
"Zhenyu Shi"
"Jun Peng"
"Xia Yu"
"Zheyu Zhang"
"Xiang Wang"
"Wanli Zhou"
_chemical_name_systematic
;
catena-[5-(4-(1H-imidazol-1-yl)phenyl)-1H-tetrazol-1-ium 
octakis(\m-oxo)-(\m-5-(4-(1H-imidazol-1-yl)phenyl)-1H-tetrazole)-pentaoxo-tetr
a-molybdenum-silver]
;
_cell_volume   1455.367
_exptl_crystal_colour 'colorless'
_exptl_crystal_density_diffrn 2.565
_exptl_crystal_description 'block'
_diffrn_ambient_temperature 293
#These two values have been output from a single CSD field.
_refine_ls_R_factor_gt 0.0347
_refine_ls_wR_factor_gt 0.0347
_symmetry_cell_setting triclinic
_symmetry_space_group_name_H-M 'P -1'
_symmetry_Int_Tables_number 2
loop_
_symmetry_equiv_pos_site_id
_symmetry_equiv_pos_as_xyz
1 x,y,z
2 -x,-y,-z
_cell_length_a 10.7460(4)
_cell_length_b 12.4530(6)
_cell_length_c 12.5630(5)
_cell_angle_alpha 106.021(4)
_cell_angle_beta 94.563(3)
_cell_angle_gamma 112.869(4)
_cell_formula_units_Z 2
loop_
_atom_type_symbol
_atom_type_radius_bond
C 0.68
H 0.23
Ag 1.45
Mo 1.54
N 0.68
O 0.68
loop_
_atom_site_label
_atom_site_type_symbol
_atom_site_fract_x
_atom_site_fract_y
_atom_site_fract_z
Ag1 Ag 0.44812(5) 0.37537(4) 0.37855(4)
Mo1 Mo -0.07604(5) -0.22963(4) -0.17148(4)
Mo2 Mo -0.12467(5) 0.22175(4) -0.04124(4)
Mo3 Mo 0.27764(5) 0.07600(4) 0.10930(4)
Mo4 Mo 0.07922(5) 0.06403(4) -0.10181(4)
O1 O 0.1998(3) 0.1719(3) 0.0445(3)
O2 O 0.0281(4) 0.1722(3) -0.1293(3)
O3 O 0.0884(4) 0.0802(3) 0.1889(3)
O4 O 0.0806(4) -0.0649(3) -0.0212(3)
O5 O -0.2392(4) 0.2307(4) 0.0435(3)
O6 O -0.1133(4) 0.3223(4) -0.1107(3)
O7 O -0.0405(4) -0.3102(3) -0.0751(3)
O8 O 0.2395(4) -0.0662(3) 0.1521(3)
O9 O 0.3820(4) 0.1910(3) 0.2306(3)
O10 O 0.0466(4) -0.2247(3) -0.2487(3)
O11 O -0.2251(4) -0.3435(3) -0.2605(3)
O12 O 0.3829(4) 0.0647(4) 0.0194(3)
O13 O 0.1918(4) 0.0552(3) -0.1854(3)
N1 N 0.5687(5) 0.5593(4) 0.3678(4)
N2 N 0.6016(5) 0.6561(4) 0.4625(4)
N3 N 0.7059(6) 0.7301(5) 0.3428(5)
N4 N 0.6827(6) 0.7570(5) 0.4482(5)
N5 N 0.6040(5) 0.3198(4) -0.1469(4)
N6 N 0.5552(6) 0.1594(5) -0.2907(5)
C1 C 0.6339(6) 0.6080(5) 0.2948(5)
C2 C 0.6264(6) 0.5359(5) 0.1799(5)
C3 C 0.5116(6) 0.4251(5) 0.1244(5)
H1 H 0.43920 0.39780 0.16070
C4 C 0.5040(6) 0.3555(5) 0.0167(5)
H2 H 0.42530 0.28290 -0.02150
C5 C 0.6132(6) 0.3938(5) -0.0344(5)
C6 C 0.7287(6) 0.5029(5) 0.0188(5)
H3 H 0.80190 0.52820 -0.01710
C7 C 0.7343(6) 0.5738(5) 0.1257(5)
H4 H 0.81150 0.64820 0.16210
C8 C 0.6237(7) 0.2631(6) -0.3221(6)
H5 H 0.64450 0.26300 -0.39260
C9 C 0.6531(6) 0.3611(6) -0.2326(5)
H6 H 0.69870 0.44320 -0.22830
C10 C 0.5452(6) 0.1965(6) -0.1850(5)
H7 H 0.50430 0.14570 -0.14360
C11 C 0.1674(9) -0.0296(6) 0.4286(6)
H8 H 0.20900 0.03120 0.39680
N7 N 0.0547(5) -0.2074(4) 0.4506(4)
N8 N -0.3340(6) -0.7671(5) 0.4186(5)
N9 N -0.4099(6) -0.8906(5) 0.3567(5)
N10 N -0.4042(6) -0.9110(5) 0.2511(5)
N11 N -0.3265(5) -0.8048(5) 0.2424(5)
H9 H -0.30630 -0.79330 0.18040
C12 C -0.2827(6) -0.7164(6) 0.3438(5)
C13 C -0.1067(6) -0.3788(5) 0.4985(5)
H10 H -0.10550 -0.32310 0.56590
C14 C -0.0267(6) -0.3367(5) 0.4254(5)
C15 C -0.0280(6) -0.4186(5) 0.3249(5)
H11 H 0.02650 -0.39020 0.27580
C16 C -0.1111(6) -0.5428(5) 0.2983(5)
H12 H -0.11240 -0.59840 0.23080
C17 C -0.1924(6) -0.5859(5) 0.3703(5)
C18 C -0.1870(6) -0.5011(6) 0.4721(5)
H13 H -0.23940 -0.52920 0.52240
C19 C 0.0994(8) -0.1504(6) 0.3737(6)
H14 H 0.08480 -0.18930 0.29610
N12 N 0.1647(6) -0.0114(5) 0.5412(5)
C20 C 0.0959(7) -0.1213(5) 0.5516(5)
H15 H 0.07930 -0.13550 0.61910
Ag1A Ag -0.44812(5) -0.37537(4) -0.37855(4)
Ag1A* Ag 0.55188(5) 0.62463(4) 0.62145(4)
Mo1A Mo 0.07604(5) 0.22963(4) 0.17148(4)
Mo2A Mo 0.12467(5) -0.22175(4) 0.04124(4)
Mo4A Mo -0.07922(5) -0.06403(4) 0.10181(4)
O1A O -0.1998(3) -0.1719(3) -0.0445(3)
O3A O -0.0884(4) -0.0802(3) -0.1889(3)
O4A O -0.0806(4) 0.0649(3) 0.0212(3)
O7A O 0.0405(4) 0.3102(3) 0.0751(3)
O8A O -0.2395(4) 0.0662(3) -0.1521(3)
O11A O 0.2251(4) 0.3435(3) 0.2605(3)
N2A N 0.3984(5) 0.3439(4) 0.5375(4)
#END
