
#######################################################################
#
#                 Cambridge Crystallographic Data Centre
#                                CCDC
#
#######################################################################
#
# If this CIF has been generated from an entry in the Cambridge
# Structural Database, then it will include bibliographic, chemical,
# crystal, experimental, refinement or atomic coordinate data resulting
# from the CCDC's data processing and validation procedures.
#
#######################################################################

data_CSD_CIF_WOBFEA
_audit_creation_date 2014-03-08
_audit_creation_method CSD-ConQuest-V1
_database_code_CSD WOBFEA
_database_code_depnum_ccdc_archive 'CCDC 990647'
_chemical_formula_sum 'C18 H36 N2 O14 Zn2'
_chemical_formula_moiety
;
(C6 O12 Zn2 2-)n,2n(C6 H16 N1 1+),2n(H2 O1)
;
_journal_coden_Cambridge 1295
_journal_volume 41
_journal_year 2014
_journal_page_first 54
_journal_name_full 'Inorg.Chem.Commun. '
loop_
_publ_author_name
"Tong Wu"
"Daibing Luo"
"Chunmei Duan"
"Zhonghua Shi"
"Yaoqiang Chen"
"Zhien Lin"
_chemical_name_systematic
;
catena-(bis(Di-isopropylammonium) tris(\m~2~-oxalato)-di-zinc dihydrate)
;
_cell_volume   2571.455
_exptl_crystal_colour 'colorless'
_exptl_crystal_density_diffrn 1.641
_exptl_crystal_description 'prism'
_diffrn_ambient_temperature 293
_refine_special_details
;
The cation is disordered by symmetry.

;
#These two values have been output from a single CSD field.
_refine_ls_R_factor_gt 0.0467
_refine_ls_wR_factor_gt 0.0467
_symmetry_cell_setting orthorhombic
_symmetry_space_group_name_H-M 'C m c a'
_symmetry_Int_Tables_number 64
loop_
_symmetry_equiv_pos_site_id
_symmetry_equiv_pos_as_xyz
1 x,y,z
2 -x,1/2-y,1/2+z
3 -x,1/2+y,1/2-z
4 x,-y,-z
5 1/2+x,1/2+y,z
6 1/2-x,-y,1/2+z
7 1/2-x,y,1/2-z
8 1/2+x,1/2-y,-z
9 -x,-y,-z
10 x,-1/2+y,-1/2-z
11 x,-1/2-y,-1/2+z
12 -x,y,z
13 -1/2-x,-1/2-y,-z
14 -1/2+x,y,-1/2-z
15 -1/2+x,-y,-1/2+z
16 -1/2-x,-1/2+y,z
_cell_length_a 15.4894(12)
_cell_length_b 9.8569(10)
_cell_length_c 16.8424(18)
_cell_angle_alpha 90
_cell_angle_beta 90
_cell_angle_gamma 90
_cell_formula_units_Z 4
loop_
_atom_type_symbol
_atom_type_radius_bond
C 0.68
N 0.68
O 0.68
Zn 1.22
loop_
_atom_site_label
_atom_site_type_symbol
_atom_site_fract_x
_atom_site_fract_y
_atom_site_fract_z
Zn1 Zn 0.32421(4) 0.00000 0.50000
O1 O 0.42860(19) 0.0659(3) 0.57055(17)
O2 O 0.32897(19) 0.1859(3) 0.43563(19)
O3 O 0.2678(2) 0.3904(3) 0.43847(18)
C1 C 0.50000 0.0372(6) 0.5408(4)
C2 C 0.2776(3) 0.2732(5) 0.4634(3)
N1 N 0.0222(4) 0.2205(7) 0.3020(4)
C3 C 0.1401(7) 0.0528(11) 0.2711(7)
C4 C 0.1253(3) 0.1750(6) 0.3091(3)
C5 C 0.1678(6) 0.3030(12) 0.2744(7)
C6 C -0.0404(6) 0.1161(11) 0.3283(6)
C7 C -0.0309(6) 0.0864(11) 0.4195(5)
O4 O 0.50000 0.2545(5) 0.3634(3)
O1C O 0.42860(19) -0.0659(3) 0.42945(17)
C1C C 0.50000 -0.0372(6) 0.4592(4)
O1H O 0.57140(19) -0.0659(3) 0.42945(17)
O1K O 0.57140(19) 0.0659(3) 0.57055(17)
O2L O 0.17103(19) 0.3141(3) 0.56437(19)
O3L O 0.2322(2) 0.1096(3) 0.56153(18)
C2L C 0.2224(3) 0.2268(5) 0.5366(3)
O2C O 0.32897(19) -0.1859(3) 0.56437(19)
O3C O 0.2678(2) -0.3904(3) 0.56153(18)
C2C C 0.2776(3) -0.2732(5) 0.5366(3)
O2O O 0.17103(19) -0.3141(3) 0.43563(19)
O3O O 0.2322(2) -0.1096(3) 0.43847(18)
C2O C 0.2224(3) -0.2268(5) 0.4634(3)
Zn1H Zn 0.67579(4) 0.00000 0.50000
Zn1L Zn 0.17579(4) -0.50000 0.50000
Zn1L* Zn 0.17579(4) 0.50000 0.50000
O2H O 0.67103(19) -0.1859(3) 0.56437(19)
O2K O 0.67103(19) 0.1859(3) 0.43563(19)
O3D O 0.7678(2) -0.1096(3) 0.43847(18)
O3G O 0.7678(2) 0.1096(3) 0.56153(18)
N1K N -0.0222(4) 0.2205(7) 0.3020(4)
C3K C -0.1401(7) 0.0528(11) 0.2711(7)
C4K C -0.1253(3) 0.1750(6) 0.3091(3)
C5K C -0.1678(6) 0.3030(12) 0.2744(7)
C6K C 0.0404(6) 0.1161(11) 0.3283(6)
C7K C 0.0309(6) 0.0864(11) 0.4195(5)
#END
