
#######################################################################
#
#                 Cambridge Crystallographic Data Centre
#                                CCDC
#
#######################################################################
#
# If this CIF has been generated from an entry in the Cambridge
# Structural Database, then it will include bibliographic, chemical,
# crystal, experimental, refinement or atomic coordinate data resulting
# from the CCDC's data processing and validation procedures.
#
#######################################################################

data_CSD_CIF_WOBHAW
_audit_creation_date 2000-11-21
_audit_creation_method CSD-ConQuest-V1
_database_code_CSD WOBHAW
_database_code_depnum_ccdc_archive 'CCDC 150325'
_chemical_formula_sum 'C31 H53 N1 O6 Sn1'
_chemical_formula_moiety
;
(C12 H24 N1 1+)n,n(C19 H29 O6 Sn1 1-)
;
_journal_coeditor_code "IUCr SK1382"
_journal_coden_Cambridge 591
_journal_volume 56
_journal_year 2000
_journal_page_first 966
_journal_name_full 'Acta Crystallogr.,Sect.C:Cryst.Struct.Commun. '
loop_
_publ_author_name
"S.W.Ng"
"S.Shanmuga Sundara Raj"
"Hoong-Kun Fun"
"I.A.Razak"
"J.M.Hook"
_chemical_name_systematic
;
catena-[Dicyclohexylammonium 
tri-n-butyl-(\m~2~-4-oxo-4H-pyran-2,6-dicarboxylato)-tin]
;
_cell_volume   7077.971
_exptl_crystal_colour 'colorless'
_exptl_crystal_density_diffrn 1.228
_exptl_crystal_description 'parallelepiped'
_diffrn_ambient_temperature ?
_diffrn_special_details
;
The study was carried out at room temperature,in the range 283-303K

;
#These two values have been output from a single CSD field.
_refine_ls_R_factor_gt 0.0681
_refine_ls_wR_factor_gt 0.0681
_symmetry_cell_setting monoclinic
_symmetry_space_group_name_H-M 'P 21/c'
_symmetry_Int_Tables_number 14
loop_
_symmetry_equiv_pos_site_id
_symmetry_equiv_pos_as_xyz
1 x,y,z
2 x,1/2-y,1/2+z
3 -x,-y,-z
4 -x,-1/2+y,-1/2-z
_cell_length_a 18.1212(3)
_cell_length_b 18.0363(2)
_cell_length_c 21.8937(1)
_cell_angle_alpha 90
_cell_angle_beta 98.454(1)
_cell_angle_gamma 90
_cell_formula_units_Z 8
loop_
_atom_type_symbol
_atom_type_radius_bond
C 0.68
H 0.23
N 0.68
O 0.68
Sn 1.46
loop_
_atom_site_label
_atom_site_type_symbol
_atom_site_fract_x
_atom_site_fract_y
_atom_site_fract_z
Sn1 Sn -0.61557(3) 0.24258(3) -0.01880(2)
O1 O -0.6262(3) 0.1835(3) 0.0718(2)
O2 O -0.5720(3) 0.2729(3) 0.1329(2)
O3 O -0.6176(4) 0.1968(3) 0.3890(2)
O4 O -0.5539(4) 0.2755(3) 0.3372(2)
O5 O -0.6001(2) 0.2044(2) 0.2324(2)
O6 O -0.6869(3) -0.0031(3) 0.2297(2)
N1 N -0.5040(3) 0.3469(3) 0.2380(2)
C1 C -0.6726(6) 0.1500(6) -0.0637(4)
C2 C -0.7559(7) 0.1542(8) -0.0599(7)
C3 C -0.7975(7) 0.0856(8) -0.0853(8)
C4 C -0.8805(7) 0.1001(9) -0.0904(8)
C5 C -0.4970(6) 0.2388(6) 0.0000(5)
C6 C -0.4744(8) 0.1562(7) 0.0011(8)
C7 C -0.3923(8) 0.1408(9) 0.010(1)
C8 C -0.386(1) 0.059(1) -0.007(1)
C9 C -0.6809(7) 0.3291(6) 0.0063(5)
C10 C -0.676(1) 0.4106(8) -0.007(1)
C11 C -0.597(1) 0.436(1) 0.021(1)
C12 C -0.592(2) 0.512(1) -0.014(2)
C13 C -0.6050(4) 0.2137(4) 0.1231(3)
C14 C -0.6210(3) 0.1678(4) 0.1780(2)
C15 C -0.6517(4) 0.1013(4) 0.1748(3)
C16 C -0.6640(4) 0.0605(4) 0.2304(3)
C17 C -0.6451(4) 0.1038(4) 0.2862(3)
C18 C -0.6148(4) 0.1700(4) 0.2853(2)
C19 C -0.5918(5) 0.2209(5) 0.3417(3)
C20 C -0.5325(4) 0.4239(4) 0.2426(3)
C21 C -0.5067(4) 0.4564(4) 0.3065(4)
C22 C -0.5387(5) 0.5341(5) 0.3125(5)
C23 C -0.6237(5) 0.5325(6) 0.2983(6)
C24 C -0.6492(5) 0.5009(5) 0.2338(5)
C25 C -0.6177(4) 0.4225(4) 0.2285(4)
C26 C -0.4222(4) 0.3393(4) 0.2344(3)
C27 C -0.3990(4) 0.2601(4) 0.2505(5)
C28 C -0.3157(5) 0.2496(7) 0.2483(6)
C29 C -0.2995(5) 0.2689(6) 0.1840(6)
C30 C -0.3231(4) 0.3481(6) 0.1661(5)
C31 C -0.4055(4) 0.3611(5) 0.1709(3)
Sn2 Sn -0.11761(4) 0.27728(3) 0.45858(2)
O7 O -0.1291(4) 0.2207(3) 0.3642(2)
O8 O -0.0663(4) 0.2965(3) 0.3101(2)
O9 O -0.1143(3) 0.1692(3) 0.0539(2)
O10 O -0.0649(4) 0.2662(3) 0.1076(2)
O11 O -0.0988(2) 0.2109(2) 0.2110(2)
O12 O -0.1790(3) 0.0027(3) 0.2234(3)
N2 N -0.0097(3) 0.3531(3) 0.2080(2)
C32 C -0.1917(7) 0.1914(8) 0.4868(5)
C33 C -0.2636(9) 0.201(1) 0.4416(9)
C34 C -0.313(1) 0.134(1) 0.447(1)
C35 C -0.383(1) 0.137(2) 0.398(1)
C36 C -0.0007(6) 0.2498(6) 0.4712(5)
C37 C 0.0086(7) 0.1642(6) 0.4733(7)
C38 C 0.0904(8) 0.1419(9) 0.4738(9)
C39 C 0.098(1) 0.0579(9) 0.493(1)
C40 C -0.1647(6) 0.3795(6) 0.4219(4)
C41 C -0.1076(7) 0.4417(6) 0.4278(6)
C42 C -0.1438(7) 0.5163(6) 0.4056(7)
C43 C -0.0800(9) 0.5724(8) 0.4079(8)
C44 C -0.1022(5) 0.2405(5) 0.3170(3)
C45 C -0.1178(4) 0.1849(4) 0.2653(2)
C46 C -0.1457(4) 0.1175(4) 0.2705(3)
C47 C -0.1585(4) 0.0668(4) 0.2189(3)
C48 C -0.1420(4) 0.0989(4) 0.1624(3)
C49 C -0.1137(4) 0.1665(4) 0.1600(2)
C50 C -0.0944(5) 0.2054(4) 0.1029(3)
C51 C -0.0444(3) 0.4269(4) 0.1938(3)
C52 C -0.0238(5) 0.4823(4) 0.2459(4)
C53 C -0.0594(5) 0.5584(4) 0.2278(6)
C54 C -0.1438(5) 0.5512(5) 0.2137(5)
C55 C -0.1658(5) 0.4945(5) 0.1631(5)
C56 C -0.1296(4) 0.4192(4) 0.1804(4)
C57 C 0.0735(4) 0.3487(4) 0.2144(3)
C58 C 0.1023(4) 0.3733(5) 0.1561(4)
C59 C 0.1876(4) 0.3627(6) 0.1608(5)
C60 C 0.2098(6) 0.2840(7) 0.1812(7)
C61 C 0.1831(6) 0.2621(7) 0.2417(7)
C62 C 0.0969(5) 0.2701(4) 0.2343(6)
H1 H -0.52960 0.32550 0.20420
H2 H -0.51400 0.32110 0.27100
H3 H -0.66510 0.14910 -0.10660
H4 H -0.65230 0.10460 -0.04430
H5 H -0.76280 0.16080 -0.01710
H6 H -0.77680 0.19720 -0.08290
H7 H -0.78380 0.04380 -0.05810
H8 H -0.78460 0.07380 -0.12570
H9 H -0.90740 0.05710 -0.10730
H10 H -0.89350 0.14180 -0.11700
H11 H -0.89310 0.11040 -0.05020
H12 H -0.47540 0.26500 -0.03180
H13 H -0.47950 0.26180 0.03950
H14 H -0.49570 0.13190 0.03400
H15 H -0.49650 0.13380 -0.03750
H16 H -0.37050 0.14920 0.05280
H17 H -0.36730 0.17220 -0.01630
H18 H -0.33460 0.04640 -0.00610
H19 H -0.41230 0.05130 -0.04810
H20 H -0.40780 0.02890 0.02150
H21 H -0.73180 0.31550 -0.01000
H22 H -0.67720 0.32570 0.05080
H23 H -0.71290 0.43780 0.01140
H24 H -0.68410 0.41930 -0.05130
H25 H -0.55900 0.40160 0.01170
H26 H -0.59250 0.44360 0.06490
H27 H -0.54530 0.53520 0.00040
H28 H -0.63230 0.54310 -0.00670
H29 H -0.59540 0.50220 -0.05770
H30 H -0.66600 0.07980 0.13630
H31 H -0.65470 0.08440 0.32360
H32 H -0.51320 0.45480 0.21180
H33 H -0.45260 0.45880 0.31370
H34 H -0.52260 0.42420 0.33770
H35 H -0.52360 0.55240 0.35410
H36 H -0.51910 0.56740 0.28410
H37 H -0.64310 0.58240 0.30070
H38 H -0.64350 0.50230 0.32880
H39 H -0.63220 0.53290 0.20310
H40 H -0.70330 0.49920 0.22590
H41 H -0.63740 0.38970 0.25730
H42 H -0.63300 0.40360 0.18710
H43 H -0.39450 0.37250 0.26510
H44 H -0.42750 0.22650 0.22150
H45 H -0.40970 0.24840 0.29160
H46 H -0.28680 0.28150 0.27860
H47 H -0.30150 0.19860 0.25810
H48 H -0.32600 0.23470 0.15430
H49 H -0.24650 0.26330 0.18260
H50 H -0.31460 0.35770 0.12410
H51 H -0.29280 0.38250 0.19310
H52 H -0.41760 0.41300 0.16340
H53 H -0.43630 0.33200 0.13970
H54 H -0.02880 0.32150 0.17800
H55 H -0.02360 0.33680 0.24350
H56 H -0.17080 0.14240 0.48330
H57 H -0.20030 0.19910 0.52900
H58 H -0.28940 0.24570 0.45150
H59 H -0.25240 0.20550 0.39980
H60 H -0.32670 0.13160 0.48780
H61 H -0.28470 0.08890 0.44070
H62 H -0.40930 0.09050 0.39740
H63 H -0.36950 0.14650 0.35820
H64 H -0.41520 0.17610 0.40860
H65 H 0.02220 0.27000 0.43740
H66 H 0.02400 0.27130 0.50940
H67 H -0.00880 0.14500 0.51000
H68 H -0.02180 0.14250 0.43750
H69 H 0.12270 0.17200 0.50310
H70 H 0.10460 0.14900 0.43310
H71 H 0.14880 0.04250 0.49450
H72 H 0.06660 0.02840 0.46280
H73 H 0.08250 0.05130 0.53260
H74 H -0.18470 0.37270 0.37870
H75 H -0.20560 0.39330 0.44360
H76 H -0.06860 0.42970 0.40350
H77 H -0.08490 0.44620 0.47060
H78 H -0.16990 0.51180 0.36380
H79 H -0.17900 0.53200 0.43230
H80 H -0.09970 0.61980 0.39390
H81 H -0.04510 0.55580 0.38180
H82 H -0.05500 0.57670 0.44960
H83 H -0.15740 0.10250 0.30860
H84 H -0.15140 0.07130 0.12620
H85 H -0.02690 0.44630 0.15670
H86 H 0.03000 0.48750 0.25450
H87 H -0.04130 0.46450 0.28310
H88 H -0.04640 0.59320 0.26140
H89 H -0.04020 0.57730 0.19180
H90 H -0.16330 0.53620 0.25070
H91 H -0.16530 0.59890 0.20080
H92 H -0.15040 0.51190 0.12500
H93 H -0.21960 0.48910 0.15620
H94 H -0.14290 0.38450 0.14670
H95 H -0.14810 0.39980 0.21650
H96 H 0.09410 0.38240 0.24770
H97 H 0.09020 0.42520 0.14850
H98 H 0.07760 0.34490 0.12130
H99 H 0.20300 0.37250 0.12100
H100 H 0.21290 0.39780 0.19040
H101 H 0.26370 0.27970 0.18620
H102 H 0.18910 0.24970 0.14910
H103 H 0.20620 0.29390 0.27490
H104 H 0.19720 0.21130 0.25200
H105 H 0.07390 0.23510 0.20370
H106 H 0.07990 0.25890 0.27330
O3A O -0.6176(4) 0.3032(3) -0.1110(2)
Sn1A Sn -0.61557(3) 0.25742(3) 0.48120(2)
O9A O -0.1143(3) 0.3308(3) 0.5539(2)
Sn2A Sn -0.11761(4) 0.22272(3) -0.04142(2)
#END
