
#######################################################################
#
#                 Cambridge Crystallographic Data Centre
#                                CCDC
#
#######################################################################
#
# If this CIF has been generated from an entry in the Cambridge
# Structural Database, then it will include bibliographic, chemical,
# crystal, experimental, refinement or atomic coordinate data resulting
# from the CCDC's data processing and validation procedures.
#
#######################################################################

data_CSD_CIF_WOBHEA
_audit_creation_date 2000-11-21
_audit_creation_method CSD-ConQuest-V1
_database_code_CSD WOBHEA
_database_code_depnum_ccdc_archive 'CCDC 150326'
_chemical_formula_sum 'C26 H40 N2 O4 Sn1'
_chemical_formula_moiety
;
(C7 H10 N1 1+)n,n(C19 H30 N1 O4 Sn1 1-)
;
_journal_coeditor_code "IUCr SK1382"
_journal_coden_Cambridge 591
_journal_volume 56
_journal_year 2000
_journal_page_first 966
_journal_name_full 'Acta Crystallogr.,Sect.C:Cryst.Struct.Commun. '
loop_
_publ_author_name
"S.W.Ng"
"S.Shanmuga Sundara Raj"
"Hoong-Kun Fun"
"I.A.Razak"
"J.M.Hook"
_chemical_name_systematic
;
catena-[Methylphenylammonium 
tri-n-butyl-(\m~2~-pyridine-2,6-dicarboxylato)-tin]
;
_cell_volume   2902.772
_exptl_crystal_colour 'colorless'
_exptl_crystal_density_diffrn 1.289
_exptl_crystal_description 'block'
_diffrn_ambient_temperature ?
_diffrn_special_details
;
The study was carried out at room temperature,in the range 283-303K

;
_refine_special_details
;
Butyl C2-C4 and attached hydrogens are disordered over two sites with equal 
occupancies.
;
#These two values have been output from a single CSD field.
_refine_ls_R_factor_gt 0.0488
_refine_ls_wR_factor_gt 0.0488
_symmetry_cell_setting monoclinic
_symmetry_space_group_name_H-M 'P 21/n'
_symmetry_Int_Tables_number 14
loop_
_symmetry_equiv_pos_site_id
_symmetry_equiv_pos_as_xyz
1 x,y,z
2 1/2+x,1/2-y,1/2+z
3 -x,-y,-z
4 -1/2-x,-1/2+y,-1/2-z
_cell_length_a 17.7536(3)
_cell_length_b 9.3746(1)
_cell_length_c 17.8985(2)
_cell_angle_alpha 90
_cell_angle_beta 102.981(1)
_cell_angle_gamma 90
_cell_formula_units_Z 4
loop_
_atom_type_symbol
_atom_type_radius_bond
C 0.68
H 0.23
N 0.68
O 0.68
Sn 1.46
loop_
_atom_site_label
_atom_site_type_symbol
_atom_site_fract_x
_atom_site_fract_y
_atom_site_fract_z
Sn1 Sn -0.58926(2) 0.25654(2) 0.21949(1)
O1 O -0.5040(2) 0.1554(3) 0.3195(2)
O2 O -0.4101(2) 0.3179(4) 0.3319(2)
O3 O -0.1821(2) 0.1391(3) 0.6270(1)
O4 O -0.1986(2) 0.3116(4) 0.5384(2)
N1 N -0.3293(2) 0.1854(4) 0.4594(2)
N2 N -0.2712(2) 0.4356(4) 0.4011(2)
C1 C -0.6707(3) 0.0980(5) 0.2371(3)
C2 C -0.647(3) -0.058(2) 0.247(2)
C3 C -0.608(2) -0.109(2) 0.185(1)
C4 C -0.637(2) -0.248(2) 0.146(1)
C5? C 0.355(3) -0.051(2) 0.264(1)
C6? C 0.393(2) -0.138(2) 0.211(1)
C7? C 0.342(2) -0.160(2) 0.131(1)
C8 C -0.5910(3) 0.4525(4) 0.2817(2)
C9 C -0.6014(3) 0.4362(5) 0.3629(3)
C10 C -0.6067(3) 0.5779(5) 0.4035(3)
C11 C -0.5347(4) 0.6663(7) 0.4168(3)
C12 C -0.5130(3) 0.2310(5) 0.1452(3)
C13 C -0.4707(4) 0.3638(7) 0.1289(3)
C14 C -0.4161(5) 0.3339(9) 0.0762(5)
C15 C -0.3715(6) 0.461(1) 0.0600(6)
C16 C -0.4388(2) 0.2092(4) 0.3517(2)
C17 C -0.3950(2) 0.1260(4) 0.4218(2)
C18 C -0.4232(2) 0.0004(4) 0.4441(2)
C19 C -0.3819(3) -0.0649(5) 0.5094(3)
C20 C -0.3140(2) -0.0047(4) 0.5498(2)
C21 C -0.2896(2) 0.1210(4) 0.5227(2)
C22 C -0.2171(2) 0.1973(5) 0.5650(2)
C23 C -0.2877(4) 0.5856(6) 0.4216(4)
C24 C -0.2195(3) 0.4203(6) 0.3492(3)
C25 C -0.2421(4) 0.469(1) 0.2747(4)
C26 C -0.1896(6) 0.448(1) 0.2269(4)
C27 C -0.1216(6) 0.390(1) 0.2507(5)
C28 C -0.0999(5) 0.341(1) 0.3240(6)
C29 C -0.1504(4) 0.3622(9) 0.3739(4)
H1 H -0.25070 0.38830 0.44460
H2 H -0.31640 0.39320 0.37970
H3 H -0.68860 0.12560 0.28240
H4 H -0.71490 0.10360 0.19410
H5 H -0.61190 -0.07040 0.29640
H6 H -0.69230 -0.11570 0.24570
H7 H -0.55280 -0.11920 0.20750
H8 H -0.61300 -0.03500 0.14610
H9 H -0.60830 -0.26940 0.10720
H10 H -0.69070 -0.23920 0.12190
H11 H -0.62960 -0.32350 0.18280
H12? H 0.31100 -0.10290 0.27250
H13? H 0.39200 -0.04270 0.31310
H14? H 0.40690 -0.23020 0.23410
H15? H 0.44000 -0.09050 0.20600
H16? H 0.37050 -0.21310 0.10030
H17? H 0.32730 -0.06970 0.10730
H18? H 0.29670 -0.21300 0.13460
H19 H -0.54290 0.50280 0.28340
H20 H -0.63260 0.51160 0.25340
H21 H -0.55830 0.38200 0.39240
H22 H -0.64820 0.38200 0.36190
H23 H -0.64890 0.63300 0.37320
H24 H -0.61910 0.55860 0.45260
H25 H -0.54280 0.75340 0.44210
H26 H -0.52240 0.68800 0.36850
H27 H -0.49280 0.61430 0.44830
H28 H -0.47490 0.15960 0.16700
H29 H -0.54230 0.19390 0.09670
H30 H -0.44140 0.40250 0.17700
H31 H -0.50820 0.43510 0.10540
H32 H -0.37990 0.26030 0.09940
H33 H -0.44600 0.29690 0.02800
H34 H -0.33900 0.43360 0.02620
H35 H -0.34010 0.49610 0.10710
H36 H -0.40670 0.53370 0.03630
H37 H -0.46880 -0.03930 0.41590
H38 H -0.39980 -0.14950 0.52640
H39 H -0.28550 -0.04750 0.59400
H40 H -0.32230 0.58430 0.45590
H41 H -0.31120 0.63700 0.37590
H42 H -0.24030 0.63160 0.44610
H43 H -0.28950 0.51330 0.25680
H44 H -0.20430 0.47690 0.17590
H45 H -0.08810 0.38210 0.21770
H46 H -0.05280 0.29530 0.34100
H47 H -0.13480 0.33460 0.42490
O3A O -0.6821(2) 0.3609(3) 0.1270(1)
Sn1A Sn -0.08926(2) 0.24346(2) 0.71949(1)
#END
