
#######################################################################
#
#                 Cambridge Crystallographic Data Centre
#                                CCDC
#
#######################################################################
#
# If this CIF has been generated from an entry in the Cambridge
# Structural Database, then it will include bibliographic, chemical,
# crystal, experimental, refinement or atomic coordinate data resulting
# from the CCDC's data processing and validation procedures.
#
#######################################################################

data_CSD_CIF_WOBJAZ
_audit_creation_date 2008-07-15
_audit_creation_method CSD-ConQuest-V1
_database_code_CSD WOBJAZ
_database_code_depnum_ccdc_archive 'CCDC 681863'
_chemical_formula_sum 'C40 H56 Cu4 Mo8 N16 O26'
_chemical_formula_moiety
;
(C10 H14 Cu1 N4 1+)2n,n(C20 H28 Cu2 Mo8 N8 O26 2-)
;
_journal_coden_Cambridge 9
_journal_volume 47
_journal_year 2008
_journal_page_first 529
_journal_name_full 'Inorg.Chem. '
loop_
_publ_author_name
"Ya-Qian Lan"
"Shun-Li Li"
"Xin-Long Wang"
"Kui-Zhan Shao"
"Zhong-Min Su"
"En-Bo Wang"
_chemical_name_systematic
;
catena-(bis((\m~2~-1,1'-(1,4-butanediyl)bis(imidazole))-copper(i)) 
pentakis(\m~3~-oxo)-bis(\m~2~-1,1'-(1,4-butanediyl)bis(imidazole))-nonakis(\m~
2~-oxo)-dodecaoxo-di-copper(i)-octa-molybdenum)
;
_cell_volume   1597.991
_exptl_crystal_colour 'yellow'
_exptl_crystal_density_diffrn 2.285
_exptl_crystal_description 'block'
_diffrn_ambient_temperature 293
#These two values have been output from a single CSD field.
_refine_ls_R_factor_gt 0.0754
_refine_ls_wR_factor_gt 0.0754
_symmetry_cell_setting triclinic
_symmetry_space_group_name_H-M 'P -1'
_symmetry_Int_Tables_number 2
loop_
_symmetry_equiv_pos_site_id
_symmetry_equiv_pos_as_xyz
1 x,y,z
2 -x,-y,-z
_cell_length_a 11.9100(19)
_cell_length_b 12.458(2)
_cell_length_c 13.113(2)
_cell_angle_alpha 70.031(3)
_cell_angle_beta 63.821(2)
_cell_angle_gamma 69.960(3)
_cell_formula_units_Z 1
loop_
_atom_type_symbol
_atom_type_radius_bond
C 0.68
H 0.23
Cu 1.32
Mo 1.36
N 0.68
O 0.69
loop_
_atom_site_label
_atom_site_type_symbol
_atom_site_fract_x
_atom_site_fract_y
_atom_site_fract_z
Cu1 Cu 0.00000 0.00000 0.00000
Cu2 Cu 0.50000 0.50000 0.50000
Cu3 Cu 0.1226(3) 0.7260(3) 0.0838(3)
Mo1 Mo 0.39296(9) 0.92017(9) 0.00346(8)
Mo2 Mo 0.50443(10) 0.83686(9) 0.25846(8)
Mo3 Mo 0.28305(11) 1.08761(9) 0.24080(8)
Mo4 Mo 0.26795(12) 1.25868(12) -0.02009(10)
O1 O 0.3757(10) 0.9292(9) 0.1428(8)
O2 O 0.2546(9) 1.2069(8) 0.2884(8)
O3 O 0.5804(8) 0.7355(7) 0.1514(6)
O4 O 0.3598(8) 1.0613(8) -0.0822(7)
O5 O 0.3899(9) 0.7667(8) 0.3628(9)
O6 O 0.6197(10) 0.8009(9) 0.3140(8)
O7 O 0.2870(11) 0.8455(11) 0.0265(11)
O8 O 0.1686(9) 1.0157(8) 0.3426(8)
O9 O 0.4285(8) 0.9931(7) 0.2775(6)
O10 O 0.1558(11) 1.2861(13) -0.0775(10)
O11 O 0.2131(8) 1.1514(7) 0.1209(7)
N1 N 0.4380(18) 0.4662(15) 0.4093(11)
C1 C -0.0381(13) 0.0361(13) 0.2213(14)
H1 H 0.03340 0.06760 0.19210
N2 N -0.0747(11) 0.0015(10) 0.1570(9)
N3 N -0.2132(9) -0.0266(10) 0.3408(9)
O12 O 0.5494(10) 0.8449(8) -0.0672(8)
C2 C -0.442(1) 0.0131(14) 0.4558(12)
H2 H -0.45260 0.02920 0.38240
H3 H -0.43820 0.08690 0.46250
N4 N 0.3929(14) 0.4730(11) 0.2636(10)
C3 C -0.1811(13) -0.0388(13) 0.2330(11)
H4 H -0.22630 -0.07090 0.21290
C4 C -0.3248(10) -0.0570(13) 0.4426(11)
H5 H -0.32920 -0.13380 0.44400
H6 H -0.30770 -0.06530 0.51100
C5 C -0.1205(12) 0.0190(12) 0.3368(11)
H7 H -0.11460 0.03480 0.39850
C6 C 0.3905(16) 0.3711(14) 0.4353(12)
H8 H 0.37980 0.31240 0.50340
C7 C 0.437(2) 0.5235(15) 0.3054(13)
H9 H 0.46430 0.59310 0.26580
C8 C 0.5008(16) 0.4769(18) 0.0610(12)
H10 H 0.52560 0.39200 0.07640
H11 H 0.56620 0.50390 0.06430
C9 C 0.3614(15) 0.3774(15) 0.3435(13)
H12 H 0.32610 0.32460 0.33790
C10 C 0.3834(19) 0.510(2) 0.1502(13)
H13 H 0.31950 0.47680 0.15260
H14 H 0.35420 0.59490 0.13200
N5 N 0.0394(13) 0.7346(12) 0.4124(17)
N6 N 0.0626(18) 0.7157(16) 0.2426(19)
C11 C 0.105(2) 0.755(2) 0.298(3)
H15 H 0.17250 0.79230 0.26070
C12 C -0.043(3) 0.674(2) 0.324(3)
H16 H -0.09840 0.64810 0.31020
C13 C -0.051(2) 0.677(2) 0.425(3)
H17 H -0.10920 0.64550 0.49560
O13 O 0.2419(14) 1.3788(10) 0.0227(11)
C14 C 0.0539(18) 0.777(2) 0.4985(19)
H18 H -0.01980 0.84040 0.52090
H19 H 0.12900 0.81010 0.45790
C15 C 0.067(2) 0.693(2) 0.609(2)
H20 H 0.05770 0.73840 0.66060
H21 H -0.00450 0.65430 0.64760
C16 C 0.183(3) 0.559(3) 0.7221(18)
H22 H 0.24840 0.48700 0.72390
H23 H 0.10110 0.53710 0.76880
C17 C 0.187(2) 0.600(3) 0.5983(16)
H24 H 0.26230 0.63230 0.54610
H25 H 0.18780 0.53720 0.57070
N7 N 0.1972(16) 0.6284(17) 0.7921(15)
C18 C 0.1319(19) 0.642(2) 0.9064(19)
H26 H 0.06130 0.60970 0.95790
C19 C 0.291(2) 0.694(2) 0.748(2)
H27 H 0.35200 0.70570 0.67250
N8 N 0.1802(16) 0.7050(18) 0.936(2)
C20 C 0.2755(17) 0.735(2) 0.836(2)
H28 H 0.32720 0.78070 0.82780
Cu1* Cu -1.00000 0.00000 1.00000
Cu2* Cu 0.50000 0.50000 -0.50000
Cu3* Cu 0.1226(3) 0.7260(3) -0.9162(3)
Cu3** Cu 0.1226(3) 0.7260(3) 1.0838(3)
Mo1* Mo 0.39296(9) 0.92017(9) -0.99654(8)
Mo1A Mo 0.60704(9) 1.07983(9) -0.00346(8)
Mo2A Mo 0.49557(10) 1.16314(9) -0.25846(8)
Mo2* Mo 0.50443(10) 0.83686(9) -0.74154(8)
Mo3A Mo 0.71695(11) 0.91239(9) -0.24080(8)
Mo3* Mo 0.28305(11) 1.08761(9) -0.75920(8)
Mo4A Mo 0.73205(12) 0.74132(12) 0.02009(10)
O1* O 0.3757(10) 0.9292(9) -0.8572(8)
O1A O 0.6243(10) 1.0708(9) -0.1428(8)
O2A O 0.7454(9) 0.7931(8) -0.2884(8)
O3A O 0.4196(8) 1.2645(7) -0.1514(6)
O4A O 0.6402(8) 0.9387(8) 0.0822(7)
O4* O 0.3598(8) 1.0613(8) -1.0822(7)
O5A O 0.6101(9) 1.2333(8) -0.3628(9)
O6A O 0.3803(10) 1.1991(9) -0.3140(8)
O7* O 0.2870(11) 0.8455(11) -0.9735(11)
O8A O 0.8314(9) 0.9843(8) -0.3426(8)
O9A O 0.5715(8) 1.0069(7) -0.2775(6)
O10A O 0.8442(11) 0.7139(13) 0.0775(10)
O11A O 0.7869(8) 0.8486(7) -0.1209(7)
N1A N 0.5620(18) 0.5338(15) -0.4093(11)
N1A* N 0.5620(18) 0.5338(15) 0.5907(11)
C1A C -0.9619(13) -0.0361(13) 0.7787(14)
H1A H -1.03340 -0.06760 0.80790
N2A N -0.9253(11) -0.0015(10) 0.8430(9)
N2A* N 0.0747(11) -0.0015(10) -0.1570(9)
N3A N -0.7868(9) 0.0266(10) 0.6592(9)
O12A O 0.4506(10) 1.1551(8) 0.0672(8)
O12* O 0.5494(10) 0.8449(8) -1.0672(8)
C2A C -0.558(1) -0.0131(14) 0.5442(12)
H2A H -0.54740 -0.02920 0.61760
H3A H -0.56180 -0.08690 0.53750
N4A N 0.6071(14) 0.5270(11) -0.2636(10)
C3A C -0.8189(13) 0.0388(13) 0.7670(11)
H4A H -0.77370 0.07090 0.78710
C4A C -0.6752(10) 0.0570(13) 0.5574(11)
H5A H -0.67080 0.13380 0.55600
H6A H -0.69230 0.06530 0.48900
C5A C -0.8795(12) -0.0190(12) 0.6632(11)
H7A H -0.88540 -0.03480 0.60150
C6A C 0.6095(16) 0.6289(14) -0.4353(12)
H8A H 0.62020 0.68760 -0.50340
C7A C 0.563(2) 0.4765(15) -0.3054(13)
H9A H 0.53570 0.40690 -0.26580
C8A C 0.4992(16) 0.5231(18) -0.0610(12)
H10A H 0.47440 0.60800 -0.07640
H11A H 0.43380 0.49610 -0.06430
C9A C 0.6386(15) 0.6226(15) -0.3435(13)
H12A H 0.67390 0.67540 -0.33790
C10A C 0.6166(19) 0.490(2) -0.1502(13)
H13A H 0.68050 0.52320 -0.15260
H14A H 0.64580 0.40510 -0.13200
N5* N 0.0394(13) 0.7346(12) -0.5876(17)
N6* N 0.0626(18) 0.7157(16) -0.7574(19)
C11* C 0.105(2) 0.755(2) -0.702(3)
H15* H 0.17250 0.79230 -0.73930
C12* C -0.043(3) 0.674(2) -0.676(3)
H16* H -0.09840 0.64810 -0.68980
C13* C -0.051(2) 0.677(2) -0.575(3)
H17* H -0.10920 0.64550 -0.50440
O13A O 0.7581(14) 0.6212(10) -0.0227(11)
C14* C 0.0539(18) 0.777(2) -0.5015(19)
H18* H -0.01980 0.84040 -0.47910
H19* H 0.12900 0.81010 -0.54210
C15* C 0.067(2) 0.693(2) -0.391(2)
H20* H 0.05770 0.73840 -0.33940
H21* H -0.00450 0.65430 -0.35240
C16* C 0.183(3) 0.559(3) -0.2779(18)
H22* H 0.24840 0.48700 -0.27610
H23* H 0.10110 0.53710 -0.23120
C17* C 0.187(2) 0.600(3) -0.4017(16)
H24* H 0.26230 0.63230 -0.45390
H25* H 0.18780 0.53720 -0.42930
N7* N 0.1972(16) 0.6284(17) -0.2079(15)
C18* C 0.1319(19) 0.642(2) -0.0936(19)
H26* H 0.06130 0.60970 -0.04210
C19* C 0.291(2) 0.694(2) -0.252(2)
H27* H 0.35200 0.70570 -0.32750
N8* N 0.1802(16) 0.7050(18) -0.064(2)
N8** N 0.1802(16) 0.7050(18) -1.064(2)
C20* C 0.2755(17) 0.735(2) -0.164(2)
H28* H 0.32720 0.78070 -0.17220
#END
