
#######################################################################
#
#                 Cambridge Crystallographic Data Centre
#                                CCDC
#
#######################################################################
#
# If this CIF has been generated from an entry in the Cambridge
# Structural Database, then it will include bibliographic, chemical,
# crystal, experimental, refinement or atomic coordinate data resulting
# from the CCDC's data processing and validation procedures.
#
#######################################################################

data_CSD_CIF_WOCJII
_audit_creation_date 2008-12-09
_audit_creation_method CSD-ConQuest-V1
_database_code_CSD WOCJII
_database_code_depnum_ccdc_archive 'CCDC 697250'
_chemical_formula_sum 'C28 H54 K4 N4 O45 Zr2'
_chemical_formula_moiety
;
(C6 H14 N2 2+)2n,n(C16 K4 O32 Zr2 4-),13n(H2 O1)
;
_journal_coden_Cambridge 1147
_journal_volume 8
_journal_year 2008
_journal_page_first 1870
_journal_name_full 'Cryst.Growth Des. '
loop_
_publ_author_name
"F.Thetiot"
"C.Duhayon"
"T.S.Venkatakrishnan"
"J.-P.Sutter"
_chemical_name_systematic
;
catena-(bis(1,4-Diazoniabicyclo(2.2.2)octane) 
tetrakis((\m~4~-oxalato)-(\m~2~-oxalato))-tetra-potassium-di-zirconium 
tridecahydrate)
;
_cell_volume   2681.123
_exptl_crystal_colour 'colorless'
_exptl_crystal_density_diffrn 1.832
_exptl_crystal_description 'block'
_diffrn_ambient_temperature 180
_diffrn_special_details
;
racemic twin

;
#These two values have been output from a single CSD field.
_refine_ls_R_factor_gt 0.0432
_refine_ls_wR_factor_gt 0.0432
_symmetry_cell_setting monoclinic
_symmetry_space_group_name_H-M 'P 21'
_symmetry_Int_Tables_number 4
loop_
_symmetry_equiv_pos_site_id
_symmetry_equiv_pos_as_xyz
1 x,y,z
2 -x,1/2+y,-z
_cell_length_a 10.225(5)
_cell_length_b 19.053(5)
_cell_length_c 13.954(5)
_cell_angle_alpha 90
_cell_angle_beta 99.509(5)
_cell_angle_gamma 90
_cell_formula_units_Z 2
loop_
_atom_type_symbol
_atom_type_radius_bond
C 0.68
H 0.23
K 1.79
N 0.68
O 0.68
Zr 1.56
loop_
_atom_site_label
_atom_site_type_symbol
_atom_site_fract_x
_atom_site_fract_y
_atom_site_fract_z
Zr1 Zr 0.50144(3) 0.37133(5) 0.74388(3)
Zr2 Zr -0.00885(4) 0.22702(5) 0.24497(3)
K1 K 0.31865(11) 0.14854(8) 0.4113(1)
K2 K 0.33160(11) 0.64726(8) 0.91859(9)
K3 K 0.17860(11) 0.45142(8) 0.58213(8)
K4 K 0.82660(11) 0.44921(8) 0.90481(9)
C1 C 0.3301(5) 0.4772(3) 0.8342(4)
C2 C 0.4715(5) 0.4848(3) 0.8934(4)
C3 C 0.5056(5) 0.2724(3) 0.9164(4)
C4 C 0.6523(5) 0.2747(3) 0.8985(3)
C5 C 0.4896(5) 0.2704(4) 0.5714(4)
C6 C 0.3428(4) 0.2795(3) 0.5854(4)
C7 C 0.6804(5) 0.4758(3) 0.6587(3)
C8 C 0.5429(5) 0.4848(3) 0.5962(4)
C9 C -0.1846(5) 0.1242(3) 0.3322(3)
C10 C -0.0432(5) 0.1153(3) 0.3956(4)
C11 C -0.0017(5) 0.3335(3) 0.4131(4)
C12 C 0.1307(5) 0.3408(3) 0.3779(4)
C13 C 0.8444(5) 0.3331(3) 1.1027(3)
C14 C 0.9803(5) 0.3283(3) 1.0701(4)
C15 C 0.1718(5) 0.1244(3) 0.1626(4)
C16 C 0.0331(5) 0.1123(3) 0.0997(4)
O1 O 0.3232(3) 0.4292(2) 0.7687(3)
O2 O 0.5554(3) 0.4428(2) 0.8678(3)
O3 O 0.2394(4) 0.5136(3) 0.8516(3)
O4 O 0.4941(4) 0.5288(3) 0.9597(3)
O5 O 0.4249(4) 0.3046(2) 0.8516(3)
O6 O 0.6677(3) 0.3160(2) 0.8292(3)
O7 O 0.4799(4) 0.2437(3) 0.9893(3)
O8 O 0.7376(3) 0.2394(2) 0.9484(3)
O9 O 0.5712(4) 0.3030(2) 0.6359(3)
O10 O 0.3306(3) 0.3201(2) 0.6575(3)
O11 O 0.5149(4) 0.2364(3) 0.5029(3)
O12 O 0.2528(3) 0.2508(2) 0.5313(3)
O13 O 0.6854(3) 0.4256(2) 0.7202(3)
O14 O 0.4552(4) 0.4439(2) 0.6197(3)
O15 O 0.7728(4) 0.5138(3) 0.6471(3)
O16 O 0.5244(4) 0.5293(3) 0.5312(3)
O17 O -0.1899(4) 0.1739(2) 0.2699(3)
O18 O 0.0429(3) 0.1557(2) 0.3682(2)
O19 O -0.2750(3) 0.0847(2) 0.3459(3)
O20 O -0.0263(4) 0.0732(2) 0.4623(3)
O21 O -0.0794(3) 0.2892(3) 0.3636(3)
O22 O 0.1489(3) 0.2956(2) 0.3123(3)
O23 O -0.0282(4) 0.3696(3) 0.4813(3)
O24 O 0.2102(3) 0.3878(2) 0.4084(3)
O25 O 0.8282(3) 0.2896(2) 1.1707(3)
O26 O 1.0574(3) 0.2846(2) 1.1213(3)
O27 O 0.7624(3) 0.3771(2) 1.0661(2)
O28 O 1.0095(4) 0.3629(3) 1.0034(3)
O29 O 0.1752(3) 0.1745(2) 0.2234(3)
O30 O -0.0573(3) 0.1513(2) 0.1269(3)
O31 O 0.2641(4) 0.0844(2) 0.1525(3)
O32 O 0.0180(4) 0.0708(3) 0.0327(3)
C17 C 0.3164(5) 0.3883(4) 0.1717(4)
C18 C 0.4250(5) 0.3978(4) 0.1103(4)
C19 C 0.4582(6) 0.3194(4) 0.2969(5)
C20 C 0.5417(6) 0.3092(4) 0.2178(5)
C21 C 0.4749(5) 0.4473(4) 0.2958(4)
C22 C 0.5956(6) 0.4327(4) 0.2444(4)
N1 N 0.3836(4) 0.3879(3) 0.2759(3)
N2 N 0.5557(4) 0.3779(3) 0.1700(3)
H1 H 0.32430 0.39090 0.31280
H2 H 0.61480 0.37460 0.13300
H3 H 0.25200 0.42820 0.16020
H4 H 0.26840 0.34300 0.15570
H5 H 0.42680 0.44760 0.08770
H6 H 0.40730 0.36590 0.05260
H7 H 0.51810 0.32190 0.36120
H8 H 0.39460 0.27960 0.29740
H9 H 0.63080 0.28960 0.24510
H10 H 0.49460 0.27610 0.16800
H11 H 0.50510 0.45130 0.36750
H12 H 0.43010 0.49190 0.27070
H13 H 0.62230 0.47650 0.21320
H14 H 0.67210 0.41500 0.29230
C23 C 0.1508(5) 0.1904(4) 0.7497(4)
C24 C 0.0478(5) 0.1827(4) 0.6564(4)
C25 C 0.0616(6) 0.3006(3) 0.7927(4)
C26 C -0.0263(10) 0.3011(4) 0.6922(5)
C27 C -0.0379(5) 0.1891(4) 0.8350(4)
C28 C -0.1405(5) 0.1992(4) 0.7420(4)
N3 N 0.0854(4) 0.2267(3) 0.8233(3)
N4 N -0.0689(4) 0.2277(3) 0.6670(3)
H15 H 0.13840 0.22610 0.87800
H16 H -0.12210 0.22820 0.61240
H17 H 0.18320 0.14330 0.77500
H18 H 0.22750 0.21900 0.73580
H19 H 0.01880 0.13260 0.64860
H20 H 0.08710 0.19750 0.59860
H21 H 0.01680 0.32590 0.84100
H22 H 0.14810 0.32390 0.78850
H23 H -0.10620 0.33080 0.69470
H24 H 0.02400 0.32030 0.64240
H25 H -0.07360 0.20920 0.89160
H26 H -0.01810 0.13810 0.84670
H27 H -0.21260 0.23190 0.75390
H28 H -0.17990 0.15270 0.71980
O33 O 0.6975(4) 0.3856(3) 0.4844(3)
O34 O 0.7790(3) 0.2202(2) 0.4918(2)
O35 O 0.7176(5) 0.0687(3) 0.5654(3)
O36 O 0.8363(5) 0.0180(3) 0.7408(3)
O37 O 0.2036(7) 0.0309(4) 0.5863(5)
O38 O 0.2572(5) 0.0564(3) 0.9252(4)
O39 O 0.2197(3) 0.2196(2) 1.0023(2)
O40 O 0.0068(4) 0.4549(4) 0.7444(3)
O41 O 0.5052(7) 0.1073(4) 0.8433(5)
O42 O 0.7572(5) 0.0556(3) 0.9149(4)
O43 O 0.9014(6) 0.4839(4) 0.2445(5)
O44 O 0.4299(8) 0.1211(5) 0.6479(5)
O45 O 0.4926(4) 0.1502(3) 0.2522(3)
Zr2* Zr 0.99115(4) 0.22702(5) 1.24497(3)
K1A K 0.68135(11) 0.64854(8) 0.5887(1)
K2A K 0.66840(11) 0.14726(8) 1.08141(9)
K2A* K -0.33160(11) 0.14726(8) 0.08141(9)
K3A K -0.17860(11) -0.04858(8) 0.41787(8)
K4A K 0.17340(11) -0.05079(8) 0.09519(9)
O7A O 0.5201(4) 0.7437(3) 1.0107(3)
O8A O 0.2624(3) 0.7394(2) 1.0516(3)
O15A O 0.2272(4) 0.0138(3) 0.3529(3)
O16A O 0.4756(4) 0.0293(3) 0.4688(3)
O17A O 0.1899(4) 0.6739(2) 0.7301(3)
O19A O 0.2750(3) 0.5847(2) 0.6541(3)
O20A O 0.0263(4) 0.5732(2) 0.5377(3)
O25* O -0.1718(3) 0.2896(2) 0.1707(3)
O26* O 0.0574(3) 0.2846(2) 0.1213(3)
O30A O 0.0573(3) 0.6513(2) 0.8731(3)
O31A O 0.7359(4) 0.5844(2) 0.8475(3)
O32A O 0.9820(4) 0.5708(3) 0.9673(3)
#END
