
#######################################################################
#
#                 Cambridge Crystallographic Data Centre
#                                CCDC
#
#######################################################################
#
# If this CIF has been generated from an entry in the Cambridge
# Structural Database, then it will include bibliographic, chemical,
# crystal, experimental, refinement or atomic coordinate data resulting
# from the CCDC's data processing and validation procedures.
#
#######################################################################

data_CSD_CIF_WOCKAB
_audit_creation_date 2008-12-09
_audit_creation_method CSD-ConQuest-V1
_database_code_CSD WOCKAB
_database_code_depnum_ccdc_archive 'CCDC 697253'
_chemical_formula_sum 'C26 H40 K2 N4 O34 Zr2'
_chemical_formula_moiety
;
(C14 H4 K2 O30 Zr2 4-)n,2n(C6 H14 N2 2+),4n(H2 O1)
;
_journal_coden_Cambridge 1147
_journal_volume 8
_journal_year 2008
_journal_page_first 1870
_journal_name_full 'Cryst.Growth Des. '
loop_
_publ_author_name
"F.Thetiot"
"C.Duhayon"
"T.S.Venkatakrishnan"
"J.-P.Sutter"
_chemical_name_systematic
;
catena-(bis(1,4-Diazoniabicyclo(2.2.2)octane) 
(\m~4~-oxalato)-bis((\m~3~-oxalato)-(\m~2~-oxalato))-diaqua-bis(oxalato)-di-po
tassium-di-zirconium tetrahydrate)
;
_cell_volume   2046.245
_exptl_crystal_colour 'colorless'
_exptl_crystal_density_diffrn 1.969
_exptl_crystal_description 'block'
_diffrn_ambient_temperature 180
#These two values have been output from a single CSD field.
_refine_ls_R_factor_gt 0.0389
_refine_ls_wR_factor_gt 0.0389
_symmetry_cell_setting monoclinic
_symmetry_space_group_name_H-M 'P 21/c'
_symmetry_Int_Tables_number 14
loop_
_symmetry_equiv_pos_site_id
_symmetry_equiv_pos_as_xyz
1 x,y,z
2 -x,1/2+y,1/2-z
3 -x,-y,-z
4 x,-1/2-y,-1/2+z
_cell_length_a 13.391(1)
_cell_length_b 10.3878(8)
_cell_length_c 14.7120(11)
_cell_angle_alpha 90
_cell_angle_beta 90.875(9)
_cell_angle_gamma 90
_cell_formula_units_Z 2
loop_
_atom_type_symbol
_atom_type_radius_bond
C 0.68
H 0.23
K 1.98
N 0.68
O 0.68
Zr 1.56
loop_
_atom_site_label
_atom_site_type_symbol
_atom_site_fract_x
_atom_site_fract_y
_atom_site_fract_z
Zr1 Zr 0.67959(2) 0.66684(3) 0.52886(2)
K1 K 0.55120(7) 0.84516(8) 0.31291(6)
C1 C 0.7636(3) 0.6305(3) 0.3393(3)
C2 C 0.8065(3) 0.5190(3) 0.3967(3)
C3 C 0.8831(3) 0.7378(4) 0.6100(3)
C4 C 0.8415(3) 0.6333(4) 0.6724(3)
C5 C 0.5630(3) 0.8521(4) 0.6465(3)
C6 C 0.5982(3) 0.9363(3) 0.5661(3)
C7 C 0.4805(3) 0.5461(3) 0.4640(3)
C8 C 0.9078(3) 0.4227(4) 0.1526(3)
C9 C 0.8652(4) 0.3843(4) 0.0591(3)
C10 C 0.9912(3) 0.2143(4) 0.1440(3)
C11 C 0.9227(3) 0.1625(4) 0.0690(3)
C12 C 0.8379(3) 0.2350(4) 0.2300(3)
C13 C 0.7698(3) 0.2277(4) 0.1465(3)
N1 N 0.9318(2) 0.3015(3) 0.2028(2)
N2 N 0.8321(3) 0.2468(3) 0.0644(2)
O1 O 0.71136(19) 0.7094(2) 0.38696(18)
O2 O 0.7643(2) 0.5085(2) 0.47461(18)
O3 O 0.7798(2) 0.6397(3) 0.25795(19)
O4 O 0.8747(2) 0.4518(3) 0.36983(19)
O5 O 0.8222(2) 0.7661(3) 0.54361(19)
O6 O 0.7540(2) 0.5947(3) 0.65087(17)
O7 O 0.9659(2) 0.7827(3) 0.6231(2)
O8 O 0.8924(2) 0.5906(3) 0.7364(2)
O9 O 0.5844(2) 0.7324(2) 0.63662(18)
O10 O 0.6426(2) 0.8701(2) 0.50487(18)
O11 O 0.5201(2) 0.8987(3) 0.71126(19)
O12 O 0.5848(2) 1.0526(2) 0.56619(19)
O13 O 0.53386(19) 0.6440(2) 0.44965(18)
O14 O 0.39968(19) 0.5169(2) 0.42578(17)
O15 O 0.3695(2) 0.8833(3) 0.2104(2)
O16 O 0.7498(3) 0.5004(4) 0.8641(3)
O17 O 0.3260(2) 0.7817(3) 0.5624(2)
H1 H 0.71180 0.54950 0.89180
H2 H 0.80830 0.51670 0.88000
H3 H 0.96680 0.32090 0.25160
H4 H 0.79540 0.22790 0.01480
H5 H 0.38640 0.95690 0.19560
H6 H 0.37500 0.84800 0.15940
H7 H 0.37160 0.80770 0.52960
H8 H 0.29860 0.83830 0.59200
H9 H 0.91630 0.39190 0.01280
H10 H 0.80760 0.43740 0.04430
H11 H 0.96830 0.47320 0.14570
H12 H 0.85880 0.47180 0.18610
H13 H 0.71980 0.29610 0.14860
H14 H 0.73760 0.14480 0.14330
H15 H 0.85490 0.14890 0.25100
H16 H 0.80620 0.28330 0.27740
H17 H 1.04520 0.26170 0.11680
H18 H 1.01740 0.14360 0.17970
H19 H 0.95720 0.16460 0.01130
H20 H 0.90170 0.07430 0.08230
Zr1B Zr 0.32041(2) 0.33316(3) 0.47114(2)
Zr1C Zr 0.67959(2) 0.83316(3) 0.02886(2)
K1C K 0.55120(7) 0.65484(8) 0.81291(6)
K1B K 0.44880(7) 1.15484(8) 0.68709(6)
K1B* K 0.44880(7) 0.15484(8) 0.68709(6)
K1A K 0.44880(7) 0.34516(8) 0.18709(6)
C1B C 0.2364(3) 0.3695(3) 0.6607(3)
C2B C 0.1935(3) 0.4810(3) 0.6033(3)
C3B C 0.1169(3) 0.2622(4) 0.3900(3)
C4B C 0.1585(3) 0.3667(4) 0.3276(3)
C5C C 0.5630(3) 0.6479(4) 0.1465(3)
C6C C 0.5982(3) 0.5637(3) 0.0661(3)
C7B C 0.5195(3) 0.4539(3) 0.5360(3)
O1B O 0.28864(19) 0.2906(2) 0.61304(18)
O1C O 0.71136(19) 0.7906(2) 0.88696(18)
O2B O 0.2357(2) 0.4915(2) 0.52539(18)
O3B O 0.2202(2) 0.3603(3) 0.74205(19)
O4B O 0.1253(2) 0.5482(3) 0.63017(19)
O5B O 0.1778(2) 0.2339(3) 0.45639(19)
O6B O 0.2460(2) 0.4053(3) 0.34913(17)
O7B O 0.0341(2) 0.2173(3) 0.3769(2)
O8B O 0.1076(2) 0.4094(3) 0.2636(2)
O9C O 0.5844(2) 0.7676(2) 0.13662(18)
O9B O 0.4156(2) 0.2676(2) 0.36338(18)
O10C O 0.6426(2) 0.6299(2) 0.00487(18)
O10B O 0.3574(2) 0.1299(2) 0.49513(18)
O11C O 0.5201(2) 0.6013(3) 0.21126(19)
O11B O 0.4799(2) 1.1013(3) 0.28874(19)
O11A O 0.4799(2) 0.3987(3) 0.78874(19)
O12C O 0.5848(2) 0.4474(2) 0.06619(19)
O12B O 0.4152(2) 0.9474(2) 0.43381(19)
O12A O 0.4152(2) 0.5526(2) 0.93381(19)
O13B O 0.46614(19) 0.3560(2) 0.55035(18)
O13C O 0.53386(19) 0.8560(2) 0.94965(18)
O14B O 0.60032(19) 0.4831(2) 0.57422(17)
O15C O 0.3695(2) 0.6167(3) 0.7104(2)
H5C H 0.38640 0.54310 0.69560
H6C H 0.37500 0.65200 0.65940
#END
