
#######################################################################
#
#                 Cambridge Crystallographic Data Centre
#                                CCDC
#
#######################################################################
#
# If this CIF has been generated from an entry in the Cambridge
# Structural Database, then it will include bibliographic, chemical,
# crystal, experimental, refinement or atomic coordinate data resulting
# from the CCDC's data processing and validation procedures.
#
#######################################################################

data_CSD_CIF_WOCVOC
_audit_creation_date 2019-02-24
_audit_creation_method CSD-ConQuest-V1
_database_code_CSD WOCVOC
_database_code_depnum_ccdc_archive 'CCDC 1893940'
_chemical_formula_sum 'C44 H40 Br2 N4 O13 Zn4'
_chemical_formula_moiety
;
(C30 H14 Br2 O13 Zn4 2-)n,2(C7 H13 N2 1+)
;
_journal_coden_Cambridge 1295
_journal_volume 102
_journal_year 2019
_journal_page_first 215
_journal_name_full 'Inorg.Chem.Commun. '
loop_
_publ_author_name
"Xiaojun Luo"
"Z.Mai"
"Hao Lei"
_chemical_name_systematic
;
catena-[bis(1-propyl-3-methylimidazolium) 
bis(\m-biphenyl-3,4',5-tricarboxylato)-(\m-oxo)-dibromo-tetra-zinc(ii)]
;
_cell_volume   5155.067
_exptl_crystal_colour 'colorless'
_exptl_crystal_density_diffrn 1.616
_exptl_crystal_description 'block'
_diffrn_ambient_temperature 293
_refine_special_details
;
C22,C23,C24,C25 disordered by symmetry over two configurations with occupancy 
0.5; C26 and C19,C20,C21 disordered over two sites with occupancies 0.5:0.5.
;
#These two values have been output from a single CSD field.
_refine_ls_R_factor_gt 0.0491
_refine_ls_wR_factor_gt 0.0491
_symmetry_cell_setting orthorhombic
_symmetry_space_group_name_H-M 'C 2 2 21'
_symmetry_Int_Tables_number 20
loop_
_symmetry_equiv_pos_site_id
_symmetry_equiv_pos_as_xyz
1 x,y,z
2 -x,-y,1/2+z
3 -x,y,1/2-z
4 x,-y,-z
5 1/2+x,1/2+y,z
6 1/2-x,1/2-y,1/2+z
7 1/2-x,1/2+y,1/2-z
8 1/2+x,1/2-y,-z
_cell_length_a 12.2066(2)
_cell_length_b 17.7543(3)
_cell_length_c 23.7868(3)
_cell_angle_alpha 90
_cell_angle_beta 90
_cell_angle_gamma 90
_cell_formula_units_Z 4
loop_
_atom_type_symbol
_atom_type_radius_bond
C 0.68
H 0.23
Br 1.21
N 0.68
O 0.68
Zn 1.22
loop_
_atom_site_label
_atom_site_type_symbol
_atom_site_fract_x
_atom_site_fract_y
_atom_site_fract_z
Zn1 Zn 0.23744(8) 0.55033(5) 0.44857(4)
Zn2 Zn 0.05988(8) 0.42125(5) 0.45853(4)
Br1 Br -0.12512(11) 0.42685(10) 0.43134(7)
O1 O 0.3118(5) 0.1516(3) 0.0762(2)
O2 O 0.6335(5) 0.4846(3) 0.0728(3)
O3 O 0.1342(6) 0.50000 0.50000
O4 O 0.1490(6) 0.3881(3) 0.3919(3)
O5 O 0.1689(6) 0.5091(3) 0.3707(2)
O6 O 0.4246(5) 0.1742(3) 0.0041(3)
O7 O 0.6590(5) 0.3962(3) 0.0074(3)
C1 C 0.3417(8) 0.3773(5) 0.2063(4)
C2 C 0.5224(6) 0.3767(4) 0.0760(3)
C3 C 0.3785(7) 0.1915(4) 0.0494(3)
C4 C 0.6113(6) 0.4227(4) 0.0494(3)
C5 C 0.4750(7) 0.3986(4) 0.1265(3)
H1 H 0.49760 0.44300 0.14360
C6 C 0.3626(7) 0.2886(4) 0.1252(4)
H2 H 0.30910 0.25840 0.14150
C7 C 0.3926(7) 0.3541(5) 0.1522(4)
C8 C 0.1811(7) 0.4404(4) 0.3596(3)
C9 C 0.4086(6) 0.2659(4) 0.0751(3)
C10 C 0.4892(6) 0.3103(4) 0.0501(4)
H3 H 0.52070 0.29560 0.01620
C11 C 0.2374(8) 0.4185(5) 0.3064(3)
C12 C 0.2762(13) 0.4701(6) 0.2708(5)
H4 H 0.26910 0.52090 0.27980
C13 C 0.2568(13) 0.3441(6) 0.2936(5)
H5 H 0.23310 0.30660 0.31800
C14 C 0.3111(14) 0.3245(5) 0.2447(6)
H6 H 0.32710 0.27410 0.23790
C15 C 0.3268(12) 0.4503(6) 0.2211(5)
H7 H 0.35130 0.48800 0.19710
N1 N 0.0433(8) 0.1762(6) 0.4017(5)
N2 N 0.2154(11) 0.1580(9) 0.4212(7)
C16 C 0.1397(16) 0.2081(8) 0.4081(6)
H8 H 0.15290 0.25940 0.40400
C17 C 0.0587(11) 0.1011(7) 0.4153(7)
H9 H 0.00430 0.06450 0.41580
C18 C 0.1628(15) 0.0898(9) 0.4276(9)
H10 H 0.19460 0.04450 0.43850
C19 C 0.400(5) 0.146(4) 0.3016(15)
H11 H 0.44020 0.11380 0.27610
H12 H 0.32630 0.15100 0.28860
H13 H 0.43460 0.19420 0.30320
C20 C 0.400(4) 0.109(2) 0.3628(18)
H14 H 0.47560 0.10210 0.37480
H15 H 0.36750 0.05890 0.36020
C21 C 0.3366(14) 0.155(3) 0.4101(16)
H16 H 0.36940 0.14000 0.44550
H17 H 0.35830 0.20740 0.40450
C22 C -0.0539(18) 0.2232(16) 0.3967(15)
H18 H -0.11780 0.19360 0.40460
H19 H -0.05860 0.24290 0.35920
H20 H -0.04930 0.26410 0.42300
C23? C 0.323(4) 0.192(3) 0.444(2)
H21? H 0.34510 0.23320 0.42050
H22? H 0.37890 0.15430 0.44440
H23? H 0.31100 0.21020 0.48170
C24? C -0.101(3) 0.153(3) 0.3211(15)
H24? H -0.13150 0.10460 0.33220
H25? H -0.16010 0.18290 0.30550
C25? C -0.018(5) 0.141(3) 0.2785(14)
H26? H -0.05040 0.11620 0.24670
H27? H 0.01090 0.18890 0.26690
H28? H 0.03950 0.11060 0.29350
C26? C -0.0574(16) 0.191(2) 0.3705(10)
H29? H -0.11530 0.18720 0.39830
H30? H -0.05330 0.24330 0.36000
Zn1B Zn 0.76256(8) 0.55033(5) 0.05143(4)
Zn2B Zn 0.94012(8) 0.42125(5) 0.04147(4)
Br1B Br 1.12512(11) 0.42685(10) 0.06866(7)
O1B O 0.6882(5) 0.1516(3) 0.4238(2)
O2B O 0.3665(5) 0.4846(3) 0.4272(3)
O4B O 0.8510(6) 0.3881(3) 0.1081(3)
O5B O 0.8311(6) 0.5091(3) 0.1293(2)
O6B O 0.5754(5) 0.1742(3) 0.4959(3)
O7B O 0.3410(5) 0.3962(3) 0.4926(3)
C1B C 0.6583(8) 0.3773(5) 0.2937(4)
C2B C 0.4776(6) 0.3767(4) 0.4240(3)
C3B C 0.6215(7) 0.1915(4) 0.4506(3)
C4B C 0.3887(6) 0.4227(4) 0.4506(3)
C5B C 0.5250(7) 0.3986(4) 0.3735(3)
H1B H 0.50240 0.44300 0.35640
C6B C 0.6374(7) 0.2886(4) 0.3748(4)
H2B H 0.69090 0.25840 0.35850
C7B C 0.6074(7) 0.3541(5) 0.3478(4)
C8B C 0.8189(7) 0.4404(4) 0.1404(3)
C9B C 0.5914(6) 0.2659(4) 0.4249(3)
C10B C 0.5108(6) 0.3103(4) 0.4499(4)
H3B H 0.47930 0.29560 0.48380
C11B C 0.7626(8) 0.4185(5) 0.1936(3)
C12B C 0.7238(13) 0.4701(6) 0.2292(5)
H4B H 0.73090 0.52090 0.22020
C13B C 0.7432(13) 0.3441(6) 0.2064(5)
H5B H 0.76690 0.30660 0.18200
C14B C 0.6889(14) 0.3245(5) 0.2553(6)
H6B H 0.67290 0.27410 0.26210
C15B C 0.6732(12) 0.4503(6) 0.2789(5)
H7B H 0.64870 0.48800 0.30290
Zn1A Zn 0.76256(8) 0.44967(5) -0.05143(4)
Zn1C Zn 0.23744(8) 0.44967(5) 0.55143(4)
Zn1D Zn 0.73744(8) 0.05033(5) 0.44857(4)
Zn1F Zn 0.26256(8) 0.05033(5) 0.05143(4)
Zn2C Zn 0.05988(8) 0.57875(5) 0.54147(4)
Zn2E Zn 0.44012(8) 0.07875(5) -0.04147(4)
Zn2G Zn 0.55988(8) 0.07875(5) 0.54147(4)
O1D O 0.8118(5) 0.6516(3) 0.0762(2)
O1F O 0.1882(5) 0.6516(3) 0.4238(2)
O3A O 0.8658(6) 0.50000 0.00000
O6E O 0.0754(5) 0.3258(3) 0.5041(3)
O6G O 0.9246(5) 0.3258(3) -0.0041(3)
O7A O 0.3410(5) 0.6038(3) 0.5074(3)
O7C O 0.6590(5) 0.6038(3) -0.0074(3)
#END
