
#######################################################################
#
#                 Cambridge Crystallographic Data Centre
#                                CCDC
#
#######################################################################
#
# If this CIF has been generated from an entry in the Cambridge
# Structural Database, then it will include bibliographic, chemical,
# crystal, experimental, refinement or atomic coordinate data resulting
# from the CCDC's data processing and validation procedures.
#
#######################################################################

data_CSD_CIF_WODFIH
_audit_creation_date 2019-02-25
_audit_creation_method CSD-ConQuest-V1
_database_code_CSD WODFIH
_database_code_depnum_ccdc_archive 'CCDC 1884106'
_chemical_formula_sum 'C5 H5 In1 N1 O8'
_chemical_formula_moiety
;
(C4 In1 O8 1-)n,0.5n(C2 H10 N2 2+)
;
_journal_coden_Cambridge 179
_journal_volume 58
_journal_year 2019
_journal_page_first 2889
_journal_name_full 'Angew.Chem.,Int.Ed. '
loop_
_publ_author_name
"Fei-Yan Yi"
"Huajun Yang"
"Xiang Zhao"
"Pingyun Feng"
"Xianhui Bu"
_chemical_name_systematic
;
catena-(hemikis(ethane-1,2-diammonium) bis(\m-oxalato)-indium)
;
_chemical_name_common
;
CPM-522-DIA-2
;
_cell_volume   1086.825
_exptl_crystal_colour 'colorless'
_exptl_crystal_density_diffrn 1.961
_exptl_crystal_description 'brick'
_diffrn_ambient_temperature 296
_refine_special_details
;
C3,N1 disordered by symmetry over two configurations with occupancy 0.5.

;
#These two values have been output from a single CSD field.
_refine_ls_R_factor_gt 0.0437
_refine_ls_wR_factor_gt 0.0437
_symmetry_cell_setting monoclinic
_symmetry_space_group_name_H-M 'C 2/c'
_symmetry_Int_Tables_number 15
loop_
_symmetry_equiv_pos_site_id
_symmetry_equiv_pos_as_xyz
1 x,y,z
2 -x,y,1/2-z
3 1/2+x,1/2+y,z
4 1/2-x,1/2+y,1/2-z
5 -x,-y,-z
6 x,-y,-1/2+z
7 -1/2-x,-1/2-y,-z
8 -1/2+x,-1/2-y,-1/2+z
_cell_length_a 9.964(2)
_cell_length_b 17.055(4)
_cell_length_c 8.042(3)
_cell_angle_alpha 90
_cell_angle_beta 127.32(1)
_cell_angle_gamma 90
_cell_formula_units_Z 4
loop_
_atom_type_symbol
_atom_type_radius_bond
C 0.68
In 1.42
N 0.68
O 0.68
loop_
_atom_site_label
_atom_site_type_symbol
_atom_site_fract_x
_atom_site_fract_y
_atom_site_fract_z
In1 In 0.50000 0.37487(5) 0.75000
C1 C 0.2353(13) 0.2691(6) 0.4023(15)
C2 C 0.5808(12) 0.4820(5) 0.5228(14)
O1 O 0.1352(10) 0.2317(4) 0.2345(10)
O2 O 0.3089(9) 0.3310(4) 0.4254(10)
O3 O 0.6312(8) 0.4182(4) 0.6254(10)
O4 O 0.6483(8) 0.5165(4) 0.4562(10)
N1 N 0.459(3) 0.0984(18) 0.069(5)
C3 C 0.414(5) 0.162(3) 0.150(7)
C1F C 0.2647(13) 0.2309(6) 0.5977(15)
O1F O 0.3648(10) 0.2683(4) 0.7655(10)
O2F O 0.1911(9) 0.1690(4) 0.5746(10)
C2D C 0.4192(12) 0.5180(5) 0.4772(14)
O3D O 0.3688(8) 0.5818(4) 0.3746(10)
O4D O 0.3517(8) 0.4835(4) 0.5438(10)
In1D In 0.50000 0.62513(5) 0.25000
In1F In 0.00000 0.12513(5) 0.25000
O1G O 0.6352(10) 0.2683(4) 0.7345(10)
O2A O 0.6911(9) 0.3310(4) 1.0746(10)
O3A O 0.3688(8) 0.4182(4) 0.8746(10)
O4E O 0.6483(8) 0.4835(4) 0.9562(10)
N1A N 0.541(3) 0.0984(18) 0.431(5)
C3A C 0.586(5) 0.162(3) 0.350(7)
#END
