
#######################################################################
#
#                 Cambridge Crystallographic Data Centre
#                                CCDC
#
#######################################################################
#
# If this CIF has been generated from an entry in the Cambridge
# Structural Database, then it will include bibliographic, chemical,
# crystal, experimental, refinement or atomic coordinate data resulting
# from the CCDC's data processing and validation procedures.
#
#######################################################################

data_CSD_CIF_WODGAA
_audit_creation_date 2019-02-25
_audit_creation_method CSD-ConQuest-V1
_database_code_CSD WODGAA
_database_code_depnum_ccdc_archive 'CCDC 1884109'
_chemical_formula_sum 'C14 H20 In2 N2 O20'
_chemical_formula_moiety
;
(C8 In2 O16 2-)n,2n(C3 H8 N1 O1 1+),2n(H2 O1)
;
_journal_coden_Cambridge 179
_journal_volume 58
_journal_year 2019
_journal_page_first 2889
_journal_name_full 'Angew.Chem.,Int.Ed. '
loop_
_publ_author_name
"Fei-Yan Yi"
"Huajun Yang"
"Xiang Zhao"
"Pingyun Feng"
"Xianhui Bu"
_chemical_name_systematic
;
catena-(bis(dimethyl(formyl)ammonium) tetrakis(\m-oxalato)-di-indium 
dihydrate)
;
_chemical_name_common
;
CPM-522-DIA-1
;
_cell_volume   1170.062
_exptl_crystal_colour 'colorless'
_exptl_crystal_description 'tetrahedron'
_diffrn_ambient_temperature 296
#These two values have been output from a single CSD field.
_refine_ls_R_factor_gt 0.0675
_refine_ls_wR_factor_gt 0.0675
_symmetry_cell_setting monoclinic
_symmetry_space_group_name_H-M 'P 21/c'
_symmetry_Int_Tables_number 14
loop_
_symmetry_equiv_pos_site_id
_symmetry_equiv_pos_as_xyz
1 x,y,z
2 -x,1/2+y,1/2-z
3 -x,-y,-z
4 x,-1/2-y,-1/2+z
_cell_length_a 8.6289(14)
_cell_length_b 16.242(3)
_cell_length_c 8.4811(14)
_cell_angle_alpha 90
_cell_angle_beta 100.141(3)
_cell_angle_gamma 90
_cell_formula_units_Z 2
loop_
_atom_type_symbol
_atom_type_radius_bond
C 0.68
In 1.42
N 0.68
O 0.68
loop_
_atom_site_label
_atom_site_type_symbol
_atom_site_fract_x
_atom_site_fract_y
_atom_site_fract_z
In1 In 0.24229(8) 0.62236(4) 0.47959(8)
C1 C 0.1642(13) 0.7332(6) 0.7451(13)
C2 C 0.3110(13) 0.7759(7) 0.7022(13)
C3 C 0.5457(14) 0.5249(7) 0.5727(12)
C4 C -0.0460(12) 0.5180(6) 0.4224(12)
O1 O 0.1168(11) 0.6695(5) 0.6683(10)
O2 O 0.1040(9) 0.7661(5) 0.8508(10)
O3 O 0.3721(10) 0.7450(5) 0.5925(10)
O4 O 0.3567(10) 0.8397(5) 0.7809(9)
O5 O 0.4764(9) 0.5888(5) 0.6125(9)
O6 O 0.6731(10) 0.5007(5) 0.6405(9)
O7 O 0.0178(9) 0.5749(4) 0.3562(8)
O8 O -0.1798(9) 0.4888(5) 0.3715(9)
C5 C 0.596(3) 0.6527(17) 0.929(3)
C6 C 0.889(4) 0.6113(19) 0.887(4)
C7 C 0.743(4) 0.773(3) 0.938(7)
O9 O 1.030(4) 0.5475(16) 0.972(4)
N1 N 0.789(3) 0.6699(19) 0.978(3)
O10 O 0.50000 0.50000 1.00000
C8? C 0.665(5) 0.570(2) 1.021(5)
C9? C 0.705(4) 0.719(3) 0.893(5)
C3B C 0.4543(14) 0.4751(7) 0.4273(12)
O5B O 0.5236(9) 0.4112(5) 0.3875(9)
O6B O 0.3269(10) 0.4993(5) 0.3595(9)
C4B C 0.0460(12) 0.4820(6) 0.5776(12)
O7B O -0.0178(9) 0.4251(4) 0.6438(8)
O8B O 0.1798(9) 0.5112(5) 0.6285(9)
In1B In -0.24229(8) 0.37764(4) 0.52041(8)
C1B C -0.1642(13) 0.2668(6) 0.2549(13)
C2B C -0.3110(13) 0.2241(7) 0.2978(13)
O1B O -0.1168(11) 0.3305(5) 0.3317(10)
O2B O -0.1040(9) 0.2339(5) 0.1492(10)
O3B O -0.3721(10) 0.2550(5) 0.4075(10)
O4B O -0.3567(10) 0.1603(5) 0.2191(9)
In1A In -0.24229(8) 0.12236(4) 0.02041(8)
In1B* In 0.75771(8) 0.37764(4) 0.52041(8)
In1C In 0.24229(8) 0.87764(4) 0.97959(8)
O2A O -0.1040(9) 0.2661(5) 0.6492(10)
O2C O 0.1040(9) 0.7339(5) 0.3508(10)
O4A O -0.3567(10) 0.3397(5) 0.7191(9)
O4C O 0.3567(10) 0.6603(5) 0.2809(9)
O5B* O -0.4764(9) 0.4112(5) 0.3875(9)
O6* O -0.3269(10) 0.5007(5) 0.6405(9)
#END
