
#######################################################################
#
#                 Cambridge Crystallographic Data Centre
#                                CCDC
#
#######################################################################
#
# If this CIF has been generated from an entry in the Cambridge
# Structural Database, then it will include bibliographic, chemical,
# crystal, experimental, refinement or atomic coordinate data resulting
# from the CCDC's data processing and validation procedures.
#
#######################################################################

data_CSD_CIF_WODVOB
_audit_creation_date 2008-12-09
_audit_creation_method CSD-ConQuest-V1
_database_code_CSD WODVOB
_database_code_depnum_ccdc_archive 'CCDC 675137'
_chemical_formula_sum 'C60 H78 Cd2 N12 O28'
_chemical_formula_moiety
;
(C60 H66 Cd2 N12 O24 4-)n,4n(H3 O1 1+)
;
_journal_coden_Cambridge 1147
_journal_volume 8
_journal_year 2008
_journal_page_first 1801
_journal_name_full 'Cryst.Growth Des. '
loop_
_publ_author_name
"Yun-Zhi Tang"
"Yu-Hui Tan"
"Jian-Wu Zhu"
"Fa-Ming Ji"
"Ting-Ting Xiong"
"Wen-Zhong Xiao"
"Chun-Fa Liao"
_chemical_name_systematic
;
catena-(Dioxonium 
bis(\m~4~-3,3'-azobis(6-hydroxybenzoato-O,O',O'',O'''))-(\m~2~-3,3'-azobis(6-h
ydroxybenzoato-O,O'))-hexakis(dimethylformamide)-di-cadmium(ii))
;
_cell_volume   3825.913
_exptl_crystal_colour 'colorless'
_exptl_crystal_density_diffrn 1.418
_exptl_crystal_description 'block'
_diffrn_ambient_temperature 296
_refine_special_details
;
The cations are disordered by symmetry.

;
#These two values have been output from a single CSD field.
_refine_ls_R_factor_gt 0.0435
_refine_ls_wR_factor_gt 0.0435
_symmetry_cell_setting monoclinic
_symmetry_space_group_name_H-M 'C 2/m'
_symmetry_Int_Tables_number 12
loop_
_symmetry_equiv_pos_site_id
_symmetry_equiv_pos_as_xyz
1 x,y,z
2 1/2+x,1/2+y,z
3 -x,y,-z
4 1/2-x,1/2+y,-z
5 -x,-y,-z
6 -1/2-x,-1/2-y,-z
7 x,-y,z
8 -1/2+x,-1/2-y,z
_cell_length_a 24.361(5)
_cell_length_b 15.388(4)
_cell_length_c 11.609(3)
_cell_angle_alpha 90
_cell_angle_beta 118.460(17)
_cell_angle_gamma 90
_cell_formula_units_Z 2
loop_
_atom_type_symbol
_atom_type_radius_bond
C 0.68
H 0.23
Cd 1.69
N 0.68
O 0.68
loop_
_atom_site_label
_atom_site_type_symbol
_atom_site_fract_x
_atom_site_fract_y
_atom_site_fract_z
Cd1 Cd 0.09199(2) 0.00000 0.69655(5)
O1 O 0.1341(4) -0.1401(5) 0.8026(8)
O2 O 0.0084(3) 0.0929(4) 0.6665(7)
O3 O 0.0998(5) 0.00000 0.9095(9)
O4 O 0.1961(3) 0.00000 0.7291(9)
N1 N 0.4756(5) 0.00000 1.0099(13)
C1 C 0.2970(6) 0.00000 0.6837(13)
C2 C -0.1374(5) 0.2754(8) 0.754(1)
H1 H -0.15790 0.30870 0.78860
O5 O 0.0169(3) 0.1943(6) 0.8575(9)
H2 H 0.03160 0.16250 0.82260
C3 C -0.0459(4) 0.2042(8) 0.7761(10)
O6 O 0.2605(5) 0.00000 0.9472(12)
C4 C 0.3481(7) 0.00000 0.6580(16)
H3 H 0.34220 0.00000 0.57260
C5 C 0.4169(5) 0.00000 0.8920(15)
C6 C 0.4070(6) 0.00000 0.7637(18)
H4 H 0.44140 0.00000 0.74910
C7 C -0.1721(4) 0.2414(6) 0.6265(10)
C8 C 0.2520(5) 0.00000 0.8369(13)
C9 C 0.3665(5) 0.00000 0.9149(12)
H5 H 0.37270 0.00000 1.00040
N2 N -0.2365(4) 0.2617(6) 0.5591(9)
C10 C -0.0795(3) 0.1709(5) 0.6505(8)
C11 C -0.1418(4) 0.1889(5) 0.5779(8)
H6 H -0.16410 0.16550 0.49430
C12 C -0.0488(3) 0.1139(4) 0.5920(8)
C13 C 0.3053(5) 0.00000 0.8091(14)
C14 C -0.0755(6) 0.2616(9) 0.8278(12)
H7 H -0.05280 0.28820 0.90890
O7 O 0.2380(5) 0.00000 0.5774(12)
H8 H 0.21190 0.00000 0.60300
O8 O -0.0803(3) 0.0912(4) 0.4771(6)
N3 N 0.1416(7) 0.00000 1.1289(13)
C15 C 0.1477(7) 0.00000 1.0242(14)
H9 H 0.18750 0.00000 1.03200
C16 C 0.0781(10) 0.00000 1.117(2)
H10 H 0.04740 0.00000 1.02580
H11 H 0.07290 0.05090 1.15830
H12 H 0.07290 -0.05090 1.15830
C17 C 0.1982(15) 0.00000 1.252(2)
H13 H 0.23360 0.00000 1.23710
H14 H 0.19940 -0.05090 1.30140
H15 H 0.19940 0.05090 1.30140
C18 C 0.1665(6) -0.1948(7) 0.7814(15)
H16 H 0.18550 -0.17750 0.73210
N4 N 0.1753(7) -0.2770(8) 0.8259(17)
C19 C 0.142(2) -0.311(2) 0.888(6)
H17 H 0.11880 -0.26510 0.90240
H18 H 0.17030 -0.33630 0.97110
H19 H 0.11290 -0.35490 0.83360
C20 C 0.2166(10) -0.3297(11) 0.803(2)
H20 H 0.22340 -0.30400 0.73520
H21 H 0.19870 -0.38650 0.77550
H22 H 0.25570 -0.33450 0.88180
O9 O 0.032(2) -0.356(3) 0.515(6)
H23 H 0.038(2) -0.385(3) 0.571(5)
H24 H 0.00000 -0.306(5) 0.50000
Cd1E Cd -0.59199(2) 0.50000 0.30345(5)
Cd1D Cd -0.09199(2) 0.00000 0.30345(5)
Cd1A Cd -0.40801(2) 0.50000 0.69655(5)
Cd1D* Cd 0.90801(2) 0.00000 1.30345(5)
Cd1E* Cd -0.59199(2) -0.50000 0.30345(5)
Cd1A* Cd -0.40801(2) -0.50000 0.69655(5)
O1F O 0.1341(4) 0.1401(5) 0.8026(8)
O1E O -0.6341(4) 0.6401(5) 0.1974(8)
O1C O -0.6341(4) 0.3599(5) 0.1974(8)
O2E O -0.5084(3) 0.4071(4) 0.3335(7)
O2F O 0.0084(3) -0.0929(4) 0.6665(7)
O2C O -0.5084(3) -0.4071(4) 0.3335(7)
O2C* O -0.5084(3) 0.5929(4) 0.3335(7)
O3E O -0.5998(5) 0.50000 0.0905(9)
O4D O 0.8039(3) 0.00000 1.2709(9)
O4E O -0.6961(3) 0.50000 0.2709(9)
N1D N 0.5244(5) 0.00000 0.9901(13)
C1D C 0.7030(6) 0.00000 1.3163(13)
C2E C -0.3626(5) 0.2246(8) 0.246(1)
C2F C -0.1374(5) -0.2754(8) 0.754(1)
C2C C -0.3626(5) -0.2246(8) 0.246(1)
H1E H -0.34210 0.19130 0.21140
H1F H -0.15790 -0.30870 0.78860
H1C H -0.34210 -0.19130 0.21140
O5E O -0.5169(3) 0.3057(6) 0.1425(9)
O5F O 0.0169(3) -0.1943(6) 0.8575(9)
O5C O -0.5169(3) -0.3057(6) 0.1425(9)
H2E H -0.53160 0.33750 0.17740
H2F H 0.03160 -0.16250 0.82260
H2C H -0.53160 -0.33750 0.17740
C3E C -0.4541(4) 0.2958(8) 0.2239(10)
C3F C -0.0459(4) -0.2042(8) 0.7761(10)
C3C C -0.4541(4) -0.2958(8) 0.2239(10)
O6D O 0.7395(5) 0.00000 1.0528(12)
C4D C 0.6519(7) 0.00000 1.3420(16)
H3D H 0.65780 0.00000 1.42740
C5D C 0.5831(5) 0.00000 1.1080(15)
C6D C 0.5930(6) 0.00000 1.2363(18)
H4D H 0.55860 0.00000 1.25090
C7E C -0.3279(4) 0.2586(6) 0.3735(10)
C7F C -0.1721(4) -0.2414(6) 0.6265(10)
C7C C -0.3279(4) -0.2586(6) 0.3735(10)
C8D C 0.7480(5) 0.00000 1.1631(13)
C9D C 0.6335(5) 0.00000 1.0851(12)
H5D H 0.62730 0.00000 0.99960
N2E N -0.2635(4) 0.2383(6) 0.4409(9)
N2F N -0.2365(4) -0.2617(6) 0.5591(9)
N2C N -0.2635(4) -0.2383(6) 0.4409(9)
C10E C -0.4205(3) 0.3291(5) 0.3495(8)
C10F C -0.0795(3) -0.1709(5) 0.6505(8)
C10C C -0.4205(3) -0.3291(5) 0.3495(8)
C11E C -0.3582(4) 0.3111(5) 0.4221(8)
C11F C -0.1418(4) -0.1889(5) 0.5779(8)
C11C C -0.3582(4) -0.3111(5) 0.4221(8)
H6E H -0.33590 0.33450 0.50570
H6F H -0.16410 -0.16550 0.49430
H6C H -0.33590 -0.33450 0.50570
C12E C -0.4512(3) 0.3861(4) 0.4080(8)
C12F C -0.0488(3) -0.1139(4) 0.5920(8)
C12C C -0.4512(3) -0.3861(4) 0.4080(8)
C13D C 0.6947(5) 0.00000 1.1909(14)
C14E C -0.4245(6) 0.2384(9) 0.1722(12)
C14F C -0.0755(6) -0.2616(9) 0.8278(12)
C14C C -0.4245(6) -0.2384(9) 0.1722(12)
H7E H -0.44720 0.21180 0.09110
H7F H -0.05280 -0.28820 0.90890
H7C H -0.44720 -0.21180 0.09110
O7D O 0.7620(5) 0.00000 1.4226(12)
H8D H 0.78810 0.00000 1.39700
O8E O -0.4197(3) 0.4088(4) 0.5229(6)
O8F O -0.0803(3) -0.0912(4) 0.4771(6)
O8C O -0.4197(3) -0.4088(4) 0.5229(6)
O8D O 0.0803(3) -0.0912(4) 0.5229(6)
O8B O 0.0803(3) 0.0912(4) 0.5229(6)
O8A O -0.5803(3) 0.5912(4) 0.4771(6)
O8G O -0.5803(3) 0.4088(4) 0.4771(6)
N3E N -0.6416(7) 0.50000 -0.1289(13)
C15E C -0.6477(7) 0.50000 -0.0242(14)
H9E H -0.68750 0.50000 -0.03200
C16E C -0.5781(10) 0.50000 -0.117(2)
H10E H -0.54740 0.50000 -0.02580
H11E H -0.57290 0.44910 -0.15830
H12E H -0.57290 0.55090 -0.15830
C17E C -0.6982(15) 0.50000 -0.252(2)
H13E H -0.73360 0.50000 -0.23710
H14E H -0.69940 0.55090 -0.30140
H15E H -0.69940 0.44910 -0.30140
C18F C 0.1665(6) 0.1948(7) 0.7814(15)
C18E C -0.6665(6) 0.6948(7) 0.2186(15)
C18C C -0.6665(6) 0.3052(7) 0.2186(15)
H16F H 0.18550 0.17750 0.73210
H16E H -0.68550 0.67750 0.26790
H16C H -0.68550 0.32250 0.26790
N4F N 0.1753(7) 0.2770(8) 0.8259(17)
N4E N -0.6753(7) 0.7770(8) 0.1741(17)
N4C N -0.6753(7) 0.2230(8) 0.1741(17)
C19F C 0.142(2) 0.311(2) 0.888(6)
C19E C -0.642(2) 0.811(2) 0.112(6)
C19C C -0.642(2) 0.189(2) 0.112(6)
H17F H 0.11880 0.26510 0.90240
H17E H -0.61880 0.76510 0.09760
H17C H -0.61880 0.23490 0.09760
H18F H 0.17030 0.33630 0.97110
H18E H -0.67030 0.83630 0.02890
H18C H -0.67030 0.16370 0.02890
H19F H 0.11290 0.35490 0.83360
H19E H -0.61290 0.85490 0.16640
H19C H -0.61290 0.14510 0.16640
C20F C 0.2166(10) 0.3297(11) 0.803(2)
C20E C -0.7166(10) 0.8297(11) 0.197(2)
C20C C -0.7166(10) 0.1703(11) 0.197(2)
H20F H 0.22340 0.30400 0.73520
H20E H -0.72340 0.80400 0.26480
H20C H -0.72340 0.19600 0.26480
H21F H 0.19870 0.38650 0.77550
H21E H -0.69870 0.88650 0.22450
H21C H -0.69870 0.11350 0.22450
H22F H 0.25570 0.33450 0.88180
H22E H -0.75570 0.83450 0.11820
H22C H -0.75570 0.16550 0.11820
O9B O -0.032(2) -0.356(3) 0.485(6)
H23B H -0.038(2) -0.385(3) 0.429(5)
#END
