
#######################################################################
#
#                 Cambridge Crystallographic Data Centre
#                                CCDC
#
#######################################################################
#
# If this CIF has been generated from an entry in the Cambridge
# Structural Database, then it will include bibliographic, chemical,
# crystal, experimental, refinement or atomic coordinate data resulting
# from the CCDC's data processing and validation procedures.
#
#######################################################################

data_CSD_CIF_WODZEX
_audit_creation_date 2019-02-25
_audit_creation_method CSD-ConQuest-V1
_database_code_CSD WODZEX
_database_code_depnum_ccdc_archive 'CCDC 1874397'
_chemical_formula_sum 'C42 H72 Fe4 N10 O30'
_chemical_formula_moiety
;
(C36 H38 Fe4 N6 O22 2-)n,2(H4 N1 1+),2(C3 H7 N1 O1),6(H2 O1)
;
_journal_coden_Cambridge 440
_journal_volume 43
_journal_year 2019
_journal_page_first 4338
_journal_name_full 'New J.Chem. '
loop_
_publ_author_name
"S.Kumar"
"A.Arora"
"J.Kaushal"
"P.Oswal"
"A.Kumar"
"K.Tomar"
_chemical_name_systematic
;
catena-[diammonium 
bis(\m-benzene-1,2,4,5-tetracarboxylato)-bis(\m-hydroxo)-(\m-3,3',5,5'-tetrame
thyl-1H,1'H-4,4'-bipyrazole)-bis(N,N-dimethylformamide)-diaqua-tetra-iron(ii) 
N,N-dimethylformamide solvate hexahydrate]
;
_cell_volume   6772.193
_exptl_crystal_colour 'brown'
_exptl_crystal_description 'block'
_diffrn_ambient_temperature 100
_refine_special_details
;
Disordered ammonium cation, N,N-dimethylformamide and water  solvent 
molecules were not modelled and the disordered density was taken into account 
using the MASK/OLEX2 program.
;
#These two values have been output from a single CSD field.
_refine_ls_R_factor_gt 0.0694
_refine_ls_wR_factor_gt 0.0694
_symmetry_cell_setting monoclinic
_symmetry_space_group_name_H-M 'C 2/c'
_symmetry_Int_Tables_number 15
loop_
_symmetry_equiv_pos_site_id
_symmetry_equiv_pos_as_xyz
1 x,y,z
2 -x,y,1/2-z
3 1/2+x,1/2+y,z
4 1/2-x,1/2+y,1/2-z
5 -x,-y,-z
6 x,-y,-1/2+z
7 -1/2-x,-1/2-y,-z
8 -1/2+x,-1/2-y,-1/2+z
_cell_length_a 29.03(2)
_cell_length_b 18.120(11)
_cell_length_c 14.06(1)
_cell_angle_alpha 90
_cell_angle_beta 113.699(14)
_cell_angle_gamma 90
_cell_formula_units_Z 4
loop_
_atom_type_symbol
_atom_type_radius_bond
C 0.68
H 0.23
Fe 1.52
N 0.68
O 0.68
loop_
_atom_site_label
_atom_site_type_symbol
_atom_site_fract_x
_atom_site_fract_y
_atom_site_fract_z
Fe1 Fe 0.18033(3) 0.46021(4) 0.35492(7)
Fe2 Fe 0.26347(3) 0.50326(4) 0.25507(7)
O1 O 0.26595(17) 0.5943(2) 0.3468(4)
O2 O 0.20929(15) 0.5641(2) 0.4124(3)
C1 C 0.2461(2) 0.6800(3) 0.4532(5)
C2 C 0.2603(2) 0.7413(3) 0.4122(5)
H1 H 0.26782 0.73550 0.35421
C3 C 0.2414(2) 0.6071(3) 0.4022(5)
C4 C 0.2363(2) 0.6875(3) 0.5434(4)
O3 O 0.17992(16) 0.4931(2) 0.2027(3)
O4 O 0.19708(18) 0.5670(2) 0.0103(4)
O5 O 0.34359(16) 0.4895(2) 0.3242(4)
H2 H 0.35541 0.48956 0.27734
H3 H 0.35048 0.44818 0.35643
O6 O 0.25670(15) 0.5723(2) -0.1277(3)
O7 O 0.32590(18) 0.6382(2) -0.0980(5)
C5 C 0.2848(2) 0.6301(3) -0.0899(5)
O8 O 0.17767(16) 0.6162(2) 0.5825(4)
O9 O 0.25946(16) 0.5864(2) 0.6587(3)
C6 C 0.2233(2) 0.6240(3) 0.5986(5)
N1 N 0.1053(2) 0.5613(3) 0.3949(4)
H4 H 0.13068 0.57749 0.44754
N2 N 0.1081(2) 0.5090(3) 0.3274(5)
C7 C 0.0270(2) 0.5458(4) 0.2760(6)
C8 C 0.0573(2) 0.5844(4) 0.3683(6)
C9 C 0.0607(3) 0.4992(4) 0.2545(6)
C10 C 0.0484(3) 0.4485(5) 0.1641(7)
H5 H 0.07824 0.43915 0.15224
H6 H 0.02341 0.47090 0.10345
H7 H 0.03572 0.40282 0.17841
C11 C 0.0440(3) 0.6447(5) 0.4214(7)
H8 H 0.05616 0.63383 0.49420
H9 H 0.00810 0.65018 0.39323
H10 H 0.05903 0.68964 0.41157
O10 O 0.15257(18) 0.3567(2) 0.2959(4)
N3 N 0.1296(3) 0.2368(3) 0.2757(6)
C12 C 0.1400(3) 0.3029(4) 0.3244(7)
H11 H 0.13669 0.30579 0.38747
C13 C 0.1157(5) 0.1741(6) 0.3216(12)
H12 H 0.13118 0.13040 0.30910
H13 H 0.07984 0.16839 0.29121
H14 H 0.12699 0.18167 0.39508
C14 C 0.1357(4) 0.2245(7) 0.1826(9)
H15 H 0.10391 0.21139 0.12858
H16 H 0.15927 0.18502 0.19240
H17 H 0.14815 0.26857 0.16326
O11 O 0.26817(18) 0.5815(2) 0.1503(4)
C15 C 0.2438(2) 0.6774(3) 0.0284(5)
C16 C 0.2649(2) 0.6901(3) -0.0455(5)
C17 C 0.2361(3) 0.6018(3) 0.0641(5)
C18 C 0.2286(2) 0.7361(3) 0.0684(5)
H18 H 0.21296 0.72702 0.11342
H19 H 0.1561(16) 0.525(3) 0.165(4)
O1F O 0.23405(17) 0.9057(2) 0.6532(4)
O2F O 0.29071(15) 0.9359(2) 0.5876(3)
C1F C 0.2539(2) 0.8200(3) 0.5468(5)
C2F C 0.2397(2) 0.7587(3) 0.5878(5)
H1F H 0.23218 0.76450 0.64579
C3F C 0.2586(2) 0.8929(3) 0.5978(5)
C4F C 0.2637(2) 0.8125(3) 0.4566(4)
O8F O 0.32233(16) 0.8838(2) 0.4175(4)
O9F O 0.24054(16) 0.9136(2) 0.3413(3)
C6F C 0.2767(2) 0.8760(3) 0.4014(5)
N1A N -0.1053(2) 0.5613(3) 0.1051(4)
H4A H -0.13068 0.57749 0.05246
N2A N -0.1081(2) 0.5090(3) 0.1726(5)
C7A C -0.0270(2) 0.5458(4) 0.2240(6)
C8A C -0.0573(2) 0.5844(4) 0.1317(6)
C9A C -0.0607(3) 0.4992(4) 0.2455(6)
C10A C -0.0484(3) 0.4485(5) 0.3359(7)
H5A H -0.07824 0.43915 0.34776
H6A H -0.02341 0.47090 0.39655
H7A H -0.03572 0.40282 0.32159
C11A C -0.0440(3) 0.6447(5) 0.0786(7)
H8A H -0.05616 0.63383 0.00580
H9A H -0.00810 0.65018 0.10677
H10A H -0.05903 0.68964 0.08843
O11F O 0.23183(18) 0.9185(2) -0.1503(4)
C15F C 0.2562(2) 0.8226(3) -0.0284(5)
C16F C 0.2351(2) 0.8099(3) 0.0455(5)
C17F C 0.2639(3) 0.8982(3) -0.0641(5)
C18F C 0.2714(2) 0.7639(3) -0.0684(5)
H18F H 0.28704 0.77298 -0.11342
O6F O 0.24330(15) 0.9277(2) 0.1277(3)
O7F O 0.17410(18) 0.8618(2) 0.0980(5)
C5F C 0.2152(2) 0.8699(3) 0.0899(5)
O4F O 0.30292(18) 0.9330(2) -0.0103(4)
Fe1A Fe -0.18033(3) 0.46021(4) 0.14508(7)
Fe2A Fe -0.26347(3) 0.50326(4) 0.24493(7)
O3A O -0.17992(16) 0.4931(2) 0.2973(3)
O5A O -0.34359(16) 0.4895(2) 0.1758(4)
H2A H -0.35541 0.48956 0.22266
H3A H -0.35048 0.44818 0.14357
O10A O -0.15257(18) 0.3567(2) 0.2041(4)
N3A N -0.1296(3) 0.2368(3) 0.2243(6)
C12A C -0.1400(3) 0.3029(4) 0.1756(7)
H11A H -0.13669 0.30579 0.11253
C13A C -0.1157(5) 0.1741(6) 0.1784(12)
H12A H -0.13118 0.13040 0.19090
H13A H -0.07984 0.16839 0.20879
H14A H -0.12699 0.18167 0.10492
C14A C -0.1357(4) 0.2245(7) 0.3174(9)
H15A H -0.10391 0.21139 0.37142
H16A H -0.15927 0.18502 0.30760
H17A H -0.14815 0.26857 0.33674
H19A H -0.1561(16) 0.525(3) 0.335(4)
Fe1C Fe 0.31967(3) 0.96021(4) 0.14508(7)
Fe1E Fe 0.18033(3) 0.53979(4) -0.14508(7)
Fe1F Fe 0.31967(3) 1.03979(4) 0.64508(7)
Fe2C Fe 0.23653(3) 1.00326(4) 0.24493(7)
Fe2E Fe 0.26347(3) 0.49674(4) -0.24493(7)
Fe2E* Fe 0.26347(3) 0.49674(4) 0.75507(7)
Fe2F Fe 0.23653(3) 0.99674(4) -0.25507(7)
Fe2F* Fe 0.23653(3) 0.99674(4) 0.74493(7)
O1A O -0.26595(17) 0.5943(2) 0.1532(4)
O2A O -0.20929(15) 0.5641(2) 0.0876(3)
O4D O -0.19708(18) 0.4330(2) -0.0103(4)
O4E O 0.19708(18) 0.4330(2) 0.5103(4)
O6D O -0.25670(15) 0.4277(2) 0.1277(3)
O6E O 0.25670(15) 0.4277(2) 0.3723(3)
O9D O -0.25946(16) 0.4136(2) 0.3413(3)
O9E O 0.25946(16) 0.4136(2) 0.1587(3)
O11A O -0.26817(18) 0.5815(2) 0.3497(4)
#END
