
#######################################################################
#
#                 Cambridge Crystallographic Data Centre
#                                CCDC
#
#######################################################################
#
# If this CIF has been generated from an entry in the Cambridge
# Structural Database, then it will include bibliographic, chemical,
# crystal, experimental, refinement or atomic coordinate data resulting
# from the CCDC's data processing and validation procedures.
#
#######################################################################

data_CSD_CIF_WOHPUG
_audit_creation_date 2014-07-31
_audit_creation_method CSD-ConQuest-V1
_database_code_CSD WOHPUG
_database_code_depnum_ccdc_archive 'CCDC 997617'
_chemical_formula_sum 'C18 H27 Cu3 Mn1.5 N3 O15 S3'
_chemical_formula_moiety
;
(C18 H15 Cu3 Mn1 N3 O9 S3 1-)n,0.5(H12 Mn1 O6 2+),3(H2 O1)
;
_journal_coden_Cambridge 1147
_journal_volume 14
_journal_year 2014
_journal_page_first 4531
_journal_name_full 'Cryst.Growth Des. '
loop_
_publ_author_name
"T.Kundu"
"A.K.Jana"
"S.Natarajan"
_chemical_name_systematic
;
catena-[hexa-aqua-manganese 
tris(\m-\m-2-sulfidopyridine-3-carboxylato)-triaqua-tri-copper-manganese 
trihydrate]
;
_cell_volume   4536.280
_exptl_crystal_colour 'pale yellow'
_exptl_crystal_density_diffrn 1.965
_exptl_crystal_description 'block'
_diffrn_ambient_temperature 120
#These two values have been output from a single CSD field.
_refine_ls_R_factor_gt 0.037
_refine_ls_wR_factor_gt 0.037
_symmetry_cell_setting rhombohedral
_symmetry_space_group_name_H-M 'R -3'
_symmetry_Int_Tables_number 148
loop_
_symmetry_equiv_pos_site_id
_symmetry_equiv_pos_as_xyz
1 x,y,z
2 -y,x-y,z
3 -x+y,-x,z
4 2/3+x,1/3+y,1/3+z
5 2/3-y,1/3+x-y,1/3+z
6 2/3-x+y,1/3-x,1/3+z
7 1/3+x,2/3+y,2/3+z
8 1/3-y,2/3+x-y,2/3+z
9 1/3-x+y,2/3-x,2/3+z
10 -x,-y,-z
11 y,-x+y,-z
12 x-y,x,-z
13 -2/3-x,-1/3-y,-1/3-z
14 -2/3+y,-1/3-x+y,-1/3-z
15 -2/3+x-y,-1/3+x,-1/3-z
16 -1/3-x,-2/3-y,-2/3-z
17 -1/3+y,-2/3-x+y,-2/3-z
18 -1/3+x-y,-2/3+x,-2/3-z
_cell_length_a 12.4305(4)
_cell_length_b 12.4305(4)
_cell_length_c 33.8994(17)
_cell_angle_alpha 90
_cell_angle_beta 90
_cell_angle_gamma 120
_cell_formula_units_Z 6
loop_
_atom_type_symbol
_atom_type_radius_bond
C 0.68
H 0.23
Cu 1.32
Mn 1.61
N 0.68
O 0.68
S 1.02
loop_
_atom_site_label
_atom_site_type_symbol
_atom_site_fract_x
_atom_site_fract_y
_atom_site_fract_z
Cu1 Cu 0.04589(4) 0.87486(4) 0.031311(12)
Mn1 Mn -0.33330 0.33330 0.15020(2)
S1 S -0.14099(7) 0.80687(7) 0.05803(2)
O1 O -0.2658(2) 0.5012(2) 0.11491(6)
O2 O -0.3598(2) 0.6151(2) 0.11817(6)
O3 O -0.4288(3) 0.4008(3) 0.18829(8)
N1 N -0.2455(2) 0.6678(2) -0.00557(8)
C1 C -0.2458(3) 0.6662(3) 0.03410(9)
C2 C -0.3217(3) 0.5584(3) 0.05528(10)
C3 C -0.3998(3) 0.4503(3) 0.03458(11)
H1 H -0.45120 0.37710 0.04810
C4 C -0.4004(3) 0.4528(3) -0.00632(10)
H2 H -0.45230 0.38170 -0.02070
C5 C -0.3227(3) 0.5625(3) -0.02486(10)
H3 H -0.32320 0.56430 -0.05230
C6 C -0.3169(3) 0.5586(3) 0.09982(10)
H4 H -0.464(4) 0.365(4) 0.2046(12)
H5 H -0.401(4) 0.473(4) 0.1955(11)
Mn2 Mn 0.33330 0.66670 0.16670
O4 O 0.4339(2) 0.8320(2) 0.12938(8)
H6 H 0.409(4) 0.877(4) 0.1212(13)
H7 H 0.514(4) 0.880(4) 0.1321(12)
O5 O -0.3288(2) 0.6544(2) 0.19613(9)
H8 H -0.264(4) 0.707(4) 0.2028(12)
H9 H -0.325(3) 0.658(3) 0.1709(12)
Cu1A Cu -0.87486(4) 0.17103(4) 0.031311(12)
S1A S -0.80687(7) 0.05214(7) 0.05803(2)
O1A O -0.5012(2) 0.2330(2) 0.11491(6)
O2A O -0.6151(2) 0.0251(2) 0.11817(6)
O3A O -0.4008(3) 0.1704(3) 0.18829(8)
N1A N -0.6678(2) 0.0867(2) -0.00557(8)
C1A C -0.6662(3) 0.0880(3) 0.03410(9)
C2A C -0.5584(3) 0.1199(3) 0.05528(10)
C3A C -0.4503(3) 0.1499(3) 0.03458(11)
H1A H -0.37710 0.17170 0.04810
C4A C -0.4528(3) 0.1468(3) -0.00632(10)
H2A H -0.38170 0.16600 -0.02070
C5A C -0.5625(3) 0.1148(3) -0.02486(10)
H3A H -0.56430 0.11250 -0.05230
C6A C -0.5586(3) 0.1245(3) 0.09982(10)
H4A H -0.365(4) 0.171(4) 0.2046(12)
H5A H -0.473(4) 0.126(4) 0.1955(11)
Cu1B Cu -0.17103(4) -0.04589(4) 0.031311(12)
S1B S -0.05214(7) 0.14099(7) 0.05803(2)
O1B O -0.2330(2) 0.2658(2) 0.11491(6)
O2B O -0.0251(2) 0.3598(2) 0.11817(6)
O3B O -0.1704(3) 0.4288(3) 0.18829(8)
N1B N -0.0867(2) 0.2455(2) -0.00557(8)
C1B C -0.0880(3) 0.2458(3) 0.03410(9)
C2B C -0.1199(3) 0.3217(3) 0.05528(10)
C3B C -0.1499(3) 0.3998(3) 0.03458(11)
H1B H -0.17170 0.45120 0.04810
C4B C -0.1468(3) 0.4004(3) -0.00632(10)
H2B H -0.16600 0.45230 -0.02070
C5B C -0.1148(3) 0.3227(3) -0.02486(10)
H3B H -0.11250 0.32320 -0.05230
C6B C -0.1245(3) 0.3169(3) 0.09982(10)
H4B H -0.171(4) 0.464(4) 0.2046(12)
H5B H -0.126(4) 0.401(4) 0.1955(11)
Cu1* Cu -0.95411(4) -0.12514(4) 0.031311(12)
Cu1A* Cu 0.12514(4) 0.17103(4) 0.031311(12)
Cu1B* Cu -0.17103(4) 0.95411(4) 0.031311(12)
Cu1I Cu -1.04589(4) 0.12514(4) -0.031311(12)
Cu1I* Cu -0.04589(4) 0.12514(4) -0.031311(12)
Cu1J Cu -0.12514(4) -0.17103(4) -0.031311(12)
Cu1J* Cu -0.12514(4) 0.82897(4) -0.031311(12)
Cu1K Cu -0.82897(4) 0.04589(4) -0.031311(12)
Cu1K* Cu 0.17103(4) 1.04589(4) -0.031311(12)
S1* S -0.14099(7) -0.19313(7) 0.05803(2)
S1A* S 0.19313(7) 1.05214(7) 0.05803(2)
S1B* S -1.05214(7) 0.14099(7) 0.05803(2)
N1I N -0.7545(2) 0.3322(2) 0.00557(8)
N1J N -0.3322(2) -0.0867(2) 0.00557(8)
N1K N 0.0867(2) 0.7545(2) 0.00557(8)
O4A O 0.1680(2) 0.6019(2) 0.12938(8)
H6A H 0.123(4) 0.532(4) 0.1212(13)
H7A H 0.120(4) 0.634(4) 0.1321(12)
O4B O 0.3981(2) 0.5661(2) 0.12938(8)
H6B H 0.468(4) 0.591(4) 0.1212(13)
H7B H 0.366(4) 0.486(4) 0.1321(12)
O4O O 0.232767(200) 0.501333(200) 0.203953(80)
H6O H 0.257667(4000) 0.456333(4000) 0.212133(1300)
H7O H 0.152667(4000) 0.453333(4000) 0.201233(1200)
O4P O 0.498667(200) 0.731433(200) 0.203953(80)
H6P H 0.543667(4000) 0.801333(4000) 0.212133(1300)
H7P H 0.546667(4000) 0.699333(4000) 0.201233(1200)
O4Q O 0.268567(200) 0.767233(200) 0.203953(80)
H6Q H 0.198667(4000) 0.742333(4000) 0.212133(1300)
H7Q H 0.300667(4000) 0.847333(4000) 0.201233(1200)
#END
