
#######################################################################
#
#                 Cambridge Crystallographic Data Centre
#                                CCDC
#
#######################################################################
#
# If this CIF has been generated from an entry in the Cambridge
# Structural Database, then it will include bibliographic, chemical,
# crystal, experimental, refinement or atomic coordinate data resulting
# from the CCDC's data processing and validation procedures.
#
#######################################################################

data_CSD_CIF_WOJRUJ
_audit_creation_date 2009-04-29
_audit_creation_method CSD-ConQuest-V1
_database_code_CSD WOJRUJ
_database_code_depnum_ccdc_archive 'CCDC 689313'
_chemical_formula_sum 'C70 H58 Cu5 N14 O40 W12'
_chemical_formula_moiety
;
(C30 H24 Cu2 N6 2+)n,n(C40 H34 Cu3 N8 O40 W12 2-)
;
_journal_coden_Cambridge 1290
_journal_year 2008
_journal_page_first 4936
_journal_name_full 'Eur.J.Inorg.Chem. '
loop_
_publ_author_name
"Ling Yuan"
"Chao Qin"
"Xinlong Wan"
"Enbo Wang"
"Song Chang"
_chemical_name_systematic
;
catena-((\m~2~-4,4-Bipyridine)-bis(2,2'-bipyridine)-di-copper(i) 
bis((\m~3~-hydroxo)-(\m~3~-oxo)-(\m~2~-4,4'-bipyridine))-hexacosakis(\m~2~-oxo
)-bis(2,2'-bipyridine)-decaoxo-tri-copper(i)-dodeca-tungsten)
;
_cell_volume   1928.978
_exptl_crystal_density_diffrn 3.663
_exptl_special_details
;
The paper contains conflicting formulae for the polyoxotungstate moiety being 
represented as H3W12O406- and H2W12O406-. The latter has been implemented. 
The protons in the central cavity do not appear to have been located
;
_diffrn_ambient_temperature 293
_refine_special_details
;
A number of oxygen atoms in the polyoxotungstate species are equally 
disordered over two sites by symmetry.
;
#These two values have been output from a single CSD field.
_refine_ls_R_factor_gt 0.0801
_refine_ls_wR_factor_gt 0.0801
_symmetry_cell_setting triclinic
_symmetry_space_group_name_H-M 'P -1'
_symmetry_Int_Tables_number 2
loop_
_symmetry_equiv_pos_site_id
_symmetry_equiv_pos_as_xyz
1 x,y,z
2 -x,-y,-z
_cell_length_a 13.073(3)
_cell_length_b 13.406(3)
_cell_length_c 13.683(3)
_cell_angle_alpha 86.84(3)
_cell_angle_beta 65.37(3)
_cell_angle_gamma 63.68(3)
_cell_formula_units_Z 1
loop_
_atom_type_symbol
_atom_type_radius_bond
C 0.63
H 0.23
Cu 1.56
N 0.66
O 0.61
W 1.38
loop_
_atom_site_label
_atom_site_type_symbol
_atom_site_fract_x
_atom_site_fract_y
_atom_site_fract_z
W1 W 1.28802(8) 0.94998(8) -0.07738(8)
W2 W 0.88016(10) 1.07433(8) -0.18553(7)
W3 W 1.05811(10) 1.17221(8) 0.10805(7)
W4 W 0.77009(8) 1.23004(7) 0.17040(7)
W5 W 0.95714(9) 1.23664(7) -0.09126(8)
W6 W 1.17640(8) 1.00601(8) -0.26946(7)
Cu1 Cu 0.2391(3) 0.3512(4) 0.3127(3)
Cu2 Cu 1.50000 1.00000 0.00000
Cu3 Cu 1.3255(3) 0.4917(3) 0.5964(3)
O1 O 0.8955(18) 1.2330(18) 0.1898(17)
O2 O 1.212(2) 1.0832(16) -0.0032(17)
O3 O 1.274(2) 0.9986(16) -0.2010(17)
O4 O 1.0990(18) 1.1516(16) -0.2141(17)
O5? O 1.113(2) 0.953(2) -0.084(2)
O6 O 0.8729(19) 1.1991(17) -0.1482(19)
O7 O 1.3102(19) 0.8168(16) -0.1273(17)
O8 O 1.0428(19) 1.0233(18) -0.2803(19)
O9 O 0.7760(19) 1.1360(15) 0.2737(17)
O10 O 0.818(2) 1.281(2) 0.0388(18)
O11 O 1.0838(19) 1.0699(15) 0.1964(16)
O12 O 1.2625(18) 1.0080(15) -0.3957(14)
O13 O 1.0852(16) 1.2559(14) 0.1580(14)
O14 O 0.6580(17) 1.3397(14) 0.2580(14)
O15 O 1.4303(14) 0.9192(13) -0.1146(14)
O16 O 0.8257(15) 1.1076(14) -0.2765(12)
O17 O 0.9282(16) 1.3566(14) -0.1310(16)
O18 O 1.249(2) 0.9009(18) 0.0596(19)
O19 O 1.0299(19) 1.2391(19) -0.0047(15)
O20 O 1.084(3) 1.006(2) 0.039(2)
O21? O 1.001(3) 1.055(3) -0.093(3)
O22? O 1.044(3) 0.888(2) -0.036(2)
C1 C 1.404(3) 0.138(2) 0.490(3)
H1 H 1.40990 0.06820 0.47530
C2 C 1.449(3) 0.938(3) 0.211(3)
H2 H 1.44530 1.00570 0.22850
C3 C 1.245(3) 0.301(2) 0.819(2)
H3 H 1.26100 0.22620 0.81360
C4 C 1.188(3) 0.357(2) 0.921(3)
H4 H 1.16150 0.32650 0.98380
C5 C 0.054(3) 0.236(2) 0.565(3)
H5 H 0.01370 0.25470 0.64020
C6 C 1.467(2) 0.757(2) 0.157(2)
H6 H 1.47710 0.68730 0.13480
C7 C 1.206(3) 0.503(3) 0.832(3)
H7 H 1.18800 0.57850 0.83840
C8 C 0.279(6) 0.476(4) 0.150(5)
H8 H 0.19330 0.50320 0.16770
C9 C 0.448(3) 0.352(2) 0.153(2)
H9 H 0.49020 0.28690 0.17670
C10 C 1.487(3) 0.822(2) 0.084(2)
H10 H 1.50480 0.80080 0.01250
C11 C 0.515(3) 0.391(2) 0.078(2)
H11 H 0.60310 0.35470 0.05240
C12 C 1.175(3) 0.458(3) 0.921(3)
H12 H 1.14180 0.50110 0.98780
C13 C 1.343(2) 0.188(2) 0.595(2)
H13 H 1.30340 0.15660 0.65180
C14 C 1.420(2) 0.884(2) 0.293(2)
H14 H 1.39420 0.91430 0.36370
C15 C 0.101(2) 0.385(2) 0.545(2)
C16 C 1.443(2) 0.280(2) 0.439(2)
H15 H 1.47870 0.31580 0.38470
C17 C 0.111(2) 0.289(2) 0.4977(19)
C18 C 1.322(3) 0.759(2) 0.451(2)
H16 H 1.27810 0.83660 0.47170
C19 C 1.431(2) 0.786(2) 0.268(2)
C20 C 1.461(2) 0.6134(19) 0.3204(19)
H17 H 1.51750 0.58080 0.24820
C21 C 1.280(2) 0.3400(18) 0.7281(18)
C22 C 1.436(2) 0.549(2) 0.400(2)
H18 H 1.48190 0.47130 0.37910
C23 C 1.343(2) 0.2849(17) 0.6134(18)
C24 C 1.296(2) 0.6950(18) 0.5295(19)
H19 H 1.23820 0.72890 0.60100
C25 C 1.404(2) 0.7183(19) 0.3494(19)
C26 C 1.457(3) 0.183(2) 0.406(3)
H20 H 1.49830 0.14950 0.33360
C27 C 0.060(4) 0.154(3) 0.513(3)
H21 H 0.01740 0.11480 0.55320
C28 C 0.125(4) 0.123(4) 0.402(4)
H22 H 0.13160 0.05950 0.36990
C29 C 0.178(3) 0.179(3) 0.342(3)
C30 C 0.046(3) 0.424(2) 0.653(2)
H23 H 0.01750 0.38280 0.70520
C31 C 0.139(3) 0.528(3) 0.502(3)
H24 H 0.17010 0.56780 0.45030
C32 C 0.083(4) 0.572(3) 0.606(3)
H25 H 0.08000 0.63980 0.62460
C33 C 0.034(4) 0.523(3) 0.681(3)
H26 H -0.00940 0.55590 0.75370
C34 C 0.347(6) 0.522(5) 0.078(5)
H27 H 0.30610 0.58930 0.05700
C35 C 0.465(3) 0.474(2) 0.042(2)
N1 N 0.333(2) 0.394(2) 0.193(2)
N2 N 1.389(2) 0.330(2) 0.5341(17)
N3 N 0.1520(19) 0.4383(18) 0.4678(17)
N4 N 0.174(2) 0.2614(19) 0.3857(19)
N5 N 1.482(2) 0.9113(19) 0.108(2)
N6 N 1.352(2) 0.5894(18) 0.5040(17)
N7 N 1.2614(19) 0.4448(17) 0.7356(18)
W1A W 0.71198(8) 1.05002(8) 0.07738(8)
W2A W 1.11984(10) 0.92567(8) 0.18553(7)
W3A W 0.94189(10) 0.82779(8) -0.10805(7)
W4A W 1.22991(8) 0.76996(7) -0.17040(7)
W5A W 1.04286(9) 0.76336(7) 0.09126(8)
W6A W 0.82360(8) 0.99399(8) 0.26946(7)
Cu1A Cu 0.7609(3) 0.6488(4) -0.3127(3)
Cu2* Cu 0.50000 1.00000 0.00000
Cu3A Cu 1.6745(3) 1.5083(3) -0.5964(3)
O1A O 1.1045(18) 0.7670(18) -0.1898(17)
O2A O 0.788(2) 0.9168(16) 0.0032(17)
O3A O 0.726(2) 1.0014(16) 0.2010(17)
O4A O 0.9010(18) 0.8484(16) 0.2141(17)
O6A O 1.1271(19) 0.8009(17) 0.1482(19)
O7A O 0.6898(19) 1.1832(16) 0.1273(17)
O8A O 0.9572(19) 0.9767(18) 0.2803(19)
O9A O 1.2240(19) 0.8640(15) -0.2737(17)
O10A O 1.182(2) 0.719(2) -0.0388(18)
O11A O 0.9162(19) 0.9301(15) -0.1964(16)
O12A O 0.7375(18) 0.9920(15) 0.3957(14)
O13A O 0.9148(16) 0.7441(14) -0.1580(14)
O14A O 1.3420(17) 0.6603(14) -0.2580(14)
O15A O 1.5697(14) 1.0808(13) 0.1146(14)
O15A* O 0.5697(14) 1.0808(13) 0.1146(14)
O16A O 1.1743(15) 0.8924(14) 0.2765(12)
O17A O 1.0718(16) 0.6434(14) 0.1310(16)
O18A O 0.751(2) 1.0991(18) -0.0596(19)
O19A O 0.9701(19) 0.7609(19) 0.0047(15)
O20A O 0.916(3) 0.994(2) -0.039(2)
C1A C 1.596(3) 1.862(2) -0.490(3)
H1A H 1.59010 1.93180 -0.47530
C2A C 1.551(3) 1.062(3) -0.211(3)
H2A H 1.55470 0.99430 -0.22850
C3A C 1.755(3) 1.699(2) -0.819(2)
H3A H 1.73900 1.77380 -0.81360
C4A C 1.812(3) 1.643(2) -0.921(3)
H4A H 1.83850 1.67350 -0.98380
C5A C 0.946(3) 0.764(2) -0.565(3)
H5A H 0.98630 0.74530 -0.64020
C6A C 1.533(2) 1.243(2) -0.157(2)
H6A H 1.52290 1.31270 -0.13480
C7A C 1.794(3) 1.497(3) -0.832(3)
H7A H 1.81200 1.42150 -0.83840
C8A C 0.721(6) 0.524(4) -0.150(5)
H8A H 0.80670 0.49680 -0.16770
C9A C 0.552(3) 0.648(2) -0.153(2)
H9A H 0.50980 0.71310 -0.17670
C10A C 1.513(3) 1.178(2) -0.084(2)
H10A H 1.49520 1.19920 -0.01250
C11A C 0.485(3) 0.609(2) -0.078(2)
H11A H 0.39690 0.64530 -0.05240
C12A C 1.825(3) 1.542(3) -0.921(3)
H12A H 1.85820 1.49890 -0.98780
C13A C 1.657(2) 1.812(2) -0.595(2)
H13A H 1.69660 1.84340 -0.65180
C14A C 1.580(2) 1.116(2) -0.293(2)
H14A H 1.60580 1.08570 -0.36370
C15A C 0.899(2) 0.615(2) -0.545(2)
C16A C 1.557(2) 1.720(2) -0.439(2)
H15A H 1.52130 1.68420 -0.38470
C17A C 0.889(2) 0.711(2) -0.4977(19)
C18A C 1.678(3) 1.241(2) -0.451(2)
H16A H 1.72190 1.16340 -0.47170
C19A C 1.569(2) 1.214(2) -0.268(2)
C20A C 1.539(2) 1.3866(19) -0.3204(19)
H17A H 1.48250 1.41920 -0.24820
C21A C 1.720(2) 1.6600(18) -0.7281(18)
C22A C 1.564(2) 1.451(2) -0.400(2)
H18A H 1.51810 1.52870 -0.37910
C23A C 1.657(2) 1.7151(17) -0.6134(18)
C24A C 1.704(2) 1.3050(18) -0.5295(19)
H19A H 1.76180 1.27110 -0.60100
C25A C 1.596(2) 1.2817(19) -0.3494(19)
C26A C 1.543(3) 1.817(2) -0.406(3)
H20A H 1.50170 1.85050 -0.33360
C27A C 0.940(4) 0.846(3) -0.513(3)
H21A H 0.98260 0.88520 -0.55320
C28A C 0.875(4) 0.877(4) -0.402(4)
H22A H 0.86840 0.94050 -0.36990
C29A C 0.822(3) 0.821(3) -0.342(3)
C30A C 0.954(3) 0.576(2) -0.653(2)
H23A H 0.98250 0.61720 -0.70520
C31A C 0.861(3) 0.472(3) -0.502(3)
H24A H 0.82990 0.43220 -0.45030
C32A C 0.917(4) 0.428(3) -0.606(3)
H25A H 0.92000 0.36020 -0.62460
C33A C 0.966(4) 0.477(3) -0.681(3)
H26A H 1.00940 0.44410 -0.75370
C34A C 0.653(6) 0.478(5) -0.078(5)
H27A H 0.69390 0.41070 -0.05700
C35A C 0.535(3) 0.526(2) -0.042(2)
N1A N 0.667(2) 0.606(2) -0.193(2)
N2A N 1.611(2) 1.670(2) -0.5341(17)
N3A N 0.8480(19) 0.5617(18) -0.4678(17)
N4A N 0.826(2) 0.7386(19) -0.3857(19)
N5A N 1.518(2) 1.0887(19) -0.108(2)
N6A N 1.648(2) 1.4106(18) -0.5040(17)
N7A N 1.7386(19) 1.5552(17) -0.7356(18)
#END
