
#######################################################################
#
#                 Cambridge Crystallographic Data Centre
#                                CCDC
#
#######################################################################
#
# If this CIF has been generated from an entry in the Cambridge
# Structural Database, then it will include bibliographic, chemical,
# crystal, experimental, refinement or atomic coordinate data resulting
# from the CCDC's data processing and validation procedures.
#
#######################################################################

data_CSD_CIF_WOJYAW
_audit_creation_date 2009-04-29
_audit_creation_method CSD-ConQuest-V1
_database_code_CSD WOJYAW
_database_code_depnum_ccdc_archive 'CCDC 658526'
_chemical_formula_sum 'C42 H80 Cu4 N4 S10 W2'
_chemical_formula_moiety
;
(C16 H36 N1 1+)2n,n(C10 H8 Cu4 N2 S10 W2 2-)
;
_journal_coden_Cambridge 119
_journal_volume 892
_journal_year 2008
_journal_page_first 182
_journal_name_full 'J.Mol.Struct. '
loop_
_publ_author_name
"Zhihua Li"
"Ping Lin"
"Shaowu Du"
_chemical_name_systematic
;
catena-(bis(tetra-n-butylammonium) 
bis(\m~2~-2-pyridinethiolato-N,S)-octakis(\m~2~-sulfido)-tetra-copper-di-tungs
ten)
;
_cell_volume   2986.937
_exptl_crystal_colour 'yellow'
_exptl_crystal_density_diffrn 1.761
_exptl_special_details
;
photoluminescent

;
_exptl_crystal_description 'Prism'
_diffrn_ambient_temperature 293
#These two values have been output from a single CSD field.
_refine_ls_R_factor_gt 0.0468
_refine_ls_wR_factor_gt 0.0468
_symmetry_cell_setting triclinic
_symmetry_space_group_name_H-M 'P -1'
_symmetry_Int_Tables_number 2
loop_
_symmetry_equiv_pos_site_id
_symmetry_equiv_pos_as_xyz
1 x,y,z
2 -x,-y,-z
_cell_length_a 12.524(4)
_cell_length_b 15.811(5)
_cell_length_c 17.099(5)
_cell_angle_alpha 100.619(3)
_cell_angle_beta 107.124(2)
_cell_angle_gamma 105.565(1)
_cell_formula_units_Z 2
loop_
_atom_type_symbol
_atom_type_radius_bond
C 0.68
H 0.23
Cu 1.41
N 0.68
S 1.03
W 0.80
loop_
_atom_site_label
_atom_site_type_symbol
_atom_site_fract_x
_atom_site_fract_y
_atom_site_fract_z
W1 W 0.77177(3) 1.19000(2) 0.923884(17)
W2 W 0.18540(3) 1.26671(2) 0.494282(17)
Cu1 Cu 0.91159(8) 1.27884(6) 1.08427(5)
Cu2 Cu 0.62335(8) 1.09993(6) 0.76714(5)
Cu3 Cu 0.30526(8) 1.18553(6) 0.59098(5)
Cu4 Cu 1.05530(8) 1.34139(6) 1.39953(5)
S1 S 0.94264(18) 1.17473(14) 0.99472(12)
S2 S 0.74362(17) 1.29699(14) 1.01127(11)
S3 S 0.62186(18) 1.05989(14) 0.88547(12)
S4 S 0.77766(17) 1.22881(14) 0.80627(11)
S5 S 0.25393(19) 1.15821(15) 0.44947(12)
S6 S 0.24397(17) 1.29960(13) 0.63541(11)
S7 S 0.98818(16) 1.21565(14) 1.43684(12)
S8 S 1.25342(17) 1.39317(14) 1.45891(12)
S9 S 0.39746(17) 1.12281(14) 0.68073(11)
S10 S 1.01913(16) 1.34152(13) 1.21957(11)
N1 N 0.5205(5) 1.0179(4) 0.6539(3)
N2 N 0.9553(5) 1.4043(4) 1.3456(3)
N3 N 0.3432(5) 1.5305(4) 0.2163(4)
N4 N -0.1609(5) 1.0013(4) 0.1798(4)
C1 C 0.4175(6) 1.0305(5) 0.6193(4)
C2 C 0.3358(7) 0.9727(5) 0.5407(4)
H1 H 0.26300 0.98040 0.51780
C3 C 0.3622(7) 0.9038(5) 0.4964(5)
H2 H 0.30870 0.86590 0.44290
C4 C 0.4682(7) 0.8921(5) 0.5324(5)
H3 H 0.48790 0.84590 0.50420
C5 C 0.5453(7) 0.9504(5) 0.6114(5)
H4 H 0.61740 0.94240 0.63620
C6 C 0.9438(6) 1.4037(5) 1.2640(4)
C7 C 0.8761(7) 1.4503(6) 1.2219(4)
H5 H 0.86990 1.45110 1.16650
C8 C 0.8186(8) 1.4952(6) 1.2629(5)
H6 H 0.77420 1.52700 1.23560
C9 C 0.8273(7) 1.4924(6) 1.3442(5)
H7 H 0.78730 1.52110 1.37210
C10 C 0.8949(7) 1.4475(5) 1.3834(4)
H8 H 0.90050 1.44610 1.43860
C11 C 0.2295(6) 1.5082(5) 0.1396(4)
H9 H 0.16210 1.48200 0.15520
H10 H 0.22470 1.56520 0.12810
C12 C 0.2177(7) 1.4436(6) 0.0586(4)
H11 H 0.21230 1.38370 0.06680
H12 H 0.28760 1.46600 0.04440
C13 C 0.1072(7) 1.4355(6) -0.0142(5)
H13 H 0.03770 1.41160 0.00000
H14 H 0.11180 1.49600 -0.02020
C14 C 0.0920(8) 1.3736(7) -0.0988(5)
H15 H 0.02100 1.37080 -0.14220
H16 H 0.08590 1.31320 -0.09360
H17 H 0.15950 1.39770 -0.11410
C15 C 0.3450(7) 1.4444(5) 0.2431(4)
H18 H 0.35010 1.40110 0.19730
H19 H 0.26980 1.41720 0.24920
C16 C 0.4449(7) 1.4562(5) 0.3255(5)
H20 H 0.52120 1.48810 0.32320
H21 H 0.43530 1.49220 0.37380
C17 C 0.4399(7) 1.3618(5) 0.3359(5)
H22 H 0.36090 1.32880 0.33300
H23 H 0.45380 1.32790 0.28870
C18 C 0.5301(8) 1.3655(6) 0.4189(5)
H24 H 0.52320 1.30430 0.42170
H25 H 0.51550 1.39740 0.46590
H26 H 0.60870 1.39700 0.42170
C19 C 0.3485(6) 1.6062(5) 0.2880(4)
H27 H 0.34630 1.65920 0.26760
H28 H 0.42400 1.62380 0.33470
C20 C 0.2481(7) 1.5804(5) 0.3224(5)
H29 H 0.17170 1.56010 0.27600
H30 H 0.25280 1.53040 0.34720
C21 C 0.2588(7) 1.6630(5) 0.3897(4)
H31 H 0.33770 1.68540 0.43350
H32 H 0.25010 1.71130 0.36340
C22 C 0.1678(8) 1.6426(6) 0.4312(5)
H33 H 0.17790 1.69750 0.47200
H34 H 0.17810 1.59680 0.45970
H35 H 0.08930 1.62050 0.38840
C23 C 0.4539(6) 1.5671(5) 0.1944(5)
H36 H 0.52360 1.58780 0.24630
H37 H 0.45980 1.51700 0.15560
C24 C 0.4559(7) 1.6455(6) 0.1540(5)
H38 H 0.38960 1.62390 0.10000
H39 H 0.44520 1.69440 0.19100
C25 C 0.5679(8) 1.6828(7) 0.1391(6)
H40 H 0.56530 1.73490 0.11720
H41 H 0.63400 1.70470 0.19330
C26 C 0.5905(15) 1.6162(10) 0.0789(11)
H42 H 0.66380 1.64520 0.07220
H43 H 0.52640 1.59500 0.02460
H44 H 0.59590 1.56520 0.10090
C27 C -0.1161(7) 0.9803(5) 0.2641(5)
H45 H -0.05320 1.03500 0.30470
H46 H -0.18060 0.96720 0.28540
C28 C -0.0690(7) 0.9016(6) 0.2618(5)
H47 H -0.13440 0.84450 0.23020
H48 H -0.01350 0.90870 0.23210
C29 C -0.0073(7) 0.8972(6) 0.3505(5)
H49 H -0.06320 0.88960 0.37990
H50 H 0.05740 0.95470 0.38220
C30 C 0.0423(8) 0.8186(7) 0.3496(6)
H51 H 0.08090 0.81880 0.40720
H52 H 0.09860 0.82620 0.32140
H53 H -0.02170 0.76130 0.31970
C31 C -0.1829(7) 1.0919(5) 0.1969(5)
H54 H -0.10880 1.13890 0.23590
H55 H -0.20400 1.10780 0.14360
C32 C -0.2779(7) 1.0946(5) 0.2336(5)
H56 H -0.25690 1.08210 0.28850
H57 H -0.35320 1.04820 0.19570
C33 C -0.2897(7) 1.1888(6) 0.2442(5)
H58 H -0.31390 1.19940 0.18860
H59 H -0.21260 1.23490 0.27910
C34 C -0.3804(8) 1.1993(6) 0.2859(6)
H60 H -0.38470 1.25970 0.29120
H61 H -0.35600 1.19010 0.34150
H62 H -0.45720 1.15470 0.25110
C35 C -0.0696(7) 1.0102(5) 0.1365(5)
H63 H -0.06060 0.95100 0.12100
H64 H -0.10080 1.02550 0.08400
C36 C 0.0516(7) 1.0806(6) 0.1889(5)
H65 H 0.07680 1.07440 0.24620
H66 H 0.04760 1.14160 0.19280
C37 C 0.1417(7) 1.0681(6) 0.1485(6)
H67 H 0.14530 1.00710 0.14500
H68 H 0.11480 1.07290 0.09070
C38 C 0.2611(8) 1.1353(7) 0.1958(6)
H69 H 0.31390 1.12400 0.16760
H70 H 0.28910 1.13010 0.25270
H71 H 0.25870 1.19580 0.19820
C39 C -0.2742(7) 0.9233(5) 0.1229(5)
H72 H -0.32770 0.91350 0.15400
H73 H -0.25510 0.86790 0.11060
C40 C -0.3387(7) 0.9379(6) 0.0389(5)
H74 H -0.28500 0.94950 0.00800
H75 H -0.36150 0.99150 0.05050
C41 C -0.4500(8) 0.8548(7) -0.0171(6)
H76 H -0.49730 0.83860 0.01730
H77 H -0.49710 0.87280 -0.06280
C42 C -0.4284(10) 0.7716(7) -0.0557(6)
H78 H -0.50310 0.72370 -0.08890
H79 H -0.38350 0.75190 -0.01120
H80 H -0.38440 0.78580 -0.09190
W2* W 1.18540(3) 1.26671(2) 1.494282(17)
S7* S -0.01182(16) 1.21565(14) 0.43684(12)
S8* S 0.25342(17) 1.39317(14) 0.45891(12)
#END
