
#######################################################################
#
#                 Cambridge Crystallographic Data Centre
#                                CCDC
#
#######################################################################
#
# If this CIF has been generated from an entry in the Cambridge
# Structural Database, then it will include bibliographic, chemical,
# crystal, experimental, refinement or atomic coordinate data resulting
# from the CCDC's data processing and validation procedures.
#
#######################################################################

data_CSD_CIF_WOKBEE
_audit_creation_date 2009-04-29
_audit_creation_method CSD-ConQuest-V1
_database_code_CSD WOKBEE
_database_code_depnum_ccdc_archive 'CCDC 658012'
_chemical_formula_sum 'C46 H52.5 Mo12 N9.5 O56 Si1 Tb1'
_chemical_formula_moiety
;
(C40 H38 N8 O11 Tb1 3+)n,n(H1 Mo12 O40 Si1 3-),0.5n(C10 H8 N2 O2),0.5n(C2 H3 
N1),4n(H2 O1)
;
_journal_coden_Cambridge 211
_journal_volume 61
_journal_year 2008
_journal_page_first 3800
_journal_name_full 'J.Coord.Chem. '
loop_
_publ_author_name
"Meilin Wei"
"Ruiping Sun"
"Kai Jiang"
"Lin Yang"
_chemical_name_systematic
;
catena-((\m~2~-4,4'-bipyridine-N,N'-dioxide)-triaqua-tris(4,4'-bipyridine-N,N'
-dioxide)-terbium(iii) (\m~12~-monohydrogen 
silicato)-tetracosakis(\m~2~-oxo)-dodecaoxo-dodeca-molybdenum 
hemikis(4,4'-bipyridine-N,N'-dioxide) acetonitrile solvate tetrahydrate)
;
_cell_volume   3974.058
_exptl_crystal_colour 'yellow'
_exptl_crystal_density_diffrn 2.484
_exptl_crystal_description 'block'
_diffrn_ambient_temperature 293
#These two values have been output from a single CSD field.
_refine_ls_R_factor_gt 0.0446
_refine_ls_wR_factor_gt 0.0446
_symmetry_cell_setting triclinic
_symmetry_space_group_name_H-M 'P -1'
_symmetry_Int_Tables_number 2
loop_
_symmetry_equiv_pos_site_id
_symmetry_equiv_pos_as_xyz
1 x,y,z
2 -x,-y,-z
_cell_length_a 13.221(3)
_cell_length_b 16.519(4)
_cell_length_c 18.503(4)
_cell_angle_alpha 88.715(4)
_cell_angle_beta 81.984(4)
_cell_angle_gamma 83.292(4)
_cell_formula_units_Z 2
loop_
_atom_type_symbol
_atom_type_radius_bond
C 0.68
H 0.23
Mo 1.37
N 0.68
O 0.68
Si 1.20
Tb 1.76
loop_
_atom_site_label
_atom_site_type_symbol
_atom_site_fract_x
_atom_site_fract_y
_atom_site_fract_z
Si1 Si -0.51032(12) -0.66557(9) 0.23864(9)
Mo1 Mo -0.36751(6) -0.84867(4) 0.28130(4)
Mo2 Mo -0.43539(6) -0.82550(4) 0.11361(3)
Mo3 Mo -0.61238(5) -0.85372(4) 0.25717(4)
Mo4 Mo -0.76488(5) -0.66605(4) 0.20462(4)
Mo5 Mo -0.69509(5) -0.68979(4) 0.39079(3)
Mo6 Mo -0.45150(5) -0.68771(4) 0.41921(3)
Mo7 Mo -0.25364(5) -0.65500(5) 0.26456(4)
Mo8 Mo -0.31584(5) -0.63402(5) 0.09463(4)
Mo9 Mo -0.58512(5) -0.63467(5) 0.06396(4)
Mo10 Mo -0.66234(5) -0.48957(4) 0.18754(4)
Mo11 Mo -0.58902(6) -0.51606(4) 0.37234(4)
Mo12 Mo -0.39261(5) -0.48503(4) 0.21509(4)
O1 O -0.2859(4) -0.9242(3) 0.3115(3)
O2 O -0.3947(4) -0.8863(3) 0.0420(3)
O3 O -0.6875(4) -0.9303(3) 0.2734(4)
O4 O -0.8896(4) -0.6801(4) 0.2058(3)
O5 O -0.7933(4) -0.7159(3) 0.4515(3)
O6 O -0.3988(4) -0.7142(3) 0.4946(3)
O7 O -0.1351(4) -0.6659(4) 0.2876(4)
O8 O -0.2375(4) -0.6296(3) 0.0144(3)
O9 O -0.5953(4) -0.6347(3) -0.0258(3)
O10 O -0.7211(4) -0.3948(3) 0.1781(3)
O11 O -0.6239(4) -0.4300(3) 0.4191(3)
O12 O -0.3592(4) -0.3900(3) 0.2148(3)
O13 O -0.3488(4) -0.8786(3) 0.1807(3)
O14 O -0.5453(4) -0.8839(3) 0.1601(3)
O15 O -0.4914(4) -0.9037(3) 0.2935(3)
O16 O -0.4211(3) -0.7890(3) 0.3668(2)
O17 O -0.2808(4) -0.7662(3) 0.2581(3)
O18 O -0.3419(3) -0.7438(3) 0.0979(3)
O19 O -0.5313(3) -0.7472(3) 0.0770(3)
O20 O -0.7016(3) -0.7740(3) 0.2125(2)
O21 O -0.6507(3) -0.7915(3) 0.3426(2)
O22 O -0.5868(4) -0.7159(3) 0.4511(3)
O23 O -0.3386(4) -0.6523(3) 0.3551(3)
O24 O -0.2157(3) -0.6558(3) 0.1592(3)
O25 O -0.4496(3) -0.6110(3) 0.0646(3)
O26 O -0.7198(3) -0.6659(3) 0.1021(3)
O27 O -0.7607(3) -0.6599(3) 0.3081(3)
O28 O -0.6991(4) -0.5780(3) 0.4158(3)
O29 O -0.5041(4) -0.5754(3) 0.4379(3)
O30 O -0.2760(4) -0.5393(3) 0.2574(3)
O31 O -0.3246(3) -0.5202(3) 0.1220(3)
O32 O -0.6380(4) -0.5249(3) 0.0885(3)
O33 O -0.7806(4) -0.5475(3) 0.2014(3)
O34 O -0.6618(3) -0.4934(3) 0.2902(3)
O35 O -0.4708(3) -0.4914(3) 0.3105(3)
O36 O -0.5216(4) -0.4704(3) 0.1810(3)
O37 O -0.5485(3) -0.6465(2) 0.3243(2)
O38 O -0.4058(3) -0.6246(2) 0.2129(2)
O39 O -0.5998(3) -0.6275(2) 0.1913(2)
O40 O -0.4896(3) -0.7637(2) 0.2273(2)
Tb1 Tb -0.05152(2) -0.172160(18) 0.294200(18)
O41 O -0.0086(4) -0.1499(4) 0.1669(3)
H1 H -0.04900 -0.12630 0.13910
H2 H 0.05350 -0.16890 0.15360
O42 O -0.0829(4) -0.0278(3) 0.3030(4)
H3 H -0.13050 0.00220 0.28570
H4 H -0.03900 -0.01100 0.32660
O43 O -0.0062(4) -0.1279(3) 0.4062(3)
H5 H -0.03350 -0.08530 0.42940
H6 H 0.04160 -0.16160 0.41920
O44 O -0.1974(4) -0.1191(3) 0.2340(3)
O45 O -0.8455(4) -0.1777(5) 0.0719(4)
O46 O 0.8071(3) -0.1876(3) 0.3839(3)
O47 O 0.1225(3) -0.1607(3) 0.2593(3)
O48 O -0.1052(4) -0.2919(3) 0.2537(3)
O49 O 0.1596(6) -0.7371(4) -0.0730(4)
O50 O 0.0471(3) -0.2839(3) 0.3437(3)
O51 O -0.1310(4) -0.8151(3) 0.5057(4)
O52 O -0.1336(4) -0.0224(4) 0.5095(3)
N1 N -0.2786(4) -0.1302(3) 0.2035(3)
N2 N -0.7539(5) -0.1708(5) 0.0916(3)
N3 N 0.7088(4) -0.1852(3) 0.3747(3)
N4 N 0.2082(4) -0.1686(3) 0.2893(3)
N5 N -0.0618(4) -0.3546(3) 0.2127(3)
N6 N 0.1254(5) -0.6782(4) -0.0239(4)
N7 N 0.0187(4) -0.3558(3) 0.3649(3)
N8 N -0.1111(5) -0.7420(4) 0.4800(4)
N9 N -0.2345(4) -0.0164(4) 0.5090(3)
C1 C -0.3329(5) -0.0640(4) 0.1785(4)
H7 H -0.30760 -0.01370 0.17740
C2 C -0.4254(5) -0.0703(4) 0.1544(4)
H8 H -0.46360 -0.02360 0.13930
C3 C -0.4633(5) -0.1458(4) 0.1521(4)
C4 C -0.4008(5) -0.2113(4) 0.1736(4)
H9 H -0.42070 -0.26320 0.17080
C5 C -0.3100(5) -0.2033(4) 0.1991(4)
H10 H -0.27010 -0.24940 0.21350
C6 C -0.7344(6) -0.0975(6) 0.1148(5)
H11 H -0.78540 -0.05340 0.11750
C7 C -0.6413(6) -0.0879(5) 0.1342(4)
H12 H -0.62910 -0.03750 0.15040
C8 C -0.5631(5) -0.1540(4) 0.1299(4)
C9 C -0.5865(6) -0.2266(4) 0.1050(4)
H13 H -0.53650 -0.27140 0.10090
C10 C -0.6825(6) -0.2345(5) 0.0859(4)
H14 H -0.69670 -0.28410 0.06930
C11 C 0.6546(5) -0.1150(4) 0.3615(4)
H15 H 0.68580 -0.06720 0.36030
C12 C 0.5544(5) -0.1108(4) 0.3496(4)
H16 H 0.51900 -0.06100 0.33890
C13 C 0.5052(5) -0.1818(4) 0.3536(3)
C14 C 0.5626(5) -0.2535(4) 0.3720(4)
H17 H 0.53230 -0.30180 0.37730
C15 C 0.6626(5) -0.2538(4) 0.3822(4)
H18 H 0.69960 -0.30230 0.39460
C16 C 0.2393(6) -0.1020(5) 0.3153(4)
H19 H 0.19700 -0.05270 0.31720
C17 C 0.3340(5) -0.1065(4) 0.3390(4)
H20 H 0.35460 -0.06010 0.35750
C18 C 0.3996(5) -0.1792(4) 0.3361(4)
C19 C 0.3611(5) -0.2472(4) 0.3121(4)
H21 H 0.40000 -0.29790 0.31200
C20 C 0.2667(5) -0.2403(4) 0.2887(5)
H22 H 0.24290 -0.28630 0.27210
C21 C -0.1076(6) -0.4232(4) 0.2172(4)
H23 H -0.16660 -0.42640 0.25050
C22 C -0.0685(6) -0.4888(4) 0.1736(4)
H24 H -0.10120 -0.53590 0.17810
C23 C 0.0185(5) -0.4860(4) 0.1232(4)
C24 C 0.0646(5) -0.4132(4) 0.1202(4)
H25 H 0.12310 -0.40800 0.08690
C25 C 0.0242(6) -0.3500(5) 0.1657(5)
H26 H 0.05710 -0.30310 0.16410
C26 C 0.0434(6) -0.6855(5) 0.0249(5)
H27 H 0.00980 -0.73210 0.02620
C27 C 0.0085(6) -0.6231(4) 0.0739(4)
H28 H -0.04770 -0.62840 0.10920
C28 C 0.0566(5) -0.5522(4) 0.0707(4)
C29 C 0.1402(5) -0.5484(5) 0.0179(4)
H29 H 0.17440 -0.50210 0.01480
C30 C 0.1744(5) -0.6103(5) -0.0300(4)
H30 H 0.23010 -0.60610 -0.06610
C31 C -0.0667(5) -0.3623(4) 0.4117(4)
H31 H -0.10710 -0.31530 0.42980
C32 C -0.0954(5) -0.4366(4) 0.4334(4)
H32 H -0.15540 -0.43960 0.46570
C33 C -0.0360(5) -0.5084(4) 0.4078(4)
C34 C 0.0535(6) -0.4990(4) 0.3617(4)
H33 H 0.09690 -0.54500 0.34460
C35 C 0.0792(5) -0.4244(4) 0.3409(4)
H34 H 0.13970 -0.42000 0.30960
C36 C -0.1743(6) -0.6743(5) 0.5048(5)
H35 H -0.23280 -0.67910 0.53820
C37 C -0.1513(6) -0.6010(4) 0.4806(5)
H36 H -0.19580 -0.55520 0.49700
C38 C -0.0653(5) -0.5903(4) 0.4329(4)
C39 C -0.0031(6) -0.6605(4) 0.4069(5)
H37 H 0.05420 -0.65700 0.37210
C40 C -0.0281(7) -0.7341(5) 0.4333(6)
H38 H 0.01520 -0.78080 0.41770
C41 C -0.2863(5) -0.0786(4) 0.5319(4)
H39 H -0.25200 -0.12580 0.54950
C42 C -0.3916(5) -0.0731(4) 0.5297(4)
H40 H -0.42730 -0.11680 0.54600
C43 C -0.4447(5) -0.0027(4) 0.5030(3)
C44 C -0.3860(5) 0.0608(4) 0.4816(4)
H41 H -0.41820 0.10920 0.46460
C45 C -0.2826(6) 0.0540(5) 0.4846(4)
H42 H -0.24540 0.09750 0.47010
O53 O -0.0023(4) -0.9303(4) 0.3926(3)
O54 O -0.3330(5) -0.4458(4) 0.4194(4)
O55 O -0.8725(10) -0.1594(8) 0.9296(8)
O56 O -0.7043(14) -0.8310(12) 0.0155(11)
O57 O -0.9115(15) -0.9822(12) 0.9381(12)
O58 O -0.8174(17) -0.8708(13) 0.9774(13)
N10 N -0.854(2) -0.8947(15) 0.1334(15)
C46 C -0.922(2) -0.8775(16) 0.1806(16)
C47 C -0.9940(16) -0.8412(13) 0.2307(13)
H43 H -1.02810 -0.88170 0.25930
H44 H -1.04310 -0.80660 0.20700
H45 H -0.96260 -0.80890 0.26200
Tb1* Tb 0.94848(2) -0.172160(18) 0.294200(18)
O46* O -0.1929(3) -0.1876(3) 0.3839(3)
O52A O -0.8664(4) 0.0224(4) 0.4905(3)
N9A N -0.7655(4) 0.0164(4) 0.4910(3)
C41A C -0.7137(5) 0.0786(4) 0.4681(4)
H39A H -0.74800 0.12580 0.45050
C42A C -0.6084(5) 0.0731(4) 0.4703(4)
H40A H -0.57270 0.11680 0.45400
C43A C -0.5553(5) 0.0027(4) 0.4970(3)
C44A C -0.6140(5) -0.0608(4) 0.5184(4)
H41A H -0.58180 -0.10920 0.53540
C45A C -0.7174(6) -0.0540(5) 0.5154(4)
H42A H -0.75460 -0.09750 0.52990
#END
