
#######################################################################
#
#                 Cambridge Crystallographic Data Centre
#                                CCDC
#
#######################################################################
#
# If this CIF has been generated from an entry in the Cambridge
# Structural Database, then it will include bibliographic, chemical,
# crystal, experimental, refinement or atomic coordinate data resulting
# from the CCDC's data processing and validation procedures.
#
#######################################################################

data_CSD_CIF_WOKLOZ
_audit_creation_date 2014-08-02
_audit_creation_method CSD-ConQuest-V1
_database_code_CSD WOKLOZ
_database_code_depnum_ccdc_archive 'CCDC 996385'
_chemical_formula_sum 'C96 H32 Al4 F144 Ga4 N16 O16'
_chemical_formula_moiety
;
(C32 H32 Ga4 N16 4+)n,4(C16 Al1 F36 O4 1-)
;
_journal_coden_Cambridge 1290
_journal_year 2014
_journal_page_first 4335
_journal_name_full 'Eur.J.Inorg.Chem. '
loop_
_publ_author_name
"M.R.Lichtenthaler"
"F.Stahl"
"D.Kratzert"
"B.Benkmil"
"H.A.Wegner"
"Ingo Krossing"
_chemical_name_systematic
;
catena-[tetrakis(\m-pyrazine)-tetrakis(pyrazine)-tetra-gallium 
tetrakis(tetrakis(1,1,1,3,3,3-hexafluoro-2-(trifluoromethyl)propan-2-olato)-al
uminium)]
;
_cell_volume  22826.157
_exptl_crystal_colour 'pale yellow'
_exptl_special_details
;
Air-sensitive, Moisture-sensitive, Hygroscropic

;
_exptl_crystal_description 'platelet'
_diffrn_ambient_temperature 100
_refine_special_details
;
The structure is disordered.

;
#These two values have been output from a single CSD field.
_refine_ls_R_factor_gt 0.1107
_refine_ls_wR_factor_gt 0.1107
_symmetry_cell_setting monoclinic
_symmetry_space_group_name_H-M 'P 21/c'
_symmetry_Int_Tables_number 14
loop_
_symmetry_equiv_pos_site_id
_symmetry_equiv_pos_as_xyz
1 x,y,z
2 -x,1/2+y,1/2-z
3 -x,-y,-z
4 x,-1/2-y,-1/2+z
_cell_length_a 21.1222(10)
_cell_length_b 58.412(3)
_cell_length_c 20.4750(9)
_cell_angle_alpha 90
_cell_angle_beta 115.3670(15)
_cell_angle_gamma 90
_cell_formula_units_Z 4
loop_
_atom_type_symbol
_atom_type_radius_bond
C 0.68
H 0.23
Al 1.21
F 0.64
Ga 1.22
N 0.68
O 0.68
loop_
_atom_site_label
_atom_site_type_symbol
_atom_site_fract_x
_atom_site_fract_y
_atom_site_fract_z
Ga1 Ga 0.07288(6) 0.30896(2) 0.70620(6)
N1 N 0.0357(4) 0.34027(13) 0.7475(4)
N2 N -0.0171(5) 0.37437(18) 0.8056(5)
C1 C -0.0131(5) 0.33594(18) 0.7699(5)
H1 H -0.03020 0.32080 0.76720
C2 C -0.0400(6) 0.35323(19) 0.7976(6)
H2 H -0.07650 0.34950 0.81130
C3 C 0.0332(6) 0.37865(19) 0.7836(6)
H3 H 0.05160 0.39370 0.78810
C4 C 0.0586(6) 0.36170(15) 0.7547(5)
H4 H 0.09390 0.36550 0.73950
Ga2 Ga 0.43572(6) 0.35579(2) 0.80938(6)
N3 N 0.4650(4) 0.32263(14) 0.7683(4)
N4 N 0.5089(6) 0.28648(18) 0.7089(6)
C5 C 0.5139(5) 0.32540(18) 0.7437(5)
H5 H 0.53450 0.34010 0.74680
C6 C 0.5352(7) 0.3073(2) 0.7135(7)
H6 H 0.56950 0.30990 0.69590
C7 C 0.4603(6) 0.28389(18) 0.7336(6)
H7 H 0.43990 0.26920 0.73080
C8 C 0.4390(5) 0.30173(16) 0.7630(5)
H8 H 0.40430 0.29900 0.78000
N5 N 0.1827(4) 0.32877(13) 0.7371(4)
N6 N 0.3254(4) 0.33681(14) 0.7833(4)
C9 C 0.2283(5) 0.32781(19) 0.8065(5)
H9 H 0.21180 0.32400 0.84160
C10 C 0.2986(5) 0.3323(2) 0.8286(5)
H10 H 0.32880 0.33200 0.87880
C11 C 0.2804(5) 0.3379(2) 0.7136(5)
H11 H 0.29720 0.34150 0.67860
C12 C 0.2105(5) 0.3338(2) 0.6918(5)
H12 H 0.18030 0.33460 0.64160
N7 N -0.0368(4) 0.34099(12) 0.4442(4)
N8 N 0.0298(4) 0.32926(13) 0.5889(4)
C13 C -0.0490(5) 0.35222(16) 0.4940(4)
H13 H -0.08130 0.36460 0.47960
C14 C -0.0155(5) 0.34638(15) 0.5669(5)
H14 H -0.02530 0.35480 0.60120
C15 C 0.0414(5) 0.31808(16) 0.5390(4)
H15 H 0.07340 0.30560 0.55330
C16 C 0.0085(5) 0.32392(15) 0.4664(4)
H16 H 0.01860 0.31550 0.43230
Ga3 Ga 0.57664(6) 0.30547(2) 1.18650(6)
N9 N 0.5399(4) 0.33683(15) 1.2319(4)
N10 N 0.4921(6) 0.3666(2) 1.3083(6)
C17 C 0.4863(5) 0.3315(2) 1.2472(6)
H17 H 0.46340 0.31720 1.23200
C18 C 0.4634(7) 0.3466(2) 1.2848(7)
H18 H 0.42470 0.34220 1.29410
C19 C 0.5446(7) 0.3720(2) 1.2916(7)
H19 H 0.56670 0.38650 1.30650
C20 C 0.5679(6) 0.35768(19) 1.2540(6)
H20 H 0.60520 0.36260 1.24310
Ga4 Ga 0.92983(6) 0.36272(2) 1.33275(6)
N11 N 0.9658(4) 0.33235(13) 1.2830(4)
N12 N 1.0068(5) 0.30237(16) 1.2023(5)
C21 C 1.0144(5) 0.33802(18) 1.2613(5)
H21 H 1.03630 0.35260 1.27350
C22 C 1.0336(6) 0.32279(19) 1.2208(6)
H22 H 1.06830 0.32750 1.20570
C23 C 0.9567(5) 0.29687(17) 1.2233(5)
H23 H 0.93380 0.28250 1.20970
C24 C 0.9381(5) 0.31152(14) 1.2636(5)
H24 H 0.90350 0.30670 1.27880
C25 C 0.5572(5) 0.31420(18) 1.0234(6)
H25 H 0.58660 0.30110 1.03790
C26 C 0.4705(5) 0.35025(19) 0.9775(5)
H26 H 0.44040 0.36320 0.96370
N13 N 0.5479(4) 0.32625(14) 1.0728(4)
N14 N 0.4804(4) 0.33753(15) 0.9268(4)
C27 C 0.5050(5) 0.34399(17) 1.0490(5)
H27 H 0.49750 0.35300 1.08370
C28 C 0.5249(5) 0.32008(18) 0.9497(5)
H28 H 0.53500 0.31150 0.91590
N15 N 0.6840(4) 0.32605(15) 1.2284(4)
N16 N 0.8217(4) 0.34155(14) 1.2915(4)
C29 C 0.7215(5) 0.3262(2) 1.2991(5)
H29 H 0.70110 0.32070 1.32950
C30 C 0.7906(5) 0.3341(2) 1.3304(5)
H30 H 0.81560 0.33400 1.38150
C31 C 0.7832(4) 0.34190(16) 1.2201(4)
H31 H 0.80340 0.34770 1.18990
C32 C 0.7159(4) 0.33418(17) 1.1891(5)
H32 H 0.69070 0.33460 1.13790
Ga5 Ga 0.08119(6) 0.52122(2) 0.19501(6)
N17 N 0.0417(4) 0.48894(14) 0.2337(4)
N18 N -0.0011(6) 0.45680(19) 0.3056(6)
C33 C -0.0030(6) 0.4940(2) 0.2606(6)
H33 H -0.01950 0.50930 0.25710
C34 C -0.0268(8) 0.4777(2) 0.2940(8)
H34 H -0.06230 0.48170 0.30890
C35 C 0.0447(6) 0.4516(2) 0.2795(6)
H35 H 0.06370 0.43660 0.28640
C36 C 0.0656(5) 0.46736(16) 0.2427(5)
H36 H 0.09740 0.46290 0.22340
Ga6 Ga 0.44257(6) 0.47146(2) 0.31475(7)
N19 N 0.4766(4) 0.50360(14) 0.2726(4)
N20 N 0.5215(5) 0.53602(17) 0.2012(5)
C37 C 0.5278(5) 0.49887(19) 0.2531(6)
H37 H 0.54920 0.48420 0.26300
C38 C 0.5505(6) 0.51533(19) 0.2180(6)
H38 H 0.58780 0.51160 0.20590
C39 C 0.4705(6) 0.54007(18) 0.2206(6)
H39 H 0.44800 0.55460 0.20940
C40 C 0.4482(6) 0.52444(16) 0.2560(5)
H40 H 0.41170 0.52850 0.26900
N21 N 0.1872(4) 0.49944(13) 0.2220(4)
N22 N 0.3297(4) 0.48950(14) 0.2775(4)
C41 C 0.2244(5) 0.49417(17) 0.2914(5)
H41 H 0.20200 0.49370 0.32290
C42 C 0.2947(5) 0.48937(17) 0.3180(5)
H42 H 0.31950 0.48580 0.36790
C43 C 0.2915(5) 0.49451(17) 0.2076(5)
H43 H 0.31380 0.49480 0.17600
C44 C 0.2212(5) 0.49929(17) 0.1803(5)
H44 H 0.19620 0.50260 0.13030
N23 N 0.0351(4) 0.50474(13) 0.0744(4)
C45 C -0.0087(5) 0.48678(16) 0.0479(5)
H45 H -0.01590 0.47670 0.08060
C46 C 0.0433(6) 0.51736(18) 0.0251(6)
H46 H 0.07470 0.53000 0.04090
N24 N 0.5255(4) 0.50795(13) 0.5714(4)
C47 C 0.4878(5) 0.48843(17) 0.5496(6)
H47 H 0.47730 0.47990 0.58320
C48 C 0.4644(5) 0.48069(17) 0.4795(6)
H48 H 0.43990 0.46650 0.46700
Al1 Al 0.19971(16) 0.27795(5) 0.04034(15)
O1 O 0.1430(7) 0.2570(2) -0.0123(6)
C49 C 0.0991(7) 0.2479(2) -0.0774(7)
C50 C 0.1349(8) 0.2245(2) -0.0776(8)
F1 F 0.1328(7) 0.2076(2) -0.0320(6)
F2 F 0.2057(6) 0.2263(3) -0.0570(8)
F3 F 0.1110(7) 0.2134(2) -0.1402(7)
C51 C 0.0797(7) 0.2627(2) -0.1473(8)
F4 F 0.1316(6) 0.2760(2) -0.1494(6)
F5 F 0.0244(6) 0.2781(2) -0.1726(6)
F6 F 0.0621(8) 0.2487(3) -0.2050(9)
C52 C 0.0238(7) 0.2449(3) -0.0791(9)
F7 F -0.0105(10) 0.2631(3) -0.0684(8)
F8 F -0.0240(8) 0.2360(2) -0.1432(7)
F9 F 0.0278(15) 0.2300(4) -0.0279(9)
O2 O 0.2285(18) 0.2639(6) 0.1206(11)
C53 C 0.2214(11) 0.2586(3) 0.1819(8)
C54 C 0.2275(11) 0.2323(3) 0.1891(12)
F10 F 0.2389(17) 0.2244(6) 0.2544(13)
F11 F 0.2794(11) 0.2244(5) 0.1740(15)
F12 F 0.1678(11) 0.2230(5) 0.1415(12)
C55 C 0.1502(10) 0.2671(4) 0.1764(12)
F13 F 0.0987(15) 0.2637(5) 0.1104(12)
F14 F 0.1521(13) 0.2894(3) 0.1921(12)
F15 F 0.1322(17) 0.2558(5) 0.2227(14)
C56 C 0.2815(10) 0.2699(4) 0.2468(10)
F16 F 0.2918(18) 0.2908(4) 0.2267(15)
F17 F 0.3403(12) 0.2578(4) 0.2643(12)
F18 F 0.2685(13) 0.2707(4) 0.3047(11)
O3 O 0.1759(7) 0.30603(17) 0.0543(7)
C57 C 0.1439(7) 0.32598(19) 0.0307(8)
C58 C 0.1681(8) 0.3441(2) 0.0938(8)
F19 F 0.1502(7) 0.3658(2) 0.0732(7)
F20 F 0.1405(8) 0.3395(3) 0.1405(8)
F21 F 0.2377(6) 0.3437(2) 0.1316(8)
C59 C 0.0628(7) 0.3241(3) 0.0020(8)
F22 F 0.0371(10) 0.3148(3) -0.0638(7)
F23 F 0.0280(6) 0.3439(2) -0.0052(8)
F24 F 0.0449(7) 0.3111(3) 0.0450(7)
C60 C 0.1575(7) 0.3373(2) -0.0308(7)
F25 F 0.2218(6) 0.3461(2) -0.0058(8)
F26 F 0.1125(6) 0.35389(19) -0.0686(6)
F27 F 0.1538(7) 0.3208(2) -0.0774(6)
O4 O 0.2743(7) 0.2722(3) 0.0257(10)
C61 C 0.3337(7) 0.2798(3) 0.0235(9)
C62 C 0.3527(10) 0.3049(3) 0.0497(10)
F28 F 0.3288(10) 0.3136(3) 0.0949(9)
F29 F 0.4236(9) 0.3067(6) 0.0840(15)
F30 F 0.3348(9) 0.3198(4) -0.0060(9)
C63 C 0.3283(8) 0.2794(3) -0.0547(8)
F31 F 0.3789(7) 0.2917(3) -0.0620(9)
F32 F 0.2680(7) 0.2887(3) -0.0987(9)
F33 F 0.3340(9) 0.2585(2) -0.0782(8)
C64 C 0.3977(7) 0.2645(2) 0.0692(8)
F34 F 0.4553(6) 0.2666(2) 0.0563(7)
F35 F 0.3818(7) 0.24223(19) 0.0575(7)
F36 F 0.4196(8) 0.2676(3) 0.1401(6)
Al2 Al 0.28301(17) 0.44227(5) -0.03910(16)
O5 O 0.1969(8) 0.4412(4) -0.0514(13)
C65 C 0.1476(8) 0.4372(3) -0.0269(11)
C66 C 0.1593(12) 0.4532(4) 0.0377(11)
F37 F 0.1341(15) 0.4746(4) 0.0161(16)
F38 F 0.2276(12) 0.4563(6) 0.0815(17)
F39 F 0.1270(17) 0.4475(6) 0.0796(16)
C67 C 0.1398(12) 0.4114(3) -0.0139(12)
F40 F 0.1734(17) 0.4020(5) 0.0519(12)
F41 F 0.0728(12) 0.4043(4) -0.0338(15)
F42 F 0.1554(14) 0.3982(5) -0.0591(14)
C68 C 0.0742(10) 0.4436(4) -0.0879(11)
F43 F 0.0707(15) 0.4635(4) -0.1203(17)
F44 F 0.0275(15) 0.4434(6) -0.0595(16)
F45 F 0.0558(16) 0.4272(5) -0.1376(14)
O6 O 0.2550(9) 0.4273(3) -0.1162(6)
C69 C 0.2573(8) 0.4211(3) -0.1790(7)
C70 C 0.2651(9) 0.3949(2) -0.1790(9)
F46 F 0.3315(9) 0.3884(5) -0.1403(10)
F47 F 0.2224(7) 0.3848(2) -0.1543(8)
F48 F 0.2454(10) 0.3867(3) -0.2453(7)
C71 C 0.1888(8) 0.4290(3) -0.2416(8)
F49 F 0.1374(9) 0.4149(3) -0.2443(11)
F50 F 0.1940(11) 0.4285(3) -0.3041(9)
F51 F 0.1732(10) 0.4502(2) -0.2281(11)
C72 C 0.3196(8) 0.4324(3) -0.1869(9)
F52 F 0.3770(8) 0.4318(3) -0.1254(8)
F53 F 0.3066(8) 0.4544(2) -0.2060(8)
F54 F 0.3323(8) 0.4219(3) -0.2373(9)
O7 O 0.3166(15) 0.4685(2) -0.0368(13)
C73 C 0.3219(11) 0.4915(2) -0.0339(11)
C74 C 0.3692(12) 0.4977(3) 0.0462(11)
F55 F 0.4328(12) 0.4927(3) 0.0537(12)
F56 F 0.3586(17) 0.5194(3) 0.0581(15)
F57 F 0.3426(14) 0.4842(3) 0.0809(12)
C75 C 0.2511(11) 0.5038(3) -0.0589(12)
F58 F 0.2116(16) 0.4914(4) -0.1168(13)
F59 F 0.2515(16) 0.5253(3) -0.0822(14)
F60 F 0.2308(18) 0.5035(4) -0.0060(14)
C76 C 0.3578(12) 0.4999(4) -0.0808(11)
F61 F 0.4062(13) 0.4844(4) -0.0708(12)
F62 F 0.3150(12) 0.5016(4) -0.1509(10)
F63 F 0.3849(17) 0.5198(4) -0.0478(15)
O8 O 0.3325(7) 0.4255(3) 0.0320(7)
C77 C 0.3923(7) 0.4171(3) 0.0836(7)
C78 C 0.4513(7) 0.4184(3) 0.0592(8)
F64 F 0.5123(7) 0.4145(3) 0.1156(7)
F65 F 0.4404(10) 0.4030(3) 0.0075(9)
F66 F 0.4547(8) 0.4386(2) 0.0301(8)
C79 C 0.4130(8) 0.4307(3) 0.1543(8)
F67 F 0.4471(7) 0.4499(3) 0.1522(9)
F68 F 0.4565(13) 0.4191(5) 0.2118(14)
F69 F 0.3577(8) 0.4365(3) 0.1651(10)
C80 C 0.3782(8) 0.3916(3) 0.0938(8)
F70 F 0.4360(7) 0.3798(3) 0.1301(7)
F71 F 0.3388(8) 0.3898(3) 0.1297(8)
F72 F 0.3411(10) 0.3821(4) 0.0283(8)
Al3 Al 0.21884(14) 0.61350(4) 0.03937(14)
O9 O 0.2259(13) 0.64077(17) 0.0721(11)
C81 C 0.2217(8) 0.66375(18) 0.0611(9)
C82 C 0.1986(9) 0.6696(3) -0.0192(8)
F73 F 0.1292(8) 0.6680(3) -0.0568(9)
F74 F 0.2271(12) 0.6546(4) -0.0481(12)
F75 F 0.2129(13) 0.6908(3) -0.0351(15)
C83 C 0.2939(8) 0.6743(3) 0.1052(9)
F76 F 0.3362(9) 0.6709(3) 0.0730(12)
F77 F 0.2944(12) 0.6968(3) 0.1165(15)
F78 F 0.3226(10) 0.6652(4) 0.1712(10)
C84 C 0.1696(9) 0.6737(3) 0.0882(9)
F79 F 0.1565(11) 0.6958(3) 0.0712(11)
F80 F 0.1943(8) 0.6733(3) 0.1602(7)
F81 F 0.1094(11) 0.6623(4) 0.0655(12)
O10 O 0.2741(5) 0.60827(17) -0.0002(6)
C85 C 0.3348(5) 0.60090(19) 0.0009(6)
C86 C 0.3283(7) 0.57515(19) -0.0176(7)
F82 F 0.3055(6) 0.56389(16) 0.0252(6)
F83 F 0.2835(7) 0.5717(2) -0.0859(6)
F84 F 0.3900(6) 0.56591(17) -0.0067(7)
C87 C 0.3444(6) 0.61452(18) -0.0593(6)
F85 F 0.2845(5) 0.61593(17) -0.1201(5)
F86 F 0.3909(6) 0.6054(2) -0.0788(6)
F87 F 0.3636(5) 0.63613(14) -0.0379(5)
C88 C 0.3986(6) 0.6056(2) 0.0736(6)
F88 F 0.4590(6) 0.6049(2) 0.0669(7)
F89 F 0.3948(11) 0.6264(2) 0.0991(9)
F90 F 0.4030(7) 0.58943(19) 0.1218(6)
O11 O 0.1334(5) 0.61245(19) -0.0248(5)
C89 C 0.0835(5) 0.6005(2) -0.0805(6)
C90 C 0.0910(7) 0.6043(2) -0.1515(6)
F91 F 0.1077(7) 0.6259(2) -0.1582(7)
F92 F 0.1425(6) 0.5915(2) -0.1520(6)
F93 F 0.0331(7) 0.5994(3) -0.2108(6)
C91 C 0.0896(8) 0.5746(2) -0.0630(7)
F94 F 0.1564(7) 0.5677(2) -0.0348(8)
F95 F 0.0643(11) 0.5697(3) -0.0143(9)
F96 F 0.0537(8) 0.5616(2) -0.1215(7)
C92 C 0.0111(6) 0.6090(2) -0.0906(7)
F97 F -0.0035(6) 0.6291(2) -0.1248(7)
F98 F 0.0085(7) 0.6121(3) -0.0276(6)
F99 F -0.0402(6) 0.5948(3) -0.1304(7)
O12 O 0.2328(6) 0.59422(18) 0.1069(5)
C93 C 0.2340(6) 0.58986(19) 0.1729(5)
C94 C 0.1638(6) 0.5959(2) 0.1742(6)
F100 F 0.1382(5) 0.61572(16) 0.1418(5)
F101 F 0.1673(5) 0.59628(19) 0.2411(4)
F102 F 0.1144(6) 0.57977(19) 0.1408(6)
C95 C 0.2506(7) 0.56423(19) 0.1873(6)
F103 F 0.2375(5) 0.55658(16) 0.2421(5)
F104 F 0.3173(5) 0.56007(18) 0.2028(6)
F105 F 0.2112(7) 0.55178(18) 0.1293(5)
C96 C 0.2920(6) 0.6042(2) 0.2318(6)
F106 F 0.2705(6) 0.62573(15) 0.2320(5)
F107 F 0.3131(11) 0.5961(3) 0.2985(7)
F108 F 0.3474(5) 0.6061(2) 0.2179(5)
Al4 Al 0.72541(15) 0.28129(5) 0.55529(14)
O13 O 0.7166(4) 0.26748(13) 0.6246(4)
C97 C 0.7439(5) 0.25740(17) 0.6901(5)
C98 C 0.7539(5) 0.23176(17) 0.6798(5)
F109 F 0.6928(4) 0.22028(14) 0.6497(5)
F110 F 0.7841(4) 0.22795(13) 0.6360(5)
F111 F 0.7917(4) 0.22042(13) 0.7419(4)
C99 C 0.8154(5) 0.26807(19) 0.7412(5)
F112 F 0.8664(5) 0.26014(18) 0.7247(5)
F113 F 0.8344(6) 0.2631(2) 0.8105(4)
F114 F 0.8128(5) 0.29078(15) 0.7342(5)
C100 C 0.6911(5) 0.25992(18) 0.7229(6)
F115 F 0.7026(4) 0.24440(15) 0.7762(4)
F116 F 0.6948(5) 0.28045(15) 0.7521(5)
F117 F 0.6257(4) 0.25613(15) 0.6752(4)
O14 O 0.7474(6) 0.30993(13) 0.5658(6)
C101 C 0.7205(7) 0.33152(16) 0.5645(6)
C102 C 0.6838(7) 0.3331(2) 0.6143(7)
F118 F 0.6412(7) 0.31486(18) 0.6059(7)
F119 F 0.7291(8) 0.3333(2) 0.6841(6)
F120 F 0.6452(9) 0.3515(2) 0.6030(8)
C103 C 0.7846(7) 0.3477(2) 0.5900(8)
F121 F 0.8353(7) 0.3381(2) 0.6484(9)
F122 F 0.7736(10) 0.3686(2) 0.6086(10)
F123 F 0.8059(7) 0.35019(19) 0.5384(8)
C104 C 0.6687(6) 0.3378(2) 0.4872(6)
F124 F 0.6598(7) 0.36024(17) 0.4767(9)
F125 F 0.6929(7) 0.3296(3) 0.4408(7)
F126 F 0.6059(5) 0.32867(17) 0.4687(6)
O15 O 0.7951(8) 0.2679(3) 0.5473(12)
C105 C 0.8476(6) 0.2682(2) 0.5260(7)
C106 C 0.8353(7) 0.2852(2) 0.4644(7)
F127 F 0.7687(7) 0.2852(3) 0.4168(11)
F128 F 0.8492(11) 0.3070(2) 0.4874(9)
F129 F 0.8743(9) 0.2817(2) 0.4280(8)
C107 C 0.9173(7) 0.2743(3) 0.5913(7)
F130 F 0.9107(12) 0.2926(3) 0.6264(9)
F131 F 0.9687(7) 0.2794(3) 0.5721(8)
F132 F 0.9420(13) 0.2576(3) 0.6402(8)
C108 C 0.8550(7) 0.2439(2) 0.5003(7)
F133 F 0.9149(6) 0.24067(19) 0.4941(8)
F134 F 0.8531(10) 0.2278(3) 0.5448(8)
F135 F 0.8019(9) 0.2399(3) 0.4360(8)
O16 O 0.6483(4) 0.27765(13) 0.4811(4)
C109 C 0.5929(5) 0.26475(16) 0.4388(5)
C110 C 0.6200(5) 0.24222(15) 0.4201(5)
F136 F 0.6457(4) 0.24561(12) 0.3725(4)
F137 F 0.6708(3) 0.23316(11) 0.4794(4)
F138 F 0.5706(4) 0.22630(11) 0.3921(4)
C111 C 0.5443(5) 0.25945(17) 0.4751(5)
F139 F 0.5704(4) 0.24222(11) 0.5225(4)
F140 F 0.4808(4) 0.25307(15) 0.4258(5)
F141 F 0.5387(4) 0.27755(13) 0.5118(5)
C112 C 0.5524(5) 0.27877(17) 0.3689(5)
F142 F 0.5095(4) 0.26563(13) 0.3141(4)
F143 F 0.5140(4) 0.29501(13) 0.3799(4)
F144 F 0.5953(4) 0.28901(12) 0.3462(4)
Al5 Al 0.31131(15) 0.38210(5) 0.46917(14)
O17 O 0.2809(5) 0.39738(19) 0.3899(4)
C113 C 0.2901(6) 0.40326(17) 0.3300(5)
C114 C 0.2443(6) 0.42459(18) 0.2957(6)
F145 F 0.2639(6) 0.43548(16) 0.2494(5)
F146 F 0.1774(5) 0.41879(16) 0.2589(5)
F147 F 0.2496(6) 0.43954(17) 0.3468(6)
C115 C 0.3684(5) 0.40918(18) 0.3523(5)
F148 F 0.3832(5) 0.42978(14) 0.3842(5)
F149 F 0.3845(6) 0.41022(16) 0.2958(5)
F150 F 0.4111(5) 0.39478(15) 0.3994(5)
C116 C 0.2701(6) 0.38321(18) 0.2754(5)
F151 F 0.2566(5) 0.39057(14) 0.2087(4)
F152 F 0.3203(6) 0.36729(16) 0.2976(6)
F153 F 0.2117(5) 0.37322(15) 0.2701(5)
O18 O 0.3303(6) 0.35453(12) 0.4528(6)
C117 C 0.3656(5) 0.33476(14) 0.4796(5)
C118 C 0.4454(5) 0.33828(16) 0.5105(6)
F154 F 0.4621(4) 0.35241(13) 0.4685(5)
F155 F 0.4809(4) 0.31868(13) 0.5178(5)
F156 F 0.4703(4) 0.34775(14) 0.5762(4)
C119 C 0.3424(6) 0.31779(17) 0.4156(6)
F157 F 0.3726(5) 0.32235(14) 0.3716(5)
F158 F 0.3584(8) 0.29604(15) 0.4377(7)
F159 F 0.2740(4) 0.31830(13) 0.3760(4)
C120 C 0.3461(5) 0.32514(17) 0.5389(6)
F160 F 0.3903(4) 0.30883(12) 0.5777(4)
F161 F 0.2818(4) 0.31601(14) 0.5116(5)
F162 F 0.3469(5) 0.34161(14) 0.5844(4)
O19 O 0.2492(4) 0.38438(16) 0.5018(6)
C121 C 0.1787(4) 0.38344(17) 0.4830(5)
C122 C 0.1539(5) 0.35876(17) 0.4589(5)
F163 F 0.1777(3) 0.35034(12) 0.4128(4)
F164 F 0.1743(4) 0.34456(13) 0.5158(4)
F165 F 0.0839(4) 0.35782(15) 0.4245(5)
C123 C 0.1686(5) 0.38958(19) 0.5508(6)
F166 F 0.2179(4) 0.38001(16) 0.6095(4)
F167 F 0.1062(4) 0.38236(15) 0.5453(5)
F168 F 0.1736(5) 0.41237(14) 0.5603(5)
C124 C 0.1366(5) 0.40004(18) 0.4209(6)
F169 F 0.0737(4) 0.40454(15) 0.4183(5)
F170 F 0.1704(4) 0.42002(12) 0.4292(4)
F171 F 0.1270(4) 0.39207(14) 0.3561(4)
O20 O 0.3882(4) 0.39398(12) 0.5336(4)
C125 C 0.4196(5) 0.40912(16) 0.5892(5)
C126 C 0.4310(5) 0.39777(16) 0.6618(5)
F172 F 0.4845(4) 0.38262(12) 0.6835(4)
F173 F 0.3740(4) 0.38613(12) 0.6552(4)
F174 F 0.4457(4) 0.41246(12) 0.7167(4)
C127 C 0.3738(5) 0.43077(15) 0.5791(5)
F175 F 0.3461(4) 0.43762(12) 0.5102(3)
F176 F 0.3205(3) 0.42706(11) 0.5961(4)
F177 F 0.4107(3) 0.44849(11) 0.6193(4)
C128 C 0.4911(5) 0.41628(15) 0.5918(5)
F178 F 0.5326(5) 0.42613(14) 0.6543(4)
F179 F 0.4816(5) 0.43127(14) 0.5392(4)
F180 F 0.5258(4) 0.39824(11) 0.5847(4)
Al6 Al 0.79124(14) 0.45196(5) 0.46244(15)
O21 O 0.7448(11) 0.4399(5) 0.3787(9)
C129 C 0.7445(8) 0.4297(3) 0.3185(7)
C130 C 0.6719(7) 0.4337(2) 0.2546(8)
F181 F 0.6235(6) 0.4199(2) 0.2596(6)
F182 F 0.6496(7) 0.4550(2) 0.2548(6)
F183 F 0.6720(13) 0.4310(3) 0.1899(9)
C131 C 0.8023(7) 0.4395(3) 0.2994(8)
F184 F 0.7843(8) 0.4602(2) 0.2692(7)
F185 F 0.8165(12) 0.4255(3) 0.2557(8)
F186 F 0.8616(6) 0.4424(3) 0.3593(6)
C132 C 0.7555(8) 0.4036(3) 0.3313(8)
F187 F 0.7370(9) 0.3914(4) 0.2699(8)
F188 F 0.8222(6) 0.3985(3) 0.3743(7)
F189 F 0.7166(8) 0.3951(2) 0.3633(8)
O22 O 0.8621(7) 0.4346(3) 0.5093(10)
C133 C 0.9274(6) 0.4317(2) 0.5633(7)
C134 C 0.9793(6) 0.4291(2) 0.5284(7)
F190 F 1.0456(5) 0.4295(2) 0.5778(6)
F191 F 0.9713(8) 0.4460(2) 0.4820(7)
F192 F 0.9684(9) 0.4095(2) 0.4916(8)
C135 C 0.9263(7) 0.4093(2) 0.6024(7)
F193 F 0.8882(8) 0.3935(3) 0.5545(9)
F194 F 0.9897(6) 0.4004(2) 0.6401(7)
F195 F 0.8962(10) 0.4126(3) 0.6476(9)
C136 C 0.9510(7) 0.4518(2) 0.6171(7)
F196 F 1.0025(7) 0.4454(3) 0.6803(7)
F197 F 0.8995(8) 0.4597(3) 0.6318(11)
F198 F 0.9750(14) 0.4697(3) 0.5928(14)
O23 O 0.8225(6) 0.47901(12) 0.4623(7)
C137 C 0.8087(6) 0.50177(15) 0.4509(6)
C138 C 0.7947(6) 0.51163(18) 0.5134(6)
F199 F 0.7297(5) 0.50724(14) 0.5047(6)
F200 F 0.8413(6) 0.5034(2) 0.5777(5)
F201 F 0.7981(7) 0.53462(15) 0.5174(8)
C139 C 0.8743(6) 0.51387(19) 0.4512(7)
F202 F 0.9247(5) 0.51569(17) 0.5178(6)
F203 F 0.8609(6) 0.53475(16) 0.4225(7)
F204 F 0.8967(6) 0.50128(16) 0.4091(6)
C140 C 0.7451(6) 0.50627(18) 0.3788(6)
F205 F 0.7209(9) 0.52770(17) 0.3735(7)
F206 F 0.7620(6) 0.50375(15) 0.3242(5)
F207 F 0.6931(6) 0.49170(18) 0.3729(6)
O24 O 0.7336(3) 0.45389(11) 0.5013(4)
C141 C 0.6819(4) 0.44293(14) 0.5119(4)
C142 C 0.7036(5) 0.41835(15) 0.5397(5)
F208 F 0.7517(3) 0.41870(11) 0.6085(3)
F209 F 0.7310(3) 0.40757(10) 0.5006(4)
F210 F 0.6496(3) 0.40599(11) 0.5375(4)
C143 C 0.6133(4) 0.44232(15) 0.4414(5)
F211 F 0.6137(3) 0.42555(11) 0.3977(3)
F212 F 0.5569(3) 0.43952(12) 0.4543(3)
F213 F 0.6048(3) 0.46219(11) 0.4058(3)
C144 C 0.6695(4) 0.45700(14) 0.5700(4)
F214 F 0.6323(3) 0.44578(11) 0.5985(3)
F215 F 0.6360(3) 0.47662(10) 0.5414(3)
F216 F 0.7307(3) 0.46296(11) 0.6240(3)
O25? O 0.1217(7) 0.2682(2) -0.0285(7)
C145? C 0.0936(7) 0.2515(2) -0.0797(7)
C146? C 0.0915(8) 0.2618(3) -0.1495(8)
F217? F 0.1552(6) 0.2600(3) -0.1483(7)
F218? F 0.0429(9) 0.2531(4) -0.2065(11)
F219? F 0.0857(7) 0.2826(2) -0.1308(6)
C147? C 0.0254(8) 0.2422(3) -0.0795(9)
F220? F 0.0388(15) 0.2340(4) -0.0140(9)
F221? F -0.0105(11) 0.2611(3) -0.0934(8)
F222? F -0.0074(8) 0.2261(2) -0.1288(8)
C148? C 0.1401(7) 0.2304(2) -0.0695(8)
F223? F 0.1655(7) 0.2248(2) -0.0014(6)
F224? F 0.1007(6) 0.2129(2) -0.1084(6)
F225? F 0.1878(6) 0.2354(2) -0.0924(7)
O26? O 0.2218(12) 0.2694(4) 0.1267(8)
C149? C 0.2365(8) 0.2559(3) 0.1843(6)
C150? C 0.1773(8) 0.2564(3) 0.2095(8)
F226? F 0.1149(7) 0.2543(3) 0.1529(8)
F227? F 0.1824(8) 0.2395(3) 0.2549(8)
F228? F 0.1775(8) 0.2760(2) 0.2424(8)
C151? C 0.3058(8) 0.2638(3) 0.2473(8)
F229? F 0.3607(7) 0.2583(3) 0.2347(9)
F230? F 0.3099(11) 0.2863(3) 0.2562(12)
F231? F 0.3169(10) 0.2547(3) 0.3112(8)
C152? C 0.2473(8) 0.2306(3) 0.1674(8)
F232? F 0.2836(7) 0.2300(2) 0.1276(8)
F233? F 0.2810(7) 0.2175(2) 0.2257(7)
F234? F 0.1861(7) 0.2204(3) 0.1275(9)
O27? O 0.2266(18) 0.2657(6) 0.1232(12)
C153? C 0.2111(11) 0.2600(3) 0.1794(8)
C154? C 0.2556(11) 0.2386(3) 0.2134(11)
F235? F 0.3228(10) 0.2439(4) 0.2514(11)
F236? F 0.2519(15) 0.2237(5) 0.1624(14)
F237? F 0.2301(18) 0.2286(6) 0.2556(16)
C155? C 0.2305(12) 0.2801(3) 0.2329(11)
F238? F 0.2353(13) 0.2726(4) 0.2965(11)
F239? F 0.1837(12) 0.2972(4) 0.2123(13)
F240? F 0.2915(15) 0.2895(6) 0.243(2)
C156? C 0.1321(11) 0.2548(4) 0.1501(12)
F241? F 0.1108(15) 0.2544(5) 0.2029(13)
F242? F 0.1173(13) 0.2343(3) 0.1191(12)
F243? F 0.0933(16) 0.2709(4) 0.1037(14)
O28? O 0.1807(9) 0.3058(2) 0.0240(9)
C157? C 0.1398(8) 0.3231(2) 0.0321(9)
C158? C 0.0673(8) 0.3129(3) 0.0152(9)
F244? F 0.0705(7) 0.2926(2) 0.0470(8)
F245? F 0.0332(8) 0.3271(3) 0.0405(8)
F246? F 0.0265(12) 0.3104(4) -0.0549(9)
C159? C 0.1393(9) 0.3407(3) -0.0232(9)
F247? F 0.2003(8) 0.3514(3) 0.0026(12)
F248? F 0.1274(9) 0.3310(3) -0.0866(8)
F249? F 0.0883(8) 0.3551(3) -0.0327(10)
C160? C 0.1760(9) 0.3311(3) 0.1110(8)
F250? F 0.2453(8) 0.3328(4) 0.1340(12)
F251? F 0.1517(9) 0.3519(3) 0.1155(10)
F252? F 0.1650(9) 0.3173(3) 0.1564(8)
O29? O 0.2602(6) 0.2788(3) 0.0062(8)
C161? C 0.3316(6) 0.2805(3) 0.0259(8)
C162? C 0.3721(7) 0.2639(2) 0.0887(7)
F253? F 0.4361(6) 0.2606(2) 0.0914(7)
F254? F 0.3819(7) 0.2725(2) 0.1533(6)
F255? F 0.3405(7) 0.24381(19) 0.0805(6)
C163? C 0.3542(9) 0.3050(3) 0.0540(9)
F256? F 0.3143(8) 0.3197(3) 0.0045(9)
F257? F 0.3424(10) 0.3064(3) 0.1128(9)
F258? F 0.4208(8) 0.3111(5) 0.0733(15)
C164? C 0.3410(8) 0.2745(3) -0.0421(8)
F259? F 0.2905(7) 0.2838(3) -0.1010(8)
F260? F 0.4020(6) 0.2822(2) -0.0373(7)
F261? F 0.3379(8) 0.2517(2) -0.0492(7)
O30? O 0.2185(9) 0.4354(4) -0.0134(13)
C165? C 0.1569(8) 0.4440(3) -0.0151(10)
C166? C 0.0975(10) 0.4281(3) -0.0617(11)
F262? F 0.075(2) 0.4320(6) -0.1324(13)
F263? F 0.0439(11) 0.4314(4) -0.0448(13)
F264? F 0.1192(13) 0.4065(4) -0.0471(16)
C167? C 0.1723(11) 0.4456(3) 0.0648(10)
F265? F 0.2351(11) 0.4551(5) 0.1046(15)
F266? F 0.1720(13) 0.4248(3) 0.0897(12)
F267? F 0.1247(11) 0.4590(4) 0.0702(14)
C168? C 0.1461(11) 0.4680(3) -0.0497(11)
F268? F 0.1893(12) 0.4843(4) -0.0081(12)
F269? F 0.0801(10) 0.4748(4) -0.0681(14)
F270? F 0.1530(15) 0.4664(5) -0.1112(12)
O31? O 0.2121(9) 0.4458(3) -0.0187(14)
C169? C 0.1541(7) 0.4381(3) -0.0144(10)
C170? C 0.1600(9) 0.4122(3) 0.0014(10)
F271? F 0.1798(10) 0.4009(3) -0.0419(11)
F272? F 0.0997(9) 0.4042(4) -0.0027(13)
F273? F 0.2088(8) 0.4105(3) 0.0691(9)
C171? C 0.1455(10) 0.4494(3) 0.0499(9)
F274? F 0.1277(9) 0.4711(3) 0.0368(10)
F275? F 0.2059(10) 0.4487(4) 0.1094(10)
F276? F 0.0961(11) 0.4396(3) 0.0656(10)
C172? C 0.0894(9) 0.4436(3) -0.0854(9)
F277? F 0.0980(12) 0.4652(3) -0.1026(12)
F278? F 0.0274(11) 0.4433(4) -0.0822(13)
F279? F 0.0851(15) 0.4307(4) -0.1408(12)
O32? O 0.2848(10) 0.4351(3) -0.1192(7)
C173? C 0.2655(9) 0.4219(3) -0.1786(7)
C174? C 0.3224(8) 0.4237(3) -0.2071(8)
F280? F 0.3184(8) 0.4436(3) -0.2401(9)
F281? F 0.3167(8) 0.4068(3) -0.2535(8)
F282? F 0.3861(7) 0.4217(3) -0.1540(7)
C175? C 0.2600(9) 0.3967(3) -0.1602(9)
F283? F 0.2252(8) 0.3943(3) -0.1198(8)
F284? F 0.3224(8) 0.3871(4) -0.1222(9)
F285? F 0.2261(9) 0.3837(3) -0.2189(8)
C176? C 0.1952(8) 0.4302(3) -0.2372(9)
F286? F 0.1431(9) 0.4241(3) -0.2192(9)
F287? F 0.1785(12) 0.4208(4) -0.3021(10)
F288? F 0.1921(11) 0.4529(3) -0.2462(11)
O33? O 0.3237(14) 0.4682(3) -0.0103(12)
C177? C 0.3596(10) 0.4862(2) -0.0205(10)
C178? C 0.4323(10) 0.4779(3) -0.0120(11)
F289? F 0.4781(13) 0.4758(3) 0.0579(9)
F290? F 0.4615(14) 0.4924(4) -0.0413(12)
F291? F 0.4290(14) 0.4576(3) -0.0439(13)
C179? C 0.3242(12) 0.4973(3) -0.0957(10)
F292? F 0.2556(12) 0.5005(4) -0.1166(15)
F293? F 0.3264(14) 0.4843(4) -0.1483(12)
F294? F 0.3514(16) 0.5182(4) -0.097(2)
C180? C 0.3686(12) 0.5046(3) 0.037(1)
F295? F 0.3082(12) 0.5157(4) 0.0267(16)
F296? F 0.4140(11) 0.5208(3) 0.041(1)
F297? F 0.3859(14) 0.4949(3) 0.102(1)
O34? O 0.283(2) 0.4695(2) -0.0728(17)
C181? C 0.2692(14) 0.4921(2) -0.0683(13)
C182? C 0.3000(17) 0.5072(4) -0.1088(16)
F298? F 0.3661(18) 0.5114(8) -0.098(3)
F299? F 0.268(2) 0.5266(5) -0.105(2)
F300? F 0.268(2) 0.4994(7) -0.1765(18)
C183? C 0.1879(14) 0.4934(5) -0.1065(16)
F301? F 0.158(3) 0.4730(6) -0.113(3)
F302? F 0.173(2) 0.5006(6) -0.1727(17)
F303? F 0.172(2) 0.5064(6) -0.064(2)
C184? C 0.2927(16) 0.5013(4) 0.0089(13)
F304? F 0.2663(15) 0.4890(4) 0.0457(15)
F305? F 0.276(2) 0.5230(4) 0.016(2)
F306? F 0.3613(16) 0.4982(7) 0.031(2)
O35? O 0.3526(11) 0.4236(4) 0.0128(11)
C185? C 0.3921(8) 0.4122(3) 0.0734(9)
C186? C 0.4676(8) 0.4072(3) 0.0817(10)
F307? F 0.4631(13) 0.3994(5) 0.0182(10)
F308? F 0.5065(10) 0.3913(3) 0.1304(9)
F309? F 0.5087(11) 0.4257(3) 0.0981(11)
C187? C 0.4017(12) 0.4258(4) 0.1426(12)
F310? F 0.3438(11) 0.4249(4) 0.1532(13)
F311? F 0.4144(11) 0.4478(4) 0.1365(14)
F312? F 0.4545(18) 0.4184(8) 0.203(2)
C188? C 0.3628(10) 0.3884(3) 0.0813(11)
F313? F 0.2941(9) 0.3901(4) 0.0627(13)
F314? F 0.3896(12) 0.3778(4) 0.1461(9)
F315? F 0.3672(11) 0.3727(4) 0.0352(10)
O36? O 0.3635(13) 0.4467(7) 0.0308(19)
C189? C 0.4208(10) 0.4362(6) 0.0833(12)
C190? C 0.4787(18) 0.4353(8) 0.056(2)
F316? F 0.461(3) 0.4174(9) 0.012(3)
F317? F 0.542(2) 0.4325(12) 0.109(3)
F318? F 0.480(3) 0.4540(9) 0.019(3)
C191? C 0.4429(18) 0.4510(7) 0.1513(15)
F319? F 0.389(2) 0.4615(10) 0.156(3)
F320? F 0.480(3) 0.4669(9) 0.135(3)
F321? F 0.482(3) 0.4412(10) 0.214(2)
C192? C 0.397(2) 0.4119(6) 0.091(2)
F322? F 0.371(3) 0.4115(13) 0.140(3)
F323? F 0.451(3) 0.3973(11) 0.111(3)
F324? F 0.347(3) 0.4040(12) 0.029(2)
O37? O 0.2370(18) 0.6408(2) 0.0729(16)
C193? C 0.2235(11) 0.6636(2) 0.0591(11)
C194? C 0.2470(11) 0.6708(4) 0.0006(11)
F325? F 0.3171(10) 0.6705(4) 0.0289(14)
F326? F 0.2276(16) 0.6924(4) -0.019(2)
F327? F 0.2198(18) 0.6574(6) -0.0576(17)
C195? C 0.1451(10) 0.6692(3) 0.0328(12)
F328? F 0.1176(14) 0.6562(5) 0.0680(16)
F329? F 0.1091(14) 0.6648(5) -0.0380(12)
F330? F 0.1324(14) 0.6912(3) 0.0416(14)
C196? C 0.2684(12) 0.6766(3) 0.1289(10)
F331? F 0.2397(16) 0.6746(5) 0.1743(14)
F332? F 0.2698(19) 0.6985(4) 0.1124(19)
F333? F 0.3333(14) 0.6684(6) 0.1596(19)
O38? O 0.2401(18) 0.6417(2) 0.058(2)
C197? C 0.2172(13) 0.6639(2) 0.0512(14)
C198? C 0.1621(16) 0.6678(5) -0.0274(13)
F334? F 0.177(2) 0.6583(5) -0.078(2)
F335? F 0.153(2) 0.6902(4) -0.0416(17)
F336? F 0.101(2) 0.6588(7) -0.036(2)
C199? C 0.2808(13) 0.6794(4) 0.0684(17)
F337? F 0.298(2) 0.6803(6) 0.0126(19)
F338? F 0.3373(19) 0.6710(6) 0.124(2)
F339? F 0.271(2) 0.7010(4) 0.082(2)
C200? C 0.1798(16) 0.6677(5) 0.1005(16)
F340? F 0.140(2) 0.6493(6) 0.096(2)
F341? F 0.137(2) 0.6860(6) 0.081(2)
F342? F 0.222(2) 0.6702(10) 0.1704(18)
O39? O 0.2901(13) 0.6003(5) 0.035(2)
C201? C 0.344(1) 0.5998(4) 0.0166(14)
C202? C 0.4125(13) 0.6075(5) 0.0812(14)
F343? F 0.396(3) 0.6251(7) 0.113(3)
F344? F 0.462(2) 0.6139(6) 0.061(2)
F345? F 0.4380(18) 0.5908(5) 0.1301(18)
C203? C 0.3547(15) 0.5752(4) -0.0053(15)
F346? F 0.3056(19) 0.5684(8) -0.0694(16)
F347? F 0.353(2) 0.5603(5) 0.0436(16)
F348? F 0.4168(15) 0.5725(5) -0.0073(19)
C204? C 0.3323(14) 0.6161(4) -0.0469(14)
F349? F 0.2654(13) 0.6156(5) -0.0960(16)
F350? F 0.3722(18) 0.6115(6) -0.081(2)
F351? F 0.3464(19) 0.6377(5) -0.023(2)
O40? O 0.1505(11) 0.6072(6) -0.0417(12)
C205? C 0.0839(8) 0.6007(4) -0.0833(10)
C206? C 0.0716(15) 0.5758(4) -0.0659(15)
F352? F 0.1275(15) 0.5627(6) -0.053(2)
F353? F 0.0172(16) 0.5671(6) -0.1226(15)
F354? F 0.057(3) 0.5748(9) -0.009(2)
C207? C 0.0298(14) 0.6163(4) -0.0731(13)
F355? F 0.022(2) 0.6369(4) -0.1040(17)
F356? F 0.0498(19) 0.6198(6) -0.0027(13)
F357? F -0.0332(14) 0.6062(5) -0.1003(17)
C208? C 0.0705(13) 0.6021(5) -0.1637(11)
F358? F 0.089(2) 0.6226(5) -0.178(2)
F359? F 0.0018(13) 0.5999(7) -0.2036(16)
F360? F 0.1044(17) 0.5858(5) -0.1810(18)
O41? O 0.1470(16) 0.6078(7) -0.0389(15)
C209? C 0.0936(10) 0.5940(5) -0.0821(10)
C210? C 0.0433(15) 0.5898(6) -0.0468(16)
F361? F 0.075(3) 0.5740(8) 0.005(2)
F362? F -0.0204(17) 0.5810(8) -0.086(2)
F363? F 0.035(3) 0.6077(7) -0.010(2)
C211? C 0.0579(16) 0.6060(5) -0.1563(13)
F364? F 0.111(2) 0.6139(8) -0.170(3)
F365? F 0.020(2) 0.6243(6) -0.156(2)
F366? F 0.018(3) 0.5926(7) -0.211(2)
C212? C 0.1249(16) 0.5711(5) -0.0923(16)
F367? F 0.1569(19) 0.5724(7) -0.1361(18)
F368? F 0.075(2) 0.5553(7) -0.120(3)
F369? F 0.172(2) 0.5629(10) -0.0293(18)
O42? O 0.2092(18) 0.5971(6) 0.1038(13)
C213? C 0.2311(13) 0.5888(4) 0.1715(10)
C214? C 0.3014(12) 0.5987(4) 0.2264(16)
F370? F 0.3567(14) 0.5886(6) 0.2230(19)
F371? F 0.308(3) 0.5956(10) 0.294(2)
F372? F 0.3087(19) 0.6211(4) 0.2185(15)
C215? C 0.1741(13) 0.5940(4) 0.1981(14)
F373? F 0.1127(17) 0.5914(7) 0.1409(16)
F374? F 0.1775(17) 0.6150(5) 0.2248(17)
F375? F 0.1779(17) 0.5796(5) 0.2500(14)
C216? C 0.2399(12) 0.5624(3) 0.1711(12)
F376? F 0.1765(12) 0.5529(5) 0.1369(13)
F377? F 0.2733(15) 0.5527(5) 0.2361(11)
F378? F 0.2775(13) 0.5563(5) 0.1359(13)
O43? O 0.758(2) 0.2660(6) 0.6335(13)
C217? C 0.7560(15) 0.2588(5) 0.6954(10)
C218? C 0.6938(15) 0.2691(6) 0.7055(18)
F379? F 0.702(2) 0.2916(6) 0.719(3)
F380? F 0.688(2) 0.2594(9) 0.762(2)
F381? F 0.6318(19) 0.2673(8) 0.6482(19)
C219? C 0.7495(18) 0.2324(4) 0.6924(17)
F382? F 0.794(2) 0.2226(8) 0.671(2)
F383? F 0.6845(19) 0.2278(10) 0.644(3)
F384? F 0.759(3) 0.2244(8) 0.7568(18)
C220? C 0.8261(15) 0.2653(6) 0.7591(16)
F385? F 0.880(2) 0.2552(9) 0.754(3)
F386? F 0.825(3) 0.2583(10) 0.820(2)
F387? F 0.835(3) 0.2879(6) 0.761(3)
O44? O 0.733(2) 0.3096(2) 0.5785(19)
C221? C 0.7211(13) 0.3321(2) 0.5680(13)
C222? C 0.7118(15) 0.3415(5) 0.4939(12)
F388? F 0.7736(14) 0.3448(6) 0.4913(16)
F389? F 0.683(2) 0.3624(5) 0.483(3)
F390? F 0.669(2) 0.3291(7) 0.437(2)
C223? C 0.6543(13) 0.3375(5) 0.5783(15)
F391? F 0.656(2) 0.3246(7) 0.6327(17)
F392? F 0.6037(16) 0.3305(6) 0.5160(15)
F393? F 0.648(3) 0.3591(5) 0.593(2)
C224? C 0.7827(13) 0.3456(4) 0.6268(12)
F394? F 0.7882(19) 0.3392(5) 0.6915(14)
F395? F 0.764(3) 0.3676(5) 0.620(3)
F396? F 0.8426(16) 0.3430(6) 0.621(2)
O45? O 0.7967(14) 0.2677(6) 0.552(2)
C225? C 0.8477(8) 0.2681(3) 0.5279(11)
C226? C 0.8871(11) 0.2912(3) 0.5486(11)
F397? F 0.8540(18) 0.3089(5) 0.5059(14)
F398? F 0.9501(11) 0.2894(4) 0.5482(14)
F399? F 0.8950(19) 0.2977(6) 0.6141(13)
C227? C 0.9003(10) 0.2487(3) 0.5658(11)
F400? F 0.8684(16) 0.2293(5) 0.5675(14)
F401? F 0.942(2) 0.2539(5) 0.6346(12)
F402? F 0.9417(11) 0.2442(4) 0.5335(12)
C228? C 0.8149(10) 0.2652(4) 0.4451(10)
F403? F 0.7963(17) 0.2437(4) 0.4246(18)
F404? F 0.8577(11) 0.2714(4) 0.4158(12)
F405? F 0.7582(12) 0.2785(5) 0.4153(18)
O46? O 0.7798(15) 0.2826(6) 0.5136(18)
C229? C 0.8354(11) 0.2731(4) 0.5059(13)
C230? C 0.8421(15) 0.2860(5) 0.4441(14)
F406? F 0.7785(15) 0.2891(7) 0.3909(18)
F407? F 0.882(2) 0.2744(8) 0.421(3)
F408? F 0.8711(19) 0.3064(5) 0.468(2)
C231? C 0.9019(15) 0.2759(6) 0.5770(14)
F409? F 0.903(2) 0.2610(6) 0.6269(19)
F410? F 0.908(3) 0.2968(6) 0.606(3)
F411? F 0.958(2) 0.2726(9) 0.564(3)
C232? C 0.8168(15) 0.2476(4) 0.4883(16)
F412? F 0.794(2) 0.2379(6) 0.5330(18)
F413? F 0.8735(17) 0.2361(7) 0.495(2)
F414? F 0.7659(18) 0.2456(7) 0.4219(16)
O47? O 0.2643(17) 0.3949(7) 0.3865(12)
C233? C 0.2648(12) 0.4037(4) 0.3250(8)
C234? C 0.1940(12) 0.3987(4) 0.2596(11)
F415? F 0.173(2) 0.3774(4) 0.2616(18)
F416? F 0.1954(18) 0.4020(6) 0.1956(14)
F417? F 0.1435(19) 0.4123(6) 0.261(2)
C235? C 0.2757(15) 0.4298(4) 0.3317(15)
F418? F 0.3403(15) 0.4349(5) 0.3798(15)
F419? F 0.229(2) 0.4384(8) 0.353(2)
F420? F 0.265(2) 0.4409(7) 0.2706(16)
C236? C 0.3242(14) 0.3924(5) 0.3115(15)
F421? F 0.3822(18) 0.3892(7) 0.3718(15)
F422? F 0.341(2) 0.4045(6) 0.2659(17)
F423? F 0.302(2) 0.3720(6) 0.281(2)
O48? O 0.330(2) 0.3539(2) 0.464(3)
C237? C 0.3166(12) 0.3313(2) 0.4570(12)
C238? C 0.3819(12) 0.3186(4) 0.4586(15)
F424? F 0.4106(16) 0.3298(5) 0.4210(17)
F425? F 0.368(3) 0.2975(5) 0.431(3)
F426? F 0.4334(17) 0.3168(6) 0.5254(14)
C239? C 0.2980(14) 0.3218(4) 0.5170(13)
F427? F 0.2326(13) 0.3265(5) 0.5080(18)
F428? F 0.3390(17) 0.3310(5) 0.5812(16)
F429? F 0.3044(17) 0.2990(4) 0.5250(18)
C240? C 0.2543(12) 0.3262(4) 0.3830(12)
F430? F 0.2020(14) 0.3412(4) 0.3679(16)
F431? F 0.2274(15) 0.3053(4) 0.3768(16)
F432? F 0.2744(15) 0.3284(5) 0.3296(15)
O49? O 0.2455(16) 0.3797(6) 0.499(2)
C241? C 0.1915(9) 0.3885(4) 0.5098(12)
C242? C 0.2082(13) 0.4136(4) 0.5368(14)
F433? F 0.2529(15) 0.4155(6) 0.6067(13)
F434? F 0.1526(14) 0.4265(6) 0.5267(18)
F435? F 0.2379(17) 0.4235(5) 0.4983(17)
C243? C 0.1210(12) 0.3880(4) 0.4409(12)
F436? F 0.1124(18) 0.3679(4) 0.4068(17)
F437? F 0.1193(19) 0.4035(5) 0.3923(19)
F438? F 0.0624(14) 0.3914(6) 0.4502(17)
C244? C 0.1765(13) 0.3754(4) 0.5681(12)
F439? F 0.1428(16) 0.3555(4) 0.5427(16)
F440? F 0.1366(15) 0.3859(5) 0.5964(18)
F441? F 0.2364(13) 0.3700(6) 0.6246(16)
O50? O 0.3767(12) 0.3991(5) 0.5256(17)
C245? C 0.4410(9) 0.4005(4) 0.5832(11)
C246? C 0.4881(13) 0.3820(4) 0.5735(13)
F442? F 0.4758(18) 0.3615(5) 0.5944(17)
F443? F 0.5548(13) 0.3874(6) 0.6126(16)
F444? F 0.4746(15) 0.3802(5) 0.5039(12)
C247? C 0.4676(14) 0.4247(4) 0.5796(16)
F445? F 0.4138(14) 0.4390(5) 0.5616(17)
F446? F 0.488(3) 0.4248(8) 0.527(2)
F447? F 0.519(2) 0.4312(9) 0.641(2)
C248? C 0.4308(15) 0.3963(5) 0.6521(14)
F448? F 0.4001(18) 0.4141(5) 0.667(2)
F449? F 0.4938(15) 0.3930(8) 0.706(2)
F450? F 0.392(2) 0.3778(6) 0.647(2)
O51? O 0.7489(17) 0.4401(7) 0.3788(12)
C249? C 0.7494(10) 0.4297(4) 0.3196(8)
C250? C 0.6833(10) 0.4379(4) 0.2539(10)
F451? F 0.6283(10) 0.4392(5) 0.2701(10)
F452? F 0.6649(19) 0.4243(5) 0.1965(14)
F453? F 0.6921(12) 0.4590(3) 0.2342(11)
C251? C 0.8157(10) 0.4357(3) 0.3091(11)
F454? F 0.8096(19) 0.4328(5) 0.2420(11)
F455? F 0.8696(10) 0.4231(4) 0.3551(11)
F456? F 0.8344(11) 0.4575(3) 0.3261(11)
C252? C 0.7470(11) 0.4035(4) 0.3288(12)
F457? F 0.7621(15) 0.3922(7) 0.2803(15)
F458? F 0.6823(11) 0.3975(4) 0.3191(14)
F459? F 0.7929(12) 0.3964(4) 0.3943(10)
O52? O 0.8627(10) 0.4358(5) 0.5169(15)
C253? C 0.9275(7) 0.4338(3) 0.5717(8)
C254? C 0.9563(9) 0.4097(3) 0.5696(9)
F460? F 0.9086(12) 0.3934(5) 0.5621(14)
F461? F 1.0125(8) 0.4043(4) 0.6296(8)
F462? F 0.9730(14) 0.4071(4) 0.5138(10)
C255? C 0.9792(8) 0.4518(3) 0.5672(10)
F463? F 0.9657(17) 0.4721(4) 0.5883(18)
F464? F 0.9693(12) 0.4546(3) 0.4990(9)
F465? F 1.0471(7) 0.4465(3) 0.6067(10)
C256? C 0.9258(9) 0.4371(3) 0.6459(9)
F466? F 0.882(1) 0.4540(3) 0.6388(13)
F467? F 0.9870(8) 0.4411(4) 0.7018(9)
F468? F 0.9015(13) 0.4187(3) 0.6659(12)
O53? O 0.819(2) 0.4792(3) 0.457(3)
C257? C 0.8055(16) 0.5020(3) 0.4476(17)
C258? C 0.8355(19) 0.5140(6) 0.5219(16)
F469? F 0.810(3) 0.5042(10) 0.565(3)
F470? F 0.821(3) 0.5364(7) 0.518(4)
F471? F 0.9050(19) 0.5126(8) 0.551(3)
C259? C 0.8402(18) 0.5121(5) 0.4014(18)
F472? F 0.814(3) 0.5045(7) 0.334(2)
F473? F 0.9091(19) 0.5084(10) 0.432(3)
F474? F 0.827(3) 0.5345(5) 0.397(3)
C260? C 0.7261(16) 0.5066(6) 0.409(2)
F475? F 0.699(3) 0.4925(10) 0.353(3)
F476? F 0.711(4) 0.5281(7) 0.385(4)
F477? F 0.699(3) 0.5033(8) 0.456(3)
N7* N 0.9632(4) 0.34099(12) 1.4442(4)
Ga4* Ga -0.07017(6) 0.36272(2) 0.33275(6)
N23B N -0.0351(4) 0.49526(13) -0.0744(4)
C45B C 0.0087(5) 0.51322(16) -0.0479(5)
H45B H 0.01590 0.52330 -0.08060
C46B C -0.0433(6) 0.48264(18) -0.0251(6)
H46B H -0.07470 0.47000 -0.04090
N24B N 0.4745(4) 0.49205(13) 0.4286(4)
C47B C 0.5122(5) 0.51157(17) 0.4504(6)
H47B H 0.52270 0.52010 0.41680
C48B C 0.5356(5) 0.51931(17) 0.5205(6)
H48B H 0.56010 0.53350 0.53300
Ga5B Ga -0.08119(6) 0.47878(2) -0.19501(6)
N17B N -0.0417(4) 0.51106(14) -0.2337(4)
N18B N 0.0011(6) 0.54320(19) -0.3056(6)
C33B C 0.0030(6) 0.5060(2) -0.2606(6)
H33B H 0.01950 0.49070 -0.25710
C34B C 0.0268(8) 0.5223(2) -0.2940(8)
H34B H 0.06230 0.51830 -0.30890
C35B C -0.0447(6) 0.5484(2) -0.2795(6)
H35B H -0.06370 0.56340 -0.28640
C36B C -0.0656(5) 0.53264(16) -0.2427(5)
H36B H -0.09740 0.53710 -0.22340
Ga6B Ga -0.44257(6) 0.52854(2) -0.31475(7)
N19B N -0.4766(4) 0.49640(14) -0.2726(4)
N20B N -0.5215(5) 0.46398(17) -0.2012(5)
C37B C -0.5278(5) 0.50113(19) -0.2531(6)
H37B H -0.54920 0.51580 -0.26300
C38B C -0.5505(6) 0.48467(19) -0.2180(6)
H38B H -0.58780 0.48840 -0.20590
C39B C -0.4705(6) 0.45993(18) -0.2206(6)
H39B H -0.44800 0.44540 -0.20940
C40B C -0.4482(6) 0.47556(16) -0.2560(5)
H40B H -0.41170 0.47150 -0.26900
N21B N -0.1872(4) 0.50056(13) -0.2220(4)
N22B N -0.3297(4) 0.51050(14) -0.2775(4)
C41B C -0.2244(5) 0.50583(17) -0.2914(5)
H41B H -0.20200 0.50630 -0.32290
C42B C -0.2947(5) 0.51063(17) -0.3180(5)
H42B H -0.31950 0.51420 -0.36790
C43B C -0.2915(5) 0.50549(17) -0.2076(5)
H43B H -0.31380 0.50520 -0.17600
C44B C -0.2212(5) 0.50071(17) -0.1803(5)
H44B H -0.19620 0.49740 -0.13030
Ga6B* Ga 0.55743(6) 0.52854(2) 0.68525(7)
N24* N -0.4745(4) 0.50795(13) -0.4286(4)
#END
