
#######################################################################
#
#                 Cambridge Crystallographic Data Centre
#                                CCDC
#
#######################################################################
#
# If this CIF has been generated from an entry in the Cambridge
# Structural Database, then it will include bibliographic, chemical,
# crystal, experimental, refinement or atomic coordinate data resulting
# from the CCDC's data processing and validation procedures.
#
#######################################################################

data_CSD_CIF_WOPCIN
_audit_creation_date 2001-01-05
_audit_creation_method CSD-ConQuest-V1
_database_code_CSD WOPCIN
_database_code_depnum_ccdc_archive 'CCDC 143723'
_chemical_formula_sum 'C28 H40 Hg2 I5 K1 O10'
_chemical_formula_moiety
;
(C28 H40 K1 O10 1+)n,n(Hg2 I5 1-)
;
_journal_coden_Cambridge 29
_journal_volume 626
_journal_year 2000
_journal_page_first 2096
_journal_name_full 'Z.Anorg.Allg.Chem. '
loop_
_publ_author_name
"J.Pickardt"
"S.Wiese"
"L.von Chrzanowski"
"M.Borowski"
_chemical_name_systematic
;
catena-(bis(Benzo-15-crown-5)-potassium 
tris(\m~2~-iodo)-di-iodo-di-mercury(ii))
;
_cell_volume   2144.402
_exptl_crystal_colour 'yellow'
_exptl_crystal_density_diffrn 2.496
_exptl_special_details
;
Fig.2 and Table 3 refer to this structure as dicationic; this is at variance 
with remaining parts of the publication and CIF data file
;
_exptl_crystal_description 'prism'
_diffrn_ambient_temperature ?
_diffrn_special_details
;
The study was carried out at room temperature,in the range 283-303K

;
#These two values have been output from a single CSD field.
_refine_ls_R_factor_gt 0.0696
_refine_ls_wR_factor_gt 0.0696
_symmetry_cell_setting triclinic
_symmetry_space_group_name_H-M 'P -1'
_symmetry_Int_Tables_number 2
loop_
_symmetry_equiv_pos_site_id
_symmetry_equiv_pos_as_xyz
1 x,y,z
2 -x,-y,-z
_cell_length_a 12.7173(1)
_cell_length_b 13.2765(1)
_cell_length_c 14.5307(1)
_cell_angle_alpha 114.624(1)
_cell_angle_beta 90.794(1)
_cell_angle_gamma 104.107(1)
_cell_formula_units_Z 2
loop_
_atom_type_symbol
_atom_type_radius_bond
C 0.68
H 0.23
Hg 1.61
I 1.40
K 1.91
O 0.68
loop_
_atom_site_label
_atom_site_type_symbol
_atom_site_fract_x
_atom_site_fract_y
_atom_site_fract_z
Hg1 Hg 1.35920(7) 0.89572(8) 0.49674(7)
Hg2 Hg 1.03081(7) 0.84233(6) 0.45484(7)
I1 I 1.28427(11) 0.78931(10) 0.61126(8)
I2 I 1.55207(10) 0.85754(9) 0.40249(10)
I3 I 0.89638(8) 0.95487(8) 0.37181(6)
I4 I 0.93848(11) 0.62854(8) 0.42242(8)
I5 I 1.20576(9) 0.84456(8) 0.32996(7)
K1 K 0.3198(2) 0.2624(2) 0.1383(2)
C1 C 0.0356(11) 0.1957(10) 0.0551(12)
C2 C 0.0388(11) 0.2279(11) 0.1614(11)
C3 C 0.1108(14) 0.2167(14) 0.3056(11)
H1 H 0.03940 0.19340 0.32490
H2 H 0.14000 0.29950 0.34370
C4 C 0.1861(16) 0.1558(15) 0.3258(12)
H3 H 0.19140 0.17050 0.39720
H4 H 0.15770 0.07340 0.28480
C5 C 0.3667(13) 0.1307(16) 0.2968(13)
H5 H 0.35780 0.10720 0.35180
H6 H 0.44120 0.17790 0.30750
C6 C 0.3485(13) 0.0282(14) 0.1994(14)
H7 H 0.39720 -0.01700 0.20150
H8 H 0.27380 -0.01910 0.18790
C7 C 0.3371(13) -0.0338(12) 0.0176(12)
H9 H 0.26020 -0.07350 0.00900
H10 H 0.37910 -0.08820 0.00980
C8 C 0.3578(12) 0.0100(13) -0.0605(11)
H11 H 0.43410 0.05310 -0.04840
H12 H 0.34530 -0.05520 -0.12710
C9 C 0.1867(12) 0.0174(11) -0.1182(10)
H13 H 0.15760 -0.04550 -0.10000
H14 H 0.19220 -0.01500 -0.19070
C10 C 0.1129(11) 0.0930(11) -0.0946(9)
H15 H 0.14340 0.15900 -0.10820
H16 H 0.04180 0.05120 -0.13520
C11 C -0.0281(13) 0.2323(13) 0.0064(13)
H17 H -0.03080 0.21040 -0.06350
C12 C -0.0885(13) 0.3033(13) 0.0651(17)
H18 H -0.13140 0.33080 0.03400
C13 C -0.0873(12) 0.3341(15) 0.1662(18)
H19 H -0.13020 0.38120 0.20240
C14 C -0.0249(12) 0.2981(13) 0.2168(14)
H20 H -0.02500 0.31990 0.28650
C15 C 0.3311(13) 0.3803(9) -0.0419(9)
C16 C 0.2575(12) 0.4301(11) 0.0174(10)
C17 C 0.2134(11) 0.5114(11) 0.1884(10)
H21 H 0.14510 0.45290 0.17610
H22 H 0.19760 0.57490 0.17960
C18 C 0.2688(15) 0.5531(13) 0.2958(10)
H23 H 0.33750 0.61100 0.30790
H24 H 0.22250 0.58730 0.34530
C19 C 0.3662(14) 0.4910(13) 0.3891(10)
H25 H 0.35270 0.43250 0.41430
H26 H 0.35940 0.56200 0.44350
C20 C 0.4824(15) 0.5099(14) 0.3609(12)
H27 H 0.49590 0.56680 0.33370
H28 H 0.53480 0.53860 0.42130
C21 C 0.6040(11) 0.4114(15) 0.2594(13)
H29 H 0.62790 0.47330 0.23900
H30 H 0.65470 0.42660 0.31710
C22 C 0.6031(10) 0.3032(15) 0.1760(14)
H31 H 0.67740 0.30550 0.16090
H32 H 0.57870 0.24260 0.19790
C23 C 0.5812(11) 0.3320(12) 0.0279(13)
H33 H 0.63890 0.30100 -0.00600
H34 H 0.61270 0.41310 0.07250
C24 C 0.4942(13) 0.3187(13) -0.0500(11)
H35 H 0.52470 0.35620 -0.09220
H36 H 0.45970 0.23790 -0.09360
C25 C 0.3125(13) 0.3404(11) -0.1468(11)
H37 H 0.36070 0.30610 -0.18830
C26 C 0.2186(17) 0.3529(12) -0.1894(12)
H38 H 0.20500 0.32560 -0.25990
C27 C 0.1505(15) 0.4019(14) -0.1323(13)
H39 H 0.09080 0.41100 -0.16250
C28 C 0.1667(14) 0.4412(12) -0.0250(11)
H40 H 0.11690 0.47360 0.01550
O1 O 0.1035(8) 0.1844(8) 0.1999(6)
O2 O 0.2942(10) 0.1966(9) 0.3005(7)
O3 O 0.3679(8) 0.0609(8) 0.1179(8)
O4 O 0.2911(7) 0.0826(7) -0.0624(6)
O5 O 0.1036(8) 0.1289(8) 0.0125(7)
O6 O 0.2848(8) 0.4650(8) 0.1191(7)
O7 O 0.2880(8) 0.4568(7) 0.3060(7)
O8 O 0.4952(8) 0.4062(8) 0.2881(8)
O9 O 0.5369(7) 0.2740(8) 0.0858(8)
O10 O 0.4177(8) 0.3728(8) 0.0081(6)
I2A I 1.44793(10) 1.14246(9) 0.59751(10)
I3A I 1.10362(8) 1.04513(8) 0.62819(6)
Hg1A Hg 1.64080(7) 1.10428(8) 0.50326(7)
Hg2A Hg 0.96919(7) 1.15767(6) 0.54516(7)
#END
