
#######################################################################
#
#                 Cambridge Crystallographic Data Centre
#                                CCDC
#
#######################################################################
#
# If this CIF has been generated from an entry in the Cambridge
# Structural Database, then it will include bibliographic, chemical,
# crystal, experimental, refinement or atomic coordinate data resulting
# from the CCDC's data processing and validation procedures.
#
#######################################################################

data_CSD_CIF_WOQLUK
_audit_creation_date 2009-04-29
_audit_creation_method CSD-ConQuest-V1
_database_code_CSD WOQLUK
_database_code_depnum_ccdc_archive 'CCDC 664779'
_chemical_formula_sum 'C17 H33 Cl2 Cu2 N1 O11'
_chemical_formula_moiety
;
(C6 H16 N1 O1 1+)n,n(C10 H15 Cu2 O10 1-),n(C1 H2 Cl2)
;
_journal_coeditor_code "IUCr ZL2161"
_journal_coden_Cambridge 1370
_journal_volume 65
_journal_year 2009
_journal_page_first m163
_journal_name_full 'Acta Crystallogr.,Sect.E:Struct.Rep.Online '
loop_
_publ_author_name
"M.Shahid"
"M.Mazhar"
"P.O'Brien"
"M.Afzaal"
"J.Raftery"
_chemical_name_systematic
;
catena-(Diethyl(2-hydroxyethyl)ammonium 
pentakis(\m~2~-acetato-O,O')-di-copper(ii) dichloromethane solvate)
;
_cell_volume   2544.291
_exptl_crystal_colour 'turquoise'
_exptl_crystal_density_diffrn 1.63
_exptl_crystal_description 'plate'
_exptl_crystal_preparation 'dichloromethane'
_diffrn_ambient_temperature 100
#These two values have been output from a single CSD field.
_refine_ls_R_factor_gt 0.0343
_refine_ls_wR_factor_gt 0.0343
_symmetry_cell_setting orthorhombic
_symmetry_space_group_name_H-M 'P n a 21'
_symmetry_Int_Tables_number 33
loop_
_symmetry_equiv_pos_site_id
_symmetry_equiv_pos_as_xyz
1 x,y,z
2 -x,-y,1/2+z
3 1/2+x,1/2-y,z
4 1/2-x,1/2+y,1/2+z
_cell_length_a 17.6366(11)
_cell_length_b 12.1078(8)
_cell_length_c 11.9148(7)
_cell_angle_alpha 90
_cell_angle_beta 90
_cell_angle_gamma 90
_cell_formula_units_Z 4
loop_
_atom_type_symbol
_atom_type_radius_bond
C 0.68
H 0.23
Cl 0.99
Cu 1.50
N 0.68
O 0.68
loop_
_atom_site_label
_atom_site_type_symbol
_atom_site_fract_x
_atom_site_fract_y
_atom_site_fract_z
O1 O 0.53024(10) 0.83528(17) 0.5407(2)
C1 C 0.75151(18) 0.9544(3) 0.6165(3)
C2 C 0.77089(19) 1.0672(3) 0.6609(3)
H1 H 0.75910 1.07050 0.74130
H2 H 0.74110 1.12300 0.62090
H3 H 0.82500 1.08150 0.64960
C3 C 0.73251(18) 0.8234(3) 0.3481(3)
C4 C 0.7393(2) 0.8663(3) 0.2292(3)
H4 H 0.78950 0.84770 0.19920
H5 H 0.73280 0.94670 0.22900
H6 H 0.70010 0.83230 0.18230
C5 C 0.68352(18) 0.5688(3) 0.4849(3)
C6 C 0.66257(19) 0.4539(3) 0.4462(4)
H7 H 0.70830 0.40810 0.44270
H8 H 0.63930 0.45800 0.37170
H9 H 0.62650 0.42130 0.49930
C7 C 0.71362(18) 0.6984(3) 0.7521(3)
C8 C 0.7103(2) 0.6622(3) 0.8730(3)
H10 H 0.66960 0.70220 0.91160
H11 H 0.75880 0.67820 0.90960
H12 H 0.70030 0.58270 0.87650
C9 C 0.46960(16) 0.7938(2) 0.5797(2)
C10 C 0.47463(17) 0.7107(3) 0.6744(3)
H13 H 0.51610 0.73120 0.72500
H14 H 0.42670 0.70990 0.71610
H15 H 0.48430 0.63710 0.64330
C11 C 0.54064(17) 0.9991(3) 0.2859(3)
H16 H 0.57950 0.95170 0.25010
H17 H 0.51810 1.04640 0.22700
C12 C 0.57807(18) 1.0710(3) 0.3724(3)
H18 H 0.59670 1.02500 0.43410
H19 H 0.54120 1.12450 0.40130
H20 H 0.62070 1.11050 0.33800
C13 C 0.4784(2) 0.8131(3) 0.2849(3)
H21 H 0.44140 0.76680 0.32610
H22 H 0.52910 0.77930 0.29450
C14 C 0.4581(2) 0.8123(4) 0.1616(3)
H23 H 0.49310 0.86050 0.12050
H24 H 0.40610 0.83910 0.15200
H25 H 0.46200 0.73680 0.13250
C15 C 0.40131(18) 0.9771(3) 0.3296(3)
H26 H 0.39140 0.99960 0.25110
H27 H 0.36340 0.92020 0.34990
C16 C 0.39029(19) 1.0752(3) 0.4042(3)
H28 H 0.42270 1.13630 0.37690
H29 H 0.33690 1.09970 0.39880
C17 C 0.9547(2) 0.9489(3) 0.4356(3)
H30 H 0.99910 0.90150 0.45190
H31 H 0.90850 0.90900 0.46000
Cl1 Cl 0.96271(5) 1.07459(9) 0.51185(9)
Cl2 Cl 0.94971(8) 0.97423(9) 0.29048(9)
Cu1 Cu 0.647409(16) 0.78765(3) 0.55145(3)
Cu2 Cu 0.791702(16) 0.73425(3) 0.54933(4)
N1 N 0.47918(14) 0.9264(2) 0.3360(2)
O2 O 0.68331(12) 0.93611(17) 0.59172(19)
O3 O 0.80514(12) 0.88516(19) 0.6095(2)
O4 O 0.66722(12) 0.82101(19) 0.39120(18)
O5 O 0.79320(12) 0.79523(19) 0.3967(2)
O6 O 0.62992(12) 0.63226(18) 0.51144(19)
O7 O 0.75253(12) 0.59323(18) 0.4871(2)
O8 O 0.77446(12) 0.6782(2) 0.70046(19)
O9 O 0.65657(12) 0.7454(2) 0.71145(18)
O10 O 0.4059(1) 0.82095(16) 0.5417(2)
O11 O 0.40765(14) 1.0541(2) 0.5170(2)
H32 H 0.39550 0.98890 0.53300
Cu2B Cu 0.291702(16) 0.76575(3) 0.54933(4)
O10B O 0.9059(1) 0.67905(16) 0.5417(2)
#END
