
#######################################################################
#
#                 Cambridge Crystallographic Data Centre
#                                CCDC
#
#######################################################################
#
# If this CIF has been generated from an entry in the Cambridge
# Structural Database, then it will include bibliographic, chemical,
# crystal, experimental, refinement or atomic coordinate data resulting
# from the CCDC's data processing and validation procedures.
#
#######################################################################

data_CSD_CIF_WOQYUW
_audit_creation_date 2001-01-05
_audit_creation_method CSD-ConQuest-V1
_database_code_CSD WOQYUW
_database_code_depnum_ccdc_archive 'CCDC 137075'
_chemical_formula_sum 'C10 H14 Co4 N2 O20 P2'
_chemical_formula_moiety
;
(C4 H12 N2 2+)n,n(C6 H2 Co4 O20 P2 2-)
;
_journal_coden_Cambridge 971
_journal_volume 2
_journal_year 2000
_journal_page_first 365
_journal_name_full 'Solid State Sciences '
loop_
_publ_author_name
"A.Choudhury"
"S.Natarajan"
_chemical_name_systematic
;
catena-(Piperazinium 
bis(\m~4~-hydrogenphosphato)-(\m~4~-oxalato)-bis(\m~2~-oxalato)-tetra-cobalt)
;
_cell_volume   1024.177
_exptl_crystal_colour 'dark pink'
_exptl_crystal_density_diffrn 2.529
_diffrn_ambient_temperature ?
_diffrn_special_details
;
The study was carried out at room temperature,in the range 283-303K

;
#These two values have been output from a single CSD field.
_refine_ls_R_factor_gt 0.0404
_refine_ls_wR_factor_gt 0.0404
_symmetry_cell_setting monoclinic
_symmetry_space_group_name_H-M 'P 21/c'
_symmetry_Int_Tables_number 14
loop_
_symmetry_equiv_pos_site_id
_symmetry_equiv_pos_as_xyz
1 x,y,z
2 x,1/2-y,1/2+z
3 -x,-y,-z
4 -x,-1/2+y,-1/2-z
_cell_length_a 7.4942(10)
_cell_length_b 7.7257(11)
_cell_length_c 17.852(3)
_cell_angle_alpha 90
_cell_angle_beta 97.740(2)
_cell_angle_gamma 90
_cell_formula_units_Z 2
loop_
_atom_type_symbol
_atom_type_radius_bond
C 0.68
H 0.23
Co 1.33
N 0.68
O 0.68
P 1.05
loop_
_atom_site_label
_atom_site_type_symbol
_atom_site_fract_x
_atom_site_fract_y
_atom_site_fract_z
Co1 Co 0.12893(14) 0.05357(13) 0.36354(5)
Co2 Co -0.21524(14) -0.19480(13) 0.30831(6)
P1 P -0.0534(3) 0.4237(3) 0.31096(11)
O1 O -0.0918(7) -0.0457(6) 0.4074(3)
O2 O 0.0736(7) 0.3080(6) 0.3624(3)
O3 O 0.0120(7) 0.4400(6) 0.2331(3)
O4 O 0.3017(7) -0.1523(7) 0.3834(3)
O5 O 0.3513(7) 0.1344(7) 0.3015(3)
O6 O -0.2041(7) -0.0956(7) 0.5158(3)
O7 O 0.5582(7) -0.2597(6) 0.3566(3)
O8 O -0.0770(7) 0.5987(6) 0.3453(3)
O9 O 0.6134(7) 0.0200(6) 0.2767(3)
O10 O -0.2488(7) 0.3390(6) 0.2997(3)
H1 H -0.2438(7) 0.2424(6) 0.2810(3)
C1 C -0.0859(10) -0.0426(10) 0.4786(4)
C2 C 0.4407(11) -0.1439(10) 0.3524(4)
C3 C 0.4705(11) 0.019(1) 0.3053(4)
N1 N 0.3876(11) 0.0356(9) -0.0683(4)
H2 H 0.4173(11) -0.0514(9) -0.0978(4)
H3 H 0.3014(11) 0.0991(9) -0.0956(4)
C4 C 0.3145(13) -0.0385(11) -0.0013(5)
H4 H 0.2116(13) -0.1112(11) -0.0184(5)
H5 H 0.2741(13) 0.0548(11) 0.0286(5)
C5 C 0.5449(13) 0.1436(11) -0.0469(5)
H6 H 0.5122(13) 0.2436(11) -0.0188(5)
H7 H 0.5922(13) 0.1842(11) -0.0917(5)
C1B C 0.0859(10) 0.0426(10) 0.5214(4)
O1B O 0.0918(7) 0.0457(6) 0.5926(3)
O6B O 0.2041(7) 0.0956(7) 0.4842(3)
C5B C 0.4551(13) -0.1436(11) 0.0469(5)
N1B N 0.6124(11) -0.0356(9) 0.0683(4)
H2B H 0.5827(11) 0.0514(9) 0.0978(4)
H3B H 0.6986(11) -0.0991(9) 0.0956(4)
C4B C 0.6855(13) 0.0385(11) 0.0013(5)
H4B H 0.7884(13) 0.1112(11) 0.0184(5)
H5B H 0.7259(13) -0.0548(11) -0.0286(5)
H6B H 0.4878(13) -0.2436(11) 0.0188(5)
H7B H 0.4078(13) -0.1842(11) 0.0917(5)
P1C P 0.0534(3) -0.0763(3) 0.18904(11)
O2C O -0.0736(7) -0.1920(6) 0.1376(3)
O3C O -0.0120(7) -0.0600(6) 0.2669(3)
O8C O 0.0770(7) 0.0987(6) 0.1547(3)
O10C O 0.2488(7) -0.1610(6) 0.2003(3)
H1C H 0.2438(7) -0.2576(6) 0.2190(3)
Co1B Co -0.12893(14) -0.05357(13) 0.63646(5)
Co2B Co 0.21524(14) 0.19480(13) 0.69169(6)
O4* O -0.6983(7) -0.1523(7) 0.3834(3)
O5* O -0.6487(7) 0.1344(7) 0.3015(3)
O7* O -0.4418(7) -0.2597(6) 0.3566(3)
O9* O -0.3866(7) 0.0200(6) 0.2767(3)
C2* C -0.5593(11) -0.1439(10) 0.3524(4)
C3* C -0.5295(11) 0.019(1) 0.3053(4)
O8* O -0.0770(7) -0.4013(6) 0.3453(3)
Co1C Co -0.12893(14) 0.55357(13) 0.13646(5)
Co2C Co 0.21524(14) 0.30520(13) 0.19169(6)
Co2* Co 0.78476(14) -0.19480(13) 0.30831(6)
Co2** Co -0.21524(14) 0.80520(13) 0.30831(6)
Co1C* Co -0.12893(14) -0.44643(13) 0.13646(5)
O2B O -0.0736(7) -0.3080(6) 0.6376(3)
O3A O 0.0120(7) 0.0600(6) 0.7331(3)
O4B O -0.3017(7) 0.1523(7) 0.6166(3)
O5B O -0.3513(7) -0.1344(7) 0.6985(3)
O7B O 0.4418(7) 0.2597(6) 0.6434(3)
O8B O 0.0770(7) 0.4013(6) 0.6547(3)
O9B O 0.3866(7) -0.0200(6) 0.7233(3)
Co1* Co -0.87107(14) 0.05357(13) 0.36354(5)
#END
