
#######################################################################
#
#                 Cambridge Crystallographic Data Centre
#                                CCDC
#
#######################################################################
#
# If this CIF has been generated from an entry in the Cambridge
# Structural Database, then it will include bibliographic, chemical,
# crystal, experimental, refinement or atomic coordinate data resulting
# from the CCDC's data processing and validation procedures.
#
#######################################################################

data_CSD_CIF_WOSMUO
_audit_creation_date 2015-01-15
_audit_creation_method CSD-ConQuest-V1
_database_code_CSD WOSMUO
_database_code_depnum_ccdc_archive 'CCDC 1033407'
_chemical_formula_sum 'C18 H38 Mg4 N4 O25'
_chemical_formula_moiety
;
(C12 H12 Mg4 O24 4-)n,2n(C3 H12 N2 2+),n(H2 O1)
;
_journal_coden_Cambridge 179
_journal_volume 54
_journal_year 2015
_journal_page_first 2534
_journal_name_full 'Angew.Chem.,Int.Ed. '
loop_
_publ_author_name
"Ran Shang"
"Zhe-Ming Wang"
"Song Gao"
_chemical_name_systematic
;
catena-[bis(propane-1,3-diaminium) dodecakis(\m-formato)-tetra-magnesium 
monohydrate]
;
_cell_volume   1702.619
_exptl_crystal_colour 'colorless'
_exptl_crystal_density_diffrn 1.576
_exptl_crystal_description 'hexagonal plate'
_diffrn_ambient_temperature 290
_refine_special_details
;
C3,C4,C5,N1,N2 disordered by symmetry over three configurations with 
occupancy 0.33.
;
#These two values have been output from a single CSD field.
_refine_ls_R_factor_gt 0.0358
_refine_ls_wR_factor_gt 0.0358
_symmetry_cell_setting hexagonal
_symmetry_space_group_name_H-M 'P -3 1 c'
_symmetry_Int_Tables_number 163
loop_
_symmetry_equiv_pos_site_id
_symmetry_equiv_pos_as_xyz
1 x,y,z
2 -y,x-y,z
3 -x+y,-x,z
4 -y,-x,1/2-z
5 -x+y,y,1/2-z
6 x,x-y,1/2-z
7 -x,-y,-z
8 y,-x+y,-z
9 x-y,x,-z
10 y,x,-1/2+z
11 x-y,-y,-1/2+z
12 -x,-x+y,-1/2+z
_cell_length_a 8.2923(1)
_cell_length_b 8.2923(1)
_cell_length_c 28.5915(5)
_cell_angle_alpha 90
_cell_angle_beta 90
_cell_angle_gamma 120
_cell_formula_units_Z 2
loop_
_atom_type_symbol
_atom_type_radius_bond
C 0.68
H 0.23
Mg 1.41
N 0.68
O 0.68
loop_
_atom_site_label
_atom_site_type_symbol
_atom_site_fract_x
_atom_site_fract_y
_atom_site_fract_z
Mg1 Mg 0.00000 0.00000 0.00000
Mg2 Mg 0.33330 0.66670 0.12599(2)
Mg3 Mg 0.00000 0.00000 0.25000
O1 O 0.20735(15) 0.21192(15) 0.03883(4)
O2 O 0.33236(15) 0.46782(15) 0.08132(4)
O3 O 0.12223(14) 0.46184(14) 0.16593(3)
O4 O -0.00742(14) 0.20690(14) 0.20950(4)
C1 C 0.2026(2) 0.3180(2) 0.06783(5)
H1 H 0.08710 0.28100 0.08130
C2 C 0.1229(2) 0.3338(2) 0.18808(5)
H2 H 0.23490 0.33350 0.18860
N1 N -0.3355(7) 0.2419(6) 0.17541(15)
H3 H -0.40890 0.12220 0.18240
H4 H -0.21900 0.26560 0.17190
C3 C -0.401(2) 0.2858(16) 0.1305(2)
H5 H -0.40030 0.40250 0.13400
C4 C -0.355(9) 0.294(3) 0.04595(18)
H6 H -0.44350 0.16770 0.03630
H7 H -0.34000 0.31200 0.19840
H8 H -0.52810 0.18890 0.12420
H9 H -0.17730 0.41390 0.09850
H10 H -0.41220 0.37090 0.04220
N2 N -0.1971(9) 0.3624(9) 0.0217(2)
H11 H -0.20540 0.41850 -0.00390
H12 H -0.17730 0.27000 0.01370
H13 H -0.10300 0.44430 0.03930
C5 C -0.2943(17) 0.2985(15) 0.0947(2)
H14 H -0.26700 0.19820 0.09790
O5 O -0.1789(10) 0.410(6) 0.254(2)
H15? H -0.111(7) 0.365(5) 0.237(2)
O1A O -0.21192(15) -0.00457(15) 0.03883(4)
O2A O -0.46782(15) -0.13546(15) 0.08132(4)
O3A O -0.46184(14) -0.33961(14) 0.16593(3)
O4A O -0.20690(14) -0.21432(14) 0.20950(4)
C1A C -0.3180(2) -0.1154(2) 0.06783(5)
H1A H -0.28100 -0.19390 0.08130
C2A C -0.3338(2) -0.2109(2) 0.18808(5)
H2A H -0.33350 -0.09860 0.18860
O1B O 0.00457(15) -0.20735(15) 0.03883(4)
O2B O 0.13546(15) -0.33236(15) 0.08132(4)
O3B O 0.33961(14) -0.12223(14) 0.16593(3)
O4B O 0.21432(14) 0.00742(14) 0.20950(4)
C1B C 0.1154(2) -0.2026(2) 0.06783(5)
H1B H 0.19390 -0.08710 0.08130
C2B C 0.2109(2) -0.1229(2) 0.18808(5)
H2B H 0.09860 -0.23490 0.18860
O3C O -0.46184(14) -0.12223(14) 0.33407(3)
O4C O -0.20690(14) 0.00742(14) 0.29050(4)
C2C C -0.3338(2) -0.1229(2) 0.31192(5)
H2C H -0.33350 -0.23490 0.31140
Mg2C Mg 0.33330 0.66670 0.37401(2)
O1D O 0.00457(15) 0.21192(15) 0.46117(4)
O2D O 0.13546(15) 0.46782(15) 0.41868(4)
O3D O 0.33961(14) 0.46184(14) 0.33407(3)
O4D O 0.21432(14) 0.20690(14) 0.29050(4)
C1D C 0.1154(2) 0.3180(2) 0.43217(5)
H1D H 0.19390 0.28100 0.41870
C2D C 0.2109(2) 0.3338(2) 0.31192(5)
H2D H 0.09860 0.33350 0.31140
O3E O 0.12223(14) -0.33961(14) 0.33407(3)
O4E O -0.00742(14) -0.21432(14) 0.29050(4)
C2E C 0.1229(2) -0.2109(2) 0.31192(5)
H2E H 0.23490 -0.09860 0.31140
O1F O -0.20735(15) -0.21192(15) -0.03883(4)
O2F O -0.33236(15) -0.46782(15) -0.08132(4)
C1F C -0.2026(2) -0.3180(2) -0.06783(5)
H1F H -0.08710 -0.28100 -0.08130
O1H O -0.00457(15) 0.20735(15) -0.03883(4)
O2H O -0.13546(15) 0.33236(15) -0.08132(4)
C1H C -0.1154(2) 0.2026(2) -0.06783(5)
H1H H -0.19390 0.08710 -0.08130
Mg1C Mg 0.00000 0.00000 0.50000
Mg2* Mg -0.66670 -0.33330 0.12599(2)
Mg2** Mg 0.33330 -0.33330 0.12599(2)
Mg2C* Mg -0.66670 -0.33330 0.37401(2)
Mg2C** Mg 0.33330 -0.33330 0.37401(2)
Mg2F Mg -0.33330 -0.66670 -0.12599(2)
Mg2F* Mg -0.33330 0.33330 -0.12599(2)
O1G O 0.21192(15) 0.00457(15) -0.03883(4)
O2A* O 0.53218(15) 0.86454(15) 0.08132(4)
O2B* O 0.13546(15) 0.66764(15) 0.08132(4)
O2C O 0.53218(15) 0.66764(15) 0.41868(4)
O2E O 0.33236(15) 0.86454(15) 0.41868(4)
O3A* O 0.53816(14) 0.66039(14) 0.16593(3)
O3B* O 0.33961(14) 0.87777(14) 0.16593(3)
O3C* O 0.53816(14) 0.87777(14) 0.33407(3)
O3E* O 0.12223(14) 0.66039(14) 0.33407(3)
N2A N -0.3624(9) 0.4405(9) 0.0217(2)
H11A H -0.41850 0.37610 -0.00390
H12A H -0.27000 0.55270 0.01370
H13A H -0.44430 0.45270 0.03930
C5A C -0.2985(17) 0.4072(15) 0.0947(2)
H14A H -0.19820 0.53480 0.09790
H7B H -0.34800 0.34000 0.19840
H8B H -0.28300 0.52810 0.12420
H9B H -0.40880 0.17730 0.09850
H10B H -0.21690 0.41220 0.04220
N1A N -0.2419(7) 0.4226(6) 0.17541(15)
H3A H -0.12220 0.46890 0.18240
H4A H -0.26560 0.51540 0.17190
C3A C -0.2858(20) 0.3132(16) 0.1305(2)
H5A H -0.40250 0.19720 0.13400
C4A C -0.294(9) 0.351(3) 0.04595(18)
H6A H -0.16770 0.38880 0.03630
N2B N -0.4405(9) 0.1971(9) 0.0217(2)
H11B H -0.37610 0.20540 -0.00390
H12B H -0.55270 0.17730 0.01370
H13B H -0.45270 0.10300 0.03930
C5B C -0.4072(17) 0.2943(15) 0.0947(2)
H14B H -0.53480 0.26700 0.09790
H7A H -0.31200 0.34800 0.19840
H8A H -0.18890 0.28300 0.12420
H9A H -0.41390 0.40880 0.09850
H10A H -0.37090 0.21690 0.04220
N1B N -0.4226(7) 0.3355(6) 0.17541(15)
H3B H -0.46890 0.40890 0.18240
H4B H -0.51540 0.21900 0.17190
C3B C -0.3132(20) 0.4010(16) 0.1305(2)
H5B H -0.19720 0.40030 0.13400
C4B C -0.351(9) 0.355(3) 0.04595(18)
H6B H -0.38880 0.44350 0.03630
#END
