
#######################################################################
#
#                 Cambridge Crystallographic Data Centre
#                                CCDC
#
#######################################################################
#
# If this CIF has been generated from an entry in the Cambridge
# Structural Database, then it will include bibliographic, chemical,
# crystal, experimental, refinement or atomic coordinate data resulting
# from the CCDC's data processing and validation procedures.
#
#######################################################################

data_CSD_CIF_WOSMUO01
_audit_creation_date 2015-01-15
_audit_creation_method CSD-ConQuest-V1
_database_code_CSD WOSMUO01
_database_code_depnum_ccdc_archive 'CCDC 1033408'
_chemical_formula_sum 'C18 H38 Mg4 N4 O25'
_chemical_formula_moiety
;
(C12 H12 Mg4 O24 4-)n,2n(C3 H12 N2 2+),n(H2 O1)
;
_journal_coden_Cambridge 179
_journal_volume 54
_journal_year 2015
_journal_page_first 2534
_journal_name_full 'Angew.Chem.,Int.Ed. '
loop_
_publ_author_name
"Ran Shang"
"Zhe-Ming Wang"
"Song Gao"
_chemical_name_systematic
;
catena-[bis(propane-1,3-diaminium) dodecakis(\m-formato)-tetra-magnesium 
monohydrate]
;
_cell_volume   1706.881
_exptl_crystal_colour 'colorless'
_exptl_crystal_density_diffrn 1.572
_exptl_crystal_description 'hexagonal plate'
_diffrn_ambient_temperature 320
_refine_special_details
;
C3,C4,C5,N1,N2 disordered by symmetry over three configurations with 
occupancy 0.33.
;
#These two values have been output from a single CSD field.
_refine_ls_R_factor_gt 0.0372
_refine_ls_wR_factor_gt 0.0372
_symmetry_cell_setting hexagonal
_symmetry_space_group_name_H-M 'P -3 1 c'
_symmetry_Int_Tables_number 163
loop_
_symmetry_equiv_pos_site_id
_symmetry_equiv_pos_as_xyz
1 x,y,z
2 -y,x-y,z
3 -x+y,-x,z
4 -y,-x,1/2-z
5 -x+y,y,1/2-z
6 x,x-y,1/2-z
7 -x,-y,-z
8 y,-x+y,-z
9 x-y,x,-z
10 y,x,-1/2+z
11 x-y,-y,-1/2+z
12 -x,-x+y,-1/2+z
_cell_length_a 8.2949(1)
_cell_length_b 8.2949(1)
_cell_length_c 28.6451(5)
_cell_angle_alpha 90
_cell_angle_beta 90
_cell_angle_gamma 120
_cell_formula_units_Z 2
loop_
_atom_type_symbol
_atom_type_radius_bond
C 0.68
H 0.23
Mg 1.41
N 0.68
O 0.68
loop_
_atom_site_label
_atom_site_type_symbol
_atom_site_fract_x
_atom_site_fract_y
_atom_site_fract_z
Mg1 Mg 0.00000 0.00000 0.00000
Mg2 Mg 0.33330 0.66670 0.12615(2)
Mg3 Mg 0.00000 0.00000 0.25000
O1 O 0.20689(15) 0.21256(16) 0.03876(4)
O2 O 0.33141(16) 0.46736(15) 0.08144(4)
O3 O 0.12205(15) 0.46171(15) 0.16602(4)
O4 O -0.00730(15) 0.20706(15) 0.20954(4)
C1 C 0.2024(2) 0.3179(2) 0.06796(6)
H1 H 0.08710 0.28010 0.08160
C2 C 0.1227(2) 0.3339(2) 0.18824(5)
H2 H 0.23480 0.33400 0.18890
N1 N -0.3358(7) 0.2435(7) 0.17525(16)
H3 H -0.40200 0.12180 0.18090
H4 H -0.35030 0.30540 0.19870
H5 H -0.21600 0.27750 0.17260
N2 N -0.1991(10) 0.3669(10) 0.0204(2)
H6 H -0.22830 0.34140 -0.00970
H7 H -0.13130 0.31670 0.02950
H8 H -0.13390 0.48970 0.02430
C3 C -0.4021(17) 0.2872(18) 0.1303(2)
H9 H -0.52950 0.19080 0.12430
H10 H -0.40020 0.40440 0.13370
C4 C -0.296(2) 0.2981(18) 0.0944(2)
H11 H -0.27090 0.19610 0.09750
H12 H -0.17750 0.41220 0.09820
C5 C -0.357(11) 0.295(3) 0.04617(19)
H13 H -0.44520 0.16900 0.03640
H14 H -0.41610 0.37070 0.04320
O5 O -0.1795(10) 0.409(6) 0.255(2)
H15? H -0.117(8) 0.363(6) 0.236(2)
O1A O -0.21256(15) -0.00567(16) 0.03876(4)
O2A O -0.46736(16) -0.13595(15) 0.08144(4)
O3A O -0.46171(15) -0.33966(15) 0.16602(4)
O4A O -0.20706(15) -0.21436(15) 0.20954(4)
C1A C -0.3179(2) -0.1155(2) 0.06796(6)
H1A H -0.28010 -0.19300 0.08160
C2A C -0.3339(2) -0.2112(2) 0.18824(5)
H2A H -0.33400 -0.09920 0.18890
O1B O 0.00567(15) -0.20689(16) 0.03876(4)
O2B O 0.13595(16) -0.33141(15) 0.08144(4)
O3B O 0.33966(15) -0.12205(15) 0.16602(4)
O4B O 0.21436(15) 0.00730(15) 0.20954(4)
C1B C 0.1155(2) -0.2024(2) 0.06796(6)
H1B H 0.19300 -0.08710 0.08160
C2B C 0.2112(2) -0.1227(2) 0.18824(5)
H2B H 0.09920 -0.23480 0.18890
O3C O -0.46171(15) -0.12205(15) 0.33398(4)
O4C O -0.20706(15) 0.00730(15) 0.29046(4)
C2C C -0.3339(2) -0.1227(2) 0.31176(5)
H2C H -0.33400 -0.23480 0.31110
Mg2C Mg 0.33330 0.66670 0.37385(2)
O1D O 0.00567(15) 0.21256(16) 0.46124(4)
O2D O 0.13595(16) 0.46736(15) 0.41856(4)
O3D O 0.33966(15) 0.46171(15) 0.33398(4)
O4D O 0.21436(15) 0.20706(15) 0.29046(4)
C1D C 0.1155(2) 0.3179(2) 0.43204(6)
H1D H 0.19300 0.28010 0.41840
C2D C 0.2112(2) 0.3339(2) 0.31176(5)
H2D H 0.09920 0.33400 0.31110
O3E O 0.12205(15) -0.33966(15) 0.33398(4)
O4E O -0.00730(15) -0.21436(15) 0.29046(4)
C2E C 0.1227(2) -0.2112(2) 0.31176(5)
H2E H 0.23480 -0.09920 0.31110
O1F O -0.20689(15) -0.21256(16) -0.03876(4)
O2F O -0.33141(16) -0.46736(15) -0.08144(4)
C1F C -0.2024(2) -0.3179(2) -0.06796(6)
H1F H -0.08710 -0.28010 -0.08160
O1H O -0.00567(15) 0.20689(16) -0.03876(4)
O2H O -0.13595(16) 0.33141(15) -0.08144(4)
C1H C -0.1155(2) 0.2024(2) -0.06796(6)
H1H H -0.19300 0.08710 -0.08160
Mg1C Mg 0.00000 0.00000 0.50000
Mg2* Mg -0.66670 -0.33330 0.12615(2)
Mg2** Mg 0.33330 -0.33330 0.12615(2)
Mg2C* Mg -0.66670 -0.33330 0.37385(2)
Mg2C** Mg 0.33330 -0.33330 0.37385(2)
Mg2F Mg -0.33330 -0.66670 -0.12615(2)
Mg2F* Mg -0.33330 0.33330 -0.12615(2)
O1G O 0.21256(15) 0.00567(16) -0.03876(4)
O2A* O 0.53264(16) 0.86405(15) 0.08144(4)
O2B* O 0.13595(16) 0.66859(15) 0.08144(4)
O2C O 0.53264(16) 0.66859(15) 0.41856(4)
O2E O 0.33141(16) 0.86405(15) 0.41856(4)
O3A* O 0.53829(15) 0.66034(15) 0.16602(4)
O3B* O 0.33966(15) 0.87795(15) 0.16602(4)
O3C* O 0.53829(15) 0.87795(15) 0.33398(4)
O3E* O 0.12205(15) 0.66034(15) 0.33398(4)
N1A N -0.2435(7) 0.4207(7) 0.17525(16)
H3A H -0.12180 0.47620 0.18090
H4A H -0.30540 0.34430 0.19870
H5A H -0.27750 0.50650 0.17260
N2A N -0.3669(10) 0.434(1) 0.0204(2)
H6A H -0.34140 0.43030 -0.00970
H7A H -0.31670 0.55200 0.02950
H8A H -0.48970 0.37640 0.02430
C3A C -0.2872(17) 0.3107(18) 0.1303(2)
H9A H -0.19080 0.27970 0.12430
H10A H -0.40440 0.19540 0.13370
C4A C -0.2981(20) 0.4059(18) 0.0944(2)
H11A H -0.19610 0.53300 0.09750
H12A H -0.41220 0.41030 0.09820
C5A C -0.295(11) 0.348(3) 0.04617(19)
H13A H -0.16900 0.38580 0.03640
H14A H -0.37070 0.21320 0.04320
N1B N -0.4207(7) 0.3358(7) 0.17525(16)
H3B H -0.47620 0.40200 0.18090
H4B H -0.34430 0.35030 0.19870
H5B H -0.50650 0.21600 0.17260
N2B N -0.434(1) 0.1991(10) 0.0204(2)
H6B H -0.43030 0.22830 -0.00970
H7B H -0.55200 0.13130 0.02950
H8B H -0.37640 0.13390 0.02430
C3B C -0.3107(17) 0.4021(18) 0.1303(2)
H9B H -0.27970 0.52950 0.12430
H10B H -0.19540 0.40020 0.13370
C4B C -0.4059(20) 0.2960(18) 0.0944(2)
H11B H -0.53300 0.27090 0.09750
H12B H -0.41030 0.17750 0.09820
C5B C -0.348(11) 0.357(3) 0.04617(19)
H13B H -0.38580 0.44520 0.03640
H14B H -0.21320 0.41610 0.04320
#END
