
#######################################################################
#
#                 Cambridge Crystallographic Data Centre
#                                CCDC
#
#######################################################################
#
# If this CIF has been generated from an entry in the Cambridge
# Structural Database, then it will include bibliographic, chemical,
# crystal, experimental, refinement or atomic coordinate data resulting
# from the CCDC's data processing and validation procedures.
#
#######################################################################

data_CSD_CIF_WOSZEL
_audit_creation_date 2015-01-16
_audit_creation_method CSD-ConQuest-V1
_database_code_CSD WOSZEL
_database_code_depnum_ccdc_archive 'CCDC 1043835'
_chemical_formula_sum 'C35 H37 N3 O8 Zn1'
_chemical_formula_moiety
;
(C30 H22 N1 O7 Zn1 1-)n,n(C3 H7 N1 O1),n(C2 H8 N1 1+)
;
_journal_coden_Cambridge 1078
_journal_year 2015
_journal_name_full 'CSD Communication(Private Communication) '
loop_
_publ_author_name
"Gui-lin Zhuang"
"Li Tan"
"Jia-qi Bai"
"Jiang-bin Guo"
"Xing Zhong"
"Jian-guo Wang"
_chemical_name_systematic
;
catena-(Dimethylammonium 
(\m~3~-1,3,5-tris(4-carboxylatophenyl)benzene)-dimethylformamide-zinc 
dimethylformamide solvate)
;
_cell_volume   3485.738
_exptl_crystal_colour 'colorless'
_exptl_crystal_density_diffrn 1.321
_exptl_crystal_description 'block'
_diffrn_ambient_temperature 301
#These two values have been output from a single CSD field.
_refine_ls_R_factor_gt 0.0613
_refine_ls_wR_factor_gt 0.0613
_symmetry_cell_setting monoclinic
_symmetry_space_group_name_H-M 'P 21/n'
_symmetry_Int_Tables_number 14
loop_
_symmetry_equiv_pos_site_id
_symmetry_equiv_pos_as_xyz
1 x,y,z
2 1/2-x,1/2+y,1/2-z
3 -x,-y,-z
4 -1/2+x,-1/2-y,-1/2+z
_cell_length_a 14.0797(7)
_cell_length_b 9.0269(3)
_cell_length_c 27.4319(12)
_cell_angle_alpha 90
_cell_angle_beta 91.187(5)
_cell_angle_gamma 90
_cell_formula_units_Z 4
loop_
_atom_type_symbol
_atom_type_radius_bond
C 0.68
H 0.23
N 0.68
O 0.68
Zn 1.22
loop_
_atom_site_label
_atom_site_type_symbol
_atom_site_fract_x
_atom_site_fract_y
_atom_site_fract_z
Zn1 Zn 1.91945(4) -0.77891(5) 0.161902(18)
C1 C 2.0002(4) -0.5794(5) 0.23561(17)
N1 N 1.8236(3) -1.1876(4) 0.21332(17)
O1 O 1.9384(3) -0.6725(4) 0.22304(12)
O2 O 2.0646(3) -0.5329(5) 0.21090(14)
C2 C 1.9910(3) -0.5221(5) 0.28765(15)
O3 O 2.4135(3) 0.0465(4) 0.59453(17)
C3 C 2.0426(4) -0.4018(5) 0.30412(16)
H1 H 2.08490 -0.35520 0.28350
C4 C 2.0318(3) -0.3496(5) 0.35130(16)
H2 H 2.06720 -0.26820 0.36180
O4 O 2.3086(2) 0.1884(3) 0.62937(12)
C5 C 1.9697(3) -0.4157(4) 0.38318(15)
O5 O 1.5405(2) -0.6630(3) 0.63402(12)
C6 C 1.9204(4) -0.5398(5) 0.36649(16)
H3 H 1.88020 -0.59020 0.38730
O6 O 1.4471(3) -0.5172(5) 0.58903(14)
C7 C 1.9307(4) -0.5888(5) 0.31898(17)
H4 H 1.89530 -0.66980 0.30820
O7 O 1.8667(2) -0.9533(3) 0.19957(12)
C8 C 1.9602(3) -0.3628(4) 0.43452(14)
C9 C 2.0335(3) -0.2917(4) 0.45979(15)
H5 H 2.09050 -0.27440 0.44420
C10 C 2.0236(3) -0.2458(4) 0.50774(15)
C11 C 1.9392(3) -0.2752(4) 0.53146(15)
H6 H 1.93220 -0.24580 0.56370
C12 C 1.8646(3) -0.3489(4) 0.50697(15)
C13 C 1.8759(3) -0.3881(4) 0.45857(15)
H7 H 1.82550 -0.43280 0.44170
C14 C 2.1025(3) -0.1653(4) 0.53342(15)
C15 C 2.0845(3) -0.0467(4) 0.56409(16)
H8 H 2.02190 -0.01910 0.56950
C16 C 2.1573(3) 0.0313(4) 0.58672(16)
H9 H 2.14300 0.10900 0.60760
C17 C 2.2509(3) -0.0044(4) 0.57883(16)
C18 C 2.2697(3) -0.1266(5) 0.54966(17)
H10 H 2.33230 -0.15620 0.54550
C19 C 2.1967(3) -0.2052(5) 0.52669(17)
H11 H 2.21100 -0.28510 0.50670
C20 C 2.3315(4) 0.0815(5) 0.60224(18)
C21 C 1.7762(3) -0.3921(4) 0.53261(15)
C22 C 1.7825(3) -0.4596(5) 0.57827(16)
H12 H 1.84110 -0.46570 0.59450
C23 C 1.7022(3) -0.5179(5) 0.59979(17)
H13 H 1.70790 -0.56600 0.62970
C24 C 1.6147(3) -0.5054(5) 0.57754(17)
C25 C 1.6068(4) -0.4324(5) 0.53319(17)
H14 H 1.54720 -0.41850 0.51860
C26 C 1.6874(3) -0.3799(5) 0.51041(16)
H15 H 1.68160 -0.33600 0.47980
C27 C 1.5265(4) -0.5640(5) 0.60085(17)
C28 C 1.7988(5) -1.3327(6) 0.1922(3)
H16 H 1.80470 -1.32880 0.15750
H17 H 1.73450 -1.35710 0.20010
H18 H 1.84090 -1.40680 0.20540
C29 C 1.8197(5) -1.1761(6) 0.2654(2)
H19 H 1.83690 -1.07740 0.27520
H20 H 1.86320 -1.24560 0.28000
H21 H 1.75640 -1.19730 0.27570
C30 C 1.8457(3) -1.0756(6) 0.1846(2)
H22 H 1.84510 -1.09150 0.15110
N2 N 1.8570(6) 0.0086(8) 0.7189(3)
O8 O 1.7818(5) 0.0814(9) 0.6511(3)
C31 C 1.8689(10) 0.0048(17) 0.7690(4)
H23 H 1.81490 0.04920 0.78390
H24 H 1.92530 0.05860 0.77820
H25 H 1.87490 -0.09620 0.77960
C32 C 1.932(1) -0.0631(13) 0.6895(6)
H26 H 1.91300 -0.06230 0.65570
H27 H 1.94080 -0.16360 0.70020
H28 H 1.99060 -0.00970 0.69370
C33 C 1.7912(7) 0.0764(12) 0.6965(4)
H29 H 1.74670 0.12620 0.71500
N3 N 2.6042(3) 0.0153(4) 0.60844(16)
H30 H 2.54520 0.05070 0.61280
H31 H 2.64280 0.05820 0.63080
C34 C 2.6347(6) 0.0582(9) 0.5604(3)
H32 H 2.63330 0.16420 0.55760
H33 H 2.59290 0.01560 0.53620
H34 H 2.69830 0.02340 0.55560
C35 C 2.6034(6) -0.1429(7) 0.6172(3)
H35 H 2.58280 -0.16190 0.64970
H36 H 2.66620 -0.18190 0.61330
H37 H 2.56060 -0.18980 0.59430
Zn1C Zn 1.41945(4) -0.72109(5) 0.661902(18)
Zn1C* Zn 2.41945(4) 0.27891(5) 0.661902(18)
O4C O 1.8086(2) -0.6884(3) 0.12937(12)
O5C O 2.0405(2) -0.8370(3) 0.13402(12)
#END
