
#######################################################################
#
#                 Cambridge Crystallographic Data Centre
#                                CCDC
#
#######################################################################
#
# If this CIF has been generated from an entry in the Cambridge
# Structural Database, then it will include bibliographic, chemical,
# crystal, experimental, refinement or atomic coordinate data resulting
# from the CCDC's data processing and validation procedures.
#
#######################################################################

data_CSD_CIF_WOTCUG
_audit_creation_date 2019-11-08
_audit_creation_method CSD-ConQuest-V1
_database_code_CSD WOTCUG
_database_code_depnum_ccdc_archive 'CCDC 1443177'
_chemical_formula_sum 'C29 H27 Ca1 Cd2 N1 O22'
_chemical_formula_moiety
;
(C27 H11 Ca1 Cd2 O18 1-)n,C2 H8 N1 1+,4(H2 O1)
;
_journal_coden_Cambridge 29
_journal_volume 645
_journal_year 2019
_journal_page_first 1177
_journal_name_full 'Z.Anorg.Allg.Chem. '
loop_
_publ_author_name
"Ai-Qin Zhang"
"Li-Long Liu"
_chemical_name_systematic
;
catena-[dimethylammonium (\m-benzene-1,3,5-tricarboxylato)-bis(\m-hydrogen 
benzene-1,3,5-tricarboxylato)-calcium-di-cadmium(ii) tetrahydrate]
;
_cell_volume   1779.160
_diffrn_ambient_temperature 293
#These two values have been output from a single CSD field.
_refine_ls_R_factor_gt 0.0945
_refine_ls_wR_factor_gt 0.0945
_symmetry_cell_setting monoclinic
_symmetry_space_group_name_H-M 'P 2/c'
_symmetry_Int_Tables_number 13
loop_
_symmetry_equiv_pos_site_id
_symmetry_equiv_pos_as_xyz
1 x,y,z
2 -x,y,1/2-z
3 -x,-y,-z
4 x,-y,-1/2+z
_cell_length_a 9.8650(5)
_cell_length_b 13.2131(3)
_cell_length_c 14.5137(8)
_cell_angle_alpha 90
_cell_angle_beta 109.873(4)
_cell_angle_gamma 90
_cell_formula_units_Z 2
loop_
_atom_type_symbol
_atom_type_radius_bond
C 0.68
H 0.23
Ca 1.76
Cd 1.44
N 0.68
O 0.68
loop_
_atom_site_label
_atom_site_type_symbol
_atom_site_fract_x
_atom_site_fract_y
_atom_site_fract_z
Cd1 Cd 0.94308(11) 0.26984(7) 0.85404(7)
Ca1 Ca 1.00000 0.50000 1.00000
O1 O 1.0025(15) 0.2083(8) 1.0055(8)
C1 C 1.00000 -0.0693(14) 1.25000
O2 O 0.6853(11) 0.2715(8) 0.8446(8)
C2 C 1.0120(18) 0.2025(11) 1.1696(10)
C3 C 0.4421(18) 0.3796(11) 0.8615(12)
H1 H 0.43250 0.30980 0.85380
C4 C 1.00000 0.0456(16) 1.25000
C5 C 1.0130(19) 0.0987(11) 1.1699(11)
H2 H 1.02240 0.06360 1.11690
O3 O 0.8177(10) 0.4095(8) 0.8818(8)
C6 C 0.485(2) 0.7001(14) 0.9001(17)
O4 O 1.0292(14) 0.3537(8) 1.0856(8)
O5 O 0.1182(13) 0.4275(9) 0.9061(9)
C7 C 1.00000 0.2557(16) 1.25000
H3 H 1.00000 0.32610 1.25000
O6 O 0.1555(10) 0.3030(7) 0.8178(7)
C8 C 0.3271(16) 0.4370(11) 0.8664(11)
C9 C 0.5728(15) 0.4262(11) 0.8682(9)
C10 C 0.5832(16) 0.5290(11) 0.8772(11)
H4 H 0.66890 0.56100 0.88090
O7 O 1.0410(14) -0.1102(8) 1.1867(8)
C11 C 0.3421(17) 0.5424(12) 0.8767(11)
H5 H 0.26600 0.58180 0.88050
C12 C 0.4673(17) 0.5861(12) 0.8809(12)
O8 O 0.6117(18) 0.7317(13) 0.9082(19)
H6 H 0.61660 0.79280 0.91830
O9 O 0.3910(19) 0.7506(11) 0.9087(16)
C13 C 0.7003(14) 0.3631(10) 0.8656(10)
C14 C 1.0130(18) 0.2593(10) 1.0810(11)
C15 C 0.1891(16) 0.3892(11) 0.8614(10)
O10 O 0.311(2) 0.1044(13) 0.5242(16)
O11 O 0.729(2) 0.9058(13) 0.990(2)
N1 N 0.50000 0.104(3) 0.75000
H7 H 0.47(2) 0.153(12) 0.713(13)
C16 C 0.612(4) 0.044(4) 0.717(3)
H8 H 0.67000 0.00220 0.77000
H9 H 0.67350 0.09090 0.69910
H10 H 0.56280 0.00220 0.66170
O1A O 0.9975(15) 0.2083(8) 1.4945(8)
C2A C 0.9880(18) 0.2025(11) 1.3304(10)
C5A C 0.9870(19) 0.0987(11) 1.3301(11)
H2A H 0.97760 0.06360 1.38310
O4A O 0.9708(14) 0.3537(8) 1.4144(8)
O7A O 0.9590(14) -0.1102(8) 1.3133(8)
C14A C 0.9870(18) 0.2593(10) 1.4190(11)
Cd1A Cd 0.05692(11) 0.26984(7) 0.64596(7)
O2A O 0.3147(11) 0.2715(8) 0.6554(8)
C3A C 0.5579(18) 0.3796(11) 0.6385(12)
H1A H 0.56750 0.30980 0.64620
O3A O 0.1823(10) 0.4095(8) 0.6182(8)
C6A C 0.515(2) 0.7001(14) 0.5999(17)
O5A O 0.8818(13) 0.4275(9) 0.5939(9)
O6A O 0.8445(10) 0.3030(7) 0.6822(7)
C8A C 0.6729(16) 0.4370(11) 0.6336(11)
C9A C 0.4272(15) 0.4262(11) 0.6318(9)
C10A C 0.4168(16) 0.5290(11) 0.6228(11)
H4A H 0.33110 0.56100 0.61910
C11A C 0.6579(17) 0.5424(12) 0.6233(11)
H5A H 0.73400 0.58180 0.61950
C12A C 0.5327(17) 0.5861(12) 0.6191(12)
O8A O 0.3883(18) 0.7317(13) 0.5918(19)
H6A H 0.38340 0.79280 0.58170
O9A O 0.6090(19) 0.7506(11) 0.5913(16)
C13A C 0.2997(14) 0.3631(10) 0.6344(10)
C15A C 0.8109(16) 0.3892(11) 0.6386(10)
Cd1* Cd -0.05692(11) 0.26984(7) 0.85404(7)
Cd1A* Cd 1.05692(11) 0.26984(7) 0.64596(7)
Cd1A** Cd 1.05692(11) 0.26984(7) 1.64596(7)
Cd1B Cd 1.05692(11) -0.26984(7) 1.14596(7)
Cd1C Cd 0.94308(11) -0.26984(7) 1.35404(7)
Ca1* Ca 0.00000 0.50000 1.00000
Ca1A Ca 0.00000 0.50000 0.50000
Ca1A* Ca 1.00000 0.50000 0.50000
Ca1A** Ca 1.00000 0.50000 1.50000
O1A* O -0.0025(15) 0.2083(8) 0.4945(8)
O3B O 1.1823(10) 0.5905(8) 1.1182(8)
O4B O 0.9708(14) 0.6463(8) 0.9144(8)
O5* O 1.1182(13) 0.4275(9) 0.9061(9)
O5A* O -0.1182(13) 0.4275(9) 0.5939(9)
O5B O 0.8818(13) 0.5725(9) 1.0939(9)
O6* O 1.1555(10) 0.3030(7) 0.8178(7)
O6A* O -0.1555(10) 0.3030(7) 0.6822(7)
O7B O 0.9590(14) 0.1102(8) 0.8133(8)
O7C O 0.0410(14) 0.1102(8) 0.6867(8)
H7A H 0.53(2) 0.153(12) 0.787(13)
C16A C 0.388(4) 0.044(4) 0.783(3)
H8A H 0.33000 0.00220 0.73000
H9A H 0.32650 0.09090 0.80090
H10A H 0.43720 0.00220 0.83830
#END
