
#######################################################################
#
#                 Cambridge Crystallographic Data Centre
#                                CCDC
#
#######################################################################
#
# If this CIF has been generated from an entry in the Cambridge
# Structural Database, then it will include bibliographic, chemical,
# crystal, experimental, refinement or atomic coordinate data resulting
# from the CCDC's data processing and validation procedures.
#
#######################################################################

data_CSD_CIF_WOTLOI
_audit_creation_date 2015-01-16
_audit_creation_method CSD-ConQuest-V1
_database_code_CSD WOTLOI
_database_code_depnum_ccdc_archive 'CCDC 998239'
_chemical_formula_sum 'C60 H76 B1 Cl1 Cu3 N30 O48 W12'
_chemical_formula_moiety
;
(C60 H60 Cl1 Cu3 N30 5+)n,n(B1 O40 W12 5-),8n(H2 O1)
;
_journal_coden_Cambridge 1350
_journal_volume 17
_journal_year 2015
_journal_page_first 1631
_journal_name_full 'CrystEngComm '
loop_
_publ_author_name
"Xin-Xin Lu"
"Yu-Hui Luo"
"Yan Xu"
"Hong Zhang"
_chemical_name_systematic
;
catena-(pentakis(\m~2~-1,4-bis(1,2,4-Triazol-1-ylmethyl)benzene)-(\m~2~-chloro
)-tri-copper 
(\m~12~-tetraoxyborate)-tetracosakis(\m~2~-oxo)-dodecaoxo-dodeca-tungsten 
octahydrate)
;
_cell_volume   2432.971
_exptl_crystal_colour 'blue'
_exptl_crystal_density_diffrn 3.023
_exptl_crystal_description 'block'
_diffrn_ambient_temperature 293
_refine_special_details
;
The centre of the anion cluster is disordered by symmetry.

;
#These two values have been output from a single CSD field.
_refine_ls_R_factor_gt 0.0527
_refine_ls_wR_factor_gt 0.0527
_symmetry_cell_setting triclinic
_symmetry_space_group_name_H-M 'P -1'
_symmetry_Int_Tables_number 2
loop_
_symmetry_equiv_pos_site_id
_symmetry_equiv_pos_as_xyz
1 x,y,z
2 -x,-y,-z
_cell_length_a 11.3945(5)
_cell_length_b 14.8843(8)
_cell_length_c 15.8690(7)
_cell_angle_alpha 64.690(5)
_cell_angle_beta 89.747(4)
_cell_angle_gamma 89.661(4)
_cell_formula_units_Z 1
loop_
_atom_type_symbol
_atom_type_radius_bond
C 0.68
H 0.23
B 0.83
Cl 0.99
Cu 1.32
N 0.68
O 0.68
W 1.62
loop_
_atom_site_label
_atom_site_type_symbol
_atom_site_fract_x
_atom_site_fract_y
_atom_site_fract_z
W1 W 0.29612(4) 0.17466(4) 0.86829(4)
W2 W 0.29903(4) -0.05615(4) 0.86509(4)
W3 W 0.20384(4) -0.03110(4) 1.06269(4)
W4 W 0.40307(5) 0.03735(4) 1.19023(4)
W5 W 0.50441(4) 0.23385(4) 0.99186(4)
W6 W 0.59010(5) 0.19985(4) 0.79770(4)
B1 B 0.50000 0.00000 1.00000
O1 O 0.2014(8) 0.2592(7) 0.7953(7)
O2 O 0.6301(8) 0.2985(6) 0.7013(7)
O3 O 0.5048(7) 0.3487(6) 0.9890(7)
O4 O 0.5676(7) 0.0348(7) 1.2101(8)
O5 O 0.3573(7) 0.0538(7) 1.2843(7)
O6 O 0.4131(9) -0.1047(7) 1.2481(9)
O7 O 0.2624(9) -0.1554(7) 1.1494(8)
O8 O 0.2040(8) -0.0826(7) 0.7995(7)
O9 O 0.0640(7) -0.0469(7) 1.0956(8)
O10 O 0.2045(10) -0.0740(7) 0.9679(8)
O11 O 0.2738(10) 0.0796(7) 0.8198(9)
O12 O 0.4284(8) 0.2156(10) 0.7859(9)
O13 O 0.5815(8) 0.2598(9) 0.8834(9)
O14 O 0.4159(8) 0.1683(8) 1.1028(8)
O15 O 0.2602(9) 0.0258(7) 1.1420(8)
O16 O 0.3591(8) 0.2430(9) 0.9319(8)
O17 O 0.1992(10) 0.1002(7) 0.9678(7)
O18 O 0.3769(11) 0.0166(10) 0.9629(10)
O19 O 0.4779(11) 0.1094(10) 0.9395(10)
O20 O 0.4132(11) -0.0348(10) 1.0814(10)
O21 O 0.3605(7) -0.1869(7) 0.9403(8)
O22 O 0.5192(11) 0.0605(10) 1.057(1)
Cu1 Cu 0.50000 0.50000 1.00000
Cu2 Cu 0.89375(14) 0.63759(13) 1.35754(13)
Cl1 Cl 1.00000 0.50000 1.50000
C1 C 0.3394(10) 0.6394(9) 0.8583(9)
H1 H 0.36520 0.69210 0.87000
C2 C 0.3103(12) 0.4981(10) 0.8633(10)
H2 H 0.31300 0.42980 0.88200
C3 C 0.2291(12) 0.7404(11) 0.712(1)
H3 H 0.15790 0.72820 0.68530
H4 H 0.21160 0.78970 0.73500
C4 C 0.3212(12) 0.7782(10) 0.6396(11)
C5 C 0.3222(15) 0.7582(15) 0.5641(13)
H5 H 0.25970 0.72310 0.55570
C6 C 0.4091(16) 0.7865(15) 0.5006(14)
H6 H 0.40650 0.76890 0.45100
C7 C 0.5014(13) 0.8411(11) 0.5083(11)
C8 C 0.5014(15) 0.8631(12) 0.5798(13)
H7 H 0.56310 0.90040 0.58610
C9 C 0.4121(16) 0.8328(12) 0.6473(14)
H8 H 0.41520 0.85000 0.69710
C10 C 0.7014(13) 0.7520(14) 0.3981(14)
H9 H 0.66100 0.76640 0.34300
C11 C 0.8137(15) 0.6946(14) 0.5068(13)
H10 H 0.87180 0.65530 0.54680
C12 C 0.6912(12) 0.6277(10) 0.8868(11)
H11 H 0.71290 0.64550 0.93410
C13 C 0.6103(15) 0.5607(13) 0.8116(13)
H12 H 0.55940 0.52190 0.79550
C14 C 0.8323(12) 0.7374(11) 0.7656(12)
H13 H 0.79950 0.80400 0.74010
H14 H 0.87210 0.72810 0.71570
C15 C 0.9229(13) 0.7850(11) 0.8862(11)
H15 H 0.87060 0.83820 0.86780
C16 C 0.919(1) 0.7246(10) 0.8421(11)
C17 C 0.9960(12) 0.6415(11) 0.8748(11)
H16 H 0.99520 0.59730 0.84750
C18 C 1.0710(11) 0.6265(10) 0.9463(11)
H17 H 1.12050 0.57140 0.96740
C19 C 1.0759(11) 0.6909(11) 0.9884(11)
C20 C 1.0004(12) 0.7716(11) 0.9569(12)
H18 H 1.00200 0.81660 0.98340
C21 C 1.1603(11) 0.6730(11) 1.0653(10)
H19 H 1.22300 0.62970 1.06290
H20 H 1.19490 0.73560 1.05710
C22 C 1.0505(12) 0.6732(10) 1.2011(11)
H21 H 1.05320 0.74100 1.18480
C23 C 1.0160(15) 0.5248(12) 1.2656(14)
H22 H 0.98690 0.46420 1.30850
C24 C 0.9743(11) 0.8454(10) 1.3130(11)
H23 H 0.90680 0.87570 1.28020
C25 C 1.1422(11) 0.8276(10) 1.3812(11)
H24 H 1.21210 0.84060 1.40380
C26 C 1.0608(12) 0.9939(10) 1.3252(11)
H25 H 1.00630 1.03470 1.27710
H26 H 1.13910 1.02030 1.30630
C27 C 1.0296(11) 0.9979(10) 1.4153(11)
C28 C 0.9161(12) 1.0141(11) 1.4346(12)
H27 H 0.85840 1.02660 1.38970
C29 C 1.1134(12) 0.9880(12) 1.4813(13)
H28 H 1.19200 0.98250 1.46800
C30 C 0.5997(14) 0.8736(13) 0.4399(12)
H29 H 0.56750 0.90020 0.37740
H30 H 0.64200 0.92650 0.44650
N1 N 0.3682(8) 0.5430(7) 0.9083(8)
N2 N 0.2501(10) 0.5580(9) 0.7915(9)
N3 N 0.2690(9) 0.6468(8) 0.7902(8)
N4 N 0.6802(11) 0.7948(11) 0.4512(10)
N5 N 0.7559(14) 0.7609(13) 0.5243(12)
N6 N 0.7859(12) 0.6858(11) 0.4291(10)
N7 N 0.6102(9) 0.5635(8) 0.8944(8)
N8 N 0.7374(9) 0.6635(8) 0.8043(8)
N9 N 0.6896(13) 0.6183(12) 0.7558(10)
N10 N 1.1030(9) 0.6279(8) 1.1547(9)
N11 N 1.0793(14) 0.5318(10) 1.1960(12)
N12 N 0.9944(9) 0.6080(7) 1.2731(8)
N13 N 0.9990(9) 0.7507(9) 1.3432(8)
N14 N 1.1026(12) 0.7407(11) 1.3868(13)
N15 N 1.0567(9) 0.8909(8) 1.3352(8)
O23 O 0.7803(10) 0.5320(8) 1.3648(9)
O24 O 0.566(2) 0.5492(17) 0.288(2)
O25 O 0.423(3) 0.416(4) 0.416(3)
O26 O 0.729(7) 0.451(4) 0.564(5)
O27? O 0.635(4) 0.443(3) 0.513(3)
O18A O 0.6231(11) -0.0166(10) 1.0371(10)
O19A O 0.5221(11) -0.1094(10) 1.0605(10)
O20A O 0.5868(11) 0.0348(10) 0.9186(10)
O22A O 0.4808(11) -0.0605(10) 0.943(1)
W1A W 0.70388(4) -0.17466(4) 1.13171(4)
W2A W 0.70097(4) 0.05615(4) 1.13491(4)
W3A W 0.79616(4) 0.03110(4) 0.93731(4)
W4A W 0.59693(5) -0.03735(4) 0.80977(4)
W5A W 0.49559(4) -0.23385(4) 1.00814(4)
W6A W 0.40990(5) -0.19985(4) 1.20230(4)
O1A O 0.7986(8) -0.2592(7) 1.2047(7)
O2A O 0.3699(8) -0.2985(6) 1.2987(7)
O3A O 0.4952(7) -0.3487(6) 1.0110(7)
O4A O 0.4324(7) -0.0348(7) 0.7899(8)
O5A O 0.6427(7) -0.0538(7) 0.7157(7)
O6A O 0.5869(9) 0.1047(7) 0.7519(9)
O7A O 0.7376(9) 0.1554(7) 0.8506(8)
O8A O 0.7960(8) 0.0826(7) 1.2005(7)
O9A O 0.9360(7) 0.0469(7) 0.9044(8)
O10A O 0.7955(10) 0.0740(7) 1.0321(8)
O11A O 0.7262(10) -0.0796(7) 1.1802(9)
O12A O 0.5716(8) -0.2156(10) 1.2141(9)
O13A O 0.4185(8) -0.2598(9) 1.1166(9)
O14A O 0.5841(8) -0.1683(8) 0.8972(8)
O15A O 0.7398(9) -0.0258(7) 0.8580(8)
O16A O 0.6409(8) -0.2430(9) 1.0681(8)
O17A O 0.8008(10) -0.1002(7) 1.0322(7)
O21A O 0.6395(7) 0.1869(7) 1.0597(8)
C24A C 1.0257(11) 1.1546(10) 1.6870(11)
H23A H 1.09320 1.12430 1.71980
C25A C 0.8578(11) 1.1724(10) 1.6188(11)
H24A H 0.78790 1.15940 1.59620
C26A C 0.9392(12) 1.0061(10) 1.6748(11)
H25A H 0.99370 0.96530 1.72290
H26A H 0.86090 0.97970 1.69370
C27A C 0.9704(11) 1.0021(10) 1.5847(11)
C28A C 1.0839(12) 0.9859(11) 1.5654(12)
H27A H 1.14160 0.97340 1.61030
C29A C 0.8866(12) 1.0120(12) 1.5187(13)
H28A H 0.80800 1.01750 1.53200
N13A N 1.0010(9) 1.2493(9) 1.6568(8)
N14A N 0.8974(12) 1.2593(11) 1.6132(13)
N15A N 0.9433(9) 1.1091(8) 1.6648(8)
Cu2A Cu 0.10625(14) 0.36241(13) 0.64246(13)
C1A C 0.6606(10) 0.3606(9) 1.1417(9)
H1A H 0.63480 0.30790 1.13000
C2A C 0.6897(12) 0.5019(10) 1.1367(10)
H2A H 0.68700 0.57020 1.11800
C3A C 0.7709(12) 0.2596(11) 1.288(1)
H3A H 0.84210 0.27180 1.31470
H4A H 0.78840 0.21030 1.26500
C4A C 0.6788(12) 0.2218(10) 1.3604(11)
C5A C 0.6778(15) 0.2418(15) 1.4359(13)
H5A H 0.74030 0.27690 1.44430
C6A C 0.5909(16) 0.2135(15) 1.4994(14)
H6A H 0.59350 0.23110 1.54900
C7A C 0.4986(13) 0.1589(11) 1.4917(11)
C8A C 0.4986(15) 0.1369(12) 1.4202(13)
H7A H 0.43690 0.09960 1.41390
C9A C 0.5879(16) 0.1672(12) 1.3527(14)
H8A H 0.58480 0.15000 1.30290
C10A C 0.2986(13) 0.2480(14) 1.6019(14)
H9A H 0.33900 0.23360 1.65700
C11A C 0.1863(15) 0.3054(14) 1.4932(13)
H10A H 0.12820 0.34470 1.45320
C12A C 0.3088(12) 0.3723(10) 1.1132(11)
H11A H 0.28710 0.35450 1.06590
C13A C 0.3897(15) 0.4393(13) 1.1884(13)
H12A H 0.44060 0.47810 1.20450
C14A C 0.1677(12) 0.2626(11) 1.2344(12)
H13A H 0.20050 0.19600 1.25990
H14A H 0.12790 0.27190 1.28430
C15A C 0.0771(13) 0.2150(11) 1.1138(11)
H15A H 0.12940 0.16180 1.13220
C16A C 0.081(1) 0.2754(10) 1.1579(11)
C17A C 0.0040(12) 0.3585(11) 1.1252(11)
H16A H 0.00480 0.40270 1.15250
C18A C -0.0710(11) 0.3735(10) 1.0537(11)
H17A H -0.12050 0.42860 1.03260
C19A C -0.0759(11) 0.3091(11) 1.0116(11)
C20A C -0.0004(12) 0.2284(11) 1.0431(12)
H18A H -0.00200 0.18340 1.01660
C21A C -0.1603(11) 0.3270(11) 0.9347(10)
H19A H -0.22300 0.37030 0.93710
H20A H -0.19490 0.26440 0.94290
C22A C -0.0505(12) 0.3268(10) 0.7989(11)
H21A H -0.05320 0.25900 0.81520
C23A C -0.0160(15) 0.4752(12) 0.7344(14)
H22A H 0.01310 0.53580 0.69150
C30A C 0.4003(14) 0.1264(13) 1.5601(12)
H29A H 0.43250 0.09980 1.62260
H30A H 0.35800 0.07350 1.55350
N1A N 0.6318(8) 0.4570(7) 1.0917(8)
N2A N 0.7499(10) 0.4420(9) 1.2085(9)
N3A N 0.7310(9) 0.3532(8) 1.2098(8)
N4A N 0.3198(11) 0.2052(11) 1.5488(10)
N5A N 0.2441(14) 0.2391(13) 1.4757(12)
N6A N 0.2141(12) 0.3142(11) 1.5709(10)
N7A N 0.3898(9) 0.4365(8) 1.1056(8)
N8A N 0.2626(9) 0.3365(8) 1.1957(8)
N9A N 0.3104(13) 0.3817(12) 1.2442(10)
N10A N -0.1030(9) 0.3721(8) 0.8453(9)
N11A N -0.0793(14) 0.4682(10) 0.8040(12)
N12A N 0.0056(9) 0.3920(7) 0.7269(8)
Cu2* Cu 0.89375(14) 0.63759(13) 0.35754(13)
Cu2A* Cu 0.10625(14) 0.36241(13) 1.64246(13)
Cu2A** Cu 1.10625(14) 0.36241(13) 1.64246(13)
Cu2A*** Cu 1.10625(14) 1.36241(13) 1.64246(13)
Cl1* Cl 0.00000 0.50000 0.50000
N6* N 0.7859(12) 0.6858(11) 1.4291(10)
N6A* N 0.2141(12) 0.3142(11) 0.5709(10)
N13A* N 0.0010(9) 0.2493(9) 0.6568(8)
#END
