
#######################################################################
#
#                 Cambridge Crystallographic Data Centre
#                                CCDC
#
#######################################################################
#
# If this CIF has been generated from an entry in the Cambridge
# Structural Database, then it will include bibliographic, chemical,
# crystal, experimental, refinement or atomic coordinate data resulting
# from the CCDC's data processing and validation procedures.
#
#######################################################################

data_CSD_CIF_WOWHIZ
_audit_creation_date 2001-03-23
_audit_creation_method CSD-ConQuest-V1
_database_code_CSD WOWHIZ
_database_code_depnum_ccdc_archive 'CCDC 147016'
_chemical_formula_sum 'C40 H40 Co8 N18 O50 V10'
_chemical_formula_moiety
;
(H4 N1 1+)2n,n(C40 H28 Co8 N16 O48 V10 2-),2n(H2 O1)
;
_journal_coden_Cambridge 179
_journal_volume 39
_journal_year 2000
_journal_page_first 4528
_journal_name_full 'Angew.Chem.,Int.Ed. '
loop_
_publ_author_name
"Li-Min Zheng"
"T.Whitfield"
"Xiqu Wang"
"A.J.Jacobsen"
_chemical_name_systematic
;
catena-(bis(Ammonium) 
octakis(\m~3~-2-pyrazinecarboxylato)-tetracosakis(\m~2~-oxo)-diaqua-hexaoxo-oc
ta-cobalt-deca-vanadium dihydrate)
;
_cell_volume   7728.781
_exptl_crystal_colour 'orange'
_exptl_crystal_density_diffrn 2.195
_exptl_crystal_description 'flat needle'
_diffrn_ambient_temperature ?
_diffrn_special_details
;
The study was carried out at room temperature,in the range 283-303K

;
_refine_special_details
;
V10 is disordered over two sites.

;
#These two values have been output from a single CSD field.
_refine_ls_R_factor_gt 0.0517
_refine_ls_wR_factor_gt 0.0517
_symmetry_cell_setting monoclinic
_symmetry_space_group_name_H-M 'C c'
_symmetry_Int_Tables_number 9
loop_
_symmetry_equiv_pos_site_id
_symmetry_equiv_pos_as_xyz
1 x,y,z
2 x,-y,1/2+z
3 1/2+x,1/2+y,z
4 1/2+x,1/2-y,1/2+z
_cell_length_a 12.4122(11)
_cell_length_b 24.958(2)
_cell_length_c 24.949(2)
_cell_angle_alpha 90
_cell_angle_beta 90.102(2)
_cell_angle_gamma 90
_cell_formula_units_Z 4
loop_
_atom_type_symbol
_atom_type_radius_bond
C 0.68
H 0.23
Co 1.33
N 0.68
O 0.68
V 1.30
loop_
_atom_site_label
_atom_site_type_symbol
_atom_site_fract_x
_atom_site_fract_y
_atom_site_fract_z
Co1 Co 0.04348(14) 0.76705(6) 0.29470(6)
Co2 Co 0.0442(2) 0.53300(7) 0.30095(7)
Co3 Co 0.04803(15) 0.46963(6) 0.03349(7)
Co4 Co 0.04464(15) 0.76686(7) 0.52630(6)
Co5 Co -0.4488(2) 0.65413(6) 0.24904(7)
Co6 Co 0.5521(2) 0.52133(5) -0.09050(7)
Co7 Co 0.0513(2) 0.85461(6) 0.07698(7)
Co8 Co -0.4526(2) 0.82232(5) 0.41565(7)
V1 V 0.6613(2) 0.45432(9) 0.17271(9)
V2 V 0.1517(2) 0.90052(8) 0.29691(9)
V3 V 0.4342(2) 0.89799(8) 0.30554(9)
V4 V -0.3846(2) 0.86791(8) 0.21318(9)
V5 V -0.3483(2) 0.75115(8) 0.15538(9)
V6 V -0.0656(2) 0.75223(9) 0.16136(9)
V7 V 0.1330(2) 0.66812(10) 0.13268(10)
V8 V 0.1590(2) 0.59992(8) 0.01965(9)
V9 V 0.4379(2) 0.59847(9) 0.01634(9)
V10 V 0.5073(4) 0.5544(2) 0.1498(2)
V11? V 1.0786(4) 0.9213(2) 0.6289(2)
O1 O 0.0304(6) 0.6833(3) 0.3076(4)
O2 O -0.0211(8) 0.4611(5) 0.1086(4)
O3 O 0.1262(9) 0.6071(4) 0.3016(5)
O4 O 0.0850(9) 0.5271(4) 0.2198(4)
O5 O 0.0324(7) 0.5386(3) 0.3842(3)
O6 O 0.1260(8) 0.5242(5) 0.4603(4)
O7 O 0.0302(7) 0.3858(3) 0.0203(4)
O8 O 0.1211(7) 0.3082(3) 0.0252(4)
O9 O 0.0322(8) 0.7590(4) 0.4420(3)
O10 O 0.1224(7) 0.7759(4) 0.3659(4)
O11 O -0.4787(7) 0.5904(4) 0.3024(4)
O12 O -0.3890(8) 0.5340(4) 0.3558(4)
O13 O -0.4722(7) 0.4594(4) -0.0353(4)
O14 O -0.3796(8) 0.4059(4) 0.0188(5)
O15 O -0.4753(7) 0.7036(4) 0.5163(4)
O16 O -0.3879(8) 0.7643(4) 0.4666(4)
O17 O -0.4788(7) 0.7592(4) 0.3601(4)
O18 O -0.3888(8) 0.6954(3) 0.3185(3)
O19 O 0.0952(8) 0.9082(4) 0.1388(5)
O20 O 0.7887(9) 0.4472(5) 0.1633(5)
O21 O 0.6322(9) 0.4483(4) 0.2420(4)
O22 O 0.6317(12) 0.5209(4) 0.1523(4)
O23 O 0.5981(8) 0.5770(4) -0.1477(4)
O24 O 0.0886(7) 0.8448(3) 0.2782(4)
O25 O 0.2921(8) 0.8871(4) 0.3042(4)
O26 O -0.5188(9) 0.8769(4) 0.3635(4)
O27 O -0.0339(8) 0.4626(4) 0.3009(4)
O28 O -0.5024(9) 0.8619(4) 0.2539(5)
O29 O -0.3754(10) 0.9277(3) 0.1846(4)
O30 O -0.2786(10) 0.8592(5) 0.2517(4)
O31 O -0.3911(8) 0.8192(3) 0.1591(4)
O32 O -0.3844(8) 0.7193(3) 0.2093(4)
O33 O -0.4094(7) 0.7250(4) 0.1036(4)
O34 O -0.2056(8) 0.7457(3) 0.1470(3)
O35 O -0.0435(8) 0.7574(4) 0.2262(4)
O36 O -0.0166(8) 0.8078(4) 0.1304(4)
O37 O -0.0023(10) 0.6938(6) 0.1369(6)
O38 O 0.1423(13) 0.6134(5) 0.1681(6)
O39 O 0.2224(10) 0.7113(5) 0.1503(5)
O40 O 0.1487(10) 0.6535(3) 0.0618(4)
O41 O 0.0973(7) 0.6156(4) -0.0379(4)
O42 O 0.0984(8) 0.5477(4) 0.0471(4)
O43 O 0.2969(7) 0.5856(4) 0.0086(4)
O44 O 0.4624(7) 0.6630(4) 0.0229(4)
O45 O 0.5016(10) 0.5755(5) -0.0381(5)
O46 O 0.4861(10) 0.5635(4) 0.0748(5)
O47 O 0.5113(8) 0.6107(4) 0.1818(4)
O48 O 1.1935(19) 0.8904(11) 0.6120(13)
O49 O 0.4231(19) 0.5094(8) 0.1789(8)
N1 N 0.1978(8) 0.7388(4) 0.2678(4)
N2 N 0.3977(8) 0.6911(4) 0.2545(4)
N3 N 0.1978(9) 0.5019(5) 0.3260(4)
N4 N 0.3984(10) 0.4876(5) 0.3724(5)
N5 N 0.1981(9) 0.4391(4) 0.0582(4)
N6 N 0.3964(9) 0.3897(5) 0.0674(5)
N7 N 0.1919(8) 0.7986(4) 0.5009(4)
N8 N 0.3948(9) 0.8168(5) 0.4518(5)
N9 N -0.2986(9) 0.6164(5) 0.2510(5)
N10 N -0.1027(10) 0.5688(5) 0.2783(5)
N11 N -0.2954(8) 0.5189(4) -0.0528(4)
N12 N -0.1010(9) 0.4930(5) -0.0019(5)
N13 N -0.2987(8) 0.6842(4) 0.5751(4)
N14 N -0.1042(9) 0.7305(5) 0.5465(5)
N15 N -0.3033(9) 0.8170(5) 0.3760(4)
N16 N -0.1088(8) 0.7888(4) 0.3290(4)
C1 C 0.2822(11) 0.7653(4) 0.2520(6)
H1 H 0.2752(11) 0.8016(4) 0.2442(6)
C2 C 0.3808(11) 0.7417(5) 0.2464(6)
H2 H 0.4387(11) 0.7630(5) 0.2362(6)
C3 C 0.3100(11) 0.6615(5) 0.2731(6)
H3 H 0.3180(11) 0.6255(5) 0.2821(6)
C4 C 0.2100(9) 0.6868(5) 0.2781(5)
C5 C 0.1136(11) 0.6545(4) 0.2972(5)
C6 C 0.2853(13) 0.4884(5) 0.2985(6)
H4 H 0.2769(13) 0.4816(5) 0.2620(6)
C7 C 0.3855(13) 0.4839(5) 0.3193(6)
H5 H 0.4445(13) 0.4782(5) 0.2971(6)
C8 C 0.3112(10) 0.4993(5) 0.4023(5)
H6 H 0.3184(10) 0.5030(5) 0.4392(5)
C9 C 0.2098(9) 0.5060(5) 0.3784(5)
C10 C 0.1145(11) 0.5260(5) 0.4102(6)
C11 C 0.2886(11) 0.4686(5) 0.0720(6)
H7 H 0.2822(11) 0.5049(5) 0.0801(6)
C12 C 0.3865(11) 0.4444(5) 0.0737(6)
H8 H 0.4479(11) 0.4650(5) 0.0793(6)
C13 C 0.3135(11) 0.3632(5) 0.0561(5)
H9 H 0.3191(11) 0.3262(5) 0.0529(5)
C14 C 0.2116(10) 0.3878(5) 0.0481(5)
C15 C 0.1140(11) 0.3596(5) 0.0299(5)
C16 C 0.2800(11) 0.8128(6) 0.5287(5)
H10 H 0.2727(11) 0.8178(6) 0.5654(5)
C17 C 0.3817(11) 0.8205(6) 0.5063(6)
H11 H 0.4404(11) 0.8281(6) 0.5282(6)
C18 C 0.3081(9) 0.8037(5) 0.4227(5)
H12 H 0.3138(9) 0.8007(5) 0.3857(5)
C19 C 0.2067(11) 0.7941(5) 0.4481(6)
C20 C 0.1124(9) 0.7745(5) 0.4163(5)
C21 C -0.2055(11) 0.6271(5) 0.2245(6)
H13 H -0.2067(11) 0.6498(5) 0.1950(6)
C22 C -0.1090(11) 0.6046(5) 0.2410(6)
H14 H -0.0458(11) 0.6157(5) 0.2244(6)
C23 C -0.195(1) 0.5553(5) 0.3029(6)
H15 H -0.1944(10) 0.5290(5) 0.3294(6)
C24 C -0.2918(10) 0.5804(5) 0.2891(5)
C25 C -0.3960(12) 0.5660(5) 0.3192(6)
C26 C -0.2084(10) 0.5466(5) -0.0620(5)
H16 H -0.2109(10) 0.5753(5) -0.0857(5)
C27 C -0.1091(11) 0.5335(5) -0.0359(5)
H17 H -0.0483(11) 0.5541(5) -0.0430(5)
C28 C -0.1898(11) 0.4654(5) 0.0065(5)
H18 H -0.1878(11) 0.4367(5) 0.0302(5)
C29 C -0.2868(10) 0.4778(6) -0.0188(6)
C30 C -0.3883(12) 0.4448(5) -0.0106(6)
C31 C -0.2103(11) 0.6728(5) 0.6007(5)
H19 H -0.2126(11) 0.6478(5) 0.6283(5)
C32 C -0.1126(9) 0.6967(5) 0.5884(5)
H20 H -0.0522(9) 0.6892(5) 0.6092(5)
C33 C -0.1950(12) 0.7434(5) 0.5214(5)
H21 H -0.1937(12) 0.7691(5) 0.4945(5)
C34 C -0.2912(9) 0.7194(5) 0.5347(5)
C35 C -0.394(1) 0.7309(5) 0.5028(5)
C36 C -0.2128(10) 0.8487(5) 0.3834(5)
H22 H -0.2169(10) 0.8801(5) 0.4032(5)
C37 C -0.1153(10) 0.8327(5) 0.3606(5)
H23 H -0.0534(10) 0.8527(5) 0.3673(5)
C38 C -0.1977(11) 0.7601(4) 0.3213(5)
H24 H -0.1953(11) 0.7305(4) 0.2988(5)
C39 C -0.294(1) 0.7736(5) 0.3462(5)
C40 C -0.3968(10) 0.7398(5) 0.3407(5)
O50 O 0.4146(12) 0.6052(5) 0.7068(6)
O51 O 0.7085(14) 0.8506(8) 0.9132(10)
N17 N 0.2205(11) 0.8517(5) 0.9149(7)
N18 N 0.4536(11) 0.8497(6) 0.9144(7)
O6A O 0.1260(8) 0.4758(5) -0.0397(4)
O8A O 0.1211(7) 0.6918(3) 0.5252(4)
O33C O 0.0906(7) 0.7750(4) 0.6036(4)
O44C O -0.0376(7) 0.8370(4) 0.5229(4)
O47* O -0.4887(8) 0.6107(4) 0.1818(4)
N2* N -0.6023(8) 0.6911(4) 0.2545(4)
O12A O 0.6110(8) 0.4660(4) -0.1442(4)
O13* O 0.5278(7) 0.4594(4) -0.0353(4)
N4A N 0.3984(10) 0.5124(5) -0.1276(5)
N11* N 0.7046(8) 0.5189(4) -0.0528(4)
O14B O 0.1204(8) 0.9059(4) 0.0188(5)
O15C O 0.0247(7) 0.7964(4) 0.0163(4)
N6B N -0.1036(9) 0.8897(5) 0.0674(5)
N13C N 0.2013(8) 0.8158(4) 0.0751(4)
O41C O -0.4027(7) 0.8844(4) 0.4621(4)
N8* N -0.6052(9) 0.8168(5) 0.4518(5)
O19B O 0.5952(8) 0.4082(4) 0.1388(5)
O21B O 0.1322(9) 0.9483(4) 0.2420(4)
O23C O 0.0981(8) 0.9230(4) 0.3523(4)
O26* O 0.4812(9) 0.8769(4) 0.3635(4)
O27B O 0.4661(8) 0.9626(4) 0.3009(4)
O28* O 0.4976(9) 0.8619(4) 0.2539(5)
Co3A Co 0.04803(15) 0.53037(6) 0.53349(7)
Co4A Co 0.04464(15) 0.23314(7) 0.02630(6)
Co6A Co -0.4479(2) 0.47867(5) 0.40950(7)
Co6* Co -0.4479(2) 0.52133(5) -0.09050(7)
Co7B Co -0.4487(2) 0.35461(6) 0.07698(7)
Co7C Co -0.4487(2) 0.64539(6) 0.57698(7)
V1B V 0.1613(2) 0.95432(9) 0.17271(9)
V2B V 0.6517(2) 0.40052(8) 0.29691(9)
V2C V 0.6517(2) 0.59948(8) -0.20309(9)
V3* V -0.5658(2) 0.89799(8) 0.30554(9)
V3B V -0.0658(2) 0.39799(8) 0.30554(9)
Co4C Co -0.45536(15) 0.73314(7) 0.02630(6)
Co8C Co 0.0474(2) 0.67768(5) -0.08435(7)
Co4C* Co 0.54464(15) 0.73314(7) 0.02630(6)
Co5* Co 0.5512(2) 0.65413(6) 0.24904(7)
Co6A* Co 0.5521(2) 0.47867(5) 0.40950(7)
Co7B* Co 0.5513(2) 0.35461(6) 0.07698(7)
Co8* Co 0.5474(2) 0.82232(5) 0.41565(7)
#END
