
#######################################################################
#
#                 Cambridge Crystallographic Data Centre
#                                CCDC
#
#######################################################################
#
# If this CIF has been generated from an entry in the Cambridge
# Structural Database, then it will include bibliographic, chemical,
# crystal, experimental, refinement or atomic coordinate data resulting
# from the CCDC's data processing and validation procedures.
#
#######################################################################

data_CSD_CIF_WOXREG
_audit_creation_date 2002-11-22
_audit_creation_method CSD-ConQuest-V1
_database_code_CSD WOXREG
_database_code_depnum_ccdc_archive 'CCDC 1294887'
_chemical_formula_sum 'C4 H4 Cd1 K2 O10'
_chemical_formula_moiety
;
(K1 1+)2n,n(C4 Cd1 O8 2-),2n(H2 O1)
;
_journal_coden_Cambridge 208
_journal_volume 162
_journal_year 2001
_journal_page_first 150
_journal_name_full 'J.Solid State Chem. '
loop_
_publ_author_name
"R.Vaidhyanathan"
"S.Natarajan"
"C.N.R.Rao"
_chemical_name_systematic
;
catena-(Di-potassium bis(\m~2~-oxalato)-cadmium dihydrate)
;
_cell_volume   2075.380
_exptl_crystal_density_diffrn 2.552
_exptl_crystal_description 'needle'
_diffrn_ambient_temperature ?
_diffrn_special_details
;
The study was carried out at room temperature,in the range 283-303K

;
#These two values have been output from a single CSD field.
_refine_ls_R_factor_gt 0.021
_refine_ls_wR_factor_gt 0.021
_symmetry_cell_setting orthorhombic
_symmetry_space_group_name_H-M 'F d d 2'
_symmetry_Int_Tables_number 43
loop_
_symmetry_equiv_pos_site_id
_symmetry_equiv_pos_as_xyz
1 x,y,z
2 -x,-y,z
3 1/4-x,1/4+y,1/4+z
4 3/4+x,3/4-y,1/4+z
5 x,1/2+y,1/2+z
6 -x,1/2-y,1/2+z
7 1/4-x,3/4+y,3/4+z
8 3/4+x,1/4-y,3/4+z
9 1/2+x,y,1/2+z
10 1/2-x,-y,1/2+z
11 3/4-x,1/4+y,3/4+z
12 1/4+x,3/4-y,3/4+z
13 1/2+x,1/2+y,z
14 1/2-x,1/2-y,z
15 3/4-x,3/4+y,1/4+z
16 1/4+x,1/4-y,1/4+z
_cell_length_a 14.686(2)
_cell_length_b 18.080(2)
_cell_length_c 7.8162(8)
_cell_angle_alpha 90
_cell_angle_beta 90
_cell_angle_gamma 90
_cell_formula_units_Z 8
loop_
_atom_type_symbol
_atom_type_radius_bond
C 0.68
Cd 1.69
K 1.33
O 0.68
loop_
_atom_site_label
_atom_site_type_symbol
_atom_site_fract_x
_atom_site_fract_y
_atom_site_fract_z
Cd1 Cd 0.00000 0.00000 0.0300(1)
C1 C 0.1356(3) 0.1366(3) 0.0523(7)
C2 C 0.0905(3) 0.1317(3) 0.2322(6)
O1 O 0.1144(3) 0.0860(2) -0.0527(5)
O2 O 0.0357(3) 0.0815(2) 0.2603(6)
O3 O 0.1142(3) 0.1802(2) 0.3386(5)
O4 O 0.1891(2) 0.1887(2) 0.0239(6)
K1 K 0.1091(1) 0.0703(1) -0.3978(2)
O5 O 0.2123(4) -0.0096(3) -0.6180(7)
C1A C -0.1356(3) -0.1366(3) 0.0523(7)
C2A C -0.0905(3) -0.1317(3) 0.2322(6)
O1A O -0.1144(3) -0.0860(2) -0.0527(5)
O2A O -0.0357(3) -0.0815(2) 0.2603(6)
O3A O -0.1142(3) -0.1802(2) 0.3386(5)
O4A O -0.1891(2) -0.1887(2) 0.0239(6)
O3F O 0.1358(3) -0.0698(2) 0.0886(5)
O3G O -0.1358(3) 0.0698(2) 0.0886(5)
O4F O 0.0609(2) -0.0613(2) -0.2261(6)
O4G O -0.0609(2) 0.0613(2) -0.2261(6)
Cd1B Cd 0.25000 0.25000 0.2800(1)
Cd1C Cd -0.25000 -0.25000 0.2800(1)
#END
