
#######################################################################
#
#                 Cambridge Crystallographic Data Centre
#                                CCDC
#
#######################################################################
#
# If this CIF has been generated from an entry in the Cambridge
# Structural Database, then it will include bibliographic, chemical,
# crystal, experimental, refinement or atomic coordinate data resulting
# from the CCDC's data processing and validation procedures.
#
#######################################################################

data_CSD_CIF_WOXRAC
_audit_creation_date 2002-11-22
_audit_creation_method CSD-ConQuest-V1
_database_code_CSD WOXRAC
_database_code_depnum_ccdc_archive 'CCDC 1294886'
_chemical_formula_sum 'C16 H16 Cd4 Na8 O40'
_chemical_formula_moiety
;
(Na1 1+)8n,n(C16 Cd4 O32 8-),8n(H2 O1)
;
_journal_coden_Cambridge 208
_journal_volume 162
_journal_year 2001
_journal_page_first 150
_journal_name_full 'J.Solid State Chem. '
loop_
_publ_author_name
"R.Vaidhyanathan"
"S.Natarajan"
"C.N.R.Rao"
_chemical_name_systematic
;
catena-(Octa-sodium octakis(\m~2~-oxalato)-tetra-cadmium octahydrate)
;
_cell_volume   1916.735
_exptl_crystal_density_diffrn 2.54
_exptl_crystal_description 'needle'
_diffrn_ambient_temperature ?
_diffrn_special_details
;
The study was carried out at room temperature,in the range 283-303K

;
#These two values have been output from a single CSD field.
_refine_ls_R_factor_gt 0.032
_refine_ls_wR_factor_gt 0.032
_symmetry_cell_setting monoclinic
_symmetry_space_group_name_H-M 'P 21/n'
_symmetry_Int_Tables_number 14
loop_
_symmetry_equiv_pos_site_id
_symmetry_equiv_pos_as_xyz
1 x,y,z
2 1/2-x,1/2+y,1/2-z
3 -x,-y,-z
4 -1/2+x,-1/2-y,-1/2+z
_cell_length_a 12.8779(8)
_cell_length_b 11.4440(7)
_cell_length_c 14.1301(8)
_cell_angle_alpha 90
_cell_angle_beta 113.01(10)
_cell_angle_gamma 90
_cell_formula_units_Z 2
loop_
_atom_type_symbol
_atom_type_radius_bond
C 0.68
Cd 1.69
Na 0.97
O 0.68
loop_
_atom_site_label
_atom_site_type_symbol
_atom_site_fract_x
_atom_site_fract_y
_atom_site_fract_z
Cd1 Cd 0.2130(1) 0.3631(1) 0.6803(1)
Cd2 Cd -0.1775(1) 0.2362(1) 0.8058(1)
O1 O 0.3531(3) 0.3462(4) 0.6182(4)
O2 O 0.1512(4) 0.1728(4) 0.6399(4)
O3 O 0.1660(4) -0.0064(4) 0.7044(4)
O4 O 0.1537(4) 0.3477(4) 0.8182(4)
O5 O 0.3411(4) 0.0602(4) 0.8721(4)
O6 O 0.1325(3) 0.3591(4) 0.4920(3)
O7 O 0.3510(3) 0.2290(4) 0.8000(4)
O8 O 0.0038(4) 0.3637(4) 0.6211(3)
O9 O -0.1349(4) 0.3192(4) 0.6718(4)
O10 O 0.3983(3) 0.3129(4) 0.4838(3)
O11 O 0.1788(3) 0.3325(4) 0.3576(4)
O12 O 0.0155(4) 0.2972(4) 0.8668(4)
O13 O -0.2729(4) 0.1116(4) 0.6606(4)
O14 O -0.3272(4) -0.0728(4) 0.6179(4)
O15 O -0.0983(4) 0.0390(4) 0.8266(4)
O16 O -0.1561(3) -0.1475(4) 0.7929(4)
C1 C 0.3287(5) 0.3320(5) 0.5240(5)
C2 C 0.1988(5) 0.0976(6) 0.7046(5)
C3 C 0.0529(5) 0.3254(5) 0.8010(5)
C4 C 0.3069(5) 0.1329(6) 0.8002(5)
C5 C 0.2013(5) 0.3419(5) 0.4513(5)
C6 C -0.0333(6) 0.3361(6) 0.6886(5)
C7 C -0.2640(5) 0.0028(6) 0.6754(5)
C8 C -0.1631(5) -0.0381(6) 0.7742(5)
Na1 Na 0.00000 0.50000 0.50000
Na2 Na 0.0830(2) 0.2694(2) 0.0468(2)
Na3 Na -0.0125(2) 0.2167(2) 0.4867(2)
Na4 Na 0.00000 0.00000 0.00000
Na5 Na 0.0099(2) 0.2416(2) 0.2489(2)
O17 O -0.1641(4) 0.1216(4) 0.5071(4)
O18 O 0.0459(4) 0.0876(4) 0.3874(4)
O19 O 0.1766(4) 0.1005(4) 0.0043(4)
O20 O -0.0268(4) 0.4075(4) 0.1077(5)
O2A O 0.3488(4) 0.6728(4) 0.8601(4)
O3A O 0.3340(4) 0.4936(4) 0.7956(4)
O5A O 0.1589(4) 0.5602(4) 0.6279(4)
O7A O 0.1490(3) 0.7290(4) 0.7000(4)
C2A C 0.3012(5) 0.5976(6) 0.7954(5)
C4A C 0.1931(5) 0.6329(6) 0.6998(5)
Cd1A Cd 0.2870(1) 0.8631(1) 0.8197(1)
Cd2C Cd 0.3225(1) 0.2638(1) 0.3058(1)
O1C O -0.1469(3) 0.1538(4) 1.1182(4)
O6C O -0.3675(3) 0.1409(4) 0.9920(3)
O10C O -0.1017(3) 0.1871(4) 0.9838(3)
O11C O -0.3212(3) 0.1675(4) 0.8576(4)
C1C C -0.1713(5) 0.1680(5) 1.0240(5)
C5C C -0.2987(5) 0.1581(5) 0.9513(5)
O13A O -0.2271(4) 0.6116(4) 0.8394(4)
O14A O -0.1728(4) 0.4272(4) 0.8821(4)
O15A O -0.4017(4) 0.5390(4) 0.6734(4)
O16A O -0.3439(3) 0.3525(4) 0.7071(4)
C7A C -0.2360(5) 0.5028(6) 0.8246(5)
C8A C -0.3369(5) 0.4619(6) 0.7258(5)
O4A O 0.3463(4) 0.8477(4) 0.6818(4)
O8A O 0.4962(4) 0.8637(4) 0.8789(3)
O9A O 0.6349(4) 0.8192(4) 0.8282(4)
O12A O 0.4845(4) 0.7972(4) 0.6332(4)
C3A C 0.4471(5) 0.8254(5) 0.6990(5)
C6A C 0.5333(6) 0.8361(6) 0.8114(5)
Cd1A* Cd 0.2870(1) -0.1369(1) 0.8197(1)
Cd2A Cd -0.3225(1) -0.2638(1) 0.6942(1)
O1A O 0.1469(3) 0.8462(4) 0.8818(4)
O3* O 0.1660(4) 0.9936(4) 0.7044(4)
O5* O 0.3411(4) 1.0602(4) 0.8721(4)
O6A O 0.3675(3) 0.8591(4) 1.0080(3)
O9C O 0.3651(4) 0.1808(4) 0.1718(4)
O12C O 0.5155(4) 0.2028(4) 0.3668(4)
O13C O 0.2271(4) 0.3884(4) 0.1606(4)
O14B O 0.3272(4) 0.0728(4) 0.3821(4)
O15C O 0.4017(4) 0.4610(4) 0.3266(4)
O16B O 0.1561(3) 0.1475(4) 0.2071(4)
Cd1C Cd -0.2870(1) 0.1369(1) 1.1803(1)
Cd2A* Cd -0.3225(1) 0.7362(1) 0.6942(1)
Cd2A** Cd 0.6775(1) 0.7362(1) 0.6942(1)
#END
