
#######################################################################
#
#                 Cambridge Crystallographic Data Centre
#                                CCDC
#
#######################################################################
#
# If this CIF has been generated from an entry in the Cambridge
# Structural Database, then it will include bibliographic, chemical,
# crystal, experimental, refinement or atomic coordinate data resulting
# from the CCDC's data processing and validation procedures.
#
#######################################################################

data_CSD_CIF_WOXTOV
_audit_creation_date 2019-11-11
_audit_creation_method CSD-ConQuest-V1
_database_code_CSD WOXTOV
_database_code_depnum_ccdc_archive 'CCDC 1909483'
_chemical_formula_sum 'C20 H20 Cl4 Eu1 N1 O8'
_chemical_formula_moiety
;
C8 H20 N1 1+,n(C12 Cl4 Eu1 O8 1-)
;
_journal_coden_Cambridge 154
_journal_volume 72
_journal_year 2019
_journal_page_first 778
_journal_name_full 'Aust.J.Chem. '
loop_
_publ_author_name
"Carol Hua"
"Hui Min Tay"
"Qilin He"
"T.David Harris"
_chemical_name_systematic
;
catena-[tetraethylammonium 
bis(\m-2,5-dichloro-3,6-dioxocyclohexa-1,4-diene-1,4-diolato)-europium 
unknown solvate]
;
_cell_volume   3051.375
_exptl_crystal_colour 'violet'
_exptl_crystal_density_diffrn 1.515
_exptl_crystal_description 'plate'
_diffrn_ambient_temperature 100
_refine_special_details
;
The structure is disordered.  The MASK/OLEX2 program has been used to model 
some disorder.
;
#These two values have been output from a single CSD field.
_refine_ls_R_factor_gt 0.0252
_refine_ls_wR_factor_gt 0.0252
_symmetry_cell_setting tetragonal
_symmetry_space_group_name_H-M 'I 4/m c m'
_symmetry_Int_Tables_number 140
loop_
_symmetry_equiv_pos_site_id
_symmetry_equiv_pos_as_xyz
1 x,y,z
2 -x,-y,z
3 -y,x,z
4 y,-x,z
5 -x,y,1/2-z
6 x,-y,1/2-z
7 y,x,1/2-z
8 -y,-x,1/2-z
9 1/2+x,1/2+y,1/2+z
10 1/2-x,1/2-y,1/2+z
11 1/2-y,1/2+x,1/2+z
12 1/2+y,1/2-x,1/2+z
13 1/2-x,1/2+y,-z
14 1/2+x,1/2-y,-z
15 1/2+y,1/2+x,-z
16 1/2-y,1/2-x,-z
17 -x,-y,-z
18 x,y,-z
19 y,-x,-z
20 -y,x,-z
21 x,-y,-1/2+z
22 -x,y,-1/2+z
23 -y,-x,-1/2+z
24 y,x,-1/2+z
25 -1/2-x,-1/2-y,-1/2-z
26 -1/2+x,-1/2+y,-1/2-z
27 -1/2+y,-1/2-x,-1/2-z
28 -1/2-y,-1/2+x,-1/2-z
29 -1/2+x,-1/2-y,z
30 -1/2-x,-1/2+y,z
31 -1/2-y,-1/2-x,z
32 -1/2+y,-1/2+x,z
_cell_length_a 12.3159(19)
_cell_length_b 12.3159(19)
_cell_length_c 20.117(4)
_cell_angle_alpha 90
_cell_angle_beta 90
_cell_angle_gamma 90
_cell_formula_units_Z 4
loop_
_atom_type_symbol
_atom_type_radius_bond
C 0.68
H 0.23
Cl 0.99
Eu 1.98
N 0.68
O 0.68
loop_
_atom_site_label
_atom_site_type_symbol
_atom_site_fract_x
_atom_site_fract_y
_atom_site_fract_z
Eu1 Eu 0.50000 0.50000 0.75000
Cl1 Cl 0.18402(8) 0.31598(8) 0.60315(5)
O1 O 0.35412(16) 0.41511(16) 0.69053(10)
C1 C 0.2199(2) 0.2801(2) 0.6831(2)
C2 C 0.3027(2) 0.3369(2) 0.71454(13)
N1 N 0.50000 0.50000 0.50000
C3 C 0.2986(4) 0.5525(5) 0.50000
H1 H 0.28706 0.49395 0.46776
H2 H 0.31015 0.62106 0.47633
H3 H 0.23464 0.55893 0.52872
C4 C 0.4049(5) 0.5250(5) 0.5452(3)
H4 H 0.42254 0.58790 0.57392
H5 H 0.38969 0.46181 0.57417
Cl1F Cl 0.31598(8) 0.18402(8) 0.89685(5)
O1F O 0.41511(16) 0.35412(16) 0.80947(10)
C1F C 0.2801(2) 0.2199(2) 0.8169(2)
C2F C 0.3369(2) 0.3027(2) 0.78546(13)
O1X O 0.14588(16) 0.08489(16) 0.80947(10)
C2X C 0.1973(2) 0.1631(2) 0.78546(13)
O1DA O 0.08489(16) 0.14588(16) 0.69053(10)
C2DA C 0.1631(2) 0.1973(2) 0.71454(13)
Cl1A Cl 0.81598(8) 0.68402(8) 0.60315(5)
O1A O 0.64588(16) 0.58489(16) 0.69053(10)
C1A C 0.7801(2) 0.7199(2) 0.6831(2)
C2A C 0.6973(2) 0.6631(2) 0.71454(13)
Cl1G Cl 0.68402(8) 0.81598(8) 0.89685(5)
O1G O 0.58489(16) 0.64588(16) 0.80947(10)
C1G C 0.7199(2) 0.7801(2) 0.8169(2)
C2G C 0.6631(2) 0.6973(2) 0.78546(13)
O1Y O 0.85412(16) 0.91511(16) 0.80947(10)
C2Y C 0.8027(2) 0.8369(2) 0.78546(13)
O1EA O 0.91511(16) 0.85412(16) 0.69053(10)
C2EA C 0.8369(2) 0.8027(2) 0.71454(13)
Eu1X Eu 0.00000 0.00000 0.75000
Eu1X* Eu 1.00000 1.00000 0.75000
O1B O 0.58489(16) 0.35412(16) 0.69053(10)
O1C O 0.41511(16) 0.64588(16) 0.69053(10)
O1D O 0.64588(16) 0.41511(16) 0.80947(10)
O1E O 0.35412(16) 0.58489(16) 0.80947(10)
C3A C 0.7014(4) 0.4475(5) 0.50000
H1A H 0.71294 0.50605 0.46776
H2A H 0.68985 0.37894 0.47633
H3A H 0.76536 0.44107 0.52872
C4A C 0.5951(5) 0.4750(5) 0.5452(3)
H4A H 0.57746 0.41210 0.57392
H5A H 0.61031 0.53819 0.57417
C3B C 0.4475(4) 0.2986(5) 0.50000
H1B H 0.50605 0.28706 0.46776
H2B H 0.37894 0.31015 0.47633
H3B H 0.44107 0.23464 0.52872
C4B C 0.4750(5) 0.4049(5) 0.5452(3)
H4B H 0.41210 0.42254 0.57392
H5B H 0.53819 0.38969 0.57417
C3C C 0.5525(4) 0.7014(5) 0.50000
H1C H 0.49395 0.71294 0.46776
H2C H 0.62106 0.68985 0.47633
H3C H 0.55893 0.76536 0.52872
C4C C 0.5250(5) 0.5951(5) 0.5452(3)
H4C H 0.58790 0.57746 0.57392
H5C H 0.46181 0.61031 0.57417
H1P H 0.71294 0.50605 0.53224
H2P H 0.68985 0.37894 0.52367
H3P H 0.76536 0.44107 0.47128
C4P C 0.5951(5) 0.4750(5) 0.4548(3)
H4P H 0.57746 0.41210 0.42608
H5P H 0.61031 0.53819 0.42583
H1Q H 0.28706 0.49395 0.53224
H2Q H 0.31015 0.62106 0.52367
H3Q H 0.23464 0.55893 0.47128
C4Q C 0.4049(5) 0.5250(5) 0.4548(3)
H4Q H 0.42254 0.58790 0.42608
H5Q H 0.38969 0.46181 0.42583
H1R H 0.49395 0.71294 0.53224
H2R H 0.62106 0.68985 0.52367
H3R H 0.55893 0.76536 0.47128
C4R C 0.5250(5) 0.5951(5) 0.4548(3)
H4R H 0.58790 0.57746 0.42608
H5R H 0.46181 0.61031 0.42583
H1S H 0.50605 0.28706 0.53224
H2S H 0.37894 0.31015 0.52367
H3S H 0.44107 0.23464 0.47128
C4S C 0.4750(5) 0.4049(5) 0.4548(3)
H4S H 0.41210 0.42254 0.42608
H5S H 0.53819 0.38969 0.42583
#END
