
#######################################################################
#
#                 Cambridge Crystallographic Data Centre
#                                CCDC
#
#######################################################################
#
# If this CIF has been generated from an entry in the Cambridge
# Structural Database, then it will include bibliographic, chemical,
# crystal, experimental, refinement or atomic coordinate data resulting
# from the CCDC's data processing and validation procedures.
#
#######################################################################

data_CSD_CIF_WOXTIP
_audit_creation_date 2019-11-11
_audit_creation_method CSD-ConQuest-V1
_database_code_CSD WOXTIP
_database_code_depnum_ccdc_archive 'CCDC 1909480'
_chemical_formula_sum 'C20 H20 Cl4 N1 Nd1 O8'
_chemical_formula_moiety
;
C8 H20 N1 1+,n(C12 Cl4 Nd1 O8 1-)
;
_journal_coden_Cambridge 154
_journal_volume 72
_journal_year 2019
_journal_page_first 778
_journal_name_full 'Aust.J.Chem. '
loop_
_publ_author_name
"Carol Hua"
"Hui Min Tay"
"Qilin He"
"T.David Harris"
_chemical_name_systematic
;
catena-[tetraethylammonium 
bis(\m-2,5-dichloro-3,6-dioxocyclohexa-1,4-diene-1,4-diolato)-neodymium 
unknown solvate]
;
_cell_volume   3112.015
_exptl_crystal_colour 'violet'
_exptl_crystal_density_diffrn 1.469
_exptl_crystal_description 'plate'
_diffrn_ambient_temperature 100.0
_refine_special_details
;
The structure is disordered.  The MASK/OLEX2 program has been used to model 
some disorder.
;
#These two values have been output from a single CSD field.
_refine_ls_R_factor_gt 0.0317
_refine_ls_wR_factor_gt 0.0317
_symmetry_cell_setting tetragonal
_symmetry_space_group_name_H-M 'I 4/m c m'
_symmetry_Int_Tables_number 140
loop_
_symmetry_equiv_pos_site_id
_symmetry_equiv_pos_as_xyz
1 x,y,z
2 -x,-y,z
3 -y,x,z
4 y,-x,z
5 -x,y,1/2-z
6 x,-y,1/2-z
7 y,x,1/2-z
8 -y,-x,1/2-z
9 1/2+x,1/2+y,1/2+z
10 1/2-x,1/2-y,1/2+z
11 1/2-y,1/2+x,1/2+z
12 1/2+y,1/2-x,1/2+z
13 1/2-x,1/2+y,-z
14 1/2+x,1/2-y,-z
15 1/2+y,1/2+x,-z
16 1/2-y,1/2-x,-z
17 -x,-y,-z
18 x,y,-z
19 y,-x,-z
20 -y,x,-z
21 x,-y,-1/2+z
22 -x,y,-1/2+z
23 -y,-x,-1/2+z
24 y,x,-1/2+z
25 -1/2-x,-1/2-y,-1/2-z
26 -1/2+x,-1/2+y,-1/2-z
27 -1/2+y,-1/2-x,-1/2-z
28 -1/2-y,-1/2+x,-1/2-z
29 -1/2+x,-1/2-y,z
30 -1/2-x,-1/2+y,z
31 -1/2-y,-1/2-x,z
32 -1/2+y,-1/2+x,z
_cell_length_a 12.4513(16)
_cell_length_b 12.4513(16)
_cell_length_c 20.073(3)
_cell_angle_alpha 90
_cell_angle_beta 90
_cell_angle_gamma 90
_cell_formula_units_Z 4
loop_
_atom_type_symbol
_atom_type_radius_bond
C 0.68
H 0.23
Cl 0.99
N 0.68
Nd 2.01
O 0.68
loop_
_atom_site_label
_atom_site_type_symbol
_atom_site_fract_x
_atom_site_fract_y
_atom_site_fract_z
Nd1 Nd 0.50000 0.50000 0.75000
Cl1 Cl 0.1801(2) 0.3199(2) 0.60378(12)
O1 O 0.3524(4) 0.4133(4) 0.6898(2)
C1 C 0.3015(7) 0.3363(7) 0.7145(3)
C2 C 0.2193(7) 0.2807(7) 0.6834(5)
N1 N 0.50000 0.50000 0.50000
C3 C 0.447(1) 0.3008(9) 0.50000
H1 H 0.39091 0.31835 0.46756
H2 H 0.42235 0.24216 0.52873
H3 H 0.51227 0.27854 0.47642
C4 C 0.4728(14) 0.4053(12) 0.5450(6)
H4 H 0.40959 0.42311 0.57280
H5 H 0.53404 0.39003 0.57497
Cl1F Cl 0.3199(2) 0.1801(2) 0.89622(12)
O1F O 0.4133(4) 0.3524(4) 0.8102(2)
C1F C 0.3363(7) 0.3015(7) 0.7855(3)
C2F C 0.2807(7) 0.2193(7) 0.8166(5)
O1X O 0.1476(4) 0.0867(4) 0.8102(2)
C1X C 0.1985(7) 0.1637(7) 0.7855(3)
O1DA O 0.0867(4) 0.1476(4) 0.6898(2)
C1DA C 0.1637(7) 0.1985(7) 0.7145(3)
Cl1A Cl 0.8199(2) 0.6801(2) 0.60378(12)
O1A O 0.6476(4) 0.5867(4) 0.6898(2)
C1A C 0.6985(7) 0.6637(7) 0.7145(3)
C2A C 0.7807(7) 0.7193(7) 0.6834(5)
Cl1G Cl 0.6801(2) 0.8199(2) 0.89622(12)
O1G O 0.5867(4) 0.6476(4) 0.8102(2)
C1G C 0.6637(7) 0.6985(7) 0.7855(3)
C2G C 0.7193(7) 0.7807(7) 0.8166(5)
O1Y O 0.8524(4) 0.9133(4) 0.8102(2)
C1Y C 0.8015(7) 0.8363(7) 0.7855(3)
O1EA O 0.9133(4) 0.8524(4) 0.6898(2)
C1EA C 0.8363(7) 0.8015(7) 0.7145(3)
Nd1X Nd 0.00000 0.00000 0.75000
Nd1X* Nd 1.00000 1.00000 0.75000
O1B O 0.5867(4) 0.3524(4) 0.6898(2)
O1C O 0.4133(4) 0.6476(4) 0.6898(2)
O1D O 0.6476(4) 0.4133(4) 0.8102(2)
O1E O 0.3524(4) 0.5867(4) 0.8102(2)
C3A C 0.553(1) 0.6992(9) 0.50000
H1A H 0.60909 0.68165 0.46756
H2A H 0.57764 0.75784 0.52873
H3A H 0.48773 0.72146 0.47642
C4A C 0.5272(14) 0.5947(12) 0.5450(6)
H4A H 0.59041 0.57689 0.57280
H5A H 0.46596 0.60997 0.57497
C3B C 0.6992(10) 0.4470(9) 0.50000
H1B H 0.68165 0.39091 0.46756
H2B H 0.75784 0.42235 0.52873
H3B H 0.72146 0.51227 0.47642
C4B C 0.5947(14) 0.4728(12) 0.5450(6)
H4B H 0.57689 0.40959 0.57280
H5B H 0.60997 0.53404 0.57497
C3C C 0.3008(10) 0.5530(9) 0.50000
H1C H 0.31835 0.60909 0.46756
H2C H 0.24216 0.57764 0.52873
H3C H 0.27854 0.48773 0.47642
C4C C 0.4053(14) 0.5272(12) 0.5450(6)
H4C H 0.42311 0.59041 0.57280
H5C H 0.39003 0.46596 0.57497
H1P H 0.60909 0.68165 0.53244
H2P H 0.57764 0.75784 0.47127
H3P H 0.48773 0.72146 0.52358
C4P C 0.5272(14) 0.5947(12) 0.4550(6)
H4P H 0.59041 0.57689 0.42720
H5P H 0.46596 0.60997 0.42503
H1Q H 0.39091 0.31835 0.53244
H2Q H 0.42235 0.24216 0.47127
H3Q H 0.51227 0.27854 0.52358
C4Q C 0.4728(14) 0.4053(12) 0.4550(6)
H4Q H 0.40959 0.42311 0.42720
H5Q H 0.53404 0.39003 0.42503
H1R H 0.31835 0.60909 0.53244
H2R H 0.24216 0.57764 0.47127
H3R H 0.27854 0.48773 0.52358
C4R C 0.4053(14) 0.5272(12) 0.4550(6)
H4R H 0.42311 0.59041 0.42720
H5R H 0.39003 0.46596 0.42503
H1S H 0.68165 0.39091 0.53244
H2S H 0.75784 0.42235 0.47127
H3S H 0.72146 0.51227 0.52358
C4S C 0.5947(14) 0.4728(12) 0.4550(6)
H4S H 0.57689 0.40959 0.42720
H5S H 0.60997 0.53404 0.42503
#END
