
#######################################################################
#
#                 Cambridge Crystallographic Data Centre
#                                CCDC
#
#######################################################################
#
# If this CIF has been generated from an entry in the Cambridge
# Structural Database, then it will include bibliographic, chemical,
# crystal, experimental, refinement or atomic coordinate data resulting
# from the CCDC's data processing and validation procedures.
#
#######################################################################

data_CSD_CIF_WOXVEN
_audit_creation_date 2019-11-11
_audit_creation_method CSD-ConQuest-V1
_database_code_CSD WOXVEN
_database_code_depnum_ccdc_archive 'CCDC 1909481'
_chemical_formula_sum 'C20 H22 Ce1 Cl4 N1 O9'
_chemical_formula_moiety
;
C8 H20 N1 1+,n(C12 H2 Ce1 Cl4 O9 1-)
;
_journal_coden_Cambridge 154
_journal_volume 72
_journal_year 2019
_journal_page_first 778
_journal_name_full 'Aust.J.Chem. '
loop_
_publ_author_name
"Carol Hua"
"Hui Min Tay"
"Qilin He"
"T.David Harris"
_chemical_name_systematic
;
catena-[tetraethylammonium 
bis(\m-2,5-dichloro-3,6-dioxocyclohexa-1,4-diene-1,4-diolato)-aqua-cerium 
unknown solvate]
;
_cell_volume   3216.568
_exptl_crystal_colour 'purple'
_exptl_crystal_density_diffrn 1.448
_exptl_crystal_description 'plate'
_diffrn_ambient_temperature 100
_refine_special_details
;
C4 and C6 and C8 disordered over three sites with occupancies 0.5:0.25:0.25; 
C7,N1 disordered by symmetry over two configurations with occupancy 0.5; H3 
disordered by symmetry over four configurations with occupancy 0.25; 
H5A,H5B,H5C and H7A,H7B,H7C disordered over two sites with occupancies 
0.5:0.5; The SQUEEZE/PLATON program has been used to model some disorder.
;
#These two values have been output from a single CSD field.
_refine_ls_R_factor_gt 0.0577
_refine_ls_wR_factor_gt 0.0577
_symmetry_cell_setting tetragonal
_symmetry_space_group_name_H-M 'I 4/m'
_symmetry_Int_Tables_number 87
loop_
_symmetry_equiv_pos_site_id
_symmetry_equiv_pos_as_xyz
1 x,y,z
2 -x,-y,z
3 -y,x,z
4 y,-x,z
5 1/2+x,1/2+y,1/2+z
6 1/2-x,1/2-y,1/2+z
7 1/2-y,1/2+x,1/2+z
8 1/2+y,1/2-x,1/2+z
9 -x,-y,-z
10 x,y,-z
11 y,-x,-z
12 -y,x,-z
13 -1/2-x,-1/2-y,-1/2-z
14 -1/2+x,-1/2+y,-1/2-z
15 -1/2+y,-1/2-x,-1/2-z
16 -1/2-y,-1/2+x,-1/2-z
_cell_length_a 12.7092(1)
_cell_length_b 12.7092(1)
_cell_length_c 19.9139(4)
_cell_angle_alpha 90
_cell_angle_beta 90
_cell_angle_gamma 90
_cell_formula_units_Z 4
loop_
_atom_type_symbol
_atom_type_radius_bond
C 0.68
H 0.23
Ce 2.04
Cl 0.99
N 0.68
O 0.68
loop_
_atom_site_label
_atom_site_type_symbol
_atom_site_fract_x
_atom_site_fract_y
_atom_site_fract_z
Ce1 Ce 0.50000 0.50000 0.27349(3)
Cl1 Cl 0.82797(15) 0.70071(14) 0.39855(8)
O1 O 0.6620(4) 0.5903(4) 0.3181(3)
O2 O 0.9148(4) 0.8586(4) 0.2997(2)
O3 O 0.50000 0.50000 0.3959(5)
C1 C 0.8373(5) 0.8067(5) 0.2807(3)
C2 C 0.7052(6) 0.6655(6) 0.2901(4)
C3 C 0.7864(6) 0.7271(6) 0.3169(4)
N1 N 1.00000 1.00000 0.50000
C4 C 0.8059(8) 0.9514(9) 0.50000
H1 H 0.74311 0.94709 0.47154
H2 H 0.79665 1.00749 0.53322
H3 H 0.81625 0.88411 0.52315
C5 C 0.9079(10) 0.9768(11) 0.4538(6)
H4 H 0.92435 0.91576 0.42475
H5 H 0.89363 1.03834 0.42465
N2 N 1.00000 0.50000 0.25000
C6 C 0.9083(18) 0.4254(16) 0.3493(10)
H6 H 0.95513 0.45772 0.38247
H7 H 0.93266 0.35399 0.33924
H8 H 0.83660 0.42249 0.36732
C7 C 0.909(4) 0.476(3) 0.300(2)
H9 H 0.88243 0.54610 0.31354
H10 H 0.85261 0.44516 0.27143
C8? C 0.965(4) 0.409(3) 0.297(2)
H11? H 0.92566 0.35790 0.26832
H12? H 1.02946 0.37234 0.31181
H13? H 0.47923 0.44125 0.40996
Cl1L Cl 0.67203(15) 0.79929(14) 0.10145(8)
O1L O 0.8380(4) 0.9097(4) 0.1819(3)
O2L O 0.5852(4) 0.6414(4) 0.2003(2)
C1L C 0.6627(5) 0.6933(5) 0.2193(3)
C2L C 0.7948(6) 0.8345(6) 0.2099(4)
C3L C 0.7136(6) 0.7729(6) 0.1831(4)
Cl1B Cl 0.29929(15) 0.82797(14) 0.39855(8)
O1B O 0.4097(4) 0.6620(4) 0.3181(3)
O2B O 0.1414(4) 0.9148(4) 0.2997(2)
C1B C 0.1933(5) 0.8373(5) 0.2807(3)
C2B C 0.3345(6) 0.7052(6) 0.2901(4)
C3B C 0.2729(6) 0.7864(6) 0.3169(4)
Cl1N Cl 0.20071(15) 0.67203(14) 0.10145(8)
O1N O 0.0903(4) 0.8380(4) 0.1819(3)
O2N O 0.3586(4) 0.5852(4) 0.2003(2)
C1N C 0.3067(5) 0.6627(5) 0.2193(3)
C2N C 0.1655(6) 0.7948(6) 0.2099(4)
C3N C 0.2271(6) 0.7136(6) 0.1831(4)
Ce1L Ce 0.00000 1.00000 0.22651(3)
Ce1L* Ce 1.00000 1.00000 0.22651(3)
O1A O 0.3380(4) 0.4097(4) 0.3181(3)
O1C O 0.5903(4) 0.3380(4) 0.3181(3)
O2M O 0.4148(4) 0.3586(4) 0.2003(2)
O2O O 0.6414(4) 0.4148(4) 0.2003(2)
C4A C 1.1941(8) 1.0486(9) 0.50000
H1A H 1.25690 1.05291 0.47154
H2A H 1.20335 0.99251 0.53322
H3A H 1.18375 1.11589 0.52315
C5A C 1.0921(10) 1.0232(11) 0.4538(6)
H4A H 1.07565 1.08424 0.42475
H5A H 1.10637 0.96166 0.42465
C4B C 1.0486(8) 0.8059(9) 0.50000
H1B H 1.05291 0.74311 0.47154
H2B H 0.99251 0.79665 0.53322
H3B H 1.11589 0.81625 0.52315
C5B C 1.0232(10) 0.9079(11) 0.4538(6)
H4B H 1.08424 0.92435 0.42475
H5B H 0.96166 0.89363 0.42465
C4C C 0.9514(8) 1.1941(9) 0.50000
H1C H 0.94709 1.25690 0.47154
H2C H 1.00749 1.20335 0.53322
H3C H 0.88411 1.18375 0.52315
C5C C 0.9768(10) 1.0921(11) 0.4538(6)
H4C H 0.91576 1.07565 0.42475
H5C H 1.03834 1.10637 0.42465
H1H H 1.25690 1.05291 0.52846
H2H H 1.20335 0.99251 0.46678
H3H H 1.18375 1.11589 0.47685
C5H C 1.0921(10) 1.0232(11) 0.5462(6)
H4H H 1.07565 1.08424 0.57525
H5H H 1.10637 0.96166 0.57535
H1I H 0.74311 0.94709 0.52846
H2I H 0.79665 1.00749 0.46678
H3I H 0.81625 0.88411 0.47685
C5I C 0.9079(10) 0.9768(11) 0.5462(6)
H4I H 0.92435 0.91576 0.57525
H5I H 0.89363 1.03834 0.57535
H1J H 0.94709 1.25690 0.52846
H2J H 1.00749 1.20335 0.46678
H3J H 0.88411 1.18375 0.47685
C5J C 0.9768(10) 1.0921(11) 0.5462(6)
H4J H 0.91576 1.07565 0.57525
H5J H 1.03834 1.10637 0.57535
H1K H 1.05291 0.74311 0.52846
H2K H 0.99251 0.79665 0.46678
H3K H 1.11589 0.81625 0.47685
C5K C 1.0232(10) 0.9079(11) 0.5462(6)
H4K H 1.08424 0.92435 0.57525
H5K H 0.96166 0.89363 0.57535
C6A C 1.0917(18) 0.5746(16) 0.3493(10)
H6A H 1.04487 0.54228 0.38247
H7A H 1.06734 0.64601 0.33924
H8A H 1.16340 0.57751 0.36732
C7A C 1.091(4) 0.524(3) 0.300(2)
H9A H 1.11756 0.45390 0.31354
H10A H 1.14739 0.55484 0.27143
C6N C 0.9254(18) 0.5917(16) 0.1507(10)
H6N H 0.95772 0.54487 0.11753
H7N H 0.85399 0.56734 0.16076
H8N H 0.92249 0.66340 0.13268
C7N C 0.976(4) 0.591(3) 0.200(2)
H9N H 1.04610 0.61757 0.18646
H10N H 0.94516 0.64739 0.22857
C6O C 1.0746(18) 0.4083(16) 0.1507(10)
H6O H 1.04228 0.45513 0.11753
H7O H 1.14601 0.43266 0.16076
H8O H 1.07751 0.33660 0.13268
C7O C 1.024(4) 0.409(3) 0.200(2)
H9O H 0.95390 0.38243 0.18646
H10O H 1.05484 0.35261 0.22857
#END
