
#######################################################################
#
#                 Cambridge Crystallographic Data Centre
#                                CCDC
#
#######################################################################
#
# If this CIF has been generated from an entry in the Cambridge
# Structural Database, then it will include bibliographic, chemical,
# crystal, experimental, refinement or atomic coordinate data resulting
# from the CCDC's data processing and validation procedures.
#
#######################################################################

data_CSD_CIF_WOZGUP
_audit_creation_date 2015-01-22
_audit_creation_method CSD-ConQuest-V1
_database_code_CSD WOZGUP
_database_code_depnum_ccdc_archive 'CCDC 964639'
_chemical_formula_sum 'C54 H97 Co1 Mo12 N18 O64 P1'
_chemical_formula_moiety
;
(C54 H48 Co1 N18 2+)n,24n(H2 O1),n(H1 Mo12 O40 P1 2-)
;
_journal_coden_Cambridge 1220
_journal_volume 21
_journal_year 2015
_journal_page_first 3778
_journal_name_full 'Chem.-Eur.J. '
loop_
_publ_author_name
"Xiu-Li Hao"
"Yuan-Yuan Ma"
"Hong-Ying Zang"
"Yong-Hui Wang"
"Yang-Guang Li"
"En-Bo Wang"
_chemical_name_systematic
;
catena-(tris(\m~2~-4,4'-bis(1,2,4-Triazol-1-ylmethyl)biphenyl)-cobalt 
(\m~12~-phosphato)-(\m~2~-hydroxo)-tricosakis(\m~2~-oxo)-dodecaoxo-dodeca-moly
bdenum tetracosahydrate)
;
_cell_volume   9586.145
_exptl_crystal_colour 'orange'
_exptl_crystal_density_diffrn 2.261
_exptl_crystal_description 'block'
_diffrn_ambient_temperature 150
_refine_special_details
;
The SQUEEZE/PLATON program was used to model some of the disordered water 
molecules.
;
#These two values have been output from a single CSD field.
_refine_ls_R_factor_gt 0.0702
_refine_ls_wR_factor_gt 0.0702
_symmetry_cell_setting monoclinic
_symmetry_space_group_name_H-M 'C 2/c'
_symmetry_Int_Tables_number 15
loop_
_symmetry_equiv_pos_site_id
_symmetry_equiv_pos_as_xyz
1 x,y,z
2 -x,y,1/2-z
3 1/2+x,1/2+y,z
4 1/2-x,1/2+y,1/2-z
5 -x,-y,-z
6 x,-y,-1/2+z
7 -1/2-x,-1/2-y,-z
8 -1/2+x,-1/2-y,-1/2+z
_cell_length_a 20.429(2)
_cell_length_b 22.744(2)
_cell_length_c 21.792(2)
_cell_angle_alpha 90
_cell_angle_beta 108.783(2)
_cell_angle_gamma 90
_cell_formula_units_Z 4
loop_
_atom_type_symbol
_atom_type_radius_bond
C 0.68
H 0.23
Co 1.26
Mo 1.54
N 0.68
O 0.68
P 1.05
loop_
_atom_site_label
_atom_site_type_symbol
_atom_site_fract_x
_atom_site_fract_y
_atom_site_fract_z
Mo1 Mo 0.90105(5) 0.05654(4) 0.15681(5)
Mo2 Mo 0.91846(5) -0.16363(4) 0.32373(5)
Mo3 Mo 0.81671(5) -0.05528(4) 0.20472(5)
Mo4 Mo 0.91151(6) 0.04424(4) 0.31599(5)
Mo5 Mo 0.96849(6) -0.06456(4) 0.07990(5)
Mo6 Mo 0.90760(5) -0.17660(4) 0.15059(5)
P1 P 1.00000 -0.05977(17) 0.25000
O1 O 0.9926(3) -0.0979(3) 0.1903(3)
O2 O 0.8308(4) 0.0045(3) 0.2759(4)
O3 O 0.9544(4) -0.1235(3) 0.4005(4)
O4 O 0.9108(4) -0.1280(3) 0.0762(3)
O5 O 0.7316(4) -0.0668(3) 0.1889(4)
O6 O 0.9162(4) -0.0096(3) 0.1004(3)
O7 O 0.9928(4) 0.0712(3) 0.1750(3)
O8 O 0.8845(4) 0.0960(3) 0.3560(4)
O9 O 0.8567(4) -0.1078(3) 0.2810(3)
O10 O 0.8180(4) 0.0075(3) 0.1520(3)
O11 O 0.8501(4) -0.2278(3) 0.1126(4)
O12 O 0.9911(4) -0.2072(3) 0.1510(3)
O13 O 0.9368(4) -0.0212(3) 0.2375(3)
O14 O 0.9582(5) -0.0519(3) 0.0022(4)
O15 O 0.8639(4) 0.1083(3) 0.1023(4)
O16 O 0.9519(4) -0.0115(3) 0.3761(3)
O17 O 0.8693(4) -0.2136(3) 0.3440(4)
O18 O 0.8919(4) 0.0891(3) 0.2314(3)
O19 O 0.8439(4) -0.1109(3) 0.1579(3)
O20 O 0.9173(4) -0.1901(3) 0.2368(3)
Co1 Co 0.75000 0.25000 0.00000
N1 N 0.7722(4) 0.3113(3) -0.0649(4)
C1 C 0.7485(4) 0.3129(4) -0.1298(4)
H1 H 0.71830 0.28510 -0.15730
N2 N 0.7749(4) 0.3607(4) -0.1491(4)
N3 N 0.8149(5) 0.3886(3) -0.0961(5)
C2 C 0.8132(5) 0.3581(4) -0.0441(4)
H2 H 0.83700 0.36780 -0.00010
C3 C 0.7689(8) 0.3846(7) -0.2124(8)
H3 H 0.74880 0.42460 -0.21650
H4 H 0.73740 0.35960 -0.24650
C4 C 0.8386(5) 0.3872(5) -0.2220(5)
C5 C 0.8642(6) 0.3360(5) -0.2404(6)
H5 H 0.83820 0.30060 -0.24600
C6 C 0.9278(6) 0.3365(4) -0.2508(6)
H6 H 0.94530 0.30150 -0.26340
C7 C 0.9657(6) 0.3882(5) -0.2427(6)
C8 C 0.9401(6) 0.4394(4) -0.2242(6)
H7 H 0.96610 0.47470 -0.21870
C9 C 0.8766(6) 0.4389(4) -0.2139(6)
H8 H 0.85900 0.47390 -0.20120
N4 N 0.6371(4) 0.2597(3) -0.0454(4)
C10 C 0.5956(4) 0.2731(3) -0.0099(4)
H9 H 0.61000 0.27830 0.03580
N5 N 0.5301(4) 0.2778(3) -0.0509(4)
N6 N 0.5310(4) 0.2674(3) -0.1118(4)
C11 C 0.5972(4) 0.2562(4) -0.1084(4)
H10 H 0.61290 0.24740 -0.14390
C12 C 0.4687(6) 0.2916(6) -0.0347(7)
H11 H 0.43600 0.31290 -0.07160
H12 H 0.48140 0.31840 0.00310
C13 C 0.4318(5) 0.2376(4) -0.0189(5)
C14 C 0.3626(5) 0.2277(5) -0.0544(5)
H13 H 0.33990 0.25210 -0.09030
C15 C 0.3266(5) 0.1819(5) -0.0370(5)
H14 H 0.27940 0.17520 -0.06120
C16 C 0.3598(5) 0.1461(4) 0.0157(5)
C17 C 0.4290(5) 0.1560(4) 0.0512(5)
H15 H 0.45170 0.13160 0.08710
C18 C 0.4650(5) 0.2018(4) 0.0338(5)
H16 H 0.51220 0.20850 0.05800
N7 N 0.2499(4) -0.1775(3) 0.0647(4)
C19 C 0.2140(4) -0.1274(4) 0.0424(4)
H17 H 0.18580 -0.12010 -0.00100
N8 N 0.2255(4) -0.0896(3) 0.0930(4)
N9 N 0.2684(5) -0.1163(4) 0.1466(4)
C20 C 0.2835(4) -0.1706(4) 0.1291(4)
H18 H 0.31250 -0.19890 0.15700
C21 C 0.1979(7) -0.0320(6) 0.0909(7)
H19 H 0.15060 -0.03110 0.05940
H20 H 0.19490 -0.02180 0.13410
C22 C 0.2422(6) 0.0135(5) 0.0715(6)
C23 C 0.2825(7) 0.0521(5) 0.1177(6)
H21 H 0.28330 0.04930 0.16140
C24 C 0.3217(6) 0.0946(5) 0.0999(6)
H22 H 0.34930 0.12100 0.13150
C25 C 0.3205(6) 0.0986(5) 0.0361(6)
C26 C 0.2801(7) 0.0601(5) -0.0101(5)
H23 H 0.27930 0.06280 -0.05380
C27 C 0.2410(6) 0.0175(5) 0.0077(6)
H24 H 0.21330 -0.00890 -0.02390
O21 O 0.9107(7) 0.2162(6) 0.2596(6)
O1A O 1.0074(3) -0.0979(3) 0.3097(3)
O13A O 1.0632(4) -0.0212(3) 0.2625(3)
Mo1A Mo 1.09895(5) 0.05654(4) 0.34319(5)
Mo2A Mo 1.08154(5) -0.16363(4) 0.17627(5)
Mo3A Mo 1.18329(5) -0.05528(4) 0.29528(5)
Mo4A Mo 1.08849(6) 0.04424(4) 0.18401(5)
Mo5A Mo 1.03151(6) -0.06456(4) 0.42010(5)
Mo6A Mo 1.09240(5) -0.17660(4) 0.34941(5)
O2A O 1.1692(4) 0.0045(3) 0.2241(4)
O3A O 1.0456(4) -0.1235(3) 0.0995(4)
O4A O 1.0892(4) -0.1280(3) 0.4238(3)
O5A O 1.2684(4) -0.0668(3) 0.3111(4)
O6A O 1.0838(4) -0.0096(3) 0.3996(3)
O7A O 1.0072(4) 0.0712(3) 0.3250(3)
O8A O 1.1155(4) 0.0960(3) 0.1440(4)
O9A O 1.1433(4) -0.1078(3) 0.2190(3)
O10A O 1.1820(4) 0.0075(3) 0.3480(3)
O11A O 1.1499(4) -0.2278(3) 0.3874(4)
O12A O 1.0089(4) -0.2072(3) 0.3490(3)
O14A O 1.0418(5) -0.0519(3) 0.4978(4)
O15A O 1.1361(4) 0.1083(3) 0.3977(4)
O16A O 1.0481(4) -0.0115(3) 0.1239(3)
O17A O 1.1307(4) -0.2136(3) 0.1560(4)
O18A O 1.1081(4) 0.0891(3) 0.2686(3)
O19A O 1.1561(4) -0.1109(3) 0.3421(3)
O20A O 1.0827(4) -0.1901(3) 0.2632(3)
N1A N 1.2278(4) 0.3113(3) -0.4351(4)
C1A C 1.2515(4) 0.3129(4) -0.3702(4)
H1A H 1.28170 0.28510 -0.34270
N2A N 1.2251(4) 0.3607(4) -0.3509(4)
N3A N 1.1851(5) 0.3886(3) -0.4039(5)
C2A C 1.1868(5) 0.3581(4) -0.4559(4)
H2A H 1.16300 0.36780 -0.49990
C3A C 1.2311(8) 0.3846(7) -0.2876(8)
H3A H 1.25120 0.42460 -0.28350
H4A H 1.26260 0.35960 -0.25350
C4A C 1.1614(5) 0.3872(5) -0.2780(5)
C5A C 1.1358(6) 0.3360(5) -0.2596(6)
H5A H 1.16180 0.30060 -0.25400
C6A C 1.0722(6) 0.3365(4) -0.2492(6)
H6A H 1.05470 0.30150 -0.23660
C7A C 1.0343(6) 0.3882(5) -0.2573(6)
C8A C 1.0599(6) 0.4394(4) -0.2758(6)
H7A H 1.03390 0.47470 -0.28130
C9A C 1.1234(6) 0.4389(4) -0.2861(6)
H8A H 1.14100 0.47390 -0.29880
N4F N 0.8629(4) 0.2403(3) 0.0454(4)
C10F C 0.9044(4) 0.2269(3) 0.0099(4)
H9F H 0.89000 0.22170 -0.03580
N5F N 0.9699(4) 0.2222(3) 0.0509(4)
N6F N 0.9690(4) 0.2326(3) 0.1118(4)
C11F C 0.9028(4) 0.2438(4) 0.1084(4)
H10F H 0.88710 0.25260 0.14390
C12F C 1.0313(6) 0.2084(6) 0.0347(7)
H11F H 1.06400 0.18710 0.07160
H12F H 1.01860 0.18160 -0.00310
C13F C 1.0682(5) 0.2624(4) 0.0189(5)
C14F C 1.1374(5) 0.2723(5) 0.0544(5)
H13F H 1.16010 0.24790 0.09030
C15F C 1.1734(5) 0.3181(5) 0.0370(5)
H14F H 1.22060 0.32480 0.06120
C16F C 1.1402(5) 0.3539(4) -0.0157(5)
C17F C 1.0710(5) 0.3440(4) -0.0512(5)
H15F H 1.04830 0.36840 -0.08710
C18F C 1.0350(5) 0.2982(4) -0.0338(5)
H16F H 0.98780 0.29150 -0.05800
N7F N 1.2501(4) 0.6775(3) -0.0647(4)
C19F C 1.2860(4) 0.6274(4) -0.0424(4)
H17F H 1.31420 0.62010 0.00100
N8F N 1.2745(4) 0.5896(3) -0.0930(4)
N9F N 1.2316(5) 0.6163(4) -0.1466(4)
C20F C 1.2165(4) 0.6706(4) -0.1291(4)
H18F H 1.18750 0.69890 -0.15700
C21F C 1.3021(7) 0.5320(6) -0.0909(7)
H19F H 1.34940 0.53110 -0.05940
H20F H 1.30510 0.52180 -0.13410
C22F C 1.2578(6) 0.4865(5) -0.0715(6)
C23F C 1.2175(7) 0.4479(5) -0.1177(6)
H21F H 1.21670 0.45070 -0.16140
C24F C 1.1783(6) 0.4054(5) -0.0999(6)
H22F H 1.15070 0.37900 -0.13150
C25F C 1.1795(6) 0.4014(5) -0.0361(6)
C26F C 1.2199(7) 0.4399(5) 0.0101(5)
H23F H 1.22070 0.43720 0.05380
C27F C 1.2590(6) 0.4825(5) -0.0077(6)
H24F H 1.28670 0.50890 0.02390
Co1A Co 1.25000 0.25000 -0.50000
Co1B Co 0.25000 -0.25000 0.00000
Co1B* Co 1.25000 0.75000 0.00000
N1F N 0.7278(4) 0.1887(3) 0.0649(4)
N7B N 0.7499(4) 0.3225(3) 0.0647(4)
N7D N 0.7501(4) 0.1775(3) -0.0647(4)
#END
