
#######################################################################
#
#                 Cambridge Crystallographic Data Centre
#                                CCDC
#
#######################################################################
#
# If this CIF has been generated from an entry in the Cambridge
# Structural Database, then it will include bibliographic, chemical,
# crystal, experimental, refinement or atomic coordinate data resulting
# from the CCDC's data processing and validation procedures.
#
#######################################################################

data_CSD_CIF_WUBSOE
_audit_creation_date 2019-11-12
_audit_creation_method CSD-ConQuest-V1
_database_code_CSD WUBSOE
_database_code_depnum_ccdc_archive 'CCDC 1934856'
_chemical_formula_sum 'C25 H59 N4 Na1 O45 Th6'
_chemical_formula_moiety
;
C2 H8 N1 1+,n(C14 H20 Na1 O37 Th6 1-),3(C3 H7 N1 O1),5(H2 O1)
;
_journal_coden_Cambridge 1747
_journal_volume 7
_journal_year 2019
_journal_page_first 260
_journal_name_full 'Inorg.Chem.Front. '
loop_
_publ_author_name
"Zi-Jian Li"
"Shangyao Guo"
"Huangjie Lu"
"Yongjia Xu"
"Zenghui Yue"
"Linhong Weng"
"Xiaofeng Guo"
"Jian Lin"
"Jian-Qiang Wang"
_chemical_name_systematic
;
catena-[dimethylammonium 
tetradecakis(\m-formato)-tetrakis(\m-hydroxo)-tetrakis(\m-oxo)-(\m-aqua)-sodiu
m-hexa-thorium(iv) N,N-dimethylformamide solvate pentahydrate]
;
_chemical_name_common
;
Th-SINAP-1
;
_cell_volume   1842.408
_exptl_crystal_colour 'colorless'
_exptl_crystal_description 'needle'
_diffrn_ambient_temperature 120
_refine_special_details
;
O1A,O2A and O1,O2 disordered over two sites with occupancies 
0.51,0.527:0.49,0.473; Disordered cation and solvent molecules were not 
modelled and the disordered density was taken into account using the 
SQUEEZE/PLATON procedure.
;
#These two values have been output from a single CSD field.
_refine_ls_R_factor_gt 0.0241
_refine_ls_wR_factor_gt 0.0241
_symmetry_cell_setting tetragonal
_symmetry_space_group_name_H-M 'P 4/n m m'
_symmetry_Int_Tables_number 129
loop_
_symmetry_equiv_pos_site_id
_symmetry_equiv_pos_as_xyz
1 x,y,z
2 1/2-x,1/2-y,z
3 1/2-y,x,z
4 y,1/2-x,z
5 -x,1/2+y,-z
6 1/2+x,-y,-z
7 1/2+y,1/2+x,-z
8 -y,-x,-z
9 -x,-y,-z
10 -1/2+x,-1/2+y,-z
11 -1/2+y,-x,-z
12 -y,-1/2+x,-z
13 x,-1/2-y,z
14 -1/2-x,y,z
15 -1/2-y,-1/2-x,z
16 y,x,z
_cell_length_a 12.8712(7)
_cell_length_b 12.8712(7)
_cell_length_c 11.1211(6)
_cell_angle_alpha 90
_cell_angle_beta 90
_cell_angle_gamma 90
_cell_formula_units_Z 2
loop_
_atom_type_symbol
_atom_type_radius_bond
C 0.68
H 0.23
Na 1.66
O 0.68
Th 2.06
loop_
_atom_site_label
_atom_site_type_symbol
_atom_site_fract_x
_atom_site_fract_y
_atom_site_fract_z
Th1 Th 0.25000 0.25000 1.01839(6)
O1 O 0.4206(5) 0.25000 1.1170(5)
O2 O 0.3700(15) 0.1300(15) 0.907(2)
O3 O 0.25000 0.25000 1.2754(15)
C1 C 0.5133(7) 0.25000 1.0891(9)
Th2 Th 0.47134(2) 0.25000 0.77212(3)
O4 O 0.5504(5) 0.25000 0.9846(6)
H1 H 0.56190 0.25000 1.15340
O5 O 0.5487(5) 0.25000 0.5669(6)
O6 O 0.5483(4) 0.4257(4) 0.7657(5)
O7 O 0.6659(5) 0.25000 0.7846(6)
O8 O 0.3674(8) 0.1326(8) 0.6371(13)
Na1 Na 0.75000 0.25000 1.00000
C2 C 0.5156(9) 0.25000 0.4621(10)
C3 C 0.5172(6) 0.5172(6) 0.7591(10)
C4 C 0.75000 0.25000 0.7313(12)
Th3 Th 0.25000 0.25000 0.52225(6)
O9 O 0.4233(6) 0.25000 0.4263(6)
H2 H 0.56710 0.25000 0.40090
H3 H 0.56890 0.56890 0.74790
H4 H 0.75000 0.25000 0.646(2)
O10 O 0.50000 0.00000 0.50000
O11? O 0.3396(9) 0.1604(9) 0.6692(14)
O12? O 0.3402(15) 0.1598(15) 0.8737(19)
O6O O 0.4257(4) 0.5483(4) 0.7657(5)
O7A O 0.8341(5) 0.25000 0.7846(6)
O1A O 0.0794(5) 0.25000 1.1170(5)
O2A O 0.1300(15) 0.3700(15) 0.907(2)
C1A C -0.0133(7) 0.25000 1.0891(9)
Th2A Th 0.02866(2) 0.25000 0.77212(3)
O4A O -0.0504(5) 0.25000 0.9846(6)
H1A H -0.06190 0.25000 1.15340
O5A O -0.0487(5) 0.25000 0.5669(6)
O6A O -0.0483(4) 0.0743(4) 0.7657(5)
O7A* O -0.1659(5) 0.25000 0.7846(6)
O8A O 0.1326(8) 0.3674(8) 0.6371(13)
C2A C -0.0156(9) 0.25000 0.4621(10)
C3A C -0.0172(6) -0.0172(6) 0.7591(10)
C4* C -0.25000 0.25000 0.7313(12)
O9A O 0.0767(6) 0.25000 0.4263(6)
H2A H -0.06710 0.25000 0.40090
H3A H -0.06890 -0.06890 0.74790
H4* H -0.25000 0.25000 0.646(2)
O6N O 0.0743(4) -0.0483(4) 0.7657(5)
O7* O -0.3341(5) 0.25000 0.7846(6)
O1B O 0.2500(5) 0.42060 1.1170(5)
O2B O 0.3700(15) 0.3700(15) 0.907(2)
C1B C 0.2500(7) 0.51330 1.0891(9)
Th2B Th 0.25000(2) 0.47134 0.77212(3)
O4B O 0.2500(5) 0.55040 0.9846(6)
H1B H 0.25000 0.56190 1.15340
O5B O 0.2500(5) 0.54870 0.5669(6)
O6B O 0.0743(4) 0.5483(4) 0.7657(5)
O8B O 0.3674(8) 0.3674(8) 0.6371(13)
C2B C 0.2500(9) 0.51560 0.4621(10)
C3B C -0.0172(6) 0.5172(6) 0.7591(10)
O9B O 0.2500(6) 0.42330 0.4263(6)
H2B H 0.25000 0.56710 0.40090
H3B H -0.06890 0.56890 0.74790
O6M O -0.0483(4) 0.4257(4) 0.7657(5)
O1C O 0.2500(5) 0.07940 1.1170(5)
O2C O 0.1300(15) 0.1300(15) 0.907(2)
C1C C 0.2500(7) -0.01330 1.0891(9)
Th2C Th 0.25000(2) 0.02866 0.77212(3)
O4C O 0.2500(5) -0.05040 0.9846(6)
H1C H 0.25000 -0.06190 1.15340
O5C O 0.2500(5) -0.04870 0.5669(6)
O6C O 0.4257(4) -0.0483(4) 0.7657(5)
O8C O 0.1326(8) 0.1326(8) 0.6371(13)
C2C C 0.2500(9) -0.01560 0.4621(10)
C3C C 0.5172(6) -0.0172(6) 0.7591(10)
O9C O 0.2500(6) 0.07670 0.4263(6)
H2C H 0.25000 -0.06710 0.40090
H3C H 0.56890 -0.06890 0.74790
O6L O 0.5483(4) 0.0743(4) 0.7657(5)
O3* O 0.25000 0.25000 0.2754(15)
Th2* Th -0.52866(2) 0.25000 0.77212(3)
Th2A* Th 1.02866(2) 0.25000 0.77212(3)
O4A* O 0.9496(5) 0.25000 0.9846(6)
O4F O 0.7500(5) 0.05040 1.0154(6)
O4G O 0.7500(5) 0.44960 1.0154(6)
O7B O 0.2500(5) 0.66590 0.7846(6)
O7C O 0.2500(5) -0.16590 0.7846(6)
O7F O 0.7500(5) 0.16590 1.2154(6)
O7G O 0.7500(5) 0.33410 1.2154(6)
Na1* Na -0.25000 0.25000 1.00000
Na1B Na 0.25000 -0.25000 1.00000
Na1B* Na 0.25000 0.75000 1.00000
Th3* Th 0.25000 0.25000 1.52225(6)
#END
