
#######################################################################
#
#                 Cambridge Crystallographic Data Centre
#                                CCDC
#
#######################################################################
#
# If this CIF has been generated from an entry in the Cambridge
# Structural Database, then it will include bibliographic, chemical,
# crystal, experimental, refinement or atomic coordinate data resulting
# from the CCDC's data processing and validation procedures.
#
#######################################################################

data_CSD_CIF_WUCSAO
_audit_creation_date 2002-11-22
_audit_creation_method CSD-ConQuest-V1
_database_code_CSD WUCSAO
_database_code_depnum_ccdc_archive 'CCDC 169674'
_chemical_formula_sum 'C27 H21 Fe3 K1 O23'
_chemical_formula_moiety
;
(C27 H11 Fe3 O18 1-)n,n(K1 1+),5n(H2 O1)
;
_journal_coden_Cambridge 971
_journal_volume 4
_journal_year 2002
_journal_page_first 267
_journal_name_full 'Solid State Sciences '
loop_
_publ_author_name
"M.Riou-Cavellec"
"C.Albinet"
"C.Livage"
"N.Guillou"
"M.Nogues"
"J.M.Greneche"
"G.Fer"
_chemical_name_systematic
;
catena-(Potassium 
(\m~6~-benzene-1,3,5-tricarboxylato)-bis(\m~5~-benzene-1,3-dicarboxylato-5-car
boxylic acid)-tri-iron pentahydrate)
;
_cell_volume   1615.377
_exptl_crystal_colour 'red'
_exptl_crystal_density_diffrn 1.906
_exptl_crystal_description 'needle'
_diffrn_ambient_temperature 293
_refine_special_details
;
One water molecule is equally disordered with the K cation. The structure is 
badly crystallised as a mixture of Fe and Co oxides. It has been refined 
assuming only Fe on the metallic sites and the 2D diagram drawn accordingly; 
the published formula contains Co2.25 and Fe0.75.
;
#These two values have been output from a single CSD field.
_refine_ls_R_factor_gt 0.0388
_refine_ls_wR_factor_gt 0.0388
_symmetry_cell_setting monoclinic
_symmetry_space_group_name_H-M 'P 2/c'
_symmetry_Int_Tables_number 13
loop_
_symmetry_equiv_pos_site_id
_symmetry_equiv_pos_as_xyz
1 x,y,z
2 x,-y,1/2+z
3 -x,-y,-z
4 -x,y,-1/2-z
_cell_length_a 9.6695(1)
_cell_length_b 12.6013(2)
_cell_length_c 14.0522(1)
_cell_angle_alpha 90
_cell_angle_beta 109.364(1)
_cell_angle_gamma 90
_cell_formula_units_Z 2
loop_
_atom_type_symbol
_atom_type_radius_bond
C 0.68
H 0.23
Fe 1.34
K 1.33
O 0.68
loop_
_atom_site_label
_atom_site_type_symbol
_atom_site_fract_x
_atom_site_fract_y
_atom_site_fract_z
Fe1 Fe -0.94039(4) 0.77681(3) 0.15277(2)
Fe2 Fe 0.00000 1.00000 0.00000
O1 O -0.7039(2) 0.7711(2) 0.1497(2)
O2 O -0.0071(2) 0.7223(2) 0.00396(14)
O3 O -0.0517(2) 0.37882(15) -0.1890(2)
O4 O -0.0159(3) 0.8704(2) -0.0858(2)
O5 O -0.1386(3) 0.9360(2) 0.0711(2)
O6 O -0.8361(2) 0.9160(2) 0.12414(14)
O7 O -0.1405(2) 0.8117(2) 0.1808(2)
O8 O -0.5985(3) 1.2667(2) 0.1240(3)
O9 O -0.3695(3) 1.2721(2) 0.1224(3)
C1 C -0.4545(3) 0.8825(2) 0.1346(2)
H1 H -0.4478(3) 0.8089(2) 0.1382(2)
C2 C -0.5954(3) 1.0430(2) 0.1278(2)
H2 H -0.6821(3) 1.0762(2) 0.1261(2)
C3 C -0.5859(3) 0.9331(2) 0.1302(2)
C4 C -0.3441(3) 1.0535(2) 0.1291(2)
H3 H -0.2646(3) 1.0937(2) 0.1270(2)
C5 C -0.3343(3) 0.9429(2) 0.1335(2)
C6 C -0.4741(3) 1.1038(2) 0.1279(2)
C7 C -0.7141(3) 0.8689(2) 0.1336(2)
C8 C 0.00000 0.4245(3) -0.25000
C9 C 0.00000 0.5436(3) -0.25000
C10 C -0.0097(3) 0.5986(2) -0.1661(2)
H4 H -0.0169(3) 0.5616(2) -0.1107(2)
C11 C -0.0085(3) 0.7091(2) -0.1657(2)
C12 C -0.1952(3) 0.8936(2) 0.1291(2)
C13 C -0.0117(3) 0.7715(2) -0.0749(2)
C14 C -0.4876(4) 1.2215(2) 0.1240(3)
C15 C 0.00000 0.7636(3) -0.25000
H5 H 0.00000 0.8374(3) -0.25000
O10 O 0.2423(3) 1.4239(2) -0.0029(3)
O11 O 0.3807(4) 0.4868(3) 0.3650(3)
K1 K 0.3327(2) 0.55839(13) 0.1631(2)
O3C O 0.0517(2) 0.37882(15) -0.3110(2)
C10C C 0.0097(3) 0.5986(2) -0.3339(2)
H4C H 0.0169(3) 0.5616(2) -0.3893(2)
C11C C 0.0085(3) 0.7091(2) -0.3343(2)
C13C C 0.0117(3) 0.7715(2) -0.4251(2)
O2C O 0.0071(2) 0.7223(2) -0.50396(14)
O4C O 0.0159(3) 0.8704(2) -0.4142(2)
O1B O 0.7039(2) 1.2289(2) -0.1497(2)
O5B O 0.1386(3) 1.0640(2) -0.0711(2)
O6B O 0.8361(2) 1.0840(2) -0.12414(14)
O7B O 0.1405(2) 1.1883(2) -0.1808(2)
O8B O 0.5985(3) 0.7333(2) -0.1240(3)
O9B O 0.3695(3) 0.7279(2) -0.1224(3)
C1B C 0.4545(3) 1.1175(2) -0.1346(2)
H1B H 0.4478(3) 1.1911(2) -0.1382(2)
C2B C 0.5954(3) 0.9570(2) -0.1278(2)
H2B H 0.6821(3) 0.9238(2) -0.1261(2)
C3B C 0.5859(3) 1.0669(2) -0.1302(2)
C4B C 0.3441(3) 0.9465(2) -0.1291(2)
H3B H 0.2646(3) 0.9063(2) -0.1270(2)
C5B C 0.3343(3) 1.0571(2) -0.1335(2)
C6B C 0.4741(3) 0.8962(2) -0.1279(2)
C7B C 0.7141(3) 1.1311(2) -0.1336(2)
C12B C 0.1952(3) 1.1064(2) -0.1291(2)
C14B C 0.4876(4) 0.7785(2) -0.1240(3)
Fe1B Fe 0.94039(4) 1.22319(3) -0.15277(2)
O2* O -1.0071(2) 0.7223(2) 0.00396(14)
O3B O -0.9483(2) 0.62118(15) 0.1890(2)
O7* O -1.1405(2) 0.8117(2) 0.1808(2)
O7C O -0.8595(2) 0.8117(2) 0.3192(2)
O4B O 0.0159(3) 1.1296(2) 0.0858(2)
O6* O 0.1639(2) 0.9160(2) 0.12414(14)
O6B* O -0.1639(2) 1.0840(2) -0.12414(14)
Fe1* Fe 0.05961(4) 0.77681(3) 0.15277(2)
Fe1B* Fe -0.05961(4) 0.22319(3) -0.15277(2)
Fe2* Fe -1.00000 1.00000 0.00000
Fe1C Fe -0.05961(4) 0.77681(3) 0.34723(2)
Fe1A Fe 0.05961(4) 0.22319(3) -0.34723(2)
Fe1C* Fe -0.05961(4) 0.77681(3) -0.65277(2)
Fe2A Fe 0.00000 1.00000 -0.50000
Fe2** Fe 1.00000 1.00000 0.00000
Fe1A* Fe 0.05961(4) 1.22319(3) -0.34723(2)
Fe1B** Fe -0.05961(4) 1.22319(3) -0.15277(2)
O2B O 1.0071(2) 1.2777(2) -0.00396(14)
O3* O 0.9483(2) 1.37882(15) -0.1890(2)
O7A O 0.8595(2) 1.1883(2) -0.3192(2)
O7B* O 1.1405(2) 1.1883(2) -0.1808(2)
#END
