
#######################################################################
#
#                 Cambridge Crystallographic Data Centre
#                                CCDC
#
#######################################################################
#
# If this CIF has been generated from an entry in the Cambridge
# Structural Database, then it will include bibliographic, chemical,
# crystal, experimental, refinement or atomic coordinate data resulting
# from the CCDC's data processing and validation procedures.
#
#######################################################################

data_CSD_CIF_WUDZEB
_audit_creation_date 2010-06-17
_audit_creation_method CSD-ConQuest-V1
_database_code_CSD WUDZEB
_database_code_depnum_ccdc_archive 'CCDC 665219'
_chemical_formula_sum 'C44 H50 Co2 Mo12 N10 O54 Si1'
_chemical_formula_moiety
;
(C22 H23 Co1 N5 O6 2+)2n,n(Mo12 O40 Si1 4-),2n(H2 O1)
;
_journal_coden_Cambridge 603
_journal_volume 28
_journal_year 2009
_journal_page_first 971
_journal_name_full 'Jiegou Huaxue(Chin.)(Chin.J.Struct.Chem.) '
loop_
_publ_author_name
"Mei-Lin Wei"
"Chun-Ying Duan"
_chemical_name_systematic
;
catena-(bis((\m~2~-4,4'-bipyridine 
N,N'-dioxide)-diaqua-(acetonitrile)-(4,4'-bipyridine 
N,N'-dioxide)-cobalt(ii)) 
(\m~12~-silicato)-tetracosakis(\m~2~-oxo)-dodecaoxo-dodecea-molybdenum 
dihydrate)
;
_cell_volume   1884.567
_exptl_crystal_colour 'red'
_exptl_crystal_density_diffrn 2.538
_exptl_crystal_description 'block'
_diffrn_ambient_temperature 293
#These two values have been output from a single CSD field.
_refine_ls_R_factor_gt 0.0383
_refine_ls_wR_factor_gt 0.0383
_symmetry_cell_setting triclinic
_symmetry_space_group_name_H-M 'P 1'
_symmetry_Int_Tables_number 1
loop_
_symmetry_equiv_pos_site_id
_symmetry_equiv_pos_as_xyz
1 x,y,z
_cell_length_a 11.430(3)
_cell_length_b 12.242(3)
_cell_length_c 14.279(3)
_cell_angle_alpha 106.196(4)
_cell_angle_beta 94.316(4)
_cell_angle_gamma 98.294(3)
_cell_formula_units_Z 1
loop_
_atom_type_symbol
_atom_type_radius_bond
C 0.68
H 0.23
Co 1.26
Mo 1.34
N 0.68
O 0.68
Si 1.20
loop_
_atom_site_label
_atom_site_type_symbol
_atom_site_fract_x
_atom_site_fract_y
_atom_site_fract_z
Mo1 Mo -0.47272(6) -0.05175(6) -0.04958(5)
Mo2 Mo -0.62396(6) -0.15957(6) 0.32120(5)
Mo3 Mo -0.73697(6) 0.07807(6) 0.30753(5)
Mo4 Mo -0.20213(6) -0.02338(6) 0.11843(5)
Mo5 Mo -0.48551(6) 0.10632(6) 0.46378(5)
Mo6 Mo -0.32309(6) 0.23351(6) 0.10533(5)
Mo7 Mo -0.65017(6) -0.22163(6) 0.05304(6)
Mo8 Mo -0.22081(6) 0.01173(6) 0.35910(6)
Mo9 Mo -0.29538(6) 0.29228(6) 0.35259(6)
Mo10 Mo -0.71590(6) 0.03762(6) 0.04649(6)
Mo11 Mo -0.55592(7) 0.30245(6) 0.22987(6)
Mo12 Mo -0.36835(7) -0.23098(6) 0.18769(6)
Si1 Si -0.4709(2) 0.0313(2) 0.2088(2)
O1 O -0.5462(5) -0.0274(5) 0.1021(4)
O2 O -0.3524(4) -0.0287(4) 0.2148(4)
O3 O -0.5479(5) 0.0203(5) 0.2932(4)
O4 O -0.4248(5) 0.1668(5) 0.2188(4)
O5 O -0.1240(5) 0.0075(5) 0.2435(5)
O6 O -0.6463(6) 0.2245(5) 0.2948(5)
O7 O -0.7623(6) 0.0315(5) 0.1738(5)
O8 O -0.6375(6) 0.1830(6) 0.1088(5)
O9 O -0.2453(6) -0.1884(5) 0.1180(5)
O10 O -0.2366(6) 0.3266(6) 0.2419(6)
O11 O -0.4842(5) -0.2057(6) 0.2820(5)
O12 O -0.4302(5) 0.3750(5) 0.3308(5)
O13 O -0.6777(5) -0.2031(6) 0.1756(5)
O14 O -0.4880(5) -0.2540(6) 0.0902(5)
O15 O -0.2534(6) -0.1484(5) 0.3097(5)
O16 O -0.6250(5) 0.0091(5) -0.0598(6)
O17 O -0.5604(5) -0.1920(5) -0.0618(5)
O18 O -0.5565(5) -0.0597(5) 0.4409(5)
O19 O -0.7548(5) -0.1348(5) 0.0183(6)
O20 O -0.4057(5) 0.1184(5) 0.0059(6)
O21 O -0.4379(6) 0.3267(5) 0.1346(5)
O22 O -0.3434(5) 0.0323(5) 0.4303(5)
O23 O -0.6983(7) -0.2693(6) 0.3520(6)
O24 O -0.2390(6) 0.3085(6) 0.0442(6)
O25 O -0.4058(5) 0.2291(5) 0.4318(5)
O26 O -0.4465(7) -0.0680(7) -0.1677(5)
O27 O -0.2170(5) 0.1752(5) 0.3534(5)
O28 O -0.0834(5) -0.0441(6) 0.0538(6)
O29 O -0.1041(5) 0.0285(6) 0.4422(5)
O30 O -0.8602(6) 0.1158(6) 0.3482(6)
O31 O -0.4656(7) 0.1430(7) 0.5856(6)
O32 O -0.2166(5) 0.1229(5) 0.1209(5)
O33 O -0.8422(5) 0.0487(6) -0.0146(5)
O34 O -0.6362(5) 0.1358(5) 0.4395(5)
O35 O -0.3306(5) -0.0721(5) 0.0040(5)
O36 O -0.2169(6) 0.4067(5) 0.4406(5)
O37 O -0.7210(7) -0.3532(6) -0.0112(6)
O38 O -0.6202(6) 0.4152(5) 0.2271(6)
O39 O -0.7516(5) -0.0674(5) 0.3248(5)
O40 O -0.3439(6) -0.3628(5) 0.1841(6)
Co1 Co -0.17983(10) 0.65903(9) -0.27071(9)
Co2 Co 0.21895(10) 0.39935(9) 0.69198(9)
O41 O -0.2825(6) 0.7140(6) -0.1576(6)
H1 H -0.31670 0.65060 -0.15110
H2 H -0.24470 0.74800 -0.10090
O42 O -0.0719(5) 0.6032(5) -0.3774(5)
H3 H -0.05130 0.66460 -0.39320
H4 H -0.00470 0.58950 -0.35850
O43 O -0.0691(6) 0.5889(5) -0.1870(5)
O44 O -0.0147(8) 0.7385(6) 0.5165(6)
O45 O -0.3077(6) 0.5080(5) -0.3149(5)
O46 O -0.0741(5) -0.1817(5) -0.2175(5)
N1 N -0.0666(6) 0.6154(6) -0.0913(5)
N2 N -0.0274(7) 0.7209(6) 0.4209(6)
N3 N -0.2794(6) 0.4083(6) -0.3008(6)
N4 N -0.1098(6) -0.0901(5) -0.2340(5)
N5 N -0.2857(7) 0.7087(7) -0.3767(8)
C1 C -0.0043(8) 0.7126(7) -0.0304(7)
H5 H 0.03460 0.76750 -0.05650
C2 C 0.0047(7) 0.7351(7) 0.0708(7)
H6 H 0.05310 0.80220 0.11060
C3 C -0.0571(7) 0.6593(7) 0.1138(7)
C4 C -0.1272(10) 0.5599(8) 0.0470(8)
H7 H -0.17310 0.50730 0.07140
C5 C -0.1297(11) 0.5391(9) -0.0489(8)
H8 H -0.17530 0.47100 -0.08990
C6 C 0.0120(8) 0.8062(7) 0.3808(7)
H9 H 0.04670 0.87910 0.42150
C7 C 0.0010(8) 0.7857(7) 0.2831(7)
H10 H 0.02950 0.84520 0.25780
C8 C -0.0510(7) 0.6797(7) 0.2182(7)
C9 C -0.0941(8) 0.5954(7) 0.2602(7)
H11 H -0.13030 0.52250 0.22040
C10 C -0.0833(9) 0.6194(8) 0.3615(8)
H12 H -0.11590 0.56300 0.38880
C11 C -0.3373(8) 0.3623(7) -0.2411(7)
H13 H -0.39660 0.39650 -0.20920
C12 C -0.3078(8) 0.2611(7) -0.2267(8)
H14 H -0.34670 0.22760 -0.18400
C13 C -0.2222(7) 0.2114(6) -0.2752(7)
C14 C -0.1648(7) 0.2627(7) -0.3386(7)
H15 H -0.10560 0.23010 -0.37200
C15 C -0.1966(8) 0.3618(7) -0.3512(7)
H16 H -0.16050 0.39630 -0.39460
C16 C -0.1086(8) -0.0701(8) -0.3215(7)
H17 H -0.08390 -0.12270 -0.37360
C17 C -0.1432(10) 0.0262(8) -0.3343(7)
H18 H -0.13940 0.04050 -0.39480
C18 C -0.1839(7) 0.1036(6) -0.2592(6)
C19 C -0.1872(8) 0.0821(7) -0.1699(7)
H19 H -0.21360 0.13290 -0.11750
C20 C -0.1505(9) -0.0161(8) -0.1603(7)
H20 H -0.15380 -0.03230 -0.10060
C21 C -0.3253(10) 0.7071(10) -0.4535(8)
C22 C -0.3803(17) 0.6943(17) -0.5532(14)
H21 H -0.36290 0.76650 -0.56780
H22 H -0.46500 0.67190 -0.55740
H23 H -0.34890 0.63610 -0.59970
O47 O 0.3181(7) 0.3475(6) 0.5729(6)
H24 H 0.39210 0.37180 0.59070
H25 H 0.30250 0.27410 0.55610
O48 O 0.1103(6) 0.4577(5) 0.7990(5)
H26 H 0.08840 0.39640 0.81450
H27 H 0.04370 0.47240 0.77990
O49 O 0.1070(5) 0.4695(5) 0.6092(4)
O50 O 0.0503(7) 0.3150(6) -0.0946(5)
O51 O 0.3453(5) 0.5498(5) 0.7374(5)
O52 O 0.1098(5) 1.2412(5) 0.6414(5)
N6 N 0.1097(7) 0.4450(6) 0.5109(6)
N7 N 0.0692(8) 0.3375(7) 0.0028(6)
N8 N 0.3215(6) 0.6498(6) 0.7270(5)
N9 N 0.1475(7) 1.1458(6) 0.6553(6)
N10 N 0.3228(7) 0.3482(7) 0.7944(7)
C23 C 0.0448(8) 0.3466(8) 0.4525(7)
H28 H 0.00290 0.29430 0.47950
C24 C 0.0406(8) 0.3240(8) 0.3553(7)
H29 H -0.00610 0.25630 0.31500
C25 C 0.1042(8) 0.3992(7) 0.3128(7)
C26 C 0.1680(12) 0.4970(9) 0.3753(8)
H30 H 0.21170 0.55030 0.35040
C27 C 0.1695(11) 0.5191(8) 0.4751(8)
H31 H 0.21340 0.58740 0.51710
C28 C 0.0348(9) 0.2510(8) 0.0398(7)
H32 H 0.00170 0.17850 -0.00250
C29 C 0.0476(8) 0.2671(8) 0.1391(7)
H33 H 0.02420 0.20530 0.16330
C30 C 0.0957(7) 0.3763(6) 0.2050(6)
C31 C 0.1357(9) 0.4611(8) 0.1610(8)
H34 H 0.17330 0.53350 0.20070
C32 C 0.1214(9) 0.4409(8) 0.0615(7)
H35 H 0.14810 0.49960 0.03460
C33 C 0.3796(8) 0.7025(8) 0.6688(9)
H36 H 0.44000 0.66960 0.63740
C34 C 0.3540(9) 0.8020(8) 0.6536(8)
H37 H 0.39830 0.83820 0.61530
C35 C 0.2600(7) 0.8480(8) 0.6967(7)
C36 C 0.2001(8) 0.7933(7) 0.7578(7)
H38 H 0.13770 0.82310 0.78820
C37 C 0.2338(8) 0.6950(7) 0.7730(7)
H39 H 0.19550 0.66010 0.81510
C38 C 0.1429(9) 1.1274(7) 0.7416(7)
H40 H 0.11120 1.17730 0.79100
C39 C 0.1853(8) 1.0337(7) 0.7585(7)
H41 H 0.18590 1.02340 0.82060
C40 C 0.2269(7) 0.9550(7) 0.6844(7)
C41 C 0.2278(9) 0.9786(8) 0.5953(7)
H42 H 0.25590 0.92810 0.54370
C42 C 0.1891(8) 1.0731(7) 0.5802(7)
H43 H 0.19120 1.08740 0.51970
C43 C 0.3672(16) 0.3393(15) 0.8600(14)
C44 C 0.4266(15) 0.3229(14) 0.9484(13)
H44 H 0.43810 0.24420 0.93520
H45 H 0.37810 0.34060 1.00090
H46 H 0.50250 0.37320 0.96710
O53 O 0.5055(6) 0.4772(6) 0.5355(6)
H47 H 0.54610 0.50030 0.49510
H48 H 0.55050 0.45550 0.57450
O54 O -0.4655(7) 0.5797(7) -0.1139(7)
H49 H -0.45250 0.58320 -0.05360
H50 H -0.54000 0.56740 -0.13160
Co1* Co -0.17983(10) -0.34097(9) -0.27071(9)
Co2* Co 0.21895(10) 1.39935(9) 0.69198(9)
O46* O -0.0741(5) 0.8183(5) -0.2175(5)
O52* O 0.1098(5) 0.2412(5) 0.6414(5)
#END
