
#######################################################################
#
#                 Cambridge Crystallographic Data Centre
#                                CCDC
#
#######################################################################
#
# If this CIF has been generated from an entry in the Cambridge
# Structural Database, then it will include bibliographic, chemical,
# crystal, experimental, refinement or atomic coordinate data resulting
# from the CCDC's data processing and validation procedures.
#
#######################################################################

data_CSD_CIF_WUFQUL
_audit_creation_date 2015-05-25
_audit_creation_method CSD-ConQuest-V1
_database_code_CSD WUFQUL
_database_code_depnum_ccdc_archive 'CCDC 1023630'
_chemical_formula_sum 'C42 H86 N8 Ni2 O14'
_chemical_formula_moiety
;
(C26 H38 N4 Ni1 O8 2-)n,C16 H40 N4 Ni1 O2 2+,4(H2 O1)
;
_journal_coden_Cambridge 603
_journal_volume 34
_journal_year 2015
_journal_page_first 749
_journal_name_full 'Jiegou Huaxue(Chin.)(Chin.J.Struct.Chem.) '
loop_
_publ_author_name
"Guang-Chuan Ou"
"Wen-Yi Li"
"Xian-You Yuan"
"Zhi-Zhang Li"
_chemical_name_systematic
;
catena-[(\m-benzene-1,2,4,5-tetracarboxylato)-(5,5,7,12,12,14-hexamethyl-1,4,8
,11-tetraazacyclotetradecane)-nickel 
diaqua-(5,5,7,12,12,14-hexamethyl-1,4,8,11-tetraazacyclotetradecane)-nickel 
tetrahydrate]
;
_cell_volume   1256.141
_exptl_crystal_colour 'purple'
_exptl_crystal_density_diffrn 1.378
_exptl_crystal_description 'block'
_diffrn_ambient_temperature 173
#These two values have been output from a single CSD field.
_refine_ls_R_factor_gt 0.0413
_refine_ls_wR_factor_gt 0.0413
_symmetry_cell_setting triclinic
_symmetry_space_group_name_H-M 'P -1'
_symmetry_Int_Tables_number 2
loop_
_symmetry_equiv_pos_site_id
_symmetry_equiv_pos_as_xyz
1 x,y,z
2 -x,-y,-z
_cell_length_a 10.1896(12)
_cell_length_b 11.2966(14)
_cell_length_c 11.5602(14)
_cell_angle_alpha 108.555(2)
_cell_angle_beta 94.654(2)
_cell_angle_gamma 90.885(2)
_cell_formula_units_Z 1
loop_
_atom_type_symbol
_atom_type_radius_bond
C 0.68
H 0.23
N 0.68
Ni 1.24
O 0.68
loop_
_atom_site_label
_atom_site_type_symbol
_atom_site_fract_x
_atom_site_fract_y
_atom_site_fract_z
Ni1 Ni 0.50000 0.50000 0.00000
O1 O 0.50122(19) 0.49270(18) 0.18282(17)
N1 N 0.2993(2) 0.5259(2) -0.0123(2)
N2 N 0.4474(2) 0.3113(2) -0.0887(2)
C1 C 0.4130(3) 0.5094(3) 0.2562(2)
H1 H 0.27090 0.52660 0.06240
C2 C 0.2392(3) 0.4105(3) -0.1045(3)
C3 C 0.2560(3) 0.6437(3) -0.0308(3)
H2 H 0.45430 0.30060 -0.17120
C4 C 0.3035(3) 0.2992(3) -0.0798(3)
C5 C 0.5282(3) 0.2112(3) -0.0643(3)
O2 O 0.2924(2) 0.5174(2) 0.23035(19)
C6 C 0.4572(3) 0.5100(3) 0.3850(2)
H3 H 0.25380 0.41060 -0.18810
H4 H 0.14310 0.40560 -0.09830
H5 H 0.28080 0.64550 -0.11220
C7 C 0.1071(3) 0.6546(4) -0.0275(4)
C8 C 0.3252(3) 0.7552(3) 0.0699(3)
H6 H 0.28690 0.29780 0.00300
H7 H 0.26610 0.22040 -0.14070
C9 C 0.5050(4) 0.1958(3) 0.0592(3)
C10 C 0.4916(3) 0.0859(3) -0.1654(3)
C11 C 0.3981(3) 0.4237(3) 0.4292(2)
C12 C 0.5612(3) 0.5882(2) 0.4572(2)
H8 H 0.06220 0.58530 -0.09380
H9 H 0.08180 0.73410 -0.03800
H10 H 0.08190 0.65130 0.05150
H11 H 0.27470 0.82990 0.07200
H12 H 0.31770 0.74030 0.14900
H13 H 0.51700 0.27720 0.12340
H14 H 0.56820 0.13820 0.07740
H15 H 0.41510 0.16210 0.05580
H16 H 0.40080 0.05960 -0.16010
H17 H 0.55150 0.02240 -0.15460
H18 H 0.49930 0.09580 -0.24580
H19 H 0.32720 0.37090 0.38030
C13 C 0.6240(3) 0.6906(3) 0.4187(2)
O3 O 0.7493(2) 0.70863(19) 0.44563(19)
O4 O 0.5540(2) 0.75093(19) 0.36810(19)
Ni2 Ni 0.00000 0.00000 0.50000
O5 O 0.0950(2) 0.15915(19) 0.64524(18)
H20 H 0.04080 0.21550 0.66700
N3 N 0.1644(2) -0.1049(2) 0.5045(2)
H21 H 0.14330 -0.18440 0.44950
N4 N 0.0973(2) 0.0652(2) 0.3774(2)
H22 H 0.14010 0.13930 0.42740
C14 C 0.0232(3) 0.1032(3) 0.2772(3)
C15 C 0.2062(3) -0.0198(3) 0.3404(3)
H23 H 0.27320 0.02000 0.30570
H24 H 0.17200 -0.09820 0.27680
C16 C -0.0917(3) 0.1810(3) 0.3327(3)
H25 H -0.05370 0.25120 0.40400
H26 H -0.12990 0.21810 0.27130
C17 C 0.2061(3) -0.1213(3) 0.6246(3)
H27 H 0.22900 -0.03700 0.68590
C18 C 0.2680(3) -0.0485(3) 0.4521(3)
H28 H 0.33950 -0.10740 0.42830
H29 H 0.30630 0.02930 0.51400
C19 C 0.3269(3) -0.2010(4) 0.6175(3)
H30 H 0.30570 -0.28440 0.55850
H31 H 0.35250 -0.20830 0.69840
H32 H 0.39990 -0.16140 0.59110
C20 C -0.0262(3) -0.0111(3) 0.1692(3)
H33 H 0.04870 -0.04980 0.12550
H34 H -0.08820 0.01470 0.11340
H35 H -0.07060 -0.07150 0.19940
C21 C 0.1142(4) 0.1864(4) 0.2327(3)
H36 H 0.13550 0.26550 0.29870
H37 H 0.06940 0.20320 0.16160
H38 H 0.19560 0.14350 0.20940
O6 O 0.0805(3) 0.6456(2) 0.3121(3)
H39 H 0.032(3) 0.600(3) 0.340(4)
H40 H 0.1563(18) 0.613(3) 0.303(4)
O7 O 0.0916(3) 0.4873(3) 0.5962(4)
H41 H 0.127(3) 0.427(4) 0.544(3)
H42 H 0.150(3) 0.517(2) 0.657(3)
N1A N 0.7007(2) 0.4741(2) 0.0123(2)
N2A N 0.5526(2) 0.6887(2) 0.0887(2)
O1A O 0.49878(19) 0.50730(18) -0.18282(17)
H1A H 0.72910 0.47340 -0.06240
C2A C 0.7608(3) 0.5895(3) 0.1045(3)
C3A C 0.7440(3) 0.3563(3) 0.0308(3)
H2A H 0.54570 0.69940 0.17120
C4A C 0.6965(3) 0.7008(3) 0.0798(3)
C5A C 0.4718(3) 0.7888(3) 0.0643(3)
C8A C 0.6748(3) 0.2448(3) -0.0699(3)
H3A H 0.74620 0.58940 0.18810
H4A H 0.85690 0.59440 0.09830
H5A H 0.71920 0.35450 0.11220
C7A C 0.8929(3) 0.3454(4) 0.0275(4)
H6A H 0.71310 0.70220 -0.00300
H7A H 0.73390 0.77960 0.14070
C9A C 0.4950(4) 0.8042(3) -0.0592(3)
C10A C 0.5084(3) 0.9141(3) 0.1654(3)
H11A H 0.72530 0.17010 -0.07200
H12A H 0.68230 0.25970 -0.14900
H8A H 0.93780 0.41470 0.09380
H9A H 0.91820 0.26590 0.03800
H10A H 0.91810 0.34870 -0.05150
H13A H 0.48300 0.72280 -0.12340
H14A H 0.43180 0.86180 -0.07740
H15A H 0.58490 0.83790 -0.05580
H16A H 0.59920 0.94040 0.16010
H17A H 0.44850 0.97760 0.15460
H18A H 0.50070 0.90420 0.24580
C12A C 0.4388(3) 0.4118(2) 0.5428(2)
C11A C 0.6019(3) 0.5763(3) 0.5708(2)
C13A C 0.3760(3) 0.3094(3) 0.5813(2)
C6A C 0.5428(3) 0.4900(3) 0.6150(2)
H19A H 0.67280 0.62910 0.61970
O3A O 0.2507(2) 0.29137(19) 0.55437(19)
O4A O 0.4460(2) 0.24907(19) 0.63190(19)
C1A C 0.5870(3) 0.4906(3) 0.7438(2)
O1A* O 0.49878(19) 0.50730(18) 0.81718(17)
O2A O 0.7076(2) 0.4826(2) 0.76965(19)
Ni1* Ni 0.50000 0.50000 1.00000
N3A N -0.1644(2) 0.1049(2) 0.4955(2)
H21A H -0.14330 0.18440 0.55050
N4A N -0.0973(2) -0.0652(2) 0.6226(2)
H22A H -0.14010 -0.13930 0.57260
C14A C -0.0232(3) -0.1032(3) 0.7228(3)
C15A C -0.2062(3) 0.0198(3) 0.6596(3)
H23A H -0.27320 -0.02000 0.69430
H24A H -0.17200 0.09820 0.72320
C16A C 0.0917(3) -0.1810(3) 0.6673(3)
H25A H 0.05370 -0.25120 0.59600
H26A H 0.12990 -0.21810 0.72870
C17A C -0.2061(3) 0.1213(3) 0.3754(3)
H27A H -0.22900 0.03700 0.31410
C18A C -0.2680(3) 0.0485(3) 0.5479(3)
H28A H -0.33950 0.10740 0.57170
H29A H -0.30630 -0.02930 0.48600
C19A C -0.3269(3) 0.2010(4) 0.3825(3)
H30A H -0.30570 0.28440 0.44150
H31A H -0.35250 0.20830 0.30160
H32A H -0.39990 0.16140 0.40890
C20A C 0.0262(3) 0.0111(3) 0.8308(3)
H33A H -0.04870 0.04980 0.87450
H34A H 0.08820 -0.01470 0.88660
H35A H 0.07060 0.07150 0.80060
C21A C -0.1142(4) -0.1864(4) 0.7673(3)
H36A H -0.13550 -0.26550 0.70130
H37A H -0.06940 -0.20320 0.83840
H38A H -0.19560 -0.14350 0.79060
O5A O -0.0950(2) -0.15915(19) 0.35476(18)
H20A H -0.04080 -0.21550 0.33300
#END
