
#######################################################################
#
#                 Cambridge Crystallographic Data Centre
#                                CCDC
#
#######################################################################
#
# If this CIF has been generated from an entry in the Cambridge
# Structural Database, then it will include bibliographic, chemical,
# crystal, experimental, refinement or atomic coordinate data resulting
# from the CCDC's data processing and validation procedures.
#
#######################################################################

data_CSD_CIF_WUJGUE
_audit_creation_date 2010-10-12
_audit_creation_method CSD-ConQuest-V1
_database_code_CSD WUJGUE
_database_code_depnum_ccdc_archive 'CCDC 619146'
_chemical_formula_sum 'C100 H76 Cu10 N20 O50 P1 W12'
_chemical_formula_moiety
;
(O40 P1 W12 2-)n,n(C20 H16 Cu2 N4 2+),4n(C20 H14 Cu2 N4 O2),2n(H2 O1)
;
_journal_coden_Cambridge 1133
_journal_volume 20
_journal_year 2009
_journal_page_first 489
_journal_name_full 'J.Cluster Sci. '
loop_
_publ_author_name
"Chun-Mei Wang"
"Shou-Tian Zheng"
"Guo-Yu Yang"
_chemical_name_systematic
;
catena-(bis(\m~2~-4,4'-Bipyridine-N,N')-di-copper(i) 
tetrakis(bis(\m~2~-6-oxy-2,2'-bipyridine-N,N',O)-di-copper) 
(\m~12~-phosphato)-tetracosakis(\m~2~-oxo)-dodecaoxo-di-tungsten(v)-deca-tungs
ten(vi) dihydrate)
;
_cell_volume   6022.901
_exptl_crystal_colour 'black'
_exptl_crystal_density_diffrn 2.884
_exptl_crystal_description 'prism'
_diffrn_ambient_temperature 293
#These two values have been output from a single CSD field.
_refine_ls_R_factor_gt 0.0739
_refine_ls_wR_factor_gt 0.0739
_symmetry_cell_setting triclinic
_symmetry_space_group_name_H-M 'P -1'
_symmetry_Int_Tables_number 2
loop_
_symmetry_equiv_pos_site_id
_symmetry_equiv_pos_as_xyz
1 x,y,z
2 -x,-y,-z
_cell_length_a 14.117(3)
_cell_length_b 20.191(3)
_cell_length_c 21.811(4)
_cell_angle_alpha 85.828(5)
_cell_angle_beta 82.536(5)
_cell_angle_gamma 78.003(4)
_cell_formula_units_Z 2
loop_
_atom_type_symbol
_atom_type_radius_bond
C 0.68
H 0.23
Cu 1.32
N 0.68
O 0.68
P 1.05
W 1.40
loop_
_atom_site_label
_atom_site_type_symbol
_atom_site_fract_x
_atom_site_fract_y
_atom_site_fract_z
P1 P 1.0111(3) -0.50411(17) -0.74959(15)
W1 W 1.15514(5) -0.44244(3) -0.87920(3)
W2 W 1.24449(5) -0.47088(3) -0.73534(3)
W3 W 1.05778(6) -0.33523(3) -0.75921(3)
W4 W 1.20361(5) -0.64570(3) -0.72438(3)
W5 W 0.97751(5) -0.67510(3) -0.74359(3)
W6 W 1.11721(5) -0.61590(3) -0.86920(3)
W7 W 0.87123(5) -0.56095(3) -0.61691(3)
W8 W 0.90756(5) -0.39754(3) -0.62577(3)
W9 W 1.09480(6) -0.53016(4) -0.60126(4)
W10 W 0.81665(5) -0.36684(3) -0.77996(3)
W11 W 0.77778(5) -0.53109(3) -0.77040(3)
W12 W 0.91726(7) -0.47472(5) -0.89504(4)
Cu1 Cu 0.5064(2) -0.58562(13) -0.75635(10)
Cu2 Cu 0.4500(2) -0.58769(13) -0.25166(10)
Cu3 Cu 1.01032(19) -0.94270(11) -0.51176(10)
Cu4 Cu 1.2438(2) -0.99731(12) -0.44199(14)
Cu5 Cu 1.2690(2) -1.05778(13) -0.53562(15)
Cu6 Cu 1.5167(2) -1.03519(13) -0.54901(16)
Cu7 Cu 1.00903(19) -0.94250(11) -1.01413(10)
Cu8 Cu 0.7348(2) -0.94450(15) -0.94836(17)
Cu9 Cu 0.7448(2) -1.00225(13) -1.04195(16)
Cu10 Cu 0.4957(3) -0.96693(17) -0.9515(3)
O1 O 1.1525(9) -0.6088(6) -0.6493(5)
O2 O 1.0560(8) -0.5785(5) -0.7640(5)
O3 O 1.1175(9) -0.3553(6) -0.8420(5)
O4 O 1.105(1) -0.7010(7) -0.7160(6)
O5 O 0.8381(9) -0.4677(6) -0.5953(5)
O6 O 1.0429(9) -0.6802(7) -0.8264(5)
O7 O 0.8411(8) -0.3898(5) -0.8627(5)
O8 O 0.7942(9) -0.5358(6) -0.6843(5)
O9 O 1.0856(8) -0.4588(6) -0.7694(5)
O10 O 1.1817(9) -0.4829(6) -0.6567(5)
O11 O 0.7333(9) -0.4335(6) -0.7641(5)
O12 O 0.8116(8) -0.5178(6) -0.8548(5)
O13 O 0.9193(9) -0.4807(6) -0.7816(6)
O14 O 0.8682(9) -0.6163(6) -0.7725(5)
O15 O 0.9846(9) -0.5002(5) -0.6797(5)
O16 O 1.2589(9) -0.4586(6) -0.8229(6)
O17 O 1.2581(9) -0.5655(6) -0.7443(5)
O18 O 0.7951(8) -0.5954(6) -0.5617(5)
O19 O 1.0054(8) -0.5636(5) -0.8928(5)
O20 O 0.7308(10) -0.2949(7) -0.7839(6)
O21 O 1.3600(9) -0.4652(7) -0.7238(6)
O22 O 0.6684(9) -0.5544(6) -0.7682(5)
O23 O 0.8484(9) -0.3377(6) -0.5760(5)
O24 O 1.1712(9) -0.6588(6) -0.9336(6)
O25 O 0.8315(9) -0.3797(6) -0.6931(5)
O26 O 0.9426(10) -0.7513(6) -0.7347(6)
O27 O 1.1825(10) -0.3764(6) -0.7329(5)
O28 O 1.3014(10) -0.7049(6) -0.7054(5)
O29 O 1.2136(10) -0.6551(7) -0.8117(5)
O30 O 0.9345(9) -0.3334(7) -0.7862(5)
O31 O 0.9337(10) -0.6370(7) -0.6656(5)
O32 O 1.0131(9) -0.4432(6) -0.5829(6)
O33 O 1.2223(9) -0.4204(6) -0.9462(5)
O34 O 1.0340(9) -0.4371(6) -0.9028(5)
O35 O 1.0629(10) -0.2522(6) -0.7604(6)
O36 O 1.1754(8) -0.5386(6) -0.8780(6)
O37 O 0.9983(10) -0.3552(7) -0.6780(6)
O38 O 0.9804(8) -0.5705(6) -0.5754(5)
O39 O 0.8800(13) -0.4651(8) -0.9759(7)
O40 O 1.1644(11) -0.5500(8) -0.5340(6)
O41 O 1.0391(12) -0.9595(7) -0.5960(6)
O42 O 1.2941(12) -0.9817(8) -0.5821(8)
O43 O 1.2142(13) -1.0723(7) -0.3954(8)
O44 O 1.5531(15) -0.9572(9) -0.5927(9)
O45 O 1.0225(13) -0.9602(7) -1.0971(6)
O46 O 0.7657(14) -0.9261(8) -1.0899(8)
O47 O 0.7179(15) -1.0223(9) -0.8998(9)
O48 O 0.4684(18) -1.0464(12) -0.9055(16)
O49 O 0.7910(12) -0.6177(8) -0.4261(8)
O50 O 0.8168(13) -0.6276(8) -0.9297(8)
C1 C 0.3787(7) -0.5953(7) -1.1205(4)
H1 H 0.31900 -0.59690 -1.13340
C2 C 0.3865(7) -0.5931(7) -1.0573(4)
H2 H 0.33200 -0.59320 -1.02830
C3 C 0.4764(7) -0.5907(6) -1.0378(4)
C4 C 0.5584(7) -0.5905(7) -1.0814(4)
H3 H 0.61810 -0.58890 -1.06850
C5 C 0.5506(7) -0.5928(7) -1.1446(4)
H4 H 0.60510 -0.59270 -1.17350
N1 N 0.4607(7) -0.5952(6) -1.1641(4)
C6 C 0.4079(7) -0.5877(7) -0.8652(4)
H5 H 0.35280 -0.58770 -0.83670
C7 C 0.4015(7) -0.5894(6) -0.9287(4)
H6 H 0.34210 -0.59060 -0.94240
C8 C 0.4847(7) -0.5893(6) -0.9717(4)
C9 C 0.5744(7) -0.5875(7) -0.9511(4)
H7 H 0.62950 -0.58750 -0.97950
C10 C 0.5807(7) -0.5858(6) -0.8875(4)
H8 H 0.64010 -0.58460 -0.87380
N2 N 0.4975(8) -0.5858(6) -0.8445(4)
C11 C 0.4089(8) -0.5962(7) -0.6320(4)
H9 H 0.35420 -0.59810 -0.65080
C12 C 0.4017(7) -0.5937(7) -0.5683(5)
H10 H 0.34230 -0.59400 -0.54440
C13 C 0.4830(7) -0.5907(6) -0.5402(4)
C14 C 0.5714(7) -0.5903(7) -0.5758(4)
H11 H 0.62610 -0.58830 -0.55690
C15 C 0.5786(8) -0.5929(7) -0.6394(4)
H12 H 0.63800 -0.59260 -0.66330
N3 N 0.4973(8) -0.5958(6) -0.6675(4)
C16 C 0.3768(7) -0.5820(6) -0.3700(4)
H13 H 0.31610 -0.57810 -0.34660
C17 C 0.3843(7) -0.5832(6) -0.4344(4)
H14 H 0.32860 -0.58000 -0.45390
C18 C 0.4755(7) -0.5892(6) -0.4696(4)
C19 C 0.5592(7) -0.5940(6) -0.4402(4)
H15 H 0.61990 -0.59800 -0.46360
C20 C 0.5516(7) -0.5929(6) -0.3758(4)
H16 H 0.60730 -0.59610 -0.35630
N4 N 0.4604(7) -0.5869(6) -0.3407(4)
C21 C 1.0409(11) -1.0178(5) -0.6165(5)
C22 C 1.0610(12) -1.0306(6) -0.6781(5)
H17 H 1.07400 -0.99640 -0.70690
C23 C 1.0618(12) -1.0939(6) -0.6974(5)
H18 H 1.07550 -1.10260 -0.73930
C24 C 1.0426(11) -1.1443(6) -0.6550(5)
H19 H 1.04310 -1.18730 -0.66810
C25 C 1.0225(10) -1.1315(5) -0.5933(5)
N5 N 0.9784(9) -0.9318(5) -0.4260(4)
C26 C 1.0046(9) -1.1822(5) -0.5432(4)
C27 C 1.0078(9) -1.2494(5) -0.5498(5)
H20 H 1.02450 -1.26730 -0.58880
C28 C 0.9866(9) -1.2901(5) -0.4994(5)
H21 H 0.98880 -1.33590 -0.50390
C29 C 0.9622(10) -1.2638(6) -0.4422(5)
C30 C 0.959(1) -1.1966(5) -0.4355(5)
H22 H 0.94230 -1.17860 -0.39660
N6 N 1.0198(9) -0.8442(5) -0.5140(5)
C31 C 1.2837(11) -0.9213(6) -0.5572(6)
C32 C 1.2942(13) -0.8628(8) -0.5914(7)
H23 H 1.30970 -0.86370 -0.63410
C33 C 1.2820(12) -0.8028(7) -0.5624(8)
H24 H 1.28910 -0.76320 -0.58550
C34 C 1.2591(11) -0.8014(6) -0.4992(7)
H25 H 1.25080 -0.76090 -0.47950
C35 C 1.2486(10) -0.8600(6) -0.4650(6)
N7 N 1.2609(10) -0.9199(6) -0.4940(6)
C36 C 1.2237(11) -0.8657(6) -0.3968(6)
C37 C 1.2055(11) -0.8129(6) -0.3572(7)
H26 H 1.20860 -0.76920 -0.37290
C38 C 1.1825(12) -0.8250(7) -0.2944(7)
H27 H 1.17030 -0.78940 -0.26780
C39 C 1.1778(13) -0.8899(8) -0.2712(7)
H28 H 1.16230 -0.89800 -0.22900
C40 C 1.1960(12) -0.9426(7) -0.3108(6)
H29 H 1.19290 -0.98630 -0.29520
N8 N 1.219(1) -0.9306(6) -0.3735(6)
C41 C 1.2122(11) -1.1291(6) -0.4211(6)
C42 C 1.1928(13) -1.1854(7) -0.3873(7)
H30 H 1.17700 -1.18400 -0.34460
C43 C 1.1965(12) -1.2438(7) -0.4163(7)
H31 H 1.18320 -1.28210 -0.39330
C44 C 1.2197(12) -1.2458(7) -0.4790(7)
H32 H 1.22220 -1.28560 -0.49870
C45 C 1.2392(11) -1.1895(7) -0.5127(6)
N9 N 1.2354(11) -1.1312(6) -0.4838(6)
C46 C 1.2653(11) -1.1866(7) -0.5786(7)
C47 C 1.2693(12) -1.2376(8) -0.6166(8)
H33 H 1.25700 -1.27920 -0.60020
C48 C 1.2912(14) -1.2279(9) -0.6786(8)
H34 H 1.29390 -1.26290 -0.70470
C49 C 1.3091(14) -1.1672(9) -0.7026(7)
H35 H 1.32410 -1.16060 -0.74510
C50 C 1.3051(13) -1.1162(8) -0.6646(7)
H36 H 1.31740 -1.07460 -0.68110
N10 N 1.2832(10) -1.1259(7) -0.6026(7)
C51 C 1.5422(12) -0.8981(7) -0.5691(7)
C52 C 1.5551(14) -0.8428(8) -0.6064(7)
H37 H 1.57270 -0.84730 -0.64870
C53 C 1.5422(14) -0.7812(8) -0.5818(8)
H38 H 1.55100 -0.74340 -0.60730
C54 C 1.5164(14) -0.7746(7) -0.5199(8)
H39 H 1.50760 -0.73250 -0.50310
C55 C 1.5035(12) -0.8299(7) -0.4826(7)
N11 N 1.4836(10) -1.1084(6) -0.4928(7)
C56 C 1.4754(13) -0.8259(8) -0.4157(8)
C57 C 1.4620(15) -0.7690(9) -0.3837(9)
H40 H 1.46960 -0.72810 -0.40440
C58 C 1.4376(16) -0.7715(10) -0.3215(9)
H41 H 1.42850 -0.73240 -0.29950
C59 C 1.4265(15) -0.8310(11) -0.2913(9)
H42 H 1.40980 -0.83270 -0.24860
C60 C 1.4398(14) -0.8880(9) -0.3232(8)
H43 H 1.43220 -0.92880 -0.30250
N12 N 1.5357(12) -1.1146(7) -0.6145(8)
C61 C 1.0197(11) -1.0200(5) -1.1165(5)
C62 C 1.0296(12) -1.0339(6) -1.1777(5)
H44 H 1.03850 -1.00020 -1.20810
C63 C 1.0264(11) -1.0974(6) -1.1943(5)
H45 H 1.03310 -1.10680 -1.23600
C64 C 1.0133(11) -1.1469(6) -1.1497(5)
H46 H 1.01110 -1.19010 -1.16100
C65 C 1.0034(10) -1.1330(5) -1.0885(5)
N13 N 0.9934(10) -0.9304(5) -0.9281(4)
C66 C 0.993(1) -1.1826(5) -1.0364(5)
C67 C 0.9928(11) -1.2493(6) -1.0416(5)
H47 H 1.00120 -1.26700 -1.08060
C68 C 0.9804(11) -1.2900(6) -0.9900(6)
H48 H 0.98030 -1.33560 -0.99360
C69 C 0.9681(11) -1.2640(6) -0.9330(6)
H49 H 0.95950 -1.29180 -0.89770
C70 C 0.9683(10) -1.1973(6) -0.9277(5)
H50 H 0.96000 -1.17960 -0.88870
N14 N 1.0193(9) -0.8434(5) -1.0206(5)
C71 C 0.7727(12) -0.8702(7) -1.0647(7)
C72 C 0.7867(13) -0.8130(8) -1.0988(7)
H51 H 0.79590 -0.81320 -1.14180
C73 C 0.7870(12) -0.7554(7) -1.0700(7)
H52 H 0.79650 -0.71640 -1.09330
C74 C 0.7735(12) -0.7550(7) -1.0070(7)
H53 H 0.77380 -0.71570 -0.98730
C75 C 0.7596(11) -0.8121(7) -0.9728(7)
N15 N 0.7592(11) -0.8697(6) -1.0017(7)
C76 C 0.7454(13) -0.8175(8) -0.9053(8)
C77 C 0.7457(14) -0.7677(9) -0.8681(10)
H54 H 0.75460 -0.72540 -0.88500
C78 C 0.7332(16) -0.7786(11) -0.8066(10)
H55 H 0.73330 -0.74400 -0.78070
C79 C 0.7204(18) -0.8394(11) -0.7822(9)
H56 H 0.71180 -0.84700 -0.73950
C80 C 0.7201(15) -0.8892(10) -0.8195(9)
H57 H 0.71120 -0.93150 -0.80260
N16 N 0.7326(12) -0.8783(8) -0.8810(8)
C81 C 0.7220(12) -1.0821(8) -0.9254(7)
C82 C 0.7169(13) -1.1421(10) -0.8921(8)
H58 H 0.70890 -1.14310 -0.84910
C83 C 0.7235(13) -1.2006(8) -0.9225(10)
H59 H 0.72000 -1.24120 -0.90000
C84 C 0.7353(13) -1.1991(7) -0.9863(9)
H60 H 0.73980 -1.23870 -1.00680
C85 C 0.7405(12) -1.1392(7) -1.0196(7)
N17 N 0.7338(11) -1.0806(6) -0.9891(7)
C86 C 0.7536(12) -1.1307(7) -1.0871(7)
C87 C 0.7648(13) -1.1825(7) -1.1264(9)
H61 H 0.76380 -1.22630 -1.11040
C88 C 0.7775(13) -1.1696(8) -1.1891(9)
H62 H 0.78510 -1.20470 -1.21570
C89 C 0.7790(14) -1.1050(9) -1.2125(8)
H63 H 0.78760 -1.09630 -1.25510
C90 C 0.7678(13) -1.0533(8) -1.1733(7)
H64 H 0.76880 -1.00940 -1.18920
N18 N 0.7551(11) -1.0662(7) -1.1106(7)
C91 C 0.4717(19) -1.1051(10) -0.9311(11)
C92 C 0.463(2) -1.1606(12) -0.8939(11)
H65 H 0.45240 -1.15720 -0.85110
C93 C 0.4689(19) -1.2209(12) -0.9188(12)
H66 H 0.46280 -1.25900 -0.89320
C94 C 0.4840(19) -1.2258(11) -0.9810(11)
H67 H 0.48820 -1.26730 -0.99810
C95 C 0.4930(18) -1.1703(12) -1.0181(9)
N19 N 0.5132(16) -0.890(1) -1.0068(10)
C96 C 0.5078(18) -1.1691(14) -1.0844(11)
C97 C 0.520(2) -1.2258(13) -1.1152(14)
H68 H 0.51740 -1.26700 -1.09350
C98 C 0.534(2) -1.2232(15) -1.1771(15)
H69 H 0.54250 -1.26260 -1.19850
C99 C 0.537(2) -1.1639(18) -1.2083(13)
H70 H 0.54770 -1.16220 -1.25130
C100 C 0.526(2) -1.1072(14) -1.1775(15)
H71 H 0.52780 -1.06600 -1.19920
N20 N 0.4892(15) -0.8902(11) -0.8844(15)
Cu2* Cu 0.4500(2) -0.58769(13) -1.25166(10)
Cu3A Cu 0.98968(19) -1.05730(11) -0.48824(10)
Cu6A Cu 1.4833(2) -0.96481(13) -0.45099(16)
Cu7A Cu 0.99097(19) -1.05750(11) -0.98587(10)
Cu10A Cu 0.5043(3) -1.03307(17) -1.0485(3)
O41A O 0.9609(12) -1.0405(7) -0.4040(6)
O44A O 1.4469(15) -1.0428(9) -0.4073(9)
O45A O 0.9775(13) -1.0398(7) -0.9029(6)
O48A O 0.5316(18) -0.9536(12) -1.0945(16)
N1* N 0.4607(7) -0.5952(6) -0.1641(4)
C21A C 0.9591(11) -0.9822(5) -0.3835(5)
C22A C 0.9390(12) -0.9694(6) -0.3219(5)
H17A H 0.92600 -1.00360 -0.29310
C23A C 0.9382(12) -0.9061(6) -0.3026(5)
H18A H 0.92450 -0.89740 -0.26070
C24A C 0.9574(11) -0.8557(6) -0.3450(5)
H19A H 0.95690 -0.81270 -0.33190
C25A C 0.9775(10) -0.8685(5) -0.4067(5)
N5A N 1.0216(9) -1.0682(5) -0.5740(4)
C26A C 0.9954(9) -0.8178(5) -0.4568(4)
C27A C 0.9922(9) -0.7506(5) -0.4502(5)
H20A H 0.97550 -0.73270 -0.41120
C28A C 1.0134(9) -0.7099(5) -0.5006(5)
H21A H 1.01120 -0.66410 -0.49610
C29A C 1.0378(10) -0.7362(6) -0.5578(5)
C30A C 1.041(1) -0.8034(5) -0.5645(5)
H22A H 1.05770 -0.82140 -0.60340
N6A N 0.9802(9) -1.1558(5) -0.4860(5)
C51A C 1.4578(12) -1.1019(7) -0.4309(7)
C52A C 1.4449(14) -1.1572(8) -0.3936(7)
H37A H 1.42730 -1.15270 -0.35130
C53A C 1.4578(14) -1.2188(8) -0.4182(8)
H38A H 1.44900 -1.25660 -0.39270
C54A C 1.4836(14) -1.2254(7) -0.4801(8)
H39A H 1.49240 -1.26750 -0.49690
C55A C 1.4965(12) -1.1701(7) -0.5174(7)
N11A N 1.5164(10) -0.8916(6) -0.5072(7)
C56A C 1.5246(13) -1.1741(8) -0.5843(8)
C57A C 1.5380(15) -1.2310(9) -0.6163(9)
H40A H 1.53040 -1.27190 -0.59560
C58A C 1.5624(16) -1.2285(10) -0.6785(9)
H41A H 1.57150 -1.26760 -0.70050
C59A C 1.5735(15) -1.1690(11) -0.7087(9)
H42A H 1.59020 -1.16730 -0.75140
C60A C 1.5602(14) -1.1120(9) -0.6768(8)
H43A H 1.56780 -1.07120 -0.69750
N12A N 1.4643(12) -0.8854(7) -0.3855(8)
C61A C 0.9803(11) -0.9800(5) -0.8835(5)
C62A C 0.9704(12) -0.9661(6) -0.8223(5)
H44A H 0.96150 -0.99980 -0.79190
C63A C 0.9736(11) -0.9026(6) -0.8057(5)
H45A H 0.96690 -0.89320 -0.76400
C64A C 0.9867(11) -0.8531(6) -0.8503(5)
H46A H 0.98890 -0.80990 -0.83900
C65A C 0.9966(10) -0.8670(5) -0.9115(5)
N13A N 1.0066(10) -1.0696(5) -1.0719(4)
C66A C 1.007(1) -0.8174(5) -0.9636(5)
C67A C 1.0072(11) -0.7507(6) -0.9584(5)
H47A H 0.99880 -0.73300 -0.91940
C68A C 1.0196(11) -0.7100(6) -1.0100(6)
H48A H 1.01970 -0.66440 -1.00640
C69A C 1.0319(11) -0.7360(6) -1.0670(6)
H49A H 1.04050 -0.70820 -1.10230
C70A C 1.0317(10) -0.8027(6) -1.0723(5)
H50A H 1.04000 -0.82040 -1.11130
N14A N 0.9807(9) -1.1566(5) -0.9794(5)
C91A C 0.5283(19) -0.8949(10) -1.0689(11)
C92A C 0.537(2) -0.8394(12) -1.1061(11)
H65A H 0.54760 -0.84280 -1.14890
C93A C 0.5311(19) -0.7791(12) -1.0812(12)
H66A H 0.53720 -0.74100 -1.10680
C94A C 0.5160(19) -0.7742(11) -1.0190(11)
H67A H 0.51180 -0.73270 -1.00190
C95A C 0.5070(18) -0.8297(12) -0.9819(9)
N19A N 0.4868(16) -1.110(1) -0.9932(10)
C96A C 0.4922(18) -0.8309(14) -0.9156(11)
C97A C 0.480(2) -0.7742(13) -0.8848(14)
H68A H 0.48260 -0.73300 -0.90650
C98A C 0.466(2) -0.7768(15) -0.8229(15)
H69A H 0.45750 -0.73740 -0.80150
C99A C 0.463(2) -0.8361(18) -0.7917(13)
H70A H 0.45230 -0.83780 -0.74870
C100A C 0.474(2) -0.8928(14) -0.8225(15)
H71A H 0.47220 -0.93400 -0.80080
N20A N 0.5108(15) -1.1098(11) -1.1156(15)
#END
