
#######################################################################
#
#                 Cambridge Crystallographic Data Centre
#                                CCDC
#
#######################################################################
#
# If this CIF has been generated from an entry in the Cambridge
# Structural Database, then it will include bibliographic, chemical,
# crystal, experimental, refinement or atomic coordinate data resulting
# from the CCDC's data processing and validation procedures.
#
#######################################################################

data_CSD_CIF_WUJKOC
_audit_creation_date 2010-10-11
_audit_creation_method CSD-ConQuest-V1
_database_code_CSD WUJKOC
_database_code_depnum_ccdc_archive 'CCDC 714766'
_chemical_formula_sum 'C30 H24 Cu1 I6 N6 Pb2'
_chemical_formula_moiety
;
(C30 H24 Cu1 N6 2+)n,n(I6 Pb2 2-)
;
_journal_coden_Cambridge 1133
_journal_volume 20
_journal_year 2009
_journal_page_first 611
_journal_name_full 'J.Cluster Sci. '
loop_
_publ_author_name
"Xiao-Bo Chen"
"Hao-Hong Li"
"Zhi-Rong Chen"
"Ji-Bo Liu"
"Jun-Bo Li"
"Hai-Jun Dong"
"Yan-Ling Wu"
_chemical_name_systematic
;
catena-(tris(2,2'-Bipyridine-N,N')-copper(ii) hexakis(\m~2~-iodo)-di-lead(ii))
;
_cell_volume   4074.291
_exptl_crystal_colour 'green'
_exptl_crystal_density_diffrn 2.784
_exptl_crystal_description 'block'
_diffrn_ambient_temperature 293
#These two values have been output from a single CSD field.
_refine_ls_R_factor_gt 0.0566
_refine_ls_wR_factor_gt 0.0566
_symmetry_cell_setting monoclinic
_symmetry_space_group_name_H-M 'P 21/c'
_symmetry_Int_Tables_number 14
loop_
_symmetry_equiv_pos_site_id
_symmetry_equiv_pos_as_xyz
1 x,y,z
2 -x,1/2+y,1/2-z
3 -x,-y,-z
4 x,-1/2-y,-1/2+z
_cell_length_a 17.515(6)
_cell_length_b 14.863(3)
_cell_length_c 16.226(4)
_cell_angle_alpha 90
_cell_angle_beta 105.302(11)
_cell_angle_gamma 90
_cell_formula_units_Z 4
loop_
_atom_type_symbol
_atom_type_radius_bond
C 0.68
H 0.23
Cu 1.49
I 1.40
N 0.68
Pb 1.51
loop_
_atom_site_label
_atom_site_type_symbol
_atom_site_fract_x
_atom_site_fract_y
_atom_site_fract_z
Pb1 Pb 0.24093(3) 0.26654(3) 0.22628(3)
Pb2 Pb 0.23872(3) 0.25614(3) 0.47732(3)
I1 I 0.38587(5) 0.26360(5) 0.39658(5)
I2 I 0.16322(6) 0.12247(6) 0.31787(6)
I3 I 0.16689(6) 0.41178(6) 0.33687(7)
I4 I 0.09096(6) 0.25087(7) 0.06215(6)
I5 I 0.32849(6) 0.11725(6) 0.13632(6)
I6 I 0.31704(7) 0.40428(6) 0.10934(6)
Cu1 Cu -0.24918(9) 0.26162(9) 0.05479(10)
N1 N -0.3355(6) 0.1750(6) 0.0578(6)
N2 N -0.3297(6) 0.3476(6) 0.0829(6)
N3 N -0.1734(7) 0.2303(8) 0.1832(7)
N4 N -0.1633(7) 0.3540(7) 0.0665(8)
N5 N -0.1980(6) 0.1784(6) -0.0181(6)
N6 N -0.3155(7) 0.2879(7) -0.1027(8)
C1 C -0.3294(9) 0.0843(8) 0.0530(9)
H1 H -0.28580 0.05950 0.03880
C2 C -0.3853(10) 0.0295(9) 0.0684(10)
H2 H -0.38010 -0.03240 0.06380
C3 C -0.4483(10) 0.0627(9) 0.0903(9)
H3 H -0.48440 0.02440 0.10540
C4 C -0.4589(8) 0.1571(8) 0.0902(8)
H4 H -0.50480 0.18240 0.09860
C5 C -0.3979(7) 0.2107(7) 0.0770(7)
C6 C -0.3978(7) 0.3084(7) 0.0820(7)
C7 C -0.4647(8) 0.3595(9) 0.0856(8)
H5 H -0.51370 0.33270 0.08010
C8 C -0.4541(9) 0.4516(10) 0.0976(9)
H6 H -0.49640 0.48640 0.10360
C9 C -0.3839(10) 0.4926(9) 0.101(1)
H7 H -0.37750 0.55450 0.10750
C10 C -0.3240(9) 0.4384(9) 0.0943(9)
H8 H -0.27520 0.46500 0.09770
C11 C -0.1827(11) 0.1685(12) 0.2368(10)
H9 H -0.22850 0.13380 0.22480
C12 C -0.1229(15) 0.1549(14) 0.3130(11)
H10 H -0.12800 0.10920 0.35040
C13 C -0.0577(15) 0.2087(16) 0.3320(15)
H11 H -0.01820 0.20060 0.38250
C14 C -0.0518(12) 0.2689(12) 0.2806(14)
H12 H -0.00770 0.30630 0.29450
C15 C -0.1078(8) 0.2826(11) 0.2041(10)
C16 C -0.1045(9) 0.3519(9) 0.1384(10)
C17 C -0.0420(9) 0.4131(12) 0.1481(13)
H13 H 0.00100 0.40980 0.19600
C18 C -0.0438(11) 0.4757(12) 0.0895(15)
H14 H -0.00250 0.51680 0.09690
C19 C -0.1063(12) 0.4799(11) 0.0180(13)
H15 H -0.10950 0.52440 -0.02310
C20 C -0.165(1) 0.4144(9) 0.0095(11)
H16 H -0.20700 0.41450 -0.03950
C21 C -0.1296(9) 0.1378(10) 0.0151(10)
H17 H -0.10250 0.15160 0.07100
C22 C -0.0961(10) 0.0765(11) -0.0280(12)
H18 H -0.04750 0.05020 -0.00240
C23 C -0.1366(10) 0.0552(10) -0.1101(11)
H19 H -0.11550 0.01450 -0.14170
C24 C -0.2092(9) 0.0949(10) -0.1453(10)
H20 H -0.23830 0.07970 -0.20020
C25 C -0.2385(9) 0.1583(9) -0.0974(9)
C26 C -0.3119(8) 0.2043(8) -0.1318(7)
C27 C -0.3787(9) 0.1648(10) -0.1882(9)
H21 H -0.37670 0.10590 -0.20670
C28 C -0.4468(11) 0.2145(12) -0.2154(10)
H22 H -0.49170 0.18890 -0.25170
C29 C -0.4487(9) 0.3014(11) -0.1892(10)
H23 H -0.49370 0.33660 -0.20940
C30 C -0.3836(10) 0.3358(10) -0.1331(10)
H24 H -0.38540 0.39470 -0.11440
Pb2C Pb 0.23872(3) 0.24386(3) -0.02268(3)
I4C I 0.09096(6) 0.24913(7) 0.56215(6)
I5C I 0.32849(6) 0.38275(6) 0.63632(6)
I6C I 0.31704(7) 0.09572(6) 0.60934(6)
#END
