
#######################################################################
#
#                 Cambridge Crystallographic Data Centre
#                                CCDC
#
#######################################################################
#
# If this CIF has been generated from an entry in the Cambridge
# Structural Database, then it will include bibliographic, chemical,
# crystal, experimental, refinement or atomic coordinate data resulting
# from the CCDC's data processing and validation procedures.
#
#######################################################################

data_CSD_CIF_WUJKOC01
_audit_creation_date 2013-05-21
_audit_creation_method CSD-ConQuest-V1
_database_code_CSD WUJKOC01
_database_code_depnum_ccdc_archive 'CCDC 891593'
_chemical_formula_sum 'C30 H24 Cu1 I6 N6 Pb2'
_chemical_formula_moiety
;
(C30 H24 Cu1 N6 2+)n,n(I6 Pb2 2-)
;
_journal_coden_Cambridge 1350
_journal_volume 15
_journal_year 2013
_journal_page_first 2579
_journal_name_full 'CrystEngComm '
loop_
_publ_author_name
"Guan-E Wang"
"Gang Xu"
"Pei-Xin Li"
"Shuai-Hua Wang"
"Ming-Sheng Wang"
"Guo-Cong Guo"
"Jin-Shun Huang"
_chemical_name_systematic
;
catena-[tris(2,2'-Bipyridine)-copper(ii) hexakis(\m~2~-iodo)-di-lead(ii)]
;
_cell_volume   4128.901
_exptl_crystal_colour 'dark green'
_exptl_crystal_density_diffrn 2.748
_exptl_crystal_description 'spicule'
_diffrn_ambient_temperature 293
#These two values have been output from a single CSD field.
_refine_ls_R_factor_gt 0.0526
_refine_ls_wR_factor_gt 0.0526
_symmetry_cell_setting monoclinic
_symmetry_space_group_name_H-M 'P 21/c'
_symmetry_Int_Tables_number 14
loop_
_symmetry_equiv_pos_site_id
_symmetry_equiv_pos_as_xyz
1 x,y,z
2 -x,1/2+y,1/2-z
3 -x,-y,-z
4 x,-1/2-y,-1/2+z
_cell_length_a 17.604(6)
_cell_length_b 14.926(5)
_cell_length_c 16.292(6)
_cell_angle_alpha 90
_cell_angle_beta 105.311(5)
_cell_angle_gamma 90
_cell_formula_units_Z 4
loop_
_atom_type_symbol
_atom_type_radius_bond
C 0.68
H 0.23
Cu 1.32
I 1.40
N 0.68
Pb 1.46
loop_
_atom_site_label
_atom_site_type_symbol
_atom_site_fract_x
_atom_site_fract_y
_atom_site_fract_z
Pb1 Pb 0.240692(17) 0.233584(19) 0.226104(17)
Pb2 Pb 0.238470(17) 0.244362(18) 0.477074(18)
I1 I 0.31648(4) 0.09521(4) 0.10967(4)
I2 I 0.32834(3) 0.38259(3) 0.13617(3)
I3 I 0.09065(3) 0.24928(4) 0.06161(4)
I4 I 0.16689(3) 0.08819(4) 0.33723(4)
I5 I 0.16276(3) 0.37781(3) 0.31776(3)
I6 I 0.38572(3) 0.23693(3) 0.39637(3)
Cu1 Cu 0.75060(5) 0.26115(5) 0.55573(6)
C1 C 0.6775(5) 0.4379(5) 0.5943(5)
H1 H 0.72550 0.46480 0.59590
C2 C 0.6171(5) 0.4904(5) 0.6032(6)
H2 H 0.62450 0.55170 0.61200
C3 C 0.5444(5) 0.4526(5) 0.5994(5)
H3 H 0.50290 0.48820 0.60540
C4 C 0.5341(4) 0.3599(5) 0.5862(4)
H4 H 0.48540 0.33310 0.58140
C5 C 0.5999(4) 0.3085(5) 0.5805(4)
C6 C 0.5998(4) 0.2094(5) 0.5761(4)
C7 C 0.5405(4) 0.1565(5) 0.5882(5)
H5 H 0.49490 0.18300 0.59550
C8 C 0.5467(5) 0.0652(5) 0.5897(5)
H6 H 0.50880 0.02860 0.60300
C9 C 0.6147(5) 0.0295(5) 0.5697(6)
H7 H 0.62100 -0.03220 0.56710
C10 C 0.6708(5) 0.0855(5) 0.5544(6)
H8 H 0.71470 0.06100 0.54120
C11 C 0.6165(6) 0.3347(6) 0.3670(6)
H9 H 0.61510 0.39360 0.38530
C12 C 0.5502(5) 0.3020(6) 0.3113(5)
H10 H 0.50550 0.33710 0.29150
C13 C 0.5532(6) 0.2153(7) 0.2862(6)
H11 H 0.50830 0.18890 0.25140
C14 C 0.6218(5) 0.1661(7) 0.3115(5)
H12 H 0.62490 0.10890 0.29000
C15 C 0.6875(4) 0.2047(5) 0.3712(5)
C16 C 0.7635(4) 0.1568(5) 0.4039(5)
C17 C 0.7924(5) 0.0949(5) 0.3564(6)
H13 H 0.76390 0.08170 0.30110
C18 C 0.8630(6) 0.0533(6) 0.3911(7)
H14 H 0.88250 0.01050 0.36040
C19 C 0.9046(6) 0.0767(6) 0.4730(7)
H15 H 0.95370 0.05180 0.49780
C20 C 0.8716(5) 0.1373(6) 0.5164(6)
H16 H 0.89900 0.15150 0.57190
C21 C 0.8361(5) 0.4130(5) 0.5098(6)
H17 H 0.79540 0.41150 0.46010
C22 C 0.8924(5) 0.4782(6) 0.5195(7)
H18 H 0.88870 0.52280 0.47880
C23 C 0.9569(6) 0.4759(6) 0.5939(7)
H19 H 0.99680 0.51850 0.60240
C24 C 0.9588(5) 0.4089(7) 0.6531(7)
H20 H 1.00190 0.40400 0.70030
C25 C 0.8973(4) 0.3492(6) 0.6426(6)
C26 C 0.8904(5) 0.2780(6) 0.7060(6)
C27 C 0.9472(8) 0.2682(7) 0.7822(8)
H21 H 0.98930 0.30790 0.79660
C28 C 0.9422(7) 0.2078(10) 0.8300(9)
H22 H 0.98380 0.19700 0.87760
C29 C 0.8728(7) 0.1525(8) 0.8146(6)
H23 H 0.86540 0.11090 0.85420
C30 C 0.8177(7) 0.1649(7) 0.7372(6)
H24 H 0.77370 0.12790 0.72220
N1 N 0.6707(3) 0.3488(3) 0.5831(4)
N2 N 0.6645(4) 0.1742(3) 0.5577(4)
N3 N 0.6834(4) 0.2886(4) 0.3975(5)
N4 N 0.8019(3) 0.1776(4) 0.4833(4)
N5 N 0.8380(4) 0.3510(4) 0.5701(4)
N6 N 0.8269(4) 0.2287(5) 0.6843(5)
Pb2C Pb 0.238470(17) 0.255638(18) -0.022926(18)
I1C I 0.31648(4) 0.40479(4) 0.60967(4)
I2C I 0.32834(3) 0.11741(3) 0.63617(3)
I3C I 0.09065(3) 0.25072(4) 0.56161(4)
#END
