
#######################################################################
#
#                 Cambridge Crystallographic Data Centre
#                                CCDC
#
#######################################################################
#
# If this CIF has been generated from an entry in the Cambridge
# Structural Database, then it will include bibliographic, chemical,
# crystal, experimental, refinement or atomic coordinate data resulting
# from the CCDC's data processing and validation procedures.
#
#######################################################################

data_CSD_CIF_WUKTUU
_audit_creation_date 2020-03-24
_audit_creation_method CSD-ConQuest-V1
_database_code_CSD WUKTUU
_database_code_depnum_ccdc_archive 'CCDC 1975238'
_chemical_formula_sum 'C24 H20 N4 O14 U1'
_chemical_formula_moiety
;
(C16 H6 N2 O14 U1 2-)n,C8 H14 N2 2+
;
_journal_coden_Cambridge 9
_journal_volume 59
_journal_year 2020
_journal_page_first 5004
_journal_name_full 'Inorg.Chem. '
loop_
_publ_author_name
"Long Wang"
"Bingtian Tu"
"Wei Xu"
"Yu Fu"
"Yueqing Zheng"
_chemical_name_systematic
;
catena-(tetramethylpiperazinedi-ium 
(\m-5-nitroisophthalato)-(5-nitroisophthalato)-dioxo-uranium)
;
_cell_volume   1371.641
_exptl_crystal_colour 'yellow'
_exptl_crystal_density_diffrn 2.001
_exptl_crystal_description 'platelet'
_diffrn_ambient_temperature 293
#These two values have been output from a single CSD field.
_refine_ls_R_factor_gt 0.0647
_refine_ls_wR_factor_gt 0.0647
_symmetry_cell_setting triclinic
_symmetry_space_group_name_H-M 'P -1'
_symmetry_Int_Tables_number 2
loop_
_symmetry_equiv_pos_site_id
_symmetry_equiv_pos_as_xyz
1 x,y,z
2 -x,-y,-z
_cell_length_a 9.875(2)
_cell_length_b 11.616(2)
_cell_length_c 13.994(3)
_cell_angle_alpha 112.21(3)
_cell_angle_beta 101.87(3)
_cell_angle_gamma 102.91(3)
_cell_formula_units_Z 2
loop_
_atom_type_symbol
_atom_type_radius_bond
C 0.68
H 0.23
N 0.68
O 0.68
U 1.96
loop_
_atom_site_label
_atom_site_type_symbol
_atom_site_fract_x
_atom_site_fract_y
_atom_site_fract_z
U1 U 0.56230(5) 0.29188(6) 0.25955(5)
O1 O 0.5294(11) 0.3140(12) 0.1436(8)
O2 O 0.8029(9) 0.2788(10) 0.2418(9)
O3 O 0.5942(11) 0.2747(11) 0.3775(8)
O4 O 0.5370(9) 0.513(1) 0.3609(8)
O5 O 0.6197(10) 0.0933(10) 0.1684(10)
O6 O 0.7602(10) 0.5072(10) 0.3726(10)
O7 O 0.9099(12) -0.3154(11) -0.0538(9)
O8 O 0.7338(13) -0.3282(11) 0.0165(11)
O9 O 1.1718(15) 1.0943(15) 0.6738(11)
C1 C 1.0974(12) 0.0789(13) 0.1617(11)
N1 N 0.8443(13) -0.2653(12) 0.0064(11)
C2 C 0.7991(13) -0.0582(14) 0.0978(11)
H1 H 0.69978 -0.10437 0.07741
O10 O 1.1879(14) 0.8963(16) 0.5856(13)
C3 C 0.8925(15) 0.7770(17) 0.5118(12)
H2 H 0.95286 0.72814 0.49011
O11 O 0.4859(18) 0.9442(14) 0.5736(13)
C4 C 0.8542(14) 0.0787(14) 0.1569(12)
C5 C 1.0461(13) -0.0572(13) 0.1010(11)
H3 H 1.10991 -0.10292 0.08129
C6 C 1.0023(13) 0.1464(14) 0.1892(11)
H4 H 1.03786 0.23758 0.22962
C7 C 0.8975(13) -0.1231(14) 0.0706(11)
C8 C 0.7408(17) 0.7150(15) 0.4760(13)
C9 C 0.6515(17) 0.7885(15) 0.5069(12)
H5 H 0.55013 0.74897 0.48188
C10 C 0.7534(15) 0.1540(17) 0.1891(13)
C11 C 0.6755(14) 0.5691(15) 0.3994(13)
C12 C 0.9525(17) 0.9097(16) 0.5789(14)
C13 C 0.715(2) 0.9206(17) 0.5750(13)
C14 C 1.116(2) 0.9764(19) 0.6172(15)
C15 C 0.864(2) 0.9832(17) 0.6104(13)
H6 H 0.90420 1.07359 0.65486
N2 N 0.619(2) 0.9997(18) 0.6102(14)
O12 O 0.676(2) 1.1133(17) 0.6720(18)
C16 C 1.2605(12) 0.1547(13) 0.1939(12)
O13 O 1.3052(9) 0.2761(9) 0.2517(8)
O14 O 1.3476(10) 0.0933(11) 0.1708(10)
N3 N 1.3213(13) 0.5816(12) 0.2480(9)
H7 H 1.38604 0.56143 0.28383
N4 N 1.1239(15) 0.6439(15) 0.1359(11)
H8 H 1.05927 0.66325 0.09914
C17 C 1.1947(15) 0.5731(14) 0.2713(12)
C18 C 1.3547(17) 0.6184(15) 0.1746(13)
C19 C 1.2531(17) 0.6530(18) 0.1163(13)
C20 C 1.0919(18) 0.6063(16) 0.2096(14)
C21 C 1.1698(18) 0.5327(15) 0.3571(13)
H9 H 1.22800 0.47878 0.36493
H10 H 1.06787 0.48346 0.33659
H11 H 1.19732 0.60974 0.42513
C22 C 1.279(3) 0.702(3) 0.0354(18)
H12 H 1.18872 0.70304 -0.00488
H13 H 1.31673 0.64466 -0.01382
H14 H 1.34929 0.78947 0.07272
C23 C 1.5045(18) 0.624(2) 0.1619(16)
H15 H 1.57063 0.71354 0.20333
H16 H 1.49663 0.59542 0.08638
H17 H 1.54126 0.56833 0.18799
C24 C 0.9475(19) 0.604(2) 0.2255(18)
H18 H 0.89232 0.62621 0.17422
H19 H 0.96211 0.66659 0.29830
H20 H 0.89456 0.51721 0.21413
U1* U 1.56230(5) 0.29188(6) 0.25955(5)
O13* O 0.3052(9) 0.2761(9) 0.2517(8)
O14* O 0.3476(10) 0.0933(11) 0.1708(10)
#END
