
#######################################################################
#
#                 Cambridge Crystallographic Data Centre
#                                CCDC
#
#######################################################################
#
# If this CIF has been generated from an entry in the Cambridge
# Structural Database, then it will include bibliographic, chemical,
# crystal, experimental, refinement or atomic coordinate data resulting
# from the CCDC's data processing and validation procedures.
#
#######################################################################

data_CSD_CIF_WULDIT
_audit_creation_date 2020-03-24
_audit_creation_method CSD-ConQuest-V1
_database_code_CSD WULDIT
_database_code_depnum_ccdc_archive 'CCDC 1962680'
_chemical_formula_sum 'C64 H86 Cr2 F2 Mn2 N2 O36'
_chemical_formula_moiety
;
2(C20 H36 O6),(C12 Cr2 Mn2 O24 2-)n,2(C6 H7 F1 N1 1+)
;
_journal_coden_Cambridge 1290
_journal_volume 2020
_journal_year 2020
_journal_page_first 1670
_journal_name_full 'Eur.J.Inorg.Chem. '
loop_
_publ_author_name
"K.Kubo"
"M.Yoshitake"
"N.Hoshino"
"S.Noro"
"T.Akutagawa"
"T.Nakamura"
_chemical_name_systematic
;
catena-[bis(3-fluoroanilinium) bis(1,4-dicyclohexyl-18-crown-6) 
hexakis(\m-oxalato)-di-chromium-di-manganese]
;
_cell_volume   7535.569
_exptl_crystal_colour 'gray'
_exptl_crystal_density_diffrn 1.508
_exptl_special_details
;
Magnetic properties

;
_exptl_crystal_description 'plate'
_diffrn_ambient_temperature 93
_diffrn_special_details
;
twin

;
_refine_special_details
;
C23,C24,O29 and C923,C924,O929 disordered over two sites with occupancies 
0.70:0.30; 
C45,C46,C47,C48,C49,C50,C51,C52,C53,C54,C55,C56,C57,C58,C59,C60,C61,C62,C63,C6
4,O31,O32,O33,O34,O35,O36 and 
C945,C946,C947,C948,C949,C950,C951,C952,C953,C954,C955,C956,C957,C958,C959,C96
0,C961,C962,C963,C964,O931,O932,O933,O934,O935,O936 disordered over two sites 
with occupancies 0.516:0.484; F2 and F92 disordered over two sites with 
occupancies 0.803:0.197.
;
#These two values have been output from a single CSD field.
_refine_ls_R_factor_gt 0.077
_refine_ls_wR_factor_gt 0.077
_symmetry_cell_setting orthorhombic
_symmetry_space_group_name_H-M 'P 21 21 21'
_symmetry_Int_Tables_number 19
loop_
_symmetry_equiv_pos_site_id
_symmetry_equiv_pos_as_xyz
1 x,y,z
2 1/2+x,1/2-y,-z
3 -x,1/2+y,1/2-z
4 1/2-x,-y,1/2+z
_cell_length_a 9.0543(3)
_cell_length_b 24.7663(9)
_cell_length_c 33.6047(11)
_cell_angle_alpha 90
_cell_angle_beta 90
_cell_angle_gamma 90
_cell_formula_units_Z 4
loop_
_atom_type_symbol
_atom_type_radius_bond
C 0.68
H 0.23
Cr 1.39
F 0.64
Mn 1.61
N 0.68
O 0.68
loop_
_atom_site_label
_atom_site_type_symbol
_atom_site_fract_x
_atom_site_fract_y
_atom_site_fract_z
Mn1 Mn -0.22594(15) -0.51082(6) -0.21936(4)
Mn2 Mn -0.72172(15) -0.49627(5) -0.30831(4)
Cr1 Cr -0.70187(16) -0.51299(6) 0.03163(4)
Cr2 Cr -0.20065(16) -0.51314(6) -0.05773(4)
O1 O -0.8533(7) -0.5345(3) -0.42012(19)
O2 O 0.1100(7) -0.4661(3) 0.02173(17)
O3 O -0.7013(8) -0.4427(3) -0.42266(19)
O4 O 0.1992(8) -0.5565(3) -0.01408(17)
O5 O -0.5028(8) -0.5556(3) 0.02630(17)
O6 O -0.5848(8) -0.4648(3) -0.00857(17)
O7 O -0.3907(7) -0.4677(3) -0.04837(18)
O8 O -0.2984(8) -0.5578(3) -0.01185(17)
O9 O -0.0896(8) -0.4640(3) -0.01738(17)
O10 O -0.0037(8) -0.5554(3) -0.05244(18)
O11 O -0.1386(7) -0.4655(3) -0.1060(2)
O12 O -0.2858(8) -0.5592(3) -0.1043(2)
O13 O -0.1507(7) -0.4648(2) -0.17210(18)
O14 O -0.2995(7) -0.5579(2) -0.17118(19)
O15 O -0.4114(7) -0.4614(2) -0.22618(16)
O16 O -0.3403(7) -0.5537(2) -0.26210(17)
O17 O -0.1258(7) -0.4608(3) -0.26211(17)
O18 O -0.0260(7) -0.5511(2) -0.22821(16)
O19 O -0.6032(7) -0.4513(2) -0.26722(16)
O20 O -0.5354(7) -0.5436(2) -0.30282(17)
O21 O 0.0810(7) -0.4548(2) -0.29889(17)
O22 O 0.1806(7) -0.5451(2) -0.26436(16)
O23 O -0.6591(8) -0.4478(3) -0.3567(2)
O24 O -0.8118(7) -0.5404(2) -0.35423(18)
C1 C -0.4697(10) -0.4854(4) -0.0208(2)
C2 C -0.4188(10) -0.5381(4) 0.0001(3)
C3 C 0.0301(11) -0.4855(4) -0.0058(3)
C4 C 0.0793(12) -0.5372(4) -0.0260(3)
C5 C -0.1754(9) -0.4854(4) -0.1387(3)
C6 C -0.262(1) -0.5398(4) -0.1382(3)
C7 C -0.0009(10) -0.4766(4) -0.2726(2)
C8 C 0.0591(10) -0.5298(3) -0.2532(2)
C9 C -0.492(1) -0.4753(4) -0.2542(3)
C10 C -0.4524(10) -0.5291(4) -0.2748(3)
C11 C -0.7107(11) -0.4641(4) -0.3896(3)
C12 C -0.7994(10) -0.5182(4) -0.3872(3)
F1 F -0.4366(11) -0.1854(4) -0.0840(3)
N1 N 0.0372(7) -0.2600(2) -0.11437(16)
C13 C -0.3497(18) -0.2290(7) -0.0901(4)
C14 C -0.2042(15) -0.2218(6) -0.0976(3)
C15 C -0.1171(14) -0.2683(5) -0.1036(3)
C16 C -0.1754(13) -0.3214(5) -0.1000(3)
C17 C -0.3262(17) -0.3277(7) -0.0919(4)
C18 C -0.4128(19) -0.2805(7) -0.0865(5)
H1 H 0.08204 -0.29253 -0.11768
H2 H 0.08355 -0.24128 -0.09468
H3 H 0.04216 -0.24089 -0.13747
H4 H -0.16233 -0.18670 -0.09880
H5 H -0.11317 -0.35197 -0.10299
H6 H -0.36923 -0.36258 -0.09009
H7 H -0.51485 -0.28386 -0.08036
F2 F -0.0654(12) -0.6671(5) -0.1675(5)
N2 N -0.5208(9) -0.7547(3) -0.1366(3)
C19 C -0.1436(15) -0.7099(6) -0.1614(4)
C20 C -0.0669(16) -0.7584(7) -0.1668(4)
C21 C -0.1466(15) -0.8054(6) -0.1612(4)
C22 C -0.2930(14) -0.8049(4) -0.1507(3)
C23 C -0.3653(11) -0.7562(4) -0.1466(3)
C24 C -0.2913(13) -0.7085(5) -0.1516(3)
H8 H 0.03451 -0.75902 -0.17399
H9 H -0.34424 -0.83785 -0.14621
H10 H -0.34097 -0.67494 -0.14846
H11 H -0.09834 -0.83914 -0.16470
H12 H -0.55130 -0.71977 -0.13498
H13 H -0.53523 -0.77127 -0.11271
H14 H -0.57347 -0.77215 -0.15571
F3? F -0.074(4) -0.8406(14) -0.1698(15)
H15? H -0.09199 -0.67675 -0.16451
O25 O -0.8710(7) -0.3415(2) -0.17047(16)
O26 O -1.0049(8) -0.2444(2) -0.19568(17)
O27 O -0.8964(8) -0.1585(3) -0.14966(17)
O28 O -0.888(1) -0.1638(3) -0.06797(17)
O29 O -0.794(3) -0.2688(10) -0.0411(6)
O30 O -0.8367(8) -0.3617(3) -0.08916(17)
C25 C -0.9857(13) -0.3387(4) -0.2004(3)
C26 C -0.9704(12) -0.2871(4) -0.2219(3)
C27 C -0.9753(14) -0.1927(4) -0.2124(3)
C28 C -0.9996(14) -0.1511(4) -0.1816(3)
C29 C -0.8750(11) -0.1107(3) -0.1265(2)
C30 C -0.7854(13) -0.0698(4) -0.1491(3)
C31 C -0.7506(13) -0.0198(4) -0.1255(3)
C32 C -0.6758(13) -0.0342(4) -0.0862(4)
C33 C -0.7654(14) -0.0750(4) -0.0638(3)
C34 C -0.7959(12) -0.1261(4) -0.0877(3)
C35 C -0.817(3) -0.1767(7) -0.0289(5)
C36 C -0.885(3) -0.2301(6) -0.0149(4)
C37 C -0.8524(19) -0.3213(5) -0.0259(3)
C38 C -0.7767(14) -0.3621(4) -0.0500(3)
C39 C -0.7519(10) -0.3919(4) -0.1175(2)
C40 C -0.7163(11) -0.4477(4) -0.1039(3)
C41 C -0.6324(11) -0.4806(4) -0.1345(3)
C42 C -0.7274(11) -0.4849(4) -0.1719(3)
C43 C -0.7627(10) -0.4281(3) -0.1871(3)
C44 C -0.8440(11) -0.3953(4) -0.1560(3)
H16 H -1.08411 -0.34078 -0.18762
H17 H -0.97608 -0.36925 -0.21917
H18 H -0.86804 -0.28301 -0.23176
H19 H -1.03811 -0.28642 -0.24500
H20 H -1.04155 -0.18618 -0.23537
H21 H -0.87192 -0.19119 -0.22198
H22 H -0.98676 -0.11473 -0.19334
H23 H -1.10175 -0.15382 -0.17126
H24 H -0.97347 -0.09476 -0.11994
H25 H -0.84031 -0.05926 -0.17340
H26 H -0.69161 -0.08679 -0.15769
H27 H -0.84303 0.00023 -0.12003
H28 H -0.68472 0.00394 -0.14116
H29 H -0.57622 -0.04900 -0.09152
H30 H -0.66437 -0.00122 -0.06983
H31 H -0.86064 -0.05847 -0.05599
H32 H -0.71218 -0.08490 -0.03908
H33 H -0.69986 -0.14395 -0.09435
H34 H -0.82931 -0.32597 0.00266
H35 H -0.96066 -0.32349 -0.02965
H36 H -0.66960 -0.35412 -0.05100
H37 H -0.78999 -0.39822 -0.03788
H38 H -0.65787 -0.37214 -0.12318
H39 H -0.80937 -0.46661 -0.09726
H40 H -0.65655 -0.44543 -0.07923
H41 H -0.61118 -0.51704 -0.12385
H42 H -0.53735 -0.46279 -0.14084
H43 H -0.82023 -0.50429 -0.16572
H44 H -0.67388 -0.50539 -0.19265
H45 H -0.66959 -0.40948 -0.19418
H46 H -0.82400 -0.43073 -0.21137
H47 H -0.94061 -0.41310 -0.15003
H48 H -0.83574 -0.14767 -0.00938
H49 H -0.70846 -0.18069 -0.03225
H50 H -0.99217 -0.23215 -0.02087
H51 H -0.86881 -0.23649 0.01389
C45? C -0.907(7) -0.1778(18) -0.0261(12)
C46? C -0.773(7) -0.2129(16) -0.0214(11)
O31? O -0.842(6) -0.270(3) -0.0357(14)
H52? H -0.99958 -0.19805 -0.02134
H53? H -0.90338 -0.14570 -0.00863
H54? H -0.73830 -0.21422 0.00653
H55? H -0.69074 -0.20109 -0.03886
O32 O -0.635(3) -0.6985(8) -0.2135(6)
O33 O -0.633(4) -0.6522(10) -0.1351(7)
O34 O -0.6426(18) -0.7132(5) -0.0613(4)
O35 O -0.5646(18) -0.8191(6) -0.0689(4)
O36 O -0.7540(19) -0.8381(5) -0.1402(4)
O37 O -0.606(2) -0.8073(6) -0.2107(5)
C47 C -0.616(3) -0.6420(8) -0.2064(6)
C48 C -0.699(3) -0.6277(9) -0.1689(8)
C49 C -0.705(3) -0.635(1) -0.0974(8)
C50 C -0.615(3) -0.6540(9) -0.0643(7)
C51 C -0.572(4) -0.7397(12) -0.0274(10)
C52 C -0.609(3) -0.7149(10) 0.0107(7)
C53 C -0.546(3) -0.7506(11) 0.0478(9)
C54 C -0.598(4) -0.8095(12) 0.0414(11)
C55 C -0.542(3) -0.8297(9) 0.0041(6)
C56 C -0.608(4) -0.7993(13) -0.0331(10)
C57 C -0.627(3) -0.8693(11) -0.0800(8)
C58 C -0.783(4) -0.8600(12) -0.1009(10)
C59 C -0.705(5) -0.8783(16) -0.1695(10)
C60 C -0.709(3) -0.8517(9) -0.2098(7)
C61 C -0.602(3) -0.7805(9) -0.2481(8)
C62 C -0.508(3) -0.8109(9) -0.2790(7)
C63 C -0.494(3) -0.7823(9) -0.3169(7)
C64 C -0.449(3) -0.7224(10) -0.3137(8)
C65 C -0.538(3) -0.6924(9) -0.2836(8)
C66 C -0.552(3) -0.7231(9) -0.2422(6)
H56 H -0.65492 -0.62099 -0.22919
H57 H -0.50972 -0.63359 -0.20334
H58 H -0.69885 -0.58795 -0.16550
H59 H -0.80247 -0.63979 -0.17128
H60 H -0.71273 -0.59514 -0.09660
H61 H -0.80527 -0.65043 -0.09569
H62 H -0.64459 -0.63563 -0.03931
H63 H -0.50929 -0.64675 -0.06924
H64 H -0.46254 -0.73561 -0.03109
H65 H -0.71771 -0.71175 0.01303
H66 H -0.56676 -0.67804 0.01190
H67 H -0.43637 -0.74894 0.04849
H68 H -0.58404 -0.73639 0.07337
H69 H -0.56223 -0.83250 0.06351
H70 H -0.70726 -0.81082 0.04126
H71 H -0.56507 -0.86867 0.00190
H72 H -0.43282 -0.82592 0.00380
H73 H -0.71770 -0.80301 -0.03165
H74 H -0.64034 -0.89215 -0.05610
H75 H -0.56010 -0.88827 -0.09854
H76 H -0.83694 -0.89459 -0.10296
H77 H -0.84306 -0.83442 -0.08513
H78 H -0.77062 -0.91016 -0.16898
H79 H -0.60298 -0.89029 -0.16327
H80 H -0.68330 -0.87831 -0.23064
H81 H -0.81033 -0.83827 -0.21525
H82 H -0.70595 -0.77927 -0.25847
H83 H -0.40800 -0.81673 -0.26790
H84 H -0.55254 -0.84676 -0.28397
H85 H -0.59046 -0.78428 -0.33090
H86 H -0.42070 -0.80136 -0.33350
H87 H -0.34291 -0.72031 -0.30647
H88 H -0.46110 -0.70499 -0.34003
H89 H -0.63787 -0.68605 -0.29438
H90 H -0.49142 -0.65673 -0.27890
H91 H -0.44957 -0.72540 -0.23114
O38? O -0.648(3) -0.6914(9) -0.1978(6)
O39? O -0.636(4) -0.6430(11) -0.1233(8)
O40? O -0.5186(17) -0.7054(6) -0.0564(4)
O41? O -0.658(2) -0.8039(6) -0.0615(5)
O42? O -0.664(2) -0.8540(5) -0.1392(5)
O43? O -0.682(2) -0.7956(6) -0.2154(5)
C67? C -0.710(4) -0.6391(9) -0.1912(8)
C68? C -0.757(3) -0.6364(10) -0.1475(8)
C69? C -0.656(4) -0.6320(14) -0.0828(9)
C70? C -0.520(3) -0.6504(10) -0.0578(7)
C71? C -0.600(4) -0.7278(11) -0.0227(10)
C72? C -0.536(3) -0.7098(11) 0.0179(7)
C73? C -0.600(3) -0.7348(11) 0.0515(8)
C74? C -0.580(4) -0.7961(14) 0.0494(10)
C75? C -0.637(3) -0.8173(9) 0.0099(7)
C76? C -0.587(4) -0.7904(14) -0.0254(9)
C77? C -0.667(4) -0.8616(11) -0.0698(8)
C78? C -0.755(4) -0.8714(12) -0.1060(11)
C79? C -0.730(5) -0.8732(16) -0.1761(12)
C80? C -0.633(3) -0.8523(10) -0.2108(8)
C81? C -0.580(3) -0.7650(11) -0.2375(8)
C82? C -0.572(3) -0.7887(10) -0.2812(8)
C83? C -0.458(3) -0.7519(13) -0.3091(9)
C84? C -0.510(4) -0.6951(12) -0.3056(9)
C85? C -0.528(3) -0.6739(10) -0.2635(7)
C86? C -0.640(4) -0.7064(10) -0.2367(9)
H92? H -0.79685 -0.63342 -0.20872
H93? H -0.63641 -0.61071 -0.19697
H94? H -0.80423 -0.60109 -0.14200
H95? H -0.83053 -0.66512 -0.14193
H96? H -0.74579 -0.65105 -0.07314
H97? H -0.67208 -0.59280 -0.07904
H98? H -0.42838 -0.63694 -0.07026
H99? H -0.52699 -0.63547 -0.03058
H100? H -0.70584 -0.71701 -0.02449
H101? H -0.42873 -0.71717 0.01811
H102? H -0.54932 -0.67024 0.02048
H103? H -0.70661 -0.72599 0.05263
H104? H -0.55288 -0.72087 0.07597
H105? H -0.47458 -0.80530 0.05232
H106? H -0.63527 -0.81337 0.07147
H107? H -0.60976 -0.85592 0.00781
H108? H -0.74652 -0.81550 0.01031
H109? H -0.47965 -0.79930 -0.02868
H110? H -0.71259 -0.88040 -0.04697
H111? H -0.56585 -0.87627 -0.07348
H112? H -0.77886 -0.91021 -0.10845
H113? H -0.84778 -0.85052 -0.10507
H114? H -0.48055 -0.76657 -0.22465
H115? H -0.67216 -0.78859 -0.29319
H116? H -0.53695 -0.82652 -0.28025
H117? H -0.35543 -0.75525 -0.29936
H118? H -0.46174 -0.76399 -0.33717
H119? H -0.60633 -0.69197 -0.31941
H120? H -0.43915 -0.67153 -0.31986
H121? H -0.56096 -0.63585 -0.26482
H122? H -0.42998 -0.67428 -0.25032
H123? H -0.74045 -0.70523 -0.24900
H124? H -0.83184 -0.85942 -0.17879
H125? H -0.73270 -0.91312 -0.17637
H126? H -0.52717 -0.85425 -0.20405
H127? H -0.65167 -0.87330 -0.23537
Mn2* Mn 0.27828(15) -0.49627(5) -0.30831(4)
Cr1* Cr 0.29813(16) -0.51299(6) 0.03163(4)
Cr1C Cr -0.79813(16) -0.48701(6) -0.46837(4)
O1C O -0.6467(7) -0.4655(3) 0.07988(19)
O2* O -0.8900(7) -0.4661(3) 0.02173(17)
O3C O -0.7987(8) -0.5573(3) 0.07734(19)
O4* O -0.8008(8) -0.5565(3) -0.01408(17)
O21* O -0.9190(7) -0.4548(2) -0.29889(17)
O22* O -0.8194(7) -0.5451(2) -0.26436(16)
#END
