
#######################################################################
#
#                 Cambridge Crystallographic Data Centre
#                                CCDC
#
#######################################################################
#
# If this CIF has been generated from an entry in the Cambridge
# Structural Database, then it will include bibliographic, chemical,
# crystal, experimental, refinement or atomic coordinate data resulting
# from the CCDC's data processing and validation procedures.
#
#######################################################################

data_CSD_CIF_WULJEV
_audit_creation_date 2020-03-24
_audit_creation_method CSD-ConQuest-V1
_database_code_CSD WULJEV
_database_code_depnum_ccdc_archive 'CCDC 1975236'
_chemical_formula_sum 'C28 H18 N4 O14 U1'
_chemical_formula_moiety
;
(C16 H6 N2 O14 U1 2-)n,C12 H12 N2 2+
;
_journal_coden_Cambridge 9
_journal_volume 59
_journal_year 2020
_journal_page_first 5004
_journal_name_full 'Inorg.Chem. '
loop_
_publ_author_name
"Long Wang"
"Bingtian Tu"
"Wei Xu"
"Yu Fu"
"Yueqing Zheng"
_chemical_name_systematic
;
catena-[4,4'-(ethene-1,2-diyl)dipyridinium 
bis(\m-5-nitrobenzene-1,3-dicarboxylato)-dioxo-uranium]
;
_cell_volume   3114.303
_exptl_crystal_colour 'yellow'
_exptl_crystal_density_diffrn 1.861
_exptl_crystal_description 'block'
_diffrn_ambient_temperature 293
#These two values have been output from a single CSD field.
_refine_ls_R_factor_gt 0.045
_refine_ls_wR_factor_gt 0.045
_symmetry_cell_setting monoclinic
_symmetry_space_group_name_H-M 'C 2/c'
_symmetry_Int_Tables_number 15
loop_
_symmetry_equiv_pos_site_id
_symmetry_equiv_pos_as_xyz
1 x,y,z
2 -x,y,1/2-z
3 1/2+x,1/2+y,z
4 1/2-x,1/2+y,1/2-z
5 -x,-y,-z
6 x,-y,-1/2+z
7 -1/2-x,-1/2-y,-z
8 -1/2+x,-1/2-y,-1/2+z
_cell_length_a 15.288(3)
_cell_length_b 14.043(3)
_cell_length_c 15.576(3)
_cell_angle_alpha 90
_cell_angle_beta 111.36(3)
_cell_angle_gamma 90
_cell_formula_units_Z 4
loop_
_atom_type_symbol
_atom_type_radius_bond
C 0.68
H 0.23
N 0.68
O 0.68
U 1.96
loop_
_atom_site_label
_atom_site_type_symbol
_atom_site_fract_x
_atom_site_fract_y
_atom_site_fract_z
U1 U 0.50000 0.80382(3) 0.75000
O1 O 0.4387(4) 0.6650(5) 0.6617(5)
O2 O 0.4219(5) 0.8033(5) 0.8076(5)
O3 O 0.0840(5) 0.5415(5) 0.3194(5)
O4 O 0.1425(5) 0.6726(5) 0.3915(5)
O5 O 0.5504(5) 0.5673(6) 0.6501(5)
O6 O 0.2782(6) 0.2496(6) 0.4080(7)
N1 N 0.3420(7) 0.2914(6) 0.4662(7)
O7 O 0.4136(7) 0.2531(6) 0.5159(7)
C1 C 0.1489(6) 0.5854(7) 0.3793(6)
C2 C 0.4682(6) 0.5957(7) 0.6288(6)
C3 C 0.2372(6) 0.5346(6) 0.4374(6)
C4 C 0.3307(7) 0.3936(6) 0.4794(7)
C5 C 0.3921(6) 0.5400(6) 0.5567(6)
C6 C 0.4035(6) 0.4431(7) 0.5429(7)
H1 H 0.45952 0.41235 0.57616
C7 C 0.3088(6) 0.5846(7) 0.5034(6)
H2 H 0.30097 0.64907 0.51207
C8 C 0.2474(6) 0.4370(6) 0.4258(6)
H3 H 0.19945 0.40214 0.38314
N2 N 0.2847(5) 0.5910(7) 0.7179(6)
H4 H 0.33858 0.60143 0.76017
C9 C 0.1122(6) 0.5571(7) 0.5853(6)
C10 C 0.0203(6) 0.5423(7) 0.5144(7)
H5 H -0.01335 0.59628 0.48649
C11 C 0.1718(7) 0.4823(7) 0.6309(7)
H6 H 0.15316 0.41944 0.61614
C12 C 0.1461(7) 0.6498(7) 0.6099(8)
H7 H 0.10957 0.70169 0.58065
C13 C 0.2568(7) 0.5019(8) 0.6965(8)
H8 H 0.29592 0.45213 0.72693
C14 C 0.2320(8) 0.6644(9) 0.6761(9)
H9 H 0.25391 0.72613 0.69214
O1A O 0.5613(4) 0.6650(5) 0.8383(5)
O2A O 0.5781(5) 0.8033(5) 0.6924(5)
O3A O 0.9160(5) 0.5415(5) 1.1806(5)
O4A O 0.8575(5) 0.6726(5) 1.1085(5)
O5A O 0.4496(5) 0.5673(6) 0.8499(5)
O6A O 0.7218(6) 0.2496(6) 1.0920(7)
N1A N 0.6580(7) 0.2914(6) 1.0338(7)
O7A O 0.5864(7) 0.2531(6) 0.9841(7)
C1A C 0.8511(6) 0.5854(7) 1.1207(6)
C2A C 0.5318(6) 0.5957(7) 0.8712(6)
C3A C 0.7628(6) 0.5346(6) 1.0626(6)
C4A C 0.6693(7) 0.3936(6) 1.0206(7)
C5A C 0.6079(6) 0.5400(6) 0.9433(6)
C6A C 0.5965(6) 0.4431(7) 0.9571(7)
H1A H 0.54048 0.41235 0.92384
C7A C 0.6912(6) 0.5846(7) 0.9966(6)
H2A H 0.69903 0.64907 0.98793
C8A C 0.7526(6) 0.4370(6) 1.0742(6)
H3A H 0.80055 0.40214 1.11686
U1F U 0.00000 0.69618(3) 0.25000
U1F* U 1.00000 0.69618(3) 1.25000
O3F O 0.4160(5) 0.9585(5) 0.6806(5)
O3G O 0.5840(5) 0.9585(5) 0.8194(5)
O4F O 0.3575(5) 0.8274(5) 0.6085(5)
O4G O 0.6425(5) 0.8274(5) 0.8915(5)
N2D N -0.2847(5) 0.4090(7) 0.2821(6)
H4D H -0.33858 0.39857 0.23983
C9D C -0.1122(6) 0.4429(7) 0.4147(6)
C10D C -0.0203(6) 0.4577(7) 0.4856(7)
H5D H 0.01335 0.40372 0.51351
C11D C -0.1718(7) 0.5177(7) 0.3691(7)
H6D H -0.15316 0.58056 0.38386
C12D C -0.1461(7) 0.3502(7) 0.3901(8)
H7D H -0.10957 0.29831 0.41935
C13D C -0.2568(7) 0.4981(8) 0.3035(8)
H8D H -0.29592 0.54787 0.27307
C14D C -0.2320(8) 0.3356(9) 0.3239(9)
H9D H -0.25391 0.27387 0.30786
#END
