
#######################################################################
#
#                 Cambridge Crystallographic Data Centre
#                                CCDC
#
#######################################################################
#
# If this CIF has been generated from an entry in the Cambridge
# Structural Database, then it will include bibliographic, chemical,
# crystal, experimental, refinement or atomic coordinate data resulting
# from the CCDC's data processing and validation procedures.
#
#######################################################################

data_CSD_CIF_WULJAR
_audit_creation_date 2020-03-24
_audit_creation_method CSD-ConQuest-V1
_database_code_CSD WULJAR
_database_code_depnum_ccdc_archive 'CCDC 1975235'
_chemical_formula_sum 'C47 H26 N7 O30 U3'
_chemical_formula_moiety
;
(C32 H12 N4 O30 U3 2-)n,C10 H10 N2 2+,0.5(C10 H8 N2)
;
_journal_coden_Cambridge 9
_journal_volume 59
_journal_year 2020
_journal_page_first 5004
_journal_name_full 'Inorg.Chem. '
loop_
_publ_author_name
"Long Wang"
"Bingtian Tu"
"Wei Xu"
"Yu Fu"
"Yueqing Zheng"
_chemical_name_systematic
;
catena-[4,4'-bipyridin-1,1'-diium hemiksi(4,4'-bipyridine) 
tris(\m-5-nitrobenzene-1,3-dicarboxylato)-hexaoxo-tri-uranium unknown 
solvate]
;
_cell_volume   2752.059
_exptl_crystal_colour 'yellow'
_exptl_crystal_density_diffrn 2.272
_exptl_crystal_description 'block'
_diffrn_ambient_temperature 293
_refine_special_details
;
The SQUEEZE/PLATON program has been used to model some disorder.

;
#These two values have been output from a single CSD field.
_refine_ls_R_factor_gt 0.0656
_refine_ls_wR_factor_gt 0.0656
_symmetry_cell_setting triclinic
_symmetry_space_group_name_H-M 'P -1'
_symmetry_Int_Tables_number 2
loop_
_symmetry_equiv_pos_site_id
_symmetry_equiv_pos_as_xyz
1 x,y,z
2 -x,-y,-z
_cell_length_a 10.782(2)
_cell_length_b 13.293(3)
_cell_length_c 21.143(4)
_cell_angle_alpha 88.87(3)
_cell_angle_beta 76.44(3)
_cell_angle_gamma 69.46(3)
_cell_formula_units_Z 2
loop_
_atom_type_symbol
_atom_type_radius_bond
C 0.68
H 0.23
N 0.68
O 0.68
U 1.96
loop_
_atom_site_label
_atom_site_type_symbol
_atom_site_fract_x
_atom_site_fract_y
_atom_site_fract_z
U1 U 0.58532(7) 0.16883(6) 0.04238(4)
U2 U 0.38164(7) 0.03923(6) 0.28466(4)
U3 U 0.61189(8) -0.45445(6) 0.38386(4)
O1 O 0.5858(17) 0.2868(13) 0.0763(7)
O2 O 0.5969(17) 0.0484(13) 0.0093(8)
O3 O 0.6967(14) 0.2068(14) -0.0636(7)
O4 O 0.8348(15) 0.1152(12) -0.0052(7)
O5 O 1.3201(14) -0.0765(13) -0.1241(7)
O6 O 0.3895(14) 0.1846(11) 0.1249(7)
O7 O 0.5913(14) -0.2540(12) 0.0064(7)
O8 O 0.4491(16) 0.0905(11) 0.3346(7)
O9 O 0.3121(16) -0.0108(11) 0.2355(6)
O10 O 0.2392(14) 0.0112(10) 0.3894(7)
O11 O 0.1517(15) 0.1586(13) 0.3420(7)
O12 O 0.3293(14) 0.2025(11) 0.2330(7)
O13 O 1.4124(15) -0.0008(12) -0.2058(7)
O14 O 0.4983(13) -0.1387(10) 0.3056(6)
O15 O 0.6480(17) -0.3881(13) 0.4356(8)
O16 O 0.5726(15) -0.5257(11) 0.3338(6)
O17 O 0.4834(12) -0.2867(9) 0.3485(6)
O18 O 0.893(2) 0.3480(15) -0.2654(10)
O19 O 1.090(2) 0.2487(17) -0.3222(9)
O20 O -0.007(2) 0.6321(16) 0.0683(9)
O21 O 0.148(2) 0.4941(17) 0.0117(9)
O22 O -0.1492(14) 0.4410(13) 0.3375(8)
O23 O -0.2404(16) 0.5861(13) 0.2891(7)
O24 O -0.3282(16) 0.3917(12) 0.4427(8)
O25 O -0.3907(15) 0.4150(12) 0.5519(8)
O26 O -0.1371(18) 0.1456(14) 0.6766(7)
O27 O 0.0518(17) 0.0149(14) 0.6276(8)
O28 O 0.382(2) -0.5345(17) 0.2100(11)
O29 O 0.363(2) -0.4853(16) 0.1134(11)
O30 O 0.7031(17) -0.1853(12) 0.0577(7)
N1 N 0.999(2) 0.2743(16) -0.2712(8)
N2 N 0.0722(19) 0.5405(17) 0.0632(9)
N3 N 0.397(2) -0.4786(16) 0.1641(12)
N4 N -0.044(2) 0.0988(17) 0.6277(9)
C1 C 0.817(2) 0.1568(19) -0.0579(12)
C2 C 0.9369(18) 0.1524(16) -0.1132(9)
C3 C 0.912(2) 0.2147(18) -0.1662(11)
H1 H 0.82397 0.25943 -0.16722
C4 C 1.023(2) 0.2067(17) -0.217(1)
C5 C 1.155(2) 0.1355(17) -0.2169(10)
H2 H 1.22843 0.12950 -0.25188
C6 C 1.173(2) 0.0749(15) -0.1643(9)
C7 C 1.0640(17) 0.0827(15) -0.113(1)
H3 H 1.07731 0.04013 -0.07795
C8 C 1.3121(19) -0.0060(17) -0.1663(9)
C9 C 0.312(2) 0.2335(16) 0.1775(10)
C10 C 0.1924(18) 0.3296(15) 0.1765(10)
C11 C 0.0878(18) 0.3683(15) 0.2324(10)
H4 H 0.09252 0.33212 0.27032
C12 C -0.025(2) 0.4614(16) 0.2319(10)
C13 C -0.032(2) 0.5173(16) 0.1764(11)
H5 H -0.10516 0.58034 0.17593
C14 C 0.073(2) 0.4762(18) 0.1219(11)
C15 C 0.188(2) 0.3831(14) 0.1201(10)
H6 H 0.25727 0.35845 0.08236
C16 C -0.140(2) 0.4969(18) 0.2904(12)
C17 C 0.4963(15) -0.2303(12) 0.3030(8)
C18 C 0.509(2) -0.2804(15) 0.2351(10)
C19 C 0.4531(16) -0.3590(14) 0.2317(10)
H7 H 0.41321 -0.38488 0.26923
C20 C 0.459(2) -0.3978(16) 0.1696(12)
C21 C 0.514(2) -0.3599(18) 0.1137(11)
H8 H 0.51161 -0.38469 0.07326
C22 C 0.572(2) -0.2837(17) 0.1182(11)
C23 C 0.5657(19) -0.2418(15) 0.1799(10)
H9 H 0.60019 -0.18751 0.18313
C24 C 0.630(2) -0.2375(18) 0.0572(10)
C25 C 0.149(2) 0.1034(18) 0.3913(11)
C26 C 0.038(2) 0.1483(15) 0.4516(10)
C27 C 0.048(2) 0.1014(15) 0.5107(10)
H10 H 0.12301 0.04111 0.51366
C28 C -0.058(2) 0.1487(17) 0.5649(9)
C29 C -0.171(2) 0.2312(17) 0.5617(10)
H11 H -0.23997 0.25838 0.59933
C30 C -0.186(2) 0.2773(17) 0.5030(9)
C31 C -0.077(2) 0.2344(17) 0.448(1)
H12 H -0.08343 0.26450 0.40825
C32 C -0.310(2) 0.3681(19) 0.4984(12)
N5 N -0.402(2) 0.2399(17) 0.3252(12)
H13 H -0.47116 0.24735 0.35708
N6 N 0.153(2) 0.1534(17) 0.0588(10)
H14 H 0.22256 0.14379 0.02644
C33 C -0.276(3) 0.197(2) 0.3347(11)
H15 H -0.26420 0.17899 0.37608
C34 C -0.166(3) 0.1804(19) 0.2835(11)
H16 H -0.07845 0.14812 0.29016
C35 C -0.180(2) 0.2099(16) 0.2232(11)
C36 C -0.314(2) 0.2561(17) 0.2139(12)
H17 H -0.32936 0.27572 0.17313
C37 C -0.421(3) 0.271(2) 0.2681(16)
H18 H -0.50949 0.30368 0.26368
C38 C -0.066(2) 0.1898(16) 0.165(1)
C39 C 0.064(2) 0.1087(18) 0.1624(10)
H19 H 0.07821 0.06759 0.19798
C40 C 0.167(2) 0.092(2) 0.1092(11)
H20 H 0.24931 0.03560 0.10728
C41 C 0.035(3) 0.229(3) 0.0580(13)
H21 H 0.02633 0.26746 0.02114
C42 C -0.075(3) 0.252(2) 0.1117(12)
H22 H -0.15597 0.30838 0.11184
N7 N 0.318(3) 0.338(2) 0.3978(14)
C43 C 0.262(3) 0.304(3) 0.4523(18)
H23 H 0.30821 0.23495 0.46308
C44 C 0.140(3) 0.364(3) 0.4940(12)
H24 H 0.10666 0.33692 0.53261
C45 C 0.068(3) 0.464(3) 0.4778(14)
C46 C 0.126(4) 0.500(3) 0.4188(16)
H25 H 0.08085 0.56743 0.40558
C47 C 0.249(4) 0.434(3) 0.3811(17)
H26 H 0.28522 0.45731 0.34183
U1A U 0.41468(7) -0.16883(6) -0.04238(4)
U1A* U 1.41468(7) -0.16883(6) -0.04238(4)
U2A U 1.61836(7) -0.03923(6) -0.28466(4)
U3* U -0.38811(8) 0.54555(6) 0.38386(4)
U3A U -0.61189(8) 0.45445(6) 0.61614(4)
O5A O 0.6799(14) 0.0765(13) 0.1241(7)
O7A O 0.4087(14) 0.2540(12) -0.0064(7)
O13A O 0.5876(15) 0.0008(12) 0.2058(7)
O22* O 0.8508(14) -0.5590(13) 0.3375(8)
O23* O 0.7596(16) -0.4139(13) 0.2891(7)
O24* O 0.6718(16) -0.6083(12) 0.4427(8)
O25A O 0.3907(15) -0.4150(12) 0.4481(8)
N7A N -0.318(3) 0.662(2) 0.6022(14)
C43A C -0.262(3) 0.696(3) 0.5477(18)
H23A H -0.30821 0.76505 0.53692
C44A C -0.140(3) 0.636(3) 0.5060(12)
H24A H -0.10666 0.66308 0.46739
C45A C -0.068(3) 0.536(3) 0.5222(14)
C46A C -0.126(4) 0.500(3) 0.5812(16)
H25A H -0.08085 0.43257 0.59442
C47A C -0.249(4) 0.566(3) 0.6189(17)
H26A H -0.28522 0.54269 0.65817
#END
