
#######################################################################
#
#                 Cambridge Crystallographic Data Centre
#                                CCDC
#
#######################################################################
#
# If this CIF has been generated from an entry in the Cambridge
# Structural Database, then it will include bibliographic, chemical,
# crystal, experimental, refinement or atomic coordinate data resulting
# from the CCDC's data processing and validation procedures.
#
#######################################################################

data_CSD_CIF_WULJIZ
_audit_creation_date 2020-03-24
_audit_creation_method CSD-ConQuest-V1
_database_code_CSD WULJIZ
_database_code_depnum_ccdc_archive 'CCDC 1975237'
_chemical_formula_sum 'C37 H27 N5 O23 U2'
_chemical_formula_moiety
;
(C24 H9 N3 O22 U2 2-)n,C13 H16 N2 2+,H2 O1
;
_journal_coden_Cambridge 9
_journal_volume 59
_journal_year 2020
_journal_page_first 5004
_journal_name_full 'Inorg.Chem. '
loop_
_publ_author_name
"Long Wang"
"Bingtian Tu"
"Wei Xu"
"Yu Fu"
"Yueqing Zheng"
_chemical_name_systematic
;
catena-[4,4'-(propane-1,3-diyl)dipyridinium 
tris(\m-5-nitrobenzene-1,3-dicarboxylato)-tetraoxo-di-uranium monohydrate]
;
_cell_volume   2040.220
_exptl_crystal_colour 'yellow'
_exptl_crystal_density_diffrn 2.256
_exptl_crystal_description 'block'
_diffrn_ambient_temperature 293
#These two values have been output from a single CSD field.
_refine_ls_R_factor_gt 0.0531
_refine_ls_wR_factor_gt 0.0531
_symmetry_cell_setting triclinic
_symmetry_space_group_name_H-M 'P -1'
_symmetry_Int_Tables_number 2
loop_
_symmetry_equiv_pos_site_id
_symmetry_equiv_pos_as_xyz
1 x,y,z
2 -x,-y,-z
_cell_length_a 10.548(2)
_cell_length_b 13.524(3)
_cell_length_c 14.947(3)
_cell_angle_alpha 94.71(3)
_cell_angle_beta 94.51(3)
_cell_angle_gamma 105.13(3)
_cell_formula_units_Z 2
loop_
_atom_type_symbol
_atom_type_radius_bond
C 0.68
H 0.23
N 0.68
O 0.68
U 1.96
loop_
_atom_site_label
_atom_site_type_symbol
_atom_site_fract_x
_atom_site_fract_y
_atom_site_fract_z
U1 U 0.17902(4) 0.49106(4) 0.25905(3)
U2 U 1.20686(4) 0.77581(4) 0.60081(3)
O1 O 0.8722(7) 0.5234(7) 0.5946(5)
O2 O -0.0472(6) 0.4625(7) 0.2323(5)
O3 O 0.1506(8) 0.3567(8) 0.2371(6)
O4 O -0.1410(7) 0.5009(8) -0.0941(6)
O5 O 0.1994(8) 0.6242(8) 0.2779(6)
O6 O -0.3465(7) 0.4731(8) -0.1500(5)
O7 O 0.3829(7) 0.5048(8) 0.3323(6)
O8 O 1.6812(8) 1.0785(8) 0.4817(6)
O9 O -0.1949(8) 0.3414(7) 0.2914(6)
O10 O 1.8835(8) 1.1586(8) 0.5328(6)
O11 O -0.6551(8) 0.2723(8) 0.1625(7)
O12 O 1.4686(9) 0.8811(8) 0.8310(6)
O13 O 1.0140(9) 0.6550(9) 0.5466(7)
O14 O -0.6982(8) 0.3106(10) 0.0291(7)
C1 C 0.9074(11) 0.5855(11) 0.5372(9)
O15 O 0.4288(9) 0.3749(9) 0.3954(8)
C2 C -0.3083(10) 0.4368(10) 0.0009(7)
O16 O 0.9482(9) 0.7207(10) 0.2334(7)
C3 C -0.2179(10) 0.4394(8) 0.0755(8)
H1 H -0.12858 0.46959 0.07262
N1 N -0.6210(9) 0.3077(9) 0.0919(7)
O17 O 1.1218(12) 0.8445(10) 0.6636(7)
N2 N 0.8313(10) 0.6786(9) 0.2288(7)
N3 N 1.9667(10) 1.0194(10) 0.8328(8)
O18 O 1.2883(10) 0.7064(9) 0.5345(8)
C4 C -0.2586(11) 0.3982(9) 0.1531(8)
C5 C 0.8214(9) 0.5752(10) 0.4520(8)
O19 O 0.7529(10) 0.6734(10) 0.1625(7)
C6 C 0.6911(11) 0.5147(10) 0.4452(7)
H2 H 0.66307 0.47358 0.49058
C7 C -0.4815(10) 0.3538(10) 0.0866(8)
C8 C 0.8654(9) 0.6297(9) 0.3803(7)
H3 H 0.95240 0.66923 0.38275
O20 O 2.0734(10) 1.0580(12) 0.8135(8)
C9 C 0.6484(11) 0.5709(10) 0.2991(7)
H4 H 0.59170 0.57132 0.24839
C10 C -0.394(1) 0.3561(10) 0.1599(7)
H5 H -0.42317 0.33061 0.21276
C11 C -0.2619(11) 0.4742(10) -0.0852(8)
C12 C -0.1584(11) 0.4008(10) 0.2306(8)
C13 C 1.8685(11) 1.0567(10) 0.6876(8)
H6 H 1.95129 1.09540 0.67630
O21 O 1.3992(11) 0.8521(10) 0.6853(8)
C14 C 0.6028(10) 0.5153(10) 0.3715(7)
C15 C 1.7744(12) 1.0959(11) 0.5423(9)
C16 C -0.4407(11) 0.3964(9) 0.0079(8)
H7 H -0.50296 0.39745 -0.03939
C17 C 1.7583(10) 1.0418(9) 0.6255(8)
O22 O 1.9443(10) 0.9851(12) 0.9052(8)
C18 C 0.7782(10) 0.6239(9) 0.3062(7)
C19 C 1.6333(12) 0.9867(10) 0.6453(8)
H8 H 1.55946 0.97867 0.60430
C20 C 1.6208(11) 0.945(1) 0.7251(8)
C21 C 1.7269(10) 0.9573(9) 0.7891(8)
H9 H 1.71609 0.93047 0.84419
C22 C 1.4860(12) 0.8896(11) 0.7519(9)
C23 C 1.8494(13) 1.0107(11) 0.7685(9)
C24 C 0.4604(11) 0.4568(10) 0.3662(8)
N4 N -0.0075(11) 0.7584(11) -0.0554(8)
H10 H -0.08703 0.74050 -0.08135
N5 N 0.6780(13) 0.8038(11) 0.4657(9)
H11 H 0.70406 0.79228 0.51886
C25 C 0.2167(11) 0.8339(10) -0.0615(9)
H12 H 0.28554 0.86659 -0.09299
C26 C 0.5946(10) 0.8405(11) 0.2958(9)
C27 C 0.0926(15) 0.8039(12) -0.1036(10)
H13 H 0.07587 0.81396 -0.16377
C28 C 0.5555(11) 0.8579(13) 0.1994(10)
H14 H 0.58271 0.93131 0.19452
H15 H 0.60503 0.82564 0.15966
C29 C 0.0124(12) 0.7412(13) 0.028(1)
H16 H -0.05933 0.70955 0.05747
C30 C 0.2444(12) 0.8172(10) 0.0274(9)
C31 C 0.5082(13) 0.7810(12) 0.3496(10)
H17 H 0.41974 0.75272 0.32838
C32 C 0.4100(13) 0.8180(11) 0.1651(10)
H18 H 0.35752 0.84267 0.20771
H19 H 0.38407 0.74333 0.15968
C33 C 0.3844(12) 0.8552(12) 0.0727(9)
H20 H 0.40848 0.92995 0.08009
H21 H 0.44267 0.83424 0.03254
C34 C 0.1360(13) 0.7685(12) 0.0736(9)
H22 H 0.14896 0.75545 0.13328
C35 C 0.5548(15) 0.7650(13) 0.4329(11)
H23 H 0.49691 0.72504 0.46798
C36 C 0.7229(15) 0.8814(12) 0.3314(12)
H24 H 0.78181 0.92259 0.29772
C37 C 0.7665(14) 0.8632(14) 0.4152(12)
H25 H 0.85455 0.89035 0.43800
O23 O 0.8033(11) 0.7902(9) 0.6255(8)
H26 H 0.87015 0.82486 0.66069
H27 H 0.80902 0.72901 0.61401
U1A U -0.17902(4) 0.50894(4) -0.25905(3)
U1A* U 0.82098(4) 0.50894(4) 0.74095(3)
U2A U -0.20686(4) 0.22419(4) 0.39919(3)
U2A* U 1.79314(4) 1.22419(4) 0.39919(3)
O1A O 0.1278(7) 0.4766(7) 0.4054(5)
O4A O 0.1410(7) 0.4991(8) 0.0941(6)
O6A O 0.3465(7) 0.5269(8) 0.1500(5)
O8A O 1.3188(8) 0.9215(8) 0.5183(6)
O9A O 1.1949(8) 0.6586(7) 0.7086(6)
O10A O 1.1165(8) 0.8414(8) 0.4672(6)
#END
