
#######################################################################
#
#                 Cambridge Crystallographic Data Centre
#                                CCDC
#
#######################################################################
#
# If this CIF has been generated from an entry in the Cambridge
# Structural Database, then it will include bibliographic, chemical,
# crystal, experimental, refinement or atomic coordinate data resulting
# from the CCDC's data processing and validation procedures.
#
#######################################################################

data_CSD_CIF_WULQUR
_audit_creation_date 2015-05-27
_audit_creation_method CSD-ConQuest-V1
_database_code_CSD WULQUR
_database_code_depnum_ccdc_archive 'CCDC 1005608'
_chemical_formula_sum 'C15 H21.48 N2 O7.74 Zn1'
_chemical_formula_moiety
;
(C9 H3 O6 Zn1 1-)n,n(C2 H8 N1 1+),n(C4 H9 N1 O1),0.74n(H2 O1)
;
_journal_coden_Cambridge 1133
_journal_volume 26
_journal_year 2015
_journal_page_first 827
_journal_name_full 'J.Cluster Sci. '
loop_
_publ_author_name
"Jun Wang"
"Xi-Ren Wu"
"Jian-Qiang Liu"
"Lu Lu"
"Qing-Lin Li"
"Jia-Min Wu"
"Yi Hu"
"Mei-Shan Li"
"Jian-Hui Man"
_chemical_name_systematic
;
catena-(Dimethylammonium (\m~4~-benzene-1,3,5-tricarboxylato)-zinc 
dimethylacetamide hydrate)
;
_cell_volume   1854.403
_exptl_crystal_density_diffrn 1.501
_diffrn_ambient_temperature 296
_refine_special_details
;
C10,C11,C12,C13,C14,C15,N1,N2,O1W,O7 and 
C10B,C11B,C12B,C13B,C14B,C15B,N1B,N2B,O7B disordered over two sites with 
occupancies 0.734:0.266.
;
#These two values have been output from a single CSD field.
_refine_ls_R_factor_gt 0.0644
_refine_ls_wR_factor_gt 0.0644
_symmetry_cell_setting monoclinic
_symmetry_space_group_name_H-M 'P 21/n'
_symmetry_Int_Tables_number 14
loop_
_symmetry_equiv_pos_site_id
_symmetry_equiv_pos_as_xyz
1 x,y,z
2 1/2-x,1/2+y,1/2-z
3 -x,-y,-z
4 -1/2+x,-1/2-y,-1/2+z
_cell_length_a 9.437(7)
_cell_length_b 15.378(11)
_cell_length_c 13.319(10)
_cell_angle_alpha 90
_cell_angle_beta 106.383(15)
_cell_angle_gamma 90
_cell_formula_units_Z 4
loop_
_atom_type_symbol
_atom_type_radius_bond
C 0.68
H 0.23
N 0.68
O 0.68
Zn 1.22
loop_
_atom_site_label
_atom_site_type_symbol
_atom_site_fract_x
_atom_site_fract_y
_atom_site_fract_z
C1 C 0.0636(6) 0.1891(4) 0.1357(4)
C2 C 0.0624(5) 0.2559(3) 0.2182(4)
C3 C -0.0641(5) 0.2649(3) 0.2516(4)
H1 H -0.14510 0.22910 0.22400
C4 C -0.0696(5) 0.3275(3) 0.3262(4)
C5 C -0.2078(5) 0.3344(4) 0.3635(4)
C6 C 0.0518(5) 0.3801(3) 0.3676(4)
H2 H 0.04750 0.42280 0.41620
C7 C 0.1800(5) 0.3695(3) 0.3373(4)
C8 C 0.1839(5) 0.3081(3) 0.2625(4)
H3 H 0.26930 0.30160 0.24150
C9 C 0.3128(5) 0.4239(3) 0.3882(4)
O1 O -0.0354(4) 0.1336(3) 0.1118(3)
O2 O 0.1682(4) 0.1922(2) 0.0936(3)
O3 O 0.4363(3) 0.3965(2) 0.3822(2)
O4 O 0.2914(3) 0.4904(2) 0.4356(3)
O5 O -0.2145(3) 0.3994(2) 0.4200(3)
O6 O -0.3048(4) 0.2784(2) 0.3365(3)
Zn1 Zn 0.12617(6) 0.09632(4) -0.01132(4)
O7 O -0.2505(14) -0.0198(8) 0.4096(15)
C10 C -0.1356(17) -0.0552(10) 0.3912(16)
C11 C -0.0458(19) -0.0091(9) 0.3319(15)
H4 H 0.05680 -0.02230 0.36230
H5 H -0.06080 0.05240 0.33500
H6 H -0.07560 -0.02790 0.26030
N1 N -0.097(2) -0.1324(9) 0.4273(16)
C12 C -0.187(2) -0.1789(10) 0.4874(16)
H7 H -0.13410 -0.17850 0.56060
H8 H -0.20280 -0.23790 0.46330
H9 H -0.27980 -0.15010 0.47700
C13 C 0.033(2) -0.1766(11) 0.412(2)
H10 H 0.03500 -0.23560 0.43610
H11 H 0.12050 -0.14700 0.45130
H12 H 0.02790 -0.17620 0.33920
O8? O -0.201(4) -0.004(2) 0.414(4)
C14? C -0.100(6) -0.060(2) 0.403(5)
C15? C -0.005(5) -0.042(3) 0.334(4)
H13? H -0.05790 -0.05490 0.26300
H14? H 0.08210 -0.07810 0.35490
H15? H 0.02410 0.01790 0.34020
N2? N -0.107(4) -0.1382(19) 0.439(3)
C16? C -0.208(6) -0.154(3) 0.506(5)
H16? H -0.15030 -0.16550 0.57600
H17? H -0.27060 -0.20240 0.47880
H18? H -0.26730 -0.10280 0.50480
C17? C -0.001(6) -0.206(3) 0.430(6)
H19? H 0.00160 -0.20930 0.35840
H20? H -0.03090 -0.26060 0.45120
H21? H 0.09530 -0.19080 0.47380
N3 N -0.4232(8) 0.1173(5) 0.3453(7)
H22 H -0.37630 0.16870 0.32690
H23 H -0.35280 0.06980 0.35620
C18 C -0.5506(10) 0.0958(10) 0.2606(10)
H24 H -0.59910 0.04610 0.27950
H25 H -0.52040 0.08260 0.19930
H26 H -0.61750 0.14420 0.24650
C19 C -0.4620(12) 0.1336(8) 0.4420(9)
H27 H -0.37650 0.15380 0.49470
H28 H -0.49690 0.08070 0.46520
H29 H -0.53820 0.17690 0.42990
O9 O -0.3079(8) 0.0868(5) 0.1423(6)
H30 H -0.345(11) 0.042(4) 0.111(8)
H31 H -0.223(5) 0.105(7) 0.153(9)
N4? N -0.389(3) 0.1161(16) 0.281(2)
H32? H -0.34680 0.17380 0.29580
H33? H -0.31560 0.07420 0.31810
C20? C -0.428(4) 0.100(2) 0.172(2)
H34? H -0.34150 0.08150 0.15250
H35? H -0.46680 0.15160 0.13430
H36? H -0.50080 0.05440 0.15440
C21? C -0.521(4) 0.109(4) 0.319(4)
H37? H -0.59770 0.14610 0.27730
H38? H -0.49720 0.12770 0.39080
H39? H -0.55490 0.05030 0.31350
O3C O -0.0637(3) 0.1035(2) -0.1178(2)
O4A O 0.2086(3) -0.0096(2) 0.0644(3)
O5C O 0.2855(3) 0.1006(2) -0.0800(3)
Zn1A Zn 0.37383(6) 0.59632(4) 0.51132(4)
Zn1C Zn -0.37383(6) 0.40368(4) 0.48868(4)
Zn1C* Zn 0.62617(6) 0.40368(4) 0.48868(4)
#END
