
#######################################################################
#
#                 Cambridge Crystallographic Data Centre
#                                CCDC
#
#######################################################################
#
# If this CIF has been generated from an entry in the Cambridge
# Structural Database, then it will include bibliographic, chemical,
# crystal, experimental, refinement or atomic coordinate data resulting
# from the CCDC's data processing and validation procedures.
#
#######################################################################

data_CSD_CIF_WUNSAA
_audit_creation_date 2010-07-07
_audit_creation_method CSD-ConQuest-V1
_database_code_CSD WUNSAA
_database_code_depnum_ccdc_archive 'CCDC 720460'
_chemical_formula_sum 'C64 H56 Cl1 N16 Nd3 O28'
_chemical_formula_moiety
;
(H16 Nd1 O8 3+)n,n(C64 H40 N16 Nd2 O16 2-),n(Cl1 O4 1-)
;
_journal_coden_Cambridge 1220
_journal_volume 15
_journal_year 2009
_journal_page_first 10432
_journal_name_full 'Chem.-Eur.J. '
loop_
_publ_author_name
"Ping Wang"
"Jian-Ping Ma"
"Yu-Bin Dong"
_chemical_name_systematic
;
catena-(Octa-aqua-neodymium 
bis((\m~3~-3,3'-(4-amino-4H-1,2,4-triazole-3,5-diyl)dibenzoato-O,O,O',O'',O'''
)-(\m~3~-3,3'-(4-amino-4H-1,2,4-triazole-3,5-diyl)dibenzoato-O,O',O'',O'''))-d
i-neodymium clathrate perchlorate)
;
_cell_volume   3524.288
_exptl_crystal_colour 'colorless'
_exptl_crystal_density_diffrn 1.852
_exptl_special_details
;
In the paper, the cell parameters for this structure are incorrect; the 
correct data is published in the cif
;
_exptl_crystal_description 'block'
_diffrn_ambient_temperature 298
#These two values have been output from a single CSD field.
_refine_ls_R_factor_gt 0.0579
_refine_ls_wR_factor_gt 0.0579
_symmetry_cell_setting triclinic
_symmetry_space_group_name_H-M 'P -1'
_symmetry_Int_Tables_number 2
loop_
_symmetry_equiv_pos_site_id
_symmetry_equiv_pos_as_xyz
1 x,y,z
2 -x,-y,-z
_cell_length_a 13.723(2)
_cell_length_b 16.146(3)
_cell_length_c 16.324(3)
_cell_angle_alpha 90.020(2)
_cell_angle_beta 94.366(2)
_cell_angle_gamma 102.215(2)
_cell_formula_units_Z 2
loop_
_atom_type_symbol
_atom_type_radius_bond
C 0.68
H 0.23
Cl 0.99
N 0.68
Nd 2.01
O 0.68
loop_
_atom_site_label
_atom_site_type_symbol
_atom_site_fract_x
_atom_site_fract_y
_atom_site_fract_z
C1 C 0.8400(6) 0.4797(6) 0.2118(5)
C2 C 0.8074(6) 0.5532(5) 0.1699(5)
C3 C 0.8725(7) 0.6318(6) 0.1672(7)
H1 H 0.93850 0.63920 0.18880
C4 C 0.8370(8) 0.6985(7) 0.1319(8)
H2 H 0.87940 0.75160 0.13050
C5 C 0.7391(8) 0.6874(6) 0.0985(7)
H3 H 0.71740 0.73250 0.07320
C6 C 0.6734(6) 0.6100(6) 0.1022(6)
C7 C 0.7099(6) 0.5429(5) 0.1375(5)
H4 H 0.66740 0.48980 0.13910
C8 C 0.5704(6) 0.6001(5) 0.0679(5)
C9 C 0.4072(6) 0.5715(5) 0.0507(5)
C10 C 0.3009(6) 0.5465(5) 0.0664(5)
C11 C 0.2399(7) 0.6009(6) 0.0416(7)
H5 H 0.26600 0.65050 0.01470
C12 C 0.1404(8) 0.5818(8) 0.0567(8)
H6 H 0.09980 0.61920 0.04040
C13 C 0.1002(8) 0.5086(8) 0.0954(8)
H7 H 0.03350 0.49700 0.10730
C14 C 0.1612(7) 0.4523(6) 0.1164(6)
C15 C 0.2606(6) 0.4716(5) 0.1015(5)
H8 H 0.30090 0.43330 0.11540
C16 C 0.1170(8) 0.3713(7) 0.1592(6)
C17 C 1.8373(6) 0.3869(6) 0.4272(5)
C18 C 1.8037(6) 0.4146(5) 0.5068(5)
C19 C 1.8743(6) 0.4386(6) 0.5740(6)
H9 H 1.94170 0.44020 0.56910
C20 C 1.8417(6) 0.4594(6) 0.6465(6)
H10 H 1.88770 0.47510 0.69160
C21 C 1.7410(6) 0.4574(6) 0.6544(5)
H11 H 1.72030 0.47110 0.70470
C22 C 1.6714(6) 0.4353(5) 0.5877(5)
C23 C 1.7042(6) 0.4124(5) 0.5143(5)
H12 H 1.65820 0.39540 0.46950
C24 C 1.5680(6) 0.4418(5) 0.5942(5)
C25 C 1.4047(6) 0.4209(5) 0.5822(5)
C26 C 1.2989(6) 0.3840(5) 0.5609(5)
C27 C 1.2294(7) 0.3879(7) 0.6164(6)
H13 H 1.25010 0.40930 0.66920
C28 C 1.1290(7) 0.3602(8) 0.5935(6)
H14 H 1.08210 0.36170 0.63140
C29 C 1.0976(7) 0.3300(7) 0.5138(6)
H15 H 1.02980 0.31260 0.49810
C30 C 1.1667(6) 0.3261(6) 0.4587(5)
C31 C 1.2672(6) 0.3528(5) 0.4828(5)
H16 H 1.31430 0.34960 0.44550
C32 C 1.1331(7) 0.2926(6) 0.3737(6)
C33 C 0.8693(6) 0.1208(6) 0.3340(6)
C34 C 0.8214(6) 0.0428(6) 0.3766(6)
C35 C 0.8778(7) -0.0166(7) 0.3958(8)
H17 H 0.94470 -0.00630 0.38430
C36 C 0.8356(8) -0.0907(7) 0.4317(9)
H18 H 0.87510 -0.12950 0.44620
C37 C 0.7361(7) -0.1094(7) 0.4470(7)
H19 H 0.70820 -0.16070 0.47030
C38 C 0.6777(6) -0.0504(5) 0.4269(5)
C39 C 0.7218(6) 0.0263(5) 0.3936(5)
H20 H 0.68410 0.06700 0.38260
C40 C 0.5724(6) -0.0747(5) 0.4444(5)
C41 C 0.4084(6) -0.1028(5) 0.4310(5)
C42 C 0.3064(6) -0.1097(5) 0.3965(5)
C43 C 0.2379(7) -0.1881(6) 0.3988(7)
H21 H 0.25790 -0.23480 0.42260
C44 C 0.1406(8) -0.1949(7) 0.3653(8)
H22 H 0.09420 -0.24560 0.36920
C45 C 0.1117(7) -0.1270(6) 0.3261(7)
H23 H 0.04790 -0.13390 0.29970
C46 C 0.1770(6) -0.0491(6) 0.3259(6)
C47 C 0.2745(6) -0.0411(5) 0.3605(5)
H24 H 0.31900 0.01100 0.35960
C48 C 0.1458(6) 0.0256(5) 0.2874(5)
C49 C 0.8456(6) 0.2143(6) 0.1273(5)
C50 C 0.8138(6) 0.1790(5) 0.0409(5)
C51 C 0.8822(6) 0.1760(6) -0.0143(6)
H25 H 0.94990 0.19470 0.00120
C52 C 0.8522(7) 0.1452(7) -0.0940(6)
H26 H 0.89930 0.14440 -0.13190
C53 C 0.7509(7) 0.1157(6) -0.1161(6)
H27 H 0.73010 0.09480 -0.16910
C54 C 0.6809(6) 0.1172(5) -0.0601(6)
C55 C 0.7124(6) 0.1497(5) 0.0188(5)
H28 H 0.66570 0.15180 0.05670
C56 C 0.5751(6) 0.0791(5) -0.0837(5)
C57 C 0.4124(6) 0.0521(5) -0.0950(5)
C58 C 0.3091(6) 0.0586(5) -0.0882(5)
C59 C 0.2398(6) 0.0359(6) -0.1546(5)
H29 H 0.25920 0.01840 -0.20400
C60 C 0.1410(6) 0.0397(6) -0.1467(6)
H30 H 0.09420 0.02560 -0.19150
C61 C 0.1110(6) 0.0644(6) -0.0719(6)
H31 H 0.04390 0.06420 -0.06660
C62 C 0.1806(6) 0.0890(5) -0.0060(6)
C63 C 0.2797(6) 0.0864(5) -0.0152(5)
H32 H 0.32750 0.10370 0.02840
C64 C 0.1505(6) 0.1192(5) 0.0724(5)
Cl1 Cl 0.501068(15) 0.749228(16) 0.251351(15)
H33 H 0.50400 0.56740 0.21370
H34 H 1.50320 0.27640 0.55650
H35 H 0.52090 -0.06370 0.29280
H36 H 0.65240 0.39040 0.24860
H37 H 0.65030 0.28830 0.37960
H38 H 0.65720 0.26900 0.14120
H39 H 0.66260 0.16270 0.27410
H40 H 0.41250 0.07900 0.16780
H41 H 0.32390 0.15450 0.34150
H42 H 0.32220 0.28530 0.14470
H43 H 0.33320 0.31740 0.32360
H44 H 0.51190 0.48450 0.18410
H45 H 1.50950 0.32360 0.48080
H46 H 0.53460 0.02220 0.32440
H47 H 0.59420 0.41870 0.30830
H48 H 0.59760 0.20780 0.40570
H49 H 0.58970 0.31440 0.09870
H50 H 0.60700 0.10700 0.21020
H51 H 0.33650 0.12760 0.16900
H52 H 0.41190 0.14440 0.38940
H53 H 0.40340 0.31600 0.09450
H54 H 0.39940 0.37220 0.27170
H55 H 0.52110 0.23060 -0.05640
H56 H 0.51690 0.19460 0.02500
N1 N 0.545403(15) 0.632887(16) -0.002564(15)
N2 N 0.441590(15) 0.615233(16) -0.013518(15)
N3 N 0.485774(15) 0.559267(16) 0.100587(15)
N4 N 0.475250(15) 0.524218(16) 0.179327(15)
N5 N 1.541990(15) 0.504030(16) 0.634900(15)
N6 N 1.438060(15) 0.490250(16) 0.627400(15)
N7 N 1.483640(15) 0.389820(16) 0.559890(15)
N8 N 1.472690(15) 0.309460(16) 0.523790(15)
N9 N 0.540560(15) -0.117601(16) 0.507639(15)
N10 N 0.437007(15) -0.135015(16) 0.500048(15)
N11 N 0.491919(15) -0.062531(16) 0.394838(15)
N12 N 0.489995(15) -0.027095(16) 0.316205(15)
N13 N 0.544947(15) 0.008951(16) -0.126496(15)
N14 N 0.441663(15) -0.008630(16) -0.133803(15)
N15 N 0.495142(15) 0.107512(16) -0.061314(15)
N16 N 0.491592(15) 0.186725(16) -0.027341(15)
Nd1 Nd 0.491686(15) 0.247960(16) 0.250728(15)
Nd2 Nd 0.901763(15) 0.328015(16) 0.277024(15)
Nd3 Nd 0.083045(15) 0.175445(16) 0.221535(15)
O1 O 0.925197(15) 0.488290(16) 0.246976(15)
O2 O 0.781017(15) 0.409527(16) 0.210507(15)
O3 O 0.157535(15) 0.308917(16) 0.157606(15)
O4 O 0.037401(15) 0.370315(16) 0.194887(15)
O5 O 1.043260(15) 0.285100(16) 0.345840(15)
O6 O 1.194430(15) 0.271270(16) 0.329570(15)
O7 O 1.926340(15) 0.401430(16) 0.414230(15)
O8 O 0.953347(15) 0.120746(16) 0.306884(15)
O9 O 0.825842(15) 0.182474(16) 0.325974(15)
O10 O 0.193441(15) 0.099926(16) 0.308153(15)
O11 O 0.073905(15) 0.015343(16) 0.233682(15)
O12 O 0.929190(15) 0.211443(16) 0.159900(15)
O13 O 0.785622(15) 0.247569(16) 0.162776(15)
O14 O 0.215746(15) 0.143640(16) 0.132287(15)
O15 O 0.060389(15) 0.121140(16) 0.078550(15)
O16 O 0.594923(15) 0.392091(16) 0.263492(15)
O17 O 0.594072(15) 0.254114(16) 0.381483(15)
O18 O 0.597714(15) 0.276603(16) 0.133287(15)
O19 O 0.606536(15) 0.143220(16) 0.247894(15)
O20 O 0.397678(15) 0.126173(16) 0.178910(15)
O21 O 0.387611(15) 0.166857(16) 0.347346(15)
O22 O 0.384857(15) 0.296285(16) 0.140428(15)
O23 O 0.393022(15) 0.336550(16) 0.311493(15)
O24 O 0.437872(15) 0.719899(16) 0.180652(15)
O25 O 0.444694(15) 0.755253(16) 0.318561(15)
O26 O 0.562084(15) 0.829253(16) 0.236793(15)
O27 O 0.562366(15) 0.689025(16) 0.270240(15)
O28 O 1.773660(15) 0.346570(16) 0.374830(15)
Nd2* Nd -0.098237(15) 0.328015(16) 0.277024(15)
Nd2** Nd 1.901763(15) 0.328015(16) 0.277024(15)
Nd3* Nd 1.083045(15) 0.175445(16) 0.221535(15)
O4* O 1.037401(15) 0.370315(16) 0.194887(15)
O5* O 0.043260(15) 0.285100(16) 0.345840(15)
O6* O 0.194430(15) 0.271270(16) 0.329570(15)
O7* O 0.926340(15) 0.401430(16) 0.414230(15)
O8* O -0.046653(15) 0.120746(16) 0.306884(15)
O12* O -0.070810(15) 0.211443(16) 0.159900(15)
O28* O 0.773660(15) 0.346570(16) 0.374830(15)
#END
