
#######################################################################
#
#                 Cambridge Crystallographic Data Centre
#                                CCDC
#
#######################################################################
#
# If this CIF has been generated from an entry in the Cambridge
# Structural Database, then it will include bibliographic, chemical,
# crystal, experimental, refinement or atomic coordinate data resulting
# from the CCDC's data processing and validation procedures.
#
#######################################################################

data_CSD_CIF_WUPSEI
_audit_creation_date 2020-07-31
_audit_creation_method CSD-ConQuest-V1
_database_code_CSD WUPSEI
_database_code_depnum_ccdc_archive 'CCDC 1844366'
_chemical_formula_sum 'C44 H27 Bi1 O10'
_chemical_formula_moiety
;
H3 O1 1+,n(C44 H22 Bi1 O8 1-),H2 O1
;
_journal_coden_Cambridge 1078
_journal_year 2020
_journal_name_full 'CSD Communication(Private Communication) '
loop_
_publ_author_name
"Qing Lin Guan"
"Yong Heng Xing"
"Jing Liu"
"Chao Han"
"Chun Yu Hou"
"Feng Ying Bai"
_chemical_name_systematic
;
catena-[oxonium 
(\m-4,4',4'',4'''-(pyrene-1,3,6,8-tetrayl)tetrabenzoato)-bismuth monohydrate]
;
_cell_volume  10378.247
_exptl_crystal_colour 'yellow'
_exptl_crystal_description 'block'
_diffrn_ambient_temperature 293
_refine_special_details
;
Disordered cation and solvent molecules were not modelled and the disordered 
density was taken into account using the SQUEEZE/PLATON procedure.
;
#These two values have been output from a single CSD field.
_refine_ls_R_factor_gt 0.1051
_refine_ls_wR_factor_gt 0.1051
_symmetry_cell_setting orthorhombic
_symmetry_space_group_name_H-M 'P b c n'
_symmetry_Int_Tables_number 60
loop_
_symmetry_equiv_pos_site_id
_symmetry_equiv_pos_as_xyz
1 x,y,z
2 1/2-x,1/2-y,1/2+z
3 1/2+x,1/2-y,-z
4 -x,y,1/2-z
5 -x,-y,-z
6 -1/2+x,-1/2+y,-1/2-z
7 -1/2-x,-1/2+y,z
8 x,-y,-1/2+z
_cell_length_a 22.875(7)
_cell_length_b 11.704(4)
_cell_length_c 38.764(11)
_cell_angle_alpha 90
_cell_angle_beta 90
_cell_angle_gamma 90
_cell_formula_units_Z 8
loop_
_atom_type_symbol
_atom_type_radius_bond
C 0.68
H 0.23
Bi 1.48
O 0.68
loop_
_atom_site_label
_atom_site_type_symbol
_atom_site_fract_x
_atom_site_fract_y
_atom_site_fract_z
Bi1 Bi 0.07875(2) 0.49080(5) 0.38009(2)
O1 O 0.1765(7) 0.4382(13) 0.3887(4)
O2 O 0.1865(5) 0.6160(14) 0.3780(5)
O3 O 0.5706(4) 0.162(1) 0.5859(2)
O4 O 0.5650(8) 0.0141(10) 0.5539(3)
O5 O 0.5773(8) 1.0148(14) 0.1874(3)
O6 O 0.5896(3) 0.8538(10) 0.1595(2)
O7 O 0.9829(5) 0.6312(15) 0.3800(4)
O8 O 0.9783(4) 0.4527(12) 0.3722(4)
C1 C 0.2060(5) 0.5265(15) 0.3812(5)
C2 C 0.2723(7) 0.5101(19) 0.3844(4)
C3 C 0.3076(5) 0.6085(15) 0.3829(4)
H1 H 0.29052 0.67960 0.37936
C4 C 0.3678(5) 0.6001(15) 0.3865(4)
H2 H 0.39116 0.66516 0.38673
C5 C 0.3916(4) 0.4946(15) 0.3897(3)
C6 C 0.3551(6) 0.4000(14) 0.3923(4)
H3 H 0.37196 0.32843 0.39524
C7 C 0.2949(6) 0.4074(18) 0.3906(5)
H4 H 0.27127 0.34352 0.39377
C8 C 0.5649(8) 0.1149(16) 0.5563(4)
C9 C 0.5581(6) 0.1929(16) 0.5264(3)
C10 C 0.5638(8) 0.3065(16) 0.5281(4)
H5 H 0.57124 0.34056 0.54938
C11 C 0.5589(10) 0.3762(17) 0.4984(4)
H6 H 0.56736 0.45384 0.49968
C12 C 0.5417(6) 0.3283(15) 0.4678(4)
C13 C 0.5324(11) 0.2179(16) 0.4660(4)
H7 H 0.52417 0.18473 0.44479
C14 C 0.5345(10) 0.152(2) 0.4941(6)
H8 H 0.52036 0.07796 0.49279
C15 C 0.5876(8) 0.9187(17) 0.1874(4)
C16 C 0.5923(6) 0.8431(11) 0.2197(2)
C17 C 0.5781(6) 0.8942(9) 0.2509(3)
H9 H 0.56025 0.96558 0.25125
C18 C 0.5906(6) 0.8386(12) 0.2818(2)
H10 H 0.58116 0.87280 0.30267
C19 C 0.6173(6) 0.7319(11) 0.2813(2)
C20 C 0.6315(6) 0.6808(10) 0.2500(3)
H11 H 0.64930 0.60942 0.24971
C21 C 0.6189(6) 0.7364(11) 0.2192(2)
H12 H 0.62840 0.70221 0.19828
C22 C 0.9586(5) 0.5475(19) 0.3736(4)
C23 C 0.8910(3) 0.5565(9) 0.3702(3)
C24 C 0.8649(4) 0.6632(8) 0.3734(3)
H13 H 0.88744 0.72655 0.37918
C25 C 0.8051(4) 0.6753(8) 0.3680(3)
H14 H 0.78770 0.74673 0.37019
C26 C 0.7715(3) 0.5807(10) 0.3594(3)
C27 C 0.7975(4) 0.4740(8) 0.3562(3)
H15 H 0.77502 0.41063 0.35039
C28 C 0.8573(4) 0.4619(8) 0.3616(3)
H16 H 0.87475 0.39044 0.35939
C29 C 0.7064(6) 0.5926(15) 0.3516(4)
C30 C 0.6905(6) 0.6612(18) 0.3245(4)
H17 H 0.71910 0.70030 0.31220
C31 C 0.6337(6) 0.6729(15) 0.3154(4)
C32 C 0.5892(5) 0.6240(14) 0.3354(4)
C33 C 0.5293(6) 0.6347(14) 0.3258(4)
H18 H 0.51929 0.67280 0.30555
C34 C 0.4863(8) 0.5887(17) 0.3463(5)
H19 H 0.44714 0.59790 0.34041
C35 C 0.5021(7) 0.5260(17) 0.3771(4)
C36 C 0.4563(4) 0.4824(15) 0.3996(3)
C37 C 0.4735(6) 0.4167(15) 0.4273(4)
H20 H 0.44468 0.38171 0.44048
C38 C 0.5301(6) 0.4004(16) 0.4363(4)
C39 C 0.5767(3) 0.4496(10) 0.4161(2)
C40 C 0.6353(4) 0.4334(9) 0.4243(2)
H21 H 0.64558 0.39131 0.44368
C41 C 0.6786(3) 0.4803(10) 0.4034(2)
H22 H 0.71778 0.46947 0.40890
C42 C 0.6633(3) 0.5432(9) 0.3744(2)
C43 C 0.6047(3) 0.5593(9) 0.3662(2)
C44 C 0.5614(2) 0.5125(10) 0.3870(2)
Bi1* Bi 1.07875(2) 0.49080(5) 0.38009(2)
Bi1B Bi 0.57875(2) 0.00920(5) 0.61991(2)
Bi1E Bi 0.57875(2) 0.99080(5) 0.11991(2)
O3B O 0.0706(4) 0.338(1) 0.4141(2)
O4B O 0.0650(8) 0.4859(10) 0.4461(3)
O5E O 0.0773(8) 0.5148(14) 0.3126(3)
O6E O 0.0896(3) 0.3538(10) 0.3405(2)
O7* O -0.0171(5) 0.6312(15) 0.3800(4)
O8* O -0.0217(4) 0.4527(12) 0.3722(4)
#END
