
#######################################################################
#
#                 Cambridge Crystallographic Data Centre
#                                CCDC
#
#######################################################################
#
# If this CIF has been generated from an entry in the Cambridge
# Structural Database, then it will include bibliographic, chemical,
# crystal, experimental, refinement or atomic coordinate data resulting
# from the CCDC's data processing and validation procedures.
#
#######################################################################

data_CSD_CIF_WUPTAE
_audit_creation_date 2015-10-09
_audit_creation_method CSD-ConQuest-V1
_database_code_CSD WUPTAE
_database_code_depnum_ccdc_archive 'CCDC 1056780'
_chemical_formula_sum 'C10 H40 Al2 B10 N10 O20 Zn2'
_chemical_formula_moiety
;
(C10 H40 N10 Zn2 2+)n,n(Al2 B10 O20 2-)
;
_journal_coden_Cambridge 1220
_journal_volume 21
_journal_year 2015
_journal_page_first 15732
_journal_name_full 'Chem.-Eur.J. '
loop_
_publ_author_name
"Yuan Liu"
"Rui Pan"
"Jian-Wen Cheng"
"Huan He"
"Bai-Feng Yang"
"Qiang Zhang"
"Guo-Yu Yang"
_chemical_name_systematic
;
catena-((\m~2~-Ethane-1,2-diamine)-tetrakis(ethane-1,2-diamine)-di-zinc 
bis(\m~4~-pentaborato)-di-aluminium)
;
_cell_volume    835.134
_exptl_crystal_colour 'colorless'
_exptl_crystal_density_diffrn 1.816
_exptl_crystal_description 'block'
_diffrn_ambient_temperature 293
#These two values have been output from a single CSD field.
_refine_ls_R_factor_gt 0.0613
_refine_ls_wR_factor_gt 0.0613
_symmetry_cell_setting triclinic
_symmetry_space_group_name_H-M 'P 1'
_symmetry_Int_Tables_number 1
loop_
_symmetry_equiv_pos_site_id
_symmetry_equiv_pos_as_xyz
1 x,y,z
_cell_length_a 7.4196(9)
_cell_length_b 9.1105(12)
_cell_length_c 13.8138(15)
_cell_angle_alpha 77.528(10)
_cell_angle_beta 76.598(10)
_cell_angle_gamma 68.297(12)
_cell_formula_units_Z 1
loop_
_atom_type_symbol
_atom_type_radius_bond
C 0.68
H 0.23
Al 1.21
B 0.83
N 0.68
O 0.68
Zn 1.22
loop_
_atom_site_label
_atom_site_type_symbol
_atom_site_fract_x
_atom_site_fract_y
_atom_site_fract_z
Al1 Al 0.2361(3) 0.5527(3) -0.04726(18)
Al2 Al 0.3335(3) 0.1121(3) -0.55133(17)
B1 B 0.0099(16) 0.3686(14) -0.0891(8)
B2 B -0.3228(14) 0.3967(16) -0.1062(8)
B3 B -0.0423(14) 0.1729(15) -0.1772(7)
B4 B 0.1120(15) -0.1234(15) -0.1761(8)
B5 B 0.1579(15) 0.0547(13) -0.3289(7)
B6 B 0.1616(16) 0.5864(14) 0.1742(8)
B7 B 0.2212(14) 0.4461(12) 0.3435(7)
B8 B 0.0598(15) 0.7421(13) 0.3173(8)
B9 B 0.1092(13) 0.9680(13) 0.3707(8)
B10 B -0.2221(14) 0.9553(12) 0.4001(7)
O1 O 0.1261(12) 0.422(1) -0.0583(7)
O2 O -0.1935(9) 0.4540(8) -0.0768(5)
O3 O -0.5156(9) 0.4766(11) -0.0873(6)
O4 O 0.0787(9) 0.2330(9) -0.1316(5)
O5 O -0.2500(9) 0.2711(9) -0.1566(5)
O6 O 0.0303(8) 0.1818(8) -0.2849(4)
O7 O -0.0148(10) 0.0050(9) -0.1326(4)
O8 O 0.1447(12) -0.2697(9) -0.1278(5)
O9 O 0.2018(9) -0.0990(8) -0.2747(5)
O10 O 0.2391(10) 0.0760(9) -0.4264(5)
O11 O 0.1895(11) 0.5763(10) 0.0769(5)
O12 O 0.229(1) 0.4436(7) 0.2419(5)
O13 O 0.2837(11) 0.3133(8) 0.4075(5)
O14 O 0.078(1) 0.7242(8) 0.2120(5)
O15 O 0.1405(10) 0.5893(8) 0.3793(4)
O16 O 0.1758(9) 0.8407(9) 0.3199(6)
O17 O -0.1477(8) 0.8201(7) 0.3571(5)
O18 O 0.2380(11) 1.0312(11) 0.3793(5)
O19 O -0.0893(9) 1.0295(8) 0.4065(5)
O20 O -0.4118(8) 1.0208(8) 0.4345(5)
Zn1 Zn 0.64830(11) 0.5143(1) 0.56581(7)
Zn2 Zn 0.61578(17) 0.94639(14) 0.09249(9)
C1 C 0.742(2) 0.7127(16) 0.6704(11)
H1 H 0.70940 0.65800 0.73700
H2 H 0.74820 0.81390 0.67790
C2 C 0.9349(17) 0.6159(17) 0.6220(11)
H3 H 0.98640 0.68330 0.56680
H4 H 1.02450 0.57650 0.67030
C3 C 0.4200(16) 0.3121(15) 0.6722(9)
H5 H 0.33580 0.34160 0.62190
H6 H 0.35590 0.26630 0.73430
C4 C 0.6129(16) 0.1944(14) 0.6378(8)
H7 H 0.69000 0.15590 0.69170
H8 H 0.59240 0.10390 0.62160
C5 C 0.6805(13) 0.5349(12) 0.3414(7)
H9 H 0.67200 0.42940 0.34810
H10 H 0.81560 0.52150 0.34340
C6 C 0.6320(15) 0.6246(12) 0.2409(6)
H11 H 0.74060 0.58000 0.18920
H12 H 0.51710 0.60760 0.22980
C7 C 0.867(3) 1.1156(17) 0.1298(10)
H13 H 0.94280 1.17880 0.08670
H14 H 0.92220 1.07140 0.19110
C8 C 0.662(3) 1.220(2) 0.1549(15)
H15 H 0.65130 1.26540 0.21420
H16 H 0.63450 1.30780 0.10020
C9 C 0.528(3) 0.832(3) -0.0692(15)
H17 H 0.55620 0.75780 -0.11610
H18 H 0.40420 0.83590 -0.02540
C10 C 0.520(4) 0.970(3) -0.1161(18)
H19 H 0.41690 1.00950 -0.15670
H20 H 0.64430 0.96410 -0.16040
N1 N 0.5909(14) 0.7417(10) 0.6145(7)
H21 H 0.59600 0.81780 0.56120
H22 H 0.47160 0.77310 0.65310
N2 N 0.9296(10) 0.4827(10) 0.5843(5)
H23 H 0.97270 0.39310 0.62750
H24 H 1.01090 0.47090 0.52490
N3 N 0.4534(11) 0.4545(11) 0.6883(6)
H25 H 0.50380 0.43350 0.74510
H26 H 0.33890 0.53630 0.69440
N4 N 0.7195(16) 0.2635(11) 0.5509(7)
H27 H 0.68400 0.25640 0.49450
H28 H 0.84970 0.21160 0.54760
N5 N 0.5532(13) 0.6116(12) 0.4277(6)
H29 H 0.43250 0.60640 0.43280
H30 H 0.54190 0.71550 0.41540
N6 N 0.5928(10) 0.7978(9) 0.2290(6)
H31 H 0.67210 0.81010 0.26470
H32 H 0.46910 0.83990 0.26110
N7 N 0.8834(14) 0.9843(12) 0.0787(6)
H33 H 0.97090 0.89400 0.10440
H34 H 0.93050 1.00560 0.01310
N8 N 0.507(2) 1.1479(15) 0.1739(11)
H35 H 0.39690 1.21970 0.15280
H36 H 0.47740 1.11570 0.24020
N9 N 0.697(2) 0.779(2) -0.0065(10)
H37 H 0.81170 0.77730 -0.04710
H38 H 0.71190 0.68040 0.02810
N10 N 0.479(3) 1.080(2) -0.0402(16)
H39 H 0.34870 1.12400 -0.02130
H40 H 0.52830 1.15930 -0.06820
Al1* Al -0.7639(3) 0.5527(3) -0.04726(18)
Al1** Al 0.2361(3) -0.4473(3) -0.04726(18)
Al2* Al -0.6665(3) 1.1121(3) 0.44867(17)
Al2** Al 0.3335(3) 0.1121(3) 0.44867(17)
Al2*** Al 0.3335(3) 1.1121(3) 0.44867(17)
O3* O 0.4844(9) 0.4766(11) -0.0873(6)
O8* O 0.1447(12) 0.7303(9) -0.1278(5)
O13* O 0.2837(11) 0.3133(8) -0.5925(5)
O18* O 0.2380(11) 0.0312(11) -0.6207(5)
O20* O 0.5882(8) 0.0208(8) -0.5655(5)
#END
