
#######################################################################
#
#                 Cambridge Crystallographic Data Centre
#                                CCDC
#
#######################################################################
#
# If this CIF has been generated from an entry in the Cambridge
# Structural Database, then it will include bibliographic, chemical,
# crystal, experimental, refinement or atomic coordinate data resulting
# from the CCDC's data processing and validation procedures.
#
#######################################################################

data_CSD_CIF_WUPZOY
_audit_creation_date 2015-10-09
_audit_creation_method CSD-ConQuest-V1
_database_code_CSD WUPZOY
_database_code_depnum_ccdc_archive 'CCDC 1054076'
_chemical_formula_sum 'C58 H48 N4 O26 Zn4'
_chemical_formula_moiety
;
(C2 H8 N1 1+)2n,n(C48 H18 O24 Zn4 2-),2n(C3 H7 N1 O1)
;
_journal_coden_Cambridge 1699
_journal_volume 3
_journal_year 2015
_journal_page_first 22369
_journal_name_full 'J.Mater.Chem.A '
loop_
_publ_author_name
"Xiu-Yan Wan"
"Fei-Long Jiang"
"Cai-Ping Liu"
"Kang Zhou"
"Lian Chen"
"Yan-Li Gai"
"Yan Yang"
"Mao-Chun Hong"
_chemical_name_systematic
;
catena-[bis(Dimethylammonium) 
(\m~10~-1,1':4',1''-terphenyl-2',3,3'',5,5',5''-hexacarboxylato)-(\m~6~-5,5''-
dicarboxy-1,1':4',1''-terphenyl-2',3,3'',5'-tetracarboxylato)-tetra-zinc 
N,N-dimethylformamide solvate]
;
_cell_volume   1443.345
_exptl_crystal_colour 'colorless'
_exptl_crystal_density_diffrn 1.701
_exptl_crystal_description 'prism'
_diffrn_ambient_temperature 173
#These two values have been output from a single CSD field.
_refine_ls_R_factor_gt 0.0368
_refine_ls_wR_factor_gt 0.0368
_symmetry_cell_setting triclinic
_symmetry_space_group_name_H-M 'P -1'
_symmetry_Int_Tables_number 2
loop_
_symmetry_equiv_pos_site_id
_symmetry_equiv_pos_as_xyz
1 x,y,z
2 -x,-y,-z
_cell_length_a 8.5170(4)
_cell_length_b 10.3341(4)
_cell_length_c 18.2392(7)
_cell_angle_alpha 104.782(4)
_cell_angle_beta 91.187(3)
_cell_angle_gamma 110.479(4)
_cell_formula_units_Z 1
loop_
_atom_type_symbol
_atom_type_radius_bond
C 0.68
H 0.23
N 0.68
O 0.68
Zn 1.22
loop_
_atom_site_label
_atom_site_type_symbol
_atom_site_fract_x
_atom_site_fract_y
_atom_site_fract_z
Zn1 Zn 0.67065(4) -0.18998(3) 0.21816(2)
Zn2 Zn 0.96237(4) 0.13835(4) 0.30935(2)
O1 O 0.5246(2) 0.60787(19) 0.17217(11)
O2 O 1.0959(2) 0.3477(2) 0.35855(11)
O3 O 1.8591(2) 0.4292(2) 0.42017(13)
H1 H 1.94870 0.41950 0.40640
O4 O 1.6450(3) 0.8601(2) 0.32596(11)
O5 O 0.7435(2) 0.1427(2) 0.26767(12)
O6 O 0.7406(2) 0.6059(2) 0.24138(11)
O7 O -0.1343(3) -0.1458(2) 0.16052(11)
O8 O 1.2394(2) 0.20713(19) 0.35696(11)
O9 O 0.5666(3) -0.0628(2) 0.18729(12)
O10 O 1.8653(2) 1.0543(2) 0.39052(11)
O11 O 0.0314(3) 0.0856(2) 0.20708(11)
O12 O 1.9905(2) 0.6533(2) 0.41258(13)
C1 C 0.6030(3) 0.5418(3) 0.20051(15)
C2 C 0.5207(3) 0.3808(3) 0.18078(15)
C3 C 1.2360(3) 0.3300(3) 0.37129(14)
C4 C 1.5280(3) 0.7202(3) 0.44790(14)
C5 C 1.7181(3) 0.9632(3) 0.38374(15)
C6 C 0.5284(3) 0.1540(3) 0.18954(15)
C7 C 0.5995(3) 0.3035(3) 0.20978(14)
H2 H 0.70190 0.35300 0.24340
C8 C 1.8627(3) 0.5573(3) 0.41848(15)
C9 C 1.5134(3) 0.8635(3) 0.47338(14)
C10 C 0.3768(3) 0.0816(3) 0.14129(14)
H3 H 0.32800 -0.02050 0.12790
C11 C 0.1401(3) 0.0793(3) 0.05699(14)
C12 C 0.1455(3) 0.0934(3) -0.01707(14)
H4 H 0.24530 0.15800 -0.02910
C13 C 1.3824(3) 0.5970(3) 0.42513(14)
H5 H 1.27490 0.60560 0.42640
C14 C 0.6197(3) 0.0715(3) 0.21734(15)
C15 C 1.5484(3) 0.4469(3) 0.40019(14)
H6 H 1.55540 0.35420 0.38500
C16 C -0.0378(3) -0.0267(3) 0.15374(14)
C17 C 0.3693(3) 0.3078(3) 0.13237(14)
H7 H 0.31560 0.36060 0.11270
C18 C 1.6141(3) 0.9810(3) 0.44853(14)
C19 C 1.6850(3) 0.7059(3) 0.44576(14)
H8 H 1.78560 0.78910 0.46030
C20 C 1.3921(3) 0.4610(3) 0.40043(14)
C21 C -0.0088(3) -0.0156(3) 0.07395(14)
C22 C 0.2961(3) 0.1580(3) 0.11255(14)
C23 C 1.6947(3) 0.5699(3) 0.42237(14)
C24 C 1.3991(3) 0.8847(3) 0.52445(14)
H9 H 1.32900 0.80620 0.54110
N1 N 0.9001(3) 0.2782(3) 0.72605(17)
H10 H 0.97860 0.31800 0.69110
H11 H 0.96790 0.29740 0.77510
C25 C 0.8198(7) 0.1240(5) 0.6935(3)
H12 H 0.74650 0.10360 0.64650
H13 H 0.75200 0.08180 0.73020
H14 H 0.90640 0.08210 0.68160
C26 C 0.7827(8) 0.3537(7) 0.7397(3)
H15 H 0.69770 0.31830 0.69500
H16 H 0.84470 0.45710 0.74880
H17 H 0.72670 0.33630 0.78460
O13 O 1.0115(4) 0.5953(4) 0.11810(17)
N2 N 0.7989(4) 0.4043(3) 0.03792(19)
C27 C 0.8563(7) 0.2987(5) 0.0524(3)
H18 H 0.89970 0.25610 0.00680
H19 H 0.76240 0.22340 0.06490
H20 H 0.94650 0.34370 0.09530
C28 C 0.8814(5) 0.5439(4) 0.0731(2)
H21 H 0.83540 0.60950 0.06220
C29 C 0.6575(6) 0.3563(6) -0.0185(3)
H22 H 0.69010 0.32340 -0.06910
H23 H 0.61910 0.43570 -0.01730
H24 H 0.56590 0.27670 -0.00800
O1A O -0.5246(2) -0.60787(19) -0.17217(11)
O5A O -0.7435(2) -0.1427(2) -0.26767(12)
O6A O -0.7406(2) -0.6059(2) -0.24138(11)
O7A O 0.1343(3) 0.1458(2) -0.16052(11)
O9A O -0.5666(3) 0.0628(2) -0.18729(12)
O11A O -0.0314(3) -0.0856(2) -0.20708(11)
C1A C -0.6030(3) -0.5418(3) -0.20051(15)
C2A C -0.5207(3) -0.3808(3) -0.18078(15)
C6A C -0.5284(3) -0.1540(3) -0.18954(15)
C7A C -0.5995(3) -0.3035(3) -0.20978(14)
H2A H -0.70190 -0.35300 -0.24340
C10A C -0.3768(3) -0.0816(3) -0.14129(14)
H3A H -0.32800 0.02050 -0.12790
C11A C -0.1401(3) -0.0793(3) -0.05699(14)
C12A C -0.1455(3) -0.0934(3) 0.01707(14)
H4A H -0.24530 -0.15800 0.02910
C14A C -0.6197(3) -0.0715(3) -0.21734(15)
C16A C 0.0378(3) 0.0267(3) -0.15374(14)
C17A C -0.3693(3) -0.3078(3) -0.13237(14)
H7A H -0.31560 -0.36060 -0.11270
C21A C 0.0088(3) 0.0156(3) -0.07395(14)
C22A C -0.2961(3) -0.1580(3) -0.11255(14)
O2A O 1.9041(2) 1.6523(2) 0.64145(11)
O3A O 1.1409(2) 1.5708(2) 0.57983(13)
H1A H 1.05130 1.58050 0.59360
O4A O 1.3550(3) 1.1399(2) 0.67404(11)
O8A O 1.7606(2) 1.79287(19) 0.64304(11)
O10A O 1.1347(2) 0.9457(2) 0.60948(11)
O12A O 1.0095(2) 1.3467(2) 0.58742(13)
C3A C 1.7640(3) 1.6700(3) 0.62871(14)
C4A C 1.4720(3) 1.2798(3) 0.55210(14)
C5A C 1.2819(3) 1.0368(3) 0.61626(15)
C8A C 1.1373(3) 1.4427(3) 0.58152(15)
C9A C 1.4866(3) 1.1365(3) 0.52662(14)
C13A C 1.6176(3) 1.4030(3) 0.57487(14)
H5A H 1.72510 1.39440 0.57360
C15A C 1.4516(3) 1.5531(3) 0.59981(14)
H6A H 1.44460 1.64580 0.61500
C18A C 1.3859(3) 1.0190(3) 0.55147(14)
C19A C 1.3150(3) 1.2941(3) 0.55424(14)
H8A H 1.21440 1.21090 0.53970
C20A C 1.6079(3) 1.5390(3) 0.59957(14)
C23A C 1.3053(3) 1.4301(3) 0.57763(14)
C24A C 1.6009(3) 1.1153(3) 0.47555(14)
H9A H 1.67100 1.19380 0.45890
Zn1A Zn -0.67065(4) -0.81002(3) -0.21816(2)
Zn2* Zn 1.96237(4) 1.13835(4) 0.30935(2)
Zn1* Zn -0.32935(4) -0.18998(3) 0.21816(2)
Zn1** Zn 0.67065(4) 0.81002(3) 0.21816(2)
Zn1*** Zn 1.67065(4) 0.81002(3) 0.21816(2)
Zn1A* Zn -0.67065(4) 0.18998(3) -0.21816(2)
Zn1A** Zn 0.32935(4) 0.18998(3) -0.21816(2)
Zn1A*** Zn 1.32935(4) 1.18998(3) 0.78184(2)
Zn2** Zn -0.03763(4) 0.13835(4) 0.30935(2)
Zn2A Zn -0.96237(4) -0.13835(4) -0.30935(2)
Zn2A* Zn 0.03763(4) -0.13835(4) -0.30935(2)
Zn2A** Zn 1.03763(4) 0.86165(4) 0.69065(2)
Zn2A*** Zn 2.03763(4) 1.86165(4) 0.69065(2)
O1* O 0.5246(2) -0.39213(19) 0.17217(11)
O2* O 2.0959(2) 1.3477(2) 0.35855(11)
O4* O 0.6450(3) -0.1399(2) 0.32596(11)
O4A* O -0.6450(3) -0.8601(2) -0.32596(11)
O5* O 1.7435(2) 1.1427(2) 0.26767(12)
O6* O 0.7406(2) -0.3941(2) 0.24138(11)
O7* O 0.8657(3) -0.1458(2) 0.16052(11)
O7A* O -0.8657(3) -0.8542(2) -0.16052(11)
O8* O 2.2394(2) 1.20713(19) 0.35696(11)
O9A* O -0.5666(3) -0.9372(2) -0.18729(12)
O10* O 0.8653(2) 0.0543(2) 0.39052(11)
O11* O 1.0314(3) 0.0856(2) 0.20708(11)
O11** O 2.0314(3) 1.0856(2) 0.20708(11)
#END
