
#######################################################################
#
#                 Cambridge Crystallographic Data Centre
#                                CCDC
#
#######################################################################
#
# If this CIF has been generated from an entry in the Cambridge
# Structural Database, then it will include bibliographic, chemical,
# crystal, experimental, refinement or atomic coordinate data resulting
# from the CCDC's data processing and validation procedures.
#
#######################################################################

data_CSD_CIF_WUQROS
_audit_creation_date 2020-07-31
_audit_creation_method CSD-ConQuest-V1
_database_code_CSD WUQROS
_database_code_depnum_ccdc_archive 'CCDC 2005848'
_chemical_formula_sum 'C16 H18 N10 Ni1 O1'
_chemical_formula_moiety
;
(C6 H2 N9 Ni1 O1 1-)n,n(C10 H16 N1 1+)
;
_journal_coden_Cambridge 1695
_journal_volume 8
_journal_year 2020
_journal_page_first 11735
_journal_name_full 'J.Mater.Chem.C '
loop_
_publ_author_name
"M.Maczka"
"A.Gagor"
"A.Stroppa"
"J.N.Goncalves"
"J.K.Zareba"
"D.Stefanska"
"A.Pikul"
"M.Drozd"
"A.Sieradzki"
_chemical_name_systematic
;
catena-(benzyl(trimethyl)ammonium 
bis(\m-dicyanamide)-aqua-dicyanamide-nickel(ii))
;
_cell_volume   1938.555
_exptl_crystal_density_diffrn 1.457
_exptl_crystal_description 'cuboid'
_diffrn_ambient_temperature 250.2
_diffrn_special_details
;
twin

;
#These two values have been output from a single CSD field.
_refine_ls_R_factor_gt 0.0425
_refine_ls_wR_factor_gt 0.0425
_symmetry_cell_setting orthorhombic
_symmetry_space_group_name_H-M 'P n a 21'
_symmetry_Int_Tables_number 33
loop_
_symmetry_equiv_pos_site_id
_symmetry_equiv_pos_as_xyz
1 x,y,z
2 -x,-y,1/2+z
3 1/2+x,1/2-y,z
4 1/2-x,1/2+y,1/2+z
_cell_length_a 16.8309(7)
_cell_length_b 8.5268(3)
_cell_length_c 13.5078(5)
_cell_angle_alpha 90
_cell_angle_beta 90
_cell_angle_gamma 90
_cell_formula_units_Z 4
loop_
_atom_type_symbol
_atom_type_radius_bond
C 0.68
H 0.23
N 0.68
Ni 1.24
O 0.68
loop_
_atom_site_label
_atom_site_type_symbol
_atom_site_fract_x
_atom_site_fract_y
_atom_site_fract_z
Ni1 Ni 0.28128(4) 0.30855(7) 0.61500(6)
O1 O 0.2881(3) 0.2966(5) 0.7676(3)
H1 H 0.27249 0.38479 0.79445
H2 H 0.25328 0.22897 0.79026
N1 N 0.2759(3) 0.3172(6) 0.4538(4)
N2 N 0.3092(4) 0.5610(8) 0.3630(4)
N3 N 0.2303(4) 0.0780(8) 0.3667(4)
N4 N 0.4022(3) 0.3308(5) 0.6038(5)
N5 N 0.5359(3) 0.3077(8) 0.5357(4)
N6 N 0.6587(3) 0.2216(4) 0.6138(5)
N7 N 0.2671(2) 0.5466(4) 0.6141(5)
N8 N 0.2368(4) 0.8120(6) 0.5623(5)
N9 N 0.2889(3) 1.0672(4) 0.6077(5)
C1 C 0.2933(4) 0.4448(8) 0.4020(4)
C2 C 0.2521(4) 0.1915(8) 0.4042(4)
C3 C 0.4654(4) 0.3164(7) 0.5772(4)
C4 C 0.6001(4) 0.2623(6) 0.5827(4)
C5 C 0.2571(3) 0.6738(7) 0.5946(4)
C6 C 0.2674(4) 0.9449(6) 0.5909(4)
N10 N 0.5157(3) 0.8224(7) 0.4201(4)
C7 C 0.5034(5) 1.0219(8) 0.2810(4)
C8 C 0.4287(5) 1.0828(10) 0.2664(5)
H3 H 0.38439 1.01822 0.27203
C9 C 0.4192(5) 1.2401(10) 0.2433(5)
H4 H 0.36840 1.28106 0.23499
C10 C 0.4840(8) 1.3355(10) 0.2325(5)
H5 H 0.47704 1.44068 0.21659
C11 C 0.5589(6) 1.2772(12) 0.2451(5)
H6 H 0.60300 1.34209 0.23822
C12 C 0.5684(6) 1.1199(13) 0.2683(5)
H7 H 0.61934 1.07932 0.27552
C13 C 0.5126(4) 0.8516(7) 0.3087(4)
H8 H 0.46843 0.79303 0.28103
H9 H 0.56099 0.81157 0.27898
C14 C 0.5859(5) 0.9024(10) 0.4652(5)
H10 H 0.58153 1.01353 0.45549
H11 H 0.63369 0.86493 0.43438
H12 H 0.58770 0.87995 0.53486
C15 C 0.5252(6) 0.6483(8) 0.4357(6)
H13 H 0.57387 0.61385 0.40568
H14 H 0.52657 0.62618 0.50535
H15 H 0.48126 0.59416 0.40598
C16 C 0.4413(5) 0.8763(10) 0.4697(6)
H16 H 0.44436 0.85420 0.53925
H17 H 0.39656 0.82220 0.44172
H18 H 0.43504 0.98713 0.45993
Ni1* Ni 0.28128(4) 1.30855(7) 0.61500(6)
Ni1B Ni 0.78128(4) 0.19145(7) 0.61500(6)
N6B N 0.1587(3) 0.2784(4) 0.6138(5)
N9* N 0.2889(3) 0.0672(4) 0.6077(5)
#END
