
#######################################################################
#
#                 Cambridge Crystallographic Data Centre
#                                CCDC
#
#######################################################################
#
# If this CIF has been generated from an entry in the Cambridge
# Structural Database, then it will include bibliographic, chemical,
# crystal, experimental, refinement or atomic coordinate data resulting
# from the CCDC's data processing and validation procedures.
#
#######################################################################

data_CSD_CIF_WUQSOT
_audit_creation_date 2020-07-31
_audit_creation_method CSD-ConQuest-V1
_database_code_CSD WUQSOT
_database_code_depnum_ccdc_archive 'CCDC 2012682'
_chemical_formula_sum 'C8 H10 Br1 N1 O4 Pb1 S1'
_chemical_formula_moiety
;
(C6 H2 Br1 O4 Pb1 S1 1-)n,n(C2 H8 N1 1+)
;
_journal_coden_Cambridge 182
_journal_volume 56
_journal_year 2020
_journal_page_first 10078
_journal_name_full 'Chem.Commun. '
loop_
_publ_author_name
"Xueling Song"
"Chengdong Peng"
"Xiaoxiang Xu"
"Jinlin Yin"
"Honghan Fei"
_chemical_name_systematic
;
catena-(dimethylammonium (\m-bromo)-(\m-thiophene-2,5-dicarboxylato)-lead)
;
_cell_volume   1932.259
_exptl_crystal_colour 'colorless'
_exptl_crystal_density_diffrn 2.595
_exptl_crystal_description 'block'
_diffrn_ambient_temperature 299
_refine_special_details
;
C7,C8,N1 and C7',C8',N1' disordered over two sites with occupancies 
0.668:0.332.
;
#These two values have been output from a single CSD field.
_refine_ls_R_factor_gt 0.021
_refine_ls_wR_factor_gt 0.021
_symmetry_cell_setting hexagonal
_symmetry_space_group_name_H-M 'P 65'
_symmetry_Int_Tables_number 170
loop_
_symmetry_equiv_pos_site_id
_symmetry_equiv_pos_as_xyz
1 x,y,z
2 x-y,x,5/6+z
3 y,-x+y,1/6+z
4 -y,x-y,2/3+z
5 -x+y,-x,1/3+z
6 -x,-y,1/2+z
_cell_length_a 10.1079(9)
_cell_length_b 10.1079(9)
_cell_length_c 21.838(3)
_cell_angle_alpha 90
_cell_angle_beta 90
_cell_angle_gamma 120
_cell_formula_units_Z 6
loop_
_atom_type_symbol
_atom_type_radius_bond
C 0.68
H 0.23
Br 1.21
N 0.68
O 0.68
Pb 1.46
S 1.02
loop_
_atom_site_label
_atom_site_type_symbol
_atom_site_fract_x
_atom_site_fract_y
_atom_site_fract_z
Pb1 Pb 1.163879(19) 1.05721(2) 0.578550(5)
S1 S 0.57694(15) 0.48846(14) 0.58222(6)
Br1 Br 1.20155(8) 1.23555(7) 0.69464(2)
C1 C 0.8167(7) 0.7355(7) 0.6424(3)
O1 O 0.9304(5) 0.8704(5) 0.6378(2)
C2 C 0.7139(6) 0.6785(6) 0.5886(3)
O2 O 0.7896(6) 0.6563(6) 0.6890(2)
C3 C 0.7140(7) 0.7601(7) 0.5386(3)
H1 H 0.7824(7) 0.8638(7) 0.5332(3)
O3 O 0.3416(6) 0.4284(5) 0.4313(2)
O4 O 0.3382(5) 0.2580(5) 0.49717(19)
C4 C 0.5990(8) 0.6696(7) 0.4966(3)
H2 H 0.5806(8) 0.7081(7) 0.4609(3)
C5 C 0.3905(6) 0.3937(6) 0.4783(3)
C6 C 0.5176(6) 0.5207(6) 0.5130(2)
N1 N 1.1253(18) 1.6024(16) 0.6340(5)
H3 H 1.1424(18) 1.6537(16) 0.6695(5)
H4 H 1.1139(18) 1.6594(16) 0.6051(5)
C7 C 1.262(2) 1.603(3) 0.6198(7)
H5 H 1.298(12) 1.65(2) 0.580(4)
H6 H 1.338(7) 1.661(19) 0.650(5)
H7 H 1.243(6) 1.500(3) 0.619(9)
C8 C 0.983(2) 1.469(2) 0.6400(7)
H8 H 0.925(9) 1.483(8) 0.672(6)
H9 H 0.929(8) 1.448(11) 0.602(3)
H10 H 0.998(2) 1.385(5) 0.651(8)
N2? N 1.1175(15) 1.5500(16) 0.5868(5)
H11? H 1.1226(15) 1.6229(16) 0.5616(5)
H12? H 1.0864(15) 1.4662(16) 0.5634(5)
C9? C 1.2687(19) 1.597(3) 0.6019(7)
H13? H 1.326(5) 1.706(3) 0.605(8)
H14? H 1.272(2) 1.552(17) 0.640(4)
H15? H 1.313(7) 1.565(18) 0.570(4)
C10? C 0.995(2) 1.515(3) 0.6261(7)
H16? H 0.901(3) 1.46(2) 0.604(2)
H17? H 0.996(14) 1.45(2) 0.659(5)
H18? H 1.004(13) 1.608(3) 0.642(8)
Pb1* Pb 0.163879(19) 0.05721(2) 0.578550(5)
Pb1A Pb 0.106669(19) 0.163879(20) 0.411883(5)
Pb1B Pb 1.057210(19) 0.893331(20) 0.745217(5)
Br1A Br 0.96600(8) 1.20155(7) 0.527973(20)
O1A O 1.0600(5) 0.9304(5) 0.471133(200)
O2A O 1.1333(6) 0.7896(6) 0.522333(200)
O3B O 1.4284(6) 1.0868(5) 0.597967(200)
O4* O 1.3382(5) 1.2580(5) 0.49717(19)
O4B O 1.2580(5) 0.9198(5) 0.663837(190)
#END
