
#######################################################################
#
#                 Cambridge Crystallographic Data Centre
#                                CCDC
#
#######################################################################
#
# If this CIF has been generated from an entry in the Cambridge
# Structural Database, then it will include bibliographic, chemical,
# crystal, experimental, refinement or atomic coordinate data resulting
# from the CCDC's data processing and validation procedures.
#
#######################################################################

data_CSD_CIF_WUSFUO
_audit_creation_date 2020-08-02
_audit_creation_method CSD-ConQuest-V1
_database_code_CSD WUSFUO
_database_code_depnum_ccdc_archive 'CCDC 2006250'
_chemical_formula_sum 'C36 H32 N6 Ni3 O18'
_chemical_formula_moiety
;
2(C2 H8 N1 1+),n(C32 H12 N4 Ni3 O16 2-),2(H2 O1)
;
_journal_coden_Cambridge 315
_journal_volume 243
_journal_year 2020
_journal_page_first 118762
_journal_name_full 'Spectrochim.Acta,Part A '
loop_
_publ_author_name
"Xiao-Yu Liu"
"Jun Chen"
"Jing Li"
_chemical_name_systematic
;
catena-[bis(dimethylammonium) 
bis(\m-5,5'-diazenediyldi(benzene-1,3-dicarboxylato))-tri-nickel(ii) 
dihydrate]
;
_cell_volume   2135.047
_exptl_crystal_colour 'green'
_exptl_crystal_description 'block'
_diffrn_ambient_temperature 100
_refine_special_details
;
Disordered cation and solvent molecules were not modelled and the disordered 
density was taken into account using the SQUEEZE/PLATON procedure.
;
#These two values have been output from a single CSD field.
_refine_ls_R_factor_gt 0.0918
_refine_ls_wR_factor_gt 0.0918
_symmetry_cell_setting monoclinic
_symmetry_space_group_name_H-M 'P 21/c'
_symmetry_Int_Tables_number 14
loop_
_symmetry_equiv_pos_site_id
_symmetry_equiv_pos_as_xyz
1 x,y,z
2 -x,1/2+y,1/2-z
3 -x,-y,-z
4 x,-1/2-y,-1/2+z
_cell_length_a 12.7135(2)
_cell_length_b 14.5529(1)
_cell_length_c 13.1470(2)
_cell_angle_alpha 90
_cell_angle_beta 118.629(2)
_cell_angle_gamma 90
_cell_formula_units_Z 2
loop_
_atom_type_symbol
_atom_type_radius_bond
C 0.68
H 0.23
N 0.68
Ni 1.24
O 0.68
loop_
_atom_site_label
_atom_site_type_symbol
_atom_site_fract_x
_atom_site_fract_y
_atom_site_fract_z
Ni1 Ni 0.50000 0.50000 0.00000
Ni2 Ni 0.77553(9) 0.44045(7) 0.02578(9)
O1 O 0.5397(4) 0.5725(3) 0.8841(4)
O2 O 0.3867(4) 0.8872(3) 0.4952(4)
O3 O 0.8263(4) 0.5355(4) 0.1522(4)
O4 O 0.6485(4) 0.5513(3) 0.1460(4)
O5 O 0.7095(4) 0.5245(4) 0.8873(4)
O6 O 1.1031(5) 0.8137(4) 0.3448(5)
O7 O 0.3137(5) 0.8248(4) 0.6015(5)
O8 O 1.0676(5) 0.8991(4) 0.4644(5)
N1 N 0.7155(5) 0.6651(4) 0.5411(5)
N2 N 0.7429(5) 0.7376(4) 0.5084(5)
C1 C 0.7988(6) 0.7225(5) 0.4382(6)
C2 C 0.6156(6) 0.5716(4) 0.8471(6)
C3 C 0.5610(6) 0.7507(5) 0.5630(6)
H1 H 0.55056 0.79129 0.50228
C4 C 0.9416(6) 0.7684(5) 0.3787(6)
C5 C 0.7563(6) 0.5712(5) 0.1848(6)
C6 C 0.6466(6) 0.6815(5) 0.5999(6)
C7 C 0.5955(6) 0.6333(5) 0.7477(6)
C8 C 0.8857(7) 0.7809(5) 0.4473(6)
H2 H 0.90902 0.83070 0.50040
C9 C 0.7571(6) 0.6532(5) 0.3518(6)
H3 H 0.69327 0.61420 0.34275
C10 C 0.4916(6) 0.7585(5) 0.6172(6)
C11 C 0.8083(6) 0.6419(5) 0.2804(6)
C12 C 0.6640(6) 0.6227(5) 0.6909(6)
H4 H 0.72251 0.57542 0.71428
C13 C 0.5076(6) 0.6999(4) 0.7096(6)
H5 H 0.45808 0.70641 0.74504
C14 C 1.0435(6) 0.8311(5) 0.3965(6)
C15 C 0.3931(6) 0.8270(5) 0.5708(6)
C16 C 0.9032(6) 0.6996(5) 0.2960(6)
H6 H 0.94134 0.69138 0.24970
Ni2B Ni 0.22447(9) 0.55955(7) -0.02578(9)
O1B O 0.4603(4) 0.4275(3) -0.8841(4)
O2B O 0.6133(4) 0.1128(3) -0.4952(4)
O3B O 0.1737(4) 0.4645(4) -0.1522(4)
O4B O 0.3515(4) 0.4487(3) -0.1460(4)
O5B O 0.2905(4) 0.4755(4) -0.8873(4)
O6B O -0.1031(5) 0.1863(4) -0.3448(5)
O7B O 0.6863(5) 0.1752(4) -0.6015(5)
O8B O -0.0676(5) 0.1009(4) -0.4644(5)
N1B N 0.2845(5) 0.3349(4) -0.5411(5)
N2B N 0.2571(5) 0.2624(4) -0.5084(5)
C1B C 0.2012(6) 0.2775(5) -0.4382(6)
C2B C 0.3844(6) 0.4284(4) -0.8471(6)
C3B C 0.4390(6) 0.2493(5) -0.5630(6)
H1B H 0.44944 0.20871 -0.50228
C4B C 0.0584(6) 0.2316(5) -0.3787(6)
C5B C 0.2437(6) 0.4288(5) -0.1848(6)
C6B C 0.3534(6) 0.3185(5) -0.5999(6)
C7B C 0.4045(6) 0.3667(5) -0.7477(6)
C8B C 0.1143(7) 0.2191(5) -0.4473(6)
H2B H 0.09098 0.16930 -0.50040
C9B C 0.2429(6) 0.3468(5) -0.3518(6)
H3B H 0.30673 0.38580 -0.34275
C10B C 0.5084(6) 0.2415(5) -0.6172(6)
C11B C 0.1917(6) 0.3581(5) -0.2804(6)
C12B C 0.3360(6) 0.3773(5) -0.6909(6)
H4B H 0.27749 0.42458 -0.71428
C13B C 0.4924(6) 0.3001(4) -0.7096(6)
H5B H 0.54192 0.29359 -0.74504
C14B C -0.0435(6) 0.1689(5) -0.3965(6)
C15B C 0.6069(6) 0.1730(5) -0.5708(6)
C16B C 0.0968(6) 0.3004(5) -0.2960(6)
H6B H 0.05866 0.30862 -0.24970
Ni1* Ni 0.50000 0.50000 -1.00000
Ni1** Ni 0.50000 0.50000 1.00000
Ni1A Ni 0.50000 0.00000 -0.50000
Ni1A* Ni 0.50000 1.00000 0.50000
Ni2* Ni 0.77553(9) 0.44045(7) 1.02578(9)
Ni2A Ni 0.22447(9) 0.94045(7) 0.47422(9)
Ni2A* Ni 1.22447(9) 0.94045(7) 0.47422(9)
Ni2B* Ni 0.22447(9) 0.55955(7) -1.02578(9)
Ni2C Ni -0.22447(9) 0.05955(7) -0.47422(9)
Ni2C* Ni 0.77553(9) 0.05955(7) -0.47422(9)
O1* O 0.5397(4) 0.5725(3) -0.1159(4)
O1B* O 0.4603(4) 0.4275(3) 0.1159(4)
O2A O 0.6133(4) 0.3872(3) 0.0048(4)
O2C O 0.3867(4) 0.6128(3) -0.0048(4)
O5* O 0.7095(4) 0.5245(4) -0.1127(4)
O5B* O 0.2905(4) 0.4755(4) 0.1127(4)
O6A O 0.8969(5) 0.3137(4) 0.1552(5)
O6C O 0.1031(5) 0.6863(4) -0.1552(5)
O7A O 0.6863(5) 0.3248(4) -0.1015(5)
O7C O 0.3137(5) 0.6752(4) 0.1015(5)
O8A O 0.9324(5) 0.3991(4) 0.0356(5)
O8C O 0.0676(5) 0.6009(4) -0.0356(5)
#END
