
#######################################################################
#
#                 Cambridge Crystallographic Data Centre
#                                CCDC
#
#######################################################################
#
# If this CIF has been generated from an entry in the Cambridge
# Structural Database, then it will include bibliographic, chemical,
# crystal, experimental, refinement or atomic coordinate data resulting
# from the CCDC's data processing and validation procedures.
#
#######################################################################

data_CSD_CIF_WUSGIC
_audit_creation_date 2015-10-14
_audit_creation_method CSD-ConQuest-V1
_database_code_CSD WUSGIC
_database_code_depnum_ccdc_archive 'CCDC 1431088'
_chemical_formula_sum 'C18 H38 Mn4 N3 O30 P3'
_chemical_formula_moiety
;
(C8 H6 Mn4 O28 P3 3-)n,n(C10 H28 N3 3+),2n(H2 O1)
;
_journal_coden_Cambridge 9
_journal_volume 54
_journal_year 2015
_journal_page_first 9387
_journal_name_full 'Inorg.Chem. '
loop_
_publ_author_name
"Lindong Luan"
"Jing Li"
"Cheng Chen"
"Zhien Lin"
"Hui Huang"
_chemical_name_systematic
;
catena-(N,N,N'',N''-Tetramethyldipropylenetriammonium 
bis(\m~3~-oxalato)-tris(\m~2~-dihydrogen 
phosphato)-bis(\m~2~-oxalato)-tetra-manganese dihydrate)
;
_cell_volume   3824.499
_exptl_crystal_colour 'light yellow'
_exptl_crystal_density_diffrn 1.892
_diffrn_ambient_temperature 293
#These two values have been output from a single CSD field.
_refine_ls_R_factor_gt 0.0411
_refine_ls_wR_factor_gt 0.0411
_symmetry_cell_setting monoclinic
_symmetry_space_group_name_H-M 'C 2/c'
_symmetry_Int_Tables_number 15
loop_
_symmetry_equiv_pos_site_id
_symmetry_equiv_pos_as_xyz
1 x,y,z
2 -x,y,1/2-z
3 1/2+x,1/2+y,z
4 1/2-x,1/2+y,1/2-z
5 -x,-y,-z
6 x,-y,-1/2+z
7 -1/2-x,-1/2-y,-z
8 -1/2+x,-1/2-y,-1/2+z
_cell_length_a 15.3680(4)
_cell_length_b 11.4122(3)
_cell_length_c 22.2812(5)
_cell_angle_alpha 90
_cell_angle_beta 101.847(3)
_cell_angle_gamma 90
_cell_formula_units_Z 4
loop_
_atom_type_symbol
_atom_type_radius_bond
C 0.68
H 0.23
Mn 1.61
N 0.68
O 0.68
P 1.05
loop_
_atom_site_label
_atom_site_type_symbol
_atom_site_fract_x
_atom_site_fract_y
_atom_site_fract_z
Mn1 Mn 0.52496(3) 0.47393(4) 0.42878(2)
Mn2 Mn 0.64519(3) 1.01612(4) 0.37964(2)
P1 P 0.61933(6) 0.73892(8) 0.42569(4)
P2 P 0.50000 1.09041(11) 0.25000
O1 O 0.55494(18) 0.6423(2) 0.40534(11)
O2 O 0.60022(18) 0.8442(2) 0.38610(13)
O3 O 0.71480(18) 0.6940(3) 0.42374(14)
H1 H 0.74960 0.71500 0.45490
O4 O 0.62763(19) 0.7688(3) 0.49542(13)
H2 H 0.57800 0.78000 0.50250
O5 O 0.56320(19) 1.0170(2) 0.29283(12)
O6 O 0.4544(2) 1.1729(3) 0.29027(14)
H3 H 0.43940 1.23400 0.27160
O7 O 0.41162(14) 0.5079(2) 0.47448(10)
O8 O 0.26312(15) 0.5083(2) 0.45713(10)
O9 O 0.40658(15) 0.4730(2) 0.35526(10)
O10 O 0.25869(15) 0.4836(2) 0.33606(10)
O11 O 0.50442(16) 0.2827(2) 0.44857(11)
O12 O 0.55510(16) 0.1054(2) 0.42975(10)
O13 O 0.61523(16) 0.3826(2) 0.38458(11)
O14 O 0.67577(15) 0.2091(2) 0.37401(12)
C1 C 0.3349(2) 0.5015(3) 0.44062(13)
C2 C 0.3327(2) 0.4840(3) 0.37087(14)
C3 C 0.5534(2) 0.2139(3) 0.42603(14)
C4 C 0.6204(2) 0.2730(3) 0.39181(14)
C5 C 0.3791(2) 0.8266(4) 0.34295(16)
H4 H 0.39500 0.76120 0.37090
H5 H 0.43180 0.87450 0.34520
C6 C 0.3508(2) 0.7796(3) 0.27826(16)
H6 H 0.29790 0.73170 0.27540
H7 H 0.33640 0.84440 0.24980
C7 C 0.4246(2) 0.7070(3) 0.26126(17)
H8 H 0.44650 0.65200 0.29410
H9 H 0.40080 0.66200 0.22460
C8 C 0.2922(4) 1.0100(4) 0.3307(2)
H10 H 0.34530 1.05670 0.33850
H11 H 0.24560 1.05120 0.34460
H12 H 0.27450 0.99530 0.28750
C9 C 0.3336(3) 0.9175(5) 0.43070(19)
H13 H 0.34080 0.84340 0.45150
H14 H 0.28740 0.96130 0.44360
H15 H 0.38830 0.96070 0.44050
N1 N 0.30944(19) 0.8978(3) 0.36366(13)
H16 H 0.25410 0.85250 0.35520
N2 N 0.50000 0.7798(4) 0.25000
H17 H 0.51920 0.82620 0.28270
O15 O 0.3816(5) 0.3674(4) 0.24405(17)
H18 H 0.35920 0.38270 0.20670
H19 H 0.42870 0.40760 0.25550
O5A O 0.43680(19) 1.0170(2) 0.20717(12)
O6A O 0.5456(2) 1.1729(3) 0.20973(14)
H3A H 0.56060 1.23400 0.22840
Mn1A Mn 0.47504(3) 0.47393(4) 0.07122(2)
Mn2A Mn 0.35481(3) 1.01612(4) 0.12036(2)
P1A P 0.38067(6) 0.73892(8) 0.07431(4)
O1A O 0.44506(18) 0.6423(2) 0.09466(11)
O2A O 0.39978(18) 0.8442(2) 0.11390(13)
O3A O 0.28520(18) 0.6940(3) 0.07626(14)
H1A H 0.25040 0.71500 0.04510
O4A O 0.37237(19) 0.7688(3) 0.00458(13)
H2A H 0.42200 0.78000 -0.00250
O7A O 0.58838(14) 0.5079(2) 0.02552(10)
O8A O 0.73688(15) 0.5083(2) 0.04287(10)
O9A O 0.59342(15) 0.4730(2) 0.14474(10)
O10A O 0.74131(15) 0.4836(2) 0.16394(10)
O11A O 0.49558(16) 0.2827(2) 0.05143(11)
O12A O 0.44490(16) 0.1054(2) 0.07025(10)
O13A O 0.38477(16) 0.3826(2) 0.11542(11)
O14A O 0.32423(15) 0.2091(2) 0.12599(12)
C1A C 0.6651(2) 0.5015(3) 0.05938(13)
C2A C 0.6673(2) 0.4840(3) 0.12913(14)
C3A C 0.4466(2) 0.2139(3) 0.07397(14)
C4A C 0.3796(2) 0.2730(3) 0.10819(14)
Mn1D Mn 0.47504(3) 0.52607(4) 0.57122(2)
Mn1E Mn 0.52496(3) 0.52607(4) -0.07122(2)
Mn2* Mn 0.64519(3) 0.01612(4) 0.37964(2)
Mn2A* Mn 0.35481(3) 0.01612(4) 0.12036(2)
Mn2B Mn 0.14519(3) 0.51612(4) 0.37964(2)
Mn2C Mn 0.85481(3) 0.51612(4) 0.12036(2)
O7D O 0.58838(14) 0.4921(2) 0.52552(10)
O7E O 0.41162(14) 0.4921(2) -0.02552(10)
O8B O 0.76312(15) 1.0083(2) 0.45713(10)
O8C O 0.23688(15) 1.0083(2) 0.04287(10)
O10B O 0.75869(15) 0.9836(2) 0.33606(10)
O10C O 0.24131(15) 0.9836(2) 0.16394(10)
O12* O 0.55510(16) 1.1054(2) 0.42975(10)
O12A* O 0.44490(16) 1.1054(2) 0.07025(10)
O14* O 0.67577(15) 1.2091(2) 0.37401(12)
O14A* O 0.32423(15) 1.2091(2) 0.12599(12)
C5A C 0.6209(2) 0.8266(4) 0.15705(16)
H4A H 0.60500 0.76120 0.12910
H5A H 0.56820 0.87450 0.15480
C6A C 0.6492(2) 0.7796(3) 0.22174(16)
H6A H 0.70210 0.73170 0.22460
H7A H 0.66360 0.84440 0.25020
C7A C 0.5754(2) 0.7070(3) 0.23874(17)
H8A H 0.55350 0.65200 0.20590
H9A H 0.59920 0.66200 0.27540
C8A C 0.7078(4) 1.0100(4) 0.1693(2)
H10A H 0.65470 1.05670 0.16150
H11A H 0.75440 1.05120 0.15540
H12A H 0.72550 0.99530 0.21250
C9A C 0.6664(3) 0.9175(5) 0.06930(19)
H13A H 0.65920 0.84340 0.04850
H14A H 0.71260 0.96130 0.05640
H15A H 0.61170 0.96070 0.05950
N1A N 0.69056(19) 0.8978(3) 0.13634(13)
H16A H 0.74590 0.85250 0.14480
H17A H 0.48080 0.82620 0.21730
#END
