
#######################################################################
#
#                 Cambridge Crystallographic Data Centre
#                                CCDC
#
#######################################################################
#
# If this CIF has been generated from an entry in the Cambridge
# Structural Database, then it will include bibliographic, chemical,
# crystal, experimental, refinement or atomic coordinate data resulting
# from the CCDC's data processing and validation procedures.
#
#######################################################################

data_CSD_CIF_WUTXUH
_audit_creation_date 2020-08-03
_audit_creation_method CSD-ConQuest-V1
_database_code_CSD WUTXUH
_database_code_depnum_ccdc_archive 'CCDC 1991923'
_chemical_formula_sum 'C56 H58 Mo2 N7 O19'
_chemical_formula_moiety
;
(C48 H26 Mo2 N4 O12 1-)n,n(C2 H8 N1 1+),2n(C3 H7 N1 O1),5n(H2 O1)
;
_journal_coden_Cambridge 222
_journal_volume 49
_journal_year 2020
_journal_page_first 11157
_journal_name_full 'Dalton Trans. '
loop_
_publ_author_name
"Zhinan Xia"
"Fengyan Li"
"Lin Xu"
"Pingyun Feng"
_chemical_name_systematic
;
catena-(dimethylammonium 
(\m-5,10,15,20-tetrakis(4-carboxylatophenyl)pophyrin)-bis(\m-oxo)-dioxo-di-mol
ybdenum dimethylformamide solvate pentahydrate)
;
_cell_volume   6669.233
_exptl_crystal_colour 'dark red'
_exptl_crystal_density_diffrn 1.32
_exptl_crystal_description 'block'
_diffrn_ambient_temperature 296
_refine_special_details
;
The SQUEEZE/PLATON program was used to model the disordered dimethylformamide 
solvent molecules.
;
#These two values have been output from a single CSD field.
_refine_ls_R_factor_gt 0.0778
_refine_ls_wR_factor_gt 0.0778
_symmetry_cell_setting orthorhombic
_symmetry_space_group_name_H-M 'P n m a'
_symmetry_Int_Tables_number 62
loop_
_symmetry_equiv_pos_site_id
_symmetry_equiv_pos_as_xyz
1 x,y,z
2 1/2-x,-y,1/2+z
3 -x,1/2+y,-z
4 1/2+x,1/2-y,1/2-z
5 -x,-y,-z
6 -1/2+x,y,-1/2-z
7 x,-1/2-y,z
8 -1/2-x,-1/2+y,-1/2+z
_cell_length_a 24.2727(9)
_cell_length_b 35.9510(13)
_cell_length_c 7.6427(3)
_cell_angle_alpha 90
_cell_angle_beta 90
_cell_angle_gamma 90
_cell_formula_units_Z 4
loop_
_atom_type_symbol
_atom_type_radius_bond
C 0.68
H 0.23
Mo 1.54
N 0.68
O 0.68
loop_
_atom_site_label
_atom_site_type_symbol
_atom_site_fract_x
_atom_site_fract_y
_atom_site_fract_z
Mo1 Mo 0.33908(4) 0.71448(3) 0.03829(14)
O1 O 0.2844(4) 0.75000 -0.0268(15)
O2 O 0.3972(4) 0.75000 0.0070(14)
O3 O 0.7844(4) 0.6725(2) -1.4606(13)
O4 O 0.3987(3) 0.6717(2) -0.0251(13)
O5 O 0.3365(3) 0.7064(2) 0.2521(11)
O6 O 0.7140(4) 0.6885(3) -1.6339(14)
O7 O 0.3603(4) 0.7007(2) -0.2450(11)
C1 C 0.6995(6) 0.6397(4) -1.4337(18)
C2 C 0.7370(7) 0.6692(4) -1.518(2)
C3 C 0.4630(5) 0.5902(3) -0.3751(19)
H1 H 0.48260 0.56980 -0.33430
C4 C 0.4527(5) 0.5946(4) -0.5525(17)
C5 C 0.6502(7) 0.6304(5) -1.509(2)
H2 H 0.63970 0.64140 -1.61340
C6 C 0.4152(5) 0.6475(3) -0.3169(18)
C7 C 0.6162(6) 0.6048(5) -1.430(2)
H3 H 0.58320 0.59830 -1.48350
C8 C 0.4066(6) 0.6516(4) -0.4934(19)
H4 H 0.38690 0.67200 -0.53450
C9 C 0.4265(6) 0.6259(4) -0.6099(19)
H5 H 0.42210 0.62980 -0.72940
C10 C 0.7161(6) 0.6224(4) -1.288(2)
H6 H 0.75130 0.62700 -1.24510
N1 N 0.5260(4) 0.5517(3) -0.9434(14)
N2 N 0.4511(4) 0.5010(3) -0.7809(15)
H7 H 0.47340 0.49980 -0.86820
C11 C 0.5638(5) 0.5727(4) -1.0375(18)
C12 C 0.5713(7) 0.6081(4) -0.954(2)
H8 H 0.59550 0.62660 -0.99100
C13 C 0.5381(6) 0.6102(4) -0.816(2)
H9 H 0.53420 0.63020 -0.73990
C14 C 0.4436(6) 0.6170(4) -0.2597(18)
H10 H 0.45010 0.61410 -0.14050
C15 C 0.5918(6) 0.5611(4) -1.1876(18)
C16 C 0.4701(5) 0.5655(4) -0.6804(18)
C17 C 0.6812(7) 0.5969(4) -1.197(2)
H11 H 0.69190 0.58620 -1.09210
C18 C 0.5853(5) 0.5272(4) -1.2707(18)
C19 C 0.4454(6) 0.5310(4) -0.6686(18)
C20 C 0.5088(6) 0.5747(3) -0.8077(18)
C21 C 0.6302(6) 0.5888(3) -1.2738(19)
C22 C 0.4025(7) 0.5215(4) -0.548(2)
H12 H 0.38870 0.53690 -0.45990
C23 C 0.3908(6) 0.6750(4) -0.193(2)
C24 C 0.6142(6) 0.5126(4) -1.4189(19)
H13 H 0.64080 0.52540 -1.48240
O8 O 0.1892(4) 0.75000 0.0865(12)
N3 N 0.2761(9) 0.75000 0.552(3)
C25 C 0.2455(9) 0.7155(5) 0.554(3)
H14 H 0.27080 0.69490 0.55250
H15 H 0.22340 0.71430 0.65800
H16 H 0.22210 0.71430 0.45290
O9 O 0.1345(10) 0.75000 -0.163(3)
O10 O 0.110(1) 0.75000 0.280(3)
O11 O 0.5207(15) 0.75000 0.293(5)
O4D O 0.6013(3) 0.3283(2) -1.9749(13)
O7D O 0.6397(4) 0.2993(2) -1.7550(11)
C3D C 0.5370(5) 0.4098(3) -1.6249(19)
H1D H 0.51740 0.43020 -1.66570
C4D C 0.5473(5) 0.4054(4) -1.4475(17)
C6D C 0.5848(5) 0.3525(3) -1.6831(18)
C8D C 0.5934(6) 0.3484(4) -1.5066(19)
H4D H 0.61310 0.32800 -1.46550
C9D C 0.5735(6) 0.3741(4) -1.3901(19)
H5D H 0.57790 0.37020 -1.27060
N1D N 0.4740(4) 0.4483(3) -1.0566(14)
N2D N 0.5489(4) 0.4990(3) -1.2191(15)
H7D H 0.52660 0.50020 -1.13180
C13D C 0.4619(6) 0.3898(4) -1.184(2)
H9D H 0.46580 0.36980 -1.26010
C14D C 0.5564(6) 0.3830(4) -1.7403(18)
H10D H 0.54990 0.38590 -1.85950
C16D C 0.5299(5) 0.4345(4) -1.3196(18)
C19D C 0.5546(6) 0.4690(4) -1.3314(18)
C20D C 0.4912(6) 0.4253(3) -1.1923(18)
C22D C 0.5975(7) 0.4785(4) -1.452(2)
H12D H 0.61130 0.46310 -1.54010
C23D C 0.6092(6) 0.3250(4) -1.807(2)
O3D O 0.2156(4) 0.3275(2) -0.5394(13)
O6D O 0.2860(4) 0.3115(3) -0.3661(14)
C1D C 0.3005(6) 0.3603(4) -0.5663(18)
C2D C 0.2630(7) 0.3308(4) -0.482(2)
C5D C 0.3498(7) 0.3696(5) -0.491(2)
H2D H 0.36030 0.35860 -0.38660
C7D C 0.3838(6) 0.3952(5) -0.570(2)
H3D H 0.41680 0.40170 -0.51650
C10D C 0.2839(6) 0.3776(4) -0.712(2)
H6D H 0.24870 0.37300 -0.75490
C11D C 0.4362(5) 0.4273(4) -0.9625(18)
C12D C 0.4287(7) 0.3919(4) -1.046(2)
H8D H 0.40450 0.37340 -1.00900
C15D C 0.4082(6) 0.4389(4) -0.8124(18)
C17D C 0.3188(7) 0.4031(4) -0.803(2)
H11D H 0.30810 0.41380 -0.90790
C18D C 0.4147(5) 0.4728(4) -0.7293(18)
C21D C 0.3698(6) 0.4112(3) -0.7262(19)
C24D C 0.3858(6) 0.4874(4) -0.5811(19)
H13D H 0.35920 0.47460 -0.51760
Mo1D Mo 0.66092(4) 0.28552(3) -2.03829(14)
O5D O 0.6635(3) 0.2936(2) -2.2521(11)
Mo1A Mo 0.16092(4) 0.28552(3) -0.46171(14)
Mo1B Mo 0.66092(4) 0.21448(3) -2.03829(14)
Mo1E Mo 0.83908(4) 0.71448(3) -1.53829(14)
Mo1F Mo 0.33908(4) 0.78552(3) 0.03829(14)
O1B O 0.7156(4) 0.25000 -1.9732(15)
O2B O 0.6028(4) 0.25000 -2.0070(14)
O3A O 0.7156(4) 0.3275(2) -1.9606(13)
O3E O 0.2844(4) 0.6725(2) -0.0394(13)
C25F C 0.2455(9) 0.7845(5) 0.554(3)
H14F H 0.27080 0.80510 0.55250
H15F H 0.22340 0.78570 0.65800
H16F H 0.22210 0.78570 0.45290
#END
