
#######################################################################
#
#                 Cambridge Crystallographic Data Centre
#                                CCDC
#
#######################################################################
#
# If this CIF has been generated from an entry in the Cambridge
# Structural Database, then it will include bibliographic, chemical,
# crystal, experimental, refinement or atomic coordinate data resulting
# from the CCDC's data processing and validation procedures.
#
#######################################################################

data_CSD_CIF_WUXYIA
_audit_creation_date 2020-08-05
_audit_creation_method CSD-ConQuest-V1
_database_code_CSD WUXYIA
_database_code_depnum_ccdc_archive 'CCDC 2021462'
_chemical_formula_sum 'C16 H32 Cl8 Fe4 N4 O16'
_chemical_formula_moiety
;
4(C2 H8 N1 1+),n(C8 Cl8 Fe4 O16 4-)
;
_journal_coden_Cambridge 1078
_journal_year 2020
_journal_name_full 'CSD Communication(Private Communication) '
loop_
_publ_author_name
"wang bin"
_chemical_name_systematic
;
catena-[tetrakis(dimethylammonium) tetrakis(\m-oxalato)-octachloro-tetra-iron]
;
_cell_volume   1908.403
_exptl_crystal_colour 'yellow'
_exptl_crystal_density_diffrn 1.816
_exptl_crystal_description 'block'
_diffrn_ambient_temperature 173
#These two values have been output from a single CSD field.
_refine_ls_R_factor_gt 0.032
_refine_ls_wR_factor_gt 0.032
_symmetry_cell_setting monoclinic
_symmetry_space_group_name_H-M 'P 21/c'
_symmetry_Int_Tables_number 14
loop_
_symmetry_equiv_pos_site_id
_symmetry_equiv_pos_as_xyz
1 x,y,z
2 -x,1/2+y,1/2-z
3 -x,-y,-z
4 x,-1/2-y,-1/2+z
_cell_length_a 10.8592(3)
_cell_length_b 13.5867(3)
_cell_length_c 13.6300(3)
_cell_angle_alpha 90
_cell_angle_beta 108.379(3)
_cell_angle_gamma 90
_cell_formula_units_Z 2
loop_
_atom_type_symbol
_atom_type_radius_bond
C 0.68
H 0.23
Cl 0.99
Fe 1.52
N 0.68
O 0.68
loop_
_atom_site_label
_atom_site_type_symbol
_atom_site_fract_x
_atom_site_fract_y
_atom_site_fract_z
Fe1 Fe 0.23156(4) 0.58147(3) 0.12209(3)
O1 O 0.24289(19) 0.57594(13) 0.42092(15)
Fe2 Fe 0.24156(4) 0.44126(3) 0.49694(3)
O2 O 0.25535(19) 0.44807(13) 0.20415(14)
Cl1 Cl 0.21697(8) 0.28328(5) 0.54233(6)
O3 O 0.15391(18) 0.50971(13) 0.59102(14)
Cl2 Cl 0.43445(8) 0.57752(6) 0.11628(6)
O4 O 0.24952(18) 0.63220(13) 0.26752(14)
Cl3 Cl 0.44011(7) 0.46873(6) 0.60772(6)
O5 O 0.26830(18) 0.39287(13) 0.36249(14)
Cl4 Cl 0.16809(8) 0.73373(5) 0.05746(6)
O6 O 0.03050(19) 0.55662(13) 0.11925(15)
O7 O -0.15450(18) 0.49443(14) 0.01294(15)
C1 C 0.2596(3) 0.45924(19) 0.2959(2)
O8 O -0.04023(19) 0.55742(14) 0.59951(14)
C2 C 0.0324(3) 0.51959(19) 0.5556(2)
C3 C -0.0359(3) 0.5146(2) 0.0380(2)
C4 C 0.2510(3) 0.5658(2) 0.3328(2)
N1 N 0.3664(3) 0.64075(18) 0.7503(2)
H1 H 0.30750 0.67460 0.70170
H2 H 0.37690 0.58300 0.72310
C5 C 0.3170(4) 0.6235(3) 0.8370(3)
H3 H 0.23640 0.58830 0.81320
H4 H 0.37900 0.58560 0.88910
H5 H 0.30320 0.68550 0.86570
C6 C 0.4903(3) 0.6946(3) 0.7789(4)
H6 H 0.51710 0.70340 0.71870
H7 H 0.47940 0.75780 0.80660
H8 H 0.55510 0.65780 0.82990
N2 N -0.1023(3) 0.71053(18) 0.19116(19)
H9 H -0.13000 0.75900 0.14560
H10 H -0.05220 0.67140 0.16760
C7 C -0.0228(3) 0.7533(3) 0.2904(3)
H11 H 0.04860 0.78900 0.28030
H12 H -0.07520 0.79730 0.31570
H13 H 0.00980 0.70160 0.33970
C8 C -0.2151(4) 0.6539(3) 0.1966(3)
H14 H -0.26140 0.62860 0.12920
H15 H -0.18630 0.60010 0.24400
H16 H -0.27120 0.69580 0.22000
O3B O -0.15391(18) 0.49029(13) 0.40898(14)
C2B C -0.0324(3) 0.48041(19) 0.4444(2)
O8B O 0.04023(19) 0.44258(14) 0.40049(14)
O6B O -0.03050(19) 0.44338(13) -0.11925(15)
C3B C 0.0359(3) 0.4854(2) -0.0380(2)
O7B O 0.15450(18) 0.50557(14) -0.01294(15)
Fe1B Fe -0.23156(4) 0.41853(3) -0.12209(3)
O1B O -0.24289(19) 0.42406(13) -0.42092(15)
Fe2B Fe -0.24156(4) 0.55874(3) -0.49694(3)
O2B O -0.25535(19) 0.55193(13) -0.20415(14)
Cl1B Cl -0.21697(8) 0.71672(5) -0.54233(6)
Cl2B Cl -0.43445(8) 0.42248(6) -0.11628(6)
O4B O -0.24952(18) 0.36780(13) -0.26752(14)
Cl3B Cl -0.44011(7) 0.53127(6) -0.60772(6)
O5B O -0.26830(18) 0.60713(13) -0.36249(14)
Cl4B Cl -0.16809(8) 0.26627(5) -0.05746(6)
C1B C -0.2596(3) 0.54076(19) -0.2959(2)
C4B C -0.2510(3) 0.4342(2) -0.3328(2)
Fe2B* Fe -0.24156(4) 0.55874(3) 0.50306(3)
O3B* O -0.15391(18) 0.49029(13) -0.59102(14)
O8* O -0.04023(19) 0.55742(14) -0.40049(14)
#END
