
#######################################################################
#
#                 Cambridge Crystallographic Data Centre
#                                CCDC
#
#######################################################################
#
# If this CIF has been generated from an entry in the Cambridge
# Structural Database, then it will include bibliographic, chemical,
# crystal, experimental, refinement or atomic coordinate data resulting
# from the CCDC's data processing and validation procedures.
#
#######################################################################

data_CSD_CIF_WUYWOE
_audit_creation_date 2015-10-16
_audit_creation_method CSD-ConQuest-V1
_database_code_CSD WUYWOE
_database_code_depnum_ccdc_archive 'CCDC 1048249'
_chemical_formula_sum 'C194 H174 Cd8 N6 O60'
_chemical_formula_moiety
;
(C176 H120 Cd6 O48)n,2(C9 H27 Cd1 N3 O6)
;
_journal_coden_Cambridge 1699
_journal_volume 3
_journal_year 2015
_journal_page_first 22915
_journal_name_full 'J.Mater.Chem.A '
loop_
_publ_author_name
"S.Seth"
"G.Savitha"
"J.N.Moorthy"
_chemical_name_systematic
;
catena-[tetrakis(\m-3,3',5,5'-tetrakis(p-carboxylatophenyl)-2,2',6,6'-tetramet
hoxy-1,1'-biphenyl)-hexa-cadmium tris(N,N-dimethylformamide)-triaqua-cadmium]
;
_chemical_name_common
;
Cd-MOF12
;
_cell_volume   7588.833
_exptl_crystal_colour 'colorless'
_exptl_crystal_density_diffrn 0.966
_exptl_special_details
;
We calculate void space in the structure

;
_exptl_crystal_description 'prism'
_diffrn_ambient_temperature 100
#These two values have been output from a single CSD field.
_refine_ls_R_factor_gt 0.0903
_refine_ls_wR_factor_gt 0.0903
_symmetry_cell_setting triclinic
_symmetry_space_group_name_H-M 'P -1'
_symmetry_Int_Tables_number 2
loop_
_symmetry_equiv_pos_site_id
_symmetry_equiv_pos_as_xyz
1 x,y,z
2 -x,-y,-z
_cell_length_a 15.6469(17)
_cell_length_b 18.471(2)
_cell_length_c 27.450(3)
_cell_angle_alpha 99.525(2)
_cell_angle_beta 90.063(2)
_cell_angle_gamma 103.876(2)
_cell_formula_units_Z 1
loop_
_atom_type_symbol
_atom_type_radius_bond
C 0.68
H 0.23
Cd 1.44
N 0.68
O 0.68
loop_
_atom_site_label
_atom_site_type_symbol
_atom_site_fract_x
_atom_site_fract_y
_atom_site_fract_z
C1 C 0.5271(5) 0.6797(5) 0.9909(3)
C2 C 0.5240(5) 0.6842(4) 0.9374(3)
C3 C 0.5521(5) 0.6342(4) 0.9045(3)
H1 H 0.57810 0.59900 0.91520
C4 C 0.5428(5) 0.6346(5) 0.8537(3)
H2 H 0.56320 0.59970 0.83140
C5 C 0.5040(5) 0.6855(4) 0.8359(3)
C6 C 0.4774(5) 0.7402(5) 0.8715(3)
H3 H 0.45370 0.77710 0.86130
C7 C 0.4867(6) 0.7382(5) 0.9207(3)
H4 H 0.46800 0.77350 0.94370
C8 C 0.4842(6) 0.6784(5) 0.7826(3)
C9 C 0.4999(6) 0.7370(5) 0.7548(3)
C10 C 0.4764(6) 0.7262(5) 0.7048(3)
C11 C 0.4349(6) 0.6498(5) 0.6807(3)
C12 C 0.4168(6) 0.5907(5) 0.7075(3)
C13 C 0.4426(5) 0.6055(5) 0.7570(3)
H5 H 0.43190 0.56530 0.77440
C14 C 0.3654(6) 0.5141(4) 0.6855(3)
C15 C 0.3800(5) 0.4770(4) 0.6386(3)
H6 H 0.42410 0.50110 0.62010
C16 C 0.3312(6) 0.4064(5) 0.6196(3)
H7 H 0.34320 0.38300 0.58850
C17 C 0.2623(5) 0.3679(5) 0.6465(3)
C18 C 0.2482(5) 0.4044(4) 0.6935(3)
H8 H 0.20330 0.38060 0.71190
C19 C 0.2996(6) 0.4752(5) 0.7133(3)
H9 H 0.29070 0.49750 0.74520
C20 C 0.2076(6) 0.2923(4) 0.6236(3)
C21 C 0.4925(5) 0.7903(4) 0.6777(3)
C22 C 0.5775(5) 0.8253(4) 0.6656(3)
C23 C 0.5918(4) 0.8887(4) 0.6422(3)
C24 C 0.5205(5) 0.9136(5) 0.6281(3)
H10 H 0.53030 0.95420 0.61110
C25 C 0.4325(5) 0.8790(5) 0.6388(3)
C26 C 0.4225(5) 0.8178(4) 0.6644(3)
C27 C 0.4820(5) 0.6459(5) 0.5983(3)
H11 H 0.50460 0.60150 0.59540
H12 H 0.52800 0.68980 0.61090
H13 H 0.46090 0.65050 0.56640
C28 C 0.6279(5) 0.8252(5) 0.7955(3)
H14 H 0.65510 0.87830 0.79900
H15 H 0.65910 0.79750 0.77220
H16 H 0.62990 0.80920 0.82690
C29 C 0.6937(8) 0.7685(7) 0.6401(4)
H17 H 0.75250 0.77190 0.65200
H18 H 0.69600 0.79740 0.61390
H19 H 0.66520 0.71650 0.62790
C30 C 0.3107(6) 0.8215(6) 0.7198(4)
H20 H 0.31800 0.87360 0.71660
H21 H 0.34620 0.81840 0.74760
H22 H 0.24990 0.79970 0.72480
C31 C 0.3596(5) 0.9102(5) 0.6248(3)
C32 C 0.2856(5) 0.8652(5) 0.5971(4)
H23 H 0.27990 0.81320 0.58900
C33 C 0.2191(5) 0.8971(5) 0.5812(4)
H24 H 0.16980 0.86670 0.56270
C34 C 0.2289(5) 0.9753(5) 0.5939(3)
C35 C 0.3006(5) 1.0185(5) 0.6229(3)
H25 H 0.30540 1.07010 0.63250
C36 C 0.3659(5) 0.9872(4) 0.6381(3)
H26 H 0.41420 1.01790 0.65730
C37 C 0.1587(6) 1.0089(5) 0.5757(3)
C38 C 0.7444(5) 0.9617(5) 0.6731(3)
H27 H 0.73190 0.94790 0.70390
C39 C 0.6814(5) 0.9332(4) 0.6346(3)
C40 C 0.7057(5) 0.9496(5) 0.5881(3)
H28 H 0.66580 0.92970 0.56130
C41 C 0.7867(5) 0.9942(5) 0.5805(3)
H29 H 0.80160 1.00280 0.54880
C42 C 0.8464(5) 1.0265(4) 0.6200(3)
C43 C 0.8226(5) 1.0086(5) 0.6676(3)
H30 H 0.86140 1.02930 0.69480
C44 C 0.9353(5) 1.0755(4) 0.6117(3)
C45 C 0.0564(5) 0.1749(5) 0.4894(3)
C46 C 0.0333(5) 0.1805(4) 0.4397(3)
C47 C -0.0055(5) 0.2384(4) 0.4293(3)
H31 H -0.01210 0.27640 0.45480
C48 C -0.0335(5) 0.2392(4) 0.3821(3)
H32 H -0.05980 0.27720 0.37620
C49 C -0.0233(5) 0.1844(5) 0.3432(3)
C50 C 0.0158(5) 0.1271(4) 0.3528(3)
H33 H 0.02300 0.08950 0.32720
C51 C 0.0430(5) 0.1268(4) 0.3999(3)
H34 H 0.06940 0.08880 0.40560
C52 C -0.0583(6) 0.1813(5) 0.2929(3)
C53 C -0.0391(5) 0.2438(5) 0.2680(3)
C54 C -0.0711(5) 0.2397(4) 0.2205(3)
C55 C -0.1284(6) 0.1706(5) 0.1963(3)
C56 C -0.1432(5) 0.1064(4) 0.2179(3)
C57 C -0.1093(5) 0.1132(5) 0.2659(3)
H35 H -0.12090 0.07030 0.28080
C58 C -0.1963(7) 0.0314(5) 0.1930(3)
C59 C -0.2643(6) -0.0086(5) 0.2185(3)
H36 H -0.27560 0.01250 0.25020
C60 C -0.3155(6) -0.0797(5) 0.1968(3)
H37 H -0.36000 -0.10570 0.21440
C61 C -0.3004(6) -0.1113(4) 0.1502(3)
C62 C -0.2322(7) -0.0712(5) 0.1251(4)
C63 C -0.1806(6) 0.0006(5) 0.1465(3)
C64 C -0.3532(6) -0.1894(6) 0.1256(3)
C65 C -0.0535(5) 0.3091(5) 0.1958(3)
C66 C 0.0279(6) 0.3375(4) 0.1784(3)
C67 C 0.0458(5) 0.4067(4) 0.1603(3)
C68 C -0.0211(5) 0.4437(5) 0.1569(3)
H38 H -0.00110 0.49430 0.17600
C69 C -0.1083(5) 0.4118(4) 0.1725(3)
C70 C -0.1202(6) 0.3463(5) 0.1920(3)
C71 C -0.2143(7) 0.3544(6) 0.2601(4)
H39 H -0.16990 0.39460 0.27590
H40 H -0.26640 0.33870 0.27590
C72 C 0.1002(5) 0.3184(6) 0.3022(4)
H41 H 0.12680 0.36530 0.32340
H42 H 0.13020 0.31530 0.27170
H43 H 0.10450 0.27690 0.31820
C73 C 0.0895(9) 0.2310(6) 0.1519(4)
H44 H 0.14510 0.22900 0.13770
H45 H 0.04540 0.22330 0.12600
H46 H 0.07300 0.19210 0.17180
C74 C -0.2507(6) 0.1538(6) 0.1407(4)
H47 H -0.26690 0.13520 0.10640
H48 H -0.26910 0.19980 0.15090
H49 H -0.27890 0.11670 0.16010
C75 C -0.1801(5) 0.4456(5) 0.1614(3)
C76 C -0.2570(6) 0.4025(5) 0.1368(4)
H50 H -0.26770 0.35010 0.13310
C77 C -0.3187(6) 0.4330(5) 0.1175(4)
H51 H -0.36800 0.40240 0.09920
C78 C -0.3049(5) 0.5111(5) 0.1263(3)
C79 C -0.2328(6) 0.5547(5) 0.1538(4)
H52 H -0.22560 0.60680 0.16120
C80 C -0.1716(5) 0.5229(4) 0.1704(3)
H53 H -0.12220 0.55400 0.18850
C81 C -0.3702(6) 0.5461(5) 0.1018(3)
C82 C 0.1317(5) 0.4429(4) 0.1447(3)
C83 C 0.1719(6) 0.4044(5) 0.1062(4)
H54 H 0.14660 0.35420 0.09270
C84 C 0.2515(6) 0.4439(5) 0.0882(4)
H55 H 0.27720 0.41920 0.06210
C85 C 0.2937(5) 0.5206(5) 0.1090(3)
C86 C 0.2532(6) 0.5553(5) 0.1469(4)
H56 H 0.27960 0.60470 0.16180
C87 C 0.1727(6) 0.5181(5) 0.1637(4)
H57 H 0.14560 0.54440 0.18840
C88 C 0.3756(6) 0.5578(5) 0.0888(3)
O1 O 0.5609(3) 0.6299(3) 1.00339(19)
O2 O 0.4981(4) 0.7256(3) 1.0212(2)
O3 O 0.9802(3) 1.1211(3) 0.6472(2)
O4 O 0.9607(3) 1.0744(3) 0.5684(2)
O5 O 0.1606(4) 1.0754(4) 0.5988(2)
O6 O 0.1084(3) 0.9736(3) 0.5400(2)
O7 O 0.2301(4) 0.2539(3) 0.5873(2)
O8 O 0.1350(4) 0.2702(3) 0.6446(2)
O9 O 0.4112(4) 0.6397(3) 0.6314(2)
O10 O 0.5373(4) 0.8110(3) 0.7780(2)
O11 O 0.3367(3) 0.7821(3) 0.6769(2)
O12 O 0.6452(3) 0.7978(3) 0.6798(2)
O13 O 0.0889(3) 0.1196(3) 0.49749(19)
O14 O 0.0455(4) 0.2240(3) 0.5256(2)
O15 O 0.3959(5) 0.5271(5) 0.0480(3)
O16 O 0.4166(4) 0.6199(4) 0.1124(2)
O17 O -0.4222(4) -0.2173(3) 0.1461(2)
O18 O -0.3267(4) -0.2202(4) 0.0868(2)
O19 O -0.4151(5) 0.5058(4) 0.0661(3)
O20 O -0.3682(4) 0.6136(3) 0.1198(2)
O21 O -0.2023(4) 0.3167(4) 0.2114(3)
O22 O 0.0973(4) 0.3050(3) 0.1828(2)
O23 O -0.1564(4) 0.1685(3) 0.1480(2)
O24 O 0.0094(4) 0.3150(3) 0.2921(2)
Cd1 Cd 0.50000 0.50000 1.00000
Cd2 Cd 0.54771(4) 0.67492(3) 1.08798(2)
Cd3 Cd 0.00000 0.00000 0.50000
Cd4 Cd 0.09270(4) 0.16377(3) 0.58609(2)
C89 C 0.2165(12) 0.1558(8) 0.7061(4)
H58 H 0.17160 0.12630 0.68400
H59 H 0.27350 0.14910 0.70310
C90 C 0.1149(9) 0.2197(7) 0.7480(4)
H60 H 0.07150 0.18480 0.72740
C91 C 0.2742(9) 0.2652(8) 0.7768(5)
H61 H 0.26200 0.26550 0.81110
H62 H 0.28190 0.31530 0.76950
H63 H 0.32710 0.24830 0.76980
C92 C 0.0016(9) 0.3764(8) 0.7136(5)
H64 H 0.01950 0.33340 0.69950
C93 C -0.0289(8) 0.4988(7) 0.7051(4)
H65 H -0.04950 0.49520 0.73770
H66 H -0.07750 0.49690 0.68320
H67 H 0.01430 0.54580 0.70590
O25 O 0.0926(5) 0.2707(5) 0.7766(3)
O26 O -0.0293(6) 0.3791(5) 0.7545(3)
N1 N 0.0107(7) 0.4360(6) 0.6876(4)
N2 N 0.1979(9) 0.2120(6) 0.7451(4)
C94 C 0.0494(8) 0.4326(7) 0.6412(4)
H68 H 0.09620 0.47720 0.64140
H69 H 0.00570 0.42980 0.61590
H70 H 0.07280 0.38860 0.63460
Cd5 Cd -0.04768(6) 0.27512(5) 0.79218(4)
O27 O -0.1006(6) 0.2030(6) 0.7162(4)
O28 O 0.0039(9) 0.3456(8) 0.8670(5)
O29 O -0.1906(8) 0.2779(6) 0.8049(5)
O30 O -0.0716(14) 0.1570(11) 0.8232(7)
N3 N 0.1159(12) 0.3640(11) 0.9311(6)
C95 C 0.0910(13) 0.4429(11) 0.9518(7)
H71 H 0.06960 0.46180 0.92490
H72 H 0.14240 0.47900 0.96740
H73 H 0.04610 0.43490 0.97560
C96 C 0.0729(15) 0.3254(14) 0.8884(8)
H74 H 0.09060 0.28320 0.87260
C97 C 0.1821(13) 0.3254(12) 0.9579(7)
H75 H 0.16030 0.27140 0.95150
H76 H 0.18530 0.34330 0.99290
H77 H 0.23970 0.33880 0.94500
H78? H -0.25790 -0.06550 0.09420
H79? H -0.18660 0.03580 0.12490
H80? H -0.19200 -0.10350 0.11660
H81? H -0.11950 -0.00230 0.14630
H82? H -0.02690 0.44940 0.12270
C1A C -0.5271(5) -0.6797(5) 0.0091(3)
C2A C -0.5240(5) -0.6842(4) 0.0626(3)
C3A C -0.5521(5) -0.6342(4) 0.0955(3)
H1A H -0.57810 -0.59900 0.08480
C4A C -0.5428(5) -0.6346(5) 0.1463(3)
H2A H -0.56320 -0.59970 0.16860
C5A C -0.5040(5) -0.6855(4) 0.1641(3)
C6A C -0.4774(5) -0.7402(5) 0.1285(3)
H3A H -0.45370 -0.77710 0.13870
C7A C -0.4867(6) -0.7382(5) 0.0793(3)
H4A H -0.46800 -0.77350 0.05630
C8A C -0.4842(6) -0.6784(5) 0.2174(3)
C9A C -0.4999(6) -0.7370(5) 0.2452(3)
C10A C -0.4764(6) -0.7262(5) 0.2952(3)
C11A C -0.4349(6) -0.6498(5) 0.3193(3)
C12A C -0.4168(6) -0.5907(5) 0.2925(3)
C13A C -0.4426(5) -0.6055(5) 0.2430(3)
H5A H -0.43190 -0.56530 0.22560
C14A C -0.3654(6) -0.5141(4) 0.3145(3)
C15A C -0.3800(5) -0.4770(4) 0.3614(3)
H6A H -0.42410 -0.50110 0.37990
C16A C -0.3312(6) -0.4064(5) 0.3804(3)
H7A H -0.34320 -0.38300 0.41150
C17A C -0.2623(5) -0.3679(5) 0.3535(3)
C18A C -0.2482(5) -0.4044(4) 0.3065(3)
H8A H -0.20330 -0.38060 0.28810
C19A C -0.2996(6) -0.4752(5) 0.2867(3)
H9A H -0.29070 -0.49750 0.25480
C20A C -0.2076(6) -0.2923(4) 0.3764(3)
C21A C -0.4925(5) -0.7903(4) 0.3223(3)
C22A C -0.5775(5) -0.8253(4) 0.3344(3)
C23A C -0.5918(4) -0.8887(4) 0.3578(3)
C24A C -0.5205(5) -0.9136(5) 0.3719(3)
H10A H -0.53030 -0.95420 0.38890
C25A C -0.4325(5) -0.8790(5) 0.3612(3)
C26A C -0.4225(5) -0.8178(4) 0.3356(3)
C27A C -0.4820(5) -0.6459(5) 0.4017(3)
H11A H -0.50460 -0.60150 0.40460
H12A H -0.52800 -0.68980 0.38910
H13A H -0.46090 -0.65050 0.43360
C28A C -0.6279(5) -0.8252(5) 0.2045(3)
H14A H -0.65510 -0.87830 0.20100
H15A H -0.65910 -0.79750 0.22780
H16A H -0.62990 -0.80920 0.17310
C29A C -0.6937(8) -0.7685(7) 0.3599(4)
H17A H -0.75250 -0.77190 0.34800
H18A H -0.69600 -0.79740 0.38610
H19A H -0.66520 -0.71650 0.37210
C30A C -0.3107(6) -0.8215(6) 0.2802(4)
H20A H -0.31800 -0.87360 0.28340
H21A H -0.34620 -0.81840 0.25240
H22A H -0.24990 -0.79970 0.27520
C31A C -0.3596(5) -0.9102(5) 0.3752(3)
C32A C -0.2856(5) -0.8652(5) 0.4029(4)
H23A H -0.27990 -0.81320 0.41100
C33A C -0.2191(5) -0.8971(5) 0.4188(4)
H24A H -0.16980 -0.86670 0.43730
C34A C -0.2289(5) -0.9753(5) 0.4061(3)
C35A C -0.3006(5) -1.0185(5) 0.3771(3)
H25A H -0.30540 -1.07010 0.36750
C36A C -0.3659(5) -0.9872(4) 0.3619(3)
H26A H -0.41420 -1.01790 0.34270
C37A C -0.1587(6) -1.0089(5) 0.4243(3)
C38A C -0.7444(5) -0.9617(5) 0.3269(3)
H27A H -0.73190 -0.94790 0.29610
C39A C -0.6814(5) -0.9332(4) 0.3654(3)
C40A C -0.7057(5) -0.9496(5) 0.4119(3)
H28A H -0.66580 -0.92970 0.43870
C41A C -0.7867(5) -0.9942(5) 0.4195(3)
H29A H -0.80160 -1.00280 0.45120
C42A C -0.8464(5) -1.0265(4) 0.3800(3)
C43A C -0.8226(5) -1.0086(5) 0.3324(3)
H30A H -0.86140 -1.02930 0.30520
C44A C -0.9353(5) -1.0755(4) 0.3883(3)
C45A C -0.0564(5) -0.1749(5) 0.5106(3)
C46A C -0.0333(5) -0.1805(4) 0.5603(3)
C47A C 0.0055(5) -0.2384(4) 0.5707(3)
H31A H 0.01210 -0.27640 0.54520
C48A C 0.0335(5) -0.2392(4) 0.6179(3)
H32A H 0.05980 -0.27720 0.62380
C49A C 0.0233(5) -0.1844(5) 0.6568(3)
C50A C -0.0158(5) -0.1271(4) 0.6472(3)
H33A H -0.02300 -0.08950 0.67280
C51A C -0.0430(5) -0.1268(4) 0.6001(3)
H34A H -0.06940 -0.08880 0.59440
C52A C 0.0583(6) -0.1813(5) 0.7071(3)
C53A C 0.0391(5) -0.2438(5) 0.7320(3)
C54A C 0.0711(5) -0.2397(4) 0.7795(3)
C55A C 0.1284(6) -0.1706(5) 0.8037(3)
C56A C 0.1432(5) -0.1064(4) 0.7821(3)
C57A C 0.1093(5) -0.1132(5) 0.7341(3)
H35A H 0.12090 -0.07030 0.71920
C58A C 0.1963(7) -0.0314(5) 0.8070(3)
C59A C 0.2643(6) 0.0086(5) 0.7815(3)
H36A H 0.27560 -0.01250 0.74980
C60A C 0.3155(6) 0.0797(5) 0.8032(3)
H37A H 0.36000 0.10570 0.78560
C61A C 0.3004(6) 0.1113(4) 0.8498(3)
C62A C 0.2322(7) 0.0712(5) 0.8749(4)
C63A C 0.1806(6) -0.0006(5) 0.8535(3)
C64A C 0.3532(6) 0.1894(6) 0.8744(3)
C65A C 0.0535(5) -0.3091(5) 0.8042(3)
C66A C -0.0279(6) -0.3375(4) 0.8216(3)
C67A C -0.0458(5) -0.4067(4) 0.8397(3)
C68A C 0.0211(5) -0.4437(5) 0.8431(3)
H38A H 0.00110 -0.49430 0.82400
C69A C 0.1083(5) -0.4118(4) 0.8275(3)
C70A C 0.1202(6) -0.3463(5) 0.8080(3)
C71A C 0.2143(7) -0.3544(6) 0.7399(4)
H39A H 0.16990 -0.39460 0.72410
H40A H 0.26640 -0.33870 0.72410
C72A C -0.1002(5) -0.3184(6) 0.6978(4)
H41A H -0.12680 -0.36530 0.67660
H42A H -0.13020 -0.31530 0.72830
H43A H -0.10450 -0.27690 0.68180
C73A C -0.0895(9) -0.2310(6) 0.8481(4)
H44A H -0.14510 -0.22900 0.86230
H45A H -0.04540 -0.22330 0.87400
H46A H -0.07300 -0.19210 0.82820
C74A C 0.2507(6) -0.1538(6) 0.8593(4)
H47A H 0.26690 -0.13520 0.89360
H48A H 0.26910 -0.19980 0.84910
H49A H 0.27890 -0.11670 0.83990
C75A C 0.1801(5) -0.4456(5) 0.8386(3)
C76A C 0.2570(6) -0.4025(5) 0.8632(4)
H50A H 0.26770 -0.35010 0.86690
C77A C 0.3187(6) -0.4330(5) 0.8825(4)
H51A H 0.36800 -0.40240 0.90080
C78A C 0.3049(5) -0.5111(5) 0.8737(3)
C79A C 0.2328(6) -0.5547(5) 0.8462(4)
H52A H 0.22560 -0.60680 0.83880
C80A C 0.1716(5) -0.5229(4) 0.8296(3)
H53A H 0.12220 -0.55400 0.81150
C81A C 0.3702(6) -0.5461(5) 0.8982(3)
C82A C -0.1317(5) -0.4429(4) 0.8553(3)
C83A C -0.1719(6) -0.4044(5) 0.8938(4)
H54A H -0.14660 -0.35420 0.90730
C84A C -0.2515(6) -0.4439(5) 0.9118(4)
H55A H -0.27720 -0.41920 0.93790
C85A C -0.2937(5) -0.5206(5) 0.8910(3)
C86A C -0.2532(6) -0.5553(5) 0.8531(4)
H56A H -0.27960 -0.60470 0.83820
C87A C -0.1727(6) -0.5181(5) 0.8363(4)
H57A H -0.14560 -0.54440 0.81160
C88A C -0.3756(6) -0.5578(5) 0.9112(3)
O1A O -0.5609(3) -0.6299(3) -0.00339(19)
O2A O -0.4981(4) -0.7256(3) -0.0212(2)
O3A O -0.9802(3) -1.1211(3) 0.3528(2)
O4A O -0.9607(3) -1.0744(3) 0.4316(2)
O5A O -0.1606(4) -1.0754(4) 0.4012(2)
O6A O -0.1084(3) -0.9736(3) 0.4600(2)
O7A O -0.2301(4) -0.2539(3) 0.4127(2)
O8A O -0.1350(4) -0.2702(3) 0.3554(2)
O9A O -0.4112(4) -0.6397(3) 0.3686(2)
O10A O -0.5373(4) -0.8110(3) 0.2220(2)
O11A O -0.3367(3) -0.7821(3) 0.3231(2)
O12A O -0.6452(3) -0.7978(3) 0.3202(2)
O13A O -0.0889(3) -0.1196(3) 0.50251(19)
O14A O -0.0455(4) -0.2240(3) 0.4744(2)
O15A O -0.3959(5) -0.5271(5) 0.9520(3)
O16A O -0.4166(4) -0.6199(4) 0.8876(2)
O17A O 0.4222(4) 0.2173(3) 0.8539(2)
O18A O 0.3267(4) 0.2202(4) 0.9132(2)
O19A O 0.4151(5) -0.5058(4) 0.9339(3)
O20A O 0.3682(4) -0.6136(3) 0.8802(2)
O21A O 0.2023(4) -0.3167(4) 0.7886(3)
O22A O -0.0973(4) -0.3050(3) 0.8172(2)
O23A O 0.1564(4) -0.1685(3) 0.8520(2)
O24A O -0.0094(4) -0.3150(3) 0.7079(2)
Cd2A Cd -0.54771(4) -0.67492(3) -0.08798(2)
Cd4A Cd -0.09270(4) -0.16377(3) 0.41391(2)
O1A* O 0.4391(3) 0.3701(3) 0.99661(19)
O3* O -0.0198(3) 0.1211(3) 0.6472(2)
O3A* O 0.0198(3) -0.1211(3) 0.3528(2)
O4* O -0.0393(3) 0.0744(3) 0.5684(2)
O4A* O 0.0393(3) -0.0744(3) 0.4316(2)
O5* O 0.1606(4) 0.0754(4) 0.5988(2)
O5A* O -0.1606(4) -0.0754(4) 0.4012(2)
O6* O 0.1084(3) -0.0264(3) 0.5400(2)
O6A* O -0.1084(3) 0.0264(3) 0.4600(2)
O15* O 0.3959(5) 0.5271(5) 1.0480(3)
O15A* O 0.6041(5) 0.4729(5) 0.9520(3)
O16* O 0.4166(4) 0.6199(4) 1.1124(2)
O16A* O -0.4166(4) -0.6199(4) -0.1124(2)
O17* O 0.5778(4) 0.7827(3) 1.1461(2)
O17A* O -0.5778(4) -0.7827(3) -0.1461(2)
O18* O 0.6733(4) 0.7798(4) 1.0868(2)
O18A* O -0.6733(4) -0.7798(4) -0.0868(2)
O19* O 0.5849(5) 0.5058(4) 1.0661(3)
O19A* O 0.4151(5) 0.4942(4) 0.9339(3)
O20* O 0.6318(4) 0.6136(3) 1.1198(2)
O20A* O -0.6318(4) -0.6136(3) -0.1198(2)
Cd1* Cd -0.50000 -0.50000 0.00000
Cd1** Cd -0.50000 -0.50000 1.00000
Cd1*** Cd -0.50000 0.50000 0.00000
Cd1**** Cd 0.50000 -0.50000 1.00000
Cd1***** Cd 0.50000 0.50000 0.00000
Cd2* Cd -0.45229(4) -0.32508(3) 0.08798(2)
Cd2** Cd -0.45229(4) 0.67492(3) 0.08798(2)
Cd2*** Cd 0.54771(4) 0.67492(3) 0.08798(2)
Cd2A* Cd -0.54771(4) -0.67492(3) 0.91202(2)
Cd2A** Cd 0.45229(4) -0.67492(3) 0.91202(2)
Cd2A*** Cd 0.45229(4) 0.32508(3) 0.91202(2)
Cd3* Cd -1.00000 -1.00000 0.50000
Cd3** Cd 0.00000 -1.00000 0.50000
Cd3*** Cd 0.00000 1.00000 0.50000
Cd3**** Cd 1.00000 1.00000 0.50000
Cd4* Cd 0.09270(4) 1.16377(3) 0.58609(2)
Cd4** Cd 1.09270(4) 1.16377(3) 0.58609(2)
Cd4A* Cd -1.09270(4) -1.16377(3) 0.41391(2)
Cd4A** Cd -0.09270(4) -1.16377(3) 0.41391(2)
#END
