
#######################################################################
#
#                 Cambridge Crystallographic Data Centre
#                                CCDC
#
#######################################################################
#
# If this CIF has been generated from an entry in the Cambridge
# Structural Database, then it will include bibliographic, chemical,
# crystal, experimental, refinement or atomic coordinate data resulting
# from the CCDC's data processing and validation procedures.
#
#######################################################################

data_CSD_CIF_WUZBAW
_audit_creation_date 2015-10-16
_audit_creation_method CSD-ConQuest-V1
_database_code_CSD WUZBAW
_database_code_depnum_ccdc_archive 'CCDC 1410559'
_chemical_formula_sum 'C30 H24 Cu5 I7 N6 Ni1'
_chemical_formula_moiety
;
C30 H24 N6 Ni1 2+,n(Cu5 I7 2-)
;
_journal_coden_Cambridge 1147
_journal_volume 15
_journal_year 2015
_journal_page_first 5416
_journal_name_full 'Cryst.Growth Des. '
loop_
_publ_author_name
"Xiao-Wu Lei"
"Cheng-Yang Yue"
"Jian-Qiang Zhao"
"Yong-Fang Han"
"Jiang-Tao Yang"
"Rong-Rong Meng"
"Chuan-Sheng Gao"
"Hao Ding"
"Chun-Yan Wang"
"Wan-Dong Chen"
_chemical_name_systematic
;
catena-[tris(2,2'-bipyridine)-nickel heptakis(\m-iodo)-penta-copper]
;
_cell_volume   4468.129
_exptl_crystal_colour 'dark red'
_exptl_crystal_density_diffrn 2.577
_exptl_crystal_description 'block'
_diffrn_ambient_temperature 296
#These two values have been output from a single CSD field.
_refine_ls_R_factor_gt 0.0413
_refine_ls_wR_factor_gt 0.0413
_symmetry_cell_setting orthorhombic
_symmetry_space_group_name_H-M 'P 21 21 21'
_symmetry_Int_Tables_number 19
loop_
_symmetry_equiv_pos_site_id
_symmetry_equiv_pos_as_xyz
1 x,y,z
2 1/2-x,-y,1/2+z
3 -x,1/2+y,1/2-z
4 1/2+x,1/2-y,-z
_cell_length_a 13.4901(12)
_cell_length_b 13.8822(12)
_cell_length_c 23.859(2)
_cell_angle_alpha 90
_cell_angle_beta 90
_cell_angle_gamma 90
_cell_formula_units_Z 4
loop_
_atom_type_symbol
_atom_type_radius_bond
C 0.68
H 0.23
Cu 1.32
I 1.40
N 0.68
Ni 1.24
loop_
_atom_site_label
_atom_site_type_symbol
_atom_site_fract_x
_atom_site_fract_y
_atom_site_fract_z
I1 I 0.01308(4) 0.24858(5) 0.01054(2)
I2 I 0.26466(5) 0.42072(4) -0.04061(3)
I3 I 0.25940(5) 0.23022(5) 0.10731(3)
I4 I 0.10243(5) 0.27696(5) -0.17145(3)
I5 I 0.26615(5) 0.09151(5) -0.05717(3)
I6 I -0.03851(6) 0.02341(5) -0.10887(3)
I7 I -0.03809(7) 0.51511(6) -0.07601(4)
Cu1 Cu 0.21578(10) 0.24985(10) -0.00475(6)
Cu2 Cu 0.08203(13) 0.36692(12) -0.07603(7)
Cu3 Cu 0.08803(13) 0.16233(11) -0.08570(6)
Cu4 Cu -0.12902(13) 0.15252(13) -0.04732(7)
Cu5 Cu -0.13120(14) 0.36825(13) -0.03691(8)
Ni1 Ni -0.10816(8) -0.27253(8) 0.16382(4)
N1 N -0.0250(6) -0.2711(6) 0.2380(3)
N2 N -0.2227(6) -0.1875(6) 0.1937(3)
C1 C -0.2776(7) -0.3376(7) 0.2300(4)
N3 N -0.1691(6) -0.2639(6) 0.0839(3)
N4 N -0.2036(6) -0.3751(6) 0.1993(3)
N5 N -0.0260(7) -0.1579(6) 0.1281(4)
C2 C -0.2903(6) -0.2318(8) 0.2253(4)
N6 N 0.0014(6) -0.3713(6) 0.1441(3)
C3 C 0.0576(7) -0.3253(7) 0.2368(4)
C4 C -0.0438(7) -0.2178(9) 0.2830(4)
H1 H -0.09960 -0.17860 0.28360
C5 C -0.2337(8) -0.0937(7) 0.1829(4)
H2 H -0.18550 -0.06270 0.16170
C6 C 0.0183(9) -0.2198(10) 0.3288(4)
H3 H 0.00430 -0.18310 0.36040
C7 C -0.3784(10) -0.0846(11) 0.2395(6)
H4 H -0.42680 -0.04830 0.25750
C8 C -0.3698(9) -0.1845(9) 0.2499(5)
H5 H -0.41530 -0.21710 0.27210
C9 C -0.3378(8) -0.3956(10) 0.2626(5)
H6 H -0.38620 -0.36770 0.28510
C10 C 0.1011(9) -0.2768(12) 0.3268(6)
H7 H 0.14320 -0.28030 0.35760
C11 C -0.1315(9) -0.1945(8) 0.0512(4)
C12 C -0.0489(8) -0.1367(7) 0.0743(4)
C13 C 0.0706(8) -0.3846(8) 0.1835(5)
C14 C 0.0882(10) -0.4804(11) 0.0831(5)
H8 H 0.09390 -0.51100 0.04860
C15 C -0.0012(9) -0.0637(9) 0.0467(5)
H9 H -0.01860 -0.04950 0.00990
C16 C -0.1894(9) -0.4712(7) 0.2001(4)
H10 H -0.13690 -0.49680 0.17970
C17 C 0.0683(11) -0.0137(9) 0.0713(7)
H11 H 0.10050 0.03520 0.05180
C18 C -0.3266(10) -0.4955(10) 0.2623(5)
H12 H -0.36890 -0.53510 0.28270
C19 C 0.0089(9) -0.4185(9) 0.0941(4)
H13 H -0.03960 -0.40940 0.06690
C20 C -0.2497(10) -0.5336(7) 0.2302(5)
H14 H -0.23890 -0.59970 0.22900
C21 C 0.0460(11) -0.1083(9) 0.1518(6)
H15 H 0.06480 -0.12570 0.18800
C22 C -0.3126(9) -0.0413(7) 0.2017(5)
H16 H -0.32250 0.02170 0.18960
C23 C -0.2480(14) -0.2302(16) -0.0202(6)
H17 H -0.27330 -0.21950 -0.05590
C24 C -0.2888(14) -0.3101(12) 0.0135(6)
H18 H -0.33890 -0.35110 0.00130
C25 C 0.1565(11) -0.495(1) 0.1237(7)
H19 H 0.20820 -0.53800 0.11740
C26 C 0.1506(9) -0.4460(9) 0.1752(6)
H20 H 0.19860 -0.45440 0.20270
C27 C -0.1753(13) -0.1720(11) -0.0011(5)
H21 H -0.15460 -0.11870 -0.02160
C28 C -0.2446(10) -0.3164(9) 0.0642(5)
H22 H -0.26980 -0.36300 0.08840
C29 C 0.1210(12) -0.3269(11) 0.2811(6)
H23 H 0.17870 -0.36340 0.27920
C30 C 0.0950(11) -0.0335(10) 0.1273(7)
H24 H 0.14280 0.00220 0.14620
I2C I -0.23534(5) 0.07928(4) 0.04061(3)
I3C I -0.24060(5) 0.26978(5) -0.10731(3)
I5C I -0.23385(5) 0.40849(5) 0.05717(3)
Cu4C Cu 0.37098(13) 0.34748(13) 0.04732(7)
Cu5C Cu 0.36880(14) 0.13175(13) 0.03691(8)
#END
