
#######################################################################
#
#                 Cambridge Crystallographic Data Centre
#                                CCDC
#
#######################################################################
#
# If this CIF has been generated from an entry in the Cambridge
# Structural Database, then it will include bibliographic, chemical,
# crystal, experimental, refinement or atomic coordinate data resulting
# from the CCDC's data processing and validation procedures.
#
#######################################################################

data_CSD_CIF_WUZCAX
_audit_creation_date 2015-10-16
_audit_creation_method CSD-ConQuest-V1
_database_code_CSD WUZCAX
_database_code_depnum_ccdc_archive 'CCDC 1412381'
_chemical_formula_sum 'C40 H32 Cu7 I11 Mn2 N8'
_chemical_formula_moiety
;
(C20 H16 I1 Mn1 N4 1+)2n,n(Cu7 I9 2-)
;
_journal_coden_Cambridge 1147
_journal_volume 15
_journal_year 2015
_journal_page_first 5416
_journal_name_full 'Cryst.Growth Des. '
loop_
_publ_author_name
"Xiao-Wu Lei"
"Cheng-Yang Yue"
"Jian-Qiang Zhao"
"Yong-Fang Han"
"Jiang-Tao Yang"
"Rong-Rong Meng"
"Chuan-Sheng Gao"
"Hao Ding"
"Chun-Yan Wang"
"Wan-Dong Chen"
_chemical_name_systematic
;
catena-[bis(bis(2,2'-bipyridine)-iodo-manganese) 
octakis(\m-iodo)-iodo-hepta-copper]
;
_cell_volume   5928.913
_exptl_crystal_colour 'dark red'
_exptl_crystal_density_diffrn 2.885
_exptl_crystal_description 'block'
_diffrn_ambient_temperature 296
_refine_special_details
;
Cu5,I8 disordered over one sites with occupancies 0.225,0.328.

;
#These two values have been output from a single CSD field.
_refine_ls_R_factor_gt 0.0463
_refine_ls_wR_factor_gt 0.0463
_symmetry_cell_setting orthorhombic
_symmetry_space_group_name_H-M 'P n m a'
_symmetry_Int_Tables_number 62
loop_
_symmetry_equiv_pos_site_id
_symmetry_equiv_pos_as_xyz
1 x,y,z
2 1/2-x,-y,1/2+z
3 -x,1/2+y,-z
4 1/2+x,1/2-y,1/2-z
5 -x,-y,-z
6 -1/2+x,y,-1/2-z
7 x,-1/2-y,z
8 -1/2-x,-1/2+y,-1/2+z
_cell_length_a 13.6964(7)
_cell_length_b 28.1015(14)
_cell_length_c 15.4042(8)
_cell_angle_alpha 90
_cell_angle_beta 90
_cell_angle_gamma 90
_cell_formula_units_Z 4
loop_
_atom_type_symbol
_atom_type_radius_bond
C 0.68
H 0.23
Cu 1.32
I 1.40
Mn 1.61
N 0.68
loop_
_atom_site_label
_atom_site_type_symbol
_atom_site_fract_x
_atom_site_fract_y
_atom_site_fract_z
I1 I 0.94062(5) 0.75000 1.21387(4)
I2 I 1.18564(3) 0.669015(17) 1.32087(3)
I3 I 1.00725(6) 0.75000 1.50215(5)
I4 I 1.20809(5) 0.75000 1.07672(5)
I5 I 0.88873(4) 0.624420(19) 1.37343(4)
I6 I 1.31240(8) 0.75000 1.53598(7)
Cu1 Cu 1.13769(12) 0.75000 1.24269(11)
Cu2 Cu 1.00123(9) 0.69951(4) 1.35761(8)
Cu3 Cu 0.80113(11) 0.69741(6) 1.31036(9)
Cu4 Cu 1.17763(17) 0.75000 1.42067(14)
Cu5 Cu 1.1707(12) 0.75000 1.6243(12)
I7 I 1.1245(3) 0.75000 1.7780(3)
I8 I 0.71435(4) 0.50977(2) 0.12496(5)
Mn1 Mn 0.85188(7) 0.44768(4) 0.16514(6)
N1 N 0.9615(5) 0.4935(2) 0.1518(4)
N2 N 0.8776(5) 0.4329(2) 0.2968(4)
N3 N 0.9410(5) 0.4085(2) 0.0813(5)
C1 C 0.8185(6) 0.3982(3) 0.3289(5)
C2 C 1.0384(6) 0.4784(3) 0.1036(5)
C3 C 1.0268(6) 0.4313(3) 0.0612(5)
C4 C 0.9256(7) 0.3658(3) 0.0450(7)
H1 H 0.86860 0.34950 0.05900
C5 C 0.8275(7) 0.3817(4) 0.4110(6)
H2 H 0.78700 0.35750 0.43100
N4 N 0.7522(5) 0.3972(2) 0.1847(4)
C6 C 0.6117(8) 0.3317(4) 0.2208(9)
H3 H 0.56400 0.30920 0.23360
C7 C 0.9558(7) 0.4355(4) 0.4361(6)
H4 H 1.00280 0.44900 0.47210
C8 C 1.1202(7) 0.5065(4) 0.0958(6)
H5 H 1.17200 0.49670 0.06100
C9 C 0.9454(7) 0.4513(4) 0.3496(6)
H6 H 0.98660 0.47500 0.32890
C10 C 1.0932(6) 0.4129(3) 0.0060(7)
H7 H 1.15060 0.42920 -0.00630
C11 C 1.0484(8) 0.5640(4) 0.1870(7)
H8 H 1.05110 0.59290 0.21650
C12 C 0.7460(6) 0.3798(3) 0.2652(6)
C13 C 0.8984(7) 0.4014(4) 0.4655(6)
H9 H 0.90500 0.39050 0.52220
C14 C 0.6893(7) 0.3821(4) 0.1232(6)
H10 H 0.69350 0.39520 0.06790
C15 C 0.6198(7) 0.3483(4) 0.1387(7)
H11 H 0.57950 0.33720 0.09460
C16 C 0.6734(8) 0.3476(4) 0.2868(8)
H12 H 0.66600 0.33690 0.34350
C17 C 1.1254(7) 0.5490(4) 0.1394(7)
H13 H 1.18170 0.56740 0.13630
C18 C 1.0736(8) 0.3681(4) -0.0331(9)
H14 H 1.11720 0.35480 -0.07250
C19 C 0.9655(8) 0.5360(3) 0.1913(6)
H15 H 0.91160 0.54680 0.22220
C20 C 0.9892(8) 0.3451(4) -0.0112(8)
H16 H 0.97530 0.31540 -0.03480
I2F I 1.18564(3) 0.830985(17) 1.32087(3)
I5F I 0.88873(4) 0.875580(19) 1.37343(4)
Cu2F Cu 1.00123(9) 0.80049(4) 1.35761(8)
Cu3F Cu 0.80113(11) 0.80259(6) 1.31036(9)
I2C I 0.68564(3) 0.830985(17) 1.17913(3)
I2E I 0.68564(3) 0.669015(17) 1.17913(3)
I4C I 0.70809(5) 0.75000 1.42328(5)
Cu3C Cu 1.30113(11) 0.80259(6) 1.18964(9)
Cu3E Cu 1.30113(11) 0.69741(6) 1.18964(9)
#END
