
#######################################################################
#
#                 Cambridge Crystallographic Data Centre
#                                CCDC
#
#######################################################################
#
# If this CIF has been generated from an entry in the Cambridge
# Structural Database, then it will include bibliographic, chemical,
# crystal, experimental, refinement or atomic coordinate data resulting
# from the CCDC's data processing and validation procedures.
#
#######################################################################

data_CSD_CIF_XACFAJ
_audit_creation_date 2003-07-04
_audit_creation_method CSD-ConQuest-V1
_database_code_CSD XACFAJ
_database_code_depnum_ccdc_archive 'CCDC 208577'
_chemical_formula_sum 'C18 H48 N2 O20 P2 Zn2'
_chemical_formula_moiety
;
(H4 N1 1+)2n,n(C18 H24 O12 P2 Zn2 2-),8n(H2 O1)
;
_journal_coden_Cambridge 9
_journal_volume 42
_journal_year 2003
_journal_page_first 1994
_journal_name_full 'Inorg.Chem. '
loop_
_publ_author_name
"A.Krezel"
"R.Latajka"
"G.D.Bujacz"
"W.Bal"
_chemical_name_systematic
;
catena-(Diammonium 
bis(\m~4~-tris(2-carboxyethyl)phosphine-O,O',O'',P)-di-zinc octahydrate)
;
_cell_volume   1745.689
_exptl_crystal_density_diffrn 1.532
_diffrn_ambient_temperature 293
_refine_special_details
;
The water molecules are disordered.

;
#These two values have been output from a single CSD field.
_refine_ls_R_factor_gt 0.0287
_refine_ls_wR_factor_gt 0.0287
_symmetry_cell_setting hexagonal
_symmetry_space_group_name_H-M 'P 63'
_symmetry_Int_Tables_number 173
loop_
_symmetry_equiv_pos_site_id
_symmetry_equiv_pos_as_xyz
1 x,y,z
2 -y,x-y,z
3 -x+y,-x,z
4 -x,-y,1/2+z
5 y,-x+y,1/2+z
6 x-y,x,1/2+z
_cell_length_a 11.528(2)
_cell_length_b 11.528(2)
_cell_length_c 15.168(7)
_cell_angle_alpha 90
_cell_angle_beta 90
_cell_angle_gamma 120
_cell_formula_units_Z 2
loop_
_atom_type_symbol
_atom_type_radius_bond
C 0.68
H 0.23
N 0.68
O 0.68
P 1.05
Zn 1.45
loop_
_atom_site_label
_atom_site_type_symbol
_atom_site_fract_x
_atom_site_fract_y
_atom_site_fract_z
Zn1 Zn 0.33330 0.66670 0.13592(6)
P1 P 0.00000 0.00000 0.23164(12)
C1 C 0.0895(4) 0.1666(4) 0.1798(3)
H1 H 0.1849(4) 0.1986(4) 0.1816(3)
H2 H 0.0631(4) 0.1582(4) 0.1184(3)
C2 C 0.0631(5) 0.2699(4) 0.2237(3)
H3 H -0.0328(5) 0.2350(4) 0.2271(3)
H4 H 0.0982(5) 0.2861(4) 0.2833(3)
C3 C 0.1276(4) 0.4009(3) 0.1730(3)
O1 O 0.2457(3) 0.4892(3) 0.1952(2)
O2 O 0.0664(3) 0.4158(3) 0.1121(2)
Zn2 Zn 0.00000 0.00000 0.38890(6)
P2 P 0.33330 0.66670 -0.01948(11)
C4 C 0.4931(3) 0.7164(4) -0.0708(3)
H5 H 0.5224(3) 0.6543(4) -0.0529(3)
H6 H 0.4811(3) 0.7093(4) -0.1343(3)
C5 C 0.6022(3) 0.8574(3) -0.0483(3)
H7 H 0.5812(3) 0.9212(3) -0.0751(3)
H8 H 0.6054(3) 0.8699(3) 0.0151(3)
C6 C 0.7375(3) 0.8842(4) -0.0806(3)
O3 O 0.8396(2) 0.9906(3) -0.0518(2)
O4 O 0.7464(3) 0.8085(3) -0.1345(3)
N1 N 0.2239(16) 0.3839(19) 0.5187(17)
H9 H 0.1546(16) 0.3069(19) 0.4985(17)
H10 H 0.2807(16) 0.3646(19) 0.5472(17)
H11 H 0.1941(16) 0.4243(19) 0.5556(17)
H12 H 0.2662(16) 0.4397(19) 0.4734(17)
O5? O 0.1934(40) 0.3687(44) 0.5371(33)
H13? H 0.127(4) 0.2950(44) 0.5070(33)
H14? H 0.2648(40) 0.3628(44) 0.5604(33)
O6 O 0.4741(17) 0.3589(15) 0.1611(12)
H15 H 0.5073(17) 0.4485(15) 0.1469(12)
H16 H 0.5478(17) 0.3464(15) 0.1591(12)
O7? O 0.5732(34) 0.3560(36) 0.1478(25)
H17? H 0.5295(34) 0.3816(36) 0.1881(25)
H18? H 0.5055(34) 0.2986(36) 0.1097(25)
O8 O 0.4224(8) 0.4394(9) 0.2872(8)
H19 H 0.3626(8) 0.4561(9) 0.2563(8)
H20 H 0.3659(8) 0.3570(9) 0.3133(8)
O9 O 0.3997(20) 0.5916(19) 0.4195(13)
H21 H 0.4069(20) 0.5403(19) 0.3748(13)
H22 H 0.335(2) 0.5245(19) 0.4549(13)
O10? O 0.3945(19) 0.5027(23) 0.3521(13)
H23? H 0.3358(19) 0.5305(23) 0.3716(13)
H24? H 0.3527(19) 0.4099(23) 0.3561(13)
C1A C -0.1666(4) -0.0771(4) 0.1798(3)
H1A H -0.1986(4) -0.0137(4) 0.1816(3)
H2A H -0.1582(4) -0.0951(4) 0.1184(3)
C2A C -0.2699(5) -0.2068(4) 0.2237(3)
H3A H -0.2350(5) -0.2678(4) 0.2271(3)
H4A H -0.2861(5) -0.1879(4) 0.2833(3)
C3A C -0.4009(4) -0.2733(3) 0.1730(3)
O1A O -0.4892(3) -0.2435(3) 0.1952(2)
O2A O -0.4158(3) -0.3494(3) 0.1121(2)
C1B C 0.0771(4) -0.0895(4) 0.1798(3)
H1B H 0.0137(4) -0.1849(4) 0.1816(3)
H2B H 0.0951(4) -0.0631(4) 0.1184(3)
C2B C 0.2068(5) -0.0631(4) 0.2237(3)
H3B H 0.2678(5) 0.0328(4) 0.2271(3)
H4B H 0.1879(5) -0.0982(4) 0.2833(3)
C3B C 0.2733(4) -0.1276(3) 0.1730(3)
O1B O 0.2435(3) -0.2457(3) 0.1952(2)
O2B O 0.3494(3) -0.0664(3) 0.1121(2)
C4A C 0.2836(3) 0.7767(4) -0.0708(3)
H5A H 0.3457(3) 0.8681(4) -0.0529(3)
H6A H 0.2907(3) 0.7718(4) -0.1343(3)
C5A C 0.1426(3) 0.7448(3) -0.0483(3)
H7A H 0.0788(3) 0.6600(3) -0.0751(3)
H8A H 0.1301(3) 0.7355(3) 0.0151(3)
C6A C 0.1158(3) 0.8533(4) -0.0806(3)
O3A O 0.0094(2) 0.8490(3) -0.0518(2)
O4A O 0.1915(3) 0.9379(3) -0.1345(3)
C4B C 0.2233(3) 0.5069(4) -0.0708(3)
H5B H 0.1319(3) 0.4776(4) -0.0529(3)
H6B H 0.2282(3) 0.5189(4) -0.1343(3)
C5B C 0.2552(3) 0.3978(3) -0.0483(3)
H7B H 0.3400(3) 0.4188(3) -0.0751(3)
H8B H 0.2645(3) 0.3946(3) 0.0151(3)
C6B C 0.1467(3) 0.2625(4) -0.0806(3)
O3B O 0.1510(2) 0.1604(3) -0.0518(2)
O4B O 0.0621(3) 0.2536(3) -0.1345(3)
O1A* O 0.5108(3) 0.7565(3) 0.1952(2)
O1B* O 0.2435(3) 0.7543(3) 0.1952(2)
O3C O 0.1604(2) 0.0094(3) 0.4482(2)
O3D O -0.0094(2) 0.1510(3) 0.4482(2)
O3E O -0.1510(2) -0.1604(3) 0.4482(2)
Zn2C Zn 1.00000 1.00000 -0.11110(6)
Zn1* Zn -0.66670 -0.33330 0.13592(6)
Zn1** Zn 0.33330 -0.33330 0.13592(6)
Zn2C* Zn 0.00000 1.00000 -0.11110(6)
Zn2C** Zn 0.00000 0.00000 -0.11110(6)
#END
