
#######################################################################
#
#                 Cambridge Crystallographic Data Centre
#                                CCDC
#
#######################################################################
#
# If this CIF has been generated from an entry in the Cambridge
# Structural Database, then it will include bibliographic, chemical,
# crystal, experimental, refinement or atomic coordinate data resulting
# from the CCDC's data processing and validation procedures.
#
#######################################################################

data_CSD_CIF_XACLUL02
_audit_creation_date 2017-08-29
_audit_creation_method CSD-ConQuest-V1
_database_code_CSD XACLUL02
_database_code_depnum_ccdc_archive 'CCDC 1475875'
_chemical_formula_sum 'C20 H36 Fe4 N2 O24'
_chemical_formula_moiety
;
(C12 H12 Fe4 O24 2-)n,2(C4 H12 N1 1+)
;
_journal_coden_Cambridge 1089
_journal_volume 29
_journal_year 2017
_journal_page_first 1606966
_journal_name_full 'Adv.Mater. '
loop_
_publ_author_name
"Jiong-Peng Zhao"
"Jian Xu"
"Song-De Han"
"Qing-Lun Wang"
"Xian-He Bu"
_chemical_name_systematic
;
catena-[bis(diethylammonium) dodecakis(\m-formato)-di-iron(ii)-di-iron(iii)]
;
_cell_volume    835.511
_exptl_crystal_colour 'black'
_exptl_crystal_density_diffrn 1.812
_exptl_crystal_description 'block'
_diffrn_ambient_temperature 113
#These two values have been output from a single CSD field.
_refine_ls_R_factor_gt 0.076
_refine_ls_wR_factor_gt 0.076
_symmetry_cell_setting triclinic
_symmetry_space_group_name_H-M 'P -1'
_symmetry_Int_Tables_number 2
loop_
_symmetry_equiv_pos_site_id
_symmetry_equiv_pos_as_xyz
1 x,y,z
2 -x,-y,-z
_cell_length_a 8.2974(17)
_cell_length_b 8.4878(17)
_cell_length_c 13.482(3)
_cell_angle_alpha 88.61(3)
_cell_angle_beta 89.05(3)
_cell_angle_gamma 61.67(3)
_cell_formula_units_Z 1
loop_
_atom_type_symbol
_atom_type_radius_bond
C 0.68
H 0.23
Fe 1.52
N 0.68
O 0.68
loop_
_atom_site_label
_atom_site_type_symbol
_atom_site_fract_x
_atom_site_fract_y
_atom_site_fract_z
Fe1 Fe 0.32036(15) 0.84746(15) 0.24543(9)
Fe2 Fe 0.00000 0.50000 0.00000
Fe3 Fe 1.00000 0.50000 0.50000
O1 O 0.1099(8) 0.8531(7) 0.3374(4)
O2 O 0.5374(7) 0.8369(7) 0.1585(4)
O3 O 0.3285(8) 0.6179(8) 0.1766(4)
O4 O 0.5167(8) 0.6642(9) 0.3453(5)
O5 O 0.8041(7) 0.6900(7) 0.0819(4)
O6 O 0.1158(8) 1.0337(8) 0.1483(5)
O7 O 0.1921(7) 0.4948(7) 0.0910(4)
O8 O 0.3024(8) 1.0832(8) 0.3121(5)
O9 O -0.0057(7) 0.7048(7) 0.4233(4)
O10 O 0.7752(8) 0.5299(8) 0.4313(4)
O11 O -0.0132(8) 1.3049(7) 0.0790(4)
C1 C 0.1988(11) 0.6289(11) 0.1228(6)
H1 H 0.10460 0.74200 0.10620
O12 O 0.1638(8) 1.3346(8) 0.3971(5)
C2 C 0.6657(11) 0.6488(11) 0.3748(6)
H2 H 0.69760 0.73470 0.35210
C3 C 0.1247(11) 1.1610(11) 0.1075(6)
H3 H 0.24020 1.15090 0.09690
C4 C 0.6594(10) 0.7023(11) 0.1170(6)
H4 H 0.64050 0.60320 0.11210
C5 C 0.1786(11) 1.1853(11) 0.3662(6)
H5 H 0.08990 1.15360 0.38610
C6 C 0.1241(12) 0.7229(12) 0.3873(7)
H6 H 0.24180 0.63060 0.39890
N1 N 0.5334(12) 0.2549(11) 0.2620(7)
H7 H 0.46810 0.37300 0.23330
H8 H 0.45620 0.19950 0.25910
C7 C 0.5749(14) 0.2699(14) 0.3714(8)
H9 H 0.65430 0.32460 0.37300
H10 H 0.46090 0.35070 0.40380
C8 C 0.6566(14) 0.1106(15) 0.4270(8)
H11 H 0.67610 0.13550 0.49360
H12 H 0.57800 0.05640 0.42830
H13 H 0.77200 0.03030 0.39740
C9 C 0.6943(13) 0.1537(15) 0.2059(8)
H14 H 0.75090 0.03000 0.22890
H15 H 0.78020 0.19880 0.21650
C10 C 0.6549(14) 0.1619(14) 0.0938(7)
H16 H 0.76730 0.09170 0.05860
H17 H 0.57180 0.11510 0.08270
H18 H 0.60110 0.28390 0.07030
Fe1A Fe -0.32036(15) 0.15254(15) -0.24543(9)
O1A O -0.1099(8) 0.1469(7) -0.3374(4)
O2A O -0.5374(7) 0.1631(7) -0.1585(4)
O3A O -0.3285(8) 0.3821(8) -0.1766(4)
O4A O -0.5167(8) 0.3358(9) -0.3453(5)
O5A O -0.8041(7) 0.3100(7) -0.0819(4)
O6A O -0.1158(8) -0.0337(8) -0.1483(5)
O7A O -0.1921(7) 0.5052(7) -0.0910(4)
O8A O -0.3024(8) -0.0832(8) -0.3121(5)
O9A O 0.0057(7) 0.2952(7) -0.4233(4)
O10A O -0.7752(8) 0.4701(8) -0.4313(4)
O11A O 0.0132(8) -0.3049(7) -0.0790(4)
C1A C -0.1988(11) 0.3711(11) -0.1228(6)
H1A H -0.10460 0.25800 -0.10620
O12A O -0.1638(8) -0.3346(8) -0.3971(5)
C2A C -0.6657(11) 0.3512(11) -0.3748(6)
H2A H -0.69760 0.26530 -0.35210
C3A C -0.1247(11) -0.1610(11) -0.1075(6)
H3A H -0.24020 -0.15090 -0.09690
C4A C -0.6594(10) 0.2977(11) -0.1170(6)
H4A H -0.64050 0.39680 -0.11210
C5A C -0.1786(11) -0.1853(11) -0.3662(6)
H5A H -0.08990 -0.15360 -0.38610
C6A C -0.1241(12) 0.2771(12) -0.3873(7)
H6A H -0.24180 0.36940 -0.39890
Fe2* Fe -1.00000 0.50000 0.00000
Fe2** Fe 0.00000 -0.50000 0.00000
Fe2*** Fe 0.00000 1.50000 0.00000
Fe2**** Fe 1.00000 0.50000 0.00000
Fe3* Fe -1.00000 0.50000 -0.50000
Fe3** Fe 0.00000 -0.50000 -0.50000
Fe3*** Fe 0.00000 0.50000 -0.50000
Fe3**** Fe 0.00000 0.50000 0.50000
Fe3***** Fe 0.00000 1.50000 0.50000
O5* O -0.1959(7) 0.6900(7) 0.0819(4)
O5A* O 0.1959(7) 0.3100(7) -0.0819(4)
O9* O 0.9943(7) 0.7048(7) 0.4233(4)
O9A* O 1.0057(7) 0.2952(7) 0.5767(4)
O10A* O 1.2248(8) 0.4701(8) 0.5687(4)
O11* O -0.0132(8) 0.3049(7) 0.0790(4)
O11A* O 0.0132(8) 0.6951(7) -0.0790(4)
O12* O 1.1638(8) 0.3346(8) 0.3971(5)
O12A* O 0.8362(8) 0.6654(8) 0.6029(5)
#END
