
#######################################################################
#
#                 Cambridge Crystallographic Data Centre
#                                CCDC
#
#######################################################################
#
# If this CIF has been generated from an entry in the Cambridge
# Structural Database, then it will include bibliographic, chemical,
# crystal, experimental, refinement or atomic coordinate data resulting
# from the CCDC's data processing and validation procedures.
#
#######################################################################

data_CSD_CIF_XACRUR
_audit_creation_date 2016-01-14
_audit_creation_method CSD-ConQuest-V1
_database_code_CSD XACRUR
_database_code_depnum_ccdc_archive 'CCDC 1027614'
_chemical_formula_sum 'C24 H30 Ag4 Mo5 N16 O25 P2'
_chemical_formula_moiety
;
(C12 H12 Ag2 N8 2+)n,n(C12 H14 Ag2 Mo5 N8 O23 P2 2-),2n(H2 O1)
;
_journal_coden_Cambridge 702
_journal_volume 31
_journal_year 2015
_journal_page_first 839
_journal_name_full 'Wuji Huaxue Xuebao(Chin.)(Chin.J.Inorg.Chem.) '
loop_
_publ_author_name
"Ai-Xiang Tian"
"Xue Hou"
"Na Sun"
"Ru Xiao"
"Jun Ying"
"Yang Yang"
"Ya-Ling Ning"
"Tian-Jiao Li"
"Xiu-Li Wang"
_chemical_name_systematic
;
catena-[bis(\m~2~-1H,1'H-2,2'-Biimidazole)-di-silver bis(\m~5~-hydrogen 
phosphato)-bis(\m~2~-1H,1'H-2,2'-biimidazole)-heptakis(\m~2~-oxo)-octa-oxo-pen
ta-molybdenum-di-silver dihydrate]
;
_cell_volume   4740.757
_exptl_crystal_colour 'yellow'
_exptl_crystal_density_diffrn 2.683
_exptl_crystal_description 'block'
_diffrn_ambient_temperature 293
#These two values have been output from a single CSD field.
_refine_ls_R_factor_gt 0.0417
_refine_ls_wR_factor_gt 0.0417
_symmetry_cell_setting monoclinic
_symmetry_space_group_name_H-M 'P 21/c'
_symmetry_Int_Tables_number 14
loop_
_symmetry_equiv_pos_site_id
_symmetry_equiv_pos_as_xyz
1 x,y,z
2 -x,1/2+y,1/2-z
3 -x,-y,-z
4 x,-1/2-y,-1/2+z
_cell_length_a 10.495(5)
_cell_length_b 27.247(5)
_cell_length_c 16.827(5)
_cell_angle_alpha 90
_cell_angle_beta 99.858(5)
_cell_angle_gamma 90
_cell_formula_units_Z 4
loop_
_atom_type_symbol
_atom_type_radius_bond
C 0.68
H 0.23
Ag 1.45
Mo 1.54
N 0.68
O 0.68
P 1.05
loop_
_atom_site_label
_atom_site_type_symbol
_atom_site_fract_x
_atom_site_fract_y
_atom_site_fract_z
Ag1 Ag 0.23306(4) 0.073142(14) 0.76825(2)
Ag2 Ag 0.24120(4) 0.178270(14) 0.75479(2)
N1 N 0.3816(4) 0.08237(14) 0.8705(2)
N2 N 0.0815(4) 0.07559(15) 0.6674(2)
N3 N 0.2246(4) 0.17706(13) 0.8783(2)
N4 N 0.2376(4) 0.16679(14) 0.6304(2)
C1 C 0.3917(4) 0.11480(16) 0.9290(2)
C2 C 0.4896(5) 0.0534(2) 0.8872(3)
C3 C 0.0707(5) 0.10238(17) 0.5995(3)
C4 C -0.0260(6) 0.0476(2) 0.6585(4)
C5 C 0.1453(5) 0.20731(17) 0.9132(3)
C6 C 0.2966(4) 0.15297(15) 0.9380(2)
C7 C 0.1602(4) 0.13859(16) 0.5796(2)
C8 C 0.3030(5) 0.19572(18) 0.5841(3)
N5 N 0.5009(4) 0.10701(16) 0.9824(2)
H1 H 0.50940 0.02750 0.85540
C9 C 0.5617(5) 0.0680(2) 0.9558(3)
N6 N -0.0406(4) 0.09154(18) 0.5509(3)
H2 H -0.04430 0.02450 0.69580
C10 C -0.1034(6) 0.0577(2) 0.5875(4)
H3 H 0.08470 0.22890 0.88570
C11 C 0.1691(5) 0.20083(17) 0.9932(3)
N7 N 0.2645(4) 0.16673(14) 1.0086(2)
N8 N 0.1743(4) 0.14865(15) 0.5032(2)
H4 H 0.36430 0.21930 0.60410
C12 C 0.2648(5) 0.18480(19) 0.5049(3)
H5 H 0.52730 0.12370 1.02540
H6 H 0.63920 0.05400 0.98090
H7 H -0.06740 0.10410 0.50420
H8 H -0.18380 0.04400 0.56800
H9 H 0.12830 0.21660 1.03090
H10 H 0.29850 0.15580 1.05540
H11 H 0.13330 0.13470 0.46060
H12 H 0.29410 0.19900 0.46110
O1 O 0.2555(5) 0.4557(2) 0.9243(4)
H13 H 0.33340 0.44920 0.92050
H14 H 0.25640 0.47220 0.96720
O2 O 0.7418(6) 0.4896(2) 0.9352(3)
H15 H 0.67130 0.47350 0.92750
H16 H 0.77400 0.48760 0.89230
Ag3 Ag 0.80174(4) 0.168235(13) 0.828939(19)
Ag4 Ag 0.76247(4) 0.066251(14) 0.79974(2)
N9 N 0.8072(4) 0.17341(14) 0.7033(2)
N10 N 0.7493(4) 0.17553(15) 0.5715(2)
H17 H 0.70700 0.16970 0.52400
N11 N 0.6176(4) 0.08697(14) 0.7018(2)
N12 N 0.5209(4) 0.11470(15) 0.5841(2)
H18 H 0.50430 0.13230 0.54110
C13 C 0.6225(4) 0.12064(16) 0.6450(2)
N13 N 0.8470(3) 0.14738(13) 0.9535(2)
C14 C 0.4509(5) 0.0766(2) 0.6028(3)
H19 H 0.37580 0.06420 0.57180
N14 N 0.9641(4) 0.12578(14) 1.0682(2)
H20 H 1.01900 0.11000 1.10270
C15 C 0.5110(5) 0.05927(19) 0.6761(3)
H21 H 0.48330 0.03290 0.70370
N15 N 0.9320(4) 0.05090(13) 0.8849(2)
C16 C 0.7228(5) 0.15644(16) 0.6413(2)
N16 N 1.1056(4) 0.05472(14) 0.9772(2)
H22 H 1.15960 0.06440 1.01860
C17 C 0.8900(5) 0.20338(18) 0.6703(3)
H23 H 0.96050 0.21990 0.69920
C18 C 0.8526(5) 0.20497(18) 0.5891(3)
H24 H 0.89120 0.22300 0.55280
C19 C 0.8197(5) 0.17747(17) 1.0139(3)
H25 H 0.75980 0.20290 1.00700
C20 C 0.8928(5) 0.16455(18) 1.0845(3)
H26 H 0.89390 0.17930 1.13440
C21 C 0.9346(4) 0.11593(15) 0.9885(2)
C22 C 0.9892(4) 0.07519(15) 0.9492(2)
C23 C 1.0147(5) 0.01444(17) 0.8720(3)
H27 H 0.99930 -0.00830 0.83030
C24 C 1.1225(5) 0.01619(18) 0.9288(3)
H28 H 1.19360 -0.00470 0.93370
P1 P 0.46894(9) -0.19008(4) 0.81456(5)
O3 O 0.8343(3) -0.15809(12) 0.67944(19)
P2 P 0.4829(1) -0.11472(4) 0.62990(5)
Mo1 Mo 0.30970(4) -0.079018(13) 0.77810(2)
O4 O 0.6666(3) -0.06168(13) 0.91066(18)
Mo2 Mo 0.64346(4) -0.074523(12) 0.80910(2)
O5 O 0.1151(3) -0.22541(13) 0.69066(19)
Mo3 Mo 0.46467(3) -0.238471(12) 0.617212(19)
O6 O 0.2879(3) -0.06779(13) 0.8739(2)
Mo4 Mo 0.74743(3) -0.183400(12) 0.746186(19)
O7 O 0.8516(3) -0.22516(11) 0.79642(19)
Mo5 Mo 0.20385(3) -0.178556(13) 0.663045(19)
O8 O 0.4906(3) -0.25498(12) 0.52675(18)
O9 O 0.3513(3) -0.11162(10) 0.65721(16)
O10 O 0.2069(3) -0.13654(12) 0.75559(16)
O11 O 0.7619(3) -0.12992(10) 0.82413(16)
O12 O 0.4749(3) -0.04843(10) 0.77474(17)
O13 O 0.5026(3) -0.06433(11) 0.58807(18)
O14 O 0.6321(3) -0.22303(10) 0.67111(16)
O15 O 0.3965(3) -0.22124(12) 0.86777(18)
H29 H 0.43060 -0.21810 0.91510
O16 O 0.4365(3) -0.29322(11) 0.65902(19)
O17 O 0.2146(3) -0.03482(13) 0.7243(2)
O18 O 0.4875(3) -0.15619(10) 0.57162(15)
O19 O 0.4655(3) -0.13509(10) 0.83505(16)
O20 O 0.2912(3) -0.21360(11) 0.58890(16)
O21 O 0.7305(3) -0.03123(11) 0.7698(2)
O22 O 0.0979(3) -0.14679(13) 0.59190(19)
O23 O 0.3964(2) -0.20111(9) 0.72913(14)
O24 O 0.5936(3) -0.12076(9) 0.70238(15)
O25 O 0.6079(2) -0.20705(10) 0.82419(15)
Ag3A Ag 0.19826(4) -0.331765(13) 0.671061(19)
O16A O 0.5635(3) 0.20678(11) 0.84098(19)
#END
