
#######################################################################
#
#                 Cambridge Crystallographic Data Centre
#                                CCDC
#
#######################################################################
#
# If this CIF has been generated from an entry in the Cambridge
# Structural Database, then it will include bibliographic, chemical,
# crystal, experimental, refinement or atomic coordinate data resulting
# from the CCDC's data processing and validation procedures.
#
#######################################################################

data_CSD_CIF_XACSIG
_audit_creation_date 2016-01-14
_audit_creation_method CSD-ConQuest-V1
_database_code_CSD XACSIG
_database_code_depnum_ccdc_archive 'CCDC 1059706'
_chemical_formula_sum 'C29.5 H29 Mn1 N1 O8'
_chemical_formula_moiety
;
(C13 H28 N2 2+)0.5n,n(C23 H15 Mn1 O8 1-)
;
_journal_coden_Cambridge 1747
_journal_volume 3
_journal_year 2016
_journal_page_first 406
_journal_name_full 'Inorg.Chem.Front. '
loop_
_publ_author_name
"Jing-Jing Huang"
"Xiao Zhang"
"Qi-Sheng Huo"
"Jie-Hui Yu"
"Ji-Qing Xu"
_chemical_name_systematic
;
catena-[hemikis(4,4'-propane-1,3-diyldipiperidinium) 
(\m~5~-3,5-bis((4-carboxylatobenzyl)oxy)benzoato)-manganese]
;
_cell_volume   5432.644
_exptl_crystal_colour 'colorless'
_exptl_crystal_density_diffrn 1.419
_exptl_crystal_description 'block'
_diffrn_ambient_temperature 293
#These two values have been output from a single CSD field.
_refine_ls_R_factor_gt 0.056
_refine_ls_wR_factor_gt 0.056
_symmetry_cell_setting monoclinic
_symmetry_space_group_name_H-M 'C 2/c'
_symmetry_Int_Tables_number 15
loop_
_symmetry_equiv_pos_site_id
_symmetry_equiv_pos_as_xyz
1 x,y,z
2 -x,y,1/2-z
3 1/2+x,1/2+y,z
4 1/2-x,1/2+y,1/2-z
5 -x,-y,-z
6 x,-y,-1/2+z
7 -1/2-x,-1/2-y,-z
8 -1/2+x,-1/2-y,-1/2+z
_cell_length_a 15.338(3)
_cell_length_b 22.100(4)
_cell_length_c 16.425(3)
_cell_angle_alpha 90
_cell_angle_beta 102.64(3)
_cell_angle_gamma 90
_cell_formula_units_Z 8
loop_
_atom_type_symbol
_atom_type_radius_bond
C 0.68
H 0.23
Mn 1.61
N 0.68
O 0.68
loop_
_atom_site_label
_atom_site_type_symbol
_atom_site_fract_x
_atom_site_fract_y
_atom_site_fract_z
Mn1 Mn 1.45457(3) 0.491778(18) -0.36409(3)
O1 O 1.3705(3) 0.55813(12) -0.3300(3)
O2 O 1.2335(4) 0.5387(3) -0.3977(3)
O3 O 0.62427(18) 0.57487(11) 0.31838(16)
O4 O 0.57584(16) 0.55111(12) 0.18423(17)
O5 O 1.00971(19) 0.93654(10) 0.08083(16)
O6 O 1.07965(14) 0.94096(9) -0.02346(12)
O7 O 1.09680(16) 0.71739(9) -0.10214(15)
O8 O 0.92675(18) 0.7172(1) 0.10070(17)
C1 C 1.1668(3) 0.6324(2) -0.3184(3)
H1 H 1.13070 0.61520 -0.36550
C2 C 1.1315(3) 0.6755(2) -0.2748(3)
H2 H 1.07250 0.68790 -0.29300
C3 C 1.1848(2) 0.70053(14) -0.20275(19)
C4 C 1.2722(2) 0.68246(14) -0.17720(19)
H3 H 1.30780 0.69910 -0.12930
C5 C 1.3077(2) 0.63916(14) -0.2227(2)
H4 H 1.36700 0.62710 -0.20520
C6 C 1.2546(3) 0.61420(15) -0.2940(2)
C7 C 0.7364(3) 0.68813(18) 0.1192(2)
H5 H 0.72530 0.70470 0.06590
C8 C 0.6755(2) 0.64750(18) 0.1399(2)
H6 H 0.62450 0.63680 0.10050
C9 C 0.69091(19) 0.62316(13) 0.21909(18)
C10 C 0.7667(2) 0.63936(15) 0.27608(18)
H7 H 0.77730 0.62340 0.32970
C11 C 0.8278(2) 0.67936(16) 0.2547(2)
H8 H 0.87940 0.68950 0.29370
C12 C 0.8123(2) 0.70418(14) 0.1757(2)
C13 C 1.0139(2) 0.72092(14) 0.0010(2)
H9 H 1.00870 0.67910 -0.00330
C14 C 0.9746(2) 0.75231(13) 0.05711(19)
C15 C 0.98415(19) 0.81454(12) 0.06572(17)
H10 H 0.95910 0.83530 0.10420
C16 C 1.03173(18) 0.84533(12) 0.01591(16)
C17 C 1.07017(18) 0.81508(12) -0.04204(17)
H11 H 1.10130 0.83630 -0.07560
C18 C 1.0610(2) 0.75260(13) -0.04854(18)
C19 C 1.2913(4) 0.5665(2) -0.3438(3)
C20 C 0.6242(2) 0.57962(13) 0.2420(2)
C21 C 1.03976(18) 0.91296(12) 0.02480(16)
C22 C 1.1471(2) 0.74803(14) -0.1540(2)
H12 H 1.19520 0.77130 -0.11990
H13 H 1.10870 0.77550 -0.19190
C23 C 0.8765(3) 0.74896(15) 0.1516(2)
H14 H 0.84400 0.78240 0.12070
H15 H 0.91630 0.76500 0.20110
N1 N 1.2419(2) 0.46160(14) -0.51419(18)
H16 H 1.23630 0.48800 -0.47390
H17 H 1.29200 0.43990 -0.49580
C24 C 1.1656(3) 0.5308(3) -0.6219(4)
H18 H 1.17080 0.55120 -0.67290
H19 H 1.16010 0.56160 -0.58120
C25 C 1.0807(3) 0.49223(19) -0.6395(3)
H20 H 1.08520 0.46350 -0.68380
C26 C 1.0798(3) 0.4560(3) -0.5605(3)
H21 H 1.07210 0.48350 -0.51670
H22 H 1.02920 0.42860 -0.57140
C27 C 1.1635(3) 0.4203(2) -0.5310(3)
H23 H 1.16020 0.39850 -0.48050
H24 H 1.17010 0.39100 -0.57320
C28 C 1.2495(3) 0.4952(3) -0.5897(4)
H25 H 1.25920 0.46710 -0.63220
H26 H 1.30030 0.52240 -0.57670
C29 C 0.9992(3) 0.5301(3) -0.6696(3)
H27 H 0.99320 0.55820 -0.62570
H28 H 0.94710 0.50400 -0.67990
C30 C 1.00000 0.5666(4) -0.75000
Mn1C Mn 1.04543(3) 0.991778(18) -0.13591(3)
Mn1D Mn 0.54543(3) 0.508222(18) 0.36409(3)
Mn1E Mn 0.45457(3) 0.508222(18) 0.13591(3)
Mn1G Mn 0.95457(3) 1.008222(18) 0.13591(3)
O3D O 1.37573(18) 0.42513(11) -0.31838(16)
O4E O 1.57584(16) 0.44889(12) -0.31577(17)
O5G O 1.50971(19) 0.56346(10) -0.41917(16)
O6C O 1.42035(14) 0.44096(9) -0.47654(12)
N1A N 0.7581(2) 0.46160(14) -0.98581(18)
H16A H 0.76370 0.48800 -1.02610
H17A H 0.70800 0.43990 -1.00420
C24A C 0.8344(3) 0.5308(3) -0.8781(4)
H18A H 0.82920 0.55120 -0.82710
H19A H 0.83990 0.56160 -0.91880
C25A C 0.9193(3) 0.49223(19) -0.8605(3)
H20A H 0.91480 0.46350 -0.81620
C26A C 0.9202(3) 0.4560(3) -0.9395(3)
H21A H 0.92790 0.48350 -0.98330
H22A H 0.97080 0.42860 -0.92860
C27A C 0.8365(3) 0.4203(2) -0.9690(3)
H23A H 0.83980 0.39850 -1.01950
H24A H 0.82990 0.39100 -0.92680
C28A C 0.7505(3) 0.4952(3) -0.9103(4)
H25A H 0.74080 0.46710 -0.86780
H26A H 0.69970 0.52240 -0.92330
C29A C 1.0008(3) 0.5301(3) -0.8304(3)
H27A H 1.00680 0.55820 -0.87430
H28A H 1.05290 0.50400 -0.82010
#END
