
#######################################################################
#
#                 Cambridge Crystallographic Data Centre
#                                CCDC
#
#######################################################################
#
# If this CIF has been generated from an entry in the Cambridge
# Structural Database, then it will include bibliographic, chemical,
# crystal, experimental, refinement or atomic coordinate data resulting
# from the CCDC's data processing and validation procedures.
#
#######################################################################

data_CSD_CIF_XADDIR
_audit_creation_date 2011-03-21
_audit_creation_method CSD-ConQuest-V1
_database_code_CSD XADDIR
_database_code_depnum_ccdc_archive 'CCDC 761127'
_chemical_formula_sum 'C72 H95 Cu12 Li2 O124 P1 W12'
_chemical_formula_moiety
;
(C72 H46 Cu12 O60)n,n(O40 P1 W12 3-),2n(Li1 1+),24n(H2 O1),n(H1 1+)
;
_journal_coden_Cambridge 1290
_journal_year 2010
_journal_page_first 3756
_journal_name_full 'Eur.J.Inorg.Chem. '
loop_
_publ_author_name
"Fengji Ma"
"Shuxia Liu"
"Dadong Liang"
"Guojian Ren"
"Chundane Zhang"
"Feng Wei"
"Zhongmin Su"
_chemical_name_systematic
;
catena-(octakis(\m~6~-1,3,5-Benzenetricarboxtlato)-dodeca-aqua-dodeca-copper 
lithium ((\m~12~-phosphato)-tetradecakis(\m~2~-oxo)-hydrogen 
dodecaoxo-dodeca-tungsten) hydrate)
;
_cell_volume  18384.903
_exptl_crystal_colour 'green'
_exptl_crystal_density_diffrn 2.129
_exptl_special_details
;
The proton associated with the Keggin species was not located

;
_exptl_crystal_description 'octahedron'
_diffrn_ambient_temperature 296
_refine_special_details
;
The Keggin phosphate moiety is disordered by symmetry. The water ligands 
surrounding the lithium atom are disordered.
;
#These two values have been output from a single CSD field.
_refine_ls_R_factor_gt 0.0347
_refine_ls_wR_factor_gt 0.0347
_symmetry_cell_setting cubic
_symmetry_space_group_name_H-M 'F m -3 m'
_symmetry_Int_Tables_number 225
loop_
_symmetry_equiv_pos_site_id
_symmetry_equiv_pos_as_xyz
1 x,y,z
2 -x,-y,z
3 -x,y,-z
4 x,-y,-z
5 z,x,y
6 z,-x,-y
7 -z,-x,y
8 -z,x,-y
9 y,z,x
10 -y,z,-x
11 y,-z,-x
12 -y,-z,x
13 y,x,-z
14 -y,-x,-z
15 y,-x,z
16 -y,x,z
17 x,z,-y
18 -x,z,y
19 -x,-z,-y
20 x,-z,y
21 z,y,-x
22 z,-y,x
23 -z,y,x
24 -z,-y,-x
25 x,1/2+y,1/2+z
26 -x,1/2-y,1/2+z
27 -x,1/2+y,1/2-z
28 x,1/2-y,1/2-z
29 z,1/2+x,1/2+y
30 z,1/2-x,1/2-y
31 -z,1/2-x,1/2+y
32 -z,1/2+x,1/2-y
33 y,1/2+z,1/2+x
34 -y,1/2+z,1/2-x
35 y,1/2-z,1/2-x
36 -y,1/2-z,1/2+x
37 y,1/2+x,1/2-z
38 -y,1/2-x,1/2-z
39 y,1/2-x,1/2+z
40 -y,1/2+x,1/2+z
41 x,1/2+z,1/2-y
42 -x,1/2+z,1/2+y
43 -x,1/2-z,1/2-y
44 x,1/2-z,1/2+y
45 z,1/2+y,1/2-x
46 z,1/2-y,1/2+x
47 -z,1/2+y,1/2+x
48 -z,1/2-y,1/2-x
49 1/2+x,y,1/2+z
50 1/2-x,-y,1/2+z
51 1/2-x,y,1/2-z
52 1/2+x,-y,1/2-z
53 1/2+z,x,1/2+y
54 1/2+z,-x,1/2-y
55 1/2-z,-x,1/2+y
56 1/2-z,x,1/2-y
57 1/2+y,z,1/2+x
58 1/2-y,z,1/2-x
59 1/2+y,-z,1/2-x
60 1/2-y,-z,1/2+x
61 1/2+y,x,1/2-z
62 1/2-y,-x,1/2-z
63 1/2+y,-x,1/2+z
64 1/2-y,x,1/2+z
65 1/2+x,z,1/2-y
66 1/2-x,z,1/2+y
67 1/2-x,-z,1/2-y
68 1/2+x,-z,1/2+y
69 1/2+z,y,1/2-x
70 1/2+z,-y,1/2+x
71 1/2-z,y,1/2+x
72 1/2-z,-y,1/2-x
73 1/2+x,1/2+y,z
74 1/2-x,1/2-y,z
75 1/2-x,1/2+y,-z
76 1/2+x,1/2-y,-z
77 1/2+z,1/2+x,y
78 1/2+z,1/2-x,-y
79 1/2-z,1/2-x,y
80 1/2-z,1/2+x,-y
81 1/2+y,1/2+z,x
82 1/2-y,1/2+z,-x
83 1/2+y,1/2-z,-x
84 1/2-y,1/2-z,x
85 1/2+y,1/2+x,-z
86 1/2-y,1/2-x,-z
87 1/2+y,1/2-x,z
88 1/2-y,1/2+x,z
89 1/2+x,1/2+z,-y
90 1/2-x,1/2+z,y
91 1/2-x,1/2-z,-y
92 1/2+x,1/2-z,y
93 1/2+z,1/2+y,-x
94 1/2+z,1/2-y,x
95 1/2-z,1/2+y,x
96 1/2-z,1/2-y,-x
97 -x,-y,-z
98 x,y,-z
99 x,-y,z
100 -x,y,z
101 -z,-x,-y
102 -z,x,y
103 z,x,-y
104 z,-x,y
105 -y,-z,-x
106 y,-z,x
107 -y,z,x
108 y,z,-x
109 -y,-x,z
110 y,x,z
111 -y,x,-z
112 y,-x,-z
113 -x,-z,y
114 x,-z,-y
115 x,z,y
116 -x,z,-y
117 -z,-y,x
118 -z,y,-x
119 z,-y,-x
120 z,y,x
121 -x,-1/2-y,-1/2-z
122 x,-1/2+y,-1/2-z
123 x,-1/2-y,-1/2+z
124 -x,-1/2+y,-1/2+z
125 -z,-1/2-x,-1/2-y
126 -z,-1/2+x,-1/2+y
127 z,-1/2+x,-1/2-y
128 z,-1/2-x,-1/2+y
129 -y,-1/2-z,-1/2-x
130 y,-1/2-z,-1/2+x
131 -y,-1/2+z,-1/2+x
132 y,-1/2+z,-1/2-x
133 -y,-1/2-x,-1/2+z
134 y,-1/2+x,-1/2+z
135 -y,-1/2+x,-1/2-z
136 y,-1/2-x,-1/2-z
137 -x,-1/2-z,-1/2+y
138 x,-1/2-z,-1/2-y
139 x,-1/2+z,-1/2+y
140 -x,-1/2+z,-1/2-y
141 -z,-1/2-y,-1/2+x
142 -z,-1/2+y,-1/2-x
143 z,-1/2-y,-1/2-x
144 z,-1/2+y,-1/2+x
145 -1/2-x,-y,-1/2-z
146 -1/2+x,y,-1/2-z
147 -1/2+x,-y,-1/2+z
148 -1/2-x,y,-1/2+z
149 -1/2-z,-x,-1/2-y
150 -1/2-z,x,-1/2+y
151 -1/2+z,x,-1/2-y
152 -1/2+z,-x,-1/2+y
153 -1/2-y,-z,-1/2-x
154 -1/2+y,-z,-1/2+x
155 -1/2-y,z,-1/2+x
156 -1/2+y,z,-1/2-x
157 -1/2-y,-x,-1/2+z
158 -1/2+y,x,-1/2+z
159 -1/2-y,x,-1/2-z
160 -1/2+y,-x,-1/2-z
161 -1/2-x,-z,-1/2+y
162 -1/2+x,-z,-1/2-y
163 -1/2+x,z,-1/2+y
164 -1/2-x,z,-1/2-y
165 -1/2-z,-y,-1/2+x
166 -1/2-z,y,-1/2-x
167 -1/2+z,-y,-1/2-x
168 -1/2+z,y,-1/2+x
169 -1/2-x,-1/2-y,-z
170 -1/2+x,-1/2+y,-z
171 -1/2+x,-1/2-y,z
172 -1/2-x,-1/2+y,z
173 -1/2-z,-1/2-x,-y
174 -1/2-z,-1/2+x,y
175 -1/2+z,-1/2+x,-y
176 -1/2+z,-1/2-x,y
177 -1/2-y,-1/2-z,-x
178 -1/2+y,-1/2-z,x
179 -1/2-y,-1/2+z,x
180 -1/2+y,-1/2+z,-x
181 -1/2-y,-1/2-x,z
182 -1/2+y,-1/2+x,z
183 -1/2-y,-1/2+x,-z
184 -1/2+y,-1/2-x,-z
185 -1/2-x,-1/2-z,y
186 -1/2+x,-1/2-z,-y
187 -1/2+x,-1/2+z,y
188 -1/2-x,-1/2+z,-y
189 -1/2-z,-1/2-y,x
190 -1/2-z,-1/2+y,-x
191 -1/2+z,-1/2-y,-x
192 -1/2+z,-1/2+y,x
_cell_length_a 26.3929(13)
_cell_length_b 26.3929(13)
_cell_length_c 26.3929(13)
_cell_angle_alpha 90
_cell_angle_beta 90
_cell_angle_gamma 90
_cell_formula_units_Z 4
loop_
_atom_type_symbol
_atom_type_radius_bond
C 0.68
H 0.23
Cu 1.09
Li 1.28
O 0.69
P 1.05
W 1.37
loop_
_atom_site_label
_atom_site_type_symbol
_atom_site_fract_x
_atom_site_fract_y
_atom_site_fract_z
Cu1 Cu 0.50000 0.78493(3) 0.21507(3)
C1 C 0.3874(2) 0.82292(17) 0.32292(17)
C2 C 0.4312(2) 0.79726(16) 0.29726(16)
C3 C 0.36588(17) 0.86588(17) 0.3009(2)
H1 H 0.38000 0.88000 0.27180
O1 O 0.50000 0.8431(2) 0.1569(2)
O2 O 0.44757(13) 0.81681(13) 0.25682(13)
O3 O 0.50000 0.9227(4) 0.2572(5)
O4 O 0.5770(14) 0.9230(14) 0.1713(15)
Li1 Li 0.702(3) 0.798(3) 0.202(3)
P1 P 0.50000 1.00000 0.50000
W1 W 0.50000 0.90469(1) 0.40469(1)
O5 O 0.50000 0.8598(2) 0.3598(2)
O6 O 0.4501(2) 0.9501(2) 0.3799(3)
O7 O 0.4660(3) 0.9660(3) 0.4660(3)
O8? O 0.6274(16) 0.8328(14) 0.1672(14)
C1BA C 0.32292(20) 0.88740(17) 0.32292(17)
C3BC C 0.36588(17) 0.80090(17) 0.36588(20)
O2R O 0.55243(13) 0.74318(13) 0.18319(13)
O2UC O 0.55243(13) 0.81681(13) 0.25682(13)
O2ID O 0.44757(13) 0.74318(13) 0.18319(13)
O2HE O 0.44757(13) 0.75682(13) 0.31681(13)
W1BA W 0.40469 1.00000(1) 0.40469(1)
W1T W 0.40469 0.90469(1) 0.50000(1)
O6OA O 0.5499(2) 0.8799(2) 0.4501(3)
O6BC O 0.4501(2) 0.8799(2) 0.4501(3)
O6IC O 0.5499(2) 0.9501(2) 0.3799(3)
O7A O 0.5340(3) 1.0340(3) 0.4660(3)
O7B O 0.5340(3) 0.9660(3) 0.5340(3)
O7C O 0.4660(3) 1.0340(3) 0.5340(3)
O7T O 0.4660(3) 0.9660(3) 0.5340(3)
O7U O 0.4660(3) 1.0340(3) 0.4660(3)
O7V O 0.5340(3) 0.9660(3) 0.4660(3)
O7W O 0.5340(3) 1.0340(3) 0.5340(3)
#END
