
#######################################################################
#
#                 Cambridge Crystallographic Data Centre
#                                CCDC
#
#######################################################################
#
# If this CIF has been generated from an entry in the Cambridge
# Structural Database, then it will include bibliographic, chemical,
# crystal, experimental, refinement or atomic coordinate data resulting
# from the CCDC's data processing and validation procedures.
#
#######################################################################

data_CSD_CIF_XADFIS
_audit_creation_date 2005-01-11
_audit_creation_method CSD-ConQuest-V1
_database_code_CSD XADFIS
_database_code_depnum_ccdc_archive 'CCDC 246877'
_chemical_formula_sum 'C2 H12 Mo2 N2 O11 P2'
_chemical_formula_moiety
;
(C2 H4 Mo2 O11 P2 2-)n,2n(H4 N1 1+)
;
_journal_coden_Cambridge 9
_journal_volume 43
_journal_year 2004
_journal_page_first 4610
_journal_name_full 'Inorg.Chem. '
loop_
_publ_author_name
"K.P.Rao"
"V.Balraj"
"M.P.Minimol"
"K.Vidyasagar"
_chemical_name_systematic
;
catena-(Diammonium 
(\m~6~-ethylenediphosphonato)-(\m~2~-oxo)-bis(dioxo-molybdenum(vi)))
;
_cell_volume   2470.506
_exptl_crystal_colour 'pale pink'
_exptl_crystal_density_diffrn 2.656
_exptl_crystal_description 'flake'
_diffrn_ambient_temperature 293
#These two values have been output from a single CSD field.
_refine_ls_R_factor_gt 0.0342
_refine_ls_wR_factor_gt 0.0342
_symmetry_cell_setting orthorhombic
_symmetry_space_group_name_H-M 'C m c a'
_symmetry_Int_Tables_number 64
loop_
_symmetry_equiv_pos_site_id
_symmetry_equiv_pos_as_xyz
1 x,y,z
2 1/2+x,1/2+y,z
3 -x,1/2+y,1/2-z
4 -x,1/2-y,1/2+z
5 1/2-x,y,1/2-z
6 1/2-x,-y,1/2+z
7 x,-y,-z
8 1/2+x,1/2-y,-z
9 -x,-y,-z
10 -1/2-x,-1/2-y,-z
11 x,-1/2-y,-1/2+z
12 x,-1/2+y,-1/2-z
13 -1/2+x,-y,-1/2+z
14 -1/2+x,y,-1/2-z
15 -x,y,z
16 -1/2-x,-1/2+y,z
_cell_length_a 25.600(12)
_cell_length_b 10.016(4)
_cell_length_c 9.635(3)
_cell_angle_alpha 90
_cell_angle_beta 90
_cell_angle_gamma 90
_cell_formula_units_Z 8
loop_
_atom_type_symbol
_atom_type_radius_bond
C 0.68
H 0.23
Mo 1.42
N 0.68
O 0.68
P 1.05
loop_
_atom_site_label
_atom_site_type_symbol
_atom_site_fract_x
_atom_site_fract_y
_atom_site_fract_z
Mo1 Mo 0.100697(17) 0.37768(4) 0.14451(5)
P1 P 0.17286(5) 0.16339(13) 0.35357(14)
C1 C 0.2424(2) 0.1746(6) 0.3266(5)
O1 O 0.0799(2) 0.50000 0.00000
O2 O 0.06839(16) 0.2379(4) 0.0867(4)
O3 O 0.05803(16) 0.4328(4) 0.2684(4)
O4 O 0.14675(16) 0.2849(4) 0.2844(4)
O5 O 0.15338(16) 0.0346(4) 0.2886(4)
O6 O 0.16479(14) 0.1688(4) 0.5096(4)
H1 H 0.257(3) 0.255(4) 0.361(7)
H2 H 0.259(3) 0.097(4) 0.362(7)
N1 N 0.1278(3) 0.00000 0.00000
N2 N 0.50000 0.1755(8) 0.1659(8)
C1D C 0.2576(2) 0.1746(6) 0.1734(5)
P1D P 0.32714(5) 0.16339(13) 0.14643(14)
O4D O 0.35325(16) 0.2849(4) 0.2156(4)
O5D O 0.34662(16) 0.0346(4) 0.2114(4)
O6D O 0.33521(14) 0.1688(4) -0.0096(4)
H1D H 0.243(3) 0.255(4) 0.139(7)
H2D H 0.241(3) 0.097(4) 0.138(7)
Mo1F Mo 0.100697(17) 0.62232(4) -0.14451(5)
O2F O 0.06839(16) 0.7621(4) -0.0867(4)
O3F O 0.05803(16) 0.5672(4) -0.2684(4)
O5K O 0.15338(16) 0.5346(4) 0.2114(4)
O6J O 0.16479(14) 0.3312(4) 0.0096(4)
Mo1K Mo 0.100697(17) -0.12232(4) 0.35549(5)
Mo1J Mo 0.100697(17) 0.12232(4) 0.64451(5)
Mo1D Mo 0.399303(17) 0.37768(4) 0.35549(5)
Mo1O Mo 0.399303(17) -0.12232(4) 0.14451(5)
Mo1I Mo 0.399303(17) 0.12232(4) -0.14451(5)
O4F O 0.14675(16) 0.7151(4) -0.2844(4)
O5J O 0.15338(16) 0.4654(4) -0.2114(4)
O6K O 0.16479(14) 0.6688(4) -0.0096(4)
#END
