
#######################################################################
#
#                 Cambridge Crystallographic Data Centre
#                                CCDC
#
#######################################################################
#
# If this CIF has been generated from an entry in the Cambridge
# Structural Database, then it will include bibliographic, chemical,
# crystal, experimental, refinement or atomic coordinate data resulting
# from the CCDC's data processing and validation procedures.
#
#######################################################################

data_CSD_CIF_XADFOY
_audit_creation_date 2005-01-11
_audit_creation_method CSD-ConQuest-V1
_database_code_CSD XADFOY
_database_code_depnum_ccdc_archive 'CCDC 246878'
_chemical_formula_sum 'C2 H7 K1 Mo2 O12 P2'
_chemical_formula_moiety
;
(C2 H4 Mo2 O11 P2 2-)n,n(K1 1+),n(H3 O1 1+)
;
_journal_coden_Cambridge 9
_journal_volume 43
_journal_year 2004
_journal_page_first 4610
_journal_name_full 'Inorg.Chem. '
loop_
_publ_author_name
"K.P.Rao"
"V.Balraj"
"M.P.Minimol"
"K.Vidyasagar"
_chemical_name_systematic
;
catena-(Oxonium potassium 
(\m~6~-ethylenediphosphonato)-(\m~2~-oxo)-bis(dioxo-molybdenum(vi)))
;
_cell_volume   2439.131
_exptl_crystal_colour 'pale pink'
_exptl_crystal_density_diffrn 2.81
_exptl_crystal_description 'flake'
_diffrn_ambient_temperature 293
#These two values have been output from a single CSD field.
_refine_ls_R_factor_gt 0.0347
_refine_ls_wR_factor_gt 0.0347
_symmetry_cell_setting orthorhombic
_symmetry_space_group_name_H-M 'C m c a'
_symmetry_Int_Tables_number 64
loop_
_symmetry_equiv_pos_site_id
_symmetry_equiv_pos_as_xyz
1 x,y,z
2 1/2+x,1/2+y,z
3 -x,1/2+y,1/2-z
4 -x,1/2-y,1/2+z
5 1/2-x,y,1/2-z
6 1/2-x,-y,1/2+z
7 x,-y,-z
8 1/2+x,1/2-y,-z
9 -x,-y,-z
10 -1/2-x,-1/2-y,-z
11 x,-1/2-y,-1/2+z
12 x,-1/2+y,-1/2-z
13 -1/2+x,-y,-1/2+z
14 -1/2+x,y,-1/2-z
15 -x,y,z
16 -1/2-x,-1/2+y,z
_cell_length_a 25.625(11)
_cell_length_b 10.007(2)
_cell_length_c 9.5119(11)
_cell_angle_alpha 90
_cell_angle_beta 90
_cell_angle_gamma 90
_cell_formula_units_Z 8
loop_
_atom_type_symbol
_atom_type_radius_bond
C 0.68
H 0.23
K 1.33
Mo 1.43
O 0.68
P 1.05
loop_
_atom_site_label
_atom_site_type_symbol
_atom_site_fract_x
_atom_site_fract_y
_atom_site_fract_z
Mo1 Mo 0.100790(19) 0.37938(5) 0.14802(5)
P1 P 0.17269(6) 0.16481(15) 0.35504(16)
C1 C 0.2418(2) 0.1728(8) 0.3271(7)
O1 O 0.0789(2) 0.50000 0.00000
O2 O 0.07042(17) 0.2364(5) 0.0895(5)
O3 O 0.05727(17) 0.4323(5) 0.2732(5)
O4 O 0.14765(17) 0.2918(4) 0.2929(4)
O5 O 0.15136(17) 0.0418(4) 0.2831(4)
O6 O 0.16562(15) 0.1642(4) 0.5145(4)
H1 H 0.257(3) 0.243(5) 0.369(7)
H2 H 0.259(3) 0.106(5) 0.369(8)
K1 K 0.12391(12) 0.00000 0.00000
O7 O 0.50000 0.1754(7) 0.1652(8)
C1D C 0.2582(2) 0.1728(8) 0.1729(7)
P1D P 0.32731(6) 0.16481(15) 0.14496(16)
O4D O 0.35235(17) 0.2918(4) 0.2071(4)
O5D O 0.34864(17) 0.0418(4) 0.2169(4)
O6D O 0.33438(15) 0.1642(4) -0.0145(4)
H1D H 0.243(3) 0.243(5) 0.131(7)
H2D H 0.241(3) 0.106(5) 0.131(8)
Mo1F Mo 0.100790(19) 0.62062(5) -0.14802(5)
O2F O 0.07042(17) 0.7636(5) -0.0895(5)
O3F O 0.05727(17) 0.5677(5) -0.2732(5)
O5K O 0.15136(17) 0.5418(4) 0.2169(4)
O6J O 0.16562(15) 0.3358(4) 0.0145(4)
Mo1K Mo 0.100790(19) -0.12062(5) 0.35198(5)
Mo1J Mo 0.100790(19) 0.12062(5) 0.64802(5)
Mo1D Mo 0.399210(19) 0.37938(5) 0.35198(5)
Mo1O Mo 0.399210(19) -0.12062(5) 0.14802(5)
Mo1I Mo 0.399210(19) 0.12062(5) -0.14802(5)
O4F O 0.14765(17) 0.7082(4) -0.2929(4)
O5J O 0.15136(17) 0.4582(4) -0.2169(4)
O6K O 0.16562(15) 0.6642(4) -0.0145(4)
#END
