
#######################################################################
#
#                 Cambridge Crystallographic Data Centre
#                                CCDC
#
#######################################################################
#
# If this CIF has been generated from an entry in the Cambridge
# Structural Database, then it will include bibliographic, chemical,
# crystal, experimental, refinement or atomic coordinate data resulting
# from the CCDC's data processing and validation procedures.
#
#######################################################################

data_CSD_CIF_XADGOA
_audit_creation_date 2011-03-21
_audit_creation_method CSD-ConQuest-V1
_database_code_CSD XADGOA
_database_code_depnum_ccdc_archive 'CCDC 769207'
_chemical_formula_sum 'C11 H13 N1 O12 U2'
_chemical_formula_moiety
;
(C2 H8 N1 1+)n,n(C9 H3 O11 U2 1-),n(H2 O1)
;
_journal_coden_Cambridge 1290
_journal_year 2010
_journal_page_first 3780
_journal_name_full 'Eur.J.Inorg.Chem. '
loop_
_publ_author_name
"Zuo-Lei Liao"
"Guo-Dong Li"
"Xiao Wei"
"Yang Yu"
"Jie-Sheng Chen"
_chemical_name_systematic
;
catena-(N,N-Dimethylammonium 
(\m~5~-benzene-1,2,5-tricarboxylato)-(\m~3~-oxo)-tetraoxo-di-uranium 
monohydrate)
;
_cell_volume   1674.787
_exptl_crystal_colour 'yellow'
_exptl_crystal_density_diffrn 3.281
_exptl_crystal_description 'block'
_diffrn_ambient_temperature 293
#These two values have been output from a single CSD field.
_refine_ls_R_factor_gt 0.0301
_refine_ls_wR_factor_gt 0.0301
_symmetry_cell_setting monoclinic
_symmetry_space_group_name_H-M 'P 21/n'
_symmetry_Int_Tables_number 14
loop_
_symmetry_equiv_pos_site_id
_symmetry_equiv_pos_as_xyz
1 x,y,z
2 1/2-x,1/2+y,1/2-z
3 -x,-y,-z
4 -1/2+x,-1/2-y,-1/2+z
_cell_length_a 11.750(2)
_cell_length_b 9.832(2)
_cell_length_c 14.630(3)
_cell_angle_alpha 90
_cell_angle_beta 97.73(3)
_cell_angle_gamma 90
_cell_formula_units_Z 4
loop_
_atom_type_symbol
_atom_type_radius_bond
C 0.68
H 0.23
N 0.68
O 0.69
U 1.52
loop_
_atom_site_label
_atom_site_type_symbol
_atom_site_fract_x
_atom_site_fract_y
_atom_site_fract_z
C1 C 0.2750(5) 0.1406(7) 0.2187(5)
C2 C 0.1500(6) 0.1229(7) 0.2217(5)
C3 C 0.0929(6) 0.2086(8) 0.2760(5)
H1 H 0.13340 0.27450 0.31260
C4 C -0.0242(6) 0.1954(8) 0.2753(6)
H2 H -0.06220 0.25230 0.31200
C5 C -0.0857(5) 0.0985(7) 0.2205(5)
C6 C -0.0280(6) 0.0074(7) 0.1686(5)
C7 C 0.0889(5) 0.0196(7) 0.1693(5)
H3 H 0.12750 -0.04040 0.13510
C8 C -0.0853(5) -0.1075(8) 0.1089(5)
C9 C -0.2143(6) 0.0927(8) 0.2182(6)
C10 C 0.7877(15) 0.5785(14) -0.0726(8)
H4 H 0.79700 0.49650 -0.10640
H5 H 0.85160 0.63800 -0.07700
H6 H 0.71780 0.62290 -0.09810
C11 C 0.682(2) 0.4657(16) 0.0416(16)
H7 H 0.61400 0.52000 0.02720
H8 H 0.68990 0.43900 0.10520
H9 H 0.67610 0.38610 0.00320
N1 N 0.7827(10) 0.5452(10) 0.0248(7)
H10 H 0.84630 0.49830 0.04660
H11 H 0.78340 0.62320 0.05700
O1 O 0.3148(4) -0.1420(5) 0.0154(4)
O2 O 0.3634(4) 0.2056(5) -0.0340(4)
O3 O 0.4885(4) -0.0327(5) -0.0888(3)
O4 O 0.4780(5) -0.3011(6) -0.1603(4)
O5 O 0.4686(5) 0.0009(5) -0.2906(4)
O6 O 0.3397(4) 0.2008(6) 0.2811(3)
O7 O 0.3193(4) 0.0887(5) 0.1513(3)
O8 O -0.0682(4) -0.2307(5) 0.1341(3)
O9 O -0.1409(4) -0.0743(5) 0.0310(3)
O10 O -0.2698(4) 0.0049(7) 0.1684(4)
O11 O -0.2637(5) 0.1745(7) 0.2637(6)
O12 O 0.9226(14) 0.3161(16) 0.0213(10)
U1 U 0.345670(19) 0.03086(3) -0.008870(17)
U2 U 0.47242(2) -0.14517(3) -0.221070(17)
O3B O 0.5115(4) 0.0327(5) 0.0888(3)
O6B O 0.6603(4) -0.2008(6) -0.2811(3)
O7B O 0.6807(4) -0.0887(5) -0.1513(3)
O8C O 0.4318(4) -0.2693(5) -0.3659(3)
O9B O 0.1409(4) 0.0743(5) -0.0310(3)
O10B O 0.2698(4) -0.0049(7) -0.1684(4)
O11B O 0.2637(5) -0.1745(7) -0.2637(6)
U1B U 0.654330(19) -0.03086(3) 0.008870(17)
U1B* U -0.345670(19) -0.03086(3) 0.008870(17)
U2B U 0.52758(2) 0.14517(3) 0.221070(17)
U2C U -0.02758(2) -0.35483(3) 0.278930(17)
U2B* U -0.47242(2) 0.14517(3) 0.221070(17)
#END
