
#######################################################################
#
#                 Cambridge Crystallographic Data Centre
#                                CCDC
#
#######################################################################
#
# If this CIF has been generated from an entry in the Cambridge
# Structural Database, then it will include bibliographic, chemical,
# crystal, experimental, refinement or atomic coordinate data resulting
# from the CCDC's data processing and validation procedures.
#
#######################################################################

data_CSD_CIF_XAFBIR
_audit_creation_date 2011-02-15
_audit_creation_method CSD-ConQuest-V1
_database_code_CSD XAFBIR
_database_code_depnum_ccdc_archive 'CCDC 776714'
_chemical_formula_sum 'C72 H66 Bi4 N8 O30'
_chemical_formula_moiety
;
(C62 H36 Bi4 N4 O28 2-)n,2n(C3 H7 N1 O1),2n(C2 H8 N1 1+)
;
_journal_coden_Cambridge 1290
_journal_year 2010
_journal_page_first 3823
_journal_name_full 'Eur.J.Inorg.Chem. '
loop_
_publ_author_name
"A.Thirumurugan"
"A.K.Cheetham"
_chemical_name_systematic
;
catena-(bis(dimethyl ammonium) 
hexakis(\m~3~-terephthalato)-(\m~2~-terephthalato)-bis(1H-imidazole)-tetra-bis
muth(iii) N,N-dimethylformamide solvate)
;
_cell_volume   2655.725
_exptl_crystal_colour 'colorless'
_exptl_crystal_density_diffrn 1.475
_exptl_crystal_description 'block'
_diffrn_ambient_temperature 120
_refine_special_details
;
C52A,N3A and C52B,N3B disordered over two sites with occupancies 0.50:0.50.

;
#These two values have been output from a single CSD field.
_refine_ls_R_factor_gt 0.0481
_refine_ls_wR_factor_gt 0.0481
_symmetry_cell_setting triclinic
_symmetry_space_group_name_H-M 'P -1'
_symmetry_Int_Tables_number 2
loop_
_symmetry_equiv_pos_site_id
_symmetry_equiv_pos_as_xyz
1 x,y,z
2 -x,-y,-z
_cell_length_a 13.6855(3)
_cell_length_b 13.7530(3)
_cell_length_c 15.3046(3)
_cell_angle_alpha 73.035(1)
_cell_angle_beta 75.047(1)
_cell_angle_gamma 82.048(1)
_cell_formula_units_Z 1
loop_
_atom_type_symbol
_atom_type_radius_bond
C 0.66
H 0.23
Bi 1.68
N 0.68
O 0.76
loop_
_atom_site_label
_atom_site_type_symbol
_atom_site_fract_x
_atom_site_fract_y
_atom_site_fract_z
C1 C 0.0024(14) 0.9769(14) 0.9631(12)
C2 C 0.0382(18) 0.8711(18) 0.8569(17)
N1 N 0.063(2) 0.871(2) 0.947(2)
C3 C 0.8161(14) 0.8410(15) 0.1552(13)
H1 H 0.87550 0.80890 0.17700
H2 H 0.81760 0.91360 0.14050
H3 H 0.81460 0.82190 0.10010
C4 C 0.686(2) 0.867(2) 0.2830(18)
H4 H 0.61520 0.87980 0.28350
H5 H 0.71720 0.93120 0.26210
H6 H 0.69420 0.83280 0.34530
C5 C 0.6815(19) 0.7319(19) 0.2426(18)
H7 H 0.63110 0.71050 0.29660
N2 N 0.7302(12) 0.8098(12) 0.2249(11)
O1 O 0.709(3) 0.688(3) 0.180(3)
C6 C 0.651(3) 0.817(3) 0.695(3)
H8 H 0.69560 0.81980 0.63500
H9 H 0.63140 0.88570 0.70060
H10 H 0.59240 0.78300 0.70250
C7 C 0.771(3) 0.689(3) 0.744(3)
H11 H 0.83560 0.69220 0.75600
H12 H 0.77800 0.70000 0.67770
H13 H 0.74540 0.62360 0.77690
C8 C 0.729(2) 0.814(3) 0.822(2)
H14 H 0.70160 0.88100 0.81630
N3 N 0.707(3) 0.760(3) 0.772(2)
O2 O 0.776(2) 0.783(2) 0.868(2)
C9 C 0.0345(6) 0.7823(6) 0.3651(5)
C10 C -0.0279(6) 0.8434(6) 0.4280(5)
C11 C -0.1077(6) 0.9113(7) 0.3994(6)
H15 H -0.12330 0.91520 0.34280
C12 C -0.1622(7) 0.9717(8) 0.4545(7)
H16 H -0.21390 1.01720 0.43450
C13 C -0.0086(6) 0.8364(6) 0.5154(6)
H17 H 0.04270 0.79050 0.53600
C14 C -0.0642(6) 0.8963(6) 0.5706(6)
H18 H -0.05070 0.89080 0.62850
C15 C -0.1414(6) 0.9659(6) 0.5402(6)
C16 C -0.1958(6) 1.0371(6) 0.5968(6)
C17 C 0.3103(6) 0.5434(6) 0.3225(6)
C18 C 0.3899(6) 0.4785(6) 0.3692(6)
C19 C 0.4850(6) 0.5127(7) 0.3522(6)
H19 H 0.50190 0.57370 0.30730
C20 C 0.5549(6) 0.4572(7) 0.4011(6)
H20 H 0.61920 0.48020 0.38850
C21 C 0.3649(6) 0.3852(6) 0.4328(6)
H21 H 0.30260 0.35980 0.44110
C22 C 0.4350(6) 0.3302(6) 0.4837(6)
H22 H 0.41870 0.26860 0.52780
C23 C 0.5295(6) 0.3668(6) 0.4691(6)
C24 C 0.6011(6) 0.3118(6) 0.5307(6)
C25 C 0.5341(6) 1.0925(6) -0.1900(6)
C26 C 0.4587(6) 1.0247(7) -0.1192(5)
C27 C 0.3977(6) 1.0564(7) -0.0440(6)
H23 H 0.39930 1.12240 -0.04040
C28 C 0.3340(6) 0.9895(7) 0.0260(6)
H24 H 0.29420 1.01030 0.07740
C29 C 0.4535(8) 0.9284(8) -0.1264(7)
H25 H 0.49400 0.90790 -0.17770
C30 C 0.3880(8) 0.8611(8) -0.0573(7)
H26 H 0.38370 0.79640 -0.06300
C31 C 0.3295(6) 0.8917(7) 0.0199(6)
C32 C 0.2631(6) 0.8166(7) 0.0972(6)
C33 C 0.0736(6) 0.5834(6) 0.1207(6)
C34 C 0.0370(7) 0.5403(7) 0.0582(6)
C35 C 0.0862(8) 0.4534(8) 0.0328(8)
H27 H 0.14320 0.42230 0.05480
C36 C -0.0499(8) 0.5867(8) 0.0255(8)
H28 H -0.08310 0.64430 0.04290
C37 C 0.0058(6) 0.4645(6) 0.4056(5)
H29 H 0.06490 0.42540 0.41600
C38 C -0.0998(6) 0.5845(7) 0.3516(7)
H30 H -0.12580 0.64510 0.31650
C39 C -0.1561(7) 0.5114(7) 0.4166(7)
H31 H -0.22650 0.51240 0.43470
N4 N 0.0032(5) 0.5556(5) 0.3451(5)
N5 N -0.0886(5) 0.4358(5) 0.4501(5)
H32 H -0.10370 0.37970 0.49230
O3 O 0.0093(4) 0.7844(4) 0.2914(4)
O4 O 0.1130(4) 0.7290(4) 0.3888(4)
O5 O -0.2593(4) 1.1052(5) 0.5611(4)
O6 O 0.3296(4) 0.6322(4) 0.2725(4)
O7 O 0.2267(4) 0.5067(4) 0.3345(4)
O8 O 0.6885(4) 0.3375(4) 0.5166(4)
O9 O 0.5635(4) 0.2397(4) 0.6028(4)
O10 O 0.5368(4) 1.1823(4) -0.1898(4)
O11 O 0.5987(4) 1.0552(5) -0.2512(4)
O12 O 0.2282(4) 0.8376(5) 0.1749(4)
O13 O 0.2449(6) 0.7368(6) 0.0834(5)
O14 O 0.1476(5) 0.5351(5) 0.1554(4)
O15 O 0.0326(4) 0.6644(5) 0.1398(4)
O16 O -0.1782(4) 1.0326(5) 0.6741(4)
Bi1 Bi 0.14235(2) 0.65517(2) 0.241778(19)
Bi2 Bi 0.30676(2) 0.80978(2) 0.324470(19)
C40? C -0.0331(18) 0.9614(18) 0.8344(16)
N6? N -0.0465(18) 1.0091(18) 0.8829(17)
C1A C -0.0024(14) 1.0231(14) 1.0369(12)
C2A C -0.0382(18) 1.1289(18) 1.1431(17)
N1A N -0.063(2) 1.129(2) 1.053(2)
C9A C -0.0345(6) 1.2177(6) 0.6349(5)
C10A C 0.0279(6) 1.1566(6) 0.5720(5)
C11A C 0.1077(6) 1.0887(7) 0.6006(6)
H15A H 0.12330 1.08480 0.65720
C12A C 0.1622(7) 1.0283(8) 0.5455(7)
H16A H 0.21390 0.98280 0.56550
C13A C 0.0086(6) 1.1636(6) 0.4846(6)
H17A H -0.04270 1.20950 0.46400
C14A C 0.0642(6) 1.1037(6) 0.4294(6)
H18A H 0.05070 1.10920 0.37150
C15A C 0.1414(6) 1.0341(6) 0.4598(6)
C16A C 0.1958(6) 0.9629(6) 0.4032(6)
C17A C 0.6897(6) 0.4566(6) 0.6775(6)
C18A C 0.6101(6) 0.5215(6) 0.6308(6)
C19A C 0.5150(6) 0.4873(7) 0.6478(6)
H19A H 0.49810 0.42630 0.69270
C20A C 0.4451(6) 0.5428(7) 0.5989(6)
H20A H 0.38080 0.51980 0.61150
C21A C 0.6351(6) 0.6148(6) 0.5672(6)
H21A H 0.69740 0.64020 0.55890
C22A C 0.5650(6) 0.6698(6) 0.5163(6)
H22A H 0.58130 0.73140 0.47220
C23A C 0.4705(6) 0.6332(6) 0.5309(6)
C24A C 0.3989(6) 0.6882(6) 0.4693(6)
C25A C 0.4659(6) 0.9075(6) 0.1900(6)
C26A C 0.5413(6) 0.9753(7) 0.1192(5)
C27A C 0.6023(6) 0.9436(7) 0.0440(6)
H23A H 0.60070 0.87760 0.04040
C28A C 0.6660(6) 1.0105(7) -0.0260(6)
H24A H 0.70580 0.98970 -0.07740
C29A C 0.5465(8) 1.0716(8) 0.1264(7)
H25A H 0.50600 1.09210 0.17770
C30A C 0.6120(8) 1.1389(8) 0.0573(7)
H26A H 0.61630 1.20360 0.06300
C31A C 0.6705(6) 1.1083(7) -0.0199(6)
C32A C 0.7369(6) 1.1834(7) -0.0972(6)
C33A C -0.0736(6) 0.4166(6) -0.1207(6)
C34A C -0.0370(7) 0.4597(7) -0.0582(6)
C35A C -0.0862(8) 0.5466(8) -0.0328(8)
H27A H -0.14320 0.57770 -0.05480
C36A C 0.0499(8) 0.4133(8) -0.0255(8)
H28A H 0.08310 0.35570 -0.04290
C37A C -0.0058(6) 0.5355(6) -0.4056(5)
H29A H -0.06490 0.57460 -0.41600
C38A C 0.0998(6) 0.4155(7) -0.3516(7)
H30A H 0.12580 0.35490 -0.31650
C39A C 0.1561(7) 0.4886(7) -0.4166(7)
H31A H 0.22650 0.48760 -0.43470
N4A N -0.0032(5) 0.4444(5) -0.3451(5)
N5A N 0.0886(5) 0.5642(5) -0.4501(5)
H32A H 0.10370 0.62030 -0.49230
O3A O -0.0093(4) 1.2156(4) 0.7086(4)
O3A* O -0.0093(4) 0.2156(4) -0.2914(4)
O4A O -0.1130(4) 1.2710(4) 0.6112(4)
O4A* O -0.1130(4) 0.2710(4) -0.3888(4)
O5A O 0.2593(4) 0.8948(5) 0.4389(4)
O6A O 0.6704(4) 0.3678(4) 0.7275(4)
O6A* O -0.3296(4) 0.3678(4) -0.2725(4)
O6A** O -0.3296(4) 1.3678(4) 0.7275(4)
O7A O 0.7733(4) 0.4933(4) 0.6655(4)
O7A* O -0.2267(4) 0.4933(4) -0.3345(4)
O8A O 0.3115(4) 0.6625(4) 0.4834(4)
O8* O -0.3115(4) 1.3375(4) 0.5166(4)
O9A O 0.4365(4) 0.7603(4) 0.3972(4)
O9* O -0.4365(4) 1.2397(4) 0.6028(4)
O10A O 0.4632(4) 0.8177(4) 0.1898(4)
O10* O -0.4632(4) 1.1823(4) 0.8102(4)
O11A O 0.4013(4) 0.9448(5) 0.2512(4)
O11* O -0.4013(4) 1.0552(5) 0.7488(4)
O12A O 0.7718(4) 1.1624(5) -0.1749(4)
O12A* O -0.2282(4) 0.1624(5) -0.1749(4)
O12A** O -0.2282(4) 1.1624(5) 0.8251(4)
O13A O 0.7551(6) 1.2632(6) -0.0834(5)
O13A* O -0.2449(6) 0.2632(6) -0.0834(5)
O14A O -0.1476(5) 0.4649(5) -0.1554(4)
O15A O -0.0326(4) 0.3356(5) -0.1398(4)
O16A O 0.1782(4) 0.9674(5) 0.3259(4)
Bi1A Bi -0.14235(2) 0.34483(2) -0.241778(19)
Bi1A* Bi -0.14235(2) 1.34483(2) 0.758222(19)
Bi1A** Bi 0.85765(2) 0.34483(2) 0.758222(19)
Bi1A*** Bi 0.85765(2) 1.34483(2) -0.241778(19)
Bi2A Bi -0.30676(2) 1.19022(2) 0.675530(19)
Bi2A* Bi 0.69324(2) 0.19022(2) 0.675530(19)
Bi2A** Bi 0.69324(2) 1.19022(2) -0.324470(19)
#END
