
#######################################################################
#
#                 Cambridge Crystallographic Data Centre
#                                CCDC
#
#######################################################################
#
# If this CIF has been generated from an entry in the Cambridge
# Structural Database, then it will include bibliographic, chemical,
# crystal, experimental, refinement or atomic coordinate data resulting
# from the CCDC's data processing and validation procedures.
#
#######################################################################

data_CSD_CIF_XAFBAJ
_audit_creation_date 2011-02-15
_audit_creation_method CSD-ConQuest-V1
_database_code_CSD XAFBAJ
_database_code_depnum_ccdc_archive 'CCDC 776712'
_chemical_formula_sum 'C54 H74 Bi2 N8 O22'
_chemical_formula_moiety
;
(C38 H30 Bi2 N2 O18 2-)n,4n(C3 H7 N1 O1),2n(C2 H8 N1 1+)
;
_journal_coden_Cambridge 1290
_journal_year 2010
_journal_page_first 3823
_journal_name_full 'Eur.J.Inorg.Chem. '
loop_
_publ_author_name
"A.Thirumurugan"
"A.K.Cheetham"
_chemical_name_systematic
;
catena-(bis(dimethyl ammonium) 
tetrakis(\m~2~-terephthalato)-bis(N,N-dimethylformamide)-di-bismuth(iii) 
N,N-dimethylformamide solvate)
;
_cell_volume   1577.788
_exptl_crystal_colour 'colorless'
_exptl_crystal_density_diffrn 1.689
_exptl_crystal_description 'block'
_diffrn_ambient_temperature 120
#These two values have been output from a single CSD field.
_refine_ls_R_factor_gt 0.0314
_refine_ls_wR_factor_gt 0.0314
_symmetry_cell_setting triclinic
_symmetry_space_group_name_H-M 'P -1'
_symmetry_Int_Tables_number 2
loop_
_symmetry_equiv_pos_site_id
_symmetry_equiv_pos_as_xyz
1 x,y,z
2 -x,-y,-z
_cell_length_a 9.1381(1)
_cell_length_b 10.0961(2)
_cell_length_c 18.7143(3)
_cell_angle_alpha 99.5467(11)
_cell_angle_beta 101.9611(10)
_cell_angle_gamma 105.9549(11)
_cell_formula_units_Z 1
loop_
_atom_type_symbol
_atom_type_radius_bond
C 0.68
H 0.23
Bi 1.65
N 0.68
O 0.82
loop_
_atom_site_label
_atom_site_type_symbol
_atom_site_fract_x
_atom_site_fract_y
_atom_site_fract_z
C1 C 0.5763(5) -0.0409(4) 0.8055(2)
C2 C 0.4417(5) -0.1676(4) 0.8036(2)
C3 C 0.3433(5) -0.1583(4) 0.8507(2)
H1 H 0.36020 -0.07260 0.88370
C4 C 0.4154(5) -0.2962(4) 0.7547(2)
H2 H 0.47960 -0.30280 0.72260
C5 C 0.2945(5) -0.4147(4) 0.7535(2)
H3 H 0.27920 -0.50100 0.72140
C6 C 0.2204(5) -0.2769(4) 0.8484(3)
H4 H 0.15400 -0.27010 0.87940
C7 C 0.1958(4) -0.4055(4) 0.8001(2)
C8 C 0.0691(5) -0.5386(4) 0.7999(2)
C9 C 0.6888(5) 0.1308(4) 0.6530(2)
C10 C 0.5903(4) 0.0646(4) 0.5737(2)
C11 C 0.4472(5) 0.0876(4) 0.5470(2)
H5 H 0.41200 0.14600 0.57840
C12 C 0.6425(5) -0.0235(4) 0.5263(2)
H6 H 0.73770 -0.03910 0.54400
C13 C 0.6764(5) 0.3862(4) 0.9091(2)
C14 C 0.5849(5) 0.4471(4) 0.9555(2)
C15 C 0.4345(5) 0.4498(4) 0.9228(2)
H7 H 0.39110 0.41640 0.87110
C16 C 0.6502(5) 0.4981(4) 1.0329(2)
H8 H 0.75090 0.49690 1.05470
C17 C 0.2857(5) 0.1402(6) 0.7197(3)
H9 H 0.30960 0.20080 0.68630
H10 H 0.32010 0.05950 0.70780
H11 H 0.33930 0.19160 0.77060
C18 C 0.0648(6) -0.0025(6) 0.7599(3)
H12 H -0.04780 -0.02990 0.75160
H13 H 0.11490 0.04650 0.81160
H14 H 0.09550 -0.08560 0.74870
C19 C -0.0068(6) -0.1907(6) 0.5161(3)
H15 H -0.08700 -0.19910 0.47420
C20 C 0.0629(10) -0.3652(6) 0.4365(4)
H16 H 0.13810 -0.41560 0.44200
H17 H 0.07970 -0.30970 0.40020
H18 H -0.04210 -0.43180 0.41980
C21 C 0.2133(7) -0.2603(7) 0.5713(4)
H19 H 0.26640 -0.32610 0.55680
H20 H 0.17360 -0.28130 0.61320
H21 H 0.28620 -0.16550 0.58540
C22 C 0.5048(7) -0.5473(5) 0.6375(3)
H22 H 0.53140 -0.59880 0.67210
C23 C 0.5905(7) -0.3458(6) 0.5837(3)
H23 H 0.68720 -0.27260 0.58850
H24 H 0.51480 -0.30350 0.59710
H25 H 0.54970 -0.40090 0.53270
C24 C 0.7760(6) -0.3910(6) 0.6855(3)
H26 H 0.84230 -0.31050 0.67370
H27 H 0.82080 -0.46650 0.68130
H28 H 0.76800 -0.36500 0.73590
C25 C 1.0456(5) 0.2191(5) 0.9833(3)
H29 H 0.99830 0.28260 1.00230
C26 C 1.2459(7) 0.1054(6) 1.0054(3)
H30 H 1.32170 0.09970 1.04780
H31 H 1.17460 0.01210 0.98030
H32 H 1.29960 0.14530 0.97120
C27 C 1.2057(6) 0.2632(5) 1.1113(2)
H33 H 1.28820 0.23240 1.13680
H34 H 1.24360 0.36420 1.11780
H35 H 1.11670 0.23800 1.13180
N1 N 0.1135(4) 0.0919(4) 0.7107(2)
H36 H 0.08190 0.16830 0.72080
H37 H 0.06410 0.04580 0.66250
N2 N 0.0826(5) -0.2723(5) 0.5085(3)
N3 N 0.6203(5) -0.4375(4) 0.6337(2)
N4 N 1.1579(4) 0.1943(4) 1.0309(2)
O1 O 0.5855(3) 0.0786(3) 0.84558(17)
O2 O 0.6721(4) -0.0547(3) 0.76834(18)
O3 O -0.0505(3) -0.5249(3) 0.82029(19)
O4 O 0.0906(4) -0.6544(3) 0.78136(19)
O5 O 0.6293(3) 0.1966(3) 0.69810(15)
O6 O 0.8224(3) 0.1206(3) 0.67283(16)
O7 O 0.6284(3) 0.3587(3) 0.83730(15)
O8 O 0.7961(3) 0.3593(3) 0.94084(15)
O9 O 0.0067(5) -0.1054(4) 0.5735(2)
O10 O 0.3672(4) -0.5878(4) 0.6003(2)
O11 O 0.9992(4) 0.1636(4) 0.91501(18)
Bi1 Bi 0.796670(16) 0.233065(15) 0.815970(8)
C1* C 1.5763(5) 0.9591(4) 0.8055(2)
C2* C 1.4417(5) 0.8324(4) 0.8036(2)
C3* C 1.3433(5) 0.8417(4) 0.8507(2)
H1* H 1.36020 0.92740 0.88370
C4* C 1.4154(5) 0.7038(4) 0.7547(2)
H2* H 1.47960 0.69720 0.72260
C5* C 1.2945(5) 0.5853(4) 0.7535(2)
H3* H 1.27920 0.49900 0.72140
C6* C 1.2204(5) 0.7231(4) 0.8484(3)
H4* H 1.15400 0.72990 0.87940
C7* C 1.1958(4) 0.5945(4) 0.8001(2)
C8* C 1.0691(5) 0.4614(4) 0.7999(2)
C9A C 0.3112(5) -0.1308(4) 0.3470(2)
C10A C 0.4097(4) -0.0646(4) 0.4263(2)
C11A C 0.5528(5) -0.0876(4) 0.4530(2)
H5A H 0.58800 -0.14600 0.42160
C12A C 0.3575(5) 0.0235(4) 0.4737(2)
H6A H 0.26230 0.03910 0.45600
C13A C 0.3236(5) 0.6138(4) 1.0909(2)
C14A C 0.4151(5) 0.5529(4) 1.0445(2)
C15A C 0.5655(5) 0.5502(4) 1.0772(2)
H7A H 0.60890 0.58360 1.12890
C16A C 0.3498(5) 0.5019(4) 0.9671(2)
H8A H 0.24910 0.50310 0.94530
C25* C 2.0456(5) 1.2191(5) 0.9833(3)
H29* H 1.99830 1.28260 1.00230
C26* C 2.2459(7) 1.1054(6) 1.0054(3)
H30* H 2.32170 1.09970 1.04780
H31* H 2.17460 1.01210 0.98030
H32* H 2.29960 1.14530 0.97120
C27* C 2.2057(6) 1.2632(5) 1.1113(2)
H33* H 2.28820 1.23240 1.13680
H34* H 2.24360 1.36420 1.11780
H35* H 2.11670 1.23800 1.13180
N4* N 2.1579(4) 1.1943(4) 1.0309(2)
O1* O 1.5855(3) 1.0786(3) 0.84558(17)
O2* O 1.6721(4) 0.9453(3) 0.76834(18)
O3* O 0.9495(3) 0.4751(3) 0.82029(19)
O3** O 1.9495(3) 1.4751(3) 0.82029(19)
O4* O 1.0906(4) 0.3456(3) 0.78136(19)
O4** O 2.0906(4) 1.3456(3) 0.78136(19)
O5A O 0.3707(3) -0.1966(3) 0.30190(15)
O5* O 1.6293(3) 1.1966(3) 0.69810(15)
O6A O 0.1776(3) -0.1206(3) 0.32717(16)
O6* O 1.8224(3) 1.1206(3) 0.67283(16)
O7A O 0.3716(3) 0.6413(3) 1.16270(15)
O7* O 1.6284(3) 1.3587(3) 0.83730(15)
O8A O 0.2039(3) 0.6407(3) 1.05916(15)
O8* O 1.7961(3) 1.3593(3) 0.94084(15)
O11* O 1.9992(4) 1.1636(4) 0.91501(18)
Bi1* Bi 1.796670(16) 1.233065(15) 0.815970(8)
Bi1** Bi -0.203330(16) -0.766935(15) 0.815970(8)
Bi1A Bi 0.203330(16) -0.233065(15) 0.184030(8)
Bi1A* Bi 0.203330(16) 0.766935(15) 1.184030(8)
#END
