
#######################################################################
#
#                 Cambridge Crystallographic Data Centre
#                                CCDC
#
#######################################################################
#
# If this CIF has been generated from an entry in the Cambridge
# Structural Database, then it will include bibliographic, chemical,
# crystal, experimental, refinement or atomic coordinate data resulting
# from the CCDC's data processing and validation procedures.
#
#######################################################################

data_CSD_CIF_XAFBEN
_audit_creation_date 2011-02-15
_audit_creation_method CSD-ConQuest-V1
_database_code_CSD XAFBEN
_database_code_depnum_ccdc_archive 'CCDC 776713'
_chemical_formula_sum 'C21 H23 Bi1 N2 O9'
_chemical_formula_moiety
;
(C16 H8 Bi1 O8 1-)n,n(C2 H8 N1 1+),n(C3 H7 N1 O1)
;
_journal_coden_Cambridge 1290
_journal_year 2010
_journal_page_first 3823
_journal_name_full 'Eur.J.Inorg.Chem. '
loop_
_publ_author_name
"A.Thirumurugan"
"A.K.Cheetham"
_chemical_name_systematic
;
catena-((dimethyl ammonium) bis(\m~2~-terephthalato)-bismuth(iii) 
N,N-dimethylformamide solvate)
;
_cell_volume   2434.466
_exptl_crystal_colour 'grey'
_exptl_crystal_density_diffrn 1.791
_exptl_crystal_description 'block'
_diffrn_ambient_temperature 180
_refine_special_details
;
The SQUEEZE/PLATON program has been used to model some disorder.

;
#These two values have been output from a single CSD field.
_refine_ls_R_factor_gt 0.0405
_refine_ls_wR_factor_gt 0.0405
_symmetry_cell_setting monoclinic
_symmetry_space_group_name_H-M 'C 2/c'
_symmetry_Int_Tables_number 15
loop_
_symmetry_equiv_pos_site_id
_symmetry_equiv_pos_as_xyz
1 x,y,z
2 -x,y,1/2-z
3 1/2+x,1/2+y,z
4 1/2-x,1/2+y,1/2-z
5 -x,-y,-z
6 x,-y,-1/2+z
7 -1/2-x,-1/2-y,-z
8 -1/2+x,-1/2-y,-1/2+z
_cell_length_a 10.7068(2)
_cell_length_b 17.7294(4)
_cell_length_c 13.2435(2)
_cell_angle_alpha 90
_cell_angle_beta 104.446(1)
_cell_angle_gamma 90
_cell_formula_units_Z 4
loop_
_atom_type_symbol
_atom_type_radius_bond
C 0.68
H 0.23
Bi 1.65
N 0.68
O 0.68
loop_
_atom_site_label
_atom_site_type_symbol
_atom_site_fract_x
_atom_site_fract_y
_atom_site_fract_z
C1 C 0.7433(5) 0.0513(3) 0.3971(4)
C2 C 0.8765(4) 0.0261(3) 0.4513(4)
C3 C 0.9802(5) 0.0423(5) 0.4101(5)
H1 H 0.96760 0.07120 0.34990
C4 C 0.8976(5) -0.0159(4) 0.5423(5)
H2 H 0.82920 -0.02640 0.57170
C5 C 0.6029(4) 0.1517(3) 0.0997(4)
C6 C 0.6754(5) 0.2038(3) 0.0462(4)
C7 C 0.7018(6) 0.2769(3) 0.0811(4)
H3 H 0.66950 0.29480 0.13550
C8 C 0.7237(6) 0.1763(3) -0.0356(4)
H4 H 0.70610 0.12710 -0.05920
C9 C 0.5640(15) -0.1297(8) 0.1885(11)
C10 C 0.7111(17) -0.0765(7) 0.1773(14)
N1 N 0.5958(9) -0.0643(4) 0.1648(9)
O1 O 0.7285(4) 0.0941(3) 0.3201(4)
O2 O 0.6504(4) 0.0281(3) 0.4289(3)
O3 O 0.5437(4) 0.1799(2) 0.1639(3)
O4 O 0.6019(5) 0.0823(2) 0.0822(4)
Bi1 Bi 0.50000 0.075561(11) 0.25000
C1D C 1.2567(5) -0.0513(3) 0.6029(4)
C2D C 1.1235(4) -0.0261(3) 0.5487(4)
C3D C 1.0198(5) -0.0423(5) 0.5899(5)
H1D H 1.03240 -0.07120 0.65010
C4D C 1.1024(5) 0.0159(4) 0.4577(5)
H2D H 1.17080 0.02640 0.42830
C5F C 0.8971(4) 0.3483(3) -0.0997(4)
C6F C 0.8246(5) 0.2962(3) -0.0462(4)
C7F C 0.7982(6) 0.2231(3) -0.0811(4)
H3F H 0.83050 0.20520 -0.13550
C8F C 0.7763(6) 0.3237(3) 0.0356(4)
H4F H 0.79390 0.37290 0.05920
O1D O 1.2715(4) -0.0941(3) 0.6799(4)
O1A O 0.2715(4) 0.0941(3) 0.1799(4)
O2D O 1.3496(4) -0.0281(3) 0.5711(3)
O2A O 0.3496(4) 0.0281(3) 0.0711(3)
O3F O 0.9563(4) 0.3201(2) -0.1639(3)
O3A O 0.4563(4) 0.1799(2) 0.3361(3)
O4F O 0.8981(5) 0.4177(2) -0.0822(4)
O4A O 0.3981(5) 0.0823(2) 0.4178(4)
Bi1D Bi 1.50000 -0.075561(11) 0.75000
Bi1F Bi 1.00000 0.424439(11) -0.25000
#END
