
#######################################################################
#
#                 Cambridge Crystallographic Data Centre
#                                CCDC
#
#######################################################################
#
# If this CIF has been generated from an entry in the Cambridge
# Structural Database, then it will include bibliographic, chemical,
# crystal, experimental, refinement or atomic coordinate data resulting
# from the CCDC's data processing and validation procedures.
#
#######################################################################

data_CSD_CIF_XAFBOX
_audit_creation_date 2011-02-15
_audit_creation_method CSD-ConQuest-V1
_database_code_CSD XAFBOX
_database_code_depnum_ccdc_archive 'CCDC 776715'
_chemical_formula_sum 'C54 H48 Bi3 N3 O24'
_chemical_formula_moiety
;
(C48 H24 Bi3 O24 3-)n,3n(C2 H8 N1 1+)
;
_journal_coden_Cambridge 1290
_journal_year 2010
_journal_page_first 3823
_journal_name_full 'Eur.J.Inorg.Chem. '
loop_
_publ_author_name
"A.Thirumurugan"
"A.K.Cheetham"
_chemical_name_systematic
;
catena-(tris(dimethyl ammonium) hexakis(\m~3~-terephthalato)-tri-bismuth(iii))
;
_cell_volume   8061.416
_exptl_crystal_colour 'colorless'
_exptl_crystal_density_diffrn 2.163
_exptl_crystal_description 'block'
_diffrn_ambient_temperature 120
_refine_special_details
;
C11,C12,N1 disordered by symmetry over two sites with occupancy 0.50.

;
#These two values have been output from a single CSD field.
_refine_ls_R_factor_gt 0.0701
_refine_ls_wR_factor_gt 0.0701
_symmetry_cell_setting rhombohedral
_symmetry_space_group_name_H-M 'R -3 c'
_symmetry_Int_Tables_number 167
loop_
_symmetry_equiv_pos_site_id
_symmetry_equiv_pos_as_xyz
1 x,y,z
2 -y,x-y,z
3 -x+y,-x,z
4 y,x,1/2-z
5 -x,-x+y,1/2-z
6 x-y,-y,1/2-z
7 2/3+x,1/3+y,1/3+z
8 2/3-y,1/3+x-y,1/3+z
9 2/3-x+y,1/3-x,1/3+z
10 2/3+y,1/3+x,5/6-z
11 2/3-x,1/3-x+y,5/6-z
12 2/3+x-y,1/3-y,5/6-z
13 1/3+x,2/3+y,2/3+z
14 1/3-y,2/3+x-y,2/3+z
15 1/3-x+y,2/3-x,2/3+z
16 1/3+y,2/3+x,1/6-z
17 1/3-x,2/3-x+y,1/6-z
18 1/3+x-y,2/3-y,1/6-z
19 -x,-y,-z
20 y,-x+y,-z
21 x-y,x,-z
22 -y,-x,-1/2+z
23 x,x-y,-1/2+z
24 -x+y,y,-1/2+z
25 -2/3-x,-1/3-y,-1/3-z
26 -2/3+y,-1/3-x+y,-1/3-z
27 -2/3+x-y,-1/3+x,-1/3-z
28 -2/3-y,-1/3-x,-5/6+z
29 -2/3+x,-1/3+x-y,-5/6+z
30 -2/3-x+y,-1/3+y,-5/6+z
31 -1/3-x,-2/3-y,-2/3-z
32 -1/3+y,-2/3-x+y,-2/3-z
33 -1/3+x-y,-2/3+x,-2/3-z
34 -1/3-y,-2/3-x,-1/6+z
35 -1/3+x,-2/3+x-y,-1/6+z
36 -1/3-x+y,-2/3+y,-1/6+z
_cell_length_a 17.6932(7)
_cell_length_b 17.6932(7)
_cell_length_c 29.7350(9)
_cell_angle_alpha 90
_cell_angle_beta 90
_cell_angle_gamma 120
_cell_formula_units_Z 6
loop_
_atom_type_symbol
_atom_type_radius_bond
C 0.65
H 0.23
Bi 1.75
N 0.68
O 0.89
loop_
_atom_site_label
_atom_site_type_symbol
_atom_site_fract_x
_atom_site_fract_y
_atom_site_fract_z
C1 C 0.1032(15) 0.1608(10) -0.0636(5)
C2 C 0.1548(13) 0.2503(9) -0.0830(5)
C3 C 0.2113(13) 0.2677(9) -0.1180(5)
H1 H 0.21970 0.22240 -0.12950
C4 C 0.1447(12) 0.3189(9) -0.0658(4)
H2 H 0.10680 0.30840 -0.04100
C5 C 0.1888(12) 0.4006(8) -0.0844(4)
H3 H 0.18140 0.44620 -0.07230
C6 C 0.2570(14) 0.3509(10) -0.1372(5)
H4 H 0.29630 0.36200 -0.16140
C7 C 0.2442(12) 0.4173(8) -0.1206(4)
C8 C 0.2840(14) 0.5043(10) -0.1439(4)
C9 C 0.109(2) -0.182(2) 0.0449(8)
C10 C 0.142(2) -0.209(2) 0.0415(9)
Bi1 Bi 0.00000 0.00000 0.00000
Bi2 Bi 0.00000 0.00000 -0.14986(3)
O1 O 0.0598(11) 0.1514(7) -0.0287(4)
O2 O 0.1034(9) 0.0974(7) -0.0827(4)
O3 O 0.2563(6) 0.5557(8) -0.1325(3)
O4 O 0.3382(7) 0.5227(10) -0.1740(3)
N1 N 0.0988(19) -0.1691(19) 0.0849(10)
C1A C -0.1608(15) -0.0576(10) -0.0636(5)
C1B C 0.0576(15) -0.1032(10) -0.0636(5)
C1R C -0.1032(15) -0.1608(10) 0.0636(5)
C1S C 0.1608(15) 0.0576(10) 0.0636(5)
C1T C -0.0576(15) 0.1032(10) 0.0636(5)
C2A C -0.2503(13) -0.0955(9) -0.0830(5)
C2B C 0.0955(13) -0.1548(9) -0.0830(5)
C2R C -0.1548(13) -0.2503(9) 0.0830(5)
C2S C 0.2503(13) 0.0955(9) 0.0830(5)
C2T C -0.0955(13) 0.1548(9) 0.0830(5)
C3A C -0.2677(13) -0.0564(9) -0.1180(5)
C3B C 0.0564(13) -0.2113(9) -0.1180(5)
C3R C -0.2113(13) -0.2677(9) 0.1180(5)
C3S C 0.2677(13) 0.0564(9) 0.1180(5)
C3T C -0.0564(13) 0.2113(9) 0.1180(5)
H1A H -0.22240 -0.00270 -0.12950
H1B H 0.00270 -0.21970 -0.12950
H1R H -0.21970 -0.22240 0.12950
H1S H 0.22240 0.00270 0.12950
H1T H -0.00270 0.21970 0.12950
C4A C -0.3189(12) -0.1742(9) -0.0658(4)
C4B C 0.1742(12) -0.1447(9) -0.0658(4)
C4R C -0.1447(12) -0.3189(9) 0.0658(4)
C4S C 0.3189(12) 0.1742(9) 0.0658(4)
C4T C -0.1742(12) 0.1447(9) 0.0658(4)
H2A H -0.30840 -0.20160 -0.04100
H2B H 0.20160 -0.10680 -0.04100
H2R H -0.10680 -0.30840 0.04100
H2S H 0.30840 0.20160 0.04100
H2T H -0.20160 0.10680 0.04100
C5A C -0.4006(12) -0.2118(8) -0.0844(4)
C5B C 0.2118(12) -0.1888(8) -0.0844(4)
C5R C -0.1888(12) -0.4006(8) 0.0844(4)
C5S C 0.4006(12) 0.2118(8) 0.0844(4)
C5T C -0.2118(12) 0.1888(8) 0.0844(4)
H3A H -0.44620 -0.26480 -0.07230
H3B H 0.26480 -0.18140 -0.07230
H3R H -0.18140 -0.44620 0.07230
H3S H 0.44620 0.26480 0.07230
H3T H -0.26480 0.18140 0.07230
C6A C -0.3509(14) -0.0939(10) -0.1372(5)
C6B C 0.0939(14) -0.257(1) -0.1372(5)
C6R C -0.2570(14) -0.3509(10) 0.1372(5)
C6S C 0.3509(14) 0.0939(10) 0.1372(5)
C6T C -0.0939(14) 0.257(1) 0.1372(5)
H4A H -0.36200 -0.06570 -0.16140
H4B H 0.06570 -0.29630 -0.16140
H4R H -0.29630 -0.36200 0.16140
H4S H 0.36200 0.06570 0.16140
H4T H -0.06570 0.29630 0.16140
C7A C -0.4173(12) -0.1731(8) -0.1206(4)
C7B C 0.1731(12) -0.2442(8) -0.1206(4)
C7R C -0.2442(12) -0.4173(8) 0.1206(4)
C7S C 0.4173(12) 0.1731(8) 0.1206(4)
C7T C -0.1731(12) 0.2442(8) 0.1206(4)
C8A C -0.5043(14) -0.2203(10) -0.1439(4)
C8B C 0.2203(14) -0.284(1) -0.1439(4)
C8R C -0.2840(14) -0.5043(10) 0.1439(4)
C8S C 0.5043(14) 0.2203(10) 0.1439(4)
C8T C -0.2203(14) 0.284(1) 0.1439(4)
C9O C 0.151333(2000) -0.224333(2000) 0.121767(800)
C10O C 0.124333(2000) -0.191333(2000) 0.125167(900)
Bi2R Bi 0.00000 0.00000 0.14986(3)
Bi2X Bi 0.33333 0.66667 -0.183473(30)
Bi2X* Bi -0.66667 -0.33333 -0.183473(30)
Bi2X** Bi 0.33333 -0.33333 -0.183473(30)
Bi2F Bi -0.33333 -0.66667 0.183473(30)
Bi2F* Bi 0.66667 0.33333 0.183473(30)
Bi2F** Bi -0.33333 0.33333 0.183473(30)
O1A O -0.1514(11) -0.0916(7) -0.0287(4)
O1B O 0.0916(11) -0.0598(7) -0.0287(4)
O1R O -0.0598(11) -0.1514(7) 0.0287(4)
O1S O 0.1514(11) 0.0916(7) 0.0287(4)
O1T O -0.0916(11) 0.0598(7) 0.0287(4)
O2A O -0.0974(9) 0.0060(7) -0.0827(4)
O2B O -0.0060(9) -0.1034(7) -0.0827(4)
O2R O -0.1034(9) -0.0974(7) 0.0827(4)
O2S O 0.0974(9) -0.0060(7) 0.0827(4)
O2T O 0.0060(9) 0.1034(7) 0.0827(4)
O3A O -0.5557(6) -0.2994(8) -0.1325(3)
O3B O 0.2994(6) -0.2563(8) -0.1325(3)
O3R O -0.2563(6) -0.5557(8) 0.1325(3)
O3S O 0.5557(6) 0.2994(8) 0.1325(3)
O3T O -0.2994(6) 0.2563(8) 0.1325(3)
O3X O 0.077033(600) 0.110967(800) -0.200833(300)
O3Y O -0.110967(600) -0.033933(800) -0.200833(300)
O3Z O 0.033933(600) -0.077033(800) -0.200833(300)
O3F O -0.077033(600) -0.110967(800) 0.200833(300)
O3G O 0.110967(600) 0.033933(800) 0.200833(300)
O3H O -0.033933(600) 0.077033(800) 0.200833(300)
O4A O -0.5227(7) -0.1845(10) -0.1740(3)
O4B O 0.1845(7) -0.3382(10) -0.1740(3)
O4R O -0.3382(7) -0.5227(10) 0.1740(3)
O4S O 0.5227(7) 0.1845(10) 0.1740(3)
O4T O -0.1845(7) 0.3382(10) 0.1740(3)
O4X O -0.004867(700) 0.143967(1000) -0.159333(300)
O4Y O -0.143967(700) -0.148833(1000) -0.159333(300)
O4Z O 0.148833(700) 0.004867(1000) -0.159333(300)
O4F O 0.004867(700) -0.143967(1000) 0.159333(300)
O4G O 0.143967(700) 0.148833(1000) 0.159333(300)
O4H O -0.148833(700) -0.004867(1000) 0.159333(300)
N1O N 0.164233(1900) -0.234533(1900) 0.081767(1000)
#END
