
#######################################################################
#
#                 Cambridge Crystallographic Data Centre
#                                CCDC
#
#######################################################################
#
# If this CIF has been generated from an entry in the Cambridge
# Structural Database, then it will include bibliographic, chemical,
# crystal, experimental, refinement or atomic coordinate data resulting
# from the CCDC's data processing and validation procedures.
#
#######################################################################

data_CSD_CIF_XAFFEQ
_audit_creation_date 2005-01-11
_audit_creation_method CSD-ConQuest-V1
_database_code_CSD XAFFEQ
_chemical_formula_sum 'C24 H48 Na2 Ni1 O34 S8'
_chemical_formula_moiety
;
(C24 H28 Na2 O24 S8 2-)n,n(H12 Ni1 O6 2+),4n(H2 O1)
;
_journal_coden_Cambridge 508
_journal_year 2001
_journal_page_first 13
_journal_name_full 'Journal lookup failed (CCDC Coden 508).
Please contact <support@ccdc.cam.ac.uk> for details.'
loop_
_publ_author_name
"Junpei Suzuki"
"Tsutomu Yamauchi"
"Haruo Akashi"
_chemical_name_systematic
;
catena-(Hexa-aqua-nickel 
(\m~2~-25,26,27,28-tetrahydroxy-2,8,14,20-tetrathiacalix(4)arene-5,17-disulfon
ato-11,23-disulfonate)-bis(\m~2~-aqua)-hexa-aqua-di-sodium) tetrahydrate
;
_cell_volume   1216.480
_exptl_crystal_density_diffrn 1.695
_diffrn_ambient_temperature 93.15
#These two values have been output from a single CSD field.
_refine_ls_R_factor_gt 0.08
_refine_ls_wR_factor_gt 0.08
_symmetry_cell_setting triclinic
_symmetry_space_group_name_H-M 'P -1'
_symmetry_Int_Tables_number 2
loop_
_symmetry_equiv_pos_site_id
_symmetry_equiv_pos_as_xyz
1 x,y,z
2 -x,-y,-z
_cell_length_a 8.652(1)
_cell_length_b 9.240(1)
_cell_length_c 15.806(5)
_cell_angle_alpha 95.541(7)
_cell_angle_beta 99.491(4)
_cell_angle_gamma 100.152(4)
_cell_formula_units_Z 1
loop_
_atom_type_symbol
_atom_type_radius_bond
C 0.68
H 0.23
Na 1.60
Ni 1.50
O 0.68
S 1.02
loop_
_atom_site_label
_atom_site_type_symbol
_atom_site_fract_x
_atom_site_fract_y
_atom_site_fract_z
Ni1 Ni 0.50000 0.50000 0.50000
S1 S -0.4568(3) -0.2940(3) -0.0581(2)
S2 S 0.1907(3) -0.3078(3) 0.0203(2)
S3 S -0.1930(3) -0.4131(3) 0.2576(3)
S4 S 0.4562(3) 0.0056(3) 0.3385(2)
Na1 Na 0.8961(4) 0.1193(4) 0.4348(2)
O1 O -0.1225(7) -0.2709(6) -0.0913(4)
O2 O 0.2899(7) -0.0017(7) -0.0381(4)
O3 O -0.3627(7) -0.4465(8) 0.2599(4)
O4 O -0.1133(8) -0.5380(7) 0.2719(4)
O5 O -0.1120(8) -0.2806(7) 0.3172(4)
O6 O 0.3426(8) 0.0874(7) 0.3697(4)
O7 O 0.4270(8) -0.1470(8) 0.3582(4)
O8 O 0.6200(8) 0.0857(10) 0.3680(5)
O9 O 0.9873(7) 0.0260(7) 0.3055(4)
O10 O 0.8318(8) 0.2363(7) 0.5641(4)
O11 O 1.1618(7) 0.1093(7) 0.5056(4)
O12 O 1.0035(7) 0.3853(7) 0.4305(4)
O13 O 0.5826(7) 0.6490(7) 0.4203(4)
O14 O 0.6430(8) 0.3691(8) 0.4565(5)
O15 O 0.3170(7) 0.4014(8) 0.3990(4)
O16 O 0.8795(7) 0.1955(7) 0.1743(4)
O17 O 0.3047(7) 0.4801(7) 0.2364(4)
C1 C -0.131(1) -0.3005(10) -0.0088(6)
C2 C 0.000(1) -0.3215(10) 0.0493(6)
C3 C -0.024(1) -0.361(1) 0.1302(6)
C4 C -0.173(1) -0.3735(10) 0.1542(6)
C5 C -0.302(1) -0.343(1) 0.0962(6)
C6 C -0.283(1) -0.311(1) 0.0147(6)
C7 C 0.325(1) -0.007(1) 0.0479(6)
C8 C 0.293(1) -0.139(1) 0.0868(6)
C9 C 0.3417(10) -0.135(1) 0.1745(6)
C10 C 0.4134(10) -0.0033(9) 0.2260(6)
C11 C 0.444(1) 0.1249(10) 0.1892(6)
C12 C -0.4019(10) -0.1246(10) -0.1004(6)
H1 H 0.06390 -0.38060 0.16950
H2 H -0.40160 -0.34340 0.11360
H3 H 0.32580 -0.22450 0.19990
H4 H 0.49460 0.21470 0.22490
C12A C 0.4019(10) 0.1246(10) 0.1004(6)
S1A S 0.4568(3) 0.2940(3) 0.0581(2)
C6A C 0.283(1) 0.311(1) -0.0147(6)
C1A C 0.131(1) 0.3005(10) 0.0088(6)
O1A O 0.1225(7) 0.2709(6) 0.0913(4)
C2A C 0.000(1) 0.3215(10) -0.0493(6)
S2A S -0.1907(3) 0.3078(3) -0.0203(2)
C8A C -0.293(1) 0.139(1) -0.0868(6)
C7A C -0.325(1) 0.007(1) -0.0479(6)
O2A O -0.2899(7) 0.0017(7) 0.0381(4)
C11A C -0.444(1) -0.1249(10) -0.1892(6)
C10A C -0.4134(10) 0.0033(9) -0.2260(6)
S4A S -0.4562(3) -0.0056(3) -0.3385(2)
O6A O -0.3426(8) -0.0874(7) -0.3697(4)
O7A O -0.4270(8) 0.1470(8) -0.3582(4)
O8A O -0.6200(8) -0.0857(10) -0.3680(5)
C9A C -0.3417(10) 0.135(1) -0.1745(6)
H3A H -0.32580 0.22450 -0.19990
H4A H -0.49460 -0.21470 -0.22490
C3A C 0.024(1) 0.361(1) -0.1302(6)
C4A C 0.173(1) 0.3735(10) -0.1542(6)
S3A S 0.1930(3) 0.4131(3) -0.2576(3)
O3A O 0.3627(7) 0.4465(8) -0.2599(4)
O4A O 0.1133(8) 0.5380(7) -0.2719(4)
O5A O 0.1120(8) 0.2806(7) -0.3172(4)
C5A C 0.302(1) 0.343(1) -0.0962(6)
H2A H 0.40160 0.34340 -0.11360
H1A H -0.06390 0.38060 -0.16950
O13A O 0.4174(7) 0.3510(7) 0.5797(4)
O14A O 0.3570(8) 0.6309(8) 0.5435(5)
O15A O 0.6830(7) 0.5986(8) 0.6010(4)
O11A O 0.8382(7) -0.1093(7) 0.4944(4)
Na1A Na -0.8961(4) -0.1193(4) -0.4348(2)
O9A O -0.9873(7) -0.0260(7) -0.3055(4)
O10A O -0.8318(8) -0.2363(7) -0.5641(4)
O12A O -1.0035(7) -0.3853(7) -0.4305(4)
Na1A* Na 1.1039(4) -0.1193(4) 0.5652(2)
O11* O -0.8382(7) 0.1093(7) -0.4944(4)
O11A* O -1.1618(7) -0.1093(7) -0.5056(4)
#END
