
#######################################################################
#
#                 Cambridge Crystallographic Data Centre
#                                CCDC
#
#######################################################################
#
# If this CIF has been generated from an entry in the Cambridge
# Structural Database, then it will include bibliographic, chemical,
# crystal, experimental, refinement or atomic coordinate data resulting
# from the CCDC's data processing and validation procedures.
#
#######################################################################

data_CSD_CIF_XAJGAQ
_audit_creation_date 2001-01-15
_audit_creation_method CSD-ConQuest-V1
_database_code_CSD XAJGAQ
_database_code_depnum_ccdc_archive 'CCDC 152261'
_database_code_depnum_ccdc_journal 186/2123
_chemical_formula_sum 'C3 H24 N1 Na2 O14 P1'
_chemical_formula_moiety
;
(C3 H16 N1 Na1 O10 P1 1-)n,n(H8 Na1 O4 1+)
;
_journal_coden_Cambridge 186
_journal_year 2000
_journal_page_first 3404
_journal_name_full 'J.Chem.Soc.,Dalton Trans. '
loop_
_publ_author_name
"D.S.Sagatys"
"C.Dahlgren"
"G.Smith"
"R.C.Bott"
"J.M.White"
_chemical_name_systematic
;
catena-(Penta-aqua-(N-(phosphonomethyl)glycinato)-sodium 
bis(\m~2~-aqua)-diaqua-sodium)
;
_chemical_name_common
;
Disodium glyphosate nonahydrate
;
_cell_volume    812.859
_exptl_crystal_colour 'colorless'
_exptl_crystal_density_diffrn 1.533
_exptl_special_details
;
glyphosate has herbicidal activity

;
_diffrn_ambient_temperature ?
_diffrn_special_details
;
The study was carried out at room temperature,in the range 283-303K

;
#These two values have been output from a single CSD field.
_refine_ls_R_factor_gt 0.024
_refine_ls_wR_factor_gt 0.024
_symmetry_cell_setting monoclinic
_symmetry_space_group_name_H-M 'P 21'
_symmetry_Int_Tables_number 4
loop_
_symmetry_equiv_pos_site_id
_symmetry_equiv_pos_as_xyz
1 x,y,z
2 -x,1/2+y,-z
_cell_length_a 6.365(1)
_cell_length_b 7.186(2)
_cell_length_c 17.816(3)
_cell_angle_alpha 90
_cell_angle_beta 94.04(1)
_cell_angle_gamma 90
_cell_formula_units_Z 2
loop_
_atom_type_symbol
_atom_type_radius_bond
C 0.68
H 0.23
N 0.68
Na 1.46
O 0.68
P 1.05
loop_
_atom_site_label
_atom_site_type_symbol
_atom_site_fract_x
_atom_site_fract_y
_atom_site_fract_z
Na1 Na 0.71477(16) 0.89594(16) 0.33015(6)
P1 P 0.09179(9) 0.42201(9) 0.21719(3)
O1 O 0.7353(3) 0.5993(3) 0.39564(12)
O2 O 0.7602(3) 0.4090(4) 0.49499(10)
O3 O 0.2061(3) 0.2594(3) 0.18452(12)
O4 O 0.1840(3) 0.6074(3) 0.19370(11)
O5 O -0.1444(2) 0.4118(3) 0.20306(9)
O6 O 0.5974(4) 0.7244(3) 0.21663(12)
O7 O 0.5923(4) 1.1815(3) 0.27070(13)
O8 O 1.0311(4) 0.9325(4) 0.25373(13)
O9 O 0.8819(5) 1.0553(4) 0.43317(16)
O10 O 0.3569(4) 0.8559(4) 0.36249(14)
N1 N 0.3664(4) 0.4612(4) 0.34300(13)
C1 C 0.6645(4) 0.4830(4) 0.43857(15)
C2 C 0.4395(4) 0.4128(5) 0.42107(14)
H1 H 0.43520 0.27890 0.42760
H2 H 0.34690 0.46870 0.45570
C3 C 0.1433(3) 0.4094(5) 0.31949(13)
H3 H 0.04840 0.49290 0.34330
H4 H 0.11590 0.28400 0.33640
H5 H 0.473(7) 0.702(6) 0.200(2)
H6 H 0.685(8) 0.624(9) 0.211(3)
H7 H 0.500(5) 1.173(5) 0.242(2)
H8 H 0.698(8) 1.250(7) 0.247(3)
H9 H 1.064(5) 0.848(6) 0.2369(19)
H10 H 0.988(8) 0.998(7) 0.455(3)
H11 H 0.860(6) 1.145(7) 0.452(2)
H12 H 0.252(5) 0.882(5) 0.3372(18)
H13 H 0.339(7) 0.870(9) 0.406(3)
H14 H 0.460(5) 0.410(6) 0.3160(18)
H15 H 0.383(5) 0.589(6) 0.3395(18)
H16 H 1.113(15) 1.023(16) 0.223(5)
Na2 Na 0.5098(2) 0.62823(16) -0.00070(8)
O11 O 0.1811(4) 0.7075(4) 0.04705(14)
O12 O 0.3310(4) 0.3904(4) -0.07987(13)
O13 O 0.4552(3) 0.8790(3) -0.08844(11)
O14 O 0.8557(4) 0.5865(3) -0.05018(14)
H17 H 0.179(6) 0.663(7) 0.089(3)
H18 H 0.165(7) 0.816(7) 0.047(2)
H19 H 0.357(7) 0.371(9) -0.122(3)
H20 H 0.206(11) 0.409(15) -0.095(4)
H21 H 0.547(5) 0.859(5) -0.1192(19)
H22 H 0.344(5) 0.878(5) -0.1205(18)
H23 H 0.958(8) 0.631(9) -0.016(3)
H24 H 0.858(7) 0.637(8) -0.101(3)
O12A O 0.6690(4) 0.8904(4) 0.07987(13)
O13A O 0.5448(3) 0.3790(3) 0.08844(11)
Na2A Na 0.4902(2) 0.12823(16) 0.00070(8)
Na2A* Na 0.4902(2) 1.12823(16) 0.00070(8)
H19A H 0.643(7) 0.871(9) 0.122(3)
H20A H 0.794(11) 0.909(15) 0.095(4)
H21A H 0.453(5) 0.359(5) 0.1192(19)
H22A H 0.656(5) 0.378(5) 0.1205(18)
#END
