
#######################################################################
#
#                 Cambridge Crystallographic Data Centre
#                                CCDC
#
#######################################################################
#
# If this CIF has been generated from an entry in the Cambridge
# Structural Database, then it will include bibliographic, chemical,
# crystal, experimental, refinement or atomic coordinate data resulting
# from the CCDC's data processing and validation procedures.
#
#######################################################################

data_CSD_CIF_XAJSEJ
_audit_creation_date 2016-01-18
_audit_creation_method CSD-ConQuest-V1
_database_code_CSD XAJSEJ
_database_code_depnum_ccdc_archive 'CCDC 1415547'
_chemical_formula_sum 'C24 H17 In1 N2 O8'
_chemical_formula_moiety
;
(C2 H8 N1 1+)n,n(C22 H9 In1 N1 O8 1-)
;
_journal_coden_Cambridge 155
_journal_volume 443
_journal_year 2016
_journal_page_first 299
_journal_name_full 'Inorg.Chim.Acta '
loop_
_publ_author_name
"Ruiqin Zhong"
"Zhilong Xu"
"Wenzhu Bi"
"Songbai Han"
"Xiaofeng Yu"
"Ruqiang Zou"
_chemical_name_systematic
;
catena-[Dimethylammonium 
(\m~4~-9-(3,5-dicarboxylatophenyl)-9H-carbazole-3,6-dicarboxylato)-indium(iii)
 unknown solvate]
;
_cell_volume   4875.706
_exptl_crystal_colour 'colorless'
_exptl_crystal_density_diffrn 0.785
_exptl_crystal_description 'block'
_diffrn_ambient_temperature 293
_refine_special_details
;
The structure contains 59% void space.

;
#These two values have been output from a single CSD field.
_refine_ls_R_factor_gt 0.0831
_refine_ls_wR_factor_gt 0.0831
_symmetry_cell_setting orthorhombic
_symmetry_space_group_name_H-M 'P 21 21 21'
_symmetry_Int_Tables_number 19
loop_
_symmetry_equiv_pos_site_id
_symmetry_equiv_pos_as_xyz
1 x,y,z
2 1/2-x,-y,1/2+z
3 -x,1/2+y,1/2-z
4 1/2+x,1/2-y,-z
_cell_length_a 12.7580(9)
_cell_length_b 17.5203(11)
_cell_length_c 21.8129(11)
_cell_angle_alpha 90
_cell_angle_beta 90
_cell_angle_gamma 90
_cell_formula_units_Z 4
loop_
_atom_type_symbol
_atom_type_radius_bond
C 0.68
H 0.23
In 1.42
N 0.68
O 0.68
loop_
_atom_site_label
_atom_site_type_symbol
_atom_site_fract_x
_atom_site_fract_y
_atom_site_fract_z
In1 In 0.91913(5) 0.98958(4) 0.82681(3)
C1 C 0.8400(8) 0.7648(6) 0.7937(5)
C2 C 0.9062(8) 0.7192(5) 0.7592(4)
H1 H 0.96700 0.73900 0.74190
C3 C 0.8795(8) 0.6432(6) 0.7513(4)
C4 C 0.7858(8) 0.6142(7) 0.7774(5)
H2 H 0.76870 0.56290 0.77340
C5 C 0.7207(8) 0.6632(6) 0.8087(5)
C6 C 0.7488(8) 0.7363(6) 0.8201(5)
H3 H 0.70780 0.76710 0.84520
C7 C 0.5394(8) 0.6132(7) 0.7995(5)
C8 C 0.5273(9) 0.6260(7) 0.7364(5)
H4 H 0.57870 0.64870 0.71230
C9 C 0.4289(10) 0.6009(7) 0.7125(5)
H5 H 0.41580 0.60700 0.67080
C10 C 0.3526(8) 0.5682(7) 0.7487(5)
C11 C 0.3680(8) 0.5583(7) 0.8116(5)
H6 H 0.31540 0.53770 0.83610
C12 C 0.4657(8) 0.5805(7) 0.8374(4)
C13 C 0.5085(8) 0.5783(6) 0.8973(5)
C14 C 0.4741(8) 0.5518(6) 0.9536(4)
H7 H 0.40860 0.52890 0.95730
C15 C 0.5383(8) 0.5596(6) 1.0045(5)
C16 C 0.6374(9) 0.5907(8) 0.9997(6)
H8 H 0.67980 0.59450 1.03430
C17 C 0.6734(8) 0.6159(7) 0.9443(5)
H9 H 0.73990 0.63720 0.94060
C18 C 0.6094(8) 0.6091(7) 0.8945(5)
C19 C 0.8710(8) 0.8463(6) 0.8048(5)
C20 C 0.9517(8) 0.5904(6) 0.7198(5)
C21 C 0.2510(9) 0.5445(7) 0.7224(5)
C22 C 0.4971(9) 0.5357(6) 1.0650(5)
N1 N 0.6271(7) 0.6318(6) 0.8331(4)
O1 O 0.9481(5) 0.8739(4) 0.7765(3)
O2 O 0.8225(6) 0.8854(4) 0.8432(3)
O3 O 1.0176(5) 0.6124(4) 0.6823(3)
O4 O 0.9472(5) 0.5188(5) 0.7346(3)
O5 O 0.2379(5) 0.5503(4) 0.6655(3)
O6 O 0.1809(5) 0.5152(5) 0.7546(3)
O7 O 0.4150(5) 0.4973(4) 1.0704(3)
O8 O 0.5465(6) 0.5553(5) 1.1133(3)
C23 C 0.168(4) 0.778(3) 0.829(2)
C24 C 0.197(6) 0.859(3) 0.737(2)
N2 N 0.201(3) 0.797(2) 0.773(2)
C25 C -0.001(5) 0.624(4) 0.895(3)
C26 C 0.151(7) 0.649(6) 0.829(5)
N3 N 0.079(4) 0.666(2) 0.873(2)
In1B In 0.08087(5) 0.48958(4) 0.67319(3)
In1B* In 1.08087(5) 0.48958(4) 0.67319(3)
In1C In 0.41913(5) 0.51042(4) 1.17319(3)
O3B O 0.9824(5) 1.1124(4) 0.8177(3)
O4B O 1.0528(5) 1.0188(5) 0.7654(3)
O5B O 0.7621(5) 1.0503(4) 0.8345(3)
O6B O 0.8191(5) 1.0152(5) 0.7454(3)
O7C O 0.9150(5) 1.0027(4) 0.9296(3)
O8C O 1.0465(6) 0.9447(5) 0.8867(3)
#END
