
#######################################################################
#
#                 Cambridge Crystallographic Data Centre
#                                CCDC
#
#######################################################################
#
# If this CIF has been generated from an entry in the Cambridge
# Structural Database, then it will include bibliographic, chemical,
# crystal, experimental, refinement or atomic coordinate data resulting
# from the CCDC's data processing and validation procedures.
#
#######################################################################

data_CSD_CIF_XAPFUS
_audit_creation_date 2017-02-27
_audit_creation_method CSD-ConQuest-V1
_database_code_CSD XAPFUS
_database_code_depnum_ccdc_archive 'CCDC 1514574'
_chemical_formula_sum 'C79 H73 Co2 Mo12 N14 O51.5 P1 Zn4'
_chemical_formula_moiety
;
(C49 H40 Co1 Mo12 N8 O47 P1 Zn4 2-)n,n(C30 H24 Co1 N6 2+),4.5n(H2 O1)
;
_journal_coden_Cambridge 1147
_journal_volume 17
_journal_year 2017
_journal_page_first 1600
_journal_name_full 'Cryst.Growth Des. '
loop_
_publ_author_name
"W.Salomon"
"G.Paille"
"M.Gomez-Mingot"
"P.Mialane"
"J.Marrot"
"C.Roch-Marchal"
"G.Nocton"
"C.Mellot-Draznieks"
"M.Fontecave"
"A.Dolbecq"
_chemical_name_systematic
;
catena-(tris(2,2'-bipyridine)-cobalt 
(\m-phosphato)-(\m-benzene-1,3,5-tricarboxylato)-tris(\m-hydroxo)-henicosakis(
\m-oxo)-aqua-tetrakis(2,2'-bipyridine)-dodecaoxo-cobalt-dodeca-molybdenum-tetr
a-zinc hydrate)
;
_cell_volume  11278.040
_exptl_crystal_colour 'black'
_exptl_crystal_density_diffrn 2.114
_exptl_crystal_description 'parallelepiped'
_exptl_crystal_preparation 'Hydrothermal synthesis'
_diffrn_ambient_temperature 293
#These two values have been output from a single CSD field.
_refine_ls_R_factor_gt 0.0716
_refine_ls_wR_factor_gt 0.0716
_symmetry_cell_setting monoclinic
_symmetry_space_group_name_H-M 'P 21/c'
_symmetry_Int_Tables_number 14
loop_
_symmetry_equiv_pos_site_id
_symmetry_equiv_pos_as_xyz
1 x,y,z
2 -x,1/2+y,1/2-z
3 -x,-y,-z
4 x,-1/2-y,-1/2+z
_cell_length_a 14.796(5)
_cell_length_b 24.275(8)
_cell_length_c 31.846(10)
_cell_angle_alpha 90
_cell_angle_beta 99.600(8)
_cell_angle_gamma 90
_cell_formula_units_Z 4
loop_
_atom_type_symbol
_atom_type_radius_bond
C 0.68
H 0.23
Co 1.26
Mo 1.54
N 0.68
O 0.68
P 1.05
Zn 1.22
loop_
_atom_site_label
_atom_site_type_symbol
_atom_site_fract_x
_atom_site_fract_y
_atom_site_fract_z
Mo1 Mo 0.32925(7) 0.39938(4) 0.48915(3)
Mo2 Mo 0.20804(7) 0.28863(4) 0.61274(3)
Mo3 Mo 0.33332(7) 0.35708(4) 0.59398(3)
Mo4 Mo 0.33282(7) 0.10874(4) 0.53471(4)
Mo5 Mo 0.32824(7) 0.15070(4) 0.42940(4)
Mo6 Mo 0.20255(7) 0.36332(4) 0.42673(3)
Mo7 Mo 0.50554(7) 0.31685(4) 0.53947(4)
Mo8 Mo 0.03660(7) 0.27304(4) 0.44357(3)
Mo9 Mo 0.03941(7) 0.23368(4) 0.53738(3)
Mo10 Mo 0.20040(7) 0.21912(4) 0.39257(3)
Mo11 Mo 0.21013(7) 0.14538(4) 0.57851(3)
Mo12 Mo 0.50662(7) 0.19014(4) 0.50944(4)
Zn1 Zn 0.10440(9) 0.37977(6) 0.52548(5)
Zn2 Zn 0.42603(9) 0.21962(6) 0.60540(4)
Zn3 Zn 0.10428(10) 0.12777(6) 0.46511(5)
Zn4 Zn 0.41897(10) 0.28922(6) 0.43225(5)
Co1 Co 0.82080(12) 0.09036(8) 0.74057(6)
P1 P 0.2675(2) 0.25342(12) 0.5069(1)
O1 O 0.1955(5) 0.3901(3) 0.4847(2)
O2 O 0.1987(5) 0.1180(3) 0.5194(3)
O3 O 0.3357(5) 0.3502(3) 0.4392(3)
O4 O 0.3435(6) 0.1586(3) 0.5844(3)
O5 O 0.1940(5) 0.1524(3) 0.4287(3)
O6 O 0.3324(5) 0.2275(3) 0.4103(3)
O7 O 0.3400(5) 0.2805(3) 0.6144(2)
O8 O 0.4929(6) 0.2684(3) 0.4870(2)
O9 O 0.3376(5) 0.4110(3) 0.5498(3)
O10 O 0.1977(5) 0.3543(3) 0.5749(3)
O11 O 0.3270(5) 0.2021(3) 0.4993(3)
O12 O 0.2091(5) 0.2374(3) 0.5424(3)
O13 O 0.2166(5) 0.2050(3) 0.6265(2)
O14 O 0.2058(5) 0.2687(3) 0.4631(2)
O15 O 0.1972(5) 0.0894(3) 0.6085(3)
O16 O -0.0761(5) 0.2305(3) 0.5340(3)
O17 O 0.0769(5) 0.1663(3) 0.5602(3)
O18 O 0.0713(5) 0.3392(3) 0.4262(3)
O19 O 0.3295(5) 0.3035(3) 0.5231(2)
O20 O 0.4655(5) 0.3398(3) 0.5873(3)
O21 O -0.0785(5) 0.2755(3) 0.4304(3)
O22 O 0.2050(6) 0.3037(3) 0.3791(3)
O23 O 0.3484(6) 0.0456(3) 0.5553(3)
O24 O 0.3510(5) 0.3948(3) 0.6393(3)
O25 O 0.4962(6) 0.2054(4) 0.6621(3)
O26 O 0.0558(5) 0.3007(3) 0.5033(3)
O27 O 0.4947(5) 0.2382(3) 0.5597(2)
O28 O 0.4626(5) 0.1657(3) 0.4554(3)
O29 O 0.4652(5) 0.1329(3) 0.5372(3)
O30 O 0.0715(5) 0.2316(3) 0.4001(3)
O31 O 0.3419(5) 0.4642(3) 0.4720(3)
O32 O 0.0552(5) 0.2048(3) 0.4804(3)
O33 O 0.1949(6) 0.3120(4) 0.6614(3)
O34 O 0.4848(6) 0.1970(4) 0.8856(3)
O35 O 0.3351(5) 0.0957(3) 0.4744(3)
O36 O 0.4618(5) 0.3749(3) 0.5059(3)
O37 O 0.6219(6) 0.1805(4) 0.5167(3)
O38 O 0.1860(5) 0.4189(3) 0.3942(3)
O39 O 0.1840(6) 0.1963(3) 0.3421(3)
O40 O 0.3428(6) 0.1121(4) 0.3870(3)
O41 O 0.0767(5) 0.2751(3) 0.5862(3)
O42 O 0.6192(5) 0.3273(3) 0.5507(3)
O43 O 0.3614(6) 0.1890(4) 0.6842(3)
O44 O 0.3539(6) 0.1817(4) 0.8404(3)
O45 O 0.7815(6) 0.1618(5) 0.8322(3)
O46 O 0.7793(6) 0.1645(4) 0.7619(3)
O47 O 0.9195(7) 0.0872(4) 0.7991(4)
N1 N -0.0369(8) 0.1022(5) 0.4499(4)
N2 N 0.1091(8) 0.0377(4) 0.4518(4)
N3 N 0.1103(8) 0.4652(5) 0.5474(4)
N4 N -0.0339(6) 0.3988(4) 0.5295(3)
N5 N 0.9120(8) 0.1323(5) 0.7093(4)
N6 N 0.8859(9) 0.0243(6) 0.7107(5)
N7 N 0.7064(8) 0.0812(5) 0.6892(4)
N8 N 0.7221(8) 0.0443(5) 0.7677(4)
C1 C 0.4931(8) 0.1852(5) 0.8128(4)
C2 C 0.4495(9) 0.1888(5) 0.7705(4)
H1 H 0.38580 0.19030 0.76490
C3 C 0.4975(8) 0.1903(5) 0.7358(4)
C4 C 0.5906(9) 0.1830(5) 0.7458(4)
H2 H 0.62400 0.18270 0.72350
C5 C 0.6393(8) 0.1761(5) 0.7875(4)
C6 C 0.5893(8) 0.1795(5) 0.8215(4)
H3 H 0.61970 0.17800 0.84950
C7 C 0.4382(9) 0.1867(5) 0.8485(4)
C8 C 0.4454(8) 0.1951(5) 0.6908(4)
C9 C 0.7408(8) 0.1668(5) 0.7945(5)
C10 C -0.1084(10) 0.1372(6) 0.4473(5)
H4 H -0.09590 0.17460 0.45080
C11 C -0.1995(11) 0.1207(7) 0.4398(7)
H5 H -0.24700 0.14610 0.43750
C12 C -0.2165(10) 0.0646(6) 0.4357(6)
H6 H -0.27640 0.05150 0.43140
C13 C -0.1453(11) 0.0292(7) 0.4380(6)
H7 H -0.15730 -0.00830 0.43460
C14 C -0.0514(9) 0.0478(5) 0.4456(4)
C15 C 0.0245(9) 0.0129(5) 0.4488(4)
C16 C 0.0213(10) -0.0458(6) 0.4475(5)
H8 H -0.03430 -0.06430 0.44570
C17 C 0.1035(11) -0.0751(6) 0.4491(5)
H9 H 0.10190 -0.11330 0.44770
C18 C 0.1843(12) -0.0492(7) 0.4526(5)
H10 H 0.23880 -0.06900 0.45500
C19 C 0.1845(11) 0.0083(6) 0.4526(5)
H11 H 0.23990 0.02670 0.45320
C20 C 0.1832(10) 0.4975(5) 0.5552(4)
H12 H 0.23790 0.48340 0.54900
C21 C 0.1855(10) 0.5509(6) 0.5719(5)
H13 H 0.23890 0.57170 0.57600
C22 C 0.1038(10) 0.5714(6) 0.5822(5)
H14 H 0.10190 0.60570 0.59510
C23 C 0.0246(10) 0.5390(6) 0.5727(5)
H15 H -0.03200 0.55290 0.57660
C24 C 0.0317(10) 0.4858(6) 0.5571(4)
C25 C -0.0496(9) 0.4487(6) 0.5471(4)
C26 C -0.1381(11) 0.4640(7) 0.5543(5)
H16 H -0.14840 0.49840 0.56550
C27 C -0.2099(14) 0.4260(7) 0.5441(6)
H17 H -0.26840 0.43450 0.54930
C28 C -0.1930(9) 0.3758(6) 0.5262(5)
H18 H -0.24040 0.35050 0.51910
C29 C -0.1048(8) 0.3631(5) 0.5189(4)
H19 H -0.09440 0.32950 0.50650
C30 C 0.9254(10) 0.1889(6) 0.7129(5)
H20 H 0.88810 0.20920 0.72800
C31 C 0.9943(12) 0.2174(8) 0.6944(7)
H21 H 1.00350 0.25520 0.69780
C32 C 1.0444(14) 0.1864(9) 0.6721(7)
H22 H 1.08880 0.20260 0.65870
C33 C 1.0295(12) 0.1288(8) 0.6689(6)
H23 H 1.06460 0.10780 0.65320
C34 C 0.965(1) 0.1030(6) 0.6883(5)
C35 C 0.9497(10) 0.0430(7) 0.6872(4)
C36 C 0.9872(13) 0.0067(8) 0.6623(6)
H24 H 1.02700 0.01940 0.64480
C37 C 0.9675(14) -0.0468(8) 0.6628(6)
H25 H 0.99930 -0.07150 0.64840
C38 C 0.8998(17) -0.0660(7) 0.6846(7)
H26 H 0.87880 -0.10210 0.68180
C39 C 0.8658(13) -0.0290(7) 0.7103(6)
H27 H 0.82680 -0.04170 0.72820
C40 C 0.7047(13) 0.0956(7) 0.6477(5)
H28 H 0.75820 0.11060 0.64090
C41 C 0.6323(13) 0.0903(8) 0.6152(6)
H29 H 0.63360 0.10430 0.58810
C42 C 0.5568(15) 0.0626(10) 0.6252(6)
H30 H 0.50710 0.05490 0.60410
C43 C 0.5560(12) 0.0464(7) 0.6672(6)
H31 H 0.50390 0.02960 0.67410
C44 C 0.6323(10) 0.0549(6) 0.6993(4)
C45 C 0.6423(10) 0.0379(6) 0.7443(5)
C46 C 0.5666(15) 0.0157(8) 0.7595(7)
H32 H 0.51150 0.00970 0.74130
C47 C 0.5759(14) 0.0038(8) 0.8001(9)
H33 H 0.52520 -0.00830 0.81130
C48 C 0.6653(15) 0.0092(7) 0.8286(6)
H34 H 0.67410 -0.00150 0.85710
C49 C 0.7329(11) 0.0308(6) 0.8103(6)
H35 H 0.78960 0.03690 0.82720
Co2 Co -0.26287(12) 0.38957(7) 0.70379(6)
N9 N -0.1984(8) 0.3438(5) 0.7592(4)
N10 N -0.3767(8) 0.3589(5) 0.7290(4)
N11 N -0.2645(8) 0.4658(5) 0.7399(4)
N12 N -0.3384(7) 0.4454(4) 0.6600(4)
N13 N -0.1363(8) 0.4049(5) 0.6812(4)
N14 N -0.2513(7) 0.3221(4) 0.6619(3)
C50 C -0.1097(10) 0.3349(7) 0.7691(6)
H36 H -0.07010 0.34640 0.75110
C51 C -0.0764(14) 0.3081(8) 0.8071(6)
H37 H -0.01360 0.30290 0.81490
C52 C -0.1334(15) 0.2895(8) 0.8328(7)
H38 H -0.11100 0.26800 0.85640
C53 C -0.2240(12) 0.3024(7) 0.8239(6)
H39 H -0.26290 0.29490 0.84330
C54 C -0.2583(9) 0.3280(5) 0.7833(4)
C55 C -0.3591(9) 0.3388(6) 0.7673(4)
C56 C -0.4253(12) 0.3250(8) 0.7940(6)
H40 H -0.40850 0.31210 0.82170
C57 C -0.5172(15) 0.3326(9) 0.7749(8)
H41 H -0.56460 0.32500 0.78990
C58 C -0.5354(12) 0.3511(8) 0.7342(7)
H42 H -0.59600 0.35540 0.72100
C59 C -0.4649(10) 0.3637(6) 0.7116(5)
H43 H -0.47980 0.37580 0.68360
C60 C -0.2318(14) 0.4743(8) 0.7812(6)
H44 H -0.20050 0.44560 0.79650
C61 C -0.2414(13) 0.5229(8) 0.8025(6)
H45 H -0.22580 0.52440 0.83200
C62 C -0.2714(14) 0.5654(9) 0.7817(7)
H46 H -0.26990 0.59960 0.79510
C63 C -0.3086(14) 0.5602(8) 0.7361(7)
H47 H -0.33600 0.59000 0.72060
C64 C -0.3018(10) 0.5099(6) 0.7169(5)
C65 C -0.3436(9) 0.4957(5) 0.6712(5)
C66 C -0.3904(12) 0.5364(7) 0.6422(6)
H48 H -0.38850 0.57330 0.64990
C67 C -0.4377(12) 0.5206(8) 0.6030(6)
H49 H -0.46950 0.54620 0.58440
C68 C -0.4362(10) 0.4662(6) 0.5926(5)
H50 H -0.46900 0.45330 0.56700
C69 C -0.3846(9) 0.4307(5) 0.6209(5)
H51 H -0.38120 0.39400 0.61280
C70 C -0.0820(11) 0.4509(7) 0.6916(5)
H52 H -0.10200 0.47920 0.70740
C71 C 0.0031(11) 0.4546(8) 0.6783(6)
H53 H 0.03980 0.48540 0.68540
C72 C 0.0332(11) 0.4124(7) 0.6546(5)
H54 H 0.09150 0.41330 0.64730
C73 C -0.0264(10) 0.3685(6) 0.6418(5)
H55 H -0.00950 0.34080 0.62440
C74 C -0.1107(8) 0.3666(5) 0.6552(4)
C75 C -0.1731(8) 0.3214(5) 0.6443(4)
C76 C -0.1643(11) 0.2816(6) 0.6137(5)
H56 H -0.11370 0.28200 0.59990
C77 C -0.2318(11) 0.2411(6) 0.6038(5)
H57 H -0.22780 0.21610 0.58200
C78 C -0.3021(11) 0.2381(5) 0.6253(5)
H58 H -0.34280 0.20860 0.62140
C79 C -0.3126(9) 0.2806(5) 0.6537(5)
H59 H -0.36340 0.28030 0.66740
O48 O 0.6099(12) 0.1999(7) 0.3982(6)
O49 O 1.0906(16) 0.1039(9) 0.8013(8)
O50 O 0.6074(19) 0.3880(11) 0.4452(9)
O51 O 0.729(2) 0.1918(12) 0.9157(10)
O52 O 0.134(2) 0.3217(14) 0.7479(11)
O53 O 0.187(2) 0.3047(15) 0.2718(12)
O54 O 0.478(3) 0.0179(16) 0.4606(13)
Zn4C Zn 0.41897(10) 0.21078(6) 0.93225(5)
O34C O 0.4848(6) 0.3030(4) 0.3856(3)
#END
