
#######################################################################
#
#                 Cambridge Crystallographic Data Centre
#                                CCDC
#
#######################################################################
#
# If this CIF has been generated from an entry in the Cambridge
# Structural Database, then it will include bibliographic, chemical,
# crystal, experimental, refinement or atomic coordinate data resulting
# from the CCDC's data processing and validation procedures.
#
#######################################################################

data_CSD_CIF_XAPGAZ
_audit_creation_date 2017-02-27
_audit_creation_method CSD-ConQuest-V1
_database_code_CSD XAPGAZ
_database_code_depnum_ccdc_archive 'CCDC 1514575'
_chemical_formula_sum 'C69 H73 Mo12 N12 O56 P1 Ru2 Zn4'
_chemical_formula_moiety
;
(C9 H5 Mo12 O46 P1 Zn4 4-)n,2n(C30 H24 N6 Ru1 2+),10n(H2 O1)
;
_journal_coden_Cambridge 1147
_journal_volume 17
_journal_year 2017
_journal_page_first 1600
_journal_name_full 'Cryst.Growth Des. '
loop_
_publ_author_name
"W.Salomon"
"G.Paille"
"M.Gomez-Mingot"
"P.Mialane"
"J.Marrot"
"C.Roch-Marchal"
"G.Nocton"
"C.Mellot-Draznieks"
"M.Fontecave"
"A.Dolbecq"
_chemical_name_systematic
;
catena-(bis(tris(2,2'-bipyridine)-ruthenium) 
(\m-phosphato)-(\m-benzene-1,3,5-tricarboxylato)-bis(\m-hydroxo)-docosakis(\m-
oxo)-dodecaoxo-dodeca-molybdenum-tetra-zinc decahydrate)
;
_cell_volume  20553.303
_exptl_crystal_colour 'black'
_exptl_crystal_density_diffrn 2.32
_exptl_crystal_description 'prism'
_diffrn_ambient_temperature 150
#These two values have been output from a single CSD field.
_refine_ls_R_factor_gt 0.0585
_refine_ls_wR_factor_gt 0.0585
_symmetry_cell_setting orthorhombic
_symmetry_space_group_name_H-M 'P b c a'
_symmetry_Int_Tables_number 61
loop_
_symmetry_equiv_pos_site_id
_symmetry_equiv_pos_as_xyz
1 x,y,z
2 1/2-x,-y,1/2+z
3 1/2+x,1/2-y,-z
4 -x,1/2+y,1/2-z
5 -x,-y,-z
6 -1/2+x,y,-1/2-z
7 -1/2-x,-1/2+y,z
8 x,-1/2-y,-1/2+z
_cell_length_a 27.0584(5)
_cell_length_b 27.2448(3)
_cell_length_c 27.8802(5)
_cell_angle_alpha 90
_cell_angle_beta 90
_cell_angle_gamma 90
_cell_formula_units_Z 8
loop_
_atom_type_symbol
_atom_type_radius_bond
C 0.68
H 0.23
Mo 1.54
N 0.68
O 0.68
P 1.05
Ru 1.46
Zn 1.22
loop_
_atom_site_label
_atom_site_type_symbol
_atom_site_fract_x
_atom_site_fract_y
_atom_site_fract_z
O1 O 0.5615(3) 0.6848(3) 0.0256(3)
O2 O 0.6056(3) 0.8940(3) 0.0746(3)
O3 O 0.6836(3) 0.8111(3) 0.0916(3)
O4 O 0.9041(3) 0.7512(3) 0.0644(3)
O5 O 0.6864(3) 0.8606(3) 0.1548(3)
O6 O 0.3366(3) 0.9700(3) 0.1576(3)
O7 O 0.9034(3) 0.8161(3) 0.2335(3)
O8 O 0.8321(3) 0.7215(3) 0.0388(3)
C1 C 0.7055(5) 0.8311(4) 0.1276(4)
C2 C 0.8318(4) 0.7742(4) 0.1057(4)
C3 C 0.8566(5) 0.7466(4) 0.0668(4)
C4 C 0.7826(4) 0.8267(4) 0.1780(4)
C5 C 0.7577(4) 0.8137(4) 0.1347(4)
C6 C 0.8563(4) 0.7878(4) 0.1472(4)
H1 H 0.89020 0.77970 0.15090
C7 C 0.8320(4) 0.8132(4) 0.1839(4)
C8 C 0.7814(4) 0.7868(4) 0.1008(5)
H2 H 0.76370 0.77620 0.07320
C9 C 0.8563(5) 0.8284(4) 0.2305(4)
O9 O 0.8345(3) 0.8505(3) 0.2615(3)
H3 H 0.765(4) 0.851(4) 0.205(4)
Mo1 Mo 0.57909(4) 0.92850(3) 0.01875(4)
Mo2 Mo 0.57979(4) 0.95035(3) 0.10993(4)
Mo3 Mo 0.53328(4) 0.73221(3) 0.05283(4)
Mo4 Mo 0.53258(4) 0.76798(3) 0.17123(4)
Mo5 Mo 0.42280(4) 0.74146(3) 0.11191(4)
Mo6 Mo 0.46770(4) 0.90361(3) -0.03976(3)
Mo7 Mo 0.55608(4) 0.81383(3) -0.02630(4)
Mo8 Mo 0.35738(4) 0.81056(4) 0.09440(4)
Mo9 Mo 0.55284(4) 0.85825(3) 0.19835(4)
Mo10 Mo 0.38417(4) 0.90553(3) 0.00797(4)
Mo11 Mo 0.37466(4) 0.93161(4) 0.12743(4)
Mo12 Mo 0.47554(4) 0.95614(3) 0.17975(4)
Zn1 Zn 0.46676(5) 0.99211(4) 0.05993(5)
Zn2 Zn 0.43318(5) 0.78174(5) -0.00973(5)
Zn3 Zn 0.42121(5) 0.83997(5) 0.20226(5)
Zn4 Zn 0.61357(5) 0.82307(5) 0.08666(5)
P1 P 0.48491(11) 0.85935(10) 0.08328(11)
O10 O 0.4419(3) 0.9489(3) 0.0086(3)
O11 O 0.4712(3) 0.7312(3) 0.1618(3)
O12 O 0.4208(3) 0.8520(3) -0.0225(3)
O13 O 0.5320(3) 0.9407(2) -0.0358(3)
O14 O 0.5098(3) 0.8714(2) 0.0339(3)
O15 O 0.4289(3) 0.8717(2) 0.0792(3)
O16 O 0.6008(3) 0.9106(3) 0.1698(3)
O17 O 0.5973(3) 0.8665(3) -0.0165(3)
O18 O 0.3982(3) 0.7955(3) 0.1512(3)
O19 O 0.4926(3) 0.8193(3) 0.2013(3)
O20 O 0.3995(3) 0.7713(3) 0.0515(3)
O21 O 0.5096(3) 0.8461(2) -0.0613(3)
O22 O 0.5035(3) 0.7676(3) -0.0037(3)
O23 O 0.3401(3) 0.8487(3) 0.0326(3)
O24 O 0.4908(3) 0.8049(3) 0.0954(3)
O25 O 0.4195(3) 0.9079(3) 0.1790(3)
O26 O 0.5362(3) 0.9705(3) 0.0576(3)
O27 O 0.4477(3) 0.9239(3) -0.0930(3)
O28 O 0.4375(3) 0.9715(3) 0.1203(3)
O29 O 0.4720(3) 0.7094(3) 0.0672(3)
O30 O 0.5804(3) 0.7867(2) 0.0364(3)
O31 O 0.5823(3) 0.8154(3) 0.1494(3)
O32 O 0.3617(3) 0.9455(3) 0.0644(3)
O33 O 0.5298(3) 0.9847(3) 0.1522(3)
O34 O 0.5088(3) 0.9141(3) 0.2189(3)
O35 O 0.5586(3) 0.7309(2) 0.1130(3)
O36 O 0.5844(3) 0.8486(3) 0.2489(3)
O37 O 0.3430(3) 0.8737(3) 0.1298(3)
O38 O 0.3049(3) 0.7790(3) 0.1018(3)
O39 O 0.5592(3) 0.7361(3) 0.2158(3)
O40 O 0.5874(3) 0.7790(3) -0.0660(3)
O41 O 0.3450(3) 0.9275(3) -0.0335(3)
O42 O 0.3840(3) 0.6942(3) 0.1220(3)
O43 O 0.5110(3) 0.8908(2) 0.1226(3)
O44 O 0.6263(3) 0.9907(3) 0.1105(3)
O45 O 0.4544(3) 0.9996(3) 0.2173(3)
O46 O 0.6256(3) 0.9641(3) 0.0006(3)
N1 N 0.5760(4) 0.6586(4) 0.8801(4)
N2 N 0.6406(5) 0.5418(4) 0.9478(4)
C10 C 0.5304(4) 0.6708(4) 0.8975(4)
C11 C 0.5149(5) 0.6394(5) 0.9373(5)
C12 C 0.5972(5) 0.5424(4) 0.8211(5)
C13 C 0.5773(6) 0.5114(5) 0.7880(5)
H4 H 0.59570 0.50380 0.75990
C14 C 0.7088(5) 0.6061(4) 0.8576(5)
H5 H 0.72000 0.62290 0.88540
C15 C 0.6472(5) 0.5636(4) 0.8182(5)
C16 C 0.5365(6) 0.5775(5) 0.9894(5)
H6 H 0.56030 0.55430 1.00010
C17 C 0.7409(5) 0.6002(5) 0.8205(5)
H7 H 0.77360 0.61270 0.82260
C18 C 0.5317(6) 0.4910(5) 0.7940(6)
H8 H 0.51850 0.46840 0.77140
C19 C 0.4685(5) 0.6456(5) 0.9600(5)
H9 H 0.44560 0.66940 0.94870
C20 C 0.6780(6) 0.5580(5) 0.7792(5)
H10 H 0.66670 0.54130 0.75140
C21 C 0.6575(5) 0.6840(5) 0.9612(6)
H11 H 0.63660 0.70430 0.94230
C22 C 0.5943(5) 0.6874(5) 0.8451(5)
H12 H 0.62600 0.67960 0.83250
C23 C 0.5047(5) 0.7097(5) 0.8805(5)
H13 H 0.47330 0.71770 0.89360
C24 C 0.5700(6) 0.7273(5) 0.8266(6)
H14 H 0.58490 0.74680 0.80240
C25 C 0.4576(6) 0.6171(5) 0.9976(6)
H15 H 0.42710 0.62120 1.01390
C26 C 0.7256(6) 0.5766(5) 0.7808(5)
H16 H 0.74720 0.57270 0.75420
C27 C 0.5249(6) 0.7384(5) 0.8432(5)
H17 H 0.50680 0.76510 0.83010
C28 C 0.4904(7) 0.5818(6) 1.0128(6)
H18 H 0.48220 0.56070 1.03880
C29 C 0.5056(6) 0.5045(5) 0.8343(7)
H19 H 0.47310 0.49240 0.83940
C30 C 0.6303(6) 0.4931(5) 0.9432(7)
H20 H 0.60740 0.48270 0.91950
C31 C 0.5269(5) 0.5357(5) 0.8669(6)
H21 H 0.50840 0.54490 0.89450
C32 C 0.6815(6) 0.6070(6) 0.9869(6)
C33 C 0.6724(7) 0.5547(6) 0.9831(6)
C34 C 0.6527(9) 0.4582(7) 0.9724(7)
H22 H 0.64560 0.42440 0.96800
C35 C 0.6914(6) 0.7065(7) 0.9924(7)
H23 H 0.69350 0.74120 0.99450
C36 C 0.7214(7) 0.6769(7) 1.0198(7)
H24 H 0.74560 0.69110 1.04030
C37 C 0.7165(7) 0.6277(8) 1.0174(7)
H25 H 0.73680 0.60710 1.03660
C38 C 0.6949(11) 0.5200(8) 1.0134(8)
H26 H 0.71710 0.53040 1.03770
C39 C 0.6851(13) 0.4727(9) 1.0078(10)
H27 H 0.70020 0.44900 1.02800
Ru1 Ru 0.60898(4) 0.59778(4) 0.91005(4)
N3 N 0.6622(4) 0.5893(3) 0.8571(3)
N4 N 0.5724(4) 0.5538(4) 0.8618(4)
N5 N 0.6534(4) 0.6355(4) 0.9570(4)
N6 N 0.5458(4) 0.6062(4) 0.9521(4)
N7 N 0.6919(4) 0.8180(4) 0.7584(4)
N8 N 0.6192(4) 0.8930(3) 0.7799(4)
N9 N 0.6299(5) 0.8803(4) 0.6871(4)
C40 C 0.5765(5) 0.8826(4) 0.7576(4)
N10 N 0.6830(5) 0.9625(4) 0.7169(4)
C41 C 0.6181(6) 0.9009(5) 0.8277(5)
H28 H 0.64750 0.91010 0.84390
N11 N 0.7434(6) 0.8896(5) 0.6949(5)
N12 N 0.7308(5) 0.8958(5) 0.7958(5)
C42 C 0.5747(6) 0.8958(5) 0.8532(5)
H29 H 0.57420 0.90080 0.88690
C43 C 0.5326(5) 0.8768(5) 0.7803(5)
H30 H 0.50350 0.86880 0.76290
C44 C 0.5316(6) 0.8830(5) 0.8285(6)
H31 H 0.50160 0.87860 0.84560
C45 C 0.5469(8) 0.8810(5) 0.6273(6)
H32 H 0.51920 0.88340 0.60640
C46 C 0.5811(6) 0.8797(5) 0.7065(5)
C47 C 0.5400(7) 0.8783(5) 0.6739(6)
H33 H 0.50740 0.87540 0.68620
C48 C 0.6482(9) 1.0420(5) 0.7052(7)
H34 H 0.62450 1.06580 0.71460
C49 C 0.7176(7) 0.9731(5) 0.6833(6)
C50 C 0.7524(7) 0.9336(6) 0.6720(7)
C51 C 0.6402(7) 0.8816(5) 0.6400(5)
H35 H 0.67340 0.88340 0.62920
C52 C 0.6727(6) 0.7815(5) 0.7342(6)
H36 H 0.65050 0.78850 0.70870
C53 C 0.7148(8) 0.7216(6) 0.7809(8)
H37 H 0.72180 0.68850 0.78920
C54 C 0.6510(7) 0.9969(5) 0.7274(5)
H38 H 0.62780 0.99020 0.75210
C55 C 0.6838(7) 0.7326(6) 0.7445(7)
H39 H 0.66950 0.70710 0.72590
C56 C 0.7228(6) 0.8082(6) 0.7937(6)
C57 C 0.6001(7) 0.8803(6) 0.6063(6)
H40 H 0.60580 0.87900 0.57270
C58 C 0.8148(7) 0.8564(8) 0.6570(6)
H41 H 0.83690 0.82960 0.65320
C59 C 0.7914(7) 0.9372(7) 0.6403(7)
H42 H 0.79570 0.96660 0.62250
C60 C 0.8234(7) 0.9002(9) 0.6341(7)
H43 H 0.85150 0.90420 0.61420
C61 C 0.7174(8) 1.0176(6) 0.6578(6)
H44 H 0.74130 1.02440 0.63360
C62 C 0.7734(7) 0.8523(6) 0.6858(8)
H45 H 0.76610 0.82130 0.69960
C63 C 0.7482(8) 0.9386(6) 0.8179(7)
H46 H 0.73530 0.96880 0.80640
C64 C 0.6809(9) 1.0508(6) 0.6695(8)
H47 H 0.67860 1.08060 0.65200
C65 C 0.7476(8) 0.8508(6) 0.8155(6)
C66 C 0.7356(9) 0.7596(6) 0.8054(7)
H48 H 0.75870 0.75330 0.83030
C67 C 0.7809(7) 0.8497(8) 0.8531(8)
H49 H 0.79290 0.81960 0.86600
C68 C 0.7802(9) 0.941(1) 0.8526(9)
H50 H 0.79220 0.97130 0.86480
C69 C 0.7959(8) 0.8948(10) 0.8710(8)
H51 H 0.81810 0.89490 0.89740
Ru2 Ru 0.68375(4) 0.89069(4) 0.74049(4)
O47 O 0.4297(4) 0.7132(4) 0.2511(4)
O48 O 0.5801(5) 0.4340(5) 0.6973(4)
O49 O 0.6612(6) 0.3355(5) 0.9837(5)
O50 O 0.7800(6) 0.4565(7) 1.0580(6)
O51 O 0.6875(6) 0.8871(7) 0.9316(6)
O52 O 0.5934(7) 0.3855(5) 0.7844(5)
O53 O 0.7634(7) 0.3596(6) 1.0093(6)
O54 O 0.4285(8) 0.8301(7) 0.8425(9)
O55 O 0.5774(5) 0.4066(4) 0.8790(5)
O56 O 0.7146(7) 0.9786(9) 0.9374(10)
O4B O 0.4041(3) 0.7488(3) -0.0644(3)
O7E O 0.4034(3) 0.8161(3) 0.2665(3)
O9E O 0.3345(3) 0.8505(3) 0.2385(3)
Zn1D Zn 0.53324(5) 1.00789(4) -0.05993(5)
Zn2B Zn 0.93318(5) 0.71826(5) 0.00973(5)
Zn3E Zn 0.92121(5) 0.83997(5) 0.29774(5)
O13D O 0.4680(3) 1.0593(2) 0.0358(3)
#END
