
#######################################################################
#
#                 Cambridge Crystallographic Data Centre
#                                CCDC
#
#######################################################################
#
# If this CIF has been generated from an entry in the Cambridge
# Structural Database, then it will include bibliographic, chemical,
# crystal, experimental, refinement or atomic coordinate data resulting
# from the CCDC's data processing and validation procedures.
#
#######################################################################

data_CSD_CIF_XAPGED
_audit_creation_date 2017-02-27
_audit_creation_method CSD-ConQuest-V1
_database_code_CSD XAPGED
_database_code_depnum_ccdc_archive 'CCDC 1514576'
_chemical_formula_sum 'C81 H84 Mo12 O55 P4 Zn4'
_chemical_formula_moiety
;
(C9 H6 Mo12 O46 P1 Zn4 3-)n,3n(C24 H20 P1 1+),9n(H2 O1)
;
_journal_coden_Cambridge 1147
_journal_volume 17
_journal_year 2017
_journal_page_first 1600
_journal_name_full 'Cryst.Growth Des. '
loop_
_publ_author_name
"W.Salomon"
"G.Paille"
"M.Gomez-Mingot"
"P.Mialane"
"J.Marrot"
"C.Roch-Marchal"
"G.Nocton"
"C.Mellot-Draznieks"
"M.Fontecave"
"A.Dolbecq"
_chemical_name_systematic
;
catena-(tris(tetraphenylphosphonium) 
(\m-phosphato)-tris(\m-hydroxo)-henicosakis(\m-oxo)-dodecaoxo-dodeca-molybdenu
m-tetra-zinc nonahydrate)
;
_cell_volume  20293.261
_exptl_crystal_colour 'black'
_exptl_crystal_density_diffrn 2.274
_exptl_crystal_description 'parallelepiped'
_exptl_crystal_preparation 'Hydrothermal Synthesis'
_diffrn_ambient_temperature 200
#These two values have been output from a single CSD field.
_refine_ls_R_factor_gt 0.0285
_refine_ls_wR_factor_gt 0.0285
_symmetry_cell_setting orthorhombic
_symmetry_space_group_name_H-M 'P b c a'
_symmetry_Int_Tables_number 61
loop_
_symmetry_equiv_pos_site_id
_symmetry_equiv_pos_as_xyz
1 x,y,z
2 1/2-x,-y,1/2+z
3 -x,1/2+y,1/2-z
4 1/2+x,1/2-y,-z
5 -x,-y,-z
6 -1/2+x,y,-1/2-z
7 x,-1/2-y,-1/2+z
8 -1/2-x,-1/2+y,z
_cell_length_a 27.0083(6)
_cell_length_b 27.0121(5)
_cell_length_c 27.8161(6)
_cell_angle_alpha 90
_cell_angle_beta 90
_cell_angle_gamma 90
_cell_formula_units_Z 8
loop_
_atom_type_symbol
_atom_type_radius_bond
C 0.68
H 0.23
Mo 1.54
O 0.68
P 1.05
Zn 1.22
loop_
_atom_site_label
_atom_site_type_symbol
_atom_site_fract_x
_atom_site_fract_y
_atom_site_fract_z
Mo1 Mo 0.89929(2) 0.46297(2) 0.03322(2)
Mo2 Mo 0.90681(2) 0.51417(2) 0.11279(2)
Mo3 Mo 0.94048(2) 0.63620(2) 0.11562(2)
Mo4 Mo 0.96458(2) 0.68576(2) 0.01460(2)
Mo5 Mo 0.95315(2) 0.61027(2) -0.08439(2)
Mo6 Mo 0.92551(2) 0.51719(2) -0.07904(2)
Mo7 Mo 0.80707(2) 0.48015(2) -0.05095(2)
Mo8 Mo 0.72891(2) 0.56581(2) -0.02734(2)
Mo9 Mo 0.77465(2) 0.68350(2) -0.03512(2)
Mo10 Mo 0.86491(2) 0.70681(2) -0.05780(2)
Mo11 Mo 0.74618(2) 0.62938(2) 0.07855(2)
Mo12 Mo 0.81831(2) 0.61074(2) 0.13788(2)
Zn1 Zn 0.99472(2) 0.55948(2) 0.02701(2)
Zn2 Zn 0.85263(2) 0.71709(2) 0.07045(2)
Zn3 Zn 0.82163(2) 0.59015(2) -0.11323(2)
Zn4 Zn 0.77900(2) 0.50155(2) 0.06999(2)
P1 P 0.86016(3) 0.59267(3) 0.01300(3)
O1 O 0.74160(9) 0.44790(9) 0.09892(8)
O2 O 0.77196(10) 0.47477(9) 0.16884(9)
O3 O 0.66383(10) 0.28068(9) 0.09811(9)
O4 O 0.60648(18) 0.26861(17) 0.15380(14)
O5 O 0.69330(9) 0.40755(9) 0.31863(8)
O6 O 0.63278(9) 0.35121(9) 0.31180(8)
O7 O 0.91695(9) 0.40728(8) 0.05325(8)
O8 O 0.94834(8) 0.51124(8) 0.05515(8)
O9 O 0.84957(8) 0.48574(8) 0.07966(8)
O10 O 0.93663(8) 0.46405(8) -0.02932(8)
O11 O 0.83867(8) 0.44340(8) -0.00500(8)
O12 O 0.86764(8) 0.54057(8) -0.00941(8)
O13 O 0.92793(10) 0.47120(9) 0.15028(9)
O14 O 0.94930(9) 0.57137(8) 0.13083(8)
O15 O 0.85275(9) 0.54499(9) 0.15683(8)
O16 O 0.87357(8) 0.59022(8) 0.06739(8)
O17 O 0.98335(10) 0.6653(1) 0.14908(9)
O18 O 0.88292(9) 0.64416(9) 0.14953(8)
O19 O 0.91844(9) 0.68920(8) 0.07038(8)
O20 O 0.97719(8) 0.62426(8) 0.05374(8)
O21 O 1.01109(10) 0.72321(9) 0.03215(9)
O22 O 0.98914(8) 0.65324(8) -0.03752(8)
O23 O 0.92316(9) 0.72720(8) -0.01853(9)
O24 O 0.89310(8) 0.63031(8) -0.01455(8)
O25 O 0.99344(9) 0.60877(9) -0.12987(9)
O26 O 0.97074(8) 0.55712(8) -0.04000(8)
O27 O 0.89297(8) 0.57609(8) -0.10614(8)
O28 O 0.91510(8) 0.67394(8) -0.10447(8)
O29 O 0.95836(9) 0.49282(9) -0.12394(9)
O30 O 0.85892(8) 0.48536(8) -0.09220(8)
O31 O 0.76881(9) 0.43895(9) -0.07758(9)
O32 O 0.76368(8) 0.50794(8) 0.00195(8)
O33 O 0.78092(8) 0.54526(8) -0.07532(8)
O34 O 0.67678(9) 0.53995(10) -0.04945(9)
O35 O 0.73054(9) 0.62721(9) -0.05480(8)
O36 O 0.70976(9) 0.58581(9) 0.03266(9)
O37 O 0.80502(8) 0.61001(8) 0.00858(8)
O38 O 0.74477(10) 0.73004(10) -0.06200(9)
O39 O 0.81897(8) 0.65754(8) -0.08456(8)
O40 O 0.82782(9) 0.71480(8) 0.00261(8)
O41 O 0.73494(9) 0.68432(8) 0.02837(8)
O42 O 0.85459(10) 0.75839(9) -0.08931(9)
O43 O 0.7013(1) 0.64411(10) 0.11735(9)
O44 O 0.77433(8) 0.56700(8) 0.10133(8)
O45 O 0.80415(9) 0.66853(8) 0.09736(8)
O46 O 0.78953(10) 0.62062(10) 0.19011(9)
C1 C 0.71448(12) 0.40776(11) 0.16952(11)
C2 C 0.69261(13) 0.36982(11) 0.14281(11)
H1 H 0.69830 0.36790 0.10920
C3 C 0.66260(13) 0.33487(11) 0.16500(12)
C4 C 0.65244(13) 0.33930(12) 0.21394(11)
H2 H 0.62960 0.31730 0.22870
C5 C 0.67560(12) 0.37591(11) 0.24146(11)
C6 C 0.70738(12) 0.40924(11) 0.21923(11)
H3 H 0.72440 0.43320 0.23800
C7 C 0.74561(12) 0.44665(11) 0.14537(11)
C8 C 0.64110(17) 0.29164(14) 0.13797(13)
C9 C 0.66571(12) 0.37797(11) 0.29459(11)
P2 P 0.89912(4) 0.41116(4) 0.28976(3)
C10 C 0.87076(15) 0.37589(13) 0.24216(13)
C11 C 0.82656(16) 0.35066(16) 0.25055(16)
H4 H 0.81290 0.34970 0.28200
C12 C 0.80259(17) 0.32704(17) 0.21302(17)
H5 H 0.77290 0.30910 0.21880
C13 C 0.8220(2) 0.32955(17) 0.16693(17)
H6 H 0.80540 0.31340 0.14120
C14 C 0.8650(2) 0.35523(18) 0.15819(17)
H7 H 0.87740 0.35740 0.12630
C15 C 0.89032(19) 0.37796(15) 0.19553(15)
H8 H 0.92060 0.39470 0.18960
C16 C 0.95696(15) 0.43451(17) 0.26850(14)
C17 C 0.96404(19) 0.4855(2) 0.26284(17)
H9 H 0.93910 0.50830 0.27250
C18 C 1.0080(2) 0.5024(3) 0.2429(2)
H10 H 1.01300 0.53690 0.23860
C19 C 1.0446(2) 0.4692(3) 0.22904(19)
H11 H 1.07460 0.48130 0.21570
C20 C 1.03767(19) 0.4192(3) 0.23452(19)
H12 H 1.06300 0.39680 0.22520
C21 C 0.99359(18) 0.4014(2) 0.25369(18)
H13 H 0.98840 0.36670 0.25670
C22 C 0.90791(15) 0.37384(16) 0.34244(14)
C23 C 0.95459(18) 0.3558(2) 0.35519(18)
H14 H 0.98300 0.36590 0.33750
C24 C 0.9598(2) 0.3234(3) 0.3934(2)
H15 H 0.99170 0.31150 0.40190
C25 C 0.9189(2) 0.3081(2) 0.4193(2)
H16 H 0.92270 0.28520 0.44500
C26 C 0.87268(19) 0.3263(2) 0.40784(18)
H17 H 0.84460 0.31620 0.42600
C27 C 0.86700(17) 0.35917(17) 0.36985(16)
H18 H 0.83510 0.37180 0.36240
C28 C 0.85849(14) 0.46187(13) 0.30353(13)
C29 C 0.85737(15) 0.48228(15) 0.34942(14)
H19 H 0.87740 0.46900 0.37430
C30 C 0.82661(17) 0.52225(16) 0.35824(15)
H20 H 0.82530 0.53630 0.38950
C31 C 0.79767(18) 0.54199(17) 0.32188(17)
H21 H 0.77690 0.56960 0.32830
C32 C 0.79887(18) 0.52158(17) 0.27639(17)
H22 H 0.77900 0.53520 0.25150
C33 C 0.82901(16) 0.48128(16) 0.26700(15)
H23 H 0.82960 0.46690 0.23580
P3 P 0.15403(5) 0.67880(4) 0.19638(4)
C34 C 0.14478(15) 0.66997(14) 0.13341(15)
C35 C 0.10134(15) 0.64827(16) 0.11699(18)
H24 H 0.07750 0.63600 0.13910
C36 C 0.09340(17) 0.64489(16) 0.06827(19)
H25 H 0.06360 0.63030 0.05690
C37 C 0.12734(19) 0.66197(15) 0.03588(16)
H26 H 0.12060 0.66000 0.00240
C38 C 0.1714(2) 0.68203(17) 0.05177(16)
H27 H 0.19550 0.69320 0.02930
C39 C 0.18030(17) 0.68578(16) 0.10087(15)
H28 H 0.21070 0.69920 0.11210
C40 C 0.2125(2) 0.70850(15) 0.20469(15)
C41 C 0.2199(2) 0.75491(16) 0.18312(16)
H29 H 0.19300 0.77220 0.16890
C42 C 0.2666(2) 0.77503(17) 0.18281(16)
H30 H 0.27200 0.80600 0.16750
C43 C 0.3054(2) 0.7510(2) 0.2043(2)
H31 H 0.33760 0.76510 0.20350
C44 C 0.2977(3) 0.7059(2) 0.2272(3)
H32 H 0.32430 0.68970 0.24310
C45 C 0.2509(2) 0.6847(2) 0.2269(2)
H33 H 0.24550 0.65370 0.24210
C46 C 0.1550(2) 0.61920(16) 0.22555(16)
C47 C 0.1526(3) 0.61596(18) 0.27567(18)
H34 H 0.14840 0.64510 0.29440
C48 C 0.1564(3) 0.5705(2) 0.2978(2)
H35 H 0.15550 0.56840 0.33190
C49 C 0.16142(19) 0.52800(18) 0.2707(2)
H36 H 0.16310 0.49660 0.28610
C50 C 0.16410(19) 0.53111(17) 0.22092(19)
H37 H 0.16810 0.50190 0.20240
C51 C 0.16090(18) 0.57664(16) 0.19817(17)
H38 H 0.16270 0.57870 0.16410
C52 C 0.1054(2) 0.71692(16) 0.22169(18)
C53 C 0.1106(3) 0.7325(2) 0.2697(2)
H39 H 0.14030 0.72650 0.28700
C54 C 0.0711(5) 0.7567(3) 0.2912(3)
C55 C 0.0288(4) 0.7665(3) 0.2664(4)
H40 H 0.00200 0.78270 0.28200
C56 C 0.0245(3) 0.7533(2) 0.2194(3)
H41 H -0.00480 0.76110 0.20220
C57 C 0.0630(2) 0.72850(18) 0.1966(2)
H42 H 0.06010 0.71950 0.16370
O47 O 0.73878(12) 0.77277(10) 0.06870(11)
O48 O 0.7802(2) 0.36855(13) 0.04306(16)
H43? H 0.06160 0.73700 0.31980
H44? H 0.08380 0.78870 0.30330
Zn1D Zn 1.00528(2) 0.44052(2) -0.02701(2)
Zn2G Zn 0.64737(2) 0.21709(2) 0.07045(2)
Zn3A Zn 0.67837(2) 0.40985(2) 0.38677(2)
O3G O 0.83617(10) 0.78068(9) 0.09811(9)
O5A O 0.80670(9) 0.59245(9) -0.18137(8)
O10D O 1.06337(8) 0.53595(8) 0.02932(8)
#END
