
#######################################################################
#
#                 Cambridge Crystallographic Data Centre
#                                CCDC
#
#######################################################################
#
# If this CIF has been generated from an entry in the Cambridge
# Structural Database, then it will include bibliographic, chemical,
# crystal, experimental, refinement or atomic coordinate data resulting
# from the CCDC's data processing and validation procedures.
#
#######################################################################

data_CSD_CIF_XAPNIN
_audit_creation_date 2012-03-05
_audit_creation_method CSD-ConQuest-V1
_database_code_CSD XAPNIN
_database_code_depnum_ccdc_archive 'CCDC 791635'
_chemical_formula_sum 'C13 H16 N1 O6.5 Zn1'
_chemical_formula_moiety
;
(C9 H3 O6 Zn1 1-)n,n(C4 H12 N1 1+),0.5n(H2 O1)
;
_journal_coden_Cambridge 1295
_journal_volume 14
_journal_year 2011
_journal_page_first 444
_journal_name_full 'Inorg.Chem.Commun. '
loop_
_publ_author_name
"Man-Sheng Chen"
"Ying-Qun Yang"
"Chun-Hua Zhang"
"Dai-Zhi Kuang"
"Yi-Fang Deng"
"Zhi-Min Chen"
_chemical_name_systematic
;
catena-((\m~4~-benzene-1,3,5-tricarboxylato)-zinc diethylammonium hemihydrate)
;
_cell_volume   1832.483
_exptl_crystal_density_diffrn 1.285
_diffrn_ambient_temperature 293
_refine_special_details
;
O1W disordered by symmetry over two sites with occupancy 0.50.

;
#These two values have been output from a single CSD field.
_refine_ls_R_factor_gt 0.0803
_refine_ls_wR_factor_gt 0.0803
_symmetry_cell_setting monoclinic
_symmetry_space_group_name_H-M 'P 21/n'
_symmetry_Int_Tables_number 14
loop_
_symmetry_equiv_pos_site_id
_symmetry_equiv_pos_as_xyz
1 x,y,z
2 1/2-x,1/2+y,1/2-z
3 -x,-y,-z
4 -1/2+x,-1/2-y,-1/2+z
_cell_length_a 9.506(3)
_cell_length_b 15.482(5)
_cell_length_c 12.498(4)
_cell_angle_alpha 90
_cell_angle_beta 94.954(3)
_cell_angle_gamma 90
_cell_formula_units_Z 4
loop_
_atom_type_symbol
_atom_type_radius_bond
C 0.68
H 0.23
N 0.68
O 0.68
Zn 1.22
loop_
_atom_site_label
_atom_site_type_symbol
_atom_site_fract_x
_atom_site_fract_y
_atom_site_fract_z
Zn1 Zn 1.14014(6) 0.08367(4) 0.45719(5)
C1 C 1.2718(6) -0.1102(4) 0.6854(5)
C2 C 1.4102(6) -0.0979(4) 0.6616(5)
H1 H 1.43110 -0.05570 0.61240
C3 C 1.5183(6) -0.1486(4) 0.7116(5)
C4 C 1.4870(7) -0.2091(5) 0.7879(6)
H2 H 1.55910 -0.24220 0.82200
C5 C 1.3484(7) -0.2209(5) 0.8141(6)
C6 C 1.2417(6) -0.1716(4) 0.7618(5)
H3 H 1.14880 -0.17960 0.77790
C7 C 1.1525(6) -0.0640(4) 0.6206(5)
C8 C 1.6660(6) -0.1415(5) 0.6756(5)
C9 C 1.3127(7) -0.2897(5) 0.8928(6)
C10 C 0.1588(18) 0.2636(13) 0.0447(14)
H4 H 0.19500 0.21420 0.08470
H5 H 0.21770 0.27560 -0.01210
H6 H 0.06440 0.25180 0.01460
C11 C 0.1575(12) 0.3451(9) 0.1227(12)
H7 H 0.25300 0.35920 0.15080
H8 H 0.11790 0.39480 0.08350
C12 C 0.063(2) 0.3903(11) 0.2894(17)
H9 H 0.10400 0.44450 0.28390
C13 C -0.019(3) 0.3624(15) 0.3802(16)
H10 H -0.11060 0.38940 0.37340
H11 H 0.03030 0.37900 0.44720
H12 H -0.03060 0.30070 0.37840
N1 N 0.0697(9) 0.3231(6) 0.2129(8)
H13 H -0.01850 0.31040 0.18530
H14 H 0.10580 0.27560 0.24650
O1 O 1.1869(5) -0.0204(3) 0.5433(4)
O2 O 1.0292(4) -0.0762(3) 0.6453(3)
O3 O 1.1895(6) -0.3106(5) 0.8991(6)
O4 O 1.4163(5) -0.3242(3) 0.9483(4)
O5 O 1.7519(5) -0.2004(4) 0.6983(6)
O6 O 1.6904(5) -0.0771(3) 0.6192(4)
O7? O 0.969(12) 0.994(3) 0.935(4)
H15? H 1.04020 1.02190 0.99960
H16? H 1.04200 0.96940 0.91500
Zn1B Zn 0.85986(6) -0.08367(4) 0.54281(5)
Zn1A Zn 1.35986(6) -0.41633(4) 1.04281(5)
Zn1B* Zn 1.85986(6) -0.08367(4) 0.54281(5)
O2B O 0.9708(4) 0.0762(3) 0.3547(3)
O4A O 1.0837(5) 0.1758(3) 0.5517(4)
O6B O 1.3096(5) 0.0771(3) 0.3808(4)
#END
