
#######################################################################
#
#                 Cambridge Crystallographic Data Centre
#                                CCDC
#
#######################################################################
#
# If this CIF has been generated from an entry in the Cambridge
# Structural Database, then it will include bibliographic, chemical,
# crystal, experimental, refinement or atomic coordinate data resulting
# from the CCDC's data processing and validation procedures.
#
#######################################################################

data_CSD_CIF_XAPSUE
_audit_creation_date 2012-03-05
_audit_creation_method CSD-ConQuest-V1
_database_code_CSD XAPSUE
_database_code_depnum_ccdc_archive 'CCDC 731518'
_chemical_formula_sum 'C50 H76 Al2 Cu4 Mo12 N8 O68'
_chemical_formula_moiety
;
(C26 H22 Al1 Cu2 Mo6 N4 O28 1-)n,2n(C12 H14 Cu1 N2 O3 2+),10n(H2 O1),n(H6 Al1 
Mo6 O24 3-)
;
_journal_coden_Cambridge 1295
_journal_volume 14
_journal_year 2011
_journal_page_first 384
_journal_name_full 'Inorg.Chem.Commun. '
loop_
_publ_author_name
"Rui-Kang"
"Shu-Xia Liu"
"Wei Zhang"
"Shu-Jun Li"
"Yuan-Yuan Zhang"
_chemical_name_systematic
;
catena-(bis(triaqua-(1,10-phenanthroline)-copper) 
hexakis(\m~3~-hydroxo)-(\m~2~-oxalato)-octakis(\m~2~-oxo)-bis(1,10-phenanthrol
ine)-decaoxo-aluminium-di-copper-hexa-molybdenum 
hexakis(\m~3~-hydroxo)-hexakis(\m~2~-oxo)-dodecaoxo-aluminium-hexa-molybdenum 
decahydrate)
;
_cell_volume   2551.440
_exptl_crystal_colour 'blue'
_exptl_crystal_description 'block'
_diffrn_ambient_temperature 296
#These two values have been output from a single CSD field.
_refine_ls_R_factor_gt 0.0586
_refine_ls_wR_factor_gt 0.0586
_symmetry_cell_setting triclinic
_symmetry_space_group_name_H-M 'P -1'
_symmetry_Int_Tables_number 2
loop_
_symmetry_equiv_pos_site_id
_symmetry_equiv_pos_as_xyz
1 x,y,z
2 -x,-y,-z
_cell_length_a 11.4599(12)
_cell_length_b 14.0932(14)
_cell_length_c 17.1497(18)
_cell_angle_alpha 76.797(1)
_cell_angle_beta 72.168(1)
_cell_angle_gamma 80.100(1)
_cell_formula_units_Z 1
loop_
_atom_type_symbol
_atom_type_radius_bond
C 0.68
H 0.23
Al 1.21
Cu 1.32
Mo 1.38
N 0.68
O 0.68
loop_
_atom_site_label
_atom_site_type_symbol
_atom_site_fract_x
_atom_site_fract_y
_atom_site_fract_z
Al1 Al 0.50000 0.00000 1.00000
Al2 Al 0.50000 1.00000 0.50000
Cu1 Cu 0.96945(13) 0.18927(9) 0.96742(8)
Cu2 Cu 0.94402(12) 0.73819(9) 0.63279(8)
Mo1 Mo 0.47461(8) 0.24427(6) 0.95200(5)
Mo2 Mo 0.76403(8) -0.13052(6) 0.92211(5)
Mo3 Mo 0.74085(8) 0.11145(6) 0.87297(5)
Mo4 Mo 0.65873(9) 0.78847(7) 0.55674(6)
Mo5 Mo 0.67157(8) 0.87058(7) 0.35816(6)
Mo6 Mo 0.48665(9) 0.91837(7) 0.69889(6)
C1 C 1.1415(11) 0.3015(8) 0.8168(7)
H1 H 1.18240 0.24210 0.80290
C2 C 1.1849(11) 0.3868(8) 0.7679(7)
H2 H 1.25250 0.38460 0.72120
C3 C 1.1284(12) 0.4752(9) 0.7880(7)
H3 H 1.15790 0.53300 0.75520
C4 C 1.0261(10) 0.4789(8) 0.8579(6)
C5 C 0.9571(11) 0.5678(7) 0.8859(7)
H4 H 0.97940 0.62860 0.85500
C6 C 0.8629(11) 0.5637(7) 0.9548(7)
H5 H 0.82180 0.62170 0.97160
C7 C 0.8234(10) 0.4719(8) 1.0038(7)
C8 C 0.7246(11) 0.4610(8) 1.0779(7)
H6 H 0.67820 0.51590 1.09770
C9 C 0.6978(11) 0.3681(8) 1.1203(7)
H7 H 0.63140 0.36070 1.16790
C10 C 0.7692(10) 0.2848(8) 1.0928(7)
H8 H 0.75280 0.22280 1.12370
C11 C 0.8872(9) 0.3839(7) 0.9776(6)
C12 C 0.9868(9) 0.3884(7) 0.9039(6)
C13 C 0.7175(9) 0.6915(7) 0.7802(6)
H9 H 0.70220 0.75770 0.78350
C14 C 0.6382(10) 0.6282(8) 0.8362(6)
H10 H 0.56960 0.65250 0.87480
C15 C 0.6590(11) 0.5317(8) 0.8355(7)
H11 H 0.60710 0.48880 0.87480
C16 C 0.7617(10) 0.4954(7) 0.7739(7)
C17 C 0.7945(13) 0.3966(8) 0.7672(9)
H12 H 0.74630 0.35000 0.80480
C18 C 0.8919(13) 0.3670(8) 0.7090(8)
H13 H 0.90880 0.30080 0.70610
C19 C 0.9714(12) 0.4349(8) 0.6507(7)
C20 C 1.0758(13) 0.4094(9) 0.5865(8)
H14 H 1.09660 0.34480 0.57870
C21 C 1.1429(13) 0.4784(10) 0.5379(9)
H15 H 1.21300 0.46170 0.49660
C22 C 1.1110(11) 0.5773(9) 0.5471(7)
H16 H 1.16060 0.62450 0.51210
C23 C 0.9395(10) 0.5334(7) 0.6564(6)
C24 C 0.8356(9) 0.5646(7) 0.7189(6)
C25 C 1.0467(10) 0.0002(8) 0.9583(6)
N1 N 1.0425(8) 0.3001(6) 0.8838(5)
N2 N 0.8603(8) 0.2943(6) 1.0228(5)
N3 N 0.8157(8) 0.6621(6) 0.7211(5)
N4 N 1.0100(8) 0.6041(6) 0.6056(5)
O1 O 0.5901(6) 0.1016(4) 1.0004(4)
H17 H 0.59170 0.11770 1.04480
O2 O 0.6110(5) -0.0056(4) 0.8941(4)
H18 H 0.59600 -0.00350 0.83780
O3 O 0.6095(6) -0.1028(4) 1.0398(4)
H19 H 0.63290 -0.06560 1.06950
O4 O 0.5973(6) 0.1989(4) 0.8573(4)
O5 O 0.8093(6) -0.0077(4) 0.9298(4)
O6 O 0.3602(6) 0.2127(5) 1.0607(4)
O7 O 0.8200(7) 0.1877(5) 0.8960(5)
O8 O 0.8088(6) 0.1037(5) 0.7716(4)
O9 O 0.8597(6) -0.2037(5) 0.9745(4)
O10 O 0.8345(6) -0.1315(5) 0.8178(4)
O11 O 0.3811(7) 0.3165(5) 0.8973(4)
O12 O 0.5523(7) 0.3221(5) 0.9750(5)
O13 O 0.4715(6) 0.8822(4) 0.5783(4)
H20 H 0.40110 0.85230 0.59170
O14 O 0.6651(6) 0.9399(4) 0.4685(4)
O15 O 0.4809(6) 0.9515(5) 0.4121(4)
H21 H 0.42720 0.92230 0.39250
O16 O 0.6484(6) 0.8679(5) 0.6365(4)
O17 O 0.6223(6) 0.7748(5) 0.4585(4)
O18 O 0.6715(6) 1.0046(5) 0.2990(4)
O19 O 0.6048(8) 0.6858(5) 0.6208(5)
O20 O 0.8155(6) 0.7643(5) 0.5318(4)
O21 O 0.8272(6) 0.8409(6) 0.3346(5)
O22 O 0.6216(7) 0.8186(6) 0.2950(5)
O23 O 0.5357(8) 0.9716(7) 0.7610(5)
O24 O 0.4332(8) 0.8148(6) 0.7588(5)
O25 O 1.0715(7) 0.0805(5) 0.9135(4)
O26 O 1.0971(7) -0.0823(5) 0.9401(4)
O27 O 0.8647(6) 0.8692(5) 0.6564(4)
O28 O 1.0679(7) 0.8035(5) 0.5354(4)
O29 O 1.0777(7) 0.7381(6) 0.7111(5)
O30 O 0.0244(7) 0.8647(6) 0.3853(4)
O31 O 0.1262(8) 0.9650(6) 0.5773(7)
O32 O 0.8982(9) 0.0823(7) 0.2486(6)
O33 O 0.2995(13) 0.8686(10) 0.3936(8)
O34 O 0.5740(12) 0.2794(10) 0.7023(8)
O35 O 0.3129(16) 0.7487(13) 0.5888(11)
O36 O 0.6869(12) 0.9745(13) 0.1348(8)
Cu1A Cu 0.03055(13) -0.18927(9) 1.03258(8)
Cu1A* Cu 1.03055(13) -0.18927(9) 1.03258(8)
Mo1A Mo 0.52539(8) -0.24427(6) 1.04800(5)
Mo2A Mo 0.23597(8) 0.13052(6) 1.07789(5)
Mo3A Mo 0.25915(8) -0.11145(6) 1.12703(5)
Mo4A Mo 0.34127(9) 1.21153(7) 0.44326(6)
Mo5A Mo 0.32843(8) 1.12942(7) 0.64184(6)
Mo6A Mo 0.51335(9) 1.08163(7) 0.30111(6)
C1A C -0.1415(11) -0.3015(8) 1.1832(7)
H1A H -0.18240 -0.24210 1.19710
C2A C -0.1849(11) -0.3868(8) 1.2321(7)
H2A H -0.25250 -0.38460 1.27880
C3A C -0.1284(12) -0.4752(9) 1.2120(7)
H3A H -0.15790 -0.53300 1.24480
C4A C -0.0261(10) -0.4789(8) 1.1421(6)
C5A C 0.0429(11) -0.5678(7) 1.1141(7)
H4A H 0.02060 -0.62860 1.14500
C6A C 0.1371(11) -0.5637(7) 1.0452(7)
H5A H 0.17820 -0.62170 1.02840
C7A C 0.1766(10) -0.4719(8) 0.9962(7)
C8A C 0.2754(11) -0.4610(8) 0.9221(7)
H6A H 0.32180 -0.51590 0.90230
C9A C 0.3022(11) -0.3681(8) 0.8797(7)
H7A H 0.36860 -0.36070 0.83210
C10A C 0.2308(10) -0.2848(8) 0.9072(7)
H8A H 0.24720 -0.22280 0.87630
C11A C 0.1128(9) -0.3839(7) 1.0224(6)
C12A C 0.0132(9) -0.3884(7) 1.0961(6)
C25A C 0.9533(10) -0.0002(8) 1.0417(6)
N1A N -0.0425(8) -0.3001(6) 1.1162(5)
N2A N 0.1397(8) -0.2943(6) 0.9772(5)
O1A O 0.4099(6) -0.1016(4) 0.9996(4)
H17A H 0.40830 -0.11770 0.95520
O2A O 0.3890(5) 0.0056(4) 1.1059(4)
H18A H 0.40400 0.00350 1.16220
O3A O 0.3905(6) 0.1028(4) 0.9602(4)
H19A H 0.36710 0.06560 0.93050
O4A O 0.4027(6) -0.1989(4) 1.1427(4)
O5A O 0.1907(6) 0.0077(4) 1.0702(4)
O6A O 0.6398(6) -0.2127(5) 0.9393(4)
O7A O 0.1800(7) -0.1877(5) 1.1040(5)
O8A O 0.1912(6) -0.1037(5) 1.2284(4)
O9A O 0.1403(6) 0.2037(5) 1.0255(4)
O10A O 0.1655(6) 0.1315(5) 1.1822(4)
O11A O 0.6189(7) -0.3165(5) 1.1027(4)
O12A O 0.4477(7) -0.3221(5) 1.0250(5)
O13A O 0.5285(6) 1.1178(4) 0.4217(4)
H20A H 0.59890 1.14770 0.40830
O14A O 0.3349(6) 1.0601(4) 0.5315(4)
O15A O 0.5191(6) 1.0485(5) 0.5879(4)
H21A H 0.57280 1.07770 0.60750
O16A O 0.3516(6) 1.1321(5) 0.3635(4)
O17A O 0.3777(6) 1.2252(5) 0.5415(4)
O18A O 0.3285(6) 0.9954(5) 0.7010(4)
O19A O 0.3952(8) 1.3142(5) 0.3792(5)
O20A O 0.1845(6) 1.2357(5) 0.4682(4)
O21A O 0.1728(6) 1.1591(6) 0.6654(5)
O22A O 0.3784(7) 1.1814(6) 0.7050(5)
O23A O 0.4643(8) 1.0284(7) 0.2390(5)
O24A O 0.5668(8) 1.1852(6) 0.2412(5)
O25A O 0.9285(7) -0.0805(5) 1.0865(4)
O25A* O -0.0715(7) -0.0805(5) 1.0865(4)
O26A O 0.9029(7) 0.0823(5) 1.0599(4)
O26* O 0.0971(7) -0.0823(5) 0.9401(4)
#END
