
#######################################################################
#
#                 Cambridge Crystallographic Data Centre
#                                CCDC
#
#######################################################################
#
# If this CIF has been generated from an entry in the Cambridge
# Structural Database, then it will include bibliographic, chemical,
# crystal, experimental, refinement or atomic coordinate data resulting
# from the CCDC's data processing and validation procedures.
#
#######################################################################

data_CSD_CIF_XAPSIS
_audit_creation_date 2012-03-05
_audit_creation_method CSD-ConQuest-V1
_database_code_CSD XAPSIS
_database_code_depnum_ccdc_archive 'CCDC 797059'
_chemical_formula_sum 'C16 H18 Co1 N2 O7'
_chemical_formula_moiety
;
(C9 H5 Co1 O7 1-)n,n(C7 H13 N2 1+)
;
_journal_coden_Cambridge 1295
_journal_volume 14
_journal_year 2011
_journal_page_first 380
_journal_name_full 'Inorg.Chem.Commun. '
loop_
_publ_author_name
"Yu-Ling Wang"
"Na Zhang"
"Qing-Yan Liu"
"Xin Yang"
"Hong Bai"
"Lin-Yan Duan"
"Hong-Yu Liu"
_chemical_name_systematic
;
catena-((\m~4~-benzene-1,3,5-tricarboxylato)-aqua-cobalt 
1-methyl-3-propyl-1H-imidazol-3-ium)
;
_cell_volume   1850.406
_exptl_crystal_colour 'purple'
_exptl_crystal_density_diffrn 1.469
_exptl_crystal_description 'prism'
_diffrn_ambient_temperature 273
#These two values have been output from a single CSD field.
_refine_ls_R_factor_gt 0.0522
_refine_ls_wR_factor_gt 0.0522
_symmetry_cell_setting monoclinic
_symmetry_space_group_name_H-M 'P 21/n'
_symmetry_Int_Tables_number 14
loop_
_symmetry_equiv_pos_site_id
_symmetry_equiv_pos_as_xyz
1 x,y,z
2 1/2-x,1/2+y,1/2-z
3 -x,-y,-z
4 -1/2+x,-1/2-y,-1/2+z
_cell_length_a 11.279(10)
_cell_length_b 10.679(10)
_cell_length_c 15.428(14)
_cell_angle_alpha 90
_cell_angle_beta 95.276(14)
_cell_angle_gamma 90
_cell_formula_units_Z 4
loop_
_atom_type_symbol
_atom_type_radius_bond
C 0.68
H 0.23
Co 1.26
N 0.68
O 0.68
loop_
_atom_site_label
_atom_site_type_symbol
_atom_site_fract_x
_atom_site_fract_y
_atom_site_fract_z
Co1 Co 0.84900(5) 0.54034(6) 0.01117(3)
O1 O 0.9111(3) 0.4126(3) 0.09665(19)
O2 O 1.1098(3) 0.3874(3) 0.10118(17)
O3 O 1.2275(2) 0.0787(3) 0.44710(17)
O4 O 1.3245(3) 0.1505(4) 0.3364(2)
O5 O 0.7864(2) 0.1189(3) 0.43131(19)
O6 O 0.7062(3) 0.2790(3) 0.3509(2)
O7 O 0.9679(3) 0.6789(4) 0.0684(2)
H1 H 1.035(5) 0.664(5) 0.100(3)
H2 H 0.922(5) 0.721(5) 0.092(3)
N1 N 0.8059(5) -0.3605(5) 0.4043(3)
N2 N 0.9471(5) -0.2589(5) 0.3478(3)
C1 C 1.0108(4) 0.2998(4) 0.2141(3)
C2 C 1.1158(4) 0.2504(4) 0.2542(3)
H3 H 1.18660 0.26170 0.22870
C3 C 1.1166(4) 0.1844(4) 0.3318(3)
C4 C 1.0102(4) 0.1667(4) 0.3692(3)
H4 H 1.01010 0.12000 0.42010
C5 C 0.9035(4) 0.2177(4) 0.3316(3)
C6 C 0.9049(4) 0.2824(4) 0.2532(3)
H5 H 0.83420 0.31460 0.22640
C7 C 1.0097(4) 0.3715(4) 0.1299(3)
C8 C 1.2329(4) 0.1348(4) 0.3744(3)
C9 C 0.7880(4) 0.2048(5) 0.3736(3)
C10 C 0.8646(6) -0.2534(6) 0.4036(4)
H6 H 0.85010 -0.18400 0.43740
C11 C 0.9392(9) -0.3777(8) 0.3124(5)
H7 H 0.98640 -0.40900 0.27100
C12 C 0.8531(9) -0.4398(7) 0.3470(5)
H8 H 0.82940 -0.52180 0.33460
C13 C 0.7140(7) -0.3947(8) 0.4613(5)
H9 H 0.65100 -0.44070 0.42820
H10 H 0.67960 -0.31930 0.48370
C14 C 0.7679(9) -0.4763(8) 0.5384(5)
H11 H 0.83270 -0.43130 0.57040
H12 H 0.79990 -0.55300 0.51620
C15 C 0.6708(11) -0.5093(11) 0.6012(7)
H13 H 0.70590 -0.55860 0.64880
H14 H 0.60780 -0.55590 0.57000
H15 H 0.63910 -0.43340 0.62320
C16 C 1.0254(7) -0.1578(8) 0.3264(5)
H16 H 1.01120 -0.08560 0.36100
H17 H 1.01010 -0.13710 0.26580
H18 H 1.10680 -0.18370 0.33810
Co1B Co 1.15100(5) 0.45966(6) -0.01117(3)
Co1C Co 1.34900(5) -0.04034(6) 0.51117(3)
Co1A Co 0.65100(5) 0.04034(6) 0.48883(3)
O2B O 0.8902(3) 0.6126(3) -0.10118(17)
O3C O 0.7275(2) 0.4213(3) -0.05290(17)
O5A O 0.7136(2) 0.6189(3) 0.06869(19)
#END
