
#######################################################################
#
#                 Cambridge Crystallographic Data Centre
#                                CCDC
#
#######################################################################
#
# If this CIF has been generated from an entry in the Cambridge
# Structural Database, then it will include bibliographic, chemical,
# crystal, experimental, refinement or atomic coordinate data resulting
# from the CCDC's data processing and validation procedures.
#
#######################################################################

data_CSD_CIF_XAPTAL
_audit_creation_date 2012-03-05
_audit_creation_method CSD-ConQuest-V1
_database_code_CSD XAPTAL
_database_code_depnum_ccdc_archive 'CCDC 731519'
_chemical_formula_sum 'C50 H80 Cr2 Cu4 Mo12 N8 O70'
_chemical_formula_moiety
;
(C26 H22 Cr1 Cu2 Mo6 N4 O28 1-)n,2n(C12 H14 Cu1 N2 O3 2+),12n(H2 O1),n(H6 Cr1 
Mo6 O24 3-)
;
_journal_coden_Cambridge 1295
_journal_volume 14
_journal_year 2011
_journal_page_first 384
_journal_name_full 'Inorg.Chem.Commun. '
loop_
_publ_author_name
"Rui-Kang"
"Shu-Xia Liu"
"Wei Zhang"
"Shu-Jun Li"
"Yuan-Yuan Zhang"
_chemical_name_systematic
;
catena-(bis(triaqua-(1,10-phenanthroline)-copper) 
hexakis(\m~3~-hydroxo)-(\m~2~-oxalato)-octakis(\m~2~-oxo)-bis(1,10-phenanthrol
ine)-decaoxo-chromium-di-copper-hexa-molybdenum 
hexakis(\m~3~-hydroxo)-hexakis(\m~2~-oxo)-dodecaoxo-chromium-hexa-molybdenum 
dodecahydrate)
;
_cell_volume   2561.927
_exptl_crystal_colour 'blue'
_exptl_crystal_density_diffrn 2.218
_exptl_crystal_description 'block'
_diffrn_ambient_temperature 296
#These two values have been output from a single CSD field.
_refine_ls_R_factor_gt 0.0462
_refine_ls_wR_factor_gt 0.0462
_symmetry_cell_setting triclinic
_symmetry_space_group_name_H-M 'P -1'
_symmetry_Int_Tables_number 2
loop_
_symmetry_equiv_pos_site_id
_symmetry_equiv_pos_as_xyz
1 x,y,z
2 -x,-y,-z
_cell_length_a 11.4777(10)
_cell_length_b 14.0993(12)
_cell_length_c 17.1751(16)
_cell_angle_alpha 76.829(1)
_cell_angle_beta 72.209(1)
_cell_angle_gamma 80.252(1)
_cell_formula_units_Z 1
loop_
_atom_type_symbol
_atom_type_radius_bond
C 0.68
H 0.23
Cr 1.39
Cu 1.32
Mo 1.39
N 0.68
O 0.68
loop_
_atom_site_label
_atom_site_type_symbol
_atom_site_fract_x
_atom_site_fract_y
_atom_site_fract_z
Cr1 Cr 0.50000 0.50000 1.00000
Cr2 Cr 0.50000 0.50000 0.50000
Cu1 Cu 0.97044(10) 0.68942(6) 0.96738(7)
Cu2 Cu 0.94318(9) 0.23807(7) 0.63252(6)
Mo1 Mo 0.74249(6) 0.61199(5) 0.87249(4)
Mo2 Mo 0.76529(6) 0.36874(4) 0.92129(4)
Mo3 Mo 0.52468(6) 0.25434(5) 1.04758(4)
Mo4 Mo 0.65901(6) 0.28669(5) 0.55658(5)
Mo5 Mo 0.48688(7) 0.41751(5) 0.69975(5)
Mo6 Mo 0.67208(6) 0.36990(5) 0.35706(5)
C1 C 1.0487(8) 0.5010(6) 0.9584(6)
C2 C 0.7727(8) 0.7860(6) 1.0918(6)
H1 H 0.75580 0.72400 1.12240
C3 C 0.7026(9) 0.8684(7) 1.1207(6)
H2 H 0.63830 0.86070 1.16950
C4 C 0.7279(8) 0.9605(6) 1.0778(6)
H3 H 0.68280 1.01570 1.09760
C5 C 0.8225(7) 0.9699(5) 1.0040(6)
C6 C 0.8608(8) 1.0625(6) 0.9554(6)
H4 H 0.81860 1.12040 0.97140
C7 C 0.9589(9) 1.0662(6) 0.8857(7)
H5 H 0.98330 1.12670 0.85550
C8 C 1.0251(8) 0.9781(6) 0.8583(6)
C9 C 1.1296(9) 0.9761(7) 0.7884(6)
H6 H 1.16020 1.03420 0.75700
C10 C 1.1854(9) 0.8874(6) 0.7675(6)
H7 H 1.25230 0.88500 0.72070
C11 C 1.1408(8) 0.8021(6) 0.8168(6)
H8 H 1.17940 0.74260 0.80230
C12 C 0.9877(7) 0.8878(5) 0.9031(5)
C13 C 0.8879(7) 0.8849(5) 0.9785(5)
C14 C 1.1088(9) 0.0770(7) 0.5480(6)
H9 H 1.15680 0.12470 0.51220
C15 C 1.1443(9) -0.0196(8) 0.5387(7)
H10 H 1.21550 -0.03550 0.49810
C16 C 1.0764(11) -0.0899(7) 0.5880(7)
H11 H 1.09930 -0.15470 0.58150
C17 C 0.9684(9) -0.0646(6) 0.6505(6)
C18 C 0.8925(10) -0.1344(7) 0.7098(7)
H12 H 0.91290 -0.20080 0.70820
C19 C 0.7912(10) -0.1050(6) 0.7682(7)
H13 H 0.74150 -0.15120 0.80470
C20 C 0.7603(8) -0.0051(6) 0.7744(6)
C21 C 0.6580(9) 0.0307(7) 0.8350(6)
H14 H 0.60470 -0.01210 0.87300
C22 C 0.6383(8) 0.1273(6) 0.8373(6)
H15 H 0.57220 0.15140 0.87740
C23 C 0.7183(7) 0.1910(6) 0.7789(5)
H16 H 0.70210 0.25750 0.78060
C24 C 0.8372(8) 0.0650(6) 0.7184(5)
C25 C 0.9413(8) 0.0328(6) 0.6568(6)
N1 N 0.8616(6) 0.7944(4) 1.0225(4)
N2 N 1.0458(6) 0.8013(4) 0.8836(4)
N3 N 1.0096(6) 0.1049(5) 0.6057(5)
N4 N 0.8153(6) 0.1619(4) 0.7215(4)
O1 O 0.6135(4) 0.3923(3) 1.0407(3)
H17 H 0.63630 0.40280 1.08030
O2 O 0.6179(4) 0.4934(3) 0.8902(3)
H18 H 0.58640 0.48550 0.85360
O3 O 0.5944(4) 0.6051(3) 0.9993(3)
H19 H 0.60090 0.60670 1.04700
O4 O 0.6401(5) 0.2856(4) 0.9386(3)
O5 O 0.8104(4) 0.4914(4) 0.9292(3)
O6 O 0.5995(5) 0.6999(4) 0.8589(3)
O7 O 0.6173(5) 0.1817(4) 1.1028(4)
O8 O 0.4463(5) 0.1772(4) 1.0250(4)
O9 O 0.8623(5) 0.2949(4) 0.9739(4)
O10 O 0.8091(5) 0.6050(4) 0.7707(4)
O11 O 0.8238(5) 0.6878(4) 0.8953(4)
O12 O 0.6698(4) 0.4365(3) 0.4666(3)
H20 H 0.73000 0.46970 0.45620
O13 O 0.4708(5) 0.3770(4) 0.5820(3)
H21 H 0.41660 0.34540 0.57810
O14 O 0.5177(4) 0.5504(4) 0.5927(3)
H22 H 0.57190 0.58870 0.58410
O15 O 0.6217(5) 0.2734(4) 0.4580(4)
O16 O 0.6493(5) 0.3677(4) 0.6371(3)
O17 O 0.3301(5) 0.4947(4) 0.7009(3)
O18 O 0.6232(5) 0.3176(5) 0.2937(4)
O19 O 0.8279(5) 0.3409(4) 0.3321(4)
O20 O 0.8163(5) 0.2632(4) 0.5311(4)
O21 O 0.6039(6) 0.1835(4) 0.6199(4)
O22 O 0.5390(6) 0.4712(5) 0.7610(4)
O23 O 0.4322(6) 0.3136(5) 0.7598(4)
O24 O 1.0730(6) 0.5813(4) 0.9141(4)
O25 O 1.0968(6) 0.4183(4) 0.9406(4)
O26 O 1.0670(5) 0.3016(4) 0.5354(4)
H23 H 1.03910 0.32480 0.49360
H24 H 1.09220 0.35730 0.52690
O27 O 0.8652(5) 0.3698(4) 0.6553(3)
H25 H 0.79050 0.38740 0.65570
H26 H 0.88530 0.36780 0.69940
O28 O 1.0747(6) 0.2368(4) 0.7114(4)
H27 H 1.10960 0.27130 0.73040
H28 H 1.14840 0.22320 0.68350
O29 O 0.0252(6) 0.3636(5) 0.3855(4)
O30 O 0.1243(6) 0.4636(5) 0.5784(5)
O31 O 0.1019(7) 0.4169(6) 0.7513(5)
O32 O 0.3000(8) 0.3634(8) 0.3946(6)
O33 O 0.6889(10) 0.7452(8) 0.4168(7)
O34 O 0.3152(9) 0.5244(10) 0.8669(7)
O35 O 0.4252(9) 0.2219(8) 0.2956(5)
O36 O 0.8342(5) 0.3663(4) 0.8184(4)
Cu1A Cu 0.02956(10) 0.31058(6) 1.03262(7)
Cu1A* Cu 1.02956(10) 0.31058(6) 1.03262(7)
Mo1A Mo 0.25751(6) 0.38801(5) 1.12751(4)
Mo2A Mo 0.23471(6) 0.63126(4) 1.07871(4)
Mo3A Mo 0.47532(6) 0.74566(5) 0.95242(4)
Mo4A Mo 0.34099(6) 0.71331(5) 0.44342(5)
Mo5A Mo 0.51312(7) 0.58249(5) 0.30025(5)
Mo6A Mo 0.32792(6) 0.63010(5) 0.64294(5)
C1A C 0.9513(8) 0.4990(6) 1.0416(6)
C2A C 0.2273(8) 0.2140(6) 0.9082(6)
H1A H 0.24420 0.27600 0.87760
C3A C 0.2974(9) 0.1316(7) 0.8793(6)
H2A H 0.36170 0.13930 0.83050
C4A C 0.2721(8) 0.0395(6) 0.9222(6)
H3A H 0.31720 -0.01570 0.90240
C5A C 0.1775(7) 0.0301(5) 0.9960(6)
C6A C 0.1392(8) -0.0625(6) 1.0446(6)
H4A H 0.18140 -0.12040 1.02860
C7A C 0.0411(9) -0.0662(6) 1.1143(7)
H5A H 0.01670 -0.12670 1.14450
C8A C -0.0251(8) 0.0219(6) 1.1417(6)
C9A C -0.1296(9) 0.0239(7) 1.2116(6)
H6A H -0.16020 -0.03420 1.24300
C10A C -0.1854(9) 0.1126(6) 1.2325(6)
H7A H -0.25230 0.11500 1.27930
C11A C -0.1408(8) 0.1979(6) 1.1832(6)
H8A H -0.17940 0.25740 1.19770
C12A C 0.0123(7) 0.1122(5) 1.0969(5)
C13A C 0.1121(7) 0.1151(5) 1.0215(5)
N1A N 0.1384(6) 0.2056(4) 0.9775(4)
N2A N -0.0458(6) 0.1987(4) 1.1164(4)
O1A O 0.3865(4) 0.6077(3) 0.9593(3)
H17A H 0.36370 0.59720 0.91970
O2A O 0.3821(4) 0.5066(3) 1.1098(3)
H18A H 0.41360 0.51450 1.14640
O3A O 0.4056(4) 0.3949(3) 1.0007(3)
H19A H 0.39910 0.39330 0.95300
O4A O 0.3599(5) 0.7144(4) 1.0614(3)
O5A O 0.1896(4) 0.5086(4) 1.0708(3)
O6A O 0.4005(5) 0.3001(4) 1.1411(3)
O7A O 0.3827(5) 0.8183(4) 0.8972(4)
O8A O 0.5537(5) 0.8228(4) 0.9750(4)
O9A O 0.1377(5) 0.7051(4) 1.0261(4)
O10A O 0.1909(5) 0.3950(4) 1.2293(4)
O11A O 0.1762(5) 0.3122(4) 1.1047(4)
O12A O 0.3302(4) 0.5635(3) 0.5334(3)
H20A H 0.27000 0.53030 0.54380
O13A O 0.5292(5) 0.6230(4) 0.4180(3)
H21A H 0.58340 0.65460 0.42190
O14A O 0.4823(4) 0.4496(4) 0.4073(3)
H22A H 0.42810 0.41130 0.41590
O15A O 0.3783(5) 0.7266(4) 0.5420(4)
O16A O 0.3507(5) 0.6323(4) 0.3629(3)
O17A O 0.6699(5) 0.5053(4) 0.2991(3)
O18A O 0.3768(5) 0.6824(5) 0.7063(4)
O19A O 0.1721(5) 0.6591(4) 0.6679(4)
O20A O 0.1837(5) 0.7368(4) 0.4689(4)
O21A O 0.3961(6) 0.8165(4) 0.3801(4)
O22A O 0.4610(6) 0.5288(5) 0.2390(4)
O23A O 0.5678(6) 0.6864(5) 0.2402(4)
O24A O 0.9270(6) 0.4187(4) 1.0859(4)
O24A* O -0.0730(6) 0.4187(4) 1.0859(4)
O25A O 0.9032(6) 0.5817(4) 1.0594(4)
O25* O 0.0968(6) 0.4183(4) 0.9406(4)
O36A O 0.1658(5) 0.6337(4) 1.1816(4)
#END
