
#######################################################################
#
#                 Cambridge Crystallographic Data Centre
#                                CCDC
#
#######################################################################
#
# If this CIF has been generated from an entry in the Cambridge
# Structural Database, then it will include bibliographic, chemical,
# crystal, experimental, refinement or atomic coordinate data resulting
# from the CCDC's data processing and validation procedures.
#
#######################################################################

data_CSD_CIF_XASNUD
_audit_creation_date 2017-03-02
_audit_creation_method CSD-ConQuest-V1
_database_code_CSD XASNUD
_database_code_depnum_ccdc_archive 'CCDC 1437843'
_chemical_formula_sum 'C78 H99 N7 O52 Zn9'
_chemical_formula_moiety
;
(C54 H26 O41 Zn9 2-)n,2n(C2 H8 N1 1+),5n(C4 H9 N1 O1),6n(H2 O1)
;
_journal_coden_Cambridge 29
_journal_volume 643
_journal_year 2017
_journal_page_first 166
_journal_name_full 'Z.Anorg.Allg.Chem. '
loop_
_publ_author_name
"Qipeng Li"
"Panpan Yu"
"Jiagang Luo"
"Cen Qi"
"Zejun Zhang"
"Jinjie Qian"
_chemical_name_systematic
;
catena-[bis(dimethylammonium) 
hexakis(\m-benzene-1,3,5-tricarboxylato)-bis(\m-hydroxo)-triaqua-nona-zinc 
N,N-dimethylacetamide solvate hexahydrate]
;
_chemical_name_common
;
FJI-4
;
_cell_volume  12785.983
_exptl_crystal_colour 'colorless'
_exptl_special_details
;
Luminescent
Heat-sensitive

;
_exptl_crystal_description 'Prism'
_diffrn_ambient_temperature 173
_refine_special_details
;
Disordered dimethylammonium cations and water and N,N-dimethylacetamide 
solvent molecules were not modelled and the disordered density was taken into 
account using the SQUEEZE/PLATON procedure.
;
#These two values have been output from a single CSD field.
_refine_ls_R_factor_gt 0.091
_refine_ls_wR_factor_gt 0.091
_symmetry_cell_setting cubic
_symmetry_space_group_name_H-M 'I 2 3'
_symmetry_Int_Tables_number 197
loop_
_symmetry_equiv_pos_site_id
_symmetry_equiv_pos_as_xyz
1 x,y,z
2 z,x,y
3 y,z,x
4 -y,-z,x
5 z,-x,-y
6 -y,z,-x
7 -z,-x,y
8 -z,x,-y
9 y,-z,-x
10 -x,-y,z
11 x,-y,-z
12 -x,y,-z
13 1/2+x,1/2+y,1/2+z
14 1/2+z,1/2+x,1/2+y
15 1/2+y,1/2+z,1/2+x
16 1/2-y,1/2-z,1/2+x
17 1/2+z,1/2-x,1/2-y
18 1/2-y,1/2+z,1/2-x
19 1/2-z,1/2-x,1/2+y
20 1/2-z,1/2+x,1/2-y
21 1/2+y,1/2-z,1/2-x
22 1/2-x,1/2-y,1/2+z
23 1/2+x,1/2-y,1/2-z
24 1/2-x,1/2+y,1/2-z
_cell_length_a 23.3836(17)
_cell_length_b 23.3836(17)
_cell_length_c 23.3836(17)
_cell_angle_alpha 90
_cell_angle_beta 90
_cell_angle_gamma 90
_cell_formula_units_Z 4
loop_
_atom_type_symbol
_atom_type_radius_bond
C 0.68
H 0.23
O 0.68
Zn 1.22
loop_
_atom_site_label
_atom_site_type_symbol
_atom_site_fract_x
_atom_site_fract_y
_atom_site_fract_z
Zn1 Zn 0.50000 1.00000 0.93624(4)
Zn2 Zn 0.32086(6) 0.73722(5) 1.20690(4)
O1 O 0.4377(3) 0.9441(2) 0.9531(2)
O2 O 0.4438(3) 0.9341(2) 1.0476(2)
C1 C 0.3786(3) 0.8770(4) 0.9972(3)
O3 O 0.3336(4) 0.7854(3) 1.1428(3)
C2 C 0.3537(4) 0.8600(4) 0.9459(4)
H1 H 0.36600 0.87680 0.91100
O4 O 0.3046(4) 0.8302(3) 0.8431(2)
C3 C 0.4213(4) 0.9221(3) 1.0001(5)
C4 C 0.3632(4) 0.8482(4) 1.0480(3)
H2 H 0.38080 0.85790 1.08330
O5 O 0.2576(2) 0.7578(3) 0.8859(3)
C5 C 0.3209(4) 0.8043(4) 1.0454(4)
C6 C 0.2942(4) 0.7902(4) 0.9949(4)
H3 H 0.26530 0.76170 0.99370
C7 C 0.3111(3) 0.8191(4) 0.9453(4)
O6 O 0.2685(6) 0.7357(6) 1.0994(4)
C8 C 0.3031(7) 0.7787(7) 1.1005(5)
O7 O 0.50000 1.00000 0.8542(3)
C9 C 0.2885(3) 0.8015(3) 0.8864(3)
O8 O 0.2499(3) 0.7501(3) 1.2499(3)
Zn1C Zn 0.00000 1.06376 1.50000(4)
Zn2C Zn 0.26278(6) 0.79310(5) 1.32086(4)
O1C O 0.0559(3) 1.0469(2) 1.4377(2)
O2C O 0.0659(3) 0.9524(2) 1.4438(2)
C1C C 0.1230(3) 1.0028(4) 1.3786(3)
O3C O 0.2146(4) 0.8572(3) 1.3336(3)
C2C C 0.1400(4) 1.0541(4) 1.3537(4)
H1C H 0.12320 1.08900 1.36600
O4C O 0.1698(4) 1.1569(3) 1.3046(2)
C3C C 0.0779(4) 0.9999(3) 1.4213(5)
C4C C 0.1518(4) 0.9520(4) 1.3632(3)
H2C H 0.14210 0.91670 1.38080
O5C O 0.2422(2) 1.1141(3) 1.2576(3)
C5C C 0.1957(4) 0.9546(4) 1.3209(4)
C6C C 0.2098(4) 1.0051(4) 1.2942(4)
H3C H 0.23830 1.00630 1.26530
C7C C 0.1809(3) 1.0547(4) 1.3111(4)
O6C O 0.2643(6) 0.9006(6) 1.2685(4)
C8C C 0.2213(7) 0.8995(7) 1.3031(5)
O7C O 0.00000 1.14580 1.5000(3)
C9C C 0.1985(3) 1.1136(3) 1.2885(3)
Zn2D Zn 0.20690(6) 0.67914(5) 1.26278(4)
O1D O -0.0469(3) 0.5623(2) 1.0559(2)
O2D O 0.0476(3) 0.5562(2) 1.0659(2)
C1D C -0.0028(3) 0.6214(4) 1.1230(3)
O3D O 0.1428(4) 0.6664(3) 1.2146(3)
C2D C -0.0541(4) 0.6463(4) 1.1400(4)
H1D H -0.08900 0.63400 1.12320
O4D O -0.1569(4) 0.6954(3) 1.1698(2)
C3D C 0.0001(4) 0.5787(3) 1.0779(5)
C4D C 0.0480(4) 0.6368(4) 1.1518(3)
H2D H 0.08330 0.61920 1.14210
O5D O -0.1141(2) 0.7424(3) 1.2422(3)
C5D C 0.0454(4) 0.6791(4) 1.1957(4)
C6D C -0.0051(4) 0.7058(4) 1.2098(4)
H3D H -0.00630 0.73470 1.23830
C7D C -0.0547(3) 0.6889(4) 1.1809(4)
O6D O 0.0994(6) 0.7315(6) 1.2643(4)
C8D C 0.1005(7) 0.6969(7) 1.2213(5)
C9D C -0.1136(3) 0.7115(3) 1.1985(3)
Zn1J Zn 0.50000 1.00000 1.06376(4)
Zn2J Zn 0.32086(6) 1.26278(5) 0.79310(4)
O1J O 0.4377(3) 1.0559(2) 1.0469(2)
O2J O 0.4438(3) 1.0659(2) 0.9524(2)
C1J C 0.3786(3) 1.1230(4) 1.0028(3)
O3J O 0.3336(4) 1.2146(3) 0.8572(3)
C2J C 0.3537(4) 1.1400(4) 1.0541(4)
H1J H 0.36600 1.12320 1.08900
O4J O 0.3046(4) 1.1698(3) 1.1569(2)
C3J C 0.4213(4) 1.0779(3) 0.9999(5)
C4J C 0.3632(4) 1.1518(4) 0.9520(3)
H2J H 0.38080 1.14210 0.91670
O5J O 0.2576(2) 1.2422(3) 1.1141(3)
C5J C 0.3209(4) 1.1957(4) 0.9546(4)
C6J C 0.2942(4) 1.2098(4) 1.0051(4)
H3J H 0.26530 1.23830 1.00630
C7J C 0.3111(3) 1.1809(4) 1.0547(4)
O6J O 0.2685(6) 1.2643(6) 0.9006(4)
C8J C 0.3031(7) 1.2213(7) 0.8995(5)
O7J O 0.50000 1.00000 1.1458(3)
C9J C 0.2885(3) 1.1985(3) 1.1136(3)
Zn2I Zn 0.67914(6) 1.26278(5) 1.20690(4)
O1I O 0.5623(3) 1.0559(2) 0.9531(2)
O2I O 0.5562(3) 1.0659(2) 1.0476(2)
C1I C 0.6214(3) 1.1230(4) 0.9972(3)
O3I O 0.6664(4) 1.2146(3) 1.1428(3)
C2I C 0.6463(4) 1.1400(4) 0.9459(4)
H1I H 0.63400 1.12320 0.91100
O4I O 0.6954(4) 1.1698(3) 0.8431(2)
C3I C 0.5787(4) 1.0779(3) 1.0001(5)
C4I C 0.6368(4) 1.1518(4) 1.0480(3)
H2I H 0.61920 1.14210 1.08330
O5I O 0.7424(2) 1.2422(3) 0.8859(3)
C5I C 0.6791(4) 1.1957(4) 1.0454(4)
C6I C 0.7058(4) 1.2098(4) 0.9949(4)
H3I H 0.73470 1.23830 0.99370
C7I C 0.6889(3) 1.1809(4) 0.9453(4)
O6I O 0.7315(6) 1.2643(6) 1.0994(4)
C8I C 0.6969(7) 1.2213(7) 1.1005(5)
C9I C 0.7115(3) 1.1985(3) 0.8864(3)
O8B O 0.7501(3) 1.2499(3) 1.2499(3)
Zn2K Zn 0.67914(6) 0.73722(5) 0.79310(4)
O1K O 0.5623(3) 0.9441(2) 1.0469(2)
O2K O 0.5562(3) 0.9341(2) 0.9524(2)
C1K C 0.6214(3) 0.8770(4) 1.0028(3)
O3K O 0.6664(4) 0.7854(3) 0.8572(3)
C2K C 0.6463(4) 0.8600(4) 1.0541(4)
H1K H 0.63400 0.87680 1.08900
O4K O 0.6954(4) 0.8302(3) 1.1569(2)
C3K C 0.5787(4) 0.9221(3) 0.9999(5)
C4K C 0.6368(4) 0.8482(4) 0.9520(3)
H2K H 0.61920 0.85790 0.91670
O5K O 0.7424(2) 0.7578(3) 1.1141(3)
C5K C 0.6791(4) 0.8043(4) 0.9546(4)
C6K C 0.7058(4) 0.7902(4) 1.0051(4)
H3K H 0.73470 0.76170 1.00630
C7K C 0.6889(3) 0.8191(4) 1.0547(4)
O6K O 0.7315(6) 0.7357(6) 0.9006(4)
C8K C 0.6969(7) 0.7787(7) 0.8995(5)
C9K C 0.7115(3) 0.8015(3) 1.1136(3)
Zn1A Zn -0.06376 0.50000 1.00000(4)
Zn1B Zn 0.00000 0.93624 1.50000(4)
Zn1F Zn 0.06376 0.50000 1.00000(4)
Zn2B Zn 0.73722(6) 1.20690(5) 1.32086(4)
Zn2G Zn 0.79310(6) 1.32086(5) 1.26278(4)
Zn2M Zn 0.70690(6) 0.82086(5) 1.23722(4)
Zn2N Zn 0.23722(6) 0.70690(5) 0.82086(4)
Zn2O Zn 0.76278(6) 1.29310(5) 0.82086(4)
Zn2P Zn 0.70690(6) 1.17914(5) 0.76278(4)
Zn2Q Zn -0.23722(6) 0.70690(5) 1.17914(4)
Zn2Q* Zn 0.76278(6) 0.70690(5) 1.17914(4)
Zn2R Zn 0.29310(6) 1.17914(5) 1.23722(4)
Zn2S Zn 0.29310(6) 0.82086(5) 0.76278(4)
Zn2T Zn 0.23722(6) 1.29310(5) 1.17914(4)
Zn2V Zn -0.17914(6) 0.76278(5) 1.29310(4)
Zn2W Zn 0.17914(6) 1.23722(5) 1.29310(4)
O1H O -0.0559(3) 1.0469(2) 1.5623(2)
O2B O -0.0659(3) 1.0476(2) 1.4438(2)
O2E O 0.0659(3) 1.0476(2) 1.5562(2)
O4M O 0.3431(4) 0.8046(3) 1.3302(2)
O4N O 0.3302(4) 1.3431(3) 0.8046(2)
O4O O 0.6698(4) 0.6569(3) 0.8046(2)
O4Q O 0.6698(4) 1.3431(3) 1.1954(2)
O4T O 0.3302(4) 0.6569(3) 1.1954(2)
O4U O 0.1954(4) 0.6698(3) 1.3431(2)
O5M O 0.3859(2) 0.7576(3) 1.2578(3)
O5P O 0.3859(2) 1.2424(3) 0.7422(3)
O5R O 0.6141(2) 1.2424(3) 1.2578(3)
O5S O 0.6141(2) 0.7576(3) 0.7422(3)
O5T O 0.2578(2) 0.6141(3) 1.2424(3)
O5U O 0.2424(2) 0.7422(3) 1.3859(3)
O8A O 0.2499(3) 1.2499(3) 0.7501(3)
O8F O 0.7501(3) 0.7501(3) 0.7501(3)
#END
