
#######################################################################
#
#                 Cambridge Crystallographic Data Centre
#                                CCDC
#
#######################################################################
#
# If this CIF has been generated from an entry in the Cambridge
# Structural Database, then it will include bibliographic, chemical,
# crystal, experimental, refinement or atomic coordinate data resulting
# from the CCDC's data processing and validation procedures.
#
#######################################################################

data_CSD_CIF_XATRES
_audit_creation_date 2017-03-02
_audit_creation_method CSD-ConQuest-V1
_database_code_CSD XATRES
_database_code_depnum_ccdc_archive 'CCDC 1525942'
_chemical_formula_sum 'C96 H114 Ga35 N18 S56'
_chemical_formula_moiety
;
(C76 H90 Ga35 N14 S56 4-)n,4n(C5 H6 N1 1+)
;
_journal_coden_Cambridge 222
_journal_volume 46
_journal_year 2017
_journal_page_first 3816
_journal_name_full 'Dalton Trans. '
loop_
_publ_author_name
"P.Vaqueiro"
"S.Makin"
"Y.Tong"
"S.J.Ewing"
_chemical_name_systematic
;
catena-[tetrakis(pyridinium) 
tetrakis(\m-4,4'-(ethane-1,2-diyl)dipyridine)-hexapentacontakis(\m-sulfido)-bi
s(ethylamine)-tetrakis(4-methylpyridine)-pentatriaconta-gallium]
;
_cell_volume  49482.704
_exptl_crystal_colour 'yellow'
_exptl_crystal_density_diffrn 1.544
_exptl_crystal_description 'cube'
_exptl_crystal_preparation 'Solvothermal synthesis'
_diffrn_ambient_temperature 100
_refine_special_details
;
Disordered pyridinium cations were not modelled and the disordered density 
was taken into account using the SQUEEZE/PLATON procedure.
;
#These two values have been output from a single CSD field.
_refine_ls_R_factor_gt 0.0709
_refine_ls_wR_factor_gt 0.0709
_symmetry_cell_setting tetragonal
_symmetry_space_group_name_H-M 'I 41/a'
_symmetry_Int_Tables_number 88
loop_
_symmetry_equiv_pos_site_id
_symmetry_equiv_pos_as_xyz
1 x,y,z
2 1/2+x,1/2+y,1/2+z
3 1/2-x,-y,1/2+z
4 -x,1/2-y,z
5 3/4-y,1/4+x,1/4+z
6 1/4-y,3/4+x,3/4+z
7 3/4+y,3/4-x,3/4+z
8 1/4+y,1/4-x,1/4+z
9 -x,-y,-z
10 -1/2-x,-1/2-y,-1/2-z
11 -1/2+x,y,-1/2-z
12 x,-1/2+y,-z
13 -3/4+y,-1/4-x,-1/4-z
14 -1/4+y,-3/4-x,-3/4-z
15 -3/4-y,-3/4+x,-3/4-z
16 -1/4-y,-1/4+x,-1/4-z
_cell_length_a 24.003(3)
_cell_length_b 24.003(3)
_cell_length_c 85.886(13)
_cell_angle_alpha 90
_cell_angle_beta 90
_cell_angle_gamma 90
_cell_formula_units_Z 8
loop_
_atom_type_symbol
_atom_type_radius_bond
C 0.68
H 0.23
Ga 1.22
N 0.68
S 1.02
loop_
_atom_site_label
_atom_site_type_symbol
_atom_site_fract_x
_atom_site_fract_y
_atom_site_fract_z
Ga1 Ga -0.50000 0.25000 0.405893(19)
Ga2 Ga -0.44646(5) 0.15178(5) 0.375125(15)
Ga3 Ga -0.36197(6) 0.21195(6) 0.402874(17)
Ga4 Ga 0.08424(4) 0.09883(5) 0.483354(14)
Ga5 Ga 0.21665(4) 0.15832(5) 0.482998(14)
Ga6 Ga 0.16330(4) 0.06510(4) 0.515184(13)
Ga7 Ga 0.18909(5) 0.00795(5) 0.474063(14)
Ga8 Ga 0.35272(5) 0.19985(6) 0.484831(17)
Ga9 Ga 0.31269(5) 0.11814(5) 0.516248(14)
Ga10 Ga 0.33752(5) 0.06004(6) 0.475985(15)
Ga11 Ga 0.25820(5) 0.02671(5) 0.543391(14)
Ga12 Ga 0.28371(5) -0.03374(5) 0.507692(14)
Ga13 Ga 0.30349(6) -0.07822(6) 0.469401(16)
Ga14 Ga 0.35686(8) 0.75805(8) 0.340499(18)
Ga15 Ga 0.41703(8) 0.67618(8) 0.369139(19)
Ga16 Ga 0.50000 0.75000 0.39984(3)
Ga17 Ga 0.50000 0.75000 0.33764(2)
Ga18 Ga 0.42589(8) 0.83370(7) 0.368595(18)
S1 S -0.52253(11) 0.17420(12) 0.39061(3)
S2 S -0.46658(16) 0.07725(13) 0.36086(5)
S3 S -0.37290(13) 0.13210(14) 0.38979(4)
S4 S -0.42657(15) 0.23276(18) 0.42079(4)
S5 S 0.12872(11) 0.17722(11) 0.47621(4)
S6 S 0.07493(11) 0.08467(11) 0.50911(3)
S7 S 0.10000(12) 0.02381(12) 0.46852(3)
S8 S 0.21689(14) -0.06565(14) 0.46008(4)
S9 S 0.19325(10) -0.0115(1) 0.50074(3)
S10 S 0.16697(11) 0.04343(12) 0.54034(3)
S11 S 0.24667(11) 0.08224(12) 0.46859(3)
S12 S 0.22081(10) 0.14001(10) 0.50945(3)
S13 S 0.26882(11) 0.23246(12) 0.47759(4)
S14 S 0.39091(12) 0.13285(15) 0.47010(4)
S15 S 0.36607(12) 0.19167(13) 0.51060(4)
S16 S 0.31516(12) 0.10025(12) 0.54179(3)
S17 S 0.34274(10) 0.04009(11) 0.50225(3)
S18 S 0.36763(14) -0.01464(15) 0.46284(4)
S19 S 0.30256(13) -0.11146(12) 0.49378(4)
S20 S 0.28985(12) -0.05304(12) 0.53298(3)
Ga19 Ga 0.49239(9) 0.60636(10) 0.39685(2)
S21 S 0.4979(2) 0.6741(2) 0.41477(5)
S22 S 0.5696(2) 0.5891(2) 0.38280(5)
S23 S 0.4123(2) 0.6002(2) 0.38394(6)
S24 S 0.42047(18) 0.75503(18) 0.38455(4)
S25 S 0.34036(19) 0.68162(17) 0.35462(5)
S26 S 0.50482(18) 0.82918(15) 0.35307(4)
S27 S 0.34991(19) 0.83830(17) 0.35366(4)
S28 S 0.42386(19) 0.75220(17) 0.32257(4)
N1 N 0.4001(5) 0.2624(5) 0.47828(12)
C1 C 0.3878(5) 0.3154(5) 0.48030(13)
C2 C 0.4105(5) 0.3640(5) 0.47483(13)
C3 C 0.4506(5) 0.3523(7) 0.46361(14)
C4 C 0.4717(9) 0.4062(9) 0.4557(2)
C5 C 0.4960(7) 0.3934(6) 0.44014(18)
C6 C 0.4945(5) 0.4448(6) 0.43003(17)
C7 C 0.4704(4) 0.4429(6) 0.41539(17)
C8 C 0.4714(4) 0.4904(7) 0.40630(18)
N2 N 0.4927(4) 0.5366(5) 0.41067(15)
N3 N 0.2859(6) 0.7613(6) 0.32814(17)
C9 C 0.2783(8) 0.7704(9) 0.31120(18)
C10 C 0.5175(5) 0.5406(8) 0.4254(2)
C11 C 0.5174(5) 0.4941(8) 0.4346(2)
C12 C 0.4705(6) 0.3010(7) 0.45851(17)
C13 C 0.4453(7) 0.2551(8) 0.46551(19)
N4 N 0.3272(5) -0.1471(5) 0.45702(13)
C14 C 0.3535(7) -0.1403(7) 0.4430(2)
C15 C 0.3628(8) -0.1848(8) 0.4333(2)
C16 C 0.3429(7) -0.2352(7) 0.4369(2)
C17 C 0.3198(7) -0.2418(7) 0.4513(2)
C18 C 0.3114(6) -0.1975(7) 0.46086(18)
C19 C 0.347(1) -0.2884(10) 0.4257(3)
N5 N 0.2606(4) 0.0085(3) 0.56643(12)
C20 C 0.2160(8) -0.0049(4) 0.5740(2)
C21 C 0.2146(9) -0.0173(4) 0.5901(3)
C22 C 0.2609(6) -0.0154(4) 0.59836(18)
C23 C 0.3095(10) -0.0007(5) 0.5910(3)
C24 C 0.3059(9) 0.0109(4) 0.5743(2)
C25 C 0.2617(10) -0.0286(10) 0.6158(3)
N6 N 0.0046(3) 0.1175(3) 0.47749(9)
C26 C -0.0087(5) 0.1672(5) 0.47143(13)
C27 C -0.0616(4) 0.1800(4) 0.46671(13)
C28 C -0.1036(4) 0.1409(4) 0.46813(12)
C29 C -0.1603(4) 0.1523(4) 0.46145(13)
C30 C -0.1584(7) 0.1383(7) 0.4444(2)
C31 C -0.2082(6) 0.1566(6) 0.43468(16)
C32 C -0.2592(5) 0.1656(5) 0.44148(15)
C33 C -0.3025(6) 0.1831(6) 0.43244(16)
N7 N -0.2970(4) 0.1913(4) 0.41649(12)
C34 C -0.2475(7) 0.1846(6) 0.41011(18)
C35 C -0.2017(7) 0.1681(7) 0.4189(2)
C36 C -0.0901(5) 0.0897(5) 0.47440(14)
C37 C -0.0362(5) 0.0788(5) 0.47898(13)
C38 C 0.2168(9) 0.7680(11) 0.3071(3)
H1 H 0.35670 0.32110 0.48690
H2 H 0.40040 0.40030 0.47820
H3 H 0.49940 0.42290 0.46210
H4 H 0.44140 0.43130 0.45450
H5 H 0.53350 0.38150 0.44140
H6 H 0.47500 0.36460 0.43530
H7 H 0.45340 0.40970 0.41170
H8 H 0.45530 0.48850 0.39620
H9 H 0.29300 0.80590 0.30850
H10 H 0.29790 0.74230 0.30560
H11 H 0.53380 0.57450 0.42880
H12 H 0.53420 0.49630 0.44460
H13 H 0.49890 0.29760 0.45090
H14 H 0.45600 0.21870 0.46240
H15 H 0.36560 -0.10420 0.43990
H16 H 0.38340 -0.17970 0.42400
H17 H 0.30930 -0.27800 0.45470
H18 H 0.29370 -0.20330 0.47060
H19 H 0.33020 -0.31950 0.43070
H20 H 0.38500 -0.29640 0.42360
H21 H 0.32820 -0.28080 0.41620
H22 H 0.18190 -0.00650 0.56840
H23 H 0.18040 -0.02690 0.59500
H24 H 0.34380 0.00180 0.59650
H25 H 0.33920 0.02070 0.56900
H26 H 0.29860 -0.02510 0.61960
H27 H 0.23800 -0.00330 0.62110
H28 H 0.24890 -0.06560 0.61740
H29 H 0.01960 0.19460 0.47040
H30 H -0.06950 0.21570 0.46250
H31 H -0.18730 0.12990 0.46650
H32 H -0.16940 0.19050 0.46280
H33 H -0.15520 0.09900 0.44350
H34 H -0.12610 0.15540 0.44010
H35 H -0.26420 0.15970 0.45230
H36 H -0.33760 0.18990 0.43720
H37 H -0.24300 0.19130 0.39930
H38 H -0.16620 0.16460 0.41410
H39 H -0.11800 0.06190 0.47560
H40 H -0.02750 0.04340 0.48330
H41 H 0.21260 0.77390 0.29620
H42 H 0.19750 0.79610 0.31260
H43 H 0.20240 0.73250 0.30970
H44 H 0.26500 0.79030 0.33290
H45 H 0.26830 0.72650 0.33010
N8 N 0.1652(4) 0.3483(4) 0.51015(12)
C39 C 0.1709(5) 0.2939(5) 0.50908(14)
C40 C 0.1253(6) 0.2606(6) 0.51026(17)
C41 C 0.0745(6) 0.2841(6) 0.51248(18)
C42 C 0.0681(5) 0.3418(5) 0.51447(14)
C43 C 0.1157(5) 0.3730(5) 0.51311(14)
H46 H 0.20670 0.27810 0.50750
H47 H 0.12900 0.22130 0.50950
H48 H 0.04240 0.26090 0.51270
H49 H 0.03300 0.35820 0.51660
H50 H 0.11390 0.41240 0.51430
C44 C 0.2614(7) 0.3967(6) 0.3474(2)
N9 N 0.3135(7) 0.3813(6) 0.3436(2)
C45 C 0.2247(9) 0.4314(6) 0.3393(2)
C46 C 0.2440(9) 0.4523(7) 0.3255(3)
C47 C 0.2977(9) 0.4354(6) 0.3218(2)
C48 C 0.3340(9) 0.4016(6) 0.3299(2)
H51 H 0.24750 0.38190 0.35690
H52 H 0.18860 0.43990 0.34310
H53 H 0.22260 0.47620 0.31900
H54 H 0.31150 0.44930 0.31220
H55 H 0.37040 0.39320 0.32620
Ga2C Ga -0.55354(5) 0.34822(5) 0.375125(15)
Ga3C Ga -0.63803(6) 0.28805(6) 0.402874(17)
Ga4C Ga -1.08424(4) 0.40117(5) 0.483354(14)
Ga5C Ga -1.21665(4) 0.34168(5) 0.482998(14)
Ga6C Ga -1.16330(4) 0.43490(4) 0.515184(13)
Ga7C Ga -1.18909(5) 0.49205(5) 0.474063(14)
Ga8C Ga -1.35272(5) 0.30015(6) 0.484831(17)
Ga9C Ga -1.31269(5) 0.38186(5) 0.516248(14)
Ga10C Ga -1.33752(5) 0.43996(6) 0.475985(15)
Ga11C Ga -1.25820(5) 0.47329(5) 0.543391(14)
Ga12C Ga -1.28371(5) 0.53374(5) 0.507692(14)
Ga13C Ga -1.30349(6) 0.57822(6) 0.469401(16)
Ga14C Ga -1.35686(8) -0.25805(8) 0.340499(18)
Ga15C Ga -1.41703(8) -0.17618(8) 0.369139(19)
Ga18C Ga -1.42589(8) -0.33370(7) 0.368595(18)
S1C S -0.47747(11) 0.32580(12) 0.39061(3)
S2C S -0.53342(16) 0.42275(13) 0.36086(5)
S3C S -0.62710(13) 0.36790(14) 0.38979(4)
S4C S -0.57343(15) 0.26724(18) 0.42079(4)
S5C S -1.12872(11) 0.32278(11) 0.47621(4)
S6C S -1.07493(11) 0.41533(11) 0.50911(3)
S7C S -1.10000(12) 0.47619(12) 0.46852(3)
S8C S -1.21689(14) 0.56565(14) 0.46008(4)
S9C S -1.19325(10) 0.5115(1) 0.50074(3)
S10C S -1.16697(11) 0.45657(12) 0.54034(3)
S11C S -1.24667(11) 0.41776(12) 0.46859(3)
S12C S -1.22081(10) 0.35999(10) 0.50945(3)
S13C S -1.26882(11) 0.26754(12) 0.47759(4)
S14C S -1.39091(12) 0.36715(15) 0.47010(4)
S15C S -1.36607(12) 0.30833(13) 0.51060(4)
S16C S -1.31516(12) 0.39975(12) 0.54179(3)
S17C S -1.34274(10) 0.45991(11) 0.50225(3)
S18C S -1.36763(14) 0.51464(15) 0.46284(4)
S19C S -1.30256(13) 0.61146(12) 0.49378(4)
S20C S -1.28985(12) 0.55304(12) 0.53298(3)
Ga19C Ga -1.49239(9) -0.10636(10) 0.39685(2)
S21C S -1.4979(2) -0.1741(2) 0.41477(5)
S22C S -1.5696(2) -0.0891(2) 0.38280(5)
S23C S -1.4123(2) -0.1002(2) 0.38394(6)
S24C S -1.42047(18) -0.25503(18) 0.38455(4)
S25C S -1.34036(19) -0.18162(17) 0.35462(5)
S26C S -1.50482(18) -0.32918(15) 0.35307(4)
S27C S -1.34991(19) -0.33830(17) 0.35366(4)
S28C S -1.42386(19) -0.25220(17) 0.32257(4)
N1C N -1.4001(5) 0.2376(5) 0.47828(12)
C1C C -1.3878(5) 0.1846(5) 0.48030(13)
C2C C -1.4105(5) 0.1360(5) 0.47483(13)
C3C C -1.4506(5) 0.1477(7) 0.46361(14)
C4C C -1.4717(9) 0.0938(9) 0.4557(2)
C5C C -1.4960(7) 0.1066(6) 0.44014(18)
C6C C -1.4945(5) 0.0552(6) 0.43003(17)
C7C C -1.4704(4) 0.0571(6) 0.41539(17)
C8C C -1.4714(4) 0.0096(7) 0.40630(18)
N2C N -1.4927(4) -0.0366(5) 0.41067(15)
N3C N -1.2859(6) -0.2613(6) 0.32814(17)
C9C C -1.2783(8) -0.2704(9) 0.31120(18)
C10C C -1.5175(5) -0.0406(8) 0.4254(2)
C11C C -1.5174(5) 0.0059(8) 0.4346(2)
C12C C -1.4705(6) 0.1990(7) 0.45851(17)
C13C C -1.4453(7) 0.2449(8) 0.46551(19)
N4C N -1.3272(5) 0.6471(5) 0.45702(13)
C14C C -1.3535(7) 0.6403(7) 0.4430(2)
C15C C -1.3628(8) 0.6848(8) 0.4333(2)
C16C C -1.3429(7) 0.7352(7) 0.4369(2)
C17C C -1.3198(7) 0.7418(7) 0.4513(2)
C18C C -1.3114(6) 0.6975(7) 0.46086(18)
C19C C -1.347(1) 0.7884(10) 0.4257(3)
N5C N -1.2606(4) 0.4915(3) 0.56643(12)
C20C C -1.2160(8) 0.5049(4) 0.5740(2)
C21C C -1.2146(9) 0.5173(4) 0.5901(3)
C22C C -1.2609(6) 0.5154(4) 0.59836(18)
C23C C -1.3095(10) 0.5007(5) 0.5910(3)
C24C C -1.3059(9) 0.4891(4) 0.5743(2)
C25C C -1.2617(10) 0.5286(10) 0.6158(3)
N6C N -1.0046(3) 0.3825(3) 0.47749(9)
C26C C -0.9913(5) 0.3328(5) 0.47143(13)
C27C C -0.9384(4) 0.3200(4) 0.46671(13)
C28C C -0.8964(4) 0.3591(4) 0.46813(12)
C29C C -0.8397(4) 0.3477(4) 0.46145(13)
C30C C -0.8416(7) 0.3617(7) 0.4444(2)
C31C C -0.7918(6) 0.3434(6) 0.43468(16)
C32C C -0.7408(5) 0.3344(5) 0.44148(15)
C33C C -0.6975(6) 0.3169(6) 0.43244(16)
N7C N -0.7030(4) 0.3087(4) 0.41649(12)
C34C C -0.7525(7) 0.3154(6) 0.41011(18)
C35C C -0.7983(7) 0.3319(7) 0.4189(2)
C36C C -0.9099(5) 0.4103(5) 0.47440(14)
C37C C -0.9638(5) 0.4212(5) 0.47898(13)
C38C C -1.2168(9) -0.2680(11) 0.3071(3)
H1C H -1.35670 0.17890 0.48690
H2C H -1.40040 0.09970 0.47820
H3C H -1.49940 0.07710 0.46210
H4C H -1.44140 0.06870 0.45450
H5C H -1.53350 0.11850 0.44140
H6C H -1.47500 0.13540 0.43530
H7C H -1.45340 0.09030 0.41170
H8C H -1.45530 0.01150 0.39620
H9C H -1.29300 -0.30590 0.30850
H10C H -1.29790 -0.24230 0.30560
H11C H -1.53380 -0.07450 0.42880
H12C H -1.53420 0.00370 0.44460
H13C H -1.49890 0.20240 0.45090
H14C H -1.45600 0.28130 0.46240
H15C H -1.36560 0.60420 0.43990
H16C H -1.38340 0.67970 0.42400
H17C H -1.30930 0.77800 0.45470
H18C H -1.29370 0.70330 0.47060
H19C H -1.33020 0.81950 0.43070
H20C H -1.38500 0.79640 0.42360
H21C H -1.32820 0.78080 0.41620
H22C H -1.18190 0.50650 0.56840
H23C H -1.18040 0.52690 0.59500
H24C H -1.34380 0.49820 0.59650
H25C H -1.33920 0.47930 0.56900
H26C H -1.29860 0.52510 0.61960
H27C H -1.23800 0.50330 0.62110
H28C H -1.24890 0.56560 0.61740
H29C H -1.01960 0.30540 0.47040
H30C H -0.93050 0.28430 0.46250
H31C H -0.81270 0.37010 0.46650
H32C H -0.83060 0.30950 0.46280
H33C H -0.84480 0.40100 0.44350
H34C H -0.87390 0.34460 0.44010
H35C H -0.73580 0.34030 0.45230
H36C H -0.66240 0.31010 0.43720
H37C H -0.75700 0.30870 0.39930
H38C H -0.83380 0.33540 0.41410
H39C H -0.88200 0.43810 0.47560
H40C H -0.97250 0.45660 0.48330
H41C H -1.21260 -0.27390 0.29620
H42C H -1.19750 -0.29610 0.31260
H43C H -1.20240 -0.23250 0.30970
H44C H -1.26500 -0.29030 0.33290
H45C H -1.26830 -0.22650 0.33010
Ga2L Ga -0.59822(5) 0.19646(5) 0.374875(15)
Ga2O Ga -0.40178(5) 0.30354(5) 0.374875(15)
Ga3L Ga -0.53805(6) 0.11197(6) 0.347126(17)
Ga3O Ga -0.46195(6) 0.38803(6) 0.347126(17)
Ga15* Ga -1.58297(8) -0.32382(8) 0.369139(19)
Ga15C* Ga 0.58297(8) 0.82382(8) 0.369139(19)
Ga16* Ga -1.50000 -0.25000 0.39984(3)
Ga17* Ga -1.50000 -0.25000 0.33764(2)
Ga18* Ga -1.57411(8) -0.16630(7) 0.368595(18)
Ga18C* Ga 0.57411(8) 0.66630(7) 0.368595(18)
S1L S -0.57580(11) 0.27253(12) 0.35939(3)
S1O S -0.42420(11) 0.22747(12) 0.35939(3)
S2L S -0.67275(16) 0.21658(13) 0.38914(5)
S2O S -0.32725(16) 0.28342(13) 0.38914(5)
S21C* S 0.5021(2) 0.8259(2) 0.41477(5)
S22* S -1.4304(2) -0.4109(2) 0.38280(5)
S22C* S 0.4304(2) 0.9109(2) 0.38280(5)
S24C* S 0.57953(18) 0.74497(18) 0.38455(4)
S26* S -1.49518(18) -0.17082(15) 0.35307(4)
S26C* S 0.49518(18) 0.67082(15) 0.35307(4)
S28C* S 0.57614(19) 0.74780(17) 0.32257(4)
#END
