
#######################################################################
#
#                 Cambridge Crystallographic Data Centre
#                                CCDC
#
#######################################################################
#
# If this CIF has been generated from an entry in the Cambridge
# Structural Database, then it will include bibliographic, chemical,
# crystal, experimental, refinement or atomic coordinate data resulting
# from the CCDC's data processing and validation procedures.
#
#######################################################################

data_CSD_CIF_XAVVAU
_audit_creation_date 2017-03-05
_audit_creation_method CSD-ConQuest-V1
_database_code_CSD XAVVAU
_database_code_depnum_ccdc_archive 'CCDC 1505764'
_chemical_formula_sum 'C16 H12 Cs2 O24 U3'
_chemical_formula_moiety
;
(C16 H8 O22 U3 2-)n,2(Cs1 1+),2(H2 O1)
;
_journal_coden_Cambridge 580
_journal_volume 127
_journal_year 2017
_journal_page_first 331
_journal_name_full 'Polyhedron '
loop_
_publ_author_name
"A.V.Savchenkov"
"M.S.Grigoriev"
"P.A.Udivankin"
"D.V.Pushkin"
"L.B.Serezhkina"
_chemical_name_systematic
;
catena-[di-cesium tetrakis(\m-maleato)-hexaoxo-tri-uranium dihydrate]
;
_cell_volume   1415.439
_exptl_crystal_colour 'yellow'
_exptl_crystal_density_diffrn 3.679
_exptl_crystal_description 'needle'
_diffrn_ambient_temperature 100
_refine_special_details
;
The structure is disordered.

;
#These two values have been output from a single CSD field.
_refine_ls_R_factor_gt 0.0339
_refine_ls_wR_factor_gt 0.0339
_symmetry_cell_setting triclinic
_symmetry_space_group_name_H-M 'P -1'
_symmetry_Int_Tables_number 2
loop_
_symmetry_equiv_pos_site_id
_symmetry_equiv_pos_as_xyz
1 x,y,z
2 -x,-y,-z
_cell_length_a 6.8275(2)
_cell_length_b 14.5728(4)
_cell_length_c 16.2015(4)
_cell_angle_alpha 63.753(1)
_cell_angle_beta 78.631(1)
_cell_angle_gamma 82.326(1)
_cell_formula_units_Z 2
loop_
_atom_type_symbol
_atom_type_radius_bond
C 0.68
H 0.23
Cs 2.44
O 0.68
U 1.96
loop_
_atom_site_label
_atom_site_type_symbol
_atom_site_fract_x
_atom_site_fract_y
_atom_site_fract_z
U1 U 0.23189(4) 0.74524(2) 0.25747(2)
U2 U -0.62122(4) 0.75711(2) 0.57800(2)
U3 U 1.12787(4) 0.74733(2) -0.06560(2)
O1 O 0.2243(8) 0.6554(4) 0.3760(4)
O2 O 0.2363(8) 0.8369(5) 0.1402(4)
O3 O -0.6041(8) 0.6259(4) 0.6017(4)
O4 O -0.6376(8) 0.8885(4) 0.5536(4)
O5 O 1.1407(7) 0.6169(4) -0.0438(4)
O6 O 1.1092(7) 0.8781(4) -0.0860(3)
O7 O -0.1088(8) 0.8034(5) 0.2994(4)
O8 O 0.1185(8) 0.9027(4) 0.2877(4)
O9 O -0.5516(7) 0.7856(4) 0.4220(3)
O10 O -0.5148(7) 0.8368(4) 0.2695(4)
O11 O 0.3480(8) 0.5869(4) 0.2288(4)
O12 O 0.5751(7) 0.6922(4) 0.2077(4)
O13 O 1.0421(7) 0.7070(4) 0.0924(3)
O14 O 0.9763(7) 0.6507(4) 0.2457(3)
O15 O -0.9367(7) 0.7697(5) 0.5267(4)
O16 O -1.2623(7) 0.7662(4) 0.5328(3)
O17 O -0.8870(8) 0.7343(4) 0.7025(4)
O18 O -1.0247(7) 0.8041(4) 0.7986(3)
O19 O 1.4396(7) 0.7302(4) -0.0102(4)
O20 O 1.7643(7) 0.7438(4) -0.0252(3)
O21 O 1.3953(7) 0.7715(4) -0.1894(3)
O22 O 1.5356(7) 0.7037(4) -0.2877(3)
C1 C -0.0632(11) 0.8856(6) 0.2989(5)
C2 C -0.2193(11) 0.9624(6) 0.3079(5)
H1 H -0.18010 1.02570 0.30150
C3 C -0.4119(11) 0.9461(6) 0.3245(5)
H2 H -0.50440 0.99990 0.32720
C4 C -0.4946(10) 0.8491(6) 0.3395(5)
C5 C 0.5319(11) 0.6097(6) 0.2106(5)
C6 C 0.6866(11) 0.5367(6) 0.1932(5)
H3 H 0.64640 0.47670 0.19340
C7 C 0.8792(11) 0.5521(6) 0.1774(5)
H4 H 0.96960 0.50060 0.16850
C8 C 0.9686(10) 0.6433(6) 0.1723(5)
C9 C -1.1149(10) 0.8018(6) 0.5446(5)
C10 C -1.1587(11) 0.8869(6) 0.5745(5)
H5 H -1.23070 0.94650 0.53700
C11 C -1.1047(11) 0.8856(6) 0.6496(5)
H6 H -1.14080 0.94570 0.65930
C12 C -0.9947(10) 0.8019(6) 0.7205(5)
C13 C 1.6183(10) 0.7042(6) -0.0319(5)
C14 C 1.6649(10) 0.6211(6) -0.0628(5)
H7 H 1.73600 0.56170 -0.02450
C15 C 1.6177(10) 0.6205(6) -0.1390(5)
H8 H 1.65710 0.56080 -0.14900
C16 C 1.5096(10) 0.7047(6) -0.2089(5)
Cs1 Cs 0.75196(7) 0.91044(4) 0.08183(3)
Cs2 Cs 0.69549(14) 0.57351(8) 0.43709(6)
O23 O 0.3952(8) 1.0450(4) 0.1063(3)
O24 O 1.06237(15) 0.44005(8) 0.41072(7)
Cs3? Cs 1.06237(15) 0.44005(8) 0.41072(7)
O25? O 0.69549(14) 0.57351(8) 0.43709(6)
U1* U -0.76811(4) 0.74524(2) 0.25747(2)
U1** U 1.23189(4) 0.74524(2) 0.25747(2)
U2* U -1.62122(4) 0.75711(2) 0.57800(2)
U2** U 1.37878(4) 0.75711(2) -0.42200(2)
U3* U -0.87213(4) 0.74733(2) 0.93440(2)
U3** U 2.12787(4) 0.74733(2) -0.06560(2)
O10* O 0.4852(7) 0.8368(4) 0.2695(4)
O14* O -0.0237(7) 0.6507(4) 0.2457(3)
O16* O -0.2623(7) 0.7662(4) 0.5328(3)
O18* O 0.9753(7) 0.8041(4) -0.2014(3)
O20* O 0.7643(7) 0.7438(4) -0.0252(3)
O22* O -0.4644(7) 0.7037(4) 0.7123(3)
#END
