
#######################################################################
#
#                 Cambridge Crystallographic Data Centre
#                                CCDC
#
#######################################################################
#
# If this CIF has been generated from an entry in the Cambridge
# Structural Database, then it will include bibliographic, chemical,
# crystal, experimental, refinement or atomic coordinate data resulting
# from the CCDC's data processing and validation procedures.
#
#######################################################################

data_CSD_CIF_XAXBAB
_audit_creation_date 2012-09-25
_audit_creation_method CSD-ConQuest-V1
_database_code_CSD XAXBAB
_database_code_depnum_ccdc_archive 'CCDC 850689'
_chemical_formula_sum 'C4 H8 Mg1 N2 O6'
_chemical_formula_moiety
;
(C1 H5 N2 1+)n,n(C3 H3 Mg1 O6 1-)
;
_journal_coden_Cambridge 1350
_journal_volume 14
_journal_year 2012
_journal_page_first 4454
_journal_name_full 'CrystEngComm '
loop_
_publ_author_name
"A.Rossin"
"M.R.Chierotti"
"G.Giambastiani"
"R.Gobetto"
"M.Peruzzini"
_chemical_name_systematic
;
catena-[Formamidinium tris(\m~2~-formato)-magnesium(ii)]
;
_cell_volume    835.545
_exptl_crystal_colour 'colorless'
_exptl_crystal_density_diffrn 1.625
_exptl_special_details
;
Isostructural with the guanidinium analogue

;
_exptl_crystal_description 'prism'
_diffrn_ambient_temperature 120
#These two values have been output from a single CSD field.
_refine_ls_R_factor_gt 0.0293
_refine_ls_wR_factor_gt 0.0293
_symmetry_cell_setting orthorhombic
_symmetry_space_group_name_H-M 'P n n a'
_symmetry_Int_Tables_number 52
loop_
_symmetry_equiv_pos_site_id
_symmetry_equiv_pos_as_xyz
1 x,y,z
2 1/2-x,-y,z
3 x,1/2-y,1/2-z
4 1/2-x,1/2+y,1/2-z
5 -x,-y,-z
6 -1/2+x,y,-z
7 -x,-1/2+y,-1/2+z
8 -1/2+x,-1/2-y,-1/2+z
_cell_length_a 8.709(4)
_cell_length_b 11.587(5)
_cell_length_c 8.280(3)
_cell_angle_alpha 90
_cell_angle_beta 90
_cell_angle_gamma 90
_cell_formula_units_Z 4
loop_
_atom_type_symbol
_atom_type_radius_bond
C 0.68
H 0.23
Mg 1.41
N 0.68
O 0.68
loop_
_atom_site_label
_atom_site_type_symbol
_atom_site_fract_x
_atom_site_fract_y
_atom_site_fract_z
C1 C 0.25000 0.50000 0.18840(19)
H1 H 0.25000 0.50000 0.30310
C2 C -0.02971(13) 0.21972(9) 0.02571(13)
H2 H -0.08200 0.28040 0.08000
O1 O 0.24059(8) 0.40404(7) 0.11873(9)
O2 O 0.08746(9) 0.17983(7) 0.09078(9)
O3 O -0.08409(9) 0.18578(7) -0.10638(9)
Mg1 Mg 0.24103(5) 0.25000 0.25000
C3 C 0.75000 0.00000 0.2059(2)
H3 H 0.75000 0.00000 0.088(3)
N1 N 0.65035(13) 0.06509(9) 0.27941(13)
H4 H 0.6577(18) 0.0712(13) 0.385(2)
H5 H 0.5843(19) 0.1018(14) 0.2257(17)
C2E C 0.47029(13) 0.21972(9) -0.02571(13)
H2E H 0.41800 0.28040 -0.08000
O1A O 0.25941(8) 0.59596(7) 0.11873(9)
O1B O 0.24059(8) 0.09596(7) 0.38127(9)
O2E O 0.58746(9) 0.17983(7) -0.09078(9)
O2B O 0.08746(9) 0.32017(7) 0.40922(9)
O3E O 0.41591(9) 0.18578(7) 0.10638(9)
O3G O 0.41591(9) 0.31422(7) 0.39362(9)
Mg1E Mg -0.25897(5) 0.25000 -0.25000
Mg1A Mg 0.25897(5) 0.75000 0.25000
Mg1E* Mg 0.74103(5) 0.25000 -0.25000
N1A N 0.84965(13) -0.06509(9) 0.27941(13)
H4A H 0.8423(18) -0.0712(13) 0.385(2)
H5A H 0.9157(19) -0.1018(14) 0.2257(17)
#END
