
#######################################################################
#
#                 Cambridge Crystallographic Data Centre
#                                CCDC
#
#######################################################################
#
# If this CIF has been generated from an entry in the Cambridge
# Structural Database, then it will include bibliographic, chemical,
# crystal, experimental, refinement or atomic coordinate data resulting
# from the CCDC's data processing and validation procedures.
#
#######################################################################

data_CSD_CIF_XAXBEF
_audit_creation_date 2012-09-26
_audit_creation_method CSD-ConQuest-V1
_database_code_CSD XAXBEF
_database_code_depnum_ccdc_archive 'CCDC 850690'
_chemical_formula_sum 'C4 H9 Mg1 N3 O6'
_chemical_formula_moiety
;
(C1 H6 N3 1+)n,n(C3 H3 Mg1 O6 1-)
;
_journal_coden_Cambridge 1350
_journal_volume 14
_journal_year 2012
_journal_page_first 4454
_journal_name_full 'CrystEngComm '
loop_
_publ_author_name
"A.Rossin"
"M.R.Chierotti"
"G.Giambastiani"
"R.Gobetto"
"M.Peruzzini"
_chemical_name_systematic
;
catena-[Guanidinium tris(\m~2~-formato)-magnesium(ii)]
;
_cell_volume    877.780
_exptl_crystal_colour 'colorless'
_exptl_crystal_density_diffrn 1.661
_exptl_special_details
;
Isostructural with the formamidinium analogue

;
_exptl_crystal_description 'prism'
_diffrn_ambient_temperature 298
#These two values have been output from a single CSD field.
_refine_ls_R_factor_gt 0.1031
_refine_ls_wR_factor_gt 0.1031
_symmetry_cell_setting orthorhombic
_symmetry_space_group_name_H-M 'P n n a'
_symmetry_Int_Tables_number 52
loop_
_symmetry_equiv_pos_site_id
_symmetry_equiv_pos_as_xyz
1 x,y,z
2 1/2-x,-y,z
3 x,1/2-y,1/2-z
4 1/2-x,1/2+y,1/2-z
5 -x,-y,-z
6 -1/2+x,y,-z
7 -x,-1/2+y,-1/2+z
8 -1/2+x,-1/2-y,-1/2+z
_cell_length_a 8.391(2)
_cell_length_b 11.831(2)
_cell_length_c 8.842(1)
_cell_angle_alpha 90
_cell_angle_beta 90
_cell_angle_gamma 90
_cell_formula_units_Z 4
loop_
_atom_type_symbol
_atom_type_radius_bond
C 0.68
H 0.23
Mg 1.41
N 0.68
O 0.68
loop_
_atom_site_label
_atom_site_type_symbol
_atom_site_fract_x
_atom_site_fract_y
_atom_site_fract_z
C1 C 0.75000 0.00000 0.8000(6)
H1 H 0.75000 0.00000 0.69480
C2 C 0.5181(5) 0.2770(4) 1.0190(4)
H2 H 0.58080 0.22370 1.06830
C3 C 0.75000 0.50000 0.2436(6)
N1 N 0.8372(5) 0.4255(3) 0.3166(4)
H3 H 0.823(6) 0.426(4) 0.411(6)
H4 H 0.916(6) 0.376(4) 0.263(6)
N2 N 0.75000 0.50000 0.0941(5)
H5 H 0.801(7) 0.458(5) 0.053(7)
O1 O 0.7516(3) 0.0943(3) 0.8602(3)
O2 O 0.5608(4) 0.3048(2) 0.8894(3)
O3 O 0.4024(4) 0.3124(2) 1.0883(3)
Mg1 Mg 0.74743(18) 0.25000 0.75000
C2B C 0.5181(5) 0.2230(4) 0.4810(4)
H2B H 0.58080 0.27630 0.43170
N1A N 0.6628(5) 0.5745(3) 0.3166(4)
H3A H 0.677(6) 0.574(4) 0.411(6)
H4A H 0.584(6) 0.624(4) 0.263(6)
H5A H 0.699(7) 0.542(5) 0.053(7)
O1A O 0.7484(3) -0.0943(3) 0.8602(3)
O1B O 0.7516(3) 0.4057(3) 0.6398(3)
O2B O 0.5608(4) 0.1952(2) 0.6106(3)
O3B O 0.4024(4) 0.1876(2) 0.4117(3)
O3E O 0.9024(4) 0.3124(2) 0.9117(3)
O3G O 0.9024(4) 0.1876(2) 0.5883(3)
Mg1A Mg 0.75257(18) -0.25000 0.75000
Mg1E Mg 0.24743(18) 0.25000 0.25000
Mg1E* Mg 0.24743(18) 0.25000 1.25000
#END
