
#######################################################################
#
#                 Cambridge Crystallographic Data Centre
#                                CCDC
#
#######################################################################
#
# If this CIF has been generated from an entry in the Cambridge
# Structural Database, then it will include bibliographic, chemical,
# crystal, experimental, refinement or atomic coordinate data resulting
# from the CCDC's data processing and validation procedures.
#
#######################################################################

data_CSD_CIF_XAXHOV
_audit_creation_date 2012-09-26
_audit_creation_method CSD-ConQuest-V1
_database_code_CSD XAXHOV
_database_code_depnum_ccdc_archive 'CCDC 828984'
_chemical_formula_sum 'C24 H37 Mo12 N4 O61 P1 Sr2'
_chemical_formula_moiety
;
(H3 O1 1+)n,n(C24 H32 Mo12 N4 O59 P1 Sr2 1-),n(H2 O1)
;
_journal_coden_Cambridge 1133
_journal_volume 23
_journal_year 2012
_journal_page_first 325
_journal_name_full 'J.Cluster Sci. '
loop_
_publ_author_name
"Meilin Wei"
"Huihua Li"
"Xiaoxiang Wang"
_chemical_name_systematic
;
catena-[Oxonium 
(\m~12~-phosphato)-bis(\m~2~-aqua)-hexacosakis(\m~2~-oxo)-penta-aqua-bis(isoni
cotinic acid N-oxide)-bis(isonicotinate 
N-oxide)-deca-oxo-dodeca-molybdenum-di-strontium monohydrate]
;
_cell_volume   3199.704
_exptl_crystal_colour 'yellow'
_exptl_special_details
;
The structure as described in the paper has a Sr:Keggin ratio of 1:1 with 
each strontium modelled with half occupancy. However this stoichiometry does 
not seem to agree with the four isonicotinic acid ligands or the polymeric 
nature of the structure as described
;
_exptl_crystal_description 'block'
_diffrn_ambient_temperature 293
_refine_special_details
;
O1,O2,O3,O3 disordered by symmetry over two sites with occupancy 0.50; O5W 
disordered by symmetry over two sites with occupancy 0.25.
;
#These two values have been output from a single CSD field.
_refine_ls_R_factor_gt 0.0458
_refine_ls_wR_factor_gt 0.0458
_symmetry_cell_setting orthorhombic
_symmetry_space_group_name_H-M 'P n n m'
_symmetry_Int_Tables_number 58
loop_
_symmetry_equiv_pos_site_id
_symmetry_equiv_pos_as_xyz
1 x,y,z
2 -x,-y,z
3 1/2-x,1/2+y,1/2-z
4 1/2+x,1/2-y,1/2-z
5 -x,-y,-z
6 x,y,-z
7 -1/2+x,-1/2-y,-1/2+z
8 -1/2-x,-1/2+y,-1/2+z
_cell_length_a 10.450(3)
_cell_length_b 15.801(5)
_cell_length_c 19.378(5)
_cell_angle_alpha 90
_cell_angle_beta 90
_cell_angle_gamma 90
_cell_formula_units_Z 2
loop_
_atom_type_symbol
_atom_type_radius_bond
C 0.68
H 0.23
Mo 1.40
N 0.68
O 0.65
P 1.05
Sr 1.83
loop_
_atom_site_label
_atom_site_type_symbol
_atom_site_fract_x
_atom_site_fract_y
_atom_site_fract_z
Mo1 Mo 0.28343(5) 0.05535(4) -0.09153(3)
Mo2 Mo 0.26809(6) -0.13916(5) 0.00000
Mo3 Mo -0.01495(6) -0.19448(3) 0.09217(3)
Mo4 Mo 0.00000 0.00000 -0.18358(4)
P1 P 0.00000 0.00000 0.00000
O1 O 0.0408(9) -0.0933(6) 0.00000
O2 O 0.1466(9) -0.0038(6) 0.00000
O3 O 0.0519(7) 0.0438(4) -0.0645(4)
O4 O 0.3282(11) 0.0857(5) 0.00000
O5 O 0.1880(5) 0.1571(4) -0.0962(3)
O6 O 0.1757(5) 0.0134(4) -0.1623(4)
O7 O 0.4128(4) 0.0812(3) -0.1360(3)
O8 O 0.3173(8) -0.0589(3) -0.0676(3)
O9 O 0.3904(7) -0.2057(5) 0.00000
O10 O 0.1615(5) -0.1892(5) 0.0673(3)
O11 O -0.0482(7) -0.2305(7) 0.00000
O12 O 0.00000 0.00000 -0.2692(4)
O13 O 0.0204(5) -0.1170(4) 0.1641(4)
O14 O -0.0202(5) -0.2855(3) 0.1343(3)
N1 N 0.2719(6) -0.1077(4) 0.2988(3)
C1 C 0.3481(7) -0.1130(5) 0.2427(4)
H1 H 0.40020 -0.06740 0.23130
C2 C 0.3505(6) -0.1831(4) 0.2029(4)
H2 H 0.40330 -0.18530 0.16430
C3 C 0.2739(6) -0.2521(4) 0.2196(3)
C4 C 0.1904(6) -0.2431(4) 0.2757(4)
H3 H 0.13460 -0.28690 0.28690
C5 C 0.1904(8) -0.1718(5) 0.3137(4)
H4 H 0.13400 -0.16640 0.35050
C6 C 0.2819(7) -0.3311(5) 0.1805(4)
O15 O 0.3530(7) -0.3406(4) 0.1305(3)
O16 O 0.2763(7) -0.0411(4) 0.3412(3)
O17 O 0.2078(6) -0.3910(4) 0.2059(3)
H5 H 0.22550 -0.43630 0.18770
Sr1 Sr 0.40331(18) -0.38571(10) 0.00000
O18 O 0.1589(17) -0.3789(10) 0.00000
O19 O 0.6334(11) -0.2962(7) 0.00000
O20 O 0.50000 -0.50000 -0.0809(9)
O21 O 0.310(3) -0.528(2) 0.00000
O22? O 0.153(3) -0.604(2) 0.0223(19)
O23 O 0.50000 0.00000 -0.4173(15)
Mo1A Mo -0.28343(5) -0.05535(4) -0.09153(3)
Mo1D Mo -0.28343(5) -0.05535(4) 0.09153(3)
Mo1E Mo 0.28343(5) 0.05535(4) 0.09153(3)
Mo2A Mo -0.26809(6) 0.13916(5) 0.00000
Mo3A Mo 0.01495(6) 0.19448(3) 0.09217(3)
Mo3D Mo 0.01495(6) 0.19448(3) -0.09217(3)
Mo3E Mo -0.01495(6) -0.19448(3) -0.09217(3)
Mo4D Mo 0.00000 0.00000 0.18358(4)
O1A O -0.0408(9) 0.0933(6) 0.00000
O2A O -0.1466(9) 0.0038(6) 0.00000
O3A O -0.0519(7) -0.0438(4) -0.0645(4)
O3D O -0.0519(7) -0.0438(4) 0.0645(4)
O3E O 0.0519(7) 0.0438(4) 0.0645(4)
O4A O -0.3282(11) -0.0857(5) 0.00000
O5D O -0.1880(5) -0.1571(4) 0.0962(3)
O5A O -0.1880(5) -0.1571(4) -0.0962(3)
O5E O 0.1880(5) 0.1571(4) 0.0962(3)
O6A O -0.1757(5) -0.0134(4) -0.1623(4)
O6D O -0.1757(5) -0.0134(4) 0.1623(4)
O6E O 0.1757(5) 0.0134(4) 0.1623(4)
O7A O -0.4128(4) -0.0812(3) -0.1360(3)
O7D O -0.4128(4) -0.0812(3) 0.1360(3)
O7E O 0.4128(4) 0.0812(3) 0.1360(3)
O8E O 0.3173(8) -0.0589(3) 0.0676(3)
O8A O -0.3173(8) 0.0589(3) -0.0676(3)
O8D O -0.3173(8) 0.0589(3) 0.0676(3)
O9A O -0.3904(7) 0.2057(5) 0.00000
O10E O 0.1615(5) -0.1892(5) -0.0673(3)
O10A O -0.1615(5) 0.1892(5) 0.0673(3)
O10D O -0.1615(5) 0.1892(5) -0.0673(3)
O11A O 0.0482(7) 0.2305(7) 0.00000
O12D O 0.00000 0.00000 0.2692(4)
O13D O -0.0204(5) 0.1170(4) -0.1641(4)
O13E O 0.0204(5) -0.1170(4) -0.1641(4)
O13A O -0.0204(5) 0.1170(4) 0.1641(4)
O14A O 0.0202(5) 0.2855(3) 0.1343(3)
O14D O 0.0202(5) 0.2855(3) -0.1343(3)
O14E O -0.0202(5) -0.2855(3) -0.1343(3)
N1E N 0.2719(6) -0.1077(4) -0.2988(3)
N1A N -0.2719(6) 0.1077(4) 0.2988(3)
N1D N -0.2719(6) 0.1077(4) -0.2988(3)
C1E C 0.3481(7) -0.1130(5) -0.2427(4)
C1A C -0.3481(7) 0.1130(5) 0.2427(4)
C1D C -0.3481(7) 0.1130(5) -0.2427(4)
H1E H 0.40020 -0.06740 -0.23130
H1A H -0.40020 0.06740 0.23130
H1D H -0.40020 0.06740 -0.23130
C2E C 0.3505(6) -0.1831(4) -0.2029(4)
C2A C -0.3505(6) 0.1831(4) 0.2029(4)
C2D C -0.3505(6) 0.1831(4) -0.2029(4)
H2E H 0.40330 -0.18530 -0.16430
H2A H -0.40330 0.18530 0.16430
H2D H -0.40330 0.18530 -0.16430
C3E C 0.2739(6) -0.2521(4) -0.2196(3)
C3A C -0.2739(6) 0.2521(4) 0.2196(3)
C3D C -0.2739(6) 0.2521(4) -0.2196(3)
C4E C 0.1904(6) -0.2431(4) -0.2757(4)
C4A C -0.1904(6) 0.2431(4) 0.2757(4)
C4D C -0.1904(6) 0.2431(4) -0.2757(4)
H3E H 0.13460 -0.28690 -0.28690
H3A H -0.13460 0.28690 0.28690
H3D H -0.13460 0.28690 -0.28690
C5E C 0.1904(8) -0.1718(5) -0.3137(4)
C5A C -0.1904(8) 0.1718(5) 0.3137(4)
C5D C -0.1904(8) 0.1718(5) -0.3137(4)
H4E H 0.13400 -0.16640 -0.35050
H4A H -0.13400 0.16640 0.35050
H4D H -0.13400 0.16640 -0.35050
C6E C 0.2819(7) -0.3311(5) -0.1805(4)
C6A C -0.2819(7) 0.3311(5) 0.1805(4)
C6D C -0.2819(7) 0.3311(5) -0.1805(4)
O15E O 0.3530(7) -0.3406(4) -0.1305(3)
O15A O -0.3530(7) 0.3406(4) 0.1305(3)
O15D O -0.3530(7) 0.3406(4) -0.1305(3)
O16E O 0.2763(7) -0.0411(4) -0.3412(3)
O16A O -0.2763(7) 0.0411(4) 0.3412(3)
O16D O -0.2763(7) 0.0411(4) -0.3412(3)
O17E O 0.2078(6) -0.3910(4) -0.2059(3)
O17A O -0.2078(6) 0.3910(4) 0.2059(3)
O17D O -0.2078(6) 0.3910(4) -0.2059(3)
H5E H 0.22550 -0.43630 -0.18770
H5A H -0.22550 0.43630 0.18770
H5D H -0.22550 0.43630 -0.18770
Sr1A Sr -0.40331(18) 0.38571(10) 0.00000
Sr1A* Sr 0.59669(18) -0.61429(10) 0.00000
O18A O -0.1589(17) 0.3789(10) 0.00000
O19A O -0.6334(11) 0.2962(7) 0.00000
O20D O 0.50000 -0.50000 0.0809(9)
O20* O -0.50000 0.50000 -0.0809(9)
O20D* O -0.50000 0.50000 0.0809(9)
O21A O -0.310(3) 0.528(2) 0.00000
#END
