
#######################################################################
#
#                 Cambridge Crystallographic Data Centre
#                                CCDC
#
#######################################################################
#
# If this CIF has been generated from an entry in the Cambridge
# Structural Database, then it will include bibliographic, chemical,
# crystal, experimental, refinement or atomic coordinate data resulting
# from the CCDC's data processing and validation procedures.
#
#######################################################################

data_CSD_CIF_XECBIR
_audit_creation_date 2006-06-06
_audit_creation_method CSD-ConQuest-V1
_database_code_CSD XECBIR
_database_code_depnum_ccdc_archive 'CCDC 299350'
_chemical_formula_sum 'C90 H70 Cd9 N26 O40'
_chemical_formula_moiety
;
(C10 H10 N2 2+)n,n(C80 H44 Cd9 N24 O32 2-),8n(H2 O1)
;
_journal_coden_Cambridge 1147
_journal_volume 6
_journal_year 2006
_journal_page_first 564
_journal_name_full 'Cryst.Growth Des. '
loop_
_publ_author_name
"Wen-Guan Lu"
"Long Jiang"
"Xiao-Long Feng"
"Tong-Bu Lu"
_chemical_name_systematic
;
catena-(4,4'-Bipyridinium 
bis(\m~5~-imidazole-4,5-dicarboxylato)-bis(\m~4~-imidazole-4,5-dicarboxylato)-
tetrakis(\m~3~-imidazole-4,5-dicarboxylato)-bis(\m~2~-4,4'-bipyridine)-bis(4,4
'-bipyridine)-nona-cadmium(ii) octahydrate)
;
_cell_volume   5204.441
_exptl_crystal_colour 'colorless'
_exptl_crystal_density_diffrn 2.038
_exptl_crystal_description 'prism'
_diffrn_ambient_temperature 293
#These two values have been output from a single CSD field.
_refine_ls_R_factor_gt 0.052
_refine_ls_wR_factor_gt 0.052
_symmetry_cell_setting orthorhombic
_symmetry_space_group_name_H-M 'P n n m'
_symmetry_Int_Tables_number 58
loop_
_symmetry_equiv_pos_site_id
_symmetry_equiv_pos_as_xyz
1 x,y,z
2 -x,-y,z
3 1/2-x,1/2+y,1/2-z
4 1/2+x,1/2-y,1/2-z
5 -x,-y,-z
6 x,y,-z
7 -1/2+x,-1/2-y,-1/2+z
8 -1/2-x,-1/2+y,-1/2+z
_cell_length_a 20.195(2)
_cell_length_b 15.8339(18)
_cell_length_c 16.2758(19)
_cell_angle_alpha 90
_cell_angle_beta 90
_cell_angle_gamma 90
_cell_formula_units_Z 2
loop_
_atom_type_symbol
_atom_type_radius_bond
C 0.68
H 0.23
Cd 1.69
N 0.68
O 0.68
loop_
_atom_site_label
_atom_site_type_symbol
_atom_site_fract_x
_atom_site_fract_y
_atom_site_fract_z
Cd1 Cd 0.09131(2) 0.46005(3) 0.20651(3)
Cd2 Cd 0.19539(2) 0.27504(3) 0.29553(3)
Cd3 Cd 0.00000 0.50000 0.50000
C1 C 0.0412(4) 0.6546(4) 0.2121(5)
C2 C 0.1142(3) 0.6548(4) 0.2180(4)
C3 C 0.1592(4) 0.7193(4) 0.2189(5)
C4 C 0.1517(4) 0.8119(5) 0.2124(5)
C5 C 0.2116(3) 0.6033(4) 0.2303(5)
H1 H 0.24620 0.56510 0.23650
C6 C 0.0863(5) 0.4823(7) 0.00000
H2 H 0.06160 0.53180 0.00000
C7 C 0.1390(3) 0.3741(4) 0.0423(4)
C8 C 0.1681(4) 0.3158(5) 0.1016(4)
C9 C 0.1151(3) 0.4160(4) 0.3918(4)
C10 C 0.1459(3) 0.3627(4) 0.4574(4)
C11 C 0.2048(5) 0.2590(6) 0.50000
H3 H 0.23150 0.21110 0.50000
C12 C 0.1064(4) 0.1199(5) 0.2264(5)
H4 H 0.13200 0.13060 0.18010
C13 C 0.0616(4) 0.0542(5) 0.2243(5)
H5 H 0.05660 0.02230 0.17670
C14 C 0.0241(4) 0.0359(5) 0.2935(5)
C15 C 0.0319(6) 0.0881(8) 0.3582(7)
H6 H 0.00590 0.08070 0.40480
C16 C 0.0778(6) 0.1519(7) 0.3562(6)
H7 H 0.08320 0.18520 0.40280
C17 C 0.0529(7) 0.6779(8) 0.4290(6)
H8 H 0.03850 0.65330 0.38030
C18 C 0.0874(7) 0.7557(8) 0.4258(6)
H9 H 0.09570 0.78230 0.37590
C19 C 0.1085(6) 0.7911(6) 0.50000
C20 C 0.1474(7) 0.8761(8) 0.50000
C21 C 0.1633(6) 0.9120(7) 0.4244(6)
H10 H 0.15260 0.88670 0.37460
C22 C 0.1969(6) 0.9894(8) 0.4296(6)
H11 H 0.20840 1.01570 0.38050
C23 C -0.0141(17) 0.8032(8) 0.00000
H12 H -0.04610 0.76080 0.00000
C24 C -0.0334(10) 0.8873(7) 0.00000
H13 H -0.07840 0.89990 0.00000
C25 C 0.0112(5) 0.9529(3) 0.00000
C26 C 0.0760(7) 0.9284(12) 0.00000
H14 H 0.10860 0.96980 0.00000
C27 C 0.0953(13) 0.8437(15) 0.00000
H15 H 0.14000 0.82980 0.00000
N1 N 0.1479(3) 0.5803(3) 0.2252(4)
N2 N 0.2204(3) 0.6865(4) 0.2256(4)
N3 N 0.1057(3) 0.4435(4) 0.0690(4)
N4 N 0.1839(3) 0.2966(4) 0.4320(3)
N5 N 0.1143(3) 0.1683(4) 0.2918(4)
N6 N 0.0405(5) 0.6391(5) 0.50000
N7 N 0.2137(7) 1.0289(8) 0.50000
N8 N 0.0496(19) 0.7827(9) 0.00000
H16 H 0.053(4) 0.7240(11) 0.00000
O1 O 0.0144(2) 0.5822(3) 0.2102(3)
O2 O 0.0106(3) 0.7222(4) 0.2100(5)
O3 O 0.0920(3) 0.8422(4) 0.2103(6)
H17 H 0.06600 0.80490 0.19670
O4 O 0.2005(3) 0.8577(3) 0.2110(4)
O5 O 0.1626(3) 0.3335(3) 0.1749(3)
O6 O 0.1980(3) 0.2505(4) 0.0763(4)
O7 O 0.1302(3) 0.3944(3) 0.3188(3)
O8 O 0.0781(3) 0.4745(3) 0.4048(3)
O9 O 0.2071(9) 0.0048(11) 0.1000(12)
O10 O 0.3373(9) 0.1607(11) 0.5000(12)
O11 O 0.2915(9) 0.1026(11) 0.0637(12)
Cd1E Cd 0.09131(2) 0.46005(3) 0.79349(3)
Cd1D Cd -0.09131(2) 0.53995(3) 0.79349(3)
Cd1A Cd -0.09131(2) 0.53995(3) 0.20651(3)
Cd1E* Cd 0.09131(2) 0.46005(3) -0.20651(3)
Cd1B Cd 0.40869(2) -0.03995(3) 0.29349(3)
Cd1C Cd 0.59131(2) 0.03995(3) 0.29349(3)
Cd1* Cd 0.09131(2) 0.46005(3) 1.20651(3)
Cd2E Cd 0.19539(2) 0.27504(3) 0.70447(3)
Cd2D Cd -0.19539(2) 0.72496(3) 0.70447(3)
Cd2A Cd -0.19539(2) 0.72496(3) 0.29553(3)
Cd2B Cd 0.30461(2) 0.77504(3) 0.20447(3)
Cd2E* Cd 0.19539(2) 0.27504(3) -0.29553(3)
Cd2A* Cd -0.19539(2) -0.27504(3) 0.29553(3)
Cd2C Cd -0.30461(2) 0.22496(3) 0.20447(3)
Cd2G Cd 0.30461(2) 0.77504(3) 0.79553(3)
Cd2* Cd 0.19539(2) 0.27504(3) 1.29553(3)
Cd2D* Cd -0.19539(2) -0.27504(3) 0.70447(3)
C1A C -0.0412(4) 0.3454(4) 0.2121(5)
C1B C 0.4588(4) 0.1546(4) 0.2879(5)
C1E C 0.0412(4) 0.6546(4) 0.7879(5)
C2A C -0.1142(3) 0.3452(4) 0.2180(4)
C2B C 0.3858(3) 0.1548(4) 0.2820(4)
C2E C 0.1142(3) 0.6548(4) 0.7820(4)
C3A C -0.1592(4) 0.2807(4) 0.2189(5)
C3B C 0.3408(4) 0.2193(4) 0.2811(5)
C3E C 0.1592(4) 0.7193(4) 0.7811(5)
C4A C -0.1517(4) 0.1881(5) 0.2124(5)
C4B C 0.3483(4) 0.3119(5) 0.2876(5)
C4E C 0.1517(4) 0.8119(5) 0.7876(5)
C5A C -0.2116(3) 0.3967(4) 0.2303(5)
C5B C 0.2884(3) 0.1033(4) 0.2697(5)
C5E C 0.2116(3) 0.6033(4) 0.7697(5)
H1A H -0.24620 0.43490 0.23650
H1B H 0.25380 0.06510 0.26350
H1E H 0.24620 0.56510 0.76350
C6* C 0.0863(5) 0.4823(7) 1.00000
H2* H 0.06160 0.53180 1.00000
C7E C 0.1390(3) 0.3741(4) -0.0423(4)
C7E* C 0.1390(3) 0.3741(4) 0.9577(4)
C7* C 0.1390(3) 0.3741(4) 1.0423(4)
C8E C 0.1681(4) 0.3158(5) -0.1016(4)
C8E* C 0.1681(4) 0.3158(5) 0.8984(4)
C8* C 0.1681(4) 0.3158(5) 1.1016(4)
C9E C 0.1151(3) 0.4160(4) 0.6082(4)
C9D C -0.1151(3) 0.5840(4) 0.6082(4)
C9A C -0.1151(3) 0.5840(4) 0.3918(4)
C10E C 0.1459(3) 0.3627(4) 0.5426(4)
C10D C -0.1459(3) 0.6373(4) 0.5426(4)
C10A C -0.1459(3) 0.6373(4) 0.4574(4)
C11D C -0.2048(5) 0.7410(6) 0.50000
H3D H -0.23150 0.78890 0.50000
C12A C -0.1064(4) -0.1199(5) 0.2264(5)
C12E C 0.1064(4) 0.1199(5) 0.7736(5)
C12D C -0.1064(4) -0.1199(5) 0.7736(5)
H4A H -0.13200 -0.13060 0.18010
H4E H 0.13200 0.13060 0.81990
H4D H -0.13200 -0.13060 0.81990
C13A C -0.0616(4) -0.0542(5) 0.2243(5)
C13E C 0.0616(4) 0.0542(5) 0.7757(5)
C13D C -0.0616(4) -0.0542(5) 0.7757(5)
H5A H -0.05660 -0.02230 0.17670
H5E H 0.05660 0.02230 0.82330
H5D H -0.05660 -0.02230 0.82330
C14A C -0.0241(4) -0.0359(5) 0.2935(5)
C14E C 0.0241(4) 0.0359(5) 0.7065(5)
C14D C -0.0241(4) -0.0359(5) 0.7065(5)
C15A C -0.0319(6) -0.0881(8) 0.3582(7)
C15E C 0.0319(6) 0.0881(8) 0.6418(7)
C15D C -0.0319(6) -0.0881(8) 0.6418(7)
H6A H -0.00590 -0.08070 0.40480
H6E H 0.00590 0.08070 0.59520
H6D H -0.00590 -0.08070 0.59520
C16A C -0.0778(6) -0.1519(7) 0.3562(6)
C16E C 0.0778(6) 0.1519(7) 0.6438(6)
C16D C -0.0778(6) -0.1519(7) 0.6438(6)
H7A H -0.08320 -0.18520 0.40280
H7E H 0.08320 0.18520 0.59720
H7D H -0.08320 -0.18520 0.59720
C17E C 0.0529(7) 0.6779(8) 0.5710(6)
C17D C -0.0529(7) 0.3221(8) 0.5710(6)
C17A C -0.0529(7) 0.3221(8) 0.4290(6)
H8E H 0.03850 0.65330 0.61970
H8D H -0.03850 0.34670 0.61970
H8A H -0.03850 0.34670 0.38030
C18E C 0.0874(7) 0.7557(8) 0.5742(6)
C18D C -0.0874(7) 0.2443(8) 0.5742(6)
C18A C -0.0874(7) 0.2443(8) 0.4258(6)
H9E H 0.09570 0.78230 0.62410
H9D H -0.09570 0.21770 0.62410
H9A H -0.09570 0.21770 0.37590
C19D C -0.1085(6) 0.2089(6) 0.50000
C20D C -0.1474(7) 0.1239(8) 0.50000
C21E C 0.1633(6) 0.9120(7) 0.5756(6)
C21D C -0.1633(6) 0.0880(7) 0.5756(6)
C21A C -0.1633(6) 0.0880(7) 0.4244(6)
H10E H 0.15260 0.88670 0.62540
H10D H -0.15260 0.11330 0.62540
H10A H -0.15260 0.11330 0.37460
C22E C 0.1969(6) 0.9894(8) 0.5704(6)
C22D C -0.1969(6) 0.0106(8) 0.5704(6)
C22A C -0.1969(6) 0.0106(8) 0.4296(6)
H11E H 0.20840 1.01570 0.61950
H11D H -0.20840 -0.01570 0.61950
H11A H -0.20840 -0.01570 0.38050
C23D C 0.0141(17) 1.1968(8) 0.00000
H12D H 0.04610 1.23920 0.00000
C24D C 0.0334(10) 1.1127(7) 0.00000
H13D H 0.07840 1.10010 0.00000
C25D C -0.0112(5) 1.0471(3) 0.00000
C26D C -0.0760(7) 1.0716(12) 0.00000
H14D H -0.10860 1.03020 0.00000
C27D C -0.0953(13) 1.1563(15) 0.00000
H15D H -0.14000 1.17020 0.00000
N1A N -0.1479(3) 0.4197(3) 0.2252(4)
N1B N 0.3521(3) 0.0803(3) 0.2748(4)
N1E N 0.1479(3) 0.5803(3) 0.7748(4)
N1D N -0.1479(3) 0.4197(3) 0.7748(4)
N2A N -0.2204(3) 0.3135(4) 0.2256(4)
N2B N 0.2796(3) 0.1865(4) 0.2744(4)
N2E N 0.2204(3) 0.6865(4) 0.7744(4)
N2G N 0.2796(3) 0.1865(4) 0.7256(4)
N2F N -0.2796(3) 0.8135(4) 0.7256(4)
N2C N -0.2796(3) 0.8135(4) 0.2744(4)
N3E N 0.1057(3) 0.4435(4) -0.0690(4)
N3E* N 0.1057(3) 0.4435(4) 0.9310(4)
N3* N 0.1057(3) 0.4435(4) 1.0690(4)
N3D N -0.1057(3) 0.5565(4) 0.9310(4)
N3A N -0.1057(3) 0.5565(4) 0.0690(4)
N4E N 0.1839(3) 0.2966(4) 0.5680(3)
N4D N -0.1839(3) 0.7034(4) 0.5680(3)
N4A N -0.1839(3) 0.7034(4) 0.4320(3)
N5A N -0.1143(3) -0.1683(4) 0.2918(4)
N5E N 0.1143(3) 0.1683(4) 0.7082(4)
N5D N -0.1143(3) -0.1683(4) 0.7082(4)
N5D* N -0.1143(3) 0.8317(4) 0.7082(4)
N5A* N -0.1143(3) 0.8317(4) 0.2918(4)
N6D N -0.0405(5) 0.3609(5) 0.50000
N7D N -0.2137(7) -0.0289(8) 0.50000
N8D N -0.0496(19) 1.2173(9) 0.00000
H16D H -0.053(4) 1.2760(11) 0.00000
O1A O -0.0144(2) 0.4178(3) 0.2102(3)
O1B O 0.4856(2) 0.0822(3) 0.2898(3)
O1E O 0.0144(2) 0.5822(3) 0.7898(3)
O1D O -0.0144(2) 0.4178(3) 0.7898(3)
O2A O -0.0106(3) 0.2778(4) 0.2100(5)
O2B O 0.4894(3) 0.2222(4) 0.2900(5)
O2E O 0.0106(3) 0.7222(4) 0.7900(5)
O3A O -0.0920(3) 0.1578(4) 0.2103(6)
O3B O 0.4080(3) 0.3422(4) 0.2897(6)
O3E O 0.0920(3) 0.8422(4) 0.7897(6)
H17A H -0.06600 0.19510 0.19670
H17B H 0.43400 0.30490 0.30330
H17E H 0.06600 0.80490 0.80330
O4A O -0.2005(3) 0.1423(3) 0.2110(4)
O4B O 0.2995(3) 0.3577(3) 0.2890(4)
O4E O 0.2005(3) 0.8577(3) 0.7890(4)
O4G O 0.2995(3) 0.3577(3) 0.7110(4)
O4F O -0.2995(3) 0.6423(3) 0.7110(4)
O4C O -0.2995(3) 0.6423(3) 0.2890(4)
O5E O 0.1626(3) 0.3335(3) -0.1749(3)
O5E* O 0.1626(3) 0.3335(3) 0.8251(3)
O5* O 0.1626(3) 0.3335(3) 1.1749(3)
O5D O -0.1626(3) 0.6665(3) 0.8251(3)
O5A O -0.1626(3) 0.6665(3) 0.1749(3)
O6E O 0.1980(3) 0.2505(4) -0.0763(4)
O6E* O 0.1980(3) 0.2505(4) 0.9237(4)
O6* O 0.1980(3) 0.2505(4) 1.0763(4)
O7E O 0.1302(3) 0.3944(3) 0.6812(3)
O7D O -0.1302(3) 0.6056(3) 0.6812(3)
O7A O -0.1302(3) 0.6056(3) 0.3188(3)
O8E O 0.0781(3) 0.4745(3) 0.5952(3)
O8D O -0.0781(3) 0.5255(3) 0.5952(3)
O8A O -0.0781(3) 0.5255(3) 0.4048(3)
#END
