
#######################################################################
#
#                 Cambridge Crystallographic Data Centre
#                                CCDC
#
#######################################################################
#
# If this CIF has been generated from an entry in the Cambridge
# Structural Database, then it will include bibliographic, chemical,
# crystal, experimental, refinement or atomic coordinate data resulting
# from the CCDC's data processing and validation procedures.
#
#######################################################################

data_CSD_CIF_XECTUX
_audit_creation_date 2017-07-20
_audit_creation_method CSD-ConQuest-V1
_database_code_CSD XECTUX
_database_code_depnum_ccdc_archive 'CCDC 1545608'
_chemical_formula_sum 'C100 H144 F12 Fe4 N4 O24'
_chemical_formula_moiety
;
(C36 F12 Fe4 O24 4-)n,4n(C16 H36 N1 1+)
;
_journal_coden_Cambridge 9
_journal_volume 56
_journal_year 2017
_journal_page_first 9025
_journal_name_full 'Inorg.Chem. '
loop_
_publ_author_name
"R.Murase"
"B.F.Abrahams"
"D.M.DAlessandro"
"C.G.Davies"
"T.A.Hudson"
"G.N.L.Jameson"
"B.Moubaraki"
"K.S.Murray"
"R.Robson"
"A.L.Sutton"
_chemical_name_systematic
;
catena-(tetrakis(tetra-n-butylammonium) hexakis(\m-fluoranilate)-tetra-iron)
;
_cell_volume  16648.931
_exptl_crystal_colour 'red'
_exptl_crystal_density_diffrn 1.339
_exptl_crystal_description 'polyhedron'
_diffrn_ambient_temperature 130
_refine_special_details
;
C28B and C28A disordered over two sites with occupancies 0.5:0.5; 
C30,C31,C32,C35,C36,C37 and C33,C34,C38,C39,N2 disordered over two sites with 
occupancies 0.6667:0.3333.
;
#These two values have been output from a single CSD field.
_refine_ls_R_factor_gt 0.0598
_refine_ls_wR_factor_gt 0.0598
_symmetry_cell_setting rhombohedral
_symmetry_space_group_name_H-M 'R 3 c'
_symmetry_Int_Tables_number 161
loop_
_symmetry_equiv_pos_site_id
_symmetry_equiv_pos_as_xyz
1 x,y,z
2 -y,x-y,z
3 -x+y,-x,z
4 -y,-x,1/2+z
5 -x+y,y,1/2+z
6 x,x-y,1/2+z
7 2/3+x,1/3+y,1/3+z
8 2/3-y,1/3+x-y,1/3+z
9 2/3-x+y,1/3-x,1/3+z
10 2/3-y,1/3-x,5/6+z
11 2/3-x+y,1/3+y,5/6+z
12 2/3+x,1/3+x-y,5/6+z
13 1/3+x,2/3+y,2/3+z
14 1/3-y,2/3+x-y,2/3+z
15 1/3-x+y,2/3-x,2/3+z
16 1/3-y,2/3-x,1/6+z
17 1/3-x+y,2/3+y,1/6+z
18 1/3+x,2/3+x-y,1/6+z
_cell_length_a 31.2842(7)
_cell_length_b 31.2842(7)
_cell_length_c 19.6429(5)
_cell_angle_alpha 90
_cell_angle_beta 90
_cell_angle_gamma 120
_cell_formula_units_Z 6
loop_
_atom_type_symbol
_atom_type_radius_bond
C 0.68
H 0.23
F 0.64
Fe 1.52
N 0.68
O 0.68
loop_
_atom_site_label
_atom_site_type_symbol
_atom_site_fract_x
_atom_site_fract_y
_atom_site_fract_z
C1 C 0.3224(3) 0.5724(3) 0.0000(4)
C2 C 0.3538(3) 0.5905(3) 0.0624(4)
C3 C 0.3700(3) 0.5604(3) 0.0918(4)
C4 C 0.3581(3) 0.5152(3) 0.0658(4)
C5 C 0.3241(3) 0.4959(3) 0.0055(4)
C6 C 0.3083(3) 0.5261(3) -0.0247(4)
C7 C 0.2881(3) 0.3649(3) 0.1581(4)
C8 C 0.3325(3) 0.3591(3) 0.1574(4)
C9 C 0.3374(2) 0.3308(3) 0.2067(4)
C10 C 0.3041(2) 0.3096(4) 0.2591(4)
C11 C 0.2598(2) 0.3161(4) 0.2610(4)
C12 C 0.2543(3) 0.3431(3) 0.2098(4)
F1 F 0.2782(2) 0.50859(19) -0.0797(3)
F2 F 0.39914(19) 0.57753(18) 0.1481(3)
F3 F 0.37815(17) 0.3253(2) 0.2069(3)
F4 F 0.21358(17) 0.3482(2) 0.2101(2)
Fe1 Fe 0.34156(4) 0.41788(4) 0.04189(6)
Fe2 Fe 0.33330 0.66670 0.02810(9)
O1 O 0.3101(2) 0.6023(2) -0.0267(3)
O2 O 0.3628(2) 0.63224(19) 0.0849(3)
O3 O 0.3112(2) 0.45208(19) -0.0136(3)
O4 O 0.3732(2) 0.4867(2) 0.0883(3)
O5 O 0.2848(2) 0.3897(2) 0.1089(3)
O6 O 0.36355(18) 0.38276(19) 0.1095(3)
O7 O 0.3070(2) 0.28391(27) 0.3088(3)
O8 O 0.23000(19) 0.29591(27) 0.3121(3)
C13 C 0.5298(3) 0.4828(4) 0.7171(6)
H1 H 0.51000 0.44820 0.70520
H2 H 0.53030 0.48510 0.76640
C14 C 0.5824(4) 0.5013(4) 0.6925(7)
H3 H 0.60170 0.53700 0.69660
H4 H 0.58220 0.49260 0.64510
C15 C 0.6048(4) 0.4774(5) 0.7364(8)
H5 H 0.58290 0.44190 0.73740
H6 H 0.60900 0.48970 0.78260
C16 C 0.6555(5) 0.4891(7) 0.7069(10)
H7 H 0.66940 0.47400 0.73480
H8 H 0.65110 0.47650 0.66140
H9 H 0.67720 0.52420 0.70640
C17 C 0.5319(4) 0.5639(4) 0.7153(7)
H10 H 0.56560 0.57990 0.69900
H11 H 0.51640 0.58110 0.69500
C18 C 0.5330(5) 0.5707(4) 0.7898(7)
H12 H 0.49980 0.55170 0.80800
H13 H 0.55300 0.55860 0.81060
C19 C 0.5538(5) 0.6242(5) 0.8071(7)
H14 H 0.53310 0.63550 0.78630
H15 H 0.58630 0.64280 0.78670
C20 C 0.5584(5) 0.6366(5) 0.8821(8)
H16 H 0.57200 0.67150 0.88770
H17 H 0.52630 0.61940 0.90290
H18 H 0.57970 0.62670 0.90340
C21 C 0.5064(4) 0.5126(4) 0.6119(5)
H19 H 0.48980 0.53010 0.59690
H20 H 0.54060 0.53170 0.59770
C22 C 0.4834(5) 0.4636(4) 0.5771(7)
H21 H 0.49730 0.44440 0.59530
H22 H 0.44820 0.44590 0.58640
C23 C 0.4914(8) 0.4689(6) 0.5027(8)
H23 H 0.52650 0.48810 0.49390
H24 H 0.47620 0.48700 0.48460
C24 C 0.4711(8) 0.4215(7) 0.4668(10)
H25 H 0.47750 0.42740 0.41890
H26 H 0.48650 0.40360 0.48370
H27 H 0.43620 0.40240 0.47440
C25 C 0.4514(4) 0.4820(4) 0.7143(6)
H28 H 0.43630 0.44820 0.69820
H29 H 0.45180 0.48110 0.76360
C26 C 0.4196(4) 0.5029(5) 0.6929(7)
H30 H 0.41300 0.49760 0.64440
H31 H 0.43690 0.53810 0.70130
C27 C 0.3769(10) 0.5014(12) 0.8074(16)
H32 H 0.34550 0.48530 0.83030
H33 H 0.40020 0.49640 0.83270
H34 H 0.38840 0.53610 0.80420
C28 C 0.3707(5) 0.4785(6) 0.7318(8)
H35 H 0.35850 0.44330 0.73530
H36 H 0.34660 0.48310 0.70670
N1 N 0.5047(3) 0.5100(3) 0.6889(6)
C29? C 0.3428(12) 0.4279(12) 0.697(2)
H37? H 0.31080 0.40890 0.71750
H38? H 0.33900 0.43240 0.64940
H39? H 0.36100 0.41090 0.70220
H40? H 0.35350 0.49690 0.72670
H41? H 0.37570 0.47530 0.77990
H42? H 0.44940 0.73830 0.81170
H43? H 0.43500 0.68360 0.78890
H44? H 0.43500 0.74410 0.78420
H45? H 0.44740 0.70520 0.81620
C30? C 0.5143(13) 0.7180(15) 0.740(2)
H46? H 0.54040 0.73330 0.70700
H47? H 0.52780 0.72690 0.78490
H48? H 0.49790 0.68280 0.73480
C31? C 0.4201(16) 0.5967(17) 0.893(2)
H49? H 0.45320 0.62500 0.89220
H50? H 0.40430 0.59760 0.93510
H51? H 0.42480 0.56700 0.88870
C32? C 0.4806(12) 0.7341(15) 0.7295(18)
H52? H 0.46900 0.72660 0.68280
H53? H 0.49860 0.76980 0.73400
H54? H 0.49990 0.71950 0.74310
C33? C 0.4220(15) 0.5497(16) 0.888(2)
H55? H 0.43970 0.54740 0.92690
H56? H 0.38900 0.52200 0.88840
H57? H 0.43840 0.54970 0.84720
N2? N 0.3534(7) 0.6562(9) 0.7903(9)
C34? C 0.4389(8) 0.7152(10) 0.7740(12)
C35? C 0.3923(10) 0.5987(11) 0.8325(14)
H58? H 0.41260 0.60610 0.79210
H59? H 0.36280 0.56690 0.82610
C36? C 0.3864(9) 0.7066(12) 0.7400(14)
H60? H 0.37590 0.68290 0.70310
H61? H 0.40070 0.74050 0.72030
C37? C 0.3986(9) 0.6794(11) 0.7380(14)
H62? H 0.40470 0.65220 0.71500
H63? H 0.39510 0.69630 0.70170
C38? C 0.3534(7) 0.6562(9) 0.7903(9)
H64? H 0.36820 0.67680 0.83000
H65? H 0.35430 0.62440 0.80060
C39? C 0.3780(11) 0.6382(11) 0.8424(14)
H66? H 0.40810 0.66760 0.85630
H67? H 0.35640 0.62770 0.88190
C1A C 0.4276(3) 0.7500(3) 0.0000(4)
C2A C 0.4095(3) 0.7633(3) 0.0624(4)
C3A C 0.4396(3) 0.8096(3) 0.0918(4)
C4A C 0.4848(3) 0.8429(3) 0.0658(4)
C5A C 0.5041(3) 0.8282(3) 0.0055(4)
C6A C 0.4739(3) 0.7822(3) -0.0247(4)
C7A C 0.6351(3) 0.9232(3) 0.1581(4)
C8A C 0.6409(3) 0.9734(3) 0.1574(4)
C9A C 0.6692(2) 1.0066(3) 0.2067(4)
C10A C 0.6904(2) 0.9945(4) 0.2591(4)
C11A C 0.6839(2) 0.9437(4) 0.2610(4)
C12A C 0.6569(3) 0.9112(3) 0.2098(4)
F1A F 0.49141(20) 0.76961(19) -0.0797(3)
F2A F 0.42247(19) 0.82161(18) 0.1481(3)
F3A F 0.67470(17) 1.05285(20) 0.2069(3)
F4A F 0.65180(17) 0.86538(20) 0.2101(2)
Fe1A Fe 0.58212(4) 0.92368(4) 0.04189(6)
O1A O 0.3977(2) 0.7078(2) -0.0267(3)
O2A O 0.36776(20) 0.73056(19) 0.0849(3)
O3A O 0.54792(20) 0.85912(19) -0.0136(3)
O4A O 0.5133(2) 0.8865(2) 0.0883(3)
O5A O 0.6103(2) 0.8951(2) 0.1089(3)
O6A O 0.61724(18) 0.98079(19) 0.1095(3)
O7A O 0.71609(20) 1.02309(27) 0.3088(3)
O8A O 0.70409(19) 0.93409(27) 0.3121(3)
C1B C 0.2500(3) 0.6776(3) 0.0000(4)
C2B C 0.2367(3) 0.6462(3) 0.0624(4)
C3B C 0.1904(3) 0.6300(3) 0.0918(4)
C4B C 0.1571(3) 0.6419(3) 0.0658(4)
C5B C 0.1718(3) 0.6759(3) 0.0055(4)
C6B C 0.2178(3) 0.6917(3) -0.0247(4)
C7B C 0.0768(3) 0.7119(3) 0.1581(4)
C8B C 0.0266(3) 0.6675(3) 0.1574(4)
C9B C -0.0066(2) 0.6626(3) 0.2067(4)
C10B C 0.0055(2) 0.6959(4) 0.2591(4)
C11B C 0.0563(2) 0.7402(4) 0.2610(4)
C12B C 0.0888(3) 0.7457(3) 0.2098(4)
F1B F 0.23039(20) 0.72180(19) -0.0797(3)
F2B F 0.17839(19) 0.60086(18) 0.1481(3)
F3B F -0.05285(17) 0.62185(20) 0.2069(3)
F4B F 0.13462(17) 0.78642(20) 0.2101(2)
Fe1B Fe 0.07632(4) 0.65844(4) 0.04189(6)
O1B O 0.2922(2) 0.6899(2) -0.0267(3)
O2B O 0.26944(20) 0.63720(19) 0.0849(3)
O3B O 0.14088(20) 0.68880(19) -0.0136(3)
O4B O 0.1135(2) 0.6268(2) 0.0883(3)
O5B O 0.1049(2) 0.7152(2) 0.1089(3)
O6B O 0.01921(18) 0.63645(19) 0.1095(3)
O7B O -0.02309(20) 0.69300(27) 0.3088(3)
O8B O 0.06591(19) 0.77000(27) 0.3121(3)
Fe1F Fe 0.008227(40) 0.751213(40) 0.375223(60)
Fe1G Fe 0.248787(40) 0.257013(40) 0.375223(60)
Fe1H Fe 0.742987(40) 0.991773(40) 0.375223(60)
O7L O 0.640333(200) 0.950577(270) -0.024533(300)
O7M O 0.049423(200) 0.689757(270) -0.024533(300)
O7N O 0.310243(200) 0.359667(270) -0.024533(300)
O8L O 0.563333(190) 0.962577(270) -0.021233(300)
O8M O 0.037423(190) 0.600757(270) -0.021233(300)
O8N O 0.399243(190) 0.436667(270) -0.021233(300)
#END
