
#######################################################################
#
#                 Cambridge Crystallographic Data Centre
#                                CCDC
#
#######################################################################
#
# If this CIF has been generated from an entry in the Cambridge
# Structural Database, then it will include bibliographic, chemical,
# crystal, experimental, refinement or atomic coordinate data resulting
# from the CCDC's data processing and validation procedures.
#
#######################################################################

data_CSD_CIF_XECVAF
_audit_creation_date 2017-07-20
_audit_creation_method CSD-ConQuest-V1
_database_code_CSD XECVAF
_database_code_depnum_ccdc_archive 'CCDC 1545609'
_chemical_formula_sum 'C100 H144 F12 N4 O24 Zn4'
_chemical_formula_moiety
;
(C36 F12 O24 Zn4 4-)n,4n(C16 H36 N1 1+)
;
_journal_coden_Cambridge 9
_journal_volume 56
_journal_year 2017
_journal_page_first 9025
_journal_name_full 'Inorg.Chem. '
loop_
_publ_author_name
"R.Murase"
"B.F.Abrahams"
"D.M.DAlessandro"
"C.G.Davies"
"T.A.Hudson"
"G.N.L.Jameson"
"B.Moubaraki"
"K.S.Murray"
"R.Robson"
"A.L.Sutton"
_chemical_name_systematic
;
catena-(tetrakis(tetra-n-butylammonium) hexakis(\m-fluoranilate)-tetra-zinc)
;
_cell_volume  16693.623
_exptl_crystal_colour 'red'
_exptl_crystal_density_diffrn 1.358
_exptl_crystal_description 'polyhedron'
_diffrn_ambient_temperature 100
_diffrn_radiation_probe x-ray
_diffrn_source synchrotron
_refine_special_details
;
C28B and C28A disordered over two sites with occupancies 0.5:0.5; 
C30,C31,C32,C35,C36,C37 and C33,C34,C38,C39,N2 disordered over two sites with 
occupancies 0.6667:0.3333.
;
#These two values have been output from a single CSD field.
_refine_ls_R_factor_gt 0.0777
_refine_ls_wR_factor_gt 0.0777
_symmetry_cell_setting rhombohedral
_symmetry_space_group_name_H-M 'R 3 c'
_symmetry_Int_Tables_number 161
loop_
_symmetry_equiv_pos_site_id
_symmetry_equiv_pos_as_xyz
1 x,y,z
2 -y,x-y,z
3 -x+y,-x,z
4 -y,-x,1/2+z
5 -x+y,y,1/2+z
6 x,x-y,1/2+z
7 2/3+x,1/3+y,1/3+z
8 2/3-y,1/3+x-y,1/3+z
9 2/3-x+y,1/3-x,1/3+z
10 2/3-y,1/3-x,5/6+z
11 2/3-x+y,1/3+y,5/6+z
12 2/3+x,1/3+x-y,5/6+z
13 1/3+x,2/3+y,2/3+z
14 1/3-y,2/3+x-y,2/3+z
15 1/3-x+y,2/3-x,2/3+z
16 1/3-y,2/3-x,1/6+z
17 1/3-x+y,2/3+y,1/6+z
18 1/3+x,2/3+x-y,1/6+z
_cell_length_a 31.272(4)
_cell_length_b 31.272(4)
_cell_length_c 19.711(2)
_cell_angle_alpha 90
_cell_angle_beta 90
_cell_angle_gamma 120
_cell_formula_units_Z 6
loop_
_atom_type_symbol
_atom_type_radius_bond
C 0.68
H 0.23
F 0.64
N 0.68
O 0.68
Zn 1.22
loop_
_atom_site_label
_atom_site_type_symbol
_atom_site_fract_x
_atom_site_fract_y
_atom_site_fract_z
C1 C 0.6787(3) 0.4273(3) 1.0021(4)
C2 C 0.6466(3) 0.4094(3) 0.9385(4)
C3 C 0.6308(3) 0.4393(3) 0.9078(4)
C4 C 0.6422(3) 0.4843(3) 0.9329(4)
C5 C 0.6774(3) 0.5049(3) 0.9946(4)
C6 C 0.6924(3) 0.4741(3) 1.0261(4)
C7 C 0.7136(3) 0.6358(3) 0.8417(4)
C8 C 0.6677(3) 0.6416(3) 0.8430(4)
C9 C 0.6624(3) 0.6693(3) 0.7930(4)
C10 C 0.6964(3) 0.6919(4) 0.7407(4)
C11 C 0.7420(3) 0.6848(4) 0.7383(4)
C12 C 0.7474(3) 0.6584(3) 0.7910(4)
F1 F 0.7225(2) 0.49215(18) 1.0812(2)
F2 F 0.6020(2) 0.42207(18) 0.8516(3)
F3 F 0.62145(17) 0.67491(19) 0.7925(3)
F4 F 0.78825(19) 0.6533(2) 0.7898(2)
Zn1 Zn 0.65832(3) 0.58132(3) 0.95694(4)
Zn2 Zn 0.66670 0.33330 0.97547(7)
O1 O 0.6903(2) 0.3981(2) 1.0295(3)
O2 O 0.6366(2) 0.3672(2) 0.9155(3)
O3 O 0.6897(2) 0.54747(19) 1.0141(3)
O4 O 0.6274(2) 0.5125(2) 0.9093(3)
O5 O 0.7170(2) 0.6112(2) 0.8894(3)
O6 O 0.6364(2) 0.6188(2) 0.8893(3)
O7 O 0.6922(2) 0.71619(28) 0.6917(3)
O8 O 0.7714(2) 0.7048(3) 0.6889(3)
C13 C 0.4708(4) 0.5173(4) 0.2848(7)
H1 H 0.49130 0.55180 0.29720
H2 H 0.47080 0.51560 0.23570
C14 C 0.4193(3) 0.5012(4) 0.3071(6)
H3 H 0.41960 0.51070 0.35400
H4 H 0.39950 0.46550 0.30440
C15 C 0.3955(4) 0.5242(5) 0.2627(8)
H5 H 0.41810 0.55950 0.25910
H6 H 0.39020 0.51030 0.21750
C16 C 0.3468(5) 0.5156(6) 0.2908(9)
H7 H 0.33360 0.53070 0.26150
H8 H 0.32400 0.48080 0.29360
H9 H 0.35190 0.52990 0.33530
C17 C 0.4671(5) 0.4353(4) 0.2834(8)
H10 H 0.48100 0.41720 0.30510
H11 H 0.43290 0.42020 0.29750
C18 C 0.4680(5) 0.4286(5) 0.2095(8)
H12 H 0.50190 0.44570 0.19380
H13 H 0.45080 0.44320 0.18700
C19 C 0.4445(5) 0.3756(5) 0.1906(8)
H14 H 0.41110 0.35870 0.20850
H15 H 0.46250 0.36160 0.21260
C20 C 0.4420(6) 0.3648(6) 0.1146(8)
H16 H 0.42630 0.32980 0.10760
H17 H 0.42330 0.37740 0.09220
H18 H 0.47480 0.38040 0.09630
C21 C 0.4933(5) 0.4872(4) 0.3882(6)
H19 H 0.50910 0.46900 0.40330
H20 H 0.45900 0.46880 0.40240
C22 C 0.5179(5) 0.5372(5) 0.4228(8)
H21 H 0.50670 0.55810 0.40210
H22 H 0.55340 0.55310 0.41710
C23 C 0.5052(8) 0.5311(6) 0.4987(9)
H23 H 0.46960 0.51470 0.50420
H24 H 0.51660 0.51050 0.51930
C24 C 0.5282(9) 0.5795(8) 0.5337(9)
H25 H 0.51960 0.57450 0.58100
H26 H 0.56340 0.59550 0.52900
H27 H 0.51640 0.59970 0.51390
C25 C 0.5487(4) 0.5169(4) 0.2866(6)
H28 H 0.54870 0.51800 0.23750
H29 H 0.56470 0.55070 0.30300
C26 C 0.5787(4) 0.4937(5) 0.3089(6)
H30 H 0.56090 0.45870 0.29870
H31 H 0.58410 0.49760 0.35760
C27 C 0.6204(8) 0.4957(10) 0.1963(13)
H32 H 0.65120 0.51070 0.17200
H33 H 0.60750 0.46070 0.19930
H34 H 0.59730 0.50200 0.17260
C28 C 0.6293(5) 0.5188(6) 0.2716(7)
H35 H 0.65270 0.51280 0.29580
H36 H 0.64240 0.55420 0.26910
N1 N 0.4951(4) 0.4898(4) 0.3117(7)
C29? C 0.6608(12) 0.5735(12) 0.3023(17)
H37? H 0.69250 0.59040 0.28060
H38? H 0.64350 0.59120 0.29470
H39? H 0.66520 0.57140 0.35020
H40? H 0.62450 0.52030 0.22320
H41? H 0.64620 0.50040 0.27900
H42? H 0.55510 0.26850 0.18680
H43? H 0.56950 0.32320 0.20960
H44? H 0.56940 0.26270 0.21430
H45? H 0.55700 0.30160 0.18230
C30? C 0.4872(11) 0.2837(16) 0.258(2)
H46? H 0.46030 0.26710 0.28930
H47? H 0.50230 0.31870 0.26390
H48? H 0.47480 0.27520 0.21230
C31? C 0.5792(13) 0.3997(15) 0.1133(16)
H49? H 0.54620 0.37140 0.11420
H50? H 0.59510 0.39880 0.07130
H51? H 0.57220 0.43360 0.11770
C32? C 0.5194(10) 0.2702(15) 0.2685(16)
H52? H 0.53100 0.27760 0.31520
H53? H 0.50140 0.23450 0.26390
H54? H 0.50430 0.28050 0.25490
C33? C 0.5782(13) 0.4515(14) 0.1100(17)
H55? H 0.55790 0.45030 0.07280
H56? H 0.56500 0.45590 0.15160
H57? H 0.61120 0.47850 0.10370
N2? N 0.6463(6) 0.3436(7) 0.2144(8)
C34? C 0.5656(7) 0.2916(10) 0.2246(11)
C35? C 0.6106(9) 0.4013(10) 0.1708(11)
H58? H 0.59280 0.39580 0.21320
H59? H 0.64040 0.43340 0.17280
C36? C 0.6119(8) 0.2918(11) 0.2599(11)
H60? H 0.62230 0.31550 0.29680
H61? H 0.59750 0.25790 0.27960
C37? C 0.6044(8) 0.3205(9) 0.2605(12)
H62? H 0.59820 0.34770 0.28340
H63? H 0.60780 0.30360 0.29670
C38? C 0.6463(6) 0.3436(7) 0.2144(8)
H64? H 0.63150 0.32300 0.17480
H65? H 0.64540 0.37550 0.20410
C39? C 0.6239(9) 0.3608(9) 0.1599(11)
H66? H 0.59390 0.33160 0.14510
H67? H 0.64650 0.37120 0.12180
C1A C 0.5727(3) 0.2514(3) 1.0021(4)
C2A C 0.5906(3) 0.2372(3) 0.9385(4)
C3A C 0.5607(3) 0.1915(3) 0.9078(4)
C4A C 0.5157(3) 0.1579(3) 0.9329(4)
C5A C 0.4951(3) 0.1725(3) 0.9946(4)
C6A C 0.5259(3) 0.2183(3) 1.0261(4)
C7A C 0.3642(3) 0.0778(3) 0.8417(4)
C8A C 0.3584(3) 0.0261(3) 0.8430(4)
C9A C 0.3307(3) -0.0069(3) 0.7930(4)
C10A C 0.3081(3) 0.0045(4) 0.7407(4)
C11A C 0.3152(3) 0.0572(4) 0.7383(4)
C12A C 0.3416(3) 0.0890(3) 0.7910(4)
F1A F 0.50785(20) 0.23035(18) 1.0812(2)
F2A F 0.57793(20) 0.17993(18) 0.8516(3)
F3A F 0.32509(17) -0.05346(19) 0.7925(3)
F4A F 0.34670(19) 0.13495(20) 0.7898(2)
Zn1A Zn 0.41868(3) 0.07700(3) 0.95694(4)
O1A O 0.6019(2) 0.2922(2) 1.0295(3)
O2A O 0.6328(2) 0.2694(2) 0.9155(3)
O3A O 0.45253(20) 0.14223(19) 1.0141(3)
O4A O 0.4875(2) 0.1149(2) 0.9093(3)
O5A O 0.3888(2) 0.1058(2) 0.8894(3)
O6A O 0.3812(2) 0.0176(2) 0.8893(3)
O7A O 0.28381(20) -0.02399(28) 0.6917(3)
O8A O 0.2952(2) 0.0666(3) 0.6889(3)
C1B C 0.7486(3) 0.3213(3) 1.0021(4)
C2B C 0.7628(3) 0.3534(3) 0.9385(4)
C3B C 0.8085(3) 0.3692(3) 0.9078(4)
C4B C 0.8421(3) 0.3578(3) 0.9329(4)
C5B C 0.8275(3) 0.3226(3) 0.9946(4)
C6B C 0.7817(3) 0.3076(3) 1.0261(4)
C7B C 0.9222(3) 0.2864(3) 0.8417(4)
C8B C 0.9739(3) 0.3323(3) 0.8430(4)
C9B C 1.0069(3) 0.3376(3) 0.7930(4)
C10B C 0.9955(3) 0.3036(4) 0.7407(4)
C11B C 0.9428(3) 0.2580(4) 0.7383(4)
C12B C 0.9110(3) 0.2526(3) 0.7910(4)
F1B F 0.76965(20) 0.27750(18) 1.0812(2)
F2B F 0.82007(20) 0.39800(18) 0.8516(3)
F3B F 1.05346(17) 0.37855(19) 0.7925(3)
F4B F 0.86505(19) 0.21175(20) 0.7898(2)
Zn1B Zn 0.92300(3) 0.34168(3) 0.95694(4)
O1B O 0.7078(2) 0.3097(2) 1.0295(3)
O2B O 0.7306(2) 0.3634(2) 0.9155(3)
O3B O 0.85777(20) 0.31030(19) 1.0141(3)
O4B O 0.8851(2) 0.3726(2) 0.9093(3)
O5B O 0.8942(2) 0.2830(2) 0.8894(3)
O6B O 0.9824(2) 0.3636(2) 0.8893(3)
O7B O 1.02399(20) 0.30780(28) 0.6917(3)
O8B O 0.9334(2) 0.2286(3) 0.6889(3)
Zn1L Zn 0.991653(30) 0.247987(30) 0.623607(40)
Zn1M Zn 0.752013(30) 0.743667(30) 0.623607(40)
Zn1N Zn 0.256333(30) 0.008347(30) 0.623607(40)
O7F O 0.358867(200) 0.049523(280) 1.025033(300)
O7G O 0.950477(200) 0.309343(280) 1.025033(300)
O7H O 0.690657(200) 0.641133(280) 1.025033(300)
O8F O 0.438067(200) 0.038133(300) 1.022233(300)
O8G O 0.961867(200) 0.399933(300) 1.022233(300)
O8H O 0.600067(200) 0.561933(300) 1.022233(300)
#END
