
#######################################################################
#
#                 Cambridge Crystallographic Data Centre
#                                CCDC
#
#######################################################################
#
# If this CIF has been generated from an entry in the Cambridge
# Structural Database, then it will include bibliographic, chemical,
# crystal, experimental, refinement or atomic coordinate data resulting
# from the CCDC's data processing and validation procedures.
#
#######################################################################

data_CSD_CIF_XEGROR
_audit_creation_date 2006-06-06
_audit_creation_method CSD-ConQuest-V1
_database_code_CSD XEGROR
_database_code_depnum_ccdc_archive 'CCDC 196616'
_chemical_formula_sum 'C40 H42 Cd4 N6 O31'
_chemical_formula_moiety
;
(C20 H16 Cd4 O28 2-)n,2n(C10 H10 N3 1+),3n(H2 O1)
;
_journal_coden_Cambridge 1290
_journal_year 2006
_journal_page_first 820
_journal_name_full 'Eur.J.Inorg.Chem. '
loop_
_publ_author_name
"Chih-Chieh Wang"
"Cheng-Han Yang"
"Gene-Hsiang Lee"
_chemical_name_systematic
;
catena-(bis(2-(2-pyridylamino)pyridinium) 
(\m~4~-squarato-O,O',O'',O''')-tetrakis(\m~3~-squarato-O,O',O'')-octa-aqua-tet
ra-cadmium(ii) trihydrate)
;
_cell_volume   1273.250
_exptl_crystal_colour 'colorless'
_exptl_crystal_density_diffrn 2.025
_exptl_crystal_description 'needle'
_diffrn_ambient_temperature 295
_refine_special_details
;
The structure is disordered.

;
#These two values have been output from a single CSD field.
_refine_ls_R_factor_gt 0.0243
_refine_ls_wR_factor_gt 0.0243
_symmetry_cell_setting triclinic
_symmetry_space_group_name_H-M 'P -1'
_symmetry_Int_Tables_number 2
loop_
_symmetry_equiv_pos_site_id
_symmetry_equiv_pos_as_xyz
1 x,y,z
2 -x,-y,-z
_cell_length_a 8.4341(2)
_cell_length_b 8.4570(2)
_cell_length_c 18.0891(4)
_cell_angle_alpha 81.0679(4)
_cell_angle_beta 88.2877(4)
_cell_angle_gamma 87.7564(4)
_cell_formula_units_Z 1
loop_
_atom_type_symbol
_atom_type_radius_bond
C 0.68
H 0.23
Cd 1.69
N 0.68
O 0.68
loop_
_atom_site_label
_atom_site_type_symbol
_atom_site_fract_x
_atom_site_fract_y
_atom_site_fract_z
Cd1 Cd 0.47657(2) -0.58968(3) 0.237840(12)
Cd2 Cd 0.50000 0.00000 0.00000
Cd3 Cd 0.00000 0.50000 0.00000
O1 O 0.4875(3) -0.3199(3) 0.18527(12)
O2 O 0.4884(3) 0.0602(3) 0.11781(12)
O3 O 0.4409(3) 0.1456(3) 0.28538(12)
O4 O 0.4231(3) -0.2289(3) 0.35139(13)
O5 O 0.2292(2) -0.5754(3) 0.18564(12)
O6 O -0.1215(3) -0.5550(3) 0.11733(12)
O7 O -0.2746(2) -0.6016(3) 0.28687(12)
O8 O 0.0751(3) -0.6188(3) 0.35346(12)
O9 O 0.2516(2) -0.1116(3) 0.00947(15)
O10 O 0.1000(3) 0.2438(3) 0.00799(16)
O11 O 0.3794(3) -0.5339(3) 0.34876(13)
H1 H 0.391(4) -0.431(2) 0.351(2)
H2 H 0.274(2) -0.544(4) 0.349(2)
O12 O 0.5633(3) -0.6310(3) 0.12428(14)
H3 H 0.666(2) -0.625(5) 0.124(2)
H4 H 0.550(5) -0.734(2) 0.122(2)
O13 O 0.5777(3) -0.2545(3) 0.03683(15)
H5 H 0.565(5) -0.290(5) 0.0844(12)
H6 H 0.669(3) -0.282(5) 0.019(2)
O14 O 0.2395(3) 0.5537(3) 0.03762(14)
H7 H 0.253(5) 0.518(5) 0.0867(12)
H8 H 0.267(5) 0.652(3) 0.030(2)
C1 C 0.4683(4) -0.1913(4) 0.21250(17)
C2 C 0.4716(4) -0.0221(4) 0.18191(17)
C3 C 0.4490(4) 0.0204(4) 0.25672(17)
C4 C 0.4421(4) -0.1509(4) 0.28792(17)
C5 C 0.0910(4) -0.5816(4) 0.21342(17)
C6 C -0.0669(4) -0.5732(4) 0.18206(18)
C7 C -0.1376(4) -0.5954(4) 0.25786(17)
C8 C 0.0212(4) -0.6032(4) 0.28878(18)
C9 C 0.1145(3) -0.0499(4) 0.00442(18)
C10 C 0.0437(4) 0.1109(4) 0.00315(18)
N1 N 0.7775(4) 0.9642(4) 0.57161(16)
H9 H 0.788(5) 0.939(5) 0.613(2)
N2 N 0.9339(4) 1.1839(4) 0.57821(17)
H10 H 0.96750 1.27250 0.55420
N3 N 0.9161(4) 1.0231(4) 0.69493(17)
C11 C 0.6887(4) 0.8737(4) 0.5348(2)
H11 H 0.64640 0.77980 0.56000
C12 C 0.6617(5) 0.9202(5) 0.4614(2)
H12 H 0.60190 0.85810 0.43540
C13 C 0.7242(5) 1.0618(5) 0.4252(2)
H13 H 0.70420 1.09550 0.37490
C14 C 0.8142(5) 1.1515(5) 0.4626(2)
H14 H 0.85680 1.24590 0.43810
C15 C 0.8422(4) 1.1000(4) 0.5388(2)
C16 C 0.9811(4) 1.1459(4) 0.6525(2)
C17 C 1.0943(5) 1.2395(5) 0.6780(2)
H15 H 1.13790 1.32540 0.64670
C18 C 1.1387(5) 1.2004(5) 0.7505(3)
H16 H 1.21450 1.25920 0.76950
C19 C 1.0714(6) 1.0748(5) 0.7952(3)
H17 H 1.10010 1.04790 0.84490
C20 C 0.9617(5) 0.9889(5) 0.7663(2)
H18 H 0.91650 0.90340 0.79720
O15 O -0.3330(11) 0.5039(11) 0.4419(5)
O16? O 0.9538(6) 0.5206(8) 0.5061(4)
O17? O -0.393(2) 0.491(2) 0.4798(11)
Cd1A Cd 0.52343(2) 0.58968(3) -0.237840(12)
Cd1* Cd 0.47657(2) 0.41032(3) 0.237840(12)
Cd1** Cd -0.52343(2) -0.58968(3) 0.237840(12)
Cd1A* Cd 0.52343(2) -0.41032(3) -0.237840(12)
Cd1*** Cd 1.47657(2) -0.58968(3) 0.237840(12)
Cd2* Cd -0.50000 0.00000 0.00000
Cd3* Cd 0.00000 -0.50000 0.00000
Cd3** Cd 1.00000 -0.50000 0.00000
O1A O 0.5125(3) 0.3199(3) -0.18527(12)
O2A O 0.5116(3) -0.0602(3) -0.11781(12)
O3A O 0.5591(3) -0.1456(3) -0.28538(12)
O3* O 0.4409(3) -0.8544(3) 0.28538(12)
O3A* O 0.5591(3) 0.8544(3) -0.28538(12)
O4A O 0.5769(3) 0.2289(3) -0.35139(13)
O5* O 1.2292(2) -0.5754(3) 0.18564(12)
O5A O 0.7708(2) 0.5754(3) -0.18564(12)
O6* O 0.8785(3) -0.5550(3) 0.11733(12)
O6** O -0.1215(3) 0.4450(3) 0.11733(12)
O6A O 0.1215(3) 0.5550(3) -0.11733(12)
O7* O 0.7254(2) -0.6016(3) 0.28687(12)
O7A O 0.2746(2) 0.6016(3) -0.28687(12)
O8* O 1.0751(3) -0.6188(3) 0.35346(12)
O9A O -0.2516(2) 0.1116(3) -0.00947(15)
O9A* O 0.7484(2) 0.1116(3) -0.00947(15)
O10A O -0.1000(3) -0.2438(3) -0.00799(16)
O10A* O -0.1000(3) 0.7562(3) -0.00799(16)
O11A O 0.6206(3) 0.5339(3) -0.34876(13)
H1A H 0.609(4) 0.431(2) -0.351(2)
H2A H 0.726(2) 0.544(4) -0.349(2)
O12A O 0.4367(3) 0.6310(3) -0.12428(14)
H3A H 0.334(2) 0.625(5) -0.124(2)
H4A H 0.450(5) 0.734(2) -0.122(2)
O13A O 0.4223(3) 0.2545(3) -0.03683(15)
H5A H 0.435(5) 0.290(5) -0.0844(12)
H6A H 0.331(3) 0.282(5) -0.019(2)
O14A O -0.2395(3) 0.4463(3) -0.03762(14)
H7A H -0.253(5) 0.482(5) -0.0867(12)
H8A H -0.267(5) 0.348(3) -0.030(2)
C1A C 0.5317(4) 0.1913(4) -0.21250(17)
C2A C 0.5284(4) 0.0221(4) -0.18191(17)
C3A C 0.5510(4) -0.0204(4) -0.25672(17)
C4A C 0.5579(4) 0.1509(4) -0.28792(17)
C5* C 1.0910(4) -0.5816(4) 0.21342(17)
C6* C 0.9331(4) -0.5732(4) 0.18206(18)
C7* C 0.8624(4) -0.5954(4) 0.25786(17)
C8* C 1.0212(4) -0.6032(4) 0.28878(18)
C9A C -0.1145(3) 0.0499(4) -0.00442(18)
C10A C -0.0437(4) -0.1109(4) -0.00315(18)
#END
