
#######################################################################
#
#                 Cambridge Crystallographic Data Centre
#                                CCDC
#
#######################################################################
#
# If this CIF has been generated from an entry in the Cambridge
# Structural Database, then it will include bibliographic, chemical,
# crystal, experimental, refinement or atomic coordinate data resulting
# from the CCDC's data processing and validation procedures.
#
#######################################################################

data_CSD_CIF_XEHXEN
_audit_creation_date 2001-02-28
_audit_creation_method CSD-ConQuest-V1
_database_code_CSD XEHXEN
_database_code_depnum_ccdc_archive 'CCDC 133861'
_chemical_formula_sum 'C32 H50 Cl9 Ir1 N4 O8 Rh2'
_chemical_formula_moiety
;
(C8 H20 N1 1+)n,n(C21 H27 Ir1 N3 O8 Rh2 1-),3n(C1 H1 Cl3)
;
_journal_coden_Cambridge 9
_journal_volume 39
_journal_year 2000
_journal_page_first 2069
_journal_name_full 'Inorg.Chem. '
loop_
_publ_author_name
"S.M.Contakes"
"K.K.Klausmeyer"
"T.B.Rauchfuss"
_chemical_name_systematic
;
catena-(Tetraethylammonium 
tetrakis(\m~2~-acetato)-bis(\m~2~-cyano)-cyano-(\h^5^-pentamethyl-cyclopentadi
enyl)-iridium-di-rhodium chloroform solvate)
;
_cell_volume   5014.588
_exptl_crystal_colour 'purple'
_exptl_crystal_density_diffrn 1.746
_exptl_crystal_preparation 'diethyl ether/chloroform'
_diffrn_ambient_temperature 198
#These two values have been output from a single CSD field.
_refine_ls_R_factor_gt 0.0626
_refine_ls_wR_factor_gt 0.0626
_symmetry_cell_setting orthorhombic
_symmetry_space_group_name_H-M 'P 21 21 21'
_symmetry_Int_Tables_number 19
loop_
_symmetry_equiv_pos_site_id
_symmetry_equiv_pos_as_xyz
1 x,y,z
2 1/2-x,-y,1/2+z
3 1/2+x,1/2-y,-z
4 -x,1/2+y,1/2-z
_cell_length_a 13.2631(5)
_cell_length_b 18.3666(6)
_cell_length_c 20.5855(7)
_cell_angle_alpha 90
_cell_angle_beta 90
_cell_angle_gamma 90
_cell_formula_units_Z 4
loop_
_atom_type_symbol
_atom_type_radius_bond
C 0.68
H 0.23
Cl 0.99
Ir 1.32
N 0.68
O 0.68
Rh 1.40
loop_
_atom_site_label
_atom_site_type_symbol
_atom_site_fract_x
_atom_site_fract_y
_atom_site_fract_z
Ir1 Ir -0.52038(5) 0.54245(4) 0.01197(3)
C1 C -0.53423(5) 0.64664(4) -0.04738(3)
C2 C -0.47904(5) 0.66628(4) 0.00907(3)
C3 C -0.54145(5) 0.65358(4) 0.06396(3)
C4 C -0.63521(5) 0.62609(4) 0.04143(3)
C5 C -0.63075(5) 0.62180(4) -0.02738(3)
C6 C -0.49685(5) 0.65134(4) -0.11652(3)
H1 H -0.49539(5) 0.70241(4) -0.13025(3)
H2 H -0.54215(5) 0.62381(4) -0.14500(3)
H3 H -0.42876(5) 0.63084(4) -0.11917(3)
C7 C -0.37271(5) 0.69553(4) 0.01048(3)
H4 H -0.33520(5) 0.67225(4) 0.04585(3)
H5 H -0.37441(5) 0.74829(4) 0.01751(3)
H6 H -0.33949(5) 0.68504(4) -0.03100(3)
C8 C -0.51311(5) 0.66696(4) 0.13397(3)
H7 H -0.55123(5) 0.63380(4) 0.16205(3)
H8 H -0.52896(5) 0.71742(4) 0.14558(3)
H9 H -0.44075(5) 0.65834(4) 0.13975(3)
C9 C -0.72403(5) 0.60511(4) 0.08328(3)
H10 H -0.77448(5) 0.64408(4) 0.08220(3)
H11 H -0.70134(5) 0.59764(4) 0.12810(3)
H12 H -0.75395(5) 0.55999(4) 0.06673(3)
C10 C -0.71398(5) 0.59545(4) -0.07152(3)
H13 H -0.68558(5) 0.58235(4) -0.11388(3)
H14 H -0.76400(5) 0.63421(4) -0.07715(3)
H15 H -0.74640(5) 0.55268(4) -0.05218(3)
C11 C -0.4159(14) 0.5097(8) 0.0769(8)
N1 N -0.3545(11) 0.4966(8) 0.1151(6)
C12 C -0.6043(18) 0.4441(14) 0.0295(9)
N2 N -0.6465(17) 0.3932(13) 0.0370(12)
C13 C -0.4453(13) 0.4911(9) -0.0586(8)
N3 N -0.4007(10) 0.4661(8) -0.0997(6)
Rh1 Rh -0.18519(10) 0.52577(7) 0.30729(6)
Rh2 Rh -0.27110(11) 0.50825(7) 0.20578(6)
O1 O -0.1374(7) 0.4714(7) 0.1679(4)
O2 O -0.0572(8) 0.4894(6) 0.2638(5)
C14 C -0.0634(13) 0.4662(10) 0.2055(9)
C15 C 0.0333(14) 0.4358(9) 0.1763(8)
H16 H 0.0557(49) 0.3937(39) 0.2017(35)
H17 H 0.0858(29) 0.4734(22) 0.1770(51)
H18 H 0.0208(26) 0.4208(59) 0.1313(20)
O3 O -0.2365(8) 0.6141(6) 0.1826(5)
O4 O -0.1566(9) 0.6299(6) 0.2784(5)
C16 C -0.1925(15) 0.6509(10) 0.2225(10)
C17 C -0.1751(16) 0.7327(10) 0.2081(10)
H19 H -0.1036(23) 0.7444(19) 0.2141(63)
H20 H -0.2158(77) 0.7622(10) 0.2379(43)
H21 H -0.1948(96) 0.7433(18) 0.1632(22)
O5 O -0.3972(8) 0.5442(7) 0.2503(5)
O6 O -0.3182(8) 0.5615(6) 0.3450(5)
C18 C -0.3926(13) 0.5635(9) 0.3115(9)
C19 C -0.4881(13) 0.5994(9) 0.3354(8)
H22 H -0.5467(13) 0.5727(34) 0.3189(42)
H23 H -0.4906(40) 0.6498(20) 0.3197(43)
H24 H -0.4890(39) 0.5992(52) 0.3830(8)
O7 O -0.3040(9) 0.4055(6) 0.2349(5)
O8 O -0.2211(8) 0.4200(5) 0.3289(5)
C20 C -0.2727(13) 0.3828(9) 0.2880(9)
C21 C -0.2879(13) 0.3037(9) 0.3100(8)
H25 H -0.3132(78) 0.3030(9) 0.3547(20)
H26 H -0.2234(20) 0.2777(18) 0.3080(51)
H27 H -0.3367(62) 0.2797(19) 0.2813(33)
N4 N -0.3096(9) 0.2817(7) 0.0032(6)
C22 C -0.3879(13) 0.3279(9) 0.0237(8)
H28 H -0.4469(13) 0.3199(9) -0.0048(8)
H29 H -0.3659(13) 0.3789(9) 0.0178(8)
C23 C -0.4234(13) 0.3174(10) 0.0986(8)
H30 H -0.4916(30) 0.3369(47) 0.1040(13)
H31 H -0.3769(42) 0.3435(43) 0.1274(8)
H32 H -0.4231(68) 0.2655(10) 0.1096(16)
C24 C -0.3097(13) 0.2952(10) -0.0692(8)
H33 H -0.3074(13) 0.3483(10) -0.0774(8)
H34 H -0.3730(13) 0.2761(10) -0.0881(8)
C25 C -0.2200(13) 0.2589(9) -0.1026(8)
H35 H -0.2270(39) 0.2638(46) -0.1498(9)
H36 H -0.2181(43) 0.2072(15) -0.0909(38)
H37 H -0.1575(14) 0.2825(35) -0.0885(36)
C26 C -0.2163(13) 0.3077(9) 0.0354(8)
H38 H -0.2228(13) 0.2997(9) 0.0828(8)
H39 H -0.1589(13) 0.2780(9) 0.0199(8)
C27 C -0.1929(12) 0.3853(8) 0.0240(8)
H40 H -0.1245(30) 0.3958(15) 0.0394(41)
H41 H -0.2413(46) 0.4157(8) 0.0476(37)
H42 H -0.1973(67) 0.3958(14) -0.0226(10)
C28 C -0.3144(12) 0.2022(8) 0.0160(9)
H43 H -0.3116(12) 0.1938(8) 0.0634(9)
H44 H -0.2547(12) 0.1784(8) -0.0037(9)
C29 C -0.4135(11) 0.1656(9) -0.0123(9)
H45 H -0.4051(29) 0.1126(9) -0.0132(43)
H46 H -0.4256(40) 0.1835(39) -0.0564(19)
H47 H -0.4711(17) 0.1781(43) 0.0154(27)
C30 C -0.1220(17) 0.5916(12) 0.0287(11)
H48 H -0.1607(17) 0.5760(12) 0.0680(11)
Cl1 Cl -0.1854(5) 0.5648(3) -0.0345(2)
Cl2 Cl -0.0049(5) 0.5574(6) 0.0360(4)
Cl3 Cl -0.1149(8) 0.6875(4) 0.0306(4)
C31 C 0.0540(19) 0.6005(13) -0.2426(11)
H49 H -0.0048(19) 0.5819(13) -0.2681(11)
Cl4 Cl 0.0698(6) 0.6964(4) -0.2573(3)
Cl5 Cl 0.1551(6) 0.5540(6) -0.2610(5)
Cl6 Cl 0.0264(5) 0.5953(3) -0.1569(3)
C32 C -0.5803(16) 0.3663(11) -0.1989(10)
H50 H -0.5173(16) 0.3931(11) -0.1873(10)
Cl7 Cl -0.5721(5) 0.2781(4) -0.1700(3)
Cl8 Cl -0.5937(7) 0.3655(4) -0.2830(4)
Cl9 Cl -0.6817(7) 0.4112(6) -0.1667(7)
Rh1A Rh -0.31481(10) 0.47423(7) -0.19271(6)
N3A N -0.0993(10) 0.5339(8) 0.4003(6)
#END
