
#######################################################################
#
#                 Cambridge Crystallographic Data Centre
#                                CCDC
#
#######################################################################
#
# If this CIF has been generated from an entry in the Cambridge
# Structural Database, then it will include bibliographic, chemical,
# crystal, experimental, refinement or atomic coordinate data resulting
# from the CCDC's data processing and validation procedures.
#
#######################################################################

data_CSD_CIF_XEJGOL
_audit_creation_date 2017-11-15
_audit_creation_method CSD-ConQuest-V1
_database_code_CSD XEJGOL
_database_code_depnum_ccdc_archive 'CCDC 1552889'
_chemical_formula_sum 'C169 H199 Eu1 N12 O62 Ti4'
_chemical_formula_moiety
;
(C138 H78 Eu1 O39 Ti4 5-)n,5(C2 H8 N1 1+),7(C3 H7 N1 O1),16(H2 O1)
;
_journal_coden_Cambridge 4
_journal_volume 139
_journal_year 2017
_journal_page_first 16845
_journal_name_full 'J.Am.Chem.Soc. '
loop_
_publ_author_name
"Yan-Ping He"
"Lv-Bing Yuan"
"Guang-Hui Chen"
"Qi-Pu Lin"
"Fei Wang"
"Lei Zhang"
"Jian Zhang"
_chemical_name_systematic
;
catena-[pentakis(dimethylammonium) 
hexakis(\m-\m-4,4'-methylenebis(3-oxynaphthalene-2-carboxylato))-triaqua-europ
ium-tetra-titanium N,N-dimethylformamide solvate hexadecahydrate]
;
_chemical_name_common
;
PTC-106
;
_cell_volume  17595.679
_exptl_crystal_colour 'red'
_exptl_crystal_description 'polyhedron'
_diffrn_ambient_temperature 273
_refine_special_details
;
Disordered dimethylammonium ions and water and N,N-dimethylformamide solvent 
molecules were not modelled and the disordered density was taken into account 
using the SQUEEZE/PLATON procedure.
;
#These two values have been output from a single CSD field.
_refine_ls_R_factor_gt 0.0727
_refine_ls_wR_factor_gt 0.0727
_symmetry_cell_setting cubic
_symmetry_space_group_name_H-M 'P 21 3'
_symmetry_Int_Tables_number 198
loop_
_symmetry_equiv_pos_site_id
_symmetry_equiv_pos_as_xyz
1 x,y,z
2 1/2-x,-y,1/2+z
3 -x,1/2+y,1/2-z
4 1/2+x,1/2-y,-z
5 z,x,y
6 1/2+z,1/2-x,-y
7 1/2-z,-x,1/2+y
8 -z,1/2+x,1/2-y
9 y,z,x
10 -y,1/2+z,1/2-x
11 1/2+y,1/2-z,-x
12 1/2-y,-z,1/2+x
_cell_length_a 26.0097(2)
_cell_length_b 26.0097(2)
_cell_length_c 26.0097(2)
_cell_angle_alpha 90
_cell_angle_beta 90
_cell_angle_gamma 90
_cell_formula_units_Z 4
loop_
_atom_type_symbol
_atom_type_radius_bond
C 0.68
H 0.23
Eu 1.98
O 0.68
Ti 1.60
loop_
_atom_site_label
_atom_site_type_symbol
_atom_site_fract_x
_atom_site_fract_y
_atom_site_fract_z
Eu1 Eu 0.90575(2) 0.09425(2) 0.59425(2)
Ti1 Ti 1.01509(6) 0.22166(7) 0.56064(7)
Ti2 Ti 0.95763(8) 0.54237(8) 0.45763(8)
C1 C 0.9543(4) 0.4073(4) 0.7995(4)
C2 C 0.8371(4) 0.2708(4) 0.5412(4)
H1 H 0.81100 0.24800 0.54980
C3 C 1.0457(4) 0.2434(4) 0.6687(4)
C4 C 0.8989(4) 0.2025(4) 0.5652(4)
O1 O 0.9555(3) 0.4715(3) 0.4521(3)
C5 C 0.8877(4) 0.2559(4) 0.5454(4)
C6 C 0.9268(4) 0.2887(4) 0.5284(4)
C7 C 1.0601(5) 0.1512(4) 0.6430(5)
C8 C 0.8642(4) 0.3540(4) 0.5076(4)
C9 C 1.0495(4) 0.2825(4) 0.7047(4)
C10 C 0.9539(5) 0.2937(6) 0.4040(6)
H2 H 0.96060 0.28490 0.43800
C11 C 0.9623(5) 0.4538(6) 0.8335(5)
C12 C 0.9494(5) 0.3457(5) 0.3911(4)
C13 C 0.8250(4) 0.3199(4) 0.5241(4)
C14 C 0.9907(4) 0.3949(4) 0.7608(4)
C15 C 1.0640(4) 0.1947(4) 0.6817(4)
C16 C 0.9131(5) 0.3802(4) 0.8052(5)
H3 H 0.89000 0.38860 0.83110
C17 C 0.9380(6) 0.4100(8) 0.3287(5)
H4 H 0.93280 0.41810 0.29430
C18 C 0.9543(4) 0.3837(5) 0.4315(4)
C19 C 1.0867(5) 0.1855(4) 0.7263(5)
H5 H 1.09860 0.15240 0.73310
C20 C 1.0272(5) 0.3371(4) 0.6928(4)
H6 H 1.05480 0.36220 0.69490
H7 H 1.01400 0.33760 0.65800
C21 C 0.9502(4) 0.4337(5) 0.4170(4)
C22 C 0.7729(5) 0.3342(5) 0.5220(5)
H8 H 0.74680 0.31040 0.52720
C23 C 0.9383(4) 0.3251(4) 0.7335(4)
C24 C 0.8802(5) 0.2570(5) 0.7058(6)
H9 H 0.87330 0.22950 0.68410
C25 C 0.8459(5) 0.2685(5) 0.7447(7)
H10 H 0.81550 0.25000 0.74770
C26 C 0.9026(4) 0.3377(4) 0.7725(5)
C27 C 1.0770(4) 0.2743(5) 0.7512(4)
C28 C 0.9437(5) 0.4507(5) 0.3627(4)
C29 C 0.9159(4) 0.3369(4) 0.5091(4)
C30 C 0.8488(4) 0.4042(5) 0.4946(5)
H11 H 0.87410 0.42800 0.48610
C31 C 0.9238(5) 0.2850(4) 0.6987(5)
H12 H 0.94460 0.27800 0.67050
C32 C 0.9853(4) 0.3524(4) 0.7291(4)
C33 C 1.1133(6) 0.3021(7) 0.8324(5)
H13 H 1.12060 0.32790 0.85610
C34 C 0.8563(6) 0.3068(6) 0.7785(7)
H14 H 0.83380 0.31320 0.80560
C35 C 0.9589(4) 0.3696(4) 0.4884(4)
H15 H 0.99100 0.35150 0.49360
H16 H 0.96040 0.40110 0.50840
C36 C 0.7620(6) 0.3862(6) 0.5116(8)
H17 H 0.72890 0.39860 0.51680
C37 C 0.8000(6) 0.4195(5) 0.4938(6)
H18 H 0.79130 0.45190 0.48150
C38 C 1.0889(5) 0.3135(5) 0.7870(5)
H19 H 1.08010 0.34730 0.77960
C39 C 0.9394(6) 0.3571(6) 0.3420(6)
C40 C 1.1191(7) 0.2150(6) 0.8100(6)
H20 H 1.13060 0.18190 0.81720
C41 C 0.9366(8) 0.2706(9) 0.3156(8)
H21 H 0.93300 0.24620 0.28970
C42 C 0.9485(6) 0.2532(7) 0.3662(7)
H22 H 0.95250 0.21860 0.37430
C43 C 0.9397(6) 0.5014(8) 0.3478(6)
C44 C 0.9302(8) 0.3228(10) 0.3027(7)
H23 H 0.92030 0.33340 0.27000
C45 C 1.1275(7) 0.2497(7) 0.8427(6)
H24 H 1.14290 0.24130 0.87380
C46 C 1.0934(5) 0.2234(5) 0.7634(5)
O2 O 0.9014(3) 0.0081(3) 0.5609(3)
H25 H 0.88350 -0.00960 0.57980
O3 O 0.8621(3) 0.1725(3) 0.5734(3)
O4 O 0.9990(3) 0.4862(3) 0.8257(3)
O5 O 1.0219(2) 0.2535(3) 0.6246(3)
O6 O 1.0407(3) 0.1587(2) 0.5975(3)
O7 O 0.9765(2) 0.2730(3) 0.5315(3)
O8 O 0.9446(2) 0.1868(3) 0.5728(2)
O9 O 1.0726(5) 0.1085(3) 0.6543(4)
O10 O 0.9315(4) 0.4587(4) 0.8723(5)
O11 O 1.0343(3) 0.4223(2) 0.7557(3)
O12 O 0.9474(4) 0.5409(4) 0.3788(4)
O13 O 0.9365(6) 0.5135(5) 0.3017(4)
Ti1E Ti 1.06064(6) 0.48491(7) 0.77834(7)
C1E C 1.2995(4) 0.5457(4) 0.5927(4)
C2E C 1.0412(4) 0.6629(4) 0.7292(4)
H1E H 1.04980 0.68900 0.75200
C3E C 1.1687(4) 0.4543(4) 0.7566(4)
C4E C 1.0652(4) 0.6011(4) 0.7975(4)
O1E O 0.9521(3) 0.5445(3) 0.5285(3)
C5E C 1.0454(4) 0.6123(4) 0.7441(4)
C6E C 1.0284(4) 0.5732(4) 0.7113(4)
C7E C 1.1430(5) 0.4399(4) 0.8488(5)
C8E C 1.0076(4) 0.6358(4) 0.6460(4)
C9E C 1.2047(4) 0.4505(4) 0.7175(4)
C10E C 0.9040(5) 0.5461(6) 0.7063(6)
H2E H 0.93800 0.53940 0.71510
C11E C 1.3335(5) 0.5377(6) 0.5462(5)
C12E C 0.8911(5) 0.5506(5) 0.6543(4)
C13E C 1.0241(4) 0.6750(4) 0.6801(4)
C14E C 1.2608(4) 0.5093(4) 0.6051(4)
C15E C 1.1817(4) 0.4360(4) 0.8053(4)
C16E C 1.3052(5) 0.5869(4) 0.6198(5)
H3E H 1.33110 0.61000 0.61140
C17E C 0.8287(6) 0.5620(8) 0.5900(5)
H4E H 0.79430 0.56720 0.58190
C18E C 0.9315(4) 0.5457(5) 0.6163(4)
C19E C 1.2263(5) 0.4133(4) 0.8145(5)
H5E H 1.23310 0.40140 0.84760
C20E C 1.1928(5) 0.4728(4) 0.6629(4)
H6E H 1.19490 0.44520 0.63780
H7E H 1.15800 0.48600 0.66240
C21E C 0.9170(4) 0.5498(5) 0.5663(4)
C22E C 1.0220(5) 0.7271(5) 0.6658(5)
H8E H 1.02720 0.75320 0.68960
C23E C 1.2335(4) 0.5617(4) 0.6749(4)
C24E C 1.2058(5) 0.6198(5) 0.7430(6)
H9E H 1.18410 0.62670 0.77050
C25E C 1.2447(5) 0.6541(5) 0.7315(7)
H10E H 1.24770 0.68450 0.75000
C26E C 1.2725(4) 0.5974(4) 0.6623(5)
C27E C 1.2512(4) 0.4230(5) 0.7257(4)
C28E C 0.8627(5) 0.5563(5) 0.5493(4)
C29E C 1.0091(4) 0.5841(4) 0.6631(4)
C30E C 0.9946(4) 0.6512(5) 0.5958(5)
H11E H 0.98610 0.62590 0.57200
C31E C 1.1987(5) 0.5762(4) 0.7150(5)
H12E H 1.17050 0.55540 0.72200
C32E C 1.2291(4) 0.5147(4) 0.6476(4)
C33E C 1.3324(6) 0.3867(7) 0.6979(5)
H13E H 1.35610 0.37940 0.67210
C34E C 1.2785(6) 0.6437(6) 0.6932(7)
H14E H 1.30560 0.66620 0.68680
C35E C 0.9884(4) 0.5411(4) 0.6304(4)
H15E H 0.99360 0.50900 0.64850
H16E H 1.00840 0.53960 0.59890
C36E C 1.0116(6) 0.7380(6) 0.6138(8)
H17E H 1.01680 0.77110 0.60140
C37E C 0.9938(6) 0.7000(5) 0.5805(6)
H18E H 0.98150 0.70870 0.54810
C38E C 1.2870(5) 0.4111(5) 0.6865(5)
H19E H 1.27960 0.41990 0.65270
C39E C 0.8420(6) 0.5606(6) 0.6429(6)
C40E C 1.3100(7) 0.3809(6) 0.7850(6)
H20E H 1.31720 0.36940 0.81810
C41E C 0.8156(8) 0.5634(9) 0.7294(8)
H21E H 0.78970 0.56700 0.75380
C42E C 0.8662(6) 0.5515(7) 0.7468(7)
H22E H 0.87430 0.54750 0.78140
C43E C 0.8478(6) 0.5603(8) 0.4986(6)
C44E C 0.8027(8) 0.5698(10) 0.6772(7)
H23E H 0.77000 0.57970 0.66660
C45E C 1.3427(7) 0.3725(7) 0.7503(6)
H24E H 1.37380 0.35710 0.75870
C46E C 1.2634(5) 0.4066(5) 0.7766(5)
O3E O 1.0734(3) 0.6379(3) 0.8275(3)
O4E O 1.3257(3) 0.5010(3) 0.5138(3)
O5E O 1.1246(2) 0.4781(3) 0.7465(3)
O6E O 1.0975(3) 0.4593(2) 0.8413(3)
O7E O 1.0315(2) 0.5235(3) 0.7270(3)
O8E O 1.0728(2) 0.5554(3) 0.8132(2)
O9E O 1.1543(5) 0.4274(3) 0.8915(4)
O10E O 1.3723(4) 0.5685(4) 0.5413(5)
O11E O 1.2557(3) 0.4657(2) 0.5777(3)
O12E O 0.8788(4) 0.5526(4) 0.4591(4)
O13E O 0.8017(6) 0.5635(5) 0.4865(4)
Ti1K Ti 1.27834(6) 0.43936(7) 0.51509(7)
C1K C 1.0927(4) 0.2005(4) 0.4543(4)
C2K C 1.2292(4) 0.4588(4) 0.3371(4)
H1K H 1.25200 0.45020 0.31100
C3K C 1.2566(4) 0.3313(4) 0.5457(4)
C4K C 1.2975(4) 0.4348(4) 0.3989(4)
O1K O 1.0285(3) 0.5479(3) 0.4555(3)
C5K C 1.2441(4) 0.4546(4) 0.3877(4)
C6K C 1.2113(4) 0.4716(4) 0.4268(4)
C7K C 1.3488(5) 0.3570(4) 0.5601(5)
C8K C 1.1460(4) 0.4924(4) 0.3642(4)
C9K C 1.2175(4) 0.2953(4) 0.5495(4)
C10K C 1.2063(5) 0.5960(6) 0.4539(6)
H2K H 1.21510 0.56200 0.46060
C11K C 1.0462(5) 0.1665(6) 0.4623(5)
C12K C 1.1543(5) 0.6089(5) 0.4494(4)
C13K C 1.1801(4) 0.4759(4) 0.3250(4)
C14K C 1.1051(4) 0.2392(4) 0.4907(4)
C15K C 1.3053(4) 0.3183(4) 0.5640(4)
C16K C 1.1198(5) 0.1948(4) 0.4131(5)
H3K H 1.11140 0.16890 0.39000
C17K C 1.0900(6) 0.6713(8) 0.4380(5)
H4K H 1.08190 0.70570 0.43280
C18K C 1.1163(4) 0.5685(5) 0.4543(4)
C19K C 1.3145(5) 0.2737(4) 0.5867(5)
H5K H 1.34760 0.26690 0.59860
C20K C 1.1629(5) 0.3072(4) 0.5272(4)
H6K H 1.13780 0.30510 0.55480
H7K H 1.16240 0.34200 0.51400
C21K C 1.0663(4) 0.5830(5) 0.4502(4)
C22K C 1.1658(5) 0.4780(5) 0.2729(5)
H8K H 1.18960 0.47280 0.24680
C23K C 1.1749(4) 0.2665(4) 0.4383(4)
C24K C 1.2430(5) 0.2942(5) 0.3802(6)
H9K H 1.27050 0.31590 0.37330
C25K C 1.2315(5) 0.2553(5) 0.3459(7)
H10K H 1.25000 0.25230 0.31550
C26K C 1.1623(4) 0.2275(4) 0.4026(5)
C27K C 1.2257(4) 0.2488(5) 0.5770(4)
C28K C 1.0493(5) 0.6373(5) 0.4437(4)
C29K C 1.1631(4) 0.4909(4) 0.4159(4)
C30K C 1.0958(4) 0.5054(5) 0.3488(5)
H11K H 1.07200 0.51390 0.37410
C31K C 1.2150(5) 0.3013(4) 0.4238(5)
H12K H 1.22200 0.32950 0.44460
C32K C 1.1476(4) 0.2709(4) 0.4853(4)
C33K C 1.1979(6) 0.1676(7) 0.6133(5)
H13K H 1.17210 0.14390 0.62060
C34K C 1.1932(6) 0.2215(6) 0.3563(7)
H14K H 1.18680 0.19440 0.33380
C35K C 1.1304(4) 0.5116(4) 0.4589(4)
H15K H 1.14850 0.50640 0.49100
H16K H 1.09890 0.49160 0.46040
C36K C 1.1138(6) 0.4884(6) 0.2620(8)
H17K H 1.10140 0.48320 0.22890
C37K C 1.0805(6) 0.5062(5) 0.3000(6)
H18K H 1.04810 0.51850 0.29130
C38K C 1.1865(5) 0.2130(5) 0.5889(5)
H19K H 1.15270 0.22040 0.58010
C39K C 1.1429(6) 0.6580(6) 0.4394(6)
C40K C 1.2850(7) 0.1900(6) 0.6191(6)
H20K H 1.31810 0.18280 0.63060
C41K C 1.2294(8) 0.6844(9) 0.4366(8)
H21K H 1.25380 0.71030 0.43300
C42K C 1.2468(6) 0.6338(7) 0.4485(7)
H22K H 1.28140 0.62570 0.45250
C43K C 0.9986(6) 0.6522(8) 0.4397(6)
C44K C 1.1772(8) 0.6973(10) 0.4302(7)
H23K H 1.16660 0.73000 0.42030
C45K C 1.2503(7) 0.1573(7) 0.6275(6)
H24K H 1.25870 0.12620 0.64290
C46K C 1.2766(5) 0.2366(5) 0.5934(5)
O3K O 1.3275(3) 0.4266(3) 0.3621(3)
O4K O 1.0138(3) 0.1743(3) 0.4990(3)
O5K O 1.2465(2) 0.3754(3) 0.5219(3)
O6K O 1.3413(3) 0.4025(2) 0.5407(3)
O7K O 1.2270(2) 0.4685(3) 0.4765(3)
O8K O 1.3132(2) 0.4272(3) 0.4446(2)
O9K O 1.3915(5) 0.3457(3) 0.5726(4)
O10K O 1.0413(4) 0.1277(4) 0.4315(5)
O11K O 1.0777(3) 0.2443(2) 0.5343(3)
O12K O 0.9591(4) 0.6212(4) 0.4474(4)
O13K O 0.9865(6) 0.6983(5) 0.4365(4)
O2F O 0.9391(3) 0.0986(3) 0.5081(3)
H25F H 0.92020 0.11650 0.49040
O2I O 0.9919(3) 0.0609(3) 0.5986(3)
H25I H 1.00960 0.07980 0.61650
Eu1B Eu 1.09425(2) 0.59425(2) 0.90575(2)
Eu1C Eu 1.40575(2) 0.40575(2) 0.40575(2)
O3F O 0.9266(3) 0.1379(3) 0.6725(3)
O3I O 0.8275(3) 0.0734(3) 0.6379(3)
O8F O 0.9272(2) 0.0554(3) 0.6868(2)
O8I O 0.8132(2) 0.0728(3) 0.5554(2)
#END
