
#######################################################################
#
#                 Cambridge Crystallographic Data Centre
#                                CCDC
#
#######################################################################
#
# If this CIF has been generated from an entry in the Cambridge
# Structural Database, then it will include bibliographic, chemical,
# crystal, experimental, refinement or atomic coordinate data resulting
# from the CCDC's data processing and validation procedures.
#
#######################################################################

data_CSD_CIF_XEKLOQ
_audit_creation_date 2013-03-18
_audit_creation_method CSD-ConQuest-V1
_database_code_CSD XEKLOQ
_database_code_depnum_ccdc_archive 'CCDC 872094'
_chemical_formula_sum 'C16 H45.4 Li3 O66.7 P1 Rh4 W12'
_chemical_formula_moiety
;
(C16 H24 O56 P1 Rh4 W12 3-)n,3n(Li1 1+),10.7n(H2 O1)
;
_journal_coden_Cambridge 155
_journal_volume 394
_journal_year 2013
_journal_page_first 656
_journal_name_full 'Inorg.Chim.Acta '
loop_
_publ_author_name
"M.N.Sokolov"
"S.A.Adonin"
"E.V.Peresypkina"
"P.A.Abramov"
"A.I.Smolentsev"
"D.I.Potemkin"
"P.V.Snytnikov"
"V.P.Fedin"
_chemical_name_systematic
;
catena-(tri-lithium 
(\m~12~-phosphato)-octakis(\m~2~-acetato)-octacosakis(\m~2~-oxo)-octaoxo-tetra
-rhodium-dodeca-tungsten hydrate)
;
_cell_volume   3961.008
_exptl_crystal_colour 'green'
_exptl_crystal_density_diffrn 3.333
_exptl_crystal_description 'plate'
_diffrn_ambient_temperature 296
_refine_special_details
;
The structure is disordered by symmetry.

;
#These two values have been output from a single CSD field.
_refine_ls_R_factor_gt 0.0492
_refine_ls_wR_factor_gt 0.0492
_symmetry_cell_setting tetragonal
_symmetry_space_group_name_H-M 'I 4/m m m'
_symmetry_Int_Tables_number 139
loop_
_symmetry_equiv_pos_site_id
_symmetry_equiv_pos_as_xyz
1 x,y,z
2 -x,-y,z
3 -y,x,z
4 y,-x,z
5 -x,y,-z
6 x,-y,-z
7 y,x,-z
8 -y,-x,-z
9 1/2+x,1/2+y,1/2+z
10 1/2-x,1/2-y,1/2+z
11 1/2-y,1/2+x,1/2+z
12 1/2+y,1/2-x,1/2+z
13 1/2-x,1/2+y,1/2-z
14 1/2+x,1/2-y,1/2-z
15 1/2+y,1/2+x,1/2-z
16 1/2-y,1/2-x,1/2-z
17 -x,-y,-z
18 x,y,-z
19 y,-x,-z
20 -y,x,-z
21 x,-y,z
22 -x,y,z
23 -y,-x,z
24 y,x,z
25 -1/2-x,-1/2-y,-1/2-z
26 -1/2+x,-1/2+y,-1/2-z
27 -1/2+y,-1/2-x,-1/2-z
28 -1/2-y,-1/2+x,-1/2-z
29 -1/2+x,-1/2-y,-1/2+z
30 -1/2-x,-1/2+y,-1/2+z
31 -1/2-y,-1/2-x,-1/2+z
32 -1/2+y,-1/2+x,-1/2+z
_cell_length_a 17.3828(2)
_cell_length_b 17.3828(2)
_cell_length_c 13.1089(3)
_cell_angle_alpha 90
_cell_angle_beta 90
_cell_angle_gamma 90
_cell_formula_units_Z 2
loop_
_atom_type_symbol
_atom_type_radius_bond
C 0.68
H 0.23
Li 0.63
O 0.68
P 1.05
Rh 1.42
W 1.41
loop_
_atom_site_label
_atom_site_type_symbol
_atom_site_fract_x
_atom_site_fract_y
_atom_site_fract_z
W1 W 1.10166(4) 0.10166(4) -0.19271(9)
W2 W 1.00000 0.20459(7) 0.00000
Rh1 Rh 1.00000 0.43161(12) 0.00000
P1 P 1.00000 0.00000 0.00000
O1 O 1.00000 0.0714(17) -0.066(3)
O2 O 1.00000 0.3006(12) 0.00000
O3 O 1.1521(8) 0.1521(8) -0.2791(18)
O4 O 1.1077(15) 0.00000 -0.2444(17)
O5 O 0.9247(7) 0.1817(11) 0.0995(13)
O6 O 0.9160(6) 0.4363(6) 0.1089(9)
C1 C 0.8907(14) 0.50000 0.1330(18)
C2 C 0.8235(14) 0.50000 0.212(2)
H1? H 0.81530 0.55140 0.23660
H2? H 0.83630 0.46690 0.26800
H3? H 0.77740 0.48170 0.17960
Li1 Li 0.792(5) 0.208(5) 0.380(9)
O7 O 0.6856(14) 0.1943(12) 0.374(2)
O8 O 0.842(5) 0.158(5) 0.50000
O9? O 0.836(10) 0.00000 0.456(11)
O10 O 1.00000 0.00000 0.402(15)
W1D W 0.89834(4) 0.10166(4) 0.19271(9)
W1G W 0.89834(4) -0.10166(4) 0.19271(9)
W1E W 1.10166(4) -0.10166(4) 0.19271(9)
W1F W 1.10166(4) 0.10166(4) 0.19271(9)
W1C W 1.10166(4) -0.10166(4) -0.19271(9)
W1A W 0.89834(4) -0.10166(4) -0.19271(9)
W1B W 0.89834(4) 0.10166(4) -0.19271(9)
W2B W 0.79541 0.00000(7) 0.00000
W2A W 1.00000 -0.20459(7) 0.00000
W2C W 1.20459 0.00000(7) 0.00000
Rh1B Rh 0.56839 0.00000(12) 0.00000
Rh1A Rh 1.00000 -0.43161(12) 0.00000
Rh1C Rh 1.43161 0.00000(12) 0.00000
Rh1A* Rh 1.00000 0.56839(12) 0.00000
Rh1C* Rh 0.43161 0.00000(12) 0.00000
Rh1* Rh 1.00000 -0.56839(12) 0.00000
Rh1B* Rh 1.56839 0.00000(12) 0.00000
O1D O 1.00000 0.0714(17) 0.066(3)
O1G O 0.92860 0.0000(17) 0.066(3)
O1E O 1.00000 -0.0714(17) 0.066(3)
O1F O 1.07140 0.0000(17) 0.066(3)
O1C O 1.07140 0.0000(17) -0.066(3)
O1A O 1.00000 -0.0714(17) -0.066(3)
O1B O 0.92860 0.0000(17) -0.066(3)
O2B O 0.69940 0.0000(12) 0.00000
O2A O 1.00000 -0.3006(12) 0.00000
O2C O 1.30060 0.0000(12) 0.00000
O3D O 0.8479(8) 0.1521(8) 0.2791(18)
O3G O 0.8479(8) -0.1521(8) 0.2791(18)
O3E O 1.1521(8) -0.1521(8) 0.2791(18)
O3F O 1.1521(8) 0.1521(8) 0.2791(18)
O3C O 1.1521(8) -0.1521(8) -0.2791(18)
O3A O 0.8479(8) -0.1521(8) -0.2791(18)
O3B O 0.8479(8) 0.1521(8) -0.2791(18)
O4B O 1.0000(15) 0.10770 -0.2444(17)
O4D O 0.8923(15) 0.00000 0.2444(17)
O4F O 1.0000(15) 0.10770 0.2444(17)
O4G O 1.0000(15) -0.10770 0.2444(17)
O4E O 1.1077(15) 0.00000 0.2444(17)
O4C O 1.0000(15) -0.10770 -0.2444(17)
O4A O 0.8923(15) 0.00000 -0.2444(17)
O5D O 1.0753(7) 0.1817(11) -0.0995(13)
O5Q O 0.9247(7) 0.1817(11) -0.0995(13)
O5U O 1.0753(7) 0.1817(11) 0.0995(13)
O5R O 1.1817(7) 0.0753(11) -0.0995(13)
O5G O 0.8183(7) 0.0753(11) -0.0995(13)
O5B O 0.8183(7) -0.0753(11) 0.0995(13)
O5V O 0.8183(7) 0.0753(11) 0.0995(13)
O5S O 0.8183(7) -0.0753(11) -0.0995(13)
O5E O 0.9247(7) -0.1817(11) -0.0995(13)
O5A O 1.0753(7) -0.1817(11) 0.0995(13)
O5T O 0.9247(7) -0.1817(11) 0.0995(13)
O5P O 1.0753(7) -0.1817(11) -0.0995(13)
O5F O 1.1817(7) -0.0753(11) -0.0995(13)
O5C O 1.1817(7) 0.0753(11) 0.0995(13)
O5W O 1.1817(7) -0.0753(11) 0.0995(13)
O6T O 0.9160(6) 0.5637(6) 0.1089(9)
O6D O 1.0840(6) 0.4363(6) -0.1089(9)
O6P O 1.0840(6) 0.5637(6) -0.1089(9)
O6Q O 0.9160(6) 0.4363(6) -0.1089(9)
O6E O 0.9160(6) 0.5637(6) -0.1089(9)
O6U O 1.0840(6) 0.4363(6) 0.1089(9)
O6A O 1.0840(6) 0.5637(6) 0.1089(9)
O6G O 0.5637(6) 0.0840(6) -0.1089(9)
O6R O 0.4363(6) 0.0840(6) -0.1089(9)
O6B O 0.5637(6) -0.0840(6) 0.1089(9)
O6W O 0.4363(6) -0.0840(6) 0.1089(9)
O6V O 0.5637(6) 0.0840(6) 0.1089(9)
O6C O 0.4363(6) 0.0840(6) 0.1089(9)
O6S O 0.5637(6) -0.0840(6) -0.1089(9)
O6F O 0.4363(6) -0.0840(6) -0.1089(9)
O6E* O 0.9160(6) -0.4363(6) -0.1089(9)
O6A* O 1.0840(6) -0.4363(6) 0.1089(9)
O6T* O 0.9160(6) -0.4363(6) 0.1089(9)
O6P* O 1.0840(6) -0.4363(6) -0.1089(9)
O6F* O 1.4363(6) -0.0840(6) -0.1089(9)
O6C* O 1.4363(6) 0.0840(6) 0.1089(9)
O6W* O 1.4363(6) -0.0840(6) 0.1089(9)
O6R* O 1.4363(6) 0.0840(6) -0.1089(9)
C1D C 1.1093(14) 0.50000 -0.1330(18)
C1E C 0.8907(14) 0.50000 -0.1330(18)
C1A C 1.1093(14) 0.50000 0.1330(18)
C1G C 0.5000(14) 0.10930 -0.1330(18)
C1B C 0.5000(14) -0.10930 0.1330(18)
C1C C 0.5000(14) 0.10930 0.1330(18)
C1F C 0.5000(14) -0.10930 -0.1330(18)
C2D C 1.1765(14) 0.50000 -0.212(2)
C2E C 0.8235(14) 0.50000 -0.212(2)
C2A C 1.1765(14) 0.50000 0.212(2)
C2G C 0.5000(14) 0.17650 -0.212(2)
C2B C 0.5000(14) -0.17650 0.212(2)
C2C C 0.5000(14) 0.17650 0.212(2)
C2F C 0.5000(14) -0.17650 -0.212(2)
#END
