
#######################################################################
#
#                 Cambridge Crystallographic Data Centre
#                                CCDC
#
#######################################################################
#
# If this CIF has been generated from an entry in the Cambridge
# Structural Database, then it will include bibliographic, chemical,
# crystal, experimental, refinement or atomic coordinate data resulting
# from the CCDC's data processing and validation procedures.
#
#######################################################################

data_CSD_CIF_XELWUI
_audit_creation_date 2012-12-31
_audit_creation_method CSD-ConQuest-V1
_database_code_CSD XELWUI
_database_code_depnum_ccdc_archive 'CCDC 675389'
_chemical_formula_sum 'C4 H7 Li1 O13 U1'
_chemical_formula_moiety
;
(H3 O1 1+)n,n(C4 H4 Li1 O12 U1 1-)
;
_journal_coden_Cambridge 233
_journal_volume 54
_journal_year 2009
_journal_page_first 1842
_journal_name_full 'Zh.Neorg.Khim.(Russ.)(Russ.J.Inorg.Chem.) '
loop_
_publ_author_name
"M.Yu.Shilova"
"A.V.Vologzhanina"
"L.B.Serezhkina"
"V.N.Serezhkin"
_chemical_name_systematic
;
catena-(oxonium bis(\m~2~-oxalato)-bis(\m~2~-oxo)-diaqua-lithium-uranium(vi))
;
_cell_volume   1312.488
_exptl_crystal_colour 'yellow'
_exptl_crystal_density_diffrn 2.571
_exptl_crystal_description 'plate'
_diffrn_ambient_temperature 100
#These two values have been output from a single CSD field.
_refine_ls_R_factor_gt 0.0436
_refine_ls_wR_factor_gt 0.0436
_symmetry_cell_setting monoclinic
_symmetry_space_group_name_H-M 'P 21/c'
_symmetry_Int_Tables_number 14
loop_
_symmetry_equiv_pos_site_id
_symmetry_equiv_pos_as_xyz
1 x,y,z
2 -x,1/2+y,1/2-z
3 -x,-y,-z
4 x,-1/2-y,-1/2+z
_cell_length_a 7.1682(10)
_cell_length_b 29.639(6)
_cell_length_c 6.6770(12)
_cell_angle_alpha 90
_cell_angle_beta 112.3(7)
_cell_angle_gamma 90
_cell_formula_units_Z 4
loop_
_atom_type_symbol
_atom_type_radius_bond
C 0.68
H 0.23
Li 1.68
O 0.68
U 1.36
loop_
_atom_site_label
_atom_site_type_symbol
_atom_site_fract_x
_atom_site_fract_y
_atom_site_fract_z
U1 U 0.30206(5) 0.159463(12) 0.74178(6)
Li1 Li 0.813(2) 0.1595(6) 1.237(3)
C1 C 0.0132(14) 0.1153(3) 0.9662(16)
C2 C 0.1068(16) 0.0746(4) 0.8942(18)
C3 C 0.6057(14) 0.1330(4) 0.5029(15)
C4 C 0.6041(14) 0.1853(4) 0.5014(15)
O1 O 0.5056(10) 0.1596(3) 0.9961(10)
O2 O 0.1007(10) 0.1614(3) 0.4848(10)
O3 O 0.0618(10) 0.1534(2) 0.9109(11)
O4 O 0.2255(11) 0.0841(2) 0.8001(12)
O5 O 0.4938(11) 0.1152(2) 0.5913(12)
O6 O 0.492(1) 0.2036(2) 0.5879(11)
O7 O 0.2333(10) 0.2350(2) 0.8121(11)
H1 H 0.32090 0.24300 0.93360
H2 H 0.14770 0.25530 0.74750
O8 O -0.0969(11) 0.1093(2) 1.0685(12)
O9 O 0.0586(14) 0.0370(3) 0.9302(15)
O10 O 0.7105(11) 0.1131(3) 0.4205(11)
O11 O 0.7047(11) 0.2050(2) 0.4112(11)
O12 O 0.905(1) 0.2165(2) 1.0931(11)
H3 H 0.80520 0.23030 1.00130
H4 H 0.95420 0.21840 0.99590
O13 O 0.566(3) 0.0254(7) 0.744(3)
H5 H 0.54460 0.05250 0.69890
H6 H 0.49200 0.00200 0.70750
H7 H 0.69260 0.02830 0.79170
O14 O 0.798(3) 0.0263(7) 0.315(3)
H8 H 0.82200 0.02190 0.20190
H9 H 0.70670 0.04650 0.27520
H10 H 0.71050 0.00780 0.32470
O15 O 0.210(4) 0.0333(10) 0.396(5)
H11 H 0.33650 0.03560 0.46640
H12 H 0.17900 0.05810 0.32670
H13 H 0.18920 0.00740 0.33750
Li1* Li -0.187(2) 0.1595(6) 0.237(3)
Li1** Li -0.187(2) 0.1595(6) 1.237(3)
Li1*** Li 0.813(2) 0.1595(6) 0.237(3)
O2* O 1.1007(10) 0.1614(3) 1.4848(10)
O8* O 0.9031(11) 0.1093(2) 1.0685(12)
O10* O 0.7105(11) 0.1131(3) 1.4205(11)
O11* O 0.7047(11) 0.2050(2) 1.4112(11)
#END
