
#######################################################################
#
#                 Cambridge Crystallographic Data Centre
#                                CCDC
#
#######################################################################
#
# If this CIF has been generated from an entry in the Cambridge
# Structural Database, then it will include bibliographic, chemical,
# crystal, experimental, refinement or atomic coordinate data resulting
# from the CCDC's data processing and validation procedures.
#
#######################################################################

data_CSD_CIF_XELXET
_audit_creation_date 2012-12-31
_audit_creation_method CSD-ConQuest-V1
_database_code_CSD XELXET
_database_code_depnum_ccdc_archive 'CCDC 823115'
_chemical_formula_sum 'C42 H68 Co2 Li2 N6 O12'
_chemical_formula_moiety
;
(C38 H62 Co2 N4 O12 2-)n,2n(Li1 1+),2n(C2 H3 N1)
;
_journal_coden_Cambridge 41
_journal_volume 56
_journal_year 2011
_journal_page_first 900
_journal_name_full 'Kristallografiya(Russ.)(Crystallogr.Rep.) '
loop_
_publ_author_name
"I.E.Evstifeev"
"M.A.Kiskin"
"A.S.Bogomyakov"
"A.A.Sidorov"
"V.M.Novotortsev"
"I.L.Eremenko"
_chemical_name_systematic
;
catena-(di-lithium 
bis(\m~2~-pyrazine)-tetrakis(pivalato-O)-bis(pivalato-O,O')-di-cobalt 
acetonitrile solvate)
;
_cell_volume   1331.844
_exptl_crystal_colour 'rose'
_exptl_crystal_density_diffrn 1.223
_exptl_special_details
;
The paper describes a number of bonds involving the Li atoms which have not 
been represented in the 2D diagram
;
_exptl_crystal_description 'prism'
_exptl_crystal_preparation 'acetonitrile'
_diffrn_ambient_temperature 200
#These two values have been output from a single CSD field.
_refine_ls_R_factor_gt 0.0331
_refine_ls_wR_factor_gt 0.0331
_symmetry_cell_setting triclinic
_symmetry_space_group_name_H-M 'P -1'
_symmetry_Int_Tables_number 2
loop_
_symmetry_equiv_pos_site_id
_symmetry_equiv_pos_as_xyz
1 x,y,z
2 -x,-y,-z
_cell_length_a 10.6375(7)
_cell_length_b 10.7488(7)
_cell_length_c 13.3040(8)
_cell_angle_alpha 92.837(1)
_cell_angle_beta 108.254(1)
_cell_angle_gamma 110.448(1)
_cell_formula_units_Z 1
loop_
_atom_type_symbol
_atom_type_radius_bond
C 0.68
H 0.23
Co 1.26
Li 0.38
N 0.68
O 0.78
loop_
_atom_site_label
_atom_site_type_symbol
_atom_site_fract_x
_atom_site_fract_y
_atom_site_fract_z
Co1 Co 0.82050(2) 0.00143(2) 0.186846(15)
Li1 Li 0.9884(3) -0.0512(3) 0.4010(2)
N1 N 0.92197(16) -0.00580(15) 0.06745(11)
N2 N 0.62935(15) 0.00025(13) 0.06844(10)
O1 O 1.03999(12) 0.06892(12) 0.30409(9)
O2 O 0.95767(13) 0.20931(12) 0.21994(10)
O3 O 0.73682(12) 0.04052(13) 0.29652(9)
O4 O 0.88024(13) 0.03284(12) 0.45660(9)
O5 O 0.74703(14) -0.20187(12) 0.15691(10)
O6 O 0.88609(16) -0.22453(13) 0.31256(10)
C1 C 1.05894(18) 0.18703(17) 0.28420(13)
C2 C 1.2080(2) 0.2986(2) 0.33422(18)
C3 C 1.1974(3) 0.4365(2) 0.3325(3)
H1 H 1.14430 0.44770 0.37830
H2 H 1.14710 0.44290 0.25860
H3 H 1.29400 0.50740 0.35950
C4 C 1.2815(3) 0.2815(3) 0.4474(2)
H4 H 1.28660 0.19210 0.44530
H5 H 1.22670 0.29000 0.49260
H6 H 1.37870 0.35120 0.47740
C5 C 1.2920(3) 0.2817(3) 0.2643(3)
H7 H 1.29980 0.19360 0.26620
H8 H 1.38820 0.35330 0.29160
H9 H 1.24220 0.28740 0.19010
C6 C 0.79055(17) 0.07341(16) 0.39809(12)
C7 C 0.7464(2) 0.1737(2) 0.44988(15)
C8 C 0.7442(3) 0.1483(3) 0.56148(18)
H10 H 0.66930 0.06010 0.55480
H11 H 0.72430 0.21900 0.59510
H12 H 0.83760 0.14950 0.60610
C9 C 0.6015(3) 0.1697(3) 0.3782(2)
H13 H 0.52720 0.08100 0.37100
H14 H 0.60460 0.18580 0.30690
H15 H 0.57940 0.23980 0.41030
C10 C 0.8645(3) 0.3129(2) 0.4623(2)
H16 H 0.86640 0.33100 0.39120
H17 H 0.95770 0.31340 0.50670
H18 H 0.84440 0.38270 0.49690
C11 C 0.80498(18) -0.26967(17) 0.21806(14)
C12 C 0.7683(2) -0.41595(19) 0.17036(16)
C13 C 0.8980(3) -0.4533(3) 0.2163(3)
H19 H 0.97560 -0.39850 0.19320
H20 H 0.87150 -0.54910 0.19010
H21 H 0.93020 -0.43640 0.29500
C14 C 0.6456(4) -0.5047(3) 0.2033(3)
H22 H 0.61860 -0.59950 0.17390
H23 H 0.56290 -0.47930 0.17510
H24 H 0.67670 -0.49210 0.28190
C15 C 0.7180(4) -0.4390(3) 0.0488(2)
H25 H 0.79570 -0.38350 0.02600
H26 H 0.63510 -0.41390 0.02050
H27 H 0.69060 -0.53440 0.02100
C16 C 1.0124(2) -0.0689(2) 0.08027(14)
H28 H 1.02420 -0.11860 0.13720
C17 C 0.9107(2) 0.0639(2) -0.01301(14)
H29 H 0.84830 0.11120 -0.02420
C18 C 0.5350(2) -0.10629(18) -0.00596(14)
H30 H 0.55640 -0.18440 -0.01270
C19 C 0.5942(2) 0.10652(18) 0.07422(14)
H31 H 0.65910 0.18480 0.12640
N3 N 0.6914(6) 0.2006(6) -0.1503(4)
C20 C 0.6103(5) 0.2237(4) -0.2099(3)
C21 C 0.5028(3) 0.2514(3) -0.2884(3)
H32 H 0.53770 0.34790 -0.29140
H33 H 0.41650 0.22620 -0.26920
H34 H 0.47970 0.19930 -0.35880
Co1A Co 1.17950(2) -0.00143(2) -0.186846(15)
Co1A* Co 0.17950(2) -0.00143(2) -0.186846(15)
N1A N 1.07803(16) 0.00580(15) -0.06745(11)
N2A N 0.37065(15) -0.00025(13) -0.06844(10)
N2A* N 1.37065(15) -0.00025(13) -0.06844(10)
O1A O 0.96001(12) -0.06892(12) -0.30409(9)
O2A O 1.04233(13) -0.20931(12) -0.21994(10)
O3A O 1.26318(12) -0.04052(13) -0.29652(9)
O4A O 1.11976(13) -0.03284(12) -0.45660(9)
O5A O 1.25297(14) 0.20187(12) -0.15691(10)
O6A O 1.11391(16) 0.22453(13) -0.31256(10)
C1A C 0.94106(18) -0.18703(17) -0.28420(13)
C2A C 0.7920(2) -0.2986(2) -0.33422(18)
C3A C 0.8026(3) -0.4365(2) -0.3325(3)
H1A H 0.85570 -0.44770 -0.37830
H2A H 0.85290 -0.44290 -0.25860
H3A H 0.70600 -0.50740 -0.35950
C4A C 0.7185(3) -0.2815(3) -0.4474(2)
H4A H 0.71340 -0.19210 -0.44530
H5A H 0.77330 -0.29000 -0.49260
H6A H 0.62130 -0.35120 -0.47740
C5A C 0.7080(3) -0.2817(3) -0.2643(3)
H7A H 0.70020 -0.19360 -0.26620
H8A H 0.61180 -0.35330 -0.29160
H9A H 0.75780 -0.28740 -0.19010
C6A C 1.20945(17) -0.07341(16) -0.39809(12)
C7A C 1.2536(2) -0.1737(2) -0.44988(15)
C8A C 1.2558(3) -0.1483(3) -0.56148(18)
H10A H 1.33070 -0.06010 -0.55480
H11A H 1.27570 -0.21900 -0.59510
H12A H 1.16240 -0.14950 -0.60610
C9A C 1.3985(3) -0.1697(3) -0.3782(2)
H13A H 1.47280 -0.08100 -0.37100
H14A H 1.39540 -0.18580 -0.30690
H15A H 1.42060 -0.23980 -0.41030
C10A C 1.1355(3) -0.3129(2) -0.4623(2)
H16A H 1.13360 -0.33100 -0.39120
H17A H 1.04230 -0.31340 -0.50670
H18A H 1.15560 -0.38270 -0.49690
C11A C 1.19502(18) 0.26967(17) -0.21806(14)
C12A C 1.2317(2) 0.41595(19) -0.17036(16)
C13A C 1.1020(3) 0.4533(3) -0.2163(3)
H19A H 1.02440 0.39850 -0.19320
H20A H 1.12850 0.54910 -0.19010
H21A H 1.06980 0.43640 -0.29500
C14A C 1.3544(4) 0.5047(3) -0.2033(3)
H22A H 1.38140 0.59950 -0.17390
H23A H 1.43710 0.47930 -0.17510
H24A H 1.32330 0.49210 -0.28190
C15A C 1.2820(4) 0.4390(3) -0.0488(2)
H25A H 1.20430 0.38350 -0.02600
H26A H 1.36490 0.41390 -0.02050
H27A H 1.30940 0.53440 -0.02100
C16A C 0.9876(2) 0.0689(2) -0.08027(14)
H28A H 0.97580 0.11860 -0.13720
C17A C 1.0893(2) -0.0639(2) 0.01301(14)
H29A H 1.15170 -0.11120 0.02420
C18A C 0.4650(2) 0.10629(18) 0.00596(14)
H30A H 0.44360 0.18440 0.01270
C19A C 0.4058(2) -0.10652(18) -0.07422(14)
H31A H 0.34090 -0.18480 -0.12640
#END
