
#######################################################################
#
#                 Cambridge Crystallographic Data Centre
#                                CCDC
#
#######################################################################
#
# If this CIF has been generated from an entry in the Cambridge
# Structural Database, then it will include bibliographic, chemical,
# crystal, experimental, refinement or atomic coordinate data resulting
# from the CCDC's data processing and validation procedures.
#
#######################################################################

data_CSD_CIF_XEMFAW
_audit_creation_date 2001-06-11
_audit_creation_method CSD-ConQuest-V1
_database_code_CSD XEMFAW
_database_code_depnum_ccdc_archive 'CCDC 134956'
_chemical_formula_sum 'C25 H24 Cr1 Mn1 N1 O13'
_chemical_formula_moiety
;
(C19 H24 N1 O1 1+)n,n(C6 Cr1 Mn1 O12 1-)
;
_journal_coden_Cambridge 4
_journal_volume 122
_journal_year 2000
_journal_page_first 9444
_journal_name_full 'J.Am.Chem.Soc. '
loop_
_publ_author_name
"S.Benard"
"P.Yu"
"J.P.Audiere"
"E.Riviere"
"R.Clement"
"J.Guilhem"
"L.Tchertanov"
"K.Nakatani"
_chemical_name_systematic
;
catena-((4-(4-(Methoxy)-\a-styryl)-N-isopentylpyridinium) 
tris(\m~2~-oxalato-O,O',O'',O''')-chromium-manganese)
;
_cell_volume   2745.794
_exptl_crystal_colour 'bright red'
_exptl_crystal_density_diffrn 1.581
_exptl_crystal_description 'needle'
_diffrn_ambient_temperature ?
_diffrn_special_details
;
The study was carried out at room temperature,in the range 283-303K

;
#These two values have been output from a single CSD field.
_refine_ls_R_factor_gt 0.0507
_refine_ls_wR_factor_gt 0.0507
_symmetry_cell_setting monoclinic
_symmetry_space_group_name_H-M 'P 21/c'
_symmetry_Int_Tables_number 14
loop_
_symmetry_equiv_pos_site_id
_symmetry_equiv_pos_as_xyz
1 x,y,z
2 x,1/2-y,1/2+z
3 -x,-y,-z
4 -x,-1/2+y,-1/2-z
_cell_length_a 9.535(1)
_cell_length_b 15.890(2)
_cell_length_c 18.229(2)
_cell_angle_alpha 90
_cell_angle_beta 83.810(9)
_cell_angle_gamma 90
_cell_formula_units_Z 4
loop_
_atom_type_symbol
_atom_type_radius_bond
C 0.68
H 0.23
Cr 1.35
Mn 1.35
N 0.68
O 0.68
loop_
_atom_site_label
_atom_site_type_symbol
_atom_site_fract_x
_atom_site_fract_y
_atom_site_fract_z
Cr1 Cr 0.26199(11) 0.08415(7) 0.22367(6)
Mn1 Mn -0.24199(10) 0.24547(7) 0.24488(6)
O1 O 0.1567(5) 0.1722(3) 0.1674(3)
O2 O 0.0715(5) 0.0873(3) 0.2896(3)
O3 O 0.3475(5) 0.1738(3) 0.2877(3)
O4 O 0.4571(5) 0.0996(3) 0.1646(3)
O5 O 0.3360(5) -0.0093(3) 0.2870(3)
O6 O 0.1969(5) -0.0204(3) 0.1686(3)
O7 O -0.0498(5) 0.2425(3) 0.1782(3)
O8 O -0.1395(5) 0.1492(3) 0.2958(3)
O9 O 0.5577(5) 0.2315(3) 0.3020(3)
O10 O 0.6639(5) 0.1617(3) 0.1740(3)
O11 O 0.3143(5) -0.1485(3) 0.3046(3)
O12 O 0.1800(5) -0.1601(3) 0.1842(3)
C1 C -0.0157(9) 0.1377(5) 0.2670(4)
C2 C 0.0348(8) 0.1894(5) 0.1981(4)
C3 C 0.4766(9) 0.1873(4) 0.2685(4)
C4 C 0.5380(9) 0.1454(4) 0.1961(4)
C5 C 0.2958(7) -0.0815(6) 0.2703(5)
C6 C 0.2172(7) -0.0881(6) 0.2017(5)
N1 N 1.1541(6) 0.1809(4) -0.0526(3)
C7 C 1.1189(8) 0.2572(5) -0.0745(4)
H1 H 1.18470 0.28840 -0.10460
C8 C 0.9895(8) 0.2908(5) -0.0543(4)
H2 H 0.96720 0.34400 -0.07080
C9 C 0.8906(7) 0.2454(5) -0.0088(4)
C10 C 0.9303(9) 0.1686(5) 0.0148(4)
H3 H 0.86690 0.13760 0.04640
C11 C 1.0599(9) 0.1361(5) -0.0066(5)
H4 H 1.08440 0.08340 0.01020
C12 C 1.2948(8) 0.1432(5) -0.0787(5)
H5 H 1.34900 0.18640 -0.10780
C13 C 1.3731(8) 0.1239(5) -0.0137(5)
H6 H 1.32950 0.07590 0.01250
H7 H 1.36560 0.17160 0.01970
C14 C 1.5285(8) 0.1048(5) -0.0360(5)
H8 H 1.5757(14) 0.0973(32) 0.0075(5)
H9 H 1.5709(15) 0.1507(15) -0.0646(24)
H10 H 1.5367(8) 0.0542(18) -0.0649(24)
C15 C 1.2783(10) 0.0695(6) -0.1297(6)
H11 H 1.37110 0.04660 -0.14510
H12 H 1.22410 0.02610 -0.10210
C16 C 1.2084(12) 0.0895(8) -0.1969(7)
H13 H 1.1876(82) 0.0382(8) -0.2213(27)
H14 H 1.2701(38) 0.1236(45) -0.2297(22)
H15 H 1.1223(48) 0.1197(49) -0.1829(8)
O13 O 0.1255(6) 0.4528(3) 0.0307(3)
C17 C 0.0361(8) 0.4328(5) 0.0952(4)
H16 H -0.0528(21) 0.4608(26) 0.0940(14)
H17 H 0.0791(25) 0.4510(28) 0.1377(5)
H18 H 0.0214(43) 0.3730(6) 0.0976(15)
C18 C 0.2590(8) 0.4209(5) 0.0229(5)
C19 C 0.3393(9) 0.4423(5) -0.0416(5)
H19 H 0.30110 0.47590 -0.07620
C20 C 0.4751(9) 0.4143(5) -0.0549(4)
H20 H 0.52830 0.43030 -0.09840
C21 C 0.5361(8) 0.3634(5) -0.0063(5)
C22 C 0.4533(9) 0.3424(5) 0.0587(5)
H21 H 0.49190 0.30910 0.09340
C23 C 0.3153(9) 0.3696(5) 0.0731(4)
H22 H 0.26110 0.35340 0.11620
C24 C 0.6828(9) 0.3352(5) -0.0225(4)
H23 H 0.73550 0.36140 -0.06200
C25 C 0.7477(9) 0.2776(6) 0.0120(5)
H24 H 0.69840 0.25470 0.05410
O9* O -0.4423(5) 0.2315(3) 0.3020(3)
O10* O -0.3361(5) 0.1617(3) 0.1740(3)
O11C O -0.3143(5) 0.3515(3) 0.1954(3)
O12C O -0.1800(5) 0.3399(3) 0.3158(3)
Mn1* Mn 0.75801(10) 0.24547(7) 0.24488(6)
Mn1C Mn 0.24199(10) -0.25453(7) 0.25512(6)
#END
