
#######################################################################
#
#                 Cambridge Crystallographic Data Centre
#                                CCDC
#
#######################################################################
#
# If this CIF has been generated from an entry in the Cambridge
# Structural Database, then it will include bibliographic, chemical,
# crystal, experimental, refinement or atomic coordinate data resulting
# from the CCDC's data processing and validation procedures.
#
#######################################################################

data_CSD_CIF_XEMYUL
_audit_creation_date 2012-12-31
_audit_creation_method CSD-ConQuest-V1
_database_code_CSD XEMYUL
_database_code_depnum_ccdc_archive 'CCDC 798989'
_chemical_formula_sum 'C4 H12 N6 O14 Se2 U2'
_chemical_formula_moiety
;
(C1 H6 N3 1+)2n,n(C2 O14 Se2 U2 2-)
;
_journal_coden_Cambridge 233
_journal_volume 57
_journal_year 2012
_journal_page_first 216
_journal_name_full 'Zh.Neorg.Khim.(Russ.)(Russ.J.Inorg.Chem.) '
loop_
_publ_author_name
"D.V.Pushkin"
"E.V.Peresypkina"
"L.B.Serezhkina"
"A.V.Savchenkov"
"A.V.Virovets"
"V.N.Serezhkin"
_chemical_name_systematic
;
catena-[bis(Guanidinium) 
bis(\m~3~-selenito)-(\m~2~-oxalato)-tetra-oxo-di-uranium(vi)]
;
_cell_volume    455.801
_exptl_crystal_colour 'yellow'
_exptl_crystal_density_diffrn 3.651
_exptl_crystal_description 'plate'
_diffrn_ambient_temperature 150
#These two values have been output from a single CSD field.
_refine_ls_R_factor_gt 0.0304
_refine_ls_wR_factor_gt 0.0304
_symmetry_cell_setting triclinic
_symmetry_space_group_name_H-M 'P -1'
_symmetry_Int_Tables_number 2
loop_
_symmetry_equiv_pos_site_id
_symmetry_equiv_pos_as_xyz
1 x,y,z
2 -x,-y,-z
_cell_length_a 7.1169(12)
_cell_length_b 7.4874(10)
_cell_length_c 8.9748(14)
_cell_angle_alpha 88.243(6)
_cell_angle_beta 74.546(6)
_cell_angle_gamma 81.445(6)
_cell_formula_units_Z 1
loop_
_atom_type_symbol
_atom_type_radius_bond
C 0.68
H 0.23
N 0.68
O 0.68
Se 1.22
U 1.46
loop_
_atom_site_label
_atom_site_type_symbol
_atom_site_fract_x
_atom_site_fract_y
_atom_site_fract_z
U1 U 0.15152(3) 0.74149(3) 0.19411(3)
Se1 Se 0.28386(10) 0.32521(9) -0.04009(8)
C1 C -0.105(1) 0.9741(9) 0.5153(9)
O1 O 0.1512(8) 0.5625(7) 0.3266(6)
O2 O 0.1602(8) 0.9223(7) 0.0615(6)
O3 O -0.1309(7) 0.8773(7) 0.4140(6)
O4 O -0.2269(7) 1.0330(7) 0.6381(6)
O5 O 0.2512(7) 0.5534(6) -0.0169(6)
O6 O 0.5107(8) 0.2874(8) -0.1602(7)
O7 O 0.1480(7) 0.3106(7) -0.1647(6)
C2 C 0.6036(11) 0.2592(10) 0.3749(9)
N1 N 0.563(1) 0.1672(8) 0.2642(7)
H1 H 0.45320 0.11950 0.28410
H2 H 0.64610 0.15450 0.17170
N2 N 0.7737(9) 0.3273(8) 0.3427(8)
H3 H 0.80380 0.38590 0.41470
H4 H 0.85520 0.31340 0.24970
N3 N 0.4810(9) 0.2784(9) 0.5121(7)
H5 H 0.50950 0.33680 0.58500
H6 H 0.36980 0.23310 0.53180
U1A U -0.15152(3) 1.25851(3) 0.80589(3)
U1A* U 0.84848(3) 0.25851(3) -0.19411(3)
U1A** U -0.15152(3) 0.25851(3) -0.19411(3)
U1* U 1.15152(3) 0.74149(3) 0.19411(3)
Se1A Se 0.71614(10) 0.67479(9) 0.04009(8)
C1A C 0.105(1) 1.0259(9) 0.4847(9)
O1A O -0.1512(8) 1.4375(7) 0.6734(6)
O2A O -0.1602(8) 1.0777(7) 0.9385(6)
O3A O 0.1309(7) 1.1227(7) 0.5860(6)
O4A O 0.2269(7) 0.9670(7) 0.3619(6)
O5A O 0.7488(7) 0.4466(6) 0.0169(6)
O5A* O -0.2512(7) 1.4466(6) 1.0169(6)
O6A O 0.4893(8) 0.7126(8) 0.1602(7)
O6* O -0.4893(8) 1.2874(8) 0.8398(7)
O7A O 0.8520(7) 0.6894(7) 0.1647(6)
O7A* O -0.1480(7) 0.6894(7) 0.1647(6)
O7* O 0.1480(7) 1.3106(7) 0.8353(6)
#END
