
#######################################################################
#
#                 Cambridge Crystallographic Data Centre
#                                CCDC
#
#######################################################################
#
# If this CIF has been generated from an entry in the Cambridge
# Structural Database, then it will include bibliographic, chemical,
# crystal, experimental, refinement or atomic coordinate data resulting
# from the CCDC's data processing and validation procedures.
#
#######################################################################

data_CSD_CIF_XESSUK
_audit_creation_date 2007-02-02
_audit_creation_method CSD-ConQuest-V1
_database_code_CSD XESSUK
_database_code_depnum_ccdc_archive 'CCDC 268347'
_chemical_formula_sum 'C30 H36 Cu1 N8 O12'
_chemical_formula_moiety
;
(C20 H14 Cu1 N4 O8 2-)n,2n(C5 H7 N2 1+),4n(H2 O1)
;
_journal_coden_Cambridge 1147
_journal_volume 6
_journal_year 2006
_journal_page_first 2355
_journal_name_full 'Cryst.Growth Des. '
loop_
_publ_author_name
"A.Majumder"
"V.Gramlich"
"G.M.Rosair"
"S.R.Batten"
"J.D.Masuda"
"M.S.El Fallah"
"J.Ribas"
"J.-P.Sutter"
"C.Desplanches"
"S.Mitra"
_chemical_name_systematic
;
catena-(bis(4-Aminopyridinium) 
(\m~2~-1,2,4,5-benzenetetracarboxylato-O,O')-bis(4-aminopyridine-N)-copper(ii)
 tetrahydrate)
;
_cell_volume   3366.505
_exptl_crystal_density_diffrn 1.508
_exptl_special_details
;
magnetic properties

;
_exptl_crystal_description 'block'
_diffrn_ambient_temperature 100
#These two values have been output from a single CSD field.
_refine_ls_R_factor_gt 0.0499
_refine_ls_wR_factor_gt 0.0499
_symmetry_cell_setting monoclinic
_symmetry_space_group_name_H-M 'P 21/c'
_symmetry_Int_Tables_number 14
loop_
_symmetry_equiv_pos_site_id
_symmetry_equiv_pos_as_xyz
1 x,y,z
2 -x,1/2+y,1/2-z
3 -x,-y,-z
4 x,-1/2-y,-1/2+z
_cell_length_a 11.0433(10)
_cell_length_b 9.5065(9)
_cell_length_c 32.266(3)
_cell_angle_alpha 90
_cell_angle_beta 96.365(4)
_cell_angle_gamma 90
_cell_formula_units_Z 4
loop_
_atom_type_symbol
_atom_type_radius_bond
C 0.68
H 0.23
Cu 1.52
N 0.68
O 0.68
loop_
_atom_site_label
_atom_site_type_symbol
_atom_site_fract_x
_atom_site_fract_y
_atom_site_fract_z
Cu1 Cu 0.01146(3) 0.20442(4) 0.125149(10)
C1 C 0.3850(2) 0.1859(3) 0.10860(8)
C2 C 0.4273(2) 0.1759(3) 0.15078(8)
H1 H 0.37050 0.16100 0.17040
C3 C 0.5506(2) 0.1870(3) 0.16493(7)
C4 C 0.6337(2) 0.2120(3) 0.13608(7)
C5 C 0.5910(2) 0.2231(3) 0.09371(7)
H2 H 0.64760 0.23870 0.07410
C6 C 0.4673(2) 0.2119(3) 0.07962(7)
O1 O 0.18596(15) 0.2212(2) 0.12310(5)
C7 C 0.2495(2) 0.1707(3) 0.09657(8)
N1 N -0.0943(2) 0.7365(3) 0.01813(7)
H3 H -0.14880 0.73400 -0.00390
H4 H -0.05750 0.81610 0.02570
O2 O 0.21142(16) 0.1081(2) 0.06330(6)
N2 N -0.01797(19) 0.3730(3) 0.08897(7)
C8 C 0.0414(2) 0.4947(3) 0.09842(8)
H5 H 0.10140 0.49640 0.12190
C9 C 0.0195(2) 0.6170(3) 0.07576(8)
H6 H 0.06320 0.70030 0.08410
C10 C -0.0672(2) 0.6185(3) 0.04039(8)
C11 C -0.1237(2) 0.4891(3) 0.02953(8)
H7 H -0.17920 0.48200 0.00490
C12 C -0.0990(2) 0.3735(3) 0.05416(8)
H8 H -0.14100 0.28870 0.04650
O3 O 0.53383(17) 0.2385(2) 0.23580(6)
C13 C 0.5897(2) 0.1654(3) 0.21111(8)
N3 N 0.0978(2) -0.3377(3) 0.22977(7)
H9 H 0.05650 -0.41400 0.22180
H10 H 0.15080 -0.33970 0.25220
O4 O 0.67025(16) 0.0763(2) 0.22124(6)
N4 N 0.04037(19) 0.0327(2) 0.16050(6)
C14 C 0.1214(2) 0.0262(3) 0.19517(8)
H11 H 0.16580 0.10890 0.20350
C15 C 0.1433(2) -0.0927(3) 0.21913(8)
H12 H 0.20080 -0.09050 0.24330
C16 C 0.0798(2) -0.2175(3) 0.20756(8)
C17 C -0.0042(2) -0.2112(3) 0.17158(8)
H13 H -0.04930 -0.29250 0.16230
C18 C -0.0209(2) -0.0872(3) 0.14990(8)
H14 H -0.07930 -0.08570 0.12590
N5 N 0.2710(2) 0.3894(3) 0.81380(7)
H15 H 0.272(3) 0.338(3) 0.7924(9)
H16 H 0.256(3) 0.483(4) 0.8108(10)
C19 C 0.3038(2) 0.3345(3) 0.85158(8)
C20 C 0.3335(3) 0.1920(3) 0.85733(8)
H17 H 0.32750 0.12980 0.83410
C21 C 0.3712(3) 0.1426(3) 0.89670(8)
H18 H 0.39230 0.04610 0.90040
N6 N 0.3790(2) 0.2278(3) 0.93003(7)
H19 H 0.399(3) 0.205(4) 0.9515(10)
C22 C 0.3481(2) 0.3637(3) 0.92590(8)
H20 H 0.35390 0.42230 0.94990
C23 C 0.3086(3) 0.4192(3) 0.88786(8)
H21 H 0.28430 0.51500 0.88570
O5 O 0.46953(18) 0.1603(2) 0.00776(5)
C24 C 0.4268(2) 0.2412(3) 0.03401(8)
N7 N 0.6660(2) 0.1310(3) 0.44276(7)
H22 H 0.68630 0.20120 0.45990
H23 H 0.65610 0.04600 0.45270
O6 O 0.35769(17) 0.3435(2) 0.02533(5)
C25 C 0.6502(2) 0.1536(3) 0.40163(8)
C26 C 0.6162(3) 0.0426(3) 0.37342(9)
H24 H 0.60770 -0.05010 0.38370
C27 C 0.5956(3) 0.0680(3) 0.33166(9)
H25 H 0.57310 -0.00740 0.31300
N8 N 0.6068(2) 0.1984(3) 0.31658(7)
H26 H 0.59070 0.21370 0.28960
C28 C 0.6420(3) 0.3049(3) 0.34185(8)
H27 H 0.65150 0.39550 0.33020
C29 C 0.6649(3) 0.2881(3) 0.38421(8)
H28 H 0.69040 0.36570 0.40160
O7 O 0.71166(19) 0.8109(2) 0.25629(6)
H29 H 0.635(3) 0.792(3) 0.2602(9)
H30 H 0.699(3) 0.891(4) 0.2453(10)
O8 O 0.0459(2) 0.3723(2) 0.19029(6)
H31 H 0.098(4) 0.340(4) 0.2073(12)
H32 H -0.029(4) 0.346(4) 0.1993(12)
O9 O 0.2791(2) 0.8960(3) 0.00587(7)
H33 H 0.358(4) 0.886(4) 0.0037(11)
H34 H 0.270(4) 0.962(5) 0.0221(15)
O10 O 0.9699(2) 0.0214(2) 0.05301(7)
H35 H 1.045(3) 0.055(4) 0.0529(11)
H36 H 0.915(4) 0.071(4) 0.0380(12)
O11 O 0.83614(15) 0.1772(2) 0.12414(5)
C30 C 0.7683(2) 0.2326(3) 0.14890(8)
O12 O 0.80153(16) 0.3059(2) 0.18026(5)
Cu1* Cu 1.01146(3) 0.20442(4) 0.125149(10)
O11* O -0.16386(15) 0.1772(2) 0.12414(5)
#END
