
#######################################################################
#
#                 Cambridge Crystallographic Data Centre
#                                CCDC
#
#######################################################################
#
# If this CIF has been generated from an entry in the Cambridge
# Structural Database, then it will include bibliographic, chemical,
# crystal, experimental, refinement or atomic coordinate data resulting
# from the CCDC's data processing and validation procedures.
#
#######################################################################

data_CSD_CIF_XETSIZ
_audit_creation_date 2007-05-09
_audit_creation_method CSD-ConQuest-V1
_database_code_CSD XETSIZ
_database_code_depnum_ccdc_archive 'CCDC 636327'
_chemical_formula_sum 'C40 H32 Cu4 Mo12 N8 O40 P1'
_chemical_formula_moiety
;
(C30 H24 Cu3 Mo12 N6 O40 P1 1-)n,n(C10 H8 Cu1 N2 1+)
;
_journal_coden_Cambridge 1147
_journal_volume 6
_journal_year 2006
_journal_page_first 2693
_journal_name_full 'Cryst.Growth Des. '
loop_
_publ_author_name
"Hua Jin"
"Yanfei Qi"
"Enbo Wang"
"Yangguang Li"
"Xinlong Wang"
"Chao Qin"
"Song Chang"
_chemical_name_systematic
;
catena-((\m~2~-4,4'-Bipyridine-N,N')-copper(i) 
(\m~12~-phosphato)-tetrakis(\m~3~-oxo)-bis(\m~2~-4,4'-bipyridine-N,N')-tricosa
kis(\m~2~-oxo)-(2,2'-bipyridine-N,N')-nonaoxo-di-copper(i)-copper(ii)-di-molyb
denum(v)-deca-molybdenum(vi))
;
_cell_volume   3086.749
_exptl_crystal_colour 'black'
_exptl_crystal_density_diffrn 2.906
_exptl_crystal_description 'block'
_diffrn_ambient_temperature 293
#These two values have been output from a single CSD field.
_refine_ls_R_factor_gt 0.0283
_refine_ls_wR_factor_gt 0.0283
_symmetry_cell_setting monoclinic
_symmetry_space_group_name_H-M 'P 21'
_symmetry_Int_Tables_number 4
loop_
_symmetry_equiv_pos_site_id
_symmetry_equiv_pos_as_xyz
1 x,y,z
2 -x,1/2+y,-z
_cell_length_a 10.941(2)
_cell_length_b 21.255(4)
_cell_length_c 13.487(3)
_cell_angle_alpha 90
_cell_angle_beta 100.21(3)
_cell_angle_gamma 90
_cell_formula_units_Z 2
loop_
_atom_type_symbol
_atom_type_radius_bond
C 0.68
H 0.23
Cu 1.52
Mo 1.39
N 0.68
O 0.68
P 1.05
loop_
_atom_site_label
_atom_site_type_symbol
_atom_site_fract_x
_atom_site_fract_y
_atom_site_fract_z
Mo1 Mo 0.37176(5) 0.01310(2) 0.01304(4)
Mo2 Mo 0.35461(5) 0.08596(3) 0.26077(4)
Mo3 Mo 0.07456(5) 0.08658(3) 0.34148(4)
Mo4 Mo 0.32716(5) -0.08827(3) 0.23572(4)
Mo5 Mo 0.04799(5) -0.08565(3) 0.31492(4)
P1 P 0.08705(16) 0.01293(9) 0.11002(14)
Mo6 Mo 0.11099(5) -0.05331(2) -0.12689(4)
Mo7 Mo -0.18876(5) -0.05254(3) -0.03260(4)
Mo8 Mo 0.13142(5) 0.10540(2) -0.09967(4)
Mo9 Mo -0.20668(5) 0.01611(3) 0.19261(4)
Mo10 Mo -0.16951(5) 0.10678(3) -0.00787(4)
Mo11 Mo 0.06612(5) -0.15446(3) 0.09235(4)
Cu1 Cu 0.08867(9) 0.01364(5) -0.38893(9)
Mo12 Mo 0.11646(5) 0.17789(3) 0.14334(4)
O1 O 0.2899(4) -0.0462(2) -0.0901(3)
O2 O 0.4949(4) 0.1071(2) 0.3238(4)
O3 O -0.0328(4) 0.1037(2) -0.0889(3)
O4 O -0.0876(4) 0.0730(2) 0.2746(4)
O5 O -0.0512(4) -0.0479(2) -0.1095(3)
O6 O 0.0271(4) -0.1544(2) 0.2246(3)
O7 O -0.1048(4) -0.0502(2) 0.2592(3)
O8 O -0.0832(4) -0.1169(2) 0.0369(4)
O9 O -0.2460(4) 0.0878(2) 0.1006(3)
O10 O -0.0540(4) 0.0187(2) 0.0796(3)
O11 O 0.1666(4) 0.1526(2) 0.0185(4)
O12 O 0.0577(4) 0.1104(2) 0.4581(4)
O13 O 0.1478(4) 0.0170(2) 0.0162(3)
O14 O 0.5159(4) 0.0080(2) -0.0113(4)
O15 O 0.1358(4) 0.0670(2) 0.1817(3)
O16 O 0.3073(4) 0.0788(2) -0.0734(4)
O17 O 0.0988(4) -0.0970(2) -0.2338(4)
O18 O 0.0193(4) -0.1182(3) 0.4229(4)
O19 O 0.2586(4) 0.0922(2) 0.3615(3)
O20 O 0.3556(4) -0.0052(2) 0.2764(3)
O21 O 0.4597(4) -0.1233(2) 0.2892(4)
O22 O 0.3874(4) 0.0628(2) 0.1279(4)
O23 O -0.2620(4) -0.0380(2) 0.0812(3)
O24 O -0.2619(4) 0.1637(2) -0.0674(4)
O25 O 0.1125(4) 0.0281(2) -0.1811(3)
O26 O 0.1394(4) -0.1188(2) -0.0206(3)
O27 O -0.2311(4) 0.0332(2) -0.0773(3)
Cu2 Cu 0.06502(8) -0.15338(5) -0.39888(7)
Cu3 Cu 0.09954(8) 0.18302(5) -0.37147(8)
O28 O 0.2266(4) -0.1021(2) 0.3325(3)
O29 O 0.0446(5) -0.2305(2) 0.0626(4)
O30 O 0.0943(4) 0.0005(2) 0.3581(4)
O31 O 0.1169(4) -0.0502(2) 0.1631(3)
O32 O 0.1350(4) 0.1588(2) -0.1918(4)
O33 O 0.1155(5) 0.2566(2) 0.1324(4)
O34 O -0.2998(4) -0.0937(2) -0.1084(4)
O35 O 0.0799(4) 0.1673(2) 0.2761(4)
O36 O -0.0437(4) 0.1554(2) 0.0813(4)
O37 O 0.2419(4) -0.1572(2) 0.1568(3)
O38 O 0.3615(4) -0.0615(2) 0.1008(4)
O39 O 0.2904(4) 0.1629(2) 0.2041(4)
Cu4 Cu 0.32144(8) -0.13852(4) 0.01091(7)
N1 N -0.0863(5) 0.0157(3) -0.3985(5)
N2 N -0.1110(5) -0.1614(3) -0.4043(5)
N3 N -0.0760(6) 0.1873(3) -0.3785(5)
O40 O -0.3257(4) 0.0155(2) 0.2550(4)
C1 C -0.4791(6) 0.0116(3) -0.3927(5)
N4 N -0.7242(6) 0.1863(3) -0.3711(5)
N5 N -0.7597(5) -0.1577(3) -0.3950(4)
N6 N -0.7344(5) 0.0097(3) -0.3860(5)
C2 C -0.1597(7) 0.1680(4) -0.4581(6)
H1 H -0.13100 0.15440 -0.51530
C3 C -0.3455(6) 0.0139(3) -0.3986(5)
C4 C -0.5016(6) -0.1624(3) -0.3989(5)
C5 C -0.3325(7) 0.1888(3) -0.3763(6)
C6 C -0.6741(6) -0.1398(3) -0.3132(5)
H2 H -0.70160 -0.12520 -0.25590
C7 C -0.1215(6) 0.2094(3) -0.2986(6)
H3 H -0.06550 0.22360 -0.24310
C8 C -0.2980(7) 0.0016(4) -0.4853(6)
H4 H -0.35160 -0.00760 -0.54510
C9 C -0.6521(7) 0.0264(4) -0.3054(6)
H5 H -0.68050 0.03720 -0.24660
C10 C -0.1715(7) 0.0030(4) -0.4832(7)
H6 H -0.14260 -0.00510 -0.54270
C11 C -0.7162(6) -0.1763(3) -0.4766(5)
H7 H -0.77370 -0.18840 -0.53270
C12 C -0.2468(6) 0.2120(3) -0.2947(6)
H8 H -0.27380 0.22900 -0.23880
N7 N 0.4965(5) -0.1686(3) 0.0375(5)
C13 C -0.5570(7) 0.1820(4) -0.4628(6)
H9 H -0.53130 0.17810 -0.52460
C14 C -0.5918(6) -0.1788(3) -0.4840(5)
H10 H -0.56770 -0.19110 -0.54390
C15 C -0.1359(7) 0.0304(4) -0.3159(6)
H11 H -0.08190 0.04260 -0.25790
C16 C -0.4685(6) 0.1884(3) -0.3735(6)
C17 C -0.2877(6) 0.1675(3) -0.4591(5)
H12 H -0.34190 0.15290 -0.51540
C18 C -0.5468(6) -0.1426(3) -0.3134(5)
H13 H -0.49120 -0.13120 -0.25590
C19 C -0.6814(6) 0.1817(4) -0.4578(5)
H14 H -0.73840 0.17800 -0.51740
C20 C -0.3209(6) -0.1620(4) -0.4907(6)
H15 H -0.37570 -0.16220 -0.55190
N8 N 0.3024(6) -0.2113(3) -0.0849(5)
C21 C -0.2595(6) 0.0285(4) -0.3123(5)
H16 H -0.28660 0.03690 -0.25210
C22 C -0.5263(6) 0.0281(4) -0.3061(6)
H17 H -0.47190 0.04040 -0.24830
C23 C -0.6401(7) 0.1935(4) -0.2870(6)
H18 H -0.66840 0.19830 -0.22630
C24 C -0.5688(7) -0.0069(4) -0.4749(6)
H19 H -0.54440 -0.01890 -0.53470
C25 C -0.1567(7) -0.1645(4) -0.3164(6)
H20 H -0.10020 -0.16600 -0.25620
C26 C -0.6905(7) -0.0074(4) -0.4679(6)
H21 H -0.74710 -0.02060 -0.52380
C27 C -0.5148(7) 0.1943(4) -0.2853(6)
H22 H -0.46050 0.19890 -0.22440
C28 C -0.1954(7) -0.1605(4) -0.4903(6)
H23 H -0.16750 -0.15880 -0.55150
C29 C 0.7276(7) -0.2242(3) 0.0687(6)
H24 H 0.80540 -0.24320 0.07910
C30 C 0.5870(7) -0.1452(4) 0.1076(6)
H25 H 0.57120 -0.11020 0.14470
C31 C -0.3671(6) -0.1632(3) -0.4022(5)
C32 C 0.1976(7) -0.2295(3) -0.1476(6)
H26 H 0.12220 -0.21120 -0.14130
C33 C -0.2804(6) -0.1656(3) -0.3116(6)
H27 H -0.30680 -0.16780 -0.24990
C34 C 0.7058(7) -0.1727(3) 0.1260(6)
H28 H 0.76810 -0.15660 0.17540
C35 C 0.5183(7) -0.2186(3) -0.0161(6)
C36 C 0.6330(6) -0.2473(4) -0.0043(7)
H29 H 0.64650 -0.28140 -0.04430
C37 C 0.4088(6) -0.2411(3) -0.0917(5)
C38 C 0.2004(7) -0.2747(4) -0.2207(6)
H30 H 0.12810 -0.28490 -0.26540
C39 C 0.3069(8) -0.3040(4) -0.2273(6)
H31 H 0.30810 -0.33560 -0.27470
C40 C 0.4181(7) -0.2865(4) -0.1618(7)
H32 H 0.49380 -0.30520 -0.16630
Cu1* Cu -0.91133(9) 0.01364(5) -0.38893(9)
O18* O 0.0193(4) -0.1182(3) -0.5771(4)
Cu2* Cu 0.06502(8) -0.15338(5) 0.60112(7)
Cu2** Cu -0.93498(8) -0.15338(5) -0.39888(7)
Cu3* Cu -0.90046(8) 0.18302(5) -0.37147(8)
N4* N 0.2758(6) 0.1863(3) -0.3711(5)
N5* N 0.2403(5) -0.1577(3) -0.3950(4)
N6* N 0.2656(5) 0.0097(3) -0.3860(5)
#END
