
#######################################################################
#
#                 Cambridge Crystallographic Data Centre
#                                CCDC
#
#######################################################################
#
# If this CIF has been generated from an entry in the Cambridge
# Structural Database, then it will include bibliographic, chemical,
# crystal, experimental, refinement or atomic coordinate data resulting
# from the CCDC's data processing and validation procedures.
#
#######################################################################

data_CSD_CIF_XEVGUC
_audit_creation_date 2013-05-20
_audit_creation_method CSD-ConQuest-V1
_database_code_CSD XEVGUC
_database_code_depnum_ccdc_archive 'CCDC 894686'
_chemical_formula_sum 'C12 H19 Cd1.5 Gd1 O18.5'
_chemical_formula_moiety
;
(C12 H12 Cd1 Gd1 O15 1-)n,0.5n(H12 Cd1 O6 2+),0.5n(H2 O1)
;
_journal_coden_Cambridge 1220
_journal_volume 19
_journal_year 2013
_journal_page_first 3590
_journal_name_full 'Chem.-Eur.J. '
loop_
_publ_author_name
"Jing-xin Ma"
"Xiao-feng Huang"
"Xue-qin Song"
"Wei-sheng Liu"
_chemical_name_systematic
;
catena-(hemikis(Hexa-aqua-cadmium) 
tris(\m~3~-oxydiacetato)-cadmium-gadolinium hemihydrate)
;
_cell_volume  17941.517
_exptl_crystal_colour 'colorless'
_exptl_crystal_density_diffrn 2.361
_exptl_crystal_description 'block'
_diffrn_ambient_temperature 293
#These two values have been output from a single CSD field.
_refine_ls_R_factor_gt 0.0668
_refine_ls_wR_factor_gt 0.0668
_symmetry_cell_setting cubic
_symmetry_space_group_name_H-M 'F d -3 c'
_symmetry_Int_Tables_number 228
loop_
_symmetry_equiv_pos_site_id
_symmetry_equiv_pos_as_xyz
1 x,y,z
2 -y,1/4+x,3/4+z
3 3/4-x,1/4-y,1/2+z
4 3/4+y,-x,1/4+z
5 x,1/4-y,1/4-z
6 3/4+y,1/4+x,-z
7 3/4-x,y,3/4-z
8 -y,-x,1/2-z
9 z,x,y
10 -x,1/4+z,3/4+y
11 3/4-z,1/4-x,1/2+y
12 3/4+x,-z,1/4+y
13 z,1/4-x,1/4-y
14 3/4+x,1/4+z,-y
15 3/4-z,x,3/4-y
16 -x,-z,1/2-y
17 y,z,x
18 1/2-z,-y,-x
19 -z,3/4+y,1/4+x
20 1/4+z,3/4+y,-x
21 3/4+z,-y,1/4+x
22 y,3/4-z,3/4-x
23 1/4-y,1/4-z,x
24 1/4-y,1/2+z,3/4-x
25 x,1/2+y,1/2+z
26 -y,3/4+x,1/4+z
27 3/4-x,3/4-y,z
28 3/4+y,1/2-x,3/4+z
29 x,3/4-y,3/4-z
30 3/4+y,3/4+x,1/2-z
31 3/4-x,1/2+y,1/4-z
32 -y,1/2-x,-z
33 z,1/2+x,1/2+y
34 -x,3/4+z,1/4+y
35 3/4-z,3/4-x,y
36 3/4+x,1/2-z,3/4+y
37 z,3/4-x,3/4-y
38 3/4+x,3/4+z,1/2-y
39 3/4-z,1/2+x,1/4-y
40 -x,1/2-z,-y
41 y,1/2+z,1/2+x
42 1/2-z,1/2-y,1/2-x
43 -z,1/4+y,3/4+x
44 1/4+z,1/4+y,1/2-x
45 3/4+z,1/2-y,3/4+x
46 y,1/4-z,1/4-x
47 1/4-y,3/4-z,1/2+x
48 1/4-y,z,1/4-x
49 1/2+x,y,1/2+z
50 1/2-y,1/4+x,1/4+z
51 1/4-x,1/4-y,z
52 1/4+y,-x,3/4+z
53 1/2+x,1/4-y,3/4-z
54 1/4+y,1/4+x,1/2-z
55 1/4-x,y,1/4-z
56 1/2-y,-x,-z
57 1/2+z,x,1/2+y
58 1/2-x,1/4+z,1/4+y
59 1/4-z,1/4-x,y
60 1/4+x,-z,3/4+y
61 1/2+z,1/4-x,3/4-y
62 1/4+x,1/4+z,1/2-y
63 1/4-z,x,1/4-y
64 1/2-x,-z,-y
65 1/2+y,z,1/2+x
66 -z,-y,1/2-x
67 1/2-z,3/4+y,3/4+x
68 3/4+z,3/4+y,1/2-x
69 1/4+z,-y,3/4+x
70 1/2+y,3/4-z,1/4-x
71 3/4-y,1/4-z,1/2+x
72 3/4-y,1/2+z,1/4-x
73 1/2+x,1/2+y,z
74 1/2-y,3/4+x,3/4+z
75 1/4-x,3/4-y,1/2+z
76 1/4+y,1/2-x,1/4+z
77 1/2+x,3/4-y,1/4-z
78 1/4+y,3/4+x,-z
79 1/4-x,1/2+y,3/4-z
80 1/2-y,1/2-x,1/2-z
81 1/2+z,1/2+x,y
82 1/2-x,3/4+z,3/4+y
83 1/4-z,3/4-x,1/2+y
84 1/4+x,1/2-z,1/4+y
85 1/2+z,3/4-x,1/4-y
86 1/4+x,3/4+z,-y
87 1/4-z,1/2+x,3/4-y
88 1/2-x,1/2-z,1/2-y
89 1/2+y,1/2+z,x
90 -z,1/2-y,-x
91 1/2-z,1/4+y,1/4+x
92 3/4+z,1/4+y,-x
93 1/4+z,1/2-y,1/4+x
94 1/2+y,1/4-z,3/4-x
95 3/4-y,3/4-z,x
96 3/4-y,z,3/4-x
97 -x,-y,-z
98 y,-1/4-x,-3/4-z
99 -3/4+x,-1/4+y,-1/2-z
100 -3/4-y,x,-1/4-z
101 -x,-1/4+y,-1/4+z
102 -3/4-y,-1/4-x,z
103 -3/4+x,-y,-3/4+z
104 y,x,-1/2+z
105 -z,-x,-y
106 x,-1/4-z,-3/4-y
107 -3/4+z,-1/4+x,-1/2-y
108 -3/4-x,z,-1/4-y
109 -z,-1/4+x,-1/4+y
110 -3/4-x,-1/4-z,y
111 -3/4+z,-x,-3/4+y
112 x,z,-1/2+y
113 -y,-z,-x
114 -1/2+z,y,x
115 z,-3/4-y,-1/4-x
116 -1/4-z,-3/4-y,x
117 -3/4-z,y,-1/4-x
118 -y,-3/4+z,-3/4+x
119 -1/4+y,-1/4+z,-x
120 -1/4+y,-1/2-z,-3/4+x
121 -x,-1/2-y,-1/2-z
122 y,-3/4-x,-1/4-z
123 -3/4+x,-3/4+y,-z
124 -3/4-y,-1/2+x,-3/4-z
125 -x,-3/4+y,-3/4+z
126 -3/4-y,-3/4-x,-1/2+z
127 -3/4+x,-1/2-y,-1/4+z
128 y,-1/2+x,z
129 -z,-1/2-x,-1/2-y
130 x,-3/4-z,-1/4-y
131 -3/4+z,-3/4+x,-y
132 -3/4-x,-1/2+z,-3/4-y
133 -z,-3/4+x,-3/4+y
134 -3/4-x,-3/4-z,-1/2+y
135 -3/4+z,-1/2-x,-1/4+y
136 x,-1/2+z,y
137 -y,-1/2-z,-1/2-x
138 -1/2+z,-1/2+y,-1/2+x
139 z,-1/4-y,-3/4-x
140 -1/4-z,-1/4-y,-1/2+x
141 -3/4-z,-1/2+y,-3/4-x
142 -y,-1/4+z,-1/4+x
143 -1/4+y,-3/4+z,-1/2-x
144 -1/4+y,-z,-1/4+x
145 -1/2-x,-y,-1/2-z
146 -1/2+y,-1/4-x,-1/4-z
147 -1/4+x,-1/4+y,-z
148 -1/4-y,x,-3/4-z
149 -1/2-x,-1/4+y,-3/4+z
150 -1/4-y,-1/4-x,-1/2+z
151 -1/4+x,-y,-1/4+z
152 -1/2+y,x,z
153 -1/2-z,-x,-1/2-y
154 -1/2+x,-1/4-z,-1/4-y
155 -1/4+z,-1/4+x,-y
156 -1/4-x,z,-3/4-y
157 -1/2-z,-1/4+x,-3/4+y
158 -1/4-x,-1/4-z,-1/2+y
159 -1/4+z,-x,-1/4+y
160 -1/2+x,z,y
161 -1/2-y,-z,-1/2-x
162 z,y,-1/2+x
163 -1/2+z,-3/4-y,-3/4-x
164 -3/4-z,-3/4-y,-1/2+x
165 -1/4-z,y,-3/4-x
166 -1/2-y,-3/4+z,-1/4+x
167 -3/4+y,-1/4+z,-1/2-x
168 -3/4+y,-1/2-z,-1/4+x
169 -1/2-x,-1/2-y,-z
170 -1/2+y,-3/4-x,-3/4-z
171 -1/4+x,-3/4+y,-1/2-z
172 -1/4-y,-1/2+x,-1/4-z
173 -1/2-x,-3/4+y,-1/4+z
174 -1/4-y,-3/4-x,z
175 -1/4+x,-1/2-y,-3/4+z
176 -1/2+y,-1/2+x,-1/2+z
177 -1/2-z,-1/2-x,-y
178 -1/2+x,-3/4-z,-3/4-y
179 -1/4+z,-3/4+x,-1/2-y
180 -1/4-x,-1/2+z,-1/4-y
181 -1/2-z,-3/4+x,-1/4+y
182 -1/4-x,-3/4-z,y
183 -1/4+z,-1/2-x,-3/4+y
184 -1/2+x,-1/2+z,-1/2+y
185 -1/2-y,-1/2-z,-x
186 z,-1/2+y,x
187 -1/2+z,-1/4-y,-1/4-x
188 -3/4-z,-1/4-y,x
189 -1/4-z,-1/2+y,-1/4-x
190 -1/2-y,-1/4+z,-3/4+x
191 -3/4+y,-3/4+z,-x
192 -3/4+y,-z,-3/4+x
_cell_length_a 26.179(3)
_cell_length_b 26.179(3)
_cell_length_c 26.179(3)
_cell_angle_alpha 90
_cell_angle_beta 90
_cell_angle_gamma 90
_cell_formula_units_Z 32
loop_
_atom_type_symbol
_atom_type_radius_bond
C 0.68
H 0.23
Cd 1.44
Gd 1.96
O 0.68
loop_
_atom_site_label
_atom_site_type_symbol
_atom_site_fract_x
_atom_site_fract_y
_atom_site_fract_z
Gd1 Gd 0.00000 0.25000 0.00000
Cd1 Cd 0.00000 0.50000 0.00000
C1 C 0.0095(7) 0.3741(5) -0.0010(6)
C2 C 0.0034(6) 0.3677(5) 0.0546(6)
H1 H 0.03230 0.38260 0.07220
H2 H -0.02730 0.38510 0.06590
O1 O 0.0141(4) 0.4174(4) -0.0209(4)
O2 O 0.0087(4) 0.3354(4) -0.0297(4)
O3 O 0.00000 0.3160(3) 0.0660(3)
Cd2 Cd 0.12500 0.12500 0.12500
O4 O 0.0399(7) 0.12500 0.12500
H3 H 0.02940 0.10280 0.10550
O5 O 0.37500 0.12500 0.12500
C1I C -0.0095(7) 0.2490(5) 0.1241(6)
C2I C -0.0034(6) 0.3046(5) 0.1177(6)
H1I H -0.03230 0.32220 0.13260
H2I H 0.02730 0.31590 0.13510
O1I O -0.0141(4) 0.2291(4) 0.1674(4)
O2I O -0.0087(4) 0.2203(4) 0.0854(4)
C1E C 0.1241(7) 0.2595(5) 0.0010(6)
C2E C 0.1177(6) 0.2534(5) -0.0546(6)
H1E H 0.13260 0.28230 -0.07220
H2E H 0.13510 0.22270 -0.06590
O1E O 0.1674(4) 0.2641(4) 0.0209(4)
O2E O 0.0854(4) 0.2587(4) 0.0297(4)
O3E O 0.06600 0.2500(3) -0.0660(3)
C1L C -0.0010(7) 0.2405(5) -0.1241(6)
C2L C 0.0546(6) 0.2466(5) -0.1177(6)
H1L H 0.07220 0.21770 -0.13260
H2L H 0.06590 0.27730 -0.13510
O1L O -0.0209(4) 0.2359(4) -0.1674(4)
O2L O -0.0297(4) 0.2413(4) -0.0854(4)
C1V C -0.1241(7) 0.2510(5) 0.0095(6)
C2V C -0.1177(6) 0.1954(5) 0.0034(6)
H1V H -0.13260 0.17780 0.03230
H2V H -0.13510 0.18410 -0.02730
O1V O -0.1674(4) 0.2709(4) 0.0141(4)
O2V O -0.0854(4) 0.2797(4) 0.0087(4)
O3V O -0.06600 0.1840(3) 0.0000(3)
C1KC C 0.0010(7) 0.1259(5) -0.0095(6)
C2KC C -0.0546(6) 0.1323(5) -0.0034(6)
H1KC H -0.07220 0.11740 -0.03230
H2KC H -0.06590 0.11490 0.02730
O1KC O 0.0209(4) 0.0826(4) -0.0141(4)
O2KC O 0.0297(4) 0.1646(4) -0.0087(4)
Cd1E Cd 0.25000 0.25000 0.00000
Cd1I Cd 0.00000 0.25000 0.25000
Cd1J Cd -0.25000 0.25000 0.00000
Cd1L Cd 0.00000 0.25000 -0.25000
Cd1O Cd 0.00000 0.00000 0.00000
O1FA O -0.0209(4) 0.5141(4) -0.0826(4)
O1JC O -0.0826(4) 0.4791(4) 0.0141(4)
O1RC O -0.0141(4) 0.5826(4) 0.0209(4)
O1XD O 0.0209(4) 0.4859(4) 0.0826(4)
O1BG O 0.0826(4) 0.5209(4) -0.0141(4)
H3D H 0.02940 0.14720 0.14450
O4H O 0.1250(7) 0.03990 0.12500
H3H H 0.10550 0.02940 0.10280
H3JB H 0.14450 0.02940 0.14720
O4L O 0.1250(7) 0.21010 0.12500
H3L H 0.10550 0.22060 0.14720
H3FB H 0.14450 0.22060 0.10280
O4P O 0.1250(7) 0.12500 0.03990
H3P H 0.10280 0.10550 0.02940
H3V H 0.14720 0.14450 0.02940
O4SA O 0.1250(7) 0.12500 0.21010
H3SA H 0.10280 0.14450 0.22060
H3UA H 0.14720 0.10550 0.22060
O4XA O 0.2101(7) 0.12500 0.12500
H3XA H 0.22060 0.14720 0.10550
H3BB H 0.22060 0.10280 0.14450
#END
