
#######################################################################
#
#                 Cambridge Crystallographic Data Centre
#                                CCDC
#
#######################################################################
#
# If this CIF has been generated from an entry in the Cambridge
# Structural Database, then it will include bibliographic, chemical,
# crystal, experimental, refinement or atomic coordinate data resulting
# from the CCDC's data processing and validation procedures.
#
#######################################################################

data_CSD_CIF_XEVVUQ
_audit_creation_date 2007-05-09
_audit_creation_method CSD-ConQuest-V1
_database_code_CSD XEVVUQ
_database_code_depnum_ccdc_archive 'CCDC 611560'
_chemical_formula_sum 'C14 H42 Fe6 N4 O40 P8'
_chemical_formula_moiety
;
(C8 H26 N4 4+)n,n(C6 H8 Fe6 O36 P8 4-),4n(H2 O1)
;
_journal_coden_Cambridge 1220
_journal_volume 13
_journal_year 2007
_journal_page_first 968
_journal_name_full 'Chem.-Eur.J. '
loop_
_publ_author_name
"S.Mandal"
"S.Natarajan"
_chemical_name_systematic
;
catena-(N,N'-bis(2-Ammonioethyl)ethane-1,2-diammonium 
octakis(\m~3~-phosphito)-tris(\m~2~-oxalato)-hexa-iron(iii) tetrahydrate)
;
_cell_volume   2280.354
_exptl_crystal_colour 'colorless'
_exptl_crystal_density_diffrn 2.157
_exptl_crystal_description 'plate-like'
_diffrn_ambient_temperature 293
#These two values have been output from a single CSD field.
_refine_ls_R_factor_gt 0.0351
_refine_ls_wR_factor_gt 0.0351
_symmetry_cell_setting monoclinic
_symmetry_space_group_name_H-M 'P 21/n'
_symmetry_Int_Tables_number 14
loop_
_symmetry_equiv_pos_site_id
_symmetry_equiv_pos_as_xyz
1 x,y,z
2 1/2-x,1/2+y,1/2-z
3 -x,-y,-z
4 -1/2+x,-1/2-y,-1/2+z
_cell_length_a 8.4738(1)
_cell_length_b 16.6853(2)
_cell_length_c 16.2148(3)
_cell_angle_alpha 90
_cell_angle_beta 95.919(1)
_cell_angle_gamma 90
_cell_formula_units_Z 2
loop_
_atom_type_symbol
_atom_type_radius_bond
C 0.68
H 0.23
Fe 1.34
N 0.68
O 0.68
P 1.05
loop_
_atom_site_label
_atom_site_type_symbol
_atom_site_fract_x
_atom_site_fract_y
_atom_site_fract_z
P1 P -0.18635(10) 0.53488(5) 0.76918(5)
H1 H -0.23040 0.49970 0.80940
P2 P 0.3006(1) 0.23584(5) 0.70784(5)
H2 H 0.40380 0.25330 0.73460
P3 P 0.01817(10) 0.28537(5) 0.89068(5)
H3 H 0.13330 0.28790 0.90480
P4 P -0.19845(10) 0.24924(5) 0.66253(5)
H4 H -0.25190 0.25210 0.71330
O1 O 0.2016(3) 0.31037(16) 0.69233(19)
O2 O -0.0876(3) 0.48385(15) 0.71646(16)
O3 O -0.0261(3) 0.34365(16) 0.82036(15)
O4 O -0.1244(3) 0.33088(14) 0.64918(15)
O5 O 0.2224(3) 0.44349(15) 0.80046(15)
O6 O 0.1628(3) 0.45961(15) 0.63569(14)
O7 O 0.3316(3) 0.19757(16) 0.62548(15)
O8 O -0.0867(3) 0.59837(15) 0.81689(15)
O9 O -0.3238(3) 0.23060(15) 0.59037(15)
O10 O -0.0610(3) 0.30763(15) 0.96742(14)
O11 O 0.3528(3) 0.05230(14) 0.54403(15)
O12 O 0.3436(3) -0.06750(14) 0.48112(15)
O13 O -0.0254(3) 0.19969(15) 0.86495(16)
O14 O -0.3237(3) 0.57030(16) 0.71327(16)
O15 O -0.0740(3) 0.18325(14) 0.67393(15)
O16 O 0.2328(3) 0.17864(17) 0.76728(15)
O17 O 0.4046(3) 0.54032(15) 0.80164(15)
O18 O 0.3529(3) 0.55306(15) 0.63809(14)
C1 C 0.2680(4) 0.5029(2) 0.6714(2)
C2 C 0.3005(4) 0.4947(2) 0.7662(2)
C3 C 0.4118(4) -0.0047(2) 0.50735(19)
Fe1 Fe 0.04622(5) 0.38793(3) 0.71993(3)
Fe2 Fe 0.50940(5) 0.14865(3) 0.57818(3)
Fe3 Fe 0.02136(6) 0.12854(3) 0.77519(3)
N1 N 0.5313(4) 0.38711(19) 1.00932(19)
H5 H 0.45190 0.37520 1.04010
H6 H 0.62220 0.38900 1.04320
C4 C 0.5749(6) 0.1788(3) 0.9112(3)
H7 H 0.47940 0.17840 0.87270
H8 H 0.66290 0.19430 0.88090
C5 C 0.5009(4) 0.4667(2) 0.9687(2)
H9 H 0.39960 0.46530 0.93490
H10 H 0.58260 0.47740 0.93240
N2 N 0.6039(5) 0.0972(2) 0.9457(2)
H11 H 0.61650 0.06310 0.90470
H12 H 0.52150 0.08200 0.97180
H13 H 0.69110 0.09760 0.98130
C6 C 0.5566(6) 0.2397(2) 0.9795(2)
H14 H 0.46250 0.22720 1.00640
H15 H 0.64760 0.23660 1.02090
C7 C 0.5429(5) 0.3232(2) 0.9447(2)
H16 H 0.44970 0.32600 0.90470
H17 H 0.63480 0.33400 0.91540
O19 O 0.3221(4) 0.0659(2) 1.0189(2)
O20 O 0.9298(7) 0.1001(4) 1.0121(4)
O21 O 0.5472(10) 0.3987(5) 0.6753(6)
C3B C 0.5882(4) 0.0047(2) 0.49265(19)
O11B O 0.6472(3) -0.05230(14) 0.45597(15)
O12B O 0.6564(3) 0.06750(14) 0.51888(15)
C5B C 0.4991(4) 0.5333(2) 1.0313(2)
N1B N 0.4687(4) 0.61289(19) 0.99068(19)
H5B H 0.54810 0.62480 0.95990
H6B H 0.37780 0.61100 0.95680
C7B C 0.4571(5) 0.6768(2) 1.0553(2)
C6B C 0.4434(6) 0.7603(2) 1.0205(2)
C4B C 0.4251(6) 0.8212(3) 1.0888(3)
H7B H 0.52060 0.82160 1.12730
H8B H 0.33710 0.80570 1.11910
N2B N 0.3961(5) 0.9028(2) 1.0543(2)
H11B H 0.38350 0.93690 1.09530
H12B H 0.47850 0.91800 1.02820
H13B H 0.30890 0.90240 1.01870
H14B H 0.53750 0.77280 0.99360
H15B H 0.35240 0.76340 0.97910
H16B H 0.55030 0.67400 1.09530
H17B H 0.36520 0.66600 1.08460
H9B H 0.60040 0.53470 1.06510
H10B H 0.41740 0.52260 1.06760
Fe2A Fe -0.00940(5) 0.64865(3) 0.92182(3)
Fe3A Fe -0.52136(6) 0.62854(3) 0.72481(3)
P1A P 0.68635(10) 0.03488(5) 0.73082(5)
H1A H 0.73040 -0.00030 0.69060
O2A O 0.5876(3) -0.01615(15) 0.78354(16)
O8A O 0.5867(3) 0.09837(15) 0.68311(15)
O14A O 0.8237(3) 0.07030(16) 0.78673(16)
P4* P 0.80155(10) 0.24924(5) 0.66253(5)
H4* H 0.74810 0.25210 0.71330
O4* O 0.8756(3) 0.33088(14) 0.64918(15)
O9* O 0.6762(3) 0.23060(15) 0.59037(15)
O15* O 0.9260(3) 0.18325(14) 0.67393(15)
P3C P 0.51817(10) 0.21463(5) 0.39068(5)
H3C H 0.63330 0.21210 0.40480
O3C O 0.4739(3) 0.15635(16) 0.32036(15)
O10C O 0.4390(3) 0.19237(15) 0.46742(14)
O13C O 0.4746(3) 0.30031(15) 0.36495(16)
O5A O 0.2776(3) -0.05651(15) 0.69954(15)
O6A O 0.3372(3) -0.04039(15) 0.86431(14)
O17A O 0.0954(3) 0.04032(15) 0.69836(15)
O18A O 0.1471(3) 0.05306(15) 0.86191(14)
C1A C 0.2320(4) 0.0029(2) 0.8286(2)
C2A C 0.1995(4) -0.0053(2) 0.7338(2)
P2A P 0.1994(1) 0.73584(5) 0.79216(5)
H2A H 0.09620 0.75330 0.76540
O1A O 0.2984(3) 0.81037(16) 0.80767(19)
O7A O 0.1684(3) 0.69757(16) 0.87452(15)
O16A O 0.2672(3) 0.67864(17) 0.73272(15)
Fe1A Fe 0.45378(5) 0.88793(3) 0.78007(3)
Fe2* Fe -0.49060(5) 0.14865(3) 0.57818(3)
Fe2C Fe 0.00940(5) 0.35135(3) 1.07818(3)
Fe2B Fe 0.49060(5) -0.14865(3) 0.42182(3)
Fe3A* Fe 0.47864(6) 0.62854(3) 0.72481(3)
O14A* O -0.1763(3) 0.07030(16) 0.78673(16)
O9A O -0.1762(3) 0.73060(15) 0.90963(15)
O10B O 0.0610(3) 0.69237(15) 1.03258(14)
O11A O 0.1472(3) 0.55230(14) 0.95597(15)
O12C O -0.1564(3) 0.56750(14) 0.98112(15)
O13A O -0.4746(3) 0.69969(15) 0.63505(16)
O15A O -0.4260(3) 0.68325(14) 0.82607(15)
O16A* O -0.7328(3) 0.67864(17) 0.73272(15)
O17* O -0.5954(3) 0.54032(15) 0.80164(15)
O18* O -0.6471(3) 0.55306(15) 0.63809(14)
Fe1A* Fe 0.45378(5) -0.11207(3) 0.78007(3)
Fe3* Fe 1.02136(6) 0.12854(3) 0.77519(3)
Fe1* Fe 1.04622(5) 0.38793(3) 0.71993(3)
Fe1C Fe 0.54622(5) 0.11207(3) 0.21993(3)
Fe3C Fe 0.52136(6) 0.37146(3) 0.27519(3)
O2A* O 0.5876(3) 0.98385(15) 0.78354(16)
O3A O 0.5261(3) 0.84365(16) 0.67964(15)
O4A O 0.6244(3) 0.83088(14) 0.85082(15)
O5A* O 0.2776(3) 0.94349(15) 0.69954(15)
O6A* O 0.3372(3) 0.95961(15) 0.86431(14)
#END
