
#######################################################################
#
#                 Cambridge Crystallographic Data Centre
#                                CCDC
#
#######################################################################
#
# If this CIF has been generated from an entry in the Cambridge
# Structural Database, then it will include bibliographic, chemical,
# crystal, experimental, refinement or atomic coordinate data resulting
# from the CCDC's data processing and validation procedures.
#
#######################################################################

data_CSD_CIF_XEVVIE
_audit_creation_date 2007-05-09
_audit_creation_method CSD-ConQuest-V1
_database_code_CSD XEVVIE
_database_code_depnum_ccdc_archive 'CCDC 611557'
_chemical_formula_sum 'C22 H54 Fe4 N8 O31 P2'
_chemical_formula_moiety
;
(C6 H21 N4 3+)2n,n(C10 H2 Fe4 O26 P2 6-),5n(H2 O1)
;
_journal_coden_Cambridge 1220
_journal_volume 13
_journal_year 2007
_journal_page_first 968
_journal_name_full 'Chem.-Eur.J. '
loop_
_publ_author_name
"S.Mandal"
"S.Natarajan"
_chemical_name_systematic
;
catena-(bis(tris(2-Ammonioethyl)amine) 
bis(\m~2~-phosphito)-pentakis(\m~2~-oxalato)-tetra-iron(ii) pentahydrate)
;
_cell_volume   1114.096
_exptl_crystal_colour 'brown'
_exptl_crystal_description 'plate-like'
_diffrn_ambient_temperature 293
_refine_special_details
;
A carbon atom of the cation is disordered over two sites with occupancies of 
0.641:0.359.
;
#These two values have been output from a single CSD field.
_refine_ls_R_factor_gt 0.043
_refine_ls_wR_factor_gt 0.043
_symmetry_cell_setting triclinic
_symmetry_space_group_name_H-M 'P -1'
_symmetry_Int_Tables_number 2
loop_
_symmetry_equiv_pos_site_id
_symmetry_equiv_pos_as_xyz
1 x,y,z
2 -x,-y,-z
_cell_length_a 8.719(2)
_cell_length_b 8.827(2)
_cell_length_c 15.908(4)
_cell_angle_alpha 78.617(4)
_cell_angle_beta 84.047(4)
_cell_angle_gamma 68.241(4)
_cell_formula_units_Z 1
loop_
_atom_type_symbol
_atom_type_radius_bond
C 0.68
H 0.23
Fe 1.34
N 0.68
O 0.68
P 1.05
loop_
_atom_site_label
_atom_site_type_symbol
_atom_site_fract_x
_atom_site_fract_y
_atom_site_fract_z
Fe1 Fe 0.27329(6) 0.74673(5) 0.57743(3)
Fe2 Fe 0.22794(5) 0.77370(5) 0.92897(3)
P1 P 0.15147(10) 1.14868(9) 0.97774(5)
H1 H 0.24190 1.18290 0.98780
O1 O 0.2882(3) 0.5479(3) 0.51891(15)
O2 O 0.2985(3) 0.8889(3) 0.66423(15)
O3 O 0.4731(3) 0.3436(3) 0.45808(16)
O4 O 0.2080(3) 0.9371(3) 0.46764(15)
O5 O -0.0091(3) 1.1446(3) 0.40697(16)
O6 O 0.2839(3) 0.5860(3) 0.70079(14)
O7 O 0.2266(3) 0.9625(3) 0.98304(15)
O8 O 0.0258(3) 1.1920(3) 1.05229(14)
O9 O 0.2906(3) 0.5616(3) 1.02870(15)
O10 O 0.2365(4) 0.9184(3) 0.80137(15)
O11 O 0.2411(3) 0.6059(3) 0.83981(14)
O12 O 0.4999(3) 0.3370(3) 1.08190(15)
O13 O 0.0891(3) 1.2422(3) 0.89044(15)
C1 C 0.2669(4) 0.8381(4) 0.7410(2)
C2 C 0.2640(4) 0.6612(4) 0.7632(2)
C3 C 0.0572(4) 1.0245(4) 0.4633(2)
N1 N -0.1311(3) 0.4307(3) 0.71339(17)
N2 N -0.0976(4) 0.5866(3) 0.85840(17)
H2 H -0.18110 0.56970 0.89090
H3 H -0.05600 0.64430 0.88320
H4 H -0.01950 0.48960 0.85250
O14 O 0.4573(3) 0.9655(4) 0.34098(19)
N3 N -0.1537(4) 0.1501(4) 0.84123(18)
C4 C -0.0181(5) 0.4452(4) 0.6393(2)
H5 H 0.00980 0.54220 0.63810
H6 H -0.07440 0.46110 0.58700
C5 C 0.4311(4) 0.4685(4) 0.49315(18)
C6 C -0.2263(5) 0.3299(5) 0.6998(2)
C7 C -0.2408(5) 0.5954(4) 0.7300(2)
H7 H -0.33400 0.58400 0.76610
H8 H -0.28350 0.66470 0.67600
C8 C -0.1578(5) 0.6803(4) 0.7728(2)
H9 H -0.06540 0.69340 0.73660
H10 H -0.23540 0.78990 0.77900
N4 N 0.2387(4) 0.2744(4) 0.7162(2)
H11 H 0.25250 0.36900 0.71720
H12 H 0.33680 0.19490 0.71150
H13 H 0.18660 0.24660 0.76450
C9 C 0.1386(5) 0.2955(4) 0.6415(2)
H14 H 0.11120 0.19750 0.64480
H15 H 0.20330 0.30720 0.58890
C10 C -0.1585(7) 0.1519(7) 0.7467(3)
C11 C 0.4416(4) 0.4695(4) 1.03241(19)
O15 O 0.4932(6) 0.2915(8) 0.8655(4)
O16 O 0.5370(7) 0.9914(7) 0.8565(4)
C12? C -0.2980(14) 0.2630(14) 0.7880(7)
Fe1A Fe 0.72671(6) 0.25327(5) 0.42257(3)
Fe1A* Fe -0.27329(6) 1.25327(5) 0.42257(3)
Fe2A Fe -0.22794(5) 1.22630(5) 1.07103(3)
Fe2A* Fe 0.77206(5) 0.22630(5) 1.07103(3)
Fe2A** Fe 0.77206(5) 0.22630(5) 0.07103(3)
P1A P -0.15147(10) 0.85132(9) 1.02226(5)
H1A H -0.24190 0.81710 1.01220
O1A O 0.7118(3) 0.4521(3) 0.48109(15)
O2A O 0.7015(3) 0.1111(3) 0.33577(15)
O3A O 0.5269(3) 0.6564(3) 0.54192(16)
O4A O -0.2080(3) 1.0629(3) 0.53236(15)
O4A* O 0.7920(3) 0.0629(3) 0.53236(15)
O5A O 0.0091(3) 0.8554(3) 0.59303(16)
O5* O 0.9909(3) 0.1446(3) 0.40697(16)
O6A O 0.7161(3) 0.4140(3) 0.29921(14)
O7A O -0.2266(3) 1.0375(3) 1.01696(15)
O8A O -0.0258(3) 0.8080(3) 0.94771(14)
O9A O 0.7094(3) 0.4384(3) 0.97130(15)
O9A* O -0.2906(3) 1.4384(3) 0.97130(15)
O10A O 0.7635(4) 0.0816(3) 0.19863(15)
O10A* O -0.2365(4) 1.0816(3) 1.19863(15)
O11A O 0.7589(3) 0.3941(3) 0.16019(14)
O11A* O -0.2411(3) 1.3941(3) 1.16019(14)
O12A O 0.5001(3) 0.6630(3) 0.91810(15)
O12* O -0.5001(3) 1.3370(3) 1.08190(15)
O13A O -0.0891(3) 0.7578(3) 1.10956(15)
C1A C 0.7331(4) 0.1619(4) 0.2590(2)
C2A C 0.7360(4) 0.3388(4) 0.2368(2)
C3A C -0.0572(4) 0.9755(4) 0.5367(2)
C5A C 0.5689(4) 0.5315(4) 0.50685(18)
C11A C 0.5584(4) 0.5305(4) 0.96759(19)
#END
