
#######################################################################
#
#                 Cambridge Crystallographic Data Centre
#                                CCDC
#
#######################################################################
#
# If this CIF has been generated from an entry in the Cambridge
# Structural Database, then it will include bibliographic, chemical,
# crystal, experimental, refinement or atomic coordinate data resulting
# from the CCDC's data processing and validation procedures.
#
#######################################################################

data_CSD_CIF_XEVWAX
_audit_creation_date 2007-05-09
_audit_creation_method CSD-ConQuest-V1
_database_code_CSD XEVWAX
_database_code_depnum_ccdc_archive 'CCDC 611559'
_chemical_formula_sum 'C4 H16 Fe2 N2 O12 P2'
_chemical_formula_moiety
;
(C2 H10 N2 2+)n,n(C2 H6 Fe2 O12 P2 2-)
;
_journal_coden_Cambridge 1220
_journal_volume 13
_journal_year 2007
_journal_page_first 968
_journal_name_full 'Chem.-Eur.J. '
loop_
_publ_author_name
"S.Mandal"
"S.Natarajan"
_chemical_name_systematic
;
catena-(Ethylene-1,2-diammonium 
bis(\m~3~-phosphito)-(\m~2~-oxalato)-diaqua-di-iron)
;
_cell_volume    656.383
_exptl_crystal_colour 'brown'
_exptl_crystal_density_diffrn 2.317
_exptl_crystal_description 'plate-like'
_diffrn_ambient_temperature 293
#These two values have been output from a single CSD field.
_refine_ls_R_factor_gt 0.0414
_refine_ls_wR_factor_gt 0.0414
_symmetry_cell_setting monoclinic
_symmetry_space_group_name_H-M 'P 21/c'
_symmetry_Int_Tables_number 14
loop_
_symmetry_equiv_pos_site_id
_symmetry_equiv_pos_as_xyz
1 x,y,z
2 -x,1/2+y,1/2-z
3 -x,-y,-z
4 x,-1/2-y,-1/2+z
_cell_length_a 7.684(4)
_cell_length_b 8.651(4)
_cell_length_c 10.053(5)
_cell_angle_alpha 90
_cell_angle_beta 100.821(8)
_cell_angle_gamma 90
_cell_formula_units_Z 2
loop_
_atom_type_symbol
_atom_type_radius_bond
C 0.68
H 0.23
Fe 1.34
N 0.68
O 0.68
P 1.05
loop_
_atom_site_label
_atom_site_type_symbol
_atom_site_fract_x
_atom_site_fract_y
_atom_site_fract_z
Fe1 Fe 0.32917(6) 0.49056(4) 0.17880(4)
P1 P 0.34452(9) 0.20753(8) 0.39732(8)
H1 H 0.21590 0.19450 0.37190
O1 O 0.3820(3) 0.3732(2) 0.3603(2)
O2 O 0.4245(3) 0.0873(2) 0.3176(2)
O3 O 0.3884(3) 0.1875(2) 0.5496(2)
O4 O 0.1818(3) 0.6228(2) 0.0111(2)
O5 O -0.0569(3) 0.6013(2) -0.1514(2)
O6 O 0.2957(3) 0.7032(3) 0.2968(3)
C1 C 0.0360(4) 0.5647(3) -0.0414(3)
N1 N 0.2423(3) 0.5337(3) 0.5741(3)
H2 H 0.28500 0.49800 0.50360
H3 H 0.30940 0.50010 0.65050
H4 H 0.24310 0.63660 0.57300
C2 C 0.0583(4) 0.4780(4) 0.5659(3)
H5 H 0.01000 0.52140 0.64020
H6 H 0.05910 0.36630 0.57520
H7 H 0.225(5) 0.759(4) 0.330(5)
H8 H 0.389(4) 0.749(5) 0.335(5)
Fe1A Fe 0.67083(6) 0.99056(4) 0.32120(4)
Fe1A* Fe 0.67083(6) -0.00944(4) 0.32120(4)
Fe1C Fe 0.32917(6) 0.00944(4) 0.67880(4)
Fe1B Fe -0.32917(6) 0.50944(4) -0.17880(4)
Fe1B* Fe 0.67083(6) 0.50944(4) -0.17880(4)
P1A P 0.65548(9) 0.70753(8) 0.10268(8)
H1A H 0.78410 0.69450 0.12810
O1A O 0.6180(3) 0.8732(2) 0.1397(2)
O2A O 0.5755(3) 0.5873(2) 0.1824(2)
O2* O 0.4245(3) 1.0873(2) 0.3176(2)
O3A O 0.6116(3) 0.6875(2) -0.0496(2)
O3C O 0.3884(3) 0.3125(2) 0.0496(2)
O3B O 0.6116(3) 0.8125(2) 0.4504(2)
O4B O -0.1818(3) 0.3772(2) -0.0111(2)
O4A O 0.8182(3) 1.1228(2) 0.4889(2)
O5B O 0.0569(3) 0.3987(2) 0.1514(2)
O5C O 0.9431(3) 0.8987(2) 0.3486(2)
O6A O 0.7043(3) 1.2032(3) 0.2032(3)
C1B C -0.0360(4) 0.4353(3) 0.0414(3)
N1B N -0.2423(3) 0.4663(3) 0.4259(3)
H2B H -0.28500 0.50200 0.49640
H3B H -0.30940 0.49990 0.34950
H4B H -0.24310 0.36340 0.42700
C2B C -0.0583(4) 0.5220(4) 0.4341(3)
H5B H -0.01000 0.47860 0.35980
H6B H -0.05910 0.63370 0.42480
H7A H 0.775(5) 1.259(4) 0.170(5)
H8A H 0.611(4) 1.249(5) 0.165(5)
#END
