
#######################################################################
#
#                 Cambridge Crystallographic Data Centre
#                                CCDC
#
#######################################################################
#
# If this CIF has been generated from an entry in the Cambridge
# Structural Database, then it will include bibliographic, chemical,
# crystal, experimental, refinement or atomic coordinate data resulting
# from the CCDC's data processing and validation procedures.
#
#######################################################################

data_CSD_CIF_XEWJEQ
_audit_creation_date 2013-05-20
_audit_creation_method CSD-ConQuest-V1
_database_code_CSD XEWJEQ
_database_code_depnum_ccdc_archive 'CCDC 894285'
_chemical_formula_sum 'C15 H32 Fe1 N31 Na2 O5'
_chemical_formula_moiety
;
(H4 N1 1+)n,n(C15 H28 Fe1 N30 Na2 O5 1-)
;
_journal_coden_Cambridge 9
_journal_volume 52
_journal_year 2013
_journal_page_first 1825
_journal_name_full 'Inorg.Chem. '
loop_
_publ_author_name
"C.Cook"
"F.Habib"
"T.Aharen"
"R.Clerac"
"Anguang Hu"
"M.Murugesu"
_chemical_name_systematic
;
catena-[Ammonium 
(\m~5~-5,5'-iminobis(tetrazol-1-yl))-tris(\m~2~-N,N-dimethylformamide)-diaqua-
bis(5,5'-iminobis(tetrazol-1-yl)-iron)-di-sodium]
;
_cell_volume   1786.696
_exptl_crystal_colour 'blue'
_exptl_crystal_density_diffrn 1.54
_exptl_crystal_description 'plate'
_diffrn_ambient_temperature 100
#These two values have been output from a single CSD field.
_refine_ls_R_factor_gt 0.1057
_refine_ls_wR_factor_gt 0.1057
_symmetry_cell_setting triclinic
_symmetry_space_group_name_H-M 'P -1'
_symmetry_Int_Tables_number 2
loop_
_symmetry_equiv_pos_site_id
_symmetry_equiv_pos_as_xyz
1 x,y,z
2 -x,-y,-z
_cell_length_a 10.9071(9)
_cell_length_b 12.8656(10)
_cell_length_c 13.8554(12)
_cell_angle_alpha 77.327(4)
_cell_angle_beta 71.974(4)
_cell_angle_gamma 78.734(4)
_cell_formula_units_Z 2
loop_
_atom_type_symbol
_atom_type_radius_bond
C 0.68
H 0.23
Fe 1.52
N 0.68
Na 1.66
O 0.68
loop_
_atom_site_label
_atom_site_type_symbol
_atom_site_fract_x
_atom_site_fract_y
_atom_site_fract_z
Fe1 Fe 0.84313(12) 0.29897(9) 0.25377(10)
N1 N 0.8599(6) 0.4449(5) 0.2619(5)
N2 N 0.9647(7) 0.4973(5) 0.2121(6)
N3 N 0.9448(7) 0.5896(6) 0.2417(6)
N4 N 0.8272(8) 0.6030(6) 0.3107(6)
N5 N 0.6613(11) 0.4908(7) 0.3855(9)
H1 H 0.61020 0.54360 0.41530
N6 N 0.5063(10) 0.3721(8) 0.4746(8)
N7 N 0.5028(9) 0.2693(7) 0.4726(7)
N8 N 0.6065(8) 0.2296(6) 0.4095(6)
N9 N 0.6840(7) 0.3083(5) 0.3643(5)
C1 C 0.7789(9) 0.5105(7) 0.3214(8)
C2 C 0.6178(11) 0.3948(8) 0.4067(9)
N10 N 0.9993(6) 0.2947(5) 0.1389(6)
N11 N 1.1185(8) 0.2373(6) 0.1415(7)
N12 N 1.1968(8) 0.2545(8) 0.0510(7)
N13 N 1.1365(7) 0.3232(7) -0.0166(7)
N14 N 0.9198(6) 0.4117(5) 0.0067(6)
H2 H 0.94080 0.45940 -0.04970
N15 N 0.6940(6) 0.4459(5) 0.0142(6)
N16 N 0.5862(7) 0.4169(5) 0.0891(6)
N17 N 0.6147(6) 0.3647(5) 0.1707(6)
N18 N 0.7486(6) 0.3574(4) 0.1525(5)
C3 C 1.0152(7) 0.3446(6) 0.0424(7)
C4 C 0.7904(7) 0.4054(6) 0.0583(6)
N19 N 0.9437(8) 0.2388(5) 0.3522(6)
N20 N 1.0195(10) 0.2951(6) 0.3782(7)
N21 N 1.0686(9) 0.2314(6) 0.4485(7)
N22 N 1.0283(9) 0.1324(6) 0.4699(6)
N23 N 0.8917(7) 0.0588(5) 0.4047(6)
H3 H 0.88550 0.00220 0.45410
N24 N 0.8018(7) -0.0200(5) 0.3074(6)
N25 N 0.7605(8) 0.0172(6) 0.2221(6)
N26 N 0.7722(7) 0.1190(5) 0.1907(6)
N27 N 0.8231(6) 0.1497(5) 0.2551(5)
C5 C 0.9524(9) 0.1413(6) 0.4088(7)
C6 C 0.8404(8) 0.0635(6) 0.3241(6)
O1 O 0.4317(6) 0.1832(5) 0.1437(5)
N28 N 0.4044(7) 0.0709(6) 0.2980(6)
C7 C 0.4511(9) 0.1512(6) 0.2287(7)
H4 H 0.50610 0.18860 0.24600
C8 C 0.4381(11) 0.0309(9) 0.3902(8)
H5 H 0.49550 0.07640 0.39810
H6 H 0.48320 -0.04280 0.38890
H7 H 0.35900 0.03090 0.44830
C9 C 0.3067(15) 0.0194(13) 0.2811(13)
H8 H 0.25460 0.07250 0.24190
H9 H 0.24990 -0.00960 0.34770
H10 H 0.35000 -0.03910 0.24240
Na1 Na 0.3904(3) 0.3668(3) 0.0663(3)
O2 O 0.2518(5) 0.39897(8) 0.2123(7)
H11 H 0.18770 0.45850 0.22540
H12 H 0.19330 0.34860 0.24350
O3 O 1.6298(6) 0.0495(5) -0.0355(7)
N29 N 1.8278(7) 0.1067(6) -0.0787(7)
C10 C 1.7042(9) 0.1082(8) -0.0322(8)
H13 H 1.66640 0.16190 0.00990
C11 C 1.9089(13) 0.1760(11) -0.0697(11)
H14 H 1.94740 0.21610 -0.13790
H15 H 1.97830 0.13330 -0.04110
H16 H 1.85680 0.22660 -0.02400
C12 C 1.8953(19) 0.0167(15) -0.1303(15)
H17 H 1.94110 -0.03550 -0.08570
H18 H 1.95830 0.04250 -0.19490
H19 H 1.83220 -0.01770 -0.14530
Na2 Na 1.4084(3) 0.1326(3) -0.0077(3)
O4 O 1.3175(6) 0.14902(18) -0.1511(7)
H20 H 1.29560 0.08200 -0.15150
H21 H 1.24600 0.20390 -0.14530
O5 O 0.4973(10) 0.3043(7) -0.0940(7)
N30 N 0.6333(14) 0.3396(10) -0.2564(9)
C13 C 0.582(2) 0.3536(13) -0.1634(14)
H22 H 0.61140 0.40840 -0.14360
C14 C 0.609(4) 0.255(3) -0.297(3)
H23 H 0.69040 0.20740 -0.31900
H24 H 0.54520 0.21440 -0.24410
H25 H 0.57490 0.28640 -0.35650
C15 C 0.731(2) 0.4022(18) -0.3353(16)
H26 H 0.79880 0.35310 -0.37450
H27 H 0.68820 0.45410 -0.38210
H28 H 0.77030 0.44060 -0.30130
N31 N 0.76708(7) 0.77004(6) 0.43071(4)
H29 H 0.77170 0.82440 0.37980
H30 H 0.68440 0.77590 0.46410
H31 H 0.80200 0.72650 0.38610
H32 H 0.79780 0.76390 0.48330
N12* N 0.1968(8) 0.2545(8) 0.0510(7)
N15A N 0.3060(6) 0.5541(5) -0.0142(6)
O1* O 1.4317(6) 0.1832(5) 0.1437(5)
Na1* Na 1.3904(3) 0.3668(3) 0.0663(3)
Na1A Na 0.6096(3) 0.6332(3) -0.0663(3)
O3A O 1.3702(6) -0.0495(5) 0.0355(7)
Na2* Na 0.4084(3) 0.1326(3) -0.0077(3)
Na2A Na 1.5916(3) -0.1326(3) 0.0077(3)
O5* O 1.4973(10) 0.3043(7) -0.0940(7)
#END
