
#######################################################################
#
#                 Cambridge Crystallographic Data Centre
#                                CCDC
#
#######################################################################
#
# If this CIF has been generated from an entry in the Cambridge
# Structural Database, then it will include bibliographic, chemical,
# crystal, experimental, refinement or atomic coordinate data resulting
# from the CCDC's data processing and validation procedures.
#
#######################################################################

data_CSD_CIF_XEWLIX
_audit_creation_date 2018-04-06
_audit_creation_method CSD-ConQuest-V1
_database_code_CSD XEWLIX
_database_code_depnum_ccdc_archive 'CCDC 1570609'
_chemical_formula_sum 'C167 H267 Ag36 Mo5 N1 O58 S31'
_chemical_formula_moiety
;
C16 H36 N1 1+,n(C151 H231 Ag36 Mo5 O58 S31 1-)
;
_journal_coden_Cambridge 1220
_journal_volume 24
_journal_year 2018
_journal_page_first 1640
_journal_name_full 'Chem.-Eur.J. '
loop_
_publ_author_name
"Zhi Wang"
"Hai-Feng Su"
"Xing-Po Wang"
"Quan-Qin Zhao"
"Chen-Ho Tung"
"Di Sun"
"Lan-Sun Zheng"
_chemical_name_systematic
;
catena-[tetra-n-butylammonium 
octadecakis(\m-isobutylthiolato)-tridecakis(\m-benzenesulfonato)-pentadecakis(
\m-oxo)-methanol-trioxo-penta-molybdenum(vi)-hexatriaconta-silver(i)]
;
_cell_volume  24252.530
_exptl_crystal_colour 'yellow'
_exptl_crystal_description 'block'
_diffrn_ambient_temperature 100
_refine_special_details
;
Disordered cation molecules were not modelled and the disordered density was 
taken into account using the SQUEEZE/PLATON procedure.
;
#These two values have been output from a single CSD field.
_refine_ls_R_factor_gt 0.1046
_refine_ls_wR_factor_gt 0.1046
_symmetry_cell_setting monoclinic
_symmetry_space_group_name_H-M 'P 21/n'
_symmetry_Int_Tables_number 14
loop_
_symmetry_equiv_pos_site_id
_symmetry_equiv_pos_as_xyz
1 x,y,z
2 1/2-x,1/2+y,1/2-z
3 -x,-y,-z
4 -1/2+x,-1/2-y,-1/2+z
_cell_length_a 20.74(2)
_cell_length_b 32.73(4)
_cell_length_c 35.78(4)
_cell_angle_alpha 90
_cell_angle_beta 93.105(13)
_cell_angle_gamma 90
_cell_formula_units_Z 4
loop_
_atom_type_symbol
_atom_type_radius_bond
C 0.68
H 0.23
Ag 1.45
Mo 1.54
O 0.68
S 1.02
loop_
_atom_site_label
_atom_site_type_symbol
_atom_site_fract_x
_atom_site_fract_y
_atom_site_fract_z
Ag1 Ag 0.16483(8) 0.72112(5) 0.19579(4)
Ag2 Ag 0.02586(8) 0.73113(5) 0.15685(4)
Ag3 Ag 0.11728(8) 0.80719(6) 0.17172(5)
Ag4 Ag 0.31175(8) 0.74995(5) 0.15198(5)
Ag5 Ag 0.25619(8) 0.83283(5) 0.13571(4)
Ag6 Ag 0.08305(8) 0.84429(5) 0.08673(4)
Ag7 Ag -0.00010(8) 0.77110(6) 0.06802(4)
Ag8 Ag 0.07233(8) 0.66063(5) 0.08916(4)
Ag9 Ag 0.20260(8) 0.65133(6) 0.13036(4)
Ag10 Ag 0.17819(7) 0.61650(5) 0.05259(4)
Ag11 Ag 0.37001(7) 0.67077(5) 0.11371(4)
Ag12 Ag 0.38175(7) 0.81018(5) 0.10328(4)
Ag13 Ag 0.20622(9) 0.89925(5) 0.06418(5)
Ag14 Ag 0.03600(7) 0.82978(5) 0.00740(4)
Ag15 Ag -0.00423(7) 0.68437(5) 0.01018(4)
Ag16 Ag 0.09794(7) 0.60875(5) -0.03932(4)
Ag17 Ag 0.32035(8) 0.62887(6) 0.02536(4)
Ag18 Ag 0.48802(8) 0.73738(5) 0.06863(4)
Ag19 Ag 0.35212(9) 0.86119(6) 0.02579(5)
Ag20 Ag 0.13188(8) 0.90561(5) -0.03391(5)
Ag21 Ag 0.04409(9) 0.76170(6) -0.05704(5)
Ag22 Ag 0.10324(7) 0.69018(5) -0.10689(4)
Ag23 Ag 0.22852(8) 0.66608(5) -0.13792(5)
Ag24 Ag 0.26899(8) 0.60087(5) -0.07373(4)
Ag25 Ag 0.44660(7) 0.67435(5) -0.00748(4)
Ag26 Ag 0.47795(8) 0.73821(5) -0.06613(4)
Ag27 Ag 0.49451(7) 0.81273(5) -0.01004(4)
Ag28 Ag 0.40312(8) 0.66034(5) -0.08706(4)
Ag29 Ag 0.36767(9) 0.69008(6) -0.17067(5)
Ag30 Ag 0.44320(8) 0.77175(5) -0.15967(4)
Ag31 Ag 0.40287(8) 0.84217(5) -0.09651(4)
Ag32 Ag 0.29995(8) 0.88565(5) -0.05579(4)
Ag33 Ag 0.26671(9) 0.84881(6) -0.13213(5)
Ag34 Ag 0.16956(8) 0.74623(5) -0.16073(5)
Ag35 Ag 0.31237(9) 0.77779(6) -0.20287(5)
Ag36 Ag 0.11550(8) 0.83793(5) -0.11842(5)
C1 C 0.436(3) 0.9471(11) -0.1839(15)
H1 H 0.41150 0.94850 -0.20800
H2 H 0.48200 0.95180 -0.18760
H3 H 0.42030 0.96800 -0.16700
C2 C 0.423(3) 0.8692(13) -0.2238(9)
H4 H 0.41260 0.88890 -0.24390
H5 H 0.41410 0.84150 -0.23290
H6 H 0.46800 0.87160 -0.21530
C3 C 0.3792(15) 0.8784(7) -0.1911(9)
H7 H 0.33750 0.89240 -0.19840
C4 C 0.427(3) 0.9041(9) -0.1663(12)
H8 H 0.46960 0.89000 -0.16400
H9 H 0.41110 0.90700 -0.14100
C5 C 0.1353(18) 0.9612(9) -0.1213(9)
H10 H 0.14720 0.98480 -0.10500
H11 H 0.09980 0.94570 -0.11050
C6 C 0.118(2) 0.9745(16) -0.1622(10)
H12 H 0.07370 0.98490 -0.16410
H13 H 0.12180 0.95100 -0.17890
H14 H 0.14790 0.99600 -0.16940
C7 C 0.1940(16) 0.9338(8) -0.1281(8)
H15 H 0.19140 0.92280 -0.15430
C8 C 0.2488(19) 0.9656(16) -0.1230(14)
H16 H 0.29040 0.95230 -0.12650
H17 H 0.24880 0.97720 -0.09770
H18 H 0.24200 0.98750 -0.14150
C9 C 0.3130(18) 0.8031(12) -0.2992(10)
H19 H 0.26830 0.80820 -0.29280
H20 H 0.31310 0.78440 -0.32060
H21 H 0.33330 0.82890 -0.30580
C10 C 0.180(4) 0.717(3) -0.3089(16)
H22 H 0.19560 0.74060 -0.32260
H23 H 0.13450 0.72070 -0.30400
H24 H 0.18520 0.69210 -0.32380
C11 C 0.220(3) 0.7127(17) -0.2711(15)
H25 H 0.21270 0.73930 -0.25870
H26 H 0.26530 0.71410 -0.27880
C12 C 0.2254(15) 0.6814(12) -0.2364(7)
H27 H 0.25290 0.65720 -0.24170
C13 C 0.1555(19) 0.6693(12) -0.2321(10)
H28 H 0.14270 0.67670 -0.20700
H29 H 0.15200 0.63960 -0.23540
H30 H 0.12700 0.68300 -0.25090
C14 C 0.5926(13) 0.7041(9) -0.1473(9)
H31 H 0.57790 0.72720 -0.16300
H32 H 0.62970 0.69100 -0.15820
H33 H 0.60530 0.71390 -0.12210
C15 C 0.5382(9) 0.6733(8) -0.1450(6)
H34 H 0.52770 0.66290 -0.17090
C16 C 0.5464(14) 0.6384(8) -0.1207(8)
H35 H 0.50480 0.62400 -0.11860
H36 H 0.56250 0.64710 -0.09540
C17 C 0.602(2) 0.6070(13) -0.1406(11)
H37 H 0.59170 0.60510 -0.16760
H38 H 0.60000 0.57970 -0.12950
H39 H 0.64530 0.61830 -0.13610
C18 C 0.7357(8) 0.7881(7) -0.1590(5)
H40 H 0.77030 0.77820 -0.17280
C19 C 0.6801(10) 0.8031(7) -0.1776(4)
H41 H 0.67680 0.80350 -0.20420
C20 C 0.6295(8) 0.8175(7) -0.1574(5)
H42 H 0.59150 0.82780 -0.17020
C21 C 0.6343(9) 0.8169(7) -0.1185(5)
C22 C 0.6899(10) 0.8018(7) -0.0999(4)
H43 H 0.69330 0.80140 -0.07330
C23 C 0.7406(8) 0.7874(7) -0.1201(5)
H44 H 0.77860 0.77720 -0.10730
C24 C 0.6872(19) 0.6757(12) -0.0215(10)
H45 H 0.69420 0.65170 -0.03710
H46 H 0.70190 0.66980 0.00440
H47 H 0.71170 0.69890 -0.03080
C25 C 0.6159(17) 0.6862(9) -0.0232(9)
H48 H 0.59120 0.66260 -0.01430
H49 H 0.60110 0.69180 -0.04950
C26 C 0.6024(15) 0.7237(9) 0.0009(9)
H50 H 0.60340 0.70860 0.02530
C27 C 0.6529(18) 0.7558(11) 0.0136(12)
H51 H 0.63290 0.77620 0.02940
H52 H 0.66950 0.76920 -0.00840
H53 H 0.68850 0.74240 0.02800
C28 C 0.4783(16) 0.9371(10) 0.0060(8)
H54 H 0.43810 0.94670 0.01620
H55 H 0.50800 0.96010 0.00380
H56 H 0.49830 0.91650 0.02280
C29 C 0.4627(14) 0.9172(8) -0.0347(7)
H57 H 0.50570 0.90840 -0.04320
C30 C 0.4315(16) 0.9441(10) -0.0688(8)
H58 H 0.42970 0.92770 -0.09210
H59 H 0.38690 0.95200 -0.06340
C31 C 0.471(2) 0.9815(14) -0.0739(12)
H60 H 0.45240 0.99730 -0.09510
H61 H 0.51530 0.97360 -0.07890
H62 H 0.47140 0.99810 -0.05110
C32 C 0.2738(10) 1.0428(7) -0.0303(5)
H63 H 0.24730 1.03350 -0.05100
C33 C 0.3037(10) 1.0807(6) -0.0317(5)
H64 H 0.29750 1.09730 -0.05330
C34 C 0.3426(10) 1.0944(5) -0.0013(6)
H65 H 0.36300 1.12040 -0.00230
C35 C 0.3516(10) 1.0701(7) 0.0304(5)
H66 H 0.37820 1.07950 0.05110
C36 C 0.3218(11) 1.0322(6) 0.0318(5)
H67 H 0.32800 1.01560 0.05340
C37 C 0.2829(11) 1.0185(5) 0.0015(6)
C38 C 0.392(3) 0.9454(15) 0.0846(13)
H68 H 0.39690 0.93000 0.06140
H69 H 0.43460 0.95310 0.09540
H70 H 0.36630 0.97000 0.07910
C39 C 0.3571(14) 0.9185(9) 0.1127(7)
H71 H 0.32030 0.93620 0.11970
C40 C 0.3867(17) 0.9032(10) 0.1520(9)
H72 H 0.35150 0.89310 0.16730
H73 H 0.41670 0.88020 0.14820
C41 C 0.423(3) 0.9379(16) 0.1729(14)
H74 H 0.45110 0.95290 0.15660
H75 H 0.44880 0.92600 0.19380
H76 H 0.39100 0.95670 0.18240
C42 C 0.1380(9) 0.9791(7) 0.1397(6)
H77 H 0.17540 0.97390 0.12610
C43 C 0.1033(11) 1.0150(6) 0.1336(5)
H78 H 0.11690 1.03440 0.11600
C44 C 0.0486(11) 1.0225(5) 0.1534(6)
H79 H 0.02480 1.04700 0.14930
C45 C 0.0287(9) 0.9940(7) 0.1792(6)
H80 H -0.00870 0.99910 0.19270
C46 C 0.0634(11) 0.9581(6) 0.1852(5)
H81 H 0.04980 0.93860 0.20290
C47 C 0.1181(10) 0.9506(5) 0.1655(6)
C48 C -0.0820(16) 0.9554(10) 0.0503(8)
H82 H -0.08930 0.97590 0.03060
H83 H -0.06090 0.96830 0.07250
H84 H -0.12340 0.94380 0.05680
C49 C -0.0359(17) 0.9193(11) 0.0355(10)
H85 H -0.04320 0.89340 0.04900
H86 H -0.04450 0.91460 0.00840
C50 C 0.0330(16) 0.9345(10) 0.0435(9)
H87 H 0.03440 0.93120 0.07140
C51 C 0.070(2) 0.9766(14) 0.0425(12)
H88 H 0.10670 0.97400 0.02660
H89 H 0.08550 0.98410 0.06800
H90 H 0.04050 0.99770 0.03240
C52 C -0.195(1) 0.8809(6) -0.1159(5)
H91 H -0.22100 0.86730 -0.13470
C53 C -0.2236(7) 0.9047(6) -0.0893(6)
H92 H -0.26930 0.90740 -0.08980
C54 C -0.1855(10) 0.9246(5) -0.0618(5)
H93 H -0.20510 0.94090 -0.04360
C55 C -0.1187(10) 0.9207(6) -0.0610(5)
H94 H -0.09260 0.93430 -0.04220
C56 C -0.0900(7) 0.8969(6) -0.0876(5)
C57 C -0.1282(10) 0.8770(5) -0.1151(5)
H95 H -0.10860 0.86070 -0.13330
C58 C -0.191(3) 0.8264(17) 0.0164(15)
H96 H -0.22310 0.81980 -0.00390
H97 H -0.18960 0.85610 0.01970
H98 H -0.20390 0.81350 0.03960
C59 C -0.1284(17) 0.8111(9) 0.0068(9)
H99 H -0.10180 0.81340 0.03060
H100 H -0.11200 0.83260 -0.00970
C60 C -0.1047(15) 0.7708(9) -0.0106(9)
H101 H -0.12420 0.75050 0.00630
C61 C -0.153(3) 0.7679(16) -0.0449(12)
H102 H -0.14190 0.74430 -0.06020
H103 H -0.15050 0.79290 -0.05980
H104 H -0.19670 0.76460 -0.03650
C62 C -0.0642(16) 0.7739(10) -0.1340(9)
H105 H -0.07780 0.74940 -0.12090
H106 H -0.09820 0.78210 -0.15260
H107 H -0.05630 0.79610 -0.11590
C63 C 0.0050(13) 0.7638(8) -0.1560(7)
H108 H 0.01090 0.78640 -0.17430
C64 C 0.0055(16) 0.7243(10) -0.1777(9)
H109 H 0.00120 0.70070 -0.16080
H110 H 0.04620 0.72150 -0.19070
C65 C -0.053(3) 0.727(2) -0.2062(17)
H111 H -0.05620 0.70210 -0.22120
H112 H -0.04810 0.75070 -0.22270
H113 H -0.09300 0.73040 -0.19280
C66 C -0.1126(14) 0.6353(11) -0.1066(7)
C67 C -0.1190(14) 0.6005(11) -0.1264(7)
H114 H -0.08410 0.58170 -0.12330
C68 C -0.1650(15) 0.5895(12) -0.1483(8)
H115 H -0.16810 0.56320 -0.15960
C69 C -0.2163(15) 0.6238(11) -0.1548(8)
H116 H -0.24810 0.62040 -0.17470
C70 C -0.2179(14) 0.6561(12) -0.1350(7)
H117 H -0.25290 0.67480 -0.13790
C71 C -0.1658(14) 0.6633(11) -0.1084(7)
H118 H -0.16620 0.68630 -0.09220
C72 C 0.043(3) 0.5660(19) -0.1903(17)
H119 H 0.00670 0.57790 -0.20560
H120 H 0.02720 0.54220 -0.17680
H121 H 0.07680 0.55760 -0.20650
C73 C 0.0712(17) 0.6001(11) -0.1602(9)
H122 H 0.08500 0.62450 -0.17410
H123 H 0.03610 0.60870 -0.14420
C74 C 0.1232(14) 0.5860(7) -0.1374(7)
H124 H 0.15800 0.58710 -0.15560
C75 C 0.126(2) 0.5410(14) -0.1277(12)
H125 H 0.16450 0.53550 -0.11140
H126 H 0.12760 0.52490 -0.15070
H127 H 0.08730 0.53350 -0.11460
C76 C 0.3686(11) 0.5093(6) -0.2434(5)
H128 H 0.34480 0.49930 -0.26490
C77 C 0.4329(12) 0.4982(6) -0.2367(6)
H129 H 0.45310 0.48060 -0.25370
C78 C 0.4677(8) 0.5128(7) -0.2052(7)
H130 H 0.51160 0.50520 -0.20070
C79 C 0.4382(11) 0.5384(7) -0.1803(5)
H131 H 0.46200 0.54840 -0.15880
C80 C 0.3739(11) 0.5495(6) -0.1870(6)
C81 C 0.3391(8) 0.5349(6) -0.2185(6)
H132 H 0.29510 0.54250 -0.22300
C82 C 0.170(2) 0.466(2) 0.0212(14)
H133 H 0.12760 0.47570 0.01550
C83 C 0.223(4) 0.4877(10) 0.0097(9)
C84 C 0.285(3) 0.4733(18) 0.0180(13)
H134 H 0.32130 0.48820 0.01020
C85 C 0.294(2) 0.437(2) 0.0379(13)
H135 H 0.33700 0.42720 0.04350
C86 C 0.242(4) 0.4152(10) 0.0494(9)
H136 H 0.24790 0.39040 0.06290
C87 C 0.179(3) 0.4296(19) 0.0410(13)
H137 H 0.14320 0.41470 0.04890
C88 C 0.263(3) 0.508(2) 0.1307(17)
H138 H 0.22720 0.48930 0.13580
H139 H 0.28940 0.51250 0.15370
H140 H 0.28900 0.49590 0.11160
C89 C 0.2365(13) 0.5462(8) 0.1174(7)
H141 H 0.21070 0.55970 0.13640
H142 H 0.20970 0.54280 0.09390
C90 C 0.3033(13) 0.5713(8) 0.1106(7)
H143 H 0.32330 0.57690 0.13620
C91 C 0.3509(15) 0.5509(9) 0.0914(8)
H144 H 0.33310 0.54260 0.06670
H145 H 0.36520 0.52660 0.10560
H146 H 0.38780 0.56920 0.08860
C92 C 0.4002(17) 0.5432(10) -0.0060(9)
H147 H 0.42720 0.55150 0.01610
H148 H 0.40750 0.51420 -0.01110
H149 H 0.35460 0.54760 -0.00120
C93 C 0.4156(13) 0.5653(8) -0.0353(8)
H150 H 0.40200 0.55040 -0.05880
C94 C 0.485(2) 0.5795(14) -0.0375(12)
H151 H 0.50240 0.58740 -0.01230
H152 H 0.48620 0.60370 -0.05410
C95 C 0.528(2) 0.5416(14) -0.0544(12)
H153 H 0.49970 0.52270 -0.06860
H154 H 0.55060 0.52690 -0.03360
H155 H 0.56010 0.55290 -0.07080
C96 C 0.5598(9) 0.5940(6) 0.0821(6)
C97 C 0.5555(9) 0.5622(6) 0.1076(6)
H156 H 0.52140 0.56180 0.12430
C98 C 0.601(1) 0.5310(5) 0.1086(5)
H157 H 0.59800 0.50920 0.12600
C99 C 0.6509(9) 0.5316(5) 0.0842(6)
H158 H 0.68200 0.51030 0.08490
C100 C 0.6552(9) 0.5634(6) 0.0587(6)
H159 H 0.68930 0.56390 0.04200
C101 C 0.6097(10) 0.5946(5) 0.0577(6)
H160 H 0.61260 0.61640 0.04030
C102 C 0.4669(19) 0.6137(10) 0.2287(11)
H161 H 0.49940 0.60420 0.21310
C103 C 0.407(2) 0.626(1) 0.2129(7)
H162 H 0.39920 0.62500 0.18650
C104 C 0.3598(15) 0.640(1) 0.2357(13)
C105 C 0.3718(18) 0.6415(9) 0.2743(12)
H163 H 0.33930 0.65100 0.28980
C106 C 0.431(2) 0.6291(9) 0.2900(6)
H164 H 0.43950 0.63020 0.31640
C107 C 0.4789(14) 0.6152(10) 0.2673(12)
H165 H 0.51960 0.60670 0.27810
C108 C 0.3217(17) 0.8287(11) 0.2293(9)
H166 H 0.31600 0.84350 0.20520
H167 H 0.34690 0.80410 0.22300
C109 C 0.2606(13) 0.8113(10) 0.2309(8)
H168 H 0.23180 0.83570 0.23250
C110 C 0.2423(16) 0.7855(10) 0.2633(8)
H169 H 0.19620 0.77890 0.26060
H170 H 0.25120 0.80060 0.28670
H171 H 0.26760 0.76020 0.26380
C111 C -0.0024(16) 0.7991(10) 0.2527(6)
C112 C -0.0699(17) 0.8076(9) 0.2529(7)
H172 H -0.10270 0.78740 0.25020
C113 C -0.0818(17) 0.8496(10) 0.2576(7)
H173 H -0.12460 0.85840 0.26130
C114 C -0.0351(18) 0.8771(10) 0.2569(8)
H174 H -0.04670 0.90520 0.25720
C115 C 0.0252(18) 0.8678(11) 0.2558(7)
H175 H 0.05570 0.88950 0.25650
C116 C 0.0477(18) 0.8286(10) 0.2538(7)
H176 H 0.09220 0.82190 0.25310
C117 C -0.1057(15) 0.8056(9) 0.1531(9)
H177 H -0.13130 0.80290 0.12940
H178 H -0.13240 0.81790 0.17190
H179 H -0.09090 0.77860 0.16160
C118 C -0.0511(13) 0.8312(8) 0.1477(7)
H180 H -0.03560 0.83500 0.17450
C119 C -0.054(2) 0.8744(11) 0.1360(11)
H181 H -0.06410 0.87520 0.10870
H182 H -0.01070 0.88650 0.14080
C120 C -0.1022(18) 0.9009(11) 0.1545(10)
H183 H -0.14570 0.89510 0.14380
H184 H -0.09180 0.92970 0.15040
H185 H -0.10040 0.89530 0.18150
C121 C -0.134(3) 0.6463(18) 0.090(4)
C122 C -0.145(3) 0.616(4) 0.1160(15)
H186 H -0.13810 0.62160 0.14200
C123 C -0.166(3) 0.578(3) 0.104(3)
H187 H -0.17350 0.55690 0.12210
C124 C -0.176(2) 0.5694(18) 0.066(4)
H188 H -0.19080 0.54320 0.05810
C125 C -0.166(3) 0.600(4) 0.0400(14)
H189 H -0.17260 0.59410 0.01410
C126 C -0.145(3) 0.638(3) 0.052(3)
H190 H -0.13720 0.65880 0.03400
C127 C 0.0842(17) 0.6349(10) 0.2271(9)
H191 H 0.13020 0.64190 0.22960
H192 H 0.07640 0.60980 0.24100
H193 H 0.05880 0.65720 0.23720
C128 C 0.0633(14) 0.6284(8) 0.1842(7)
H194 H 0.01750 0.63800 0.18400
C129 C 0.053(3) 0.5855(11) 0.1669(15)
H195 H 0.09400 0.57010 0.16850
H196 H 0.03830 0.58800 0.14020
C130 C 0.001(3) 0.5622(16) 0.1887(14)
H197 H -0.00420 0.53440 0.17890
H198 H -0.04070 0.57660 0.18560
H199 H 0.01420 0.56110 0.21540
C131 C 0.0229(14) 0.5097(9) 0.0871(8)
H200 H 0.02900 0.48660 0.07020
H201 H -0.02340 0.51480 0.08890
H202 H 0.04230 0.50320 0.11200
C132 C 0.0573(13) 0.5501(8) 0.0709(7)
H203 H 0.07170 0.56760 0.09230
H204 H 0.09640 0.54140 0.05830
C133 C 0.0185(11) 0.5737(7) 0.0456(7)
H205 H -0.01660 0.58480 0.06080
C134 C -0.0192(18) 0.5574(11) 0.0059(9)
H206 H -0.02850 0.58070 -0.01070
H207 H -0.05970 0.54390 0.01160
H208 H 0.00860 0.53800 -0.00650
C135 C 0.472(3) 0.7112(12) 0.1911(12)
H209 H 0.47490 0.68580 0.17670
H210 H 0.43010 0.71290 0.20200
H211 H 0.50650 0.71140 0.21110
C136 C 0.4809(14) 0.7480(8) 0.1650(7)
H212 H 0.52420 0.74500 0.15430
C137 C 0.4780(13) 0.7885(8) 0.1798(7)
H213 H 0.43650 0.79110 0.19210
H214 H 0.47640 0.80760 0.15840
C138 C 0.534(2) 0.8037(14) 0.2091(12)
H215 H 0.52500 0.83180 0.21680
H216 H 0.57560 0.80290 0.19730
H217 H 0.53590 0.78580 0.23110
C139 C 0.6036(13) 0.8636(8) 0.1073(6)
C140 C 0.6661(17) 0.8482(8) 0.1115(8)
H218 H 0.67580 0.82220 0.10160
C141 C 0.7144(11) 0.8711(13) 0.1301(9)
H219 H 0.75710 0.86060 0.13300
C142 C 0.7002(17) 0.9092(12) 0.1446(7)
H220 H 0.73320 0.92480 0.15730
C143 C 0.638(2) 0.9246(7) 0.1404(8)
H221 H 0.62800 0.95070 0.15020
C144 C 0.5894(13) 0.9018(9) 0.1217(8)
H222 H 0.54670 0.91230 0.11890
Mo1 Mo 0.18228(11) 0.74858(7) 0.07212(5)
Mo2 Mo 0.32711(13) 0.74615(9) 0.02333(7)
Mo3 Mo 0.20207(10) 0.80382(6) -0.01470(6)
Mo4 Mo 0.18838(10) 0.70260(6) -0.01443(5)
Mo5 Mo 0.29358(11) 0.75251(7) -0.07676(5)
O1 O 0.3000(7) 0.7008(4) -0.0897(5)
O2 O 0.3749(7) 0.7700(5) -0.0786(5)
O3 O 0.2548(7) 0.7758(5) -0.1135(5)
O4 O 0.2723(11) 0.8044(6) -0.0459(6)
O5 O 0.3797(8) 0.7813(5) 0.0252(5)
O6 O 0.3564(9) 0.7055(4) 0.0430(5)
O7 O 0.3413(17) 0.7301(10) -0.0204(9)
O8 O 0.2038(13) 0.7404(7) -0.0527(7)
O9 O 0.2249(9) 0.6610(6) -0.0225(5)
O10 O 0.1133(7) 0.6972(5) -0.0237(5)
O11 O 0.1961(12) 0.6971(5) 0.0376(5)
O12 O 0.1524(14) 0.7724(8) 0.0162(7)
O13 O 0.2837(13) 0.7634(8) 0.0621(7)
O14 O 0.2266(7) 0.8424(5) 0.0097(5)
O15 O 0.1386(7) 0.8192(5) -0.0401(4)
O16 O 0.1813(7) 0.8006(4) 0.0866(5)
O17 O 0.2236(8) 0.7245(4) 0.1095(5)
O18 O 0.1030(7) 0.7324(4) 0.0754(5)
O19 O 0.0075(7) 0.7265(5) 0.2857(4)
O20 O 0.0902(7) 0.7432(6) 0.2451(4)
O21 O -0.0177(7) 0.7281(4) 0.2198(4)
O22 O -0.1344(16) 0.7248(10) 0.0838(8)
O23 O -0.0802(9) 0.6992(5) 0.1413(5)
O24 O -0.0381(10) 0.6932(10) 0.0796(6)
O25 O 0.0220(7) 0.9189(5) -0.0625(4)
O26 O 0.0098(7) 0.8729(5) -0.1199(4)
O27 O -0.0111(10) 0.8465(5) -0.0577(5)
O28 O 0.1217(10) 0.8798(6) 0.1960(6)
O29 O 0.1605(11) 0.8900(6) 0.1331(5)
O30 O 0.2209(13) 0.9108(8) 0.1848(7)
O31 O 0.2333(8) 0.9654(5) 0.0437(5)
O32 O 0.2971(8) 0.9410(5) -0.0057(5)
O33 O 0.1907(7) 0.9694(4) -0.0222(5)
O34 O 0.2447(10) 0.6823(6) 0.2364(5)
O35 O 0.3017(10) 0.6765(7) 0.1797(4)
O36 O 0.2553(13) 0.6064(13) 0.1991(9)
O37 O 0.4688(8) 0.6307(5) 0.1192(4)
O38 O 0.5468(7) 0.6724(5) 0.0889(4)
O39 O 0.4637(8) 0.6324(6) 0.0514(5)
O40 O 0.2272(8) 0.5612(6) 0.0148(5)
O41 O 0.2484(7) 0.5333(4) -0.0466(3)
O42 O 0.1383(8) 0.5386(5) -0.0266(4)
O43 O -0.0105(7) 0.6062(5) -0.0726(4)
O44 O -0.0761(6) 0.6570(4) -0.0381(4)
O45 O -0.0100(8) 0.6785(6) -0.0884(5)
O46 O 0.5633(8) 0.7922(6) 0.0911(5)
O47 O 0.4827(9) 0.8475(5) 0.0920(6)
O48 O 0.5551(8) 0.8437(5) 0.0404(4)
O49 O 0.5862(7) 0.8333(5) -0.0541(4)
O50 O 0.5172(6) 0.8003(5) -0.1022(4)
O51 O 0.5452(10) 0.8699(7) -0.1076(5)
O52 O 0.3823(18) 0.6126(10) -0.1497(9)
O53 O 0.3163(8) 0.5617(5) -0.1266(4)
O54 O 0.2906(14) 0.6029(9) -0.1782(8)
O55 O 0.3499(9) 0.7843(7) -0.2663(5)
H223 H 0.384(7) 0.774(8) -0.275(2)
S1 S 0.5664(3) 0.8309(2) -0.09359(17)
S2 S 0.3713(3) 0.83137(17) -0.16329(14)
S3 S 0.1949(3) 0.89187(17) -0.09372(14)
S4 S 0.2582(3) 0.71102(19) -0.19270(14)
S5 S 0.0770(2) 0.76406(16) -0.12300(13)
S6 S -0.0115(3) 0.88323(19) -0.08049(16)
S7 S 0.2486(3) 0.96994(17) 0.0042(2)
S8 S 0.4139(2) 0.86755(16) -0.03184(13)
S9 S 0.4644(2) 0.70373(16) -0.12989(14)
S10 S 0.3392(4) 0.5833(2) -0.15859(19)
S11 S 0.1580(3) 0.62254(16) -0.10070(14)
S12 S 0.3729(2) 0.61764(15) -0.03488(13)
S13 S 0.5161(2) 0.73669(18) 0.00036(14)
S14 S 0.5462(3) 0.8343(2) 0.08100(19)
S15 S 0.3151(3) 0.87305(16) 0.08976(14)
S16 S 0.0940(2) 0.89153(15) 0.03320(15)
S17 S -0.0197(2) 0.76119(16) 0.00012(14)
S18 S -0.0474(3) 0.6466(2) -0.07381(18)
S19 S 0.2052(3) 0.53336(17) -0.01497(16)
S20 S 0.5056(3) 0.6353(2) 0.08519(19)
S21 S 0.4181(3) 0.74063(17) 0.12511(14)
S22 S 0.2287(2) 0.78559(17) 0.18806(13)
S23 S 0.0186(2) 0.80218(16) 0.13074(13)
S24 S 0.1573(4) 0.9064(2) 0.1701(2)
S25 S -0.0963(4) 0.6928(2) 0.1009(2)
S26 S 0.0641(2) 0.62188(15) 0.02877(13)
S27 S 0.2840(2) 0.62108(15) 0.09045(12)
S28 S 0.2877(4) 0.6569(3) 0.2124(2)
S29 S 0.0991(2) 0.67031(16) 0.15761(13)
S30 S 0.0233(3) 0.7452(2) 0.25197(15)
C145 C 0.159(2) 0.856(3) -0.2559(16)
C146 C 0.135(2) 0.8369(11) -0.288(3)
H224 H 0.11700 0.81030 -0.28690
C147 C 0.138(2) 0.856(3) -0.3228(19)
H225 H 0.12200 0.84280 -0.34490
C148 C 0.165(3) 0.895(3) -0.3249(16)
H226 H 0.16700 0.90810 -0.34850
C149 C 0.189(2) 0.9145(11) -0.293(3)
H227 H 0.20690 0.94110 -0.29400
C150 C 0.186(2) 0.895(3) -0.2580(18)
H228 H 0.20180 0.90870 -0.23590
O56 O 0.1211(13) 0.7885(8) -0.2220(7)
O57 O 0.1118(15) 0.8522(9) -0.1887(8)
O58 O 0.2091(18) 0.8385(10) -0.2016(9)
S31 S 0.1517(6) 0.8274(4) -0.2134(3)
C151 C 0.388(4) 0.860(2) 0.253(2)
H229 H 0.42350 0.86360 0.23620
H230 H 0.40400 0.84690 0.27610
H231 H 0.37090 0.88750 0.25910
Ag30C Ag -0.05680(8) 0.72825(5) 0.34033(4)
O19C O 0.5075(7) 0.7735(5) -0.2143(4)
#END
