
#######################################################################
#
#                 Cambridge Crystallographic Data Centre
#                                CCDC
#
#######################################################################
#
# If this CIF has been generated from an entry in the Cambridge
# Structural Database, then it will include bibliographic, chemical,
# crystal, experimental, refinement or atomic coordinate data resulting
# from the CCDC's data processing and validation procedures.
#
#######################################################################

data_CSD_CIF_XEXRUN
_audit_creation_date 2001-09-06
_audit_creation_method CSD-ConQuest-V1
_database_code_CSD XEXRUN
_chemical_formula_sum 'C12 H20 N2 O13 Sn2'
_chemical_formula_moiety
;
(C6 H18 N2 2+)n,n(C6 O12 Sn2 2-),n(H2 O1)
;
_journal_coden_Cambridge 1096
_journal_volume 11
_journal_year 1999
_journal_page_first 1633
_journal_name_full 'Chem.Mater. '
loop_
_publ_author_name
"S.Natarajan"
"R.Vaidhyanathan"
"C.N.R.Rao"
"S.Ayyappan"
"A.K.Cheetham"
_chemical_name_systematic
;
catena-((N,N,N',N'-Tetramethylethylenediammonium) 
tris(\m~2~-oxalato-O,O',O'',O''')-di-tin(ii) monohydrate)
;
_cell_volume   2039.320
_exptl_special_details
;
The c cell value is 11.625,6 not 11.652,6 as published

;
_diffrn_ambient_temperature ?
_diffrn_special_details
;
The study was carried out at room temperature,in the range 283-303K

;
#These two values have been output from a single CSD field.
_refine_ls_R_factor_gt 0.08
_refine_ls_wR_factor_gt 0.08
_symmetry_cell_setting monoclinic
_symmetry_space_group_name_H-M 'C 2/c'
_symmetry_Int_Tables_number 15
loop_
_symmetry_equiv_pos_site_id
_symmetry_equiv_pos_as_xyz
1 x,y,z
2 -x,y,1/2-z
3 1/2+x,1/2+y,z
4 1/2-x,1/2+y,1/2-z
5 -x,-y,-z
6 x,-y,-1/2+z
7 -1/2-x,-1/2-y,-z
8 -1/2+x,-1/2-y,-1/2+z
_cell_length_a 16.567(8)
_cell_length_b 10.851(6)
_cell_length_c 11.625(6)
_cell_angle_alpha 90
_cell_angle_beta 102.62(3)
_cell_angle_gamma 90
_cell_formula_units_Z 4
loop_
_atom_type_symbol
_atom_type_radius_bond
C 0.68
N 0.68
O 0.68
Sn 1.53
loop_
_atom_site_label
_atom_site_type_symbol
_atom_site_fract_x
_atom_site_fract_y
_atom_site_fract_z
Sn1 Sn 0.5941(1) -0.6076(1) -0.0015(1)
O1 O 0.6205(4) -0.6559(5) -0.2090(5)
O2 O 0.6551(3) -0.8197(5) -0.0005(5)
O3 O 0.6224(3) -0.5724(5) -0.3833(5)
O4 O 0.7715(3) -0.9053(5) -0.0276(5)
O5 O 0.6187(4) -0.3467(5) -0.2903(5)
O6 O 0.6062(4) -0.4273(5) -0.1203(5)
O7 O 0.50000 -0.1337(12) 0.25000
C1 C 0.6199(5) -0.5664(8) -0.2741(8)
C2 C 0.6139(5) -0.4353(8) -0.2251(8)
C3 C 0.7284(5) -0.8133(7) -0.0079(7)
N1 N 0.3548(5) -0.1912(8) 0.4837(8)
C4 C 0.3345(7) -0.1182(9) 0.3695(9)
C5 C 0.4236(7) -0.1327(9) 0.5714(11)
C6 C 0.2816(5) -0.2051(7) 0.5354(8)
C3F C 0.7716(5) -0.6867(7) 0.0079(7)
O2F O 0.8449(3) -0.6803(5) 0.0005(5)
O4F O 0.7285(3) -0.5947(5) 0.0276(5)
C6F C 0.2184(5) -0.2949(7) 0.4646(8)
N1F N 0.1452(5) -0.3088(8) 0.5163(8)
C4F C 0.1655(7) -0.3818(9) 0.6305(9)
C5F C 0.0764(7) -0.3673(9) 0.4286(11)
O1E O 0.6205(4) -0.3441(5) 0.2910(5)
O3E O 0.6224(3) -0.4276(5) 0.1167(5)
O5E O 0.6187(4) -0.6533(5) 0.2097(5)
O6E O 0.6062(4) -0.5727(5) 0.3797(5)
C1E C 0.6199(5) -0.4336(8) 0.2259(8)
C2E C 0.6139(5) -0.5647(8) 0.2749(8)
Sn1E Sn 0.5941(1) -0.3924(1) 0.4985(1)
Sn1E* Sn 0.5941(1) -0.3924(1) -0.5015(1)
Sn1F Sn 0.9059(1) -0.8924(1) 0.0015(1)
O2E O 0.6551(3) -0.1803(5) 0.4995(5)
O3* O 0.6224(3) -0.5724(5) 0.6167(5)
O4C O 0.7285(3) -0.4053(5) 0.5276(5)
O5* O 0.6187(4) -0.3467(5) 0.7097(5)
#END
