
#######################################################################
#
#                 Cambridge Crystallographic Data Centre
#                                CCDC
#
#######################################################################
#
# If this CIF has been generated from an entry in the Cambridge
# Structural Database, then it will include bibliographic, chemical,
# crystal, experimental, refinement or atomic coordinate data resulting
# from the CCDC's data processing and validation procedures.
#
#######################################################################

data_CSD_CIF_XEXSAU
_audit_creation_date 2001-09-06
_audit_creation_method CSD-ConQuest-V1
_database_code_CSD XEXSAU
_database_code_depnum_ccdc_archive 'CCDC 1296304'
_chemical_formula_sum 'C12 H16 N6 O22 Sn4'
_chemical_formula_moiety
;
(C1 H6 N3 1+)2n,n(C10 O20 Sn4 2-),2n(H2 O1)
;
_journal_coden_Cambridge 1096
_journal_volume 11
_journal_year 1999
_journal_page_first 1633
_journal_name_full 'Chem.Mater. '
loop_
_publ_author_name
"S.Natarajan"
"R.Vaidhyanathan"
"C.N.R.Rao"
"S.Ayyappan"
"A.K.Cheetham"
_chemical_name_systematic
;
catena-(bis(Guanidinium) pentakis(\m~2~-oxalato-O,O',O'',O''')-tetra-tin(ii) 
dihydrate)
;
_cell_volume   2813.355
_diffrn_ambient_temperature ?
_diffrn_special_details
;
The study was carried out at room temperature,in the range 283-303K

;
#These two values have been output from a single CSD field.
_refine_ls_R_factor_gt 0.14
_refine_ls_wR_factor_gt 0.14
_symmetry_cell_setting orthorhombic
_symmetry_space_group_name_H-M 'P b c a'
_symmetry_Int_Tables_number 61
loop_
_symmetry_equiv_pos_site_id
_symmetry_equiv_pos_as_xyz
1 x,y,z
2 1/2-x,-y,1/2+z
3 1/2+x,1/2-y,-z
4 -x,1/2+y,1/2-z
5 -x,-y,-z
6 -1/2+x,y,-1/2-z
7 -1/2-x,-1/2+y,z
8 x,-1/2-y,-1/2+z
_cell_length_a 11.390(1)
_cell_length_b 14.742(1)
_cell_length_c 16.755(1)
_cell_angle_alpha 90
_cell_angle_beta 90
_cell_angle_gamma 90
_cell_formula_units_Z 4
loop_
_atom_type_symbol
_atom_type_radius_bond
C 0.68
N 0.68
O 0.68
Sn 1.50
loop_
_atom_site_label
_atom_site_type_symbol
_atom_site_fract_x
_atom_site_fract_y
_atom_site_fract_z
Sn1 Sn 0.6307(1) 0.1785(1) 0.6805(1)
Sn2 Sn 1.0906(1) 0.3884(1) 0.6335(1)
O1 O 0.7566(9) 0.2696(6) 0.7419(5)
O2 O 0.7506(8) 0.2383(6) 0.5850(5)
O3 O 0.7751(7) 0.0794(6) 0.6782(5)
O4 O 0.6548(7) 0.1139(7) 0.8142(5)
O5 O 1.2392(8) 0.5088(6) 0.6223(6)
O6 O 1.1134(8) 0.4836(7) 0.7541(5)
O7 O 0.9156(8) 0.3158(6) 0.5668(5)
O8 O 0.9134(10) 0.3605(8) 0.7150(6)
O9 O 1.1082(7) 0.4172(6) 0.4923(5)
O10 O 0.9780(7) 0.5044(6) 0.6032(5)
C1 C 0.8346(13) 0.2861(8) 0.6099(9)
C2 C 0.8351(14) 0.3094(10) 0.7003(9)
C3 C 0.804(1) 0.0396(10) 0.7421(8)
C4 C 0.7316(11) 0.0572(9) 0.8186(8)
C5 C 1.0376(11) 0.4730(8) 0.4689(8)
O11 O 0.8377(15) 0.2603(15) 0.9121(10)
N1 N 1.1541(9) 0.4655(8) 0.9637(6)
N2 N 1.0132(9) 0.3936(8) 0.8953(6)
N3 N 1.0476(11) 0.3584(8) 1.0252(7)
C6 C 1.0708(11) 0.4052(9) 0.9611(8)
C4C C 1.2684(11) 0.5572(9) 0.6814(8)
C3C C 1.196(1) 0.5396(10) 0.7579(8)
C5D C 0.9624(11) 0.5270(8) 0.5311(8)
O6C O 0.8866(8) -0.0164(7) 0.7459(5)
O5C O 0.7608(8) 0.0088(6) 0.8777(6)
O10D O 1.0220(7) 0.4956(6) 0.3968(5)
O4C O 1.3452(7) 0.6139(7) 0.6858(5)
O3C O 1.2249(7) 0.5794(6) 0.8218(5)
O9D O 0.8918(7) 0.5828(6) 0.5077(5)
Sn2C Sn 0.9094(1) -0.1116(1) 0.8665(1)
Sn2D Sn 0.9094(1) 0.6116(1) 0.3665(1)
Sn1C Sn 1.3693(1) 0.6785(1) 0.8195(1)
O7C O 1.0844(8) -0.1842(6) 0.9332(5)
O8C O 1.0866(10) -0.1395(8) 0.7850(6)
O9C O 0.8918(7) -0.0828(6) 1.0077(5)
O10C O 1.0220(7) 0.0044(6) 0.8968(5)
O1C O 1.2434(9) 0.7696(6) 0.7581(5)
O2C O 1.2494(8) 0.7383(6) 0.9150(5)
C1C C 1.1654(13) -0.2139(8) 0.8901(9)
C2C C 1.1649(14) -0.1906(10) 0.7997(9)
O2C* O 1.2494(8) -0.2617(6) 0.9150(5)
O1C* O 1.2434(9) -0.2304(6) 0.7581(5)
Sn1C* Sn 1.3693(1) -0.3215(1) 0.8195(1)
#END
