
#######################################################################
#
#                 Cambridge Crystallographic Data Centre
#                                CCDC
#
#######################################################################
#
# If this CIF has been generated from an entry in the Cambridge
# Structural Database, then it will include bibliographic, chemical,
# crystal, experimental, refinement or atomic coordinate data resulting
# from the CCDC's data processing and validation procedures.
#
#######################################################################

data_CSD_CIF_XEYDAI
_audit_creation_date 2013-05-20
_audit_creation_method CSD-ConQuest-V1
_database_code_CSD XEYDAI
_database_code_depnum_ccdc_archive 'CCDC 893241'
_chemical_formula_sum 'C30 H120 K8 Na6 Ni8 O131 Si2 W18'
_chemical_formula_moiety
;
(C30 H30 Ni8 O86 Si2 W18 14-)n,6n(Na1 1+),8n(K1 1+),45n(H2 O1)
;
_journal_coden_Cambridge 1290
_journal_year 2013
_journal_page_first 1793
_journal_name_full 'Eur.J.Inorg.Chem. '
loop_
_publ_author_name
"G.Rousseau"
"E.Riviere"
"A.Dolbecq"
"J.Marrot"
"O.Oms"
"P.Mialane"
_chemical_name_systematic
;
catena-(Octa-potassium hexa-sodium 
bis(\m~12~-silicato)-tris(\m~4~-2,2'-(1,4-phenylene)diacetato)-hexakis(\m~3~-h
ydroxo)-dotetracontakis(\m~2~-oxo)-octadecaoxo-octa-nickel-octadeca-tungsten 
pentatetracontahydrate)
;
_cell_volume   3549.397
_exptl_crystal_colour 'green'
_exptl_crystal_density_diffrn 3.211
_exptl_crystal_description 'platelet'
_diffrn_ambient_temperature 150
_refine_special_details
;
K5 disordered over three configurations with occupancies 0.75; Na4,O17W 
disordered by symmetry over two sites with occupancy 0.50; Na2,Na3 and K6 
disordered over two sites with occupancies 0.75:0.25.
;
#These two values have been output from a single CSD field.
_refine_ls_R_factor_gt 0.0566
_refine_ls_wR_factor_gt 0.0566
_symmetry_cell_setting triclinic
_symmetry_space_group_name_H-M 'P -1'
_symmetry_Int_Tables_number 2
loop_
_symmetry_equiv_pos_site_id
_symmetry_equiv_pos_as_xyz
1 x,y,z
2 -x,-y,-z
_cell_length_a 11.7652(12)
_cell_length_b 11.9663(12)
_cell_length_c 26.017(3)
_cell_angle_alpha 79.241(5)
_cell_angle_beta 88.781(5)
_cell_angle_gamma 80.546(5)
_cell_formula_units_Z 1
loop_
_atom_type_symbol
_atom_type_radius_bond
C 0.68
H 0.23
K 2.03
Na 1.66
Ni 1.24
O 0.68
Si 1.20
W 1.62
loop_
_atom_site_label
_atom_site_type_symbol
_atom_site_fract_x
_atom_site_fract_y
_atom_site_fract_z
W1 W 0.17652(2) 0.23257(2) 0.467352(10)
W2 W 0.30025(2) 0.47207(2) 0.447121(10)
W3 W 0.45138(2) 0.21821(2) 0.427403(10)
W4 W 0.37924(2) 0.09430(2) 0.311718(10)
W5 W 0.10638(2) 0.10768(2) 0.352173(10)
W6 W -0.05976(2) 0.38789(2) 0.374147(11)
W7 W 0.06279(3) 0.62616(2) 0.354741(10)
W8 W 0.36825(3) 0.61076(2) 0.310614(11)
W9 W 0.51826(3) 0.35911(3) 0.292071(12)
Si1 Si 0.23221(14) 0.36250(13) 0.33700(6)
Ni1 Ni 0.30702(9) 0.49256(8) 0.21618(4)
Ni2 Ni 0.17010(8) 0.23381(8) 0.23781(3)
Ni3 Ni 0.00846(9) 0.50898(8) 0.25864(4)
Ni4 Ni 0.10825(9) 0.44704(8) 0.16117(4)
O1 O 0.1218(4) 0.1638(4) 0.52430(19)
O2 O 0.1625(4) 0.1326(4) 0.42170(18)
O3 O 0.0460(4) 0.3304(4) 0.43678(19)
O4 O 0.2190(4) 0.3626(4) 0.49373(18)
O5 O 0.3372(4) 0.1628(4) 0.47792(18)
O6 O 0.2757(4) 0.3311(4) 0.39906(17)
O7 O 0.3260(4) 0.5562(4) 0.49181(19)
O8 O 0.1594(4) 0.5463(4) 0.41872(18)
O9 O 0.3751(4) 0.5377(4) 0.38846(19)
O10 O 0.4354(4) 0.3512(4) 0.46298(17)
O11 O 0.5741(4) 0.1388(4) 0.45925(19)
O12 O 0.4164(4) 0.1198(4) 0.38520(18)
O13 O 0.5119(4) 0.3072(4) 0.37013(18)
O14 O 0.4854(5) -0.0243(4) 0.31337(19)
O15 O 0.3151(4) 0.1094(4) 0.24859(19)
O16 O 0.4668(4) 0.2166(4) 0.29095(19)
O17 O 0.2585(4) 0.0201(4) 0.34839(19)
O18 O 0.2252(4) 0.2422(4) 0.31730(18)
O19 O 0.0330(4) -0.0014(4) 0.3800(2)
O20 O 0.0802(4) 0.1175(4) 0.28329(18)
O21 O -0.0041(4) 0.2421(4) 0.35763(18)
O22 O -0.1854(4) 0.3611(4) 0.4068(2)
O23 O -0.1158(4) 0.4508(4) 0.30821(19)
O24 O -0.0532(4) 0.5391(4) 0.38949(18)
O25 O 0.1052(4) 0.4427(4) 0.33270(18)
O26 O 0.0169(5) 0.7533(4) 0.3768(2)
O27 O -0.0095(5) 0.6544(4) 0.2923(2)
O28 O 0.2096(4) 0.6511(4) 0.3250(2)
O29 O 0.4226(5) 0.7337(4) 0.3181(2)
O30 O 0.3492(5) 0.6343(5) 0.2411(2)
O31 O 0.5159(4) 0.5096(5) 0.3097(2)
O32 O 0.3241(4) 0.4325(4) 0.30197(18)
O33 O 0.6647(5) 0.3218(5) 0.2867(2)
O34 O 0.4773(5) 0.4183(5) 0.22460(19)
O35 O 0.1388(5) 0.5535(4) 0.21219(19)
O36 O 0.2575(5) 0.3520(4) 0.1963(2)
O37 O 0.3326(5) 0.5729(5) 0.1406(2)
O38 O 0.0376(5) 0.3650(4) 0.22797(19)
O39 O 0.1283(5) 0.1689(5) 0.1738(2)
O40 O 0.1133(5) 0.4009(6) -0.2047(2)
O41 O 0.0389(5) 0.4476(5) -0.1304(2)
O42 O 0.0750(5) 0.3309(5) 0.1161(2)
O43 O 0.1908(5) 0.5276(5) 0.0980(2)
C1 C 0.2770(7) 0.5753(7) 0.1000(3)
C2 C 0.3164(8) 0.6414(8) 0.0484(3)
H1 H 0.25060 0.66540 0.02350
H2 H 0.34390 0.71170 0.05460
C3 C 0.4133(8) 0.5654(7) 0.0250(3)
C4 C 0.4951(8) 0.6164(8) -0.0060(4)
H3 H 0.49220 0.69760 -0.01120
C5 C 0.5801(10) 0.5504(9) -0.0293(5)
H4 H 0.63660 0.58720 -0.04920
C6 C 0.0903(8) 0.2224(7) 0.1305(3)
C7 C 0.0534(9) 0.1560(8) 0.0923(3)
H5 H -0.03190 0.16610 0.09210
H6 H 0.08250 0.07310 0.10480
C8 C 0.0929(8) 0.1887(7) 0.0369(3)
C9 C 0.0204(10) 0.1800(9) -0.0043(4)
H7 H -0.05060 0.15270 0.00340
C10 C 0.0528(10) 0.2114(11) -0.0565(4)
H8 H 0.00320 0.20650 -0.08400
C11 C 0.1575(9) 0.2498(9) -0.0680(4)
C12 C 0.2278(9) 0.2587(9) -0.0282(4)
H9 H 0.29900 0.28570 -0.03570
C13 C 0.1937(9) 0.2278(11) 0.0236(4)
H10 H 0.24340 0.23440 0.05080
C14 C 0.1898(8) 0.2844(9) -0.1249(3)
H11 H 0.26840 0.30440 -0.12640
H12 H 0.19170 0.21750 -0.14250
C15 C 0.1065(7) 0.3872(8) -0.1551(3)
Na1 Na 0.5759(3) -0.2042(2) 0.36129(11)
Na2 Na 0.2851(5) 0.9978(4) 0.18633(19)
Na3 Na 0.4260(5) 0.7281(5) 0.1601(2)
Na4 Na 0.0327(8) 0.504(1) 0.0453(3)
O44 O -0.102(2) 0.459(2) 0.0345(9)
O45 O 0.4717(4) -0.2802(5) 0.4354(2)
O46 O 0.6179(6) -0.0819(4) 0.4168(3)
O47 O 0.7298(6) -0.3431(6) 0.4019(3)
O48 O 0.7215(13) -0.1939(14) 0.2906(5)
O49 O 0.4401(6) 0.8684(5) 0.2197(2)
O50 O 0.1805(9) 0.8993(8) 0.2572(4)
O51 O 0.2386(7) 0.8586(7) 0.1356(3)
O52 O 0.3854(11) 1.1021(10) 0.1227(5)
O53 O 0.5902(9) 0.5774(8) 0.1724(4)
O54 O 0.4932(16) 0.861(2) 0.0804(7)
K1 K 0.00000 0.50000 0.50000
K2 K 0.39502(13) 0.52771(14) 0.58961(7)
K3 K 0.00000 0.00000 0.50000
K4 K 0.33323(15) -0.06635(14) 0.44589(7)
K5 K -0.16337(17) 0.91700(18) 0.37473(9)
O55 O -0.1907(7) 1.1054(7) 0.4256(3)
O56 O -0.2649(11) 1.0760(9) 0.2985(5)
O57 O 0.1620(6) -0.1918(6) 0.4626(3)
O58 O 0.0363(12) 0.8106(9) 0.1941(5)
O59 O -0.1742(8) 0.3006(13) 0.2026(4)
O60 O 0.5207(13) 0.2331(12) 0.1657(5)
O61 O -0.1452(16) -0.0122(19) 0.1577(7)
O62 O 0.6364(13) 0.9970(14) 0.2032(5)
O63 O 0.2572(19) 0.9385(13) 0.0271(8)
O64 O 0.550(3) 0.057(2) 0.0370(12)
O65 O 0.2578(19) 0.882(2) 0.9297(8)
O66 O 0.7251(16) 0.4128(19) 0.1056(7)
O67 O -0.0869(7) 0.0769(10) 0.2269(3)
K6? K 0.6995(8) 0.5869(9) 0.2584(3)
O37A O 0.6674(5) 0.4271(5) -0.1406(2)
O43A O 0.8092(5) 0.4724(5) -0.0980(2)
C1A C 0.7230(7) 0.4247(7) -0.1000(3)
C2A C 0.6836(8) 0.3586(8) -0.0484(3)
H1A H 0.74940 0.33460 -0.02350
H2A H 0.65610 0.28830 -0.05460
C3A C 0.5867(8) 0.4346(7) -0.0250(3)
C4A C 0.5049(8) 0.3836(8) 0.0060(4)
H3A H 0.50780 0.30240 0.01120
C5A C 0.4199(10) 0.4496(9) 0.0293(5)
H4A H 0.36340 0.41280 0.04920
W1A W -0.17652(2) 0.76743(2) -0.467352(10)
W2A W -0.30025(2) 0.52793(2) -0.447121(10)
W3A W -0.45138(2) 0.78179(2) -0.427403(10)
W4A W -0.37924(2) 0.90570(2) -0.311718(10)
W5A W -0.10638(2) 0.89232(2) -0.352173(10)
W6A W 0.05976(2) 0.61211(2) -0.374147(11)
W7A W -0.06279(3) 0.37384(2) -0.354741(10)
W8A W -0.36825(3) 0.38924(2) -0.310614(11)
W9A W -0.51826(3) 0.64089(3) -0.292071(12)
Si1A Si -0.23221(14) 0.63750(13) -0.33700(6)
Ni1A Ni -0.30702(9) 0.50744(8) -0.21618(4)
Ni2A Ni -0.17010(8) 0.76619(8) -0.23781(3)
Ni3A Ni -0.00846(9) 0.49102(8) -0.25864(4)
Ni4A Ni -0.10825(9) 0.55296(8) -0.16117(4)
O1A O -0.1218(4) 0.8362(4) -0.52430(19)
O2A O -0.1625(4) 0.8674(4) -0.42170(18)
O3A O -0.0460(4) 0.6696(4) -0.43678(19)
O4A O -0.2190(4) 0.6374(4) -0.49373(18)
O5A O -0.3372(4) 0.8372(4) -0.47792(18)
O6A O -0.2757(4) 0.6689(4) -0.39906(17)
O7A O -0.3260(4) 0.4438(4) -0.49181(19)
O8A O -0.1594(4) 0.4537(4) -0.41872(18)
O9A O -0.3751(4) 0.4623(4) -0.38846(19)
O10A O -0.4354(4) 0.6488(4) -0.46298(17)
O11A O -0.5741(4) 0.8612(4) -0.45925(19)
O12A O -0.4164(4) 0.8802(4) -0.38520(18)
O13A O -0.5119(4) 0.6928(4) -0.37013(18)
O14A O -0.4854(5) 1.0243(4) -0.31337(19)
O15A O -0.3151(4) 0.8906(4) -0.24859(19)
O16A O -0.4668(4) 0.7834(4) -0.29095(19)
O17A O -0.2585(4) 0.9799(4) -0.34839(19)
O18A O -0.2252(4) 0.7578(4) -0.31730(18)
O19A O -0.0330(4) 1.0014(4) -0.3800(2)
O20A O -0.0802(4) 0.8825(4) -0.28329(18)
O21A O 0.0041(4) 0.7579(4) -0.35763(18)
O22A O 0.1854(4) 0.6389(4) -0.4068(2)
O23A O 0.1158(4) 0.5492(4) -0.30821(19)
O24A O 0.0532(4) 0.4609(4) -0.38949(18)
O25A O -0.1052(4) 0.5573(4) -0.33270(18)
O26A O -0.0169(5) 0.2467(4) -0.3768(2)
O27A O 0.0095(5) 0.3456(4) -0.2923(2)
O28A O -0.2096(4) 0.3489(4) -0.3250(2)
O29A O -0.4226(5) 0.2663(4) -0.3181(2)
O30A O -0.3492(5) 0.3657(5) -0.2411(2)
O31A O -0.5159(4) 0.4904(5) -0.3097(2)
O32A O -0.3241(4) 0.5675(4) -0.30197(18)
O33A O -0.6647(5) 0.6782(5) -0.2867(2)
O34A O -0.4773(5) 0.5817(5) -0.22460(19)
O35A O -0.1388(5) 0.4465(4) -0.21219(19)
O36A O -0.2575(5) 0.6480(4) -0.1963(2)
O38A O -0.0376(5) 0.6350(4) -0.22797(19)
O39A O -0.1283(5) 0.8311(5) -0.1738(2)
O40A O -0.1133(5) 0.5991(6) 0.2047(2)
O41A O -0.0389(5) 0.5524(5) 0.1304(2)
O42A O -0.0750(5) 0.6691(5) -0.1161(2)
C6A C -0.0903(8) 0.7776(7) -0.1305(3)
C7A C -0.0534(9) 0.8440(8) -0.0923(3)
H5A H 0.03190 0.83390 -0.09210
H6A H -0.08250 0.92690 -0.10480
C8A C -0.0929(8) 0.8113(7) -0.0369(3)
C9A C -0.0204(10) 0.8200(9) 0.0043(4)
H7A H 0.05060 0.84730 -0.00340
C10A C -0.0528(10) 0.7886(11) 0.0565(4)
H8A H -0.00320 0.79350 0.08400
C11A C -0.1575(9) 0.7502(9) 0.0680(4)
C12A C -0.2278(9) 0.7413(9) 0.0282(4)
H9A H -0.29900 0.71430 0.03570
C13A C -0.1937(9) 0.7722(11) -0.0236(4)
H10A H -0.24340 0.76560 -0.05080
C14A C -0.1898(8) 0.7156(9) 0.1249(3)
H11A H -0.26840 0.69560 0.12640
H12A H -0.19170 0.78250 0.14250
C15A C -0.1065(7) 0.6128(8) 0.1551(3)
Ni1A* Ni 0.69298(9) 0.50744(8) -0.21618(4)
Ni4A* Ni 0.89175(9) 0.55296(8) -0.16117(4)
O37A* O -0.3326(5) 0.4271(5) -0.1406(2)
O43A* O -0.1908(5) 0.4724(5) -0.0980(2)
#END
