
#######################################################################
#
#                 Cambridge Crystallographic Data Centre
#                                CCDC
#
#######################################################################
#
# If this CIF has been generated from an entry in the Cambridge
# Structural Database, then it will include bibliographic, chemical,
# crystal, experimental, refinement or atomic coordinate data resulting
# from the CCDC's data processing and validation procedures.
#
#######################################################################

data_CSD_CIF_XICJIF
_audit_creation_date 2018-04-10
_audit_creation_method CSD-ConQuest-V1
_database_code_CSD XICJIF
_database_code_depnum_ccdc_archive 'CCDC 1582310'
_chemical_formula_sum 'C164 H218 N46 O81 Zn7'
_chemical_formula_moiety
;
(C156 H96 N42 O36 Zn7 4-)n,4(C2 H8 N1 1+),45(H2 O1)
;
_journal_coden_Cambridge 9
_journal_volume 57
_journal_year 2018
_journal_page_first 3920
_journal_name_full 'Inorg.Chem. '
loop_
_publ_author_name
"E.P.McCarney"
"C.S.Hawes"
"J.A.Kitchen"
"K.Byrne"
"Wolfgang Schmitt"
"T.Gunnlaugsson"
_chemical_name_systematic
;
catena-[tetrakis(dimethylammonium) 
hexakis(\m-2,6-bis{1-[(4-carboxylatophenyl)methyl]-1H-1,2,3-triazol-4-yl}pyrid
ine-4-carboxylato)-hepta-zinc(ii) pentatetracontahydrate]
;
_cell_volume 136265.702
_exptl_crystal_density_diffrn 0.7
_exptl_crystal_description 'hexagonal'
_diffrn_ambient_temperature 100.0
_refine_special_details
;
Disordered cation and water molecules were not modelled and the disordered 
density was taken into account using the SQUEEZE/PLATON procedure.
;
#These two values have been output from a single CSD field.
_refine_ls_R_factor_gt 0.1083
_refine_ls_wR_factor_gt 0.1083
_symmetry_cell_setting cubic
_symmetry_space_group_name_H-M 'F d -3'
_symmetry_Int_Tables_number 203
loop_
_symmetry_equiv_pos_site_id
_symmetry_equiv_pos_as_xyz
1 x,y,z
2 1/4-x,1/4-y,z
3 1/4-x,y,1/4-z
4 x,1/4-y,1/4-z
5 z,x,y
6 z,1/4-x,1/4-y
7 1/4-z,1/4-x,y
8 1/4-z,x,1/4-y
9 y,z,x
10 1/4-y,z,1/4-x
11 y,1/4-z,1/4-x
12 1/4-y,1/4-z,x
13 x,1/2+y,1/2+z
14 1/4-x,3/4-y,1/2+z
15 1/4-x,1/2+y,3/4-z
16 x,3/4-y,3/4-z
17 z,1/2+x,1/2+y
18 z,3/4-x,3/4-y
19 1/4-z,3/4-x,1/2+y
20 1/4-z,1/2+x,3/4-y
21 y,1/2+z,1/2+x
22 1/4-y,1/2+z,3/4-x
23 y,3/4-z,3/4-x
24 1/4-y,3/4-z,1/2+x
25 1/2+x,y,1/2+z
26 3/4-x,1/4-y,1/2+z
27 3/4-x,y,3/4-z
28 1/2+x,1/4-y,3/4-z
29 1/2+z,x,1/2+y
30 1/2+z,1/4-x,3/4-y
31 3/4-z,1/4-x,1/2+y
32 3/4-z,x,3/4-y
33 1/2+y,z,1/2+x
34 3/4-y,z,3/4-x
35 1/2+y,1/4-z,3/4-x
36 3/4-y,1/4-z,1/2+x
37 1/2+x,1/2+y,z
38 3/4-x,3/4-y,z
39 3/4-x,1/2+y,1/4-z
40 1/2+x,3/4-y,1/4-z
41 1/2+z,1/2+x,y
42 1/2+z,3/4-x,1/4-y
43 3/4-z,3/4-x,y
44 3/4-z,1/2+x,1/4-y
45 1/2+y,1/2+z,x
46 3/4-y,1/2+z,1/4-x
47 1/2+y,3/4-z,1/4-x
48 3/4-y,3/4-z,x
49 -x,-y,-z
50 -1/4+x,-1/4+y,-z
51 -1/4+x,-y,-1/4+z
52 -x,-1/4+y,-1/4+z
53 -z,-x,-y
54 -z,-1/4+x,-1/4+y
55 -1/4+z,-1/4+x,-y
56 -1/4+z,-x,-1/4+y
57 -y,-z,-x
58 -1/4+y,-z,-1/4+x
59 -y,-1/4+z,-1/4+x
60 -1/4+y,-1/4+z,-x
61 -x,-1/2-y,-1/2-z
62 -1/4+x,-3/4+y,-1/2-z
63 -1/4+x,-1/2-y,-3/4+z
64 -x,-3/4+y,-3/4+z
65 -z,-1/2-x,-1/2-y
66 -z,-3/4+x,-3/4+y
67 -1/4+z,-3/4+x,-1/2-y
68 -1/4+z,-1/2-x,-3/4+y
69 -y,-1/2-z,-1/2-x
70 -1/4+y,-1/2-z,-3/4+x
71 -y,-3/4+z,-3/4+x
72 -1/4+y,-3/4+z,-1/2-x
73 -1/2-x,-y,-1/2-z
74 -3/4+x,-1/4+y,-1/2-z
75 -3/4+x,-y,-3/4+z
76 -1/2-x,-1/4+y,-3/4+z
77 -1/2-z,-x,-1/2-y
78 -1/2-z,-1/4+x,-3/4+y
79 -3/4+z,-1/4+x,-1/2-y
80 -3/4+z,-x,-3/4+y
81 -1/2-y,-z,-1/2-x
82 -3/4+y,-z,-3/4+x
83 -1/2-y,-1/4+z,-3/4+x
84 -3/4+y,-1/4+z,-1/2-x
85 -1/2-x,-1/2-y,-z
86 -3/4+x,-3/4+y,-z
87 -3/4+x,-1/2-y,-1/4+z
88 -1/2-x,-3/4+y,-1/4+z
89 -1/2-z,-1/2-x,-y
90 -1/2-z,-3/4+x,-1/4+y
91 -3/4+z,-3/4+x,-y
92 -3/4+z,-1/2-x,-1/4+y
93 -1/2-y,-1/2-z,-x
94 -3/4+y,-1/2-z,-1/4+x
95 -1/2-y,-3/4+z,-1/4+x
96 -3/4+y,-3/4+z,-x
_cell_length_a 51.4591(16)
_cell_length_b 51.4591(16)
_cell_length_c 51.4591(16)
_cell_angle_alpha 90
_cell_angle_beta 90
_cell_angle_gamma 90
_cell_formula_units_Z 16
loop_
_atom_type_symbol
_atom_type_radius_bond
C 0.68
H 0.23
N 0.68
O 0.68
Zn 1.22
loop_
_atom_site_label
_atom_site_type_symbol
_atom_site_fract_x
_atom_site_fract_y
_atom_site_fract_z
Zn1 Zn 0.86294(2) 0.57651(2) 0.49857(2)
Zn2 Zn 0.75000 0.50000 0.25000
O1 O 0.83344(8) 0.56643(10) 0.47793(9)
O2 O 0.60086(10) 0.35114(9) 0.47564(9)
O3 O 0.64150(9) 0.34578(9) 0.46106(9)
N1 N 0.6192(1) 0.43853(11) 0.36358(10)
N2 N 0.73586(11) 0.55234(10) 0.37658(10)
O4 O 0.72448(11) 0.42897(10) 0.28426(10)
N3 N 0.7068(1) 0.52338(10) 0.38115(10)
O5 O 0.85716(10) 0.54880(12) 0.44607(10)
N4 N 0.68842(10) 0.48598(10) 0.35162(10)
N5 N 0.71669(11) 0.54395(10) 0.39256(10)
N6 N 0.6460(1) 0.46888(10) 0.37288(10)
N7 N 0.62403(11) 0.45815(11) 0.38046(11)
O6 O 0.73946(12) 0.46654(12) 0.26998(13)
C1 C 0.71940(12) 0.51892(12) 0.35873(11)
C2 C 0.67830(12) 0.46525(11) 0.33954(12)
C3 C 0.68987(13) 0.45407(12) 0.31771(13)
H1 H 0.68248 0.43910 0.30983
C4 C 0.60366(13) 0.40444(12) 0.39423(13)
C5 C 0.63770(12) 0.43589(13) 0.34552(13)
H2 H 0.63905 0.42335 0.33203
C6 C 0.71235(13) 0.46514(14) 0.30766(13)
C7 C 0.73870(12) 0.53779(13) 0.35541(14)
H3 H 0.75076 0.53971 0.34156
C8 C 0.71080(12) 0.49714(12) 0.34194(12)
C9 C 0.72265(14) 0.48766(13) 0.31947(12)
H4 H 0.73735 0.49619 0.31226
C10 C 0.83612(14) 0.55807(16) 0.45425(14)
C11 C 0.62859(13) 0.39728(14) 0.39940(14)
H5 H 0.64236 0.40290 0.38848
C12 C 0.65446(13) 0.45618(12) 0.35155(12)
C13 C 0.61289(13) 0.37327(14) 0.43682(14)
C14 C 0.61956(14) 0.35566(13) 0.45894(13)
C15 C 0.75119(13) 0.57529(14) 0.38303(14)
H6 H 0.73953 0.58874 0.39033
H7 H 0.75896 0.58235 0.36692
C16 C 0.59758(13) 0.42056(14) 0.36995(13)
H8 H 0.59450 0.40876 0.35507
H9 H 0.58151 0.43072 0.37290
C17 C 0.77240(13) 0.56979(13) 0.40214(14)
C18 C 0.81396(14) 0.56159(14) 0.43658(14)
C19 C 0.58396(13) 0.39686(14) 0.41035(14)
H10 H 0.56675 0.40250 0.40676
C20 C 0.63368(13) 0.38162(13) 0.42088(14)
H11 H 0.65100 0.37657 0.42481
C21 C 0.72637(15) 0.45319(16) 0.28493(16)
C22 C 0.58840(14) 0.38125(15) 0.43169(14)
H12 H 0.57442 0.37617 0.44263
C23 C 0.79393(14) 0.55436(15) 0.39454(14)
H13 H 0.79412 0.54650 0.37784
C24 C 0.81502(15) 0.55061(15) 0.41152(14)
H14 H 0.82974 0.54082 0.40619
C25 C 0.77306(18) 0.5812(2) 0.42689(18)
H15 H 0.75948 0.59268 0.43183
C26 C 0.79224(18) 0.5764(2) 0.44371(16)
H16 H 0.79112 0.58310 0.46087
Zn1F Zn 0.75143(2) 0.38706(2) 0.57651(2)
O1F O 0.77207(8) 0.41656(10) 0.56643(9)
O2F O 0.77436(10) 0.64914(9) 0.35114(9)
O3F O 0.78894(9) 0.60850(9) 0.34578(9)
N1F N 0.88642(10) 0.63080(11) 0.43853(10)
N2F N 0.87342(11) 0.51414(10) 0.55234(10)
O4F O 0.96574(11) 0.52552(10) 0.42897(10)
N3F N 0.86885(10) 0.5432(1) 0.52338(10)
O5F O 0.80393(10) 0.39284(12) 0.5488(1)
N4F N 0.89838(10) 0.56158(10) 0.48598(10)
N5F N 0.85744(11) 0.53331(10) 0.54395(10)
N6F N 0.87712(10) 0.6040(1) 0.46888(10)
N7F N 0.86954(11) 0.62597(11) 0.45815(11)
O6F O 0.98002(12) 0.51054(12) 0.46654(13)
C1F C 0.89127(12) 0.53060(12) 0.51892(11)
C2F C 0.91046(12) 0.57170(11) 0.46525(12)
C3F C 0.93229(13) 0.56013(12) 0.45407(13)
H1F H 0.94017 0.56752 0.43910
C4F C 0.85577(13) 0.64634(12) 0.40444(13)
C5F C 0.90448(12) 0.61230(13) 0.43589(13)
H2F H 0.91797 0.61095 0.42335
C6F C 0.94234(13) 0.53765(14) 0.46514(13)
C7F C 0.89459(12) 0.51130(13) 0.53779(14)
H3F H 0.90844 0.49924 0.53971
C8F C 0.90806(12) 0.53920(12) 0.49714(12)
C9F C 0.93053(14) 0.52735(13) 0.48766(12)
H4F H 0.93774 0.51265 0.49619
C10F C 0.79575(14) 0.41388(16) 0.55807(14)
C11F C 0.85060(13) 0.62141(14) 0.39728(14)
H5F H 0.86152 0.60764 0.40290
C12F C 0.89845(13) 0.59554(12) 0.45618(12)
C13F C 0.81318(13) 0.63711(14) 0.37327(14)
C14F C 0.79106(14) 0.63044(13) 0.35566(13)
C15F C 0.86697(13) 0.49881(14) 0.57529(14)
H6F H 0.85967 0.51047 0.58874
H7F H 0.88308 0.49104 0.58235
C16F C 0.88005(13) 0.65242(14) 0.42056(13)
H8F H 0.89493 0.65550 0.40876
H9F H 0.87710 0.66849 0.43072
C17F C 0.84786(13) 0.47760(13) 0.56979(14)
C18F C 0.81342(14) 0.43604(14) 0.56159(14)
C19F C 0.83965(13) 0.66604(14) 0.39686(14)
H10F H 0.84324 0.68325 0.40250
C20F C 0.82912(13) 0.61632(13) 0.38162(14)
H11F H 0.82519 0.59900 0.37657
C21F C 0.96507(15) 0.52363(16) 0.45319(16)
C22F C 0.81831(14) 0.66160(15) 0.38125(14)
H12F H 0.80737 0.67558 0.37617
C23F C 0.85546(14) 0.45607(15) 0.55436(14)
H13F H 0.87216 0.45588 0.54650
C24F C 0.83848(15) 0.43498(15) 0.55061(14)
H14F H 0.84381 0.42026 0.54082
C25F C 0.82311(18) 0.47694(20) 0.58120(18)
H15F H 0.81817 0.49052 0.59268
C26F C 0.80629(18) 0.45776(20) 0.57640(16)
H16F H 0.78913 0.45888 0.58310
Zn1I Zn 0.67349(2) 0.49857(2) 0.38706(2)
O1I O 0.68357(8) 0.47793(10) 0.41656(9)
O2I O 0.89886(10) 0.47564(9) 0.64914(9)
O3I O 0.90422(9) 0.46106(9) 0.60850(9)
N1I N 0.81147(10) 0.36358(11) 0.6308(1)
N2I N 0.69766(11) 0.37658(10) 0.51414(10)
O4I O 0.82103(11) 0.28426(10) 0.52552(10)
N3I N 0.72662(10) 0.38115(10) 0.5432(1)
O5I O 0.7012(1) 0.44607(12) 0.39284(10)
N4I N 0.76402(10) 0.35162(10) 0.56158(10)
N5I N 0.70605(11) 0.39256(10) 0.53331(10)
N6I N 0.78112(10) 0.37288(10) 0.6040(1)
N7I N 0.79185(11) 0.38046(11) 0.62597(11)
O6I O 0.78346(12) 0.26998(12) 0.51054(13)
C1I C 0.73108(12) 0.35873(12) 0.53060(11)
C2I C 0.78475(12) 0.33954(11) 0.57170(12)
C3I C 0.79593(13) 0.31771(12) 0.56013(13)
H1I H 0.81090 0.30983 0.56752
C4I C 0.84556(13) 0.39423(12) 0.64634(13)
C5I C 0.81411(12) 0.34552(13) 0.61230(13)
H2I H 0.82665 0.33203 0.61095
C6I C 0.78486(13) 0.30766(14) 0.53765(13)
C7I C 0.71221(12) 0.35541(13) 0.51130(14)
H3I H 0.71029 0.34156 0.49924
C8I C 0.75286(12) 0.34194(12) 0.53920(12)
C9I C 0.76234(14) 0.31947(13) 0.52735(12)
H4I H 0.75381 0.31226 0.51265
C10I C 0.69193(14) 0.45425(16) 0.41388(14)
C11I C 0.85272(13) 0.39940(14) 0.62141(14)
H5I H 0.84710 0.38848 0.60764
C12I C 0.79382(13) 0.35155(12) 0.59554(12)
C13I C 0.87673(13) 0.43682(14) 0.63711(14)
C14I C 0.89434(14) 0.45894(13) 0.63044(13)
C15I C 0.67471(13) 0.38303(14) 0.49881(14)
H6I H 0.66126 0.39033 0.51047
H7I H 0.66765 0.36692 0.49104
C16I C 0.82944(13) 0.36995(14) 0.65242(13)
H8I H 0.84123 0.35507 0.65550
H9I H 0.81928 0.37290 0.66849
C17I C 0.68021(13) 0.40214(13) 0.47760(14)
C18I C 0.68841(14) 0.43658(14) 0.43604(14)
C19I C 0.85314(13) 0.41035(14) 0.66604(14)
H10I H 0.84750 0.40676 0.68325
C20I C 0.86838(13) 0.42088(13) 0.61632(14)
H11I H 0.87343 0.42481 0.59900
C21I C 0.79681(15) 0.28493(16) 0.52363(16)
C22I C 0.86875(14) 0.43169(15) 0.66160(14)
H12I H 0.87383 0.44263 0.67558
C23I C 0.69564(14) 0.39454(15) 0.45607(14)
H13I H 0.70350 0.37784 0.45588
C24I C 0.69939(15) 0.41152(15) 0.43498(14)
H14I H 0.70918 0.40619 0.42026
C25I C 0.66880(18) 0.42689(20) 0.47694(18)
H15I H 0.65732 0.43183 0.49052
C26I C 0.67360(18) 0.44371(20) 0.45776(16)
H16I H 0.66690 0.46087 0.45888
Zn1O Zn 0.86294(2) 0.17349(2) 0.25143(2)
O1O O 0.83344(8) 0.18357(10) 0.27207(9)
O2O O 0.60086(10) 0.39886(9) 0.27436(9)
O3O O 0.64150(9) 0.40422(9) 0.28894(9)
N1O N 0.6192(1) 0.31147(11) 0.38642(10)
N2O N 0.73586(11) 0.19766(10) 0.37342(10)
O4O O 0.72448(11) 0.32103(10) 0.46574(10)
N3O N 0.7068(1) 0.22662(10) 0.36885(10)
O5O O 0.85716(10) 0.20120(12) 0.30393(10)
N4O N 0.68842(10) 0.26402(10) 0.39838(10)
N5O N 0.71669(11) 0.20605(10) 0.35744(10)
N6O N 0.6460(1) 0.28112(10) 0.37712(10)
N7O N 0.62403(11) 0.29185(11) 0.36954(11)
O6O O 0.73946(12) 0.28346(12) 0.48002(13)
C1O C 0.71940(12) 0.23108(12) 0.39127(11)
C2O C 0.67830(12) 0.28475(11) 0.41046(12)
C3O C 0.68987(13) 0.29593(12) 0.43229(13)
H1O H 0.68248 0.31090 0.44017
C4O C 0.60366(13) 0.34556(12) 0.35577(13)
C5O C 0.63770(12) 0.31411(13) 0.40448(13)
H2O H 0.63905 0.32665 0.41797
C6O C 0.71235(13) 0.28486(14) 0.44234(13)
C7O C 0.73870(12) 0.21221(13) 0.39459(14)
H3O H 0.75076 0.21029 0.40844
C8O C 0.71080(12) 0.25286(12) 0.40806(12)
C9O C 0.72265(14) 0.26234(13) 0.43053(12)
H4O H 0.73735 0.25381 0.43774
C10O C 0.83612(14) 0.19193(16) 0.29575(14)
C11O C 0.62859(13) 0.35272(14) 0.35060(14)
H5O H 0.64236 0.34710 0.36152
C12O C 0.65446(13) 0.29382(12) 0.39845(12)
C13O C 0.61289(13) 0.37673(14) 0.31318(14)
C14O C 0.61956(14) 0.39434(13) 0.29106(13)
C15O C 0.75119(13) 0.17471(14) 0.36697(14)
H6O H 0.73953 0.16126 0.35967
H7O H 0.75896 0.16765 0.38308
C16O C 0.59758(13) 0.32944(14) 0.38005(13)
H8O H 0.59450 0.34124 0.39493
H9O H 0.58151 0.31928 0.37710
C17O C 0.77240(13) 0.18021(13) 0.34786(14)
C18O C 0.81396(14) 0.18841(14) 0.31342(14)
C19O C 0.58396(13) 0.35314(14) 0.33965(14)
H10O H 0.56675 0.34750 0.34324
C20O C 0.63368(13) 0.36838(13) 0.32912(14)
H11O H 0.65100 0.37343 0.32519
C21O C 0.72637(15) 0.29681(16) 0.46507(16)
C22O C 0.58840(14) 0.36875(15) 0.31831(14)
H12O H 0.57442 0.37383 0.30737
C23O C 0.79393(14) 0.19564(15) 0.35546(14)
H13O H 0.79412 0.20350 0.37216
C24O C 0.81502(15) 0.19939(15) 0.33848(14)
H14O H 0.82974 0.20918 0.34381
C25O C 0.77306(18) 0.1688(2) 0.32311(18)
H15O H 0.75948 0.15732 0.31817
C26O C 0.79224(18) 0.1736(2) 0.30629(16)
H16O H 0.79112 0.16690 0.28913
Zn1S Zn 0.75143(2) 0.36294(2) 0.17349(2)
O1S O 0.77207(8) 0.33344(10) 0.18357(9)
O2S O 0.77436(10) 0.10086(9) 0.39886(9)
O3S O 0.78894(9) 0.14150(9) 0.40422(9)
N1S N 0.88642(10) 0.11920(11) 0.31147(10)
N2S N 0.87342(11) 0.23586(10) 0.19766(10)
O4S O 0.96574(11) 0.22448(10) 0.32103(10)
N3S N 0.86885(10) 0.2068(1) 0.22662(10)
O5S O 0.80393(10) 0.35716(12) 0.2012(1)
N4S N 0.89838(10) 0.18842(10) 0.26402(10)
N5S N 0.85744(11) 0.21669(10) 0.20605(10)
N6S N 0.87712(10) 0.1460(1) 0.28112(10)
N7S N 0.86954(11) 0.12403(11) 0.29185(11)
O6S O 0.98002(12) 0.23946(12) 0.28346(13)
C1S C 0.89127(12) 0.21940(12) 0.23108(11)
C2S C 0.91046(12) 0.17830(11) 0.28475(12)
C3S C 0.93229(13) 0.18987(12) 0.29593(13)
H1S H 0.94017 0.18248 0.31090
C4S C 0.85577(13) 0.10366(12) 0.34556(13)
C5S C 0.90448(12) 0.13770(13) 0.31411(13)
H2S H 0.91797 0.13905 0.32665
C6S C 0.94234(13) 0.21235(14) 0.28486(13)
C7S C 0.89459(12) 0.23870(13) 0.21221(14)
H3S H 0.90844 0.25076 0.21029
C8S C 0.90806(12) 0.21080(12) 0.25286(12)
C9S C 0.93053(14) 0.22265(13) 0.26234(12)
H4S H 0.93774 0.23735 0.25381
C10S C 0.79575(14) 0.33612(16) 0.19193(14)
C11S C 0.85060(13) 0.12859(14) 0.35272(14)
H5S H 0.86152 0.14236 0.34710
C12S C 0.89845(13) 0.15446(12) 0.29382(12)
C13S C 0.81318(13) 0.11289(14) 0.37673(14)
C14S C 0.79106(14) 0.11956(13) 0.39434(13)
C15S C 0.86697(13) 0.25119(14) 0.17471(14)
H6S H 0.85967 0.23953 0.16126
H7S H 0.88308 0.25896 0.16765
C16S C 0.88005(13) 0.09758(14) 0.32944(13)
H8S H 0.89493 0.09450 0.34124
H9S H 0.87710 0.08151 0.31928
C17S C 0.84786(13) 0.27240(13) 0.18021(14)
C18S C 0.81342(14) 0.31396(14) 0.18841(14)
C19S C 0.83965(13) 0.08396(14) 0.35314(14)
H10S H 0.84324 0.06675 0.34750
C20S C 0.82912(13) 0.13368(13) 0.36838(14)
H11S H 0.82519 0.15100 0.37343
C21S C 0.96507(15) 0.22637(16) 0.29681(16)
C22S C 0.81831(14) 0.08840(15) 0.36875(14)
H12S H 0.80737 0.07442 0.37383
C23S C 0.85546(14) 0.29393(15) 0.19564(14)
H13S H 0.87216 0.29412 0.20350
C24S C 0.83848(15) 0.31502(15) 0.19939(14)
H14S H 0.84381 0.32974 0.20918
C25S C 0.82311(18) 0.27306(20) 0.16880(18)
H15S H 0.81817 0.25948 0.15732
C26S C 0.80629(18) 0.29224(20) 0.17360(16)
H16S H 0.78913 0.29112 0.16690
Zn1W Zn 0.67349(2) 0.25143(2) 0.36294(2)
O1W O 0.68357(8) 0.27207(10) 0.33344(9)
O2W O 0.89886(10) 0.27436(9) 0.10086(9)
O3W O 0.90422(9) 0.28894(9) 0.14150(9)
N1W N 0.81147(10) 0.38642(11) 0.1192(1)
N2W N 0.69766(11) 0.37342(10) 0.23586(10)
O4W O 0.82103(11) 0.46574(10) 0.22448(10)
N3W N 0.72662(10) 0.36885(10) 0.2068(1)
O5W O 0.7012(1) 0.30393(12) 0.35716(10)
N4W N 0.76402(10) 0.39838(10) 0.18842(10)
N5W N 0.70605(11) 0.35744(10) 0.21669(10)
N6W N 0.78112(10) 0.37712(10) 0.1460(1)
N7W N 0.79185(11) 0.36954(11) 0.12403(11)
O6W O 0.78346(12) 0.48002(12) 0.23946(13)
C1W C 0.73108(12) 0.39127(12) 0.21940(11)
C2W C 0.78475(12) 0.41046(11) 0.17830(12)
C3W C 0.79593(13) 0.43229(12) 0.18987(13)
H1W H 0.81090 0.44017 0.18248
C4W C 0.84556(13) 0.35577(12) 0.10366(13)
C5W C 0.81411(12) 0.40448(13) 0.13770(13)
H2W H 0.82665 0.41797 0.13905
C6W C 0.78486(13) 0.44234(14) 0.21235(13)
C7W C 0.71221(12) 0.39459(13) 0.23870(14)
H3W H 0.71029 0.40844 0.25076
C8W C 0.75286(12) 0.40806(12) 0.21080(12)
C9W C 0.76234(14) 0.43053(13) 0.22265(12)
H4W H 0.75381 0.43774 0.23735
C10W C 0.69193(14) 0.29575(16) 0.33612(14)
C11W C 0.85272(13) 0.35060(14) 0.12859(14)
H5W H 0.84710 0.36152 0.14236
C12W C 0.79382(13) 0.39845(12) 0.15446(12)
C13W C 0.87673(13) 0.31318(14) 0.11289(14)
C14W C 0.89434(14) 0.29106(13) 0.11956(13)
C15W C 0.67471(13) 0.36697(14) 0.25119(14)
H6W H 0.66126 0.35967 0.23953
H7W H 0.66765 0.38308 0.25896
C16W C 0.82944(13) 0.38005(14) 0.09758(13)
H8W H 0.84123 0.39493 0.09450
H9W H 0.81928 0.37710 0.08151
C17W C 0.68021(13) 0.34786(13) 0.27240(14)
C18W C 0.68841(14) 0.31342(14) 0.31396(14)
C19W C 0.85314(13) 0.33965(14) 0.08396(14)
H10W H 0.84750 0.34324 0.06675
C20W C 0.86838(13) 0.32912(13) 0.13368(14)
H11W H 0.87343 0.32519 0.15100
C21W C 0.79681(15) 0.46507(16) 0.22637(16)
C22W C 0.86875(14) 0.31831(15) 0.08840(14)
H12W H 0.87383 0.30737 0.07442
C23W C 0.69564(14) 0.35546(15) 0.29393(14)
H13W H 0.70350 0.37216 0.29412
C24W C 0.69939(15) 0.33848(15) 0.31502(14)
H14W H 0.70918 0.34381 0.32974
C25W C 0.66880(18) 0.32311(20) 0.27306(18)
H15W H 0.65732 0.31817 0.25948
C26W C 0.67360(18) 0.30629(20) 0.29224(16)
H16W H 0.66690 0.28913 0.29112
Zn1WA Zn 0.61294(2) 0.32651(2) 0.50143(2)
Zn1XA Zn 0.61294(2) 0.42349(2) 0.24857(2)
Zn1BC Zn 0.92349(2) 0.50143(2) 0.63706(2)
Zn1DC Zn 0.92349(2) 0.24857(2) 0.11294(2)
Zn1LC Zn 0.74857(2) 0.11294(2) 0.42349(2)
Zn1MC Zn 0.74857(2) 0.63706(2) 0.32651(2)
Zn2F Zn 1.00000 0.50000 0.50000
Zn2I Zn 0.75000 0.25000 0.50000
Zn2S Zn 1.00000 0.25000 0.25000
O2DB O 0.64886(10) 0.52436(9) 0.39914(9)
O2FB O 0.64886(10) 0.22564(9) 0.35086(9)
O2ZB O 0.72564(10) 0.35086(9) 0.14886(9)
O2AC O 0.72564(10) 0.39914(9) 0.60114(9)
O2GC O 0.85086(10) 0.60114(9) 0.52436(9)
O2HC O 0.85086(10) 0.14886(9) 0.22564(9)
O6CA O 0.76998(12) 0.51054(12) 0.28346(13)
O6AB O 0.73002(12) 0.48946(12) 0.21654(13)
O6TB O 0.76054(12) 0.53346(12) 0.23002(13)
O6QC O 0.71654(12) 0.51998(12) 0.26054(13)
#END
