
#######################################################################
#
#                 Cambridge Crystallographic Data Centre
#                                CCDC
#
#######################################################################
#
# If this CIF has been generated from an entry in the Cambridge
# Structural Database, then it will include bibliographic, chemical,
# crystal, experimental, refinement or atomic coordinate data resulting
# from the CCDC's data processing and validation procedures.
#
#######################################################################

data_CSD_CIF_XICJUR
_audit_creation_date 2018-04-10
_audit_creation_method CSD-ConQuest-V1
_database_code_CSD XICJUR
_database_code_depnum_ccdc_archive 'CCDC 1573080'
_chemical_formula_sum 'C8 H14 Fe1 Ga1 N1 O12'
_chemical_formula_moiety
;
(C6 H6 Fe1 Ga1 O12 1-)n,C2 H8 N1 1+
;
_journal_coden_Cambridge 9
_journal_volume 57
_journal_year 2018
_journal_page_first 3941
_journal_name_full 'Inorg.Chem. '
loop_
_publ_author_name
"Kai Wang"
"Jian-Bo Xiong"
"Bin Xia"
"Qing-Lun Wang"
"Yu-Zhang Tong"
"Yue Ma"
"Zhe-Ming Wang"
"Song Gao"
_chemical_name_systematic
;
catena-[dimethylammonium hexakis(\m-formato)-gallium(iii)-iron(ii)]
;
_cell_volume    795.784
_exptl_crystal_colour 'colorless'
_exptl_crystal_density_diffrn 1.81
_exptl_crystal_description 'block'
_diffrn_ambient_temperature 113
_refine_special_details
;
N1 disordered by symmetry over three configurations with occupancy 0.3333.

;
#These two values have been output from a single CSD field.
_refine_ls_R_factor_gt 0.0237
_refine_ls_wR_factor_gt 0.0237
_symmetry_cell_setting hexagonal
_symmetry_space_group_name_H-M 'P -3 1 c'
_symmetry_Int_Tables_number 163
loop_
_symmetry_equiv_pos_site_id
_symmetry_equiv_pos_as_xyz
1 x,y,z
2 -y,x-y,z
3 -x+y,-x,z
4 -y,-x,1/2-z
5 -x+y,y,1/2-z
6 x,x-y,1/2-z
7 -x,-y,-z
8 y,-x+y,-z
9 x-y,x,-z
10 y,x,-1/2+z
11 x-y,-y,-1/2+z
12 -x,-x+y,-1/2+z
_cell_length_a 8.215(2)
_cell_length_b 8.215(2)
_cell_length_c 13.616(5)
_cell_angle_alpha 90
_cell_angle_beta 90
_cell_angle_gamma 120
_cell_formula_units_Z 2
loop_
_atom_type_symbol
_atom_type_radius_bond
C 0.68
H 0.23
Fe 1.52
Ga 1.22
N 0.68
O 0.68
loop_
_atom_site_label
_atom_site_type_symbol
_atom_site_fract_x
_atom_site_fract_y
_atom_site_fract_z
Fe1 Fe 0.66670 0.33330 0.25000
Ga1 Ga 1.00000 0.00000 0.00000
O1 O 0.6585(2) 0.1131(2) 0.16563(10)
O2 O 0.79442(19) -0.01638(17) 0.08188(9)
C1 C 0.7907(3) 0.1241(3) 0.11683(13)
H1 H 0.89340 0.24280 0.10520
C2 C 0.33330 0.66670 0.1523(9)
N1 N 0.4327(14) 0.7163(7) 0.25000
O1A O 0.8869(2) -0.4546(2) 0.16563(10)
O2A O 1.01638(19) -0.18920(17) 0.08188(9)
C1A C 0.8759(3) -0.3334(3) 0.11683(13)
H1A H 0.75720 -0.34940 0.10520
O1A* O 0.8869(2) 0.5454(2) 0.16563(10)
O2A* O 1.01638(19) 0.81080(17) 0.08188(9)
C1A* C 0.8759(3) 0.6666(3) 0.11683(13)
H1A* H 0.75720 0.65060 0.10520
O1B O 0.4546(2) 0.3415(2) 0.16563(10)
O2B O 0.18920(19) 0.20558(17) 0.08188(9)
C1B C 0.3334(3) 0.2093(3) 0.11683(13)
H1B H 0.34940 0.10660 0.10520
O1B* O 1.4546(2) 0.3415(2) 0.16563(10)
O2B* O 1.18920(19) 0.20558(17) 0.08188(9)
C1B* C 1.3334(3) 0.2093(3) 0.11683(13)
H1B* H 1.34940 0.10660 0.10520
O1C O 0.8869(2) 0.3415(2) 0.33437(10)
O2C O 1.01638(19) 0.20558(17) 0.41812(9)
C1C C 0.8759(3) 0.2093(3) 0.38317(13)
H1C H 0.75720 0.10660 0.39480
Fe1* Fe 0.66670 -0.66670 0.25000
Fe1** Fe 1.66670 0.33330 0.25000
Ga1* Ga 0.00000 0.00000 0.00000
Ga1** Ga 1.00000 1.00000 0.00000
Ga1C Ga 1.00000 0.00000 0.50000
O1D O 0.4546(2) 0.1131(2) 0.33437(10)
O1E O 0.6585(2) 0.5454(2) 0.33437(10)
O2F O 1.20558(19) 0.01638(17) -0.08188(9)
O2G O 0.98362(19) 0.18920(17) -0.08188(9)
O2H O 0.81080(19) -0.20558(17) -0.08188(9)
N1A N 0.2837(14) 0.7164(7) 0.25000
N1B N 0.2836(14) 0.5673(7) 0.25000
C2C C 0.33330 0.66670 0.3477(9)
#END
