
#######################################################################
#
#                 Cambridge Crystallographic Data Centre
#                                CCDC
#
#######################################################################
#
# If this CIF has been generated from an entry in the Cambridge
# Structural Database, then it will include bibliographic, chemical,
# crystal, experimental, refinement or atomic coordinate data resulting
# from the CCDC's data processing and validation procedures.
#
#######################################################################

data_CSD_CIF_XICKOM01
_audit_creation_date 2018-04-10
_audit_creation_method CSD-ConQuest-V1
_database_code_CSD XICKOM01
_database_code_depnum_ccdc_archive 'CCDC 1573085'
_chemical_formula_sum 'C7 H12 Ga1 N1 Ni1 O12'
_chemical_formula_moiety
;
(C6 H6 Ga1 Ni1 O12 1-)n,C1 H6 N1 1+
;
_journal_coden_Cambridge 9
_journal_volume 57
_journal_year 2018
_journal_page_first 3941
_journal_name_full 'Inorg.Chem. '
loop_
_publ_author_name
"Kai Wang"
"Jian-Bo Xiong"
"Bin Xia"
"Qing-Lun Wang"
"Yu-Zhang Tong"
"Yue Ma"
"Zhe-Ming Wang"
"Song Gao"
_chemical_name_systematic
;
catena-[methylammonium hexakis(\m-formato)-gallium(iii)-nickel(ii)]
;
_cell_volume    777.947
_exptl_crystal_colour 'green'
_exptl_crystal_density_diffrn 1.812
_exptl_crystal_description 'block'
_diffrn_ambient_temperature 293
_refine_special_details
;
C2 disordered by symmetry over two configurations with occupancy 0.5; N1 
disordered by symmetry over three configurations with occupancy 0.3333.
;
#These two values have been output from a single CSD field.
_refine_ls_R_factor_gt 0.0757
_refine_ls_wR_factor_gt 0.0757
_symmetry_cell_setting hexagonal
_symmetry_space_group_name_H-M 'P -3 1 c'
_symmetry_Int_Tables_number 163
loop_
_symmetry_equiv_pos_site_id
_symmetry_equiv_pos_as_xyz
1 x,y,z
2 -y,x-y,z
3 -x+y,-x,z
4 -y,-x,1/2-z
5 -x+y,y,1/2-z
6 x,x-y,1/2-z
7 -x,-y,-z
8 y,-x+y,-z
9 x-y,x,-z
10 y,x,-1/2+z
11 x-y,-y,-1/2+z
12 -x,-x+y,-1/2+z
_cell_length_a 8.0926(2)
_cell_length_b 8.0926(2)
_cell_length_c 13.7165(4)
_cell_angle_alpha 90
_cell_angle_beta 90
_cell_angle_gamma 120
_cell_formula_units_Z 2
loop_
_atom_type_symbol
_atom_type_radius_bond
C 0.68
H 0.23
Ga 1.22
N 0.68
Ni 1.24
O 0.68
loop_
_atom_site_label
_atom_site_type_symbol
_atom_site_fract_x
_atom_site_fract_y
_atom_site_fract_z
Ni1 Ni 0.33330 0.66670 0.25000
Ga1 Ga 0.00000 1.00000 0.00000
O1 O 0.1173(6) 0.6595(5) 0.1680(3)
O2 O -0.0112(5) 0.7925(6) 0.0811(3)
C1 C 0.1304(9) 0.7923(9) 0.1200(4)
H1 H 0.25060 0.89890 0.11150
N1 N 0.7238(19) 0.448(4) 0.25000
C2 C 0.66670 0.33330 0.1536(15)
O1A O 0.3405(6) 0.4578(5) 0.1680(3)
O2A O 0.2075(5) 0.1963(6) 0.0811(3)
C1A C 0.2077(9) 0.3381(9) 0.1200(4)
H1A H 0.10110 0.35170 0.11150
O1A* O 0.3405(6) 1.4578(5) 0.1680(3)
O2A* O 0.2075(5) 1.1963(6) 0.0811(3)
C1A* C 0.2077(9) 1.3381(9) 0.1200(4)
H1A* H 0.10110 1.35170 0.11150
O1B O -0.4578(6) 0.8827(5) 0.1680(3)
O2B O -0.1963(5) 1.0112(6) 0.0811(3)
C1B C -0.3381(9) 0.8696(9) 0.1200(4)
H1B H -0.35170 0.74940 0.11150
O1B* O 0.5422(6) 0.8827(5) 0.1680(3)
O2B* O 0.8037(5) 1.0112(6) 0.0811(3)
C1B* C 0.6619(9) 0.8696(9) 0.1200(4)
H1B* H 0.64830 0.74940 0.11150
O1C O 0.3405(6) 0.8827(5) 0.3320(3)
O2C O 0.2075(5) 1.0112(6) 0.4189(3)
C1C C 0.2077(9) 0.8696(9) 0.3800(4)
H1C H 0.10110 0.74940 0.38850
Ni1* Ni -0.66670 0.66670 0.25000
Ni1** Ni 0.33330 1.66670 0.25000
Ga1* Ga 0.00000 0.00000 0.00000
Ga1** Ga 1.00000 1.00000 0.00000
Ga1C Ga 0.00000 1.00000 0.50000
O1D O 0.5422(6) 0.6595(5) 0.3320(3)
O1E O 0.1173(6) 0.4578(5) 0.3320(3)
O2F O 0.0112(5) 1.2075(6) -0.0811(3)
O2G O -0.2075(5) 0.8037(6) -0.0811(3)
O2H O 0.1963(5) 0.9888(6) -0.0811(3)
N1A N 0.5520(19) 0.2758(40) 0.25000
N1B N 0.7242(19) 0.2762(40) 0.25000
C2C C 0.66670 0.33330 0.3464(15)
#END
