
#######################################################################
#
#                 Cambridge Crystallographic Data Centre
#                                CCDC
#
#######################################################################
#
# If this CIF has been generated from an entry in the Cambridge
# Structural Database, then it will include bibliographic, chemical,
# crystal, experimental, refinement or atomic coordinate data resulting
# from the CCDC's data processing and validation procedures.
#
#######################################################################

data_CSD_CIF_XICKOM
_audit_creation_date 2018-04-10
_audit_creation_method CSD-ConQuest-V1
_database_code_CSD XICKOM
_database_code_depnum_ccdc_archive 'CCDC 1573084'
_chemical_formula_sum 'C7 H12 Ga1 N1 Ni1 O12'
_chemical_formula_moiety
;
(C6 H6 Ga1 Ni1 O12 1-)n,C1 H6 N1 1+
;
_journal_coden_Cambridge 9
_journal_volume 57
_journal_year 2018
_journal_page_first 3941
_journal_name_full 'Inorg.Chem. '
loop_
_publ_author_name
"Kai Wang"
"Jian-Bo Xiong"
"Bin Xia"
"Qing-Lun Wang"
"Yu-Zhang Tong"
"Yue Ma"
"Zhe-Ming Wang"
"Song Gao"
_chemical_name_systematic
;
catena-[methylammonium hexakis(\m-formato)-gallium(iii)-nickel(ii)]
;
_cell_volume    775.072
_exptl_crystal_colour 'green'
_exptl_crystal_density_diffrn 1.819
_exptl_crystal_description 'block'
_diffrn_ambient_temperature 113
_refine_special_details
;
C2 disordered by symmetry over two configurations with occupancy 0.5; N1 
disordered by symmetry over three configurations with occupancy 0.3333.
;
#These two values have been output from a single CSD field.
_refine_ls_R_factor_gt 0.0348
_refine_ls_wR_factor_gt 0.0348
_symmetry_cell_setting hexagonal
_symmetry_space_group_name_H-M 'P -3 1 c'
_symmetry_Int_Tables_number 163
loop_
_symmetry_equiv_pos_site_id
_symmetry_equiv_pos_as_xyz
1 x,y,z
2 -y,x-y,z
3 -x+y,-x,z
4 -y,-x,1/2-z
5 -x+y,y,1/2-z
6 x,x-y,1/2-z
7 -x,-y,-z
8 y,-x+y,-z
9 x-y,x,-z
10 y,x,-1/2+z
11 x-y,-y,-1/2+z
12 -x,-x+y,-1/2+z
_cell_length_a 8.0822(9)
_cell_length_b 8.0822(9)
_cell_length_c 13.701(2)
_cell_angle_alpha 90
_cell_angle_beta 90
_cell_angle_gamma 120
_cell_formula_units_Z 2
loop_
_atom_type_symbol
_atom_type_radius_bond
C 0.68
H 0.23
Ga 1.22
N 0.68
Ni 1.24
O 0.68
loop_
_atom_site_label
_atom_site_type_symbol
_atom_site_fract_x
_atom_site_fract_y
_atom_site_fract_z
Ni1 Ni 0.33330 0.66670 0.25000
Ga1 Ga 0.00000 0.00000 0.00000
O1 O 0.3424(3) 0.4594(3) 0.16895(16)
O2 O 0.2080(3) 0.1949(3) 0.08131(16)
C1 C 0.2087(5) 0.3379(5) 0.1187(2)
H1 H 0.10350 0.35330 0.10800
N1 N 0.5383(19) 0.2692(10) 0.25000
C2 C 0.66670 0.33330 0.1588(11)
O1A O -0.4594(3) -0.1170(3) 0.16895(16)
O2A O -0.1949(3) 0.0131(3) 0.08131(16)
C1A C -0.3379(5) -0.1292(5) 0.1187(2)
H1A H -0.35330 -0.24980 0.10800
O1B O 0.1170(3) -0.3424(3) 0.16895(16)
O2B O -0.0131(3) -0.2080(3) 0.08131(16)
C1B C 0.1292(5) -0.2087(5) 0.1187(2)
H1B H 0.24980 -0.10350 0.10800
O1D O 0.1170(3) 0.4594(3) 0.33105(16)
O2D O -0.0131(3) 0.1949(3) 0.41869(16)
C1D C 0.1292(5) 0.3379(5) 0.3813(2)
H1D H 0.24980 0.35330 0.39200
O1C O 0.5406(3) 0.6576(3) 0.33105(16)
O2C O 0.8051(3) 0.7920(3) 0.41869(16)
C1C C 0.6621(5) 0.7913(5) 0.3813(2)
H1C H 0.64670 0.89650 0.39200
O1E O 0.3424(3) 0.8830(3) 0.33105(16)
O2E O 0.2080(3) 1.0131(3) 0.41869(16)
C1E C 0.2087(5) 0.8708(5) 0.3813(2)
H1E H 0.10350 0.75020 0.39200
Ni1* Ni -0.66670 -0.33330 0.25000
Ni1** Ni 0.33330 -0.33330 0.25000
Ga1C Ga 0.00000 0.00000 0.50000
Ga1C* Ga 0.00000 1.00000 0.50000
Ga1C** Ga 1.00000 1.00000 0.50000
O1A* O 0.5406(3) 0.8830(3) 0.16895(16)
O1B* O 0.1170(3) 0.6576(3) 0.16895(16)
O2F O -0.2080(3) -0.1949(3) -0.08131(16)
O2G O 0.1949(3) -0.0131(3) -0.08131(16)
O2H O 0.0131(3) 0.2080(3) -0.08131(16)
N1A N 0.7308(19) 0.2691(10) 0.25000
N1B N 0.7309(19) 0.4617(10) 0.25000
C2C C 0.66670 0.33330 0.3412(11)
#END
