
#######################################################################
#
#                 Cambridge Crystallographic Data Centre
#                                CCDC
#
#######################################################################
#
# If this CIF has been generated from an entry in the Cambridge
# Structural Database, then it will include bibliographic, chemical,
# crystal, experimental, refinement or atomic coordinate data resulting
# from the CCDC's data processing and validation procedures.
#
#######################################################################

data_CSD_CIF_XICKOL
_audit_creation_date 2013-05-21
_audit_creation_method CSD-ConQuest-V1
_database_code_CSD XICKOL
_database_code_depnum_ccdc_archive 'CCDC 891626'
_chemical_formula_sum 'C56 H44 Cu3 N6 O16'
_chemical_formula_moiety
;
(C52 H28 Cu3 N4 O16 2-)n,2n(C2 H8 N1 1+)
;
_journal_coden_Cambridge 1147
_journal_volume 13
_journal_year 2013
_journal_page_first 24
_journal_name_full 'Cryst.Growth Des. '
loop_
_publ_author_name
"Ruirui Yun"
"Jingui Duan"
"Junfeng Bai"
"Yizhi Li"
_chemical_name_systematic
;
catena-(bis(dimethylammonium) 
tetrakis(\m~3~-3-Carboxy-5-(pyridin-4-yl)benzoato)-tri-copper unknown 
solvate)
;
_cell_volume  13616.030
_exptl_crystal_density_diffrn 1.218
_diffrn_ambient_temperature 293
_refine_special_details
;
Disordered solvent molecules were not modelled and the disordered density was 
taken into account using the SQUEEZE/PLATON procedure.
;
#These two values have been output from a single CSD field.
_refine_ls_R_factor_gt 0.136
_refine_ls_wR_factor_gt 0.136
_symmetry_cell_setting tetragonal
_symmetry_space_group_name_H-M 'P 42/n'
_symmetry_Int_Tables_number 86
loop_
_symmetry_equiv_pos_site_id
_symmetry_equiv_pos_as_xyz
1 x,y,z
2 -y,1/2+x,1/2+z
3 1/2-x,1/2-y,z
4 1/2+y,-x,1/2+z
5 -x,-y,-z
6 y,-1/2-x,-1/2-z
7 -1/2+x,-1/2+y,-z
8 -1/2-y,x,-1/2-z
_cell_length_a 21.2737(14)
_cell_length_b 21.2737(14)
_cell_length_c 30.086(2)
_cell_angle_alpha 90
_cell_angle_beta 90
_cell_angle_gamma 90
_cell_formula_units_Z 8
loop_
_atom_type_symbol
_atom_type_radius_bond
C 0.68
H 0.23
Cu 1.32
N 0.68
O 0.68
loop_
_atom_site_label
_atom_site_type_symbol
_atom_site_fract_x
_atom_site_fract_y
_atom_site_fract_z
C1 C 0.6867(2) 1.1752(2) 0.1786(1)
H1 H 0.64880 1.18870 0.19070
C2 C 0.6872(2) 1.1393(2) 0.1434(1)
H2 H 0.64930 1.12900 0.12990
C3 C 0.7465(2) 1.1145(2) 0.1242(1)
C4 C 0.8022(2) 1.1353(2) 0.1431(1)
H3 H 0.84050 1.12390 0.13050
C5 C 0.8013(2) 1.1731(2) 0.1807(1)
H4 H 0.83880 1.18490 0.19420
C6 C 0.7496(2) 1.0721(2) 0.0862(1)
C7 C 0.6920(2) 1.0451(2) 0.0697(1)
H5 H 0.65530 1.05230 0.08570
C8 C 0.6881(2) 1.0112(2) 0.0339(1)
C9 C 0.7435(2) 0.9915(2) 0.0129(1)
H6 H 0.74180 0.96420 -0.01120
C10 C 0.8006(2) 1.0128(2) 0.0283(1)
C11 C 0.8043(2) 1.0524(2) 0.0657(1)
H7 H 0.84320 1.06530 0.07650
C12 C 0.6259(2) 0.9863(2) 0.0187(1)
C13 C 0.8607(2) 0.9934(2) 0.0076(1)
C14 C 1.0091(2) 0.8624(2) 0.0075(1)
H8 H 0.98680 0.86210 -0.01910
C15 C 1.0254(2) 0.8098(2) 0.0254(1)
H9 H 1.01340 0.77260 0.01160
C16 C 1.0615(2) 0.8064(2) 0.0658(1)
C17 C 1.0798(2) 0.8684(2) 0.0837(1)
H10 H 1.10430 0.87050 0.10930
C18 C 1.0625(2) 0.9194(2) 0.0644(1)
H11 H 1.07610 0.95770 0.07580
C19 C 1.0815(2) 0.7483(2) 0.0863(1)
C20 C 1.0583(2) 0.6897(2) 0.0724(1)
H12 H 1.02650 0.68920 0.05120
C21 C 1.0792(2) 0.6347(2) 0.0878(1)
C22 C 1.1208(2) 0.6347(2) 0.1243(1)
H13 H 1.13340 0.59670 0.13670
C23 C 1.1430(2) 0.6905(2) 0.1420(1)
C24 C 1.1227(2) 0.7467(2) 0.1247(1)
H14 H 1.13560 0.78420 0.13770
C25 C 1.0617(2) 0.5759(2) 0.0697(1)
C26 C 1.1782(2) 0.6920(2) 0.1807(1)
Cu1 Cu 1.25000 0.75000 0.24840
Cu2 Cu 1.00000 1.00000 0.00000
Cu3 Cu 1.00000 0.50000 0.00000
N1 N 0.7445(1) 1.1932(1) 0.1982(1)
N2 N 1.0241(1) 0.9193(1) 0.0271(1)
O1 O 0.5783(1) 1.0144(1) 0.0342(1)
O2 O 0.6251(1) 0.9331(1) -0.0008(1)
O3 O 0.8592(1) 0.9541(1) -0.0234(1)
O4 O 0.9131(1) 1.0167(1) 0.0203(1)
O5 O 1.0227(1) 0.5728(1) 0.0369(1)
O6 O 1.0760(1) 0.5228(1) 0.0856(1)
O7 O 1.1927(1) 0.6439(1) 0.2029(1)
O8 O 1.1954(1) 0.7438(1) 0.1974(1)
C27 C 0.6362(2) 0.7003(2) 0.3525(1)
H15 H 0.63140 0.73690 0.37080
H16 H 0.66250 0.67030 0.36730
H17 H 0.59570 0.68200 0.34690
C28 C 0.6386(2) 0.7764(2) 0.2897(1)
H18 H 0.61220 0.76510 0.26500
H19 H 0.67220 0.80270 0.27940
H20 H 0.61420 0.79870 0.31140
N3 N 0.6652(2) 0.7182(2) 0.3102(1)
H21 H 0.66070 0.68620 0.29090
H22 H 0.70660 0.72400 0.31470
C1B C 0.8133(2) 0.3248(2) 0.1786(1)
H1B H 0.85120 0.31130 0.19070
C2B C 0.8128(2) 0.3607(2) 0.1434(1)
H2B H 0.85070 0.37100 0.12990
C3B C 0.7535(2) 0.3855(2) 0.1242(1)
C4B C 0.6978(2) 0.3647(2) 0.1431(1)
H3B H 0.65950 0.37610 0.13050
C5B C 0.6987(2) 0.3269(2) 0.1807(1)
H4B H 0.66120 0.31510 0.19420
C6B C 0.7504(2) 0.4279(2) 0.0862(1)
C7B C 0.8080(2) 0.4549(2) 0.0697(1)
H5B H 0.84470 0.44770 0.08570
C8B C 0.8119(2) 0.4888(2) 0.0339(1)
C9B C 0.7565(2) 0.5085(2) 0.0129(1)
H6B H 0.75820 0.53580 -0.01120
C10B C 0.6994(2) 0.4872(2) 0.0283(1)
C11B C 0.6957(2) 0.4476(2) 0.0657(1)
H7B H 0.65680 0.43470 0.07650
C12B C 0.8741(2) 0.5137(2) 0.0187(1)
C13B C 0.6393(2) 0.5066(2) 0.0076(1)
N1B N 0.7555(1) 0.3068(1) 0.1982(1)
O1B O 0.9217(1) 0.4856(1) 0.0342(1)
O2B O 0.8749(1) 0.5669(1) -0.0008(1)
O3B O 0.6408(1) 0.5459(1) -0.0234(1)
O4B O 0.5869(1) 0.4833(1) 0.0203(1)
C14B C 1.4909(2) 0.6376(2) 0.0075(1)
H8B H 1.51320 0.63790 -0.01910
C15B C 1.4746(2) 0.6902(2) 0.0254(1)
H9B H 1.48660 0.72740 0.01160
C16B C 1.4385(2) 0.6936(2) 0.0658(1)
C17B C 1.4202(2) 0.6316(2) 0.0837(1)
H10B H 1.39570 0.62950 0.10930
C18B C 1.4375(2) 0.5806(2) 0.0644(1)
H11B H 1.42390 0.54230 0.07580
C19B C 1.4185(2) 0.7517(2) 0.0863(1)
C20B C 1.4417(2) 0.8103(2) 0.0724(1)
H12B H 1.47350 0.81080 0.05120
C21B C 1.4208(2) 0.8653(2) 0.0878(1)
C22B C 1.3792(2) 0.8653(2) 0.1243(1)
H13B H 1.36660 0.90330 0.13670
C23B C 1.3570(2) 0.8095(2) 0.1420(1)
C24B C 1.3773(2) 0.7533(2) 0.1247(1)
H14B H 1.36440 0.71580 0.13770
C25B C 1.4383(2) 0.9241(2) 0.0697(1)
C26B C 1.3218(2) 0.8080(2) 0.1807(1)
N2B N 1.4759(1) 0.5807(1) 0.0271(1)
O5B O 1.4773(1) 0.9272(1) 0.0369(1)
O6B O 1.4240(1) 0.9772(1) 0.0856(1)
O7B O 1.3073(1) 0.8561(1) 0.2029(1)
O8B O 1.3046(1) 0.7562(1) 0.1974(1)
Cu1E Cu 0.75000 0.25000 0.25160
Cu1E* Cu 0.75000 1.25000 0.25160
Cu2B Cu 0.50000 0.50000 0.00000
Cu2B* Cu 1.50000 0.50000 0.00000
Cu3B Cu 0.50000 1.00000 0.00000
Cu3B* Cu 1.50000 1.00000 0.00000
N1E N 1.1932(1) 0.7555(1) 0.3018(1)
N1G N 1.3068(1) 0.7445(1) 0.3018(1)
N2D N 0.9759(1) 1.0807(1) -0.0271(1)
O1F O 1.0783(1) 0.5144(1) -0.0342(1)
O4D O 1.0869(1) 0.9833(1) -0.0203(1)
O5D O 0.9773(1) 0.4272(1) -0.0369(1)
#END
