
#######################################################################
#
#                 Cambridge Crystallographic Data Centre
#                                CCDC
#
#######################################################################
#
# If this CIF has been generated from an entry in the Cambridge
# Structural Database, then it will include bibliographic, chemical,
# crystal, experimental, refinement or atomic coordinate data resulting
# from the CCDC's data processing and validation procedures.
#
#######################################################################

data_CSD_CIF_XICLEC
_audit_creation_date 2013-05-21
_audit_creation_method CSD-ConQuest-V1
_database_code_CSD XICLEC
_database_code_depnum_ccdc_archive 'CCDC 891591'
_chemical_formula_sum 'C43 H41 Cu2 I8 N9 O2 Pb2'
_chemical_formula_moiety
;
(C20 H16 Cu1 I1 N4 1+)2n,n(I6 Pb2 2-),n(C3 H7 N1 O1),n(H2 O1)
;
_journal_coden_Cambridge 1350
_journal_volume 15
_journal_year 2013
_journal_page_first 2579
_journal_name_full 'CrystEngComm '
loop_
_publ_author_name
"Guan-E Wang"
"Gang Xu"
"Pei-Xin Li"
"Shuai-Hua Wang"
"Ming-Sheng Wang"
"Guo-Cong Guo"
"Jin-Shun Huang"
_chemical_name_systematic
;
catena-[bis(bis(2,2'-Bipyridine)-iodo-copper(ii)) 
hexakis(\m~2~-iodo)-di-lead(ii) N,N-dimethylformamide solvate monohydrate]
;
_cell_volume   1626.775
_exptl_crystal_colour 'dark green'
_exptl_crystal_density_diffrn 2.32
_exptl_crystal_description 'sheet'
_diffrn_ambient_temperature 293
#These two values have been output from a single CSD field.
_refine_ls_R_factor_gt 0.0368
_refine_ls_wR_factor_gt 0.0368
_symmetry_cell_setting triclinic
_symmetry_space_group_name_H-M 'P -1'
_symmetry_Int_Tables_number 2
loop_
_symmetry_equiv_pos_site_id
_symmetry_equiv_pos_as_xyz
1 x,y,z
2 -x,-y,-z
_cell_length_a 15.860(5)
_cell_length_b 14.713(5)
_cell_length_c 7.995(3)
_cell_angle_alpha 104.946(3)
_cell_angle_beta 82.339(1)
_cell_angle_gamma 68.821(3)
_cell_formula_units_Z 1
loop_
_atom_type_symbol
_atom_type_radius_bond
C 0.68
H 0.23
Cu 1.32
I 1.40
N 0.68
O 0.68
Pb 1.46
loop_
_atom_site_label
_atom_site_type_symbol
_atom_site_fract_x
_atom_site_fract_y
_atom_site_fract_z
Pb1 Pb 0.50000 0.50000 0.00000
Pb2 Pb 0.50000 0.50000 -0.50000
I1 I 0.48660(3) 0.32866(3) 0.17213(5)
I2 I 0.36377(3) 0.67489(3) 0.36752(5)
I3 I 0.33676(3) 0.50168(3) -0.20546(5)
I4 I -0.04768(3) 0.73384(3) 1.04930(6)
Cu1 Cu -0.02210(5) 0.77055(4) 0.74078(9)
C1 C 0.1472(5) 0.6136(4) 0.4219(8)
H1 H 0.18340 0.64310 0.47760
C2 C 0.1889(6) 0.5348(5) 0.2596(9)
H2 H 0.25230 0.51130 0.20750
C3 C 0.1364(5) 0.4921(4) 0.1774(8)
H3 H 0.16280 0.44030 0.06640
C4 C 0.0444(5) 0.5258(4) 0.2586(7)
H4 H 0.00870 0.49430 0.20600
C5 C 0.0040(4) 0.6061(4) 0.4178(7)
C6 C -0.0950(4) 0.6503(4) 0.5133(7)
C7 C -0.1597(5) 0.6169(4) 0.4544(8)
H5 H -0.14230 0.56450 0.34540
C8 C -0.2473(5) 0.6598(5) 0.5534(10)
H6 H -0.29070 0.63590 0.51500
C9 C -0.2741(5) 0.7391(5) 0.7122(10)
H7 H -0.33550 0.77040 0.78120
C10 C -0.2083(4) 0.7705(4) 0.7653(9)
H8 H -0.22530 0.82390 0.87280
C11 C 0.1545(4) 0.7655(4) 0.8292(8)
H9 H 0.16350 0.70100 0.83820
C12 C 0.2223(4) 0.8006(5) 0.8564(9)
H10 H 0.27660 0.76000 0.88010
C13 C 0.2088(5) 0.8942(5) 0.8480(8)
H11 H 0.25390 0.91950 0.86770
C14 C 0.1278(4) 0.9542(4) 0.8101(8)
H12 H 0.11760 1.01960 0.80470
C15 C 0.0638(4) 0.9137(4) 0.7811(7)
C16 C -0.0248(4) 0.9681(4) 0.7353(7)
C17 C -0.0533(5) 1.0676(4) 0.7256(8)
H13 H -0.01660 1.10420 0.74740
C18 C -0.1358(5) 1.1101(4) 0.6837(9)
H14 H -0.15550 1.17610 0.67520
C19 C -0.1898(5) 1.0566(4) 0.6540(9)
H15 H -0.24670 1.08550 0.62670
C20 C -0.1582(4) 0.9594(4) 0.6655(9)
H16 H -0.19470 0.92260 0.64340
N1 N 0.0558(3) 0.6493(3) 0.5023(6)
N2 N -0.1208(3) 0.7274(3) 0.6690(6)
N3 N 0.0763(3) 0.8188(3) 0.7907(6)
N4 N -0.0784(3) 0.9144(3) 0.7063(6)
C21 C -0.4676(7) 0.8221(10) 0.3446(19)
H17 H -0.44200 0.78710 0.21820
H18 H -0.52700 0.87820 0.36560
H19 H -0.47550 0.77450 0.40100
C22 C -0.3379(9) 0.8249(14) 0.2691(13)
H20 H -0.29180 0.84980 0.29980
H21 H -0.36100 0.84930 0.17680
H22 H -0.31010 0.75070 0.22710
C23 C -0.4188(7) 0.9143(9) 0.5855(10)
H23 H -0.46500 0.92100 0.67870
N5 N -0.4085(5) 0.8596(6) 0.4137(10)
O1 O -0.3586(7) 0.9585(8) 0.6143(19)
O2 O -0.3869(7) 1.0237(7) 0.9690(15)
H24 H -0.3431(16) 0.995(2) 1.013(4)
H25 H -0.365(2) 1.053(2) 0.908(5)
I3A I 0.66324(3) 0.49832(3) -0.79454(5)
I1A I 0.51340(3) 0.67134(3) -0.17213(5)
I2A I 0.63623(3) 0.32511(3) -0.36752(5)
Pb1* Pb 0.50000 0.50000 -1.00000
Pb2* Pb 0.50000 0.50000 0.50000
I1* I 0.48660(3) 0.32866(3) -0.82787(5)
I2* I 0.36377(3) 0.67489(3) -0.63248(5)
I3A* I 0.66324(3) 0.49832(3) 0.20546(5)
#END
