
#######################################################################
#
#                 Cambridge Crystallographic Data Centre
#                                CCDC
#
#######################################################################
#
# If this CIF has been generated from an entry in the Cambridge
# Structural Database, then it will include bibliographic, chemical,
# crystal, experimental, refinement or atomic coordinate data resulting
# from the CCDC's data processing and validation procedures.
#
#######################################################################

data_CSD_CIF_XICLAY01
_audit_creation_date 2019-06-05
_audit_creation_method CSD-ConQuest-V1
_database_code_CSD XICLAY01
_database_code_depnum_ccdc_archive 'CCDC 1896445'
_chemical_formula_sum 'C20 H16 Cu1 I4 N4 Pb1'
_chemical_formula_moiety
;
(C20 H16 Cu1 I1 N4 1+)n,n(I3 Pb1 1-)
;
_journal_coden_Cambridge 1695
_journal_volume 7
_journal_year 2019
_journal_page_first 7700
_journal_name_full 'J.Mater.Chem.C '
loop_
_publ_author_name
"Guang-Ning Liu"
"Ruo-Yu Zhao"
"Rang-Dong Xu"
"Qisheng Liu"
"Bo Xu"
"Yang-Yang Wang"
"Qian Wu"
"Jun-Nuan Wang"
"Yong Nie"
"Cuncheng Li"
_chemical_name_systematic
;
catena-[bis(2,2'-bipyridine)-iodo-copper(ii) tris(\m-iodo)-lead(ii)]
;
_cell_volume   2735.901
_exptl_crystal_colour 'dark green'
_exptl_crystal_density_diffrn 2.648
_exptl_special_details
;
photoconductive property

;
_exptl_crystal_description 'prism'
_diffrn_ambient_temperature 293
#These two values have been output from a single CSD field.
_refine_ls_R_factor_gt 0.0434
_refine_ls_wR_factor_gt 0.0434
_symmetry_cell_setting monoclinic
_symmetry_space_group_name_H-M 'P 21/c'
_symmetry_Int_Tables_number 14
loop_
_symmetry_equiv_pos_site_id
_symmetry_equiv_pos_as_xyz
1 x,y,z
2 -x,1/2+y,1/2-z
3 -x,-y,-z
4 x,-1/2-y,-1/2+z
_cell_length_a 17.9449(10)
_cell_length_b 19.4236(11)
_cell_length_c 7.8786(3)
_cell_angle_alpha 90
_cell_angle_beta 94.945(4)
_cell_angle_gamma 90
_cell_formula_units_Z 4
loop_
_atom_type_symbol
_atom_type_radius_bond
C 0.68
H 0.23
Cu 1.32
I 1.40
N 0.68
Pb 1.46
loop_
_atom_site_label
_atom_site_type_symbol
_atom_site_fract_x
_atom_site_fract_y
_atom_site_fract_z
Pb1 Pb 0.12869(2) 0.75054(2) 0.76908(2)
I1 I 0.00974(2) 0.81794(2) 0.49488(3)
I2 I 0.26067(2) 0.80854(2) 0.54525(3)
I3 I 0.11291(2) 0.88207(2) 1.02933(3)
I4 I 0.61399(2) 0.62361(2) 0.94941(4)
Cu1 Cu 0.67177(2) 0.59174(3) 0.66516(6)
N1 N 0.58162(15) 0.62562(18) 0.5240(4)
N2 N 0.64595(16) 0.50266(18) 0.5150(4)
N3 N 0.74889(16) 0.6377(2) 0.5162(4)
N4 N 0.76637(18) 0.5554(2) 0.7797(5)
C1 C 0.5509(2) 0.6869(2) 0.5404(5)
H1 H 0.57250 0.71700 0.62220
C2 C 0.4872(2) 0.7078(3) 0.4392(6)
H2 H 0.46770 0.75190 0.44970
C3 C 0.4540(2) 0.6619(3) 0.3240(5)
H3 H 0.41040 0.67380 0.25790
C4 C 0.4853(2) 0.5994(3) 0.3078(5)
H4 H 0.46310 0.56830 0.22910
C5 C 0.55086(18) 0.5804(2) 0.4078(4)
C6 C 0.58905(19) 0.5131(2) 0.3963(4)
C7 C 0.5706(2) 0.4644(3) 0.2711(5)
H5 H 0.53160 0.47220 0.18770
C8 C 0.6107(3) 0.4048(3) 0.2728(6)
H6 H 0.59700 0.37060 0.19360
C9 C 0.6698(2) 0.3945(3) 0.3868(7)
H7 H 0.69900 0.35500 0.38470
C10 C 0.6854(2) 0.4457(3) 0.5082(6)
H8 H 0.72580 0.43940 0.58870
C11 C 0.7330(3) 0.6780(3) 0.3814(5)
H9 H 0.68310 0.68870 0.35090
C12 C 0.7862(3) 0.7047(4) 0.2846(7)
H10 H 0.77500 0.73590 0.19650
C13 C 0.8552(3) 0.6821(4) 0.3282(8)
H11 H 0.89160 0.69590 0.25810
C14 C 0.8790(3) 0.6419(4) 0.4602(8)
H12 H 0.92910 0.63100 0.48650
C15 C 0.8187(2) 0.6163(2) 0.5603(6)
C16 C 0.8274(2) 0.5722(3) 0.7045(6)
C17 C 0.8984(3) 0.5454(3) 0.7568(7)
H13 H 0.94170 0.55520 0.70450
C18 C 0.8958(3) 0.5047(4) 0.8890(8)
H14 H 0.94150 0.48410 0.92200
C19 C 0.8408(4) 0.4860(4) 0.9884(8)
H15 H 0.84790 0.46000 1.08750
C20 C 0.7673(3) 0.5138(3) 0.9142(7)
H16 H 0.72320 0.50220 0.96120
Pb1C Pb 0.12869(2) 0.74946(2) 0.26908(2)
Pb1C* Pb 0.12869(2) 0.74946(2) 1.26908(2)
I1C I 0.00974(2) 0.68206(2) 0.99488(3)
I2C I 0.26067(2) 0.69146(2) 1.04525(3)
I3C I 0.11291(2) 0.61793(2) 0.52933(3)
#END
