
#######################################################################
#
#                 Cambridge Crystallographic Data Centre
#                                CCDC
#
#######################################################################
#
# If this CIF has been generated from an entry in the Cambridge
# Structural Database, then it will include bibliographic, chemical,
# crystal, experimental, refinement or atomic coordinate data resulting
# from the CCDC's data processing and validation procedures.
#
#######################################################################

data_CSD_CIF_XIFCIY
_audit_creation_date 2002-05-23
_audit_creation_method CSD-ConQuest-V1
_database_code_CSD XIFCIY
_database_code_depnum_ccdc_archive 'CCDC 181842'
_chemical_formula_sum 'C5 H12 Cu1 N1 S4'
_chemical_formula_moiety
;
(C1 Cu1 S4 1-)n,n(C4 H12 N1 1+)
;
_journal_coden_Cambridge 601
_journal_volume 22
_journal_year 2001
_journal_page_first 717
_journal_name_full 'Gaodeng Xuexiao Huaxue Xuebao(Chin.)(Chem.J.Chin.Univ.(Chinese Edition)) '
loop_
_publ_author_name
"Ka-Lou Tang"
"Xiang-Lin Jin"
"Yao-Ling Long"
"Peng Cui"
"You-Qi Tang"
_chemical_name_systematic
;
catena-(Tetramethylammonium (\m~3~-perthiocarbonato-S,S,S',S'')-copper)
;
_cell_volume   2077.933
_exptl_crystal_colour 'brown'
_exptl_crystal_density_diffrn 1.777
_exptl_special_details
;
a cell length given as 11.385 in paper

;
_exptl_crystal_description 'Block'
_diffrn_ambient_temperature 293
#These two values have been output from a single CSD field.
_refine_ls_R_factor_gt 0.0544
_refine_ls_wR_factor_gt 0.0544
_symmetry_cell_setting orthorhombic
_symmetry_space_group_name_H-M 'P b c a'
_symmetry_Int_Tables_number 61
loop_
_symmetry_equiv_pos_site_id
_symmetry_equiv_pos_as_xyz
1 x,y,z
2 1/2-x,-y,1/2+z
3 -x,1/2+y,1/2-z
4 1/2+x,1/2-y,-z
5 -x,-y,-z
6 -1/2+x,y,-1/2-z
7 x,-1/2-y,-1/2+z
8 -1/2-x,-1/2+y,z
_cell_length_a 11.406(2)
_cell_length_b 16.680(3)
_cell_length_c 10.922(2)
_cell_angle_alpha 90
_cell_angle_beta 90
_cell_angle_gamma 90
_cell_formula_units_Z 8
loop_
_atom_type_symbol
_atom_type_radius_bond
C 0.68
H 0.23
Cu 1.52
N 0.68
S 1.02
loop_
_atom_site_label
_atom_site_type_symbol
_atom_site_fract_x
_atom_site_fract_y
_atom_site_fract_z
Cu1 Cu 0.60741(9) 0.49193(6) 0.06494(9)
S1 S 0.55636(19) 0.42289(11) -0.11742(18)
S2 S 0.72783(19) 0.58073(12) -0.03376(18)
S3 S 0.8488(2) 0.59178(13) -0.27390(19)
S4 S 0.67005(19) 0.47013(12) -0.24234(18)
C1 C 0.7445(6) 0.5519(4) -0.1770(6)
N1 N 0.9245(5) 0.3170(3) -0.0362(6)
C2 C 0.9385(8) 0.4069(4) -0.0305(8)
H1 H 0.87380 0.42970 0.01360
H2 H 0.94020 0.42830 -0.11210
H3 H 1.01040 0.41990 0.01060
C3 C 1.0323(7) 0.2805(5) -0.0895(9)
H4 H 1.09860 0.29350 -0.03910
H5 H 1.04460 0.30120 -0.17050
H6 H 1.02320 0.22330 -0.09330
C4 C 0.9040(9) 0.2862(5) 0.0885(8)
H7 H 0.83560 0.31140 0.12240
H8 H 0.97070 0.29800 0.13900
H9 H 0.89220 0.22930 0.08540
C5 C 0.8215(8) 0.2982(5) -0.1152(10)
H10 H 0.81400 0.24120 -0.12350
H11 H 0.83250 0.32190 -0.19450
H12 H 0.75180 0.31960 -0.07840
Cu1D Cu 0.39259(9) 0.50807(6) -0.06494(9)
S1D S 0.44364(19) 0.57711(11) 0.11742(18)
S3A S 0.6512(2) 0.40822(13) 0.22610(19)
Cu1A Cu 0.89259(9) 0.50807(6) -0.43506(9)
#END
