
#######################################################################
#
#                 Cambridge Crystallographic Data Centre
#                                CCDC
#
#######################################################################
#
# If this CIF has been generated from an entry in the Cambridge
# Structural Database, then it will include bibliographic, chemical,
# crystal, experimental, refinement or atomic coordinate data resulting
# from the CCDC's data processing and validation procedures.
#
#######################################################################

data_CSD_CIF_XIFHOJ
_audit_creation_date 2002-05-23
_audit_creation_method CSD-ConQuest-V1
_database_code_CSD XIFHOJ
_chemical_formula_sum 'C12 H26 Bi1 Cl1 N10 O8'
_chemical_formula_moiety
;
(C1 H7 N4 1+)2n,n(C10 H12 Bi1 Cl1 N2 O8 2-)
;
_journal_coden_Cambridge 233
_journal_volume 46
_journal_year 2001
_journal_page_first 1305
_journal_name_full 'Zh.Neorg.Khim.(Russ.)(Russ.J.Inorg.Chem.) '
loop_
_publ_author_name
"R.L.Davidovich"
"A.V.Gerasimenko"
"V.B.Logvinova"
"J.-X.Zou"
_chemical_name_systematic
;
catena-(bis(Aminoguanidinium) 
(\m~2~-ethylenediaminotetra-acetato)-chloro-bismuth(iii))
;
_cell_volume   2148.583
_exptl_crystal_colour 'colorless'
_exptl_crystal_density_diffrn 2.111
_exptl_crystal_description 'prism'
_exptl_crystal_preparation 'water'
_diffrn_ambient_temperature 293
#These two values have been output from a single CSD field.
_refine_ls_R_factor_gt 0.0207
_refine_ls_wR_factor_gt 0.0207
_symmetry_cell_setting monoclinic
_symmetry_space_group_name_H-M 'P 21/c'
_symmetry_Int_Tables_number 14
loop_
_symmetry_equiv_pos_site_id
_symmetry_equiv_pos_as_xyz
1 x,y,z
2 -x,1/2+y,1/2-z
3 -x,-y,-z
4 x,-1/2-y,-1/2+z
_cell_length_a 17.077(2)
_cell_length_b 9.413(1)
_cell_length_c 13.560(1)
_cell_angle_alpha 90
_cell_angle_beta 99.695(2)
_cell_angle_gamma 90
_cell_formula_units_Z 4
loop_
_atom_type_symbol
_atom_type_radius_bond
C 0.68
H 0.23
Bi 1.74
Cl 0.99
N 0.68
O 0.68
loop_
_atom_site_label
_atom_site_type_symbol
_atom_site_fract_x
_atom_site_fract_y
_atom_site_fract_z
Bi1 Bi 0.257270(3) 0.702830(7) 0.502180(5)
Cl1 Cl 0.27606(3) 1.00534(6) 0.46408(4)
O1 O 0.11573(7) 0.7830(2) 0.4982(1)
O2 O -0.00581(7) 0.7021(2) 0.5045(1)
O3 O 0.31664(7) 0.7641(2) 0.6641(1)
O4 O 0.30564(8) 0.8053(2) 0.8222(1)
O5 O 0.39647(7) 0.6937(1) 0.5149(1)
O6 O 0.50718(8) 0.6044(2) 0.6012(1)
O7 O 0.18213(7) 0.5216(1) 0.3941(1)
O8 O 0.21572(9) 0.3655(2) 0.2845(1)
N1 N 0.18731(8) 0.5950(2) 0.6346(1)
N2 N 0.30773(8) 0.4591(2) 0.5354(1)
N3 N 0.4640(1) 0.6376(2) 0.8530(2)
N4 N 0.4416(1) 0.4041(3) 0.8928(2)
N5 N 0.5554(1) 0.4662(2) 0.8358(1)
N6 N 0.6055(1) 0.5752(2) 0.8107(2)
N7 N 0.0575(1) 0.3815(2) 0.1655(2)
N8 N 0.0386(1) 0.5821(2) 0.2562(1)
N9 N -0.0536(1) 0.5179(2) 0.1210(2)
N10 N -0.0972(1) 0.6393(2) 0.1396(2)
C1 C 0.1028(1) 0.5730(2) 0.5924(2)
C2 C 0.0672(1) 0.6958(2) 0.5275(2)
C3 C 0.1951(1) 0.7006(2) 0.7165(1)
C4 C 0.2783(1) 0.7610(2) 0.7381(1)
C5 C 0.2279(1) 0.4613(2) 0.6735(1)
C6 C 0.2547(1) 0.3759(2) 0.5901(2)
C7 C 0.3904(1) 0.4658(2) 0.5910(2)
C8 C 0.4355(1) 0.5967(2) 0.5668(1)
C9 C 0.3062(1) 0.3994(2) 0.4347(1)
C10 C 0.2279(1) 0.4288(2) 0.3643(2)
C11 C 0.4866(1) 0.5030(3) 0.8621(2)
C12 C 0.0148(1) 0.4936(2) 0.1816(2)
H1 H 0.492(2) 0.697(3) 0.830(2)
H2 H 0.423(2) 0.664(3) 0.876(2)
H3 H 0.458(2) 0.316(3) 0.898(2)
H4 H 0.396(2) 0.432(3) 0.913(2)
H5 H 0.577(1) 0.383(2) 0.847(2)
H6 H 0.607(2) 0.560(3) 0.750(2)
H7 H 0.650(2) 0.557(3) 0.859(2)
H8 H 0.101(1) 0.375(2) 0.196(2)
H9 H 0.040(1) 0.320(2) 0.106(2)
H10 H 0.075(1) 0.570(2) 0.294(2)
H11 H 0.004(1) 0.645(3) 0.265(2)
H12 H -0.073(1) 0.464(2) 0.072(2)
H13 H -0.138(1) 0.617(2) 0.123(2)
H14 H -0.088(1) 0.701(2) 0.093(2)
O4C O 0.30564(8) 0.6947(2) 0.3222(1)
Bi1C Bi 0.257270(3) 0.797170(7) 1.002180(5)
#END
