
#######################################################################
#
#                 Cambridge Crystallographic Data Centre
#                                CCDC
#
#######################################################################
#
# If this CIF has been generated from an entry in the Cambridge
# Structural Database, then it will include bibliographic, chemical,
# crystal, experimental, refinement or atomic coordinate data resulting
# from the CCDC's data processing and validation procedures.
#
#######################################################################

data_CSD_CIF_XIGYIY
_audit_creation_date 2018-09-05
_audit_creation_method CSD-ConQuest-V1
_database_code_CSD XIGYIY
_database_code_depnum_ccdc_archive 'CCDC 1851345'
_chemical_formula_sum 'C9 H13 Cu4 I4 N5'
_chemical_formula_moiety
;
C4 H12 N1 1+,n(C5 H1 Cu4 I4 N4 1-)
;
_journal_coden_Cambridge 182
_journal_volume 54
_journal_year 2018
_journal_page_first 11264
_journal_name_full 'Chem.Commun. '
loop_
_publ_author_name
"Nian Zhao"
"Lun Yang"
"Bo Xie"
"Juanjuan Han"
"Qiyun Pan"
"Xiang Li"
"Meifeng Liu"
"Yu Wang"
"Xiuzhang Wang"
"Guangshan Zhu"
_chemical_name_systematic
;
catena-[diethylammonium 
(\m-4,5-dicyanoimidazolyl)-tetrakis(\m-iodo)-tetra-copper]
;
_chemical_name_common
;
MCIF-2
;
_cell_volume   2430.935
_exptl_crystal_colour 'colorless'
_exptl_crystal_description 'block'
_diffrn_ambient_temperature 296
_refine_special_details
;
C4B,C5B and C4A,C5A disordered over two sites with occupancies 0.309:0.191.

;
#These two values have been output from a single CSD field.
_refine_ls_R_factor_gt 0.0369
_refine_ls_wR_factor_gt 0.0369
_symmetry_cell_setting orthorhombic
_symmetry_space_group_name_H-M 'P n n a'
_symmetry_Int_Tables_number 52
loop_
_symmetry_equiv_pos_site_id
_symmetry_equiv_pos_as_xyz
1 x,y,z
2 1/2-x,-y,z
3 1/2-x,1/2+y,1/2-z
4 x,1/2-y,1/2-z
5 -x,-y,-z
6 -1/2+x,y,-z
7 -1/2+x,-1/2-y,-1/2+z
8 -x,-1/2+y,-1/2+z
_cell_length_a 14.8153(12)
_cell_length_b 14.3340(12)
_cell_length_c 11.4471(10)
_cell_angle_alpha 90
_cell_angle_beta 90
_cell_angle_gamma 90
_cell_formula_units_Z 4
loop_
_atom_type_symbol
_atom_type_radius_bond
C 0.68
H 0.23
Cu 1.32
I 1.40
N 0.68
loop_
_atom_site_label
_atom_site_type_symbol
_atom_site_fract_x
_atom_site_fract_y
_atom_site_fract_z
C1 C 0.0637(3) 0.2096(4) 0.7179(5)
C2 C -0.0118(4) 0.1570(4) 0.6784(6)
C3 C 0.2000(5) 0.25000 0.75000
H1 H 0.26270 0.25000 0.75000
Cu1 Cu 0.20295(5) 0.07769(5) 0.60480(8)
Cu2 Cu 0.32897(6) 0.05036(6) 0.43745(9)
I1 I 0.38080(3) 0.07951(3) 0.66170(5)
I2 I 0.17156(3) 0.13026(3) 0.37833(5)
N1 N -0.0737(4) 0.1168(4) 0.6470(6)
N2 N 0.1515(3) 0.1833(3) 0.6983(5)
C4 C 0.266(7) 0.093(4) 0.02(1)
H2 H 0.21110 0.12950 0.02680
H3 H 0.27300 0.07770 -0.06250
C5 C 0.347(6) 0.151(5) 0.059(11)
H4 H 0.34850 0.20540 0.01080
H5 H 0.34080 0.16910 0.13960
H6 H 0.40290 0.11700 0.05000
N3 N 0.25000 0.00000 0.068(4)
H7 H 0.29700 -0.00860 0.11500
C6? C 0.105(7) 0.102(8) 0.060(18)
H8? H 0.07740 0.14540 0.00660
H9? H 0.06610 0.04900 0.06960
H10? H 0.11380 0.13190 0.13410
C7? C 0.197(7) 0.072(10) 0.009(14)
H11? H 0.18630 0.04440 -0.06700
H12? H 0.23390 0.12710 -0.00270
H13? H 0.28820 0.03020 0.11440
H14? H 0.28820 0.03020 0.11440
C1C C 0.0637(3) 0.2904(4) 0.7821(5)
C2C C -0.0118(4) 0.3430(4) 0.8216(6)
N1C N -0.0737(4) 0.3832(4) 0.8530(6)
N2C N 0.1515(3) 0.3167(3) 0.8017(5)
Cu1A Cu 0.29705(5) -0.07769(5) 0.60480(8)
Cu2A Cu 0.17103(6) -0.05036(6) 0.43745(9)
I1A I 0.11920(3) -0.07951(3) 0.66170(5)
I2A I 0.32844(3) -0.13026(3) 0.37833(5)
Cu1C Cu 0.20295(5) 0.42231(5) 0.89520(8)
Cu2E Cu -0.17103(6) 0.05036(6) 0.56255(9)
Cu2F Cu -0.17103(6) 0.44964(6) 0.93745(9)
N1D N 0.0737(4) -0.1168(4) 0.3530(6)
N1E N 0.4263(4) 0.1168(4) 0.3530(6)
N2A N 0.3485(3) -0.1833(3) 0.6983(5)
C4A C 0.234(7) -0.093(4) 0.02(1)
H2A H 0.28890 -0.12950 0.02680
H3A H 0.22700 -0.07770 -0.06250
C5A C 0.153(6) -0.151(5) 0.059(11)
H4A H 0.15150 -0.20540 0.01080
H5A H 0.15920 -0.16910 0.13960
H6A H 0.09710 -0.11700 0.05000
H7A H 0.20300 0.00860 0.11500
#END
