
#######################################################################
#
#                 Cambridge Crystallographic Data Centre
#                                CCDC
#
#######################################################################
#
# If this CIF has been generated from an entry in the Cambridge
# Structural Database, then it will include bibliographic, chemical,
# crystal, experimental, refinement or atomic coordinate data resulting
# from the CCDC's data processing and validation procedures.
#
#######################################################################

data_CSD_CIF_XIGYUK
_audit_creation_date 2018-09-05
_audit_creation_method CSD-ConQuest-V1
_database_code_CSD XIGYUK
_database_code_depnum_ccdc_archive 'CCDC 1851347'
_chemical_formula_sum 'C20 H29 Cu8 I8 N10 O0.5'
_chemical_formula_moiety
;
C10 H26 N2 2+,n(C10 H2 Cu8 I8 N8 2-),0.5(H2 O1)
;
_journal_coden_Cambridge 182
_journal_volume 54
_journal_year 2018
_journal_page_first 11264
_journal_name_full 'Chem.Commun. '
loop_
_publ_author_name
"Nian Zhao"
"Lun Yang"
"Bo Xie"
"Juanjuan Han"
"Qiyun Pan"
"Xiang Li"
"Meifeng Liu"
"Yu Wang"
"Xiuzhang Wang"
"Guangshan Zhu"
_chemical_name_systematic
;
catena-[(N,N,N',N'-tetramethylhexane-1,6-diaminium) 
octakis(\m-iodo)-bis(\m-4,5-dicyanoimidazolyl)-octa-copper hemihydrate]
;
_chemical_name_common
;
MCIF-4
;
_cell_volume   4684.636
_exptl_crystal_colour 'colorless'
_exptl_crystal_density_diffrn 2.751
_exptl_crystal_description 'Block'
_diffrn_ambient_temperature 296
#These two values have been output from a single CSD field.
_refine_ls_R_factor_gt 0.036
_refine_ls_wR_factor_gt 0.036
_symmetry_cell_setting orthorhombic
_symmetry_space_group_name_H-M 'P m m n'
_symmetry_Int_Tables_number 59
loop_
_symmetry_equiv_pos_site_id
_symmetry_equiv_pos_as_xyz
1 x,y,z
2 1/2-x,1/2-y,z
3 -x,1/2+y,-z
4 1/2+x,-y,-z
5 -x,-y,-z
6 -1/2+x,-1/2+y,-z
7 x,-1/2-y,z
8 -1/2-x,y,z
_cell_length_a 17.840(2)
_cell_length_b 31.000(4)
_cell_length_c 8.4707(11)
_cell_angle_alpha 90
_cell_angle_beta 90
_cell_angle_gamma 90
_cell_formula_units_Z 4
loop_
_atom_type_symbol
_atom_type_radius_bond
C 0.68
H 0.23
Cu 1.32
I 1.40
N 0.68
O 0.68
loop_
_atom_site_label
_atom_site_type_symbol
_atom_site_fract_x
_atom_site_fract_y
_atom_site_fract_z
C1 C 0.4780(7) 0.75000 0.4657(11)
H1 H 0.47850 0.75000 0.57550
C2 C 0.4756(4) 0.7279(2) 0.2281(8)
C3 C 0.75000 0.5937(3) 0.6215(12)
H2 H 0.75000 0.62210 0.65630
Cu1 Cu 0.48834(6) 0.63905(3) 0.80485(11)
Cu2 Cu 0.58309(5) 0.59617(3) 0.61618(11)
Cu3 Cu 0.44135(5) 0.57813(3) 0.58905(12)
Cu4 Cu 0.48892(6) 0.65556(3) 0.48441(11)
I1 I 0.52524(3) 0.58794(2) 0.32290(5)
I2 I 0.61096(3) 0.68009(2) 0.68840(7)
I3 I 0.35927(3) 0.64945(2) 0.64646(7)
I4 I 0.51267(3) 0.55549(2) 0.85163(6)
N1 N 0.4776(4) 0.71377(17) 0.3817(7)
N2 N 0.6862(3) 0.57167(17) 0.5947(7)
C4 C 0.4738(4) 0.6987(2) 0.1000(8)
N3 N 0.4742(4) 0.6750(2) -0.0033(8)
C5 C 0.7111(3) 0.53184(19) 0.5481(8)
C6 C 0.6629(4) 0.4979(2) 0.5056(8)
N4 N 0.6267(3) 0.46917(19) 0.4723(8)
C7 C 0.3194(9) 0.6037(5) 1.1704(18)
H3 H 0.32910 0.63250 1.20630
H4 H 0.35950 0.59440 1.10270
H5 H 0.31610 0.58470 1.25960
C8 C 0.25000 0.5675(6) 0.964(2)
H6 H 0.20620 0.57090 0.89760
C9 C 0.25000 0.5230(6) 1.028(2)
H7 H 0.20610 0.51920 1.09360
C10 C 0.25000 0.4897(7) 0.904(2)
H8 H 0.20600 0.49330 0.83750
C11 C 0.25000 0.4461(7) 0.970(2)
H9 H 0.20620 0.44320 1.03700
C12 C 0.25000 0.4095(7) 0.857(2)
H10 H 0.29400 0.41140 0.78990
C13 C 0.25000 0.3670(7) 0.940(4)
H11 H 0.29360 0.36700 1.00880
C14 C 0.3116(12) 0.3243(8) 0.758(3)
H12 H 0.30400 0.30340 0.67590
H13 H 0.35070 0.31460 0.82720
H14 H 0.32580 0.35140 0.71180
N5 N 0.25000 0.6028(4) 1.084(2)
H15 H 0.25000 0.62950 1.02250
N6 N 0.25000 0.3271(9) 0.863(3)
O1 O 0.25000 0.25000 0.075(2)
H16 H 0.25000 0.269(5) 0.003(16)
H17? H 0.20620 0.57090 0.89760
H18? H 0.20610 0.51920 1.09360
H19? H 0.20600 0.49330 0.83750
H20? H 0.20620 0.44320 1.03700
H21? H 0.29400 0.41140 0.78990
H22? H 0.29360 0.36700 1.00880
C2F C 0.4756(4) 0.7721(2) 0.2281(8)
N1F N 0.4776(4) 0.78623(17) 0.3817(7)
C4F C 0.4738(4) 0.8013(2) 0.1000(8)
N3F N 0.4742(4) 0.8250(2) -0.0033(8)
N2G N 0.8138(3) 0.57167(17) 0.5947(7)
C5G C 0.7889(3) 0.53184(19) 0.5481(8)
C6G C 0.8371(4) 0.4979(2) 0.5056(8)
N4G N 0.8733(3) 0.46917(19) 0.4723(8)
Cu1D Cu 0.51166(6) 0.36095(3) 0.19515(11)
Cu2D Cu 0.41691(5) 0.40383(3) 0.38382(11)
Cu3D Cu 0.55865(5) 0.42187(3) 0.41095(12)
Cu4D Cu 0.51108(6) 0.34444(3) 0.51559(11)
I1D I 0.47476(3) 0.41206(2) 0.67710(5)
I2D I 0.38904(3) 0.31991(2) 0.31160(7)
I3D I 0.64073(3) 0.35055(2) 0.35354(7)
I4D I 0.48733(3) 0.44451(2) 0.14837(6)
Cu1* Cu 0.48834(6) 0.63905(3) -0.19515(11)
Cu1F Cu 0.48834(6) 0.86095(3) -0.19515(11)
Cu2G Cu 0.91691(5) 0.59617(3) 0.61618(11)
Cu3C Cu 0.94135(5) 0.42187(3) 0.41095(12)
Cu4F Cu 0.48892(6) 0.84444(3) 0.48441(11)
N1D N 0.5224(4) 0.28623(17) 0.6183(7)
N2D N 0.3138(3) 0.42833(17) 0.4053(7)
N3* N 0.4742(4) 0.6750(2) 0.9967(8)
N3D N 0.5258(4) 0.3250(2) 0.0033(8)
N4D N 0.3733(3) 0.53083(19) 0.5277(8)
C7G C 0.1806(9) 0.6037(5) 1.1704(18)
H3G H 0.17090 0.63250 1.20630
H4G H 0.14050 0.59440 1.10270
H5G H 0.18390 0.58470 1.25960
H6G H 0.29380 0.57090 0.89760
H7G H 0.29390 0.51920 1.09360
H8G H 0.29400 0.49330 0.83750
H9G H 0.29380 0.44320 1.03700
H10G H 0.20600 0.41140 0.78990
H11G H 0.20640 0.36700 1.00880
C14G C 0.1884(12) 0.3243(8) 0.758(3)
H12G H 0.19600 0.30340 0.67590
H13G H 0.14930 0.31460 0.82720
H14G H 0.17420 0.35140 0.71180
H16A H 0.25000 0.231(5) 0.003(16)
#END
