
#######################################################################
#
#                 Cambridge Crystallographic Data Centre
#                                CCDC
#
#######################################################################
#
# If this CIF has been generated from an entry in the Cambridge
# Structural Database, then it will include bibliographic, chemical,
# crystal, experimental, refinement or atomic coordinate data resulting
# from the CCDC's data processing and validation procedures.
#
#######################################################################

data_CSD_CIF_XIGYOE
_audit_creation_date 2018-09-05
_audit_creation_method CSD-ConQuest-V1
_database_code_CSD XIGYOE
_database_code_depnum_ccdc_archive 'CCDC 1851346'
_chemical_formula_sum 'C14 H23 Cu4 I4 N5'
_chemical_formula_moiety
;
C9 H22 N1 1+,(C5 H1 Cu4 I4 N4 1-)n
;
_journal_coden_Cambridge 182
_journal_volume 54
_journal_year 2018
_journal_page_first 11264
_journal_name_full 'Chem.Commun. '
loop_
_publ_author_name
"Nian Zhao"
"Lun Yang"
"Bo Xie"
"Juanjuan Han"
"Qiyun Pan"
"Xiang Li"
"Meifeng Liu"
"Yu Wang"
"Xiuzhang Wang"
"Guangshan Zhu"
_chemical_name_systematic
;
catena-[tri-n-propylammonium 
(\m-4,5-dicyanoimidazolyl)-tetrakis(\m-iodo)-tetra-copper]
;
_chemical_name_common
;
MCIF-3
;
_cell_volume   2453.702
_exptl_crystal_colour 'colorless'
_exptl_crystal_density_diffrn 2.77
_exptl_crystal_description 'Block'
_diffrn_ambient_temperature 296
#These two values have been output from a single CSD field.
_refine_ls_R_factor_gt 0.0353
_refine_ls_wR_factor_gt 0.0353
_symmetry_cell_setting monoclinic
_symmetry_space_group_name_H-M 'P 21/n'
_symmetry_Int_Tables_number 14
loop_
_symmetry_equiv_pos_site_id
_symmetry_equiv_pos_as_xyz
1 x,y,z
2 1/2-x,1/2+y,1/2-z
3 -x,-y,-z
4 -1/2+x,-1/2-y,-1/2+z
_cell_length_a 11.3646(11)
_cell_length_b 14.8491(12)
_cell_length_c 14.7153(13)
_cell_angle_alpha 90
_cell_angle_beta 98.850(2)
_cell_angle_gamma 90
_cell_formula_units_Z 4
loop_
_atom_type_symbol
_atom_type_radius_bond
C 0.68
H 0.23
Cu 1.32
I 1.40
N 0.68
loop_
_atom_site_label
_atom_site_type_symbol
_atom_site_fract_x
_atom_site_fract_y
_atom_site_fract_z
C1 C 0.7613(6) 0.7477(5) 0.6971(5)
H1 H 0.75440 0.74140 0.75890
C2 C 0.7184(7) 0.8624(5) 0.4873(5)
C3 C 0.7485(6) 0.8035(5) 0.5626(5)
C4 C 0.8500(6) 0.6750(5) 0.4924(5)
C5 C 0.8069(6) 0.7209(5) 0.5657(5)
Cu1 Cu 0.6182(1) 0.91612(7) 0.69700(7)
Cu2 Cu 0.41722(10) 1.02571(7) 0.67300(7)
Cu3 Cu 0.60821(10) 1.07051(6) 0.79602(7)
Cu4 Cu 0.45932(10) 0.92570(7) 0.83694(7)
I1 I 0.62746(5) 1.07354(3) 0.61735(3)
I2 I 0.69505(5) 0.92192(4) 0.88243(3)
I3 I 0.37969(4) 1.09533(3) 0.83426(3)
I4 I 0.38967(5) 0.84789(3) 0.67332(4)
N1 N 0.6914(7) 0.9089(4) 0.4251(5)
N2 N 0.8852(6) 0.6404(4) 0.4319(4)
N3 N 0.7190(5) 0.8193(4) 0.6483(4)
N4 N 0.8140(5) 0.6856(4) 0.6519(4)
C6 C 0.5115(8) 0.5939(6) 0.6901(6)
H2 H 0.58300 0.55790 0.69150
H3 H 0.53570 0.65490 0.70740
C7 C 0.4438(9) 0.5944(7) 0.5932(7)
H4 H 0.42940 0.53300 0.57200
H5 H 0.36730 0.62360 0.59270
C8 C 0.5128(10) 0.6432(8) 0.5299(7)
H6 H 0.53340 0.70220 0.55400
H7 H 0.46530 0.64850 0.47030
H8 H 0.58420 0.61030 0.52480
C9 C 0.5027(9) 0.5630(7) 0.8576(7)
H9 H 0.45490 0.53310 0.89780
H10 H 0.57830 0.53160 0.86260
C10 C 0.5246(10) 0.6575(7) 0.8891(7)
H11 H 0.45080 0.69130 0.87720
H12 H 0.58120 0.68530 0.85470
C11 C 0.5735(10) 0.6608(8) 0.9919(7)
H13 H 0.51220 0.64340 1.02660
H14 H 0.59930 0.72100 1.00860
H15 H 0.63970 0.62030 1.00510
C12 C 0.3958(8) 0.4612(6) 0.7375(8)
H16 H 0.34630 0.44340 0.78260
H17 H 0.34580 0.46130 0.67780
C13 C 0.4899(9) 0.3925(7) 0.7364(7)
H18 H 0.53350 0.38440 0.79790
H19 H 0.54550 0.41180 0.69650
C14 C 0.4308(11) 0.3039(6) 0.7013(9)
H20 H 0.37660 0.28500 0.74160
H21 H 0.49070 0.25860 0.69980
H22 H 0.38780 0.31260 0.64050
N5 N 0.4395(6) 0.5569(5) 0.7592(5)
H23 H 0.36830 0.59480 0.75550
Cu2B Cu 0.58278(10) 0.97429(7) 0.32700(7)
Cu3A Cu 0.89179(10) 0.57051(6) 0.70398(7)
Cu4C Cu 0.95932(10) 0.57430(7) 0.33694(7)
N1B N 0.3086(7) 1.0911(4) 0.5749(5)
N2C N 0.3852(6) 0.8596(4) 0.9319(4)
N4A N 0.6860(5) 1.1856(4) 0.8481(4)
#END
