
#######################################################################
#
#                 Cambridge Crystallographic Data Centre
#                                CCDC
#
#######################################################################
#
# If this CIF has been generated from an entry in the Cambridge
# Structural Database, then it will include bibliographic, chemical,
# crystal, experimental, refinement or atomic coordinate data resulting
# from the CCDC's data processing and validation procedures.
#
#######################################################################

data_CSD_CIF_XIHNAG
_audit_creation_date 2018-09-05
_audit_creation_method CSD-ConQuest-V1
_database_code_CSD XIHNAG
_database_code_depnum_ccdc_archive 'CCDC 1831776'
_chemical_formula_sum 'C33 H48 Ag3 Mo12 N12 O40 P1'
_chemical_formula_moiety
;
(C33 H48 Ag3 N12 3+)n,n(Mo12 O40 P1 3-)
;
_journal_coden_Cambridge 580
_journal_volume 155
_journal_year 2018
_journal_page_first 337
_journal_name_full 'Polyhedron '
loop_
_publ_author_name
"Ai-Xiang Tian"
"Meng-Le Yang"
"Na Sun"
"Yu-Bo Fu"
"Jun Ying"
_chemical_name_systematic
;
catena-(tris(\m-4,4'-methylenebis(3,5-dimethyl-1H-pyrazole))-tri-silver(i) 
(\m-phosphato)-tetracosakis(\m-oxo)-dodecaoxo-dodeca-molybdenum)
;
_cell_volume   3504.972
_exptl_crystal_colour 'orange'
_exptl_crystal_density_diffrn 2.614
_exptl_crystal_description 'block'
_diffrn_ambient_temperature 293
_refine_special_details
;
O1,O2,O41,O42 disordered by symmetry over two configurations with occupancy 
0.50; O21,O22,O43,O44 disordered by symmetry over two configurations with 
occupancy 0.50.
;
#These two values have been output from a single CSD field.
_refine_ls_R_factor_gt 0.0758
_refine_ls_wR_factor_gt 0.0758
_symmetry_cell_setting triclinic
_symmetry_space_group_name_H-M 'P -1'
_symmetry_Int_Tables_number 2
loop_
_symmetry_equiv_pos_site_id
_symmetry_equiv_pos_as_xyz
1 x,y,z
2 -x,-y,-z
_cell_length_a 12.505
_cell_length_b 13.356
_cell_length_c 22.158
_cell_angle_alpha 81.85
_cell_angle_beta 76.34
_cell_angle_gamma 78.37
_cell_formula_units_Z 2
loop_
_atom_type_symbol
_atom_type_radius_bond
C 0.68
H 0.23
Ag 1.45
Mo 1.54
N 0.68
O 0.68
P 1.05
loop_
_atom_site_label
_atom_site_type_symbol
_atom_site_fract_x
_atom_site_fract_y
_atom_site_fract_z
P1 P -0.50000 1.00000 0.00000
Mo1 Mo -0.57294(12) 0.94511(13) 0.16468(7)
Mo2 Mo -0.42529(11) 1.24092(12) -0.06524(7)
Mo3 Mo -0.68333(12) 1.18325(12) -0.07810(7)
Mo4 Mo -0.22744(12) 1.04539(14) -0.00426(8)
Mo5 Mo -0.46274(14) 1.17109(13) 0.09911(8)
Mo6 Mo -0.73753(12) 1.15003(13) 0.08793(8)
O1 O -0.3778(16) 0.9479(16) -0.0004(9)
O2 O -0.5456(16) 1.0431(16) 0.0645(9)
O3 O -0.5656(16) 0.9190(16) -0.0023(9)
O4 O -0.4985(15) 0.9212(18) 0.0525(9)
O5 O -0.4969(10) 1.0609(10) 0.1553(9)
O6 O -0.1023(9) 1.0669(11) -0.0028(6)
O7 O -0.6251(10) 1.2076(10) 0.1011(8)
O8 O -0.7599(15) 1.0748(11) -0.0557(6)
O9 O -0.8045(14) 1.0438(11) 0.0654(6)
O10 O -0.4573(10) 1.2544(12) 0.0176(5)
O11 O -0.6146(9) 0.837(1) 0.1386(6)
O12 O -0.2789(10) 1.1575(11) -0.0536(6)
O13 O -0.7358(13) 1.2115(12) 0.0098(6)
O14 O -0.6049(10) 0.9229(12) 0.2408(6)
O15 O -0.7712(10) 1.2701(9) -0.1115(6)
O16 O -0.8500(9) 1.2144(10) 0.1312(6)
O17 O -0.5826(8) 1.1288(9) -0.1442(5)
O18 O -0.6953(10) 1.0349(10) 0.1491(8)
O19 O -0.4490(11) 1.2552(10) 0.1437(5)
O20 O -0.3815(9) 1.3474(9) -0.0993(7)
O21 O -0.3190(11) 1.1123(12) 0.0683(6)
O22 O -0.5706(8) 1.2627(10) -0.0728(5)
P2 P 0.50000 0.50000 -0.50000
Mo7 Mo 0.27600(14) 0.36973(16) -0.42174(8)
Mo8 Mo 0.44550(15) 0.29246(15) -0.56630(9)
Mo9 Mo 0.50044(17) 0.37204(18) -0.34770(8)
Mo10 Mo 0.30625(13) 0.60226(14) -0.37021(7)
Mo11 Mo 0.33602(15) 0.74800(16) -0.51809(10)
Mo12 Mo 0.25773(15) 0.5302(2) -0.56249(10)
O23 O 0.5710(17) 0.5165(19) -0.5583(10)
O24 O 0.5567(18) 0.4114(18) -0.5378(10)
O25 O 0.4064(16) 0.4359(17) -0.5039(9)
O26 O 0.4294(18) 0.5791(17) -0.5477(10)
O27 O 0.3418(13) 0.3958(14) -0.5898(6)
O28 O 0.2213(11) 0.6484(15) -0.3064(6)
O29 O 0.3739(11) 0.3255(10) -0.3708(6)
O30 O 0.3452(13) 0.2877(16) -0.4826(6)
O31 O 0.1694(11) 0.3122(12) -0.3851(9)
O32 O 0.2438(15) 0.6566(15) -0.5361(8)
O33 O 0.4053(11) 0.4921(10) -0.3292(6)
O34 O 0.2389(11) 0.5053(10) -0.3845(6)
O35 O 0.2109(12) 0.4658(13) -0.4873(6)
O36 O 0.4438(11) 0.779(1) -0.4866(7)
O37 O 0.2679(11) 0.6953(11) -0.4324(7)
O38 O 0.5646(12) 0.3247(11) -0.6238(7)
O39 O 0.4188(13) 0.1924(13) -0.5914(6)
O40 O 0.4195(14) 0.7339(16) -0.5960(9)
O41 O 0.4967(14) 0.3122(13) -0.2792(7)
O42 O 0.3700(15) 0.5782(15) -0.6360(9)
O43 O 0.1502(11) 0.5434(12) -0.5944(7)
O44 O 0.2514(11) 0.8618(11) -0.5260(5)
Ag1 Ag -1.53608(11) 1.44856(14) 0.21323(7)
Ag2 Ag -0.98599(12) 1.16946(12) -0.11605(7)
Ag3 Ag -0.78271(16) 1.07658(19) -0.50094(8)
C1 C -1.931(2) 1.297(2) 0.4437(12)
H1 H -1.91310 1.27320 0.48370
H2 H -2.00910 1.32630 0.44930
H3 H -1.88710 1.34770 0.42280
C2 C -1.9072(16) 1.211(2) 0.4062(9)
C3 C -1.9195(17) 1.206(3) 0.3456(11)
C4 C -1.895(2) 1.114(3) 0.3298(11)
C5 C -1.886(2) 1.058(3) 0.2754(11)
H4 H -1.90790 1.10540 0.24180
H5 H -1.93480 1.00770 0.28680
H6 H -1.81060 1.02390 0.26230
C6 C -1.9481(17) 1.301(2) 0.2995(10)
H7 H -2.02120 1.33830 0.31700
H8 H -1.95290 1.27700 0.26100
C7 C -1.9883(14) 1.552(2) 0.294(1)
H9 H -1.97590 1.62150 0.28730
H10 H -2.02450 1.53690 0.33680
H11 H -2.03480 1.54240 0.26720
C8 C -1.8791(19) 1.481(3) 0.2799(11)
C9 C -1.8627(15) 1.376(2) 0.2835(9)
C10 C -1.7419(15) 1.343(2) 0.2683(8)
C11 C -1.6714(18) 1.243(2) 0.2671(10)
H12 H -1.59440 1.25110 0.25450
H13 H -1.68870 1.20520 0.23810
H14 H -1.68420 1.20670 0.30800
C12 C -1.0977(14) 1.5059(15) 0.1599(8)
H15 H -1.04130 1.51370 0.12260
H16 H -1.07200 1.44680 0.18620
H17 H -1.11260 1.56600 0.18170
C13 C -1.2015(12) 1.4921(13) 0.1433(7)
C14 C -1.2281(11) 1.4932(12) 0.0864(7)
C15 C -1.3401(12) 1.4796(12) 0.1004(7)
C16 C -1.4090(12) 1.4739(14) 0.0557(7)
H18 H -1.48240 1.46410 0.07810
H19 H -1.37490 1.41730 0.03140
H20 H -1.41430 1.53660 0.02860
C17 C -1.1570(12) 1.5154(14) 0.0245(7)
H21 H -1.08340 1.51860 0.03050
H22 H -1.18750 1.58320 0.00750
C18 C -1.0201(14) 1.2799(14) 0.0219(8)
H23 H -0.96710 1.22480 0.00260
H24 H -1.07290 1.25200 0.05570
H25 H -0.98160 1.32240 0.03760
C19 C -1.0791(13) 1.3412(14) -0.0240(8)
C20 C -1.1423(12) 1.4419(13) -0.0240(7)
C21 C -1.1794(12) 1.4591(12) -0.0773(7)
C22 C -1.2480(13) 1.5528(14) -0.1062(8)
H26 H -1.26870 1.60590 -0.07850
H27 H -1.31420 1.53450 -0.11310
H28 H -1.20450 1.57730 -0.14530
C23 C -0.7609(16) 1.1430(15) -0.2418(8)
H29 H -0.80650 1.19950 -0.22040
H30 H -0.76670 1.15310 -0.28480
H31 H -0.68440 1.13900 -0.23940
C24 C -0.7983(16) 1.0490(17) -0.2131(9)
C25 C -0.8292(19) 0.7707(17) -0.1808(10)
H32 H -0.90140 0.75650 -0.15920
H33 H -0.77410 0.73620 -0.15760
H34 H -0.81090 0.74650 -0.22140
C26 C -0.6590(16) 0.9074(18) -0.2746(9)
H35 H -0.65580 0.83520 -0.27820
H36 H -0.59340 0.91300 -0.26000
C27 C -0.463(2) 1.030(2) -0.3585(12)
H37 H -0.42500 1.07110 -0.39270
H38 H -0.41690 0.96400 -0.35300
H39 H -0.47830 1.06350 -0.32100
C28 C -0.5697(19) 1.0163(19) -0.3718(11)
C29 C -0.6521(16) 0.9652(17) -0.3397(8)
C30 C -0.7310(16) 0.9786(18) -0.3769(10)
C31 C -0.8340(16) 0.9351(18) -0.3629(10)
H40 H -0.87270 0.95700 -0.39640
H41 H -0.88090 0.95830 -0.32480
H42 H -0.81550 0.86150 -0.35840
N1 N -1.8692(14) 1.0618(19) 0.3823(11)
H43 H -1.84980 0.99600 0.38590
N2 N -1.8752(16) 1.120(2) 0.4297(9)
N3 N -1.7803(12) 1.5101(16) 0.2630(7)
H44 H -1.77070 1.57300 0.25640
N4 N -1.6968(12) 1.4288(15) 0.2575(6)
N5 N -1.2941(11) 1.4804(11) 0.1883(6)
H45 H -1.29790 1.47760 0.22770
N6 N -1.3816(10) 1.4734(11) 0.1614(6)
N7 N -1.0814(10) 1.3018(11) -0.0759(7)
N8 N -1.141(1) 1.3746(12) -0.1091(6)
H46 H -1.15310 1.36860 -0.14490
N9 N -0.8952(14) 1.0478(14) -0.1669(8)
N10 N -0.9081(15) 0.9490(14) -0.1519(7)
H47 H -0.96060 0.92970 -0.12250
N11 N -0.6976(15) 1.0339(14) -0.4294(8)
N12 N -0.5983(16) 1.0546(15) -0.4258(8)
H48 H -0.55790 1.08880 -0.45520
C32 C -0.7594(18) 0.9419(16) -0.2265(9)
C33 C -0.8307(19) 0.8832(16) -0.1874(9)
O1A O -0.6222(16) 1.0521(16) 0.0004(9)
O2A O -0.4544(16) 0.9569(16) -0.0645(9)
O3A O -0.4344(16) 1.0810(16) 0.0023(9)
O4A O -0.5015(15) 1.0788(18) -0.0525(9)
Mo1A Mo -0.42706(12) 1.05489(13) -0.16468(7)
Mo2A Mo -0.57471(11) 0.75908(12) 0.06524(7)
Mo3A Mo -0.31667(12) 0.81675(12) 0.07810(7)
Mo4A Mo -0.77256(12) 0.95461(14) 0.00426(8)
Mo5A Mo -0.53726(14) 0.82891(13) -0.09911(8)
Mo6A Mo -0.26247(12) 0.84997(13) -0.08793(8)
O5A O -0.5031(10) 0.9391(10) -0.1553(9)
O6A O -0.8977(9) 0.9331(11) 0.0028(6)
O7A O -0.3749(10) 0.7924(10) -0.1011(8)
O8A O -0.2401(15) 0.9252(11) 0.0557(6)
O9A O -0.1955(14) 0.9562(11) -0.0654(6)
O10A O -0.5427(10) 0.7456(12) -0.0176(5)
O11A O -0.3854(9) 1.163(1) -0.1386(6)
O12A O -0.7211(10) 0.8425(11) 0.0536(6)
O13A O -0.2642(13) 0.7885(12) -0.0098(6)
O14A O -0.3951(10) 1.0771(12) -0.2408(6)
O15A O -0.2288(10) 0.7299(9) 0.1115(6)
O16A O -0.1500(9) 0.7856(10) -0.1312(6)
O17A O -0.4174(8) 0.8712(9) 0.1442(5)
O18A O -0.3047(10) 0.9651(10) -0.1491(8)
O19A O -0.5510(11) 0.7448(10) -0.1437(5)
O20A O -0.6185(9) 0.6526(9) 0.0993(7)
O21A O -0.6810(11) 0.8877(12) -0.0683(6)
O22A O -0.4294(8) 0.7373(10) 0.0728(5)
O23A O 0.4290(17) 0.4835(19) -0.4417(10)
O24A O 0.4433(18) 0.5886(18) -0.4622(10)
O25A O 0.5936(16) 0.5641(17) -0.4961(9)
O26A O 0.5706(18) 0.4209(17) -0.4523(10)
Mo7A Mo 0.72400(14) 0.63027(16) -0.57826(8)
Mo8A Mo 0.55450(15) 0.70754(15) -0.43370(9)
Mo9A Mo 0.49956(17) 0.62796(18) -0.65230(8)
Mo10A Mo 0.69375(13) 0.39774(14) -0.62979(7)
Mo11A Mo 0.66398(15) 0.25200(16) -0.48191(10)
Mo12A Mo 0.74227(15) 0.4698(2) -0.43751(10)
O27A O 0.6582(13) 0.6042(14) -0.4102(6)
O28A O 0.7787(11) 0.3516(15) -0.6936(6)
O29A O 0.6261(11) 0.6745(10) -0.6292(6)
O30A O 0.6548(13) 0.7123(16) -0.5174(6)
O31A O 0.8306(11) 0.6878(12) -0.6149(9)
O32A O 0.7562(15) 0.3434(15) -0.4639(8)
O33A O 0.5947(11) 0.5079(10) -0.6708(6)
O34A O 0.7611(11) 0.4947(10) -0.6155(6)
O35A O 0.7891(12) 0.5342(13) -0.5127(6)
O36A O 0.5562(11) 0.221(1) -0.5134(7)
O37A O 0.7321(11) 0.3047(11) -0.5676(7)
O38A O 0.4354(12) 0.6753(11) -0.3762(7)
O39A O 0.5812(13) 0.8076(13) -0.4086(6)
O40A O 0.5805(14) 0.2661(16) -0.4040(9)
O41A O 0.5033(14) 0.6878(13) -0.7208(7)
O42A O 0.6300(15) 0.4218(15) -0.3640(9)
O43A O 0.8498(11) 0.4566(12) -0.4056(7)
O44A O 0.7486(11) 0.1382(11) -0.4740(5)
Ag3* Ag -1.78271(16) 1.07658(19) 0.49906(8)
N2* N -0.8752(16) 1.120(2) -0.5703(9)
#END
