
#######################################################################
#
#                 Cambridge Crystallographic Data Centre
#                                CCDC
#
#######################################################################
#
# If this CIF has been generated from an entry in the Cambridge
# Structural Database, then it will include bibliographic, chemical,
# crystal, experimental, refinement or atomic coordinate data resulting
# from the CCDC's data processing and validation procedures.
#
#######################################################################

data_CSD_CIF_XILKOV
_audit_creation_date 2018-09-07
_audit_creation_method CSD-ConQuest-V1
_database_code_CSD XILKOV
_database_code_depnum_ccdc_archive 'CCDC 1847043'
_chemical_formula_sum 'C30 H24 Co1 Cu4 I6 N12'
_chemical_formula_moiety
;
(C30 H24 Co1 N12 2+)n,Cu4 I6 2-
;
_journal_coden_Cambridge 9
_journal_volume 57
_journal_year 2018
_journal_page_first 11318
_journal_name_full 'Inorg.Chem. '
loop_
_publ_author_name
"Song-De Han"
"Di Wang"
"Jie Pan"
"Qi Wei"
"Jin-Hua Li"
"Guo-Ming Wang"
_chemical_name_systematic
;
catena-[bis(\m-1,1',1''-(benzene-1,3,5-triyl)tri(1H-imidazole))-cobalt(ii) 
hexakis(\m-iodo)-tetra-copper(i)]
;
_cell_volume   4553.578
_exptl_crystal_colour 'yellow'
_exptl_crystal_density_diffrn 2.373
_exptl_crystal_description 'block'
_diffrn_ambient_temperature 293
_refine_special_details
;
Cu1,Cu2 disordered by symmetry over two configurations with occupancy 0.5.

;
#These two values have been output from a single CSD field.
_refine_ls_R_factor_gt 0.0906
_refine_ls_wR_factor_gt 0.0906
_symmetry_cell_setting cubic
_symmetry_space_group_name_H-M 'P a -3'
_symmetry_Int_Tables_number 205
loop_
_symmetry_equiv_pos_site_id
_symmetry_equiv_pos_as_xyz
1 x,y,z
2 1/2-x,-y,1/2+z
3 -x,1/2+y,1/2-z
4 1/2+x,1/2-y,-z
5 z,x,y
6 1/2+z,1/2-x,-y
7 1/2-z,-x,1/2+y
8 -z,1/2+x,1/2-y
9 y,z,x
10 -y,1/2+z,1/2-x
11 1/2+y,1/2-z,-x
12 1/2-y,-z,1/2+x
13 -x,-y,-z
14 -1/2+x,y,-1/2-z
15 x,-1/2-y,-1/2+z
16 -1/2-x,-1/2+y,z
17 -z,-x,-y
18 -1/2-z,-1/2+x,y
19 -1/2+z,x,-1/2-y
20 z,-1/2-x,-1/2+y
21 -y,-z,-x
22 y,-1/2-z,-1/2+x
23 -1/2-y,-1/2+z,x
24 -1/2+y,z,-1/2-x
_cell_length_a 16.5749(5)
_cell_length_b 16.5749(5)
_cell_length_c 16.5749(5)
_cell_angle_alpha 90
_cell_angle_beta 90
_cell_angle_gamma 90
_cell_formula_units_Z 4
loop_
_atom_type_symbol
_atom_type_radius_bond
C 0.68
H 0.23
Co 1.26
Cu 1.32
I 1.40
N 0.68
loop_
_atom_site_label
_atom_site_type_symbol
_atom_site_fract_x
_atom_site_fract_y
_atom_site_fract_z
C1 C 0.7215(8) 0.0506(9) 0.1290(9)
H1 H 0.77610 0.04380 0.13991
C2 C 0.6777(7) 0.0125(9) 0.0715(9)
H2 H 0.69778 -0.02724 0.03741
C3 C 0.5987(7) 0.0945(9) 0.1271(9)
H3 H 0.55336 0.12554 0.13834
C4 C 0.6864(6) 0.1523(7) 0.2334(6)
C5 C 0.6356(6) 0.2186(6) 0.2492(6)
H4 H 0.59147 0.22928 0.21617
Co1 Co 0.50000 0.00000 0.00000
N1 N 0.6016(5) 0.0397(5) 0.0702(5)
N2 N 0.6694(5) 0.1009(5) 0.1676(5)
Cu1 Cu 0.3982(3) 0.4941(3) -0.0245(3)
Cu2 Cu 0.4427(3) 0.5573(3) 0.0573(3)
I1 I 0.35710(9) 0.44532(9) 0.1136(1)
C1G C 0.8710(8) 0.2215(9) 0.4494(9)
H1G H 0.86009 0.27610 0.45620
C2G C 0.9285(7) 0.1777(9) 0.4875(9)
H2G H 0.96259 0.19778 0.52724
C3G C 0.8729(7) 0.0987(9) 0.4055(9)
H3G H 0.86166 0.05336 0.37446
C4G C 0.7666(6) 0.1864(7) 0.3477(6)
C5G C 0.7508(6) 0.1356(6) 0.2814(6)
H4G H 0.78383 0.09147 0.27072
N1G N 0.9298(5) 0.1016(5) 0.4603(5)
N2G N 0.8324(5) 0.1694(5) 0.3991(5)
C1J C 0.5506(8) 0.3710(9) 0.2785(9)
H1J H 0.54380 0.36009 0.22390
C2J C 0.5125(7) 0.4285(9) 0.3223(9)
H2J H 0.47276 0.46259 0.30222
C3J C 0.5945(7) 0.3729(9) 0.4013(9)
H3J H 0.62554 0.36166 0.44664
C4J C 0.6523(6) 0.2666(7) 0.3136(6)
C5J C 0.7186(6) 0.2508(6) 0.3644(6)
H4J H 0.72928 0.28383 0.40853
N1J N 0.5397(5) 0.4298(5) 0.3984(5)
N2J N 0.6009(5) 0.3324(5) 0.3306(5)
C1L C 0.2785(8) -0.0506(9) -0.1290(9)
H1L H 0.22390 -0.04380 -0.13991
C2L C 0.3223(7) -0.0125(9) -0.0715(9)
H2L H 0.30222 0.02724 -0.03741
C3L C 0.4013(7) -0.0945(9) -0.1271(9)
H3L H 0.44664 -0.12554 -0.13834
C4L C 0.3136(6) -0.1523(7) -0.2334(6)
C5L C 0.3644(6) -0.2186(6) -0.2492(6)
H4L H 0.40853 -0.22928 -0.21617
N1L N 0.3984(5) -0.0397(5) -0.0702(5)
N2L N 0.3306(5) -0.1009(5) -0.1676(5)
C1S C 0.1290(8) -0.2215(9) -0.4494(9)
H1S H 0.13991 -0.27610 -0.45620
C2S C 0.0715(7) -0.1777(9) -0.4875(9)
H2S H 0.03741 -0.19778 -0.52724
C3S C 0.1271(7) -0.0987(9) -0.4055(9)
H3S H 0.13834 -0.05336 -0.37446
C4S C 0.2334(6) -0.1864(7) -0.3477(6)
C5S C 0.2492(6) -0.1356(6) -0.2814(6)
H4S H 0.21617 -0.09147 -0.27072
N1S N 0.0702(5) -0.1016(5) -0.4603(5)
N2S N 0.1676(5) -0.1694(5) -0.3991(5)
C1V C 0.4494(8) -0.3710(9) -0.2785(9)
H1V H 0.45620 -0.36009 -0.22390
C2V C 0.4875(7) -0.4285(9) -0.3223(9)
H2V H 0.52724 -0.46259 -0.30222
C3V C 0.4055(7) -0.3729(9) -0.4013(9)
H3V H 0.37446 -0.36166 -0.44664
C4V C 0.3477(6) -0.2666(7) -0.3136(6)
C5V C 0.2814(6) -0.2508(6) -0.3644(6)
H4V H 0.27072 -0.28383 -0.40853
N1V N 0.4603(5) -0.4298(5) -0.3984(5)
N2V N 0.3991(5) -0.3324(5) -0.3306(5)
Co1A Co 0.00000 0.00000 -0.50000
Co1A* Co 1.00000 0.00000 0.50000
Co1B Co 0.50000 -0.50000 -0.50000
Co1B* Co 0.50000 0.50000 0.50000
N1E N 0.5702(5) -0.1016(5) -0.0397(5)
N1K N 0.4603(5) -0.0702(5) 0.1016(5)
N1Q N 0.4298(5) 0.1016(5) 0.0397(5)
N1W N 0.5397(5) 0.0702(5) -0.1016(5)
Cu1F Cu 0.5245(3) 0.6018(3) -0.0059(3)
I1F I 0.38640(9) 0.64290(9) -0.05468(10)
Cu1I Cu 0.5059(3) 0.4755(3) 0.1018(3)
I1I I 0.55468(9) 0.61360(9) 0.1429(1)
Cu1L Cu 0.6018(3) 0.5059(3) 0.0245(3)
Cu2L Cu 0.5573(3) 0.4427(3) -0.0573(3)
I1L I 0.64290(9) 0.55468(9) -0.1136(1)
Cu1R Cu 0.4755(3) 0.3982(3) 0.0059(3)
I1R I 0.61360(9) 0.35710(9) 0.05468(10)
Cu1U Cu 0.4941(3) 0.5245(3) -0.1018(3)
I1U I 0.44532(9) 0.38640(9) -0.1429(1)
#END
