
#######################################################################
#
#                 Cambridge Crystallographic Data Centre
#                                CCDC
#
#######################################################################
#
# If this CIF has been generated from an entry in the Cambridge
# Structural Database, then it will include bibliographic, chemical,
# crystal, experimental, refinement or atomic coordinate data resulting
# from the CCDC's data processing and validation procedures.
#
#######################################################################

data_CSD_CIF_XILRAO
_audit_creation_date 2018-09-07
_audit_creation_method CSD-ConQuest-V1
_database_code_CSD XILRAO
_database_code_depnum_ccdc_archive 'CCDC 1506175'
_chemical_formula_sum 'C128 H128 N34 O50 Zn9'
_chemical_formula_moiety
;
10(C2 H8 N1 1+),n(C108 H48 N24 O50 Zn9 10-)
;
_journal_coden_Cambridge 222
_journal_volume 47
_journal_year 2018
_journal_page_first 3452
_journal_name_full 'Dalton Trans. '
loop_
_publ_author_name
"Chun-Hui Chen"
"Xu-Sheng Wang"
"Lan Li"
"Yuan-Biao Huang"
"Rong Cao"
_chemical_name_systematic
;
catena-[decakis(dimethylammonium) 
tetrakis(\m-2,4,6-tris(3,5-dicarboxylatophenylamino)-1,3,5-triazine)-bis(\m-ox
ido)-nona-zinc unknown solvate]
;
_cell_volume  91488.768
_exptl_crystal_colour 'colorless'
_exptl_crystal_description 'block'
_diffrn_ambient_temperature 100
_refine_special_details
;
Disordered cation and solvent molecules were not modelled and the disordered 
density was taken into account using the SQUEEZE/PLATON procedure.
;
#These two values have been output from a single CSD field.
_refine_ls_R_factor_gt 0.0845
_refine_ls_wR_factor_gt 0.0845
_symmetry_cell_setting cubic
_symmetry_space_group_name_H-M 'F 41 3 2'
_symmetry_Int_Tables_number 210
loop_
_symmetry_equiv_pos_site_id
_symmetry_equiv_pos_as_xyz
1 x,y,z
2 1/4-y,1/4+x,1/4+z
3 -x,-y,z
4 1/4+y,1/4-x,1/4+z
5 1/4+x,1/4-z,1/4+y
6 x,-y,-z
7 1/4+x,1/4+z,1/4-y
8 1/4+z,1/4+y,1/4-x
9 -x,y,-z
10 1/4-z,1/4+y,1/4+x
11 z,x,y
12 y,z,x
13 -y,-z,x
14 z,-x,-y
15 -y,z,-x
16 -z,-x,y
17 -z,x,-y
18 y,-z,-x
19 1/4+y,1/4+x,1/4-z
20 1/4-y,1/4-x,1/4-z
21 1/4-x,1/4+z,1/4+y
22 1/4-x,1/4-z,1/4-y
23 1/4+z,1/4-y,1/4+x
24 1/4-z,1/4-y,1/4-x
25 x,1/2+y,1/2+z
26 1/4-y,3/4+x,3/4+z
27 -x,1/2-y,1/2+z
28 1/4+y,3/4-x,3/4+z
29 1/4+x,3/4-z,3/4+y
30 x,1/2-y,1/2-z
31 1/4+x,3/4+z,3/4-y
32 1/4+z,3/4+y,3/4-x
33 -x,1/2+y,1/2-z
34 1/4-z,3/4+y,3/4+x
35 z,1/2+x,1/2+y
36 y,1/2+z,1/2+x
37 -y,1/2-z,1/2+x
38 z,1/2-x,1/2-y
39 -y,1/2+z,1/2-x
40 -z,1/2-x,1/2+y
41 -z,1/2+x,1/2-y
42 y,1/2-z,1/2-x
43 1/4+y,3/4+x,3/4-z
44 1/4-y,3/4-x,3/4-z
45 1/4-x,3/4+z,3/4+y
46 1/4-x,3/4-z,3/4-y
47 1/4+z,3/4-y,3/4+x
48 1/4-z,3/4-y,3/4-x
49 1/2+x,y,1/2+z
50 3/4-y,1/4+x,3/4+z
51 1/2-x,-y,1/2+z
52 3/4+y,1/4-x,3/4+z
53 3/4+x,1/4-z,3/4+y
54 1/2+x,-y,1/2-z
55 3/4+x,1/4+z,3/4-y
56 3/4+z,1/4+y,3/4-x
57 1/2-x,y,1/2-z
58 3/4-z,1/4+y,3/4+x
59 1/2+z,x,1/2+y
60 1/2+y,z,1/2+x
61 1/2-y,-z,1/2+x
62 1/2+z,-x,1/2-y
63 1/2-y,z,1/2-x
64 1/2-z,-x,1/2+y
65 1/2-z,x,1/2-y
66 1/2+y,-z,1/2-x
67 3/4+y,1/4+x,3/4-z
68 3/4-y,1/4-x,3/4-z
69 3/4-x,1/4+z,3/4+y
70 3/4-x,1/4-z,3/4-y
71 3/4+z,1/4-y,3/4+x
72 3/4-z,1/4-y,3/4-x
73 1/2+x,1/2+y,z
74 3/4-y,3/4+x,1/4+z
75 1/2-x,1/2-y,z
76 3/4+y,3/4-x,1/4+z
77 3/4+x,3/4-z,1/4+y
78 1/2+x,1/2-y,-z
79 3/4+x,3/4+z,1/4-y
80 3/4+z,3/4+y,1/4-x
81 1/2-x,1/2+y,-z
82 3/4-z,3/4+y,1/4+x
83 1/2+z,1/2+x,y
84 1/2+y,1/2+z,x
85 1/2-y,1/2-z,x
86 1/2+z,1/2-x,-y
87 1/2-y,1/2+z,-x
88 1/2-z,1/2-x,y
89 1/2-z,1/2+x,-y
90 1/2+y,1/2-z,-x
91 3/4+y,3/4+x,1/4-z
92 3/4-y,3/4-x,1/4-z
93 3/4-x,3/4+z,1/4+y
94 3/4-x,3/4-z,1/4-y
95 3/4+z,3/4-y,1/4+x
96 3/4-z,3/4-y,1/4-x
_cell_length_a 45.0598(4)
_cell_length_b 45.0598(4)
_cell_length_c 45.0598(4)
_cell_angle_alpha 90
_cell_angle_beta 90
_cell_angle_gamma 90
_cell_formula_units_Z 16
loop_
_atom_type_symbol
_atom_type_radius_bond
C 0.68
H 0.23
N 0.68
O 0.68
Zn 1.22
loop_
_atom_site_label
_atom_site_type_symbol
_atom_site_fract_x
_atom_site_fract_y
_atom_site_fract_z
Zn1 Zn 0.64652(4) 0.58898(4) 0.37616(4)
Zn2 Zn 0.75000 0.75000 0.48195(4)
O1 O 0.67935(19) 0.61846(19) 0.37647(19)
O2 O 0.66638(18) 0.64542(19) 0.41534(19)
O3 O 0.7853(2) 0.7139(2) 0.44348(16)
O4 O 0.7375(2) 0.71666(19) 0.45707(17)
O5 O 0.61175(17) 0.61175(17) 0.38825(17)
O6 O 0.6266(2) 0.53715(17) 0.3843(2)
O7 O 0.66731(16) 0.55747(16) 0.40159(17)
O8 O 0.74002(17) 0.5070(2) 0.4630(2)
O9 O 0.72652(19) 0.4640(2) 0.4846(2)
N1 N 0.6289(2) 0.4418(2) 0.4465(2)
N2 N 0.59424(17) 0.44520(18) 0.40950(19)
N3 N 0.78351(18) 0.6419(2) 0.3539(2)
N4 N 0.8187(2) 0.6807(2) 0.35654(17)
C1 C 0.6499(2) 0.5355(2) 0.3991(2)
C2 C 0.65975(19) 0.5097(2) 0.41808(18)
C3 C 0.6855(2) 0.5096(2) 0.43198(19)
H1 H 0.69920 0.52530 0.42890
C4 C 0.6924(2) 0.4872(2) 0.45051(19)
C5 C 0.6733(2) 0.4649(3) 0.4551(2)
H2 H 0.67820 0.44930 0.46830
C6 C 0.6462(2) 0.4648(2) 0.4406(2)
C7 C 0.6397(2) 0.4879(2) 0.4216(2)
H3 H 0.62140 0.48840 0.41120
C8 C 0.6034(2) 0.4314(3) 0.4325(3)
C9 C 0.7236(4) 0.4863(3) 0.4672(3)
C10 C 0.6842(3) 0.6352(3) 0.3987(3)
C11 C 0.7154(2) 0.6492(2) 0.3971(2)
C12 C 0.7366(2) 0.6399(2) 0.3766(2)
H4 H 0.73150 0.62530 0.36230
C13 C 0.7652(2) 0.6519(2) 0.3771(2)
C14 C 0.7729(3) 0.6738(2) 0.3987(2)
H5 H 0.79180 0.68310 0.39840
C15 C 0.7515(3) 0.6812(3) 0.4205(2)
C16 C 0.7229(3) 0.6681(3) 0.4200(2)
H6 H 0.70890 0.67230 0.43520
C17 C 0.8088(3) 0.6561(3) 0.3432(3)
C18 C 0.7590(3) 0.7057(2) 0.4428(2)
O1HB O 0.88154(19) 0.62353(19) 0.17935(19)
O2HB O 0.85458(18) 0.58466(19) 0.16638(19)
O3HB O 0.7861(2) 0.55652(20) 0.28530(16)
O4HB O 0.78334(20) 0.54293(19) 0.23750(17)
N3HB N 0.85810(18) 0.6461(2) 0.28351(20)
N4HB N 0.8193(2) 0.64346(20) 0.31870(17)
C10HB C 0.8648(3) 0.6013(3) 0.1842(3)
C11HB C 0.8508(2) 0.6029(2) 0.2154(2)
C12HB C 0.8601(2) 0.6234(2) 0.2366(2)
H4HB H 0.87470 0.63770 0.23150
C13HB C 0.8481(2) 0.6229(2) 0.2652(2)
C14HB C 0.8262(3) 0.6013(2) 0.2729(2)
H5HB H 0.81690 0.60160 0.29180
C15HB C 0.8188(3) 0.5795(3) 0.2515(2)
C16HB C 0.8319(3) 0.5800(3) 0.2229(2)
H6HB H 0.82770 0.56480 0.20890
C17HB C 0.8439(3) 0.6568(3) 0.3088(3)
C18HB C 0.7943(3) 0.5572(2) 0.2590(2)
O1GC O 0.87647(19) 0.82065(19) 0.38154(19)
O2GC O 0.91534(18) 0.83362(19) 0.35458(19)
O3GC O 0.94348(20) 0.7147(2) 0.28610(16)
O4GC O 0.95707(20) 0.76250(19) 0.28334(17)
N3GC N 0.85390(18) 0.71649(20) 0.3581(2)
N4GC N 0.85654(20) 0.6813(2) 0.31930(17)
C10GC C 0.8987(3) 0.8158(3) 0.3648(3)
C11GC C 0.8971(2) 0.7846(2) 0.3508(2)
C12GC C 0.8766(2) 0.7634(2) 0.3601(2)
H4GC H 0.86230 0.76850 0.37470
C13GC C 0.8771(2) 0.7348(2) 0.3481(2)
C14GC C 0.8987(3) 0.7271(2) 0.3262(2)
H5GC H 0.89840 0.70820 0.31690
C15GC C 0.9205(3) 0.7485(3) 0.3188(2)
C16GC C 0.9200(3) 0.7771(3) 0.3319(2)
H6GC H 0.93520 0.79110 0.32770
C17GC C 0.8432(3) 0.6912(3) 0.3439(3)
C18GC C 0.9428(3) 0.7410(2) 0.2943(2)
O6N O 0.46285(20) 0.38430(17) 0.3734(2)
O7N O 0.44253(16) 0.40159(16) 0.33269(17)
O8N O 0.49300(17) 0.4630(2) 0.25998(20)
O9N O 0.53600(19) 0.4846(2) 0.27348(20)
N1N N 0.5582(2) 0.4465(2) 0.3711(2)
N2N N 0.55480(17) 0.40950(18) 0.40576(19)
C1N C 0.4645(2) 0.3991(2) 0.3501(2)
C2N C 0.49030(19) 0.41808(20) 0.34025(18)
C3N C 0.4904(2) 0.43198(20) 0.31450(19)
H1N H 0.47470 0.42890 0.30080
C4N C 0.5128(2) 0.45051(20) 0.30760(19)
C5N C 0.5351(2) 0.4551(3) 0.3267(2)
H2N H 0.55070 0.46830 0.32180
C6N C 0.5352(2) 0.4406(2) 0.3538(2)
C7N C 0.5121(2) 0.4216(2) 0.3603(2)
H3N H 0.51160 0.41120 0.37860
C8N C 0.5686(2) 0.4325(3) 0.3966(3)
C9N C 0.5137(4) 0.4672(3) 0.2764(3)
O6O O 0.6157(2) 0.37340(17) 0.53715(20)
O7O O 0.59841(16) 0.33269(16) 0.55747(17)
O8O O 0.53700(17) 0.25998(20) 0.5070(2)
O9O O 0.51540(19) 0.27348(20) 0.4640(2)
N1O N 0.5535(2) 0.3711(2) 0.4418(2)
N2O N 0.59050(17) 0.40576(18) 0.44520(19)
C1O C 0.6009(2) 0.3501(2) 0.5355(2)
C2O C 0.58192(19) 0.34025(20) 0.50970(18)
C3O C 0.56802(20) 0.3145(2) 0.50960(19)
H1O H 0.57110 0.30080 0.52530
C4O C 0.54949(20) 0.3076(2) 0.48720(19)
C5O C 0.5449(2) 0.3267(3) 0.4649(2)
H2O H 0.53170 0.32180 0.44930
C6O C 0.5594(2) 0.3538(2) 0.4648(2)
C7O C 0.5784(2) 0.3603(2) 0.4879(2)
H3O H 0.58880 0.37860 0.48840
C8O C 0.5675(2) 0.3966(3) 0.4314(3)
C9O C 0.5328(4) 0.2764(3) 0.4863(3)
Zn1N Zn 0.41102(4) 0.37616(4) 0.35348(4)
O5B O 0.38825(17) 0.38825(17) 0.38825(17)
Zn1O Zn 0.62384(4) 0.35348(4) 0.58898(4)
Zn1P Zn 0.62384(4) 0.64652(4) 0.41102(4)
Zn2P Zn 0.51805 0.75000 0.25000(4)
O1P O 0.62353(19) 0.67935(19) 0.38154(19)
O2P O 0.58466(18) 0.66638(19) 0.35458(19)
O3P O 0.55652(20) 0.7853(2) 0.28610(16)
O4P O 0.54293(20) 0.73750(19) 0.28334(17)
O6P O 0.6157(2) 0.62660(17) 0.46285(20)
O7P O 0.59841(16) 0.66731(16) 0.44253(17)
O8P O 0.53700(17) 0.74002(20) 0.4930(2)
O9P O 0.51540(19) 0.72652(20) 0.5360(2)
N1P N 0.5535(2) 0.6289(2) 0.5582(2)
N2P N 0.59050(17) 0.59424(18) 0.55480(19)
N3P N 0.64610(18) 0.78351(20) 0.3581(2)
N4P N 0.64346(20) 0.8187(2) 0.31930(17)
C1P C 0.6009(2) 0.6499(2) 0.4645(2)
C2P C 0.58192(19) 0.65975(20) 0.49030(18)
C3P C 0.56802(20) 0.6855(2) 0.49040(19)
H1P H 0.57110 0.69920 0.47470
C4P C 0.54949(20) 0.6924(2) 0.51280(19)
C5P C 0.5449(2) 0.6733(3) 0.5351(2)
H2P H 0.53170 0.67820 0.55070
C6P C 0.5594(2) 0.6462(2) 0.5352(2)
C7P C 0.5784(2) 0.6397(2) 0.5121(2)
H3P H 0.58880 0.62140 0.51160
C8P C 0.5675(2) 0.6034(3) 0.5686(3)
C9P C 0.5328(4) 0.7236(3) 0.5137(3)
C10P C 0.6013(3) 0.6842(3) 0.3648(3)
C11P C 0.6029(2) 0.7154(2) 0.3508(2)
C12P C 0.6234(2) 0.7366(2) 0.3601(2)
H4P H 0.63770 0.73150 0.37470
C13P C 0.6229(2) 0.7652(2) 0.3481(2)
C14P C 0.6013(3) 0.7729(2) 0.3262(2)
H5P H 0.60160 0.79180 0.31690
C15P C 0.5795(3) 0.7515(3) 0.3188(2)
C16P C 0.5800(3) 0.7229(3) 0.3319(2)
H6P H 0.56480 0.70890 0.32770
C17P C 0.6568(3) 0.8088(3) 0.3439(3)
C18P C 0.5572(3) 0.7590(2) 0.2943(2)
O1VB O 0.82065(19) 0.88154(19) 0.37647(19)
O2VB O 0.83362(18) 0.85458(19) 0.41534(19)
O3VB O 0.7147(2) 0.7861(2) 0.44348(16)
O4VB O 0.7625(2) 0.78334(19) 0.45707(17)
N3VB N 0.71649(18) 0.8581(2) 0.3539(2)
N4VB N 0.6813(2) 0.8193(2) 0.35654(17)
C10VB C 0.8158(3) 0.8648(3) 0.3987(3)
C11VB C 0.7846(2) 0.8508(2) 0.3971(2)
C12VB C 0.7634(2) 0.8601(2) 0.3766(2)
H4VB H 0.76850 0.87470 0.36230
C13VB C 0.7348(2) 0.8481(2) 0.3771(2)
C14VB C 0.7271(3) 0.8262(2) 0.3987(2)
H5VB H 0.70820 0.81690 0.39840
C15VB C 0.7485(3) 0.8188(3) 0.4205(2)
C16VB C 0.7771(3) 0.8319(3) 0.4200(2)
H6VB H 0.79110 0.82770 0.43520
C17VB C 0.6912(3) 0.8439(3) 0.3432(3)
C18VB C 0.7410(3) 0.7943(2) 0.4428(2)
O1IA O 0.61846(19) 0.87647(19) 0.17935(19)
O2IA O 0.64542(18) 0.91534(19) 0.16638(19)
O3IA O 0.7139(2) 0.94348(20) 0.28530(16)
O4IA O 0.71666(20) 0.95707(19) 0.23750(17)
N3IA N 0.64190(18) 0.8539(2) 0.28351(20)
N4IA N 0.6807(2) 0.85654(20) 0.31870(17)
C10IA C 0.6352(3) 0.8987(3) 0.1842(3)
C11IA C 0.6492(2) 0.8971(2) 0.2154(2)
C12IA C 0.6399(2) 0.8766(2) 0.2366(2)
H4IA H 0.62530 0.86230 0.23150
C13IA C 0.6519(2) 0.8771(2) 0.2652(2)
C14IA C 0.6738(3) 0.8987(2) 0.2729(2)
H5IA H 0.68310 0.89840 0.29180
C15IA C 0.6812(3) 0.9205(3) 0.2515(2)
C16IA C 0.6681(3) 0.9200(3) 0.2229(2)
H6IA H 0.67230 0.93520 0.20890
C17IA C 0.6561(3) 0.8432(3) 0.3088(3)
C18IA C 0.7057(3) 0.9428(2) 0.2590(2)
O6E O 0.6266(2) 0.46285(17) 0.6157(2)
O7E O 0.66731(16) 0.44253(16) 0.59841(17)
O8E O 0.74002(17) 0.4930(2) 0.5370(2)
O9E O 0.72652(19) 0.5360(2) 0.5154(2)
N1E N 0.6289(2) 0.5582(2) 0.5535(2)
N2E N 0.59424(17) 0.55480(18) 0.59050(19)
C1E C 0.6499(2) 0.4645(2) 0.6009(2)
C2E C 0.65975(19) 0.4903(2) 0.58192(18)
C3E C 0.6855(2) 0.4904(2) 0.56802(19)
H1E H 0.69920 0.47470 0.57110
C4E C 0.6924(2) 0.5128(2) 0.54949(19)
C5E C 0.6733(2) 0.5351(3) 0.5449(2)
H2E H 0.67820 0.55070 0.53170
C6E C 0.6462(2) 0.5352(2) 0.5594(2)
C7E C 0.6397(2) 0.5121(2) 0.5784(2)
H3E H 0.62140 0.51160 0.58880
C8E C 0.6034(2) 0.5686(3) 0.5675(3)
C9E C 0.7236(4) 0.5137(3) 0.5328(3)
O6L O 0.46285(20) 0.61570(17) 0.6266(2)
O7L O 0.44253(16) 0.59841(16) 0.66731(17)
O8L O 0.49300(17) 0.5370(2) 0.74002(20)
O9L O 0.53600(19) 0.5154(2) 0.72652(20)
N1L N 0.5582(2) 0.5535(2) 0.6289(2)
N2L N 0.55480(17) 0.59050(18) 0.59424(19)
C1L C 0.4645(2) 0.6009(2) 0.6499(2)
C2L C 0.49030(19) 0.58192(20) 0.65975(18)
C3L C 0.4904(2) 0.56802(20) 0.68550(19)
H1L H 0.47470 0.57110 0.69920
C4L C 0.5128(2) 0.54949(20) 0.69240(19)
C5L C 0.5351(2) 0.5449(3) 0.6733(2)
H2L H 0.55070 0.53170 0.67820
C6L C 0.5352(2) 0.5594(2) 0.6462(2)
C7L C 0.5121(2) 0.5784(2) 0.6397(2)
H3L H 0.51160 0.58880 0.62140
C8L C 0.5686(2) 0.5675(3) 0.6034(3)
C9L C 0.5137(4) 0.5328(3) 0.7236(3)
Zn1Q Zn 0.58898(4) 0.62384(4) 0.35348(4)
Zn2Q Zn 0.75000 0.51805 0.25000(4)
Zn1DB Zn 0.85348(4) 0.58898(4) 0.12384(4)
Zn1B Zn 0.35348(4) 0.41102(4) 0.37616(4)
Zn1E Zn 0.64652(4) 0.41102(4) 0.62384(4)
Zn1L Zn 0.41102(4) 0.62384(4) 0.64652(4)
Zn1M Zn 0.37616(4) 0.35348(4) 0.41102(4)
Zn1CA Zn 0.64652(4) 0.91102(4) 0.12384(4)
Zn1IA Zn 0.58898(4) 0.87616(4) 0.14652(4)
Zn1HB Zn 0.91102(4) 0.62384(4) 0.14652(4)
Zn1VB Zn 0.85348(4) 0.91102(4) 0.37616(4)
Zn1GC Zn 0.87616(4) 0.85348(4) 0.41102(4)
Zn1HC Zn 0.91102(4) 0.87616(4) 0.35348(4)
Zn2S Zn 0.50000 0.50000 0.76805(4)
Zn2U Zn 0.50000 0.76805 0.50000(4)
Zn2W Zn 0.76805 0.50000 0.50000(4)
Zn2Y Zn 0.50000 0.50000 0.23195(4)
Zn2IA Zn 0.75000 0.98195 0.25000(4)
Zn2RA Zn 0.50000 0.23195 0.50000(4)
Zn2FB Zn 0.98195 0.75000 0.25000(4)
O1N O 0.38154(19) 0.37647(19) 0.32065(19)
O1O O 0.62353(19) 0.32065(19) 0.61846(19)
O1Q O 0.61846(19) 0.62353(19) 0.32065(19)
O1DB O 0.82065(19) 0.61846(19) 0.12353(19)
O2E O 0.66638(18) 0.35458(19) 0.58466(19)
O2M O 0.41534(18) 0.33362(19) 0.35458(19)
O2Q O 0.64542(18) 0.58466(19) 0.33362(19)
O4Q O 0.71666(20) 0.54293(19) 0.26250(17)
O4MA O 0.54293(20) 0.76250(19) 0.21666(17)
O5E O 0.61175(17) 0.38825(17) 0.61175(17)
O5DB O 0.88825(17) 0.61175(17) 0.11175(17)
O6Q O 0.53715(20) 0.61570(17) 0.3734(2)
O6DB O 0.8734(2) 0.53715(17) 0.1157(2)
O7Q O 0.55747(16) 0.59841(16) 0.33269(17)
O7DB O 0.83269(16) 0.55747(16) 0.09841(17)
O8G O 0.71300(17) 0.7570(2) 0.50998(20)
O8W O 0.78700(17) 0.7430(2) 0.50998(20)
O8Y O 0.74300(17) 0.49002(20) 0.2130(2)
O8PA O 0.75700(17) 0.49002(20) 0.2870(2)
O8ZA O 0.49002(17) 0.7870(2) 0.2570(2)
O8BB O 0.49002(17) 0.7130(2) 0.2430(2)
O9G O 0.73460(19) 0.7140(2) 0.52348(20)
O9W O 0.76540(19) 0.7860(2) 0.52348(20)
O9Y O 0.78600(19) 0.47652(20) 0.2346(2)
O9PA O 0.71400(19) 0.47652(20) 0.2654(2)
O9ZA O 0.47652(19) 0.7654(2) 0.2140(2)
O9BB O 0.47652(19) 0.7346(2) 0.2860(2)
#END
