
#######################################################################
#
#                 Cambridge Crystallographic Data Centre
#                                CCDC
#
#######################################################################
#
# If this CIF has been generated from an entry in the Cambridge
# Structural Database, then it will include bibliographic, chemical,
# crystal, experimental, refinement or atomic coordinate data resulting
# from the CCDC's data processing and validation procedures.
#
#######################################################################

data_CSD_CIF_XINJOU
_audit_creation_date 2008-02-21
_audit_creation_method CSD-ConQuest-V1
_database_code_CSD XINJOU
_database_code_depnum_ccdc_archive 'CCDC 645286'
_chemical_formula_sum 'C54 H118 Ge18 Hg2 K4 N10 O18'
_chemical_formula_moiety
;
(C12 H26 K1 N2 O4 1+)3n,n(C18 H40 K1 N4 O6 1+),n(Ge18 Hg2 4-)
;
_journal_coden_Cambridge 29
_journal_volume 633
_journal_year 2007
_journal_page_first 2338
_journal_name_full 'Z.Anorg.Allg.Chem. '
loop_
_publ_author_name
"M.B.Boeddinghaus"
"S.D.Hoffmann"
"T.F.Fassler"
_chemical_name_systematic
;
catena-(tris((4,13-Diaza-18-crown-6)-potassium) 
bis(dimethylformamide-O)-(4,13-diaza-18-crown-6)-potassium 
bis(\m~2~-nonagermate)-di-mercury)
;
_cell_volume   4744.492
_exptl_crystal_colour 'copper'
_exptl_crystal_density_diffrn 2.142
_exptl_crystal_description 'cube'
_diffrn_ambient_temperature 150
#These two values have been output from a single CSD field.
_refine_ls_R_factor_gt 0.0323
_refine_ls_wR_factor_gt 0.0323
_symmetry_cell_setting monoclinic
_symmetry_space_group_name_H-M 'P 21/n'
_symmetry_Int_Tables_number 14
loop_
_symmetry_equiv_pos_site_id
_symmetry_equiv_pos_as_xyz
1 x,y,z
2 1/2-x,1/2+y,1/2-z
3 -x,-y,-z
4 -1/2+x,-1/2-y,-1/2+z
_cell_length_a 12.0603(13)
_cell_length_b 16.2496(18)
_cell_length_c 24.612(3)
_cell_angle_alpha 90
_cell_angle_beta 100.374(9)
_cell_angle_gamma 90
_cell_formula_units_Z 2
loop_
_atom_type_symbol
_atom_type_radius_bond
C 0.68
H 0.23
Ge 1.21
Hg 1.70
K 1.84
N 0.78
O 0.83
loop_
_atom_site_label
_atom_site_type_symbol
_atom_site_fract_x
_atom_site_fract_y
_atom_site_fract_z
Hg1 Hg 0.74292(2) 0.518367(14) 0.753183(10)
Ge1 Ge 0.70809(5) 0.36345(4) 0.74601(3)
Ge2 Ge 0.81369(6) 0.27625(4) 0.68450(3)
Ge3 Ge 0.77714(5) 0.67327(4) 0.75755(3)
Ge4 Ge 0.63353(5) 0.26048(4) 0.81035(3)
Ge5 Ge 0.93081(5) 0.36166(4) 0.76403(3)
Ge6 Ge 0.55701(5) 0.69079(4) 0.73947(3)
Ge7 Ge 0.67928(5) 0.68075(4) 0.65301(3)
Ge8 Ge 0.80786(6) 0.35063(4) 0.85071(3)
Ge9 Ge 0.99485(6) 0.27345(5) 0.85080(3)
K1 K 0.47028(11) 0.26851(8) 0.65572(5)
O1 O 0.4421(4) 0.3346(3) 0.54748(18)
O2 O 0.4852(3) 0.1655(3) 0.56214(17)
O3 O 0.2856(4) 0.1941(3) 0.69941(17)
O4 O 0.3204(4) 0.3656(3) 0.70468(19)
N1 N 0.4662(5) 0.4456(4) 0.6388(3)
H1 H 0.54080 0.46320 0.64550
N2 N 0.4567(4) 0.0918(3) 0.6654(2)
H2 H 0.50570 0.07850 0.69790
C1 C 0.4195(6) 0.4691(4) 0.5829(3)
H3 H 0.43600 0.52790 0.57750
H4 H 0.33660 0.46220 0.57650
C2 C 0.4675(6) 0.4182(5) 0.5422(3)
H5 H 0.43610 0.43700 0.50430
H6 H 0.55030 0.42550 0.54830
C3 C 0.4816(6) 0.2847(5) 0.5072(3)
H7 H 0.56500 0.28510 0.51390
H8 H 0.45410 0.30740 0.46980
C4 C 0.4414(6) 0.2010(5) 0.5101(3)
H9 H 0.35800 0.20090 0.50430
H10 H 0.46490 0.16770 0.48050
C5 C 0.4515(6) 0.0829(4) 0.5658(3)
H11 H 0.47820 0.04950 0.53700
H12 H 0.36820 0.07940 0.55980
C6 C 0.5010(6) 0.0503(4) 0.6221(3)
H13 H 0.48460 -0.00930 0.62350
H14 H 0.58390 0.05720 0.62850
C7 C 0.3458(6) 0.0639(4) 0.6736(3)
H15 H 0.35030 0.00520 0.68450
H16 H 0.29180 0.06860 0.63830
C8 C 0.3041(6) 0.1125(5) 0.7164(3)
H17 H 0.23290 0.08830 0.72360
H18 H 0.36010 0.11070 0.75110
C9 C 0.2541(6) 0.2443(5) 0.7415(3)
H19 H 0.31760 0.24820 0.77310
H20 H 0.18910 0.21930 0.75480
C10 C 0.2233(6) 0.3282(5) 0.7190(3)
H21 H 0.16310 0.32420 0.68590
H22 H 0.19490 0.36200 0.74700
C11 C 0.3000(7) 0.4480(4) 0.6859(3)
H23 H 0.26560 0.47980 0.71300
H24 H 0.24740 0.44850 0.65010
C12 C 0.4104(7) 0.4859(5) 0.6796(3)
H25 H 0.39740 0.54440 0.66900
H26 H 0.46170 0.48460 0.71580
K2 K 0.00000 0.00000 0.50000
O5 O -0.1301(3) 0.0608(3) 0.40118(15)
O6 O -0.1869(3) 0.1017(3) 0.50367(16)
N3 N 0.0923(4) -0.0043(3) 0.39984(19)
H27 H 0.13870 0.04110 0.39870
C13 C -0.0008(6) -0.0022(4) 0.3521(3)
H28 H -0.04530 -0.05350 0.35100
H29 H 0.03050 0.00100 0.31760
C14 C -0.0758(6) 0.0698(4) 0.3552(3)
H30 H -0.03080 0.12110 0.35890
H31 H -0.13280 0.07350 0.32090
C15 C -0.2013(5) 0.1283(4) 0.4072(2)
H32 H -0.25540 0.13730 0.37240
H33 H -0.15560 0.17890 0.41560
C16 C -0.2630(5) 0.1106(4) 0.4526(3)
H34 H -0.30730 0.05940 0.44440
H35 H -0.31620 0.15610 0.45570
C17 C -0.2431(5) 0.0883(4) 0.5492(3)
H36 H -0.29410 0.13500 0.55260
H37 H -0.28900 0.03750 0.54300
C18 C 0.1590(5) -0.0804(4) 0.4000(3)
H38 H 0.10790 -0.12850 0.39640
H39 H 0.19770 -0.08020 0.36770
K3 K 0.00000 0.50000 0.50000
O7 O -0.0355(5) 0.4372(3) 0.3990(2)
O8 O -0.1198(4) 0.3348(3) 0.4715(2)
O9 O 0.1783(7) 0.3949(6) 0.5160(4)
N4 N 0.1068(5) 0.5778(4) 0.4182(2)
H40 H 0.06090 0.61560 0.39640
N5 N 0.1439(5) 0.2568(4) 0.5161(3)
C19 C 0.1325(7) 0.5055(5) 0.3882(4)
H41 H 0.17490 0.46560 0.41450
H42 H 0.18090 0.52150 0.36150
C20 C 0.0265(8) 0.4652(5) 0.3577(3)
H43 H -0.01890 0.50510 0.33260
H44 H 0.04560 0.41810 0.33550
C21 C -0.1193(7) 0.3782(5) 0.3813(3)
H45 H -0.08360 0.32670 0.37160
H46 H -0.16980 0.39840 0.34770
C22 C -0.1873(7) 0.3607(5) 0.4254(3)
H47 H -0.22740 0.41120 0.43340
H48 H -0.24440 0.31790 0.41230
C23 C -0.1787(7) 0.3132(5) 0.5159(4)
H49 H -0.13130 0.27470 0.54130
H50 H -0.24930 0.28410 0.50010
C24 C 0.2066(6) 0.6149(5) 0.4522(3)
H51 H 0.25950 0.63230 0.42800
H52 H 0.24500 0.57300 0.47810
C25 C 0.1594(8) 0.3267(8) 0.4899(5)
H53 H 0.15640 0.32580 0.45100
C26 C 0.1160(8) 0.1879(7) 0.4821(5)
H54 H 0.14500 0.13810 0.50220
H55 H 0.14970 0.19340 0.44890
H56 H 0.03390 0.18400 0.47140
C27 C 0.1531(12) 0.2493(11) 0.5711(5)
H57 H 0.19990 0.20140 0.58380
H58 H 0.07800 0.24220 0.58040
H59 H 0.18820 0.29900 0.58920
Hg1A Hg 0.75708(2) 1.018367(14) 0.746817(10)
Hg1A* Hg 0.75708(2) 0.018367(14) 0.746817(10)
Ge1A Ge 0.79191(5) 0.86345(4) 0.75399(3)
Ge2A Ge 0.68631(6) 0.77625(4) 0.81550(3)
Ge3A Ge 0.72286(5) 0.17327(4) 0.74245(3)
Ge3A* Ge 0.72286(5) 1.17327(4) 0.74245(3)
Ge4A Ge 0.86647(5) 0.76048(4) 0.68965(3)
Ge5A Ge 0.56919(5) 0.86166(4) 0.73597(3)
Ge6A Ge 0.94299(5) 0.19079(4) 0.76053(3)
Ge7A Ge 0.82072(5) 0.18075(4) 0.84699(3)
Ge8A Ge 0.69214(6) 0.85063(4) 0.64929(3)
Ge9A Ge 0.50515(6) 0.77345(5) 0.64920(3)
O5B O 0.1301(3) -0.0608(3) 0.59882(15)
O6B O 0.1869(3) -0.1017(3) 0.49633(16)
N3B N -0.0923(4) 0.0043(3) 0.60016(19)
H27B H -0.13870 -0.04110 0.60130
C13B C 0.0008(6) 0.0022(4) 0.6479(3)
H28B H 0.04530 0.05350 0.64900
H29B H -0.03050 -0.00100 0.68240
C14B C 0.0758(6) -0.0698(4) 0.6448(3)
H30B H 0.03080 -0.12110 0.64110
H31B H 0.13280 -0.07350 0.67910
C15B C 0.2013(5) -0.1283(4) 0.5928(2)
H32B H 0.25540 -0.13730 0.62760
H33B H 0.15560 -0.17890 0.58440
C16B C 0.2630(5) -0.1106(4) 0.5474(3)
H34B H 0.30730 -0.05940 0.55560
H35B H 0.31620 -0.15610 0.54430
C17B C 0.2431(5) -0.0883(4) 0.4508(3)
H36B H 0.29410 -0.13500 0.44740
H37B H 0.28900 -0.03750 0.45700
C18B C -0.1590(5) 0.0804(4) 0.6000(3)
H38B H -0.10790 0.12850 0.60360
H39B H -0.19770 0.08020 0.63230
O7B O 0.0355(5) 0.5628(3) 0.6010(2)
O8B O 0.1198(4) 0.6652(3) 0.5285(2)
O9B O -0.1783(7) 0.6051(6) 0.4840(4)
N4B N -0.1068(5) 0.4222(4) 0.5818(2)
H40B H -0.06090 0.38440 0.60360
N5B N -0.1439(5) 0.7432(4) 0.4839(3)
C19B C -0.1325(7) 0.4945(5) 0.6118(4)
H41B H -0.17490 0.53440 0.58550
H42B H -0.18090 0.47850 0.63850
C20B C -0.0265(8) 0.5348(5) 0.6423(3)
H43B H 0.01890 0.49490 0.66740
H44B H -0.04560 0.58190 0.66450
C21B C 0.1193(7) 0.6218(5) 0.6187(3)
H45B H 0.08360 0.67330 0.62840
H46B H 0.16980 0.60160 0.65230
C22B C 0.1873(7) 0.6393(5) 0.5746(3)
H47B H 0.22740 0.58880 0.56660
H48B H 0.24440 0.68210 0.58770
C23B C 0.1787(7) 0.6868(5) 0.4841(4)
H49B H 0.13130 0.72530 0.45870
H50B H 0.24930 0.71590 0.49990
C24B C -0.2066(6) 0.3851(5) 0.5478(3)
H51B H -0.25950 0.36770 0.57200
H52B H -0.24500 0.42700 0.52190
C25B C -0.1594(8) 0.6733(8) 0.5101(5)
H53B H -0.15640 0.67420 0.54900
C26B C -0.1160(8) 0.8121(7) 0.5179(5)
H54B H -0.14500 0.86190 0.49780
H55B H -0.14970 0.80660 0.55110
H56B H -0.03390 0.81600 0.52860
C27B C -0.1531(12) 0.7507(11) 0.4289(5)
H57B H -0.19990 0.79860 0.41620
H58B H -0.07800 0.75780 0.41960
H59B H -0.18820 0.70100 0.41080
#END
