
#######################################################################
#
#                 Cambridge Crystallographic Data Centre
#                                CCDC
#
#######################################################################
#
# If this CIF has been generated from an entry in the Cambridge
# Structural Database, then it will include bibliographic, chemical,
# crystal, experimental, refinement or atomic coordinate data resulting
# from the CCDC's data processing and validation procedures.
#
#######################################################################

data_CSD_CIF_XINPOC
_audit_creation_date 2018-09-10
_audit_creation_method CSD-ConQuest-V1
_database_code_CSD XINPOC
_database_code_depnum_ccdc_archive 'CCDC 1813621'
_chemical_formula_sum 'C14 H20.2 Ca1 O9.1'
_chemical_formula_moiety
;
(C14 H12 Ca1 O6 2-)n,2(H3 O1 1+),1.1(H2 O1)
;
_journal_coden_Cambridge 1500
_journal_volume 8
_journal_year 2018
_journal_page_first 31588
_journal_name_full 'RSC Advances '
loop_
_publ_author_name
"D.Kojima"
"T.Sanada"
"N.Wada"
"K.Kojima"
_chemical_name_systematic
;
catena-[bis(oxonium) 
(\m-naphthalene-1,4-dicarboxylato)-hydroxo-ethoxo-calcium hydrate]
;
_cell_volume   1441.534
_exptl_crystal_colour 'colorless'
_exptl_crystal_density_diffrn 1.457
_exptl_special_details
;
Luminescent
We have represented the structure according to the paper

;
_exptl_crystal_description 'block'
_diffrn_ambient_temperature 90
#These two values have been output from a single CSD field.
_refine_ls_R_factor_gt 0.0304
_refine_ls_wR_factor_gt 0.0304
_symmetry_cell_setting monoclinic
_symmetry_space_group_name_H-M 'P 21/n'
_symmetry_Int_Tables_number 14
loop_
_symmetry_equiv_pos_site_id
_symmetry_equiv_pos_as_xyz
1 x,y,z
2 1/2-x,1/2+y,1/2-z
3 -x,-y,-z
4 -1/2+x,-1/2-y,-1/2+z
_cell_length_a 7.5660(9)
_cell_length_b 17.062(2)
_cell_length_c 11.3231(15)
_cell_angle_alpha 90
_cell_angle_beta 99.531(4)
_cell_angle_gamma 90
_cell_formula_units_Z 4
loop_
_atom_type_symbol
_atom_type_radius_bond
C 0.68
H 0.23
Ca 1.76
O 0.68
loop_
_atom_site_label
_atom_site_type_symbol
_atom_site_fract_x
_atom_site_fract_y
_atom_site_fract_z
Ca1 Ca 0.24641(3) 0.47132(2) 0.48679(3)
O1 O 0.50295(13) 0.44595(6) 0.40229(10)
O2 O 0.08068(13) 0.42050(6) 0.3038(1)
O3 O 0.39324(14) 0.36713(6) 0.60775(10)
O4 O 0.01002(14) 0.57988(6) 0.44887(10)
O5 O 0.25849(14) 0.54352(6) 0.6838(1)
O6 O 0.24934(13) 0.59139(6) 0.36219(10)
C1 C 0.60121(19) 0.42102(8) 0.33093(13)
C2 C 0.1149(2) 0.42993(10) 0.18390(15)
H1 H 0.49950 0.37800 0.62820
C3 C 0.55079(19) 0.34449(8) 0.26725(14)
H2 H 0.23740 0.44730 0.18620
H3 H 0.03600 0.47000 0.14370
C4 C 0.0857(2) 0.35417(12) 0.11374(17)
C5 C 0.55708(18) 0.33348(8) 0.14295(13)
C6 C 0.4987(2) 0.28432(9) 0.33490(14)
H4 H 0.15950 0.31380 0.15530
H5 H 0.11710 0.36160 0.03580
H6 H -0.03800 0.33910 0.10560
C7 C 0.51106(18) 0.25824(8) 0.09046(13)
C8 C 0.59805(19) 0.39566(9) 0.06768(14)
H7 H 0.49450 0.29240 0.41560
C9 C 0.45177(19) 0.21053(9) 0.28295(14)
C10 C 0.45711(18) 0.19688(8) 0.16388(14)
C11 C 0.51341(19) 0.24775(9) -0.03341(14)
H8 H 0.62480 0.44520 0.10010
C12 C 0.5985(2) 0.38324(9) -0.05184(14)
H9 H 0.41670 0.17050 0.32990
C13 C 0.39585(18) 0.11790(8) 0.11401(13)
H10 H 0.48430 0.19920 -0.06850
C14 C 0.5581(2) 0.30838(9) -0.10205(15)
H11 H 0.62550 0.42420 -0.10000
H12 H 0.56190 0.30010 -0.18280
O4B O -0.01002(14) 0.42012(6) 0.55113(10)
O1B O 0.49705(13) 0.55405(6) 0.59771(10)
Ca1B Ca 0.75359(3) 0.52868(2) 0.51321(3)
O5B O 0.74151(14) 0.45648(6) 0.3162(1)
O4A O 0.48998(14) 0.07988(6) 0.05113(10)
O6A O 0.25066(13) 0.09139(6) 0.13781(10)
Ca1A Ca 0.25359(3) -0.02868(2) 0.01321(3)
Ca1C Ca 0.74641(3) 0.02868(2) -0.01321(3)
#END
