
#######################################################################
#
#                 Cambridge Crystallographic Data Centre
#                                CCDC
#
#######################################################################
#
# If this CIF has been generated from an entry in the Cambridge
# Structural Database, then it will include bibliographic, chemical,
# crystal, experimental, refinement or atomic coordinate data resulting
# from the CCDC's data processing and validation procedures.
#
#######################################################################

data_CSD_CIF_XIPGUA
_audit_creation_date 2013-09-05
_audit_creation_method CSD-ConQuest-V1
_database_code_CSD XIPGUA
_database_code_depnum_ccdc_archive 'CCDC 900100'
_chemical_formula_sum 'C14 H96 Cu7 Ge2 K6 N2 O116 W18'
_chemical_formula_moiety
;
(C14 H28 Cu6 Ge2 N2 O82 W18 8-)n,n(H12 Cu1 O6 2+),28n(H2 O1),6n(K1 1+)
;
_journal_coden_Cambridge 1295
_journal_volume 29
_journal_year 2013
_journal_page_first 45
_journal_name_full 'Inorg.Chem.Commun. '
loop_
_publ_author_name
"Chun-Hua Zhang"
"Ya-Guang Chen"
"Shu-Xia Liu"
_chemical_name_systematic
;
catena-[hexa-potassium hexa-aqua-copper(ii) 
octakis(\m~4~-oxo)-tetrakis(\m~3~-oxo)-(\m~2~-ethyleneglycol-bis-(2-aminoethyl
ether)-N,N,N',N'-tetraacetato)-tetracontakis(\m~2~-oxo)-tetra-aqua-hexadecaoxo
-di-germanium-hexa-copper-octadecatungsten octacosahydrate]
;
_cell_volume   2876.648
_exptl_crystal_colour 'blue'
_exptl_crystal_density_diffrn 3.625
_exptl_crystal_description 'block'
_diffrn_ambient_temperature 293
_refine_special_details
;
Short C-O bond at O1.

;
#These two values have been output from a single CSD field.
_refine_ls_R_factor_gt 0.0626
_refine_ls_wR_factor_gt 0.0626
_symmetry_cell_setting triclinic
_symmetry_space_group_name_H-M 'P 1'
_symmetry_Int_Tables_number 1
loop_
_symmetry_equiv_pos_site_id
_symmetry_equiv_pos_as_xyz
1 x,y,z
_cell_length_a 11.881(5)
_cell_length_b 15.070(5)
_cell_length_c 18.338(5)
_cell_angle_alpha 66.014(5)
_cell_angle_beta 76.901(5)
_cell_angle_gamma 75.646(5)
_cell_formula_units_Z 1
loop_
_atom_type_symbol
_atom_type_radius_bond
C 0.68
H 0.23
Cu 1.32
Ge 1.17
K 2.03
N 0.68
O 0.68
W 1.62
loop_
_atom_site_label
_atom_site_type_symbol
_atom_site_fract_x
_atom_site_fract_y
_atom_site_fract_z
W1 W 0.1853(2) 0.70821(17) 0.10479(14)
W2 W 0.3589(2) 0.27437(17) 0.14709(15)
W3 W 0.5079(2) 0.48399(18) 0.00422(15)
W4 W 0.6680(2) 0.44744(19) 0.14693(16)
W5 W 0.5084(2) 0.24581(17) 0.29402(15)
W6 W 0.4332(2) 0.50811(17) 0.65354(14)
W7 W 0.2564(2) 0.75655(17) 0.55322(14)
W8 W 0.1824(2) 0.52350(17) 0.04653(14)
W9 W 0.5101(2) 0.67099(17) 0.06159(15)
W10 W 0.0420(2) 0.52345(18) 0.22965(15)
W11 W 0.4024(2) 0.75256(17) 0.37142(15)
W12 W 0.5744(2) 0.50807(18) 0.46982(15)
W13 W 0.2133(2) 0.27853(17) 0.32832(14)
W14 W 0.1067(2) 0.78540(16) 0.40580(14)
W15 W 0.1052(2) 0.36075(18) 0.63766(15)
W16 W 0.1074(2) 0.54806(19) 0.69519(14)
W17 W -0.0528(2) 0.58466(19) 0.55203(16)
W18 W 0.4310(2) 0.32347(17) 0.59497(15)
Ge1 Ge 0.2596(6) 0.5500(5) 0.4982(4)
Ge2 Ge 0.3561(5) 0.4830(4) 0.2017(4)
Cu1 Cu 0.2389(7) 0.6163(5) 0.3080(5)
Cu2 Cu 0.0974(6) 0.4414(5) 0.4268(5)
Cu3 Cu 0.5188(6) 0.5879(5) 0.2719(4)
Cu4 Cu 0.3793(6) 0.4145(5) 0.3917(4)
O1 O 0.268(3) 0.334(2) 0.642(2)
O2 O 0.663(3) 0.589(2) 0.0893(17)
O3 O 0.126(3) 0.193(3) 0.390(2)
O4 O 0.361(2) 0.203(2) 0.0968(17)
O5 O 0.385(3) 0.492(3) 0.536(2)
O6 O 0.243(2) 0.831(2) 0.3488(18)
O7 O 0.002(3) 0.706(2) 0.4879(19)
O8 O 0.355(3) 0.358(2) 0.2395(19)
O9 O 0.247(3) 0.226(2) 0.235(2)
O10 O 0.358(2) 0.5150(18) 0.2789(16)
O11 O 0.456(3) 0.368(2) 0.677(2)
O12 O 0.012(2) 0.895(2) 0.3566(17)
O13 O 0.254(2) 0.6770(17) 0.4704(14)
O14 O 0.246(3) 0.517(3) 0.412(2)
O15 O 0.130(3) 0.710(2) 0.3481(19)
O16 O 0.277(3) 0.507(2) 0.693(2)
O17 O 0.486(2) 0.212(2) 0.2039(18)
O18 O 0.2255(19) 0.5393(16) 0.1541(14)
O19 O 0.568(3) 0.372(3) 0.537(2)
O20 O 0.731(2) 0.5203(19) 0.4375(16)
O21 O 0.000(3) 0.554(2) 0.460(2)
O22 O 0.224(3) 0.702(2) 0.1987(19)
O23 O 0.476(3) 0.353(2) 0.072(2)
O24 O 0.662(3) 0.435(2) 0.049(2)
O25 O 0.626(3) 0.479(2) 0.2440(18)
O26 O 0.035(3) 0.665(2) 0.1671(19)
O27 O 0.484(3) 0.514(2) 0.732(2)
O28 O 0.406(2) 0.6756(16) 0.3189(14)
O29 O 0.822(3) 0.415(3) 0.144(2)
O30 O 0.141(2) 0.833(2) 0.4861(17)
O31 O -0.049(3) 0.451(3) 0.615(2)
O32 O 0.469(2) 0.516(2) 0.1205(18)
O33 O 0.088(3) 0.411(2) 0.725(2)
O34 O 0.358(2) 0.1928(19) 0.3571(16)
O35 O 0.540(3) 0.607(2) -0.020(2)
O36 O 0.548(2) 0.7894(17) 0.0007(15)
O37 O 0.524(3) 0.506(3) 0.380(2)
O38 O 0.1303(19) 0.5240(16) 0.5696(14)
O39 O 0.161(3) 0.656(2) 0.026(2)
O40 O 0.132(3) 0.348(2) 0.5442(19)
O41 O 0.108(2) 0.3975(18) 0.2610(16)
O42 O 0.050(3) 0.260(3) 0.698(2)
O43 O 0.614(3) 0.152(3) 0.335(2)
O44 O 0.350(2) 0.710(2) 0.0549(17)
O45 O 0.118(2) 0.829(2) 0.0582(18)
O46 O 0.089(3) 0.538(3) 0.309(2)
O47 O 0.479(3) 0.198(2) 0.6392(19)
O48 O 0.045(3) 0.515(3) 0.124(2)
O49 O 0.060(3) 0.557(3) 0.790(2)
O50 O 0.389(4) 0.328(3) 0.507(3)
O51 O 0.500(3) 0.322(3) 0.349(2)
O52 O 0.153(2) 0.674(2) 0.6263(18)
O53 O 0.354(2) 0.5334(19) -0.0013(16)
O54 O 0.128(3) 0.531(2) -0.040(2)
O55 O 0.559(4) 0.468(3) -0.084(3)
O56 O 0.228(2) 0.344(2) 0.3957(17)
O57 O 0.251(4) 0.839(3) 0.601(3)
O58 O 0.502(3) 0.830(3) 0.308(2)
O59 O 0.493(2) 0.6701(19) 0.1673(17)
O60 O -0.103(2) 0.5313(18) 0.2569(15)
O61 O -0.197(2) 0.628(2) 0.5502(18)
O62 O 0.245(3) 0.377(2) 0.1012(19)
O63 O -0.033(3) 0.601(3) 0.650(2)
O64 O 0.372(3) 0.795(2) 0.464(2)
O65 O 0.568(3) 0.523(3) 0.578(2)
O66 O 0.5105(19) 0.6566(16) 0.4317(14)
O67 O 0.375(3) 0.638(2) 0.6036(19)
O68 O 0.609(3) 0.327(3) 0.208(2)
O69 O 0.665(3) 0.659(2) 0.2584(19)
H1 H 0.64920 0.70700 0.28280
H2 H 0.72720 0.60690 0.28180
O70 O -0.079(3) 0.376(3) 0.445(2)
H3 H -0.05430 0.32300 0.42470
H4 H -0.11200 0.35060 0.50020
Cu5 Cu 0.3384(7) 0.1297(6) -0.0038(5)
O71 O 0.377(3) -0.014(2) 0.0580(19)
H5 H 0.36060 -0.01710 0.11250
H6 H 0.33350 -0.05610 0.05210
Cu6 Cu 0.2755(8) 0.9009(5) 0.7040(5)
O72 O 0.292(3) 0.948(2) 0.8144(17)
O73 O 0.178(4) 1.145(3) 1.036(3)
O74 O 0.586(3) 0.765(3) 0.641(2)
O75 O 0.288(3) 1.090(2) 0.889(2)
O76 O 0.020(3) 1.263(2) 1.0358(19)
O77 O 0.123(3) 0.891(2) 0.753(2)
O78 O 0.445(3) 0.883(2) 0.655(2)
O79 O 0.016(3) 0.760(3) 0.827(2)
O80 O 0.512(3) 1.150(2) 0.954(2)
O81 O 0.617(3) 1.258(3) 0.889(2)
O82 O 0.242(3) 1.035(3) 0.625(2)
H7 H 0.22470 1.04320 0.57420
H8 H 0.31160 1.06140 0.61750
N1 N 0.292(3) 1.268(3) 0.913(2)
N2 N 0.307(3) 0.767(3) 0.787(2)
C1 C 0.124(3) 1.229(3) 1.022(2)
C2 C 0.119(3) 0.794(3) 0.788(5)
C3 C 0.188(5) 1.308(3) 0.961(3)
H9 H 0.13530 1.35620 0.92430
H10 H 0.21420 1.34140 0.98770
C4 C 0.262(3) 1.259(2) 0.844(2)
H11 H 0.27510 1.31800 0.79740
H12 H 0.17880 1.25700 0.85380
C5 C 0.379(4) 0.845(3) 0.858(3)
H13 H 0.45460 0.83840 0.82570
H14 H 0.38930 0.83850 0.91150
C6 C 0.224(2) 0.713(2) 0.7973(18)
H15 H 0.21770 0.66080 0.85050
H16 H 0.23810 0.68430 0.75640
C7 C 0.416(5) 1.302(4) 0.892(4)
H17 H 0.42860 1.33800 0.83460
H18 H 0.40820 1.34910 0.91750
C8 C 0.326(3) 1.172(2) 0.821(2)
H19 H 0.30320 1.17610 0.77240
H20 H 0.40990 1.16750 0.81440
C9 C 0.304(4) 0.776(3) 0.862(3)
H21 H 0.32880 0.71140 0.90110
H22 H 0.22300 0.79910 0.88110
C10 C 0.208(4) 1.036(4) 0.912(3)
H23 H 0.13010 1.07600 0.91070
H24 H 0.21380 0.98700 0.96610
C11 C 0.243(8) 0.984(6) 0.841(5)
H25 H 0.17650 0.95130 0.85600
H26 H 0.22330 1.04330 0.79470
C12 C 0.423(3) 0.721(2) 0.755(2)
H27 H 0.46820 0.68560 0.79940
H28 H 0.40940 0.67250 0.73740
C13 C 0.5250(19) 1.2320(19) 0.9129(18)
C14 C 0.493(5) 0.781(4) 0.692(4)
O83 O 0.740(3) 0.394(2) -0.3132(18)
H29 H 0.82460 0.38060 -0.32140
H30 H 0.71100 0.33660 -0.30560
O84 O 0.868(3) 0.380(3) -0.164(2)
H31 H 0.92180 0.35940 -0.20460
H32 H 0.89190 0.43420 -0.16070
O85 O 0.734(4) 0.596(3) -0.253(3)
H33 H 0.78730 0.60500 -0.30200
H34 H 0.77190 0.59670 -0.21240
K1 K 0.677(3) 0.427(3) -0.200(2)
O86 O -0.226(3) 0.866(3) 0.511(3)
H35 H -0.16520 0.87300 0.46560
H36 H -0.19060 0.83310 0.56010
O87 O -0.239(4) 0.711(3) 0.373(3)
H37 H -0.26840 0.67040 0.35520
H38 H -0.23130 0.77300 0.32970
O88 O 1.023(4) 0.085(4) 0.281(3)
O89 O -1.129(2) 0.653(2) 1.0338(17)
H39 H -1.17800 0.60770 1.07200
H40 H -1.17250 0.71910 1.01980
O90 O -1.271(5) 0.673(4) 0.858(3)
H41 H -1.31930 0.62330 0.88730
H42 H -1.26280 0.68560 0.80100
O91 O -1.114(4) 0.441(3) 0.958(3)
H43 H -1.18720 0.44220 0.99360
H44 H -1.05490 0.39190 0.98740
K2 K -1.0573(9) 0.6062(7) 0.9001(7)
O92 O 0.846(6) 0.327(5) 0.331(4)
H45 H 0.88900 0.33040 0.36800
H46 H 0.80040 0.27520 0.35870
K3 K -0.3978(12) 0.7382(13) 0.5082(11)
O93 O -0.471(5) 0.948(4) 0.472(3)
H47 H -0.46380 0.88050 0.50830
H48 H -0.53800 0.98640 0.49310
K4 K 1.011(2) 0.2885(18) 0.1983(15)
K5 K -0.0751(6) 1.0328(5) 0.2567(5)
O94 O -0.210(6) 0.976(5) 0.343(5)
H49 H -0.18380 0.90980 0.34260
H50 H -0.21930 1.03070 0.29220
O95 O 0.021(4) 1.023(3) 0.160(3)
O96 O -0.058(9) 0.826(7) 0.228(6)
Cu7 Cu 1.869(4) 0.116(4) 0.621(3)
O97 O 1.814(3) 0.249(2) 0.5868(18)
H51 H 1.77210 0.26720 0.63140
H52 H 1.87590 0.28640 0.55990
O98 O 1.958(3) -0.019(2) 0.6497(19)
H53 H 1.95050 -0.05560 0.70690
H54 H 1.92630 -0.05090 0.62470
O99 O 1.924(3) 0.112(2) 0.726(2)
H55 H 1.86020 0.15040 0.74950
H56 H 1.93560 0.04500 0.76390
O100 O 1.856(3) 0.110(3) 0.521(2)
H57 H 1.77920 0.14580 0.51090
H58 H 1.86090 0.04260 0.52760
O101 O 1.693(5) 0.058(4) 0.689(3)
O102 O 2.0657(16) 0.1731(14) 0.5579(12)
H59 H 2.07300 0.22200 0.57670
H60 H 2.13030 0.11920 0.57070
O103 O 0.614(10) 0.009(8) 0.572(6)
H61 H 0.61950 0.06970 0.57620
H62 H 0.53300 0.00710 0.57500
O104 O 1.367(6) 0.002(6) 0.366(5)
O105 O 0.403(3) 1.124(3) 0.526(2)
O106 O -0.102(6) 0.833(5) 0.606(4)
O107 O 0.675(2) 0.240(2) 0.4513(16)
O108 O 0.224(3) 0.880(3) 0.189(2)
O109 O 0.025(3) 0.035(2) 0.446(2)
O110 O 1.836(5) -0.077(5) 0.832(4)
O111 O 1.699(6) 0.223(5) 0.059(4)
O112 O 1.880(5) 0.177(4) -0.058(4)
O113 O 0.512(7) 0.998(6) 0.849(5)
K6 K 0.7382(6) -0.0825(5) 0.0744(5)
O114 O 0.916(15) 0.035(12) 0.027(11)
O115 O 0.810(4) -0.054(3) -0.004(3)
O116 O 0.588(5) 0.022(5) 0.205(4)
O117 O 1.810(7) 0.075(6) 0.440(5)
O118 O 1.685(8) 0.205(6) 0.739(5)
O119 O 1.278(6) 0.035(5) 0.248(5)
O120? O 0.077(8) 0.017(6) 0.429(5)
Cu5* Cu 0.3384(7) 1.1297(6) 0.9962(5)
O73* O 0.178(4) 0.145(3) 0.036(3)
O75* O 0.288(3) 0.090(2) -0.111(2)
O80* O 0.512(3) 0.150(2) -0.046(2)
N1* N 0.292(3) 0.268(3) -0.087(2)
#END
