
#######################################################################
#
#                 Cambridge Crystallographic Data Centre
#                                CCDC
#
#######################################################################
#
# If this CIF has been generated from an entry in the Cambridge
# Structural Database, then it will include bibliographic, chemical,
# crystal, experimental, refinement or atomic coordinate data resulting
# from the CCDC's data processing and validation procedures.
#
#######################################################################

data_CSD_CIF_XIQYUU
_audit_creation_date 2018-09-11
_audit_creation_method CSD-ConQuest-V1
_database_code_CSD XIQYUU
_database_code_depnum_ccdc_archive 'CCDC 1818359'
_chemical_formula_sum 'C142 H122 F12 Mn6 N5 O48 P3'
_chemical_formula_moiety
;
2(C2 H8 N1 1+),n(C130 H78 F12 Mn6 N1 O41 P3 2-),2(C4 H9 N1 O1),5(H2 O1)
;
_journal_coden_Cambridge 603
_journal_volume 37
_journal_year 2018
_journal_page_first 1509
_journal_name_full 'Jiegou Huaxue(Chin.)(Chin.J.Struct.Chem.) '
loop_
_publ_author_name
"Jing-Jing Jiao"
"Zi-Jian Li"
"Fa-Kun Zheng"
"Bai-Zhan Liu"
"Yong Cui"
_chemical_name_systematic
;
catena-[bis(Dimethylammonium) (\m-hydrogen 
5,5'-(4,8-bis(3,5-difluorophenyl)-1,11-dimethyl-6-oxido-6-oxo-6H-dibenzo[d,f][
1,3,2]dioxaphosphepine-2,10-diyl)di(benzene-1,3-dicarboxylato))-bis(\m-5,5'-(4
,8-bis(3,5-difluorophenyl)-1,11-dimethyl-6-oxido-6-oxo-6H-dibenzo[d,f][1,3,2]d
ioxaphosphepine-2,10-diyl)di(benzene-1,3-dicarboxylato))-(N,N-dimethylacetamid
e)-tetra-aqua-hexa-manganese(ii) N,N-dimethylacetamide solvate pentahydrate]
;
_cell_volume  27489.508
_exptl_crystal_colour 'colorless'
_exptl_special_details
;
Absolute configuration
An additional proton has been added in the CSD representation to achieve a 
charge-balanced structure
;
_exptl_crystal_description 'rod-like'
_diffrn_ambient_temperature 173.0
_refine_special_details
;
Disordered cation and solvent molecules were not modelled and the disordered 
density was taken into account using the SQUEEZE/PLATON procedure.
;
#These two values have been output from a single CSD field.
_refine_ls_R_factor_gt 0.0596
_refine_ls_wR_factor_gt 0.0596
_symmetry_cell_setting orthorhombic
_symmetry_space_group_name_H-M 'P 21 21 21'
_symmetry_Int_Tables_number 19
loop_
_symmetry_equiv_pos_site_id
_symmetry_equiv_pos_as_xyz
1 x,y,z
2 1/2-x,-y,1/2+z
3 -x,1/2+y,1/2-z
4 1/2+x,1/2-y,-z
_cell_length_a 23.0667(8)
_cell_length_b 26.7047(10)
_cell_length_c 44.6266(17)
_cell_angle_alpha 90
_cell_angle_beta 90
_cell_angle_gamma 90
_cell_formula_units_Z 4
loop_
_atom_type_symbol
_atom_type_radius_bond
C 0.68
H 0.23
F 0.64
Mn 1.61
N 0.68
O 0.68
P 1.05
loop_
_atom_site_label
_atom_site_type_symbol
_atom_site_fract_x
_atom_site_fract_y
_atom_site_fract_z
Mn1 Mn 0.14820(3) 0.18103(4) 0.42090(2)
F1 F 0.5037(4) 0.4187(3) 0.10573(16)
C1 C 0.4769(2) 0.5388(2) 0.75061(19)
H1 H 0.44880 0.52910 0.76510
O1 O 0.3813(2) 0.31015(18) 0.74593(13)
Mn2 Mn 0.33767(3) 0.52524(3) 0.18858(2)
F2 F 0.4948(6) 0.2444(4) 0.0926(2)
C2 C 0.4791(2) 0.2606(3) 0.64154(17)
H2 H 0.50780 0.26680 0.65640
O2 O 0.35616(18) 0.2481(3) 0.68993(13)
Mn3 Mn 0.32949(3) 0.18825(4) 0.42025(2)
F3 F 0.3145(7) -0.0107(3) 0.5630(3)
C3 C 0.4933(2) 0.2646(3) 0.61166(16)
O3 O 0.2045(2) 0.2263(2) 0.39535(12)
Mn4 Mn 0.49397(3) 0.75253(4) 0.76450(3)
O4 O -0.08675(18) 0.3402(2) 0.55850(14)
F4 F 0.3043(8) 0.0369(3) 0.4633(2)
C4 C 0.4510(2) 0.2525(2) 0.59064(16)
H3 H 0.46110 0.25320 0.57000
Mn5 Mn 0.51190(3) 0.51983(3) 0.18671(3)
O5 O 0.05132(16) 0.46954(15) 0.65166(11)
F5 F 0.4301(3) 0.6538(3) 0.84480(14)
Mn6 Mn 0.32576(4) 0.25106(4) 0.73440(3)
F6 F 0.6776(11) 0.7625(5) 0.5790(3)
O6 O 0.59816(15) 0.62422(15) 0.74179(10)
P1 P 0.23902(6) 0.21721(7) 0.47682(4)
O7 O -0.09815(16) 0.34884(19) 0.60668(12)
F7 F 0.7111(8) 0.8164(3) 0.6748(3)
C5 C 0.3312(2) 0.4473(2) 0.70944(19)
P2 P 0.58694(6) 0.67846(6) 0.72622(4)
O8 O 0.14114(15) 0.44182(18) 0.64779(11)
C6 C 0.0116(2) 0.3974(2) 0.61075(15)
H4 H -0.01670 0.41080 0.62400
F8 F 0.6242(3) 0.6129(3) 0.85109(17)
P3 P 0.41707(6) 0.42992(6) 0.20956(4)
O9 O 0.57080(17) 0.26889(19) 0.57701(13)
F9 F 0.2134(4) 0.5648(3) 0.27837(19)
C7 C 0.6970(5) 0.7796(3) 0.6574(3)
C8 C 0.6826(5) 0.7323(3) 0.66806(19)
H5 H 0.68360 0.72570 0.68900
C9 C 0.6667(4) 0.6947(2) 0.6481(2)
C10 C 0.6653(5) 0.7044(3) 0.6175(2)
H6 H 0.65440 0.67870 0.60390
C11 C 0.6797(7) 0.7517(4) 0.6069(2)
C12 C 0.6956(6) 0.7893(3) 0.6268(3)
H7 H 0.70540 0.82160 0.61950
O10 O 0.18345(16) 0.20896(18) 0.46125(11)
O11 O 0.42423(16) 0.42478(15) 0.24485(11)
O12 O 0.58045(15) 0.66484(14) 0.69184(10)
O13 O 0.36267(15) 0.45413(13) 0.20105(11)
O14 O 0.64231(15) 0.70579(14) 0.73170(11)
O15 O 0.23186(15) 0.19061(16) 0.50867(10)
O16 O 0.40902(15) 0.37299(15) 0.19951(10)
O17 O 0.29458(15) 0.20380(18) 0.46256(10)
O18 O 0.51138(17) 0.09111(17) 0.29353(13)
O19 O 0.24739(15) 0.27528(16) 0.48575(10)
O20 O 0.47323(15) 0.45078(15) 0.19882(11)
O21 O 0.91669(17) 0.44522(18) 0.66059(12)
O22 O 0.77515(17) 0.37522(17) 0.58358(12)
O23 O 0.68432(17) 0.38596(18) 0.59780(14)
O24 O 0.53093(16) 0.69946(16) 0.73482(11)
O25 O 0.25720(19) 0.49981(19) 0.68755(18)
O26 O 0.59922(17) 0.06115(16) 0.28497(11)
C13 C 0.8300(2) 0.4857(2) 0.64372(16)
O27 O 0.57897(17) 0.3122(2) 0.61820(11)
C14 C 0.5514(2) 0.2822(3) 0.60231(18)
F10 F 0.4165(5) 0.5871(3) 0.2948(2)
O28 O 0.47185(19) 0.32677(17) 0.73354(16)
O29 O 0.07451(17) 0.2266(2) 0.30073(12)
F11 F 0.2404(5) 0.3598(3) 0.39700(18)
O30 O 0.23295(17) 0.42802(18) 0.70315(14)
O31 O 0.08542(17) 0.2938(2) 0.27401(12)
F12 F 0.0342(4) 0.3596(4) 0.4169(2)
C15 C 0.3461(2) 0.4015(2) 0.71813(17)
H8 H 0.31760 0.37580 0.71840
O32 O 0.0925(2) 0.1285(2) 0.44645(16)
C16 C 0.1018(3) 0.3444(3) 0.45552(18)
H9 H 0.07080 0.34070 0.46930
C17 C 0.1588(3) 0.3402(3) 0.46535(13)
C18 C 0.2042(3) 0.3455(3) 0.44513(19)
H10 H 0.24320 0.34270 0.45180
C19 C 0.1927(4) 0.3550(3) 0.41510(17)
C20 C 0.1357(5) 0.3592(4) 0.40527(14)
H11 H 0.12780 0.36570 0.38470
C21 C 0.0903(4) 0.3539(3) 0.4255(2)
C22 C 0.4033(2) 0.3903(2) 0.72691(16)
O33 O 0.91360(18) 0.5277(2) 0.66247(14)
C23 C 0.4303(2) 0.4771(2) 0.71969(18)
C24 C 0.0878(2) 0.4433(2) 0.64005(15)
O34 O 0.29574(19) 0.2230(3) 0.38133(14)
C25 C 0.2184(2) 0.2834(2) 0.53693(15)
C26 C 0.1021(2) 0.2636(3) 0.29374(18)
O35 O 0.44643(19) 0.2313(2) 0.70129(12)
C27 C 0.4741(2) 0.5170(2) 0.72254(18)
C28 C 0.6060(2) 0.5770(2) 0.68663(16)
O36 O 0.75174(18) 0.19894(19) 0.27886(15)
C29 C 0.5813(2) 0.1451(2) 0.27139(17)
C30 C 0.3024(2) 0.3382(3) 0.28892(17)
C31 C 0.1799(2) 0.3021(3) 0.55837(15)
C32 C 0.2676(2) 0.2492(2) 0.54469(14)
C33 C 0.8123(2) 0.4452(2) 0.62564(17)
H12 H 0.84000 0.42140 0.61900
C34 C 0.4448(2) 0.3357(2) 0.21134(17)
C35 C 0.4767(3) 0.2785(3) 0.28756(18)
H13 H 0.51690 0.27890 0.29470
H14 H 0.45930 0.24580 0.29190
H15 H 0.45450 0.30470 0.29770
C36 C 0.4232(2) 0.2475(3) 0.65011(16)
C37 C 0.2581(2) 0.3080(3) 0.30544(17)
O37 O 0.7384(2) 0.2471(3) 0.2416(2)
C38 C 0.6454(2) 0.5392(2) 0.67696(16)
C39 C 0.3818(2) 0.2386(3) 0.62861(17)
H16 H 0.34310 0.23160 0.63460
C40 C 0.0947(2) 0.3589(2) 0.57145(15)
C41 C 0.2295(2) 0.2571(3) 0.34844(16)
C42 C 0.6403(2) 0.1576(2) 0.27022(17)
H17 H 0.66840 0.13480 0.27770
C43 C 0.0366(2) 0.3485(3) 0.56764(17)
H18 H 0.02470 0.32870 0.55110
C44 C 0.4382(2) 0.3220(2) 0.24133(16)
C45 C 0.0705(2) 0.4091(2) 0.61470(14)
C46 C 0.3954(2) 0.2397(3) 0.59823(17)
C47 C -0.0048(2) 0.3664(2) 0.58767(16)
C48 C 0.2694(2) 0.4586(3) 0.69985(18)
C49 C -0.0674(2) 0.3501(3) 0.58439(19)
C50 C 0.3512(2) 0.2273(3) 0.57532(16)
C51 C 0.5577(2) 0.5646(2) 0.70753(17)
C52 C 0.6576(2) 0.2019(2) 0.25853(17)
C53 C 0.3460(2) 0.3141(2) 0.27213(16)
C54 C 0.3824(3) 0.3967(2) 0.26075(16)
C55 C 0.3094(2) 0.2631(3) 0.56630(15)
C56 C 0.4446(2) 0.4280(2) 0.72677(16)
H19 H 0.48360 0.42010 0.73160
C57 C 0.5410(2) 0.1790(2) 0.26058(17)
H20 H 0.50100 0.17080 0.26150
C58 C 0.8908(2) 0.4857(3) 0.65579(18)
C59 C 0.7901(2) 0.5201(3) 0.65288(18)
H21 H 0.80200 0.54770 0.66480
C60 C 0.2106(2) 0.2969(2) 0.50712(15)
C61 C 0.5565(2) 0.5879(2) 0.73565(17)
C62 C 0.1699(3) 0.3309(3) 0.49801(16)
C63 C 0.4759(2) 0.2876(3) 0.25451(18)
C64 C 0.6880(2) 0.5535(2) 0.65601(17)
C65 C 0.4845(2) 0.3116(3) 0.19222(17)
C66 C 0.1116(2) 0.3886(2) 0.59496(15)
H22 H 0.15160 0.39540 0.59790
C67 C 0.2716(2) 0.2021(3) 0.53108(14)
C68 C 0.6163(2) 0.6265(2) 0.67948(16)
C69 C 0.3111(3) 0.1660(3) 0.54023(18)
C70 C 0.1384(2) 0.3362(3) 0.54932(16)
C71 C 0.1729(2) 0.2541(3) 0.33593(19)
H23 H 0.14290 0.23790 0.34690
C72 C 0.1809(3) 0.2828(3) 0.59063(16)
H24 H 0.14250 0.26990 0.59600
H25 H 0.19140 0.31010 0.60420
H26 H 0.20960 0.25580 0.59240
C73 C 0.7200(2) 0.2175(2) 0.2590(2)
C74 C 0.3395(3) 0.4191(3) 0.27517(18)
C75 C 0.7311(2) 0.5152(2) 0.64477(17)
C76 C 0.5133(2) 0.5305(2) 0.70043(18)
C77 C 0.3738(2) 0.4868(2) 0.71000(19)
H27 H 0.36340 0.51950 0.70370
C78 C 0.6411(2) 0.4874(2) 0.6883(2)
H28 H 0.67970 0.47520 0.69380
H29 H 0.62470 0.46580 0.67270
H30 H 0.61580 0.48670 0.70600
C79 C 0.1608(2) 0.2741(3) 0.30823(17)
C80 C 0.2437(3) 0.2347(3) 0.37706(19)
C81 C 0.6938(3) 0.6027(3) 0.64725(18)
H31 H 0.72280 0.61110 0.63300
C82 C 0.3885(2) 0.3441(2) 0.25809(16)
C83 C 0.3503(3) 0.1795(3) 0.56313(18)
H32 H 0.37690 0.15520 0.57040
C84 C 0.7555(2) 0.4402(2) 0.61767(17)
C85 C 0.3141(3) 0.3151(3) 0.57897(17)
H33 H 0.30880 0.31380 0.60070
H34 H 0.28410 0.33640 0.57010
H35 H 0.35250 0.32890 0.57440
C86 C 0.5163(2) 0.2621(2) 0.23563(19)
C87 C 0.2708(2) 0.2841(3) 0.33207(17)
H36 H 0.30920 0.28600 0.33960
C88 C 0.2015(2) 0.3007(3) 0.29369(18)
H37 H 0.19210 0.31510 0.27480
C89 C 0.7368(2) 0.3972(2) 0.59781(16)
C90 C 0.3106(4) 0.0763(3) 0.55194(15)
H38 H 0.31300 0.08530 0.57250
C91 C 0.3073(5) 0.0261(2) 0.5438(2)
C92 C 0.3038(5) 0.0129(2) 0.5137(2)
H39 H 0.30150 -0.02140 0.50820
C93 C 0.3036(5) 0.0498(3) 0.49180(17)
C94 C 0.3069(4) 0.1000(2) 0.49992(16)
H40 H 0.30680 0.12520 0.48490
C95 C 0.3104(3) 0.11319(19) 0.52999(17)
C96 C 0.7150(2) 0.4763(2) 0.62717(16)
H41 H 0.67570 0.47330 0.62110
C97 C 0.2993(3) 0.3897(3) 0.28984(18)
H42 H 0.26890 0.40520 0.30080
C98 C 0.5633(2) 0.0957(3) 0.28371(19)
C99 C 0.1341(3) 0.3503(3) 0.51963(17)
H43 H 0.10550 0.37410 0.51400
C100 C 0.5230(2) 0.5962(2) 0.78983(11)
C101 C 0.47287(18) 0.6151(2) 0.80293(13)
H44 H 0.43760 0.61570 0.79190
C102 C 0.4744(2) 0.6332(2) 0.83212(14)
C103 C 0.5259(3) 0.6324(2) 0.84822(11)
H45 H 0.52700 0.64480 0.86820
C104 C 0.5760(2) 0.6135(2) 0.83512(14)
C105 C 0.57455(18) 0.5954(2) 0.80592(14)
H46 H 0.60880 0.58250 0.79700
C106 C 0.3464(3) 0.2592(3) 0.2696(2)
H47 H 0.36500 0.24940 0.25070
H48 H 0.30650 0.24660 0.27000
H49 H 0.36810 0.24490 0.28650
C107 C 0.4073(3) 0.2422(3) 0.68290(17)
C108 C 0.4938(3) 0.3685(2) 0.14777(15)
H50 H 0.49450 0.39680 0.16070
C109 C 0.4886(3) 0.3207(2) 0.15973(12)
C110 C 0.4876(3) 0.27927(19) 0.14086(17)
H51 H 0.48410 0.24660 0.14900
C111 C 0.4918(5) 0.2857(3) 0.11003(16)
C112 C 0.4969(4) 0.3336(4) 0.09807(12)
H52 H 0.49980 0.33800 0.07700
C113 C 0.4979(4) 0.3750(3) 0.11694(16)
C114 C 0.5177(3) 0.2744(3) 0.2056(2)
H53 H 0.54340 0.25600 0.19310
C115 C 0.4208(3) 0.3381(2) 0.73556(19)
C116 C 0.5190(3) 0.5745(2) 0.75918(18)
C117 C 0.6586(3) 0.6408(3) 0.65862(19)
C118 C 0.6172(2) 0.2353(3) 0.24654(19)
H54 H 0.63070 0.26500 0.23710
C119 C 0.5583(2) 0.2264(2) 0.24797(17)
C120 C 0.5086(3) 0.5073(3) 0.6701(2)
H55 H 0.53550 0.52390 0.65630
H56 H 0.46880 0.51100 0.66260
H57 H 0.51830 0.47160 0.67140
C121 C 0.3697(4) 0.5579(2) 0.28832(18)
C122 C 0.3142(5) 0.57778(17) 0.28596(17)
H58 H 0.30820 0.61270 0.28850
C123 C 0.2674(3) 0.5466(3) 0.27983(16)
C124 C 0.2762(3) 0.4954(2) 0.27605(15)
H59 H 0.24430 0.47410 0.27190
C125 C 0.3317(3) 0.47556(17) 0.27841(14)
C126 C 0.3784(3) 0.5068(3) 0.28454(16)
H60 H 0.41640 0.49320 0.28620
O38 O 0.4386(2) 0.78126(19) 0.72755(14)
O39 O 0.5709(3) 0.5124(3) 0.2245(2)
O40 O 0.3793(4) 0.2626(3) 0.4202(2)
O41 O 0.2802(5) 0.1826(4) 0.7130(3)
C127 C 0.540(1) 0.5125(11) 0.2743(5)
H61 H 0.55860 0.51850 0.29370
H62 H 0.50870 0.53690 0.27130
H63 H 0.52390 0.47850 0.27390
C128 C 0.5841(9) 0.5181(9) 0.2497(4)
N1 N 0.6425(8) 0.5054(9) 0.2568(5)
C129 C 0.6949(9) 0.5058(8) 0.2378(5)
H64 H 0.72840 0.49490 0.24960
H65 H 0.68950 0.48290 0.22080
H66 H 0.70170 0.53980 0.23020
C130 C 0.6623(12) 0.4961(13) 0.2891(5)
H67 H 0.70370 0.48790 0.28930
H68 H 0.65560 0.52620 0.30110
H69 H 0.64020 0.46810 0.29760
C131 C 0.2147(4) 0.3351(3) 0.2090(2)
C132 C 0.1501(3) 0.2730(3) 0.2043(2)
H70 H 0.10830 0.26630 0.20510
H71 H 0.16500 0.26420 0.18440
H72 H 0.16990 0.25290 0.21950
N2 N 0.1593(4) 0.3201(3) 0.2093(2)
O42 O 0.2305(5) 0.3888(3) 0.2114(3)
C133 C 0.1116(5) 0.3550(4) 0.2136(3)
H73 H 0.12700 0.38860 0.21710
H74 H 0.08720 0.35530 0.19560
H75 H 0.08840 0.34450 0.23090
C134 C 0.2620(4) 0.3004(4) 0.2027(3)
H76 H 0.29900 0.31830 0.20340
H77 H 0.26200 0.27360 0.21770
H78 H 0.25670 0.28590 0.18270
Mn1C Mn 0.64820(3) 0.31897(4) 0.57910(2)
Mn2A Mn 0.16233(3) 0.47476(3) 0.68858(2)
Mn2B Mn 0.66233(3) 0.02524(3) 0.31142(2)
Mn3C Mn -0.17051(3) 0.31175(4) 0.57975(2)
Mn3C* Mn 0.82949(3) 0.31175(4) 0.57975(2)
Mn4A Mn 0.00603(3) 0.24747(4) 0.26450(3)
Mn4B Mn 0.50603(3) 0.25253(4) 0.73550(3)
O4C O 0.41325(18) 0.1598(2) 0.44150(14)
Mn5A Mn -0.01190(3) 0.48017(3) 0.68671(3)
Mn5A* Mn 0.98810(3) 0.48017(3) 0.68671(3)
Mn5B Mn 0.48810(3) 0.01983(3) 0.31329(3)
O5A O 0.44868(16) 0.53046(15) 0.15166(11)
Mn6B Mn 0.67424(4) 0.75106(4) 0.76560(3)
Mn6C Mn 0.82576(4) 0.24894(4) 0.26560(3)
O7C O 0.40185(16) 0.15116(19) 0.39332(12)
O8A O 0.35886(15) 0.55818(18) 0.14779(11)
O9C O 0.07080(17) 0.23111(19) 0.42299(13)
O14B O 0.35769(15) 0.20579(14) 0.76830(11)
O18B O 0.48862(17) 0.59111(17) 0.20647(13)
O21A O 0.58331(17) 0.55478(18) 0.16059(12)
O22C O 0.27515(17) 0.12478(17) 0.41642(12)
O23C O 0.18432(17) 0.11404(18) 0.40220(14)
O25A O 0.24280(19) 0.50019(19) 0.18755(18)
O26B O 0.40078(17) 0.56115(16) 0.21503(11)
O27C O 0.07897(17) 0.1878(2) 0.38180(11)
O28B O 0.52815(19) 0.82677(17) 0.76646(16)
O29A O 0.42549(17) 0.7734(2) 0.80073(12)
O30A O 0.26705(17) 0.57198(18) 0.20315(14)
O31A O 0.41458(17) 0.7062(2) 0.77401(12)
O33A O 0.58640(18) 0.4723(2) 0.16247(14)
O35B O 0.55357(19) 0.7313(2) 0.79871(12)
O36C O 0.25174(18) 0.30106(19) 0.72114(15)
O37C O 0.2384(2) 0.2529(3) 0.7584(2)
#END
