
#######################################################################
#
#                 Cambridge Crystallographic Data Centre
#                                CCDC
#
#######################################################################
#
# If this CIF has been generated from an entry in the Cambridge
# Structural Database, then it will include bibliographic, chemical,
# crystal, experimental, refinement or atomic coordinate data resulting
# from the CCDC's data processing and validation procedures.
#
#######################################################################

data_CSD_CIF_XIRYON
_audit_creation_date 2008-02-21
_audit_creation_method CSD-ConQuest-V1
_database_code_CSD XIRYON
_database_code_depnum_ccdc_archive 'CCDC 674297'
_chemical_formula_sum 'C18 H24 N4 O11 Zn1'
_chemical_formula_moiety
;
(C4 H12 N2 2+)n,n(C14 H8 N2 O9 Zn1 2-),2n(H2 O1)
;
_journal_coeditor_code "IUCr BT2642"
_journal_coden_Cambridge 1370
_journal_volume 64
_journal_year 2008
_journal_page_first m111
_journal_name_full 'Acta Crystallogr.,Sect.E:Struct.Rep.Online '
loop_
_publ_author_name
"H.Aghabozorg"
"Z.Derikvand"
"A.Nemati"
"Z.Bahrami"
"J.A.Gharamaleki"
_chemical_name_systematic
;
catena-[Piperazin-1,4-diium 
(\m~2~-pyridine-2,5-dicarboxylato-N,O,O')-(pyridine-2,5-dicarboxylato-N,O)-aqu
a-zinc(ii) dihydrate]
;
_cell_volume   2111.186
_exptl_crystal_colour 'colorless'
_exptl_crystal_density_diffrn 1.692
_exptl_crystal_description 'prism'
_diffrn_ambient_temperature 100
#These two values have been output from a single CSD field.
_refine_ls_R_factor_gt 0.0251
_refine_ls_wR_factor_gt 0.0251
_symmetry_cell_setting monoclinic
_symmetry_space_group_name_H-M 'P 21/c'
_symmetry_Int_Tables_number 14
loop_
_symmetry_equiv_pos_site_id
_symmetry_equiv_pos_as_xyz
1 x,y,z
2 -x,1/2+y,1/2-z
3 -x,-y,-z
4 x,-1/2-y,-1/2+z
_cell_length_a 13.1752(5)
_cell_length_b 11.9066(5)
_cell_length_c 13.6902(5)
_cell_angle_alpha 90
_cell_angle_beta 100.567(1)
_cell_angle_gamma 90
_cell_formula_units_Z 4
loop_
_atom_type_symbol
_atom_type_radius_bond
C 0.68
H 0.23
N 0.68
O 0.68
Zn 1.45
loop_
_atom_site_label
_atom_site_type_symbol
_atom_site_fract_x
_atom_site_fract_y
_atom_site_fract_z
Zn1 Zn 0.157893(10) -0.413714(11) 0.162746(10)
O1 O 0.22982(7) -0.25877(8) 0.17492(7)
O2 O 0.20008(9) -0.07463(9) 0.15203(11)
O3 O -0.32052(7) -0.19745(8) 0.00316(8)
O4 O -0.28405(7) -0.37980(8) 0.01990(8)
O5 O 0.30053(7) -0.48325(7) 0.22242(7)
O6 O 0.38201(7) -0.64637(8) 0.26384(8)
O7 O -0.11016(7) -0.88980(8) 0.19126(7)
O8 O -0.17065(7) -0.73902(8) 0.10247(7)
O9 O 0.18192(7) -0.43941(8) 0.01814(7)
H1 H 0.18260 -0.38670 -0.02030
H2 H 0.21710 -0.49170 0.00410
N1 N 0.03069(8) -0.30642(9) 0.10358(8)
N2 N 0.11783(8) -0.58497(8) 0.17585(8)
C1 C 0.05938(9) -0.19776(10) 0.10974(9)
C2 C -0.01048(10) -0.11078(11) 0.08528(10)
H3 H 0.01230 -0.03490 0.08950
C3 C -0.11439(10) -0.13610(11) 0.05445(10)
H4 H -0.16370 -0.07770 0.03800
C4 C -0.14516(9) -0.24797(10) 0.04793(9)
C5 C -0.06942(9) -0.33022(10) 0.07249(9)
H5 H -0.08980 -0.40680 0.06690
C6 C 0.17291(10) -0.17423(11) 0.14852(10)
C7 C -0.25825(9) -0.27880(11) 0.02066(9)
C8 C 0.20087(9) -0.65035(10) 0.20725(9)
C9 C 0.19325(9) -0.76566(10) 0.21772(9)
H6 H 0.25340 -0.81010 0.23770
C10 C 0.09628(9) -0.8151(1) 0.19858(9)
H7 H 0.08920 -0.89380 0.20640
C11 C 0.00939(9) -0.74839(10) 0.16771(9)
C12 C 0.02468(9) -0.63331(10) 0.15639(9)
H8 H -0.03380 -0.58730 0.13380
C13 C 0.30435(9) -0.5908(1) 0.23404(9)
C14 C -0.09852(9) -0.79664(10) 0.15208(9)
N3 N 0.35861(8) -0.31370(9) 0.36536(8)
H9 H 0.29600 -0.28630 0.37540
H10 H 0.34690 -0.35640 0.30840
N4 N 0.49509(8) -0.22071(9) 0.53234(8)
H11 H 0.50590 -0.17770 0.58920
H12 H 0.55800 -0.24800 0.52330
C15 C 0.42751(10) -0.21754(11) 0.35168(10)
H13 H 0.39330 -0.16960 0.29620
H14 H 0.49260 -0.24630 0.33470
C16 C 0.45104(10) -0.14881(11) 0.44632(10)
H15 H 0.50080 -0.08860 0.43840
H16 H 0.38690 -0.11290 0.45880
C17 C 0.42647(10) -0.31659(11) 0.54554(10)
H17 H 0.36090 -0.28790 0.56160
H18 H 0.46020 -0.36420 0.60140
C18 C 0.40415(10) -0.38587(11) 0.45105(10)
H19 H 0.46890 -0.42020 0.43840
H20 H 0.35550 -0.44710 0.45890
O10 O 0.37141(7) 0.04431(8) 0.14623(7)
H21 H 0.34910 0.09390 0.10650
H22 H 0.32220 0.00280 0.14860
O11 O 0.50510(8) 0.07757(9) 0.31667(8)
H23 H 0.46100 0.06680 0.26690
H24 H 0.55940 0.05160 0.30520
Zn1A Zn -0.157893(10) -0.913714(11) 0.337254(10)
O7A O 0.11016(7) -0.38980(8) 0.30874(7)
#END
