
#######################################################################
#
#                 Cambridge Crystallographic Data Centre
#                                CCDC
#
#######################################################################
#
# If this CIF has been generated from an entry in the Cambridge
# Structural Database, then it will include bibliographic, chemical,
# crystal, experimental, refinement or atomic coordinate data resulting
# from the CCDC's data processing and validation procedures.
#
#######################################################################

data_CSD_CIF_XIVVUW
_audit_creation_date 2019-01-16
_audit_creation_method CSD-ConQuest-V1
_database_code_CSD XIVVUW
_database_code_depnum_ccdc_archive 'CCDC 1855169'
_chemical_formula_sum 'C30 H45 Co3 N3 O25'
_chemical_formula_moiety
;
(C28 H15 Co3 N2 O14 1-)n,C2 H8 N1 1+,11(H2 O1)
;
_journal_coden_Cambridge 179
_journal_volume 57
_journal_year 2018
_journal_page_first 16067
_journal_name_full 'Angew.Chem.,Int.Ed. '
loop_
_publ_author_name
"Hong-Guo Hao"
"Yun-Feng Zhao"
"Di-Ming Chen"
"Jia-Mei Yu"
"Kui Tan"
"Shengqian Ma"
"Y.Chabal"
"Zhi-Ming Zhang"
"Jian-Min Dou"
"Zi-Hui Xiao"
"G.Day"
"Hong-Cai Zhou"
"Tong-Bu Lu"
_chemical_name_systematic
;
catena-[dimethylammonium 
bis(\m-5-(5-carboxylatopyridin-3-yl)benzene-1,3-dicarboxylato)-(\m-hydroxo)-aq
ua-tri-cobalt(ii) undecahydrate unknown solvate]
;
_chemical_name_common
;
TJT-100
;
_cell_volume   9164.559
_exptl_crystal_colour 'violet'
_exptl_crystal_density_diffrn 1.485
_exptl_crystal_description 'rod-like'
_diffrn_ambient_temperature 298
_refine_special_details
;
Disordered solvent molecules were not modelled and the disordered density was 
taken into account using the SQUEEZE/PLATON procedure.
;
#These two values have been output from a single CSD field.
_refine_ls_R_factor_gt 0.0599
_refine_ls_wR_factor_gt 0.0599
_symmetry_cell_setting orthorhombic
_symmetry_space_group_name_H-M 'P b c a'
_symmetry_Int_Tables_number 61
loop_
_symmetry_equiv_pos_site_id
_symmetry_equiv_pos_as_xyz
1 x,y,z
2 1/2-x,-y,1/2+z
3 1/2+x,1/2-y,-z
4 -x,1/2+y,1/2-z
5 -x,-y,-z
6 -1/2+x,y,-1/2-z
7 -1/2-x,-1/2+y,z
8 x,-1/2-y,-1/2+z
_cell_length_a 23.539(2)
_cell_length_b 11.9980(11)
_cell_length_c 32.450(3)
_cell_angle_alpha 90
_cell_angle_beta 90
_cell_angle_gamma 90
_cell_formula_units_Z 8
loop_
_atom_type_symbol
_atom_type_radius_bond
C 0.68
H 0.23
Co 1.26
N 0.68
O 0.68
loop_
_atom_site_label
_atom_site_type_symbol
_atom_site_fract_x
_atom_site_fract_y
_atom_site_fract_z
C1 C 0.46542(17) 0.5026(3) 0.09354(12)
C2 C 0.46755(17) 0.6080(3) 0.06786(12)
C3 C 0.42803(17) 0.6911(3) 0.07632(13)
H1 H 0.40260 0.68130 0.09790
C4 C 0.42571(17) 0.7892(3) 0.05303(13)
C5 C 0.46384(17) 0.8030(3) 0.02100(13)
H2 H 0.46250 0.86740 0.00500
C6 C 0.50417(17) 0.7212(3) 0.01251(12)
C7 C 0.50633(17) 0.6236(3) 0.03598(13)
H3 H 0.53350 0.56940 0.03030
C8 C 0.54479(18) 0.7410(3) -0.02234(12)
C9 C 0.22155(17) 0.8848(3) 0.08169(13)
C10 C 0.28317(16) 0.9188(3) 0.07626(12)
C11 C 0.32515(17) 0.8403(3) 0.06946(12)
H4 H 0.31600 0.76480 0.06990
C12 C 0.38098(16) 0.8731(3) 0.06202(12)
C13 C 0.39229(17) 0.9876(3) 0.06176(12)
H5 H 0.42940 1.01100 0.05690
C14 C 0.29801(17) 1.0305(3) 0.07581(12)
H6 H 0.27010 1.08350 0.08090
C15 C 0.70863(16) 0.1023(3) 0.32691(12)
H7 H 0.73610 0.05010 0.33410
C16 C 0.72546(16) 0.2109(3) 0.32056(12)
C17 C 0.68415(18) 0.2896(3) 0.31039(13)
H8 H 0.69390 0.36430 0.30740
C18 C 0.62826(17) 0.2553(3) 0.30480(12)
C19 C 0.61674(17) 0.1441(3) 0.31134(12)
H9 H 0.57960 0.11980 0.30720
C20 C 0.47455(18) 0.3571(3) 0.20376(12)
C21 C 0.50369(17) 0.3721(3) 0.24505(12)
C22 C 0.55195(17) 0.3120(3) 0.25505(12)
H10 H 0.56580 0.25900 0.23670
C23 C 0.58019(16) 0.3300(3) 0.29257(12)
C24 C 0.55978(18) 0.4118(4) 0.31898(13)
H11 H 0.57950 0.42790 0.34310
C25 C 0.51017(18) 0.4698(3) 0.30991(13)
C26 C 0.48213(18) 0.4485(3) 0.27315(13)
H12 H 0.44850 0.48580 0.26730
C27 C 0.48591(19) 0.5568(4) 0.33855(14)
C28 C 0.78765(17) 0.2402(4) 0.32643(13)
Co1 Co 0.37218(2) 0.41311(4) 0.151737(16)
Co2 Co 0.36756(2) 0.23434(4) 0.069533(16)
Co3 Co 0.48801(2) 0.26737(5) 0.115285(17)
N1 N 0.65523(13) 0.0686(3) 0.32321(10)
N2 N 0.35213(13) 1.0654(3) 0.06813(10)
O1 O 0.43346(12) 0.5071(2) 0.12410(9)
O2 O 0.49561(12) 0.4203(2) 0.08313(9)
O3 O 0.59427(12) 0.6987(3) -0.02024(9)
O4 O 0.53008(13) 0.8025(2) -0.05190(9)
O5 O 0.21152(12) 0.7854(2) 0.07010(9)
O6 O 0.18702(12) 0.9515(2) 0.09589(10)
O7 O 0.50409(12) 0.3181(3) 0.17539(8)
O8 O 0.42317(11) 0.3866(2) 0.20248(8)
O9 O 0.43404(14) 0.5802(3) 0.33500(12)
O10 O 0.51917(13) 0.6004(2) 0.36426(9)
O11 O 0.57564(15) 0.2438(3) 0.11021(14)
O12 O 0.40174(10) 0.2719(2) 0.12220(8)
H13 H 0.39250 0.20970 0.14060
O13 O 0.79950(12) 0.3431(2) 0.32515(9)
O14 O 0.82143(13) 0.1622(3) 0.33210(11)
H14 H 0.571(3) 0.190(3) 0.1271(13)
H15 H 0.5793(11) 0.235(5) 0.0845(4)
N3 N 0.3081(8) 0.5435(17) 0.3070(6)
H16 H 0.34370 0.51690 0.30830
H17 H 0.28880 0.50550 0.28760
C29 C 0.3081(9) 0.6700(18) 0.2975(6)
H18 H 0.32770 0.68320 0.27200
H19 H 0.32690 0.70920 0.31930
H20 H 0.26960 0.69600 0.29520
C30 C 0.2775(10) 0.5343(19) 0.3503(7)
H21 H 0.28330 0.46110 0.36140
H22 H 0.23750 0.54750 0.34690
H23 H 0.29310 0.58880 0.36870
O15 O 0.6673(6) 0.4442(13) 0.0333(4)
Co1C Co 0.62782(2) -0.08689(4) 0.348263(16)
Co1E Co 0.87218(2) 0.41311(4) 0.348263(16)
Co1F Co 0.12782(2) 0.91311(4) 0.151737(16)
Co2* Co 0.36756(2) 1.23434(4) 0.069533(16)
Co2D Co 0.63244(2) 0.76566(4) -0.069533(16)
Co2F Co 0.13244(2) 0.73434(4) 0.069533(16)
Co3C Co 0.51199(2) 0.76737(5) 0.384715(17)
Co3D Co 0.51199(2) 0.73263(5) -0.115285(17)
N1C N 0.34477(13) 0.5686(3) 0.17679(10)
N2* N 0.35213(13) 0.0654(3) 0.06813(10)
O3D O 0.40573(12) 0.3013(3) 0.02024(9)
O4D O 0.46992(13) 0.1975(2) 0.05190(9)
O5F O 0.28848(12) 0.2854(2) 0.07010(9)
O6F O 0.31298(12) 0.4515(2) 0.09589(10)
O10C O 0.48083(13) 0.1004(2) 0.13574(9)
O13E O 0.29950(12) 0.3431(2) 0.17485(9)
#END
