
#######################################################################
#
#                 Cambridge Crystallographic Data Centre
#                                CCDC
#
#######################################################################
#
# If this CIF has been generated from an entry in the Cambridge
# Structural Database, then it will include bibliographic, chemical,
# crystal, experimental, refinement or atomic coordinate data resulting
# from the CCDC's data processing and validation procedures.
#
#######################################################################

data_CSD_CIF_XIYYEL
_audit_creation_date 2014-01-22
_audit_creation_method CSD-ConQuest-V1
_database_code_CSD XIYYEL
_database_code_depnum_ccdc_archive 'CCDC 921302'
_chemical_formula_sum 'C18 H48 N6 O20 S2 Zn2'
_chemical_formula_moiety
;
(C6 O12 Zn2 2-)n,6n(C2 H8 N1 1+),2n(O4 S1 2-)
;
_journal_coden_Cambridge 179
_journal_volume 53
_journal_year 2014
_journal_page_first 2638
_journal_name_full 'Angew.Chem.,Int.Ed. '
loop_
_publ_author_name
"S.S.Nagarkar"
"S.M.Unni"
"A.Sharma"
"B.Joarder"
"S.Kurungot"
"S.K.Ghosh"
_chemical_name_systematic
;
catena-[hexakis(dimethylammonium) disulfate tris(\m~2~-oxalato)-di-zinc]
;
_cell_volume   3631.670
_exptl_crystal_colour 'white'
_exptl_crystal_description 'block'
_diffrn_ambient_temperature 200
#These two values have been output from a single CSD field.
_refine_ls_R_factor_gt 0.077
_refine_ls_wR_factor_gt 0.077
_symmetry_cell_setting cubic
_symmetry_space_group_name_H-M 'I 41 3 2'
_symmetry_Int_Tables_number 214
loop_
_symmetry_equiv_pos_site_id
_symmetry_equiv_pos_as_xyz
1 x,y,z
2 1/4+x,1/4-z,3/4+y
3 1/4+x,3/4+z,3/4-y
4 1/4+z,3/4+y,3/4-x
5 1/4-z,3/4+y,1/4+x
6 1/4-y,3/4+x,1/4+z
7 1/4+y,1/4-x,3/4+z
8 z,x,y
9 y,z,x
10 -y,1/2-z,x
11 z,-x,1/2-y
12 1/2-y,z,-x
13 -z,1/2-x,y
14 1/2-z,x,-y
15 y,-z,1/2-x
16 x,-y,1/2-z
17 1/2-x,y,-z
18 -x,1/2-y,z
19 1/4+y,3/4+x,3/4-z
20 1/4-y,1/4-x,1/4-z
21 1/4+z,1/4-y,3/4+x
22 1/4-z,1/4-y,1/4-x
23 1/4-x,3/4+z,1/4+y
24 1/4-x,1/4-z,1/4-y
25 1/2+x,1/2+y,1/2+z
26 3/4+x,3/4-z,1/4+y
27 3/4+x,1/4+z,1/4-y
28 3/4+z,1/4+y,1/4-x
29 3/4-z,1/4+y,3/4+x
30 3/4-y,1/4+x,3/4+z
31 3/4+y,3/4-x,1/4+z
32 1/2+z,1/2+x,1/2+y
33 1/2+y,1/2+z,1/2+x
34 1/2-y,-z,1/2+x
35 1/2+z,1/2-x,-y
36 -y,1/2+z,1/2-x
37 1/2-z,-x,1/2+y
38 -z,1/2+x,1/2-y
39 1/2+y,1/2-z,-x
40 1/2+x,1/2-y,-z
41 -x,1/2+y,1/2-z
42 1/2-x,-y,1/2+z
43 3/4+y,1/4+x,1/4-z
44 3/4-y,3/4-x,3/4-z
45 3/4+z,3/4-y,1/4+x
46 3/4-z,3/4-y,3/4-x
47 3/4-x,1/4+z,3/4+y
48 3/4-x,3/4-z,3/4-y
_cell_length_a 15.371(2)
_cell_length_b 15.371(2)
_cell_length_c 15.371(2)
_cell_angle_alpha 90
_cell_angle_beta 90
_cell_angle_gamma 90
_cell_formula_units_Z 4
loop_
_atom_type_symbol
_atom_type_radius_bond
C 0.68
H 0.23
N 0.68
O 0.68
S 1.02
Zn 1.22
loop_
_atom_site_label
_atom_site_type_symbol
_atom_site_fract_x
_atom_site_fract_y
_atom_site_fract_z
Zn1 Zn 1.12500 0.62500 0.87500
O1 O 0.9889(3) 0.6363(3) 0.8789(4)
C1 C 0.9633(4) 0.7133(4) 0.87500
S1 S 0.62500 0.37500 0.87500
O2 O 0.6771(7) 0.3156(7) 0.9328(10)
O3 O 0.5699(7) 0.4301(7) 0.9301(7)
N1 N 0.8565(5) 0.37500 0.8935(5)
C2 C 0.8933(9) 0.4544(8) 0.8720(11)
H1 H 0.95470 0.44720 0.86340
H2 H 0.88330 0.49520 0.91820
H3 H 0.86730 0.47580 0.81940
H4 H 0.792(5) 0.386(5) 0.902(4)
O1Q O 1.0111(3) 0.8637(3) 0.8789(4)
C1Q C 1.0367(4) 0.7867(4) 0.87500
O1R O 0.8863(3) 0.7389(3) 0.8711(4)
O1QA O 1.1137(3) 0.7611(3) 0.8711(4)
Zn1J Zn 0.87500 0.87500 0.87500
O1T O 1.1289(3) 0.6137(3) 0.7389(4)
C1L C 1.1250(4) 0.5367(4) 0.71330
O1C O 1.1289(3) 0.3863(3) 0.7611(4)
C1C C 1.1250(4) 0.4633(4) 0.78670
O1L O 1.1211(3) 0.5111(3) 0.6363(4)
O1KA O 1.1211(3) 0.4889(3) 0.8637(4)
O1V O 1.2611(3) 0.6289(3) 0.8863(4)
C1I C 1.2867(4) 0.6250(4) 0.96330
O1B O 1.2389(3) 0.6289(3) 1.1137(4)
C1B C 1.2133(4) 0.6250(4) 1.03670
O1I O 1.3637(3) 0.6211(3) 0.9889(4)
O1LA O 1.1363(3) 0.6211(3) 1.0111(4)
Zn1B Zn 1.37500 0.62500 1.12500
Zn1C Zn 1.12500 0.37500 0.62500
O1J O 0.8789(3) 1.0111(3) 0.8637(4)
O1K O 0.8637(3) 0.8789(3) 1.0111(4)
O1Y O 0.7389(3) 0.8711(3) 0.8863(4)
O1BA O 0.8711(3) 0.8863(3) 0.7389(4)
O2R O 0.5656(7) 0.4271(7) 0.8172(10)
O3R O 0.6801(7) 0.3199(7) 0.8199(7)
O2W O 0.5729(7) 0.3172(7) 0.9344(10)
O2IA O 0.6844(7) 0.4328(7) 0.8229(10)
O2JA O 0.5672(7) 0.3229(7) 0.8156(10)
O2RA O 0.6828(7) 0.4344(7) 0.9271(10)
C2SA C 0.8780(9) 0.2956(8) 0.8567(11)
H1SA H 0.88660 0.30280 0.79530
H2SA H 0.83180 0.25480 0.86670
H3SA H 0.93060 0.27420 0.88270
H4SA H 0.848(5) 0.364(5) 0.958(4)
#END
