
#######################################################################
#
#                 Cambridge Crystallographic Data Centre
#                                CCDC
#
#######################################################################
#
# If this CIF has been generated from an entry in the Cambridge
# Structural Database, then it will include bibliographic, chemical,
# crystal, experimental, refinement or atomic coordinate data resulting
# from the CCDC's data processing and validation procedures.
#
#######################################################################

data_CSD_CIF_XIZKAT
_audit_creation_date 2008-10-31
_audit_creation_method CSD-ConQuest-V1
_database_code_CSD XIZKAT
_database_code_depnum_ccdc_archive 'CCDC 666781'
_chemical_formula_sum 'C38 H60 Cu2 F4 N14 O44 Si1 W12'
_chemical_formula_moiety
;
(C6 H16 N1 1+)2n,n(C26 H24 Cu2 F4 N12 O42 Si1 W12 2-),2n(H2 O1)
;
_journal_coden_Cambridge 222
_journal_year 2008
_journal_page_first 2015
_journal_name_full 'Dalton Trans. '
loop_
_publ_author_name
"Shun-Li Li"
"Ya-Qian Lan"
"Jian-Fang Ma"
"Jin Yang"
"Jie Liu"
"Yao-Mei Fu"
"Z.-M.Su"
_chemical_name_systematic
;
catena-(bis(Triethylammonium) 
(\m~12~-silicato)-(\m~3~-oxo)-bis(\m~2~-1-(2,4-difluorophenyl)-1,1-bis((1H-1,2
,4-triazol-1-yl)methyl)methanol)-tetracosakis(\m~2~-oxo)-undecaoxo-di-copper(i
)-dodeca-tungsten dihydrate)
;
_cell_volume   7626.938
_exptl_crystal_colour 'yellow'
_exptl_crystal_density_diffrn 3.357
_exptl_crystal_description 'column'
_diffrn_ambient_temperature 293
#These two values have been output from a single CSD field.
_refine_ls_R_factor_gt 0.0483
_refine_ls_wR_factor_gt 0.0483
_symmetry_cell_setting orthorhombic
_symmetry_space_group_name_H-M 'P c a 21'
_symmetry_Int_Tables_number 29
loop_
_symmetry_equiv_pos_site_id
_symmetry_equiv_pos_as_xyz
1 x,y,z
2 -x,-y,1/2+z
3 1/2-x,y,1/2+z
4 1/2+x,-y,z
_cell_length_a 23.9330(7)
_cell_length_b 14.0350(11)
_cell_length_c 22.7060(12)
_cell_angle_alpha 90
_cell_angle_beta 90
_cell_angle_gamma 90
_cell_formula_units_Z 4
loop_
_atom_type_symbol
_atom_type_radius_bond
C 0.68
H 0.23
Cu 1.61
F 0.64
N 0.68
O 0.73
Si 1.20
W 1.37
loop_
_atom_site_label
_atom_site_type_symbol
_atom_site_fract_x
_atom_site_fract_y
_atom_site_fract_z
Cu1 Cu 0.47594(10) 0.5105(2) 0.48712(13)
Cu2 Cu 0.46959(9) 0.97192(19) 0.47492(12)
W1 W 0.38962(2) 0.71324(4) 0.68167(3)
W2 W 0.64145(3) 0.64553(4) 0.69051(3)
W3 W 0.54293(3) 0.57663(4) 0.80575(3)
W4 W 0.62304(3) 0.85377(4) 0.61528(3)
W5 W 0.43077(3) 0.71889(4) 0.83574(3)
W6 W 0.50129(3) 0.56820(4) 0.65201(3)
W7 W 0.48299(3) 0.77496(5) 0.57462(3)
W8 W 0.54252(3) 1.01154(4) 0.79240(3)
W9 W 0.50336(3) 1.00434(4) 0.64725(3)
W10 W 0.66139(3) 0.85919(4) 0.76043(3)
W11 W 0.56186(3) 0.79058(4) 0.87368(3)
W12 W 0.41082(3) 0.94035(4) 0.75410(3)
Si1 Si 0.52439(17) 0.7879(2) 0.72321(17)
F1 F 0.3849(8) 0.6552(13) 0.4255(10)
F2 F 0.2755(7) 0.8945(11) 0.3408(6)
F3 F 0.7846(7) 0.6784(15) 0.3945(8)
F4 F 0.777(1) 0.4012(19) 0.2846(8)
C1 C 0.3642(9) 1.016(2) 0.5417(11)
H1 H 0.37940 1.01240 0.57930
C2 C 0.3568(7) 1.0112(11) 0.4482(8)
H2 H 0.36390 1.00330 0.40830
C3 C 0.2534(7) 1.0407(12) 0.4409(8)
H3 H 0.25810 1.05360 0.39920
H4 H 0.23120 1.09160 0.45770
C4 C 0.2237(6) 0.948(1) 0.4488(7)
C5 C 0.1739(7) 0.9375(15) 0.4040(9)
H5 H 0.18660 0.95580 0.36500
H6 H 0.16260 0.87110 0.40230
C6 C 0.0788(6) 0.9653(13) 0.4420(8)
H7 H 0.07110 0.90190 0.45070
C7 C 0.0773(7) 1.1117(15) 0.4335(10)
H8 H 0.06540 1.17470 0.43550
C8 C 0.2639(6) 0.8646(13) 0.4415(8)
C9 C 0.2813(10) 0.8123(13) 0.4867(8)
H9 H 0.26460 0.82510 0.52280
C10 C 0.3210(11) 0.7414(17) 0.4865(12)
H10 H 0.33060 0.70710 0.52010
C11 C 0.3466(10) 0.7246(17) 0.4298(12)
C12 C 0.3294(11) 0.7740(17) 0.3814(11)
H11 H 0.34540 0.76170 0.34480
C13 C 0.2889(8) 0.8412(15) 0.3868(8)
C14 C 0.8720(9) 0.4795(17) 0.5481(11)
H12 H 0.88410 0.42410 0.56650
C15 C 0.8738(7) 0.6023(14) 0.4919(10)
H13 H 0.88480 0.64810 0.46470
C16 C 0.7757(8) 0.6582(15) 0.5169(12)
H14 H 0.76660 0.68300 0.55560
H15 H 0.78360 0.71210 0.49140
C17 C 0.5879(8) 0.5894(16) 0.4962(8)
H16 H 0.59020 0.58200 0.53690
C18 C 0.5602(10) 0.5868(19) 0.4099(12)
H17 H 0.53800 0.57720 0.37680
C19 C 0.6778(8) 0.6750(14) 0.4814(9)
H18 H 0.67200 0.71100 0.51740
H19 H 0.68990 0.71890 0.45100
C20 C 0.7227(7) 0.6017(12) 0.4915(7)
C21 C 0.7382(6) 0.5497(12) 0.4332(8)
C22 C 0.7696(11) 0.5939(16) 0.3921(10)
C23 C 0.7782(14) 0.545(3) 0.3365(12)
H20 H 0.79290 0.57590 0.30390
C24 C 0.7636(12) 0.450(3) 0.3341(11)
C25 C 0.7367(11) 0.4107(18) 0.3754(12)
H21 H 0.72680 0.34690 0.37180
C26 C 0.7216(8) 0.4594(14) 0.4256(8)
H22 H 0.69990 0.42970 0.45420
C27 C 0.366(2) 0.389(3) 0.711(2)
H23 H 0.34780 0.40280 0.67380
H24 H 0.40440 0.41290 0.70690
C28 C 0.3389(19) 0.449(3) 0.756(2)
H25 H 0.34140 0.51450 0.74530
H26 H 0.35720 0.43920 0.79340
H27 H 0.30040 0.43050 0.75950
C29 C 0.315(4) 0.246(5) 0.716(3)
H28 H 0.28680 0.29580 0.71310
H29 H 0.30800 0.20980 0.75150
C30 C 0.3104(18) 0.180(3) 0.6624(18)
H30 H 0.27280 0.15740 0.65870
H31 H 0.33530 0.12730 0.66740
H32 H 0.32050 0.21500 0.62760
C31 C 0.394(3) 0.248(4) 0.768(3)
H33 H 0.37480 0.27450 0.80190
H34 H 0.38750 0.17940 0.76860
C32 C 0.452(2) 0.263(3) 0.775(2)
H35 H 0.46430 0.23250 0.81080
H36 H 0.45880 0.33050 0.77830
H37 H 0.47160 0.23770 0.74230
C33 C 0.6317(16) 0.229(3) 0.5833(18)
H38 H 0.59950 0.18690 0.58360
H39 H 0.66250 0.19080 0.56880
C34 C 0.620(2) 0.297(3) 0.535(2)
H40 H 0.60580 0.26270 0.50150
H41 H 0.65380 0.32910 0.52420
H42 H 0.59280 0.34260 0.54780
C35 C 0.6620(15) 0.132(3) 0.670(2)
H43 H 0.64640 0.12150 0.70850
H44 H 0.64830 0.08360 0.64320
C36 C 0.7238(14) 0.132(3) 0.6718(18)
H45 H 0.73680 0.06790 0.67770
H46 H 0.73630 0.17140 0.70360
H47 H 0.73830 0.15600 0.63530
C37 C 0.595(2) 0.277(3) 0.6671(18)
H48 H 0.56980 0.22470 0.67360
H49 H 0.57810 0.32090 0.63940
C38 C 0.607(2) 0.331(4) 0.728(2)
H50 H 0.58260 0.30640 0.75750
H51 H 0.60090 0.39780 0.72270
H52 H 0.64530 0.32010 0.73920
N1 N 0.3936(6) 0.9962(10) 0.4883(8)
N2 N 0.3128(6) 1.0413(14) 0.5296(9)
N3 N 0.3077(6) 1.0387(10) 0.4691(6)
N4 N 0.0429(6) 1.0364(11) 0.4507(8)
N5 N 0.1259(5) 0.9952(12) 0.4198(6)
N6 N 0.1254(6) 1.0897(11) 0.4150(6)
N7 N 0.5454(7) 0.5590(11) 0.4636(7)
N8 N 0.6110(8) 0.6307(16) 0.4079(8)
N9 N 0.6262(6) 0.6311(10) 0.4640(7)
N10 N 0.9023(6) 0.5292(12) 0.5089(7)
N11 N 0.8250(6) 0.5994(10) 0.5212(8)
N12 N 0.8225(7) 0.5197(15) 0.5573(7)
N13 N 0.3701(10) 0.2860(16) 0.7161(10)
N14 N 0.6443(8) 0.2439(15) 0.6445(9)
O1 O 0.4715(5) 0.785(1) 0.5016(5)
O2 O 0.4970(6) 0.4562(8) 0.6229(6)
O3 O 0.7232(5) 0.3882(9) 0.6265(7)
O4 O 0.6918(5) 0.5634(9) 0.6782(6)
O5 O 0.4324(13) 0.2766(19) 0.6133(13)
O6 O 0.5535(6) 0.4696(8) 0.8363(5)
O7 O 0.5856(7) 0.8059(10) 0.9428(5)
O8 O 0.5586(6) 1.1103(9) 0.8306(6)
O9 O 0.3512(5) 0.9958(8) 0.7706(6)
O10 O 0.4971(6) 1.0976(9) 0.6015(6)
O11 O 0.6626(6) 0.8900(9) 0.5582(6)
O12 O 0.7227(5) 0.8977(9) 0.7876(6)
O13 O 0.3783(6) 0.6981(10) 0.8836(5)
O14 O 0.3217(6) 0.6842(10) 0.6715(7)
O15 O 0.4064(7) 0.7523(10) 0.6026(6)
O16 O 0.5601(5) 0.7934(8) 0.5809(5)
O17 O 0.6699(5) 0.8940(8) 0.6777(6)
O18 O 0.6255(6) 0.8040(8) 0.8252(6)
O19 O 0.4859(6) 0.7655(9) 0.8942(6)
O20 O 0.5717(6) 0.6535(9) 0.8695(6)
O21 O 0.4696(6) 0.5990(8) 0.8399(6)
O22 O 0.4632(6) 1.0167(11) 0.7968(5)
O23 O 0.4153(6) 0.8485(8) 0.8150(5)
O24 O 0.3849(6) 0.8416(8) 0.7041(5)
O25 O 0.4313(5) 1.0146(9) 0.6861(5)
O26 O 0.3985(7) 0.6852(9) 0.7629(6)
O27 O 0.6074(5) 0.6026(11) 0.7601(5)
O28 O 0.6840(7) 0.7322(8) 0.7373(6)
O29 O 0.6532(6) 0.7279(8) 0.6254(5)
O30 O 0.5743(5) 0.9542(10) 0.6316(6)
O31 O 0.4930(5) 0.6381(9) 0.5794(6)
O32 O 0.4760(5) 0.9039(8) 0.6017(6)
O33 O 0.5776(5) 0.5952(10) 0.6501(5)
O34 O 0.4226(5) 0.5921(8) 0.6633(5)
O35 O 0.5427(5) 0.9173(9) 0.8517(7)
O36 O 0.5361(5) 1.0672(9) 0.7143(5)
O37 O 0.6125(5) 0.9627(8) 0.7680(5)
O38 O 0.5053(5) 0.5483(10) 0.7312(5)
O39 O 0.5894(5) 0.7861(8) 0.7026(5)
O40 O 0.4866(4) 0.7308(7) 0.6754(5)
O41 O 0.5026(4) 0.8980(7) 0.7273(5)
O42 O 0.5165(4) 0.7389(9) 0.7877(5)
O43 O 0.2005(5) 0.9396(8) 0.5061(5)
H53 H 0.17810 0.98290 0.51150
O44 O 0.7019(5) 0.5395(10) 0.5325(5)
H54 H 0.69440 0.56860 0.56280
Cu1C Cu 0.97594(10) 0.4895(2) 0.48712(13)
Cu2C Cu -0.03041(9) 1.02808(19) 0.47492(12)
N4C N 0.5429(6) 0.9636(11) 0.4507(8)
N10C N 0.4023(6) 0.4708(12) 0.5089(7)
#END
