
#######################################################################
#
#                 Cambridge Crystallographic Data Centre
#                                CCDC
#
#######################################################################
#
# If this CIF has been generated from an entry in the Cambridge
# Structural Database, then it will include bibliographic, chemical,
# crystal, experimental, refinement or atomic coordinate data resulting
# from the CCDC's data processing and validation procedures.
#
#######################################################################

data_CSD_CIF_XIZPOO
_audit_creation_date 2019-01-19
_audit_creation_method CSD-ConQuest-V1
_database_code_CSD XIZPOO
_database_code_depnum_ccdc_archive 'CCDC 1425252'
_chemical_formula_sum 'C10 H12 Cd1 Cl2 N6 O5'
_chemical_formula_moiety
;
(C5 H4 Cd1 Cl2 N3 O2 1-)n,C5 H6 N3 O2 1+,H2 O1
;
_journal_coeditor_code "fp3058"
_journal_coden_Cambridge 1777
_journal_volume 75
_journal_year 2019
_journal_page_first 120
_journal_name_full 'Acta Crystallogr.,Sect.C:Cryst.Struct.Chem. '
loop_
_publ_author_name
"R.Bouchene"
"S.Bouacida"
_chemical_name_systematic
;
catena-[2-amino-3-carboxy-pyrazin-1-ium 
bis(\m-chloro)-(2-amino-3-carboxylato-pyrazine)-cadmium(ii) monohydrate]
;
_cell_volume   3126.236
_exptl_crystal_colour 'yellow'
_exptl_crystal_density_diffrn 2.038
_exptl_crystal_description 'prism'
_diffrn_ambient_temperature 150
#These two values have been output from a single CSD field.
_refine_ls_R_factor_gt 0.0285
_refine_ls_wR_factor_gt 0.0285
_symmetry_cell_setting orthorhombic
_symmetry_space_group_name_H-M 'P c a b'
_symmetry_Int_Tables_number 61
loop_
_symmetry_equiv_pos_site_id
_symmetry_equiv_pos_as_xyz
1 x,y,z
2 -x,1/2-y,1/2+z
3 1/2+x,-y,1/2-z
4 1/2-x,1/2+y,-z
5 -x,-y,-z
6 x,-1/2+y,-1/2-z
7 -1/2-x,y,-1/2+z
8 -1/2+x,-1/2-y,z
_cell_length_a 7.2637(2)
_cell_length_b 17.7011(5)
_cell_length_c 24.3144(5)
_cell_angle_alpha 90
_cell_angle_beta 90
_cell_angle_gamma 90
_cell_formula_units_Z 8
loop_
_atom_type_symbol
_atom_type_radius_bond
C 0.68
H 0.23
Cd 1.44
Cl 0.99
N 0.68
O 0.68
loop_
_atom_site_label
_atom_site_type_symbol
_atom_site_fract_x
_atom_site_fract_y
_atom_site_fract_z
Cd1 Cd 0.59301(3) 0.707208(10) 0.095661(7)
Cl1 Cl 0.78224(9) 0.79847(3) 0.03572(2)
Cl2 Cl 0.39472(9) 0.78584(3) 0.16052(3)
O1 O 0.6969(2) 0.61123(9) 0.04216(7)
O2 O 0.7025(2) 0.48846(9) 0.02306(7)
N1 N 0.5193(3) 0.58806(11) 0.13710(8)
N2 N 0.4076(3) 0.44513(12) 0.17066(9)
N3 N 0.5187(3) 0.39278(12) 0.09042(8)
H1 H 0.48030 0.34960 0.10180
H2 H 0.57290 0.39640 0.05910
C1 C 0.4367(4) 0.57804(15) 0.18563(10)
H3 H 0.41580 0.61910 0.20870
C2 C 0.6560(3) 0.54351(13) 0.05262(10)
C3 C 0.3821(4) 0.50600(15) 0.20151(10)
H4 H 0.32480 0.50020 0.23550
C4 C 0.4942(4) 0.45445(13) 0.12153(9)
C5 C 0.5519(3) 0.52824(15) 0.10494(10)
O3 O 0.9146(3) 0.26294(11) 0.12133(8)
O4 O 0.7794(3) 0.31984(9) 0.19271(7)
H5 H 0.74620 0.27660 0.19980
N4 N 1.0915(3) 0.34875(13) 0.04737(9)
H6 H 1.15350 0.35770 0.01790
H7 H 1.05680 0.30350 0.05480
N5 N 0.9131(3) 0.45382(12) 0.16369(9)
N6 N 1.1063(3) 0.47511(12) 0.06822(9)
H8 H 1.16730 0.48240 0.03840
C6 C 0.8797(4) 0.31950(15) 0.14814(10)
C7 C 1.0695(4) 0.53453(16) 0.10111(11)
H9 H 1.10830 0.58280 0.09140
C8 C 0.9747(4) 0.52307(14) 0.1488(1)
H10 H 0.95170 0.56400 0.17180
C9 C 1.0501(4) 0.40408(14) 0.08079(10)
C10 C 0.9480(4) 0.39624(14) 0.13115(10)
O5 O 0.7245(3) 0.18053(11) 0.22195(7)
H11 H 0.791(4) 0.1472(16) 0.2057(10)
H12 H 0.769(4) 0.1809(15) 0.2545(8)
Cd1G Cd 0.09301(3) 0.792792(10) 0.095661(7)
Cd1G* Cd 1.09301(3) 0.792792(10) 0.095661(7)
Cl1G Cl 0.28224(9) 0.70153(3) 0.03572(2)
Cl2G Cl 0.89472(9) 0.71416(3) 0.16052(3)
#END
