
#######################################################################
#
#                 Cambridge Crystallographic Data Centre
#                                CCDC
#
#######################################################################
#
# If this CIF has been generated from an entry in the Cambridge
# Structural Database, then it will include bibliographic, chemical,
# crystal, experimental, refinement or atomic coordinate data resulting
# from the CCDC's data processing and validation procedures.
#
#######################################################################

data_CSD_CIF_XOBREM
_audit_creation_date 2008-10-31
_audit_creation_method CSD-ConQuest-V1
_database_code_CSD XOBREM
_database_code_depnum_ccdc_archive 'CCDC 662784'
_chemical_formula_sum 'C48 H40 N10 O12 Zn4'
_chemical_formula_moiety
;
(C42 H24 N9 O12 Zn4 1-)n,n(C6 H16 N1 1+)
;
_journal_coden_Cambridge 182
_journal_year 2008
_journal_page_first 2532
_journal_name_full 'Chem.Commun. '
loop_
_publ_author_name
"Ye-Yan Qin"
"Jian Zhang"
"Zhao-Ji Li"
"Lei Zhang"
"Xin-Yi Cao"
"Yuan-Gen Yao"
_chemical_name_systematic
;
catena-(tris(\m~3~-Benzotriazolato-N,N',N'')-tris(\m~3~-isophthalato-O,O',O'')
-tetra-zinc(ii) triethylammonium clathrate)
;
_cell_volume  11298.987
_exptl_crystal_colour 'white'
_exptl_crystal_density_diffrn 1.423
_exptl_special_details
;
photoluminescent

;
_exptl_crystal_description 'Prism'
_diffrn_ambient_temperature 293
_refine_special_details
;
The ethyl groups are slightly disordered although the disorder was not 
modelled.
;
#These two values have been output from a single CSD field.
_refine_ls_R_factor_gt 0.0408
_refine_ls_wR_factor_gt 0.0408
_symmetry_cell_setting cubic
_symmetry_space_group_name_H-M 'P a -3'
_symmetry_Int_Tables_number 205
loop_
_symmetry_equiv_pos_site_id
_symmetry_equiv_pos_as_xyz
1 x,y,z
2 z,x,y
3 y,z,x
4 1/2-x,-y,1/2+z
5 -x,1/2+y,1/2-z
6 1/2+x,1/2-y,-z
7 1/2+z,1/2-x,-y
8 1/2-z,-x,1/2+y
9 -z,1/2+x,1/2-y
10 -y,1/2+z,1/2-x
11 1/2+y,1/2-z,-x
12 1/2-y,-z,1/2+x
13 -x,-y,-z
14 -z,-x,-y
15 -y,-z,-x
16 -1/2+x,y,-1/2-z
17 x,-1/2-y,-1/2+z
18 -1/2-x,-1/2+y,z
19 -1/2-z,-1/2+x,y
20 -1/2+z,x,-1/2-y
21 z,-1/2-x,-1/2+y
22 y,-1/2-z,-1/2+x
23 -1/2-y,-1/2+z,x
24 -1/2+y,z,-1/2-x
_cell_length_a 22.4395(2)
_cell_length_b 22.4395(2)
_cell_length_c 22.4395(2)
_cell_angle_alpha 90
_cell_angle_beta 90
_cell_angle_gamma 90
_cell_formula_units_Z 8
loop_
_atom_type_symbol
_atom_type_radius_bond
C 0.68
H 0.23
N 0.68
O 0.68
Zn 1.45
loop_
_atom_site_label
_atom_site_type_symbol
_atom_site_fract_x
_atom_site_fract_y
_atom_site_fract_z
Zn1 Zn 0.137250(11) -0.362750(11) -0.137250(11)
Zn2 Zn 0.191960(12) -0.447850(12) -0.260160(12)
O1 O -0.10388(11) -0.66337(12) -0.23812(12)
O2 O -0.01263(10) -0.67139(9) -0.27228(9)
O3 O 0.13093(8) -0.50646(9) -0.23496(9)
O4 O 0.11652(8) -0.44993(7) -0.15486(8)
N1 N 0.27528(9) -0.36354(9) -0.12224(10)
N2 N 0.23042(8) -0.38241(9) -0.15596(9)
N3 N 0.24935(9) -0.42078(10) -0.19693(9)
C1 C 0.32576(11) -0.39074(13) -0.14212(13)
C2 C 0.30934(11) -0.42705(12) -0.18975(13)
C3 C 0.35157(14) -0.46166(17) -0.22077(17)
H1 H 0.34080 -0.48640 -0.25220
C4 C 0.40922(15) -0.4568(2) -0.2020(2)
H2 H 0.43850 -0.47850 -0.22170
C5 C 0.42602(14) -0.4202(2) -0.1540(2)
H3 H 0.46590 -0.41880 -0.14280
C6 C 0.38540(13) -0.38657(17) -0.12323(18)
H4 H 0.39660 -0.36230 -0.09160
C7 C 0.04009(10) -0.51663(10) -0.18236(10)
C8 C 0.02334(11) -0.56738(10) -0.21395(10)
H5 H 0.05050 -0.58600 -0.23910
C9 C -0.03389(11) -0.59031(11) -0.20802(11)
C10 C -0.07467(11) -0.56227(12) -0.17083(13)
H6 H -0.11320 -0.57720 -0.16740
C11 C -0.05800(12) -0.51209(13) -0.13890(14)
H7 H -0.08520 -0.49350 -0.11380
C12 C -0.00066(12) -0.48952(11) -0.14446(12)
H8 H 0.01050 -0.45610 -0.12270
C13 C 0.10017(10) -0.48909(10) -0.19081(11)
C14 C -0.05254(13) -0.64518(12) -0.24126(12)
N4 N 0.2900(4) -0.2100(4) -0.2900(4)
H9 H 0.31120 -0.18880 -0.31120
C15 C 0.2656(9) -0.1246(6) -0.2142(8)
C16 C 0.2635(11) -0.1855(8) -0.2296(8)
Zn2C Zn 0.308040(12) -0.552150(12) 0.239840(12)
Zn2G Zn -0.239840(12) -0.191960(12) 0.052150(12)
Zn2K Zn -0.052150(12) -0.739840(12) -0.308040(12)
Zn2H Zn 0.260160(12) -0.308040(12) -0.052150(12)
Zn2J Zn 0.052150(12) -0.239840(12) -0.191960(12)
O1H O 0.23812(11) -0.60388(12) 0.16337(12)
O1J O -0.16337(11) -0.26188(12) 0.10388(12)
O2H O 0.27228(10) -0.51263(9) 0.17139(9)
O2J O -0.17139(10) -0.22772(9) 0.01263(9)
O2D O 0.01263(10) -0.17139(9) -0.22772(9)
O2F O 0.22772(10) -0.48737(9) -0.32861(9)
O2B O 0.32861(10) -0.27228(9) -0.01263(9)
O3H O 0.23496(8) -0.36907(9) 0.00646(9)
O3J O -0.00646(8) -0.26504(9) -0.13093(9)
O4H O 0.15486(8) -0.38348(7) -0.05007(8)
O4J O 0.05007(8) -0.34514(7) -0.11652(8)
N1H N 0.12224(9) -0.22472(9) -0.13646(10)
N1J N 0.13646(9) -0.37776(9) -0.27528(10)
N2H N 0.15596(8) -0.26958(9) -0.11759(9)
N2J N 0.11759(8) -0.34404(9) -0.23042(9)
N3H N 0.19693(9) -0.25065(10) -0.07922(9)
N3J N 0.07922(9) -0.30307(10) -0.24935(9)
C1H C 0.14212(11) -0.17424(13) -0.10926(13)
C1J C 0.10926(11) -0.35788(13) -0.32576(13)
C2H C 0.18975(11) -0.19066(12) -0.07295(13)
C2J C 0.07295(11) -0.31025(12) -0.30934(13)
C3H C 0.22077(14) -0.14843(17) -0.03834(17)
C3J C 0.03834(14) -0.27923(17) -0.35157(17)
H1H H 0.25220 -0.15920 -0.01360
H1J H 0.01360 -0.24780 -0.34080
C4H C 0.20200(15) -0.09078(20) -0.0432(2)
C4J C 0.04320(15) -0.2980(2) -0.40922(20)
H2H H 0.22170 -0.06150 -0.02150
H2J H 0.02150 -0.27830 -0.43850
C5H C 0.15400(14) -0.07398(20) -0.0798(2)
C5J C 0.07980(14) -0.3460(2) -0.42602(20)
H3H H 0.14280 -0.03410 -0.08120
H3J H 0.08120 -0.35720 -0.46590
C6H C 0.12323(13) -0.11460(17) -0.11343(18)
C6J C 0.11343(13) -0.37677(17) -0.38540(18)
H4H H 0.09160 -0.10340 -0.13770
H4J H 0.13770 -0.40840 -0.39660
C7H C 0.18236(10) -0.45991(10) 0.01663(10)
C7J C -0.01663(10) -0.31764(10) -0.04009(10)
C8H C 0.21395(11) -0.47666(10) 0.06738(10)
C8J C -0.06738(11) -0.28605(10) -0.02334(10)
H5H H 0.23910 -0.44950 0.08600
H5J H -0.08600 -0.26090 -0.05050
C9H C 0.20802(11) -0.53389(11) 0.09031(11)
C9J C -0.09031(11) -0.29198(11) 0.03389(11)
C10H C 0.17083(11) -0.57467(12) 0.06227(13)
C10J C -0.06227(11) -0.32917(12) 0.07467(13)
H6H H 0.16740 -0.61320 0.07720
H6J H -0.07720 -0.33260 0.11320
C11H C 0.13890(12) -0.55800(13) 0.01209(14)
C11J C -0.01209(12) -0.36110(13) 0.05800(14)
H7H H 0.11380 -0.58520 -0.00650
H7J H 0.00650 -0.38620 0.08520
C12H C 0.14446(12) -0.50066(11) -0.01048(12)
C12J C 0.01048(12) -0.35554(11) 0.00066(12)
H8H H 0.12270 -0.48950 -0.04390
H8J H 0.04390 -0.37730 -0.01050
C13H C 0.19081(10) -0.39983(10) -0.01091(11)
C13J C 0.01091(10) -0.30919(10) -0.10017(11)
C14H C 0.24126(13) -0.55254(12) 0.14518(12)
C14J C -0.14518(13) -0.25874(12) 0.05254(12)
C15H C 0.2142(9) -0.2344(6) -0.3754(8)
C15J C 0.3754(9) -0.2858(6) -0.2656(8)
C16H C 0.2296(11) -0.2365(8) -0.3145(8)
C16J C 0.3145(11) -0.2704(8) -0.2635(8)
#END
