
#######################################################################
#
#                 Cambridge Crystallographic Data Centre
#                                CCDC
#
#######################################################################
#
# If this CIF has been generated from an entry in the Cambridge
# Structural Database, then it will include bibliographic, chemical,
# crystal, experimental, refinement or atomic coordinate data resulting
# from the CCDC's data processing and validation procedures.
#
#######################################################################

data_CSD_CIF_XOCBAS
_audit_creation_date 2002-07-26
_audit_creation_method CSD-ConQuest-V1
_database_code_CSD XOCBAS
_chemical_formula_sum 'C20 H31 Bi2 Cs1 N4 O19'
_chemical_formula_moiety
;
(C20 H25 Bi2 N4 O16 1-)n,n(Cs1 1+),3n(H2 O1)
;
_journal_coden_Cambridge 233
_journal_volume 46
_journal_year 2001
_journal_page_first 1975
_journal_name_full 'Zh.Neorg.Khim.(Russ.)(Russ.J.Inorg.Chem.) '
loop_
_publ_author_name
"R.L.Davidovich"
"A.V.Gerasimenko"
"V.B.Logvinova"
_chemical_name_systematic
;
catena-(Cesium 
(\m~3~-ethylenediaminetetra-acetato)-(\m~3~-ethylenediamino(triacetato)acetic 
acid)-di-bismuth(iii) trihydrate)
;
_cell_volume   1520.859
_exptl_crystal_density_diffrn 2.582
_exptl_crystal_description 'prism'
_diffrn_ambient_temperature 293
_refine_special_details
;
One water molecule is equally disordered over two positions.

;
#These two values have been output from a single CSD field.
_refine_ls_R_factor_gt 0.0229
_refine_ls_wR_factor_gt 0.0229
_symmetry_cell_setting monoclinic
_symmetry_space_group_name_H-M 'P 2/c'
_symmetry_Int_Tables_number 13
loop_
_symmetry_equiv_pos_site_id
_symmetry_equiv_pos_as_xyz
1 x,y,z
2 -x,y,1/2-z
3 -x,-y,-z
4 x,-y,-1/2+z
_cell_length_a 13.423(1)
_cell_length_b 9.134(1)
_cell_length_c 13.228(1)
_cell_angle_alpha 90
_cell_angle_beta 110.324(2)
_cell_angle_gamma 90
_cell_formula_units_Z 2
loop_
_atom_type_symbol
_atom_type_radius_bond
C 0.68
Bi 1.90
Cs 1.67
N 0.68
O 0.68
loop_
_atom_site_label
_atom_site_type_symbol
_atom_site_fract_x
_atom_site_fract_y
_atom_site_fract_z
Bi1 Bi 0.643340(6) 0.997840(8) 0.453100(6)
Cs1 Cs 0.50000 0.54272(3) 0.25000
O1 O 0.5767(1) 0.7321(2) 0.4597(1)
O2 O 0.5853(1) 0.5402(2) 0.5649(1)
O3 O 0.7979(1) 0.9810(2) 0.4183(1)
O4 O 0.9316(1) 0.8366(2) 0.4216(2)
O5 O 0.5908(1) 1.0193(2) 0.6037(1)
O6 O 0.6111(1) 1.1368(2) 0.7562(1)
O7 O 0.6337(1) 1.2444(2) 0.3896(1)
O8 O 0.7278(2) 1.4440(2) 0.3886(2)
O9 O 0.00000 0.6090(6) 0.75000
O10 O 0.8977(5) 0.4528(7) 0.8371(5)
O11? O 0.9442(6) 0.4730(7) 0.9182(7)
N1 N 0.7701(1) 0.8369(2) 0.5921(1)
N2 N 0.7696(1) 1.1574(2) 0.5856(1)
C1 C 0.7157(2) 0.7201(3) 0.6306(2)
C2 C 0.6185(2) 0.6615(2) 0.5432(2)
C3 C 0.8359(2) 0.7710(3) 0.5339(2)
C4 C 0.8588(2) 0.8705(3) 0.4536(2)
C5 C 0.8333(2) 0.9255(3) 0.6859(2)
C6 C 0.8648(2) 1.0729(3) 0.6529(2)
C7 C 0.7115(2) 1.2203(3) 0.6532(2)
C8 C 0.6330(2) 1.1170(3) 0.6750(2)
C9 C 0.8034(2) 1.2767(3) 0.5281(2)
C10 C 0.7147(2) 1.3271(3) 0.4277(2)
O1B O 0.4233(1) 1.2679(2) 0.5403(1)
O2B O 0.4147(1) 1.4598(2) 0.4351(1)
O3B O 0.2021(1) 1.0190(2) 0.5817(1)
O4B O 0.0684(1) 1.1634(2) 0.5784(2)
O5B O 0.4092(1) 0.9807(2) 0.3963(1)
O6B O 0.3889(1) 0.8632(2) 0.2438(1)
O7B O 0.3663(1) 0.7556(2) 0.6104(1)
O8B O 0.2722(2) 0.5560(2) 0.6114(2)
N1B N 0.2299(1) 1.1631(2) 0.4079(1)
N2B N 0.2304(1) 0.8426(2) 0.4144(1)
C1B C 0.2843(2) 1.2799(3) 0.3694(2)
C2B C 0.3815(2) 1.3385(2) 0.4568(2)
C3B C 0.1641(2) 1.2290(3) 0.4661(2)
C4B C 0.1412(2) 1.1295(3) 0.5464(2)
C5B C 0.1667(2) 1.0745(3) 0.3141(2)
C6B C 0.1352(2) 0.9271(3) 0.3471(2)
C7B C 0.2885(2) 0.7797(3) 0.3468(2)
C8B C 0.3670(2) 0.8830(3) 0.3250(2)
C9B C 0.1966(2) 0.7233(3) 0.4719(2)
C10B C 0.2853(2) 0.6729(3) 0.5723(2)
Bi1B Bi 0.356660(6) 1.002160(8) 0.546900(6)
O6C O 0.6111(1) 0.8632(2) 0.2562(1)
Bi1C Bi 0.643340(6) 1.002160(8) 0.953100(6)
Bi1A Bi 0.356660(6) 0.997840(8) 0.046900(6)
O6A O 0.3889(1) 1.1368(2) 0.7438(1)
#END
