
#######################################################################
#
#                 Cambridge Crystallographic Data Centre
#                                CCDC
#
#######################################################################
#
# If this CIF has been generated from an entry in the Cambridge
# Structural Database, then it will include bibliographic, chemical,
# crystal, experimental, refinement or atomic coordinate data resulting
# from the CCDC's data processing and validation procedures.
#
#######################################################################

data_CSD_CIF_XOCGUR
_audit_creation_date 2002-07-26
_audit_creation_method CSD-ConQuest-V1
_database_code_CSD XOCGUR
_chemical_formula_sum 'C12 H24 Ca1 Co2 N2 O18'
_chemical_formula_moiety
;
(C12 H16 Co2 N2 O14 2-)n,n(Ca1 2+),4n(H2 O1)
;
_journal_coden_Cambridge 367
_journal_volume 27
_journal_year 2001
_journal_page_first 294
_journal_name_full 'Koord.Khim.(Russ.)(Coord.Chem.) '
loop_
_publ_author_name
"L.A.Zasurskaya"
"I.N.Polyakova"
"T.N.Polynova"
"A.L.Poznyak"
"V.S.Sergienko"
_chemical_name_systematic
;
catena-(Calcium bis(\m~2~-nitrilotriacetato)-diaqua-di-cobalt(ii) 
tetrahydrate)
;
_cell_volume   1126.210
_exptl_crystal_density_diffrn 1.893
_diffrn_ambient_temperature 293
#These two values have been output from a single CSD field.
_refine_ls_R_factor_gt 0.0322
_refine_ls_wR_factor_gt 0.0322
_symmetry_cell_setting monoclinic
_symmetry_space_group_name_H-M 'P 21/n'
_symmetry_Int_Tables_number 14
loop_
_symmetry_equiv_pos_site_id
_symmetry_equiv_pos_as_xyz
1 x,y,z
2 1/2-x,1/2+y,1/2-z
3 -x,-y,-z
4 -1/2+x,-1/2-y,-1/2+z
_cell_length_a 6.991(1)
_cell_length_b 10.031(1)
_cell_length_c 16.238(3)
_cell_angle_alpha 90
_cell_angle_beta 98.50(1)
_cell_angle_gamma 90
_cell_formula_units_Z 2
loop_
_atom_type_symbol
_atom_type_radius_bond
C 0.68
H 0.23
Ca 0.99
Co 1.33
N 0.68
O 0.68
loop_
_atom_site_label
_atom_site_type_symbol
_atom_site_fract_x
_atom_site_fract_y
_atom_site_fract_z
Co1 Co 0.15296(2) 0.63614(2) 0.29260(1)
Ca1 Ca 0.00000 0.00000 0.50000
O1 O 0.2217(2) 0.4449(1) 0.2528(1)
O2 O 0.1231(2) 0.2337(1) 0.2469(1)
O3 O -0.0189(2) 0.6674(1) 0.1792(1)
O4 O -0.2811(2) 0.5972(2) 0.0991(1)
O5 O 0.0218(2) 0.7721(1) 0.3625(1)
O6 O -0.1476(2) 0.7848(1) 0.4663(1)
N1 N -0.1007(2) 0.5242(1) 0.3156(1)
C1 C -0.0382(2) 0.3848(1) 0.3251(1)
C2 C 0.1139(2) 0.3523(1) 0.2697(1)
C3 C -0.2481(2) 0.5406(2) 0.2415(1)
C4 C -0.1758(2) 0.6041(1) 0.1673(1)
C5 C -0.1630(3) 0.5807(2) 0.3909(1)
C6 C -0.0916(2) 0.7235(1) 0.4071(1)
O7 O 0.3144(2) 0.5769(1) 0.4103(1)
O8 O -0.2499(4) -0.0016(2) 0.5823(1)
O9 O 0.4400(2) 0.3213(1) 0.4546(1)
H1 H 0.021(3) 0.370(2) 0.384(1)
H2 H -0.146(3) 0.325(2) 0.316(1)
H3 H -0.298(4) 0.458(3) 0.225(2)
H4 H -0.355(4) 0.588(3) 0.255(2)
H5 H -0.297(3) 0.581(2) 0.391(1)
H6 H -0.114(4) 0.527(2) 0.439(2)
H7 H 0.378(4) 0.623(3) 0.447(2)
H8 H 0.357(4) 0.501(3) 0.416(2)
H9 H -0.242(7) 0.036(5) 0.614(3)
H10 H -0.312(9) -0.044(6) 0.591(4)
H11 H 0.358(4) 0.282(3) 0.473(2)
H12 H 0.473(4) 0.270(3) 0.419(2)
O1A O 0.2783(2) 0.9449(1) 0.2472(1)
O2A O 0.3769(2) 0.7337(1) 0.2531(1)
O3A O 0.5189(2) 1.1674(1) 0.3208(1)
O4A O 0.7811(2) 1.0972(2) 0.4009(1)
O5A O 0.4782(2) 1.2721(1) 0.1375(1)
O6A O 0.6476(2) 1.2848(1) 0.0337(1)
N1A N 0.6007(2) 1.0242(1) 0.1844(1)
C1A C 0.5382(2) 0.8848(1) 0.1749(1)
C2A C 0.3861(2) 0.8523(1) 0.2303(1)
C3A C 0.7481(2) 1.0406(2) 0.2585(1)
C4A C 0.6758(2) 1.1041(1) 0.3327(1)
C5A C 0.6630(3) 1.0807(2) 0.1091(1)
C6A C 0.5916(2) 1.2235(1) 0.0929(1)
H1A H 0.479(3) 0.870(2) 0.116(1)
H2A H 0.646(3) 0.825(2) 0.184(1)
H3A H 0.798(4) 0.958(3) 0.275(2)
H4A H 0.855(4) 1.088(3) 0.245(2)
H5A H 0.797(3) 1.081(2) 0.109(1)
H6A H 0.614(4) 1.027(2) 0.061(2)
Co1A Co 0.34704(2) 1.13614(2) 0.20740(1)
O7A O 0.1856(2) 1.0769(1) 0.0897(1)
H7A H 0.122(4) 1.123(3) 0.053(2)
H8A H 0.143(4) 1.001(3) 0.084(2)
Co1A* Co 0.34704(2) 0.13614(2) 0.20740(1)
O2* O 0.1231(2) 1.2337(1) 0.2469(1)
#END
