
#######################################################################
#
#                 Cambridge Crystallographic Data Centre
#                                CCDC
#
#######################################################################
#
# If this CIF has been generated from an entry in the Cambridge
# Structural Database, then it will include bibliographic, chemical,
# crystal, experimental, refinement or atomic coordinate data resulting
# from the CCDC's data processing and validation procedures.
#
#######################################################################

data_CSD_CIF_XODXIZ
_audit_creation_date 2014-06-25
_audit_creation_method CSD-ConQuest-V1
_database_code_CSD XODXIZ
_database_code_depnum_ccdc_archive 'CCDC 1007433'
_chemical_formula_sum 'C5 H10 N3 O8 Y1'
_chemical_formula_moiety
;
(C4 H4 O8 Y1 1-)n,n(C1 H6 N3 1+)
;
_journal_coeditor_code "IUCr bv2234"
_journal_coden_Cambridge 1370
_journal_volume 70
_journal_year 2014
_journal_page_first m261
_journal_name_full 'Acta Crystallogr.,Sect.E:Struct.Rep.Online '
loop_
_publ_author_name
"M.A.Rodriguez"
"D.F.Sava Gallis"
"T.M.Nenoff"
_chemical_name_systematic
;
catena-[diaminomethaniminium tris(\m-formato)-formato-yttrium]
;
_cell_volume   1087.520
_exptl_crystal_colour 'colorless'
_exptl_crystal_density_diffrn 2.01
_exptl_crystal_description 'tabular'
_diffrn_ambient_temperature 188
#These two values have been output from a single CSD field.
_refine_ls_R_factor_gt 0.017
_refine_ls_wR_factor_gt 0.017
_symmetry_cell_setting orthorhombic
_symmetry_space_group_name_H-M 'P 21 21 21'
_symmetry_Int_Tables_number 19
loop_
_symmetry_equiv_pos_site_id
_symmetry_equiv_pos_as_xyz
1 x,y,z
2 1/2-x,-y,1/2+z
3 -x,1/2+y,1/2-z
4 1/2+x,1/2-y,-z
_cell_length_a 6.6537(13)
_cell_length_b 8.0998(15)
_cell_length_c 20.179(4)
_cell_angle_alpha 90
_cell_angle_beta 90
_cell_angle_gamma 90
_cell_formula_units_Z 4
loop_
_atom_type_symbol
_atom_type_radius_bond
C 0.68
H 0.23
N 0.68
O 0.68
Y 1.90
loop_
_atom_site_label
_atom_site_type_symbol
_atom_site_fract_x
_atom_site_fract_y
_atom_site_fract_z
Y1 Y 0.50681(4) 0.94595(3) 0.11947(2)
O1 O 1.1701(3) 0.9359(3) 0.1559(1)
O2 O 0.5106(3) 0.5890(2) 0.28169(8)
O3 O 0.8325(3) 0.5994(2) -0.01947(9)
O4 O 0.4007(3) 1.2229(3) 0.09013(10)
O5 O 0.6744(3) 1.1283(3) 0.04277(10)
O6 O 0.8387(3) 0.9575(3) 0.16045(9)
O7 O 0.4976(4) 0.7212(2) 0.18650(8)
O8 O 0.6868(3) 0.7345(3) 0.06301(9)
C1 C 0.5499(4) 1.2410(4) 0.05256(14)
H1 H 0.56840 1.34390 0.03090
C2 C 1.0038(4) 0.9690(3) 0.13083(11)
H2 H 1.00200 1.00560 0.08610
C3 C 0.7450(4) 0.7212(4) 0.00448(16)
H3 H 0.72040 0.81190 -0.02420
C4 C 0.4192(4) 0.6671(3) 0.23804(13)
H4 H 0.27990 0.68690 0.24450
C5 C 0.9892(5) 0.9309(3) 0.33693(12)
N1 N 0.9596(3) 0.9298(3) 0.40184(11)
H5 H 1.04100 0.98510 0.42810
H6 H 0.85850 0.87390 0.41870
N2 N 1.1401(4) 1.0142(3) 0.31080(13)
H7 H 1.15870 1.01360 0.26760
H8 H 1.22210 1.07030 0.33650
N3 N 0.8665(4) 0.8468(3) 0.29787(12)
H9 H 0.88570 0.84670 0.25470
H10 H 0.76560 0.79110 0.31500
Y1* Y 1.50681(4) 0.94595(3) 0.11947(2)
Y1B Y 0.49319(4) 0.44595(3) 0.38053(2)
Y1C Y 1.00681(4) 0.55405(3) -0.11947(2)
O1* O 0.1701(3) 0.9359(3) 0.1559(1)
O2B O 0.4894(3) 1.0890(2) 0.21831(8)
O3C O 0.3325(3) 0.9006(2) 0.01947(9)
#END
