
#######################################################################
#
#                 Cambridge Crystallographic Data Centre
#                                CCDC
#
#######################################################################
#
# If this CIF has been generated from an entry in the Cambridge
# Structural Database, then it will include bibliographic, chemical,
# crystal, experimental, refinement or atomic coordinate data resulting
# from the CCDC's data processing and validation procedures.
#
#######################################################################

data_CSD_CIF_XOFPIT
_audit_creation_date 2014-06-25
_audit_creation_method CSD-ConQuest-V1
_database_code_CSD XOFPIT
_database_code_depnum_ccdc_archive 'CCDC 989431'
_chemical_formula_sum 'C19 H16 N3 O14 U1'
_chemical_formula_moiety
;
(C16 H6 N2 O14 U1 1-)n,n(C3 H10 N1 1+)
;
_journal_coden_Cambridge 1147
_journal_volume 14
_journal_year 2014
_journal_page_first 3044
_journal_name_full 'Cryst.Growth Des. '
loop_
_publ_author_name
"P.M.Cantos"
"C.L.Cahill"
_chemical_name_systematic
;
catena-(Trimethylammonium 
(\m~2~-5-nitroisophthalato-O,O',O'')-(\m~2~-5-nitroisophthalato-O,O')-dioxo-ur
anium)
;
_cell_volume   2322.836
_exptl_crystal_colour 'yellow'
_exptl_crystal_density_diffrn 2.137
_exptl_crystal_description 'plate'
_diffrn_ambient_temperature 293
#These two values have been output from a single CSD field.
_refine_ls_R_factor_gt 0.0349
_refine_ls_wR_factor_gt 0.0349
_symmetry_cell_setting monoclinic
_symmetry_space_group_name_H-M 'P 21/c'
_symmetry_Int_Tables_number 14
loop_
_symmetry_equiv_pos_site_id
_symmetry_equiv_pos_as_xyz
1 x,y,z
2 -x,1/2+y,1/2-z
3 -x,-y,-z
4 x,-1/2-y,-1/2+z
_cell_length_a 11.8861(3)
_cell_length_b 20.3996(6)
_cell_length_c 9.7156(3)
_cell_angle_alpha 90
_cell_angle_beta 99.59
_cell_angle_gamma 90
_cell_formula_units_Z 4
loop_
_atom_type_symbol
_atom_type_radius_bond
C 0.68
H 0.23
N 0.68
O 0.68
U 1.96
loop_
_atom_site_label
_atom_site_type_symbol
_atom_site_fract_x
_atom_site_fract_y
_atom_site_fract_z
C1 C 1.0075(4) 0.0980(2) 0.9726(5)
C2 C 1.0141(4) 0.1667(2) 0.9194(5)
C3 C 0.9418(4) 0.1863(3) 0.8001(5)
H1 H 0.89580 0.15530 0.74780
C4 C 0.9362(4) 0.2501(3) 0.7573(5)
C5 C 1.0040(5) 0.2959(3) 0.8359(6)
H2 H 0.99990 0.33990 0.80980
C6 C 1.0787(5) 0.2760(3) 0.9548(6)
C7 C 1.0866(4) 0.2111(2) 0.9977(5)
H3 H 1.13810 0.19790 1.07550
C8 C 0.8460(6) 0.2647(3) 0.6225(7)
C9 C 1.3585(4) 0.1025(2) 1.3445(5)
C10 C 1.4264(4) 0.1493(2) 1.4429(5)
C11 C 1.4068(4) 0.2167(2) 1.4295(5)
H4 H 1.35420 0.23350 1.35640
C12 C 1.4681(4) 0.2578(2) 1.5284(5)
C13 C 1.5467(4) 0.2344(2) 1.6384(5)
H5 H 1.58540 0.26300 1.70450
C14 C 1.5666(4) 0.1676(2) 1.6485(5)
C15 C 1.5077(3) 0.1255(2) 1.5504(5)
H6 H 1.52280 0.08080 1.55650
C16 C 1.6560(4) 0.1418(2) 1.7638(5)
N1 N 1.1471(6) 0.3246(3) 1.0428(6)
N2 N 1.4511(5) 0.3288(2) 1.5146(6)
O1 O 1.1409(3) 0.00820(17) 1.3397(4)
O2 O 1.2786(4) 0.0078(2) 1.0463(4)
O3 O 1.2759(3) 0.12232(17) 1.2555(4)
O4 O 1.3811(3) 0.04192(16) 1.3556(4)
O5 O 1.7026(3) 0.08853(18) 1.7371(4)
O6 O 1.0751(3) 0.08167(17) 1.0791(4)
O7 O 0.9320(3) 0.06151(17) 0.9110(4)
O8 O 1.6791(4) 0.1732(2) 1.8717(4)
O9 O 0.8089(4) 0.2227(3) 0.5470(5)
O10 O 0.8267(4) 0.3279(3) 0.6125(5)
O11 O 1.1282(7) 0.3816(2) 1.0163(6)
O12 O 1.2179(5) 0.3063(3) 1.1368(6)
O13 O 1.3830(6) 0.3487(2) 1.4172(6)
O14 O 1.5048(4) 0.36423(19) 1.6011(5)
U1 U 1.21037(2) 0.00899(2) 1.19293(2)
C17 C 0.3490(8) 0.0068(4) 0.7314(11)
H7 H 0.41000 -0.01570 0.69780
H8 H 0.36470 0.00870 0.83150
H9 H 0.34240 0.05050 0.69430
C18 C 0.1458(7) -0.0066(4) 0.7213(9)
H10 H 0.08800 -0.03750 0.68340
H11 H 0.12670 0.03590 0.68160
H12 H 0.15050 -0.00450 0.82080
C19 C 0.2571(9) -0.0876(4) 0.6222(9)
H13 H 0.33390 -0.09410 0.60620
H14 H 0.20600 -0.08790 0.53460
H15 H 0.23680 -0.12220 0.68040
N3 N 0.2492(8) -0.0262(5) 0.6898(15)
O5B O 1.2974(3) -0.08853(18) 1.2629(4)
O7B O 1.0680(3) -0.06151(17) 1.0890(4)
U1B U 0.78963(2) -0.00899(2) 0.80707(2)
U1B* U 1.78963(2) -0.00899(2) 1.80707(2)
#END
