
#######################################################################
#
#                 Cambridge Crystallographic Data Centre
#                                CCDC
#
#######################################################################
#
# If this CIF has been generated from an entry in the Cambridge
# Structural Database, then it will include bibliographic, chemical,
# crystal, experimental, refinement or atomic coordinate data resulting
# from the CCDC's data processing and validation procedures.
#
#######################################################################

data_CSD_CIF_XOFPEP
_audit_creation_date 2014-06-25
_audit_creation_method CSD-ConQuest-V1
_database_code_CSD XOFPEP
_database_code_depnum_ccdc_archive 'CCDC 989430'
_chemical_formula_sum 'C22 H25 N3 O18 U2'
_chemical_formula_moiety
;
(C16 H7 N2 O17 U2 1-)n,n(C6 H16 N1 1+),n(H2 O1)
;
_journal_coden_Cambridge 1147
_journal_volume 14
_journal_year 2014
_journal_page_first 3044
_journal_name_full 'Cryst.Growth Des. '
loop_
_publ_author_name
"P.M.Cantos"
"C.L.Cahill"
_chemical_name_systematic
;
catena-(Triethylammonium 
bis(\m~3~-5-nitroisophthalato)-(\m~2~-hydroxo)-tetraoxo-di-uranium 
monohydrate)
;
_cell_volume   1489.061
_exptl_crystal_colour 'yellow'
_exptl_crystal_density_diffrn 2.441
_exptl_crystal_description 'plate'
_diffrn_ambient_temperature 100
#These two values have been output from a single CSD field.
_refine_ls_R_factor_gt 0.023
_refine_ls_wR_factor_gt 0.023
_symmetry_cell_setting triclinic
_symmetry_space_group_name_H-M 'P -1'
_symmetry_Int_Tables_number 2
loop_
_symmetry_equiv_pos_site_id
_symmetry_equiv_pos_as_xyz
1 x,y,z
2 -x,-y,-z
_cell_length_a 10.6646(11)
_cell_length_b 11.0897(11)
_cell_length_c 14.724(2)
_cell_angle_alpha 106.806(2)
_cell_angle_beta 95.727(2)
_cell_angle_gamma 113.001(1)
_cell_formula_units_Z 2
loop_
_atom_type_symbol
_atom_type_radius_bond
C 0.68
H 0.23
N 0.68
O 0.68
U 1.96
loop_
_atom_site_label
_atom_site_type_symbol
_atom_site_fract_x
_atom_site_fract_y
_atom_site_fract_z
C1 C 0.1087(2) 0.0633(2) 0.34218(16)
C2 C 0.1120(2) -0.0761(2) 0.31551(16)
C3 C 0.0727(2) -0.1577(2) 0.37328(16)
C4 C 0.0836(2) -0.2835(2) 0.35063(15)
C5 C 0.1269(2) -0.3319(2) 0.26692(16)
C6 C 0.1611(2) -0.2503(2) 0.20938(16)
C7 C 0.1573(2) -0.1222(2) 0.23258(16)
C8 C 0.0507(2) -0.3683(2) 0.41542(16)
C9 C 0.6938(2) 0.7779(2) 0.14905(17)
C10 C 0.6086(2) 0.7386(2) 0.22020(16)
C11 C 0.4926(2) 0.6078(2) 0.18762(16)
C12 C 0.4101(2) 0.5681(2) 0.25071(16)
C13 C 0.4411(2) 0.6604(2) 0.34624(16)
C14 C 0.5553(2) 0.7901(2) 0.37585(16)
C15 C 0.6419(2) 0.8322(2) 0.31549(17)
C16 C 0.2900(2) 0.4244(2) 0.21497(16)
N1 N 0.5854(2) 0.8910(2) 0.47593(15)
N2 N 0.2005(2) -0.3046(2) 0.11827(14)
O1 O 0.28185(18) 0.41365(17) 0.46094(12)
O2 O -0.06711(17) 0.24770(17) 0.31898(12)
O3 O 0.14834(16) 0.13663(15) 0.28843(11)
O4 O 0.07225(18) 0.11076(16) 0.41791(12)
O5 O -0.03102(19) -0.35098(16) 0.46855(12)
O6 O 0.10471(18) -0.45114(16) 0.41382(12)
O7 O 0.19908(16) 0.39655(15) 0.26423(11)
O8 O 0.28776(16) 0.33805(16) 0.13684(11)
O9 O 0.94640(16) 0.76976(16) 0.03641(12)
O10 O 0.73333(16) 0.93100(16) -0.01766(12)
O11 O 0.80675(17) 0.89082(16) 0.17874(12)
O12 O 0.64835(17) 0.69821(16) 0.05988(12)
O13 O 0.97867(16) 0.92612(15) -0.09659(11)
O14 O 0.25026(18) -0.22334(17) 0.07559(12)
O15 O 0.1839(2) -0.42606(18) 0.09112(13)
O16 O 0.5430(2) 0.8443(2) 0.53819(13)
O17 O 0.65078(19) 1.01633(18) 0.48968(13)
U1 U 0.10777(2) 0.33038(2) 0.38917(2)
U2 U 0.84097(2) 0.85126(2) 0.00962(2)
H1 H 0.718(3) 0.929(3) 0.344(2)
H2 H 0.470(2) 0.541(2) 0.1252(18)
H3 H 0.391(3) 0.647(3) 0.3923(19)
H4 H 0.041(2) -0.130(2) 0.4222(17)
H5 H 0.132(2) -0.413(2) 0.2470(16)
H6 H 0.181(2) -0.081(2) 0.1937(16)
C17 C 0.3299(3) 0.6659(3) 0.7004(2)
C18 C 0.4678(3) 0.6674(3) 0.6818(2)
C19 C 0.4406(3) 0.8849(3) 0.8513(2)
C20 C 0.4245(3) 0.9700(3) 0.7927(3)
C21 C 0.3648(3) 0.6555(3) 0.86944(19)
C22 C 0.2468(3) 0.5092(3) 0.8438(2)
N3 N 0.3381(2) 0.7321(2) 0.80681(16)
H7 H 0.261(3) 0.572(3) 0.6800(19)
H8 H 0.300(3) 0.713(3) 0.664(2)
H9 H 0.468(3) 0.639(3) 0.622(2)
H10 H 0.501(4) 0.608(4) 0.723(3)
H11 H 0.546(3) 0.778(3) 0.701(2)
H12 H 0.451(4) 0.963(4) 0.736(3)
H13 H 0.323(3) 0.946(3) 0.776(2)
H14 H 0.487(3) 1.069(3) 0.832(2)
H15 H 0.528(3) 0.886(3) 0.865(2)
H16 H 0.428(3) 0.922(3) 0.920(2)
H17 H 0.460(3) 0.658(3) 0.870(2)
H18 H 0.382(3) 0.719(2) 0.9395(18)
H19 H 0.261(3) 0.465(3) 0.896(2)
H20 H 0.264(3) 0.731(3) 0.8171(19)
H21 H 0.244(3) 0.450(3) 0.784(2)
H22 H 0.160(4) 0.512(4) 0.843(3)
O18 O 0.10614(19) 0.73219(18) 0.87428(13)
H23 H 0.110(3) 0.739(3) 0.935(2)
H24 H 0.069(3) 0.787(3) 0.876(3)
O5A O 0.03102(19) 0.35098(16) 0.53145(12)
O6* O 0.10471(18) 0.54886(16) 0.41382(12)
O8A O 0.71224(16) 0.66195(16) -0.13684(11)
O13A O 1.02133(16) 1.07388(15) 0.09659(11)
U1* U 0.10777(2) -0.66962(2) 0.38917(2)
U1A U -0.10777(2) -0.33038(2) 0.61083(2)
U2A U 0.15903(2) 0.14874(2) -0.00962(2)
U2A* U 1.15903(2) 1.14874(2) -0.00962(2)
#END
