
#######################################################################
#
#                 Cambridge Crystallographic Data Centre
#                                CCDC
#
#######################################################################
#
# If this CIF has been generated from an entry in the Cambridge
# Structural Database, then it will include bibliographic, chemical,
# crystal, experimental, refinement or atomic coordinate data resulting
# from the CCDC's data processing and validation procedures.
#
#######################################################################

data_CSD_CIF_XOFPEP01
_audit_creation_date 2015-02-20
_audit_creation_method CSD-ConQuest-V1
_database_code_CSD XOFPEP01
_database_code_depnum_ccdc_archive 'CCDC 1024950'
_chemical_formula_sum 'C22 H26 N3 O18 U2'
_chemical_formula_moiety
;
(C16 H8 N2 O17 U2 1-)n,C6 H16 N1 1+,H2 O1
;
_journal_coden_Cambridge 1350
_journal_volume 17
_journal_year 2015
_journal_page_first 2376
_journal_name_full 'CrystEngComm '
loop_
_publ_author_name
"Xiang-Sheng Zhai"
"Wen-Gang Zhu"
"Wei Xu"
"Ya-Jing Huang"
"Yue-Qing Zheng"
_chemical_name_systematic
;
catena-[triethylammonium 
bis(\m-5-nitroisophthalato)-(\m-aqua)-tetraoxo-di-uranium monohydrate]
;
_cell_volume   1487.345
_exptl_crystal_colour 'yellow'
_exptl_crystal_density_diffrn 2.446
_exptl_crystal_description 'block'
_diffrn_ambient_temperature 295
#These two values have been output from a single CSD field.
_refine_ls_R_factor_gt 0.0379
_refine_ls_wR_factor_gt 0.0379
_symmetry_cell_setting triclinic
_symmetry_space_group_name_H-M 'P -1'
_symmetry_Int_Tables_number 2
loop_
_symmetry_equiv_pos_site_id
_symmetry_equiv_pos_as_xyz
1 x,y,z
2 -x,-y,-z
_cell_length_a 10.663(2)
_cell_length_b 11.090(2)
_cell_length_c 14.718(3)
_cell_angle_alpha 106.88(3)
_cell_angle_beta 95.76(3)
_cell_angle_gamma 112.99(3)
_cell_formula_units_Z 2
loop_
_atom_type_symbol
_atom_type_radius_bond
C 0.68
H 0.23
N 0.68
O 0.68
U 1.96
loop_
_atom_site_label
_atom_site_type_symbol
_atom_site_fract_x
_atom_site_fract_y
_atom_site_fract_z
U1 U 0.60813(2) 0.830751(19) 0.889417(14)
U2 U 1.34101(2) 1.351379(19) 0.509817(13)
O1 O 0.4316(5) 0.7470(4) 0.8191(3)
O2 O 0.7837(5) 0.9143(4) 0.9612(3)
O3 O 0.6474(5) 0.6359(4) 0.7880(3)
O4 O 0.5732(5) 0.6122(4) 0.9181(3)
C1 C 0.6098(7) 0.5656(6) 0.8434(4)
C2 C 0.6100(7) 0.4215(5) 0.8152(4)
C3 C 0.6570(7) 0.3763(6) 0.7326(4)
H1 H 0.68490 0.43120 0.69440
C4 C 0.6610(7) 0.2499(6) 0.7091(4)
C5 C 0.6262(7) 0.1667(6) 0.7667(4)
H2 H 0.63210 0.08180 0.74970
C6 C 0.5824(7) 0.2150(5) 0.8504(4)
C7 C 0.5738(7) 0.3432(5) 0.8730(4)
H3 H 0.54310 0.37500 0.92810
C8 C 0.5515(7) 0.1333(6) 0.9157(4)
O5 O 0.4686(6) 0.1498(5) 0.9684(3)
O6 O 0.6042(5) 0.0490(4) 0.9136(3)
N1 N 0.7009(6) 0.1967(5) 0.6189(3)
O7 O 0.6847(6) 0.0737(5) 0.5916(3)
O8 O 0.7503(5) 0.2759(4) 0.5756(3)
O9 O 1.4471(5) 1.2701(4) 0.5371(3)
O10 O 1.2327(5) 1.4304(4) 0.4822(3)
O11 O 0.6991(5) 0.8957(4) 0.7640(3)
O12 O 0.7868(5) 0.8364(4) 0.6367(3)
C9 C 0.7899(7) 0.9251(6) 0.7153(4)
C10 C 0.9097(6) 1.0669(5) 0.7510(4)
C11 C 0.9399(7) 1.1617(6) 0.8465(4)
H4 H 0.88400 1.13810 0.88900
C12 C 1.0549(7) 1.2907(6) 0.8754(4)
C13 C 1.1414(7) 1.3314(6) 0.8165(4)
H5 H 1.21980 1.41810 0.83950
C14 C 1.1081(7) 1.2378(6) 0.7201(4)
C15 C 0.9937(7) 1.1096(6) 0.6881(4)
H6 H 0.97120 1.04960 0.62360
C16 C 1.1945(7) 1.2795(6) 0.6500(4)
O13 O 1.1488(5) 1.1980(4) 0.5605(3)
O14 O 1.3069(5) 1.3911(4) 0.6791(3)
N2 N 1.0851(6) 1.3901(5) 0.9757(4)
O15 O 1.1510(5) 1.5176(4) 0.9901(3)
O16 O 1.0444(6) 1.3454(5) 1.0388(3)
O17 O 1.5210(5) 1.5732(4) 0.5959(3)
H7 H 1.56900 1.57140 0.64120
H8 H 1.48900 1.62680 0.61740
O18 O 0.3947(5) 0.7691(5) 0.6261(3)
H9 H 0.38370 0.78470 0.57410
H10 H 0.47230 0.82130 0.66130
N3 N 0.1621(6) 0.7679(6) 0.6938(4)
H11 H 0.242(4) 0.772(8) 0.684(5)
C17 C 0.0591(8) 0.6183(7) 0.6489(5)
H12 H 0.07000 0.57980 0.58360
H13 H -0.03490 0.61200 0.64240
C18 C 0.0747(9) 0.5276(7) 0.7087(6)
H14 H 0.00460 0.43240 0.67630
H15 H 0.06280 0.56420 0.77310
H16 H 0.16630 0.53050 0.71340
C19 C 0.1363(8) 0.8467(7) 0.6312(5)
H17 H 0.12400 0.79300 0.56310
H18 H 0.04980 0.85410 0.63780
C20 C 0.2531(9) 0.9915(8) 0.6575(6)
H19 H 0.23020 1.03600 0.61570
H20 H 0.33870 0.98510 0.64900
H21 H 0.26520 1.04600 0.72450
C21 C 0.1693(7) 0.8331(7) 0.8002(4)
H22 H 0.24000 0.93010 0.82490
H23 H 0.19870 0.78420 0.83620
C22 C 0.0299(8) 0.8288(8) 0.8191(5)
H24 H 0.04040 0.87050 0.88810
H25 H -0.04050 0.73310 0.79540
H26 H 0.00180 0.88010 0.78560
U1* U 0.60813(2) -0.169249(19) 0.889417(14)
U1A U 0.39187(2) 0.169249(19) 1.110583(14)
U2A U 0.65899(2) 0.648621(19) 0.490183(13)
U2A* U 1.65899(2) 1.648621(19) 0.490183(13)
O5A O 0.5314(6) 0.8502(5) 1.0316(3)
O6* O 0.6042(5) 1.0490(4) 0.9136(3)
O12A O 1.2132(5) 1.1636(4) 0.3633(3)
O17A O 1.4790(5) 1.4268(4) 0.4041(3)
#END
