
#######################################################################
#
#                 Cambridge Crystallographic Data Centre
#                                CCDC
#
#######################################################################
#
# If this CIF has been generated from an entry in the Cambridge
# Structural Database, then it will include bibliographic, chemical,
# crystal, experimental, refinement or atomic coordinate data resulting
# from the CCDC's data processing and validation procedures.
#
#######################################################################

data_CSD_CIF_XOFROB
_audit_creation_date 2014-06-25
_audit_creation_method CSD-ConQuest-V1
_database_code_CSD XOFROB
_database_code_depnum_ccdc_archive 'CCDC 960752'
_chemical_formula_sum 'C36 H32 Ag6 Co1 N28 O42 W12'
_chemical_formula_moiety
;
(C18 H14 Ag3 N14 3+)2n,2(H2 O1),Co1 O40 W12 6-
;
_journal_coden_Cambridge 1147
_journal_volume 14
_journal_year 2014
_journal_page_first 2794
_journal_name_full 'Cryst.Growth Des. '
loop_
_publ_author_name
"Meng-Ting Li"
"Jing-Quan Sha"
"Xi-Ming Zong"
"Jing-Wen Sun"
"Peng-Fei Yan"
"Liang Li"
"Xiao-Ning Yang"
_chemical_name_systematic
;
catena-(bis(bis(\m-5'-(pyridin-3-yl)-1H,2'H-3,3'-bi-1,2,4-triazole)-tri-silver
) octacosakis(\m-oxo)-dodecaoxo-dodeca-tungsten-cobalt dihydrate)
;
_cell_volume   1833.595
_exptl_crystal_colour 'yellow'
_exptl_crystal_density_diffrn 4.017
_diffrn_ambient_temperature 293
_refine_special_details
;
The structure is disordered.

;
#These two values have been output from a single CSD field.
_refine_ls_R_factor_gt 0.1022
_refine_ls_wR_factor_gt 0.1022
_symmetry_cell_setting triclinic
_symmetry_space_group_name_H-M 'P -1'
_symmetry_Int_Tables_number 2
loop_
_symmetry_equiv_pos_site_id
_symmetry_equiv_pos_as_xyz
1 x,y,z
2 -x,-y,-z
_cell_length_a 11.830(5)
_cell_length_b 12.709(5)
_cell_length_c 14.789(5)
_cell_angle_alpha 105.033(5)
_cell_angle_beta 99.809(5)
_cell_angle_gamma 115.518(5)
_cell_formula_units_Z 1
loop_
_atom_type_symbol
_atom_type_radius_bond
C 0.68
H 0.23
Ag 1.45
Co 1.26
N 0.68
O 0.68
W 1.62
loop_
_atom_site_label
_atom_site_type_symbol
_atom_site_fract_x
_atom_site_fract_y
_atom_site_fract_z
C1 C 0.477(4) 0.694(3) 0.521(3)
H1 H 0.39770 0.68430 0.48680
C2 C 0.591(3) 0.779(3) 0.512(3)
C3 C 0.704(4) 0.787(3) 0.566(2)
H2 H 0.78480 0.84520 0.56380
C4 C 0.709(4) 0.718(4) 0.621(3)
H3 H 0.78740 0.72330 0.65280
C5 C 0.590(3) 0.639(4) 0.628(3)
H4 H 0.58940 0.59520 0.66990
C6 C 0.596(4) 0.865(4) 0.464(3)
C7 C 0.539(6) 0.949(5) 0.384(4)
C8 C 0.462(4) 0.985(3) 0.331(3)
C9 C 0.403(7) 1.083(5) 0.259(4)
H5 H 0.40440 1.14500 0.23560
C10 C -0.022(5) 0.617(4) 0.372(4)
H6 H -0.05810 0.60220 0.30610
C11 C 0.003(4) 0.633(4) 0.513(3)
C12 C -0.017(5) 0.625(5) 0.608(4)
C13 C 0.030(4) 0.671(4) 0.753(3)
C14 C 0.103(4) 0.727(4) 0.863(4)
C15 C 0.222(5) 0.830(4) 0.905(4)
H7 H 0.25640 0.87060 0.86390
C16 C 0.242(5) 0.806(4) 1.054(4)
H8 H 0.28330 0.83140 1.12120
C17 C 0.062(5) 0.659(5) 0.916(4)
H9 H -0.01590 0.58170 0.88920
C18 C 0.136(4) 0.705(4) 1.011(3)
H10 H 0.10600 0.65650 1.04850
N1 N -0.091(4) 0.584(4) 0.430(3)
N2 N 0.082(3) 0.699(3) 0.695(2)
N3 N 0.100(5) 0.672(3) 0.418(4)
N4 N 0.513(4) 1.076(3) 0.303(3)
N5 N -0.098(4) 0.597(4) 0.720(3)
N6 N -0.128(4) 0.564(4) 0.620(3)
H11 H -0.20440 0.51330 0.57530
N7 N 0.120(3) 0.694(3) 0.517(2)
N8 N 0.471(3) 0.622(3) 0.576(2)
N9 N 0.297(5) 0.988(4) 0.258(3)
H12 H 0.21680 0.96480 0.22660
N10 N 0.333(4) 0.931(3) 0.313(3)
N11 N 0.494(4) 0.861(4) 0.422(3)
N12 N 0.703(4) 0.955(3) 0.469(3)
N13 N 0.664(5) 1.006(4) 0.412(3)
H13 H 0.71460 1.06700 0.39630
N14 N 0.302(5) 0.882(5) 1.005(3)
Ag1 Ag -0.2893(4) 0.4786(4) 0.4124(3)
Ag2 Ag 0.2830(4) 0.8013(4) 0.6685(4)
Ag3 Ag 0.2613(5) 0.7668(4) 0.3724(4)
O1 O 0.812(4) 0.671(3) 0.195(3)
O2 O 0.978(3) 0.618(3) 0.130(2)
O3 O 0.850(4) 0.713(4) 0.039(3)
O4 O 0.765(3) 0.742(3) 0.370(2)
O5 O 0.269(4) 0.613(3) 0.234(2)
O6 O 0.434(5) 0.734(4) 0.147(4)
O7 O 0.304(4) 0.418(3) 0.148(3)
O8 O 0.751(4) 0.437(3) 0.115(3)
O9 O 0.414(3) 0.295(5) 0.142(3)
O10 O 0.637(4) 0.505(3) 0.246(3)
O11 O 0.496(4) 0.608(4) 0.248(3)
O12 O 0.625(3) 0.956(2) 0.1642(19)
O13 O 0.684(4) 0.797(4) 0.207(5)
O14 O 0.468(4) 0.760(4) -0.009(3)
O15 O 0.715(4) 0.818(4) 0.051(3)
O16 O 0.636(4) 0.285(4) 0.207(3)
O17 O 0.222(5) 0.535(4) 0.042(4)
O18 O 0.839(3) 0.825(4) -0.082(3)
O19 O 0.533(5) 0.623(5) 0.127(4)
O20 O 0.630(5) 0.527(5) 0.107(4)
O21 O 0.332(4) 0.445(4) 0.018(3)
O22 O 0.456(4) 0.355(4) 0.023(3)
Co1 Co 0.50000 0.50000 0.00000
W1 W 0.67335(19) 0.66030(17) 0.24877(13)
W2 W 0.7341(2) 0.72637(17) -0.05683(15)
W3 W 0.8239(2) 0.58285(18) 0.08584(13)
W4 W 0.5908(2) 0.35209(18) 0.13675(14)
W5 W 0.5881(2) 0.80883(16) 0.10984(18)
W6 W 0.3513(2) 0.58373(19) 0.16172(16)
O23 O 0.952(5) 1.062(5) 0.580(5)
N4A N 0.487(4) 0.924(3) 0.697(3)
N8A N -0.471(3) 0.378(3) 0.424(2)
Ag1A Ag 0.2893(4) 0.5214(4) 0.5876(3)
Ag2A Ag 0.7170(4) 1.1987(4) 0.3315(4)
O1A O 0.188(4) 0.329(3) -0.195(3)
O2A O 0.022(3) 0.382(3) -0.130(2)
O3A O 0.150(4) 0.287(4) -0.039(3)
O4A O 0.235(3) 0.258(3) -0.370(2)
O5A O 0.731(4) 0.387(3) -0.234(2)
O6A O 0.566(5) 0.266(4) -0.147(4)
O7A O 0.696(4) 0.582(3) -0.148(3)
O8A O 0.249(4) 0.563(3) -0.115(3)
O9A O 0.586(3) 0.705(5) -0.142(3)
O10A O 0.363(4) 0.495(3) -0.246(3)
O11A O 0.504(4) 0.392(4) -0.248(3)
O12A O 0.375(3) 0.044(2) -0.1642(19)
O13A O 0.316(4) 0.203(4) -0.207(5)
O14A O 0.532(4) 0.240(4) 0.009(3)
O15A O 0.285(4) 0.182(4) -0.051(3)
O16A O 0.364(4) 0.715(4) -0.207(3)
O17A O 0.778(5) 0.465(4) -0.042(4)
O18A O 0.161(3) 0.175(4) 0.082(3)
O19A O 0.467(5) 0.377(5) -0.127(4)
O20A O 0.370(5) 0.473(5) -0.107(4)
O21A O 0.668(4) 0.555(4) -0.018(3)
O22A O 0.544(4) 0.645(4) -0.023(3)
W1A W 0.32665(19) 0.33970(17) -0.24877(13)
W2A W 0.2659(2) 0.27363(17) 0.05683(15)
W3A W 0.1761(2) 0.41715(18) -0.08584(13)
W4A W 0.4092(2) 0.64791(18) -0.13675(14)
W5A W 0.4119(2) 0.19117(16) -0.10984(18)
W6A W 0.6487(2) 0.41627(19) -0.16172(16)
#END
