
#######################################################################
#
#                 Cambridge Crystallographic Data Centre
#                                CCDC
#
#######################################################################
#
# If this CIF has been generated from an entry in the Cambridge
# Structural Database, then it will include bibliographic, chemical,
# crystal, experimental, refinement or atomic coordinate data resulting
# from the CCDC's data processing and validation procedures.
#
#######################################################################

data_CSD_CIF_XOGZUQ
_audit_creation_date 2014-06-26
_audit_creation_method CSD-ConQuest-V1
_database_code_CSD XOGZUQ
_database_code_depnum_ccdc_archive 'CCDC 960753'
_chemical_formula_sum 'C36 H35 Ag7 Ge1 N28 O47 W12'
_chemical_formula_moiety
;
(C36 H21 Ag7 N28 4+)n,n(Ge1 O40 W12 4-),7n(H2 O1)
;
_journal_coden_Cambridge 1147
_journal_volume 14
_journal_year 2014
_journal_page_first 2794
_journal_name_full 'Cryst.Growth Des. '
loop_
_publ_author_name
"Meng-Ting Li"
"Jing-Quan Sha"
"Xi-Ming Zong"
"Jing-Wen Sun"
"Peng-Fei Yan"
"Liang Li"
"Xiao-Ning Yang"
_chemical_name_systematic
;
catena-(bis(\m~4~-3-(3-Pyridyl)-5-(1,2,4-triazolato-3-yl)-1,2,4-triazolato)-(\
m~3~-3-(3-pyridyl)-5-(1,2,4-triazol-3-yl)-1,2,4-triazole)-(\m~3~-3-(3-pyridyl)
-5-(1,2,4-triazolato-3-yl)-1,2,4-triazolato)-hepta-silver 
(\m~12~-germanato)-tetracosakis(\m~2~-oxo)-dodecaoxo-dodeca-tungsten 
heptahydrate)
;
_cell_volume   1998.306
_exptl_crystal_colour 'yellow'
_exptl_crystal_density_diffrn 3.848
_diffrn_ambient_temperature 293
_refine_special_details
;
The germanate moiety is disordered by symmetry.

;
#These two values have been output from a single CSD field.
_refine_ls_R_factor_gt 0.0713
_refine_ls_wR_factor_gt 0.0713
_symmetry_cell_setting triclinic
_symmetry_space_group_name_H-M 'P -1'
_symmetry_Int_Tables_number 2
loop_
_symmetry_equiv_pos_site_id
_symmetry_equiv_pos_as_xyz
1 x,y,z
2 -x,-y,-z
_cell_length_a 12.387(5)
_cell_length_b 13.140(5)
_cell_length_c 14.969(5)
_cell_angle_alpha 104.870(5)
_cell_angle_beta 99.856(5)
_cell_angle_gamma 116.097(5)
_cell_formula_units_Z 1
loop_
_atom_type_symbol
_atom_type_radius_bond
C 0.68
H 0.23
Ag 1.45
Ge 1.17
N 0.68
O 0.68
W 1.62
loop_
_atom_site_label
_atom_site_type_symbol
_atom_site_fract_x
_atom_site_fract_y
_atom_site_fract_z
C1 C 0.2252(18) 0.3235(19) 0.8947(14)
H1 H 0.24830 0.35820 0.84920
C2 C 0.1069(18) 0.2236(19) 0.8658(14)
C3 C 0.070(2) 0.169(2) 0.9314(16)
H2 H -0.01030 0.09990 0.91290
C4 C 0.154(2) 0.218(2) 1.0245(17)
H3 H 0.13250 0.18540 1.07130
C5 C 0.2707(19) 0.3161(19) 1.0450(16)
H4 H 0.32870 0.34540 1.10670
C6 C 0.0312(19) 0.1717(19) 0.7574(15)
C7 C -0.016(2) 0.129(2) 0.6085(17)
C8 C 0.0034(17) 0.1308(17) 0.5151(13)
C9 C 0.426(2) 0.866(2) 0.3726(18)
H5 H 0.42950 0.91130 0.33380
C10 C 0.309(2) 0.785(2) 0.3772(17)
H6 H 0.23510 0.77930 0.34260
C11 C 0.301(2) 0.716(2) 0.4304(18)
H7 H 0.22210 0.66290 0.43340
C12 C 0.411(2) 0.7238(19) 0.4811(14)
C13 C 0.523(2) 0.8076(19) 0.4759(13)
H8 H 0.59790 0.81630 0.51140
C14 C 0.410(2) 0.6397(18) 0.5340(15)
C15 C 0.456(2) 0.5494(18) 0.6126(14)
C16 C 0.5334(19) 0.5153(17) 0.6671(14)
C17 C -0.023(2) 0.108(2) 0.3676(17)
H9 H -0.06030 0.08550 0.30100
C18 C 0.591(2) 0.422(2) 0.7444(15)
H10 H 0.59120 0.36870 0.77460
N1 N 0.2990(19) 0.5517(17) 0.5337(15)
N2 N 0.6964(17) 0.5150(15) 0.7393(13)
N3 N 0.5075(16) 0.6404(16) 0.5779(12)
N4 N 0.0988(19) 0.1726(16) 0.4123(14)
N5 N 0.3314(19) 0.4923(17) 0.5862(13)
N6 N 0.6596(17) 0.5735(16) 0.6904(13)
N7 N 0.5318(18) 0.8770(17) 0.4239(13)
N8 N 0.4896(19) 0.4218(16) 0.6991(14)
N9 N 0.0829(16) 0.1952(15) 0.6919(12)
N10 N -0.1253(17) 0.0696(18) 0.6206(12)
N11 N -0.0927(17) 0.0966(18) 0.7190(13)
N12 N 0.3114(19) 0.3756(18) 0.9856(15)
N13 N -0.0893(17) 0.0769(19) 0.4287(12)
N14 N 0.1166(17) 0.1906(18) 0.5100(13)
Ag1 Ag 0.71570(16) 0.97940(19) 0.41239(14)
Ag2 Ag 0.28059(17) 0.29492(19) 0.66062(15)
Ag3 Ag 0.50000 0.50000 1.00000
Ag4 Ag 0.7411(2) 0.73190(19) 0.63091(19)
O1 O 0.316(2) 0.717(2) 0.7856(18)
O2 O 0.5563(19) 0.774(2) 0.8513(18)
O3 O 0.643(2) 1.044(2) 0.9794(18)
O4 O 0.475(2) 0.895(2) 0.8926(17)
O5 O 0.395(2) 0.986(2) 0.9091(18)
O6 O 0.843(2) 1.2052(19) 1.0447(15)
O7 O 0.5935(19) 1.206(2) 0.8665(15)
O8 O 0.2486(17) 0.7701(16) 0.6255(12)
O9 O 0.3688(17) 0.5457(13) 0.8281(11)
O10 O 0.1979(19) 0.8362(14) 0.7971(14)
O11 O 0.7335(18) 0.9337(15) 1.1162(14)
O12 O 0.8540(15) 1.3362(16) 0.9264(13)
O13 O 0.7223(15) 0.8862(15) 0.7594(11)
O14 O 0.386(2) 1.2263(18) 0.7975(14)
O15 O 0.6985(18) 1.0905(17) 0.8575(14)
O16 O 0.9690(16) 1.1119(17) 1.1335(16)
O17 O 0.3780(16) 1.0062(14) 0.7606(13)
O18 O 0.5162(19) 0.731(2) 1.0080(16)
O19 O 0.2803(16) 0.676(2) 0.9420(13)
O20 O 0.458(2) 0.868(2) 1.0214(19)
O21 O 0.499(2) 0.888(2) 0.7492(18)
O22 O 0.765(2) 0.969(2) 0.9594(17)
Ge1 Ge 0.50000 1.00000 1.00000
W1 W 0.64741(10) 0.91903(9) 0.83572(8)
W2 W 0.42211(9) 1.15369(9) 0.86281(6)
W3 W 0.32894(9) 0.84327(9) 0.74557(7)
W4 W 0.81798(9) 1.07528(9) 1.08908(7)
W5 W 0.74129(9) 1.23001(9) 0.94987(7)
W6 W 0.40624(10) 0.69049(9) 0.88342(9)
O23 O 0.047(2) 0.440(2) 0.423(2)
O24 O 1.026(3) 1.441(3) 0.830(2)
O25 O 0.935(2) 0.583(3) 0.798(3)
O26 O 1.058(4) 1.430(4) 0.649(4)
C1A C 0.7748(18) 0.6765(19) 0.1053(14)
H1A H 0.75170 0.64180 0.15080
C2A C 0.8931(18) 0.7764(19) 0.1342(14)
C3A C 0.930(2) 0.831(2) 0.0686(16)
H2A H 1.01030 0.90010 0.08710
C4A C 0.846(2) 0.782(2) -0.0245(17)
H3A H 0.86750 0.81460 -0.07130
C5A C 0.7293(19) 0.6839(19) -0.0450(16)
H4A H 0.67130 0.65460 -0.10670
C6A C 0.9688(19) 0.8283(19) 0.2426(15)
C7A C 1.016(2) 0.871(2) 0.3915(17)
C8A C 0.9966(17) 0.8692(17) 0.4849(13)
C9A C 0.574(2) 0.134(2) 0.6274(18)
H5A H 0.57050 0.08870 0.66620
C10A C 0.691(2) 0.215(2) 0.6228(17)
H6A H 0.76490 0.22070 0.65740
C11A C 0.699(2) 0.284(2) 0.5696(18)
H7A H 0.77790 0.33710 0.56660
C12A C 0.589(2) 0.2762(19) 0.5189(14)
C13A C 0.477(2) 0.1924(19) 0.5241(13)
H8A H 0.40210 0.18370 0.48860
C14A C 0.590(2) 0.3603(18) 0.4660(15)
C15A C 0.544(2) 0.4506(18) 0.3874(14)
C16A C 0.4666(19) 0.4847(17) 0.3329(14)
C17A C 1.023(2) 0.892(2) 0.6324(17)
H9A H 1.06030 0.91450 0.69900
C18A C 0.409(2) 0.578(2) 0.2556(15)
H10A H 0.40880 0.63130 0.22540
N1A N 0.7010(19) 0.4483(17) 0.4663(15)
N2A N 0.3036(17) 0.4850(15) 0.2607(13)
N3A N 0.4925(16) 0.3596(16) 0.4221(12)
N4A N 0.9012(19) 0.8274(16) 0.5877(14)
N5A N 0.6686(19) 0.5077(17) 0.4138(13)
N6A N 0.3404(17) 0.4265(16) 0.3096(13)
N7A N 0.4682(18) 0.1230(17) 0.5761(13)
N8A N 0.5104(19) 0.5782(16) 0.3009(14)
N9A N 0.9171(16) 0.8048(15) 0.3081(12)
N10A N 1.1253(17) 0.9304(18) 0.3794(12)
N11A N 1.0927(17) 0.9034(18) 0.2810(13)
N12A N 0.6886(19) 0.6244(18) 0.0144(15)
N13A N 1.0893(17) 0.9231(19) 0.5713(12)
N14A N 0.8834(17) 0.8094(18) 0.4900(13)
Ag1A Ag 0.28430(16) 0.02060(19) 0.58761(14)
Ag2A Ag 0.71941(17) 0.70508(19) 0.33938(15)
Ag4A Ag 0.2589(2) 0.26810(19) 0.36909(19)
N12A* N 0.6886(19) 0.6244(18) 1.0144(15)
N13* N 0.9107(17) 1.0769(19) 0.4287(12)
N13A* N 0.0893(17) -0.0769(19) 0.5713(12)
Ag1* Ag -0.28430(16) -0.02060(19) 0.41239(14)
Ag1A* Ag 1.28430(16) 1.02060(19) 0.58761(14)
Ag3* Ag 0.50000 0.50000 0.00000
O1A O 0.684(2) 1.283(2) 1.2144(18)
O2A O 0.4437(19) 1.226(2) 1.1487(18)
O3A O 0.357(2) 0.956(2) 1.0206(18)
O4A O 0.525(2) 1.105(2) 1.1074(17)
O5A O 0.605(2) 1.014(2) 1.0909(18)
O6A O 0.157(2) 0.7948(19) 0.9553(15)
O7A O 0.4065(19) 0.794(2) 1.1335(15)
O8A O 0.7514(17) 1.2299(16) 1.3745(12)
O9A O 0.6312(17) 1.4543(13) 1.1719(11)
O10A O 0.8021(19) 1.1638(14) 1.2029(14)
O11A O 0.2665(18) 1.0663(15) 0.8838(14)
O12A O 0.1460(15) 0.6638(16) 1.0736(13)
O13A O 0.2777(15) 1.1138(15) 1.2406(11)
O14A O 0.614(2) 0.7737(18) 1.2025(14)
O15A O 0.3015(18) 0.9095(17) 1.1425(14)
O16A O 0.0310(16) 0.8881(17) 0.8665(16)
O17A O 0.6220(16) 0.9938(14) 1.2394(13)
O18A O 0.4838(19) 1.269(2) 0.9920(16)
O19A O 0.7197(16) 1.324(2) 1.0580(13)
O20A O 0.542(2) 1.132(2) 0.9786(19)
O21A O 0.501(2) 1.112(2) 1.2508(18)
O22A O 0.235(2) 1.031(2) 1.0406(17)
W1A W 0.35259(10) 1.08097(9) 1.16428(8)
W2A W 0.57789(9) 0.84631(9) 1.13719(6)
W3A W 0.67106(9) 1.15673(9) 1.25443(7)
W4A W 0.18202(9) 0.92472(9) 0.91092(7)
W5A W 0.25871(9) 0.76999(9) 1.05013(7)
W6A W 0.59376(10) 1.30951(9) 1.11658(9)
#END
