
#######################################################################
#
#                 Cambridge Crystallographic Data Centre
#                                CCDC
#
#######################################################################
#
# If this CIF has been generated from an entry in the Cambridge
# Structural Database, then it will include bibliographic, chemical,
# crystal, experimental, refinement or atomic coordinate data resulting
# from the CCDC's data processing and validation procedures.
#
#######################################################################

data_CSD_CIF_XOGZUR
_audit_creation_date 2019-06-03
_audit_creation_method CSD-ConQuest-V1
_database_code_CSD XOGZUR
_database_code_depnum_ccdc_archive 'CCDC 1912618'
_chemical_formula_sum 'C36 H32 Co3 N6 O18'
_chemical_formula_moiety
;
2(C2 H8 N1 1+),n(C32 H12 Co3 N4 O16 2-),2(H2 O1)
;
_journal_coden_Cambridge 1295
_journal_volume 106
_journal_year 2019
_journal_page_first 144
_journal_name_full 'Inorg.Chem.Commun. '
loop_
_publ_author_name
"Yingming Ma"
"Yanchen Li"
"Jinjin Wu"
"Jiongfei Wang"
"Yuwei Li"
"Suxian Wang"
"Aiju Zhou"
"Yan-Yong Lin"
"Jing Wang"
_chemical_name_systematic
;
catena-[bis(Dimethylammonium) 
bis(\m-5,5'-(diazene-1,2-diyl)di(benzene-1,3-dicarboxylato))-tri-cobalt(ii) 
dihydrate]
;
_cell_volume   2122.669
_exptl_crystal_colour 'dark violet'
_exptl_crystal_description 'block'
_diffrn_ambient_temperature 100
_refine_special_details
;
Disordered cation and solvent molecules were not modelled and the disordered 
density was taken into account using the SQUEEZE/PLATON procedure.
;
#These two values have been output from a single CSD field.
_refine_ls_R_factor_gt 0.0837
_refine_ls_wR_factor_gt 0.0837
_symmetry_cell_setting monoclinic
_symmetry_space_group_name_H-M 'P 21/c'
_symmetry_Int_Tables_number 14
loop_
_symmetry_equiv_pos_site_id
_symmetry_equiv_pos_as_xyz
1 x,y,z
2 -x,1/2+y,1/2-z
3 -x,-y,-z
4 x,-1/2-y,-1/2+z
_cell_length_a 12.7977(3)
_cell_length_b 14.5344(2)
_cell_length_c 13.0141(3)
_cell_angle_alpha 90
_cell_angle_beta 118.732(3)
_cell_angle_gamma 90
_cell_formula_units_Z 2
loop_
_atom_type_symbol
_atom_type_radius_bond
C 0.68
H 0.23
Co 1.26
N 0.68
O 0.68
loop_
_atom_site_label
_atom_site_type_symbol
_atom_site_fract_x
_atom_site_fract_y
_atom_site_fract_z
Co1 Co 0.50000 0.50000 0.00000
Co2 Co 0.77557(7) 0.44041(6) 0.02575(7)
O1 O 0.5396(3) 0.5722(3) 0.8838(3)
O2 O 0.3870(3) 0.8873(3) 0.4951(3)
O3 O 0.8267(4) 0.5352(3) 0.1527(3)
O4 O 0.6488(3) 0.5516(3) 0.1461(3)
O5 O 0.7097(4) 0.5245(3) 0.8875(3)
O6 O 1.1027(4) 0.8135(4) 0.3447(4)
O7 O 0.3137(4) 0.8247(3) 0.6012(4)
O8 O 1.0673(4) 0.8994(3) 0.4645(4)
N1 N 0.7154(4) 0.6647(3) 0.5412(4)
N2 N 0.7433(4) 0.7376(3) 0.5088(4)
C1 C 0.7987(5) 0.7222(4) 0.4378(5)
C2 C 0.6157(5) 0.5716(4) 0.8474(4)
C3 C 0.5613(5) 0.7506(4) 0.5631(5)
H1 H 0.55111 0.79155 0.50207
C4 C 0.9416(5) 0.7687(4) 0.3789(5)
C5 C 0.7563(5) 0.5712(4) 0.1848(5)
C6 C 0.6467(5) 0.6815(4) 0.5998(5)
C7 C 0.5949(5) 0.6334(4) 0.7473(5)
C8 C 0.8859(5) 0.7814(4) 0.4471(5)
H2 H 0.90864 0.83141 0.50055
C9 C 0.7568(5) 0.6533(4) 0.3520(5)
H3 H 0.69324 0.61445 0.34299
C10 C 0.4915(5) 0.7588(4) 0.6170(5)
C11 C 0.8080(4) 0.6419(4) 0.2802(4)
C12 C 0.6643(5) 0.6227(4) 0.6910(5)
H4 H 0.72278 0.57551 0.71496
C13 C 0.5071(5) 0.6998(4) 0.7093(5)
H5 H 0.45772 0.70567 0.74488
C14 C 1.0434(5) 0.8310(4) 0.3964(5)
C15 C 0.3930(5) 0.8273(4) 0.5709(5)
C16 C 0.9032(5) 0.6994(4) 0.2963(5)
H6 H 0.94130 0.69050 0.24992
Co2B Co 0.22443(7) 0.55959(6) -0.02575(7)
O1B O 0.4604(3) 0.4278(3) -0.8838(3)
O2B O 0.6130(3) 0.1127(3) -0.4951(3)
O3B O 0.1733(4) 0.4648(3) -0.1527(3)
O4B O 0.3512(3) 0.4484(3) -0.1461(3)
O5B O 0.2903(4) 0.4755(3) -0.8875(3)
O6B O -0.1027(4) 0.1865(4) -0.3447(4)
O7B O 0.6863(4) 0.1753(3) -0.6012(4)
O8B O -0.0673(4) 0.1006(3) -0.4645(4)
N1B N 0.2846(4) 0.3353(3) -0.5412(4)
N2B N 0.2567(4) 0.2624(3) -0.5088(4)
C1B C 0.2013(5) 0.2778(4) -0.4378(5)
C2B C 0.3843(5) 0.4284(4) -0.8474(4)
C3B C 0.4387(5) 0.2494(4) -0.5631(5)
H1B H 0.44889 0.20845 -0.50207
C4B C 0.0584(5) 0.2313(4) -0.3789(5)
C5B C 0.2437(5) 0.4288(4) -0.1848(5)
C6B C 0.3533(5) 0.3185(4) -0.5998(5)
C7B C 0.4051(5) 0.3666(4) -0.7473(5)
C8B C 0.1141(5) 0.2186(4) -0.4471(5)
H2B H 0.09136 0.16859 -0.50055
C9B C 0.2432(5) 0.3467(4) -0.3520(5)
H3B H 0.30676 0.38555 -0.34299
C10B C 0.5085(5) 0.2412(4) -0.6170(5)
C11B C 0.1920(4) 0.3581(4) -0.2802(4)
C12B C 0.3357(5) 0.3773(4) -0.6910(5)
H4B H 0.27722 0.42449 -0.71496
C13B C 0.4929(5) 0.3002(4) -0.7093(5)
H5B H 0.54228 0.29433 -0.74488
C14B C -0.0434(5) 0.1690(4) -0.3964(5)
C15B C 0.6070(5) 0.1727(4) -0.5709(5)
C16B C 0.0968(5) 0.3006(4) -0.2963(5)
H6B H 0.05870 0.30950 -0.24992
Co1* Co 0.50000 0.50000 -1.00000
Co1** Co 0.50000 0.50000 1.00000
Co1A Co 0.50000 0.00000 -0.50000
Co1A* Co 0.50000 1.00000 0.50000
Co2* Co 0.77557(7) 0.44041(6) 1.02575(7)
Co2A Co 0.22443(7) 0.94041(6) 0.47425(7)
Co2A* Co 1.22443(7) 0.94041(6) 0.47425(7)
Co2B* Co 0.22443(7) 0.55959(6) -1.02575(7)
Co2C Co -0.22443(7) 0.05959(6) -0.47425(7)
Co2C* Co 0.77557(7) 0.05959(6) -0.47425(7)
O1* O 0.5396(3) 0.5722(3) -0.1162(3)
O1B* O 0.4604(3) 0.4278(3) 0.1162(3)
O2A O 0.6130(3) 0.3873(3) 0.0049(3)
O2C O 0.3870(3) 0.6127(3) -0.0049(3)
O5* O 0.7097(4) 0.5245(3) -0.1125(3)
O5B* O 0.2903(4) 0.4755(3) 0.1125(3)
O7A O 0.6863(4) 0.3247(3) -0.1012(4)
O7C O 0.3137(4) 0.6753(3) 0.1012(4)
O8A O 0.9327(4) 0.3994(3) 0.0355(4)
O8C O 0.0673(4) 0.6006(3) -0.0355(4)
#END
