
#######################################################################
#
#                 Cambridge Crystallographic Data Centre
#                                CCDC
#
#######################################################################
#
# If this CIF has been generated from an entry in the Cambridge
# Structural Database, then it will include bibliographic, chemical,
# crystal, experimental, refinement or atomic coordinate data resulting
# from the CCDC's data processing and validation procedures.
#
#######################################################################

data_CSD_CIF_XOHQIX
_audit_creation_date 2019-06-04
_audit_creation_method CSD-ConQuest-V1
_database_code_CSD XOHQIX
_database_code_depnum_ccdc_archive 'CCDC 1911708'
_chemical_formula_sum 'C52 H50 Cu2 N6 O20'
_chemical_formula_moiety
;
4(C2 H8 N1 1+),n(C44 H18 Cu2 N2 O20 4-)
;
_journal_coden_Cambridge 222
_journal_volume 48
_journal_year 2019
_journal_page_first 9225
_journal_name_full 'Dalton Trans. '
loop_
_publ_author_name
"Ming-Ming Xu"
"Xiang-Jing Kong"
"Tao He"
"Xue-Qian Wu"
"Lin-Hua Xie"
"Jian-Rong Li"
_chemical_name_systematic
;
catena-[tetrakis(Dimethylammonium) 
bis(\m-5'-nitro-1,1':3',1''-terphenyl-3,3'',5,5''-tetracarboxylato)-di-copper(
ii) unknown solvate]
;
_chemical_name_common
;
BUT-302
;
_cell_volume   4863.908
_exptl_crystal_colour 'light blue'
_exptl_crystal_description 'block'
_diffrn_ambient_temperature 293
_diffrn_special_details
;
twin

;
_refine_special_details
;
Disordered cation and solvent molecules were not modelled and the disordered 
density was taken into account using the SQUEEZE/PLATON procedure. The unit 
cell was found to contain a void of 2191 A$3! holding 767 electrons.
;
#These two values have been output from a single CSD field.
_refine_ls_R_factor_gt 0.068
_refine_ls_wR_factor_gt 0.068
_symmetry_cell_setting hexagonal
_symmetry_space_group_name_H-M 'P 32 2 1'
_symmetry_Int_Tables_number 154
loop_
_symmetry_equiv_pos_site_id
_symmetry_equiv_pos_as_xyz
1 x,y,z
2 -y,x-y,2/3+z
3 -x+y,-x,1/3+z
4 y,x,-z
5 x-y,-y,1/3-z
6 -x,-x+y,2/3-z
_cell_length_a 22.4612(9)
_cell_length_b 22.4612(9)
_cell_length_c 11.1324(6)
_cell_angle_alpha 90
_cell_angle_beta 90
_cell_angle_gamma 120
_cell_formula_units_Z 3
loop_
_atom_type_symbol
_atom_type_radius_bond
C 0.68
H 0.23
Cu 1.32
N 0.68
O 0.68
loop_
_atom_site_label
_atom_site_type_symbol
_atom_site_fract_x
_atom_site_fract_y
_atom_site_fract_z
C1 C 0.2895(9) 0.8113(10) 0.5436(18)
C2 C 0.2208(10) 0.7776(11) 0.507(2)
H1 H 0.19657 0.80125 0.50794
C3 C 0.1875(10) 0.7092(10) 0.468(2)
C4 C 0.2178(13) 0.6735(11) 0.4805(19)
H2 H 0.19430 0.62775 0.45636
C5 C 0.2829(13) 0.6994(13) 0.528(3)
C6 C 0.3229(12) 0.7718(12) 0.559(3)
H3 H 0.36776 0.79135 0.58725
C7 C 0.2257(12) 0.3612(11) 0.7348(16)
C8 C 0.1641(13) 0.3254(6) 0.667(2)
H4 H 0.13828 0.27782 0.67394
C9 C 0.1413(12) 0.3569(12) 0.592(2)
C10 C 0.1873(10) 0.4259(9) 0.5563(18)
H5 H 0.17501 0.44632 0.49597
C11 C 0.252(1) 0.4629(10) 0.6135(17)
C12 C 0.2728(9) 0.430(1) 0.6943(15)
H6 H 0.31776 0.45267 0.72278
C13 C 0.3137(11) 0.6526(11) 0.5555(18)
C14 C 0.3815(12) 0.6755(12) 0.544(2)
H7 H 0.41106 0.72109 0.52287
C15 C 0.4067(13) 0.6338(12) 0.563(3)
C16 C 0.3676(11) 0.5686(12) 0.568(2)
H8 H 0.38586 0.53988 0.55716
C17 C 0.2989(10) 0.5410(11) 0.591(2)
C18 C 0.2727(11) 0.5836(10) 0.5715(18)
H9 H 0.22529 0.56474 0.56931
C19 C 0.3226(10) 0.8839(9) 0.5873(18)
C20 C 0.1135(10) 0.6781(9) 0.4169(18)
C21 C 0.2447(12) 0.3242(11) 0.8157(18)
C22 C 0.0757(13) 0.3200(13) 0.514(2)
N1 N 0.4792(15) 0.6599(16) 0.555(4)
O1 O 0.2884(7) 0.9130(6) 0.5844(11)
O2 O 0.3816(8) 0.9126(9) 0.6273(16)
O3 O 0.0886(7) 0.7150(7) 0.4152(12)
O4 O 0.0861(8) 0.6178(7) 0.3829(14)
O5 O 0.3035(7) 0.3543(7) 0.8521(11)
O6 O 0.202(1) 0.2592(9) 0.8436(18)
O7 O 0.0585(9) 0.262(1) 0.4841(18)
O8 O 0.0495(7) 0.3565(9) 0.4828(11)
O9 O 0.5042(15) 0.6209(15) 0.523(3)
O10 O 0.5185(12) 0.7246(12) 0.531(5)
Cu1 Cu 0.33000(13) 1.00000 0.66667
Cu2 Cu 0.33047(13) 0.33047(13) 1.00000
C1C C 0.8113(9) 0.2895(10) 1.4564(18)
C2C C 0.7776(10) 0.2208(11) 1.493(2)
H1C H 0.80125 0.19657 1.49206
C3C C 0.7092(10) 0.1875(10) 1.532(2)
C4C C 0.6735(13) 0.2178(11) 1.5195(19)
H2C H 0.62775 0.19430 1.54364
C5C C 0.6994(13) 0.2829(13) 1.472(3)
C6C C 0.7718(12) 0.3229(12) 1.441(3)
H3C H 0.79135 0.36776 1.41275
C7C C 0.3612(12) 0.2257(11) 1.2652(16)
C8C C 0.3254(13) 0.1641(6) 1.333(2)
H4C H 0.27782 0.13828 1.32606
C9C C 0.3569(12) 0.1413(12) 1.408(2)
C10C C 0.4259(10) 0.1873(9) 1.4437(18)
H5C H 0.44632 0.17501 1.50403
C11C C 0.4629(10) 0.252(1) 1.3865(17)
C12C C 0.4300(9) 0.2728(10) 1.3057(15)
H6C H 0.45267 0.31776 1.27722
C13C C 0.6526(11) 0.3137(11) 1.4445(18)
C14C C 0.6755(12) 0.3815(12) 1.456(2)
H7C H 0.72109 0.41106 1.47713
C15C C 0.6338(13) 0.4067(12) 1.437(3)
C16C C 0.5686(11) 0.3676(12) 1.432(2)
H8C H 0.53988 0.38586 1.44284
C17C C 0.541(1) 0.2989(11) 1.409(2)
C18C C 0.5836(11) 0.2727(10) 1.4285(18)
H9C H 0.56474 0.22529 1.43069
C19C C 0.8839(10) 0.3226(9) 1.4127(18)
C20C C 0.6781(10) 0.1135(9) 1.5831(18)
C21C C 0.3242(12) 0.2447(11) 1.1843(18)
C22C C 0.3200(13) 0.0757(13) 1.486(2)
N1C N 0.6599(15) 0.4792(16) 1.445(4)
O1C O 0.9130(7) 0.2884(6) 1.4156(11)
O2C O 0.9126(8) 0.3816(9) 1.3727(16)
O3C O 0.7150(7) 0.0886(7) 1.5848(12)
O4C O 0.6178(8) 0.0861(7) 1.6171(14)
O5C O 0.3543(7) 0.3035(7) 1.1479(11)
O6C O 0.2592(10) 0.2020(9) 1.1564(18)
O7C O 0.2620(9) 0.0585(10) 1.5159(18)
O8C O 0.3565(7) 0.0495(9) 1.5172(11)
O9C O 0.6209(15) 0.5042(15) 1.477(3)
O10C O 0.7246(12) 0.5185(12) 1.469(5)
O1D O 0.3754(7) 1.0870(6) 0.748933(1100)
O2D O 0.4690(8) 1.0874(9) 0.706033(1600)
O3A O 0.2850(7) 0.3736(7) 1.081867(1200)
O3D O 0.3736(7) 0.2850(7) 0.918133(1200)
O4A O 0.3822(8) 0.4683(7) 1.049567(1400)
O4D O 0.4683(8) 0.3822(7) 0.950433(1400)
O8B O 0.3070(7) 0.9505(9) 0.816133(1100)
O8C* O 0.3565(7) 1.0495(9) 0.5172(11)
Cu1* Cu 0.33000(13) 0.00000 1.66667
Cu1A Cu 0.00000(13) 0.33000 0.33333
Cu1A* Cu 1.00000(13) 0.33000 1.33333
Cu2A Cu 0.66953(13) 0.00000(13) 1.66667
Cu2B Cu 0.00000(13) 0.66953(13) 0.33333
#END
