
#######################################################################
#
#                 Cambridge Crystallographic Data Centre
#                                CCDC
#
#######################################################################
#
# If this CIF has been generated from an entry in the Cambridge
# Structural Database, then it will include bibliographic, chemical,
# crystal, experimental, refinement or atomic coordinate data resulting
# from the CCDC's data processing and validation procedures.
#
#######################################################################

data_CSD_CIF_XOJWID
_audit_creation_date 2009-05-05
_audit_creation_method CSD-ConQuest-V1
_database_code_CSD XOJWID
_database_code_depnum_ccdc_archive 'CCDC 643980'
_chemical_formula_sum 'C42 H66 N6 O24 P4 Zn4'
_chemical_formula_moiety
;
(C2 H8 N1 1+)4n,n(C28 H16 O20 P4 Zn4 4-),2n(C3 H7 N1 O1),2n(H2 O1)
;
_journal_coden_Cambridge 1147
_journal_volume 8
_journal_year 2008
_journal_page_first 4045
_journal_name_full 'Cryst.Growth Des. '
loop_
_publ_author_name
"Zhenxia Chen"
"Yaming Zhou"
"Linhong Weng"
"Dongyuan Zhao"
_chemical_name_systematic
;
catena-(tetrakis(Dimethylammonium) 
tetrakis(\m~4~-4-phosphonatobenzoato)-tetra-zinc dimethylformamide solvate 
dihydrate)
;
_cell_volume   1487.599
_exptl_crystal_colour 'colorless'
_exptl_crystal_density_diffrn 1.59
_exptl_crystal_description 'cuboid'
_diffrn_ambient_temperature 293
#These two values have been output from a single CSD field.
_refine_ls_R_factor_gt 0.0691
_refine_ls_wR_factor_gt 0.0691
_symmetry_cell_setting triclinic
_symmetry_space_group_name_H-M 'P -1'
_symmetry_Int_Tables_number 2
loop_
_symmetry_equiv_pos_site_id
_symmetry_equiv_pos_as_xyz
1 x,y,z
2 -x,-y,-z
_cell_length_a 10.075(9)
_cell_length_b 13.051(7)
_cell_length_c 13.240(9)
_cell_angle_alpha 70.79(4)
_cell_angle_beta 68.85(4)
_cell_angle_gamma 70.61(4)
_cell_formula_units_Z 1
loop_
_atom_type_symbol
_atom_type_radius_bond
C 0.68
H 0.23
N 0.68
O 0.68
P 1.05
Zn 1.45
loop_
_atom_site_label
_atom_site_type_symbol
_atom_site_fract_x
_atom_site_fract_y
_atom_site_fract_z
Zn1 Zn 1.43318(7) 0.83363(5) 0.55285(5)
Zn2 Zn 0.83744(7) 0.94549(5) 0.66517(5)
P1 P 1.12993(15) 0.83589(12) 0.52661(12)
P2 P 0.50792(15) 0.96900(12) 0.66402(12)
O1 O 1.2288(4) 0.8673(4) 0.5679(3)
O2 O 0.9881(4) 0.8220(3) 0.6160(4)
O3 O 1.1010(5) 0.9167(3) 0.4206(4)
O4 O 1.4467(5) 0.3053(4) 0.4855(4)
O5 O 1.5096(7) 0.3877(4) 0.3072(5)
O6 O 0.6720(4) 0.9288(4) 0.6379(3)
O7 O 0.4414(5) 0.8744(3) 0.6793(3)
O8 O 0.4584(4) 1.0713(3) 0.5798(3)
O9 O 0.2030(5) 1.0376(4) 1.1865(4)
O10 O 0.2697(6) 1.1980(4) 1.1076(4)
C1 C 1.2177(6) 0.7035(5) 0.4916(5)
C2 C 1.2193(7) 0.6058(5) 0.5732(5)
H1 H 1.17140 0.60770 0.64740
C3 C 1.2933(7) 0.5032(5) 0.5442(6)
H2 H 1.29370 0.43700 0.59950
C4 C 1.3638(7) 0.4997(5) 0.4371(6)
C5 C 1.3624(8) 0.5971(6) 0.3546(6)
H3 H 1.41070 0.59460 0.28060
C6 C 1.2892(7) 0.6984(5) 0.3820(5)
H4 H 1.28780 0.76400 0.32600
C7 C 1.4474(7) 0.3904(5) 0.4067(6)
C8 C 0.4330(6) 1.0094(5) 0.7954(5)
C9 C 0.3776(7) 0.9384(5) 0.8925(5)
H5 H 0.38030 0.86670 0.89190
C10 C 0.3190(8) 0.9710(6) 0.9894(5)
H6 H 0.27960 0.92180 1.05400
C11 C 0.3160(7) 1.0753(5) 0.9953(5)
C12 C 0.3710(8) 1.1477(6) 0.8979(5)
H7 H 0.36900 1.21900 0.89930
C13 C 0.4288(7) 1.1157(5) 0.7986(5)
H8 H 0.46520 1.16550 0.73330
C14 C 0.2589(7) 1.1082(6) 1.1028(6)
N1 N 0.3437(8) 0.3178(6) 0.2024(5)
H9 H 0.32870 0.26310 0.18360
H10 H 0.40040 0.28520 0.24910
N2 N 0.1522(7) 0.1144(6) 0.6111(6)
H11 H 0.10900 0.09750 0.57180
H12 H 0.24940 0.08640 0.58650
C15 C 0.2050(12) 0.3793(9) 0.2597(9)
H13 H 0.15930 0.32950 0.32480
H14 H 0.14280 0.41260 0.21100
H15 H 0.22020 0.43690 0.28140
C16 C 0.4224(14) 0.3876(10) 0.1013(8)
H16 H 0.51400 0.34200 0.06710
H17 H 0.44070 0.44520 0.12090
H18 H 0.36400 0.42100 0.05000
C17 C 0.1020(9) 0.0591(9) 0.7267(7)
H19 H 0.12500 -0.02000 0.73400
H20 H -0.00210 0.08660 0.75370
H21 H 0.14990 0.07410 0.76940
C18 C 0.1243(11) 0.2344(9) 0.5873(11)
H22 H 0.16100 0.26350 0.50860
H23 H 0.17280 0.25390 0.62640
H24 H 0.02070 0.26590 0.61120
O11 O 0.3214(10) 0.4740(9) 0.8686(7)
N3 N 0.0620(12) 0.6982(9) 0.9904(10)
O12 O -0.0684(13) 0.5835(11) 1.1279(10)
C19 C -0.0217(16) 0.6302(11) 1.0294(14)
H25 H -0.05020 0.61440 0.97780
C20 C 0.1142(15) 0.7463(12) 0.8732(11)
H26 H 0.07410 0.72150 0.83230
H27 H 0.21930 0.72320 0.84950
H28 H 0.08390 0.82640 0.85960
C21 C 0.102(2) 0.727(2) 1.0672(17)
H29 H 0.05640 0.68970 1.14160
H30 H 0.06990 0.80620 1.05930
H31 H 0.20650 0.70380 1.05310
Zn1A Zn -0.43318(7) 1.16637(5) 1.44715(5)
Zn1* Zn -0.56682(7) 1.83363(5) 1.55285(5)
Zn1** Zn 0.43318(7) 0.83363(5) 0.55285(5)
Zn1*** Zn 0.43318(7) 0.83363(5) 1.55285(5)
Zn1A* Zn 0.56682(7) 1.16637(5) 0.44715(5)
Zn1A** Zn 0.56682(7) 1.16637(5) 1.44715(5)
Zn1A*** Zn 1.56682(7) 0.16637(5) 0.44715(5)
Zn2A Zn 0.16256(7) 1.05451(5) 1.33483(5)
Zn2* Zn -0.16256(7) 0.94549(5) 1.66517(5)
Zn2A* Zn 1.16256(7) 1.05451(5) 0.33483(5)
P1A P -0.12993(15) 1.16411(12) 1.47339(12)
P2A P 0.49208(15) 1.03100(12) 1.33598(12)
O1A O -0.2288(4) 1.1327(4) 1.4321(3)
O2A O 0.0119(4) 1.1780(3) 1.3840(4)
O3A O -0.1010(5) 1.0833(3) 1.5794(4)
O3* O 0.1010(5) 0.9167(3) 1.4206(4)
O3A* O 0.8990(5) 1.0833(3) 0.5794(4)
O4A O -0.4467(5) 1.6947(4) 1.5145(4)
O4* O -0.5533(5) 1.3053(4) 1.4855(4)
O4A* O 1.5533(5) 0.6947(4) 0.5145(4)
O5A O -0.5096(7) 1.6123(4) 1.6928(5)
O6A O 0.3280(4) 1.0712(4) 1.3621(3)
O7A O 0.5586(5) 1.1256(3) 1.3207(3)
O7* O 1.4414(5) 0.8744(3) 0.6793(3)
O7A* O -0.4414(5) 1.1256(3) 1.3207(3)
O8A O 0.5416(4) 0.9287(3) 1.4202(3)
O8* O -0.5416(4) 1.0713(3) 1.5798(3)
O8A* O 1.5416(4) 0.9287(3) 0.4202(3)
O9A O 0.7970(5) 0.9624(4) 0.8135(4)
O10A O 0.7303(6) 0.8020(4) 0.8924(4)
C1A C -0.2177(6) 1.2965(5) 1.5084(5)
C2A C -0.2193(7) 1.3942(5) 1.4268(5)
H1A H -0.17140 1.39230 1.35260
C3A C -0.2933(7) 1.4968(5) 1.4558(6)
H2A H -0.29370 1.56300 1.40050
C4A C -0.3638(7) 1.5003(5) 1.5629(6)
C5A C -0.3624(8) 1.4029(6) 1.6454(6)
H3A H -0.41070 1.40540 1.71940
C6A C -0.2892(7) 1.3016(5) 1.6180(5)
H4A H -0.28780 1.23600 1.67400
C7A C -0.4474(7) 1.6096(5) 1.5933(6)
C8A C 0.5670(6) 0.9906(5) 1.2046(5)
C9A C 0.6224(7) 1.0616(5) 1.1075(5)
H5A H 0.61970 1.13330 1.10810
C10A C 0.6810(8) 1.0290(6) 1.0106(5)
H6A H 0.72040 1.07820 0.94600
C11A C 0.6840(7) 0.9247(5) 1.0047(5)
C12A C 0.6290(8) 0.8523(6) 1.1021(5)
H7A H 0.63100 0.78100 1.10070
C13A C 0.5712(7) 0.8843(5) 1.2014(5)
H8A H 0.53480 0.83450 1.26670
C14A C 0.7411(7) 0.8918(6) 0.8972(6)
#END
