
#######################################################################
#
#                 Cambridge Crystallographic Data Centre
#                                CCDC
#
#######################################################################
#
# If this CIF has been generated from an entry in the Cambridge
# Structural Database, then it will include bibliographic, chemical,
# crystal, experimental, refinement or atomic coordinate data resulting
# from the CCDC's data processing and validation procedures.
#
#######################################################################

data_CSD_CIF_XOJWOJ
_audit_creation_date 2009-05-05
_audit_creation_method CSD-ConQuest-V1
_database_code_CSD XOJWOJ
_database_code_depnum_ccdc_archive 'CCDC 643981'
_chemical_formula_sum 'C40 H60 N8 O22 P4 Zn4'
_chemical_formula_moiety
;
(C6 H20 N4 2+)2n,n(C28 H16 O20 P4 Zn4 4-),2n(H2 O1)
;
_journal_coden_Cambridge 1147
_journal_volume 8
_journal_year 2008
_journal_page_first 4045
_journal_name_full 'Cryst.Growth Des. '
loop_
_publ_author_name
"Zhenxia Chen"
"Yaming Zhou"
"Linhong Weng"
"Dongyuan Zhao"
_chemical_name_systematic
;
catena-(bis(N,N'-bis(2-Ammonioethyl)ethylenediamine) 
tetrakis(\m~4~-4-phosphonatobenzoato)-tetra-zinc dihydrate)
;
_cell_volume   2912.427
_exptl_crystal_colour 'colorless'
_exptl_crystal_density_diffrn 1.581
_exptl_crystal_description 'cuboid'
_diffrn_ambient_temperature 293
_refine_special_details
;
One ethylene fragment is disordered over two sites with occupancies 
0.50:0.50. The water molecules are disordered over two sites with occupancies 
;
#These two values have been output from a single CSD field.
_refine_ls_R_factor_gt 0.0575
_refine_ls_wR_factor_gt 0.0575
_symmetry_cell_setting monoclinic
_symmetry_space_group_name_H-M 'P 21/c'
_symmetry_Int_Tables_number 14
loop_
_symmetry_equiv_pos_site_id
_symmetry_equiv_pos_as_xyz
1 x,y,z
2 -x,1/2+y,1/2-z
3 -x,-y,-z
4 x,-1/2-y,-1/2+z
_cell_length_a 9.869(3)
_cell_length_b 17.101(5)
_cell_length_c 17.320(5)
_cell_angle_alpha 90
_cell_angle_beta 94.896(4)
_cell_angle_gamma 90
_cell_formula_units_Z 2
loop_
_atom_type_symbol
_atom_type_radius_bond
C 0.68
H 0.23
N 0.68
O 0.68
P 1.05
Zn 1.45
loop_
_atom_site_label
_atom_site_type_symbol
_atom_site_fract_x
_atom_site_fract_y
_atom_site_fract_z
Zn1 Zn 0.06281(7) -0.03402(4) 0.09974(4)
Zn2 Zn -0.44984(7) 0.10733(4) -0.03680(4)
P1 P 0.35393(15) 0.06128(9) 0.08767(9)
P2 P -0.14646(15) 0.10272(9) 0.05420(9)
O1 O 0.2049(4) 0.0418(2) 0.0858(2)
O2 O 0.3837(4) 0.1111(2) 0.0175(2)
O3 O 0.4477(4) -0.0093(3) 0.0968(2)
O4 O 0.5142(5) 0.3265(3) 0.3727(3)
O5 O 0.4822(8) 0.2242(3) 0.4453(3)
O6 O -0.1022(4) 0.0286(3) 0.0978(2)
O7 O -0.0700(4) 0.1137(2) -0.0183(2)
O8 O -0.2986(4) 0.1069(3) 0.0395(2)
O9 O -0.0994(5) 0.4112(3) 0.3007(3)
O10 O 0.1027(5) 0.3571(3) 0.3301(3)
C1 C 0.3917(6) 0.1201(4) 0.1735(3)
C2 C 0.3569(7) 0.0928(4) 0.2445(4)
H1 H 0.31310 0.04490 0.24770
C3 C 0.3880(7) 0.1375(4) 0.3110(4)
H2 H 0.36580 0.11830 0.35860
C4 C 0.4499(7) 0.2085(4) 0.3082(4)
C5 C 0.4825(8) 0.2372(4) 0.2379(4)
H3 H 0.52380 0.28590 0.23510
C6 C 0.4534(7) 0.1928(4) 0.1706(4)
H4 H 0.47590 0.21230 0.12330
C7 C 0.4844(7) 0.2546(4) 0.3816(4)
C8 C -0.1012(6) 0.1834(4) 0.1181(3)
C9 C 0.0242(6) 0.1862(4) 0.1609(4)
H5 H 0.08810 0.14750 0.15370
C10 C 0.0562(6) 0.2453(4) 0.2140(4)
H6 H 0.14140 0.24610 0.24150
C11 C -0.0370(7) 0.3025(4) 0.2263(4)
C12 C -0.1621(7) 0.3024(4) 0.1827(4)
H7 H -0.22470 0.34190 0.18950
C13 C -0.1936(7) 0.2435(4) 0.1292(4)
H8 H -0.27750 0.24400 0.10030
C14 C -0.0072(7) 0.3606(4) 0.2897(4)
N1 N 0.6905(7) -0.0320(5) 0.1854(4)
H9 H 0.60950 -0.03160 0.15850
H10 H 0.73790 -0.07310 0.17140
H11 H 0.73520 0.01170 0.17580
N2 N 0.8405(14) 0.0483(10) 0.3291(13)
N3 N 1.0014(11) 0.1616(7) 0.4070(11)
N4 N 1.1649(6) 0.2891(3) 0.4738(3)
H12 H 1.24320 0.31390 0.48570
H13 H 1.09700 0.31680 0.49080
H14 H 1.15140 0.28370 0.42260
C15 C 0.6729(15) -0.0366(7) 0.2659(6)
H15 H 0.64220 -0.08940 0.27530
H16 H 0.59770 -0.00220 0.27490
C16 C 0.7828(15) -0.0192(12) 0.3285(8)
H17 H 0.74470 -0.02590 0.37790
H18 H 0.85310 -0.05850 0.32580
C17 C 0.7780(19) 0.1017(12) 0.3677(13)
H19 H 0.74580 0.07760 0.41340
H20 H 0.69910 0.12000 0.33550
C18 C 0.8575(15) 0.1654(12) 0.3906(16)
H21 H 0.82130 0.18600 0.43680
H22 H 0.84050 0.20480 0.35060
C19 C 1.0247(15) 0.1669(7) 0.4832(10)
H23 H 1.02700 0.11470 0.50530
H24 H 0.95030 0.19500 0.50370
C20 C 1.1697(13) 0.2121(6) 0.5103(6)
H25 H 1.18050 0.21740 0.56630
H26 H 1.24600 0.18230 0.49410
O11 O 0.430(3) 0.0856(19) 0.5208(17)
C21? C 0.9733(12) 0.0307(11) 0.3581(12)
C22? C 1.0530(17) 0.0876(10) 0.3909(15)
H27? H 0.96820 -0.01050 0.39630
H28? H 1.01970 0.00890 0.31580
H29? H 1.12600 0.09570 0.35770
H30? H 1.09440 0.06690 0.43950
O12? O 0.547(4) 0.0920(18) 0.5584(19)
Zn1B Zn -0.06281(7) 0.03402(4) -0.09974(4)
Zn1A Zn -0.06281(7) 0.46598(4) 0.40026(4)
Zn1C Zn 0.06281(7) -0.46598(4) -0.40026(4)
Zn2B Zn 0.44984(7) -0.10733(4) 0.03680(4)
Zn2* Zn 0.55016(7) 0.10733(4) -0.03680(4)
Zn2A Zn -0.55016(7) -0.39267(4) -0.46320(4)
Zn2B* Zn -0.55016(7) -0.10733(4) 0.03680(4)
Zn2C Zn 0.55016(7) 0.39267(4) 0.46320(4)
P1B P -0.35393(15) -0.06128(9) -0.08767(9)
P2B P 0.14646(15) -0.10272(9) -0.05420(9)
O1B O -0.2049(4) -0.0418(2) -0.0858(2)
O2B O -0.3837(4) -0.1111(2) -0.0175(2)
O2* O -0.6163(4) 0.1111(2) 0.0175(2)
O2B* O 0.6163(4) -0.1111(2) -0.0175(2)
O3B O -0.4477(4) 0.0093(3) -0.0968(2)
O4B O -0.5142(5) -0.3265(3) -0.3727(3)
O4A O 0.4858(5) -0.1735(3) 0.1273(3)
O4C O -0.4858(5) 0.1735(3) -0.1273(3)
O5B O -0.4822(8) -0.2242(3) -0.4453(3)
O6B O 0.1022(4) -0.0286(3) -0.0978(2)
O7B O 0.0700(4) -0.1137(2) 0.0183(2)
O8B O 0.2986(4) -0.1069(3) -0.0395(2)
O9B O 0.0994(5) -0.4112(3) -0.3007(3)
O9A O 0.0994(5) -0.0888(3) 0.1993(3)
O9C O -0.0994(5) 0.0888(3) -0.1993(3)
O10B O -0.1027(5) -0.3571(3) -0.3301(3)
C1B C -0.3917(6) -0.1201(4) -0.1735(3)
C2B C -0.3569(7) -0.0928(4) -0.2445(4)
H1B H -0.31310 -0.04490 -0.24770
C3B C -0.3880(7) -0.1375(4) -0.3110(4)
H2B H -0.36580 -0.11830 -0.35860
C4B C -0.4499(7) -0.2085(4) -0.3082(4)
C5B C -0.4825(8) -0.2372(4) -0.2379(4)
H3B H -0.52380 -0.28590 -0.23510
C6B C -0.4534(7) -0.1928(4) -0.1706(4)
H4B H -0.47590 -0.21230 -0.12330
C7B C -0.4844(7) -0.2546(4) -0.3816(4)
C8B C 0.1012(6) -0.1834(4) -0.1181(3)
C9B C -0.0242(6) -0.1862(4) -0.1609(4)
H5B H -0.08810 -0.14750 -0.15370
C10B C -0.0562(6) -0.2453(4) -0.2140(4)
H6B H -0.14140 -0.24610 -0.24150
C11B C 0.0370(7) -0.3025(4) -0.2263(4)
C12B C 0.1621(7) -0.3024(4) -0.1827(4)
H7B H 0.22470 -0.34190 -0.18950
C13B C 0.1936(7) -0.2435(4) -0.1292(4)
H8B H 0.27750 -0.24400 -0.10030
C14B C 0.0072(7) -0.3606(4) -0.2897(4)
#END
