
#######################################################################
#
#                 Cambridge Crystallographic Data Centre
#                                CCDC
#
#######################################################################
#
# If this CIF has been generated from an entry in the Cambridge
# Structural Database, then it will include bibliographic, chemical,
# crystal, experimental, refinement or atomic coordinate data resulting
# from the CCDC's data processing and validation procedures.
#
#######################################################################

data_CSD_CIF_XOJXAW
_audit_creation_date 2009-05-05
_audit_creation_method CSD-ConQuest-V1
_database_code_CSD XOJXAW
_database_code_depnum_ccdc_archive 'CCDC 643983'
_chemical_formula_sum 'C27 H28 N1 O15 P3 Zn4'
_chemical_formula_moiety
;
(C6 H16 N1 1+)n,n(C21 H12 O15 P3 Zn4 1-)
;
_journal_coden_Cambridge 1147
_journal_volume 8
_journal_year 2008
_journal_page_first 4045
_journal_name_full 'Cryst.Growth Des. '
loop_
_publ_author_name
"Zhenxia Chen"
"Yaming Zhou"
"Linhong Weng"
"Dongyuan Zhao"
_chemical_name_systematic
;
catena-(Triethylammonium 
(\m~6~-4-phosphonatobenzoato)-bis(\m~5~-4-phosphonatobenzoato)-tetra-zinc)
;
_cell_volume   1854.174
_exptl_crystal_colour 'colorless'
_exptl_crystal_density_diffrn 1.721
_exptl_crystal_description 'cuboid'
_diffrn_ambient_temperature 293
#These two values have been output from a single CSD field.
_refine_ls_R_factor_gt 0.0768
_refine_ls_wR_factor_gt 0.0768
_symmetry_cell_setting monoclinic
_symmetry_space_group_name_H-M 'P 21'
_symmetry_Int_Tables_number 4
loop_
_symmetry_equiv_pos_site_id
_symmetry_equiv_pos_as_xyz
1 x,y,z
2 -x,1/2+y,-z
_cell_length_a 9.694(5)
_cell_length_b 10.117(5)
_cell_length_c 19.488(10)
_cell_angle_alpha 90
_cell_angle_beta 104.040(8)
_cell_angle_gamma 90
_cell_formula_units_Z 2
loop_
_atom_type_symbol
_atom_type_radius_bond
C 0.68
H 0.23
N 0.68
O 0.68
P 1.05
Zn 1.45
loop_
_atom_site_label
_atom_site_type_symbol
_atom_site_fract_x
_atom_site_fract_y
_atom_site_fract_z
Zn1 Zn -0.49523(11) 0.52127(12) -0.22260(7)
Zn2 Zn 0.15660(11) 0.53640(12) -0.19744(6)
Zn3 Zn -0.00852(13) 0.24023(12) -0.22978(7)
Zn4 Zn 0.18399(13) -0.02719(12) -0.26456(7)
P1 P -0.1556(3) 0.4773(3) -0.17749(16)
P2 P 0.3132(3) 0.2633(3) -0.21026(15)
P3 P -0.2778(3) 0.1976(3) -0.68470(15)
O1 O -0.2960(7) 0.5397(9) -0.2133(4)
O2 O -0.0356(7) 0.5575(8) -0.1933(4)
O3 O -0.1526(8) 0.3348(8) -0.1995(5)
O4 O -0.011(1) 0.5781(8) 0.1748(5)
O5 O -0.1701(10) 0.4210(9) 0.1680(5)
O6 O 0.1742(7) 0.3388(7) -0.2092(4)
O7 O 0.2799(8) 0.1422(7) -0.2558(4)
O8 O 0.4184(8) 0.3515(8) -0.2339(4)
O9 O 0.7212(7) 0.0686(7) 0.1045(4)
O10 O 0.5165(9) 0.1029(9) 0.1358(5)
O11 O 0.0202(8) 0.0091(8) -0.3463(4)
O12 O -0.0588(8) 0.2118(8) -0.3298(4)
O13 O -0.2858(8) 0.3424(7) -0.6982(4)
O14 O -0.4260(8) 0.1376(8) -0.6998(4)
O15 O -0.1819(8) 0.1269(8) -0.7216(4)
C1 C -0.1348(10) 0.4811(12) -0.0839(6)
C2 C -0.2127(15) 0.3948(12) -0.0510(8)
H1 H -0.27450 0.33400 -0.07830
C3 C -0.1984(15) 0.3990(12) 0.0215(7)
H2 H -0.25270 0.34250 0.04200
C4 C -0.1065(13) 0.4844(12) 0.0630(7)
C5 C -0.0240(13) 0.5653(12) 0.0311(7)
H3 H 0.04310 0.62100 0.05910
C6 C -0.0391(14) 0.5649(13) -0.0402(7)
H4 H 0.01580 0.62200 -0.06000
C7 C -0.0951(13) 0.4969(13) 0.1401(7)
C8 C 0.3913(11) 0.2132(10) -0.1212(6)
C9 C 0.3326(11) 0.2491(12) -0.0638(6)
H5 H 0.24970 0.29910 -0.07210
C10 C 0.3965(11) 0.2112(12) 0.0026(6)
H6 H 0.35550 0.23390 0.03940
C11 C 0.5220(11) 0.1391(11) 0.0173(6)
C12 C 0.5804(12) 0.1065(12) -0.0375(7)
H7 H 0.66670 0.06180 -0.02830
C13 C 0.5132(13) 0.1390(13) -0.1064(6)
H8 H 0.55120 0.11010 -0.14320
C14 C 0.5936(12) 0.1013(10) 0.0916(6)
C15 C -0.0399(12) 0.1146(11) -0.3690(6)
C16 C -0.0932(11) 0.1344(12) -0.4471(6)
C17 C -0.0910(13) 0.0370(14) -0.4935(6)
H9 H -0.05390 -0.04500 -0.47680
C18 C -0.1431(14) 0.0556(12) -0.5661(7)
H10 H -0.13830 -0.01280 -0.59730
C19 C -0.2016(11) 0.1756(10) -0.5917(6)
C20 C -0.2005(13) 0.2761(12) -0.5435(6)
H11 H -0.23560 0.35870 -0.56010
C21 C -0.1495(13) 0.2583(12) -0.4725(6)
H12 H -0.15190 0.32720 -0.44130
N1 N 0.657(3) 0.802(4) -0.324(2)
H13 H 0.59340 0.74390 -0.31430
C22 C 0.759(3) 0.849(3) -0.2574(16)
H14 H 0.82510 0.77880 -0.23870
H15 H 0.81340 0.92330 -0.26860
C23 C 0.693(3) 0.886(2) -0.2084(19)
H16 H 0.76140 0.92390 -0.16900
H17 H 0.64910 0.81110 -0.19290
H18 H 0.62240 0.95130 -0.22780
C24 C 0.594(4) 0.875(6) -0.389(2)
H19 H 0.65270 0.86730 -0.42270
H20 H 0.49980 0.84150 -0.41070
C25 C 0.588(11) 1.010(6) -0.366(6)
H21 H 0.51810 1.05780 -0.40070
H22 H 0.67930 1.05100 -0.36090
H23 H 0.56220 1.01180 -0.32150
C26 C 0.776(4) 0.734(3) -0.3392(18)
H24 H 0.83410 0.70300 -0.29420
H25 H 0.83240 0.79890 -0.35690
C27 C 0.757(4) 0.622(3) -0.3874(18)
H26 H 0.84610 0.60180 -0.39860
H27 H 0.68780 0.64410 -0.43010
H28 H 0.72530 0.54690 -0.36560
Zn1* Zn 0.50477(11) 0.52127(12) -0.22260(7)
Zn1A Zn 0.49523(11) 0.02127(12) 0.22260(7)
Zn1A* Zn -0.50477(11) 0.02127(12) -0.77740(7)
Zn2A Zn 0.84340(11) 0.03640(12) 0.19744(6)
Zn2A* Zn -0.15660(11) 0.03640(12) -0.80256(6)
Zn3A Zn 0.00852(13) 0.74023(12) 0.22978(7)
Zn4A Zn -0.18399(13) 0.47281(12) 0.26456(7)
Zn4A* Zn -0.18399(13) 0.47281(12) -0.73544(7)
O4A O 0.011(1) 0.0781(8) -0.1748(5)
O5A O 0.1701(10) -0.0790(9) -0.1680(5)
O8* O -0.5816(8) 0.3515(8) -0.2339(4)
O9A O 0.2788(7) 0.5686(7) -0.1045(4)
O10A O -0.5165(9) 0.6029(9) -0.1358(5)
O13A O 0.2858(8) -0.1576(7) -0.3018(4)
O14A O -0.5740(8) 0.6376(8) -0.3002(4)
O15A O 0.1819(8) 0.6269(8) -0.2784(4)
#END
