
#######################################################################
#
#                 Cambridge Crystallographic Data Centre
#                                CCDC
#
#######################################################################
#
# If this CIF has been generated from an entry in the Cambridge
# Structural Database, then it will include bibliographic, chemical,
# crystal, experimental, refinement or atomic coordinate data resulting
# from the CCDC's data processing and validation procedures.
#
#######################################################################

data_CSD_CIF_XOJZIF
_audit_creation_date 2002-10-15
_audit_creation_method CSD-ConQuest-V1
_database_code_CSD XOJZIF
_chemical_formula_sum 'C4 H12 N2 O14 P2 V2'
_chemical_formula_moiety
;
(C2 H10 N2 2+)n,n(C2 H2 O14 P2 V2 2-)
;
_journal_coden_Cambridge 1096
_journal_volume 13
_journal_year 2001
_journal_page_first 2601
_journal_name_full 'Chem.Mater. '
loop_
_publ_author_name
"Junghwan Do"
"R.P.Bontchev"
"A.J.Jacobson"
_chemical_name_systematic
;
catena-(Ethylenediammonium bis(\m~3~-hydrogen 
phosphato-O,O',O'')-(\m~2~-oxalato)-dioxo-di-vanadium)
;
_cell_volume    354.424
_exptl_crystal_colour 'green'
_exptl_crystal_density_diffrn 2.225
_exptl_special_details
;
isostructural with the ammonium and guanidinium analogues

;
_exptl_crystal_description 'plate'
_diffrn_ambient_temperature 293
#These two values have been output from a single CSD field.
_refine_ls_R_factor_gt 0.0321
_refine_ls_wR_factor_gt 0.0321
_symmetry_cell_setting triclinic
_symmetry_space_group_name_H-M 'P -1'
_symmetry_Int_Tables_number 2
loop_
_symmetry_equiv_pos_site_id
_symmetry_equiv_pos_as_xyz
1 x,y,z
2 -x,-y,-z
_cell_length_a 6.3595(7)
_cell_length_b 6.6236(7)
_cell_length_c 9.2245(10)
_cell_angle_alpha 98.216(2)
_cell_angle_beta 108.128(2)
_cell_angle_gamma 100.672(2)
_cell_formula_units_Z 1
loop_
_atom_type_symbol
_atom_type_radius_bond
C 0.68
H 0.23
N 0.68
O 0.68
P 1.05
V 1.23
loop_
_atom_site_label
_atom_site_type_symbol
_atom_site_fract_x
_atom_site_fract_y
_atom_site_fract_z
V1 V 0.1843(1) 0.5742(1) 0.8294(1)
P1 P -0.2785(1) 0.6413(1) 0.8790(1)
O1 O -0.1465(3) 0.5279(3) 0.7981(2)
O2 O -0.5306(3) 0.5385(3) 0.7897(2)
O3 O 0.0389(3) 0.3125(3) 0.6133(2)
O4 O -0.2093(3) 0.6505(3) 1.0530(2)
O5 O -0.1210(3) 0.2710(3) 0.3545(2)
O6 O 0.2855(3) 0.7867(3) 0.9614(2)
O7 O -0.2298(4) 0.8784(3) 0.8609(2)
N1 N -0.4463(5) -0.1134(5) 0.3189(3)
C1 C -0.0217(4) 0.3800(4) 0.4920(3)
C2 C -0.4504(6) -0.0917(5) 0.4800(4)
H1 H -0.5396(68) -0.2100(63) 0.4918(44)
H2 H -0.2927(68) -0.0566(59) 0.5492(45)
H3 H -0.3217(89) -0.0133(84) 0.3193(56)
H4 H -0.4280(82) -0.2367(84) 0.2786(55)
H5 H -0.5469(94) -0.0862(80) 0.2563(61)
C1A C 0.0217(4) 0.6200(4) 0.5080(3)
O3A O -0.0389(3) 0.6875(3) 0.3867(2)
O5A O 0.1210(3) 0.7290(3) 0.6455(2)
C2A C -0.5496(6) 0.0917(5) 0.5200(4)
N1A N -0.5537(5) 0.1134(5) 0.6811(3)
H3A H -0.6783(89) 0.0133(84) 0.6807(56)
H4A H -0.5720(82) 0.2367(84) 0.7214(55)
H5A H -0.4531(94) 0.0862(80) 0.7437(61)
H1A H -0.4604(68) 0.2100(63) 0.5082(44)
H2A H -0.7073(68) 0.0566(59) 0.4508(45)
P1* P 0.7215(1) 0.6413(1) 0.8790(1)
O1* O 0.8535(3) 0.5279(3) 0.7981(2)
O2* O 0.4694(3) 0.5385(3) 0.7897(2)
O4* O 0.7907(3) 0.6505(3) 1.0530(2)
O7* O 0.7702(4) 0.8784(3) 0.8609(2)
V1* V 1.1843(1) 0.5742(1) 0.8294(1)
O6* O 1.2855(3) 0.7867(3) 0.9614(2)
O4A O 0.2093(3) 0.3495(3) 0.9470(2)
V1** V -0.8157(1) 0.5742(1) 0.8294(1)
V1A V -0.1843(1) 0.4258(1) 1.1706(1)
V1A* V -0.1843(1) 0.4258(1) 0.1706(1)
V1A** V 0.8157(1) 0.4258(1) 1.1706(1)
O2** O 1.4694(3) 0.5385(3) 0.7897(2)
O3* O 1.0389(3) 0.3125(3) 0.6133(2)
O4A* O 1.2093(3) 0.3495(3) 0.9470(2)
O5A* O 1.1210(3) 0.7290(3) 0.6455(2)
#END
