
#######################################################################
#
#                 Cambridge Crystallographic Data Centre
#                                CCDC
#
#######################################################################
#
# If this CIF has been generated from an entry in the Cambridge
# Structural Database, then it will include bibliographic, chemical,
# crystal, experimental, refinement or atomic coordinate data resulting
# from the CCDC's data processing and validation procedures.
#
#######################################################################

data_CSD_CIF_XOKFOU
_audit_creation_date 2014-06-26
_audit_creation_method CSD-ConQuest-V1
_database_code_CSD XOKFOU
_database_code_depnum_ccdc_archive 'CCDC 988326'
_chemical_formula_sum 'C32 H30 Ag5 Mo12 N10 O43 P1'
_chemical_formula_moiety
;
(C32 H24 Ag5 N10 3+)n,Mo12 O40 P1 3-,3(H2 O1)
;
_journal_coden_Cambridge 1350
_journal_volume 16
_journal_year 2014
_journal_page_first 7410
_journal_name_full 'CrystEngComm '
loop_
_publ_author_name
"Wei-Li Zhou"
"Jun Liang"
"Chao Qin"
"Kui-Zhan Shao"
"Fang-Ming Wang"
"Zhong-Min Su"
_chemical_name_systematic
;
catena-(bis(\m-1,2,3-benzotriazolato)-bis(\m-4,4'-bipyridine)-penta-silver 
(\m-phosphato)-tetracosakis(\m-oxo)-dodecaoxo-dodeca-molybdenum trihydrate)
;
_cell_volume   5977.649
_exptl_crystal_colour 'orange'
_exptl_crystal_density_diffrn 3.294
_exptl_special_details
;
The water molecules were not modelled; The Ag-O interactions have not been 
represented in the structure due to program restrictions
;
_exptl_crystal_description 'block'
_diffrn_ambient_temperature 298
_refine_special_details
;
The structure is disordered.

;
#These two values have been output from a single CSD field.
_refine_ls_R_factor_gt 0.0448
_refine_ls_wR_factor_gt 0.0448
_symmetry_cell_setting monoclinic
_symmetry_space_group_name_H-M 'C 2/c'
_symmetry_Int_Tables_number 15
loop_
_symmetry_equiv_pos_site_id
_symmetry_equiv_pos_as_xyz
1 x,y,z
2 -x,y,1/2-z
3 1/2+x,1/2+y,z
4 1/2-x,1/2+y,1/2-z
5 -x,-y,-z
6 x,-y,-1/2+z
7 -1/2-x,-1/2-y,-z
8 -1/2+x,-1/2-y,-1/2+z
_cell_length_a 23.049(5)
_cell_length_b 11.765(5)
_cell_length_c 22.522(5)
_cell_angle_alpha 90
_cell_angle_beta 101.828(5)
_cell_angle_gamma 90
_cell_formula_units_Z 4
loop_
_atom_type_symbol
_atom_type_radius_bond
C 0.68
H 0.23
Ag 1.45
Mo 1.54
N 0.68
O 0.68
P 1.05
loop_
_atom_site_label
_atom_site_type_symbol
_atom_site_fract_x
_atom_site_fract_y
_atom_site_fract_z
Ag1 Ag 0.84425(4) 0.47790(9) 0.51201(5)
Ag2 Ag 0.50388(5) 0.03566(9) 0.14867(5)
Ag3 Ag 0.50000 -0.14550(11) 0.25000
C1 C 0.3701(5) -0.1814(9) 0.1768(5)
C2 C 0.3367(5) -0.1474(9) 0.1210(6)
C3 C 0.2780(5) -0.1837(11) 0.1010(8)
H1 H 0.25590 -0.16210 0.06340
C4 C 0.2553(6) -0.2516(12) 0.1389(8)
H2 H 0.21600 -0.27470 0.12750
C5 C 0.2893(6) -0.2893(12) 0.1957(8)
H3 H 0.27220 -0.33810 0.21970
C6 C 0.3467(5) -0.2547(11) 0.2152(6)
H4 H 0.36920 -0.27870 0.25220
C7 C 0.6280(6) 0.0603(12) 0.2329(5)
H5 H 0.63140 -0.01480 0.22110
C8 C 0.6734(5) 0.1071(11) 0.2754(5)
H6 H 0.70600 0.06310 0.29270
C9 C 0.6703(5) 0.2198(10) 0.2922(5)
C10 C 0.6206(5) 0.2801(11) 0.2657(5)
H7 H 0.61670 0.35600 0.27580
C11 C 0.5762(5) 0.2272(12) 0.2241(5)
H8 H 0.54280 0.26910 0.20660
C12 C 0.7825(5) 0.2722(10) 0.4363(6)
H9 H 0.79970 0.23170 0.47090
C13 C 0.7437(5) 0.2168(10) 0.3909(5)
H10 H 0.73570 0.14000 0.39480
C14 C 0.7166(4) 0.2752(11) 0.3397(5)
C15 C 0.7331(5) 0.3867(11) 0.3357(5)
H11 H 0.71740 0.42830 0.30110
C16 C 0.7724(5) 0.4376(11) 0.3820(5)
H12 H 0.78260 0.51340 0.37820
N1 N 0.4237(4) -0.1317(8) 0.1824(4)
N2 N 0.4239(4) -0.0671(8) 0.1338(4)
N3 N 0.3708(4) -0.0753(8) 0.0955(4)
N4 N 0.5794(5) 0.1186(10) 0.2079(5)
N5 N 0.7965(4) 0.3810(9) 0.4327(4)
Mo1 Mo 0.55140(5) 0.75568(10) 0.07840(5)
Mo2 Mo 0.46724(5) 0.55726(9) 0.14445(5)
Mo3 Mo 0.43225(5) 0.28950(11) 0.07410(5)
Mo4 Mo 0.35044(4) 0.53393(9) 0.01502(5)
Mo5 Mo 0.42446(4) 0.76068(10) -0.04209(5)
Mo6 Mo 0.61554(4) 0.48944(8) 0.13164(4)
P1 P 0.50000 0.50000 0.00000
O1 O 0.4531(5) 0.4884(12) 0.0432(6)
O2 O 0.5572(5) 0.4575(11) 0.0301(6)
O3 O 0.5268(6) 0.5424(12) 0.0605(6)
O4 O 0.5050(6) 0.6383(10) -0.0044(6)
O5 O 0.3716(4) 0.6871(7) -0.0045(4)
O6 O 0.3402(4) 0.4978(7) -0.0657(4)
O7 O 0.2814(4) 0.5545(8) 0.0234(4)
O8 O 0.3659(5) 0.3850(8) 0.0404(5)
O9 O 0.6063(4) 0.6542(7) 0.1153(5)
O10 O 0.6713(4) 0.4917(7) 0.1912(4)
O11 O 0.6064(4) 0.3393(6) 0.1126(4)
O12 O 0.5507(4) 0.4992(7) 0.1655(4)
O13 O 0.5085(4) 0.2270(11) 0.0827(4)
O14 O 0.3983(3) 0.1879(7) 0.1045(4)
O15 O 0.5712(4) 0.8754(7) 0.1160(5)
O16 O 0.4980(4) 0.6923(7) 0.1273(5)
O17 O 0.5808(4) 0.7704(12) 0.0108(5)
O18 O 0.3881(4) 0.8791(7) -0.0650(4)
O19 O 0.4756(6) 0.7666(13) 0.0263(7)
O20 O 0.3826(7) 0.5821(14) 0.1055(7)
O21 O 0.4444(12) 0.5511(18) 0.2056(13)
O22 O 0.4425(8) 0.3992(18) 0.1452(9)
O23? O 0.9727(7) 0.6588(13) 0.5294(7)
O24? O 0.9082(7) 0.9321(14) 0.5844(7)
O25? O 0.9555(12) 0.8969(18) 0.7146(13)
O26? O 0.9631(8) 1.1172(18) 0.6248(9)
Ag1A Ag 0.15575(4) 0.47790(9) -0.01201(5)
Ag2A Ag 0.49612(5) 0.03566(9) 0.35133(5)
C1A C 0.6299(5) -0.1814(9) 0.3232(5)
C2A C 0.6633(5) -0.1474(9) 0.3790(6)
C3A C 0.7220(5) -0.1837(11) 0.3990(8)
H1A H 0.74410 -0.16210 0.43660
C4A C 0.7447(6) -0.2516(12) 0.3611(8)
H2A H 0.78400 -0.27470 0.37250
C5A C 0.7107(6) -0.2893(12) 0.3043(8)
H3A H 0.72780 -0.33810 0.28030
C6A C 0.6533(5) -0.2547(11) 0.2848(6)
H4A H 0.63080 -0.27870 0.24780
C7A C 0.3720(6) 0.0603(12) 0.2671(5)
H5A H 0.36860 -0.01480 0.27890
C8A C 0.3266(5) 0.1071(11) 0.2246(5)
H6A H 0.29400 0.06310 0.20730
C9A C 0.3297(5) 0.2198(10) 0.2078(5)
C10A C 0.3794(5) 0.2801(11) 0.2343(5)
H7A H 0.38330 0.35600 0.22420
C11A C 0.4238(5) 0.2272(12) 0.2759(5)
H8A H 0.45720 0.26910 0.29340
C12A C 0.2175(5) 0.2722(10) 0.0637(6)
H9A H 0.20030 0.23170 0.02910
C13A C 0.2563(5) 0.2168(10) 0.1091(5)
H10A H 0.26430 0.14000 0.10520
C14A C 0.2834(4) 0.2752(11) 0.1603(5)
C15A C 0.2669(5) 0.3867(11) 0.1643(5)
H11A H 0.28260 0.42830 0.19890
C16A C 0.2276(5) 0.4376(11) 0.1180(5)
H12A H 0.21740 0.51340 0.12180
N1A N 0.5763(4) -0.1317(8) 0.3176(4)
N2A N 0.5761(4) -0.0671(8) 0.3662(4)
N3A N 0.6292(4) -0.0753(8) 0.4045(4)
N4A N 0.4206(5) 0.1186(10) 0.2921(5)
N5A N 0.2035(4) 0.3810(9) 0.0673(4)
Ag1F Ag 0.65575(4) 0.02210(9) 0.48799(5)
Ag1G Ag 0.34425(4) 0.02210(9) 0.01201(5)
N3F N 0.1292(4) 0.5753(8) -0.0955(4)
N3G N 0.8708(4) 0.5753(8) 0.5955(4)
O1D O 0.5469(5) 0.5116(12) -0.0432(6)
O2D O 0.4428(5) 0.5425(11) -0.0301(6)
O3D O 0.4732(6) 0.4576(12) -0.0605(6)
O4D O 0.4950(6) 0.3617(10) 0.0044(6)
Mo1D Mo 0.44860(5) 0.24432(10) -0.07840(5)
Mo2D Mo 0.53276(5) 0.44274(9) -0.14445(5)
Mo3D Mo 0.56775(5) 0.71050(11) -0.07410(5)
Mo4D Mo 0.64956(4) 0.46607(9) -0.01502(5)
Mo5D Mo 0.57554(4) 0.23932(10) 0.04209(5)
Mo6D Mo 0.38446(4) 0.51056(8) -0.13164(4)
O5D O 0.6284(4) 0.3129(7) 0.0045(4)
O6D O 0.6598(4) 0.5022(7) 0.0657(4)
O7D O 0.7186(4) 0.4455(8) -0.0234(4)
O8D O 0.6341(5) 0.6150(8) -0.0404(5)
O9D O 0.3937(4) 0.3458(7) -0.1153(5)
O10D O 0.3287(4) 0.5083(7) -0.1912(4)
O11D O 0.3936(4) 0.6607(6) -0.1126(4)
O12D O 0.4493(4) 0.5008(7) -0.1655(4)
O13D O 0.4915(4) 0.7730(11) -0.0827(4)
O14D O 0.6017(3) 0.8121(7) -0.1045(4)
O15D O 0.4288(4) 0.1246(7) -0.1160(5)
O16D O 0.5020(4) 0.3077(7) -0.1273(5)
O17D O 0.4192(4) 0.2296(12) -0.0108(5)
O18D O 0.6119(4) 0.1209(7) 0.0650(4)
O19D O 0.5244(6) 0.2334(13) -0.0263(7)
O20D O 0.6174(7) 0.4179(14) -0.1055(7)
O21D O 0.5556(12) 0.4489(18) -0.2056(13)
O22D O 0.5575(8) 0.6008(18) -0.1452(9)
#END
