
#######################################################################
#
#                 Cambridge Crystallographic Data Centre
#                                CCDC
#
#######################################################################
#
# If this CIF has been generated from an entry in the Cambridge
# Structural Database, then it will include bibliographic, chemical,
# crystal, experimental, refinement or atomic coordinate data resulting
# from the CCDC's data processing and validation procedures.
#
#######################################################################

data_CSD_CIF_XOKGAH
_audit_creation_date 2014-06-26
_audit_creation_method CSD-ConQuest-V1
_database_code_CSD XOKGAH
_database_code_depnum_ccdc_archive 'CCDC 988328'
_chemical_formula_sum 'C30 H28 Ag4 Mo12 N6 O42 P1'
_chemical_formula_moiety
;
(C10 H8 Ag1 N2 1+)2n,C10 H8 Ag2 N2 2+,2(H2 O1),Mo12 O40 P1 4-
;
_journal_coden_Cambridge 1350
_journal_volume 16
_journal_year 2014
_journal_page_first 7410
_journal_name_full 'CrystEngComm '
loop_
_publ_author_name
"Wei-Li Zhou"
"Jun Liang"
"Chao Qin"
"Kui-Zhan Shao"
"Fang-Ming Wang"
"Zhong-Min Su"
_chemical_name_systematic
;
catena-(bis((\m-4,4'-bipyridine)-silver) (\m-4,4'-bipyridine)-di-silver 
(\m-phosphato)-tetracosakis(\m-oxo)-dodecaoxo-dodeca-molybdenum dihydrate)
;
_cell_volume   1430.668
_exptl_crystal_colour 'black'
_exptl_crystal_density_diffrn 3.202
_exptl_special_details
;
The Ag-O interactions have not been represented in the structure due to 
program restrictions
;
_exptl_crystal_description 'block'
_diffrn_ambient_temperature 293
_refine_special_details
;
The structure is disordered.

;
#These two values have been output from a single CSD field.
_refine_ls_R_factor_gt 0.0385
_refine_ls_wR_factor_gt 0.0385
_symmetry_cell_setting triclinic
_symmetry_space_group_name_H-M 'P -1'
_symmetry_Int_Tables_number 2
loop_
_symmetry_equiv_pos_site_id
_symmetry_equiv_pos_as_xyz
1 x,y,z
2 -x,-y,-z
_cell_length_a 11.396(5)
_cell_length_b 11.792(5)
_cell_length_c 13.376(5)
_cell_angle_alpha 65.249(5)
_cell_angle_beta 80.299(5)
_cell_angle_gamma 61.303(5)
_cell_formula_units_Z 1
loop_
_atom_type_symbol
_atom_type_radius_bond
C 0.68
H 0.23
Ag 1.45
Mo 1.54
N 0.68
O 0.68
P 1.05
loop_
_atom_site_label
_atom_site_type_symbol
_atom_site_fract_x
_atom_site_fract_y
_atom_site_fract_z
Ag1 Ag 0.82135(8) 0.63841(9) 0.63487(7)
C1 C 0.5824(10) 0.6248(12) 0.7664(10)
H1 H 0.55030 0.66940 0.69360
C2 C 0.7484(9) 0.5318(10) 0.8909(9)
H2 H 0.83400 0.51260 0.90690
C3 C 0.6711(9) 0.4929(10) 0.9780(8)
H3 H 0.70490 0.44830 1.05020
C4 C 0.5426(8) 0.5216(9) 0.9555(7)
C5 C 0.4985(10) 0.5940(12) 0.8469(10)
H4 H 0.41100 0.62220 0.82810
N1 N 0.7056(7) 0.5958(8) 0.7849(7)
Mo1 Mo 0.67612(6) 1.29009(7) 0.45278(6)
Mo2 Mo 0.93528(7) 1.32516(7) 0.27385(6)
Mo3 Mo 1.25936(7) 1.02687(7) 0.31638(6)
Mo4 Mo 0.97767(6) 1.03506(7) 0.22717(5)
Mo5 Mo 0.72772(6) 0.98863(7) 0.41434(6)
Mo6 Mo 1.05775(6) 0.70323(7) 0.44948(6)
O1 O 0.6517(9) 1.1770(6) 0.4009(5)
O2 O 0.6620(8) 1.1632(6) 0.5998(5)
O3 O 1.1196(6) 1.2192(7) 0.2695(7)
O4 O 1.1549(6) 1.0036(6) 0.2362(7)
O5 O 0.9670(6) 1.0463(6) 0.1004(5)
O6 O 1.0494(6) 0.8309(6) 0.3087(5)
O7 O 0.8111(6) 1.0410(6) 0.2802(6)
O8 O 0.6029(6) 0.9829(7) 0.3746(6)
O9 O 1.0810(7) 0.5673(6) 0.4253(6)
O10 O 0.8653(5) 0.8009(6) 0.4502(5)
O11 O 1.0385(7) 0.639(1) 0.6106(6)
O12 O 1.3763(6) 1.0429(6) 0.2295(5)
O13 O 1.2970(8) 1.0610(7) 0.4310(6)
O14 O 0.9076(7) 1.4717(6) 0.1663(5)
O15 O 0.5245(5) 1.4235(6) 0.4303(5)
O16 O 1.2307(7) 0.6623(9) 0.4766(6)
O17 O 0.9145(6) 1.2203(7) 0.2042(8)
O18 O 0.7585(7) 1.3554(9) 0.3239(6)
P1 P 1.00000 1.00000 0.50000
O19 O 0.9211(9) 1.1634(9) 0.4628(8)
O20 O 1.0295(9) 1.0657(9) 0.3783(8)
O21 O 0.9593(9) 0.9541(9) 0.4291(8)
O22 O 1.1506(9) 0.9592(9) 0.4914(8)
O23 O 0.6671(9) 0.6824(10) 0.4966(8)
Ag2 Ag 1.08593(6) 0.77117(7) 0.11418(6)
C6 C 0.8165(8) 0.772(1) 0.2027(8)
H5 H 0.84440 0.77280 0.26370
C7 C 0.6942(8) 0.7765(9) 0.2032(7)
H6 H 0.64160 0.77890 0.26420
C8 C 0.6486(7) 0.7775(7) 0.1138(6)
C9 C 0.7308(7) 0.7749(8) 0.0253(7)
H7 H 0.70320 0.77740 -0.03750
C10 C 0.5169(7) 0.7785(8) 0.1124(7)
C11 C 0.4675(7) 0.7142(8) 0.2094(7)
H8 H 0.51460 0.67230 0.27600
C12 C 0.3470(7) 0.7126(9) 0.2065(7)
H9 H 0.31480 0.66870 0.27200
C13 C 0.4437(7) 0.8407(8) 0.0152(7)
H10 H 0.47350 0.88570 -0.05130
C14 C 0.3238(8) 0.8342(8) 0.0194(7)
H11 H 0.27460 0.87530 -0.04610
C15 C 0.8542(8) 0.7687(8) 0.0301(7)
H12 H 0.90860 0.76600 -0.02990
N2 N 0.8979(6) 0.7665(7) 0.1180(6)
N3 N 0.2762(6) 0.7718(7) 0.1130(6)
C1A C 0.4176(10) 0.3752(12) 1.2336(10)
H1A H 0.44970 0.33060 1.30640
C2A C 0.2516(9) 0.4682(10) 1.1091(9)
H2A H 0.16600 0.48740 1.09310
C3A C 0.3289(9) 0.5071(10) 1.0220(8)
H3A H 0.29510 0.55170 0.94980
C4A C 0.4574(8) 0.4784(9) 1.0445(7)
C5A C 0.5015(10) 0.4060(12) 1.1531(10)
H4A H 0.58900 0.37780 1.17190
N1A N 0.2944(7) 0.4042(8) 1.2151(7)
Ag1A Ag 0.17865(8) 0.36159(9) 1.36513(7)
O19A O 1.0789(9) 0.8366(9) 0.5372(8)
O20A O 0.9705(9) 0.9343(9) 0.6217(8)
O21A O 1.0407(9) 1.0459(9) 0.5709(8)
O22A O 0.8494(9) 1.0408(9) 0.5086(8)
Mo1A Mo 1.32388(6) 0.70991(7) 0.54722(6)
Mo2A Mo 1.06472(7) 0.67484(7) 0.72615(6)
Mo3A Mo 0.74064(7) 0.97313(7) 0.68362(6)
Mo4A Mo 1.02233(6) 0.96494(7) 0.77283(5)
Mo5A Mo 1.27228(6) 1.01137(7) 0.58566(6)
Mo6A Mo 0.94225(6) 1.29677(7) 0.55052(6)
O1A O 1.3483(9) 0.8230(6) 0.5991(5)
O2A O 1.3380(8) 0.8368(6) 0.4002(5)
O3A O 0.8804(6) 0.7808(7) 0.7305(7)
O4A O 0.8451(6) 0.9964(6) 0.7638(7)
O5A O 1.0330(6) 0.9537(6) 0.8996(5)
O6A O 0.9506(6) 1.1691(6) 0.6913(5)
O7A O 1.1889(6) 0.9590(6) 0.7198(6)
O8A O 1.3971(6) 1.0171(7) 0.6254(6)
O9A O 0.9190(7) 1.4327(6) 0.5747(6)
O10A O 1.1347(5) 1.1991(6) 0.5498(5)
O11A O 0.9615(7) 1.361(1) 0.3894(6)
O12A O 0.6237(6) 0.9571(6) 0.7705(5)
O13A O 0.7030(8) 0.9390(7) 0.5690(6)
O14A O 1.0924(7) 0.5283(6) 0.8337(5)
O15A O 1.4755(5) 0.5765(6) 0.5697(5)
O16A O 0.7693(7) 1.3377(9) 0.5234(6)
O17A O 1.0855(6) 0.7797(7) 0.7958(8)
O18A O 1.2415(7) 0.6446(9) 0.6761(6)
Ag2* Ag 0.08593(6) 0.77117(7) 0.11418(6)
N3* N 1.2762(6) 0.7718(7) 0.1130(6)
#END
