
#######################################################################
#
#                 Cambridge Crystallographic Data Centre
#                                CCDC
#
#######################################################################
#
# If this CIF has been generated from an entry in the Cambridge
# Structural Database, then it will include bibliographic, chemical,
# crystal, experimental, refinement or atomic coordinate data resulting
# from the CCDC's data processing and validation procedures.
#
#######################################################################

data_CSD_CIF_XOKGEL
_audit_creation_date 2014-06-26
_audit_creation_method CSD-ConQuest-V1
_database_code_CSD XOKGEL
_database_code_depnum_ccdc_archive 'CCDC 988329'
_chemical_formula_sum 'C32 H30 Ag5 N10 O43 P1 W12'
_chemical_formula_moiety
;
(C32 H24 Ag5 N10 3+)n,O40 P1 W12 3-,3(H2 O1)
;
_journal_coden_Cambridge 1350
_journal_volume 16
_journal_year 2014
_journal_page_first 7410
_journal_name_full 'CrystEngComm '
loop_
_publ_author_name
"Wei-Li Zhou"
"Jun Liang"
"Chao Qin"
"Kui-Zhan Shao"
"Fang-Ming Wang"
"Zhong-Min Su"
_chemical_name_systematic
;
catena-(bis(\m-1,2,3-benzotriazolato)-bis(\m-4,4'-bipyridine)-penta-silver 
(\m-phosphato)-tetracosakis(\m-oxo)-dodecaoxo-dodeca-tungsten trihydrate)
;
_cell_volume   6037.214
_exptl_crystal_colour 'yellow'
_exptl_crystal_density_diffrn 4.422
_exptl_special_details
;
The water molecules were not modelled; The Ag-O interactions have not been 
represented in the structure due to program restrictions
;
_exptl_crystal_description 'block'
_diffrn_ambient_temperature 293
_refine_special_details
;
The structure is disordered.

;
#These two values have been output from a single CSD field.
_refine_ls_R_factor_gt 0.0548
_refine_ls_wR_factor_gt 0.0548
_symmetry_cell_setting monoclinic
_symmetry_space_group_name_H-M 'C 2/c'
_symmetry_Int_Tables_number 15
loop_
_symmetry_equiv_pos_site_id
_symmetry_equiv_pos_as_xyz
1 x,y,z
2 -x,y,1/2-z
3 1/2+x,1/2+y,z
4 1/2-x,1/2+y,1/2-z
5 -x,-y,-z
6 x,-y,-1/2+z
7 -1/2-x,-1/2-y,-z
8 -1/2+x,-1/2-y,-1/2+z
_cell_length_a 22.902(5)
_cell_length_b 11.913(5)
_cell_length_c 22.594(5)
_cell_angle_alpha 90
_cell_angle_beta 101.657(5)
_cell_angle_gamma 90
_cell_formula_units_Z 4
loop_
_atom_type_symbol
_atom_type_radius_bond
C 0.68
H 0.23
Ag 1.45
N 0.68
O 0.68
P 1.05
W 1.62
loop_
_atom_site_label
_atom_site_type_symbol
_atom_site_fract_x
_atom_site_fract_y
_atom_site_fract_z
Ag1 Ag 0.65621(8) 0.98143(16) -0.01043(8)
Ag2 Ag 0.99732(8) 0.54129(17) 0.34987(9)
Ag3 Ag 1.00000 0.3600(2) 0.25000
C1 C 1.1291(9) 0.3213(17) 0.3242(9)
C2 C 1.1631(11) 0.352(2) 0.3804(12)
C3 C 1.2204(11) 0.314(2) 0.3992(11)
H1 H 1.24370 0.33710 0.43570
C4 C 1.2405(12) 0.245(3) 0.3640(15)
H2 H 1.27910 0.21870 0.37730
C5 C 1.2084(11) 0.205(2) 0.3050(16)
H3 H 1.22530 0.15480 0.28180
C6 C 1.1520(9) 0.2460(16) 0.2863(10)
H4 H 1.12910 0.22480 0.24910
C7 C 0.874(1) 0.5631(19) 0.2669(10)
H5 H 0.87080 0.48910 0.27890
C8 C 0.8273(9) 0.6115(18) 0.2231(9)
H6 H 0.79500 0.56770 0.20490
C9 C 0.8298(9) 0.7231(19) 0.2076(9)
C10 C 0.8786(8) 0.7830(18) 0.2352(9)
H7 H 0.88210 0.85880 0.22670
C11 C 0.9224(9) 0.7294(18) 0.2758(8)
H8 H 0.95490 0.77220 0.29440
C12 C 0.7179(9) 0.778(2) 0.0645(10)
H9 H 0.70230 0.74050 0.02890
C13 C 0.7568(8) 0.7188(19) 0.1091(9)
H10 H 0.76490 0.64320 0.10430
C14 C 0.7832(9) 0.7770(18) 0.1613(9)
C15 C 0.7653(11) 0.886(2) 0.1663(9)
H11 H 0.78010 0.92590 0.20140
C16 C 0.7256(11) 0.937(2) 0.1199(10)
H12 H 0.71510 1.01100 0.12430
N1 N 1.0753(7) 0.3705(13) 0.3172(7)
N2 N 1.0752(7) 0.4355(14) 0.3670(7)
N3 N 1.1290(7) 0.4249(14) 0.4062(8)
N4 N 0.9223(8) 0.6223(17) 0.2908(7)
N5 N 0.7017(8) 0.8823(16) 0.0684(7)
W1 W 0.88193(3) -0.00178(7) 0.37021(3)
W2 W 0.92292(4) -0.25477(9) 0.45301(4)
W3 W 0.84981(3) -0.03751(8) 0.51699(4)
W4 W 0.92853(4) 0.21253(10) 0.56845(4)
W5 W 0.95557(4) 0.25445(9) 0.42046(4)
W6 W 1.03202(4) 0.04452(8) 0.35431(3)
O1 O 0.9415(11) -0.039(2) 0.4700(11)
O2 O 1.0057(11) -0.139(2) 0.4962(11)
O3 O 0.9535(11) 0.013(2) 0.5422(10)
O4 O 0.9751(11) 0.043(2) 0.4399(10)
O5 O 0.8260(6) 0.0038(11) 0.3102(5)
O6 O 0.9497(7) -0.0019(14) 0.3361(8)
O7 O 0.8955(7) 0.1555(13) 0.3852(8)
O8 O 0.8398(8) 0.0026(14) 0.4359(7)
O9 O 0.8927(8) -0.1555(12) 0.3876(7)
O10 O 0.9940(9) -0.267(2) 0.4187(9)
O11 O 0.8869(8) -0.3762(13) 0.4299(7)
O12 O 0.8708(8) -0.1829(12) 0.4949(7)
O13 O 0.7795(7) -0.0528(15) 0.5244(7)
O14 O 0.8749(11) 0.124(2) 0.5264(11)
O15 O 1.0442(16) 0.106(3) 0.2822(16)
O16 O 1.0487(9) -0.1142(16) 0.3678(9)
O17 O 1.1051(9) 0.0714(17) 0.4050(9)
O18 O 1.0042(7) 0.1856(14) 0.3721(9)
O19 O 1.028(1) 0.299(2) 0.4737(9)
O20 O 0.920(1) 0.267(2) 0.4882(9)
O21 O 0.8942(6) 0.3154(12) 0.6000(6)
O22 O 0.9351(7) 0.3752(12) 0.3819(9)
P1 P 1.00000 0.00000 0.50000
O23? O 0.6442(11) 1.610(2) -0.0478(11)
O24? O 0.4456(11) 1.545(2) 0.2090(11)
Ag1A Ag 1.34379(8) 0.98143(16) 0.51043(8)
Ag2A Ag 1.00268(8) 0.54129(17) 0.15013(9)
C1A C 0.8709(9) 0.3213(17) 0.1758(9)
C2A C 0.8369(11) 0.352(2) 0.1196(12)
C3A C 0.7796(11) 0.314(2) 0.1008(11)
H1A H 0.75630 0.33710 0.06430
C4A C 0.7595(12) 0.245(3) 0.1360(15)
H2A H 0.72090 0.21870 0.12270
C5A C 0.7916(11) 0.205(2) 0.1950(16)
H3A H 0.77470 0.15480 0.21820
C6A C 0.8480(9) 0.2460(16) 0.2137(10)
H4A H 0.87090 0.22480 0.25090
C7A C 1.126(1) 0.5631(19) 0.2331(10)
H5A H 1.12920 0.48910 0.22110
C8A C 1.1727(9) 0.6115(18) 0.2769(9)
H6A H 1.20500 0.56770 0.29510
C9A C 1.1702(9) 0.7231(19) 0.2924(9)
C10A C 1.1214(8) 0.7830(18) 0.2648(9)
H7A H 1.11790 0.85880 0.27330
C11A C 1.0776(9) 0.7294(18) 0.2242(8)
H8A H 1.04510 0.77220 0.20560
C12A C 1.2821(9) 0.778(2) 0.4355(10)
H9A H 1.29770 0.74050 0.47110
C13A C 1.2432(8) 0.7188(19) 0.3909(9)
H10A H 1.23510 0.64320 0.39570
C14A C 1.2168(9) 0.7770(18) 0.3387(9)
C15A C 1.2347(11) 0.886(2) 0.3337(9)
H11A H 1.21990 0.92590 0.29860
C16A C 1.2744(11) 0.937(2) 0.3801(10)
H12A H 1.28490 1.01100 0.37570
N1A N 0.9247(7) 0.3705(13) 0.1828(7)
N2A N 0.9248(7) 0.4355(14) 0.1330(7)
N3A N 0.8710(7) 0.4249(14) 0.0938(8)
N4A N 1.0777(8) 0.6223(17) 0.2092(7)
N5A N 1.2983(8) 0.8823(16) 0.4316(7)
Ag1F Ag 0.84379(8) 0.51857(16) 0.01043(8)
Ag1G Ag 1.15621(8) 0.51857(16) 0.48957(8)
N3F N 1.3710(7) 1.0751(14) 0.5938(8)
N3G N 0.6290(7) 1.0751(14) -0.0938(8)
O1D O 1.0585(11) 0.039(2) 0.5300(11)
O2D O 0.9943(11) 0.139(2) 0.5038(11)
O3D O 1.0465(11) -0.013(2) 0.4578(10)
O4D O 1.0249(11) -0.043(2) 0.5601(10)
W1D W 1.11807(3) 0.00178(7) 0.62979(3)
W2D W 1.07708(4) 0.25477(9) 0.54699(4)
W3D W 1.15019(3) 0.03751(8) 0.48301(4)
W4D W 1.07147(4) -0.21253(10) 0.43155(4)
W5D W 1.04443(4) -0.25445(9) 0.57954(4)
W6D W 0.96798(4) -0.04452(8) 0.64569(3)
O5D O 1.1740(6) -0.0038(11) 0.6898(5)
O6D O 1.0503(7) 0.0019(14) 0.6639(8)
O7D O 1.1045(7) -0.1555(13) 0.6148(8)
O8D O 1.1602(8) -0.0026(14) 0.5641(7)
O9D O 1.1073(8) 0.1555(12) 0.6124(7)
O10D O 1.0060(9) 0.267(2) 0.5813(9)
O11D O 1.1131(8) 0.3762(13) 0.5701(7)
O12D O 1.1292(8) 0.1829(12) 0.5051(7)
O13D O 1.2205(7) 0.0528(15) 0.4756(7)
O14D O 1.1251(11) -0.124(2) 0.4736(11)
O15D O 0.9558(16) -0.106(3) 0.7178(16)
O16D O 0.9513(9) 0.1142(16) 0.6322(9)
O17D O 0.8949(9) -0.0714(17) 0.5950(9)
O18D O 0.9958(7) -0.1856(14) 0.6279(9)
O19D O 0.972(1) -0.299(2) 0.5263(9)
O20D O 1.080(1) -0.267(2) 0.5118(9)
O21D O 1.1058(6) -0.3154(12) 0.4000(6)
O22D O 1.0649(7) -0.3752(12) 0.6181(9)
#END
