
#######################################################################
#
#                 Cambridge Crystallographic Data Centre
#                                CCDC
#
#######################################################################
#
# If this CIF has been generated from an entry in the Cambridge
# Structural Database, then it will include bibliographic, chemical,
# crystal, experimental, refinement or atomic coordinate data resulting
# from the CCDC's data processing and validation procedures.
#
#######################################################################

data_CSD_CIF_XOKSUM
_audit_creation_date 2009-05-05
_audit_creation_method CSD-ConQuest-V1
_database_code_CSD XOKSUM
_database_code_depnum_ccdc_archive 'CCDC 664066'
_chemical_formula_sum 'C29 H36 Ag2 N8 O8'
_chemical_formula_moiety
;
(C10 H14 Ag1 N4 1+)n,n(C19 H18 Ag1 N4 O6 1-),2n(H2 O1)
;
_journal_coden_Cambridge 211
_journal_volume 61
_journal_year 2008
_journal_page_first 3583
_journal_name_full 'J.Coord.Chem. '
loop_
_publ_author_name
"Ying-Ying Liu"
"Ji-Cheng Ma"
"Lai-Ping Zhang"
"Jian-Fang Ma"
_chemical_name_systematic
;
catena-((\m~2~-1,1'-(1,4-Butanediyl)bis(imidazole)-N,N')-(hydrogen 
benzene-1,3,5-tricarboxylato-O)-silver 
(\m~2~-1,1'-(1,4-butanediyl)bis(imidazole)-N,N')-silver dihydrate)
;
_cell_volume   3233.263
_exptl_crystal_colour 'colorless'
_exptl_crystal_density_diffrn 1.726
_exptl_special_details
;
luminescent

;
_exptl_crystal_description 'block'
_diffrn_ambient_temperature 293
#These two values have been output from a single CSD field.
_refine_ls_R_factor_gt 0.0365
_refine_ls_wR_factor_gt 0.0365
_symmetry_cell_setting orthorhombic
_symmetry_space_group_name_H-M 'P n a 21'
_symmetry_Int_Tables_number 33
loop_
_symmetry_equiv_pos_site_id
_symmetry_equiv_pos_as_xyz
1 x,y,z
2 -x,-y,1/2+z
3 1/2-x,1/2+y,1/2+z
4 1/2+x,1/2-y,z
_cell_length_a 32.051(7)
_cell_length_b 10.630(4)
_cell_length_c 9.490(3)
_cell_angle_alpha 90
_cell_angle_beta 90
_cell_angle_gamma 90
_cell_formula_units_Z 4
loop_
_atom_type_symbol
_atom_type_radius_bond
C 0.68
H 0.23
Ag 1.59
N 0.68
O 0.68
loop_
_atom_site_label
_atom_site_type_symbol
_atom_site_fract_x
_atom_site_fract_y
_atom_site_fract_z
Ag1 Ag 0.540326(9) 0.97268(3) 0.35940(5)
Ag2 Ag 0.684886(11) 0.56435(4) 0.77098(4)
C1 C 0.37441(9) 1.0131(3) 0.3379(4)
H1 H 0.38970 1.06830 0.39360
C2 C 0.39480(9) 0.9292(3) 0.2536(4)
C3 C 0.37169(10) 0.8431(4) 0.1730(4)
H2 H 0.38540 0.78500 0.11620
C4 C 0.32849(10) 0.8445(4) 0.1779(4)
C5 C 0.30806(9) 0.9327(3) 0.2618(5)
H3 H 0.27910 0.93460 0.26400
C6 C 0.33058(9) 1.0173(3) 0.3416(4)
C7 C 0.30866(11) 1.1143(4) 0.4308(5)
C8 C 0.44245(10) 0.9232(4) 0.2458(4)
C9 C 0.30519(11) 0.7478(4) 0.0944(5)
C10 C 0.56061(14) 1.2669(5) 0.3346(5)
H4 H 0.55780 1.27960 0.43100
C11 C 0.56222(13) 1.1785(5) 0.1341(5)
H5 H 0.56060 1.11850 0.06290
C12 C 0.57005(18) 1.3566(5) 0.2402(5)
H6 H 0.57480 1.44130 0.25870
C13 C 0.57791(16) 1.3628(5) -0.0237(5)
H7 H 0.59180 1.30550 -0.08790
H8 H 0.59600 1.43480 -0.00960
C14 C 0.53779(18) 1.4062(7) -0.0892(6)
H9 H 0.52490 1.46690 -0.02650
H10 H 0.51910 1.33470 -0.09600
C15 C 0.54168(19) 1.4663(6) -0.2362(7)
H11 H 0.55900 1.41300 -0.29520
H12 H 0.51420 1.47100 -0.27900
C16 C 0.5596(2) 1.5908(5) -0.2313(7)
H13 H 0.58790 1.58530 -0.19570
H14 H 0.54360 1.64230 -0.16640
C17 C 0.54649(13) 1.7687(4) -0.3999(5)
H15 H 0.53390 1.82170 -0.33460
C18 C 0.57222(13) 1.6957(4) -0.5911(5)
H16 H 0.58070 1.68910 -0.68450
C19 C 0.57678(17) 1.6053(5) -0.4915(5)
H17 H 0.58890 1.52650 -0.50330
C20 C 0.66367(14) 0.7749(5) 0.5578(5)
H18 H 0.65000 0.82310 0.62530
C21 C 0.69636(15) 0.6263(5) 0.4575(5)
H19 H 0.70970 0.54980 0.44230
C22 C 0.68994(12) 0.7156(4) 0.3588(5)
H20 H 0.69840 0.71340 0.26520
C23 C 0.65444(12) 0.9254(4) 0.3562(5)
H21 H 0.63770 0.97320 0.42230
H22 H 0.63690 0.90410 0.27650
C24 C 0.68970(13) 1.0053(4) 0.3063(5)
H23 H 0.70660 1.02940 0.38680
H24 H 0.70710 0.95590 0.24370
C25 C 0.67616(13) 1.1214(5) 0.2308(5)
H25 H 0.66030 1.17440 0.29450
H26 H 0.65820 1.09860 0.15270
C26 C 0.71368(14) 1.1938(5) 0.1757(6)
H27 H 0.73290 1.20900 0.25280
H28 H 0.72800 1.14290 0.10600
C27 C 0.70472(17) 1.3465(5) -0.0200(5)
H29 H 0.71510 1.29360 -0.08970
C28 C 0.68579(19) 1.4124(5) 0.1826(7)
H30 H 0.68010 1.41730 0.27850
C29 C 0.67956(19) 1.5034(5) 0.0838(7)
H31 H 0.66880 1.58300 0.10210
N1 N 0.55574(9) 1.1543(3) 0.2677(5)
N2 N 0.57138(12) 1.2991(4) 0.1121(4)
N3 N 0.56018(15) 1.6527(4) -0.3716(4)
N4 N 0.55324(10) 1.7978(4) -0.5329(4)
N5 N 0.70201(11) 1.3140(4) 0.1122(4)
N6 N 0.69131(13) 1.4611(4) -0.0451(5)
N7 N 0.68020(11) 0.6658(4) 0.5831(4)
N8 N 0.6685(1) 0.8098(3) 0.4240(4)
O1 O 0.27031(8) 1.1009(3) 0.4478(4)
O2 O 0.32871(10) 1.1999(4) 0.4836(5)
O3 O 0.46186(7) 0.9885(3) 0.3338(4)
O4 O 0.45781(8) 0.8541(4) 0.1559(4)
O5 O 0.26531(8) 0.7585(3) 0.0989(4)
H32 H 0.25460 0.70290 0.05100
O6 O 0.32336(9) 0.6669(4) 0.0288(4)
O7 O 0.53711(11) 0.8608(5) 0.0710(5)
H33 H 0.533(2) 0.920(5) 0.003(6)
H34 H 0.528(2) 0.790(4) 0.033(7)
O8 O 0.59792(11) 0.6842(4) 0.0721(5)
H35 H 0.6166(17) 0.687(6) -0.005(5)
H36 H 0.6087(19) 0.753(5) 0.122(6)
Ag1* Ag 0.540326(9) 1.97268(3) -0.64060(5)
Ag2* Ag 0.684886(11) 1.56435(4) -0.22902(4)
N4* N 0.55324(10) 0.7978(4) 0.4671(4)
N6* N 0.69131(13) 0.4611(4) 0.9549(5)
#END
