
#######################################################################
#
#                 Cambridge Crystallographic Data Centre
#                                CCDC
#
#######################################################################
#
# If this CIF has been generated from an entry in the Cambridge
# Structural Database, then it will include bibliographic, chemical,
# crystal, experimental, refinement or atomic coordinate data resulting
# from the CCDC's data processing and validation procedures.
#
#######################################################################

data_CSD_CIF_XOLGEM
_audit_creation_date 2014-06-27
_audit_creation_method CSD-ConQuest-V1
_database_code_CSD XOLGEM
_database_code_depnum_ccdc_archive 'CCDC 974803'
_chemical_formula_sum 'C48 H77 Co9 Li3 N36 O79'
_chemical_formula_moiety
;
(C48 Co8 Li3 N36 O48 17-)n,n(H12 Co1 O6 2+),15n(H3 O1 1+),10n(H2 O1)
;
_journal_coden_Cambridge 1350
_journal_volume 16
_journal_year 2014
_journal_page_first 7133
_journal_name_full 'CrystEngComm '
loop_
_publ_author_name
"Ji-Yong Zou"
"Wei Shi"
"Jing-Ya Zhang"
"Yan-Fei He"
"Hong-Ling Gao"
"Jian-Zhong Cui"
"Peng Cheng"
_chemical_name_systematic
;
catena-[hexaaqua-cobalt pentadecakis(oxonium) 
dodecakis(1,2,3-triazolato-4,5-dicarboxylato)-octa-cobalt-tri-lithium 
decahydrate]
;
_cell_volume  20721.255
_exptl_crystal_colour 'red'
_exptl_crystal_description 'block'
_diffrn_ambient_temperature 293
_refine_special_details
;
Disordered hydronium and water solvent molecules could not be located, were 
not modelled and the disordered density was taken into account using the 
SQUEEZE/PLATON procedure.
;
#These two values have been output from a single CSD field.
_refine_ls_R_factor_gt 0.0553
_refine_ls_wR_factor_gt 0.0553
_symmetry_cell_setting rhombohedral
_symmetry_space_group_name_H-M 'R -3 c'
_symmetry_Int_Tables_number 167
loop_
_symmetry_equiv_pos_site_id
_symmetry_equiv_pos_as_xyz
1 x,y,z
2 -y,x-y,z
3 -x+y,-x,z
4 x-y,-y,1/2-z
5 -x,-x+y,1/2-z
6 y,x,1/2-z
7 2/3+x,1/3+y,1/3+z
8 2/3-y,1/3+x-y,1/3+z
9 2/3-x+y,1/3-x,1/3+z
10 2/3+x-y,1/3-y,5/6-z
11 2/3-x,1/3-x+y,5/6-z
12 2/3+y,1/3+x,5/6-z
13 1/3+x,2/3+y,2/3+z
14 1/3-y,2/3+x-y,2/3+z
15 1/3-x+y,2/3-x,2/3+z
16 1/3+x-y,2/3-y,1/6-z
17 1/3-x,2/3-x+y,1/6-z
18 1/3+y,2/3+x,1/6-z
19 -x,-y,-z
20 y,-x+y,-z
21 x-y,x,-z
22 -x+y,y,-1/2+z
23 x,x-y,-1/2+z
24 -y,-x,-1/2+z
25 -2/3-x,-1/3-y,-1/3-z
26 -2/3+y,-1/3-x+y,-1/3-z
27 -2/3+x-y,-1/3+x,-1/3-z
28 -2/3-x+y,-1/3+y,-5/6+z
29 -2/3+x,-1/3+x-y,-5/6+z
30 -2/3-y,-1/3-x,-5/6+z
31 -1/3-x,-2/3-y,-2/3-z
32 -1/3+y,-2/3-x+y,-2/3-z
33 -1/3+x-y,-2/3+x,-2/3-z
34 -1/3-x+y,-2/3+y,-1/6+z
35 -1/3+x,-2/3+x-y,-1/6+z
36 -1/3-y,-2/3-x,-1/6+z
_cell_length_a 17.6972(11)
_cell_length_b 17.6972(11)
_cell_length_c 76.397(5)
_cell_angle_alpha 90
_cell_angle_beta 90
_cell_angle_gamma 120
_cell_formula_units_Z 6
loop_
_atom_type_symbol
_atom_type_radius_bond
C 0.68
H 0.23
Co 1.26
Li 1.28
N 0.68
O 0.68
loop_
_atom_site_label
_atom_site_type_symbol
_atom_site_fract_x
_atom_site_fract_y
_atom_site_fract_z
C1 C 0.8611(5) 0.8353(4) 0.42061(6)
C2 C 0.8299(3) 0.8589(3) 0.43692(5)
C3 C 0.7563(4) 0.8219(3) 0.44737(5)
C4 C 0.6686(4) 0.7404(4) 0.44818(7)
C5 C 0.5694(4) 0.7395(5) 0.50545(9)
C6 C 0.6511(4) 0.7329(3) 0.50676(7)
C7 C 0.6884(3) 0.6963(4) 0.51686(7)
C8 C 0.6638(5) 0.6377(4) 0.53263(8)
Co1 Co 1.00000 1.00000 0.431197(12)
Co2 Co 0.67204(5) 0.83991(5) 0.477172(7)
Li1 Li 0.7012(11) 0.66670 0.41670
N1 N 0.8841(3) 0.9364(3) 0.44389(5)
N2 N 0.8494(3) 0.9515(3) 0.45789(5)
N3 N 0.7717(3) 0.8823(3) 0.45981(4)
N4 N 0.7113(3) 0.7766(3) 0.49366(5)
N5 N 0.7791(3) 0.7663(3) 0.49552(6)
N6 N 0.7664(3) 0.7191(3) 0.50938(6)
O1 O 0.9375(3) 0.8930(2) 0.41612(4)
O2 O 0.8144(3) 0.7661(3) 0.41309(5)
O3 O 0.6470(3) 0.6822(3) 0.43692(5)
O4 O 0.6207(2) 0.7366(2) 0.46083(4)
O5 O 0.5662(2) 0.7817(3) 0.49250(5)
O6 O 0.5126(3) 0.7038(4) 0.51642(6)
O7 O 0.5938(3) 0.6133(4) 0.53997(5)
O8 O 0.7215(3) 0.6186(3) 0.53710(5)
Co3 Co 0.00000 0.00000 0.50000
O9 O 0.10991(19) 0.0516(2) 0.48445(3)
H1 H 0.15660 0.09130 0.49010
H2 H 0.10400 0.07740 0.47510
C1A C 1.1647(5) 1.0258(4) 0.42061(6)
C2A C 1.1411(3) 0.9710(3) 0.43692(5)
C3A C 1.1781(4) 0.9344(3) 0.44737(5)
C4A C 1.2596(4) 0.9282(4) 0.44818(7)
C5A C 1.2605(4) 0.8299(5) 0.50545(9)
C6A C 1.2671(4) 0.9182(3) 0.50676(7)
C7A C 1.3037(3) 0.9921(4) 0.51686(7)
C8A C 1.3623(5) 1.0261(4) 0.53263(8)
Co2A Co 1.16009(5) 0.83213(5) 0.477172(7)
Li1A Li 1.3333(11) 1.03450 0.41670
N1A N 1.0636(3) 0.9477(3) 0.44389(5)
N2A N 1.0485(3) 0.8979(3) 0.45789(5)
N3A N 1.1177(3) 0.8894(3) 0.45981(4)
N4A N 1.2234(3) 0.9347(3) 0.49366(5)
N5A N 1.2337(3) 1.0128(3) 0.49552(6)
N6A N 1.2809(3) 1.0473(3) 0.50938(6)
O1A O 1.1070(3) 1.0445(2) 0.41612(4)
O2A O 1.2339(3) 1.0483(3) 0.41309(5)
O3A O 1.3178(3) 0.9648(3) 0.43692(5)
O4A O 1.2634(2) 0.8841(2) 0.46083(4)
O5A O 1.2183(2) 0.7845(3) 0.49250(5)
O6A O 1.2962(3) 0.8088(4) 0.51642(6)
O7A O 1.3867(3) 0.9805(4) 0.53997(5)
O8A O 1.3814(3) 1.1029(3) 0.53710(5)
C1B C 0.9742(5) 1.1389(4) 0.42061(6)
C2B C 1.0290(3) 1.1701(3) 0.43692(5)
C3B C 1.0656(4) 1.2437(3) 0.44737(5)
C4B C 1.0718(4) 1.3314(4) 0.44818(7)
C5B C 1.1701(4) 1.4306(5) 0.50545(9)
C6B C 1.0818(4) 1.3489(3) 0.50676(7)
C7B C 1.0079(3) 1.3116(4) 0.51686(7)
C8B C 0.9739(5) 1.3362(4) 0.53263(8)
Co2B Co 1.16787(5) 1.32796(5) 0.477172(7)
Li1B Li 0.9655(11) 1.29880 0.41670
N1B N 1.0523(3) 1.1159(3) 0.44389(5)
N2B N 1.1021(3) 1.1506(3) 0.45789(5)
N3B N 1.1106(3) 1.2283(3) 0.45981(4)
N4B N 1.0653(3) 1.2887(3) 0.49366(5)
N5B N 0.9872(3) 1.2209(3) 0.49552(6)
N6B N 0.9527(3) 1.2336(3) 0.50938(6)
O1B O 0.9555(3) 1.0625(2) 0.41612(4)
O2B O 0.9517(3) 1.1856(3) 0.41309(5)
O3B O 1.0352(3) 1.3530(3) 0.43692(5)
O4B O 1.1159(2) 1.3793(2) 0.46083(4)
O5B O 1.2155(2) 1.4338(3) 0.49250(5)
O6B O 1.1912(3) 1.4874(4) 0.51642(6)
O7B O 1.0195(3) 1.4062(4) 0.53997(5)
O8B O 0.8971(3) 1.2785(3) 0.53710(5)
C1R C 1.1389(5) 1.1647(4) 0.57939(6)
C2R C 1.1701(3) 1.1411(3) 0.56308(5)
C3R C 1.2437(4) 1.1781(3) 0.55263(5)
C4R C 1.3314(4) 1.2596(4) 0.55182(7)
C5R C 1.4306(4) 1.2605(5) 0.49455(9)
C6R C 1.3489(4) 1.2671(3) 0.49324(7)
C7R C 1.3116(3) 1.3037(4) 0.48314(7)
C8R C 1.3362(5) 1.3623(4) 0.46737(8)
Co1R Co 1.00000 1.00000 0.568803(12)
Co2R Co 1.32796(5) 1.16009(5) 0.522828(7)
N1R N 1.1159(3) 1.0636(3) 0.55611(5)
N2R N 1.1506(3) 1.0485(3) 0.54211(5)
N3R N 1.2283(3) 1.1177(3) 0.54019(4)
N4R N 1.2887(3) 1.2234(3) 0.50634(5)
N5R N 1.2209(3) 1.2337(3) 0.50448(6)
N6R N 1.2336(3) 1.2809(3) 0.49062(6)
O1R O 1.0625(3) 1.1070(2) 0.58388(4)
O2R O 1.1856(3) 1.2339(3) 0.58691(5)
O3R O 1.3530(3) 1.3178(3) 0.56308(5)
O4R O 1.3793(2) 1.2634(2) 0.53917(4)
O5R O 1.4338(2) 1.2183(3) 0.50750(5)
O6R O 1.4874(3) 1.2962(4) 0.48358(6)
O7R O 1.4062(3) 1.3867(4) 0.46003(5)
O8R O 1.2785(3) 1.3814(3) 0.46290(5)
C1S C 0.8353(5) 0.9742(4) 0.57939(6)
C2S C 0.8589(3) 1.0290(3) 0.56308(5)
C3S C 0.8219(4) 1.0656(3) 0.55263(5)
C4S C 0.7404(4) 1.0718(4) 0.55182(7)
C5S C 0.7395(4) 1.1701(5) 0.49455(9)
C6S C 0.7329(4) 1.0818(3) 0.49324(7)
C7S C 0.6963(3) 1.0079(4) 0.48314(7)
C8S C 0.6377(5) 0.9739(4) 0.46737(8)
Co2S Co 0.83991(5) 1.16787(5) 0.522828(7)
N1S N 0.9364(3) 1.0523(3) 0.55611(5)
N2S N 0.9515(3) 1.1021(3) 0.54211(5)
N3S N 0.8823(3) 1.1106(3) 0.54019(4)
N4S N 0.7766(3) 1.0653(3) 0.50634(5)
N5S N 0.7663(3) 0.9872(3) 0.50448(6)
N6S N 0.7191(3) 0.9527(3) 0.49062(6)
O1S O 0.8930(3) 0.9555(2) 0.58388(4)
O2S O 0.7661(3) 0.9517(3) 0.58691(5)
O3S O 0.6822(3) 1.0352(3) 0.56308(5)
O4S O 0.7366(2) 1.1159(2) 0.53917(4)
O5S O 0.7817(2) 1.2155(3) 0.50750(5)
O6S O 0.7038(3) 1.1912(4) 0.48358(6)
O7S O 0.6133(3) 1.0195(4) 0.46003(5)
O8S O 0.6186(3) 0.8971(3) 0.46290(5)
C1T C 1.0258(5) 0.8611(4) 0.57939(6)
C2T C 0.9710(3) 0.8299(3) 0.56308(5)
C3T C 0.9344(4) 0.7563(3) 0.55263(5)
C4T C 0.9282(4) 0.6686(4) 0.55182(7)
C5T C 0.8299(4) 0.5694(5) 0.49455(9)
C6T C 0.9182(4) 0.6511(3) 0.49324(7)
C7T C 0.9921(3) 0.6884(4) 0.48314(7)
C8T C 1.0261(5) 0.6638(4) 0.46737(8)
Co2T Co 0.83213(5) 0.67204(5) 0.522828(7)
N1T N 0.9477(3) 0.8841(3) 0.55611(5)
N2T N 0.8979(3) 0.8494(3) 0.54211(5)
N3T N 0.8894(3) 0.7717(3) 0.54019(4)
N4T N 0.9347(3) 0.7113(3) 0.50634(5)
N5T N 1.0128(3) 0.7791(3) 0.50448(6)
N6T N 1.0473(3) 0.7664(3) 0.49062(6)
O1T O 1.0445(3) 0.9375(2) 0.58388(4)
O2T O 1.0483(3) 0.8144(3) 0.58691(5)
O3T O 0.9648(3) 0.6470(3) 0.56308(5)
O4T O 0.8841(2) 0.6207(2) 0.53917(4)
O5T O 0.7845(2) 0.5662(3) 0.50750(5)
O6T O 0.8088(3) 0.5126(4) 0.48358(6)
O7T O 0.9805(3) 0.5938(4) 0.46003(5)
O8T O 1.1029(3) 0.7215(3) 0.46290(5)
Li1R Li 1.2988(11) 1.33330 0.58330
Li1S Li 0.6667(11) 0.96550 0.58330
Li1T Li 1.0345(11) 0.70120 0.58330
O2I O 0.714967(300) 0.567233(300) 0.420243(50)
O2J O 0.852267(300) 1.285033(300) 0.420243(50)
O2K O 1.432767(300) 1.147733(300) 0.420243(50)
O3I O 0.631467(300) 0.651133(300) 0.396413(50)
O3J O 1.019667(300) 1.368533(300) 0.396413(50)
O3K O 1.348867(300) 0.980333(300) 0.396413(50)
O9A O -0.05160(19) 0.05831(20) 0.48445(3)
H1A H -0.09130 0.06530 0.49010
H2A H -0.07740 0.02660 0.47510
O9B O -0.05831(19) -0.10991(20) 0.48445(3)
H1B H -0.06530 -0.15660 0.49010
H2B H -0.02660 -0.10400 0.47510
O9R O -0.10991(19) -0.0516(2) 0.51555(3)
H1R H -0.15660 -0.09130 0.50990
H2R H -0.10400 -0.07740 0.52490
O9S O 0.05160(19) -0.05831(20) 0.51555(3)
H1S H 0.09130 -0.06530 0.50990
H2S H 0.07740 -0.02660 0.52490
O9T O 0.05831(19) 0.10991(20) 0.51555(3)
H1T H 0.06530 0.15660 0.50990
H2T H 0.02660 0.10400 0.52490
#END
