
#######################################################################
#
#                 Cambridge Crystallographic Data Centre
#                                CCDC
#
#######################################################################
#
# If this CIF has been generated from an entry in the Cambridge
# Structural Database, then it will include bibliographic, chemical,
# crystal, experimental, refinement or atomic coordinate data resulting
# from the CCDC's data processing and validation procedures.
#
#######################################################################

data_CSD_CIF_XOMTAW
_audit_creation_date 2014-06-27
_audit_creation_method CSD-ConQuest-V1
_database_code_CSD XOMTAW
_database_code_depnum_ccdc_archive 'CCDC 973745'
_chemical_formula_sum 'C34 H33 In1 N2 O9'
_chemical_formula_moiety
;
(C28 H16 In1 O8 1-)n,n(C2 H8 N1 1+),n(C4 H9 N1 O1)
;
_journal_coden_Cambridge 1350
_journal_volume 16
_journal_year 2014
_journal_page_first 7434
_journal_name_full 'CrystEngComm '
loop_
_publ_author_name
"Jinjie Qian"
"Feilong Jiang"
"Kongzhao Su"
"Qipeng Li"
"Kang Zhou"
"Mingyan Wu"
"Daqiang Yuan"
"Maochun Hong"
_chemical_name_systematic
;
catena-(Dimethylammonium bis(\m~2~-biphenyl-3,3'-dicarboxylato)-indium 
dimethylacetamide solvate)
;
_chemical_name_common
;
InOF-3
;
_cell_volume   3412.146
_exptl_crystal_density_diffrn 1.159
_diffrn_ambient_temperature 173
_refine_special_details
;
The SQUEEZE/PLATON program has been used to model some disorder.

;
#These two values have been output from a single CSD field.
_refine_ls_R_factor_gt 0.036
_refine_ls_wR_factor_gt 0.036
_symmetry_cell_setting monoclinic
_symmetry_space_group_name_H-M 'P 21/n'
_symmetry_Int_Tables_number 14
loop_
_symmetry_equiv_pos_site_id
_symmetry_equiv_pos_as_xyz
1 x,y,z
2 1/2-x,1/2+y,1/2-z
3 -x,-y,-z
4 -1/2+x,-1/2-y,-1/2+z
_cell_length_a 14.0612(2)
_cell_length_b 16.1146(2)
_cell_length_c 15.5087(2)
_cell_angle_alpha 90
_cell_angle_beta 103.837(2)
_cell_angle_gamma 90
_cell_formula_units_Z 4
loop_
_atom_type_symbol
_atom_type_radius_bond
C 0.68
H 0.23
In 1.42
O 0.68
loop_
_atom_site_label
_atom_site_type_symbol
_atom_site_fract_x
_atom_site_fract_y
_atom_site_fract_z
In1 In 0.761182(12) 0.360158(11) 0.652969(11)
O1 O 0.84327(16) 0.37959(14) 0.54570(13)
O2 O 0.69578(15) 0.43097(13) 0.52280(12)
O3 O 0.83553(15) 0.23308(12) 0.66232(13)
O4 O 0.38000(16) 0.60744(13) 0.32438(14)
O5 O 0.69108(14) 0.24935(13) 0.57185(13)
O6 O 0.38922(16) 0.11134(13) 0.26254(13)
C1 C 0.4673(2) 0.64933(17) 0.21877(19)
C2 C 0.5861(2) -0.12444(19) 0.4228(2)
H1 H 0.63380 -0.16010 0.45800
C3 C 0.3756(2) 0.0338(2) 0.25804(18)
C4 C 0.3787(2) 0.65349(18) 0.25639(19)
C5 C 0.6864(2) 0.08072(18) 0.51973(16)
H2 H 0.62640 0.11050 0.50760
C6 C 0.7643(2) 0.20421(18) 0.60316(18)
C7 C 0.6344(3) 0.63361(18) 0.1537(2)
H3 H 0.69090 0.62900 0.13060
C8 C 0.5048(2) -0.15849(19) 0.3655(2)
H4 H 0.49720 -0.21710 0.36230
C9 C 0.7081(2) 0.53183(18) 0.27690(18)
C10 C 0.6885(2) 0.00006(18) 0.48680(17)
C11 C 0.7076(2) 0.50292(17) 0.36170(17)
H5 H 0.65780 0.52160 0.38910
O7 O 0.30352(18) 0.00474(15) 0.20243(16)
C12 C 0.5441(2) 0.59802(17) 0.26003(17)
H6 H 0.53840 0.56790 0.31130
C13 C 0.4458(2) -0.02232(18) 0.31869(17)
C14 C 0.4335(2) -0.10791(18) 0.31196(18)
H7 H 0.37810 -0.13140 0.27210
C15 C 0.5271(2) 0.01205(17) 0.37761(16)
H8 H 0.53340 0.07070 0.38230
C16 C 0.7722(2) 0.41747(17) 0.49727(18)
C17 C 0.7705(2) 0.11772(19) 0.56975(18)
C18 C 0.7778(2) 0.44751(18) 0.40725(18)
C19 C 0.8599(2) 0.07649(19) 0.58594(18)
H9 H 0.91780 0.10290 0.61860
C20 C 0.4738(2) 0.69417(19) 0.14352(19)
H10 H 0.42210 0.73000 0.11500
C21 C 0.5995(2) -0.03831(17) 0.43000(17)
C22 C 0.8513(2) 0.4209(2) 0.3678(2)
H11 H 0.89950 0.38290 0.39800
C23 C 0.7829(2) 0.5050(2) 0.2402(2)
H12 H 0.78580 0.52450 0.18310
C24 C 0.6293(2) 0.58866(18) 0.22949(18)
C25 C 0.7798(2) -0.04164(18) 0.50516(19)
H13 H 0.78360 -0.09650 0.48380
C26 C 0.8639(2) -0.0031(2) 0.55409(19)
H14 H 0.92460 -0.03180 0.56570
C27 C 0.5571(3) 0.6856(2) 0.1111(2)
H15 H 0.56190 0.71520 0.05930
O8 O 0.30813(17) 0.69913(16) 0.22569(14)
C28 C 0.8542(3) 0.4499(2) 0.2848(2)
H16 H 0.90490 0.43230 0.25800
In1B In 0.238818(12) 0.639842(11) 0.347031(11)
In1C In 0.261182(12) 0.139842(11) 0.152969(11)
O4B O 0.62000(16) 0.39256(13) 0.67562(14)
O6C O 0.88922(16) 0.38866(13) 0.76254(13)
O7C O 0.80352(18) 0.49526(15) 0.70243(16)
O8B O 0.69187(17) 0.30087(16) 0.77431(14)
#END
