
#######################################################################
#
#                 Cambridge Crystallographic Data Centre
#                                CCDC
#
#######################################################################
#
# If this CIF has been generated from an entry in the Cambridge
# Structural Database, then it will include bibliographic, chemical,
# crystal, experimental, refinement or atomic coordinate data resulting
# from the CCDC's data processing and validation procedures.
#
#######################################################################

data_CSD_CIF_XOQVUU
_audit_creation_date 2002-10-24
_audit_creation_method CSD-ConQuest-V1
_database_code_CSD XOQVUU
_database_code_depnum_ccdc_archive 'CCDC 1297568'
_chemical_formula_sum 'C64 H100 Cu2 N8 Na4 O26 S8'
_chemical_formula_moiety
;
(C12 H26 Na1 O7 1+)2n,n(C40 H48 Cu2 N8 Na2 O12 S8 2-)
;
_journal_coden_Cambridge 127
_journal_volume 59
_journal_year 2001
_journal_page_first 2162
_journal_name_full 'Huaxue Xuebao(Chin.)(Acta Chim.Sinica) '
loop_
_publ_author_name
"Jian-Min Dou"
"Da-Cheng Li"
"Qing-Jiang Yu"
"Ying Liu"
"Li-Qiang Xu"
"Wen-Hua Bi"
"Wei Yong"
"Pei-Ju Zheng"
_chemical_name_systematic
;
catena-(bis(Aqua-(18-crown-6)-sodium) 
bis(\m~3~-1,2-dicyanoethylene-1,2-dithiolato-N,N',S,S')-bis(18-crown-6)-bis(1,
2-dicyanoethylene-1,2-dithiolato-S,S')-di-copper-di-sodium)
;
_cell_volume   2301.637
_exptl_crystal_density_diffrn 1.35
_diffrn_ambient_temperature ?
_diffrn_special_details
;
The study was carried out at room temperature,in the range 283-303K

;
#These two values have been output from a single CSD field.
_refine_ls_R_factor_gt 0.0726
_refine_ls_wR_factor_gt 0.0726
_symmetry_cell_setting triclinic
_symmetry_space_group_name_H-M 'P -1'
_symmetry_Int_Tables_number 2
loop_
_symmetry_equiv_pos_site_id
_symmetry_equiv_pos_as_xyz
1 x,y,z
2 -x,-y,-z
_cell_length_a 12.2697(19)
_cell_length_b 12.2780(19)
_cell_length_c 15.665(3)
_cell_angle_alpha 95.083(3)
_cell_angle_beta 101.534(3)
_cell_angle_gamma 91.007(3)
_cell_formula_units_Z 1
loop_
_atom_type_symbol
_atom_type_radius_bond
C 0.68
Cu 1.52
N 0.68
Na 1.85
O 0.68
S 1.02
loop_
_atom_site_label
_atom_site_type_symbol
_atom_site_fract_x
_atom_site_fract_y
_atom_site_fract_z
Cu1 Cu 0.7626(1) 0.5353(1) 0.7541(1)
Na1 Na 0.50000 1.00000 0.50000
Na2 Na 0.50000 1.00000 1.00000
N1 N 0.5391(5) 0.8982(5) 0.6297(4)
N2 N 0.5056(5) 0.8586(4) 0.8781(4)
N3 N 0.9601(5) 0.1431(5) 0.8429(5)
N4 N 1.1221(6) 0.2908(6) 0.6866(5)
S1 S 0.6818(1) 0.6387(1) 0.6487(1)
S2 S 0.6748(1) 0.6211(1) 0.8538(1)
S3 S 0.7844(1) 0.3829(1) 0.8246(1)
S4 S 0.9121(1) 0.5004(1) 0.6927(1)
O1 O 0.7151(4) 0.9618(4) 0.4820(3)
O2 O 0.5397(4) 0.8150(4) 0.4020(3)
O3 O 0.3364(4) 0.8329(4) 0.4519(3)
O4 O 0.4132(7) 0.8635(7) 1.0921(6)
O5 O 0.2785(7) 1.0080(8) 0.9964(8)
O6 O 0.3555(8) 1.1243(10) 0.8792(6)
C1 C 0.6174(5) 0.7320(5) 0.7093(4)
C2 C 0.6125(4) 0.7231(4) 0.7944(4)
C3 C 0.5709(6) 0.8237(6) 0.6659(4)
C4 C 0.5517(5) 0.8003(5) 0.8401(4)
C5 C 0.8977(5) 0.3280(5) 0.7888(4)
C6 C 0.9516(5) 0.3783(5) 0.7333(4)
C7 C 0.9330(5) 0.2255(6) 0.8177(5)
C8 C 1.0470(6) 0.3278(6) 0.7072(5)
C9 C 0.7187(7) 0.8892(7) 0.4084(6)
C10 C 0.6532(6) 0.7887(6) 0.4120(6)
C11 C 0.4692(7) 0.7220(6) 0.4035(6)
C12 C 0.3532(7) 0.7552(7) 0.3848(6)
C13 C 0.2250(6) 0.8708(7) 0.4357(6)
C14 C 0.7851(7) 1.0558(7) 0.4872(6)
C15 C 0.3195(10) 0.8973(13) 1.1038(12)
C16 C 0.2349(9) 0.9245(12) 1.034(1)
C17 C 0.2084(9) 1.0537(13) 0.9415(11)
C18 C 0.2604(10) 1.1402(10) 0.9021(10)
C19 C 0.4174(16) 1.1964(14) 0.8597(12)
C20 C 0.4515(13) 0.8176(15) 1.1588(11)
Na3 Na 0.1314(3) 0.6890(3) 0.7573(2)
O7 O 0.0132(13) 0.7228(11) 0.8672(8)
O8 O 0.1889(12) 0.5962(11) 0.9110(8)
O9 O 0.3510(7) 0.5995(9) 0.8081(10)
O10 O 0.2253(10) 0.5794(7) 0.6377(7)
O11 O 0.0642(9) 0.7395(10) 0.6036(7)
O12 O -0.0068(11) 0.8469(15) 0.7383(13)
O13 O 0.2629(5) 0.8344(7) 0.7816(6)
C21 C 0.0100(16) 0.6749(18) 0.9369(9)
C22 C 0.0931(12) 0.5813(14) 0.9297(7)
C23 C 0.2628(11) 0.5309(12) 0.8983(12)
C24 C 0.3628(14) 0.5599(16) 0.8894(13)
C25 C 0.3698(8) 0.5188(9) 0.7483(10)
C26 C 0.3427(8) 0.5843(13) 0.6641(13)
C27 C 0.1933(13) 0.6116(13) 0.5578(8)
C28 C 0.0680(15) 0.6436(13) 0.5430(8)
C29 C -0.0334(10) 0.7757(17) 0.5866(11)
C30 C -0.0427(19) 0.8699(19) 0.6436(17)
C31 C -0.0779(16) 0.8533(12) 0.7754(13)
C32 C -0.0534(12) 0.8165(15) 0.8660(14)
C14A C 0.2149(7) 0.9442(7) 0.5128(6)
O1A O 0.2849(4) 1.0382(4) 0.5180(3)
C9A C 0.2813(7) 1.1108(7) 0.5916(6)
C10A C 0.3468(6) 1.2113(6) 0.5880(6)
O2A O 0.4603(4) 1.1850(4) 0.5980(3)
C11A C 0.5308(7) 1.2780(6) 0.5965(6)
C12A C 0.6468(7) 1.2448(7) 0.6152(6)
O3A O 0.6636(4) 1.1671(4) 0.5481(3)
C13A C 0.7750(6) 1.1292(7) 0.5643(6)
C20A C 0.5485(13) 1.1824(15) 0.8412(11)
O4A O 0.5868(7) 1.1365(7) 0.9079(6)
C15A C 0.6805(10) 1.1027(13) 0.8962(12)
C16A C 0.7651(9) 1.0755(12) 0.966(1)
O5A O 0.7215(7) 0.9920(8) 1.0036(8)
C17A C 0.7916(9) 0.9463(13) 1.0585(11)
C18A C 0.7396(10) 0.8598(10) 1.0979(10)
O6A O 0.6445(8) 0.8757(10) 1.1208(6)
C19A C 0.5826(16) 0.8036(14) 1.1403(12)
N1A N 0.4609(5) 1.1018(5) 0.3703(4)
N2A N 0.4944(5) 1.1414(4) 0.1219(4)
S1A S 0.3182(1) 1.3613(1) 0.3513(1)
S2A S 0.3252(1) 1.3789(1) 0.1462(1)
C1A C 0.3826(5) 1.2680(5) 0.2907(4)
C2A C 0.3875(4) 1.2769(4) 0.2056(4)
C3A C 0.4291(6) 1.1763(6) 0.3341(4)
C4A C 0.4483(5) 1.1997(5) 0.1599(4)
Cu1A Cu 0.2374(1) 1.4647(1) 0.2459(1)
N3A N 0.0399(5) 1.8569(5) 0.1571(5)
N4A N -0.1221(6) 1.7092(6) 0.3134(5)
S3A S 0.2156(1) 1.6171(1) 0.1754(1)
S4A S 0.0879(1) 1.4996(1) 0.3073(1)
C5A C 0.1023(5) 1.6720(5) 0.2112(4)
C6A C 0.0484(5) 1.6217(5) 0.2667(4)
C7A C 0.0670(5) 1.7745(6) 0.1823(5)
C8A C -0.0470(6) 1.6722(6) 0.2928(5)
N2A* N 0.4944(5) 1.1414(4) 1.1219(4)
Na2* Na 0.50000 1.00000 0.00000
#END
