
#######################################################################
#
#                 Cambridge Crystallographic Data Centre
#                                CCDC
#
#######################################################################
#
# If this CIF has been generated from an entry in the Cambridge
# Structural Database, then it will include bibliographic, chemical,
# crystal, experimental, refinement or atomic coordinate data resulting
# from the CCDC's data processing and validation procedures.
#
#######################################################################

data_CSD_CIF_XORDUG
_audit_creation_date 2019-09-25
_audit_creation_method CSD-ConQuest-V1
_database_code_CSD XORDUG
_database_code_depnum_ccdc_archive 'CCDC 1943080'
_chemical_formula_sum 'C202 H273 N26 O98 Zn16'
_chemical_formula_moiety
;
6(C2 H8 N1 1+),n(C126 H81 N4 O82 Zn16 6-),16(C4 H9 N1 O1)
;
_journal_coden_Cambridge 222
_journal_volume 48
_journal_year 2019
_journal_page_first 14966
_journal_name_full 'Dalton Trans. '
loop_
_publ_author_name
"Ce Wang"
"Zheng Yin"
"Wei-Min Ma"
"Xi-Yao Li"
"Li-Hui Cao"
"Yu Cheng"
"Xin-Yu Yu"
"Yang-Min Ma"
_chemical_name_systematic
;
catena-[hexakis(dimethylammonium) 
dodecakis(\m-benzene-1,3,5-tricarboxylato)-(\m-glycolato)-tetrakis(N,N-dimethy
lacetamide)-tris(aqua)-hexadeca-zinc N,N-dimethylacetamide solvate]
;
_cell_volume  25748.170
_exptl_crystal_colour 'light colorless'
_exptl_crystal_density_diffrn 1.09
_exptl_crystal_description 'block'
_diffrn_ambient_temperature 100
_diffrn_special_details
;
twin

;
_refine_special_details
;
The SQUEEZE/PLATON program has been used to model some disordered solvent 
molecules and cations.
;
#These two values have been output from a single CSD field.
_refine_ls_R_factor_gt 0.1358
_refine_ls_wR_factor_gt 0.1358
_symmetry_cell_setting monoclinic
_symmetry_space_group_name_H-M 'P 21/c'
_symmetry_Int_Tables_number 14
loop_
_symmetry_equiv_pos_site_id
_symmetry_equiv_pos_as_xyz
1 x,y,z
2 -x,1/2+y,1/2-z
3 -x,-y,-z
4 x,-1/2-y,-1/2+z
_cell_length_a 35.8753(3)
_cell_length_b 24.4464(2)
_cell_length_c 32.1563(3)
_cell_angle_alpha 90
_cell_angle_beta 114.077(1)
_cell_angle_gamma 90
_cell_formula_units_Z 4
loop_
_atom_type_symbol
_atom_type_radius_bond
C 0.68
H 0.23
N 0.68
O 0.68
Zn 1.22
loop_
_atom_site_label
_atom_site_type_symbol
_atom_site_fract_x
_atom_site_fract_y
_atom_site_fract_z
Zn1 Zn 1.50448(2) 0.52363(3) 0.95919(3)
Zn2 Zn 1.19942(3) 0.47150(4) 0.94798(4)
Zn3 Zn 1.31794(3) 0.52586(4) 0.73027(4)
Zn4 Zn 1.24410(3) 0.60108(4) 0.74500(3)
Zn5 Zn 1.01421(3) 0.57555(3) 0.49443(3)
Zn6 Zn 1.17738(3) 0.44277(5) 0.42242(4)
Zn7 Zn 1.18575(3) 0.51886(4) 0.27701(4)
Zn8 Zn 1.00181(2) 0.81296(3) 0.78860(3)
Zn9 Zn 1.00400(3) 1.18117(3) 0.73432(3)
Zn10 Zn 0.75349(3) 0.64481(5) 0.49347(3)
Zn11 Zn 0.50560(3) 0.67893(3) 0.23695(3)
Zn12 Zn 0.49948(2) 0.81118(3) 0.21356(3)
Zn13 Zn 0.51711(3) 0.92260(3) 0.02039(3)
Zn14 Zn 0.25987(3) 0.59595(4) 0.26311(4)
Zn15 Zn 0.30034(3) 0.47811(5) 0.05653(4)
Zn16 Zn -0.00527(2) 0.52304(3) 0.04021(3)
O1 O 0.05623(15) 0.5209(2) 0.06150(19)
O2 O 0.06549(15) 0.4840(2) 0.00243(17)
O3 O 0.2570(2) 0.5089(3) 0.0709(3)
O4 O 0.2073(2) 0.4696(3) 0.0129(3)
O5 O 0.23528(17) 0.5530(3) 0.2066(2)
O6 O 0.17623(17) 0.5300(3) 0.21011(19)
O7 O 0.29136(19) 0.6550(2) 0.2539(3)
O8 O 0.3403(3) 0.6060(3) 0.2455(4)
O9 O 0.45050(15) 0.7079(2) 0.22214(19)
O10 O 0.44953(18) 0.7995(2) 0.2221(2)
O11 O 0.33250(19) 0.8971(2) 0.2245(3)
O12 O 0.2896(2) 0.8519(3) 0.2455(4)
O13 O 0.4955(3) 0.4072(4) 0.2672(3)
O14 O 0.5073(3) 0.3692(2) 0.3315(3)
O15 O 0.51805(14) 0.47812(19) 0.46531(16)
O16 O 0.49963(19) 0.5651(2) 0.45400(18)
O17 O 0.5025(2) 0.6072(2) 0.26129(17)
O18 O 0.5010(3) 0.6601(3) 0.3171(2)
O19 O 0.50675(17) 0.6684(2) 0.17584(17)
O20 O 0.5097(3) 0.7583(2) 0.1729(2)
O21 O 0.50167(17) 0.8524(2) 0.03800(16)
O22 O 0.5017(3) 0.8066(3) -0.0221(2)
O23 O 0.50433(19) 0.6003(2) -0.0149(2)
O24 O 0.49576(18) 0.5617(2) 0.04480(19)
O25 O 0.55762(17) 0.7101(2) 0.2765(2)
O26 O 0.5449(2) 0.7994(3) 0.2719(2)
O27 O 0.6766(2) 0.6435(3) 0.4120(2)
O28 O 0.72343(17) 0.7027(3) 0.45356(19)
O29 O 0.6926(2) 0.9003(3) 0.4324(2)
O30 O 0.6503(3) 0.9309(3) 0.3662(4)
O31 O 0.5807(2) 0.6038(4) 0.5219(3)
O32 O 0.57142(18) 0.5476(3) 0.5691(2)
O33 O 0.6923(2) 0.4552(3) 0.6918(2)
O34 O 0.75083(18) 0.4593(3) 0.6865(2)
O35 O 0.7191(2) 0.6145(3) 0.5210(2)
O36 O 0.7624(3) 0.5536(4) 0.5587(3)
O37 O 0.7950(2) 0.6909(3) 0.5387(2)
O38 O 0.8321(3) 0.6366(3) 0.5978(2)
O39 O 0.9547(2) 0.8078(2) 0.7315(2)
O40 O 0.94506(16) 0.7167(2) 0.72806(18)
O41 O 0.8056(3) 0.8917(3) 0.5597(2)
O42 O 0.8471(3) 0.9269(4) 0.6218(3)
O43 O 1.1673(2) 0.4271(4) 0.4788(2)
O44 O 1.2253(2) 0.4073(3) 0.5371(2)
O45 O 1.2646(2) 0.5127(3) 0.6810(2)
O46 O 1.2191(3) 0.5716(4) 0.6859(3)
O47 O 1.06761(18) 0.5466(3) 0.5025(2)
O48 O 1.0854(3) 0.5966(4) 0.5650(3)
O49 O 0.9961(2) 0.7415(2) 0.33180(17)
O50 O 0.99589(15) 0.83081(19) 0.32638(15)
O51 O 1.00171(17) 0.64678(18) 0.46462(16)
O52 O 1.00781(19) 0.69180(18) 0.52718(15)
O53 O 0.99489(17) 0.89863(18) 0.51666(18)
O54 O 1.00408(17) 0.93801(18) 0.45877(17)
O55 O 1.2129(2) 0.6603(3) 0.7529(3)
O56 O 1.1657(2) 0.6110(3) 0.7624(4)
O57 O 1.05042(18) 0.7086(2) 0.7779(2)
O58 O 1.05266(17) 0.7996(2) 0.7823(2)
O59 O 1.17084(16) 0.9020(2) 0.7822(2)
O60 O 1.21533(19) 0.8553(3) 0.7614(3)
O61 O 1.3262(2) 0.5288(4) 0.7948(2)
O62 O 1.26699(16) 0.5515(3) 0.7967(2)
O63 O 1.44354(15) 0.5187(2) 0.94207(19)
O64 O 1.43508(15) 0.4819(2) 1.00075(19)
O65 O 1.24248(18) 0.4989(3) 0.9302(3)
O66 O 1.2945(3) 0.4738(4) 0.9922(3)
O67 O 1.0055(2) 1.1117(2) 0.76189(18)
O68 O 1.0040(4) 1.1633(3) 0.8188(3)
O69 O 1.0040(2) 1.06589(19) 0.95707(17)
O70 O 0.98241(14) 0.97874(15) 0.94655(14)
O71 O 1.0025(2) 0.8725(2) 0.82819(18)
O72 O 1.0091(3) 0.9123(3) 0.7708(2)
O73 O 1.1332(2) 0.4625(4) 0.3618(2)
O74 O 1.1772(2) 0.4940(3) 0.3371(3)
O75 O 1.1229(3) 0.4917(4) 0.2505(3)
O76 O 1.2080(3) 0.4403(3) 0.2751(3)
O77 O 1.1589(2) 0.5281(3) 0.9331(2)
O78 O -0.00663(17) 0.5316(3) 0.10048(19)
O79 O 1.1808(6) 0.5247(4) 0.4439(5)
O80 O 1.3632(5) 0.4831(6) 0.7311(5)
O81 O 0.3437(3) 0.5334(5) 0.0770(4)
N1 N 1.2191(3) 0.3584(3) 0.2486(3)
N2 N 1.1110(2) 0.5925(3) 0.8964(3)
N3 N -0.0291(2) 0.5136(3) 0.1556(2)
C1 C 0.07778(19) 0.5038(2) 0.0418(2)
C2 C 0.12350(18) 0.5079(3) 0.0679(2)
C3 C 0.1496(2) 0.4989(3) 0.0463(2)
H1 H 0.13920 0.48880 0.01510
C4 C 0.1916(2) 0.5050(3) 0.0721(3)
C5 C 0.2069(2) 0.5192(3) 0.1169(3)
H2 H 0.23540 0.52520 0.13300
C6 C 0.1816(2) 0.5251(3) 0.1395(2)
C7 C 0.13955(19) 0.5192(3) 0.1152(2)
H3 H 0.12180 0.52280 0.13020
C8 C 0.2206(2) 0.4944(3) 0.0495(4)
C9 C 0.1981(2) 0.5366(3) 0.1892(2)
C10 C 0.3242(3) 0.6486(4) 0.2469(4)
C11 C 0.3430(2) 0.7017(3) 0.2407(3)
C12 C 0.3786(3) 0.7037(3) 0.2346(3)
H4 H 0.39230 0.67050 0.23430
C13 C 0.3951(2) 0.7523(3) 0.2288(3)
C14 C 0.3759(2) 0.8012(3) 0.2289(3)
H5 H 0.38780 0.83450 0.22500
C15 C 0.3394(3) 0.8025(4) 0.2345(3)
C16 C 0.3233(2) 0.7513(3) 0.2412(3)
H6 H 0.29900 0.75080 0.24620
C17 C 0.4347(2) 0.7528(3) 0.2239(3)
C18 C 0.3186(3) 0.8534(4) 0.2349(3)
C19 C 0.5022(3) 0.4101(4) 0.3072(3)
C20 C 0.5025(3) 0.4645(3) 0.3297(3)
C21 C 0.5048(2) 0.4669(3) 0.3739(3)
H7 H 0.50700 0.43420 0.39080
C22 C 0.5039(2) 0.5175(2) 0.3934(2)
C23 C 0.5018(3) 0.5653(3) 0.3687(2)
H8 H 0.50050 0.59990 0.38160
C24 C 0.5015(2) 0.5627(3) 0.3256(2)
C25 C 0.5013(3) 0.5120(3) 0.3063(3)
H9 H 0.50020 0.51000 0.27640
C26 C 0.5073(2) 0.5198(3) 0.4409(2)
C27 C 0.5024(3) 0.6145(3) 0.3010(3)
C28 C 0.5062(2) 0.7123(3) 0.1554(2)
C29 C 0.50418(19) 0.7091(2) 0.1073(2)
C30 C 0.5034(2) 0.7579(3) 0.0850(2)
H10 H 0.50430 0.79210 0.09940
C31 C 0.5013(2) 0.7555(3) 0.0403(2)
C32 C 0.5014(2) 0.7054(3) 0.0204(2)
H11 H 0.50120 0.70410 -0.00920
C33 C 0.5017(2) 0.6564(3) 0.0434(2)
C34 C 0.5034(2) 0.6590(3) 0.0881(2)
H12 H 0.50410 0.62640 0.10440
C35 C 0.5013(2) 0.8078(3) 0.0154(3)
C36 C 0.5008(2) 0.6014(3) 0.0221(2)
C37 C 0.5669(2) 0.7597(3) 0.2896(3)
C38 C 0.6052(3) 0.7703(3) 0.3303(3)
C39 C 0.6289(2) 0.7266(3) 0.3553(2)
H13 H 0.62070 0.69000 0.34630
C40 C 0.6648(2) 0.7376(3) 0.3937(3)
C41 C 0.6770(2) 0.7912(3) 0.4057(3)
H14 H 0.70140 0.79860 0.43170
C42 C 0.6537(3) 0.8342(4) 0.3797(3)
C43 C 0.6186(3) 0.8241(4) 0.3419(3)
H15 H 0.60330 0.85360 0.32360
C44 C 0.6903(2) 0.6896(3) 0.4209(3)
C45 C 0.6663(3) 0.8923(4) 0.3925(3)
C46 C 0.5932(3) 0.5706(5) 0.5531(4)
C47 C 0.6386(3) 0.5558(4) 0.5761(3)
C48 C 0.6553(2) 0.5233(4) 0.6147(3)
H16 H 0.63880 0.51090 0.62960
C49 C 0.6964(2) 0.5088(4) 0.6317(3)
C50 C 0.7206(2) 0.5269(4) 0.6104(3)
H17 H 0.74850 0.51650 0.62170
C51 C 0.7039(3) 0.5605(4) 0.5721(3)
C52 C 0.6629(3) 0.5752(5) 0.5545(3)
H18 H 0.65160 0.59800 0.52840
C53 C 0.7155(3) 0.4740(4) 0.6743(3)
C54 C 0.7312(3) 0.5792(4) 0.5504(3)
C55 C 0.8212(3) 0.6811(4) 0.5784(3)
C56 C 0.8422(2) 0.7313(4) 0.6061(2)
C57 C 0.8768(2) 0.7256(3) 0.6467(2)
H19 H 0.88640 0.69010 0.65810
C58 C 0.8972(2) 0.7710(3) 0.6705(2)
C59 C 0.8819(3) 0.8236(3) 0.6552(3)
H20 H 0.89500 0.85500 0.67230
C60 C 0.8469(3) 0.8292(4) 0.6140(3)
C61 C 0.8284(3) 0.7831(4) 0.5897(3)
H21 H 0.80580 0.78700 0.56120
C62 C 0.9344(2) 0.7646(3) 0.7126(2)
C63 C 0.8326(3) 0.8858(4) 0.5989(4)
C64 C 1.1914(3) 0.4333(4) 0.5187(3)
C65 C 1.1822(3) 0.4722(4) 0.5480(3)
C66 C 1.2110(2) 0.4844(3) 0.5922(3)
H22 H 1.23700 0.46710 0.60380
C67 C 1.2013(2) 0.5216(4) 0.6187(3)
C68 C 1.1634(3) 0.5475(4) 0.6018(3)
H23 H 1.15720 0.57410 0.61960
C69 C 1.1349(2) 0.5340(3) 0.5584(3)
C70 C 1.1443(3) 0.4976(3) 0.5315(3)
H24 H 1.12490 0.48980 0.50160
C71 C 1.2312(3) 0.5357(4) 0.6646(3)
C72 C 1.0925(3) 0.5605(3) 0.5405(4)
C73 C 0.99660(19) 0.7879(3) 0.3481(2)
C74 C 0.99805(18) 0.7907(2) 0.39437(18)
C75 C 0.99994(18) 0.7411(2) 0.4178(2)
H25 H 1.00050 0.70700 0.40410
C76 C 1.00097(19) 0.7436(3) 0.4620(2)
C77 C 1.00135(19) 0.7929(2) 0.4834(2)
H26 H 1.00270 0.79390 0.51350
C78 C 0.99968(19) 0.8427(2) 0.4588(2)
C79 C 0.99782(18) 0.8404(2) 0.4150(2)
H27 H 0.99640 0.87340 0.39880
C80 C 1.0035(2) 0.6910(2) 0.4878(2)
C81 C 0.9993(2) 0.8975(2) 0.4798(2)
C82 C 1.1812(2) 0.6545(4) 0.7597(3)
C83 C 1.1620(2) 0.7071(3) 0.7652(3)
C84 C 1.1254(2) 0.7050(3) 0.7705(3)
H28 H 1.11280 0.67100 0.77100
C85 C 1.1075(2) 0.7544(3) 0.7751(2)
C86 C 1.1266(2) 0.8045(3) 0.7758(3)
H29 H 1.11430 0.83750 0.77940
C87 C 1.1642(2) 0.8061(3) 0.7713(2)
C88 C 1.1807(2) 0.7561(3) 0.7666(2)
H30 H 1.20630 0.75610 0.76420
C89 C 1.0665(2) 0.7549(3) 0.7788(2)
C90 C 1.1854(2) 0.8584(3) 0.7727(3)
C91 C 1.3031(3) 0.5346(4) 0.8146(3)
C92 C 1.3191(2) 0.5215(4) 0.8623(3)
C93 C 1.3610(2) 0.5172(3) 0.8885(3)
H31 H 1.37940 0.52270 0.87430
C94 C 1.3766(2) 0.5050(3) 0.9347(3)
C95 C 1.3501(2) 0.4965(3) 0.9567(3)
H32 H 1.36100 0.48770 0.98820
C96 C 1.3081(2) 0.5011(3) 0.9321(3)
C97 C 1.2928(2) 0.5147(4) 0.8851(3)
H33 H 1.26430 0.51930 0.86850
C98 C 1.4220(2) 0.5013(3) 0.9618(3)
C99 C 1.2799(3) 0.4915(3) 0.9540(3)
C100 C 1.0054(3) 1.1184(3) 0.8013(3)
C101 C 1.0042(3) 1.0673(3) 0.8276(3)
C102 C 1.0021(3) 1.0680(2) 0.8687(2)
H34 H 1.00230 1.10190 0.88320
C103 C 0.9996(2) 1.0193(2) 0.8900(2)
C104 C 1.0002(2) 0.9701(2) 0.8702(2)
H35 H 0.99840 0.93710 0.88500
C105 C 1.0035(3) 0.9678(3) 0.8282(2)
C106 C 1.0066(3) 1.0151(3) 0.8081(2)
H36 H 1.01030 1.01390 0.78060
C107 C 0.9958(2) 1.0210(2) 0.9347(2)
C108 C 1.0068(3) 0.9154(3) 0.8084(3)
C109 C 1.1433(3) 0.4801(3) 0.3306(3)
C110 C 1.1068(5) 0.4872(8) 0.2864(6)
H37 H 1.08820 0.45540 0.28040
H38 H 1.09150 0.52070 0.28710
C111 C 1.2105(2) 0.3914(3) 0.2789(2)
C112 C 1.2044(5) 0.3623(5) 0.3173(4)
H39 H 1.18290 0.38070 0.32330
H40 H 1.22990 0.36310 0.34480
H41 H 1.19650 0.32420 0.30850
C113 C 1.2245(5) 0.3868(7) 0.2136(5)
H42 H 1.19850 0.40300 0.19320
H43 H 1.23410 0.36150 0.19650
H44 H 1.24470 0.41580 0.22690
C114 C 1.2224(5) 0.3013(4) 0.2512(6)
H45 H 1.20400 0.28670 0.26410
H46 H 1.25060 0.29110 0.27070
H47 H 1.21500 0.28620 0.22060
C115 C 1.14402(17) 0.5589(3) 0.9015(2)
C116 C 1.1603(3) 0.5632(6) 0.8649(3)
H48 H 1.18630 0.54350 0.87470
H49 H 1.16460 0.60180 0.85990
H50 H 1.14060 0.54720 0.83660
C117 C 1.0931(5) 0.6289(5) 0.8600(4)
H51 H 1.11410 0.64420 0.85140
H52 H 1.07960 0.65850 0.86910
H53 H 1.07280 0.60940 0.83390
C118 C 1.0962(5) 0.5883(7) 0.9303(4)
H54 H 1.07780 0.55680 0.92390
H55 H 1.08120 0.62170 0.93070
H56 H 1.11910 0.58350 0.96000
C119 C -0.0340(4) 0.5345(6) 0.1172(5)
C120 C -0.0692(5) 0.5685(6) 0.0917(6)
H57 H -0.06690 0.58250 0.06430
H58 H -0.07030 0.59930 0.11080
H59 H -0.09420 0.54670 0.08290
C121 C -0.0569(5) 0.5243(7) 0.1758(6)
H60 H -0.04460 0.55040 0.20090
H61 H -0.06320 0.49020 0.18750
H62 H -0.08210 0.53990 0.15290
C122 C 0.0075(4) 0.4798(6) 0.1811(5)
H63 H 0.02730 0.48410 0.16740
H64 H -0.00050 0.44130 0.17970
H65 H 0.01990 0.49180 0.21290
O82 O 1.50281(17) 0.5415(3) 0.89841(19)
N4 N 1.4722(5) 0.5745(6) 0.8251(4)
C123 C 1.4761(4) 0.5416(6) 0.8586(5)
C124 C 1.4481(5) 0.4879(7) 0.8447(6)
H66 H 1.44730 0.47130 0.87200
H67 H 1.42040 0.49780 0.82350
H68 H 1.45950 0.46160 0.83000
C125 C 1.4451(6) 0.5657(9) 0.7776(5)
H69 H 1.42180 0.54330 0.77580
H70 H 1.43520 0.60100 0.76280
H71 H 1.45990 0.54680 0.76210
C126 C 1.5000(6) 0.6201(7) 0.8347(7)
H72 H 1.51790 0.61510 0.81860
H73 H 1.48440 0.65410 0.82440
H74 H 1.51670 0.62210 0.86750
O83 O 0.3464(3) 0.3999(5) 0.2954(4)
N5 N 0.3605(4) 0.3347(6) 0.3524(5)
C127 C 0.3721(6) 0.3676(9) 0.3278(7)
C128 C 0.4161(4) 0.3667(6) 0.3374(5)
H75 H 0.42120 0.39110 0.31600
H76 H 0.42420 0.32940 0.33370
H77 H 0.43200 0.37910 0.36860
C129 C 0.3192(3) 0.3352(8) 0.3447(6)
H78 H 0.30680 0.36970 0.33020
H79 H 0.31670 0.33140 0.37380
H80 H 0.30520 0.30460 0.32470
C130 C 0.3887(4) 0.3043(7) 0.3885(5)
H81 H 0.41640 0.31250 0.39140
H82 H 0.38320 0.26520 0.38240
H83 H 0.38630 0.31390 0.41680
N6 N 0.3509(3) 0.4961(5) 0.2539(4)
H84 H 0.34830 0.47210 0.27420
H85 H 0.34680 0.53040 0.26210
C131 C 0.3201(4) 0.4841(8) 0.2087(5)
H86 H 0.33270 0.48370 0.18680
H87 H 0.29880 0.51240 0.19990
H88 H 0.30780 0.44840 0.20890
C132 C 0.3920(3) 0.4923(9) 0.2557(7)
H89 H 0.39430 0.51600 0.23230
H90 H 0.39770 0.45440 0.25030
H91 H 0.41170 0.50400 0.28580
N7 N 0.6866(6) 0.7922(8) 0.5393(10)
H92 H 0.66840 0.78580 0.51020
H93 H 0.67220 0.80180 0.55590
C133 C 0.7092(7) 0.7421(7) 0.5581(8)
H94 H 0.71600 0.72400 0.53500
H95 H 0.69240 0.71760 0.56760
H96 H 0.73440 0.75110 0.58460
C134 C 0.7129(7) 0.8372(8) 0.5394(8)
H97 H 0.71880 0.83510 0.51220
H98 H 0.73850 0.83510 0.56670
H99 H 0.69930 0.87200 0.53930
N8 N 0.4326(4) 0.3086(6) 0.5502(4)
H100 H 0.41570 0.29660 0.52200
H101 H 0.45410 0.32580 0.54770
C135 C 0.4107(5) 0.3478(6) 0.5661(6)
H102 H 0.40930 0.38310 0.55110
H103 H 0.42510 0.35230 0.59920
H104 H 0.38300 0.33430 0.55880
C136 C 0.4475(7) 0.2619(7) 0.5805(7)
H105 H 0.47550 0.26910 0.60260
H106 H 0.44720 0.22930 0.56260
H107 H 0.42990 0.25590 0.59670
Zn1* Zn 0.50448(2) 0.52363(3) -0.04081(3)
Zn1B Zn 0.49552(2) 0.47637(3) 0.04081(3)
Zn1B* Zn 1.49552(2) 0.47637(3) 1.04081(3)
Zn2* Zn 0.19942(3) 0.47150(4) -0.05202(4)
Zn2A Zn 0.80058(3) 0.97150(4) 0.55202(4)
Zn3C Zn 0.31794(3) 0.97414(4) 0.23027(4)
Zn4C Zn 0.24410(3) 0.89892(4) 0.24500(3)
Zn5A Zn 0.98579(3) 1.07555(3) 1.00557(3)
Zn5C Zn 1.01421(3) 0.92445(3) 0.99443(3)
Zn6B Zn 0.82262(3) 0.55723(5) 0.57758(4)
Zn7* Zn 0.18575(3) 0.51886(4) 0.27701(4)
Zn7B Zn 0.81425(3) 0.48114(4) 0.72299(4)
Zn7C Zn 1.18575(3) 0.98114(4) 0.77701(4)
Zn8C Zn 1.00181(2) 0.68704(3) 0.28860(3)
Zn9A Zn 0.99600(3) 0.68117(3) 0.76568(3)
Zn9B Zn 0.99600(3) 0.81883(3) 0.26568(3)
Zn10B Zn 1.24651(3) 0.35519(5) 0.50653(3)
Zn12A Zn 0.50052(2) 0.31118(3) 0.28644(3)
Zn13A Zn 0.48289(3) 0.42260(3) 0.47961(3)
Zn13C Zn 0.51711(3) 0.57740(3) 0.52039(3)
Zn14B Zn 0.74013(3) 0.40405(4) 0.73689(4)
Zn14C Zn 1.25987(3) 0.90405(4) 0.76311(4)
Zn15* Zn 1.30034(3) 0.47811(5) 1.05653(4)
Zn15A Zn 0.69966(3) 0.97811(5) 0.44347(4)
Zn16A Zn 1.00527(2) 1.02304(3) 0.45979(3)
Zn16B Zn 0.00527(2) 0.47696(3) -0.04021(3)
Zn16C Zn 0.99473(2) 0.97696(3) 0.54021(3)
O2B O -0.06549(15) 0.5160(2) -0.00243(17)
O4* O 1.2073(2) 0.4696(3) 1.0129(3)
O6* O 1.17623(17) 0.5300(3) 0.21011(19)
O11C O 1.33250(19) 0.6029(2) 0.7245(3)
O12C O 1.2896(2) 0.6481(3) 0.7455(4)
O13A O 0.5045(3) 0.9072(4) 0.2328(3)
O14A O 0.4927(3) 0.8692(2) 0.1685(3)
O15A O 0.48195(14) 0.97812(19) 0.03469(16)
O16C O 0.49963(19) 0.9349(2) -0.04600(18)
O23* O 1.50433(19) 0.6003(2) 0.9851(2)
O24B O 1.50424(18) 0.4383(2) 0.95520(19)
O29A O 0.3074(2) 0.4003(3) 0.0676(2)
O31C O 0.5807(2) 0.8962(4) 0.0219(3)
O32C O 0.57142(18) 0.9524(3) 0.0691(2)
O33B O 0.3077(2) 0.5448(3) 0.3082(2)
O34B O 0.24917(18) 0.5407(3) 0.3135(2)
O34B* O 1.24917(18) 0.5407(3) 0.3135(2)
O36B O 1.2376(3) 0.4464(4) 0.4413(3)
O38B O 1.1679(3) 0.3634(3) 0.4022(2)
O40A O 1.05494(16) 1.2167(2) 0.77194(18)
O41A O 1.1944(3) 0.3917(3) 0.9403(2)
O42A O 1.1529(3) 0.4269(4) 0.8782(3)
O44B O 0.7747(2) 0.5927(3) 0.4629(2)
O49C O 0.9961(2) 0.7585(2) 0.83180(17)
O50B O 1.00411(15) 1.16919(19) 0.67362(15)
O53C O -0.00511(17) 0.60137(18) 0.01666(18)
O54A O -0.00408(17) 0.43801(18) 0.04123(17)
O57A O 0.94958(18) 1.2086(2) 0.7221(2)
O59C O 1.17084(16) 0.5980(2) 0.2822(2)
O60C O 0.21533(19) 0.6447(3) 0.2614(3)
O64B O 1.56492(15) 0.5181(2) 0.99925(19)
O66* O 0.2945(3) 0.4738(4) -0.0078(3)
O69A O 0.9960(2) 0.56589(19) 0.54293(17)
O70C O 0.98241(14) 0.52126(15) 0.44655(14)
#END
