
#######################################################################
#
#                 Cambridge Crystallographic Data Centre
#                                CCDC
#
#######################################################################
#
# If this CIF has been generated from an entry in the Cambridge
# Structural Database, then it will include bibliographic, chemical,
# crystal, experimental, refinement or atomic coordinate data resulting
# from the CCDC's data processing and validation procedures.
#
#######################################################################

data_CSD_CIF_XORHUI
_audit_creation_date 2009-09-22
_audit_creation_method CSD-ConQuest-V1
_database_code_CSD XORHUI
_database_code_depnum_ccdc_archive 'CCDC 1297618'
_chemical_formula_sum 'C3 H1 Cs1 N1 O6.5 S1 U1'
_chemical_formula_moiety
;
(Cs1 1+)n,n(C3 N1 O6 S1 U1 1-),0.5n(H2 O1)
;
_journal_coden_Cambridge 233
_journal_volume 53
_journal_year 2008
_journal_page_first 1121
_journal_name_full 'Zh.Neorg.Khim.(Russ.)(Russ.J.Inorg.Chem.) '
loop_
_publ_author_name
"I.V.Medrish"
"E.V.Peresypkina"
"A.V.Virovets"
"L.B.Serezhkina"
_chemical_name_systematic
;
catena-(Cesium 
(\m~2~-oxalato-O',O'',O''',O'''')-isothiocyanato-dioxo-uranium(vi) 
hemihydrate)
;
_cell_volume   1108.334
_exptl_crystal_colour 'yellow'
_exptl_crystal_density_diffrn 3.334
_exptl_special_details
;
isostructural with the rubidium analogue

;
_diffrn_ambient_temperature 295
_refine_special_details
;
The water molecule is disordered over two positions by symmetry.

;
#These two values have been output from a single CSD field.
_refine_ls_R_factor_gt 0.0214
_refine_ls_wR_factor_gt 0.0214
_symmetry_cell_setting monoclinic
_symmetry_space_group_name_H-M 'C 2/c'
_symmetry_Int_Tables_number 15
loop_
_symmetry_equiv_pos_site_id
_symmetry_equiv_pos_as_xyz
1 x,y,z
2 -x,y,1/2-z
3 1/2+x,1/2+y,z
4 1/2-x,1/2+y,1/2-z
5 -x,-y,-z
6 x,-y,-1/2+z
7 -1/2-x,-1/2-y,-z
8 -1/2+x,-1/2-y,-1/2+z
_cell_length_a 9.3171(3)
_cell_length_b 13.2987(5)
_cell_length_c 9.1151(3)
_cell_angle_alpha 90
_cell_angle_beta 101.086(1)
_cell_angle_gamma 90
_cell_formula_units_Z 4
loop_
_atom_type_symbol
_atom_type_radius_bond
C 0.68
Cs 1.53
N 0.68
O 0.65
S 1.02
U 1.40
loop_
_atom_site_label
_atom_site_type_symbol
_atom_site_fract_x
_atom_site_fract_y
_atom_site_fract_z
O1 O 0.550(2) 0.0296(18) 0.265(3)
Cs1 Cs 0.35159(8) 0.08015(5) -0.04599(9)
U1 U 0.00000 0.160370(17) 0.25000
O2 O 0.1230(5) 0.1613(3) 0.1257(4)
O3 O -0.1195(3) 0.3109(3) 0.1311(4)
O4 O -0.2963(4) 0.3737(3) -0.0463(4)
N1 N 0.00000 -0.0198(5) 0.25000
S1 S 0.00000 -0.22781(16) 0.25000
C1 C 0.00000 -0.1069(6) 0.25000
C2 C -0.2259(5) 0.3037(3) 0.0246(4)
O1A O 0.450(2) 0.0296(18) 0.235(3)
U1F U -0.50000 0.339630(17) -0.25000
O2A O -0.1230(5) 0.1613(3) 0.3743(4)
O3F O -0.3805(3) 0.1891(3) -0.1311(4)
O3A O 0.1195(3) 0.3109(3) 0.3689(4)
O4F O -0.2037(4) 0.1263(3) 0.0463(4)
O4G O 0.2037(4) 0.1263(3) 0.4537(4)
C2F C -0.2741(5) 0.1963(3) -0.0246(4)
#END
