
#######################################################################
#
#                 Cambridge Crystallographic Data Centre
#                                CCDC
#
#######################################################################
#
# If this CIF has been generated from an entry in the Cambridge
# Structural Database, then it will include bibliographic, chemical,
# crystal, experimental, refinement or atomic coordinate data resulting
# from the CCDC's data processing and validation procedures.
#
#######################################################################

data_CSD_CIF_XORMIB
_audit_creation_date 2009-09-22
_audit_creation_method CSD-ConQuest-V1
_database_code_CSD XORMIB
_database_code_depnum_ccdc_archive 'CCDC 724045'
_chemical_formula_sum 'C60 H75 Ag2 B24 N1 P2'
_chemical_formula_moiety
;
(C29 H24 P1 1+)2n,n(C2 H27 Ag2 B24 N1 2-)
;
_journal_coden_Cambridge 233
_journal_volume 53
_journal_year 2008
_journal_page_first 1105
_journal_name_full 'Zh.Neorg.Khim.(Russ.)(Russ.J.Inorg.Chem.) '
loop_
_publ_author_name
"V.V.Drozdova"
"E.A.Malinina"
"O.N.Belousova"
"I.N.Polyakova"
"N.T.Kuznetsov"
_chemical_name_systematic
;
catena-(bis((1-Naphthylmethyl)triphenylphosphonium) 
(\m~2~-closo-dodecaborato-B^1^,B^2^,B^4^,B^11^,H^1^,H^2^,H^4^,H^11^)-(\m~2~-cl
oso-dodecaborato-B^1^,B^4^,B^7^,B^11^,H^1^,H^4^,H^7^,H^11^)-acetonitrile-di-si
lver(i))
;
_cell_volume   3454.495
_exptl_crystal_colour 'colorless'
_exptl_crystal_density_diffrn 1.295
_exptl_crystal_description 'prism'
_diffrn_ambient_temperature 295
#These two values have been output from a single CSD field.
_refine_ls_R_factor_gt 0.0847
_refine_ls_wR_factor_gt 0.0847
_symmetry_cell_setting monoclinic
_symmetry_space_group_name_H-M 'P 21'
_symmetry_Int_Tables_number 4
loop_
_symmetry_equiv_pos_site_id
_symmetry_equiv_pos_as_xyz
1 x,y,z
2 -x,1/2+y,-z
_cell_length_a 11.950(4)
_cell_length_b 23.477(2)
_cell_length_c 12.7259(17)
_cell_angle_alpha 90
_cell_angle_beta 104.63(2)
_cell_angle_gamma 90
_cell_formula_units_Z 2
loop_
_atom_type_symbol
_atom_type_radius_bond
C 0.68
H 0.45
Ag 1.71
B 0.76
N 0.68
P 1.05
loop_
_atom_site_label
_atom_site_type_symbol
_atom_site_fract_x
_atom_site_fract_y
_atom_site_fract_z
Ag1 Ag 0.45633(11) 0.51543(4) 0.15549(10)
Ag2 Ag 0.49862(18) 0.23644(4) 0.16749(12)
P1 P 0.00545(15) 0.82579(8) 1.15898(13)
P2 P -0.04226(15) 0.66506(8) 1.50893(14)
C1 C -0.0755(7) 0.7631(4) 1.1007(5)
C2 C -0.1800(6) 0.7478(4) 1.1282(6)
H1 H -0.20780 0.76970 1.17690
C3 C -0.2403(7) 0.6990(5) 1.0806(7)
H2 H -0.30730 0.68800 1.09970
C4 C -0.2007(9) 0.6669(5) 1.0045(9)
H3 H -0.24270 0.63550 0.97160
C5 C -0.1002(8) 0.6816(5) 0.9785(8)
H4 H -0.07360 0.65930 0.92950
C6 C -0.0369(7) 0.7291(4) 1.0235(7)
H5 H 0.03030 0.73880 1.00350
C7 C -0.0703(6) 0.8653(3) 1.2431(6)
C8 C -0.0392(7) 0.8577(4) 1.3568(6)
H6 H 0.02230 0.83400 1.38850
C9 C -0.0997(9) 0.8854(4) 1.4217(7)
H7 H -0.07740 0.88080 1.49670
C10 C -0.194(1) 0.9202(4) 1.3744(9)
H8 H -0.23480 0.93850 1.41800
C11 C -0.2271(8) 0.9274(4) 1.2618(9)
H9 H -0.29010 0.95030 1.23010
C12 C -0.1636(8) 0.8996(4) 1.1963(7)
H10 H -0.18500 0.90460 1.12130
C13 C 0.1472(6) 0.8044(4) 1.2434(6)
C14 C 0.2216(7) 0.8481(5) 1.3015(6)
H11 H 0.19710 0.88580 1.29800
C15 C 0.3306(8) 0.8331(6) 1.3629(7)
H12 H 0.37990 0.86080 1.40130
C16 C 0.3663(7) 0.7772(6) 1.3672(7)
H13 H 0.44100 0.76830 1.40640
C17 C 0.2938(7) 0.7332(6) 1.3144(7)
H14 H 0.31760 0.69530 1.32150
C18 C 0.1839(6) 0.7485(4) 1.2506(6)
H15 H 0.13510 0.72050 1.21250
C19 C 0.0208(8) 0.8702(5) 1.0439(6)
H16 H 0.04180 0.84580 0.99040
H17 H -0.05370 0.88710 1.01010
C20 C 0.1095(7) 0.9173(4) 1.0740(6)
C21 C 0.0763(10) 0.9708(4) 1.1019(8)
H18 H -0.00120 0.97810 1.09770
C22 C 0.1613(13) 1.0151(5) 1.1373(9)
H19 H 0.13930 1.05070 1.15750
C23 C 0.2766(11) 1.0040(5) 1.1408(9)
H20 H 0.33110 1.03270 1.16280
C24 C 0.3130(9) 0.9510(4) 1.1126(8)
C25 C 0.4331(11) 0.9377(6) 1.1153(10)
H21 H 0.48790 0.96630 1.13690
C26 C 0.4694(12) 0.8870(7) 1.0887(11)
H22 H 0.54730 0.88100 1.09280
C27 C 0.3878(10) 0.8426(6) 1.0542(10)
H23 H 0.41240 0.80730 1.03570
C28 C 0.2701(8) 0.8517(4) 1.0479(8)
H24 H 0.21740 0.82220 1.02510
C29 C 0.2303(8) 0.9055(4) 1.0762(6)
C30 C 0.0416(6) 0.7275(3) 1.5684(5)
C31 C 0.1457(7) 0.7409(4) 1.5390(6)
H25 H 0.16880 0.71970 1.48640
C32 C 0.2126(7) 0.7865(4) 1.5902(7)
H26 H 0.28230 0.79480 1.57350
C33 C 0.1770(7) 0.8195(4) 1.6652(8)
H27 H 0.22160 0.85030 1.69740
C34 C 0.0738(8) 0.8066(4) 1.6930(8)
H28 H 0.05030 0.82880 1.74420
C35 C 0.0055(7) 0.7605(4) 1.6442(6)
H29 H -0.06340 0.75220 1.66230
C36 C 0.0344(7) 0.6243(3) 1.4286(6)
C37 C 0.0061(8) 0.6312(4) 1.3149(7)
H30 H -0.05450 0.65510 1.28130
C38 C 0.069(1) 0.6023(5) 1.2523(9)
H31 H 0.05240 0.60830 1.17780
C39 C 0.1562(10) 0.5644(5) 1.3014(10)
H32 H 0.19720 0.54510 1.25920
C40 C 0.1822(9) 0.5554(5) 1.4108(10)
H33 H 0.23860 0.52880 1.44190
C41 C 0.1240(8) 0.5860(4) 1.4785(9)
H34 H 0.14430 0.58100 1.55340
C42 C -0.1813(6) 0.6863(4) 1.4216(5)
C43 C -0.2166(6) 0.7427(4) 1.4170(6)
H35 H -0.16780 0.77020 1.45710
C44 C -0.3645(8) 0.6601(6) 1.2981(7)
H36 H -0.41360 0.63260 1.25870
C45 C -0.4000(7) 0.7160(6) 1.2931(7)
H37 H -0.47310 0.72560 1.25100
C46 C -0.3274(8) 0.7591(6) 1.3510(7)
H38 H -0.35100 0.79690 1.34620
C47 C -0.2546(8) 0.6440(5) 1.3621(7)
H39 H -0.23090 0.60620 1.36500
C48 C -0.0643(8) 0.6216(4) 1.6236(6)
H40 H 0.00890 0.60450 1.66050
H41 H -0.08760 0.64660 1.67490
C49 C -0.1537(8) 0.5749(4) 1.5908(6)
C50 C -0.1195(9) 0.5216(4) 1.5656(8)
H42 H -0.04150 0.51400 1.57280
C51 C -0.2028(11) 0.4784(5) 1.5288(9)
H43 H -0.17860 0.44320 1.50960
C52 C -0.3185(10) 0.4871(5) 1.5206(10)
H44 H -0.37180 0.45810 1.49590
C53 C -0.3564(9) 0.5422(4) 1.5512(7)
C54 C -0.4773(10) 0.5514(6) 1.5430(11)
H45 H -0.53040 0.52210 1.52110
C55 C -0.5138(10) 0.6046(6) 1.5681(13)
H46 H -0.59200 0.61130 1.56150
C56 C -0.4327(10) 0.6485(5) 1.6035(9)
H47 H -0.45760 0.68380 1.62150
C57 C -0.3173(9) 0.6396(4) 1.6117(8)
H48 H -0.26550 0.66930 1.63480
C58 C -0.2750(7) 0.5863(4) 1.5860(6)
B1 B 0.4028(9) 0.4072(4) 0.1652(7)
H49 H 0.43580 0.43310 0.10750
B2 B 0.4507(8) 0.3358(4) 0.1980(8)
H50 H 0.51520 0.31570 0.16170
B3 B 0.4937(8) 0.3887(4) 0.3005(9)
H51 H 0.58420 0.40250 0.33000
B4 B 0.3743(8) 0.4372(4) 0.2839(8)
H52 H 0.38940 0.48270 0.30300
B5 B 0.2578(9) 0.4126(5) 0.1752(8)
H53 H 0.19630 0.44240 0.12430
B6 B 0.3033(9) 0.3502(4) 0.1191(7)
H54 H 0.27290 0.33990 0.03220
B7 B 0.4469(8) 0.3201(4) 0.3349(8)
H55 H 0.50690 0.29000 0.38690
B8 B 0.3999(10) 0.3834(5) 0.3899(7)
H56 H 0.42910 0.39460 0.47650
B9 B 0.2512(8) 0.3980(5) 0.3098(8)
H57 H 0.18650 0.41870 0.34510
B10 B 0.2120(7) 0.3438(4) 0.2094(7)
H58 H 0.12210 0.32890 0.18170
B11 B 0.3308(8) 0.2948(4) 0.2218(8)
H59 H 0.31800 0.24940 0.20070
B12 B 0.2989(9) 0.3261(5) 0.3413(7)
H60 H 0.26540 0.30010 0.39850
B13 B 0.4178(8) 0.6448(4) -0.1396(8)
H61 H 0.48650 0.66010 -0.17600
B14 B 0.4452(9) 0.5906(4) -0.0358(7)
H62 H 0.53170 0.57190 -0.00530
B15 B 0.4137(8) 0.6628(4) -0.0020(8)
H63 H 0.48020 0.69010 0.04950
B16 B 0.3054(8) 0.6918(4) -0.1118(8)
H64 H 0.30160 0.73740 -0.13190
B17 B 0.2691(9) 0.6378(4) -0.2162(6)
H65 H 0.24250 0.64910 -0.30290
B18 B 0.3556(9) 0.5756(4) -0.1699(7)
H66 H 0.38420 0.54680 -0.22620
B19 B 0.3516(9) 0.6028(5) 0.0520(7)
H67 H 0.37770 0.59110 0.13840
B20 B 0.2672(9) 0.6665(5) 0.0056(7)
H68 H 0.23970 0.69580 0.06170
B21 B 0.1774(8) 0.6508(4) -0.1265(7)
H69 H 0.09100 0.67000 -0.15540
B22 B 0.2058(9) 0.5785(4) -0.1638(7)
H70 H 0.13850 0.55180 -0.21600
B23 B 0.3149(9) 0.5494(4) -0.0515(8)
H71 H 0.31770 0.50370 -0.03240
B24 B 0.2035(9) 0.5958(5) -0.0252(7)
H72 H 0.13580 0.58000 0.01200
N1 N 0.6607(14) 0.5116(8) 0.2036(11)
C59 C 0.7503(19) 0.4972(8) 0.2048(15)
C60 C 0.8677(19) 0.4730(12) 0.212(2)
H73 H 0.92140 0.50350 0.21210
H74 H 0.86460 0.44870 0.15060
H75 H 0.89260 0.45130 0.27770
Ag2A Ag 0.50138(18) 0.73644(4) -0.16749(12)
B13A B 0.5822(8) 0.1448(4) 0.1396(8)
H61A H 0.51350 0.16010 0.17600
B16A B 0.6946(8) 0.1918(4) 0.1118(8)
H64A H 0.69840 0.23740 0.13190
#END
