
#######################################################################
#
#                 Cambridge Crystallographic Data Centre
#                                CCDC
#
#######################################################################
#
# If this CIF has been generated from an entry in the Cambridge
# Structural Database, then it will include bibliographic, chemical,
# crystal, experimental, refinement or atomic coordinate data resulting
# from the CCDC's data processing and validation procedures.
#
#######################################################################

data_CSD_CIF_XORMEX
_audit_creation_date 2009-09-22
_audit_creation_method CSD-ConQuest-V1
_database_code_CSD XORMEX
_database_code_depnum_ccdc_archive 'CCDC 724044'
_chemical_formula_sum 'C58 H72 Ag2 B24 P2'
_chemical_formula_moiety
;
(C29 H24 P1 1+)2n,n(H24 Ag2 B24 2-)
;
_journal_coden_Cambridge 233
_journal_volume 53
_journal_year 2008
_journal_page_first 1105
_journal_name_full 'Zh.Neorg.Khim.(Russ.)(Russ.J.Inorg.Chem.) '
loop_
_publ_author_name
"V.V.Drozdova"
"E.A.Malinina"
"O.N.Belousova"
"I.N.Polyakova"
"N.T.Kuznetsov"
_chemical_name_systematic
;
catena-(bis((1-Naphthylmethyl)triphenylphosphonium) 
(\m~2~-closo-dodecaborato-B^1^,B^2^,B^9^,B^12^,H^1^,H^2^,H^9^,H^12^)-(\m~2~-cl
oso-dodecaborato-B^1^,B^2^,B^3^,B^7^,H^1^,H^2^,H^3^,H^7^)-di-silver(i))
;
_cell_volume   6392.612
_exptl_crystal_colour 'colorless'
_exptl_crystal_density_diffrn 1.357
_exptl_crystal_description 'needle'
_diffrn_ambient_temperature 295
#These two values have been output from a single CSD field.
_refine_ls_R_factor_gt 0.0694
_refine_ls_wR_factor_gt 0.0694
_symmetry_cell_setting monoclinic
_symmetry_space_group_name_H-M 'C 2/c'
_symmetry_Int_Tables_number 15
loop_
_symmetry_equiv_pos_site_id
_symmetry_equiv_pos_as_xyz
1 x,y,z
2 1/2+x,1/2+y,z
3 -x,y,1/2-z
4 1/2-x,1/2+y,1/2-z
5 -x,-y,-z
6 -1/2-x,-1/2-y,-z
7 x,-y,-1/2+z
8 -1/2+x,-1/2-y,-1/2+z
_cell_length_a 31.017(7)
_cell_length_b 11.727(2)
_cell_length_c 22.344(4)
_cell_angle_alpha 90
_cell_angle_beta 128.135(8)
_cell_angle_gamma 90
_cell_formula_units_Z 4
loop_
_atom_type_symbol
_atom_type_radius_bond
C 0.68
H 0.27
Ag 1.54
B 0.83
P 1.05
loop_
_atom_site_label
_atom_site_type_symbol
_atom_site_fract_x
_atom_site_fract_y
_atom_site_fract_z
Ag1 Ag 0.11635(2) 0.11716(6) 0.34348(4)
P1 P 0.14341(5) 0.61997(10) 0.19496(7)
C1 C 0.1047(2) 0.7177(4) 0.1173(3)
C2 C 0.1290(3) 0.7738(4) 0.0895(3)
H1 H 0.16540 0.75980 0.11090
C3 C 0.0987(3) 0.8494(5) 0.0307(4)
H2 H 0.11480 0.88630 0.01210
C4 C 0.0457(3) 0.8713(5) -0.0008(3)
H3 H 0.02550 0.92230 -0.04120
C5 C 0.0220(3) 0.8185(5) 0.0268(3)
H4 H -0.01430 0.83460 0.00540
C6 C 0.0508(2) 0.7422(5) 0.0853(3)
H5 H 0.03420 0.70680 0.10350
C7 C 0.18553(19) 0.6957(4) 0.2828(3)
C8 C 0.2242(2) 0.6390(5) 0.3502(3)
H6 H 0.22890 0.56080 0.34990
C9 C 0.2556(2) 0.6984(6) 0.4176(3)
H7 H 0.28130 0.66010 0.46290
C10 C 0.2491(3) 0.8130(6) 0.4181(4)
H8 H 0.27050 0.85290 0.46380
C11 C 0.2112(3) 0.8698(5) 0.3518(4)
H9 H 0.20720 0.94820 0.35250
C12 C 0.1793(2) 0.8118(4) 0.2843(3)
H10 H 0.15340 0.85080 0.23950
C13 C 0.09731(19) 0.5272(4) 0.1940(3)
C14 C 0.0588(2) 0.4662(5) 0.1284(3)
H11 H 0.05610 0.47560 0.08490
C15 C 0.0245(3) 0.3917(5) 0.1286(5)
H12 H -0.00150 0.35050 0.08490
C16 C 0.0287(3) 0.3780(6) 0.1927(5)
H13 H 0.00600 0.32630 0.19280
C17 C 0.0653(3) 0.4387(7) 0.2555(4)
H14 H 0.06720 0.42970 0.29840
C18 C 0.1002(2) 0.5141(5) 0.2576(3)
H15 H 0.12550 0.55580 0.30150
C19 C 0.18891(19) 0.5389(4) 0.1860(3)
H16 H 0.20890 0.59170 0.17780
H17 H 0.21550 0.49980 0.23370
C20 C 0.16073(18) 0.4519(4) 0.1224(3)
C21 C 0.1385(2) 0.4863(4) 0.0506(3)
H18 H 0.14110 0.56260 0.04160
C22 C 0.1119(2) 0.4089(5) -0.0103(3)
H19 H 0.09610 0.43430 -0.05930
C23 C 0.1093(2) 0.2984(5) 0.0022(3)
H20 H 0.09180 0.24730 -0.03820
C24 C 0.1303(2) 0.1431(4) 0.0896(3)
H21 H 0.11370 0.09180 0.04930
C25 C 0.1513(3) 0.1042(5) 0.1592(4)
H22 H 0.14930 0.02700 0.16680
C26 C 0.1758(2) 0.1796(5) 0.2195(3)
H23 H 0.18990 0.15240 0.26750
C27 C 0.1799(2) 0.2921(4) 0.2102(3)
H24 H 0.19700 0.34090 0.25190
C28 C 0.15836(17) 0.3364(4) 0.1376(2)
C29 C 0.13257(19) 0.2590(4) 0.0759(3)
B1 B 0.2150(2) 0.1284(5) 0.4693(3)
H25 H 0.19160 0.04810 0.44930
B2 B 0.1967(2) 0.2457(5) 0.4074(3)
H26 H 0.16170 0.24260 0.34640
B3 B 0.2574(2) 0.1677(5) 0.4453(3)
H27 H 0.26160 0.11370 0.40890
B4 B 0.2864(2) 0.1277(5) 0.5390(3)
H28 H 0.30990 0.04820 0.56400
B5 B 0.2427(2) 0.1825(5) 0.5598(3)
H29 H 0.23780 0.13840 0.59870
B6 B 0.1871(2) 0.2550(5) 0.4777(3)
H30 H 0.14600 0.25770 0.46250
B7 B 0.0428(3) -0.0136(6) 0.2428(4)
H31 H 0.07080 0.03520 0.23800
B8 B 0.0247(2) 0.0346(5) 0.3002(3)
H32 H 0.04080 0.11440 0.33300
B9 B -0.0133(3) -0.0878(5) 0.1648(3)
H33 H -0.02180 -0.08710 0.10910
B10 B 0.0661(2) -0.0892(6) 0.3275(3)
H34 H 0.10940 -0.08970 0.37820
B11 B -0.0240(2) -0.2094(5) 0.2006(3)
H35 H -0.03980 -0.28920 0.16770
B12 B 0.0429(3) -0.1638(6) 0.2437(3)
H36 H 0.07120 -0.21380 0.24000
Ag1E Ag 0.38365(2) 0.38284(6) 0.65652(4)
Ag1B Ag -0.11635(2) 0.11716(6) 0.15652(4)
B1E B 0.2850(2) 0.3716(5) 0.5307(3)
H25E H 0.30840 0.45190 0.55070
B2E B 0.3033(2) 0.2543(5) 0.5926(3)
H26E H 0.33830 0.25740 0.65360
B3E B 0.2426(2) 0.3323(5) 0.5547(3)
H27E H 0.23840 0.38630 0.59110
B4E B 0.2136(2) 0.3723(5) 0.4610(3)
H28E H 0.19010 0.45180 0.43600
B5E B 0.2573(2) 0.3175(5) 0.4402(3)
H29E H 0.26220 0.36160 0.40130
B6E B 0.3129(2) 0.2450(5) 0.5223(3)
H30E H 0.35400 0.24230 0.53750
B7B B -0.0428(3) -0.0136(6) 0.2572(4)
B7E B 0.4572(3) 0.5136(6) 0.7572(4)
H31B H -0.07080 0.03520 0.26200
H31E H 0.42920 0.46480 0.76200
B8B B -0.0247(2) 0.0346(5) 0.1998(3)
B8E B 0.4753(2) 0.4654(5) 0.6998(3)
H32B H -0.04080 0.11440 0.16700
H32E H 0.45920 0.38560 0.66700
B9B B 0.0133(3) -0.0878(5) 0.3352(3)
H33B H 0.02180 -0.08710 0.39090
B10B B -0.0661(2) -0.0892(6) 0.1725(3)
H34B H -0.10940 -0.08970 0.12180
B11B B 0.0240(2) -0.2094(5) 0.2994(3)
H35B H 0.03980 -0.28920 0.33230
B12B B -0.0429(3) -0.1638(6) 0.2563(3)
H36B H -0.07120 -0.21380 0.26000
#END
