
#######################################################################
#
#                 Cambridge Crystallographic Data Centre
#                                CCDC
#
#######################################################################
#
# If this CIF has been generated from an entry in the Cambridge
# Structural Database, then it will include bibliographic, chemical,
# crystal, experimental, refinement or atomic coordinate data resulting
# from the CCDC's data processing and validation procedures.
#
#######################################################################

data_CSD_CIF_XORSAZ
_audit_creation_date 2009-09-22
_audit_creation_method CSD-ConQuest-V1
_database_code_CSD XORSAZ
_database_code_depnum_ccdc_archive 'CCDC 704597'
_chemical_formula_sum 'C45 H50 Ce1 Mo12 N9 O56 P1'
_chemical_formula_moiety
;
(C40 H38 Ce1 N8 O11 3+)n,n(Mo12 O40 P1 3-),0.5n(C10 H8 N2 O2),4n(H2 O1)
;
_journal_coden_Cambridge 603
_journal_volume 28
_journal_year 2009
_journal_page_first 157
_journal_name_full 'Jiegou Huaxue(Chin.)(Chin.J.Struct.Chem.) '
loop_
_publ_author_name
"Mei-Lin Wei"
"Kai Jiang"
"Rui-Ping Sun"
_chemical_name_systematic
;
catena-((\m~2~-4,4'-bipyridine-N,N'-dioxide)-tris(4,4'-bipyridine-N,N'-dioxide
)-triaqua-cerium(iii) 
(\m~12~-phosphato)-tetracosakis(\m~2~-oxo)-dodeca-oxo-dodeca-molybdenum 
4,4'-bipyridine-N,N'-dioxide solvate tetrahydrate)
;
_cell_volume   4018.425
_exptl_crystal_colour 'yellow'
_exptl_crystal_density_diffrn 2.426
_exptl_crystal_description 'block'
_diffrn_ambient_temperature 293
#These two values have been output from a single CSD field.
_refine_ls_R_factor_gt 0.0603
_refine_ls_wR_factor_gt 0.0603
_symmetry_cell_setting triclinic
_symmetry_space_group_name_H-M 'P -1'
_symmetry_Int_Tables_number 2
loop_
_symmetry_equiv_pos_site_id
_symmetry_equiv_pos_as_xyz
1 x,y,z
2 -x,-y,-z
_cell_length_a 13.368(4)
_cell_length_b 16.503(4)
_cell_length_c 18.506(5)
_cell_angle_alpha 88.831(5)
_cell_angle_beta 82.095(5)
_cell_angle_gamma 83.578(5)
_cell_formula_units_Z 2
loop_
_atom_type_symbol
_atom_type_radius_bond
C 0.68
H 0.23
Ce 2.04
Mo 1.37
N 0.68
O 0.68
P 1.05
loop_
_atom_site_label
_atom_site_type_symbol
_atom_site_fract_x
_atom_site_fract_y
_atom_site_fract_z
P1 P 0.48615(13) 1.33382(10) 0.23589(9)
Mo1 Mo 0.37231(6) 1.14861(4) 0.25134(4)
Mo2 Mo 0.56221(6) 1.17134(4) 0.11108(4)
Mo3 Mo 0.30348(5) 1.30860(5) 0.39024(4)
Mo4 Mo 0.34809(6) 1.51488(4) 0.17911(4)
Mo5 Mo 0.61654(6) 1.14539(4) 0.28520(4)
Mo6 Mo 0.22892(5) 1.34203(5) 0.20635(4)
Mo7 Mo 0.55025(6) 1.31519(4) 0.41649(4)
Mo8 Mo 0.74583(5) 1.33214(5) 0.25862(4)
Mo9 Mo 0.41040(6) 1.35763(5) 0.05880(4)
Mo10 Mo 0.40770(6) 1.48790(4) 0.36731(4)
Mo11 Mo 0.67661(6) 1.36490(5) 0.08732(4)
Mo12 Mo 0.61222(6) 1.51241(4) 0.21629(5)
O1 O 0.2987(5) 1.0729(4) 0.2678(4)
O2 O 0.5978(5) 1.1063(4) 0.0419(3)
O3 O 0.2060(5) 1.2877(4) 0.4521(3)
O4 O 0.2904(5) 1.6089(4) 0.1672(4)
O5 O 0.6931(5) 1.0692(3) 0.3168(3)
O6 O 0.1053(5) 1.3315(4) 0.2067(4)
O7 O 0.5984(5) 1.2902(4) 0.4935(3)
O8 O 0.8634(5) 1.3213(5) 0.2805(4)
O9 O 0.3971(5) 1.3603(4) -0.0298(3)
O10 O 0.3787(5) 1.5725(4) 0.4166(3)
O11 O 0.7552(5) 1.3682(4) 0.0088(3)
O12 O 0.6510(5) 1.6055(4) 0.2137(4)
O13 O 0.6515(4) 1.2514(3) 0.0938(3)
O14 O 0.6710(4) 1.4730(3) 0.1210(3)
O15 O 0.3426(4) 1.5126(3) 0.2856(3)
O16 O 0.3676(4) 1.4717(3) 0.0850(3)
O17 O 0.4639(4) 1.2495(3) 0.0734(3)
O18 O 0.2883(4) 1.2287(3) 0.2117(3)
O19 O 0.4111(4) 1.2873(3) 0.4466(3)
O20 O 0.6617(4) 1.3428(4) 0.3526(3)
O21 O 0.5474(4) 1.3840(3) 0.0585(3)
O22 O 0.3046(4) 1.4239(3) 0.4093(3)
O23 O 0.7111(4) 1.2260(4) 0.2583(3)
O24 O 0.4920(4) 1.0987(3) 0.2927(3)
O25 O 0.6359(4) 1.1198(3) 0.1817(3)
O26 O 0.7205(4) 1.4515(3) 0.2536(3)
O27 O 0.2792(4) 1.3361(4) 0.1026(3)
O28 O 0.5313(4) 1.5095(4) 0.3077(3)
O29 O 0.4834(4) 1.5294(4) 0.1770(3)
O30 O 0.2277(4) 1.4561(3) 0.1979(3)
O31 O 0.2363(4) 1.3439(3) 0.3071(3)
O32 O 0.7733(4) 1.3360(3) 0.1557(3)
O33 O 0.4963(4) 1.4252(3) 0.4303(3)
O34 O 0.4452(4) 1.1194(3) 0.1596(3)
O35 O 0.5717(4) 1.2106(3) 0.3678(3)
O36 O 0.3398(4) 1.2100(3) 0.3409(3)
O37 O 0.5852(4) 1.3697(3) 0.2111(3)
O38 O 0.4045(4) 1.3708(3) 0.1906(3)
O39 O 0.4509(4) 1.3526(3) 0.3170(3)
O40 O 0.5017(4) 1.2412(3) 0.2254(3)
Ce1 Ce 0.04304(3) 1.17940(3) -0.28853(2)
O41 O -0.0046(5) 1.1788(5) -0.1549(3)
H1 H 0.04960 1.15850 -0.13910
H2 H -0.04790 1.14650 -0.13880
O42 O 0.0657(7) 1.0294(4) -0.2900(5)
H3 H 0.03840 1.00670 -0.32200
H4 H 0.06010 1.00530 -0.24880
O43 O 0.0010(5) 1.1294(4) -0.4070(4)
H5 H -0.06030 1.12080 -0.40840
H6 H 0.04490 1.09510 -0.43080
O44 O 0.1893(4) 1.1340(4) -0.2274(3)
O45 O 0.8405(5) 1.1466(6) -0.0621(4)
O46 O 0.1897(4) 1.1916(4) -0.3839(3)
O47 O 0.8633(4) 1.1683(4) -0.2539(3)
O48 O -0.0574(4) 1.2935(4) -0.3455(4)
O49 O 0.1474(6) 1.8140(4) -0.5170(5)
O50 O 0.0932(5) 1.3101(4) -0.2515(3)
O51 O -0.1374(5) 1.7582(5) 0.0790(4)
N1 N 0.2736(5) 1.1395(4) -0.1986(3)
N2 N 0.7523(5) 1.1446(6) -0.0858(4)
N3 N 0.2866(5) 1.1895(4) -0.3751(3)
N4 N 0.7794(5) 1.1737(4) -0.2843(4)
N5 N -0.0251(5) 1.3650(4) -0.3667(4)
N6 N 0.1238(6) 1.7434(5) -0.4886(5)
N7 N 0.0535(5) 1.3724(4) -0.2097(4)
N8 N -0.1100(5) 1.6994(5) 0.0328(4)
C1 C 0.3234(6) 1.0707(5) -0.1736(5)
H7 H 0.29470 1.02180 -0.17260
C2 C 0.4134(7) 1.0728(5) -0.1503(5)
H8 H 0.44620 1.02480 -0.13360
C3 C 0.4599(6) 1.1447(5) -0.1501(4)
C4 C 0.4025(6) 1.2138(4) -0.1717(4)
H9 H 0.42740 1.26400 -0.16960
C5 C 0.3125(6) 1.2113(5) -0.1955(4)
H10 H 0.27680 1.25910 -0.21000
C6 C 0.7232(7) 1.0759(7) -0.1077(6)
H11 H 0.76730 1.02800 -0.10900
C7 C 0.6287(6) 1.0749(6) -0.1286(5)
H12 H 0.60900 1.02610 -0.14310
C8 C 0.5618(6) 1.1462(5) -0.1282(4)
C9 C 0.5953(7) 1.2162(6) -0.1078(4)
H13 H 0.55270 1.26480 -0.10770
C10 C 0.6901(8) 1.2171(7) -0.0875(5)
H14 H 0.71210 1.26580 -0.07500
C11 C 0.3337(6) 1.2569(5) -0.3840(4)
H15 H 0.29910 1.30550 -0.39810
C12 C 0.4330(6) 1.2546(5) -0.3724(4)
H16 H 0.46450 1.30220 -0.37750
C13 C 0.4875(6) 1.1830(5) -0.3534(4)
C14 C 0.4374(6) 1.1147(5) -0.3477(4)
H17 H 0.47180 1.06520 -0.33560
C15 C 0.3384(6) 1.1169(5) -0.3593(4)
H18 H 0.30670 1.06940 -0.35630
C16 C 0.7483(6) 1.1061(6) -0.3091(5)
H19 H 0.79000 1.05710 -0.30940
C17 C 0.6558(6) 1.1085(5) -0.3339(4)
H20 H 0.63580 1.06090 -0.35080
C18 C 0.5914(6) 1.1809(5) -0.3342(4)
C19 C 0.6316(6) 1.2494(5) -0.3117(5)
H21 H 0.59350 1.30000 -0.31350
C20 C 0.7211(6) 1.2459(5) -0.2880(5)
H22 H 0.74420 1.29350 -0.27380
C21 C -0.0832(8) 1.4341(6) -0.3434(5)
H23 H -0.14500 1.43160 -0.31400
C22 C -0.0496(7) 1.5095(6) -0.3640(6)
H24 H -0.08820 1.55700 -0.34610
C23 C 0.0390(6) 1.5147(5) -0.4100(4)
C24 C 0.0938(6) 1.4410(5) -0.4337(5)
H25 H 0.15400 1.44170 -0.46550
C25 C 0.0617(6) 1.3686(5) -0.4117(5)
H26 H 0.10060 1.32050 -0.42800
C26 C 0.0440(9) 1.7403(6) -0.4386(7)
H27 H 0.00570 1.78860 -0.42220
C27 C 0.0162(8) 1.6671(6) -0.4101(6)
H28 H -0.03990 1.66630 -0.37440
C28 C 0.0722(6) 1.5939(5) -0.4350(4)
C29 C 0.1559(6) 1.6014(5) -0.4847(5)
H29 H 0.19700 1.55440 -0.50130
C30 C 0.1820(7) 1.6754(6) -0.5111(6)
H30 H 0.24010 1.67820 -0.54460
C31 C -0.0334(6) 1.3710(6) -0.1628(5)
H31 H -0.06900 1.32560 -0.16150
C32 C -0.0695(6) 1.4341(5) -0.1179(5)
H32 H -0.12990 1.43130 -0.08670
C33 C -0.0187(6) 1.5037(5) -0.1167(4)
C34 C 0.0674(7) 1.5035(5) -0.1674(5)
H33 H 0.10350 1.54880 -0.17020
C35 C 0.1018(6) 1.4404(5) -0.2134(5)
H34 H 0.15890 1.44390 -0.24760
C36 C -0.1621(6) 1.6313(6) 0.0375(5)
H35 H -0.21700 1.62810 0.07380
C37 C -0.1337(6) 1.5687(6) -0.0106(5)
H36 H -0.17050 1.52380 -0.00670
C38 C -0.0516(6) 1.5701(5) -0.0652(4)
C39 C 0.0004(7) 1.6397(6) -0.0664(5)
H37 H 0.05710 1.64350 -0.10110
C40 C -0.0298(7) 1.7011(6) -0.0185(5)
H38 H 0.00660 1.74620 -0.02140
N9 N 0.7640(6) 0.9814(5) 0.5097(4)
O52 O 0.8629(5) 0.9730(5) 0.5103(4)
C41 C 0.7087(7) 0.9199(6) 0.5316(5)
H39 H 0.74100 0.87210 0.54900
C42 C 0.6069(7) 0.9259(5) 0.5291(5)
H40 H 0.57140 0.88190 0.54470
C43 C 0.5541(6) 0.9966(5) 0.5034(4)
C44 C 0.6139(7) 1.0603(5) 0.4849(4)
H41 H 0.58280 1.11010 0.47040
C45 C 0.7159(8) 1.0519(6) 0.4875(5)
H42 H 0.75300 1.09550 0.47380
O53 O 0.6620(6) 1.5503(5) 0.4231(4)
O54 O -0.0077(11) 0.9371(9) -0.3898(8)
O55 O 0.1139(15) 0.9246(12) -0.1821(10)
O56 O 0.100(2) 0.9756(14) -0.0356(16)
O57 O 0.136(2) 0.8232(13) -0.0723(12)
O58 O -0.184(3) 1.901(3) 0.005(3)
O59 O -0.045(4) 1.824(3) -0.263(3)
Ce1* Ce 1.04304(3) 1.17940(3) -0.28853(2)
O47* O -0.1367(4) 1.1683(4) -0.2539(3)
N9A N 0.2360(6) 1.0186(5) 0.4903(4)
O52A O 0.1371(5) 1.0270(5) 0.4897(4)
C41A C 0.2913(7) 1.0801(6) 0.4684(5)
H39A H 0.25900 1.12790 0.45100
C42A C 0.3931(7) 1.0741(5) 0.4709(5)
H40A H 0.42860 1.11810 0.45530
C43A C 0.4459(6) 1.0034(5) 0.4966(4)
C44A C 0.3861(7) 0.9397(5) 0.5151(4)
H41A H 0.41720 0.88990 0.52960
C45A C 0.2841(8) 0.9481(6) 0.5125(5)
H42A H 0.24700 0.90450 0.52620
#END
