
#######################################################################
#
#                 Cambridge Crystallographic Data Centre
#                                CCDC
#
#######################################################################
#
# If this CIF has been generated from an entry in the Cambridge
# Structural Database, then it will include bibliographic, chemical,
# crystal, experimental, refinement or atomic coordinate data resulting
# from the CCDC's data processing and validation procedures.
#
#######################################################################

data_CSD_CIF_XOWBAO
_audit_creation_date 2014-11-21
_audit_creation_method CSD-ConQuest-V1
_database_code_CSD XOWBAO
_database_code_depnum_ccdc_archive 'CCDC 1028527'
_chemical_formula_sum 'C92 H50 Cl4 F32 Fe1 N4 O16 Ru4'
_chemical_formula_moiety
;
(C68 H12 F32 N4 O16 Ru4)n,C20 H30 Fe1,2(C2 H4 Cl2)
;
_journal_coden_Cambridge 179
_journal_volume 54
_journal_year 2015
_journal_page_first 569
_journal_name_full 'Angew.Chem.,Int.Ed. '
loop_
_publ_author_name
"H.Fukunaga"
"H.Miyasaka"
_chemical_name_systematic
;
catena-[(\m-7,7,8,8-tetracyano-p-quinodime-thane)-octakis(\m-2,3,5,6-tetrafluo
robenzoato)-tetra-ruthenium decamethylferrocene 1,2-dichloroethane solvate]
;
_cell_volume   2323.995
_exptl_crystal_colour 'brown'
_exptl_crystal_density_diffrn 1.913
_exptl_crystal_description 'block'
_diffrn_ambient_temperature 98
#These two values have been output from a single CSD field.
_refine_ls_R_factor_gt 0.091
_refine_ls_wR_factor_gt 0.091
_symmetry_cell_setting triclinic
_symmetry_space_group_name_H-M 'P -1'
_symmetry_Int_Tables_number 2
loop_
_symmetry_equiv_pos_site_id
_symmetry_equiv_pos_as_xyz
1 x,y,z
2 -x,-y,-z
_cell_length_a 10.561(3)
_cell_length_b 14.315(3)
_cell_length_c 16.180(4)
_cell_angle_alpha 81.931(9)
_cell_angle_beta 77.025(7)
_cell_angle_gamma 78.491(9)
_cell_formula_units_Z 1
loop_
_atom_type_symbol
_atom_type_radius_bond
C 0.68
H 0.23
Cl 0.99
F 0.64
Fe 1.52
N 0.68
O 0.68
Ru 1.46
loop_
_atom_site_label
_atom_site_type_symbol
_atom_site_fract_x
_atom_site_fract_y
_atom_site_fract_z
Ru1 Ru 0.53057(8) 0.06490(5) 0.45573(5)
Ru2 Ru 0.51041(8) 0.49501(5) 0.06958(5)
F1 F 0.8309(7) -0.1884(4) 0.6631(5)
F2 F 1.0467(7) -0.1971(5) 0.7225(5)
F3 F 1.0871(7) 0.1151(5) 0.5945(5)
F4 F 0.8701(7) 0.1296(4) 0.5388(5)
F5 F 0.4281(9) -0.2148(5) 0.3403(5)
F6 F 0.4867(12) -0.3302(6) 0.2182(5)
F7 F 0.9056(10) -0.2407(6) 0.1250(5)
F8 F 0.8504(8) -0.1261(5) 0.2499(5)
F9 F 0.6914(12) 0.1865(6) 0.1273(5)
F10 F 0.8075(11) 0.0074(6) 0.1118(6)
F11 F 0.8792(13) 0.0673(8) -0.1856(7)
F12 F 0.7644(11) 0.2472(7) -0.1729(5)
F13 F 0.0496(7) 0.5487(5) 0.1319(5)
F14 F -0.1868(7) 0.4957(6) 0.1802(5)
F15 F -0.0080(8) 0.1971(5) 0.0735(5)
F16 F 0.2297(7) 0.2498(5) 0.0252(4)
O1 O 0.7025(7) 0.0439(5) 0.5013(5)
O2 O 0.6420(8) -0.0823(5) 0.5900(5)
O3 O 0.6168(7) -0.0200(5) 0.3574(5)
O4 O 0.5549(7) -0.1469(5) 0.4445(5)
O5 O 0.6223(7) 0.3590(5) 0.0565(4)
O6 O 0.5980(8) 0.3688(5) -0.0791(4)
O7 O 0.3352(7) 0.4412(5) 0.1066(4)
O8 O 0.3163(7) 0.4490(5) -0.0302(4)
N1 N 0.5833(8) 0.2045(6) 0.3805(5)
N2 N 0.5301(7) 0.4657(6) 0.2088(5)
C1 C 0.7192(11) -0.0226(7) 0.5602(7)
C2 C 0.8389(11) -0.0288(7) 0.5971(7)
C3 C 0.8900(11) -0.1106(7) 0.6462(7)
C4 C 1.0034(12) -0.1155(8) 0.6768(7)
C5 C 1.0716(11) -0.0412(7) 0.6621(7)
C6 C 1.0231(12) 0.0404(8) 0.6143(7)
C7 C 0.9097(11) 0.0470(7) 0.5830(7)
C8 C 0.6015(11) -0.1069(7) 0.3736(7)
C9 C 0.6387(12) -0.1683(7) 0.3002(7)
C10 C 0.5467(16) -0.2215(8) 0.2897(8)
C11 C 0.5773(19) -0.2805(9) 0.2253(8)
C12 C 0.696(2) -0.2882(9) 0.1699(8)
C13 C 0.7857(16) -0.2353(9) 0.1785(8)
C14 C 0.7594(14) -0.1750(8) 0.2426(8)
C15 C 0.6386(11) 0.3260(7) -0.0139(7)
C16 C 0.7138(12) 0.2247(8) -0.0220(7)
C17 C 0.7334(14) 0.1599(9) 0.0480(8)
C18 C 0.7964(14) 0.0664(9) 0.0390(9)
C19 C 0.8407(13) 0.0326(9) -0.0365(9)
C20 C 0.8298(15) 0.0968(10) -0.1075(9)
C21 C 0.7681(12) 0.1901(9) -0.1003(8)
C22 C 0.2775(11) 0.4324(7) 0.0483(6)
C23 C 0.1451(11) 0.4004(7) 0.0771(6)
C24 C 0.0353(12) 0.4622(8) 0.1173(7)
C25 C -0.0851(11) 0.4336(9) 0.1414(7)
C26 C -0.1035(12) 0.3465(8) 0.1259(7)
C27 C 0.0047(13) 0.2859(8) 0.0867(7)
C28 C 0.1268(11) 0.3123(8) 0.0621(7)
C29 C 0.5632(9) 0.2877(7) 0.3712(6)
C30 C 0.5388(8) 0.3887(6) 0.3609(6)
C31 C 0.5340(9) 0.4310(7) 0.2757(6)
C32 C 0.5189(8) 0.4442(6) 0.4307(6)
C33 C 0.5292(9) 0.4006(7) 0.5143(6)
C34 C 0.5134(9) 0.4533(6) 0.5796(6)
H1 H 1.14920 -0.04540 0.68380
H2 H 0.71590 -0.32970 0.12610
H3 H 0.87830 -0.03290 -0.04130
H4 H -0.18800 0.32830 0.14170
H5 H 0.54770 0.33270 0.52400
H6 H 0.52380 0.42180 0.63400
Fe1 Fe 1.00000 0.50000 0.50000
C35 C 1.1438(9) 0.5710(7) 0.5194(6)
C36 C 1.1203(11) 0.6557(8) 0.5693(8)
C37 C 1.1688(9) 0.4725(7) 0.5520(6)
C38 C 1.1734(11) 0.4352(9) 0.6430(7)
C39 C 1.1892(8) 0.4147(7) 0.4832(6)
C40 C 1.218(1) 0.3085(8) 0.4908(8)
C41 C 1.1754(9) 0.4783(7) 0.4079(6)
C42 C 1.190(1) 0.4477(9) 0.3204(7)
C43 C 1.1495(9) 0.5737(7) 0.4298(7)
C44 C 1.1374(10) 0.6632(8) 0.3678(7)
H7 H 1.04250 0.65290 0.61520
H8 H 1.19750 0.65470 0.59380
H9 H 1.10570 0.71490 0.53140
H10 H 1.24280 0.45940 0.66050
H11 H 1.08810 0.45690 0.67960
H12 H 1.19240 0.36500 0.64810
H13 H 1.30320 0.28700 0.45390
H14 H 1.14850 0.28440 0.47330
H15 H 1.22150 0.28400 0.55000
H16 H 1.26360 0.47300 0.28150
H17 H 1.10840 0.47260 0.29940
H18 H 1.20740 0.37760 0.32340
H19 H 1.06500 0.66440 0.33870
H20 H 1.22010 0.66300 0.32560
H21 H 1.11930 0.71990 0.39890
Cl1 Cl 0.5096(10) -0.0636(7) 0.1036(8)
Cl2 Cl 0.3994(7) 0.2291(6) 0.1863(5)
C45 C 0.390(3) 0.0265(18) 0.1845(14)
C46 C 0.362(3) 0.1124(17) 0.1408(13)
H22 H 0.30810 0.00140 0.21040
H23 H 0.43470 0.03270 0.23080
H24 H 0.26740 0.12390 0.13840
H25 H 0.41290 0.10890 0.08150
N1A N 0.4167(8) 0.7955(6) 0.6195(5)
N2A N 0.4699(7) 0.5343(6) 0.7912(5)
C29A C 0.4368(9) 0.7123(7) 0.6288(6)
C30A C 0.4612(8) 0.6113(6) 0.6391(6)
C31A C 0.4660(9) 0.5690(7) 0.7243(6)
C32A C 0.4811(8) 0.5558(6) 0.5693(6)
C33A C 0.4708(9) 0.5994(7) 0.4857(6)
C34A C 0.4866(9) 0.5467(6) 0.4204(6)
H5A H 0.45230 0.66730 0.47600
H6A H 0.47620 0.57820 0.36600
Ru1A Ru 0.46943(8) -0.06490(5) 0.54427(5)
F1A F 0.1691(7) 0.1884(4) 0.3369(5)
F2A F -0.0467(7) 0.1971(5) 0.2775(5)
F3A F -0.0871(7) -0.1151(5) 0.4055(5)
F4A F 0.1299(7) -0.1296(4) 0.4612(5)
F5A F 0.5719(9) 0.2148(5) 0.6597(5)
F6A F 0.5133(12) 0.3302(6) 0.7818(5)
F7A F 0.0944(10) 0.2407(6) 0.8750(5)
F8A F 0.1496(8) 0.1261(5) 0.7501(5)
O1A O 0.2975(7) -0.0439(5) 0.4987(5)
O2A O 0.3580(8) 0.0823(5) 0.4100(5)
O3A O 0.3832(7) 0.0200(5) 0.6426(5)
O4A O 0.4451(7) 0.1469(5) 0.5555(5)
C1A C 0.2808(11) 0.0226(7) 0.4398(7)
C2A C 0.1611(11) 0.0288(7) 0.4029(7)
C3A C 0.1100(11) 0.1106(7) 0.3538(7)
C4A C -0.0034(12) 0.1155(8) 0.3232(7)
C5A C -0.0716(11) 0.0412(7) 0.3379(7)
C6A C -0.0231(12) -0.0404(8) 0.3857(7)
C7A C 0.0903(11) -0.0470(7) 0.4170(7)
C8A C 0.3985(11) 0.1069(7) 0.6264(7)
C9A C 0.3613(12) 0.1683(7) 0.6998(7)
C10A C 0.4533(16) 0.2215(8) 0.7103(8)
C11A C 0.4227(19) 0.2805(9) 0.7747(8)
C12A C 0.304(2) 0.2882(9) 0.8301(8)
C13A C 0.2143(16) 0.2353(9) 0.8215(8)
C14A C 0.2406(14) 0.1750(8) 0.7574(8)
H1A H -0.14920 0.04540 0.31620
H2A H 0.28410 0.32970 0.87390
Ru2A Ru 0.48959(8) 0.50499(5) -0.06958(5)
F9A F 0.3086(12) 0.8135(6) -0.1273(5)
F10A F 0.1925(11) 0.9926(6) -0.1118(6)
F11A F 0.1208(13) 0.9327(8) 0.1856(7)
F12A F 0.2356(11) 0.7528(7) 0.1729(5)
F13A F 0.9504(7) 0.4513(5) -0.1319(5)
F14A F 1.1868(7) 0.5043(6) -0.1802(5)
F15A F 1.0080(8) 0.8029(5) -0.0735(5)
F16A F 0.7703(7) 0.7502(5) -0.0252(4)
O5A O 0.3777(7) 0.6410(5) -0.0565(4)
O6A O 0.4020(8) 0.6312(5) 0.0791(4)
O7A O 0.6648(7) 0.5588(5) -0.1066(4)
O8A O 0.6837(7) 0.5510(5) 0.0302(4)
C15A C 0.3614(11) 0.6740(7) 0.0139(7)
C16A C 0.2862(12) 0.7753(8) 0.0220(7)
C17A C 0.2666(14) 0.8401(9) -0.0480(8)
C18A C 0.2036(14) 0.9336(9) -0.0390(9)
C19A C 0.1593(13) 0.9674(9) 0.0365(9)
C20A C 0.1702(15) 0.9032(10) 0.1075(9)
C21A C 0.2319(12) 0.8099(9) 0.1003(8)
C22A C 0.7225(11) 0.5676(7) -0.0483(6)
C23A C 0.8549(11) 0.5996(7) -0.0771(6)
C24A C 0.9647(12) 0.5378(8) -0.1173(7)
C25A C 1.0851(11) 0.5664(9) -0.1414(7)
C26A C 1.1035(12) 0.6535(8) -0.1259(7)
C27A C 0.9953(13) 0.7141(8) -0.0867(7)
C28A C 0.8732(11) 0.6877(8) -0.0621(7)
H3A H 0.12170 1.03290 0.04130
H4A H 1.18800 0.67170 -0.14170
Ru1A* Ru 0.46943(8) 0.93510(5) 0.54427(5)
Ru2A* Ru 0.48959(8) 0.50499(5) 0.93042(5)
N1A* N 0.4167(8) -0.2045(6) 0.6195(5)
N2A* N 0.4699(7) 0.5343(6) -0.2088(5)
C35A C 0.8562(9) 0.4290(7) 0.4806(6)
C36A C 0.8797(11) 0.3443(8) 0.4307(8)
C37A C 0.8312(9) 0.5275(7) 0.4480(6)
C38A C 0.8266(11) 0.5648(9) 0.3570(7)
C39A C 0.8108(8) 0.5853(7) 0.5168(6)
C40A C 0.782(1) 0.6915(8) 0.5092(8)
C41A C 0.8246(9) 0.5217(7) 0.5921(6)
C42A C 0.810(1) 0.5523(9) 0.6796(7)
C43A C 0.8505(9) 0.4263(7) 0.5702(7)
C44A C 0.8626(10) 0.3368(8) 0.6322(7)
H7A H 0.95750 0.34710 0.38480
H8A H 0.80250 0.34530 0.40620
H9A H 0.89430 0.28510 0.46860
H10A H 0.75720 0.54060 0.33950
H11A H 0.91190 0.54310 0.32040
H12A H 0.80760 0.63500 0.35190
H13A H 0.69680 0.71300 0.54610
H14A H 0.85150 0.71560 0.52670
H15A H 0.77850 0.71600 0.45000
H16A H 0.73640 0.52700 0.71850
H17A H 0.89160 0.52740 0.70060
H18A H 0.79260 0.62240 0.67660
H19A H 0.93500 0.33560 0.66130
H20A H 0.77990 0.33700 0.67440
H21A H 0.88070 0.28010 0.60110
#END
