
#######################################################################
#
#                 Cambridge Crystallographic Data Centre
#                                CCDC
#
#######################################################################
#
# If this CIF has been generated from an entry in the Cambridge
# Structural Database, then it will include bibliographic, chemical,
# crystal, experimental, refinement or atomic coordinate data resulting
# from the CCDC's data processing and validation procedures.
#
#######################################################################

data_CSD_CIF_XOWNEF01
_audit_creation_date 2019-09-27
_audit_creation_method CSD-ConQuest-V1
_database_code_CSD XOWNEF01
_database_code_depnum_ccdc_archive 'CCDC 1909404'
_chemical_formula_sum 'C40 H36 Bi2 I9 La1 N8 O10'
_chemical_formula_moiety
;
(C40 H36 La1 N8 O10 3+)n,0.5(Bi4 I18 6-)
;
_journal_coden_Cambridge 9
_journal_volume 58
_journal_year 2019
_journal_page_first 13862
_journal_name_full 'Inorg.Chem. '
loop_
_publ_author_name
"Yan He"
"You-Ren Huang"
"Yan-Li Li"
"Hao-Hong Li"
"Zhi-Rong Chen"
"Rong Jiang"
_chemical_name_systematic
;
catena-[bis(\m-4,4'-bipyridine N,N'-dioxide)-bis(4,4'-bipyridine 
N,N'-dioxide)-diaqua-lanthanum(iii) 
hemikis(hexakis(\m-iodo)-dodecaiodo-tetra-bismuth(iii))]
;
_cell_volume   2929.435
_exptl_crystal_colour 'red'
_exptl_crystal_density_diffrn 2.82
_exptl_special_details
;
beta polymorph

;
_exptl_crystal_description 'Block'
_diffrn_ambient_temperature 296
#These two values have been output from a single CSD field.
_refine_ls_R_factor_gt 0.0392
_refine_ls_wR_factor_gt 0.0392
_symmetry_cell_setting triclinic
_symmetry_space_group_name_H-M 'P -1'
_symmetry_Int_Tables_number 2
loop_
_symmetry_equiv_pos_site_id
_symmetry_equiv_pos_as_xyz
1 x,y,z
2 -x,-y,-z
_cell_length_a 13.3097(3)
_cell_length_b 13.7488(4)
_cell_length_c 16.2808(3)
_cell_angle_alpha 91.971(2)
_cell_angle_beta 100.235(2)
_cell_angle_gamma 90.868(2)
_cell_formula_units_Z 2
loop_
_atom_type_symbol
_atom_type_radius_bond
C 0.68
H 0.23
Bi 1.48
I 1.40
La 2.07
N 0.68
O 0.68
loop_
_atom_site_label
_atom_site_type_symbol
_atom_site_fract_x
_atom_site_fract_y
_atom_site_fract_z
Bi1 Bi 0.93838(2) 0.30912(2) 0.64685(2)
Bi2 Bi 1.10749(2) 0.43020(2) 0.91498(2)
I1 I 0.98696(5) 0.34922(5) 0.48466(4)
I2 I 0.78369(5) 0.47164(5) 0.63485(4)
I3 I 0.77192(5) 0.16773(5) 0.58451(5)
I4 I 1.09657(5) 0.14762(5) 0.67561(5)
I5 I 1.12767(5) 0.46436(5) 0.73437(4)
I6 I 0.90763(5) 0.29957(5) 0.84255(4)
I7 I 1.24400(6) 0.26531(5) 0.94533(5)
I8 I 1.27534(5) 0.57459(5) 0.96970(4)
I9 I 1.05561(4) 0.39693(4) 1.09304(4)
La1 La 0.46645(3) 0.11031(3) 0.25574(3)
O1 O 1.3536(4) 0.1843(4) 0.3505(4)
O2 O -0.4119(5) 0.1027(5) -0.0172(4)
O3 O 0.5430(5) 0.9486(4) 0.2414(4)
O4 O 0.6249(4) 0.1524(5) 0.2063(4)
O5 O 0.4496(5) 0.0750(5) 0.0971(4)
H1 H 0.40770 0.11400 0.07080
H2 H 0.42200 0.01910 0.08480
O6 O 0.3029(4) 0.0247(4) 0.2083(4)
O7 O 0.5759(5) 0.2201(5) 0.3620(4)
O8 O 0.4049(5) 0.2559(4) 0.1823(4)
O9 O 0.6235(5) 0.9171(5) 0.4749(4)
N1 N 0.6182(5) 0.8230(6) 0.4588(4)
N2 N 0.5851(5) 0.3168(5) 0.3792(4)
N3 N 0.5212(6) 0.8545(5) 0.2294(5)
N4 N 0.2061(5) 0.0323(5) 0.1723(4)
N5 N -0.3141(5) 0.0915(5) 0.0115(5)
N6 N 0.7218(5) 0.1648(5) 0.2392(4)
N7 N 1.2517(5) 0.1844(5) 0.3421(4)
N8 N 0.4221(5) 0.3512(5) 0.1806(4)
C1 C 0.5959(7) 0.7944(7) 0.2229(7)
H3 H 0.66170 0.82010 0.22680
C2 C 0.5808(8) 0.6959(7) 0.2104(7)
H4 H 0.63540 0.65580 0.20600
C3 C 0.4827(7) 0.6564(6) 0.2046(5)
C4 C 0.4068(7) 0.7225(7) 0.2117(7)
H5 H 0.33980 0.69980 0.20740
C5 C 0.4275(7) 0.8193(7) 0.2247(7)
H6 H 0.37490 0.86140 0.23040
C6 C 0.5002(6) 0.3681(7) 0.3798(5)
H7 H 0.43640 0.33720 0.36850
C7 C 0.5082(6) 0.4661(6) 0.3970(5)
H8 H 0.44920 0.50070 0.39930
C8 C 0.6010(6) 0.5153(6) 0.4111(5)
C9 C 0.6865(6) 0.4594(7) 0.4109(5)
H9 H 0.75100 0.48890 0.42190
C10 C 0.6768(6) 0.3599(7) 0.3945(5)
H10 H 0.73480 0.32310 0.39430
C11 C 0.5285(7) 0.7747(7) 0.4447(6)
H11 H 0.46890 0.80900 0.44530
C12 C 0.5223(7) 0.6768(7) 0.4294(6)
H12 H 0.45850 0.64570 0.42040
C13 C 0.6072(6) 0.6223(6) 0.4268(5)
C14 C 0.7006(7) 0.6740(7) 0.4413(6)
H13 H 0.76080 0.64060 0.44070
C15 C 0.7048(6) 0.7721(7) 0.4561(6)
H14 H 0.76760 0.80490 0.46440
C16 C 0.1388(6) -0.0338(6) 0.1855(6)
H15 H 0.16030 -0.08710 0.21720
C17 C 0.0365(6) -0.0245(6) 0.1526(5)
H16 H -0.01000 -0.07150 0.16310
C18 C 0.0012(6) 0.0537(5) 0.1041(5)
C19 C 0.0763(6) 0.1169(6) 0.0877(6)
H17 H 0.05750 0.16840 0.05310
C20 C 0.1772(7) 0.1065(6) 0.1205(6)
H18 H 0.22590 0.14980 0.10750
C21 C 0.3463(6) 0.4139(7) 0.1800(5)
H19 H 0.28000 0.38960 0.17610
C22 C 0.3628(7) 0.5117(6) 0.1850(5)
H20 H 0.30790 0.55270 0.18490
C23 C 0.4599(6) 0.5513(6) 0.1902(5)
C24 C 0.5383(7) 0.4856(6) 0.1866(6)
H21 H 0.60470 0.50850 0.18820
C25 C 0.5171(7) 0.3867(7) 0.1808(6)
H22 H 0.56950 0.34370 0.17700
C26 C 0.7776(6) 0.2302(7) 0.2056(6)
H23 H 0.74560 0.26920 0.16360
C27 C 0.8801(6) 0.2398(6) 0.2323(5)
H24 H 0.91720 0.28490 0.20780
C28 C 0.9310(6) 0.1832(6) 0.2961(5)
C29 C 0.8705(6) 0.1200(6) 0.3327(6)
H25 H 0.90050 0.08270 0.37670
C30 C 0.7661(6) 0.1121(6) 0.3043(6)
H26 H 0.72630 0.07070 0.33000
C31 C 1.2036(6) 0.2646(6) 0.3163(5)
H27 H 1.24110 0.31940 0.30650
C32 C 1.0984(6) 0.2674(6) 0.3037(5)
H28 H 1.06530 0.32410 0.28600
C33 C 1.0415(6) 0.1850(6) 0.3176(5)
C34 C 1.0960(6) 0.1055(7) 0.3494(6)
H29 H 1.06090 0.05060 0.36200
C35 C 1.2016(6) 0.1061(6) 0.3626(5)
H30 H 1.23730 0.05290 0.38540
C36 C -0.2430(7) 0.1493(7) -0.0121(6)
H31 H -0.26330 0.19880 -0.04860
C37 C -0.1418(7) 0.1367(7) 0.0164(5)
H32 H -0.09450 0.17720 -0.00210
C38 C -0.1067(6) 0.0656(6) 0.0721(5)
C39 C -0.1834(6) 0.0078(6) 0.0963(5)
H33 H -0.16530 -0.04170 0.13330
C40 C -0.2853(7) 0.0232(7) 0.0661(6)
H34 H -0.33480 -0.01480 0.08430
O10 O 0.4758(6) 0.0230(5) 0.3911(4)
H35 H 0.52940 -0.01150 0.39920
H36 H 0.42650 -0.01850 0.38650
Bi1A Bi 1.06162(2) 0.69088(2) 1.35315(2)
Bi2A Bi 0.89251(2) 0.56980(2) 1.08502(2)
I1A I 1.01304(5) 0.65078(5) 1.51534(4)
I2A I 1.21631(5) 0.52836(5) 1.36515(4)
I3A I 1.22808(5) 0.83227(5) 1.41549(5)
I4A I 0.90343(5) 0.85238(5) 1.32439(5)
I5A I 0.87233(5) 0.53564(5) 1.26563(4)
I6A I 1.09237(5) 0.70043(5) 1.15745(4)
I7A I 0.75600(6) 0.73469(5) 1.05467(5)
I8A I 0.72466(5) 0.42541(5) 1.03030(4)
I9A I 0.94439(4) 0.60307(4) 0.90696(4)
La1* La 0.46645(3) 1.11031(3) 0.25574(3)
La1** La 1.46645(3) 0.11031(3) 0.25574(3)
O1* O 0.3536(4) 0.1843(4) 0.3505(4)
O3* O 0.5430(5) -0.0514(4) 0.2414(4)
#END
