
#######################################################################
#
#                 Cambridge Crystallographic Data Centre
#                                CCDC
#
#######################################################################
#
# If this CIF has been generated from an entry in the Cambridge
# Structural Database, then it will include bibliographic, chemical,
# crystal, experimental, refinement or atomic coordinate data resulting
# from the CCDC's data processing and validation procedures.
#
#######################################################################

data_CSD_CIF_XOWNEF
_audit_creation_date 2019-09-27
_audit_creation_method CSD-ConQuest-V1
_database_code_CSD XOWNEF
_database_code_depnum_ccdc_archive 'CCDC 1877029'
_chemical_formula_sum 'C40 H36 Bi2 I9 La1 N8 O10'
_chemical_formula_moiety
;
(C40 H36 La1 N8 O10 3+)n,0.5(Bi4 I18 6-)
;
_journal_coden_Cambridge 9
_journal_volume 58
_journal_year 2019
_journal_page_first 13862
_journal_name_full 'Inorg.Chem. '
loop_
_publ_author_name
"Yan He"
"You-Ren Huang"
"Yan-Li Li"
"Hao-Hong Li"
"Zhi-Rong Chen"
"Rong Jiang"
_chemical_name_systematic
;
catena-[bis(\m-4,4'-bipyridine N,N'-dioxide)-bis(4,4'-bipyridine 
N,N'-dioxide)-diaqua-lanthanum(iii) 
hemikis(hexakis(\m-iodo)-dodecaiodo-tetra-bismuth(iii))]
;
_cell_volume   2905.336
_exptl_crystal_colour 'red'
_exptl_crystal_density_diffrn 2.844
_exptl_special_details
;
alpha polymorph

;
_exptl_crystal_description 'Bulk'
_diffrn_ambient_temperature 296.1
#These two values have been output from a single CSD field.
_refine_ls_R_factor_gt 0.025
_refine_ls_wR_factor_gt 0.025
_symmetry_cell_setting triclinic
_symmetry_space_group_name_H-M 'P -1'
_symmetry_Int_Tables_number 2
loop_
_symmetry_equiv_pos_site_id
_symmetry_equiv_pos_as_xyz
1 x,y,z
2 -x,-y,-z
_cell_length_a 13.2859(7)
_cell_length_b 13.7472(8)
_cell_length_c 16.1714(8)
_cell_angle_alpha 92.276(1)
_cell_angle_beta 100.040(1)
_cell_angle_gamma 90.881(1)
_cell_formula_units_Z 2
loop_
_atom_type_symbol
_atom_type_radius_bond
C 0.68
H 0.23
Bi 1.48
I 1.40
La 2.07
N 0.68
O 0.68
loop_
_atom_site_label
_atom_site_type_symbol
_atom_site_fract_x
_atom_site_fract_y
_atom_site_fract_z
Bi1 Bi 0.56208(2) 0.19007(2) 0.35326(2)
Bi2 Bi 0.39218(2) 0.07017(2) 0.08463(2)
I1 I 0.72906(3) 0.33135(3) 0.41594(3)
I2 I 0.40445(3) 0.35268(3) 0.32522(2)
I3 I 0.51340(3) 0.15016(3) 0.51689(2)
I4 I 0.71632(3) 0.02714(3) 0.36474(2)
I5 I 0.59389(3) 0.19896(3) 0.15711(2)
I6 I 0.37166(3) 0.03585(3) 0.26635(2)
I7 I 0.25654(3) 0.23577(3) 0.05493(3)
I8 I 0.22376(3) -0.07414(3) 0.02902(2)
I9 I 0.55494(3) -0.10352(2) 0.09386(2)
La1 La 0.03309(2) 0.39111(2) 0.74397(2)
O1 O -0.1250(3) -0.4168(3) 0.5254(2)
O2 O 0.8762(3) 0.3453(3) 0.7961(2)
O3 O 0.1456(2) 0.3166(3) 0.6487(2)
O4 O -0.0774(3) 0.2818(3) 0.6359(2)
O5 O 0.0271(3) 0.4822(3) 0.6111(2)
H1 H -0.03660 0.49470 0.58820
H2 H 0.04820 0.44530 0.57170
O6 O -0.0472(3) -0.4496(3) 0.7594(3)
O7 O 0.0529(3) 0.4262(3) 0.9027(2)
H3 H -0.00060 0.40270 0.92330
H4 H 0.05090 0.49010 0.91490
O8 O 0.1965(3) 0.4782(3) 0.7904(2)
O9 O 0.0963(3) 0.2447(3) 0.8168(2)
O10 O 0.9131(3) 0.3960(3) 1.0167(2)
N1 N 0.8148(3) 0.4078(3) 0.9865(3)
N2 N 0.2932(3) 0.4695(3) 0.8268(3)
N3 N 0.2468(3) 0.3165(3) 0.6585(2)
N4 N -0.0258(3) -0.3545(3) 0.7700(3)
N5 N 0.7786(3) 0.3339(3) 0.7627(3)
N6 N -0.0853(3) 0.1867(3) 0.6200(3)
N7 N -0.1192(3) -0.3224(3) 0.5416(3)
N8 N 0.0778(3) 0.1500(3) 0.8179(3)
C1 C 0.2969(4) 0.2350(4) 0.6843(3)
H5 H 0.26000 0.17970 0.69360
C2 C 0.4004(4) 0.2335(4) 0.6966(3)
H6 H 0.43380 0.17690 0.71400
C3 C 0.4575(4) 0.3159(4) 0.6835(3)
C4 C 0.4035(4) 0.3970(4) 0.6525(3)
H7 H 0.43870 0.45210 0.64020
C5 C 0.2990(4) 0.3956(4) 0.6402(3)
H8 H 0.26350 0.44960 0.61900
C6 C 0.5700(4) 0.3175(4) 0.7054(3)
C7 C 0.6188(4) 0.2594(4) 0.7688(3)
H9 H 0.58060 0.21470 0.79300
C8 C 0.6319(4) 0.3804(4) 0.6693(3)
H10 H 0.60260 0.41760 0.62490
C9 C 0.3216(4) 0.3946(4) 0.8777(3)
H11 H 0.27270 0.35070 0.88960
C10 C 0.4219(4) 0.3842(4) 0.9112(3)
H12 H 0.44040 0.33240 0.94560
C11 C 0.4983(4) 0.4491(4) 0.8957(3)
C12 C 0.4647(4) 0.5277(4) 0.8462(3)
H13 H 0.51150 0.57470 0.83600
C13 C 0.3629(4) 0.5357(4) 0.8127(3)
H14 H 0.34190 0.58800 0.77960
C14 C 0.6076(4) 0.4355(4) 0.9275(3)
C15 C 0.6842(4) 0.4907(4) 0.9006(3)
H15 H 0.66570 0.53820 0.86170
C16 C 0.7858(4) 0.4766(4) 0.9302(4)
H16 H 0.83510 0.51450 0.91140
C17 C 0.7433(4) 0.3503(4) 1.0123(3)
H17 H 0.76350 0.30180 1.04970
C18 C 0.6419(4) 0.3634(4) 0.9837(3)
H18 H 0.59410 0.32320 1.00200
C19 C -0.1021(4) -0.2924(4) 0.7734(4)
H19 H -0.16880 -0.31660 0.76730
C20 C 0.0698(4) -0.3192(4) 0.7764(4)
H20 H 0.12220 -0.36210 0.77180
C21 C -0.0181(4) 0.1159(4) 0.8172(4)
H21 H -0.07040 0.15950 0.81990
C22 C -0.0391(4) 0.0182(4) 0.8126(4)
H22 H -0.10560 -0.00370 0.81280
C23 C 0.0377(4) -0.0504(4) 0.8076(3)
C24 C 0.1368(4) -0.0105(4) 0.8135(3)
H23 H 0.19140 -0.05210 0.81370
C25 C 0.1548(4) 0.0873(4) 0.8188(3)
H24 H 0.22140 0.11130 0.82320
C26 C -0.0839(4) -0.1947(4) 0.7855(4)
H25 H -0.13830 -0.15340 0.78740
C27 C 0.0156(4) -0.1556(4) 0.7953(3)
C28 C 0.0925(4) -0.2224(4) 0.7893(4)
H26 H 0.15990 -0.20050 0.79430
C29 C -0.1791(4) 0.1417(4) 0.6048(3)
H27 H -0.23750 0.17810 0.60530
C30 C -0.1877(4) 0.0436(4) 0.5890(3)
H28 H -0.25240 0.01420 0.57820
C31 C -0.1019(4) -0.0145(4) 0.5884(3)
C32 C -0.0076(4) 0.0353(4) 0.6038(3)
H29 H 0.05170 0.00030 0.60360
C33 C 0.0001(4) 0.1345(4) 0.6194(3)
H30 H 0.06400 0.16570 0.62940
C34 C -0.2060(4) -0.2715(4) 0.5434(3)
H31 H -0.26880 -0.30450 0.53490
C35 C -0.2020(4) -0.1726(4) 0.5575(3)
H32 H -0.26240 -0.13920 0.55700
C36 C -0.1078(4) -0.1206(4) 0.5729(3)
C37 C -0.0220(4) -0.1762(4) 0.5722(3)
H33 H 0.04200 -0.14550 0.58270
C38 C -0.0281(4) -0.2751(4) 0.5565(3)
H34 H 0.03140 -0.30980 0.55610
C39 C 0.7226(4) 0.2680(4) 0.7957(3)
H35 H 0.75450 0.22800 0.83690
C40 C 0.7349(4) 0.3882(4) 0.6982(3)
H36 H 0.77500 0.43070 0.67370
Bi1A Bi 0.43792(2) -0.19007(2) -0.35326(2)
Bi2A Bi 0.60782(2) -0.07017(2) -0.08463(2)
I1A I 0.27094(3) -0.33135(3) -0.41594(3)
I2A I 0.59555(3) -0.35268(3) -0.32522(2)
I3A I 0.48660(3) -0.15016(3) -0.51689(2)
I4A I 0.28368(3) -0.02714(3) -0.36474(2)
I5A I 0.40611(3) -0.19896(3) -0.15711(2)
I6A I 0.62834(3) -0.03585(3) -0.26635(2)
I7A I 0.74346(3) -0.23577(3) -0.05493(3)
I8A I 0.77624(3) 0.07414(3) -0.02902(2)
I9A I 0.44506(3) 0.10352(2) -0.09386(2)
La1* La 0.03309(2) -0.60889(2) 0.74397(2)
La1** La 1.03309(2) 0.39111(2) 0.74397(2)
O2* O -0.1238(3) 0.3453(3) 0.7961(2)
O6* O -0.0472(3) 0.5504(3) 0.7594(3)
#END
