
#######################################################################
#
#                 Cambridge Crystallographic Data Centre
#                                CCDC
#
#######################################################################
#
# If this CIF has been generated from an entry in the Cambridge
# Structural Database, then it will include bibliographic, chemical,
# crystal, experimental, refinement or atomic coordinate data resulting
# from the CCDC's data processing and validation procedures.
#
#######################################################################

data_CSD_CIF_XOWQAE01
_audit_creation_date 2019-09-27
_audit_creation_method CSD-ConQuest-V1
_database_code_CSD XOWQAE01
_database_code_depnum_ccdc_archive 'CCDC 1909403'
_chemical_formula_sum 'C50 H54 I10 N10 O18 Pb3 Y2'
_chemical_formula_moiety
;
(C50 H44 N10 O12 Y2 6+)n,n(H2 I10 O2 Pb3 6-),4(H2 O1)
;
_journal_coden_Cambridge 9
_journal_volume 58
_journal_year 2019
_journal_page_first 13862
_journal_name_full 'Inorg.Chem. '
loop_
_publ_author_name
"Yan He"
"You-Ren Huang"
"Yan-Li Li"
"Hao-Hong Li"
"Zhi-Rong Chen"
"Rong Jiang"
_chemical_name_systematic
;
catena-[pentakis(\m-4,4'-bipyridine 
N,N'-dioxide)-bis(\m-aqua)-di-yttriym(iii) 
octakis(\m-iodo)-dihydroxy-diiodo-tri-lead(ii) tetrahydrate]
;
_cell_volume   1763.735
_exptl_crystal_colour 'red'
_exptl_crystal_density_diffrn 2.954
_exptl_special_details
;
beta polymorph

;
_exptl_crystal_description 'Block'
_diffrn_ambient_temperature 296
#These two values have been output from a single CSD field.
_refine_ls_R_factor_gt 0.0859
_refine_ls_wR_factor_gt 0.0859
_symmetry_cell_setting triclinic
_symmetry_space_group_name_H-M 'P -1'
_symmetry_Int_Tables_number 2
loop_
_symmetry_equiv_pos_site_id
_symmetry_equiv_pos_as_xyz
1 x,y,z
2 -x,-y,-z
_cell_length_a 11.8566(7)
_cell_length_b 12.2119(6)
_cell_length_c 13.1410(8)
_cell_angle_alpha 93.830(4)
_cell_angle_beta 108.532(5)
_cell_angle_gamma 99.657(4)
_cell_formula_units_Z 1
loop_
_atom_type_symbol
_atom_type_radius_bond
C 0.68
H 0.23
I 1.40
N 0.68
O 0.68
Pb 1.46
Y 1.90
loop_
_atom_site_label
_atom_site_type_symbol
_atom_site_fract_x
_atom_site_fract_y
_atom_site_fract_z
Pb1 Pb 0.50000 1.00000 0.50000
I1 I 0.56297(14) 0.77179(12) 0.40786(13)
I2 I 0.2844(4) 0.9769(4) 0.3145(3)
I3 I 0.33728(15) 0.88281(13) 0.63133(12)
O1 O 0.4600(17) 0.8179(17) 0.5352(17)
Pb2 Pb 0.82390(7) 0.94003(6) 0.52658(6)
I4 I 0.0906(3) 1.2274(2) 0.3441(2)
I5 I 0.05741(14) 1.13465(12) 0.64445(11)
Y1 Y 0.1623(2) 0.53008(13) 0.99227(13)
O2 O 0.1128(15) 0.4527(11) 0.8181(10)
O3 O 0.2402(14) 0.3668(10) 1.0297(11)
O4 O 0.1775(18) 0.7041(13) 0.9378(13)
O5 O 0.6384(17) 1.4480(12) 1.0120(13)
O6 O 0.2528(15) 0.6319(10) 0.1597(9)
O7 O -0.0339(12) 0.5686(11) 0.9251(12)
N1 N 0.1421(17) 0.4847(12) 0.7319(13)
N2 N 0.1701(16) 0.2659(11) 1.0219(12)
N3 N 0.239(2) 0.8128(13) 0.9577(14)
N4 N 0.559(2) 1.3515(16) 1.0045(15)
N5 N 0.2386(18) 0.6113(13) 0.2534(12)
C1 C 0.213(3) 0.4391(19) 0.6972(19)
H1 H 0.24910 0.38660 0.73710
C2 C 0.243(2) 0.4607(15) 0.6021(15)
H2 H 0.29240 0.42220 0.57790
C3 C 0.1923(17) 0.5415(14) 0.5504(13)
C4 C 0.120(2) 0.592(2) 0.5929(17)
H3 H 0.08650 0.64880 0.55780
C5 C 0.093(2) 0.5670(18) 0.6787(16)
H4 H 0.04270 0.60410 0.70300
C6 C 0.099(2) 0.2220(19) 0.9317(19)
H5 H 0.09450 0.26100 0.87260
C7 C 0.023(2) 0.1137(15) 0.9151(16)
H6 H -0.03320 0.08260 0.84780
C8 C 0.0387(19) 0.0574(14) 1.0064(16)
C9 C 0.118(2) 0.1076(18) 1.1006(18)
H7 H 0.13410 0.07070 1.16190
C10 C 0.176(3) 0.2180(16) 1.104(2)
H8 H 0.22230 0.25800 1.17180
C11 C 0.303(2) 0.8637(17) 1.0465(16)
H9 H 0.31800 0.82430 1.10600
C12 C 0.350(2) 0.9712(17) 1.0616(18)
H10 H 0.39440 1.00580 1.13160
C13 C 0.3375(17) 1.0331(13) 0.9780(13)
C14 C 0.2639(19) 0.9798(15) 0.8767(16)
H11 H 0.24870 1.01810 0.81640
C15 C 0.214(3) 0.8680(17) 0.8682(18)
H12 H 0.16380 0.82970 0.80140
C16 C 0.491(2) 1.2982(18) 0.905(2)
H13 H 0.49560 1.32830 0.84330
C17 C 0.416(2) 1.2026(16) 0.8981(18)
H14 H 0.36450 1.16950 0.82970
C18 C 0.4095(17) 1.1471(14) 0.9875(16)
C19 C 0.485(2) 1.205(2) 1.0861(17)
H15 H 0.48520 1.17370 1.14890
C20 C 0.556(2) 1.304(2) 1.0946(18)
H16 H 0.60490 1.34040 1.16260
C21 C 0.283(2) 0.5274(19) 0.3033(17)
H17 H 0.32280 0.48400 0.27040
C22 C 0.274(2) 0.5047(18) 0.3963(17)
H18 H 0.30760 0.44730 0.42920
C23 C 0.2118(19) 0.5674(14) 0.4469(13)
C24 C 0.171(2) 0.6561(17) 0.3969(14)
H19 H 0.13640 0.70420 0.42990
C25 C 0.183(2) 0.6726(16) 0.2972(16)
H20 H 0.15020 0.72890 0.26090
O8 O 0.520(3) 0.647(4) 0.666(4)
O9 O 0.583(3) 0.700(2) 0.675(3)
I1A I 0.43703(14) 1.22821(12) 0.59214(13)
O1A O 0.5400(17) 1.1821(17) 0.4648(17)
I2A I 0.7156(4) 1.0231(4) 0.6855(3)
I3A I 0.66272(15) 1.11719(13) 0.36867(12)
Pb2A Pb 0.17610(7) 1.05997(6) 0.47342(6)
I5A I -0.05741(14) 0.86535(12) 0.35555(11)
Pb2* Pb -0.17610(7) 0.94003(6) 0.52658(6)
I2A* I -0.2844(4) 1.0231(4) 0.6855(3)
I4A I -0.0906(3) 0.7726(2) 0.6559(2)
I3A* I -0.33728(15) 1.11719(13) 0.36867(12)
I1* I -0.43703(14) 0.77179(12) 0.40786(13)
Pb1* Pb -0.50000 1.00000 0.50000
O3A O -0.2402(14) -0.3668(10) 0.9703(11)
N2A N -0.1701(16) -0.2659(11) 0.9781(12)
C6A C -0.099(2) -0.2220(19) 1.0683(19)
H5A H -0.09450 -0.26100 1.12740
C7A C -0.023(2) -0.1137(15) 1.0849(16)
H6A H 0.03320 -0.08260 1.15220
C8A C -0.0387(19) -0.0574(14) 0.9936(16)
C9A C -0.118(2) -0.1076(18) 0.8994(18)
H7A H -0.13410 -0.07070 0.83810
C10A C -0.176(3) -0.2180(16) 0.896(2)
H8A H -0.22230 -0.25800 0.82820
Y1A Y -0.1623(2) -0.53008(13) 1.00773(13)
O2A O -0.1128(15) -0.4527(11) 1.1819(10)
O4A O -0.1775(18) -0.7041(13) 1.0622(13)
O5A O -0.6384(17) -1.4480(12) 0.9880(13)
O6A O -0.2528(15) -0.6319(10) 1.8403(9)
O7A O 0.0339(12) -0.5686(11) 1.0749(12)
N1A N -0.1421(17) -0.4847(12) 1.2681(13)
N3A N -0.239(2) -0.8128(13) 1.0423(14)
N4A N -0.559(2) -1.3515(16) 0.9955(15)
N5A N -0.2386(18) -0.6113(13) 1.7466(12)
C1A C -0.213(3) -0.4391(19) 1.3028(19)
H1A H -0.24910 -0.38660 1.26290
C2A C -0.243(2) -0.4607(15) 1.3979(15)
H2A H -0.29240 -0.42220 1.42210
C3A C -0.1923(17) -0.5415(14) 1.4496(13)
C4A C -0.120(2) -0.592(2) 1.4071(17)
H3A H -0.08650 -0.64880 1.44220
C5A C -0.093(2) -0.5670(18) 1.3213(16)
H4A H -0.04270 -0.60410 1.29700
C11A C -0.303(2) -0.8637(17) 0.9535(16)
H9A H -0.31800 -0.82430 0.89400
C12A C -0.350(2) -0.9712(17) 0.9384(18)
H10A H -0.39440 -1.00580 0.86840
C13A C -0.3375(17) -1.0331(13) 1.0220(13)
C14A C -0.2639(19) -0.9798(15) 1.1233(16)
H11A H -0.24870 -1.01810 1.18360
C15A C -0.214(3) -0.8680(17) 1.1318(18)
H12A H -0.16380 -0.82970 1.19860
C16A C -0.491(2) -1.2982(18) 1.095(2)
H13A H -0.49560 -1.32830 1.15670
C17A C -0.416(2) -1.2026(16) 1.1019(18)
H14A H -0.36450 -1.16950 1.17030
C18A C -0.4095(17) -1.1471(14) 1.0125(16)
C19A C -0.485(2) -1.205(2) 0.9139(17)
H15A H -0.48520 -1.17370 0.85110
C20A C -0.556(2) -1.304(2) 0.9054(18)
H16A H -0.60490 -1.34040 0.83740
C21A C -0.283(2) -0.5274(19) 1.6967(17)
H17A H -0.32280 -0.48400 1.72960
C22A C -0.274(2) -0.5047(18) 1.6037(17)
H18A H -0.30760 -0.44730 1.57080
C23A C -0.2118(19) -0.5674(14) 1.5531(13)
C24A C -0.171(2) -0.6561(17) 1.6031(14)
H19A H -0.13640 -0.70420 1.57010
C25A C -0.183(2) -0.6726(16) 1.7028(16)
H20A H -0.15020 -0.72890 1.73910
Y1* Y -0.8377(2) -1.46992(13) 0.99227(13)
Y1** Y 0.1623(2) -0.46992(13) 0.99227(13)
Y1*** Y 0.1623(2) 0.53008(13) -0.00773(13)
Y1A* Y -0.1623(2) -0.53008(13) 2.00773(13)
Y1A** Y -0.1623(2) 0.46992(13) 1.00773(13)
Y1A*** Y 0.8377(2) 1.46992(13) 1.00773(13)
O5* O -0.3616(17) -0.5520(12) 1.0120(13)
O5A* O 0.3616(17) 0.5520(12) 0.9880(13)
O6* O 0.2528(15) 0.6319(10) 1.1597(9)
O6A* O -0.2528(15) -0.6319(10) 0.8403(9)
O7* O -0.0339(12) -0.4314(11) 0.9251(12)
O7A* O 0.0339(12) 0.4314(11) 1.0749(12)
#END
