
#######################################################################
#
#                 Cambridge Crystallographic Data Centre
#                                CCDC
#
#######################################################################
#
# If this CIF has been generated from an entry in the Cambridge
# Structural Database, then it will include bibliographic, chemical,
# crystal, experimental, refinement or atomic coordinate data resulting
# from the CCDC's data processing and validation procedures.
#
#######################################################################

data_CSD_CIF_XOWQAE
_audit_creation_date 2019-09-27
_audit_creation_method CSD-ConQuest-V1
_database_code_CSD XOWQAE
_database_code_depnum_ccdc_archive 'CCDC 1909402'
_chemical_formula_sum 'C50 H54 I10 N10 O18 Pb3 Y2'
_chemical_formula_moiety
;
(C50 H44 N10 O12 Y2 6+)n,n(H2 I10 O2 Pb3 6-),4(H2 O1)
;
_journal_coden_Cambridge 9
_journal_volume 58
_journal_year 2019
_journal_page_first 13862
_journal_name_full 'Inorg.Chem. '
loop_
_publ_author_name
"Yan He"
"You-Ren Huang"
"Yan-Li Li"
"Hao-Hong Li"
"Zhi-Rong Chen"
"Rong Jiang"
_chemical_name_systematic
;
catena-[pentakis(\m-4,4'-bipyridine 
N,N'-dioxide)-bis(\m-aqua)-di-yttriym(iii) 
octakis(\m-iodo)-dihydroxy-diiodo-tri-lead(ii) tetrahydrate]
;
_cell_volume   1769.271
_exptl_crystal_colour 'yellow'
_exptl_crystal_density_diffrn 2.944
_exptl_special_details
;
alpha polymorph

;
_exptl_crystal_description 'Block'
_diffrn_ambient_temperature 296
#These two values have been output from a single CSD field.
_refine_ls_R_factor_gt 0.0788
_refine_ls_wR_factor_gt 0.0788
_symmetry_cell_setting triclinic
_symmetry_space_group_name_H-M 'P -1'
_symmetry_Int_Tables_number 2
loop_
_symmetry_equiv_pos_site_id
_symmetry_equiv_pos_as_xyz
1 x,y,z
2 -x,-y,-z
_cell_length_a 11.8506(10)
_cell_length_b 12.1942(10)
_cell_length_c 13.1649(11)
_cell_angle_alpha 94.370(1)
_cell_angle_beta 108.060(1)
_cell_angle_gamma 99.211(1)
_cell_formula_units_Z 1
loop_
_atom_type_symbol
_atom_type_radius_bond
C 0.68
H 0.23
I 1.40
N 0.68
O 0.68
Pb 1.46
Y 1.90
loop_
_atom_site_label
_atom_site_type_symbol
_atom_site_fract_x
_atom_site_fract_y
_atom_site_fract_z
Pb1 Pb 0.50000 1.00000 0.00000
I1 I 0.33834(14) 0.88757(13) 0.13340(11)
I2 I 0.56262(13) 0.76777(11) -0.09037(12)
I3 I 0.7147(4) 1.0180(4) 0.1831(3)
O1 O 0.459(2) 0.815(2) 0.0367(18)
Pb2 Pb 0.17403(6) 1.05973(6) -0.02607(5)
I4 I 0.05369(15) 1.13082(13) 0.14395(12)
I5 I 0.0807(3) 1.2182(3) -0.1557(2)
Y1 Y -0.16667(17) 1.47014(12) -0.49138(11)
O2 O -0.2502(14) 1.3654(10) -0.6569(9)
O3 O -0.2416(12) 1.6339(9) -0.5269(12)
O4 O -0.1115(18) 1.5460(13) -1.3164(10)
O5 O -0.182(2) 1.2966(18) -0.4363(17)
O6 O -0.6359(17) 0.5529(15) -0.5122(14)
O7 O 0.0337(12) 1.4165(10) -0.4095(10)
N1 N -0.2351(14) 1.3874(11) -0.7491(10)
N2 N -0.1709(14) 1.7336(11) -0.5172(12)
N3 N -0.1396(16) 1.5161(13) -1.2288(11)
N4 N -0.236(2) 1.1882(12) -0.4541(13)
N5 N -0.5577(16) 0.6464(15) -0.5028(14)
C1 C -0.1845(19) 1.3203(14) -0.8009(14)
H1 H -0.15880 1.25860 -0.77020
C2 C -0.1704(19) 1.3400(15) -0.8952(13)
H2 H -0.13930 1.28980 -0.93070
C3 C -0.2014(15) 1.4344(13) -0.9408(11)
C4 C -0.253(2) 1.5018(17) -0.8875(18)
H3 H -0.28080 1.56270 -0.91790
C5 C -0.263(2) 1.4799(17) -0.7883(16)
H4 H -0.28890 1.53090 -0.74900
C6 C -0.183(2) 1.7848(15) -0.6052(17)
H5 H -0.23750 1.74920 -0.67100
C7 C -0.115(2) 1.8887(15) -0.6005(16)
H6 H -0.12320 1.92200 -0.66300
C8 C -0.0380(15) 1.9419(12) -0.5062(13)
C9 C -0.023(2) 1.8878(14) -0.4134(14)
H7 H 0.03340 1.92140 -0.34730
C10 C -0.094(2) 1.7823(16) -0.4237(16)
H8 H -0.08600 1.74560 -0.36320
C11 C -0.201(3) 1.5739(18) -1.1846(16)
H9 H -0.22910 1.63400 -1.21650
C12 C -0.223(2) 1.5481(18) -1.0932(14)
H10 H -0.26810 1.58950 -1.06400
C13 C -0.1799(16) 1.4606(13) -1.0438(13)
C14 C -0.1207(17) 1.4012(16) -1.0937(14)
H11 H -0.09390 1.33940 -1.06430
C15 C -0.0987(18) 1.4277(16) -1.1840(14)
H12 H -0.05600 1.38590 -1.21520
C16 C -0.301(2) 1.1373(16) -0.5503(14)
H13 H -0.31300 1.17590 -0.60980
C17 C -0.3520(19) 1.0243(14) -0.5622(14)
H14 H -0.39700 0.98820 -0.63100
C18 C -0.3391(13) 0.9643(12) -0.4784(11)
C19 C -0.2629(18) 1.0197(16) -0.3775(16)
H15 H -0.24750 0.98170 -0.31750
C20 C -0.210(2) 1.1322(15) -0.3679(15)
H16 H -0.15730 1.16890 -0.30180
C21 C -0.491(2) 0.6980(17) -0.408(2)
H17 H -0.49400 0.66630 -0.34700
C22 C -0.4136(19) 0.7998(16) -0.3975(15)
H18 H -0.36320 0.83380 -0.32940
C23 C -0.477(2) 0.793(2) -0.5847(18)
H19 H -0.47420 0.82090 -0.64770
C24 C -0.552(3) 0.686(2) -0.592(2)
H20 H -0.59580 0.64540 -0.65880
C25 C -0.4109(16) 0.8526(12) -0.4893(14)
O8 O -0.4043(19) 1.6936(17) -0.8152(16)
O9 O -0.497(3) 1.633(3) -0.842(3)
I2A I 0.43738(13) 1.23223(11) 0.09037(12)
I3A I 0.2853(4) 0.9820(4) -0.1831(3)
O1A O 0.541(2) 1.185(2) -0.0367(18)
I1A I 0.66166(14) 1.11243(13) -0.13340(11)
Pb2A Pb 0.82597(6) 0.94027(6) 0.02607(5)
I4A I -0.05369(15) 0.86918(13) -0.14395(12)
Pb2A* Pb -0.17403(6) 0.94027(6) 0.02607(5)
I1A* I -0.33834(14) 1.11243(13) -0.13340(11)
I5A I -0.0807(3) 0.7818(3) 0.1557(2)
I2* I -0.43738(13) 0.76777(11) -0.09037(12)
I3* I -0.2853(4) 1.0180(4) 0.1831(3)
Pb1* Pb -0.50000 1.00000 0.00000
O3A O 0.2416(12) 2.3661(9) -0.4731(12)
N2A N 0.1709(14) 2.2664(11) -0.4828(12)
C6A C 0.183(2) 2.2152(15) -0.3948(17)
H5A H 0.23750 2.25080 -0.32900
C7A C 0.115(2) 2.1113(15) -0.3995(16)
H6A H 0.12320 2.07800 -0.33700
C8A C 0.0380(15) 2.0581(12) -0.4938(13)
C9A C 0.023(2) 2.1122(14) -0.5866(14)
H7A H -0.03340 2.07860 -0.65270
C10A C 0.094(2) 2.2177(16) -0.5763(16)
H8A H 0.08600 2.25440 -0.63680
Y1A Y -0.83333(17) 0.52986(12) -0.50862(11)
O2A O -0.7498(14) 0.6346(10) -0.3431(9)
O4A O -0.8885(18) 0.4540(13) 0.3164(10)
O5A O -0.818(2) 0.7034(18) -0.5637(17)
O6A O -0.3641(17) 1.4471(15) -0.4878(14)
O7A O -1.0337(12) 0.5835(10) -0.5905(10)
N1A N -0.7649(14) 0.6126(11) -0.2509(10)
N3A N -0.8604(16) 0.4839(13) 0.2288(11)
N4A N -0.764(2) 0.8118(12) -0.5459(13)
N5A N -0.4423(16) 1.3536(15) -0.4972(14)
C1A C -0.8155(19) 0.6797(14) -0.1991(14)
H1A H -0.84120 0.74140 -0.22980
C2A C -0.8296(19) 0.6600(15) -0.1048(13)
H2A H -0.86070 0.71020 -0.06930
C3A C -0.7986(15) 0.5656(13) -0.0592(11)
C4A C -0.747(2) 0.4982(17) -0.1125(18)
H3A H -0.71920 0.43730 -0.08210
C5A C -0.737(2) 0.5201(17) -0.2117(16)
H4A H -0.71110 0.46910 -0.25100
C11A C -0.799(3) 0.4261(18) 0.1846(16)
H9A H -0.77090 0.36600 0.21650
C12A C -0.777(2) 0.4519(18) 0.0932(14)
H10A H -0.73190 0.41050 0.06400
C13A C -0.8201(16) 0.5394(13) 0.0438(13)
C14A C -0.8793(17) 0.5988(16) 0.0937(14)
H11A H -0.90610 0.66060 0.06430
C15A C -0.9013(18) 0.5723(16) 0.1840(14)
H12A H -0.94400 0.61410 0.21520
C16A C -0.699(2) 0.8627(16) -0.4497(14)
H13A H -0.68700 0.82410 -0.39020
C17A C -0.6480(19) 0.9757(14) -0.4378(14)
H14A H -0.60300 1.01180 -0.36900
C18A C -0.6609(13) 1.0357(12) -0.5216(11)
C19A C -0.7371(18) 0.9803(16) -0.6225(16)
H15A H -0.75250 1.01830 -0.68250
C20A C -0.790(2) 0.8678(15) -0.6321(15)
H16A H -0.84270 0.83110 -0.69820
C21A C -0.509(2) 1.3020(17) -0.592(2)
H17A H -0.50600 1.33370 -0.65300
C22A C -0.5864(19) 1.2002(16) -0.6025(15)
H18A H -0.63680 1.16620 -0.67060
C23A C -0.523(2) 1.207(2) -0.4153(18)
H19A H -0.52580 1.17910 -0.35230
C24A C -0.448(3) 1.314(2) -0.408(2)
H20A H -0.40420 1.35460 -0.34120
C25A C -0.5891(16) 1.1474(12) -0.5107(14)
Y1* Y -1.16667(17) 0.47014(12) -0.49138(11)
Y1** Y -0.16667(17) 1.47014(12) -1.49138(11)
Y1A* Y -0.83333(17) 0.52986(12) 0.49138(11)
Y1A** Y 0.16667(17) 1.52986(12) -0.50862(11)
Y1A*** Y 0.16667(17) 2.52986(12) -0.50862(11)
O3A* O -0.7584(12) 0.3661(9) -0.4731(12)
O4* O -0.1115(18) 1.5460(13) -0.3164(10)
O4A* O -0.8885(18) 0.4540(13) -0.6836(10)
O7* O -0.9663(12) 0.4165(10) -0.4095(10)
O7A* O -0.0337(12) 1.5835(10) -0.5905(10)
#END
