
#######################################################################
#
#                 Cambridge Crystallographic Data Centre
#                                CCDC
#
#######################################################################
#
# If this CIF has been generated from an entry in the Cambridge
# Structural Database, then it will include bibliographic, chemical,
# crystal, experimental, refinement or atomic coordinate data resulting
# from the CCDC's data processing and validation procedures.
#
#######################################################################

data_CSD_CIF_XOXGID
_audit_creation_date 2019-09-28
_audit_creation_method CSD-ConQuest-V1
_database_code_CSD XOXGID
_database_code_depnum_ccdc_archive 'CCDC 1944967'
_chemical_formula_sum 'C170 H192 N6 Ni2 O108 U12'
_chemical_formula_moiety
;
(C60 H48 O32 U4 4-)2n,C50 H48 O32 U4 2-,2(H12 Ni1 O6 2+),6(H4 N1 1+)
;
_journal_coden_Cambridge 1147
_journal_volume 19
_journal_year 2019
_journal_page_first 6611
_journal_name_full 'Cryst.Growth Des. '
loop_
_publ_author_name
"P.Thuery"
"Y.Atoini"
"J.Harrowfield"
_chemical_name_systematic
;
catena-[hexa-ammonium bis(hexaaqua-nickel) 
pentakis(\m-2,2'-(1,2-phenylene)diacetato)-tetraaqua-octaoxo-tetra-uranium 
bis(hexakis(\m-2,2'-(1,2-phenylene)diacetato)-octaoxo-tetra-uranium)]
;
_cell_volume  25652.851
_exptl_crystal_colour 'light yellow'
_exptl_crystal_density_diffrn 1.818
_exptl_crystal_description 'parallelepiped'
_diffrn_ambient_temperature 100
#These two values have been output from a single CSD field.
_refine_ls_R_factor_gt 0.0529
_refine_ls_wR_factor_gt 0.0529
_symmetry_cell_setting monoclinic
_symmetry_space_group_name_H-M 'C 2/c'
_symmetry_Int_Tables_number 15
loop_
_symmetry_equiv_pos_site_id
_symmetry_equiv_pos_as_xyz
1 x,y,z
2 -x,y,1/2-z
3 1/2+x,1/2+y,z
4 1/2-x,1/2+y,1/2-z
5 -x,-y,-z
6 x,-y,-1/2+z
7 -1/2-x,-1/2-y,-z
8 -1/2+x,-1/2-y,-1/2+z
_cell_length_a 41.6421(13)
_cell_length_b 21.9873(4)
_cell_length_c 28.0451(9)
_cell_angle_alpha 90
_cell_angle_beta 92.537(2)
_cell_angle_gamma 90
_cell_formula_units_Z 4
loop_
_atom_type_symbol
_atom_type_radius_bond
C 0.68
H 0.23
N 0.68
Ni 1.24
O 0.68
U 1.96
loop_
_atom_site_label
_atom_site_type_symbol
_atom_site_fract_x
_atom_site_fract_y
_atom_site_fract_z
U1 U 0.24679(2) 0.44193(2) 0.44436(2)
U2 U 0.33394(2) 0.37387(2) 0.58304(2)
U3 U 0.41837(2) 0.04077(2) 0.47874(2)
U4 U 0.34522(2) -0.07774(2) 0.34721(2)
O1 O 0.27275(16) 0.3813(3) 0.4596(2)
O2 O 0.21917(15) 0.5001(3) 0.4267(2)
O3 O 0.33203(17) 0.4059(3) 0.5253(2)
O4 O 0.33683(17) 0.3415(3) 0.6405(3)
O5 O 0.38074(17) 0.0397(4) 0.4479(3)
O6 O 0.45539(18) 0.0450(4) 0.5114(3)
O7 O 0.37058(16) -0.0138(3) 0.3526(2)
O8 O 0.32003(15) -0.1414(3) 0.3379(2)
O9 O 0.20150(17) 0.3726(3) 0.4500(2)
O10 O 0.21777(17) 0.4164(3) 0.5172(2)
O11 O 0.29939(17) 0.2884(3) 0.5566(2)
O12 O 0.27553(16) 0.3644(3) 0.5868(2)
O13 O 0.26273(15) 0.5032(3) 0.51449(19)
O14 O 0.29166(14) 0.5148(3) 0.45239(19)
O15 O 0.30871(15) 0.4680(3) 0.6089(2)
O16 O 0.36229(18) 0.4683(3) 0.6101(3)
O17 O 0.27263(16) 0.4575(3) 0.3670(2)
O18 O 0.2335(2) 0.3910(4) 0.3670(2)
O19 O 0.16927(16) 0.4516(3) 0.2375(2)
O20 O 0.20024(15) 0.4862(3) 0.1828(2)
O21 O 0.39345(17) 0.3666(3) 0.5791(3)
O22 O 0.36565(18) 0.2883(3) 0.5546(2)
O23 O 0.42794(19) 0.1410(4) 0.4404(3)
O24 O 0.40195(19) 0.1426(4) 0.5070(3)
O25 O 0.3899(2) 0.0355(4) 0.5549(3)
O26 O 0.39871(18) -0.0510(3) 0.5188(2)
O27 O 0.31317(16) -0.0400(3) 0.4122(2)
O28 O 0.35028(15) -0.1057(3) 0.4319(2)
O29 O 0.43557(19) -0.0525(4) 0.4401(3)
O30 O 0.44569(19) 0.0303(4) 0.4024(3)
O31 O 0.39160(16) -0.1427(3) 0.3689(2)
O32 O 0.38565(15) -0.1208(3) 0.2939(2)
C1 C 0.1876(3) 0.3314(5) 0.5749(3)
C2 C 0.2166(3) 0.3041(5) 0.5942(4)
C3 C 0.2205(3) 0.3018(6) 0.6437(4)
H1 H 0.23950 0.28270 0.65660
C4 C 0.2003(5) 0.3237(8) 0.6745(5)
H2 H 0.20400 0.32000 0.70800
C5 C 0.1735(5) 0.352(1) 0.6546(5)
H3 H 0.15870 0.37030 0.67510
C6 C 0.1675(3) 0.3547(7) 0.6072(5)
H4 H 0.14820 0.37390 0.59560
C7 C 0.1796(3) 0.3329(5) 0.5221(4)
H5 H 0.18210 0.29150 0.50900
H6 H 0.15670 0.34470 0.51680
C8 C 0.2000(2) 0.3760(5) 0.4953(4)
C9 C 0.2431(2) 0.2789(5) 0.5643(4)
H7 H 0.24690 0.23590 0.57340
H8 H 0.23540 0.27940 0.53040
C10 C 0.2742(2) 0.3120(5) 0.5686(4)
C11 C 0.2911(2) 0.6022(4) 0.5639(3)
C12 C 0.3054(3) 0.5963(5) 0.6106(3)
C13 C 0.2879(3) 0.6191(5) 0.6477(4)
H9 H 0.29660 0.61410 0.67940
C14 C 0.2587(3) 0.6488(6) 0.6416(3)
H10 H 0.24770 0.66360 0.66820
C15 C 0.2459(2) 0.6564(4) 0.5953(4)
H11 H 0.22630 0.67760 0.58950
C16 C 0.2623(3) 0.6326(4) 0.5577(3)
H12 H 0.25330 0.63760 0.52630
C17 C 0.3069(2) 0.5738(4) 0.5208(3)
H13 H 0.31250 0.60660 0.49850
H14 H 0.32710 0.55350 0.53190
C18 C 0.2857(2) 0.5283(4) 0.4945(3)
C19 C 0.3362(3) 0.5652(4) 0.6207(3)
H15 H 0.34350 0.57330 0.65410
H16 H 0.35250 0.58210 0.59970
C20 C 0.3341(3) 0.4960(5) 0.6130(3)
C21 C 0.2711(3) 0.4664(7) 0.2669(3)
C22 C 0.2502(3) 0.5130(7) 0.2527(4)
C23 C 0.2621(4) 0.5617(7) 0.2260(4)
H17 H 0.24790 0.59220 0.21350
C24 C 0.2954(5) 0.5647(10) 0.2182(5)
H18 H 0.30380 0.59810 0.20120
C25 C 0.3149(4) 0.5209(11) 0.2346(5)
H19 H 0.33730 0.52480 0.22990
C26 C 0.3045(3) 0.4718(8) 0.2573(4)
H20 H 0.31920 0.44060 0.26700
C27 C 0.2582(3) 0.4117(7) 0.2909(4)
H21 H 0.27240 0.37670 0.28510
H22 H 0.23670 0.40210 0.27630
C28 C 0.2552(3) 0.4200(6) 0.3457(4)
C29 C 0.2152(3) 0.5144(6) 0.2637(3)
H23 H 0.20800 0.55730 0.26530
H24 H 0.21240 0.49570 0.29540
C30 C 0.1941(3) 0.4809(5) 0.2265(4)
C31 C 0.4383(2) 0.3014(5) 0.5087(4)
C32 C 0.4272(3) 0.2780(6) 0.4637(4)
C33 C 0.4403(3) 0.3009(7) 0.4238(5)
H25 H 0.43220 0.28670 0.39360
C34 C 0.4637(4) 0.3418(8) 0.4248(6)
H26 H 0.47230 0.35520 0.39590
C35 C 0.4757(3) 0.3651(7) 0.4682(9)
H27 H 0.49200 0.39540 0.46840
C36 C 0.4638(3) 0.3441(5) 0.5129(5)
H28 H 0.47240 0.35780 0.54290
C37 C 0.4237(2) 0.2801(5) 0.5549(4)
H29 H 0.41960 0.23580 0.55300
H30 H 0.43920 0.28760 0.58200
C38 C 0.3925(3) 0.3132(5) 0.5635(4)
C39 C 0.4003(3) 0.2332(5) 0.4597(4)
H31 H 0.39010 0.23570 0.42720
H32 H 0.38390 0.24470 0.48260
C40 C 0.4105(3) 0.1679(6) 0.4694(5)
C41 C 0.3496(3) -0.1149(6) 0.5656(3)
C42 C 0.3288(2) -0.1231(6) 0.5250(3)
C43 C 0.3197(3) -0.1808(5) 0.5125(4)
H33 H 0.30550 -0.18670 0.48540
C44 C 0.3307(3) -0.2313(6) 0.5385(4)
H34 H 0.32350 -0.27050 0.52870
C45 C 0.3508(3) -0.2271(7) 0.5764(5)
H35 H 0.35880 -0.26210 0.59290
C46 C 0.3595(3) -0.1685(9) 0.5908(4)
H36 H 0.37280 -0.16410 0.61890
C47 C 0.3616(3) -0.0524(7) 0.5833(4)
H37 H 0.34290 -0.02550 0.58730
H38 H 0.37280 -0.05730 0.61500
C48 C 0.3839(3) -0.0225(6) 0.5506(4)
C49 C 0.3177(3) -0.0701(5) 0.4942(4)
H39 H 0.29390 -0.06820 0.49380
H40 H 0.32600 -0.03200 0.50910
C50 C 0.3280(2) -0.0724(5) 0.4438(3)
C51 C 0.4720(2) -0.1284(5) 0.3839(4)
C52 C 0.4566(2) -0.1787(5) 0.3621(3)
C53 C 0.4636(3) -0.2353(6) 0.3801(4)
H41 H 0.45320 -0.26990 0.36630
C54 C 0.4862(3) -0.2433(6) 0.4193(5)
H42 H 0.49060 -0.28250 0.43220
C55 C 0.5012(3) -0.1932(8) 0.4376(4)
H43 H 0.51700 -0.19740 0.46280
C56 C 0.4940(3) -0.1373(6) 0.4202(5)
H44 H 0.50470 -0.10300 0.43410
C57 C 0.4636(3) -0.0627(5) 0.3665(4)
H45 H 0.48360 -0.04160 0.35810
H46 H 0.44930 -0.06490 0.33740
C58 C 0.4473(3) -0.0265(6) 0.4042(4)
C59 C 0.4341(2) -0.1731(5) 0.3190(3)
H47 H 0.43040 -0.21430 0.30550
H48 H 0.44490 -0.14870 0.29470
C60 C 0.4019(2) -0.1447(5) 0.3274(3)
U5 U 0.40112(2) 0.37596(2) 0.78017(2)
U6 U 0.40116(2) 0.36943(2) 0.97624(2)
O33 O 0.4103(2) 0.3319(4) 0.8311(3)
O34 O 0.39177(17) 0.4194(4) 0.7278(3)
O35 O 0.43106(19) 0.3743(4) 0.9334(2)
O36 O 0.37339(18) 0.3659(4) 1.0216(3)
O37 O 0.43718(19) 0.4575(4) 0.8132(3)
O38 O 0.38606(18) 0.4648(4) 0.8261(3)
O39 O 0.41500(19) 0.4747(4) 0.9995(3)
O40 O 0.3787(2) 0.4643(4) 0.9426(3)
O41 O 0.34469(17) 0.3716(3) 0.8028(3)
O42 O 0.35960(19) 0.2973(4) 0.7587(2)
O43 O 0.35570(17) 0.3578(3) 0.9193(3)
O44 O 0.38020(17) 0.2744(3) 0.9410(2)
O45 O 0.42422(18) 0.2941(4) 0.7316(2)
O46 O 0.4562(2) 0.3682(4) 0.7534(4)
O47 O 0.42803(18) 0.2791(4) 1.0141(3)
O48 O 0.44202(18) 0.3587(6) 1.0432(3)
C61 C 0.3920(3) 0.5821(6) 0.8687(4)
C62 C 0.3804(3) 0.5903(5) 0.9140(4)
C63 C 0.3527(3) 0.6273(6) 0.9183(4)
H49 H 0.34410 0.63290 0.94880
C64 C 0.3382(4) 0.6551(7) 0.8796(5)
H50 H 0.31920 0.67840 0.88260
C65 C 0.3520(4) 0.6486(8) 0.8353(5)
H51 H 0.34390 0.67100 0.80840
C66 C 0.3781(3) 0.6085(7) 0.8310(5)
H52 H 0.38570 0.60030 0.80030
C67 C 0.4219(3) 0.5409(6) 0.8626(5)
H53 H 0.43890 0.56520 0.84780
H54 H 0.43040 0.52800 0.89460
C68 C 0.4152(3) 0.4852(6) 0.8326(5)
C69 C 0.3966(3) 0.5662(5) 0.9579(4)
H55 H 0.38660 0.58580 0.98530
H56 H 0.41920 0.58010 0.95820
C70 C 0.3972(3) 0.4973(6) 0.9674(4)
C71 C 0.2891(3) 0.3092(5) 0.8333(3)
C72 C 0.3016(3) 0.2962(4) 0.8804(4)
C73 C 0.2834(3) 0.3144(5) 0.9176(4)
H57 H 0.29070 0.30500 0.94940
C74 C 0.2543(3) 0.3465(6) 0.9103(4)
H58 H 0.24240 0.35930 0.93670
C75 C 0.2438(3) 0.3585(7) 0.8662(5)
H59 H 0.22370 0.37870 0.86110
C76 C 0.2611(3) 0.3425(6) 0.8275(4)
H60 H 0.25370 0.35450 0.79640
C77 C 0.3079(3) 0.2895(5) 0.7909(4)
H61 H 0.31200 0.24520 0.79380
H62 H 0.29420 0.29580 0.76160
C78 C 0.3390(3) 0.3204(6) 0.7846(3)
C79 C 0.3330(3) 0.2650(5) 0.8898(4)
H63 H 0.34200 0.25440 0.85880
H64 H 0.32900 0.22640 0.90670
C80 C 0.3577(3) 0.3008(5) 0.9186(3)
C81 C 0.4909(2) 0.2305(5) 0.7299(3)
C82 C 0.4806(3) 0.1747(6) 0.7097(5)
H65 H 0.46680 0.17440 0.68190
C83 C 0.4906(3) 0.1209(5) 0.7302(4)
H66 H 0.48410 0.08340 0.71600
C84 C 0.4798(3) 0.2899(5) 0.7056(4)
H67 H 0.49750 0.31990 0.70730
H68 H 0.47400 0.28200 0.67150
C85 C 0.4504(3) 0.3158(6) 0.7302(4)
Ni1 Ni 0.36383(5) 0.16177(8) 0.65883(5)
O49 O 0.3810(4) 0.1411(7) 0.5990(4)
O50 O 0.3383(3) 0.0815(5) 0.6605(4)
O51 O 0.3404(2) 0.1837(5) 0.7172(4)
O52 O 0.38559(19) 0.2461(3) 0.6611(3)
O53 O 0.3258(4) 0.1981(6) 0.6185(5)
O54 O 0.4007(2) 0.1296(4) 0.7023(3)
N1 N 0.2405(2) 0.4719(4) 0.6076(3)
H69 H 0.24210 0.43200 0.60800
H70 H 0.26130 0.48310 0.61650
H71 H 0.23210 0.47380 0.63740
H72 H 0.22600 0.49440 0.58940
N2 N 0.3253(2) 0.5392(4) 0.3710(3)
H73 H 0.32000 0.54560 0.40140
H74 H 0.34620 0.53260 0.37270
H75 H 0.32150 0.57730 0.35620
H76 H 0.31340 0.51210 0.35100
N3 N 0.40915(19) -0.1648(4) 0.4707(3)
H77 H 0.40040 -0.13860 0.49100
H78 H 0.41760 -0.14330 0.45070
H79 H 0.42300 -0.18750 0.48920
H80 H 0.39490 -0.18610 0.45320
U4C U 0.15478(2) 0.42226(2) 0.15279(2)
O19C O 0.33073(16) -0.0484(3) 0.2625(2)
O20C O 0.29976(15) -0.0138(3) 0.3172(2)
O45A O 0.57578(18) 0.2941(4) 0.7684(2)
O46A O 0.5438(2) 0.3682(4) 0.7466(4)
C81A C 0.5091(2) 0.2305(5) 0.7701(3)
C82A C 0.5194(3) 0.1747(6) 0.7903(5)
H65A H 0.53320 0.17440 0.81810
C83A C 0.5094(3) 0.1209(5) 0.7698(4)
H66A H 0.51590 0.08340 0.78400
C84A C 0.5202(3) 0.2899(5) 0.7944(4)
H67A H 0.50250 0.31990 0.79270
H68A H 0.52600 0.28200 0.82850
C85A C 0.5496(3) 0.3158(6) 0.7698(4)
U5A U 0.59888(2) 0.37596(2) 0.71983(2)
U6A U 0.59884(2) 0.36943(2) 0.52376(2)
O33A O 0.5897(2) 0.3319(4) 0.6689(3)
O34A O 0.60823(17) 0.4194(4) 0.7722(3)
O35A O 0.56894(19) 0.3743(4) 0.5666(2)
O36A O 0.62661(18) 0.3659(4) 0.4784(3)
O37A O 0.56282(19) 0.4575(4) 0.6868(3)
O38A O 0.61394(18) 0.4648(4) 0.6739(3)
O39A O 0.58500(19) 0.4747(4) 0.5005(3)
O40A O 0.6213(2) 0.4643(4) 0.5574(3)
O41A O 0.65531(17) 0.3716(3) 0.6972(3)
O42A O 0.64040(19) 0.2973(4) 0.7413(2)
O43A O 0.64430(17) 0.3578(3) 0.5807(3)
O44A O 0.61980(17) 0.2744(3) 0.5590(2)
O47A O 0.57197(18) 0.2791(4) 0.4859(3)
O48A O 0.55798(18) 0.3587(6) 0.4568(3)
C61A C 0.6080(3) 0.5821(6) 0.6313(4)
C62A C 0.6196(3) 0.5903(5) 0.5860(4)
C63A C 0.6473(3) 0.6273(6) 0.5817(4)
H49A H 0.65590 0.63290 0.55120
C64A C 0.6618(4) 0.6551(7) 0.6204(5)
H50A H 0.68080 0.67840 0.61740
C65A C 0.6480(4) 0.6486(8) 0.6647(5)
H51A H 0.65610 0.67100 0.69160
C66A C 0.6219(3) 0.6085(7) 0.6690(5)
H52A H 0.61430 0.60030 0.69970
C67A C 0.5781(3) 0.5409(6) 0.6374(5)
H53A H 0.56110 0.56520 0.65220
H54A H 0.56960 0.52800 0.60540
C68A C 0.5848(3) 0.4852(6) 0.6674(5)
C69A C 0.6034(3) 0.5662(5) 0.5421(4)
H55A H 0.61340 0.58580 0.51470
H56A H 0.58080 0.58010 0.54180
C70A C 0.6028(3) 0.4973(6) 0.5326(4)
C71A C 0.7109(3) 0.3092(5) 0.6667(3)
C72A C 0.6984(3) 0.2962(4) 0.6196(4)
C73A C 0.7166(3) 0.3144(5) 0.5824(4)
H57A H 0.70930 0.30500 0.55060
C74A C 0.7457(3) 0.3465(6) 0.5897(4)
H58A H 0.75760 0.35930 0.56330
C75A C 0.7562(3) 0.3585(7) 0.6338(5)
H59A H 0.77630 0.37870 0.63890
C76A C 0.7389(3) 0.3425(6) 0.6725(4)
H60A H 0.74630 0.35450 0.70360
C77A C 0.6921(3) 0.2895(5) 0.7091(4)
H61A H 0.68800 0.24520 0.70620
H62A H 0.70580 0.29580 0.73840
C78A C 0.6610(3) 0.3204(6) 0.7154(3)
C79A C 0.6670(3) 0.2650(5) 0.6102(4)
H63A H 0.65800 0.25440 0.64120
H64A H 0.67100 0.22640 0.59330
C80A C 0.6423(3) 0.3008(5) 0.5814(3)
#END
