
#######################################################################
#
#                 Cambridge Crystallographic Data Centre
#                                CCDC
#
#######################################################################
#
# If this CIF has been generated from an entry in the Cambridge
# Structural Database, then it will include bibliographic, chemical,
# crystal, experimental, refinement or atomic coordinate data resulting
# from the CCDC's data processing and validation procedures.
#
#######################################################################

data_CSD_CIF_XOXGEZ
_audit_creation_date 2019-09-28
_audit_creation_method CSD-ConQuest-V1
_database_code_CSD XOXGEZ
_database_code_depnum_ccdc_archive 'CCDC 1944966'
_chemical_formula_sum 'C50 H65 N3 O22 U2'
_chemical_formula_moiety
;
(C30 H24 O16 U2 2-)n,C18 H38 N2 O6 2+,C2 H3 N1
;
_journal_coden_Cambridge 1147
_journal_volume 19
_journal_year 2019
_journal_page_first 6611
_journal_name_full 'Cryst.Growth Des. '
loop_
_publ_author_name
"P.Thuery"
"Y.Atoini"
"J.Harrowfield"
_chemical_name_systematic
;
catena-[4,7,13,16,21,24-hexaoxa-1,10-diazabicyclo[8.8.8]hexacosane-1,10-diium 
tris(\m-2,2'-(1,2-phenylene)diacetato)-tetraoxo-di-uranium acetonitrile 
solvate]
;
_cell_volume   2687.612
_exptl_crystal_colour 'light yellow'
_exptl_crystal_density_diffrn 1.898
_exptl_special_details
;
Absolute configuration

;
_exptl_crystal_description 'platelet'
_diffrn_ambient_temperature 100
#These two values have been output from a single CSD field.
_refine_ls_R_factor_gt 0.0322
_refine_ls_wR_factor_gt 0.0322
_symmetry_cell_setting monoclinic
_symmetry_space_group_name_H-M 'P 21'
_symmetry_Int_Tables_number 4
loop_
_symmetry_equiv_pos_site_id
_symmetry_equiv_pos_as_xyz
1 x,y,z
2 -x,1/2+y,-z
_cell_length_a 11.1842(4)
_cell_length_b 9.7396(2)
_cell_length_c 24.9076(9)
_cell_angle_alpha 90
_cell_angle_beta 97.8714(17)
_cell_angle_gamma 90
_cell_formula_units_Z 2
loop_
_atom_type_symbol
_atom_type_radius_bond
C 0.68
H 0.23
N 0.68
O 0.68
U 1.96
loop_
_atom_site_label
_atom_site_type_symbol
_atom_site_fract_x
_atom_site_fract_y
_atom_site_fract_z
U1 U 0.35317(2) 0.94159(2) 0.91177(2)
U2 U 0.68682(2) 1.04687(2) 0.60741(2)
O1 O 0.2234(5) 0.9246(6) 0.8626(2)
O2 O 0.4836(4) 0.9596(5) 0.9599(2)
O3 O 0.5319(4) 1.0185(4) 0.6122(2)
O4 O 0.8412(4) 1.0759(5) 0.6038(2)
O5 O 0.4704(5) 1.0079(5) 0.8377(2)
O6 O 0.4688(5) 0.7881(5) 0.8591(2)
O7 O 0.7399(5) 0.9926(5) 0.7044(2)
O8 O 0.6865(4) 1.2048(5) 0.6849(2)
O9 O 0.3387(5) 0.6984(5) 0.9392(2)
O10 O 0.2506(5) 0.8516(5) 0.9845(2)
O11 O 0.2519(5) 0.1182(5) 0.9603(2)
O12 O 0.3627(5) 0.1928(6) 0.9007(3)
O13 O 0.6437(5) 1.2869(5) 0.5794(2)
O14 O 0.6381(5) 1.1347(5) 0.5142(2)
O15 O 0.6791(5) 1.8583(5) 0.5391(2)
O16 O 0.7242(6) 1.8014(5) 0.6243(2)
C1 C 0.7319(6) 0.9164(8) 0.8309(3)
C2 C 0.7769(6) 1.0458(8) 0.8188(3)
C3 C 0.8886(7) 1.0842(7) 0.8463(3)
H1 H 0.92296 1.16868 0.83695
C4 C 0.9515(7) 1.0051(7) 0.8864(3)
H2 H 1.02754 1.03519 0.90422
C5 C 0.9031(7) 0.8808(8) 0.9007(3)
H3 H 0.94352 0.82655 0.92929
C6 C 0.7940(7) 0.8383(8) 0.8721(3)
H4 H 0.76090 0.75277 0.88103
C7 C 0.6120(6) 0.8604(7) 0.8020(3)
H5 H 0.59358 0.90454 0.76597
H6 H 0.61947 0.76038 0.79627
C8 C 0.5101(7) 0.8870(7) 0.8342(3)
C9 C 0.7084(7) 1.1420(8) 0.7790(3)
H7 H 0.74006 1.23594 0.78666
H8 H 0.62286 1.14181 0.78519
C10 C 0.7132(6) 1.1106(7) 0.7197(3)
C11 C 0.1399(6) 0.5370(7) 0.9822(3)
C12 C 0.1617(6) 0.4161(6) 0.9540(3)
C13 C 0.0655(7) 0.3531(7) 0.9221(3)
H9 H 0.08011 0.27404 0.90163
C14 C -0.0520(7) 0.4030(7) 0.9194(3)
H10 H -0.11683 0.35788 0.89774
C15 C -0.0730(7) 0.5200(7) 0.9488(3)
H11 H -0.15268 0.55473 0.94780
C16 C 0.0227(7) 0.5853(7) 0.9796(3)
H12 H 0.00772 0.66541 0.99938
C17 C 0.2405(7) 0.6176(7) 1.0140(3)
H13 H 0.30911 0.55612 1.02660
H14 H 0.21201 0.65973 1.04613
C18 C 0.2802(7) 0.7286(7) 0.9774(3)
C19 C 0.2887(7) 0.3608(7) 0.9594(4)
H15 H 0.32332 0.36322 0.99816
H16 H 0.33772 0.42284 0.93969
C20 C 0.3007(7) 0.2155(7) 0.9384(4)
C21 C 0.7423(6) 1.4516(7) 0.4886(3)
C22 C 0.7720(6) 1.5675(7) 0.5216(3)
C23 C 0.8814(7) 1.6317(7) 0.5206(3)
H17 H 0.90184 1.70853 0.54353
C24 C 0.9627(7) 1.5864(7) 0.4868(3)
H18 H 1.03696 1.63318 0.48606
C25 C 0.9339(7) 1.4724(7) 0.4544(3)
H19 H 0.98907 1.43954 0.43152
C26 C 0.8245(7) 1.4066(7) 0.4553(3)
H20 H 0.80509 1.32891 0.43269
C27 C 0.6235(6) 1.3737(7) 0.4873(3)
H21 H 0.60012 1.33384 0.45079
H22 H 0.55917 1.43807 0.49461
C28 C 0.6357(6) 1.2590(7) 0.5296(3)
C29 C 0.6877(8) 1.6172(7) 0.5603(3)
H23 H 0.70268 1.56186 0.59388
H24 H 0.60363 1.59939 0.54363
C30 C 0.6987(7) 1.7683(7) 0.5757(3)
O17 O 0.1366(5) 0.4395(6) 0.6165(2)
O18 O -0.0606(5) 0.4969(5) 0.6767(3)
O19 O 0.3743(5) 0.7059(6) 0.6903(3)
O20 O 0.1425(6) 0.8231(6) 0.6867(2)
O21 O 0.2834(6) 0.2683(7) 0.7253(3)
O22 O 0.1668(6) 0.4806(6) 0.7924(3)
N1 N 0.3752(6) 0.4319(8) 0.6473(3)
H25 H 0.308(5) 0.469(8) 0.666(3)
N2 N -0.0097(6) 0.6935(6) 0.7574(3)
H26 H 0.0469(14) 0.6472(18) 0.7356(7)
C31 C 0.3291(8) 0.4732(10) 0.5897(4)
H27 H 0.32689 0.57459 0.58679
H28 H 0.38417 0.43792 0.56499
C32 C 0.2042(7) 0.4158(9) 0.5735(3)
H29 H 0.16519 0.46142 0.54012
H30 H 0.20873 0.31607 0.56632
C33 C 0.0276(7) 0.3599(7) 0.6123(3)
H31 H 0.04434 0.26414 0.60224
H32 H -0.03319 0.39872 0.58364
C34 C -0.0200(7) 0.3621(7) 0.6653(3)
H33 H -0.08787 0.29643 0.66432
H34 H 0.04423 0.33303 0.69444
C35 C -0.1314(7) 0.4981(8) 0.7196(3)
H35 H -0.09402 0.44027 0.75005
H36 H -0.21365 0.46304 0.70712
C36 C -0.1360(6) 0.6438(8) 0.7366(3)
H37 H -0.18809 0.65269 0.76552
H38 H -0.17091 0.70082 0.70546
C37 C 0.4881(7) 0.5147(9) 0.6682(4)
H39 H 0.51446 0.48859 0.70637
H40 H 0.55324 0.48818 0.64704
C38 C 0.4741(9) 0.6668(9) 0.6654(4)
H41 H 0.54797 0.71131 0.68403
H42 H 0.46245 0.69695 0.62711
C39 C 0.3477(8) 0.8505(9) 0.6862(4)
H43 H 0.32951 0.87670 0.64757
H44 H 0.41926 0.90347 0.70244
C40 C 0.2449(9) 0.8845(9) 0.7141(4)
H45 H 0.25933 0.85081 0.75193
H46 H 0.23400 0.98531 0.71486
C41 C 0.0290(9) 0.8817(10) 0.6982(4)
H47 H -0.03802 0.84661 0.67163
H48 H 0.03158 0.98280 0.69452
C42 C 0.0060(9) 0.8441(9) 0.7558(4)
H49 H 0.07530 0.87275 0.78252
H50 H -0.06738 0.89105 0.76454
C43 C 0.3988(8) 0.2865(9) 0.6551(4)
H51 H 0.47766 0.26389 0.64356
H52 H 0.33573 0.23338 0.63223
C44 C 0.4001(8) 0.2465(10) 0.7124(4)
H53 H 0.42282 0.14869 0.71746
H54 H 0.45930 0.30287 0.73603
C45 C 0.276(1) 0.2689(10) 0.7833(4)
H55 H 0.34147 0.21161 0.80243
H56 H 0.19780 0.22933 0.78994
C46 C 0.2871(9) 0.4137(10) 0.8047(4)
H57 H 0.31312 0.41281 0.84436
H58 H 0.34783 0.46495 0.78729
C47 C 0.1612(9) 0.5977(9) 0.8221(4)
H59 H 0.20971 0.67135 0.80815
H60 H 0.19300 0.58077 0.86057
C48 C 0.0354(8) 0.6375(8) 0.8168(3)
H61 H 0.02481 0.70974 0.84374
H62 H -0.01409 0.55728 0.82444
N3 N 0.6515(9) 0.4892(8) 0.8103(4)
C49 C 0.6178(10) 0.4807(10) 0.8508(5)
C50 C 0.5717(8) 0.4731(10) 0.9041(4)
H63 H 0.62633 0.52353 0.93130
H64 H 0.56757 0.37690 0.91514
H65 H 0.49101 0.51405 0.90081
U1* U 0.35317(2) -0.05841(2) 0.91177(2)
U2* U 0.68682(2) 2.04687(2) 0.60741(2)
O11* O 0.2519(5) 1.1182(5) 0.9603(2)
O12* O 0.3627(5) 1.1928(6) 0.9007(3)
O15* O 0.6791(5) 0.8583(5) 0.5391(2)
O16* O 0.7242(6) 0.8014(5) 0.6243(2)
#END
