
#######################################################################
#
#                 Cambridge Crystallographic Data Centre
#                                CCDC
#
#######################################################################
#
# If this CIF has been generated from an entry in the Cambridge
# Structural Database, then it will include bibliographic, chemical,
# crystal, experimental, refinement or atomic coordinate data resulting
# from the CCDC's data processing and validation procedures.
#
#######################################################################

data_CSD_CIF_XOXHOK
_audit_creation_date 2019-09-28
_audit_creation_method CSD-ConQuest-V1
_database_code_CSD XOXHOK
_database_code_depnum_ccdc_archive 'CCDC 1944973'
_chemical_formula_sum 'C120 H100 N12 O34 U4 Zn2'
_chemical_formula_moiety
;
(C60 H48 O32 U4 4-)n,2(C30 H24 N6 Zn1 2+),2(H2 O1)
;
_journal_coden_Cambridge 1147
_journal_volume 19
_journal_year 2019
_journal_page_first 6611
_journal_name_full 'Cryst.Growth Des. '
loop_
_publ_author_name
"P.Thuery"
"Y.Atoini"
"J.Harrowfield"
_chemical_name_systematic
;
catena-[bis(tris(2,2'-bipyridine)-zinc) 
bis(\m-2,2'-(1,2-phenylene)diacetato)-tetrakis(\m-2,2'-(1,4-phenylene)diacetat
o)-octaoxo-tetra-uranium dihydrate]
;
_cell_volume   2895.155
_exptl_crystal_colour 'light yellow'
_exptl_crystal_density_diffrn 1.914
_exptl_crystal_description 'irregular'
_diffrn_ambient_temperature 100
_refine_special_details
;
O17A and O17B disordered over two sites with occupancies 0.625:0.375.

;
#These two values have been output from a single CSD field.
_refine_ls_R_factor_gt 0.0447
_refine_ls_wR_factor_gt 0.0447
_symmetry_cell_setting triclinic
_symmetry_space_group_name_H-M 'P -1'
_symmetry_Int_Tables_number 2
loop_
_symmetry_equiv_pos_site_id
_symmetry_equiv_pos_as_xyz
1 x,y,z
2 -x,-y,-z
_cell_length_a 12.3316(7)
_cell_length_b 15.1317(13)
_cell_length_c 16.3242(15)
_cell_angle_alpha 94.057(5)
_cell_angle_beta 103.240(6)
_cell_angle_gamma 100.508(6)
_cell_formula_units_Z 1
loop_
_atom_type_symbol
_atom_type_radius_bond
C 0.68
H 0.23
N 0.68
O 0.68
U 1.96
Zn 1.22
loop_
_atom_site_label
_atom_site_type_symbol
_atom_site_fract_x
_atom_site_fract_y
_atom_site_fract_z
U1 U 0.30573(2) 0.79972(2) 0.66227(2)
O1 O 0.4359(4) 0.7665(4) 0.6666(4)
O2 O 0.1723(4) 0.8285(3) 0.6557(3)
O3 O 0.3076(4) 0.7484(4) 0.8012(3)
O4 O 0.2180(5) 0.6468(4) 0.6922(4)
O5 O 0.2228(4) 0.6968(4) 0.5278(4)
O6 O 0.2961(4) 0.8375(4) 0.5148(3)
O7 O 0.3916(4) 0.9620(4) 0.6588(4)
O8 O 0.3912(4) 0.9176(4) 0.7840(3)
C1 C 0.2457(6) 0.6723(6) 0.7732(6)
C2 C 0.2440(6) 0.7596(6) 0.4817(5)
C3 C 0.1995(6) 0.6117(6) 0.8325(5)
C4 C 0.2000(6) 0.7404(6) 0.3857(5)
C5 C 0.2705(6) 0.6373(5) 0.9233(5)
H1 H 0.19940 0.54800 0.81390
H2 H 0.11990 0.61680 0.82990
C6 C 0.2830(7) 0.7863(6) 0.3387(5)
H3 H 0.18420 0.67420 0.36920
H4 H 0.12740 0.76120 0.36850
C7 C 0.3762(6) 0.6117(5) 0.9498(5)
C8 C 0.2323(7) 0.6868(5) 0.9821(6)
C9 C 0.3945(7) 0.7772(6) 0.3592(5)
C10 C 0.2525(7) 0.8417(6) 0.2781(5)
C11 C 0.4382(6) 0.6379(5) 1.0326(5)
C12 C 0.4166(6) 0.5554(5) 0.8882(5)
C13 C 0.2969(7) 0.7124(6) 1.0652(6)
H5 H 0.16060 0.70350 0.96520
H6 H 0.41790 0.74080 0.40230
C14 C 0.4734(7) 0.8188(6) 0.3194(5)
C15 C 0.3316(7) 0.8862(6) 0.2390(5)
H7 H 0.17610 0.84960 0.26280
H8 H 0.50970 0.62100 1.05030
C16 C 0.4003(8) 0.6877(6) 1.0910(6)
H9 H 0.49490 0.54880 0.91480
H10 H 0.41970 0.58770 0.83780
C17 C 0.3422(6) 0.4626(6) 0.8598(5)
H11 H 0.26950 0.74690 1.10400
H12 H 0.54850 0.80760 0.33260
C18 C 0.4439(7) 0.8767(5) 0.2605(5)
H13 H 0.30850 0.92380 0.19690
H14 H 0.44490 0.70440 1.14760
O9 O 0.3383(4) 0.4212(4) 0.7900(3)
O10 O 0.2802(4) 0.4260(3) 0.9064(3)
C19 C 0.5306(8) 0.9258(6) 0.2183(6)
U2 U 0.18389(2) 0.29554(2) 0.79796(2)
H15 H 0.59090 0.89070 0.21860
H16 H 0.49300 0.92930 0.15850
C20 C 0.5840(7) 1.0197(6) 0.2612(6)
O11 O 0.2828(4) 0.2346(3) 0.8494(3)
O12 O 0.0852(4) 0.3584(4) 0.7472(3)
O13 O 0.0961(4) 0.2969(4) 0.9201(3)
O14 O 0.0316(4) 0.1771(3) 0.8260(3)
O15 O 0.1091(4) 0.1766(3) 0.6802(3)
O16 O 0.2568(4) 0.2760(4) 0.6714(3)
C21 C 0.0345(6) 0.2197(5) 0.8968(5)
C22 C 0.1823(7) 0.2072(6) 0.6404(5)
C23 C -0.0379(6) 0.1762(5) 0.9529(5)
C24 C 0.1864(6) 0.1541(5) 0.5595(5)
C25 C -0.0188(6) 0.0837(5) 0.9753(5)
H17 H -0.02230 0.21720 1.00610
H18 H -0.11900 0.17050 0.92380
C26 C 0.0894(6) 0.0747(5) 0.5292(5)
H19 H 0.18570 0.19490 0.51460
H20 H 0.25880 0.13240 0.56890
C27 C -0.1038(8) 0.0115(7) 0.9604(7)
C28 C 0.0864(7) 0.0723(6) 1.0174(7)
C29 C -0.0152(6) 0.0839(5) 0.4852(5)
C30 C 0.1045(6) -0.0118(5) 0.5439(5)
H21 H -0.17850 0.01790 0.93370
H22 H 0.14840 0.12280 1.03160
H23 H -0.02670 0.14280 0.47420
H24 H 0.17630 -0.02110 0.57410
Zn1 Zn 0.78480(7) 0.70708(6) 0.69802(6)
N1 N 0.7349(5) 0.8158(4) 0.6344(4)
N2 N 0.9322(5) 0.8144(4) 0.7405(4)
N3 N 0.7147(5) 0.7405(4) 0.8031(4)
N4 N 0.8367(5) 0.6133(4) 0.7875(4)
N5 N 0.6355(5) 0.5951(5) 0.6397(4)
N6 N 0.8343(5) 0.6379(4) 0.5974(4)
C31 C 0.6301(6) 0.8132(6) 0.5837(5)
H25 H 0.57660 0.75740 0.57020
C32 C 0.5994(7) 0.8877(6) 0.5518(5)
H26 H 0.52490 0.88410 0.51740
C33 C 0.6770(8) 0.9689(6) 0.5699(5)
H27 H 0.65630 1.02160 0.54800
C34 C 0.7841(7) 0.9731(6) 0.6193(5)
H28 H 0.83910 1.02810 0.63050
C35 C 0.8115(6) 0.8948(5) 0.6534(5)
C36 C 0.9200(6) 0.8945(5) 0.7118(5)
C37 C 1.0049(7) 0.9712(6) 0.7409(6)
H29 H 0.99700 1.02710 0.71960
C38 C 1.1014(7) 0.9651(6) 0.8014(6)
H30 H 1.15950 1.01760 0.82230
C39 C 1.1143(7) 0.8858(6) 0.8312(5)
H31 H 1.18040 0.88190 0.87310
C40 C 1.0276(6) 0.8092(6) 0.7990(5)
H32 H 1.03610 0.75260 0.81850
C41 C 0.6588(6) 0.8071(5) 0.8081(5)
H33 H 0.64940 0.84390 0.76320
C42 C 0.6136(6) 0.8249(6) 0.8769(5)
H34 H 0.57300 0.87240 0.87860
C43 C 0.6291(6) 0.7717(6) 0.9428(5)
H35 H 0.59880 0.78180 0.99040
C44 C 0.6887(6) 0.7046(5) 0.9382(5)
H36 H 0.70140 0.66870 0.98360
C45 C 0.7318(6) 0.6879(6) 0.8670(5)
C46 C 0.7961(6) 0.6171(5) 0.8570(5)
C47 C 0.8161(6) 0.5550(5) 0.9172(5)
H37 H 0.78930 0.55880 0.96720
C48 C 0.8751(6) 0.4893(6) 0.9018(5)
H38 H 0.88780 0.44620 0.94060
C49 C 0.9160(7) 0.4864(6) 0.8294(5)
H39 H 0.95860 0.44250 0.81830
C50 C 0.8930(6) 0.5491(6) 0.7741(5)
H40 H 0.91880 0.54620 0.72360
C51 C 0.5430(6) 0.5749(6) 0.6719(5)
H41 H 0.52560 0.62010 0.70730
C52 C 0.4732(6) 0.4892(6) 0.6539(5)
H42 H 0.41000 0.47520 0.67800
C53 C 0.4968(7) 0.4261(6) 0.6014(6)
H43 H 0.44940 0.36740 0.58800
C54 C 0.5898(6) 0.4469(6) 0.5671(5)
H44 H 0.60770 0.40260 0.53100
C55 C 0.6568(6) 0.5338(5) 0.5864(5)
C56 C 0.7592(6) 0.5623(5) 0.5539(5)
C57 C 0.7808(6) 0.5160(6) 0.4857(5)
H45 H 0.72930 0.46200 0.45790
C58 C 0.8756(6) 0.5467(6) 0.4574(6)
H46 H 0.88860 0.51670 0.40850
C59 C 0.9522(7) 0.6234(6) 0.5024(5)
H47 H 1.01990 0.64600 0.48560
C60 C 0.9284(6) 0.6655(5) 0.5711(5)
H48 H 0.98180 0.71730 0.60170
O17 O 0.5989(8) 1.1030(11) 0.0398(8)
O18? O 0.6139(17) 1.0241(19) 0.0323(14)
O7A O 0.6084(4) 1.0380(4) 0.3412(4)
O8A O 0.6088(4) 1.0824(4) 0.2160(3)
U1A U 0.69427(2) 1.20028(2) 0.33773(2)
C28A C -0.0864(7) -0.0723(6) 0.9826(7)
C27A C 0.1038(8) -0.0115(7) 1.0396(7)
C30A C -0.1045(6) 0.0118(5) 0.4561(5)
C29A C 0.0152(6) -0.0839(5) 0.5148(5)
H22A H -0.14840 -0.12280 0.96840
C25A C 0.0188(6) -0.0837(5) 1.0247(5)
H21A H 0.17850 -0.01790 1.06630
H24A H -0.17630 0.02110 0.42590
C26A C -0.0894(6) -0.0747(5) 0.4708(5)
H23A H 0.02670 -0.14280 0.52580
C23A C 0.0379(6) -0.1762(5) 1.0471(5)
C24A C -0.1864(6) -0.1541(5) 0.4405(5)
H17A H 0.02230 -0.21720 0.99390
H18A H 0.11900 -0.17050 1.07620
C21A C -0.0345(6) -0.2197(5) 1.1032(5)
H19A H -0.18570 -0.19490 0.48540
H20A H -0.25880 -0.13240 0.43110
C22A C -0.1823(7) -0.2072(6) 0.3596(5)
O13A O -0.0961(4) -0.2969(4) 1.0799(3)
O14A O -0.0316(4) -0.1771(3) 1.1740(3)
O15A O -0.1091(4) -0.1766(3) 0.3198(3)
O16A O -0.2568(4) -0.2760(4) 0.3286(3)
U2A U -0.18389(2) -0.29554(2) 1.20204(2)
U2A* U -0.18389(2) -0.29554(2) 0.20204(2)
O11A O -0.2828(4) -0.2346(3) 0.1506(3)
O12A O -0.0852(4) -0.3584(4) 0.2528(3)
O9A O -0.3383(4) -0.4212(4) 0.2100(3)
O10A O -0.2802(4) -0.4260(3) 0.0936(3)
O13A* O -0.0961(4) -0.2969(4) 0.0799(3)
O14A* O -0.0316(4) -0.1771(3) 0.1740(3)
C17A C -0.3422(6) -0.4626(6) 0.1402(5)
C12A C -0.4166(6) -0.5554(5) 0.1118(5)
C7A C -0.3762(6) -0.6117(5) 0.0502(5)
H9A H -0.49490 -0.54880 0.08520
H10A H -0.41970 -0.58770 0.16220
C5A C -0.2705(6) -0.6373(5) 0.0767(5)
C11A C -0.4382(6) -0.6379(5) -0.0326(5)
C8A C -0.2323(7) -0.6868(5) 0.0179(6)
C3A C -0.1995(6) -0.6117(6) 0.1675(5)
H8A H -0.50970 -0.62100 -0.05030
C16A C -0.4003(8) -0.6877(6) -0.0910(6)
C13A C -0.2969(7) -0.7124(6) -0.0652(6)
H5A H -0.16060 -0.70350 0.03480
H1A H -0.19940 -0.54800 0.18610
H2A H -0.11990 -0.61680 0.17010
C1A C -0.2457(6) -0.6723(6) 0.2268(6)
H14A H -0.44490 -0.70440 -0.14760
H11A H -0.26950 -0.74690 -0.10400
O3A O -0.3076(4) -0.7484(4) 0.1988(3)
O4A O -0.2180(5) -0.6468(4) 0.3078(4)
U1A* U -0.30573(2) -0.79972(2) 0.33773(2)
O1A O -0.4359(4) -0.7665(4) 0.3334(4)
O2A O -0.1723(4) -0.8285(3) 0.3443(3)
O5A O -0.2228(4) -0.6968(4) 0.4722(4)
O6A O -0.2961(4) -0.8375(4) 0.4852(3)
O7A* O -0.3916(4) -0.9620(4) 0.3412(4)
O8A* O -0.3912(4) -0.9176(4) 0.2160(3)
C2A C -0.2440(6) -0.7596(6) 0.5183(5)
C4A C -0.2000(6) -0.7404(6) 0.6143(5)
C6A C -0.2830(7) -0.7863(6) 0.6613(5)
H3A H -0.18420 -0.67420 0.63080
H4A H -0.12740 -0.76120 0.63150
C9A C -0.3945(7) -0.7772(6) 0.6408(5)
C10A C -0.2525(7) -0.8417(6) 0.7219(5)
H6A H -0.41790 -0.74080 0.59770
C14A C -0.4734(7) -0.8188(6) 0.6806(5)
C15A C -0.3316(7) -0.8862(6) 0.7610(5)
H7A H -0.17610 -0.84960 0.73720
H12A H -0.54850 -0.80760 0.66740
C18A C -0.4439(7) -0.8767(5) 0.7395(5)
H13A H -0.30850 -0.92380 0.80310
C19A C -0.5306(8) -0.9258(6) 0.7817(6)
H15A H -0.59090 -0.89070 0.78140
H16A H -0.49300 -0.92930 0.84150
C20A C -0.5840(7) -1.0197(6) 0.7388(6)
O7* O -0.6084(4) -1.0380(4) 0.6588(4)
O8* O -0.6088(4) -1.0824(4) 0.7840(3)
U1* U -0.69427(2) -1.20028(2) 0.66227(2)
#END
