
#######################################################################
#
#                 Cambridge Crystallographic Data Centre
#                                CCDC
#
#######################################################################
#
# If this CIF has been generated from an entry in the Cambridge
# Structural Database, then it will include bibliographic, chemical,
# crystal, experimental, refinement or atomic coordinate data resulting
# from the CCDC's data processing and validation procedures.
#
#######################################################################

data_CSD_CIF_XOXHAW
_audit_creation_date 2019-09-28
_audit_creation_method CSD-ConQuest-V1
_database_code_CSD XOXHAW
_database_code_depnum_ccdc_archive 'CCDC 1944970'
_chemical_formula_sum 'C60 H48 Ag2 N10 O18 U2'
_chemical_formula_moiety
;
(C20 H16 N2 O18 U2 2-)n,2(C20 H16 Ag1 N4 1+)
;
_journal_coden_Cambridge 1147
_journal_volume 19
_journal_year 2019
_journal_page_first 6611
_journal_name_full 'Cryst.Growth Des. '
loop_
_publ_author_name
"P.Thuery"
"Y.Atoini"
"J.Harrowfield"
_chemical_name_systematic
;
catena-[bis(bis(2,2'-bipyridine)-silver) 
bis(\m-2,2'-(1,4-phenylene)diacetato)-bis(nitrato)-tetraoxo-di-uranium]
;
_cell_volume   1491.286
_exptl_crystal_colour 'light yellow'
_exptl_crystal_density_diffrn 2.103
_exptl_crystal_description 'platelet'
_diffrn_ambient_temperature 100
#These two values have been output from a single CSD field.
_refine_ls_R_factor_gt 0.0318
_refine_ls_wR_factor_gt 0.0318
_symmetry_cell_setting triclinic
_symmetry_space_group_name_H-M 'P -1'
_symmetry_Int_Tables_number 2
loop_
_symmetry_equiv_pos_site_id
_symmetry_equiv_pos_as_xyz
1 x,y,z
2 -x,-y,-z
_cell_length_a 9.2335(6)
_cell_length_b 10.8405(8)
_cell_length_c 15.7348(14)
_cell_angle_alpha 99.859(5)
_cell_angle_beta 97.766(5)
_cell_angle_gamma 102.380(4)
_cell_formula_units_Z 1
loop_
_atom_type_symbol
_atom_type_radius_bond
C 0.68
H 0.23
Ag 1.45
N 0.68
O 0.68
U 1.96
loop_
_atom_site_label
_atom_site_type_symbol
_atom_site_fract_x
_atom_site_fract_y
_atom_site_fract_z
U1 U 0.54601(2) 0.50132(2) 0.26070(2)
O1 O 0.5745(4) 0.5102(3) 0.15302(18)
O2 O 0.5179(4) 0.4889(3) 0.36773(19)
O3 O 0.8191(3) 0.5717(3) 0.3098(2)
O4 O 0.6965(3) 0.7241(3) 0.3204(2)
O5 O 0.3812(4) 0.6491(3) 0.2531(2)
O6 O 0.2734(4) 0.4424(3) 0.2049(2)
O7 O 0.4399(3) 0.2620(3) 0.2091(2)
O8 O 0.6798(4) 0.3241(3) 0.2571(2)
O9 O 0.5758(4) 0.1192(3) 0.2067(2)
N1 N 0.5653(4) 0.2303(4) 0.2242(2)
C1 C 0.9826(5) 0.8974(5) 0.4270(3)
C2 C 1.0429(5) 0.8893(5) 0.5118(3)
H1 H 1.07280 0.81330 0.52090
C3 C 1.0599(5) 0.9889(5) 0.5824(3)
H2 H 1.10160 0.98010 0.63900
C4 C 0.9691(5) 0.7883(5) 0.3513(3)
H3 H 1.04850 0.74270 0.36540
H4 H 0.98910 0.82500 0.29940
C5 C 0.8191(5) 0.6906(5) 0.3270(3)
C6 C 0.0589(5) 0.5435(5) 0.0898(3)
C7 C 0.1527(5) 0.5292(5) 0.0297(3)
H5 H 0.25840 0.54880 0.04990
C8 C 0.0977(5) 0.4871(5) -0.0595(3)
H6 H 0.16490 0.47900 -0.09970
C9 C 0.1172(5) 0.5923(5) 0.1871(3)
H7 H 0.04090 0.55430 0.21990
H8 H 0.13180 0.68720 0.20130
C10 C 0.2669(5) 0.5587(5) 0.2171(3)
Ag1 Ag 0.92609(4) 0.96390(4) 0.78662(2)
N2 N 0.8752(4) 0.7787(4) 0.6852(2)
N3 N 0.7206(4) 0.9671(4) 0.6785(2)
N4 N 1.1483(4) 1.1065(4) 0.8644(2)
N5 N 0.8772(4) 1.0688(4) 0.9171(2)
C11 C 0.9627(6) 0.6929(5) 0.6813(3)
H9 H 1.04420 0.70570 0.72830
C12 C 0.9404(6) 0.5886(5) 0.6135(3)
H10 H 1.00420 0.53050 0.61400
C13 C 0.8238(6) 0.5705(5) 0.5452(3)
H11 H 0.80570 0.49920 0.49740
C14 C 0.7331(5) 0.6559(5) 0.5461(3)
H12 H 0.65300 0.64500 0.49860
C15 C 0.7597(5) 0.7581(5) 0.6170(3)
C16 C 0.6637(5) 0.8524(5) 0.6215(3)
C17 C 0.5220(5) 0.8240(6) 0.5698(3)
H13 H 0.48240 0.74240 0.53120
C18 C 0.4396(6) 0.9162(6) 0.5753(4)
H14 H 0.34310 0.89890 0.53960
C19 C 0.4971(6) 1.0338(6) 0.6328(3)
H15 H 0.44190 1.09850 0.63710
C20 C 0.6367(6) 1.0541(5) 0.6834(3)
H16 H 0.67600 1.13390 0.72400
C21 C 1.2819(6) 1.1224(5) 0.8378(3)
H17 H 1.28460 1.07830 0.78060
C22 C 1.4154(6) 1.1983(5) 0.8878(3)
H18 H 1.50710 1.20700 0.86580
C23 C 1.4110(5) 1.2612(5) 0.9712(3)
H19 H 1.50010 1.31510 1.00780
C24 C 1.2755(5) 1.2447(5) 1.0004(3)
H20 H 1.27120 1.28620 1.05790
C25 C 1.1454(5) 1.1675(5) 0.9459(3)
C26 C 0.9957(5) 1.1480(5) 0.9739(3)
C27 C 0.9773(5) 1.2107(5) 1.0560(3)
H21 H 1.06110 1.26700 1.09610
C28 C 0.8354(5) 1.1891(5) 1.0775(3)
H22 H 0.82110 1.22950 1.13320
C29 C 0.7149(5) 1.1092(5) 1.0184(3)
H23 H 0.61620 1.09480 1.03180
C30 C 0.7412(5) 1.0506(5) 0.9392(3)
H24 H 0.65840 0.99460 0.89830
O3A O 1.1809(3) 1.4283(3) 0.6902(2)
O4A O 1.3035(3) 1.2759(3) 0.6796(2)
C1A C 1.0174(5) 1.1026(5) 0.5730(3)
C2A C 0.9571(5) 1.1107(5) 0.4882(3)
H1A H 0.92720 1.18670 0.47910
C3A C 0.9401(5) 1.0111(5) 0.4176(3)
H2A H 0.89840 1.01990 0.36100
C4A C 1.0309(5) 1.2117(5) 0.6487(3)
H3A H 0.95150 1.25730 0.63460
H4A H 1.01090 1.17500 0.70060
C5A C 1.1809(5) 1.3094(5) 0.6730(3)
O5A O -0.3812(4) 0.3509(3) -0.2531(2)
O6A O -0.2734(4) 0.5576(3) -0.2049(2)
C6A C -0.0589(5) 0.4565(5) -0.0898(3)
C7A C -0.1527(5) 0.4708(5) -0.0297(3)
H5A H -0.25840 0.45120 -0.04990
C8A C -0.0977(5) 0.5129(5) 0.0595(3)
H6A H -0.16490 0.52100 0.09970
C9A C -0.1172(5) 0.4077(5) -0.1871(3)
H7A H -0.04090 0.44570 -0.21990
H8A H -0.13180 0.31280 -0.20130
C10A C -0.2669(5) 0.4413(5) -0.2171(3)
U1A U -0.54601(2) 0.49868(2) -0.26070(2)
O1A O -0.5745(4) 0.4898(3) -0.15302(18)
O2A O -0.5179(4) 0.5111(3) -0.36773(19)
O7A O -0.4399(3) 0.7380(3) -0.2091(2)
O8A O -0.6798(4) 0.6759(3) -0.2571(2)
O9A O -0.5758(4) 0.8808(3) -0.2067(2)
N1A N -0.5653(4) 0.7697(4) -0.2242(2)
U1A* U 1.45399(2) 1.49868(2) 0.73930(2)
O3A* O -0.8191(3) 0.4283(3) -0.3098(2)
O4A* O -0.6965(3) 0.2759(3) -0.3204(2)
#END
