
#######################################################################
#
#                 Cambridge Crystallographic Data Centre
#                                CCDC
#
#######################################################################
#
# If this CIF has been generated from an entry in the Cambridge
# Structural Database, then it will include bibliographic, chemical,
# crystal, experimental, refinement or atomic coordinate data resulting
# from the CCDC's data processing and validation procedures.
#
#######################################################################

data_CSD_CIF_XOXRIO
_audit_creation_date 2019-09-30
_audit_creation_method CSD-ConQuest-V1
_database_code_CSD XOXRIO
_database_code_depnum_ccdc_archive 'CCDC 1884144'
_chemical_formula_sum 'C33 H40.2 Cu1 K1 N9 O27.6 P6'
_chemical_formula_moiety
;
K1 1+,0.5(C18 H14 N6 2+),n(C24 H26 Cu1 N6 O24 P6 2-),3.6(H2 O1)
;
_journal_coden_Cambridge 1564
_journal_volume 84
_journal_year 2019
_journal_page_first 540
_journal_name_full 'ChemPlusChem '
loop_
_publ_author_name
"D.Quinone"
"S.Martinez"
"F.Bozoglian"
"C.Bazzicalupi"
"J.Torres"
"N.Veiga"
"C.Kremer"
"Antonio Bianchi"
_chemical_name_systematic
;
catena-[potassium 
hemikis(2,2'-[6-(pyridin-2-yl)-1,3,5-triazine-2,4-diyl]bis(pyridin-1-ium)) 
(\m-2,3-bis[(hydroxyphosphinato)oxy]-4,5,6-tris(phosphonooxy)cyclohexyl 
phosphato)-[2-(pyridin-2-yl)-4,6-bis(pyridin-2-yl)-1,3,5-triazine]-di-copper(i
i) hydrate]
;
_cell_volume  10769.391
_exptl_crystal_colour 'green'
_exptl_crystal_density_diffrn 1.596
_exptl_crystal_description 'prismatic'
_diffrn_ambient_temperature 298
_refine_special_details
;
C27,N100 disordered by symmetry over two configurations with occupancy 0.5; 
O5W,O6W and O2W,O3W,O4W,O7W,O8W disordered over two sites with occupancies 
0.6,0.65:0.35,0.4,0.4,0.4,0.35.
;
#These two values have been output from a single CSD field.
_refine_ls_R_factor_gt 0.0885
_refine_ls_wR_factor_gt 0.0885
_symmetry_cell_setting monoclinic
_symmetry_space_group_name_H-M 'C 2/c'
_symmetry_Int_Tables_number 15
loop_
_symmetry_equiv_pos_site_id
_symmetry_equiv_pos_as_xyz
1 x,y,z
2 -x,y,1/2-z
3 1/2+x,1/2+y,z
4 1/2-x,1/2+y,1/2-z
5 -x,-y,-z
6 x,-y,-1/2+z
7 -1/2-x,-1/2-y,-z
8 -1/2+x,-1/2-y,-1/2+z
_cell_length_a 22.1365(19)
_cell_length_b 29.3194(18)
_cell_length_c 18.3910(13)
_cell_angle_alpha 90
_cell_angle_beta 115.546(4)
_cell_angle_gamma 90
_cell_formula_units_Z 8
loop_
_atom_type_symbol
_atom_type_radius_bond
C 0.68
H 0.23
Cu 1.32
K 2.03
N 0.68
O 0.68
P 1.05
loop_
_atom_site_label
_atom_site_type_symbol
_atom_site_fract_x
_atom_site_fract_y
_atom_site_fract_z
Cu1 Cu 0.19358(6) 0.40190(3) 0.37311(6)
P1 P 0.39714(11) 0.37413(7) 0.26695(14)
O1 O 0.3744(4) 0.32671(19) 0.2307(4)
O2 O 0.3789(3) 0.38379(19) 0.3334(3)
O3 O 0.3566(2) 0.40533(14) 0.1894(3)
O4 O 0.4718(3) 0.3823(3) 0.2920(5)
P2 P 0.33996(10) 0.42158(6) -0.0138(1)
O5 O 0.4121(3) 0.40352(18) 0.0151(3)
O6 O 0.2945(3) 0.38309(18) -0.0207(4)
O7 O 0.3191(3) 0.45040(16) -0.0896(3)
O8 O 0.3389(2) 0.45673(14) 0.0506(2)
P3 P 0.50527(9) 0.54203(6) 0.09999(10)
O9 O 0.5042(3) 0.5576(3) 0.0225(4)
O10 O 0.5315(5) 0.5729(4) 0.1672(7)
O11 O 0.5428(3) 0.4979(3) 0.1235(6)
O12 O 0.4282(2) 0.53047(14) 0.0747(2)
P4 P 0.31503(10) 0.62544(5) 0.05255(10)
O13 O 0.2605(3) 0.64851(16) 0.0680(3)
O14 O 0.3687(3) 0.66229(16) 0.0618(3)
O15 O 0.2915(3) 0.60008(15) -0.0242(3)
O16 O 0.3555(2) 0.59102(13) 0.1249(2)
P5 P 0.23228(9) 0.58503(6) 0.20803(10)
O17 O 0.2940(3) 0.59230(17) 0.2860(3)
O18 O 0.1740(3) 0.56436(19) 0.2180(3)
O19 O 0.2120(3) 0.62976(17) 0.1602(3)
O20 O 0.2506(2) 0.55158(14) 0.1519(2)
P6 P 0.21435(9) 0.44435(6) 0.22425(10)
O21 O 0.2230(3) 0.43744(16) 0.3087(3)
O22 O 0.1582(2) 0.47958(18) 0.1794(3)
O23 O 0.2017(3) 0.40329(17) 0.1725(3)
O24 O 0.2838(2) 0.46822(14) 0.2400(2)
C1 C 0.3679(3) 0.4534(2) 0.1925(4)
H1 H 0.40210 0.46180 0.24610
C2 C 0.3922(3) 0.4661(2) 0.1296(3)
H2 H 0.43260 0.44890 0.13800
C3 C 0.4057(3) 0.5174(2) 0.1339(3)
H3 H 0.43990 0.52520 0.18770
C4 C 0.3415(3) 0.54331(19) 0.1174(3)
H4 H 0.30830 0.53670 0.06240
C5 C 0.3136(3) 0.52945(19) 0.1757(3)
H5 H 0.34420 0.53950 0.23010
C6 C 0.3032(3) 0.4785(2) 0.1761(3)
H6 H 0.26790 0.46880 0.12420
N1 N 0.2061(3) 0.33618(19) 0.3469(4)
C7 C 0.2429(5) 0.3221(3) 0.3134(5)
H7 H 0.26020 0.34370 0.29060
C8 C 0.2587(5) 0.2759(3) 0.3089(6)
H8 H 0.28550 0.26640 0.28430
C9 C 0.2304(5) 0.2453(3) 0.3446(6)
H9 H 0.23860 0.21430 0.34320
C10 C 0.1926(5) 0.2588(3) 0.3802(5)
H10 H 0.17460 0.23770 0.40330
C11 C 0.1805(4) 0.3052(2) 0.3823(4)
N2 N 0.1418(3) 0.3708(2) 0.4180(4)
C12 C 0.1435(4) 0.3260(3) 0.4208(4)
N3 N 0.1130(3) 0.3019(2) 0.4603(4)
C13 C 0.0856(4) 0.3285(3) 0.4951(5)
C14 C 0.0520(5) 0.3022(3) 0.5402(6)
C15 C 0.0513(5) 0.2572(3) 0.5437(6)
H11 H 0.07180 0.23970 0.51860
C16 C 0.0189(7) 0.2364(4) 0.5864(8)
H12 H 0.01660 0.20480 0.58880
C17 C -0.0088(11) 0.2633(5) 0.6237(12)
H13 H -0.02660 0.25050 0.65650
C18 C -0.0103(15) 0.3105(5) 0.6126(16)
H14 H -0.03510 0.32880 0.63090
N4 N 0.0240(7) 0.3294(3) 0.5756(8)
N5 N 0.0826(4) 0.3739(2) 0.4976(4)
C19 C 0.1144(4) 0.3942(3) 0.4583(4)
C20 C 0.1206(4) 0.4434(3) 0.4559(5)
C21 C 0.0958(4) 0.4749(3) 0.4923(5)
H15 H 0.07210 0.46530 0.52070
C22 C 0.1067(5) 0.5202(3) 0.4860(6)
H16 H 0.08960 0.54190 0.50910
C23 C 0.1435(5) 0.5336(3) 0.4448(5)
H17 H 0.15300 0.56430 0.44190
C24 C 0.1664(5) 0.5004(3) 0.4075(5)
H18 H 0.18940 0.50940 0.37790
N6 N 0.1558(3) 0.4567(2) 0.4140(4)
K1 K 0.3554(1) 0.45764(6) 0.40795(9)
C25 C 0.00000 0.4825(4) 0.25000
H19 H 0.00000 0.512(4) 0.25000
C26 C -0.0264(5) 0.4592(3) 0.2926(6)
H20 H -0.038(4) 0.476(3) 0.312(5)
H21 H -0.04860 0.39630 0.32150
N7 N -0.0289(3) 0.4122(2) 0.2936(4)
C27 C 0.00000 0.3907(3) 0.25000
C28 C 0.00000 0.3389(4) 0.25000
N8 N 0.0309(4) 0.3186(2) 0.2107(5)
C29 C 0.0305(5) 0.2725(3) 0.2150(6)
C30 C 0.0664(6) 0.2487(4) 0.1772(8)
C31 C 0.0716(6) 0.2012(3) 0.1816(8)
H22 H 0.05230 0.18460 0.20930
C32 C 0.1042(9) 0.1802(6) 0.1465(15)
H23 H 0.10400 0.14850 0.14620
C33 C 0.1369(9) 0.2011(7) 0.1118(13)
H24 H 0.16320 0.18440 0.09320
C34 C 0.1322(7) 0.2513(5) 0.1020(8)
H25 H 0.15280 0.26670 0.07460
N9 N 0.0963(6) 0.2740(4) 0.1352(8)
N10 N 0.00000 0.2486(4) 0.25000
O25 O 0.4382(3) 0.6483(2) -0.0156(4)
O26 O 0.50000 0.6349(5) 0.25000
O27 O 0.0389(4) 0.5803(3) 0.1321(5)
O28? O 0.4053(11) 0.3232(5) 0.1124(9)
O29? O 0.2309(9) 0.3523(5) 0.0652(10)
O30? O 0.0856(6) 0.3642(6) 0.1069(11)
O31? O 0.1673(7) 0.6235(5) 0.3443(8)
O32? O -0.0280(8) 0.6029(5) 0.224(1)
C35? C -0.0289(3) 0.4122(2) 0.2936(4)
Cu1E Cu 0.19358(6) 0.59810(3) -0.12689(6)
O15E O 0.2915(3) 0.39992(15) 0.4758(3)
C26A C 0.0264(5) 0.4592(3) 0.2074(6)
H20A H 0.038(4) 0.476(3) 0.188(5)
H21A H 0.04860 0.39630 0.17850
N7A N 0.0289(3) 0.4122(2) 0.2064(4)
N8A N -0.0309(4) 0.3186(2) 0.2893(5)
C29A C -0.0305(5) 0.2725(3) 0.2850(6)
C30A C -0.0664(6) 0.2487(4) 0.3228(8)
C31A C -0.0716(6) 0.2012(3) 0.3184(8)
H22A H -0.05230 0.18460 0.29070
C32A C -0.1042(9) 0.1802(6) 0.3535(15)
H23A H -0.10400 0.14850 0.35380
C33A C -0.1369(9) 0.2011(7) 0.3882(13)
H24A H -0.16320 0.18440 0.40680
C34A C -0.1322(7) 0.2513(5) 0.3980(8)
H25A H -0.15280 0.26670 0.42540
N9A N -0.0963(6) 0.2740(4) 0.3648(8)
#END
