
#######################################################################
#
#                 Cambridge Crystallographic Data Centre
#                                CCDC
#
#######################################################################
#
# If this CIF has been generated from an entry in the Cambridge
# Structural Database, then it will include bibliographic, chemical,
# crystal, experimental, refinement or atomic coordinate data resulting
# from the CCDC's data processing and validation procedures.
#
#######################################################################

data_CSD_CIF_XUCCEG
_audit_creation_date 2020-01-30
_audit_creation_method CSD-ConQuest-V1
_database_code_CSD XUCCEG
_database_code_depnum_ccdc_archive 'CCDC 1915888'
_chemical_formula_sum 'C70 H58 Co2 N14 O1 Se14 Sn6'
_chemical_formula_moiety
;
2(C30 H24 Co1 N6 2+),C10 H8 N2,n(Se7 Sn3 2-),n(Se7 Sn3 2-),H2 O1
;
_journal_coden_Cambridge 211
_journal_volume 72
_journal_year 2019
_journal_page_first 3562
_journal_name_full 'J.Coord.Chem. '
loop_
_publ_author_name
"Shufen Li"
"Zheng Wei"
"Niannian Chen"
"Yan Gao"
"Dingxian Jia"
_chemical_name_systematic
;
catena-[bis(tris(2,2'-bipyridine)-cobalt(ii)) 
heptakis(\m-selenido)-tri-tin(iv) hexakis(\m-selenido)-selenido-tri-tin(iv) 
2,2'-bipyridine monohydrate]
;
_cell_volume   8703.880
_exptl_crystal_colour 'dark red'
_exptl_crystal_density_diffrn 2.339
_exptl_crystal_description 'Prism'
_diffrn_ambient_temperature 293
#These two values have been output from a single CSD field.
_refine_ls_R_factor_gt 0.0422
_refine_ls_wR_factor_gt 0.0422
_symmetry_cell_setting monoclinic
_symmetry_space_group_name_H-M 'P 21/c'
_symmetry_Int_Tables_number 14
loop_
_symmetry_equiv_pos_site_id
_symmetry_equiv_pos_as_xyz
1 x,y,z
2 -x,1/2+y,1/2-z
3 -x,-y,-z
4 x,-1/2-y,-1/2+z
_cell_length_a 27.032(5)
_cell_length_b 13.392(3)
_cell_length_c 24.763(5)
_cell_angle_alpha 90
_cell_angle_beta 103.85(3)
_cell_angle_gamma 90
_cell_formula_units_Z 4
loop_
_atom_type_symbol
_atom_type_radius_bond
C 0.68
H 0.23
Co 1.26
N 0.68
O 0.68
Se 1.22
Sn 1.39
loop_
_atom_site_label
_atom_site_type_symbol
_atom_site_fract_x
_atom_site_fract_y
_atom_site_fract_z
Sn1 Sn 0.38909(9) 0.10202(17) 0.34154(10)
Se1 Se 0.3404(2) 0.0829(4) 0.4109(2)
Se2 Se 0.37321(13) -0.0445(3) 0.27091(16)
Se3 Se 0.37889(13) 0.2751(3) 0.29390(16)
Se4 Se 0.48544(13) 0.1041(3) 0.35760(14)
Sn2 Sn 0.46107(9) -0.03246(17) 0.25135(11)
Sn3 Sn 0.46645(8) 0.25257(16) 0.27425(10)
Se5 Se 0.46653(13) 0.1243(2) 0.19729(13)
Se6 Se 0.54271(14) -0.1091(3) 0.30525(15)
Se7 Se 0.45113(14) -0.1664(3) 0.17174(15)
Sn4 Sn -0.00456(8) 0.31845(15) 0.30290(8)
Sn5 Sn -0.00281(8) 0.59738(14) 0.28398(8)
Sn6 Sn -0.00003(8) 0.49131(14) 0.42513(8)
Se8 Se 0.06929(12) 0.2230(2) 0.28201(13)
Se9 Se -0.06840(12) 0.1736(2) 0.25227(13)
Se10 Se -0.05202(13) 0.4477(2) 0.23340(13)
Se11 Se -0.04069(13) 0.3224(2) 0.38943(14)
Se12 Se -0.03251(14) 0.6516(2) 0.37032(13)
Se13 Se 0.06987(12) 0.4844(3) 0.51333(13)
Se14 Se 0.06294(11) 0.4684(2) 0.35397(12)
Co1 Co 0.34020(16) 0.5955(3) 0.41820(18)
N1 N 0.3931(8) 0.7134(16) 0.4393(12)
N2 N 0.3667(13) 0.617(3) 0.3448(9)
N3 N 0.4003(9) 0.4857(18) 0.4493(10)
N4 N 0.3304(10) 0.586(2) 0.5021(8)
N5 N 0.2769(9) 0.698(2) 0.3872(9)
N6 N 0.2843(10) 0.485(2) 0.3921(9)
C1 C 0.4045(11) 0.757(2) 0.4866(14)
H1 H 0.38970 0.73860 0.51540
C2 C 0.4409(13) 0.834(2) 0.4924(13)
H2 H 0.45220 0.86660 0.52640
C3 C 0.4589(15) 0.861(2) 0.4491(12)
H3 H 0.48100 0.91480 0.45240
C4 C 0.4455(12) 0.811(3) 0.3999(14)
H4 H 0.45980 0.82800 0.37050
C5 C 0.4101(12) 0.733(2) 0.3940(14)
C6 C 0.3974(13) 0.676(3) 0.3401(16)
C7 C 0.4113(13) 0.689(3) 0.2939(13)
H5 H 0.43270 0.74180 0.28990
C8 C 0.3926(14) 0.621(3) 0.2493(12)
H6 H 0.40430 0.62300 0.21690
C9 C 0.3580(14) 0.554(3) 0.2554(18)
H7 H 0.34230 0.51040 0.22730
C10 C 0.3465(10) 0.556(3) 0.313(3)
H8 H 0.32400 0.51060 0.32290
C11 C 0.4303(13) 0.443(4) 0.4260(18)
H9 H 0.42570 0.45000 0.38770
C12 C 0.4675(12) 0.390(3) 0.4535(16)
H10 H 0.49370 0.37060 0.43750
C13 C 0.4675(16) 0.364(4) 0.5067(18)
H11 H 0.48820 0.31120 0.52360
C14 C 0.4374(16) 0.413(3) 0.5361(14)
H12 H 0.44140 0.40440 0.57420
C15 C 0.4012(11) 0.475(2) 0.5055(15)
C16 C 0.3652(15) 0.528(3) 0.5289(15)
C17 C 0.3566(15) 0.519(3) 0.5842(13)
H13 H 0.37950 0.48180 0.61050
C18 C 0.3167(15) 0.563(3) 0.5998(12)
H14 H 0.31370 0.55630 0.63630
C19 C 0.2798(14) 0.617(3) 0.5611(18)
H15 H 0.25120 0.64400 0.57020
C20 C 0.2889(14) 0.628(2) 0.5084(17)
H16 H 0.26680 0.66230 0.47990
C21 C 0.2861(12) 0.788(2) 0.3861(15)
H17 H 0.31870 0.81510 0.39620
C22 C 0.243(2) 0.845(3) 0.3685(13)
H18 H 0.24250 0.91340 0.37500
C23 C 0.202(3) 0.798(6) 0.3421(19)
H19 H 0.17480 0.83680 0.32270
C24 C 0.1954(14) 0.705(6) 0.3406(15)
H20 H 0.16370 0.67730 0.32460
C25 C 0.2405(12) 0.640(3) 0.3655(11)
C26 C 0.2379(11) 0.535(4) 0.3684(14)
C27 C 0.198(2) 0.480(4) 0.356(2)
H21 H 0.16640 0.50970 0.34450
C28 C 0.2026(13) 0.379(5) 0.3594(14)
H22 H 0.17340 0.34030 0.34810
C29 C 0.249(2) 0.332(4) 0.3793(18)
H23 H 0.25250 0.26270 0.38110
C30 C 0.2917(17) 0.397(3) 0.3965(15)
H24 H 0.32430 0.37120 0.41070
Co2 Co 0.17461(16) 0.5430(3) 0.07813(17)
N7 N 0.1552(11) 0.426(2) 0.0152(11)
N8 N 0.1476(13) 0.650(2) 0.0098(10)
N9 N 0.1955(8) 0.6608(14) 0.1345(8)
N10 N 0.2544(8) 0.565(2) 0.0796(12)
N11 N 0.1895(10) 0.4419(15) 0.1489(9)
N12 N 0.0997(7) 0.525(2) 0.0943(11)
C31 C 0.1560(13) 0.338(3) 0.0302(15)
H25 H 0.16810 0.31990 0.06730
C32 C 0.1386(12) 0.269(2) -0.0092(15)
H26 H 0.13970 0.20140 0.00020
C33 C 0.1196(15) 0.297(3) -0.0619(16)
H27 H 0.10750 0.25050 -0.08990
C34 C 0.1186(14) 0.398(2) -0.0730(13)
H28 H 0.10580 0.41680 -0.10980
C35 C 0.1354(10) 0.477(5) -0.0334(12)
C36 C 0.1356(17) 0.592(3) -0.028(3)
C37 C 0.1151(14) 0.626(3) -0.0871(18)
H29 H 0.10650 0.58600 -0.11860
C38 C 0.1117(16) 0.723(3) -0.0851(15)
H30 H 0.09880 0.75620 -0.11840
C39 C 0.1257(16) 0.780(2) -0.0379(13)
H31 H 0.12150 0.84880 -0.03860
C40 C 0.1451(18) 0.732(2) 0.0079(16)
H32 H 0.15730 0.76800 0.04040
C41 C 0.1655(11) 0.697(2) 0.1610(13)
H33 H 0.13240 0.67300 0.15620
C42 C 0.1855(14) 0.778(3) 0.2001(15)
H34 H 0.16450 0.81170 0.21870
C43 C 0.2359(14) 0.801(2) 0.2082(15)
H35 H 0.24930 0.85270 0.23220
C44 C 0.2673(15) 0.750(3) 0.1817(12)
H36 H 0.30220 0.76240 0.18950
C45 C 0.2451(12) 0.6819(18) 0.1441(12)
C46 C 0.2719(11) 0.630(2) 0.1102(13)
C47 C 0.3254(12) 0.637(2) 0.1116(13)
H37 H 0.34450 0.68410 0.13510
C48 C 0.3494(18) 0.581(3) 0.0820(15)
H38 H 0.38480 0.58060 0.08940
C49 C 0.3206(15) 0.523(3) 0.0396(14)
H39 H 0.33430 0.49580 0.01190
C50 C 0.2700(12) 0.507(3) 0.0408(12)
H40 H 0.24880 0.46170 0.01770
C51 C 0.2367(14) 0.417(2) 0.1640(15)
H41 H 0.26230 0.43750 0.14740
C52 C 0.2432(15) 0.350(3) 0.2119(16)
H42 H 0.27530 0.32670 0.23000
C53 C 0.201(2) 0.321(4) 0.2296(17)
H43 H 0.20470 0.27570 0.25880
C54 C 0.1534(17) 0.356(3) 0.2059(15)
H44 H 0.12530 0.33730 0.21890
C55 C 0.1487(12) 0.422(3) 0.1615(11)
C56 C 0.1038(16) 0.463(2) 0.1360(14)
C57 C 0.0578(16) 0.443(3) 0.147(2)
H45 H 0.05550 0.40060 0.17610
C58 C 0.014(2) 0.489(3) 0.115(2)
H46 H -0.01730 0.46740 0.11950
C59 C 0.0134(13) 0.559(3) 0.078(2)
H47 H -0.01560 0.59620 0.06250
C60 C 0.0608(14) 0.574(3) 0.0641(15)
H48 H 0.06410 0.61540 0.03510
N13 N 0.3155(18) 0.190(3) 0.143(2)
N14 N 0.2618(12) 0.102(2) 0.2179(18)
C61 C 0.3353(17) 0.231(4) 0.1028(17)
H49 H 0.36700 0.26210 0.11400
C62 C 0.3131(19) 0.232(3) 0.0484(19)
H50 H 0.32740 0.26080 0.02150
C63 C 0.268(2) 0.185(4) 0.037(2)
H51 H 0.25130 0.18190 -0.00070
C64 C 0.2423(13) 0.143(3) 0.0703(16)
H52 H 0.21170 0.10970 0.05680
C65 C 0.2634(14) 0.151(3) 0.125(2)
C66 C 0.2374(16) 0.103(3) 0.167(2)
C67 C 0.1885(19) 0.074(4) 0.146(2)
H53 H 0.17530 0.07720 0.10820
C68 C 0.159(2) 0.041(4) 0.176(4)
H54 H 0.12550 0.02160 0.16170
C69 C 0.1830(15) 0.038(3) 0.232(2)
H55 H 0.16500 0.01120 0.25660
C70 C 0.233(2) 0.072(2) 0.2547(16)
H56 H 0.24690 0.07490 0.29290
O1 O 0.189(3) 0.006(4) 0.982(3)
O2 O 0.980(4) 0.696(7) 0.979(5)
Sn3A Sn 0.53355(8) -0.24743(16) 0.22575(10)
Se6A Se 0.45729(14) 0.3909(3) 0.19475(15)
Se7A Se 0.54887(14) 0.3336(3) 0.32826(15)
Sn5A Sn 0.00281(8) 0.09738(14) 0.21602(8)
Sn6B Sn 0.00003(8) 0.50869(14) 0.57487(8)
Se8A Se -0.06929(12) 0.7230(2) 0.21799(13)
Se9A Se 0.06840(12) 0.6736(2) 0.24773(13)
Se13B Se -0.06987(12) 0.5156(3) 0.48667(13)
#END
