
#######################################################################
#
#                 Cambridge Crystallographic Data Centre
#                                CCDC
#
#######################################################################
#
# If this CIF has been generated from an entry in the Cambridge
# Structural Database, then it will include bibliographic, chemical,
# crystal, experimental, refinement or atomic coordinate data resulting
# from the CCDC's data processing and validation procedures.
#
#######################################################################

data_CSD_CIF_XUCCIK
_audit_creation_date 2020-01-30
_audit_creation_method CSD-ConQuest-V1
_database_code_CSD XUCCIK
_database_code_depnum_ccdc_archive 'CCDC 1915889'
_chemical_formula_sum 'C70 H58 N14 Ni2 O1 Se14 Sn6'
_chemical_formula_moiety
;
2(C30 H24 N6 Ni1 2+),C10 H8 N2,n(Se7 Sn3 2-),n(Se7 Sn3 2-),H2 O1
;
_journal_coden_Cambridge 211
_journal_volume 72
_journal_year 2019
_journal_page_first 3562
_journal_name_full 'J.Coord.Chem. '
loop_
_publ_author_name
"Shufen Li"
"Zheng Wei"
"Niannian Chen"
"Yan Gao"
"Dingxian Jia"
_chemical_name_systematic
;
catena-[bis(tris(2,2'-bipyridine)-nickel(ii)) 
heptakis(\m-selenido)-tri-tin(iv) hexakis(\m-selenido)-selenido-tri-tin(iv) 
2,2'-bipyridine monohydrate]
;
_cell_volume   8668.728
_exptl_crystal_colour 'dark red'
_exptl_crystal_density_diffrn 2.348
_exptl_crystal_description 'Block'
_diffrn_ambient_temperature 293
#These two values have been output from a single CSD field.
_refine_ls_R_factor_gt 0.0408
_refine_ls_wR_factor_gt 0.0408
_symmetry_cell_setting monoclinic
_symmetry_space_group_name_H-M 'P 21/c'
_symmetry_Int_Tables_number 14
loop_
_symmetry_equiv_pos_site_id
_symmetry_equiv_pos_as_xyz
1 x,y,z
2 -x,1/2+y,1/2-z
3 -x,-y,-z
4 x,-1/2-y,-1/2+z
_cell_length_a 26.999(5)
_cell_length_b 13.383(3)
_cell_length_c 24.714(5)
_cell_angle_alpha 90
_cell_angle_beta 103.89(3)
_cell_angle_gamma 90
_cell_formula_units_Z 4
loop_
_atom_type_symbol
_atom_type_radius_bond
C 0.68
H 0.23
N 0.68
Ni 1.24
O 0.68
Se 1.22
Sn 1.39
loop_
_atom_site_label
_atom_site_type_symbol
_atom_site_fract_x
_atom_site_fract_y
_atom_site_fract_z
Sn1 Sn 0.50460(4) 0.81856(6) 0.19722(4)
Se1 Se 0.43710(5) 0.96824(9) 0.14634(5)
Se2 Se 0.55198(6) 0.9476(1) 0.26670(6)
Se3 Se 0.54066(6) 0.82256(10) 0.11075(6)
Se4 Se 0.56839(5) 0.67355(10) 0.24783(6)
Se5 Se 0.43072(6) 0.72296(10) 0.21793(6)
Sn2 Sn 0.50285(4) 1.09721(6) 0.21610(4)
Sn3 Sn 0.50005(4) 0.99120(6) 0.07489(3)
Se6 Se 0.53266(6) 1.15129(10) 0.12975(6)
Se7 Se 0.56979(6) 1.01567(11) 0.01317(6)
Sn4 Sn 0.11134(4) 0.60194(8) 0.15880(4)
Sn5 Sn 0.03350(4) 0.75244(7) 0.22567(4)
Sn6 Sn -0.03901(4) 0.96713(7) 0.25113(5)
Se8 Se 0.12103(6) 0.77493(11) 0.20583(7)
Se9 Se 0.01480(6) 0.60370(11) 0.14254(6)
Se10 Se 0.15972(10) 0.5830(2) 0.08929(9)
Se11 Se 0.12684(6) 0.45534(11) 0.22935(7)
Se12 Se -0.04898(6) 0.83318(11) 0.17139(7)
Se13 Se 0.04270(6) 0.89088(11) 0.30542(7)
Se14 Se 0.03351(6) 0.62418(10) 0.30266(6)
Ni1 Ni 0.67428(8) 0.54282(14) 0.07837(8)
N1 N 0.7510(5) 0.5560(9) 0.0734(5)
N2 N 0.6960(5) 0.6600(8) 0.1339(4)
N3 N 0.6903(5) 0.4449(9) 0.1450(5)
N4 N 0.6000(4) 0.5292(9) 0.0919(5)
N5 N 0.6544(5) 0.4278(10) 0.0187(5)
N6 N 0.6494(5) 0.6340(9) 0.0080(5)
C1 C 0.7698(7) 0.5026(13) 0.0410(7)
H1 H 0.74970 0.45730 0.01690
C2 C 0.8210(7) 0.5133(15) 0.0425(8)
H2 H 0.83570 0.47490 0.01910
C3 C 0.8505(7) 0.5812(14) 0.0787(8)
H3 H 0.88530 0.58760 0.08150
C4 C 0.8256(6) 0.6395(12) 0.1109(7)
H4 H 0.84360 0.68890 0.13390
C5 C 0.7737(6) 0.6242(10) 0.1088(6)
C6 C 0.7449(5) 0.6788(9) 0.1417(5)
C7 C 0.7668(6) 0.7495(11) 0.1818(6)
H5 H 0.80140 0.76410 0.18940
C8 C 0.7344(7) 0.7977(12) 0.2102(7)
H6 H 0.74750 0.84460 0.23770
C9 C 0.6838(7) 0.7757(11) 0.1976(7)
H7 H 0.66180 0.81010 0.21470
C10 C 0.6651(6) 0.7012(11) 0.1586(6)
H8 H 0.63100 0.68210 0.15100
C11 C 0.7358(6) 0.4132(11) 0.1665(6)
H9 H 0.76300 0.43480 0.15250
C12 C 0.7438(9) 0.3467(13) 0.2105(7)
H10 H 0.77630 0.32280 0.22670
C13 C 0.7018(11) 0.3164(15) 0.2299(8)
H11 H 0.70550 0.27090 0.25910
C14 C 0.6545(9) 0.3554(13) 0.2049(8)
H12 H 0.62590 0.33730 0.21740
C15 C 0.6501(6) 0.4223(11) 0.1608(7)
C16 C 0.6023(6) 0.4671(10) 0.1324(6)
C17 C 0.5562(8) 0.4467(15) 0.1452(8)
H13 H 0.55540 0.40340 0.17440
C18 C 0.5122(8) 0.4886(17) 0.1161(9)
H14 H 0.48150 0.47440 0.12520
C19 C 0.5135(6) 0.5539(16) 0.0716(8)
H15 H 0.48380 0.58340 0.05070
C20 C 0.5610(6) 0.5725(13) 0.0602(7)
H16 H 0.56430 0.61410 0.03110
C21 C 0.6567(7) 0.3349(11) 0.0318(7)
H17 H 0.67010 0.31410 0.06830
C22 C 0.6387(6) 0.2677(13) -0.0099(8)
H18 H 0.63900 0.19980 -0.00200
C23 C 0.6206(7) 0.3000(15) -0.0622(8)
H19 H 0.60830 0.25410 -0.09050
C24 C 0.6200(7) 0.3993(12) -0.0744(7)
H20 H 0.60810 0.42180 -0.11080
C25 C 0.6378(6) 0.4670(11) -0.0304(5)
C26 C 0.6341(6) 0.5763(12) -0.0364(6)
C27 C 0.6134(6) 0.6271(13) -0.0855(7)
H21 H 0.60310 0.59160 -0.11870
C28 C 0.6082(7) 0.7259(15) -0.0858(7)
H22 H 0.59290 0.75870 -0.11880
C29 C 0.6254(8) 0.7795(13) -0.0379(8)
H23 H 0.62240 0.84880 -0.03770
C30 C 0.6475(7) 0.727(1) 0.0111(7)
H24 H 0.66030 0.76020 0.04460
Ni2 Ni 0.84042(8) 0.59535(15) 0.41832(8)
N7 N 0.7837(5) 0.4856(10) 0.3913(5)
N8 N 0.7799(5) 0.6932(11) 0.3871(5)
N9 N 0.8599(5) 0.6030(9) 0.3423(5)
N10 N 0.8929(4) 0.7123(8) 0.4374(5)
N11 N 0.8980(5) 0.4930(9) 0.4523(5)
N12 N 0.8266(5) 0.5879(9) 0.4976(4)
C31 C 0.7920(7) 0.3914(12) 0.3969(7)
H25 H 0.82450 0.36580 0.41130
C32 C 0.7510(9) 0.3312(16) 0.3809(8)
H26 H 0.75510 0.26230 0.38390
C33 C 0.7032(9) 0.371(2) 0.3602(9)
H27 H 0.67490 0.32940 0.35040
C34 C 0.6977(7) 0.4706(19) 0.3544(8)
H28 H 0.66570 0.49820 0.33940
C35 C 0.7401(6) 0.5321(14) 0.3709(6)
C36 C 0.7381(5) 0.6404(14) 0.3668(6)
C37 C 0.6951(7) 0.698(2) 0.3414(8)
H29 H 0.66450 0.66640 0.32510
C38 C 0.6975(8) 0.799(2) 0.3403(8)
H30 H 0.66890 0.83660 0.32410
C39 C 0.7425(9) 0.8434(16) 0.3636(8)
H31 H 0.74480 0.91270 0.36330
C40 C 0.7855(6) 0.7876(12) 0.3879(7)
H32 H 0.81670 0.81760 0.40380
C41 C 0.8421(6) 0.5418(11) 0.3026(6)
H33 H 0.81840 0.49330 0.30610
C42 C 0.8590(7) 0.5496(12) 0.2543(6)
H34 H 0.84760 0.50580 0.22480
C43 C 0.8931(6) 0.6235(11) 0.2512(6)
H35 H 0.90510 0.63010 0.21910
C44 C 0.9101(6) 0.6889(11) 0.2954(6)
H36 H 0.93290 0.73990 0.29310
C45 C 0.8922(6) 0.6762(9) 0.3422(6)
C46 C 0.9092(5) 0.7345(12) 0.3928(6)
C47 C 0.9437(6) 0.8142(11) 0.3986(7)
H37 H 0.95670 0.83390 0.36870
C48 C 0.9580(6) 0.8625(13) 0.4482(7)
H38 H 0.98070 0.91570 0.45210
C49 C 0.9394(6) 0.8338(12) 0.4926(7)
H39 H 0.94880 0.86720 0.52650
C50 C 0.9061(6) 0.7533(11) 0.4856(6)
H40 H 0.89370 0.72970 0.51510
C51 C 0.9261(6) 0.4539(13) 0.4241(7)
H41 H 0.92170 0.46940 0.38660
C52 C 0.9637(7) 0.3875(14) 0.4500(8)
H42 H 0.98470 0.35640 0.43040
C53 C 0.9688(8) 0.3692(17) 0.5059(9)
H43 H 0.99370 0.32530 0.52480
C54 C 0.9373(7) 0.4156(14) 0.5336(8)
H44 H 0.94100 0.40370 0.57140
C55 C 0.8995(6) 0.4805(11) 0.5057(6)
C56 C 0.8626(5) 0.5287(10) 0.5299(6)
C57 C 0.8585(6) 0.5163(11) 0.5843(6)
H45 H 0.88230 0.47750 0.60890
C58 C 0.8194(7) 0.5612(12) 0.6017(6)
H46 H 0.81700 0.55420 0.63850
C59 C 0.7832(8) 0.6172(13) 0.5643(7)
H47 H 0.75570 0.64580 0.57510
C60 C 0.7890(6) 0.6292(12) 0.5110(7)
H48 H 0.76580 0.66700 0.48510
N13 N 0.7422(6) 0.3563(13) 0.5703(7)
N14 N 0.6853(8) 0.4283(16) 0.6442(10)
C61 C 0.7658(9) 0.3165(18) 0.5350(9)
H49 H 0.74980 0.31970 0.49730
C62 C 0.8122(10) 0.2706(16) 0.5498(9)
H50 H 0.82710 0.24310 0.52300
C63 C 0.8362(8) 0.2660(15) 0.6047(9)
H51 H 0.86770 0.23450 0.61650
C64 C 0.8131(7) 0.3085(13) 0.6417(8)
H52 H 0.82970 0.30930 0.67930
C65 C 0.7649(7) 0.3511(12) 0.6246(8)
C66 C 0.7365(7) 0.3925(12) 0.6657(10)
C67 C 0.7605(6) 0.3954(11) 0.7170(7)
H53 H 0.79440 0.37480 0.72780
C68 C 0.7369(8) 0.4278(14) 0.7541(9)
H54 H 0.75460 0.42810 0.79140
C69 C 0.6872(9) 0.4614(15) 0.7407(11)
H55 H 0.67130 0.48280 0.76810
C70 C 0.6622(9) 0.4619(17) 0.6856(12)
H56 H 0.62890 0.48540 0.67550
O1 O 0.6888(12) 0.002(2) 0.9814(17)
O2 O 0.4786(17) 0.697(2) 0.9798(13)
Sn2A Sn 0.49715(4) 0.59721(6) 0.28390(4)
Se4A Se 0.43161(5) 1.17355(10) 0.25217(6)
Se5A Se 0.56928(6) 1.22296(10) 0.28207(6)
Se7B Se 0.43021(6) 0.98433(11) -0.01317(6)
Sn3B Sn 0.49995(4) 1.00880(6) -0.07489(3)
Sn6A Sn 0.03901(4) 0.46713(7) 0.24887(5)
Se13A Se -0.04270(6) 0.39088(11) 0.19458(7)
Se12A Se 0.04898(6) 0.33318(11) 0.32861(7)
#END
