
#######################################################################
#
#                 Cambridge Crystallographic Data Centre
#                                CCDC
#
#######################################################################
#
# If this CIF has been generated from an entry in the Cambridge
# Structural Database, then it will include bibliographic, chemical,
# crystal, experimental, refinement or atomic coordinate data resulting
# from the CCDC's data processing and validation procedures.
#
#######################################################################

data_CSD_CIF_XUDYOM
_audit_creation_date 2015-04-07
_audit_creation_method CSD-ConQuest-V1
_database_code_CSD XUDYOM
_database_code_depnum_ccdc_archive 'CCDC 1039314'
_chemical_formula_sum 'C30 H42 In4 N8 O32'
_chemical_formula_moiety
;
(C20 H8 In4 N4 O28 2-)n,2n(C3 H7 N1 O1),2n(C2 H8 N1 1+),2n(H2 O1)
;
_journal_coden_Cambridge 1295
_journal_volume 54
_journal_year 2015
_journal_page_first 63
_journal_name_full 'Inorg.Chem.Commun. '
loop_
_publ_author_name
"K.Tomar"
_chemical_name_systematic
;
catena-[bis(dimethylammonium) 
heptakis(\m-oxalato)-bis(1H-imidazole)-tetra-indium N,N-dimethylformamide 
solvate dihydrate]
;
_cell_volume   4922.790
_exptl_crystal_colour 'colorless'
_exptl_crystal_density_diffrn 1.997
_exptl_crystal_description 'needle'
_diffrn_ambient_temperature 293
#These two values have been output from a single CSD field.
_refine_ls_R_factor_gt 0.0336
_refine_ls_wR_factor_gt 0.0336
_symmetry_cell_setting orthorhombic
_symmetry_space_group_name_H-M 'P b c a'
_symmetry_Int_Tables_number 61
loop_
_symmetry_equiv_pos_site_id
_symmetry_equiv_pos_as_xyz
1 x,y,z
2 1/2-x,-y,1/2+z
3 1/2+x,1/2-y,-z
4 -x,1/2+y,1/2-z
5 -x,-y,-z
6 -1/2+x,y,-1/2-z
7 -1/2-x,-1/2+y,z
8 x,-1/2-y,-1/2+z
_cell_length_a 9.3366(14)
_cell_length_b 21.917(3)
_cell_length_c 24.057(4)
_cell_angle_alpha 90
_cell_angle_beta 90
_cell_angle_gamma 90
_cell_formula_units_Z 4
loop_
_atom_type_symbol
_atom_type_radius_bond
C 0.68
H 0.23
In 1.42
N 0.68
O 0.68
loop_
_atom_site_label
_atom_site_type_symbol
_atom_site_fract_x
_atom_site_fract_y
_atom_site_fract_z
In1 In 0.15952(7) 0.10985(3) 0.02502(2)
In2 In -0.17554(7) 0.26398(3) 0.17820(2)
O1 O -0.0343(6) 0.1125(2) 0.0767(2)
O2 O 0.1756(7) 0.1959(2) 0.0798(2)
O3 O 0.0374(6) 0.2546(2) 0.1335(2)
O4 O -0.1624(6) 0.1693(2) 0.1348(2)
O5 O -0.1452(6) -0.0112(2) -0.0443(2)
O6 O -0.0078(6) 0.0707(2) -0.0331(2)
O7 O -0.0653(7) 0.2096(2) 0.2426(2)
O8 O -0.0167(6) 0.3284(2) 0.2237(2)
O9 O 0.1844(6) 0.3240(2) 0.2743(2)
O10 O 0.1402(7) 0.2045(2) 0.2909(2)
O11 O -0.3364(6) 0.2653(2) 0.1078(2)
O12 O -0.1443(6) 0.3522(2) 0.1284(2)
O13 O -0.2055(6) 0.4008(2) 0.0505(2)
O14 O -0.3962(7) 0.3115(2) 0.0280(2)
N1 N 0.3681(8) 0.0983(3) 0.0644(3)
N2 N 0.5827(10) 0.1152(3) 0.0999(3)
C1 C -0.0554(11) 0.1589(4) 0.1058(3)
C2 C 0.0652(11) 0.2070(4) 0.1060(4)
C3 C -0.0428(11) 0.0171(4) -0.0218(3)
C4 C 0.0474(12) 0.2316(4) 0.2632(3)
C5 C 0.0732(11) 0.3010(4) 0.2519(3)
C6 C -0.3258(10) 0.3074(4) 0.0723(4)
C7 C -0.2155(10) 0.3581(4) 0.0847(4)
C8 C 0.4510(11) 0.0466(4) 0.0584(4)
H1 H 0.42130 0.01010 0.04240
C9 C 0.4541(12) 0.1379(4) 0.0896(4)
H2 H 0.42690 0.17740 0.09900
C10 C 0.5826(12) 0.0576(4) 0.0796(4)
H3 H 0.65930 0.03050 0.08020
O15 O 0.1836(14) 0.4764(4) 0.1724(4)
N3 N 0.137(3) 0.5130(6) 0.2624(7)
C11 C 0.154(2) 0.4704(6) 0.2208(7)
H4 H 0.14170 0.43020 0.23210
C12 C 0.089(4) 0.4942(9) 0.3212(7)
H5 H 0.04210 0.45530 0.31960
H6 H 0.02460 0.52420 0.33570
H7 H 0.17180 0.49130 0.34490
C13 C 0.233(7) 0.5724(8) 0.2383(15)
H8 H 0.32870 0.55940 0.23060
H9 H 0.23410 0.60420 0.26570
H10 H 0.18930 0.58750 0.20480
O16 O 0.384(2) 0.2464(11) -0.0075(10)
N4 N 0.1829(9) 0.3707(3) 0.1172(3)
H11 H 0.17950 0.40970 0.12900
H12 H 0.11010 0.35050 0.13340
C14 C 0.1629(11) 0.3694(5) 0.0552(4)
H13 H 0.24140 0.39010 0.03760
H14 H 0.07480 0.38940 0.04570
H15 H 0.15970 0.32780 0.04270
C15 C 0.3203(11) 0.3431(5) 0.1352(4)
H16 H 0.32490 0.30160 0.12250
H17 H 0.32630 0.34400 0.17500
H18 H 0.39850 0.36580 0.11960
O6D O 0.0078(6) -0.0707(2) 0.0331(2)
C3D C 0.0428(11) -0.0171(4) 0.0218(3)
O5D O 0.1452(6) 0.0112(2) 0.0443(2)
In1D In -0.15952(7) -0.10985(3) -0.02502(2)
In2D In 0.17554(7) -0.26398(3) -0.17820(2)
O1D O 0.0343(6) -0.1125(2) -0.0767(2)
O2D O -0.1756(7) -0.1959(2) -0.0798(2)
O3D O -0.0374(6) -0.2546(2) -0.1335(2)
O4D O 0.1624(6) -0.1693(2) -0.1348(2)
O7D O 0.0653(7) -0.2096(2) -0.2426(2)
O8D O 0.0167(6) -0.3284(2) -0.2237(2)
O9D O -0.1844(6) -0.3240(2) -0.2743(2)
O10D O -0.1402(7) -0.2045(2) -0.2909(2)
O11D O 0.3364(6) -0.2653(2) -0.1078(2)
O12D O 0.1443(6) -0.3522(2) -0.1284(2)
O13D O 0.2055(6) -0.4008(2) -0.0505(2)
O14D O 0.3962(7) -0.3115(2) -0.0280(2)
N1D N -0.3681(8) -0.0983(3) -0.0644(3)
N2D N -0.5827(10) -0.1152(3) -0.0999(3)
C1D C 0.0554(11) -0.1589(4) -0.1058(3)
C2D C -0.0652(11) -0.2070(4) -0.1060(4)
C4D C -0.0474(12) -0.2316(4) -0.2632(3)
C5D C -0.0732(11) -0.3010(4) -0.2519(3)
C6D C 0.3258(10) -0.3074(4) -0.0723(4)
C7D C 0.2155(10) -0.3581(4) -0.0847(4)
C8D C -0.4510(11) -0.0466(4) -0.0584(4)
H1D H -0.42130 -0.01010 -0.04240
C9D C -0.4541(12) -0.1379(4) -0.0896(4)
H2D H -0.42690 -0.17740 -0.09900
C10D C -0.5826(12) -0.0576(4) -0.0796(4)
H3D H -0.65930 -0.03050 -0.08020
In1B In -0.34048(7) 0.39015(3) -0.02502(2)
In1F In 0.34048(7) -0.39015(3) 0.02502(2)
In2A In -0.32446(7) -0.26398(3) -0.32180(2)
In2E In 0.32446(7) 0.26398(3) 0.32180(2)
O9A O 0.3156(6) -0.3240(2) -0.2257(2)
O9E O -0.3156(6) 0.3240(2) 0.2257(2)
O10A O 0.3598(7) -0.2045(2) -0.2091(2)
O10E O -0.3598(7) 0.2045(2) 0.2091(2)
O13B O 0.2945(6) 0.0992(2) -0.0505(2)
O13F O -0.2945(6) -0.0992(2) 0.0505(2)
O14B O 0.1038(7) 0.1885(2) -0.0280(2)
O14F O -0.1038(7) -0.1885(2) 0.0280(2)
#END
