
#######################################################################
#
#                 Cambridge Crystallographic Data Centre
#                                CCDC
#
#######################################################################
#
# If this CIF has been generated from an entry in the Cambridge
# Structural Database, then it will include bibliographic, chemical,
# crystal, experimental, refinement or atomic coordinate data resulting
# from the CCDC's data processing and validation procedures.
#
#######################################################################

data_CSD_CIF_XUFGUB
_audit_creation_date 2010-03-19
_audit_creation_method CSD-ConQuest-V1
_database_code_CSD XUFGUB
_database_code_depnum_ccdc_archive 'CCDC 681466'
_chemical_formula_sum 'C46 H46 Cd3 N6 O22 S2'
_chemical_formula_moiety
;
(C22 H26 Cd2 N4 O8 2+)n,n(C24 H20 Cd1 N2 O14 S2 2-)
;
_journal_coden_Cambridge 155
_journal_volume 362
_journal_year 2009
_journal_page_first 2962
_journal_name_full 'Inorg.Chim.Acta '
loop_
_publ_author_name
"Sai-Rong Fan"
"Long-Guan Zhu"
_chemical_name_systematic
;
catena-(bis(\m~2~-4,4'-Bipyridine-N,N')-bis(\m~2~-formato-O,O')-tetra-aqua-di-
cadmium(ii) (\m~2~-4,4'-bipyridine-N,N')-diaqua-(hydrogen 
5-sulfonatosalicylato-O)-cadmium(ii))
;
_cell_volume   5130.272
_exptl_crystal_colour 'yellow'
_exptl_crystal_density_diffrn 1.859
_exptl_special_details
;
fluorescent
isostructural with the manganese analogue

;
_exptl_crystal_description 'block'
_diffrn_ambient_temperature 295
#These two values have been output from a single CSD field.
_refine_ls_R_factor_gt 0.0274
_refine_ls_wR_factor_gt 0.0274
_symmetry_cell_setting monoclinic
_symmetry_space_group_name_H-M 'C 2/c'
_symmetry_Int_Tables_number 15
loop_
_symmetry_equiv_pos_site_id
_symmetry_equiv_pos_as_xyz
1 x,y,z
2 -x,y,1/2-z
3 1/2+x,1/2+y,z
4 1/2-x,1/2+y,1/2-z
5 -x,-y,-z
6 x,-y,-1/2+z
7 -1/2-x,-1/2-y,-z
8 -1/2+x,-1/2-y,-1/2+z
_cell_length_a 20.3392(16)
_cell_length_b 11.6485(9)
_cell_length_c 21.6631(17)
_cell_angle_alpha 90
_cell_angle_beta 91.668(1)
_cell_angle_gamma 90
_cell_formula_units_Z 4
loop_
_atom_type_symbol
_atom_type_radius_bond
C 0.68
H 0.23
Cd 1.44
N 0.68
O 0.68
S 1.02
loop_
_atom_site_label
_atom_site_type_symbol
_atom_site_fract_x
_atom_site_fract_y
_atom_site_fract_z
C1 C 0.49264(13) 0.5403(2) 0.90879(12)
C2 C 1.00000 0.0388(3) 0.75000
H1 H 0.9454(13) -0.524(3) 0.6410(11)
H2 H 0.8911(12) -0.573(2) 0.6655(14)
H3 H 0.8367(11) 0.419(3) 0.8276(13)
H4 H 0.7885(14) 0.381(3) 0.7877(7)
H5 H 0.7336(17) 0.0714(10) 0.8260(14)
H6 H 0.7528(16) 0.156(2) 0.7871(10)
Cd1 Cd 1.00000 -0.52742(2) 0.75000
S1 S 0.72398(4) -0.21087(7) 0.83073(3)
Cd2 Cd 0.773106(10) 0.255846(18) 0.904957(10)
O1 O 0.92210(9) -0.50530(17) 0.82577(10)
N1 N 1.00000 0.2781(2) 0.75000
O2 O 0.91987(11) -0.5210(2) 0.67103(12)
O3 O 0.80266(11) 0.3773(2) 0.82474(9)
O4 O 0.70998(11) -0.3068(2) 0.79032(11)
O5 O 0.82618(12) 0.3946(2) 0.96109(11)
O6 O 0.66778(12) -0.1885(3) 0.86966(12)
C3 C 0.93468(14) -0.4546(2) 0.87639(15)
O7 O 0.98564(12) -0.4712(2) 0.90901(13)
C4 C 0.94410(13) 0.2189(2) 0.75365(13)
H7 H 0.90480 0.25930 0.75650
O8 O 0.74589(14) -0.1119(2) 0.79786(12)
O9 O 0.94284(12) -0.3509(2) 0.99738(11)
H8 H 0.96680 -0.39760 0.98080
N2 N 0.37392(11) 0.6620(2) 0.90578(12)
C5 C 0.55560(13) 0.4759(2) 0.90922(12)
N3 N 0.67325(12) 0.3516(2) 0.90566(12)
C6 C 0.78939(14) -0.2544(2) 0.88073(13)
C7 C 0.89335(14) -0.3213(2) 0.95791(13)
C8 C 0.67090(14) 0.4632(3) 0.89177(14)
H9 H 0.70960 0.49950 0.88090
C9 C 1.00000 -0.0893(3) 0.75000
C10 C 0.94479(15) -0.2700(2) 0.73846(15)
H10 H 0.90610 -0.31000 0.72970
C11 C 0.94189(13) 0.1007(2) 0.75343(13)
H11 H 0.90180 0.06270 0.75560
O10 O 0.76288(13) 0.3976(3) 1.04184(14)
C12 C 0.88658(13) -0.3687(2) 0.89873(13)
O11 O 0.73329(14) 0.1438(2) 0.82071(12)
C13 C 0.83394(13) -0.3342(2) 0.86057(13)
H12 H 0.82880 -0.36530 0.82120
C14 C 0.61405(13) 0.5275(2) 0.89272(13)
H13 H 0.61480 0.60490 0.88240
C15 C 0.43160(15) 0.7157(3) 0.91205(15)
H14 H 0.43160 0.79520 0.91570
C16 C 0.79631(15) -0.2080(3) 0.93945(13)
H15 H 0.76640 -0.15370 0.95280
C17 C 0.84756(16) -0.2424(3) 0.97798(14)
H16 H 0.85150 -0.21260 1.01770
N4 N 1.00000 -0.3299(3) 0.75000
C18 C 0.61711(15) 0.3020(3) 0.92151(16)
H17 H 0.61780 0.22420 0.93110
C19 C 0.80531(16) 0.4333(3) 1.00889(15)
H18 H 0.82520 0.50120 1.02220
C20 C 0.94270(14) -0.1518(2) 0.73890(14)
H19 H 0.90300 -0.11390 0.73180
C21 C 0.55812(14) 0.3597(3) 0.92439(15)
H20 H 0.52040 0.32150 0.93630
C22 C 0.43235(15) 0.4849(3) 0.90207(16)
H21 H 0.43070 0.40530 0.89860
C23 C 0.49141(14) 0.6591(3) 0.91343(14)
H22 H 0.53050 0.70030 0.91740
C24 C 0.37534(15) 0.5478(3) 0.90062(17)
H23 H 0.33560 0.50890 0.89580
C1F C 1.00736(13) -0.0403(2) 1.09121(12)
H1A H 1.0546(13) -0.524(3) 0.8590(11)
H2A H 1.1089(12) -0.573(2) 0.8345(14)
H3F H 0.6633(11) 0.081(3) 1.1724(13)
H4F H 0.7115(14) 0.119(3) 1.2123(7)
H5F H 0.7664(17) 0.4286(10) 1.1740(14)
H6F H 0.7472(16) 0.344(2) 1.2129(10)
Cd1* Cd 1.00000 0.47258(2) 0.75000
S1A S 1.27602(4) -0.21087(7) 0.66927(3)
Cd2F Cd 0.726894(10) 0.244154(18) 1.095043(10)
Cd2B Cd 0.273106(10) 0.755846(18) 0.904957(10)
Cd2D Cd 1.226894(10) -0.255846(18) 1.095043(10)
O1A O 1.07790(9) -0.50530(17) 0.67423(10)
N1* N 1.00000 -0.7219(2) 0.75000
O2A O 1.08013(11) -0.5210(2) 0.82897(12)
O3F O 0.69734(11) 0.1227(2) 1.17526(9)
O4A O 1.29002(11) -0.3068(2) 0.70968(11)
O5F O 0.67382(12) 0.1054(2) 1.03891(11)
O6A O 1.33222(12) -0.1885(3) 0.63034(12)
C3A C 1.06532(14) -0.4546(2) 0.62361(15)
O7A O 1.01436(12) -0.4712(2) 0.59099(13)
C4A C 1.05590(13) 0.2189(2) 0.74635(13)
H7A H 1.09520 0.25930 0.74350
O8A O 1.25411(14) -0.1119(2) 0.70214(12)
O9A O 1.05716(12) -0.3509(2) 0.50262(11)
H8A H 1.03320 -0.39760 0.51920
N2B N 0.87392(11) 0.1620(2) 0.90578(12)
N2D N 0.62608(11) 0.3380(2) 1.09422(12)
N2F N 1.12608(11) -0.1620(2) 1.09422(12)
C5F C 0.94440(13) 0.0241(2) 1.09078(12)
N3F N 0.82675(12) 0.1484(2) 1.09434(12)
C6A C 1.21061(14) -0.2544(2) 0.61927(13)
C7A C 1.10665(14) -0.3213(2) 0.54209(13)
C8F C 0.82910(14) 0.0368(3) 1.10823(14)
H9F H 0.79040 0.00050 1.11910
C10A C 1.05521(15) -0.2700(2) 0.76154(15)
H10A H 1.09390 -0.31000 0.77030
C11A C 1.05811(13) 0.1007(2) 0.74657(13)
H11A H 1.09820 0.06270 0.74440
O10F O 0.73712(13) 0.1024(3) 0.95816(14)
C12A C 1.11342(13) -0.3687(2) 0.60127(13)
O11F O 0.76671(14) 0.3562(2) 1.17929(12)
C13A C 1.16606(13) -0.3342(2) 0.63943(13)
H12A H 1.17120 -0.36530 0.67880
C14F C 0.88595(13) -0.0275(2) 1.10728(13)
H13F H 0.88520 -0.10490 1.11760
C15F C 1.06840(15) -0.2157(3) 1.08795(15)
H14F H 1.06840 -0.29520 1.08430
C16A C 1.20369(15) -0.2080(3) 0.56055(13)
H15A H 1.23360 -0.15370 0.54720
C17A C 1.15244(16) -0.2424(3) 0.52202(14)
H16A H 1.14850 -0.21260 0.48230
C18F C 0.88289(15) 0.1980(3) 1.07849(16)
H17F H 0.88220 0.27580 1.06890
C19F C 0.69469(16) 0.0667(3) 0.99111(15)
H18F H 0.67480 -0.00120 0.97780
C20A C 1.05730(14) -0.1518(2) 0.76110(14)
H19A H 1.09700 -0.11390 0.76820
C21F C 0.94188(14) 0.1403(3) 1.07561(15)
H20F H 0.97960 0.17850 1.06370
C22F C 1.06765(15) 0.0151(3) 1.09793(16)
H21F H 1.06930 0.09470 1.10140
C23F C 1.00859(14) -0.1591(3) 1.08657(14)
H22F H 0.96950 -0.20030 1.08260
C24F C 1.12466(15) -0.0478(3) 1.09938(17)
H23F H 1.16440 -0.00890 1.10420
#END
