
#######################################################################
#
#                 Cambridge Crystallographic Data Centre
#                                CCDC
#
#######################################################################
#
# If this CIF has been generated from an entry in the Cambridge
# Structural Database, then it will include bibliographic, chemical,
# crystal, experimental, refinement or atomic coordinate data resulting
# from the CCDC's data processing and validation procedures.
#
#######################################################################

data_CSD_CIF_XUFGUB01
_audit_creation_date 2010-10-03
_audit_creation_method CSD-ConQuest-V1
_database_code_CSD XUFGUB01
_database_code_depnum_ccdc_archive 'CCDC 715306'
_chemical_formula_sum 'C46 H46 Cd3 N6 O22 S2'
_chemical_formula_moiety
;
(C24 H20 Cd1 N2 O14 S2 1-)n,n(C22 H26 Cd2 N4 O8 1+)
;
_journal_coden_Cambridge 208
_journal_volume 182
_journal_year 2009
_journal_page_first 3162
_journal_name_full 'J.Solid State Chem. '
loop_
_publ_author_name
"Chun-Feng Yan"
"Fei-Long Jiang"
"Lian Chen"
"Rui Feng"
"Ming Yang"
"Mao-Chun Hong"
_chemical_name_systematic
;
catena-(bis(\m~2~-4,4'-Bipyridine)-bis(\m~2~-formato)-tetraaqua-di-cadmium(ii)
 
(\m~2~-4,4'-bipyridine)-bis(3-carboxy-4-hydroxybenzenesulfonate)-diaqua-cadmiu
m(ii))
;
_cell_volume   5113.043
_exptl_crystal_colour 'yellow'
_exptl_crystal_density_diffrn 1.866
_exptl_crystal_description 'block'
_diffrn_ambient_temperature 293
#These two values have been output from a single CSD field.
_refine_ls_R_factor_gt 0.0462
_refine_ls_wR_factor_gt 0.0462
_symmetry_cell_setting monoclinic
_symmetry_space_group_name_H-M 'C 2/c'
_symmetry_Int_Tables_number 15
loop_
_symmetry_equiv_pos_site_id
_symmetry_equiv_pos_as_xyz
1 x,y,z
2 -x,y,1/2-z
3 1/2+x,1/2+y,z
4 1/2-x,1/2+y,1/2-z
5 -x,-y,-z
6 x,-y,-1/2+z
7 -1/2-x,-1/2-y,-z
8 -1/2+x,-1/2-y,-1/2+z
_cell_length_a 20.329(12)
_cell_length_b 11.645(7)
_cell_length_c 21.606(12)
_cell_angle_alpha 90
_cell_angle_beta 91.508(11)
_cell_angle_gamma 90
_cell_formula_units_Z 4
loop_
_atom_type_symbol
_atom_type_radius_bond
C 0.68
H 0.23
Cd 1.44
N 0.68
O 0.68
S 1.02
loop_
_atom_site_label
_atom_site_type_symbol
_atom_site_fract_x
_atom_site_fract_y
_atom_site_fract_z
Cd1 Cd 0.00000 0.97259(3) 0.25000
O1 O 0.33204(18) 1.3116(4) 0.13070(17)
N1 N 0.00000 0.7784(4) 0.25000
C1 C 0.2103(2) 1.2461(3) 0.11942(18)
O2 O 0.2537(2) 1.3879(3) 0.20199(18)
N2 N 0.00000 0.1692(4) 0.25000
C2 C 0.2033(2) 1.2923(4) 0.06020(19)
H1 H 0.23310 1.34680 0.04670
S1 S 0.27583(6) 1.28932(11) 0.16939(5)
O3 O 0.28991(16) 1.1935(3) 0.20990(15)
C3 C 0.1527(2) 1.2574(4) 0.0219(2)
H2 H 0.14890 1.28700 -0.01800
O4 O 0.05769(19) 1.1491(4) 0.00228(18)
C4 C 0.1071(2) 1.1788(4) 0.04189(19)
O5 O 0.01480(18) 1.0286(4) 0.09103(19)
C5 C 0.11356(19) 1.1307(4) 0.10139(19)
O6 O 0.07784(14) 0.9950(3) 0.17430(14)
C6 C 0.16609(19) 1.1660(4) 0.13941(19)
H3 H 0.17130 1.13480 0.17890
O7 O 0.0798(2) 0.9793(3) 0.3291(2)
C7 C 0.0655(2) 1.0456(4) 0.1235(2)
C8 C 0.00000 0.5374(4) 0.25000
C9 C 0.05795(19) 0.6002(3) 0.24643(18)
H4 H 0.09810 0.56250 0.24410
C10 C 0.05577(19) 0.7193(3) 0.24635(19)
H5 H 0.09510 0.75970 0.24360
C11 C 0.0552(2) 0.2306(3) 0.2615(2)
H6 H 0.09410 0.19110 0.27030
C12 C 0.0571(2) 0.3482(3) 0.2608(2)
H7 H 0.09690 0.38610 0.26770
C13 C 0.00000 0.4111(4) 0.25000
H8 H 0.102(3) 0.928(5) 0.335(2)
H9 H 0.051(4) 0.970(7) 0.361(4)
H10 H 0.034(3) 1.114(5) 0.020(3)
Cd2 Cd 0.272628(14) 1.25632(3) 0.405046(15)
N3 N 0.17276(17) 1.3522(3) 0.40548(17)
N4 N -0.12650(16) 1.6623(3) 0.40565(18)
O8 O 0.2329(2) 1.1434(4) 0.32096(19)
O9 O 0.30234(17) 1.3780(3) 0.32506(16)
O10 O 0.32640(18) 1.3963(4) 0.46077(16)
O11 O 0.2636(2) 1.3975(4) 0.5423(2)
C14 C 0.1164(2) 1.3028(5) 0.4214(2)
H11 H 0.11700 1.22500 0.43110
C15 C 0.0578(2) 1.3605(4) 0.4244(2)
H12 H 0.02000 1.32200 0.43620
C16 C 0.05489(19) 1.4767(4) 0.40956(18)
C17 C 0.1133(2) 1.5280(4) 0.3930(2)
H13 H 0.11400 1.60550 0.38270
C18 C 0.1709(2) 1.4638(4) 0.3919(2)
H14 H 0.20970 1.50010 0.38120
C19 C -0.00775(19) 1.5408(4) 0.40864(18)
C20 C -0.0683(2) 1.4861(4) 0.4020(2)
H15 H -0.07000 1.40660 0.39830
C21 C -0.1251(2) 1.5485(4) 0.4009(3)
H16 H -0.16490 1.50950 0.39650
C22 C -0.0686(2) 1.7166(4) 0.4122(2)
H17 H -0.06860 1.79610 0.41630
C23 C -0.0088(2) 1.6597(4) 0.4133(2)
H18 H 0.03030 1.70080 0.41710
C24 C 0.3054(3) 1.4325(5) 0.5088(2)
H19 H 0.32530 1.50030 0.52230
H20 H 0.343(3) 1.425(6) 0.325(3)
H21 H 0.251(4) 1.147(8) 0.290(4)
H22 H 0.228(4) 1.068(8) 0.322(4)
H23 H 0.295(3) 1.389(6) 0.290(3)
Cd1* Cd 0.00000 -0.02741(3) 0.25000
O1A O -0.33204(18) 1.3116(4) 0.36930(17)
C1A C -0.2103(2) 1.2461(3) 0.38058(18)
O2A O -0.2537(2) 1.3879(3) 0.29801(18)
N2* N 0.00000 1.1692(4) 0.25000
C2A C -0.2033(2) 1.2923(4) 0.43980(19)
H1A H -0.23310 1.34680 0.45330
S1A S -0.27583(6) 1.28932(11) 0.33061(5)
O3A O -0.28991(16) 1.1935(3) 0.29010(15)
C3A C -0.1527(2) 1.2574(4) 0.4781(2)
H2A H -0.14890 1.28700 0.51800
O4A O -0.05769(19) 1.1491(4) 0.49772(18)
C4A C -0.1071(2) 1.1788(4) 0.45811(19)
O5A O -0.01480(18) 1.0286(4) 0.40897(19)
C5A C -0.11356(19) 1.1307(4) 0.39861(19)
O6A O -0.07784(14) 0.9950(3) 0.32570(14)
C6A C -0.16609(19) 1.1660(4) 0.36059(19)
H3A H -0.17130 1.13480 0.32110
O7A O -0.0798(2) 0.9793(3) 0.1709(2)
C7A C -0.0655(2) 1.0456(4) 0.3765(2)
C9A C -0.05795(19) 0.6002(3) 0.25357(18)
H4A H -0.09810 0.56250 0.25590
C10A C -0.05577(19) 0.7193(3) 0.25365(19)
H5A H -0.09510 0.75970 0.25640
C11A C -0.0552(2) 0.2306(3) 0.2385(2)
H6A H -0.09410 0.19110 0.22970
C12A C -0.0571(2) 0.3482(3) 0.2392(2)
H7A H -0.09690 0.38610 0.23230
H8A H -0.102(3) 0.928(5) 0.165(2)
H9A H -0.051(4) 0.970(7) 0.139(4)
H10A H -0.034(3) 1.114(5) 0.480(3)
Cd2B Cd 0.772628(14) 0.75632(3) 0.405046(15)
Cd2B* Cd -0.227372(14) 1.75632(3) 0.405046(15)
Cd2F Cd 0.227372(14) 1.24368(3) 0.594954(15)
N3B N 0.67276(17) 0.8522(3) 0.40548(17)
N4B N 0.37350(16) 1.1623(3) 0.40565(18)
N4* N 0.87350(16) 0.6623(3) 0.40565(18)
O8B O 0.7329(2) 0.6434(4) 0.32096(19)
O9B O 0.80234(17) 0.8780(3) 0.32506(16)
O10F O 0.17360(18) 1.1037(4) 0.53923(16)
O10B O 0.82640(18) 0.8963(4) 0.46077(16)
O11F O 0.2364(2) 1.1025(4) 0.4577(2)
O11D O 0.7364(2) 0.6025(4) 0.4577(2)
C14B C 0.6164(2) 0.8028(5) 0.4214(2)
H11B H 0.61700 0.72500 0.43110
C15B C 0.5578(2) 0.8605(4) 0.4244(2)
H12B H 0.52000 0.82200 0.43620
C16B C 0.55489(19) 0.9767(4) 0.40956(18)
C17B C 0.6133(2) 1.0280(4) 0.3930(2)
H13B H 0.61400 1.10550 0.38270
C18B C 0.6709(2) 0.9638(4) 0.3919(2)
H14B H 0.70970 1.00010 0.38120
C19B C 0.49225(19) 1.0408(4) 0.40864(18)
C20B C 0.4317(2) 0.9861(4) 0.4020(2)
H15B H 0.43000 0.90660 0.39830
C21B C 0.3749(2) 1.0485(4) 0.4009(3)
H16B H 0.33510 1.00950 0.39650
C22B C 0.4314(2) 1.2166(4) 0.4122(2)
H17B H 0.43140 1.29610 0.41630
C23B C 0.4912(2) 1.1597(4) 0.4133(2)
H18B H 0.53030 1.20080 0.41710
C24F C 0.1946(3) 1.0675(5) 0.4912(2)
H19F H 0.17470 0.99970 0.47770
H20B H 0.843(3) 0.925(6) 0.325(3)
H21B H 0.751(4) 0.647(8) 0.290(4)
H22B H 0.728(4) 0.568(8) 0.322(4)
H23B H 0.795(3) 0.889(6) 0.290(3)
#END
