
#######################################################################
#
#                 Cambridge Crystallographic Data Centre
#                                CCDC
#
#######################################################################
#
# If this CIF has been generated from an entry in the Cambridge
# Structural Database, then it will include bibliographic, chemical,
# crystal, experimental, refinement or atomic coordinate data resulting
# from the CCDC's data processing and validation procedures.
#
#######################################################################

data_CSD_CIF_XUFGEL
_audit_creation_date 2010-03-19
_audit_creation_method CSD-ConQuest-V1
_database_code_CSD XUFGEL
_database_code_depnum_ccdc_archive 'CCDC 681463'
_chemical_formula_sum 'C46 H46 Mn3 N6 O22 S2'
_chemical_formula_moiety
;
(C22 H26 Mn2 N4 O8 2+)n,n(C24 H20 Mn1 N2 O14 S2 2-)
;
_journal_coden_Cambridge 155
_journal_volume 362
_journal_year 2009
_journal_page_first 2962
_journal_name_full 'Inorg.Chim.Acta '
loop_
_publ_author_name
"Sai-Rong Fan"
"Long-Guan Zhu"
_chemical_name_systematic
;
catena-(bis(\m~2~-4,4'-Bipyridine-N,N')-bis(\m~2~-formato-O,O')-tetra-aqua-di-
manganese(ii) (\m~2~-4,4'-bipyridine-N,N')-diaqua-(hydrogen 
5-sulfonatosalicylato-O)-manganese(ii))
;
_cell_volume   5074.122
_exptl_crystal_colour 'yellow'
_exptl_crystal_density_diffrn 1.654
_exptl_special_details
;
fluorescent
isostructural with the cadmium analogue

;
_exptl_crystal_description 'block'
_diffrn_ambient_temperature 295
#These two values have been output from a single CSD field.
_refine_ls_R_factor_gt 0.0419
_refine_ls_wR_factor_gt 0.0419
_symmetry_cell_setting monoclinic
_symmetry_space_group_name_H-M 'C 2/c'
_symmetry_Int_Tables_number 15
loop_
_symmetry_equiv_pos_site_id
_symmetry_equiv_pos_as_xyz
1 x,y,z
2 -x,y,1/2-z
3 1/2+x,1/2+y,z
4 1/2-x,1/2+y,1/2-z
5 -x,-y,-z
6 x,-y,-1/2+z
7 -1/2-x,-1/2-y,-z
8 -1/2+x,-1/2-y,-1/2+z
_cell_length_a 20.2784(15)
_cell_length_b 11.5613(8)
_cell_length_c 21.6460(16)
_cell_angle_alpha 90
_cell_angle_beta 90.929(1)
_cell_angle_gamma 90
_cell_formula_units_Z 4
loop_
_atom_type_symbol
_atom_type_radius_bond
C 0.68
H 0.23
Mn 1.61
N 0.68
O 0.68
S 1.02
loop_
_atom_site_label
_atom_site_type_symbol
_atom_site_fract_x
_atom_site_fract_y
_atom_site_fract_z
Mn1 Mn 0.50000 0.52920(4) 0.75000
Mn2 Mn 0.725868(18) 0.74940(3) 0.598133(18)
S1 S 0.22600(4) 0.21059(6) 0.82906(3)
N1 N 0.50000 0.3341(2) 0.75000
N2 N 0.50000 -0.2789(2) 0.75000
N3 N 0.82448(10) 0.65286(19) 0.59554(11)
N4 N 1.12547(10) 0.33913(19) 0.59517(11)
O1 O 0.42512(8) 0.50834(15) 0.82314(9)
O2 O 0.48571(11) 0.4777(2) 0.90822(11)
O3 O 0.44169(11) 0.3563(2) 0.99631(10)
H1 H 0.46570 0.40360 0.97960
O4 O 0.20985(10) 0.30912(19) 0.7906(1)
O5 O 0.17018(12) 0.1825(3) 0.86832(11)
O6 O 0.24990(14) 0.1153(2) 0.79402(12)
O7 O 0.42364(10) 0.52764(18) 0.67642(10)
O8 O 0.6817(1) 0.61869(19) 0.54109(9)
O9 O 0.73836(11) 0.60965(19) 0.45428(11)
O10 O 0.76105(13) 0.85822(18) 0.67747(10)
O11 O 0.69568(10) 0.63196(17) 0.67391(9)
C1 C 0.43590(13) 0.4591(2) 0.87457(14)
C2 C 0.38709(12) 0.3730(2) 0.89721(12)
C3 C 0.39261(13) 0.3256(2) 0.95670(12)
C4 C 0.34674(14) 0.2457(3) 0.97673(13)
H2 H 0.35020 0.21590 1.01660
C5 C 0.29642(13) 0.2103(2) 0.93840(12)
H3 H 0.26620 0.15580 0.95200
C6 C 0.29040(12) 0.2560(2) 0.87918(11)
C7 C 0.33517(12) 0.3369(2) 0.85896(11)
H4 H 0.33060 0.36760 0.81940
C8 C 0.44504(13) 0.2738(2) 0.73789(14)
H5 H 0.40650 0.31440 0.72890
C9 C 0.44248(13) 0.1542(2) 0.73810(13)
H6 H 0.40280 0.11600 0.73040
C10 C 0.50000 0.0917(3) 0.75000
C11 C 0.50000 -0.0373(3) 0.75000
C12 C 0.44179(12) -0.09973(19) 0.75308(11)
H7 H 0.40160 -0.06140 0.75490
C13 C 0.44385(12) -0.2187(2) 0.75340(12)
H8 H 0.40440 -0.25920 0.75610
C14 C 0.82662(13) 0.5396(2) 0.60865(13)
H9 H 0.78770 0.50290 0.61940
C15 C 0.88365(12) 0.4746(2) 0.60697(12)
H10 H 0.88260 0.39630 0.61670
C16 C 0.94257(12) 0.5268(2) 0.59066(11)
C17 C 0.94016(13) 0.6440(3) 0.57597(14)
H11 H 0.97810 0.68250 0.56390
C18 C 0.88112(14) 0.7024(3) 0.57956(15)
H12 H 0.88070 0.78100 0.57030
C19 C 1.00596(12) 0.4615(2) 0.59088(11)
C20 C 1.00751(13) 0.3419(2) 0.58590(13)
H13 H 0.96850 0.30020 0.58120
C21 C 1.06769(13) 0.2849(2) 0.58799(13)
H14 H 1.06780 0.20480 0.58420
C22 C 1.06608(13) 0.5177(2) 0.59853(14)
H15 H 1.06750 0.59780 0.60240
C23 C 1.12353(13) 0.4541(2) 0.60032(15)
H16 H 1.16320 0.49350 0.60540
C24 C 0.69935(14) 0.5736(2) 0.49267(13)
H17 H 0.6797(19) 0.503(2) 0.4817(18)
H18 H 0.7123(16) 0.627(3) 0.7102(8)
H19 H 0.3928(13) 0.574(3) 0.6678(16)
H20 H 0.768(2) 0.9301(11) 0.6729(16)
H21 H 0.6610(12) 0.591(3) 0.6725(16)
H22 H 0.744(2) 0.848(3) 0.7127(10)
H23 H 0.4492(15) 0.524(3) 0.6458(12)
Mn1* Mn 0.50000 -0.47080(4) 0.75000
Mn2B Mn 1.225868(18) 0.24940(3) 0.598133(18)
Mn2F Mn 0.774132(18) 0.75060(3) 0.401867(18)
Mn2D Mn 0.274132(18) 1.25060(3) 0.401867(18)
S1A S 0.77400(4) 0.21059(6) 0.67094(3)
N2* N 0.50000 0.7211(2) 0.75000
N3F N 0.67552(10) 0.84714(19) 0.40446(11)
N4B N 0.62547(10) 0.83913(19) 0.59517(11)
N4D N 0.87453(10) 0.66087(19) 0.40483(11)
N4F N 0.37453(10) 1.16087(19) 0.40483(11)
O1A O 0.57488(8) 0.50834(15) 0.67686(9)
O2A O 0.51429(11) 0.4777(2) 0.59178(11)
O3A O 0.55831(11) 0.3563(2) 0.50369(10)
H1A H 0.53430 0.40360 0.52040
O4A O 0.79015(10) 0.30912(19) 0.7094(1)
O5A O 0.82982(12) 0.1825(3) 0.63168(11)
O6A O 0.75010(14) 0.1153(2) 0.70598(12)
O7A O 0.57636(10) 0.52764(18) 0.82358(10)
O8F O 0.8183(1) 0.88131(19) 0.45891(9)
O9F O 0.76164(11) 0.89035(19) 0.54572(11)
O10F O 0.73895(13) 0.64178(18) 0.32253(10)
O11F O 0.80432(10) 0.86804(17) 0.32609(9)
C1A C 0.56410(13) 0.4591(2) 0.62543(14)
C2A C 0.61291(12) 0.3730(2) 0.60279(12)
C3A C 0.60739(13) 0.3256(2) 0.54330(12)
C4A C 0.65326(14) 0.2457(3) 0.52327(13)
H2A H 0.64980 0.21590 0.48340
C5A C 0.70358(13) 0.2103(2) 0.56160(12)
H3A H 0.73380 0.15580 0.54800
C6A C 0.70960(12) 0.2560(2) 0.62082(11)
C7A C 0.66483(12) 0.3369(2) 0.64104(11)
H4A H 0.66940 0.36760 0.68060
C8A C 0.55496(13) 0.2738(2) 0.76211(14)
H5A H 0.59350 0.31440 0.77110
C9A C 0.55752(13) 0.1542(2) 0.76190(13)
H6A H 0.59720 0.11600 0.76960
C12A C 0.55821(12) -0.09973(19) 0.74692(11)
H7A H 0.59840 -0.06140 0.74510
C13A C 0.55615(12) -0.2187(2) 0.74660(12)
H8A H 0.59560 -0.25920 0.74390
C14F C 0.67338(13) 0.9604(2) 0.39135(13)
H9F H 0.71230 0.99710 0.38060
C15F C 0.61635(12) 1.0254(2) 0.39303(12)
H10F H 0.61740 1.10370 0.38330
C16F C 0.55743(12) 0.9732(2) 0.40934(11)
C17F C 0.55984(13) 0.8560(3) 0.42403(14)
H11F H 0.52190 0.81750 0.43610
C18F C 0.61888(14) 0.7976(3) 0.42044(15)
H12F H 0.61930 0.71900 0.42970
C19F C 0.49404(12) 1.0385(2) 0.40912(11)
C20F C 0.49249(13) 1.1581(2) 0.41410(13)
H13F H 0.53150 1.19980 0.41880
C21F C 0.43231(13) 1.2151(2) 0.41201(13)
H14F H 0.43220 1.29520 0.41580
C22F C 0.43392(13) 0.9823(2) 0.40147(14)
H15F H 0.43250 0.90220 0.39760
C23F C 0.37647(13) 1.0459(2) 0.39968(15)
H16F H 0.33680 1.00650 0.39460
C24F C 0.80065(14) 0.9264(2) 0.50733(13)
H17F H 0.8203(19) 0.997(2) 0.5183(18)
H18F H 0.7877(16) 0.873(3) 0.2898(8)
H19A H 0.6072(13) 0.574(3) 0.8322(16)
H20F H 0.732(2) 0.5699(11) 0.3271(16)
H21F H 0.8390(12) 0.909(3) 0.3275(16)
H22F H 0.756(2) 0.652(3) 0.2873(10)
H23A H 0.5508(15) 0.524(3) 0.8542(12)
#END
