
#######################################################################
#
#                 Cambridge Crystallographic Data Centre
#                                CCDC
#
#######################################################################
#
# If this CIF has been generated from an entry in the Cambridge
# Structural Database, then it will include bibliographic, chemical,
# crystal, experimental, refinement or atomic coordinate data resulting
# from the CCDC's data processing and validation procedures.
#
#######################################################################

data_CSD_CIF_XUFXED
_audit_creation_date 2015-04-07
_audit_creation_method CSD-ConQuest-V1
_database_code_CSD XUFXED
_database_code_depnum_ccdc_archive 'CCDC 1015376'
_chemical_formula_sum 'C144 H216 Cu8 Mo20 N24 O140 P8'
_chemical_formula_moiety
;
(C144 H150 Cu8 Mo20 N24 O108 P8 2-)n,30(H2 O1),2(H3 O1 1+)
;
_journal_coden_Cambridge 1295
_journal_volume 50
_journal_year 2014
_journal_page_first 70
_journal_name_full 'Inorg.Chem.Commun. '
loop_
_publ_author_name
"Xiao-Min Li"
"Ya-Guang Chen"
"tian shi"
"Shi Zhou"
"Qun Tang"
_chemical_name_systematic
;
catena-[bis(oxonium) bis(\m~6~-3-phosphonopropanoic 
acid)-bis(\m~6~-3-phosphonopropanoato)-tetrakis(\m~5~-3-phosphonopropanoic 
acid)-dodeca(\m~2~-4,4'-bipyridine)-dotricontakis(\m~2~-oxido)-octakis(aqua)-o
ctacosaoxo-octa-copper-icosa-molybdenum tricontahydrate]
;
_cell_volume  12298.235
_exptl_crystal_colour 'pale blue'
_exptl_crystal_density_diffrn 1.931
_exptl_special_details
;
Luminescent

;
_exptl_crystal_description 'block'
_diffrn_ambient_temperature 293
#These two values have been output from a single CSD field.
_refine_ls_R_factor_gt 0.0814
_refine_ls_wR_factor_gt 0.0814
_symmetry_cell_setting triclinic
_symmetry_space_group_name_H-M 'P -1'
_symmetry_Int_Tables_number 2
loop_
_symmetry_equiv_pos_site_id
_symmetry_equiv_pos_as_xyz
1 x,y,z
2 -x,-y,-z
_cell_length_a 18.861(5)
_cell_length_b 22.039(5)
_cell_length_c 29.586(5)
_cell_angle_alpha 90.024(5)
_cell_angle_beta 90.018(5)
_cell_angle_gamma 90.002(5)
_cell_formula_units_Z 2
loop_
_atom_type_symbol
_atom_type_radius_bond
C 0.68
H 0.23
Cu 1.32
Mo 1.54
N 0.68
O 0.68
P 1.05
loop_
_atom_site_label
_atom_site_type_symbol
_atom_site_fract_x
_atom_site_fract_y
_atom_site_fract_z
Mo1 Mo -0.13587(10) 0.23720(9) 0.12606(7)
Mo2 Mo -1.13573(10) 0.73717(9) 0.37403(7)
Mo3 Mo -0.36405(10) 0.73752(9) 0.12592(7)
Mo4 Mo -1.36412(10) 0.23717(9) 0.37403(7)
Mo5 Mo -0.04608(10) 0.14411(9) 0.05542(7)
Mo6 Mo -1.45363(10) 0.14411(9) 0.44475(7)
Mo7 Mo -0.4537(1) 0.64407(9) 0.05529(7)
Mo8 Mo -1.04612(11) 0.64404(9) 0.44466(7)
Mo9 Mo -0.47423(10) 0.84746(9) 0.16345(7)
Mo10 Mo -1.47432(10) 0.34753(9) 0.33646(7)
Mo11 Mo -0.02557(10) 0.34739(9) 0.16351(7)
Mo12 Mo -1.02573(10) 0.84743(9) 0.33656(7)
Mo13 Mo -0.8583(1) 0.67456(9) 0.41958(7)
Mo14 Mo 0.14283(10) 0.31286(9) 0.13103(7)
Mo15 Mo -0.64152(10) 0.67466(9) 0.08030(7)
Mo16 Mo -1.64181(10) 0.17474(9) 0.41964(7)
Mo17 Mo -0.64275(10) 0.81271(9) 0.13091(7)
Mo18 Mo -0.85714(10) 0.81262(9) 0.36899(7)
Mo19 Mo -1.64275(10) 0.31279(9) 0.36884(7)
Mo20 Mo 0.14173(10) 0.17461(9) 0.08044(7)
P1 P -1.5269(3) 0.1960(3) 0.3372(2)
P2 P -1.5066(3) 0.2878(3) 0.4426(2)
P3 P -0.5067(3) 0.7876(3) 0.0573(2)
P4 P -0.9938(3) 0.7879(3) 0.4427(2)
P5 P -0.5274(3) 0.6959(3) 0.1627(2)
P6 P 0.0064(3) 0.2876(3) 0.0573(2)
P7 P -0.9728(3) 0.6956(3) 0.3375(2)
P8 P 0.0276(3) 0.1954(3) 0.1626(2)
O1 O -0.9514(6) 0.7626(6) 0.3301(4)
O2 O -0.504(2) 0.5708(19) 0.2930(15)
O3 O -0.5491(6) 0.7637(6) 0.1686(4)
O4 O -0.1287(7) 0.1912(6) 0.0695(4)
O5 O -1.1300(7) 0.6931(6) 0.4293(5)
O6 O -0.8078(7) 0.6132(7) 0.4076(5)
O7 O -1.0079(8) 0.8659(7) 0.2807(5)
O8 O 0.0492(7) 0.2631(6) 0.1692(5)
O9 O -0.0346(7) 0.1891(6) 0.1289(4)
O10 O -1.2994(7) 0.2875(6) 0.3921(4)
O11 O -1.2017(7) 0.7873(6) 0.3916(4)
O12 O -1.4803(6) 0.2366(6) 0.4728(4)
O13 O -0.4657(7) 0.6900(6) 0.1292(5)
O14 O -1.0492(7) 0.8022(6) 0.4063(5)
O15 O -0.4522(7) 0.8029(6) 0.0948(5)
O16 O -0.0201(7) 0.2368(6) 0.0271(5)
O17 O -1.5626(7) 0.3676(6) 0.3652(5)
O18 O -1.4656(7) 0.1888(6) 0.3706(5)
O19 O -1.0355(7) 0.6892(6) 0.3711(5)
O20 O -0.2981(7) 0.7860(6) 0.1073(5)
O21 O -1.0658(7) 0.5798(6) 0.4144(5)
O22 O -0.9209(6) 0.7691(6) 0.4218(4)
O23 O -1.5787(6) 0.2682(6) 0.4217(4)
O24 O -1.5493(7) 0.2603(6) 0.3305(4)
O25 O -1.3715(7) 0.1924(6) 0.4294(5)
O26 O 0.0901(7) 0.1573(6) 0.1467(5)
O27 O -0.8213(7) 0.8225(6) 0.3160(5)
O28 O -1.4509(7) 0.3046(6) 0.4057(5)
O29 O -1.3214(7) 0.1853(6) 0.3410(5)
O30 O -1.2247(7) 1.0711(7) 0.1837(5)
O31 O -0.3205(7) 0.6853(6) 0.1588(5)
O32 O -1.6936(7) 0.3575(6) 0.4024(5)
O33 O -1.2721(7) 0.5725(7) 0.1839(5)
H1 H -1.28440 0.53250 0.17370
H2 H -1.31140 0.59940 0.17910
O34 O -0.4802(7) 0.7361(6) 0.0278(5)
O35 O -1.3251(7) 0.2887(6) 0.4895(5)
H3 H -1.31980 0.29040 0.52170
H4 H -1.34480 0.25020 0.48100
O36 O -1.1776(7) 0.6846(6) 0.3426(5)
O37 O -1.1743(7) 0.7875(6) 0.4912(5)
H5 H -1.18080 0.78910 0.52340
H6 H -1.15470 0.74890 0.48290
O38 O 0.1956(8) 0.3568(7) 0.0980(5)
O39 O -1.2253(7) 0.5714(7) 0.3153(5)
H7 H -1.25730 0.59830 0.33070
H8 H -1.17760 0.58580 0.31890
O40 O -0.0762(7) 0.4088(7) 0.1456(5)
O41 O -1.2755(7) 1.0720(7) 0.3155(5)
O42 O 0.1915(8) 0.1129(7) 0.0924(5)
O43 O -0.2010(7) 0.2868(7) 0.1081(5)
O44 O -0.3784(10) 0.5633(9) 0.2683(7)
O45 O -0.3709(6) 0.6923(6) 0.0702(4)
O46 O -0.3268(6) 0.7879(6) 0.0098(5)
H9 H -0.32150 0.79020 -0.02240
H10 H -0.34600 0.74910 0.01790
O47 O -1.6925(7) 0.1121(7) 0.4071(5)
O48 O -0.0481(7) 0.3032(6) 0.0940(5)
O49 O -1.3779(10) 0.0620(8) 0.2316(6)
O50 O -0.4049(7) 0.7846(6) 0.1734(4)
O51 O -0.5618(7) 0.8673(7) 0.1333(5)
O52 O -0.9386(7) 0.8692(6) 0.3662(5)
O53 O -0.6792(7) 0.8223(7) 0.1841(5)
O54 O -1.0764(7) 0.9072(7) 0.3549(5)
O55 O -0.5558(7) 0.6414(6) 0.0585(5)
O56 O -0.9114(7) 0.6571(6) 0.3540(5)
O57 O -0.8072(7) 0.8577(6) 0.4020(5)
O58 O -1.4242(7) 0.4075(6) 0.3544(5)
O59 O -1.0186(7) 0.7367(6) 0.4728(5)
O60 O -0.0644(7) 0.0789(7) 0.0843(5)
O61 O -1.4337(7) 0.0789(6) 0.4150(5)
O62 O 0.1793(7) 0.3237(6) 0.1842(5)
O63 O -0.6947(8) 0.8573(7) 0.0980(5)
O64 O 0.0623(7) 0.3665(7) 0.1333(5)
O65 O -0.1732(7) 0.2880(6) 0.0085(5)
O66 O -0.6921(7) 0.6122(7) 0.0928(5)
O67 O -0.8250(7) 0.6984(7) 0.4697(5)
O68 O -1.5890(7) 0.1567(6) 0.3531(5)
O69 O -1.6758(7) 0.1984(6) 0.4704(5)
O70 O -0.5785(7) 0.7689(7) 0.0787(5)
O71 O -1.6792(7) 0.3230(6) 0.3160(5)
O72 O 0.1868(7) 0.2361(6) 0.1172(5)
O73 O -0.1797(7) 0.1844(7) 0.1583(5)
O74 O 0.0789(7) 0.2689(6) 0.0789(5)
O75 O -0.3242(7) 0.3010(6) -0.0294(5)
O76 O -1.0810(17) 0.9702(15) 0.5303(11)
O77 O -0.9935(13) 0.9226(12) 0.5572(10)
O78 O -0.5149(14) 0.9247(13) -0.0588(10)
O79 O -1.5549(7) 0.1409(7) 0.4414(5)
O80 O 0.0555(7) 0.1402(6) 0.0589(5)
O81 O -0.0649(7) 0.1222(7) 0.0015(5)
O82 O -0.0091(7) 0.3671(7) 0.2176(5)
O83 O -0.4346(8) 0.5781(7) 0.0852(5)
O84 O -0.9449(7) 0.6406(6) 0.4411(5)
O85 O -1.1210(9) 0.5631(8) 0.2339(6)
O86 O -0.4924(8) 0.8668(7) 0.2183(5)
O87 O -0.5880(7) 0.6576(7) 0.1471(5)
O88 O -0.6867(7) 0.7363(6) 0.1169(4)
O89 O -1.4939(8) 0.3668(7) 0.2818(5)
O90 O -0.4240(7) 0.9084(7) 0.1449(5)
O91 O -1.4053(7) 0.2855(6) 0.3267(5)
O92 O -1.0956(7) 0.7860(6) 0.3266(5)
O93 O -1.0629(8) 0.6236(7) 0.4985(5)
O94 O -0.0938(7) 0.2851(6) 0.1737(5)
O95 O -0.8145(7) 0.7350(6) 0.3811(5)
O96 O 0.1757(7) 0.1982(6) 0.0294(5)
O97 O -1.6855(7) 0.2369(6) 0.3814(5)
O98 O -0.4371(7) 0.6229(7) 0.0015(5)
O99 O -1.5147(13) 0.4258(11) 0.5574(9)
O100 O 0.0158(14) 0.4275(12) -0.0564(9)
O101 O -1.4370(8) 0.1229(7) 0.4995(5)
O102 O -1.4184(17) 0.4703(15) 0.5291(11)
O103 O -0.0836(17) 0.4713(16) -0.0289(11)
O104 O -1.5048(16) 0.0765(15) 0.2102(11)
O105 O -0.4154(19) 0.9730(17) -0.0306(12)
O106 O -0.1181(9) 0.0637(8) 0.2663(6)
O107 O 0.004(2) 0.090(3) 0.2899(15)
O108 O -1.0007(19) 0.5708(19) 0.2116(13)
Cu1 Cu -1.26968(13) 0.79780(12) 0.46086(9)
Cu2 Cu -1.23038(13) 0.29813(12) 0.46087(9)
Cu3 Cu -0.26964(14) 0.29795(12) 0.03921(9)
Cu4 Cu -0.23041(14) 0.79790(12) 0.03930(9)
Cu5 Cu -1.25002(15) 1.06930(14) 0.24987(11)
Cu6 Cu -1.25009(16) 0.56915(14) 0.24998(11)
Cu7 Cu -0.74999(14) 0.32675(12) 0.25007(10)
Cu8 Cu -0.74989(15) 0.82655(13) 0.25013(10)
N1 N -1.2176(9) 0.2074(8) 0.4609(6)
N2 N -1.2556(8) -0.1129(7) 0.4596(6)
N3 N -1.2433(8) 0.3881(7) 0.4585(5)
N4 N -1.2828(8) 0.7082(8) 0.4589(6)
N5 N -1.2531(9) 0.4803(8) 0.2499(6)
N6 N -1.2503(10) 0.1557(8) 0.2503(6)
N7 N -1.249(1) 0.6583(8) 0.2498(6)
N8 N -1.2502(10) 0.9806(8) 0.2494(7)
N9 N -0.7505(9) 0.4164(8) 0.2490(6)
N10 N -0.7509(9) 0.7369(8) 0.2498(7)
N11 N -0.7479(9) 1.2351(7) 0.2501(6)
N12 N -0.7498(9) 0.9182(8) 0.2499(6)
N13 N -0.2175(8) 0.7070(8) 0.0399(6)
N14 N -0.2547(8) 0.3886(7) 0.0411(5)
N15 N -0.2478(9) -0.1102(8) 0.0408(6)
N16 N -0.2846(9) 0.2059(8) 0.0393(6)
N17 N -0.6661(9) 0.3276(8) 0.2105(6)
N18 N -0.3593(8) 0.3093(7) 0.0737(6)
N19 N -0.8341(9) 0.3292(8) 0.2907(6)
N20 N -1.1427(8) 0.3109(7) 0.4261(6)
N21 N -0.8331(9) 0.8280(8) 0.2085(6)
N22 N -1.1405(9) 0.8096(8) 0.0750(6)
N23 N -1.6649(10) 0.8278(9) 0.2910(7)
N24 N -1.3586(8) 0.8093(7) 0.4260(6)
C1 C -0.7473(14) 1.1397(14) 0.2100(11)
H11 H -0.74790 1.11880 0.18270
C2 C -1.6103(13) 0.8483(12) 0.3619(10)
H12 H -1.61460 0.85970 0.39200
C3 C -0.7470(14) 0.7066(13) 0.2869(10)
H13 H -0.74350 0.72870 0.31360
C4 C -1.0348(17) 0.8880(15) 0.4884(12)
H14 H -1.06760 0.86100 0.50360
H15 H -1.05760 0.90130 0.46070
C5 C -1.2852(15) 0.8841(14) 0.2188(10)
H16 H -1.31050 0.86350 0.19670
C6 C -1.2860(13) 0.9483(13) 0.218(1)
H17 H -1.31150 0.96850 0.19570
C7 C -1.4803(12) 0.8216(11) 0.3744(8)
C8 C -1.3024(14) 0.6922(13) 0.2638(9)
H18 H -1.34170 0.67100 0.27420
C9 C -0.8329(12) 0.3519(10) 0.3329(8)
H19 H -0.79060 0.36810 0.34380
C10 C -1.2163(12) 0.3849(11) 0.2169(9)
H20 H -1.19560 0.36420 0.19290
C11 C -0.7002(12) 0.9487(11) 0.2293(8)
H21 H -0.66630 0.92700 0.21320
C12 C -1.3546(13) 0.8288(11) 0.3859(9)
H22 H -1.31020 0.83850 0.37430
C13 C -0.0332(18) 0.1066(11) 0.2164(12)
H23 H -0.00040 0.08010 0.20070
H24 H -0.07660 0.10790 0.19890
C14 C -0.0323(17) 0.3902(16) 0.0146(12)
H25 H -0.03540 0.41700 0.04050
H26 H -0.07460 0.36510 0.01440
C15 C -0.9533(11) 0.8238(10) 0.1535(7)
C16 C -0.7495(13) 0.6414(12) 0.2084(10)
H27 H -0.74770 0.62150 0.18070
C17 C -1.2155(13) 0.9495(12) 0.2817(9)
H28 H -1.19080 0.97130 0.30360
C18 C -1.4656(16) 0.3934(15) 0.4845(11)
H29 H -1.46230 0.42250 0.46000
H30 H -1.42280 0.36890 0.48410
C19 C -1.2495(13) 0.2869(11) 0.2491(8)
C20 C 0.0271(12) 0.3526(11) 0.0199(8)
H31 H 0.06590 0.37590 0.03270
H32 H 0.04210 0.33760 -0.00950
C21 C -1.2325(10) 0.0144(9) 0.4592(7)
C22 C -1.1944(13) 0.2565(12) 0.2661(8)
H33 H -1.15500 0.27650 0.27780
C23 C -0.4613(19) 0.8908(16) 0.0138(12)
H34 H -0.42160 0.86380 0.00830
H35 H -0.45050 0.91460 0.04050
C24 C -0.2957(11) 0.1132(11) 0.0781(8)
H36 H -0.30840 0.09250 0.10430
C25 C -0.7988(13) 0.4470(11) 0.2280(9)
H37 H -0.83120 0.42600 0.21020
C26 C -1.2837(12) 0.3857(11) 0.2833(8)
H38 H -1.30810 0.36510 0.30590
C27 C -1.0170(12) 0.3035(10) 0.4198(8)
H39 H -0.97420 0.29530 0.43410
C28 C -1.3079(13) 0.7531(12) 0.2652(8)
H40 H -1.34830 0.77270 0.27570
C29 C -0.436(3) 0.578(2) 0.2550(15)
C30 C -1.4845(13) 0.8005(11) 0.4206(8)
H41 H -1.52740 0.78960 0.43380
C31 C -0.5426(13) 0.3002(11) 0.1965(9)
H42 H -0.50150 0.28110 0.20640
C32 C -0.0499(12) 0.0782(18) 0.2623(12)
C33 C -1.470(2) 0.4284(16) 0.5306(13)
C34 C -0.6974(17) 0.5092(15) 0.2706(11)
H43 H -0.65870 0.52880 0.28350
C35 C -1.2145(13) 0.8835(12) 0.2843(9)
H44 H -1.19160 0.86330 0.30770
C36 C -1.2149(13) 0.4484(12) 0.2179(9)
H45 H -1.18800 0.46950 0.19670
C37 C -1.0509(12) 0.579(2) 0.2406(14)
C38 C -0.2006(11) 0.6773(10) 0.0753(8)
H46 H -0.18340 0.69880 0.10010
C39 C -1.469(2) 0.111(2) 0.2880(17)
H47 H -1.50390 0.08510 0.30240
H48 H -1.42900 0.11440 0.30850
C40 C -0.8039(12) 1.0117(11) 0.2727(8)
H49 H -0.83760 1.03160 0.29020
C41 C -1.2856(14) 0.4478(13) 0.284(1)
H50 H -1.30880 0.46800 0.30730
C42 C -1.2352(11) 0.1748(11) 0.4975(8)
H51 H -1.24540 0.19570 0.52400
C43 C -0.2273(11) 0.5806(10) 0.0405(8)
C44 C -0.7004(13) 0.4443(12) 0.2713(9)
H52 H -0.66700 0.42210 0.28740
C45 C -0.8020(13) 0.9501(11) 0.2678(8)
H53 H -0.84120 0.92850 0.27810
C46 C -1.5427(13) 0.8003(11) 0.3022(9)
H54 H -1.50200 0.78100 0.29190
C47 C -0.7489(14) 0.6089(13) 0.2493(10)
C48 C -0.7503(13) 1.2045(13) 0.2883(10)
H55 H -0.74980 1.22640 0.31510
C49 C -1.2976(13) 0.4149(11) 0.4393(8)
H56 H -1.33210 0.38950 0.42700
C50 C -0.9567(12) 0.3025(10) 0.3044(8)
H57 H -0.99890 0.28630 0.29350
C51 C -0.7477(12) 0.6409(12) 0.2906(9)
H58 H -0.74720 0.62120 0.31840
C52 C -1.1942(14) 0.7552(13) 0.2326(9)
H59 H -1.15560 0.77620 0.22090
C53 C -1.2666(10) 0.676(1) 0.4984(7)
H60 H -1.25800 0.69660 0.52520
C54 C -1.2492(13) 0.7840(11) 0.2499(8)
C55 C -1.1965(14) 0.6900(13) 0.2324(9)
H61 H -1.15890 0.66910 0.21930
C56 C -0.9762(12) 0.8551(10) 0.4768(8)
H62 H -0.95220 0.84260 0.50430
H63 H -0.94400 0.88120 0.46020
C57 C -0.3003(12) 0.4253(10) 0.0214(8)
H64 H -0.33930 0.40810 0.00690
C58 C -1.2488(11) 0.3523(10) 0.2521(8)
C59 C -0.8906(12) 0.3520(11) 0.3604(9)
H65 H -0.88760 0.37070 0.38860
C60 C -1.1443(12) 0.8298(10) 0.1173(8)
H66 H -1.18820 0.83850 0.13000
C61 C -0.6660(12) 0.3521(10) 0.1690(8)
H67 H -0.70720 0.37210 0.16010
C62 C -0.2380(11) 0.6133(10) 0.0001(8)
H68 H -0.24550 0.59310 -0.02710
C63 C -1.2021(11) 0.1764(11) 0.4250(8)
H69 H -1.18830 0.19740 0.39920
C64 C -1.6682(12) 0.8530(11) 0.3320(8)
H70 H -1.70890 0.87370 0.34080
C65 C -1.2265(11) 0.0805(10) 0.4595(8)
C66 C -0.0017(12) 0.170(1) 0.2172(8)
H71 H 0.03830 0.17050 0.23790
H72 H -0.03690 0.19810 0.22860
C67 C -1.3087(14) 0.2541(12) 0.2343(9)
H73 H -1.34930 0.27380 0.22420
C68 C -1.2922(13) -0.0127(12) 0.4813(9)
H74 H -1.32400 0.01200 0.49680
C69 C -0.2066(11) 0.6132(10) 0.0788(8)
H75 H -0.19700 0.59340 0.10590
C70 C -0.8046(14) 0.5105(13) 0.2308(9)
H76 H -0.84380 0.53060 0.21910
C71 C -1.0789(12) 0.8012(11) 0.0558(9)
H77 H -1.07710 0.79450 0.02470
C72 C -0.2372(10) 0.6755(10) 0.0017(8)
H78 H -0.25040 0.69720 -0.02390
C73 C -1.4987(10) 0.1688(9) 0.2824(6)
H79 H -1.53900 0.16680 0.26210
H80 H -1.46400 0.19630 0.26960
C74 C -0.6037(12) 0.3038(11) 0.2233(9)
H81 H -0.60070 0.28850 0.25250
C75 C -0.2081(12) -0.0129(11) 0.0214(8)
H82 H -0.17430 0.01180 0.00780
C76 C -0.7449(13) 1.2075(13) 0.2094(10)
H83 H -0.74160 1.22930 0.18260
C77 C -0.2636(11) 0.1132(11) 0.0013(8)
H84 H -0.25510 0.09280 -0.02570
C78 C -0.2657(11) 0.0141(10) 0.0426(8)
C79 C -1.0164(12) 0.8018(10) 0.0801(8)
H85 H -0.97400 0.78980 0.06680
C80 C -1.0186(11) 0.3222(10) 0.3745(8)
C81 C -1.0182(11) 0.8210(9) 0.1253(7)
C82 C -0.2663(10) 0.1749(10) 0.0028(7)
H86 H -0.25460 0.19640 -0.02320
C83 C -0.8896(11) 0.8496(10) 0.1397(8)
H87 H -0.88580 0.86550 0.11070
C84 C -0.8336(12) 0.8521(10) 0.1674(8)
H88 H -0.79290 0.87170 0.15720
C85 C -0.7528(12) 0.7051(11) 0.2108(9)
H89 H -0.75650 0.72660 0.18390
C86 C -0.2360(11) 0.5148(10) 0.0426(7)
C87 C -1.2627(10) 0.5138(9) 0.4585(7)
C88 C -0.2738(11) 0.0826(10) 0.0403(8)
C89 C -0.9558(13) 0.8004(11) 0.1978(9)
H90 H -0.99690 0.78300 0.20930
C90 C -1.0817(12) 0.2972(11) 0.4432(9)
H91 H -1.08050 0.28240 0.47260
C91 C -1.2745(10) 0.5795(9) 0.4593(7)
C92 C -0.5238(13) 0.8547(12) 0.0226(9)
H92 H -0.54400 0.84180 -0.00600
H93 H -0.55870 0.87980 0.03780
C93 C -1.5253(11) 0.3552(10) 0.4772(8)
H94 H -1.56210 0.37870 0.46250
H95 H -1.54350 0.34210 0.50620
C94 C -0.2983(11) 0.1752(11) 0.0761(8)
H96 H -0.31030 0.19650 0.10210
C95 C -0.1988(12) -0.0767(11) 0.0194(8)
H97 H -0.16090 -0.09440 0.00420
C96 C -1.1989(14) 0.1922(12) 0.2653(9)
H98 H -1.15960 0.17220 0.27720
C97 C -0.6947(14) 1.0119(13) 0.2300(9)
H99 H -0.65560 1.03230 0.21840
C98 C -0.8966(12) 0.3041(11) 0.2772(9)
H100 H -0.89930 0.28730 0.24840
C99 C -1.2500(11) 0.8516(10) 0.2495(8)
C100 C -1.3034(13) -0.0735(11) 0.4800(8)
H101 H -1.34430 -0.08920 0.49320
C101 C -0.4980(11) 0.6694(10) 0.2181(7)
H102 H -0.46150 0.69590 0.22990
H103 H -0.53750 0.66900 0.23910
C102 C -1.2086(12) 0.4866(11) 0.4798(8)
H104 H -1.17540 0.50990 0.49530
C103 C -1.3044(13) 0.1886(11) 0.2352(8)
H105 H -1.34340 0.16740 0.22420
C104 C -1.1998(12) -0.0868(11) 0.4368(8)
H106 H -1.16770 -0.11140 0.42150
C105 C -0.3545(12) 0.3296(10) 0.1156(8)
H107 H -0.31000 0.33990 0.12680
C106 C -1.4161(13) 0.8368(12) 0.3575(10)
H108 H -1.41180 0.85190 0.32830
C107 C -1.2053(10) 0.112(1) 0.4231(7)
H109 H -1.19270 0.09180 0.39670
C108 C -1.1438(11) 0.3305(9) 0.3834(7)
H110 H -1.18710 0.34090 0.37050
C109 C -1.0832(12) 0.3359(10) 0.3578(8)
H111 H -1.08680 0.34940 0.32810
C110 C -0.9528(11) 0.3253(10) 0.3477(8)
C111 C -0.7485(15) 1.1088(14) 0.2482(11)
C112 C -1.2634(10) 0.6123(10) 0.4972(8)
H112 H -1.25330 0.59170 0.52390
C113 C -0.6106(12) 0.3508(11) 0.1379(9)
H113 H -0.61550 0.36470 0.10840
C114 C -0.2937(12) 0.4888(11) 0.0208(8)
H114 H -0.32720 0.51280 0.00620
C115 C -1.4208(12) 0.7975(10) 0.4443(8)
H115 H -1.42210 0.78660 0.47460
C116 C -1.2022(12) 0.4258(11) 0.4789(8)
H116 H -1.16410 0.40930 0.49470
C117 C -0.4841(13) 0.3018(11) 0.0812(9)
H117 H -0.52700 0.28970 0.06860
C118 C -0.7514(12) 1.0417(10) 0.2493(8)
C119 C -1.1907(11) -0.0238(10) 0.4364(7)
H118 H -1.15370 -0.00770 0.41940
C120 C -1.3094(12) 0.4765(10) 0.4354(8)
H119 H -1.34660 0.49200 0.41830
C121 C -1.300(1) 0.6757(10) 0.4226(8)
H120 H -1.31570 0.69580 0.39680
C122 C -0.1910(12) 0.4768(10) 0.0632(8)
H121 H -0.15160 0.49310 0.07770
C123 C -1.5465(12) 0.8261(10) 0.3450(8)
C124 C -0.7535(13) 1.1402(13) 0.2912(10)
H122 H -0.75850 1.11980 0.31850
C125 C -0.3014(12) -0.0875(11) 0.0630(8)
H123 H -0.33300 -0.11330 0.07750
C126 C -0.4221(12) 0.2990(11) 0.0547(9)
H124 H -0.42500 0.29010 0.02400
C127 C -0.2003(12) 0.4131(11) 0.0642(8)
H125 H -0.16930 0.38870 0.08050
C128 C -1.2954(10) 0.6138(9) 0.4217(7)
H126 H -1.30670 0.59360 0.39500
C129 C -1.0818(11) 0.8381(10) 0.1427(8)
H127 H -1.08410 0.85530 0.17140
C130 C -1.2392(11) 0.1137(10) 0.4985(8)
H128 H -1.25030 0.09380 0.52540
C131 C -1.6016(11) 0.8049(10) 0.2763(8)
H129 H -1.59890 0.79160 0.24650
C132 C -1.0034(11) 0.6706(10) 0.2834(7)
H130 H -1.03870 0.69890 0.27230
H131 H -0.96400 0.67070 0.26230
C133 C -0.3115(12) -0.0257(11) 0.0651(8)
H132 H -0.34920 -0.01010 0.08170
C134 C -0.8940(11) 0.8045(10) 0.2236(8)
H133 H -0.89530 0.79000 0.25300
C135 C -0.7500(13) 0.5425(11) 0.2517(8)
C136 C -0.5477(11) 0.3272(10) 0.1542(8)
C137 C -0.483(1) 0.3216(9) 0.1249(7)
C138 C -0.4136(11) 0.3364(10) 0.1440(8)
H134 H -0.40880 0.34980 0.17370
C139 C -0.032(2) 0.4287(18) -0.0282(14)
C140 C -0.469(2) 0.6055(12) 0.2119(16)
H135 H -0.50540 0.57840 0.20170
C141 C -1.024(4) 0.9435(17) 0.5183(13)
C142 C -0.4689(19) 0.9334(17) -0.0263(11)
C143 C -1.442(2) 0.0766(19) 0.2422(15)
C144 C -1.034(2) 0.611(2) 0.2851(13)
H136 H -1.07710 0.61300 0.30260
H137 H -1.00120 0.58480 0.30180
O109 O -1.7399(15) -0.0082(14) 0.3919(11)
O110 O -1.5862(17) 0.5193(16) 0.1563(12)
O111 O 0.2378(18) -0.0078(16) 0.1082(12)
O112 O -0.7414(16) 0.4962(15) 0.1080(11)
O113 O -1.1038(13) 1.0180(12) 0.6076(9)
O114 O -0.9116(14) 1.0191(12) 0.1535(9)
O115 O -0.5854(15) 1.0168(14) 0.3456(10)
O116 O -0.9115(16) 0.5181(14) 0.3448(11)
O117 O -0.1035(13) 0.5168(12) -0.1100(9)
O118 O -0.7545(15) 0.4950(14) 0.3892(10)
O119 O -0.4812(13) 0.9613(12) 0.2894(9)
O120 O -0.6058(11) 0.9825(10) 0.1097(8)
O121 O -0.3334(11) 0.7787(10) -0.0826(8)
O122 O -1.0178(12) 0.9614(11) 0.2123(8)
O123 O -1.4803(12) 0.4604(11) 0.2116(9)
O124 O -1.1653(9) 0.7772(9) 0.5820(7)
O125 O -1.1309(10) 0.4983(9) 0.3482(7)
O126 O -0.4391(10) 1.0313(9) 0.1381(7)
O127 O -1.0572(10) 1.0315(10) 0.3613(7)
O128 O -1.0585(10) 0.5305(9) 0.1379(7)
O129 O -1.1302(9) 0.9959(8) 0.1486(6)
O130 O -1.3732(9) 0.4963(8) 0.1505(6)
O131 O -1.3698(9) 0.9956(8) 0.3500(6)
O132 O -0.0220(11) 0.4588(10) 0.2881(8)
O133 O -0.1668(10) 0.2764(9) -0.0804(7)
O134 O -0.4559(19) 0.5261(17) -0.0661(13)
O135 O -1.6083(13) 0.4820(12) 0.3916(9)
O136 O -1.5600(11) 0.4694(10) 0.6389(8)
O137 O -1.3341(10) 0.2778(9) 0.5820(7)
O138 O -0.994(3) 0.653(3) 0.194(2)
O139 O -1.493(3) 0.165(3) 0.191(2)
O140 O -1.042(3) 0.527(2) 0.5634(18)
O141 O -1.548(4) 0.636(4) 0.324(3)
O142 O -0.537(3) 0.974(2) 0.4375(17)
Mo15A Mo -0.35848(10) 0.32534(9) -0.08030(7)
O44* O -1.3784(10) 0.5633(9) 0.2683(7)
O49* O -1.3779(10) 1.0620(8) 0.2316(6)
O62* O -0.8207(7) 0.3237(6) 0.1842(5)
O67A O -1.1750(7) 0.3016(7) 0.5303(5)
O69A O -1.3242(7) 0.8016(6) 0.5296(5)
O71* O -0.6792(7) 0.3230(6) 0.3160(5)
O75A O -0.6758(7) 0.6990(6) 0.0294(5)
O96A O -0.1757(7) 0.8018(6) -0.0294(5)
O106* O -1.1181(9) 1.0637(8) 0.2663(6)
Cu1* Cu -1.26968(13) -0.20220(12) 0.46086(9)
Cu1A Cu -1.73032(13) 0.20220(12) 0.53914(9)
Cu2A Cu -0.76962(13) 0.70187(12) 0.53913(9)
Cu4* Cu -1.23041(14) 0.79790(12) 0.03930(9)
Cu4** Cu -0.23041(14) -0.20210(12) 0.03930(9)
Cu4A Cu 0.23041(14) 0.20210(12) -0.03930(9)
Cu5* Cu -1.25002(15) 0.06930(14) 0.24987(11)
Cu5** Cu -0.25002(15) 0.06930(14) 0.24987(11)
Cu6* Cu -0.25009(16) 0.56915(14) 0.24998(11)
Cu7* Cu -1.74999(14) 0.32675(12) 0.25007(10)
Cu7** Cu -0.74999(14) 1.32675(12) 0.25007(10)
Cu7*** Cu 0.25001(14) 0.32675(12) 0.25007(10)
Cu8* Cu -1.74989(15) 0.82655(13) 0.25013(10)
N2* N -1.2556(8) 0.8871(7) 0.4596(6)
N6* N -1.2503(10) 1.1557(8) 0.2503(6)
N11* N -0.7479(9) 0.2351(7) 0.2501(6)
N15* N -0.2478(9) 0.8898(8) 0.0408(6)
N22* N -0.1405(9) 0.8096(8) 0.0750(6)
N23* N -0.6649(10) 0.8278(9) 0.2910(7)
#END
