
#######################################################################
#
#                 Cambridge Crystallographic Data Centre
#                                CCDC
#
#######################################################################
#
# If this CIF has been generated from an entry in the Cambridge
# Structural Database, then it will include bibliographic, chemical,
# crystal, experimental, refinement or atomic coordinate data resulting
# from the CCDC's data processing and validation procedures.
#
#######################################################################

data_CSD_CIF_XUGCOU
_audit_creation_date 2020-02-03
_audit_creation_method CSD-ConQuest-V1
_database_code_CSD XUGCOU
_database_code_depnum_ccdc_archive 'CCDC 1545839'
_chemical_formula_sum 'C16 H17.5 Cl2 Cu12 Mo6 N24 O20.5 P0.5'
_chemical_formula_moiety
;
(C16 H16 Cl2 Cu12 N24 2+)n,0.5(H2 O1),0.5(H1 Mo12 O40 P1 4-)
;
_journal_coden_Cambridge 1350
_journal_volume 22
_journal_year 2020
_journal_page_first 1340
_journal_name_full 'CrystEngComm '
loop_
_publ_author_name
"Xiya Yang"
"Peipei Zhu"
"Xiaoliang Ma"
"Wenjing Li"
"Zenglong Tan"
"Jingquan Sha"
_chemical_name_systematic
;
catena-[octakis(\m-1,2,3-triazolato)-bis(\m-chloro)-dodeca-copper(i) 
hemikis(hydrogen 
phosphato)-tetracosakis(\m-oxo)-dodecaoxo-deca-molybdenum(vi)-di-molybdenum(v)
 hemihydrate unknown solvate]
;
_cell_volume   2623.106
_exptl_crystal_colour 'black'
_exptl_crystal_density_diffrn 2.91
_exptl_crystal_description 'block'
_diffrn_ambient_temperature 296
_refine_special_details
;
The structure is disordered. Disordered solvent molecules were not modelled 
and the disordered density was taken into account using the SQUEEZE/PLATON 
procedure.
;
#These two values have been output from a single CSD field.
_refine_ls_R_factor_gt 0.0472
_refine_ls_wR_factor_gt 0.0472
_symmetry_cell_setting triclinic
_symmetry_space_group_name_H-M 'P -1'
_symmetry_Int_Tables_number 2
loop_
_symmetry_equiv_pos_site_id
_symmetry_equiv_pos_as_xyz
1 x,y,z
2 -x,-y,-z
_cell_length_a 10.0426(14)
_cell_length_b 15.734(2)
_cell_length_c 17.504(3)
_cell_angle_alpha 101.186(2)
_cell_angle_beta 96.301(2)
_cell_angle_gamma 101.842(2)
_cell_formula_units_Z 2
loop_
_atom_type_symbol
_atom_type_radius_bond
C 0.68
H 0.23
Cl 0.99
Cu 1.32
Mo 1.54
N 0.68
O 0.68
P 1.05
loop_
_atom_site_label
_atom_site_type_symbol
_atom_site_fract_x
_atom_site_fract_y
_atom_site_fract_z
C1 C 0.4036(10) 0.2459(6) 0.3762(5)
H1 H 0.32150 0.20720 0.37860
C2 C 0.4754(10) 0.2399(6) 0.3142(5)
H2 H 0.45020 0.19770 0.26680
C3 C 0.3907(11) 0.4818(7) 0.7534(6)
H3 H 0.34520 0.48620 0.79700
C4 C 0.5153(10) 0.5343(7) 0.7482(6)
H4 H 0.56940 0.58110 0.78730
C5 C -0.0165(11) -0.0774(7) 0.6317(6)
H5 H -0.08700 -0.12630 0.63120
C6 C 0.0378(10) -0.0068(7) 0.6953(6)
H6 H 0.01340 -0.00020 0.74550
C7 C -0.0203(10) 0.2681(7) 0.7545(6)
H7 H 0.02110 0.31150 0.79960
C8 C -0.1398(10) 0.2035(7) 0.7468(6)
H8 H -0.19440 0.19590 0.78570
C9 C 0.5746(9) 0.0855(6) 0.4119(5)
H9 H 0.61680 0.06850 0.36860
C10 C 0.6305(10) 0.1536(7) 0.4756(6)
H10 H 0.71820 0.19050 0.48370
C11 C 0.5684(12) 0.3605(8) 0.8473(6)
H11 H 0.61400 0.40180 0.89280
C12 C 0.9662(9) 0.6634(6) 0.6037(6)
H12 H 0.99610 0.70330 0.65220
C13 C 1.0310(9) 0.6610(6) 0.5407(5)
H13 H 1.11410 0.69860 0.53810
C14 C 0.4402(11) 0.3049(7) 0.8384(6)
H14 H 0.38350 0.30170 0.87690
C15 C 1.0099(13) 0.4492(8) 0.1540(7)
H15 H 1.04880 0.45030 0.10820
C16 C 0.8963(12) 0.3884(8) 0.1628(7)
H16 H 0.84640 0.33920 0.12450
N1 N 0.1399(7) 0.0156(5) 0.5946(4)
N2 N 0.0491(8) -0.0637(5) 0.5707(4)
N3 N 0.1342(7) 0.0511(5) 0.6702(4)
N4 N 0.5176(8) 0.2811(5) 0.7274(4)
N5 N 0.6167(8) 0.3443(5) 0.7776(5)
N6 N 0.4114(8) 0.2559(5) 0.7636(4)
N7 N 0.5380(8) 0.1581(5) 0.5244(4)
N8 N 0.4268(7) 0.0935(5) 0.4925(4)
N9 N 0.4476(7) 0.0475(5) 0.4229(4)
N10 N 0.9566(7) 0.5956(5) 0.4823(4)
N11 N -0.0620(7) 0.1858(5) 0.6344(4)
N12 N -0.1629(8) 0.1537(5) 0.6730(5)
N13 N 0.0256(7) 0.2568(5) 0.6843(4)
N14 N 0.3464(8) 0.4227(5) 0.6839(5)
N15 N 0.5444(7) 0.5049(5) 0.6755(4)
N16 N 0.4417(7) 0.4369(5) 0.6368(4)
N17 N 0.4703(7) 0.3162(5) 0.4329(4)
N18 N 0.5838(8) 0.3529(5) 0.4074(4)
N19 N 0.5885(8) 0.3060(5) 0.3343(4)
N20 N 0.8493(7) 0.5976(5) 0.5846(4)
N21 N 0.8470(7) 0.5571(5) 0.5109(4)
N22 N 0.8707(8) 0.4122(5) 0.2348(4)
N23 N 1.0544(8) 0.5070(6) 0.2241(5)
N24 N 0.9675(8) 0.4839(5) 0.2725(4)
Cu1 Cu 0.72782(13) 0.35153(8) 0.27973(7)
Cu2 Cu -0.02959(12) 0.13374(8) 0.53348(7)
Cu3 Cu 0.43895(13) 0.36478(8) 0.53616(7)
Cu4 Cu 0.54099(13) 0.23231(8) 0.62413(7)
Cu5 Cu 0.31149(12) -0.05492(8) 0.36942(7)
Cu6 Cu 0.26840(12) 0.15516(8) 0.72068(7)
Cu7 Cu 0.26718(13) 0.07216(9) 0.53972(7)
Cu8 Cu 0.71509(12) 0.45364(8) 0.46085(7)
Cu9 Cu 0.18866(12) 0.32427(8) 0.65802(7)
Cu10 Cu 0.70533(13) 0.55114(9) 0.63594(8)
Cu11 Cu 1.01452(12) 0.44883(8) 0.62297(7)
Cu12 Cu 0.77856(14) 0.40351(9) 0.74561(8)
Cl1 Cl 0.2210(2) 0.23088(15) 0.53660(14)
Cl2 Cl 0.7565(2) 0.36101(16) 0.60279(15)
O1 O 0.5967(11) 0.0880(7) 0.0387(6)
O2 O 0.5779(11) 0.0011(8) 0.0765(6)
O3 O 0.5956(12) -0.0720(8) -0.0160(6)
O4 O 0.6193(8) 0.0632(5) 0.2142(6)
O5 O 0.6220(8) -0.1043(5) 0.1560(6)
O6 O 0.1586(10) -0.0650(6) 0.0592(6)
O7 O 0.1180(7) 0.0873(6) 0.1617(5)
O8 O 0.1709(11) 0.0715(8) 0.0051(5)
O9 O 0.8167(8) 0.0240(5) 0.1340(5)
O10 O 0.6341(10) 0.2096(6) 0.1575(5)
O11 O 0.8651(8) -0.1461(6) 0.1275(5)
O12 O 0.3713(11) 0.2005(8) -0.0164(5)
O13 O 0.6555(9) 0.1424(6) -0.1249(5)
O14 O 0.650(1) 0.2401(6) 0.0142(5)
O15 O 0.8283(11) 0.1636(7) 0.0780(5)
O16 O 0.3622(10) 0.1703(8) 0.1247(5)
O17 O 0.3485(9) 0.0250(6) 0.1825(6)
O18 O 0.8648(8) 0.1878(6) 0.2428(4)
O19 O 0.4702(9) -0.0730(5) 0.2765(4)
O20 O 0.9006(8) 0.2506(6) -0.0385(6)
O21 O 0.5068(10) 0.3350(5) 0.1083(5)
P1 P 0.50000 0.00000 0.00000
Mo1 Mo 0.24006(9) 0.06262(7) 0.11063(6)
Mo2 Mo 0.75304(10) -0.09903(7) 0.08440(6)
Mo3 Mo 0.74572(9) 0.12928(6) 0.16638(5)
Mo4 Mo 0.77565(10) 0.17074(6) -0.02644(6)
Mo5 Mo 0.48292(10) -0.04901(6) 0.18772(5)
Mo6 Mo 0.50689(10) 0.22945(6) 0.07306(5)
O22 O 0.4060(12) -0.0336(8) 0.0585(7)
O23 O 0.8100(14) 0.6882(9) 0.7668(8)
H17 H 0.87400 0.70870 0.80710
H18 H 0.75470 0.72310 0.77110
N2A N -0.0491(8) 0.0637(5) 0.4293(4)
N10A N 1.0434(7) 0.4044(5) 0.5177(4)
N12A N 0.1629(8) -0.1537(5) 0.3270(5)
N23A N 0.9456(8) 0.4930(6) 0.7759(5)
N24A N 1.0325(8) 0.5161(5) 0.7275(4)
Cu2A Cu 0.02959(12) -0.13374(8) 0.46652(7)
Cu5A Cu -0.31149(12) 0.05492(8) 0.63058(7)
Cu11A Cu 0.98548(12) 0.55117(8) 0.37703(7)
Cu12A Cu 1.22144(14) 0.59649(9) 0.25439(8)
O1A O 0.4033(11) -0.0880(7) -0.0387(6)
O2A O 0.4221(11) -0.0011(8) -0.0765(6)
O3A O 0.4044(12) 0.0720(8) 0.0160(6)
O22A O 0.5940(12) 0.0336(8) -0.0585(7)
O4A O 0.3807(8) -0.0632(5) -0.2142(6)
O5A O 0.3780(8) 0.1043(5) -0.1560(6)
O6A O 0.8414(10) 0.0650(6) -0.0592(6)
O7A O 0.8820(7) -0.0873(6) -0.1617(5)
O8A O 0.8291(11) -0.0715(8) -0.0051(5)
O9A O 0.1833(8) -0.0240(5) -0.1340(5)
O10A O 0.3659(10) -0.2096(6) -0.1575(5)
O11A O 0.1349(8) 0.1461(6) -0.1275(5)
O12A O 0.6287(11) -0.2005(8) 0.0164(5)
O13A O 0.3445(9) -0.1424(6) 0.1249(5)
O14A O 0.350(1) -0.2401(6) -0.0142(5)
O15A O 0.1717(11) -0.1636(7) -0.0780(5)
O16A O 0.6378(10) -0.1703(8) -0.1247(5)
O17A O 0.6515(9) -0.0250(6) -0.1825(6)
O18A O 0.1352(8) -0.1878(6) -0.2428(4)
O19A O 0.5298(9) 0.0730(5) -0.2765(4)
O20A O 0.0994(8) -0.2506(6) 0.0385(6)
O21A O 0.4932(10) -0.3350(5) -0.1083(5)
Mo1A Mo 0.75994(9) -0.06262(7) -0.11063(6)
Mo2A Mo 0.24696(10) 0.09903(7) -0.08440(6)
Mo3A Mo 0.25428(9) -0.12928(6) -0.16638(5)
Mo4A Mo 0.22435(10) -0.17074(6) 0.02644(6)
Mo5A Mo 0.51708(10) 0.04901(6) -0.18772(5)
Mo6A Mo 0.49311(10) -0.22945(6) -0.07306(5)
#END
