
#######################################################################
#
#                 Cambridge Crystallographic Data Centre
#                                CCDC
#
#######################################################################
#
# If this CIF has been generated from an entry in the Cambridge
# Structural Database, then it will include bibliographic, chemical,
# crystal, experimental, refinement or atomic coordinate data resulting
# from the CCDC's data processing and validation procedures.
#
#######################################################################

data_CSD_CIF_XUGFIQ
_audit_creation_date 2015-04-07
_audit_creation_method CSD-ConQuest-V1
_database_code_CSD XUGFIQ
_database_code_depnum_ccdc_archive 'CCDC 1011086'
_chemical_formula_sum 'C12 H32 Cu3 Mo10 N26 O34'
_chemical_formula_moiety
;
(H4 N1 1+)2n,n(C12 H24 Cu3 Mo10 N24 O34 2-)
;
_journal_coden_Cambridge 1295
_journal_volume 49
_journal_year 2014
_journal_page_first 12
_journal_name_full 'Inorg.Chem.Commun. '
loop_
_publ_author_name
"Yonghong Yan"
"Bin Liu"
"Chengxin Yu"
"Xiaofen Zhang"
"Huai-Ming Hu"
"Ganglin Xue"
_chemical_name_systematic
;
catena-[Diammonium 
tetrakis(\m~4~-oxo)-tetrakis(\m~3~-oxo)-hexakis(\m~2~-4H-1,2,4-triazol-4-amine
)-decakis(\m~2~-oxo)-hexadeca-oxo-tri-copper-deca-molybdenum]
;
_cell_volume   1263.302
_exptl_crystal_colour 'blue'
_exptl_crystal_density_diffrn 2.937
_exptl_crystal_description 'block'
_diffrn_ambient_temperature 296
#These two values have been output from a single CSD field.
_refine_ls_R_factor_gt 0.0298
_refine_ls_wR_factor_gt 0.0298
_symmetry_cell_setting triclinic
_symmetry_space_group_name_H-M 'P -1'
_symmetry_Int_Tables_number 2
loop_
_symmetry_equiv_pos_site_id
_symmetry_equiv_pos_as_xyz
1 x,y,z
2 -x,-y,-z
_cell_length_a 10.6723(7)
_cell_length_b 11.8947(8)
_cell_length_c 12.5638(8)
_cell_angle_alpha 66.678(1)
_cell_angle_beta 65.224(1)
_cell_angle_gamma 64.772(1)
_cell_formula_units_Z 1
loop_
_atom_type_symbol
_atom_type_radius_bond
C 0.68
H 0.23
Cu 1.32
Mo 1.54
N 0.68
O 0.68
loop_
_atom_site_label
_atom_site_type_symbol
_atom_site_fract_x
_atom_site_fract_y
_atom_site_fract_z
Mo1 Mo 0.13305(5) 1.05965(5) -0.01344(4)
Mo2 Mo 0.04071(5) 0.79514(5) 0.22280(4)
Mo3 Mo 0.27745(5) 0.74393(5) -0.04178(5)
Mo4 Mo 0.35379(6) 1.00640(5) -0.27772(4)
Mo5 Mo 0.56567(5) 0.83521(5) -0.10588(4)
O1 O -0.0691(4) 1.1327(4) -0.0214(4)
O2 O 0.4667(4) 0.6908(4) -0.0535(4)
O3 O 0.5329(4) 0.8794(4) -0.2601(4)
O4 O 0.0960(5) 0.9942(4) 0.1427(4)
O5 O 0.5850(5) 0.9756(4) -0.1215(4)
O6 O 0.5000(5) 0.7959(4) 0.0747(3)
O7 O 0.2351(5) 0.6076(4) -0.0053(4)
O8 O 0.3144(4) 0.9417(4) -0.0736(4)
O9 O 0.2795(5) 0.8223(4) -0.1944(4)
O10 O -0.0074(5) 0.6626(4) 0.2593(4)
O11 O 0.7383(5) 0.7317(4) -0.1341(4)
Cu1 Cu 0.41979(8) 0.65980(6) 0.19799(6)
O12 O -0.1434(4) 0.9231(4) 0.1941(4)
O13 O 0.2429(4) 0.7362(4) 0.1429(4)
O14 O 0.1691(5) 1.1940(4) -0.0397(4)
O15 O 0.0232(5) 0.8055(5) 0.3601(4)
O16 O 0.3453(5) 1.0153(5) -0.4141(4)
O17 O 0.3956(5) 1.1413(4) -0.3062(4)
Cu2 Cu 0.50000 0.50000 0.50000
N1 N 0.3797(5) 0.6860(5) 0.4580(4)
N2 N 0.2420(6) 0.8800(5) 0.4625(5)
N3 N 0.3443(6) 0.7483(5) 0.3497(4)
N4 N 0.1489(7) 0.9915(6) 0.5028(6)
H1 H 0.09990 1.05550 0.45800
H2 H 0.14130 0.99540 0.57230
C1 C 0.2618(7) 0.8639(6) 0.3572(6)
H3 H 0.22180 0.92710 0.29710
N5 N 0.3592(6) 0.5043(5) 0.2982(5)
N6 N 0.3752(7) 0.4421(5) 0.4119(5)
C2 C 0.3152(7) 0.7679(6) 0.5243(6)
H4 H 0.31950 0.75110 0.60180
C3 C 0.2850(7) 0.4531(6) 0.2802(6)
H5 H 0.26000 0.47790 0.20980
C4 C 0.3125(8) 0.3528(6) 0.4584(6)
H6 H 0.30980 0.29340 0.53390
N7 N 0.2512(6) 0.3603(5) 0.3784(5)
N8 N 0.1700(7) 0.2851(6) 0.3931(5)
H7 H 0.13790 0.29780 0.33550
H8 H 0.15240 0.22640 0.45970
N9 N 0.6472(5) 0.5225(5) 0.3360(4)
N10 N 0.6186(5) 0.5726(5) 0.2248(4)
C5 C 0.7419(7) 0.5669(6) 0.1415(5)
H9 H 0.75380 0.59310 0.05860
C6 C 0.7880(7) 0.4909(6) 0.3117(6)
H10 H 0.83710 0.45510 0.36940
N11 N 0.8512(5) 0.5183(5) 0.1897(5)
N12 N 0.9987(6) 0.4954(7) 0.1257(6)
H11 H 1.022(12) 0.562(6) 0.111(10)
H12 H 1.053(8) 0.427(5) 0.162(7)
N13 N 0.0280(8) 0.7924(7) 0.7312(7)
H13 H 0.061(6) 0.745(6) 0.796(4)
H14 H 0.013(8) 0.877(2) 0.720(7)
H15 H 0.096(5) 0.767(7) 0.664(4)
H16 H -0.056(4) 0.781(7) 0.744(6)
Mo1A Mo -0.13305(5) 0.94035(5) 0.01344(4)
Mo2A Mo -0.04071(5) 1.20486(5) -0.22280(4)
Mo3A Mo -0.27745(5) 1.25607(5) 0.04178(5)
Mo4A Mo -0.35379(6) 0.99360(5) 0.27772(4)
Mo5A Mo -0.56567(5) 1.16479(5) 0.10588(4)
O1A O 0.0691(4) 0.8673(4) 0.0214(4)
O2A O -0.4667(4) 1.3092(4) 0.0535(4)
O3A O -0.5329(4) 1.1206(4) 0.2601(4)
O4A O -0.0960(5) 1.0058(4) -0.1427(4)
O5A O -0.5850(5) 1.0244(4) 0.1215(4)
O6A O -0.5000(5) 1.2041(4) -0.0747(3)
O7A O -0.2351(5) 1.3924(4) 0.0053(4)
O8A O -0.3144(4) 1.0583(4) 0.0736(4)
O9A O -0.2795(5) 1.1777(4) 0.1944(4)
O10A O 0.0074(5) 1.3374(4) -0.2593(4)
O11A O -0.7383(5) 1.2683(4) 0.1341(4)
Cu1A Cu -0.41979(8) 1.34020(6) -0.19799(6)
O12A O 0.1434(4) 1.0769(4) -0.1941(4)
O13A O -0.2429(4) 1.2638(4) -0.1429(4)
O14A O -0.1691(5) 0.8060(4) 0.0397(4)
O15A O -0.0232(5) 1.1945(5) -0.3601(4)
O16A O -0.3453(5) 0.9847(5) 0.4141(4)
O17A O -0.3956(5) 0.8587(4) 0.3062(4)
N1A N -0.3797(5) 1.3140(5) -0.4580(4)
N2A N -0.2420(6) 1.1200(5) -0.4625(5)
N3A N -0.3443(6) 1.2517(5) -0.3497(4)
N4A N -0.1489(7) 1.0085(6) -0.5028(6)
H1A H -0.09990 0.94450 -0.45800
H2A H -0.14130 1.00460 -0.57230
C1A C -0.2618(7) 1.1361(6) -0.3572(6)
H3A H -0.22180 1.07290 -0.29710
N5A N -0.3592(6) 1.4957(5) -0.2982(5)
N6A N -0.3752(7) 1.5579(5) -0.4119(5)
C2A C -0.3152(7) 1.2321(6) -0.5243(6)
H4A H -0.31950 1.24890 -0.60180
C3A C -0.2850(7) 1.5469(6) -0.2802(6)
H5A H -0.26000 1.52210 -0.20980
C4A C -0.3125(8) 1.6472(6) -0.4584(6)
H6A H -0.30980 1.70660 -0.53390
N7A N -0.2512(6) 1.6397(5) -0.3784(5)
N8A N -0.1700(7) 1.7149(6) -0.3931(5)
H7A H -0.13790 1.70220 -0.33550
H8A H -0.15240 1.77360 -0.45970
N9A N -0.6472(5) 1.4775(5) -0.3360(4)
N10A N -0.6186(5) 1.4274(5) -0.2248(4)
C5A C -0.7419(7) 1.4331(6) -0.1415(5)
H9A H -0.75380 1.40690 -0.05860
C6A C -0.7880(7) 1.5091(6) -0.3117(6)
H10A H -0.83710 1.54490 -0.36940
N11A N -0.8512(5) 1.4817(5) -0.1897(5)
N12A N -0.9987(6) 1.5046(7) -0.1257(6)
H11A H -1.022(12) 1.438(6) -0.111(10)
H12A H -1.053(8) 1.573(5) -0.162(7)
Cu2* Cu -0.50000 1.50000 -0.50000
N1A* N 0.6203(5) 0.3140(5) 0.5420(4)
N6A* N 0.6248(7) 0.5579(5) 0.5881(5)
N9A* N 0.3528(5) 0.4775(5) 0.6640(4)
#END
