
#######################################################################
#
#                 Cambridge Crystallographic Data Centre
#                                CCDC
#
#######################################################################
#
# If this CIF has been generated from an entry in the Cambridge
# Structural Database, then it will include bibliographic, chemical,
# crystal, experimental, refinement or atomic coordinate data resulting
# from the CCDC's data processing and validation procedures.
#
#######################################################################

data_CSD_CIF_XUGMET
_audit_creation_date 2015-04-07
_audit_creation_method CSD-ConQuest-V1
_database_code_CSD XUGMET
_database_code_depnum_ccdc_archive 'CCDC 1003007'
_chemical_formula_sum 'C14 H16 Mn1 N6 O4 S2'
_chemical_formula_moiety
;
(H4 N1 1+)2n,n(C14 H8 Mn1 N4 O4 S2 2-)
;
_journal_coden_Cambridge 182
_journal_volume 51
_journal_year 2015
_journal_page_first 7637
_journal_name_full 'Chem.Commun. '
loop_
_publ_author_name
"D.Matoga"
"M.Oszajca"
"M.Molenda"
_chemical_name_systematic
;
catena-[bis(Ammonium) bis(\m~2~-isonicotinato)-bis(isothiocyanato)-manganese]
;
_cell_volume    968.406
_exptl_crystal_colour 'pale yellow'
_exptl_crystal_density_diffrn 1.52
_exptl_special_details
;
powder data

;
_diffrn_ambient_temperature 293
#These two values have been output from a single CSD field.
_refine_ls_R_factor_gt 0.1021
_refine_ls_wR_factor_gt 0.1021
_symmetry_cell_setting monoclinic
_symmetry_space_group_name_H-M 'P 21/c'
_symmetry_Int_Tables_number 14
loop_
_symmetry_equiv_pos_site_id
_symmetry_equiv_pos_as_xyz
1 x,y,z
2 -x,1/2+y,1/2-z
3 -x,-y,-z
4 x,-1/2-y,-1/2+z
_cell_length_a 9.723(3)
_cell_length_b 14.061(4)
_cell_length_c 7.1516(18)
_cell_angle_alpha 90
_cell_angle_beta 97.92(3)
_cell_angle_gamma 90
_cell_formula_units_Z 2
loop_
_atom_type_symbol
_atom_type_radius_bond
C 0.68
H 0.23
Mn 1.61
N 0.68
O 0.68
S 1.02
loop_
_atom_site_label
_atom_site_type_symbol
_atom_site_fract_x
_atom_site_fract_y
_atom_site_fract_z
Mn1 Mn 0.00000 0.00000 0.00000
S1 S -0.443(6) 0.137(4) 0.156(8)
C1 C -0.296(9) 0.084(4) 0.123(16)
N1 N -0.195(10) 0.049(6) 0.099(18)
O1 O 0.130(9) 0.497(6) -0.207(14)
C2 C 0.202(12) 0.438(5) -0.11(3)
O2 O 0.319(9) 0.454(6) -0.021(14)
C3 C 0.138(4) 0.340(2) -0.093(3)
C4 C 0.007(3) 0.317(3) -0.053(2)
C5 C -0.029(5) 0.223(3) -0.037(3)
N2 N 0.062(6) 0.153(3) -0.060(5)
C6 C 0.189(6) 0.174(3) -0.098(5)
C7 C 0.229(4) 0.267(3) -0.115(5)
H1 H -0.05894 0.36663 -0.03682
H2 H -0.11959 0.20690 -0.00940
H3 H 0.25338 0.12338 -0.11400
H4 H 0.32055 0.28153 -0.14329
N3 N 0.434(13) 0.614(6) -0.163(13)
S1B S 0.443(6) -0.137(4) -0.156(8)
C1B C 0.296(9) -0.084(4) -0.123(16)
N1B N 0.195(10) -0.049(6) -0.099(18)
O1B O -0.130(9) -0.497(6) 0.207(14)
C2B C -0.202(12) -0.438(5) 0.11(3)
O2B O -0.319(9) -0.454(6) 0.021(14)
C3B C -0.138(4) -0.340(2) 0.093(3)
C4B C -0.007(3) -0.317(3) 0.053(2)
C5B C 0.029(5) -0.223(3) 0.037(3)
N2B N -0.062(6) -0.153(3) 0.060(5)
C6B C -0.189(6) -0.174(3) 0.098(5)
C7B C -0.229(4) -0.267(3) 0.115(5)
H1B H 0.05894 -0.36663 0.03682
H2B H 0.11959 -0.20690 0.00940
H3B H -0.25338 -0.12338 0.11400
H4B H -0.32055 -0.28153 0.14329
Mn1A Mn 0.00000 -0.50000 0.50000
Mn1A* Mn 0.00000 0.50000 -0.50000
O1A O -0.130(9) -0.003(6) -0.293(14)
O1C O 0.130(9) 0.003(6) 0.293(14)
#END
