
#######################################################################
#
#                 Cambridge Crystallographic Data Centre
#                                CCDC
#
#######################################################################
#
# If this CIF has been generated from an entry in the Cambridge
# Structural Database, then it will include bibliographic, chemical,
# crystal, experimental, refinement or atomic coordinate data resulting
# from the CCDC's data processing and validation procedures.
#
#######################################################################

data_CSD_CIF_XUGWAZ
_audit_creation_date 2015-04-07
_audit_creation_method CSD-ConQuest-V1
_database_code_CSD XUGWAZ
_database_code_depnum_ccdc_archive 'CCDC 994078'
_chemical_formula_sum 'C44 H33 Dy1 N4 O15 S4'
_chemical_formula_moiety
;
(C44 H26 Dy1 N4 O12 S4 1-)n,2(H2 O1),H3 O1 1+
;
_journal_coden_Cambridge 1295
_journal_volume 49
_journal_year 2014
_journal_page_first 16
_journal_name_full 'Inorg.Chem.Commun. '
loop_
_publ_author_name
"Wen-Tong Chen"
"Qiu-Yan Luo"
"Ya-Ping Xu"
"Yan-Kang Dai"
"Shan-Lin Huang"
"Pei-Yu Guo"
_chemical_name_systematic
;
catena-[oxonium 
(\m-4-(10,15,20-tris(4-sulfophenyl)porphyrin-5-yl)benzenesulfonato)-dysprosium
 dihydrate]
;
_cell_volume   2319.053
_exptl_crystal_colour 'purple'
_exptl_crystal_density_diffrn 1.645
_exptl_crystal_description 'block'
_diffrn_ambient_temperature 123.2
#These two values have been output from a single CSD field.
_refine_ls_R_factor_gt 0.0448
_refine_ls_wR_factor_gt 0.0448
_symmetry_cell_setting tetragonal
_symmetry_space_group_name_H-M 'P 4/m c c'
_symmetry_Int_Tables_number 124
loop_
_symmetry_equiv_pos_site_id
_symmetry_equiv_pos_as_xyz
1 x,y,z
2 -x,-y,z
3 -y,x,z
4 y,-x,z
5 -x,y,1/2-z
6 x,-y,1/2-z
7 y,x,1/2-z
8 -y,-x,1/2-z
9 -x,-y,-z
10 x,y,-z
11 y,-x,-z
12 -y,x,-z
13 x,-y,-1/2+z
14 -x,y,-1/2+z
15 -y,-x,-1/2+z
16 y,x,-1/2+z
_cell_length_a 15.3763(6)
_cell_length_b 15.3763(6)
_cell_length_c 9.8086(9)
_cell_angle_alpha 90
_cell_angle_beta 90
_cell_angle_gamma 90
_cell_formula_units_Z 2
loop_
_atom_type_symbol
_atom_type_radius_bond
C 0.68
H 0.23
Dy 1.92
N 0.68
O 0.68
S 1.02
loop_
_atom_site_label
_atom_site_type_symbol
_atom_site_fract_x
_atom_site_fract_y
_atom_site_fract_z
Dy1 Dy 0.00000 0.00000 0.25000
S1 S 0.02606(4) -0.17851(4) 0.00000
O1 O 0.03119(10) -0.12556(11) 0.12234(19)
O2 O 0.08926(13) -0.24761(13) 0.00000
N1 N -0.46978(16) -0.37029(15) 0.00000
C1 C -0.07625(16) -0.23175(17) 0.00000
C2 C -0.11308(14) -0.25558(13) 0.1220(2)
H1 H -0.08790 -0.23840 0.20390
C3 C -0.18793(14) -0.30529(14) 0.1219(2)
H2 H -0.21290 -0.32200 0.20420
C4 C -0.22620(18) -0.33055(18) 0.00000
C5 C -0.30881(17) -0.38185(18) 0.00000
C6 C -0.38683(19) -0.33576(18) 0.00000
C7 C -0.39388(19) -0.24193(18) 0.00000
H3 H -0.34800 -0.20250 0.00000
C8 C -0.4793(2) -0.22230(19) 0.00000
H4 H -0.50290 -0.16660 0.00000
C9 C -0.5275(2) -0.30237(19) 0.00000
O3 O -0.50000 -0.50000 0.25000
O4 O -0.50000 -0.50000 0.0735(6)
S1B S -0.82149(4) 0.02606(4) 0.00000
O1B O -0.87444(10) 0.03119(11) 0.12234(19)
O2B O -0.75239(13) 0.08926(13) 0.00000
N1B N -0.62971(16) -0.46978(15) 0.00000
C1B C -0.76825(16) -0.07625(17) 0.00000
C2B C -0.74442(14) -0.11308(13) 0.1220(2)
H1B H -0.76160 -0.08790 0.20390
C3B C -0.69471(14) -0.18793(14) 0.1219(2)
H2B H -0.67800 -0.21290 0.20420
C4B C -0.66945(18) -0.22620(18) 0.00000
C5B C -0.61815(17) -0.30881(18) 0.00000
C6B C -0.66424(19) -0.38683(18) 0.00000
C7B C -0.75807(19) -0.39388(18) 0.00000
H3B H -0.79750 -0.34800 0.00000
C8B C -0.7777(2) -0.47930(19) 0.00000
H4B H -0.83340 -0.50290 0.00000
C9B C -0.69763(20) -0.52750(19) 0.00000
S1C S -0.17851(4) -1.02606(4) 0.00000
O1C O -0.12556(10) -1.03119(11) 0.12234(19)
O2C O -0.24761(13) -1.08926(13) 0.00000
N1C N -0.37029(16) -0.53022(15) 0.00000
C1C C -0.23175(16) -0.92375(17) 0.00000
C2C C -0.25558(14) -0.88692(13) 0.1220(2)
H1C H -0.23840 -0.91210 0.20390
C3C C -0.30529(14) -0.81207(14) 0.1219(2)
H2C H -0.32200 -0.78710 0.20420
C4C C -0.33055(18) -0.77380(18) 0.00000
C5C C -0.38185(17) -0.69119(18) 0.00000
C6C C -0.33576(19) -0.61317(18) 0.00000
C7C C -0.24193(19) -0.60612(18) 0.00000
H3C H -0.20250 -0.65200 0.00000
C8C C -0.2223(2) -0.52070(19) 0.00000
H4C H -0.16660 -0.49710 0.00000
C9C C -0.30237(20) -0.47250(19) 0.00000
O1I O 0.03119(10) -0.12556(11) -0.12234(19)
C2I C -0.11308(14) -0.25558(13) -0.1220(2)
H1I H -0.08790 -0.23840 -0.20390
C3I C -0.18793(14) -0.30529(14) -0.1219(2)
H2I H -0.21290 -0.32200 -0.20420
O1J O -0.12556(10) -1.03119(11) -0.12234(19)
C2J C -0.25558(14) -0.88692(13) -0.1220(2)
H1J H -0.23840 -0.91210 -0.20390
C3J C -0.30529(14) -0.81207(14) -0.1219(2)
H2J H -0.32200 -0.78710 -0.20420
O1K O -0.87444(10) 0.03119(11) -0.12234(19)
C2K C -0.74442(14) -0.11308(13) -0.1220(2)
H1K H -0.76160 -0.08790 -0.20390
C3K C -0.69471(14) -0.18793(14) -0.1219(2)
H2K H -0.67800 -0.21290 -0.20420
S1A S -1.02606(4) -0.82149(4) 0.00000
O1A O -1.03119(10) -0.87444(11) 0.12234(19)
O2A O -1.08926(13) -0.75239(13) 0.00000
N1A N -0.53022(16) -0.62971(15) 0.00000
C1A C -0.92375(16) -0.76825(17) 0.00000
C2A C -0.88692(14) -0.74442(13) 0.1220(2)
H1A H -0.91210 -0.76160 0.20390
C3A C -0.81207(14) -0.69471(14) 0.1219(2)
H2A H -0.78710 -0.67800 0.20420
C4A C -0.77380(18) -0.66945(18) 0.00000
C5A C -0.69119(17) -0.61815(18) 0.00000
C6A C -0.61317(19) -0.66424(18) 0.00000
C7A C -0.60612(19) -0.75807(18) 0.00000
H3A H -0.65200 -0.79750 0.00000
C8A C -0.5207(2) -0.77770(19) 0.00000
H4A H -0.49710 -0.83340 0.00000
C9A C -0.4725(2) -0.69763(19) 0.00000
O1H O -1.03119(10) -0.87444(11) -0.12234(19)
C2H C -0.88692(14) -0.74442(13) -0.1220(2)
H1H H -0.91210 -0.76160 -0.20390
C3H C -0.81207(14) -0.69471(14) -0.1219(2)
H2H H -0.78710 -0.67800 -0.20420
Dy1* Dy -1.00000 -1.00000 0.25000
Dy1** Dy -1.00000 0.00000 0.25000
Dy1*** Dy 0.00000 -1.00000 0.25000
Dy1H Dy -1.00000 -1.00000 -0.25000
Dy1H* Dy -1.00000 0.00000 -0.25000
Dy1H** Dy 0.00000 -1.00000 -0.25000
Dy1H*** Dy 0.00000 0.00000 -0.25000
O1A* O -0.03119(10) 0.12556(11) 0.12234(19)
O1B* O 0.12556(10) 0.03119(11) 0.12234(19)
O1C* O -0.12556(10) -0.03119(11) 0.12234(19)
O1D O -0.03119(10) -0.12556(11) 0.37766(19)
O1E O 0.03119(10) 0.12556(11) 0.37766(19)
O1F O -0.12556(10) 0.03119(11) 0.37766(19)
O1G O 0.12556(10) -0.03119(11) 0.37766(19)
#END
