
#######################################################################
#
#                 Cambridge Crystallographic Data Centre
#                                CCDC
#
#######################################################################
#
# If this CIF has been generated from an entry in the Cambridge
# Structural Database, then it will include bibliographic, chemical,
# crystal, experimental, refinement or atomic coordinate data resulting
# from the CCDC's data processing and validation procedures.
#
#######################################################################

data_CSD_CIF_XUHVON
_audit_creation_date 2015-04-08
_audit_creation_method CSD-ConQuest-V1
_database_code_CSD XUHVON
_database_code_depnum_ccdc_archive 'CCDC 1052688'
_chemical_formula_sum 'C40 H56 N14 O14 Zn2'
_chemical_formula_moiety
;
(C26 H10 N8 O12 Zn2 4-)n,2(C3 H7 N1 O1),4(C2 H8 N1 1+)
;
_journal_coden_Cambridge 1295
_journal_volume 56
_journal_year 2015
_journal_page_first 102
_journal_name_full 'Inorg.Chem.Commun. '
loop_
_publ_author_name
"Ze-Ping Wang"
"Mei-Ling Feng"
"Xing-Kun Xie"
"Xiao-Ying Huang"
_chemical_name_systematic
;
catena-(tetrakis(dimethylammonium) 
bis(\m-benzene-1,3,5-tricarboxylato)-(\m-5,5'-(1,4-phenylene)bis(tetrazolato))
-di-zinc N,N-dimethylformamide solvate)
;
_cell_volume   2499.003
_exptl_crystal_colour 'light yellow'
_exptl_crystal_density_diffrn 1.446
_exptl_special_details
;
Luminescent

;
_exptl_crystal_description 'block'
_diffrn_ambient_temperature 293
_refine_special_details
;
C18B,C19B,C20B and C18,C19,C20 disordered over two sites with occupancies 
0.597:0.403.
;
#These two values have been output from a single CSD field.
_refine_ls_R_factor_gt 0.0373
_refine_ls_wR_factor_gt 0.0373
_symmetry_cell_setting monoclinic
_symmetry_space_group_name_H-M 'P 21/c'
_symmetry_Int_Tables_number 14
loop_
_symmetry_equiv_pos_site_id
_symmetry_equiv_pos_as_xyz
1 x,y,z
2 -x,1/2+y,1/2-z
3 -x,-y,-z
4 x,-1/2-y,-1/2+z
_cell_length_a 15.9293(4)
_cell_length_b 10.9222(2)
_cell_length_c 15.8803(4)
_cell_angle_alpha 90
_cell_angle_beta 115.246(3)
_cell_angle_gamma 90
_cell_formula_units_Z 2
loop_
_atom_type_symbol
_atom_type_radius_bond
C 0.68
H 0.23
N 0.68
O 0.68
Zn 1.22
loop_
_atom_site_label
_atom_site_type_symbol
_atom_site_fract_x
_atom_site_fract_y
_atom_site_fract_z
Zn1 Zn 0.295772(17) 0.41718(2) 0.288470(16)
O1 O 0.27302(17) 0.5316(2) 0.36995(15)
O2 O 0.16233(14) 0.6686(2) 0.32703(13)
O3 O 0.18030(13) 0.9500(2) 0.59125(14)
O4 O 0.32167(14) 0.9967(2) 0.69629(13)
O5 O 0.59150(13) 0.7699(2) 0.72239(13)
O6 O 0.58244(12) 0.63516(18) 0.61594(11)
N1 N 0.19506(14) 0.29317(18) 0.23822(12)
N2 N 0.14321(16) 0.2589(2) 0.28000(14)
N3 N 0.08273(16) 0.1755(2) 0.22665(15)
N4 N 0.17076(15) 0.23315(19) 0.15724(13)
C1 C 0.23907(18) 0.6295(2) 0.37944(16)
C2 C 0.29666(16) 0.7011(2) 0.46640(15)
C3 C 0.25566(16) 0.7871(2) 0.50152(15)
H1 H 0.19200 0.80070 0.47140
C4 C 0.30943(16) 0.8532(2) 0.58179(15)
C5 C 0.40403(16) 0.8327(2) 0.62561(15)
H2 H 0.44030 0.87850 0.67790
C6 C 0.44583(16) 0.7450(2) 0.59282(15)
C7 C 0.39170(16) 0.6796(2) 0.51263(15)
H3 H 0.41920 0.62130 0.48980
C8 C 0.26476(18) 0.9396(2) 0.62486(17)
C9 C 0.54697(17) 0.7165(2) 0.64738(16)
C10 C 0.10102(17) 0.1622(2) 0.15229(16)
C11 C 0.04975(17) 0.0777(2) 0.07440(16)
C12 C -0.03890(19) 0.0404(3) 0.05783(18)
H4 H -0.06570 0.06720 0.09630
C13 C -0.08791(19) -0.0372(3) -0.01629(19)
H5 H -0.14740 -0.06210 -0.02680
N5 N 0.04145(19) 0.5836(3) 0.15861(17)
H6 H 0.09140 0.56040 0.14990
H7 H 0.06170 0.60510 0.21880
C14 C 0.0029(3) 0.6913(4) 0.1027(3)
H8 H 0.05220 0.74160 0.10250
H9 H -0.03240 0.73680 0.12830
H10 H -0.03690 0.66720 0.04010
C15 C -0.0172(3) 0.4804(4) 0.1427(3)
H11 H 0.01740 0.41370 0.18130
H12 H -0.04090 0.45670 0.07840
H13 H -0.06800 0.50060 0.15750
N6 N 0.6396(3) 0.7629(3) 0.9074(2)
H14 H 0.59220 0.71070 0.89610
H15 H 0.65620 0.75620 0.86010
C16 C 0.6065(4) 0.8888(4) 0.9085(3)
H16 H 0.55380 0.90510 0.85070
H17 H 0.65520 0.94570 0.91650
H18 H 0.58900 0.89730 0.95900
C17 C 0.7159(3) 0.7265(4) 0.9911(3)
H19 H 0.73360 0.64440 0.98460
H20 H 0.69820 0.73000 1.04180
H21 H 0.76730 0.78070 1.00350
O7 O 0.4994(4) 0.8807(5) 0.4030(4)
N7 N 0.3486(3) 0.9188(3) 0.3199(3)
C18 C 0.4275(9) 0.8636(11) 0.3276(7)
H22 H 0.42900 0.81540 0.28000
C19 C 0.337(1) 1.0040(8) 0.3732(7)
H23 H 0.39170 1.00890 0.43100
H24 H 0.28460 0.98330 0.38530
H25 H 0.32630 1.08160 0.34200
C20 C 0.2668(9) 0.8967(11) 0.2277(7)
H26 H 0.27520 0.82090 0.20180
H27 H 0.26200 0.96250 0.18580
H28 H 0.21100 0.89280 0.23680
C21? C 0.4257(10) 0.9419(11) 0.4031(9)
H29? H 0.42650 0.99140 0.45100
C22? C 0.3426(15) 0.8415(17) 0.2582(12)
H30? H 0.37960 0.77100 0.28740
H31? H 0.36470 0.87760 0.21630
H32? H 0.27900 0.81710 0.22410
C23? C 0.2611(10) 0.9773(12) 0.3156(10)
H33? H 0.27690 1.03870 0.36310
H34? H 0.22290 0.91600 0.32520
H35? H 0.22780 1.01450 0.25560
N1B N -0.19506(14) -0.29317(18) -0.23822(12)
N2B N -0.14321(16) -0.2589(2) -0.28000(14)
N3B N -0.08273(16) -0.1755(2) -0.22665(15)
N4B N -0.17076(15) -0.23315(19) -0.15724(13)
C10B C -0.10102(17) -0.1622(2) -0.15229(16)
C11B C -0.04975(17) -0.0777(2) -0.07440(16)
C12B C 0.03890(19) -0.0404(3) -0.05783(18)
H4B H 0.06570 -0.06720 -0.09630
C13B C 0.08791(19) 0.0372(3) 0.01629(19)
H5B H 0.14740 0.06210 0.02680
Zn1B Zn -0.295772(17) -0.41718(2) -0.288470(16)
O1B O -0.27302(17) -0.5316(2) -0.36995(15)
O2B O -0.16233(14) -0.6686(2) -0.32703(13)
O3B O -0.18030(13) -0.9500(2) -0.59125(14)
O4B O -0.32167(14) -0.9967(2) -0.69629(13)
O5B O -0.59150(13) -0.7699(2) -0.72239(13)
O6B O -0.58244(12) -0.63516(18) -0.61594(11)
C1B C -0.23907(18) -0.6295(2) -0.37944(16)
C2B C -0.29666(16) -0.7011(2) -0.46640(15)
C3B C -0.25566(16) -0.7871(2) -0.50152(15)
H1B H -0.19200 -0.80070 -0.47140
C4B C -0.30943(16) -0.8532(2) -0.58179(15)
C5B C -0.40403(16) -0.8327(2) -0.62561(15)
H2B H -0.44030 -0.87850 -0.67790
C6B C -0.44583(16) -0.7450(2) -0.59282(15)
C7B C -0.39170(16) -0.6796(2) -0.51263(15)
H3B H -0.41920 -0.62130 -0.48980
C8B C -0.26476(18) -0.9396(2) -0.62486(17)
C9B C -0.54697(17) -0.7165(2) -0.64738(16)
Zn1* Zn -0.704228(17) -0.58282(2) -0.711530(16)
Zn1A Zn -0.295772(17) -1.08282(2) -0.788470(16)
Zn1B* Zn 0.704228(17) 0.58282(2) 0.711530(16)
Zn1C Zn 0.295772(17) 1.08282(2) 0.788470(16)
O4A O -0.32167(14) -0.5033(2) -0.19629(13)
O4C O 0.32167(14) 0.5033(2) 0.19629(13)
O6* O -0.41756(12) -0.36484(18) -0.38406(11)
O6B* O 0.41756(12) 0.36484(18) 0.38406(11)
#END
