
#######################################################################
#
#                 Cambridge Crystallographic Data Centre
#                                CCDC
#
#######################################################################
#
# If this CIF has been generated from an entry in the Cambridge
# Structural Database, then it will include bibliographic, chemical,
# crystal, experimental, refinement or atomic coordinate data resulting
# from the CCDC's data processing and validation procedures.
#
#######################################################################

data_CSD_CIF_XUJDIR
_audit_creation_date 2015-04-08
_audit_creation_method CSD-ConQuest-V1
_database_code_CSD XUJDIR
_database_code_depnum_ccdc_archive 'CCDC 1029639'
_chemical_formula_sum 'C68 H90 N26 O31 Tb2'
_chemical_formula_moiety
;
C36 H36 N24 O12,2(C14 H16 O8 Tb1 1-)n,2(C2 H8 N1 1+),3(H2 O1)
;
_journal_coden_Cambridge 208
_journal_volume 227
_journal_year 2015
_journal_page_first 265
_journal_name_full 'J.Solid State Chem. '
loop_
_publ_author_name
"P.Thuery"
_chemical_name_systematic
;
catena-[bis(N-methylmethanaminium) 
(\m-1,3-adamantanedicarboxylato)-bis(formato)-terbium cucurbit [6]uril 
trihydrate]
;
_cell_volume   3826.326
_exptl_crystal_colour 'colorless'
_exptl_crystal_density_diffrn 1.81
_exptl_crystal_description 'lath'
_diffrn_ambient_temperature 150
#These two values have been output from a single CSD field.
_refine_ls_R_factor_gt 0.0344
_refine_ls_wR_factor_gt 0.0344
_symmetry_cell_setting monoclinic
_symmetry_space_group_name_H-M 'P 21/c'
_symmetry_Int_Tables_number 14
loop_
_symmetry_equiv_pos_site_id
_symmetry_equiv_pos_as_xyz
1 x,y,z
2 -x,1/2+y,1/2-z
3 -x,-y,-z
4 x,-1/2-y,-1/2+z
_cell_length_a 16.9255(9)
_cell_length_b 11.4336(4)
_cell_length_c 21.2979(10)
_cell_angle_alpha 90
_cell_angle_beta 111.818(3)
_cell_angle_gamma 90
_cell_formula_units_Z 2
loop_
_atom_type_symbol
_atom_type_radius_bond
C 0.68
H 0.23
N 0.68
O 0.68
Tb 1.94
loop_
_atom_site_label
_atom_site_type_symbol
_atom_site_fract_x
_atom_site_fract_y
_atom_site_fract_z
Tb1 Tb 0.992605(7) 0.573916(11) 0.582213(6)
O1 O 0.90551(13) 0.62349(19) 0.64511(9)
O2 O 1.02339(12) 0.5310(2) 0.70158(9)
O3 O 0.89717(12) 0.21479(17) 0.85922(9)
O4 O 1.02091(11) 0.28666(18) 0.92359(9)
O5 O 1.11470(12) 0.45520(17) 0.60877(9)
O6 O 1.13233(11) 0.39376(16) 0.51432(9)
O7 O 1.04233(11) 0.61018(16) 0.49502(9)
O8 O 1.09333(15) 0.6054(2) 0.41507(11)
C1 C 0.92228(17) 0.5553(2) 0.75628(12)
C2 C 0.94992(16) 0.4361(2) 0.79030(12)
H1 H 1.01270 0.42960 0.80740
H2 H 0.92560 0.37290 0.75690
C3 C 0.91843(16) 0.4222(2) 0.85041(12)
C4 C 0.95787(17) 0.5202(2) 0.90132(13)
H3 H 1.02070 0.51340 0.91890
H4 H 0.93900 0.51280 0.93990
C5 C 0.93106(18) 0.6401(2) 0.86749(13)
H5 H 0.95690 0.70320 0.90140
C6 C 0.96217(17) 0.6527(2) 0.80867(13)
H6 H 1.02500 0.64670 0.82590
H7 H 0.94560 0.73030 0.78710
C7 C 0.82475(16) 0.5655(2) 0.73078(13)
H8 H 0.80680 0.64230 0.70860
H9 H 0.79860 0.50360 0.69690
C8 C 0.79401(17) 0.5530(2) 0.78955(13)
H10 H 0.73060 0.56000 0.77230
C9 C 0.82115(16) 0.4338(2) 0.82304(13)
H11 H 0.79530 0.37110 0.78960
H12 H 0.80050 0.42470 0.86060
C10 C 0.83459(18) 0.6509(2) 0.84092(13)
H13 H 0.81720 0.72810 0.81900
H14 H 0.81460 0.64530 0.87900
C11 C 0.95236(17) 0.5698(2) 0.69730(13)
C12 C 0.94665(17) 0.3009(2) 0.88018(13)
C13 C 1.15419(17) 0.4074(2) 0.57687(13)
H15 H 1.20850 0.37690 0.60360
C14 C 1.08417(19) 0.6550(3) 0.46378(14)
H16 H 1.10980 0.72930 0.47770
O9 O 0.76422(12) 1.13371(18) 0.53624(9)
O10 O 0.63223(12) 0.76968(18) 0.68085(9)
O11 O 0.65615(12) 0.97781(17) 0.37064(9)
O12 O 0.51784(12) 0.62819(17) 0.51422(9)
O13 O 0.45941(12) 1.02424(17) 0.25879(9)
O14 O 0.32945(12) 0.66553(18) 0.40928(9)
N1 N 0.78620(14) 1.06374(19) 0.64339(11)
N2 N 0.77328(14) 0.93665(19) 0.56175(11)
N3 N 0.71822(14) 0.7920(2) 0.6189(1)
N4 N 0.73190(15) 0.91804(19) 0.70117(11)
N5 N 0.70186(14) 0.8364(2) 0.45409(10)
N6 N 0.59846(14) 0.79108(19) 0.35688(10)
N7 N 0.54297(14) 0.6479(2) 0.41523(10)
N8 N 0.64474(14) 0.6980(2) 0.51202(10)
N9 N 0.45416(13) 0.82574(19) 0.27764(11)
N10 N 0.33806(14) 0.93207(19) 0.25884(12)
N11 N 0.28307(13) 0.7848(2) 0.31533(11)
N12 N 0.39987(14) 0.6789(2) 0.33554(11)
C15 C 0.77305(16) 1.0531(2) 0.57632(13)
C16 C 0.79926(16) 0.9529(2) 0.67838(13)
H17 H 0.85660 0.94830 0.71560
C17 C 0.79002(16) 0.8628(2) 0.62049(12)
H18 H 0.84270 0.81500 0.63040
C18 C 0.68768(17) 0.8215(2) 0.66814(13)
C19 C 0.77858(17) 0.8959(3) 0.49888(13)
H19 H 0.82740 0.84160 0.50960
H20 H 0.79000 0.96370 0.47460
C20 C 0.69562(17) 0.6824(2) 0.58282(12)
H21 H 0.74830 0.63970 0.58720
H22 H 0.66360 0.63390 0.60380
C21 C 0.65242(16) 0.8797(2) 0.39161(13)
C22 C 0.68394(16) 0.7152(2) 0.46297(12)
H23 H 0.73540 0.66470 0.47260
C23 C 0.61222(16) 0.6825(2) 0.39483(12)
H24 H 0.62980 0.61760 0.37130
C24 C 0.56367(17) 0.6549(2) 0.48376(13)
C25 C 0.54240(16) 0.8014(2) 0.28693(12)
H25 H 0.54450 0.72760 0.26320
H26 H 0.56340 0.86490 0.26560
C26 C 0.46544(17) 0.5949(2) 0.36973(13)
H27 H 0.44360 0.54040 0.39560
H28 H 0.47840 0.54860 0.33550
C27 C 0.42195(17) 0.9377(2) 0.26510(12)
C28 C 0.39034(16) 0.7382(2) 0.27279(12)
H29 H 0.38330 0.68150 0.23540
C29 C 0.30804(16) 0.8136(2) 0.25874(13)
H30 H 0.26250 0.79300 0.21440
C30 C 0.33639(16) 0.7072(2) 0.35871(13)
C31 C 0.28212(17) 1.0321(2) 0.24170(12)
H31 H 0.30670 1.09280 0.22120
H32 H 0.22660 1.00840 0.20740
C32 C 0.20544(17) 0.8245(2) 0.32283(14)
H33 H 0.15990 0.83040 0.27740
H34 H 0.18770 0.76510 0.34880
O15 O 1.2806(2) 0.5490(2) 0.50191(16)
H35 H 1.22900 0.54240 0.47320
H36 H 1.30140 0.58280 0.46970
O16 O 1.2555(3) 0.6535(7) 0.6067(3)
H37 H 1.20530 0.67240 0.61050
H38 H 1.23870 0.62000 0.56540
N13 N 0.40135(16) 0.7777(2) 0.53950(12)
H39 H 0.34190 0.76960 0.52060
H40 H 0.40870 0.71890 0.51490
C33 C 0.4444(2) 0.8836(3) 0.5273(2)
H41 H 0.42240 0.95310 0.54230
H42 H 0.43320 0.89030 0.47890
H43 H 0.50580 0.87740 0.55260
C34 C 0.4220(3) 0.7557(4) 0.61219(15)
H44 H 0.48190 0.73280 0.63360
H45 H 0.38580 0.69270 0.61760
H46 H 0.41200 0.82710 0.63370
Tb1A Tb 1.007395(7) 0.073916(11) 0.917787(6)
Tb1B Tb 1.007395(7) 0.426084(11) 0.417787(6)
O3A O 1.10283(12) 0.71479(17) 0.64078(9)
O4A O 0.97909(11) 0.78666(18) 0.57641(9)
O6B O 0.86767(11) 0.60624(16) 0.48568(9)
O7B O 0.95767(11) 0.38982(16) 0.50498(9)
O8B O 0.90667(15) 0.3946(2) 0.58493(11)
O9B O 0.23578(12) 0.86629(18) 0.46376(9)
O10B O 0.36777(12) 1.23032(18) 0.31915(9)
O11B O 0.34385(12) 1.02219(17) 0.62936(9)
O12B O 0.48216(12) 1.37181(17) 0.48578(9)
O13B O 0.54059(12) 0.97576(17) 0.74121(9)
O14B O 0.67055(12) 1.33447(18) 0.59072(9)
N1B N 0.21380(14) 0.93626(19) 0.35661(11)
N2B N 0.22672(14) 1.06335(19) 0.43825(11)
N3B N 0.28178(14) 1.2080(2) 0.3811(1)
N4B N 0.26810(15) 1.08196(19) 0.29883(11)
N5B N 0.29814(14) 1.1636(2) 0.54591(10)
N6B N 0.40154(14) 1.20892(19) 0.64312(10)
N7B N 0.45703(14) 1.3521(2) 0.58477(10)
N8B N 0.35526(14) 1.3020(2) 0.48798(10)
N9B N 0.54584(13) 1.17426(19) 0.72236(11)
N10B N 0.66194(14) 1.06793(19) 0.74116(12)
N11B N 0.71693(13) 1.2152(2) 0.68467(11)
N12B N 0.60013(14) 1.3211(2) 0.66446(11)
C15B C 0.22695(16) 0.9469(2) 0.42368(13)
C16B C 0.20074(16) 1.0471(2) 0.32162(13)
H17B H 0.14340 1.05170 0.28440
C17B C 0.20998(16) 1.1372(2) 0.37951(12)
H18B H 0.15730 1.18500 0.36960
C18B C 0.31232(17) 1.1785(2) 0.33186(13)
C19B C 0.22142(17) 1.1041(3) 0.50112(13)
H19B H 0.17260 1.15840 0.49040
H20B H 0.21000 1.03630 0.52540
C20B C 0.30438(17) 1.3176(2) 0.41718(12)
H21B H 0.25170 1.36030 0.41280
H22B H 0.33640 1.36610 0.39620
C21B C 0.34758(16) 1.1203(2) 0.60839(13)
C22B C 0.31606(16) 1.2848(2) 0.53703(12)
H23B H 0.26460 1.33530 0.52740
C23B C 0.38778(16) 1.3175(2) 0.60517(12)
H24B H 0.37020 1.38240 0.62870
C24B C 0.43633(17) 1.3451(2) 0.51624(13)
C25B C 0.45760(16) 1.1986(2) 0.71307(12)
H25B H 0.45550 1.27240 0.73680
H26B H 0.43660 1.13510 0.73440
C26B C 0.53456(17) 1.4051(2) 0.63027(13)
H27B H 0.55640 1.45960 0.60440
H28B H 0.52160 1.45140 0.66450
C27B C 0.57805(17) 1.0623(2) 0.73490(12)
C28B C 0.60966(16) 1.2618(2) 0.72721(12)
H29B H 0.61670 1.31850 0.76460
C29B C 0.69196(16) 1.1864(2) 0.74126(13)
H30B H 0.73750 1.20700 0.78560
C30B C 0.66361(16) 1.2928(2) 0.64129(13)
C31B C 0.71788(17) 0.9679(2) 0.75830(12)
H31B H 0.69330 0.90720 0.77880
H32B H 0.77340 0.99160 0.79260
C32B C 0.79456(17) 1.1755(2) 0.67717(14)
H33B H 0.84010 1.16960 0.72260
H34B H 0.81230 1.23490 0.65120
#END
