
#######################################################################
#
#                 Cambridge Crystallographic Data Centre
#                                CCDC
#
#######################################################################
#
# If this CIF has been generated from an entry in the Cambridge
# Structural Database, then it will include bibliographic, chemical,
# crystal, experimental, refinement or atomic coordinate data resulting
# from the CCDC's data processing and validation procedures.
#
#######################################################################

data_CSD_CIF_XUJPEY
_audit_creation_date 2010-03-26
_audit_creation_method CSD-ConQuest-V1
_database_code_CSD XUJPEY
_database_code_depnum_ccdc_archive 'CCDC 675749'
_chemical_formula_sum 'C50 H46 N4 Ni3 O26'
_chemical_formula_moiety
;
(C7 H13 N2 1+)2n,n(C36 H20 Ni3 O26 2-)
;
_journal_coden_Cambridge 182
_journal_year 2009
_journal_page_first 3431
_journal_name_full 'Chem.Commun. '
loop_
_publ_author_name
"Ling Xu"
"Shihai Yan"
"Eun-Young Choi"
"Jin Yong Lee"
"Young-Uk Kwon"
_chemical_name_systematic
;
catena-[bis(1-Methyl-3-n-propylimidazolium) bis(\m~4~-hydrogen 
1,3,5-benzenetricarboxylato-O,O',O'',O''')-bis(\m~3~-5-carboxybenzene-1,3-dica
rboxylato-O,O',O'')-bis(\m~2~-aqua)-tri-nickel]
;
_cell_volume   2742.851
_exptl_crystal_colour 'green'
_exptl_crystal_density_diffrn 1.563
_exptl_special_details
;
The hydrogen atoms of the bridging water ligands and the hydrogen required 
for charge-balance on the benzene-1,3,5-tricarboxylate ligands have not been 
modelled from the diffraction data
;
_exptl_crystal_description 'needle'
_diffrn_ambient_temperature 173
#These two values have been output from a single CSD field.
_refine_ls_R_factor_gt 0.0658
_refine_ls_wR_factor_gt 0.0658
_symmetry_cell_setting monoclinic
_symmetry_space_group_name_H-M 'P 21/c'
_symmetry_Int_Tables_number 14
loop_
_symmetry_equiv_pos_site_id
_symmetry_equiv_pos_as_xyz
1 x,y,z
2 -x,1/2+y,1/2-z
3 -x,-y,-z
4 x,-1/2-y,-1/2+z
_cell_length_a 10.7110(9)
_cell_length_b 13.7963(12)
_cell_length_c 18.7511(16)
_cell_angle_alpha 90
_cell_angle_beta 98.158(2)
_cell_angle_gamma 90
_cell_formula_units_Z 2
loop_
_atom_type_symbol
_atom_type_radius_bond
C 0.68
H 0.23
N 0.68
Ni 1.24
O 0.68
loop_
_atom_site_label
_atom_site_type_symbol
_atom_site_fract_x
_atom_site_fract_y
_atom_site_fract_z
Ni1 Ni 0.39800(3) 0.26770(2) 0.524110(17)
Ni2 Ni 0.50000 0.00000 0.00000
C1 C 0.4095(3) 0.1353(2) 0.33316(14)
C2 C 0.4163(3) 0.1461(2) 0.25982(15)
H1 H 0.38540 0.20370 0.23580
C3 C 0.4676(3) 0.0736(2) 0.22147(14)
C4 C 0.5185(3) -0.0091(2) 0.25747(15)
H2 H 0.55410 -0.05880 0.23170
C5 C 0.5170(3) -0.0185(2) 0.33119(16)
C6 C 0.4576(3) 0.0530(2) 0.36822(15)
H3 H 0.45080 0.04420 0.41780
C7 C 0.3558(3) 0.2173(2) 0.37298(14)
C8 C 0.4706(3) 0.0853(2) 0.14124(14)
C9 C 0.5837(3) -0.1001(2) 0.37268(15)
O1 O 0.31788(17) 0.19516(14) 0.4324(1)
O2 O 0.3545(2) 0.30043(16) 0.34731(11)
O3 O 0.47010(18) 0.17183(15) 0.11897(10)
O4 O 0.47321(18) 0.00972(14) 0.10483(10)
O5 O 0.6810(2) -0.13383(17) 0.34414(11)
O6 O 0.55058(17) -0.13233(14) 0.42758(10)
C10 C 0.2209(3) -0.2331(2) -0.02681(17)
C11 C 0.1055(2) -0.1881(2) -0.02929(17)
H4 H 0.10220 -0.12040 -0.02060
C12 C -0.0077(3) -0.2409(2) -0.04456(18)
C13 C -0.0023(3) -0.3403(2) -0.05842(17)
H5 H -0.07790 -0.37630 -0.07040
C14 C 0.1137(3) -0.3860(2) -0.05468(17)
C15 C 0.2245(3) -0.3331(2) -0.03881(17)
H6 H 0.30360 -0.36510 -0.03610
C16 C 0.3447(2) -0.1818(2) -0.00907(15)
C17 C -0.1309(2) -0.1929(2) -0.03925(16)
C18 C 0.1209(3) -0.4936(2) -0.06658(19)
O7 O 0.43681(17) -0.23516(14) 0.01428(10)
O8 O 0.34687(17) -0.09198(14) -0.01853(11)
O9 O -0.1319(2) -0.10984(18) -0.01226(17)
O10 O -0.23001(17) -0.24131(14) -0.06147(10)
O11 O 0.0382(2) -0.54061(18) -0.09863(16)
O12 O 0.2316(2) -0.52895(16) -0.03509(14)
O13 O 0.64169(17) -0.10297(13) 0.03023(10)
N1 N 1.1944(4) 0.7519(4) 0.6475(3)
N2 N 1.0916(6) 0.6264(5) 0.6476(3)
C19 C 1.0774(7) 0.7359(5) 0.6447(3)
H7 H 1.00630 0.77760 0.64180
C20 C 1.2010(8) 0.6047(7) 0.6470(4)
H8 H 1.22820 0.53950 0.64390
C21 C 1.2519(6) 0.8504(6) 0.6450(4)
H9 H 1.18560 0.89970 0.64260
H10 H 1.29470 0.85550 0.60230
H11 H 1.31310 0.86050 0.68840
C22 C 0.9887(17) 0.5711(15) 0.6488(10)
H12 H 0.99410 0.52250 0.61050
H13 H 0.91790 0.61420 0.62970
C23 C 0.9407(10) 0.5168(11) 0.7049(9)
H14 H 0.93090 0.56060 0.74560
H15 H 1.00170 0.46550 0.72290
C24 C 0.8100(9) 0.4695(9) 0.6760(7)
H16 H 0.77930 0.43310 0.71490
H17 H 0.81990 0.42540 0.63620
H18 H 0.74920 0.52030 0.65890
C25 C 1.2748(9) 0.6744(7) 0.6509(5)
H19 H 1.36420 0.67410 0.65520
Ni1B Ni 0.60200(3) -0.26770(2) -0.524110(17)
Ni1C Ni 0.39800(3) 0.23230(2) 0.024110(17)
Ni1B* Ni 0.60200(3) -0.26770(2) 0.475890(17)
Ni1A Ni 0.60200(3) -0.23230(2) -0.024110(17)
Ni1A* Ni -0.39800(3) -0.23230(2) -0.024110(17)
Ni1* Ni 0.39800(3) 0.26770(2) -0.475890(17)
Ni1C* Ni 1.39800(3) 0.23230(2) 0.024110(17)
C1B C 0.5905(3) -0.1353(2) -0.33316(14)
C2B C 0.5837(3) -0.1461(2) -0.25982(15)
H1B H 0.61460 -0.20370 -0.23580
C3B C 0.5324(3) -0.0736(2) -0.22147(14)
C4B C 0.4815(3) 0.0091(2) -0.25747(15)
H2B H 0.44590 0.05880 -0.23170
C5B C 0.4830(3) 0.0185(2) -0.33119(16)
C6B C 0.5424(3) -0.0530(2) -0.36822(15)
H3B H 0.54920 -0.04420 -0.41780
C7B C 0.6442(3) -0.2173(2) -0.37298(14)
C8B C 0.5294(3) -0.0853(2) -0.14124(14)
C9B C 0.4163(3) 0.1001(2) -0.37268(15)
O1B O 0.68212(17) -0.19516(14) -0.4324(1)
O2B O 0.6455(2) -0.30043(16) -0.34731(11)
O3B O 0.52990(18) -0.17183(15) -0.11897(10)
O3C O 0.47010(18) 0.32817(15) 0.61897(10)
O3A O 0.52990(18) -0.32817(15) -0.61897(10)
O4B O 0.52679(18) -0.00972(14) -0.10483(10)
O5B O 0.3190(2) 0.13383(17) -0.34414(11)
O6B O 0.44942(17) 0.13233(14) -0.42758(10)
O6B* O 0.44942(17) 0.13233(14) 0.57242(10)
O6* O 0.55058(17) -0.13233(14) -0.57242(10)
C10B C 0.7791(3) 0.2331(2) 0.02681(17)
C11B C 0.8945(2) 0.1881(2) 0.02929(17)
H4B H 0.89780 0.12040 0.02060
C12B C 1.0077(3) 0.2409(2) 0.04456(18)
C13B C 1.0023(3) 0.3403(2) 0.05842(17)
H5B H 1.07790 0.37630 0.07040
C14B C 0.8863(3) 0.3860(2) 0.05468(17)
C15B C 0.7755(3) 0.3331(2) 0.03881(17)
H6B H 0.69640 0.36510 0.03610
C16B C 0.6553(2) 0.1818(2) 0.00907(15)
C17B C 1.1309(2) 0.1929(2) 0.03925(16)
C18B C 0.8791(3) 0.4936(2) 0.06658(19)
O7B O 0.56319(17) 0.23516(14) -0.01428(10)
O7A O 0.56319(17) 0.26484(14) 0.48572(10)
O7C O 0.43681(17) -0.26484(14) -0.48572(10)
O8B O 0.65313(17) 0.09198(14) 0.01853(11)
O9B O 1.1319(2) 0.10984(18) 0.01226(17)
O10B O 1.23001(17) 0.24131(14) 0.06147(10)
O10A O 0.23001(17) 0.25869(14) 0.56147(10)
O10C O 0.76999(17) -0.25869(14) -0.56147(10)
O11B O 0.9618(2) 0.54061(18) 0.09863(16)
O12B O 0.7684(2) 0.52895(16) 0.03509(14)
O13B O 0.35831(17) 0.10297(13) -0.03023(10)
O13A O 0.35831(17) 0.39703(13) 0.46977(10)
O13C O 0.64169(17) -0.39703(13) -0.46977(10)
#END
