
#######################################################################
#
#                 Cambridge Crystallographic Data Centre
#                                CCDC
#
#######################################################################
#
# If this CIF has been generated from an entry in the Cambridge
# Structural Database, then it will include bibliographic, chemical,
# crystal, experimental, refinement or atomic coordinate data resulting
# from the CCDC's data processing and validation procedures.
#
#######################################################################

data_CSD_CIF_XUJPOI
_audit_creation_date 2010-03-26
_audit_creation_method CSD-ConQuest-V1
_database_code_CSD XUJPOI
_database_code_depnum_ccdc_archive 'CCDC 675751'
_chemical_formula_sum 'C38 H42 N4 Ni3 O16'
_chemical_formula_moiety
;
(C8 H15 N2 1+)2n,n(C22 H12 Ni3 O16 2-)
;
_journal_coden_Cambridge 182
_journal_year 2009
_journal_page_first 3431
_journal_name_full 'Chem.Commun. '
loop_
_publ_author_name
"Ling Xu"
"Shihai Yan"
"Eun-Young Choi"
"Jin Yong Lee"
"Young-Uk Kwon"
_chemical_name_systematic
;
catena-[bis(1-Methyl-3-n-butylimidazolium) 
bis(\m~5~-1,3,5-benzenetricarboxylato-O,O',O'',O''',O'''',O''''')-bis(\m~2~-ac
etato-O,O,O')-tri-nickel]
;
_cell_volume   3802.922
_exptl_crystal_colour 'green'
_exptl_crystal_density_diffrn 1.724
_exptl_crystal_description 'block'
_diffrn_ambient_temperature 173
#These two values have been output from a single CSD field.
_refine_ls_R_factor_gt 0.0675
_refine_ls_wR_factor_gt 0.0675
_symmetry_cell_setting orthorhombic
_symmetry_space_group_name_H-M 'P b c a'
_symmetry_Int_Tables_number 61
loop_
_symmetry_equiv_pos_site_id
_symmetry_equiv_pos_as_xyz
1 x,y,z
2 1/2-x,-y,1/2+z
3 -x,1/2+y,1/2-z
4 1/2+x,1/2-y,-z
5 -x,-y,-z
6 -1/2+x,y,-1/2-z
7 x,-1/2-y,-1/2+z
8 -1/2-x,-1/2+y,z
_cell_length_a 14.0086(19)
_cell_length_b 16.332(2)
_cell_length_c 16.622(2)
_cell_angle_alpha 90
_cell_angle_beta 90
_cell_angle_gamma 90
_cell_formula_units_Z 4
loop_
_atom_type_symbol
_atom_type_radius_bond
C 0.70
H 0.21
N 0.68
Ni 1.24
O 0.68
loop_
_atom_site_label
_atom_site_type_symbol
_atom_site_fract_x
_atom_site_fract_y
_atom_site_fract_z
Ni1 Ni 0.973681(15) 0.175558(12) 0.610665(12)
Ni2 Ni 1.00000 0.00000 0.50000
C1 C 0.75260(12) -0.00321(10) 0.65727(10)
C2 C 0.71905(12) -0.07976(10) 0.63312(10)
H1 H 0.74550 -0.10580 0.58710
C3 C 0.64662(12) -0.11808(10) 0.6767(1)
C4 C 0.60947(12) -0.07972(10) 0.74457(10)
H2 H 0.56370 -0.10750 0.77670
C5 C 0.63842(12) -0.00159(10) 0.76579(10)
C6 C 0.71062(12) 0.03695(10) 0.72173(10)
H3 H 0.73090 0.09060 0.73590
C7 C 0.83818(11) 0.0356(1) 0.61566(10)
C8 C 0.60771(12) -0.20039(10) 0.65169(10)
C9 C 0.59061(11) 0.03946(9) 0.83615(9)
O1 O 0.87360(9) 0.09738(8) 0.65006(8)
O2 O 0.86694(8) 0.00046(7) 0.55263(7)
O3 O 0.63326(9) -0.23145(8) 0.58595(8)
O4 O 0.54746(9) -0.23516(7) 0.69616(7)
O5 O 0.56128(9) -0.00731(7) 0.88931(7)
O6 O 0.58225(9) 0.11670(7) 0.83378(8)
C10 C 0.91843(17) -0.19380(13) 0.60873(12)
H4 H 0.84870 -0.19800 0.60990
H5 H 0.94640 -0.24260 0.63360
H6 H 0.93850 -0.14500 0.63860
C11 C 0.95185(14) -0.18729(11) 0.52286(11)
O7 O 0.93247(10) -0.24182(8) 0.47240(8)
O8 O 1.00420(9) -0.12877(7) 0.50144(7)
N1 N 0.7380(2) -0.2149(2) 0.87543(19)
N2 N 0.7998(2) -0.09296(19) 0.89038(18)
C12 C 0.7380(3) -0.1463(2) 0.9162(2)
H7 H 0.69670 -0.13630 0.96040
C13 C 0.8120(3) -0.2095(3) 0.8174(3)
H8 H 0.83160 -0.25020 0.78010
C14 C 0.8483(3) -0.1337(3) 0.8271(3)
H9 H 0.89880 -0.11090 0.79610
C15 C 0.6804(4) -0.2933(3) 0.8842(3)
H10 H 0.63300 -0.28650 0.92700
H11 H 0.72330 -0.33860 0.89780
H12 H 0.64780 -0.30530 0.83340
C16 C 0.8162(3) -0.0122(3) 0.9170(3)
H13 H 0.76030 0.00900 0.94690
H14 H 0.82920 0.02460 0.87090
C17 C 0.9101(6) -0.0189(5) 0.9760(5)
H15 H 0.89650 -0.04160 1.03010
H16 H 0.96600 -0.04590 0.95110
C18 C 0.9121(16) 0.0693(16) 0.9727(14)
H17 H 0.92550 0.09450 1.02570
H18 H 0.85310 0.09270 0.94950
C19 C 1.0112(7) 0.0754(7) 0.9057(8)
H19 H 1.02720 0.13300 0.89610
H20 H 0.99460 0.04920 0.85450
H21 H 1.06620 0.04740 0.92950
Ni1D Ni 1.026319(15) -0.175558(12) 0.389335(12)
Ni1G Ni 0.526319(15) -0.324442(12) 0.610665(12)
Ni1E Ni 0.473681(15) 0.175558(12) 0.889335(12)
Ni1C Ni 1.473681(15) 0.324442(12) 0.389335(12)
Ni1A Ni 1.526319(15) -0.175558(12) 0.110665(12)
Ni2A Ni 0.50000 0.00000 1.00000
Ni2A* Ni 1.50000 0.00000 0.00000
C1D C 1.24740(12) 0.00321(10) 0.34273(10)
C2D C 1.28095(12) 0.07976(10) 0.36688(10)
H1D H 1.25450 0.10580 0.41290
C3D C 1.35338(12) 0.11808(10) 0.3233(1)
C4D C 1.39053(12) 0.07972(10) 0.25543(10)
H2D H 1.43630 0.10750 0.22330
C5D C 1.36158(12) 0.00159(10) 0.23421(10)
C6D C 1.28938(12) -0.03695(10) 0.27827(10)
H3D H 1.26910 -0.09060 0.26410
C7D C 1.16182(11) -0.0356(1) 0.38434(10)
C8D C 1.39229(12) 0.20039(10) 0.34831(10)
C9D C 1.40939(11) -0.03946(9) 0.16385(9)
O1D O 1.12640(9) -0.09738(8) 0.34994(8)
O2D O 1.13306(8) -0.00046(7) 0.44737(7)
O3D O 1.36674(9) 0.23145(8) 0.41405(8)
O3G O 0.86674(9) 0.26855(8) 0.58595(8)
O3C O 1.13326(9) -0.26855(8) 0.41405(8)
O4D O 1.45254(9) 0.23516(7) 0.30384(7)
O4G O 0.95254(9) 0.26484(7) 0.69616(7)
O4C O 1.04746(9) -0.26484(7) 0.30384(7)
O5D O 1.43872(9) 0.00731(7) 0.11069(7)
O5A O 0.93872(9) 0.00731(7) 0.38931(7)
O5E O 1.06128(9) -0.00731(7) 0.61069(7)
O6D O 1.41775(9) -0.11670(7) 0.16622(8)
O6E O 1.08225(9) 0.11670(7) 0.66622(8)
O6A O 0.91775(9) -0.11670(7) 0.33378(8)
C10D C 1.08157(17) 0.19380(13) 0.39127(12)
H4D H 1.15130 0.19800 0.39010
H5D H 1.05360 0.24260 0.36640
H6D H 1.06150 0.14500 0.36140
C11D C 1.04815(14) 0.18729(11) 0.47714(11)
O7D O 1.06753(10) 0.24182(8) 0.52760(8)
O8D O 0.99580(9) 0.12877(7) 0.49856(7)
#END
