
#######################################################################
#
#                 Cambridge Crystallographic Data Centre
#                                CCDC
#
#######################################################################
#
# If this CIF has been generated from an entry in the Cambridge
# Structural Database, then it will include bibliographic, chemical,
# crystal, experimental, refinement or atomic coordinate data resulting
# from the CCDC's data processing and validation procedures.
#
#######################################################################

data_CSD_CIF_XUJPIC
_audit_creation_date 2010-03-26
_audit_creation_method CSD-ConQuest-V1
_database_code_CSD XUJPIC
_database_code_depnum_ccdc_archive 'CCDC 675750'
_chemical_formula_sum 'C52 H50 N4 Ni3 O26'
_chemical_formula_moiety
;
(C8 H15 N2 1+)2n,n(C36 H20 Ni3 O26 2-)
;
_journal_coden_Cambridge 182
_journal_year 2009
_journal_page_first 3431
_journal_name_full 'Chem.Commun. '
loop_
_publ_author_name
"Ling Xu"
"Shihai Yan"
"Eun-Young Choi"
"Jin Yong Lee"
"Young-Uk Kwon"
_chemical_name_systematic
;
catena-[bis(1-Methyl-3-n-butylimidazolium) bis(\m~4~-hydrogen 
1,3,5-benzenetricarboxylato-O,O',O'',O''')-bis(\m~3~-5-carboxybenzene-1,3-dica
rboxylato-O,O',O'')-bis(\m~2~-aqua)-tri-nickel]
;
_cell_volume   2780.397
_exptl_crystal_colour 'green'
_exptl_crystal_density_diffrn 1.576
_exptl_special_details
;
The hydrogen atoms of the bridging water ligands and the hydrogen required 
for charge-balance on the benzene-1,3,5-tricarboxylate ligands have not been 
modelled from the diffraction data
;
_exptl_crystal_description 'needle'
_diffrn_ambient_temperature 173
#These two values have been output from a single CSD field.
_refine_ls_R_factor_gt 0.0703
_refine_ls_wR_factor_gt 0.0703
_symmetry_cell_setting monoclinic
_symmetry_space_group_name_H-M 'P 21/c'
_symmetry_Int_Tables_number 14
loop_
_symmetry_equiv_pos_site_id
_symmetry_equiv_pos_as_xyz
1 x,y,z
2 -x,1/2+y,1/2-z
3 -x,-y,-z
4 x,-1/2-y,-1/2+z
_cell_length_a 10.781(3)
_cell_length_b 13.903(4)
_cell_length_c 18.740(5)
_cell_angle_alpha 90
_cell_angle_beta 98.170(5)
_cell_angle_gamma 90
_cell_formula_units_Z 2
loop_
_atom_type_symbol
_atom_type_radius_bond
C 0.68
H 0.23
N 0.68
Ni 1.24
O 0.68
loop_
_atom_site_label
_atom_site_type_symbol
_atom_site_fract_x
_atom_site_fract_y
_atom_site_fract_z
Ni1 Ni 0.60570(2) -0.269210(18) 0.476250(13)
Ni2 Ni 0.50000 0.00000 0.00000
C1 C -0.00095(7) -0.24298(6) -0.03389(4)
C2 C 0.10848(7) -0.18947(6) -0.01840(5)
H1 H 0.10410 -0.12230 -0.00960
C3 C 0.22437(7) -0.23416(7) -0.01577(5)
C4 C 0.23083(7) -0.33237(7) -0.02862(5)
H2 H 0.31000 -0.36290 -0.02680
C5 C 0.12141(8) -0.38589(6) -0.04412(5)
C6 C 0.00552(8) -0.34119(6) -0.04675(4)
H3 H -0.06930 -0.37780 -0.05730
C7 C -0.12539(18) -0.19571(15) -0.02747(10)
C8 C 0.34700(18) -0.18159(14) -0.00478(10)
C9 C 0.1280(2) -0.49148(16) -0.05780(12)
O1 O -0.22311(13) -0.24152(10) -0.05638(7)
O2 O -0.12778(14) -0.11733(11) 0.00441(9)
O3 O 0.34780(13) -0.09207(10) -0.01505(8)
O4 O 0.44118(13) -0.23453(10) 0.01307(8)
O5 O 0.24047(14) -0.52809(11) -0.03226(9)
O6 O 0.04346(15) -0.53904(12) -0.0885(1)
C10 C 0.52629(10) -0.01840(11) 0.33146(8)
C11 C 0.52825(12) -0.00776(12) 0.25787(8)
H4 H 0.56720 -0.05520 0.23210
C12 C 0.47347(10) 0.07183(8) 0.22234(6)
C13 C 0.42044(15) 0.14309(10) 0.26037(7)
H5 H 0.38550 0.19890 0.23600
C14 C 0.41856(17) 0.13272(13) 0.33398(7)
C15 C 0.46971(17) 0.05110(14) 0.36957(6)
H6 H 0.46610 0.04280 0.41960
C16 C 0.59172(18) -0.10068(15) 0.37234(10)
C17 C 0.46920(18) 0.08395(14) 0.1410(1)
C18 C 0.36551(19) 0.21399(15) 0.37393(11)
O7 O 0.55485(13) -0.13484(10) 0.42596(7)
O8 O 0.69276(14) -0.13285(11) 0.34666(8)
O9 O 0.47995(14) 0.00897(10) 0.10542(7)
O10 O 0.45855(13) 0.16943(10) 0.11916(7)
O11 O 0.36570(15) 0.29690(11) 0.34911(8)
O12 O 0.32520(13) 0.19236(10) 0.43304(7)
O13 O 0.64038(12) -0.10296(9) 0.03208(7)
N1 N -0.2635(4) -0.6921(3) -0.2777(2)
N2 N -0.1777(3) -0.5536(3) -0.26416(19)
C19 C -0.2308(4) -0.6218(3) -0.3124(2)
H7 H -0.24080 -0.61650 -0.36350
C20 C -0.2323(4) -0.6797(4) -0.2058(3)
H8 H -0.24490 -0.72280 -0.16810
C21 C -0.1797(4) -0.5925(4) -0.2002(2)
H9 H -0.14790 -0.56250 -0.15590
C22 C -0.3274(8) -0.7850(6) -0.2949(4)
H10 H -0.34860 -0.79150 -0.34730
H11 H -0.40430 -0.78740 -0.27260
H12 H -0.27180 -0.83780 -0.27610
C23 C -0.1381(5) -0.4543(4) -0.2866(3)
H13 H -0.16620 -0.44790 -0.33900
H14 H -0.18580 -0.40650 -0.26230
C24 C -0.0177(9) -0.4284(8) -0.2745(6)
H15 H -0.00120 -0.39730 -0.22660
H16 H -0.00290 -0.37970 -0.31090
C25 C 0.0779(16) -0.5111(11) -0.2768(10)
H17 H 0.03880 -0.57470 -0.27180
H18 H 0.15100 -0.50360 -0.23880
C26 C 0.1160(11) -0.4974(7) -0.3544(6)
H19 H 0.17820 -0.54600 -0.36250
H20 H 0.15170 -0.43310 -0.35820
H21 H 0.04160 -0.50450 -0.39070
Ni1A Ni 1.39430(2) 0.230790(18) 0.023750(13)
Ni1C Ni 0.60570(2) -0.230790(18) -0.023750(13)
Ni1C* Ni -0.39430(2) -0.230790(18) -0.023750(13)
Ni1A* Ni 0.39430(2) 0.230790(18) 0.023750(13)
Ni1B Ni 0.39430(2) 0.269210(18) 0.523750(13)
Ni1B* Ni 0.39430(2) 0.269210(18) -0.476250(13)
Ni1* Ni 0.60570(2) -0.269210(18) -0.523750(13)
C1B C 1.00095(7) 0.24298(6) 0.03389(4)
C2B C 0.89152(7) 0.18947(6) 0.01840(5)
H1B H 0.89590 0.12230 0.00960
C3B C 0.77563(7) 0.23416(7) 0.01577(5)
C4B C 0.76917(7) 0.33237(7) 0.02862(5)
H2B H 0.69000 0.36290 0.02680
C5B C 0.87859(8) 0.38589(6) 0.04412(5)
C6B C 0.99448(8) 0.34119(6) 0.04675(4)
H3B H 1.06930 0.37780 0.05730
C7B C 1.12539(18) 0.19571(15) 0.02747(10)
C8B C 0.65300(18) 0.18159(14) 0.00478(10)
C9B C 0.8720(2) 0.49148(16) 0.05780(12)
O1B O 1.22311(13) 0.24152(10) 0.05638(7)
O1C O 0.77689(13) -0.25848(10) 0.44362(7)
O1A O 0.22311(13) 0.25848(10) -0.44362(7)
O2B O 1.12778(14) 0.11733(11) -0.00441(9)
O3B O 0.65220(13) 0.09207(10) 0.01505(8)
O4B O 0.55882(13) 0.23453(10) -0.01307(8)
O4C O 0.44118(13) -0.26547(10) 0.51307(8)
O4A O 0.55882(13) 0.26547(10) -0.51307(8)
O5B O 0.75953(14) 0.52809(11) 0.03226(9)
O6B O 0.95654(15) 0.53904(12) 0.0885(1)
C10B C 0.47371(10) 0.01840(11) -0.33146(8)
C11B C 0.47175(12) 0.00776(12) -0.25787(8)
H4B H 0.43280 0.05520 -0.23210
C12B C 0.52653(10) -0.07183(8) -0.22234(6)
C13B C 0.57956(15) -0.14309(10) -0.26037(7)
H5B H 0.61450 -0.19890 -0.23600
C14B C 0.58144(17) -0.13272(13) -0.33398(7)
C15B C 0.53029(17) -0.05110(14) -0.36957(6)
H6B H 0.53390 -0.04280 -0.41960
C16B C 0.40828(18) 0.10068(15) -0.37234(10)
C17B C 0.53080(18) -0.08395(14) -0.1410(1)
C18B C 0.63449(19) -0.21399(15) -0.37393(11)
O7B O 0.44515(13) 0.13484(10) -0.42596(7)
O8B O 0.30724(14) 0.13285(11) -0.34666(8)
O9B O 0.52005(14) -0.00897(10) -0.10542(7)
O10B O 0.54145(13) -0.16943(10) -0.11916(7)
O10A O 0.54145(13) -0.33057(10) 0.38084(7)
O10C O 0.45855(13) 0.33057(10) -0.38084(7)
O11B O 0.63430(15) -0.29690(11) -0.34911(8)
O12B O 0.67480(13) -0.19236(10) -0.43304(7)
O12B* O 0.67480(13) -0.19236(10) 0.56696(7)
O12* O 0.32520(13) 0.19236(10) -0.56696(7)
O13B O 0.35962(12) 0.10296(9) -0.03208(7)
O13C O 0.64038(12) -0.39704(9) 0.53208(7)
O13A O 0.35962(12) 0.39704(9) -0.53208(7)
#END
