
#######################################################################
#
#                 Cambridge Crystallographic Data Centre
#                                CCDC
#
#######################################################################
#
# If this CIF has been generated from an entry in the Cambridge
# Structural Database, then it will include bibliographic, chemical,
# crystal, experimental, refinement or atomic coordinate data resulting
# from the CCDC's data processing and validation procedures.
#
#######################################################################

data_CSD_CIF_XUJQAV
_audit_creation_date 2010-03-26
_audit_creation_method CSD-ConQuest-V1
_database_code_CSD XUJQAV
_database_code_depnum_ccdc_archive 'CCDC 719779'
_chemical_formula_sum 'C36 H38 N4 Ni3 O16'
_chemical_formula_moiety
;
(C7 H13 N2 1+)2n,n(C22 H12 Ni3 O16 2-)
;
_journal_coden_Cambridge 182
_journal_year 2009
_journal_page_first 3431
_journal_name_full 'Chem.Commun. '
loop_
_publ_author_name
"Ling Xu"
"Shihai Yan"
"Eun-Young Choi"
"Jin Yong Lee"
"Young-Uk Kwon"
_chemical_name_systematic
;
catena-[bis(1-Methyl-3-n-propylimidazolium) 
bis(\m~5~-1,3,5-benzenetricarboxylato-O,O',O'',O''',O'''',O''''')-bis(\m~2~-ac
etato-O,O,O')-tri-nickel]
;
_cell_volume   3806.200
_exptl_crystal_colour 'green'
_exptl_crystal_density_diffrn 1.665
_exptl_crystal_description 'plate'
_diffrn_ambient_temperature 173
#These two values have been output from a single CSD field.
_refine_ls_R_factor_gt 0.0365
_refine_ls_wR_factor_gt 0.0365
_symmetry_cell_setting orthorhombic
_symmetry_space_group_name_H-M 'P b c a'
_symmetry_Int_Tables_number 61
loop_
_symmetry_equiv_pos_site_id
_symmetry_equiv_pos_as_xyz
1 x,y,z
2 1/2-x,-y,1/2+z
3 -x,1/2+y,1/2-z
4 1/2+x,1/2-y,-z
5 -x,-y,-z
6 -1/2+x,y,-1/2-z
7 x,-1/2-y,-1/2+z
8 -1/2-x,-1/2+y,z
_cell_length_a 14.1349(5)
_cell_length_b 16.2961(5)
_cell_length_c 16.5240(5)
_cell_angle_alpha 90
_cell_angle_beta 90
_cell_angle_gamma 90
_cell_formula_units_Z 4
loop_
_atom_type_symbol
_atom_type_radius_bond
C 0.68
H 0.23
N 0.68
Ni 1.24
O 0.68
loop_
_atom_site_label
_atom_site_type_symbol
_atom_site_fract_x
_atom_site_fract_y
_atom_site_fract_z
Ni1 Ni -0.027279(18) 0.672634(15) 0.113979(15)
Ni2 Ni 0.00000 0.50000 0.00000
C1 C 0.13894(14) 0.49671(11) 0.23520(11)
C2 C 0.11333(13) 0.41695(12) 0.25374(11)
H1 H 0.07000 0.38860 0.21980
C3 C 0.15028(14) 0.37775(12) 0.32145(11)
C4 C 0.22011(14) 0.41706(12) 0.36651(12)
H2 H 0.24580 0.39080 0.41290
C5 C 0.25244(13) 0.49409(12) 0.34428(11)
C6 C 0.20818(13) 0.53592(12) 0.28068(11)
H3 H 0.22540 0.59090 0.26870
C7 C 0.08987(13) 0.53910(12) 0.16545(11)
C8 C 0.11163(14) 0.29506(12) 0.34502(12)
C9 C 0.33821(13) 0.53209(12) 0.38431(11)
O1 O 0.08198(10) 0.61616(8) 0.16901(8)
O2 O 0.05962(10) 0.49238(8) 0.11133(8)
O3 O 0.05129(10) 0.26097(8) 0.29906(8)
O4 O 0.13573(10) 0.26241(9) 0.41087(8)
O5 O 0.36667(9) 0.49921(8) 0.44907(8)
O6 O 0.37515(10) 0.59115(9) 0.34715(8)
C10 C -0.07701(17) 0.30552(14) 0.10718(13)
H4 H -0.14610 0.30130 0.11000
H5 H -0.04850 0.25620 0.13070
H6 H -0.05610 0.35390 0.13750
C11 C -0.04700(15) 0.31344(13) 0.02050(12)
O7 O -0.06654(10) 0.25958(9) -0.03075(9)
O8 O 0.00589(10) 0.37319(9) -0.00105(8)
N1 N 0.21300(14) 0.62074(14) 0.60369(12)
N2 N 0.15894(15) 0.49926(13) 0.62603(12)
C12 C 0.22025(18) 0.54235(18) 0.58355(14)
H7 H 0.26290 0.52060 0.54460
C13 C 0.14386(17) 0.62855(16) 0.66206(15)
H8 H 0.12360 0.67780 0.68740
C14 C 0.11102(17) 0.55261(16) 0.67580(15)
H9 H 0.06300 0.53820 0.71340
C15 C 0.2727(2) 0.6868(2) 0.5734(2)
H10 H 0.31590 0.66510 0.53230
H11 H 0.30940 0.71000 0.61820
H12 H 0.23300 0.72960 0.54940
C16 C 0.1454(2) 0.40963(17) 0.62145(18)
H13 H 0.12680 0.38880 0.67540
H14 H 0.20600 0.38340 0.60640
C17 C 0.0716(2) 0.38639(19) 0.56125(19)
H15 H 0.07200 0.32600 0.55500
H16 H 0.08870 0.41050 0.50830
C18 C -0.0272(2) 0.41318(19) 0.5826(2)
H17 H -0.07100 0.39550 0.54010
H18 H -0.02910 0.47310 0.58740
H19 H -0.04580 0.38840 0.63420
Ni1D Ni 0.027279(18) 0.327366(15) -0.113979(15)
Ni1B Ni 0.027279(18) 0.172634(15) 0.386021(15)
Ni1E Ni 0.472721(18) 0.672634(15) 0.386021(15)
Ni1F Ni -0.027279(18) 0.827366(15) -0.386021(15)
Ni1A Ni -0.472721(18) 0.327366(15) -0.386021(15)
Ni2A Ni 0.50000 0.50000 0.50000
Ni2A* Ni -0.50000 0.50000 -0.50000
C1D C -0.13894(14) 0.50329(11) -0.23520(11)
C2D C -0.11333(13) 0.58305(12) -0.25374(11)
H1D H -0.07000 0.61140 -0.21980
C3D C -0.15028(14) 0.62225(12) -0.32145(11)
C4D C -0.22011(14) 0.58294(12) -0.36651(12)
H2D H -0.24580 0.60920 -0.41290
C5D C -0.25244(13) 0.50591(12) -0.34428(11)
C6D C -0.20818(13) 0.46408(12) -0.28068(11)
H3D H -0.22540 0.40910 -0.26870
C7D C -0.08987(13) 0.46090(12) -0.16545(11)
C8D C -0.11163(14) 0.70494(12) -0.34502(12)
C9D C -0.33821(13) 0.46791(12) -0.38431(11)
O1D O -0.08198(10) 0.38384(8) -0.16901(8)
O2D O -0.05962(10) 0.50762(8) -0.11133(8)
O3D O -0.05129(10) 0.73903(8) -0.29906(8)
O3B O -0.05129(10) 0.76097(8) 0.20094(8)
O3F O 0.05129(10) 0.23903(8) -0.20094(8)
O4D O -0.13573(10) 0.73759(9) -0.41087(8)
O4B O -0.13573(10) 0.76241(9) 0.08913(8)
O4F O 0.13573(10) 0.23759(9) -0.08913(8)
O5D O -0.36667(9) 0.50079(8) -0.44907(8)
O5A O 0.13333(9) 0.50079(8) -0.05093(8)
O5E O -0.13333(9) 0.49921(8) 0.05093(8)
O6D O -0.37515(10) 0.40885(9) -0.34715(8)
O6E O -0.12485(10) 0.59115(9) 0.15285(8)
O6A O 0.12485(10) 0.40885(9) -0.15285(8)
C10D C 0.07701(17) 0.69448(14) -0.10718(13)
H4D H 0.14610 0.69870 -0.11000
H5D H 0.04850 0.74380 -0.13070
H6D H 0.05610 0.64610 -0.13750
C11D C 0.04700(15) 0.68656(13) -0.02050(12)
O7D O 0.06654(10) 0.74042(9) 0.03075(9)
O8D O -0.00589(10) 0.62681(9) 0.00105(8)
#END
