
#######################################################################
#
#                 Cambridge Crystallographic Data Centre
#                                CCDC
#
#######################################################################
#
# If this CIF has been generated from an entry in the Cambridge
# Structural Database, then it will include bibliographic, chemical,
# crystal, experimental, refinement or atomic coordinate data resulting
# from the CCDC's data processing and validation procedures.
#
#######################################################################

data_CSD_CIF_XUJZOR
_audit_creation_date 2003-02-25
_audit_creation_method CSD-ConQuest-V1
_database_code_CSD XUJZOR
_database_code_depnum_ccdc_archive 'CCDC 161607'
_chemical_formula_sum 'C60 H98 Mo10 N12 Ni5 O70 P4'
_chemical_formula_moiety
;
(C40 H64 Mo10 N8 Ni5 O62 P4 2-)n,2n(C10 H9 N2 1+),8n(H2 O1)
;
_journal_coden_Cambridge 182
_journal_year 2002
_journal_page_first 2640
_journal_name_full 'Chem.Commun. '
loop_
_publ_author_name
"Jin Chen"
"Shaofang Lu"
"Rongmin Yu"
"Zhongning Chen"
"Zixiang Huang"
"Canzhong Lu"
_chemical_name_systematic
;
catena-(bis(4,4'-bipyridinium) 
(\m~6~-polyoxodiphosphatodecamolybdate)-tetrakis(\m~2~-4,4'-bipyridyl)-hexadec
aaqua-penta-nickel(ii) octahydrate)
;
_cell_volume   5317.428
_exptl_crystal_colour 'blue'
_exptl_crystal_density_diffrn 2.176
_exptl_crystal_description 'prism'
_diffrn_ambient_temperature 293
#These two values have been output from a single CSD field.
_refine_ls_R_factor_gt 0.0474
_refine_ls_wR_factor_gt 0.0474
_symmetry_cell_setting monoclinic
_symmetry_space_group_name_H-M 'P 21/n'
_symmetry_Int_Tables_number 14
loop_
_symmetry_equiv_pos_site_id
_symmetry_equiv_pos_as_xyz
1 x,y,z
2 1/2+x,1/2-y,1/2+z
3 -x,-y,-z
4 -1/2-x,-1/2+y,-1/2-z
_cell_length_a 10.7192(2)
_cell_length_b 31.0886(6)
_cell_length_c 16.4690(3)
_cell_angle_alpha 90
_cell_angle_beta 104.331(1)
_cell_angle_gamma 90
_cell_formula_units_Z 2
loop_
_atom_type_symbol
_atom_type_radius_bond
C 0.68
H 0.23
Mo 1.47
N 0.68
Ni 1.50
O 0.58
P 1.05
loop_
_atom_site_label
_atom_site_type_symbol
_atom_site_fract_x
_atom_site_fract_y
_atom_site_fract_z
Mo1 Mo 0.23349(6) 0.060683(18) 0.17222(3)
Mo2 Mo 0.13859(6) 0.174392(18) 0.14694(4)
Mo3 Mo 0.07404(7) 0.203631(19) 0.32715(4)
Mo4 Mo 0.18894(6) 0.12723(2) 0.47242(4)
Mo5 Mo 0.28789(6) 0.041898(19) 0.37788(4)
Ni1 Ni 0.00000 0.00000 0.00000
Ni2 Ni -0.11064(11) 0.27638(3) -0.44675(6)
Ni3 Ni -0.21585(9) 0.06760(3) 0.35646(6)
P1 P 0.01388(17) 0.09775(6) 0.26933(11)
P2 P 0.35344(17) 0.14433(5) 0.32223(10)
O1 O 0.1546(4) 0.02912(13) 0.0878(3)
O2 O 0.3892(5) 0.05855(15) 0.1637(3)
O3 O 0.1865(4) 0.11683(13) 0.1291(3)
O4 O 0.2403(4) 0.02227(13) 0.2628(3)
O5 O 0.3168(4) 0.09629(13) 0.2985(3)
O6 O 0.0376(4) 0.06898(13) 0.1990(3)
O7 O -0.0150(5) 0.17500(16) 0.0844(3)
O8 O -0.2777(5) 0.29683(14) -0.4123(3)
O9 O 0.1268(5) 0.21735(14) 0.2271(3)
O10 O 0.0499(4) 0.14493(13) 0.2485(3)
O11 O 0.3316(4) 0.16906(14) 0.2408(3)
O12 O 0.1535(5) 0.24462(16) 0.3883(3)
O13 O -0.0809(5) 0.22157(18) 0.2991(4)
O14 O 0.2630(4) 0.16225(14) 0.3740(3)
O15 O 0.0507(5) 0.16442(15) 0.4129(3)
O16 O 0.2756(5) 0.16065(17) 0.5479(3)
O17 O 0.0990(5) 0.09795(16) 0.5259(3)
O18 O 0.3168(5) 0.08633(15) 0.4628(3)
O19 O 0.1046(4) 0.08372(14) 0.3537(3)
O20 O 0.2011(5) 0.00505(16) 0.4191(3)
O21 O 0.4406(5) 0.02246(16) 0.4033(3)
O22 O -0.1245(4) 0.09604(15) 0.2752(3)
O23 O 0.4919(4) 0.14703(15) 0.3715(3)
O24 O -0.1178(4) 0.03396(14) 0.0623(3)
O25 O -0.0008(5) 0.31198(17) -0.3498(3)
O26 O 0.0627(7) 0.2612(2) -0.4727(4)
O27 O -0.2388(12) 0.2400(2) -0.5376(4)
O28 O -0.3872(5) 0.09407(16) 0.2877(3)
O29 O -0.0572(5) 0.03718(16) 0.4350(3)
O30 O -0.1792(5) 0.12506(17) 0.4265(3)
O31 O -0.3107(5) 0.04525(17) 0.4438(3)
O32 O 0.7337(7) 0.1531(2) 0.1573(4)
O33 O -0.0621(8) 0.2425(2) -0.0372(5)
O34 O 0.1900(11) 0.3067(3) -0.1687(7)
O35 O 0.7654(11) 0.2659(4) 0.1483(7)
N1 N -0.0043(5) 0.04962(16) -0.0833(3)
N2 N -0.1338(6) 0.32756(19) -0.5284(4)
N3 N -0.0915(7) 0.22455(18) -0.3675(4)
N4 N -0.2460(6) 0.5121(2) -0.7874(4)
N5 N 0.5605(7) 0.1522(3) 0.5397(5)
N6 N 0.6845(8) 0.0824(3) 0.9581(5)
H1 H 0.70310 0.07330 1.00900
C1 C -0.0282(7) 0.0431(2) -0.1662(4)
H2 H -0.03640 0.01500 -0.18600
C2 C -0.0412(7) 0.0757(2) -0.2228(4)
H3 H -0.05870 0.06940 -0.27970
C3 C -0.0286(7) 0.1180(2) -0.1969(4)
C4 C -0.0002(7) 0.1247(2) -0.1107(4)
H4 H 0.01180 0.15250 -0.08940
C5 C 0.0101(7) 0.0905(2) -0.0572(4)
H5 H 0.02790 0.09590 0.00010
C6 C -0.1359(9) 0.3676(2) -0.4985(5)
H6 H -0.12350 0.37130 -0.44100
C7 C -0.1552(9) 0.4030(2) -0.5483(5)
H7 H -0.15480 0.43010 -0.52400
C8 C -0.1756(7) 0.3999(2) -0.6348(5)
C9 C -0.1769(9) 0.3585(2) -0.6658(5)
H8 H -0.19270 0.35410 -0.72330
C10 C -0.1552(9) 0.3242(2) -0.6130(5)
H9 H -0.15500 0.29690 -0.63610
C11 C -0.0536(10) 0.1857(2) -0.3889(5)
H10 H -0.04190 0.18230 -0.44270
C12 C -0.0313(9) 0.1511(3) -0.3361(5)
H11 H -0.00550 0.12500 -0.35400
C13 C -0.0475(7) 0.1553(2) -0.2559(4)
C14 C -0.0856(8) 0.1949(2) -0.2335(4)
H12 H -0.09810 0.19910 -0.18020
C15 C -0.1052(8) 0.2281(2) -0.2894(4)
H13 H -0.12930 0.25470 -0.27220
C16 C -0.2528(9) 0.4727(3) -0.8224(5)
H14 H -0.27360 0.47030 -0.88050
C17 C -0.2297(8) 0.4354(3) -0.7744(5)
H15 H -0.23460 0.40870 -0.80020
C18 C -0.1995(7) 0.4385(2) -0.6890(5)
C19 C -0.1909(9) 0.4794(2) -0.6545(5)
H16 H -0.16780 0.48280 -0.59660
C20 C -0.2160(9) 0.5145(3) -0.7048(5)
H17 H -0.21190 0.54150 -0.67990
C21 C 0.5768(9) 0.1114(4) 0.5578(6)
H18 H 0.57140 0.09170 0.51460
C22 C 0.6023(9) 0.0964(3) 0.6407(5)
H19 H 0.61600 0.06730 0.65260
C23 C 0.6068(7) 0.1258(3) 0.7041(5)
C24 C 0.5897(9) 0.1686(3) 0.6822(5)
H20 H 0.59550 0.18950 0.72340
C25 C 0.5639(10) 0.1805(3) 0.5987(6)
H21 H 0.54860 0.20930 0.58430
C26 C 0.6865(9) 0.1242(3) 0.9410(6)
H22 H 0.70720 0.14370 0.98520
C27 C 0.6590(8) 0.1398(3) 0.8596(5)
H23 H 0.65990 0.16920 0.84950
C28 C 0.6305(7) 0.1111(3) 0.7939(5)
C29 C 0.6261(8) 0.0680(3) 0.8126(5)
H24 H 0.60510 0.04780 0.76990
C30 C 0.6531(9) 0.0553(3) 0.8946(6)
H25 H 0.64910 0.02620 0.90620
O1B O -0.1546(4) -0.02912(13) -0.0878(3)
O24B O 0.1178(4) -0.03396(14) -0.0623(3)
N1B N 0.0043(5) -0.04962(16) 0.0833(3)
N3B N 0.0915(7) -0.22455(18) 0.3675(4)
C1B C 0.0282(7) -0.0431(2) 0.1662(4)
H2B H 0.03640 -0.01500 0.18600
C2B C 0.0412(7) -0.0757(2) 0.2228(4)
H3B H 0.05870 -0.06940 0.27970
C3B C 0.0286(7) -0.1180(2) 0.1969(4)
C4B C 0.0002(7) -0.1247(2) 0.1107(4)
H4B H -0.01180 -0.15250 0.08940
C5B C -0.0101(7) -0.0905(2) 0.0572(4)
H5B H -0.02790 -0.09590 -0.00010
C11B C 0.0536(10) -0.1857(2) 0.3889(5)
H10B H 0.04190 -0.18230 0.44270
C12B C 0.0313(9) -0.1511(3) 0.3361(5)
H11B H 0.00550 -0.12500 0.35400
C13B C 0.0475(7) -0.1553(2) 0.2559(4)
C14B C 0.0856(8) -0.1949(2) 0.2335(4)
H12B H 0.09810 -0.19910 0.18020
C15B C 0.1052(8) -0.2281(2) 0.2894(4)
H13B H 0.12930 -0.25470 0.27220
Mo1B Mo -0.23349(6) -0.060683(18) -0.17222(3)
Ni2B Ni 0.11064(11) -0.27638(3) 0.44675(6)
O2B O -0.3892(5) -0.05855(15) -0.1637(3)
O3B O -0.1865(4) -0.11683(13) -0.1291(3)
O4B O -0.2403(4) -0.02227(13) -0.2628(3)
P2B P -0.35344(17) -0.14433(5) -0.32223(10)
O5B O -0.3168(4) -0.09629(13) -0.2985(3)
O11B O -0.3316(4) -0.16906(14) -0.2408(3)
O14B O -0.2630(4) -0.16225(14) -0.3740(3)
O23B O -0.4919(4) -0.14703(15) -0.3715(3)
P1B P -0.01388(17) -0.09775(6) -0.26933(11)
O6B O -0.0376(4) -0.06898(13) -0.1990(3)
O10B O -0.0499(4) -0.14493(13) -0.2485(3)
O19B O -0.1046(4) -0.08372(14) -0.3537(3)
O22B O 0.1245(4) -0.09604(15) -0.2752(3)
O8B O 0.2777(5) -0.29683(14) 0.4123(3)
O25B O 0.0008(5) -0.31198(17) 0.3498(3)
O26B O -0.0627(7) -0.2612(2) 0.4727(4)
O27B O 0.2388(12) -0.2400(2) 0.5376(4)
N2B N 0.1338(6) -0.32756(19) 0.5284(4)
N4B N 0.2460(6) -0.5121(2) 0.7874(4)
C6B C 0.1359(9) -0.3676(2) 0.4985(5)
H6B H 0.12350 -0.37130 0.44100
C7B C 0.1552(9) -0.4030(2) 0.5483(5)
H7B H 0.15480 -0.43010 0.52400
C8B C 0.1756(7) -0.3999(2) 0.6348(5)
C9B C 0.1769(9) -0.3585(2) 0.6658(5)
H8B H 0.19270 -0.35410 0.72330
C10B C 0.1552(9) -0.3242(2) 0.6130(5)
H9B H 0.15500 -0.29690 0.63610
C16B C 0.2528(9) -0.4727(3) 0.8224(5)
H14B H 0.27360 -0.47030 0.88050
C17B C 0.2297(8) -0.4354(3) 0.7744(5)
H15B H 0.23460 -0.40870 0.80020
C18B C 0.1995(7) -0.4385(2) 0.6890(5)
C19B C 0.1909(9) -0.4794(2) 0.6545(5)
H16B H 0.16780 -0.48280 0.59660
C20B C 0.2160(9) -0.5145(3) 0.7048(5)
H17B H 0.21190 -0.54150 0.67990
Mo2B Mo -0.13859(6) -0.174392(18) -0.14694(4)
Mo3B Mo -0.07404(7) -0.203631(19) -0.32715(4)
Mo4B Mo -0.18894(6) -0.12723(2) -0.47242(4)
Mo5B Mo -0.28789(6) -0.041898(19) -0.37788(4)
Ni3B Ni 0.21585(9) -0.06760(3) -0.35646(6)
O7B O 0.0150(5) -0.17500(16) -0.0844(3)
O9B O -0.1268(5) -0.21735(14) -0.2271(3)
O12B O -0.1535(5) -0.24462(16) -0.3883(3)
O13B O 0.0809(5) -0.22157(18) -0.2991(4)
O15B O -0.0507(5) -0.16442(15) -0.4129(3)
O16B O -0.2756(5) -0.16065(17) -0.5479(3)
O17B O -0.0990(5) -0.09795(16) -0.5259(3)
O18B O -0.3168(5) -0.08633(15) -0.4628(3)
O20B O -0.2011(5) -0.00505(16) -0.4191(3)
O21B O -0.4406(5) -0.02246(16) -0.4033(3)
O28B O 0.3872(5) -0.09407(16) -0.2877(3)
O29B O 0.0572(5) -0.03718(16) -0.4350(3)
O30B O 0.1792(5) -0.12506(17) -0.4265(3)
O31B O 0.3107(5) -0.04525(17) -0.4438(3)
O8A O 0.2223(5) 0.20317(14) 0.0877(3)
N4C N -0.2540(6) 0.0121(2) 0.2874(4)
Mo2A Mo -0.36141(6) 0.325608(18) -0.35306(4)
Ni3C Ni -0.28415(9) 0.56760(3) -0.85646(6)
Mo2C Mo 0.36141(6) -0.325608(18) 0.35306(4)
Ni3A Ni 0.28415(9) -0.56760(3) 0.85646(6)
O8C O -0.2223(5) -0.20317(14) -0.0877(3)
N4A N 0.2540(6) -0.0121(2) -0.2874(4)
#END
