
#######################################################################
#
#                 Cambridge Crystallographic Data Centre
#                                CCDC
#
#######################################################################
#
# If this CIF has been generated from an entry in the Cambridge
# Structural Database, then it will include bibliographic, chemical,
# crystal, experimental, refinement or atomic coordinate data resulting
# from the CCDC's data processing and validation procedures.
#
#######################################################################

data_CSD_CIF_XUKZIN
_audit_creation_date 2010-03-26
_audit_creation_method CSD-ConQuest-V1
_database_code_CSD XUKZIN
_database_code_depnum_ccdc_archive 'CCDC 666140'
_chemical_formula_sum 'C32 H32 N1 O16 Pr1'
_chemical_formula_moiety
;
(C32 H28 O16 Pr1 1-)n,n(H4 N1 1+)
;
_journal_coden_Cambridge 211
_journal_volume 62
_journal_year 2009
_journal_page_first 2347
_journal_name_full 'J.Coord.Chem. '
loop_
_publ_author_name
"Mei-Li Zhang"
"Fu-Gang Xin"
"Zeng-Lin Wang"
_chemical_name_systematic
;
catena-(Ammonium 
tetrakis(\m~2~-2-hydroxy-3-methoxybenzoato-O,O')-praseodymium(iii))
;
_cell_volume   3339.017
_exptl_crystal_density_diffrn 1.646
_diffrn_ambient_temperature 293
#These two values have been output from a single CSD field.
_refine_ls_R_factor_gt 0.0206
_refine_ls_wR_factor_gt 0.0206
_symmetry_cell_setting orthorhombic
_symmetry_space_group_name_H-M 'P n n a'
_symmetry_Int_Tables_number 52
loop_
_symmetry_equiv_pos_site_id
_symmetry_equiv_pos_as_xyz
1 x,y,z
2 1/2-x,-y,z
3 1/2-x,1/2+y,1/2-z
4 x,1/2-y,1/2-z
5 -x,-y,-z
6 -1/2+x,y,-z
7 -1/2+x,-1/2-y,-1/2+z
8 -x,-1/2+y,-1/2+z
_cell_length_a 8.8348(7)
_cell_length_b 16.4800(13)
_cell_length_c 22.9332(19)
_cell_angle_alpha 90
_cell_angle_beta 90
_cell_angle_gamma 90
_cell_formula_units_Z 4
loop_
_atom_type_symbol
_atom_type_radius_bond
C 0.68
H 0.23
N 0.68
O 0.68
Pr 2.03
loop_
_atom_site_label
_atom_site_type_symbol
_atom_site_fract_x
_atom_site_fract_y
_atom_site_fract_z
N1 N 0.2849(4) 0.25000 0.75000
H1 H 0.229(2) 0.2021(10) 0.7451(10)
H2 H 0.343(2) 0.2611(14) 0.7167(7)
Pr1 Pr 0.75000 0.00000 0.479581(6)
O1 O 0.61962(17) 0.05155(10) 0.39096(6)
O2 O 0.40060(18) 0.04216(10) 0.43697(6)
O3 O 0.63959(18) 0.10415(11) 0.28917(7)
H3 H 0.66970 0.08600 0.32040
O4 O 0.5133(2) 0.16256(12) 0.19655(7)
O5 O 0.62423(18) 0.12415(9) 0.50652(8)
O6 O 0.41189(17) 0.11802(9) 0.55907(7)
O7 O 0.3606(2) 0.23484(10) 0.62890(8)
H4 H 0.35140 0.18930 0.61490
O8 O 0.4082(2) 0.38535(12) 0.66033(9)
C1 C 0.4761(2) 0.06022(13) 0.39306(9)
C2 C 0.4013(2) 0.09270(13) 0.33968(9)
C3 C 0.4864(2) 0.11232(13) 0.29089(9)
C4 C 0.4154(3) 0.14240(14) 0.24051(10)
C5 C 0.2603(3) 0.15011(17) 0.23922(12)
H5 H 0.21230 0.16880 0.20570
C6 C 0.1754(3) 0.12985(17) 0.28836(12)
H6 H 0.07070 0.13520 0.28730
C7 C 0.2436(2) 0.10228(16) 0.33798(11)
H7 H 0.18550 0.08990 0.37060
C8 C 0.4506(4) 0.18652(19) 0.14150(11)
H8 H 0.39400 0.14220 0.12530
H9 H 0.53090 0.20110 0.11540
H10 H 0.38480 0.23230 0.14700
C9 C 0.5245(2) 0.15576(13) 0.53723(9)
C10 C 0.5398(2) 0.24398(13) 0.55027(9)
C11 C 0.4602(3) 0.27840(14) 0.59641(10)
C12 C 0.4832(3) 0.36009(16) 0.61118(12)
C13 C 0.5778(4) 0.40696(17) 0.57733(14)
H11 H 0.59050 0.46170 0.58600
C14 C 0.6540(4) 0.37310(18) 0.53054(14)
H12 H 0.71640 0.40540 0.50760
C15 C 0.6383(3) 0.29237(16) 0.51773(11)
H13 H 0.69340 0.26970 0.48730
C16 C 0.4354(4) 0.4665(2) 0.67916(17)
H14 H 0.54200 0.47430 0.68500
H15 H 0.38270 0.47610 0.71510
H16 H 0.39980 0.50370 0.65000
H1C H 0.229(2) 0.2979(10) 0.7549(10)
H2C H 0.343(2) 0.2389(14) 0.7833(7)
Pr1D Pr 0.25000 0.00000 0.520419(6)
Pr1D* Pr 1.25000 0.00000 0.520419(6)
O1A O 0.88038(17) -0.05155(10) 0.39096(6)
O2A O 1.09940(18) -0.04216(10) 0.43697(6)
O2D O 0.59940(18) -0.04216(10) 0.56303(6)
O2E O 0.90060(18) 0.04216(10) 0.56303(6)
O3A O 0.86041(18) -0.10415(11) 0.28917(7)
H3A H 0.83030 -0.08600 0.32040
O4A O 0.9867(2) -0.16256(12) 0.19655(7)
O5A O 0.87577(18) -0.12415(9) 0.50652(8)
O6A O 1.08811(17) -0.11802(9) 0.55907(7)
O6D O 0.58811(17) -0.11802(9) 0.44093(7)
O6E O 0.91189(17) 0.11802(9) 0.44093(7)
O7A O 1.1394(2) -0.23484(10) 0.62890(8)
H4A H 1.14860 -0.18930 0.61490
O8A O 1.0918(2) -0.38535(12) 0.66033(9)
C1A C 1.0239(2) -0.06022(13) 0.39306(9)
C2A C 1.0987(2) -0.09270(13) 0.33968(9)
C3A C 1.0136(2) -0.11232(13) 0.29089(9)
C4A C 1.0846(3) -0.14240(14) 0.24051(10)
C5A C 1.2397(3) -0.15011(17) 0.23922(12)
H5A H 1.28770 -0.16880 0.20570
C6A C 1.3246(3) -0.12985(17) 0.28836(12)
H6A H 1.42930 -0.13520 0.28730
C7A C 1.2564(2) -0.10228(16) 0.33798(11)
H7A H 1.31450 -0.08990 0.37060
C8A C 1.0494(4) -0.18652(19) 0.14150(11)
H8A H 1.10600 -0.14220 0.12530
H9A H 0.96910 -0.20110 0.11540
H10A H 1.11520 -0.23230 0.14700
C9A C 0.9755(2) -0.15576(13) 0.53723(9)
C10A C 0.9602(2) -0.24398(13) 0.55027(9)
C11A C 1.0398(3) -0.27840(14) 0.59641(10)
C12A C 1.0168(3) -0.36009(16) 0.61118(12)
C13A C 0.9222(4) -0.40696(17) 0.57733(14)
H11A H 0.90950 -0.46170 0.58600
C14A C 0.8460(4) -0.37310(18) 0.53054(14)
H12A H 0.78360 -0.40540 0.50760
C15A C 0.8617(3) -0.29237(16) 0.51773(11)
H13A H 0.80660 -0.26970 0.48730
C16A C 1.0646(4) -0.4665(2) 0.67916(17)
H14A H 0.95800 -0.47430 0.68500
H15A H 1.11730 -0.47610 0.71510
H16A H 1.10020 -0.50370 0.65000
#END
