
#######################################################################
#
#                 Cambridge Crystallographic Data Centre
#                                CCDC
#
#######################################################################
#
# If this CIF has been generated from an entry in the Cambridge
# Structural Database, then it will include bibliographic, chemical,
# crystal, experimental, refinement or atomic coordinate data resulting
# from the CCDC's data processing and validation procedures.
#
#######################################################################

data_CSD_CIF_XUKZAF
_audit_creation_date 2010-03-26
_audit_creation_method CSD-ConQuest-V1
_database_code_CSD XUKZAF
_database_code_depnum_ccdc_archive 'CCDC 665193'
_chemical_formula_sum 'C32 H32 Gd1 N1 O16'
_chemical_formula_moiety
;
(C32 H28 Gd1 O16 1-)n,n(H4 N1 1+)
;
_journal_coden_Cambridge 211
_journal_volume 62
_journal_year 2009
_journal_page_first 2347
_journal_name_full 'J.Coord.Chem. '
loop_
_publ_author_name
"Mei-Li Zhang"
"Fu-Gang Xin"
"Zeng-Lin Wang"
_chemical_name_systematic
;
catena-(Ammonium 
tetrakis(\m~2~-2-hydroxy-3-methoxybenzoato-O,O')-gadolinium(iii))
;
_cell_volume   3296.423
_exptl_crystal_density_diffrn 1.7
_diffrn_ambient_temperature 293
#These two values have been output from a single CSD field.
_refine_ls_R_factor_gt 0.0177
_refine_ls_wR_factor_gt 0.0177
_symmetry_cell_setting orthorhombic
_symmetry_space_group_name_H-M 'P n n a'
_symmetry_Int_Tables_number 52
loop_
_symmetry_equiv_pos_site_id
_symmetry_equiv_pos_as_xyz
1 x,y,z
2 1/2-x,-y,z
3 1/2-x,1/2+y,1/2-z
4 x,1/2-y,1/2-z
5 -x,-y,-z
6 -1/2+x,y,-z
7 -1/2+x,-1/2-y,-1/2+z
8 -x,-1/2+y,-1/2+z
_cell_length_a 8.7945(4)
_cell_length_b 16.4014(7)
_cell_length_c 22.8534(10)
_cell_angle_alpha 90
_cell_angle_beta 90
_cell_angle_gamma 90
_cell_formula_units_Z 4
loop_
_atom_type_symbol
_atom_type_radius_bond
C 0.68
H 0.23
Gd 1.96
N 0.68
O 0.68
loop_
_atom_site_label
_atom_site_type_symbol
_atom_site_fract_x
_atom_site_fract_y
_atom_site_fract_z
N1 N 0.2861(3) 0.25000 0.75000
H1 H 0.349(2) 0.2571(13) 0.7172(7)
H2 H 0.228(2) 0.2024(10) 0.745(1)
Gd1 Gd 0.75000 0.00000 0.480047(5)
O1 O 0.61934(15) 0.04989(9) 0.39415(6)
O2 O 0.39610(16) 0.04229(9) 0.43873(6)
O3 O 0.64399(16) 0.10202(10) 0.29161(6)
H3 H 0.67310 0.08510 0.32350
O4 O 0.5202(2) 0.16029(11) 0.19753(6)
O5 O 0.62491(17) 0.12052(9) 0.50659(7)
O6 O 0.40828(16) 0.11476(8) 0.55745(6)
O7 O 0.35728(19) 0.23198(10) 0.62828(7)
H4 H 0.34780 0.18640 0.61400
O8 O 0.4077(2) 0.38272(11) 0.66070(8)
C1 C 0.4751(2) 0.05947(12) 0.39538(8)
C2 C 0.4025(2) 0.09225(12) 0.34132(9)
C3 C 0.4903(2) 0.11093(12) 0.29251(8)
C4 C 0.4207(3) 0.14105(13) 0.24151(9)
C5 C 0.2651(3) 0.14976(16) 0.23950(11)
H5 H 0.21850 0.16850 0.20550
C6 C 0.1776(3) 0.13054(16) 0.28838(11)
H6 H 0.07260 0.13650 0.28680
C7 C 0.2446(2) 0.10290(15) 0.33877(10)
H7 H 0.18510 0.09120 0.37130
C8 C 0.4593(4) 0.18412(19) 0.1422(1)
H8 H 0.40080 0.14010 0.12620
H9 H 0.54100 0.19740 0.11600
H10 H 0.39520 0.23100 0.14720
C9 C 0.5232(2) 0.15240(12) 0.53648(9)
C10 C 0.5394(2) 0.24110(12) 0.55006(9)
C11 C 0.4586(2) 0.27557(13) 0.59631(9)
C12 C 0.4832(3) 0.35732(14) 0.61145(11)
C13 C 0.5793(3) 0.40426(15) 0.57789(13)
H11 H 0.59240 0.45920 0.58680
C14 C 0.6569(4) 0.37029(16) 0.53092(13)
H12 H 0.72080 0.40260 0.50830
C15 C 0.6398(3) 0.28943(15) 0.51779(10)
H13 H 0.69520 0.26650 0.48730
C16 C 0.4350(4) 0.46411(18) 0.67976(15)
H14 H 0.54200 0.47180 0.68600
H15 H 0.38140 0.47380 0.71570
H16 H 0.40000 0.50160 0.65050
H1C H 0.349(2) 0.2429(13) 0.7828(7)
H2C H 0.228(2) 0.2976(10) 0.755(1)
Gd1D Gd 0.25000 0.00000 0.519953(5)
Gd1D* Gd 1.25000 0.00000 0.519953(5)
O1A O 0.88066(15) -0.04989(9) 0.39415(6)
O1E O 1.11934(15) 0.04989(9) 0.60585(6)
O2D O 0.60390(16) -0.04229(9) 0.56127(6)
O2E O 0.89610(16) 0.04229(9) 0.56127(6)
O3E O 1.14399(16) 0.10202(10) 0.70839(6)
H3E H 1.17310 0.08510 0.67650
O4E O 1.0202(2) 0.16029(11) 0.80247(6)
O5A O 0.87509(17) -0.12052(9) 0.50659(7)
O6A O 1.09172(16) -0.11476(8) 0.55745(6)
O6E O 0.90828(16) 0.11476(8) 0.44255(6)
O6D O 0.59172(16) -0.11476(8) 0.44255(6)
O7A O 1.14272(19) -0.23198(10) 0.62828(7)
H4A H 1.15220 -0.18640 0.61400
O8A O 1.0923(2) -0.38272(11) 0.66070(8)
C1E C 0.9751(2) 0.05947(12) 0.60462(8)
C2E C 0.9025(2) 0.09225(12) 0.65868(9)
C3E C 0.9903(2) 0.11093(12) 0.70749(8)
C4E C 0.9207(3) 0.14105(13) 0.75849(9)
C5E C 0.7651(3) 0.14976(16) 0.76050(11)
H5E H 0.71850 0.16850 0.79450
C6E C 0.6776(3) 0.13054(16) 0.71162(11)
H6E H 0.57260 0.13650 0.71320
C7E C 0.7446(2) 0.10290(15) 0.66123(10)
H7E H 0.68510 0.09120 0.62870
C8E C 0.9593(4) 0.18412(19) 0.8578(1)
H8E H 0.90080 0.14010 0.87380
H9E H 1.04100 0.19740 0.88400
H10E H 0.89520 0.23100 0.85280
C9A C 0.9768(2) -0.15240(12) 0.53648(9)
C10A C 0.9606(2) -0.24110(12) 0.55006(9)
C11A C 1.0414(2) -0.27557(13) 0.59631(9)
C12A C 1.0168(3) -0.35732(14) 0.61145(11)
C13A C 0.9207(3) -0.40426(15) 0.57789(13)
H11A H 0.90760 -0.45920 0.58680
C14A C 0.8431(4) -0.37029(16) 0.53092(13)
H12A H 0.77920 -0.40260 0.50830
C15A C 0.8602(3) -0.28943(15) 0.51779(10)
H13A H 0.80480 -0.26650 0.48730
C16A C 1.0650(4) -0.46411(18) 0.67976(15)
H14A H 0.95800 -0.47180 0.68600
H15A H 1.11860 -0.47380 0.71570
H16A H 1.10000 -0.50160 0.65050
#END
