
#######################################################################
#
#                 Cambridge Crystallographic Data Centre
#                                CCDC
#
#######################################################################
#
# If this CIF has been generated from an entry in the Cambridge
# Structural Database, then it will include bibliographic, chemical,
# crystal, experimental, refinement or atomic coordinate data resulting
# from the CCDC's data processing and validation procedures.
#
#######################################################################

data_CSD_CIF_XUKZOT
_audit_creation_date 2010-03-26
_audit_creation_method CSD-ConQuest-V1
_database_code_CSD XUKZOT
_database_code_depnum_ccdc_archive 'CCDC 666415'
_chemical_formula_sum 'C32 H32 N1 Nd1 O16'
_chemical_formula_moiety
;
(C32 H28 Nd1 O16 1-)n,n(H4 N1 1+)
;
_journal_coden_Cambridge 211
_journal_volume 62
_journal_year 2009
_journal_page_first 2347
_journal_name_full 'J.Coord.Chem. '
loop_
_publ_author_name
"Mei-Li Zhang"
"Fu-Gang Xin"
"Zeng-Lin Wang"
_chemical_name_systematic
;
catena-(Ammonium 
tetrakis(\m~2~-2-hydroxy-3-methoxybenzoato-O,O')-neodymium(iii))
;
_cell_volume   3331.724
_exptl_crystal_density_diffrn 1.656
_diffrn_ambient_temperature 293
#These two values have been output from a single CSD field.
_refine_ls_R_factor_gt 0.0198
_refine_ls_wR_factor_gt 0.0198
_symmetry_cell_setting orthorhombic
_symmetry_space_group_name_H-M 'P n n a'
_symmetry_Int_Tables_number 52
loop_
_symmetry_equiv_pos_site_id
_symmetry_equiv_pos_as_xyz
1 x,y,z
2 1/2-x,-y,z
3 1/2-x,1/2+y,1/2-z
4 x,1/2-y,1/2-z
5 -x,-y,-z
6 -1/2+x,y,-z
7 -1/2+x,-1/2-y,-1/2+z
8 -x,-1/2+y,-1/2+z
_cell_length_a 8.8317(11)
_cell_length_b 16.465(2)
_cell_length_c 22.912(3)
_cell_angle_alpha 90
_cell_angle_beta 90
_cell_angle_gamma 90
_cell_formula_units_Z 4
loop_
_atom_type_symbol
_atom_type_radius_bond
C 0.68
H 0.23
N 0.68
Nd 2.01
O 0.68
loop_
_atom_site_label
_atom_site_type_symbol
_atom_site_fract_x
_atom_site_fract_y
_atom_site_fract_z
N1 N 0.2848(4) 0.25000 0.75000
H1 H 0.229(2) 0.2015(10) 0.7456(10)
H2 H 0.347(2) 0.2583(13) 0.7174(7)
Nd1 Nd 0.75000 0.00000 0.479679(6)
O1 O 0.61978(16) 0.05114(10) 0.39163(6)
O2 O 0.39934(17) 0.04212(10) 0.43742(6)
O3 O 0.64046(17) 0.10368(10) 0.28983(6)
H3 H 0.67010 0.08600 0.32130
O4 O 0.5147(2) 0.16188(12) 0.19676(6)
O5 O 0.62408(17) 0.12342(9) 0.50646(7)
O6 O 0.41091(16) 0.11715(9) 0.55862(6)
O7 O 0.3597(2) 0.23408(10) 0.62877(7)
H4 H 0.34880 0.18900 0.61420
O8 O 0.4080(2) 0.38466(11) 0.66051(9)
C1 C 0.4757(2) 0.06026(13) 0.39359(8)
C2 C 0.4014(2) 0.09259(12) 0.34016(9)
C3 C 0.4869(2) 0.11216(13) 0.29123(8)
C4 C 0.4163(3) 0.14207(14) 0.24084(9)
C5 C 0.2609(3) 0.15003(18) 0.23933(12)
H5 H 0.21340 0.16860 0.20570
C6 C 0.1755(3) 0.13015(16) 0.28835(11)
H6 H 0.07070 0.13570 0.28730
C7 C 0.2439(2) 0.10244(16) 0.33818(11)
H7 H 0.18560 0.09010 0.37080
C8 C 0.4523(4) 0.18585(19) 0.14179(11)
H8 H 0.39590 0.14150 0.12540
H9 H 0.53270 0.20060 0.11570
H10 H 0.38630 0.23150 0.14730
C9 C 0.5237(2) 0.15504(13) 0.53703(9)
C10 C 0.5395(2) 0.24345(13) 0.55024(9)
C11 C 0.4592(3) 0.27785(14) 0.59634(9)
C12 C 0.4830(3) 0.35932(15) 0.61130(11)
C13 C 0.5776(3) 0.40636(16) 0.57745(14)
H11 H 0.59000 0.46120 0.58610
C14 C 0.6544(4) 0.37250(18) 0.53066(14)
H12 H 0.71720 0.40480 0.50780
C15 C 0.6383(3) 0.29176(16) 0.51782(10)
H13 H 0.69350 0.26900 0.48730
C16 C 0.4353(4) 0.4658(2) 0.67948(16)
H14 H 0.54180 0.47330 0.68590
H15 H 0.38140 0.47560 0.71520
H16 H 0.40110 0.50320 0.65010
H1C H 0.229(2) 0.2985(10) 0.7544(10)
H2C H 0.347(2) 0.2417(13) 0.7826(7)
Nd1D Nd 0.25000 0.00000 0.520321(6)
Nd1D* Nd 1.25000 0.00000 0.520321(6)
O1A O 0.88022(16) -0.05114(10) 0.39163(6)
O2A O 1.10066(17) -0.04212(10) 0.43742(6)
O2D O 0.60066(17) -0.04212(10) 0.56258(6)
O2E O 0.89934(17) 0.04212(10) 0.56258(6)
O3A O 0.85954(17) -0.10368(10) 0.28983(6)
H3A H 0.82990 -0.08600 0.32130
O4A O 0.9853(2) -0.16188(12) 0.19676(6)
O5A O 0.87592(17) -0.12342(9) 0.50646(7)
O6A O 1.08909(16) -0.11715(9) 0.55862(6)
O6D O 0.58909(16) -0.11715(9) 0.44138(6)
O6E O 0.91091(16) 0.11715(9) 0.44138(6)
O7A O 1.1403(2) -0.23408(10) 0.62877(7)
H4A H 1.15120 -0.18900 0.61420
O8A O 1.0920(2) -0.38466(11) 0.66051(9)
C1A C 1.0243(2) -0.06026(13) 0.39359(8)
C2A C 1.0986(2) -0.09259(12) 0.34016(9)
C3A C 1.0131(2) -0.11216(13) 0.29123(8)
C4A C 1.0837(3) -0.14207(14) 0.24084(9)
C5A C 1.2391(3) -0.15003(18) 0.23933(12)
H5A H 1.28660 -0.16860 0.20570
C6A C 1.3245(3) -0.13015(16) 0.28835(11)
H6A H 1.42930 -0.13570 0.28730
C7A C 1.2561(2) -0.10244(16) 0.33818(11)
H7A H 1.31440 -0.09010 0.37080
C8A C 1.0477(4) -0.18585(19) 0.14179(11)
H8A H 1.10410 -0.14150 0.12540
H9A H 0.96730 -0.20060 0.11570
H10A H 1.11370 -0.23150 0.14730
C9A C 0.9763(2) -0.15504(13) 0.53703(9)
C10A C 0.9605(2) -0.24345(13) 0.55024(9)
C11A C 1.0408(3) -0.27785(14) 0.59634(9)
C12A C 1.0170(3) -0.35932(15) 0.61130(11)
C13A C 0.9224(3) -0.40636(16) 0.57745(14)
H11A H 0.91000 -0.46120 0.58610
C14A C 0.8456(4) -0.37250(18) 0.53066(14)
H12A H 0.78280 -0.40480 0.50780
C15A C 0.8617(3) -0.29176(16) 0.51782(10)
H13A H 0.80650 -0.26900 0.48730
C16A C 1.0647(4) -0.4658(2) 0.67948(16)
H14A H 0.95820 -0.47330 0.68590
H15A H 1.11860 -0.47560 0.71520
H16A H 1.09890 -0.50320 0.65010
#END
