
#######################################################################
#
#                 Cambridge Crystallographic Data Centre
#                                CCDC
#
#######################################################################
#
# If this CIF has been generated from an entry in the Cambridge
# Structural Database, then it will include bibliographic, chemical,
# crystal, experimental, refinement or atomic coordinate data resulting
# from the CCDC's data processing and validation procedures.
#
#######################################################################

data_CSD_CIF_XUKZEJ
_audit_creation_date 2010-03-26
_audit_creation_method CSD-ConQuest-V1
_database_code_CSD XUKZEJ
_database_code_depnum_ccdc_archive 'CCDC 665194'
_chemical_formula_sum 'C32 H32 Ho1 N1 O16'
_chemical_formula_moiety
;
(C32 H28 Ho1 O16 1-)n,n(H4 N1 1+)
;
_journal_coden_Cambridge 211
_journal_volume 62
_journal_year 2009
_journal_page_first 2347
_journal_name_full 'J.Coord.Chem. '
loop_
_publ_author_name
"Mei-Li Zhang"
"Fu-Gang Xin"
"Zeng-Lin Wang"
_chemical_name_systematic
;
catena-(Ammonium 
bis(\m~2~-2-hydroxy-3-methoxybenzoato-O,O')-bis(2-hydroxy-3-methoxybenzoato-O,
O')-holmium(iii))
;
_cell_volume   3246.478
_exptl_crystal_density_diffrn 1.742
_diffrn_ambient_temperature 293
#These two values have been output from a single CSD field.
_refine_ls_R_factor_gt 0.0192
_refine_ls_wR_factor_gt 0.0192
_symmetry_cell_setting orthorhombic
_symmetry_space_group_name_H-M 'C c c 2'
_symmetry_Int_Tables_number 37
loop_
_symmetry_equiv_pos_site_id
_symmetry_equiv_pos_as_xyz
1 x,y,z
2 -x,-y,z
3 x,-y,1/2+z
4 -x,y,1/2+z
5 1/2+x,1/2+y,z
6 1/2-x,1/2-y,z
7 1/2+x,1/2-y,1/2+z
8 1/2-x,1/2+y,1/2+z
_cell_length_a 16.5354(14)
_cell_length_b 20.3456(17)
_cell_length_c 9.6500(8)
_cell_angle_alpha 90
_cell_angle_beta 90
_cell_angle_gamma 90
_cell_formula_units_Z 4
loop_
_atom_type_symbol
_atom_type_radius_bond
C 0.68
H 0.23
Ho 1.70
N 0.68
O 0.68
loop_
_atom_site_label
_atom_site_type_symbol
_atom_site_fract_x
_atom_site_fract_y
_atom_site_fract_z
Ho1 Ho 1.00000 0.00000 0.52224(10)
O1 O 0.88654(13) -0.05342(10) 0.6287(2)
O2 O 0.85783(18) 0.00776(11) 0.4477(3)
O3 O 0.77838(14) -0.12009(11) 0.7527(3)
H1 H 0.82330 -0.10380 0.74220
O4 O 0.62754(14) -0.14877(12) 0.7892(3)
O5 O 0.94590(13) 0.09035(10) 0.6417(2)
O6 O 0.98827(14) 0.07877(14) 0.8584(3)
O7 O 0.88405(17) 0.19964(11) 0.5612(2)
H2 H 0.90280 0.16260 0.55100
O8 O 0.82093(18) 0.31173(11) 0.6246(3)
N1 N 0.75000 0.25000 0.3839(4)
H3 H 0.7045(10) 0.2518(16) 0.425(3)
H4 H 0.7497(18) 0.2171(11) 0.330(3)
C1 C 0.83576(18) -0.02950(14) 0.5441(4)
C2 C 0.7486(2) -0.04726(14) 0.5602(3)
C3 C 0.72518(19) -0.09050(15) 0.6660(3)
C4 C 0.6425(2) -0.10460(16) 0.6841(4)
C5 C 0.5856(2) -0.07591(19) 0.5996(4)
H5 H 0.53100 -0.08470 0.61280
C6 C 0.6102(2) -0.03367(18) 0.4943(4)
H6 H 0.57170 -0.01450 0.43680
C7 C 0.6900(2) -0.02016(18) 0.4744(4)
H7 H 0.70550 0.00760 0.40250
C8 C 0.5451(3) -0.1645(2) 0.8184(5)
H8 H 0.51550 -0.12490 0.83630
H9 H 0.54250 -0.19260 0.89820
H10 H 0.52180 -0.18670 0.74020
C9 C 0.95204(16) 0.11003(12) 0.7666(4)
C10 C 0.91418(19) 0.17443(14) 0.8012(3)
C11 C 0.88291(19) 0.21495(14) 0.6976(3)
C12 C 0.84796(19) 0.27609(14) 0.7346(3)
C13 C 0.8425(2) 0.29424(17) 0.8701(3)
H11 H 0.81870 0.33410 0.89370
C14 C 0.8729(2) 0.25268(16) 0.9747(4)
H12 H 0.86890 0.26500 1.06720
C15 C 0.9085(2) 0.19387(16) 0.9400(3)
H13 H 0.92900 0.16680 1.00930
C16 C 0.7913(3) 0.37678(16) 0.6492(5)
H14 H 0.74970 0.37540 0.71840
H15 H 0.76960 0.39440 0.56480
H16 H 0.83480 0.40420 0.68080
Ho1B Ho 1.00000 0.00000 1.02224(10)
O1A O 1.11346(13) 0.05342(10) 0.6287(2)
O2A O 1.14217(18) -0.00776(11) 0.4477(3)
O3A O 1.22162(14) 0.12009(11) 0.7527(3)
H1A H 1.17670 0.10380 0.74220
O4A O 1.37246(14) 0.14877(12) 0.7892(3)
O5A O 1.05410(13) -0.09035(10) 0.6417(2)
O6A O 1.01173(14) -0.07877(14) 0.8584(3)
O6B O 0.98827(14) -0.07877(14) 0.3584(3)
O6C O 1.01173(14) 0.07877(14) 0.3584(3)
O7A O 1.11595(17) -0.19964(11) 0.5612(2)
H2A H 1.09720 -0.16260 0.55100
O8A O 1.17907(18) -0.31173(11) 0.6246(3)
H3E H 0.7955(10) 0.2482(16) 0.425(3)
H4E H 0.7503(18) 0.2829(11) 0.330(3)
C1A C 1.16424(18) 0.02950(14) 0.5441(4)
C2A C 1.2514(2) 0.04726(14) 0.5602(3)
C3A C 1.27482(19) 0.09050(15) 0.6660(3)
C4A C 1.3575(2) 0.10460(16) 0.6841(4)
C5A C 1.4144(2) 0.07591(19) 0.5996(4)
H5A H 1.46900 0.08470 0.61280
C6A C 1.3898(2) 0.03367(18) 0.4943(4)
H6A H 1.42830 0.01450 0.43680
C7A C 1.3100(2) 0.02016(18) 0.4744(4)
H7A H 1.29450 -0.00760 0.40250
C8A C 1.4549(3) 0.1645(2) 0.8184(5)
H8A H 1.48450 0.12490 0.83630
H9A H 1.45750 0.19260 0.89820
H10A H 1.47820 0.18670 0.74020
C9A C 1.04796(16) -0.11003(12) 0.7666(4)
C10A C 1.08582(19) -0.17443(14) 0.8012(3)
C11A C 1.11709(19) -0.21495(14) 0.6976(3)
C12A C 1.15204(19) -0.27609(14) 0.7346(3)
C13A C 1.1575(2) -0.29424(17) 0.8701(3)
H11A H 1.18130 -0.33410 0.89370
C14A C 1.1271(2) -0.25268(16) 0.9747(4)
H12A H 1.13110 -0.26500 1.06720
C15A C 1.0915(2) -0.19387(16) 0.9400(3)
H13A H 1.07100 -0.16680 1.00930
C16A C 1.2087(3) -0.37678(16) 0.6492(5)
H14A H 1.25030 -0.37540 0.71840
H15A H 1.23040 -0.39440 0.56480
H16A H 1.16520 -0.40420 0.68080
#END
