
#######################################################################
#
#                 Cambridge Crystallographic Data Centre
#                                CCDC
#
#######################################################################
#
# If this CIF has been generated from an entry in the Cambridge
# Structural Database, then it will include bibliographic, chemical,
# crystal, experimental, refinement or atomic coordinate data resulting
# from the CCDC's data processing and validation procedures.
#
#######################################################################

data_CSD_CIF_XULGIU
_audit_creation_date 2003-02-25
_audit_creation_method CSD-ConQuest-V1
_database_code_CSD XULGIU
_database_code_depnum_ccdc_archive 'CCDC 1297966'
_chemical_formula_sum 'C4 H10 F2 N2 O9 Sn2'
_chemical_formula_moiety
;
(H4 N1 1+)2n,n(C4 F2 O8 Sn2 2-),n(H2 O1)
;
_journal_coden_Cambridge 233
_journal_volume 47
_journal_year 2002
_journal_page_first 250
_journal_name_full 'Zh.Neorg.Khim.(Russ.)(Russ.J.Inorg.Chem.) '
loop_
_publ_author_name
"Yu.V.Kokunov"
"D.G.Detkov"
"Yu.E.Gorbunova"
"M.M.Ershova"
"Yu.N.Mikhailov"
_chemical_name_systematic
;
catena-(Diammonium bis(\m~2~-oxalato)-difluoro-di-tin(ii) monohydrate)
;
_cell_volume   1232.836
_exptl_crystal_colour 'colorless'
_exptl_crystal_density_diffrn 2.724
_exptl_crystal_description 'needle'
_diffrn_ambient_temperature 293
#These two values have been output from a single CSD field.
_refine_ls_R_factor_gt 0.016
_refine_ls_wR_factor_gt 0.016
_symmetry_cell_setting monoclinic
_symmetry_space_group_name_H-M 'P 21/c'
_symmetry_Int_Tables_number 14
loop_
_symmetry_equiv_pos_site_id
_symmetry_equiv_pos_as_xyz
1 x,y,z
2 -x,1/2+y,1/2-z
3 -x,-y,-z
4 x,-1/2-y,-1/2+z
_cell_length_a 10.130(6)
_cell_length_b 9.754(3)
_cell_length_c 12.511(4)
_cell_angle_alpha 90
_cell_angle_beta 94.22(4)
_cell_angle_gamma 90
_cell_formula_units_Z 4
loop_
_atom_type_symbol
_atom_type_radius_bond
C 0.68
H 0.23
F 0.64
N 0.68
O 0.68
Sn 1.66
loop_
_atom_site_label
_atom_site_type_symbol
_atom_site_fract_x
_atom_site_fract_y
_atom_site_fract_z
Sn1 Sn 0.4884(2) 0.14547(2) 0.10944(1)
Sn2 Sn 0.87119(2) 0.31428(2) 0.49330(1)
F1 F 0.4472(2) 0.3529(2) 0.1030(1)
F2 F 0.8886(2) 0.1080(2) 0.5090(1)
O1 O 0.8469(2) 0.2796(2) 0.3123(1)
O2 O 0.0834(2) 0.2074(3) -0.0622(2)
O3 O 0.2767(2) 0.1269(2) 0.1740(1)
O4 O 0.5103(2) 0.1910(2) 0.2879(1)
O5 O 0.7107(2) 0.2545(2) 0.1665(1)
O6 O 0.6423(2) 0.2343(2) 0.4344(1)
O7 O 0.3002(2) 0.1740(2) -0.0366(1)
O8 O 0.0614(2) 0.1755(2) 0.1500(2)
C1 C 0.1867(2) 0.1828(3) -0.0042(2)
C2 C 0.7354(2) 0.2547(2) 0.2653(2)
C3 C 0.1730(2) 0.1604(3) 0.1174(2)
C4 C 0.6199(2) 0.2237(3) 0.3356(2)
O9 O 0.2928(2) 0.4459(2) 0.2574(2)
H1 H 0.35700 0.41400 0.20800
H2 H 0.30600 0.39300 0.31400
N1 N 0.6679(2) 0.5315(2) 0.0900(2)
H3 H 0.60800 0.47300 0.09400
H4 H 0.62600 0.59200 0.04700
H5 H 0.73100 0.47500 0.06600
H6 H 0.71100 0.58600 0.15000
N2 N 1.0255(3) 0.4797(3) 0.2009(2)
H7 H 1.11300 0.46400 0.21500
H8 H 0.97600 0.39600 0.22600
H9 H 1.00500 0.55800 0.22700
H10 H 0.99800 0.48900 0.12300
O2C O 1.0834(2) 0.2926(3) 0.4378(2)
O8C O 1.0614(2) 0.3245(2) 0.6500(2)
Sn2C Sn -0.12881(2) 0.18572(2) -0.00670(1)
#END
