
#######################################################################
#
#                 Cambridge Crystallographic Data Centre
#                                CCDC
#
#######################################################################
#
# If this CIF has been generated from an entry in the Cambridge
# Structural Database, then it will include bibliographic, chemical,
# crystal, experimental, refinement or atomic coordinate data resulting
# from the CCDC's data processing and validation procedures.
#
#######################################################################

data_CSD_CIF_XULZEK
_audit_creation_date 2010-03-26
_audit_creation_method CSD-ConQuest-V1
_database_code_CSD XULZEK
_database_code_depnum_ccdc_archive 'CCDC 605517'
_chemical_formula_sum 'C24 H28 Cu3 Mo12 N12 O42 P1'
_chemical_formula_moiety
;
(Mo12 O40 P1 3-)n,n(C16 H16 Cu2 N8 2+),n(C8 H8 Cu1 N4 1+),2n(H2 O1)
;
_journal_coden_Cambridge 155
_journal_volume 362
_journal_year 2009
_journal_page_first 3325
_journal_name_full 'Inorg.Chim.Acta '
loop_
_publ_author_name
"Xiutang Zhang"
"Jianmin Dou"
"Peihai Wei"
"Dacheng Li"
"Bin Li"
"Congwen Shi"
"Bo Hu"
_chemical_name_systematic
;
catena-(bis(\m~2~-Pyrazine-N,N')-bis(pyrazine-N)-di-copper(i) 
bis(pyrazine-N)-copper(i) 
(\m~12~-phosphato)-tetracosakis(\m~2~-oxo)-dodecaoxo-dodeca-molybdenum 
dihydrate)
;
_cell_volume   1402.516
_exptl_crystal_colour 'red'
_exptl_crystal_density_diffrn 2.995
_exptl_crystal_description 'block'
_diffrn_ambient_temperature 293
_refine_special_details
;
The oxygen atoms of the phosphate moiety are each disordered by symmetry.

;
#These two values have been output from a single CSD field.
_refine_ls_R_factor_gt 0.0556
_refine_ls_wR_factor_gt 0.0556
_symmetry_cell_setting triclinic
_symmetry_space_group_name_H-M 'P -1'
_symmetry_Int_Tables_number 2
loop_
_symmetry_equiv_pos_site_id
_symmetry_equiv_pos_as_xyz
1 x,y,z
2 -x,-y,-z
_cell_length_a 11.6201(3)
_cell_length_b 11.6655(2)
_cell_length_c 12.1134(2)
_cell_angle_alpha 115.396(1)
_cell_angle_beta 102.843(1)
_cell_angle_gamma 96.869(1)
_cell_formula_units_Z 1
loop_
_atom_type_symbol
_atom_type_radius_bond
C 0.68
H 0.23
Cu 1.32
Mo 1.39
N 0.68
O 0.66
P 1.05
loop_
_atom_site_label
_atom_site_type_symbol
_atom_site_fract_x
_atom_site_fract_y
_atom_site_fract_z
Cu1 Cu 1.21221(16) -0.02727(19) -0.15763(18)
Cu2 Cu 1.00000 0.50000 1.00000
Mo1 Mo 0.26805(9) 0.20431(10) 0.33789(10)
Mo2 Mo 0.20115(9) 0.49498(10) 0.33622(10)
Mo3 Mo 0.57282(10) 0.20328(10) 0.47134(11)
Mo4 Mo 0.39872(10) 0.35338(10) 0.67723(10)
Mo5 Mo 0.29837(9) 0.63129(10) 0.67752(10)
Mo6 Mo 0.39256(9) 0.3343(1) 0.15905(9)
N1 N 1.1325(9) -0.085(1) -0.3408(11)
N2 N 1.3832(8) -0.0067(9) -0.0651(10)
N3 N 1.0269(13) -0.1837(14) -0.6017(14)
N4 N 1.0914(9) -0.0094(12) -0.061(1)
N5 N 1.1551(11) 0.6123(14) 1.0563(14)
N6 N 1.3865(15) 0.7677(17) 1.1478(18)
O1 O 0.4684(12) 0.5291(12) 0.6247(13)
O2 O 0.3962(13) 0.5750(13) 0.5078(13)
O3? O 0.6111(12) 0.5817(12) 0.6185(12)
O4? O 0.4532(12) 0.3653(12) 0.4994(13)
O5 O 0.1764(9) 0.3213(8) 0.3304(9)
O6 O 0.2841(9) 0.6648(8) 0.3935(8)
O7 O 0.4163(8) 0.139(1) 0.3613(8)
O8 O 0.2811(9) 0.2504(10) 0.5056(9)
O9 O 0.1940(9) 0.5524(8) 0.5142(8)
O10 O 0.6374(9) 0.2271(8) 0.3553(8)
O11 O 0.3183(9) 0.2132(8) 0.1980(9)
O12 O 0.5031(8) 0.2556(11) 0.6139(8)
O13 O 0.2954(8) 0.4787(8) 0.6869(11)
O14 O 0.5425(8) 0.2993(8) 0.1898(10)
O15 O 0.5214(8) 0.4920(8) 0.8019(11)
O16 O 0.2652(10) 0.4269(8) 0.2031(10)
O17 O 0.1653(7) 0.0618(7) 0.2593(8)
O18 O 0.0638(8) 0.4904(9) 0.2639(9)
O19 O 0.6077(8) 0.0673(7) 0.4626(8)
O20 O 0.3424(8) 0.2854(8) 0.7560(8)
O21 O 0.2107(7) 0.7035(8) 0.7661(8)
O22 O 0.3386(9) 0.2621(8) -0.0013(8)
O23 O 0.8909(17) 0.7188(16) 0.1486(18)
P1 P 0.50000 0.50000 0.50000
C1 C 1.0448(11) -0.1981(13) -0.4120(14)
H1 H 1.02040 -0.24490 -0.37200
C2 C 0.9919(12) -0.2449(13) -0.5382(15)
H2 H 0.92990 -0.32120 -0.58260
C3 C 1.1114(16) -0.0704(16) -0.5324(19)
H3 H 1.13750 -0.02580 -0.57360
C4 C 1.1595(13) -0.0196(13) -0.4053(16)
H4 H 1.21300 0.06280 -0.35960
C5 C 1.4043(13) -0.0338(12) 0.0316(14)
H5 H 1.33920 -0.05810 0.05630
C6 C 1.4772(13) 0.0269(12) -0.0985(13)
H6 H 1.46510 0.04610 -0.16650
C7 C 1.0387(12) -0.1032(15) -0.0498(12)
H7 H 1.06290 -0.18090 -0.08460
C8 C 1.0526(11) 0.1029(14) -0.0096(13)
H8 H 1.08560 0.17700 -0.01390
C9 C 1.2411(14) 0.5694(16) 0.9917(18)
H9 H 1.22200 0.49000 0.91730
C10 C 1.3513(18) 0.6502(19) 1.0446(19)
H10 H 1.41010 0.62170 1.00540
C11 C 1.3066(18) 0.812(2) 1.211(2)
H11 H 1.32720 0.89380 1.28280
C12 C 1.1939(15) 0.7308(14) 1.1631(14)
H12 H 1.13840 0.75870 1.20740
H13 H 0.896(13) 0.654(10) 0.164(13)
H14 H 0.937(11) 0.720(11) 0.104(12)
Cu1A Cu 1.78779(16) 0.02727(19) 0.15763(18)
Cu1A* Cu 0.78779(16) 0.02727(19) 0.15763(18)
Mo1A Mo 0.73195(9) 0.79569(10) 0.66211(10)
Mo2A Mo 0.79885(9) 0.50502(10) 0.66378(10)
Mo3A Mo 0.42718(10) 0.79672(10) 0.52866(11)
Mo4A Mo 0.60128(10) 0.64662(10) 0.32277(10)
Mo5A Mo 0.70163(9) 0.36871(10) 0.32248(10)
Mo6A Mo 0.60744(9) 0.6657(1) 0.84095(9)
N1A N 1.8675(9) 0.085(1) 0.3408(11)
N2A N 1.6168(8) 0.0067(9) 0.0651(10)
N3A N 1.9731(13) 0.1837(14) 0.6017(14)
N4A N 0.9086(9) 0.0094(12) 0.061(1)
N4A* N 1.9086(9) 0.0094(12) 0.061(1)
N5A N 0.8449(11) 0.3877(14) 0.9437(14)
N6A N 0.6135(15) 0.2323(17) 0.8522(18)
O1A O 0.5316(12) 0.4709(12) 0.3753(13)
O2A O 0.6038(13) 0.4250(13) 0.4922(13)
O5A O 0.8236(9) 0.6787(8) 0.6696(9)
O6A O 0.7159(9) 0.3352(8) 0.6065(8)
O7A O 0.5837(8) 0.861(1) 0.6387(8)
O8A O 0.7189(9) 0.7496(10) 0.4944(9)
O9A O 0.8060(9) 0.4476(8) 0.4858(8)
O10A O 0.3626(9) 0.7729(8) 0.6447(8)
O11A O 0.6817(9) 0.7868(8) 0.8020(9)
O12A O 0.4969(8) 0.7444(11) 0.3861(8)
O13A O 0.7046(8) 0.5213(8) 0.3131(11)
O14A O 0.4575(8) 0.7007(8) 0.8102(10)
O15A O 0.4786(8) 0.5080(8) 0.1981(11)
O16A O 0.7348(10) 0.5731(8) 0.7969(10)
O17A O 0.8347(7) 0.9382(7) 0.7407(8)
O18A O 0.9362(8) 0.5096(9) 0.7361(9)
O19A O 0.3923(8) 0.9327(7) 0.5374(8)
O20A O 0.6576(8) 0.7146(8) 0.2440(8)
O21A O 0.7893(7) 0.2965(8) 0.2339(8)
O22A O 0.6614(9) 0.7379(8) 1.0013(8)
C1A C 1.9552(11) 0.1981(13) 0.4120(14)
H1A H 1.97960 0.24490 0.37200
C2A C 2.0081(12) 0.2449(13) 0.5382(15)
H2A H 2.07010 0.32120 0.58260
C3A C 1.8886(16) 0.0704(16) 0.5324(19)
H3A H 1.86250 0.02580 0.57360
C4A C 1.8405(13) 0.0196(13) 0.4053(16)
H4A H 1.78700 -0.06280 0.35960
C5A C 1.5957(13) 0.0338(12) -0.0316(14)
H5A H 1.66080 0.05810 -0.05630
C6A C 1.5228(13) -0.0269(12) 0.0985(13)
H6A H 1.53490 -0.04610 0.16650
C7A C 0.9613(12) 0.1032(15) 0.0498(12)
H7A H 0.93710 0.18090 0.08460
C8A C 0.9474(11) -0.1029(14) 0.0096(13)
H8A H 0.91440 -0.17700 0.01390
C9A C 0.7589(14) 0.4306(16) 1.0083(18)
H9A H 0.77800 0.51000 1.08270
C10A C 0.6487(18) 0.3498(19) 0.9554(19)
H10A H 0.58990 0.37830 0.99460
C11A C 0.6934(18) 0.188(2) 0.789(2)
H11A H 0.67280 0.10620 0.71720
C12A C 0.8061(15) 0.2692(14) 0.8369(14)
H12A H 0.86160 0.24130 0.79260
#END
