
#######################################################################
#
#                 Cambridge Crystallographic Data Centre
#                                CCDC
#
#######################################################################
#
# If this CIF has been generated from an entry in the Cambridge
# Structural Database, then it will include bibliographic, chemical,
# crystal, experimental, refinement or atomic coordinate data resulting
# from the CCDC's data processing and validation procedures.
#
#######################################################################

data_CSD_CIF_XUMKUN
_audit_creation_date 2015-04-09
_audit_creation_method CSD-ConQuest-V1
_database_code_CSD XUMKUN
_database_code_depnum_ccdc_archive 'CCDC 895832'
_chemical_formula_sum 'C80 H66 O20 P2 Zn2'
_chemical_formula_moiety
;
(C32 H18 O16 Zn2 2-)n,2n(C24 H20 P1 1+),4n(H2 O1)
;
_journal_coden_Cambridge 1295
_journal_volume 48
_journal_year 2014
_journal_page_first 161
_journal_name_full 'Inorg.Chem.Commun. '
loop_
_publ_author_name
"Xiao-Li Wang"
"Guo-Dong Yang"
"Li Liu"
"Ai-Dong Tan"
"Jing-Cao Dai"
_chemical_name_systematic
;
catena-(bis(Tetraphenylphosphonium) bis(\m~2~-hydrogen 
terephthalato)-bis(\m~2~-terephthalato)-di-zinc tetrahydrate)
;
_cell_volume   1769.010
_exptl_crystal_colour 'colorless'
_exptl_crystal_density_diffrn 1.446
_exptl_crystal_description 'block'
_diffrn_ambient_temperature 293
#These two values have been output from a single CSD field.
_refine_ls_R_factor_gt 0.0752
_refine_ls_wR_factor_gt 0.0752
_symmetry_cell_setting triclinic
_symmetry_space_group_name_H-M 'P -1'
_symmetry_Int_Tables_number 2
loop_
_symmetry_equiv_pos_site_id
_symmetry_equiv_pos_as_xyz
1 x,y,z
2 -x,-y,-z
_cell_length_a 12.607(3)
_cell_length_b 12.772(3)
_cell_length_c 12.900(3)
_cell_angle_alpha 65.96(3)
_cell_angle_beta 73.40(3)
_cell_angle_gamma 71.46(3)
_cell_formula_units_Z 1
loop_
_atom_type_symbol
_atom_type_radius_bond
C 0.68
H 0.23
O 0.68
P 1.05
Zn 1.22
loop_
_atom_site_label
_atom_site_type_symbol
_atom_site_fract_x
_atom_site_fract_y
_atom_site_fract_z
Zn1 Zn 1.07337(5) 0.64564(6) 0.41045(6)
C1 C 0.9812(5) 1.0502(5) 0.0819(6)
H1 H 0.96870 1.08430 0.13700
C2 C 1.0179(4) 0.9294(5) 0.1108(5)
C3 C 1.0369(5) 0.8805(5) 0.0276(5)
H2 H 1.06240 0.79930 0.04620
C4 C 1.0346(5) 0.8505(6) 0.2303(6)
C5 C 1.4338(7) 0.4613(12) 0.5892(7)
H3 H 1.39100 0.43030 0.66150
C6 C 1.3817(6) 0.5359(7) 0.5140(6)
C7 C 1.4483(6) 0.5816(7) 0.4232(6)
H4 H 1.41780 0.64540 0.36340
C8 C 1.2536(6) 0.5767(7) 0.5245(7)
C9 C 0.8673(5) 0.6128(5) 0.5676(5)
C10 C 0.6742(7) 0.5848(8) 0.6725(7)
H5 H 0.70470 0.50460 0.70530
C11 C 0.5546(7) 0.6321(8) 0.6942(7)
H6 H 0.50670 0.58100 0.73780
C12 C 0.5106(7) 0.7451(8) 0.6544(7)
C13 C 0.5789(7) 0.8192(8) 0.5885(7)
H7 H 0.54750 0.89970 0.55990
C14 C 0.6951(7) 0.7778(8) 0.5624(7)
H8 H 0.74090 0.83070 0.51730
C15 C 0.7431(7) 0.6605(8) 0.6021(8)
C16 C 0.3831(10) 0.789(2) 0.6781(15)
O1 O 0.9088(5) 0.5058(4) 0.6079(4)
O2 O 1.0695(4) 0.7419(4) 0.2488(4)
O3 O 1.0112(5) 0.8939(5) 0.3072(5)
O4 O 1.2167(4) 0.6431(5) 0.4367(5)
O5 O 1.1942(5) 0.5404(9) 0.6134(6)
O6 O 0.3508(7) 0.8986(14) 0.6360(9)
H9 H 0.28120 0.91780 0.65090
O7 O 0.3248(8) 0.7112(14) 0.7408(15)
O8 O 0.9232(4) 0.6863(4) 0.4983(4)
P1 P 0.31560(12) 1.22924(15) 0.03264(16)
C17 C 0.2151(5) 1.3566(7) 0.0554(8)
C18 C 0.1323(6) 1.3481(9) 0.1533(9)
H10 H 0.12780 1.27540 0.21090
C19 C 0.0552(7) 1.4511(12) 0.1642(12)
H11 H -0.00110 1.44610 0.22980
C20 C 0.0603(8) 1.5573(12) 0.0823(17)
H12 H 0.00850 1.62430 0.09270
C21 C 0.1425(8) 1.5683(9) -0.0185(14)
H13 H 0.14490 1.64120 -0.07650
C22 C 0.2208(7) 1.4662(8) -0.0289(11)
H14 H 0.27810 1.47160 -0.09370
C23 C 0.2799(4) 1.1909(6) -0.0701(5)
C24 C 0.3007(5) 1.0737(6) -0.0584(6)
H15 H 0.32930 1.01470 0.00530
C25 C 0.2789(6) 1.0440(8) -0.1409(7)
H16 H 0.29190 0.96540 -0.13300
C26 C 0.2382(7) 1.1320(12) -0.2339(8)
H17 H 0.22470 1.11270 -0.29030
C27 C 0.2173(7) 1.2449(11) -0.2464(7)
H18 H 0.18870 1.30280 -0.31060
C28 C 0.2374(5) 1.2772(7) -0.1656(6)
H19 H 0.22260 1.35630 -0.17510
C29 C 0.3208(5) 1.1048(6) 0.1636(5)
C30 C 0.4182(6) 1.0559(7) 0.2111(6)
H20 H 0.48060 1.08990 0.17660
C31 C 0.4235(8) 0.9569(10) 0.3094(7)
H21 H 0.49070 0.92270 0.33870
C32 C 0.3313(9) 0.908(1) 0.3645(7)
H22 H 0.33410 0.84360 0.43290
C33 C 0.2352(8) 0.9556(10) 0.3171(7)
H23 H 0.17300 0.92130 0.35240
C34 C 0.2287(6) 1.0533(8) 0.2183(7)
H24 H 0.16210 1.08510 0.18790
C35 C 0.4534(5) 1.2631(6) -0.0191(6)
C36 C 0.4838(6) 1.3199(8) 0.0356(9)
H25 H 0.43220 1.34440 0.09370
C37 C 0.5927(7) 1.3397(9) 0.002(1)
H26 H 0.61500 1.37690 0.03830
C38 C 0.6674(6) 1.3042(7) -0.0847(9)
H27 H 0.73970 1.31920 -0.10790
C39 C 0.6379(5) 1.2484(7) -0.1365(7)
H28 H 0.69010 1.22360 -0.19410
C40 C 0.5299(5) 1.2274(6) -0.1045(6)
H29 H 0.50940 1.18910 -0.14090
O9 O 0.0176(14) 0.8124(17) 0.5929(13)
H30 H -0.05130 0.79710 0.58710
H31 H 0.02530 0.77010 0.55350
O10 O 0.1228(7) 0.9201(14) 0.6434(12)
H32 H 0.08320 0.87220 0.65510
H33 H 0.17720 0.86260 0.66750
C1A C 1.0188(5) 0.9498(5) -0.0819(6)
H1A H 1.03130 0.91570 -0.13700
C2A C 0.9821(4) 1.0706(5) -0.1108(5)
C3A C 0.9631(5) 1.1195(5) -0.0276(5)
H2A H 0.93760 1.20070 -0.04620
C4A C 0.9654(5) 1.1495(6) -0.2303(6)
O2A O 0.9305(4) 1.2581(4) -0.2488(4)
O3A O 0.9888(5) 1.1061(5) -0.3072(5)
C5A C 1.5662(7) 0.5387(12) 0.4108(7)
H3A H 1.60900 0.56970 0.33850
C6A C 1.6183(6) 0.4641(7) 0.4860(6)
C7A C 1.5517(6) 0.4184(7) 0.5768(6)
H4A H 1.58220 0.35460 0.63660
C8A C 1.7464(6) 0.4233(7) 0.4755(7)
O4A O 1.7833(4) 0.3569(5) 0.5633(5)
O5A O 1.8058(5) 0.4596(9) 0.3866(6)
Zn1A Zn 0.92663(5) 0.35436(6) 0.58955(6)
C9A C 1.1327(5) 0.3872(5) 0.4324(5)
C10A C 1.3258(7) 0.4152(8) 0.3275(7)
H5A H 1.29530 0.49540 0.29470
C11A C 1.4454(7) 0.3679(8) 0.3058(7)
H6A H 1.49330 0.41900 0.26220
C12A C 1.4894(7) 0.2549(8) 0.3456(7)
C13A C 1.4211(7) 0.1808(8) 0.4115(7)
H7A H 1.45250 0.10030 0.44010
C14A C 1.3049(7) 0.2222(8) 0.4376(7)
H8A H 1.25910 0.16930 0.48270
C15A C 1.2569(7) 0.3395(8) 0.3979(8)
C16A C 1.6169(10) 0.211(2) 0.3219(15)
O1A O 1.0912(5) 0.4942(4) 0.3921(4)
O6A O 1.6492(7) 0.1014(14) 0.3640(9)
H9A H 1.71880 0.08220 0.34910
O7A O 1.6752(8) 0.2888(14) 0.2592(15)
O8A O 1.0768(4) 0.3137(4) 0.5017(4)
Zn1A* Zn 0.92663(5) 1.35436(6) -0.41045(6)
Zn1A** Zn 1.92663(5) 0.35436(6) 0.58955(6)
O2A* O 0.9305(4) 0.2581(4) 0.7512(4)
O4A* O 0.7833(4) 0.3569(5) 0.5633(5)
#END
