
#######################################################################
#
#                 Cambridge Crystallographic Data Centre
#                                CCDC
#
#######################################################################
#
# If this CIF has been generated from an entry in the Cambridge
# Structural Database, then it will include bibliographic, chemical,
# crystal, experimental, refinement or atomic coordinate data resulting
# from the CCDC's data processing and validation procedures.
#
#######################################################################

data_CSD_CIF_XUNREF
_audit_creation_date 2015-09-15
_audit_creation_method CSD-ConQuest-V1
_database_code_CSD XUNREF
_database_code_depnum_ccdc_archive 'CCDC 954492'
_chemical_formula_sum 'C22 H22 Mn1 N2 O12 S4'
_chemical_formula_moiety
;
(C10 H4 Mn1 O10 S4 2-)n,C12 H14 N2 2+,2(H2 O1)
;
_journal_coden_Cambridge 9
_journal_volume 53
_journal_year 2014
_journal_page_first 3480
_journal_name_full 'Inorg.Chem. '
loop_
_publ_author_name
"Yu-De Huang"
"Peng Huo"
"Ming-Yan Shao"
"Jing-Xue Yin"
"Wei-Chun Shen"
"Qin-Yu Zhu"
"Jie Dai"
_chemical_name_systematic
;
catena-[1,1'-dimethyl-4,4'-bipyridinium 
diaqua-(\m-2-(4,5-bis(carboxy)-1,3-dithiol-2-ylidene)-1,3-dithiole-4,5-dicarbo
xylato)-di-manganese dihydrate]
;
_cell_volume   2596.280
_exptl_crystal_colour 'dark green'
_exptl_crystal_density_diffrn 1.764
_exptl_crystal_description 'Platelet'
_diffrn_ambient_temperature 293
#These two values have been output from a single CSD field.
_refine_ls_R_factor_gt 0.0715
_refine_ls_wR_factor_gt 0.0715
_symmetry_cell_setting monoclinic
_symmetry_space_group_name_H-M 'C 2/c'
_symmetry_Int_Tables_number 15
loop_
_symmetry_equiv_pos_site_id
_symmetry_equiv_pos_as_xyz
1 x,y,z
2 -x,y,1/2-z
3 1/2+x,1/2+y,z
4 1/2-x,1/2+y,1/2-z
5 -x,-y,-z
6 x,-y,-1/2+z
7 -1/2-x,-1/2-y,-z
8 -1/2+x,-1/2-y,-1/2+z
_cell_length_a 9.034(3)
_cell_length_b 11.188(3)
_cell_length_c 25.730(5)
_cell_angle_alpha 90
_cell_angle_beta 93.30(3)
_cell_angle_gamma 90
_cell_formula_units_Z 4
loop_
_atom_type_symbol
_atom_type_radius_bond
C 0.68
H 0.23
Mn 1.61
N 0.68
O 0.68
S 1.02
loop_
_atom_site_label
_atom_site_type_symbol
_atom_site_fract_x
_atom_site_fract_y
_atom_site_fract_z
Mn1 Mn 0.50000 0.26861(13) 0.25000
S1 S 0.81781(16) 0.18088(17) 0.07746(6)
S2 S 0.54813(17) 0.30711(16) 0.03623(6)
O1 O 0.8303(5) 0.1012(5) 0.17979(17)
O2 O 0.7080(4) 0.2523(4) 0.21461(15)
O3 O 0.4016(4) 0.2760(4) 0.17405(15)
O4 O 0.3207(5) 0.3465(5) 0.09715(17)
O5 O 0.50000 0.4658(6) 0.25000
O6 O 0.50000 0.0706(7) 0.25000
C1 C 0.6849(6) 0.2218(6) 0.1226(2)
C2 C 0.5604(7) 0.2735(6) 0.1036(2)
C3 C 0.7262(6) 0.2483(6) 0.0236(2)
C4 C 0.7428(7) 0.1871(6) 0.1770(2)
C5 C 0.4166(6) 0.3031(6) 0.1279(2)
H1 H 0.561(6) 0.021(5) 0.238(3)
H2 H 0.568(6) 0.506(6) 0.266(3)
O7 O 0.6190(5) -0.1317(4) 0.20385(18)
N1 N 0.2787(5) 0.0326(5) 0.10631(19)
C6 C 0.2282(7) 0.0729(6) 0.0589(2)
H3 H 0.13550 0.10900 0.05490
C7 C 0.3125(6) 0.0605(6) 0.0176(2)
H4 H 0.27650 0.08820 -0.01480
C8 C 0.4518(6) 0.0073(5) 0.0223(2)
C9 C 0.4980(7) -0.0349(6) 0.0725(2)
H5 H 0.58940 -0.07270 0.07760
C10 C 0.4119(7) -0.0212(6) 0.1132(3)
H6 H 0.44430 -0.04890 0.14600
C11 C 0.1851(7) 0.0470(7) 0.1513(2)
H7 H 0.20180 -0.01890 0.17480
H8 H 0.08260 0.04880 0.13930
H9 H 0.21030 0.12030 0.16900
S1F S 0.68219(16) 0.31912(17) -0.07746(6)
S2F S 0.95187(17) 0.19289(16) -0.03623(6)
O1F O 0.6697(5) 0.3988(5) -0.17979(17)
O2F O 0.7920(4) 0.2477(4) -0.21461(15)
O3F O 1.0984(4) 0.2240(4) -0.17405(15)
O4F O 1.1793(5) 0.1535(5) -0.09715(17)
C1F C 0.8151(6) 0.2782(6) -0.1226(2)
C2F C 0.9396(7) 0.2265(6) -0.1036(2)
C3F C 0.7738(6) 0.2517(6) -0.0236(2)
C4F C 0.7572(7) 0.3129(6) -0.1770(2)
C5F C 1.0834(6) 0.1969(6) -0.1279(2)
H2A H 0.432(6) 0.506(6) 0.234(3)
H1A H 0.439(6) 0.021(5) 0.262(3)
Mn1F Mn 1.00000 0.23139(13) -0.25000
O2A O 0.2920(4) 0.2523(4) 0.28539(15)
O3A O 0.5984(4) 0.2760(4) 0.32595(15)
N1D N 0.7213(5) -0.0326(5) -0.10631(19)
C6D C 0.7718(7) -0.0729(6) -0.0589(2)
H3D H 0.86450 -0.10900 -0.05490
C7D C 0.6875(6) -0.0605(6) -0.0176(2)
H4D H 0.72350 -0.08820 0.01480
C8D C 0.5482(6) -0.0073(5) -0.0223(2)
C9D C 0.5020(7) 0.0349(6) -0.0725(2)
H5D H 0.41060 0.07270 -0.07760
C10D C 0.5881(7) 0.0212(6) -0.1132(3)
H6D H 0.55570 0.04890 -0.14600
C11D C 0.8149(7) -0.0470(7) -0.1513(2)
H7D H 0.79820 0.01890 -0.17480
H8D H 0.91740 -0.04880 -0.13930
H9D H 0.78970 -0.12030 -0.16900
#END
