
#######################################################################
#
#                 Cambridge Crystallographic Data Centre
#                                CCDC
#
#######################################################################
#
# If this CIF has been generated from an entry in the Cambridge
# Structural Database, then it will include bibliographic, chemical,
# crystal, experimental, refinement or atomic coordinate data resulting
# from the CCDC's data processing and validation procedures.
#
#######################################################################

data_CSD_CIF_XUNRIJ
_audit_creation_date 2015-09-15
_audit_creation_method CSD-ConQuest-V1
_database_code_CSD XUNRIJ
_database_code_depnum_ccdc_archive 'CCDC 954493'
_chemical_formula_sum 'C22 H18 Mn1 N2 O10 S4'
_chemical_formula_moiety
;
(C10 H4 Mn1 O10 S4 2-)n,C12 H14 N2 2+
;
_journal_coden_Cambridge 9
_journal_volume 53
_journal_year 2014
_journal_page_first 3480
_journal_name_full 'Inorg.Chem. '
loop_
_publ_author_name
"Yu-De Huang"
"Peng Huo"
"Ming-Yan Shao"
"Jing-Xue Yin"
"Wei-Chun Shen"
"Qin-Yu Zhu"
"Jie Dai"
_chemical_name_systematic
;
catena-[1,1'-dimethyl-4,4'-bipyridinium 
(\m-2-(4,5-dicarboxylato-1,3-dithiol-2-ylidene)-1,3-dithiole-4,5-dicarboxylato
)-diaqua-manganese]
;
_cell_volume   1227.607
_exptl_crystal_colour 'dark green'
_exptl_crystal_density_diffrn 1.768
_diffrn_ambient_temperature 293
#These two values have been output from a single CSD field.
_refine_ls_R_factor_gt 0.0557
_refine_ls_wR_factor_gt 0.0557
_symmetry_cell_setting monoclinic
_symmetry_space_group_name_H-M 'P 2/n'
_symmetry_Int_Tables_number 13
loop_
_symmetry_equiv_pos_site_id
_symmetry_equiv_pos_as_xyz
1 x,y,z
2 1/2-x,y,1/2-z
3 -x,-y,-z
4 -1/2+x,-y,-1/2+z
_cell_length_a 6.3594(13)
_cell_length_b 13.651(3)
_cell_length_c 14.421(3)
_cell_angle_alpha 90
_cell_angle_beta 101.31(3)
_cell_angle_gamma 90
_cell_formula_units_Z 2
loop_
_atom_type_symbol
_atom_type_radius_bond
C 0.68
H 0.23
Mn 1.61
N 0.68
O 0.68
S 1.02
loop_
_atom_site_label
_atom_site_type_symbol
_atom_site_fract_x
_atom_site_fract_y
_atom_site_fract_z
Mn1 Mn -0.75000 0.03362(11) 0.75000
S1 S -0.4350(3) -0.34683(13) 0.79852(13)
S2 S -0.4386(3) -0.58510(13) 0.79645(13)
O1 O -0.5108(7) -0.0801(3) 0.7409(3)
O2 O -0.4866(8) -0.1492(3) 0.8845(3)
O3 O -0.5147(7) -0.8507(3) 0.7368(3)
O4 O -0.4831(7) -0.7876(3) 0.8821(3)
O5 O -0.6514(6) 0.0319(3) 0.9059(3)
C1 C -0.4529(10) -0.1467(5) 0.8023(5)
C2 C -0.3332(9) -0.2322(5) 0.7717(4)
C3 C -0.25000 -0.4162(6) 0.75000
C4 C -0.4529(9) -0.7852(5) 0.7998(5)
C5 C -0.3345(9) -0.7007(4) 0.7709(4)
C6 C -0.25000 -0.5145(7) 0.75000
N1 N 0.0234(9) -0.2403(5) 0.9945(4)
C7 C -0.1231(11) -0.2864(6) 1.0355(5)
H1 H -0.21760 -0.24920 1.06260
C8 C -0.1358(10) -0.3876(5) 1.0380(5)
H2 H -0.23880 -0.41700 1.06660
C9 C 0.0038(10) -0.4466(5) 0.9983(5)
C10 C 0.1502(11) -0.3968(5) 0.9553(5)
H3 H 0.24420 -0.43210 0.92620
C11 C 0.1579(11) -0.2961(6) 0.9552(5)
H4 H 0.25970 -0.26520 0.92700
C12 C 0.0349(12) -0.1328(5) 0.9947(6)
H5 H -0.10760 -0.10610 0.98350
H6 H 0.10730 -0.11130 0.94590
H7 H 0.11240 -0.11060 1.05500
S1A S -0.0650(3) -0.34683(13) 0.70148(13)
O1A O 0.0108(7) -0.0801(3) 0.7591(3)
O2A O -0.0134(8) -0.1492(3) 0.6155(3)
C1A C -0.0471(10) -0.1467(5) 0.6977(5)
C2A C -0.1668(9) -0.2322(5) 0.7283(4)
S2A S -0.0614(3) -0.58510(13) 0.70355(13)
O3A O 0.0147(7) -0.8507(3) 0.7632(3)
O4A O -0.0169(7) -0.7876(3) 0.6179(3)
C4A C -0.0471(9) -0.7852(5) 0.7002(5)
C5A C -0.1655(9) -0.7007(4) 0.7291(4)
O5A O -0.8486(6) 0.0319(3) 0.5941(3)
Mn1* Mn -0.75000 -0.96638(11) 0.75000
Mn1** Mn 0.25000 -0.96638(11) 0.75000
Mn1*** Mn 0.25000 0.03362(11) 0.75000
O1A* O -0.9892(7) -0.0801(3) 0.7591(3)
O3* O -0.5147(7) 0.1493(3) 0.7368(3)
O3A* O -0.9853(7) 0.1493(3) 0.7632(3)
N1B N -0.0234(9) -0.7597(5) 1.0055(4)
C7B C 0.1231(11) -0.7136(6) 0.9645(5)
H1B H 0.21760 -0.75080 0.93740
C8B C 0.1358(10) -0.6124(5) 0.9620(5)
H2B H 0.23880 -0.58300 0.93340
C9B C -0.0038(10) -0.5534(5) 1.0017(5)
C10B C -0.1502(11) -0.6032(5) 1.0447(5)
H3B H -0.24420 -0.56790 1.07380
C11B C -0.1579(11) -0.7039(6) 1.0448(5)
H4B H -0.25970 -0.73480 1.07300
C12B C -0.0349(12) -0.8672(5) 1.0053(6)
H5B H 0.10760 -0.89390 1.01650
H6B H -0.10730 -0.88870 1.05410
H7B H -0.11240 -0.88940 0.94500
#END
