
#######################################################################
#
#                 Cambridge Crystallographic Data Centre
#                                CCDC
#
#######################################################################
#
# If this CIF has been generated from an entry in the Cambridge
# Structural Database, then it will include bibliographic, chemical,
# crystal, experimental, refinement or atomic coordinate data resulting
# from the CCDC's data processing and validation procedures.
#
#######################################################################

data_CSD_CIF_XUPWIR
_audit_creation_date 2020-06-29
_audit_creation_method CSD-ConQuest-V1
_database_code_CSD XUPWIR
_database_code_depnum_ccdc_archive 'CCDC 1986132'
_chemical_formula_sum 'C32 H56 Mn4 N4 O22'
_chemical_formula_moiety
;
(C20 H30 Mn4 O20 2-)n,2n(C6 H11 N2 1+),2n(H2 O1)
;
_journal_coden_Cambridge 2066
_journal_volume 5
_journal_year 2020
_journal_page_first 15592
_journal_name_full 'ACS Omega '
loop_
_publ_author_name
"P.Dera"
"E.Bruffey"
"G.J.Finkelstein"
"C.Kelly"
"Angelina Gigante"
"H.Hagemann"
"G.Severa"
_chemical_name_systematic
;
catena-(bis(1-ethyl-3-methylimidazolium) decakis(\m-acetato)-tetra-manganese 
dihydrate)
;
_cell_volume   1186.334
_exptl_crystal_colour 'brown'
_exptl_crystal_density_diffrn 1.496
_exptl_crystal_description 'irregular block in capillary'
_diffrn_ambient_temperature 300
_refine_special_details
;
C16A and C16B disordered over two sites with occupancies 0.741:0.259.

;
#These two values have been output from a single CSD field.
_refine_ls_R_factor_gt 0.0638
_refine_ls_wR_factor_gt 0.0638
_symmetry_cell_setting triclinic
_symmetry_space_group_name_H-M 'P -1'
_symmetry_Int_Tables_number 2
loop_
_symmetry_equiv_pos_site_id
_symmetry_equiv_pos_as_xyz
1 x,y,z
2 -x,-y,-z
_cell_length_a 9.362(2)
_cell_length_b 10.820(3)
_cell_length_c 12.659(3)
_cell_angle_alpha 70.170(5)
_cell_angle_beta 87.581(5)
_cell_angle_gamma 79.631(6)
_cell_formula_units_Z 1
loop_
_atom_type_symbol
_atom_type_radius_bond
C 0.68
H 0.23
Mn 1.61
N 0.68
O 0.68
loop_
_atom_site_label
_atom_site_type_symbol
_atom_site_fract_x
_atom_site_fract_y
_atom_site_fract_z
Mn1 Mn 0.50000 0.50000 0.00000
Mn2 Mn 0.50000 0.50000 0.50000
Mn3 Mn 0.36050(13) 0.38365(12) 0.29315(10)
O1 O 0.4780(7) 0.2904(6) 0.0777(5)
O2 O 0.3166(7) 0.2537(6) 0.2136(5)
O3 O 0.2138(6) 0.3451(7) 0.4232(5)
O4 O 0.2898(6) 0.4394(6) 0.5366(5)
O5 O 0.6027(6) 0.2956(6) 0.5264(5)
O6 O 0.5314(7) 0.2337(6) 0.3891(5)
O7 O 0.4612(6) 0.5424(5) 0.3211(4)
O8 O 0.5359(6) 0.5030(6) 0.1693(4)
O9 O 0.7311(6) 0.4346(6) -0.0082(5)
O10 O 0.7962(6) 0.4528(6) -0.1839(5)
C1 C 0.0855(11) 0.3317(10) 0.5905(8)
H1 H 0.00350 0.40311 0.57450
H2 H 0.11857 0.30931 0.66651
H3 H 0.05768 0.25500 0.58067
C2 C 0.2070(9) 0.3752(9) 0.5108(7)
C3 C 0.6845(12) 0.0739(9) 0.5326(8)
H4 H 0.63711 0.01046 0.51652
H5 H 0.68970 0.05392 0.61240
H6 H 0.78085 0.06908 0.50337
C4 C 0.5991(9) 0.2130(8) 0.4783(7)
C5 C 0.5873(12) 0.7011(10) 0.1936(8)
H7 H 0.66438 0.69668 0.14187
H8 H 0.62428 0.71275 0.25857
H9 H 0.51187 0.77511 0.15803
C6 C 0.5267(8) 0.5737(8) 0.2288(6)
C7 C 0.3554(13) 0.1093(10) 0.1092(9)
H10 H 0.25569 0.12486 0.08557
H11 H 0.37401 0.03072 0.17471
H12 H 0.41744 0.09710 0.04992
C8 C 0.3849(10) 0.2270(8) 0.1365(7)
C9 C 0.8198(9) 0.4147(8) -0.0801(7)
C10 C 0.9703(10) 0.3402(12) -0.0379(8)
H13 H 0.99772 0.27041 -0.06937
H14 H 0.97060 0.30210 0.04256
H15 H 1.03807 0.40082 -0.05997
O11 O 0.2018(8) 0.7845(8) 0.2733(7)
H16 H 0.194(8) 0.729(7) 0.242(6)
H17 H 0.262(3) 0.745(10) 0.327(3)
N1 N 0.8970(7) 0.2635(7) 0.2784(6)
N2 N 0.8424(9) 0.1036(8) 0.2334(7)
C11 C 0.8854(11) 0.3913(10) 0.2922(10)
H18 H 0.83513 0.45923 0.22825
H19 H 0.98078 0.40916 0.29872
H20 H 0.83239 0.39079 0.35892
C12 C 0.7962(10) 0.2244(9) 0.2365(7)
H21 H 0.70467 0.27463 0.21230
C13 C 1.0157(10) 0.1634(10) 0.3067(9)
H22 H 1.10302 0.16530 0.33801
C14 C 0.9816(11) 0.0618(10) 0.2802(10)
H23 H 1.04018 -0.02082 0.29126
C15 C 0.7593(15) 0.0258(13) 0.1967(14)
H24 H 0.76230 -0.06063 0.25472
H25 H 0.65882 0.07046 0.18438
C16 C 0.815(3) 0.008(3) 0.095(2)
H26 H 0.80525 0.09256 0.03597
H27 H 0.76217 -0.04940 0.07472
H28 H 0.91611 -0.03273 0.10607
H29? H 0.82329 -0.04723 0.18165
H30? H 0.70500 0.08086 0.12833
C17? C 0.642(6) -0.036(6) 0.303(5)
H31? H 0.58382 -0.08700 0.28008
H32? H 0.58031 0.03753 0.31754
H33? H 0.69711 -0.09113 0.36948
Mn3A Mn 0.63950(13) 0.61635(12) -0.29315(10)
O1A O 0.5220(7) 0.7096(6) -0.0777(5)
O2A O 0.6834(7) 0.7463(6) -0.2136(5)
O3A O 0.7862(6) 0.6549(7) -0.4232(5)
O4A O 0.7102(6) 0.5606(6) -0.5366(5)
O5A O 0.3973(6) 0.7044(6) -0.5264(5)
O6A O 0.4686(7) 0.7663(6) -0.3891(5)
O7A O 0.5388(6) 0.4576(5) -0.3211(4)
O8A O 0.4641(6) 0.4970(6) -0.1693(4)
O9A O 0.2689(6) 0.5654(6) 0.0082(5)
O10A O 0.2038(6) 0.5472(6) 0.1839(5)
C1A C 0.9145(11) 0.6683(10) -0.5905(8)
H1A H 0.99650 0.59689 -0.57450
H2A H 0.88143 0.69069 -0.66651
H3A H 0.94232 0.74500 -0.58067
C2A C 0.7930(9) 0.6248(9) -0.5108(7)
C3A C 0.3155(12) 0.9261(9) -0.5326(8)
H4A H 0.36289 0.98954 -0.51652
H5A H 0.31030 0.94608 -0.61240
H6A H 0.21915 0.93092 -0.50337
C4A C 0.4009(9) 0.7870(8) -0.4783(7)
C5A C 0.4127(12) 0.2989(10) -0.1936(8)
H7A H 0.33562 0.30332 -0.14187
H8A H 0.37572 0.28725 -0.25857
H9A H 0.48813 0.22489 -0.15803
C6A C 0.4733(8) 0.4263(8) -0.2288(6)
C7A C 0.6446(13) 0.8907(10) -0.1092(9)
H10A H 0.74431 0.87514 -0.08557
H11A H 0.62599 0.96928 -0.17471
H12A H 0.58256 0.90290 -0.04992
C8A C 0.6151(10) 0.7730(8) -0.1365(7)
C9A C 0.1802(9) 0.5853(8) 0.0801(7)
C10A C 0.0297(10) 0.6598(12) 0.0379(8)
H13A H 0.00228 0.72959 0.06937
H14A H 0.02940 0.69790 -0.04256
H15A H -0.03807 0.59918 0.05997
Mn2* Mn 0.50000 0.50000 -0.50000
O4A* O 0.7102(6) 0.5606(6) 0.4634(5)
O5A* O 0.3973(6) 0.7044(6) 0.4736(5)
O7A* O 0.5388(6) 0.4576(5) 0.6789(4)
#END
