
#######################################################################
#
#                 Cambridge Crystallographic Data Centre
#                                CCDC
#
#######################################################################
#
# If this CIF has been generated from an entry in the Cambridge
# Structural Database, then it will include bibliographic, chemical,
# crystal, experimental, refinement or atomic coordinate data resulting
# from the CCDC's data processing and validation procedures.
#
#######################################################################

data_CSD_CIF_XURQUZ
_audit_creation_date 2020-06-30
_audit_creation_method CSD-ConQuest-V1
_database_code_CSD XURQUZ
_database_code_depnum_ccdc_archive 'CCDC 1525180'
_chemical_formula_sum 'C17 H20 Co1 N2 O7'
_chemical_formula_moiety
;
(C9 H5 Co1 O7 1-)n,C8 H15 N2 1+
;
_journal_coden_Cambridge 2701
_journal_volume 2017
_journal_year 2017
_journal_page_first 3237247
_journal_name_full 'Adv.Mater.Sci.Eng. '
loop_
_publ_author_name
"Il-Ju Ko"
"Hyun-Chang Oh"
"Yong-Jun Cha"
"Chae Hyeok Han"
"Eun-Young Choi"
_chemical_name_systematic
;
catena-[1-butyl-3-methyl-1H-imidazol-3-ium 
(\m-1,3,5-tricarboxylatobenzene)-aqua-cobalt(ii)]
;
_cell_volume   1840.517
_exptl_crystal_colour 'purple'
_exptl_crystal_density_diffrn 1.528
_exptl_special_details
;
, Moisture-sensitive

;
_exptl_crystal_description 'block'
_diffrn_ambient_temperature 173
#These two values have been output from a single CSD field.
_refine_ls_R_factor_gt 0.0341
_refine_ls_wR_factor_gt 0.0341
_symmetry_cell_setting monoclinic
_symmetry_space_group_name_H-M 'P 21/n'
_symmetry_Int_Tables_number 14
loop_
_symmetry_equiv_pos_site_id
_symmetry_equiv_pos_as_xyz
1 x,y,z
2 1/2-x,1/2+y,1/2-z
3 -x,-y,-z
4 -1/2+x,-1/2-y,-1/2+z
_cell_length_a 11.1946(5)
_cell_length_b 10.7911(5)
_cell_length_c 15.3026(8)
_cell_angle_alpha 90
_cell_angle_beta 95.355(1)
_cell_angle_gamma 90
_cell_formula_units_Z 4
loop_
_atom_type_symbol
_atom_type_radius_bond
C 0.68
H 0.23
Co 1.26
N 0.68
O 0.68
loop_
_atom_site_label
_atom_site_type_symbol
_atom_site_fract_x
_atom_site_fract_y
_atom_site_fract_z
Co1 Co 0.84883(2) 0.54023(2) 0.009690(14)
O1 O 0.90809(13) 0.41493(14) 0.09887(9)
O2 O 1.10744(12) 0.39386(13) 0.10402(9)
O3 O 0.78561(12) 0.12411(14) 0.43474(9)
O4 O 0.70368(14) 0.28174(16) 0.35444(12)
O5 O 1.22630(12) 0.07977(13) 0.44782(9)
O6 O 1.32296(13) 0.15240(16) 0.33651(11)
O7 O 0.96970(12) 0.67762(14) 0.06553(10)
H1 H 1.03530 0.66440 0.09800
H2 H 0.92870 0.72340 0.09740
C1 C 1.00789(17) 0.37685(16) 0.13277(12)
C2 C 1.00806(16) 0.30459(16) 0.21678(11)
C3 C 1.11413(16) 0.25638(17) 0.25659(11)
H3 H 1.18700 0.26930 0.23070
C4 C 1.11495(16) 0.18913(17) 0.33427(12)
C5 C 1.00811(17) 0.17195(17) 0.37251(12)
H4 H 1.00810 0.12550 0.42520
C6 C 0.90148(16) 0.22226(17) 0.33417(12)
C7 C 0.90155(16) 0.28739(17) 0.25569(12)
H5 H 0.82860 0.32030 0.22850
C8 C 1.23172(17) 0.13589(18) 0.37539(12)
C9 C 0.78624(17) 0.20872(18) 0.37719(13)
N1 N 0.5518(3) 0.2497(2) 0.15215(16)
N2 N 0.6846(3) 0.1396(2) 0.09644(16)
C10 C 0.4771(5) 0.3534(5) 0.1729(4)
H6 H 0.49770 0.42610 0.13900
H7 H 0.49060 0.37190 0.23570
H8 H 0.39250 0.33220 0.15800
C11 C 0.6343(3) 0.2490(2) 0.09619(16)
H9 H 0.65420 0.31720 0.06110
C12 C 0.5514(6) 0.1355(4) 0.1907(2)
H10 H 0.50180 0.10930 0.23420
C13 C 0.6340(6) 0.0682(3) 0.1555(3)
H11 H 0.65400 -0.01550 0.16940
C14 C 0.7743(4) 0.0995(5) 0.0376(3)
H12 H 0.84050 0.05520 0.07180
H13 H 0.80830 0.17270 0.00990
C15 C 0.7147(5) 0.0135(5) -0.0335(3)
H14 H 0.65910 -0.04250 -0.00590
H15 H 0.66610 0.06480 -0.07710
C16 C 0.7976(7) -0.0630(6) -0.0805(4)
H16 H 0.85070 -0.11200 -0.03830
H17 H 0.75180 -0.12070 -0.12120
C17 C 0.8631(8) 0.0153(5) -0.1256(3)
H18 H 0.91450 -0.03260 -0.16160
H19 H 0.91310 0.06720 -0.08430
H20 H 0.80930 0.06800 -0.16360
Co1A Co 0.65117(2) 0.04023(2) 0.490310(14)
Co1B Co 1.15117(2) 0.45977(2) -0.009690(14)
Co1C Co 1.34883(2) -0.04023(2) 0.509690(14)
O2B O 0.89256(12) 0.60614(13) -0.10402(9)
O3A O 0.71439(12) 0.62411(14) 0.06526(9)
O5C O 0.72630(12) 0.42023(13) -0.05218(9)
#END
