
#######################################################################
#
#                 Cambridge Crystallographic Data Centre
#                                CCDC
#
#######################################################################
#
# If this CIF has been generated from an entry in the Cambridge
# Structural Database, then it will include bibliographic, chemical,
# crystal, experimental, refinement or atomic coordinate data resulting
# from the CCDC's data processing and validation procedures.
#
#######################################################################

data_CSD_CIF_XUVQOW
_audit_creation_date 2015-09-17
_audit_creation_method CSD-ConQuest-V1
_database_code_CSD XUVQOW
_database_code_depnum_ccdc_archive 'CCDC 1030250'
_chemical_formula_sum 'C60 H58 Cd4 N4 O29'
_chemical_formula_moiety
;
(C56 H42 Cd4 N2 O29 2-)n,2(C2 H8 N1 1+)
;
_journal_coden_Cambridge 222
_journal_volume 44
_journal_year 2015
_journal_page_first 17222
_journal_name_full 'Dalton Trans. '
loop_
_publ_author_name
"Jun-Cheng Jin"
"Ling-Yan Pang"
"Guo-Ping Yang"
"Lei Hou"
"Yao-Yu Wang"
_chemical_name_systematic
;
catena-[tris(\m-1,1':2',1''-terphenyl-3,3'',4',5,5',5''-hexacarboxylato)-bis(N
,N-dimethylacetamide)-triaqua-tetra-cadmium methanediamine solvate]
;
_cell_volume   7925.732
_exptl_crystal_colour 'colorless'
_exptl_crystal_density_diffrn 1.466
_exptl_crystal_description 'block'
_diffrn_ambient_temperature 293
_refine_special_details
;
The SQUEEZE/PLATON program has been used to model some disorder.

;
#These two values have been output from a single CSD field.
_refine_ls_R_factor_gt 0.036
_refine_ls_wR_factor_gt 0.036
_symmetry_cell_setting orthorhombic
_symmetry_space_group_name_H-M 'P 21 21 21'
_symmetry_Int_Tables_number 19
loop_
_symmetry_equiv_pos_site_id
_symmetry_equiv_pos_as_xyz
1 x,y,z
2 1/2-x,-y,1/2+z
3 1/2+x,1/2-y,-z
4 -x,1/2+y,1/2-z
_cell_length_a 18.633(5)
_cell_length_b 20.399(5)
_cell_length_c 20.852(5)
_cell_angle_alpha 90
_cell_angle_beta 90
_cell_angle_gamma 90
_cell_formula_units_Z 4
loop_
_atom_type_symbol
_atom_type_radius_bond
C 0.68
H 0.23
Cd 1.44
N 0.68
O 0.68
loop_
_atom_site_label
_atom_site_type_symbol
_atom_site_fract_x
_atom_site_fract_y
_atom_site_fract_z
Cd1 Cd 0.827751(18) 0.871960(15) 0.386536(16)
Cd2 Cd 0.68851(2) 1.163289(17) 0.364627(17)
Cd3 Cd 0.755383(19) 1.036624(17) 0.461702(17)
Cd4 Cd 0.19579(2) 1.08593(2) 0.11856(2)
O1 O 0.67677(18) 1.04346(17) 0.37290(16)
O2 O 0.5766(2) 1.09896(19) 0.3707(3)
O3 O 1.16496(18) 0.49108(17) 0.11468(19)
O4 O 1.0662(2) 0.43427(18) 0.1160(2)
O5 O 0.8294(3) 0.89327(19) 0.2635(2)
O6 O 0.8550(2) 0.7987(2) 0.30693(18)
O7 O 0.70915(19) 0.8770(2) 0.3734(2)
O8 O 0.7007(2) 0.93835(18) 0.46129(19)
O9 O 0.8051(3) 0.9021(2) 0.0278(2)
O10 O 0.8453(3) 0.8186(2) -0.0327(2)
O11 O 0.6790(3) 0.4939(2) -0.0392(3)
O12 O 0.7895(3) 0.4634(2) -0.0491(2)
O13 O 0.2053(3) 0.8429(3) 0.4476(3)
O14 O 0.1262(3) 0.8945(4) 0.3867(4)
H1 H 0.09700 0.87390 0.41070
O15 O 0.3069(3) 1.0586(2) 0.1960(2)
O16 O 0.3257(3) 0.6424(3) 0.2557(2)
O17 O 0.6979(3) 0.6836(3) 0.2047(2)
O18 O 0.6135(2) 0.6389(3) 0.1429(3)
H2 H 0.58600 0.66040 0.16770
O19 O 1.1905(3) 0.6332(4) 0.1872(3)
O20 O 0.3596(3) 0.71309(19) 0.54672(18)
O21 O 0.3527(3) 0.6212(2) 0.4960(2)
O22 O 0.3804(3) 0.7225(2) 0.2074(2)
O23 O 1.2000(2) 0.6276(2) 0.0843(2)
O24 O 0.2055(4) 1.1745(3) 0.1895(3)
H3 H 0.25540 1.18420 0.19640
H4 H 0.18200 1.21250 0.17230
O25 O 0.7410(4) 1.2640(3) 0.3727(5)
O26 O 0.2000(3) 1.0185(2) 0.2003(2)
O27 O 0.0761(3) 1.0986(3) 0.1278(4)
O28 O 0.8273(3) 1.0021(2) 0.5420(2)
H5 H 0.84570 1.03940 0.56480
H6 H 0.86640 0.97740 0.52430
O29 O 0.1995(4) 1.1656(3) 0.0457(3)
H7 H 0.19610 1.14680 0.00350
H8 H 0.16010 1.19500 0.05250
C1 C 0.5542(3) 0.8683(2) 0.3968(2)
H9 H 0.57480 0.82830 0.40760
C2 C 0.5670(3) 0.9839(2) 0.3811(2)
C3 C 0.4933(3) 0.9863(2) 0.3661(3)
H10 H 0.47270 1.02640 0.35590
C4 C 0.4502(3) 0.9300(3) 0.3662(2)
C5 C 0.4812(3) 0.8704(2) 0.3821(2)
C6 C 0.6079(3) 1.0465(2) 0.3755(2)
C7 C 0.4413(2) 0.8070(2) 0.3811(2)
C8 C 0.4209(3) 0.7810(2) 0.3224(2)
H11 H 0.43160 0.80310 0.28460
C9 C 0.3836(3) 0.7202(3) 0.3204(3)
C10 C 0.3677(3) 0.6876(2) 0.3769(3)
H12 H 0.34420 0.64740 0.37570
C11 C 0.4236(3) 0.7741(3) 0.4379(2)
H13 H 0.43650 0.79180 0.47730
C12 C 1.0973(3) 0.4877(2) 0.1143(3)
C13 C 0.8501(3) 0.8345(3) 0.2586(3)
C14 C 0.8668(3) 0.8067(2) 0.1957(3)
C15 C 0.8431(3) 0.8377(3) 0.1393(2)
H14 H 0.81640 0.87610 0.14220
C16 C 0.9078(3) 0.7497(3) 0.1900(2)
H15 H 0.92570 0.72960 0.22680
C17 C 0.9222(2) 0.7222(2) 0.1297(2)
C18 C 0.8975(3) 0.7535(2) 0.0754(3)
H16 H 0.90690 0.73520 0.03540
C19 C 0.9657(3) 0.6601(2) 0.1250(2)
C20 C 0.9355(3) 0.5991(2) 0.1090(3)
C21 C 0.9794(3) 0.5455(2) 0.1076(3)
H17 H 0.95910 0.50460 0.09970
C22 C 0.8590(3) 0.8114(3) 0.0790(3)
C23 C 0.8346(3) 0.8473(3) 0.0201(3)
C24 C 0.8047(3) 0.6207(2) 0.1325(3)
H18 H 0.81820 0.64760 0.16650
C25 C 0.7324(3) 0.6118(2) 0.1194(3)
C26 C 0.7121(3) 0.5725(3) 0.0676(3)
H19 H 0.66380 0.56780 0.05770
C27 C 0.7634(3) 0.5404(3) 0.0307(3)
C28 C 0.8357(3) 0.5507(2) 0.0446(3)
H20 H 0.87030 0.53070 0.01910
C29 C 0.3727(3) 0.9372(2) 0.3484(2)
C30 C 0.3197(3) 0.9063(2) 0.3846(3)
H21 H 0.33180 0.88180 0.42060
C31 C 0.2473(3) 0.9128(3) 0.3656(3)
C32 C 0.2295(3) 0.9506(3) 0.3135(3)
H22 H 0.18160 0.95540 0.30180
C33 C 0.2822(3) 0.9814(3) 0.2785(3)
C34 C 0.6764(3) 0.9140(2) 0.4118(3)
C35 C 0.3536(3) 0.9748(3) 0.2969(3)
H23 H 0.38900 0.99640 0.27370
C36 C 1.0391(3) 0.6648(2) 0.1350(2)
H24 H 1.05890 0.70510 0.14610
C37 C 1.0838(3) 0.6107(3) 0.1286(2)
C38 C 1.0543(3) 0.5497(2) 0.1174(3)
C39 C 0.8577(3) 0.5904(3) 0.0959(3)
C40 C 0.7427(3) 0.4962(3) -0.0236(3)
C41 C 0.1909(3) 0.8788(4) 0.4040(3)
C42 C 0.5967(2) 0.9236(2) 0.3959(2)
C43 C 0.3867(3) 0.7149(2) 0.4354(2)
C44 C 0.2615(3) 1.0230(3) 0.2214(3)
C45 C 0.3624(3) 0.6926(3) 0.2569(3)
C46 C 0.3650(3) 0.6812(3) 0.4957(3)
C47 C 0.6784(3) 0.6473(3) 0.1596(3)
C48 C 1.1632(3) 0.6228(3) 0.1353(3)
C49 C 0.0326(6) 1.0608(7) 0.1507(6)
N1 N -0.0014(8) 1.0183(8) 0.1068(6)
C50 C 0.0045(9) 1.0436(10) 0.0423(5)
H25 H 0.04340 1.07440 0.04020
H26 H -0.03950 1.06520 0.03070
H27 H 0.01340 1.00810 0.01320
C51 C -0.0508(11) 0.9713(10) 0.1348(11)
H28 H -0.03960 0.96540 0.17940
H29 H -0.04630 0.93010 0.11290
H30 H -0.09900 0.98720 0.13060
N2 N 0.8415(7) 1.3261(7) 0.3655(11)
C52 C 0.7891(8) 1.2905(8) 0.4006(10)
C53 C 0.8109(13) 1.2889(10) 0.4693(10)
H31 H 0.77750 1.26260 0.49310
H32 H 0.81120 1.33270 0.48610
H33 H 0.85810 1.27030 0.47290
C54 C 0.8945(9) 1.3660(8) 0.3955(13)
H34 H 0.90810 1.34680 0.43570
H35 H 0.87520 1.40900 0.40270
H36 H 0.93580 1.36910 0.36810
C55 C 0.8250(15) 1.3482(13) 0.3017(12)
H37 H 0.86530 1.37190 0.28470
H38 H 0.78380 1.37640 0.30300
H39 H 0.81500 1.31110 0.27490
C56 C 0.0224(8) 1.0340(11) 0.2158(6)
H40 H 0.04820 1.06040 0.24620
H41 H 0.04000 0.98980 0.21730
H42 H -0.02780 1.03430 0.22640
N3 N 0.7619(4) 0.9976(4) 0.7480(3)
H43 H 0.73520 1.02760 0.76890
H44 H 0.77230 0.96560 0.77620
C57 C 0.8282(6) 1.0283(6) 0.7294(5)
H45 H 0.85280 1.04390 0.76690
H46 H 0.81820 1.06460 0.70140
H47 H 0.85790 0.99710 0.70740
C58 C 0.7185(9) 0.9697(6) 0.6977(8)
H48 H 0.67700 0.94910 0.71610
H49 H 0.74600 0.93770 0.67460
H50 H 0.70350 1.00370 0.66880
N4 N 0.4068(5) 0.1075(5) 0.0970(7)
H51 H 0.41310 0.10410 0.05430
H52 H 0.36970 0.08160 0.10820
C59 C 0.3912(8) 0.1739(5) 0.1135(8)
H53 H 0.34480 0.18560 0.09720
H54 H 0.42690 0.20220 0.09520
H55 H 0.39150 0.17860 0.15940
C60 C 0.4712(8) 0.0862(10) 0.1300(11)
H56 H 0.48050 0.04110 0.12010
H57 H 0.46470 0.09110 0.17540
H58 H 0.51110 0.11250 0.11630
Cd1B Cd 0.327751(18) 0.628040(15) 0.613464(16)
Cd1C Cd 1.172249(18) 0.371960(15) 0.113464(16)
Cd2A Cd 0.81149(2) 0.836711(17) -0.135373(17)
Cd2C Cd 0.31149(2) 0.663289(17) 0.135373(17)
Cd2C* Cd 1.31149(2) 0.663289(17) 0.135373(17)
Cd3A Cd 0.744617(19) 0.963376(17) -0.038298(17)
Cd3C Cd 1.244617(19) 0.536624(17) 0.038298(17)
Cd4B Cd 0.69579(2) 0.41407(2) -0.11856(2)
O3C O 0.83504(18) 0.99108(17) 0.38532(19)
O4C O 0.9338(2) 0.93427(18) 0.3840(2)
O9A O 0.6949(3) 1.0979(2) 0.5278(2)
O10A O 0.6547(3) 1.1814(2) 0.4673(2)
O11B O 0.1790(3) 1.0061(2) 0.0392(3)
O12B O 0.2895(3) 1.0366(2) 0.0491(2)
O16C O 0.6743(3) 1.1424(3) 0.2443(2)
O19C O 0.8095(3) 1.1332(4) 0.3128(3)
O20B O 0.8596(3) 0.78691(19) 0.45328(18)
O21B O 0.8527(3) 0.8788(2) 0.5040(2)
O22C O 0.6196(3) 1.2225(2) 0.2926(2)
O23C O 0.8000(2) 1.1276(2) 0.4157(2)
#END
