
#######################################################################
#
#                 Cambridge Crystallographic Data Centre
#                                CCDC
#
#######################################################################
#
# If this CIF has been generated from an entry in the Cambridge
# Structural Database, then it will include bibliographic, chemical,
# crystal, experimental, refinement or atomic coordinate data resulting
# from the CCDC's data processing and validation procedures.
#
#######################################################################

data_CSD_CIF_XUWFUR
_audit_creation_date 2010-10-12
_audit_creation_method CSD-ConQuest-V1
_database_code_CSD XUWFUR
_database_code_depnum_ccdc_archive 'CCDC 736061'
_chemical_formula_sum 'C100 H92 Cu6 N20 O44 Si1 W11'
_chemical_formula_moiety
;
(C50 H40 Cu3 N10 3+)2n,n(O39 Si1 W11 8-),2n(H1 1+),5n(H2 O1)
;
_journal_coden_Cambridge 222
_journal_volume 39
_journal_year 2010
_journal_page_first 700
_journal_name_full 'Dalton Trans. '
loop_
_publ_author_name
"Shou-Tian Zheng"
"Guo-Yu Yang"
_chemical_name_systematic
;
catena-(bis(pentakis(\m~2~-4,4'-Bipyridine)-tri-copper) bis(hydrogen) 
(\m~11~-silicato)-icosakis(\m~2~-oxo)-pentadecaoxo-undeca-tungsten 
pentahydrate)
;
_cell_volume  12939.394
_exptl_crystal_colour 'black'
_exptl_crystal_density_diffrn 2.418
_exptl_special_details
;
The two protons are present for charge balance purposes and have not been 
located but are assumed to be delocalised over the whole structure
;
_exptl_crystal_description 'prism'
_diffrn_ambient_temperature 294
_refine_special_details
;
The eleven tungsten atoms are disordered over twelve positions. The disorder 
has resulted in a formula containing 11.04W and 39.01 O atoms.
;
#These two values have been output from a single CSD field.
_refine_ls_R_factor_gt 0.0365
_refine_ls_wR_factor_gt 0.0365
_symmetry_cell_setting orthorhombic
_symmetry_space_group_name_H-M 'P c a 21'
_symmetry_Int_Tables_number 29
loop_
_symmetry_equiv_pos_site_id
_symmetry_equiv_pos_as_xyz
1 x,y,z
2 -x,-y,1/2+z
3 1/2+x,-y,z
4 1/2-x,y,1/2+z
_cell_length_a 29.886(3)
_cell_length_b 28.350(3)
_cell_length_c 15.2719(18)
_cell_angle_alpha 90
_cell_angle_beta 90
_cell_angle_gamma 90
_cell_formula_units_Z 4
loop_
_atom_type_symbol
_atom_type_radius_bond
C 0.68
H 0.23
Cu 1.32
N 0.68
O 0.68
Si 1.20
W 1.41
loop_
_atom_site_label
_atom_site_type_symbol
_atom_site_fract_x
_atom_site_fract_y
_atom_site_fract_z
Cu1 Cu -0.18369(6) 0.19553(6) -0.05704(15)
Cu2 Cu 0.18427(6) 0.16410(6) -0.13843(14)
Cu3 Cu 0.36538(6) 0.47827(6) -0.37381(13)
N1 N -0.1167(4) 0.1913(4) -0.0752(9)
N2 N 0.1176(4) 0.1672(4) -0.1208(9)
N3 N 0.2100(4) 0.1023(4) -0.1034(10)
N4 N 0.2904(4) -0.1318(4) -0.0726(9)
N5 N 0.2185(4) 0.2140(4) -0.1996(7)
N6 N 0.3313(4) 0.4166(4) -0.3573(9)
N7 N 0.3285(4) 0.5351(4) -0.4086(9)
N8 N 0.2180(4) 0.7495(4) -0.5181(9)
N9 N 0.4222(4) 0.4769(4) -0.4547(9)
N10 N 0.6011(4) 0.5076(4) -0.7573(9)
C1 C -0.0977(5) 0.1770(7) -0.1505(11)
H1 H -0.11660 0.16930 -0.19680
C2 C -0.0523(5) 0.1730(6) -0.1636(9)
H2 H -0.04110 0.16380 -0.21780
C3 C -0.0245(4) 0.1825(4) -0.0964(9)
C4 C -0.0435(5) 0.1969(6) -0.0162(11)
H3 H -0.02540 0.20390 0.03160
C5 C -0.0894(5) 0.2004(6) -0.0099(10)
H4 H -0.10170 0.20960 0.04340
C6 C 0.0913(5) 0.1726(7) -0.1909(12)
H5 H 0.10420 0.17230 -0.24630
C7 C 0.0458(5) 0.1784(6) -0.1836(11)
H6 H 0.02860 0.18280 -0.23380
C8 C 0.0254(4) 0.1778(4) -0.1022(10)
C9 C 0.0514(5) 0.1708(5) -0.0316(10)
H7 H 0.03870 0.16920 0.02400
C10 C 0.0966(5) 0.1663(6) -0.0423(11)
H8 H 0.11410 0.16220 0.00760
C11 C 0.1832(7) 0.0688(6) -0.0699(16)
H9 H 0.15400 0.07680 -0.05490
C12 C 0.1980(6) 0.0208(6) -0.0562(15)
H10 H 0.18000 -0.00170 -0.02930
C13 C 0.2412(5) 0.0103(5) -0.0862(12)
C14 C 0.2681(5) 0.0450(6) -0.1171(14)
H11 H 0.29760 0.03870 -0.13220
C15 C 0.2509(5) 0.0899(6) -0.1259(16)
H12 H 0.26940 0.11300 -0.14920
C16 C 0.2471(6) -0.1230(6) -0.0721(19)
H13 H 0.22720 -0.14810 -0.06840
C17 C 0.2304(5) -0.0780(6) -0.0767(17)
H14 H 0.19960 -0.07330 -0.07660
C18 C 0.2582(5) -0.0405(5) -0.0815(13)
C19 C 0.3031(5) -0.0484(6) -0.0784(16)
H15 H 0.32310 -0.02330 -0.07950
C20 C 0.3182(5) -0.0934(6) -0.0737(15)
H16 H 0.34890 -0.09850 -0.07110
C21 C 0.2622(5) 0.2189(5) -0.1946(11)
H17 H 0.27820 0.19530 -0.16610
C22 C 0.2858(4) 0.2564(5) -0.2286(11)
H18 H 0.31690 0.25740 -0.22440
C23 C 0.2629(4) 0.2924(4) -0.2687(10)
C24 C 0.2161(4) 0.2884(5) -0.2705(11)
H19 H 0.19880 0.31250 -0.29380
C25 C 0.1964(4) 0.2493(5) -0.2382(11)
H20 H 0.16550 0.24670 -0.24310
C26 C 0.3521(4) 0.3760(4) -0.348(1)
H21 H 0.38250 0.37470 -0.36060
C27 C 0.3313(4) 0.3354(4) -0.3206(10)
H22 H 0.34770 0.30760 -0.31530
C28 C 0.2862(4) 0.3356(4) -0.3009(9)
C29 C 0.2641(4) 0.3778(5) -0.3136(13)
H23 H 0.23360 0.37990 -0.30250
C30 C 0.2867(5) 0.4163(5) -0.3422(15)
H24 H 0.27070 0.44400 -0.35190
C31 C 0.3450(6) 0.5666(7) -0.4643(17)
H25 H 0.37200 0.55950 -0.49180
C32 C 0.3246(5) 0.6094(7) -0.4843(19)
H26 H 0.33930 0.63090 -0.52020
C33 C 0.2836(4) 0.6202(5) -0.4521(11)
C34 C 0.2671(7) 0.5884(7) -0.3952(16)
H27 H 0.24020 0.59490 -0.36700
C35 C 0.2892(7) 0.5456(7) -0.3770(16)
H28 H 0.27510 0.52380 -0.34080
C36 C 0.2611(5) 0.7454(5) -0.5265(17)
H29 H 0.27760 0.77110 -0.54630
C37 C 0.2835(5) 0.7033(6) -0.5065(16)
H30 H 0.31420 0.70110 -0.51580
C38 C 0.2608(4) 0.6655(5) -0.4736(10)
C39 C 0.2170(5) 0.6706(5) -0.4637(11)
H31 H 0.20010 0.64630 -0.43960
C40 C 0.1963(5) 0.7128(5) -0.4899(11)
H32 H 0.16520 0.71450 -0.48690
C41 C 0.4324(5) 0.4451(5) -0.5130(13)
H33 H 0.41520 0.41780 -0.51390
C42 C 0.4663(5) 0.4485(5) -0.5731(11)
H34 H 0.47010 0.42530 -0.61540
C43 C 0.4946(4) 0.4867(5) -0.5701(11)
C44 C 0.4863(5) 0.5189(5) -0.5060(11)
H35 H 0.50570 0.54420 -0.49860
C45 C 0.4501(5) 0.5147(5) -0.4530(12)
H36 H 0.44420 0.53890 -0.41350
C46 C 0.5864(6) 0.4633(5) -0.7375(12)
H37 H 0.59980 0.43750 -0.76470
C47 C 0.5521(6) 0.4554(6) -0.6777(13)
H38 H 0.54240 0.42480 -0.66670
C48 C 0.5322(4) 0.4926(4) -0.6346(11)
C49 C 0.5489(5) 0.5370(5) -0.6537(11)
H39 H 0.53700 0.56320 -0.62570
C50 C 0.5825(5) 0.5427(5) -0.7126(10)
H40 H 0.59310 0.57310 -0.72230
W1 W 0.483321(18) 0.339856(18) 0.04898(4)
W2 W 0.518598(16) 0.162044(16) -0.26561(3)
W3 W 0.422317(14) 0.222749(16) -0.26631(3)
W4 W 0.443685(16) 0.146001(17) -0.10444(4)
W5 W 0.530958(19) 0.172896(19) 0.06027(4)
W6 W 0.403111(15) 0.316685(17) -0.10100(4)
W7 W 0.605771(15) 0.188431(19) -0.10046(4)
W8 W 0.424888(17) 0.239588(19) 0.05879(4)
W9 W 0.563740(18) 0.358370(19) -0.12812(4)
W10 W 0.58753(2) 0.27266(3) 0.04412(5)
W11 W 0.484959(17) 0.334604(17) -0.27896(4)
W12 W 0.581038(16) 0.274096(18) -0.27809(4)
Si1 Si 0.50386(8) 0.25199(9) -0.1088(2)
O1 O 0.6244(4) 0.2983(5) 0.1164(8)
O2 O 0.5920(3) 0.3189(3) -0.0478(6)
O3 O 0.5638(3) 0.1590(3) -0.1782(6)
O4 O 0.4648(3) 0.1832(3) -0.3234(6)
O5 O 0.5261(2) 0.2902(3) -0.1744(5)
O6 O 0.6528(3) 0.1568(4) -0.1236(7)
O7 O 0.4850(4) 0.3857(4) 0.1242(7)
O8 O 0.5686(3) 0.2191(4) 0.1132(6)
O9 O 0.4153(3) 0.0954(4) -0.0776(7)
O10 O 0.6280(3) 0.2315(3) -0.0167(6)
O11 O 0.5165(3) 0.3651(3) -0.0472(6)
O12 O 0.4045(3) 0.1696(3) -0.1965(6)
O13 O 0.4175(3) 0.1903(3) -0.0267(6)
O14 O 0.5364(3) 0.3101(3) -0.3379(6)
O15 O 0.5998(3) 0.3310(3) -0.2203(7)
O16 O 0.4550(3) 0.2761(3) -0.3032(5)
O17 O 0.4795(3) 0.2093(3) 0.0916(6)
O18 O 0.5816(3) 0.1505(3) -0.0069(6)
O19 O 0.3980(3) 0.2633(3) -0.1782(6)
O20 O 0.6219(3) 0.2705(4) -0.3572(7)
O21 O 0.6080(3) 0.2371(3) -0.1881(6)
O22 O 0.5335(3) 0.3048(3) 0.0791(6)
O23 O 0.5922(3) 0.4104(3) -0.1157(8)
O24 O 0.5424(3) 0.2284(3) -0.0482(5)
O25 O 0.4460(3) 0.2976(3) 0.1125(6)
O26 O 0.5467(3) 0.2195(3) -0.3044(6)
O27 O 0.4642(3) 0.3701(3) -0.3582(7)
O28 O 0.3550(3) 0.3468(3) -0.1222(7)
O29 O 0.5230(3) 0.3776(3) -0.2193(7)
O30 O 0.4933(3) 0.1431(3) -0.0260(6)
O31 O 0.4422(3) 0.3416(3) -0.1877(6)
O32 O 0.5375(3) 0.1225(3) -0.3412(7)
O33 O 0.3827(3) 0.2776(3) -0.0072(6)
O34 O 0.4674(2) 0.2779(3) -0.0469(5)
O35 O 0.4294(3) 0.3578(3) -0.0161(6)
O36 O 0.3887(4) 0.2200(4) 0.1383(7)
O37 O 0.4796(2) 0.2110(2) -0.1657(5)
O38 O 0.3802(3) 0.2228(3) -0.3420(7)
O39 O 0.5295(4) 0.1303(4) 0.1406(7)
O40 O 0.4812(3) 0.1211(3) -0.1971(6)
O41 O 0.3833(6) 0.4440(6) 0.0317(14)
O42 O 0.3786(8) 0.0229(9) -0.1732(18)
O43 O 0.4401(7) 0.4642(7) 0.1841(16)
O44 O 0.4702(8) 0.0430(8) -0.3081(19)
O45 O 0.6680(9) 0.3902(10) -0.284(2)
O46 O 0.6272(7) 0.4887(9) -0.2065(17)
O47 O 0.3364(6) 0.1115(8) -0.268(2)
O48 O 0.5297(7) 0.4485(7) -0.3484(17)
O49 O 0.3559(7) 0.3564(6) 0.1412(16)
Cu4 Cu 0.67043(7) 0.33158(7) -0.67950(17)
Cu5 Cu 0.30652(6) 0.31330(7) -0.54270(14)
Cu6 Cu 0.13396(6) -0.01558(6) -0.34201(13)
N11 N 0.6056(4) 0.3252(5) -0.6485(10)
N12 N 0.3720(4) 0.3101(4) -0.5691(9)
N13 N 0.2812(4) 0.3757(5) -0.5701(10)
N14 N 0.1959(5) 0.6047(5) -0.6508(11)
N15 N 0.2741(4) 0.2599(4) -0.4931(8)
N16 N 0.1681(4) 0.0457(4) -0.3712(9)
N17 N 0.1049(4) -0.0073(4) -0.2191(9)
N18 N -0.0767(4) 0.0135(4) 0.0798(9)
N19 N 0.1689(4) -0.0769(4) -0.3454(9)
N20 N 0.2937(5) -0.2807(5) -0.2354(10)
C51 C 0.5768(7) 0.3160(9) -0.7142(13)
H41 H 0.58790 0.31400 -0.77110
C52 C 0.5307(7) 0.3093(8) -0.7003(13)
H42 H 0.51240 0.30000 -0.74640
C53 C 0.5126(5) 0.3166(5) -0.6175(9)
C54 C 0.5422(5) 0.3282(5) -0.5514(10)
H43 H 0.53180 0.33270 -0.49470
C55 C 0.5868(6) 0.3330(6) -0.5691(13)
H44 H 0.60550 0.34230 -0.52360
C56 C 0.3888(5) 0.3233(6) -0.6486(12)
H45 H 0.36890 0.33170 -0.69260
C57 C 0.4341(5) 0.3246(6) -0.6668(10)
H46 H 0.44390 0.33340 -0.72220
C58 C 0.4646(4) 0.3130(4) -0.6029(10)
C59 C 0.4477(4) 0.2983(5) -0.5218(10)
H47 H 0.46720 0.28960 -0.47710
C60 C 0.4026(5) 0.2968(5) -0.5085(11)
H48 H 0.39220 0.28590 -0.45470
C61 C 0.3071(5) 0.4138(7) -0.5813(15)
H49 H 0.33780 0.40950 -0.57550
C62 C 0.2932(5) 0.4567(6) -0.5997(16)
H50 H 0.31350 0.48040 -0.61330
C63 C 0.2463(5) 0.4660(6) -0.5983(13)
C64 C 0.2192(6) 0.4301(6) -0.5801(16)
H51 H 0.18840 0.43440 -0.57770
C65 C 0.2378(6) 0.3865(6) -0.5649(18)
H52 H 0.21830 0.36230 -0.54960
C66 C 0.1709(6) 0.5720(7) -0.6072(16)
H53 H 0.14190 0.58010 -0.59070
C67 C 0.1860(6) 0.5277(7) -0.5864(16)
H54 H 0.16850 0.50700 -0.55400
C68 C 0.2289(5) 0.5145(5) -0.6155(12)
C69 C 0.2538(7) 0.5487(6) -0.6540(15)
H55 H 0.28360 0.54280 -0.66760
C70 C 0.2356(6) 0.5920(7) -0.6734(15)
H56 H 0.25310 0.61340 -0.70460
C71 C 0.2288(5) 0.2539(5) -0.4989(12)
H57 H 0.21180 0.27830 -0.52260
C72 C 0.2075(4) 0.2143(5) -0.4720(12)
H58 H 0.17640 0.21260 -0.47530
C73 C 0.2313(4) 0.1762(4) -0.4397(9)
C74 C 0.2765(5) 0.1817(5) -0.4312(11)
H59 H 0.29370 0.15800 -0.40570
C75 C 0.2972(5) 0.2240(5) -0.4620(11)
H60 H 0.32830 0.22630 -0.46000
C76 C 0.1499(5) 0.0760(6) -0.4286(14)
H61 H 0.12300 0.06790 -0.45520
C77 C 0.1691(5) 0.1182(6) -0.4496(14)
H62 H 0.15470 0.13880 -0.48770
C78 C 0.2097(5) 0.1303(5) -0.4145(10)
C79 C 0.2281(6) 0.1002(6) -0.3572(14)
H63 H 0.25540 0.10750 -0.33130
C80 C 0.2070(6) 0.0586(7) -0.3364(13)
H64 H 0.22060 0.03850 -0.29630
C81 C 0.0905(6) 0.0350(6) -0.1953(14)
H65 H 0.10360 0.06160 -0.21970
C82 C 0.0564(6) 0.0404(5) -0.1351(11)
H66 H 0.04640 0.07060 -0.12160
C83 C 0.0365(5) 0.0013(5) -0.0937(11)
C84 C 0.0535(5) -0.0428(4) -0.1172(10)
H67 H 0.04270 -0.07010 -0.09070
C85 C 0.0862(5) -0.0454(5) -0.1795(11)
H68 H 0.09640 -0.07510 -0.19580
C86 C -0.0677(6) 0.0452(6) 0.0186(13)
H69 H -0.08640 0.07150 0.01660
C87 C -0.0342(6) 0.0435(6) -0.0416(11)
H70 H -0.03210 0.06590 -0.08600
C88 C -0.0019(5) 0.0055(5) -0.0341(10)
C89 C -0.0090(4) -0.0260(6) 0.0319(11)
H71 H 0.01130 -0.05060 0.04010
C90 C -0.0457(5) -0.0223(5) 0.0871(12)
H72 H -0.04960 -0.04480 0.13070
C91 C 0.1491(4) -0.1185(4) -0.3415(9)
H73 H 0.11830 -0.12020 -0.34940
C92 C 0.1729(4) -0.1601(5) -0.326(1)
H74 H 0.15760 -0.18860 -0.32320
C93 C 0.2195(4) -0.1594(5) -0.3145(11)
C94 C 0.2400(5) -0.1147(5) -0.3213(17)
H75 H 0.27070 -0.11150 -0.31440
C95 C 0.2137(5) -0.0761(6) -0.3383(16)
H76 H 0.22800 -0.04720 -0.34550
C96 C 0.2494(6) -0.2793(6) -0.2340(18)
H77 H 0.23440 -0.30570 -0.21300
C97 C 0.2244(5) -0.2421(6) -0.2611(16)
H78 H 0.19330 -0.24430 -0.26050
C98 C 0.2437(5) -0.2025(5) -0.2885(12)
C99 C 0.2902(5) -0.2036(6) -0.2906(16)
H79 H 0.30610 -0.17740 -0.30980
C100 C 0.3127(6) -0.2433(7) -0.2644(16)
H80 H 0.34380 -0.24310 -0.26790
Cu1B Cu 0.31631(6) -0.19553(6) -0.05704(15)
Cu1A Cu 0.18369(6) 0.80447(6) -0.55704(15)
Cu3A Cu 0.63462(6) 0.52173(6) -0.87381(13)
N4B N -0.2096(4) 0.1318(4) -0.0726(9)
N8A N -0.2180(4) 0.2505(4) -0.0181(9)
N10A N 0.3989(4) 0.4924(4) -0.2573(9)
Cu4B Cu 0.17043(7) 0.66842(7) -0.67950(17)
Cu4A Cu 0.32957(7) -0.33158(7) -0.17950(17)
Cu6A Cu -0.13396(6) 0.01558(6) 0.15799(13)
N14B N 0.6959(5) 0.3953(5) -0.6508(11)
N18A N 0.0767(4) -0.0135(4) -0.4202(9)
N20A N 0.7063(5) 0.2807(5) -0.7354(10)
#END
