
#######################################################################
#
#                 Cambridge Crystallographic Data Centre
#                                CCDC
#
#######################################################################
#
# If this CIF has been generated from an entry in the Cambridge
# Structural Database, then it will include bibliographic, chemical,
# crystal, experimental, refinement or atomic coordinate data resulting
# from the CCDC's data processing and validation procedures.
#
#######################################################################

data_CSD_CIF_XUWQEL
_audit_creation_date 2003-07-04
_audit_creation_method CSD-ConQuest-V1
_database_code_CSD XUWQEL
_chemical_formula_sum 'C52 H108 N10 Ni3 O20'
_chemical_formula_moiety
;
(C20 H44 N4 Ni1 O2 2+)n,n(C32 H52 N6 Ni2 O12 2-),6n(H2 O1)
;
_journal_coden_Cambridge 960
_journal_volume 40
_journal_year 2001
_journal_page_first 67
_journal_name_full 'J.Inclusion Phenom.Macrocyclic Chem. '
loop_
_publ_author_name
"Ki-Young Choi"
"Suk Nam Choi"
"Choon Pyo Hong"
_chemical_name_systematic
;
catena-(Diaqua-(3,14-dimethyl-2,6,13,17-tetra-azatricyclo(16.4.0.0^7,12^)docos
ane-N,N',N'',N''')-nickel(ii) 
bis(\m~2~-nitrilotriacetato)-(3,14-dimethyl-2,6,13,17-tetra-azatricyclo(16.4.0
.0^7,12^)docosane-N,N',N'',N''')-di-nickel(ii) hexahydrate)
;
_cell_volume   3115.938
_exptl_crystal_colour 'light violet'
_exptl_crystal_density_diffrn 1.46
_exptl_crystal_description 'block'
_diffrn_ambient_temperature 293
_refine_special_details
;
Two of the water molecules are each disordered over two positions.

;
#These two values have been output from a single CSD field.
_refine_ls_R_factor_gt 0.0592
_refine_ls_wR_factor_gt 0.0592
_symmetry_cell_setting monoclinic
_symmetry_space_group_name_H-M 'P 21/c'
_symmetry_Int_Tables_number 14
loop_
_symmetry_equiv_pos_site_id
_symmetry_equiv_pos_as_xyz
1 x,y,z
2 -x,1/2+y,1/2-z
3 -x,-y,-z
4 x,-1/2-y,-1/2+z
_cell_length_a 11.217(2)
_cell_length_b 18.048(5)
_cell_length_c 15.393(3)
_cell_angle_alpha 90
_cell_angle_beta 90.78(2)
_cell_angle_gamma 90
_cell_formula_units_Z 2
loop_
_atom_type_symbol
_atom_type_radius_bond
C 0.68
N 0.68
Ni 1.50
O 0.68
loop_
_atom_site_label
_atom_site_type_symbol
_atom_site_fract_x
_atom_site_fract_y
_atom_site_fract_z
Ni1 Ni 0.50000 0.50000 0.50000
Ni2 Ni 1.00000 0.50000 0.50000
Ni3 Ni 0.50000 1.00000 0.50000
O1 O 0.6826(4) 0.4986(3) 0.4868(3)
O2 O 0.8439(4) 0.5700(3) 0.5045(3)
O3 O 0.5546(6) 0.7480(3) 0.6303(4)
O4 O 0.3801(5) 0.7793(3) 0.5764(4)
O5 O 0.6005(5) 0.4899(3) 0.7505(3)
O6 O 0.5252(4) 0.4584(3) 0.6221(3)
N1 N 0.5407(4) 0.6028(3) 0.5596(3)
N2 N 0.9847(5) 0.5094(3) 0.3654(3)
N3 N 1.1034(5) 0.5938(3) 0.4898(4)
N4 N 0.3305(5) 1.0232(3) 0.4501(4)
N5 N 0.4624(5) 1.0818(3) 0.5877(4)
C1 C 0.6532(5) 0.6250(3) 0.5191(4)
C2 C 0.7336(6) 0.5596(4) 0.5035(4)
C3 C 0.4459(6) 0.6585(4) 0.5457(5)
C4 C 0.4615(7) 0.7337(4) 0.5895(5)
C5 C 0.5579(7) 0.5862(4) 0.6527(5)
C6 C 0.5627(6) 0.5048(4) 0.6763(4)
C7 C 1.0764(7) 0.5638(4) 0.3367(5)
C8 C 1.0550(7) 0.5941(5) 0.2451(5)
C9 C 1.1515(9) 0.6492(7) 0.2200(7)
C10 C 1.1616(10) 0.7107(6) 0.2870(8)
C11 C 1.1822(7) 0.6810(5) 0.3769(6)
C12 C 1.0845(6) 0.6260(4) 0.4029(5)
C13 C 1.0939(6) 0.6466(4) 0.5628(5)
C14 C 1.1232(7) 0.6095(5) 0.6496(5)
C15 C 0.9711(7) 0.4406(5) 0.3126(5)
C16 C 1.0846(9) 0.3991(6) 0.2970(7)
C17 C 0.2684(6) 1.0693(4) 0.5144(5)
C18 C 0.1584(7) 1.1096(5) 0.4773(6)
C19 C 0.1016(8) 1.1583(5) 0.5466(7)
C20 C 0.1900(8) 1.2130(5) 0.5853(7)
C21 C 0.2991(7) 1.1735(4) 0.6214(6)
C22 C 0.3583(6) 1.1249(4) 0.5523(5)
C23 C 0.5662(7) 1.1288(4) 0.6144(5)
C24 C 0.6648(7) 1.0814(5) 0.6529(6)
C25 C 0.2585(7) 0.9626(5) 0.4090(6)
C26 C 0.1949(8) 0.9146(5) 0.4749(7)
O7 O 0.4415(5) 0.9202(3) 0.5965(3)
O8 O 0.4962(19) 0.3144(13) 0.6928(12)
O9? O 0.441(3) 0.328(2) 0.722(2)
O10 O 0.7366(6) 0.5693(5) 0.2912(5)
O11 O 0.776(5) 0.776(3) 0.702(5)
O12? O 0.725(8) 0.819(6) 0.700(8)
C15B C 1.0289(7) 0.5594(5) 0.6874(5)
N2B N 1.0153(5) 0.4906(3) 0.6346(3)
C7B C 0.9236(7) 0.4362(4) 0.6633(5)
C8B C 0.9450(7) 0.4059(5) 0.7549(5)
C9B C 0.8485(9) 0.3508(7) 0.7800(7)
C10B C 0.8384(10) 0.2893(6) 0.7130(8)
C11B C 0.8178(7) 0.3190(5) 0.6231(6)
C12B C 0.9155(6) 0.3740(4) 0.5971(5)
N3B N 0.8966(5) 0.4062(3) 0.5102(4)
C13B C 0.9061(6) 0.3534(4) 0.4372(5)
C14B C 0.8768(7) 0.3905(5) 0.3504(5)
C16B C 0.9154(9) 0.6009(6) 0.7030(7)
C25B C 0.7415(7) 1.0374(5) 0.5910(6)
N4B N 0.6695(5) 0.9768(3) 0.5499(4)
C17B C 0.7316(6) 0.9307(4) 0.4856(5)
C18B C 0.8416(7) 0.8904(5) 0.5227(6)
C19B C 0.8984(8) 0.8417(5) 0.4534(7)
C20B C 0.8100(8) 0.7870(5) 0.4147(7)
C21B C 0.7009(7) 0.8265(4) 0.3786(6)
C22B C 0.6417(6) 0.8751(4) 0.4477(5)
N5B N 0.5376(5) 0.9182(3) 0.4123(4)
C23B C 0.4338(7) 0.8712(4) 0.3856(5)
C24B C 0.3352(7) 0.9186(5) 0.3471(6)
C26B C 0.8051(8) 1.0854(5) 0.5251(7)
O1B O 0.3174(4) 0.5014(3) 0.5132(3)
O2B O 0.1561(4) 0.4300(3) 0.4955(3)
O3B O 0.4454(6) 0.2520(3) 0.3697(4)
O4B O 0.6199(5) 0.2207(3) 0.4236(4)
O5B O 0.3995(5) 0.5101(3) 0.2495(3)
O6B O 0.4748(4) 0.5416(3) 0.3779(3)
N1B N 0.4593(4) 0.3972(3) 0.4404(3)
C1B C 0.3468(5) 0.3750(3) 0.4809(4)
C2B C 0.2664(6) 0.4404(4) 0.4965(4)
C3B C 0.5541(6) 0.3415(4) 0.4543(5)
C4B C 0.5385(7) 0.2663(4) 0.4105(5)
C5B C 0.4421(7) 0.4138(4) 0.3473(5)
C6B C 0.4373(6) 0.4952(4) 0.3237(4)
O7B O 0.5585(5) 1.0798(3) 0.4035(3)
O2B* O 1.1561(4) 0.4300(3) 0.4955(3)
Ni2* Ni 0.00000 0.50000 0.50000
#END
