
#######################################################################
#
#                 Cambridge Crystallographic Data Centre
#                                CCDC
#
#######################################################################
#
# If this CIF has been generated from an entry in the Cambridge
# Structural Database, then it will include bibliographic, chemical,
# crystal, experimental, refinement or atomic coordinate data resulting
# from the CCDC's data processing and validation procedures.
#
#######################################################################

data_CSD_CIF_XUYGIJ
_audit_creation_date 2016-01-13
_audit_creation_method CSD-ConQuest-V1
_database_code_CSD XUYGIJ
_database_code_depnum_ccdc_archive 'CCDC 1423485'
_chemical_formula_sum 'C32 H34 Cu2 K2 N8 O17'
_chemical_formula_moiety
;
(C20 H16 Cu2 K2 N4 O16 2-)n,n(C12 H16 N4 2+),n(H2 O1)
;
_journal_coden_Cambridge 1147
_journal_volume 16
_journal_year 2016
_journal_page_first 900
_journal_name_full 'Cryst.Growth Des. '
loop_
_publ_author_name
"T.T.da Cunha"
"W.X.C.Oliveira"
"C.B.Pinheiro"
"E.F.Pedroso"
"W.C.Nunes"
"C.L.M.Pereira"
_chemical_name_systematic
;
catena-[4-amino-1-(2-(4-aminopyridinium-1-yl)ethyl)pyridinium 
bis(\m-2,2'-(1,2-phenylenediimino)bis(oxoacetato))-bis(\m-aqua)-diaqua-di-pota
ssium-di-copper monohydrate]
;
_chemical_name_common
;
catena-[1,1 -ethylenebis(4-aminopyridinium) 
bis(mu-aqua)-diaqua-bis(mu-1,2-phenylenebis(oxamate))-di-potassium-di-copper 
monohydrate]
;
_cell_volume   3725.104
_exptl_crystal_density_diffrn 1.797
_exptl_crystal_preparation 'water'
_diffrn_ambient_temperature 150
#These two values have been output from a single CSD field.
_refine_ls_R_factor_gt 0.0518
_refine_ls_wR_factor_gt 0.0518
_symmetry_cell_setting monoclinic
_symmetry_space_group_name_H-M 'C 2/c'
_symmetry_Int_Tables_number 15
loop_
_symmetry_equiv_pos_site_id
_symmetry_equiv_pos_as_xyz
1 x,y,z
2 -x,y,1/2-z
3 1/2+x,1/2+y,z
4 1/2-x,1/2+y,1/2-z
5 -x,-y,-z
6 x,-y,-1/2+z
7 -1/2-x,-1/2-y,-z
8 -1/2+x,-1/2-y,-1/2+z
_cell_length_a 7.057(5)
_cell_length_b 25.764(5)
_cell_length_c 20.525(5)
_cell_angle_alpha 90
_cell_angle_beta 93.429(5)
_cell_angle_gamma 90
_cell_formula_units_Z 4
loop_
_atom_type_symbol
_atom_type_radius_bond
C 0.68
H 0.23
Cu 1.32
K 2.03
N 0.68
O 0.68
loop_
_atom_site_label
_atom_site_type_symbol
_atom_site_fract_x
_atom_site_fract_y
_atom_site_fract_z
Cu1 Cu 0.53015(9) 0.21830(2) 0.51833(3)
O1 O 0.6254(4) 0.28508(11) 0.55274(14)
O2 O 0.7186(4) 0.22212(12) 0.70485(14)
O3 O 0.7387(4) 0.31826(11) 0.64788(13)
O4 O 0.4042(4) 0.23273(12) 0.43255(14)
O5 O 0.3090(4) 0.09773(12) 0.41814(14)
O6 O 0.2534(4) 0.19110(13) 0.35033(14)
N1 N 0.4599(4) 0.14819(13) 0.49945(16)
N2 N 0.6053(4) 0.19184(14) 0.60289(16)
C1 C 0.5774(5) 0.13842(16) 0.60942(19)
C2 C 0.5019(5) 0.11323(16) 0.55149(19)
C3 C 0.3699(6) 0.13939(17) 0.44281(19)
C4 C 0.4787(5) 0.06039(17) 0.5503(2)
H1 H 0.43270 0.04410 0.51210
C5 C 0.3381(6) 0.19123(17) 0.4046(2)
C6 C 0.6690(5) 0.22683(17) 0.6462(2)
C7 C 0.5920(6) 0.05531(17) 0.6631(2)
H2 H 0.62030 0.03570 0.70050
C8 C 0.5238(6) 0.03079(18) 0.6065(2)
H3 H 0.50810 -0.00510 0.60570
C9 C 0.6186(6) 0.10841(17) 0.6649(2)
H4 H 0.66440 0.12420 0.70340
C10 C 0.6798(5) 0.28146(17) 0.6132(2)
K1 K 0.50000 0.20596(6) 0.25000
K2 K 0.00000 0.16890(8) 0.25000
O7 O 0.3273(8) 0.0943(2) 0.2758(2)
O8 O -0.0670(5) 0.08388(13) 0.36889(18)
H5 H 0.283(7) 0.0617(7) 0.271(2)
H6 H 0.357(7) 0.0958(18) 0.3190(5)
H7 H 0.049(3) 0.0929(14) 0.386(2)
H8 H -0.120(5) 0.1150(7) 0.359(3)
N3 N 0.1706(5) 0.18199(14) 0.66672(17)
H9 H 0.21210 0.17890 0.70680
H10 H 0.16740 0.21200 0.64840
N4 N -0.0188(5) 0.05577(14) 0.55866(17)
C11 C 0.1108(5) 0.14011(16) 0.6330(2)
C12 C 0.0484(6) 0.04905(17) 0.6212(2)
H11 H 0.05200 0.01580 0.63880
C13 C -0.0243(5) 0.10381(17) 0.5327(2)
H12 H -0.07170 0.10820 0.48980
C14 C 0.1109(5) 0.08971(16) 0.6592(2)
H13 H 0.15370 0.08410 0.70230
C15 C 0.0377(5) 0.14599(17) 0.5677(2)
H14 H 0.03210 0.17880 0.54860
C16 C -0.0818(5) 0.01087(18) 0.5179(2)
H15 H -0.18250 0.02170 0.48660
H16 H -0.13180 -0.01590 0.54540
O9 O 0.00000 -0.0285(3) 0.75000
H17 H -0.058(5) -0.0504(3) 0.7764(13)
Cu1A Cu -0.53015(9) 0.21830(2) -0.01833(3)
O1A O -0.6254(4) 0.28508(11) -0.05274(14)
O2A O -0.7186(4) 0.22212(12) -0.20485(14)
O3A O -0.7387(4) 0.31826(11) -0.14788(13)
O4A O -0.4042(4) 0.23273(12) 0.06745(14)
O5A O -0.3090(4) 0.09773(12) 0.08186(14)
O6A O -0.2534(4) 0.19110(13) 0.14967(14)
N1A N -0.4599(4) 0.14819(13) 0.00055(16)
N2A N -0.6053(4) 0.19184(14) -0.10289(16)
C1A C -0.5774(5) 0.13842(16) -0.10942(19)
C2A C -0.5019(5) 0.11323(16) -0.05149(19)
C3A C -0.3699(6) 0.13939(17) 0.05719(19)
C4A C -0.4787(5) 0.06039(17) -0.0503(2)
H1A H -0.43270 0.04410 -0.01210
C5A C -0.3381(6) 0.19123(17) 0.0954(2)
C6A C -0.6690(5) 0.22683(17) -0.1462(2)
C7A C -0.5920(6) 0.05531(17) -0.1631(2)
H2A H -0.62030 0.03570 -0.20050
C8A C -0.5238(6) 0.03079(18) -0.1065(2)
H3A H -0.50810 -0.00510 -0.10570
C9A C -0.6186(6) 0.10841(17) -0.1649(2)
H4A H -0.66440 0.12420 -0.20340
C10A C -0.6798(5) 0.28146(17) -0.1132(2)
O7A O -0.3273(8) 0.0943(2) 0.2242(2)
O8A O 0.0670(5) 0.08388(13) 0.13111(18)
H5A H -0.283(7) 0.0617(7) 0.229(2)
H6A H -0.357(7) 0.0958(18) 0.1810(5)
H7A H -0.049(3) 0.0929(14) 0.114(2)
H8A H 0.120(5) 0.1150(7) 0.141(3)
O2F O -0.2186(4) 0.27788(12) 0.29515(14)
O2F* O 0.7814(4) 0.27788(12) 0.29515(14)
O2G O 0.2186(4) 0.27788(12) 0.20485(14)
O3F O -0.2387(4) 0.18174(11) 0.35212(13)
O3F* O 0.7613(4) 0.18174(11) 0.35212(13)
O3G O 0.2387(4) 0.18174(11) 0.14788(13)
O6A* O 0.7466(4) 0.19110(13) 0.14967(14)
K1* K -0.50000 0.20596(6) 0.25000
K1F K -1.00000 0.29404(6) -0.25000
K1F* K 1.00000 0.29404(6) 0.75000
K2F K -0.50000 0.33110(8) -0.25000
K2F* K 0.50000 0.33110(8) 0.75000
O7A* O 0.6727(8) 0.0943(2) 0.2242(2)
N3D N -0.1706(5) -0.18199(14) 0.33328(17)
H9D H -0.21210 -0.17890 0.29320
H10D H -0.16740 -0.21200 0.35160
N4D N 0.0188(5) -0.05577(14) 0.44134(17)
C11D C -0.1108(5) -0.14011(16) 0.3670(2)
C12D C -0.0484(6) -0.04905(17) 0.3788(2)
H11D H -0.05200 -0.01580 0.36120
C13D C 0.0243(5) -0.10381(17) 0.4673(2)
H12D H 0.07170 -0.10820 0.51020
C14D C -0.1109(5) -0.08971(16) 0.3408(2)
H13D H -0.15370 -0.08410 0.29770
C15D C -0.0377(5) -0.14599(17) 0.4323(2)
H14D H -0.03210 -0.17880 0.45140
C16D C 0.0818(5) -0.01087(18) 0.4821(2)
H15D H 0.18250 -0.02170 0.51340
H16D H 0.13180 0.01590 0.45460
H17A H 0.058(5) -0.0504(3) 0.7236(13)
#END
