
#######################################################################
#
#                 Cambridge Crystallographic Data Centre
#                                CCDC
#
#######################################################################
#
# If this CIF has been generated from an entry in the Cambridge
# Structural Database, then it will include bibliographic, chemical,
# crystal, experimental, refinement or atomic coordinate data resulting
# from the CCDC's data processing and validation procedures.
#
#######################################################################

data_CSD_CIF_XUYGON
_audit_creation_date 2003-07-04
_audit_creation_method CSD-ConQuest-V1
_database_code_CSD XUYGON
_database_code_depnum_ccdc_archive 'CCDC 187334'
_chemical_formula_sum 'C20 H24 N2 O6 Zn1'
_chemical_formula_moiety
;
(C14 H8 N1 O6 Zn1 1-)n,n(C6 H16 N1 1+)
;
_journal_coden_Cambridge 1295
_journal_volume 6
_journal_year 2003
_journal_page_first 402
_journal_name_full 'Inorg.Chem.Commun. '
loop_
_publ_author_name
"Gang Wu"
"Xin Shi"
"Qianrong Fang"
"Ge Tian"
"Lifeng Wang"
"Guangshan Zhu"
"A.W.Addison"
"Yen Wei"
"Shilun Qiu"
_chemical_name_systematic
;
catena-(Triethylammonium 
(\m~3~-benzene-1,3,5-tricarboxylato)-pyridyl-zinc(ii))
;
_cell_volume   4180.341
_exptl_crystal_colour 'colorless'
_exptl_crystal_density_diffrn 1.439
_exptl_special_details
;
Rfactor is given in paper as 0.0498

;
_exptl_crystal_description 'block'
_diffrn_ambient_temperature 293
#These two values have been output from a single CSD field.
_refine_ls_R_factor_gt 0.0489
_refine_ls_wR_factor_gt 0.0489
_symmetry_cell_setting orthorhombic
_symmetry_space_group_name_H-M 'P b c a'
_symmetry_Int_Tables_number 61
loop_
_symmetry_equiv_pos_site_id
_symmetry_equiv_pos_as_xyz
1 x,y,z
2 1/2+x,y,1/2-z
3 x,1/2-y,1/2+z
4 1/2-x,1/2+y,z
5 -x,-y,-z
6 -1/2-x,-y,-1/2+z
7 -x,-1/2+y,-1/2-z
8 -1/2+x,-1/2-y,-z
_cell_length_a 13.652(4)
_cell_length_b 16.345(4)
_cell_length_c 18.734(6)
_cell_angle_alpha 90
_cell_angle_beta 90
_cell_angle_gamma 90
_cell_formula_units_Z 8
loop_
_atom_type_symbol
_atom_type_radius_bond
C 0.68
H 0.23
N 0.68
O 0.68
Zn 1.45
loop_
_atom_site_label
_atom_site_type_symbol
_atom_site_fract_x
_atom_site_fract_y
_atom_site_fract_z
Zn1 Zn 0.20533(5) 0.12351(4) 0.43564(3)
O1 O 0.1357(3) 0.1921(3) 0.5056(2)
O2 O 0.2491(3) 0.1637(3) 0.5860(2)
O3 O -0.1470(3) 0.4337(3) 0.6667(3)
O4 O -0.1553(3) 0.3535(3) 0.5711(2)
O5 O 0.1190(3) 0.3758(3) 0.8499(2)
O6 O 0.2000(4) 0.2597(3) 0.8345(2)
N1 N 0.1831(4) 0.0044(3) 0.4696(3)
N2 N 0.3716(5) 0.0907(5) 0.6828(4)
C1 C 0.2303(5) -0.0575(4) 0.4386(4)
H1 H 0.27530 -0.04540 0.40280
C2 C 0.2161(7) -0.1390(4) 0.4568(5)
H2 H 0.25270 -0.18010 0.43520
C3 C 0.1465(6) -0.1576(5) 0.5075(5)
H3 H 0.13290 -0.21170 0.51920
C4 C 0.0968(6) -0.0936(5) 0.5411(5)
H4 H 0.05050 -0.10430 0.57630
C5 C 0.1178(6) -0.0130(5) 0.5208(4)
H5 H 0.08560 0.02980 0.54360
C6 C 0.1726(5) 0.1982(4) 0.5678(3)
C7 C 0.1179(4) 0.2516(4) 0.6197(3)
C8 C 0.1533(4) 0.2591(4) 0.6895(3)
H6 H 0.21080 0.23260 0.70300
C9 C 0.1015(4) 0.3068(4) 0.7389(3)
C10 C -0.1158(4) 0.3783(4) 0.6282(4)
C11 C -0.0205(4) 0.3367(4) 0.6494(3)
C12 C 0.0299(4) 0.2896(3) 0.5996(3)
H7 H 0.00560 0.28350 0.55350
C13 C 0.0153(4) 0.3463(4) 0.7197(3)
H8 H -0.01820 0.37860 0.75240
C14 C 0.1438(5) 0.3134(4) 0.8128(3)
C15 C 0.3952(7) 0.1390(5) 0.7489(5)
H9 H 0.33520 0.15130 0.77450
H10 H 0.42590 0.19030 0.73570
C16 C 0.4638(8) 0.0905(6) 0.7971(6)
H11 H 0.47890 0.12220 0.83880
H12 H 0.52310 0.07830 0.77170
H13 H 0.43260 0.04040 0.81120
C17 C 0.4441(14) 0.0567(11) 0.6370(8)
H14 H 0.41350 0.01760 0.60500
H15 H 0.49230 0.02770 0.66540
C18 C 0.4926(9) 0.1201(11) 0.5954(11)
H16 H 0.54290 0.09580 0.56650
H17 H 0.52130 0.15960 0.62700
H18 H 0.44560 0.14670 0.56510
C19 C 0.3060(12) 0.0154(8) 0.7106(11)
H19 H 0.35170 -0.02880 0.72000
H20 H 0.28070 0.03220 0.75680
C20 C 0.2412(12) -0.0141(13) 0.6813(10)
H21 H 0.21470 -0.05750 0.70990
H22 H 0.26310 -0.03570 0.63640
H23 H 0.19150 0.02640 0.67310
H24 H 0.30790 0.11620 0.66710
O4G O 0.3447(3) 0.1465(3) 0.4289(2)
O5B O 0.1190(3) 0.1242(3) 0.3499(2)
Zn1G Zn -0.29467(5) 0.37649(4) 0.56436(3)
Zn1B Zn 0.20533(5) 0.37649(4) 0.93564(3)
#END
