
#######################################################################
#
#                 Cambridge Crystallographic Data Centre
#                                CCDC
#
#######################################################################
#
# If this CIF has been generated from an entry in the Cambridge
# Structural Database, then it will include bibliographic, chemical,
# crystal, experimental, refinement or atomic coordinate data resulting
# from the CCDC's data processing and validation procedures.
#
#######################################################################

data_CSD_CIF_XUYXIB
_audit_creation_date 2020-10-27
_audit_creation_method CSD-ConQuest-V1
_database_code_CSD XUYXIB
_database_code_depnum_ccdc_archive 'CCDC 2009382'
_chemical_formula_sum 'C36 H59 B1 Co2 N18 O48 W12'
_chemical_formula_moiety
;
(C18 H27 Co1 N9 O3 2+)2n,n(H1 B1 O40 W12 4-),2n(H2 O1)
;
_journal_coden_Cambridge 211
_journal_volume 73
_journal_year 2020
_journal_page_first 2521
_journal_name_full 'J.Coord.Chem. '
loop_
_publ_author_name
"Wen-Jing Cui"
"Qing Zhao"
"Hao-Tian Zhu"
"Na Hu"
"Yuan-Yuan Ma"
"Zhan-Gang Han"
"Yang-Guang Li"
_chemical_name_systematic
;
catena-(bis((\m-1,1',1''-[(2,4,6-trimethylbenzene-1,3,5-triyl)tris(methylene)]
tris(1H-1,2,4-triazole))-triaqua-cobalt(ii)) 
(\m-borato)-(\m-hydroxo)-tricosakis(\m-oxo)-dodecaoxo-dodeca-tungsten unknown 
solvate dihydrate)
;
_cell_volume   7600.508
_exptl_crystal_colour 'red'
_exptl_crystal_density_diffrn 3.343
_exptl_crystal_description 'block'
_diffrn_ambient_temperature 293
_refine_special_details
;
O1,O2,O3,O4 disordered by symmetry over two configurations with occupancy 
0.5. The SQUEEZE/PLATON program was used to model some disorder.
;
#These two values have been output from a single CSD field.
_refine_ls_R_factor_gt 0.0505
_refine_ls_wR_factor_gt 0.0505
_symmetry_cell_setting monoclinic
_symmetry_space_group_name_H-M 'C 2/c'
_symmetry_Int_Tables_number 15
loop_
_symmetry_equiv_pos_site_id
_symmetry_equiv_pos_as_xyz
1 x,y,z
2 -x,y,1/2-z
3 1/2+x,1/2+y,z
4 1/2-x,1/2+y,1/2-z
5 -x,-y,-z
6 x,-y,-1/2+z
7 -1/2-x,-1/2-y,-z
8 -1/2+x,-1/2-y,-1/2+z
_cell_length_a 32.2860(16)
_cell_length_b 10.9830(3)
_cell_length_c 24.7012(11)
_cell_angle_alpha 90
_cell_angle_beta 119.803(6)
_cell_angle_gamma 90
_cell_formula_units_Z 4
loop_
_atom_type_symbol
_atom_type_radius_bond
C 0.68
H 0.23
B 0.83
Co 1.26
N 0.68
O 0.68
W 1.62
loop_
_atom_site_label
_atom_site_type_symbol
_atom_site_fract_x
_atom_site_fract_y
_atom_site_fract_z
B1 B 0.00000 0.50000 0.50000
W1 W 0.07645(2) 0.72013(5) 0.50075(2)
W2 W 0.04469(2) 0.56110(5) 0.65701(2)
W3 W 0.12160(2) 0.47629(5) 0.60340(2)
W4 W 0.04401(2) 0.26442(5) 0.60765(2)
W5 W -0.00471(2) 0.79492(5) 0.54824(2)
W6 W -0.07737(2) 0.56791(5) 0.55467(2)
O1 O -0.0487(5) 0.4789(12) 0.4914(6)
O2 O 0.0070(5) 0.4235(12) 0.4533(6)
O3 O 0.0052(5) 0.6366(12) 0.4900(6)
O4 O -0.0373(5) 0.5335(12) 0.4347(6)
O5 O 0.1184(4) 0.6367(8) 0.5717(4)
O6 O -0.0558(4) 0.7274(10) 0.5497(5)
O7 O 0.0858(4) 0.5999(8) 0.4526(4)
O8 O 0.0395(3) 0.1842(12) 0.5375(4)
O9 O 0.1024(5) 0.5516(8) 0.6569(6)
O10 O 0.1036(5) 0.3253(8) 0.6199(6)
O11 O 0.0360(3) 0.7194(10) 0.6278(5)
O12 O -0.0207(4) 0.5495(9) 0.6302(5)
O13 O 0.0519(4) 0.8042(12) 0.5431(4)
O14 O 0.0211(3) 0.7618(13) 0.4248(4)
O15 O -0.1130(4) 0.604(1) 0.5825(5)
O16 O 0.0448(4) 0.3871(8) 0.6599(6)
O17 O 0.1194(4) 0.4149(8) 0.5317(4)
O18 O -0.0077(3) 0.9346(8) 0.5731(5)
O19 O 0.0667(4) 0.5920(9) 0.7337(4)
O20 O 0.1137(3) 0.8255(8) 0.4993(4)
O21 O 0.0652(3) 0.1483(8) 0.6600(4)
O22 O 0.1801(3) 0.4687(9) 0.6537(4)
Co1 Co -0.09810(6) 0.95906(15) 0.66377(7)
C1 C -0.3690(4) 1.3451(11) 0.7487(5)
H1 H -0.39973 1.32060 0.71943
C2 C -0.3097(4) 1.4174(12) 0.8303(5)
H2 H -0.29150 1.45286 0.86941
C3 C -0.3261(5) 1.2833(10) 0.6900(5)
H3 H -0.35767 1.27877 0.65337
H4 H -0.31312 1.20158 0.70003
C4 C -0.2947(4) 1.3619(10) 0.6764(5)
C5 C -0.3144(4) 1.4673(10) 0.6417(5)
C6 C -0.2846(5) 1.5419(11) 0.6295(5)
C7 C -0.3645(5) 1.5081(13) 0.6219(6)
H5 H -0.38450 1.43807 0.61430
H6 H -0.37672 1.55572 0.58452
H7 H -0.36431 1.55647 0.65446
C8 C -0.3060(5) 1.6583(12) 0.5930(5)
H8 H -0.28304 1.72377 0.61179
H9 H -0.33400 1.67962 0.59596
C9 C -0.3221(6) 1.6831(15) 0.4433(6)
C10 C -0.3545(5) 1.5821(11) 0.4826(5)
C11 C -0.2374(4) 1.5118(11) 0.6496(5)
C12 C -0.2061(5) 1.5909(12) 0.6370(6)
H10 H -0.22536 1.64488 0.60312
H11 H -0.18684 1.54145 0.62611
H12 H -0.18586 1.63764 0.67362
C13 C -0.2187(4) 1.4075(11) 0.6865(5)
C14 C -0.1659(4) 1.3820(11) 0.7152(5)
H13 H -0.14977 1.45775 0.71728
H14 H -0.15394 1.35395 0.75770
C15 C -0.1405(5) 1.2180(13) 0.6128(6)
H15 H -0.13785 1.20863 0.57725
C16 C -0.1357(5) 1.1836(12) 0.6982(6)
H16 H -0.12997 1.14550 0.73490
C17 C -0.2476(4) 1.3301(11) 0.6994(5)
C18 C -0.2263(5) 1.2188(12) 0.7378(6)
H17 H -0.24673 1.18937 0.75279
H18 H -0.19550 1.23809 0.77255
H19 H -0.22284 1.15708 0.71274
N1 N -0.3566(4) 1.3963(9) 0.8027(4)
N2 N -0.3298(4) 1.3339(9) 0.7429(4)
N3 N -0.2933(4) 1.3813(11) 0.7948(5)
N4 N -0.3197(4) 1.6483(9) 0.5271(4)
N5 N -0.3554(3) 1.6015(8) 0.4289(4)
N6 N -0.2981(5) 1.7158(12) 0.5035(5)
N7 N -0.1534(4) 1.2919(9) 0.6821(4)
N8 N -0.1268(4) 1.134(1) 0.6570(4)
N9 N -0.1586(5) 1.3183(11) 0.6249(5)
O23 O -0.0490(3) 1.0353(9) 0.6390(4)
O24 O -0.0604(4) 0.7910(9) 0.6830(4)
O25 O -0.0475(3) 0.9966(9) 0.7604(4)
O26 O -0.0331(7) 1.2838(17) 0.6865(7)
O1D O 0.0487(5) 0.5211(12) 0.5086(6)
O2D O -0.0070(5) 0.5765(12) 0.5467(6)
O3D O -0.0052(5) 0.3634(12) 0.5100(6)
O4D O 0.0373(5) 0.4665(12) 0.5653(6)
W1D W -0.07645(2) 0.27987(5) 0.49925(2)
W2D W -0.04469(2) 0.43890(5) 0.34299(2)
W3D W -0.12160(2) 0.52371(5) 0.39660(2)
W4D W -0.04401(2) 0.73558(5) 0.39235(2)
W5D W 0.00471(2) 0.20508(5) 0.45176(2)
W6D W 0.07737(2) 0.43209(5) 0.44533(2)
O5D O -0.1184(4) 0.3633(8) 0.4283(4)
O6D O 0.0558(4) 0.2726(10) 0.4503(5)
O7D O -0.0858(4) 0.4001(8) 0.5474(4)
O8D O -0.0395(3) 0.8158(12) 0.4625(4)
O9D O -0.1024(5) 0.4484(8) 0.3431(6)
O10D O -0.1036(5) 0.6747(8) 0.3801(6)
O11D O -0.0360(3) 0.2806(10) 0.3722(5)
O12D O 0.0207(4) 0.4505(9) 0.3698(5)
O13D O -0.0519(4) 0.1958(12) 0.4569(4)
O14D O -0.0211(3) 0.2382(13) 0.5752(4)
O15D O 0.1130(4) 0.396(1) 0.4175(5)
O16D O -0.0448(4) 0.6129(8) 0.3401(6)
O17D O -0.1194(4) 0.5851(8) 0.4683(4)
O18D O 0.0077(3) 0.0654(8) 0.4269(5)
O19D O -0.0667(4) 0.4080(9) 0.2663(4)
O20D O -0.1137(3) 0.1745(8) 0.5007(4)
O21D O -0.0652(3) 0.8517(8) 0.3400(4)
O22D O -0.1801(3) 0.5313(9) 0.3463(4)
Co1C Co -0.40190(6) 1.45906(15) 0.83623(7)
Co1F Co -0.40190(6) 1.54094(15) 0.33623(7)
N1C N -0.1434(4) 0.8963(9) 0.6973(4)
N5F N -0.1446(3) 0.8985(8) 0.5711(4)
#END
