
#######################################################################
#
#                 Cambridge Crystallographic Data Centre
#                                CCDC
#
#######################################################################
#
# If this CIF has been generated from an entry in the Cambridge
# Structural Database, then it will include bibliographic, chemical,
# crystal, experimental, refinement or atomic coordinate data resulting
# from the CCDC's data processing and validation procedures.
#
#######################################################################

data_CSD_CIF_YABKEU
_audit_creation_date 2015-11-10
_audit_creation_method CSD-ConQuest-V1
_database_code_CSD YABKEU
_database_code_depnum_ccdc_archive 'CCDC 1023321'
_chemical_formula_sum 'C64 H63 Eu3 N4 O31'
_chemical_formula_moiety
;
(C48 H24 Eu3 O26 1-)n,n(H3 O1 1+),4n(C4 H9 N1 O1)
;
_journal_coden_Cambridge 1699
_journal_volume 3
_journal_year 2015
_journal_page_first 24016
_journal_name_full 'J.Mater.Chem.A '
loop_
_publ_author_name
"Qingguo Meng"
"Xuelian Xin"
"Liangliang Zhang"
"Fangna Dai"
"Rongming Wang"
"Daofeng Sun"
_chemical_name_systematic
;
catena-[oxonium 
bis(\m-3,3',5,5'-biphenyltetracarboxylato)-(\m-5'-carboxy-3,3',5-biphenyltrica
rboxylato)-diaqua-tri-europium N,N-dimethylacetamide solvate]
;
_chemical_name_common
;
UPC-5
;
_cell_volume   1615.616
_exptl_crystal_colour 'colorless'
_exptl_crystal_description 'block'
_diffrn_ambient_temperature 293
_refine_special_details
;
Disordered oxonium ions and N,N-dimethylacetamide solvent molecules were not 
modelled and the disordered density was taken into account using the 
SQUEEZE/PLATON procedure.
;
#These two values have been output from a single CSD field.
_refine_ls_R_factor_gt 0.0321
_refine_ls_wR_factor_gt 0.0321
_symmetry_cell_setting triclinic
_symmetry_space_group_name_H-M 'P -1'
_symmetry_Int_Tables_number 2
loop_
_symmetry_equiv_pos_site_id
_symmetry_equiv_pos_as_xyz
1 x,y,z
2 -x,-y,-z
_cell_length_a 11.6692(4)
_cell_length_b 12.2365(4)
_cell_length_c 13.6586(6)
_cell_angle_alpha 65.229(4)
_cell_angle_beta 67.518(4)
_cell_angle_gamma 88.435(3)
_cell_formula_units_Z 1
loop_
_atom_type_symbol
_atom_type_radius_bond
C 0.68
H 0.23
Eu 1.98
O 0.68
loop_
_atom_site_label
_atom_site_type_symbol
_atom_site_fract_x
_atom_site_fract_y
_atom_site_fract_z
Eu1 Eu 0.50000 0.50000 0.50000
Eu2 Eu 0.43318(2) 1.33010(2) 0.32575(2)
O1 O 0.6532(4) 1.4051(4) 0.1933(4)
H1 H 0.71160 1.42560 0.21160
H2 H 0.68760 1.41620 0.11920
O2 O 0.4768(4) 0.5312(3) 0.3092(3)
O3 O 0.5374(4) 0.6890(3) 0.3203(3)
O4 O 0.4345(3) 0.6559(3) 0.5569(3)
O5 O 0.4826(4) 0.8315(3) 0.5510(4)
O6 O 0.4973(5) 0.8002(4) -0.2209(4)
O7 O 0.5550(4) 0.6290(3) -0.1284(3)
O8 O 0.1420(5) 1.1657(4) 0.3191(4)
O9 O 0.2655(4) 1.1731(3) 0.4049(4)
O10 O 0.2668(4) 0.4423(3) 0.2942(4)
O11 O 0.0827(4) 0.3671(4) 0.3129(4)
H3 H 0.12250 0.31530 0.29860
O12 O -0.2834(4) 0.5484(4) 0.4230(4)
O13 O -0.2893(4) 0.6918(4) 0.4816(3)
C1 C 0.5091(5) 0.6436(5) 0.2645(5)
C2 C 0.5075(5) 0.7265(5) 0.1473(5)
C3 C 0.5039(6) 0.8520(5) 0.1184(5)
H4 H 0.50160 0.87900 0.17330
C4 C 0.5035(6) 0.9353(5) 0.0128(5)
C5 C 0.5096(6) 0.8913(5) -0.0676(5)
H5 H 0.51220 0.94560 -0.14090
C6 C 0.5119(6) 0.7678(5) -0.0421(5)
C7 C 0.5207(6) 0.7291(5) -0.1345(5)
C8 C 0.5105(5) 0.6850(5) 0.0663(5)
H6 H 0.51150 0.60300 0.08410
C9 C 0.4240(5) 0.7688(5) 0.5281(5)
C10 C 0.3356(5) 0.8219(5) 0.4708(5)
C11 C 0.3180(5) 0.9418(5) 0.4429(5)
H7 H 0.36470 0.99100 0.45550
C12 C 0.2308(5) 0.9887(5) 0.3962(5)
C13 C 0.2113(6) 1.1190(5) 0.3712(5)
C14 C 0.1619(5) 0.9166(5) 0.3766(5)
H8 H 0.10260 0.94850 0.34680
C15 C 0.1797(5) 0.7975(5) 0.4006(5)
C16 C 0.2657(5) 0.7500(5) 0.4501(5)
H9 H 0.27640 0.66910 0.46950
C17 C 0.1060(5) 0.7167(5) 0.3818(5)
C18 C -0.0223(5) 0.7180(5) 0.4067(5)
H10 H -0.06250 0.77470 0.43080
C19 C -0.0896(5) 0.6356(5) 0.3959(5)
C20 C -0.2312(5) 0.6269(5) 0.4359(5)
C21 C -0.0317(5) 0.5501(5) 0.3594(5)
H11 H -0.07740 0.49600 0.35100
C22 C 0.0943(5) 0.5460(5) 0.3358(5)
C23 C 0.1559(5) 0.4461(5) 0.3110(5)
C24 C 0.1638(5) 0.6297(5) 0.3454(5)
H12 H 0.24890 0.62790 0.32750
O2A O 0.5232(4) 1.4688(3) -0.3092(3)
O3A O 0.4626(4) 1.3110(3) -0.3203(3)
O6A O 0.5027(5) 1.1998(4) 0.2209(4)
O7A O 0.4450(4) 1.3710(3) 0.1284(3)
C1A C 0.4909(5) 1.3564(5) -0.2645(5)
C2A C 0.4925(5) 1.2735(5) -0.1473(5)
C3A C 0.4961(6) 1.1480(5) -0.1184(5)
H4A H 0.49840 1.12100 -0.17330
C4A C 0.4965(6) 1.0647(5) -0.0128(5)
C5A C 0.4904(6) 1.1087(5) 0.0676(5)
H5A H 0.48780 1.05440 0.14090
C6A C 0.4881(6) 1.2322(5) 0.0421(5)
C7A C 0.4793(6) 1.2709(5) 0.1345(5)
C8A C 0.4895(5) 1.3150(5) -0.0663(5)
H6A H 0.48850 1.39700 -0.08410
Eu2A Eu -0.43318(2) -0.33010(2) 0.67425(2)
O1A O -0.6532(4) -0.4051(4) 0.8067(4)
H1A H -0.71160 -0.42560 0.78840
H2A H -0.68760 -0.41620 0.88080
O4A O -0.4345(3) 0.3441(3) 0.4431(3)
O5A O -0.4826(4) 0.1685(3) 0.4490(4)
O8A O -0.1420(5) -0.1657(4) 0.6809(4)
O9A O -0.2655(4) -0.1731(3) 0.5951(4)
O10A O -0.2668(4) 0.5577(3) 0.7058(4)
O11A O -0.0827(4) 0.6329(4) 0.6871(4)
H3A H -0.12250 0.68470 0.70140
O12A O 0.2834(4) 0.4516(4) 0.5770(4)
O13A O 0.2893(4) 0.3082(4) 0.5184(3)
C9A C -0.4240(5) 0.2312(5) 0.4719(5)
C10A C -0.3356(5) 0.1781(5) 0.5292(5)
C11A C -0.3180(5) 0.0582(5) 0.5571(5)
H7A H -0.36470 0.00900 0.54450
C12A C -0.2308(5) 0.0113(5) 0.6038(5)
C13A C -0.2113(6) -0.1190(5) 0.6288(5)
C14A C -0.1619(5) 0.0834(5) 0.6234(5)
H8A H -0.10260 0.05150 0.65320
C15A C -0.1797(5) 0.2025(5) 0.5994(5)
C16A C -0.2657(5) 0.2500(5) 0.5499(5)
H9A H -0.27640 0.33090 0.53050
C17A C -0.1060(5) 0.2833(5) 0.6182(5)
C18A C 0.0223(5) 0.2820(5) 0.5933(5)
H10A H 0.06250 0.22530 0.56920
C19A C 0.0896(5) 0.3644(5) 0.6041(5)
C20A C 0.2312(5) 0.3731(5) 0.5641(5)
C21A C 0.0317(5) 0.4499(5) 0.6406(5)
H11A H 0.07740 0.50400 0.64900
C22A C -0.0943(5) 0.4540(5) 0.6642(5)
C23A C -0.1559(5) 0.5539(5) 0.6890(5)
C24A C -0.1638(5) 0.3703(5) 0.6546(5)
H12A H -0.24890 0.37210 0.67250
Eu1* Eu -0.50000 0.50000 0.50000
Eu1** Eu 0.50000 1.50000 -0.50000
Eu2* Eu -0.56682(2) 0.33010(2) 0.32575(2)
Eu2** Eu 0.43318(2) 0.33010(2) 0.32575(2)
Eu2A* Eu -0.43318(2) 0.66990(2) 0.67425(2)
Eu2A** Eu 0.56682(2) 0.66990(2) -0.32575(2)
Eu2A*** Eu 0.56682(2) 0.66990(2) 0.67425(2)
Eu2A**** Eu 0.56682(2) 1.66990(2) -0.32575(2)
O2* O 0.4768(4) 1.5312(3) 0.3092(3)
O2A* O -0.4768(4) -0.5312(3) 0.6908(3)
O2A** O 0.5232(4) 0.4688(3) 0.6908(3)
O3A* O 0.4626(4) 0.3110(3) 0.6797(3)
O4* O -0.5655(3) -0.3441(3) 0.5569(3)
O4A* O 0.5655(3) 0.3441(3) 0.4431(3)
O4A** O 0.5655(3) 1.3441(3) 0.4431(3)
O5* O -0.5174(4) -0.1685(3) 0.5510(4)
O5A* O 0.5174(4) 1.1685(3) 0.4490(4)
O6* O -0.5027(5) -0.1998(4) 0.7791(4)
O7* O -0.4450(4) -0.3710(3) 0.8716(3)
O10* O 0.2668(4) 1.4423(3) 0.2942(4)
O10A* O -0.2668(4) -0.4423(3) 0.7058(4)
O12* O 0.7166(4) 0.5484(4) 0.4230(4)
O13* O -0.2893(4) -0.3082(4) 0.4816(3)
O13A* O 0.2893(4) 1.3082(4) 0.5184(3)
#END
