
#######################################################################
#
#                 Cambridge Crystallographic Data Centre
#                                CCDC
#
#######################################################################
#
# If this CIF has been generated from an entry in the Cambridge
# Structural Database, then it will include bibliographic, chemical,
# crystal, experimental, refinement or atomic coordinate data resulting
# from the CCDC's data processing and validation procedures.
#
#######################################################################

data_CSD_CIF_YABREA
_audit_creation_date 2011-12-21
_audit_creation_method CSD-ConQuest-V1
_database_code_CSD YABREA
_database_code_depnum_ccdc_archive 'CCDC 833147'
_chemical_formula_sum 'C24 H52 Na1 O43.5 Pb5'
_chemical_formula_moiety
;
(C24 H27 O31 Pb5 1-)n,n(Na1 1+),12.5n(H2 O1)
;
_journal_coden_Cambridge 155
_journal_volume 378
_journal_year 2011
_journal_page_first 186
_journal_name_full 'Inorg.Chim.Acta '
loop_
_publ_author_name
"C.Chu"
"K.Darling"
"R.Netusil"
"R.P.Doyle"
"J.Zubieta"
_chemical_name_systematic
;
catena-[Sodium bis(\m~7~-citrato)-(\m~5~-citrato)-(\m~3~-hydrogen 
citrato)-triaqua-penta-lead hydrate]
;
_cell_volume   2265.777
_exptl_crystal_colour 'colorless'
_exptl_crystal_density_diffrn 3.072
_exptl_crystal_description 'plate'
_diffrn_ambient_temperature 98
#These two values have been output from a single CSD field.
_refine_ls_R_factor_gt 0.0464
_refine_ls_wR_factor_gt 0.0464
_symmetry_cell_setting triclinic
_symmetry_space_group_name_H-M 'P -1'
_symmetry_Int_Tables_number 2
loop_
_symmetry_equiv_pos_site_id
_symmetry_equiv_pos_as_xyz
1 x,y,z
2 -x,-y,-z
_cell_length_a 11.3477(10)
_cell_length_b 13.2098(12)
_cell_length_c 16.4803(15)
_cell_angle_alpha 73.889(2)
_cell_angle_beta 88.852(2)
_cell_angle_gamma 73.087(2)
_cell_formula_units_Z 2
loop_
_atom_type_symbol
_atom_type_radius_bond
C 0.64
H 0.23
Na 0.93
O 0.89
Pb 1.91
loop_
_atom_site_label
_atom_site_type_symbol
_atom_site_fract_x
_atom_site_fract_y
_atom_site_fract_z
Pb1 Pb 0.38003(3) 0.69983(3) -0.178920(17)
Pb2 Pb 0.29814(3) 0.54749(3) 0.049749(17)
Pb3 Pb 0.69159(3) 0.50364(3) 0.459731(17)
Pb4 Pb 0.39518(3) 0.57610(3) 0.289423(18)
Pb5 Pb 0.97210(3) 0.63740(3) 0.364589(19)
Na1 Na 0.4778(5) 0.9018(5) 0.1835(3)
O1 O 0.4844(6) 0.6306(5) -0.0298(3)
O2 O 0.4483(6) 0.8107(5) -0.0885(4)
O3 O 0.4793(5) 0.7248(5) 0.1586(3)
H1 H 0.41480 0.72090 0.13720
O4 O 0.6294(6) 0.5322(5) 0.2927(3)
O5 O 0.7602(6) 0.6155(5) 0.3224(3)
O6 O 0.6706(5) 0.4785(5) 0.1157(3)
O7 O 0.4783(5) 0.5233(5) 0.1564(3)
O8 O 0.2162(6) 0.7191(5) -0.0847(3)
O9 O 0.1624(7) 0.8932(6) -0.1604(4)
O10 O 0.0729(6) 0.6645(5) 0.0606(4)
H2 H 0.01130 0.65350 0.04120
O11 O 0.2688(5) 0.7192(5) 0.0962(4)
O12 O 0.1589(6) 0.8915(6) 0.0894(4)
H3 H 0.08600 0.93180 0.07510
O13 O 0.0266(6) 0.6907(6) 0.2172(4)
O14 O -0.1407(7) 0.8235(6) 0.2246(4)
O15 O 0.7613(6) 0.5146(5) -0.2035(3)
O16 O 0.6517(6) 0.6698(5) -0.1765(4)
O17 O 0.9550(5) 0.5321(5) -0.2902(3)
H4 H 0.91900 0.50250 -0.24950
O18 O 1.1601(6) 0.6480(6) -0.4071(4)
O19 O 1.0521(5) 0.5670(5) -0.4637(3)
O20 O 0.7432(7) 0.6530(6) -0.4720(4)
O21 O 0.8052(6) 0.4856(5) -0.3866(3)
O22 O 0.5234(6) 0.6278(6) -0.3224(3)
O23 O 0.5030(6) 0.5660(5) -0.4312(3)
O24 O 0.5182(7) 0.8263(6) -0.5423(4)
H5 H 0.53900 0.83410 -0.59240
O25 O 0.3469(8) 0.9043(7) -0.7131(5)
O26 O 0.2327(11) 1.0597(8) -0.6870(5)
O27 O 0.4971(7) 0.6798(6) -0.6192(4)
O28 O 0.3073(6) 0.6844(6) -0.5805(4)
O29 O 0.1750(7) 0.7196(7) -0.2665(4)
H6 H 0.18770 0.66640 -0.28830
H7 H 0.11670 0.71800 -0.23340
O30 O 0.1476(6) 0.4311(6) 0.0200(4)
H8 H 0.16210 0.37060 0.05910
H9 H 0.07270 0.46870 0.01940
O31 O 1.0644(7) 0.7836(7) 0.3777(5)
H10 H 1.14020 0.75420 0.39430
H11 H 1.05760 0.83120 0.32980
O32 O 0.6150(7) 0.8580(6) 0.2953(4)
H12 H 0.61710 0.91690 0.30590
H13 H 0.59230 0.81690 0.33830
O33 O 0.3296(7) 1.0054(6) 0.0689(4)
H14 H 0.31360 1.07360 0.06510
H15 H 0.35820 0.99370 0.02320
O34 O 0.6232(9) 0.9710(7) 0.1045(5)
H16 H 0.62220 1.03160 0.11330
H17 H 0.69440 0.92480 0.11930
C1 C 0.5004(7) 0.7238(7) -0.0322(5)
C2 C 0.5944(8) 0.7258(7) 0.0320(5)
H18 H 0.58610 0.80380 0.02800
H19 H 0.67820 0.69290 0.01560
C3 C 0.5841(8) 0.6654(7) 0.1245(5)
C4 C 0.6967(8) 0.6567(7) 0.1769(4)
H20 H 0.70190 0.73170 0.17150
H21 H 0.77170 0.61630 0.15430
C5 C 0.6935(8) 0.5967(8) 0.2713(5)
C6 C 0.5764(8) 0.5462(7) 0.1328(4)
C7 C 0.1444(8) 0.8173(7) -0.1020(5)
C8 C 0.0346(9) 0.8372(7) -0.0497(5)
H22 H -0.02960 0.81360 -0.07280
H23 H 0.00130 0.91780 -0.05860
C9 C 0.0516(8) 0.7821(7) 0.0456(5)
C10 C 0.1700(8) 0.7997(8) 0.0802(5)
C11 C -0.0599(8) 0.8286(7) 0.0890(5)
H24 H -0.13270 0.81990 0.06270
H25 H -0.07230 0.90870 0.07770
C12 C -0.0574(9) 0.7791(8) 0.1834(5)
C13 C 0.7238(8) 0.6199(8) -0.2206(5)
C14 C 0.7712(8) 0.6884(7) -0.2959(5)
H26 H 0.69940 0.73660 -0.33530
H27 H 0.80820 0.73700 -0.27570
C15 C 0.8664(8) 0.6264(7) -0.3463(4)
C16 C 0.9411(8) 0.7015(7) -0.3944(5)
H28 H 0.96240 0.74170 -0.35710
H29 H 0.89000 0.75670 -0.44410
C17 C 1.0594(9) 0.6354(7) -0.4241(5)
C18 C 0.8009(8) 0.5865(7) -0.4068(5)
C19 C 0.4801(8) 0.6435(8) -0.3967(5)
C20 C 0.3889(10) 0.7509(8) -0.4402(5)
H30 H 0.39270 0.80500 -0.40990
H31 H 0.30540 0.74140 -0.43470
C21 C 0.4045(9) 0.8005(8) -0.5349(5)
C22 C 0.2987(11) 0.9045(9) -0.5700(6)
H32 H 0.22010 0.88680 -0.55780
H33 H 0.30240 0.95890 -0.53990
C23 C 0.2974(11) 0.9564(10) -0.6624(7)
C24 C 0.4054(9) 0.7141(8) -0.5815(5)
Pb1A Pb 0.61997(3) 0.30017(3) 0.178920(17)
Pb2A Pb 0.70186(3) 0.45251(3) -0.049749(17)
Pb3A Pb 0.30841(3) 0.49636(3) 0.540269(17)
Pb3A* Pb 1.30841(3) 0.49636(3) -0.459731(17)
Pb3* Pb 0.69159(3) 0.50364(3) -0.540269(17)
Pb3A** Pb 0.30841(3) 0.49636(3) -0.459731(17)
Pb4A Pb 0.60482(3) 0.42390(3) 0.710577(18)
Pb4A* Pb 0.60482(3) 0.42390(3) -0.289423(18)
Pb4* Pb 0.39518(3) 0.57610(3) -0.710577(18)
Pb5* Pb -0.02790(3) 0.63740(3) 0.364589(19)
Pb5A Pb 1.02790(3) 0.36260(3) -0.364589(19)
Pb5** Pb 0.97210(3) 0.63740(3) -0.635411(19)
O1A O 0.5156(6) 0.3694(5) 0.0298(3)
O6A O 0.3294(5) 0.5215(5) -0.1157(3)
O7A O 0.5217(5) 0.4767(5) -0.1564(3)
O13* O 1.0266(6) 0.6907(6) 0.2172(4)
O14* O 0.8593(7) 0.8235(6) 0.2246(4)
O15A O 0.2387(6) 0.4854(5) 0.2035(3)
O16A O 0.3483(6) 0.3302(5) 0.1765(4)
O17A O 1.0450(5) 0.4679(5) 0.2902(3)
H4A H 1.08100 0.49750 0.24950
O18A O 0.8399(6) 0.3520(6) 0.4071(4)
O19A O 0.9479(5) 0.4330(5) 0.4637(3)
O19* O 1.0521(5) 0.5670(5) 0.5363(3)
O20* O 0.7432(7) 0.6530(6) 0.5280(4)
O21* O 0.8052(6) 0.4856(5) 0.6134(3)
O21A O 0.1948(6) 0.5144(5) 0.3866(3)
O21A* O 1.1948(6) 0.5144(5) 0.3866(3)
O22A O 0.4766(6) 0.3722(6) 0.3224(3)
O23* O 0.5030(6) 0.5660(5) 0.5688(3)
O23A O 0.4970(6) 0.4340(5) 0.4312(3)
O27* O 0.4971(7) 0.6798(6) 0.3808(4)
O28A O 0.6927(6) 0.3156(6) 0.5805(4)
O28* O 0.3073(6) 0.6844(6) 0.4195(4)
C19A C 0.5199(8) 0.3565(8) 0.3967(5)
#END
