
#######################################################################
#
#                 Cambridge Crystallographic Data Centre
#                                CCDC
#
#######################################################################
#
# If this CIF has been generated from an entry in the Cambridge
# Structural Database, then it will include bibliographic, chemical,
# crystal, experimental, refinement or atomic coordinate data resulting
# from the CCDC's data processing and validation procedures.
#
#######################################################################

data_CSD_CIF_YAKHID
_audit_creation_date 2011-12-12
_audit_creation_method CSD-ConQuest-V1
_database_code_CSD YAKHID
_database_code_depnum_ccdc_archive 'CCDC 809898'
_chemical_formula_sum 'C74 H78 In10 N16 Ni2 O4 S19'
_chemical_formula_moiety
;
(C30 H24 N6 Ni1 2+)2n,n(H2 In10 S19 6-),2n(H2 O1),2n(C2 H8 N1 O1 1+),n(C10 H8 
N2)
;
_journal_coden_Cambridge 222
_journal_volume 40
_journal_year 2011
_journal_page_first 9746
_journal_name_full 'Dalton Trans. '
loop_
_publ_author_name
"Ya-Ping Zhang"
"Xu Zhang"
"Wen-Qin Mu"
"Wen Lu"
"Guo-Qing Bian"
"Qin-Yu Zhu"
"Jie Dai"
_chemical_name_systematic
;
catena-(bis(tris(2,2'-bipyridine)-nickel(ii)) bis(2-hydroxyethanaminium) 
tetrakis(\m~3~-sulfido)-trideca(\m~2~-sulfido)-bis(hydrogen 
sulfido)-deca-indium 2,2'-bipyridine solvate dihydrate)
;
_cell_volume  23941.382
_exptl_crystal_colour 'red'
_exptl_crystal_density_diffrn 1.759
_exptl_special_details
;
The hydride ligand was not located

;
_diffrn_ambient_temperature 223
_refine_special_details
;
The disordered 2-hydroxyethanaminium and water solvent molecules were not 
modelled and the disordered density was taken into account us ing the 
SQUEEZE/PLATON procedure.
;
#These two values have been output from a single CSD field.
_refine_ls_R_factor_gt 0.0987
_refine_ls_wR_factor_gt 0.0987
_symmetry_cell_setting orthorhombic
_symmetry_space_group_name_H-M 'P b c n'
_symmetry_Int_Tables_number 60
loop_
_symmetry_equiv_pos_site_id
_symmetry_equiv_pos_as_xyz
1 x,y,z
2 1/2-x,1/2-y,1/2+z
3 1/2+x,1/2-y,-z
4 -x,y,1/2-z
5 -x,-y,-z
6 -1/2+x,-1/2+y,-1/2-z
7 -1/2-x,-1/2+y,z
8 x,-y,-1/2+z
_cell_length_a 43.056(4)
_cell_length_b 28.770(2)
_cell_length_c 19.3275(17)
_cell_angle_alpha 90
_cell_angle_beta 90
_cell_angle_gamma 90
_cell_formula_units_Z 8
loop_
_atom_type_symbol
_atom_type_radius_bond
C 0.68
H 0.23
In 1.42
N 0.68
Ni 1.24
S 1.02
loop_
_atom_site_label
_atom_site_type_symbol
_atom_site_fract_x
_atom_site_fract_y
_atom_site_fract_z
In1 In 0.12139(2) 0.08797(3) 0.17483(5)
In2 In 0.09626(2) 0.19286(4) 0.06646(6)
In3 In 0.17374(2) 0.11677(4) 0.01888(5)
In4 In 0.17236(2) 0.19763(4) 0.19278(5)
In5 In 0.07707(3) 0.30069(4) -0.04148(6)
In6 In 0.14963(2) 0.23066(4) -0.09735(5)
In7 In 0.14859(2) 0.31138(4) 0.07703(6)
In8 In 0.22455(2) 0.16138(4) -0.13864(5)
In9 In 0.22617(2) 0.23480(4) 0.03022(5)
In10 In 0.22191(2) 0.31272(4) 0.19428(5)
Ni1 Ni 0.09284(4) 0.10515(6) 0.50609(9)
Ni2 Ni 0.09768(7) 0.39055(8) -0.47996(14)
S1 S 0.09496(9) 0.02459(13) 0.2393(2)
S2 S 0.07563(9) 0.12924(13) 0.1328(2)
S3 S 0.15341(8) 0.05219(13) 0.08466(18)
S4 S 0.15273(9) 0.13204(14) 0.25745(19)
S5 S 0.05315(9) 0.23763(15) 0.0231(2)
S6 S 0.12907(8) 0.16242(13) -0.03017(19)
S7 S 0.12774(8) 0.24415(13) 0.14524(19)
S8 S 0.20546(9) 0.09192(15) -0.0772(2)
S9 S 0.20575(8) 0.16719(14) 0.09731(18)
S10 S 0.20185(9) 0.24902(14) 0.26692(19)
S11 S 0.03176(12) 0.34378(18) -0.0873(3)
S12 S 0.10577(11) 0.27351(16) -0.1420(2)
S13 S 0.10532(10) 0.35485(15) 0.0315(3)
S14 S 0.18264(11) 0.20668(16) -0.1915(2)
S15 S 0.18170(9) 0.28096(14) -0.0188(2)
S16 S 0.18015(9) 0.36121(14) 0.1466(2)
S17 S 0.25870(9) 0.20773(17) -0.0635(2)
S18 S 0.25745(8) 0.28164(15) 0.1068(2)
S19 S 0.24742(9) 0.37266(15) 0.2643(2)
N1 N 0.1274(2) 0.1009(4) 0.5796(6)
N2 N 0.1236(2) 0.1552(4) 0.4732(6)
N3 N 0.0675(3) 0.1562(4) 0.5578(6)
N4 N 0.0584(2) 0.1203(4) 0.4339(5)
N5 N 0.0656(3) 0.0495(5) 0.5394(6)
N6 N 0.1125(3) 0.0511(4) 0.4507(6)
N7 N 0.1235(4) 0.3381(5) -0.4281(8)
N8 N 0.1229(5) 0.4437(6) -0.4341(13)
N9 N 0.5306(5) 0.4151(6) 0.2269(10)
C1 C 0.1277(3) 0.0719(5) 0.6320(9)
H1 H 0.11230 0.04860 0.63400
C2 C 0.1500(3) 0.0740(6) 0.6857(8)
H2 H 0.14950 0.05280 0.72280
C3 C 0.1717(4) 0.1068(7) 0.6820(9)
H3 H 0.18590 0.11050 0.71840
C4 C 0.1733(3) 0.1354(6) 0.6250(9)
H4 H 0.18990 0.15640 0.61930
C5 C 0.1499(3) 0.1323(5) 0.5765(8)
C6 C 0.1208(3) 0.1819(5) 0.4159(8)
H5 H 0.10320 0.17770 0.38770
C7 C 0.1419(4) 0.2145(6) 0.3971(8)
H6 H 0.13860 0.23290 0.35760
C8 C 0.1679(4) 0.2200(6) 0.4361(9)
H7 H 0.18300 0.24210 0.42380
C9 C 0.1718(4) 0.1924(5) 0.4950(9)
H8 H 0.19010 0.19510 0.52120
C10 C 0.1496(3) 0.1616(5) 0.5147(7)
C11 C 0.0741(4) 0.1774(7) 0.6172(9)
H9 H 0.09210 0.16730 0.64050
C12 C 0.0579(5) 0.2116(9) 0.6470(12)
H10 H 0.06340 0.22380 0.69050
C13 C 0.0330(6) 0.2279(9) 0.6109(13)
H11 H 0.02200 0.25390 0.62750
C14 C 0.0238(5) 0.2072(7) 0.5515(12)
H12 H 0.00520 0.21630 0.52950
C15 C 0.0424(3) 0.1719(6) 0.5233(10)
C16 C 0.0557(3) 0.1001(5) 0.3711(7)
H13 H 0.07120 0.07920 0.35640
C17 C 0.0312(3) 0.1092(6) 0.3282(9)
H14 H 0.03040 0.09560 0.28400
C18 C 0.0074(4) 0.1385(6) 0.3495(9)
H15 H -0.01020 0.14390 0.32190
C19 C 0.0110(3) 0.1594(6) 0.4129(11)
H16 H -0.00390 0.18110 0.42780
C20 C 0.0359(3) 0.1491(5) 0.4552(8)
C21 C 0.0413(4) 0.0515(7) 0.5842(9)
H17 H 0.03680 0.08030 0.60490
C22 C 0.0232(5) 0.0146(9) 0.6011(12)
H18 H 0.00650 0.01800 0.63200
C23 C 0.0297(5) -0.0266(10) 0.5731(14)
H19 H 0.01760 -0.05260 0.58540
C24 C 0.0542(5) -0.0321(6) 0.5253(11)
H20 H 0.05830 -0.06070 0.50370
C25 C 0.0727(4) 0.0092(5) 0.5116(8)
C26 C 0.1365(3) 0.0531(6) 0.4069(7)
H21 H 0.14530 0.08240 0.39750
C27 C 0.1491(4) 0.0147(6) 0.3745(9)
H22 H 0.16570 0.01790 0.34310
C28 C 0.1369(4) -0.0288(6) 0.3896(9)
H23 H 0.14560 -0.05590 0.37040
C29 C 0.1113(4) -0.0315(5) 0.4338(9)
H24 H 0.10230 -0.06050 0.44380
C30 C 0.0993(3) 0.0081(5) 0.4628(8)
N10 N 0.0719(5) 0.3831(8) -0.3952(8)
C31 C 0.0464(6) 0.4030(12) -0.3785(14)
H25 H 0.03720 0.42110 -0.41340
C32 C 0.0311(7) 0.4017(13) -0.3181(15)
H26 H 0.01500 0.42220 -0.30610
C33 C 0.0423(7) 0.3654(13) -0.2743(15)
H27 H 0.03190 0.36010 -0.23230
C34 C 0.0679(6) 0.3373(12) -0.2899(13)
H28 H 0.07470 0.31220 -0.26260
C35 C 0.0811(6) 0.3504(12) -0.3470(12)
C36 C 0.1501(7) 0.3179(9) -0.4457(14)
H29 H 0.15830 0.32560 -0.48920
C37 C 0.1661(7) 0.2881(10) -0.4084(13)
H30 H 0.18560 0.27760 -0.42370
C38 C 0.1540(9) 0.2725(11) -0.3470(17)
H31 H 0.16450 0.24950 -0.32160
C39 C 0.1232(7) 0.2928(9) -0.3197(16)
H32 H 0.11360 0.28320 -0.27830
C40 C 0.1101(7) 0.3297(7) -0.3670(11)
N11 N 0.0714(5) 0.3432(7) -0.5348(11)
C41 C 0.0436(7) 0.3284(9) -0.5166(15)
H33 H 0.03410 0.33650 -0.47450
C42 C 0.0282(8) 0.2969(10) -0.5699(16)
H34 H 0.00700 0.28920 -0.56610
C43 C 0.0453(8) 0.2805(11) -0.6220(16)
H35 H 0.03770 0.25480 -0.64660
C44 C 0.0716(8) 0.2975(11) -0.6409(17)
H36 H 0.08200 0.29010 -0.68230
C45 C 0.0830(7) 0.3297(10) -0.5896(17)
N12 N 0.1262(6) 0.3835(8) -0.5654(11)
C46 C 0.1544(8) 0.4051(11) -0.5698(16)
H37 H 0.16030 0.42680 -0.53600
C47 C 0.1751(9) 0.3945(12) -0.6261(17)
H38 H 0.19360 0.41070 -0.63520
C48 C 0.1641(8) 0.3562(12) -0.6663(17)
H39 H 0.17890 0.34380 -0.69680
C49 C 0.1346(8) 0.3333(12) -0.6688(17)
H40 H 0.12920 0.31100 -0.70220
C50 C 0.1138(7) 0.3486(11) -0.6137(17)
N13 N 0.0750(6) 0.4485(7) -0.5193(14)
C51 C 0.0477(8) 0.4442(10) -0.5464(19)
H41 H 0.03830 0.41490 -0.55110
C52 C 0.0331(8) 0.4831(11) -0.568(2)
H42 H 0.01430 0.47950 -0.59160
C53 C 0.0435(9) 0.5278(11) -0.557(2)
H43 H 0.03320 0.55410 -0.57390
C54 C 0.0717(8) 0.5306(10) -0.516(2)
H44 H 0.07960 0.55960 -0.50240
C55 C 0.0882(7) 0.4862(9) -0.4975(18)
C56 C 0.1499(7) 0.4387(8) -0.3943(15)
H45 H 0.15680 0.40840 -0.38410
C57 C 0.1666(7) 0.4745(9) -0.3700(17)
H46 H 0.18450 0.47060 -0.34290
C58 C 0.1549(7) 0.5186(9) -0.3882(18)
H47 H 0.16430 0.54480 -0.36810
C59 C 0.1312(7) 0.5260(8) -0.4326(17)
H48 H 0.12520 0.55570 -0.44820
C60 C 0.1166(7) 0.4851(8) -0.4525(17)
C61 C 0.5153(4) 0.3746(7) 0.2334(9)
C62 C 0.5277(5) 0.3352(6) 0.2052(11)
H49 H 0.51750 0.30660 0.21130
C63 C 0.5547(6) 0.3365(8) 0.1683(14)
H50 H 0.56090 0.31100 0.14140
C64 C 0.5713(5) 0.3731(9) 0.1711(12)
H51 H 0.59180 0.37290 0.15450
C65 C 0.5589(7) 0.4122(9) 0.1985(13)
H52 H 0.57100 0.43940 0.19750
In8A In 0.27545(2) 0.33862(4) 0.36136(5)
S19A S 0.25258(9) 0.12734(15) -0.2357(2)
N9C N 0.4694(5) 0.4151(6) 0.2731(10)
C61C C 0.4847(4) 0.3746(7) 0.2666(9)
C62C C 0.4723(5) 0.3352(6) 0.2948(11)
H49C H 0.48250 0.30660 0.28870
C63C C 0.4453(6) 0.3365(8) 0.3317(14)
H50C H 0.43910 0.31100 0.35860
C64C C 0.4287(5) 0.3731(9) 0.3289(12)
H51C H 0.40820 0.37290 0.34550
C65C C 0.4411(7) 0.4122(9) 0.3015(13)
H52C H 0.42900 0.43940 0.30250
#END
