
#######################################################################
#
#                 Cambridge Crystallographic Data Centre
#                                CCDC
#
#######################################################################
#
# If this CIF has been generated from an entry in the Cambridge
# Structural Database, then it will include bibliographic, chemical,
# crystal, experimental, refinement or atomic coordinate data resulting
# from the CCDC's data processing and validation procedures.
#
#######################################################################

data_CSD_CIF_YAKHOJ
_audit_creation_date 2011-12-12
_audit_creation_method CSD-ConQuest-V1
_database_code_CSD YAKHOJ
_database_code_depnum_ccdc_archive 'CCDC 809899'
_chemical_formula_sum 'C286 H275 In40 N59 Ni7 O11 S74'
_chemical_formula_moiety
;
(H4 In40 S74 24-)n,7n(C30 H24 N6 Ni1 2+),7n(C10 H9 N2 1+),3n(C2 H8 N1 O1 
1+),8n(H2 O1)
;
_journal_coden_Cambridge 222
_journal_volume 40
_journal_year 2011
_journal_page_first 9746
_journal_name_full 'Dalton Trans. '
loop_
_publ_author_name
"Ya-Ping Zhang"
"Xu Zhang"
"Wen-Qin Mu"
"Wen Lu"
"Guo-Qing Bian"
"Qin-Yu Zhu"
"Jie Dai"
_chemical_name_systematic
;
catena-(heptakis(tris(2,2'-bipyridine)-nickel(ii)) 
heptakis(2-(pyridin-2-yl)pyridinium) tris(2-hydroxyethanaminium) 
hexadecakis(\m~3~-sulfido)-tetrapentacontakis(\m~2~-sulfido)-tetra(hydrogen 
sulfido)-tetraconta-indium octahydrate)
;
_cell_volume  23719.255
_exptl_crystal_colour 'pink'
_exptl_crystal_density_diffrn 1.693
_exptl_special_details
;
The hydride ligand was not located

;
_exptl_crystal_description 'platelet'
_diffrn_ambient_temperature 223
_refine_special_details
;
The disordered water solvent molecules were not modelled and the disordered 
density was taken into account using the SQUEEZE/PLATON procedure.
;
#These two values have been output from a single CSD field.
_refine_ls_R_factor_gt 0.0832
_refine_ls_wR_factor_gt 0.0832
_symmetry_cell_setting monoclinic
_symmetry_space_group_name_H-M 'C 2'
_symmetry_Int_Tables_number 5
loop_
_symmetry_equiv_pos_site_id
_symmetry_equiv_pos_as_xyz
1 x,y,z
2 -x,y,-z
3 1/2+x,1/2+y,z
4 1/2-x,1/2+y,-z
_cell_length_a 31.983(2)
_cell_length_b 20.9749(14)
_cell_length_c 35.380(2)
_cell_angle_alpha 90
_cell_angle_beta 92.042(2)
_cell_angle_gamma 90
_cell_formula_units_Z 2
loop_
_atom_type_symbol
_atom_type_radius_bond
C 0.68
H 0.23
In 1.42
N 0.68
Ni 1.24
O 0.68
S 1.02
loop_
_atom_site_label
_atom_site_type_symbol
_atom_site_fract_x
_atom_site_fract_y
_atom_site_fract_z
In1 In -0.25498(5) -0.09396(8) 0.15717(4)
In2 In -0.34660(5) -0.20958(7) 0.16899(4)
In3 In -0.35739(5) -0.05132(7) 0.10037(4)
In4 In -0.34461(4) -0.03334(7) 0.21679(4)
In5 In -0.44573(5) -0.31532(7) 0.17711(4)
In6 In -0.45765(5) -0.16668(7) 0.11220(4)
In7 In -0.44515(5) -0.14862(7) 0.22764(4)
In8 In -0.46588(5) -0.01371(7) 0.05119(4)
In9 In -0.45514(4) 0.00995(7) 0.16106(4)
In10 In -0.44297(4) 0.02372(6) 0.26992(4)
In11 In -0.25316(4) 0.41247(7) 0.35900(4)
In12 In -0.34419(4) 0.29484(7) 0.34599(4)
In13 In -0.34516(4) 0.47034(7) 0.29476(4)
In14 In -0.35441(4) 0.45685(7) 0.41213(4)
In15 In -0.44155(4) 0.18551(7) 0.33076(4)
In16 In -0.44455(4) 0.35019(7) 0.27967(4)
In17 In -0.45245(4) 0.33578(6) 0.39542(4)
In18 In -0.44425(4) 0.52260(6) 0.23513(4)
In19 In -0.45558(4) 0.50987(7) 0.34460(4)
In20 In -0.46256(4) 0.49207(6) 0.45313(4)
Ni1 Ni -0.62705(8) 0.66237(12) 0.33494(8)
Ni2 Ni 0.12922(9) 0.65893(14) 0.82602(9)
Ni3 Ni -0.19899(8) -0.25864(14) 0.38445(8)
Ni4 Ni 0.50000 -0.10033(17) 0.50000
S1 S -0.17877(18) -0.0816(4) 0.1482(2)
S2 S -0.27127(18) -0.2074(3) 0.16439(19)
S3 S -0.28191(19) -0.0446(3) 0.09816(17)
S4 S -0.26904(15) -0.0363(3) 0.21608(17)
S5 S -0.36901(17) -0.3173(3) 0.18180(17)
S6 S -0.37911(17) -0.1643(3) 0.10954(14)
S7 S -0.36704(16) -0.1472(3) 0.22583(15)
S8 S -0.38997(18) -0.0088(3) 0.04254(16)
S9 S -0.37717(16) 0.0116(3) 0.15737(14)
S10 S -0.36704(17) 0.0357(3) 0.26672(17)
S11 S -0.4767(2) -0.2773(3) 0.11720(15)
S12 S -0.47154(16) -0.2561(2) 0.23216(14)
S13 S -0.4921(2) -0.1225(3) 0.05735(16)
S14 S -0.47821(16) -0.1025(2) 0.16838(14)
S15 S -0.46283(17) -0.0872(3) 0.28286(14)
S16 S -0.50000 0.0453(4) 0.00000
S17 S -0.48315(18) 0.0564(3) 0.10380(15)
S18 S -0.48011(17) 0.0691(3) 0.21410(14)
S19 S -0.46809(17) 0.0771(2) 0.32608(15)
S20 S -0.17655(17) 0.4200(3) 0.3645(2)
S21 S -0.26881(16) 0.2992(2) 0.35220(17)
S22 S -0.26983(16) 0.4688(3) 0.30000(17)
S23 S -0.27867(16) 0.4611(3) 0.41722(16)
S24 S -0.36557(15) 0.1853(3) 0.33818(19)
S25 S -0.36667(15) 0.3562(3) 0.28716(15)
S26 S -0.37544(15) 0.3423(2) 0.40311(15)
S27 S -0.36725(16) 0.5378(2) 0.24309(15)
S28 S -0.37688(15) 0.5153(2) 0.35253(14)
S29 S -0.38611(16) 0.5011(3) 0.46650(15)
S30 S -0.46687(16) 0.2410(2) 0.27336(14)
S31 S -0.47109(17) 0.2252(2) 0.38987(15)
S32 S -0.46246(18) 0.4101(3) 0.22376(15)
S33 S -0.47714(15) 0.3952(2) 0.33738(13)
S34 S -0.48607(16) 0.3805(2) 0.44845(14)
S35 S -0.4729(2) 0.5769(3) 0.17928(16)
S36 S -0.47946(17) 0.5690(3) 0.29004(15)
S37 S -0.48110(18) 0.5608(2) 0.39895(16)
S38 S -0.50000 0.5510(4) 0.50000
N1 N -0.5684(4) 0.7074(8) 0.3342(5)
N2 N -0.6075(5) 0.5842(9) 0.3655(6)
N3 N 0.0724(5) 0.6977(8) 0.8287(5)
N4 N 0.1379(6) 0.7446(9) 0.7982(5)
N5 N 0.1916(5) 0.6241(11) 0.8208(6)
N6 N -0.1653(6) -0.2215(10) 0.4273(5)
N7 N -0.1436(5) -0.2499(8) 0.3598(5)
N8 N -0.2330(5) -0.2889(9) 0.3353(5)
N9 N -0.2509(5) -0.2793(9) 0.4171(5)
N10 N -0.1845(5) -0.3507(8) 0.4023(4)
N11 N 0.5274(5) -0.0906(7) 0.5549(4)
N12 N 0.5340(4) -0.1767(7) 0.4782(3)
N13 N -0.6860(5) 0.6293(9) 0.3263(5)
C1 C -0.7172(6) 0.6415(9) 0.3510(6)
H1 H -0.71020 0.65980 0.37460
C2 C -0.7635(6) 0.6260(11) 0.3409(7)
H2 H -0.78510 0.63140 0.35790
C3 C -0.7696(7) 0.6047(11) 0.3066(8)
H3 H -0.79760 0.59840 0.29840
C4 C -0.7369(8) 0.5892(12) 0.2790(8)
H4 H -0.74260 0.57310 0.25450
C5 C -0.6964(7) 0.6020(11) 0.2942(7)
N14 N -0.6215(6) 0.6176(9) 0.2832(5)
C6 C -0.5874(8) 0.6136(11) 0.2620(7)
H5 H -0.56250 0.63180 0.27180
C7 C -0.5865(9) 0.5856(13) 0.2278(8)
H6 H -0.56170 0.58620 0.21420
C8 C -0.6219(10) 0.5559(15) 0.2125(9)
H7 H -0.62150 0.53270 0.18990
C9 C -0.6587(10) 0.5627(14) 0.2332(9)
H8 H -0.68400 0.54750 0.22230
C10 C -0.6594(8) 0.5915(12) 0.2697(8)
N15 N -0.6431(5) 0.7478(8) 0.3093(5)
C11 C -0.6793(7) 0.7686(11) 0.2944(6)
H9 H -0.70320 0.74320 0.29690
C12 C -0.6834(8) 0.8302(13) 0.2742(7)
H10 H -0.70990 0.84540 0.26600
C13 C -0.6507(8) 0.8621(11) 0.2681(6)
H11 H -0.65330 0.89940 0.25360
C14 C -0.6111(8) 0.8443(13) 0.2820(7)
H12 H -0.58740 0.86950 0.27800
C15 C -0.6084(7) 0.7845(11) 0.3033(6)
C16 C -0.5336(6) 0.6822(10) 0.3521(6)
H13 H -0.53560 0.64410 0.36590
C17 C -0.4957(5) 0.7123(9) 0.3498(6)
H14 H -0.47090 0.69340 0.35930
C18 C -0.4957(6) 0.7741(9) 0.3323(6)
H15 H -0.47090 0.79790 0.33090
C19 C -0.5301(6) 0.7956(9) 0.3186(6)
H16 H -0.53000 0.83710 0.30850
C20 C -0.5679(6) 0.7631(10) 0.3172(6)
N16 N -0.6329(5) 0.6903(9) 0.3898(4)
C21 C -0.6502(7) 0.7494(11) 0.4006(6)
H17 H -0.66460 0.77500 0.38260
C22 C -0.6458(8) 0.7694(13) 0.4381(7)
H18 H -0.65530 0.80980 0.44550
C23 C -0.6269(9) 0.7282(15) 0.4643(9)
H19 H -0.62290 0.74120 0.48960
C24 C -0.6145(9) 0.6712(15) 0.4540(9)
H20 H -0.60350 0.64270 0.47230
C25 C -0.6176(6) 0.6527(11) 0.4162(7)
C26 C -0.5961(7) 0.5258(13) 0.3519(8)
H21 H -0.59580 0.51830 0.32570
C27 C -0.5847(6) 0.4761(12) 0.3783(8)
H22 H -0.57660 0.43600 0.36920
C28 C -0.5852(8) 0.4861(14) 0.4166(8)
H23 H -0.58060 0.45190 0.43340
C29 C -0.5919(8) 0.5409(13) 0.4291(8)
H24 H -0.58850 0.54810 0.45520
C30 C -0.6048(6) 0.5942(12) 0.4046(7)
C31 C 0.0379(8) 0.6797(13) 0.8423(7)
H25 H 0.03910 0.63760 0.85130
C32 C 0.0013(6) 0.7058(12) 0.8468(7)
H26 H -0.02010 0.68550 0.85980
C33 C -0.0037(7) 0.7712(12) 0.8296(7)
H27 H -0.02870 0.79480 0.82870
C34 C 0.0322(8) 0.7908(12) 0.8160(7)
H28 H 0.03220 0.83370 0.80820
C35 C 0.0697(7) 0.7593(10) 0.8112(7)
C36 C 0.1763(6) 0.7627(10) 0.7832(6)
H29 H 0.20010 0.73630 0.78450
C37 C 0.1763(10) 0.8238(11) 0.7658(7)
H30 H 0.20270 0.84110 0.76090
C38 C 0.1440(9) 0.8586(14) 0.7560(7)
H31 H 0.14480 0.89160 0.73810
C39 C 0.1079(8) 0.8416(11) 0.7752(6)
H32 H 0.08530 0.87010 0.77600
C40 C 0.1056(7) 0.7822(11) 0.7931(6)
N17 N 0.1183(6) 0.6091(9) 0.7763(6)
C41 C 0.0831(8) 0.6061(12) 0.7510(8)
H33 H 0.05750 0.62280 0.75880
C42 C 0.0847(9) 0.5819(15) 0.7187(7)
H34 H 0.06030 0.58370 0.70310
C43 C 0.1169(10) 0.5549(15) 0.7049(9)
H35 H 0.11560 0.53860 0.68010
C44 C 0.1535(9) 0.5500(13) 0.7270(8)
H36 H 0.17650 0.52700 0.71830
C45 C 0.1555(8) 0.5785(12) 0.7607(8)
C46 C 0.2223(10) 0.6287(15) 0.8452(9)
H37 H 0.22020 0.64810 0.86900
C47 C 0.2599(11) 0.6011(16) 0.8324(10)
H38 H 0.28550 0.61340 0.84410
C48 C 0.2602(10) 0.5643(17) 0.8082(10)
H39 H 0.28540 0.54120 0.80710
C49 C 0.2285(9) 0.5465(13) 0.7784(8)
H40 H 0.23050 0.51810 0.75790
C50 C 0.1946(8) 0.5842(14) 0.7894(8)
N18 N 0.1147(5) 0.5847(9) 0.8608(6)
C51 C 0.0998(7) 0.5278(13) 0.8518(8)
H41 H 0.09940 0.51710 0.82600
C52 C 0.0836(7) 0.4789(12) 0.8776(11)
H42 H 0.07370 0.43900 0.86930
C53 C 0.0846(9) 0.4975(18) 0.9149(10)
H43 H 0.07350 0.46980 0.93290
C54 C 0.102(1) 0.5587(19) 0.9278(9)
H44 H 0.10250 0.57190 0.95320
C55 C 0.1170(7) 0.5938(12) 0.8999(8)
N19 N 0.1428(7) 0.6921(13) 0.8768(7)
C56 C 0.1617(8) 0.7446(17) 0.8840(11)
H45 H 0.16810 0.76670 0.86180
C57 C 0.1761(11) 0.780(2) 0.9188(10)
H46 H 0.18890 0.81970 0.92270
C58 C 0.1627(12) 0.7284(18) 0.9454(12)
H47 H 0.17590 0.73550 0.96930
C59 C 0.1359(12) 0.6698(19) 0.9478(10)
H48 H 0.12550 0.64690 0.96830
C60 C 0.1317(10) 0.6610(17) 0.9056(9)
C61 C -0.1779(7) -0.2102(13) 0.4626(7)
H49 H -0.20510 -0.22330 0.46800
C62 C -0.1542(6) -0.1804(11) 0.4929(7)
H50 H -0.16480 -0.17290 0.51700
C63 C -0.1139(6) -0.1638(10) 0.4827(6)
H51 H -0.09620 -0.14720 0.50210
C64 C -0.0974(7) -0.1689(10) 0.4481(6)
H52 H -0.07130 -0.15190 0.44190
C65 C -0.1259(7) -0.2052(11) 0.4203(6)
C66 C -0.1345(8) -0.2609(10) 0.3252(7)
H53 H -0.15590 -0.27520 0.30830
C67 C -0.0933(9) -0.2526(12) 0.3110(8)
H54 H -0.08630 -0.26580 0.28670
C68 C -0.0655(7) -0.2247(11) 0.3349(8)
H55 H -0.03820 -0.21800 0.32670
C69 C -0.0738(6) -0.2066(11) 0.3683(7)
H56 H -0.05360 -0.18580 0.38380
C70 C -0.1116(7) -0.2179(10) 0.3802(6)
N20 N -0.2210(7) -0.1738(9) 0.3634(6)
C71 C -0.2109(8) -0.1119(12) 0.3771(8)
H57 H -0.19580 -0.10980 0.40030
C72 C -0.2205(9) -0.0565(14) 0.3608(8)
H58 H -0.21340 -0.01600 0.37040
C73 C -0.2448(10) -0.0694(16) 0.3237(9)
H59 H -0.25130 -0.03280 0.30940
C74 C -0.2584(10) -0.1236(14) 0.3084(9)
H60 H -0.27590 -0.12710 0.28650
C75 C -0.2428(7) -0.1738(10) 0.3294(7)
C76 C -0.2392(7) -0.3452(11) 0.3233(6)
H61 H -0.22680 -0.37880 0.33730
C77 C -0.2637(8) -0.3611(15) 0.2901(8)
H62 H -0.27020 -0.40380 0.28410
C78 C -0.2774(7) -0.3121(16) 0.2672(7)
H63 H -0.29270 -0.32140 0.24470
C79 C -0.2686(7) -0.2454(12) 0.2771(7)
H64 H -0.27470 -0.21090 0.26090
C80 C -0.2495(9) -0.2385(11) 0.3141(8)
C81 C -0.2803(6) -0.2419(12) 0.4211(6)
H65 H -0.27720 -0.19920 0.41340
C82 C -0.3195(8) -0.2619(13) 0.4372(7)
H66 H -0.34190 -0.23340 0.43980
C83 C -0.3222(7) -0.3249(10) 0.4485(6)
H67 H -0.34590 -0.34110 0.46020
C84 C -0.2854(7) -0.3651(12) 0.4411(7)
H68 H -0.28740 -0.40910 0.44570
C85 C -0.2506(6) -0.3435(11) 0.4288(6)
C86 C -0.1492(7) -0.3794(11) 0.4006(7)
H69 H -0.12800 -0.36130 0.38630
C87 C -0.1412(8) -0.4390(9) 0.4201(6)
H70 H -0.11650 -0.46160 0.41590
C88 C -0.1674(6) -0.4613(10) 0.4431(7)
H71 H -0.16070 -0.49770 0.45760
C89 C -0.2036(8) -0.4333(10) 0.4464(6)
H72 H -0.22330 -0.45200 0.46200
C90 C -0.2138(7) -0.3779(10) 0.4279(5)
C91 C 0.5600(7) -0.1233(12) 0.5701(7)
H73 H 0.57440 -0.15040 0.55400
C92 C 0.5734(7) -0.1206(9) 0.6058(6)
H74 H 0.59400 -0.14800 0.61610
C93 C 0.5553(7) -0.0760(12) 0.6258(6)
H75 H 0.56490 -0.07030 0.65100
C94 C 0.5262(7) -0.0407(12) 0.6134(6)
H76 H 0.51580 -0.00840 0.62900
C95 C 0.5096(5) -0.0484(9) 0.5780(5)
N21 N 0.4640(5) -0.0340(8) 0.5233(4)
C96 C 0.4273(7) -0.0065(13) 0.5048(7)
H77 H 0.41770 -0.02220 0.48110
C97 C 0.4054(8) 0.0452(13) 0.5224(6)
H78 H 0.38230 0.06580 0.51060
C98 C 0.4220(8) 0.0629(13) 0.5601(6)
H79 H 0.40880 0.09670 0.57250
C99 C 0.4536(7) 0.0356(11) 0.5779(6)
H80 H 0.45980 0.04530 0.60340
C100 C 0.4774(7) -0.0065(12) 0.5597(6)
C101 C 0.5616(6) -0.1728(11) 0.4508(6)
H81 H 0.57310 -0.13310 0.44450
C102 C 0.5741(7) -0.2307(10) 0.4306(6)
H82 H 0.59430 -0.22860 0.41200
C103 C 0.5562(8) -0.2869(10) 0.4391(7)
H83 H 0.56310 -0.32310 0.42500
C104 C 0.5280(7) -0.2939(10) 0.4678(6)
H84 H 0.51820 -0.33400 0.47530
C105 C 0.5155(6) -0.2393(9) 0.4844(5)
O1 O 0.6105(5) -0.3273(9) 0.3638(4)
H85 H 0.58920 -0.33570 0.35060
C106 C 0.6433(7) -0.3122(13) 0.3403(6)
H86 H 0.65830 -0.35060 0.33290
H87 H 0.66300 -0.28270 0.35290
C107 C 0.6203(6) -0.2792(11) 0.3042(6)
H88 H 0.60060 -0.24690 0.31260
H89 H 0.64110 -0.25800 0.28880
N22 N 0.5989(5) -0.3258(7) 0.2824(4)
H90 H 0.59950 -0.36550 0.28950
H91 H 0.58490 -0.31480 0.26190
N23 N -0.2490(7) -0.5449(12) 0.5457(7)
C108 C -0.2913(10) -0.5158(16) 0.5319(9)
H92 H -0.31420 -0.54180 0.52500
C109 C -0.2938(11) -0.4521(13) 0.5303(9)
H93 H -0.31540 -0.43440 0.51490
C110 C -0.2677(9) -0.4114(16) 0.5492(8)
H94 H -0.27500 -0.36800 0.55060
C111 C -0.2320(9) -0.4313(13) 0.5657(8)
H95 H -0.21370 -0.40190 0.57770
C112 C -0.2222(9) -0.4939(14) 0.5653(8)
N24 N -0.1792(8) -0.5876(12) 0.5868(7)
C113 C -0.1461(10) -0.6041(17) 0.6132(9)
H96 H -0.14070 -0.64800 0.61570
C114 C -0.1206(11) -0.5644(15) 0.6356(9)
H97 H -0.09820 -0.58040 0.65080
C115 C -0.1301(9) -0.4998(15) 0.6344(8)
H98 H -0.11270 -0.46940 0.64640
C116 C -0.1668(9) -0.4821(16) 0.6144(8)
H99 H -0.17690 -0.44070 0.61850
C117 C -0.1899(9) -0.5211(15) 0.5886(8)
In1A In -0.74502(5) -0.09396(8) -0.15717(4)
In2A In -0.65340(5) -0.20958(7) -0.16899(4)
In3A In -0.64261(5) -0.05132(7) -0.10037(4)
In4A In -0.65539(4) -0.03334(7) -0.21679(4)
In5A In -0.55427(5) -0.31532(7) -0.17711(4)
In5* In -0.44573(5) 0.68468(7) 0.17711(4)
In5A* In -0.55427(5) 0.68468(7) -0.17711(4)
In6A In -0.54235(5) -0.16668(7) -0.11220(4)
In7A In -0.55485(5) -0.14862(7) -0.22764(4)
In8A In -0.53412(5) -0.01371(7) -0.05119(4)
In9A In -0.54486(4) 0.00995(7) -0.16106(4)
In10A In -0.55703(4) 0.02372(6) -0.26992(4)
In11A In -0.74684(4) 0.41247(7) -0.35900(4)
In12A In -0.65581(4) 0.29484(7) -0.34599(4)
In13A In -0.65484(4) 0.47034(7) -0.29476(4)
In14A In -0.64559(4) 0.45685(7) -0.41213(4)
In15A In -0.55845(4) 0.18551(7) -0.33076(4)
In16A In -0.55545(4) 0.35019(7) -0.27967(4)
In17A In -0.54755(4) 0.33578(6) -0.39542(4)
In18A In -0.55575(4) 0.52260(6) -0.23513(4)
In19A In -0.54442(4) 0.50987(7) -0.34460(4)
In20A In -0.53744(4) 0.49207(6) -0.45313(4)
In20A* In -0.53744(4) 0.49207(6) 0.54687(4)
S1A S -0.82123(18) -0.0816(4) -0.1482(2)
S2A S -0.72873(18) -0.2074(3) -0.16439(19)
S3A S -0.71809(19) -0.0446(3) -0.09816(17)
S4A S -0.73096(15) -0.0363(3) -0.21608(17)
S5A S -0.63099(17) -0.3173(3) -0.18180(17)
S6A S -0.62089(17) -0.1643(3) -0.10954(14)
S7A S -0.63296(16) -0.1472(3) -0.22583(15)
S8A S -0.61003(18) -0.0088(3) -0.04254(16)
S9A S -0.62283(16) 0.0116(3) -0.15737(14)
S10A S -0.63296(17) 0.0357(3) -0.26672(17)
S11A S -0.5233(2) -0.2773(3) -0.11720(15)
S12A S -0.52846(16) -0.2561(2) -0.23216(14)
S13A S -0.5079(2) -0.1225(3) -0.05735(16)
S14A S -0.52179(16) -0.1025(2) -0.16838(14)
S15A S -0.53717(17) -0.0872(3) -0.28286(14)
S17A S -0.51685(18) 0.0564(3) -0.10380(15)
S18A S -0.51989(17) 0.0691(3) -0.21410(14)
S19A S -0.53191(17) 0.0771(2) -0.32608(15)
S20A S -0.82345(17) 0.4200(3) -0.3645(2)
S21A S -0.73119(16) 0.2992(2) -0.35220(17)
S22A S -0.73017(16) 0.4688(3) -0.30000(17)
S23A S -0.72133(16) 0.4611(3) -0.41722(16)
S24A S -0.63443(15) 0.1853(3) -0.33818(19)
S25A S -0.63333(15) 0.3562(3) -0.28716(15)
S26A S -0.62456(15) 0.3423(2) -0.40311(15)
S27A S -0.63275(16) 0.5378(2) -0.24309(15)
S28A S -0.62312(15) 0.5153(2) -0.35253(14)
S29A S -0.61389(16) 0.5011(3) -0.46650(15)
S30A S -0.53313(16) 0.2410(2) -0.27336(14)
S31A S -0.52891(17) 0.2252(2) -0.38987(15)
S32A S -0.53754(18) 0.4101(3) -0.22376(15)
S33A S -0.52286(15) 0.3952(2) -0.33738(13)
S34A S -0.51393(16) 0.3805(2) -0.44845(14)
S35A S -0.5271(2) 0.5769(3) -0.17928(16)
S35* S -0.4729(2) -0.4231(3) 0.17928(16)
S35A* S -0.5271(2) -0.4231(3) -0.17928(16)
S36A S -0.52054(17) 0.5690(3) -0.29004(15)
S37A S -0.51890(18) 0.5608(2) -0.39895(16)
S38* S -0.50000 0.5510(4) -0.50000
N11A N 0.4726(5) -0.0906(7) 0.4451(4)
N12A N 0.4660(4) -0.1767(7) 0.5218(3)
C91A C 0.4400(7) -0.1233(12) 0.4299(7)
H73A H 0.42560 -0.15040 0.44600
C92A C 0.4266(7) -0.1206(9) 0.3942(6)
H74A H 0.40600 -0.14800 0.38390
C93A C 0.4447(7) -0.0760(12) 0.3742(6)
H75A H 0.43510 -0.07030 0.34900
C94A C 0.4738(7) -0.0407(12) 0.3866(6)
H76A H 0.48420 -0.00840 0.37100
C95A C 0.4904(5) -0.0484(9) 0.4220(5)
N21A N 0.5360(5) -0.0340(8) 0.4767(4)
C96A C 0.5727(7) -0.0065(13) 0.4952(7)
H77A H 0.58230 -0.02220 0.51890
C97A C 0.5946(8) 0.0452(13) 0.4776(6)
H78A H 0.61770 0.06580 0.48940
C98A C 0.5780(8) 0.0629(13) 0.4399(6)
H79A H 0.59120 0.09670 0.42750
C99A C 0.5464(7) 0.0356(11) 0.4221(6)
H80A H 0.54020 0.04530 0.39660
C100A C 0.5226(7) -0.0065(12) 0.4403(6)
C101A C 0.4384(6) -0.1728(11) 0.5492(6)
H81A H 0.42690 -0.13310 0.55550
C102A C 0.4259(7) -0.2307(10) 0.5694(6)
H82A H 0.40570 -0.22860 0.58800
C103A C 0.4438(8) -0.2869(10) 0.5609(7)
H83A H 0.43690 -0.32310 0.57500
C104A C 0.4720(7) -0.2939(10) 0.5322(6)
H84A H 0.48180 -0.33400 0.52470
C105A C 0.4845(6) -0.2393(9) 0.5156(5)
#END
