
#######################################################################
#
#                 Cambridge Crystallographic Data Centre
#                                CCDC
#
#######################################################################
#
# If this CIF has been generated from an entry in the Cambridge
# Structural Database, then it will include bibliographic, chemical,
# crystal, experimental, refinement or atomic coordinate data resulting
# from the CCDC's data processing and validation procedures.
#
#######################################################################

data_CSD_CIF_YAKXIT
_audit_creation_date 2011-12-12
_audit_creation_method CSD-ConQuest-V1
_database_code_CSD YAKXIT
_database_code_depnum_ccdc_archive 'CCDC 816527'
_chemical_formula_sum 'C38 H44 Gd4 N6 O41'
_chemical_formula_moiety
;
(C38 H24 Gd4 N6 O32 2-)n,7n(H2 O1),2n(H3 O1 1+)
;
_journal_coden_Cambridge 9
_journal_volume 50
_journal_year 2011
_journal_page_first 5242
_journal_name_full 'Inorg.Chem. '
loop_
_publ_author_name
"Tian-Fu Liu"
"Wenjuan Zhang"
"Wen-Hua Sun"
"Rong Cao"
_chemical_name_systematic
;
catena-(bis(Oxonium) 
bis(\m~2~-2-carboxylato-6-(2-benzimidazolyl)pyridine)-hexakis(\m~2~-oxalato)-t
etra-aqua-tetra-gadolinium(iii) heptahydrate)
;
_cell_volume   5229.405
_exptl_crystal_colour 'colorless'
_exptl_crystal_density_diffrn 2.339
_exptl_special_details
;
Study temperature given as 298 K and 173 K in the CIF; Not CCDC 793865-7 as 
published
;
_exptl_crystal_description 'prism'
_diffrn_ambient_temperature 173
_refine_special_details
;
O1W' and O1W disordered over two sites with occupancies 0.58:0.42; O3W' and 
O3W disordered over two sites with occupancies 0.61:0.39.
;
#These two values have been output from a single CSD field.
_refine_ls_R_factor_gt 0.0362
_refine_ls_wR_factor_gt 0.0362
_symmetry_cell_setting monoclinic
_symmetry_space_group_name_H-M 'C 2/c'
_symmetry_Int_Tables_number 15
loop_
_symmetry_equiv_pos_site_id
_symmetry_equiv_pos_as_xyz
1 x,y,z
2 -x,y,1/2-z
3 1/2+x,1/2+y,z
4 1/2-x,1/2+y,1/2-z
5 -x,-y,-z
6 x,-y,-1/2+z
7 -1/2-x,-1/2-y,-z
8 -1/2+x,-1/2-y,-1/2+z
_cell_length_a 33.733(3)
_cell_length_b 8.8519(3)
_cell_length_c 19.5382(15)
_cell_angle_alpha 90
_cell_angle_beta 116.318(3)
_cell_angle_gamma 90
_cell_formula_units_Z 4
loop_
_atom_type_symbol
_atom_type_radius_bond
C 0.68
H 0.23
Gd 1.96
N 0.68
O 0.68
loop_
_atom_site_label
_atom_site_type_symbol
_atom_site_fract_x
_atom_site_fract_y
_atom_site_fract_z
Gd1 Gd -0.077040(11) 0.13198(4) -0.160420(19)
O1 O 0.11148(17) 0.1690(6) 0.0607(3)
N1 N 0.19140(19) 0.2501(6) 0.0869(3)
C1 C 0.1419(2) 0.1088(8) 0.1195(4)
Gd2 Gd 0.121380(11) 0.36835(4) -0.015970(19)
O2 O 0.13622(18) 0.0215(6) 0.1639(3)
N2 N 0.1948(2) 0.4738(7) -0.0063(4)
C2 C 0.1890(2) 0.1509(7) 0.1353(4)
O3 O 0.04605(17) 0.4030(6) -0.0314(3)
N3 N 0.2679(2) 0.4513(7) 0.0354(4)
H1 H 0.29530 0.42210 0.06300
C3 C 0.2250(2) 0.0953(9) 0.1967(4)
H2 H 0.22130 0.02540 0.23040
O4 O 0.06735(17) 0.1738(6) -0.0988(3)
C4 C 0.2659(3) 0.1406(9) 0.2091(5)
H3 H 0.29130 0.09970 0.25020
O5 O -0.00325(17) 0.1007(6) -0.1541(3)
C5 C 0.2702(2) 0.2471(10) 0.1613(4)
H4 H 0.29860 0.28390 0.17010
O6 O -0.02254(16) 0.3117(6) -0.0760(3)
C6 C 0.2325(2) 0.2987(8) 0.1003(4)
O7 O 0.08613(18) 0.8189(6) 0.0399(3)
C7 C 0.2326(2) 0.4072(8) 0.0441(4)
O8 O 0.1067(2) 0.6399(5) -0.0205(3)
C8 C 0.2076(3) 0.5626(8) -0.0508(4)
O9 O 0.13990(19) 0.4771(6) 0.1083(3)
C9 C 0.2532(3) 0.5520(8) -0.0253(4)
O10 O 0.12596(18) 0.6654(6) 0.1708(3)
C10 C 0.2759(3) 0.6353(9) -0.0567(5)
H5 H 0.30720 0.63190 -0.03650
O11 O 0.13003(17) 0.1318(5) -0.2065(3)
C11 C 0.2503(3) 0.7233(10) -0.1188(5)
H6 H 0.26430 0.77810 -0.14390
O12 O 0.06651(18) 0.3381(6) -0.2619(3)
C12 C 0.2050(3) 0.7345(10) -0.1457(5)
H7 H 0.18890 0.79940 -0.18770
C13 C 0.1819(3) 0.6536(9) -0.1133(5)
H8 H 0.15070 0.66010 -0.13250
C14 C 0.0157(2) 0.3110(8) -0.0704(4)
O13 O 0.09063(18) 0.4449(6) -0.1478(3)
C15 C 0.0276(2) 0.1849(8) -0.1116(4)
O14 O 0.14976(15) 0.2143(6) -0.0886(3)
C16 C 0.0914(3) 0.3465(8) -0.1923(4)
O15 O -0.0729(2) -0.1033(6) -0.2298(4)
C17 C 0.1266(2) 0.2189(8) -0.1595(4)
O16 O -0.03710(17) -0.0627(6) -0.0619(3)
C18 C 0.1255(2) 0.6065(8) 0.1128(4)
C19 C 0.1041(3) 0.6979(8) 0.0368(4)
O17 O 0.0821(4) 0.3734(7) 0.1791(6)
O18 O 0.00000 0.0939(11) 0.25000
O19 O 0.0005(3) -0.3191(12) -0.0818(6)
O20? O 0.0062(8) 0.407(3) 0.2835(14)
O21 O 0.0781(10) 0.1297(15) 0.3658(10)
O22? O 0.026(1) 0.313(5) 0.334(2)
O23? O 0.1109(13) 0.102(2) 0.3952(16)
Gd1D Gd 0.077040(11) -0.13198(4) 0.160420(19)
Gd1D* Gd 0.077040(11) 0.86802(4) 0.160420(19)
Gd1A Gd 0.077040(11) 0.13198(4) -0.339580(19)
O1D O -0.11148(17) -0.1690(6) -0.0607(3)
O1D* O -0.11148(17) 0.8310(6) -0.0607(3)
N1D N -0.19140(19) -0.2501(6) -0.0869(3)
N1D* N -0.19140(19) 0.7499(6) -0.0869(3)
C1D C -0.1419(2) -0.1088(8) -0.1195(4)
Gd2D Gd -0.121380(11) -0.36835(4) 0.015970(19)
Gd2D* Gd -0.121380(11) 0.63165(4) 0.015970(19)
Gd2A Gd -0.121380(11) 0.36835(4) -0.484030(19)
O2D O -0.13622(18) -0.0215(6) -0.1639(3)
O2* O 0.13622(18) 1.0215(6) 0.1639(3)
N2D N -0.1948(2) -0.4738(7) 0.0063(4)
N2D* N -0.1948(2) 0.5262(7) 0.0063(4)
C2D C -0.1890(2) -0.1509(7) -0.1353(4)
O3D O -0.04605(17) 0.5970(6) 0.0314(3)
N3D N -0.2679(2) -0.4513(7) -0.0354(4)
H1D H -0.29530 -0.42210 -0.06300
C3D C -0.2250(2) -0.0953(9) -0.1967(4)
H2D H -0.22130 -0.02540 -0.23040
O4D O -0.06735(17) 0.8262(6) 0.0988(3)
C4D C -0.2659(3) -0.1406(9) -0.2091(5)
H3D H -0.29130 -0.09970 -0.25020
O5D O 0.00325(17) 0.8993(6) 0.1541(3)
C5D C -0.2702(2) -0.2471(10) -0.1613(4)
H4D H -0.29860 -0.28390 -0.17010
O6D O 0.02254(16) 0.6883(6) 0.0760(3)
C6D C -0.2325(2) -0.2987(8) -0.1003(4)
O7D O -0.08613(18) 0.1811(6) -0.0399(3)
C7D C -0.2326(2) -0.4072(8) -0.0441(4)
O8D O -0.1067(2) 0.3601(5) 0.0205(3)
C8D C -0.2076(3) -0.5626(8) 0.0508(4)
O9D O -0.13990(19) 0.5229(6) -0.1083(3)
C9D C -0.2532(3) -0.5520(8) 0.0253(4)
O10D O -0.12596(18) 0.3346(6) -0.1708(3)
C10D C -0.2759(3) -0.6353(9) 0.0567(5)
H5D H -0.30720 -0.63190 0.03650
O11A O -0.13003(17) 0.1318(5) -0.2935(3)
O11E O 0.13003(17) 0.8682(5) 0.2935(3)
C11D C -0.2503(3) -0.7233(10) 0.1188(5)
H6D H -0.26430 -0.77810 0.14390
O12A O -0.06651(18) 0.3381(6) -0.2381(3)
O12E O 0.06651(18) 0.6619(6) 0.2381(3)
C12D C -0.2050(3) -0.7345(10) 0.1457(5)
H7D H -0.18890 -0.79940 0.18770
C13D C -0.1819(3) -0.6536(9) 0.1133(5)
H8D H -0.15070 -0.66010 0.13250
C14D C -0.0157(2) 0.6890(8) 0.0704(4)
O13A O -0.09063(18) 0.4449(6) -0.3522(3)
O13D O -0.09063(18) 0.5551(6) 0.1478(3)
C15D C -0.0276(2) 0.8151(8) 0.1116(4)
O14A O -0.14976(15) 0.2143(6) -0.4114(3)
O14D O -0.14976(15) 0.7857(6) 0.0886(3)
C16A C -0.0914(3) 0.3465(8) -0.3077(4)
O15D O 0.0729(2) 1.1033(6) 0.2298(4)
C17A C -0.1266(2) 0.2189(8) -0.3405(4)
O16D O 0.03710(17) 1.0627(6) 0.0619(3)
C18D C -0.1255(2) 0.3935(8) -0.1128(4)
C19D C -0.1041(3) 0.3021(8) -0.0368(4)
#END
