
#######################################################################
#
#                 Cambridge Crystallographic Data Centre
#                                CCDC
#
#######################################################################
#
# If this CIF has been generated from an entry in the Cambridge
# Structural Database, then it will include bibliographic, chemical,
# crystal, experimental, refinement or atomic coordinate data resulting
# from the CCDC's data processing and validation procedures.
#
#######################################################################

data_CSD_CIF_YAKXEP
_audit_creation_date 2011-12-12
_audit_creation_method CSD-ConQuest-V1
_database_code_CSD YAKXEP
_database_code_depnum_ccdc_archive 'CCDC 816526'
_chemical_formula_sum 'C38 H44 Eu4 N6 O41'
_chemical_formula_moiety
;
(C38 H24 Eu4 N6 O32 2-)n,7n(H2 O1),2n(H3 O1 1+)
;
_journal_coden_Cambridge 9
_journal_volume 50
_journal_year 2011
_journal_page_first 5242
_journal_name_full 'Inorg.Chem. '
loop_
_publ_author_name
"Tian-Fu Liu"
"Wenjuan Zhang"
"Wen-Hua Sun"
"Rong Cao"
_chemical_name_systematic
;
catena-(bis(Oxonium) 
bis(\m~2~-2-carboxylato-6-(2-benzimidazolyl)pyridine)-hexakis(\m~2~-oxalato)-t
etra-aqua-tetra-europium(iii) heptahydrate)
;
_cell_volume   5273.705
_exptl_crystal_colour 'colorless'
_exptl_crystal_density_diffrn 2.293
_exptl_special_details
;
Not CCDC 793865-7 as published

;
_exptl_crystal_description 'prism'
_diffrn_ambient_temperature 298
_refine_special_details
;
O4W and O4W' disordered over two sites with occupancies 0.612:0.388; O5W and 
O5W' disordered over two sites with occupancies 0.523:0.477.
;
#These two values have been output from a single CSD field.
_refine_ls_R_factor_gt 0.0346
_refine_ls_wR_factor_gt 0.0346
_symmetry_cell_setting monoclinic
_symmetry_space_group_name_H-M 'C 2/c'
_symmetry_Int_Tables_number 15
loop_
_symmetry_equiv_pos_site_id
_symmetry_equiv_pos_as_xyz
1 x,y,z
2 -x,y,1/2-z
3 1/2+x,1/2+y,z
4 1/2-x,1/2+y,1/2-z
5 -x,-y,-z
6 x,-y,-1/2+z
7 -1/2-x,-1/2-y,-z
8 -1/2+x,-1/2-y,-1/2+z
_cell_length_a 33.805(6)
_cell_length_b 8.8706(8)
_cell_length_c 19.596(3)
_cell_angle_alpha 90
_cell_angle_beta 116.174(6)
_cell_angle_gamma 90
_cell_formula_units_Z 4
loop_
_atom_type_symbol
_atom_type_radius_bond
C 0.68
H 0.23
Eu 1.98
N 0.68
O 0.68
loop_
_atom_site_label
_atom_site_type_symbol
_atom_site_fract_x
_atom_site_fract_y
_atom_site_fract_z
Eu1 Eu 0.077087(10) 0.63093(4) 0.160817(17)
O1 O 0.11155(14) 0.3301(6) 0.0611(3)
N1 N 0.26866(17) 0.0485(7) 0.0362(3)
H1 H 0.29590 0.07860 0.06380
C1 C 0.1422(2) 0.3889(8) 0.1196(3)
O2 O 0.13652(16) 0.4766(6) 0.1651(3)
N2 N 0.19587(17) 0.0260(7) -0.0045(3)
C2 C 0.18839(19) 0.3473(7) 0.1364(4)
Eu2 Eu 0.121522(10) 0.86918(4) 0.484106(17)
O3 O 0.14992(13) 0.7149(6) 0.4105(3)
N3 N 0.19207(17) 0.2486(6) 0.0878(3)
C3 C 0.22479(18) 0.4036(8) 0.1976(4)
H2 H 0.22120 0.47390 0.23100
O4 O 0.13049(14) 0.6303(5) 0.2935(3)
C4 C 0.2660(2) 0.3578(9) 0.2100(4)
H3 H 0.29140 0.39780 0.25110
O5 O 0.06660(15) 0.8372(6) 0.2384(3)
C5 C 0.2701(2) 0.2522(10) 0.1615(4)
H4 H 0.29840 0.21560 0.17040
O6 O 0.09087(17) 0.9451(6) 0.3519(3)
C6 C 0.2329(2) 0.2003(8) 0.1002(4)
O7 O 0.02196(15) 0.8117(6) 0.0753(3)
C7 C 0.2329(2) 0.0920(8) 0.0449(4)
O8 O 0.00315(16) 0.5998(6) 0.1540(3)
C8 C 0.2548(2) -0.0515(8) -0.0238(4)
O9 O -0.06703(15) 0.6740(6) 0.0981(3)
C9 C 0.2759(3) -0.1334(9) -0.0574(4)
H5 H 0.30700 -0.12770 -0.03880
O10 O -0.04574(17) 0.9031(6) 0.0316(3)
C10 C 0.2512(3) -0.2239(10) -0.1184(5)
H6 H 0.26540 -0.27980 -0.14250
O11 O 0.14008(16) 1.0218(6) 0.1085(3)
C11 C 0.2065(3) -0.2347(10) -0.1450(5)
H7 H 0.19060 -0.30000 -0.18670
O12 O 0.10615(16) 0.8586(5) -0.0199(3)
C12 C 0.1832(2) -0.1538(9) -0.1135(4)
H8 H 0.15220 -0.16160 -0.13250
O13 O 0.08633(17) 0.6802(6) 0.0405(3)
C13 C 0.2078(2) -0.0623(8) -0.0510(4)
O14 O 0.12615(15) 0.8338(5) 0.1707(2)
C14 C 0.1267(2) 0.7189(8) 0.3398(4)
O15 O 0.03720(14) 0.4360(6) 0.0618(3)
C15 C 0.0922(2) 0.8447(8) 0.3083(4)
O16 O 0.07194(17) 0.3963(6) 0.2297(3)
C16 C -0.0268(2) 0.6858(8) 0.1116(4)
C17 C -0.0158(2) 0.8103(8) 0.0699(3)
C18 C 0.10443(19) 0.8010(8) 0.0382(3)
C19 C 0.1251(2) 0.8921(8) 0.1124(4)
O17 O 0.00000 0.4079(10) 0.25000
O18 O 0.0818(3) 0.1255(8) 0.1776(5)
O19 O -0.0001(2) 0.1730(11) 0.4229(5)
O20 O 0.0793(5) 0.3715(12) 0.3671(7)
O21? O 0.0050(5) 0.094(3) 0.2872(11)
O22? O 0.1119(6) 0.4004(18) 0.3939(9)
O23? O 0.0215(7) 0.205(4) 0.3476(15)
Eu1E Eu 0.077087(10) 0.36907(4) 0.660817(17)
Eu1A Eu -0.077087(10) 0.63093(4) 0.339183(17)
Eu1E* Eu 0.077087(10) 1.36907(4) 0.660817(17)
O1E O 0.11155(14) 0.6699(6) 0.5611(3)
O1D O -0.11155(14) 0.6699(6) -0.0611(3)
N1E N 0.26866(17) 0.9515(7) 0.5362(3)
H1E H 0.29590 0.92140 0.56380
C1E C 0.1422(2) 0.6111(8) 0.6196(3)
O2E O 0.13652(16) 0.5234(6) 0.6651(3)
O2A O -0.13652(16) 0.4766(6) 0.3349(3)
N2E N 0.19587(17) 0.9740(7) 0.4955(3)
N2D N -0.19587(17) 0.9740(7) 0.0045(3)
C2E C 0.18839(19) 0.6527(7) 0.6364(4)
Eu2E Eu 0.121522(10) 0.13082(4) -0.015894(17)
Eu2A Eu -0.121522(10) 0.86918(4) 0.015894(17)
Eu2E* Eu 0.121522(10) 1.13082(4) -0.015894(17)
O3A O -0.14992(13) 0.7149(6) 0.0895(3)
N3E N 0.19207(17) 0.7514(6) 0.5878(3)
N3D N -0.19207(17) 0.7514(6) -0.0878(3)
C3E C 0.22479(18) 0.5964(8) 0.6976(4)
H2E H 0.22120 0.52610 0.73100
O4A O -0.13049(14) 0.6303(5) 0.2065(3)
C4E C 0.2660(2) 0.6422(9) 0.7100(4)
H3E H 0.29140 0.60220 0.75110
O5A O -0.06660(15) 0.8372(6) 0.2616(3)
C5E C 0.2701(2) 0.7478(10) 0.6615(4)
H4E H 0.29840 0.78440 0.67040
O6A O -0.09087(17) 0.9451(6) 0.1481(3)
C6E C 0.2329(2) 0.7997(8) 0.6002(4)
O7A O -0.02196(15) 0.8117(6) 0.4247(3)
C7E C 0.2329(2) 0.9080(8) 0.5449(4)
O8A O -0.00315(16) 0.5998(6) 0.3460(3)
C8E C 0.2548(2) 1.0515(8) 0.4762(4)
O9A O 0.06703(15) 0.6740(6) 0.4019(3)
C9E C 0.2759(3) 1.1334(9) 0.4426(4)
H5E H 0.30700 1.12770 0.46120
O10A O 0.04574(17) 0.9031(6) 0.4684(3)
C10E C 0.2512(3) 1.2239(10) 0.3816(5)
H6E H 0.26540 1.27980 0.35750
O11E O 0.14008(16) 0.9782(6) 0.6085(3)
O11D O -0.14008(16) 0.9782(6) -0.1085(3)
C11E C 0.2065(3) 1.2347(10) 0.3550(5)
H7E H 0.19060 1.30000 0.31330
O12E O 0.10615(16) 1.1414(5) 0.4801(3)
O12D O -0.10615(16) 1.1414(5) 0.0199(3)
C12E C 0.1832(2) 1.1538(9) 0.3865(4)
H8E H 0.15220 1.16160 0.36750
O13E O 0.08633(17) 1.3198(6) 0.5405(3)
O13A O -0.08633(17) 0.6802(6) 0.4595(3)
C13E C 0.2078(2) 1.0623(8) 0.4490(4)
O14E O 0.12615(15) 1.1662(5) 0.6707(2)
O14A O -0.12615(15) 0.8338(5) 0.3293(2)
C14A C -0.1267(2) 0.7189(8) 0.1602(4)
O15A O -0.03720(14) 0.4360(6) 0.4382(3)
C15A C -0.0922(2) 0.8447(8) 0.1917(4)
O16A O -0.07194(17) 0.3963(6) 0.2703(3)
C16A C 0.0268(2) 0.6858(8) 0.3884(4)
C17A C 0.0158(2) 0.8103(8) 0.4301(3)
C18E C 0.10443(19) 1.1990(8) 0.5382(3)
C19E C 0.1251(2) 1.1079(8) 0.6124(4)
#END
