
#######################################################################
#
#                 Cambridge Crystallographic Data Centre
#                                CCDC
#
#######################################################################
#
# If this CIF has been generated from an entry in the Cambridge
# Structural Database, then it will include bibliographic, chemical,
# crystal, experimental, refinement or atomic coordinate data resulting
# from the CCDC's data processing and validation procedures.
#
#######################################################################

data_CSD_CIF_YAKXAL
_audit_creation_date 2011-12-12
_audit_creation_method CSD-ConQuest-V1
_database_code_CSD YAKXAL
_database_code_depnum_ccdc_archive 'CCDC 816525'
_chemical_formula_sum 'C38 H44 N6 O41 Sm4'
_chemical_formula_moiety
;
(C38 H24 N6 O32 Sm4 2-)n,7n(H2 O1),2n(H3 O1 1+)
;
_journal_coden_Cambridge 9
_journal_volume 50
_journal_year 2011
_journal_page_first 5242
_journal_name_full 'Inorg.Chem. '
loop_
_publ_author_name
"Tian-Fu Liu"
"Wenjuan Zhang"
"Wen-Hua Sun"
"Rong Cao"
_chemical_name_systematic
;
catena-(bis(Oxonium) 
bis(\m~2~-2-carboxylato-6-(2-benzimidazolyl)pyridine)-hexakis(\m~2~-oxalato)-t
etra-aqua-tetra-samarium(iii) heptahydrate)
;
_cell_volume   5315.205
_exptl_crystal_colour 'colorless'
_exptl_crystal_density_diffrn 2.267
_exptl_special_details
;
Not CCDC 793865-7 as published

;
_exptl_crystal_description 'prism'
_diffrn_ambient_temperature 298
_refine_special_details
;
O1WA and O1WB disordered over two sites with occupancies 0.50:0.50; O7WB and 
O7WA disordered over two sites with occupancies 0.502:0.498.
;
#These two values have been output from a single CSD field.
_refine_ls_R_factor_gt 0.0409
_refine_ls_wR_factor_gt 0.0409
_symmetry_cell_setting monoclinic
_symmetry_space_group_name_H-M 'C 2/c'
_symmetry_Int_Tables_number 15
loop_
_symmetry_equiv_pos_site_id
_symmetry_equiv_pos_as_xyz
1 x,y,z
2 -x,y,1/2-z
3 1/2+x,1/2+y,z
4 1/2-x,1/2+y,1/2-z
5 -x,-y,-z
6 x,-y,-1/2+z
7 -1/2-x,-1/2-y,-z
8 -1/2+x,-1/2-y,-1/2+z
_cell_length_a 33.803(8)
_cell_length_b 8.8976(9)
_cell_length_c 19.658(5)
_cell_angle_alpha 90
_cell_angle_beta 115.975(9)
_cell_angle_gamma 90
_cell_formula_units_Z 4
loop_
_atom_type_symbol
_atom_type_radius_bond
C 0.68
H 0.23
N 0.68
O 0.68
Sm 1.98
loop_
_atom_site_label
_atom_site_type_symbol
_atom_site_fract_x
_atom_site_fract_y
_atom_site_fract_z
Sm1 Sm 0.077201(11) -0.13049(3) 0.160971(19)
O1 O 0.13024(15) -0.1306(4) 0.2937(3)
N1 N 0.19220(17) 0.2512(6) 0.0876(3)
C1 C -0.0278(2) -0.1837(7) 0.1111(4)
Sm2 Sm 0.121606(11) -0.36886(3) 0.484277(19)
O2 O 0.06703(17) -0.3360(5) 0.2387(3)
N2 N 0.19584(19) 0.4726(6) -0.0052(3)
C2 C -0.0150(2) -0.3106(7) 0.0702(4)
O3 O 0.15004(14) -0.2161(5) 0.4106(3)
N3 N 0.26862(17) 0.4514(6) 0.0360(3)
H1 H 0.29580 0.42130 0.06350
C3 C 0.0920(2) -0.3440(7) 0.3075(4)
O4 O 0.09163(15) -0.4443(5) 0.3527(3)
C4 C 0.1268(2) -0.2196(7) 0.3402(4)
O5 O -0.04572(16) -0.4011(5) 0.0317(3)
C5 C 0.1258(2) -0.3931(7) 0.1125(4)
O6 O -0.06720(15) -0.1745(5) 0.0976(3)
C6 C 0.1049(2) -0.3010(7) 0.0388(4)
O7 O 0.00304(16) -0.1011(5) 0.1537(3)
C7 C 0.1423(2) 0.1118(7) 0.1199(4)
O8 O 0.02291(15) -0.3112(5) 0.0766(3)
C8 C 0.1889(2) 0.1530(7) 0.1370(4)
O9 O 0.11249(15) 0.1697(5) 0.0621(3)
C9 C 0.2250(2) 0.1004(8) 0.1968(4)
H2 H 0.22130 0.03070 0.23020
O10 O 0.13693(16) 0.0248(5) 0.1649(3)
C10 C 0.2663(2) 0.1441(8) 0.2105(4)
H3 H 0.29150 0.10390 0.25170
O11 O 0.08739(16) -0.1801(5) 0.0414(3)
C11 C 0.2703(2) 0.2504(8) 0.1617(4)
H4 H 0.29840 0.28820 0.17050
O12 O 0.12662(16) -0.3345(5) 0.1708(3)
C12 C 0.2327(2) 0.3006(7) 0.1000(4)
O13 O 0.13965(16) -0.5223(5) 0.1086(3)
C13 C 0.2327(2) 0.4088(8) 0.0442(4)
O14 O 0.10696(17) -0.3588(5) -0.0186(3)
C14 C 0.2546(2) 0.5513(7) -0.0236(4)
C15 C 0.2767(3) 0.6332(8) -0.0563(5)
H5 H 0.30780 0.62800 -0.03750
C16 C 0.2515(3) 0.7226(9) -0.1173(5)
H6 H 0.26570 0.77880 -0.14140
C17 C 0.2062(3) 0.7333(9) -0.1447(5)
H7 H 0.19030 0.79650 -0.18680
C18 C 0.1838(3) 0.6542(8) -0.1121(4)
H8 H 0.15270 0.66180 -0.13100
C19 C 0.2087(2) 0.5616(7) -0.0497(4)
O15 O 0.00000 0.0945(9) 0.25000
O16 O 0.0827(3) 0.3753(6) 0.1792(5)
O17 O 0.0004(2) 0.3241(10) 0.4220(5)
O18 O 0.03706(15) 0.0630(5) 0.0614(3)
O19 O 0.07253(17) 0.1034(5) 0.2310(3)
O20 O 0.1096(6) 0.1010(14) 0.3951(8)
O21 O 0.0230(7) 0.298(3) 0.3423(17)
O22? O 0.0786(6) 0.1322(12) 0.3669(7)
O23? O 0.0051(9) 0.423(3) 0.2817(16)
Sm1A Sm -0.077201(11) -0.13049(3) 0.339029(19)
Sm1E Sm 0.077201(11) 0.13049(3) 0.660971(19)
Sm1E* Sm 0.077201(11) -0.86951(3) 0.660971(19)
O1A O -0.13024(15) -0.1306(4) 0.2063(3)
N1E N 0.19220(17) -0.2512(6) 0.5876(3)
N1D N -0.19220(17) -0.2512(6) -0.0876(3)
C1A C 0.0278(2) -0.1837(7) 0.3889(4)
Sm2A Sm -0.121606(11) -0.36886(3) 0.015723(19)
Sm2E Sm 0.121606(11) 0.36886(3) -0.015723(19)
Sm2E* Sm 0.121606(11) -0.63114(3) -0.015723(19)
O2A O -0.06703(17) -0.3360(5) 0.2613(3)
N2E N 0.19584(19) -0.4726(6) 0.4948(3)
N2D N -0.19584(19) -0.4726(6) 0.0052(3)
C2A C 0.0150(2) -0.3106(7) 0.4298(4)
O3A O -0.15004(14) -0.2161(5) 0.0894(3)
N3E N 0.26862(17) -0.4514(6) 0.5360(3)
H1E H 0.29580 -0.42130 0.56350
C3A C -0.0920(2) -0.3440(7) 0.1925(4)
O4A O -0.09163(15) -0.4443(5) 0.1473(3)
C4A C -0.1268(2) -0.2196(7) 0.1598(4)
O5A O 0.04572(16) -0.4011(5) 0.4683(3)
C5E C 0.1258(2) -0.6069(7) 0.6125(4)
O6A O 0.06720(15) -0.1745(5) 0.4024(3)
C6E C 0.1049(2) -0.6990(7) 0.5388(4)
O7A O -0.00304(16) -0.1011(5) 0.3463(3)
C7E C 0.1423(2) -0.1118(7) 0.6199(4)
O8A O -0.02291(15) -0.3112(5) 0.4234(3)
C8E C 0.1889(2) -0.1530(7) 0.6370(4)
O9E O 0.11249(15) -0.1697(5) 0.5621(3)
O9D O -0.11249(15) -0.1697(5) -0.0621(3)
C9E C 0.2250(2) -0.1004(8) 0.6968(4)
H2E H 0.22130 -0.03070 0.73020
O10E O 0.13693(16) -0.0248(5) 0.6649(3)
O10A O -0.13693(16) 0.0248(5) 0.3351(3)
C10E C 0.2663(2) -0.1441(8) 0.7105(4)
H3E H 0.29150 -0.10390 0.75170
O11E O 0.08739(16) -0.8199(5) 0.5414(3)
O11A O -0.08739(16) -0.1801(5) 0.4586(3)
C11E C 0.2703(2) -0.2504(8) 0.6617(4)
H4E H 0.29840 -0.28820 0.67050
O12E O 0.12662(16) -0.6655(5) 0.6708(3)
O12A O -0.12662(16) -0.3345(5) 0.3292(3)
C12E C 0.2327(2) -0.3006(7) 0.6000(4)
O13E O 0.13965(16) -0.4777(5) 0.6086(3)
O13D O -0.13965(16) -0.4777(5) -0.1086(3)
C13E C 0.2327(2) -0.4088(8) 0.5442(4)
O14E O 0.10696(17) -0.6412(5) 0.4814(3)
O14D O -0.10696(17) -0.6412(5) 0.0186(3)
C14E C 0.2546(2) -0.5513(7) 0.4764(4)
C15E C 0.2767(3) -0.6332(8) 0.4437(5)
H5E H 0.30780 -0.62800 0.46250
C16E C 0.2515(3) -0.7226(9) 0.3827(5)
H6E H 0.26570 -0.77880 0.35860
C17E C 0.2062(3) -0.7333(9) 0.3553(5)
H7E H 0.19030 -0.79650 0.31320
C18E C 0.1838(3) -0.6542(8) 0.3879(4)
H8E H 0.15270 -0.66180 0.36900
C19E C 0.2087(2) -0.5616(7) 0.4503(4)
O18A O -0.03706(15) 0.0630(5) 0.4386(3)
O19A O -0.07253(17) 0.1034(5) 0.2690(3)
#END
