
#######################################################################
#
#                 Cambridge Crystallographic Data Centre
#                                CCDC
#
#######################################################################
#
# If this CIF has been generated from an entry in the Cambridge
# Structural Database, then it will include bibliographic, chemical,
# crystal, experimental, refinement or atomic coordinate data resulting
# from the CCDC's data processing and validation procedures.
#
#######################################################################

data_CSD_CIF_YANPEJ
_audit_creation_date 2005-07-14
_audit_creation_method CSD-ConQuest-V1
_database_code_CSD YANPEJ
_database_code_depnum_ccdc_archive 'CCDC 234499'
_chemical_formula_sum 'C50 H56 Fe1 Mn2 N11 O8'
_chemical_formula_moiety
;
(C8 H20 N1 1+)n,n(C42 H36 Fe1 Mn2 N10 O8 1-)
;
_journal_coden_Cambridge 4
_journal_volume 127
_journal_year 2005
_journal_page_first 3090
_journal_name_full 'J.Am.Chem.Soc. '
loop_
_publ_author_name
"M.Ferbinteanu"
"H.Miyasaka"
"W.Wernsdorfer"
"K.Nakata"
"K.Sugiura"
"M.Yamashita"
"C.Coulon"
"R.Clerac"
_chemical_name_systematic
;
catena-(Tetraethylammonium 
bis(\m~2~-cyano)-bis(\m~2~-N,N'-bis(5-methoxysalicylidene)ethylenediamine)-tet
racyano-iron(iii)-di-manganese(iii))
;
_cell_volume   1259.570
_exptl_crystal_colour 'brown'
_exptl_crystal_density_diffrn 1.456
_exptl_crystal_description 'prism'
_diffrn_ambient_temperature 117.1
_refine_special_details
;
Ethyl groups of the cation are disordered over two positions with occupancy 
0.54:0.46.
;
#These two values have been output from a single CSD field.
_refine_ls_R_factor_gt 0.052
_refine_ls_wR_factor_gt 0.052
_symmetry_cell_setting triclinic
_symmetry_space_group_name_H-M 'P -1'
_symmetry_Int_Tables_number 2
loop_
_symmetry_equiv_pos_site_id
_symmetry_equiv_pos_as_xyz
1 x,y,z
2 -x,-y,-z
_cell_length_a 9.877(3)
_cell_length_b 11.162(4)
_cell_length_c 12.536(5)
_cell_angle_alpha 87.32(2)
_cell_angle_beta 70.98(2)
_cell_angle_gamma 74.77(2)
_cell_formula_units_Z 1
loop_
_atom_type_symbol
_atom_type_radius_bond
C 0.68
H 0.23
Fe 1.34
Mn 1.31
N 0.68
O 0.68
loop_
_atom_site_label
_atom_site_type_symbol
_atom_site_fract_x
_atom_site_fract_y
_atom_site_fract_z
Fe1 Fe 0.00000 0.00000 0.00000
O1 O -0.3642(3) 0.5074(2) 0.0098(2)
O2 O 0.1897(3) 0.4910(3) -0.2999(2)
O3 O -0.5443(3) 0.4125(2) 0.1989(2)
O4 O -1.0053(4) 0.2717(4) 0.5175(3)
N1 N -0.3516(3) 0.3065(3) -0.1142(3)
N2 N -0.5337(3) 0.2247(3) 0.0571(3)
N3 N -0.2424(4) 0.2447(3) 0.0749(3)
N4 N 0.2441(4) 0.1339(3) -0.1228(3)
N5 N 0.0940(4) -0.0032(3) 0.2143(3)
C1 C -0.2241(4) 0.4989(3) -0.0629(3)
C2 C -0.1470(4) 0.5811(4) -0.0487(3)
C3 C -0.0082(4) 0.5813(4) -0.1249(3)
C4 C 0.0552(5) 0.4963(4) -0.2173(3)
C5 C 0.2833(6) 0.5553(6) -0.2766(5)
C6 C -0.0188(4) 0.4127(4) -0.2311(3)
C7 C -0.1582(4) 0.4124(3) -0.1554(3)
C8 C -0.2316(4) 0.3276(3) -0.1822(3)
C9 C -0.4261(4) 0.2230(4) -0.1461(3)
C10 C -0.4694(4) 0.1427(3) -0.0466(3)
C11 C -0.6430(4) 0.2063(4) 0.1388(3)
C12 C -0.7072(5) 0.2750(4) 0.2465(3)
C13 C -0.8267(5) 0.2411(4) 0.3270(3)
C14 C -0.8896(5) 0.2993(4) 0.4322(4)
C15 C -1.0748(10) 0.1905(9) 0.4865(6)
C16 C -0.8349(5) 0.3936(4) 0.4590(4)
C17 C -0.7192(5) 0.4275(4) 0.3809(3)
C18 C -0.6524(4) 0.3710(3) 0.2715(3)
C19 C -0.1484(4) 0.1541(4) 0.0484(3)
C20 C 0.1511(5) 0.0864(4) -0.0770(4)
C21 C 0.0567(4) -0.0015(4) 0.1354(4)
H1 H -0.18990 0.63860 0.01440
H2 H 0.04280 0.63860 -0.11420
H3 H 0.26850 0.55570 -0.19790
H4 H 0.38390 0.51480 -0.31660
H5 H 0.26040 0.63840 -0.29980
H6 H 0.02570 0.35410 -0.29330
H7 H -0.18900 0.28500 -0.25400
H8 H -0.36050 0.17240 -0.21070
H9 H -0.51200 0.26990 -0.16210
H10 H -0.38440 0.08090 -0.04280
H11 H -0.54080 0.10390 -0.05430
H12 H -0.68540 0.14260 0.12800
H13 H -0.86400 0.17750 0.30840
H14 H -1.04840 0.18550 0.40660
H15 H -1.17930 0.22090 0.51890
H16 H -1.04310 0.11030 0.51310
H17 H -0.87850 0.43410 0.53170
H18 H -0.68290 0.49100 0.40100
Mn1 Mn -0.44015(6) 0.36435(5) 0.04708(5)
N6 N 0.50000 0.00000 0.50000
C22 C 0.6693(11) 0.0959(8) 0.3402(7)
C23 C 0.683(2) -0.003(2) 0.440(2)
C24 C 0.4348(10) 0.2142(6) 0.6030(7)
C25 C 0.5285(13) 0.0776(10) 0.5889(9)
C26? C 0.509(2) 0.0746(12) 0.3988(11)
C27? C 0.384(2) 0.1237(11) 0.520(1)
O1A O -0.6358(3) 0.4926(2) -0.0098(2)
O1* O 0.6358(3) -0.4926(2) 0.0098(2)
O1A* O 0.3642(3) -0.5074(2) -0.0098(2)
O2A O -0.1897(3) -0.4910(3) 0.2999(2)
O3A O 0.5443(3) -0.4125(2) -0.1989(2)
O4A O 1.0053(4) -0.2717(4) -0.5175(3)
N1A N 0.3516(3) -0.3065(3) 0.1142(3)
N2A N 0.5337(3) -0.2247(3) -0.0571(3)
N3A N 0.2424(4) -0.2447(3) -0.0749(3)
N4A N -0.2441(4) -0.1339(3) 0.1228(3)
N5A N -0.0940(4) 0.0032(3) -0.2143(3)
C1A C 0.2241(4) -0.4989(3) 0.0629(3)
C2A C 0.1470(4) -0.5811(4) 0.0487(3)
C3A C 0.0082(4) -0.5813(4) 0.1249(3)
C4A C -0.0552(5) -0.4963(4) 0.2173(3)
C5A C -0.2833(6) -0.5553(6) 0.2766(5)
C6A C 0.0188(4) -0.4127(4) 0.2311(3)
C7A C 0.1582(4) -0.4124(3) 0.1554(3)
C8A C 0.2316(4) -0.3276(3) 0.1822(3)
C9A C 0.4261(4) -0.2230(4) 0.1461(3)
C10A C 0.4694(4) -0.1427(3) 0.0466(3)
C11A C 0.6430(4) -0.2063(4) -0.1388(3)
C12A C 0.7072(5) -0.2750(4) -0.2465(3)
C13A C 0.8267(5) -0.2411(4) -0.3270(3)
C14A C 0.8896(5) -0.2993(4) -0.4322(4)
C15A C 1.0748(10) -0.1905(9) -0.4865(6)
C16A C 0.8349(5) -0.3936(4) -0.4590(4)
C17A C 0.7192(5) -0.4275(4) -0.3809(3)
C18A C 0.6524(4) -0.3710(3) -0.2715(3)
C19A C 0.1484(4) -0.1541(4) -0.0484(3)
C20A C -0.1511(5) -0.0864(4) 0.0770(4)
C21A C -0.0567(4) 0.0015(4) -0.1354(4)
H1A H 0.18990 -0.63860 -0.01440
H2A H -0.04280 -0.63860 0.11420
H3A H -0.26850 -0.55570 0.19790
H4A H -0.38390 -0.51480 0.31660
H5A H -0.26040 -0.63840 0.29980
H6A H -0.02570 -0.35410 0.29330
H7A H 0.18900 -0.28500 0.25400
H8A H 0.36050 -0.17240 0.21070
H9A H 0.51200 -0.26990 0.16210
H10A H 0.38440 -0.08090 0.04280
H11A H 0.54080 -0.10390 0.05430
H12A H 0.68540 -0.14260 -0.12800
H13A H 0.86400 -0.17750 -0.30840
H14A H 1.04840 -0.18550 -0.40660
H15A H 1.17930 -0.22090 -0.51890
H16A H 1.04310 -0.11030 -0.51310
H17A H 0.87850 -0.43410 -0.53170
H18A H 0.68290 -0.49100 -0.40100
Mn1A Mn -0.55985(6) 0.63565(5) -0.04708(5)
Mn1A* Mn 0.44015(6) -0.36435(5) -0.04708(5)
Mn1* Mn 0.55985(6) -0.63565(5) 0.04708(5)
C22A C 0.3307(11) -0.0959(8) 0.6598(7)
C23A C 0.317(2) 0.003(2) 0.560(2)
C24A C 0.5652(10) -0.2142(6) 0.3970(7)
C25A C 0.4715(13) -0.0776(10) 0.4111(9)
#END
