
#######################################################################
#
#                 Cambridge Crystallographic Data Centre
#                                CCDC
#
#######################################################################
#
# If this CIF has been generated from an entry in the Cambridge
# Structural Database, then it will include bibliographic, chemical,
# crystal, experimental, refinement or atomic coordinate data resulting
# from the CCDC's data processing and validation procedures.
#
#######################################################################

data_CSD_CIF_YANWOC03
_audit_creation_date 2017-05-10
_audit_creation_method CSD-ConQuest-V1
_database_code_CSD YANWOC03
_database_code_depnum_ccdc_archive 'CCDC 1520969'
_chemical_formula_sum 'C8 H20 Mn2 N4 O12'
_chemical_formula_moiety
;
2(C1 H7 N2 1+),n(C6 H6 Mn2 O12 2-)
;
_journal_coden_Cambridge 1096
_journal_volume 29
_journal_year 2017
_journal_page_first 2264
_journal_name_full 'Chem.Mater. '
loop_
_publ_author_name
"M.Maczka"
"A.Gagor"
"M.Ptak"
"W.Paraguassu"
"T.A.da Silva"
"A.Sieradzki"
"A.Pikul"
_chemical_name_systematic
;
catena-[bis(1-methylhydrazin-1-ium) hexakis(\m-formato)-di-manganese(ii)]
;
_cell_volume    444.775
_exptl_crystal_density_diffrn 1.77
_exptl_crystal_description 'prism'
_diffrn_ambient_temperature 100
_diffrn_special_details
;
twin

;
#These two values have been output from a single CSD field.
_refine_ls_R_factor_gt 0.0892
_refine_ls_wR_factor_gt 0.0892
_symmetry_cell_setting triclinic
_symmetry_space_group_name_H-M 'P 1'
_symmetry_Int_Tables_number 1
loop_
_symmetry_equiv_pos_site_id
_symmetry_equiv_pos_as_xyz
1 x,y,z
_cell_length_a 8.198(2)
_cell_length_b 8.200(2)
_cell_length_c 8.933(3)
_cell_angle_alpha 63.28(3)
_cell_angle_beta 63.31(3)
_cell_angle_gamma 60.06(3)
_cell_formula_units_Z 1
loop_
_atom_type_symbol
_atom_type_radius_bond
C 0.68
H 0.23
Mn 1.61
N 0.68
O 0.68
loop_
_atom_site_label
_atom_site_type_symbol
_atom_site_fract_x
_atom_site_fract_y
_atom_site_fract_z
Mn1 Mn 0.7271(4) 0.7676(4) 0.1006(3)
Mn2 Mn 1.2326(4) 0.2620(4) 0.6011(3)
O1 O 1.1969(16) -0.0223(16) 0.7606(12)
O2 O 0.7010(16) 0.9188(17) 0.2599(12)
O3 O 0.4476(18) 0.7331(18) 0.2590(19)
O4 O 1.3690(18) 0.2272(15) 0.7737(16)
O5 O 0.7670(16) 0.6175(19) -0.0705(17)
O6 O 1.0106(15) -0.1969(16) 0.9385(12)
O7 O 0.9499(16) 0.423(2) -0.2466(16)
O8 O 1.0685(15) 0.2902(17) 0.4432(13)
O9 O 0.8889(17) 0.4800(16) 0.2575(14)
O10 O 0.2667(16) 0.5387(18) 0.4348(19)
O11 O 0.5166(16) 1.1024(16) 0.4432(13)
O12 O 1.5648(19) 0.0474(19) 0.9473(15)
C1 C 0.974(3) 0.458(3) 0.350(2)
H1 H 0.97180 0.57050 0.35430
C2 C 0.424(2) 0.567(2) 0.3395(19)
H2 H 0.53630 0.45540 0.32500
C3 C 1.035(3) -0.041(3) 0.837(3)
H3 H 0.92430 0.06990 0.81650
C4 C 0.926(2) 0.525(3) -0.1503(19)
H4 H 1.03770 0.52400 -0.14510
C5 C 0.545(3) 1.025(2) 0.345(3)
H5 H 0.43160 1.04640 0.32710
C6 C 1.472(3) 0.076(3) 0.851(3)
H6 H 1.48610 -0.03760 0.83850
N1 N 1.075(2) 1.007(2) -0.646(2)
H7 H 1.19130 0.90870 -0.65800
H8 H 1.08740 1.10270 -0.63530
C7 C 1.006(5) 1.084(5) -0.808(3)
H9 H 0.87740 1.18550 -0.79210
H10 H 1.00210 0.97820 -0.82420
H11 H 1.09660 1.13690 -0.90990
N2 N 0.931(2) 0.939(2) -0.4901(19)
H12 H 0.94300 0.82170 -0.48530
H13 H 0.80890 1.02490 -0.49290
N3 N 0.406(3) 0.468(3) 0.012(2)
H14 H 0.49850 0.34720 0.02130
H15 H 0.29820 0.46770 0.01020
C8 C 0.553(5) 0.533(5) -0.310(3)
H16 H 0.44590 0.52980 -0.32490
H17 H 0.65190 0.40320 -0.29000
H18 H 0.60890 0.61950 -0.41420
N4 N 0.477(2) 0.609(3) -0.1528(19)
H19 H 0.57370 0.62370 -0.14550
H20 H 0.37960 0.72590 -0.16780
Mn1* Mn 0.7271(4) -0.2324(4) 1.1006(3)
Mn1** Mn 1.7271(4) -0.2324(4) 1.1006(3)
Mn2* Mn 0.2326(4) 0.2620(4) 0.6011(3)
Mn2** Mn 0.2326(4) 1.2620(4) 0.6011(3)
Mn2*** Mn 1.2326(4) 0.2620(4) -0.3989(3)
O6* O 1.0106(15) 0.8031(16) -0.0615(12)
O7* O 0.9499(16) 0.423(2) 0.7534(16)
O10* O 1.2667(16) 0.5387(18) 0.4348(19)
O11* O 1.5166(16) 0.1024(16) 0.4432(13)
O12* O 0.5648(19) 1.0474(19) -0.0527(15)
#END
