
#######################################################################
#
#                 Cambridge Crystallographic Data Centre
#                                CCDC
#
#######################################################################
#
# If this CIF has been generated from an entry in the Cambridge
# Structural Database, then it will include bibliographic, chemical,
# crystal, experimental, refinement or atomic coordinate data resulting
# from the CCDC's data processing and validation procedures.
#
#######################################################################

data_CSD_CIF_YANXIX04
_audit_creation_date 2018-08-22
_audit_creation_method CSD-ConQuest-V1
_database_code_CSD YANXIX04
_database_code_depnum_ccdc_archive 'CCDC 1835091'
_chemical_formula_sum 'C8 H20 N4 O12 Zn2'
_chemical_formula_moiety
;
(C6 H6 O12 Zn2 2-)n,2(C1 H7 N2 1+)
;
_journal_coden_Cambridge 1695
_journal_volume 6
_journal_year 2018
_journal_page_first 9420
_journal_name_full 'J.Mater.Chem.C '
loop_
_publ_author_name
"A.Sieradzki"
"M.Maczka"
"M.Simenas"
"J.K.Zareba"
"A.Gagor"
"S.Balciunas"
"M.Kinka"
"A.Ciupa"
"M.Nyk"
"V.Samulionis"
"J.Banys"
"M.Paluch"
"S.Pawlus"
_chemical_name_systematic
;
catena-[bis(1-methylhydrazin-1-ium) hexakis(\m-formato)-di-zinc(ii)]
;
_cell_volume    414.596
_exptl_crystal_colour 'colorless'
_exptl_crystal_density_diffrn 1.983
_exptl_crystal_description 'prism'
_diffrn_ambient_temperature 150
_diffrn_special_details
;
twin

;
#These two values have been output from a single CSD field.
_refine_ls_R_factor_gt 0.0418
_refine_ls_wR_factor_gt 0.0418
_symmetry_cell_setting triclinic
_symmetry_space_group_name_H-M 'P 1'
_symmetry_Int_Tables_number 1
loop_
_symmetry_equiv_pos_site_id
_symmetry_equiv_pos_as_xyz
1 x,y,z
_cell_length_a 8.029(2)
_cell_length_b 8.027(2)
_cell_length_c 8.722(3)
_cell_angle_alpha 62.81(3)
_cell_angle_beta 63.22(3)
_cell_angle_gamma 59.99(3)
_cell_formula_units_Z 1
loop_
_atom_type_symbol
_atom_type_radius_bond
C 0.68
H 0.23
N 0.68
O 0.68
Zn 1.22
loop_
_atom_site_label
_atom_site_type_symbol
_atom_site_fract_x
_atom_site_fract_y
_atom_site_fract_z
Zn1 Zn 1.23266(16) 0.26259(16) 0.59959(19)
O1 O 1.1872(7) -0.0107(8) 0.7698(6)
O2 O 1.3651(7) 0.2313(7) 0.7701(6)
O3 O 1.0013(7) -0.1906(7) 0.9433(6)
O4 O 1.0771(6) 0.2976(7) 0.4395(6)
O5 O 0.8932(7) 0.4883(7) 0.2481(6)
O6 O 1.5668(7) 0.0475(7) 0.9518(6)
C1 C 0.9668(11) 0.4652(10) 0.3561(9)
H1 H 0.93970 0.58000 0.37900
C2 C 1.0186(10) -0.0297(10) 0.842(1)
H2 H 0.90490 0.08170 0.81710
C3 C 1.4789(12) 0.0686(11) 0.8551(11)
H3 H 1.49830 -0.04950 0.84270
O7 O 1.6920(7) -0.0944(7) 0.2727(6)
O8 O 1.5121(7) 0.0915(7) 0.4565(6)
C4 C 1.5330(11) 0.0265(11) 0.3415(9)
H4 H 1.42150 0.07180 0.30460
O9 O 1.4534(7) 0.7252(7) 0.2592(7)
O10 O 1.2755(7) 0.5367(7) 0.4428(6)
C5 C 1.4421(11) 0.5498(11) 0.3448(11)
H5 H 1.55660 0.43410 0.33370
O11 O 0.7662(7) 0.6151(7) 0.9348(6)
O12 O 0.9529(7) 0.4291(7) 0.7473(6)
C6 C 0.928(1) 0.5075(11) 0.8492(9)
H6 H 1.04410 0.48540 0.86710
Zn2 Zn 0.72833(16) 0.76739(16) 0.09959(19)
N1 N 0.3910(8) 0.4619(10) 0.0142(7)
H7 H 0.48740 0.34300 0.03570
H8 H 0.29420 0.44740 0.00470
C7 C 0.5369(19) 0.5646(19) -0.3145(10)
H9 H 0.42700 0.56120 -0.32870
H10 H 0.64760 0.43780 -0.31550
H11 H 0.57770 0.67080 -0.41160
N2 N 0.4752(8) 0.6000(8) -0.1474(9)
H12 H 0.38400 0.72460 -0.15460
H13 H 0.58100 0.59540 -0.13360
N3 N 1.0670(9) 1.0096(9) 0.3524(10)
H14 H 1.19110 0.91730 0.34240
H15 H 1.06580 1.11350 0.36620
C8 C 1.0197(19) 1.079(2) 0.1829(11)
H16 H 0.88880 1.18420 0.18910
H17 H 1.02170 0.96850 0.16540
H18 H 1.11790 1.13050 0.08410
N4 N 0.9308(11) 0.9233(8) 0.5150(8)
H19 H 0.99330 0.84200 0.60000
H20 H 0.89900 0.85000 0.48850
O3* O 1.0013(7) 0.8094(7) -0.0567(6)
O6* O 0.5668(7) 1.0475(7) -0.0482(6)
O7* O 0.6920(7) 0.9056(7) 0.2727(6)
O9* O 0.4534(7) 0.7252(7) 0.2592(7)
O11* O 0.7662(7) 0.6151(7) -0.0652(6)
Zn2* Zn 0.72833(16) -0.23261(16) 1.09959(19)
Zn2** Zn 0.72833(16) 0.76739(16) 1.09959(19)
Zn2*** Zn 1.72833(16) -0.23261(16) 0.09959(19)
Zn2**** Zn 1.72833(16) -0.23261(16) 1.09959(19)
Zn2***** Zn 1.72833(16) 0.76739(16) 0.09959(19)
#END
