
#######################################################################
#
#                 Cambridge Crystallographic Data Centre
#                                CCDC
#
#######################################################################
#
# If this CIF has been generated from an entry in the Cambridge
# Structural Database, then it will include bibliographic, chemical,
# crystal, experimental, refinement or atomic coordinate data resulting
# from the CCDC's data processing and validation procedures.
#
#######################################################################

data_CSD_CIF_YAPLEI
_audit_creation_date 2012-06-19
_audit_creation_method CSD-ConQuest-V1
_database_code_CSD YAPLEI
_database_code_depnum_ccdc_archive 'CCDC 876953'
_chemical_formula_sum 'C97 H76 Cd3 Cl1 N3 O13'
_chemical_formula_moiety
;
(C95 H68 Cd3 Cl1 N2 O13 1-)n,n(C2 H8 N1 1+)
;
_journal_coden_Cambridge 4
_journal_volume 134
_journal_year 2012
_journal_page_first 55
_journal_name_full 'J.Am.Chem.Soc. '
loop_
_publ_author_name
"S.P.Argent"
"A.Greenaway"
"M.del C.Gimenez-Lopez"
"W.Lewis"
"H.Nowell"
"A.N.Khlobystov"
"A.J.Blake"
"N.R.Champness"
"M.Schroder"
_chemical_name_systematic
;
catena-(dimethylammonium 
bis(\m~5~-1,3,5-tris(4'-carboxylatobiphenyl-2-yl)benzene)-(\m~3~-chloro)-(N,N-
dimethylformamide)-dimethylamine-tri-cadmium(ii))
;
_cell_volume   8182.377
_exptl_crystal_colour 'colorless'
_exptl_crystal_density_diffrn 1.513
_exptl_crystal_description 'block'
_diffrn_ambient_temperature 90
_diffrn_special_details
;
twin

;
#These two values have been output from a single CSD field.
_refine_ls_R_factor_gt 0.0529
_refine_ls_wR_factor_gt 0.0529
_symmetry_cell_setting monoclinic
_symmetry_space_group_name_H-M 'C c'
_symmetry_Int_Tables_number 9
loop_
_symmetry_equiv_pos_site_id
_symmetry_equiv_pos_as_xyz
1 x,y,z
2 x,-y,1/2+z
3 1/2+x,1/2+y,z
4 1/2+x,1/2-y,1/2+z
_cell_length_a 30.7832(6)
_cell_length_b 11.41495(19)
_cell_length_c 23.7561(4)
_cell_angle_alpha 90
_cell_angle_beta 101.4194(17)
_cell_angle_gamma 90
_cell_formula_units_Z 4
loop_
_atom_type_symbol
_atom_type_radius_bond
C 0.68
H 0.23
Cd 1.55
Cl 1.05
N 0.68
O 0.68
loop_
_atom_site_label
_atom_site_type_symbol
_atom_site_fract_x
_atom_site_fract_y
_atom_site_fract_z
Cd1 Cd 0.045933(12) 0.81761(3) 0.627498(16)
Cd2 Cd 0.058430(14) 1.04601(4) 0.533349(18)
Cd3 Cd 0.026796(14) 0.99289(4) 0.74981(2)
Cl1 Cl 0.04826(6) 1.05276(13) 0.63575(8)
O1 O 0.05686(17) 0.6196(4) 0.6277(3)
C1 C 0.0275(2) 0.5443(6) 0.6211(4)
H1 H -0.00240 0.57040 0.61310
N1 N 0.0347(2) 0.4298(5) 0.6243(3)
C2 C 0.0791(3) 0.3823(8) 0.6396(5)
H2 H 0.10000 0.44530 0.65420
H3 H 0.08740 0.34700 0.60560
H4 H 0.08010 0.32240 0.66940
C3 C -0.0018(3) 0.3464(8) 0.6136(5)
H5 H -0.02990 0.38880 0.60340
H6 H -0.00160 0.29980 0.64830
H7 H 0.00170 0.29440 0.58200
N2 N 0.00967(19) 0.8668(5) 0.8196(3)
H8 H 0.03230 0.87440 0.85180
C4 C -0.0316(3) 0.9037(8) 0.8370(4)
H9 H -0.03540 0.85920 0.87100
H10 H -0.05680 0.88880 0.80560
H11 H -0.03000 0.98750 0.84610
C5 C 0.0075(2) 0.7424(6) 0.8039(4)
H12 H 0.00650 0.69490 0.83800
H13 H 0.03380 0.72130 0.78870
H14 H -0.01920 0.72790 0.77470
N3 N 0.0939(2) 0.8598(5) 0.4234(3)
H15 H 0.06860 0.87220 0.39600
H16 H 0.09500 0.91640 0.45120
C6 C 0.1328(3) 0.8713(8) 0.3967(4)
H17 H 0.13330 0.94980 0.38010
H18 H 0.13140 0.81250 0.36640
H19 H 0.15980 0.85940 0.42590
C7 C 0.0912(3) 0.7421(7) 0.4499(4)
H20 H 0.06750 0.74210 0.47190
H21 H 0.11950 0.72420 0.47550
H22 H 0.08500 0.68260 0.41960
C8 C 0.3173(2) 0.8666(6) 0.7746(3)
C9 C 0.3460(2) 0.9316(6) 0.8157(3)
H23 H 0.36530 0.89210 0.84600
C10 C 0.3470(2) 1.0545(5) 0.8131(3)
C11 C 0.3185(2) 1.1108(6) 0.7684(3)
H24 H 0.31870 1.19390 0.76620
C12 C 0.2896(2) 1.0470(6) 0.7270(3)
C13 C 0.28942(19) 0.9257(6) 0.7301(3)
H25 H 0.27010 0.88210 0.70160
C14 C 0.3179(2) 0.7363(6) 0.7796(3)
C15 C 0.2792(2) 0.6698(5) 0.7797(3)
C16 C 0.2827(2) 0.5485(6) 0.7850(3)
H26 H 0.25670 0.50330 0.78450
C17 C 0.3230(3) 0.4927(6) 0.7908(4)
H27 H 0.32490 0.41000 0.79520
C18 C 0.3611(2) 0.5591(7) 0.7902(3)
H28 H 0.38900 0.52130 0.79340
C19 C 0.3583(2) 0.6787(6) 0.7850(3)
H29 H 0.38450 0.72290 0.78510
C20 C 0.2349(2) 0.7260(5) 0.7738(3)
C21 C 0.2282(2) 0.8242(5) 0.8063(3)
H30 H 0.25210 0.85500 0.83390
C22 C 0.1867(2) 0.8768(6) 0.7985(3)
H31 H 0.18240 0.94350 0.82070
C23 C 0.1512(2) 0.8322(6) 0.7580(3)
C24 C 0.1573(2) 0.7323(6) 0.7267(3)
H32 H 0.13320 0.70020 0.69990
C25 C 0.1990(2) 0.6799(5) 0.7348(3)
H33 H 0.20310 0.61180 0.71350
C26 C 0.1068(2) 0.8875(6) 0.7518(3)
O2 O 0.10218(16) 0.9820(4) 0.7770(3)
O3 O 0.07284(15) 0.8338(4) 0.7226(2)
C27 C 0.3761(2) 1.1224(6) 0.8596(3)
C28 C 0.4204(2) 1.0902(6) 0.8833(3)
C29 C 0.4429(2) 1.1515(7) 0.9312(3)
H34 H 0.47230 1.12850 0.94800
C30 C 0.4241(2) 1.2445(6) 0.9554(3)
H35 H 0.44010 1.28380 0.98820
C31 C 0.3813(2) 1.2789(6) 0.9305(3)
H36 H 0.36810 1.34390 0.94570
C32 C 0.3578(2) 1.2184(6) 0.8835(3)
H37 H 0.32850 1.24260 0.86700
C33 C 0.4432(2) 0.9925(6) 0.8597(3)
C34 C 0.4449(2) 0.9880(6) 0.8008(3)
H38 H 0.43150 1.04820 0.77560
C35 C 0.4661(2) 0.8952(6) 0.7798(3)
H39 H 0.46770 0.89310 0.74030
C36 C 0.4852(2) 0.8050(6) 0.8161(3)
C37 C 0.4839(2) 0.8108(6) 0.8745(3)
H40 H 0.49710 0.75070 0.89980
C38 C 0.4630(2) 0.9050(6) 0.8955(3)
H41 H 0.46250 0.90880 0.93530
C39 C 0.5059(2) 0.7004(6) 0.7939(3)
O4 O 0.49826(19) 0.6804(4) 0.7410(2)
O5 O 0.52805(17) 0.6307(4) 0.8292(2)
C40 C 0.2570(2) 1.1087(5) 0.6811(3)
C41 C 0.2698(2) 1.1971(6) 0.6468(3)
C42 C 0.2373(2) 1.2553(6) 0.6074(3)
H42 H 0.24580 1.31470 0.58370
C43 C 0.1928(2) 1.2279(6) 0.6023(3)
H43 H 0.17100 1.26890 0.57550
C44 C 0.1800(2) 1.1397(6) 0.6366(3)
H44 H 0.14960 1.12040 0.63360
C45 C 0.2124(2) 1.0812(6) 0.6749(3)
H45 H 0.20390 1.02030 0.69770
C46 C 0.3172(2) 1.2306(6) 0.6511(3)
C47 C 0.3493(2) 1.1490(6) 0.6430(3)
H46 H 0.34100 1.06990 0.63420
C48 C 0.3932(2) 1.1826(6) 0.6478(3)
H47 H 0.41450 1.12610 0.64190
C49 C 0.4066(2) 1.2972(6) 0.6610(3)
C50 C 0.3743(2) 1.3791(6) 0.6698(3)
H48 H 0.38270 1.45740 0.68010
C51 C 0.3305(2) 1.3462(6) 0.6635(3)
H49 H 0.30900 1.40340 0.66760
C52 C 0.4542(2) 1.3359(6) 0.6667(3)
O6 O 0.47984(14) 1.2703(4) 0.6452(2)
O7 O 0.46451(15) 1.4303(4) 0.6924(2)
C53 C -0.2252(2) 0.8694(6) 0.4628(3)
C54 C -0.1985(2) 0.9309(6) 0.5078(3)
H50 H -0.17880 0.88880 0.53660
C55 C -0.2004(2) 1.0531(5) 0.5111(3)
C56 C -0.2303(2) 1.1131(6) 0.4683(3)
H51 H -0.23210 1.19610 0.47010
C57 C -0.2571(2) 1.0541(6) 0.4239(3)
C58 C -0.2538(2) 0.9326(6) 0.4214(3)
H52 H -0.27180 0.89180 0.39040
C59 C -0.2239(2) 0.7398(6) 0.4575(3)
C60 C -0.1853(2) 0.6756(5) 0.4566(3)
C61 C -0.1880(3) 0.5545(6) 0.4491(3)
H53 H -0.16190 0.51110 0.44760
C62 C -0.2284(3) 0.4961(6) 0.4438(3)
H54 H -0.22990 0.41360 0.43850
C63 C -0.2663(3) 0.5602(7) 0.4464(3)
H55 H -0.29390 0.52110 0.44360
C64 C -0.2642(2) 0.6794(6) 0.4528(3)
H56 H -0.29050 0.72210 0.45420
C65 C -0.1409(2) 0.7332(6) 0.4635(3)
C66 C -0.1058(2) 0.6859(6) 0.5028(3)
H57 H -0.11000 0.61520 0.52210
C67 C -0.0644(2) 0.7402(6) 0.5143(3)
H58 H -0.04080 0.70670 0.54130
C68 C -0.0578(2) 0.8424(6) 0.4866(3)
C69 C -0.0926(2) 0.8887(6) 0.4451(3)
H59 H -0.08810 0.95790 0.42480
C70 C -0.1336(2) 0.8338(6) 0.4336(3)
H60 H -0.15680 0.86490 0.40510
C71 C -0.0147(2) 0.9067(7) 0.5018(3)
O8 O 0.01867(16) 0.8519(5) 0.5301(2)
O9 O -0.01181(16) 1.0108(5) 0.4875(3)
C72 C -0.1697(2) 1.1167(5) 0.5569(3)
C73 C -0.1834(2) 1.2076(6) 0.5896(3)
C74 C -0.1512(2) 1.2637(6) 0.6311(3)
H61 H -0.16000 1.32620 0.65290
C75 C -0.1072(2) 1.2305(6) 0.6412(3)
H62 H -0.08630 1.26870 0.67010
C76 C -0.0936(2) 1.1415(6) 0.6091(3)
H63 H -0.06330 1.11930 0.61550
C77 C -0.1246(2) 1.0850(6) 0.5675(3)
H64 H -0.11520 1.02360 0.54580
C78 C -0.2308(2) 1.2448(6) 0.5831(3)
C79 C -0.2636(2) 1.1671(6) 0.5921(3)
H65 H -0.25640 1.08710 0.60020
C80 C -0.3071(2) 1.2058(6) 0.5892(3)
H66 H -0.32900 1.15300 0.59720
C81 C -0.3183(2) 1.3220(6) 0.5748(3)
C82 C -0.2859(2) 1.3992(6) 0.5642(3)
H67 H -0.29350 1.47780 0.55340
C83 C -0.2425(2) 1.3611(6) 0.5695(3)
H68 H -0.22030 1.41520 0.56380
C84 C -0.3652(2) 1.3636(6) 0.5721(3)
O10 O -0.38767(14) 1.3124(4) 0.6030(2)
O11 O -0.37839(15) 1.4491(4) 0.5388(2)
C85 C -0.2878(2) 1.1161(6) 0.3769(3)
C86 C -0.3308(2) 1.0736(6) 0.3546(3)
C87 C -0.3557(2) 1.1248(7) 0.3052(3)
H69 H -0.38440 1.09520 0.28950
C88 C -0.3390(3) 1.2188(8) 0.2785(3)
H70 H -0.35590 1.25130 0.24420
C89 C -0.2978(3) 1.2646(7) 0.3022(3)
H71 H -0.28700 1.33150 0.28550
C90 C -0.2724(2) 1.2130(6) 0.3501(3)
H72 H -0.24380 1.24360 0.36530
C91 C -0.3514(2) 0.9795(6) 0.3839(3)
C92 C -0.3522(2) 0.9857(6) 0.4417(3)
H73 H -0.33850 1.05020 0.46350
C93 C -0.3728(2) 0.8992(6) 0.4688(3)
H74 H -0.37480 0.90780 0.50800
C94 C -0.3906(2) 0.8000(6) 0.4382(3)
C95 C -0.3875(2) 0.7908(6) 0.3809(3)
H75 H -0.39790 0.72160 0.36030
C96 C -0.3696(2) 0.8809(6) 0.3528(3)
H76 H -0.36970 0.87530 0.31290
C97 C -0.41092(19) 0.7050(6) 0.4672(3)
O12 O -0.42296(15) 0.6104(4) 0.4408(2)
O13 O -0.41660(17) 0.7228(4) 0.5180(2)
Cd1B Cd 0.545933(12) 1.31761(3) 0.627498(16)
Cd1B* Cd -0.454067(12) 1.31761(3) 0.627498(16)
Cd2B Cd -0.441570(14) 1.54601(4) 0.533349(18)
Cd2B* Cd -0.441570(14) 0.54601(4) 0.533349(18)
Cd3B Cd 0.526796(14) 0.49289(4) 0.74981(2)
Cd3B* Cd 0.526796(14) 1.49289(4) 0.74981(2)
O4B O -0.00174(19) 1.1804(4) 0.7410(2)
O5B O 0.02805(17) 1.1307(4) 0.8292(2)
O6B O -0.02016(14) 0.7703(4) 0.6452(2)
O7B O -0.03549(15) 0.9303(4) 0.6924(2)
O10B O 0.11233(14) 0.8124(4) 0.6030(2)
O11B O 0.12161(15) 0.9491(4) 0.5388(2)
O12B O 0.07704(15) 1.1104(4) 0.4408(2)
O13B O 0.08340(17) 1.2228(4) 0.5180(2)
#END
