
#######################################################################
#
#                 Cambridge Crystallographic Data Centre
#                                CCDC
#
#######################################################################
#
# If this CIF has been generated from an entry in the Cambridge
# Structural Database, then it will include bibliographic, chemical,
# crystal, experimental, refinement or atomic coordinate data resulting
# from the CCDC's data processing and validation procedures.
#
#######################################################################

data_CSD_CIF_YAQJAD
_audit_creation_date 2012-07-02
_audit_creation_method CSD-ConQuest-V1
_database_code_CSD YAQJAD
_database_code_depnum_ccdc_archive 'CCDC 843735'
_chemical_formula_sum 'C36 H39 Cu3 Na5 O37'
_chemical_formula_moiety
;
(C36 H13 Cu3 O24 5-)n,5n(Na1 1+),13n(H2 O1)
;
_journal_coden_Cambridge 155
_journal_volume 385
_journal_year 2012
_journal_page_first 119
_journal_name_full 'Inorg.Chim.Acta '
loop_
_publ_author_name
"W.R.do Carmo"
"C.H.J.Franco"
"R.Diniz"
_chemical_name_systematic
;
catena-(penta-sodium 
bis(\m~3~-benzene-1,2,3-tricarboxylato)-(\m~2~-3-carboxybenzene-1,2-dicarboxyl
ato)-(\m~2~-benzene-1,2,3-tricarboxylato)-tri-copper(ii) tridecahydrate)
;
_cell_volume   1272.101
_exptl_crystal_colour 'blue'
_exptl_crystal_density_diffrn 1.787
_exptl_crystal_description 'prismatic'
_diffrn_ambient_temperature 293
#These two values have been output from a single CSD field.
_refine_ls_R_factor_gt 0.0837
_refine_ls_wR_factor_gt 0.0837
_symmetry_cell_setting triclinic
_symmetry_space_group_name_H-M 'P 1'
_symmetry_Int_Tables_number 1
loop_
_symmetry_equiv_pos_site_id
_symmetry_equiv_pos_as_xyz
1 x,y,z
_cell_length_a 10.205(1)
_cell_length_b 10.820(1)
_cell_length_c 12.306(1)
_cell_angle_alpha 77.524(5)
_cell_angle_beta 73.743(5)
_cell_angle_gamma 89.201(5)
_cell_formula_units_Z 1
loop_
_atom_type_symbol
_atom_type_radius_bond
C 0.68
H 0.23
Cu 1.45
Na 1.14
O 0.68
loop_
_atom_site_label
_atom_site_type_symbol
_atom_site_fract_x
_atom_site_fract_y
_atom_site_fract_z
Cu1 Cu 0.71926(10) 0.32471(10) 0.34323(9)
Cu2 Cu 0.05203(10) 0.17104(9) 0.76619(9)
Cu3 Cu 0.91214(11) 0.57982(10) 0.18042(9)
Na1 Na 0.4449(4) 0.3594(4) 1.2274(3)
Na2 Na 0.3077(4) -0.1271(4) 0.4114(4)
Na3 Na 1.0542(4) 0.3512(4) 0.3868(3)
Na4 Na 0.9793(5) 0.2433(4) 0.1309(4)
Na5 Na 0.9144(5) -0.1870(4) 0.3696(4)
O1 O 0.2201(6) 0.2396(6) 0.7853(5)
O2 O 0.2786(7) 0.2660(6) 0.5942(6)
O3 O 0.3932(7) 0.5190(6) 0.4662(6)
O4 O 0.5418(6) 0.3965(6) 0.3731(6)
O5 O 0.8024(7) 0.4698(6) 0.3733(6)
O6 O 0.8219(7) 0.6141(6) 0.4726(6)
O7 O 0.8828(7) 0.1027(6) 0.7487(5)
O8 O 0.9612(7) 0.1937(7) 0.5614(6)
O9 O 0.9311(7) 0.0243(6) 0.3996(6)
O10 O 0.8852(7) 0.2258(6) 0.3408(5)
O11 O 0.6386(7) 0.1854(6) 0.3025(5)
H1 H 0.70170 0.16010 0.25620
O12 O 0.4943(8) 0.0206(7) 0.3609(7)
O13 O 0.9833(7) 0.3428(5) -0.2411(5)
O14 O 0.9251(8) 0.2960(6) -0.0497(5)
O15 O 0.6600(7) 0.3927(7) 0.0818(6)
O16 O 0.8322(7) 0.4262(6) 0.1525(5)
O17 O 0.6318(10) 0.7949(8) 0.0604(7)
O18 O 0.7500(7) 0.6686(6) 0.1608(6)
O19 O 0.1338(6) 0.0022(5) 0.7703(5)
O20 O 0.0131(8) -0.0362(7) 0.9546(6)
O21 O 0.1685(8) -0.1197(7) 1.1203(7)
O22 O -0.0057(8) -0.2629(7) 1.1905(6)
O23 O 0.0744(7) -0.5103(7) 1.2014(6)
O24 O 0.2987(10) -0.5096(10) 1.1627(8)
O25 O 0.8679(10) 0.0530(8) 0.1461(7)
H2 H 0.82830 -0.02150 0.20900
H3 H 0.95370 0.03430 0.12940
O26 O 1.1924(10) 0.1712(9) 0.0262(7)
H4 H 1.17420 0.18790 -0.03770
H5 H 1.20350 0.24430 0.04170
O27 O 1.1078(7) 0.4711(6) 0.5117(6)
H6 H 1.09070 0.41050 0.57830
H7 H 1.04280 0.48500 0.46390
O28 O 1.2637(6) 0.2420(6) 0.3797(6)
H8 H 1.30710 0.19550 0.42110
H9 H 1.17920 0.23680 0.41780
O29 O 0.4235(11) 0.1928(10) 1.1311(9)
H10 H 0.44470 0.25610 1.06520
H11 H 0.34470 0.14310 1.14930
O30 O 0.2067(8) 0.0175(7) 0.2781(6)
H12 H 0.20120 -0.01900 0.22600
H13 H 0.13530 0.05570 0.30160
O31 O 1.1154(9) -0.2666(8) 0.4124(8)
H14 H 1.09140 -0.22130 0.45960
H15 H 1.20340 -0.28040 0.40220
O32 O 0.1544(7) -0.0292(7) 0.5444(6)
H16 H 0.14840 -0.00870 0.60900
H17 H 0.08050 0.00690 0.53310
O33 O 0.4058(10) -0.2555(9) 0.2720(8)
H18 H 0.40290 -0.19020 0.21660
H19 H 0.49660 -0.29270 0.26450
O34 O 0.4298(10) -0.2506(8) 0.5243(8)
H20 H 0.39680 -0.32390 0.52890
H21 H 0.49370 -0.25670 0.55510
O35 O 0.7143(8) -0.1581(7) 0.3087(6)
H22 H 0.71100 -0.21260 0.28600
H23 H 0.62700 -0.16760 0.36650
O36 O 0.6827(15) 0.0587(13) -0.0243(12)
H24 H 0.76680 0.04790 -0.05420
H25 H 0.68840 -0.02850 0.01180
O37 O 0.6469(16) -0.2413(14) 0.6184(13)
H26 H 0.72580 -0.20620 0.60190
H27 H 0.59670 -0.29350 0.67890
O38 O 0.6659(8) 0.1675(6) 1.1053(6)
H28 H 0.62090 0.24220 1.09640
H29 H 0.60380 0.10420 1.12820
C1 C 0.4421(9) 0.3342(9) 0.6795(8)
C2 C 0.5313(9) 0.4010(8) 0.5723(7)
C3 C 0.6599(9) 0.4401(8) 0.5714(8)
C4 C 0.6982(11) 0.4204(10) 0.6759(9)
H30 H 0.78390 0.45010 0.67460
C5 C 0.6109(11) 0.3585(10) 0.7778(9)
H31 H 0.63660 0.34550 0.84600
C6 C 0.4838(10) 0.3151(9) 0.7795(8)
H32 H 0.42470 0.27210 0.84930
C7 C 0.3069(9) 0.2790(8) 0.6861(8)
C8 C 0.4833(9) 0.4407(8) 0.4647(7)
C9 C 0.7650(9) 0.5159(9) 0.4657(8)
C10 C 0.7408(9) 0.0868(8) 0.6276(8)
C11 C 0.7270(8) 0.0934(7) 0.5145(8)
C12 C 0.6027(9) 0.0711(8) 0.4972(7)
C13 C 0.4893(9) 0.0305(8) 0.5949(8)
H33 H 0.40560 0.01280 0.58390
C14 C 0.4991(11) 0.0162(10) 0.7064(9)
H34 H 0.42430 -0.01370 0.77010
C15 C 0.6273(9) 0.0488(9) 0.7214(8)
H35 H 0.63420 0.04430 0.79590
C16 C 0.8692(9) 0.1312(9) 0.6457(8)
C17 C 0.8579(9) 0.1157(9) 0.4135(8)
C18 C 0.5724(9) 0.0891(9) 0.3816(8)
C19 C 0.9048(9) 0.5112(8) -0.1431(8)
C20 C 0.8298(10) 0.5457(9) -0.0413(8)
C21 C 0.7994(9) 0.6736(9) -0.0415(8)
C22 C 0.8404(11) 0.7633(8) -0.1486(9)
H36 H 0.81890 0.84750 -0.15080
C23 C 0.9105(11) 0.7292(9) -0.2484(8)
H37 H 0.93510 0.78990 -0.31780
C24 C 0.9459(10) 0.6032(9) -0.2474(8)
H38 H 0.99620 0.58080 -0.31530
C25 C 0.9382(8) 0.3756(9) -0.1434(7)
C26 C 0.769(1) 0.4478(9) 0.0712(8)
C27 C 0.7239(11) 0.7154(10) 0.0644(9)
C28 C 0.1630(9) -0.1946(8) 0.8920(8)
C29 C 0.1524(9) -0.2641(9) 1.0053(8)
C30 C 0.2057(10) -0.3862(10) 1.0162(8)
C31 C 0.2659(12) -0.4367(11) 0.9204(9)
H39 H 0.30010 -0.51710 0.93090
C32 C 0.2751(13) -0.3690(11) 0.8114(10)
H40 H 0.31440 -0.40330 0.74740
C33 C 0.2240(11) -0.2454(9) 0.7962(8)
H41 H 0.23150 -0.19820 0.72190
C34 C 0.0999(10) -0.0665(9) 0.8726(8)
C35 C 0.1030(11) -0.2110(8) 1.1119(8)
C36 C 0.1911(12) -0.4761(10) 1.1387(10)
Cu2* Cu 1.05203(10) 0.17104(9) 0.76619(9)
Cu2** Cu 1.05203(10) 0.17104(9) -0.23381(9)
Cu3* Cu -0.08786(11) -0.42018(10) 1.18042(9)
O7* O -0.1172(7) 0.1027(6) 0.7487(5)
O13* O -0.0167(7) 0.3428(5) 0.7589(5)
O22* O 0.9943(8) 0.7371(7) 0.1905(6)
O23* O 1.0744(7) 0.4897(7) 0.2014(6)
#END
