
#######################################################################
#
#                 Cambridge Crystallographic Data Centre
#                                CCDC
#
#######################################################################
#
# If this CIF has been generated from an entry in the Cambridge
# Structural Database, then it will include bibliographic, chemical,
# crystal, experimental, refinement or atomic coordinate data resulting
# from the CCDC's data processing and validation procedures.
#
#######################################################################

data_CSD_CIF_YAQNIP
_audit_creation_date 2012-07-02
_audit_creation_method CSD-ConQuest-V1
_database_code_CSD YAQNIP
_database_code_depnum_ccdc_archive 'CCDC 808070'
_chemical_formula_sum 'C16 H9 In1 O9'
_chemical_formula_moiety
;
(C16 H6 In1 O8 1-)n,n(H3 O1 1+)
;
_journal_coden_Cambridge 155
_journal_volume 386
_journal_year 2012
_journal_page_first 36
_journal_name_full 'Inorg.Chim.Acta '
loop_
_publ_author_name
"Wen-Tao Xu"
"Fei-Long Jiang"
"Qiang Gao"
"Ming-Yan Wu"
"Lian Chen"
"Mao-Chun Hong"
_chemical_name_systematic
;
catena-(oxonium (\m~4~-biphenyl-2,2',6,6'-tetracarboxylato)-indium(iii))
;
_cell_volume    757.618
_exptl_crystal_colour 'white'
_exptl_crystal_density_diffrn 2.012
_exptl_crystal_description 'prism'
_diffrn_ambient_temperature 293
#These two values have been output from a single CSD field.
_refine_ls_R_factor_gt 0.0293
_refine_ls_wR_factor_gt 0.0293
_symmetry_cell_setting monoclinic
_symmetry_space_group_name_H-M 'P 2/c'
_symmetry_Int_Tables_number 13
loop_
_symmetry_equiv_pos_site_id
_symmetry_equiv_pos_as_xyz
1 x,y,z
2 -x,y,1/2-z
3 -x,-y,-z
4 x,-y,-1/2+z
_cell_length_a 7.222(3)
_cell_length_b 7.172(3)
_cell_length_c 15.172(6)
_cell_angle_alpha 90
_cell_angle_beta 105.405(18)
_cell_angle_gamma 90
_cell_formula_units_Z 2
loop_
_atom_type_symbol
_atom_type_radius_bond
C 0.68
H 0.23
In 1.42
O 0.68
loop_
_atom_site_label
_atom_site_type_symbol
_atom_site_fract_x
_atom_site_fract_y
_atom_site_fract_z
In1 In 0.50000 1.35210(4) 0.25000
O1 O 0.4114(3) 1.2120(3) 0.36329(14)
O2 O 0.2623(3) 1.1244(3) 0.22633(14)
O3 O -0.2774(3) 0.5818(3) 0.22187(16)
O4 O -0.2998(3) 0.5120(3) 0.35764(15)
O5 O 0.50000 0.50000 0.00000
C1 C 0.2866(4) 1.1085(4) 0.31013(19)
C2 C 0.1785(3) 0.9722(4) 0.35251(18)
C3 C 0.0291(3) 0.8567(3) 0.30156(18)
C4 C -0.0612(4) 0.7362(4) 0.35038(19)
C5 C -0.2223(4) 0.6050(4) 0.3054(2)
C6 C -0.0009(4) 0.7294(4) 0.4459(2)
H1 H -0.06210 0.64860 0.47700
C7 C 0.1474(4) 0.8399(4) 0.4950(2)
H2 H 0.18750 0.83300 0.55850
C8 C 0.2346(4) 0.9607(4) 0.44781(19)
H3 H 0.33370 1.03670 0.48030
In1* In -0.50000 0.35210(4) 0.25000
In1** In -0.50000 1.35210(4) 0.25000
In1*** In 0.50000 0.35210(4) 0.25000
O1A O -0.4114(3) 1.2120(3) 0.13671(14)
O1A* O 0.5886(3) 1.2120(3) 0.13671(14)
O2A O -0.2623(3) 1.1244(3) 0.27367(14)
O2A* O 0.7377(3) 1.1244(3) 0.27367(14)
O3A O 0.2774(3) 0.5818(3) 0.27813(16)
O3* O 0.7226(3) 1.5818(3) 0.22187(16)
O3A* O 0.2774(3) 1.5818(3) 0.27813(16)
O4A O 0.2998(3) 0.5120(3) 0.14236(15)
O4* O 0.7002(3) 1.5120(3) 0.35764(15)
O4A* O 0.2998(3) 1.5120(3) 0.14236(15)
C1A C -0.2866(4) 1.1085(4) 0.18987(19)
C2A C -0.1785(3) 0.9722(4) 0.14749(18)
C3A C -0.0291(3) 0.8567(3) 0.19844(18)
C4A C 0.0612(4) 0.7362(4) 0.14962(19)
C5A C 0.2223(4) 0.6050(4) 0.1946(2)
C6A C 0.0009(4) 0.7294(4) 0.0541(2)
H1A H 0.06210 0.64860 0.02300
C7A C -0.1474(4) 0.8399(4) 0.0050(2)
H2A H -0.18750 0.83300 -0.05850
C8A C -0.2346(4) 0.9607(4) 0.05219(19)
H3A H -0.33370 1.03670 0.01970
#END
