
#######################################################################
#
#                 Cambridge Crystallographic Data Centre
#                                CCDC
#
#######################################################################
#
# If this CIF has been generated from an entry in the Cambridge
# Structural Database, then it will include bibliographic, chemical,
# crystal, experimental, refinement or atomic coordinate data resulting
# from the CCDC's data processing and validation procedures.
#
#######################################################################

data_CSD_CIF_YAQZIB
_audit_creation_date 2012-06-19
_audit_creation_method CSD-ConQuest-V1
_database_code_CSD YAQZIB
_database_code_depnum_ccdc_archive 'CCDC 877013'
_chemical_formula_sum 'C30 H54 N6 O42 U3'
_chemical_formula_moiety
;
(C30 H6 O30 U3 6-)n,6n(H4 N1 1+),12n(H2 O1)
;
_journal_coden_Cambridge 1147
_journal_volume 12
_journal_year 2012
_journal_page_first 526
_journal_name_full 'Cryst.Growth Des. '
loop_
_publ_author_name
"I.Mihalcea"
"N.Henry"
"C.Volkringer"
"T.Loiseau"
_chemical_name_systematic
;
catena-(hexakis(ammonium) 
tris(\m~4~-benzene-1,2,4,5-tetracarboxylato)-hexaoxo-tri-uranium 
dodecahydrate)
;
_cell_volume   5156.323
_exptl_crystal_colour 'yellow'
_exptl_crystal_description 'block'
_diffrn_ambient_temperature 293
#These two values have been output from a single CSD field.
_refine_ls_R_factor_gt 0.0277
_refine_ls_wR_factor_gt 0.0277
_symmetry_cell_setting monoclinic
_symmetry_space_group_name_H-M 'C 2/c'
_symmetry_Int_Tables_number 15
loop_
_symmetry_equiv_pos_site_id
_symmetry_equiv_pos_as_xyz
1 x,y,z
2 -x,y,1/2-z
3 1/2+x,1/2+y,z
4 1/2-x,1/2+y,1/2-z
5 -x,-y,-z
6 x,-y,-1/2+z
7 -1/2-x,-1/2-y,-z
8 -1/2+x,-1/2-y,-1/2+z
_cell_length_a 55.631(2)
_cell_length_b 7.1082(3)
_cell_length_c 13.1074(5)
_cell_angle_alpha 90
_cell_angle_beta 95.831(1)
_cell_angle_gamma 90
_cell_formula_units_Z 4
loop_
_atom_type_symbol
_atom_type_radius_bond
C 0.68
H 0.23
N 0.68
O 0.68
U 1.46
loop_
_atom_site_label
_atom_site_type_symbol
_atom_site_fract_x
_atom_site_fract_y
_atom_site_fract_z
U1 U 0.666947(3) 0.23695(2) 0.413497(14)
U2 U 0.50000 0.20133(3) 0.25000
O1 O 0.65943(7) 0.2513(4) 0.5408(3)
O2 O 0.67434(6) 0.2213(4) 0.2859(3)
N1 N 0.77193(8) 0.1539(6) 0.7268(3)
O3 O 0.69573(6) -0.4316(4) 0.6007(3)
N2 N 0.06048(7) 0.1591(6) 0.6047(3)
O4 O 0.50673(6) 0.1982(4) 0.1210(3)
O5 O 0.52558(6) 0.4798(4) 0.2666(3)
O6 O 0.68719(5) -0.0739(4) 0.4590(3)
O7 O 0.69307(5) -0.4946(4) 0.4324(3)
O8 O 0.64644(6) 0.5480(4) 0.3668(3)
O9 O 0.72387(7) 0.0462(6) 0.7279(4)
O10 O 0.64091(6) 0.9679(4) 0.3939(3)
O11 O 0.48277(8) 0.2719(5) -0.0866(4)
O12 O 0.68427(8) 0.2697(5) 0.7457(4)
O13 O 0.10857(7) 0.0476(6) 0.6054(4)
N3 N 0.10403(8) -0.3406(6) 0.5530(4)
O14 O 0.14842(8) 0.2639(5) 0.5833(4)
O15 O 0.63656(6) 0.9153(4) 0.2256(3)
O16 O 0.71088(6) 0.1697(4) 0.4684(3)
O17 O 0.53034(6) 0.5346(5) 0.4348(3)
O18 O 0.62286(6) 0.3038(4) 0.3606(3)
O19 O 0.52097(5) 0.8986(4) 0.3002(3)
O20 O 0.54456(6) 1.1409(4) 0.2978(3)
O21 O 0.44400(8) 0.0480(6) -0.0582(4)
C1 C 0.53674(8) 0.5484(5) 0.3474(4)
C2 C 0.70309(8) -0.4216(5) 0.5141(4)
C3 C 0.56054(8) 0.6441(6) 0.3362(4)
C4 C 0.60659(8) 0.7995(5) 0.3243(4)
C5 C 0.74755(8) -0.4409(5) 0.5154(4)
C6 C 0.58603(8) 0.9137(6) 0.3146(3)
C7 C 0.56317(8) 0.8373(6) 0.3211(4)
C8 C 0.72964(8) -0.1332(5) 0.4892(4)
C9 C 0.58105(8) 0.5311(6) 0.3457(4)
C10 C 0.72707(8) -0.3256(6) 0.5056(4)
C11 C 0.60399(8) 0.6061(6) 0.3400(4)
C12 C 0.70816(8) -0.0052(6) 0.4726(4)
C13 C 0.62549(8) 0.4795(6) 0.3550(4)
C14 C 0.63003(8) 0.8986(5) 0.3135(4)
C15 C 0.54198(8) 0.9666(6) 0.3077(4)
H1 H 0.74572 -0.57367 0.52557
H2 H 0.58767 1.04631 0.30334
H3 H 0.57935 0.39833 0.35640
U1A U 0.333053(3) 0.23695(2) 0.086503(14)
U1* U 0.666947(3) -0.76305(2) 0.413497(14)
U1** U 0.666947(3) 1.23695(2) 0.413497(14)
U1F U 0.833053(3) 0.26305(2) 0.586503(14)
U1F* U 0.833053(3) -0.73695(2) 0.586503(14)
U1A* U 0.333053(3) 1.23695(2) 0.086503(14)
U2* U 0.50000 1.20133(3) 0.25000
O1A O 0.34057(7) 0.2513(4) -0.0408(3)
O2A O 0.32566(6) 0.2213(4) 0.2141(3)
O3F O 0.80427(6) -0.0684(4) 0.3993(3)
O4A O 0.49327(6) 0.1982(4) 0.3790(3)
O5A O 0.47442(6) 0.4798(4) 0.2334(3)
O6F O 0.81281(5) -0.4261(4) 0.5410(3)
O6A O 0.31281(5) -0.0739(4) 0.0410(3)
O7F O 0.80693(5) -0.0054(4) 0.5676(3)
O7* O 0.69307(5) 0.5054(4) 0.4324(3)
O7A O 0.30693(5) 0.5054(4) 0.0676(3)
O8A O 0.35356(6) 0.5480(4) 0.1332(3)
O10A O 0.35909(6) 0.9679(4) 0.1061(3)
O10* O 0.64091(6) -0.0321(4) 0.3939(3)
O10A* O 0.35909(6) -0.0321(4) 0.1061(3)
O15A O 0.36344(6) 0.9153(4) 0.2744(3)
O16F O 0.78912(6) -0.6697(4) 0.5316(3)
O16A O 0.28912(6) 0.1697(4) 0.0316(3)
O17A O 0.46966(6) 0.5346(5) 0.0652(3)
O18A O 0.37714(6) 0.3038(4) 0.1394(3)
O19A O 0.47903(5) 0.8986(4) 0.1998(3)
O19* O 0.52097(5) -0.1014(4) 0.3002(3)
O19A* O 0.47903(5) -0.1014(4) 0.1998(3)
O20A O 0.45544(6) 1.1409(4) 0.2022(3)
O20* O 0.54456(6) 0.1409(4) 0.2978(3)
O20A* O 0.45544(6) 0.1409(4) 0.2022(3)
C1A C 0.46326(8) 0.5484(5) 0.1526(4)
C2F C 0.79691(8) -0.0784(5) 0.4859(4)
C3A C 0.43946(8) 0.6441(6) 0.1638(4)
C4A C 0.39341(8) 0.7995(5) 0.1757(4)
C5F C 0.75245(8) -0.0591(5) 0.4846(4)
C6A C 0.41397(8) 0.9137(6) 0.1854(3)
C7A C 0.43683(8) 0.8373(6) 0.1789(4)
C8F C 0.77036(8) -0.3668(5) 0.5108(4)
C9A C 0.41895(8) 0.5311(6) 0.1543(4)
C10F C 0.77293(8) -0.1744(6) 0.4944(4)
C11A C 0.39601(8) 0.6061(6) 0.1600(4)
C12F C 0.79184(8) -0.4948(6) 0.5274(4)
C13A C 0.37451(8) 0.4795(6) 0.1450(4)
C14A C 0.36997(8) 0.8986(5) 0.1865(4)
C15A C 0.45802(8) 0.9666(6) 0.1923(4)
H1F H 0.75428 0.07367 0.47443
H2A H 0.41233 1.04631 0.19666
H3A H 0.42065 0.39833 0.14360
#END
