
#######################################################################
#
#                 Cambridge Crystallographic Data Centre
#                                CCDC
#
#######################################################################
#
# If this CIF has been generated from an entry in the Cambridge
# Structural Database, then it will include bibliographic, chemical,
# crystal, experimental, refinement or atomic coordinate data resulting
# from the CCDC's data processing and validation procedures.
#
#######################################################################

data_CSD_CIF_YAQZEX
_audit_creation_date 2012-06-19
_audit_creation_method CSD-ConQuest-V1
_database_code_CSD YAQZEX
_database_code_depnum_ccdc_archive 'CCDC 877012'
_chemical_formula_sum 'C30 H74 N4 O82 U12'
_chemical_formula_moiety
;
(C30 H14 O60 U12 4-)n,22n(H2 O1),4n(H4 N1 1+)
;
_journal_coden_Cambridge 1147
_journal_volume 12
_journal_year 2012
_journal_page_first 526
_journal_name_full 'Cryst.Growth Des. '
loop_
_publ_author_name
"I.Mihalcea"
"N.Henry"
"C.Volkringer"
"T.Loiseau"
_chemical_name_systematic
;
catena-(tetrakis(ammonium) 
tris(\m~8~-benzene-1,2,4,5-tetracarboxylato)-octakis(\m~3~-hydroxo)-tetrakis(\
m~3~-oxo)-tetracosaoxo-dodeca-uranium docosahydrate)
;
_cell_volume   4588.163
_exptl_crystal_colour 'yellow'
_exptl_crystal_description 'needle'
_diffrn_ambient_temperature 293
#These two values have been output from a single CSD field.
_refine_ls_R_factor_gt 0.0444
_refine_ls_wR_factor_gt 0.0444
_symmetry_cell_setting orthorhombic
_symmetry_space_group_name_H-M 'P n n m'
_symmetry_Int_Tables_number 58
loop_
_symmetry_equiv_pos_site_id
_symmetry_equiv_pos_as_xyz
1 x,y,z
2 -x,-y,z
3 1/2-x,1/2+y,1/2-z
4 1/2+x,1/2-y,1/2-z
5 -x,-y,-z
6 x,y,-z
7 -1/2+x,-1/2-y,-1/2+z
8 -1/2-x,-1/2+y,-1/2+z
_cell_length_a 13.198(2)
_cell_length_b 14.852(2)
_cell_length_c 23.407(4)
_cell_angle_alpha 90
_cell_angle_beta 90
_cell_angle_gamma 90
_cell_formula_units_Z 2
loop_
_atom_type_symbol
_atom_type_radius_bond
C 0.68
H 0.23
N 0.68
O 0.68
U 1.46
loop_
_atom_site_label
_atom_site_type_symbol
_atom_site_fract_x
_atom_site_fract_y
_atom_site_fract_z
U1 U 0.35240(3) 0.20052(2) 0.191580(13)
U2 U 0.01202(3) 0.19351(2) 0.192903(14)
U3 U 0.16852(3) 0.314568(19) 0.304326(13)
O1 O 0.1801(4) 0.1935(3) 0.2346(2)
O2 O 0.0812(5) -0.1546(4) 0.1081(2)
O3 O 0.5698(5) 0.0772(3) 0.1426(2)
O4 O 0.1081(5) 0.0866(4) 0.1391(3)
O5 O 0.2209(5) -0.0900(3) 0.1437(2)
O6 O 0.5119(4) 0.2209(4) 0.2263(3)
O7 O 0.3428(5) 0.3136(4) 0.1694(3)
O8 O 0.3594(5) 0.0877(4) 0.2125(3)
O9 O 0.0483(5) 0.2882(4) 0.1524(3)
O10 O 0.1798(5) 0.3907(4) 0.2463(2)
O11 O -0.0263(5) 0.0983(4) 0.2336(3)
O12 O 0.2459(5) 0.1628(4) 0.1123(3)
O13 O 0.4532(5) 0.1712(4) 0.1084(3)
O14 O 0.3429(4) 0.2493(4) 0.2909(2)
O15 O 0.1615(5) 0.2388(4) 0.3629(3)
C1 C 0.1808(7) 0.0996(5) 0.1057(4)
C2 C 0.1968(9) 0.0925(7) 0.00000
C3 C 0.5081(7) 0.0998(5) 0.1056(4)
C4 C 0.4990(6) 0.0480(5) 0.0519(4)
C5 C 0.1843(6) 0.0463(5) 0.0514(3)
C6 C 0.1532(8) -0.0913(7) 0.00000
C7 C 0.1630(6) -0.0454(5) 0.0517(3)
C8 C 0.1527(7) -0.0975(5) 0.1053(4)
C9 C 0.4998(8) 0.0949(7) 0.00000
O16 O 0.197(2) 0.3756(19) 0.0692(12)
O17 O 0.509(2) 0.3630(18) 0.0679(12)
O18 O 0.00000 0.50000 0.2072(7)
O19 O 0.1688(6) 0.0269(5) 0.2824(4)
N1 N 0.3479(8) 0.0986(6) 0.3582(4)
H1 H 0.21372 0.15535 0.00000
H2 H 0.13969 -0.15481 0.00000
H3 H 0.50101 0.15948 0.00000
U1E U 0.35240(3) 0.20052(2) -0.191580(13)
U1A U 0.64760(3) -0.20052(2) 0.191580(13)
U1D U 0.64760(3) -0.20052(2) -0.191580(13)
U1A* U -0.35240(3) -0.20052(2) 0.191580(13)
U1D* U -0.35240(3) -0.20052(2) -0.191580(13)
U1C U -0.14760(3) 0.29948(2) 0.308420(13)
U2A U -0.01202(3) -0.19351(2) 0.192903(14)
U2D U -0.01202(3) -0.19351(2) -0.192903(14)
U2E U 0.01202(3) 0.19351(2) -0.192903(14)
U2C U 0.51202(3) 0.30649(2) 0.307097(14)
U2F U 0.51202(3) 0.30649(2) -0.307097(14)
U2A* U 0.98798(3) -0.19351(2) 0.192903(14)
U2B U 0.48798(3) -0.30649(2) 0.307097(14)
U2D* U 0.98798(3) -0.19351(2) -0.192903(14)
U3C U 0.66852(3) 0.185432(19) 0.195674(13)
U3B U 0.33148(3) -0.185432(19) 0.195674(13)
U3G U 0.33148(3) -0.185432(19) -0.195674(13)
U3F U 0.66852(3) 0.185432(19) -0.195674(13)
U3C* U -0.33148(3) 0.185432(19) 0.195674(13)
U3F* U -0.33148(3) 0.185432(19) -0.195674(13)
U3E U 0.16852(3) 0.314568(19) -0.304326(13)
U3A U 0.83148(3) -0.314568(19) 0.304326(13)
U3D U 0.83148(3) -0.314568(19) -0.304326(13)
O1E O 0.1801(4) 0.1935(3) -0.2346(2)
O1A O 0.8199(4) -0.1935(3) 0.2346(2)
O1D O 0.8199(4) -0.1935(3) -0.2346(2)
O1A* O -0.1801(4) -0.1935(3) 0.2346(2)
O1D* O -0.1801(4) -0.1935(3) -0.2346(2)
O1C O 0.6801(4) 0.3065(3) 0.2654(2)
O1B O 0.3199(4) -0.3065(3) 0.2654(2)
O1G O 0.3199(4) -0.3065(3) -0.2654(2)
O2E O 0.0812(5) -0.1546(4) -0.1081(2)
O2A O -0.0812(5) 0.1546(4) 0.1081(2)
O2D O -0.0812(5) 0.1546(4) -0.1081(2)
O3A O 0.4302(5) -0.0772(3) 0.1426(2)
O3D O 0.4302(5) -0.0772(3) -0.1426(2)
O3E O 0.5698(5) 0.0772(3) -0.1426(2)
O3C O 0.0698(5) 0.4228(3) 0.3574(2)
O4E O 0.1081(5) 0.0866(4) -0.1391(3)
O4A O -0.1081(5) -0.0866(4) 0.1391(3)
O4D O -0.1081(5) -0.0866(4) -0.1391(3)
O5E O 0.2209(5) -0.0900(3) -0.1437(2)
O5A O -0.2209(5) 0.0900(3) 0.1437(2)
O5D O -0.2209(5) 0.0900(3) -0.1437(2)
O5B O 0.2791(5) 0.4100(3) 0.3563(2)
O5A* O 0.7791(5) 0.0900(3) 0.1437(2)
O6C O 0.0119(4) 0.2791(4) 0.2737(3)
O6E O 0.5119(4) 0.2209(4) -0.2263(3)
O6A O 0.4881(4) -0.2209(4) 0.2263(3)
O6D O 0.4881(4) -0.2209(4) -0.2263(3)
O6B O -0.0119(4) -0.2791(4) 0.2737(3)
O6G O -0.0119(4) -0.2791(4) -0.2737(3)
O6F O 0.0119(4) 0.2791(4) -0.2737(3)
O7E O 0.3428(5) 0.3136(4) -0.1694(3)
O7A O 0.6572(5) -0.3136(4) 0.1694(3)
O7D O 0.6572(5) -0.3136(4) -0.1694(3)
O8E O 0.3594(5) 0.0877(4) -0.2125(3)
O8A O 0.6406(5) -0.0877(4) 0.2125(3)
O8D O 0.6406(5) -0.0877(4) -0.2125(3)
O9A O -0.0483(5) -0.2882(4) 0.1524(3)
O9D O -0.0483(5) -0.2882(4) -0.1524(3)
O9E O 0.0483(5) 0.2882(4) -0.1524(3)
O10C O 0.6798(5) 0.1093(4) 0.2537(2)
O10B O 0.3202(5) -0.1093(4) 0.2537(2)
O10G O 0.3202(5) -0.1093(4) -0.2537(2)
O11A O 0.0263(5) -0.0983(4) 0.2336(3)
O11D O 0.0263(5) -0.0983(4) -0.2336(3)
O11E O -0.0263(5) 0.0983(4) -0.2336(3)
O12E O 0.2459(5) 0.1628(4) -0.1123(3)
O12A O -0.2459(5) -0.1628(4) 0.1123(3)
O12D O -0.2459(5) -0.1628(4) -0.1123(3)
O12A* O 0.7541(5) -0.1628(4) 0.1123(3)
O12D* O 0.7541(5) -0.1628(4) -0.1123(3)
O13A O 0.5468(5) -0.1712(4) 0.1084(3)
O13D O 0.5468(5) -0.1712(4) -0.1084(3)
O13E O 0.4532(5) 0.1712(4) -0.1084(3)
O14C O -0.1571(4) 0.2507(4) 0.2091(2)
O14E O 0.3429(4) 0.2493(4) -0.2909(2)
O14A O 0.6571(4) -0.2493(4) 0.2909(2)
O14D O 0.6571(4) -0.2493(4) -0.2909(2)
O14B O 0.1571(4) -0.2507(4) 0.2091(2)
O14G O 0.1571(4) -0.2507(4) -0.2091(2)
O14F O -0.1571(4) 0.2507(4) -0.2091(2)
O14C* O 0.8429(4) 0.2507(4) 0.2091(2)
O15C O 0.6615(5) 0.2612(4) 0.1371(3)
O15B O 0.3385(5) -0.2612(4) 0.1371(3)
O15G O 0.3385(5) -0.2612(4) -0.1371(3)
C1E C 0.1808(7) 0.0996(5) -0.1057(4)
C1A C -0.1808(7) -0.0996(5) 0.1057(4)
C1D C -0.1808(7) -0.0996(5) -0.1057(4)
C2A C -0.1968(9) -0.0925(7) 0.00000
C3A C 0.4919(7) -0.0998(5) 0.1056(4)
C3D C 0.4919(7) -0.0998(5) -0.1056(4)
C3E C 0.5081(7) 0.0998(5) -0.1056(4)
C4A C 0.5010(6) -0.0480(5) 0.0519(4)
C4D C 0.5010(6) -0.0480(5) -0.0519(4)
C4E C 0.4990(6) 0.0480(5) -0.0519(4)
C5E C 0.1843(6) 0.0463(5) -0.0514(3)
C5A C -0.1843(6) -0.0463(5) 0.0514(3)
C5D C -0.1843(6) -0.0463(5) -0.0514(3)
C6A C -0.1532(8) 0.0913(7) 0.00000
C7E C 0.1630(6) -0.0454(5) -0.0517(3)
C7A C -0.1630(6) 0.0454(5) 0.0517(3)
C7D C -0.1630(6) 0.0454(5) -0.0517(3)
C8E C 0.1527(7) -0.0975(5) -0.1053(4)
C8A C -0.1527(7) 0.0975(5) 0.1053(4)
C8D C -0.1527(7) 0.0975(5) -0.1053(4)
C9A C 0.5002(8) -0.0949(7) 0.00000
H1A H -0.21372 -0.15535 0.00000
H2A H -0.13969 0.15481 0.00000
H3A H 0.49899 -0.15948 0.00000
#END
