
#######################################################################
#
#                 Cambridge Crystallographic Data Centre
#                                CCDC
#
#######################################################################
#
# If this CIF has been generated from an entry in the Cambridge
# Structural Database, then it will include bibliographic, chemical,
# crystal, experimental, refinement or atomic coordinate data resulting
# from the CCDC's data processing and validation procedures.
#
#######################################################################

data_CSD_CIF_YARGAB
_audit_creation_date 2012-06-19
_audit_creation_method CSD-ConQuest-V1
_database_code_CSD YARGAB
_database_code_depnum_ccdc_archive 'CCDC 876905'
_chemical_formula_sum 'C58 H66 N4 O21 Zn3'
_chemical_formula_moiety
;
(C48 H30 O16 Zn3 2-)n,2n(C2 H8 N1 1+),2n(C3 H7 N1 O1),3n(H2 O1)
;
_journal_coden_Cambridge 1147
_journal_volume 12
_journal_year 2012
_journal_page_first 281
_journal_name_full 'Cryst.Growth Des. '
loop_
_publ_author_name
"Qian Gao"
"Ya-Bo Xie"
"Jian-Rong Li"
"Da-Qiang Yuan"
"A.A.Yakovenko"
"Ji-Hong Sun"
"Hong-Cai Zhou"
_chemical_name_systematic
;
catena-(bis(dimethylammonium) 
tris(\m~4~-anthracene-9,10-dicarboxylato)-(\m~3~-oxo)-triaqua-tri-zinc 
N,N-dimethylformamide solvate trihydrate)
;
_cell_volume   3472.085
_diffrn_ambient_temperature 173
_refine_special_details
;
The SQUEEZE/PLATON program has been used to model the ammonium cations, 
solvent molecules and water molecules.
;
#These two values have been output from a single CSD field.
_refine_ls_R_factor_gt 0.0421
_refine_ls_wR_factor_gt 0.0421
_symmetry_cell_setting hexagonal
_symmetry_space_group_name_H-M 'P -3 1 c'
_symmetry_Int_Tables_number 163
loop_
_symmetry_equiv_pos_site_id
_symmetry_equiv_pos_as_xyz
1 x,y,z
2 -y,x-y,z
3 -x+y,-x,z
4 -y,-x,1/2-z
5 -x+y,y,1/2-z
6 x,x-y,1/2-z
7 -x,-y,-z
8 y,-x+y,-z
9 x-y,x,-z
10 y,x,-1/2+z
11 x-y,-y,-1/2+z
12 -x,-x+y,-1/2+z
_cell_length_a 15.578(3)
_cell_length_b 15.578(3)
_cell_length_c 16.521(3)
_cell_angle_alpha 90
_cell_angle_beta 90
_cell_angle_gamma 120
_cell_formula_units_Z 2
loop_
_atom_type_symbol
_atom_type_radius_bond
C 0.68
H 0.23
O 0.68
Zn 1.22
loop_
_atom_site_label
_atom_site_type_symbol
_atom_site_fract_x
_atom_site_fract_y
_atom_site_fract_z
Zn1 Zn 0.740920(16) 0.259080(16) 0.25000
O1 O 0.63983(15) 0.14752(14) 0.32535(12)
O2 O 0.66670 0.33330 0.25000
O3 O 0.51865(16) 0.18307(15) 0.35266(12)
O4 O 0.81912(13) 0.18088(13) 0.25000
H1 H 0.80590 0.12890 0.27680
C1 C 0.5665(2) 0.1392(2) 0.36538(16)
C2 C 0.5331(2) 0.0679(2) 0.43531(16)
C3 C 0.4509(2) -0.0274(2) 0.42453(17)
C4 C 0.4176(2) -0.0965(2) 0.49056(17)
C5 C 0.3330(2) -0.1925(2) 0.47817(19)
H2 H 0.30800 -0.23810 0.52200
C6 C 0.2880(3) -0.2197(3) 0.4052(2)
H3 H 0.23360 -0.28480 0.39760
C7 C 0.3221(3) -0.1505(3) 0.3393(2)
H4 H 0.28940 -0.16950 0.28850
C8 C 0.4005(3) -0.0583(2) 0.3493(2)
H5 H 0.42240 -0.01330 0.30500
Zn1A Zn 0.740920(16) 0.481840(16) 0.25000
Zn1B Zn 0.518160(16) 0.259080(16) 0.25000
Zn1F Zn 0.259080(16) -0.259080(16) 0.75000
Zn1F* Zn 1.259080(16) 0.740920(16) 0.75000
Zn1G Zn 0.259080(16) 0.518160(16) 0.75000
Zn1G* Zn 1.259080(16) 0.518160(16) 0.75000
Zn1H Zn 0.481840(16) -0.259080(16) 0.75000
Zn1H* Zn 0.481840(16) 0.740920(16) 0.75000
O1F O 0.36017(15) -0.14752(14) 0.67465(12)
O1A O 0.85248(15) 0.49231(14) 0.32535(12)
O1G O 1.14752(15) 0.50769(14) 0.67465(12)
O1B O 0.50769(15) 0.36017(14) 0.32535(12)
O1H O 0.49231(15) 0.63983(14) 0.67465(12)
O1C O 0.85248(15) 0.36017(14) 0.17465(12)
O1D O 0.50769(15) 0.14752(14) 0.17465(12)
O1E O 0.63983(15) 0.49231(14) 0.17465(12)
O3F O 0.48135(16) -0.18307(15) 0.64734(12)
O3A O 0.81693(16) 0.33558(15) 0.35266(12)
O3G O 1.18307(16) 0.66442(15) 0.64734(12)
O3B O 0.66442(16) 0.48135(15) 0.35266(12)
O3H O 0.33558(16) 0.51865(15) 0.64734(12)
O3C O 0.81693(16) 0.48135(15) 0.14734(12)
O3D O 0.66442(16) 0.18307(15) 0.14734(12)
O3E O 0.51865(16) 0.33558(15) 0.14734(12)
O4A O 0.81912(13) 0.63824(13) 0.25000
O4B O 0.36176(13) 0.18088(13) 0.25000
H1C H 0.87110 0.19410 0.22320
H1A H 0.87110 0.67700 0.27680
H1E H 0.80590 0.67700 0.22320
H1B H 0.32300 0.19410 0.27680
H1D H 0.32300 0.12890 0.22320
C1F C 0.4335(2) -0.1392(2) 0.63462(16)
C1A C 0.8608(2) 0.4273(2) 0.36538(16)
C1G C 1.1392(2) 0.5727(2) 0.63462(16)
C1B C 0.5727(2) 0.4335(2) 0.36538(16)
C1H C 0.4273(2) 0.5665(2) 0.63462(16)
C2F C 0.4669(2) -0.0679(2) 0.56469(16)
C2A C 0.9321(2) 0.4652(2) 0.43531(16)
C2G C 1.0679(2) 0.5348(2) 0.56469(16)
C2B C 0.5348(2) 0.4669(2) 0.43531(16)
C2H C 0.4652(2) 0.5331(2) 0.56469(16)
C3F C 0.5491(2) 0.0274(2) 0.57547(17)
C3A C 1.0274(2) 0.4783(2) 0.42453(17)
C3G C 0.9726(2) 0.5217(2) 0.57547(17)
C3B C 0.5217(2) 0.5491(2) 0.42453(17)
C3H C 0.4783(2) 0.4509(2) 0.57547(17)
C4F C 0.5824(2) 0.0965(2) 0.50944(17)
C4A C 1.0965(2) 0.5141(2) 0.49056(17)
C4G C 0.9035(2) 0.4859(2) 0.50944(17)
C4B C 0.4859(2) 0.5824(2) 0.49056(17)
C4H C 0.5141(2) 0.4176(2) 0.50944(17)
C5F C 0.6670(2) 0.1925(2) 0.52183(19)
C5A C 1.1925(2) 0.5255(2) 0.47817(19)
C5G C 0.8075(2) 0.4745(2) 0.52183(19)
C5B C 0.4745(2) 0.6670(2) 0.47817(19)
C5H C 0.5255(2) 0.3330(2) 0.52183(19)
H2F H 0.69200 0.23810 0.47800
H2A H 1.23810 0.54610 0.52200
H2G H 0.76190 0.45390 0.47800
H2B H 0.45390 0.69200 0.52200
H2H H 0.54610 0.30800 0.47800
C6F C 0.7120(3) 0.2197(3) 0.5948(2)
C6A C 1.2197(3) 0.5077(3) 0.4052(2)
C6G C 0.7803(3) 0.4923(3) 0.5948(2)
C6B C 0.4923(3) 0.7120(3) 0.4052(2)
C6H C 0.5077(3) 0.2880(3) 0.5948(2)
H3F H 0.76640 0.28480 0.60240
H3A H 1.28480 0.51840 0.39760
H3G H 0.71520 0.48160 0.60240
H3B H 0.48160 0.76640 0.39760
H3H H 0.51840 0.23360 0.60240
C7F C 0.6779(3) 0.1505(3) 0.6607(2)
C7A C 1.1505(3) 0.4726(3) 0.3393(2)
C7G C 0.8495(3) 0.5274(3) 0.6607(2)
C7B C 0.5274(3) 0.6779(3) 0.3393(2)
C7H C 0.4726(3) 0.3221(3) 0.6607(2)
H4F H 0.71060 0.16950 0.71150
H4A H 1.16950 0.45890 0.28850
H4G H 0.83050 0.54110 0.71150
H4B H 0.54110 0.71060 0.28850
H4H H 0.45890 0.28940 0.71150
C8F C 0.5995(3) 0.0583(2) 0.6507(2)
C8A C 1.0583(3) 0.4588(2) 0.3493(2)
C8G C 0.9417(3) 0.5412(2) 0.6507(2)
C8B C 0.5412(3) 0.5995(2) 0.3493(2)
C8H C 0.4588(3) 0.4005(2) 0.6507(2)
H5F H 0.57760 0.01330 0.69500
H5A H 1.01330 0.43570 0.30500
H5G H 0.98670 0.56430 0.69500
H5B H 0.56430 0.57760 0.30500
H5H H 0.43570 0.42240 0.69500
#END
