
#######################################################################
#
#                 Cambridge Crystallographic Data Centre
#                                CCDC
#
#######################################################################
#
# If this CIF has been generated from an entry in the Cambridge
# Structural Database, then it will include bibliographic, chemical,
# crystal, experimental, refinement or atomic coordinate data resulting
# from the CCDC's data processing and validation procedures.
#
#######################################################################

data_CSD_CIF_YARGIJ
_audit_creation_date 2012-06-19
_audit_creation_method CSD-ConQuest-V1
_database_code_CSD YARGIJ
_database_code_depnum_ccdc_archive 'CCDC 876907'
_chemical_formula_sum 'C130 H110 N10 O28 Zn6'
_chemical_formula_moiety
;
(C122 H78 N6 O28 Zn6 4-)n,4n(C2 H8 N1 1+)
;
_journal_coden_Cambridge 1147
_journal_volume 12
_journal_year 2012
_journal_page_first 281
_journal_name_full 'Cryst.Growth Des. '
loop_
_publ_author_name
"Qian Gao"
"Ya-Bo Xie"
"Jian-Rong Li"
"Da-Qiang Yuan"
"A.A.Yakovenko"
"Ji-Hong Sun"
"Hong-Cai Zhou"
_chemical_name_systematic
;
catena-(tetrakis(dimethylammonium) 
hexakis(\m~4~-anthracene-9,10-dicarboxylato)-bis(\m~3~-oxo)-bis(\m~2~-4,4'-bip
yridine)-bis(N,N-dimethylformamide)-hexa-zinc unknown solvate)
;
_cell_volume   6865.422
_exptl_crystal_density_diffrn 1.283
_diffrn_ambient_temperature 173
_refine_special_details
;
Disordered solvent molecules were not modelled and the disordered density was 
taken into account using the SQUEEZE/PLATON procedure.
;
#These two values have been output from a single CSD field.
_refine_ls_R_factor_gt 0.0635
_refine_ls_wR_factor_gt 0.0635
_symmetry_cell_setting monoclinic
_symmetry_space_group_name_H-M 'P 21/n'
_symmetry_Int_Tables_number 14
loop_
_symmetry_equiv_pos_site_id
_symmetry_equiv_pos_as_xyz
1 x,y,z
2 1/2-x,1/2+y,1/2-z
3 -x,-y,-z
4 -1/2+x,-1/2-y,-1/2+z
_cell_length_a 15.810(3)
_cell_length_b 26.422(6)
_cell_length_c 16.435(4)
_cell_angle_alpha 90
_cell_angle_beta 90
_cell_angle_gamma 90
_cell_formula_units_Z 2
loop_
_atom_type_symbol
_atom_type_radius_bond
C 0.68
H 0.23
N 0.68
O 0.68
Zn 1.22
loop_
_atom_site_label
_atom_site_type_symbol
_atom_site_fract_x
_atom_site_fract_y
_atom_site_fract_z
Zn1 Zn 0.36104(4) 0.12509(2) 0.75076(4)
Zn2 Zn 0.07725(4) 0.36058(2) 1.25357(4)
Zn3 Zn 0.45162(4) 0.24522(2) 0.74948(4)
O1 O 0.3799(3) 0.23384(15) 0.8552(2)
O2 O 0.2916(2) 0.16924(14) 0.8293(2)
O3 O 0.1308(2) 0.30650(15) 1.1789(2)
O4 O 0.0317(3) 0.24740(14) 1.1486(2)
O5 O 0.0882(3) 0.31839(16) 0.3593(2)
O6 O 0.0525(3) 0.23894(15) 0.3277(2)
O7 O 0.3433(2) 0.23963(15) 0.6752(2)
O8 O 0.3064(3) 0.15886(14) 0.6497(2)
O9 O 0.4144(3) 0.09268(15) 0.8564(2)
O10 O 0.5513(3) 0.07853(15) 0.8264(2)
O11 O 0.4274(3) 0.07267(15) 0.6753(2)
O12 O 0.5621(3) 0.09489(15) 0.6500(2)
O13 O 0.46226(19) 0.16972(12) 0.73785(18)
O14 O 0.2081(3) 0.3831(2) 1.2723(3)
N1 N 0.2674(3) 0.06653(19) 0.7526(3)
N2 N 0.0782(3) -0.17588(18) 0.7501(3)
N3 N 0.3105(5) 0.3834(4) 1.3750(5)
N4 N 0.7299(10) 0.0818(5) 0.5986(9)
H1 H 0.67660 0.08540 0.62030
H2 H 0.75960 0.05940 0.63060
N5 N 0.7391(10) 0.0048(6) 0.7924(9)
H3 H 0.71890 0.03630 0.80680
H4 H 0.69270 -0.01370 0.77650
C1 C 0.3163(3) 0.2075(2) 0.8690(3)
C2 C 0.2609(4) 0.2235(2) 0.9384(3)
C3 C 0.2691(4) 0.1999(2) 1.0150(4)
C4 C 0.3305(4) 0.1605(2) 1.0286(4)
H5 H 0.36510 0.14870 0.98530
C5 C 0.3380(5) 0.1403(3) 1.1044(4)
H6 H 0.37970 0.11510 1.11380
C6 C 0.2862(5) 0.1558(3) 1.1692(4)
H7 H 0.29330 0.14090 1.22140
C7 C 0.2254(5) 0.1921(2) 1.1576(4)
H8 H 0.19030 0.20180 1.20180
C8 C 0.2143(4) 0.2153(2) 1.0804(3)
C9 C 0.1558(4) 0.2537(2) 1.0679(3)
C10 C 0.1488(3) 0.2782(2) 0.9918(3)
C11 C 0.0922(4) 0.3198(2) 0.9790(4)
H9 H 0.05850 0.33180 1.02270
C12 C 0.0867(4) 0.3419(3) 0.9052(4)
H10 H 0.04840 0.36920 0.89760
C13 C 0.1362(5) 0.3256(3) 0.8399(4)
H11 H 0.12970 0.34110 0.78820
C14 C 0.1936(4) 0.2874(2) 0.8495(4)
H12 H 0.22850 0.27760 0.80520
C15 C 0.2015(4) 0.2621(2) 0.9270(3)
C16 C 0.1006(4) 0.2701(2) 1.1373(3)
C17 C 0.0897(4) 0.2716(2) 0.3692(4)
C18 C 0.1442(4) 0.2541(2) 0.4387(3)
C19 C 0.1088(4) 0.2438(2) 0.5150(3)
C20 C 0.0192(4) 0.2500(2) 0.5307(4)
H13 H -0.01750 0.25950 0.48750
C21 C -0.0122(5) 0.2424(3) 0.6045(4)
H14 H -0.07090 0.24770 0.61340
C22 C 0.0390(5) 0.2268(4) 0.6706(5)
H15 H 0.01460 0.22140 0.72270
C23 C 0.1242(4) 0.2193(3) 0.6589(4)
H16 H 0.15840 0.20800 0.70280
C24 C 0.1622(4) 0.2287(2) 0.5801(4)
C25 C 0.2489(4) 0.2226(2) 0.5681(3)
C26 C 0.2863(4) 0.2346(2) 0.4925(4)
C27 C 0.3745(4) 0.2325(2) 0.4794(4)
H17 H 0.41100 0.22390 0.52320
C28 C 0.4083(4) 0.2428(3) 0.4033(4)
H18 H 0.46780 0.24170 0.39520
C29 C 0.3540(5) 0.2550(3) 0.3377(4)
H19 H 0.37720 0.26080 0.28520
C30 C 0.2692(4) 0.2584(3) 0.3486(4)
H20 H 0.23410 0.26690 0.30380
C31 C 0.2319(4) 0.2497(2) 0.4262(3)
C32 C 0.3043(4) 0.2056(2) 0.6371(3)
C33 C 0.4835(4) 0.0720(2) 0.8674(3)
C34 C 0.4917(4) 0.0353(2) 0.9367(3)
C35 C 0.4654(4) -0.0148(2) 0.9239(4)
C36 C 0.5262(4) 0.0513(2) 1.0093(3)
C37 C 0.5549(5) 0.1024(2) 1.0240(4)
H21 H 0.55000 0.12710 0.98230
C38 C 0.5884(6) 0.1153(2) 1.0964(5)
H22 H 0.60730 0.14900 1.10470
C39 C 0.5961(7) 0.0795(3) 1.1609(5)
H23 H 0.61950 0.08990 1.21150
C40 C 0.4295(5) -0.0305(3) 0.8490(4)
H24 H 0.42340 -0.00700 0.80560
C41 C 0.2428(6) 0.0444(3) 0.8197(5)
H25 H 0.25490 0.06100 0.86960
C42 C 0.2005(6) -0.0013(3) 0.8239(5)
H26 H 0.18530 -0.01550 0.87500
C43 C 0.1807(4) -0.0260(2) 0.7513(4)
C44 C 0.2017(7) -0.0003(3) 0.6821(5)
H27 H 0.18640 -0.01400 0.63070
C45 C 0.2437(6) 0.0443(3) 0.6850(4)
H28 H 0.25690 0.06050 0.63500
C46 C 0.0851(10) -0.1496(3) 0.8164(5)
H29 H 0.06720 -0.16440 0.86610
C47 C 0.1177(11) -0.1004(3) 0.8181(5)
H30 H 0.12270 -0.08340 0.86880
C48 C 0.1413(4) -0.0775(2) 0.7519(4)
C49 C 0.1281(9) -0.1030(3) 0.6826(5)
H31 H 0.14200 -0.08780 0.63190
C50 C 0.0938(8) -0.1521(3) 0.6845(5)
H32 H 0.08160 -0.16830 0.63430
C51 C 0.4947(4) 0.0703(2) 0.6361(3)
C52 C 0.4970(4) 0.0341(2) 0.5652(3)
C53 C 0.5446(4) -0.0107(2) 0.5735(3)
C54 C 0.5851(5) -0.0236(3) 0.6467(4)
H33 H 0.58060 -0.00180 0.69240
C55 C 0.6314(5) -0.0677(3) 0.6528(5)
H34 H 0.65980 -0.07570 0.70210
C56 C 0.6367(5) -0.1014(2) 0.5845(4)
H35 H 0.66870 -0.13170 0.58950
C57 C 0.5975(4) -0.0912(2) 0.5136(4)
H36 H 0.60290 -0.11370 0.46880
C58 C 0.4533(4) 0.0456(2) 0.4939(4)
C59 C 0.2276(6) 0.3839(4) 1.3482(6)
H37 H 0.18340 0.38490 1.38740
C60 C 0.3801(7) 0.3828(6) 1.3144(9)
H38 H 0.36020 0.36690 1.26400
H39 H 0.39810 0.41760 1.30300
H40 H 0.42800 0.36350 1.33610
C61 C 0.3300(9) 0.3812(6) 1.4584(7)
H41 H 0.27750 0.37960 1.49010
H42 H 0.36410 0.35100 1.46940
H43 H 0.36200 0.41150 1.47390
C62 C 0.7699(8) 0.1276(4) 0.5979(7)
H44 H 0.83010 0.12270 0.60980
H45 H 0.74470 0.14970 0.63910
H46 H 0.76370 0.14310 0.54410
C63 C 0.7233(18) 0.0608(8) 0.5115(12)
H47 H 0.70030 0.08700 0.47550
H48 H 0.68580 0.03130 0.51110
H49 H 0.77960 0.05080 0.49240
C64 C 0.7869(7) 0.0126(4) 0.7209(6)
H50 H 0.84730 0.01180 0.73410
H51 H 0.77260 0.04560 0.69740
H52 H 0.77390 -0.01410 0.68150
C65 C 0.7666(9) -0.0175(5) 0.8656(8)
H53 H 0.82470 -0.02970 0.85910
H54 H 0.72950 -0.04600 0.87930
H55 H 0.76460 0.00760 0.90940
Zn1B Zn 0.63896(4) -0.12509(2) 1.24924(4)
Zn1B* Zn 0.63896(4) -0.12509(2) 0.24924(4)
Zn1* Zn 0.36104(4) 0.12509(2) 1.75076(4)
Zn1C Zn -0.13896(4) 0.37491(2) 1.25076(4)
Zn1C* Zn 0.86104(4) 0.37491(2) 0.25076(4)
Zn1A Zn 0.13896(4) 0.62509(2) 0.74924(4)
Zn2* Zn 0.07725(4) 0.36058(2) 0.25357(4)
Zn2C Zn 0.57725(4) 0.13942(2) 0.75357(4)
Zn2A Zn 0.42275(4) -0.13942(2) 1.24643(4)
Zn2A* Zn 0.42275(4) -0.13942(2) 0.24643(4)
Zn3C Zn -0.04838(4) 0.25478(2) 1.24948(4)
Zn3C* Zn -0.04838(4) 0.25478(2) 0.24948(4)
Zn3A Zn 0.04838(4) -0.25478(2) 0.75052(4)
Zn3* Zn 0.45162(4) 0.24522(2) 1.74948(4)
Zn3C** Zn 0.95162(4) 0.25478(2) 0.24948(4)
O1C O 0.8799(3) 0.26616(15) 0.3552(2)
O1C* O -0.1201(3) 0.26616(15) 1.3552(2)
O2C O 0.7916(2) 0.33076(14) 0.3293(2)
O2B O 0.7084(2) -0.16924(14) 1.1707(2)
O3C O 0.6308(2) 0.19350(15) 0.6789(2)
O3* O 0.1308(2) 0.30650(15) 0.1789(2)
O4C O 0.5317(3) 0.25260(14) 0.6486(2)
O5* O 0.0882(3) 0.31839(16) 1.3593(2)
O6* O 0.0525(3) 0.23894(15) 1.3277(2)
O6C O 0.5525(3) 0.26106(15) 0.8277(2)
O7* O 0.3433(2) 0.23963(15) 1.6752(2)
O7C O -0.1567(2) 0.26037(15) 1.1752(2)
O8* O 0.3064(3) 0.15886(14) 1.6497(2)
O8B O 0.6936(3) -0.15886(14) 1.3503(2)
O9B O 0.5856(3) -0.09268(15) 1.1436(2)
O10B O 0.4487(3) -0.07853(15) 1.1736(2)
O10C O 0.0513(3) 0.42147(15) 1.3264(2)
O10C* O 0.0513(3) 0.42147(15) 0.3264(2)
O11B O 0.5726(3) -0.07267(15) 0.3247(2)
O11B* O 0.5726(3) -0.07267(15) 1.3247(2)
O12B O 0.4379(3) -0.09489(15) 0.3500(2)
O12C O 0.0621(3) 0.40511(15) 1.1500(2)
O12C* O 0.0621(3) 0.40511(15) 0.1500(2)
O13C O -0.03774(19) 0.33028(12) 1.23785(18)
O13B O 0.53774(19) -0.16972(12) 1.26215(18)
O13C* O -0.03774(19) 0.33028(12) 0.23785(18)
O14* O 0.2081(3) 0.3831(2) 0.2723(3)
N1A N 0.2326(3) 0.56653(19) 0.7474(3)
N1B N 0.7326(3) -0.06653(19) 1.2474(3)
N2A N 0.4218(3) 0.32412(18) 0.7499(3)
N2B N -0.0782(3) 0.17588(18) 1.2499(3)
N3* N 0.3105(5) 0.3834(4) 0.3750(5)
C1C C 0.8163(3) 0.2925(2) 0.3690(3)
C2C C 0.7609(4) 0.2765(2) 0.4384(3)
C3C C 0.7691(4) 0.3001(2) 0.5150(4)
C4C C 0.8305(4) 0.3395(2) 0.5286(4)
H5C H 0.86510 0.35130 0.48530
C5C C 0.8380(5) 0.3597(3) 0.6044(4)
H6C H 0.87970 0.38490 0.61380
C6C C 0.7862(5) 0.3442(3) 0.6692(4)
H7C H 0.79330 0.35910 0.72140
C7C C 0.7254(5) 0.3079(2) 0.6576(4)
H8C H 0.69030 0.29820 0.70180
C8C C 0.7143(4) 0.2847(2) 0.5804(3)
C9C C 0.6558(4) 0.2463(2) 0.5679(3)
C10C C 0.6488(3) 0.2218(2) 0.4918(3)
C11C C 0.5922(4) 0.1802(2) 0.4790(4)
H9C H 0.55850 0.16820 0.52270
C12C C 0.5867(4) 0.1581(3) 0.4052(4)
H10C H 0.54840 0.13080 0.39760
C13C C 0.6362(5) 0.1744(3) 0.3399(4)
H11C H 0.62970 0.15890 0.28820
C14C C 0.6936(4) 0.2126(2) 0.3495(4)
H12C H 0.72850 0.22240 0.30520
C15C C 0.7015(4) 0.2379(2) 0.4270(3)
C16C C 0.6006(4) 0.2299(2) 0.6373(3)
C17* C 0.0897(4) 0.2716(2) 1.3692(4)
C18* C 0.1442(4) 0.2541(2) 1.4387(3)
C19* C 0.1088(4) 0.2438(2) 1.5150(3)
C20* C 0.0192(4) 0.2500(2) 1.5307(4)
H13* H -0.01750 0.25950 1.48750
C21* C -0.0122(5) 0.2424(3) 1.6045(4)
H14* H -0.07090 0.24770 1.61340
C22* C 0.0390(5) 0.2268(4) 1.6706(5)
H15* H 0.01460 0.22140 1.72270
C23* C 0.1242(4) 0.2193(3) 1.6589(4)
H16* H 0.15840 0.20800 1.70280
C24* C 0.1622(4) 0.2287(2) 1.5801(4)
C25* C 0.2489(4) 0.2226(2) 1.5681(3)
C26* C 0.2863(4) 0.2346(2) 1.4925(4)
C27* C 0.3745(4) 0.2325(2) 1.4794(4)
H17* H 0.41100 0.22390 1.52320
C28* C 0.4083(4) 0.2428(3) 1.4033(4)
H18* H 0.46780 0.24170 1.39520
C29* C 0.3540(5) 0.2550(3) 1.3377(4)
H19* H 0.37720 0.26080 1.28520
C30* C 0.2692(4) 0.2584(3) 1.3486(4)
H20* H 0.23410 0.26690 1.30380
C31* C 0.2319(4) 0.2497(2) 1.4262(3)
C32* C 0.3043(4) 0.2056(2) 1.6371(3)
C33B C 0.5165(4) -0.0720(2) 1.1326(3)
C34B C 0.5083(4) -0.0353(2) 1.0633(3)
C35B C 0.5346(4) 0.0148(2) 1.0761(4)
C36B C 0.4738(4) -0.0513(2) 0.9907(3)
C37B C 0.4451(5) -0.1024(2) 0.9760(4)
H21B H 0.45000 -0.12710 1.01770
C38B C 0.4116(6) -0.1153(2) 0.9036(5)
H22B H 0.39270 -0.14900 0.89530
C39B C 0.4039(7) -0.0795(3) 0.8391(5)
H23B H 0.38050 -0.08990 0.78850
C40B C 0.5705(5) 0.0305(3) 1.1510(4)
H24B H 0.57660 0.00700 1.19440
C41A C 0.2572(6) 0.5444(3) 0.6803(5)
H25A H 0.24510 0.56100 0.63040
C42A C 0.2995(6) 0.4987(3) 0.6761(5)
H26A H 0.31470 0.48450 0.62500
C43A C 0.3193(4) 0.4740(2) 0.7487(4)
C44A C 0.2983(7) 0.4997(3) 0.8179(5)
H27A H 0.31360 0.48600 0.86930
C45A C 0.2563(6) 0.5443(3) 0.8150(4)
H28A H 0.24310 0.56050 0.86500
C46A C 0.4149(10) 0.3504(3) 0.6836(5)
H29A H 0.43280 0.33560 0.63390
C47A C 0.3823(11) 0.3996(3) 0.6819(5)
H30A H 0.37730 0.41660 0.63120
C48A C 0.3587(4) 0.4225(2) 0.7481(4)
C49A C 0.3719(9) 0.3970(3) 0.8174(5)
H31A H 0.35800 0.41220 0.86810
C50A C 0.4062(8) 0.3479(3) 0.8155(5)
H32A H 0.41840 0.33170 0.86570
C51B C 0.5053(4) -0.0703(2) 0.3639(3)
C52B C 0.5030(4) -0.0341(2) 0.4348(3)
C53B C 0.4554(4) 0.0107(2) 0.4265(3)
C54B C 0.4149(5) 0.0236(3) 0.3533(4)
H33B H 0.41940 0.00180 0.30760
C55B C 0.3686(5) 0.0677(3) 0.3472(5)
H34B H 0.34020 0.07570 0.29790
C56B C 0.3633(5) 0.1014(2) 0.4155(4)
H35B H 0.33130 0.13170 0.41050
C57B C 0.4025(4) 0.0912(2) 0.4864(4)
H36B H 0.39710 0.11370 0.53120
C58B C 0.5467(4) -0.0456(2) 0.5061(4)
C59* C 0.2276(6) 0.3839(4) 0.3482(6)
H37* H 0.18340 0.38490 0.38740
C60* C 0.3801(7) 0.3828(6) 0.3144(9)
H38* H 0.36020 0.36690 0.26400
H39* H 0.39810 0.41760 0.30300
H40* H 0.42800 0.36350 0.33610
C61* C 0.3300(9) 0.3812(6) 0.4584(7)
H41* H 0.27750 0.37960 0.49010
H42* H 0.36410 0.35100 0.46940
H43* H 0.36200 0.41150 0.47390
#END
