
#######################################################################
#
#                 Cambridge Crystallographic Data Centre
#                                CCDC
#
#######################################################################
#
# If this CIF has been generated from an entry in the Cambridge
# Structural Database, then it will include bibliographic, chemical,
# crystal, experimental, refinement or atomic coordinate data resulting
# from the CCDC's data processing and validation procedures.
#
#######################################################################

data_CSD_CIF_YARZEZ02
_audit_creation_date 2017-05-10
_audit_creation_method CSD-ConQuest-V1
_database_code_CSD YARZEZ02
_database_code_depnum_ccdc_archive 'CCDC 1497312'
_chemical_formula_sum 'C30 H44 Cd2 N18 P2'
_chemical_formula_moiety
;
2(C9 H22 P1 1+),n(C12 Cd2 N18 2-)
;
_journal_coden_Cambridge 9
_journal_volume 56
_journal_year 2017
_journal_page_first 3238
_journal_name_full 'Inorg.Chem. '
loop_
_publ_author_name
"Lin Zhou"
"Xuan Zheng"
"Ping-Ping Shi"
"Z.Zafar"
"Heng-Yun Ye"
"Da-Wei Fu"
"Qiong Ye"
_chemical_name_systematic
;
catena-[bis(propyltriethylphosphonium) hexakis(\m-dicyanamide)-di-cadmium(ii)]
;
_cell_volume   4838.025
_exptl_crystal_colour 'colorless'
_exptl_special_details
;
delta-phase polymorph
three reversible phase transitions at 270 K, 386 K and 415 K
;
_exptl_crystal_description 'block'
_diffrn_ambient_temperature 427
_refine_special_details
;
C8 disordered by symmetry over two configurations with occupancy 0.50.

;
#These two values have been output from a single CSD field.
_refine_ls_R_factor_gt 0.2103
_refine_ls_wR_factor_gt 0.2103
_symmetry_cell_setting orthorhombic
_symmetry_space_group_name_H-M 'C m c a'
_symmetry_Int_Tables_number 64
loop_
_symmetry_equiv_pos_site_id
_symmetry_equiv_pos_as_xyz
1 x,y,z
2 -x,1/2-y,1/2+z
3 -x,1/2+y,1/2-z
4 x,-y,-z
5 1/2+x,1/2+y,z
6 1/2-x,-y,1/2+z
7 1/2-x,y,1/2-z
8 1/2+x,1/2-y,-z
9 -x,-y,-z
10 x,-1/2+y,-1/2-z
11 x,-1/2-y,-1/2+z
12 -x,y,z
13 -1/2-x,-1/2-y,-z
14 -1/2+x,y,-1/2-z
15 -1/2+x,-y,-1/2+z
16 -1/2-x,-1/2+y,z
_cell_length_a 17.056(4)
_cell_length_b 16.624(4)
_cell_length_c 17.063(4)
_cell_angle_alpha 90
_cell_angle_beta 90
_cell_angle_gamma 90
_cell_formula_units_Z 4
loop_
_atom_type_symbol
_atom_type_radius_bond
C 0.68
Cd 1.44
N 0.68
P 1.05
loop_
_atom_site_label
_atom_site_type_symbol
_atom_site_fract_x
_atom_site_fract_y
_atom_site_fract_z
C1 C 0.3274(3) -0.0659(4) 0.2913(4)
P1 P 0.25000 -0.0023(6) 0.25000
C2 C 0.2086(4) 0.0615(5) 0.3274(3)
C3 C 0.1238(5) 0.0859(12) 0.3096(6)
C4 C 0.3821(7) -0.1000(11) 0.2284(10)
C5 C 0.1143(10) 0.106(2) 0.2226(7)
N1 N 0.00000 0.50000 0.50000
N2 N 0.25000 0.25000 0.50000
N3 N 0.00000 0.3277(7) 0.2838(4)
Cd1 Cd 0.00000 0.25298(13) 0.55016(16)
N4 N 0.00000 0.1354(3) 0.4742(7)
C6 C 0.1978(4) 0.2469(12) 0.5561(8)
C7 C 0.00000 0.3131(15) 0.3592(3)
C8 C 0.00000 0.0662(3) 0.4717(6)
N5 N 0.00000 0.00000 0.50000
N6 N 0.00000 0.3209(6) 0.4254(3)
C9 C 0.00000 0.2769(8) 0.2259(5)
N7 N 0.1300(3) 0.2532(5) 0.5612(6)
N8 N 0.00000 0.3929(4) 0.5993(5)
N9 N 0.00000 0.2401(9) 0.1700(7)
C10 C 0.00000 0.4552(5) 0.5656(6)
C1F C 0.1726(3) -0.0659(4) 0.2087(4)
C2F C 0.2914(4) 0.0615(5) 0.1726(3)
C3F C 0.3762(5) 0.0859(12) 0.1904(6)
C4F C 0.1179(7) -0.1000(11) 0.2716(10)
C5F C 0.3857(10) 0.106(2) 0.2774(7)
N8C N 0.00000 0.6071(4) 0.4007(5)
C10C C 0.00000 0.5448(5) 0.4344(6)
C6L C 0.3022(4) 0.2531(12) 0.4439(8)
N7L N 0.3700(3) 0.2468(5) 0.4388(6)
N4C N 0.00000 -0.1354(3) 0.5258(7)
C8C C 0.00000 -0.0662(3) 0.5283(6)
N2C N 0.25000 -0.25000 0.50000
N3C N 0.00000 -0.3277(7) 0.7162(4)
Cd1C Cd 0.00000 -0.25298(13) 0.44984(16)
C6C C 0.1978(4) -0.2469(12) 0.4439(8)
C7C C 0.00000 -0.3131(15) 0.6408(3)
N6C N 0.00000 -0.3209(6) 0.5746(3)
C9C C 0.00000 -0.2769(8) 0.7741(5)
N7C N 0.1300(3) -0.2532(5) 0.4388(6)
N9C N 0.00000 -0.2401(9) 0.8300(7)
C6O C 0.3022(4) -0.2531(12) 0.5561(8)
N7O N 0.3700(3) -0.2468(5) 0.5612(6)
Cd1A Cd 0.00000 0.24702(13) 0.05016(16)
Cd1B Cd 0.00000 -0.24702(13) 0.94984(16)
Cd1C* Cd 0.00000 0.74702(13) 0.44984(16)
Cd1D Cd 0.50000 -0.24702(13) 0.55016(16)
Cd1G Cd 0.50000 0.24702(13) 0.44984(16)
N7H N -0.1300(3) -0.2532(5) 0.4388(6)
N7K N -0.1300(3) 0.2532(5) 0.5612(6)
N8C* N 0.00000 -0.3929(4) 0.4007(5)
N9A N 0.00000 0.2599(9) 0.6700(7)
N9B N 0.00000 -0.2599(9) 0.3300(7)
#END
