
#######################################################################
#
#                 Cambridge Crystallographic Data Centre
#                                CCDC
#
#######################################################################
#
# If this CIF has been generated from an entry in the Cambridge
# Structural Database, then it will include bibliographic, chemical,
# crystal, experimental, refinement or atomic coordinate data resulting
# from the CCDC's data processing and validation procedures.
#
#######################################################################

data_CSD_CIF_YARZEZ03
_audit_creation_date 2017-05-10
_audit_creation_method CSD-ConQuest-V1
_database_code_CSD YARZEZ03
_database_code_depnum_ccdc_archive 'CCDC 1497311'
_chemical_formula_sum 'C15 H22 Cd1 N9 P1'
_chemical_formula_moiety
;
C9 H22 P1 1+,n(C6 Cd1 N9 1-)
;
_journal_coden_Cambridge 9
_journal_volume 56
_journal_year 2017
_journal_page_first 3238
_journal_name_full 'Inorg.Chem. '
loop_
_publ_author_name
"Lin Zhou"
"Xuan Zheng"
"Ping-Ping Shi"
"Z.Zafar"
"Heng-Yun Ye"
"Da-Wei Fu"
"Qiong Ye"
_chemical_name_systematic
;
catena-[(propyltriethylphosphonium) tris(\m-dicyanamide)-cadmium(ii)]
;
_cell_volume   5088.755
_exptl_crystal_colour 'colorless'
_exptl_special_details
;
gamma-phase polymorph
three reversible phase transitions at 270 K, 386 K and 415 K
;
_exptl_crystal_description 'block'
_diffrn_ambient_temperature 397
_refine_special_details
;
C11 disordered by symmetry over two configurations with occupancy 0.25; C8 
disordered by symmetry over two configurations with occupancy 0.25.
;
#These two values have been output from a single CSD field.
_refine_ls_R_factor_gt 0.2197
_refine_ls_wR_factor_gt 0.2197
_symmetry_cell_setting orthorhombic
_symmetry_space_group_name_H-M 'I b a m'
_symmetry_Int_Tables_number 72
loop_
_symmetry_equiv_pos_site_id
_symmetry_equiv_pos_as_xyz
1 x,y,z
2 -x,-y,z
3 1/2-x,1/2+y,-z
4 1/2+x,1/2-y,-z
5 1/2+x,1/2+y,1/2+z
6 1/2-x,1/2-y,1/2+z
7 -x,y,1/2-z
8 x,-y,1/2-z
9 -x,-y,-z
10 x,y,-z
11 -1/2+x,-1/2-y,z
12 -1/2-x,-1/2+y,z
13 -1/2-x,-1/2-y,-1/2-z
14 -1/2+x,-1/2+y,-1/2-z
15 x,-y,-1/2+z
16 -x,y,-1/2+z
_cell_length_a 17.25(4)
_cell_length_b 17.57(4)
_cell_length_c 16.79(3)
_cell_angle_alpha 90
_cell_angle_beta 90
_cell_angle_gamma 90
_cell_formula_units_Z 8
loop_
_atom_type_symbol
_atom_type_radius_bond
C 0.68
Cd 1.44
N 0.68
P 1.05
loop_
_atom_site_label
_atom_site_type_symbol
_atom_site_fract_x
_atom_site_fract_y
_atom_site_fract_z
N1 N 0.4764(4) 0.2953(5) 0.50000
C1 C 0.4007(3) 0.3056(8) 0.50000
N2 N 0.3374(3) 0.2872(6) 0.50000
N3 N 0.1932(5) 0.2951(5) 0.3658(3)
Cd1 Cd 0.20374(9) 0.28802(10) 0.50000
N4 N 0.2006(6) 0.1573(3) 0.50000
C2 C 0.201(1) 0.0942(3) 0.50000
N5 N 0.1992(5) 0.0199(4) 0.50000
N6 N 0.2990(6) -0.0772(4) 0.50000
C3 C 0.2616(6) -0.0235(4) 0.50000
C4 C 0.2087(5) 0.2784(7) 0.2997(4)
N7 N 0.25000 0.25000 0.25000
C5 C 0.5096(4) 0.2268(6) 0.50000
N8 N 0.5681(4) 0.1929(7) 0.50000
P1 P 0.50000 1.00000 0.75000
C6 C 0.7062(5) 0.9609(13) 0.6983(17)
C7 C 0.5625(4) 0.9359(8) 0.6965(9)
C8 C 0.6393(5) 0.9189(9) 0.7389(11)
P2 P 0.00000 1.00000 0.75000
C9 C 0.0404(10) 0.9094(5) 0.7783(7)
C10 C -0.0013(12) 0.8707(5) 0.8478(8)
C11 C 0.028(2) 0.7894(6) 0.8595(13)
N3L N 0.3068(5) 0.2049(5) 0.1342(3)
C4L C 0.2913(5) 0.2216(7) 0.2003(4)
N3I N 0.1932(5) 0.2951(5) 0.6342(3)
Cd1B Cd 0.29626(9) -0.21198(10) 0.50000
Cd1C Cd 0.70374(9) 0.21198(10) 0.50000
Cd1E Cd 0.29626(9) 0.21198(10) 0.00000
N6B N 0.2010(6) 0.4228(4) 0.50000
N8C N 0.0681(4) 0.3071(7) 0.50000
C6A C 0.2938(5) 1.0391(13) 0.6983(17)
C7A C 0.4375(4) 1.0641(8) 0.6965(9)
C8A C 0.3607(5) 1.0811(9) 0.7389(11)
C6F C 0.2938(5) 0.9609(13) 0.8017(17)
C7F C 0.4375(4) 0.9359(8) 0.8035(9)
C8F C 0.3607(5) 0.9189(9) 0.7611(11)
C6G C 0.7062(5) 1.0391(13) 0.8017(17)
C7G C 0.5625(4) 1.0641(8) 0.8035(9)
C8G C 0.6393(5) 1.0811(9) 0.7611(11)
C9A C -0.0404(10) 1.0906(5) 0.7783(7)
C10A C 0.0013(12) 1.1293(5) 0.8478(8)
C11A C -0.028(2) 1.2106(6) 0.8595(13)
C9F C -0.0404(10) 0.9094(5) 0.7217(7)
C10F C 0.0013(12) 0.8707(5) 0.6522(8)
C11F C -0.028(2) 0.7894(6) 0.6405(13)
C9G C 0.0404(10) 1.0906(5) 0.7217(7)
C10G C -0.0013(12) 1.1293(5) 0.6522(8)
C11G C 0.028(2) 1.2106(6) 0.6405(13)
#END
