
#######################################################################
#
#                 Cambridge Crystallographic Data Centre
#                                CCDC
#
#######################################################################
#
# If this CIF has been generated from an entry in the Cambridge
# Structural Database, then it will include bibliographic, chemical,
# crystal, experimental, refinement or atomic coordinate data resulting
# from the CCDC's data processing and validation procedures.
#
#######################################################################

data_CSD_CIF_YARZEZ
_audit_creation_date 2017-05-10
_audit_creation_method CSD-ConQuest-V1
_database_code_CSD YARZEZ
_database_code_depnum_ccdc_archive 'CCDC 1497309'
_chemical_formula_sum 'C15 H22 Cd1 N9 P1'
_chemical_formula_moiety
;
C9 H22 P1 1+,n(C6 Cd1 N9 1-)
;
_journal_coden_Cambridge 9
_journal_volume 56
_journal_year 2017
_journal_page_first 3238
_journal_name_full 'Inorg.Chem. '
loop_
_publ_author_name
"Lin Zhou"
"Xuan Zheng"
"Ping-Ping Shi"
"Z.Zafar"
"Heng-Yun Ye"
"Da-Wei Fu"
"Qiong Ye"
_chemical_name_systematic
;
catena-[(propyltriethylphosphonium) tris(\m-dicyanamide)-cadmium(ii)]
;
_cell_volume   2150.426
_exptl_crystal_colour 'colorless'
_exptl_crystal_density_diffrn 1.457
_exptl_special_details
;
, Luminescent
alpha-phase polymorph
three reversible phase transitions at 270 K, 386 K and 415 K
;
_exptl_crystal_description 'block'
_diffrn_ambient_temperature 223
#These two values have been output from a single CSD field.
_refine_ls_R_factor_gt 0.1349
_refine_ls_wR_factor_gt 0.1349
_symmetry_cell_setting monoclinic
_symmetry_space_group_name_H-M 'P 21/c'
_symmetry_Int_Tables_number 14
loop_
_symmetry_equiv_pos_site_id
_symmetry_equiv_pos_as_xyz
1 x,y,z
2 -x,1/2+y,1/2-z
3 -x,-y,-z
4 x,-1/2-y,-1/2+z
_cell_length_a 10.498(8)
_cell_length_b 16.500(3)
_cell_length_c 15.763(9)
_cell_angle_alpha 90
_cell_angle_beta 128.040(2)
_cell_angle_gamma 90
_cell_formula_units_Z 4
loop_
_atom_type_symbol
_atom_type_radius_bond
C 0.68
H 0.23
Cd 1.44
N 0.68
P 1.05
loop_
_atom_site_label
_atom_site_type_symbol
_atom_site_fract_x
_atom_site_fract_y
_atom_site_fract_z
C1 C 0.5248(13) 0.6464(8) 0.6763(9)
Cd1 Cd 0.56481(11) 0.82341(5) 0.80771(6)
N1 N 0.4052(3) 0.44502(8) 0.6107(4)
N2 N 0.5260(13) 0.7051(7) 0.7168(9)
N3 N 0.5060(11) 0.5792(7) 0.6165(8)
C2 C 0.4513(3) 0.51316(10) 0.6148(5)
N4 N 0.8469(12) 0.8006(10) 0.9201(9)
C3 C 0.9493(15) 0.7610(13) 0.9606(11)
N5 N 0.5190(12) 0.7493(10) 0.9151(8)
N6 N 0.4375(11) 0.6487(10) 0.9846(8)
C4 C 0.4918(14) 0.7067(12) 0.9565(10)
N7 N 1.2818(14) 0.6530(11) 1.1794(10)
N8 N 1.0736(13) 0.7138(11) 0.9846(10)
C5 C 1.1885(17) 0.6814(14) 1.1012(13)
N9 N 0.5790(12) 0.6109(10) 1.1776(8)
C6 C 0.5130(15) 0.6307(12) 1.089(1)
P1 P 0.9998(3) 0.4787(2) 1.2622(2)
C7 C 0.8374(16) 0.518(1) 1.1268(10)
H1 H 0.73840 0.48700 1.09680
H2 H 0.81590 0.57460 1.13310
C8 C 1.0615(13) 0.3752(2) 1.24096(19)
H3 H 0.96430 0.34540 1.18390
H4 H 1.12830 0.38370 1.21780
C9 C 1.1758(14) 0.5459(10) 1.3280(11)
H5 H 1.26720 0.52060 1.39500
H6 H 1.20610 0.55300 1.28080
C10 C 0.9316(14) 0.4652(13) 1.3496(11)
H7 H 1.02540 0.44750 1.42120
H8 H 0.89940 0.51840 1.35810
C11 C 1.1416(18) 0.6297(10) 1.3539(14)
H9 H 1.23770 0.66320 1.38930
H10 H 1.11240 0.62290 1.40110
H11 H 1.05330 0.65560 1.28760
C12 C 0.7955(16) 0.4070(14) 1.3107(12)
H12 H 0.77220 0.40600 1.36140
H13 H 0.82660 0.35320 1.30490
H14 H 0.70000 0.42420 1.24070
C13 C 1.1554(12) 0.3253(2) 1.3439(2)
H15 H 1.18530 0.27370 1.33110
H16 H 1.08860 0.31590 1.36610
H17 H 1.25240 0.35430 1.40020
C14 C 0.742(2) 0.5574(11) 0.9428(13)
H18 H 0.77030 0.55550 0.89470
H19 H 0.73390 0.61350 0.95750
H20 H 0.63940 0.53050 0.90940
C15 C 0.8763(16) 0.5137(10) 1.0509(10)
H21 H 0.88390 0.45690 1.03640
H22 H 0.98110 0.53950 1.08340
Cd1A Cd 0.43519(11) 0.32341(5) 0.69229(6)
Cd1C Cd 0.56481(11) 0.67659(5) 1.30771(6)
Cd1C* Cd 1.56481(11) 0.67659(5) 1.30771(6)
N1A N 0.5948(3) 0.94502(8) 0.8893(4)
N7C N 0.2818(14) 0.8470(11) 0.6794(10)
N9C N 0.5790(12) 0.8891(10) 0.6776(8)
#END
