
#######################################################################
#
#                 Cambridge Crystallographic Data Centre
#                                CCDC
#
#######################################################################
#
# If this CIF has been generated from an entry in the Cambridge
# Structural Database, then it will include bibliographic, chemical,
# crystal, experimental, refinement or atomic coordinate data resulting
# from the CCDC's data processing and validation procedures.
#
#######################################################################

data_CSD_CIF_YASLOW
_audit_creation_date 2017-05-10
_audit_creation_method CSD-ConQuest-V1
_database_code_CSD YASLOW
_database_code_depnum_ccdc_archive 'CCDC 1502852'
_chemical_formula_sum 'C78 H124 N16 O62 Zn4'
_chemical_formula_moiety
;
(C42 H26 N4 O30 Zn4 2-)n,2(H3 O1 1+),2(C6 H12 N4),16(H2 O1),4(C3 H7 N1 
O1),2(C6 H4 O5)
;
_journal_coden_Cambridge 1220
_journal_volume 23
_journal_year 2017
_journal_page_first 2286
_journal_name_full 'Chem.-Eur.J. '
loop_
_publ_author_name
"S.A.Sapchenko"
"P.A.Demakov"
"D.G.Samsonenko"
"D.N.Dybtsev"
"M.Schroder"
"V.P.Fedin"
_chemical_name_systematic
;
catena-[dioxonium 
(\m-urotropine)-tetrakis(furan-2,5-dicarboxylato)-bis(furan-2-carboxylato-5-ca
rboxylic acid)-tetra-zinc(ii) urotropine N,N-dimethylformamide 
furan-2,5-dicarboxylic acid hexadecahydrate]
;
_cell_volume  21301.156
_exptl_crystal_colour 'colorless'
_exptl_crystal_density_diffrn 1.584
_exptl_special_details
;
Absolute configuration
Two H atoms are not located on the hydroxy groups, they have been added 
arbitrarily
;
_exptl_crystal_description 'block'
_diffrn_ambient_temperature 130
_refine_special_details
;
Disordered urotropine, N,N-dimethylformamide, furan-2,5-dicarboxylic acid and 
water solvent molecules were not modelled and the disordered density was 
taken into account using the SQUEEZE/PLATON procedure.
;
#These two values have been output from a single CSD field.
_refine_ls_R_factor_gt 0.0353
_refine_ls_wR_factor_gt 0.0353
_symmetry_cell_setting cubic
_symmetry_space_group_name_H-M 'F 41 3 2'
_symmetry_Int_Tables_number 210
loop_
_symmetry_equiv_pos_site_id
_symmetry_equiv_pos_as_xyz
1 x,y,z
2 -x,1/2-y,1/2+z
3 1/2-x,1/2+y,-z
4 1/2+x,-y,1/2-z
5 z,x,y
6 1/2+z,-x,1/2-y
7 -z,1/2-x,1/2+y
8 1/2-z,1/2+x,-y
9 y,z,x
10 1/2-y,1/2+z,-x
11 1/2+y,-z,1/2-x
12 -y,1/2-z,1/2+x
13 3/4+y,1/4+x,3/4-z
14 1/4-y,1/4-x,1/4-z
15 1/4+y,3/4-x,3/4+z
16 3/4-y,3/4+x,1/4+z
17 3/4+x,1/4+z,3/4-y
18 3/4-x,3/4+z,1/4+y
19 1/4-x,1/4-z,1/4-y
20 1/4+x,3/4-z,3/4+y
21 3/4+z,1/4+y,3/4-x
22 1/4+z,3/4-y,3/4+x
23 3/4-z,3/4+y,1/4+x
24 1/4-z,1/4-y,1/4-x
25 x,1/2+y,1/2+z
26 -x,-y,z
27 1/2-x,y,1/2-z
28 1/2+x,1/2-y,-z
29 z,1/2+x,1/2+y
30 1/2+z,1/2-x,-y
31 -z,-x,y
32 1/2-z,x,1/2-y
33 y,1/2+z,1/2+x
34 1/2-y,z,1/2-x
35 1/2+y,1/2-z,-x
36 -y,-z,x
37 3/4+y,3/4+x,1/4-z
38 1/4-y,3/4-x,3/4-z
39 1/4+y,1/4-x,1/4+z
40 3/4-y,1/4+x,3/4+z
41 3/4+x,3/4+z,1/4-y
42 3/4-x,1/4+z,3/4+y
43 1/4-x,3/4-z,3/4-y
44 1/4+x,1/4-z,1/4+y
45 3/4+z,3/4+y,1/4-x
46 1/4+z,1/4-y,1/4+x
47 3/4-z,1/4+y,3/4+x
48 1/4-z,3/4-y,3/4-x
49 1/2+x,y,1/2+z
50 1/2-x,1/2-y,z
51 -x,1/2+y,1/2-z
52 x,-y,-z
53 1/2+z,x,1/2+y
54 z,-x,-y
55 1/2-z,1/2-x,y
56 -z,1/2+x,1/2-y
57 1/2+y,z,1/2+x
58 -y,1/2+z,1/2-x
59 y,-z,-x
60 1/2-y,1/2-z,x
61 1/4+y,1/4+x,1/4-z
62 3/4-y,1/4-x,3/4-z
63 3/4+y,3/4-x,1/4+z
64 1/4-y,3/4+x,3/4+z
65 1/4+x,1/4+z,1/4-y
66 1/4-x,3/4+z,3/4+y
67 3/4-x,1/4-z,3/4-y
68 3/4+x,3/4-z,1/4+y
69 1/4+z,1/4+y,1/4-x
70 3/4+z,3/4-y,1/4+x
71 1/4-z,3/4+y,3/4+x
72 3/4-z,1/4-y,3/4-x
73 1/2+x,1/2+y,z
74 1/2-x,-y,1/2+z
75 -x,y,-z
76 x,1/2-y,1/2-z
77 1/2+z,1/2+x,y
78 z,1/2-x,1/2-y
79 1/2-z,-x,1/2+y
80 -z,x,-y
81 1/2+y,1/2+z,x
82 -y,z,-x
83 y,1/2-z,1/2-x
84 1/2-y,-z,1/2+x
85 1/4+y,3/4+x,3/4-z
86 3/4-y,3/4-x,1/4-z
87 3/4+y,1/4-x,3/4+z
88 1/4-y,1/4+x,1/4+z
89 1/4+x,3/4+z,3/4-y
90 1/4-x,1/4+z,1/4+y
91 3/4-x,3/4-z,1/4-y
92 3/4+x,1/4-z,3/4+y
93 1/4+z,3/4+y,3/4-x
94 3/4+z,1/4-y,3/4+x
95 1/4-z,1/4+y,1/4+x
96 3/4-z,3/4-y,1/4-x
_cell_length_a 27.7205(9)
_cell_length_b 27.7205(9)
_cell_length_c 27.7205(9)
_cell_angle_alpha 90
_cell_angle_beta 90
_cell_angle_gamma 90
_cell_formula_units_Z 8
loop_
_atom_type_symbol
_atom_type_radius_bond
C 0.68
H 0.23
N 0.68
O 0.68
Zn 1.22
loop_
_atom_site_label
_atom_site_type_symbol
_atom_site_fract_x
_atom_site_fract_y
_atom_site_fract_z
Zn1 Zn 0.42520(2) 0.42520(2) 0.92520(2)
O1 O 0.44551(9) 0.41895(10) 0.85791(10)
O2 O 0.51700(8) 0.39713(10) 0.88770(9)
O3 O 0.54898(8) 0.37500 0.79898(8)
C1 C 0.48789(12) 0.40286(13) 0.85423(13)
C2 C 0.50178(13) 0.38834(15) 0.80474(13)
C3 C 0.47816(15) 0.3848(2) 0.76248(16)
H1 H 0.44560 0.39340 0.75630
N1 N 0.46876(8) 0.46876(8) 0.96876(8)
C4 C 0.50000 0.50000 0.93804(13)
H2 H 0.47960 0.52040 0.91710
O4 O 0.62500 0.37500 0.87500
H3? H 0.47960 0.52040 0.91710
O1QB O 0.60791(9) 0.33105(10) 0.69551(10)
O2QB O 0.63770(8) 0.35287(10) 0.76700(9)
C1QB C 0.60423(12) 0.34714(13) 0.73789(13)
C2QB C 0.55474(13) 0.36166(15) 0.75178(13)
C3QB C 0.51248(15) 0.3652(2) 0.72816(16)
H1QB H 0.50630 0.35660 0.69560
N1E N 0.46876(8) 0.53124(8) 1.03124(8)
C4E C 0.43804 0.50000 1.00000(13)
H2E H 0.41710 0.52040 0.97960
N1K N 0.53124(8) 0.53124(8) 0.96876(8)
C4K C 0.50000 0.56196 1.00000(13)
H2K H 0.47960 0.58290 0.97960
H2Y H 0.52040 0.47960 0.91710
N1EA N 0.53124(8) 0.46876(8) 1.03124(8)
C4EA C 0.56196 0.50000 1.00000(13)
H2EA H 0.58290 0.47960 0.97960
C4FA C 0.50000 0.43804 1.00000(13)
H2FA H 0.52040 0.41710 0.97960
C4YA C 0.50000 0.50000 1.06196(13)
H2YA H 0.47960 0.47960 1.08290
H2ZA H 0.41710 0.47960 1.02040
H2EB H 0.47960 0.41710 1.02040
H2VB H 0.52040 0.52040 1.08290
H2ZB H 0.58290 0.52040 1.02040
H2DC H 0.52040 0.58290 1.02040
Zn1E Zn 0.42520(2) 0.57480(2) 1.07480(2)
O1E O 0.35791(9) 0.55449(10) 1.08105(10)
O2E O 0.38770(8) 0.4830(1) 1.10287(9)
O3E O 0.29898(8) 0.45102 1.12500(8)
C1E C 0.35423(12) 0.51211(13) 1.09714(13)
C2E C 0.30474(13) 0.49822(15) 1.11166(13)
C3E C 0.26248(15) 0.52184(20) 1.11520(16)
H1E H 0.25630 0.55440 1.10660
O1MC O 0.19551(9) 0.39209(10) 1.16895(10)
O2MC O 0.26700(8) 0.3623(1) 1.14713(9)
C1MC C 0.23789(12) 0.39577(13) 1.15286(13)
C2MC C 0.25178(13) 0.44526(15) 1.13834(13)
C3MC C 0.22816(15) 0.48752(20) 1.13480(16)
H1MC H 0.19560 0.49370 1.14340
Zn1K Zn 0.57480(2) 0.57480(2) 0.92520(2)
O1K O 0.58105(9) 0.64209(10) 0.94551(10)
O2K O 0.60287(8) 0.6123(1) 1.01700(9)
O3K O 0.62500(8) 0.70102 1.04898(8)
C1K C 0.59714(12) 0.64577(13) 0.98789(13)
C2K C 0.61166(13) 0.69526(15) 1.00178(13)
C3K C 0.61520(15) 0.73752(20) 0.97816(16)
H1K H 0.60660 0.74370 0.94560
O1LA O 0.66895(9) 0.80449(10) 1.10791(10)
O2LA O 0.64713(8) 0.7330(1) 1.13770(9)
C1LA C 0.65286(12) 0.76211(13) 1.10423(13)
C2LA C 0.63834(13) 0.74822(15) 1.05474(13)
C3LA C 0.63480(15) 0.77184(20) 1.01248(16)
H1LA H 0.64340 0.80440 1.00630
O1Y O 0.55449(9) 0.58105(10) 0.85791(10)
O2Y O 0.48300(8) 0.60287(10) 0.88770(9)
O3Y O 0.45102(8) 0.62500 0.79898(8)
C1Y C 0.51211(12) 0.59714(13) 0.85423(13)
C2Y C 0.49822(13) 0.61166(15) 0.80474(13)
C3Y C 0.52184(15) 0.6152(2) 0.76248(16)
H1Y H 0.55440 0.60660 0.75630
O1PC O 0.39209(9) 0.66895(10) 0.69551(10)
O2PC O 0.36230(8) 0.64713(10) 0.76700(9)
C1PC C 0.39577(12) 0.65286(13) 0.73789(13)
C2PC C 0.44526(13) 0.63834(15) 0.75178(13)
C3PC C 0.48752(15) 0.6348(2) 0.72816(16)
H1PC H 0.49370 0.64340 0.69560
Zn1EA Zn 0.57480(2) 0.42520(2) 1.07480(2)
O1EB O 0.58105(9) 0.35791(10) 1.05449(10)
O2EB O 0.60287(8) 0.3877(1) 0.98300(9)
O3EB O 0.62500(8) 0.29898 0.95102(8)
C1EB C 0.59714(12) 0.35423(13) 1.01211(13)
C2EB C 0.61166(13) 0.30474(15) 0.99822(13)
C3EB C 0.61520(15) 0.26248(20) 1.02184(16)
H1EB H 0.60660 0.25630 1.05440
O1FC O 0.66895(9) 0.19551(10) 0.89209(10)
O2FC O 0.64713(8) 0.2670(1) 0.86230(9)
C1FC C 0.65286(12) 0.23789(13) 0.89577(13)
C2FC C 0.63834(13) 0.25178(15) 0.94526(13)
C3FC C 0.63480(15) 0.22816(20) 0.98752(16)
H1FC H 0.64340 0.19560 0.99370
O1ZB O 0.64209(9) 0.55449(10) 0.91895(10)
O2ZB O 0.61230(8) 0.4830(1) 0.89713(9)
O3R O 0.70102(8) 0.45102 0.87500(8)
C1ZB C 0.64577(12) 0.51211(13) 0.90286(13)
C2ZB C 0.69526(13) 0.49822(15) 0.88834(13)
C3ZB C 0.73752(15) 0.52184(20) 0.88480(16)
H1ZB H 0.74370 0.55440 0.89340
O1R O 0.80449(9) 0.39209(10) 0.83105(10)
O2R O 0.73300(8) 0.3623(1) 0.85287(9)
C1R C 0.76211(12) 0.39577(13) 0.84714(13)
C2R C 0.74822(13) 0.44526(15) 0.86166(13)
C3R C 0.77184(15) 0.48752(20) 0.86520(16)
H1R H 0.80440 0.49370 0.85660
Zn1N Zn 0.67520(2) 0.32480(2) 0.67520(2)
Zn1Q Zn 0.32480(2) 0.67520(2) 0.67520(2)
Zn1R Zn 0.82480(2) 0.32480(2) 0.82480(2)
Zn1S Zn 0.67520(2) 0.82480(2) 1.17520(2)
Zn1U Zn 0.17520(2) 0.32480(2) 1.17520(2)
Zn1RA Zn 0.67520(2) 0.17520(2) 0.82480(2)
O1EA O 0.64209(9) 0.44551(10) 1.08105(10)
O1FA O 0.41895(9) 0.35791(10) 0.94551(10)
O1YA O 0.44551(9) 0.58105(10) 1.14209(10)
O1ZA O 0.35791(9) 0.44551(10) 0.91895(10)
O1VB O 0.55449(9) 0.41895(10) 1.14209(10)
O1DC O 0.41895(9) 0.64209(10) 1.05449(10)
#END
