
#######################################################################
#
#                 Cambridge Crystallographic Data Centre
#                                CCDC
#
#######################################################################
#
# If this CIF has been generated from an entry in the Cambridge
# Structural Database, then it will include bibliographic, chemical,
# crystal, experimental, refinement or atomic coordinate data resulting
# from the CCDC's data processing and validation procedures.
#
#######################################################################

data_CSD_CIF_YATDUV
_audit_creation_date 2017-05-11
_audit_creation_method CSD-ConQuest-V1
_database_code_CSD YATDUV
_database_code_depnum_ccdc_archive 'CCDC 1533674'
_chemical_formula_sum 'C12 H17 N7 O10 Zn3'
_chemical_formula_moiety
;
(C12 H7 N6 O7 Zn3 1-)n,H4 N1 1+,3(H2 O1)
;
_journal_coden_Cambridge 1147
_journal_volume 17
_journal_year 2017
_journal_page_first 3387
_journal_name_full 'Cryst.Growth Des. '
loop_
_publ_author_name
"Jun-Hao Wang"
"Dong Luo"
"Mian Li"
"Dan Li"
_chemical_name_systematic
;
catena-[ammonium (\m-hydroxo)-tris(\m-pyrazolato-4-carboxylato)-tri-zinc(ii) 
trihydrate unknown solvate]
;
_cell_volume   8094.873
_exptl_crystal_colour 'colorless'
_exptl_crystal_density_diffrn 0.992
_exptl_crystal_description 'block'
_diffrn_ambient_temperature 293
_refine_special_details
;
Disordered solvent molecules were not modelled and the disordered density was 
taken into account using the SQUEEZE/PLATON procedure.
;
#These two values have been output from a single CSD field.
_refine_ls_R_factor_gt 0.0568
_refine_ls_wR_factor_gt 0.0568
_symmetry_cell_setting cubic
_symmetry_space_group_name_H-M 'P a -3'
_symmetry_Int_Tables_number 205
loop_
_symmetry_equiv_pos_site_id
_symmetry_equiv_pos_as_xyz
1 x,y,z
2 z,x,y
3 y,z,x
4 1/2-y,-z,1/2+x
5 1/2+z,1/2-x,-y
6 -y,1/2+z,1/2-x
7 1/2-z,-x,1/2+y
8 -z,1/2+x,1/2-y
9 1/2+y,1/2-z,-x
10 1/2-x,-y,1/2+z
11 1/2+x,1/2-y,-z
12 -x,1/2+y,1/2-z
13 -x,-y,-z
14 -z,-x,-y
15 -y,-z,-x
16 -1/2+y,z,-1/2-x
17 -1/2-z,-1/2+x,y
18 y,-1/2-z,-1/2+x
19 -1/2+z,x,-1/2-y
20 z,-1/2-x,-1/2+y
21 -1/2-y,-1/2+z,x
22 -1/2+x,y,-1/2-z
23 -1/2-x,-1/2+y,z
24 x,-1/2-y,-1/2+z
_cell_length_a 20.07875(17)
_cell_length_b 20.07875(17)
_cell_length_c 20.07875(17)
_cell_angle_alpha 90
_cell_angle_beta 90
_cell_angle_gamma 90
_cell_formula_units_Z 8
loop_
_atom_type_symbol
_atom_type_radius_bond
C 0.68
H 0.23
N 0.68
O 0.68
Zn 1.22
loop_
_atom_site_label
_atom_site_type_symbol
_atom_site_fract_x
_atom_site_fract_y
_atom_site_fract_z
Zn1 Zn 0.25119(2) 0.27053(2) 0.14570(2)
O1 O 0.20120(11) 0.20120(11) 0.20120(11)
N1 N 0.34264(16) 0.24318(16) 0.17105(18)
C1 C 0.4021(2) 0.2689(2) 0.1594(2)
H1 H 0.41050 0.30360 0.12990
C2 C 0.45015(19) 0.2367(2) 0.1973(2)
N2 N 0.35026(15) 0.19397(18) 0.21748(17)
O2 O 0.54899(16) 0.29235(19) 0.1648(2)
C3 C 0.5218(2) 0.2503(2) 0.2007(3)
C4 C 0.4147(2) 0.1897(2) 0.2328(2)
H2 H 0.43300 0.15960 0.26290
O3 O 0.55496(15) 0.21668(18) 0.24317(18)
O4 O 0.5223(9) 0.3958(7) 0.0770(8)
N3 N 0.1223(5) 0.1223(5) 0.1223(5)
Zn1A Zn 0.14570(2) 0.25119(2) 0.27053(2)
N1A N 0.17105(16) 0.34264(16) 0.24318(18)
C1A C 0.1594(2) 0.4021(2) 0.2689(2)
H1A H 0.12990 0.41050 0.30360
C2A C 0.19730(19) 0.45015(20) 0.2367(2)
N2A N 0.21748(15) 0.35026(18) 0.19397(17)
O2A O 0.16480(16) 0.54899(19) 0.29235(20)
C3A C 0.2007(2) 0.5218(2) 0.2503(3)
C4A C 0.2328(2) 0.4147(2) 0.1897(2)
H2A H 0.26290 0.43300 0.15960
O3A O 0.24317(15) 0.55496(18) 0.21668(18)
Zn1B Zn 0.27053(2) 0.14570(2) 0.25119(2)
N1B N 0.24318(16) 0.17105(16) 0.34264(18)
C1B C 0.2689(2) 0.1594(2) 0.4021(2)
H1B H 0.30360 0.12990 0.41050
C2B C 0.23670(19) 0.1973(2) 0.45015(20)
N2B N 0.19397(15) 0.21748(18) 0.35026(17)
O2B O 0.29235(16) 0.16480(19) 0.54899(20)
C3B C 0.2503(2) 0.2007(2) 0.5218(3)
C4B C 0.1897(2) 0.2328(2) 0.4147(2)
H2B H 0.15960 0.26290 0.43300
O3B O 0.21668(15) 0.24317(18) 0.55496(18)
Zn1R Zn 0.64570(2) 0.25119(2) 0.22947(2)
Zn1T Zn 0.22947(2) 0.64570(2) 0.25119(2)
Zn1W Zn 0.25119(2) 0.22947(2) 0.64570(2)
O2P O 0.33520(16) 0.04899(19) 0.29235(20)
O2Q O 0.29235(16) 0.33520(19) 0.04899(20)
O2U O 0.04899(16) 0.29235(19) 0.3352(2)
O3P O 0.25683(15) 0.05496(18) 0.21668(18)
O3Q O 0.21668(15) 0.25683(18) 0.05496(18)
O3U O 0.05496(15) 0.21668(18) 0.25683(18)
#END
