
#######################################################################
#
#                 Cambridge Crystallographic Data Centre
#                                CCDC
#
#######################################################################
#
# If this CIF has been generated from an entry in the Cambridge
# Structural Database, then it will include bibliographic, chemical,
# crystal, experimental, refinement or atomic coordinate data resulting
# from the CCDC's data processing and validation procedures.
#
#######################################################################

data_CSD_CIF_YAVBOM
_audit_creation_date 1994-06-28
_audit_creation_method CSD-ConQuest-V1
_database_code_CSD YAVBOM
_database_code_depnum_ccdc_fiz 'CSD 400008'
_chemical_formula_sum 'C14 H21 Cs1 O14 Pr2'
_chemical_formula_moiety
;
(C14 H21 O14 Pr2 1-)n,n(Cs1 1+)
;
_journal_coden_Cambridge 644
_journal_volume 48
_journal_year 1993
_journal_page_first 886
_journal_name_full 'Z.Naturforsch.,B:Chem.Sci. '
loop_
_publ_author_name
"A.Lossin"
"G.Meyer"
_chemical_name_systematic
;
catena-(Cesium 
(tris(\m~2~-acetato-O,O,O')-tetrakis(\m~2~-acetato-O,O')-di-praseodymium))
;
_cell_volume   1140.097
_exptl_crystal_colour 'green'
_diffrn_ambient_temperature ?
_diffrn_special_details
;
The study was carried out at room temperature,in the range 283-303K

;
#These two values have been output from a single CSD field.
_refine_ls_R_factor_gt 0.027
_refine_ls_wR_factor_gt 0.027
_symmetry_cell_setting triclinic
_symmetry_space_group_name_H-M 'P -1'
_symmetry_Int_Tables_number 2
loop_
_symmetry_equiv_pos_site_id
_symmetry_equiv_pos_as_xyz
1 x,y,z
2 -x,-y,-z
_cell_length_a 10.281(5)
_cell_length_b 10.346(5)
_cell_length_c 11.994(6)
_cell_angle_alpha 84.82(2)
_cell_angle_beta 67.07(3)
_cell_angle_gamma 76.01(2)
_cell_formula_units_Z 2
loop_
_atom_type_symbol
_atom_type_radius_bond
C 0.68
Cs 1.67
O 0.68
Pr 1.82
loop_
_atom_site_label
_atom_site_type_symbol
_atom_site_fract_x
_atom_site_fract_y
_atom_site_fract_z
Pr1 Pr 0.43224 0.44812 0.68751
Pr2 Pr 0.39333 0.08846 0.86739
Cs1 Cs 0.10170 0.80293 0.90253
O1 O 0.64017 0.50468 0.49958
O2 O 0.19981 0.58568 0.67176
C1 C 0.76248 0.43394 0.43974
C2 C 0.86819 0.37464 0.49995
O3 O 0.52139 0.26647 0.82606
O4 O 0.61064 0.44380 0.78678
C3 C 0.58292 0.34374 0.85254
C4 C 0.61092 0.32053 0.96808
O5 O 0.25866 0.47649 0.90214
O6 O 0.22504 0.28102 0.99227
C5 C 0.20520 0.40509 0.99227
C6 C 0.10750 0.47866 1.11230
O7 O 0.58386 0.25536 0.56363
O8 O 0.55320 0.06089 0.65758
C7 C 0.60445 0.13223 0.56647
C8 C 0.70380 0.05793 0.44697
O9 O 0.29203 0.27177 0.73152
O10 O 0.16843 0.11833 0.81365
C9 C 0.18937 0.22025 0.74388
C10 C 0.09543 0.27340 0.67538
O11 O 0.37500 0.02066 1.09725
O12 O 0.19418 0.00453 1.05034
C11 C 0.24641 0.00743 1.12735
C12 C 0.15546 -0.00467 1.26022
O13 O 0.41740 0.67800 0.73153
O14 O 0.40689 -0.13439 0.81066
C13 C 0.47946 0.76200 0.74590
C14 C 0.6411(9) 0.7411(8) 0.6874(8)
Pr1A Pr 0.56776 0.55188 0.31249
O1A O 0.35983 0.49532 0.50042
C1A C 0.23752 0.56606 0.56026
O14* O 0.40689 0.86561 0.81066
Pr2* Pr 0.39333 1.08846 0.86739
O11A O 0.62500 -0.02066 0.90275
O2A O 0.80019 0.41432 0.32824
Pr2A Pr 0.60667 -0.08846 1.13261
#END
