
#######################################################################
#
#                 Cambridge Crystallographic Data Centre
#                                CCDC
#
#######################################################################
#
# If this CIF has been generated from an entry in the Cambridge
# Structural Database, then it will include bibliographic, chemical,
# crystal, experimental, refinement or atomic coordinate data resulting
# from the CCDC's data processing and validation procedures.
#
#######################################################################

data_CSD_CIF_YAVFUY
_audit_creation_date 2012-07-19
_audit_creation_method CSD-ConQuest-V1
_database_code_CSD YAVFUY
_database_code_depnum_ccdc_archive 'CCDC 877105'
_chemical_formula_sum 'C12 H15 Li3 N6 O11'
_chemical_formula_moiety
;
(C12 H8 Li3 N4 O10 1-)n,n(H5 N2 1+),n(H2 O1)
;
_journal_coeditor_code "IUCr KP2395"
_journal_coden_Cambridge 1370
_journal_volume 68
_journal_year 2012
_journal_page_first m496
_journal_name_full 'Acta Crystallogr.,Sect.E:Struct.Rep.Online '
loop_
_publ_author_name
"W.Starosta"
"J.Leciejewicz"
_chemical_name_systematic
;
catena-(hydrazin-1-ium 
bis(\m~4~-pyridazine-3,6-dicarboxylato)-diaqua-tri-lithium monohydrate)
;
_cell_volume    905.172
_exptl_crystal_colour 'colorless'
_exptl_crystal_density_diffrn 1.615
_exptl_crystal_description 'plate'
_diffrn_ambient_temperature 293
#These two values have been output from a single CSD field.
_refine_ls_R_factor_gt 0.0574
_refine_ls_wR_factor_gt 0.0574
_symmetry_cell_setting triclinic
_symmetry_space_group_name_H-M 'P -1'
_symmetry_Int_Tables_number 2
loop_
_symmetry_equiv_pos_site_id
_symmetry_equiv_pos_as_xyz
1 x,y,z
2 -x,-y,-z
_cell_length_a 5.215(1)
_cell_length_b 7.3356(15)
_cell_length_c 24.001(5)
_cell_angle_alpha 97.62(3)
_cell_angle_beta 90.62(3)
_cell_angle_gamma 95.77(3)
_cell_formula_units_Z 2
loop_
_atom_type_symbol
_atom_type_radius_bond
C 0.68
H 0.23
Li 1.28
N 0.68
O 0.68
loop_
_atom_site_label
_atom_site_type_symbol
_atom_site_fract_x
_atom_site_fract_y
_atom_site_fract_z
O1 O 0.5659(4) 0.6958(3) -0.10200(9)
O2 O 0.1688(4) 0.6942(3) 0.56969(10)
N1 N 0.7101(4) 0.8483(3) 0.00022(10)
O3 O 0.5736(4) 0.7887(3) 0.60076(9)
N2 N 0.7993(5) 0.8737(3) 0.44798(10)
O4 O 0.6818(5) 0.9204(3) 0.19576(9)
O5 O 0.1624(4) 0.6266(3) -0.07499(10)
N3 N 0.7115(5) 0.8489(3) 0.49847(10)
O6 O 0.9860(5) 1.0790(3) 0.15156(9)
C1 C 0.6641(5) 0.8841(4) 0.09640(12)
C2 C 0.4028(5) 0.7428(4) 0.56305(12)
N4 N 0.7999(5) 0.9209(3) 0.05164(10)
C3 C 0.7876(6) 0.9699(4) 0.15267(13)
C4 C 0.7881(6) 0.8250(4) 0.34710(12)
O7 O 0.9742(5) 0.9479(3) 0.34981(10)
C5 C 0.6660(6) 0.7916(4) 0.40213(12)
C6 C 0.3945(5) 0.6834(4) -0.06642(12)
C7 C 0.3368(6) 0.6633(4) 0.45630(12)
H1 H 0.17870 0.59620 0.46050
C8 C 0.4272(6) 0.7763(4) 0.09217(13)
H2 H 0.33700 0.75240 0.12410
C9 C 0.4807(5) 0.7464(4) -0.00552(12)
C10 C 0.3319(5) 0.7071(4) 0.03952(13)
H3 H 0.17320 0.63620 0.03420
C11 C 0.4859(5) 0.7499(4) 0.50274(12)
C12 C 0.4332(6) 0.6814(4) 0.40447(13)
H4 H 0.34680 0.62250 0.37190
Li1 Li 1.0824(10) 1.0999(8) 0.4223(2)
Li2 Li 1.0899(9) 1.1703(8) 0.0796(2)
Li3 Li 0.7103(10) 0.6895(7) 0.2248(2)
N5 N 0.4289(6) 0.1897(5) 0.27436(13)
N6 N 0.1607(6) 0.1293(5) 0.26487(13)
O8 O 0.4489(5) 0.4788(4) 0.20777(11)
H5 H 0.449(10) 0.404(7) 0.230(2)
H6 H 0.449(9) 0.426(7) 0.170(2)
O9 O 0.9495(6) 0.4090(4) 0.32720(12)
H7 H 0.912(10) 0.399(8) 0.3605(11)
H8 H 0.852(9) 0.474(7) 0.3144(19)
O10 O 0.9871(5) 0.5947(4) 0.18013(13)
O11 O 0.6997(5) 0.7239(4) 0.30427(10)
H9 H 0.977(14) 0.524(8) 0.1501(17)
H10 H 1.112(9) 0.559(8) 0.195(3)
H11 H 0.451(11) 0.188(7) 0.3107(9)
H12 H 0.138(13) 0.029(6) 0.283(2)
H13 H 0.497(9) 0.104(5) 0.2505(18)
H14 H 0.066(12) 0.221(7) 0.280(3)
H15 H 0.124(12) 0.102(8) 0.2283(10)
O1A O 1.4341(4) 1.3042(3) 0.10200(9)
O2A O 0.8312(4) 1.3058(3) 0.43031(10)
N1A N 1.2899(4) 1.1517(3) -0.00022(10)
O3A O 1.4264(4) 1.2113(3) 0.39924(9)
O5A O 0.8376(4) 1.3734(3) 0.07499(10)
N3A N 1.2885(5) 1.1511(3) 0.50153(10)
Li1A Li -0.0824(10) 0.9001(8) 0.5777(2)
Li1A* Li 0.9176(10) 0.9001(8) 0.5777(2)
Li2A Li 0.9101(9) 0.8297(8) -0.0796(2)
Li2A* Li -0.0899(9) 0.8297(8) -0.0796(2)
#END
