
#######################################################################
#
#                 Cambridge Crystallographic Data Centre
#                                CCDC
#
#######################################################################
#
# If this CIF has been generated from an entry in the Cambridge
# Structural Database, then it will include bibliographic, chemical,
# crystal, experimental, refinement or atomic coordinate data resulting
# from the CCDC's data processing and validation procedures.
#
#######################################################################

data_CSD_CIF_YAVWUQ
_audit_creation_date 2017-05-11
_audit_creation_method CSD-ConQuest-V1
_database_code_CSD YAVWUQ
_database_code_depnum_ccdc_archive 'CCDC 1542148'
_chemical_formula_sum 'C117 H178 Cu6 N30 O50'
_chemical_formula_moiety
;
(C55 H30 Cu6 N9 O30 1-)n,n(C2 H8 N1 1+),20n(C3 H7 N1 O1)
;
_journal_coden_Cambridge 1350
_journal_volume 19
_journal_year 2017
_journal_page_first 2795
_journal_name_full 'CrystEngComm '
loop_
_publ_author_name
"Zhen Liu"
"Lingzhi Lv"
"Yabing He"
"Yunlong Feng"
_chemical_name_systematic
;
catena-[dimethylammonium 
(\m-formato)-tris(\m-5,5'-(4H-1,2,4-triazole-3,5-diyl)bis(benzene-1,3-dicarbox
ylato))-tetraaqua-hexa-copper N,N-dimethylformamide solvate]
;
_cell_volume  28532.078
_exptl_crystal_colour 'blue'
_exptl_crystal_density_diffrn 1.483
_exptl_crystal_description 'block'
_diffrn_ambient_temperature 296
_refine_special_details
;
Disordered dimethylammonium ions and N,N-dimethylformamide solvent molecules 
were not modelled and the disordered density was taken into account using the 
SQUEEZE/PLATON procedure.
;
#These two values have been output from a single CSD field.
_refine_ls_R_factor_gt 0.0576
_refine_ls_wR_factor_gt 0.0576
_symmetry_cell_setting tetragonal
_symmetry_space_group_name_H-M 'P 4/m n c'
_symmetry_Int_Tables_number 128
loop_
_symmetry_equiv_pos_site_id
_symmetry_equiv_pos_as_xyz
1 x,y,z
2 -y,x,z
3 -x,-y,z
4 y,-x,z
5 1/2+x,1/2-y,1/2-z
6 1/2+y,1/2+x,1/2-z
7 1/2-x,1/2+y,1/2-z
8 1/2-y,1/2-x,1/2-z
9 -x,-y,-z
10 y,-x,-z
11 x,y,-z
12 -y,x,-z
13 -1/2-x,-1/2+y,-1/2+z
14 -1/2-y,-1/2-x,-1/2+z
15 -1/2+x,-1/2-y,-1/2+z
16 -1/2+y,-1/2+x,-1/2+z
_cell_length_a 26.9768(15)
_cell_length_b 26.9768(15)
_cell_length_c 39.206(3)
_cell_angle_alpha 90
_cell_angle_beta 90
_cell_angle_gamma 90
_cell_formula_units_Z 8
loop_
_atom_type_symbol
_atom_type_radius_bond
C 0.68
H 0.23
Cu 1.32
N 0.68
O 0.68
loop_
_atom_site_label
_atom_site_type_symbol
_atom_site_fract_x
_atom_site_fract_y
_atom_site_fract_z
Cu1 Cu 0.126502(15) 0.247486(15) 0.302124(11)
Cu2 Cu 0.093322(15) 0.184066(15) 0.349255(11)
Cu3 Cu -0.08516(2) 0.27342(2) 0.50000
Cu4 Cu -0.11560(2) 0.36735(2) 0.50000
O1 O 0.15024(10) 0.18552(9) 0.28192(7)
O2 O 0.12634(10) 0.13275(9) 0.32270(6)
O3 O 0.18193(11) -0.03740(9) 0.31755(7)
O4 O 0.23647(10) -0.06240(9) 0.27835(7)
O5 O 0.33932(11) 0.1550(1) 0.03562(7)
O6 O 0.36412(10) 0.2337(1) 0.03596(6)
O7 O 0.30528(10) 0.34418(9) 0.12699(6)
O8 O 0.25408(10) 0.31516(9) 0.16705(7)
O9 O 0.06595(11) 0.24426(9) 0.36913(7)
O10 O 0.09383(10) 0.29808(9) 0.33050(7)
O11 O -0.03946(10) 0.29626(10) 0.46388(7)
O12 O -0.06528(11) 0.37521(10) 0.46488(7)
O13 O 0.15405(11) 0.30083(10) 0.26708(7)
O14 O 0.05317(16) 0.14002(12) 0.38670(8)
H1 H 0.04380 0.15850 0.40310
H2 H 0.02760 0.12710 0.37760
O15 O -0.0625(2) 0.19652(16) 0.50000
H3 H -0.04610 0.19100 0.51810
O16 O -0.1392(2) 0.44277(18) 0.50000
H4 H -0.13290 0.45760 0.51860
N1 N 0.24022(15) 0.13246(12) 0.18195(9)
H5 H 0.23380 0.15920 0.19300
N2 N 0.2476(2) 0.05491(15) 0.16841(12)
N3 N 0.2637(2) 0.08202(15) 0.14134(12)
N4 N 0.00000 0.50000 0.38541(12)
H6 H 0.00000 0.50000 0.40730
N5 N 0.0041(2) 0.47471(13) 0.33285(9)
C1 C 0.17200(14) 0.10209(13) 0.27623(10)
C2 C 0.17558(15) 0.05541(14) 0.29058(10)
H7 H 0.16150 0.04920 0.31180
C3 C 0.20049(15) 0.01748(13) 0.27314(10)
C4 C 0.21537(18) 0.07353(14) 0.22646(10)
C5 C 0.19232(17) 0.11043(15) 0.24435(11)
H8 H 0.19030 0.14190 0.23480
C6 C 0.22013(17) 0.02635(15) 0.24136(10)
H9 H 0.23650 0.00120 0.22970
C7 C 0.2340(2) 0.08637(15) 0.19265(12)
C8 C 0.2583(2) 0.12907(16) 0.15075(12)
C9 C 0.31181(15) 0.20639(15) 0.07987(10)
C10 C 0.30659(14) 0.25359(14) 0.09344(9)
H10 H 0.31860 0.28090 0.08150
C11 C 0.28330(15) 0.26018(13) 0.12500(9)
C12 C 0.26675(17) 0.21878(14) 0.14286(10)
H11 H 0.25130 0.22310 0.16390
C13 C 0.27282(19) 0.17157(15) 0.13008(11)
C14 C 0.29476(18) 0.16513(16) 0.09807(11)
H12 H 0.29800 0.13350 0.08890
C15 C 0.14714(14) 0.14310(14) 0.29538(10)
C16 C 0.20709(15) -0.03169(13) 0.29096(10)
C17 C 0.34058(15) 0.19794(14) 0.04762(9)
C18 C 0.28031(14) 0.31039(13) 0.14096(10)
C19 C 0.04130(14) 0.32673(13) 0.37456(10)
C20 C 0.01666(14) 0.31556(14) 0.40464(10)
H13 H 0.01860 0.28370 0.41360
C21 C -0.01109(15) 0.35167(15) 0.42174(10)
C22 C -0.01290(16) 0.39920(15) 0.40812(10)
H14 H -0.03020 0.42400 0.41960
C23 C 0.01052(16) 0.41000(14) 0.37789(11)
C24 C 0.03807(15) 0.37447(14) 0.36088(10)
H15 H 0.05420 0.38230 0.34060
C25 C 0.00581(17) 0.46130(15) 0.36492(10)
C26 C 0.06946(14) 0.28683(14) 0.35636(10)
C27 C -0.04032(15) 0.33945(15) 0.45278(10)
C28 C 0.18927(16) 0.31073(16) 0.25000
H16 H 0.21360 0.28640 0.25000
O9B O -0.06595(11) 0.75574(9) 0.36913(7)
O10B O -0.09383(10) 0.70192(9) 0.33050(7)
O11B O 0.03946(10) 0.70374(10) 0.46388(7)
O12B O 0.06528(11) 0.62479(10) 0.46488(7)
N5B N -0.0041(2) 0.52529(13) 0.33285(9)
C19B C -0.04130(14) 0.67327(13) 0.37456(10)
C20B C -0.01666(14) 0.68444(14) 0.40464(10)
H13B H -0.01860 0.71630 0.41360
C21B C 0.01109(15) 0.64833(15) 0.42174(10)
C22B C 0.01290(16) 0.60080(15) 0.40812(10)
H14B H 0.03020 0.57600 0.41960
C23B C -0.01052(16) 0.59000(14) 0.37789(11)
C24B C -0.03807(15) 0.62553(14) 0.36088(10)
H15B H -0.05420 0.61770 0.34060
C25B C -0.00581(17) 0.53870(15) 0.36492(10)
C26B C -0.06946(14) 0.71317(14) 0.35636(10)
C27B C 0.04032(15) 0.66055(15) 0.45278(10)
O13G O 0.19917(11) 0.34595(10) 0.23292(7)
H3J H -0.04610 0.19100 0.48190
H4J H -0.13290 0.45760 0.48140
Cu1A Cu -0.247486(15) 0.126502(15) 0.302124(11)
Cu2A Cu -0.184066(15) 0.093322(15) 0.349255(11)
O1A O -0.18552(10) 0.15024(9) 0.28192(7)
O2A O -0.13275(10) 0.12634(9) 0.32270(6)
O3A O 0.03740(11) 0.18193(9) 0.31755(7)
O4A O 0.0624(1) 0.23647(9) 0.27835(7)
O5A O -0.15500(11) 0.33932(10) 0.03562(7)
O6A O -0.2337(1) 0.36412(10) 0.03596(6)
O7A O -0.34418(10) 0.30528(9) 0.12699(6)
O8A O -0.31516(10) 0.25408(9) 0.16705(7)
O14A O -0.14002(16) 0.05317(12) 0.38670(8)
H1A H -0.15850 0.04380 0.40310
H2A H -0.12710 0.02760 0.37760
N1A N -0.13246(15) 0.24022(12) 0.18195(9)
H5A H -0.15920 0.23380 0.19300
N2A N -0.05491(20) 0.24760(15) 0.16841(12)
N3A N -0.08202(20) 0.26370(15) 0.14134(12)
C1A C -0.10209(14) 0.17200(13) 0.27623(10)
C2A C -0.05541(15) 0.17558(14) 0.29058(10)
H7A H -0.04920 0.16150 0.31180
C3A C -0.01748(15) 0.20049(13) 0.27314(10)
C4A C -0.07353(18) 0.21537(14) 0.22646(10)
C5A C -0.11043(17) 0.19232(15) 0.24435(11)
H8A H -0.14190 0.19030 0.23480
C6A C -0.02635(17) 0.22013(15) 0.24136(10)
H9A H -0.00120 0.23650 0.22970
C7A C -0.08637(20) 0.23400(15) 0.19265(12)
C8A C -0.12907(20) 0.25830(16) 0.15075(12)
C9A C -0.20639(15) 0.31181(15) 0.07987(10)
C10A C -0.25359(14) 0.30659(14) 0.09344(9)
H10A H -0.28090 0.31860 0.08150
C11A C -0.26018(15) 0.28330(13) 0.12500(9)
C12A C -0.21878(17) 0.26675(14) 0.14286(10)
H11A H -0.22310 0.25130 0.16390
C13A C -0.17157(19) 0.27282(15) 0.13008(11)
C14A C -0.16513(18) 0.29476(16) 0.09807(11)
H12A H -0.13350 0.29800 0.08890
C15A C -0.14310(14) 0.14714(14) 0.29538(10)
C16A C 0.03169(15) 0.20709(13) 0.29096(10)
C17A C -0.19794(15) 0.34058(14) 0.04762(9)
C18A C -0.31039(14) 0.28031(13) 0.14096(10)
Cu1B Cu -0.126502(15) 0.752514(15) 0.302124(11)
Cu1C Cu 0.247486(15) -0.126502(15) 0.302124(11)
Cu1D Cu -0.373498(15) 0.252514(15) 0.197876(11)
Cu1G Cu 0.252514(15) 0.373498(15) 0.197876(11)
Cu2B Cu -0.093322(15) 0.815934(15) 0.349255(11)
Cu2C Cu 0.184066(15) -0.093322(15) 0.349255(11)
Cu2D Cu -0.406678(15) 0.315934(15) 0.150745(11)
Cu2G Cu 0.315934(15) 0.406678(15) 0.150745(11)
Cu3B Cu 0.08516(2) 0.72658(2) 0.50000
Cu3D Cu 0.41484(2) 0.22658(2) 0.00000
Cu3E Cu -0.22658(2) 0.41484(2) 0.00000
Cu4B Cu 0.11560(2) 0.63265(2) 0.50000
Cu4D Cu 0.38440(2) 0.13265(2) 0.00000
Cu4E Cu -0.13265(2) 0.38440(2) 0.00000
O3B O -0.18193(11) 0.03740(9) 0.31755(7)
O4B O -0.23647(10) 0.06240(9) 0.27835(7)
O5D O -0.16068(11) 0.3450(1) 0.46438(7)
O5N O -0.16068(11) 0.3450(1) 0.53562(7)
O6D O -0.13588(10) 0.2663(1) 0.46404(6)
O6N O -0.13588(10) 0.2663(1) 0.53596(6)
O7D O -0.19472(10) 0.15582(9) 0.37301(6)
O7G O 0.15582(10) 0.19472(9) 0.37301(6)
O8D O -0.24592(10) 0.18484(9) 0.33295(7)
O8G O 0.18484(10) 0.24592(9) 0.33295(7)
O9A O -0.24426(11) 0.06595(9) 0.36913(7)
O10A O -0.29808(10) 0.09383(9) 0.33050(7)
O11J O -0.03946(10) 0.29626(10) 0.53612(7)
O12J O -0.06528(11) 0.37521(10) 0.53512(7)
O13A O -0.30083(11) 0.15405(10) 0.26708(7)
#END
