
#######################################################################
#
#                 Cambridge Crystallographic Data Centre
#                                CCDC
#
#######################################################################
#
# If this CIF has been generated from an entry in the Cambridge
# Structural Database, then it will include bibliographic, chemical,
# crystal, experimental, refinement or atomic coordinate data resulting
# from the CCDC's data processing and validation procedures.
#
#######################################################################

data_CSD_CIF_YAWFOS
_audit_creation_date 2006-01-19
_audit_creation_method CSD-ConQuest-V1
_database_code_CSD YAWFOS
_database_code_depnum_ccdc_archive 'CCDC 269970'
_chemical_formula_sum 'C44 H35 Cd6 N19'
_chemical_formula_moiety
;
(C12 H14 N2 2+)n,n(C20 H7 Cd6 N15 2-),2n(C6 H7 N1)
;
_journal_coden_Cambridge 222
_journal_year 2005
_journal_page_first 3056
_journal_name_full 'Dalton Trans. '
loop_
_publ_author_name
"H.Yoshikawa"
"S.Nishikiori"
_chemical_name_systematic
;
catena-[tetradecakis(\m~2~-Cyano)-anilino-hexa-cadmium(ii) methylviologen 
bis(aniline) clathrate]
;
_cell_volume   5415.013
_exptl_crystal_colour 'orange'
_exptl_crystal_density_diffrn 1.845
_exptl_crystal_description 'plate'
_diffrn_ambient_temperature 113.15
#These two values have been output from a single CSD field.
_refine_ls_R_factor_gt 0.0918
_refine_ls_wR_factor_gt 0.0918
_symmetry_cell_setting monoclinic
_symmetry_space_group_name_H-M 'P 21/c'
_symmetry_Int_Tables_number 14
loop_
_symmetry_equiv_pos_site_id
_symmetry_equiv_pos_as_xyz
1 x,y,z
2 -x,1/2+y,1/2-z
3 -x,-y,-z
4 x,-1/2-y,-1/2+z
_cell_length_a 8.8965(10)
_cell_length_b 11.7193(14)
_cell_length_c 52.414(6)
_cell_angle_alpha 90
_cell_angle_beta 97.734(5)
_cell_angle_gamma 90
_cell_formula_units_Z 4
loop_
_atom_type_symbol
_atom_type_radius_bond
C 0.68
H 0.23
Cd 1.69
N 0.68
loop_
_atom_site_label
_atom_site_type_symbol
_atom_site_fract_x
_atom_site_fract_y
_atom_site_fract_z
Cd1 Cd 0.32424(10) 0.11561(8) 0.069171(18)
Cd2 Cd 0.36123(11) 0.15717(8) 0.179368(18)
Cd3 Cd -0.11339(11) 0.44135(8) 0.183230(19)
Cd4 Cd 0.83484(11) 0.41036(8) 0.072676(19)
Cd5 Cd -0.12490(11) -0.09623(8) 0.210590(19)
Cd6 Cd -0.21714(11) -0.13440(8) 0.038950(18)
C1 C 0.3469(14) 0.1238(10) 0.1356(2)
N1 N 0.3402(15) 0.116(1) 0.1140(3)
C2 C 0.6408(17) 0.2926(12) 0.0686(3)
N2 N 0.5361(12) 0.2323(9) 0.0698(2)
C3 C -0.0048(16) -0.0477(12) 0.0548(3)
N3 N 0.1044(14) -0.0022(10) 0.0629(2)
C4 C 0.2705(15) 0.1312(12) 0.0031(3)
N4 N 0.2958(14) 0.1265(11) 0.0253(2)
C5 C 0.5904(16) -0.0785(12) 0.0590(3)
N5 N 0.4881(14) -0.0413(10) 0.0675(2)
C6 C 0.0524(19) 0.3277(12) 0.0684(3)
N6 N 0.1599(13) 0.2769(10) 0.0676(2)
C7 C 0.1052(17) 0.3740(12) 0.1746(3)
N7 N 0.2131(14) 0.3245(10) 0.1710(2)
C8 C 0.0436(17) 0.0015(12) 0.1912(3)
N8 N 0.1406(14) 0.0538(10) 0.1844(2)
C9 C 0.6412(18) -0.0286(12) 0.2013(3)
N9 N 0.5283(14) 0.013(1) 0.1940(2)
C10 C 0.6878(16) 0.3317(12) 0.1803(3)
N10 N 0.5783(14) 0.2716(11) 0.1783(2)
C11 C 0.8358(15) 0.4530(11) 0.1145(3)
N11 N 0.8253(13) 0.4664(10) 0.1361(2)
C12 C -0.1263(17) 0.6267(11) 0.1910(3)
N12 N -0.1277(15) 0.7218(12) 0.1963(2)
C13 C 0.0269(16) 0.3977(13) 0.2489(3)
N13 N -0.0372(16) 0.4036(12) 0.2280(3)
C14 C 0.8144(15) 0.5811(11) 0.0543(3)
N14 N 0.8099(13) 0.6779(10) 0.0488(2)
N15 N 0.4667(14) 0.5210(9) 0.1195(2)
C15 C 0.4955(15) 0.5732(12) 0.1427(3)
H1 H 0.46670 0.53780 0.15720
C16 C 0.5669(16) 0.6781(12) 0.1453(3)
H2 H 0.57950 0.71610 0.16100
C17 C 0.6199(15) 0.7260(11) 0.1238(3)
C18 C 0.5863(15) 0.6707(11) 0.1003(3)
H3 H 0.61440 0.70330 0.08540
C19 C 0.5112(14) 0.5672(11) 0.0989(2)
H4 H 0.49170 0.52970 0.08320
N16 N 0.8465(12) 1.0456(9) 0.1276(2)
C20 C 0.7216(16) 1.0339(12) 0.1390(3)
H5 H 0.68590 1.09560 0.14760
C21 C 0.6457(15) 0.9314(11) 0.1381(3)
H6 H 0.55750 0.92390 0.14570
C22 C 0.7028(15) 0.8389(12) 0.1257(3)
C23 C 0.8313(16) 0.8508(12) 0.1141(3)
H7 H 0.86760 0.79000 0.10530
C24 C 0.9083(16) 0.9582(12) 0.1158(3)
H8 H 0.99850 0.96770 0.10890
C25 C 0.3928(17) 0.4074(12) 0.1183(3)
H9 H 0.34140 0.39450 0.10130
H10 H 0.32090 0.40470 0.13040
H11 H 0.46830 0.34940 0.12250
C26 C 0.9237(18) 1.1601(13) 0.1280(3)
H12 H 0.85550 1.21810 0.13240
H13 H 0.95200 1.17590 0.11140
H14 H 1.01280 1.15920 0.14060
N17 N 0.2341(15) 0.7201(11) 0.0745(2)
H15 H 0.20740 0.65880 0.06600
H16 H 0.27710 0.77460 0.06720
C27 C 0.2076(15) 0.7313(11) 0.1002(3)
C28 C 0.1391(16) 0.6461(12) 0.1126(3)
H17 H 0.10520 0.58070 0.10360
C29 C 0.1197(17) 0.6557(13) 0.1383(3)
H18 H 0.06790 0.59870 0.14580
C30 C 0.1754(17) 0.7480(13) 0.1529(3)
H19 H 0.16720 0.75190 0.17040
C31 C 0.2445(16) 0.8353(12) 0.1406(3)
H20 H 0.28030 0.89950 0.15000
C32 C 0.2609(16) 0.8280(11) 0.1145(3)
H21 H 0.30700 0.88710 0.10650
N18 N 0.3541(15) 0.2295(12) 0.2225(3)
H22 H 0.26420 0.20300 0.21820
H23 H 0.38670 0.28460 0.21390
C33 C 0.4507(17) 0.1814(14) 0.2444(3)
C34 C 0.398(2) 0.0937(15) 0.2580(3)
H24 H 0.29910 0.06730 0.25410
C35 C 0.500(3) 0.0436(17) 0.2786(4)
H25 H 0.46500 -0.01270 0.28880
C36 C 0.651(3) 0.0796(18) 0.2831(4)
H26 H 0.71860 0.04540 0.29580
C37 C 0.695(3) 0.164(2) 0.2686(4)
H27 H 0.79500 0.19020 0.27210
C38 C 0.600(2) 0.2146(16) 0.2491(4)
H28 H 0.63630 0.27090 0.23900
N19 N 0.3863(16) 0.4694(13) 0.0369(3)
H29 H 0.33170 0.41890 0.04320
H30 H 0.48360 0.46360 0.03930
C39 C 0.3179(17) 0.5597(13) 0.0230(3)
C40 C 0.405(2) 0.6431(17) 0.0127(4)
H31 H 0.51040 0.63680 0.01540
C41 C 0.341(2) 0.7346(17) -0.0015(3)
H32 H 0.40070 0.78600 -0.00910
C42 C 0.1832(19) 0.7482(14) -0.0041(3)
H33 H 0.13910 0.81310 -0.01220
C43 C 0.0933(17) 0.6670(15) 0.0050(3)
H34 H -0.01170 0.67410 0.00220
C44 C 0.1618(19) 0.5717(13) 0.0188(3)
H35 H 0.10090 0.51680 0.02510
Cd3* Cd 0.88661(11) 0.44135(8) 0.183230(19)
Cd4* Cd -0.16516(11) 0.41036(8) 0.072676(19)
Cd5* Cd 0.87510(11) -0.09623(8) 0.210590(19)
Cd5** Cd -0.12490(11) 0.90377(8) 0.210590(19)
Cd5A Cd 0.12490(11) 0.40377(8) 0.289410(19)
Cd6B Cd 0.21714(11) 0.13440(8) -0.038950(18)
Cd6* Cd 0.78286(11) -0.13440(8) 0.038950(18)
Cd6** Cd 0.78286(11) 0.86560(8) 0.038950(18)
C4B C -0.2705(15) -0.1312(12) -0.0031(3)
C5* C -0.4096(16) -0.0785(12) 0.0590(3)
C6* C 1.0524(19) 0.3277(12) 0.0684(3)
C9* C -0.3588(18) -0.0286(12) 0.2013(3)
C10* C -0.3122(16) 0.3317(12) 0.1803(3)
N11* N -0.1747(13) 0.4664(10) 0.1361(2)
N12* N -0.1277(15) -0.2782(12) 0.1963(2)
C13A C -0.0269(16) -0.1023(13) 0.2511(3)
N14* N -0.1901(13) -0.3221(10) 0.0488(2)
#END
