
#######################################################################
#
#                 Cambridge Crystallographic Data Centre
#                                CCDC
#
#######################################################################
#
# If this CIF has been generated from an entry in the Cambridge
# Structural Database, then it will include bibliographic, chemical,
# crystal, experimental, refinement or atomic coordinate data resulting
# from the CCDC's data processing and validation procedures.
#
#######################################################################

data_CSD_CIF_YAXYAA
_audit_creation_date 2017-05-11
_audit_creation_method CSD-ConQuest-V1
_database_code_CSD YAXYAA
_database_code_depnum_ccdc_archive 'CCDC 1435424'
_chemical_formula_sum 'C30 H112 Cu8 N20 O72 P2 W18'
_chemical_formula_moiety
;
(C24 H84 Cu7 N16 O68 P2 W18 2-)n,C6 H20 Cu1 N4 2+,4(H2 O1)
;
_journal_coden_Cambridge 1133
_journal_volume 28
_journal_year 2017
_journal_page_first 1761
_journal_name_full 'J.Cluster Sci. '
loop_
_publ_author_name
"Rong Wan"
"Pengtao Ma"
"Feng Hu"
"Dongdi Zhang"
"Chao Zhang"
"Jingyang Niu"
"Jingping Wang"
_chemical_name_systematic
;
catena-[bis(1,3-diaminopropane)-copper 
bis(\m-phosphato)-tetracontakis(\m-oxo)-tetrakis(1-amino-3-ammoniopropane)-tet
rakis(1,3-diaminopropane)-icosa-oxo-hepta-copper-octadeca-tungsten 
tetrahydrate]
;
_cell_volume   2658.463
_exptl_crystal_colour 'black green'
_exptl_crystal_density_diffrn 3.613
_exptl_crystal_description 'block'
_diffrn_ambient_temperature 296
#These two values have been output from a single CSD field.
_refine_ls_R_factor_gt 0.0462
_refine_ls_wR_factor_gt 0.0462
_symmetry_cell_setting triclinic
_symmetry_space_group_name_H-M 'P -1'
_symmetry_Int_Tables_number 2
loop_
_symmetry_equiv_pos_site_id
_symmetry_equiv_pos_as_xyz
1 x,y,z
2 -x,-y,-z
_cell_length_a 11.9415(8)
_cell_length_b 13.7404(10)
_cell_length_c 17.7185(12)
_cell_angle_alpha 90.518(1)
_cell_angle_beta 93.628(1)
_cell_angle_gamma 113.523(1)
_cell_formula_units_Z 1
loop_
_atom_type_symbol
_atom_type_radius_bond
C 0.68
H 0.23
Cu 1.32
N 0.68
O 0.68
P 1.05
W 1.62
loop_
_atom_site_label
_atom_site_type_symbol
_atom_site_fract_x
_atom_site_fract_y
_atom_site_fract_z
W1 W 1.09537(5) 0.51838(4) 0.67881(3)
W2 W 1.29446(5) 0.73950(5) 0.59318(3)
W3 W 1.26584(5) 1.00268(4) 0.60743(3)
W4 W 1.03514(5) 1.02073(4) 0.70230(3)
W5 W 0.80605(5) 0.77577(5) 0.79087(3)
W6 W 0.83544(5) 0.53637(5) 0.78434(3)
W7 W 1.17605(5) 0.67485(4) 0.86647(3)
W8 W 1.37732(5) 0.89948(4) 0.78070(3)
W9 W 1.14736(5) 0.92106(4) 0.87954(3)
P1 P 1.0648(3) 0.7704(3) 0.70252(18)
Cu1 Cu 0.99539(15) 0.61288(14) 0.52377(10)
Cu2 Cu 1.00000 1.00000 0.50000
Cu3 Cu 0.9596(2) 0.71629(19) 0.94632(12)
Cu4 Cu 0.5893(3) 0.3168(3) 0.68263(17)
O1 O 1.1088(10) 0.3977(9) 0.6939(6)
O2 O 1.2599(8) 0.6046(7) 0.6419(5)
O3 O 0.9477(9) 0.4982(7) 0.7277(5)
O4 O 1.1773(8) 0.5965(7) 0.7808(5)
O5 O 1.0226(8) 0.4970(8) 0.5817(5)
O6 O 1.1022(8) 0.6955(7) 0.6535(5)
O7 O 1.4323(9) 0.7566(8) 0.5545(6)
O8 O 1.2918(8) 0.8785(7) 0.5794(5)
O9 O 1.3657(9) 0.8043(7) 0.6989(5)
O10 O 1.1807(9) 0.6802(8) 0.5129(5)
O11 O 1.3928(10) 1.1052(8) 0.5743(6)
O12 O 1.2001(9) 1.0874(8) 0.6670(5)
O13 O 1.3463(9) 0.9894(7) 0.7116(5)
O14 O 1.1508(9) 0.9840(8) 0.5275(5)
O15 O 1.0834(8) 0.8743(8) 0.6619(5)
O16 O 1.0148(10) 1.1313(8) 0.7336(6)
O17 O 0.8978(9) 0.9084(8) 0.7447(5)
O18 O 1.1266(9) 1.0037(8) 0.8019(5)
O19 O 0.9610(9) 1.0001(8) 0.6050(5)
O20 O 0.7266(10) 0.8136(9) 0.8580(6)
O21 O 0.7823(9) 0.6384(8) 0.8343(5)
O22 O 0.6936(9) 0.7280(8) 0.7125(6)
O23 O 0.9740(8) 0.8277(7) 0.8676(5)
O24 O 0.9309(8) 0.7108(7) 0.7237(5)
O25 O 0.7775(10) 0.4300(8) 0.8466(6)
O26 O 0.7184(12) 0.4942(11) 0.7074(7)
O27 O 1.0011(9) 0.6185(8) 0.8573(6)
O28 O 1.2032(9) 0.6014(8) 0.9406(6)
O29 O 1.3442(8) 0.7766(7) 0.8508(5)
O30 O 1.1629(8) 0.7923(7) 0.9285(5)
O31 O 1.1565(8) 0.8029(7) 0.7781(5)
O32 O 1.5347(9) 0.9611(8) 0.8017(6)
O33 O 1.3225(8) 0.9615(8) 0.8636(5)
O34 O 1.1590(9) 0.9952(8) 0.9627(5)
N1 N 0.9741(12) 0.731(1) 0.4684(8)
H1 H 1.03720 0.79180 0.48400
H2 H 0.98100 0.72060 0.41900
N2 N 0.8159(11) 0.5364(9) 0.5494(7)
H3 H 0.78890 0.47110 0.52710
H4 H 0.81830 0.52710 0.59960
N3 N 0.8450(14) 0.7568(13) 1.0036(7)
H5 H 0.84300 0.81590 0.98320
H6 H 0.76970 0.70500 0.99440
N4 N 0.9819(13) 0.6226(11) 1.0277(8)
H7 H 0.91740 0.55950 1.02300
H8 H 1.04910 0.61080 1.01930
N5 N 0.4524(12) 0.6515(10) 0.7652(7)
H9 H 0.45620 0.70010 0.79990
H10 H 0.38990 0.64070 0.73130
H11 H 0.52190 0.67410 0.74200
N6 N 0.4276(17) 0.2905(16) 0.7217(13)
H12 H 0.37480 0.28670 0.68210
H13 H 0.39990 0.22660 0.74290
N7 N 0.6908(12) -0.1049(11) 0.5979(7)
H14 H 0.68000 -0.16550 0.62010
H15 H 0.76730 -0.07440 0.58430
H16 H 0.63890 -0.11820 0.55700
N8 N 0.679(2) 0.2502(15) 0.6356(11)
H17 H 0.64530 0.22960 0.58820
H18 H 0.75570 0.29900 0.63180
C1 C 0.8583(18) 0.7481(16) 0.4747(12)
H19 H 0.87120 0.79470 0.51880
H20 H 0.84910 0.78690 0.43100
C2 C 0.747(2) 0.663(2) 0.4801(19)
H21 H 0.72580 0.62880 0.43000
H22 H 0.68880 0.69380 0.48790
C3 C 0.7178(18) 0.5747(18) 0.5328(14)
H23 H 0.64530 0.51560 0.51170
H24 H 0.69770 0.59770 0.58010
C4 C 0.867(2) 0.7774(16) 1.0894(10)
H25 H 0.79800 0.78680 1.10900
H26 H 0.93970 0.84200 1.10080
C5 C 0.8845(16) 0.6811(15) 1.1284(9)
H27 H 0.89030 0.69270 1.18280
H28 H 0.81230 0.61690 1.11520
C6 C 0.9946(19) 0.6642(15) 1.1072(11)
H29 H 1.00820 0.61450 1.14120
H30 H 1.06570 0.73110 1.11340
C7 C 0.4345(18) 0.5500(17) 0.8025(12)
H31 H 0.35790 0.52370 0.82680
H32 H 0.50070 0.56150 0.84080
C8 C 0.4323(18) 0.4663(15) 0.7395(11)
H33 H 0.36220 0.45060 0.70340
H34 H 0.50610 0.49510 0.71240
C9 C 0.425(3) 0.369(2) 0.7770(18)
H35 H 0.49310 0.38560 0.81470
H36 H 0.34960 0.33910 0.80260
C10 C 0.6681(18) -0.0342(16) 0.6503(11)
H37 H 0.72250 -0.02260 0.69560
H38 H 0.58470 -0.06810 0.66480
C11 C 0.687(2) 0.0712(16) 0.6178(11)
H39 H 0.62260 0.05990 0.57820
H40 H 0.76410 0.09780 0.59430
C12 C 0.688(3) 0.156(2) 0.6730(13)
H41 H 0.61920 0.12580 0.70440
H42 H 0.76230 0.18020 0.70590
Cu5 Cu 0.50000 0.00000 1.00000
N9 N 0.4380(14) 0.1125(11) 1.0279(8)
H43 H 0.35870 0.07780 1.03700
H44 H 0.47800 0.14310 1.07230
N10 N 0.6383(12) 0.1103(10) 0.9433(7)
H45 H 0.69950 0.14730 0.97800
H46 H 0.66730 0.07440 0.91300
C13 C 0.445(2) 0.2011(17) 0.9769(13)
H47 H 0.37640 0.17370 0.93890
H48 H 0.43380 0.25570 1.00680
C14 C 0.556(2) 0.2508(16) 0.9383(14)
H49 H 0.61900 0.29430 0.97610
H50 H 0.54210 0.29920 0.90310
C15 C 0.6100(19) 0.1896(16) 0.8958(11)
H51 H 0.68490 0.23850 0.87590
H52 H 0.55360 0.15210 0.85320
O35 O 0.826(2) 0.0599(17) 0.8593(16)
O36 O 0.624(2) 0.5295(17) 0.9805(13)
W1A W 0.90463(5) 0.48162(4) 0.32119(3)
W2A W 0.70554(5) 0.26050(5) 0.40682(3)
W3A W 0.73416(5) -0.00268(4) 0.39257(3)
W4A W 0.96486(5) -0.02073(4) 0.29770(3)
W5A W 1.19395(5) 0.22423(5) 0.20913(3)
W6A W 1.16456(5) 0.46363(5) 0.21566(3)
W7A W 0.82395(5) 0.32515(4) 0.13353(3)
W8A W 0.62268(5) 0.10052(4) 0.21930(3)
W9A W 0.85264(5) 0.07894(4) 0.12046(3)
P1A P 0.9352(3) 0.2296(3) 0.29748(18)
Cu1A Cu 1.00461(15) 0.38712(14) 0.47623(10)
Cu3A Cu 1.0404(2) 0.28371(19) 0.05368(12)
Cu4A Cu 1.4107(3) 0.6832(3) 0.31737(17)
O1A O 0.8912(10) 0.6023(9) 0.3061(6)
O2A O 0.7401(8) 0.3954(7) 0.3581(5)
O3A O 1.0523(9) 0.5018(7) 0.2723(5)
O4A O 0.8227(8) 0.4035(7) 0.2192(5)
O5A O 0.9774(8) 0.5030(8) 0.4183(5)
O6A O 0.8978(8) 0.3045(7) 0.3465(5)
O7A O 0.5677(9) 0.2434(8) 0.4455(6)
O8A O 0.7082(8) 0.1215(7) 0.4206(5)
O9A O 0.6343(9) 0.1957(7) 0.3011(5)
O10A O 0.8193(9) 0.3198(8) 0.4871(5)
O11A O 0.6072(10) -0.1052(8) 0.4257(6)
O12A O 0.7999(9) -0.0874(8) 0.3330(5)
O13A O 0.6537(9) 0.0106(7) 0.2884(5)
O14A O 0.8492(9) 0.0160(8) 0.4725(5)
O15A O 0.9166(8) 0.1257(8) 0.3381(5)
O16A O 0.9852(10) -0.1313(8) 0.2664(6)
O17A O 1.1022(9) 0.0916(8) 0.2553(5)
O18A O 0.8734(9) -0.0037(8) 0.1981(5)
O19A O 1.0390(9) -0.0001(8) 0.3950(5)
O20A O 1.2734(10) 0.1864(9) 0.1420(6)
O21A O 1.2177(9) 0.3616(8) 0.1657(5)
O22A O 1.3064(9) 0.2720(8) 0.2875(6)
O23A O 1.0260(8) 0.1723(7) 0.1324(5)
O24A O 1.0691(8) 0.2892(7) 0.2763(5)
O25A O 1.2225(10) 0.5700(8) 0.1534(6)
O26A O 1.2816(12) 0.5058(11) 0.2926(7)
O27A O 0.9989(9) 0.3815(8) 0.1427(6)
O28A O 0.7968(9) 0.3986(8) 0.0594(6)
O29A O 0.6558(8) 0.2234(7) 0.1492(5)
O30A O 0.8371(8) 0.2077(7) 0.0715(5)
O31A O 0.8435(8) 0.1971(7) 0.2219(5)
O32A O 0.4653(9) 0.0389(8) 0.1983(6)
O33A O 0.6775(8) 0.0385(8) 0.1364(5)
O34A O 0.8410(9) 0.0048(8) 0.0373(5)
N1A N 1.0259(12) 0.269(1) 0.5316(8)
H1A H 0.96280 0.20820 0.51600
H2A H 1.01900 0.27940 0.58100
N2A N 1.1841(11) 0.4636(9) 0.4506(7)
H3A H 1.21110 0.52890 0.47290
H4A H 1.18170 0.47290 0.40040
N3A N 1.1550(14) 0.2432(13) -0.0036(7)
H5A H 1.15700 0.18410 0.01680
H6A H 1.23030 0.29500 0.00560
N4A N 1.0181(13) 0.3774(11) -0.0277(8)
H7A H 1.08260 0.44050 -0.02300
H8A H 0.95090 0.38920 -0.01930
N5A N 1.5476(12) 0.3485(10) 0.2348(7)
H9A H 1.54380 0.29990 0.20010
H10A H 1.61010 0.35930 0.26870
H11A H 1.47810 0.32590 0.25800
N6A N 1.5724(17) 0.7095(16) 0.2783(13)
H12A H 1.62520 0.71330 0.31790
H13A H 1.60010 0.77340 0.25710
N7A N 1.3092(12) 1.1049(11) 0.4021(7)
H14A H 1.32000 1.16550 0.37990
H15A H 1.23270 1.07440 0.41570
H16A H 1.36110 1.11820 0.44300
N8A N 1.321(2) 0.7498(15) 0.3644(11)
H17A H 1.35470 0.77040 0.41180
H18A H 1.24430 0.70100 0.36820
C1A C 1.1417(18) 0.2519(16) 0.5253(12)
H19A H 1.12880 0.20530 0.48120
H20A H 1.15090 0.21310 0.56900
C2A C 1.253(2) 0.337(2) 0.5199(19)
H21A H 1.27420 0.37120 0.57000
H22A H 1.31120 0.30620 0.51210
C3A C 1.2822(18) 0.4253(18) 0.4672(14)
H23A H 1.35470 0.48440 0.48830
H24A H 1.30230 0.40230 0.41990
C4A C 1.133(2) 0.2226(16) -0.0894(10)
H25A H 1.20200 0.21320 -0.10900
H26A H 1.06030 0.15800 -0.10080
C5A C 1.1155(16) 0.3189(15) -0.1284(9)
H27A H 1.10970 0.30730 -0.18280
H28A H 1.18770 0.38310 -0.11520
C6A C 1.0054(19) 0.3358(15) -0.1072(11)
H29A H 0.99180 0.38550 -0.14120
H30A H 0.93430 0.26890 -0.11340
C7A C 1.5655(18) 0.4500(17) 0.1975(12)
H31A H 1.64210 0.47630 0.17320
H32A H 1.49930 0.43850 0.15920
C8A C 1.5677(18) 0.5337(15) 0.2605(11)
H33A H 1.63780 0.54940 0.29660
H34A H 1.49390 0.50490 0.28760
C9A C 1.575(3) 0.631(2) 0.2230(18)
H35A H 1.50690 0.61440 0.18530
H36A H 1.65040 0.66090 0.19740
C10A C 1.3319(18) 1.0342(16) 0.3497(11)
H37A H 1.27750 1.02260 0.30440
H38A H 1.41530 1.06810 0.33520
C11A C 1.313(2) 0.9288(16) 0.3822(11)
H39A H 1.37740 0.94010 0.42180
H40A H 1.23590 0.90220 0.40570
C12A C 1.312(3) 0.844(2) 0.3270(13)
H41A H 1.38080 0.87420 0.29560
H42A H 1.23770 0.81980 0.29410
Cu2* Cu 1.00000 0.00000 0.50000
O14A* O 0.8492(9) 1.0160(8) 0.4725(5)
O19A* O 1.0390(9) 0.9999(8) 0.3950(5)
N9A N 0.5620(14) -0.1125(11) 0.9721(8)
H43A H 0.64130 -0.07780 0.96300
H44A H 0.52200 -0.14310 0.92770
N10A N 0.3617(12) -0.1103(10) 1.0567(7)
H45A H 0.30050 -0.14730 1.02200
H46A H 0.33270 -0.07440 1.08700
C13A C 0.555(2) -0.2011(17) 1.0231(13)
H47A H 0.62360 -0.17370 1.06110
H48A H 0.56620 -0.25570 0.99320
C14A C 0.444(2) -0.2508(16) 1.0617(14)
H49A H 0.38100 -0.29430 1.02390
H50A H 0.45790 -0.29920 1.09690
C15A C 0.3900(19) -0.1896(16) 1.1042(11)
H51A H 0.31510 -0.23850 1.12410
H52A H 0.44640 -0.15210 1.14680
#END
