
#######################################################################
#
#                 Cambridge Crystallographic Data Centre
#                                CCDC
#
#######################################################################
#
# If this CIF has been generated from an entry in the Cambridge
# Structural Database, then it will include bibliographic, chemical,
# crystal, experimental, refinement or atomic coordinate data resulting
# from the CCDC's data processing and validation procedures.
#
#######################################################################

data_CSD_CIF_YAYBOQ
_audit_creation_date 2006-01-19
_audit_creation_method CSD-ConQuest-V1
_database_code_CSD YAYBOQ
_database_code_depnum_ccdc_archive 'CCDC 267510'
_chemical_formula_sum 'C44 H35 Ag3 Mo8 N8 O27'
_chemical_formula_moiety
;
(H3 O1 1+)n,n(C44 H32 Ag3 Mo8 N8 O26 1-)
;
_journal_coden_Cambridge 1290
_journal_year 2005
_journal_page_first 3811
_journal_name_full 'Eur.J.Inorg.Chem. '
loop_
_publ_author_name
"Zhenyu Shi"
"Xiaojun Gu"
"Jun Peng"
"Zhifeng Xin"
_chemical_name_systematic
;
catena-(Oxonium 
bis(\m~5~-oxo)-tetrakis(\m~3~-oxo)-octakis(\m~2~-oxo)-bis(\m~2~-phenazine-N,N'
)-dodecaoxo-bis(2,2'-bipyridine-N,N')-octa-molybdenum-tri-silver)
;
_cell_volume   1394.317
_exptl_crystal_colour 'yellow'
_exptl_crystal_density_diffrn 2.615
_exptl_crystal_description 'block'
_diffrn_ambient_temperature 293
#These two values have been output from a single CSD field.
_refine_ls_R_factor_gt 0.0456
_refine_ls_wR_factor_gt 0.0456
_symmetry_cell_setting triclinic
_symmetry_space_group_name_H-M 'P -1'
_symmetry_Int_Tables_number 2
loop_
_symmetry_equiv_pos_site_id
_symmetry_equiv_pos_as_xyz
1 x,y,z
2 -x,-y,-z
_cell_length_a 10.132(2)
_cell_length_b 12.106(2)
_cell_length_c 13.283(3)
_cell_angle_alpha 114.43(3)
_cell_angle_beta 107.76(3)
_cell_angle_gamma 90.76(3)
_cell_formula_units_Z 1
loop_
_atom_type_symbol
_atom_type_radius_bond
C 0.68
H 0.23
Ag 1.59
Mo 1.40
N 0.68
O 0.68
loop_
_atom_site_label
_atom_site_type_symbol
_atom_site_fract_x
_atom_site_fract_y
_atom_site_fract_z
Mo1 Mo 0.80799(6) 1.16122(5) 0.76082(4)
Mo2 Mo 0.66591(6) 1.21246(5) 0.53233(4)
Mo3 Mo 0.44928(5) 1.07544(4) 0.62540(4)
Ag1 Ag 0.50000 1.50000 0.50000
Mo4 Mo 0.30877(6) 1.13252(5) 0.40369(4)
Ag2 Ag 0.48706(7) 1.30224(5) 0.93099(4)
C1 C 0.5816(8) 1.1979(6) 1.1209(5)
O1 O 0.3002(5) 1.0928(4) 0.6592(4)
O2 O 0.4540(4) 1.1961(3) 0.5644(3)
O3 O 0.6355(5) 1.3427(4) 0.5160(4)
O4 O 0.3285(5) 1.2554(4) 0.3751(4)
O5 O 0.5841(5) 1.1583(4) 0.7607(3)
O6 O 0.8104(5) 1.1758(4) 0.4927(4)
O7 O 0.5254(4) 1.0868(4) 0.3828(3)
O8 O 0.9524(5) 1.1387(5) 0.7192(4)
O9 O 0.1641(5) 1.1446(4) 0.4438(4)
O10 O 0.6425(4) 1.0374(3) 0.5595(3)
O11 O 0.7638(5) 0.9995(4) 0.7483(4)
O12 O 0.7420(5) 1.2748(4) 0.6971(4)
O13 O 0.8721(6) 1.2497(5) 0.9079(4)
N1 N 0.4693(6) 1.4174(5) 0.8357(4)
N2 N 0.4752(6) 1.5108(5) 0.6750(5)
C2 C 0.3568(8) 1.0771(7) 1.0891(6)
H1 H 0.40260 1.05990 1.15190
C3 C 0.4293(8) 1.1487(6) 1.0591(6)
N3 N 0.3633(7) 1.1734(5) 0.9672(5)
N4 N 0.6412(7) 1.2650(5) 1.0832(5)
C4 C 0.6600(9) 1.1724(7) 1.2132(6)
H2 H 0.61680 1.12700 1.23970
C5 C 0.7792(8) 1.3056(7) 1.1336(6)
H3 H 0.82080 1.35190 1.10690
C6 C 0.3536(8) 1.4602(6) 0.6704(6)
C7 C 0.5881(8) 1.4780(6) 0.8455(5)
O14 O 0.00000 1.00000 0.50000
C8 C 0.3511(7) 1.4122(5) 0.7520(5)
C9 C 0.5915(7) 1.5262(6) 0.7642(6)
C10 C 0.2171(9) 1.0311(8) 1.0262(7)
H4 H 0.16750 0.98330 1.04660
C11 C 0.7124(8) 1.4964(6) 0.9388(6)
H5 H 0.71230 1.46430 0.99140
C12 C 0.7191(8) 1.5897(7) 0.7794(7)
H6 H 0.72370 1.61830 0.72530
C13 C 0.2253(8) 1.4529(7) 0.5841(6)
H7 H 0.22580 1.48230 0.52970
C14 C 0.8619(9) 1.2817(8) 1.2230(6)
H8 H 0.95790 1.31040 1.25540
C15 C 0.1514(9) 1.0562(7) 0.9333(7)
H9 H 0.05730 1.02480 0.88870
C16 C 0.8333(8) 1.5612(7) 0.9524(7)
H10 H 0.91480 1.57360 1.01460
C17 C 0.8346(8) 1.6090(7) 0.8726(7)
H11 H 0.91680 1.65480 0.88420
C18 C 0.1039(9) 1.4042(8) 0.5805(7)
H12 H 0.02060 1.40080 0.52390
C19 C 0.1003(9) 1.3575(7) 0.6621(7)
H13 H 0.01450 1.32500 0.65880
C20 C 0.2278(8) 1.1288(8) 0.9074(7)
H14 H 0.18290 1.14750 0.84540
C21 C 0.8017(9) 1.2153(8) 1.2641(7)
H15 H 0.85600 1.19950 1.32560
C22 C 0.2203(8) 1.3598(6) 0.7449(6)
H16 H 0.21690 1.32720 0.79660
Mo1A Mo 0.19201(6) 0.83878(5) 0.23918(4)
Mo2A Mo 0.33409(6) 0.78754(5) 0.46767(4)
Mo3A Mo 0.55072(5) 0.92456(4) 0.37460(4)
Ag1* Ag 0.50000 0.50000 0.50000
Mo4A Mo 0.69123(6) 0.86748(5) 0.59631(4)
Ag2A Ag 0.51294(7) 1.69776(5) 0.06901(4)
C1A C 0.4184(8) 1.8021(6) -0.1209(5)
O1A O 0.6998(5) 0.9072(4) 0.3408(4)
O2A O 0.5460(4) 0.8039(3) 0.4356(3)
O3A O 0.3645(5) 1.6573(4) 0.4840(4)
O3A* O 0.3645(5) 0.6573(4) 0.4840(4)
O4A O 0.6715(5) 0.7446(4) 0.6249(4)
O5A O 0.4159(5) 0.8417(4) 0.2393(3)
O6A O 0.1896(5) 0.8242(4) 0.5073(4)
O7A O 0.4746(4) 0.9132(4) 0.6172(3)
O8A O 0.0476(5) 0.8613(5) 0.2808(4)
O9A O 0.8359(5) 0.8554(4) 0.5562(4)
O10A O 0.3575(4) 0.9626(3) 0.4405(3)
O11A O 0.2362(5) 1.0005(4) 0.2517(4)
O12A O 0.2580(5) 0.7252(4) 0.3029(4)
O13A O 0.1279(6) 0.7503(5) 0.0921(4)
N1A N 0.5307(6) 1.5826(5) 0.1643(4)
N2A N 0.5248(6) 1.4892(5) 0.3250(5)
C2A C 0.6432(8) 1.9229(7) -0.0891(6)
H1A H 0.59740 1.94010 -0.15190
C3A C 0.5707(8) 1.8513(6) -0.0591(6)
N3A N 0.6367(7) 1.8266(5) 0.0328(5)
N4A N 0.3588(7) 1.7350(5) -0.0832(5)
C4A C 0.3400(9) 1.8276(7) -0.2132(6)
H2A H 0.38320 1.87300 -0.23970
C5A C 0.2208(8) 1.6944(7) -0.1336(6)
H3A H 0.17920 1.64810 -0.10690
C6A C 0.6464(8) 1.5398(6) 0.3296(6)
C7A C 0.4119(8) 1.5220(6) 0.1545(5)
C8A C 0.6489(7) 1.5878(5) 0.2480(5)
C9A C 0.4085(7) 1.4738(6) 0.2358(6)
C10A C 0.7829(9) 1.9689(8) -0.0262(7)
H4A H 0.83250 2.01670 -0.04660
C11A C 0.2876(8) 1.5036(6) 0.0612(6)
H5A H 0.28770 1.53570 0.00860
C12A C 0.2809(8) 1.4103(7) 0.2206(7)
H6A H 0.27630 1.38170 0.27470
C13A C 0.7747(8) 1.5471(7) 0.4159(6)
H7A H 0.77420 1.51770 0.47030
C14A C 0.1381(9) 1.7183(8) -0.2230(6)
H8A H 0.04210 1.68960 -0.25540
C15A C 0.8486(9) 1.9438(7) 0.0667(7)
H9A H 0.94270 1.97520 0.11130
C16A C 0.1667(8) 1.4388(7) 0.0476(7)
H10A H 0.08520 1.42640 -0.01460
C17A C 0.1654(8) 1.3910(7) 0.1274(7)
H11A H 0.08320 1.34520 0.11580
C18A C 0.8961(9) 1.5958(8) 0.4195(7)
H12A H 0.97940 1.59920 0.47610
C19A C 0.8997(9) 1.6425(7) 0.3379(7)
H13A H 0.98550 1.67500 0.34120
C20A C 0.7722(8) 1.8712(8) 0.0926(7)
H14A H 0.81710 1.85250 0.15460
C21A C 0.1983(9) 1.7847(8) -0.2641(7)
H15A H 0.14400 1.80050 -0.32560
C22A C 0.7797(8) 1.6402(6) 0.2551(6)
H16A H 0.78310 1.67280 0.20340
#END
