
#######################################################################
#
#                 Cambridge Crystallographic Data Centre
#                                CCDC
#
#######################################################################
#
# If this CIF has been generated from an entry in the Cambridge
# Structural Database, then it will include bibliographic, chemical,
# crystal, experimental, refinement or atomic coordinate data resulting
# from the CCDC's data processing and validation procedures.
#
#######################################################################

data_CSD_CIF_YAYPAR
_audit_creation_date 2012-12-31
_audit_creation_method CSD-ConQuest-V1
_database_code_CSD YAYPAR
_database_code_depnum_ccdc_archive 'CCDC 865857'
_chemical_formula_sum 'C12 H11 F1 O13 P4 Th2'
_chemical_formula_moiety
;
(H3 O1 1+)n,n(C12 H8 F1 O12 P4 Th2 1-)
;
_journal_coden_Cambridge 208
_journal_volume 192
_journal_year 2012
_journal_page_first 377
_journal_name_full 'J.Solid State Chem. '
loop_
_publ_author_name
"P.O.Adelani"
"T.E.Albrecht-Schmitt"
_chemical_name_systematic
;
catena-[Oxonium 
bis(\m~6~-benzene-1,4-diphosphonato)-(\m~2~-fluoro)-di-thorium(iv)]
;
_cell_volume   2131.826
_exptl_crystal_colour 'white'
_exptl_crystal_density_diffrn 3.013
_exptl_crystal_description 'tablet'
_diffrn_ambient_temperature 100
#These two values have been output from a single CSD field.
_refine_ls_R_factor_gt 0.0352
_refine_ls_wR_factor_gt 0.0352
_symmetry_cell_setting monoclinic
_symmetry_space_group_name_H-M 'P 21/c'
_symmetry_Int_Tables_number 14
loop_
_symmetry_equiv_pos_site_id
_symmetry_equiv_pos_as_xyz
1 x,y,z
2 -x,1/2+y,1/2-z
3 -x,-y,-z
4 x,-1/2-y,-1/2+z
_cell_length_a 10.1611(7)
_cell_length_b 20.5782(13)
_cell_length_c 10.2490(7)
_cell_angle_alpha 90
_cell_angle_beta 95.863(1)
_cell_angle_gamma 90
_cell_formula_units_Z 4
loop_
_atom_type_symbol
_atom_type_radius_bond
C 0.68
H 0.23
F 0.64
O 0.68
P 1.05
Th 2.00
loop_
_atom_site_label
_atom_site_type_symbol
_atom_site_fract_x
_atom_site_fract_y
_atom_site_fract_z
Th1 Th 0.00082(3) 0.593098(14) 0.87186(3)
Th2 Th 0.00681(3) 0.812476(15) 0.82855(3)
P1 P 0.19881(19) 0.69143(10) 0.6691(2)
P2 P -0.19607(19) 0.56469(10) 1.1280(2)
P3 P 0.81775(19) 0.6937(1) 0.60962(19)
P4 P -0.81615(19) 0.56297(10) 1.1985(2)
F1 F -0.0019(5) 0.7044(2) 0.9082(5)
O1 O 0.1706(5) 0.7564(3) 0.7335(5)
O2 O 0.1716(5) 0.6326(3) 0.7559(5)
O3 O 0.1258(5) 0.6846(3) 0.5319(6)
O4 O -0.1765(6) 0.6010(3) 1.0034(6)
O5 O -0.1453(5) 0.4952(3) 1.1217(6)
O6 O -0.1308(5) 0.6001(3) 1.2492(6)
O7 O 0.8724(5) 0.7567(3) 0.6701(5)
O8 O 0.8769(5) 0.6343(3) 0.6869(5)
O9 O 0.8356(5) 0.6877(3) 0.4644(5)
O10 O -0.8631(5) 0.4935(3) 1.2090(6)
O11 O -0.8903(5) 0.5994(3) 1.0833(6)
O12 O -0.8313(5) 0.6016(3) 1.3233(6)
O13 O -0.172(3) 0.5320(15) 1.485(3)
C1 C -0.3714(7) 0.5626(4) 1.1457(8)
C2 C -0.4425(8) 0.6210(4) 1.1457(9)
H1 H -0.39900 0.66110 1.13430
C3 C -0.5757(8) 0.6201(4) 1.1624(9)
H2 H -0.62290 0.65990 1.16350
C4 C -0.6412(7) 0.5621(4) 1.1774(8)
C5 C -0.5711(8) 0.5038(4) 1.1785(8)
H3 H -0.61540 0.46400 1.19080
C6 C -0.4365(8) 0.5035(4) 1.1616(8)
H4 H -0.38950 0.46360 1.16090
C7 C 0.3727(8) 0.6902(4) 0.6493(7)
C8 C 0.4646(8) 0.6808(4) 0.7600(8)
H5 H 0.43440 0.67410 0.84360
C9 C 0.5985(8) 0.6814(4) 0.7472(8)
H6 H 0.66010 0.67450 0.82200
C10 C 0.6441(7) 0.6922(4) 0.6235(8)
C11 C 0.5525(9) 0.7002(5) 0.5152(9)
H7 H 0.58220 0.70570 0.43090
C12 C 0.4175(8) 0.7001(5) 0.5279(9)
H8 H 0.35590 0.70680 0.45300
Th1B Th -0.00082(3) 0.406902(14) 1.12814(3)
Th1* Th 1.00082(3) 0.593098(14) 0.87186(3)
Th1B* Th -1.00082(3) 0.406902(14) 1.12814(3)
Th1** Th -0.99918(3) 0.593098(14) 0.87186(3)
Th2C Th 0.00681(3) 0.687524(15) 0.32855(3)
Th2C* Th 0.00681(3) 0.687524(15) 1.32855(3)
Th2* Th 1.00681(3) 0.812476(15) 0.82855(3)
Th2C** Th 1.00681(3) 0.687524(15) 0.32855(3)
Th2C*** Th -0.99319(3) 0.687524(15) 1.32855(3)
O3C O 0.1258(5) 0.8154(3) 1.0319(6)
O5B O 0.1453(5) 0.5048(3) 0.8783(6)
O6C O -0.1308(5) 0.8999(3) 0.7492(6)
O7* O -0.1276(5) 0.7567(3) 0.6701(5)
O8* O -0.1231(5) 0.6343(3) 0.6869(5)
O9C O -0.1644(5) 0.8123(3) 0.9644(5)
O10B O -0.1369(5) 0.5065(3) 0.7910(6)
O11* O 0.1097(5) 0.5994(3) 1.0833(6)
O12C O 0.1687(5) 0.8984(3) 0.8233(6)
#END
