
#######################################################################
#
#                 Cambridge Crystallographic Data Centre
#                                CCDC
#
#######################################################################
#
# If this CIF has been generated from an entry in the Cambridge
# Structural Database, then it will include bibliographic, chemical,
# crystal, experimental, refinement or atomic coordinate data resulting
# from the CCDC's data processing and validation procedures.
#
#######################################################################

data_CSD_CIF_YAYPOF
_audit_creation_date 2012-12-31
_audit_creation_method CSD-ConQuest-V1
_database_code_CSD YAYPOF
_database_code_depnum_ccdc_archive 'CCDC 865860'
_chemical_formula_sum 'C17 H26 F1 N1 O19 P4 U3'
_chemical_formula_moiety
;
(C5 H14 N1 1+)n,n(C12 H12 F1 O19 P4 U3 1-)
;
_journal_coden_Cambridge 208
_journal_volume 192
_journal_year 2012
_journal_page_first 377
_journal_name_full 'J.Solid State Chem. '
loop_
_publ_author_name
"P.O.Adelani"
"T.E.Albrecht-Schmitt"
_chemical_name_systematic
;
catena-[Ethyl(trimethyl)ammonium bis(\m~5~-hydrogen 
benzene-1,4-diphosphonato)-(\m~2~-fluoro)-aqua-hexa-oxo-tri-uranium(vi)]
;
_cell_volume   3320.585
_exptl_crystal_colour 'yellow'
_exptl_crystal_density_diffrn 2.803
_exptl_crystal_description 'tablet'
_diffrn_ambient_temperature 100
#These two values have been output from a single CSD field.
_refine_ls_R_factor_gt 0.0205
_refine_ls_wR_factor_gt 0.0205
_symmetry_cell_setting monoclinic
_symmetry_space_group_name_H-M 'P 21/n'
_symmetry_Int_Tables_number 14
loop_
_symmetry_equiv_pos_site_id
_symmetry_equiv_pos_as_xyz
1 x,y,z
2 1/2-x,1/2+y,1/2-z
3 -x,-y,-z
4 -1/2+x,-1/2-y,-1/2+z
_cell_length_a 11.2480(6)
_cell_length_b 20.8734(11)
_cell_length_c 14.6641(8)
_cell_angle_alpha 90
_cell_angle_beta 105.318(1)
_cell_angle_gamma 90
_cell_formula_units_Z 4
loop_
_atom_type_symbol
_atom_type_radius_bond
C 0.76
H 0.23
F 0.64
N 0.68
O 0.68
P 1.05
U 1.48
loop_
_atom_site_label
_atom_site_type_symbol
_atom_site_fract_x
_atom_site_fract_y
_atom_site_fract_z
U1 U 0.777224(17) 0.225222(9) 0.558790(13)
U2 U 0.874672(17) 0.014830(9) 0.372840(13)
U3 U 0.923440(17) 0.418890(9) 0.536330(14)
P1 P 0.60186(12) 0.11596(6) 0.38537(9)
P2 P 0.20442(12) 0.44694(6) 0.62824(9)
P3 P 0.12637(12) -0.05370(6) 0.37640(9)
P4 P 0.61711(12) 0.36435(6) 0.42487(9)
F1 F 0.8665(3) 0.32695(14) 0.5944(2)
O1 O 0.8729(3) 0.21319(18) 0.4783(3)
O2 O 0.6820(4) 0.23780(17) 0.6383(3)
O3 O 0.8043(3) -0.06023(17) 0.3866(2)
O4 O 0.9487(3) 0.08917(16) 0.3591(2)
O5 O 0.8847(3) 0.46137(18) 0.6291(3)
O6 O 0.9665(3) 0.37521(18) 0.4456(3)
O7 O 0.9597(4) 0.23107(17) 0.6996(3)
O8 O 0.6191(3) 0.16124(16) 0.4683(2)
O9 O 0.7060(3) 0.06967(16) 0.3892(2)
O10 O 0.5805(3) 0.15786(16) 0.2928(2)
O11 O 0.2662(3) 0.48246(17) 0.7170(2)
O12 O 0.1269(3) 0.38875(16) 0.6431(2)
O13 O 0.1078(3) 0.48780(16) 0.5574(2)
O14 O 0.0156(3) -0.03792(15) 0.2914(2)
O15 O 0.0790(3) -0.03052(16) 0.4606(2)
O16 O 0.1645(3) -0.12251(16) 0.3799(2)
O17 O 0.5574(3) 0.36661(16) 0.3152(2)
O18 O 0.6551(3) 0.29606(16) 0.4490(2)
O19 O 0.7207(3) 0.41297(16) 0.4541(2)
N1 N 0.3676(6) 0.2183(3) -0.3041(6)
C1 C 0.4651(5) 0.0698(2) 0.3766(4)
C2 C 0.3568(5) 0.0976(3) 0.3818(6)
H1 H 0.35230 0.14290 0.38660
C3 C 0.2537(6) 0.0610(3) 0.3804(5)
H2 H 0.17980 0.08150 0.38440
C4 C 0.2574(5) -0.0052(2) 0.3732(4)
C5 C 0.3651(5) -0.0332(3) 0.3687(5)
H3 H 0.36980 -0.07860 0.36470
C6 C 0.4686(5) 0.0040(3) 0.3701(5)
H4 H 0.54270 -0.01640 0.36640
C7 C 0.3192(5) 0.4228(2) 0.5706(4)
C8 C 0.2875(5) 0.3921(3) 0.4846(4)
H5 H 0.20330 0.38270 0.45580
C9 C 0.3768(5) 0.3745(3) 0.4390(4)
H6 H 0.35290 0.35350 0.37940
C10 C 0.4996(5) 0.3873(2) 0.4799(4)
C11 C 0.5322(5) 0.4188(3) 0.5656(4)
H7 H 0.61640 0.42860 0.59380
C12 C 0.4433(5) 0.4365(3) 0.6116(4)
H8 H 0.46720 0.45790 0.67080
C13 C 0.260(2) 0.2343(8) -0.4031(13)
H9 H 0.20740 0.19660 -0.42220
H10 H 0.29910 0.24550 -0.45320
H11 H 0.20940 0.27040 -0.39230
C14 C 0.4341(11) 0.1625(5) -0.3214(13)
H12 H 0.49780 0.15150 -0.26380
H13 H 0.47270 0.17170 -0.37250
H14 H 0.37680 0.12650 -0.33960
C15 C 0.2931(9) 0.2027(5) -0.2394(7)
H15 H 0.34720 0.19060 -0.17780
H16 H 0.23820 0.16680 -0.26510
H17 H 0.24380 0.24000 -0.23200
C16 C 0.4482(17) 0.2748(5) -0.2711(17)
H18 H 0.40050 0.30900 -0.24990
H19 H 0.47860 0.29190 -0.32370
C17 C 0.585(3) 0.2501(11) -0.1689(17)
H20 H 0.63880 0.28710 -0.14850
H21 H 0.63060 0.21580 -0.18980
H22 H 0.55420 0.23490 -0.11600
U1B U 0.222776(17) -0.225222(9) 0.441210(13)
U2C U 0.374672(17) 0.485170(9) 0.872840(13)
U2* U -0.125328(17) 0.014830(9) 0.372840(13)
U2B U 0.125328(17) -0.014830(9) 0.627160(13)
U3* U -0.076560(17) 0.418890(9) 0.536330(14)
U3B U 0.076560(17) 0.581110(9) 0.463670(14)
O11C O 0.7662(3) 0.01754(17) 0.2170(2)
O12* O 1.1269(3) 0.38875(16) 0.6431(2)
O13* O 1.1078(3) 0.48780(16) 0.5574(2)
O13B O 0.8922(3) 0.51220(16) 0.4426(2)
O14* O 1.0156(3) -0.03792(15) 0.2914(2)
O15* O 1.0790(3) -0.03052(16) 0.4606(2)
O15B O 0.9210(3) 0.03052(16) 0.5394(2)
O16B O 0.8355(3) 0.12251(16) 0.6201(2)
#END
