
#######################################################################
#
#                 Cambridge Crystallographic Data Centre
#                                CCDC
#
#######################################################################
#
# If this CIF has been generated from an entry in the Cambridge
# Structural Database, then it will include bibliographic, chemical,
# crystal, experimental, refinement or atomic coordinate data resulting
# from the CCDC's data processing and validation procedures.
#
#######################################################################

data_CSD_CIF_YAYRAT
_audit_creation_date 2012-12-31
_audit_creation_method CSD-ConQuest-V1
_database_code_CSD YAYRAT
_database_code_depnum_ccdc_archive 'CCDC 853672'
_chemical_formula_sum 'C72 H96 Ga3 N3 O24'
_chemical_formula_moiety
;
(C12 H28 N1 1+)3n,n(C36 H12 Ga3 O24 3-)
;
_journal_coden_Cambridge 208
_journal_volume 194
_journal_year 2012
_journal_page_first 369
_journal_name_full 'J.Solid State Chem. '
loop_
_publ_author_name
"Dong Woo Lee"
"Vinna Jo"
"Kang Min Ok"
_chemical_name_systematic
;
catena-[tris(Tetra-n-propylammonium) 
tetrakis(\m~3~-benzene-1,3,5-tricarboxylato)-tri-gallium(iii)]
;
_chemical_name_common
;
CAUMOF-11
;
_cell_volume  11973.515
_exptl_crystal_colour 'colorless'
_exptl_crystal_density_diffrn 1.329
_exptl_crystal_description 'rod'
_diffrn_ambient_temperature 200
#These two values have been output from a single CSD field.
_refine_ls_R_factor_gt 0.0431
_refine_ls_wR_factor_gt 0.0431
_symmetry_cell_setting rhombohedral
_symmetry_space_group_name_H-M 'R 3 c'
_symmetry_Int_Tables_number 161
loop_
_symmetry_equiv_pos_site_id
_symmetry_equiv_pos_as_xyz
1 x,y,z
2 -y,x-y,z
3 -x+y,-x,z
4 -y,-x,1/2+z
5 -x+y,y,1/2+z
6 x,x-y,1/2+z
7 2/3+x,1/3+y,1/3+z
8 2/3-y,1/3+x-y,1/3+z
9 2/3-x+y,1/3-x,1/3+z
10 2/3-y,1/3-x,5/6+z
11 2/3-x+y,1/3+y,5/6+z
12 2/3+x,1/3+x-y,5/6+z
13 1/3+x,2/3+y,2/3+z
14 1/3-y,2/3+x-y,2/3+z
15 1/3-x+y,2/3-x,2/3+z
16 1/3-y,2/3-x,1/6+z
17 1/3-x+y,2/3+y,1/6+z
18 1/3+x,2/3+x-y,1/6+z
_cell_length_a 27.943(4)
_cell_length_b 27.943(4)
_cell_length_c 17.707(4)
_cell_angle_alpha 90
_cell_angle_beta 90
_cell_angle_gamma 120
_cell_formula_units_Z 6
loop_
_atom_type_symbol
_atom_type_radius_bond
C 0.68
H 0.23
Ga 1.22
N 0.68
O 0.68
loop_
_atom_site_label
_atom_site_type_symbol
_atom_site_fract_x
_atom_site_fract_y
_atom_site_fract_z
Ga1 Ga 0.881433(18) 0.387693(19) 0.85568(3)
O1 O 0.92293(13) 0.44915(13) 0.79610(17)
O2 O 0.86026(16) 0.40910(15) 0.7058(2)
O3 O 0.90388(13) 0.49299(13) 0.45337(18)
O4 O 0.98381(14) 0.56985(17) 0.43021(18)
O5 O 1.10677(13) 0.66710(13) 0.64647(15)
O6 O 1.09182(16) 0.62371(14) 0.7567(2)
O7 O 0.80512(13) 0.35455(15) 0.85929(19)
O8 O 0.81433(16) 0.43685(17) 0.8657(3)
N1 N 0.8030(2) 0.25752(17) 0.1423(2)
C1 C 0.94128(18) 0.49381(19) 0.6790(3)
C2 C 0.92849(19) 0.49335(19) 0.6024(3)
H1 H 0.89630 0.46390 0.58280
C3 C 0.96373(18) 0.53670(18) 0.5555(2)
C4 C 1.01106(18) 0.58087(18) 0.5855(3)
H2 H 1.03410 0.61030 0.55440
C5 C 1.02449(18) 0.58194(19) 0.6601(3)
C6 C 0.99009(19) 0.53875(19) 0.7073(2)
H3 H 0.99930 0.53950 0.75790
C7 C 0.9045(2) 0.4470(2) 0.7289(3)
C8 C 0.9512(2) 0.53465(19) 0.4731(2)
C9 C 1.0770(2) 0.62630(19) 0.6928(3)
C10 C 0.72369(19) 0.3580(2) 0.8608(3)
C11 C 0.6979(2) 0.3895(2) 0.8600(3)
H4 H 0.71950 0.42790 0.85880
C12 C 0.7857(2) 0.3867(2) 0.8625(4)
C13 C 0.7870(2) 0.3028(2) 0.1375(3)
H5 H 0.75280 0.29030 0.16510
H6 H 0.81540 0.33560 0.16270
C14 C 0.7796(3) 0.3185(3) 0.0594(5)
H7 H 0.75050 0.28670 0.03330
H8 H 0.81360 0.33230 0.03080
C15 C 0.7640(3) 0.3638(3) 0.0679(5)
H9 H 0.75790 0.37440 0.01890
H10 H 0.79350 0.39530 0.09270
H11 H 0.73090 0.34990 0.09750
C16 C 0.7622(3) 0.2062(2) 0.0988(3)
H12 H 0.76580 0.21570 0.04570
H13 H 0.77330 0.17860 0.10490
C17 C 0.7051(3) 0.1812(3) 0.1185(4)
H14 H 0.69350 0.20860 0.11680
H15 H 0.69950 0.16660 0.16940
C18 C 0.6695(3) 0.1330(3) 0.0614(5)
H16 H 0.63120 0.11600 0.07500
H17 H 0.68110 0.10600 0.06320
H18 H 0.67460 0.14780 0.01120
C19 C 0.8030(3) 0.2430(2) 0.2245(3)
H19 H 0.76660 0.23110 0.24510
H20 H 0.80910 0.21180 0.22720
C20 C 0.8449(3) 0.2881(3) 0.2738(4)
H21 H 0.83770 0.31870 0.27550
H22 H 0.88170 0.30160 0.25330
C21 C 0.8417(4) 0.2656(3) 0.3534(4)
H23 H 0.86820 0.29450 0.38530
H24 H 0.84960 0.23590 0.35160
H25 H 0.80520 0.25220 0.37340
C22 C 0.8598(3) 0.2794(2) 0.1071(3)
H26 H 0.85800 0.29000 0.05540
H27 H 0.88550 0.31280 0.13400
C23 C 0.8833(3) 0.2415(3) 0.1058(4)
H28 H 0.88280 0.22810 0.15650
H29 H 0.86050 0.20990 0.07410
C24 C 0.9403(3) 0.2698(4) 0.0771(5)
H30 H 0.95470 0.24500 0.07880
H31 H 0.96270 0.30160 0.10780
H32 H 0.94060 0.28130 0.02590
Ga1E Ga 0.881433(18) 0.493740(19) 1.35568(3)
Ga1P Ga 0.839593(18) 0.054360(19) 1.022347(30)
Ga1E* Ga 0.881433(18) 0.493740(19) 0.35568(3)
Ga1J Ga 1.172927(18) 0.721026(19) 0.689013(30)
Ga1B Ga 0.506260(18) 0.118567(19) 0.85568(3)
Ga1A Ga 0.612307(18) 0.493740(19) 0.85568(3)
Ga1H Ga 1.172927(18) 0.451900(19) 1.189013(30)
Ga1M Ga 0.945640(18) 0.160407(19) 0.522347(30)
O1E O 0.92293(13) 0.47378(13) 1.29610(17)
O1P O 0.859553(130) 0.115817(130) 0.962767(170)
O2E O 0.86026(16) 0.45116(15) 1.2058(2)
O2P O 0.882173(160) 0.075767(150) 0.872467(200)
O3E O 0.90388(13) 0.41089(13) 0.95337(18)
O3P O 0.922443(130) 0.159657(130) 0.620037(180)
O3* O 0.90388(13) 0.49299(13) 1.45337(18)
O3M O 0.840343(130) 0.077557(130) 1.120037(180)
O4E O 0.98381(14) 0.41396(17) 0.93021(18)
O4P O 0.919373(140) 0.236517(170) 0.596877(180)
O5E O 1.10677(13) 0.43967(13) 1.14647(15)
O5P O 0.893663(130) 0.333767(130) 0.813137(150)
O5N O 0.893663(130) 0.559897(130) 1.313137(150)
O5F O 0.773437(130) 0.000433(130) 0.979803(150)
O6E O 1.09182(16) 0.46811(14) 1.2567(2)
O6P O 0.865223(160) 0.290377(140) 0.923367(200)
O7B O 0.54943(13) 0.19488(15) 0.85929(19)
O7A O 0.64545(13) 0.45057(15) 0.85929(19)
O7E O 0.80512(13) 0.45057(15) 1.35929(19)
O7P O 0.882763(130) 0.021217(150) 1.025957(190)
O8B O 0.62252(16) 0.18567(17) 0.8657(3)
O8A O 0.56315(16) 0.37748(17) 0.8657(3)
C1E C 0.94128(18) 0.44747(19) 1.1790(3)
C1P C 0.885863(180) 0.160477(190) 0.845667(300)
C2E C 0.92849(19) 0.43514(19) 1.1024(3)
C2P C 0.898193(190) 0.160017(190) 0.769067(300)
H1E H 0.89630 0.43240 1.08280
H1P H 0.90093 0.13057 0.74947
C3E C 0.96373(18) 0.42703(18) 1.0555(2)
C3P C 0.906303(180) 0.203367(180) 0.722167(200)
C4E C 1.01106(18) 0.43019(18) 1.0855(3)
C4P C 0.903143(180) 0.247537(180) 0.752167(300)
H2E H 1.03410 0.42380 1.05440
H2P H 0.90953 0.27697 0.72107
C5E C 1.02449(18) 0.44255(19) 1.1601(3)
C5P C 0.890783(180) 0.248607(190) 0.826767(300)
C6E C 0.99009(19) 0.45134(19) 1.2073(2)
C6P C 0.881993(190) 0.205417(190) 0.873967(200)
H3E H 0.99930 0.45980 1.25790
H3P H 0.87353 0.20617 0.92457
C7E C 0.9045(2) 0.4575(2) 1.2289(3)
C7P C 0.875833(200) 0.113667(200) 0.895567(300)
C8E C 0.9512(2) 0.41655(19) 0.9731(2)
C8P C 0.916783(200) 0.201317(190) 0.639767(200)
C9E C 1.0770(2) 0.45070(19) 1.1928(3)
C9P C 0.882633(200) 0.292967(190) 0.859467(300)
C10A C 0.64200(19) 0.36569(20) 0.8608(3)
C10B C 0.63431(19) 0.27631(20) 0.8608(3)
C11A C 0.6105(2) 0.3084(2) 0.8600(3)
C11B C 0.6916(2) 0.3021(2) 0.8600(3)
H4B H 0.70840 0.28050 0.85880
H4A H 0.57210 0.29160 0.85880
C12B C 0.6010(2) 0.2143(2) 0.8625(4)
C12A C 0.6133(2) 0.3990(2) 0.8625(4)
#END
