
#######################################################################
#
#                 Cambridge Crystallographic Data Centre
#                                CCDC
#
#######################################################################
#
# If this CIF has been generated from an entry in the Cambridge
# Structural Database, then it will include bibliographic, chemical,
# crystal, experimental, refinement or atomic coordinate data resulting
# from the CCDC's data processing and validation procedures.
#
#######################################################################

data_CSD_CIF_YEBKUM
_audit_creation_date 2006-04-19
_audit_creation_method CSD-ConQuest-V1
_database_code_CSD YEBKUM
_database_code_depnum_ccdc_archive 'CCDC 266704'
_chemical_formula_sum 'C11 H22 N2 O21 Yb2'
_chemical_formula_moiety
;
(C8 O16 Yb2 2-)n,n(C3 H12 N2 2+),5n(H2 O1)
;
_journal_coden_Cambridge 208
_journal_volume 179
_journal_year 2006
_journal_page_first 3
_journal_name_full 'J.Solid State Chem. '
loop_
_publ_author_name
"A.Mohanu"
"C.Brouca-Cabarrecq"
"J.C.Trombe"
_chemical_name_systematic
;
catena-(tetrakis(\m~2~-oxalato)-di-ytterbium propane-1,2-diammonium 
pentahydrate clathrate)
;
_cell_volume   4571.857
_exptl_crystal_colour 'colorless'
_exptl_crystal_density_diffrn 2.512
_exptl_special_details
;
Cif gives dx 2.053 and fw 706.41 for formula C10 H24 N4 O10 Yb2

;
_exptl_crystal_description 'octahedron'
_diffrn_ambient_temperature 293
_refine_special_details
;
The cations have symmetry-imposed disorder.

;
#These two values have been output from a single CSD field.
_refine_ls_R_factor_gt 0.0303
_refine_ls_wR_factor_gt 0.0303
_symmetry_cell_setting orthorhombic
_symmetry_space_group_name_H-M 'F 2 d d'
_symmetry_Int_Tables_number 43
loop_
_symmetry_equiv_pos_site_id
_symmetry_equiv_pos_as_xyz
1 x,y,z
2 x,-y,-z
3 1/4+x,1/4-y,1/4+z
4 1/4+x,1/4+y,1/4-z
5 x,1/2+y,1/2+z
6 x,1/2-y,1/2-z
7 1/4+x,3/4-y,3/4+z
8 1/4+x,3/4+y,3/4-z
9 1/2+x,y,1/2+z
10 1/2+x,-y,1/2-z
11 3/4+x,1/4-y,3/4+z
12 3/4+x,1/4+y,3/4-z
13 1/2+x,1/2+y,z
14 1/2+x,1/2-y,-z
15 3/4+x,3/4-y,1/4+z
16 3/4+x,3/4+y,1/4-z
_cell_length_a 8.7970(4)
_cell_length_b 16.1550(8)
_cell_length_c 32.170(2)
_cell_angle_alpha 90
_cell_angle_beta 90
_cell_angle_gamma 90
_cell_formula_units_Z 8
loop_
_atom_type_symbol
_atom_type_radius_bond
C 0.68
H 0.23
N 0.68
O 0.68
Yb 1.94
loop_
_atom_site_label
_atom_site_type_symbol
_atom_site_fract_x
_atom_site_fract_y
_atom_site_fract_z
Yb1 Yb 0.88979(8) 0.231597(16) 0.064067(7)
O1 O 1.0608(5) 0.1669(3) 0.02173(16)
O2 O 1.2215(6) 0.1833(3) -0.03079(17)
O3 O 1.2384(5) 0.3438(3) -0.01577(15)
O4 O 1.0545(5) 0.3298(3) 0.03274(16)
O5 O 0.8396(4) 0.3527(3) 0.10199(14)
O6 O 0.9411(5) 0.4477(3) 0.14352(15)
O7 O 1.0691(5) 0.2502(3) 0.11683(15)
O8 O 1.1709(4) 0.3463(3) 0.15965(13)
C1 C 1.1421(12) 0.2103(4) -0.00177(19)
C2 C 1.1457(11) 0.3037(4) 0.00601(18)
C3 C 0.9386(6) 0.3797(4) 0.12594(19)
C4 C 1.0715(7) 0.3200(4) 0.13491(19)
N1 N 0.4408(7) 0.2446(4) 0.2022(2)
H1 H 0.35220 0.24860 0.21730
H2 H 0.45510 0.18560 0.19410
H3 H 0.43450 0.27600 0.17910
C5 C 0.570(1) 0.2709(6) 0.2282(3)
C6 C 0.7204(18) 0.267(1) 0.2056(5)
O9 O 0.9094(11) 0.00000 0.00000
H4 H 0.84490 0.04390 0.00630
O10 O 0.390(4) 0.2313(6) 0.0611(3)
O11 O 0.2540(11) 0.0991(7) 0.1199(3)
Yb1M Yb 0.38979(8) 0.268403(16) -0.064067(7)
Yb1M* Yb 1.38979(8) 0.268403(16) -0.064067(7)
Yb1C Yb 1.13979(8) 0.481597(16) 0.185933(7)
Yb1O Yb 0.63979(8) -0.018403(16) 0.185933(7)
O1M O 0.5608(5) 0.3331(3) -0.02173(16)
O2M O 0.7215(6) 0.3167(3) 0.03079(17)
O2* O 0.2215(6) 0.1833(3) -0.03079(17)
O3M O 0.7384(5) 0.1562(3) 0.01577(15)
O3* O 0.2384(5) 0.3438(3) -0.01577(15)
O4M O 0.5545(5) 0.1702(3) -0.03274(16)
O5O O 0.5896(4) 0.1027(3) 0.14801(14)
O5M O 0.3396(4) 0.1473(3) -0.10199(14)
O6O O 0.6911(5) 0.1977(3) 0.10648(15)
O6F O 0.1911(5) 0.3023(3) -0.10648(15)
O7O O 0.8191(5) 0.0002(3) 0.13317(15)
O7M O 0.5691(5) 0.2498(3) -0.11683(15)
O8O O 0.9209(4) 0.0963(3) 0.09035(13)
O8F O 0.4209(4) 0.4037(3) -0.09035(13)
C1M C 0.6421(12) 0.2897(4) 0.00177(19)
C2M C 0.6457(11) 0.1963(4) -0.00601(18)
C3O C 0.6886(6) 0.1297(4) 0.12406(19)
C4O C 0.8215(7) 0.0700(4) 0.11509(19)
N1E N 0.4408(7) 0.2554(4) 0.2978(2)
H1E H 0.35220 0.25140 0.28270
H2E H 0.45510 0.31440 0.30590
H3E H 0.43450 0.22400 0.32090
C5E C 0.570(1) 0.2291(6) 0.2718(3)
C6E C 0.7204(18) 0.233(1) 0.2944(5)
H4A H 0.84490 -0.04390 -0.00630
#END
