
#######################################################################
#
#                 Cambridge Crystallographic Data Centre
#                                CCDC
#
#######################################################################
#
# If this CIF has been generated from an entry in the Cambridge
# Structural Database, then it will include bibliographic, chemical,
# crystal, experimental, refinement or atomic coordinate data resulting
# from the CCDC's data processing and validation procedures.
#
#######################################################################

data_CSD_CIF_YEDKUQ
_audit_creation_date 2017-09-14
_audit_creation_method CSD-ConQuest-V1
_database_code_CSD YEDKUQ
_database_code_depnum_ccdc_archive 'CCDC 1454208'
_chemical_formula_sum 'C4 H8 F12 In4 O12 Rb4'
_chemical_formula_moiety
;
(C4 H8 F12 In4 O12 4-)n,4(Rb1 1+)
;
_journal_coden_Cambridge 82
_journal_volume 58
_journal_year 2017
_journal_page_first 207
_journal_name_full 'Zh.Strukt.Khim.(Russ.)(J.Struct.Chem.) '
loop_
_publ_author_name
"R.L.Davidovich"
"V.B.Logvinova"
"V.V.Tkachev"
"G.V.Shilov"
_chemical_name_systematic
;
catena-[tetra-rubidium 
bis(\m-oxalato)-tetrakis(\m-fluoro)-octafluoro-tetra-aqua-tetra-indium(iii)]
;
_cell_volume    576.990
_exptl_crystal_colour 'colorless'
_exptl_crystal_density_diffrn 3.676
_exptl_crystal_description 'prism'
_diffrn_ambient_temperature 100
#These two values have been output from a single CSD field.
_refine_ls_R_factor_gt 0.0269
_refine_ls_wR_factor_gt 0.0269
_symmetry_cell_setting monoclinic
_symmetry_space_group_name_H-M 'P 21/c'
_symmetry_Int_Tables_number 14
loop_
_symmetry_equiv_pos_site_id
_symmetry_equiv_pos_as_xyz
1 x,y,z
2 -x,1/2+y,1/2-z
3 -x,-y,-z
4 x,-1/2-y,-1/2+z
_cell_length_a 7.8308(3)
_cell_length_b 9.9671(3)
_cell_length_c 7.9327(3)
_cell_angle_alpha 90
_cell_angle_beta 111.266(5)
_cell_angle_gamma 90
_cell_formula_units_Z 1
loop_
_atom_type_symbol
_atom_type_radius_bond
C 0.68
H 0.23
F 0.64
In 1.42
O 0.68
Rb 2.20
loop_
_atom_site_label
_atom_site_type_symbol
_atom_site_fract_x
_atom_site_fract_y
_atom_site_fract_z
In1 In 0.76575(3) 0.03943(3) 0.87217(4)
F1 F 0.8498(3) 0.2227(2) 0.8184(3)
F2 F 0.6978(3) -0.1407(2) 0.9527(3)
F3 F 0.9825(3) 0.0540(2) 1.1326(3)
O1 O 0.7372(4) -0.0176(3) 0.5831(4)
O2 O 0.5326(3) -0.0539(3) 0.3047(4)
O3 O 0.6356(4) 0.1511(3) 1.0331(4)
H1 H 0.714(5) 0.182(5) 1.150(3)
H2 H 0.520(3) 0.131(4) 1.041(6)
C1 C 0.5776(5) -0.0203(4) 0.4670(5)
Rb1 Rb 0.89783(5) -0.16506(4) 0.34345(5)
In1B In 0.23425(3) -0.03943(3) 0.12783(4)
F1B F 0.1502(3) -0.2227(2) 0.1816(3)
F2B F 0.3022(3) 0.1407(2) 0.0473(3)
F3B F 0.0175(3) -0.0540(2) -0.1326(3)
O1B O 0.2628(4) 0.0176(3) 0.4169(4)
O2B O 0.4674(3) 0.0539(3) 0.6953(4)
O3B O 0.3644(4) -0.1511(3) -0.0331(4)
H1B H 0.286(5) -0.182(5) -0.150(3)
H2B H 0.480(3) -0.131(4) -0.041(6)
C1B C 0.4224(5) 0.0203(4) 0.5330(5)
In1B* In -0.76575(3) -0.03943(3) -0.87217(4)
F1B* F -0.8498(3) -0.2227(2) -0.8184(3)
F2B* F -0.6978(3) 0.1407(2) -0.9527(3)
F3B* F -0.9825(3) -0.0540(2) -1.1326(3)
O1B* O -0.7372(4) 0.0176(3) -0.5831(4)
O2B* O -0.5326(3) 0.0539(3) -0.3047(4)
O3B* O -0.6356(4) -0.1511(3) -1.0331(4)
H1B* H -0.714(5) -0.182(5) -1.150(3)
H2B* H -0.520(3) -0.131(4) -1.041(6)
C1B* C -0.5776(5) 0.0203(4) -0.4670(5)
In1* In -0.23425(3) 0.03943(3) -0.12783(4)
F1* F -0.1502(3) 0.2227(2) -0.1816(3)
F2* F -0.3022(3) -0.1407(2) -0.0473(3)
F3* F -0.0175(3) 0.0540(2) 0.1326(3)
O1* O -0.2628(4) -0.0176(3) -0.4169(4)
O2* O -0.4674(3) -0.0539(3) -0.6953(4)
O3* O -0.3644(4) 0.1511(3) 0.0331(4)
H1* H -0.286(5) 0.182(5) 0.150(3)
H2* H -0.480(3) 0.131(4) 0.041(6)
C1* C -0.4224(5) -0.0203(4) -0.5330(5)
In1** In -1.23425(3) 0.03943(3) -1.12783(4)
In1B** In 1.23425(3) -0.03943(3) 1.12783(4)
F3** F -1.0175(3) 0.0540(2) -0.8674(3)
F3B** F 1.0175(3) -0.0540(2) 0.8674(3)
#END
