
#######################################################################
#
#                 Cambridge Crystallographic Data Centre
#                                CCDC
#
#######################################################################
#
# If this CIF has been generated from an entry in the Cambridge
# Structural Database, then it will include bibliographic, chemical,
# crystal, experimental, refinement or atomic coordinate data resulting
# from the CCDC's data processing and validation procedures.
#
#######################################################################

data_CSD_CIF_YEFTAH
_audit_creation_date 2017-09-15
_audit_creation_method CSD-ConQuest-V1
_database_code_CSD YEFTAH
_database_code_depnum_ccdc_archive 'CCDC 1503117'
_chemical_formula_sum 'C16 H16 Eu1 N1 O11 S2'
_chemical_formula_moiety
;
(C14 H8 Eu1 O11 S2 1-)n,C2 H8 N1 1+
;
_journal_coden_Cambridge 1147
_journal_volume 17
_journal_year 2017
_journal_page_first 5524
_journal_name_full 'Cryst.Growth Des. '
loop_
_publ_author_name
"Jing Zhao"
"Xin He"
"Yuchi Zhang"
"Jie Zhu"
"Xuan Shen"
"Dunru Zhu"
_chemical_name_systematic
;
catena-[dimethylammonium 
(\m-2,2'-disulfonato(1,1'-biphenyl)-4,4'-dicarboxylato)-aqua-europium]
;
_cell_volume   1862.549
_exptl_crystal_colour 'colorless'
_exptl_crystal_density_diffrn 2.191
_exptl_crystal_description 'block'
_diffrn_ambient_temperature 293
_refine_special_details
;
N1 disordered by symmetry over two configurations with occupancy 0.50.

;
#These two values have been output from a single CSD field.
_refine_ls_R_factor_gt 0.0139
_refine_ls_wR_factor_gt 0.0139
_symmetry_cell_setting monoclinic
_symmetry_space_group_name_H-M 'C 2/c'
_symmetry_Int_Tables_number 15
loop_
_symmetry_equiv_pos_site_id
_symmetry_equiv_pos_as_xyz
1 x,y,z
2 -x,y,1/2-z
3 1/2+x,1/2+y,z
4 1/2-x,1/2+y,1/2-z
5 -x,-y,-z
6 x,-y,-1/2+z
7 -1/2-x,-1/2-y,-z
8 -1/2+x,-1/2-y,-1/2+z
_cell_length_a 14.154(3)
_cell_length_b 13.408(3)
_cell_length_c 9.920(2)
_cell_angle_alpha 90
_cell_angle_beta 98.367(3)
_cell_angle_gamma 90
_cell_formula_units_Z 4
loop_
_atom_type_symbol
_atom_type_radius_bond
C 0.68
H 0.23
Eu 1.98
N 0.68
O 0.68
S 1.02
loop_
_atom_site_label
_atom_site_type_symbol
_atom_site_fract_x
_atom_site_fract_y
_atom_site_fract_z
Eu1 Eu 0.50000 0.068149(11) 0.25000
S1 S 0.48302(4) 0.28500(4) 0.01788(5)
O1 O 0.13365(12) 0.43790(12) -0.08482(17)
O2 O 0.50000 -0.10869(19) 0.25000
H1 H 0.47720 -0.13860 0.31420
O3 O 0.10493(11) 0.51688(13) 0.10179(17)
O4 O 0.55415(12) 0.34813(14) -0.02904(18)
O5 O 0.41890(12) 0.23742(13) -0.09020(17)
O6 O 0.52772(12) 0.21271(12) 0.11941(16)
C1 C 0.15781(16) 0.46708(17) 0.0359(2)
C2 C 0.25765(16) 0.44587(17) 0.1023(2)
C3 C 0.31542(16) 0.37823(17) 0.0454(2)
H2 H 0.29060 0.34240 -0.03200
C4 C 0.40966(16) 0.36400(16) 0.1033(2)
C5 C 0.44833(16) 0.41700(17) 0.2201(2)
C6 C 0.38939(17) 0.48279(18) 0.2770(2)
H3 H 0.41360 0.51810 0.35510
C7 C 0.29530(16) 0.49674(18) 0.2196(2)
H4 H 0.25690 0.54060 0.26000
C8 C 0.7710(3) 0.2781(4) 0.1204(4)
H5 H 0.77960 0.24500 0.20710
H6 H 0.72010 0.32570 0.11730
H7 H 0.82890 0.31190 0.10800
N1 N 0.7483(4) 0.2078(4) 0.0167(6)
H8 H 0.79530 0.16710 -0.00180
H9 H 0.69030 0.17900 0.00900
S1A S 0.51698(4) 0.28500(4) 0.48212(5)
O1A O 0.86635(12) 0.43790(12) 0.58482(17)
O3A O 0.89507(11) 0.51688(13) 0.39821(17)
O4A O 0.44585(12) 0.34813(14) 0.52904(18)
O5A O 0.58110(12) 0.23742(13) 0.59020(17)
O6A O 0.47228(12) 0.21271(12) 0.38059(16)
C1A C 0.84219(16) 0.46708(17) 0.4641(2)
C2A C 0.74235(16) 0.44587(17) 0.3977(2)
C3A C 0.68458(16) 0.37823(17) 0.4546(2)
H2A H 0.70940 0.34240 0.53200
C4A C 0.59034(16) 0.36400(16) 0.3967(2)
C5A C 0.55167(16) 0.41700(17) 0.2799(2)
C6A C 0.61061(17) 0.48279(18) 0.2230(2)
H3A H 0.58640 0.51810 0.14490
C7A C 0.70470(16) 0.49674(18) 0.2804(2)
H4A H 0.74310 0.54060 0.24000
H1A H 0.52280 -0.13860 0.18580
Eu1B Eu 0.00000 0.568149(11) 0.25000
Eu1B* Eu 1.00000 0.568149(11) 0.25000
Eu1F Eu 0.00000 0.431851(11) -0.25000
Eu1F* Eu 1.00000 0.431851(11) 0.75000
O1F O 0.36635(12) 0.06210(12) 0.08482(17)
O1G O 0.63365(12) 0.06210(12) 0.41518(17)
O3B O 0.60493(11) 0.01688(13) 0.10179(17)
O3C O 0.39507(11) 0.01688(13) 0.39821(17)
C8F C 0.7290(3) 0.2219(4) -0.1204(4)
H5F H 0.72040 0.25500 -0.20710
H6F H 0.77990 0.17430 -0.11730
H7F H 0.67110 0.18810 -0.10800
N1F N 0.7517(4) 0.2922(4) -0.0167(6)
H8F H 0.70470 0.33290 0.00180
H9F H 0.80970 0.32100 -0.00900
#END
