
#######################################################################
#
#                 Cambridge Crystallographic Data Centre
#                                CCDC
#
#######################################################################
#
# If this CIF has been generated from an entry in the Cambridge
# Structural Database, then it will include bibliographic, chemical,
# crystal, experimental, refinement or atomic coordinate data resulting
# from the CCDC's data processing and validation procedures.
#
#######################################################################

data_CSD_CIF_YEFTIP
_audit_creation_date 2017-09-15
_audit_creation_method CSD-ConQuest-V1
_database_code_CSD YEFTIP
_database_code_depnum_ccdc_archive 'CCDC 1503118'
_chemical_formula_sum 'C16 H16 Gd1 N1 O11 S2'
_chemical_formula_moiety
;
(C14 H8 Gd1 O11 S2 1-)n,C2 H8 N1 1+
;
_journal_coden_Cambridge 1147
_journal_volume 17
_journal_year 2017
_journal_page_first 5524
_journal_name_full 'Cryst.Growth Des. '
loop_
_publ_author_name
"Jing Zhao"
"Xin He"
"Yuchi Zhang"
"Jie Zhu"
"Xuan Shen"
"Dunru Zhu"
_chemical_name_systematic
;
catena-[dimethylammonium 
(\m-2,2'-disulfonato(1,1'-biphenyl)-4,4'-dicarboxylato)-aqua-gadolinium]
;
_cell_volume   1858.832
_exptl_crystal_colour 'colorless'
_exptl_crystal_density_diffrn 2.214
_exptl_crystal_description 'block'
_diffrn_ambient_temperature 293
_refine_special_details
;
N1 disordered by symmetry over two configurations with occupancy 0.50.

;
#These two values have been output from a single CSD field.
_refine_ls_R_factor_gt 0.0151
_refine_ls_wR_factor_gt 0.0151
_symmetry_cell_setting monoclinic
_symmetry_space_group_name_H-M 'C 2/c'
_symmetry_Int_Tables_number 15
loop_
_symmetry_equiv_pos_site_id
_symmetry_equiv_pos_as_xyz
1 x,y,z
2 -x,y,1/2-z
3 1/2+x,1/2+y,z
4 1/2-x,1/2+y,1/2-z
5 -x,-y,-z
6 x,-y,-1/2+z
7 -1/2-x,-1/2-y,-z
8 -1/2+x,-1/2-y,-1/2+z
_cell_length_a 14.151(4)
_cell_length_b 13.395(3)
_cell_length_c 9.911(3)
_cell_angle_alpha 90
_cell_angle_beta 98.331(3)
_cell_angle_gamma 90
_cell_formula_units_Z 4
loop_
_atom_type_symbol
_atom_type_radius_bond
C 0.68
H 0.23
Gd 1.96
N 0.68
O 0.68
S 1.02
loop_
_atom_site_label
_atom_site_type_symbol
_atom_site_fract_x
_atom_site_fract_y
_atom_site_fract_z
Gd1 Gd 0.50000 0.068042(11) 0.25000
S1 S 0.48286(4) 0.28448(5) 0.01792(6)
O1 O 0.13329(13) 0.43807(13) -0.08485(19)
O2 O 0.50000 -0.1076(2) 0.25000
H1 H 0.47720 -0.13750 0.31420
O3 O 0.10447(12) 0.51723(14) 0.10239(18)
O4 O 0.55416(13) 0.34743(14) -0.0292(2)
O5 O 0.41874(13) 0.23708(14) -0.09031(19)
O6 O 0.52773(12) 0.21209(13) 0.11969(18)
C1 C 0.15747(17) 0.46762(18) 0.0359(2)
C2 C 0.25750(17) 0.44611(18) 0.1023(3)
C3 C 0.31508(17) 0.37806(18) 0.0455(2)
H2 H 0.29010 0.34190 -0.03160
C4 C 0.40955(16) 0.36398(18) 0.1035(2)
C5 C 0.44847(17) 0.41720(18) 0.2202(3)
C6 C 0.38929(18) 0.4832(2) 0.2767(3)
H3 H 0.41360 0.51850 0.35490
C7 C 0.29537(18) 0.4975(2) 0.2196(3)
H4 H 0.25720 0.54180 0.25990
C8 C 0.7714(3) 0.2781(4) 0.1212(5)
H5 H 0.78000 0.24480 0.20790
H6 H 0.72080 0.32610 0.11850
H7 H 0.82950 0.31140 0.10840
N1 N 0.7478(4) 0.2079(4) 0.0173(7)
H8 H 0.79440 0.16640 -0.00100
H9 H 0.68950 0.17990 0.00970
S1A S 0.51714(4) 0.28448(5) 0.48208(6)
O1A O 0.86671(13) 0.43807(13) 0.58485(19)
O3A O 0.89553(12) 0.51723(14) 0.39761(18)
O4A O 0.44584(13) 0.34743(14) 0.5292(2)
O5A O 0.58126(13) 0.23708(14) 0.59031(19)
O6A O 0.47227(12) 0.21209(13) 0.38031(18)
C1A C 0.84253(17) 0.46762(18) 0.4641(2)
C2A C 0.74250(17) 0.44611(18) 0.3977(3)
C3A C 0.68492(17) 0.37806(18) 0.4545(2)
H2A H 0.70990 0.34190 0.53160
C4A C 0.59045(16) 0.36398(18) 0.3965(2)
C5A C 0.55153(17) 0.41720(18) 0.2798(3)
C6A C 0.61071(18) 0.4832(2) 0.2233(3)
H3A H 0.58640 0.51850 0.14510
C7A C 0.70463(18) 0.4975(2) 0.2804(3)
H4A H 0.74280 0.54180 0.24010
H1A H 0.52280 -0.13750 0.18580
Gd1B Gd 0.00000 0.568042(11) 0.25000
Gd1B* Gd 1.00000 0.568042(11) 0.25000
Gd1F Gd 0.00000 0.431958(11) -0.25000
Gd1F* Gd 1.00000 0.431958(11) 0.75000
O1F O 0.36671(13) 0.06193(13) 0.08485(19)
O1G O 0.63329(13) 0.06193(13) 0.41515(19)
O3B O 0.60447(12) 0.01723(14) 0.10239(18)
O3C O 0.39553(12) 0.01723(14) 0.39761(18)
C8F C 0.7286(3) 0.2219(4) -0.1212(5)
H5F H 0.72000 0.25520 -0.20790
H6F H 0.77920 0.17390 -0.11850
H7F H 0.67050 0.18860 -0.10840
N1F N 0.7522(4) 0.2921(4) -0.0173(7)
H8F H 0.70560 0.33360 0.00100
H9F H 0.81050 0.32010 -0.00970
#END
