
#######################################################################
#
#                 Cambridge Crystallographic Data Centre
#                                CCDC
#
#######################################################################
#
# If this CIF has been generated from an entry in the Cambridge
# Structural Database, then it will include bibliographic, chemical,
# crystal, experimental, refinement or atomic coordinate data resulting
# from the CCDC's data processing and validation procedures.
#
#######################################################################

data_CSD_CIF_YEFTOV
_audit_creation_date 2017-09-15
_audit_creation_method CSD-ConQuest-V1
_database_code_CSD YEFTOV
_database_code_depnum_ccdc_archive 'CCDC 1503119'
_chemical_formula_sum 'C16 H16 N1 O11 S2 Tb1'
_chemical_formula_moiety
;
(C14 H8 O11 S2 Tb1 1-)n,C2 H8 N1 1+
;
_journal_coden_Cambridge 1147
_journal_volume 17
_journal_year 2017
_journal_page_first 5524
_journal_name_full 'Cryst.Growth Des. '
loop_
_publ_author_name
"Jing Zhao"
"Xin He"
"Yuchi Zhang"
"Jie Zhu"
"Xuan Shen"
"Dunru Zhu"
_chemical_name_systematic
;
catena-[dimethylammonium 
(\m-2,2'-disulfonato(1,1'-biphenyl)-4,4'-dicarboxylato)-aqua-terbium]
;
_cell_volume   1850.593
_exptl_crystal_colour 'colorless'
_exptl_crystal_density_diffrn 2.23
_exptl_crystal_description 'block'
_diffrn_ambient_temperature 293
_refine_special_details
;
N1 disordered by symmetry over two configurations with occupancy 0.50.

;
#These two values have been output from a single CSD field.
_refine_ls_R_factor_gt 0.0165
_refine_ls_wR_factor_gt 0.0165
_symmetry_cell_setting monoclinic
_symmetry_space_group_name_H-M 'C 2/c'
_symmetry_Int_Tables_number 15
loop_
_symmetry_equiv_pos_site_id
_symmetry_equiv_pos_as_xyz
1 x,y,z
2 -x,y,1/2-z
3 1/2+x,1/2+y,z
4 1/2-x,1/2+y,1/2-z
5 -x,-y,-z
6 x,-y,-1/2+z
7 -1/2-x,-1/2-y,-z
8 -1/2+x,-1/2-y,-1/2+z
_cell_length_a 14.116(2)
_cell_length_b 13.381(2)
_cell_length_c 9.9030(16)
_cell_angle_alpha 90
_cell_angle_beta 98.375(2)
_cell_angle_gamma 90
_cell_formula_units_Z 4
loop_
_atom_type_symbol
_atom_type_radius_bond
C 0.68
H 0.23
N 0.68
O 0.68
S 1.02
Tb 1.94
loop_
_atom_site_label
_atom_site_type_symbol
_atom_site_fract_x
_atom_site_fract_y
_atom_site_fract_z
Tb1 Tb 0.50000 0.068137(13) 0.25000
S1 S 0.48258(5) 0.28406(5) 0.01813(7)
O1 O 0.13199(15) 0.43832(15) -0.0855(2)
O2 O 0.50000 -0.1073(2) 0.25000
H1 H 0.47720 -0.13720 0.31420
O3 O 0.10353(14) 0.51752(16) 0.1023(2)
O4 O 0.55407(16) 0.34708(17) -0.0289(2)
O5 O 0.41825(15) 0.23639(17) -0.0904(2)
O6 O 0.52738(15) 0.21153(15) 0.1204(2)
C1 C 0.15680(19) 0.4677(2) 0.0355(3)
C2 C 0.2570(2) 0.4461(2) 0.1023(3)
C3 C 0.3143(2) 0.3778(2) 0.0450(3)
H2 H 0.28920 0.34170 -0.03220
C4 C 0.40922(19) 0.3638(2) 0.1035(3)
C5 C 0.4484(2) 0.4172(2) 0.2202(3)
C6 C 0.3892(2) 0.4832(2) 0.2768(3)
H3 H 0.41360 0.51860 0.35500
C7 C 0.2947(2) 0.4976(2) 0.2192(3)
H4 H 0.25630 0.54200 0.25930
C8 C 0.7715(3) 0.2796(5) 0.1215(5)
H5 H 0.78030 0.24700 0.20880
H6 H 0.72090 0.32790 0.11820
H7 H 0.82980 0.31270 0.10800
N1 N 0.7471(5) 0.2073(5) 0.0167(8)
H8 H 0.79350 0.16530 -0.00110
H9 H 0.68830 0.18000 0.00870
S1A S 0.51742(5) 0.28406(5) 0.48187(7)
O1A O 0.86801(15) 0.43832(15) 0.5855(2)
O3A O 0.89647(14) 0.51752(16) 0.3977(2)
O4A O 0.44593(16) 0.34708(17) 0.5289(2)
O5A O 0.58175(15) 0.23639(17) 0.5904(2)
O6A O 0.47262(15) 0.21153(15) 0.3796(2)
C1A C 0.84320(19) 0.4677(2) 0.4645(3)
C2A C 0.7430(2) 0.4461(2) 0.3977(3)
C3A C 0.6857(2) 0.3778(2) 0.4550(3)
H2A H 0.71080 0.34170 0.53220
C4A C 0.59078(19) 0.3638(2) 0.3965(3)
C5A C 0.5516(2) 0.4172(2) 0.2798(3)
C6A C 0.6108(2) 0.4832(2) 0.2232(3)
H3A H 0.58640 0.51860 0.14500
C7A C 0.7053(2) 0.4976(2) 0.2808(3)
H4A H 0.74370 0.54200 0.24070
H1A H 0.52280 -0.13720 0.18580
Tb1B Tb 0.00000 0.568137(13) 0.25000
Tb1B* Tb 1.00000 0.568137(13) 0.25000
Tb1F Tb 0.00000 0.431863(13) -0.25000
Tb1F* Tb 1.00000 0.431863(13) 0.75000
O1F O 0.36801(15) 0.06168(15) 0.0855(2)
O1G O 0.63199(15) 0.06168(15) 0.4145(2)
O3B O 0.60353(14) 0.01752(16) 0.1023(2)
O3C O 0.39647(14) 0.01752(16) 0.3977(2)
C8F C 0.7285(3) 0.2204(5) -0.1215(5)
H5F H 0.71970 0.25300 -0.20880
H6F H 0.77910 0.17210 -0.11820
H7F H 0.67020 0.18730 -0.10800
N1F N 0.7529(5) 0.2927(5) -0.0167(8)
H8F H 0.70650 0.33470 0.00110
H9F H 0.81170 0.32000 -0.00870
#END
