
#######################################################################
#
#                 Cambridge Crystallographic Data Centre
#                                CCDC
#
#######################################################################
#
# If this CIF has been generated from an entry in the Cambridge
# Structural Database, then it will include bibliographic, chemical,
# crystal, experimental, refinement or atomic coordinate data resulting
# from the CCDC's data processing and validation procedures.
#
#######################################################################

data_CSD_CIF_YEFVOX
_audit_creation_date 2017-09-15
_audit_creation_method CSD-ConQuest-V1
_database_code_CSD YEFVOX
_database_code_depnum_ccdc_archive 'CCDC 1569727'
_chemical_formula_sum 'C46 H32.68 Cd2 Cl2 N6 O8.34 Ru1'
_chemical_formula_moiety
;
C30 H24 N6 Ru1 2+,n(C16 H8 Cd2 Cl2 O8 2-),0.34(H2 O1)
;
_journal_coden_Cambridge 222
_journal_volume 46
_journal_year 2017
_journal_page_first 12711
_journal_name_full 'Dalton Trans. '
loop_
_publ_author_name
"R.W.Larsen"
"J.M.Mayers"
"L.Wojtas"
_chemical_name_systematic
;
catena-[tris(2,2'-bipyridine)-ruthenium(ii) 
bis(\m-terephthalato)-dichloro-di-cadmium(ii) hydrate]
;
_cell_volume   4242.864
_exptl_crystal_colour 'orange'
_exptl_crystal_density_diffrn 1.878
_exptl_crystal_description 'block'
_diffrn_ambient_temperature 100.0
#These two values have been output from a single CSD field.
_refine_ls_R_factor_gt 0.0247
_refine_ls_wR_factor_gt 0.0247
_symmetry_cell_setting monoclinic
_symmetry_space_group_name_H-M 'C 2/c'
_symmetry_Int_Tables_number 15
loop_
_symmetry_equiv_pos_site_id
_symmetry_equiv_pos_as_xyz
1 x,y,z
2 -x,y,1/2-z
3 1/2+x,1/2+y,z
4 1/2-x,1/2+y,1/2-z
5 -x,-y,-z
6 x,-y,-1/2+z
7 -1/2-x,-1/2-y,-z
8 -1/2+x,-1/2-y,-1/2+z
_cell_length_a 18.4093(5)
_cell_length_b 16.6908(4)
_cell_length_c 14.8012(4)
_cell_angle_alpha 90
_cell_angle_beta 111.1042(8)
_cell_angle_gamma 90
_cell_formula_units_Z 4
loop_
_atom_type_symbol
_atom_type_radius_bond
C 0.68
H 0.23
Cd 1.44
Cl 0.99
N 0.68
O 0.68
Ru 1.46
loop_
_atom_site_label
_atom_site_type_symbol
_atom_site_fract_x
_atom_site_fract_y
_atom_site_fract_z
Cd1 Cd 0.73242(2) 0.66165(2) 0.41514(2)
Cl1 Cl 0.71997(3) 0.64271(3) 0.24746(4)
O1 O 0.61305(10) 0.6478(1) 0.42496(15)
C1 C 0.62470(14) 0.57671(14) 0.45702(17)
O2 O 0.68854(10) 0.54109(10) 0.47291(14)
C2 C 0.55964(14) 0.53597(14) 0.47767(17)
C3 C 0.56904(14) 0.45819(14) 0.51485(18)
H1 H 0.61600 0.42980 0.52450
C4 C 0.50972(14) 0.42239(14) 0.53763(19)
H2 H 0.51620 0.36970 0.56360
O3 O 0.79468(10) 0.69977(10) 0.58633(13)
C5 C 0.86015(14) 0.68222(14) 0.57924(18)
O4 O 0.86448(10) 0.65735(11) 0.50138(13)
C6 C 0.93245(14) 0.68848(14) 0.66743(18)
C7 C 0.92731(14) 0.69211(14) 0.75908(18)
H3 H 0.87780 0.69630 0.76520
C8 C 0.99450(14) 0.68965(15) 0.84139(18)
H4 H 0.99080 0.68880 0.90370
Ru1 Ru 0.50000 0.19758(2) 0.25000
N1 N 0.56682(11) 0.10717(11) 0.22514(15)
C9 C 0.55670(14) 0.07302(15) 0.13912(18)
H5 H 0.51880 0.09480 0.08240
C10 C 0.59953(16) 0.00739(16) 0.1303(2)
H6 H 0.59230 -0.01460 0.06840
C11 C 0.65318(15) -0.02565(15) 0.2132(2)
H7 H 0.68130 -0.07240 0.20910
C12 C 0.66570(14) 0.00952(14) 0.3022(2)
H8 H 0.70280 -0.01220 0.35970
C13 C 0.62279(14) 0.07748(13) 0.30572(18)
C14 C 0.63745(13) 0.12605(14) 0.39395(18)
C15 C 0.69973(15) 0.11284(15) 0.48039(19)
H9 H 0.73360 0.06840 0.48710
C16 C 0.71123(16) 0.16578(16) 0.55625(19)
H10 H 0.75370 0.15840 0.61550
C17 C 0.66049(16) 0.22975(16) 0.54550(19)
H11 H 0.66760 0.26640 0.59710
C18 C 0.59930(15) 0.23909(15) 0.45801(18)
H12 H 0.56430 0.28250 0.45080
N2 N 0.58755(11) 0.18872(12) 0.38270(15)
N3 N 0.44131(11) 0.29316(11) 0.28050(14)
C19 C 0.37914(14) 0.28796(14) 0.30796(18)
H13 H 0.36360 0.23670 0.32230
C20 C 0.33712(14) 0.35467(15) 0.31611(18)
H14 H 0.29410 0.34920 0.33680
C21 C 0.35877(14) 0.42960(14) 0.29360(18)
H15 H 0.32940 0.47590 0.29600
C22 C 0.42396(14) 0.43598(14) 0.26752(18)
H16 H 0.44030 0.48690 0.25320
C23 C 0.46495(13) 0.36734(14) 0.26266(17)
O5 O 0.50000 0.6098(5) 0.25000
O1D O 0.38695(10) 0.3522(1) 0.57504(15)
C1D C 0.37530(14) 0.42329(14) 0.54298(17)
O2D O 0.31146(10) 0.45891(10) 0.52709(14)
C2D C 0.44036(14) 0.46403(14) 0.52233(17)
C3D C 0.43096(14) 0.54181(14) 0.48515(18)
H1D H 0.38400 0.57020 0.47550
C4D C 0.49028(14) 0.57761(14) 0.46237(19)
H2D H 0.48380 0.63030 0.43640
O3A O 1.20532(10) 0.69977(10) 0.91367(13)
C5A C 1.13985(14) 0.68222(14) 0.92076(18)
O4A O 1.13552(10) 0.65735(11) 0.99862(13)
C6A C 1.06755(14) 0.68848(14) 0.83257(18)
C7A C 1.07269(14) 0.69211(14) 0.74092(18)
H3A H 1.12220 0.69630 0.73480
C8A C 1.00550(14) 0.68965(15) 0.65861(18)
H4A H 1.00920 0.68880 0.59630
Cd1A Cd 1.26758(2) 0.66165(2) 1.08486(2)
Cl1A Cl 1.28003(3) 0.64271(3) 1.25254(4)
Cd1D Cd 0.26758(2) 0.33835(2) 0.58486(2)
Cd1F Cd 0.76758(2) 0.83835(2) 0.58486(2)
Cd1G Cd 1.23242(2) 0.83835(2) 0.91514(2)
O1A O 1.38695(10) 0.6478(1) 1.07504(15)
O2A O 1.31146(10) 0.54109(10) 1.02709(14)
O3F O 0.70532(10) 0.80023(10) 0.41367(13)
O3G O 1.29468(10) 0.80023(10) 1.08633(13)
N3A N 0.55869(11) 0.29316(11) 0.21950(14)
C19A C 0.62086(14) 0.28796(14) 0.19204(18)
H13A H 0.63640 0.23670 0.17770
C20A C 0.66288(14) 0.35467(15) 0.18389(18)
H14A H 0.70590 0.34920 0.16320
C21A C 0.64123(14) 0.42960(14) 0.20640(18)
H15A H 0.67060 0.47590 0.20400
C22A C 0.57604(14) 0.43598(14) 0.23248(18)
H16A H 0.55970 0.48690 0.24680
C23A C 0.53505(13) 0.36734(14) 0.23734(17)
N1A N 0.43318(11) 0.10717(11) 0.27486(15)
C9A C 0.44330(14) 0.07302(15) 0.36088(18)
H5A H 0.48120 0.09480 0.41760
C10A C 0.40047(16) 0.00739(16) 0.3697(2)
H6A H 0.40770 -0.01460 0.43160
C11A C 0.34682(15) -0.02565(15) 0.2868(2)
H7A H 0.31870 -0.07240 0.29090
C12A C 0.33430(14) 0.00952(14) 0.1978(2)
H8A H 0.29720 -0.01220 0.14030
C13A C 0.37721(14) 0.07748(13) 0.19428(18)
C14A C 0.36255(13) 0.12605(14) 0.10605(18)
C15A C 0.30027(15) 0.11284(15) 0.01961(19)
H9A H 0.26640 0.06840 0.01290
C16A C 0.28877(16) 0.16578(16) -0.05625(19)
H10A H 0.24630 0.15840 -0.11550
C17A C 0.33951(16) 0.22975(16) -0.04550(19)
H11A H 0.33240 0.26640 -0.09710
C18A C 0.40070(15) 0.23909(15) 0.04199(18)
H12A H 0.43570 0.28250 0.04920
N2A N 0.41245(11) 0.18872(12) 0.11730(15)
#END
