
#######################################################################
#
#                 Cambridge Crystallographic Data Centre
#                                CCDC
#
#######################################################################
#
# If this CIF has been generated from an entry in the Cambridge
# Structural Database, then it will include bibliographic, chemical,
# crystal, experimental, refinement or atomic coordinate data resulting
# from the CCDC's data processing and validation procedures.
#
#######################################################################

data_CSD_CIF_YEGMUV
_audit_creation_date 2017-09-17
_audit_creation_method CSD-ConQuest-V1
_database_code_CSD YEGMUV
_database_code_depnum_ccdc_archive 'CCDC 1555163'
_chemical_formula_sum 'C155 H182 Cd3 N4 O43'
_chemical_formula_moiety
;
(C150 H157 Cd3 N2 O37 1-)n,C3 H7 N1 O1,C2 H8 N1 1+,5(H2 O1)
;
_journal_coden_Cambridge 580
_journal_volume 138
_journal_year 2017
_journal_page_first 287
_journal_name_full 'Polyhedron '
loop_
_publ_author_name
"Ke-Xin Chang"
"Na Zhang"
"Peng Du"
"Ying-Ying Liu"
"Jian-Fang Ma"
_chemical_name_systematic
;
catena-[dimethylammonium 
(\m-2,8,14,20-tetraethyl-4,10,16,22-tetrakis((3-carboxylatophenyl)methoxy)-6,1
2,18,24-tetramethoxycalix(4)resorcinarene)-(\m-2,8,14,20-tetraethyl-4,10,16-tr
is((3-carboxylatophenyl)methoxy)-22-((3-carboxyphenyl)methoxy)-6,12,18,24-tetr
amethoxycalix(4)resorcinarene)-triaqua-bis(N,N-dimethylformamide)-tri-cadmium 
N,N-dimethylformamide solvate pentahydrate]
;
_cell_volume  15304.307
_exptl_crystal_colour 'colorless'
_exptl_crystal_description 'block'
_diffrn_ambient_temperature 293
#These two values have been output from a single CSD field.
_refine_ls_R_factor_gt 0.0952
_refine_ls_wR_factor_gt 0.0952
_symmetry_cell_setting monoclinic
_symmetry_space_group_name_H-M 'P 21/c'
_symmetry_Int_Tables_number 14
loop_
_symmetry_equiv_pos_site_id
_symmetry_equiv_pos_as_xyz
1 x,y,z
2 -x,1/2+y,1/2-z
3 -x,-y,-z
4 x,-1/2-y,-1/2+z
_cell_length_a 41.284(3)
_cell_length_b 15.5070(14)
_cell_length_c 24.1310(19)
_cell_angle_alpha 90
_cell_angle_beta 97.833(8)
_cell_angle_gamma 90
_cell_formula_units_Z 4
loop_
_atom_type_symbol
_atom_type_radius_bond
C 0.68
H 0.23
Cd 1.44
N 0.68
O 0.68
loop_
_atom_site_label
_atom_site_type_symbol
_atom_site_fract_x
_atom_site_fract_y
_atom_site_fract_z
Cd1 Cd 0.80069(2) 0.76712(4) 0.16722(2)
Cd2 Cd 0.74316(2) 0.74872(4) 0.03600(3)
Cd3 Cd 0.24836(2) 0.63310(6) -0.02404(4)
C1 C 0.06217(17) 0.2812(4) -0.0100(3)
C2 C 0.09286(18) 0.3151(5) -0.0116(3)
H1 H 0.10930 0.30700 0.01830
C3 C 0.09891(16) 0.3613(4) -0.0580(3)
C4 C 0.07495(16) 0.3773(4) -0.1028(3)
C5 C 0.04389(16) 0.3417(4) -0.0988(3)
H2 H 0.02720 0.35060 -0.12830
C6 C 0.03703(16) 0.2945(4) -0.0536(3)
C7 C 0.03447(15) 0.4434(4) -0.2305(3)
H3 H 0.03810 0.38710 -0.24150
C8 C 0.00887(16) 0.4905(4) -0.2614(3)
C9 C 0.00372(16) 0.5738(4) -0.2447(3)
C10 C 0.02328(16) 0.6112(4) -0.1983(3)
H4 H 0.01950 0.66710 -0.18690
C11 C 0.04858(15) 0.5615(4) -0.1701(3)
C12 C 0.05417(15) 0.4764(4) -0.1853(3)
C13 C -0.08318(17) 0.3478(4) -0.2606(3)
C14 C -0.04510(16) 0.4317(4) -0.3086(3)
C15 C -0.05214(16) 0.3776(4) -0.2661(3)
H5 H -0.03490 0.36010 -0.23960
C16 C -0.07147(19) 0.4632(5) -0.3457(3)
C17 C -0.10277(18) 0.4345(6) -0.3421(3)
H6 H -0.12020 0.45430 -0.36750
C18 C -0.10839(17) 0.3761(5) -0.3008(3)
C19 C -0.08684(18) 0.5953(5) -0.3926(3)
H7 H -0.07430 0.64590 -0.40000
H8 H -0.09550 0.60480 -0.35780
C20 C -0.03722(17) 0.3720(4) -0.0535(3)
C21 C -0.02499(15) 0.3007(4) -0.0806(3)
C22 C -0.04173(15) 0.2775(4) -0.1321(3)
H9 H -0.03370 0.23160 -0.15100
C23 C -0.07012(17) 0.3191(4) -0.1574(3)
C24 C -0.08163(17) 0.3865(4) -0.1280(3)
C25 C -0.06483(18) 0.4147(4) -0.0773(3)
H10 H -0.07230 0.46240 -0.05950
C26 C -0.1883(2) 0.4593(5) -0.1152(4)
H11 H -0.18380 0.45170 -0.07670
C27 C -0.2201(2) 0.4571(6) -0.1419(4)
C28 C -0.16323(19) 0.4731(5) -0.1469(3)
C29 C -0.1701(2) 0.4873(7) -0.2048(4)
C30 C -0.2027(3) 0.4844(7) -0.2302(5)
H12 H -0.20740 0.49320 -0.26860
C31 C -0.2286(2) 0.4685(7) -0.1990(5)
C32 C -0.2459(3) 0.4353(8) -0.1045(6)
C33 C 0.12033(16) 0.3175(5) 0.2098(3)
C34 C 0.09797(19) 0.3831(5) 0.2163(3)
C35 C 0.0708(2) 0.3953(6) 0.1755(3)
H13 H 0.05670 0.44110 0.17890
C36 C 0.06485(19) 0.3404(5) 0.1305(3)
C37 C 0.08676(19) 0.2745(5) 0.1241(3)
C38 C 0.11404(18) 0.2648(5) 0.1625(3)
H14 H 0.12890 0.22170 0.15710
C39 C -0.0328(2) 0.4648(5) 0.0266(3)
H15 H -0.01950 0.47280 0.06210
H16 H -0.05500 0.45430 0.03240
H17 H -0.03190 0.51560 0.00420
C40 C 0.09350(18) 0.7071(4) -0.0660(3)
C41 C 0.1256(2) 0.6820(5) -0.0687(4)
H18 H 0.13080 0.64810 -0.09800
C42 C 0.14915(19) 0.7090(7) -0.0269(5)
C43 C 0.1436(3) 0.7596(6) 0.0172(4)
C44 C 0.1127(3) 0.7795(7) 0.0201(4)
H19 H 0.10810 0.81160 0.05060
C45 C 0.0867(2) 0.7548(5) -0.0202(4)
C46 C -0.11484(18) 0.5850(5) -0.4390(3)
C47 C -0.1111(2) 0.5379(6) -0.4879(4)
C48 C -0.1364(3) 0.5332(7) -0.5312(4)
H20 H -0.13380 0.50240 -0.56340
C49 C -0.1659(2) 0.5745(7) -0.5268(4)
C50 C -0.14430(18) 0.6229(5) -0.4352(3)
H21 H -0.14720 0.65280 -0.40280
C51 C -0.16972(18) 0.6182(5) -0.4779(3)
C52 C -0.20207(19) 0.6612(5) -0.4733(3)
C53 C 0.00396(15) 0.2512(4) -0.0512(3)
H22 H 0.00110 0.25000 -0.01150
C54 C 0.00468(18) 0.1555(4) -0.0697(3)
H23 H 0.00670 0.15380 -0.10930
H24 H 0.02410 0.12850 -0.04980
C55 C -0.0248(2) 0.1031(5) -0.0598(4)
H25 H -0.02230 0.04490 -0.07220
H26 H -0.04410 0.12790 -0.08040
H27 H -0.02680 0.10310 -0.02060
C56 C -0.0088(2) 0.3660(5) -0.4026(3)
H28 H 0.00290 0.31980 -0.41740
H29 H -0.00750 0.41680 -0.42490
H30 H -0.03130 0.34980 -0.40320
C57 C 0.08301(16) 0.4283(4) -0.1535(3)
H31 H 0.09930 0.47190 -0.13930
C58 C 0.09957(17) 0.3683(4) -0.1930(3)
H32 H 0.11650 0.33460 -0.17100
H33 H 0.08340 0.32860 -0.21150
C59 C 0.1146(2) 0.4196(6) -0.2371(3)
H34 H 0.12470 0.38070 -0.26050
H35 H 0.13080 0.45850 -0.21890
H36 H 0.09780 0.45190 -0.25950
C60 C -0.01031(15) 0.4568(4) -0.3153(3)
H37 H -0.01200 0.50500 -0.34180
C61 C 0.00622(18) 0.3844(5) -0.3425(3)
H38 H 0.00520 0.33240 -0.32050
H39 H 0.02910 0.39880 -0.34210
C62 C -0.08948(16) 0.2908(5) -0.2123(3)
H40 H -0.11250 0.29910 -0.20800
C63 C -0.0859(2) 0.1965(5) -0.2260(3)
H41 H -0.09760 0.18580 -0.26310
H42 H -0.06300 0.18440 -0.22730
C64 C -0.0983(3) 0.1349(7) -0.1856(4)
H43 H -0.09520 0.07670 -0.19750
H44 H -0.12120 0.14510 -0.18470
H45 H -0.08650 0.14350 -0.14900
C65 C 0.42798(16) 0.3829(4) 0.1034(3)
C66 C 0.40400(16) 0.3704(4) 0.0566(3)
C67 C 0.45865(15) 0.3493(4) 0.1017(3)
H46 H 0.47470 0.35890 0.13200
C68 C 0.46681(15) 0.3012(4) 0.0565(3)
C69 C 0.44203(16) 0.2889(4) 0.0111(3)
C70 C 0.45331(15) 0.5650(4) 0.1707(3)
C71 C 0.44600(15) 0.4812(4) 0.1859(3)
C72 C 0.46514(16) 0.4465(4) 0.2332(3)
H47 H 0.46090 0.39040 0.24370
C73 C 0.49046(15) 0.4924(4) 0.2655(3)
C74 C 0.49666(16) 0.5747(4) 0.2473(3)
C75 C 0.47891(15) 0.6116(4) 0.2003(3)
H48 H 0.48400 0.66650 0.18880
C76 C 0.54373(16) 0.4345(4) 0.3145(3)
C77 C 0.55215(16) 0.3815(4) 0.2720(3)
H49 H 0.53550 0.36450 0.24420
C78 C 0.58348(16) 0.3524(4) 0.2682(3)
C79 C 0.60835(17) 0.3782(5) 0.3113(3)
C80 C 0.60151(18) 0.4318(5) 0.3530(3)
H50 H 0.61800 0.44800 0.38140
C81 C 0.56920(17) 0.4627(5) 0.3530(3)
C82 C 0.52875(15) 0.3075(4) 0.0864(3)
C83 C 0.54491(15) 0.2846(4) 0.1383(3)
H51 H 0.53590 0.24040 0.15730
C84 C 0.57342(15) 0.3220(4) 0.1643(3)
C85 C 0.58682(16) 0.3869(4) 0.1349(3)
C86 C 0.57072(16) 0.4157(4) 0.0836(3)
H52 H 0.57920 0.46160 0.06530
C87 C 0.54200(15) 0.3755(4) 0.0602(3)
C88 C 0.35254(19) 0.6976(5) 0.0285(4)
C89 C 0.37840(19) 0.6778(5) 0.0681(4)
H53 H 0.37470 0.64420 0.09850
C90 C 0.3576(2) 0.7464(6) -0.0183(4)
C91 C 0.3890(2) 0.7723(6) -0.0232(4)
H54 H 0.39270 0.80380 -0.05450
C92 C 0.4155(2) 0.7533(5) 0.0169(3)
C93 C 0.40977(17) 0.7056(4) 0.0646(3)
C94 C 0.39376(18) 0.2752(5) -0.1645(3)
H55 H 0.37920 0.23000 -0.16230
C95 C 0.41989(18) 0.2851(5) -0.1235(3)
C96 C 0.44199(19) 0.3529(5) -0.1262(3)
C97 C 0.4363(2) 0.4106(5) -0.1721(4)
H56 H 0.45050 0.45670 -0.17380
C98 C 0.41045(19) 0.4013(5) -0.2140(3)
C99 C 0.38866(18) 0.3329(5) -0.2103(3)
C100 C 0.67153(19) 0.4827(6) 0.2209(3)
C101 C 0.66408(17) 0.5061(5) 0.1654(3)
C102 C 0.6997(2) 0.5110(6) 0.2534(4)
H57 H 0.70350 0.49560 0.29100
C103 C 0.7227(2) 0.5626(5) 0.2308(3)
C104 C 0.71533(17) 0.5865(4) 0.1740(3)
C105 C 0.68616(18) 0.5576(4) 0.1430(3)
H58 H 0.68150 0.57400 0.10570
C106 C -0.02520(17) 0.7054(4) -0.2682(3)
H59 H -0.04360 0.72610 -0.29350
H60 H -0.00580 0.73550 -0.27510
H61 H -0.02900 0.71530 -0.23040
C107 C 0.63319(17) 0.4798(5) 0.1290(3)
H62 H 0.61990 0.53020 0.11810
H63 H 0.63840 0.45160 0.09550
C108 C 0.58353(19) 0.5898(5) 0.4059(3)
H64 H 0.57100 0.64260 0.40720
H65 H 0.59700 0.59540 0.37620
C109 C 0.7497(5) 0.6691(10) -0.0788(9)
C110 C 0.5975(2) 0.5227(6) 0.5035(4)
C111 C 0.60518(18) 0.5777(5) 0.4611(3)
C112 C 0.63420(18) 0.6243(5) 0.4713(3)
H66 H 0.63990 0.66080 0.44360
C113 C 0.6465(2) 0.5636(5) 0.5631(4)
C114 C 0.65473(18) 0.6182(5) 0.5208(3)
C115 C 0.6174(3) 0.5173(6) 0.5527(4)
H67 H 0.61150 0.48160 0.58060
C116 C 0.1498(3) 0.4215(11) -0.0154(5)
H68 H 0.17010 0.44210 -0.02580
H69 H 0.15410 0.37420 0.01030
H70 H 0.13920 0.46710 0.00210
C117 C 0.14927(18) 0.3036(5) 0.2526(3)
C118 C 0.59130(16) 0.2948(4) 0.2212(3)
H71 H 0.61460 0.30310 0.21900
C119 C 0.5874(2) 0.1998(4) 0.2348(3)
H72 H 0.56430 0.18770 0.23490
H73 H 0.59850 0.18860 0.27210
C120 C 0.6007(3) 0.1384(6) 0.1936(4)
H74 H 0.59730 0.07990 0.20420
H75 H 0.62370 0.14840 0.19410
H76 H 0.58960 0.14850 0.15660
C121 C 0.50005(15) 0.2583(4) 0.0563(3)
H77 H 0.50360 0.25740 0.01700
C122 C 0.49872(16) 0.1628(4) 0.0735(3)
H78 H 0.49620 0.16010 0.11280
H79 H 0.47950 0.13670 0.05260
C123 C 0.52837(18) 0.1097(4) 0.0642(3)
H80 H 0.52560 0.05150 0.07650
H81 H 0.54760 0.13420 0.08520
H82 H 0.53060 0.10960 0.02510
C124 C 0.41771(16) 0.4334(4) 0.1526(3)
H83 H 0.40200 0.47730 0.13670
C125 C 0.39946(17) 0.3744(5) 0.1887(3)
H84 H 0.38320 0.34180 0.16440
H85 H 0.41480 0.33360 0.20800
C126 C 0.3826(2) 0.4225(6) 0.2315(4)
H86 H 0.37170 0.38200 0.25270
H87 H 0.36690 0.46190 0.21260
H88 H 0.39860 0.45390 0.25620
C127 C 0.50943(16) 0.4595(4) 0.3196(3)
H89 H 0.51070 0.50730 0.34640
C128 C 0.49147(18) 0.3835(4) 0.3458(3)
H90 H 0.46850 0.39740 0.34480
H91 H 0.49310 0.33140 0.32420
C129 C 0.5067(2) 0.3683(5) 0.4062(3)
H92 H 0.49570 0.32140 0.42170
H93 H 0.50460 0.41950 0.42780
H94 H 0.52950 0.35430 0.40710
C130 C 0.0797(2) 0.2080(5) 0.0774(3)
H95 H 0.09980 0.19780 0.06150
H96 H 0.07370 0.15410 0.09370
C131 C 0.43810(17) 0.6844(5) 0.1091(3)
H97 H 0.45870 0.68970 0.09410
H98 H 0.43850 0.72330 0.14060
C132 C 0.3192(2) 0.6665(7) 0.0369(7)
C133 C 0.42518(18) 0.2176(5) -0.0786(3)
H99 H 0.40470 0.20770 -0.06400
H100 H 0.43150 0.16400 -0.09490
C134 C 0.3597(2) 0.3214(6) -0.2535(4)
C135 C -0.1648(2) 0.3667(9) -0.3393(4)
H101 H -0.18460 0.33870 -0.33250
H102 H -0.15950 0.34960 -0.37530
H103 H -0.16770 0.42810 -0.33860
C136 C 0.41192(17) 0.3256(5) 0.0105(3)
H104 H 0.39650 0.32060 -0.02120
C137 C 0.73774(18) 0.6463(5) 0.1488(4)
C138 C -0.12846(18) 0.4733(5) -0.1189(4)
H105 H -0.12020 0.53180 -0.11510
H106 H -0.12710 0.44790 -0.08190
C139 C 0.68660(19) 0.6661(5) 0.5273(3)
C140 C 0.6637(2) 0.3626(7) 0.3549(3)
H107 H 0.68370 0.33520 0.34850
H108 H 0.65720 0.34150 0.38910
H109 H 0.66700 0.42390 0.35750
C141 C 0.52699(19) 0.7054(5) 0.2709(3)
H110 H 0.54510 0.72570 0.29680
H111 H 0.50770 0.73720 0.27610
H112 H 0.53170 0.71370 0.23330
C142 C 0.3505(2) 0.4128(8) 0.0117(4)
H113 H 0.33100 0.43890 0.02160
H114 H 0.34540 0.35630 -0.00340
H115 H 0.35910 0.44770 -0.01570
C143 C 0.06641(17) 0.6847(5) -0.1115(3)
H116 H 0.04540 0.69240 -0.09830
H117 H 0.06720 0.72220 -0.14350
C144 C 0.17458(9) 0.6861(9) -0.0302(6)
C145 C 0.5373(2) 0.4718(5) -0.0189(3)
H118 H 0.52410 0.48020 -0.05450
H119 H 0.55970 0.46350 -0.02430
H120 H 0.53560 0.52170 0.00410
C146 C 0.7444(5) 0.6910(12) -0.1825(6)
C147 C 0.6985(6) 0.6305(16) -0.1325(11)
C148 C 0.2749(7) 0.680(2) -0.127(2)
C149 C 0.3162(7) 0.747(2) -0.1967(16)
C150 C 0.2614(9) 0.8323(18) -0.170(2)
O1 O -0.02117(11) 0.6167(3) -0.2767(2)
O2 O 0.07020(11) 0.5967(3) -0.12752(19)
O3 O -0.06524(12) 0.5213(4) -0.3863(2)
O4 O 0.81975(15) 0.6444(4) 0.1313(3)
O5 O -0.13902(13) 0.3423(5) -0.2974(2)
O6 O -0.11006(12) 0.4241(3) -0.1530(2)
O7 O -0.02081(12) 0.3919(3) -0.00164(19)
O8 O 0.05488(13) 0.2306(3) 0.0335(2)
O9 O 0.2682(2) 0.4993(6) -0.0337(4)
O10 O 0.12994(12) 0.3943(4) -0.0622(2)
O11 O 0.17189(14) 0.2540(4) 0.2411(2)
O12 O 0.76474(16) 0.8762(4) 0.1742(3)
O13 O 0.15103(12) 0.3369(4) 0.2999(2)
O14 O -0.2400(2) 0.4406(7) -0.0542(4)
O15 O -0.27426(19) 0.4157(7) -0.1327(4)
O16 O -0.22484(14) 0.6598(4) -0.5129(2)
O17 O -0.20617(13) 0.6985(4) -0.4284(2)
O18 O 0.19156(14) 0.6212(5) -0.0597(3)
O19 O 0.20829(17) 0.7184(6) 0.0019(4)
O20 O 0.29531(17) 0.6945(5) 0.0028(4)
O21 O 0.31723(19) 0.6184(8) 0.0782(5)
O22 O 0.33764(16) 0.2712(4) -0.2480(3)
O23 O 0.36113(15) 0.3662(4) -0.2993(2)
H121 H 0.34460 0.35760 -0.32150
O24 O 0.56153(12) 0.5186(4) 0.3939(2)
O25 O 0.52589(11) 0.3974(3) 0.00799(18)
O26 O 0.73512(14) 0.6466(4) 0.0955(2)
O27 O 0.75848(13) 0.6860(4) 0.1806(2)
O28 O 0.37394(12) 0.4059(4) 0.0597(2)
O29 O 0.45031(11) 0.2416(3) -0.03245(19)
O30 O 0.70389(14) 0.6688(4) 0.5752(2)
O31 O 0.61580(12) 0.4222(3) 0.1603(2)
O32 O 0.63877(12) 0.3438(4) 0.3095(2)
O33 O 0.69544(13) 0.7022(4) 0.4863(2)
O34 O 0.52186(12) 0.6166(3) 0.2802(2)
O35 O 0.43332(11) 0.5982(3) 0.12584(19)
O36 O 0.7457(2) 0.6505(5) -0.0322(3)
O37 O 0.2534(3) 0.6799(14) -0.1101(6)
N1 N 0.7394(4) 0.6683(9) -0.1256(7)
N2 N 0.2852(6) 0.7428(14) -0.1701(10)
C151 C -0.1930(9) 0.221(3) -0.1894(9)
C152 C -0.1970(5) 0.0564(9) -0.2420(7)
N3 N -0.2000(7) 0.1366(15) -0.2084(13)
C153 C 0.7529(14) 1.028(2) 0.0613(15)
C154 C 0.7110(7) 1.069(2) -0.0045(16)
C155 C 0.7699(9) 1.115(3) -0.008(2)
O38 O 0.7645(3) 1.0117(7) 0.1033(6)
N4 N 0.7437(4) 1.0623(8) 0.0217(6)
O39 O 0.24473(16) 0.4082(5) -0.3783(3)
O40 O 0.30885(17) 0.3664(6) -0.3771(3)
O41 O 0.69837(17) 0.6541(5) -0.3128(3)
O42 O 0.80709(19) 0.8905(5) -0.1841(3)
O43 O 0.7980(3) 0.4889(6) 0.1491(4)
Cd1A Cd 0.19931(2) 0.26712(4) 0.33278(2)
Cd1C Cd -0.19931(2) 0.73288(4) -0.33278(2)
Cd2C Cd -0.25684(2) 0.75128(4) -0.46400(3)
Cd2C* Cd 0.74316(2) 0.75128(4) 0.53600(3)
Cd3B Cd -0.24836(2) 0.36690(6) 0.02404(4)
O11A O 0.82811(14) 0.7540(4) 0.2589(2)
O13A O 0.84897(12) 0.8369(4) 0.2001(2)
O14B O 0.2400(2) 0.5594(7) 0.0542(4)
O16C O 0.77516(14) 0.8402(4) -0.0129(2)
O17C O 0.79383(13) 0.8015(4) 0.0716(2)
O30C O 0.70389(14) 0.8312(4) 0.0752(2)
O33C O 0.69544(13) 0.7978(4) -0.0137(2)
#END
