
#######################################################################
#
#                 Cambridge Crystallographic Data Centre
#                                CCDC
#
#######################################################################
#
# If this CIF has been generated from an entry in the Cambridge
# Structural Database, then it will include bibliographic, chemical,
# crystal, experimental, refinement or atomic coordinate data resulting
# from the CCDC's data processing and validation procedures.
#
#######################################################################

data_CSD_CIF_YEKCUP
_audit_creation_date 2017-09-19
_audit_creation_method CSD-ConQuest-V1
_database_code_CSD YEKCUP
_database_code_depnum_ccdc_archive 'CCDC 1555699'
_chemical_formula_sum 'C42 H60 Co2 Cu2 Mo10 N12 O47'
_chemical_formula_moiety
;
(C28 H36 Co2 Cu2 Mo10 N8 O42 2-)n,2n(C7 H7 N2 1+),5n(H2 O1)
;
_journal_coden_Cambridge 9
_journal_volume 56
_journal_year 2017
_journal_page_first 11619
_journal_name_full 'Inorg.Chem. '
loop_
_publ_author_name
"Haiyan An"
"Yujiao Hou"
"Lin Wang"
"Yumeng Zhang"
"Wei Yang"
"ShenZhen Chang"
_chemical_name_systematic
;
catena-(bis(benzimidazolium) 
tetrakis(\m-hydroxo)-octadecakis(\m-oxo)-tetra-aqua-tetrakis(benzimidazole)-he
xadecaoxo-di-cobalt-di-copper-deca-molybdenum pentahydrate)
;
_cell_volume   3682.622
_exptl_crystal_colour 'dark green'
_exptl_crystal_density_diffrn 2.425
_exptl_crystal_description 'rectangle'
_diffrn_ambient_temperature 293
#These two values have been output from a single CSD field.
_refine_ls_R_factor_gt 0.0564
_refine_ls_wR_factor_gt 0.0564
_symmetry_cell_setting triclinic
_symmetry_space_group_name_H-M 'P -1'
_symmetry_Int_Tables_number 2
loop_
_symmetry_equiv_pos_site_id
_symmetry_equiv_pos_as_xyz
1 x,y,z
2 -x,-y,-z
_cell_length_a 11.9813(5)
_cell_length_b 12.3330(6)
_cell_length_c 25.7926(12)
_cell_angle_alpha 79.810(3)
_cell_angle_beta 79.066(3)
_cell_angle_gamma 88.911(3)
_cell_formula_units_Z 2
loop_
_atom_type_symbol
_atom_type_radius_bond
C 0.68
H 0.23
Co 1.26
Cu 1.32
Mo 1.54
N 0.68
O 0.68
loop_
_atom_site_label
_atom_site_type_symbol
_atom_site_fract_x
_atom_site_fract_y
_atom_site_fract_z
Mo1 Mo 0.86359(7) 0.26137(6) 0.29029(3)
Mo2 Mo 1.01703(7) 0.22086(7) 0.38434(3)
Mo3 Mo 1.20378(7) 0.40913(7) 0.38738(3)
Mo4 Mo 1.23058(7) 0.63822(6) 0.29511(3)
Mo5 Mo 1.10419(7) 0.64983(6) 0.19124(3)
Mo6 Mo 0.88088(6) 0.61838(6) 0.29352(3)
Mo7 Mo 0.75525(7) 0.65396(6) 0.18751(3)
Mo8 Mo 0.78724(7) 0.46714(7) 0.11027(3)
Mo9 Mo 0.98235(7) 0.27769(7) 0.12429(3)
Mo10 Mo 1.13174(7) 0.27573(6) 0.21857(3)
Co1 Co 1.05678(9) 0.44214(9) 0.28957(5)
Co2 Co 0.93804(10) 0.45883(9) 0.20534(5)
Cu1 Cu 0.83243(13) -0.05578(11) 0.30257(6)
Cu2 Cu 0.46159(10) 0.36394(10) 0.17106(5)
O1 O 0.9719(7) 0.2093(7) 0.4513(3)
O2 O 0.9659(6) 0.1367(6) 0.1427(3)
O3 O 1.0287(6) 0.3007(6) 0.0578(3)
O4 O 0.6123(5) 0.6479(6) 0.1905(3)
O5 O 1.0827(6) 0.7873(5) 0.1902(3)
O6 O 0.8875(6) 0.7587(5) 0.2886(3)
O7 O 0.8230(6) 0.4890(6) 0.0417(3)
O8 O 1.1856(6) 0.7688(5) 0.2985(3)
O9 O 0.9446(5) 0.3034(5) 0.2139(2)
O10 O 1.3756(5) 0.6428(6) 0.2928(3)
O11 O 1.0368(6) 0.0910(5) 0.3725(3)
O12 O 1.1514(6) 0.6391(6) 0.1262(3)
O13 O 0.7274(5) 0.3029(5) 0.2863(3)
O14 O 0.7906(6) 0.7903(5) 0.1778(3)
O15 O 1.2704(5) 0.3137(5) 0.2169(3)
O16 O 0.8695(5) 0.2557(5) 0.3624(3)
O17 O 1.1286(6) 0.1368(5) 0.2308(3)
O18 O 1.3484(5) 0.4021(6) 0.3775(3)
O19 O 0.8387(5) 0.5701(5) 0.3597(3)
O20 O 0.6420(5) 0.4513(6) 0.1253(3)
O21 O 1.1739(5) 0.2625(5) 0.3783(3)
O22 O 0.9650(5) 0.4590(5) 0.1282(2)
O23 O 1.1593(6) 0.3982(6) 0.4541(3)
O24 O 1.1252(5) 0.3000(5) 0.1445(3)
O25 O 1.1813(5) 0.5691(5) 0.3676(3)
O26 O 1.0886(4) 0.4593(5) 0.2144(2)
O27 O 0.8064(5) 0.6192(5) 0.1185(2)
O28 O 1.0279(5) 0.4065(5) 0.3680(2)
O29 O 0.8617(6) 0.1234(5) 0.2885(3)
O30 O 1.2422(5) 0.6338(5) 0.2186(3)
O31 O 0.7445(5) 0.6128(5) 0.2659(2)
O32 O 1.0486(5) 0.5981(5) 0.2825(2)
O33 O 1.0523(5) 0.2876(5) 0.2922(2)
O34 O 1.2139(5) 0.4518(5) 0.2971(2)
O35 O 0.9057(5) 0.4415(5) 0.2804(2)
O36 O 0.9380(5) 0.6140(5) 0.2025(2)
O37 O 0.8259(5) 0.3149(6) 0.1277(3)
O38 O 0.7799(5) 0.4688(5) 0.1977(2)
N1 N 0.8178(9) -0.0946(8) 0.3811(4)
N2 N 0.8519(11) -0.1943(11) 0.4562(5)
H1 H 0.87880 -0.24580 0.47730
N3 N 0.6615(8) -0.0738(8) 0.3060(4)
N4 N 0.5142(8) -0.1698(7) 0.2950(4)
H2 H 0.47700 -0.22320 0.28850
N5 N 0.5150(7) 0.2096(7) 0.1723(4)
N6 N 0.6275(11) 0.0677(9) 0.1844(5)
H3 H 0.68650 0.03140 0.19130
N7 N 0.4240(7) 0.3780(7) 0.0994(3)
N8 N 0.3298(7) 0.4231(7) 0.0332(3)
H4 H 0.27640 0.44880 0.01670
C1 C 0.7611(11) -0.0508(9) 0.4252(5)
C2 C 0.7804(11) -0.1116(11) 0.4716(5)
C3 C 0.7353(14) -0.0896(13) 0.5219(7)
H5 H 0.74990 -0.13380 0.55300
C4 C 0.6666(14) 0.0030(13) 0.5235(6)
H6 H 0.63500 0.02350 0.55600
C5 C 0.6460(14) 0.0646(14) 0.4749(7)
H7 H 0.59690 0.12370 0.47620
C6 C 0.6938(13) 0.0418(12) 0.4268(6)
H8 H 0.68230 0.08680 0.39540
C7 C 0.8718(15) -0.1799(13) 0.4026(6)
H9 H 0.91840 -0.22500 0.38270
C8 C 0.5639(10) -0.0082(10) 0.3131(5)
C9 C 0.4702(11) -0.0696(11) 0.3069(6)
C10 C 0.3540(13) -0.0294(13) 0.3101(7)
H10 H 0.29390 -0.06930 0.30420
C11 C 0.3435(12) 0.0807(15) 0.3236(7)
H11 H 0.27160 0.11140 0.32900
C12 C 0.4326(15) 0.1397(13) 0.3285(6)
H12 H 0.41900 0.21070 0.33550
C13 C 0.5495(11) 0.1008(10) 0.3236(5)
H13 H 0.60950 0.14400 0.32710
C14 C 0.6226(11) -0.1672(11) 0.2957(6)
H14 H 0.66970 -0.22620 0.28950
C15 C 0.4652(10) 0.1157(9) 0.1613(5)
C16 C 0.5369(12) 0.0265(10) 0.1696(5)
C17 C 0.5079(18) -0.0781(12) 0.1648(7)
H15 H 0.55650 -0.13700 0.17020
C18 C 0.405(2) -0.0916(13) 0.1516(8)
H16 H 0.38120 -0.16160 0.14900
C19 C 0.3338(14) -0.0029(14) 0.1420(8)
H17 H 0.26420 -0.01510 0.13290
C20 C 0.3634(12) 0.1035(10) 0.1455(5)
H18 H 0.31710 0.16310 0.13750
C21 C 0.6100(11) 0.1751(10) 0.1866(5)
H19 H 0.66010 0.21980 0.19710
C22 C 0.4869(8) 0.3454(7) 0.0530(4)
C23 C 0.4279(9) 0.3739(8) 0.0109(4)
C24 C 0.4692(11) 0.3576(9) -0.0400(5)
H20 H 0.42830 0.37780 -0.06740
C25 C 0.5754(11) 0.3094(10) -0.0493(5)
H21 H 0.60630 0.29480 -0.08320
C26 C 0.635(1) 0.2831(9) -0.0077(5)
H22 H 0.70690 0.25310 -0.01470
C27 C 0.5920(9) 0.2996(8) 0.0429(4)
H23 H 0.63320 0.28010 0.07020
C28 C 0.3321(9) 0.4238(8) 0.0848(4)
H24 H 0.27510 0.45340 0.10780
O39 O 1.0062(7) -0.0585(7) 0.2907(4)
O40 O 0.8437(7) -0.0297(6) 0.2204(3)
O41 O 0.5018(8) 0.3528(7) 0.2431(3)
O42 O 0.4265(6) 0.5251(6) 0.1744(3)
N9 N 0.9627(11) 0.9698(9) 0.0831(4)
H25 H 0.97910 1.02300 0.09800
N10 N 0.9723(10) 0.8150(8) 0.0537(4)
H26 H 0.99720 0.75270 0.04620
C29 C 0.8722(13) 0.8648(10) 0.0415(5)
C30 C 0.8703(13) 0.9641(9) 0.0597(5)
C31 C 0.7789(15) 1.0344(12) 0.0545(6)
H27 H 0.77490 1.10110 0.06680
C32 C 0.6945(16) 1.0017(14) 0.0305(8)
H28 H 0.63180 1.04630 0.02710
C33 C 0.7025(13) 0.9025(14) 0.0115(7)
H29 H 0.64530 0.88300 -0.00510
C34 C 0.7916(12) 0.8325(12) 0.0163(6)
H30 H 0.79670 0.76680 0.00310
C35 C 1.0228(13) 0.8794(10) 0.0788(5)
H31 H 1.09000 0.86340 0.09150
N11 N 1.6982(8) 0.3850(9) 0.4498(4)
H32 H 1.76930 0.39340 0.44980
N12 N 1.5425(7) 0.3730(8) 0.4219(4)
H33 H 1.49600 0.37210 0.40030
C36 C 1.6139(9) 0.3666(9) 0.4953(4)
C37 C 1.5120(9) 0.3592(9) 0.4775(5)
C38 C 1.4079(10) 0.3483(11) 0.5118(6)
H34 H 1.33990 0.34720 0.49950
C39 C 1.4113(14) 0.3394(13) 0.5641(6)
H35 H 1.34340 0.32780 0.58880
C40 C 1.5077(17) 0.3464(13) 0.5823(6)
H36 H 1.50430 0.34120 0.61900
C41 C 1.6124(13) 0.3612(12) 0.5483(5)
H37 H 1.67890 0.36720 0.56120
C42 C 1.6546(10) 0.3877(10) 0.4073(5)
H38 H 1.69510 0.39820 0.37220
O43 O 0.5497(6) 0.4865(6) 0.3040(3)
H39 H 0.497(5) 0.533(6) 0.302(5)
H40 H 0.610(4) 0.525(6) 0.292(5)
O44 O 0.9017(6) 0.4562(7) 0.4634(3)
O45 O 1.0613(8) 0.6122(7) 0.0395(3)
O46 O 0.9420(9) 0.3283(8) 0.5550(4)
O47 O 0.8725(14) 0.1127(11) 0.5730(7)
Cu1* Cu 0.83243(13) 0.94422(11) 0.30257(6)
Cu2* Cu 1.46159(10) 0.36394(10) 0.17106(5)
O6* O 0.8875(6) -0.2413(5) 0.2886(3)
O15* O 0.2704(5) 0.3137(5) 0.2169(3)
#END
