
#######################################################################
#
#                 Cambridge Crystallographic Data Centre
#                                CCDC
#
#######################################################################
#
# If this CIF has been generated from an entry in the Cambridge
# Structural Database, then it will include bibliographic, chemical,
# crystal, experimental, refinement or atomic coordinate data resulting
# from the CCDC's data processing and validation procedures.
#
#######################################################################

data_CSD_CIF_YEKCOJ
_audit_creation_date 2017-09-19
_audit_creation_method CSD-ConQuest-V1
_database_code_CSD YEKCOJ
_database_code_depnum_ccdc_archive 'CCDC 1555698'
_chemical_formula_sum 'C26 H88 Co2 Cu3 Mo10 N22 O66'
_chemical_formula_moiety
;
(C24 H32 Cu3 N20 O6 6+)n,n(H4 Co2 Mo10 O38 6-),n(C2 H8 N2),22n(H2 O1)
;
_journal_coden_Cambridge 9
_journal_volume 56
_journal_year 2017
_journal_page_first 11619
_journal_name_full 'Inorg.Chem. '
loop_
_publ_author_name
"Haiyan An"
"Yujiao Hou"
"Lin Wang"
"Yumeng Zhang"
"Wei Yang"
"ShenZhen Chang"
_chemical_name_systematic
;
catena-(bis(\m-aqua)-tetrakis(\m-5-(4-pyridyl)-1H-tetrazole)-tetra-aqua-tri-co
pper 
tetrakis(\m-hydroxo)-tetradecakis(\m-oxo)-icosaoxo-di-cobalt-deca-molybdenum 
ethane-1,2-diamine docosahydrate)
;
_cell_volume   8298.967
_exptl_crystal_colour 'dark green'
_exptl_crystal_density_diffrn 2.427
_exptl_crystal_description 'rectangle'
_diffrn_ambient_temperature 293
_refine_special_details
;
N11,OW12,OW15 and N12,OW13,OW14,OW16,OW9 disordered over two sites with 
occupancies 0.6:0.4,0.4,0.5,0.4,0.5; OW10 and OW11 disordered over two sites 
with occupancies 0.5:0.5; OW7 and OW8 disordered over two sites with 
occupancies 0.5:0.5.
;
#These two values have been output from a single CSD field.
_refine_ls_R_factor_gt 0.0851
_refine_ls_wR_factor_gt 0.0851
_symmetry_cell_setting monoclinic
_symmetry_space_group_name_H-M 'C 2/c'
_symmetry_Int_Tables_number 15
loop_
_symmetry_equiv_pos_site_id
_symmetry_equiv_pos_as_xyz
1 x,y,z
2 -x,y,1/2-z
3 1/2+x,1/2+y,z
4 1/2-x,1/2+y,1/2-z
5 -x,-y,-z
6 x,-y,-1/2+z
7 -1/2-x,-1/2-y,-z
8 -1/2+x,-1/2-y,-1/2+z
_cell_length_a 28.550(3)
_cell_length_b 14.3054(16)
_cell_length_c 21.376(2)
_cell_angle_alpha 90
_cell_angle_beta 108.087(2)
_cell_angle_gamma 90
_cell_formula_units_Z 4
loop_
_atom_type_symbol
_atom_type_radius_bond
C 0.68
H 0.23
Co 1.26
Cu 1.32
Mo 1.54
N 0.68
O 0.68
loop_
_atom_site_label
_atom_site_type_symbol
_atom_site_fract_x
_atom_site_fract_y
_atom_site_fract_z
Mo1 Mo 0.00411(4) 0.95625(8) 0.32931(5)
Mo2 Mo 0.12137(4) 0.94812(9) 0.34105(6)
Mo3 Mo 0.16820(4) 1.11220(9) 0.26981(6)
Mo4 Mo 0.09537(5) 1.27900(9) 0.18684(7)
Mo5 Mo -0.02321(5) 1.26828(9) 0.16721(7)
Co1 Co -0.04983(6) 1.11291(12) 0.24365(9)
O1 O 0.0101(3) 1.1119(6) 0.3115(5)
O2 O 0.0931(4) 1.3959(8) 0.2020(7)
O3 O 0.1231(4) 1.2714(9) 0.1277(6)
O4 O 0.0279(4) 1.2583(8) 0.1296(5)
O5 O 0.0460(3) 1.2462(6) 0.2547(5)
O6 O -0.0258(5) 1.3873(9) 0.1722(7)
O7 O -0.0739(4) 1.2370(9) 0.1039(6)
O8 O 0.1500(3) 0.9830(7) 0.2745(5)
O9 O 0.0700(3) 0.9693(7) 0.3839(4)
O10 O 0.1488(4) 1.2418(7) 0.2627(5)
O11 O 0.1703(4) 0.9592(9) 0.4099(5)
O12 O 0.1920(3) 1.1027(7) 0.2064(5)
O13 O -0.0306(4) 0.9827(7) 0.3805(5)
O14 O 0.0903(3) 1.1233(7) 0.1986(4)
O15 O 0.2175(4) 1.1220(8) 0.3403(5)
O16 O 0.1145(4) 0.8316(8) 0.3245(5)
O17 O 0.1119(3) 1.1040(7) 0.3262(4)
O18 O 0.0009(4) 0.8387(7) 0.3210(5)
O19 O 0.0471(3) 0.9796(6) 0.2581(4)
Cu1 Cu 0.18518(6) 0.60165(12) 0.36823(9)
Cu2 Cu 0.25000 0.75000 0.50000
N1 N 0.2220(4) 0.7189(8) 0.3563(6)
N2 N 0.2475(4) 0.7710(7) 0.4071(5)
N3 N 0.2657(4) 0.8444(8) 0.3848(5)
N4 N 0.2247(4) 0.7554(8) 0.3019(5)
H1 H 0.21200 0.73390 0.26270
N5 N 0.2880(4) 1.0211(8) 0.1889(6)
N6 N 0.1757(4) 0.7354(8) 0.4688(5)
N7 N 0.1523(4) 0.6750(8) 0.4227(5)
N8 N 0.1052(4) 0.6757(8) 0.4169(5)
H2 H 0.08230 0.64320 0.39010
N9 N 0.1436(4) 0.7753(8) 0.4948(5)
N10 N -0.0357(5) 0.8081(10) 0.4859(6)
C1 C 0.2511(5) 0.8332(9) 0.3194(6)
C2 C 0.2635(5) 0.8984(10) 0.2725(7)
C3 C 0.2868(5) 0.9805(10) 0.2963(7)
H3 H 0.29450 0.99580 0.34060
C4 C 0.2986(5) 1.0400(11) 0.2527(8)
H4 H 0.31470 1.09570 0.26860
C5 C 0.2636(5) 0.9409(10) 0.1670(8)
H5 H 0.25520 0.92760 0.12230
C6 C 0.2508(5) 0.8786(10) 0.2064(7)
H6 H 0.23390 0.82410 0.18930
C7 C 0.1001(5) 0.7376(10) 0.4613(7)
C8 C 0.0534(5) 0.7610(9) 0.4711(6)
C9 C 0.0124(6) 0.7025(12) 0.4496(8)
H7 H 0.01500 0.64580 0.42970
C10 C -0.0311(6) 0.7277(13) 0.4576(8)
H8 H -0.05810 0.68800 0.44310
C11 C 0.0029(6) 0.8643(12) 0.5098(8)
H9 H -0.00090 0.91940 0.53080
C12 C 0.0480(6) 0.8427(12) 0.5039(8)
H10 H 0.07480 0.88200 0.52160
O20 O 0.2491(4) 0.5836(7) 0.4667(5)
H11 H 0.254(6) 0.642(2) 0.471(6)
H12 H 0.255(6) 0.564(8) 0.506(2)
O21 O 0.1396(5) 0.5007(9) 0.3721(7)
O22 O 0.1151(9) 0.6650(19) 0.2625(12)
H13 H 0.13(1) 0.68(3) 0.302(6)
H14 H 0.086(5) 0.65(3) 0.263(14)
C13 C 0.0153(11) 0.604(2) 0.2820(14)
N11 N 0.0472(7) 0.5260(13) 0.2654(10)
O23 O 0.1691(4) 1.0673(8) 0.0734(5)
O24 O 0.1426(9) 1.7031(14) 0.1446(10)
H15 H 0.127(10) 1.753(12) 0.147(14)
H16 H 0.147(11) 1.71(2) 0.107(7)
O25 O -0.1851(8) 1.183(2) 0.0138(13)
H17 H -0.158(6) 1.16(2) 0.015(15)
H18 H -0.204(9) 1.18(3) -0.026(6)
O26 O 0.1680(8) 0.3273(10) 0.3812(10)
H19 H 0.157(10) 0.303(14) 0.343(5)
H20 H 0.181(10) 0.282(11) 0.406(9)
O27 O 0.1253(5) 0.8887(11) 0.1529(7)
O28 O 0.2348(11) 0.429(2) 0.5317(16)
H21 H 0.226(10) 0.375(4) 0.54(2)
H22 H 0.213(7) 0.465(7) 0.538(16)
O29 O 0.1504(15) 1.684(3) 0.0181(19)
O30 O 0.0573(19) 1.528(3) -0.020(2)
O31 O 0.1371(8) 1.4351(18) 0.0588(10)
O32 O -0.1091(5) 1.0755(9) 0.0014(6)
N12? N 0.0506(11) 0.693(2) 0.2614(15)
O33? O 0.1923(13) 1.659(2) 0.0730(16)
O34? O 0.0851(10) 0.5897(17) 0.1726(12)
O35? O 0.0922(11) 1.5373(17) -0.0440(14)
O36? O 0.1571(11) 1.490(2) 0.0160(12)
O37? O -0.0132(12) 0.480(2) 0.4238(18)
O38? O -0.1096(8) 1.1900(15) -0.0057(10)
Mo1A Mo -0.00411(4) 0.95625(8) 0.17069(5)
Mo2A Mo -0.12137(4) 0.94812(9) 0.15895(6)
Mo3A Mo -0.16820(4) 1.11220(9) 0.23019(6)
Mo4A Mo -0.09537(5) 1.27900(9) 0.31316(7)
Mo5A Mo 0.02321(5) 1.26828(9) 0.33279(7)
Co1A Co 0.04983(6) 1.11291(12) 0.25635(9)
O1A O -0.0101(3) 1.1119(6) 0.1885(5)
O2A O -0.0931(4) 1.3959(8) 0.2980(7)
O3A O -0.1231(4) 1.2714(9) 0.3723(6)
O4A O -0.0279(4) 1.2583(8) 0.3704(5)
O5A O -0.0460(3) 1.2462(6) 0.2453(5)
O6A O 0.0258(5) 1.3873(9) 0.3278(7)
O7A O 0.0739(4) 1.2370(9) 0.3961(6)
O8A O -0.1500(3) 0.9830(7) 0.2255(5)
O9A O -0.0700(3) 0.9693(7) 0.1161(4)
O10A O -0.1488(4) 1.2418(7) 0.2373(5)
O11A O -0.1703(4) 0.9592(9) 0.0901(5)
O12A O -0.1920(3) 1.1027(7) 0.2936(5)
O13A O 0.0306(4) 0.9827(7) 0.1195(5)
O14A O -0.0903(3) 1.1233(7) 0.3014(4)
O15A O -0.2175(4) 1.1220(8) 0.1597(5)
O16A O -0.1145(4) 0.8316(8) 0.1755(5)
O17A O -0.1119(3) 1.1040(7) 0.1738(4)
O18A O -0.0009(4) 0.8387(7) 0.1790(5)
O19A O -0.0471(3) 0.9796(6) 0.2419(4)
Cu1F Cu 0.31482(6) 0.89835(12) 0.63177(9)
N1F N 0.2780(4) 0.7811(8) 0.6437(6)
N2F N 0.2525(4) 0.7290(7) 0.5929(5)
N3F N 0.2343(4) 0.6556(8) 0.6152(5)
N4F N 0.2753(4) 0.7446(8) 0.6981(5)
H1F H 0.28800 0.76610 0.73730
N5F N 0.2120(4) 0.4789(8) 0.8111(6)
N6F N 0.3243(4) 0.7646(8) 0.5312(5)
N7F N 0.3477(4) 0.8250(8) 0.5773(5)
N8F N 0.3948(4) 0.8243(8) 0.5831(5)
H2F H 0.41770 0.85680 0.60990
N9F N 0.3564(4) 0.7247(8) 0.5052(5)
N10F N 0.5357(5) 0.6919(10) 0.5141(6)
C1F C 0.2489(5) 0.6668(9) 0.6806(6)
C2F C 0.2365(5) 0.6016(10) 0.7275(7)
C3F C 0.2132(5) 0.5195(10) 0.7037(7)
H3F H 0.20550 0.50420 0.65940
C4F C 0.2014(5) 0.4600(11) 0.7473(8)
H4F H 0.18530 0.40430 0.73140
C5F C 0.2364(5) 0.5591(10) 0.8330(8)
H5F H 0.24480 0.57240 0.87770
C6F C 0.2492(5) 0.6214(10) 0.7936(7)
H6F H 0.26610 0.67590 0.81070
C7F C 0.3999(5) 0.7624(10) 0.5387(7)
C8F C 0.4466(5) 0.7390(9) 0.5289(6)
C9F C 0.4876(6) 0.7975(12) 0.5504(8)
H7F H 0.48500 0.85420 0.57030
C10F C 0.5311(6) 0.7723(13) 0.5424(8)
H8F H 0.55810 0.81200 0.55690
C11F C 0.4971(6) 0.6357(12) 0.4902(8)
H9F H 0.50090 0.58060 0.46920
C12F C 0.4520(6) 0.6573(12) 0.4961(8)
H10F H 0.42520 0.61800 0.47840
O20F O 0.2509(4) 0.9164(7) 0.5333(5)
H11F H 0.246(6) 0.858(2) 0.529(6)
H12F H 0.245(6) 0.936(8) 0.494(2)
O21F O 0.3604(5) 0.9993(9) 0.6279(7)
O22F O 0.3849(9) 0.8350(19) 0.7375(12)
H13F H 0.37(1) 0.82(3) 0.698(6)
H14F H 0.414(5) 0.85(3) 0.737(14)
Cu1C Cu 0.31482(6) 1.10165(12) 0.13177(9)
Cu1E Cu 0.18518(6) 0.39835(12) 0.86823(9)
N5C N 0.2120(4) 0.5211(8) 0.3111(6)
N5E N 0.2880(4) 0.9789(8) 0.6889(6)
C13A C -0.0153(11) 0.604(2) 0.2180(14)
N11A N -0.0472(7) 0.5260(13) 0.2346(10)
#END
