
#######################################################################
#
#                 Cambridge Crystallographic Data Centre
#                                CCDC
#
#######################################################################
#
# If this CIF has been generated from an entry in the Cambridge
# Structural Database, then it will include bibliographic, chemical,
# crystal, experimental, refinement or atomic coordinate data resulting
# from the CCDC's data processing and validation procedures.
#
#######################################################################

data_CSD_CIF_YEKFUS
_audit_creation_date 2017-09-19
_audit_creation_method CSD-ConQuest-V1
_database_code_CSD YEKFUS
_database_code_depnum_ccdc_archive 'CCDC 1575239'
_chemical_formula_sum 'C37 H18 As1 F12 Hg3 I1'
_chemical_formula_moiety
;
(C18 F12 Hg3 I1 1-)n,C19 H18 As1 1+
;
_journal_coden_Cambridge 1078
_journal_year 2017
_journal_name_full 'CSD Communication(Private Communication) '
loop_
_publ_author_name
"B.W.Skelton"
"G.B.Deacon"
"A.H.White"
_chemical_name_systematic
;
catena-(methyl(triphenyl)arsanium 
(\m-iodo)-tris(\m-3,4,5,6-tetrafluoro-1,2-phenylene)-tri-mercury(ii))
;
_cell_volume   3879.479
_exptl_crystal_colour 'colorless'
_exptl_crystal_density_diffrn 2.558
_exptl_special_details
;
Absolute configuration
Isomorphous with the [MePPh3]+ analogue JUGSAF

;
_exptl_crystal_description 'block'
_diffrn_ambient_temperature 293
#These two values have been output from a single CSD field.
_refine_ls_R_factor_gt 0.0294
_refine_ls_wR_factor_gt 0.0294
_symmetry_cell_setting orthorhombic
_symmetry_space_group_name_H-M 'P 21 21 21'
_symmetry_Int_Tables_number 19
loop_
_symmetry_equiv_pos_site_id
_symmetry_equiv_pos_as_xyz
1 x,y,z
2 1/2-x,-y,1/2+z
3 1/2+x,1/2-y,-z
4 -x,1/2+y,1/2-z
_cell_length_a 10.453(2)
_cell_length_b 14.713(3)
_cell_length_c 25.225(5)
_cell_angle_alpha 90
_cell_angle_beta 90
_cell_angle_gamma 90
_cell_formula_units_Z 4
loop_
_atom_type_symbol
_atom_type_radius_bond
C 0.68
H 0.23
As 1.21
F 0.64
Hg 1.32
I 1.40
loop_
_atom_site_label
_atom_site_type_symbol
_atom_site_fract_x
_atom_site_fract_y
_atom_site_fract_z
Hg1 Hg 0.29490(4) 0.37282(2) 0.53109(2)
Hg2 Hg 0.18930(3) 0.14309(2) 0.54579(2)
Hg3 Hg 0.27244(3) 0.22734(2) 0.41880(2)
I1 I 0.00415(5) 0.30982(4) 0.48779(2)
C1 C 0.2542(8) 0.3183(6) 0.6059(3)
C2 C 0.2119(8) 0.2275(6) 0.6114(3)
C3 C 0.1920(8) 0.1955(7) 0.6619(3)
F1 F 0.1559(6) 0.1074(4) 0.6697(2)
C4 C 0.2111(11) 0.2479(7) 0.7068(4)
F2 F 0.1904(7) 0.2138(5) 0.7553(2)
C5 C 0.2521(10) 0.3360(8) 0.7002(4)
F3 F 0.2760(8) 0.3863(5) 0.7438(2)
C6 C 0.276(1) 0.3684(7) 0.6503(4)
F4 F 0.3231(7) 0.4538(4) 0.6473(2)
C7 C 0.1785(8) 0.0604(6) 0.4792(3)
C8 C 0.2065(9) 0.0953(5) 0.4277(3)
C9 C 0.1939(10) 0.0367(7) 0.3855(4)
F5 F 0.2207(7) 0.0657(4) 0.3359(2)
C10 C 0.1564(12) -0.0521(8) 0.3911(4)
F6 F 0.1449(9) -0.1060(5) 0.3473(3)
C11 C 0.1332(12) -0.0860(7) 0.4404(4)
F7 F 0.0997(9) -0.1743(4) 0.4464(3)
C12 C 0.1446(9) -0.0301(6) 0.4828(4)
F8 F 0.1260(5) -0.0672(4) 0.5313(2)
C13 C 0.3361(7) 0.3615(6) 0.4119(3)
C14 C 0.3351(8) 0.4215(6) 0.4550(4)
C15 C 0.3650(9) 0.5092(7) 0.4457(4)
F9 F 0.3623(6) 0.5710(4) 0.4857(3)
C16 C 0.3988(9) 0.5423(7) 0.3965(5)
F10 F 0.4290(6) 0.6312(4) 0.3889(3)
C17 C 0.3997(9) 0.4837(8) 0.3546(4)
F11 F 0.4324(6) 0.5138(5) 0.3058(2)
C18 C 0.3695(8) 0.3941(7) 0.3629(4)
F12 F 0.3747(5) 0.3375(4) 0.3199(2)
As1 As 0.73497(9) 0.25316(6) 0.80694(4)
C19 C 0.8536(10) 0.3348(8) 0.7747(4)
H1 H 0.80830 0.38560 0.76000
H2 H 0.89900 0.30380 0.74690
H3 H 0.91340 0.35590 0.80080
C20 C 0.6378(8) 0.1942(6) 0.7536(3)
C21 C 0.5932(8) 0.2446(7) 0.7117(3)
H4 H 0.60950 0.30670 0.71030
C22 C 0.5251(9) 0.2043(9) 0.6719(4)
H5 H 0.49500 0.23810 0.64340
C23 C 0.5025(12) 0.1137(9) 0.6751(5)
H6 H 0.45770 0.08550 0.64790
C24 C 0.5431(13) 0.0628(8) 0.7168(5)
H7 H 0.52400 0.00110 0.71850
C25 C 0.6131(10) 0.1036(6) 0.7567(4)
H8 H 0.64300 0.06960 0.78520
C26 C 0.6221(10) 0.3209(7) 0.8504(4)
C27 C 0.6709(11) 0.3831(9) 0.8853(4)
H9 H 0.75850 0.39360 0.88740
C28 C 0.5848(13) 0.4306(9) 0.9180(5)
H10 H 0.61610 0.47130 0.94300
C29 C 0.4558(12) 0.4179(9) 0.9135(5)
H11 H 0.40000 0.45100 0.93480
C30 C 0.4090(11) 0.3571(9) 0.8781(5)
H12 H 0.32120 0.34800 0.87540
C31 C 0.4907(10) 0.3089(7) 0.8463(4)
H13 H 0.45800 0.26790 0.82180
C32 C 0.8292(9) 0.1673(7) 0.8468(3)
C33 C 0.9162(11) 0.1136(8) 0.8203(4)
H14 H 0.92630 0.11870 0.78380
C34 C 0.9881(12) 0.0519(10) 0.8490(5)
H15 H 1.04860 0.01620 0.83170
C35 C 0.9714(12) 0.0427(10) 0.9021(5)
H16 H 1.02090 0.00120 0.92090
C36 C 0.8831(12) 0.0936(10) 0.9282(5)
H17 H 0.87140 0.08710 0.96460
C37 C 0.8114(10) 0.1550(8) 0.8998(4)
H18 H 0.74920 0.18890 0.91720
Hg1B Hg -0.20510(4) 0.12718(2) 0.46891(2)
Hg2B Hg -0.31070(3) 0.35691(2) 0.45421(2)
Hg3B Hg -0.22756(3) 0.27266(2) 0.58120(2)
I1B I 0.50415(5) 0.19018(4) 0.51221(2)
#END
