
#######################################################################
#
#                 Cambridge Crystallographic Data Centre
#                                CCDC
#
#######################################################################
#
# If this CIF has been generated from an entry in the Cambridge
# Structural Database, then it will include bibliographic, chemical,
# crystal, experimental, refinement or atomic coordinate data resulting
# from the CCDC's data processing and validation procedures.
#
#######################################################################

data_CSD_CIF_YEKMOS01
_audit_creation_date 2013-02-01
_audit_creation_method CSD-ConQuest-V1
_database_code_CSD YEKMOS01
_database_code_depnum_ccdc_archive 'CCDC 869967'
_chemical_formula_sum 'C17 H21 Cr1 Mn1 N2 O14'
_chemical_formula_moiety
;
(C9 H15 N2 O1 1+)n,n(C8 H6 Cr1 Mn1 O13 1-)
;
_journal_coden_Cambridge 179
_journal_volume 51
_journal_year 2012
_journal_page_first 8356
_journal_name_full 'Angew.Chem.,Int.Ed. '
loop_
_publ_author_name
"E.Pardo"
"C.Train"
"Hongbo Liu"
"L.-M.Chamoreau"
"B.Dkhil"
"K.Boubekeur"
"F.Lloret"
"K.Nakatani"
"H.Tokoro"
"S.Ohkoshi"
"M.Verdaguer"
_chemical_name_systematic
;
catena-(1-(hydroxyethyl)-4-(N,N-dimethylamino)pyridinium 
tris(\m~2~-oxalato)-(ethanol)-chromium-manganese)
;
_cell_volume   2249.850
_exptl_crystal_colour 'pink'
_exptl_crystal_density_diffrn 1.725
_exptl_crystal_description 'stick'
_diffrn_ambient_temperature 110
#These two values have been output from a single CSD field.
_refine_ls_R_factor_gt 0.0208
_refine_ls_wR_factor_gt 0.0208
_symmetry_cell_setting orthorhombic
_symmetry_space_group_name_H-M 'P n a 21'
_symmetry_Int_Tables_number 33
loop_
_symmetry_equiv_pos_site_id
_symmetry_equiv_pos_as_xyz
1 x,y,z
2 -x,-y,1/2+z
3 1/2-x,1/2+y,1/2+z
4 1/2+x,1/2-y,z
_cell_length_a 8.6979(2)
_cell_length_b 16.2111(4)
_cell_length_c 15.9561(4)
_cell_angle_alpha 90
_cell_angle_beta 90
_cell_angle_gamma 90
_cell_formula_units_Z 4
loop_
_atom_type_symbol
_atom_type_radius_bond
C 0.68
H 0.23
Cr 1.39
Mn 1.61
N 0.68
O 0.68
loop_
_atom_site_label
_atom_site_type_symbol
_atom_site_fract_x
_atom_site_fract_y
_atom_site_fract_z
Cr1 Cr 0.173011(17) 0.022825(9) 0.450366(10)
Mn1 Mn 0.333408(16) -0.10714(1) 0.758231(10)
O1 O 0.26922(10) -0.07688(5) 0.49693(5)
O2 O 0.12228(9) 0.04539(5) 0.56917(5)
O3 O 0.25542(9) -0.00373(5) 0.33706(5)
O4 O 0.36440(9) 0.08693(5) 0.46074(5)
O5 O -0.02818(9) -0.02873(5) 0.42765(5)
O6 O 0.07208(9) 0.12094(5) 0.40160(5)
O7 O 0.3449(1) -0.12557(6) 0.62139(5)
O8 O 0.18674(9) -0.00322(5) 0.69649(5)
O9 O 0.45718(9) 0.02953(5) 0.25638(5)
O10 O 0.54364(9) 0.13977(5) 0.37566(5)
O11 O -0.12251(9) 0.15000(5) 0.31633(5)
O12 O -0.25380(9) 0.00152(5) 0.36728(5)
O13 O 0.38663(11) -0.24041(5) 0.74104(6)
H1 H 0.438(2) -0.2633(11) 0.7736(11)
C1 C 0.27596(12) -0.07589(6) 0.57678(7)
C2 C 0.18724(11) -0.00521(6) 0.61952(7)
C3 C 0.37951(11) 0.03469(6) 0.32127(6)
C4 C 0.43594(11) 0.09302(6) 0.39152(6)
C5 C -0.12083(12) 0.01817(6) 0.38752(6)
C6 C -0.05437(11) 0.10390(6) 0.36589(6)
C7 C 0.28182(16) -0.29652(8) 0.70149(10)
H2 H 0.21530 -0.26520 0.66250
H3 H 0.21490 -0.32130 0.74490
C8 C 0.3594(2) -0.36421(11) 0.65406(12)
H4 H 0.43060 -0.34040 0.61310
H5 H 0.28190 -0.39730 0.62480
H6 H 0.41650 -0.39940 0.69320
C9 C 0.19837(14) 0.78553(7) 0.17085(7)
O14 O 0.24970(14) 0.67141(7) 0.44690(8)
H7 H 0.239(3) 0.6233(17) 0.4365(17)
C10 C 0.12183(15) 0.67007(7) 0.25669(8)
H8 H 0.12070 0.61230 0.26650
C11 C 0.19190(16) 0.69961(7) 0.18620(8)
H9 H 0.23650 0.66230 0.14730
N1 N 0.05396(12) 0.72086(6) 0.31301(6)
C12 C 0.05696(15) 0.80331(7) 0.29988(8)
H10 H 0.00930 0.83860 0.33970
C13 C 0.12604(15) 0.83735(7) 0.23153(8)
H11 H 0.12610 0.89550 0.22420
C14 C -0.01019(17) 0.68738(8) 0.39138(8)
H12 H -0.02970 0.62760 0.38470
H13 H -0.10950 0.71470 0.40370
C15 C 0.09953(17) 0.70107(8) 0.46347(8)
H14 H 0.10500 0.76080 0.47580
H15 H 0.05880 0.67300 0.51390
N2 N 0.26869(13) 0.81601(6) 0.10318(6)
C16 C 0.33366(18) 0.76024(8) 0.04045(8)
H16 H 0.41060 0.72460 0.06690
H17 H 0.38240 0.79260 -0.00410
H18 H 0.25160 0.72620 0.01650
C17 C 0.28014(17) 0.90503(7) 0.08988(8)
H19 H 0.17690 0.92830 0.08330
H20 H 0.34040 0.91590 0.03920
H21 H 0.33080 0.93060 0.13820
Mn1A Mn -0.333408(16) 0.10714(1) 0.258231(10)
Mn1A* Mn 0.666592(16) 0.10714(1) 0.258231(10)
O9A O 0.54282(9) -0.02953(5) 0.75638(5)
O10A O 0.45636(9) -0.13977(5) 0.87566(5)
O11A O 0.12251(9) -0.15000(5) 0.81633(5)
#END
