
#######################################################################
#
#                 Cambridge Crystallographic Data Centre
#                                CCDC
#
#######################################################################
#
# If this CIF has been generated from an entry in the Cambridge
# Structural Database, then it will include bibliographic, chemical,
# crystal, experimental, refinement or atomic coordinate data resulting
# from the CCDC's data processing and validation procedures.
#
#######################################################################

data_CSD_CIF_YELKOS
_audit_creation_date 2018-01-25
_audit_creation_method CSD-ConQuest-V1
_database_code_CSD YELKOS
_database_code_depnum_ccdc_archive 'CCDC 1577843'
_chemical_formula_sum 'C48 H42 Ca1 N2 O22'
_chemical_formula_moiety
;
(C32 H20 Ca1 O18 2-)n,C16 H14 N2 2+,4(H2 O1)
;
_journal_coden_Cambridge 1267
_journal_volume 232
_journal_year 2017
_journal_page_first 971
_journal_name_full 'Z.Kristallogr.-New Cryst.Struct. '
loop_
_publ_author_name
"Dong-Mi Li"
"Shi-Hui Li"
_chemical_name_systematic
;
catena-[4,4'-(1,4-phenylene)bis(pyridin-1-ium) 
diaqua-bis(\m~2~-3',5'-dicarboxybiphenyl-2,5-dicarboxylato)-calcium(ii) 
tetrahydrate]
;
_cell_volume   1132.759
_exptl_crystal_colour 'colorless'
_exptl_crystal_density_diffrn 1.523
_exptl_crystal_description 'block'
_diffrn_ambient_temperature 293
#These two values have been output from a single CSD field.
_refine_ls_R_factor_gt 0.0403
_refine_ls_wR_factor_gt 0.0403
_symmetry_cell_setting triclinic
_symmetry_space_group_name_H-M 'P -1'
_symmetry_Int_Tables_number 2
loop_
_symmetry_equiv_pos_site_id
_symmetry_equiv_pos_as_xyz
1 x,y,z
2 -x,-y,-z
_cell_length_a 7.2548(2)
_cell_length_b 11.7056(4)
_cell_length_c 14.6024(4)
_cell_angle_alpha 72.687(3)
_cell_angle_beta 82.667(2)
_cell_angle_gamma 73.303(3)
_cell_formula_units_Z 1
loop_
_atom_type_symbol
_atom_type_radius_bond
C 0.68
H 0.23
Ca 1.76
N 0.68
O 0.68
loop_
_atom_site_label
_atom_site_type_symbol
_atom_site_fract_x
_atom_site_fract_y
_atom_site_fract_z
Ca1 Ca 1.00000 0.00000 0.00000
O1 O 0.8053(3) -0.13190(19) 0.01694(13)
H1 H 0.69330 -0.14360 0.05460
H2 H 0.76560 -0.13470 -0.04150
O2 O 0.6941(2) 0.12995(13) 0.22316(9)
H3 H 0.77100 0.06130 0.23320
O3 O 0.7544(2) 0.12476(14) 0.07079(10)
O4 O 0.3233(2) 0.44671(14) -0.17993(10)
O5 O 0.1378(2) 0.61116(13) -0.13538(10)
H4 H 0.09940 0.63170 -0.18990
O6 O 0.0341(2) 0.27860(12) 0.29264(9)
O7 O 0.1961(2) 0.26086(13) 0.41699(10)
O8 O -0.0899(2) 0.91697(13) 0.28802(10)
O9 O 0.1001(2) 0.90262(12) 0.15765(9)
C1 C 0.6625(3) 0.17342(17) 0.13190(14)
C2 C 0.5037(2) 0.28865(16) 0.10597(13)
C3 C 0.4078(2) 0.34745(16) 0.17488(13)
H5 H 0.44180 0.31340 0.23850
C4 C 0.2618(2) 0.45656(16) 0.14985(12)
C5 C 0.2147(2) 0.50630(17) 0.05356(13)
H6 H 0.11870 0.58000 0.03550
C6 C 0.3090(2) 0.44742(17) -0.01549(13)
C7 C 0.4535(3) 0.33835(17) 0.01096(13)
H7 H 0.51680 0.29840 -0.03500
C8 C 0.1599(2) 0.52225(16) 0.22214(12)
C9 C 0.0900(3) 0.46126(16) 0.31216(12)
C10 C -0.0050(3) 0.52967(17) 0.37542(13)
H8 H -0.05230 0.48920 0.43470
C11 C -0.0309(3) 0.65637(17) 0.35245(13)
H9 H -0.09530 0.70050 0.39570
C12 C 0.0403(3) 0.71765(17) 0.26370(13)
C13 C 0.1340(3) 0.64953(16) 0.20039(13)
H10 H 0.18110 0.69050 0.14130
C14 C 0.1083(3) 0.32310(17) 0.34219(13)
C15 C 0.0143(3) 0.85504(17) 0.23481(13)
C16 C 0.2583(3) 0.50040(18) -0.11864(13)
N1 N 0.2888(3) 1.01816(15) 0.45096(12)
H11 H 0.25320 1.09720 0.44240
C17 C 0.3978(3) 0.76490(18) 0.47631(14)
C18 C 0.2905(3) 0.81753(19) 0.54730(15)
H12 H 0.25480 0.76650 0.60490
C19 C 0.2377(3) 0.94354(19) 0.53270(15)
H13 H 0.16550 0.97740 0.58030
C20 C 0.3946(3) 0.9715(2) 0.38244(15)
H14 H 0.43060 1.02500 0.32630
C21 C 0.4512(3) 0.84654(19) 0.39320(15)
H15 H 0.52580 0.81590 0.34470
C22 C 0.4509(3) 0.62914(18) 0.48863(14)
C23 C 0.4801(3) 0.58160(19) 0.40948(15)
H16 H 0.46650 0.63600 0.34810
C24 C 0.4716(3) 0.54417(19) 0.57991(15)
H17 H 0.45230 0.57320 0.63410
O10 O 0.4591(3) 0.18976(17) 0.83379(12)
H18 H 0.41190 0.27400 0.83050
H19 H 0.59780 0.15850 0.83990
O11 O 0.2174(3) 0.11264(16) 0.17397(13)
H20 H 0.16830 0.04450 0.19370
H21 H 0.14530 0.15910 0.21460
O2A O 0.3059(2) 0.87005(13) -0.22316(9)
H3A H 0.22900 0.93870 -0.23320
O3A O 0.2456(2) 0.87524(14) -0.07079(10)
O4A O 0.6767(2) 0.55329(14) 0.17993(10)
O5A O 0.8622(2) 0.38884(13) 0.13538(10)
H4A H 0.90060 0.36830 0.18990
O6A O 0.9659(2) 0.72140(12) -0.29264(9)
O7A O 0.8039(2) 0.73914(13) -0.41699(10)
O8A O 1.0899(2) 0.08303(13) -0.28802(10)
O9A O 0.8999(2) 0.09738(12) -0.15765(9)
C1A C 0.3375(3) 0.82658(17) -0.13190(14)
C2A C 0.4963(2) 0.71135(16) -0.10597(13)
C3A C 0.5922(2) 0.65255(16) -0.17488(13)
H5A H 0.55820 0.68660 -0.23850
C4A C 0.7382(2) 0.54344(16) -0.14985(12)
C5A C 0.7853(2) 0.49370(17) -0.05356(13)
H6A H 0.88130 0.42000 -0.03550
C6A C 0.6910(2) 0.55258(17) 0.01549(13)
C7A C 0.5465(3) 0.66165(17) -0.01096(13)
H7A H 0.48320 0.70160 0.03500
C8A C 0.8401(2) 0.47775(16) -0.22214(12)
C9A C 0.9100(3) 0.53874(16) -0.31216(12)
C10A C 1.0050(3) 0.47033(17) -0.37542(13)
H8A H 1.05230 0.51080 -0.43470
C11A C 1.0309(3) 0.34363(17) -0.35245(13)
H9A H 1.09530 0.29950 -0.39570
C12A C 0.9597(3) 0.28235(17) -0.26370(13)
C13A C 0.8660(3) 0.35047(16) -0.20039(13)
H10A H 0.81890 0.30950 -0.14130
C14A C 0.8917(3) 0.67690(17) -0.34219(13)
C15A C 0.9857(3) 0.14496(17) -0.23481(13)
C16A C 0.7417(3) 0.49960(18) 0.11864(13)
O1A O 1.1947(3) 0.13190(19) -0.01694(13)
H1A H 1.30670 0.14360 -0.05460
H2A H 1.23440 0.13470 0.04150
Ca1* Ca 0.00000 1.00000 0.00000
O3A* O 1.2456(2) -0.12476(14) -0.07079(10)
O9* O 1.1001(2) -0.09738(12) 0.15765(9)
N1A N 0.7112(3) -0.01816(15) 0.54904(12)
H11A H 0.74680 -0.09720 0.55760
C17A C 0.6022(3) 0.23510(18) 0.52369(14)
C18A C 0.7095(3) 0.18247(19) 0.45270(15)
H12A H 0.74520 0.23350 0.39510
C19A C 0.7623(3) 0.05646(19) 0.46730(15)
H13A H 0.83450 0.02260 0.41970
C20A C 0.6054(3) 0.0285(2) 0.61756(15)
H14A H 0.56940 -0.02500 0.67370
C21A C 0.5488(3) 0.15346(19) 0.60680(15)
H15A H 0.47420 0.18410 0.65530
C22A C 0.5491(3) 0.37086(18) 0.51137(14)
C23A C 0.5199(3) 0.41840(19) 0.59052(15)
H16A H 0.53350 0.36400 0.65190
C24A C 0.5284(3) 0.45583(19) 0.42009(15)
H17A H 0.54770 0.42680 0.36590
#END
