
#######################################################################
#
#                 Cambridge Crystallographic Data Centre
#                                CCDC
#
#######################################################################
#
# If this CIF has been generated from an entry in the Cambridge
# Structural Database, then it will include bibliographic, chemical,
# crystal, experimental, refinement or atomic coordinate data resulting
# from the CCDC's data processing and validation procedures.
#
#######################################################################

data_CSD_CIF_YEMHUU
_audit_creation_date 2006-12-18
_audit_creation_method CSD-ConQuest-V1
_database_code_CSD YEMHUU
_database_code_depnum_ccdc_archive 'CCDC 603914'
_chemical_formula_sum 'C48 H78 Cd6 Na12 O75'
_chemical_formula_moiety
;
(C48 H24 Cd6 O48 12-)n,12n(Na1 1+),27n(H2 O1)
;
_journal_coden_Cambridge 182
_journal_year 2006
_journal_page_first 3166
_journal_name_full 'Chem.Commun. '
loop_
_publ_author_name
"Jing Wang"
"Yue-Hua Zhang"
"Ming-Liang Tong"
_chemical_name_systematic
;
catena-(Dodeca-sodium 
tetrakis(\m~6~-cyclohexane-1,2,3,4,5,6-hexacarboxylato)-hexa-cadmium(ii) 
hydrate)
;
_cell_volume  12217.899
_exptl_crystal_colour 'colorless'
_exptl_crystal_density_diffrn 2.288
_exptl_crystal_description 'prism'
_diffrn_ambient_temperature 123
_refine_special_details
;
A number of water molecules are disordered.

;
#These two values have been output from a single CSD field.
_refine_ls_R_factor_gt 0.0434
_refine_ls_wR_factor_gt 0.0434
_symmetry_cell_setting rhombohedral
_symmetry_space_group_name_H-M 'R -3 c'
_symmetry_Int_Tables_number 167
loop_
_symmetry_equiv_pos_site_id
_symmetry_equiv_pos_as_xyz
1 x,y,z
2 -y,x-y,z
3 -x+y,-x,z
4 y,x,1/2-z
5 2/3+x,1/3+y,1/3+z
6 2/3-y,1/3+x-y,1/3+z
7 2/3-x+y,1/3-x,1/3+z
8 2/3+y,1/3+x,5/6-z
9 1/3+x,2/3+y,2/3+z
10 1/3+y,2/3+x,1/6-z
11 x-y,-y,1/2-z
12 -x,-x+y,1/2-z
13 1/3-y,2/3+x-y,2/3+z
14 1/3-x+y,2/3-x,2/3+z
15 1/3+x-y,2/3-y,1/6-z
16 1/3-x,2/3-x+y,1/6-z
17 2/3+x-y,1/3-y,5/6-z
18 2/3-x,1/3-x+y,5/6-z
19 -x,-y,-z
20 y,-x+y,-z
21 x-y,x,-z
22 -y,-x,-1/2+z
23 -2/3-x,-1/3-y,-1/3-z
24 -2/3+y,-1/3-x+y,-1/3-z
25 -2/3+x-y,-1/3+x,-1/3-z
26 -2/3-y,-1/3-x,-5/6+z
27 -1/3-x,-2/3-y,-2/3-z
28 -1/3-y,-2/3-x,-1/6+z
29 -x+y,y,-1/2+z
30 x,x-y,-1/2+z
31 -1/3+y,-2/3-x+y,-2/3-z
32 -1/3+x-y,-2/3+x,-2/3-z
33 -1/3-x+y,-2/3+y,-1/6+z
34 -1/3+x,-2/3+x-y,-1/6+z
35 -2/3-x+y,-1/3+y,-5/6+z
36 -2/3+x,-1/3+x-y,-5/6+z
_cell_length_a 26.010(1)
_cell_length_b 26.010(1)
_cell_length_c 20.8538(16)
_cell_angle_alpha 90
_cell_angle_beta 90
_cell_angle_gamma 120
_cell_formula_units_Z 6
loop_
_atom_type_symbol
_atom_type_radius_bond
C 0.68
H 0.23
Cd 1.64
Na 0.97
O 0.68
loop_
_atom_site_label
_atom_site_type_symbol
_atom_site_fract_x
_atom_site_fract_y
_atom_site_fract_z
Cd1 Cd 0.751816(14) 0.915572(13) -0.054146(14)
Na1 Na 0.8332(1) 1.00433(11) 0.11123(12)
Na2 Na 0.66670 0.83822(9) 0.08330
Na3 Na 0.8833(6) 0.8961(5) 0.1688(5)
Na4 Na 0.8219(4) 1.0988(4) 0.2078(6)
O1 O 0.71700(16) 0.97417(15) -0.01688(17)
O2 O 0.73364(15) 0.94128(15) 0.0734(2)
O3 O 0.82196(15) 1.08215(15) 0.0675(2)
O4 O 0.82103(14) 1.16044(14) 0.03071(15)
O5 O 0.76720(16) 1.12988(19) 0.17415(17)
O6 O 0.69325(16) 1.14611(17) 0.18825(16)
O7 O 0.8669(2) 0.9326(2) -0.0812(2)
O8 O 0.8347(2) 0.9514(2) 0.0070(2)
C1 C 0.70117(18) 1.01250(18) 0.0818(2)
H1 H 0.71690 1.01700 0.12640
C2 C 0.72623(18) 1.07427(18) 0.0525(2)
H2 H 0.71280 1.06850 0.00680
C3 C 0.70076(17) 1.10993(17) 0.08524(19)
H3 H 0.71480 1.14720 0.05980
C4 C 0.71931(19) 0.97363(19) 0.0436(2)
C5 C 0.79412(19) 1.10833(19) 0.0514(2)
C6 C 0.72191(19) 1.12876(18) 0.1542(2)
C7 C 0.93500(17) 0.97339(16) 0.0102(2)
H4 H 0.92920 0.97100 0.05780
C8 C 0.87411(17) 0.95105(16) -0.0243(2)
O9 O 0.7571(2) 0.8391(2) 0.0841(2)
O10 O 0.8084(3) 0.9252(3) 0.1826(3)
O11? O 0.8273(3) 1.0620(3) 0.2041(3)
O12? O 0.8967(8) 0.8924(8) 0.2905(9)
O13? O 0.9675(10) 0.9917(14) 0.1817(10)
O14 O 0.7163(3) 1.00000 0.25000
Cd1O Cd 0.581517(14) 0.830423(13) 0.220813(14)
Cd1T Cd 0.836244(14) 0.751816(13) 0.054146(14)
Cd1AA Cd 0.751095(14) 0.581517(13) -0.220813(14)
Cd1M Cd 0.497089(14) 0.914851(13) -0.387479(14)
Cd1G Cd 0.582239(14) 1.085149(13) -0.112521(14)
Cd1S Cd 0.915572(14) 1.163756(13) 0.054146(14)
Cd1E Cd 0.751095(14) 1.169577(13) 0.279187(14)
Cd1Y Cd 0.417761(14) 0.914851(13) 0.112521(14)
Cd1A Cd 1.084428(14) 0.836244(13) -0.054146(14)
Cd1R Cd 1.248184(14) 1.084428(13) 0.054146(14)
Cd1B Cd 1.163756(14) 1.248184(13) -0.054146(14)
Cd1V Cd 0.581517(14) 0.751095(13) -0.279187(14)
Cd1HA Cd 0.497089(14) 0.582239(13) 0.112521(14)
Cd1P Cd 0.502911(14) 0.417761(13) -0.112521(14)
Cd1J Cd 0.836244(14) 1.084428(13) -0.445854(14)
Cd1FA Cd 0.830423(14) 1.248905(13) -0.220813(14)
O1O O 0.616333(160) 0.923837(150) 0.183547(170)
O1T O 0.74283(16) 0.71700(15) 0.01688(17)
O1AA O 0.692497(160) 0.616333(150) -0.183547(170)
O1M O 0.590503(160) 0.949667(150) -0.350213(170)
O1G O 0.640837(160) 1.050333(150) -0.149787(170)
O2O O 0.599693(150) 0.874307(150) 0.093267(200)
O2T O 0.79236(15) 0.73364(15) -0.0734(2)
O2AA O 0.725387(150) 0.599693(150) -0.093267(200)
O2M O 0.540973(150) 0.933027(150) -0.259933(200)
O2G O 0.607947(150) 1.066973(150) -0.240067(200)
O3O O 0.511373(150) 0.926857(150) 0.099167(200)
O3T O 0.73981(15) 0.82196(15) -0.0675(2)
O3AA O 0.584517(150) 0.511373(150) -0.099167(200)
O3M O 0.593523(150) 0.844707(150) -0.265833(200)
O3G O 0.748817(150) 1.155293(150) -0.234167(200)
O3HA O 0.593523(150) 0.748817(150) 0.234167(200)
O3A O 0.91785(15) 0.73981(15) 0.0675(2)
O3Q O 0.844707(150) 0.593523(150) -0.234167(200)
O3W O 0.415483(150) 0.926857(150) -0.400833(200)
O3GA O 0.488627(150) 1.073143(150) -0.099167(200)
O4O O 0.512303(140) 1.006077(140) 0.135957(150)
O4T O 0.66059(14) 0.82103(14) -0.03071(15)
O4AA O 0.506227(140) 0.512303(140) -0.135957(150)
O4M O 0.672743(140) 0.845637(140) -0.302623(150)
O4G O 0.827107(140) 1.154363(140) -0.197377(150)
O4HA O 0.672743(140) 0.827107(140) 0.197377(150)
O4A O 0.83956(14) 0.66059(14) 0.03071(15)
O4Q O 0.845637(140) 0.672743(140) -0.197377(150)
O4W O 0.493773(140) 1.006077(140) -0.364043(150)
O4GA O 0.487697(140) 0.993923(140) -0.135957(150)
O5O O 0.566133(160) 1.029347(190) -0.007483(170)
O5T O 0.63732(16) 0.76720(19) -0.17415(17)
O5AA O 0.536787(160) 0.566133(190) 0.007483(170)
O5M O 0.696013(160) 0.899467(190) -0.159183(170)
O5G O 0.796547(160) 1.100533(190) -0.340817(170)
O5J O 0.63732(16) 0.87012(19) 0.32585(17)
O5DA O 0.796547(160) 0.696013(190) 0.159183(170)
O5CA O 0.76720(16) 0.63732(19) -0.32585(17)
O5E O 0.536787(160) 0.970653(190) -0.492517(170)
O6O O 0.640083(160) 1.119527(170) -0.021583(160)
O6T O 0.54714(16) 0.69325(17) -0.18825(16)
O6AA O 0.520557(160) 0.640083(170) 0.021583(160)
O6M O 0.786193(160) 0.973417(170) -0.145083(160)
O6G O 0.812777(160) 1.026583(170) -0.354917(160)
O6J O 0.54714(16) 0.85389(17) 0.31175(16)
O6DA O 0.812777(160) 0.786193(170) 0.145083(160)
O6CA O 0.69325(16) 0.54714(17) -0.31175(16)
O6E O 0.520557(160) 0.880473(170) -0.478417(160)
O7T O 0.9343(2) 0.8669(2) 0.0812(2)
O7A O 1.0674(2) 0.9343(2) -0.0812(2)
O7R O 1.1331(2) 1.0674(2) 0.0812(2)
O7B O 1.0657(2) 1.1331(2) -0.0812(2)
O7S O 0.9326(2) 1.0657(2) 0.0812(2)
O8T O 0.8833(2) 0.8347(2) -0.0070(2)
O8A O 1.0486(2) 0.8833(2) 0.0070(2)
O8R O 1.1653(2) 1.0486(2) -0.0070(2)
O8B O 1.1167(2) 1.1653(2) 0.0070(2)
O8S O 0.9514(2) 1.1167(2) -0.0070(2)
O8O O 0.498633(200) 0.783367(200) 0.159667(200)
O8AA O 0.715267(200) 0.498633(200) -0.159667(200)
O8M O 0.450033(200) 0.831967(200) -0.326333(200)
O8G O 0.618067(200) 1.168033(200) -0.173667(200)
C1O C 0.632163(180) 0.977997(180) 0.084867(200)
C1T C 0.68867(18) 0.70117(18) -0.0818(2)
C1AA C 0.654167(180) 0.632163(180) -0.084867(200)
C1M C 0.644663(180) 0.965497(180) -0.251533(200)
C1G C 0.679167(180) 1.034503(180) -0.248467(200)
H1O H 0.61643 0.96677 0.04027
H1T H 0.69990 0.71690 -0.12640
H1AA H 0.64967 0.61643 -0.04027
H1M H 0.63343 0.94977 -0.20693
H1G H 0.68367 1.05023 -0.29307
C2O C 0.607103(180) 1.014707(180) 0.114167(200)
C2T C 0.65196(18) 0.72623(18) -0.0525(2)
C2AA C 0.592397(180) 0.607103(180) -0.114167(200)
C2M C 0.681373(180) 0.940437(180) -0.280833(200)
C2G C 0.740937(180) 1.059563(180) -0.219167(200)
H2O H 0.62053 1.02237 0.15987
H2T H 0.64430 0.71280 -0.00680
H2AA H 0.59817 0.62053 -0.15987
H2M H 0.68903 0.95387 -0.32653
H2G H 0.73517 1.04613 -0.17347
C3O C 0.632573(170) 1.075837(170) 0.081427(190)
C3T C 0.59083(17) 0.70076(17) -0.08524(19)
C3AA C 0.556737(170) 0.632573(170) -0.081427(190)
C3M C 0.742503(170) 0.965907(170) -0.248093(190)
C3G C 0.776597(170) 1.034093(170) -0.251907(190)
H3O H 0.61853 1.09907 0.10687
H3T H 0.56760 0.71480 -0.05980
H3AA H 0.51947 0.61853 -0.10687
H3M H 0.76573 0.95187 -0.27353
H3G H 0.81387 1.04813 -0.22647
C4O C 0.614023(190) 0.920987(190) 0.123067(200)
C4T C 0.74568(19) 0.71931(19) -0.0436(2)
C4AA C 0.693037(190) 0.614023(190) -0.123067(200)
C4M C 0.587653(190) 0.947357(190) -0.289733(200)
C4G C 0.640297(190) 1.052643(190) -0.210267(200)
C5O C 0.539213(190) 0.980877(190) 0.115267(200)
C5T C 0.68579(19) 0.79412(19) -0.0514(2)
C5AA C 0.558337(190) 0.539213(190) -0.115267(200)
C5M C 0.647543(190) 0.872547(190) -0.281933(200)
C5G C 0.774997(190) 1.127453(190) -0.218067(200)
C6O C 0.611423(190) 1.073517(180) 0.012467(200)
C6T C 0.59315(19) 0.72191(18) -0.1542(2)
C6AA C 0.537907(190) 0.611423(180) -0.012467(200)
C6M C 0.740183(190) 0.944757(180) -0.179133(200)
C6G C 0.795427(190) 1.055243(180) -0.320867(200)
C7S C 0.97339(17) 1.03839(16) -0.0102(2)
C7B C 1.03839(17) 1.06500(16) 0.0102(2)
C7R C 1.06500(17) 1.02661(16) -0.0102(2)
C7A C 1.02661(17) 0.96161(16) 0.0102(2)
C7T C 0.96161(17) 0.93500(16) -0.0102(2)
H4T H 0.95820 0.92920 -0.05780
H4A H 1.02900 0.95820 0.05780
H4R H 1.07080 1.02900 -0.05780
H4B H 1.04180 1.07080 0.05780
H4S H 0.97100 1.04180 -0.05780
C8T C 0.92306(17) 0.87411(16) 0.0243(2)
C8A C 1.04895(17) 0.92306(16) -0.0243(2)
C8R C 1.12589(17) 1.04895(16) 0.0243(2)
C8B C 1.07694(17) 1.12589(16) -0.0243(2)
C8S C 0.95105(17) 1.07694(16) 0.0243(2)
#END
