
#######################################################################
#
#                 Cambridge Crystallographic Data Centre
#                                CCDC
#
#######################################################################
#
# If this CIF has been generated from an entry in the Cambridge
# Structural Database, then it will include bibliographic, chemical,
# crystal, experimental, refinement or atomic coordinate data resulting
# from the CCDC's data processing and validation procedures.
#
#######################################################################

data_CSD_CIF_YENROB
_audit_creation_date 2018-01-26
_audit_creation_method CSD-ConQuest-V1
_database_code_CSD YENROB
_database_code_depnum_ccdc_archive 'CCDC 1560348'
_chemical_formula_sum 'C30 H25 Mo12 N12 O40 P1 Zn1'
_chemical_formula_moiety
;
(C30 H25 N12 Zn1 3+)n,n(Mo12 O40 P1 3-)
;
_journal_coden_Cambridge 208
_journal_volume 258
_journal_year 2018
_journal_page_first 170
_journal_name_full 'J.Solid State Chem. '
loop_
_publ_author_name
"Zhuanfang Zhang"
"Huiyuan Ma"
"Haijun Pang"
"Chunjing Zhang"
"Dongfeng Chai"
"Yan Hou"
_chemical_name_systematic
;
catena-((\m-1,3,5-tris(imidazolyl)benzene)-(1,3-bis(imidazolyl)-5-(imidazol-3-
ium-1-yl)benzene)-zinc(ii) 
(\m-phosphato)-tetracosakis(\m-oxo)-dodecaoxo-dodeca-molybdenum)
;
_cell_volume   6145.884
_exptl_crystal_colour 'yellow'
_exptl_crystal_density_diffrn 2.637
_exptl_crystal_description 'block'
_diffrn_ambient_temperature 296
#These two values have been output from a single CSD field.
_refine_ls_R_factor_gt 0.0737
_refine_ls_wR_factor_gt 0.0737
_symmetry_cell_setting monoclinic
_symmetry_space_group_name_H-M 'P 21/n'
_symmetry_Int_Tables_number 14
loop_
_symmetry_equiv_pos_site_id
_symmetry_equiv_pos_as_xyz
1 x,y,z
2 1/2-x,1/2+y,1/2-z
3 -x,-y,-z
4 -1/2+x,-1/2-y,-1/2+z
_cell_length_a 12.099(5)
_cell_length_b 22.497(5)
_cell_length_c 22.589(5)
_cell_angle_alpha 90
_cell_angle_beta 91.680(5)
_cell_angle_gamma 90
_cell_formula_units_Z 4
loop_
_atom_type_symbol
_atom_type_radius_bond
C 0.68
H 0.23
Mo 1.54
N 0.68
O 0.68
P 1.05
Zn 1.22
loop_
_atom_site_label
_atom_site_type_symbol
_atom_site_fract_x
_atom_site_fract_y
_atom_site_fract_z
Zn1 Zn 0.17421(15) 0.46626(8) 0.84345(9)
N1 N 0.2859(12) 0.0764(6) 0.7978(5)
C1 C 0.9187(17) 0.5287(9) 0.9435(11)
H1 H 0.88150 0.55840 0.96360
N2 N 0.1861(11) 0.2822(6) 0.8204(6)
C2 C 0.0588(16) 0.1463(8) 0.8758(8)
N3 N -0.0424(16) 0.1314(7) 0.9070(8)
C3 C 0.2175(16) 0.3610(8) 0.7703(8)
H2 H 0.24130 0.38650 0.74080
N4 N 1.0497(10) 0.4773(6) 0.8961(6)
C4 C 1.0218(15) 0.5313(11) 0.9168(10)
H3 H 1.06470 0.56540 0.91380
N5 N 0.1843(10) 0.3796(6) 0.8244(6)
C5 C 0.3974(15) 0.0724(8) 0.8024(9)
H4 H 0.44420 0.09370 0.82790
N6 N 0.3156(11) 0.4922(6) 0.8823(6)
C6 C 0.3907(14) 0.4545(9) 0.9049(8)
H5 H 0.37760 0.41420 0.91050
N7 N 0.6529(13) 0.3044(7) 0.9985(8)
C7 C 0.4266(16) 0.0312(8) 0.7627(8)
H6 H 0.49870 0.01870 0.75680
N8 N -0.146(3) 0.0913(11) 0.9742(12)
C8 C 0.3721(16) 0.5477(8) 0.8835(8)
H7 H 0.34210 0.58360 0.87050
C9 C 0.4742(15) 0.5408(8) 0.9060(9)
H8 H 0.52670 0.57050 0.91200
N9 N 0.4874(10) 0.4812(6) 0.9186(5)
C10 C 0.2403(14) 0.1789(7) 0.8156(6)
H9 H 0.30470 0.19010 0.79710
N10 N 0.601(4) 0.2130(11) 1.0096(16)
C11 C 0.5806(13) 0.4499(8) 0.9357(8)
N11 N 0.3375(12) 0.0107(6) 0.7328(6)
C12 C 0.1673(15) 0.3315(8) 0.8525(8)
H10 H 0.14410 0.33050 0.89130
N12 N 0.8849(11) 0.4670(7) 0.9316(7)
C13 C 0.6880(15) 0.4745(8) 0.9279(7)
H11 H 0.69610 0.51250 0.91230
C14 C 0.5716(13) 0.3929(7) 0.9596(7)
H12 H 0.50210 0.37650 0.96530
C15 C -0.144(2) 0.1441(13) 0.8953(17)
H13 H -0.16860 0.16900 0.86490
C16 C -0.042(2) 0.1013(9) 0.9601(11)
H14 H 0.02020 0.09000 0.98230
C17 C 0.2121(17) 0.3031(8) 0.7645(8)
H15 H 0.22320 0.28080 0.73050
C18 C 0.7799(14) 0.4408(9) 0.9441(8)
C19 C 0.6637(14) 0.3614(8) 0.9745(7)
C20 C 0.1234(15) 0.1025(8) 0.8546(8)
H16 H 0.10680 0.06250 0.85990
C21 C 0.0749(16) 0.2056(9) 0.8650(8)
H17 H 0.02560 0.23430 0.87760
C22 C 0.677(3) 0.2839(12) 1.0485(15)
H18 H 0.72060 0.30450 1.07640
C23 C 0.7701(15) 0.3855(9) 0.9676(7)
H19 H 0.83270 0.36390 0.97890
C24 C 0.2172(16) 0.1212(8) 0.8242(8)
C25 C -0.207(3) 0.1170(14) 0.9321(19)
H20 H -0.28370 0.11600 0.92920
C26 C 0.2501(15) 0.0388(7) 0.7558(8)
H21 H 0.17660 0.03280 0.74430
C27 C 0.1683(14) 0.2204(7) 0.8343(7)
C28 C 0.9594(15) 0.4486(9) 0.8982(9)
H22 H 0.94830 0.41460 0.87540
C29 C 0.623(5) 0.2598(14) 0.9741(14)
H23 H 0.61470 0.25750 0.93310
C30 C 0.638(2) 0.2318(13) 1.0583(12)
H24 H 0.63640 0.21220 1.09450
P1 P 0.6775(4) 0.27293(19) 0.66008(19)
O1 O 0.7012(11) 0.4025(6) 0.5417(5)
Mo1 Mo 0.51885(14) 0.23725(8) 0.53169(7)
O2 O 0.8138(11) 0.4327(5) 0.6413(6)
Mo2 Mo 0.41072(15) 0.33189(8) 0.63040(8)
O3 O 0.8065(12) 0.3395(7) 0.4538(6)
Mo3 Mo 0.94071(15) 0.20705(9) 0.68523(10)
O4 O 0.4687(10) 0.2165(6) 0.4653(5)
Mo4 Mo 0.91164(16) 0.36724(9) 0.65039(9)
O5 O 0.4369(8) 0.1818(4) 0.5788(4)
Mo5 Mo 0.58826(19) 0.22361(10) 0.79974(8)
O6 O 0.7492(10) 0.1072(5) 0.6182(6)
Mo6 Mo 0.77015(17) 0.32872(9) 0.52379(8)
O7 O 0.7015(12) 0.0496(6) 0.7170(8)
Mo7 Mo 0.43456(14) 0.18489(7) 0.66303(7)
O8 O 0.6713(11) 0.1630(5) 0.7637(6)
Mo8 Mo 0.81959(19) 0.30868(10) 0.79402(9)
O9 O 0.7254(12) 0.2568(6) 0.8336(5)
Mo9 Mo 0.78899(16) 0.17086(9) 0.56191(10)
O10 O 0.7101(12) 0.3697(6) 0.8057(6)
Mo10 Mo 0.56857(19) 0.36993(9) 0.76781(9)
O11 O 0.6339(11) 0.4135(5) 0.7022(6)
Mo11 Mo 0.65750(17) 0.42444(8) 0.62125(10)
O12 O 0.8914(11) 0.2464(6) 0.7565(6)
Mo12 Mo 0.70931(16) 0.11966(9) 0.69522(11)
O13 O 1.0707(11) 0.1895(7) 0.7028(8)
O14 O 0.4183(9) 0.2967(5) 0.5524(5)
O15 O 0.5198(10) 0.3850(5) 0.6062(5)
O16 O 0.9277(9) 0.1763(6) 0.6100(6)
O17 O 0.5623(9) 0.1367(5) 0.6689(6)
O18 O 0.5370(14) 0.1891(7) 0.8585(6)
O19 O 0.3343(9) 0.1367(5) 0.6758(5)
O20 O 0.5628(8) 0.2623(5) 0.6327(4)
O21 O 0.6240(9) 0.2949(5) 0.5136(5)
O22 O 0.8999(10) 0.3569(6) 0.5653(5)
O23 O 0.4761(9) 0.2106(5) 0.7422(5)
O24 O 0.3508(9) 0.2571(5) 0.6549(5)
O25 O 0.9553(10) 0.2852(5) 0.6564(6)
O26 O 0.5065(13) 0.4235(7) 0.8021(7)
O27 O 0.2945(11) 0.3720(5) 0.6225(6)
O28 O 0.9108(13) 0.3254(7) 0.8470(6)
O29 O 0.8637(11) 0.1372(6) 0.7148(7)
O30 O 0.6417(9) 0.1836(5) 0.5426(5)
O31 O 0.7307(9) 0.3251(5) 0.6274(5)
O32 O 0.8707(10) 0.3587(6) 0.7302(5)
O33 O 0.5323(11) 0.3006(6) 0.8121(5)
O34 O 0.7492(9) 0.2177(5) 0.6544(5)
O35 O 0.6669(9) 0.2882(5) 0.7269(5)
O36 O 0.6250(14) 0.4953(6) 0.6125(7)
O37 O 0.4577(10) 0.3485(5) 0.7076(5)
O38 O 0.8298(11) 0.1271(7) 0.5067(7)
O39 O 1.0338(11) 0.4016(6) 0.6561(6)
O40 O 0.8179(9) 0.2474(5) 0.5355(6)
Zn1* Zn 1.17421(15) 0.46626(8) 0.84345(9)
Zn1A Zn 0.32579(15) -0.03374(8) 0.65655(9)
N4* N 0.0497(10) 0.4773(6) 0.8961(6)
N11A N 0.1625(12) 0.5107(6) 0.7672(6)
#END
