
#######################################################################
#
#                 Cambridge Crystallographic Data Centre
#                                CCDC
#
#######################################################################
#
# If this CIF has been generated from an entry in the Cambridge
# Structural Database, then it will include bibliographic, chemical,
# crystal, experimental, refinement or atomic coordinate data resulting
# from the CCDC's data processing and validation procedures.
#
#######################################################################

data_CSD_CIF_YENTIV
_audit_creation_date 2006-12-18
_audit_creation_method CSD-ConQuest-V1
_database_code_CSD YENTIV
_database_code_depnum_ccdc_archive 'CCDC 287858'
_chemical_formula_sum 'C48 H52 Cu4 N8 O24 V4'
_chemical_formula_moiety
;
(C24 H18 Cu2 N4 O14 V4 2-)n,n(C24 H22 Cu2 N4 O4 2+),6n(H2 O1)
;
_journal_coden_Cambridge 580
_journal_volume 25
_journal_year 2006
_journal_page_first 2491
_journal_name_full 'Polyhedron '
loop_
_publ_author_name
"D.Joniakova"
"R.Gyepes"
"E.Rakovsky"
"P.Schwendt"
"L.Zurkova"
"J.Marek"
"Z.Micka"
_chemical_name_systematic
;
catena-(bis(\m~2~-Hydroxo)-diaqua-bis(1,10-phenanthroline)-di-copper(ii) 
bis(\m~2~-hydroxo)-hexakis(\m~2~-oxo)-hexaoxo-bis(1,10-phenanthroline)-di-copp
er(ii)-tetra-vanadium hexahydrate)
;
_chemical_name_common
;
catena-(bis(mu!2$-Hydroxo)-diaqua-bis(1,10-phenanthroline)-di-copper(ii) 
bis(mu!2$-hydroxo)-(mu!2$-(dodeca-oxo-tetra-vanadate))-bis(1,10-phenanthroline
)-di-copper(ii) hexahydrate)
;
_cell_volume   1394.931
_exptl_crystal_colour 'green-blue'
_exptl_crystal_density_diffrn 1.875
_exptl_crystal_description 'prism'
_diffrn_ambient_temperature 293
#These two values have been output from a single CSD field.
_refine_ls_R_factor_gt 0.0494
_refine_ls_wR_factor_gt 0.0494
_symmetry_cell_setting triclinic
_symmetry_space_group_name_H-M 'P -1'
_symmetry_Int_Tables_number 2
loop_
_symmetry_equiv_pos_site_id
_symmetry_equiv_pos_as_xyz
1 x,y,z
2 -x,-y,-z
_cell_length_a 10.9790(4)
_cell_length_b 11.5830(6)
_cell_length_c 12.4140(6)
_cell_angle_alpha 109.140(2)
_cell_angle_beta 93.870(2)
_cell_angle_gamma 107.819(2)
_cell_formula_units_Z 1
loop_
_atom_type_symbol
_atom_type_radius_bond
C 0.68
H 0.23
Cu 1.22
N 0.68
O 0.88
V 1.13
loop_
_atom_site_label
_atom_site_type_symbol
_atom_site_fract_x
_atom_site_fract_y
_atom_site_fract_z
Cu1 Cu 0.47708(5) 0.11007(5) 0.98097(5)
Cu2 Cu 0.53216(5) 0.39648(6) 1.52348(5)
V1 V -0.03529(7) 0.18066(8) 1.01024(7)
V2 V 0.20431(7) 0.13928(8) 1.15363(7)
O1 O 0.3977(3) -0.0761(3) 0.9285(3)
O2 O 0.3784(3) 0.4280(3) 1.4723(3)
O3 O 0.1296(3) 0.1969(4) 1.0598(3)
N1 N 0.4386(4) 0.2250(4) 1.5398(3)
O4 O -0.1191(3) 0.1890(4) 1.1160(3)
N2 N 0.5923(4) 0.2840(4) 0.9849(3)
C1 C 0.5342(4) 0.3329(4) 0.9199(4)
O5 O -0.0285(3) 0.3005(3) 0.9682(3)
C2 C 0.4015(5) 0.4278(5) 0.7878(4)
H1 H 0.35760 0.45900 0.74360
N3 N 0.3471(3) 0.1467(4) 0.8831(3)
O6 O 0.1169(3) -0.0298(4) 1.1117(3)
O7 O 0.1969(3) 0.2151(4) 1.2890(3)
C3 C 0.2226(4) 0.0801(5) 0.8387(4)
H2 H 0.18400 0.00250 0.85000
C4 C 0.5177(5) 0.1908(5) 1.6035(4)
C5 C 0.5989(5) 0.4495(5) 0.9048(4)
N4 N 0.6832(4) 0.3835(4) 1.6138(3)
O8 O 0.3589(3) 0.1685(4) 1.1410(3)
C6 C 0.4009(4) 0.2609(4) 0.8670(4)
C7 C 0.2636(6) 0.0339(5) 1.5256(5)
H3 H 0.17640 -0.01800 1.49770
O9 O 0.5604(4) 0.2925(4) 1.3369(3)
C8 C 0.6909(6) 0.1338(6) 1.7378(5)
H4 H 0.74780 0.11470 1.78260
C9 C 0.7379(5) 0.2484(5) 1.7090(4)
C10 C 0.4742(5) 0.0800(5) 1.6326(4)
C11 C 0.3335(5) 0.3085(5) 0.8026(4)
C12 C 0.6495(5) 0.2760(5) 1.6424(4)
C13 C 0.7172(4) 0.3495(5) 1.0345(4)
H5 H 0.75820 0.31660 1.07900
C14 C 0.8660(5) 0.3358(6) 1.7441(5)
H6 H 0.92810 0.31960 1.78590
C15 C 0.3143(5) 0.1473(5) 1.5014(4)
H7 H 0.25960 0.16910 1.45720
C16 C 0.7884(5) 0.4648(5) 1.0225(5)
H8 H 0.87540 0.50730 1.05840
C17 C 0.5272(5) 0.4952(5) 0.8365(4)
H9 H 0.56880 0.57260 0.82590
C18 C 0.1460(5) 0.1220(5) 0.7748(4)
H10 H 0.05840 0.07270 0.74540
C19 C 0.7303(5) 0.5159(5) 0.9576(4)
H11 H 0.77720 0.59300 0.94880
C20 C 0.8058(5) 0.4660(6) 1.6517(5)
H12 H 0.82960 0.54080 1.63360
C21 C 0.3418(6) -0.0008(5) 1.5899(5)
H13 H 0.30850 -0.07650 1.60540
C22 C 0.2000(5) 0.2337(5) 0.7562(4)
H14 H 0.15010 0.26140 0.71340
C23 C 0.5661(6) 0.0541(6) 1.7009(5)
H15 H 0.53840 -0.01980 1.72010
C24 C 0.9000(5) 0.4455(7) 1.7171(5)
H16 H 0.98450 0.50540 1.74190
O10 O 0.8226(4) 0.2971(5) 1.3293(4)
O11 O 0.8252(4) 0.5593(4) 1.4039(3)
O12 O 1.0027(4) 0.7835(5) 1.5663(4)
Cu1A Cu 0.52292(5) -0.11007(5) 1.01903(5)
Cu1A* Cu -0.47708(5) -0.11007(5) 1.01903(5)
Cu2A Cu 0.46784(5) 0.60352(6) 1.47652(5)
V1A V 0.03529(7) -0.18066(8) 0.98976(7)
V2A V -0.20431(7) -0.13928(8) 0.84637(7)
O1A O 0.6023(3) 0.0761(3) 1.0715(3)
O2A O 0.6216(3) 0.5720(3) 1.5277(3)
O3A O -0.1296(3) -0.1969(4) 0.9402(3)
N1A N 0.5614(4) 0.7750(4) 1.4602(3)
O4A O 0.1191(3) -0.1890(4) 0.8840(3)
N2A N 0.4077(4) -0.2840(4) 1.0151(3)
C1A C 0.4658(4) -0.3329(4) 1.0801(4)
O5A O 0.0285(3) -0.3005(3) 1.0318(3)
C2A C 0.5985(5) -0.4278(5) 1.2122(4)
H1A H 0.64240 -0.45900 1.25640
N3A N 0.6529(3) -0.1467(4) 1.1169(3)
O6A O -0.1169(3) 0.0298(4) 0.8883(3)
O7A O -0.1969(3) -0.2151(4) 0.7110(3)
C3A C 0.7774(4) -0.0801(5) 1.1613(4)
H2A H 0.81600 -0.00250 1.15000
C4A C 0.4823(5) 0.8092(5) 1.3965(4)
C5A C 0.4011(5) -0.4495(5) 1.0952(4)
N4A N 0.3168(4) 0.6165(4) 1.3862(3)
O8A O 0.6411(3) -0.1685(4) 0.8590(3)
O8A* O -0.3589(3) -0.1685(4) 0.8590(3)
C6A C 0.5991(4) -0.2609(4) 1.1330(4)
C7A C 0.7364(6) 0.9661(5) 1.4744(5)
H3A H 0.82360 1.01800 1.50230
O9A O 0.4396(4) 0.7075(4) 1.6631(3)
C8A C 0.3091(6) 0.8662(6) 1.2622(5)
H4A H 0.25220 0.88530 1.21740
C9A C 0.2621(5) 0.7516(5) 1.2910(4)
C10A C 0.5258(5) 0.9200(5) 1.3674(4)
C11A C 0.6665(5) -0.3085(5) 1.1974(4)
C12A C 0.3505(5) 0.7240(5) 1.3576(4)
C13A C 0.2828(4) -0.3495(5) 0.9655(4)
H5A H 0.24180 -0.31660 0.92100
C14A C 0.1340(5) 0.6642(6) 1.2559(5)
H6A H 0.07190 0.68040 1.21410
C15A C 0.6857(5) 0.8527(5) 1.4986(4)
H7A H 0.74040 0.83090 1.54280
C16A C 0.2116(5) -0.4648(5) 0.9775(5)
H8A H 0.12460 -0.50730 0.94160
C17A C 0.4728(5) -0.4952(5) 1.1635(4)
H9A H 0.43120 -0.57260 1.17410
C18A C 0.8540(5) -0.1220(5) 1.2252(4)
H10A H 0.94160 -0.07270 1.25460
C19A C 0.2697(5) -0.5159(5) 1.0424(4)
H11A H 0.22280 -0.59300 1.05120
C20A C 0.1942(5) 0.5340(6) 1.3483(5)
H12A H 0.17040 0.45920 1.36640
C21A C 0.6582(6) 1.0008(5) 1.4101(5)
H13A H 0.69150 1.07650 1.39460
C22A C 0.8000(5) -0.2337(5) 1.2438(4)
H14A H 0.84990 -0.26140 1.28660
C23A C 0.4339(6) 0.9459(6) 1.2991(5)
H15A H 0.46160 1.01980 1.27990
C24A C 0.1000(5) 0.5545(7) 1.2829(5)
H16A H 0.01550 0.49460 1.25810
#END
