
#######################################################################
#
#                 Cambridge Crystallographic Data Centre
#                                CCDC
#
#######################################################################
#
# If this CIF has been generated from an entry in the Cambridge
# Structural Database, then it will include bibliographic, chemical,
# crystal, experimental, refinement or atomic coordinate data resulting
# from the CCDC's data processing and validation procedures.
#
#######################################################################

data_CSD_CIF_YESMER
_audit_creation_date 2018-01-30
_audit_creation_method CSD-ConQuest-V1
_database_code_CSD YESMER
_database_code_depnum_ccdc_archive 'CCDC 1581464'
_chemical_formula_sum 'C52 H40 N2 O9 Pb1'
_chemical_formula_moiety
;
(C30 H21 O8 Pb1 1-)n,C22 H17 N2 1+,H2 O1
;
_journal_coden_Cambridge 1267
_journal_volume 233
_journal_year 2018
_journal_page_first 51
_journal_name_full 'Z.Kristallogr.-New Cryst.Struct. '
loop_
_publ_author_name
"Wei Song"
"Shi-Hui Li"
"Xue-Li Xu"
_chemical_name_systematic
;
catena-(4-(4'-(pyridin-4-yl)-[1,1'-biphenyl]-4-yl)pyridin-1-ium 
(\m-4'-methyl-[1,1'-biphenyl]-3,5-dicarboxylato)-(5-carboxy-4'-methyl-[1,1'-bi
phenyl]-3-carboxylato)-lead(ii) monohydrate)
;
_cell_volume   2083.757
_exptl_crystal_colour 'colorless'
_exptl_crystal_density_diffrn 1.664
_exptl_crystal_description 'block'
_diffrn_ambient_temperature 293
#These two values have been output from a single CSD field.
_refine_ls_R_factor_gt 0.0342
_refine_ls_wR_factor_gt 0.0342
_symmetry_cell_setting triclinic
_symmetry_space_group_name_H-M 'P -1'
_symmetry_Int_Tables_number 2
loop_
_symmetry_equiv_pos_site_id
_symmetry_equiv_pos_as_xyz
1 x,y,z
2 -x,-y,-z
_cell_length_a 10.3025(4)
_cell_length_b 14.1740(9)
_cell_length_c 16.0428(9)
_cell_angle_alpha 115.835(6)
_cell_angle_beta 97.680(4)
_cell_angle_gamma 90.493(4)
_cell_formula_units_Z 2
loop_
_atom_type_symbol
_atom_type_radius_bond
C 0.68
H 0.23
N 0.68
O 0.68
Pb 1.46
loop_
_atom_site_label
_atom_site_type_symbol
_atom_site_fract_x
_atom_site_fract_y
_atom_site_fract_z
Pb1 Pb 0.108278(14) 0.864722(13) 0.507989(11)
O1 O 0.9667(3) 0.9967(2) 0.5929(2)
O2 O 0.8360(3) 0.8502(3) 0.5157(2)
O3 O 0.0274(4) 0.3456(3) 0.6748(2)
O4 O 0.3637(3) 0.8570(2) 0.5301(2)
O5 O 0.2760(3) 1.0049(2) 0.6096(2)
O6 O 0.1462(3) 0.3550(3) 0.5716(2)
H1 H 0.15080 0.29190 0.55600
O7 O 0.1074(3) 0.8225(3) 0.6325(2)
C1 C 0.1211(4) 0.7240(4) 0.5982(3)
O8 O 0.1486(3) 0.6728(3) 0.5179(2)
C2 C 0.6185(4) 0.9556(4) 0.5835(3)
H2 H 0.60590 0.88610 0.53810
C3 C 0.8577(4) 0.9454(4) 0.5710(3)
C4 C 0.6569(4) 1.1628(3) 0.7238(3)
C5 C 0.6246(5) 1.3978(4) 0.9515(3)
H3 H 0.56830 1.41750 0.99610
C6 C 0.1024(4) 0.5612(4) 0.6226(3)
H4 H 0.12830 0.52240 0.56450
C7 C 0.0708(4) 0.5117(4) 0.6748(3)
C8 C 0.5323(4) 1.1123(3) 0.6899(3)
H5 H 0.46090 1.14840 0.71440
C9 C 0.0299(4) 0.6790(4) 0.7994(3)
C10 C 0.0605(4) 0.7258(4) 0.7448(3)
H6 H 0.05760 0.79830 0.76770
C11 C 0.7624(4) 1.1085(4) 0.6831(3)
H7 H 0.84640 1.14200 0.70240
C12 C 0.7428(4) 1.0046(3) 0.6139(3)
C13 C 0.0292(4) 0.7148(4) 0.9676(3)
H8 H 0.06950 0.65280 0.95580
C14 C -0.0634(5) 0.8357(4) 0.9159(3)
H9 H -0.08600 0.85670 0.86880
C15 C 0.0763(4) 0.3955(4) 0.6418(3)
C16 C 0.6808(4) 1.2705(4) 0.8039(3)
C17 C 0.3761(4) 0.9547(4) 0.5849(3)
C18 C -0.0035(4) 0.7425(4) 0.8958(3)
C19 C 0.0031(5) 0.7778(4) 1.0574(3)
H10 H 0.02520 0.75700 1.10470
C20 C 0.0958(4) 0.6689(4) 0.6561(3)
C21 C -0.0555(4) 0.8715(4) 1.0772(3)
C22 C 0.5104(4) 1.0093(4) 0.6203(3)
C23 C 0.5972(4) 1.3022(4) 0.8716(3)
H11 H 0.52300 1.25940 0.86330
C24 C 0.0315(4) 0.5686(4) 0.7627(3)
H12 H 0.00680 0.53400 0.79650
C25 C -0.0901(5) 0.8981(4) 1.0058(3)
H13 H -0.13250 0.95930 1.01730
C26 C -0.0820(6) 0.9414(5) 1.1762(3)
H14 H -0.11720 0.89870 1.20190
H15 H -0.14390 0.99090 1.17420
H16 H -0.00140 0.97870 1.21480
C27 C 0.8130(4) 1.4335(4) 0.8969(3)
H17 H 0.88500 1.47790 0.90420
C28 C 0.7869(4) 1.3384(4) 0.8173(3)
H18 H 0.84210 1.31990 0.77200
C29 C 0.7323(5) 1.4634(4) 0.9660(3)
C30 C 0.7644(5) 1.5635(4) 1.0575(4)
H19 H 0.68450 1.59490 1.07630
H20 H 0.82000 1.61190 1.04870
H21 H 0.80870 1.54660 1.10530
C31 C 0.5226(4) 0.1984(4) 1.0221(3)
N1 N 0.6241(5) -0.3930(4) 0.5609(3)
C32 C 0.6262(4) 0.2588(4) 1.0915(3)
H22 H 0.70970 0.23430 1.08830
C33 C 0.4844(4) 0.3912(4) 1.1724(3)
C34 C 0.4898(5) -0.2715(4) 0.6613(4)
H23 H 0.40610 -0.25790 0.67740
C35 C 0.5429(4) 0.0980(4) 0.9426(3)
N2 N 0.4307(5) 0.6767(4) 1.3980(3)
H24 H 0.42050 0.73450 1.44530
C36 C 0.5100(6) -0.3668(5) 0.5886(4)
H25 H 0.43800 -0.41520 0.55740
C37 C 0.3816(4) 0.3323(4) 1.1044(3)
H26 H 0.29780 0.35610 1.10830
C38 C 0.4005(4) 0.2383(4) 1.0303(4)
H27 H 0.32930 0.20110 0.98470
C39 C 0.3531(5) 0.5054(5) 1.2934(3)
H28 H 0.28860 0.45030 1.27190
C40 C 0.4645(5) 0.4928(4) 1.2511(3)
C41 C 0.5753(4) -0.0942(4) 0.7896(3)
C42 C 0.6618(4) 0.0768(4) 0.9096(3)
H29 H 0.73250 0.12700 0.93830
C43 C 0.3384(6) 0.5996(5) 1.3675(4)
H30 H 0.26350 0.60890 1.39600
C44 C 0.6088(4) 0.3533(4) 1.1645(3)
H31 H 0.68040 0.39210 1.20880
C45 C 0.5572(5) 0.5776(4) 1.2854(3)
H32 H 0.63240 0.57130 1.25770
C46 C 0.5928(5) -0.1973(4) 0.7096(3)
C47 C 0.7237(6) -0.3210(5) 0.6068(4)
H33 H 0.80570 -0.33680 0.58820
C48 C 0.7134(5) -0.2238(4) 0.6805(3)
H34 H 0.78710 -0.17670 0.71020
C49 C 0.4572(5) -0.0731(5) 0.8217(4)
H35 H 0.38650 -0.12330 0.79240
C50 C 0.6776(5) -0.0176(4) 0.8349(3)
H36 H 0.75900 -0.02990 0.81470
C51 C 0.4403(5) 0.0215(5) 0.8969(4)
H37 H 0.35870 0.03350 0.91680
C52 C 0.5397(5) 0.6703(5) 1.3593(4)
H38 H 0.60170 0.72730 1.38210
O9 O 0.2316(4) 0.2233(3) 0.7225(4)
H39 H 0.15280 0.23950 0.71640
H40 H 0.23360 0.15680 0.69510
Pb1* Pb 1.108278(14) 0.864722(13) 0.507989(11)
O1* O -0.0333(3) 0.9967(2) 0.5929(2)
O2* O -0.1640(3) 0.8502(3) 0.5157(2)
#END
