
#######################################################################
#
#                 Cambridge Crystallographic Data Centre
#                                CCDC
#
#######################################################################
#
# If this CIF has been generated from an entry in the Cambridge
# Structural Database, then it will include bibliographic, chemical,
# crystal, experimental, refinement or atomic coordinate data resulting
# from the CCDC's data processing and validation procedures.
#
#######################################################################

data_CSD_CIF_YETDUZ
_audit_creation_date 2018-01-30
_audit_creation_method CSD-ConQuest-V1
_database_code_CSD YETDUZ
_database_code_depnum_ccdc_archive 'CCDC 1820752'
_chemical_formula_sum 'C29 H39 F2 N4 O9 P3 Zr1'
_chemical_formula_moiety
;
(C23 H15 F2 N1 O9 P3 Zr1 3-)n,3(C2 H8 N1 1+)
;
_journal_coden_Cambridge 1096
_journal_volume 30
_journal_year 2018
_journal_page_first 314
_journal_name_full 'Chem.Mater. '
loop_
_publ_author_name
"Z.H.Fard"
"N.E.Wong"
"C.D.Malliakas"
"P.Ramaswamy"
"J.M.Taylor"
"K.Otsubo"
"G.K.H.Shimizu"
_chemical_name_systematic
;
catena-[tris(dimethylammonium) 
(\m-[{6-[4-(hydroxyphosphinato)phenyl]pyridine-2,4-diyl}di(4,1-phenylene)]bis(
phosphonato))-difluoro-zirconium]
;
_cell_volume   1707.261
_exptl_crystal_colour 'colorless'
_exptl_crystal_density_diffrn 1.575
_exptl_crystal_description 'block'
_diffrn_ambient_temperature 173
#These two values have been output from a single CSD field.
_refine_ls_R_factor_gt 0.0259
_refine_ls_wR_factor_gt 0.0259
_symmetry_cell_setting triclinic
_symmetry_space_group_name_H-M 'P -1'
_symmetry_Int_Tables_number 2
loop_
_symmetry_equiv_pos_site_id
_symmetry_equiv_pos_as_xyz
1 x,y,z
2 -x,-y,-z
_cell_length_a 8.2800(1)
_cell_length_b 13.9085(2)
_cell_length_c 15.2215(2)
_cell_angle_alpha 78.687(1)
_cell_angle_beta 83.336(1)
_cell_angle_gamma 88.497(1)
_cell_formula_units_Z 2
loop_
_atom_type_symbol
_atom_type_radius_bond
C 0.68
H 0.23
F 0.64
N 0.68
O 0.68
P 1.05
Zr 1.75
loop_
_atom_site_label
_atom_site_type_symbol
_atom_site_fract_x
_atom_site_fract_y
_atom_site_fract_z
Zr1 Zr 0.87118(2) 0.61539(2) 0.11889(2)
P1 P 0.90346(7) 0.37205(4) 0.09616(4)
P2 P 1.66603(7) -0.43801(4) 0.34024(4)
P3 P 1.10115(7) 0.12582(4) 0.92105(4)
O1 O 0.7348(2) 0.34855(13) 0.07967(11)
O2 O 1.0290(2) 0.37438(12) 0.01437(10)
O3 O 0.9058(2) 0.46647(11) 0.13365(10)
O4 O 1.7622(2) -0.48986(13) 0.41286(11)
O5 O 1.5263(2) -0.49657(13) 0.32130(11)
O6 O 1.7753(2) -0.39855(12) 0.25137(11)
O7 O 1.2137(2) 0.05791(12) 0.98299(11)
H1 H 1.16590 0.00480 1.00570
O8 O 0.9251(2) 0.11102(12) 0.95879(12)
O9 O 1.1634(2) 0.22921(12) 0.90958(11)
F1 F 1.08911(17) 0.63995(11) 0.15251(10)
F2 F 0.65161(16) 0.60636(11) 0.08053(10)
N1 N 1.1541(3) 0.09051(16) 0.47826(15)
C1 C 1.1691(3) 0.07064(17) 0.39361(16)
C2 C 1.2460(3) -0.01283(16) 0.37574(14)
H2 H 1.25280 -0.02700 0.31680
C3 C 1.3135(3) -0.07622(17) 0.44297(16)
C4 C 1.2970(3) -0.05681(17) 0.52939(15)
C5 C 1.2142(3) 0.02570(17) 0.54662(16)
C6 C 1.0997(3) 0.14104(17) 0.32091(16)
C7 C 0.9949(3) 0.21621(18) 0.34136(16)
C8 C 0.9344(3) 0.28435(17) 0.27450(16)
C9 C 0.9752(3) 0.27947(16) 0.18353(15)
C10 C 1.0771(3) 0.20334(18) 0.16279(16)
C11 C 1.1375(3) 0.13576(18) 0.23006(17)
C12 C 1.4033(3) -0.16411(17) 0.42143(16)
C13 C 1.4706(3) -0.16446(18) 0.33300(16)
C14 C 1.5548(3) -0.24457(19) 0.31037(15)
C15 C 1.5727(3) -0.32937(17) 0.37447(15)
C16 C 1.5067(3) -0.32981(18) 0.46339(16)
C17 C 1.4234(3) -0.24847(18) 0.48634(15)
C18 C 1.1855(3) 0.04669(18) 0.63911(17)
C19 C 1.2413(4) -0.01458(19) 0.71243(18)
C20 C 1.2153(4) 0.00724(19) 0.79800(18)
C21 C 1.1319(3) 0.09165(17) 0.81262(16)
C22 C 1.0725(4) 0.1522(2) 0.7398(2)
C23 C 1.0982(4) 0.1302(2) 0.6544(2)
H3 H 1.346(4) -0.095(2) 0.5743(18)
H4 H 0.964(4) 0.220(2) 0.4019(13)
H5 H 0.863(3) 0.3346(19) 0.290(2)
H6 H 1.099(4) 0.198(2) 0.1017(13)
H7 H 1.204(4) 0.0841(19) 0.214(2)
H8 H 1.465(4) -0.1080(17) 0.2886(18)
H9 H 1.607(4) -0.242(2) 0.2522(14)
H10 H 1.512(4) -0.3864(17) 0.5079(18)
H11 H 1.381(4) -0.251(2) 0.5455(13)
H12 H 1.292(4) -0.0753(17) 0.706(2)
H13 H 1.255(4) -0.032(2) 0.8488(16)
H14 H 1.012(4) 0.2088(18) 0.749(2)
H15 H 1.056(4) 0.166(2) 0.6044(16)
N2 N 0.6577(3) 0.22760(17) 0.96810(17)
C24 C 0.5339(4) 0.1775(3) 1.0386(2)
C25 C 0.6100(3) 0.2366(2) 0.8767(2)
H16 H 0.679(4) 0.2865(16) 0.977(2)
H17 H 0.752(3) 0.194(2) 0.969(2)
H18 H 0.569(4) 0.175(3) 1.0986(16)
H19 H 0.523(4) 0.1093(15) 1.035(2)
H20 H 0.427(3) 0.210(2) 1.038(2)
H21 H 0.512(3) 0.276(2) 0.875(2)
H22 H 0.589(4) 0.1698(16) 0.872(2)
H23 H 0.698(3) 0.267(2) 0.832(2)
N3 N 0.4799(3) 0.41709(17) 0.17988(15)
C26 C 0.4357(4) 0.3205(2) 0.2359(2)
C27 C 0.3522(4) 0.4613(3) 0.1240(2)
H24 H 0.566(3) 0.409(2) 0.1446(19)
H25 H 0.500(4) 0.459(2) 0.215(2)
H26 H 0.523(3) 0.290(2) 0.266(2)
H27 H 0.335(3) 0.326(3) 0.275(2)
H28 H 0.418(4) 0.276(2) 0.195(2)
H29 H 0.325(4) 0.416(2) 0.087(2)
H30 H 0.255(3) 0.467(3) 0.163(2)
H31 H 0.392(4) 0.5230(18) 0.088(2)
N4 N 0.7754(2) 0.47858(17) 0.59211(14)
C28 C 0.8626(3) 0.5646(2) 0.6063(2)
C29 C 0.8553(3) 0.3846(2) 0.62791(19)
H32 H 0.676(3) 0.486(2) 0.619(2)
H33 H 0.773(4) 0.483(2) 0.5332(13)
H34 H 0.806(4) 0.6243(19) 0.582(2)
H35 H 0.862(4) 0.559(3) 0.6714(13)
H36 H 0.974(3) 0.568(3) 0.578(2)
H37 H 0.853(4) 0.378(3) 0.6922(13)
H38 H 0.795(4) 0.3267(19) 0.621(2)
H39 H 0.965(3) 0.381(3) 0.599(2)
Zr1* Zr 1.87118(2) -0.38461(2) 0.11889(2)
Zr1A Zr 1.12882(2) 0.38461(2) -0.11889(2)
Zr1A* Zr 1.12882(2) 0.38461(2) 0.88111(2)
O2A O 0.9710(2) 0.62562(12) -0.01437(10)
O6* O 0.7753(2) 0.60145(12) 0.25137(11)
O9A O 0.8366(2) 0.77079(12) 0.09042(11)
#END
