
#######################################################################
#
#                 Cambridge Crystallographic Data Centre
#                                CCDC
#
#######################################################################
#
# If this CIF has been generated from an entry in the Cambridge
# Structural Database, then it will include bibliographic, chemical,
# crystal, experimental, refinement or atomic coordinate data resulting
# from the CCDC's data processing and validation procedures.
#
#######################################################################

data_CSD_CIF_YEVKAO
_audit_creation_date 2018-01-31
_audit_creation_method CSD-ConQuest-V1
_database_code_CSD YEVKAO
_database_code_depnum_ccdc_archive 'CCDC 1438248'
_chemical_formula_sum 'C16 H16 Cu1 N5'
_chemical_formula_moiety
;
C4 H12 N1 1+,n(C12 H4 Cu1 N4 1-)
;
_journal_coden_Cambridge 1078
_journal_year 2018
_journal_name_full 'CSD Communication(Private Communication) '
loop_
_publ_author_name
"B.F.Abrahams"
"R.W.Elliott"
"T.A.Hudson"
"R.Robson"
"A.L.Sutton"
_chemical_name_systematic
;
catena-[tetramethylammonium (\m-tetracyanoquinodimethane dianion)-copper 
unknown solvate]
;
_cell_volume   1208.675
_exptl_crystal_colour 'colorless'
_exptl_crystal_density_diffrn 0.939
_exptl_crystal_description 'block'
_diffrn_ambient_temperature 250
_refine_special_details
;
We calculate 16% void space in the structure.

;
#These two values have been output from a single CSD field.
_refine_ls_R_factor_gt 0.0915
_refine_ls_wR_factor_gt 0.0915
_symmetry_cell_setting tetragonal
_symmetry_space_group_name_H-M 'P 42/m m c'
_symmetry_Int_Tables_number 131
loop_
_symmetry_equiv_pos_site_id
_symmetry_equiv_pos_as_xyz
1 x,y,z
2 -y,x,1/2+z
3 -x,-y,z
4 y,-x,1/2+z
5 x,-y,-z
6 y,x,1/2-z
7 -x,y,-z
8 -y,-x,1/2-z
9 -x,-y,-z
10 y,-x,-1/2-z
11 x,y,-z
12 -y,x,-1/2-z
13 -x,y,z
14 -y,-x,-1/2+z
15 x,-y,z
16 y,x,-1/2+z
_cell_length_a 7.4611(2)
_cell_length_b 7.4611(2)
_cell_length_c 21.7122(7)
_cell_angle_alpha 90
_cell_angle_beta 90
_cell_angle_gamma 90
_cell_formula_units_Z 2
loop_
_atom_type_symbol
_atom_type_radius_bond
C 0.68
H 0.23
Cu 1.32
N 0.68
loop_
_atom_site_label
_atom_site_type_symbol
_atom_site_fract_x
_atom_site_fract_y
_atom_site_fract_z
Cu1 Cu 0.50000 0.50000 0.25000
N1 N 0.2873(5) 0.50000 0.19567(15)
C1 C 0.1578(6) 0.50000 0.16665(15)
C2 C 0.00000 0.50000 0.1337(3)
C3 C 0.00000 0.50000 0.0661(2)
C4 C 0.1583(5) 0.50000 0.03180(18)
H1 H 0.26740 0.50000 0.05250
N2 N 0.50000 0.00000 0.1357(7)
C5 C 0.50000 0.1605(3) 0.0969(5)
H2 H 0.50000 0.26050 0.12470
H3 H 0.60510 0.16540 0.07140
C6 C 0.3394(3) 0.00000 0.1750(5)
H4? H 0.34530 0.11240 0.19640
H5? H 0.22090 -0.01680 0.15880
H6? H 0.36710 -0.09570 0.20300
N1B N -0.2873(5) 0.50000 0.19567(15)
C1B C -0.1578(6) 0.50000 0.16665(15)
C4B C -0.1583(5) 0.50000 0.03180(18)
H1B H -0.26740 0.50000 0.05250
N1D N 0.2873(5) 0.50000 -0.19567(15)
C1D C 0.1578(6) 0.50000 -0.16665(15)
C2D C 0.00000 0.50000 -0.1337(3)
C3D C 0.00000 0.50000 -0.0661(2)
C4D C 0.1583(5) 0.50000 -0.03180(18)
H1D H 0.26740 0.50000 -0.05250
N1F N -0.2873(5) 0.50000 -0.19567(15)
C1F C -0.1578(6) 0.50000 -0.16665(15)
C4F C -0.1583(5) 0.50000 -0.03180(18)
H1F H -0.26740 0.50000 -0.05250
Cu1* Cu -0.50000 0.50000 0.25000
Cu1A Cu -0.50000 0.50000 -0.25000
Cu1A* Cu 0.50000 0.50000 -0.25000
N1B* N 0.7127(5) 0.50000 0.19567(15)
N1E N 0.5000(5) 0.28730 0.30433(15)
N1G N 0.5000(5) 0.71270 0.30433(15)
C5B C 0.50000 -0.1605(3) 0.0969(5)
H2B H 0.50000 -0.26050 0.12470
H3B H 0.39490 -0.16540 0.07140
C6B C 0.6606(3) 0.00000 0.1750(5)
H3L H 0.39490 0.16540 0.07140
H3N H 0.60510 -0.16540 0.07140
#END
