
#######################################################################
#
#                 Cambridge Crystallographic Data Centre
#                                CCDC
#
#######################################################################
#
# If this CIF has been generated from an entry in the Cambridge
# Structural Database, then it will include bibliographic, chemical,
# crystal, experimental, refinement or atomic coordinate data resulting
# from the CCDC's data processing and validation procedures.
#
#######################################################################

data_CSD_CIF_YEWKAP
_audit_creation_date 2018-01-31
_audit_creation_method CSD-ConQuest-V1
_database_code_CSD YEWKAP
_database_code_depnum_ccdc_archive 'CCDC 1821064'
_chemical_formula_sum 'C9 H16 Fe2 N1 O12'
_chemical_formula_moiety
;
(C6 H6 Fe2 O12 1-)n,C3 H10 N1 1+
;
_journal_coden_Cambridge 208
_journal_volume 258
_journal_year 2018
_journal_page_first 163
_journal_name_full 'J.Solid State Chem. '
loop_
_publ_author_name
"M.Maczka"
"E.Kucharska"
"A.Gagor"
"A.Pikul"
"J.Hanuza"
_chemical_name_systematic
;
catena-[N-ethylmethylammonium hexakis(\m-formato)-iron(ii)-iron(iii)]
;
_cell_volume    827.551
_exptl_crystal_density_diffrn 1.774
_exptl_special_details
;
powder data

;
_diffrn_ambient_temperature 295
_refine_special_details
;
C1a disordered by symmetry over two configurations with occupancy 0.5; C2a 
disordered by symmetry over three configurations with occupancy 0.3333; N1a 
disordered over one sites with occupancies 0.1667.
;
#These two values have been output from a single CSD field.
_refine_ls_R_factor_gt 0.0524
_refine_ls_wR_factor_gt 0.0524
_symmetry_cell_setting hexagonal
_symmetry_space_group_name_H-M 'P -3 1 c'
_symmetry_Int_Tables_number 163
loop_
_symmetry_equiv_pos_site_id
_symmetry_equiv_pos_as_xyz
1 x,y,z
2 -y,x-y,z
3 -x+y,-x,z
4 -y,-x,1/2-z
5 -x+y,y,1/2-z
6 x,x-y,1/2-z
7 -x,-y,-z
8 y,-x+y,-z
9 x-y,x,-z
10 y,x,-1/2+z
11 x-y,-y,-1/2+z
12 -x,-x+y,-1/2+z
_cell_length_a 8.3389(2)
_cell_length_b 8.3389(2)
_cell_length_c 13.7419(5)
_cell_angle_alpha 90
_cell_angle_beta 90
_cell_angle_gamma 120
_cell_formula_units_Z 2
loop_
_atom_type_symbol
_atom_type_radius_bond
C 0.68
Fe 1.52
N 0.68
O 0.68
loop_
_atom_site_label
_atom_site_type_symbol
_atom_site_fract_x
_atom_site_fract_y
_atom_site_fract_z
Fe1 Fe 0.33333 0.66667 0.25000
Fe2 Fe 0.00000 0.00000 0.00000
O1 O 0.1211(16) 0.4617(13) 0.1603(11)
O2 O -0.0055(17) 0.1988(12) 0.0784(9)
C1 C 0.128(1) 0.3358(16) 0.1167(18)
C2 C -0.31266 0.29170 0.10558
C3 C -0.33333 0.33333 0.20276
N1 N -0.27547 0.28032 0.28517
O1A O -0.4617(16) -0.3406(13) 0.1603(11)
O2A O -0.1988(17) -0.2043(12) 0.0784(9)
C1A C -0.3358(10) -0.2078(16) 0.1167(18)
O1B O 0.3406(16) -0.1211(13) 0.1603(11)
O2B O 0.2043(17) 0.0055(12) 0.0784(9)
C1B C 0.2078(10) -0.1280(16) 0.1167(18)
O1D O 0.3406(16) 0.4617(13) 0.3397(11)
O2D O 0.2043(17) 0.1988(12) 0.4216(9)
C1D C 0.2078(10) 0.3358(16) 0.3833(18)
O1C O 0.5383(16) 0.8789(13) 0.3397(11)
O2C O 0.8012(17) 1.0055(12) 0.4216(9)
C1C C 0.6642(10) 0.8720(16) 0.3833(18)
O1E O 0.1211(16) 0.6594(13) 0.3397(11)
O2E O -0.0055(17) 0.7957(12) 0.4216(9)
C1E C 0.128(1) 0.7922(16) 0.3833(18)
Fe1* Fe -0.66667 -0.33333 0.25000
Fe1** Fe 0.33333 -0.33333 0.25000
Fe2C Fe 0.00000 0.00000 0.50000
Fe2C* Fe 0.00000 1.00000 0.50000
Fe2C** Fe 1.00000 1.00000 0.50000
O1A* O 0.5383(16) 0.6594(13) 0.1603(11)
O1B* O 0.3406(16) 0.8789(13) 0.1603(11)
O2F O 0.0055(17) -0.1988(12) -0.0784(9)
O2G O 0.1988(17) 0.2043(12) -0.0784(9)
O2H O -0.2043(17) -0.0055(12) -0.0784(9)
C2A C -0.29170 0.39563 0.10558
N1A N -0.28032 0.44422 0.28517
C2B C -0.39563 0.31266 0.10558
N1B N -0.44422 0.27547 0.28517
C2C C -0.29170 0.31266 0.39442
C3C C -0.33333 0.33333 0.29724
N1C N -0.28032 0.27547 0.21483
C2D C -0.39563 0.29170 0.39442
N1D N -0.44422 0.28032 0.21483
C2E C -0.31266 0.39563 0.39442
N1E N -0.27547 0.44422 0.21483
#END
