
#######################################################################
#
#                 Cambridge Crystallographic Data Centre
#                                CCDC
#
#######################################################################
#
# If this CIF has been generated from an entry in the Cambridge
# Structural Database, then it will include bibliographic, chemical,
# crystal, experimental, refinement or atomic coordinate data resulting
# from the CCDC's data processing and validation procedures.
#
#######################################################################

data_CSD_CIF_YEXCUC
_audit_creation_date 2018-06-11
_audit_creation_method CSD-ConQuest-V1
_database_code_CSD YEXCUC
_database_code_depnum_ccdc_archive 'CCDC 1831799'
_chemical_formula_sum 'C59.5 H95.5 In1 N7.5 O28.5'
_chemical_formula_moiety
;
(C44 H24 In1 N2 O8 1-)n,C2 H8 N1 1+,4.5(C3 H7 N1 O1),16(H2 O1)
;
_journal_coden_Cambridge 1147
_journal_volume 18
_journal_year 2018
_journal_page_first 3724
_journal_name_full 'Cryst.Growth Des. '
loop_
_publ_author_name
"Lizhen Liu"
"Zizhu Yao"
"Yingxiang Ye"
"Quanjie Lin"
"Shimin Chen"
"Zhangjing Zhang"
"Shengchang Xiang"
_chemical_name_systematic
;
catena-[dimethylammonium 
(\m-4,4',4'',4'''-[1,4-phenylenedi(pyridine-4,2,6-triyl)]tetrabenzoato)-indium
 N,N-dimethylformamide solvate hexadecahydrate]
;
_chemical_name_common
;
FJU-17
;
_cell_volume  20897.984
_exptl_crystal_colour 'yellow'
_exptl_crystal_density_diffrn 0.523
_exptl_crystal_description 'bulk'
_diffrn_ambient_temperature 292.8
_refine_special_details
;
Disordered cation and solvent molecules were not modelled and the disordered 
density was taken into account using the SQUEEZE/PLATON procedure.
;
#These two values have been output from a single CSD field.
_refine_ls_R_factor_gt 0.0996
_refine_ls_wR_factor_gt 0.0996
_symmetry_cell_setting monoclinic
_symmetry_space_group_name_H-M 'C 2/c'
_symmetry_Int_Tables_number 15
loop_
_symmetry_equiv_pos_site_id
_symmetry_equiv_pos_as_xyz
1 x,y,z
2 -x,y,1/2-z
3 1/2+x,1/2+y,z
4 1/2-x,1/2+y,1/2-z
5 -x,-y,-z
6 x,-y,-1/2+z
7 -1/2-x,-1/2-y,-z
8 -1/2+x,-1/2-y,-1/2+z
_cell_length_a 23.3502(4)
_cell_length_b 24.8738(5)
_cell_length_c 36.0125(5)
_cell_angle_alpha 90
_cell_angle_beta 92.4016(14)
_cell_angle_gamma 90
_cell_formula_units_Z 8
loop_
_atom_type_symbol
_atom_type_radius_bond
C 0.68
H 0.23
In 1.42
N 0.68
O 0.68
loop_
_atom_site_label
_atom_site_type_symbol
_atom_site_fract_x
_atom_site_fract_y
_atom_site_fract_z
In1 In 0.39044(2) 0.51604(2) 0.39580(2)
O1 O 0.8472(2) 0.0528(2) 0.44037(14)
O2 O 0.8465(3) 0.0218(2) 0.84745(17)
O3 O 0.8144(3) 0.0830(2) 0.38906(16)
O4 O 0.4415(3) 0.48317(18) 0.44281(16)
O5 O 0.4586(3) 0.4058(2) 0.90240(16)
O6 O 0.4352(2) 0.4457(2) 0.85201(14)
O7 O 0.4563(3) 0.4439(3) 0.39162(14)
O8 O 0.8203(3) 0.0539(2) 0.89962(15)
N1 N 0.6368(2) 0.2592(2) 0.48737(13)
N2 N 0.6373(3) 0.2352(3) 0.80225(15)
C1 C 0.5527(3) 0.3799(3) 0.50152(19)
H1 H 0.56360 0.38700 0.52620
C2 C 0.6052(3) 0.2933(3) 0.50681(16)
C3 C 0.5119(3) 0.3862(3) 0.81144(18)
H2 H 0.49530 0.41650 0.80030
C4 C 0.7741(3) 0.1190(3) 0.44264(18)
C5 C 0.6034(3) 0.2903(3) 0.54523(17)
H3 H 0.58070 0.31420 0.55800
C6 C 0.5715(3) 0.3337(3) 0.48546(15)
C7 C 0.6040(3) 0.2708(3) 0.78345(18)
C8 C 0.5011(3) 0.3750(2) 0.84799(16)
C9 C 0.4660(3) 0.4469(3) 0.42534(18)
C10 C 0.5047(3) 0.4085(2) 0.44567(17)
C11 C 0.6680(3) 0.2217(3) 0.50593(16)
C12 C 0.6676(3) 0.2162(3) 0.54440(17)
H4 H 0.68860 0.18910 0.55640
C13 C 0.6024(3) 0.2732(3) 0.74471(18)
H5 H 0.57970 0.29890 0.73250
C14 C 0.5461(3) 0.3540(3) 0.79128(18)
H6 H 0.55360 0.36350 0.76700
C15 C 0.6334(4) 0.2472(3) 0.60567(17)
C16 C 0.6332(4) 0.2415(3) 0.68323(18)
C17 C 0.6354(3) 0.2519(3) 0.56458(16)
C18 C 0.4639(3) 0.4105(3) 0.86880(19)
C19 C 0.5573(4) 0.3263(3) 0.44809(18)
H7 H 0.56970 0.29570 0.43600
C20 C 0.7769(4) 0.1184(4) 0.4808(2)
H8 H 0.80170 0.09490 0.49350
C21 C 0.8128(3) 0.0833(3) 0.4229(2)
C22 C 0.7048(3) 0.1859(3) 0.48372(17)
C23 C 0.5701(3) 0.3075(3) 0.80629(16)
C24 C 0.7376(4) 0.1534(4) 0.4264(2)
H9 H 0.73590 0.15540 0.40060
C25 C 0.5181(4) 0.4162(3) 0.4822(2)
H10 H 0.50400 0.44610 0.49440
C26 C 0.7430(4) 0.1526(4) 0.50001(19)
H11 H 0.74680 0.15260 0.52580
C27 C 0.7019(4) 0.1861(4) 0.4459(2)
H12 H 0.67590 0.20850 0.43320
C28 C 0.5248(4) 0.3297(4) 0.8628(2)
H13 H 0.51830 0.32090 0.88740
C29 C 0.6335(4) 0.2385(3) 0.72454(18)
C30 C 0.5248(4) 0.3642(4) 0.42878(19)
H14 H 0.51650 0.35920 0.40350
C31 C 0.6680(4) 0.2019(4) 0.74422(19)
H15 H 0.69040 0.17770 0.73150
C32 C 0.7777(3) 0.0917(3) 0.8442(2)
C33 C 0.6692(4) 0.2015(4) 0.7827(2)
C34 C 0.8161(3) 0.0539(3) 0.8653(2)
C35 C 0.7054(4) 0.1616(4) 0.80437(19)
C36 C 0.6268(5) 0.2908(4) 0.6268(2)
H16 H 0.62390 0.32450 0.61580
C37 C 0.5588(5) 0.2958(4) 0.8418(2)
H17 H 0.57390 0.26460 0.85250
C38 C 0.6242(5) 0.2858(4) 0.6653(2)
H18 H 0.61540 0.31630 0.67890
C39 C 0.7387(6) 0.1248(5) 0.7878(2)
H19 H 0.73430 0.12010 0.76220
C40 C 0.7076(5) 0.1621(5) 0.8417(2)
H20 H 0.68500 0.18620 0.85440
C41 C 0.7432(5) 0.1268(5) 0.8615(2)
H21 H 0.74350 0.12720 0.88730
C42 C 0.6380(6) 0.1982(4) 0.6240(2)
H22 H 0.64270 0.16710 0.61000
C43 C 0.6360(7) 0.1940(5) 0.6614(3)
H23 H 0.63650 0.16040 0.67270
C44 C 0.7794(5) 0.0938(5) 0.8075(3)
H24 H 0.80720 0.07490 0.79510
In1B In 0.89044(2) 0.01604(2) 0.39580(2)
In1E In 0.39044(2) 0.48396(2) 0.89580(2)
In1G In 0.89044(2) -0.01604(2) 0.89580(2)
O1B O 0.3472(2) 0.5528(2) 0.44037(14)
O2G O 0.3465(3) 0.4782(2) 0.34745(17)
O3B O 0.3144(3) 0.5830(2) 0.38906(16)
O5E O 0.4586(3) 0.5942(2) 0.40240(16)
O6E O 0.4352(2) 0.5543(2) 0.35201(14)
O8G O 0.3203(3) 0.4461(2) 0.39962(15)
#END
