
#######################################################################
#
#                 Cambridge Crystallographic Data Centre
#                                CCDC
#
#######################################################################
#
# If this CIF has been generated from an entry in the Cambridge
# Structural Database, then it will include bibliographic, chemical,
# crystal, experimental, refinement or atomic coordinate data resulting
# from the CCDC's data processing and validation procedures.
#
#######################################################################

data_CSD_CIF_YEXDIR
_audit_creation_date 2018-06-11
_audit_creation_method CSD-ConQuest-V1
_database_code_CSD YEXDIR
_database_code_depnum_ccdc_archive 'CCDC 1837484'
_chemical_formula_sum 'C63 H82 N1 O17 P1 U2'
_chemical_formula_moiety
;
(C42 H54 O16 U2 2-)n,C19 H18 P1 1+,C2 H8 N1 1+,H2 O1
;
_journal_coden_Cambridge 9
_journal_volume 57
_journal_year 2018
_journal_page_first 7932
_journal_name_full 'Inorg.Chem. '
loop_
_publ_author_name
"P.Thuery"
"Y.Atoini"
"J.Harrowfield"
_chemical_name_systematic
;
catena-[dimethylammonium methyl(triphenyl)phosphanium 
tris(\m-2,2'-(tricyclo[3.3.1.1^3,7^]decane-1,3-diyl)diacetato)-tetraoxo-di-ura
nium(vi) monohydrate]
;
_cell_volume   6129.348
_exptl_crystal_colour 'light yellow'
_exptl_crystal_density_diffrn 1.769
_exptl_crystal_description 'parallelepiped'
_diffrn_ambient_temperature 100
#These two values have been output from a single CSD field.
_refine_ls_R_factor_gt 0.0257
_refine_ls_wR_factor_gt 0.0257
_symmetry_cell_setting monoclinic
_symmetry_space_group_name_H-M 'P 21/c'
_symmetry_Int_Tables_number 14
loop_
_symmetry_equiv_pos_site_id
_symmetry_equiv_pos_as_xyz
1 x,y,z
2 -x,1/2+y,1/2-z
3 -x,-y,-z
4 x,-1/2-y,-1/2+z
_cell_length_a 15.9997(4)
_cell_length_b 22.9290(5)
_cell_length_c 16.7751(4)
_cell_angle_alpha 90
_cell_angle_beta 95.1369(14)
_cell_angle_gamma 90
_cell_formula_units_Z 4
loop_
_atom_type_symbol
_atom_type_radius_bond
C 0.68
H 0.23
N 0.68
O 0.68
P 1.05
U 1.96
loop_
_atom_site_label
_atom_site_type_symbol
_atom_site_fract_x
_atom_site_fract_y
_atom_site_fract_z
U1 U 0.50696(2) 0.07140(2) 0.20537(2)
U2 U 1.04002(2) 0.20322(2) 0.42177(2)
O1 O 0.56901(14) 0.10311(11) 0.13453(14)
O2 O 0.44524(14) 0.04168(11) 0.27855(15)
O3 O 1.04373(17) 0.25790(11) 0.34782(16)
O4 O 1.03512(15) 0.14806(11) 0.49526(15)
O5 O 0.60276(14) -0.01073(11) 0.23046(15)
O6 O 0.63402(14) 0.06698(10) 0.30313(15)
O7 O 0.93121(15) 0.15319(11) 0.33325(16)
O8 O 1.06121(15) 0.12970(11) 0.31840(16)
O9 O 0.52604(14) 0.16605(10) 0.27795(14)
O10 O 0.41332(14) 0.15809(11) 0.19487(15)
O11 O 0.19115(15) 0.18007(11) 0.41457(16)
O12 O 0.16011(15) 0.24534(12) 0.50229(16)
O13 O 0.38005(14) 0.06138(10) 0.10956(14)
O14 O 0.47608(15) -0.00644(11) 0.11038(15)
O15 O 0.00410(15) -0.21736(11) -0.01166(16)
O16 O 0.10318(14) -0.26987(11) 0.05067(16)
C1 C 0.8001(2) -0.02375(16) 0.2840(2)
C2 C 0.8370(2) 0.03735(15) 0.2730(2)
H1 H 0.79610 0.06150 0.23980
H2 H 0.84780 0.05650 0.32590
C3 C 0.9197(2) 0.03321(16) 0.2324(2)
C4 C 0.9006(2) 0.00335(17) 0.1508(2)
H3 H 0.95270 0.00070 0.12340
H4 H 0.85970 0.02710 0.11700
C5 C 0.8648(2) -0.05784(17) 0.1609(2)
H5 H 0.85300 -0.07640 0.10710
C6 C 0.7828(2) -0.05242(17) 0.2017(2)
H6 H 0.74190 -0.02860 0.16800
H7 H 0.75820 -0.09160 0.20790
C7 C 0.8641(2) -0.06123(16) 0.3347(2)
H8 H 0.87550 -0.04350 0.38840
H9 H 0.84050 -0.10060 0.34160
C8 C 0.9462(2) -0.06619(16) 0.2946(2)
H10 H 0.98750 -0.09030 0.32860
C9 C 0.9820(2) -0.00472(16) 0.2843(2)
H11 H 0.99400 0.01370 0.33750
H12 H 1.03540 -0.00750 0.25890
C10 C 0.9283(2) -0.09481(17) 0.2122(2)
H13 H 0.98100 -0.09810 0.18570
H14 H 0.90570 -0.13450 0.21850
C11 C 0.7201(2) -0.01903(16) 0.3288(2)
H15 H 0.70040 -0.05890 0.33980
H16 H 0.73500 0.00010 0.38100
C12 C 0.6485(2) 0.01410(15) 0.2853(2)
C13 C 0.9555(2) 0.09420(17) 0.2191(2)
H17 H 1.00380 0.09030 0.18660
H18 H 0.91210 0.11760 0.18780
C14 C 0.9836(2) 0.12708(16) 0.2940(2)
C15 C 0.4328(2) 0.27460(15) 0.3342(2)
C16 C 0.3730(2) 0.23427(15) 0.3765(2)
H19 H 0.31810 0.23210 0.34430
H20 H 0.39690 0.19440 0.38080
C17 C 0.3604(2) 0.25758(16) 0.4607(2)
C18 C 0.4471(2) 0.26092(16) 0.5095(2)
H21 H 0.44020 0.27570 0.56400
H22 H 0.47210 0.22140 0.51460
C19 C 0.5059(2) 0.30155(15) 0.4679(2)
H23 H 0.56160 0.30370 0.50010
C20 C 0.5173(2) 0.27717(16) 0.3846(2)
H24 H 0.55660 0.30230 0.35780
H25 H 0.54180 0.23750 0.38970
C21 C 0.3944(2) 0.33599(15) 0.3279(2)
H26 H 0.33970 0.33460 0.29530
H27 H 0.43200 0.36240 0.30110
C22 C 0.3819(2) 0.35945(16) 0.4116(2)
H28 H 0.35710 0.39950 0.40680
C23 C 0.3234(2) 0.31950(16) 0.4533(2)
H29 H 0.26780 0.31820 0.42220
H30 H 0.31550 0.33500 0.50720
C24 C 0.4672(2) 0.36222(16) 0.4603(2)
H31 H 0.50500 0.38860 0.43370
H32 H 0.46020 0.37800 0.51430
C25 C 0.4434(2) 0.25304(15) 0.2486(2)
H33 H 0.39120 0.26180 0.21450
H34 H 0.48930 0.27550 0.22730
C26 C 0.4623(2) 0.18931(16) 0.2412(2)
C27 C 0.3049(2) 0.21585(17) 0.5055(2)
H35 H 0.32880 0.17610 0.50400
H36 H 0.30730 0.22800 0.56230
C28 C 0.2143(2) 0.21346(16) 0.4724(2)
C29 C 0.2832(2) -0.05644(15) 0.0626(2)
C30 C 0.2497(2) -0.10508(15) 0.0048(2)
H37 H 0.22750 -0.08760 -0.04670
H38 H 0.29620 -0.13160 -0.00580
C31 C 0.1798(2) -0.14007(15) 0.0402(2)
C32 C 0.2166(2) -0.16776(16) 0.1193(2)
H39 H 0.17270 -0.19050 0.14330
H40 H 0.26270 -0.19470 0.10870
C33 C 0.2500(2) -0.12034(16) 0.1774(2)
H41 H 0.27410 -0.13890 0.22830
C34 C 0.3185(2) -0.08473(16) 0.1416(2)
H42 H 0.36620 -0.11050 0.13170
H43 H 0.33940 -0.05410 0.17990
C35 C 0.2101(2) -0.01610(15) 0.0794(2)
H44 H 0.23090 0.01550 0.11620
H45 H 0.18620 0.00190 0.02880
C36 C 0.1415(2) -0.05098(16) 0.1172(2)
H46 H 0.09470 -0.02420 0.12850
C37 C 0.1080(2) -0.09839(16) 0.0587(2)
H47 H 0.08350 -0.08020 0.00840
H48 H 0.06330 -0.12070 0.08220
C38 C 0.1781(2) -0.07928(17) 0.1957(2)
H49 H 0.13400 -0.10160 0.22020
H50 H 0.19950 -0.04880 0.23400
C39 C 0.3516(2) -0.02225(16) 0.0225(2)
H51 H 0.38740 -0.05000 -0.00430
H52 H 0.32460 0.00410 -0.01880
C40 C 0.4055(2) 0.01305(15) 0.0829(2)
C41 C 0.1479(2) -0.18654(16) -0.0214(2)
H53 H 0.12470 -0.16660 -0.07080
H54 H 0.19610 -0.21040 -0.03510
C42 C 0.0816(2) -0.22669(16) 0.0064(2)
P1 P 0.69892(5) 0.14139(4) 0.52799(5)
C43 C 0.7082(2) 0.17356(16) 0.4326(2)
H55 H 0.67150 0.20780 0.42610
H56 H 0.69170 0.14510 0.39050
H57 H 0.76650 0.18550 0.42860
C44 C 0.7305(2) 0.19259(15) 0.6062(2)
C45 C 0.6742(2) 0.23528(15) 0.6273(2)
H58 H 0.61840 0.23560 0.60240
C46 C 0.6989(2) 0.27707(17) 0.6842(2)
H59 H 0.66030 0.30610 0.69810
C47 C 0.7803(2) 0.27644(17) 0.7208(2)
H60 H 0.79740 0.30510 0.75990
C48 C 0.8369(2) 0.23407(16) 0.7006(2)
H61 H 0.89250 0.23390 0.72590
C49 C 0.8126(2) 0.19192(16) 0.6434(2)
H62 H 0.85120 0.16290 0.62980
C50 C 0.7650(2) 0.07851(15) 0.5371(2)
C51 C 0.8466(2) 0.08262(16) 0.5136(2)
H63 H 0.86600 0.11820 0.49270
C52 C 0.8988(2) 0.03442(16) 0.5212(2)
H64 H 0.95490 0.03740 0.50730
C53 C 0.8696(2) -0.01827(16) 0.5490(2)
H65 H 0.90540 -0.05140 0.55270
C54 C 0.7890(2) -0.02272(17) 0.5714(2)
H66 H 0.76930 -0.05890 0.58990
C55 C 0.7365(2) 0.02567(16) 0.5668(2)
H67 H 0.68150 0.02300 0.58370
C56 C 0.5928(2) 0.11852(15) 0.5360(2)
C57 C 0.5643(2) 0.10937(16) 0.6118(2)
H68 H 0.59860 0.11950 0.65890
C58 C 0.4850(2) 0.08521(16) 0.6170(2)
H69 H 0.46470 0.07900 0.66780
C59 C 0.4359(2) 0.07033(17) 0.5479(2)
H70 H 0.38210 0.05360 0.55170
C60 C 0.4640(2) 0.07940(16) 0.4734(2)
H71 H 0.42940 0.06910 0.42650
C61 C 0.5430(2) 0.10363(15) 0.4672(2)
H72 H 0.56270 0.10990 0.41610
O17 O 0.1101(3) 0.12405(19) 0.0518(3)
N1 N 0.2370(2) 0.14431(17) 0.1763(2)
H73 H 0.20910 0.12660 0.13320
H74 H 0.29020 0.15190 0.16400
C62 C 0.2403(2) 0.10416(18) 0.2456(2)
H75 H 0.26810 0.12360 0.29280
H76 H 0.27200 0.06910 0.23370
H77 H 0.18320 0.09320 0.25620
C63 C 0.1935(3) 0.2014(2) 0.1927(3)
H78 H 0.14050 0.19320 0.21550
H79 H 0.18230 0.22300 0.14250
H80 H 0.22980 0.22470 0.23060
U2* U 0.04002(2) 0.20322(2) 0.42177(2)
U2A U -0.04002(2) -0.29678(2) 0.07823(2)
O11* O 1.19115(15) 0.18007(11) 0.41457(16)
O12* O 1.16011(15) 0.24534(12) 0.50229(16)
O15A O 0.99590(15) 0.28264(11) 0.51166(16)
O16A O 0.89682(14) 0.23013(11) 0.44933(16)
#END
