
#######################################################################
#
#                 Cambridge Crystallographic Data Centre
#                                CCDC
#
#######################################################################
#
# If this CIF has been generated from an entry in the Cambridge
# Structural Database, then it will include bibliographic, chemical,
# crystal, experimental, refinement or atomic coordinate data resulting
# from the CCDC's data processing and validation procedures.
#
#######################################################################

data_CSD_CIF_YEXLAR
_audit_creation_date 2018-06-11
_audit_creation_method CSD-ConQuest-V1
_database_code_CSD YEXLAR
_database_code_depnum_ccdc_archive 'CCDC 1819499'
_chemical_formula_sum 'C14 H14 N4 O5 Zn1'
_chemical_formula_moiety
;
(C12 H6 N3 O5 Zn1 1-)n,n(C2 H8 N1 1+)
;
_journal_coden_Cambridge 1147
_journal_volume 18
_journal_year 2018
_journal_page_first 3997
_journal_name_full 'Cryst.Growth Des. '
loop_
_publ_author_name
"Ji-Yong Zou"
"Ling Li"
"Sheng-Yong You"
"Kai-Hong Chen"
"Xiao-Na Dong"
"Yan-Hua Chen"
"Jian-Zhong Cui"
_chemical_name_systematic
;
catena-(dimethylammonium 
(\m-benzotriazolato)-(\m-furan-2,5-dicarboxylato)-zinc)
;
_cell_volume   7127.168
_exptl_crystal_colour 'yellow'
_exptl_crystal_density_diffrn 1.609
_exptl_crystal_description 'block'
_diffrn_ambient_temperature 150
#These two values have been output from a single CSD field.
_refine_ls_R_factor_gt 0.036
_refine_ls_wR_factor_gt 0.036
_symmetry_cell_setting rhombohedral
_symmetry_space_group_name_H-M 'R 3 c'
_symmetry_Int_Tables_number 161
loop_
_symmetry_equiv_pos_site_id
_symmetry_equiv_pos_as_xyz
1 x,y,z
2 -y,x-y,z
3 -x+y,-x,z
4 -y,-x,1/2+z
5 x,x-y,1/2+z
6 -x+y,y,1/2+z
7 2/3+x,1/3+y,1/3+z
8 2/3-y,1/3+x-y,1/3+z
9 2/3-x+y,1/3-x,1/3+z
10 2/3-y,1/3-x,5/6+z
11 2/3+x,1/3+x-y,5/6+z
12 2/3-x+y,1/3+y,5/6+z
13 1/3+x,2/3+y,2/3+z
14 1/3-y,2/3+x-y,2/3+z
15 1/3-x+y,2/3-x,2/3+z
16 1/3-y,2/3-x,1/6+z
17 1/3+x,2/3+x-y,1/6+z
18 1/3-x+y,2/3+y,1/6+z
_cell_length_a 27.0865(3)
_cell_length_b 27.0865(3)
_cell_length_c 11.2171(2)
_cell_angle_alpha 90
_cell_angle_beta 90
_cell_angle_gamma 120
_cell_formula_units_Z 18
loop_
_atom_type_symbol
_atom_type_radius_bond
C 0.68
H 0.23
N 0.68
O 0.68
Zn 1.22
loop_
_atom_site_label
_atom_site_type_symbol
_atom_site_fract_x
_atom_site_fract_y
_atom_site_fract_z
Zn1 Zn -0.08464(3) 0.46853(2) 0.23741(4)
O1 O -0.01591(14) 0.45863(13) 0.2614(3)
O2 O -0.09170(14) 0.37234(14) 0.2746(3)
O3 O -0.03137(12) 0.32366(13) 0.3203(3)
O4 O -0.07273(13) 0.21766(13) 0.3687(3)
O5 O 0.01254(15) 0.22288(15) 0.3665(4)
N1 N -0.12362(16) 0.45555(16) 0.3944(4)
N2 N -0.09411(14) 0.4548(2) 0.4873(5)
N3 N -0.12443(17) 0.44405(17) 0.5857(4)
C1 C -0.0395(2) 0.4052(2) 0.2784(4)
C2 C -0.0017(2) 0.38121(19) 0.3027(4)
C3 C 0.0549(2) 0.3999(2) 0.3056(4)
H1 H 0.08490 0.43810 0.29600
C4 C 0.0606(2) 0.3512(2) 0.3257(5)
H2 H 0.09520 0.35060 0.33170
C5 C 0.0072(2) 0.3060(2) 0.3346(4)
C6 C -0.01783(19) 0.2439(2) 0.3574(4)
C7 C -0.1755(2) 0.44546(18) 0.4338(4)
C8 C -0.2230(2) 0.4414(2) 0.3743(5)
H3 H -0.22270 0.44710 0.29070
C9 C -0.2695(2) 0.4289(2) 0.4422(6)
H4 H -0.30290 0.42450 0.40430
C10 C -0.2697(2) 0.4222(3) 0.5672(6)
H5 H -0.30310 0.41340 0.61120
C11 C -0.2228(2) 0.4282(2) 0.6261(5)
H6 H -0.22240 0.42530 0.71050
C12 C -0.17582(19) 0.43888(18) 0.5571(4)
N4 N -0.25603(17) 0.59490(17) 0.3205(4)
H7 H -0.24330 0.63200 0.33480
H8 H -0.29270 0.57890 0.29790
C13 C -0.2532(3) 0.5681(3) 0.4313(7)
H9 H -0.26670 0.52770 0.41700
H10 H -0.27740 0.57180 0.49160
H11 H -0.21370 0.58690 0.45970
C14 C -0.2230(3) 0.5904(3) 0.2218(7)
H12 H -0.22540 0.61100 0.15240
H13 H -0.23840 0.55010 0.20100
H14 H -0.18300 0.60690 0.24600
Zn1D Zn -0.08464(3) 0.44683(2) 0.73741(4)
Zn1Q Zn -0.113497(30) 0.135197(20) 0.404077(40)
O4K O -0.042943(130) 0.550993(130) 0.202033(300)
N3D N -0.12443(17) 0.43152(17) 0.0857(4)
#END
