
#######################################################################
#
#                 Cambridge Crystallographic Data Centre
#                                CCDC
#
#######################################################################
#
# If this CIF has been generated from an entry in the Cambridge
# Structural Database, then it will include bibliographic, chemical,
# crystal, experimental, refinement or atomic coordinate data resulting
# from the CCDC's data processing and validation procedures.
#
#######################################################################

data_CSD_CIF_YEYRAY
_audit_creation_date 2018-06-12
_audit_creation_method CSD-ConQuest-V1
_database_code_CSD YEYRAY
_database_code_depnum_ccdc_archive 'CCDC 1836742'
_chemical_formula_sum 'C15 H22 Cd1 N2 O8'
_chemical_formula_moiety
;
(C9 H3 Cd1 O6 1-)n,C4 H9 N1 O1,C2 H8 N1 1+,H2 O1
;
_journal_coden_Cambridge 1295
_journal_volume 93
_journal_year 2018
_journal_page_first 83
_journal_name_full 'Inorg.Chem.Commun. '
loop_
_publ_author_name
"Lei Zhang"
"Yun-feng Tan"
"Feng Lin"
"Hui Chen"
"Jian-jun You"
"Ao-nan Lai"
"Xiao-yu Jiang"
"Wen-Zhe Chen"
"Can-Zhong Lu"
_chemical_name_systematic
;
catena-(dimethylammonium (\m~5~-benzene-1,3,5-tricarboxylato)-cadmium 
N,N-dimethylacetamide solvate)
;
_cell_volume   1756.031
_exptl_crystal_colour 'colorless'
_exptl_special_details
;
The formula given in the paper is  [(Me2NH2)Cd(BTC)(DMA)]H2O, the water 
molecule is not located
;
_exptl_crystal_description 'needle'
_diffrn_ambient_temperature 100
#These two values have been output from a single CSD field.
_refine_ls_R_factor_gt 0.0353
_refine_ls_wR_factor_gt 0.0353
_symmetry_cell_setting monoclinic
_symmetry_space_group_name_H-M 'P 21/c'
_symmetry_Int_Tables_number 14
loop_
_symmetry_equiv_pos_site_id
_symmetry_equiv_pos_as_xyz
1 x,y,z
2 -x,1/2+y,1/2-z
3 -x,-y,-z
4 x,-1/2-y,-1/2+z
_cell_length_a 10.0583(6)
_cell_length_b 14.4667(9)
_cell_length_c 13.6582(13)
_cell_angle_alpha 90
_cell_angle_beta 117.923(6)
_cell_angle_gamma 90
_cell_formula_units_Z 4
loop_
_atom_type_symbol
_atom_type_radius_bond
C 0.68
H 0.23
Cd 1.44
N 0.68
O 0.68
loop_
_atom_site_label
_atom_site_type_symbol
_atom_site_fract_x
_atom_site_fract_y
_atom_site_fract_z
Cd1 Cd 0.15153(3) -0.56673(2) 0.56141(2)
O1 O 0.0315(4) -0.6391(3) 0.6389(3)
O2 O -0.1644(5) -0.5430(3) 0.5552(3)
O3 O -0.6295(4) -0.5984(3) 0.5664(3)
O4 O -0.6619(6) -0.7203(5) 0.6461(5)
O5 O -0.2247(6) -0.9466(3) 0.8237(3)
O6 O -0.0037(5) -0.8706(3) 0.8965(3)
C1 C -0.1913(5) -0.6710(3) 0.6491(4)
C2 C -0.3408(5) -0.6494(3) 0.6152(4)
H1 H -0.38400 -0.59840 0.56980
C3 C -0.4264(5) -0.7033(4) 0.6485(4)
C4 C -0.3627(5) -0.7802(4) 0.7142(4)
H2 H -0.42110 -0.81780 0.73420
C5 C -0.2129(5) -0.8016(3) 0.7505(4)
C6 C -0.1274(5) -0.7465(3) 0.7181(4)
H3 H -0.02640 -0.76030 0.74280
C7 C -0.1004(6) -0.6126(4) 0.6119(4)
C8 C -0.5840(6) -0.6743(5) 0.6183(4)
C9 C -0.1407(7) -0.8803(4) 0.8298(4)
O7 O 0.0284(6) -0.5379(3) 0.1585(4)
N1 N -0.2108(8) -0.5463(4) 0.0247(5)
C10 C -0.0288(11) -0.6492(5) 0.0122(6)
H4 H 0.07590 -0.66380 0.05610
H5 H -0.04680 -0.62830 -0.05970
H6 H -0.08810 -0.70340 0.00430
C11 C -0.0716(9) -0.5748(5) 0.0681(6)
C12 C -0.3319(11) -0.5920(7) -0.0691(7)
H7 H -0.29330 -0.61940 -0.11460
H8 H -0.40820 -0.54760 -0.11170
H9 H -0.37450 -0.63930 -0.04300
C13 C -0.2502(9) -0.4726(5) 0.0814(6)
H10 H -0.30250 -0.42400 0.02970
H11 H -0.16000 -0.44830 0.14140
H12 H -0.31370 -0.49750 0.10980
N2 N 0.2762(5) -0.6098(3) 0.3341(4)
H13 H 0.18250 -0.59380 0.28350
H14 H 0.29540 -0.58210 0.39840
C14 C 0.3846(8) -0.5755(4) 0.2973(6)
H15 H 0.36960 -0.60810 0.23170
H16 H 0.48540 -0.58570 0.35490
H17 H 0.36890 -0.51060 0.28150
C15 C 0.2828(6) -0.7117(4) 0.3498(4)
H18 H 0.24800 -0.74170 0.27930
H19 H 0.22000 -0.72920 0.38220
H20 H 0.38470 -0.73000 0.39790
Cd1* Cd -0.84847(3) -0.56673(2) 0.56141(2)
Cd1A Cd -0.15153(3) -1.06673(2) 0.93859(2)
Cd1B Cd -0.15153(3) -0.43327(2) 0.43859(2)
Cd1C Cd 0.15153(3) -0.93327(2) 1.06141(2)
O2B O 0.1644(5) -0.4570(3) 0.4448(3)
O3* O 0.3705(4) -0.5984(3) 0.5664(3)
O4* O 0.3381(6) -0.7203(5) 0.6461(5)
O5A O 0.2247(6) -0.4466(3) 0.6763(3)
O6C O -0.0037(5) -0.6294(3) 0.3965(3)
#END
