
#######################################################################
#
#                 Cambridge Crystallographic Data Centre
#                                CCDC
#
#######################################################################
#
# If this CIF has been generated from an entry in the Cambridge
# Structural Database, then it will include bibliographic, chemical,
# crystal, experimental, refinement or atomic coordinate data resulting
# from the CCDC's data processing and validation procedures.
#
#######################################################################

data_CSD_CIF_YEZDUD
_audit_creation_date 2007-07-26
_audit_creation_method CSD-ConQuest-V1
_database_code_CSD YEZDUD
_database_code_depnum_ccdc_archive 'CCDC 632694'
_chemical_formula_sum 'C104 H68 Cu12 Mn2 N28'
_chemical_formula_moiety
;
(C44 H34 Mn1 N6 2+)2n,n(C16 Cu12 N16 4-)
;
_journal_coden_Cambridge 9
_journal_volume 46
_journal_year 2007
_journal_page_first 2345
_journal_name_full 'Inorg.Chem. '
loop_
_publ_author_name
"Xiao-Ping Zhou"
"Wen-Xiu Ni"
"Shun-Ze Zhan"
"Jia Ni"
"D.Li"
"Ye-Gao Yin"
_chemical_name_systematic
;
catena-[bis(bis(4'-p-Tolyl-2,2':6',2''-terpyridine)-manganese(ii)) 
hexadecakis(\m~2~-cyano)-dodeca-copper(i)]
;
_cell_volume  10404.403
_exptl_crystal_density_diffrn 1.649
_exptl_special_details
;
isostructural with the Fe, Co, Ni and all-Cu analogues

;
_diffrn_ambient_temperature 200
#These two values have been output from a single CSD field.
_refine_ls_R_factor_gt 0.0581
_refine_ls_wR_factor_gt 0.0581
_symmetry_cell_setting monoclinic
_symmetry_space_group_name_H-M 'C 2/c'
_symmetry_Int_Tables_number 15
loop_
_symmetry_equiv_pos_site_id
_symmetry_equiv_pos_as_xyz
1 x,y,z
2 1/2+x,1/2+y,z
3 -x,y,1/2-z
4 1/2-x,1/2+y,1/2-z
5 -x,-y,-z
6 -1/2-x,-1/2-y,-z
7 x,-y,-1/2+z
8 -1/2+x,-1/2-y,-1/2+z
_cell_length_a 35.514(5)
_cell_length_b 18.574(3)
_cell_length_c 16.238(3)
_cell_angle_alpha 90
_cell_angle_beta 103.746(2)
_cell_angle_gamma 90
_cell_formula_units_Z 4
loop_
_atom_type_symbol
_atom_type_radius_bond
C 0.68
H 0.23
Cu 1.26
Mn 1.35
N 0.68
loop_
_atom_site_label
_atom_site_type_symbol
_atom_site_fract_x
_atom_site_fract_y
_atom_site_fract_z
Cu1 Cu 0.50000 1.04650(8) 1.25000
Cu2 Cu 0.50000 1.11746(9) 0.75000
Cu3 Cu 0.57580(2) 1.06188(4) 1.03696(5)
Cu4 Cu 0.70865(2) 0.99785(4) 1.01596(5)
Cu5 Cu 0.79095(2) 0.98427(4) 1.30679(5)
Cu6 Cu 0.92326(2) 1.05848(4) 1.45885(5)
Cu7 Cu 1.00000 1.05292(8) 1.75000
Cu8 Cu 1.00000 1.10803(9) 1.25000
Mn1 Mn 0.13662(2) 0.25193(3) 0.81963(4)
N1 N 0.53085(18) 1.0501(4) 1.1724(4)
N2 N 0.54458(18) 1.1034(3) 0.9286(4)
N3 N 0.6566(2) 1.0158(3) 1.0264(3)
N4 N 0.7367(2) 1.0094(4) 0.9258(4)
N5 N 0.76348(18) 0.9705(3) 1.1905(4)
N6 N 0.87285(18) 1.0256(3) 1.4020(3)
N7 N 0.95067(18) 1.0570(3) 1.5759(4)
N8 N 0.9719(2) 1.1048(4) 1.3362(5)
N9 N 0.17806(14) 0.2457(2) 0.9400(3)
N10 N 0.13794(13) 0.1488(2) 0.8411(3)
N11 N 0.09580(14) 0.2115(2) 0.7096(3)
N12 N 0.17979(14) 0.2625(2) 0.7427(3)
N13 N 0.13768(13) 0.3567(2) 0.8003(3)
N14 N 0.09374(15) 0.2918(3) 0.8858(3)
C1 C 0.52702(19) 1.1149(4) 0.8619(4)
C2 C 0.54871(17) 1.0547(3) 1.1220(4)
C3 C 0.62583(17) 1.0323(3) 1.0317(4)
C4 C 0.74353(16) 0.9710(3) 1.1236(3)
C5 C 0.75607(18) 1.0156(4) 0.8814(4)
C6 C 0.84213(17) 1.0070(3) 1.3654(3)
C7 C 0.96858(18) 1.0554(4) 1.6441(4)
C8 C 0.95454(17) 1.0944(4) 1.3842(4)
C9 C 0.19616(19) 0.2994(3) 0.9899(4)
H1 H 0.19160 0.34750 0.97020
C10 C 0.22058(19) 0.2880(3) 1.0671(4)
H2 H 0.23300 0.32740 1.10000
C11 C 0.22706(19) 0.2178(3) 1.0971(4)
H3 H 0.24390 0.20830 1.15080
C12 C 0.20812(17) 0.1612(3) 1.0460(4)
H4 H 0.21200 0.11270 1.06460
C13 C 0.18399(16) 0.1771(3) 0.9691(3)
C14 C 0.16173(15) 0.1216(3) 0.9118(3)
C15 C 0.16360(15) 0.0488(3) 0.9283(3)
H5 H 0.18120 0.03090 0.97750
C16 C 0.13956(15) 0.0009(3) 0.8725(3)
C17 C 0.14048(17) -0.0764(3) 0.8922(3)
C18 C 0.17463(18) -0.1111(3) 0.9305(4)
H6 H 0.19820 -0.08460 0.94320
C19 C 0.1752(2) -0.1832(3) 0.9505(4)
H7 H 0.19900 -0.20600 0.97610
C20 C 0.1406(2) -0.2232(3) 0.9334(4)
C21 C 0.1412(3) -0.3018(3) 0.9587(5)
H8 H 0.13950 -0.30550 1.01790
H9 H 0.16530 -0.32410 0.95220
H10 H 0.11900 -0.32670 0.92220
C22 C 0.1070(2) -0.1880(3) 0.8971(5)
H11 H 0.08330 -0.21400 0.88590
C23 C 0.10628(19) -0.1158(3) 0.8761(4)
H12 H 0.08240 -0.09320 0.85060
C24 C 0.11589(16) 0.0302(3) 0.7997(3)
H13 H 0.09980 -0.00070 0.75960
C25 C 0.11526(15) 0.1030(3) 0.7844(3)
C26 C 0.09125(16) 0.1402(3) 0.7092(4)
C27 C 0.06618(17) 0.1045(3) 0.6429(4)
H14 H 0.06270 0.05390 0.64520
C28 C 0.04628(19) 0.1438(4) 0.5736(4)
H15 H 0.02930 0.12040 0.52730
C29 C 0.0514(2) 0.2171(4) 0.5727(5)
H16 H 0.03830 0.24510 0.52570
C30 C 0.0759(2) 0.2493(4) 0.6414(5)
H17 H 0.07900 0.30010 0.64120
C31 C 0.20052(18) 0.2106(3) 0.7136(4)
H18 H 0.19560 0.16170 0.72480
C32 C 0.2275(2) 0.2247(4) 0.6701(4)
H19 H 0.24130 0.18680 0.65090
C33 C 0.23461(19) 0.2957(4) 0.6540(4)
H20 H 0.25370 0.30760 0.62400
C34 C 0.21348(17) 0.3500(3) 0.6822(4)
H21 H 0.21810 0.39910 0.67170
C35 C 0.18632(16) 0.3315(3) 0.7247(3)
C36 C 0.16180(15) 0.3852(3) 0.7570(3)
C37 C 0.16282(16) 0.4577(3) 0.7420(3)
H22 H 0.18070 0.47640 0.71230
C38 C 0.13763(15) 0.5043(3) 0.7703(3)
C39 C 0.13730(16) 0.5814(3) 0.7521(3)
C40 C 0.17125(17) 0.6189(3) 0.7507(4)
H23 H 0.19540 0.59440 0.76270
C41 C 0.1698(2) 0.6905(3) 0.7323(4)
H24 H 0.19330 0.71540 0.73360
C42 C 0.1353(2) 0.7281(3) 0.7118(4)
C43 C 0.1346(2) 0.8085(3) 0.6878(5)
H25 H 0.13700 0.81330 0.62920
H26 H 0.15630 0.83330 0.72590
H27 H 0.11010 0.82990 0.69320
C44 C 0.10150(19) 0.6918(3) 0.7110(4)
H28 H 0.07740 0.71650 0.69620
C45 C 0.10241(18) 0.6192(3) 0.7317(4)
H29 H 0.07890 0.59490 0.73200
C46 C 0.11373(16) 0.4741(3) 0.8182(3)
H30 H 0.09710 0.50430 0.84110
C47 C 0.11405(16) 0.4009(3) 0.8324(3)
C48 C 0.08959(16) 0.3633(3) 0.8822(3)
C49 C 0.06592(18) 0.3989(3) 0.9242(4)
H31 H 0.06330 0.44980 0.92010
C50 C 0.0457(2) 0.3596(4) 0.9730(4)
H32 H 0.02910 0.38330 1.00250
C51 C 0.0501(2) 0.2871(4) 0.9777(5)
H33 H 0.03730 0.25930 1.01190
C52 C 0.0738(2) 0.2538(4) 0.9313(5)
H34 H 0.07580 0.20280 0.93210
Cu2* Cu 0.50000 1.11746(9) 1.75000
Cu3B Cu 0.42420(2) 1.06188(4) 1.46304(5)
Cu4B Cu 0.29135(2) 0.99785(4) 1.48404(5)
Cu5B Cu 0.20905(2) 0.98427(4) 1.19321(5)
Cu5F Cu 0.79095(2) 1.01573(4) 0.80679(5)
Cu5D Cu 0.20905(2) 1.01573(4) 1.69321(5)
Cu6B Cu 0.07674(2) 1.05848(4) 1.04115(5)
Cu7* Cu 0.00000 1.05292(8) 0.75000
Cu8* Cu 0.00000 1.10803(9) 1.25000
N1B N 0.46915(18) 1.0501(4) 1.3276(4)
N2B N 0.45542(18) 1.1034(3) 1.5714(4)
N3B N 0.3434(2) 1.0158(3) 1.4736(3)
N4B N 0.2633(2) 1.0094(4) 1.5742(4)
N5B N 0.23652(18) 0.9705(3) 1.3095(4)
N6B N 0.12715(18) 1.0256(3) 1.0980(3)
N7B N 0.04933(18) 1.0570(3) 0.9241(4)
N8B N 0.0281(2) 1.1048(4) 1.1638(5)
N8B* N 1.0281(2) 1.1048(4) 1.1638(5)
C1B C 0.47298(19) 1.1149(4) 1.6381(4)
C1B* C 0.47298(19) 1.1149(4) 0.6381(4)
C2B C 0.45129(17) 1.0547(3) 1.3780(4)
C3B C 0.37417(17) 1.0323(3) 1.4683(4)
C4B C 0.25647(16) 0.9710(3) 1.3764(3)
C5B C 0.24393(18) 1.0156(4) 1.6186(4)
C5F C 0.75607(18) 0.9844(4) 1.3814(4)
C5D C 0.24393(18) 0.9844(4) 1.1186(4)
C6B C 0.15787(17) 1.0070(3) 1.1346(3)
C7B C 0.03142(18) 1.0554(4) 0.8559(4)
C7B* C 1.03142(18) 1.0554(4) 1.8559(4)
C8B C 0.04546(17) 1.0944(4) 1.1158(4)
#END
