
#######################################################################
#
#                 Cambridge Crystallographic Data Centre
#                                CCDC
#
#######################################################################
#
# If this CIF has been generated from an entry in the Cambridge
# Structural Database, then it will include bibliographic, chemical,
# crystal, experimental, refinement or atomic coordinate data resulting
# from the CCDC's data processing and validation procedures.
#
#######################################################################

data_CSD_CIF_YEZDOX
_audit_creation_date 2007-07-26
_audit_creation_method CSD-ConQuest-V1
_database_code_CSD YEZDOX
_database_code_depnum_ccdc_archive 'CCDC 632693'
_chemical_formula_sum 'C38 H22 Co1 Cu6 N14 S2'
_chemical_formula_moiety
;
(C30 H22 Co1 N6 2+)n,n(C8 Cu6 N8 S2 2-)
;
_journal_coden_Cambridge 9
_journal_volume 46
_journal_year 2007
_journal_page_first 2345
_journal_name_full 'Inorg.Chem. '
loop_
_publ_author_name
"Xiao-Ping Zhou"
"Wen-Xiu Ni"
"Shun-Ze Zhan"
"Jia Ni"
"D.Li"
"Ye-Gao Yin"
_chemical_name_systematic
;
catena-[hexakis(\m~2~-Cyano)-bis(\m~2~-thiocyanato)-hexa-copper(i) 
bis(2,2':6',2''-terpyridine)-cobalt(ii) clathrate]
;
_cell_volume   2018.605
_exptl_crystal_colour 'deep red'
_exptl_crystal_density_diffrn 1.94
_exptl_special_details
;
isostructural with the Ni analogue

;
_exptl_crystal_description 'rod-like'
_diffrn_ambient_temperature 293
_refine_special_details
;
a cyano ligand is disordered by symmetry.

;
#These two values have been output from a single CSD field.
_refine_ls_R_factor_gt 0.077
_refine_ls_wR_factor_gt 0.077
_symmetry_cell_setting orthorhombic
_symmetry_space_group_name_H-M 'P 21 21 2'
_symmetry_Int_Tables_number 18
loop_
_symmetry_equiv_pos_site_id
_symmetry_equiv_pos_as_xyz
1 x,y,z
2 -x,-y,z
3 1/2-x,1/2+y,-z
4 1/2+x,1/2-y,-z
_cell_length_a 13.582(2)
_cell_length_b 13.9512(19)
_cell_length_c 10.6531(16)
_cell_angle_alpha 90
_cell_angle_beta 90
_cell_angle_gamma 90
_cell_formula_units_Z 2
loop_
_atom_type_symbol
_atom_type_radius_bond
C 0.68
H 0.23
Co 1.33
Cu 1.21
N 0.68
S 1.02
loop_
_atom_site_label
_atom_site_type_symbol
_atom_site_fract_x
_atom_site_fract_y
_atom_site_fract_z
Cu1 Cu 0.63574(13) 1.11682(13) 0.4737(2)
Cu2 Cu 0.8983(2) 0.8665(2) 0.2138(2)
Cu3 Cu 1.00000 1.00000 -0.1727(2)
Cu4 Cu 1.00000 1.00000 -0.6257(2)
Co1 Co 0.50000 0.00000 0.98527(16)
N1? N 0.9667(8) 0.5270(7) 0.5352(13)
N2 N 0.8753(11) 0.7848(12) 0.3567(14)
N3 N 0.9336(18) 0.9155(11) -0.0527(19)
N4 N 1.00000 1.00000 -0.4503(15)
N5 N 0.7586(10) 1.0857(12) 0.3908(15)
N6 N 0.4654(7) 0.1000(7) 1.1270(8)
N7 N 0.6164(6) 0.0836(6) 0.9862(8)
N8 N 0.5902(8) -0.0628(6) 0.8438(8)
S1 S 0.9047(7) 1.0530(5) 0.2417(6)
C1 C 0.5333(8) 1.0270(7) 0.4648(13)
C2 C 0.8700(11) 0.7278(11) 0.4320(15)
C3 C 0.912(2) 0.8920(13) 0.046(2)
C4 C 1.00000 1.00000 -0.3433(19)
C5 C 0.8216(12) 1.0651(12) 0.3471(13)
C6 C 0.3838(9) 0.1043(10) 1.1967(12)
H1 H 0.33330 0.06090 1.18080
C7 C 0.3710(15) 0.1728(13) 1.2945(13)
H2 H 0.31300 0.17460 1.34090
C8 C 0.4457(15) 0.2359(11) 1.3190(13)
H3 H 0.44030 0.28120 1.38270
C9 C 0.5281(13) 0.2301(9) 1.2467(11)
H4 H 0.57870 0.27340 1.26200
C10 C 0.5410(8) 0.1629(7) 1.151(1)
C11 C 0.6267(9) 0.1539(7) 1.0726(10)
C12 C 0.7102(11) 0.2089(8) 1.0745(13)
H5 H 0.71520 0.25920 1.13140
C13 C 0.7852(11) 0.1911(10) 0.9945(17)
H6 H 0.84280 0.22680 1.00010
C14 C 0.7773(11) 0.1224(10) 0.9077(14)
H7 H 0.82760 0.11200 0.85010
C15 C 0.6913(9) 0.0662(9) 0.9051(11)
C16 C 0.6715(9) -0.0155(8) 0.8182(10)
C17 C 0.7330(11) -0.0391(10) 0.7165(12)
H8 H 0.78820 -0.00230 0.69790
C18 C 0.7095(12) -0.1178(12) 0.6457(12)
H9 H 0.75050 -0.13760 0.58080
C19 C 0.6262(13) -0.1660(11) 0.6713(12)
H10 H 0.60800 -0.21800 0.62190
C20 C 0.5667(10) -0.1381(9) 0.7725(10)
H11 H 0.50980 -0.17270 0.79030
Cu1* Cu 0.63574(13) 1.11682(13) -0.5263(2)
Cu1B Cu 0.86426(13) 0.61682(13) 0.5263(2)
Cu1A Cu 0.36426(13) 0.88318(13) 0.4737(2)
Cu1C Cu 1.13574(13) 1.38318(13) 0.5263(2)
Cu2A Cu 1.1017(2) 1.1335(2) 0.2138(2)
Cu2* Cu 0.8983(2) 0.8665(2) -0.7862(2)
Cu4* Cu 1.00000 1.00000 0.3743(2)
N2A N 1.1247(11) 1.2152(12) 0.3567(14)
N3A N 1.0664(18) 1.0845(11) -0.0527(19)
N5* N 0.7586(10) 1.0857(12) -0.6092(15)
N6A N 0.5346(7) -0.1000(7) 1.1270(8)
N7A N 0.3836(6) -0.0836(6) 0.9862(8)
N8A N 0.4098(8) 0.0628(6) 0.8438(8)
S1* S 0.9047(7) 1.0530(5) -0.7583(6)
S1A S 1.0953(7) 0.9470(5) -0.7583(6)
S1A* S 1.0953(7) 0.9470(5) 0.2417(6)
C1A C 0.4667(8) 0.9730(7) 0.4648(13)
C1* C 0.5333(8) 1.0270(7) -0.5352(13)
C2A C 1.1300(11) 1.2722(11) 0.4320(15)
C2B C 0.6300(11) 1.2278(11) 0.5680(15)
C2B* C 0.6300(11) 1.2278(11) -0.4320(15)
C3A C 1.088(2) 1.1080(13) 0.046(2)
C5* C 0.8216(12) 1.0651(12) -0.6529(13)
C6A C 0.6162(9) -0.1043(10) 1.1967(12)
H1A H 0.66670 -0.06090 1.18080
C7A C 0.6290(15) -0.1728(13) 1.2945(13)
H2A H 0.68700 -0.17460 1.34090
C8A C 0.5543(15) -0.2359(11) 1.3190(13)
H3A H 0.55970 -0.28120 1.38270
C9A C 0.4719(13) -0.2301(9) 1.2467(11)
H4A H 0.42130 -0.27340 1.26200
C10A C 0.4590(8) -0.1629(7) 1.151(1)
C11A C 0.3733(9) -0.1539(7) 1.0726(10)
C12A C 0.2898(11) -0.2089(8) 1.0745(13)
H5A H 0.28480 -0.25920 1.13140
C13A C 0.2148(11) -0.1911(10) 0.9945(17)
H6A H 0.15720 -0.22680 1.00010
C14A C 0.2227(11) -0.1224(10) 0.9077(14)
H7A H 0.17240 -0.11200 0.85010
C15A C 0.3087(9) -0.0662(9) 0.9051(11)
C16A C 0.3285(9) 0.0155(8) 0.8182(10)
C17A C 0.2670(11) 0.0391(10) 0.7165(12)
H8A H 0.21180 0.00230 0.69790
C18A C 0.2905(12) 0.1178(12) 0.6457(12)
H9A H 0.24950 0.13760 0.58080
C19A C 0.3738(13) 0.1660(11) 0.6713(12)
H10A H 0.39200 0.21800 0.62190
C20A C 0.4333(10) 0.1381(9) 0.7725(10)
H11A H 0.49020 0.17270 0.79030
#END
