
#######################################################################
#
#                 Cambridge Crystallographic Data Centre
#                                CCDC
#
#######################################################################
#
# If this CIF has been generated from an entry in the Cambridge
# Structural Database, then it will include bibliographic, chemical,
# crystal, experimental, refinement or atomic coordinate data resulting
# from the CCDC's data processing and validation procedures.
#
#######################################################################

data_CSD_CIF_YEZFIT
_audit_creation_date 2007-07-26
_audit_creation_method CSD-ConQuest-V1
_database_code_CSD YEZFIT
_database_code_depnum_ccdc_archive 'CCDC 632697'
_chemical_formula_sum 'C104 H68 Cu12 N28 Ni2'
_chemical_formula_moiety
;
(C44 H34 N6 Ni1 2+)2n,n(C16 Cu12 N16 4-)
;
_journal_coden_Cambridge 9
_journal_volume 46
_journal_year 2007
_journal_page_first 2345
_journal_name_full 'Inorg.Chem. '
loop_
_publ_author_name
"Xiao-Ping Zhou"
"Wen-Xiu Ni"
"Shun-Ze Zhan"
"Jia Ni"
"D.Li"
"Ye-Gao Yin"
_chemical_name_systematic
;
catena-[bis(bis(4'-p-Tolyl-2,2':6',2''-terpyridine)-nickel(ii)) 
hexadecakis(\m~2~-cyano)-dodeca-copper(i)]
;
_cell_volume  10438.797
_exptl_crystal_colour 'deep brown'
_exptl_crystal_density_diffrn 1.648
_exptl_special_details
;
isostructural with the Mn, Fe, Co and all-Cu analogues

;
_exptl_crystal_description 'block-like'
_diffrn_ambient_temperature 293
#These two values have been output from a single CSD field.
_refine_ls_R_factor_gt 0.0496
_refine_ls_wR_factor_gt 0.0496
_symmetry_cell_setting monoclinic
_symmetry_space_group_name_H-M 'C 2/c'
_symmetry_Int_Tables_number 15
loop_
_symmetry_equiv_pos_site_id
_symmetry_equiv_pos_as_xyz
1 x,y,z
2 1/2+x,1/2+y,z
3 -x,y,1/2-z
4 1/2-x,1/2+y,1/2-z
5 -x,-y,-z
6 -1/2-x,-1/2-y,-z
7 x,-y,-1/2+z
8 -1/2+x,-1/2-y,-1/2+z
_cell_length_a 35.514(3)
_cell_length_b 18.5884(15)
_cell_length_c 16.2731(13)
_cell_angle_alpha 90
_cell_angle_beta 103.660(2)
_cell_angle_gamma 90
_cell_formula_units_Z 4
loop_
_atom_type_symbol
_atom_type_radius_bond
C 0.68
H 0.23
Cu 1.27
N 0.68
Ni 1.50
loop_
_atom_site_label
_atom_site_type_symbol
_atom_site_fract_x
_atom_site_fract_y
_atom_site_fract_z
Cu1 Cu 0.50000 0.60773(8) 0.75000
Cu2 Cu 0.50000 0.55391(7) 0.25000
Cu3 Cu 0.57625(2) 0.55790(4) 0.54058(4)
Cu4 Cu 0.70907(2) 0.48721(4) 0.69169(4)
Cu5 Cu 0.79141(2) 0.49837(4) 0.98251(4)
Cu6 Cu 0.92466(2) 0.56050(4) 0.96355(4)
Cu7 Cu 1.00000 0.61644(8) 1.25000
Cu8 Cu 1.00000 0.54865(7) 0.75000
Ni1 Ni 0.136873(17) 0.25237(3) 0.31972(4)
N1 N 0.52815(17) 0.6047(3) 0.6621(4)
N2 N 0.54878(15) 0.5578(3) 0.4232(4)
N3 N 0.65630(17) 0.5085(3) 0.6316(3)
N4 N 0.74518(15) 0.4875(3) 0.6154(3)
N5 N 0.75604(14) 0.4739(3) 0.8712(3)
N6 N 0.87292(18) 0.5300(3) 0.9682(3)
N7 N 0.95553(15) 0.6016(3) 1.0717(4)
N8 N 0.96954(16) 0.5514(3) 0.8282(3)
N9 N 0.17758(11) 0.24599(19) 0.4377(2)
N10 N 0.13819(10) 0.14755(18) 0.3415(2)
N11 N 0.09661(11) 0.2136(2) 0.2122(2)
N12 N 0.17928(11) 0.26138(18) 0.2483(2)
N13 N 0.13768(10) 0.35755(18) 0.3006(2)
N14 N 0.09516(11) 0.2893(2) 0.3830(3)
C1 C 0.53063(15) 0.5565(3) 0.3558(3)
C2 C 0.54502(16) 0.5932(3) 0.6141(3)
C3 C 0.62555(15) 0.5265(3) 0.5960(3)
C4 C 0.73586(15) 0.4744(3) 0.8054(3)
C5 C 0.76456(16) 0.4926(3) 0.5689(3)
C6 C 0.84186(16) 0.5146(3) 0.9738(3)
C7 C 0.97317(18) 0.6129(4) 1.1383(4)
C8 C 0.95151(16) 0.5561(3) 0.8782(3)
C9 C 0.19532(15) 0.2996(3) 0.4867(3)
H1 H 0.19090 0.34640 0.46630
C10 C 0.21952(16) 0.2900(3) 0.5649(3)
H2 H 0.23140 0.32880 0.59670
C11 C 0.22554(15) 0.2203(3) 0.5945(3)
H3 H 0.24160 0.21120 0.64750
C12 C 0.20755(14) 0.1643(3) 0.5450(3)
H4 H 0.21160 0.11720 0.56430
C13 C 0.18380(13) 0.1781(2) 0.4679(3)
C14 C 0.16194(12) 0.1220(2) 0.4115(3)
C15 C 0.16400(13) 0.0489(2) 0.4282(3)
H5 H 0.18100 0.03140 0.47650
C16 C 0.14039(13) 0.0020(2) 0.3723(3)
C17 C 0.14072(14) -0.0755(2) 0.3923(3)
C18 C 0.17501(16) -0.1103(3) 0.4295(3)
H6 H 0.19820 -0.08490 0.44120
C19 C 0.17487(18) -0.1825(3) 0.4491(4)
H7 H 0.19820 -0.20520 0.47320
C20 C 0.1413(2) -0.2217(3) 0.4341(4)
C21 C 0.1416(2) -0.3011(3) 0.4587(4)
H8 H 0.12000 -0.32520 0.42250
H9 H 0.13970 -0.30510 0.51640
H10 H 0.16530 -0.32300 0.45270
C22 C 0.10725(19) -0.1867(3) 0.3968(4)
H11 H 0.08420 -0.21250 0.38500
C23 C 0.10646(17) -0.1150(3) 0.3767(3)
H12 H 0.08300 -0.09270 0.35250
C24 C 0.11631(13) 0.0301(2) 0.2998(3)
H13 H 0.10050 -0.00030 0.26110
C25 C 0.11581(12) 0.1031(2) 0.2851(3)
C26 C 0.09167(12) 0.1412(2) 0.2109(3)
C27 C 0.06724(15) 0.1073(3) 0.1439(3)
H14 H 0.06400 0.05760 0.14400
C28 C 0.04734(16) 0.1486(3) 0.0758(3)
H15 H 0.03040 0.12700 0.03020
C29 C 0.05307(17) 0.2207(3) 0.0771(4)
H16 H 0.04060 0.24890 0.03160
C30 C 0.07742(15) 0.2519(3) 0.1463(4)
H17 H 0.08060 0.30160 0.14710
C31 C 0.19893(15) 0.2077(3) 0.2217(3)
H18 H 0.19400 0.16060 0.23530
C32 C 0.22603(17) 0.2199(3) 0.1751(3)
H19 H 0.23900 0.18170 0.15700
C33 C 0.23352(17) 0.2894(3) 0.1560(4)
H20 H 0.25210 0.29910 0.12580
C34 C 0.21324(15) 0.3449(3) 0.1820(3)
H21 H 0.21790 0.39230 0.16920
C35 C 0.18592(13) 0.3291(2) 0.2273(3)
C36 C 0.16211(13) 0.3847(2) 0.2568(3)
C37 C 0.16319(13) 0.4576(2) 0.2414(3)
H22 H 0.18040 0.47610 0.21170
C38 C 0.13801(13) 0.5032(2) 0.2710(3)
C39 C 0.13719(14) 0.5806(2) 0.2515(3)
C40 C 0.17055(15) 0.6184(3) 0.2511(3)
H23 H 0.19430 0.59460 0.26430
C41 C 0.16956(16) 0.6900(3) 0.2317(4)
H24 H 0.19270 0.71390 0.23280
C42 C 0.13523(17) 0.7276(3) 0.2105(4)
C43 C 0.1343(2) 0.8062(3) 0.1869(4)
H25 H 0.15550 0.83070 0.22400
H26 H 0.11030 0.82700 0.19210
H27 H 0.13670 0.81090 0.12960
C44 C 0.10146(17) 0.6904(3) 0.2098(4)
H28 H 0.07780 0.71430 0.19530
C45 C 0.10228(16) 0.6177(3) 0.2304(3)
H29 H 0.07930 0.59370 0.23010
C46 C 0.11386(13) 0.4738(2) 0.3177(3)
H30 H 0.09750 0.50340 0.33970
C47 C 0.11419(13) 0.4006(2) 0.3316(3)
C48 C 0.09031(13) 0.3615(2) 0.3810(3)
C49 C 0.06574(15) 0.3946(3) 0.4234(3)
H31 H 0.06210 0.44420 0.41970
C50 C 0.04651(17) 0.3535(3) 0.4716(4)
H32 H 0.03040 0.37520 0.50200
C51 C 0.05161(18) 0.2805(3) 0.4738(4)
H33 H 0.03900 0.25180 0.50560
C52 C 0.07559(16) 0.2502(3) 0.4286(4)
H34 H 0.07840 0.20050 0.42940
Cu2* Cu 0.50000 0.55391(7) 1.25000
Cu3B Cu 0.42375(2) 0.55790(4) 0.95942(4)
Cu4B Cu 0.29093(2) 0.48721(4) 0.80831(4)
Cu5B Cu 0.20859(2) 0.49837(4) 0.51749(4)
Cu5F Cu 0.79141(2) 0.50163(4) 0.48251(4)
Cu5D Cu 0.20859(2) 0.50163(4) 1.01749(4)
Cu6B Cu 0.07534(2) 0.56050(4) 0.53645(4)
Cu7* Cu 0.00000 0.61644(8) 0.25000
Cu8* Cu 0.00000 0.54865(7) 0.75000
N1B N 0.47185(17) 0.6047(3) 0.8379(4)
N2B N 0.45122(15) 0.5578(3) 1.0768(4)
N3B N 0.34370(17) 0.5085(3) 0.8684(3)
N4B N 0.25482(15) 0.4875(3) 0.8846(3)
N5B N 0.24396(14) 0.4739(3) 0.6288(3)
N6B N 0.12708(18) 0.5300(3) 0.5318(3)
N7B N 0.04447(15) 0.6016(3) 0.4283(4)
N8B N 0.03046(16) 0.5514(3) 0.6718(3)
N8B* N 1.03046(16) 0.5514(3) 0.6718(3)
C1B C 0.46937(15) 0.5565(3) 1.1442(3)
C1B* C 0.46937(15) 0.5565(3) 0.1442(3)
C2B C 0.45498(16) 0.5932(3) 0.8859(3)
C3B C 0.37445(15) 0.5265(3) 0.9040(3)
C4B C 0.26414(15) 0.4744(3) 0.6946(3)
C5B C 0.23544(16) 0.4926(3) 0.9311(3)
C5F C 0.76456(16) 0.5074(3) 1.0689(3)
C5D C 0.23544(16) 0.5074(3) 0.4311(3)
C6B C 0.15814(16) 0.5146(3) 0.5262(3)
C7B C 0.02683(18) 0.6129(4) 0.3617(4)
C7B* C 1.02683(18) 0.6129(4) 1.3617(4)
C8B C 0.04849(16) 0.5561(3) 0.6218(3)
#END
