
#######################################################################
#
#                 Cambridge Crystallographic Data Centre
#                                CCDC
#
#######################################################################
#
# If this CIF has been generated from an entry in the Cambridge
# Structural Database, then it will include bibliographic, chemical,
# crystal, experimental, refinement or atomic coordinate data resulting
# from the CCDC's data processing and validation procedures.
#
#######################################################################

data_CSD_CIF_YEZFAL
_audit_creation_date 2007-07-26
_audit_creation_method CSD-ConQuest-V1
_database_code_CSD YEZFAL
_database_code_depnum_ccdc_archive 'CCDC 632695'
_chemical_formula_sum 'C104 H68 Cu12 Fe2 N28'
_chemical_formula_moiety
;
(C44 H34 Fe1 N6 2+)2n,n(C16 Cu12 N16 4-)
;
_journal_coden_Cambridge 9
_journal_volume 46
_journal_year 2007
_journal_page_first 2345
_journal_name_full 'Inorg.Chem. '
loop_
_publ_author_name
"Xiao-Ping Zhou"
"Wen-Xiu Ni"
"Shun-Ze Zhan"
"Jia Ni"
"D.Li"
"Ye-Gao Yin"
_chemical_name_systematic
;
catena-[bis(bis(4'-p-Tolyl-2,2':6',2''-terpyridine)-iron(ii)) 
hexadecakis(\m~2~-cyano)-dodeca-copper(i)]
;
_cell_volume  10291.090
_exptl_crystal_density_diffrn 1.668
_exptl_special_details
;
isostructural with the Mn, Co, Ni and all-Cu analogues

;
_diffrn_ambient_temperature 200
#These two values have been output from a single CSD field.
_refine_ls_R_factor_gt 0.0539
_refine_ls_wR_factor_gt 0.0539
_symmetry_cell_setting monoclinic
_symmetry_space_group_name_H-M 'C 2/c'
_symmetry_Int_Tables_number 15
loop_
_symmetry_equiv_pos_site_id
_symmetry_equiv_pos_as_xyz
1 x,y,z
2 1/2+x,1/2+y,z
3 -x,y,1/2-z
4 1/2-x,1/2+y,1/2-z
5 -x,-y,-z
6 -1/2-x,-1/2-y,-z
7 x,-y,-1/2+z
8 -1/2+x,-1/2-y,-1/2+z
_cell_length_a 35.495(6)
_cell_length_b 18.290(3)
_cell_length_c 16.306(3)
_cell_angle_alpha 90
_cell_angle_beta 103.554(2)
_cell_angle_gamma 90
_cell_formula_units_Z 4
loop_
_atom_type_symbol
_atom_type_radius_bond
C 0.68
H 0.23
Cu 1.25
Fe 1.34
N 0.68
loop_
_atom_site_label
_atom_site_type_symbol
_atom_site_fract_x
_atom_site_fract_y
_atom_site_fract_z
Cu1 Cu 0.50000 1.11513(10) 0.75000
Cu2 Cu 0.50000 1.04666(8) 0.25000
Cu3 Cu 0.57482(3) 1.05458(5) 0.54119(6)
Cu4 Cu 0.70877(3) 0.99364(4) 0.69166(6)
Cu5 Cu 0.79226(3) 0.99909(4) 0.98379(6)
Cu6 Cu 0.92594(3) 1.05662(5) 0.96613(6)
Cu7 Cu 1.00000 1.04448(9) 0.75000
Cu8 Cu 1.00000 1.12129(11) 1.25000
Fe1 Fe 0.13702(2) 0.24924(4) 0.82190(5)
N1 N 0.5283(2) 1.1093(5) 0.6635(6)
N2 N 0.54724(19) 1.0517(4) 0.4236(5)
N3 N 0.6561(2) 1.0081(3) 0.6323(4)
N4 N 0.74529(18) 0.9949(4) 0.6167(4)
N5 N 0.75629(17) 0.9843(3) 0.8717(4)
N6 N 0.8750(2) 1.0238(3) 0.9703(4)
N7 N 0.9556(2) 1.1019(4) 1.0731(5)
N8 N 0.97070(19) 1.0484(4) 0.8296(5)
N9 N 0.17708(13) 0.2469(2) 0.7558(3)
N10 N 0.13734(13) 0.1484(2) 0.8004(3)
N11 N 0.09705(14) 0.2182(3) 0.8815(3)
N12 N 0.17546(14) 0.2502(2) 0.9321(3)
N13 N 0.13797(13) 0.3503(2) 0.8437(3)
N14 N 0.09826(14) 0.2814(3) 0.7197(3)
C1 C 0.52959(19) 1.0503(4) 0.3565(5)
C2 C 0.5448(2) 1.0958(4) 0.6153(5)
C3 C 0.62475(19) 1.0232(4) 0.5964(4)
C4 C 0.7360(2) 0.9840(4) 0.8052(5)
C5 C 0.7655(2) 0.9974(4) 0.5705(5)
C6 C 0.8436(2) 1.0099(4) 0.9760(4)
C7 C 0.9726(2) 1.1169(5) 1.1377(6)
C8 C 0.95301(19) 1.0513(4) 0.8810(5)
C9 C 0.19591(17) 0.3038(3) 0.7319(4)
H1 H 0.19000 0.35170 0.74780
C10 C 0.22331(19) 0.2956(3) 0.6856(4)
H2 H 0.23630 0.33710 0.67060
C11 C 0.23172(19) 0.2269(4) 0.6612(5)
H3 H 0.25050 0.22050 0.62870
C12 C 0.21272(18) 0.1672(3) 0.6842(4)
H4 H 0.21850 0.11920 0.66860
C13 C 0.18515(17) 0.1783(3) 0.7302(4)
C14 C 0.16178(16) 0.1215(3) 0.7570(4)
C15 C 0.16294(17) 0.0462(3) 0.7402(4)
H5 H 0.18070 0.02730 0.71010
C16 C 0.13734(17) -0.0002(3) 0.7687(4)
C17 C 0.13688(17) -0.0794(3) 0.7486(4)
C18 C 0.17111(18) -0.1161(3) 0.7493(4)
H6 H 0.19500 -0.09040 0.76250
C19 C 0.17077(19) -0.1894(3) 0.7310(4)
H7 H 0.19460 -0.21370 0.73230
C20 C 0.1363(2) -0.2291(3) 0.7105(5)
C21 C 0.1363(2) -0.3091(3) 0.6879(6)
H8 H 0.11160 -0.33120 0.69180
H9 H 0.15770 -0.33380 0.72720
H10 H 0.13970 -0.31420 0.63030
C22 C 0.1021(2) -0.1915(3) 0.7089(5)
H11 H 0.07810 -0.21690 0.69420
C23 C 0.10238(19) -0.1176(3) 0.7286(4)
H12 H 0.07870 -0.09330 0.72820
C24 C 0.11308(17) 0.0291(3) 0.8160(4)
H13 H 0.09630 -0.00190 0.83790
C25 C 0.11342(16) 0.1038(3) 0.8311(4)
C26 C 0.09007(16) 0.1449(3) 0.8795(4)
C27 C 0.06448(18) 0.1144(3) 0.9217(4)
H14 H 0.05990 0.06330 0.91860
C28 C 0.04545(19) 0.1583(4) 0.9687(5)
H15 H 0.02790 0.13790 0.99840
C29 C 0.0530(2) 0.2330(4) 0.9708(5)
H16 H 0.04090 0.26470 1.00300
C30 C 0.07842(18) 0.2608(3) 0.9252(4)
H17 H 0.08260 0.31210 0.92530
C31 C 0.19237(18) 0.1922(3) 0.9766(4)
H18 H 0.18710 0.14480 0.95290
C32 C 0.21703(19) 0.1987(3) 1.0550(4)
H19 H 0.22840 0.15660 1.08500
C33 C 0.22499(19) 0.2678(3) 1.0896(4)
H20 H 0.24180 0.27390 1.14380
C34 C 0.20786(18) 0.3282(3) 1.0435(4)
H21 H 0.21320 0.37610 1.06560
C35 C 0.18327(16) 0.3181(3) 0.9662(4)
C36 C 0.16213(16) 0.3764(3) 0.9138(4)
C37 C 0.16447(16) 0.4508(3) 0.9303(4)
H22 H 0.18210 0.46900 0.97920
C38 C 0.14066(17) 0.4991(3) 0.8743(4)
C39 C 0.14138(18) 0.5785(3) 0.8945(4)
C40 C 0.1763(2) 0.6125(3) 0.9302(4)
H23 H 0.19980 0.58560 0.94100
C41 C 0.1764(2) 0.6855(3) 0.9498(5)
H24 H 0.20050 0.70840 0.97440
C42 C 0.1432(2) 0.7269(4) 0.9351(5)
C43 C 0.1447(3) 0.8079(4) 0.9574(6)
H25 H 0.12060 0.82190 0.97290
H26 H 0.14760 0.83670 0.90860
H27 H 0.16680 0.81710 1.00500
C44 C 0.1085(2) 0.6919(4) 0.8993(5)
H28 H 0.08510 0.71900 0.88910
C45 C 0.1073(2) 0.6186(3) 0.8782(5)
H29 H 0.08330 0.59600 0.85270
C46 C 0.11599(17) 0.4709(3) 0.8027(4)
H30 H 0.09950 0.50250 0.76400
C47 C 0.11535(16) 0.3958(3) 0.7874(4)
C48 C 0.09203(16) 0.3556(3) 0.7150(4)
C49 C 0.06637(18) 0.3865(3) 0.6470(4)
H31 H 0.06150 0.43760 0.64560
C50 C 0.0478(2) 0.3423(4) 0.5807(5)
H32 H 0.03060 0.36290 0.53270
C51 C 0.0546(2) 0.2684(4) 0.5854(5)
H33 H 0.04230 0.23720 0.54050
C52 C 0.07966(19) 0.2397(3) 0.6565(4)
H34 H 0.08370 0.18840 0.66000
Cu2* Cu 0.50000 1.04666(8) 1.25000
Cu3B Cu 0.42518(3) 1.05458(5) 0.95881(6)
Cu4B Cu 0.29123(3) 0.99364(4) 0.80834(6)
Cu5B Cu 0.20774(3) 0.99909(4) 0.51621(6)
Cu5F Cu 0.79226(3) 1.00091(4) 0.48379(6)
Cu5D Cu 0.20774(3) 1.00091(4) 1.01621(6)
Cu6B Cu 0.07406(3) 1.05662(5) 0.53387(6)
Cu7* Cu 0.00000 1.04448(9) 0.75000
Cu8* Cu 0.00000 1.12129(11) 0.25000
N1B N 0.4717(2) 1.1093(5) 0.8365(6)
N2B N 0.45276(19) 1.0517(4) 1.0764(5)
N3B N 0.3439(2) 1.0081(3) 0.8677(4)
N4B N 0.25471(18) 0.9949(4) 0.8833(4)
N5B N 0.24371(17) 0.9843(3) 0.6283(4)
N6B N 0.1250(2) 1.0238(3) 0.5297(4)
N7B N 0.0444(2) 1.1019(4) 0.4269(5)
N8B N 0.02930(19) 1.0484(4) 0.6704(5)
N8B* N 1.02930(19) 1.0484(4) 0.6704(5)
C1B C 0.47041(19) 1.0503(4) 1.1435(5)
C1B* C 0.47041(19) 1.0503(4) 0.1435(5)
C2B C 0.4552(2) 1.0958(4) 0.8847(5)
C3B C 0.37525(19) 1.0232(4) 0.9036(4)
C4B C 0.2640(2) 0.9840(4) 0.6948(5)
C5B C 0.2345(2) 0.9974(4) 0.9295(5)
C5F C 0.7655(2) 1.0026(4) 1.0705(5)
C5D C 0.2345(2) 1.0026(4) 0.4295(5)
C6B C 0.1564(2) 1.0099(4) 0.5240(4)
C7B C 0.0274(2) 1.1169(5) 0.3623(6)
C7B* C 1.0274(2) 1.1169(5) 1.3623(6)
C8B C 0.04699(19) 1.0513(4) 0.6190(5)
#END
