
#######################################################################
#
#                 Cambridge Crystallographic Data Centre
#                                CCDC
#
#######################################################################
#
# If this CIF has been generated from an entry in the Cambridge
# Structural Database, then it will include bibliographic, chemical,
# crystal, experimental, refinement or atomic coordinate data resulting
# from the CCDC's data processing and validation procedures.
#
#######################################################################

data_CSD_CIF_YEZFEP
_audit_creation_date 2007-07-26
_audit_creation_method CSD-ConQuest-V1
_database_code_CSD YEZFEP
_database_code_depnum_ccdc_archive 'CCDC 632696'
_chemical_formula_sum 'C104 H68 Co2 Cu12 N28'
_chemical_formula_moiety
;
(C44 H34 Co1 N6 2+)2n,n(C16 Cu12 N16 4-)
;
_journal_coden_Cambridge 9
_journal_volume 46
_journal_year 2007
_journal_page_first 2345
_journal_name_full 'Inorg.Chem. '
loop_
_publ_author_name
"Xiao-Ping Zhou"
"Wen-Xiu Ni"
"Shun-Ze Zhan"
"Jia Ni"
"D.Li"
"Ye-Gao Yin"
_chemical_name_systematic
;
catena-[bis(bis(4'-p-Tolyl-2,2':6',2''-terpyridine)-cobalt(ii)) 
hexadecakis(\m~2~-cyano)-dodeca-copper(i)]
;
_cell_volume  10392.766
_exptl_crystal_colour 'deep red'
_exptl_crystal_density_diffrn 1.655
_exptl_special_details
;
isostructural with the Mn, Fe, Ni and all-Cu analogues

;
_exptl_crystal_description 'block-like'
_diffrn_ambient_temperature 293
#These two values have been output from a single CSD field.
_refine_ls_R_factor_gt 0.0534
_refine_ls_wR_factor_gt 0.0534
_symmetry_cell_setting monoclinic
_symmetry_space_group_name_H-M 'C 2/c'
_symmetry_Int_Tables_number 15
loop_
_symmetry_equiv_pos_site_id
_symmetry_equiv_pos_as_xyz
1 x,y,z
2 1/2+x,1/2+y,z
3 -x,y,1/2-z
4 1/2-x,1/2+y,1/2-z
5 -x,-y,-z
6 -1/2-x,-1/2-y,-z
7 x,-y,-1/2+z
8 -1/2+x,-1/2-y,-1/2+z
_cell_length_a 35.528(2)
_cell_length_b 18.4842(11)
_cell_length_c 16.2804(10)
_cell_angle_alpha 90
_cell_angle_beta 103.575(1)
_cell_angle_gamma 90
_cell_formula_units_Z 4
loop_
_atom_type_symbol
_atom_type_radius_bond
C 0.68
H 0.23
Co 1.33
Cu 1.20
N 0.68
loop_
_atom_site_label
_atom_site_type_symbol
_atom_site_fract_x
_atom_site_fract_y
_atom_site_fract_z
Cu1 Cu 0.50000 0.05068(7) 0.75000
Cu2 Cu 0.50000 0.11121(8) 0.25000
Cu3 Cu 0.42444(2) 0.05717(4) 0.45923(5)
Cu4 Cu 0.29118(2) -0.00893(4) 0.30883(4)
Cu5 Cu 0.20827(2) -0.00071(4) 0.01758(5)
Cu6 Cu 0.07489(2) 0.05949(4) 0.03544(5)
Cu7 Cu 0.00000 0.11808(9) -0.25000
Cu8 Cu 0.00000 0.04759(7) 0.25000
Co1 Co 0.136958(18) 0.24861(3) 0.32062(4)
N1 N 0.47189(18) 0.1065(4) 0.3371(4)
N2 N 0.45187(15) 0.0551(3) 0.5765(4)
N3 N 0.34380(17) 0.0101(3) 0.3680(3)
N4 N 0.25501(15) -0.0089(3) 0.3854(3)
N5 N 0.24407(14) -0.0216(3) 0.1287(3)
N6 N 0.12635(17) 0.0290(3) 0.0311(3)
N7 N 0.04467(16) 0.1014(3) -0.0719(4)
N8 N 0.03006(15) 0.0510(3) 0.1710(4)
N9 N 0.09709(11) 0.2836(2) 0.2140(3)
N10 N 0.13797(10) 0.34914(18) 0.3413(2)
N11 N 0.17675(11) 0.2513(2) 0.4356(2)
N12 N 0.17877(11) 0.24346(19) 0.2505(3)
N13 N 0.13734(10) 0.14738(19) 0.3007(2)
N14 N 0.09546(12) 0.2149(2) 0.3836(3)
C1 C 0.46996(16) 0.0533(3) 0.6442(3)
C2 C 0.45487(16) 0.0947(4) 0.3854(4)
C3 C 0.37443(15) 0.0268(3) 0.4036(3)
C4 C 0.26386(15) -0.0209(3) 0.1949(4)
C5 C 0.23517(16) -0.0046(3) 0.4313(4)
C6 C 0.15712(15) 0.0141(3) 0.0255(3)
C7 C 0.02691(18) 0.1138(4) -0.1387(4)
C8 C 0.04797(15) 0.0543(3) 0.1213(4)
C9 C 0.07789(16) 0.2446(3) 0.1487(4)
H1 H 0.08120 0.19470 0.15040
C10 C 0.05346(17) 0.2746(3) 0.0788(4)
H2 H 0.04110 0.24570 0.03390
C11 C 0.04770(17) 0.3479(3) 0.0768(4)
H3 H 0.03110 0.36940 0.03060
C12 C 0.06697(15) 0.3897(3) 0.1444(3)
H4 H 0.06310 0.43950 0.14440
C13 C 0.09192(13) 0.3566(2) 0.2118(3)
C14 C 0.11565(12) 0.3946(2) 0.2854(3)
C15 C 0.11631(13) 0.4684(2) 0.3001(3)
H5 H 0.10060 0.49900 0.26150
C16 C 0.14048(13) 0.4966(2) 0.3725(3)
C17 C 0.14110(15) 0.5747(2) 0.3925(3)
C18 C 0.10718(17) 0.6147(3) 0.3763(4)
H6 H 0.08390 0.59260 0.35080
C19 C 0.10765(19) 0.6870(3) 0.3976(4)
H7 H 0.08450 0.71250 0.38740
C20 C 0.14174(19) 0.7221(3) 0.4337(4)
C21 C 0.1425(2) 0.8019(3) 0.4571(5)
H8 H 0.12090 0.82610 0.42110
H9 H 0.16620 0.82320 0.45010
H10 H 0.14090 0.80670 0.51490
C22 C 0.17512(18) 0.6820(3) 0.4499(4)
H11 H 0.19840 0.70420 0.47580
C23 C 0.17518(16) 0.6097(3) 0.4290(3)
H12 H 0.19840 0.58430 0.43950
C24 C 0.16402(13) 0.4490(2) 0.4282(3)
H13 H 0.18100 0.46660 0.47650
C25 C 0.16208(12) 0.3755(2) 0.4118(3)
C26 C 0.18348(13) 0.3192(2) 0.4674(3)
C27 C 0.20757(14) 0.3320(3) 0.5446(3)
H14 H 0.21180 0.37910 0.56480
C28 C 0.22571(16) 0.2742(3) 0.5929(4)
H15 H 0.24240 0.28190 0.64550
C29 C 0.21838(16) 0.2056(3) 0.5612(4)
H16 H 0.22970 0.16590 0.59250
C30 C 0.19433(15) 0.1964(3) 0.4833(3)
H17 H 0.18990 0.14960 0.46210
C31 C 0.19813(15) 0.2978(3) 0.2239(3)
H18 H 0.19300 0.34500 0.23770
C32 C 0.22499(17) 0.2863(3) 0.1774(4)
H19 H 0.23760 0.32540 0.15960
C33 C 0.23335(17) 0.2170(3) 0.1570(4)
H20 H 0.25210 0.20810 0.12690
C34 C 0.21310(15) 0.1606(3) 0.1824(3)
H21 H 0.21790 0.11320 0.16870
C35 C 0.18574(13) 0.1747(2) 0.2283(3)
C36 C 0.16202(12) 0.1202(2) 0.2570(3)
C37 C 0.16283(13) 0.0465(2) 0.2410(3)
H22 H 0.17980 0.02800 0.21060
C38 C 0.13792(13) 0.0003(2) 0.2710(3)
C39 C 0.13723(13) -0.0780(2) 0.2505(3)
C40 C 0.17078(15) -0.1150(3) 0.2503(4)
H23 H 0.19440 -0.09090 0.26380
C41 C 0.16976(16) -0.1874(3) 0.2304(4)
H24 H 0.19280 -0.21120 0.23020
C42 C 0.13560(17) -0.2255(3) 0.2107(4)
C43 C 0.1350(2) -0.3053(3) 0.1873(5)
H25 H 0.11090 -0.32640 0.19240
H26 H 0.15610 -0.32970 0.22470
H27 H 0.13750 -0.31020 0.13010
C44 C 0.10211(17) -0.1885(3) 0.2106(4)
H28 H 0.07860 -0.21290 0.19680
C45 C 0.10255(15) -0.1156(3) 0.2307(4)
H29 H 0.07950 -0.09180 0.23090
C46 C 0.11373(13) 0.0295(2) 0.3173(3)
H30 H 0.09720 -0.00040 0.33860
C47 C 0.11399(12) 0.1037(2) 0.3323(3)
C48 C 0.09021(13) 0.1421(2) 0.3811(3)
C49 C 0.06568(15) 0.1091(3) 0.4236(3)
H31 H 0.06230 0.05920 0.42070
C50 C 0.04592(17) 0.1512(4) 0.4711(4)
H32 H 0.02910 0.12990 0.50000
C51 C 0.05188(18) 0.2252(4) 0.4743(4)
H33 H 0.03960 0.25480 0.50620
C52 C 0.07648(16) 0.2536(3) 0.4290(4)
H34 H 0.08000 0.30350 0.43030
Cu2* Cu 0.50000 0.11121(8) 1.25000
Cu3B Cu 0.57556(2) 0.05717(4) 1.04077(5)
Cu4B Cu 0.70882(2) -0.00893(4) 1.19117(4)
Cu5B Cu 0.79173(2) -0.00071(4) 1.48242(5)
Cu5F Cu 0.20827(2) 0.00071(4) 0.51758(5)
Cu5D Cu 0.79173(2) 0.00071(4) 0.98242(5)
Cu6B Cu 0.92511(2) 0.05949(4) 1.46456(5)
Cu7* Cu 1.00000 0.11808(9) 1.75000
Cu8* Cu 1.00000 0.04759(7) 1.25000
N1B N 0.52811(18) 0.1065(4) 1.1629(4)
N1B* N 0.52811(18) 0.1065(4) 0.1629(4)
N2B N 0.54813(15) 0.0551(3) 0.9235(4)
N3B N 0.65620(17) 0.0101(3) 1.1320(3)
N4B N 0.74499(15) -0.0089(3) 1.1146(3)
N5B N 0.75593(14) -0.0216(3) 1.3713(3)
N6B N 0.87365(17) 0.0290(3) 1.4689(3)
N7B N 0.95533(16) 0.1014(3) 1.5719(4)
N8B N 0.96994(15) 0.0510(3) 1.3290(4)
N8B* N -0.03006(15) 0.0510(3) 0.3290(4)
C1B C 0.53004(16) 0.0533(3) 0.8558(3)
C2B C 0.54513(16) 0.0947(4) 1.1146(4)
C3B C 0.62557(15) 0.0268(3) 1.0964(3)
C4B C 0.73614(15) -0.0209(3) 1.3051(4)
C5B C 0.76483(16) -0.0046(3) 1.0687(4)
C5F C 0.23517(16) 0.0046(3) -0.0687(4)
C5D C 0.76483(16) 0.0046(3) 1.5687(4)
C6B C 0.84288(15) 0.0141(3) 1.4745(3)
C7B C 0.97309(18) 0.1138(4) 1.6387(4)
C7B* C -0.02691(18) 0.1138(4) -0.3613(4)
C8B C 0.95203(15) 0.0543(3) 1.3787(4)
#END
