
#######################################################################
#
#                 Cambridge Crystallographic Data Centre
#                                CCDC
#
#######################################################################
#
# If this CIF has been generated from an entry in the Cambridge
# Structural Database, then it will include bibliographic, chemical,
# crystal, experimental, refinement or atomic coordinate data resulting
# from the CCDC's data processing and validation procedures.
#
#######################################################################

data_CSD_CIF_YEZFOZ
_audit_creation_date 2007-07-26
_audit_creation_method CSD-ConQuest-V1
_database_code_CSD YEZFOZ
_database_code_depnum_ccdc_archive 'CCDC 632698'
_chemical_formula_sum 'C104 H68 Cu14 N28'
_chemical_formula_moiety
;
(C44 H34 Cu1 N6 2+)2n,n(C16 Cu12 N16 4-)
;
_journal_coden_Cambridge 9
_journal_volume 46
_journal_year 2007
_journal_page_first 2345
_journal_name_full 'Inorg.Chem. '
loop_
_publ_author_name
"Xiao-Ping Zhou"
"Wen-Xiu Ni"
"Shun-Ze Zhan"
"Jia Ni"
"D.Li"
"Ye-Gao Yin"
_chemical_name_systematic
;
catena-[bis(bis(4'-p-Tolyl-2,2':6',2''-terpyridine)-copper(ii)) 
hexadecakis(\m~2~-cyano)-dodeca-copper(i)]
;
_cell_volume  10405.875
_exptl_crystal_density_diffrn 1.659
_exptl_special_details
;
isostructural with the Mn-Cu, Fe-Cu, Co-Cu and Ni-Cu analogues

;
_diffrn_ambient_temperature 200
#These two values have been output from a single CSD field.
_refine_ls_R_factor_gt 0.0412
_refine_ls_wR_factor_gt 0.0412
_symmetry_cell_setting monoclinic
_symmetry_space_group_name_H-M 'C 2/c'
_symmetry_Int_Tables_number 15
loop_
_symmetry_equiv_pos_site_id
_symmetry_equiv_pos_as_xyz
1 x,y,z
2 1/2+x,1/2+y,z
3 -x,y,1/2-z
4 1/2-x,1/2+y,1/2-z
5 -x,-y,-z
6 -1/2-x,-1/2-y,-z
7 x,-y,-1/2+z
8 -1/2+x,-1/2-y,-1/2+z
_cell_length_a 35.529(4)
_cell_length_b 18.5537(18)
_cell_length_c 16.2503(16)
_cell_angle_alpha 90
_cell_angle_beta 103.733(1)
_cell_angle_gamma 90
_cell_formula_units_Z 4
loop_
_atom_type_symbol
_atom_type_radius_bond
C 0.68
H 0.23
Cu 1.27
N 0.68
loop_
_atom_site_label
_atom_site_type_symbol
_atom_site_fract_x
_atom_site_fract_y
_atom_site_fract_z
C1 C 0.46843(11) 1.0548(2) 1.1440(2)
C2 C 0.45443(11) 1.0945(2) 0.8843(2)
C3 C 0.37367(11) 1.0256(2) 0.9026(2)
C4 C 0.26405(11) 0.9711(2) 0.6927(3)
C5 C 0.23522(13) 0.9915(3) 0.9296(3)
C6 C 0.15747(11) 0.9848(2) 1.0257(2)
C7 C 0.02747(13) 0.8855(3) 0.8619(3)
C8 C 0.04871(11) 0.9455(2) 1.1226(2)
C9 C 0.42588(14) 0.7462(2) 0.5671(3)
H1 H 0.42330 0.79720 0.56480
C10 C 0.44951(14) 0.7136(3) 0.5218(3)
H2 H 0.46240 0.74140 0.48760
C11 C 0.45399(13) 0.6407(3) 0.5270(3)
H3 H 0.47060 0.61700 0.49760
C12 C 0.43409(12) 0.6016(2) 0.5755(3)
H4 H 0.43690 0.55070 0.57960
C13 C 0.41011(10) 0.63679(19) 0.6178(2)
C14 C 0.3859(1) 0.59953(18) 0.6676(2)
C15 C 0.38634(10) 0.52605(18) 0.6815(2)
H5 H 0.40300 0.49590 0.65890
C16 C 0.36219(10) 0.49631(18) 0.7289(2)
C17 C 0.36291(10) 0.41859(19) 0.7483(2)
C18 C 0.39785(12) 0.3810(2) 0.7687(2)
H6 H 0.42140 0.40540 0.76900
C19 C 0.39848(13) 0.3083(2) 0.7885(3)
H7 H 0.42250 0.28350 0.80200
C20 C 0.36485(12) 0.2713(2) 0.7889(3)
C21 C 0.36512(15) 0.1925(2) 0.8107(3)
H8 H 0.38960 0.17090 0.80540
H9 H 0.34350 0.16830 0.77180
H10 H 0.36240 0.18700 0.86900
C22 C 0.33026(13) 0.3089(2) 0.7679(3)
H11 H 0.30670 0.28410 0.76640
C23 C 0.32904(12) 0.3815(2) 0.7490(2)
H12 H 0.30490 0.40630 0.73640
C24 C 0.33706(10) 0.54210(18) 0.7580(2)
H13 H 0.31930 0.52310 0.78790
C25 C 0.33811(10) 0.61560(18) 0.7431(2)
C26 C 0.31368(10) 0.66913(18) 0.7746(2)
C27 C 0.28631(11) 0.6503(2) 0.8181(2)
H14 H 0.28180 0.60110 0.82910
C28 C 0.26536(13) 0.7050(2) 0.8458(3)
H15 H 0.24620 0.69340 0.87560
C29 C 0.27252(13) 0.7756(2) 0.8299(3)
H16 H 0.25890 0.81350 0.84940
C30 C 0.29973(12) 0.7899(2) 0.7851(3)
H17 H 0.30450 0.83880 0.77310
C31 C 0.30396(13) 0.7002(2) 0.5110(3)
H18 H 0.30810 0.65220 0.53140
C32 C 0.27984(12) 0.7120(2) 0.4323(3)
H19 H 0.26780 0.67280 0.39850
C33 C 0.27364(12) 0.7815(2) 0.4039(3)
H20 H 0.25680 0.79100 0.35020
C34 C 0.29191(11) 0.8380(2) 0.4533(2)
H21 H 0.28780 0.88640 0.43420
C35 C 0.31628(10) 0.82228(19) 0.5312(2)
C36 C 0.33822(10) 0.87818(18) 0.5883(2)
C37 C 0.33622(10) 0.95102(18) 0.5714(2)
H22 H 0.31880 0.96890 0.52200
C38 C 0.3601(1) 0.99852(18) 0.6276(2)
C39 C 0.35940(11) 1.07608(19) 0.6075(2)
C40 C 0.32502(12) 1.11096(19) 0.5701(2)
H23 H 0.30130 1.08490 0.55810
C41 C 0.32508(13) 1.1832(2) 0.5504(3)
H24 H 0.30120 1.20610 0.52540
C42 C 0.35881(14) 1.2234(2) 0.5659(3)
C43 C 0.35822(16) 1.3017(3) 0.5421(3)
H25 H 0.38050 1.32620 0.57840
H26 H 0.33420 1.32380 0.54950
H27 H 0.35960 1.30610 0.48270
C44 C 0.39310(14) 1.1883(2) 0.6033(3)
H28 H 0.41670 1.21460 0.61510
C45 C 0.39362(12) 1.1157(2) 0.6238(3)
H29 H 0.41750 1.09290 0.64920
C46 C 0.38414(10) 0.97008(18) 0.7004(2)
H30 H 0.40040 1.00100 0.74020
C47 C 0.38437(10) 0.89663(18) 0.7146(2)
C48 C 0.40872(10) 0.85970(19) 0.7902(2)
C49 C 0.43358(11) 0.8951(2) 0.8565(2)
H31 H 0.43690 0.94590 0.85450
C50 C 0.45350(13) 0.8557(3) 0.9257(3)
H32 H 0.47070 0.87900 0.97180
C51 C 0.44795(13) 0.7825(3) 0.9263(3)
H33 H 0.46060 0.75440 0.97370
C52 C 0.42372(13) 0.7502(2) 0.8571(3)
H34 H 0.42080 0.69930 0.85680
Cu1 Cu 0.50000 1.10808(5) 0.75000
Cu2 Cu 0.50000 1.05262(5) 1.25000
Cu3 Cu 0.423370(15) 1.05857(3) 0.95881(3)
Cu4 Cu 0.291030(15) 0.98472(3) 0.80697(3)
Cu5 Cu 0.208590(15) 1.00205(3) 1.01605(3)
Cu6 Cu 0.075720(15) 0.93806(3) 1.03673(3)
Cu7 Cu 0.00000 0.95372(5) 1.25000
Cu8 Cu 0.00000 0.88273(5) 0.75000
Cu9 Cu 0.363336(13) 0.74823(2) 0.68016(3)
N1 N 0.47181(14) 1.1053(3) 0.8359(3)
N2 N 0.45039(12) 1.0571(2) 1.0756(3)
N3 N 0.34305(12) 1.0076(2) 0.8659(2)
N4 N 0.25516(12) 0.9851(2) 0.8831(2)
N5 N 0.2437(1) 0.97124(19) 0.6253(2)
N6 N 0.12651(12) 0.9690(2) 1.0319(2)
N7 N 0.04503(11) 0.8969(2) 0.9300(3)
N8 N 0.03084(12) 0.9500(2) 1.1733(3)
N9 N 0.40653(9) 0.70890(17) 0.6143(2)
N10 N 0.36239(8) 0.64343(15) 0.69974(18)
N11 N 0.32011(9) 0.73822(15) 0.75716(19)
N12 N 0.32181(9) 0.75418(15) 0.55983(19)
N13 N 0.36216(8) 0.85185(15) 0.65870(18)
N14 N 0.40430(9) 0.78767(17) 0.7909(2)
C1B C 0.53157(11) 1.0548(2) 0.3560(2)
C1B* C 0.53157(11) 1.0548(2) 1.3560(2)
C2B C 0.54557(11) 1.0945(2) 0.6157(2)
C3B C 0.62633(11) 1.0256(2) 0.5974(2)
C4B C 0.73595(11) 0.9711(2) 0.8073(3)
C5B C 0.76478(13) 0.9915(3) 0.5704(3)
C6B C 0.84253(11) 0.9848(2) 0.4743(2)
C7B C 0.97253(13) 0.8855(3) 0.6381(3)
C7B* C -0.02747(13) 0.8855(3) 0.6381(3)
C8B C 0.95129(11) 0.9455(2) 0.3774(2)
Cu2* Cu 0.50000 1.05262(5) 0.25000
Cu3B Cu 0.576630(15) 1.05857(3) 0.54119(3)
Cu4B Cu 0.708970(15) 0.98472(3) 0.69303(3)
Cu5B Cu 0.791410(15) 1.00205(3) 0.48395(3)
Cu5F Cu 0.208590(15) 0.99795(3) 0.51605(3)
Cu5D Cu 0.791410(15) 0.99795(3) 0.98395(3)
Cu6B Cu 0.924280(15) 0.93806(3) 0.46327(3)
Cu7* Cu 1.00000 0.95372(5) 0.25000
Cu8* Cu 1.00000 0.88273(5) 0.75000
N1B N 0.52819(14) 1.1053(3) 0.6641(3)
N2B N 0.54961(12) 1.0571(2) 0.4244(3)
N3B N 0.65695(12) 1.0076(2) 0.6341(2)
N4B N 0.74484(12) 0.9851(2) 0.6169(2)
N5B N 0.7563(1) 0.97124(19) 0.8747(2)
N5F N 0.2437(1) 1.02876(19) 1.1253(2)
N5D N 0.7563(1) 1.02876(19) 0.3747(2)
N6B N 0.87349(12) 0.9690(2) 0.4681(2)
N7B N 0.95497(11) 0.8969(2) 0.5700(3)
N8B N 0.96916(12) 0.9500(2) 0.3267(3)
N8B* N -0.03084(12) 0.9500(2) 1.3267(3)
#END
