
#######################################################################
#
#                 Cambridge Crystallographic Data Centre
#                                CCDC
#
#######################################################################
#
# If this CIF has been generated from an entry in the Cambridge
# Structural Database, then it will include bibliographic, chemical,
# crystal, experimental, refinement or atomic coordinate data resulting
# from the CCDC's data processing and validation procedures.
#
#######################################################################

data_CSD_CIF_YEZKAS
_audit_creation_date 2018-06-12
_audit_creation_method CSD-ConQuest-V1
_database_code_CSD YEZKAS
_database_code_depnum_ccdc_archive 'CCDC 1848861'
_chemical_formula_sum 'C9 H16 Mn2 N2 O13 S1'
_chemical_formula_moiety
;
C5 H14 N2 2+,n(C4 H2 Mn2 O13 S1 2-)
;
_journal_coden_Cambridge 1295
_journal_volume 93
_journal_year 2018
_journal_page_first 33
_journal_name_full 'Inorg.Chem.Commun. '
loop_
_publ_author_name
"Ting Li"
"Cheng Chen"
"Furong Guo"
"Jing Li"
"Hongmei Zeng"
"Zhien Lin"
_chemical_name_systematic
;
catena-[(1,4-diazepane-1,4-diium) 
bis(\m-oxalato)-(\m-sulfato)-aqua-di-manganese(ii)]
;
_chemical_name_common
;
catena-[(homopiperazinium) 
bis(mu-oxalato)-(mu-sulfato)-aqua-di-manganese(ii)]; SCU-14
;
_cell_volume   1685.225
_exptl_crystal_colour 'light yellow'
_exptl_crystal_density_diffrn 1.979
_exptl_crystal_description 'block'
_diffrn_ambient_temperature 290.1
#These two values have been output from a single CSD field.
_refine_ls_R_factor_gt 0.0329
_refine_ls_wR_factor_gt 0.0329
_symmetry_cell_setting orthorhombic
_symmetry_space_group_name_H-M 'P 21 21 21'
_symmetry_Int_Tables_number 19
loop_
_symmetry_equiv_pos_site_id
_symmetry_equiv_pos_as_xyz
1 x,y,z
2 1/2-x,-y,1/2+z
3 -x,1/2+y,1/2-z
4 1/2+x,1/2-y,-z
_cell_length_a 9.9066(3)
_cell_length_b 12.4496(3)
_cell_length_c 13.6640(4)
_cell_angle_alpha 90
_cell_angle_beta 90
_cell_angle_gamma 90
_cell_formula_units_Z 4
loop_
_atom_type_symbol
_atom_type_radius_bond
C 0.68
H 0.23
Mn 1.61
N 0.68
O 0.68
S 1.02
loop_
_atom_site_label
_atom_site_type_symbol
_atom_site_fract_x
_atom_site_fract_y
_atom_site_fract_z
Mn1 Mn 0.76248(7) 0.33351(5) 0.22498(5)
Mn2 Mn 0.72735(7) 0.67940(5) 0.42718(5)
S1 S 0.75856(13) 0.41335(9) 0.46085(8)
O1 O 0.7040(4) 0.3596(3) 0.3738(2)
O2 O 0.8089(4) 0.5211(3) 0.4363(3)
O3 O 0.8730(4) 0.3526(3) 0.5001(3)
O4 O 0.6500(4) 0.4200(4) 0.5333(3)
O5 O 0.8737(3) 0.3043(2) 0.0746(2)
O6 O 1.0851(3) 0.2656(3) 0.0270(2)
O7 O 0.9432(3) 0.2464(3) 0.2602(2)
O8 O 1.1436(3) 0.1927(3) 0.2046(2)
O9 O 0.6448(3) 0.1860(3) 0.2116(2)
O10 O 0.4461(4) 0.1266(3) 0.1553(3)
O11 O 0.5760(4) 0.3876(3) 0.1589(3)
O12 O 0.3744(3) 0.3293(3) 0.1101(2)
O13 O 0.8593(4) 0.4878(3) 0.2087(2)
H1 H 0.94370 0.47890 0.20300
H2 H 0.84310 0.52550 0.25900
C1 C 0.9936(5) 0.2722(4) 0.0890(3)
C2 C 1.0297(5) 0.2343(3) 0.1951(3)
C3 C 0.5305(5) 0.1985(4) 0.1734(3)
C4 C 0.4916(5) 0.3152(4) 0.1459(3)
C5 C 0.3309(7) 0.4291(5) 0.5646(5)
H3 H 0.34800 0.50470 0.55240
H4 H 0.37140 0.41100 0.62710
C6 C 0.1801(6) 0.4112(5) 0.5708(5)
H5 H 0.16090 0.33680 0.55520
H6 H 0.15100 0.42390 0.63760
C7 C 0.3665(7) 0.3946(6) 0.3844(5)
H7 H 0.40890 0.34200 0.34210
H8 H 0.40730 0.46380 0.37050
C8 C 0.2187(7) 0.4003(5) 0.3599(4)
H9 H 0.20900 0.40170 0.28930
H10 H 0.17520 0.33550 0.38360
C9 C 0.1471(7) 0.4954(5) 0.4019(4)
H11 H 0.20700 0.55700 0.39920
H12 H 0.06920 0.51140 0.36130
N1 N 0.3956(5) 0.3658(4) 0.4880(4)
H13 H 0.37220 0.29740 0.49660
H14 H 0.48450 0.36980 0.49680
N2 N 0.1009(5) 0.4808(3) 0.5048(3)
H15 H 0.09630 0.54550 0.53210
H16 H 0.01720 0.45490 0.50280
Mn2A Mn 0.77265(7) 0.32060(5) -0.07282(5)
Mn2B Mn 0.27265(7) 0.17940(5) 0.07282(5)
Mn2B* Mn 1.27265(7) 0.17940(5) 0.07282(5)
O5A O 0.6263(3) 0.6957(2) 0.5746(2)
O6B O 0.9149(3) 0.7656(3) 0.4730(2)
O8B O 0.8564(3) 0.6927(3) 0.2954(2)
O10B O 0.5539(4) 0.6266(3) 0.3447(3)
O12B O 0.6256(3) 0.8293(3) 0.3899(2)
#END
