
#######################################################################
#
#                 Cambridge Crystallographic Data Centre
#                                CCDC
#
#######################################################################
#
# If this CIF has been generated from an entry in the Cambridge
# Structural Database, then it will include bibliographic, chemical,
# crystal, experimental, refinement or atomic coordinate data resulting
# from the CCDC's data processing and validation procedures.
#
#######################################################################

data_CSD_CIF_YEZSEC
_audit_creation_date 2007-07-26
_audit_creation_method CSD-ConQuest-V1
_database_code_CSD YEZSEC
_database_code_depnum_ccdc_archive 'CCDC 630887'
_chemical_formula_sum 'C24 H48 Gd2 Mn3 O42'
_chemical_formula_moiety
;
(H12 Mn1 O6 2+)n,n(C24 H24 Gd2 Mn2 O30 2-),6n(H2 O1)
;
_journal_coden_Cambridge 179
_journal_volume 46
_journal_year 2007
_journal_page_first 2851
_journal_name_full 'Angew.Chem.,Int.Ed. '
loop_
_publ_author_name
"T.K.Prasad"
"M.V.Rajasekharan"
"J.-P.Costes"
_chemical_name_systematic
;
catena-(Hexa-aqua-manganese(ii) 
hexakis(\m~6~-oxydiacetato)-di-gadolinium-di-manganese(ii) hexahydrate)
;
_cell_volume  17327.533
_exptl_crystal_colour 'colorless'
_exptl_crystal_density_diffrn 2.281
_exptl_special_details
;
magnetic properties

;
_exptl_crystal_description 'cube'
_diffrn_ambient_temperature 298
#These two values have been output from a single CSD field.
_refine_ls_R_factor_gt 0.0508
_refine_ls_wR_factor_gt 0.0508
_symmetry_cell_setting cubic
_symmetry_space_group_name_H-M 'F d -3 c'
_symmetry_Int_Tables_number 228
loop_
_symmetry_equiv_pos_site_id
_symmetry_equiv_pos_as_xyz
1 x,y,z
2 z,x,y
3 y,z,x
4 3/4+y,1/4+x,-z
5 1/4+y,-x,3/4+z
6 -y,3/4+x,1/4+z
7 3/4+x,1/4+z,-y
8 -x,3/4+z,1/4+y
9 1/4+x,-z,3/4+y
10 3/4+z,1/4+y,-x
11 1/4+z,-y,3/4+x
12 -z,3/4+y,1/4+x
13 x,1/2+y,1/2+z
14 1/4-x,1/4-y,z
15 z,1/2+x,1/2+y
16 1/4-z,1/4-x,y
17 y,1/2+z,1/2+x
18 1/4-y,1/4-z,x
19 1/4+y,1/2-x,1/4+z
20 -y,1/4+x,3/4+z
21 -x,1/4+z,3/4+y
22 1/4+x,1/2-z,1/4+y
23 1/4+z,1/2-y,1/4+x
24 -z,1/4+y,3/4+x
25 1/2+x,y,1/2+z
26 x,1/4-y,1/4-z
27 1/2+z,x,1/2+y
28 z,1/4-x,1/4-y
29 1/2+y,z,1/2+x
30 y,1/4-z,1/4-x
31 1/4+y,1/4+x,1/2-z
32 3/4+y,-x,1/4+z
33 1/4+x,1/4+z,1/2-y
34 3/4+x,-z,1/4+y
35 1/4+z,1/4+y,1/2-x
36 3/4+z,-y,1/4+x
37 1/2+x,1/2+y,z
38 1/4-x,y,1/4-z
39 1/2+z,1/2+x,y
40 1/4-z,x,1/4-y
41 1/2+y,1/2+z,x
42 1/4-y,z,1/4-x
43 1/4+y,3/4+x,-z
44 1/2-y,1/4+x,1/4+z
45 1/4+x,3/4+z,-y
46 1/2-x,1/4+z,1/4+y
47 1/4+z,3/4+y,-x
48 1/2-z,1/4+y,1/4+x
49 1/4-x,3/4-y,1/2+z
50 3/4-x,1/2+y,1/4-z
51 1/2+x,1/4-y,3/4-z
52 1/2+z,1/4-x,3/4-y
53 1/4-z,3/4-x,1/2+y
54 3/4-z,1/2+x,1/4-y
55 3/4-y,1/2+z,1/4-x
56 1/2+y,1/4-z,3/4-x
57 1/4-y,3/4-z,1/2+x
58 1/2-y,1/2-x,1/2-z
59 1/2-x,1/2-z,1/2-y
60 1/2-z,1/2-y,1/2-x
61 3/4-x,y,3/4-z
62 1/2+x,3/4-y,1/4-z
63 1/2+z,3/4-x,1/4-y
64 3/4-z,x,3/4-y
65 3/4-y,z,3/4-x
66 1/2+y,3/4-z,1/4-x
67 3/4+y,3/4+x,1/2-z
68 1/2-y,-x,-z
69 3/4+x,3/4+z,1/2-y
70 1/2-x,-z,-y
71 3/4+z,3/4+y,1/2-x
72 1/2-z,-y,-x
73 3/4-x,3/4-y,z
74 1/4-x,1/2+y,3/4-z
75 3/4-z,3/4-x,y
76 1/4-z,1/2+x,3/4-y
77 1/4-y,1/2+z,3/4-x
78 3/4-y,3/4-z,x
79 -y,1/2-x,-z
80 1/2-y,3/4+x,3/4+z
81 1/2-x,3/4+z,3/4+y
82 -x,1/2-z,-y
83 1/2-z,3/4+y,3/4+x
84 -z,1/2-y,-x
85 3/4-x,1/4-y,1/2+z
86 x,3/4-y,3/4-z
87 z,3/4-x,3/4-y
88 3/4-z,1/4-x,1/2+y
89 y,3/4-z,3/4-x
90 3/4-y,1/4-z,1/2+x
91 -y,-x,1/2-z
92 3/4+y,1/2-x,3/4+z
93 -x,-z,1/2-y
94 3/4+x,1/2-z,3/4+y
95 3/4+z,1/2-y,3/4+x
96 -z,-y,1/2-x
97 -x,-y,-z
98 -z,-x,-y
99 -y,-z,-x
100 -3/4-y,-1/4-x,z
101 -1/4-y,x,-3/4-z
102 y,-3/4-x,-1/4-z
103 -3/4-x,-1/4-z,y
104 x,-3/4-z,-1/4-y
105 -1/4-x,z,-3/4-y
106 -3/4-z,-1/4-y,x
107 -1/4-z,y,-3/4-x
108 z,-3/4-y,-1/4-x
109 -x,-1/2-y,-1/2-z
110 -1/4+x,-1/4+y,-z
111 -z,-1/2-x,-1/2-y
112 -1/4+z,-1/4+x,-y
113 -y,-1/2-z,-1/2-x
114 -1/4+y,-1/4+z,-x
115 -1/4-y,-1/2+x,-1/4-z
116 y,-1/4-x,-3/4-z
117 x,-1/4-z,-3/4-y
118 -1/4-x,-1/2+z,-1/4-y
119 -1/4-z,-1/2+y,-1/4-x
120 z,-1/4-y,-3/4-x
121 -1/2-x,-y,-1/2-z
122 -x,-1/4+y,-1/4+z
123 -1/2-z,-x,-1/2-y
124 -z,-1/4+x,-1/4+y
125 -1/2-y,-z,-1/2-x
126 -y,-1/4+z,-1/4+x
127 -1/4-y,-1/4-x,-1/2+z
128 -3/4-y,x,-1/4-z
129 -1/4-x,-1/4-z,-1/2+y
130 -3/4-x,z,-1/4-y
131 -1/4-z,-1/4-y,-1/2+x
132 -3/4-z,y,-1/4-x
133 -1/2-x,-1/2-y,-z
134 -1/4+x,-y,-1/4+z
135 -1/2-z,-1/2-x,-y
136 -1/4+z,-x,-1/4+y
137 -1/2-y,-1/2-z,-x
138 -1/4+y,-z,-1/4+x
139 -1/4-y,-3/4-x,z
140 -1/2+y,-1/4-x,-1/4-z
141 -1/4-x,-3/4-z,y
142 -1/2+x,-1/4-z,-1/4-y
143 -1/4-z,-3/4-y,x
144 -1/2+z,-1/4-y,-1/4-x
145 -1/4+x,-3/4+y,-1/2-z
146 -3/4+x,-1/2-y,-1/4+z
147 -1/2-x,-1/4+y,-3/4+z
148 -1/2-z,-1/4+x,-3/4+y
149 -1/4+z,-3/4+x,-1/2-y
150 -3/4+z,-1/2-x,-1/4+y
151 -3/4+y,-1/2-z,-1/4+x
152 -1/2-y,-1/4+z,-3/4+x
153 -1/4+y,-3/4+z,-1/2-x
154 -1/2+y,-1/2+x,-1/2+z
155 -1/2+x,-1/2+z,-1/2+y
156 -1/2+z,-1/2+y,-1/2+x
157 -3/4+x,-y,-3/4+z
158 -1/2-x,-3/4+y,-1/4+z
159 -1/2-z,-3/4+x,-1/4+y
160 -3/4+z,-x,-3/4+y
161 -3/4+y,-z,-3/4+x
162 -1/2-y,-3/4+z,-1/4+x
163 -3/4-y,-3/4-x,-1/2+z
164 -1/2+y,x,z
165 -3/4-x,-3/4-z,-1/2+y
166 -1/2+x,z,y
167 -3/4-z,-3/4-y,-1/2+x
168 -1/2+z,y,x
169 -3/4+x,-3/4+y,-z
170 -1/4+x,-1/2-y,-3/4+z
171 -3/4+z,-3/4+x,-y
172 -1/4+z,-1/2-x,-3/4+y
173 -1/4+y,-1/2-z,-3/4+x
174 -3/4+y,-3/4+z,-x
175 y,-1/2+x,z
176 -1/2+y,-3/4-x,-3/4-z
177 -1/2+x,-3/4-z,-3/4-y
178 x,-1/2+z,y
179 -1/2+z,-3/4-y,-3/4-x
180 z,-1/2+y,x
181 -3/4+x,-1/4+y,-1/2-z
182 -x,-3/4+y,-3/4+z
183 -z,-3/4+x,-3/4+y
184 -3/4+z,-1/4+x,-1/2-y
185 -y,-3/4+z,-3/4+x
186 -3/4+y,-1/4+z,-1/2-x
187 y,x,-1/2+z
188 -3/4-y,-1/2+x,-3/4-z
189 x,z,-1/2+y
190 -3/4-x,-1/2+z,-3/4-y
191 -3/4-z,-1/2+y,-3/4-x
192 z,y,-1/2+x
_cell_length_a 25.8769(18)
_cell_length_b 25.8769(18)
_cell_length_c 25.8769(18)
_cell_angle_alpha 90
_cell_angle_beta 90
_cell_angle_gamma 90
_cell_formula_units_Z 16
loop_
_atom_type_symbol
_atom_type_radius_bond
C 0.68
H 0.23
Gd 1.79
Mn 1.35
O 0.68
loop_
_atom_site_label
_atom_site_type_symbol
_atom_site_fract_x
_atom_site_fract_y
_atom_site_fract_z
Gd1 Gd 0.25000 0.25000 0.25000
Mn1 Mn 0.25000 0.25000 0.00000
Mn2 Mn 0.12500 0.12500 0.12500
O1 O 0.25000 0.31643(16) 0.18357(16)
O2 O 0.25858(17) 0.22001(18) 0.16389(16)
O3 O 0.26360(17) 0.22929(18) 0.08015(17)
O4 O 0.12500 0.2092(3) 0.12500
H1 H 0.12210 0.21980 0.09530
C1 C 0.2533(3) 0.3048(3) 0.1307(3)
H2 H 0.28300 0.32200 0.11570
H3 H 0.22250 0.31690 0.11310
C2 C 0.2586(3) 0.2470(2) 0.1244(3)
O5 O 0.12500 0.3264(4) 0.12500
H4 H 0.11460 0.30830 0.09960
Gd1Y Gd 0.25000 0.00000 0.00000
Gd1KA Gd 0.00000 0.25000 0.00000
Gd1OE Gd 0.50000 0.25000 0.00000
Mn1HA Mn 0.25000 0.50000 0.25000
Mn1A Mn 0.00000 0.25000 0.25000
Mn1V Mn 0.25000 0.25000 0.50000
Mn1B Mn 0.25000 0.00000 0.25000
Mn1R Mn 0.50000 0.25000 0.25000
Mn1H Mn 0.50000 0.00000 0.00000
Mn1F Mn 0.00000 0.25000 -0.25000
O1A O 0.18357 0.25000(16) 0.31643(16)
O1B O 0.31643 0.18357(16) 0.25000(16)
O1CA O 0.31643 0.06643(16) 0.00000(16)
O1MA O 0.06643 0.25000(16) -0.06643(16)
O1SE O 0.43357 0.25000(16) 0.06643(16)
O1Y O 0.25000 -0.06643(16) 0.06643(16)
O1AA O 0.18357 0.00000(16) -0.06643(16)
O2FB O 0.24142(17) 0.33611(18) 0.27999(16)
O2A O 0.16389(17) 0.25858(18) 0.22001(16)
O2EB O 0.27999(17) 0.24142(18) 0.33611(16)
O2B O 0.22001(17) 0.16389(18) 0.25858(16)
O2GB O 0.33611(17) 0.27999(18) 0.24142(16)
O2CA O 0.22001(17) 0.08611(18) -0.00858(16)
O2DC O 0.33611(17) -0.02999(18) 0.00858(16)
O2MA O 0.08611(17) 0.25858(18) 0.02999(16)
O2MC O -0.02999(17) 0.24142(18) -0.08611(16)
O2SE O 0.41389(17) 0.24142(18) -0.02999(16)
O2VC O 0.52999(17) 0.25858(18) 0.08611(16)
O2Y O 0.25858(17) 0.02999(18) 0.08611(16)
O2AA O 0.16389(17) -0.00858(18) 0.02999(16)
O2AC O 0.27999(17) 0.00858(18) -0.08611(16)
O2BC O 0.24142(17) -0.08611(18) -0.02999(16)
O3FB O 0.23640(17) 0.41985(18) 0.27071(17)
O3A O 0.08015(17) 0.26360(18) 0.22929(17)
O3EB O 0.27071(17) 0.23640(18) 0.41985(17)
O3B O 0.22929(17) 0.08015(18) 0.26360(17)
O3GB O 0.41985(17) 0.27071(18) 0.23640(17)
O3CA O 0.22929(17) 0.16985(18) -0.01360(17)
O3DC O 0.41985(17) -0.02071(18) 0.01360(17)
O3MA O 0.16985(17) 0.26360(18) 0.02071(17)
O3MC O -0.02071(17) 0.23640(18) -0.16985(17)
O3SE O 0.33015(17) 0.23640(18) -0.02071(17)
O3VC O 0.52071(17) 0.26360(18) 0.16985(17)
O3EF O 0.27071(17) 0.33015(18) 0.01360(17)
O3BE O 0.23640(17) 0.27071(18) -0.08015(17)
O3HA O 0.33015(17) 0.47929(18) 0.23640(17)
O3QA O 0.27071(17) 0.51360(18) 0.33015(17)
O3UF O 0.26360(17) 0.58015(18) 0.22929(17)
O3AD O 0.16985(17) 0.52071(18) 0.26360(17)
O3KD O 0.22929(17) 0.48640(18) 0.16985(17)
O4A O 0.12500 0.1250(3) 0.20920
O4B O 0.20920 0.1250(3) 0.12500
O4M O 0.12500 0.0408(3) 0.12500
O4Q O 0.04080 0.1250(3) 0.12500
O4AA O 0.12500 0.1250(3) 0.04080
H1KA H 0.12790 0.21980 0.15470
H1A H 0.09530 0.12210 0.21980
H1O H 0.15470 0.12790 0.21980
H1B H 0.21980 0.09530 0.12210
H1CA H 0.21980 0.15470 0.12790
H1M H 0.12790 0.03020 0.09530
H1Y H 0.12210 0.03020 0.15470
H1Q H 0.03020 0.15470 0.12210
H1OA H 0.03020 0.09530 0.12790
H1AA H 0.09530 0.12790 0.03020
H1MA H 0.15470 0.12210 0.03020
C1FB C 0.2467(3) 0.3693(3) 0.1952(3)
C1A C 0.1307(3) 0.2533(3) 0.3048(3)
C1EB C 0.1952(3) 0.2467(3) 0.3693(3)
C1B C 0.3048(3) 0.1307(3) 0.2533(3)
C1GB C 0.3693(3) 0.1952(3) 0.2467(3)
C1CA C 0.3048(3) 0.1193(3) -0.0033(3)
C1DC C 0.3693(3) 0.0548(3) 0.0033(3)
C1MA C 0.1193(3) 0.2533(3) -0.0548(3)
C1MC C 0.0548(3) 0.2467(3) -0.1193(3)
C1SE C 0.3807(3) 0.2467(3) 0.0548(3)
C1VC C 0.4452(3) 0.2533(3) 0.1193(3)
H2FB H 0.21700 0.38430 0.17800
H2A H 0.11570 0.28300 0.32200
H2EB H 0.17800 0.21700 0.38430
H2B H 0.32200 0.11570 0.28300
H2GB H 0.38430 0.17800 0.21700
H2CA H 0.32200 0.13430 -0.03300
H2DC H 0.38430 0.07200 0.03300
H2MA H 0.13430 0.28300 -0.07200
H2MC H 0.07200 0.21700 -0.13430
H2SE H 0.36570 0.21700 0.07200
H2VC H 0.42800 0.28300 0.13430
H3FB H 0.27750 0.38690 0.18310
H3A H 0.11310 0.22250 0.31690
H3EB H 0.18310 0.27750 0.38690
H3B H 0.31690 0.11310 0.22250
H3GB H 0.38690 0.18310 0.27750
H3CA H 0.31690 0.13690 0.02750
H3DC H 0.38690 0.06690 -0.02750
H3MA H 0.13690 0.22250 -0.06690
H3MC H 0.06690 0.27750 -0.13690
H3SE H 0.36310 0.27750 0.06690
H3VC H 0.43310 0.22250 0.13690
C2FB C 0.2414(3) 0.3756(2) 0.2530(3)
C2A C 0.1244(3) 0.2586(2) 0.2470(3)
C2EB C 0.2530(3) 0.2414(2) 0.3756(3)
C2B C 0.2470(3) 0.1244(2) 0.2586(3)
C2GB C 0.3756(3) 0.2530(2) 0.2414(3)
C2CA C 0.2470(3) 0.1256(2) -0.0086(3)
C2DC C 0.3756(3) -0.0030(2) 0.0086(3)
C2MA C 0.1256(3) 0.2586(2) 0.0030(3)
C2MC C -0.0030(3) 0.2414(2) -0.1256(3)
C2SE C 0.3744(3) 0.2414(2) -0.0030(3)
C2VC C 0.5030(3) 0.2586(2) 0.1256(3)
H4KA H 0.13540 0.30830 0.15040
#END
