
#######################################################################
#
#                 Cambridge Crystallographic Data Centre
#                                CCDC
#
#######################################################################
#
# If this CIF has been generated from an entry in the Cambridge
# Structural Database, then it will include bibliographic, chemical,
# crystal, experimental, refinement or atomic coordinate data resulting
# from the CCDC's data processing and validation procedures.
#
#######################################################################

data_CSD_CIF_YEZSEC01
_audit_creation_date 2013-03-18
_audit_creation_method CSD-ConQuest-V1
_database_code_CSD YEZSEC01
_database_code_depnum_ccdc_archive 'CCDC 900845'
_chemical_formula_sum 'C24 H48 Gd2 Mn3 O42'
_chemical_formula_moiety
;
(H12 Mn1 O6 2+)n,n(C24 H24 Gd2 Mn2 O30 2-),6n(H2 O1)
;
_journal_coden_Cambridge 182
_journal_volume 48
_journal_year 2012
_journal_page_first 12219
_journal_name_full 'Chem.Commun. '
loop_
_publ_author_name
"Fu-Sheng Guo"
"Yan-Cong Chen"
"Jun-Liang Liu"
"Ji-Dong Leng"
"Zhao-Sha Meng"
"P.Vrabel"
"M.Orendac"
"Ming-Liang Tong"
_chemical_name_systematic
;
catena-[Hexa-aqua-manganese(ii) 
hexakis(\m~3~-2,2'-oxydiacetato)-di-gadolinium(iii)-di-manganese(ii) 
hexahydrate]
;
_cell_volume  17792.868
_exptl_crystal_colour 'colorless'
_exptl_crystal_density_diffrn 2.222
_exptl_crystal_description 'cubic'
_diffrn_ambient_temperature 150
#These two values have been output from a single CSD field.
_refine_ls_R_factor_gt 0.0852
_refine_ls_wR_factor_gt 0.0852
_symmetry_cell_setting cubic
_symmetry_space_group_name_H-M 'F d -3 c'
_symmetry_Int_Tables_number 228
loop_
_symmetry_equiv_pos_site_id
_symmetry_equiv_pos_as_xyz
1 x,y,z
2 1/4-x,3/4-y,1/2+z
3 3/4-x,1/2+y,1/4-z
4 1/2+x,1/4-y,3/4-z
5 z,x,y
6 1/2+z,1/4-x,3/4-y
7 1/4-z,3/4-x,1/2+y
8 3/4-z,1/2+x,1/4-y
9 y,z,x
10 3/4-y,1/2+z,1/4-x
11 1/2+y,1/4-z,3/4-x
12 1/4-y,3/4-z,1/2+x
13 3/4+y,1/4+x,-z
14 1/2-y,1/2-x,1/2-z
15 1/4+y,-x,3/4+z
16 -y,3/4+x,1/4+z
17 3/4+x,1/4+z,-y
18 -x,3/4+z,1/4+y
19 1/2-x,1/2-z,1/2-y
20 1/4+x,-z,3/4+y
21 3/4+z,1/4+y,-x
22 1/4+z,-y,3/4+x
23 -z,3/4+y,1/4+x
24 1/2-z,1/2-y,1/2-x
25 x,1/2+y,1/2+z
26 1/4-x,1/4-y,z
27 3/4-x,y,3/4-z
28 1/2+x,3/4-y,1/4-z
29 z,1/2+x,1/2+y
30 1/2+z,3/4-x,1/4-y
31 1/4-z,1/4-x,y
32 3/4-z,x,3/4-y
33 y,1/2+z,1/2+x
34 3/4-y,z,3/4-x
35 1/2+y,3/4-z,1/4-x
36 1/4-y,1/4-z,x
37 3/4+y,3/4+x,1/2-z
38 1/2-y,-x,-z
39 1/4+y,1/2-x,1/4+z
40 -y,1/4+x,3/4+z
41 3/4+x,3/4+z,1/2-y
42 -x,1/4+z,3/4+y
43 1/2-x,-z,-y
44 1/4+x,1/2-z,1/4+y
45 3/4+z,3/4+y,1/2-x
46 1/4+z,1/2-y,1/4+x
47 -z,1/4+y,3/4+x
48 1/2-z,-y,-x
49 1/2+x,y,1/2+z
50 3/4-x,3/4-y,z
51 1/4-x,1/2+y,3/4-z
52 x,1/4-y,1/4-z
53 1/2+z,x,1/2+y
54 z,1/4-x,1/4-y
55 3/4-z,3/4-x,y
56 1/4-z,1/2+x,3/4-y
57 1/2+y,z,1/2+x
58 1/4-y,1/2+z,3/4-x
59 y,1/4-z,1/4-x
60 3/4-y,3/4-z,x
61 1/4+y,1/4+x,1/2-z
62 -y,1/2-x,-z
63 3/4+y,-x,1/4+z
64 1/2-y,3/4+x,3/4+z
65 1/4+x,1/4+z,1/2-y
66 1/2-x,3/4+z,3/4+y
67 -x,1/2-z,-y
68 3/4+x,-z,1/4+y
69 1/4+z,1/4+y,1/2-x
70 3/4+z,-y,1/4+x
71 1/2-z,3/4+y,3/4+x
72 -z,1/2-y,-x
73 1/2+x,1/2+y,z
74 3/4-x,1/4-y,1/2+z
75 1/4-x,y,1/4-z
76 x,3/4-y,3/4-z
77 1/2+z,1/2+x,y
78 z,3/4-x,3/4-y
79 3/4-z,1/4-x,1/2+y
80 1/4-z,x,1/4-y
81 1/2+y,1/2+z,x
82 1/4-y,z,1/4-x
83 y,3/4-z,3/4-x
84 3/4-y,1/4-z,1/2+x
85 1/4+y,3/4+x,-z
86 -y,-x,1/2-z
87 3/4+y,1/2-x,3/4+z
88 1/2-y,1/4+x,1/4+z
89 1/4+x,3/4+z,-y
90 1/2-x,1/4+z,1/4+y
91 -x,-z,1/2-y
92 3/4+x,1/2-z,3/4+y
93 1/4+z,3/4+y,-x
94 3/4+z,1/2-y,3/4+x
95 1/2-z,1/4+y,1/4+x
96 -z,-y,1/2-x
97 -x,-y,-z
98 -1/4+x,-3/4+y,-1/2-z
99 -3/4+x,-1/2-y,-1/4+z
100 -1/2-x,-1/4+y,-3/4+z
101 -z,-x,-y
102 -1/2-z,-1/4+x,-3/4+y
103 -1/4+z,-3/4+x,-1/2-y
104 -3/4+z,-1/2-x,-1/4+y
105 -y,-z,-x
106 -3/4+y,-1/2-z,-1/4+x
107 -1/2-y,-1/4+z,-3/4+x
108 -1/4+y,-3/4+z,-1/2-x
109 -3/4-y,-1/4-x,z
110 -1/2+y,-1/2+x,-1/2+z
111 -1/4-y,x,-3/4-z
112 y,-3/4-x,-1/4-z
113 -3/4-x,-1/4-z,y
114 x,-3/4-z,-1/4-y
115 -1/2+x,-1/2+z,-1/2+y
116 -1/4-x,z,-3/4-y
117 -3/4-z,-1/4-y,x
118 -1/4-z,y,-3/4-x
119 z,-3/4-y,-1/4-x
120 -1/2+z,-1/2+y,-1/2+x
121 -x,-1/2-y,-1/2-z
122 -1/4+x,-1/4+y,-z
123 -3/4+x,-y,-3/4+z
124 -1/2-x,-3/4+y,-1/4+z
125 -z,-1/2-x,-1/2-y
126 -1/2-z,-3/4+x,-1/4+y
127 -1/4+z,-1/4+x,-y
128 -3/4+z,-x,-3/4+y
129 -y,-1/2-z,-1/2-x
130 -3/4+y,-z,-3/4+x
131 -1/2-y,-3/4+z,-1/4+x
132 -1/4+y,-1/4+z,-x
133 -3/4-y,-3/4-x,-1/2+z
134 -1/2+y,x,z
135 -1/4-y,-1/2+x,-1/4-z
136 y,-1/4-x,-3/4-z
137 -3/4-x,-3/4-z,-1/2+y
138 x,-1/4-z,-3/4-y
139 -1/2+x,z,y
140 -1/4-x,-1/2+z,-1/4-y
141 -3/4-z,-3/4-y,-1/2+x
142 -1/4-z,-1/2+y,-1/4-x
143 z,-1/4-y,-3/4-x
144 -1/2+z,y,x
145 -1/2-x,-y,-1/2-z
146 -3/4+x,-3/4+y,-z
147 -1/4+x,-1/2-y,-3/4+z
148 -x,-1/4+y,-1/4+z
149 -1/2-z,-x,-1/2-y
150 -z,-1/4+x,-1/4+y
151 -3/4+z,-3/4+x,-y
152 -1/4+z,-1/2-x,-3/4+y
153 -1/2-y,-z,-1/2-x
154 -1/4+y,-1/2-z,-3/4+x
155 -y,-1/4+z,-1/4+x
156 -3/4+y,-3/4+z,-x
157 -1/4-y,-1/4-x,-1/2+z
158 y,-1/2+x,z
159 -3/4-y,x,-1/4-z
160 -1/2+y,-3/4-x,-3/4-z
161 -1/4-x,-1/4-z,-1/2+y
162 -1/2+x,-3/4-z,-3/4-y
163 x,-1/2+z,y
164 -3/4-x,z,-1/4-y
165 -1/4-z,-1/4-y,-1/2+x
166 -3/4-z,y,-1/4-x
167 -1/2+z,-3/4-y,-3/4-x
168 z,-1/2+y,x
169 -1/2-x,-1/2-y,-z
170 -3/4+x,-1/4+y,-1/2-z
171 -1/4+x,-y,-1/4+z
172 -x,-3/4+y,-3/4+z
173 -1/2-z,-1/2-x,-y
174 -z,-3/4+x,-3/4+y
175 -3/4+z,-1/4+x,-1/2-y
176 -1/4+z,-x,-1/4+y
177 -1/2-y,-1/2-z,-x
178 -1/4+y,-z,-1/4+x
179 -y,-3/4+z,-3/4+x
180 -3/4+y,-1/4+z,-1/2-x
181 -1/4-y,-3/4-x,z
182 y,x,-1/2+z
183 -3/4-y,-1/2+x,-3/4-z
184 -1/2+y,-1/4-x,-1/4-z
185 -1/4-x,-3/4-z,y
186 -1/2+x,-1/4-z,-1/4-y
187 x,z,-1/2+y
188 -3/4-x,-1/2+z,-3/4-y
189 -1/4-z,-3/4-y,x
190 -3/4-z,-1/2+y,-3/4-x
191 -1/2+z,-1/4-y,-1/4-x
192 z,y,-1/2+x
_cell_length_a 26.1065(9)
_cell_length_b 26.1065(9)
_cell_length_c 26.1065(9)
_cell_angle_alpha 90
_cell_angle_beta 90
_cell_angle_gamma 90
_cell_formula_units_Z 16
loop_
_atom_type_symbol
_atom_type_radius_bond
C 0.68
H 0.23
Gd 1.96
Mn 1.61
O 0.68
loop_
_atom_site_label
_atom_site_type_symbol
_atom_site_fract_x
_atom_site_fract_y
_atom_site_fract_z
Gd1 Gd 1.00000 1.00000 0.25000
Mn1 Mn 1.00000 0.75000 0.25000
C1 C 1.0092(5) 0.8745(6) 0.2527(6)
C2 C 1.0036(7) 0.8815(6) 0.1938(6)
H1 H 1.03370 0.86680 0.17610
H2 H 0.97250 0.86360 0.18150
O1 O 1.0090(4) 0.9139(4) 0.2797(4)
O2 O 1.0136(4) 0.8297(4) 0.2712(4)
O3 O 1.00000 0.9336(3) 0.1836(3)
Mn2 Mn 0.87500 0.87500 0.37500
O4 O 0.9579(6) 0.87500 0.37500
H3 H 0.97690 0.88500 0.35050
O5 O 1.0769(10) 0.87500 0.37500
H4 H 1.05790 0.88490 0.35050
Gd1F Gd 1.00000 0.75000 0.50000
Gd1I Gd 0.75000 0.75000 0.25000
Gd1PD Gd 1.00000 0.50000 0.25000
Mn1N Mn 1.00000 1.00000 0.00000
Mn1WA Mn 0.75000 1.00000 0.25000
Mn1HB Mn 1.00000 1.25000 0.25000
Mn1WB Mn 1.00000 1.00000 0.50000
Mn1GC Mn 1.25000 1.00000 0.25000
Mn1O Mn 1.25000 0.75000 0.50000
Mn1M Mn 0.75000 0.50000 0.25000
Mn1LA Mn 1.00000 0.50000 0.50000
C1Q C 0.9908(5) 1.0027(6) 0.1245(6)
C1FB C 0.8745(5) 0.9973(6) 0.2408(6)
C1QB C 1.0027(5) 1.1255(6) 0.2592(6)
C1AC C 0.9973(5) 1.0092(6) 0.3755(6)
C1GC C 1.1255(5) 0.9908(6) 0.2473(6)
C1F C 0.9973(5) 0.7408(6) 0.3745(6)
C1O C 1.1255(5) 0.7592(6) 0.5027(6)
C1I C 0.8755(5) 0.7527(6) 0.2408(6)
C1V C 0.7473(5) 0.6245(6) 0.2592(6)
C1PD C 0.9908(5) 0.6255(6) 0.2473(6)
C1GE C 1.0092(5) 0.4973(6) 0.3755(6)
C2Q C 0.9964(7) 0.9438(6) 0.1315(6)
C2FB C 0.8815(7) 1.0562(6) 0.2464(6)
C2QB C 0.9438(7) 1.1185(6) 0.2536(6)
C2AC C 1.0562(7) 1.0036(6) 0.3685(6)
C2GC C 1.1185(7) 0.9964(6) 0.3062(6)
C2F C 1.0562(7) 0.7464(6) 0.3815(6)
C2O C 1.1185(7) 0.7536(6) 0.4438(6)
C2I C 0.8685(7) 0.6938(6) 0.2464(6)
C2V C 0.8062(7) 0.6315(6) 0.2536(6)
C2PD C 0.9964(7) 0.6185(6) 0.3062(6)
C2GE C 1.0036(7) 0.5562(6) 0.3685(6)
H1Q H 0.96630 0.92610 0.11680
H1FB H 0.86680 1.07390 0.21630
H1QB H 0.92610 1.13320 0.28370
H1AC H 1.07390 1.03370 0.38320
H1GC H 1.13320 0.96630 0.32390
H1F H 1.07390 0.71630 0.36680
H1O H 1.13320 0.78370 0.42610
H1I H 0.88320 0.67610 0.21630
H1V H 0.82390 0.61680 0.28370
H1PD H 0.96630 0.63320 0.32390
H1GE H 1.03370 0.57390 0.38320
H2Q H 1.02750 0.93150 0.11360
H2FB H 0.86360 1.06850 0.27750
H2QB H 0.93150 1.13640 0.22250
H2AC H 1.06850 0.97250 0.38640
H2GC H 1.13640 1.02750 0.31850
H2F H 1.06850 0.77750 0.36360
H2O H 1.13640 0.72250 0.43150
H2I H 0.88640 0.68150 0.27750
H2V H 0.81850 0.61360 0.22250
H2PD H 1.02750 0.63640 0.31850
H2GE H 0.97250 0.56850 0.38640
O1Q O 0.9910(4) 1.0297(4) 0.1639(4)
O1FB O 0.9139(4) 0.9703(4) 0.2410(4)
O1QB O 1.0297(4) 1.0861(4) 0.2590(4)
O1AC O 0.9703(4) 1.0090(4) 0.3361(4)
O1GC O 1.0861(4) 0.9910(4) 0.2203(4)
O1F O 0.9703(4) 0.7410(4) 0.4139(4)
O1O O 1.0861(4) 0.7590(4) 0.5297(4)
O1I O 0.8361(4) 0.7797(4) 0.2410(4)
O1V O 0.7203(4) 0.6639(4) 0.2590(4)
O1PD O 0.9910(4) 0.5861(4) 0.2203(4)
O1GE O 1.0090(4) 0.4703(4) 0.3361(4)
O1WB O 1.0090(4) 0.8361(4) 0.4703(4)
O1LC O 0.9910(4) 0.7203(4) 0.5861(4)
O1FA O 0.9139(4) 0.7797(4) 0.5090(4)
O1RA O 1.0297(4) 0.6639(4) 0.4910(4)
O2Q O 0.9864(4) 1.0212(4) 0.0797(4)
O2FB O 0.8297(4) 0.9788(4) 0.2364(4)
O2QB O 1.0212(4) 1.1703(4) 0.2636(4)
O2AC O 0.9788(4) 1.0136(4) 0.4203(4)
O2GC O 1.1703(4) 0.9864(4) 0.2288(4)
O2F O 0.9788(4) 0.7364(4) 0.3297(4)
O2O O 1.1703(4) 0.7636(4) 0.5212(4)
O2I O 0.9203(4) 0.7712(4) 0.2364(4)
O2V O 0.7288(4) 0.5797(4) 0.2636(4)
O2PD O 0.9864(4) 0.6703(4) 0.2288(4)
O2GE O 1.0136(4) 0.4788(4) 0.4203(4)
O2VD O 1.0212(4) 0.7636(4) 0.1703(4)
O2YD O 1.0797(4) 0.7288(4) 0.2636(4)
O2T O 1.0212(4) 1.0797(4) -0.0136(4)
O2N O 1.0797(4) 0.9864(4) 0.0212(4)
O2ID O 1.0136(4) 0.9788(4) -0.0797(4)
O2LD O 0.9788(4) 0.9203(4) 0.0136(4)
O2FD O 0.9203(4) 1.0136(4) -0.0212(4)
O3FB O 0.93360 1.0664(3) 0.2500(3)
O3AC O 1.06640 1.0000(3) 0.3164(3)
O3F O 1.06640 0.7500(3) 0.4336(3)
O3I O 0.81640 0.6836(3) 0.2500(3)
O3PD O 1.00000 0.5664(3) 0.3164(3)
O3WB O 1.00000 0.8164(3) 0.5664(3)
O3FA O 0.93360 0.6836(3) 0.5000(3)
O4F O 0.8750(6) 0.79210 0.37500
O4I O 0.8750(6) 0.87500 0.29210
O4Z O 0.7921(6) 0.87500 0.37500
O4FA O 0.8750(6) 0.87500 0.45790
O4ZA O 0.8750(6) 0.95790 0.37500
H3WB H 0.97690 0.86500 0.39950
H3F H 0.89950 0.77310 0.38500
H3CA H 0.85050 0.77310 0.36500
H3I H 0.86500 0.85050 0.27310
H3FB H 0.88500 0.89950 0.27310
H3Z H 0.77310 0.88500 0.39950
H3WA H 0.77310 0.86500 0.35050
H3FA H 0.88500 0.85050 0.47690
H3EC H 0.86500 0.89950 0.47690
H3ZA H 0.85050 0.97690 0.38500
H3AC H 0.89950 0.97690 0.36500
H4WB H 1.05790 0.86510 0.39950
#END
