
#######################################################################
#
#                 Cambridge Crystallographic Data Centre
#                                CCDC
#
#######################################################################
#
# If this CIF has been generated from an entry in the Cambridge
# Structural Database, then it will include bibliographic, chemical,
# crystal, experimental, refinement or atomic coordinate data resulting
# from the CCDC's data processing and validation procedures.
#
#######################################################################

data_CSD_CIF_YIBPEH
_audit_creation_date 2018-06-12
_audit_creation_method CSD-ConQuest-V1
_database_code_CSD YIBPEH
_database_code_depnum_ccdc_archive 'CCDC 1551504'
_chemical_formula_sum 'C20 H16 Cu1 N6 O8 S2'
_chemical_formula_moiety
;
(C14 H6 Cu1 N2 O8 2-)n,2(C3 H5 N2 S1 1+)
;
_journal_coden_Cambridge 1350
_journal_volume 20
_journal_year 2018
_journal_page_first 3711
_journal_name_full 'CrystEngComm '
loop_
_publ_author_name
"A.Hassanpoor"
"M.Mirzaei"
"H.Eshtiagh-Hosseini"
"A.Majcher"
_chemical_name_systematic
;
catena-(bis(1,3-thiazol-2(3H)-iminium) 
bis(\m-pyridine-2,3-dicarboxylato)-copper)
;
_cell_volume    545.977
_exptl_crystal_colour 'blue'
_exptl_crystal_density_diffrn 1.813
_exptl_crystal_description 'rod'
_diffrn_ambient_temperature 100
#These two values have been output from a single CSD field.
_refine_ls_R_factor_gt 0.0317
_refine_ls_wR_factor_gt 0.0317
_symmetry_cell_setting triclinic
_symmetry_space_group_name_H-M 'P -1'
_symmetry_Int_Tables_number 2
loop_
_symmetry_equiv_pos_site_id
_symmetry_equiv_pos_as_xyz
1 x,y,z
2 -x,-y,-z
_cell_length_a 6.4091(3)
_cell_length_b 8.0567(4)
_cell_length_c 11.3265(5)
_cell_angle_alpha 70.675(4)
_cell_angle_beta 85.308(4)
_cell_angle_gamma 81.872(4)
_cell_formula_units_Z 1
loop_
_atom_type_symbol
_atom_type_radius_bond
C 0.68
H 0.23
Cu 1.32
N 0.68
O 0.68
S 1.02
loop_
_atom_site_label
_atom_site_type_symbol
_atom_site_fract_x
_atom_site_fract_y
_atom_site_fract_z
Cu1 Cu 0.50000 0.50000 0.00000
O1 O 1.3460(2) 0.46378(18) 0.22638(12)
O2 O 1.0973(2) 0.38908(18) 0.37970(12)
O3 O 0.6934(2) 0.29103(16) 0.08351(12)
O4 O 0.9842(2) 0.20835(17) 0.19554(12)
N1 N 0.6973(2) 0.6252(2) 0.05168(14)
C1 C 0.6793(3) 0.7991(2) 0.03181(17)
H1 H 0.56990 0.87430 -0.01880
C2 C 0.9740(3) 0.7609(2) 0.15705(17)
H2 H 1.07120 0.80850 0.19220
C3 C 0.8164(3) 0.8732(2) 0.08334(18)
H3 H 0.80230 0.99730 0.06840
C4 C 0.8492(3) 0.5146(2) 0.12450(16)
C5 C 0.9912(3) 0.5785(2) 0.18003(16)
C6 C 0.8463(3) 0.3211(2) 0.13756(16)
C7 C 1.1595(3) 0.4634(2) 0.26837(17)
S1 S 0.21785(7) 0.90826(6) 0.39182(4)
N2 N 0.3452(3) 0.6221(2) 0.58805(16)
N3 N 0.5931(2) 0.7985(2) 0.46146(15)
C8 C 0.6071(3) 0.9498(2) 0.35782(17)
H4 H 0.73640 0.99540 0.32560
C9 C 0.4208(3) 1.0247(3) 0.30806(18)
H5 H 0.40190 1.12770 0.23650
C10 C 0.3972(3) 0.7577(2) 0.49233(17)
H6 H 0.695(4) 0.739(3) 0.509(2)
H7 H 0.431(4) 0.577(3) 0.643(2)
H8 H 0.213(4) 0.608(3) 0.602(2)
O1A O -0.3460(2) 0.53622(18) -0.22638(12)
O2A O -0.0973(2) 0.61092(18) -0.37970(12)
O3A O 0.3066(2) 0.70897(16) -0.08351(12)
O4A O 0.0158(2) 0.79165(17) -0.19554(12)
N1A N 0.3027(2) 0.3748(2) -0.05168(14)
C1A C 0.3207(3) 0.2009(2) -0.03181(17)
H1A H 0.43010 0.12570 0.01880
C2A C 0.0260(3) 0.2391(2) -0.15705(17)
H2A H -0.07120 0.19150 -0.19220
C3A C 0.1836(3) 0.1268(2) -0.08334(18)
H3A H 0.19770 0.00270 -0.06840
C4A C 0.1508(3) 0.4854(2) -0.12450(16)
C5A C 0.0088(3) 0.4215(2) -0.18003(16)
C6A C 0.1537(3) 0.6789(2) -0.13756(16)
C7A C -0.1595(3) 0.5366(2) -0.26837(17)
Cu1* Cu -0.50000 0.50000 0.00000
Cu1** Cu 1.50000 0.50000 0.00000
O1* O 0.3460(2) 0.46378(18) 0.22638(12)
O1A* O 0.6540(2) 0.53622(18) -0.22638(12)
#END
