
#######################################################################
#
#                 Cambridge Crystallographic Data Centre
#                                CCDC
#
#######################################################################
#
# If this CIF has been generated from an entry in the Cambridge
# Structural Database, then it will include bibliographic, chemical,
# crystal, experimental, refinement or atomic coordinate data resulting
# from the CCDC's data processing and validation procedures.
#
#######################################################################

data_CSD_CIF_YIBPAD
_audit_creation_date 2018-06-12
_audit_creation_method CSD-ConQuest-V1
_database_code_CSD YIBPAD
_database_code_depnum_ccdc_archive 'CCDC 1551502'
_chemical_formula_sum 'C18 H14 Cu1 N8 O8 S2'
_chemical_formula_moiety
;
(C12 H4 Cu1 N4 O8 2-)n,2(C3 H5 N2 S1 1+)
;
_journal_coden_Cambridge 1350
_journal_volume 20
_journal_year 2018
_journal_page_first 3711
_journal_name_full 'CrystEngComm '
loop_
_publ_author_name
"A.Hassanpoor"
"M.Mirzaei"
"H.Eshtiagh-Hosseini"
"A.Majcher"
_chemical_name_systematic
;
catena-(bis(1,3-thiazol-2(3H)-iminium) 
bis(\m-pyrazine-2,3-dicarboxylato)-copper)
;
_cell_volume    534.284
_exptl_crystal_colour 'blue'
_exptl_crystal_density_diffrn 1.859
_exptl_crystal_description 'block'
_diffrn_ambient_temperature 100
#These two values have been output from a single CSD field.
_refine_ls_R_factor_gt 0.0341
_refine_ls_wR_factor_gt 0.0341
_symmetry_cell_setting triclinic
_symmetry_space_group_name_H-M 'P -1'
_symmetry_Int_Tables_number 2
loop_
_symmetry_equiv_pos_site_id
_symmetry_equiv_pos_as_xyz
1 x,y,z
2 -x,-y,-z
_cell_length_a 6.3497(3)
_cell_length_b 8.0041(4)
_cell_length_c 11.1477(4)
_cell_angle_alpha 71.782(4)
_cell_angle_beta 85.993(4)
_cell_angle_gamma 83.431(4)
_cell_formula_units_Z 1
loop_
_atom_type_symbol
_atom_type_radius_bond
C 0.68
H 0.23
Cu 1.32
N 0.68
O 0.68
S 1.02
loop_
_atom_site_label
_atom_site_type_symbol
_atom_site_fract_x
_atom_site_fract_y
_atom_site_fract_z
C1 C 0.3541(3) 0.5204(3) 0.6246(2)
C2 C 0.4976(4) 0.5904(3) 0.6809(2)
C3 C 0.3365(4) 0.8687(3) 0.5933(2)
H1 H 0.32580 0.99220 0.58140
C4 C 0.1929(4) 0.8017(3) 0.5359(2)
H2 H 0.08730 0.87980 0.48450
C5 C 0.3486(3) 0.3274(3) 0.6369(2)
C6 C 0.6690(4) 0.4777(3) 0.7686(2)
Cu1 Cu 0.00000 0.50000 0.50000
N1 N 0.2027(3) 0.6300(3) 0.55234(17)
N2 N 0.4888(3) 0.7637(3) 0.66484(18)
O1 O 0.1936(2) 0.2943(2) 0.58171(15)
O2 O 0.4864(2) 0.2175(2) 0.69495(15)
O3 O 0.6069(3) 0.4091(2) 0.88142(15)
O4 O 0.8540(3) 0.4712(2) 0.72345(15)
C7 C 0.1075(4) 0.2479(3) 0.0123(2)
C8 C -0.1080(4) 0.0518(3) 0.1429(2)
H3 H -0.23880 0.00410 0.17330
C9 C 0.0788(4) -0.0207(3) 0.1935(2)
H4 H 0.09640 -0.12460 0.26390
N3 N -0.0904(3) 0.2043(3) 0.04101(18)
H5 H -0.195(3) 0.261(3) -0.007(2)
N4 N 0.1620(3) 0.3849(3) -0.08238(19)
H6 H 0.2979(18) 0.395(4) -0.098(2)
H7 H 0.069(3) 0.425(4) -0.1415(19)
S1 S 0.28496(9) 0.10006(8) 0.11396(5)
C1A C -0.3541(3) 0.4796(3) 0.3754(2)
C2A C -0.4976(4) 0.4096(3) 0.3191(2)
C3A C -0.3365(4) 0.1313(3) 0.4067(2)
H1A H -0.32580 0.00780 0.41860
C4A C -0.1929(4) 0.1983(3) 0.4641(2)
H2A H -0.08730 0.12020 0.51550
C5A C -0.3486(3) 0.6726(3) 0.3631(2)
C6A C -0.6690(4) 0.5223(3) 0.2314(2)
N1A N -0.2027(3) 0.3700(3) 0.44766(17)
N2A N -0.4888(3) 0.2363(3) 0.33516(18)
O1A O -0.1936(2) 0.7057(2) 0.41829(15)
O2A O -0.4864(2) 0.7825(2) 0.30505(15)
O3A O -0.6069(3) 0.5909(2) 0.11858(15)
O4A O -0.8540(3) 0.5288(2) 0.27655(15)
Cu1* Cu -1.00000 0.50000 0.50000
Cu1** Cu 1.00000 0.50000 0.50000
O4* O -0.1460(3) 0.4712(2) 0.72345(15)
O4A* O 0.1460(3) 0.5288(2) 0.27655(15)
#END
