
#######################################################################
#
#                 Cambridge Crystallographic Data Centre
#                                CCDC
#
#######################################################################
#
# If this CIF has been generated from an entry in the Cambridge
# Structural Database, then it will include bibliographic, chemical,
# crystal, experimental, refinement or atomic coordinate data resulting
# from the CCDC's data processing and validation procedures.
#
#######################################################################

data_CSD_CIF_YIBZOA
_audit_creation_date 2013-06-16
_audit_creation_method CSD-ConQuest-V1
_database_code_CSD YIBZOA
_database_code_depnum_ccdc_archive 'CCDC 894118'
_chemical_formula_sum 'C21 H23 In1 N2 O9'
_chemical_formula_moiety
;
(C16 H8 In1 O8 1-)n,n(C3 H7 N1 O1),n(C2 H8 N1 1+)
;
_journal_coden_Cambridge 182
_journal_volume 49
_journal_year 2013
_journal_page_first 6197
_journal_name_full 'Chem.Commun. '
loop_
_publ_author_name
"T.Panda"
"T.Kundu"
"R.Banerjee"
_chemical_name_systematic
;
catena-[Dimethylammonium 
(\m~2~-isophthalato-O,O',O'',O''')-(\m~2~-isophthalato-O,O',O'')-indium 
dimethylformamide solvate]
;
_cell_volume   2334.698
_exptl_crystal_colour 'colorless'
_exptl_crystal_density_diffrn 1.6
_exptl_crystal_description 'cube'
_diffrn_ambient_temperature 100
#These two values have been output from a single CSD field.
_refine_ls_R_factor_gt 0.0684
_refine_ls_wR_factor_gt 0.0684
_symmetry_cell_setting monoclinic
_symmetry_space_group_name_H-M 'P 21/c'
_symmetry_Int_Tables_number 14
loop_
_symmetry_equiv_pos_site_id
_symmetry_equiv_pos_as_xyz
1 x,y,z
2 -x,1/2+y,1/2-z
3 -x,-y,-z
4 x,-1/2-y,-1/2+z
_cell_length_a 11.9876(3)
_cell_length_b 13.0329(4)
_cell_length_c 18.3012(6)
_cell_angle_alpha 90
_cell_angle_beta 125.260(2)
_cell_angle_gamma 90
_cell_formula_units_Z 4
loop_
_atom_type_symbol
_atom_type_radius_bond
C 0.68
H 0.23
In 1.42
N 0.68
O 0.68
loop_
_atom_site_label
_atom_site_type_symbol
_atom_site_fract_x
_atom_site_fract_y
_atom_site_fract_z
C1 C 0.2763(6) 0.4677(5) 0.1242(4)
C2 C 0.2914(6) 0.5360(5) 0.1951(4)
C3 C 0.4124(6) 0.5895(5) 0.2529(4)
H1 H 0.48400 0.58490 0.24680
C4 C 0.4250(7) 0.6503(4) 0.3204(4)
C5 C 0.3170(7) 0.6579(5) 0.3288(5)
H2 H 0.32620 0.69790 0.37400
C6 C 0.1960(6) 0.6060(5) 0.2700(4)
H3 H 0.12360 0.61190 0.27530
C7 C 0.1827(6) 0.5451(5) 0.2031(4)
H4 H 0.10140 0.51040 0.16360
C8 C 0.5525(6) 0.7100(5) 0.3810(4)
C9 C 0.2257(6) 0.4649(4) -0.1181(4)
C10 C 0.2071(6) 0.5338(5) -0.1900(4)
C11 C 0.0873(6) 0.5890(5) -0.2443(4)
H5 H 0.01900 0.58540 -0.23490
C12 C 0.0695(7) 0.6499(4) -0.3129(4)
C13 C 0.1735(7) 0.6550(5) -0.3254(5)
H6 H 0.16100 0.69440 -0.37200
C14 C 0.2950(7) 0.6026(5) -0.2698(5)
H7 H 0.36470 0.60830 -0.27780
C15 C 0.3119(6) 0.5412(5) -0.2019(4)
H8 H 0.39280 0.50510 -0.16450
C16 C -0.0593(6) 0.7101(5) -0.3713(4)
In1 In 0.25212(3) 0.34414(3) 0.00527(2)
O1 O 0.1718(4) 0.4117(3) 0.0786(3)
O2 O 0.3692(4) 0.4653(3) 0.1119(3)
O3 O 0.5677(5) 0.7544(3) 0.4491(3)
O4 O 0.6422(5) 0.7200(4) 0.3669(3)
O5 O 0.1356(4) 0.4631(3) -0.1025(3)
O6 O 0.3304(4) 0.4090(3) -0.0737(3)
O7 O -0.1414(5) 0.7209(4) -0.3518(3)
O8 O -0.0793(5) 0.7490(4) -0.4428(3)
C17 C 0.4086(7) 0.1040(5) 0.9084(5)
H9 H 0.31410 0.08540 0.87710
H10 H 0.45330 0.09490 0.97160
H11 H 0.45160 0.06130 0.88870
C18 C 0.3562(8) 0.2332(6) 0.7948(5)
H12 H 0.26530 0.20550 0.75940
H13 H 0.40980 0.20210 0.77710
H14 H 0.35240 0.30600 0.78570
N1 N 0.4190(6) 0.2117(4) 0.8899(4)
H15 H 0.37850 0.25120 0.90870
H16 H 0.50780 0.22940 0.92170
C19 C 0.1834(14) 0.7924(11) 0.9900(9)
H17 H 0.15300 0.72500 0.97480
C20 C -0.0385(10) 0.8532(7) 0.8903(7)
H18 H -0.05190 0.83300 0.83530
H19 H -0.08500 0.91690 0.88150
H20 H -0.07450 0.80120 0.90840
C21 C 0.1760(11) 0.9774(8) 0.9862(7)
H21 H 0.11470 1.02620 0.98470
H22 H 0.19660 0.99800 0.94480
H23 H 0.25890 0.97450 1.04550
N2 N 0.1054(11) 0.8660(8) 0.9586(7)
O9 O 0.3199(7) 0.8172(5) 1.0498(4)
In1A In -0.25212(3) 0.84414(3) -0.50527(2)
In1A* In 0.74788(3) 0.84414(3) 0.49473(2)
O3A O 0.4323(5) 0.2544(3) 0.0509(3)
O4A O 0.3578(5) 0.2200(4) 0.1331(3)
O8A O 0.0793(5) 0.2490(4) -0.0572(3)
#END
