
#######################################################################
#
#                 Cambridge Crystallographic Data Centre
#                                CCDC
#
#######################################################################
#
# If this CIF has been generated from an entry in the Cambridge
# Structural Database, then it will include bibliographic, chemical,
# crystal, experimental, refinement or atomic coordinate data resulting
# from the CCDC's data processing and validation procedures.
#
#######################################################################

data_CSD_CIF_YICPEI
_audit_creation_date 2018-06-13
_audit_creation_method CSD-ConQuest-V1
_database_code_CSD YICPEI
_database_code_depnum_ccdc_archive 'CCDC 1497858'
_chemical_formula_sum 'C46 H32 In1 N3 O8'
_chemical_formula_moiety
;
C2 H8 N1 1+,n(C44 H24 In1 N2 O8 1-)
;
_journal_coden_Cambridge 1182
_journal_volume 30
_journal_year 2018
_journal_page_first 234
_journal_name_full 'Chin.Chem.Lett. '
loop_
_publ_author_name
"Qi Yang"
"Bin Wang"
"Ya Chen"
"Yabo Xie"
"Jianrong Li"
_chemical_name_systematic
;
catena-[dimethylammonium 
(\m-4,4',4'',4'''-(1,4-phenylenedi(pyridine-4,2,6-triyl))tetrabenzoato)-indium
(iii) unknown solvate]
;
_chemical_name_common
;
BUT-29
;
_cell_volume  19311.502
_exptl_crystal_colour 'yellow'
_exptl_crystal_description 'block'
_diffrn_ambient_temperature 293.6
_refine_special_details
;
Disordered cation and solvent molecules were not modelled and the disordered 
density was taken into account using the SQUEEZE/PLATON procedure. The unit 
cell was found to contain a void of 13731 A$3! holding 3184 electrons.
;
#These two values have been output from a single CSD field.
_refine_ls_R_factor_gt 0.0662
_refine_ls_wR_factor_gt 0.0662
_symmetry_cell_setting monoclinic
_symmetry_space_group_name_H-M 'C 2/c'
_symmetry_Int_Tables_number 15
loop_
_symmetry_equiv_pos_site_id
_symmetry_equiv_pos_as_xyz
1 x,y,z
2 -x,y,1/2-z
3 1/2+x,1/2+y,z
4 1/2-x,1/2+y,1/2-z
5 -x,-y,-z
6 x,-y,-1/2+z
7 -1/2-x,-1/2-y,-z
8 -1/2+x,-1/2-y,-1/2+z
_cell_length_a 19.3403(9)
_cell_length_b 27.6449(6)
_cell_length_c 36.2362(6)
_cell_angle_alpha 90
_cell_angle_beta 94.606(3)
_cell_angle_gamma 90
_cell_formula_units_Z 8
loop_
_atom_type_symbol
_atom_type_radius_bond
C 0.68
H 0.23
In 1.42
N 0.68
O 0.68
loop_
_atom_site_label
_atom_site_type_symbol
_atom_site_fract_x
_atom_site_fract_y
_atom_site_fract_z
In1 In 0.118466(18) 0.481581(9) 0.102393(7)
O1 O 0.0460(2) 0.40547(12) 0.09420(9)
O2 O 0.05992(19) 0.45071(10) 0.14414(8)
O3 O 0.04927(19) 0.48824(10) 0.55844(9)
O4 O 0.0436(2) 0.44701(12) 0.60983(9)
O5 O -0.3003(2) 0.08391(12) 0.60944(9)
O6 O -0.32717(18) 0.04750(9) 0.55759(8)
O7 O -0.3228(2) 0.01371(10) 0.15028(9)
O8 O -0.3067(2) 0.04920(13) 0.09801(9)
N1 N -0.1331(3) 0.23812(15) 0.19650(11)
N2 N -0.1345(2) 0.26272(12) 0.50932(10)
C1 C 0.0353(3) 0.41291(15) 0.12694(13)
C2 C -0.0048(3) 0.37883(15) 0.14871(12)
C3 C -0.0181(3) 0.38962(16) 0.18469(13)
H1 H -0.00370 0.41990 0.19500
C4 C -0.2981(3) 0.04778(19) 0.13270(15)
C5 C -0.0519(3) 0.35727(17) 0.20584(13)
H2 H -0.06180 0.36580 0.23030
C6 C -0.0716(3) 0.31209(17) 0.19169(12)
C7 C -0.0568(4) 0.30073(18) 0.15529(13)
H3 H -0.06900 0.26980 0.14530
C8 C -0.0249(3) 0.33394(18) 0.13406(13)
H4 H -0.01650 0.32620 0.10930
C9 C -0.1049(3) 0.27525(17) 0.21453(13)
C10 C -0.1037(4) 0.28044(18) 0.25294(13)
H5 H -0.08270 0.30790 0.26490
C11 C -0.1340(4) 0.24455(19) 0.27330(13)
C12 C -0.1647(4) 0.2068(2) 0.25410(14)
H6 H -0.18750 0.18240 0.26700
C13 C -0.1631(3) 0.20368(19) 0.21611(13)
C14 C -0.1333(4) 0.24886(19) 0.31430(13)
C15 C -0.1397(4) 0.29364(18) 0.33122(13)
H7 H -0.14350 0.32210 0.31650
C16 C -0.1407(4) 0.29706(17) 0.36981(13)
H8 H -0.14540 0.32780 0.38110
C17 C -0.1348(3) 0.25559(17) 0.39159(12)
C18 C -0.1291(4) 0.21000(18) 0.37450(14)
H9 H -0.12450 0.18140 0.38910
C19 C -0.1305(4) 0.20741(19) 0.33610(14)
H10 H -0.12940 0.17660 0.32450
C20 C -0.1338(3) 0.25792(16) 0.43243(12)
C21 C -0.1069(3) 0.29762(16) 0.45189(12)
H11 H -0.08790 0.32400 0.43930
C22 C -0.1081(3) 0.29849(15) 0.49019(12)
C23 C -0.1612(3) 0.22444(15) 0.49083(12)
C24 C -0.1624(3) 0.22108(16) 0.45240(12)
H12 H -0.18280 0.19370 0.43990
C25 C -0.0761(3) 0.33977(14) 0.51260(11)
C26 C -0.0588(3) 0.38288(15) 0.49634(12)
H13 H -0.06920 0.38730 0.47050
C27 C -0.0270(3) 0.41949(15) 0.51692(12)
H14 H -0.01630 0.44900 0.50520
C28 C -0.0104(3) 0.41406(15) 0.55403(12)
C29 C 0.0288(3) 0.45160(17) 0.57564(13)
C30 C -0.0303(3) 0.37085(19) 0.57067(12)
H15 H -0.02150 0.36690 0.59670
C31 C -0.0615(3) 0.33502(17) 0.55064(12)
H16 H -0.07380 0.30600 0.56260
C32 C -0.1932(3) 0.18579(15) 0.51298(12)
C33 C -0.1927(3) 0.19072(19) 0.55092(13)
H17 H -0.17060 0.21790 0.56280
C34 C -0.2240(3) 0.15629(18) 0.57183(13)
H18 H -0.22380 0.16030 0.59790
C35 C -0.2555(3) 0.11640(15) 0.55510(12)
C36 C -0.2546(3) 0.11123(17) 0.51721(14)
H19 H -0.27480 0.08340 0.50540
C37 C -0.2245(3) 0.14645(17) 0.49621(13)
H20 H -0.22570 0.14310 0.47010
C38 C -0.2963(3) 0.08124(15) 0.57534(13)
C39 C -0.1963(4) 0.1627(2) 0.19455(14)
C40 C -0.2217(4) 0.1227(2) 0.21158(15)
H21 H -0.21700 0.12070 0.23780
C41 C -0.2538(4) 0.0856(2) 0.19174(15)
H22 H -0.27200 0.05900 0.20440
C42 C -0.2596(3) 0.08667(18) 0.15355(14)
C43 C -0.2311(4) 0.1246(2) 0.13594(15)
H23 H -0.23170 0.12460 0.10970
C44 C -0.2012(4) 0.1633(2) 0.15630(15)
H24 H -0.18400 0.19030 0.14370
In1B In -0.381534(18) -0.018419(9) 0.102393(7)
In1E In 0.118466(18) 0.518419(9) 0.602393(7)
In1G In -0.381534(18) 0.018419(9) 0.602393(7)
O3E O 0.04927(19) 0.51176(10) 0.05844(9)
O4E O 0.0436(2) 0.55299(12) 0.10983(9)
O5G O 0.1997(2) 0.41609(12) 0.10944(9)
O6G O 0.17283(18) 0.45250(9) 0.05759(8)
O7B O 0.1772(2) 0.51371(10) 0.15028(9)
O8B O 0.1933(2) 0.54920(13) 0.09801(9)
#END
