
#######################################################################
#
#                 Cambridge Crystallographic Data Centre
#                                CCDC
#
#######################################################################
#
# If this CIF has been generated from an entry in the Cambridge
# Structural Database, then it will include bibliographic, chemical,
# crystal, experimental, refinement or atomic coordinate data resulting
# from the CCDC's data processing and validation procedures.
#
#######################################################################

data_CSD_CIF_YIDPIL
_audit_creation_date 2007-07-26
_audit_creation_method CSD-ConQuest-V1
_database_code_CSD YIDPIL
_database_code_depnum_ccdc_archive 'CCDC 263829'
_chemical_formula_sum 'C17 H15 Bi1 N8 O9'
_chemical_formula_moiety
;
(C3 H7 N6 1+)n,n(C14 H8 Bi1 N2 O9 1-)
;
_journal_coeditor_code "IUCr BI2175"
_journal_coden_Cambridge 1370
_journal_volume 63
_journal_year 2007
_journal_page_first m1599
_journal_name_full 'Acta Crystallogr.,Sect.E:Struct.Rep.Online '
loop_
_publ_author_name
"M.A.Sharif"
"H.Aghabozorg"
"A.Moghimi"
_chemical_name_systematic
;
catena-((2,4,6-Triamino-1,3,5-triazin-1-ium) 
(\m~2~-pyridine-2,6-dicarboxylato-N,O,O',O')-aqua-(pyridine-2,6-dicarboxylato-
N,O,O')-bismuth(iii))
;
_cell_volume   2025.575
_exptl_crystal_colour 'colorless'
_exptl_crystal_density_diffrn 2.244
_exptl_crystal_description 'plate'
_diffrn_ambient_temperature 293
#These two values have been output from a single CSD field.
_refine_ls_R_factor_gt 0.0259
_refine_ls_wR_factor_gt 0.0259
_symmetry_cell_setting monoclinic
_symmetry_space_group_name_H-M 'P 21/c'
_symmetry_Int_Tables_number 14
loop_
_symmetry_equiv_pos_site_id
_symmetry_equiv_pos_as_xyz
1 x,y,z
2 -x,1/2+y,1/2-z
3 -x,-y,-z
4 x,-1/2-y,-1/2+z
_cell_length_a 9.3948(19)
_cell_length_b 23.351(5)
_cell_length_c 9.950(2)
_cell_angle_alpha 90
_cell_angle_beta 111.88(3)
_cell_angle_gamma 90
_cell_formula_units_Z 4
loop_
_atom_type_symbol
_atom_type_radius_bond
C 0.68
H 0.23
Bi 1.54
N 0.68
O 0.68
loop_
_atom_site_label
_atom_site_type_symbol
_atom_site_fract_x
_atom_site_fract_y
_atom_site_fract_z
Bi1 Bi 0.552810(17) -0.193019(7) 1.439182(16)
O1 O 0.6111(3) -0.10498(13) 1.5581(3)
O2 O 0.6980(4) -0.28698(14) 1.4813(4)
O3 O 0.7770(4) -0.04895(15) 1.7231(4)
O4 O 0.8748(4) -0.34122(14) 1.6453(4)
O5 O 0.3952(4) -0.12880(16) 1.2400(4)
O6 O 0.4941(3) -0.23637(14) 1.6281(3)
O7 O 0.1897(3) -0.07319(15) 1.1434(3)
O8 O 0.3550(4) -0.23668(15) 1.7681(4)
O9 O 0.7444(4) -0.13691(15) 1.3525(4)
H1 H 0.70390 -0.10780 1.30110
H2 H 0.82350 -0.14640 1.33570
N1 N 0.7928(4) -0.19504(15) 1.6514(4)
N2 N 0.3185(4) -0.15528(15) 1.4605(4)
N3 N 0.6811(4) 0.04424(16) 1.0465(4)
H3 H 0.70370 0.04750 0.96660
N4 N 0.6856(4) -0.02450(16) 1.2196(4)
N5 N 0.5374(4) 0.06224(16) 1.1893(4)
N6 N 0.8104(4) -0.03998(18) 1.0631(4)
H4 H 0.82300 -0.07750 1.08560
H5 H 0.84450 -0.03560 0.99020
N7 N 0.5467(5) -0.0034(2) 1.3595(5)
H6 H 0.59800 -0.02840 1.42970
H7 H 0.48320 0.02080 1.38030
N8 N 0.5389(5) 0.12643(17) 1.0165(4)
H8 H 0.55570 0.13550 0.93570
H9 H 0.46490 0.14690 1.03120
C1 C 0.7356(5) -0.09566(19) 1.6671(5)
C2 C 0.8347(5) -0.14704(19) 1.7294(5)
C3 C 0.9637(5) -0.1459(2) 1.8559(5)
H10 H 0.99370 -0.11220 1.90890
C4 C 1.0464(5) -0.1954(2) 1.9016(5)
H11 H 1.13210 -0.19580 1.98740
C5 C 1.0020(5) -0.2444(2) 1.8199(5)
H12 H 1.05800 -0.27810 1.84870
C6 C 0.8723(5) -0.24267(18) 1.6939(5)
C7 C 0.8105(5) -0.29447(19) 1.5985(5)
C8 C 0.2748(5) -0.10383(19) 1.2407(5)
C9 C 0.2370(5) -0.11399(19) 1.3732(5)
C10 C 0.1267(5) -0.0835(2) 1.4023(5)
H13 H 0.07320 -0.05400 1.34180
C11 C 0.0975(5) -0.0983(2) 1.5256(5)
H14 H 0.02420 -0.07840 1.54900
C12 C 0.1769(5) -0.1421(2) 1.6113(5)
H15 H 0.15640 -0.15310 1.69210
C13 C 0.2888(5) -0.1701(2) 1.5763(4)
C14 C 0.3863(5) -0.2182(2) 1.6654(5)
C15 C 0.7253(5) -0.00785(19) 1.1110(5)
C16 C 0.5916(5) 0.01188(19) 1.2534(5)
C17 C 0.5839(5) 0.0775(2) 1.0865(5)
Bi1C Bi 0.552810(17) -0.306981(7) 1.939182(16)
O8C O 0.3550(4) -0.26332(15) 1.2681(4)
#END
