
#######################################################################
#
#                 Cambridge Crystallographic Data Centre
#                                CCDC
#
#######################################################################
#
# If this CIF has been generated from an entry in the Cambridge
# Structural Database, then it will include bibliographic, chemical,
# crystal, experimental, refinement or atomic coordinate data resulting
# from the CCDC's data processing and validation procedures.
#
#######################################################################

data_CSD_CIF_YIHNOS
_audit_creation_date 1995-08-02
_audit_creation_method CSD-ConQuest-V1
_database_code_CSD YIHNOS
_database_code_depnum_ccdc_archive 'CCDC 1302894'
_chemical_formula_sum 'C2 H6 N1 Np1 O6'
_chemical_formula_moiety
;
(C2 H2 Np1 O6 1-)n,n(H4 N1 1+)
;
_journal_coden_Cambridge 233
_journal_volume 39
_journal_year 1994
_journal_page_first 1328
_journal_name_full 'Zh.Neorg.Khim.(Russ.)(Russ.J.Inorg.Chem.) '
loop_
_publ_author_name
"M.S.Grigoriev"
"I.A.Charushnikova"
"N.N.Krot"
"A.I.Yanovsky"
"Yu.T.Struchkov"
_chemical_name_systematic
;
catena(Ammonium dioxo-bis(\m~2~-formato)-neptunium(v))
;
_cell_volume    348.326
_exptl_crystal_colour 'grey-blue'
_exptl_crystal_density_diffrn 3.59
_diffrn_ambient_temperature ?
_diffrn_special_details
;
The study was carried out at room temperature,in the range 283-303K

;
#These two values have been output from a single CSD field.
_refine_ls_R_factor_gt 0.027
_refine_ls_wR_factor_gt 0.027
_symmetry_cell_setting orthorhombic
_symmetry_space_group_name_H-M 'I m m 2'
_symmetry_Int_Tables_number 44
loop_
_symmetry_equiv_pos_site_id
_symmetry_equiv_pos_as_xyz
1 x,y,z
2 -x,-y,z
3 -x,y,z
4 x,-y,z
5 1/2+x,1/2+y,1/2+z
6 1/2-x,1/2-y,1/2+z
7 1/2-x,1/2+y,1/2+z
8 1/2+x,1/2-y,1/2+z
_cell_length_a 10.944
_cell_length_b 7.232
_cell_length_c 4.401
_cell_angle_alpha 90
_cell_angle_beta 90
_cell_angle_gamma 90
_cell_formula_units_Z 2
loop_
_atom_type_symbol
_atom_type_radius_bond
C 0.68
N 0.68
Np 1.56
O 0.71
loop_
_atom_site_label
_atom_site_type_symbol
_atom_site_fract_x
_atom_site_fract_y
_atom_site_fract_z
Np1 Np 0.00000 0.00000 0.00000
O1 O 0.00000 0.2525(7) 0.0002(33)
O2 O 0.1164(5) 0.00000 0.5046(25)
O3 O 0.2354(6) 0.00000 0.1199(15)
C1 C 0.2207(6) 0.00000 0.4000(17)
N1 N 0.00000 0.50000 0.5006(33)
O1A O 0.00000 -0.2525(7) 0.0002(33)
O2* O 0.1164(5) 0.00000 -0.4954(25)
O2A O -0.1164(5) 0.00000 0.5046(25)
O2A* O -0.1164(5) 0.00000 -0.4954(25)
O3A O -0.2354(6) 0.00000 0.1199(15)
Np1* Np 0.00000 0.00000 1.00000
C1A C -0.2207(6) 0.00000 0.4000(17)
#END
