
#######################################################################
#
#                 Cambridge Crystallographic Data Centre
#                                CCDC
#
#######################################################################
#
# If this CIF has been generated from an entry in the Cambridge
# Structural Database, then it will include bibliographic, chemical,
# crystal, experimental, refinement or atomic coordinate data resulting
# from the CCDC's data processing and validation procedures.
#
#######################################################################

data_CSD_CIF_YILJUA
_audit_creation_date 2013-11-01
_audit_creation_method CSD-ConQuest-V1
_database_code_CSD YILJUA
_database_code_depnum_ccdc_archive 'CCDC 962615'
_chemical_formula_sum 'C104 H72 Cd3 O20 P2'
_chemical_formula_moiety
;
(C56 H32 Cd3 O20 2-)n,2n(C24 H20 P1 1+)
;
_journal_coden_Cambridge 1350
_journal_volume 15
_journal_year 2013
_journal_page_first 10423
_journal_name_full 'CrystEngComm '
loop_
_publ_author_name
"Shu-Mei Chen"
"Yan-Fei Chen"
"Rui Lin"
"Xiao-Ping Lei"
"Jian Zhang"
_chemical_name_systematic
;
catena-(bis(Tetraphenylphosphonium) 
bis(\m~4~-4,4'-oxydibenzoato)-bis(\m~3~-4,4'-oxydibenzoato)-tri-cadmium)
;
_cell_volume   4241.580
_exptl_crystal_colour 'colorless'
_exptl_crystal_density_diffrn 1.598
_exptl_crystal_description 'rod'
_diffrn_ambient_temperature 293
#These two values have been output from a single CSD field.
_refine_ls_R_factor_gt 0.0352
_refine_ls_wR_factor_gt 0.0352
_symmetry_cell_setting monoclinic
_symmetry_space_group_name_H-M 'P 21/n'
_symmetry_Int_Tables_number 14
loop_
_symmetry_equiv_pos_site_id
_symmetry_equiv_pos_as_xyz
1 x,y,z
2 1/2-x,1/2+y,1/2-z
3 -x,-y,-z
4 -1/2+x,-1/2-y,-1/2+z
_cell_length_a 13.4158(4)
_cell_length_b 21.8551(6)
_cell_length_c 14.4779(4)
_cell_angle_alpha 90
_cell_angle_beta 92.291(3)
_cell_angle_gamma 90
_cell_formula_units_Z 2
loop_
_atom_type_symbol
_atom_type_radius_bond
C 0.68
H 0.23
Cd 1.44
O 0.68
P 1.05
loop_
_atom_site_label
_atom_site_type_symbol
_atom_site_fract_x
_atom_site_fract_y
_atom_site_fract_z
Cd1 Cd 0.67501(2) 0.019217(13) 0.826146(18)
Cd2 Cd 0.50000 0.00000 1.00000
O1 O 0.6727(2) -0.01283(13) 0.98000(18)
O2 O 0.7940(2) -0.05118(13) 1.74583(18)
O3 O 0.7468(2) 0.03878(12) 1.69267(17)
C1 C 0.7596(3) 0.00878(17) 0.9998(3)
C2 C 0.5353(3) 0.11528(17) 0.8618(2)
C3 C 0.8379(3) -0.02463(17) 1.5929(2)
O4 O 0.0268(2) 0.42972(13) 0.60581(19)
O5 O 0.6209(2) 0.11893(13) 0.8338(2)
C4 C 0.4762(3) 0.17474(17) 0.8689(2)
C5 C 0.8071(3) -0.00739(16) 1.0923(2)
C6 C 0.7910(3) -0.01148(17) 1.6836(2)
O6 O 0.9508(2) -0.06461(14) 1.33719(17)
O7 O 0.4928(2) 0.06720(13) 0.8817(2)
C7 C 0.9557(3) -0.0168(2) 1.1901(3)
H1 H 1.02410 -0.01140 1.19970
C8 C 0.9010(3) -0.04291(19) 1.2574(2)
C9 C 0.7531(3) -0.03408(17) 1.1612(2)
H2 H 0.68490 -0.04040 1.15140
C10 C 0.8803(3) -0.08075(18) 1.5756(3)
H3 H 0.88430 -0.11010 1.62220
C11 C 0.8345(3) 0.01930(18) 1.5235(3)
H4 H 0.80730 0.05760 1.53480
C12 C 0.7987(3) -0.05134(18) 1.2439(2)
H5 H 0.76150 -0.06840 1.29030
O8 O 0.8057(2) 0.03859(16) 0.94255(19)
C13 C 0.0981(3) 0.40337(16) 0.7511(3)
C14 C 0.3742(4) 0.2821(2) 0.8943(3)
C15 C 0.5138(3) 0.22996(18) 0.8396(3)
H6 H 0.57460 0.23080 0.81100
O9 O -0.0592(2) 0.45231(13) 0.73056(19)
C16 C 0.3331(3) 0.2277(2) 0.9213(3)
H7 H 0.27080 0.22710 0.94720
C17 C 0.9169(3) -0.09407(19) 1.4895(3)
H8 H 0.94500 -0.13210 1.47800
C18 C 0.8711(3) 0.00650(19) 1.4377(3)
H9 H 0.86880 0.03600 1.39140
O10 O 0.3304(3) 0.33670(17) 0.9199(3)
C19 C 0.0143(3) 0.43136(17) 0.6916(3)
C20 C 0.2665(3) 0.3671(2) 0.7662(3)
H10 H 0.32770 0.35970 0.74040
C21 C 0.4633(4) 0.28326(19) 0.8520(3)
H11 H 0.48940 0.32010 0.83170
C22 C 0.1884(3) 0.39098(18) 0.7133(3)
H12 H 0.19680 0.39890 0.65100
C23 C 0.9088(3) 0.0015(2) 1.1079(3)
H13 H 0.94580 0.01990 1.06260
C24 C 0.9110(3) -0.05020(19) 1.4217(2)
C25 C 0.1643(4) 0.3670(2) 0.8970(3)
H14 H 0.15640 0.35940 0.95950
C26 C 0.2525(3) 0.3544(2) 0.8577(3)
C27 C 0.3841(3) 0.17449(19) 0.9102(3)
H15 H 0.35740 0.13780 0.93020
C28 C 0.0871(3) 0.3910(2) 0.8433(3)
H16 H 0.02640 0.39900 0.86970
P1 P 0.36775(7) 0.23446(4) 0.49654(7)
C29 C 0.4218(3) 0.16267(17) 0.5322(3)
C30 C 0.2587(3) 0.24280(17) 0.5643(2)
C31 C 0.3360(3) 0.23893(18) 0.3747(3)
C32 C 0.4594(3) 0.29297(17) 0.5216(3)
C33 C 0.1759(3) 0.2753(2) 0.5306(3)
H17 H 0.17710 0.29510 0.47370
C34 C 0.5144(3) 0.16102(19) 0.5779(3)
H18 H 0.55160 0.19670 0.58540
C35 C 0.3327(3) 0.1874(2) 0.3191(3)
H19 H 0.34510 0.14900 0.34460
C36 C 0.1707(3) 0.2175(2) 0.7000(3)
H20 H 0.16890 0.19850 0.75740
C37 C 0.5259(3) 0.3103(2) 0.4558(3)
H21 H 0.52020 0.29410 0.39650
C38 C 0.3664(3) 0.10862(18) 0.5229(3)
H22 H 0.30360 0.10910 0.49330
C39 C 0.2560(3) 0.2142(2) 0.6498(3)
H23 H 0.31150 0.19290 0.67320
C40 C 0.0891(3) 0.2485(2) 0.6656(3)
H24 H 0.03130 0.24950 0.69900
C41 C 0.4054(4) 0.0549(2) 0.5579(3)
H25 H 0.36920 0.01880 0.55100
C42 C 0.6003(4) 0.3516(2) 0.4783(3)
H26 H 0.64390 0.36400 0.43350
C43 C 0.6105(4) 0.3748(2) 0.5660(4)
H27 H 0.66120 0.40250 0.58090
C44 C 0.3185(3) 0.2966(2) 0.3366(3)
H28 H 0.32090 0.33110 0.37420
C45 C 0.5512(3) 0.1068(2) 0.6122(3)
H29 H 0.61380 0.10590 0.64210
C46 C 0.4971(4) 0.0540(2) 0.6029(3)
H30 H 0.52250 0.01750 0.62720
C47 C 0.3106(4) 0.1936(3) 0.2251(3)
H31 H 0.30710 0.15920 0.18720
C48 C 0.2941(4) 0.2509(3) 0.1882(3)
H32 H 0.28040 0.25500 0.12500
C49 C 0.0915(3) 0.2779(2) 0.5827(3)
H33 H 0.03610 0.29990 0.56100
C50 C 0.2976(4) 0.3022(2) 0.2430(3)
H34 H 0.28590 0.34060 0.21710
C51 C 0.4708(3) 0.3163(2) 0.6102(3)
H35 H 0.42740 0.30440 0.65540
C52 C 0.5465(4) 0.3571(2) 0.6313(3)
H36 H 0.55390 0.37280 0.69090
Cd1B Cd 0.32499(2) -0.019217(13) 1.173854(18)
O1B O 0.3273(2) 0.01283(13) 1.02000(18)
O2B O 0.2060(2) 0.05118(13) 0.25417(18)
O3B O 0.2532(2) -0.03878(12) 0.30733(17)
C1B C 0.2404(3) -0.00878(17) 1.0002(3)
C2B C 0.4647(3) -0.11528(17) 1.1382(2)
C3B C 0.1621(3) 0.02463(17) 0.4071(2)
O4B O 0.9732(2) -0.42972(13) 1.39419(19)
O5B O 0.3791(2) -0.11893(13) 1.1662(2)
C4B C 0.5238(3) -0.17474(17) 1.1311(2)
C5B C 0.1929(3) 0.00739(16) 0.9077(2)
C6B C 0.2090(3) 0.01148(17) 0.3164(2)
O6B O 0.0492(2) 0.06461(14) 0.66281(17)
O7B O 0.5072(2) -0.06720(13) 1.1183(2)
C7B C 0.0443(3) 0.0168(2) 0.8099(3)
H1B H -0.02410 0.01140 0.80030
C8B C 0.0990(3) 0.04291(19) 0.7426(2)
C9B C 0.2469(3) 0.03408(17) 0.8388(2)
H2B H 0.31510 0.04040 0.84860
C10B C 0.1197(3) 0.08075(18) 0.4244(3)
H3B H 0.11570 0.11010 0.37780
C11B C 0.1655(3) -0.01930(18) 0.4765(3)
H4B H 0.19270 -0.05760 0.46520
C12B C 0.2013(3) 0.05134(18) 0.7561(2)
H5B H 0.23850 0.06840 0.70970
O8B O 0.1943(2) -0.03859(16) 1.05745(19)
C13B C 0.9019(3) -0.40337(16) 1.2489(3)
C14B C 0.6258(4) -0.2821(2) 1.1057(3)
C15B C 0.4862(3) -0.22996(18) 1.1604(3)
H6B H 0.42540 -0.23080 1.18900
O9B O 1.0592(2) -0.45231(13) 1.26944(19)
C16B C 0.6669(3) -0.2277(2) 1.0787(3)
H7B H 0.72920 -0.22710 1.05280
C17B C 0.0831(3) 0.09407(19) 0.5105(3)
H8B H 0.05500 0.13210 0.52200
C18B C 0.1289(3) -0.00650(19) 0.5623(3)
H9B H 0.13120 -0.03600 0.60860
O10B O 0.6696(3) -0.33670(17) 1.0801(3)
C19B C 0.9857(3) -0.43136(17) 1.3084(3)
C20B C 0.7335(3) -0.3671(2) 1.2338(3)
H10B H 0.67230 -0.35970 1.25960
C21B C 0.5367(4) -0.28326(19) 1.1480(3)
H11B H 0.51060 -0.32010 1.16830
C22B C 0.8116(3) -0.39098(18) 1.2867(3)
H12B H 0.80320 -0.39890 1.34900
C23B C 0.0912(3) -0.0015(2) 0.8921(3)
H13B H 0.05420 -0.01990 0.93740
C24B C 0.0890(3) 0.05020(19) 0.5783(2)
C25B C 0.8357(4) -0.3670(2) 1.1030(3)
H14B H 0.84360 -0.35940 1.04050
C26B C 0.7475(3) -0.3544(2) 1.1423(3)
C27B C 0.6159(3) -0.17449(19) 1.0898(3)
H15B H 0.64260 -0.13780 1.06980
C28B C 0.9129(3) -0.3910(2) 1.1567(3)
H16B H 0.97360 -0.39900 1.13030
Cd1* Cd 0.67501(2) 0.019217(13) 1.826146(18)
Cd1A Cd -0.17501(2) 0.519217(13) 0.673854(18)
Cd1B* Cd 0.32499(2) -0.019217(13) 0.173854(18)
Cd1C Cd 1.17501(2) -0.519217(13) 1.326146(18)
Cd2A Cd 0.00000 0.50000 0.50000
Cd2A* Cd 1.00000 -0.50000 1.50000
O2* O 0.7940(2) -0.05118(13) 0.74583(18)
O2B* O 0.2060(2) 0.05118(13) 1.25417(18)
O3* O 0.7468(2) 0.03878(12) 0.69267(17)
O3B* O 0.2532(2) -0.03878(12) 1.30733(17)
O4A O 0.4732(2) -0.07028(13) 0.89419(19)
O4C O 0.5268(2) 0.07028(13) 1.10581(19)
O9A O 0.5592(2) -0.04769(13) 0.76944(19)
O9C O 0.4408(2) 0.04769(13) 1.23056(19)
#END
