
#######################################################################
#
#                 Cambridge Crystallographic Data Centre
#                                CCDC
#
#######################################################################
#
# If this CIF has been generated from an entry in the Cambridge
# Structural Database, then it will include bibliographic, chemical,
# crystal, experimental, refinement or atomic coordinate data resulting
# from the CCDC's data processing and validation procedures.
#
#######################################################################

data_CSD_CIF_YILKAH
_audit_creation_date 2013-11-01
_audit_creation_method CSD-ConQuest-V1
_database_code_CSD YILKAH
_database_code_depnum_ccdc_archive 'CCDC 962616'
_chemical_formula_sum 'C144 H136 Cd6 N2 O40'
_chemical_formula_moiety
;
(C112 H64 Cd6 O40 2-)n,2n(C16 H36 N1 1+)
;
_journal_coden_Cambridge 1350
_journal_volume 15
_journal_year 2013
_journal_page_first 10423
_journal_name_full 'CrystEngComm '
loop_
_publ_author_name
"Shu-Mei Chen"
"Yan-Fei Chen"
"Rui Lin"
"Xiao-Ping Lei"
"Jian Zhang"
_chemical_name_systematic
;
catena-(bis(Tetra-n-butylammonium) 
tetrakis(\m~4~-4,4'-oxydibenzoato)-tetrakis(\m~3~-4,4'-oxydibenzoato)-hexa-cad
mium)
;
_cell_volume   4311.189
_exptl_crystal_colour 'colorless'
_exptl_crystal_density_diffrn 1.236
_exptl_crystal_description 'rod'
_diffrn_ambient_temperature 293
_refine_special_details
;
The SQUEEZE/PLATON program has been used to model some disorder.

;
#These two values have been output from a single CSD field.
_refine_ls_R_factor_gt 0.0831
_refine_ls_wR_factor_gt 0.0831
_symmetry_cell_setting triclinic
_symmetry_space_group_name_H-M 'P -1'
_symmetry_Int_Tables_number 2
loop_
_symmetry_equiv_pos_site_id
_symmetry_equiv_pos_as_xyz
1 x,y,z
2 -x,-y,-z
_cell_length_a 15.1394(7)
_cell_length_b 16.5670(7)
_cell_length_c 17.8680(7)
_cell_angle_alpha 95.399(3)
_cell_angle_beta 97.074(3)
_cell_angle_gamma 102.332(4)
_cell_formula_units_Z 1
loop_
_atom_type_symbol
_atom_type_radius_bond
C 0.68
H 0.23
Cd 1.44
N 0.68
O 0.68
loop_
_atom_site_label
_atom_site_type_symbol
_atom_site_fract_x
_atom_site_fract_y
_atom_site_fract_z
Cd1 Cd 0.31397(3) 0.01764(4) -0.63377(3)
Cd2 Cd 0.50000 0.00000 -0.50000
Cd3 Cd 1.00000 0.50000 0.00000
Cd4 Cd 1.86837(6) 0.63416(4) 0.07436(5)
C1 C 1.5739(9) 0.6868(8) 0.1418(9)
H1 H 1.57770 0.63480 0.15570
C2 C 0.5138(9) 0.3854(7) -0.3848(8)
C3 C 0.7689(11) 0.4773(8) -0.2276(10)
H2 H 0.82620 0.46870 -0.23460
C4 C 1.4949(9) 0.7204(8) 0.1529(9)
H3 H 1.44620 0.68880 0.17210
C5 C 0.6941(10) 0.4571(8) -0.2868(10)
H4 H 0.70040 0.42970 -0.33300
C6 C 0.5931(11) 0.5013(8) -0.2053(10)
H5 H 0.53450 0.50390 -0.19650
C7 C 0.6132(11) 0.4769(8) -0.2777(11)
C8 C 0.4721(9) 0.3881(7) -0.4590(8)
H6 H 0.46740 0.43890 -0.47520
C9 C 0.5325(9) 0.3111(7) -0.3676(8)
H7 H 0.56920 0.31000 -0.32220
C10 C 1.4920(9) 0.7974(8) 0.1356(9)
C11 C 0.6617(10) 0.5195(8) -0.1528(10)
H8 H 0.65260 0.54120 -0.10520
C12 C 1.3002(8) 0.7308(6) 0.0796(7)
H9 H 1.33930 0.71110 0.05000
C13 C 1.5589(9) 0.8397(8) 0.1043(9)
H10 H 1.55630 0.89260 0.09200
C14 C 1.6422(9) 0.7328(7) 0.1106(9)
C15 C 0.7524(11) 0.5093(8) -0.1612(10)
C16 C 0.0796(7) -0.4524(7) -0.2815(6)
H11 H 0.09280 -0.50070 -0.30360
C17 C 0.8199(11) 0.5305(8) -0.0924(10)
C18 C 0.4375(9) 0.3140(7) -0.5089(8)
H12 H 0.40570 0.31560 -0.55650
C19 C 0.0642(7) -0.3920(6) -0.3256(6)
H13 H 0.06520 -0.40020 -0.37770
C20 C 1.2100(8) 0.6983(6) 0.0653(7)
H14 H 1.18690 0.65370 0.02730
C21 C 0.0722(6) -0.1982(5) -0.4426(5)
H15 H 0.01000 -0.20590 -0.45960
C22 C 0.0932(8) -0.5085(7) -0.1582(6)
C23 C 1.3350(8) 0.7947(6) 0.1396(7)
C24 C 0.4978(9) 0.2373(7) -0.4167(8)
H16 H 0.50640 0.18690 -0.40180
C25 C 1.1867(8) 0.7946(6) 0.1658(7)
H17 H 1.14720 0.81610 0.19370
C26 C 1.7267(9) 0.7003(8) 0.0965(10)
C27 C 0.4505(9) 0.2394(7) -0.4877(8)
C28 C 1.1517(8) 0.7301(6) 0.1059(7)
C29 C 0.0754(8) -0.4421(6) -0.2044(6)
C30 C 0.0474(8) -0.3192(6) -0.2927(6)
C31 C 1.0542(8) 0.6976(6) 0.0858(7)
C32 C 1.2766(8) 0.8248(6) 0.1825(7)
H18 H 1.30000 0.86630 0.22320
C33 C 0.0437(7) -0.3083(7) -0.2146(6)
H19 H 0.03280 -0.25910 -0.19200
C34 C 0.0999(6) -0.2253(5) -0.3778(5)
C35 C 1.6322(9) 0.8079(7) 0.0896(9)
H20 H 1.67620 0.83820 0.06470
C36 C 0.0562(7) -0.3699(6) -0.1715(6)
H21 H 0.05170 -0.36340 -0.11990
C37 C 0.1356(6) -0.1587(5) -0.4845(5)
H22 H 0.11600 -0.13960 -0.52950
C38 C -0.3499(5) 0.0451(5) -0.8201(4)
H23 H -0.34010 0.07480 -0.86110
C39 C 0.1930(6) -0.2147(5) -0.3511(5)
H24 H 0.21160 -0.23420 -0.30600
C40 C -0.0078(5) 0.0490(5) -0.7016(4)
H25 H 0.01770 0.08410 -0.65690
C41 C -0.3023(5) -0.0441(5) -0.7311(4)
H26 H -0.26110 -0.07480 -0.71350
C42 C -0.4262(5) 0.0462(5) -0.7845(4)
H27 H -0.46720 0.07720 -0.80180
C43 C 0.2568(6) -0.1751(5) -0.3923(5)
H28 H 0.31880 -0.16710 -0.37470
C44 C 0.4068(9) 0.1597(7) -0.5379(8)
C45 C 0.2982(6) -0.1031(5) -0.5037(5)
C46 C -0.2885(5) -0.0007(5) -0.7941(4)
C47 C 0.2289(6) -0.1475(5) -0.4594(5)
C48 C 0.0057(5) -0.0515(5) -0.8021(4)
H29 H 0.04030 -0.08390 -0.82530
C49 C -0.1335(5) -0.0064(5) -0.8001(4)
C50 C -0.3775(5) -0.0407(5) -0.6957(5)
H30 H -0.38510 -0.06730 -0.65260
C51 C -0.0838(5) -0.0557(5) -0.8351(4)
H31 H -0.10940 -0.09100 -0.87960
C52 C -0.0974(5) 0.0459(5) -0.7336(4)
H32 H -0.13200 0.07840 -0.71070
C53 C -0.4422(5) 0.0017(5) -0.7230(4)
C54 C 0.0437(5) 0.0001(5) -0.7356(4)
C55 C -0.5260(5) 0.0001(5) -0.6882(4)
C56 C 0.1393(5) 0.0037(5) -0.6990(4)
O1 O 0.5550(16) 0.4633(8) -0.3511(14)
O2 O 1.7333(8) 0.6322(6) 0.1209(9)
O3 O 0.1023(8) -0.5764(5) -0.1902(5)
O4 O 1.4241(6) 0.8339(6) 0.1576(8)
O5 O 0.8032(7) 0.5800(6) -0.0403(6)
O6 O 0.9997(5) 0.7279(4) 0.1248(4)
O7 O 0.0331(4) -0.2578(4) -0.3350(4)
O8 O 1.0196(5) 0.6411(4) 0.0303(4)
O9 O 0.3678(4) 0.1645(4) -0.6029(4)
O10 O 0.1019(5) -0.4947(5) -0.0860(4)
O11 O 0.1706(4) 0.0524(5) -0.6394(4)
O12 O 1.7797(5) 0.7378(4) 0.0631(4)
O13 O 0.2669(4) -0.0812(4) -0.5663(3)
O14 O 0.8902(4) 0.5022(3) -0.0930(3)
O15 O 0.4065(3) 0.0934(4) -0.5129(3)
O16 O -0.5387(3) -0.0374(4) -0.6304(3)
O17 O 0.1866(3) -0.0380(3) -0.7306(3)
O18 O -0.5866(3) 0.0337(4) -0.7190(3)
O19 O -0.2198(4) -0.0080(4) -0.8368(3)
O20 O 0.3813(3) -0.0917(4) -0.4771(3)
C57 C 0.3446(15) -0.0295(12) 0.0224(8)
H33 H 0.30200 -0.02660 -0.02120
H34 H 0.34940 -0.08610 0.02420
H35 H 0.40340 0.00460 0.01880
C58 C 0.1942(10) 0.2918(13) 0.3665(9)
H36 H 0.13220 0.25850 0.36030
H37 H 0.23270 0.26530 0.39890
C59 C 0.5924(10) 0.3029(11) 0.3095(14)
H38 H 0.59240 0.24540 0.29610
H39 H 0.58710 0.31240 0.36240
H40 H 0.64850 0.33730 0.30000
C60 C 0.2257(9) 0.2934(12) 0.2903(9)
H41 H 0.18500 0.31660 0.25670
H42 H 0.28650 0.32930 0.29580
C61 C 0.5110(8) 0.3247(8) 0.2614(9)
H43 H 0.53080 0.34650 0.21620
H44 H 0.49050 0.36780 0.29040
C62 C 0.3134(9) -0.0003(8) 0.0894(7)
H45 H 0.35650 -0.00480 0.13290
H46 H 0.25530 -0.03690 0.09330
C63 C -0.0595(11) 0.1282(9) 0.0299(8)
H47 H -0.09590 0.14380 -0.01180
H48 H -0.08880 0.13160 0.07450
H49 H -0.05340 0.07220 0.01760
C64 C 0.2279(10) 0.2090(13) 0.2558(9)
H50 H 0.16650 0.17440 0.25090
H51 H 0.26660 0.18620 0.29150
C65 C 0.4301(8) 0.2476(8) 0.2376(9)
H52 H 0.45340 0.20230 0.21510
H53 H 0.40630 0.23040 0.28300
C66 C 0.3012(9) 0.0881(8) 0.0944(7)
H54 H 0.35870 0.12540 0.08990
H55 H 0.25630 0.09290 0.05240
C67 C 0.0331(8) 0.1860(7) 0.0447(6)
H56 H 0.05900 0.18800 -0.00230
H57 H 0.02700 0.24170 0.06170
C68 C 0.3513(8) 0.2608(8) 0.1815(9)
H58 H 0.34330 0.31680 0.19400
H59 H 0.36830 0.25710 0.13100
C69 C 0.1913(8) 0.2191(7) 0.1182(6)
H60 H 0.21670 0.21900 0.07090
H61 H 0.18310 0.27480 0.13190
C70 C 0.0978(8) 0.1592(7) 0.1043(6)
H62 H 0.10430 0.10370 0.08740
H63 H 0.07220 0.15730 0.15140
C71 C 0.2717(9) 0.1130(7) 0.1656(7)
H64 H 0.31550 0.10450 0.20680
H65 H 0.21370 0.07570 0.16850
N1 N 0.2604(6) 0.2003(5) 0.1796(5)
C72 C 0.197(2) 0.378(3) 0.405(2)
H66 H 0.18740 0.41350 0.36680
H67 H 0.25540 0.39960 0.43540
H68 H 0.14980 0.37440 0.43640
Cd1A Cd -0.31397(3) -0.01764(4) -0.36623(3)
C2A C -0.5138(9) -0.3854(7) -0.6152(8)
C3A C -0.7689(11) -0.4773(8) -0.7724(10)
H2A H -0.82620 -0.46870 -0.76540
C5A C -0.6941(10) -0.4571(8) -0.7132(10)
H4A H -0.70040 -0.42970 -0.66700
C6A C -0.5931(11) -0.5013(8) -0.7947(10)
H5A H -0.53450 -0.50390 -0.80350
C7A C -0.6132(11) -0.4769(8) -0.7223(11)
C8A C -0.4721(9) -0.3881(7) -0.5410(8)
H6A H -0.46740 -0.43890 -0.52480
C9A C -0.5325(9) -0.3111(7) -0.6324(8)
H7A H -0.56920 -0.31000 -0.67780
C11A C -0.6617(10) -0.5195(8) -0.8472(10)
H8A H -0.65260 -0.54120 -0.89480
C15A C -0.7524(11) -0.5093(8) -0.8388(10)
C16A C -0.0796(7) 0.4524(7) -0.7185(6)
H11A H -0.09280 0.50070 -0.69640
C17A C -0.8199(11) -0.5305(8) -0.9076(10)
C18A C -0.4375(9) -0.3140(7) -0.4911(8)
H12A H -0.40570 -0.31560 -0.44350
C19A C -0.0642(7) 0.3920(6) -0.6744(6)
H13A H -0.06520 0.40020 -0.62230
C21A C -0.0722(6) 0.1982(5) -0.5574(5)
H15A H -0.01000 0.20590 -0.54040
C22A C -0.0932(8) 0.5085(7) -0.8418(6)
C24A C -0.4978(9) -0.2373(7) -0.5833(8)
H16A H -0.50640 -0.18690 -0.59820
C27A C -0.4505(9) -0.2394(7) -0.5123(8)
C29A C -0.0754(8) 0.4421(6) -0.7956(6)
C30A C -0.0474(8) 0.3192(6) -0.7073(6)
C33A C -0.0437(7) 0.3083(7) -0.7854(6)
H19A H -0.03280 0.25910 -0.80800
C34A C -0.0999(6) 0.2253(5) -0.6222(5)
C36A C -0.0562(7) 0.3699(6) -0.8285(6)
H21A H -0.05170 0.36340 -0.88010
C37A C -0.1356(6) 0.1587(5) -0.5155(5)
H22A H -0.11600 0.13960 -0.47050
C38A C 0.3499(5) -0.0451(5) -0.1799(4)
H23A H 0.34010 -0.07480 -0.13890
C39A C -0.1930(6) 0.2147(5) -0.6489(5)
H24A H -0.21160 0.23420 -0.69400
C40A C 0.0078(5) -0.0490(5) -0.2984(4)
H25A H -0.01770 -0.08410 -0.34310
C41A C 0.3023(5) 0.0441(5) -0.2689(4)
H26A H 0.26110 0.07480 -0.28650
C42A C 0.4262(5) -0.0462(5) -0.2155(4)
H27A H 0.46720 -0.07720 -0.19820
C43A C -0.2568(6) 0.1751(5) -0.6077(5)
H28A H -0.31880 0.16710 -0.62530
C44A C -0.4068(9) -0.1597(7) -0.4621(8)
C45A C -0.2982(6) 0.1031(5) -0.4963(5)
C46A C 0.2885(5) 0.0007(5) -0.2059(4)
C47A C -0.2289(6) 0.1475(5) -0.5406(5)
C48A C -0.0057(5) 0.0515(5) -0.1979(4)
H29A H -0.04030 0.08390 -0.17470
C49A C 0.1335(5) 0.0064(5) -0.1999(4)
C50A C 0.3775(5) 0.0407(5) -0.3043(5)
H30A H 0.38510 0.06730 -0.34740
C51A C 0.0838(5) 0.0557(5) -0.1649(4)
H31A H 0.10940 0.09100 -0.12040
C52A C 0.0974(5) -0.0459(5) -0.2664(4)
H32A H 0.13200 -0.07840 -0.28930
C53A C 0.4422(5) -0.0017(5) -0.2770(4)
C54A C -0.0437(5) -0.0001(5) -0.2644(4)
C55A C 0.5260(5) -0.0001(5) -0.3118(4)
C56A C -0.1393(5) -0.0037(5) -0.3010(4)
O1A O -0.5550(16) -0.4633(8) -0.6489(14)
O3A O -0.1023(8) 0.5764(5) -0.8098(5)
O5A O -0.8032(7) -0.5800(6) -0.9597(6)
O7A O -0.0331(4) 0.2578(4) -0.6650(4)
O9A O -0.3678(4) -0.1645(4) -0.3971(4)
O10A O -0.1019(5) 0.4947(5) -0.9140(4)
O11A O -0.1706(4) -0.0524(5) -0.3606(4)
O13A O -0.2669(4) 0.0812(4) -0.4337(3)
O14A O -0.8902(4) -0.5022(3) -0.9070(3)
O15A O -0.4065(3) -0.0934(4) -0.4871(3)
O16A O 0.5387(3) 0.0374(4) -0.3696(3)
O17A O -0.1866(3) 0.0380(3) -0.2694(3)
O18A O 0.5866(3) -0.0337(4) -0.2810(3)
O19A O 0.2198(4) 0.0080(4) -0.1632(3)
O20A O -0.3813(3) 0.0917(4) -0.5229(3)
Cd4A Cd 0.13163(6) 0.36584(4) -0.07436(5)
C1A C 0.4261(9) 0.3132(8) -0.1418(9)
H1A H 0.42230 0.36520 -0.15570
C4A C 0.5051(9) 0.2796(8) -0.1529(9)
H3A H 0.55380 0.31120 -0.17210
C10A C 0.5080(9) 0.2026(8) -0.1356(9)
C12A C 0.6998(8) 0.2692(6) -0.0796(7)
H9A H 0.66070 0.28890 -0.05000
C13A C 0.4411(9) 0.1603(8) -0.1043(9)
H10A H 0.44370 0.10740 -0.09200
C14A C 0.3578(9) 0.2672(7) -0.1106(9)
C20A C 0.7900(8) 0.3017(6) -0.0653(7)
H14A H 0.81310 0.34630 -0.02730
C23A C 0.6650(8) 0.2053(6) -0.1396(7)
C25A C 0.8133(8) 0.2054(6) -0.1658(7)
H17A H 0.85280 0.18390 -0.19370
C26A C 0.2733(9) 0.2997(8) -0.0965(10)
C28A C 0.8483(8) 0.2699(6) -0.1059(7)
C31A C 0.9458(8) 0.3024(6) -0.0858(7)
C32A C 0.7234(8) 0.1752(6) -0.1825(7)
H18A H 0.70000 0.13370 -0.22320
C35A C 0.3678(9) 0.1921(7) -0.0896(9)
H20A H 0.32380 0.16180 -0.06470
O2A O 0.2667(8) 0.3678(6) -0.1209(9)
O4A O 0.5759(6) 0.1661(6) -0.1576(8)
O6A O 1.0003(5) 0.2721(4) -0.1248(4)
O8A O 0.9804(5) 0.3589(4) -0.0303(4)
O12A O 0.2203(5) 0.2622(4) -0.0631(4)
Cd1* Cd -0.68603(3) 0.01764(4) -0.63377(3)
Cd1A* Cd 0.68603(3) -0.01764(4) -0.36623(3)
Cd2* Cd -0.50000 0.00000 -0.50000
Cd3* Cd -1.00000 -0.50000 -1.00000
Cd3** Cd 0.00000 -0.50000 0.00000
Cd3*** Cd 0.00000 0.50000 -1.00000
Cd4* Cd -0.13163(6) 0.63416(4) -0.92564(5)
Cd4** Cd 0.86837(6) 0.63416(4) 0.07436(5)
Cd4A* Cd -0.86837(6) -0.63416(4) -1.07436(5)
Cd4A** Cd 0.13163(6) -0.63416(4) -0.07436(5)
Cd4A*** Cd 1.13163(6) 0.36584(4) -0.07436(5)
O3* O 0.1023(8) 0.4236(5) -0.1902(5)
O3A* O 1.8977(8) 0.5764(5) 0.1902(5)
O5* O 1.8032(7) 0.5800(6) -0.0403(6)
O5A* O 0.1968(7) 0.4200(6) 0.0403(6)
O6* O 1.9997(5) 0.7279(4) 0.1248(4)
O6A* O 0.0003(5) 0.2721(4) -0.1248(4)
O8* O 2.0196(5) 0.6411(4) 0.0303(4)
O8A* O -0.0196(5) 0.3589(4) -0.0303(4)
O10* O 0.1019(5) 0.5053(5) -0.0860(4)
O10** O 1.1019(5) 0.5053(5) -0.0860(4)
O10A* O 0.8981(5) 0.4947(5) 0.0860(4)
O10A** O 1.8981(5) 0.4947(5) 0.0860(4)
O14A* O 1.1098(4) 0.4978(3) 0.0930(3)
O15A* O 0.5935(3) -0.0934(4) -0.4871(3)
O16* O 0.4613(3) -0.0374(4) -0.6304(3)
O16A* O -0.4613(3) 0.0374(4) -0.3696(3)
O18* O 0.4134(3) 0.0337(4) -0.7190(3)
O18A* O -0.4134(3) -0.0337(4) -0.2810(3)
O20A* O 0.6187(3) 0.0917(4) -0.5229(3)
#END
