
#######################################################################
#
#                 Cambridge Crystallographic Data Centre
#                                CCDC
#
#######################################################################
#
# If this CIF has been generated from an entry in the Cambridge
# Structural Database, then it will include bibliographic, chemical,
# crystal, experimental, refinement or atomic coordinate data resulting
# from the CCDC's data processing and validation procedures.
#
#######################################################################

data_CSD_CIF_YILKEL
_audit_creation_date 2013-11-01
_audit_creation_method CSD-ConQuest-V1
_database_code_CSD YILKEL
_database_code_depnum_ccdc_archive 'CCDC 942215'
_chemical_formula_sum 'C25 H36 Eu1 N1 O12'
_chemical_formula_moiety
;
(C23 H24 Eu1 O10 1-)n,n(C2 H8 N1 1+),2n(H2 O1)
;
_journal_coden_Cambridge 182
_journal_volume 49
_journal_year 2013
_journal_page_first 11557
_journal_name_full 'Chem.Commun. '
loop_
_publ_author_name
"Zhen Chen"
"Yanwen Sun"
"Liangliang Zhang"
"Di Sun"
"Fuling Liu"
"Qingguo Meng"
"Rongming Wang"
"Daofeng Sun"
_chemical_name_systematic
;
catena-(Dimethylammonium 
(\m~4~-5,5'-methylenebis(2,4,6-trimethylisophthalato))-diaqua-europium 
dihydrate)
;
_cell_volume   2735.230
_exptl_crystal_colour 'pale yellow'
_exptl_crystal_density_diffrn 1.687
_exptl_crystal_description 'block'
_diffrn_ambient_temperature 298
#These two values have been output from a single CSD field.
_refine_ls_R_factor_gt 0.0349
_refine_ls_wR_factor_gt 0.0349
_symmetry_cell_setting monoclinic
_symmetry_space_group_name_H-M 'P 21/n'
_symmetry_Int_Tables_number 14
loop_
_symmetry_equiv_pos_site_id
_symmetry_equiv_pos_as_xyz
1 x,y,z
2 1/2-x,1/2+y,1/2-z
3 -x,-y,-z
4 -1/2+x,-1/2-y,-1/2+z
_cell_length_a 8.9760(7)
_cell_length_b 25.7636(19)
_cell_length_c 11.8280(9)
_cell_angle_alpha 90
_cell_angle_beta 90.323(1)
_cell_angle_gamma 90
_cell_formula_units_Z 4
loop_
_atom_type_symbol
_atom_type_radius_bond
C 0.68
H 0.23
Eu 1.98
N 0.68
O 0.68
loop_
_atom_site_label
_atom_site_type_symbol
_atom_site_fract_x
_atom_site_fract_y
_atom_site_fract_z
Eu1 Eu 0.98860(2) 0.377846(7) 0.990280(16)
C1 C 1.5087(4) 0.32671(15) 0.5448(3)
O1 O 1.0655(3) 0.45869(10) 0.9078(2)
H1 H 1.10620 0.47840 0.95860
H2 H 0.98940 0.47480 0.87930
O2 O 1.5357(3) 0.20038(10) 0.6097(3)
O3 O 1.2384(3) 0.34486(11) 0.9138(2)
C2 C 1.4776(4) 0.37734(13) 0.5803(3)
C3 C 1.5260(4) 0.42754(13) 0.3944(3)
O4 O 1.7640(4) 0.36523(12) 0.1017(3)
O5 O 1.8135(3) 0.44623(10) 0.0723(3)
O6 O 1.0627(3) 0.35976(12) 0.7898(2)
C4 C 1.7392(4) 0.41255(15) 0.1219(3)
C5 C 1.4288(4) 0.28468(14) 0.5915(3)
O7 O 1.4024(3) 0.21474(11) 0.4582(2)
O8 O 1.1484(4) 0.49188(13) 0.1992(4)
C6 C 1.4732(4) 0.43213(14) 0.1588(3)
C7 C 1.2018(5) 0.44779(15) 0.1869(4)
C8 C 1.3557(4) 0.43798(14) 0.2357(3)
C9 C 1.6452(4) 0.42425(14) 0.3187(3)
C10 C 1.1967(5) 0.34984(14) 0.8136(3)
C11 C 1.6152(4) 0.42447(14) 0.2021(3)
C12 C 1.3817(4) 0.43580(14) 0.3522(3)
C13 C 1.4572(4) 0.23029(14) 0.5499(3)
C14 C 1.3057(4) 0.34236(14) 0.7177(3)
C15 C 1.4451(5) 0.43467(18) 0.0339(4)
H3 H 1.39020 0.40450 0.01040
H4 H 1.53850 0.43580 -0.00520
H5 H 1.38860 0.46530 0.01650
C16 C 1.8075(4) 0.42162(18) 0.3548(4)
H6 H 1.81790 0.43500 0.43020
H7 H 1.86670 0.44200 0.30400
H8 H 1.84060 0.38620 0.35310
C17 C 1.3822(5) 0.38516(14) 0.6721(3)
C18 C 1.2511(4) 0.44430(17) 0.4317(4)
H9 H 1.24960 0.41720 0.48740
H10 H 1.15970 0.44380 0.38930
H11 H 1.26180 0.47730 0.46860
O9 O 0.7792(4) 0.39249(16) 0.8558(3)
H12 H 0.72310 0.41640 0.88070
H13 H 0.72770 0.36500 0.84900
C19 C 1.3248(5) 0.29232(14) 0.6755(3)
C20 C 1.6326(5) 0.31499(16) 0.4633(4)
H14 H 1.60230 0.32470 0.38820
H15 H 1.65450 0.27850 0.46510
H16 H 1.71990 0.33430 0.48450
C21 C 1.3580(5) 0.43775(15) 0.7249(4)
H17 H 1.45260 0.45380 0.73970
H18 H 1.30470 0.43380 0.79450
H19 H 1.30120 0.45910 0.67400
C22 C 1.2374(6) 0.24756(16) 0.7239(5)
H20 H 1.21220 0.22370 0.66460
H21 H 1.14790 0.26040 0.75790
H22 H 1.29660 0.23010 0.78010
C23 C 1.5531(4) 0.42323(15) 0.5220(3)
H23 H 1.65960 0.42080 0.53530
H24 H 1.51890 0.45500 0.55740
O10 O 1.1381(3) 0.41075(11) 0.1368(2)
O11 O 1.5458(6) 0.3079(2) 0.9380(6)
H25 H 1.45600 0.31540 0.92190
H26 H 1.576(11) 0.322(4) 1.000(8)
N1 N 1.6933(8) 0.2304(2) 0.7983(6)
H27 H 1.62070 0.23780 0.74810
H28 H 1.71170 0.25890 0.83990
C24 C 1.6454(12) 0.1867(3) 0.8732(8)
H29 H 1.64180 0.15510 0.83030
H30 H 1.54840 0.19410 0.90300
H31 H 1.71540 0.18300 0.93430
C25 C 1.8292(12) 0.2143(9) 0.7386(12)
H32 H 1.80400 0.18910 0.68180
H33 H 1.89820 0.19920 0.79160
H34 H 1.87400 0.24390 0.70350
O12 O 0.8975(8) 0.4220(3) 0.6426(5)
H35 H 0.94860 0.40090 0.68210
H36 H 0.87910 0.44850 0.68290
Eu1* Eu 0.98860(2) 0.377846(7) -0.009720(16)
Eu1** Eu 1.98860(2) 0.377846(7) -0.009720(16)
Eu1C Eu 1.48860(2) 0.122154(7) 0.490280(16)
O2C O 1.0357(3) 0.29962(10) 1.1097(3)
O4* O 0.7640(4) 0.36523(12) 1.1017(3)
O5* O 0.8135(3) 0.44623(10) 1.0723(3)
O7C O 0.9024(3) 0.28526(11) 0.9582(2)
O10* O 1.1381(3) 0.41075(11) 1.1368(2)
#END
