
#######################################################################
#
#                 Cambridge Crystallographic Data Centre
#                                CCDC
#
#######################################################################
#
# If this CIF has been generated from an entry in the Cambridge
# Structural Database, then it will include bibliographic, chemical,
# crystal, experimental, refinement or atomic coordinate data resulting
# from the CCDC's data processing and validation procedures.
#
#######################################################################

data_CSD_CIF_YILMAK
_audit_creation_date 2018-11-14
_audit_creation_method CSD-ConQuest-V1
_database_code_CSD YILMAK
_database_code_depnum_ccdc_archive 'CCDC 1864893'
_chemical_formula_sum 'C41.2 H20.4 Ag1 Al1 Cl2.4 F36 Mo2 N2 O8 P2'
_chemical_formula_moiety
;
(C24 H18 Ag1 Mo2 N2 O4 P2 1+)n,n(C16 Al1 F36 O4 1-),1.2n(C1 H2 Cl2)
;
_journal_coden_Cambridge 1350
_journal_volume 20
_journal_year 2018
_journal_page_first 7417
_journal_name_full 'CrystEngComm '
loop_
_publ_author_name
"M.E.Moussa"
"E.Peresypkina"
"A.V.Virovets"
"D.Venus"
"G.Balazs"
"M.Scheer"
_chemical_name_systematic
;
catena-((\m-4,4'-bipyridine)-(\m-diphosphide)-tetracarbonyl-bis(cyclopentadien
yl)-di-molybdenum-silver 
bis(tetrakis(1,1,1,3,3,3-hexafluoro-2-(trifluoromethyl)propan-2-olato)-alumini
um) dichloromethane solvate)
;
_cell_volume   6096.009
_exptl_crystal_colour 'orange'
_exptl_crystal_density_diffrn 1.993
_exptl_crystal_description 'plate'
_diffrn_ambient_temperature 123
_refine_special_details
;
The structure is disordered.

;
#These two values have been output from a single CSD field.
_refine_ls_R_factor_gt 0.0557
_refine_ls_wR_factor_gt 0.0557
_symmetry_cell_setting monoclinic
_symmetry_space_group_name_H-M 'P 21/c'
_symmetry_Int_Tables_number 14
loop_
_symmetry_equiv_pos_site_id
_symmetry_equiv_pos_as_xyz
1 x,y,z
2 -x,1/2+y,1/2-z
3 -x,-y,-z
4 x,-1/2-y,-1/2+z
_cell_length_a 18.1526(9)
_cell_length_b 18.9664(7)
_cell_length_c 18.8938(8)
_cell_angle_alpha 90
_cell_angle_beta 110.424(6)
_cell_angle_gamma 90
_cell_formula_units_Z 4
loop_
_atom_type_symbol
_atom_type_radius_bond
C 0.68
H 0.23
Ag 1.45
Al 1.21
Cl 0.99
F 0.64
Mo 1.54
N 0.68
O 0.68
P 1.05
loop_
_atom_site_label
_atom_site_type_symbol
_atom_site_fract_x
_atom_site_fract_y
_atom_site_fract_z
Ag1 Ag 0.99489(3) 0.42770(2) 0.48043(3)
Mo1 Mo 0.74250(4) 0.52709(3) 0.47154(4)
Mo2 Mo 0.78199(4) 0.55470(3) 0.33061(3)
P1 P 0.86799(12) 0.50158(10) 0.45434(11)
P2 P 0.84459(13) 0.61125(10) 0.45445(11)
C1 C 0.7895(6) 0.5686(5) 0.5742(6)
C2 C 0.6873(5) 0.6203(5) 0.4460(5)
C3 C 0.7722(5) 0.4506(5) 0.3145(5)
C4 C 0.8843(5) 0.5452(4) 0.3156(5)
O1 O 0.8105(5) 0.5940(4) 0.6334(4)
O2 O 0.6525(4) 0.6711(3) 0.4329(4)
O3 O 0.7631(4) 0.3919(3) 0.3005(4)
O4 O 0.9422(4) 0.5399(3) 0.3053(4)
C5 C 0.6529(6) 0.4789(5) 0.5183(6)
H1 H 0.63360 0.50080 0.55670
C6 C 0.6156(5) 0.4830(5) 0.4383(6)
H2 H 0.56610 0.50930 0.41080
C7 C 0.6550(5) 0.4374(5) 0.4060(6)
H3 H 0.63950 0.42760 0.35070
C8 C 0.7179(6) 0.4047(4) 0.4629(5)
H4 H 0.75330 0.36740 0.45540
C9 C 0.7172(6) 0.4302(5) 0.5332(5)
H5 H 0.75110 0.41280 0.58410
C10 C 0.6570(6) 0.6048(5) 0.2753(5)
H6 H 0.61230 0.60010 0.29430
C11 C 0.7132(6) 0.6604(5) 0.2932(5)
H7 H 0.71460 0.70200 0.32610
C12 C 0.7617(6) 0.6490(4) 0.2501(5)
H8 H 0.80320 0.68200 0.24630
C13 C 0.7354(6) 0.5873(5) 0.2063(5)
H9 H 0.75460 0.56950 0.16600
C14 C 0.6722(4) 0.5604(5) 0.2236(5)
H10 H 0.63910 0.51920 0.19820
N1 N 0.9698(4) 0.3707(3) 0.3669(3)
N2 N 0.9636(4) 0.1583(3) 0.0545(3)
C15 C 1.0104(5) 0.3884(4) 0.3224(5)
H11 H 1.04170 0.42990 0.33450
C16 C 1.0097(5) 0.3498(4) 0.2598(5)
H12 H 1.04020 0.36420 0.23050
C17 C 0.9632(5) 0.2897(4) 0.2410(4)
C18 C 0.9188(5) 0.2726(4) 0.2849(4)
H13 H 0.88500 0.23270 0.27280
C19 C 0.9242(5) 0.3144(4) 0.3472(4)
H14 H 0.89350 0.30170 0.37700
C20 C 0.9295(5) 0.1382(4) 0.1034(4)
H15 H 0.90480 0.09330 0.09620
C21 C 0.9279(5) 0.1783(4) 0.1637(5)
H16 H 0.90350 0.16060 0.19710
C22 C 0.9626(4) 0.2456(4) 0.1754(4)
C23 C 0.9974(6) 0.2666(4) 0.1242(5)
H17 H 1.02270 0.31110 0.12990
C24 C 0.9954(6) 0.2230(4) 0.0650(5)
H18 H 1.01770 0.23990 0.02970
Al1 Al 0.69728(12) 0.06598(10) 0.38120(11)
O5 O 0.7825(3) 0.0275(3) 0.3785(3)
O6 O 0.7125(3) 0.1182(3) 0.4596(3)
O7 O 0.6619(3) 0.1202(2) 0.3029(3)
O8 O 0.6347(3) -0.0014(3) 0.3840(3)
C25 C 0.8455(5) 0.0347(4) 0.3584(4)
C26 C 0.8960(6) -0.0333(5) 0.3838(6)
C27 C 0.8961(6) 0.0994(5) 0.3977(5)
C28 C 0.8201(6) 0.0437(5) 0.2702(5)
C29 C 0.7261(5) 0.1232(4) 0.5334(4)
C30 C 0.7989(6) 0.0810(4) 0.5806(5)
C31 C 0.6534(5) 0.0977(5) 0.5527(5)
C32 C 0.7407(5) 0.2026(5) 0.5553(4)
C33 C 0.6163(4) 0.1753(3) 0.2709(4)
C34 C 0.5514(5) 0.1875(4) 0.3049(5)
C35 C 0.5777(5) 0.1591(4) 0.1853(4)
C36 C 0.6666(5) 0.2432(4) 0.2804(4)
C37 C 0.6021(4) -0.0649(4) 0.3573(5)
C38 C 0.5526(6) -0.0607(4) 0.2723(6)
C39 C 0.5487(7) -0.0868(5) 0.4015(7)
C40 C 0.6663(7) -0.1210(5) 0.3683(8)
F1 F 0.8497(3) 0.1552(3) 0.3931(3)
F2 F 0.8016(3) 0.1103(3) 0.2502(3)
F3 F 0.8811(4) 0.0270(3) 0.2464(3)
F4 F 0.7612(3) 0.0034(3) 0.2350(3)
F5 F 0.9333(4) 0.0877(4) 0.4703(3)
F6 F 0.9687(4) -0.0258(3) 0.3830(4)
F7 F 0.8629(4) -0.0864(3) 0.3363(4)
F8 F 0.9496(3) 0.1177(3) 0.3675(4)
F9 F 0.9011(4) -0.0523(4) 0.4517(4)
F10 F 0.7876(3) 0.2315(2) 0.5230(3)
F11 F 0.7741(3) 0.2129(3) 0.6298(3)
F12 F 0.8652(3) 0.1118(3) 0.5818(3)
F13 F 0.5875(3) 0.1197(3) 0.5019(3)
F14 F 0.7972(4) 0.0169(3) 0.5509(3)
F15 F 0.6517(4) 0.0273(3) 0.5551(3)
F16 F 0.8051(4) 0.0713(3) 0.6532(3)
F17 F 0.6553(4) 0.1210(4) 0.6205(3)
F18 F 0.6728(3) 0.2389(3) 0.5320(3)
F19 F 0.5781(3) 0.2255(3) 0.3694(3)
F20 F 0.4886(3) 0.2235(2) 0.2572(3)
F21 F 0.5247(3) 0.1276(2) 0.3216(3)
F22 F 0.5182(3) 0.1125(2) 0.1740(3)
F23 F 0.7110(3) 0.2409(2) 0.2375(3)
F24 F 0.7157(3) 0.2494(2) 0.3522(3)
F25 F 0.6231(3) 0.3018(2) 0.2632(3)
F26 F 0.5467(3) 0.2162(3) 0.1438(3)
F27 F 0.6278(3) 0.1308(3) 0.1578(3)
F28 F 0.5005(4) -0.1389(3) 0.3687(4)
F29 F 0.5048(4) -0.0320(3) 0.4080(4)
F30 F 0.5926(4) -0.0263(3) 0.2356(3)
F31 F 0.5331(4) -0.1234(3) 0.2401(4)
F32 F 0.6993(4) -0.1166(3) 0.3150(5)
F33 F 0.4865(4) -0.0243(3) 0.2617(4)
F34 F 0.5932(5) -0.1063(4) 0.4722(4)
F35 F 0.7243(4) -0.1127(3) 0.4347(5)
F36 F 0.6389(4) -0.1869(3) 0.3648(5)
C41 C 0.8442(12) -0.1555(10) 0.578(1)
H19 H 0.85340 -0.11740 0.54620
H20 H 0.78870 -0.15220 0.57490
Cl1 Cl 0.8582(3) -0.2369(2) 0.5406(3)
Cl2 Cl 0.9035(2) -0.1418(3) 0.6691(2)
C42 C 0.5508(8) 0.7252(7) 0.5402(7)
H21 H 0.50410 0.75130 0.53600
H22 H 0.56280 0.73590 0.49530
Cl3 Cl 0.5263(6) 0.6334(4) 0.5359(5)
Cl4 Cl 0.6216(5) 0.7545(5) 0.6149(4)
Cl5? Cl 0.5088(7) 0.6475(6) 0.5374(7)
Cl6? Cl 0.6525(13) 0.7097(12) 0.6186(12)
Cl7? Cl 0.6485(10) 0.7387(10) 0.6040(9)
Ag1B Ag 1.00511(3) 0.57230(2) 0.51957(3)
Ag1C Ag 0.99489(3) 0.07230(2) -0.01957(3)
P1B P 1.13201(12) 0.49842(10) 0.54566(11)
P2B P 1.15541(13) 0.38875(10) 0.54555(11)
N2C N 0.9636(4) 0.3417(3) 0.5545(3)
#END
