
#######################################################################
#
#                 Cambridge Crystallographic Data Centre
#                                CCDC
#
#######################################################################
#
# If this CIF has been generated from an entry in the Cambridge
# Structural Database, then it will include bibliographic, chemical,
# crystal, experimental, refinement or atomic coordinate data resulting
# from the CCDC's data processing and validation procedures.
#
#######################################################################

data_CSD_CIF_YIMHIN
_audit_creation_date 2013-11-01
_audit_creation_method CSD-ConQuest-V1
_database_code_CSD YIMHIN
_database_code_depnum_ccdc_archive 'CCDC 938816'
_chemical_formula_sum 'C144 H110 Cu8 Mo16 N40 O55'
_chemical_formula_moiety
;
(C36 H26 Cu2 Mo8 N10 O26 2-)n,n(C36 H26 Cu2 Mo8 N10 O26 2-),n(C36 H26 Cu2 N10 
2+),n(C36 H26 Cu2 N10 2+),3n(H2 O1)
;
_journal_coden_Cambridge 1500
_journal_volume 3
_journal_year 2013
_journal_page_first 24910
_journal_name_full 'RSC Advances '
loop_
_publ_author_name
"Shi Zhou"
"Bo Liu"
"Ya-Guang Chen"
"Xiao-Min Li"
"Dong-Xiao Wang"
_chemical_name_systematic
;
catena-(tetradecakis(\m-oxo)-bis(\m-4,4',4''-(1H-imidazole-2,4,5-triyl)tripyri
dine)-dodecaoxo-di-copper-octa-molybdenum 
pentadecakis(\m-oxo)-bis(\m-4,4',4''-(1H-imidazole-2,4,5-triyl)tripyridine)-un
decaoxo-di-copper-octa-molybdenum 
bis(bis(\m-4,4',4''-(1H-imidazole-2,4,5-triyl)tripyridine)-di-copper) 
trihydrate)
;
_cell_volume  16560.181
_exptl_crystal_colour 'brown red'
_exptl_crystal_density_diffrn 2.133
_exptl_crystal_description 'block'
_diffrn_ambient_temperature 293
_refine_special_details
;
The structure is disordered.

;
#These two values have been output from a single CSD field.
_refine_ls_R_factor_gt 0.0551
_refine_ls_wR_factor_gt 0.0551
_symmetry_cell_setting orthorhombic
_symmetry_space_group_name_H-M 'P c a 21'
_symmetry_Int_Tables_number 29
loop_
_symmetry_equiv_pos_site_id
_symmetry_equiv_pos_as_xyz
1 x,y,z
2 -x,-y,1/2+z
3 1/2-x,y,1/2+z
4 1/2+x,-y,z
_cell_length_a 21.155(5)
_cell_length_b 28.507(5)
_cell_length_c 27.460(5)
_cell_angle_alpha 90
_cell_angle_beta 90
_cell_angle_gamma 90
_cell_formula_units_Z 4
loop_
_atom_type_symbol
_atom_type_radius_bond
C 0.68
H 0.23
Cu 1.32
Mo 1.54
N 0.68
O 0.68
loop_
_atom_site_label
_atom_site_type_symbol
_atom_site_fract_x
_atom_site_fract_y
_atom_site_fract_z
Cu1 Cu 0.69259(8) 0.13216(7) 0.76353(5)
Cu2 Cu 0.19229(8) 0.11072(7) 0.45157(6)
C1 C 0.5740(6) 0.0963(5) 0.7108(5)
H1 H 0.60380 0.07710 0.69590
C2 C 0.5120(6) 0.0915(5) 0.6970(4)
H2 H 0.50040 0.07070 0.67250
C3 C 0.5492(6) 0.1525(5) 0.7663(5)
H3 H 0.56120 0.17370 0.79030
C4 C 0.4873(6) 0.1489(5) 0.7551(4)
H4 H 0.45810 0.16760 0.77130
C5 C 0.4671(6) 0.1188(4) 0.7207(4)
C6 C 0.4006(6) 0.1161(4) 0.7033(4)
C7 C 0.3436(5) 0.1139(4) 0.7296(4)
C8 C 0.3330(5) 0.1081(4) 0.7820(4)
C9 C 0.3767(6) 0.0897(5) 0.8118(4)
H5 H 0.41440 0.07800 0.79930
C10 C 0.3648(6) 0.0885(4) 0.8611(4)
H6 H 0.39490 0.07430 0.88100
C11 C 0.2675(6) 0.1213(5) 0.8524(5)
H7 H 0.22900 0.13100 0.86540
C12 C 0.2754(6) 0.1229(5) 0.8018(4)
H8 H 0.24300 0.13360 0.78180
C13 C 0.3270(6) 0.1159(4) 0.6508(4)
C14 C 0.2945(6) 0.1162(5) 0.6039(4)
C15 C 0.2278(7) 0.1173(6) 0.6006(5)
H9 H 0.20270 0.11810 0.62840
C16 C 0.2012(7) 0.1170(7) 0.5544(5)
H10 H 0.15740 0.11750 0.55190
C17 C 0.2984(6) 0.1163(5) 0.5169(4)
H11 H 0.32240 0.11590 0.48860
C18 C 0.3287(6) 0.1171(5) 0.5610(4)
H12 H 0.37260 0.11820 0.56200
C19 C 0.7719(6) 0.1485(5) 0.3632(4)
H13 H 0.73700 0.16410 0.35040
C20 C 0.7812(6) 0.1492(5) 0.4132(4)
H14 H 0.75320 0.16560 0.43300
C21 C 0.8593(6) 0.1016(5) 0.3534(5)
H15 H 0.88620 0.08470 0.33320
C22 C 0.8700(6) 0.1005(5) 0.4029(4)
H16 H 0.90300 0.08270 0.41550
C23 C 0.8314(6) 0.1259(5) 0.4337(4)
C24 C 0.8446(6) 0.1260(5) 0.4860(4)
C25 C 0.8988(6) 0.1192(4) 0.5120(4)
C26 C 0.9654(6) 0.1158(4) 0.4942(4)
C27 C 0.9930(6) 0.1496(5) 0.4652(5)
H17 H 0.96940 0.17450 0.45300
C28 C 1.0582(7) 0.1455(5) 0.4545(5)
H18 H 1.07660 0.16920 0.43600
C29 C 1.0649(7) 0.0778(6) 0.4965(5)
H19 H 1.08910 0.05250 0.50690
C30 C 1.0030(6) 0.0797(5) 0.5098(5)
H20 H 0.98620 0.05640 0.52960
C31 C 0.8276(6) 0.1286(5) 0.5645(4)
C32 C 0.7969(6) 0.1340(5) 0.6125(5)
C33 C 0.8289(6) 0.1248(5) 0.6536(5)
H21 H 0.87120 0.11630 0.65190
C34 C 0.7995(6) 0.1279(4) 0.6987(4)
H22 H 0.82320 0.12240 0.72660
C35 C 0.7066(7) 0.1488(6) 0.6625(4)
H23 H 0.66460 0.15790 0.66530
C36 C 0.7316(6) 0.1469(5) 0.6167(5)
H24 H 0.70730 0.15380 0.58940
N1 N 0.5942(4) 0.1270(4) 0.7446(3)
N2 N 0.3121(5) 0.1065(4) 0.8828(4)
N3 N 0.2984(5) 0.1150(4) 0.6948(3)
H25 H 0.25830 0.11520 0.69980
N4 N 0.3889(5) 0.1165(4) 0.6539(3)
N5 N 0.2350(5) 0.1162(4) 0.5132(4)
N6 N 0.8109(5) 0.1264(4) 0.3327(4)
N7 N 1.0934(5) 0.1118(4) 0.4683(4)
N8 N 0.7978(5) 0.1322(4) 0.5211(3)
H26 H 0.75820 0.13730 0.51620
N9 N 0.8883(5) 0.1218(4) 0.5612(4)
N10 N 0.7373(5) 0.1386(4) 0.7032(3)
Cu3 Cu 0.71623(8) 0.01847(7) 0.32208(6)
Cu4 Cu 0.30060(8) 0.23391(6) 0.37395(5)
Mo1 Mo 0.41811(6) 0.11082(4) 0.22556(4)
Mo2 Mo 0.50821(5) 0.21076(4) 0.27598(4)
Mo3 Mo 0.56905(6) 0.23405(4) 0.38274(4)
Mo4 Mo 0.58733(5) 0.11995(4) 0.33566(4)
Mo5 Mo 0.58185(6) 0.14461(4) 0.45894(4)
Mo6 Mo 0.50752(5) 0.04100(4) 0.40353(4)
Mo7 Mo 0.42756(5) 0.13377(4) 0.34814(4)
Mo8 Mo 0.44110(6) 0.01967(4) 0.29709(4)
C37 C 0.7567(7) 0.0106(5) 0.7196(5)
H27 H 0.71430 0.01040 0.72850
C38 C 0.7711(7) 0.0087(5) 0.6693(4)
H28 H 0.73910 0.00860 0.64600
C39 C 0.8603(7) 0.0104(5) 0.7406(5)
H29 H 0.89200 0.01120 0.76410
C40 C 0.8778(6) 0.0066(5) 0.6912(4)
H30 H 0.92020 0.00390 0.68270
C41 C 0.8327(6) 0.0069(5) 0.6561(4)
C42 C 0.8498(6) 0.0034(5) 0.6033(4)
C43 C 0.9030(6) -0.0061(4) 0.5807(4)
C44 C 0.9728(6) -0.0107(5) 0.5933(4)
C45 C 1.0068(7) 0.0219(5) 0.6204(4)
H31 H 0.98640 0.04740 0.63440
C46 C 1.0707(7) 0.0161(6) 0.6261(5)
H32 H 1.09240 0.03850 0.64430
C47 C 1.0712(7) -0.0503(5) 0.5810(5)
H33 H 1.09290 -0.07550 0.56740
C48 C 1.0072(6) -0.0474(5) 0.5727(4)
H34 H 0.98700 -0.06970 0.55350
C49 C 0.8275(7) -0.0006(5) 0.5273(5)
C50 C 0.7967(6) 0.0004(4) 0.4796(4)
C51 C 0.8252(6) -0.0192(5) 0.4395(4)
H35 H 0.86320 -0.03530 0.44270
C52 C 0.7969(6) -0.0148(5) 0.3944(5)
H36 H 0.81590 -0.02940 0.36780
C53 C 0.7140(6) 0.0268(5) 0.4271(4)
H37 H 0.67550 0.04200 0.42330
C54 C 0.7385(6) 0.0228(5) 0.4732(4)
H38 H 0.71670 0.03490 0.49980
C55 C 0.2303(7) 0.2383(5) -0.0244(4)
H39 H 0.27180 0.24090 -0.03530
C56 C 0.2201(6) 0.2389(5) 0.0259(4)
H40 H 0.25390 0.24180 0.04730
C57 C 0.1266(7) 0.2292(5) -0.0414(5)
H41 H 0.09390 0.22540 -0.06370
C58 C 0.1117(6) 0.2291(5) 0.0092(4)
H42 H 0.07000 0.22510 0.01920
C59 C 0.1586(6) 0.2351(5) 0.0432(4)
C60 C 0.1480(6) 0.2365(4) 0.0953(4)
C61 C 0.0897(6) 0.2378(4) 0.1213(4)
C62 C 0.0243(7) 0.2340(5) 0.1074(4)
C63 C -0.0027(7) 0.1910(6) 0.1051(6)
H43 H 0.02170 0.16420 0.10960
C64 C -0.0662(8) 0.1872(6) 0.0959(6)
H44 H -0.08270 0.15700 0.09480
C65 C -0.0794(8) 0.2652(6) 0.0885(5)
H45 H -0.10470 0.29120 0.08200
C66 C -0.0139(8) 0.2730(6) 0.0979(5)
H46 H 0.00290 0.30310 0.09780
C67 C 0.1706(6) 0.2403(5) 0.1721(4)
C68 C 0.2041(6) 0.2424(4) 0.2189(4)
C69 C 0.1728(6) 0.2499(5) 0.2615(4)
H47 H 0.12950 0.25570 0.26050
C70 C 0.2025(7) 0.2492(5) 0.3057(4)
H48 H 0.17930 0.25500 0.33380
C71 C 0.2968(6) 0.2335(5) 0.2675(4)
H49 H 0.34020 0.22860 0.26850
C72 C 0.2675(6) 0.2333(5) 0.2221(4)
H50 H 0.29080 0.22710 0.19410
N11 N 0.7996(5) 0.0128(4) 0.7552(4)
N12 N 1.1044(5) -0.0195(5) 0.6073(5)
N13 N 0.8897(5) -0.0101(4) 0.5316(3)
H51 H 0.91570 -0.01720 0.50860
N14 N 0.8010(5) 0.0074(4) 0.5699(3)
N15 N 0.7431(5) 0.0096(4) 0.3869(4)
N16 N 0.1849(5) 0.2342(4) -0.0580(3)
N17 N -0.1070(6) 0.2225(6) 0.0884(5)
N18 N 0.1068(5) 0.2408(4) 0.1684(3)
H52 H 0.08100 0.24270 0.19250
N19 N 0.1968(5) 0.2376(4) 0.1291(3)
N20 N 0.2669(5) 0.2401(4) 0.3095(3)
O1 O 0.3955(4) 0.0865(3) 0.3084(3)
O2 O 0.4527(4) 0.0527(3) 0.2350(3)
O3 O 0.3372(4) 0.1098(3) 0.2156(3)
O4 O 0.4507(5) 0.1267(3) 0.1717(3)
O5 O 0.4467(4) 0.1583(3) 0.2672(3)
O6 O 0.4547(4) 0.2522(3) 0.2834(3)
O7 O 0.5342(4) 0.2174(3) 0.2173(3)
O8 O 0.5000(3) 0.1734(3) 0.3473(3)
O9 O 0.5809(4) 0.1453(3) 0.2790(3)
O10 O 0.5752(4) 0.2353(3) 0.3127(3)
O11 O 0.5066(4) 0.2699(4) 0.3874(3)
O12 O 0.6317(4) 0.2670(4) 0.3953(3)
O13 O 0.5537(4) 0.2034(3) 0.4451(3)
O14 O 0.6169(4) 0.1671(3) 0.3761(3)
O15 O 0.6578(4) 0.1424(4) 0.4829(3)
O16 O 0.5326(5) 0.1290(3) 0.5052(3)
O17 O 0.5656(4) 0.0938(3) 0.4151(3)
O18 O 0.6494(4) 0.0822(3) 0.3303(3)
O19 O 0.4805(4) 0.0318(3) 0.4618(3)
O20 O 0.5634(4) 0.0010(3) 0.3930(4)
O21 O 0.4395(4) 0.0167(3) 0.3673(3)
O22 O 0.4343(4) 0.1068(3) 0.4045(3)
O23 O 0.5152(3) 0.0793(3) 0.3337(3)
O24 O 0.3665(4) 0.1720(3) 0.3539(3)
O25 O 0.3747(5) -0.0119(3) 0.2841(3)
O26 O 0.5030(4) -0.0166(3) 0.2876(3)
Cu5 Cu 0.80377(10) 0.27415(7) 0.34658(6)
Mo9 Mo 0.91703(4) 0.37929(4) 0.33167(4)
Mo10 Mo 1.00619(5) 0.37883(4) 0.22274(4)
Mo11 Mo 0.93887(5) 0.47578(4) 0.25663(4)
Mo12 Mo 1.01837(5) 0.47444(4) 0.35838(4)
Mo13 Mo 1.08587(5) 0.38013(4) 0.32336(4)
Mo14 Mo 0.99584(5) 0.37801(4) 0.43184(4)
Mo15 Mo 1.06839(5) 0.28241(4) 0.39840(4)
Mo16 Mo 0.98666(5) 0.28482(4) 0.29713(4)
C73 C 0.4336(8) 0.2027(8) 0.0878(6)
H53 H 0.40960 0.17860 0.10120
C74 C 0.4982(7) 0.2033(6) 0.0971(5)
H54 H 0.51690 0.17930 0.11490
C75 C 0.4376(8) 0.2685(7) 0.0442(5)
H55 H 0.41670 0.29150 0.02640
C76 C 0.5039(7) 0.2736(6) 0.0510(5)
H56 H 0.52630 0.29820 0.03700
C77 C 0.5338(6) 0.2396(5) 0.0799(4)
C78 C 0.6020(6) 0.2441(4) 0.0923(4)
C79 C 0.6578(6) 0.2550(4) 0.0687(4)
C80 C 0.6699(6) 0.2561(4) 0.0154(4)
C81 C 0.6232(7) 0.2467(5) -0.0182(4)
H57 H 0.58330 0.23760 -0.00760
C82 C 0.6355(6) 0.2509(5) -0.0678(4)
H58 H 0.60350 0.24380 -0.08980
C83 C 0.7366(7) 0.2716(5) -0.0522(5)
H59 H 0.77640 0.27940 -0.06400
C84 C 0.7289(6) 0.2680(5) -0.0034(5)
H60 H 0.76280 0.27340 0.01750
C85 C 0.6825(6) 0.2537(5) 0.1444(4)
C86 C 0.7141(6) 0.2575(4) 0.1910(4)
C87 C 0.6839(6) 0.2461(5) 0.2340(5)
H61 H 0.64250 0.23510 0.23350
C88 C 0.7145(6) 0.2510(5) 0.2765(4)
H62 H 0.69300 0.24250 0.30470
C89 C 0.8026(7) 0.2785(6) 0.2398(5)
H63 H 0.84390 0.28960 0.24180
C90 C 0.7746(6) 0.2746(5) 0.1936(5)
H64 H 0.79630 0.28340 0.16560
N21 N 0.4046(7) 0.2342(7) 0.0610(5)
N22 N 0.6901(5) 0.2644(4) -0.0844(3)
N23 N 0.7068(5) 0.2604(4) 0.1007(3)
N24 N 0.6181(5) 0.2437(3) 0.1405(3)
H65 H 0.59280 0.23810 0.16440
N25 N 0.7726(5) 0.2669(4) 0.2815(4)
O27 O 0.8577(4) 0.3469(3) 0.3559(3)
O28 O 0.9977(3) 0.3397(3) 0.3566(3)
O29 O 0.9443(3) 0.4169(3) 0.3867(3)
O30 O 0.9372(4) 0.3410(3) 0.2753(3)
O31 O 0.8782(3) 0.4245(3) 0.3000(3)
O32 O 1.0055(3) 0.4197(3) 0.2994(2)
O33 O 1.0586(4) 0.3409(3) 0.2692(3)
O34 O 0.9898(5) 0.3394(3) 0.1787(3)
O35 O 0.9368(4) 0.4210(3) 0.2169(3)
O36 O 1.0672(4) 0.4116(3) 0.2005(3)
O37 O 0.8723(4) 0.5058(3) 0.2407(3)
O38 O 1.0002(4) 0.5040(3) 0.2297(4)
O39 O 0.9505(3) 0.4982(3) 0.3224(3)
O40 O 1.0798(4) 0.5043(3) 0.3366(3)
O41 O 1.0041(5) 0.4990(3) 0.4140(3)
O42 O 1.1431(4) 0.4135(3) 0.2977(3)
O43 O 1.0654(3) 0.4185(3) 0.3804(3)
O44 O 1.1269(3) 0.3367(3) 0.3545(3)
O45 O 1.0096(5) 0.4180(3) 0.4767(3)
O46 O 1.0675(4) 0.3375(3) 0.4398(3)
O47 O 0.9370(4) 0.3434(3) 0.4545(3)
O48 O 1.1347(4) 0.2543(3) 0.4154(3)
O49 O 1.0098(4) 0.2519(3) 0.4254(3)
O50 O 1.0567(4) 0.2610(3) 0.3326(3)
O51 O 1.0011(4) 0.2566(3) 0.2434(3)
O52 O 0.9242(3) 0.2554(3) 0.3220(3)
Cu6 Cu 1.22137(10) 0.48119(8) 0.28502(6)
C91 C 1.2447(8) 0.4809(6) 0.1819(6)
H66 H 1.28660 0.47490 0.19020
C92 C 1.2287(7) 0.4836(6) 0.1333(5)
H67 H 1.25950 0.47920 0.10960
C93 C 1.1436(7) 0.4980(5) 0.2045(5)
H68 H 1.11430 0.50410 0.22900
C94 C 1.1242(7) 0.5012(5) 0.1581(5)
H69 H 1.08250 0.50890 0.15110
C95 C 1.1671(6) 0.4928(5) 0.1199(4)
C96 C 1.1480(6) 0.4937(4) 0.0682(5)
C97 C 1.0896(7) 0.4977(5) 0.0486(5)
C98 C 1.0226(6) 0.4932(6) 0.0689(4)
C99 C 0.9909(8) 0.5341(7) 0.0884(6)
H70 H 1.01000 0.56350 0.08810
C100 C 0.9307(9) 0.5274(11) 0.1076(7)
H71 H 0.90670 0.55300 0.11750
C101 C 0.9387(9) 0.4453(8) 0.0949(6)
H72 H 0.91990 0.41580 0.09690
C102 C 0.9978(7) 0.4489(7) 0.0747(5)
H73 H 1.02020 0.42230 0.06530
C103 C 1.1628(6) 0.4940(4) -0.0101(5)
C104 C 1.1898(7) 0.4924(5) -0.0580(4)
C105 C 1.1563(6) 0.4861(5) -0.1006(5)
H74 H 1.11240 0.48390 -0.09920
C106 C 1.1855(7) 0.4829(5) -0.1442(5)
H75 H 1.16040 0.47900 -0.17170
C107 C 1.2814(7) 0.4872(6) -0.1085(5)
H76 H 1.32520 0.48600 -0.11100
C108 C 1.2566(7) 0.4908(5) -0.0643(5)
H77 H 1.28300 0.49230 -0.03720
N26 N 1.2023(6) 0.4867(4) 0.2175(4)
N27 N 0.9069(8) 0.4825(9) 0.1118(6)
N28 N 1.0982(5) 0.4960(4) -0.0024(3)
H78 H 1.06910 0.49620 -0.02420
N29 N 1.1919(5) 0.4923(4) 0.0316(4)
N30 N 1.2475(5) 0.4850(4) -0.1506(4)
Cu7 Cu 0.80247(8) 0.38391(7) -0.08417(5)
Cu8 Cu 1.19526(8) 0.35227(7) -0.26109(5)
C109 C 0.7291(6) 0.3995(5) 0.3140(4)
H79 H 0.76500 0.41440 0.32590
C110 C 0.7190(6) 0.3987(5) 0.2645(5)
H80 H 0.74800 0.41290 0.24380
C111 C 0.6393(6) 0.3564(4) 0.3273(5)
H81 H 0.61170 0.34140 0.34860
C112 C 0.6276(6) 0.3540(5) 0.2781(4)
H82 H 0.59340 0.33660 0.26690
C113 C 0.6657(5) 0.3770(4) 0.2452(4)
C114 C 0.6516(5) 0.3764(4) 0.1934(4)
C115 C 0.5947(6) 0.3689(5) 0.1692(4)
C116 C 0.5298(6) 0.3615(5) 0.1859(4)
C117 C 0.5030(6) 0.3909(5) 0.2199(6)
H83 H 0.52650 0.41500 0.23370
C118 C 0.4404(7) 0.3840(6) 0.2335(5)
H84 H 0.42290 0.40460 0.25600
C119 C 0.4321(6) 0.3203(6) 0.1867(5)
H85 H 0.40880 0.29460 0.17620
C120 C 0.4924(6) 0.3246(5) 0.1703(5)
H86 H 0.50860 0.30260 0.14860
C121 C 0.6654(6) 0.3796(5) 0.1138(4)
C122 C 0.6972(6) 0.3859(5) 0.0670(4)
C123 C 0.6638(6) 0.3814(5) 0.0246(4)
H87 H 0.62040 0.37600 0.02570
C124 C 0.6945(6) 0.3849(5) -0.0199(4)
H88 H 0.67080 0.38180 -0.04830
C125 C 0.7888(6) 0.3996(5) 0.0181(4)
H89 H 0.83150 0.40720 0.01630
C126 C 0.7618(6) 0.3962(6) 0.0631(4)
H90 H 0.78610 0.40080 0.09090
C127 C 0.9194(7) 0.3406(5) -0.0273(5)
H91 H 0.88870 0.32200 -0.01260
C128 C 0.9803(6) 0.3335(5) -0.0132(4)
H92 H 0.99050 0.30950 0.00830
C129 C 0.9449(6) 0.3979(5) -0.0788(5)
H93 H 0.93400 0.41990 -0.10230
C130 C 1.0091(6) 0.3948(5) -0.0653(5)
H94 H 1.03900 0.41450 -0.07940
C131 C 1.0266(5) 0.3625(4) -0.0314(4)
C132 C 1.0928(6) 0.3593(5) -0.0132(5)
C133 C 1.1484(6) 0.3593(5) -0.0385(5)
C134 C 1.1638(6) 0.3546(4) -0.0909(4)
C135 C 1.1194(6) 0.3354(4) -0.1229(4)
H95 H 1.08140 0.32370 -0.11090
C136 C 1.1314(5) 0.3340(4) -0.1716(4)
H96 H 1.10140 0.32060 -0.19220
C137 C 1.2289(5) 0.3660(4) -0.1602(4)
H97 H 1.26800 0.37510 -0.17250
C138 C 1.2192(5) 0.3685(4) -0.1108(4)
H98 H 1.25110 0.38000 -0.09070
C139 C 1.1636(6) 0.3593(5) 0.0405(4)
C140 C 1.1974(6) 0.3601(5) 0.0877(4)
C141 C 1.1648(6) 0.3603(5) 0.1308(5)
H99 H 1.12090 0.36130 0.13010
C142 C 1.1954(6) 0.3592(5) 0.1752(4)
H100 H 1.17160 0.35970 0.20370
C143 C 1.2623(7) 0.3560(6) 0.0927(5)
H101 H 1.28710 0.35230 0.06500
C144 C 1.2901(6) 0.3573(6) 0.1359(4)
H102 H 1.33400 0.35820 0.13700
N31 N 0.6895(5) 0.3797(4) 0.3456(3)
N32 N 0.4045(5) 0.3504(4) 0.2164(4)
N33 N 0.6051(4) 0.3706(4) 0.1194(3)
N34 N 0.6941(5) 0.3844(4) 0.1573(3)
H103 H 0.73330 0.39140 0.16160
N35 N 0.7575(5) 0.3925(4) -0.0237(3)
N36 N 0.8996(5) 0.3720(4) -0.0605(4)
N37 N 1.1849(5) 0.3510(4) -0.1912(3)
N38 N 1.1939(4) 0.3594(4) -0.0029(3)
H104 H 1.23420 0.35950 -0.00730
N39 N 1.1030(5) 0.3590(4) 0.0359(3)
N40 N 1.2585(5) 0.3574(4) 0.1781(3)
O53 O 0.8238(4) 0.4123(5) 0.1703(3)
O54 O 1.1742(4) 0.3761(4) 0.4824(3)
O55 O 1.1026(18) 0.5021(15) 0.4838(16)
O56? O 1.115(3) 0.471(2) 0.484(2)
O57? O 1.178(3) 0.4437(16) 0.5345(18)
O58? O 1.123(3) 0.470(2) 0.5024(19)
Cu1B Cu 0.80741(8) 0.13216(7) 0.26353(5)
Cu2* Cu 1.19229(8) 0.11072(7) 0.45157(6)
Cu2B Cu 0.30771(8) 0.11072(7) 0.95157(6)
N2B N 0.1879(5) 0.1065(4) 0.3828(4)
N6B N 0.6891(5) 0.1264(4) 0.8327(4)
N7* N 0.0934(5) 0.1118(4) 0.4683(4)
Cu3B Cu 0.78377(8) 0.01847(7) 0.82208(6)
Cu4B Cu 0.19940(8) 0.23391(6) -0.12605(5)
N11B N 0.7004(5) 0.0128(4) 0.2552(4)
N16B N 0.3151(5) 0.2342(4) 0.4420(3)
Cu5B Cu 0.69623(10) 0.27415(7) -0.15342(6)
N22B N 0.8099(5) 0.2644(4) 0.4156(3)
Cu6B Cu 1.27863(10) 0.48119(8) -0.21498(6)
N30B N 1.2525(5) 0.4850(4) 0.3494(4)
Cu7B Cu 0.69753(8) 0.38391(7) 0.41583(5)
Cu8B Cu 0.30474(8) 0.35227(7) 0.23891(5)
Cu8B* Cu 1.30474(8) 0.35227(7) 0.23891(5)
N31B N 0.8105(5) 0.3797(4) -0.1544(3)
N32B N 1.0955(5) 0.3504(4) -0.2836(4)
N40B N 1.2415(5) 0.3574(4) -0.3219(3)
#END
