
#######################################################################
#
#                 Cambridge Crystallographic Data Centre
#                                CCDC
#
#######################################################################
#
# If this CIF has been generated from an entry in the Cambridge
# Structural Database, then it will include bibliographic, chemical,
# crystal, experimental, refinement or atomic coordinate data resulting
# from the CCDC's data processing and validation procedures.
#
#######################################################################

data_CSD_CIF_YIPDOR
_audit_creation_date 2008-02-19
_audit_creation_method CSD-ConQuest-V1
_database_code_CSD YIPDOR
_database_code_depnum_ccdc_archive 'CCDC 298626'
_chemical_formula_sum 'C72 H68 Cu3 Mo12 N24 O42 P1'
_chemical_formula_moiety
;
(C36 H36 Cu1 N12 O2 2+)n,n(C36 H32 Cu2 N12 2+),n(Mo12 O40 P1 4-)
;
_journal_coden_Cambridge 182
_journal_year 2007
_journal_page_first 4245
_journal_name_full 'Chem.Commun. '
loop_
_publ_author_name
"Xin-Long Wang"
"Chao Qin"
"En-Bo Wang"
"Zhong-Min Su"
_chemical_name_systematic
;
catena-([3]-(bis(bis(\m~2~-4,4'-bis(1,2,4-Triazol-1-yl)biphenyl)-diaqua-copper
(ii)) bis(\m~2~-4,4'-bis(1,2,4-triazol-1-yl)biphenyl)-di-copper(i))-rotaxane 
\a-(\m~12~-phosphato)-tetracosa(\m~2~-oxo)-dodecaoxo-molybdenum(v)-undeca-moly
bdum(vi) clathrate)
;
_cell_volume   5158.628
_exptl_crystal_colour 'black'
_exptl_crystal_density_diffrn 2.134
_exptl_crystal_description 'block'
_diffrn_ambient_temperature 293
#These two values have been output from a single CSD field.
_refine_ls_R_factor_gt 0.0337
_refine_ls_wR_factor_gt 0.0337
_symmetry_cell_setting tetragonal
_symmetry_space_group_name_H-M 'P -4 n 2'
_symmetry_Int_Tables_number 118
loop_
_symmetry_equiv_pos_site_id
_symmetry_equiv_pos_as_xyz
1 x,y,z
2 -x,-y,z
3 1/2-y,1/2-x,1/2-z
4 1/2+y,1/2+x,1/2-z
5 1/2-x,1/2+y,1/2+z
6 1/2+x,1/2-y,1/2+z
7 -y,x,-z
8 y,-x,-z
_cell_length_a 18.443(3)
_cell_length_b 18.443(3)
_cell_length_c 15.166(3)
_cell_angle_alpha 90
_cell_angle_beta 90
_cell_angle_gamma 90
_cell_formula_units_Z 2
loop_
_atom_type_symbol
_atom_type_radius_bond
C 0.68
H 0.23
Cu 1.52
Mo 1.37
N 0.68
O 0.68
P 1.05
loop_
_atom_site_label
_atom_site_type_symbol
_atom_site_fract_x
_atom_site_fract_y
_atom_site_fract_z
Cu1 Cu 0.70713(6) 0.20713(6) 0.25000
Cu2 Cu 1.00000 1.00000 0.50000
Mo1 Mo 1.06683(2) 0.11943(2) 0.16499(3)
Mo2 Mo 1.18442(2) 0.060340(19) 0.00737(4)
Mo3 Mo 1.12449(3) -0.05693(2) 0.16365(3)
P1 P 1.00000 0.00000 0.00000
C1 C 0.6336(3) 0.1361(3) 0.6196(3)
C2 C 0.5642(3) 0.1512(3) 0.5971(4)
H1 H 0.55200 0.19780 0.57880
C3 C 0.5113(3) 0.0983(3) 0.6010(4)
H2 H 0.46400 0.10970 0.58500
C4 C 0.5279(3) 0.0284(3) 0.6286(3)
C5 C 0.5988(3) 0.0142(3) 0.6554(3)
H3 H 0.61100 -0.03130 0.67720
C6 C 0.6512(3) 0.0678(3) 0.6496(3)
H4 H 0.69870 0.05760 0.66610
C7 C 0.6927(3) 0.1917(3) 0.6064(4)
H5 H 0.67420 0.23980 0.61930
H6 H 0.73270 0.18190 0.64610
C8 C 0.7679(5) 0.1399(7) 0.4108(6)
H7 H 0.79790 0.11050 0.37700
C9 C 0.6918(4) 0.2160(4) 0.4438(5)
H8 H 0.65500 0.25050 0.44360
C10 C 0.6859(3) 0.9470(4) 0.3626(4)
C11 C 0.6958(3) 0.9606(4) 0.2738(5)
H9 H 0.73210 0.93660 0.24280
C12 C 0.6512(3) 1.0102(3) 0.2312(4)
H10 H 0.65800 1.01820 0.17120
C13 C 0.5983(3) 1.0475(3) 0.2735(4)
C14 C 0.5886(3) 1.0336(4) 0.3645(4)
H11 H 0.55230 1.05800 0.39500
C15 C 0.6313(4) 0.9854(4) 0.4086(5)
H12 H 0.62450 0.97770 0.46870
C16 C 0.7320(4) 0.8909(4) 0.4087(6)
H13 H 0.70170 0.86210 0.44750
H14 H 0.75310 0.85870 0.36510
C17 C 0.8478(4) 0.9644(4) 0.5687(5)
H15 H 0.85970 0.97840 0.62580
C18 C 0.8564(3) 0.9414(3) 0.4346(4)
H16 H 0.87370 0.93490 0.37750
N1 N 0.7180(2) 0.1885(3) 0.5143(3)
N2 N 0.7671(3) 0.1356(4) 0.4962(5)
N3 N 0.7218(4) 0.1906(4) 0.3722(4)
N4 N 0.7908(3) 0.9250(3) 0.4608(4)
N5 N 0.7844(4) 0.9394(4) 0.5471(5)
N6 N 0.8946(2) 0.9684(2) 0.5007(4)
O1 O 1.06460(16) 0.02135(16) 0.05767(19)
O2 O 1.15495(19) 0.12572(17) 0.0984(2)
O3 O 1.0822(2) 0.1811(2) 0.2441(3)
O4 O 1.01802(18) 0.17147(16) 0.0758(2)
O5 O 0.9736(2) 0.08275(19) 0.1966(2)
O6 O 1.2690(2) 0.08900(17) -0.0127(3)
O7 O 1.12787(17) 0.11565(17) -0.0741(2)
O8 O 1.1741(2) -0.1015(2) 0.2389(3)
O9 O 1.19980(18) -0.01073(19) 0.0970(2)
O10 O 1.1087(2) 0.03486(19) 0.2215(2)
O11 O 1.00000 1.00000 0.3534(4)
Cu1A Cu 0.29287(6) -0.20713(6) 0.25000
Cu2B Cu 0.50000 1.50000 0.00000
Cu2B* Cu 1.50000 0.50000 0.00000
Mo1A Mo 0.93317(2) -0.11943(2) 0.16499(3)
Mo1F Mo 0.88057(2) 0.06683(2) -0.16499(3)
Mo1G Mo 1.11943(2) -0.06683(2) -0.16499(3)
Mo2A Mo 0.81558(2) -0.060340(19) 0.00737(4)
Mo2F Mo 0.93966(2) 0.184420(19) -0.00737(4)
Mo2G Mo 1.06034(2) -0.184420(19) -0.00737(4)
Mo3A Mo 0.87551(3) 0.05693(2) 0.16365(3)
Mo3F Mo 1.05693(3) 0.12449(2) -0.16365(3)
Mo3G Mo 0.94307(3) -0.12449(2) -0.16365(3)
C1A C 0.3664(3) -0.1361(3) 0.6196(3)
C1C C 0.6361(3) 0.1336(3) -0.1196(3)
C1B C 0.3639(3) -0.1336(3) -0.1196(3)
C2A C 0.4358(3) -0.1512(3) 0.5971(4)
C2C C 0.6512(3) 0.0642(3) -0.0971(4)
C2B C 0.3488(3) -0.0642(3) -0.0971(4)
H1A H 0.44800 -0.19780 0.57880
H1C H 0.69780 0.05200 -0.07880
H1B H 0.30220 -0.05200 -0.07880
C3A C 0.4887(3) -0.0983(3) 0.6010(4)
C3C C 0.5983(3) 0.0113(3) -0.1010(4)
C3B C 0.4017(3) -0.0113(3) -0.1010(4)
H2A H 0.53600 -0.10970 0.58500
H2C H 0.60970 -0.03600 -0.08500
H2B H 0.39030 0.03600 -0.08500
C4A C 0.4721(3) -0.0284(3) 0.6286(3)
C4C C 0.5284(3) 0.0279(3) -0.1286(3)
C4B C 0.4716(3) -0.0279(3) -0.1286(3)
C5A C 0.4012(3) -0.0142(3) 0.6554(3)
C5C C 0.5142(3) 0.0988(3) -0.1554(3)
C5B C 0.4858(3) -0.0988(3) -0.1554(3)
H3A H 0.38900 0.03130 0.67720
H3C H 0.46870 0.11100 -0.17720
H3B H 0.53130 -0.11100 -0.17720
C6A C 0.3488(3) -0.0678(3) 0.6496(3)
C6C C 0.5678(3) 0.1512(3) -0.1496(3)
C6B C 0.4322(3) -0.1512(3) -0.1496(3)
H4A H 0.30130 -0.05760 0.66610
H4C H 0.55760 0.19870 -0.16610
H4B H 0.44240 -0.19870 -0.16610
C7A C 0.3073(3) -0.1917(3) 0.6064(4)
C7C C 0.6917(3) 0.1927(3) -0.1064(4)
C7B C 0.3083(3) -0.1927(3) -0.1064(4)
H5A H 0.32580 -0.23980 0.61930
H5C H 0.73980 0.17420 -0.11930
H5B H 0.26020 -0.17420 -0.11930
H6A H 0.26730 -0.18190 0.64610
H6C H 0.68190 0.23270 -0.14610
H6B H 0.31810 -0.23270 -0.14610
C8A C 0.2321(5) -0.1399(7) 0.4108(6)
C8C C 0.6399(5) 0.2679(7) 0.0892(6)
C8B C 0.3601(5) -0.2679(7) 0.0892(6)
H7A H 0.20210 -0.11050 0.37700
H7C H 0.61050 0.29790 0.12300
H7B H 0.38950 -0.29790 0.12300
C9A C 0.3082(4) -0.2160(4) 0.4438(5)
C9C C 0.7160(4) 0.1918(4) 0.0562(5)
C9B C 0.2840(4) -0.1918(4) 0.0562(5)
H8A H 0.34500 -0.25050 0.44360
H8C H 0.75050 0.15500 0.05640
H8B H 0.24950 -0.15500 0.05640
C10C C 0.4470(3) 1.1859(4) 0.1374(4)
C10A C 1.3141(3) 1.0530(4) 0.3626(4)
C10B C 1.5530(3) 0.8141(4) 0.1374(4)
C11C C 0.4606(3) 1.1958(4) 0.2262(5)
C11A C 1.3042(3) 1.0394(4) 0.2738(5)
C11B C 1.5394(3) 0.8042(4) 0.2262(5)
H9C H 0.43660 1.23210 0.25720
H9A H 1.26790 1.06340 0.24280
H9B H 1.56340 0.76790 0.25720
C12C C 0.5102(3) 1.1512(3) 0.2688(4)
C12A C 1.3488(3) 0.9898(3) 0.2312(4)
C12B C 1.4898(3) 0.8488(3) 0.2688(4)
H10C H 0.51820 1.15800 0.32880
H10A H 1.34200 0.98180 0.17120
H10B H 1.48180 0.84200 0.32880
C13C C 0.5475(3) 1.0983(3) 0.2265(4)
C13A C 1.4017(3) 0.9525(3) 0.2735(4)
C13B C 1.4525(3) 0.9017(3) 0.2265(4)
C14C C 0.5336(3) 1.0886(4) 0.1355(4)
C14A C 1.4114(3) 0.9664(4) 0.3645(4)
C14B C 1.4664(3) 0.9114(4) 0.1355(4)
H11C H 0.55800 1.05230 0.10500
H11A H 1.44770 0.94200 0.39500
H11B H 1.44200 0.94770 0.10500
C15C C 0.4854(4) 1.1313(4) 0.0914(5)
C15A C 1.3687(4) 1.0146(4) 0.4086(5)
C15B C 1.5146(4) 0.8687(4) 0.0914(5)
H12C H 0.47770 1.12450 0.03130
H12A H 1.37550 1.02230 0.46870
H12B H 1.52230 0.87550 0.03130
C16C C 0.3909(4) 1.2320(4) 0.0913(6)
C16A C 1.2680(4) 1.1091(4) 0.4087(6)
C16B C 1.6091(4) 0.7680(4) 0.0913(6)
H13C H 0.36210 1.20170 0.05250
H13A H 1.29830 1.13790 0.44750
H13B H 1.63790 0.79830 0.05250
H14C H 0.35870 1.25310 0.13490
H14A H 1.24690 1.14130 0.36510
H14B H 1.64130 0.74690 0.13490
C17C C 0.4644(4) 1.3478(4) -0.0687(5)
C17A C 1.1522(4) 1.0356(4) 0.5687(5)
C17B C 1.5356(4) 0.6522(4) -0.0687(5)
H15C H 0.47840 1.35970 -0.12580
H15A H 1.14030 1.02160 0.62580
H15B H 1.52160 0.64030 -0.12580
C18C C 0.4414(3) 1.3564(3) 0.0654(4)
C18A C 1.1436(3) 1.0586(3) 0.4346(4)
C18B C 1.5586(3) 0.6436(3) 0.0654(4)
H16C H 0.43490 1.37370 0.12250
H16A H 1.12630 1.06510 0.37750
H16B H 1.56510 0.62630 0.12250
N1A N 0.2820(2) -0.1885(3) 0.5143(3)
N1C N 0.6885(2) 0.2180(3) -0.0143(3)
N1B N 0.3115(2) -0.2180(3) -0.0143(3)
N2A N 0.2329(3) -0.1356(4) 0.4962(5)
N2C N 0.6356(3) 0.2671(4) 0.0038(5)
N2B N 0.3644(3) -0.2671(4) 0.0038(5)
N3A N 0.2782(4) -0.1906(4) 0.3722(4)
N3C N 0.6906(4) 0.2218(4) 0.1278(4)
N3B N 0.3094(4) -0.2218(4) 0.1278(4)
N4C N 0.4250(3) 1.2908(3) 0.0392(4)
N4A N 1.2092(3) 1.0750(3) 0.4608(4)
N4B N 1.5750(3) 0.7092(3) 0.0392(4)
N5C N 0.4394(4) 1.2844(4) -0.0471(5)
N5A N 1.2156(4) 1.0606(4) 0.5471(5)
N5B N 1.5606(4) 0.7156(4) -0.0471(5)
N6C N 0.4684(2) 1.3946(2) -0.0007(4)
N6A N 1.1054(2) 1.0316(2) 0.5007(4)
N6B N 1.5316(2) 0.6054(2) -0.0007(4)
N6F N 1.0316(2) 0.8946(2) 0.4993(4)
N6G N 0.9684(2) 1.1054(2) 0.4993(4)
O1A O 0.93540(16) -0.02135(16) 0.05767(19)
O1F O 0.97865(16) 0.06460(16) -0.05767(19)
O1G O 1.02135(16) -0.06460(16) -0.05767(19)
O2A O 0.84505(19) -0.12572(17) 0.0984(2)
O2F O 0.87428(19) 0.15495(17) -0.0984(2)
O2G O 1.12572(19) -0.15495(17) -0.0984(2)
O3A O 0.9178(2) -0.1811(2) 0.2441(3)
O3F O 0.8189(2) 0.0822(2) -0.2441(3)
O3G O 1.1811(2) -0.0822(2) -0.2441(3)
O4G O 1.17147(18) -0.01802(16) -0.0758(2)
O4A O 0.98198(18) -0.17147(16) 0.0758(2)
O4F O 0.82853(18) 0.01802(16) -0.0758(2)
O5A O 1.0264(2) -0.08275(19) 0.1966(2)
O5F O 0.91725(20) -0.02640(19) -0.1966(2)
O5G O 1.08275(20) 0.02640(19) -0.1966(2)
O6A O 0.7310(2) -0.08900(17) -0.0127(3)
O6F O 0.9110(2) 0.26900(17) 0.0127(3)
O6G O 1.0890(2) -0.26900(17) 0.0127(3)
O7G O 1.11565(17) -0.12787(17) 0.0741(2)
O7A O 0.87213(17) -0.11565(17) -0.0741(2)
O7F O 0.88435(17) 0.12787(17) 0.0741(2)
O8A O 0.8259(2) 0.1015(2) 0.2389(3)
O8F O 1.1015(2) 0.1741(2) -0.2389(3)
O8G O 0.8985(2) -0.1741(2) -0.2389(3)
O9A O 0.80020(18) 0.01073(19) 0.0970(2)
O9F O 1.01073(18) 0.19980(19) -0.0970(2)
O9G O 0.98927(18) -0.19980(19) -0.0970(2)
O10A O 0.8913(2) -0.03486(19) 0.2215(2)
O10F O 0.96514(20) 0.10870(19) -0.2215(2)
O10G O 1.03486(20) -0.10870(19) -0.2215(2)
O11F O 1.00000 1.00000 0.6466(4)
#END
