
#######################################################################
#
#                 Cambridge Crystallographic Data Centre
#                                CCDC
#
#######################################################################
#
# If this CIF has been generated from an entry in the Cambridge
# Structural Database, then it will include bibliographic, chemical,
# crystal, experimental, refinement or atomic coordinate data resulting
# from the CCDC's data processing and validation procedures.
#
#######################################################################

data_CSD_CIF_YIPGUA
_audit_creation_date 2008-02-19
_audit_creation_method CSD-ConQuest-V1
_database_code_CSD YIPGUA
_database_code_depnum_ccdc_archive 'CCDC 666646'
_chemical_formula_sum 'C74 H56 Cl2 O12 P2 Zn3'
_chemical_formula_moiety
;
(C25 H22 P1 1+)2n,n(C24 H12 Cl2 O12 Zn3 2-)
;
_journal_coden_Cambridge 9
_journal_volume 46
_journal_year 2007
_journal_page_first 7910
_journal_name_full 'Inorg.Chem. '
loop_
_publ_author_name
"Guo-Dong Yang"
"Jing-Cao Dai"
"Yun-Xia Lian"
"Wen-Shi Wu"
"Jian-Ming Lin"
"Sheng-Min Hu"
"Tian-Lu Sheng"
"Zhi-Yong Fu"
"Xin-Tao Wu"
_chemical_name_systematic
;
catena-(bis(benzyl(triphenyl)phosphonium) 
tris(\m~4~-terephthalato)-di-chloro-tri-zinc)
;
_cell_volume   3277.014
_exptl_crystal_colour 'colorless'
_exptl_crystal_density_diffrn 1.486
_exptl_special_details
;
fluorescent

;
_exptl_crystal_description 'Prism'
_diffrn_ambient_temperature 293
#These two values have been output from a single CSD field.
_refine_ls_R_factor_gt 0.0367
_refine_ls_wR_factor_gt 0.0367
_symmetry_cell_setting monoclinic
_symmetry_space_group_name_H-M 'P 21/c'
_symmetry_Int_Tables_number 14
loop_
_symmetry_equiv_pos_site_id
_symmetry_equiv_pos_as_xyz
1 x,y,z
2 -x,1/2+y,1/2-z
3 -x,-y,-z
4 x,-1/2-y,-1/2+z
_cell_length_a 18.9555(12)
_cell_length_b 10.2697(5)
_cell_length_c 17.0673(10)
_cell_angle_alpha 90
_cell_angle_beta 99.486(4)
_cell_angle_gamma 90
_cell_formula_units_Z 2
loop_
_atom_type_symbol
_atom_type_radius_bond
C 0.68
H 0.23
Cl 0.99
O 0.68
P 1.05
Zn 1.45
loop_
_atom_site_label
_atom_site_type_symbol
_atom_site_fract_x
_atom_site_fract_y
_atom_site_fract_z
Zn1 Zn 0.315341(14) 0.57718(3) 0.456475(16)
Zn2 Zn 0.50000 0.50000 0.50000
Cl1 Cl 0.19587(3) 0.62181(8) 0.43457(4)
P1 P 0.16076(4) -0.08141(7) 0.24365(4)
O1 O 0.4334(1) 0.51263(19) 0.58896(10)
O2 O 0.31959(10) 0.45802(19) 0.54836(10)
O3 O 0.4308(1) 0.12148(18) 0.92562(10)
O4 O 0.33135(10) 0.02337(19) 0.86313(10)
O5 O 0.45786(10) 0.66330(17) 0.44067(10)
O6 O 0.35896(10) 0.75195(17) 0.47136(11)
C1 C 0.37974(13) 0.3592(3) 0.66574(14)
C2 C 0.32717(15) 0.2663(3) 0.66658(16)
H1 H 0.29010 0.26020 0.62370
C3 C 0.32878(16) 0.1819(3) 0.73026(16)
H2 H 0.29360 0.11840 0.72910
C4 C 0.38249(13) 0.1919(3) 0.79560(14)
C5 C 0.43484(16) 0.2859(3) 0.79558(17)
H3 H 0.47070 0.29460 0.83950
C6 C 0.43432(16) 0.3673(3) 0.73060(18)
H4 H 0.47080 0.42780 0.73050
C7 C 0.37844(13) 0.4496(2) 0.59601(14)
C8 C 0.38244(13) 0.1046(2) 0.86747(14)
C9 C 0.46265(13) 0.8842(2) 0.48144(15)
C10 C 0.53391(15) 0.8944(3) 0.4723(2)
H5 H 0.55690 0.82380 0.45360
C11 C 0.42923(15) 0.9903(3) 0.5090(2)
H6 H 0.38150 0.98420 0.51500
C12 C 0.42430(13) 0.7572(2) 0.46351(14)
C13 C 0.11062(14) 0.0050(3) 0.16126(15)
C14 C 0.14087(16) 0.0457(3) 0.09683(17)
H7 H 0.18850 0.02710 0.09440
C15 C 0.09941(18) 0.1145(3) 0.03594(18)
H8 H 0.11920 0.14140 -0.00770
C16 C 0.02891(18) 0.1433(3) 0.03995(17)
H9 H 0.00160 0.18950 -0.00110
C17 C -0.00122(16) 0.1043(3) 0.10394(18)
H10 H -0.04880 0.12370 0.10620
C18 C 0.03937(15) 0.0361(3) 0.16481(17)
H11 H 0.01930 0.01050 0.20850
C19 C 0.18563(15) 0.0316(3) 0.32382(16)
C20 C 0.20621(18) -0.0111(3) 0.40136(18)
H12 H 0.20540 -0.09930 0.41340
C21 C 0.2281(2) 0.0800(4) 0.4611(2)
H13 H 0.24180 0.05250 0.51330
C22 C 0.22946(18) 0.2102(3) 0.4430(2)
H14 H 0.24510 0.27000 0.48300
C23 C 0.2083(2) 0.2528(3) 0.3673(2)
H15 H 0.20870 0.34140 0.35590
C24 C 0.18614(18) 0.1639(3) 0.30726(19)
H16 H 0.17150 0.19300 0.25550
C25 C 0.23838(15) -0.1577(3) 0.21684(16)
C26 C 0.23275(17) -0.2244(3) 0.14522(18)
H17 H 0.18980 -0.22420 0.10990
C27 C 0.29115(19) -0.2911(3) 0.1267(2)
H18 H 0.28770 -0.33510 0.07860
C28 C 0.3543(2) -0.2923(4) 0.1793(2)
H19 H 0.39320 -0.33850 0.16710
C29 C 0.3605(2) -0.2257(5) 0.2500(2)
H20 H 0.40370 -0.22610 0.28500
C30 C 0.30246(17) -0.1580(4) 0.2693(2)
H21 H 0.30650 -0.11300 0.31710
C31 C 0.10385(16) -0.2041(3) 0.27775(16)
H22 H 0.12950 -0.24300 0.32590
H23 H 0.06190 -0.16140 0.29130
C32 C 0.07944(17) -0.3118(3) 0.21908(16)
C33 C 0.01433(19) -0.3038(4) 0.16860(19)
H24 H -0.01420 -0.23040 0.17010
C34 C -0.0089(2) -0.4037(4) 0.1160(2)
H25 H -0.05250 -0.39700 0.08210
C35 C 0.0328(3) -0.5124(4) 0.1139(2)
H26 H 0.01750 -0.57950 0.07860
C36 C 0.0974(3) -0.5221(4) 0.1643(3)
H27 H 0.12530 -0.59640 0.16290
C37 C 0.1215(2) -0.4224(3) 0.2171(2)
H28 H 0.16520 -0.42960 0.25070
Zn1B Zn 0.684659(14) 0.42282(3) 0.543525(16)
Zn1C Zn 0.315341(14) -0.07718(3) 0.956475(16)
Zn1B* Zn 0.684659(14) 1.42282(3) 0.543525(16)
Zn1A Zn 0.684659(14) 1.07718(3) 0.043525(16)
Zn2C Zn 0.50000 0.00000 1.00000
Zn2* Zn 0.50000 1.50000 0.50000
Zn2C* Zn 0.50000 1.00000 0.00000
Cl1B Cl 0.80413(3) 0.37819(8) 0.56543(4)
O1B O 0.5666(1) 0.48737(19) 0.41104(10)
O2B O 0.68041(10) 0.54198(19) 0.45164(10)
O3B O 0.5692(1) 0.87852(18) 0.07438(10)
O3C O 0.4308(1) 0.37852(18) 0.42562(10)
O3A O 0.5692(1) 0.62148(18) 0.57438(10)
O4B O 0.66865(10) 0.97663(19) 0.13687(10)
O4C O 0.33135(10) 0.47663(19) 0.36313(10)
O4A O 0.66865(10) 0.52337(19) 0.63687(10)
O5B O 0.54214(10) 1.33670(17) 0.55933(10)
O5B* O 0.54214(10) 0.33670(17) 0.55933(10)
O6B O 0.64104(10) 1.24805(17) 0.52864(11)
O6B* O 0.64104(10) 0.24805(17) 0.52864(11)
C1B C 0.62026(13) 0.6408(3) 0.33426(14)
C2B C 0.67283(15) 0.7337(3) 0.33342(16)
H1B H 0.70990 0.73980 0.37630
C3B C 0.67122(16) 0.8181(3) 0.26974(16)
H2B H 0.70640 0.88160 0.27090
C4B C 0.61751(13) 0.8081(3) 0.20440(14)
C5B C 0.56516(16) 0.7141(3) 0.20442(17)
H3B H 0.52930 0.70540 0.16050
C6B C 0.56568(16) 0.6327(3) 0.26940(18)
H4B H 0.52920 0.57220 0.26950
C7B C 0.62156(13) 0.5504(2) 0.40399(14)
C8B C 0.61756(13) 0.8954(2) 0.13253(14)
C9B C 0.53735(13) 1.1158(2) 0.51856(15)
C10B C 0.46609(15) 1.1056(3) 0.5277(2)
H5B H 0.44310 1.17620 0.54640
C11B C 0.57077(15) 1.0097(3) 0.4910(2)
H6B H 0.61850 1.01580 0.48500
C12B C 0.57570(13) 1.2428(2) 0.53649(14)
#END
