
#######################################################################
#
#                 Cambridge Crystallographic Data Centre
#                                CCDC
#
#######################################################################
#
# If this CIF has been generated from an entry in the Cambridge
# Structural Database, then it will include bibliographic, chemical,
# crystal, experimental, refinement or atomic coordinate data resulting
# from the CCDC's data processing and validation procedures.
#
#######################################################################

data_CSD_CIF_YIQWEC
_audit_creation_date 2013-11-05
_audit_creation_method CSD-ConQuest-V1
_database_code_CSD YIQWEC
_database_code_depnum_ccdc_archive 'CCDC 906240'
_chemical_formula_sum 'C29 H76 Ag2 Mo6 N16 Ni1 O52'
_chemical_formula_moiety
;
(H3 O1 1+)4n,n(C28 H38 Ag2 Mo6 N16 Ni1 O32 2-),n(C1 O3 2-),13n(H2 O1)
;
_journal_coden_Cambridge 1147
_journal_volume 13
_journal_year 2013
_journal_page_first 2916
_journal_name_full 'Cryst.Growth Des. '
loop_
_publ_author_name
"V.Kulikov"
"G.Meyer"
_chemical_name_systematic
;
catena-[tetraoxonium 
hexakis(\m~3~-hydroxo)-decakis(\m~2~-oxo)-tetrakis(3,7-dimethyl-3,7-dihydro-1H
-purine-2,6-dione)-octaoxo-hexa-molybdenum-nickel-di-silver carbonate 
tridecahydrate]
;
_cell_volume   1753.129
_exptl_crystal_colour 'yellow'
_exptl_special_details
;
The oxonium moieties have not been located and have been placed arbitrarily 
in the 2D diagram
;
_exptl_crystal_description 'prism'
_diffrn_ambient_temperature 170
_refine_special_details
;
O5WA,O6WA,O7WA,O8WA,O9WA and O5WB,O6WB,O7WB,O8WB,O9WB disordered over two 
sites with occupancies 0.514:0.486. The carbonate anion is disordered by 
;
#These two values have been output from a single CSD field.
_refine_ls_R_factor_gt 0.0383
_refine_ls_wR_factor_gt 0.0383
_symmetry_cell_setting triclinic
_symmetry_space_group_name_H-M 'P -1'
_symmetry_Int_Tables_number 2
loop_
_symmetry_equiv_pos_site_id
_symmetry_equiv_pos_as_xyz
1 x,y,z
2 -x,-y,-z
_cell_length_a 10.4692(10)
_cell_length_b 12.1347(12)
_cell_length_c 14.4977(14)
_cell_angle_alpha 85.470(8)
_cell_angle_beta 77.104(8)
_cell_angle_gamma 77.693(8)
_cell_formula_units_Z 1
loop_
_atom_type_symbol
_atom_type_radius_bond
C 0.68
H 0.23
Ag 1.45
Mo 1.54
N 0.68
Ni 1.24
O 0.68
loop_
_atom_site_label
_atom_site_type_symbol
_atom_site_fract_x
_atom_site_fract_y
_atom_site_fract_z
Ag1 Ag 0.25193(3) 0.48869(3) 0.82604(2)
O1 O 0.0599(3) 0.6369(2) 0.9014(2)
O2 O 0.1128(3) 0.3329(2) 0.8766(2)
N1 N 0.2929(3) 0.4492(3) 0.9695(2)
N2 N 0.2814(4) 0.5418(3) 0.6767(2)
Mo1 Mo 0.17728(3) 0.19429(3) 0.90183(2)
C1 C 0.1982(4) 0.4729(3) 1.0485(3)
C2 C 0.4036(4) 0.3960(3) 1.0012(3)
C3 C 0.2621(5) 0.6512(4) 0.6517(3)
C4 C 0.3168(5) 0.4881(4) 0.5928(3)
O3 O 0.3467(3) 0.1782(3) 0.8673(2)
O4 O 0.1374(3) 0.1296(2) 0.7966(2)
O5 O -0.0280(3) 0.1674(2) 0.98254(18)
O6 O 0.1689(3) 0.1978(2) 1.0381(2)
O7 O 0.1878(3) 0.0051(2) 0.93441(19)
N3 N 0.2429(3) 0.4382(3) 1.1277(2)
H1 H 0.10880 0.51040 1.04840
N4 N 0.5279(3) 0.3582(3) 0.9467(2)
C5 C 0.3768(4) 0.3880(3) 1.0992(3)
H2 H 0.23580 0.70990 0.69580
N5 N 0.2836(5) 0.6695(3) 0.5583(3)
N6 N 0.3483(5) 0.3735(3) 0.5792(3)
C6 C 0.3194(6) 0.5650(4) 0.5191(3)
Mo2 Mo 0.19061(3) -0.03322(3) 0.78253(2)
Mo3 Mo -0.00374(3) 0.22270(3) 1.12267(2)
H3 H -0.109(4) 0.213(5) 0.964(4)
Ni1 Ni 0.00000 0.00000 1.00000
H4 H 0.264(5) -0.022(6) 0.965(5)
C7 C 0.1648(5) 0.4555(4) 1.2252(3)
C8 C 0.6319(4) 0.3114(3) 0.9905(3)
C9 C 0.5535(4) 0.3650(4) 0.8432(3)
C10 C 0.4782(4) 0.3365(3) 1.1493(3)
C11 C 0.2676(7) 0.7792(4) 0.5064(4)
C12 C 0.3393(7) 0.2915(4) 0.6589(3)
C13 C 0.3832(6) 0.3354(4) 0.4880(3)
C14 C 0.3557(7) 0.5337(4) 0.4212(3)
O8 O -0.0216(3) -0.0306(2) 0.87132(19)
O9 O 0.3604(3) -0.0519(3) 0.7513(2)
O10 O 0.1815(3) -0.1861(2) 0.83420(19)
O11 O 0.1383(4) -0.0377(3) 0.6796(2)
O12 O 0.0467(3) 0.2178(3) 1.2275(2)
H5 H 0.22100 0.42200 1.27000
H6 H 0.08730 0.41940 1.23480
H7 H 0.13410 0.53650 1.23570
O13 O 0.7458(3) 0.2822(3) 0.9446(2)
N7 N 0.6011(4) 0.3022(3) 1.0884(2)
H8 H 0.64810 0.33410 0.81740
H9 H 0.53140 0.44400 0.82170
H10 H 0.49800 0.32140 0.82100
O14 O 0.4672(4) 0.3222(3) 1.2353(2)
H11 H 0.29140 0.76700 0.43820
H12 H 0.32640 0.82420 0.52270
H13 H 0.17440 0.81950 0.52390
H14 H 0.36550 0.21490 0.63490
H15 H 0.24710 0.30330 0.69580
H16 H 0.39930 0.30140 0.69940
N8 N 0.3848(6) 0.4171(4) 0.4156(3)
O15 O 0.4132(5) 0.2353(3) 0.4706(2)
O16 O 0.3595(6) 0.5951(3) 0.3514(3)
H17 H -0.088(6) 0.016(5) 0.838(5)
H18 H 0.66790 0.27060 1.11550
H19 H 0.40750 0.39140 0.35790
O17 O 0.3831(3) 0.9176(3) 0.0210(3)
O18 O 0.8014(4) 0.1212(3) 0.7891(3)
O19 O 0.3854(4) 0.1147(3) 0.1118(3)
O20 O 0.50000 0.00000 0.50000
O21 O 0.4222(6) 0.1086(5) 0.3552(4)
O22 O 0.0947(8) 0.0767(6) 0.5394(5)
O23 O 0.969(2) 0.268(3) 0.689(2)
O24 O 0.4132(9) -0.0991(17) 0.2785(7)
O25 O 0.0931(14) 0.2108(10) 0.4126(7)
O26? O 0.3533(9) 0.1296(7) 0.3121(6)
O27? O 0.037(2) 0.0282(19) 0.5087(16)
O28? O 0.9950(19) 0.221(3) 0.6603(15)
O29? O 0.4002(11) -0.034(2) 0.2626(10)
O30? O 0.1844(14) 0.1815(11) 0.3793(9)
C15? C 0.00000 0.50000 0.50000
O31? O 0.105(3) 0.491(7) 0.451(2)
O32? O -0.0503(15) 0.6092(12) 0.4807(11)
O2A O -0.1128(3) 0.6671(2) 1.1234(2)
O1A O -0.0599(3) 0.3631(2) 1.0986(2)
O10A O -0.1815(3) 0.1861(2) 1.16580(19)
O8A O 0.0216(3) 0.0306(2) 1.12868(19)
O7A O -0.1878(3) -0.0051(2) 1.06559(19)
O5A O 0.0280(3) -0.1674(2) 1.01746(18)
Ag1A Ag -0.25193(3) 0.51131(3) 1.17396(2)
Mo3A Mo 0.00374(3) -0.22270(3) 0.87733(2)
Mo2A Mo -0.19061(3) 0.03322(3) 1.21747(2)
H17A H 0.088(6) -0.016(5) 1.162(5)
Mo1A Mo -0.17728(3) -0.19429(3) 1.09817(2)
H4A H -0.264(5) 0.022(6) 1.035(5)
H3A H 0.109(4) -0.213(5) 1.036(4)
N1A N -0.2929(3) 0.5508(3) 1.0305(2)
N2A N -0.2814(4) 0.4582(3) 1.3233(2)
O6A O -0.1689(3) -0.1978(2) 0.9619(2)
O1* O 0.0599(3) -0.3631(2) 0.9014(2)
O12A O -0.0467(3) -0.2178(3) 0.7725(2)
O9A O -0.3604(3) 0.0519(3) 1.2487(2)
O11A O -0.1383(4) 0.0377(3) 1.3204(2)
O4A O -0.1374(3) -0.1296(2) 1.2034(2)
O2A* O -0.1128(3) -0.3329(2) 1.1234(2)
O3A O -0.3467(3) -0.1782(3) 1.1327(2)
C1A C -0.1982(4) 0.5271(3) 0.9515(3)
C2A C -0.4036(4) 0.6040(3) 0.9988(3)
C3A C -0.2621(5) 0.3488(4) 1.3483(3)
C4A C -0.3168(5) 0.5119(4) 1.4072(3)
Ag1* Ag 0.25193(3) -0.51131(3) 0.82604(2)
Ag1A* Ag -0.25193(3) -0.48869(3) 1.17396(2)
N3A N -0.2429(3) 0.5618(3) 0.8723(2)
H1A H -0.10880 0.48960 0.95160
N4A N -0.5279(3) 0.6418(3) 1.0533(2)
C5A C -0.3768(4) 0.6120(3) 0.9008(3)
H2A H -0.23580 0.29010 1.30420
N5A N -0.2836(5) 0.3305(3) 1.4417(3)
N6A N -0.3483(5) 0.6265(3) 1.4208(3)
C6A C -0.3194(6) 0.4350(4) 1.4809(3)
C7A C -0.1648(5) 0.5445(4) 0.7748(3)
C8A C -0.6319(4) 0.6886(3) 1.0095(3)
C9A C -0.5535(4) 0.6350(4) 1.1568(3)
C10A C -0.4782(4) 0.6635(3) 0.8507(3)
C11A C -0.2676(7) 0.2208(4) 1.4936(4)
C12A C -0.3393(7) 0.7085(4) 1.3411(3)
C13A C -0.3832(6) 0.6646(4) 1.5120(3)
C14A C -0.3557(7) 0.4663(4) 1.5788(3)
H5A H -0.22100 0.57800 0.73000
H6A H -0.08730 0.58060 0.76520
H7A H -0.13410 0.46350 0.76430
O13A O -0.7458(3) 0.7178(3) 1.0554(2)
N7A N -0.6011(4) 0.6978(3) 0.9116(2)
H8A H -0.64810 0.66590 1.18260
H9A H -0.53140 0.55600 1.17830
H10A H -0.49800 0.67860 1.17900
O14A O -0.4672(4) 0.6778(3) 0.7647(2)
H11A H -0.29140 0.23300 1.56180
H12A H -0.32640 0.17580 1.47730
H13A H -0.17440 0.18050 1.47610
H14A H -0.36550 0.78510 1.36510
H15A H -0.24710 0.69670 1.30420
H16A H -0.39930 0.69860 1.30060
N8A N -0.3848(6) 0.5829(4) 1.5844(3)
O15A O -0.4132(5) 0.7647(3) 1.5294(2)
O16A O -0.3595(6) 0.4049(3) 1.6486(3)
H18A H -0.66790 0.72940 0.88450
H19A H -0.40750 0.60860 1.64210
#END
