
#######################################################################
#
#                 Cambridge Crystallographic Data Centre
#                                CCDC
#
#######################################################################
#
# If this CIF has been generated from an entry in the Cambridge
# Structural Database, then it will include bibliographic, chemical,
# crystal, experimental, refinement or atomic coordinate data resulting
# from the CCDC's data processing and validation procedures.
#
#######################################################################

data_CSD_CIF_YIQWIG
_audit_creation_date 2013-11-05
_audit_creation_method CSD-ConQuest-V1
_database_code_CSD YIQWIG
_database_code_depnum_ccdc_archive 'CCDC 906239'
_chemical_formula_sum 'C28 H47 Ag3 Mo8 N16 O41'
_chemical_formula_moiety
;
(C28 H36 Ag3 Mo8 N16 O36 1-)n,4n(H2 O1),n(H3 O1 1+)
;
_journal_coden_Cambridge 1147
_journal_volume 13
_journal_year 2013
_journal_page_first 2916
_journal_name_full 'Cryst.Growth Des. '
loop_
_publ_author_name
"V.Kulikov"
"G.Meyer"
_chemical_name_systematic
;
catena-[oxonium 
bis(\m~5~-oxo)-tetrakis(\m~3~-oxo)-dodecakis(\m~2~-oxo)-tetrakis(3,7-dimethyl-
3,7-dihydro-1H-purine-2,6-dione)-diaqua-octaoxy-octa-molybdenum-tri-silver 
tetrahydrate]
;
_cell_volume   6161.473
_exptl_crystal_colour 'yellow'
_exptl_special_details
;
The oxonium moiety has not been located and has been placed arbitrarily in 
the 2D diagram
;
_exptl_crystal_description 'prism'
_diffrn_ambient_temperature 293
_refine_special_details
;
O3WB and O3WA disordered over two sites with occupancies 0.700:0.300.

;
#These two values have been output from a single CSD field.
_refine_ls_R_factor_gt 0.0372
_refine_ls_wR_factor_gt 0.0372
_symmetry_cell_setting monoclinic
_symmetry_space_group_name_H-M 'C 2/c'
_symmetry_Int_Tables_number 15
loop_
_symmetry_equiv_pos_site_id
_symmetry_equiv_pos_as_xyz
1 x,y,z
2 -x,y,1/2-z
3 1/2+x,1/2+y,z
4 1/2-x,1/2+y,1/2-z
5 -x,-y,-z
6 x,-y,-1/2+z
7 -1/2-x,-1/2-y,-z
8 -1/2+x,-1/2-y,-1/2+z
_cell_length_a 21.7118(6)
_cell_length_b 17.8399(4)
_cell_length_c 18.8061(5)
_cell_angle_alpha 90
_cell_angle_beta 122.236(2)
_cell_angle_gamma 90
_cell_formula_units_Z 4
loop_
_atom_type_symbol
_atom_type_radius_bond
C 0.68
H 0.23
Ag 1.45
Mo 1.54
N 0.68
O 0.68
loop_
_atom_site_label
_atom_site_type_symbol
_atom_site_fract_x
_atom_site_fract_y
_atom_site_fract_z
Ag1 Ag 0.76902(3) 0.01266(3) 0.30405(3)
O1 O 0.9359(3) 0.2996(3) 0.4185(3)
C1 C 0.7841(3) 0.2250(3) 0.1900(3)
N1 N 0.8734(3) 0.3103(3) 0.2766(4)
H1 H 0.89860 0.34980 0.28300
C2 C 0.8901(4) 0.2745(4) 0.3495(4)
O2 O 0.8798(2) -0.3124(2) 0.2170(2)
N2 N 0.7395(2) -0.1352(2) 0.1392(3)
C3 C 0.6933(4) 0.2032(5) 0.0346(4)
H2 H 0.71390 0.24810 0.02760
H3 H 0.64210 0.21040 0.01070
H4 H 0.70060 0.16230 0.00660
N3 N 0.7288(3) 0.1861(3) 0.1243(3)
N4 N 0.8503(3) 0.2112(3) 0.3405(3)
O3 O 0.6996(2) -0.1735(2) 0.0061(2)
N5 N 0.7961(2) -0.1057(2) 0.2885(3)
C4 C 0.8359(3) -0.2064(3) 0.2526(3)
N6 N 0.7910(2) -0.2395(2) 0.1148(3)
H5 H 0.79160 -0.26810 0.07840
N7 N 0.8747(2) -0.2008(2) 0.3392(3)
C5 C 0.7410(3) -0.1816(3) 0.0821(3)
N8 N 0.7561(3) 0.1258(3) 0.2416(3)
C6 C 0.7884(3) -0.1471(3) 0.2239(3)
C7 C 0.7142(4) 0.1286(3) 0.1573(4)
H6 H 0.67820 0.09340 0.12520
O4 O 0.8110(3) 0.3317(3) 0.1355(3)
C8 C 0.7996(3) 0.1869(3) 0.2614(3)
C9 C 0.9335(3) -0.2499(3) 0.4002(3)
H7 H 0.94120 -0.28920 0.37090
H8 H 0.92020 -0.27150 0.43700
H9 H 0.97740 -0.22130 0.43260
C10 C 0.6872(3) -0.0739(3) 0.1082(4)
H10 H 0.69250 -0.04620 0.15490
H11 H 0.63870 -0.09390 0.07540
H12 H 0.69580 -0.04130 0.07380
C11 C 0.8211(4) 0.2913(4) 0.1933(4)
C12 C 0.8494(3) -0.1407(3) 0.3568(3)
H13 H 0.86700 -0.12450 0.41140
O5 O 0.6670(5) 0.0361(5) 0.3201(8)
C13 C 0.8400(3) -0.2576(3) 0.1979(3)
C14 C 0.8648(4) 0.1703(4) 0.4151(4)
H14 H 0.90190 0.19580 0.46460
H15 H 0.88080 0.12050 0.41380
H16 H 0.82100 0.16780 0.41600
Mo1 Mo 1.07571(2) -0.02353(2) 0.73824(2)
Mo2 Mo 0.95400(2) 0.10480(2) 0.64457(2)
Mo3 Mo 0.82913(2) -0.02204(2) 0.54557(3)
Mo4 Mo 0.95420(2) -0.15019(2) 0.64186(3)
Ag2 Ag 1.00000 0.00000 0.50000
O6 O 0.9776(2) 0.0935(2) 0.5717(2)
O7 O 0.8491(3) -0.0179(2) 0.4690(3)
O8 O 1.0872(2) -0.0231(2) 0.6559(2)
O9 O 0.9739(2) -0.1398(2) 0.5661(2)
O10 O 0.95744(17) -0.02312(17) 0.6638(2)
O11 O 1.05474(17) 0.08185(18) 0.74264(19)
O12 O 0.85362(19) -0.1239(2) 0.5794(2)
O13 O 1.16294(19) -0.02289(19) 0.8279(2)
O14 O 0.9507(2) -0.2437(2) 0.6535(3)
O15 O 0.85428(18) 0.0805(2) 0.5825(2)
O16 O 0.9530(2) 0.1990(2) 0.6578(2)
O17 O 0.7375(2) -0.0213(2) 0.4942(3)
O18 O 1.05424(18) -0.12839(19) 0.7408(2)
O19? O 0.0678(13) 0.5374(12) 0.6870(15)
O20 O 0.0323(7) 0.4232(7) 0.5077(12)
O21 O 1.00000 -0.31632(19) 0.25000
O22 O 1.0491(4) -0.3860(4) 0.3761(4)
Ag1A Ag 1.23098(3) 0.01266(3) 1.19595(3)
O1A O 1.0641(3) 0.2996(3) 1.0815(3)
C1A C 1.2159(3) 0.2250(3) 1.3100(3)
N1A N 1.1266(3) 0.3103(3) 1.2234(4)
H1A H 1.10140 0.34980 1.21700
C2A C 1.1099(4) 0.2745(4) 1.1505(4)
O2A O 1.1202(2) -0.3124(2) 1.2830(2)
N2A N 1.2605(2) -0.1352(2) 1.3608(3)
C3A C 1.3067(4) 0.2032(5) 1.4654(4)
H2A H 1.28610 0.24810 1.47240
H3A H 1.35790 0.21040 1.48930
H4A H 1.29940 0.16230 1.49340
N3A N 1.2712(3) 0.1861(3) 1.3757(3)
N4A N 1.1497(3) 0.2112(3) 1.1595(3)
O3A O 1.3004(2) -0.1735(2) 1.4939(2)
N5A N 1.2039(2) -0.1057(2) 1.2115(3)
C4A C 1.1641(3) -0.2064(3) 1.2474(3)
N6A N 1.2090(2) -0.2395(2) 1.3852(3)
H5A H 1.20840 -0.26810 1.42160
N7A N 1.1253(2) -0.2008(2) 1.1608(3)
C5A C 1.2590(3) -0.1816(3) 1.4179(3)
N8A N 1.2439(3) 0.1258(3) 1.2584(3)
C6A C 1.2116(3) -0.1471(3) 1.2761(3)
C7A C 1.2858(4) 0.1286(3) 1.3427(4)
H6A H 1.32180 0.09340 1.37480
O4A O 1.1890(3) 0.3317(3) 1.3645(3)
C8A C 1.2004(3) 0.1869(3) 1.2386(3)
C9A C 1.0665(3) -0.2499(3) 1.0998(3)
H7A H 1.05880 -0.28920 1.12910
H8A H 1.07980 -0.27150 1.06300
H9A H 1.02260 -0.22130 1.06740
C10A C 1.3128(3) -0.0739(3) 1.3918(4)
H10A H 1.30750 -0.04620 1.34510
H11A H 1.36130 -0.09390 1.42460
H12A H 1.30420 -0.04130 1.42620
C11A C 1.1789(4) 0.2913(4) 1.3067(4)
C12A C 1.1506(3) -0.1407(3) 1.1432(3)
H13A H 1.13300 -0.12450 1.08860
O5A O 1.3330(5) 0.0361(5) 1.1799(8)
C13A C 1.1600(3) -0.2576(3) 1.3021(3)
C14A C 1.1352(4) 0.1703(4) 1.0849(4)
H14A H 1.09810 0.19580 1.03540
H15A H 1.11920 0.12050 1.08620
H16A H 1.17900 0.16780 1.08400
Mo1A Mo 0.92429(2) -0.02353(2) 0.76176(2)
Mo2A Mo 1.04600(2) 0.10480(2) 0.85543(2)
Mo3A Mo 1.17087(2) -0.02204(2) 0.95443(3)
Mo4A Mo 1.04580(2) -0.15019(2) 0.85814(3)
O6A O 1.0224(2) 0.0935(2) 0.9283(2)
O7A O 1.1509(3) -0.0179(2) 1.0310(3)
O8A O 0.9128(2) -0.0231(2) 0.8441(2)
O9A O 1.0261(2) -0.1398(2) 0.9339(2)
O10A O 1.04256(17) -0.02312(17) 0.8362(2)
O11A O 0.94526(17) 0.08185(18) 0.75736(19)
O12A O 1.14638(19) -0.1239(2) 0.9206(2)
O13A O 0.83706(19) -0.02289(19) 0.6721(2)
O14A O 1.0493(2) -0.2437(2) 0.8465(3)
O15A O 1.14572(18) 0.0805(2) 0.9175(2)
O16A O 1.0470(2) 0.1990(2) 0.8422(2)
O17A O 1.2625(2) -0.0213(2) 1.0058(3)
O18A O 0.94576(18) -0.12839(19) 0.7592(2)
Ag2A Ag 1.00000 0.00000 1.00000
O6D O 1.0224(2) -0.0935(2) 0.4283(2)
O8D O 0.9128(2) 0.0231(2) 0.3441(2)
#END
