
#######################################################################
#
#                 Cambridge Crystallographic Data Centre
#                                CCDC
#
#######################################################################
#
# If this CIF has been generated from an entry in the Cambridge
# Structural Database, then it will include bibliographic, chemical,
# crystal, experimental, refinement or atomic coordinate data resulting
# from the CCDC's data processing and validation procedures.
#
#######################################################################

data_CSD_CIF_YISLUI
_audit_creation_date 2008-05-23
_audit_creation_method CSD-ConQuest-V1
_database_code_CSD YISLUI
_database_code_depnum_ccdc_archive 'CCDC 651557'
_chemical_formula_sum 'C22 H67 Cu2 Gd1 K2 N4 O104 P2 W22'
_chemical_formula_moiety
;
(C22 H16 Cu2 Gd1 N4 O82 P2 W22 9-)n,2n(K1 1+),7n(H3 O1 1+),15n(H2 O1)
;
_journal_coden_Cambridge 222
_journal_year 2008
_journal_page_first 115
_journal_name_full 'Dalton Trans. '
loop_
_publ_author_name
"Jianfang Cao"
"Shuxia Liu"
"Ruige Cao"
"Linhua Xie"
"Yuanhang Ren"
"Chaoying Gao"
"Lin Xu"
_chemical_name_systematic
;
catena-(Di-potassium heptaoxonium 
bis(\m~11~-phosphato)-(\m~2~-oxalato)-dopentacontakis(\m~2~-oxo)-bis(2,2'-bipy
ridyl)-octadecaoxo-di-copper(ii)-gadolinium(iii)-docosa-tungsten(vi) 
pentadecahydrate)
;
_cell_volume  11453.354
_exptl_crystal_colour 'blue'
_exptl_crystal_density_diffrn 3.782
_exptl_special_details
;
isomorphic with the Pr(iii), Eu(iii), La(iii) and Yb(iii) analogues

;
_exptl_crystal_description 'block'
_diffrn_ambient_temperature 273
_refine_special_details
;
A large number of disordered lattice water molecules have been accounted for 
using the SQUEEZE routine.
;
#These two values have been output from a single CSD field.
_refine_ls_R_factor_gt 0.0458
_refine_ls_wR_factor_gt 0.0458
_symmetry_cell_setting monoclinic
_symmetry_space_group_name_H-M 'C 2/c'
_symmetry_Int_Tables_number 15
loop_
_symmetry_equiv_pos_site_id
_symmetry_equiv_pos_as_xyz
1 x,y,z
2 1/2+x,1/2+y,z
3 -x,y,1/2-z
4 1/2-x,1/2+y,1/2-z
5 -x,-y,-z
6 -1/2-x,-1/2-y,-z
7 x,-y,-1/2+z
8 -1/2+x,-1/2-y,-1/2+z
_cell_length_a 14.747(5)
_cell_length_b 20.484(5)
_cell_length_c 38.466(10)
_cell_angle_alpha 90
_cell_angle_beta 99.707(7)
_cell_angle_gamma 90
_cell_formula_units_Z 4
loop_
_atom_type_symbol
_atom_type_radius_bond
C 0.68
H 0.23
Cu 1.52
Gd 1.79
K 1.33
N 0.68
O 0.68
P 1.05
W 1.43
loop_
_atom_site_label
_atom_site_type_symbol
_atom_site_fract_x
_atom_site_fract_y
_atom_site_fract_z
K1 K 0.3345(4) -0.1265(3) 0.81525(13)
P1 P 0.6882(3) -0.03216(18) 0.85327(10)
W1 W 0.46486(5) 0.03990(3) 0.836748(16)
W2 W 0.58274(5) -0.18326(3) 0.829444(16)
W3 W 0.64394(5) 0.09661(3) 0.790023(16)
W4 W 0.60633(5) 0.07034(3) 0.917886(16)
W5 W 0.51163(5) -0.08019(3) 0.900195(15)
W6 W 0.73992(6) -0.15801(3) 0.916623(17)
W7 W 0.74867(5) -0.13079(3) 0.786154(17)
W8 W 0.78998(6) 0.12830(3) 0.870590(17)
W9 W 0.86182(5) 0.03047(4) 0.808889(18)
W10 W 0.83777(6) -0.00720(3) 0.935602(17)
W11 W 0.90839(6) -0.10444(4) 0.87284(2)
C1 C 0.5477(12) -0.0157(7) 1.0056(4)
C2 C 0.4554(14) 0.2290(8) 1.0047(5)
H1 H 0.40680 0.20020 0.99800
C3 C 0.6102(13) 0.2467(7) 1.0266(4)
C4 C 0.6988(12) 0.2143(8) 1.0356(4)
C5 C 0.7756(16) 0.1184(10) 1.0357(5)
H2 H 0.77530 0.07440 1.02970
C6 C 0.5071(16) 0.3367(8) 1.0198(5)
H3 H 0.49590 0.38060 1.02350
C7 C 0.4371(16) 0.2958(9) 1.0046(6)
H4 H 0.37980 0.31220 0.99470
C8 C 0.5918(16) 0.3115(9) 1.0290(4)
H5 H 0.64010 0.33960 1.03750
C9 C 0.7783(16) 0.2476(10) 1.0498(5)
H6 H 0.77840 0.29200 1.05480
C10 C 0.8579(15) 0.2098(12) 1.0563(5)
H7 H 0.91270 0.23140 1.06460
C11 C 0.8625(16) 0.1476(10) 1.0516(6)
H8 H 0.91640 0.12370 1.05790
Cu1 Cu 0.57462(14) 0.11395(8) 1.01176(5)
Gd1 Gd 0.50000 -0.06357(5) 0.75000
N1 N 0.5375(10) 0.2057(6) 1.0138(3)
N2 N 0.6947(9) 0.1516(5) 1.0289(3)
O1 O 0.6825(8) -0.1891(5) 0.8737(3)
O2 O 0.5067(8) 0.0895(5) 0.8840(2)
O3 O 0.6856(8) 0.1201(5) 0.8940(3)
O4 O 0.5163(8) -0.1361(5) 0.8611(2)
O5 O 0.4270(7) -0.0252(5) 0.8684(3)
O6 O 0.8413(8) -0.1376(5) 0.8333(3)
O7 O 0.7619(7) -0.0602(5) 0.8831(2)
O8 O 0.8071(8) -0.0460(5) 0.7870(3)
O9 O 0.6846(8) -0.2008(5) 0.8049(3)
O10 O 0.5399(8) -0.0040(5) 0.9296(2)
O11 O 0.6594(7) -0.0840(5) 0.8248(2)
O12 O 0.6067(7) -0.0093(5) 0.8694(2)
O13 O 0.9331(9) -0.0493(6) 0.9155(3)
O14 O 0.5475(8) 0.0963(5) 0.8186(3)
O15 O 0.8364(9) 0.1996(6) 0.8874(3)
O16 O 0.5113(8) -0.1531(5) 0.7913(2)
O17 O 0.6014(7) 0.0252(5) 0.7674(2)
O18 O 0.6247(8) -0.1167(5) 0.9217(3)
O19 O 0.8462(8) 0.0660(5) 0.9046(3)
O20 O 0.4636(7) -0.0189(5) 0.8031(2)
O21 O 0.7124(9) 0.1558(5) 0.8294(3)
O22 O 0.7311(7) 0.0282(5) 0.8373(3)
O23 O 0.8577(8) -0.1663(5) 0.9023(3)
O24 O 0.7154(9) 0.0240(5) 0.9379(3)
O25 O 0.5909(10) 0.1225(5) 0.9521(2)
O26 O 0.4344(9) -0.1181(5) 0.9219(3)
O27 O 0.6551(7) -0.1068(5) 0.7547(3)
O28 O 0.5445(9) -0.2616(5) 0.8324(3)
O29 O 0.6083(8) 0.1594(5) 0.7606(3)
O30 O 0.7411(11) -0.2240(6) 0.9445(3)
O31 O 0.9165(8) -0.0242(6) 0.8464(3)
O32 O 0.3621(9) 0.0802(5) 0.8245(3)
O33 O 0.9545(10) 0.0432(7) 0.7879(4)
O34 O 0.8136(10) -0.1751(6) 0.7625(3)
O35 O 0.8984(10) 0.0207(6) 0.9747(3)
O36 O 1.0139(10) -0.1358(7) 0.8730(4)
O37 O 0.7695(8) 0.0827(5) 0.7805(3)
O38 O 0.8793(10) 0.1014(6) 0.8425(3)
O39 O 0.7995(9) -0.0915(6) 0.9491(3)
O40 O 0.6149(8) 0.0215(5) 1.0166(3)
O41 O 0.5507(7) -0.0774(5) 1.0054(3)
P1B P 0.3118(3) -0.03216(18) 0.64673(10)
W1B W 0.53514(5) 0.03990(3) 0.663252(16)
W2B W 0.41726(5) -0.18326(3) 0.670556(16)
W3B W 0.35606(5) 0.09661(3) 0.709977(16)
W4B W 0.39367(5) 0.07034(3) 0.582114(16)
W5B W 0.48837(5) -0.08019(3) 0.599805(15)
W6B W 0.26008(6) -0.15801(3) 0.583377(17)
W7B W 0.25133(5) -0.13079(3) 0.713846(17)
W8B W 0.21002(6) 0.12830(3) 0.629410(17)
W9B W 0.13818(5) 0.03047(4) 0.691111(18)
W10B W 0.16223(6) -0.00720(3) 0.564398(17)
W11B W 0.09161(6) -0.10444(4) 0.62716(2)
C1D C 0.4523(12) 0.0157(7) 0.9944(4)
C2D C 0.5446(14) -0.2290(8) 0.9953(5)
H1D H 0.59320 -0.20020 1.00200
C3D C 0.3898(13) -0.2467(7) 0.9734(4)
C4D C 0.3012(12) -0.2143(8) 0.9644(4)
C5D C 0.2244(16) -0.1184(10) 0.9643(5)
H2D H 0.22470 -0.07440 0.97030
C6D C 0.4929(16) -0.3367(8) 0.9802(5)
H3D H 0.50410 -0.38060 0.97650
C7D C 0.5629(16) -0.2958(9) 0.9954(6)
H4D H 0.62020 -0.31220 1.00530
C8D C 0.4082(16) -0.3115(9) 0.9710(4)
H5D H 0.35990 -0.33960 0.96250
C9D C 0.2217(16) -0.2476(10) 0.9502(5)
H6D H 0.22160 -0.29200 0.94520
C10D C 0.1421(15) -0.2098(12) 0.9437(5)
H7D H 0.08730 -0.23140 0.93540
C11D C 0.1375(16) -0.1476(10) 0.9484(6)
H8D H 0.08360 -0.12370 0.94210
Cu1D Cu 0.42538(14) -0.11395(8) 0.98824(5)
Cu1B Cu 0.42538(14) 0.11395(8) 0.48824(5)
Cu1F Cu 0.57462(14) -0.11395(8) 0.51176(5)
N1D N 0.4625(10) -0.2057(6) 0.9862(3)
N2D N 0.3053(9) -0.1516(5) 0.9711(3)
O1B O 0.3175(8) -0.1891(5) 0.6263(3)
O2B O 0.4933(8) 0.0895(5) 0.6160(2)
O3B O 0.3144(8) 0.1201(5) 0.6060(3)
O4B O 0.4837(8) -0.1361(5) 0.6389(2)
O5B O 0.5730(7) -0.0252(5) 0.6316(3)
O6B O 0.1587(8) -0.1376(5) 0.6667(3)
O7B O 0.2381(7) -0.0602(5) 0.6169(2)
O8B O 0.1929(8) -0.0460(5) 0.7130(3)
O9B O 0.3154(8) -0.2008(5) 0.6951(3)
O10B O 0.4601(8) -0.0040(5) 0.5704(2)
O11B O 0.3406(7) -0.0840(5) 0.6752(2)
O12B O 0.3933(7) -0.0093(5) 0.6306(2)
O13B O 0.0669(9) -0.0493(6) 0.5845(3)
O14B O 0.4525(8) 0.0963(5) 0.6814(3)
O15B O 0.1636(9) 0.1996(6) 0.6126(3)
O16B O 0.4887(8) -0.1531(5) 0.7087(2)
O17B O 0.3986(7) 0.0252(5) 0.7326(2)
O18B O 0.3753(8) -0.1167(5) 0.5783(3)
O19B O 0.1538(8) 0.0660(5) 0.5954(3)
O20B O 0.5364(7) -0.0189(5) 0.6969(2)
O21B O 0.2876(9) 0.1558(5) 0.6706(3)
O22B O 0.2689(7) 0.0282(5) 0.6627(3)
O23B O 0.1423(8) -0.1663(5) 0.5977(3)
O24B O 0.2846(9) 0.0240(5) 0.5621(3)
O25B O 0.4091(10) 0.1225(5) 0.5479(2)
O25D O 0.4091(10) -0.1225(5) 1.0479(2)
O26D O 0.5656(9) 0.1181(5) 1.0781(3)
O26B O 0.5656(9) -0.1181(5) 0.5781(3)
O27B O 0.3449(7) -0.1068(5) 0.7453(3)
O28B O 0.4555(9) -0.2616(5) 0.6676(3)
O29B O 0.3917(8) 0.1594(5) 0.7394(3)
O30B O 0.2589(11) -0.2240(6) 0.5555(3)
O31B O 0.0835(8) -0.0242(6) 0.6536(3)
O32B O 0.6379(9) 0.0802(5) 0.6755(3)
O33B O 0.0455(10) 0.0432(7) 0.7121(4)
O34B O 0.1864(10) -0.1751(6) 0.7375(3)
O35B O 0.1016(10) 0.0207(6) 0.5253(3)
O36B O -0.0139(10) -0.1358(7) 0.6270(4)
O37B O 0.2305(8) 0.0827(5) 0.7195(3)
O38B O 0.1207(10) 0.1014(6) 0.6575(3)
O39B O 0.2005(9) -0.0915(6) 0.5509(3)
O40D O 0.3851(8) -0.0215(5) 0.9834(3)
O41D O 0.4493(7) 0.0774(5) 0.9946(3)
#END
