
#######################################################################
#
#                 Cambridge Crystallographic Data Centre
#                                CCDC
#
#######################################################################
#
# If this CIF has been generated from an entry in the Cambridge
# Structural Database, then it will include bibliographic, chemical,
# crystal, experimental, refinement or atomic coordinate data resulting
# from the CCDC's data processing and validation procedures.
#
#######################################################################

data_CSD_CIF_YISMET
_audit_creation_date 2008-05-23
_audit_creation_method CSD-ConQuest-V1
_database_code_CSD YISMET
_database_code_depnum_ccdc_archive 'CCDC 651559'
_chemical_formula_sum 'C22 H66 Cu2 K3 N4 O102.5 P2 W22'
_chemical_formula_moiety
;
(C22 H16 Cu2 K1 N4 O82 P2 W22 11-)n,2n(K1 1+),9n(H3 O1 1+),11.5n(H2 O1)
;
_journal_coden_Cambridge 222
_journal_year 2008
_journal_page_first 115
_journal_name_full 'Dalton Trans. '
loop_
_publ_author_name
"Jianfang Cao"
"Shuxia Liu"
"Ruige Cao"
"Linhua Xie"
"Yuanhang Ren"
"Chaoying Gao"
"Lin Xu"
_chemical_name_systematic
;
catena-(Di-potassium nonaoxonium 
bis(\m~10~-phosphato)-(\m~2~-oxalato)-dopentacontakis(\m~2~-oxo)-bis(2,2'-bipy
ridyl)-octadecaoxo-di-copper(ii)-potassium(i)-docosa-tungsten(vi) hydrate)
;
_cell_volume  11707.342
_exptl_crystal_colour 'light blue'
_exptl_crystal_density_diffrn 3.618
_exptl_crystal_description 'block'
_diffrn_ambient_temperature 273
_refine_special_details
;
A large number of disordered lattice water molecules have been accounted for 
using the SQUEEZE routine.
;
#These two values have been output from a single CSD field.
_refine_ls_R_factor_gt 0.054
_refine_ls_wR_factor_gt 0.054
_symmetry_cell_setting monoclinic
_symmetry_space_group_name_H-M 'C 2/c'
_symmetry_Int_Tables_number 15
loop_
_symmetry_equiv_pos_site_id
_symmetry_equiv_pos_as_xyz
1 x,y,z
2 1/2+x,1/2+y,z
3 -x,y,1/2-z
4 1/2-x,1/2+y,1/2-z
5 -x,-y,-z
6 -1/2-x,-1/2-y,-z
7 x,-y,-1/2+z
8 -1/2+x,-1/2-y,-1/2+z
_cell_length_a 15.1688(11)
_cell_length_b 20.2868(11)
_cell_length_c 38.630(2)
_cell_angle_alpha 90
_cell_angle_beta 99.987(2)
_cell_angle_gamma 90
_cell_formula_units_Z 4
loop_
_atom_type_symbol
_atom_type_radius_bond
C 0.68
H 0.23
Cu 1.52
K 1.40
N 0.68
O 0.68
P 1.05
W 1.43
loop_
_atom_site_label
_atom_site_type_symbol
_atom_site_fract_x
_atom_site_fract_y
_atom_site_fract_z
K1 K 0.1496(4) -0.1216(3) 0.68285(15)
P1 P 0.1915(4) -0.0355(2) 0.85342(12)
W1 W -0.02181(5) 0.03933(4) 0.84043(2)
W2 W 0.14568(5) 0.09759(4) 0.79199(2)
W3 W 0.12203(6) 0.06605(4) 0.92073(2)
W4 W 0.08579(6) -0.18533(4) 0.82860(2)
W5 W 0.29502(6) 0.12606(4) 0.87164(2)
W6 W 0.24281(6) -0.13169(4) 0.78408(2)
W7 W 0.35681(6) 0.02948(5) 0.80775(2)
W8 W 0.34530(6) -0.01410(5) 0.93426(2)
W9 W 0.24675(7) -0.16493(4) 0.91442(2)
W10 W 0.02707(6) -0.08428(4) 0.90217(2)
W11 W 0.40652(6) -0.10975(5) 0.86928(3)
Cu1 Cu -0.07689(17) -0.11349(13) 0.98713(6)
K2 K 0.00000 -0.0621(3) 0.75000
C1 C 0.0468(12) -0.0162(10) 1.0066(5)
C2 C -0.3526(18) -0.1425(14) 0.9458(7)
H1 H -0.40510 -0.11840 0.93940
C3 C -0.351(2) -0.2107(15) 0.9425(8)
H2 H -0.40470 -0.23350 0.93530
C4 C 0.051(2) -0.3013(12) 0.9998(8)
H3 H 0.10760 -0.31880 1.00730
C5 C -0.2681(15) -0.1104(13) 0.9595(6)
H4 H -0.26520 -0.06500 0.96260
C6 C -0.0210(19) -0.3403(12) 0.9858(6)
H5 H -0.01280 -0.38570 0.98530
C7 C -0.271(2) -0.2449(14) 0.9501(7)
H6 H -0.26920 -0.28980 0.94550
C8 C -0.1056(17) -0.3146(12) 0.9722(6)
H7 H -0.15300 -0.34130 0.96210
C9 C -0.1982(17) -0.2142(11) 0.9637(6)
C10 C 0.033(2) -0.2331(11) 1.0023(7)
H8 H 0.07880 -0.20600 1.01330
C11 C -0.1140(13) -0.2477(10) 0.9747(5)
N1 N -0.0485(13) -0.2046(10) 0.9892(4)
N2 N -0.1947(12) -0.1474(9) 0.9676(4)
O1 O 0.0421(7) -0.0784(6) 1.0074(3)
O2 O 0.1100(9) 0.0179(7) 1.0194(3)
O3 O 0.1631(8) -0.0843(6) 0.8247(3)
O4 O 0.1870(8) -0.1951(6) 0.8725(3)
O5 O 0.1162(8) -0.0159(6) 0.8702(3)
O6 O 0.0574(8) -0.0105(7) 0.9323(3)
O7 O -0.0442(10) -0.1252(7) 0.9246(3)
O8 O 0.2286(10) 0.0194(7) 0.9380(3)
O9 O 0.0599(7) 0.0974(6) 0.8234(3)
O10 O 0.2202(9) 0.1555(6) 0.8319(3)
O11 O 0.3048(9) -0.1770(8) 0.7596(4)
O12 O 0.2668(8) -0.0648(6) 0.8825(3)
O13 O 0.0282(10) -0.1407(6) 0.8634(3)
O14 O 0.2503(12) -0.2317(7) 0.9419(4)
O15 O -0.1206(9) 0.0805(7) 0.8302(4)
O16 O -0.0284(8) -0.0164(6) 0.8060(3)
O17 O 0.1830(8) -0.2030(6) 0.8038(3)
O18 O 0.0137(8) -0.1554(6) 0.7921(3)
O19 O -0.0567(8) -0.0270(6) 0.8726(3)
O20 O 0.0995(8) 0.0286(6) 0.7681(3)
O21 O 0.3452(9) 0.1974(7) 0.8888(4)
O22 O 0.2321(7) 0.0272(5) 0.8375(3)
O23 O 0.2997(9) -0.0469(7) 0.7864(3)
O24 O 0.3532(9) 0.0586(7) 0.9049(3)
O25 O 0.1375(9) -0.1231(7) 0.9215(3)
O26 O 0.1096(9) 0.1635(7) 0.7648(3)
O27 O 0.1137(10) 0.1160(7) 0.9551(3)
O28 O 0.4123(8) -0.0279(8) 0.8439(3)
O29 O 0.0215(8) 0.0880(6) 0.8876(3)
O30 O 0.3100(11) -0.0985(8) 0.9473(4)
O31 O 0.1495(8) -0.1059(7) 0.7531(3)
O32 O 0.1981(8) 0.1187(6) 0.8956(3)
O33 O 0.0492(9) -0.2641(6) 0.8319(4)
O34 O 0.4078(10) 0.0130(7) 0.9732(4)
O35 O 0.4453(9) 0.0419(8) 0.7857(4)
O36 O 0.3748(9) 0.0995(7) 0.8426(3)
O37 O 0.3345(8) -0.1450(7) 0.8305(4)
O38 O 0.4305(8) -0.0563(7) 0.9126(3)
O39 O 0.3579(9) -0.1730(7) 0.8987(4)
O40 O 0.2695(10) 0.0860(8) 0.7817(4)
O41 O 0.5082(11) -0.1428(10) 0.8674(5)
P1B P -0.1915(4) -0.0355(2) 0.64658(12)
W1B W 0.02181(5) 0.03933(4) 0.65957(2)
W2B W -0.14568(5) 0.09759(4) 0.70801(2)
W3B W -0.12203(6) 0.06605(4) 0.57927(2)
W4B W -0.08579(6) -0.18533(4) 0.67140(2)
W5B W -0.29502(6) 0.12606(4) 0.62836(2)
W6B W -0.24281(6) -0.13169(4) 0.71592(2)
W7B W -0.35681(6) 0.02948(5) 0.69225(2)
W8B W -0.34530(6) -0.01410(5) 0.56574(2)
W9B W -0.24675(7) -0.16493(4) 0.58558(2)
W10B W -0.02707(6) -0.08428(4) 0.59783(2)
W11B W -0.40652(6) -0.10975(5) 0.63072(3)
Cu1D Cu 0.07689(17) 0.11349(13) 1.01287(6)
Cu1B Cu 0.07689(17) -0.11349(13) 0.51287(6)
Cu1F Cu -0.07689(17) 0.11349(13) 0.48713(6)
C1D C -0.0468(12) 0.0162(10) 0.9934(5)
C2D C 0.3526(18) 0.1425(14) 1.0542(7)
H1D H 0.40510 0.11840 1.06060
C3D C 0.351(2) 0.2107(15) 1.0575(8)
H2D H 0.40470 0.23350 1.06470
C4D C -0.051(2) 0.3013(12) 1.0002(8)
H3D H -0.10760 0.31880 0.99270
C5D C 0.2681(15) 0.1104(13) 1.0405(6)
H4D H 0.26520 0.06500 1.03740
C6D C 0.0210(19) 0.3403(12) 1.0142(6)
H5D H 0.01280 0.38570 1.01470
C7D C 0.271(2) 0.2449(14) 1.0499(7)
H6D H 0.26920 0.28980 1.05450
C8D C 0.1056(17) 0.3146(12) 1.0278(6)
H7D H 0.15300 0.34130 1.03790
C9D C 0.1982(17) 0.2142(11) 1.0363(6)
C10D C -0.033(2) 0.2331(11) 0.9977(7)
H8D H -0.07880 0.20600 0.98670
C11D C 0.1140(13) 0.2477(10) 1.0253(5)
N1D N 0.0485(13) 0.2046(10) 1.0108(4)
N2D N 0.1947(12) 0.1474(9) 1.0324(4)
O1D O -0.0421(7) 0.0784(6) 0.9926(3)
O2D O -0.1100(9) -0.0179(7) 0.9806(3)
O3B O -0.1631(8) -0.0843(6) 0.6753(3)
O4B O -0.1870(8) -0.1951(6) 0.6275(3)
O5B O -0.1162(8) -0.0159(6) 0.6298(3)
O6B O -0.0574(8) -0.0105(7) 0.5677(3)
O7B O 0.0442(10) -0.1252(7) 0.5754(3)
O7D O 0.0442(10) 0.1252(7) 1.0754(3)
O8B O -0.2286(10) 0.0194(7) 0.5620(3)
O9B O -0.0599(7) 0.0974(6) 0.6766(3)
O10B O -0.2202(9) 0.1555(6) 0.6681(3)
O11B O -0.3048(9) -0.1770(8) 0.7404(4)
O12B O -0.2668(8) -0.0648(6) 0.6175(3)
O13B O -0.0282(10) -0.1407(6) 0.6366(3)
O14B O -0.2503(12) -0.2317(7) 0.5581(4)
O15B O 0.1206(9) 0.0805(7) 0.6698(4)
O16B O 0.0284(8) -0.0164(6) 0.6940(3)
O17B O -0.1830(8) -0.2030(6) 0.6962(3)
O18B O -0.0137(8) -0.1554(6) 0.7079(3)
O19B O 0.0567(8) -0.0270(6) 0.6274(3)
O20B O -0.0995(8) 0.0286(6) 0.7319(3)
O21B O -0.3452(9) 0.1974(7) 0.6112(4)
O22B O -0.2321(7) 0.0272(5) 0.6625(3)
O23B O -0.2997(9) -0.0469(7) 0.7136(3)
O24B O -0.3532(9) 0.0586(7) 0.5951(3)
O25B O -0.1375(9) -0.1231(7) 0.5785(3)
O26B O -0.1096(9) 0.1635(7) 0.7352(3)
O27D O -0.1137(10) -0.1160(7) 1.0449(3)
O27B O -0.1137(10) 0.1160(7) 0.5449(3)
O28B O -0.4123(8) -0.0279(8) 0.6561(3)
O29B O -0.0215(8) 0.0880(6) 0.6124(3)
O30B O -0.3100(11) -0.0985(8) 0.5527(4)
O31B O -0.1495(8) -0.1059(7) 0.7469(3)
O32B O -0.1981(8) 0.1187(6) 0.6044(3)
O33B O -0.0492(9) -0.2641(6) 0.6681(4)
O34B O -0.4078(10) 0.0130(7) 0.5268(4)
O35B O -0.4453(9) 0.0419(8) 0.7143(4)
O36B O -0.3748(9) 0.0995(7) 0.6574(3)
O37B O -0.3345(8) -0.1450(7) 0.6695(4)
O38B O -0.4305(8) -0.0563(7) 0.5874(3)
O39B O -0.3579(9) -0.1730(7) 0.6013(4)
O40B O -0.2695(10) 0.0860(8) 0.7183(4)
O41B O -0.5082(11) -0.1428(10) 0.6326(5)
#END
