
#######################################################################
#
#                 Cambridge Crystallographic Data Centre
#                                CCDC
#
#######################################################################
#
# If this CIF has been generated from an entry in the Cambridge
# Structural Database, then it will include bibliographic, chemical,
# crystal, experimental, refinement or atomic coordinate data resulting
# from the CCDC's data processing and validation procedures.
#
#######################################################################

data_CSD_CIF_YITYIM01
_audit_creation_date 2019-03-14
_audit_creation_method CSD-ConQuest-V1
_database_code_CSD YITYIM01
_database_code_depnum_ccdc_archive 'CCDC 1882859'
_chemical_formula_sum 'C64 H190 Ce2 Cu6 Ge2 N24 O102 W22'
_chemical_formula_moiety
;
2(C10 H24 Cu1 N4 2+),n(C44 H106 Ce2 Cu4 Ge2 N16 O84 W22 4-),18(H2 O1)
;
_journal_coden_Cambridge 9
_journal_volume 58
_journal_year 2019
_journal_page_first 4365
_journal_name_full 'Inorg.Chem. '
loop_
_publ_author_name
"J.Martin-Caballero"
"B.Artetxe"
"S.Reinoso"
"L.S.Felices"
"P.Vitoria"
"A.Larranaga"
"J.L.Vilas"
"J.M.Gutierrez-Zorrilla"
_chemical_name_systematic
;
catena-[bis((1,4,8,11-tetraazacyclotetradecane)-copper(ii)) 
dohexacontakis(\m-oxo)-bis(\m-acetato)-diaqua-tetrakis(1,4,8,11-tetraazacyclot
etradecane)-hexadeca-oxo-di-cerium(iii)-tetra-copper(ii)-di-germanium(iv)-doco
sa-tungsten(vi) octadecahydrate]
;
_cell_volume   3915.181
_exptl_crystal_colour 'orange'
_exptl_crystal_density_diffrn 3.3
_exptl_special_details
;
Fully rehydrated phase - as-synthesised crystal was dehydrated by heating to 
180 deg.C for 1h before rehydration upon exposure to air for 24h.
;
_exptl_crystal_description 'plates'
_diffrn_ambient_temperature 100
_refine_special_details
;
The structure is disordered.

;
#These two values have been output from a single CSD field.
_refine_ls_R_factor_gt 0.0854
_refine_ls_wR_factor_gt 0.0854
_symmetry_cell_setting triclinic
_symmetry_space_group_name_H-M 'P -1'
_symmetry_Int_Tables_number 2
loop_
_symmetry_equiv_pos_site_id
_symmetry_equiv_pos_as_xyz
1 x,y,z
2 -x,-y,-z
_cell_length_a 13.5049(6)
_cell_length_b 13.7493(4)
_cell_length_c 22.9427(8)
_cell_angle_alpha 92.277(3)
_cell_angle_beta 100.038(4)
_cell_angle_gamma 110.147(4)
_cell_formula_units_Z 1
loop_
_atom_type_symbol
_atom_type_radius_bond
C 0.68
H 0.23
Ce 2.04
Cu 1.32
Ge 1.17
N 0.68
O 0.68
W 1.62
loop_
_atom_site_label
_atom_site_type_symbol
_atom_site_fract_x
_atom_site_fract_y
_atom_site_fract_z
W1 W 0.20624(9) -0.28332(8) 0.60619(5)
O1 O 0.1139(15) -0.3228(15) 0.5394(9)
O2 O 0.3311(14) -0.2066(14) 0.5798(8)
O3 O 0.2538(15) -0.3986(14) 0.6078(8)
O4 O 0.1933(14) -0.1571(14) 0.6336(8)
O5 O 0.1100(13) -0.3486(12) 0.6587(7)
O6 O 0.3472(14) -0.2450(14) 0.6891(8)
Cu1 Cu 0.00000 -0.50000 0.50000
W2 W 0.47300(9) -0.15717(8) 0.63712(5)
W3 W 0.37124(9) -0.40132(8) 0.67089(5)
W4 W 0.16750(9) -0.06685(8) 0.69034(5)
W5 W 0.05551(9) -0.33834(8) 0.72935(5)
Ge1 Ge 0.3433(2) -0.19893(19) 0.75965(12)
N1 N -0.043(2) -0.542(2) 0.5794(13)
N2 N 0.123(2) -0.553(2) 0.5109(13)
O7 O 0.5533(15) -0.1042(15) 0.5864(9)
O8 O 0.4624(15) -0.3009(15) 0.6256(9)
O9 O 0.4369(14) -0.0375(13) 0.6601(8)
O10 O 0.5647(14) -0.1310(13) 0.7089(8)
O11 O 0.3884(16) -0.5128(15) 0.6423(9)
O12 O 0.4747(15) -0.3549(14) 0.7391(8)
O13 O 0.2676(13) -0.4560(12) 0.7183(7)
O14 O 0.0683(16) -0.0360(15) 0.6490(9)
O15 O 0.2935(16) 0.0425(15) 0.6796(9)
O16 O 0.0856(16) -0.1981(15) 0.7170(9)
O17 O 0.1780(15) 0.0015(14) 0.7640(8)
O18 O 0.3180(14) -0.0829(13) 0.7560(8)
O19 O -0.0795(18) -0.3878(17) 0.702(1)
O20 O 0.0833(15) -0.4640(14) 0.7484(8)
O21 O 0.0521(15) -0.3129(15) 0.8091(9)
O22 O 0.2330(13) -0.2869(12) 0.7799(7)
O23 O 0.4626(14) -0.1814(13) 0.8083(8)
H1 H 0.00140 -0.49150 0.60840
C1 C -0.154(3) -0.544(3) 0.5773(16)
C2 C -0.031(3) -0.647(3) 0.5971(18)
H2 H 0.17950 -0.50460 0.53620
C3 C 0.152(3) -0.553(3) 0.4523(16)
C4 C 0.107(3) -0.651(3) 0.5342(17)
Cu2 Cu 0.50000 0.00000 0.50000
W6 W 0.43399(9) 0.05704(8) 0.72274(5)
W7 W 0.62385(9) -0.06709(9) 0.79691(5)
W8 W 0.52407(9) -0.31179(9) 0.82973(5)
W9 W 0.22209(10) -0.45204(8) 0.79380(5)
W10 W 0.29852(9) 0.00777(8) 0.83463(5)
W11 W 0.19055(9) -0.25739(8) 0.87354(5)
Ce1 Ce 0.51238(12) -0.10406(11) 0.93493(7)
H3 H -0.16910 -0.53940 0.61700
H4 H -0.20730 -0.60570 0.55390
C5 C 0.079(3) -0.648(3) 0.5933(17)
H5 H -0.04300 -0.65650 0.63730
H6 H -0.08590 -0.70480 0.57060
H7 H 0.10020 -0.61370 0.42680
H8 H 0.22210 -0.55900 0.45650
H9 H 0.17150 -0.66730 0.53710
H10 H 0.04880 -0.70530 0.50730
N3 N 0.469(2) 0.0943(19) 0.5582(12)
N4 N 0.6573(18) 0.094(2) 0.5240(12)
O24 O 0.5115(19) 0.1767(18) 0.7045(11)
O25 O 0.5408(15) 0.0189(14) 0.7687(8)
O26 O 0.3951(14) 0.1046(13) 0.7892(8)
O27 O 0.7492(17) 0.0011(16) 0.7827(9)
O28 O 0.6417(16) -0.1989(15) 0.8092(9)
O29 O 0.6418(17) -0.0272(16) 0.8731(9)
O30 O 0.5871(17) -0.4031(16) 0.8388(10)
O31 O 0.3744(14) -0.3956(13) 0.8265(8)
O32 O 0.5453(14) -0.2597(14) 0.9048(8)
O33 O 0.1918(16) -0.5808(15) 0.8075(9)
O34 O 0.1836(14) -0.4030(14) 0.8612(8)
O35 O 0.2705(15) 0.0966(14) 0.8790(8)
O36 O 0.1987(14) -0.1237(13) 0.8474(8)
O37 O 0.4103(15) -0.0107(14) 0.8793(8)
O38 O 0.1275(16) -0.2618(15) 0.9326(9)
O39 O 0.3305(14) -0.2157(13) 0.9072(8)
O40 O 0.4163(16) -0.0813(15) 1.0228(9)
O41 O 0.4748(19) -0.2133(18) 1.0234(10)
O42 O 0.6927(18) -0.0735(17) 1.0027(10)
H11 H 0.13210 -0.58600 0.61720
H12 H 0.08740 -0.70760 0.61170
H13 H 0.46320 0.06200 0.59190
C6 C 0.568(2) 0.190(2) 0.5734(15)
C7 C 0.3720(19) 0.117(2) 0.5417(15)
H14 H 0.67010 0.13860 0.49560
C8 C 0.667(3) 0.158(3) 0.5800(16)
C9 C 0.737(3) 0.047(2) 0.5281(14)
Cu3 Cu 0.2281(3) -0.7232(3) 0.84552(17)
C10 C 0.420(2) -0.165(2) 1.0434(13)
H15 H 0.56930 0.22700 0.61040
H16 H 0.56950 0.23540 0.54230
C11 C 0.272(3) 0.021(3) 0.5289(17)
H17 H 0.37610 0.15400 0.50670
H18 H 0.36720 0.16210 0.57380
H19 H 0.73160 0.21970 0.58660
H20 H 0.66980 0.11830 0.61370
H21 H 0.73070 0.00390 0.56090
H22 H 0.80760 0.10100 0.53730
N5 N 0.115(5) -0.748(5) 0.8998(15)
N6 N 0.100(5) -0.824(5) 0.788(2)
N7 N 0.367(5) -0.631(5) 0.912(3)
N8 N 0.337(3) -0.702(5) 0.7906(16)
C12 C 0.365(3) -0.204(3) 1.0918(16)
H23 H 0.20950 0.04250 0.52470
H24 H 0.27080 -0.01970 0.56240
H25 H 0.09480 -0.69110 0.89980
C13 C 0.030(6) -0.830(6) 0.866(4)
C14 C 0.164(5) -0.750(6) 0.958(3)
C15 C 0.003(6) -0.823(7) 0.802(4)
H26 H 0.10150 -0.88910 0.78980
C16 C 0.085(5) -0.803(6) 0.7285(15)
C17 C 0.457(6) -0.629(7) 0.889(4)
H27 H 0.36730 -0.56510 0.91030
C18 C 0.364(7) -0.649(7) 0.971(3)
C19 C 0.296(5) -0.701(6) 0.7304(15)
C20 C 0.434(3) -0.631(6) 0.823(3)
H28 H 0.34940 -0.76320 0.79080
H29 H 0.28940 -0.23630 1.07630
H30 H 0.37780 -0.14650 1.12100
H31 H 0.39240 -0.25360 1.11000
H32 H -0.03420 -0.83750 0.88170
H33 H 0.04500 -0.89320 0.87070
C21 C 0.265(6) -0.675(6) 0.9912(7)
H34 H 0.17350 -0.81730 0.95880
H35 H 0.11120 -0.75320 0.98210
H36 H -0.05830 -0.88260 0.78200
H37 H -0.00920 -0.75910 0.79370
H38 H 0.05310 -0.74990 0.72580
H39 H 0.03170 -0.86610 0.70550
C22 C 0.177(6) -0.771(6) 0.6986(6)
H40 H 0.47590 -0.68890 0.89950
H41 H 0.51770 -0.56660 0.90610
H42 H 0.41460 -0.58690 0.99570
H43 H 0.39130 -0.70480 0.97920
H44 H 0.34400 -0.71900 0.70830
H45 H 0.30480 -0.62940 0.72470
H46 H 0.43710 -0.56160 0.81350
H47 H 0.49200 -0.64360 0.80780
H48 H 0.25240 -0.61030 0.99720
H49 H 0.27720 -0.69850 1.03020
H50 H 0.15740 -0.73410 0.66580
H51 H 0.18100 -0.83410 0.68080
Cu4 Cu -0.2185(3) -0.3439(3) 0.7670(2)
N9 N -0.315(3) -0.357(3) 0.6849(16)
N10 N -0.132(2) -0.328(2) 0.8454(13)
N11 N -0.164(3) -0.190(2) 0.7715(14)
N12 N -0.276(3) -0.503(3) 0.7539(18)
H52 H -0.37320 -0.34190 0.69160
C23 C -0.265(4) -0.283(4) 0.647(2)
C24 C -0.355(5) -0.463(4) 0.660(3)
H53 H -0.06630 -0.32480 0.83960
C25 C -0.166(4) -0.415(3) 0.885(2)
C26 C -0.116(4) -0.225(3) 0.874(2)
H54 H -0.21970 -0.17140 0.77930
C27 C -0.079(3) -0.149(3) 0.8257(18)
C28 C -0.144(4) -0.148(4) 0.714(2)
H55 H -0.22720 -0.51940 0.73670
C29 C -0.281(4) -0.555(4) 0.807(2)
C30 C -0.370(4) -0.531(4) 0.710(2)
C31 C -0.224(4) -0.173(3) 0.669(2)
H56 H -0.31660 -0.29300 0.60970
H57 H -0.20520 -0.30000 0.63700
H58 H -0.30380 -0.47530 0.63880
H59 H -0.42260 -0.47830 0.63290
C32 C -0.190(4) -0.515(4) 0.850(2)
H60 H -0.10880 -0.40410 0.91900
H61 H -0.22950 -0.41380 0.89890
H62 H -0.06080 -0.20710 0.91020
H63 H -0.18220 -0.22310 0.88410
H64 H -0.07160 -0.07900 0.83930
H65 H -0.01090 -0.14880 0.81780
H66 H -0.11380 -0.07240 0.72190
H67 H -0.08830 -0.17000 0.70280
H68 H -0.34100 -0.55020 0.82330
H69 H -0.29460 -0.62790 0.79660
H70 H -0.42810 -0.52540 0.72730
H71 H -0.38910 -0.60270 0.69370
H72 H -0.20130 -0.13180 0.63690
H73 H -0.28240 -0.15510 0.68030
H74 H -0.12930 -0.50940 0.83150
H75 H -0.19280 -0.56680 0.87830
O43 O 0.056(6) -0.571(5) 0.910(3)
O44 O 0.322(5) -0.430(5) 0.963(3)
O45 O 0.084(5) -0.425(5) 1.008(3)
O46 O 0.159(2) -0.097(2) 1.0276(13)
O47 O 0.749(3) 0.193(3) 0.7352(17)
O48 O 0.432(2) -0.394(2) 0.5090(12)
O49 O 0.381(3) -0.607(2) 0.5285(14)
O50 O -0.132(4) -0.608(4) 0.722(2)
N1A N 0.043(2) -0.458(2) 0.4206(13)
N2A N -0.123(2) -0.447(2) 0.4891(13)
O1A O -0.1139(15) -0.6772(15) 0.4606(9)
H1A H -0.00140 -0.50850 0.39160
C1A C 0.154(3) -0.456(3) 0.4227(16)
C2A C 0.031(3) -0.353(3) 0.4029(18)
H2A H -0.17950 -0.49540 0.46380
C3A C -0.152(3) -0.447(3) 0.5477(16)
C4A C -0.107(3) -0.349(3) 0.4658(17)
W1A W -0.20624(9) -0.71668(8) 0.39381(5)
H3A H 0.16910 -0.46060 0.38300
H4A H 0.20730 -0.39430 0.44610
C5A C -0.079(3) -0.352(3) 0.4067(17)
H5A H 0.04300 -0.34350 0.36270
H6A H 0.08590 -0.29520 0.42940
H7A H -0.10020 -0.38630 0.57320
H8A H -0.22210 -0.44100 0.54350
H9A H -0.17150 -0.33270 0.46290
H10A H -0.04880 -0.29470 0.49270
O2A O -0.3311(14) -0.7934(14) 0.4202(8)
O3A O -0.2538(15) -0.6014(14) 0.3922(8)
O4A O -0.1933(14) -0.8429(14) 0.3664(8)
O5A O -0.1100(13) -0.6514(12) 0.3413(7)
O6A O -0.3472(14) -0.7550(14) 0.3109(8)
N3A N 0.531(2) -0.0943(19) 0.4418(12)
N4A N 0.3427(18) -0.094(2) 0.4760(12)
O7A O 0.4467(15) 0.1042(15) 0.4136(9)
O40A O 0.5837(16) 0.0813(15) 0.9772(9)
H11A H -0.13210 -0.41400 0.38280
H12A H -0.08740 -0.29240 0.38830
W2A W -0.47300(9) -0.84283(8) 0.36288(5)
W3A W -0.37124(9) -0.59868(8) 0.32911(5)
W4A W -0.16750(9) -0.93315(8) 0.30966(5)
W5A W -0.05551(9) -0.66166(8) 0.27065(5)
Ge1A Ge -0.3433(2) -0.80107(19) 0.24035(12)
H13A H 0.53680 -0.06200 0.40810
C6A C 0.432(2) -0.190(2) 0.4266(15)
C7A C 0.6280(19) -0.117(2) 0.4583(15)
H14A H 0.32990 -0.13860 0.50440
C8A C 0.333(3) -0.158(3) 0.4200(16)
C9A C 0.263(3) -0.047(2) 0.4719(14)
Ce1A Ce 0.48762(12) 0.10406(11) 1.06507(7)
O7A* O -0.5533(15) -0.8958(15) 0.4136(9)
O8A O -0.4624(15) -0.6991(15) 0.3744(9)
O9A O -0.4369(14) -0.9625(13) 0.3399(8)
O10A O -0.5647(14) -0.8690(13) 0.2911(8)
O11A O -0.3884(16) -0.4872(15) 0.3577(9)
O12A O -0.4747(15) -0.6451(14) 0.2609(8)
O13A O -0.2676(13) -0.5440(12) 0.2817(7)
O14A O -0.0683(16) -0.9640(15) 0.3510(9)
O15A O -0.2935(16) -1.0425(15) 0.3204(9)
O16A O -0.0856(16) -0.8019(15) 0.2830(9)
O17A O -0.1780(15) -1.0015(14) 0.2360(8)
O18A O -0.3180(14) -0.9171(13) 0.2440(8)
O19A O 0.0795(18) -0.6122(17) 0.298(1)
O20A O -0.0833(15) -0.5360(14) 0.2516(8)
O21A O -0.0521(15) -0.6871(15) 0.1909(9)
O22A O -0.2330(13) -0.7131(12) 0.2201(7)
O23A O -0.4626(14) -0.8186(13) 0.1917(8)
C11A C 0.728(3) -0.021(3) 0.4711(17)
H15A H 0.43070 -0.22700 0.38960
H16A H 0.43050 -0.23540 0.45770
H17A H 0.62390 -0.15400 0.49330
H18A H 0.63280 -0.16210 0.42620
H19A H 0.26840 -0.21970 0.41340
H20A H 0.33020 -0.11830 0.38630
H21A H 0.26930 -0.00390 0.43910
H22A H 0.19240 -0.10100 0.46270
Cu2* Cu -0.50000 -1.00000 0.50000
W6A W -0.43399(9) -1.05704(8) 0.27726(5)
W7A W -0.62385(9) -0.93291(9) 0.20309(5)
W8A W -0.52407(9) -0.68821(9) 0.17027(5)
W9A W -0.22209(10) -0.54796(8) 0.20620(5)
W10A W -0.29852(9) -1.00777(8) 0.16537(5)
W11A W -0.19055(9) -0.74261(8) 0.12646(5)
Ce1A* Ce -0.51238(12) -0.89594(11) 0.06507(7)
H23A H 0.79050 -0.04250 0.47530
H24A H 0.72920 0.01970 0.43760
O24A O -0.5115(19) -1.1767(18) 0.2955(11)
O25A O -0.5408(15) -1.0189(14) 0.2313(8)
O26A O -0.3951(14) -1.1046(13) 0.2108(8)
O27A O -0.7492(17) -1.0011(16) 0.2173(9)
O28A O -0.6417(16) -0.8011(15) 0.1908(9)
O29A O -0.6418(17) -0.9728(16) 0.1269(9)
O30A O -0.5871(17) -0.5969(16) 0.1612(10)
O31A O -0.3744(14) -0.6044(13) 0.1735(8)
O32A O -0.5453(14) -0.7403(14) 0.0952(8)
O33A O -0.1918(16) -0.4192(15) 0.1925(9)
O34A O -0.1836(14) -0.5970(14) 0.1388(8)
O35A O -0.2705(15) -1.0966(14) 0.1210(8)
O36A O -0.1987(14) -0.8763(13) 0.1526(8)
O37A O -0.4103(15) -0.9893(14) 0.1207(8)
O38A O -0.1275(16) -0.7382(15) 0.0674(9)
O39A O -0.3305(14) -0.7843(13) 0.0928(8)
O40A* O -0.4163(16) -0.9187(15) -0.0228(9)
O41A O -0.4748(19) -0.7867(18) -0.0234(10)
O42A O -0.6927(18) -0.9265(17) -0.0027(10)
O40* O -0.5837(16) -1.0813(15) 0.0228(9)
Cu3A Cu -0.2281(3) -0.2768(3) 0.15448(17)
C10A C -0.420(2) -0.835(2) -0.0434(13)
Ce1* Ce -0.48762(12) -1.10406(11) -0.06507(7)
N5A N -0.115(5) -0.252(5) 0.1002(15)
N6A N -0.100(5) -0.176(5) 0.212(2)
N7A N -0.367(5) -0.369(5) 0.088(3)
N8A N -0.337(3) -0.298(5) 0.2094(16)
C12A C -0.365(3) -0.796(3) -0.0918(16)
H25A H -0.09480 -0.30890 0.10020
C13A C -0.030(6) -0.170(6) 0.134(4)
C14A C -0.164(5) -0.250(6) 0.042(3)
C15A C -0.003(6) -0.177(7) 0.198(4)
H26A H -0.10150 -0.11090 0.21020
C16A C -0.085(5) -0.197(6) 0.2715(15)
C17A C -0.457(6) -0.371(7) 0.111(4)
H27A H -0.36730 -0.43490 0.08970
C18A C -0.364(7) -0.351(7) 0.029(3)
C19A C -0.296(5) -0.299(6) 0.2696(15)
C20A C -0.434(3) -0.369(6) 0.177(3)
H28A H -0.34940 -0.23680 0.20920
H29A H -0.28940 -0.76370 -0.07630
H30A H -0.37780 -0.85350 -0.12100
H31A H -0.39240 -0.74640 -0.11000
H32A H 0.03420 -0.16250 0.11830
H33A H -0.04500 -0.10680 0.12930
C21A C -0.265(6) -0.325(6) 0.0088(7)
H34A H -0.17350 -0.18270 0.04120
H35A H -0.11120 -0.24680 0.01790
H36A H 0.05830 -0.11740 0.21800
H37A H 0.00920 -0.24090 0.20630
H38A H -0.05310 -0.25010 0.27420
H39A H -0.03170 -0.13390 0.29450
C22A C -0.177(6) -0.229(6) 0.3014(6)
H40A H -0.47590 -0.31110 0.10050
H41A H -0.51770 -0.43340 0.09390
H42A H -0.41460 -0.41310 0.00430
H43A H -0.39130 -0.29520 0.02080
H44A H -0.34400 -0.28100 0.29170
H45A H -0.30480 -0.37060 0.27530
H46A H -0.43710 -0.43840 0.18650
H47A H -0.49200 -0.35640 0.19220
H48A H -0.25240 -0.38970 0.00280
H49A H -0.27720 -0.30150 -0.03020
H50A H -0.15740 -0.26590 0.33420
H51A H -0.18100 -0.16590 0.31920
#END
