
#######################################################################
#
#                 Cambridge Crystallographic Data Centre
#                                CCDC
#
#######################################################################
#
# If this CIF has been generated from an entry in the Cambridge
# Structural Database, then it will include bibliographic, chemical,
# crystal, experimental, refinement or atomic coordinate data resulting
# from the CCDC's data processing and validation procedures.
#
#######################################################################

data_CSD_CIF_YITYEI
_audit_creation_date 2019-03-14
_audit_creation_method CSD-ConQuest-V1
_database_code_CSD YITYEI
_database_code_depnum_ccdc_archive 'CCDC 1882845'
_chemical_formula_sum 'C64 H190 Cu6 Ge2 La2 N24 O102 W22'
_chemical_formula_moiety
;
2(C10 H24 Cu1 N4 2+),n(C44 H106 Cu4 Ge2 La2 N16 O84 W22 4-),18(H2 O1)
;
_journal_coden_Cambridge 9
_journal_volume 58
_journal_year 2019
_journal_page_first 4365
_journal_name_full 'Inorg.Chem. '
loop_
_publ_author_name
"J.Martin-Caballero"
"B.Artetxe"
"S.Reinoso"
"L.S.Felices"
"P.Vitoria"
"A.Larranaga"
"J.L.Vilas"
"J.M.Gutierrez-Zorrilla"
_chemical_name_systematic
;
catena-[bis((1,4,8,11-tetraazacyclotetradecane)-copper(ii)) 
dohexacontakis(\m-oxo)-bis(\m-acetato)-diaqua-tetrakis(1,4,8,11-tetraazacyclot
etradecane)-hexadeca-oxo-tetra-copper(ii)-di-germanium(iv)-di-lanthanum(iii)-d
ocosa-tungsten(vi) octadecahydrate]
;
_cell_volume   4016.558
_exptl_crystal_colour 'orange'
_exptl_crystal_density_diffrn 3.215
_exptl_special_details
;
Isostructural with the Ce, Pr, Nd, Sm, Eu, Gd, Tb, Dy, Ho, Er, Tm, Yb and Lu 
analogues.
;
_exptl_crystal_description 'plates'
_diffrn_ambient_temperature 100
_refine_special_details
;
O5W,O8W and O11W,O9W disordered over two sites with occupancies 
0.7,0.75:0.25,0.3.
;
#These two values have been output from a single CSD field.
_refine_ls_R_factor_gt 0.057
_refine_ls_wR_factor_gt 0.057
_symmetry_cell_setting triclinic
_symmetry_space_group_name_H-M 'P -1'
_symmetry_Int_Tables_number 2
loop_
_symmetry_equiv_pos_site_id
_symmetry_equiv_pos_as_xyz
1 x,y,z
2 -x,-y,-z
_cell_length_a 13.5867(3)
_cell_length_b 13.8341(3)
_cell_length_c 23.2032(5)
_cell_angle_alpha 92.3404(17)
_cell_angle_beta 99.5031(17)
_cell_angle_gamma 110.1147(19)
_cell_formula_units_Z 1
loop_
_atom_type_symbol
_atom_type_radius_bond
C 0.68
H 0.23
Cu 1.32
Ge 1.17
La 2.07
N 0.68
O 0.68
W 1.62
loop_
_atom_site_label
_atom_site_type_symbol
_atom_site_fract_x
_atom_site_fract_y
_atom_site_fract_z
W1 W 0.20594(4) -0.28545(4) 0.60513(2)
W2 W 0.47082(4) -0.15857(4) 0.63559(2)
W3 W 0.37008(4) -0.40232(4) 0.66869(2)
W4 W 0.16513(4) -0.07166(4) 0.68900(2)
W5 W 0.42982(4) 0.05281(4) 0.72099(2)
W6 W 0.61744(4) -0.07152(4) 0.79314(2)
W7 W 0.51894(4) -0.31424(4) 0.82596(2)
W8 W 0.21922(4) -0.45570(4) 0.78981(2)
W9 W 0.05295(4) -0.34239(4) 0.72641(2)
W10 W 0.29307(4) 0.00141(4) 0.83156(2)
W11 W 0.18485(4) -0.26347(4) 0.86871(2)
La1 La 0.50544(5) -0.10750(5) 0.93291(3)
Ge1 Ge 0.34026(9) -0.20244(9) 0.75677(5)
Cu1 Cu 0.22666(15) -0.72832(14) 0.84206(8)
Cu2 Cu 0.00000 -0.50000 0.50000
Cu3 Cu 0.50000 0.00000 0.50000
N1 N 0.1073(15) -0.8249(15) 0.7756(8)
H1 H 0.11500 -0.88770 0.77340
N2 N 0.3391(17) -0.7106(17) 0.7906(10)
H2 H 0.35510 -0.76930 0.79070
N3 N 0.3502(16) -0.6395(17) 0.9073(9)
H3 H 0.34730 -0.57470 0.90800
N4 N 0.1163(18) -0.7628(18) 0.8911(10)
H4 H 0.09290 -0.70860 0.89180
C1 C 0.1039(18) -0.7912(18) 0.7194(10)
H5 H 0.04510 -0.84170 0.69210
H6 H 0.09130 -0.72620 0.72030
C2 C 0.200(3) -0.778(3) 0.7001(15)
H7 H 0.18810 -0.76330 0.65940
H8 H 0.20820 -0.84420 0.69970
C3 C 0.3091(18) -0.6963(18) 0.7304(10)
H9 H 0.36350 -0.70070 0.70920
H10 H 0.30600 -0.62750 0.72820
C4 C 0.430(2) -0.631(2) 0.8196(13)
H11 H 0.42390 -0.56530 0.81000
H12 H 0.49150 -0.63610 0.80550
C5 C 0.4479(18) -0.6319(18) 0.8859(10)
H13 H 0.46850 -0.69040 0.89640
H14 H 0.50540 -0.56900 0.90420
C6 C 0.351(2) -0.666(2) 0.9664(12)
H15 H 0.37140 -0.72670 0.96990
H16 H 0.40530 -0.60960 0.99270
C7 C 0.256(2) -0.686(2) 0.9837(14)
H17 H 0.23950 -0.62290 0.98090
H18 H 0.26760 -0.69510 1.02520
C8 C 0.150(2) -0.777(2) 0.9542(14)
H19 H 0.16230 -0.84240 0.95610
H20 H 0.09380 -0.78020 0.97550
C9 C 0.027(2) -0.850(2) 0.8642(13)
H21 H -0.03490 -0.85370 0.88090
H22 H 0.04180 -0.91320 0.87020
C10 C 0.006(2) -0.837(2) 0.7984(13)
H23 H -0.05160 -0.89760 0.77750
H24 H -0.01330 -0.77690 0.79240
N5 N -0.0427(9) -0.5431(9) 0.5768(5)
H25 H 0.00150 -0.49270 0.60530
N6 N 0.1203(9) -0.5546(9) 0.5098(5)
H26 H 0.17610 -0.50580 0.53430
C11 C -0.1504(12) -0.5412(12) 0.5745(7)
H27 H -0.16630 -0.54070 0.61380
H28 H -0.20280 -0.60200 0.55060
C12 C 0.1536(11) -0.5571(11) 0.4524(6)
H29 H 0.10540 -0.61800 0.42690
H30 H 0.22520 -0.55900 0.45770
C13 C 0.1053(12) -0.6543(12) 0.5359(7)
H31 H 0.17120 -0.66830 0.54040
H32 H 0.05030 -0.71030 0.50970
C14 C 0.0731(13) -0.6494(14) 0.5957(7)
H33 H 0.07570 -0.71030 0.61430
H34 H 0.12580 -0.58950 0.62020
C15 C -0.0345(11) -0.6434(11) 0.5947(6)
H35 H -0.05180 -0.65270 0.63350
H36 H -0.08700 -0.69980 0.56760
N7 N 0.529(1) -0.0937(9) 0.4418(5)
H37 H 0.53410 -0.06160 0.40830
N8 N 0.3449(9) -0.0934(9) 0.4763(5)
H38 H 0.33220 -0.13860 0.50400
C16 C 0.4311(13) -0.1876(13) 0.4276(8)
H39 H 0.43060 -0.22580 0.39150
H40 H 0.42940 -0.23220 0.45890
C17 C 0.3367(13) -0.1557(13) 0.4208(7)
H41 H 0.27160 -0.21610 0.41360
H42 H 0.33560 -0.11470 0.38790
C18 C 0.2622(14) -0.0464(14) 0.4727(8)
H43 H 0.19230 -0.10060 0.46350
H44 H 0.26830 -0.00220 0.44110
C19 C 0.7278(13) -0.0169(13) 0.4702(7)
H45 H 0.79130 -0.03470 0.47180
H46 H 0.72490 0.02540 0.43810
C20 C 0.6268(12) -0.1192(12) 0.4568(7)
H47 H 0.63220 -0.16230 0.42430
H48 H 0.62320 -0.15760 0.49100
C21 C 0.427(1) -0.1672(10) 1.0446(5)
C22 C 0.3799(11) -0.1971(11) 1.0980(6)
H49 H 0.31180 -0.18890 1.09350
H50 H 0.42690 -0.15360 1.13200
H51 H 0.37090 -0.26810 1.10290
O1 O 0.4289(6) -0.0808(6) 1.0249(3)
O2 O 0.4622(7) -0.2242(7) 1.0171(4)
O3 O 0.1155(7) -0.3238(7) 0.5393(4)
O4 O 0.5492(7) -0.1056(7) 0.5857(4)
O5 O 0.3861(7) -0.5126(7) 0.6407(4)
O6 O 0.0675(7) -0.0401(7) 0.6476(4)
O7 O 0.5063(7) 0.1699(7) 0.7007(4)
O8 O 0.7431(7) -0.0012(7) 0.7788(4)
O9 O 0.5794(8) -0.4041(8) 0.8332(4)
O10 O 0.1926(7) -0.5826(7) 0.8052(4)
O11 O -0.0820(8) -0.3922(8) 0.6975(4)
O12 O 0.2672(6) 0.0901(6) 0.8762(3)
O13 O 0.1166(7) -0.2729(7) 0.9258(4)
O14 O 0.3318(6) -0.2057(6) 0.5787(3)
O15 O 0.2529(6) -0.4005(6) 0.6062(3)
O16 O 0.1936(6) -0.1615(6) 0.6333(4)
O17 O 0.1131(6) -0.3495(6) 0.6580(3)
O18 O 0.4611(6) -0.3015(6) 0.6250(3)
O19 O 0.4359(6) -0.0407(6) 0.6595(4)
O20 O 0.5625(6) -0.1336(6) 0.7063(3)
O21 O 0.4716(6) -0.3572(6) 0.7356(3)
O22 O 0.2650(6) -0.4568(6) 0.7156(3)
O23 O 0.2927(6) 0.0378(6) 0.6766(4)
O24 O 0.0848(6) -0.2020(6) 0.7156(3)
O25 O 0.5353(7) 0.0148(7) 0.7672(4)
O26 O 0.6346(7) -0.2026(7) 0.8036(4)
O27 O 0.3688(7) -0.3961(6) 0.8230(4)
O28 O 0.0819(6) -0.4670(6) 0.7456(3)
O29 O 0.1957(6) -0.1302(6) 0.8446(3)
O30 O 0.1771(6) -0.0043(6) 0.7625(3)
O31 O 0.3880(6) 0.1007(6) 0.7875(3)
O32 O 0.1798(7) -0.4080(7) 0.8570(4)
O33 O 0.0501(6) -0.3172(6) 0.8054(3)
O34 O 0.3434(6) -0.2486(6) 0.6854(3)
O35 O 0.3139(6) -0.0885(6) 0.7519(3)
O36 O 0.4583(6) -0.1847(6) 0.8047(3)
O37 O 0.2292(6) -0.2913(6) 0.7785(3)
O38 O 0.6351(7) -0.0330(7) 0.8699(4)
O39 O 0.5415(7) -0.2597(7) 0.8998(4)
O40 O 0.4024(6) -0.0198(6) 0.8744(3)
O41 O 0.3218(6) -0.2217(6) 0.9031(3)
O42 O 0.6823(7) -0.0716(7) 1.0040(4)
Cu4 Cu 0.77813(15) -0.34676(16) 0.76392(10)
N9 N 0.6839(13) -0.3576(13) 0.6834(7)
H52 H 0.62600 -0.34400 0.69090
N10 N 0.8661(12) -0.3243(11) 0.8441(6)
H53 H 0.93170 -0.32130 0.83840
N11 N 0.8287(12) -0.1956(12) 0.7637(7)
H54 H 0.77220 -0.17760 0.76910
N12 N 0.7225(15) -0.5023(15) 0.7526(8)
H55 H 0.77120 -0.52010 0.73640
C23 C 0.7097(17) -0.5566(17) 0.8030(9)
H56 H 0.69510 -0.62930 0.79210
H57 H 0.64900 -0.55100 0.81780
C24 C 0.8048(18) -0.5159(17) 0.849(1)
H58 H 0.86560 -0.51270 0.83130
H59 H 0.79900 -0.56600 0.87750
C25 C 0.8294(14) -0.4148(14) 0.8812(8)
H60 H 0.88510 -0.40550 0.91520
H61 H 0.76640 -0.41360 0.89520
C26 C 0.8818(17) -0.2248(17) 0.8701(10)
H62 H 0.93750 -0.20560 0.90500
H63 H 0.81650 -0.22300 0.88100
C27 C 0.9149(17) -0.1501(17) 0.8228(9)
H64 H 0.98520 -0.14470 0.81620
H65 H 0.91720 -0.08170 0.83580
C28 C 0.8645(19) -0.1443(19) 0.7181(10)
H66 H 0.92230 -0.16360 0.70800
H67 H 0.89180 -0.07030 0.72950
C29 C 0.774(2) -0.171(2) 0.6653(12)
H68 H 0.71680 -0.15200 0.67630
H69 H 0.79930 -0.13020 0.63430
C30 C 0.729(2) -0.2841(19) 0.6414(11)
H70 H 0.67340 -0.29320 0.60730
H71 H 0.78520 -0.30200 0.62820
C31 C 0.6439(18) -0.4609(17) 0.6565(10)
H72 H 0.69600 -0.47360 0.63630
H73 H 0.57890 -0.47290 0.62800
C32 C 0.6216(16) -0.5315(16) 0.7038(9)
H74 H 0.60180 -0.60270 0.68740
H75 H 0.56260 -0.52530 0.72030
O43 O 0.4321(8) -0.3951(8) 0.5074(4)
O44 O 0.110(2) -0.294(2) 1.0397(13)
O45 O 0.3797(8) -0.6047(8) 0.5265(4)
O46 O 0.056(2) -0.578(2) 0.9168(14)
O47 O -0.1405(12) -0.6160(12) 0.7166(7)
O48? O -0.089(3) -0.616(3) 0.7778(18)
O49 O 0.7430(14) -0.8096(14) 0.7332(8)
O50 O 0.3575(16) -0.4222(16) 0.9549(9)
O51 O 0.1721(15) -0.0708(15) 1.0503(9)
O52? O 0.124(5) -0.092(5) 0.992(3)
O53 O 0.190(4) -0.441(4) 1.006(2)
N5A N 0.0427(9) -0.4569(9) 0.4232(5)
H25A H -0.00150 -0.50730 0.39470
N6A N -0.1203(9) -0.4454(9) 0.4902(5)
H26A H -0.17610 -0.49420 0.46570
C11A C 0.1504(12) -0.4588(12) 0.4255(7)
H27A H 0.16630 -0.45930 0.38620
H28A H 0.20280 -0.39800 0.44940
C12A C -0.1536(11) -0.4429(11) 0.5476(6)
H29A H -0.10540 -0.38200 0.57310
H30A H -0.22520 -0.44100 0.54230
C13A C -0.1053(12) -0.3457(12) 0.4641(7)
H31A H -0.17120 -0.33170 0.45960
H32A H -0.05030 -0.28970 0.49030
C14A C -0.0731(13) -0.3506(14) 0.4043(7)
H33A H -0.07570 -0.28970 0.38570
H34A H -0.12580 -0.41050 0.37980
C15A C 0.0345(11) -0.3566(11) 0.4053(6)
H35A H 0.05180 -0.34730 0.36650
H36A H 0.08700 -0.30020 0.43240
N7A N 0.471(1) 0.0937(9) 0.5582(5)
H37A H 0.46590 0.06160 0.59170
N8A N 0.6551(9) 0.0934(9) 0.5237(5)
H38A H 0.66780 0.13860 0.49600
C16A C 0.5689(13) 0.1876(13) 0.5724(8)
H39A H 0.56940 0.22580 0.60850
H40A H 0.57060 0.23220 0.54110
C17A C 0.6633(13) 0.1557(13) 0.5792(7)
H41A H 0.72840 0.21610 0.58640
H42A H 0.66440 0.11470 0.61210
C18A C 0.7378(14) 0.0464(14) 0.5273(8)
H43A H 0.80770 0.10060 0.53650
H44A H 0.73170 0.00220 0.55890
C19A C 0.2722(13) 0.0169(13) 0.5298(7)
H45A H 0.20870 0.03470 0.52820
H46A H 0.27510 -0.02540 0.56190
C20A C 0.3732(12) 0.1192(12) 0.5432(7)
H47A H 0.36780 0.16230 0.57570
H48A H 0.37680 0.15760 0.50900
W1A W -0.20594(4) -0.71455(4) 0.39487(2)
W2A W -0.47082(4) -0.84143(4) 0.36441(2)
W3A W -0.37008(4) -0.59768(4) 0.33131(2)
W4A W -0.16513(4) -0.92834(4) 0.31100(2)
W5A W -0.42982(4) -1.05281(4) 0.27901(2)
W6A W -0.61744(4) -0.92848(4) 0.20686(2)
W7A W -0.51894(4) -0.68576(4) 0.17404(2)
W8A W -0.21922(4) -0.54430(4) 0.21019(2)
W9A W -0.05295(4) -0.65761(4) 0.27359(2)
W10A W -0.29307(4) -1.00141(4) 0.16844(2)
W11A W -0.18485(4) -0.73653(4) 0.13129(2)
La1A La -0.50544(5) -0.89250(5) 0.06709(3)
Ge1A Ge -0.34026(9) -0.79756(9) 0.24323(5)
Cu1A Cu -0.22666(15) -0.27168(14) 0.15794(8)
N1A N -0.1073(15) -0.1751(15) 0.2244(8)
H1A H -0.11500 -0.11230 0.22660
N2A N -0.3391(17) -0.2894(17) 0.2094(10)
H2A H -0.35510 -0.23070 0.20930
N3A N -0.3502(16) -0.3605(17) 0.0927(9)
H3A H -0.34730 -0.42530 0.09200
N4A N -0.1163(18) -0.2372(18) 0.1089(10)
H4A H -0.09290 -0.29140 0.10820
C1A C -0.1039(18) -0.2088(18) 0.2806(10)
H5A H -0.04510 -0.15830 0.30790
H6A H -0.09130 -0.27380 0.27970
C2A C -0.200(3) -0.222(3) 0.2999(15)
H7A H -0.18810 -0.23670 0.34060
H8A H -0.20820 -0.15580 0.30030
C3A C -0.3091(18) -0.3037(18) 0.2696(10)
H9A H -0.36350 -0.29930 0.29080
H10A H -0.30600 -0.37250 0.27180
C4A C -0.430(2) -0.369(2) 0.1804(13)
H11A H -0.42390 -0.43470 0.19000
H12A H -0.49150 -0.36390 0.19450
C5A C -0.4479(18) -0.3681(18) 0.1141(10)
H13A H -0.46850 -0.30960 0.10360
H14A H -0.50540 -0.43100 0.09580
C6A C -0.351(2) -0.334(2) 0.0336(12)
H15A H -0.37140 -0.27330 0.03010
H16A H -0.40530 -0.39040 0.00730
C7A C -0.256(2) -0.314(2) 0.0163(14)
H17A H -0.23950 -0.37710 0.01910
H18A H -0.26760 -0.30490 -0.02520
C8A C -0.150(2) -0.223(2) 0.0458(14)
H19A H -0.16230 -0.15760 0.04390
H20A H -0.09380 -0.21980 0.02450
C9A C -0.027(2) -0.150(2) 0.1358(13)
H21A H 0.03490 -0.14630 0.11910
H22A H -0.04180 -0.08680 0.12980
C10A C -0.006(2) -0.163(2) 0.2016(13)
H23A H 0.05160 -0.10240 0.22250
H24A H 0.01330 -0.22310 0.20760
C21A C -0.427(1) -0.8328(10) -0.0446(5)
C22A C -0.3799(11) -0.8029(11) -0.0980(6)
H49A H -0.31180 -0.81110 -0.09350
H50A H -0.42690 -0.84640 -0.13200
H51A H -0.37090 -0.73190 -0.10290
O1A O -0.4289(6) -0.9192(6) -0.0249(3)
O2A O -0.4622(7) -0.7758(7) -0.0171(4)
O3A O -0.1155(7) -0.6762(7) 0.4607(4)
O4A O -0.5492(7) -0.8944(7) 0.4143(4)
O5A O -0.3861(7) -0.4874(7) 0.3593(4)
O6A O -0.0675(7) -0.9599(7) 0.3524(4)
O7A O -0.5063(7) -1.1699(7) 0.2993(4)
O8A O -0.7431(7) -0.9988(7) 0.2212(4)
O9A O -0.5794(8) -0.5959(8) 0.1668(4)
O10A O -0.1926(7) -0.4174(7) 0.1948(4)
O11A O 0.0820(8) -0.6078(8) 0.3025(4)
O12A O -0.2672(6) -1.0901(6) 0.1238(3)
O13A O -0.1166(7) -0.7271(7) 0.0742(4)
O14A O -0.3318(6) -0.7943(6) 0.4213(3)
O15A O -0.2529(6) -0.5995(6) 0.3938(3)
O16A O -0.1936(6) -0.8385(6) 0.3667(4)
O17A O -0.1131(6) -0.6505(6) 0.3420(3)
O18A O -0.4611(6) -0.6985(6) 0.3750(3)
O19A O -0.4359(6) -0.9593(6) 0.3405(4)
O20A O -0.5625(6) -0.8664(6) 0.2937(3)
O21A O -0.4716(6) -0.6428(6) 0.2644(3)
O22A O -0.2650(6) -0.5432(6) 0.2844(3)
O23A O -0.2927(6) -1.0378(6) 0.3234(4)
O24A O -0.0848(6) -0.7980(6) 0.2844(3)
O25A O -0.5353(7) -1.0148(7) 0.2328(4)
O26A O -0.6346(7) -0.7974(7) 0.1964(4)
O27A O -0.3688(7) -0.6039(6) 0.1770(4)
O28A O -0.0819(6) -0.5330(6) 0.2544(3)
O29A O -0.1957(6) -0.8698(6) 0.1554(3)
O30A O -0.1771(6) -0.9957(6) 0.2375(3)
O31A O -0.3880(6) -1.1007(6) 0.2125(3)
O32A O -0.1798(7) -0.5920(7) 0.1430(4)
O33A O -0.0501(6) -0.6828(6) 0.1946(3)
O34A O -0.3434(6) -0.7514(6) 0.3146(3)
O35A O -0.3139(6) -0.9115(6) 0.2481(3)
O36A O -0.4583(6) -0.8153(6) 0.1953(3)
O37A O -0.2292(6) -0.7087(6) 0.2215(3)
O38A O -0.6351(7) -0.9670(7) 0.1301(4)
O39A O -0.5415(7) -0.7403(7) 0.1002(4)
O40A O -0.4024(6) -0.9802(6) 0.1256(3)
O41A O -0.3218(6) -0.7783(6) 0.0969(3)
O42A O -0.6823(7) -0.9284(7) -0.0040(4)
La1* La -0.49456(5) -1.10750(5) -0.06709(3)
La1A* La 0.49456(5) 0.10750(5) 1.06709(3)
Cu3* Cu -0.50000 -1.00000 0.50000
O1* O -0.5711(6) -1.0808(6) 0.0249(3)
O1A* O 0.5711(6) 0.0808(6) 0.9751(3)
O4A* O 0.4508(7) 0.1056(7) 0.4143(4)
#END
