
#######################################################################
#
#                 Cambridge Crystallographic Data Centre
#                                CCDC
#
#######################################################################
#
# If this CIF has been generated from an entry in the Cambridge
# Structural Database, then it will include bibliographic, chemical,
# crystal, experimental, refinement or atomic coordinate data resulting
# from the CCDC's data processing and validation procedures.
#
#######################################################################

data_CSD_CIF_YITYOS
_audit_creation_date 2019-03-14
_audit_creation_method CSD-ConQuest-V1
_database_code_CSD YITYOS
_database_code_depnum_ccdc_archive 'CCDC 1882847'
_chemical_formula_sum 'C64 H190 Cu6 Ge2 N24 O102 Pr2 W22'
_chemical_formula_moiety
;
2(C10 H24 Cu1 N4 2+),n(C44 H106 Cu4 Ge2 N16 O84 Pr2 W22 4-),18(H2 O1)
;
_journal_coden_Cambridge 9
_journal_volume 58
_journal_year 2019
_journal_page_first 4365
_journal_name_full 'Inorg.Chem. '
loop_
_publ_author_name
"J.Martin-Caballero"
"B.Artetxe"
"S.Reinoso"
"L.S.Felices"
"P.Vitoria"
"A.Larranaga"
"J.L.Vilas"
"J.M.Gutierrez-Zorrilla"
_chemical_name_systematic
;
catena-[bis((1,4,8,11-tetraazacyclotetradecane)-copper(ii)) 
dohexacontakis(\m-oxo)-bis(\m-acetato)-diaqua-tetrakis(1,4,8,11-tetraazacyclot
etradecane)-hexadeca-oxo-tetra-copper(ii)-di-germanium(iv)-di-praseodymium(iii
)-docosa-tungsten(vi) octadecahydrate]
;
_cell_volume   4001.927
_exptl_crystal_colour 'orange'
_exptl_crystal_density_diffrn 3.229
_exptl_special_details
;
Isostructural with the La, Ce, Nd, Sm, Eu, Gd, Tb, Dy, Ho, Er, Tm, Yb and Lu 
analogues.
;
_exptl_crystal_description 'plates'
_diffrn_ambient_temperature 100
_refine_special_details
;
The structure is disordered.

;
#These two values have been output from a single CSD field.
_refine_ls_R_factor_gt 0.0489
_refine_ls_wR_factor_gt 0.0489
_symmetry_cell_setting triclinic
_symmetry_space_group_name_H-M 'P -1'
_symmetry_Int_Tables_number 2
loop_
_symmetry_equiv_pos_site_id
_symmetry_equiv_pos_as_xyz
1 x,y,z
2 -x,-y,-z
_cell_length_a 13.5947(2)
_cell_length_b 13.85635(19)
_cell_length_c 23.0964(4)
_cell_angle_alpha 92.5406(13)
_cell_angle_beta 99.6878(15)
_cell_angle_gamma 110.1352(15)
_cell_formula_units_Z 1
loop_
_atom_type_symbol
_atom_type_radius_bond
C 0.68
H 0.23
Cu 1.32
Ge 1.17
N 0.68
O 0.68
Pr 2.03
W 1.62
loop_
_atom_site_label
_atom_site_type_symbol
_atom_site_fract_x
_atom_site_fract_y
_atom_site_fract_z
W1 W 0.20845(4) -0.28541(3) 0.605684(19)
W2 W 0.47352(4) -0.15743(3) 0.63644(2)
W3 W 0.37384(4) -0.40071(3) 0.669602(19)
W4 W 0.16790(4) -0.07129(3) 0.689925(19)
W5 W 0.43268(4) 0.05405(3) 0.72203(2)
W6 W 0.62081(4) -0.06912(4) 0.79527(2)
W7 W 0.52311(4) -0.31091(3) 0.82805(2)
W8 W 0.22364(4) -0.45400(3) 0.79098(2)
W9 W 0.05680(3) -0.34133(3) 0.72768(2)
W10 W 0.29706(3) 0.00310(3) 0.833185(18)
W11 W 0.19064(4) -0.26098(3) 0.870434(19)
Pr1 Pr 0.50861(4) -0.10458(4) 0.93357(2)
Ge1 Ge 0.34358(8) -0.20096(8) 0.75789(5)
Cu1 Cu 0.23072(13) -0.72648(12) 0.84264(7)
Cu2 Cu 0.00000 -0.50000 0.50000
Cu3 Cu 0.50000 0.00000 0.50000
N1 N 0.1116(12) -0.8223(11) 0.7789(6)
H1 H 0.12020 -0.88450 0.77700
N2 N 0.3412(12) -0.7081(11) 0.7920(7)
H2 H 0.35690 -0.76690 0.79250
N3 N 0.3555(13) -0.6374(12) 0.9083(7)
H3 H 0.35340 -0.57240 0.90890
N4 N 0.1210(13) -0.7610(12) 0.8935(7)
H4 H 0.09840 -0.70640 0.89440
C1 C 0.1060(14) -0.7896(13) 0.7185(8)
H5 H 0.09450 -0.72430 0.71860
H6 H 0.04640 -0.84070 0.69160
C2 C 0.2070(16) -0.7779(15) 0.6980(9)
H7 H 0.21730 -0.84370 0.69990
H8 H 0.19610 -0.76680 0.65660
C3 C 0.3078(15) -0.6971(13) 0.7277(8)
H9 H 0.30050 -0.63020 0.72480
H10 H 0.36390 -0.69850 0.70710
C4 C 0.4341(16) -0.6292(14) 0.8188(9)
H11 H 0.42840 -0.56320 0.81020
H12 H 0.49360 -0.63560 0.80300
C5 C 0.4548(15) -0.6323(14) 0.8837(8)
H13 H 0.51450 -0.57090 0.90230
H14 H 0.47330 -0.69230 0.89270
C6 C 0.3571(15) -0.6631(14) 0.9686(8)
H15 H 0.37570 -0.72450 0.97210
H16 H 0.41250 -0.60700 0.99480
C7 C 0.2565(17) -0.6816(16) 0.9877(10)
H17 H 0.23980 -0.61920 0.98430
H18 H 0.26790 -0.69070 1.02940
C8 C 0.1576(17) -0.7724(16) 0.9566(10)
H19 H 0.17330 -0.83550 0.95850
H20 H 0.10000 -0.77910 0.97770
C9 C 0.0299(18) -0.8472(17) 0.8642(10)
H21 H 0.04250 -0.91110 0.87030
H22 H -0.03230 -0.84950 0.88020
C10 C 0.0116(19) -0.8364(18) 0.8025(11)
H23 H -0.00980 -0.77720 0.79620
H24 H -0.04570 -0.89760 0.78160
N5 N 0.0434(8) -0.4583(8) 0.4222(4)
H25 H -0.00160 -0.50850 0.39350
N6 N -0.1195(8) -0.4439(8) 0.4888(4)
H26 H -0.17600 -0.49260 0.46430
C11 C 0.1499(11) -0.4619(10) 0.4247(6)
H27 H 0.20330 -0.40130 0.44860
H28 H 0.16550 -0.46390 0.38530
C12 C -0.1505(11) -0.4403(10) 0.5478(6)
H29 H -0.22110 -0.43620 0.54320
H30 H -0.10030 -0.37980 0.57320
C13 C -0.1045(12) -0.3464(11) 0.4636(6)
H31 H -0.04870 -0.29050 0.48990
H32 H -0.17000 -0.33180 0.45920
C14 C -0.0735(12) -0.3534(11) 0.4035(6)
H33 H -0.12540 -0.41500 0.37980
H34 H -0.07840 -0.29430 0.38390
C15 C 0.0359(11) -0.3567(10) 0.4047(6)
H35 H 0.08770 -0.30050 0.43250
H36 H 0.05350 -0.34670 0.36590
N7 N 0.4701(10) 0.0934(9) 0.5576(5)
H37 H 0.46630 0.06180 0.59130
N8 N 0.6566(9) 0.0946(9) 0.5246(5)
H38 H 0.66900 0.13980 0.49690
C16 C 0.5656(12) 0.1889(11) 0.5725(7)
H39 H 0.56570 0.22610 0.60900
H40 H 0.56690 0.23370 0.54130
C17 C 0.6609(13) 0.1553(12) 0.5790(7)
H41 H 0.72620 0.21560 0.58730
H42 H 0.66100 0.11400 0.61180
C18 C 0.7400(14) 0.0490(13) 0.5284(8)
H43 H 0.73510 0.00570 0.56050
H44 H 0.80960 0.10380 0.53720
C19 C 0.2710(13) 0.0162(12) 0.5294(7)
H45 H 0.27290 -0.02590 0.56180
H46 H 0.20830 0.03510 0.52740
C20 C 0.3713(12) 0.1155(11) 0.5431(7)
H47 H 0.37400 0.15430 0.50910
H48 H 0.36630 0.15820 0.57610
C21 C 0.4238(9) -0.1666(8) 1.0421(4)
C22 C 0.3779(10) -0.1984(10) 1.0963(5)
H49 H 0.34920 -0.14870 1.10930
H50 H 0.43310 -0.20170 1.12720
H51 H 0.32200 -0.26520 1.08700
O1 O 0.4262(6) -0.0793(5) 1.0232(3)
O2 O 0.4660(6) -0.2193(6) 1.0171(3)
O3 O 0.1174(6) -0.3236(6) 0.5393(3)
O4 O 0.5521(7) -0.1045(6) 0.5869(4)
O5 O 0.3917(6) -0.5100(5) 0.6428(3)
O6 O 0.0702(7) -0.0408(6) 0.6481(4)
O7 O 0.5086(7) 0.1711(6) 0.7021(4)
O8 O 0.7449(7) 0.0005(6) 0.7809(4)
O9 O 0.5859(7) -0.3994(7) 0.8358(4)
O10 O 0.1972(6) -0.5799(6) 0.8059(3)
O11 O -0.0792(7) -0.3920(6) 0.6990(4)
O12 O 0.2709(6) 0.0919(5) 0.8778(3)
O13 O 0.1252(7) -0.2693(6) 0.9290(4)
O14 O 0.3341(6) -0.2057(5) 0.5796(3)
O15 O 0.2560(6) -0.4006(5) 0.6066(3)
O16 O 0.1936(6) -0.1610(5) 0.6334(3)
O17 O 0.1149(6) -0.3505(6) 0.6582(3)
O18 O 0.4646(6) -0.3003(6) 0.6263(3)
O19 O 0.4376(6) -0.0401(5) 0.6595(3)
O20 O 0.5639(6) -0.1316(5) 0.7075(3)
O21 O 0.4751(6) -0.3554(5) 0.7372(3)
O22 O 0.2684(6) -0.4557(5) 0.7162(3)
O23 O 0.2932(6) 0.0378(6) 0.6773(3)
O24 O 0.0884(6) -0.2009(5) 0.7171(3)
O25 O 0.5398(6) 0.0170(5) 0.7691(3)
O26 O 0.6387(6) -0.2003(6) 0.8052(3)
O27 O 0.3709(6) -0.3950(5) 0.8243(3)
O28 O 0.0848(6) -0.4668(5) 0.7463(3)
O29 O 0.2007(6) -0.1278(5) 0.8465(3)
O30 O 0.1799(6) -0.0027(5) 0.7634(3)
O31 O 0.3912(6) 0.1024(5) 0.7890(3)
O32 O 0.1849(6) -0.4059(5) 0.8589(3)
O33 O 0.0552(6) -0.3151(5) 0.8075(3)
O34 O 0.3458(5) -0.2477(5) 0.6863(3)
O35 O 0.3168(5) -0.0867(5) 0.7531(3)
O36 O 0.4622(6) -0.1823(5) 0.8062(3)
O37 O 0.2342(5) -0.2898(5) 0.7802(3)
O38 O 0.6373(6) -0.0293(6) 0.8720(3)
O39 O 0.5442(6) -0.2554(6) 0.9014(3)
O40 O 0.4069(6) -0.0176(5) 0.8767(3)
O41 O 0.3281(6) -0.2185(5) 0.9043(3)
O42 O 0.6811(6) -0.0716(6) 1.0020(3)
Cu4 Cu 0.78215(14) -0.34431(13) 0.76575(9)
N9 N 0.6860(11) -0.3556(10) 0.6853(6)
H52 H 0.62830 -0.34130 0.69230
N10 N 0.8695(10) -0.3223(9) 0.8454(5)
H53 H 0.93490 -0.31930 0.83920
N11 N 0.8334(11) -0.1932(10) 0.7684(6)
H54 H 0.77730 -0.17520 0.77460
N12 N 0.7269(12) -0.5009(11) 0.7548(7)
H55 H 0.77570 -0.51810 0.73820
C23 C 0.7172(16) -0.5551(15) 0.8071(9)
H56 H 0.70240 -0.62790 0.79610
H57 H 0.65720 -0.54960 0.82270
C24 C 0.8162(16) -0.5134(15) 0.8546(9)
H58 H 0.81070 -0.56170 0.88420
H59 H 0.87720 -0.51050 0.83730
C25 C 0.8366(14) -0.4102(12) 0.8844(7)
H60 H 0.89270 -0.39640 0.91910
H61 H 0.77250 -0.41050 0.89770
C26 C 0.8874(15) -0.2212(13) 0.8729(8)
H62 H 0.94480 -0.20190 0.90730
H63 H 0.82320 -0.21850 0.88480
C27 C 0.9182(15) -0.1485(13) 0.8239(8)
H64 H 0.92200 -0.07940 0.83660
H65 H 0.98750 -0.14430 0.81630
C28 C 0.8663(16) -0.1429(15) 0.7171(9)
H66 H 0.92300 -0.16300 0.70630
H67 H 0.89410 -0.06840 0.72710
C29 C 0.7764(19) -0.1715(17) 0.6668(11)
H68 H 0.79870 -0.12980 0.63540
H69 H 0.71860 -0.15480 0.67890
C30 C 0.7348(17) -0.2831(15) 0.6428(9)
H70 H 0.79300 -0.30060 0.63200
H71 H 0.68150 -0.29340 0.60720
C31 C 0.6466(16) -0.4601(14) 0.6566(9)
H72 H 0.69890 -0.47150 0.63600
H73 H 0.58090 -0.47320 0.62830
C32 C 0.6265(17) -0.5320(15) 0.7063(9)
H74 H 0.56730 -0.52680 0.72290
H75 H 0.60780 -0.60310 0.69000
O43 O 0.4316(8) -0.3947(7) 0.5061(4)
O44 O 0.7462(15) 0.1942(13) 0.7374(8)
O45 O 0.3792(8) -0.6038(7) 0.5263(4)
O46 O 0.0495(18) -0.5809(17) 0.9112(11)
O47 O -0.1334(13) -0.6142(12) 0.7212(7)
O48 O 0.8336(19) 0.0733(17) 0.9580(11)
O49 O 0.3534(12) -0.4213(10) 0.9575(6)
O50 O 0.105(3) -0.282(3) 1.0440(19)
O51 O 0.177(3) -0.443(3) 1.003(2)
O52? O 1.006(7) 0.006(6) 0.968(3)
N5A N -0.0434(8) -0.5417(8) 0.5778(4)
H25A H 0.00160 -0.49150 0.60650
N6A N 0.1195(8) -0.5561(8) 0.5112(4)
H26A H 0.17600 -0.50740 0.53570
C11A C -0.1499(11) -0.5381(10) 0.5753(6)
H27A H -0.20330 -0.59870 0.55140
H28A H -0.16550 -0.53610 0.61470
C12A C 0.1505(11) -0.5597(10) 0.4522(6)
H29A H 0.22110 -0.56380 0.45680
H30A H 0.10030 -0.62020 0.42680
C13A C 0.1045(12) -0.6536(11) 0.5364(6)
H31A H 0.04870 -0.70950 0.51010
H32A H 0.17000 -0.66820 0.54080
C14A C 0.0735(12) -0.6466(11) 0.5965(6)
H33A H 0.12540 -0.58500 0.62020
H34A H 0.07840 -0.70570 0.61610
C15A C -0.0359(11) -0.6433(10) 0.5953(6)
H35A H -0.08770 -0.69950 0.56750
H36A H -0.05350 -0.65330 0.63410
N7A N 0.5299(10) -0.0934(9) 0.4424(5)
H37A H 0.53370 -0.06180 0.40870
N8A N 0.3434(9) -0.0946(9) 0.4754(5)
H38A H 0.33100 -0.13980 0.50310
C16A C 0.4344(12) -0.1889(11) 0.4275(7)
H39A H 0.43430 -0.22610 0.39100
H40A H 0.43310 -0.23370 0.45870
C17A C 0.3391(13) -0.1553(12) 0.4210(7)
H41A H 0.27380 -0.21560 0.41270
H42A H 0.33900 -0.11400 0.38820
C18A C 0.2600(14) -0.0490(13) 0.4716(8)
H43A H 0.26490 -0.00570 0.43950
H44A H 0.19040 -0.10380 0.46280
C19A C 0.7290(13) -0.0162(12) 0.4706(7)
H45A H 0.72710 0.02590 0.43820
H46A H 0.79170 -0.03510 0.47260
C20A C 0.6287(12) -0.1155(11) 0.4569(7)
H47A H 0.62600 -0.15430 0.49090
H48A H 0.63370 -0.15820 0.42390
W1A W -0.20845(4) -0.71459(3) 0.394316(19)
W2A W -0.47352(4) -0.84257(3) 0.36356(2)
W3A W -0.37384(4) -0.59929(3) 0.330398(19)
W4A W -0.16790(4) -0.92871(3) 0.310075(19)
W5A W -0.43268(4) -1.05405(3) 0.27797(2)
W6A W -0.62081(4) -0.93088(4) 0.20473(2)
W7A W -0.52311(4) -0.68909(3) 0.17195(2)
W8A W -0.22364(4) -0.54600(3) 0.20902(2)
W9A W -0.05680(3) -0.65867(3) 0.27232(2)
W10A W -0.29706(3) -1.00310(3) 0.166815(18)
W11A W -0.19064(4) -0.73902(3) 0.129566(19)
Pr1A Pr -0.50861(4) -0.89542(4) 0.06643(2)
Ge1A Ge -0.34358(8) -0.79904(8) 0.24211(5)
Cu1A Cu -0.23072(13) -0.27352(12) 0.15736(7)
N1A N -0.1116(12) -0.1777(11) 0.2211(6)
H1A H -0.12020 -0.11550 0.22300
N2A N -0.3412(12) -0.2919(11) 0.2080(7)
H2A H -0.35690 -0.23310 0.20750
N3A N -0.3555(13) -0.3626(12) 0.0917(7)
H3A H -0.35340 -0.42760 0.09110
N4A N -0.1210(13) -0.2390(12) 0.1065(7)
H4A H -0.09840 -0.29360 0.10560
C1A C -0.1060(14) -0.2104(13) 0.2815(8)
H5A H -0.09450 -0.27570 0.28140
H6A H -0.04640 -0.15930 0.30840
C2A C -0.2070(16) -0.2221(15) 0.3020(9)
H7A H -0.21730 -0.15630 0.30010
H8A H -0.19610 -0.23320 0.34340
C3A C -0.3078(15) -0.3029(13) 0.2723(8)
H9A H -0.30050 -0.36980 0.27520
H10A H -0.36390 -0.30150 0.29290
C4A C -0.4341(16) -0.3708(14) 0.1812(9)
H11A H -0.42840 -0.43680 0.18980
H12A H -0.49360 -0.36440 0.19700
C5A C -0.4548(15) -0.3677(14) 0.1163(8)
H13A H -0.51450 -0.42910 0.09770
H14A H -0.47330 -0.30770 0.10730
C6A C -0.3571(15) -0.3369(14) 0.0314(8)
H15A H -0.37570 -0.27550 0.02790
H16A H -0.41250 -0.39300 0.00520
C7A C -0.2565(17) -0.3184(16) 0.0123(10)
H17A H -0.23980 -0.38080 0.01570
H18A H -0.26790 -0.30930 -0.02940
C8A C -0.1576(17) -0.2276(16) 0.0434(10)
H19A H -0.17330 -0.16450 0.04150
H20A H -0.10000 -0.22090 0.02230
C9A C -0.0299(18) -0.1528(17) 0.1358(10)
H21A H -0.04250 -0.08890 0.12970
H22A H 0.03230 -0.15050 0.11980
C10A C -0.0116(19) -0.1636(18) 0.1975(11)
H23A H 0.00980 -0.22280 0.20380
H24A H 0.04570 -0.10240 0.21840
C21A C -0.4238(9) -0.8334(8) -0.0421(4)
C22A C -0.3779(10) -0.8016(10) -0.0963(5)
H49A H -0.34920 -0.85130 -0.10930
H50A H -0.43310 -0.79830 -0.12720
H51A H -0.32200 -0.73480 -0.08700
O1A O -0.4262(6) -0.9207(5) -0.0232(3)
O2A O -0.4660(6) -0.7807(6) -0.0171(3)
O3A O -0.1174(6) -0.6764(6) 0.4607(3)
O4A O -0.5521(7) -0.8955(6) 0.4131(4)
O5A O -0.3917(6) -0.4900(5) 0.3572(3)
O6A O -0.0702(7) -0.9592(6) 0.3519(4)
O7A O -0.5086(7) -1.1711(6) 0.2979(4)
O8A O -0.7449(7) -1.0005(6) 0.2191(4)
O9A O -0.5859(7) -0.6006(7) 0.1642(4)
O10A O -0.1972(6) -0.4201(6) 0.1941(3)
O11A O 0.0792(7) -0.6080(6) 0.3010(4)
O12A O -0.2709(6) -1.0919(5) 0.1222(3)
O13A O -0.1252(7) -0.7307(6) 0.0710(4)
O14A O -0.3341(6) -0.7943(5) 0.4204(3)
O15A O -0.2560(6) -0.5994(5) 0.3934(3)
O16A O -0.1936(6) -0.8390(5) 0.3666(3)
O17A O -0.1149(6) -0.6495(6) 0.3418(3)
O18A O -0.4646(6) -0.6997(6) 0.3737(3)
O19A O -0.4376(6) -0.9599(5) 0.3405(3)
O20A O -0.5639(6) -0.8684(5) 0.2925(3)
O21A O -0.4751(6) -0.6446(5) 0.2628(3)
O22A O -0.2684(6) -0.5443(5) 0.2838(3)
O23A O -0.2932(6) -1.0378(6) 0.3227(3)
O24A O -0.0884(6) -0.7991(5) 0.2829(3)
O25A O -0.5398(6) -1.0170(5) 0.2309(3)
O26A O -0.6387(6) -0.7997(6) 0.1948(3)
O27A O -0.3709(6) -0.6050(5) 0.1757(3)
O28A O -0.0848(6) -0.5332(5) 0.2537(3)
O29A O -0.2007(6) -0.8722(5) 0.1535(3)
O30A O -0.1799(6) -0.9973(5) 0.2366(3)
O31A O -0.3912(6) -1.1024(5) 0.2110(3)
O32A O -0.1849(6) -0.5941(5) 0.1411(3)
O33A O -0.0552(6) -0.6849(5) 0.1925(3)
O34A O -0.3458(5) -0.7523(5) 0.3137(3)
O35A O -0.3168(5) -0.9133(5) 0.2469(3)
O36A O -0.4622(6) -0.8177(5) 0.1938(3)
O37A O -0.2342(5) -0.7102(5) 0.2198(3)
O38A O -0.6373(6) -0.9707(6) 0.1280(3)
O39A O -0.5442(6) -0.7446(6) 0.0986(3)
O40A O -0.4069(6) -0.9824(5) 0.1233(3)
O41A O -0.3281(6) -0.7815(5) 0.0957(3)
O42A O -0.6811(6) -0.9284(6) -0.0020(3)
Pr1* Pr -0.49139(4) -1.10458(4) -0.06643(2)
Pr1A* Pr 0.49139(4) 0.10458(4) 1.06643(2)
Cu3* Cu -0.50000 -1.00000 0.50000
O1* O -0.5738(6) -1.0793(5) 0.0232(3)
O1A* O 0.5738(6) 0.0793(5) 0.9768(3)
O4A* O 0.4479(7) 0.1045(6) 0.4131(4)
#END
