
#######################################################################
#
#                 Cambridge Crystallographic Data Centre
#                                CCDC
#
#######################################################################
#
# If this CIF has been generated from an entry in the Cambridge
# Structural Database, then it will include bibliographic, chemical,
# crystal, experimental, refinement or atomic coordinate data resulting
# from the CCDC's data processing and validation procedures.
#
#######################################################################

data_CSD_CIF_YITYUY
_audit_creation_date 2019-03-14
_audit_creation_method CSD-ConQuest-V1
_database_code_CSD YITYUY
_database_code_depnum_ccdc_archive 'CCDC 1882848'
_chemical_formula_sum 'C64 H190 Cu6 Ge2 N24 Nd2 O102 W22'
_chemical_formula_moiety
;
2(C10 H24 Cu1 N4 2+),n(C44 H106 Cu4 Ge2 N16 Nd2 O84 W22 4-),18(H2 O1)
;
_journal_coden_Cambridge 9
_journal_volume 58
_journal_year 2019
_journal_page_first 4365
_journal_name_full 'Inorg.Chem. '
loop_
_publ_author_name
"J.Martin-Caballero"
"B.Artetxe"
"S.Reinoso"
"L.S.Felices"
"P.Vitoria"
"A.Larranaga"
"J.L.Vilas"
"J.M.Gutierrez-Zorrilla"
_chemical_name_systematic
;
catena-[bis((1,4,8,11-tetraazacyclotetradecane)-copper(ii)) 
dohexacontakis(\m-oxo)-bis(\m-acetato)-diaqua-tetrakis(1,4,8,11-tetraazacyclot
etradecane)-hexadeca-oxo-tetra-copper(ii)-di-germanium(iv)-di-neodymium(iii)-d
ocosa-tungsten(vi) octadecahydrate]
;
_cell_volume   3995.981
_exptl_crystal_colour 'orange'
_exptl_crystal_density_diffrn 3.236
_exptl_special_details
;
Isostructural with the La, Ce, Pr, Sm, Eu, Gd, Tb, Dy, Ho, Er, Tm, Yb and Lu 
analogues.
;
_exptl_crystal_description 'plates'
_diffrn_ambient_temperature 100
_refine_special_details
;
O2W and O10W disordered over two sites with occupancies 0.7:0.3.

;
#These two values have been output from a single CSD field.
_refine_ls_R_factor_gt 0.0365
_refine_ls_wR_factor_gt 0.0365
_symmetry_cell_setting triclinic
_symmetry_space_group_name_H-M 'P -1'
_symmetry_Int_Tables_number 2
loop_
_symmetry_equiv_pos_site_id
_symmetry_equiv_pos_as_xyz
1 x,y,z
2 -x,-y,-z
_cell_length_a 13.6064(3)
_cell_length_b 13.8468(3)
_cell_length_c 23.0559(5)
_cell_angle_alpha 92.5406(16)
_cell_angle_beta 99.8360(16)
_cell_angle_gamma 110.0390(17)
_cell_formula_units_Z 1
loop_
_atom_type_symbol
_atom_type_radius_bond
C 0.68
H 0.23
Cu 1.32
Ge 1.17
N 0.68
Nd 2.01
O 0.68
W 1.62
loop_
_atom_site_label
_atom_site_type_symbol
_atom_site_fract_x
_atom_site_fract_y
_atom_site_fract_z
W1 W 0.20888(3) -0.28528(3) 0.60579(2)
W2 W 0.47383(3) -0.15739(3) 0.63669(2)
W3 W 0.37459(3) -0.40049(3) 0.67004(2)
W4 W 0.16859(3) -0.07079(3) 0.69003(2)
W5 W 0.43325(3) 0.05431(3) 0.72238(2)
W6 W 0.62134(3) -0.06909(3) 0.79611(2)
W7 W 0.52385(3) -0.31036(3) 0.82912(2)
W8 W 0.22453(3) -0.45339(3) 0.79143(2)
W9 W 0.05772(3) -0.34036(3) 0.72809(2)
W10 W 0.29803(3) 0.00378(3) 0.83374(2)
W11 W 0.19228(3) -0.26006(3) 0.87123(2)
Nd1 Nd 0.50896(3) -0.10400(3) 0.93389(2)
Ge1 Ge 0.34434(6) -0.20047(6) 0.75843(4)
Cu1 Cu 0.23174(10) -0.72577(10) 0.84335(6)
Cu2 Cu 0.00000 -0.50000 0.50000
Cu3 Cu 0.50000 0.00000 0.50000
N1 N 0.1109(8) -0.8224(8) 0.7790(4)
H1 H 0.11980 -0.88970 0.77690
N2 N 0.3408(8) -0.7097(8) 0.7908(5)
H2 H 0.35820 -0.77280 0.79050
N3 N 0.3570(8) -0.6354(9) 0.9066(5)
H3 H 0.35500 -0.56530 0.90730
N4 N 0.1247(9) -0.7560(9) 0.8958(5)
H4 H 0.09860 -0.69820 0.89610
C1 C 0.1029(9) -0.7919(9) 0.7201(5)
H5 H 0.09030 -0.72710 0.72020
H6 H 0.04290 -0.84390 0.69380
C2 C 0.2063(11) -0.7790(11) 0.6970(6)
H7 H 0.21850 -0.84390 0.69860
H8 H 0.19430 -0.76710 0.65570
C3 C 0.3049(10) -0.6958(9) 0.7281(5)
H9 H 0.29340 -0.63050 0.72720
H10 H 0.36160 -0.69170 0.70680
C4 C 0.4342(11) -0.6272(11) 0.8191(6)
H11 H 0.42650 -0.56180 0.81070
H12 H 0.49490 -0.63130 0.80380
C5 C 0.454(1) -0.6315(10) 0.8856(5)
H13 H 0.47090 -0.69240 0.89470
H14 H 0.51370 -0.57080 0.90510
C6 C 0.3618(10) -0.662(1) 0.9679(6)
H15 H 0.41940 -0.60720 0.99390
H16 H 0.37770 -0.72510 0.97040
C7 C 0.2592(11) -0.6771(11) 0.9885(7)
H17 H 0.24240 -0.61500 0.98320
H18 H 0.27160 -0.68280 1.03070
C8 C 0.1621(11) -0.7684(11) 0.9594(6)
H19 H 0.17900 -0.83090 0.96110
H20 H 0.10500 -0.77550 0.98090
C9 C 0.0348(12) -0.8473(12) 0.8670(7)
H21 H -0.02730 -0.85350 0.88400
H22 H 0.05220 -0.90900 0.87270
C10 C 0.0114(12) -0.8361(12) 0.8017(7)
H23 H -0.04610 -0.89720 0.78090
H24 H -0.00980 -0.77660 0.79580
N5 N -0.0429(6) -0.5412(6) 0.5779(3)
H25 H 0.00540 -0.48730 0.60900
N6 N 0.1202(6) -0.5555(6) 0.5112(4)
H26 H 0.18080 -0.50310 0.53780
C11 C -0.1501(8) -0.5373(8) 0.5747(5)
H27 H -0.16610 -0.53520 0.61410
H28 H -0.20310 -0.59820 0.55080
C12 C 0.1517(8) -0.5593(8) 0.4529(4)
H29 H 0.10220 -0.62030 0.42750
H30 H 0.22260 -0.56270 0.45800
C13 C 0.1034(8) -0.6535(8) 0.5370(5)
H31 H 0.16830 -0.66930 0.54150
H32 H 0.04740 -0.70890 0.51050
C14 C 0.0721(9) -0.6470(9) 0.5978(5)
H33 H 0.07540 -0.70690 0.61710
H34 H 0.12420 -0.58600 0.62210
C15 C -0.0369(8) -0.6419(8) 0.5950(5)
H35 H -0.08810 -0.69740 0.56650
H36 H -0.05630 -0.65250 0.63340
N7 N 0.4693(7) 0.0937(7) 0.5582(4)
H37 H 0.46490 0.05960 0.59450
N8 N 0.6551(7) 0.0961(7) 0.5243(4)
H38 H 0.66840 0.14450 0.49430
C16 C 0.5643(9) 0.1888(9) 0.5730(5)
H39 H 0.56390 0.22610 0.60950
H40 H 0.56490 0.23330 0.54170
C17 C 0.6623(9) 0.1574(9) 0.5801(5)
H41 H 0.72680 0.21840 0.58780
H42 H 0.66400 0.11640 0.61310
C18 C 0.7393(10) 0.0483(10) 0.5290(6)
H43 H 0.73310 0.00450 0.56080
H44 H 0.80930 0.10230 0.53830
C19 C 0.2722(9) 0.0165(9) 0.5295(5)
H45 H 0.20890 0.03450 0.52810
H46 H 0.27560 -0.02550 0.56180
C20 C 0.3700(9) 0.1155(9) 0.5428(5)
H47 H 0.37260 0.15340 0.50830
H48 H 0.36430 0.15870 0.57540
C21 C 0.4262(7) -0.1639(7) 1.0426(4)
C22 C 0.3777(8) -0.1961(8) 1.0949(4)
H49 H 0.34980 -0.14560 1.10770
H50 H 0.32090 -0.26200 1.08440
H51 H 0.43100 -0.20150 1.12650
O1 O 0.4254(4) -0.0790(4) 1.0225(3)
O2 O 0.4684(5) -0.2173(5) 1.0176(3)
O3 O 0.1183(5) -0.3238(4) 0.5393(3)
O4 O 0.5525(5) -0.1052(5) 0.5863(3)
O5 O 0.3917(5) -0.5104(4) 0.6424(3)
O6 O 0.0703(5) -0.0398(5) 0.6483(3)
O7 O 0.5090(5) 0.1707(5) 0.7028(3)
O8 O 0.7458(5) 0.0012(5) 0.7825(3)
O9 O 0.5873(5) -0.3988(5) 0.8379(3)
O10 O 0.1971(5) -0.5799(5) 0.8062(3)
O11 O -0.0773(5) -0.3903(5) 0.6999(3)
O12 O 0.2724(5) 0.0925(5) 0.8786(3)
O13 O 0.1272(5) -0.2678(5) 0.9300(3)
O14 O 0.3343(4) -0.2059(4) 0.5796(3)
O15 O 0.2565(4) -0.4000(4) 0.6068(2)
O16 O 0.1949(4) -0.1614(4) 0.6336(2)
O17 O 0.1166(4) -0.3501(4) 0.6586(2)
O18 O 0.4651(4) -0.2999(4) 0.6265(2)
O19 O 0.4370(4) -0.0401(4) 0.6597(3)
O20 O 0.5650(4) -0.1319(4) 0.7078(3)
O21 O 0.4759(4) -0.3550(4) 0.7377(2)
O22 O 0.2692(4) -0.4556(4) 0.7168(2)
O23 O 0.2939(4) 0.0381(4) 0.6773(3)
O24 O 0.0884(4) -0.2001(4) 0.7174(2)
O25 O 0.5399(4) 0.0173(4) 0.7697(2)
O26 O 0.6399(5) -0.1999(5) 0.8070(3)
O27 O 0.3731(4) -0.3937(4) 0.8251(2)
O28 O 0.0863(4) -0.4661(4) 0.7467(2)
O29 O 0.2017(4) -0.1273(4) 0.8477(2)
O30 O 0.1805(4) -0.0024(4) 0.7637(2)
O31 O 0.3925(4) 0.1032(4) 0.7890(2)
O32 O 0.1863(4) -0.4054(4) 0.8595(2)
O33 O 0.0563(4) -0.3140(4) 0.8079(2)
O34 O 0.3465(4) -0.2475(4) 0.6871(2)
O35 O 0.3176(4) -0.0863(4) 0.7533(2)
O36 O 0.4626(4) -0.1820(4) 0.8068(2)
O37 O 0.2350(4) -0.2892(4) 0.7808(2)
O38 O 0.6374(4) -0.0300(4) 0.8731(3)
O39 O 0.5442(4) -0.2541(4) 0.9031(3)
O40 O 0.4081(4) -0.0168(4) 0.8769(2)
O41 O 0.3296(4) -0.2172(4) 0.9040(2)
O42 O 0.6822(5) -0.0722(5) 1.0012(3)
Cu4 Cu 0.78315(10) -0.34328(11) 0.76573(6)
N9 N 0.6867(8) -0.3547(8) 0.6854(4)
H52 H 0.62480 -0.33920 0.69310
N10 N 0.8715(7) -0.3240(7) 0.8464(4)
H53 H 0.94140 -0.32220 0.83980
N11 N 0.8344(8) -0.1909(7) 0.7697(4)
H54 H 0.77410 -0.17150 0.77640
N12 N 0.7271(9) -0.4998(8) 0.7544(5)
H55 H 0.77840 -0.51890 0.73570
C23 C 0.7189(12) -0.5548(12) 0.8076(7)
H56 H 0.70450 -0.62750 0.79640
H57 H 0.65910 -0.54980 0.82360
C24 C 0.8169(11) -0.5131(11) 0.8539(6)
H58 H 0.87740 -0.50930 0.83590
H59 H 0.81300 -0.56180 0.88320
C25 C 0.8378(10) -0.4094(9) 0.8850(5)
H60 H 0.89340 -0.39650 0.92000
H61 H 0.77360 -0.40920 0.89790
C26 C 0.8907(10) -0.2209(9) 0.8735(5)
H62 H 0.94870 -0.20180 0.90780
H63 H 0.82720 -0.21810 0.88620
C27 C 0.9199(10) -0.148(1) 0.8263(6)
H64 H 0.98920 -0.14280 0.81850
H65 H 0.92330 -0.07940 0.84010
C28 C 0.8674(11) -0.1413(11) 0.7186(6)
H66 H 0.92430 -0.16140 0.70810
H67 H 0.89470 -0.06680 0.72830
C29 C 0.7771(12) -0.1708(12) 0.6676(7)
H68 H 0.79950 -0.12870 0.63640
H69 H 0.71940 -0.15420 0.67960
C30 C 0.7346(11) -0.2824(11) 0.6424(6)
H70 H 0.79210 -0.30020 0.63090
H71 H 0.68060 -0.29190 0.60710
C31 C 0.6476(11) -0.4599(10) 0.6586(6)
H72 H 0.69960 -0.47250 0.63840
H73 H 0.58180 -0.47410 0.63000
C32 C 0.6280(12) -0.5284(12) 0.7080(7)
H74 H 0.57070 -0.52050 0.72530
H75 H 0.60670 -0.60030 0.69220
O43 O 0.7468(12) -0.8058(11) 0.7409(7)
O44 O 0.105(2) -0.284(2) 1.0434(12)
O45? O 0.132(3) -0.255(3) 1.116(2)
O46 O 0.3800(6) -0.6048(6) 0.5268(3)
O47 O 0.0528(11) -0.5773(11) 0.9133(7)
O48 O -0.1350(8) -0.6150(8) 0.7203(5)
O49 O 0.4328(5) -0.3946(5) 0.5065(3)
O50 O 0.3545(8) -0.4201(7) 0.9585(4)
O51 O 0.1622(15) -0.0793(15) 1.0375(9)
O52 O 0.176(2) -0.439(2) 1.0032(13)
N5A N 0.0429(6) -0.4588(6) 0.4221(3)
H25A H -0.00540 -0.51270 0.39100
N6A N -0.1202(6) -0.4445(6) 0.4888(4)
H26A H -0.18080 -0.49690 0.46220
C11A C 0.1501(8) -0.4627(8) 0.4253(5)
H27A H 0.16610 -0.46480 0.38590
H28A H 0.20310 -0.40180 0.44920
C12A C -0.1517(8) -0.4407(8) 0.5471(4)
H29A H -0.10220 -0.37970 0.57250
H30A H -0.22260 -0.43730 0.54200
C13A C -0.1034(8) -0.3465(8) 0.4630(5)
H31A H -0.16830 -0.33070 0.45850
H32A H -0.04740 -0.29110 0.48950
C14A C -0.0721(9) -0.3530(9) 0.4022(5)
H33A H -0.07540 -0.29310 0.38290
H34A H -0.12420 -0.41400 0.37790
C15A C 0.0369(8) -0.3581(8) 0.4050(5)
H35A H 0.08810 -0.30260 0.43350
H36A H 0.05630 -0.34750 0.36660
N7A N 0.5307(7) -0.0937(7) 0.4418(4)
H37A H 0.53510 -0.05960 0.40550
N8A N 0.3449(7) -0.0961(7) 0.4757(4)
H38A H 0.33160 -0.14450 0.50570
C16A C 0.4357(9) -0.1888(9) 0.4270(5)
H39A H 0.43610 -0.22610 0.39050
H40A H 0.43510 -0.23330 0.45830
C17A C 0.3377(9) -0.1574(9) 0.4199(5)
H41A H 0.27320 -0.21840 0.41220
H42A H 0.33600 -0.11640 0.38690
C18A C 0.2607(10) -0.0483(10) 0.4710(6)
H43A H 0.26690 -0.00450 0.43920
H44A H 0.19070 -0.10230 0.46170
C19A C 0.7278(9) -0.0165(9) 0.4705(5)
H45A H 0.79110 -0.03450 0.47190
H46A H 0.72440 0.02550 0.43820
C20A C 0.6300(9) -0.1155(9) 0.4572(5)
H47A H 0.62740 -0.15340 0.49170
H48A H 0.63570 -0.15870 0.42460
W1A W -0.20888(3) -0.71472(3) 0.39421(2)
W2A W -0.47383(3) -0.84261(3) 0.36331(2)
W3A W -0.37459(3) -0.59951(3) 0.32996(2)
W4A W -0.16859(3) -0.92921(3) 0.30997(2)
W5A W -0.43325(3) -1.05431(3) 0.27762(2)
W6A W -0.62134(3) -0.93091(3) 0.20389(2)
W7A W -0.52385(3) -0.68964(3) 0.17088(2)
W8A W -0.22453(3) -0.54661(3) 0.20857(2)
W9A W -0.05772(3) -0.65964(3) 0.27191(2)
W10A W -0.29803(3) -1.00378(3) 0.16626(2)
W11A W -0.19228(3) -0.73994(3) 0.12877(2)
Nd1A Nd -0.50896(3) -0.89600(3) 0.06611(2)
Ge1A Ge -0.34434(6) -0.79953(6) 0.24157(4)
Cu1A Cu -0.23174(10) -0.27423(10) 0.15665(6)
N1A N -0.1109(8) -0.1776(8) 0.2210(4)
H1A H -0.11980 -0.11030 0.22310
N2A N -0.3408(8) -0.2903(8) 0.2092(5)
H2A H -0.35820 -0.22720 0.20950
N3A N -0.3570(8) -0.3646(9) 0.0934(5)
H3A H -0.35500 -0.43470 0.09270
N4A N -0.1247(9) -0.2440(9) 0.1042(5)
H4A H -0.09860 -0.30180 0.10390
C1A C -0.1029(9) -0.2081(9) 0.2799(5)
H5A H -0.09030 -0.27290 0.27980
H6A H -0.04290 -0.15610 0.30620
C2A C -0.2063(11) -0.2210(11) 0.3030(6)
H7A H -0.21850 -0.15610 0.30140
H8A H -0.19430 -0.23290 0.34430
C3A C -0.3049(10) -0.3042(9) 0.2719(5)
H9A H -0.29340 -0.36950 0.27280
H10A H -0.36160 -0.30830 0.29320
C4A C -0.4342(11) -0.3728(11) 0.1809(6)
H11A H -0.42650 -0.43820 0.18930
H12A H -0.49490 -0.36870 0.19620
C5A C -0.454(1) -0.3685(10) 0.1144(5)
H13A H -0.47090 -0.30760 0.10530
H14A H -0.51370 -0.42920 0.09490
C6A C -0.3618(10) -0.338(1) 0.0321(6)
H15A H -0.41940 -0.39280 0.00610
H16A H -0.37770 -0.27490 0.02960
C7A C -0.2592(11) -0.3229(11) 0.0115(7)
H17A H -0.24240 -0.38500 0.01680
H18A H -0.27160 -0.31720 -0.03070
C8A C -0.1621(11) -0.2316(11) 0.0406(6)
H19A H -0.17900 -0.16910 0.03890
H20A H -0.10500 -0.22450 0.01910
C9A C -0.0348(12) -0.1527(12) 0.1330(7)
H21A H 0.02730 -0.14650 0.11600
H22A H -0.05220 -0.09100 0.12730
C10A C -0.0114(12) -0.1639(12) 0.1983(7)
H23A H 0.04610 -0.10280 0.21910
H24A H 0.00980 -0.22340 0.20420
C21A C -0.4262(7) -0.8361(7) -0.0426(4)
C22A C -0.3777(8) -0.8039(8) -0.0949(4)
H49A H -0.34980 -0.85440 -0.10770
H50A H -0.32090 -0.73800 -0.08440
H51A H -0.43100 -0.79850 -0.12650
O1A O -0.4254(4) -0.9210(4) -0.0225(3)
O2A O -0.4684(5) -0.7827(5) -0.0176(3)
O3A O -0.1183(5) -0.6762(4) 0.4607(3)
O4A O -0.5525(5) -0.8948(5) 0.4137(3)
O5A O -0.3917(5) -0.4896(4) 0.3576(3)
O6A O -0.0703(5) -0.9602(5) 0.3517(3)
O7A O -0.5090(5) -1.1707(5) 0.2972(3)
O8A O -0.7458(5) -1.0012(5) 0.2175(3)
O9A O -0.5873(5) -0.6012(5) 0.1621(3)
O10A O -0.1971(5) -0.4201(5) 0.1938(3)
O11A O 0.0773(5) -0.6097(5) 0.3001(3)
O12A O -0.2724(5) -1.0925(5) 0.1214(3)
O13A O -0.1272(5) -0.7322(5) 0.0700(3)
O14A O -0.3343(4) -0.7941(4) 0.4204(3)
O15A O -0.2565(4) -0.6000(4) 0.3932(2)
O16A O -0.1949(4) -0.8386(4) 0.3664(2)
O17A O -0.1166(4) -0.6499(4) 0.3414(2)
O18A O -0.4651(4) -0.7001(4) 0.3735(2)
O19A O -0.4370(4) -0.9599(4) 0.3403(3)
O20A O -0.5650(4) -0.8681(4) 0.2922(3)
O21A O -0.4759(4) -0.6450(4) 0.2623(2)
O22A O -0.2692(4) -0.5444(4) 0.2832(2)
O23A O -0.2939(4) -1.0381(4) 0.3227(3)
O24A O -0.0884(4) -0.7999(4) 0.2826(2)
O25A O -0.5399(4) -1.0173(4) 0.2303(2)
O26A O -0.6399(5) -0.8001(5) 0.1930(3)
O27A O -0.3731(4) -0.6063(4) 0.1749(2)
O28A O -0.0863(4) -0.5339(4) 0.2533(2)
O29A O -0.2017(4) -0.8727(4) 0.1523(2)
O30A O -0.1805(4) -0.9976(4) 0.2363(2)
O31A O -0.3925(4) -1.1032(4) 0.2110(2)
O32A O -0.1863(4) -0.5946(4) 0.1405(2)
O33A O -0.0563(4) -0.6860(4) 0.1921(2)
O34A O -0.3465(4) -0.7525(4) 0.3129(2)
O35A O -0.3176(4) -0.9137(4) 0.2467(2)
O36A O -0.4626(4) -0.8180(4) 0.1932(2)
O37A O -0.2350(4) -0.7108(4) 0.2192(2)
O38A O -0.6374(4) -0.9700(4) 0.1269(3)
O39A O -0.5442(4) -0.7459(4) 0.0969(3)
O40A O -0.4081(4) -0.9832(4) 0.1231(2)
O41A O -0.3296(4) -0.7828(4) 0.0960(2)
O42A O -0.6822(5) -0.9278(5) -0.0012(3)
Nd1* Nd -0.49104(3) -1.10400(3) -0.06611(2)
Nd1A* Nd 0.49104(3) 0.10400(3) 1.06611(2)
Cu3* Cu -0.50000 -1.00000 0.50000
O1* O -0.5746(4) -1.0790(4) 0.0225(3)
O1A* O 0.5746(4) 0.0790(4) 0.9775(3)
O4A* O 0.4475(5) 0.1052(5) 0.4137(3)
#END
