
#######################################################################
#
#                 Cambridge Crystallographic Data Centre
#                                CCDC
#
#######################################################################
#
# If this CIF has been generated from an entry in the Cambridge
# Structural Database, then it will include bibliographic, chemical,
# crystal, experimental, refinement or atomic coordinate data resulting
# from the CCDC's data processing and validation procedures.
#
#######################################################################

data_CSD_CIF_YITZEJ
_audit_creation_date 2019-03-14
_audit_creation_method CSD-ConQuest-V1
_database_code_CSD YITZEJ
_database_code_depnum_ccdc_archive 'CCDC 1882850'
_chemical_formula_sum 'C64 H190 Cu6 Eu2 Ge2 N24 O102 W22'
_chemical_formula_moiety
;
2(C10 H24 Cu1 N4 2+),n(C44 H106 Cu4 Eu2 Ge2 N16 O84 W22 4-),18(H2 O1)
;
_journal_coden_Cambridge 9
_journal_volume 58
_journal_year 2019
_journal_page_first 4365
_journal_name_full 'Inorg.Chem. '
loop_
_publ_author_name
"J.Martin-Caballero"
"B.Artetxe"
"S.Reinoso"
"L.S.Felices"
"P.Vitoria"
"A.Larranaga"
"J.L.Vilas"
"J.M.Gutierrez-Zorrilla"
_chemical_name_systematic
;
catena-[bis((1,4,8,11-tetraazacyclotetradecane)-copper(ii)) 
dohexacontakis(\m-oxo)-bis(\m-acetato)-diaqua-tetrakis(1,4,8,11-tetraazacyclot
etradecane)-hexadeca-oxo-tetra-copper(ii)-di-europium(iii)-di-germanium(iv)-do
cosa-tungsten(vi) octadecahydrate]
;
_cell_volume   3961.819
_exptl_crystal_colour 'orange'
_exptl_crystal_density_diffrn 3.271
_exptl_special_details
;
as-synthesised phase
Isostructural with the La, Ce, Pr, Nd, Sm, Gd, Tb, Dy, Ho, Er, Tm, Yb and Lu 
analogues.
;
_exptl_crystal_description 'plates'
_diffrn_ambient_temperature 100
#These two values have been output from a single CSD field.
_refine_ls_R_factor_gt 0.0384
_refine_ls_wR_factor_gt 0.0384
_symmetry_cell_setting triclinic
_symmetry_space_group_name_H-M 'P -1'
_symmetry_Int_Tables_number 2
loop_
_symmetry_equiv_pos_site_id
_symmetry_equiv_pos_as_xyz
1 x,y,z
2 -x,-y,-z
_cell_length_a 13.5580(3)
_cell_length_b 13.8266(3)
_cell_length_c 22.9904(6)
_cell_angle_alpha 92.667(2)
_cell_angle_beta 99.921(2)
_cell_angle_gamma 110.057(2)
_cell_formula_units_Z 1
loop_
_atom_type_symbol
_atom_type_radius_bond
C 0.68
H 0.23
Cu 1.32
Eu 1.98
Ge 1.17
N 0.68
O 0.68
W 1.62
loop_
_atom_site_label
_atom_site_type_symbol
_atom_site_fract_x
_atom_site_fract_y
_atom_site_fract_z
W1 W 0.20862(3) -0.28444(3) 0.60641(2)
O1 O 0.1177(6) -0.3232(6) 0.5390(4)
O2 O 0.3346(6) -0.2059(5) 0.5802(3)
O3 O 0.2562(6) -0.3987(5) 0.6088(3)
O4 O 0.1961(6) -0.1593(5) 0.6346(3)
O5 O 0.1167(6) -0.3476(5) 0.6593(3)
O6 O 0.3466(5) -0.2467(5) 0.6876(3)
Cu1 Cu 0.00000 -0.50000 0.50000
W2 W 0.47454(4) -0.15677(3) 0.63758(2)
W3 W 0.37442(3) -0.40022(3) 0.67109(2)
W4 W 0.16919(4) -0.06870(3) 0.69097(2)
W5 W 0.05770(3) -0.33851(3) 0.72935(2)
Ge1 Ge 0.34464(8) -0.19925(8) 0.75941(5)
N1 N -0.0420(8) -0.5426(7) 0.5782(5)
N2 N 0.1200(8) -0.5559(7) 0.5115(5)
O7 O 0.5528(6) -0.1054(6) 0.5868(4)
O8 O 0.4652(6) -0.2998(5) 0.6273(3)
O9 O 0.4388(6) -0.0387(6) 0.6600(4)
O10 O 0.5666(6) -0.1303(5) 0.7093(3)
O11 O 0.3907(6) -0.5104(6) 0.6427(4)
O12 O 0.4769(6) -0.3536(5) 0.7399(3)
O13 O 0.2699(5) -0.4543(5) 0.7181(3)
O14 O 0.0702(6) -0.0379(6) 0.6487(4)
O15 O 0.2948(6) 0.0402(5) 0.6788(3)
O16 O 0.0898(6) -0.1973(5) 0.7186(3)
O17 O 0.1827(6) 0.0003(6) 0.7653(4)
O18 O 0.3183(5) -0.0849(5) 0.7541(3)
O19 O -0.0774(6) -0.3879(6) 0.7020(4)
O20 O 0.0870(6) -0.4636(5) 0.7482(3)
O21 O 0.0577(6) -0.3127(6) 0.8092(3)
O22 O 0.2354(5) -0.2873(5) 0.7822(3)
O23 O 0.4627(5) -0.1810(5) 0.8077(3)
H1 H 0.00330 -0.49240 0.60730
C1 C -0.1499(10) -0.5372(10) 0.5746(6)
C2 C -0.0353(10) -0.6425(9) 0.5954(6)
H2 H 0.17670 -0.50730 0.53650
C3 C 0.1512(11) -0.5598(10) 0.4524(6)
C4 C 0.1037(10) -0.6546(10) 0.5365(6)
Cu2 Cu 0.50000 0.00000 0.50000
W6 W 0.43465(4) 0.05611(3) 0.72316(2)
W7 W 0.62234(3) -0.06780(3) 0.79799(2)
W8 W 0.52421(4) -0.30912(3) 0.83099(2)
W9 W 0.22431(4) -0.45233(3) 0.79296(2)
W10 W 0.30026(3) 0.00601(3) 0.83523(2)
W11 W 0.19399(3) -0.25744(3) 0.87313(2)
H3 H -0.16620 -0.53540 0.61400
H4 H -0.20340 -0.59780 0.55030
C5 C 0.0721(11) -0.6490(11) 0.5973(6)
H5 H -0.08790 -0.69840 0.56730
H6 H -0.05340 -0.65220 0.63430
H7 H 0.10100 -0.62060 0.42670
H8 H 0.22220 -0.56350 0.45720
H9 H 0.16910 -0.66980 0.54100
H10 H 0.04760 -0.71000 0.50970
N3 N 0.4696(8) 0.0945(8) 0.5584(5)
N4 N 0.6556(8) 0.0952(8) 0.5247(5)
O24 O 0.5104(6) 0.1730(6) 0.7034(4)
O25 O 0.5405(6) 0.0187(5) 0.7714(3)
O26 O 0.3934(6) 0.1048(5) 0.7905(3)
O27 O 0.7473(6) 0.0020(6) 0.7848(4)
O28 O 0.6409(6) -0.1984(5) 0.8085(3)
O29 O 0.6376(6) -0.0301(5) 0.8746(3)
O30 O 0.5873(6) -0.3982(6) 0.8402(4)
O31 O 0.3729(6) -0.3930(5) 0.8263(3)
O32 O 0.5441(6) -0.2526(6) 0.9047(3)
O33 O 0.1965(6) -0.5781(6) 0.8080(4)
O34 O 0.1869(6) -0.4024(5) 0.8617(3)
O35 O 0.2738(6) 0.0954(5) 0.8806(3)
O36 O 0.2029(6) -0.1242(5) 0.8494(3)
O37 O 0.4108(5) -0.0153(5) 0.8788(3)
O38 O 0.1306(6) -0.2637(6) 0.9332(4)
O39 O 0.3316(6) -0.2153(5) 0.9051(3)
H11 H 0.07440 -0.71000 0.61590
H12 H 0.12520 -0.58900 0.62220
H13 H 0.46560 0.06280 0.59210
C6 C 0.5662(10) 0.1889(10) 0.5735(6)
C7 C 0.3697(11) 0.1155(11) 0.5431(7)
H14 H 0.66810 0.13990 0.49670
C8 C 0.6619(10) 0.1568(10) 0.5796(6)
C9 C 0.7384(11) 0.0477(11) 0.5291(7)
Eu1 Eu 0.50918(4) -0.10285(4) 0.93465(3)
Cu3 Cu 0.23228(12) -0.72371(11) 0.84493(7)
H15 H 0.56690 0.22610 0.61050
H16 H 0.56710 0.23420 0.54250
C10 C 0.2719(11) 0.0179(10) 0.5287(7)
H17 H 0.37260 0.15470 0.50920
H18 H 0.36360 0.15770 0.57630
H19 H 0.72700 0.21770 0.58730
H20 H 0.66390 0.11620 0.61280
H21 H 0.73230 0.00440 0.56130
H22 H 0.80870 0.10190 0.53850
O40 O 0.4240(6) -0.0770(6) 1.0213(3)
O41 O 0.4679(6) -0.2153(6) 1.0164(4)
O42 O 0.6798(6) -0.0746(6) 0.9999(4)
N5 N 0.1145(11) -0.8190(11) 0.7809(7)
N6 N 0.3418(12) -0.7053(12) 0.7925(7)
N7 N 0.3586(12) -0.6336(12) 0.9090(7)
N8 N 0.1239(11) -0.7565(11) 0.8966(7)
H23 H 0.20870 0.03670 0.52610
H24 H 0.27320 -0.02410 0.56130
C11 C 0.4244(9) -0.1630(9) 1.0414(5)
H25 H 0.12310 -0.88140 0.77920
C12 C 0.1001(13) -0.7922(13) 0.7215(7)
C13 C 0.0105(14) -0.8341(14) 0.8015(8)
H26 H 0.35910 -0.76340 0.79290
C14 C 0.3082(12) -0.6939(12) 0.7300(7)
C15 C 0.4309(14) -0.6261(14) 0.8209(8)
H27 H 0.35650 -0.56850 0.90930
C16 C 0.4578(12) -0.6281(12) 0.8879(7)
C17 C 0.3634(12) -0.6571(12) 0.9697(7)
H28 H 0.09990 -0.70260 0.89680
C18 C 0.1632(14) -0.7651(14) 0.9610(8)
C19 C 0.0351(17) -0.8440(16) 0.8664(10)
C20 C 0.3738(9) -0.1979(9) 1.0927(5)
H29 H 0.08180 -0.73030 0.72060
H30 H 0.04250 -0.84820 0.69580
C21 C 0.2084(14) -0.7727(15) 0.6999(9)
H31 H -0.01150 -0.77500 0.79500
H32 H -0.04610 -0.89610 0.78050
H33 H 0.30120 -0.62670 0.72760
H34 H 0.36420 -0.69510 0.70900
H35 H 0.42130 -0.56110 0.81330
H36 H 0.49130 -0.62790 0.80420
H37 H 0.47680 -0.68800 0.89700
H38 H 0.51720 -0.56590 0.90640
H39 H 0.41740 -0.59920 0.99580
H40 H 0.38440 -0.71720 0.97400
C22 C 0.2593(16) -0.6781(16) 0.9874(10)
H41 H 0.10740 -0.76840 0.98310
H42 H 0.17790 -0.82880 0.96390
H43 H -0.02730 -0.84990 0.88340
H44 H 0.05130 -0.90650 0.87180
H45 H 0.34500 -0.14820 1.10580
H46 H 0.42650 -0.20410 1.12450
H47 H 0.31720 -0.26400 1.08090
H48 H 0.22020 -0.83800 0.69920
H49 H 0.19640 -0.75810 0.65890
H50 H 0.27160 -0.68320 1.02970
H51 H 0.24160 -0.61630 0.98220
Cu4 Cu -0.21709(12) -0.34350(12) 0.76580(8)
N9 N -0.3135(10) -0.3550(9) 0.6851(6)
N10 N -0.1292(9) -0.3231(8) 0.8472(5)
N11 N -0.1657(9) -0.1906(8) 0.7700(5)
N12 N -0.2753(11) -0.5012(10) 0.7555(6)
H52 H -0.37120 -0.34090 0.69270
C23 C -0.2666(14) -0.2807(12) 0.6437(8)
C24 C -0.3537(15) -0.4613(13) 0.6598(8)
H53 H -0.06410 -0.32140 0.84110
C25 C -0.1625(14) -0.4096(12) 0.8850(8)
C26 C -0.1094(13) -0.2213(11) 0.8732(7)
H54 H -0.22190 -0.17280 0.77650
C27 C -0.0794(13) -0.1462(12) 0.8260(7)
C28 C -0.1365(12) -0.1439(12) 0.7175(7)
H55 H -0.22680 -0.51880 0.73870
C29 C -0.2815(15) -0.5539(15) 0.8073(9)
C30 C -0.3696(15) -0.5285(15) 0.7081(9)
C31 C -0.2237(14) -0.1730(13) 0.6670(8)
H56 H -0.20980 -0.29880 0.63110
H57 H -0.32160 -0.28980 0.60860
H58 H -0.30320 -0.47420 0.63820
H59 H -0.42120 -0.47630 0.63220
C32 C -0.1856(15) -0.5133(14) 0.8533(9)
H60 H -0.10590 -0.39740 0.91970
H61 H -0.22610 -0.40890 0.89880
H62 H -0.05120 -0.20230 0.90760
H63 H -0.17290 -0.21810 0.88600
H64 H -0.07640 -0.07780 0.83990
H65 H -0.00980 -0.14070 0.81790
H66 H -0.10920 -0.06910 0.72660
H67 H -0.07910 -0.16380 0.70720
H68 H -0.29560 -0.62660 0.79610
H69 H -0.34160 -0.54940 0.82350
H70 H -0.42910 -0.52380 0.72470
H71 H -0.38840 -0.59980 0.69160
H72 H -0.28120 -0.15420 0.67790
H73 H -0.19950 -0.13250 0.63540
H74 H -0.12480 -0.51040 0.83560
H75 H -0.19050 -0.56230 0.88250
O43 O 0.4327(7) -0.3940(6) 0.5076(4)
O44 O 0.7478(11) 0.1941(11) 0.7403(7)
O45 O 0.3806(7) -0.6033(7) 0.5283(4)
O46 O 0.0503(15) -0.5791(14) 0.9134(9)
O47 O -0.1329(11) -0.6144(10) 0.7233(6)
O48 O 0.8405(12) 0.0899(12) 0.9711(7)
O49 O 0.3468(10) -0.4206(9) 0.9622(6)
O50 O 0.098(4) -0.264(4) 1.046(2)
O51 O 0.132(3) -0.430(3) 1.0038(18)
O52 O 0.136(6) -0.247(6) 1.131(4)
O53 O 1.009(6) 0.027(6) 0.963(3)
N1A N 0.0420(8) -0.4574(7) 0.4218(5)
N2A N -0.1200(8) -0.4441(7) 0.4885(5)
H1A H -0.00330 -0.50760 0.39270
C1A C 0.1499(10) -0.4628(10) 0.4254(6)
C2A C 0.0353(10) -0.3575(9) 0.4046(6)
H2A H -0.17670 -0.49270 0.46350
C3A C -0.1512(11) -0.4402(10) 0.5476(6)
C4A C -0.1037(10) -0.3454(10) 0.4635(6)
H3A H 0.16620 -0.46460 0.38600
H4A H 0.20340 -0.40220 0.44970
C5A C -0.0721(11) -0.3510(11) 0.4027(6)
H5A H 0.08790 -0.30160 0.43270
H6A H 0.05340 -0.34780 0.36570
H7A H -0.10100 -0.37940 0.57330
H8A H -0.22220 -0.43650 0.54280
H9A H -0.16910 -0.33020 0.45900
H10A H -0.04760 -0.29000 0.49030
H11A H -0.07440 -0.29000 0.38410
H12A H -0.12520 -0.41100 0.37780
N3A N 0.5304(8) -0.0945(8) 0.4416(5)
N4A N 0.3444(8) -0.0952(8) 0.4753(5)
H13A H 0.53440 -0.06280 0.40790
C6A C 0.4338(10) -0.1889(10) 0.4265(6)
C7A C 0.6303(11) -0.1155(11) 0.4569(7)
H14A H 0.33190 -0.13990 0.50330
C8A C 0.3381(10) -0.1568(10) 0.4204(6)
C9A C 0.2616(11) -0.0477(11) 0.4709(7)
H15A H 0.43310 -0.22610 0.38950
H16A H 0.43290 -0.23420 0.45750
C10A C 0.7281(11) -0.0179(10) 0.4713(7)
H17A H 0.62740 -0.15470 0.49080
H18A H 0.63640 -0.15770 0.42370
H19A H 0.27300 -0.21770 0.41270
H20A H 0.33610 -0.11620 0.38720
H21A H 0.26770 -0.00440 0.43870
H22A H 0.19130 -0.10190 0.46150
H23A H 0.79130 -0.03670 0.47390
H24A H 0.72680 0.02410 0.43870
W1A W -0.20862(3) -0.71556(3) 0.39359(2)
O1A O -0.1177(6) -0.6768(6) 0.4610(4)
O2A O -0.3346(6) -0.7941(5) 0.4198(3)
O3A O -0.2562(6) -0.6013(5) 0.3912(3)
O4A O -0.1961(6) -0.8407(5) 0.3654(3)
O5A O -0.1167(6) -0.6524(5) 0.3407(3)
O6A O -0.3466(5) -0.7533(5) 0.3124(3)
W2A W -0.47454(4) -0.84323(3) 0.36242(2)
W3A W -0.37442(3) -0.59978(3) 0.32891(2)
W4A W -0.16919(4) -0.93130(3) 0.30903(2)
W5A W -0.05770(3) -0.66149(3) 0.27065(2)
Ge1A Ge -0.34464(8) -0.80075(8) 0.24059(5)
O7A O -0.5528(6) -0.8946(6) 0.4132(4)
O8A O -0.4652(6) -0.7002(5) 0.3727(3)
O9A O -0.4388(6) -0.9613(6) 0.3400(4)
O10A O -0.5666(6) -0.8697(5) 0.2907(3)
O11A O -0.3907(6) -0.4896(6) 0.3573(4)
O12A O -0.4769(6) -0.6464(5) 0.2601(3)
O13A O -0.2699(5) -0.5457(5) 0.2819(3)
O14A O -0.0702(6) -0.9621(6) 0.3513(4)
O15A O -0.2948(6) -1.0402(5) 0.3212(3)
O16A O -0.0898(6) -0.8027(5) 0.2814(3)
O17A O -0.1827(6) -1.0003(6) 0.2347(4)
O18A O -0.3183(5) -0.9151(5) 0.2459(3)
O19A O 0.0774(6) -0.6121(6) 0.2980(4)
O20A O -0.0870(6) -0.5364(5) 0.2518(3)
O21A O -0.0577(6) -0.6873(6) 0.1908(3)
O22A O -0.2354(5) -0.7127(5) 0.2178(3)
O23A O -0.4627(5) -0.8190(5) 0.1923(3)
W6A W -0.43465(4) -1.05611(3) 0.27684(2)
W7A W -0.62234(3) -0.93220(3) 0.20201(2)
W8A W -0.52421(4) -0.69088(3) 0.16901(2)
W9A W -0.22431(4) -0.54767(3) 0.20704(2)
W10A W -0.30026(3) -1.00601(3) 0.16477(2)
W11A W -0.19399(3) -0.74256(3) 0.12687(2)
O24A O -0.5104(6) -1.1730(6) 0.2966(4)
O25A O -0.5405(6) -1.0187(5) 0.2286(3)
O26A O -0.3934(6) -1.1048(5) 0.2095(3)
O27A O -0.7473(6) -1.0020(6) 0.2152(4)
O28A O -0.6409(6) -0.8016(5) 0.1915(3)
O29A O -0.6376(6) -0.9699(5) 0.1254(3)
O30A O -0.5873(6) -0.6018(6) 0.1598(4)
O31A O -0.3729(6) -0.6070(5) 0.1737(3)
O32A O -0.5441(6) -0.7474(6) 0.0953(3)
O33A O -0.1965(6) -0.4219(6) 0.1920(4)
O34A O -0.1869(6) -0.5976(5) 0.1383(3)
O35A O -0.2738(6) -1.0954(5) 0.1194(3)
O36A O -0.2029(6) -0.8758(5) 0.1506(3)
O37A O -0.4108(5) -0.9847(5) 0.1212(3)
O38A O -0.1306(6) -0.7363(6) 0.0668(4)
O39A O -0.3316(6) -0.7847(5) 0.0949(3)
Eu1A Eu -0.50918(4) -0.89715(4) 0.06535(3)
Cu3A Cu -0.23228(12) -0.27629(11) 0.15507(7)
O40A O -0.4240(6) -0.9230(6) -0.0213(3)
O41A O -0.4679(6) -0.7847(6) -0.0164(4)
O42A O -0.6798(6) -0.9254(6) 0.0001(4)
N5A N -0.1145(11) -0.1810(11) 0.2191(7)
N6A N -0.3418(12) -0.2947(12) 0.2075(7)
N7A N -0.3586(12) -0.3664(12) 0.0910(7)
N8A N -0.1239(11) -0.2435(11) 0.1034(7)
C11A C -0.4244(9) -0.8370(9) -0.0414(5)
H25A H -0.12310 -0.11860 0.22080
C12A C -0.1001(13) -0.2078(13) 0.2785(7)
C13A C -0.0105(14) -0.1659(14) 0.1985(8)
H26A H -0.35910 -0.23660 0.20710
C14A C -0.3082(12) -0.3061(12) 0.2700(7)
C15A C -0.4309(14) -0.3739(14) 0.1791(8)
H27A H -0.35650 -0.43150 0.09070
C16A C -0.4578(12) -0.3719(12) 0.1121(7)
C17A C -0.3634(12) -0.3429(12) 0.0303(7)
H28A H -0.09990 -0.29740 0.10320
C18A C -0.1632(14) -0.2349(14) 0.0390(8)
C19A C -0.0351(17) -0.1560(16) 0.1336(10)
C20A C -0.3738(9) -0.8021(9) -0.0927(5)
H29A H -0.08180 -0.26970 0.27940
H30A H -0.04250 -0.15180 0.30420
C21A C -0.2084(14) -0.2273(15) 0.3001(9)
H31A H 0.01150 -0.22500 0.20500
H32A H 0.04610 -0.10390 0.21950
H33A H -0.30120 -0.37330 0.27240
H34A H -0.36420 -0.30490 0.29100
H35A H -0.42130 -0.43890 0.18670
H36A H -0.49130 -0.37210 0.19580
H37A H -0.47680 -0.31200 0.10300
H38A H -0.51720 -0.43410 0.09360
H39A H -0.41740 -0.40080 0.00420
H40A H -0.38440 -0.28280 0.02600
C22A C -0.2593(16) -0.3219(16) 0.0126(10)
H41A H -0.10740 -0.23160 0.01690
H42A H -0.17790 -0.17120 0.03610
H43A H 0.02730 -0.15010 0.11660
H44A H -0.05130 -0.09350 0.12820
H45A H -0.34500 -0.85180 -0.10580
H46A H -0.42650 -0.79590 -0.12450
H47A H -0.31720 -0.73600 -0.08090
H48A H -0.22020 -0.16200 0.30080
H49A H -0.19640 -0.24190 0.34110
H50A H -0.27160 -0.31680 -0.02970
H51A H -0.24160 -0.38370 0.01780
O7A* O 0.4472(6) 0.1054(6) 0.4132(4)
Cu2* Cu -0.50000 -1.00000 0.50000
Eu1* Eu -0.49082(4) -1.10285(4) -0.06535(3)
Eu1A* Eu 0.49082(4) 0.10285(4) 1.06535(3)
O40* O -0.5760(6) -1.0770(6) 0.0213(3)
O40A* O 0.5760(6) 0.0770(6) 0.9787(3)
#END
