
#######################################################################
#
#                 Cambridge Crystallographic Data Centre
#                                CCDC
#
#######################################################################
#
# If this CIF has been generated from an entry in the Cambridge
# Structural Database, then it will include bibliographic, chemical,
# crystal, experimental, refinement or atomic coordinate data resulting
# from the CCDC's data processing and validation procedures.
#
#######################################################################

data_CSD_CIF_YITZOT
_audit_creation_date 2019-03-14
_audit_creation_method CSD-ConQuest-V1
_database_code_CSD YITZOT
_database_code_depnum_ccdc_archive 'CCDC 1882852'
_chemical_formula_sum 'C64 H190 Cu6 Ge2 N24 O102 Tb2 W22'
_chemical_formula_moiety
;
2(C10 H24 Cu1 N4 2+),n(C44 H106 Cu4 Ge2 N16 O84 Tb2 W22 4-),18(H2 O1)
;
_journal_coden_Cambridge 9
_journal_volume 58
_journal_year 2019
_journal_page_first 4365
_journal_name_full 'Inorg.Chem. '
loop_
_publ_author_name
"J.Martin-Caballero"
"B.Artetxe"
"S.Reinoso"
"L.S.Felices"
"P.Vitoria"
"A.Larranaga"
"J.L.Vilas"
"J.M.Gutierrez-Zorrilla"
_chemical_name_systematic
;
catena-[bis((1,4,8,11-tetraazacyclotetradecane)-copper(ii)) 
dohexacontakis(\m-oxo)-bis(\m-acetato)-diaqua-tetrakis(1,4,8,11-tetraazacyclot
etradecane)-hexadeca-oxo-tetra-copper(ii)-di-germanium(iv)-di-terbium(iii)-doc
osa-tungsten(vi) octadecahydrate]
;
_cell_volume   3960.069
_exptl_crystal_colour 'orange'
_exptl_crystal_density_diffrn 3.278
_exptl_special_details
;
Isostructural with the La, Ce, Pr, Nd, Sm, Eu, Gd, Dy, Ho, Er, Tm, Yb and Lu 
analogues.
;
_exptl_crystal_description 'plates'
_diffrn_ambient_temperature 100
_refine_special_details
;
The structure is disordered.

;
#These two values have been output from a single CSD field.
_refine_ls_R_factor_gt 0.0382
_refine_ls_wR_factor_gt 0.0382
_symmetry_cell_setting triclinic
_symmetry_space_group_name_H-M 'P -1'
_symmetry_Int_Tables_number 2
loop_
_symmetry_equiv_pos_site_id
_symmetry_equiv_pos_as_xyz
1 x,y,z
2 -x,-y,-z
_cell_length_a 13.5799(4)
_cell_length_b 13.8263(4)
_cell_length_c 22.9456(7)
_cell_angle_alpha 92.643(2)
_cell_angle_beta 100.113(2)
_cell_angle_gamma 109.968(3)
_cell_formula_units_Z 1
loop_
_atom_type_symbol
_atom_type_radius_bond
C 0.68
H 0.23
Cu 1.32
Ge 1.17
N 0.68
O 0.68
Tb 1.94
W 1.62
loop_
_atom_site_label
_atom_site_type_symbol
_atom_site_fract_x
_atom_site_fract_y
_atom_site_fract_z
W1 W 0.21069(3) -0.28536(3) 0.60646(2)
W2 W 0.47617(3) -0.15646(3) 0.63788(2)
W3 W 0.37758(3) -0.39975(3) 0.67128(2)
W4 W 0.17089(3) -0.06980(3) 0.69108(2)
W5 W 0.43584(3) 0.05591(3) 0.72358(2)
W6 W 0.62329(3) -0.06783(3) 0.79884(2)
W7 W 0.52612(3) -0.30796(3) 0.83203(2)
W8 W 0.22698(3) -0.45272(3) 0.79260(2)
W9 W 0.06013(3) -0.33905(3) 0.72947(2)
W10 W 0.30181(3) 0.00498(3) 0.83572(2)
W11 W 0.19733(3) -0.25811(3) 0.87339(2)
Tb1 Tb 0.51072(4) -0.10148(4) 0.93511(2)
Ge1 Ge 0.34639(8) -0.19925(8) 0.75944(5)
Cu1 Cu 0.23426(11) -0.72464(11) 0.84501(6)
Cu2 Cu 0.00000 -0.50000 0.50000
Cu3 Cu 0.50000 0.00000 0.50000
N1 N 0.1132(8) -0.8218(8) 0.7811(5)
H1 H 0.12240 -0.88910 0.77890
N2 N 0.3419(8) -0.7092(9) 0.7912(5)
H2 H 0.36040 -0.77180 0.79050
N3 N 0.3591(8) -0.6314(8) 0.9087(5)
H3 H 0.35650 -0.56140 0.90900
N4 N 0.1285(8) -0.7552(8) 0.8986(5)
H4 H 0.10250 -0.69730 0.89900
C1 C 0.1029(10) -0.7914(11) 0.7213(6)
H5 H 0.09060 -0.72630 0.72180
H6 H 0.04170 -0.84340 0.69530
C2 C 0.2046(10) -0.7793(11) 0.6967(7)
H7 H 0.21710 -0.84420 0.69780
H8 H 0.19120 -0.76720 0.65520
C3 C 0.3065(10) -0.6927(10) 0.7292(6)
H9 H 0.36320 -0.68730 0.70760
H10 H 0.29420 -0.62760 0.72920
C4 C 0.4351(10) -0.6238(10) 0.8207(6)
H11 H 0.42410 -0.55940 0.81330
H12 H 0.49610 -0.62450 0.80440
C5 C 0.4591(10) -0.6284(11) 0.8870(6)
H13 H 0.51970 -0.56790 0.90640
H14 H 0.47550 -0.68990 0.89550
C6 C 0.3658(10) -0.6571(10) 0.9702(6)
H15 H 0.42350 -0.60150 0.99610
H16 H 0.38310 -0.71950 0.97270
C7 C 0.2629(11) -0.6738(11) 0.9922(7)
H17 H 0.27660 -0.68010 1.03450
H18 H 0.24460 -0.61230 0.98750
C8 C 0.1669(11) -0.7664(11) 0.9623(6)
H19 H 0.18540 -0.82820 0.96410
H20 H 0.10950 -0.77500 0.98380
C9 C 0.0379(11) -0.8459(11) 0.8705(7)
H21 H -0.02350 -0.85070 0.88790
H22 H 0.05460 -0.90790 0.87650
C10 C 0.0120(11) -0.8360(11) 0.8027(6)
H23 H -0.04500 -0.89810 0.78200
H24 H -0.01010 -0.77700 0.79620
N5 N -0.0419(7) -0.5403(7) 0.5786(4)
H25 H 0.00730 -0.48620 0.60990
N6 N 0.1201(7) -0.5566(7) 0.5116(4)
H26 H 0.18110 -0.50400 0.53840
C11 C -0.1487(9) -0.5340(9) 0.5748(6)
H27 H -0.16440 -0.53080 0.61430
H28 H -0.20240 -0.59520 0.55100
C12 C 0.1514(9) -0.5616(9) 0.4534(5)
H29 H 0.10210 -0.62320 0.42800
H30 H 0.22280 -0.56440 0.45890
C13 C 0.1035(10) -0.6556(9) 0.5383(6)
H31 H 0.16880 -0.67100 0.54350
H32 H 0.04770 -0.71170 0.51160
C14 C 0.072(1) -0.6479(11) 0.5977(6)
H33 H 0.12540 -0.58760 0.62240
H34 H 0.07420 -0.70830 0.61710
C15 C -0.0373(10) -0.6402(10) 0.5961(6)
H35 H -0.09060 -0.69600 0.56810
H36 H -0.05480 -0.64890 0.63520
N7 N 0.4693(8) 0.0940(8) 0.5590(5)
H37 H 0.46630 0.06100 0.59590
N8 N 0.6549(8) 0.0970(8) 0.5245(5)
H38 H 0.66740 0.14490 0.49410
C16 C 0.5625(10) 0.1894(10) 0.5723(6)
H39 H 0.56230 0.22860 0.60850
H40 H 0.56180 0.23190 0.53990
C17 C 0.6597(10) 0.1594(10) 0.5802(6)
H41 H 0.72390 0.22100 0.58820
H42 H 0.66150 0.11910 0.61360
C18 C 0.7379(10) 0.0522(10) 0.5294(6)
H43 H 0.73300 0.01000 0.56210
H44 H 0.80730 0.10760 0.53870
C19 C 0.2696(11) 0.0141(10) 0.5272(6)
H45 H 0.26990 -0.02710 0.56030
H46 H 0.20610 0.03250 0.52310
C20 C 0.3679(10) 0.113(1) 0.5421(6)
H47 H 0.37110 0.15160 0.50780
H48 H 0.36040 0.15550 0.57470
C21 C 0.4274(8) -0.1600(9) 1.0401(5)
C22 C 0.3782(9) -0.1964(9) 1.0936(5)
H49 H 0.30920 -0.18970 1.08880
H50 H 0.42390 -0.15470 1.12930
H51 H 0.37050 -0.26760 1.09630
O1 O 0.4245(6) -0.0755(6) 1.0206(3)
O2 O 0.4727(6) -0.2117(6) 1.0153(3)
O3 O 0.1197(5) -0.3241(6) 0.5395(3)
O4 O 0.5538(6) -0.1056(6) 0.5873(3)
O5 O 0.3935(5) -0.5101(5) 0.6431(3)
O6 O 0.0719(6) -0.0385(6) 0.6495(3)
O7 O 0.5107(6) 0.1719(6) 0.7046(3)
O8 O 0.7480(6) 0.0025(6) 0.7863(3)
O9 O 0.5894(6) -0.3960(6) 0.8424(3)
O10 O 0.1996(6) -0.5791(6) 0.8081(3)
O11 O -0.0759(6) -0.3889(6) 0.7008(3)
O12 O 0.2761(5) 0.0936(5) 0.8808(3)
O13 O 0.1347(6) -0.2646(6) 0.9335(3)
O14 O 0.3361(5) -0.2063(5) 0.5800(3)
O15 O 0.2569(6) -0.4007(5) 0.6077(3)
O16 O 0.1978(5) -0.1609(5) 0.6354(3)
O17 O 0.1183(5) -0.3489(5) 0.6593(3)
O18 O 0.4687(5) -0.2992(5) 0.6285(3)
O19 O 0.4406(6) -0.0395(6) 0.6611(3)
O20 O 0.5674(5) -0.1296(5) 0.7093(3)
O21 O 0.4787(5) -0.3543(5) 0.7402(3)
O22 O 0.2715(5) -0.4547(5) 0.7180(3)
O23 O 0.2959(5) 0.0387(5) 0.6781(3)
O24 O 0.0920(5) -0.1979(5) 0.7187(3)
O25 O 0.5415(5) 0.0192(5) 0.7701(3)
O26 O 0.6424(5) -0.1975(5) 0.8087(3)
O27 O 0.3758(5) -0.3916(5) 0.8272(3)
O28 O 0.0883(5) -0.4643(5) 0.7480(3)
O29 O 0.2050(5) -0.1261(5) 0.8494(3)
O30 O 0.1832(6) -0.0011(6) 0.7657(3)
O31 O 0.3955(5) 0.1048(5) 0.7909(3)
O32 O 0.1900(5) -0.4029(5) 0.8618(3)
O33 O 0.0597(5) -0.3122(5) 0.8096(3)
O34 O 0.3478(5) -0.2473(5) 0.6877(3)
O35 O 0.3198(5) -0.0854(5) 0.7536(3)
O36 O 0.4652(5) -0.1800(5) 0.8081(3)
O37 O 0.2381(5) -0.2888(5) 0.7820(3)
O38 O 0.6353(6) -0.0305(6) 0.8756(3)
O39 O 0.5457(6) -0.2499(6) 0.9053(3)
O40 O 0.4130(5) -0.0160(5) 0.8786(3)
O41 O 0.3362(5) -0.2142(5) 0.9046(3)
O42 O 0.6813(6) -0.0721(6) 0.9988(3)
Cu4 Cu 0.78543(11) -0.34088(12) 0.76616(7)
N9 N 0.6881(8) -0.3523(8) 0.6853(5)
H52 H 0.62600 -0.33680 0.69300
N10 N 0.8735(8) -0.3235(8) 0.8469(5)
H53 H 0.94310 -0.32230 0.84000
N11 N 0.8392(8) -0.1885(8) 0.7723(5)
H54 H 0.77920 -0.16900 0.77970
N12 N 0.7286(8) -0.4969(8) 0.7550(5)
H55 H 0.77960 -0.51670 0.73640
C23 C 0.7212(11) -0.5499(11) 0.8084(6)
H56 H 0.70360 -0.62330 0.79720
H57 H 0.66320 -0.54190 0.82500
C24 C 0.8208(11) -0.5113(11) 0.8550(6)
H58 H 0.88090 -0.50780 0.83660
H59 H 0.81640 -0.56080 0.88390
C25 C 0.8426(11) -0.4053(10) 0.8875(6)
H60 H 0.77890 -0.40460 0.90100
H61 H 0.89980 -0.39120 0.92220
C26 C 0.8954(10) -0.2190(9) 0.8762(6)
H62 H 0.95490 -0.20070 0.91000
H63 H 0.83300 -0.21540 0.89000
C27 C 0.9238(10) -0.144(1) 0.8263(6)
H64 H 0.92660 -0.07530 0.83970
H65 H 0.99290 -0.13850 0.81790
C28 C 0.8693(11) -0.1382(11) 0.7194(6)
H66 H 0.89580 -0.06370 0.72930
H67 H 0.92690 -0.15700 0.70860
C29 C 0.7803(12) -0.1676(11) 0.6685(7)
H68 H 0.80320 -0.12600 0.63710
H69 H 0.72260 -0.15010 0.68010
C30 C 0.7366(12) -0.2792(11) 0.6433(7)
H70 H 0.79400 -0.29750 0.63170
H71 H 0.68270 -0.28810 0.60760
C31 C 0.6490(12) -0.4607(11) 0.6599(7)
H72 H 0.70140 -0.47380 0.64010
H73 H 0.58300 -0.47630 0.63080
C32 C 0.6294(10) -0.5284(10) 0.7096(6)
H74 H 0.57200 -0.52040 0.72690
H75 H 0.60890 -0.60060 0.69420
O43 O 0.4333(6) -0.3944(6) 0.5074(4)
O44 O 0.3798(6) -0.6052(6) 0.5279(4)
O45 O -0.2492(11) -0.8020(11) 0.7516(7)
O46 O 0.0546(9) -0.5763(9) 0.9123(5)
O47 O -0.1327(8) -0.6152(8) 0.7230(5)
O48 O -0.1309(19) -0.747(2) 0.8920(12)
O49 O 0.3536(7) -0.4189(7) 0.9609(4)
O50 O 0.1642(16) -0.4306(16) 1.0048(10)
O51 O 0.1504(11) -0.1060(12) 1.0216(7)
O52? O 0.161(3) -0.037(3) 1.0549(18)
N5A N 0.0419(7) -0.4597(7) 0.4214(4)
H25A H -0.00730 -0.51380 0.39010
N6A N -0.1201(7) -0.4434(7) 0.4884(4)
H26A H -0.18110 -0.49600 0.46160
C11A C 0.1487(9) -0.4660(9) 0.4252(6)
H27A H 0.16440 -0.46920 0.38570
H28A H 0.20240 -0.40480 0.44900
C12A C -0.1514(9) -0.4384(9) 0.5466(5)
H29A H -0.10210 -0.37680 0.57200
H30A H -0.22280 -0.43560 0.54110
C13A C -0.1035(10) -0.3444(9) 0.4617(6)
H31A H -0.16880 -0.32900 0.45650
H32A H -0.04770 -0.28830 0.48840
C14A C -0.072(1) -0.3521(11) 0.4023(6)
H33A H -0.12540 -0.41240 0.37760
H34A H -0.07420 -0.29170 0.38290
C15A C 0.0373(10) -0.3598(10) 0.4039(6)
H35A H 0.09060 -0.30400 0.43190
H36A H 0.05480 -0.35110 0.36480
N7A N 0.5307(8) -0.0940(8) 0.4410(5)
H37A H 0.53370 -0.06100 0.40410
N8A N 0.3451(8) -0.0970(8) 0.4755(5)
H38A H 0.33260 -0.14490 0.50590
C16A C 0.4375(10) -0.1894(10) 0.4277(6)
H39A H 0.43770 -0.22860 0.39150
H40A H 0.43820 -0.23190 0.46010
C17A C 0.3403(10) -0.1594(10) 0.4198(6)
H41A H 0.27610 -0.22100 0.41180
H42A H 0.33850 -0.11910 0.38640
C18A C 0.2621(10) -0.0522(10) 0.4706(6)
H43A H 0.26700 -0.01000 0.43790
H44A H 0.19270 -0.10760 0.46130
C19A C 0.7304(11) -0.0141(10) 0.4728(6)
H45A H 0.73010 0.02710 0.43970
H46A H 0.79390 -0.03250 0.47690
C20A C 0.6321(10) -0.113(1) 0.4579(6)
H47A H 0.62890 -0.15160 0.49220
H48A H 0.63960 -0.15550 0.42530
W1A W -0.21069(3) -0.71464(3) 0.39354(2)
W2A W -0.47617(3) -0.84354(3) 0.36212(2)
W3A W -0.37758(3) -0.60025(3) 0.32872(2)
W4A W -0.17089(3) -0.93020(3) 0.30892(2)
W5A W -0.43584(3) -1.05591(3) 0.27642(2)
W6A W -0.62329(3) -0.93217(3) 0.20116(2)
W7A W -0.52612(3) -0.69204(3) 0.16797(2)
W8A W -0.22698(3) -0.54728(3) 0.20740(2)
W9A W -0.06013(3) -0.66095(3) 0.27053(2)
W10A W -0.30181(3) -1.00498(3) 0.16428(2)
W11A W -0.19733(3) -0.74189(3) 0.12661(2)
Tb1A Tb -0.51072(4) -0.89852(4) 0.06489(2)
Ge1A Ge -0.34639(8) -0.80075(8) 0.24056(5)
Cu1A Cu -0.23426(11) -0.27536(11) 0.15499(6)
N1A N -0.1132(8) -0.1782(8) 0.2189(5)
H1A H -0.12240 -0.11090 0.22110
N2A N -0.3419(8) -0.2908(9) 0.2088(5)
H2A H -0.36040 -0.22820 0.20950
N3A N -0.3591(8) -0.3686(8) 0.0913(5)
H3A H -0.35650 -0.43860 0.09100
N4A N -0.1285(8) -0.2448(8) 0.1014(5)
H4A H -0.10250 -0.30270 0.10100
C1A C -0.1029(10) -0.2086(11) 0.2787(6)
H5A H -0.09060 -0.27370 0.27820
H6A H -0.04170 -0.15660 0.30470
C2A C -0.2046(10) -0.2207(11) 0.3033(7)
H7A H -0.21710 -0.15580 0.30220
H8A H -0.19120 -0.23280 0.34480
C3A C -0.3065(10) -0.3073(10) 0.2708(6)
H9A H -0.36320 -0.31270 0.29240
H10A H -0.29420 -0.37240 0.27080
C4A C -0.4351(10) -0.3762(10) 0.1793(6)
H11A H -0.42410 -0.44060 0.18670
H12A H -0.49610 -0.37550 0.19560
C5A C -0.4591(10) -0.3716(11) 0.1130(6)
H13A H -0.51970 -0.43210 0.09360
H14A H -0.47550 -0.31010 0.10450
C6A C -0.3658(10) -0.3429(10) 0.0298(6)
H15A H -0.42350 -0.39850 0.00390
H16A H -0.38310 -0.28050 0.02730
C7A C -0.2629(11) -0.3262(11) 0.0078(7)
H17A H -0.27660 -0.31990 -0.03450
H18A H -0.24460 -0.38770 0.01250
C8A C -0.1669(11) -0.2336(11) 0.0377(6)
H19A H -0.18540 -0.17180 0.03590
H20A H -0.10950 -0.22500 0.01620
C9A C -0.0379(11) -0.1541(11) 0.1295(7)
H21A H 0.02350 -0.14930 0.11210
H22A H -0.05460 -0.09210 0.12350
C10A C -0.0120(11) -0.1640(11) 0.1973(6)
H23A H 0.04500 -0.10190 0.21800
H24A H 0.01010 -0.22300 0.20380
C21A C -0.4274(8) -0.8400(9) -0.0401(5)
C22A C -0.3782(9) -0.8036(9) -0.0936(5)
H49A H -0.30920 -0.81030 -0.08880
H50A H -0.42390 -0.84530 -0.12930
H51A H -0.37050 -0.73240 -0.09630
O1A O -0.4245(6) -0.9245(6) -0.0206(3)
O2A O -0.4727(6) -0.7883(6) -0.0153(3)
O3A O -0.1197(5) -0.6759(6) 0.4605(3)
O4A O -0.5538(6) -0.8944(6) 0.4127(3)
O5A O -0.3935(5) -0.4899(5) 0.3569(3)
O6A O -0.0719(6) -0.9615(6) 0.3505(3)
O7A O -0.5107(6) -1.1719(6) 0.2954(3)
O8A O -0.7480(6) -1.0025(6) 0.2137(3)
O9A O -0.5894(6) -0.6040(6) 0.1576(3)
O10A O -0.1996(6) -0.4209(6) 0.1919(3)
O11A O 0.0759(6) -0.6111(6) 0.2992(3)
O12A O -0.2761(5) -1.0936(5) 0.1192(3)
O13A O -0.1347(6) -0.7354(6) 0.0665(3)
O14A O -0.3361(5) -0.7937(5) 0.4200(3)
O15A O -0.2569(6) -0.5993(5) 0.3923(3)
O16A O -0.1978(5) -0.8391(5) 0.3646(3)
O17A O -0.1183(5) -0.6511(5) 0.3407(3)
O18A O -0.4687(5) -0.7008(5) 0.3715(3)
O19A O -0.4406(6) -0.9605(6) 0.3389(3)
O20A O -0.5674(5) -0.8704(5) 0.2907(3)
O21A O -0.4787(5) -0.6457(5) 0.2598(3)
O22A O -0.2715(5) -0.5453(5) 0.2820(3)
O23A O -0.2959(5) -1.0387(5) 0.3219(3)
O24A O -0.0920(5) -0.8021(5) 0.2813(3)
O25A O -0.5415(5) -1.0192(5) 0.2299(3)
O26A O -0.6424(5) -0.8025(5) 0.1913(3)
O27A O -0.3758(5) -0.6084(5) 0.1728(3)
O28A O -0.0883(5) -0.5357(5) 0.2520(3)
O29A O -0.2050(5) -0.8739(5) 0.1506(3)
O30A O -0.1832(6) -0.9989(6) 0.2343(3)
O31A O -0.3955(5) -1.1048(5) 0.2091(3)
O32A O -0.1900(5) -0.5971(5) 0.1382(3)
O33A O -0.0597(5) -0.6878(5) 0.1904(3)
O34A O -0.3478(5) -0.7527(5) 0.3123(3)
O35A O -0.3198(5) -0.9146(5) 0.2464(3)
O36A O -0.4652(5) -0.8200(5) 0.1919(3)
O37A O -0.2381(5) -0.7112(5) 0.2180(3)
O38A O -0.6353(6) -0.9695(6) 0.1244(3)
O39A O -0.5457(6) -0.7501(6) 0.0947(3)
O40A O -0.4130(5) -0.9840(5) 0.1214(3)
O41A O -0.3362(5) -0.7858(5) 0.0954(3)
O42A O -0.6813(6) -0.9279(6) 0.0012(3)
Tb1* Tb -0.48928(4) -1.10148(4) -0.06489(2)
Tb1A* Tb 0.48928(4) 0.10148(4) 1.06489(2)
Cu3* Cu -0.50000 -1.00000 0.50000
O1* O -0.5755(6) -1.0755(6) 0.0206(3)
O1A* O 0.5755(6) 0.0755(6) 0.9794(3)
O4A* O 0.4462(6) 0.1056(6) 0.4127(3)
#END
