
#######################################################################
#
#                 Cambridge Crystallographic Data Centre
#                                CCDC
#
#######################################################################
#
# If this CIF has been generated from an entry in the Cambridge
# Structural Database, then it will include bibliographic, chemical,
# crystal, experimental, refinement or atomic coordinate data resulting
# from the CCDC's data processing and validation procedures.
#
#######################################################################

data_CSD_CIF_YITZUZ
_audit_creation_date 2019-03-14
_audit_creation_method CSD-ConQuest-V1
_database_code_CSD YITZUZ
_database_code_depnum_ccdc_archive 'CCDC 1882853'
_chemical_formula_sum 'C64 H190 Cu6 Dy2 Ge2 N24 O102 W22'
_chemical_formula_moiety
;
2(C10 H24 Cu1 N4 2+),n(C44 H106 Cu4 Dy2 Ge2 N16 O84 W22 4-),18(H2 O1)
;
_journal_coden_Cambridge 9
_journal_volume 58
_journal_year 2019
_journal_page_first 4365
_journal_name_full 'Inorg.Chem. '
loop_
_publ_author_name
"J.Martin-Caballero"
"B.Artetxe"
"S.Reinoso"
"L.S.Felices"
"P.Vitoria"
"A.Larranaga"
"J.L.Vilas"
"J.M.Gutierrez-Zorrilla"
_chemical_name_systematic
;
catena-[bis((1,4,8,11-tetraazacyclotetradecane)-copper(ii)) 
dohexacontakis(\m-oxo)-bis(\m-acetato)-diaqua-tetrakis(1,4,8,11-tetraazacyclot
etradecane)-hexadeca-oxo-tetra-copper(ii)-di-dysprosium(iii)-di-germanium(iv)-
docosa-tungsten(vi) octadecahydrate]
;
_cell_volume   3953.568
_exptl_crystal_colour 'orange'
_exptl_crystal_density_diffrn 3.286
_exptl_special_details
;
Isostructural with the La, Ce, Pr, Nd, Sm, Eu, Gd, Tb, Ho, Er, Tm, Yb and Lu 
analogues.
;
_exptl_crystal_description 'plates'
_diffrn_ambient_temperature 100
_refine_special_details
;
O8W and O11W disordered over two sites with occupancies 0.7:0.3; O9W and O10W 
disordered over two sites with occupancies 0.5:0.5.
;
#These two values have been output from a single CSD field.
_refine_ls_R_factor_gt 0.0609
_refine_ls_wR_factor_gt 0.0609
_symmetry_cell_setting triclinic
_symmetry_space_group_name_H-M 'P -1'
_symmetry_Int_Tables_number 2
loop_
_symmetry_equiv_pos_site_id
_symmetry_equiv_pos_as_xyz
1 x,y,z
2 -x,-y,-z
_cell_length_a 13.5812(2)
_cell_length_b 13.82489(16)
_cell_length_c 22.9028(3)
_cell_angle_alpha 92.6518(11)
_cell_angle_beta 100.0425(13)
_cell_angle_gamma 109.9715(13)
_cell_formula_units_Z 1
loop_
_atom_type_symbol
_atom_type_radius_bond
C 0.68
H 0.23
Cu 1.32
Dy 1.92
Ge 1.17
N 0.68
O 0.68
W 1.62
loop_
_atom_site_label
_atom_site_type_symbol
_atom_site_fract_x
_atom_site_fract_y
_atom_site_fract_z
W1 W 0.20968(4) -0.28480(4) 0.60670(2)
O1 O 0.1184(7) -0.3243(7) 0.5402(4)
O2 O 0.3354(6) -0.2058(6) 0.5802(4)
O3 O 0.2561(6) -0.4006(6) 0.6082(3)
O4 O 0.1953(7) -0.1606(6) 0.6348(4)
O5 O 0.1170(7) -0.3499(7) 0.6600(4)
O6 O 0.3476(6) -0.2475(6) 0.6875(3)
Cu1 Cu 0.00000 -0.50000 0.50000
W2 W 0.47528(4) -0.15661(4) 0.63789(2)
W3 W 0.37604(4) -0.39989(4) 0.67151(2)
W4 W 0.17028(4) -0.06895(4) 0.69157(2)
W5 W 0.05934(4) -0.33827(4) 0.73024(2)
Ge1 Ge 0.34538(10) -0.19917(9) 0.75982(5)
N1 N -0.0422(9) -0.5418(9) 0.5793(5)
N2 N 0.1206(9) -0.5571(8) 0.5112(5)
O7 O 0.5533(7) -0.1045(7) 0.5871(4)
O8 O 0.4676(7) -0.2991(7) 0.6280(4)
O9 O 0.4386(7) -0.0390(7) 0.6606(4)
O10 O 0.5673(7) -0.1308(7) 0.7096(4)
O11 O 0.3925(7) -0.5108(7) 0.6443(4)
O12 O 0.4756(7) -0.3556(6) 0.7397(4)
O13 O 0.2693(7) -0.4554(7) 0.7183(4)
O14 O 0.0706(7) -0.0389(7) 0.6496(4)
O15 O 0.2953(7) 0.0392(7) 0.6789(4)
O16 O 0.0910(6) -0.1964(6) 0.7192(4)
O17 O 0.1829(7) 0.0011(7) 0.7659(4)
O18 O 0.3196(6) -0.0829(6) 0.7550(3)
O19 O -0.0774(8) -0.3878(8) 0.7020(4)
O20 O 0.0874(7) -0.4637(7) 0.7485(4)
O21 O 0.0592(6) -0.3121(6) 0.8108(4)
O22 O 0.2373(6) -0.2876(6) 0.7829(3)
O23 O 0.4654(6) -0.1795(6) 0.8080(3)
H1 H 0.00360 -0.49180 0.60850
C1 C -0.1489(12) -0.5345(11) 0.5757(7)
C2 C -0.0347(11) -0.6411(11) 0.5957(6)
H2 H 0.17750 -0.50870 0.53610
C3 C 0.1506(11) -0.5611(11) 0.4513(6)
C4 C 0.1032(11) -0.6545(11) 0.5366(6)
Cu2 Cu 0.50000 0.00000 0.50000
W6 W 0.43547(4) 0.05639(4) 0.72366(2)
W7 W 0.62265(4) -0.06756(4) 0.79908(2)
W8 W 0.52529(4) -0.30777(4) 0.83228(2)
W9 W 0.22601(4) -0.45237(4) 0.79338(2)
W10 W 0.30211(4) 0.00586(4) 0.83618(2)
W11 W 0.19694(4) -0.25709(4) 0.87424(2)
H3 H -0.16470 -0.53210 0.61530
H4 H -0.20290 -0.59490 0.55150
C5 C 0.0736(12) -0.6481(12) 0.5973(7)
H5 H -0.08730 -0.69670 0.56720
H6 H -0.05260 -0.65160 0.63470
H7 H 0.22150 -0.56500 0.45580
H8 H 0.10020 -0.62200 0.42570
H9 H 0.16770 -0.67120 0.54070
H10 H 0.04620 -0.70950 0.50990
N3 N 0.4698(10) 0.0947(9) 0.5580(6)
N4 N 0.6546(10) 0.0946(10) 0.5239(6)
O24 O 0.5112(8) 0.1728(7) 0.7038(4)
O25 O 0.5425(7) 0.0202(6) 0.7716(4)
O26 O 0.3962(7) 0.1054(7) 0.7919(4)
O27 O 0.7494(7) 0.0043(7) 0.7866(4)
O28 O 0.6420(7) -0.1983(7) 0.8089(4)
O29 O 0.6339(7) -0.0297(7) 0.8762(4)
O30 O 0.5902(8) -0.3956(8) 0.8428(4)
O31 O 0.3747(7) -0.3920(6) 0.8273(4)
O32 O 0.5440(7) -0.2485(7) 0.9048(4)
O33 O 0.1982(7) -0.5791(7) 0.8088(4)
O34 O 0.1893(6) -0.4035(6) 0.8632(4)
O35 O 0.2775(7) 0.0957(7) 0.8812(4)
O36 O 0.2042(6) -0.1238(6) 0.8499(3)
O37 O 0.4121(6) -0.0164(6) 0.8794(3)
O38 O 0.1359(7) -0.2631(7) 0.9350(4)
O39 O 0.3357(6) -0.2126(6) 0.9053(4)
H11 H 0.07620 -0.70880 0.61610
H12 H 0.12700 -0.58790 0.62200
H13 H 0.46690 0.06380 0.59220
C6 C 0.5634(12) 0.1899(12) 0.5723(7)
C7 C 0.3699(13) 0.1168(13) 0.5433(8)
H14 H 0.66590 0.13920 0.49570
C8 C 0.6619(13) 0.1580(13) 0.5800(8)
C9 C 0.7385(13) 0.0507(13) 0.5281(7)
Dy1 Dy 0.50979(5) -0.10151(5) 0.93528(3)
Cu3 Cu 0.23377(15) -0.72374(14) 0.84555(8)
H15 H 0.56310 0.22800 0.60890
H16 H 0.56350 0.23360 0.54040
C10 C 0.2729(13) 0.0172(13) 0.5298(8)
H17 H 0.37150 0.15520 0.50890
H18 H 0.36450 0.15930 0.57660
H19 H 0.72670 0.21900 0.58740
H20 H 0.66390 0.11800 0.61350
H21 H 0.73540 0.00910 0.56120
H22 H 0.80760 0.10630 0.53620
O40 O 0.4250(7) -0.0745(7) 1.0194(4)
O41 O 0.4728(7) -0.2115(7) 1.0162(4)
O42 O 0.6783(7) -0.0733(7) 0.9997(4)
N5 N 0.1133(12) -0.8185(12) 0.7835(7)
N6 N 0.3422(13) -0.7072(13) 0.7913(7)
N7 N 0.3594(11) -0.6325(11) 0.9084(6)
N8 N 0.1275(13) -0.7553(12) 0.8992(7)
H23 H 0.20910 0.03480 0.52730
H24 H 0.27620 -0.02350 0.56300
C11 C 0.4267(10) -0.1616(10) 1.0408(6)
H25 H 0.12190 -0.88100 0.78230
C12 C 0.1041(14) -0.7905(14) 0.7201(8)
C13 C 0.0119(14) -0.8343(14) 0.8041(8)
H26 H 0.35800 -0.76600 0.79080
C14 C 0.3045(13) -0.6952(13) 0.7295(7)
C15 C 0.4396(14) -0.6231(14) 0.8193(8)
H27 H 0.35690 -0.56760 0.90830
C16 C 0.4597(14) -0.6278(14) 0.8861(8)
C17 C 0.3665(14) -0.6555(14) 0.9707(8)
H28 H 0.10300 -0.70180 0.89960
C18 C 0.1683(16) -0.7646(15) 0.9625(9)
C19 C 0.0354(18) -0.8483(17) 0.8688(10)
C20 C 0.3763(11) -0.1966(11) 1.0920(6)
H29 H 0.04480 -0.84450 0.69410
H30 H 0.08990 -0.72640 0.71850
C21 C 0.2052(16) -0.7781(16) 0.6990(9)
H31 H -0.04490 -0.89510 0.78190
H32 H -0.00950 -0.77460 0.79890
H33 H 0.36020 -0.69210 0.70740
H34 H 0.29330 -0.62970 0.72840
H35 H 0.43290 -0.55730 0.81080
H36 H 0.49930 -0.62890 0.80340
H37 H 0.51940 -0.56690 0.90580
H38 H 0.47720 -0.68860 0.89500
H39 H 0.42370 -0.59860 0.99600
H40 H 0.38480 -0.71720 0.97440
C22 C 0.2626(17) -0.6722(17) 0.9927(10)
H41 H 0.18820 -0.82550 0.96410
H42 H 0.11110 -0.77450 0.98430
H43 H -0.02670 -0.85540 0.88620
H44 H 0.05290 -0.91030 0.87350
H45 H 0.30390 -0.19830 1.08390
H46 H 0.41580 -0.14960 1.12720
H47 H 0.37650 -0.26480 1.09820
H48 H 0.21710 -0.84320 0.70130
H49 H 0.19350 -0.76760 0.65720
H50 H 0.27570 -0.67850 1.03510
H51 H 0.24400 -0.61080 0.98770
Cu4 Cu -0.21559(15) -0.34186(16) 0.76579(9)
N9 N -0.3124(12) -0.3521(11) 0.6855(7)
N10 N -0.1269(11) -0.3249(10) 0.8478(6)
N11 N -0.1626(11) -0.1889(10) 0.7722(6)
N12 N -0.2714(12) -0.4981(11) 0.7542(7)
H52 H -0.37010 -0.33800 0.69290
C23 C -0.2638(16) -0.2787(15) 0.6430(9)
C24 C -0.3514(15) -0.4600(14) 0.6587(9)
H53 H -0.06200 -0.32360 0.84160
C25 C -0.1588(14) -0.4065(13) 0.8861(8)
C26 C -0.1073(14) -0.2224(13) 0.8746(8)
H54 H -0.21830 -0.17080 0.77920
C27 C -0.0788(14) -0.1485(14) 0.8274(8)
C28 C -0.1305(16) -0.1370(16) 0.7203(9)
H55 H -0.22360 -0.51650 0.73730
C29 C -0.2830(15) -0.5529(15) 0.8076(9)
C30 C -0.3735(15) -0.5285(15) 0.7063(9)
C31 C -0.2194(17) -0.1664(16) 0.6678(10)
H56 H -0.20690 -0.29720 0.63110
H57 H -0.31800 -0.28770 0.60740
H58 H -0.29800 -0.47250 0.63940
H59 H -0.41620 -0.47420 0.62880
C32 C -0.1783(14) -0.5111(13) 0.8566(8)
H60 H -0.22350 -0.40630 0.89840
H61 H -0.10310 -0.39180 0.92160
H62 H -0.04880 -0.20320 0.90900
H63 H -0.17060 -0.21940 0.88760
H64 H -0.07480 -0.07990 0.84190
H65 H -0.00970 -0.14340 0.81910
H66 H -0.07200 -0.15480 0.71010
H67 H -0.10500 -0.06260 0.73080
H68 H -0.30040 -0.62630 0.79650
H69 H -0.34150 -0.54460 0.82360
H70 H -0.39470 -0.60030 0.69010
H71 H -0.43120 -0.52040 0.72330
H72 H -0.19490 -0.12550 0.63640
H73 H -0.27710 -0.14780 0.67860
H74 H -0.18280 -0.55890 0.88650
H75 H -0.11810 -0.50850 0.83850
O43 O 0.4330(8) -0.3932(8) 0.5062(5)
O44 O 0.7485(16) 0.1928(15) 0.7459(9)
O45 O 0.3791(8) -0.6035(8) 0.5263(5)
O46 O 0.0513(14) -0.5773(14) 0.9108(9)
O47 O -0.1345(12) -0.6137(12) 0.7218(7)
O48 O 0.1578(15) -0.0932(15) 1.0254(9)
O49 O 0.3517(11) -0.4218(10) 0.9628(6)
O50 O -0.129(3) -0.744(3) 0.892(2)
O51 O -0.175(4) -0.559(4) 0.992(3)
O52? O -0.093(4) -0.587(3) 0.985(2)
O53? O 0.012(5) 0.018(5) 1.021(3)
N1A N 0.0422(9) -0.4582(9) 0.4207(5)
N2A N -0.1206(9) -0.4429(8) 0.4888(5)
H1A H -0.00360 -0.50820 0.39150
C1A C 0.1489(12) -0.4655(11) 0.4243(7)
C2A C 0.0347(11) -0.3589(11) 0.4043(6)
H2A H -0.17750 -0.49130 0.46390
C3A C -0.1506(11) -0.4389(11) 0.5487(6)
C4A C -0.1032(11) -0.3455(11) 0.4634(6)
H3A H 0.16470 -0.46790 0.38470
H4A H 0.20290 -0.40510 0.44850
C5A C -0.0736(12) -0.3519(12) 0.4027(7)
H5A H 0.08730 -0.30330 0.43280
H6A H 0.05260 -0.34840 0.36530
H7A H -0.22150 -0.43500 0.54420
H8A H -0.10020 -0.37800 0.57430
H9A H -0.16770 -0.32880 0.45930
H10A H -0.04620 -0.29050 0.49010
H11A H -0.07620 -0.29120 0.38390
H12A H -0.12700 -0.41210 0.37800
N3A N 0.5302(10) -0.0947(9) 0.4420(6)
N4A N 0.3454(10) -0.0946(10) 0.4761(6)
H13A H 0.53310 -0.06380 0.40780
C6A C 0.4366(12) -0.1899(12) 0.4277(7)
C7A C 0.6301(13) -0.1168(13) 0.4567(8)
H14A H 0.33410 -0.13920 0.50430
C8A C 0.3381(13) -0.1580(13) 0.4200(8)
C9A C 0.2615(13) -0.0507(13) 0.4719(7)
H15A H 0.43690 -0.22800 0.39110
H16A H 0.43650 -0.23360 0.45960
C10A C 0.7271(13) -0.0172(13) 0.4702(8)
H17A H 0.62850 -0.15520 0.49110
H18A H 0.63550 -0.15930 0.42340
H19A H 0.27330 -0.21900 0.41260
H20A H 0.33610 -0.11800 0.38650
H21A H 0.26460 -0.00910 0.43880
H22A H 0.19240 -0.10630 0.46380
H23A H 0.79090 -0.03480 0.47270
H24A H 0.72380 0.02350 0.43700
W1A W -0.20968(4) -0.71520(4) 0.39330(2)
O1A O -0.1184(7) -0.6757(7) 0.4598(4)
O2A O -0.3354(6) -0.7942(6) 0.4198(4)
O3A O -0.2561(6) -0.5994(6) 0.3918(3)
O4A O -0.1953(7) -0.8394(6) 0.3652(4)
O5A O -0.1170(7) -0.6501(7) 0.3400(4)
O6A O -0.3476(6) -0.7525(6) 0.3125(3)
W2A W -0.47528(4) -0.84339(4) 0.36211(2)
W3A W -0.37604(4) -0.60011(4) 0.32849(2)
W4A W -0.17028(4) -0.93105(4) 0.30843(2)
W5A W -0.05934(4) -0.66173(4) 0.26976(2)
Ge1A Ge -0.34538(10) -0.80083(9) 0.24018(5)
O7A O -0.5533(7) -0.8955(7) 0.4129(4)
O8A O -0.4676(7) -0.7009(7) 0.3720(4)
O9A O -0.4386(7) -0.9610(7) 0.3394(4)
O10A O -0.5673(7) -0.8692(7) 0.2904(4)
O11A O -0.3925(7) -0.4892(7) 0.3557(4)
O12A O -0.4756(7) -0.6444(6) 0.2603(4)
O13A O -0.2693(7) -0.5446(7) 0.2817(4)
O14A O -0.0706(7) -0.9611(7) 0.3504(4)
O15A O -0.2953(7) -1.0392(7) 0.3211(4)
O16A O -0.0910(6) -0.8036(6) 0.2808(4)
O17A O -0.1829(7) -1.0011(7) 0.2341(4)
O18A O -0.3196(6) -0.9171(6) 0.2450(3)
O19A O 0.0774(8) -0.6122(8) 0.2980(4)
O20A O -0.0874(7) -0.5363(7) 0.2515(4)
O21A O -0.0592(6) -0.6879(6) 0.1892(4)
O22A O -0.2373(6) -0.7124(6) 0.2171(3)
O23A O -0.4654(6) -0.8205(6) 0.1920(3)
W6A W -0.43547(4) -1.05639(4) 0.27634(2)
W7A W -0.62265(4) -0.93244(4) 0.20092(2)
W8A W -0.52529(4) -0.69223(4) 0.16772(2)
W9A W -0.22601(4) -0.54763(4) 0.20662(2)
W10A W -0.30211(4) -1.00586(4) 0.16382(2)
W11A W -0.19694(4) -0.74291(4) 0.12576(2)
O24A O -0.5112(8) -1.1728(7) 0.2962(4)
O25A O -0.5425(7) -1.0202(6) 0.2284(4)
O26A O -0.3962(7) -1.1054(7) 0.2081(4)
O27A O -0.7494(7) -1.0043(7) 0.2134(4)
O28A O -0.6420(7) -0.8017(7) 0.1911(4)
O29A O -0.6339(7) -0.9703(7) 0.1238(4)
O30A O -0.5902(8) -0.6044(8) 0.1572(4)
O31A O -0.3747(7) -0.6080(6) 0.1727(4)
O32A O -0.5440(7) -0.7515(7) 0.0952(4)
O33A O -0.1982(7) -0.4209(7) 0.1912(4)
O34A O -0.1893(6) -0.5965(6) 0.1368(4)
O35A O -0.2775(7) -1.0957(7) 0.1188(4)
O36A O -0.2042(6) -0.8762(6) 0.1501(3)
O37A O -0.4121(6) -0.9836(6) 0.1206(3)
O38A O -0.1359(7) -0.7369(7) 0.0650(4)
O39A O -0.3357(6) -0.7874(6) 0.0947(4)
Dy1A Dy -0.50979(5) -0.89849(5) 0.06472(3)
Cu3A Cu -0.23377(15) -0.27626(14) 0.15445(8)
O40A O -0.4250(7) -0.9255(7) -0.0194(4)
O41A O -0.4728(7) -0.7885(7) -0.0162(4)
O42A O -0.6783(7) -0.9267(7) 0.0003(4)
N5A N -0.1133(12) -0.1815(12) 0.2165(7)
N6A N -0.3422(13) -0.2928(13) 0.2087(7)
N7A N -0.3594(11) -0.3675(11) 0.0916(6)
N8A N -0.1275(13) -0.2447(12) 0.1008(7)
C11A C -0.4267(10) -0.8384(10) -0.0408(6)
H25A H -0.12190 -0.11900 0.21770
C12A C -0.1041(14) -0.2095(14) 0.2799(8)
C13A C -0.0119(14) -0.1657(14) 0.1959(8)
H26A H -0.35800 -0.23400 0.20920
C14A C -0.3045(13) -0.3048(13) 0.2705(7)
C15A C -0.4396(14) -0.3769(14) 0.1807(8)
H27A H -0.35690 -0.43240 0.09170
C16A C -0.4597(14) -0.3722(14) 0.1139(8)
C17A C -0.3665(14) -0.3445(14) 0.0293(8)
H28A H -0.10300 -0.29820 0.10040
C18A C -0.1683(16) -0.2354(15) 0.0375(9)
C19A C -0.0354(18) -0.1517(17) 0.1312(10)
C20A C -0.3763(11) -0.8034(11) -0.0920(6)
H29A H -0.04480 -0.15550 0.30590
H30A H -0.08990 -0.27360 0.28150
C21A C -0.2052(16) -0.2219(16) 0.3010(9)
H31A H 0.04490 -0.10490 0.21810
H32A H 0.00950 -0.22540 0.20110
H33A H -0.36020 -0.30790 0.29260
H34A H -0.29330 -0.37030 0.27160
H35A H -0.43290 -0.44270 0.18920
H36A H -0.49930 -0.37110 0.19660
H37A H -0.51940 -0.43310 0.09420
H38A H -0.47720 -0.31140 0.10500
H39A H -0.42370 -0.40140 0.00400
H40A H -0.38480 -0.28280 0.02560
C22A C -0.2626(17) -0.3278(17) 0.0073(10)
H41A H -0.18820 -0.17450 0.03590
H42A H -0.11110 -0.22550 0.01570
H43A H 0.02670 -0.14460 0.11380
H44A H -0.05290 -0.08970 0.12650
H45A H -0.30390 -0.80170 -0.08390
H46A H -0.41580 -0.85040 -0.12720
H47A H -0.37650 -0.73520 -0.09820
H48A H -0.21710 -0.15680 0.29870
H49A H -0.19350 -0.23240 0.34280
H50A H -0.27570 -0.32150 -0.03510
H51A H -0.24400 -0.38920 0.01230
O7A* O 0.4467(7) 0.1045(7) 0.4129(4)
Cu2* Cu -0.50000 -1.00000 0.50000
Dy1* Dy -0.49021(5) -1.10151(5) -0.06472(3)
Dy1A* Dy 0.49021(5) 0.10151(5) 1.06472(3)
O40* O -0.5750(7) -1.0745(7) 0.0194(4)
O40A* O 0.5750(7) 0.0745(7) 0.9806(4)
#END
