
#######################################################################
#
#                 Cambridge Crystallographic Data Centre
#                                CCDC
#
#######################################################################
#
# If this CIF has been generated from an entry in the Cambridge
# Structural Database, then it will include bibliographic, chemical,
# crystal, experimental, refinement or atomic coordinate data resulting
# from the CCDC's data processing and validation procedures.
#
#######################################################################

data_CSD_CIF_YITZAF
_audit_creation_date 2019-03-14
_audit_creation_method CSD-ConQuest-V1
_database_code_CSD YITZAF
_database_code_depnum_ccdc_archive 'CCDC 1882849'
_chemical_formula_sum 'C64 H190 Cu6 Ge2 N24 O102 Sm2 W22'
_chemical_formula_moiety
;
2(C10 H24 Cu1 N4 2+),n(C44 H106 Cu4 Ge2 N16 O84 Sm2 W22 4-),18(H2 O1)
;
_journal_coden_Cambridge 9
_journal_volume 58
_journal_year 2019
_journal_page_first 4365
_journal_name_full 'Inorg.Chem. '
loop_
_publ_author_name
"J.Martin-Caballero"
"B.Artetxe"
"S.Reinoso"
"L.S.Felices"
"P.Vitoria"
"A.Larranaga"
"J.L.Vilas"
"J.M.Gutierrez-Zorrilla"
_chemical_name_systematic
;
catena-[bis((1,4,8,11-tetraazacyclotetradecane)-copper(ii)) 
dohexacontakis(\m-oxo)-bis(\m-acetato)-diaqua-tetrakis(1,4,8,11-tetraazacyclot
etradecane)-hexadeca-oxo-tetra-copper(ii)-di-germanium(iv)-di-samarium(iii)-do
cosa-tungsten(vi) octadecahydrate]
;
_cell_volume   3997.709
_exptl_crystal_colour 'orange'
_exptl_crystal_density_diffrn 3.24
_exptl_special_details
;
Isostructural with the La, Ce, Pr, Nd, Eu, Gd, Tb, Dy, Ho, Er, Tm, Yb and Lu 
analogues.
;
_exptl_crystal_description 'plates'
_diffrn_ambient_temperature 100
_refine_special_details
;
O3W disordered over one sites with occupancies 0.5; O5W and O12W disordered 
over two sites with occupancies 0.5:0.5; O8W and O11W disordered over two 
sites with occupancies 0.5:0.5.
;
#These two values have been output from a single CSD field.
_refine_ls_R_factor_gt 0.0553
_refine_ls_wR_factor_gt 0.0553
_symmetry_cell_setting triclinic
_symmetry_space_group_name_H-M 'P -1'
_symmetry_Int_Tables_number 2
loop_
_symmetry_equiv_pos_site_id
_symmetry_equiv_pos_as_xyz
1 x,y,z
2 -x,-y,-z
_cell_length_a 13.6266(7)
_cell_length_b 13.8921(6)
_cell_length_c 22.9645(10)
_cell_angle_alpha 92.476(3)
_cell_angle_beta 100.153(4)
_cell_angle_gamma 109.931(4)
_cell_formula_units_Z 1
loop_
_atom_type_symbol
_atom_type_radius_bond
C 0.68
H 0.23
Cu 1.32
Ge 1.17
N 0.68
O 0.68
Sm 1.98
W 1.62
loop_
_atom_site_label
_atom_site_type_symbol
_atom_site_fract_x
_atom_site_fract_y
_atom_site_fract_z
W1 W 0.20991(4) -0.28654(4) 0.60569(2)
O1 O 0.1173(7) -0.3253(7) 0.5379(4)
O2 O 0.3357(7) -0.2082(6) 0.5795(3)
O3 O 0.2583(6) -0.4025(6) 0.6075(3)
O4 O 0.1958(7) -0.1620(6) 0.6324(3)
O5 O 0.1184(6) -0.3507(6) 0.6590(3)
O6 O 0.3471(6) -0.2486(6) 0.6872(3)
Cu1 Cu 0.00000 -0.50000 0.50000
W2 W 0.47414(4) -0.15778(4) 0.63696(2)
W3 W 0.37630(4) -0.40040(4) 0.67068(2)
W4 W 0.16933(4) -0.07232(4) 0.68969(2)
W5 W 0.05891(4) -0.34088(4) 0.72819(2)
Ge1 Ge 0.34476(10) -0.20114(9) 0.75878(5)
N1 N -0.0445(9) -0.5405(8) 0.5779(5)
N2 N 0.1197(8) -0.5568(8) 0.5121(4)
O7 O 0.5516(7) -0.1058(7) 0.5863(4)
O8 O 0.4666(6) -0.3011(6) 0.6268(3)
O9 O 0.4377(6) -0.0404(6) 0.6590(3)
O10 O 0.5645(6) -0.1326(6) 0.7083(3)
O11 O 0.3921(7) -0.5117(6) 0.6437(3)
O12 O 0.4763(6) -0.3563(6) 0.7393(3)
O13 O 0.2721(6) -0.4559(6) 0.7173(3)
O14 O 0.0700(7) -0.0416(7) 0.6474(4)
O15 O 0.2948(6) 0.0361(6) 0.6770(3)
O16 O 0.0908(7) -0.2002(6) 0.7175(3)
O17 O 0.1822(6) -0.0025(6) 0.7640(3)
O18 O 0.3173(6) -0.0870(6) 0.7532(3)
O19 O -0.0775(7) -0.3914(7) 0.6991(4)
O20 O 0.0869(7) -0.4669(6) 0.7475(3)
O21 O 0.0576(7) -0.3149(7) 0.8087(4)
O22 O 0.2366(6) -0.2896(6) 0.7811(3)
O23 O 0.4636(6) -0.1816(6) 0.8075(3)
H1 H 0.00030 -0.49060 0.60700
C1 C -0.1498(10) -0.5339(10) 0.5732(5)
C2 C -0.0401(10) -0.6395(10) 0.5962(5)
H2 H 0.17590 -0.50800 0.53680
C3 C 0.1523(11) -0.5628(11) 0.4538(6)
C4 C 0.1035(10) -0.6541(10) 0.5393(5)
Cu2 Cu 0.50000 0.00000 0.50000
W6 W 0.43336(4) 0.05328(4) 0.72272(2)
W7 W 0.62116(4) -0.07005(4) 0.79723(2)
W8 W 0.52421(4) -0.30983(4) 0.83114(2)
W9 W 0.22593(4) -0.45397(4) 0.79193(2)
W10 W 0.29807(4) 0.00196(4) 0.83424(2)
W11 W 0.19406(4) -0.26099(4) 0.87212(2)
Sm1 Sm 0.50870(5) -0.10340(5) 0.93453(3)
H3 H -0.16710 -0.53290 0.61240
H4 H -0.20270 -0.59390 0.54850
C5 C 0.0713(11) -0.6469(11) 0.5995(6)
H5 H -0.09230 -0.69520 0.56810
H6 H -0.05900 -0.64800 0.63490
H7 H 0.10320 -0.62360 0.42810
H8 H 0.22340 -0.56570 0.45950
H9 H 0.16890 -0.66910 0.54470
H10 H 0.04830 -0.71010 0.51270
N3 N 0.4662(9) 0.0922(8) 0.5574(5)
N4 N 0.6518(9) 0.0955(9) 0.5252(5)
O24 O 0.5071(7) 0.1699(7) 0.7030(4)
O25 O 0.5418(6) 0.0172(6) 0.7702(3)
O26 O 0.3918(6) 0.1029(6) 0.7899(3)
O27 O 0.7484(7) -0.0003(7) 0.7852(4)
O28 O 0.6411(6) -0.1990(6) 0.8079(3)
O29 O 0.6356(7) -0.0293(6) 0.8739(3)
O30 O 0.5883(7) -0.3979(7) 0.8415(4)
O31 O 0.3744(7) -0.3931(6) 0.8270(3)
O32 O 0.5436(6) -0.2518(6) 0.9044(3)
O33 O 0.1992(7) -0.5806(7) 0.8069(4)
O34 O 0.1884(6) -0.4043(6) 0.8614(3)
O35 O 0.2713(7) 0.0896(6) 0.8791(3)
O36 O 0.2019(7) -0.1284(6) 0.8477(3)
O37 O 0.4089(6) -0.0180(6) 0.8778(3)
O38 O 0.1287(7) -0.2691(7) 0.9307(4)
O39 O 0.3310(6) -0.2182(6) 0.9045(3)
O40 O 0.4257(7) -0.0766(6) 1.0219(3)
O41 O 0.4711(7) -0.2139(6) 1.0176(3)
O42 O 0.6815(7) -0.0718(7) 1.0005(4)
H11 H 0.12390 -0.58680 0.62420
H12 H 0.07320 -0.70700 0.61890
H13 H 0.46270 0.06100 0.59140
C6 C 0.5602(11) 0.1876(11) 0.5723(6)
C7 C 0.3657(12) 0.1114(12) 0.5412(6)
H14 H 0.66310 0.13950 0.49680
C8 C 0.6608(11) 0.1589(11) 0.5801(6)
C9 C 0.7370(11) 0.0510(11) 0.5295(6)
Cu3 Cu 0.23422(15) -0.72709(14) 0.84449(8)
C10 C 0.4284(10) -0.1598(9) 1.0426(5)
H15 H 0.55900 0.22470 0.60880
H16 H 0.55980 0.23160 0.54060
C11 C 0.2700(12) 0.0141(12) 0.5274(6)
H17 H 0.36790 0.14940 0.50670
H18 H 0.35880 0.15380 0.57380
H19 H 0.72420 0.22050 0.58630
H20 H 0.66520 0.12050 0.61420
H21 H 0.73280 0.00850 0.56210
H22 H 0.80580 0.10650 0.53880
N5 N 0.1121(9) -0.8241(9) 0.7820(5)
N6 N 0.3373(9) -0.7114(9) 0.7895(5)
N7 N 0.3586(10) -0.6327(9) 0.9063(5)
N8 N 0.1302(10) -0.7542(9) 0.8997(5)
C12 C 0.382(1) -0.1932(10) 1.0958(5)
H23 H 0.20630 0.03160 0.52380
H24 H 0.27180 -0.02690 0.56050
H25 H 0.12070 -0.88620 0.78020
C13 C 0.1025(12) -0.7926(11) 0.7202(6)
C14 C 0.0165(14) -0.8368(13) 0.8068(7)
H26 H 0.35370 -0.76970 0.78900
C15 C 0.3010(11) -0.6980(11) 0.7268(6)
C16 C 0.4361(12) -0.6258(12) 0.8183(6)
H27 H 0.35550 -0.56830 0.90620
C17 C 0.4576(11) -0.6301(11) 0.8842(6)
C18 C 0.3668(12) -0.6583(12) 0.9687(6)
H28 H 0.10570 -0.70090 0.89940
C19 C 0.1701(12) -0.7626(12) 0.9623(6)
C20 C 0.0418(14) -0.8443(14) 0.8722(7)
H29 H 0.33840 -0.15430 1.10330
H30 H 0.43850 -0.18170 1.12980
H31 H 0.33920 -0.26520 1.08860
H32 H 0.09260 -0.72670 0.72070
H33 H 0.04050 -0.84310 0.69440
C21 C 0.2007(11) -0.7843(11) 0.6961(6)
H34 H -0.04120 -0.89880 0.78730
H35 H -0.00620 -0.77850 0.80000
H36 H 0.35720 -0.69380 0.70520
H37 H 0.28840 -0.63340 0.72560
H38 H 0.42870 -0.56050 0.81000
H39 H 0.49560 -0.63080 0.80220
H40 H 0.51790 -0.57000 0.90350
H41 H 0.47390 -0.69120 0.89310
H42 H 0.42590 -0.60380 0.99400
H43 H 0.38180 -0.72160 0.97100
C22 C 0.2657(12) -0.6712(12) 0.9916(7)
H44 H 0.18860 -0.82400 0.96450
H45 H 0.11360 -0.77040 0.98420
H46 H -0.01970 -0.84950 0.88940
H47 H 0.05960 -0.90540 0.87890
H48 H 0.21300 -0.84880 0.69900
H49 H 0.18700 -0.77500 0.65420
H50 H 0.27970 -0.67680 1.03400
H51 H 0.24850 -0.60950 0.98640
Cu4 Cu 0.78370(16) -0.33674(17) 0.76450(9)
N9 N 0.6891(11) -0.3433(11) 0.6844(6)
H52 H 0.63190 -0.32840 0.69130
N10 N 0.8717(10) -0.3226(9) 0.8459(5)
H53 H 0.93600 -0.32120 0.83930
N11 N 0.8397(10) -0.1822(9) 0.7718(5)
H54 H 0.78520 -0.16250 0.77870
N12 N 0.7299(11) -0.4906(10) 0.7532(5)
H55 H 0.77640 -0.50930 0.73560
C23 C 0.7162(14) -0.5475(14) 0.8051(7)
H56 H 0.69650 -0.62050 0.79310
H57 H 0.65940 -0.53760 0.82190
C24 C 0.8214(13) -0.5093(13) 0.8526(7)
H58 H 0.81780 -0.55860 0.88160
H59 H 0.88040 -0.50570 0.83360
C25 C 0.8421(12) -0.4043(11) 0.8845(6)
H60 H 0.77840 -0.40470 0.89810
H61 H 0.89900 -0.39040 0.91930
C26 C 0.8932(11) -0.2192(11) 0.8736(6)
H62 H 0.94970 -0.20250 0.90870
H63 H 0.82980 -0.21500 0.88550
C27 C 0.9263(12) -0.1440(11) 0.8283(6)
H64 H 0.99430 -0.14180 0.81990
H65 H 0.93320 -0.07530 0.84350
C28 C 0.8744(13) -0.1316(13) 0.7201(7)
H66 H 0.93080 -0.15260 0.70990
H67 H 0.90300 -0.05750 0.73050
C29 C 0.7828(15) -0.1591(14) 0.6667(8)
H68 H 0.72560 -0.14070 0.67800
H69 H 0.80690 -0.11780 0.63550
C30 C 0.7389(14) -0.2717(13) 0.6419(7)
H70 H 0.68580 -0.28090 0.60580
H71 H 0.79620 -0.29050 0.63110
C31 C 0.6494(14) -0.4543(13) 0.6584(7)
H72 H 0.58550 -0.46910 0.62790
H73 H 0.70320 -0.46810 0.64040
C32 C 0.6258(14) -0.5197(14) 0.7071(7)
H74 H 0.60100 -0.59200 0.69200
H75 H 0.57100 -0.50720 0.72480
O43 O 0.4334(8) -0.3939(8) 0.5065(4)
O44 O 0.3787(8) -0.6044(8) 0.5261(4)
O45 O 0.0568(10) -0.5754(10) 0.9153(5)
O46 O -0.1451(16) -0.6175(15) 0.7188(8)
O47 O -0.135(3) -0.742(3) 0.8913(16)
O48 O 0.3596(8) -0.4149(8) 0.9599(4)
O49 O 0.1512(18) -0.1078(18) 1.0181(10)
O50 O 0.1877(16) -0.4358(15) 1.0087(9)
O51 O -0.244(2) -0.7934(19) 0.7583(11)
O52? O -0.060(2) -0.636(2) 0.7695(11)
O53? O 0.1659(19) -0.0575(19) 1.0524(10)
O54? O -0.110(2) -0.722(2) 0.9545(11)
O55? O -0.005(3) -0.019(3) 0.9743(15)
N1A N 0.0445(9) -0.4595(8) 0.4221(5)
N2A N -0.1197(8) -0.4432(8) 0.4879(4)
H1A H -0.00030 -0.50940 0.39300
C1A C 0.1498(10) -0.4661(10) 0.4268(5)
C2A C 0.0401(10) -0.3605(10) 0.4038(5)
H2A H -0.17590 -0.49200 0.46320
C3A C -0.1523(11) -0.4372(11) 0.5462(6)
C4A C -0.1035(10) -0.3459(10) 0.4607(5)
H3A H 0.16710 -0.46710 0.38760
H4A H 0.20270 -0.40610 0.45150
C5A C -0.0713(11) -0.3531(11) 0.4005(6)
H5A H 0.09230 -0.30480 0.43190
H6A H 0.05900 -0.35200 0.36510
H7A H -0.10320 -0.37640 0.57190
H8A H -0.22340 -0.43430 0.54050
H9A H -0.16890 -0.33090 0.45530
H10A H -0.04830 -0.28990 0.48730
H11A H -0.12390 -0.41320 0.37580
H12A H -0.07320 -0.29300 0.38110
N3A N 0.5338(9) -0.0922(8) 0.4426(5)
N4A N 0.3482(9) -0.0955(9) 0.4748(5)
H13A H 0.53730 -0.06100 0.40860
C6A C 0.4398(11) -0.1876(11) 0.4277(6)
C7A C 0.6343(12) -0.1114(12) 0.4588(6)
H14A H 0.33690 -0.13950 0.50320
C8A C 0.3392(11) -0.1589(11) 0.4199(6)
C9A C 0.2630(11) -0.0510(11) 0.4705(6)
H15A H 0.44100 -0.22470 0.39120
H16A H 0.44020 -0.23160 0.45940
C11A C 0.7300(12) -0.0141(12) 0.4726(6)
H17A H 0.63210 -0.14940 0.49330
H18A H 0.64120 -0.15380 0.42620
H19A H 0.27580 -0.22050 0.41370
H20A H 0.33480 -0.12050 0.38580
H21A H 0.26720 -0.00850 0.43790
H22A H 0.19420 -0.10650 0.46120
H23A H 0.79370 -0.03160 0.47620
H24A H 0.72820 0.02690 0.43950
W1A W -0.20991(4) -0.71346(4) 0.39431(2)
O1A O -0.1173(7) -0.6747(7) 0.4621(4)
O2A O -0.3357(7) -0.7918(6) 0.4205(3)
O3A O -0.2583(6) -0.5975(6) 0.3925(3)
O4A O -0.1958(7) -0.8380(6) 0.3676(3)
O5A O -0.1184(6) -0.6493(6) 0.3410(3)
O6A O -0.3471(6) -0.7514(6) 0.3128(3)
W2A W -0.47414(4) -0.84222(4) 0.36304(2)
W3A W -0.37630(4) -0.59960(4) 0.32932(2)
W4A W -0.16933(4) -0.92768(4) 0.31031(2)
W5A W -0.05891(4) -0.65912(4) 0.27181(2)
Ge1A Ge -0.34476(10) -0.79886(9) 0.24122(5)
O7A O -0.5516(7) -0.8942(7) 0.4137(4)
O8A O -0.4666(6) -0.6989(6) 0.3732(3)
O9A O -0.4377(6) -0.9596(6) 0.3410(3)
O10A O -0.5645(6) -0.8674(6) 0.2917(3)
O11A O -0.3921(7) -0.4883(6) 0.3563(3)
O12A O -0.4763(6) -0.6437(6) 0.2607(3)
O13A O -0.2721(6) -0.5441(6) 0.2827(3)
O14A O -0.0700(7) -0.9584(7) 0.3526(4)
O15A O -0.2948(6) -1.0361(6) 0.3230(3)
O16A O -0.0908(7) -0.7998(6) 0.2825(3)
O17A O -0.1822(6) -0.9975(6) 0.2360(3)
O18A O -0.3173(6) -0.9130(6) 0.2468(3)
O19A O 0.0775(7) -0.6086(7) 0.3009(4)
O20A O -0.0869(7) -0.5331(6) 0.2525(3)
O21A O -0.0576(7) -0.6851(7) 0.1913(4)
O22A O -0.2366(6) -0.7104(6) 0.2189(3)
O23A O -0.4636(6) -0.8184(6) 0.1925(3)
W6A W -0.43336(4) -1.05328(4) 0.27728(2)
W7A W -0.62116(4) -0.92995(4) 0.20277(2)
W8A W -0.52421(4) -0.69017(4) 0.16886(2)
W9A W -0.22593(4) -0.54603(4) 0.20807(2)
W10A W -0.29807(4) -1.00196(4) 0.16576(2)
W11A W -0.19406(4) -0.73901(4) 0.12788(2)
Sm1A Sm -0.50870(5) -0.89660(5) 0.06547(3)
O24A O -0.5071(7) -1.1699(7) 0.2970(4)
O25A O -0.5418(6) -1.0172(6) 0.2298(3)
O26A O -0.3918(6) -1.1029(6) 0.2101(3)
O27A O -0.7484(7) -0.9997(7) 0.2148(4)
O28A O -0.6411(6) -0.8010(6) 0.1921(3)
O29A O -0.6356(7) -0.9707(6) 0.1261(3)
O30A O -0.5883(7) -0.6021(7) 0.1585(4)
O31A O -0.3744(7) -0.6069(6) 0.1730(3)
O32A O -0.5436(6) -0.7482(6) 0.0956(3)
O33A O -0.1992(7) -0.4194(7) 0.1931(4)
O34A O -0.1884(6) -0.5957(6) 0.1386(3)
O35A O -0.2713(7) -1.0896(6) 0.1209(3)
O36A O -0.2019(7) -0.8716(6) 0.1523(3)
O37A O -0.4089(6) -0.9820(6) 0.1222(3)
O38A O -0.1287(7) -0.7309(7) 0.0693(4)
O39A O -0.3310(6) -0.7818(6) 0.0955(3)
O40A O -0.4257(7) -0.9234(6) -0.0219(3)
O41A O -0.4711(7) -0.7861(6) -0.0176(3)
O42A O -0.6815(7) -0.9282(7) -0.0005(4)
Cu3A Cu -0.23422(15) -0.27291(14) 0.15551(8)
C10A C -0.4284(10) -0.8402(9) -0.0426(5)
N5A N -0.1121(9) -0.1759(9) 0.2180(5)
N6A N -0.3373(9) -0.2886(9) 0.2105(5)
N7A N -0.3586(10) -0.3673(9) 0.0937(5)
N8A N -0.1302(10) -0.2458(9) 0.1003(5)
C12A C -0.382(1) -0.8068(10) -0.0958(5)
H25A H -0.12070 -0.11380 0.21980
C13A C -0.1025(12) -0.2074(11) 0.2798(6)
C14A C -0.0165(14) -0.1632(13) 0.1932(7)
H26A H -0.35370 -0.23030 0.21100
C15A C -0.3010(11) -0.3020(11) 0.2732(6)
C16A C -0.4361(12) -0.3742(12) 0.1817(6)
H27A H -0.35550 -0.43170 0.09380
C17A C -0.4576(11) -0.3699(11) 0.1158(6)
C18A C -0.3668(12) -0.3417(12) 0.0313(6)
H28A H -0.10570 -0.29910 0.10060
C19A C -0.1701(12) -0.2374(12) 0.0377(6)
C20A C -0.0418(14) -0.1557(14) 0.1278(7)
H29A H -0.33840 -0.84570 -0.10330
H30A H -0.43850 -0.81830 -0.12980
H31A H -0.33920 -0.73480 -0.08860
H32A H -0.09260 -0.27330 0.27930
H33A H -0.04050 -0.15690 0.30560
C21A C -0.2007(11) -0.2157(11) 0.3039(6)
H34A H 0.04120 -0.10120 0.21270
H35A H 0.00620 -0.22150 0.20000
H36A H -0.35720 -0.30620 0.29480
H37A H -0.28840 -0.36660 0.27440
H38A H -0.42870 -0.43950 0.19000
H39A H -0.49560 -0.36920 0.19780
H40A H -0.51790 -0.43000 0.09650
H41A H -0.47390 -0.30880 0.10690
H42A H -0.42590 -0.39620 0.00600
H43A H -0.38180 -0.27840 0.02900
C22A C -0.2657(12) -0.3288(12) 0.0084(7)
H44A H -0.18860 -0.17600 0.03550
H45A H -0.11360 -0.22960 0.01580
H46A H 0.01970 -0.15050 0.11060
H47A H -0.05960 -0.09460 0.12110
H48A H -0.21300 -0.15120 0.30100
H49A H -0.18700 -0.22500 0.34580
H50A H -0.27970 -0.32320 -0.03400
H51A H -0.24850 -0.39050 0.01360
O7A* O 0.4484(7) 0.1058(7) 0.4137(4)
Cu2* Cu -0.50000 -1.00000 0.50000
Sm1* Sm -0.49130(5) -1.10340(5) -0.06547(3)
Sm1A* Sm 0.49130(5) 0.10340(5) 1.06547(3)
O40* O -0.5743(7) -1.0766(6) 0.0219(3)
O40A* O 0.5743(7) 0.0766(6) 0.9781(3)
#END
