
#######################################################################
#
#                 Cambridge Crystallographic Data Centre
#                                CCDC
#
#######################################################################
#
# If this CIF has been generated from an entry in the Cambridge
# Structural Database, then it will include bibliographic, chemical,
# crystal, experimental, refinement or atomic coordinate data resulting
# from the CCDC's data processing and validation procedures.
#
#######################################################################

data_CSD_CIF_YITZIN
_audit_creation_date 2019-03-14
_audit_creation_method CSD-ConQuest-V1
_database_code_CSD YITZIN
_database_code_depnum_ccdc_archive 'CCDC 1882851'
_chemical_formula_sum 'C64 H190 Cu6 Gd2 Ge2 N24 O102 W22'
_chemical_formula_moiety
;
2(C10 H24 Cu1 N4 2+),n(C44 H106 Cu4 Gd2 Ge2 N16 O84 W22 4-),18(H2 O1)
;
_journal_coden_Cambridge 9
_journal_volume 58
_journal_year 2019
_journal_page_first 4365
_journal_name_full 'Inorg.Chem. '
loop_
_publ_author_name
"J.Martin-Caballero"
"B.Artetxe"
"S.Reinoso"
"L.S.Felices"
"P.Vitoria"
"A.Larranaga"
"J.L.Vilas"
"J.M.Gutierrez-Zorrilla"
_chemical_name_systematic
;
catena-[bis((1,4,8,11-tetraazacyclotetradecane)-copper(ii)) 
dohexacontakis(\m-oxo)-bis(\m-acetato)-diaqua-tetrakis(1,4,8,11-tetraazacyclot
etradecane)-hexadeca-oxo-tetra-copper(ii)-di-gadolinium(iii)-di-germanium(iv)-
docosa-tungsten(vi) octadecahydrate]
;
_cell_volume   3972.602
_exptl_crystal_colour 'orange'
_exptl_crystal_density_diffrn 3.266
_exptl_special_details
;
Isostructural with the La, Ce, Pr, Nd, Sm, Eu, Tb, Dy, Ho, Er, Tm, Yb and Lu 
analogues.
;
_exptl_crystal_description 'plates'
_diffrn_ambient_temperature 100
_refine_special_details
;
O3W,O8W and O10W,O11W disordered over two sites with occupancies 0.6:0.4.

;
#These two values have been output from a single CSD field.
_refine_ls_R_factor_gt 0.0618
_refine_ls_wR_factor_gt 0.0618
_symmetry_cell_setting triclinic
_symmetry_space_group_name_H-M 'P -1'
_symmetry_Int_Tables_number 2
loop_
_symmetry_equiv_pos_site_id
_symmetry_equiv_pos_as_xyz
1 x,y,z
2 -x,-y,-z
_cell_length_a 13.6058(3)
_cell_length_b 13.8465(3)
_cell_length_c 22.9325(5)
_cell_angle_alpha 92.6299(18)
_cell_angle_beta 99.9501(17)
_cell_angle_gamma 110.011(2)
_cell_formula_units_Z 1
loop_
_atom_type_symbol
_atom_type_radius_bond
C 0.68
H 0.23
Cu 1.32
Gd 1.96
Ge 1.17
N 0.68
O 0.68
W 1.62
loop_
_atom_site_label
_atom_site_type_symbol
_atom_site_fract_x
_atom_site_fract_y
_atom_site_fract_z
W1 W 0.21008(5) -0.28567(4) 0.60640(3)
W2 W 0.47511(5) -0.15688(4) 0.63743(3)
W3 W 0.37671(5) -0.39999(4) 0.67101(3)
W4 W 0.16999(5) -0.07072(4) 0.69102(3)
W5 W 0.43459(5) 0.05508(4) 0.72319(3)
W6 W 0.62240(5) -0.06811(5) 0.79797(3)
W7 W 0.52558(5) -0.30844(4) 0.83137(3)
W8 W 0.22663(5) -0.45305(4) 0.79272(3)
W9 W 0.05960(5) -0.33994(4) 0.72955(3)
W10 W 0.30045(5) 0.00413(4) 0.83534(3)
W11 W 0.19601(5) -0.25894(4) 0.87332(3)
Gd1 Gd 0.51001(6) -0.10226(6) 0.93484(4)
Ge1 Ge 0.34552(11) -0.19998(10) 0.75935(6)
Cu1 Cu 0.23380(17) -0.72531(16) 0.84478(10)
Cu2 Cu 0.00000 -0.50000 0.50000
Cu3 Cu 0.50000 0.00000 0.50000
N1 N 0.1140(13) -0.8208(13) 0.7821(7)
H1 H 0.12410 -0.88750 0.78010
N2 N 0.3408(11) -0.7080(12) 0.7908(7)
H2 H 0.35820 -0.77110 0.79020
N3 N 0.3606(12) -0.6317(13) 0.9083(7)
H3 H 0.35910 -0.56140 0.90850
N4 N 0.1274(11) -0.7550(11) 0.8986(6)
H4 H 0.10110 -0.69730 0.89880
C1 C 0.1075(14) -0.7890(14) 0.7202(8)
H5 H 0.04660 -0.83990 0.69370
H6 H 0.09710 -0.72310 0.72030
C2 C 0.2064(16) -0.7796(16) 0.6979(9)
H7 H 0.21890 -0.84410 0.70160
H8 H 0.19340 -0.77170 0.65580
C3 C 0.3055(14) -0.6940(14) 0.7273(8)
H9 H 0.29330 -0.62900 0.72590
H10 H 0.36170 -0.69040 0.70580
C4 C 0.4377(14) -0.6238(14) 0.8206(8)
H11 H 0.43040 -0.55800 0.81320
H12 H 0.49800 -0.62750 0.80460
C5 C 0.4580(15) -0.6308(15) 0.8870(8)
H13 H 0.47210 -0.69350 0.89510
H14 H 0.51930 -0.57190 0.90720
C6 C 0.3661(16) -0.6579(16) 0.9698(9)
H15 H 0.42420 -0.60300 0.99570
H16 H 0.38220 -0.72080 0.97210
C7 C 0.2625(16) -0.6735(16) 0.9925(10)
H17 H 0.27560 -0.68130 1.03470
H18 H 0.24520 -0.61140 0.98840
C8 C 0.1676(17) -0.7643(16) 0.9617(9)
H19 H 0.18640 -0.82580 0.96320
H20 H 0.11050 -0.77360 0.98340
C9 C 0.0371(18) -0.8468(18) 0.8695(10)
H21 H -0.02520 -0.85230 0.88620
H22 H 0.05420 -0.90850 0.87590
C10 C 0.0145(16) -0.8372(17) 0.8041(9)
H23 H -0.04140 -0.89960 0.78320
H24 H -0.00910 -0.77920 0.79730
N5 N -0.0411(10) -0.5401(10) 0.5787(6)
H25 H 0.00810 -0.48640 0.61000
N6 N 0.1202(10) -0.5562(10) 0.5115(5)
H26 H 0.18120 -0.50360 0.53810
C11 C -0.1487(13) -0.5346(13) 0.5752(7)
H27 H -0.16460 -0.53200 0.61470
H28 H -0.20220 -0.59540 0.55120
C12 C 0.1501(14) -0.5608(13) 0.4524(7)
H29 H 0.09980 -0.62170 0.42700
H30 H 0.22080 -0.56480 0.45700
C13 C 0.1038(13) -0.6527(13) 0.5373(7)
H31 H 0.16900 -0.66810 0.54210
H32 H 0.04800 -0.70840 0.51060
C14 C 0.0720(14) -0.6459(15) 0.5984(8)
H33 H 0.07660 -0.70520 0.61810
H34 H 0.12350 -0.58440 0.62270
C15 C -0.0363(12) -0.6427(12) 0.5958(7)
H35 H -0.05570 -0.65350 0.63440
H36 H -0.08750 -0.69800 0.56690
N7 N 0.4686(11) 0.0928(11) 0.5591(6)
H37 H 0.46470 0.05940 0.59590
N8 N 0.6553(11) 0.0974(12) 0.5252(7)
H38 H 0.66800 0.14560 0.49500
C16 C 0.5643(15) 0.1905(15) 0.5730(9)
H39 H 0.56430 0.23340 0.54070
H40 H 0.56450 0.22940 0.60930
C17 C 0.6592(15) 0.1588(15) 0.5804(9)
H41 H 0.72390 0.21960 0.58880
H42 H 0.65980 0.11790 0.61360
C18 C 0.7359(16) 0.0486(16) 0.5278(9)
H43 H 0.72900 0.00410 0.55950
H44 H 0.80620 0.10220 0.53820
C19 C 0.2709(16) 0.0144(15) 0.5289(9)
H45 H 0.27350 -0.02700 0.56170
H46 H 0.20680 0.03140 0.52600
C20 C 0.3691(15) 0.1152(15) 0.5427(9)
H47 H 0.37210 0.15290 0.50810
H48 H 0.36260 0.15830 0.57530
C21 C 0.4266(10) -0.1605(10) 1.0413(6)
C22 C 0.3771(12) -0.1954(12) 1.0936(7)
H49 H 0.31590 -0.17540 1.09260
H50 H 0.42820 -0.16400 1.12980
H51 H 0.35530 -0.26930 1.09200
O1 O 0.4251(7) -0.0768(7) 1.0205(4)
O2 O 0.4717(8) -0.2120(8) 1.0160(4)
O3 O 0.1178(7) -0.3248(7) 0.5390(4)
O4 O 0.5538(8) -0.1051(8) 0.5874(5)
O5 O 0.3932(8) -0.5108(8) 0.6432(4)
O6 O 0.0720(8) -0.0398(8) 0.6492(5)
O7 O 0.5099(8) 0.1718(8) 0.7038(5)
O8 O 0.7463(8) 0.0016(8) 0.7850(4)
O9 O 0.5896(8) -0.3968(8) 0.8415(4)
O10 O 0.2000(8) -0.5793(8) 0.8081(4)
O11 O -0.0763(8) -0.3903(8) 0.7016(5)
O12 O 0.2748(7) 0.0927(7) 0.8807(4)
O13 O 0.1325(8) -0.2667(8) 0.9338(4)
O14 O 0.3359(8) -0.2067(8) 0.5801(4)
O15 O 0.2585(7) -0.4006(7) 0.6075(4)
O16 O 0.1951(8) -0.1608(8) 0.6338(4)
O17 O 0.1192(7) -0.3488(7) 0.6608(4)
O18 O 0.4679(8) -0.2986(8) 0.6273(4)
O19 O 0.4401(7) -0.0381(7) 0.6602(4)
O20 O 0.5662(7) -0.1310(7) 0.7082(4)
O21 O 0.4763(7) -0.3549(7) 0.7383(4)
O22 O 0.2720(7) -0.4547(7) 0.7180(4)
O23 O 0.2956(8) 0.0373(8) 0.6778(4)
O24 O 0.0921(7) -0.1978(7) 0.7186(4)
O25 O 0.5405(7) 0.0193(7) 0.7708(4)
O26 O 0.6425(8) -0.1979(8) 0.8088(4)
O27 O 0.3747(7) -0.3935(7) 0.8271(4)
O28 O 0.0878(7) -0.4656(7) 0.7480(4)
O29 O 0.2040(7) -0.1265(7) 0.8489(4)
O30 O 0.1824(7) -0.0021(7) 0.7651(4)
O31 O 0.3947(7) 0.1051(7) 0.7911(4)
O32 O 0.1903(7) -0.4034(7) 0.8621(4)
O33 O 0.0591(7) -0.3129(7) 0.8100(4)
O34 O 0.3491(7) -0.2472(7) 0.6885(4)
O35 O 0.3189(7) -0.0865(7) 0.7541(4)
O36 O 0.4647(7) -0.1807(7) 0.8071(4)
O37 O 0.2367(6) -0.2885(6) 0.7821(4)
O38 O 0.6337(7) -0.0291(7) 0.8738(4)
O39 O 0.5439(7) -0.2490(7) 0.9044(4)
O40 O 0.4099(7) -0.0175(7) 0.8780(4)
O41 O 0.3330(8) -0.2165(8) 0.9044(4)
O42 O 0.6805(8) -0.0719(8) 0.9996(4)
Cu4 Cu 0.78464(17) -0.34193(18) 0.76612(11)
N9 N 0.6898(12) -0.3524(12) 0.6865(7)
H52 H 0.62820 -0.33650 0.69440
N10 N 0.8741(12) -0.3220(11) 0.8475(6)
H53 H 0.94360 -0.32080 0.84050
N11 N 0.8377(13) -0.1878(12) 0.7712(7)
H54 H 0.77790 -0.16780 0.77830
N12 N 0.7289(13) -0.4977(12) 0.7559(7)
H55 H 0.77960 -0.51780 0.73720
C23 C 0.7177(17) -0.5522(17) 0.8072(10)
H56 H 0.70150 -0.62520 0.79570
H57 H 0.65860 -0.54540 0.82320
C24 C 0.8196(16) -0.5109(16) 0.8556(9)
H58 H 0.81470 -0.55910 0.88520
H59 H 0.87990 -0.50830 0.83770
C25 C 0.8406(13) -0.4077(13) 0.8857(7)
H60 H 0.89620 -0.39450 0.92100
H61 H 0.77650 -0.40720 0.89860
C26 C 0.8949(14) -0.2183(13) 0.8747(8)
H62 H 0.95310 -0.19960 0.90910
H63 H 0.83200 -0.21450 0.88760
C27 C 0.9240(15) -0.1466(15) 0.8282(9)
H64 H 0.99280 -0.14260 0.82010
H65 H 0.92890 -0.07770 0.84250
C28 C 0.8692(17) -0.1396(17) 0.7206(10)
H66 H 0.92660 -0.15920 0.71050
H67 H 0.89630 -0.06510 0.73050
C29 C 0.7769(18) -0.1696(18) 0.6665(10)
H68 H 0.71820 -0.15370 0.67770
H69 H 0.80020 -0.12730 0.63540
C30 C 0.7371(17) -0.2799(16) 0.6417(9)
H70 H 0.79540 -0.29670 0.63050
H71 H 0.68280 -0.29090 0.60600
C31 C 0.6489(16) -0.4594(15) 0.6596(9)
H72 H 0.70080 -0.47310 0.63950
H73 H 0.58350 -0.47300 0.63050
C32 C 0.6278(17) -0.5280(17) 0.7094(10)
H74 H 0.57090 -0.51910 0.72680
H75 H 0.60610 -0.60010 0.69380
O43 O 0.4328(9) -0.3945(9) 0.5067(5)
O44 O 0.750(2) 0.1963(19) 0.7508(12)
O45 O 0.850(2) 0.107(2) 0.9808(12)
O46? O 0.836(4) 0.060(4) 0.951(2)
O47 O 0.0537(15) -0.5761(14) 0.9114(9)
O48 O -0.1320(14) -0.6141(13) 0.7226(8)
O49 O 0.3807(9) -0.6043(9) 0.5268(5)
O50 O 0.3543(11) -0.4201(10) 0.9616(6)
O51 O -0.133(3) -0.744(3) 0.888(2)
O52? O -0.105(3) -0.726(3) 0.9520(19)
O53 O 0.166(4) -0.432(3) 1.005(2)
N5A N 0.0411(10) -0.4599(10) 0.4213(6)
H25A H -0.00810 -0.51360 0.39000
N6A N -0.1202(10) -0.4438(10) 0.4885(5)
H26A H -0.18120 -0.49640 0.46190
C11A C 0.1487(13) -0.4654(13) 0.4248(7)
H27A H 0.16460 -0.46800 0.38530
H28A H 0.20220 -0.40460 0.44880
C12A C -0.1501(14) -0.4392(13) 0.5476(7)
H29A H -0.09980 -0.37830 0.57300
H30A H -0.22080 -0.43520 0.54300
C13A C -0.1038(13) -0.3473(13) 0.4627(7)
H31A H -0.16900 -0.33190 0.45790
H32A H -0.04800 -0.29160 0.48940
C14A C -0.0720(14) -0.3541(15) 0.4016(8)
H33A H -0.07660 -0.29480 0.38190
H34A H -0.12350 -0.41560 0.37730
C15A C 0.0363(12) -0.3573(12) 0.4042(7)
H35A H 0.05570 -0.34650 0.36560
H36A H 0.08750 -0.30200 0.43310
N7A N 0.5314(11) -0.0928(11) 0.4409(6)
H37A H 0.53530 -0.05940 0.40410
N8A N 0.3447(11) -0.0974(12) 0.4748(7)
H38A H 0.33200 -0.14560 0.50500
C16A C 0.4357(15) -0.1905(15) 0.4270(9)
H39A H 0.43570 -0.23340 0.45930
H40A H 0.43550 -0.22940 0.39070
C17A C 0.3408(15) -0.1588(15) 0.4196(9)
H41A H 0.27610 -0.21960 0.41120
H42A H 0.34020 -0.11790 0.38640
C18A C 0.2641(16) -0.0486(16) 0.4722(9)
H43A H 0.27100 -0.00410 0.44050
H44A H 0.19380 -0.10220 0.46180
C19A C 0.7291(16) -0.0144(15) 0.4711(9)
H45A H 0.72650 0.02700 0.43830
H46A H 0.79320 -0.03140 0.47400
C20A C 0.6309(15) -0.1152(15) 0.4573(9)
H47A H 0.62790 -0.15290 0.49190
H48A H 0.63740 -0.15830 0.42470
W1A W -0.21008(5) -0.71433(4) 0.39360(3)
W2A W -0.47511(5) -0.84312(4) 0.36257(3)
W3A W -0.37671(5) -0.60001(4) 0.32899(3)
W4A W -0.16999(5) -0.92928(4) 0.30898(3)
W5A W -0.43459(5) -1.05508(4) 0.27681(3)
W6A W -0.62240(5) -0.93189(5) 0.20203(3)
W7A W -0.52558(5) -0.69156(4) 0.16863(3)
W8A W -0.22663(5) -0.54695(4) 0.20728(3)
W9A W -0.05960(5) -0.66006(4) 0.27045(3)
W10A W -0.30045(5) -1.00413(4) 0.16466(3)
W11A W -0.19601(5) -0.74106(4) 0.12668(3)
Gd1A Gd -0.51001(6) -0.89774(6) 0.06516(4)
Ge1A Ge -0.34552(11) -0.80002(10) 0.24065(6)
Cu1A Cu -0.23380(17) -0.27469(16) 0.15522(10)
N1A N -0.1140(13) -0.1792(13) 0.2179(7)
H1A H -0.12410 -0.11250 0.21990
N2A N -0.3408(11) -0.2920(12) 0.2092(7)
H2A H -0.35820 -0.22890 0.20980
N3A N -0.3606(12) -0.3683(13) 0.0917(7)
H3A H -0.35910 -0.43860 0.09150
N4A N -0.1274(11) -0.2450(11) 0.1014(6)
H4A H -0.10110 -0.30270 0.10120
C1A C -0.1075(14) -0.2110(14) 0.2798(8)
H5A H -0.04660 -0.16010 0.30630
H6A H -0.09710 -0.27690 0.27970
C2A C -0.2064(16) -0.2204(16) 0.3021(9)
H7A H -0.21890 -0.15590 0.29840
H8A H -0.19340 -0.22830 0.34420
C3A C -0.3055(14) -0.3060(14) 0.2727(8)
H9A H -0.29330 -0.37100 0.27410
H10A H -0.36170 -0.30960 0.29420
C4A C -0.4377(14) -0.3762(14) 0.1794(8)
H11A H -0.43040 -0.44200 0.18680
H12A H -0.49800 -0.37250 0.19540
C5A C -0.4580(15) -0.3692(15) 0.1130(8)
H13A H -0.47210 -0.30650 0.10490
H14A H -0.51930 -0.42810 0.09280
C6A C -0.3661(16) -0.3421(16) 0.0302(9)
H15A H -0.42420 -0.39700 0.00430
H16A H -0.38220 -0.27920 0.02790
C7A C -0.2625(16) -0.3265(16) 0.0075(10)
H17A H -0.27560 -0.31870 -0.03470
H18A H -0.24520 -0.38860 0.01160
C8A C -0.1676(17) -0.2357(16) 0.0383(9)
H19A H -0.18640 -0.17420 0.03680
H20A H -0.11050 -0.22640 0.01660
C9A C -0.0371(18) -0.1532(18) 0.1305(10)
H21A H 0.02520 -0.14770 0.11380
H22A H -0.05420 -0.09150 0.12410
C10A C -0.0145(16) -0.1628(17) 0.1959(9)
H23A H 0.04140 -0.10040 0.21680
H24A H 0.00910 -0.22080 0.20270
C21A C -0.4266(10) -0.8395(10) -0.0413(6)
C22A C -0.3771(12) -0.8046(12) -0.0936(7)
H49A H -0.31590 -0.82460 -0.09260
H50A H -0.42820 -0.83600 -0.12980
H51A H -0.35530 -0.73070 -0.09200
O1A O -0.4251(7) -0.9232(7) -0.0205(4)
O2A O -0.4717(8) -0.7880(8) -0.0160(4)
O3A O -0.1178(7) -0.6752(7) 0.4610(4)
O4A O -0.5538(8) -0.8949(8) 0.4126(5)
O5A O -0.3932(8) -0.4892(8) 0.3568(4)
O6A O -0.0720(8) -0.9602(8) 0.3508(5)
O7A O -0.5099(8) -1.1718(8) 0.2962(5)
O8A O -0.7463(8) -1.0016(8) 0.2150(4)
O9A O -0.5896(8) -0.6032(8) 0.1585(4)
O10A O -0.2000(8) -0.4207(8) 0.1919(4)
O11A O 0.0763(8) -0.6097(8) 0.2984(5)
O12A O -0.2748(7) -1.0927(7) 0.1193(4)
O13A O -0.1325(8) -0.7333(8) 0.0662(4)
O14A O -0.3359(8) -0.7933(8) 0.4199(4)
O15A O -0.2585(7) -0.5994(7) 0.3925(4)
O16A O -0.1951(8) -0.8392(8) 0.3662(4)
O17A O -0.1192(7) -0.6512(7) 0.3392(4)
O18A O -0.4679(8) -0.7014(8) 0.3727(4)
O19A O -0.4401(7) -0.9619(7) 0.3398(4)
O20A O -0.5662(7) -0.8690(7) 0.2918(4)
O21A O -0.4763(7) -0.6451(7) 0.2617(4)
O22A O -0.2720(7) -0.5453(7) 0.2820(4)
O23A O -0.2956(8) -1.0373(8) 0.3222(4)
O24A O -0.0921(7) -0.8022(7) 0.2814(4)
O25A O -0.5405(7) -1.0193(7) 0.2292(4)
O26A O -0.6425(8) -0.8021(8) 0.1912(4)
O27A O -0.3747(7) -0.6065(7) 0.1729(4)
O28A O -0.0878(7) -0.5344(7) 0.2520(4)
O29A O -0.2040(7) -0.8735(7) 0.1511(4)
O30A O -0.1824(7) -0.9979(7) 0.2349(4)
O31A O -0.3947(7) -1.1051(7) 0.2089(4)
O32A O -0.1903(7) -0.5966(7) 0.1379(4)
O33A O -0.0591(7) -0.6871(7) 0.1900(4)
O34A O -0.3491(7) -0.7528(7) 0.3115(4)
O35A O -0.3189(7) -0.9135(7) 0.2459(4)
O36A O -0.4647(7) -0.8193(7) 0.1929(4)
O37A O -0.2367(6) -0.7115(6) 0.2179(4)
O38A O -0.6337(7) -0.9709(7) 0.1262(4)
O39A O -0.5439(7) -0.7510(7) 0.0956(4)
O40A O -0.4099(7) -0.9825(7) 0.1220(4)
O41A O -0.3330(8) -0.7835(8) 0.0956(4)
O42A O -0.6805(8) -0.9281(8) 0.0004(4)
Gd1* Gd -0.48999(6) -1.10226(6) -0.06516(4)
Gd1A* Gd 0.48999(6) 0.10226(6) 1.06516(4)
Cu3* Cu -0.50000 -1.00000 0.50000
O1* O -0.5749(7) -1.0768(7) 0.0205(4)
O1A* O 0.5749(7) 0.0768(7) 0.9795(4)
O4A* O 0.4462(8) 0.1051(8) 0.4126(5)
#END
