
#######################################################################
#
#                 Cambridge Crystallographic Data Centre
#                                CCDC
#
#######################################################################
#
# If this CIF has been generated from an entry in the Cambridge
# Structural Database, then it will include bibliographic, chemical,
# crystal, experimental, refinement or atomic coordinate data resulting
# from the CCDC's data processing and validation procedures.
#
#######################################################################

data_CSD_CIF_YIVBEN01
_audit_creation_date 2019-03-14
_audit_creation_method CSD-ConQuest-V1
_database_code_CSD YIVBEN01
_database_code_depnum_ccdc_archive 'CCDC 1882860'
_chemical_formula_sum 'C64 H190 Cu6 Er2 Ge2 N24 O102 W22'
_chemical_formula_moiety
;
2(C10 H24 Cu1 N4 2+),(C44 H106 Cu4 Er2 Ge2 N16 O84 W22 4-)n,18(H2 O1)
;
_journal_coden_Cambridge 9
_journal_volume 58
_journal_year 2019
_journal_page_first 4365
_journal_name_full 'Inorg.Chem. '
loop_
_publ_author_name
"J.Martin-Caballero"
"B.Artetxe"
"S.Reinoso"
"L.S.Felices"
"P.Vitoria"
"A.Larranaga"
"J.L.Vilas"
"J.M.Gutierrez-Zorrilla"
_chemical_name_systematic
;
catena-[bis((1,4,8,11-tetraazacyclotetradecane)-copper(ii)) 
dohexacontakis(\m-oxo)-bis(\m-acetato)-diaqua-tetrakis(1,4,8,11-tetraazacyclot
etradecane)-hexadeca-oxo-tetra-copper(ii)-di-erbium(iii)-di-germanium(iv)-doco
sa-tungsten(vi) octadecahydrate]
;
_cell_volume   4019.518
_exptl_crystal_colour 'orange'
_exptl_crystal_density_diffrn 3.236
_exptl_special_details
;
Fully rehydrated phase - as-synthesised crystal was dehydrated by heating to 
180 deg.C for 1h before rehydration upon exposure to air for 24h.
;
_exptl_crystal_description 'plates'
_diffrn_ambient_temperature 100
_refine_special_details
;
The structure is disordered.

;
#These two values have been output from a single CSD field.
_refine_ls_R_factor_gt 0.0772
_refine_ls_wR_factor_gt 0.0772
_symmetry_cell_setting triclinic
_symmetry_space_group_name_H-M 'P -1'
_symmetry_Int_Tables_number 2
loop_
_symmetry_equiv_pos_site_id
_symmetry_equiv_pos_as_xyz
1 x,y,z
2 -x,-y,-z
_cell_length_a 13.6233(2)
_cell_length_b 13.8868(2)
_cell_length_c 23.1054(4)
_cell_angle_alpha 92.7908(14)
_cell_angle_beta 99.6928(14)
_cell_angle_gamma 110.0975(15)
_cell_formula_units_Z 1
loop_
_atom_type_symbol
_atom_type_radius_bond
C 0.68
H 0.23
Cu 1.32
Er 1.89
Ge 1.17
N 0.68
O 0.68
W 1.62
loop_
_atom_site_label
_atom_site_type_symbol
_atom_site_fract_x
_atom_site_fract_y
_atom_site_fract_z
W1 W 0.20994(5) -0.28506(5) 0.60609(3)
W2 W 0.47458(5) -0.15694(5) 0.63692(3)
W3 W 0.37532(5) -0.39989(5) 0.66992(3)
W4 W 0.16984(6) -0.07116(5) 0.69087(3)
W5 W 0.43431(6) 0.05440(5) 0.72287(3)
W6 W 0.62177(5) -0.06820(5) 0.79587(3)
W7 W 0.52437(5) -0.30939(5) 0.82851(3)
W8 W 0.22582(6) -0.45277(5) 0.79141(3)
W9 W 0.05906(5) -0.34045(5) 0.72832(3)
W10 W 0.29935(5) 0.00398(5) 0.83407(3)
W11 W 0.19346(5) -0.25935(5) 0.87089(3)
Er1 Er 0.50942(6) -0.10345(6) 0.93362(3)
Ge1 Ge 0.34532(12) -0.19983(12) 0.75830(6)
Cu1 Cu 0.2331(2) -0.7255(2) 0.84284(11)
Cu2 Cu 0.00000 -0.50000 0.50000
Cu3 Cu 0.50000 0.00000 0.50000
N1 N 0.1151(16) -0.8231(16) 0.7794(9)
H1 H 0.12474 -0.88982 0.77666
N2 N 0.3423(17) -0.7081(17) 0.7908(9)
H2 H 0.36046 -0.77054 0.79068
N3 N 0.3566(18) -0.6359(18) 0.9049(10)
H3 H 0.35435 -0.56607 0.90480
N4 N 0.1232(18) -0.7581(17) 0.8948(10)
H4 H 0.09638 -0.70106 0.89498
C1 C 0.1041(19) -0.7897(19) 0.7194(11)
H5 H 0.09311 -0.72426 0.72079
H6 H 0.04347 -0.84048 0.69295
C2 C 0.207(2) -0.778(2) 0.6973(14)
H7 H 0.21943 -0.84297 0.70039
H8 H 0.19543 -0.76934 0.65570
C3 C 0.3028(18) -0.6968(18) 0.7263(10)
H9 H 0.29055 -0.63203 0.72494
H10 H 0.35857 -0.69302 0.70439
C4 C 0.433(2) -0.627(2) 0.8175(14)
H11 H 0.42462 -0.56208 0.80962
H12 H 0.49354 -0.63032 0.80144
C5 C 0.454(2) -0.632(2) 0.8827(11)
H13 H 0.47097 -0.69279 0.89112
H14 H 0.51413 -0.57146 0.90210
C6 C 0.365(2) -0.658(2) 0.9667(13)
H15 H 0.41972 -0.59949 0.99158
H16 H 0.38593 -0.71744 0.97071
C7 C 0.257(2) -0.679(2) 0.9889(14)
H17 H 0.26999 -0.68780 1.03057
H18 H 0.23793 -0.61846 0.98545
C8 C 0.169(2) -0.765(2) 0.9603(13)
H19 H 0.11221 -0.77531 0.98248
H20 H 0.18872 -0.82562 0.96159
C9 C 0.038(3) -0.846(3) 0.8653(16)
H21 H -0.02390 -0.85508 0.88285
H22 H 0.05742 -0.90672 0.87016
C10 C 0.011(3) -0.837(3) 0.8017(15)
H23 H -0.01106 -0.77856 0.79554
H24 H -0.04630 -0.89942 0.78149
N5 N -0.0436(12) -0.5393(12) 0.5780(7)
H25 H 0.00550 -0.48551 0.60891
N6 N 0.1188(12) -0.5580(12) 0.5129(7)
H26 H 0.17924 -0.50556 0.53953
C11 C -0.1469(17) -0.5352(16) 0.5762(9)
H27 H -0.16033 -0.53004 0.61593
H28 H -0.20078 -0.59716 0.55389
C12 C 0.1507(17) -0.5602(16) 0.4536(9)
H29 H 0.10263 -0.62216 0.42855
H30 H 0.22224 -0.56168 0.45872
C13 C 0.1014(18) -0.6533(17) 0.5389(9)
H31 H 0.16559 -0.67002 0.54305
H32 H 0.04448 -0.70868 0.51295
C14 C 0.0715(18) -0.6457(18) 0.6003(10)
H33 H 0.07325 -0.70567 0.61969
H34 H 0.12360 -0.58482 0.62467
C15 C -0.0374(18) -0.6395(17) 0.5949(10)
H35 H -0.08693 -0.69453 0.56547
H36 H -0.06005 -0.65115 0.63234
N7 N 0.4669(15) 0.0923(14) 0.5572(9)
H37 H 0.46208 0.05760 0.59306
N8 N 0.6548(16) 0.0970(16) 0.5240(9)
H38 H 0.66753 0.14406 0.49353
C16 C 0.5645(19) 0.1862(19) 0.5733(12)
H39 H 0.56525 0.23218 0.54295
H40 H 0.56369 0.22214 0.61018
C17 C 0.658(2) 0.161(2) 0.5796(11)
H41 H 0.66272 0.12280 0.61329
H42 H 0.72064 0.22399 0.58640
C18 C 0.736(2) 0.051(2) 0.5282(14)
H43 H 0.72978 0.00696 0.55985
H44 H 0.80612 0.10472 0.53764
C19 C 0.275(2) 0.0133(19) 0.5300(11)
H45 H 0.21140 0.02987 0.52893
H46 H 0.27980 -0.02849 0.56207
C20 C 0.371(2) 0.112(2) 0.5432(13)
H47 H 0.37237 0.15047 0.50908
H48 H 0.36485 0.15451 0.57614
C21 C 0.4247(12) -0.1661(12) 1.0416(6)
C22 C 0.3748(15) -0.1970(15) 1.0924(8)
H49 H 0.34746 -0.14597 1.10486
H50 H 0.31739 -0.26236 1.08147
H51 H 0.42675 -0.20309 1.12429
O1 O 0.4254(9) -0.0791(8) 1.0224(5)
O2 O 0.4670(9) -0.2174(9) 1.0160(5)
O3 O 0.120(1) -0.3238(10) 0.5411(6)
O4 O 0.5532(10) -0.1063(10) 0.5869(5)
O5 O 0.3935(9) -0.5097(9) 0.6428(5)
O6 O 0.0721(10) -0.0399(9) 0.6491(5)
O7 O 0.5094(10) 0.1704(10) 0.7032(5)
O8 O 0.7464(10) 0.0016(10) 0.7820(5)
O9 O 0.587(1) -0.3986(10) 0.8370(5)
O10 O 0.1995(9) -0.5783(9) 0.8065(5)
O11 O -0.0757(10) -0.3920(9) 0.7005(5)
O12 O 0.2736(8) 0.0930(8) 0.8791(5)
O13 O 0.1271(10) -0.2683(9) 0.9289(5)
O14 O 0.3345(9) -0.2068(9) 0.5809(5)
O15 O 0.2579(9) -0.3994(8) 0.6067(5)
O16 O 0.1970(9) -0.1609(8) 0.6343(5)
O17 O 0.1187(8) -0.3490(8) 0.6591(4)
O18 O 0.4658(9) -0.2990(8) 0.6264(5)
O19 O 0.4392(9) -0.0398(8) 0.6600(5)
O20 O 0.5644(9) -0.1332(9) 0.7067(5)
O21 O 0.4762(9) -0.3543(9) 0.7359(5)
O22 O 0.2712(9) -0.4541(8) 0.7169(5)
O23 O 0.2964(9) 0.0378(8) 0.6786(5)
O24 O 0.0895(9) -0.2009(8) 0.7179(5)
O25 O 0.5387(9) 0.0183(8) 0.7702(5)
O26 O 0.6409(9) -0.1988(9) 0.8055(5)
O27 O 0.3726(8) -0.3938(8) 0.8250(4)
O28 O 0.0874(9) -0.4665(8) 0.7469(5)
O29 O 0.2024(8) -0.1272(8) 0.8477(5)
O30 O 0.1827(9) -0.0021(8) 0.7649(5)
O31 O 0.3931(9) 0.1038(8) 0.7898(5)
O32 O 0.1868(8) -0.4027(8) 0.8595(5)
O33 O 0.0575(8) -0.3149(8) 0.8072(5)
O34 O 0.3475(8) -0.2468(7) 0.6869(4)
O35 O 0.3197(7) -0.0868(7) 0.7538(4)
O36 O 0.4631(8) -0.1820(8) 0.8067(4)
O37 O 0.2360(7) -0.2888(7) 0.7805(4)
O38 O 0.6371(9) -0.0300(8) 0.8722(5)
O39 O 0.5448(9) -0.2542(9) 0.9020(5)
O40 O 0.4087(8) -0.0159(8) 0.8767(4)
O41 O 0.3319(9) -0.2162(8) 0.9036(5)
O42 O 0.6819(9) -0.0734(9) 1.0018(5)
Cu4 Cu 0.7838(2) -0.3436(2) 0.76671(13)
N9 N 0.6870(17) -0.3571(16) 0.6871(9)
H52 H 0.62448 -0.34260 0.69462
N10 N 0.8732(15) -0.3208(14) 0.8463(8)
H53 H 0.94296 -0.31927 0.83970
N11 N 0.8329(17) -0.1918(16) 0.7676(9)
H54 H 0.77302 -0.17233 0.77495
N12 N 0.733(2) -0.4962(19) 0.7590(11)
H55 H 0.78600 -0.51563 0.74235
C23 C 0.715(3) -0.552(3) 0.8076(15)
H56 H 0.69822 -0.62468 0.79574
H57 H 0.65586 -0.54389 0.82250
C24 C 0.819(2) -0.511(2) 0.8574(14)
H58 H 0.81218 -0.55731 0.88753
H59 H 0.87981 -0.50872 0.84057
C25 C 0.835(2) -0.4103(19) 0.8836(11)
H60 H 0.88758 -0.39587 0.92007
H61 H 0.76909 -0.41089 0.89397
C26 C 0.891(2) -0.218(2) 0.8723(12)
H62 H 0.94991 -0.19657 0.90611
H63 H 0.82795 -0.21488 0.88490
C27 C 0.919(2) -0.147(2) 0.8219(11)
H64 H 0.92398 -0.07782 0.83457
H65 H 0.98732 -0.14390 0.81322
C28 C 0.863(2) -0.144(2) 0.7154(14)
H66 H 0.88872 -0.06963 0.72404
H67 H 0.92111 -0.16283 0.70504
C29 C 0.775(3) -0.177(3) 0.6667(17)
H68 H 0.79479 -0.13321 0.63589
H69 H 0.71637 -0.16354 0.67960
C30 C 0.736(3) -0.284(3) 0.6402(15)
H70 H 0.79338 -0.30068 0.62849
H71 H 0.68114 -0.29338 0.60520
C31 C 0.649(3) -0.465(2) 0.6601(14)
H72 H 0.58361 -0.48180 0.63138
H73 H 0.70250 -0.47744 0.64058
C32 C 0.632(3) -0.528(3) 0.7092(15)
H74 H 0.61223 -0.60003 0.69456
H75 H 0.57358 -0.52028 0.72536
O43 O 0.4327(12) -0.3941(12) 0.5068(7)
O44 O 0.3807(13) -0.6034(12) 0.5273(7)
O45 O 0.152(4) -0.098(4) 1.024(2)
O46 O 0.046(3) -0.586(2) 0.9104(15)
O47 O -0.134(2) -0.6160(19) 0.7234(12)
O48 O -0.129(7) -0.740(7) 0.893(4)
O49 O 0.3500(16) -0.4238(16) 0.9597(9)
O50 O -0.253(2) -0.806(2) 0.7420(13)
O51 O 0.164(5) -0.447(4) 1.001(3)
O52? O -0.092(7) -0.757(7) 0.966(4)
O53? O 0.077(11) -0.400(11) 1.015(7)
N5A N 0.0436(12) -0.4607(12) 0.4220(7)
H25A H -0.00550 -0.51449 0.39109
N6A N -0.1188(12) -0.4420(12) 0.4871(7)
H26A H -0.17924 -0.49444 0.46047
C11A C 0.1469(17) -0.4648(16) 0.4238(9)
H27A H 0.16033 -0.46996 0.38407
H28A H 0.20078 -0.40284 0.44611
C12A C -0.1507(17) -0.4398(16) 0.5464(9)
H29A H -0.10263 -0.37784 0.57145
H30A H -0.22224 -0.43832 0.54128
C13A C -0.1014(18) -0.3467(17) 0.4611(9)
H31A H -0.16559 -0.32998 0.45695
H32A H -0.04448 -0.29132 0.48705
C14A C -0.0715(18) -0.3543(18) 0.3997(10)
H33A H -0.07325 -0.29433 0.38031
H34A H -0.12360 -0.41518 0.37533
C15A C 0.0374(18) -0.3605(17) 0.4051(10)
H35A H 0.08693 -0.30547 0.43453
H36A H 0.06005 -0.34885 0.36766
N7A N 0.5331(15) -0.0923(14) 0.4428(9)
H37A H 0.53792 -0.05760 0.40694
N8A N 0.3452(16) -0.0970(16) 0.4760(9)
H38A H 0.33247 -0.14406 0.50647
C16A C 0.4355(19) -0.1862(19) 0.4267(12)
H39A H 0.43475 -0.23218 0.45705
H40A H 0.43631 -0.22214 0.38982
C17A C 0.342(2) -0.161(2) 0.4204(11)
H41A H 0.33728 -0.12280 0.38671
H42A H 0.27936 -0.22399 0.41360
C18A C 0.264(2) -0.051(2) 0.4718(14)
H43A H 0.27022 -0.00696 0.44015
H44A H 0.19388 -0.10472 0.46236
C19A C 0.725(2) -0.0133(19) 0.4700(11)
H45A H 0.78860 -0.02987 0.47107
H46A H 0.72020 0.02849 0.43793
C20A C 0.629(2) -0.112(2) 0.4568(13)
H47A H 0.62763 -0.15047 0.49092
H48A H 0.63515 -0.15451 0.42386
W1A W -0.20994(5) -0.71494(5) 0.39391(3)
W2A W -0.47458(5) -0.84306(5) 0.36308(3)
W3A W -0.37532(5) -0.60011(5) 0.33008(3)
W4A W -0.16984(6) -0.92884(5) 0.30913(3)
W5A W -0.43431(6) -1.05440(5) 0.27713(3)
W6A W -0.62177(5) -0.93180(5) 0.20413(3)
W7A W -0.52437(5) -0.69061(5) 0.17149(3)
W8A W -0.22582(6) -0.54723(5) 0.20859(3)
W9A W -0.05906(5) -0.65955(5) 0.27168(3)
W10A W -0.29935(5) -1.00398(5) 0.16593(3)
W11A W -0.19346(5) -0.74065(5) 0.12911(3)
Er1A Er -0.50942(6) -0.89655(6) 0.06638(3)
Ge1A Ge -0.34532(12) -0.80017(12) 0.24170(6)
Cu1A Cu -0.2331(2) -0.2745(2) 0.15716(11)
N1A N -0.1151(16) -0.1769(16) 0.2206(9)
H1A H -0.12474 -0.11018 0.22334
N2A N -0.3423(17) -0.2919(17) 0.2092(9)
H2A H -0.36046 -0.22946 0.20932
N3A N -0.3566(18) -0.3641(18) 0.0951(10)
H3A H -0.35435 -0.43393 0.09520
N4A N -0.1232(18) -0.2419(17) 0.1052(10)
H4A H -0.09638 -0.29894 0.10502
C1A C -0.1041(19) -0.2103(19) 0.2806(11)
H5A H -0.09311 -0.27574 0.27921
H6A H -0.04347 -0.15952 0.30705
C2A C -0.207(2) -0.222(2) 0.3027(14)
H7A H -0.21943 -0.15703 0.29961
H8A H -0.19543 -0.23066 0.34430
C3A C -0.3028(18) -0.3032(18) 0.2737(10)
H9A H -0.29055 -0.36797 0.27506
H10A H -0.35857 -0.30698 0.29561
C4A C -0.433(2) -0.373(2) 0.1825(14)
H11A H -0.42462 -0.43792 0.19038
H12A H -0.49354 -0.36968 0.19856
C5A C -0.454(2) -0.368(2) 0.1173(11)
H13A H -0.47097 -0.30721 0.10888
H14A H -0.51413 -0.42854 0.09790
C6A C -0.365(2) -0.342(2) 0.0333(13)
H15A H -0.41972 -0.40051 0.00842
H16A H -0.38593 -0.28256 0.02929
C7A C -0.257(2) -0.321(2) 0.0111(14)
H17A H -0.26999 -0.31220 -0.03057
H18A H -0.23793 -0.38154 0.01455
C8A C -0.169(2) -0.235(2) 0.0397(13)
H19A H -0.11221 -0.22469 0.01752
H20A H -0.18872 -0.17438 0.03841
C9A C -0.038(3) -0.154(3) 0.1347(16)
H21A H 0.02390 -0.14492 0.11715
H22A H -0.05742 -0.09328 0.12984
C10A C -0.011(3) -0.163(3) 0.1983(15)
H23A H 0.01106 -0.22144 0.20446
H24A H 0.04630 -0.10058 0.21851
C21A C -0.4247(12) -0.8339(12) -0.0416(6)
C22A C -0.3748(15) -0.8030(15) -0.0924(8)
H49A H -0.34746 -0.85403 -0.10486
H50A H -0.31739 -0.73764 -0.08147
H51A H -0.42675 -0.79691 -0.12429
O1A O -0.4254(9) -0.9209(8) -0.0224(5)
O2A O -0.4670(9) -0.7826(9) -0.0160(5)
O3A O -0.120(1) -0.6762(10) 0.4589(6)
O4A O -0.5532(10) -0.8937(10) 0.4131(5)
O5A O -0.3935(9) -0.4903(9) 0.3572(5)
O6A O -0.0721(10) -0.9601(9) 0.3509(5)
O7A O -0.5094(10) -1.1704(10) 0.2968(5)
O8A O -0.7464(10) -1.0016(10) 0.2180(5)
O9A O -0.587(1) -0.6014(10) 0.1630(5)
O10A O -0.1995(9) -0.4217(9) 0.1935(5)
O11A O 0.0757(10) -0.6080(9) 0.2995(5)
O12A O -0.2736(8) -1.0930(8) 0.1209(5)
O13A O -0.1271(10) -0.7317(9) 0.0711(5)
O14A O -0.3345(9) -0.7932(9) 0.4191(5)
O15A O -0.2579(9) -0.6006(8) 0.3933(5)
O16A O -0.1970(9) -0.8391(8) 0.3657(5)
O17A O -0.1187(8) -0.6510(8) 0.3409(4)
O18A O -0.4658(9) -0.7010(8) 0.3736(5)
O19A O -0.4392(9) -0.9602(8) 0.3400(5)
O20A O -0.5644(9) -0.8668(9) 0.2933(5)
O21A O -0.4762(9) -0.6457(9) 0.2641(5)
O22A O -0.2712(9) -0.5459(8) 0.2831(5)
O23A O -0.2964(9) -1.0378(8) 0.3214(5)
O24A O -0.0895(9) -0.7991(8) 0.2821(5)
O25A O -0.5387(9) -1.0183(8) 0.2298(5)
O26A O -0.6409(9) -0.8012(9) 0.1945(5)
O27A O -0.3726(8) -0.6062(8) 0.1750(4)
O28A O -0.0874(9) -0.5335(8) 0.2531(5)
O29A O -0.2024(8) -0.8728(8) 0.1523(5)
O30A O -0.1827(9) -0.9979(8) 0.2351(5)
O31A O -0.3931(9) -1.1038(8) 0.2102(5)
O32A O -0.1868(8) -0.5973(8) 0.1405(5)
O33A O -0.0575(8) -0.6851(8) 0.1928(5)
O34A O -0.3475(8) -0.7532(7) 0.3131(4)
O35A O -0.3197(7) -0.9132(7) 0.2462(4)
O36A O -0.4631(8) -0.8180(8) 0.1933(4)
O37A O -0.2360(7) -0.7112(7) 0.2195(4)
O38A O -0.6371(9) -0.9700(8) 0.1278(5)
O39A O -0.5448(9) -0.7458(9) 0.0980(5)
O40A O -0.4087(8) -0.9841(8) 0.1233(4)
O41A O -0.3319(9) -0.7838(8) 0.0964(5)
O42A O -0.6819(9) -0.9266(9) -0.0018(5)
Er1* Er -0.49058(6) -1.10345(6) -0.06638(3)
Er1A* Er 0.49058(6) 0.10345(6) 1.06638(3)
Cu3* Cu -0.50000 -1.00000 0.50000
O1* O -0.5746(9) -1.0791(8) 0.0224(5)
O1A* O 0.5746(9) 0.0791(8) 0.9776(5)
O4A* O 0.4468(10) 0.1063(10) 0.4131(5)
#END
