
#######################################################################
#
#                 Cambridge Crystallographic Data Centre
#                                CCDC
#
#######################################################################
#
# If this CIF has been generated from an entry in the Cambridge
# Structural Database, then it will include bibliographic, chemical,
# crystal, experimental, refinement or atomic coordinate data resulting
# from the CCDC's data processing and validation procedures.
#
#######################################################################

data_CSD_CIF_YIVBOX
_audit_creation_date 2019-03-14
_audit_creation_method CSD-ConQuest-V1
_database_code_CSD YIVBOX
_database_code_depnum_ccdc_archive 'CCDC 1882857'
_chemical_formula_sum 'C64 H190 Cu6 Ge2 N24 O102 W22 Yb2'
_chemical_formula_moiety
;
2(C10 H24 Cu1 N4 2+),n(C44 H106 Cu4 Ge2 N16 O84 W22 Yb2 4-),18(H2 O1)
;
_journal_coden_Cambridge 9
_journal_volume 58
_journal_year 2019
_journal_page_first 4365
_journal_name_full 'Inorg.Chem. '
loop_
_publ_author_name
"J.Martin-Caballero"
"B.Artetxe"
"S.Reinoso"
"L.S.Felices"
"P.Vitoria"
"A.Larranaga"
"J.L.Vilas"
"J.M.Gutierrez-Zorrilla"
_chemical_name_systematic
;
catena-[bis((1,4,8,11-tetraazacyclotetradecane)-copper(ii)) 
dohexacontakis(\m-oxo)-bis(\m-acetato)-diaqua-tetrakis(1,4,8,11-tetraazacyclot
etradecane)-hexadeca-oxo-tetra-copper(ii)-di-germanium(iv)-docosa-tungsten(vi)
-di-ytterbium(iii) octadecahydrate]
;
_cell_volume   3956.746
_exptl_crystal_colour 'orange'
_exptl_crystal_density_diffrn 3.293
_exptl_special_details
;
Isostructural with the La, Ce, Pr, Nd, Sm, Eu, Gd, Tb, Dy, Ho, Er, Tm and Lu 
analogues.
;
_exptl_crystal_description 'plates'
_diffrn_ambient_temperature 100
_refine_special_details
;
O9W and O10W disordered over two sites with occupancies 0.55:0.45.

;
#These two values have been output from a single CSD field.
_refine_ls_R_factor_gt 0.0392
_refine_ls_wR_factor_gt 0.0392
_symmetry_cell_setting triclinic
_symmetry_space_group_name_H-M 'P -1'
_symmetry_Int_Tables_number 2
loop_
_symmetry_equiv_pos_site_id
_symmetry_equiv_pos_as_xyz
1 x,y,z
2 -x,-y,-z
_cell_length_a 13.6180(3)
_cell_length_b 13.8455(3)
_cell_length_c 22.8414(5)
_cell_angle_alpha 92.8040(18)
_cell_angle_beta 100.0329(16)
_cell_angle_gamma 110.0315(19)
_cell_formula_units_Z 1
loop_
_atom_type_symbol
_atom_type_radius_bond
C 0.68
H 0.23
Cu 1.32
Ge 1.17
N 0.68
O 0.68
W 1.62
Yb 1.87
loop_
_atom_site_label
_atom_site_type_symbol
_atom_site_fract_x
_atom_site_fract_y
_atom_site_fract_z
W1 W 0.21156(3) -0.28574(3) 0.607219(16)
W2 W 0.47684(3) -0.15661(3) 0.638007(17)
W3 W 0.37858(3) -0.39964(3) 0.671770(16)
W4 W 0.17269(3) -0.06984(3) 0.692808(16)
W5 W 0.43702(3) 0.05633(3) 0.723987(17)
W6 W 0.62377(3) -0.06673(3) 0.799814(18)
W7 W 0.52791(3) -0.30575(3) 0.833164(17)
W8 W 0.22994(3) -0.45206(3) 0.794195(17)
W9 W 0.06280(3) -0.33875(3) 0.731721(17)
W10 W 0.30569(3) 0.00565(3) 0.837494(16)
W11 W 0.20244(3) -0.25647(3) 0.875685(16)
Yb1 Yb 0.51142(4) -0.09972(4) 0.93592(2)
Ge1 Ge 0.34745(7) -0.19918(7) 0.76001(4)
Cu1 Cu 0.23717(11) -0.72414(11) 0.84613(6)
Cu2 Cu 0.00000 -0.50000 0.50000
Cu3 Cu 0.50000 0.00000 0.50000
N1 N 0.1146(8) -0.8216(8) 0.7826(4)
H1 H 0.12300 -0.88400 0.78030
N2 N 0.3420(7) -0.7084(8) 0.7912(4)
H2 H 0.35680 -0.76760 0.79010
N3 N 0.3625(8) -0.6317(8) 0.9093(4)
H3 H 0.36010 -0.56670 0.90940
N4 N 0.1345(8) -0.7524(8) 0.9008(4)
H4 H 0.11030 -0.69870 0.90090
C1 C 0.1075(10) -0.7888(10) 0.7214(5)
H5 H 0.09890 -0.72210 0.72250
H6 H 0.04530 -0.83840 0.69480
C2 C 0.2061(10) -0.781(1) 0.6975(6)
H7 H 0.19260 -0.77240 0.65530
H8 H 0.21780 -0.84600 0.70060
C3 C 0.3095(9) -0.6922(9) 0.7291(5)
H9 H 0.36620 -0.68850 0.70780
H10 H 0.29790 -0.62690 0.72820
C4 C 0.4413(9) -0.6246(10) 0.8206(5)
H11 H 0.43610 -0.55840 0.81200
H12 H 0.50050 -0.63150 0.80470
C5 C 0.4623(10) -0.6279(11) 0.8881(5)
H13 H 0.47940 -0.68860 0.89750
H14 H 0.52190 -0.56680 0.90780
C6 C 0.3705(9) -0.6554(10) 0.9710(5)
H15 H 0.42940 -0.59990 0.99630
H16 H 0.38640 -0.71840 0.97370
C7 C 0.2679(10) -0.6693(11) 0.9946(6)
H17 H 0.28200 -0.67540 1.03710
H18 H 0.25060 -0.60740 0.98990
C8 C 0.171(1) -0.7626(10) 0.9641(5)
H19 H 0.18890 -0.82450 0.96640
H20 H 0.11330 -0.77030 0.98520
C9 C 0.0425(11) -0.8449(11) 0.8727(6)
H21 H -0.01850 -0.84960 0.89040
H22 H 0.05950 -0.90670 0.87870
C10 C 0.0172(11) -0.8351(11) 0.8060(6)
H23 H -0.04050 -0.89690 0.78540
H24 H -0.00470 -0.77600 0.79990
N5 N -0.0426(7) -0.5391(7) 0.5790(4)
H25 H 0.00300 -0.48910 0.60820
N6 N 0.1186(7) -0.5570(7) 0.5116(4)
H26 H 0.17570 -0.50780 0.53600
C11 C -0.1502(9) -0.5324(9) 0.5744(5)
H27 H -0.16730 -0.53010 0.61380
H28 H -0.20380 -0.59250 0.54950
C12 C 0.1488(9) -0.5647(9) 0.4528(5)
H29 H 0.09730 -0.62510 0.42720
H30 H 0.21860 -0.57060 0.45790
C13 C 0.1027(9) -0.6542(9) 0.5386(5)
H31 H 0.16810 -0.66890 0.54370
H32 H 0.04740 -0.71050 0.51170
C14 C 0.0708(9) -0.6484(10) 0.5990(5)
H33 H 0.12410 -0.58890 0.62450
H34 H 0.07160 -0.70970 0.61750
C15 C -0.0395(9) -0.6397(9) 0.5963(5)
H35 H -0.09230 -0.69500 0.56760
H36 H -0.05840 -0.64880 0.63520
N7 N 0.4690(8) 0.0929(9) 0.5586(5)
H37 H 0.46600 0.06190 0.59280
N8 N 0.6541(9) 0.0984(9) 0.5249(5)
H38 H 0.66570 0.14240 0.49640
C16 C 0.5631(10) 0.1912(11) 0.5734(6)
H39 H 0.56180 0.22900 0.61000
H40 H 0.56240 0.23440 0.54130
C17 C 0.6627(11) 0.1623(11) 0.5814(6)
H41 H 0.72640 0.22400 0.58840
H42 H 0.66610 0.12300 0.61530
C18 C 0.7386(12) 0.0508(12) 0.5296(6)
H43 H 0.80850 0.10520 0.54010
H44 H 0.73170 0.00630 0.56130
C19 C 0.2698(11) 0.0110(11) 0.5279(6)
H45 H 0.27380 -0.03100 0.56040
H46 H 0.20550 0.02710 0.52600
C20 C 0.3674(11) 0.1130(11) 0.5424(6)
H47 H 0.36950 0.15120 0.50790
H48 H 0.36030 0.15520 0.57550
C21 C 0.4271(8) -0.1582(8) 1.0399(4)
C22 C 0.3760(8) -0.1949(9) 1.0910(5)
H49 H 0.34450 -0.14730 1.10370
H50 H 0.42880 -0.19920 1.12360
H51 H 0.32160 -0.26210 1.07880
O1 O 0.4251(5) -0.0731(5) 1.0199(3)
O2 O 0.4745(5) -0.2074(6) 1.0150(3)
O3 O 0.1193(5) -0.3248(5) 0.5403(3)
O4 O 0.5539(5) -0.1065(6) 0.5871(3)
O5 O 0.3942(5) -0.5103(5) 0.6436(3)
O6 O 0.0727(5) -0.0396(5) 0.6508(3)
O7 O 0.5111(6) 0.1724(6) 0.7037(3)
O8 O 0.7494(6) 0.0055(6) 0.7883(3)
O9 O 0.5920(6) -0.3930(6) 0.8454(3)
O10 O 0.2037(5) -0.5772(5) 0.8095(3)
O11 O -0.0735(5) -0.3886(6) 0.7042(3)
O12 O 0.2811(5) 0.0955(5) 0.8830(3)
O13 O 0.1429(5) -0.2617(5) 0.9376(3)
O14 O 0.3363(5) -0.2069(5) 0.5803(3)
O15 O 0.2584(5) -0.4007(5) 0.6084(3)
O16 O 0.1987(5) -0.1617(5) 0.6358(3)
O17 O 0.1202(5) -0.3485(5) 0.6612(3)
O18 O 0.4690(5) -0.2988(5) 0.6282(3)
O19 O 0.4405(5) -0.0397(5) 0.6603(3)
O20 O 0.5697(5) -0.1286(5) 0.7099(3)
O21 O 0.4790(5) -0.3552(5) 0.7406(3)
O22 O 0.2739(5) -0.4541(5) 0.7187(3)
O23 O 0.2966(5) 0.0388(5) 0.6795(3)
O24 O 0.0938(5) -0.1981(5) 0.7206(3)
O25 O 0.5440(5) 0.0203(5) 0.7715(3)
O26 O 0.6446(5) -0.1959(5) 0.8098(3)
O27 O 0.3782(5) -0.3914(5) 0.8277(3)
O28 O 0.0904(5) -0.4646(5) 0.7502(3)
O29 O 0.2094(5) -0.1244(5) 0.8513(3)
O30 O 0.1873(5) 0.0009(5) 0.7676(3)
O31 O 0.3974(5) 0.1056(5) 0.7928(3)
O32 O 0.1950(5) -0.4015(5) 0.8648(3)
O33 O 0.0632(5) -0.3107(5) 0.8126(3)
O34 O 0.3504(5) -0.2471(5) 0.6879(2)
O35 O 0.3217(4) -0.0843(5) 0.7555(2)
O36 O 0.4663(5) -0.1810(5) 0.8075(3)
O37 O 0.2397(4) -0.2875(5) 0.7833(2)
O38 O 0.6338(5) -0.0289(5) 0.8770(3)
O39 O 0.5454(5) -0.2439(5) 0.9062(3)
O40 O 0.4157(5) -0.0165(5) 0.8804(3)
O41 O 0.3415(5) -0.2116(5) 0.9058(3)
O42 O 0.6766(6) -0.0728(6) 0.9971(3)
Cu4 Cu 0.78754(11) -0.33943(13) 0.76725(7)
N9 N 0.6898(8) -0.3501(8) 0.6870(4)
H52 H 0.63300 -0.33490 0.69460
N10 N 0.8775(7) -0.3211(7) 0.8491(4)
H53 H 0.94170 -0.32060 0.84260
N11 N 0.8407(8) -0.1863(8) 0.7735(4)
H54 H 0.78550 -0.16770 0.78050
N12 N 0.7313(9) -0.4952(9) 0.7576(5)
H55 H 0.77790 -0.51440 0.74000
C23 C 0.7213(11) -0.5494(11) 0.8103(6)
H56 H 0.70340 -0.62270 0.79870
H57 H 0.66330 -0.54110 0.82680
C24 C 0.8227(11) -0.5101(11) 0.8581(6)
H58 H 0.81700 -0.55750 0.88820
H59 H 0.88250 -0.50910 0.84010
C25 C 0.8443(9) -0.4041(9) 0.8875(5)
H60 H 0.78020 -0.40290 0.90010
H61 H 0.89980 -0.38990 0.92310
C26 C 0.899(1) -0.2161(10) 0.8759(5)
H62 H 0.95800 -0.19670 0.91010
H63 H 0.83660 -0.21220 0.88940
C27 C 0.9264(10) -0.1444(10) 0.8288(5)
H64 H 0.93100 -0.07550 0.84310
H65 H 0.99490 -0.13990 0.82000
C28 C 0.8719(10) -0.1376(11) 0.7208(6)
H66 H 0.92900 -0.15730 0.71020
H67 H 0.89870 -0.06290 0.73020
C29 C 0.7788(12) -0.1696(12) 0.6680(7)
H68 H 0.72120 -0.15250 0.68000
H69 H 0.80060 -0.12860 0.63610
C30 C 0.7368(11) -0.2797(11) 0.6437(6)
H70 H 0.79420 -0.29790 0.63240
H71 H 0.68260 -0.29010 0.60790
C31 C 0.6492(11) -0.4588(11) 0.6608(6)
H72 H 0.70140 -0.47260 0.64110
H73 H 0.58390 -0.47320 0.63130
C32 C 0.6279(11) -0.5268(11) 0.7104(6)
H74 H 0.60600 -0.59900 0.69480
H75 H 0.57140 -0.51750 0.72800
O43 O 0.4328(6) -0.3958(7) 0.5065(3)
O44 O 0.3787(7) -0.6046(7) 0.5266(4)
O45 O 0.1586(11) -0.0951(11) 1.0253(6)
O46 O 0.0577(10) -0.5735(10) 0.9123(5)
O47 O -0.137(4) -0.745(4) 0.887(2)
O48 O -0.1309(10) -0.6159(10) 0.7245(5)
O49 O 0.3565(7) -0.4183(7) 0.9642(4)
O50 O 0.7562(19) -0.7977(18) 0.7526(10)
O51 O 0.826(2) -0.566(2) 0.9938(14)
O52? O 0.911(2) -0.586(2) 0.9860(13)
N5A N 0.0426(7) -0.4609(7) 0.4210(4)
H25A H -0.00300 -0.51090 0.39180
N6A N -0.1186(7) -0.4430(7) 0.4884(4)
H26A H -0.17570 -0.49220 0.46400
C11A C 0.1502(9) -0.4676(9) 0.4256(5)
H27A H 0.16730 -0.46990 0.38620
H28A H 0.20380 -0.40750 0.45050
C12A C -0.1488(9) -0.4353(9) 0.5472(5)
H29A H -0.09730 -0.37490 0.57280
H30A H -0.21860 -0.42940 0.54210
C13A C -0.1027(9) -0.3458(9) 0.4614(5)
H31A H -0.16810 -0.33110 0.45630
H32A H -0.04740 -0.28950 0.48830
C14A C -0.0708(9) -0.3516(10) 0.4010(5)
H33A H -0.12410 -0.41110 0.37550
H34A H -0.07160 -0.29030 0.38250
C15A C 0.0395(9) -0.3603(9) 0.4037(5)
H35A H 0.09230 -0.30500 0.43240
H36A H 0.05840 -0.35120 0.36480
N7A N 0.5310(8) -0.0929(9) 0.4414(5)
H37A H 0.53400 -0.06190 0.40720
N8A N 0.3459(9) -0.0984(9) 0.4751(5)
H38A H 0.33430 -0.14240 0.50360
C16A C 0.4369(10) -0.1912(11) 0.4266(6)
H39A H 0.43820 -0.22900 0.39000
H40A H 0.43760 -0.23440 0.45870
C17A C 0.3373(11) -0.1623(11) 0.4186(6)
H41A H 0.27360 -0.22400 0.41160
H42A H 0.33390 -0.12300 0.38470
C18A C 0.2614(12) -0.0508(12) 0.4704(6)
H43A H 0.19150 -0.10520 0.45990
H44A H 0.26830 -0.00630 0.43870
C19A C 0.7302(11) -0.0110(11) 0.4721(6)
H45A H 0.72620 0.03100 0.43960
H46A H 0.79450 -0.02710 0.47400
C20A C 0.6326(11) -0.1130(11) 0.4576(6)
H47A H 0.63050 -0.15120 0.49210
H48A H 0.63970 -0.15520 0.42450
W1A W -0.21156(3) -0.71426(3) 0.392781(16)
W2A W -0.47684(3) -0.84339(3) 0.361993(17)
W3A W -0.37858(3) -0.60036(3) 0.328230(16)
W4A W -0.17269(3) -0.93016(3) 0.307192(16)
W5A W -0.43702(3) -1.05633(3) 0.276013(17)
W6A W -0.62377(3) -0.93327(3) 0.200186(18)
W7A W -0.52791(3) -0.69425(3) 0.166836(17)
W8A W -0.22994(3) -0.54794(3) 0.205805(17)
W9A W -0.06280(3) -0.66125(3) 0.268279(17)
W10A W -0.30569(3) -1.00565(3) 0.162506(16)
W11A W -0.20244(3) -0.74353(3) 0.124315(16)
Yb1A Yb -0.51142(4) -0.90028(4) 0.06408(2)
Ge1A Ge -0.34745(7) -0.80082(7) 0.23999(4)
Cu1A Cu -0.23717(11) -0.27586(11) 0.15387(6)
N1A N -0.1146(8) -0.1784(8) 0.2174(4)
H1A H -0.12300 -0.11600 0.21970
N2A N -0.3420(7) -0.2916(8) 0.2088(4)
H2A H -0.35680 -0.23240 0.20990
N3A N -0.3625(8) -0.3683(8) 0.0907(4)
H3A H -0.36010 -0.43330 0.09060
N4A N -0.1345(8) -0.2476(8) 0.0992(4)
H4A H -0.11030 -0.30130 0.09910
C1A C -0.1075(10) -0.2112(10) 0.2786(5)
H5A H -0.09890 -0.27790 0.27750
H6A H -0.04530 -0.16160 0.30520
C2A C -0.2061(10) -0.219(1) 0.3025(6)
H7A H -0.19260 -0.22760 0.34470
H8A H -0.21780 -0.15400 0.29940
C3A C -0.3095(9) -0.3078(9) 0.2709(5)
H9A H -0.36620 -0.31150 0.29220
H10A H -0.29790 -0.37310 0.27180
C4A C -0.4413(9) -0.3754(10) 0.1794(5)
H11A H -0.43610 -0.44160 0.18800
H12A H -0.50050 -0.36850 0.19530
C5A C -0.4623(10) -0.3721(11) 0.1119(5)
H13A H -0.47940 -0.31140 0.10250
H14A H -0.52190 -0.43320 0.09220
C6A C -0.3705(9) -0.3446(10) 0.0290(5)
H15A H -0.42940 -0.40010 0.00370
H16A H -0.38640 -0.28160 0.02630
C7A C -0.2679(10) -0.3307(11) 0.0054(6)
H17A H -0.28200 -0.32460 -0.03710
H18A H -0.25060 -0.39260 0.01010
C8A C -0.171(1) -0.2374(10) 0.0359(5)
H19A H -0.18890 -0.17550 0.03360
H20A H -0.11330 -0.22970 0.01480
C9A C -0.0425(11) -0.1551(11) 0.1273(6)
H21A H 0.01850 -0.15040 0.10960
H22A H -0.05950 -0.09330 0.12130
C10A C -0.0172(11) -0.1649(11) 0.1940(6)
H23A H 0.04050 -0.10310 0.21460
H24A H 0.00470 -0.22400 0.20010
C21A C -0.4271(8) -0.8418(8) -0.0399(4)
C22A C -0.3760(8) -0.8051(9) -0.0910(5)
H49A H -0.34450 -0.85270 -0.10370
H50A H -0.42880 -0.80080 -0.12360
H51A H -0.32160 -0.73790 -0.07880
O1A O -0.4251(5) -0.9269(5) -0.0199(3)
O2A O -0.4745(5) -0.7926(6) -0.0150(3)
O3A O -0.1193(5) -0.6752(5) 0.4597(3)
O4A O -0.5539(5) -0.8935(6) 0.4129(3)
O5A O -0.3942(5) -0.4897(5) 0.3564(3)
O6A O -0.0727(5) -0.9604(5) 0.3492(3)
O7A O -0.5111(6) -1.1724(6) 0.2963(3)
O8A O -0.7494(6) -1.0055(6) 0.2117(3)
O9A O -0.5920(6) -0.6070(6) 0.1546(3)
O10A O -0.2037(5) -0.4228(5) 0.1905(3)
O11A O 0.0735(5) -0.6114(6) 0.2958(3)
O12A O -0.2811(5) -1.0955(5) 0.1170(3)
O13A O -0.1429(5) -0.7383(5) 0.0624(3)
O14A O -0.3363(5) -0.7931(5) 0.4197(3)
O15A O -0.2584(5) -0.5993(5) 0.3916(3)
O16A O -0.1987(5) -0.8383(5) 0.3642(3)
O17A O -0.1202(5) -0.6515(5) 0.3388(3)
O18A O -0.4690(5) -0.7012(5) 0.3718(3)
O19A O -0.4405(5) -0.9603(5) 0.3397(3)
O20A O -0.5697(5) -0.8714(5) 0.2901(3)
O21A O -0.4790(5) -0.6448(5) 0.2594(3)
O22A O -0.2739(5) -0.5459(5) 0.2813(3)
O23A O -0.2966(5) -1.0388(5) 0.3205(3)
O24A O -0.0938(5) -0.8019(5) 0.2794(3)
O25A O -0.5440(5) -1.0203(5) 0.2285(3)
O26A O -0.6446(5) -0.8041(5) 0.1902(3)
O27A O -0.3782(5) -0.6086(5) 0.1723(3)
O28A O -0.0904(5) -0.5354(5) 0.2498(3)
O29A O -0.2094(5) -0.8756(5) 0.1487(3)
O30A O -0.1873(5) -1.0009(5) 0.2324(3)
O31A O -0.3974(5) -1.1056(5) 0.2072(3)
O32A O -0.1950(5) -0.5985(5) 0.1352(3)
O33A O -0.0632(5) -0.6893(5) 0.1874(3)
O34A O -0.3504(5) -0.7529(5) 0.3121(2)
O35A O -0.3217(4) -0.9157(5) 0.2445(2)
O36A O -0.4663(5) -0.8190(5) 0.1925(3)
O37A O -0.2397(4) -0.7125(5) 0.2167(2)
O38A O -0.6338(5) -0.9711(5) 0.1230(3)
O39A O -0.5454(5) -0.7561(5) 0.0938(3)
O40A O -0.4157(5) -0.9835(5) 0.1196(3)
O41A O -0.3415(5) -0.7884(5) 0.0942(3)
O42A O -0.6766(6) -0.9272(6) 0.0029(3)
Yb1* Yb -0.48858(4) -1.09972(4) -0.06408(2)
Yb1A* Yb 0.48858(4) 0.09972(4) 1.06408(2)
Cu3* Cu -0.50000 -1.00000 0.50000
O1* O -0.5749(5) -1.0731(5) 0.0199(3)
O1A* O 0.5749(5) 0.0731(5) 0.9801(3)
O4A* O 0.4461(5) 0.1065(6) 0.4129(3)
#END
