
#######################################################################
#
#                 Cambridge Crystallographic Data Centre
#                                CCDC
#
#######################################################################
#
# If this CIF has been generated from an entry in the Cambridge
# Structural Database, then it will include bibliographic, chemical,
# crystal, experimental, refinement or atomic coordinate data resulting
# from the CCDC's data processing and validation procedures.
#
#######################################################################

data_CSD_CIF_YIVBAJ
_audit_creation_date 2019-03-14
_audit_creation_method CSD-ConQuest-V1
_database_code_CSD YIVBAJ
_database_code_depnum_ccdc_archive 'CCDC 1882854'
_chemical_formula_sum 'C64 H190 Cu6 Ge2 Ho2 N24 O102 W22'
_chemical_formula_moiety
;
2(C10 H24 Cu1 N4 2+),n(C44 H106 Cu4 Ge2 Ho2 N16 O84 W22 4-),18(H2 O1)
;
_journal_coden_Cambridge 9
_journal_volume 58
_journal_year 2019
_journal_page_first 4365
_journal_name_full 'Inorg.Chem. '
loop_
_publ_author_name
"J.Martin-Caballero"
"B.Artetxe"
"S.Reinoso"
"L.S.Felices"
"P.Vitoria"
"A.Larranaga"
"J.L.Vilas"
"J.M.Gutierrez-Zorrilla"
_chemical_name_systematic
;
catena-[bis((1,4,8,11-tetraazacyclotetradecane)-copper(ii)) 
dohexacontakis(\m-oxo)-bis(\m-acetato)-diaqua-tetrakis(1,4,8,11-tetraazacyclot
etradecane)-hexadeca-oxo-tetra-copper(ii)-di-germanium(iv)-di-holmium(iii)-doc
osa-tungsten(vi) octadecahydrate]
;
_cell_volume   3985.615
_exptl_crystal_colour 'orange'
_exptl_crystal_density_diffrn 3.262
_exptl_special_details
;
Isostructural with the La, Ce, Pr, Nd, Sm, Eu, Gd, Tb, Dy, Er, Tm, Yb and Lu 
analogues.
;
_exptl_crystal_description 'plates'
_diffrn_ambient_temperature 100
_refine_special_details
;
O2W disordered by symmetry over two configurations with occupancy 0.5; O3W 
and O13W disordered over two sites with occupancies 0.5:0.5; O5W and O10W 
disordered over two sites with occupancies 0.5:0.5.
;
#These two values have been output from a single CSD field.
_refine_ls_R_factor_gt 0.0604
_refine_ls_wR_factor_gt 0.0604
_symmetry_cell_setting triclinic
_symmetry_space_group_name_H-M 'P -1'
_symmetry_Int_Tables_number 2
loop_
_symmetry_equiv_pos_site_id
_symmetry_equiv_pos_as_xyz
1 x,y,z
2 -x,-y,-z
_cell_length_a 13.6372(4)
_cell_length_b 13.8817(4)
_cell_length_c 22.9016(6)
_cell_angle_alpha 92.556(2)
_cell_angle_beta 100.143(2)
_cell_angle_gamma 109.958(3)
_cell_formula_units_Z 1
loop_
_atom_type_symbol
_atom_type_radius_bond
C 0.68
H 0.23
Cu 1.32
Ge 1.17
Ho 1.92
N 0.68
O 0.68
W 1.62
loop_
_atom_site_label
_atom_site_type_symbol
_atom_site_fract_x
_atom_site_fract_y
_atom_site_fract_z
W1 W 0.21080(4) -0.28631(4) 0.60606(2)
W2 W 0.47514(4) -0.15754(4) 0.63748(2)
W3 W 0.37747(4) -0.40012(4) 0.67130(2)
W4 W 0.17080(4) -0.07112(4) 0.69050(2)
W5 W 0.43482(4) 0.05446(4) 0.72326(2)
W6 W 0.62156(4) -0.06969(4) 0.79870(2)
W7 W 0.52483(4) -0.30845(4) 0.83266(2)
W8 W 0.22679(4) -0.45346(4) 0.79252(2)
W9 W 0.06018(4) -0.33951(4) 0.72911(2)
W10 W 0.30078(4) 0.00307(4) 0.83537(2)
W11 W 0.19707(4) -0.25931(4) 0.87331(2)
Ho1 Ho 0.50882(6) -0.10214(5) 0.93534(3)
Ge1 Ge 0.34515(10) -0.20093(10) 0.75914(5)
Cu1 Cu 0.23594(15) -0.72603(14) 0.84531(8)
Cu2 Cu 0.00000 -0.50000 0.50000
Cu3 Cu 0.50000 0.00000 0.50000
N1 N 0.1137(9) -0.8242(9) 0.7831(5)
H1 H 0.12250 -0.88630 0.78110
N2 N 0.3382(9) -0.7092(9) 0.7892(5)
H2 H 0.35410 -0.76770 0.78840
N3 N 0.3618(9) -0.6313(9) 0.9073(5)
H3 H 0.35900 -0.56670 0.90710
N4 N 0.1325(9) -0.7550(9) 0.9011(5)
H4 H 0.10710 -0.70230 0.90100
C1 C 0.1033(11) -0.7926(11) 0.7218(6)
H5 H 0.09190 -0.72740 0.72260
H6 H 0.04180 -0.84380 0.69580
C2 C 0.2014(11) -0.7818(11) 0.6974(6)
H7 H 0.18650 -0.77210 0.65550
H8 H 0.21380 -0.84650 0.69940
C3 C 0.3030(11) -0.6964(11) 0.7271(6)
H9 H 0.35850 -0.69440 0.70530
H10 H 0.29220 -0.63090 0.72540
C4 C 0.4377(12) -0.6250(12) 0.8182(7)
H11 H 0.43220 -0.55900 0.80960
H12 H 0.49690 -0.63180 0.80260
C5 C 0.4578(11) -0.6291(11) 0.8852(6)
H13 H 0.47400 -0.69020 0.89430
H14 H 0.51820 -0.56900 0.90460
C6 C 0.3711(11) -0.6554(11) 0.9702(6)
H15 H 0.43070 -0.60050 0.99510
H16 H 0.38620 -0.71860 0.97270
C7 C 0.2722(12) -0.6677(12) 0.9943(7)
H17 H 0.25460 -0.60620 0.98920
H18 H 0.28750 -0.67290 1.03680
C8 C 0.1744(12) -0.7621(12) 0.9646(6)
H19 H 0.19350 -0.82330 0.96690
H20 H 0.11840 -0.77020 0.98690
C9 C 0.0420(13) -0.8486(13) 0.8725(7)
H21 H -0.01950 -0.85560 0.89010
H22 H 0.06080 -0.90940 0.87790
C10 C 0.0166(12) -0.8372(12) 0.8067(7)
H23 H -0.04150 -0.89800 0.78600
H24 H -0.00440 -0.77760 0.80120
N5 N -0.0429(9) -0.5392(9) 0.5786(5)
H25 H 0.00290 -0.48970 0.60780
N6 N 0.1197(8) -0.5579(8) 0.5123(4)
H26 H 0.17640 -0.50970 0.53720
C11 C -0.1493(10) -0.5327(10) 0.5751(5)
H27 H -0.16440 -0.52850 0.61480
H28 H -0.20330 -0.59350 0.55160
C12 C 0.1496(11) -0.5634(10) 0.4539(6)
H29 H 0.09940 -0.62430 0.42870
H30 H 0.22000 -0.56790 0.45910
C13 C 0.1000(11) -0.6549(10) 0.5390(6)
H31 H 0.16340 -0.67300 0.54360
H32 H 0.04250 -0.70940 0.51260
C14 C 0.0704(11) -0.6461(12) 0.6003(6)
H33 H 0.12340 -0.58550 0.62460
H34 H 0.07220 -0.70600 0.62010
C15 C -0.0408(10) -0.6382(10) 0.5961(6)
H35 H -0.09250 -0.69310 0.56710
H36 H -0.06120 -0.64760 0.63450
N7 N 0.4676(9) 0.0938(9) 0.5584(5)
H37 H 0.46360 0.06280 0.59260
N8 N 0.6514(10) 0.0972(10) 0.5248(5)
H38 H 0.66270 0.14200 0.49680
C16 C 0.5608(12) 0.1890(12) 0.5730(7)
H39 H 0.55970 0.22710 0.60930
H40 H 0.56110 0.23240 0.54090
C17 C 0.6587(12) 0.1586(12) 0.5814(6)
H41 H 0.72300 0.21940 0.58950
H42 H 0.66010 0.11770 0.61460
C18 C 0.7358(13) 0.0530(13) 0.5299(7)
H43 H 0.73090 0.01050 0.56250
H44 H 0.80460 0.10850 0.53950
C19 C 0.2709(13) 0.0119(13) 0.5269(7)
H45 H 0.20590 0.02690 0.52370
H46 H 0.27510 -0.02830 0.56020
C20 C 0.3645(12) 0.1119(12) 0.5401(7)
H47 H 0.36670 0.14830 0.50490
H48 H 0.35570 0.15490 0.57190
C21 C 0.4273(10) -0.1597(10) 1.0422(5)
C22 C 0.3793(10) -0.1939(10) 1.0939(6)
H49 H 0.35010 -0.14480 1.10700
H50 H 0.43280 -0.19890 1.12570
H51 H 0.32360 -0.26010 1.08260
O1 O 0.4274(7) -0.0742(7) 1.0206(4)
O2 O 0.4718(7) -0.2117(7) 1.0162(4)
O3 O 0.1187(7) -0.3247(7) 0.5392(4)
O4 O 0.5521(7) -0.1073(7) 0.5870(4)
O5 O 0.3929(7) -0.5097(7) 0.6439(4)
O6 O 0.0708(7) -0.0405(7) 0.6479(4)
O7 O 0.5083(7) 0.1715(7) 0.7037(4)
O8 O 0.7467(7) -0.0006(7) 0.7872(4)
O9 O 0.5885(7) -0.3964(7) 0.8445(4)
O10 O 0.1980(7) -0.5802(7) 0.8077(4)
O11 O -0.0754(7) -0.3886(7) 0.7012(4)
O12 O 0.2752(7) 0.0927(7) 0.8805(4)
O13 O 0.1337(7) -0.2660(7) 0.9338(4)
O14 O 0.3359(7) -0.2084(7) 0.5799(4)
O15 O 0.2594(7) -0.4006(7) 0.6077(4)
O16 O 0.1959(7) -0.1623(7) 0.6331(4)
O17 O 0.1186(7) -0.3509(7) 0.6596(4)
O18 O 0.4673(6) -0.3012(6) 0.6278(4)
O19 O 0.4378(7) -0.0410(6) 0.6595(4)
O20 O 0.5677(6) -0.1318(6) 0.7099(4)
O21 O 0.4768(7) -0.3566(7) 0.7405(4)
O22 O 0.2719(6) -0.4554(6) 0.7177(3)
O23 O 0.2950(6) 0.0380(6) 0.6776(3)
O24 O 0.0921(7) -0.1987(7) 0.7185(4)
O25 O 0.5419(6) 0.0173(6) 0.7707(3)
O26 O 0.6425(7) -0.1996(7) 0.8098(4)
O27 O 0.3743(6) -0.3935(6) 0.8276(3)
O28 O 0.0866(6) -0.4676(6) 0.7480(3)
O29 O 0.2043(6) -0.1260(6) 0.8488(3)
O30 O 0.1840(6) 0.0000(6) 0.7643(3)
O31 O 0.3929(6) 0.1028(6) 0.7911(3)
O32 O 0.1890(7) -0.4049(7) 0.8627(4)
O33 O 0.0583(7) -0.3137(7) 0.8096(4)
O34 O 0.3465(6) -0.2490(6) 0.6878(3)
O35 O 0.3184(6) -0.0870(6) 0.7542(3)
O36 O 0.4635(6) -0.1827(6) 0.8072(3)
O37 O 0.2379(6) -0.2886(6) 0.7820(3)
O38 O 0.6318(7) -0.0310(7) 0.8752(4)
O39 O 0.5453(7) -0.2472(7) 0.9060(4)
O40 O 0.4113(6) -0.0188(6) 0.8782(3)
O41 O 0.3359(6) -0.2148(6) 0.9050(3)
O42 O 0.6780(7) -0.0720(7) 0.9988(4)
Cu4 Cu 0.78471(15) -0.33542(17) 0.76504(9)
N9 N 0.6892(10) -0.3428(10) 0.6843(6)
H52 H 0.63290 -0.32630 0.69130
N10 N 0.8754(9) -0.3198(9) 0.8462(5)
H53 H 0.93930 -0.31910 0.83920
N11 N 0.842(1) -0.1804(10) 0.7738(6)
H54 H 0.78810 -0.16010 0.78110
N12 N 0.7279(11) -0.4891(10) 0.7525(6)
H55 H 0.77400 -0.50770 0.73430
C23 C 0.7197(12) -0.5446(12) 0.8064(6)
H56 H 0.70070 -0.61760 0.79450
H57 H 0.66270 -0.53590 0.82350
C24 C 0.8198(13) -0.5087(13) 0.8531(7)
H58 H 0.87910 -0.50700 0.83460
H59 H 0.81410 -0.55780 0.88230
C25 C 0.8428(13) -0.4039(12) 0.8845(7)
H60 H 0.77970 -0.40280 0.89810
H61 H 0.89920 -0.39130 0.91950
C26 C 0.8975(13) -0.2165(12) 0.8752(7)
H62 H 0.95560 -0.19950 0.90970
H63 H 0.83500 -0.21240 0.88830
C27 C 0.9277(13) -0.1434(13) 0.8285(7)
H64 H 0.93570 -0.07420 0.84360
H65 H 0.99490 -0.14190 0.81930
C28 C 0.8763(11) -0.1304(11) 0.7215(6)
H66 H 0.93190 -0.15230 0.71100
H67 H 0.90600 -0.05620 0.73200
C29 C 0.7849(13) -0.1566(13) 0.6681(7)
H68 H 0.80910 -0.11540 0.63680
H69 H 0.72780 -0.13830 0.67950
C30 C 0.7405(12) -0.2722(12) 0.6430(7)
H70 H 0.68890 -0.28160 0.60620
H71 H 0.79840 -0.29120 0.63330
C31 C 0.6484(12) -0.4489(12) 0.6582(7)
H72 H 0.69960 -0.46250 0.63780
H73 H 0.58270 -0.46250 0.62930
C32 C 0.6275(13) -0.5201(13) 0.7088(7)
H74 H 0.57160 -0.51140 0.72710
H75 H 0.60590 -0.59180 0.69290
O43 O 0.4331(8) -0.3942(8) 0.5071(5)
O44 O 0.8487(15) 0.1053(15) 0.9811(8)
O45 O 0.056(1) -0.5772(10) 0.9142(5)
O46 O -0.1388(14) -0.6146(14) 0.7229(7)
O47 O 0.1803(15) -0.4361(16) 1.0102(9)
O48 O 0.3598(9) -0.4174(9) 0.9608(5)
O49 O -0.2433(16) -0.7949(16) 0.7612(9)
O50 O 0.3790(8) -0.6047(8) 0.5272(5)
O51 O -0.131(2) -0.741(2) 0.8930(13)
O52? O 0.832(2) 0.053(2) 0.9491(11)
O53? O -0.062(2) -0.640(2) 0.7716(12)
O54? O -0.107(2) -0.729(2) 0.9485(14)
O55? O 0.986(3) -0.019(3) 0.9738(14)
N5A N 0.0429(9) -0.4608(9) 0.4214(5)
H25A H -0.00290 -0.51030 0.39220
N6A N -0.1197(8) -0.4421(8) 0.4877(4)
H26A H -0.17640 -0.49030 0.46280
C11A C 0.1493(10) -0.4673(10) 0.4249(5)
H27A H 0.16440 -0.47150 0.38520
H28A H 0.20330 -0.40650 0.44840
C12A C -0.1496(11) -0.4366(10) 0.5461(6)
H29A H -0.09940 -0.37570 0.57130
H30A H -0.22000 -0.43210 0.54090
C13A C -0.1000(11) -0.3451(10) 0.4610(6)
H31A H -0.16340 -0.32700 0.45640
H32A H -0.04250 -0.29060 0.48740
C14A C -0.0704(11) -0.3539(12) 0.3997(6)
H33A H -0.12340 -0.41450 0.37540
H34A H -0.07220 -0.29400 0.37990
C15A C 0.0408(10) -0.3618(10) 0.4039(6)
H35A H 0.09250 -0.30690 0.43290
H36A H 0.06120 -0.35240 0.36550
N7A N 0.5324(9) -0.0938(9) 0.4416(5)
H37A H 0.53640 -0.06280 0.40740
N8A N 0.3486(10) -0.0972(10) 0.4752(5)
H38A H 0.33730 -0.14200 0.50320
C16A C 0.4392(12) -0.1890(12) 0.4270(7)
H39A H 0.44030 -0.22710 0.39070
H40A H 0.43890 -0.23240 0.45910
C17A C 0.3413(12) -0.1586(12) 0.4186(6)
H41A H 0.27700 -0.21940 0.41050
H42A H 0.33990 -0.11770 0.38540
C18A C 0.2642(13) -0.0530(13) 0.4701(7)
H43A H 0.26910 -0.01050 0.43750
H44A H 0.19540 -0.10850 0.46050
C19A C 0.7291(13) -0.0119(13) 0.4731(7)
H45A H 0.79410 -0.02690 0.47630
H46A H 0.72490 0.02830 0.43980
C20A C 0.6355(12) -0.1119(12) 0.4599(7)
H47A H 0.63330 -0.14830 0.49510
H48A H 0.64430 -0.15490 0.42810
W1A W -0.21080(4) -0.71369(4) 0.39394(2)
W2A W -0.47514(4) -0.84246(4) 0.36252(2)
W3A W -0.37747(4) -0.59988(4) 0.32870(2)
W4A W -0.17080(4) -0.92888(4) 0.30950(2)
W5A W -0.43482(4) -1.05446(4) 0.27674(2)
W6A W -0.62156(4) -0.93031(4) 0.20130(2)
W7A W -0.52483(4) -0.69155(4) 0.16734(2)
W8A W -0.22679(4) -0.54654(4) 0.20748(2)
W9A W -0.06018(4) -0.66049(4) 0.27089(2)
W10A W -0.30078(4) -1.00307(4) 0.16463(2)
W11A W -0.19707(4) -0.74069(4) 0.12669(2)
Ho1A Ho -0.50882(6) -0.89786(5) 0.06466(3)
Ge1A Ge -0.34515(10) -0.79907(10) 0.24086(5)
Cu1A Cu -0.23594(15) -0.27397(14) 0.15469(8)
N1A N -0.1137(9) -0.1758(9) 0.2169(5)
H1A H -0.12250 -0.11370 0.21890
N2A N -0.3382(9) -0.2908(9) 0.2108(5)
H2A H -0.35410 -0.23230 0.21160
N3A N -0.3618(9) -0.3687(9) 0.0927(5)
H3A H -0.35900 -0.43330 0.09290
N4A N -0.1325(9) -0.2450(9) 0.0989(5)
H4A H -0.10710 -0.29770 0.09900
C1A C -0.1033(11) -0.2074(11) 0.2782(6)
H5A H -0.09190 -0.27260 0.27740
H6A H -0.04180 -0.15620 0.30420
C2A C -0.2014(11) -0.2182(11) 0.3026(6)
H7A H -0.18650 -0.22790 0.34450
H8A H -0.21380 -0.15350 0.30060
C3A C -0.3030(11) -0.3036(11) 0.2729(6)
H9A H -0.35850 -0.30560 0.29470
H10A H -0.29220 -0.36910 0.27460
C4A C -0.4377(12) -0.3750(12) 0.1818(7)
H11A H -0.43220 -0.44100 0.19040
H12A H -0.49690 -0.36820 0.19740
C5A C -0.4578(11) -0.3709(11) 0.1148(6)
H13A H -0.47400 -0.30980 0.10570
H14A H -0.51820 -0.43100 0.09540
C6A C -0.3711(11) -0.3446(11) 0.0298(6)
H15A H -0.43070 -0.39950 0.00490
H16A H -0.38620 -0.28140 0.02730
C7A C -0.2722(12) -0.3323(12) 0.0057(7)
H17A H -0.25460 -0.39380 0.01080
H18A H -0.28750 -0.32710 -0.03680
C8A C -0.1744(12) -0.2379(12) 0.0354(6)
H19A H -0.19350 -0.17670 0.03310
H20A H -0.11840 -0.22980 0.01310
C9A C -0.0420(13) -0.1514(13) 0.1275(7)
H21A H 0.01950 -0.14440 0.10990
H22A H -0.06080 -0.09060 0.12210
C10A C -0.0166(12) -0.1628(12) 0.1933(7)
H23A H 0.04150 -0.10200 0.21400
H24A H 0.00440 -0.22240 0.19880
C21A C -0.4273(10) -0.8403(10) -0.0422(5)
C22A C -0.3793(10) -0.8061(10) -0.0939(6)
H49A H -0.35010 -0.85520 -0.10700
H50A H -0.43280 -0.80110 -0.12570
H51A H -0.32360 -0.73990 -0.08260
O1A O -0.4274(7) -0.9258(7) -0.0206(4)
O2A O -0.4718(7) -0.7883(7) -0.0162(4)
O3A O -0.1187(7) -0.6753(7) 0.4608(4)
O4A O -0.5521(7) -0.8927(7) 0.4130(4)
O5A O -0.3929(7) -0.4903(7) 0.3561(4)
O6A O -0.0708(7) -0.9595(7) 0.3521(4)
O7A O -0.5083(7) -1.1715(7) 0.2963(4)
O8A O -0.7467(7) -0.9994(7) 0.2128(4)
O9A O -0.5885(7) -0.6036(7) 0.1555(4)
O10A O -0.1980(7) -0.4198(7) 0.1923(4)
O11A O 0.0754(7) -0.6114(7) 0.2988(4)
O12A O -0.2752(7) -1.0927(7) 0.1195(4)
O13A O -0.1337(7) -0.7340(7) 0.0662(4)
O14A O -0.3359(7) -0.7916(7) 0.4201(4)
O15A O -0.2594(7) -0.5994(7) 0.3923(4)
O16A O -0.1959(7) -0.8377(7) 0.3669(4)
O17A O -0.1186(7) -0.6491(7) 0.3404(4)
O18A O -0.4673(6) -0.6988(6) 0.3722(4)
O19A O -0.4378(7) -0.9590(6) 0.3405(4)
O20A O -0.5677(6) -0.8682(6) 0.2901(4)
O21A O -0.4768(7) -0.6434(7) 0.2595(4)
O22A O -0.2719(6) -0.5446(6) 0.2823(3)
O23A O -0.2950(6) -1.0380(6) 0.3224(3)
O24A O -0.0921(7) -0.8013(7) 0.2815(4)
O25A O -0.5419(6) -1.0173(6) 0.2293(3)
O26A O -0.6425(7) -0.8004(7) 0.1902(4)
O27A O -0.3743(6) -0.6065(6) 0.1724(3)
O28A O -0.0866(6) -0.5324(6) 0.2520(3)
O29A O -0.2043(6) -0.8740(6) 0.1512(3)
O30A O -0.1840(6) -1.0000(6) 0.2357(3)
O31A O -0.3929(6) -1.1028(6) 0.2089(3)
O32A O -0.1890(7) -0.5951(7) 0.1373(4)
O33A O -0.0583(7) -0.6863(7) 0.1904(4)
O34A O -0.3465(6) -0.7510(6) 0.3122(3)
O35A O -0.3184(6) -0.9130(6) 0.2458(3)
O36A O -0.4635(6) -0.8173(6) 0.1928(3)
O37A O -0.2379(6) -0.7114(6) 0.2180(3)
O38A O -0.6318(7) -0.9690(7) 0.1248(4)
O39A O -0.5453(7) -0.7528(7) 0.0940(4)
O40A O -0.4113(6) -0.9812(6) 0.1218(3)
O41A O -0.3359(6) -0.7852(6) 0.0950(3)
O42A O -0.6780(7) -0.9280(7) 0.0012(4)
Ho1* Ho -0.49118(6) -1.10214(5) -0.06466(3)
Ho1A* Ho 0.49118(6) 0.10214(5) 1.06466(3)
Cu3* Cu -0.50000 -1.00000 0.50000
O1* O -0.5726(7) -1.0742(7) 0.0206(4)
O1A* O 0.5726(7) 0.0742(7) 0.9794(4)
O4A* O 0.4479(7) 0.1073(7) 0.4130(4)
#END
