
#######################################################################
#
#                 Cambridge Crystallographic Data Centre
#                                CCDC
#
#######################################################################
#
# If this CIF has been generated from an entry in the Cambridge
# Structural Database, then it will include bibliographic, chemical,
# crystal, experimental, refinement or atomic coordinate data resulting
# from the CCDC's data processing and validation procedures.
#
#######################################################################

data_CSD_CIF_YIVBIR
_audit_creation_date 2019-03-14
_audit_creation_method CSD-ConQuest-V1
_database_code_CSD YIVBIR
_database_code_depnum_ccdc_archive 'CCDC 1882856'
_chemical_formula_sum 'C64 H190 Cu6 Ge2 N24 O102 Tm2 W22'
_chemical_formula_moiety
;
2(C10 H24 Cu1 N4 2+),n(C44 H106 Cu4 Ge2 N16 O84 Tm2 W22 4-),18(H2 O1)
;
_journal_coden_Cambridge 9
_journal_volume 58
_journal_year 2019
_journal_page_first 4365
_journal_name_full 'Inorg.Chem. '
loop_
_publ_author_name
"J.Martin-Caballero"
"B.Artetxe"
"S.Reinoso"
"L.S.Felices"
"P.Vitoria"
"A.Larranaga"
"J.L.Vilas"
"J.M.Gutierrez-Zorrilla"
_chemical_name_systematic
;
catena-[bis((1,4,8,11-tetraazacyclotetradecane)-copper(ii)) 
dohexacontakis(\m-oxo)-bis(\m-acetato)-diaqua-tetrakis(1,4,8,11-tetraazacyclot
etradecane)-hexadeca-oxo-tetra-copper(ii)-di-germanium(iv)-di-thulium(iii)-doc
osa-tungsten(vi) octadecahydrate]
;
_cell_volume   3956.021
_exptl_crystal_colour 'orange'
_exptl_crystal_density_diffrn 3.29
_exptl_special_details
;
Isostructural with the La, Ce, Pr, Nd, Sm, Eu, Gd, Tb, Dy, Ho, Er, Yb and Lu 
analogues.
;
_exptl_crystal_description 'plates'
_diffrn_ambient_temperature 100
_refine_special_details
;
O9W and O10W disordered over two sites with occupancies 0.6:0.4.

;
#These two values have been output from a single CSD field.
_refine_ls_R_factor_gt 0.0317
_refine_ls_wR_factor_gt 0.0317
_symmetry_cell_setting triclinic
_symmetry_space_group_name_H-M 'P -1'
_symmetry_Int_Tables_number 2
loop_
_symmetry_equiv_pos_site_id
_symmetry_equiv_pos_as_xyz
1 x,y,z
2 -x,-y,-z
_cell_length_a 13.6150(3)
_cell_length_b 13.8513(3)
_cell_length_c 22.8390(4)
_cell_angle_alpha 92.7860(15)
_cell_angle_beta 100.1276(16)
_cell_angle_gamma 110.0238(17)
_cell_formula_units_Z 1
loop_
_atom_type_symbol
_atom_type_radius_bond
C 0.68
H 0.23
Cu 1.32
Ge 1.17
N 0.68
O 0.68
Tm 1.90
W 1.62
loop_
_atom_site_label
_atom_site_type_symbol
_atom_site_fract_x
_atom_site_fract_y
_atom_site_fract_z
W1 W 0.21102(2) -0.28532(2) 0.60697(2)
W2 W 0.47622(2) -0.15617(2) 0.63797(2)
W3 W 0.37824(2) -0.39926(2) 0.67166(2)
W4 W 0.17166(3) -0.06972(2) 0.69232(2)
W5 W 0.43627(3) 0.05643(2) 0.72405(2)
W6 W 0.62334(2) -0.06674(2) 0.79981(2)
W7 W 0.52728(2) -0.30562(2) 0.83320(2)
W8 W 0.22913(2) -0.45185(2) 0.79381(2)
W9 W 0.06198(2) -0.33846(2) 0.73112(2)
W10 W 0.30450(2) 0.00573(2) 0.83729(2)
W11 W 0.20125(2) -0.25654(2) 0.87538(2)
Tm1 Tm 0.51151(3) -0.09986(3) 0.93591(2)
Ge1 Ge 0.34692(6) -0.19889(5) 0.76005(3)
Cu1 Cu 0.23637(9) -0.72367(8) 0.84590(5)
Cu2 Cu 0.00000 -0.50000 0.50000
Cu3 Cu 0.50000 0.00000 0.50000
N1 N 0.1145(6) -0.8202(6) 0.7823(3)
H1 H 0.12390 -0.88730 0.78010
N2 N 0.3414(6) -0.7081(6) 0.7915(3)
H2 H 0.35800 -0.77160 0.79070
N3 N 0.3631(6) -0.6312(6) 0.9093(3)
H3 H 0.36080 -0.56130 0.90990
N4 N 0.1324(6) -0.7516(6) 0.9003(3)
H4 H 0.10550 -0.69450 0.90010
C1 C 0.1067(8) -0.7891(8) 0.7210(4)
H5 H 0.09630 -0.72330 0.72140
H6 H 0.04510 -0.84010 0.69450
C2 C 0.2060(7) -0.7798(7) 0.6973(4)
H7 H 0.19240 -0.77050 0.65520
H8 H 0.21790 -0.84470 0.70000
C3 C 0.3078(7) -0.6931(7) 0.7283(4)
H9 H 0.36420 -0.69010 0.70700
H10 H 0.29660 -0.62770 0.72710
C4 C 0.4408(7) -0.6232(7) 0.8207(4)
H11 H 0.43490 -0.55720 0.81230
H12 H 0.50040 -0.62940 0.80510
C5 C 0.4599(7) -0.6279(7) 0.8874(4)
H13 H 0.47640 -0.68910 0.89620
H14 H 0.52010 -0.56750 0.90730
C6 C 0.3676(8) -0.6578(7) 0.9716(4)
H15 H 0.42710 -0.60410 0.99780
H16 H 0.38120 -0.72200 0.97370
C7 C 0.2675(8) -0.6697(8) 0.9941(5)
H17 H 0.28110 -0.67510 1.03680
H18 H 0.25080 -0.60760 0.98880
C8 C 0.1723(7) -0.7610(7) 0.9643(4)
H19 H 0.11540 -0.76920 0.98610
H20 H 0.19060 -0.82270 0.96610
C9 C 0.0416(8) -0.8461(8) 0.8716(5)
H21 H -0.02020 -0.85310 0.88900
H22 H 0.06040 -0.90700 0.87710
C10 C 0.0173(8) -0.8345(8) 0.8061(5)
H23 H -0.04050 -0.89580 0.78490
H24 H -0.00450 -0.77520 0.80060
N5 N -0.0420(5) -0.5403(5) 0.5788(3)
H25 H 0.00740 -0.48670 0.61040
N6 N 0.1194(5) -0.5569(5) 0.5112(3)
H26 H 0.18040 -0.50420 0.53800
C11 C -0.1494(7) -0.5339(7) 0.5752(4)
H27 H -0.16490 -0.53060 0.61500
H28 H -0.20350 -0.59470 0.55110
C12 C 0.1503(7) -0.5616(7) 0.4527(4)
H29 H 0.10040 -0.62270 0.42690
H30 H 0.22100 -0.56550 0.45800
C13 C 0.1024(7) -0.6542(7) 0.5381(4)
H31 H 0.16740 -0.66990 0.54300
H32 H 0.04640 -0.71010 0.51130
C14 C 0.0719(7) -0.6485(7) 0.5982(4)
H33 H 0.12510 -0.58860 0.62350
H34 H 0.07380 -0.70940 0.61690
C15 C -0.0388(7) -0.6410(7) 0.5960(4)
H35 H -0.09170 -0.69640 0.56740
H36 H -0.05710 -0.65010 0.63510
N7 N 0.4700(6) 0.0940(6) 0.5589(3)
H37 H 0.46610 0.06060 0.59570
N8 N 0.6541(6) 0.0973(6) 0.5251(3)
H38 H 0.66660 0.14490 0.49450
C16 C 0.5636(7) 0.1896(7) 0.5736(4)
H39 H 0.56340 0.22700 0.61060
H40 H 0.56300 0.23360 0.54190
C17 C 0.6617(8) 0.1598(8) 0.5806(4)
H41 H 0.72570 0.22130 0.58770
H42 H 0.66520 0.12030 0.61430
C18 C 0.7382(8) 0.0498(8) 0.5293(4)
H43 H 0.73230 0.00610 0.56140
H44 H 0.80810 0.10420 0.53920
C19 C 0.2715(8) 0.0138(8) 0.5283(5)
H45 H 0.27550 -0.02770 0.56110
H46 H 0.20730 0.03030 0.52630
C20 C 0.3687(7) 0.1149(7) 0.5424(4)
H47 H 0.37100 0.15250 0.50760
H48 H 0.36190 0.15770 0.57520
C21 C 0.4276(6) -0.1577(6) 1.0396(3)
C22 C 0.3755(6) -0.1966(6) 1.0905(4)
H49 H 0.34300 -0.15000 1.10330
H50 H 0.32170 -0.26400 1.07770
H51 H 0.42820 -0.20100 1.12320
O1 O 0.4239(4) -0.0741(4) 1.0196(2)
O2 O 0.4756(4) -0.2072(4) 1.0154(2)
O3 O 0.1195(4) -0.3245(4) 0.5403(2)
O4 O 0.5530(4) -0.1053(4) 0.5868(2)
O5 O 0.3931(4) -0.5098(4) 0.6434(2)
O6 O 0.0716(4) -0.0387(4) 0.6502(2)
O7 O 0.5115(4) 0.1736(4) 0.7042(2)
O8 O 0.7486(4) 0.0056(4) 0.7882(2)
O9 O 0.5917(4) -0.3929(4) 0.8453(2)
O10 O 0.2024(4) -0.5777(4) 0.8093(2)
O11 O -0.0735(4) -0.3882(4) 0.7033(2)
O12 O 0.2800(4) 0.0949(4) 0.8831(2)
O13 O 0.1419(4) -0.2624(4) 0.9368(2)
O14 O 0.3356(4) -0.2067(4) 0.5802(2)
O15 O 0.2577(4) -0.4000(4) 0.6081(2)
O16 O 0.1974(4) -0.1606(4) 0.6350(2)
O17 O 0.1190(4) -0.3497(4) 0.6607(2)
O18 O 0.4681(4) -0.2991(4) 0.6280(2)
O19 O 0.4407(4) -0.0387(4) 0.6607(2)
O20 O 0.5690(4) -0.1292(4) 0.7095(2)
O21 O 0.4799(4) -0.3541(4) 0.7405(2)
O22 O 0.2725(4) -0.4548(4) 0.7189(2)
O23 O 0.2964(4) 0.0390(4) 0.6789(2)
O24 O 0.0934(4) -0.1976(4) 0.7201(2)
O25 O 0.5423(4) 0.0194(4) 0.7715(2)
O26 O 0.6436(4) -0.1957(4) 0.8104(2)
O27 O 0.3778(4) -0.3907(4) 0.8281(2)
O28 O 0.0904(4) -0.4639(4) 0.7498(2)
O29 O 0.2079(4) -0.1242(4) 0.8513(2)
O30 O 0.1854(4) 0.0007(4) 0.7671(2)
O31 O 0.3965(4) 0.1058(4) 0.7928(2)
O32 O 0.1930(4) -0.4017(4) 0.8643(2)
O33 O 0.0630(4) -0.3112(4) 0.8122(2)
O34 O 0.3490(4) -0.2468(4) 0.6880(2)
O35 O 0.3209(4) -0.0844(4) 0.7556(2)
O36 O 0.4662(4) -0.1799(4) 0.8079(2)
O37 O 0.2384(4) -0.2876(4) 0.7828(2)
O38 O 0.6330(4) -0.0297(4) 0.8772(2)
O39 O 0.5454(4) -0.2442(4) 0.9063(2)
O40 O 0.4151(4) -0.0164(4) 0.8806(2)
O41 O 0.3397(4) -0.2113(4) 0.9052(2)
O42 O 0.6776(4) -0.0736(4) 0.9970(2)
Cu4 Cu 0.78672(9) -0.33965(10) 0.76654(5)
N9 N 0.6896(7) -0.3489(6) 0.6862(4)
H52 H 0.62860 -0.33180 0.69420
N10 N 0.8771(6) -0.3232(6) 0.8486(3)
H53 H 0.94630 -0.32270 0.84170
N11 N 0.8408(6) -0.1861(6) 0.7743(4)
H54 H 0.78150 -0.16610 0.78220
N12 N 0.7308(7) -0.4950(7) 0.7556(4)
H55 H 0.78120 -0.51550 0.73690
C23 C 0.7197(9) -0.5502(9) 0.8091(5)
H56 H 0.70110 -0.62350 0.79760
H57 H 0.66190 -0.54120 0.82560
C24 C 0.8224(8) -0.5108(8) 0.8572(5)
H58 H 0.81720 -0.55870 0.88710
H59 H 0.88200 -0.50930 0.83900
C25 C 0.8444(8) -0.4041(7) 0.8877(4)
H60 H 0.78050 -0.40250 0.90040
H61 H 0.90030 -0.38970 0.92330
C26 C 0.8979(8) -0.2177(7) 0.8758(4)
H62 H 0.95670 -0.19800 0.91020
H63 H 0.83510 -0.21420 0.88900
C27 C 0.9254(8) -0.1459(8) 0.8287(4)
H64 H 0.93090 -0.07690 0.84320
H65 H 0.99360 -0.14210 0.81970
C28 C 0.8703(8) -0.1377(8) 0.7203(5)
H66 H 0.92720 -0.15750 0.70960
H67 H 0.89770 -0.06310 0.72990
C29 C 0.7796(9) -0.1674(9) 0.6677(5)
H68 H 0.80240 -0.12580 0.63620
H69 H 0.72160 -0.15060 0.67930
C30 C 0.7381(9) -0.2790(8) 0.6430(5)
H70 H 0.79620 -0.29700 0.63260
H71 H 0.68480 -0.28960 0.60660
C31 C 0.6482(9) -0.4581(8) 0.6595(5)
H72 H 0.69990 -0.47170 0.63930
H73 H 0.58240 -0.47230 0.63030
C32 C 0.6276(9) -0.5273(9) 0.7092(5)
H74 H 0.57090 -0.51890 0.72700
H75 H 0.60630 -0.59930 0.69330
O43 O 0.4326(5) -0.3948(5) 0.5064(3)
O44 O 0.1565(8) -0.0983(8) 1.0248(5)
O45 O -0.2485(11) -0.8003(11) 0.7521(7)
O46 O 0.0563(7) -0.5728(7) 0.9118(4)
O47 O -0.1336(7) -0.6140(7) 0.7230(4)
O48 O 0.3787(5) -0.6052(5) 0.5266(3)
O49 O 0.3562(5) -0.4177(5) 0.9636(3)
O50 O -0.1329(17) -0.7460(17) 0.8881(11)
O51 O 0.1717(15) -0.4317(15) 1.0069(9)
O52? O 0.086(2) -0.419(2) 1.0145(12)
N5A N 0.0420(5) -0.4597(5) 0.4212(3)
H25A H -0.00740 -0.51330 0.38960
N6A N -0.1194(5) -0.4431(5) 0.4888(3)
H26A H -0.18040 -0.49580 0.46200
C11A C 0.1494(7) -0.4661(7) 0.4248(4)
H27A H 0.16490 -0.46940 0.38500
H28A H 0.20350 -0.40530 0.44890
C12A C -0.1503(7) -0.4384(7) 0.5473(4)
H29A H -0.10040 -0.37730 0.57310
H30A H -0.22100 -0.43450 0.54200
C13A C -0.1024(7) -0.3458(7) 0.4619(4)
H31A H -0.16740 -0.33010 0.45700
H32A H -0.04640 -0.28990 0.48870
C14A C -0.0719(7) -0.3515(7) 0.4018(4)
H33A H -0.12510 -0.41140 0.37650
H34A H -0.07380 -0.29060 0.38310
C15A C 0.0388(7) -0.3590(7) 0.4040(4)
H35A H 0.09170 -0.30360 0.43260
H36A H 0.05710 -0.34990 0.36490
N7A N 0.5300(6) -0.0940(6) 0.4411(3)
H37A H 0.53390 -0.06060 0.40430
N8A N 0.3459(6) -0.0973(6) 0.4749(3)
H38A H 0.33340 -0.14490 0.50550
C16A C 0.4364(7) -0.1896(7) 0.4264(4)
H39A H 0.43660 -0.22700 0.38940
H40A H 0.43700 -0.23360 0.45810
C17A C 0.3383(8) -0.1598(8) 0.4194(4)
H41A H 0.27430 -0.22130 0.41230
H42A H 0.33480 -0.12030 0.38570
C18A C 0.2618(8) -0.0498(8) 0.4707(4)
H43A H 0.26770 -0.00610 0.43860
H44A H 0.19190 -0.10420 0.46080
C19A C 0.7285(8) -0.0138(8) 0.4717(5)
H45A H 0.72450 0.02770 0.43890
H46A H 0.79270 -0.03030 0.47370
C20A C 0.6313(7) -0.1149(7) 0.4576(4)
H47A H 0.62900 -0.15250 0.49240
H48A H 0.63810 -0.15770 0.42480
W1A W -0.21102(2) -0.71468(2) 0.39303(2)
W2A W -0.47622(2) -0.84383(2) 0.36203(2)
W3A W -0.37824(2) -0.60074(2) 0.32834(2)
W4A W -0.17166(3) -0.93028(2) 0.30768(2)
W5A W -0.43627(3) -1.05643(2) 0.27595(2)
W6A W -0.62334(2) -0.93326(2) 0.20019(2)
W7A W -0.52728(2) -0.69438(2) 0.16680(2)
W8A W -0.22913(2) -0.54815(2) 0.20619(2)
W9A W -0.06198(2) -0.66154(2) 0.26888(2)
W10A W -0.30450(2) -1.00573(2) 0.16271(2)
W11A W -0.20125(2) -0.74346(2) 0.12462(2)
Tm1A Tm -0.51151(3) -0.90014(3) 0.06409(2)
Ge1A Ge -0.34692(6) -0.80111(5) 0.23995(3)
Cu1A Cu -0.23637(9) -0.27633(8) 0.15410(5)
N1A N -0.1145(6) -0.1798(6) 0.2177(3)
H1A H -0.12390 -0.11270 0.21990
N2A N -0.3414(6) -0.2919(6) 0.2085(3)
H2A H -0.35800 -0.22840 0.20930
N3A N -0.3631(6) -0.3688(6) 0.0907(3)
H3A H -0.36080 -0.43870 0.09010
N4A N -0.1324(6) -0.2484(6) 0.0997(3)
H4A H -0.10550 -0.30550 0.09990
C1A C -0.1067(8) -0.2109(8) 0.2790(4)
H5A H -0.09630 -0.27670 0.27860
H6A H -0.04510 -0.15990 0.30550
C2A C -0.2060(7) -0.2202(7) 0.3027(4)
H7A H -0.19240 -0.22950 0.34480
H8A H -0.21790 -0.15530 0.30000
C3A C -0.3078(7) -0.3069(7) 0.2717(4)
H9A H -0.36420 -0.30990 0.29300
H10A H -0.29660 -0.37230 0.27290
C4A C -0.4408(7) -0.3768(7) 0.1793(4)
H11A H -0.43490 -0.44280 0.18770
H12A H -0.50040 -0.37060 0.19490
C5A C -0.4599(7) -0.3721(7) 0.1126(4)
H13A H -0.47640 -0.31090 0.10380
H14A H -0.52010 -0.43250 0.09270
C6A C -0.3676(8) -0.3422(7) 0.0284(4)
H15A H -0.42710 -0.39590 0.00220
H16A H -0.38120 -0.27800 0.02630
C7A C -0.2675(8) -0.3303(8) 0.0059(5)
H17A H -0.28110 -0.32490 -0.03680
H18A H -0.25080 -0.39240 0.01120
C8A C -0.1723(7) -0.2390(7) 0.0357(4)
H19A H -0.11540 -0.23080 0.01390
H20A H -0.19060 -0.17730 0.03390
C9A C -0.0416(8) -0.1539(8) 0.1284(5)
H21A H 0.02020 -0.14690 0.11100
H22A H -0.06040 -0.09300 0.12290
C10A C -0.0173(8) -0.1655(8) 0.1939(5)
H23A H 0.04050 -0.10420 0.21510
H24A H 0.00450 -0.22480 0.19940
C21A C -0.4276(6) -0.8423(6) -0.0396(3)
C22A C -0.3755(6) -0.8034(6) -0.0905(4)
H49A H -0.34300 -0.85000 -0.10330
H50A H -0.32170 -0.73600 -0.07770
H51A H -0.42820 -0.79900 -0.12320
O1A O -0.4239(4) -0.9259(4) -0.0196(2)
O2A O -0.4756(4) -0.7928(4) -0.0154(2)
O3A O -0.1195(4) -0.6755(4) 0.4597(2)
O4A O -0.5530(4) -0.8947(4) 0.4132(2)
O5A O -0.3931(4) -0.4902(4) 0.3566(2)
O6A O -0.0716(4) -0.9613(4) 0.3498(2)
O7A O -0.5115(4) -1.1736(4) 0.2958(2)
O8A O -0.7486(4) -1.0056(4) 0.2118(2)
O9A O -0.5917(4) -0.6071(4) 0.1547(2)
O10A O -0.2024(4) -0.4223(4) 0.1907(2)
O11A O 0.0735(4) -0.6118(4) 0.2967(2)
O12A O -0.2800(4) -1.0949(4) 0.1169(2)
O13A O -0.1419(4) -0.7376(4) 0.0632(2)
O14A O -0.3356(4) -0.7933(4) 0.4198(2)
O15A O -0.2577(4) -0.6000(4) 0.3919(2)
O16A O -0.1974(4) -0.8394(4) 0.3650(2)
O17A O -0.1190(4) -0.6503(4) 0.3393(2)
O18A O -0.4681(4) -0.7009(4) 0.3720(2)
O19A O -0.4407(4) -0.9613(4) 0.3393(2)
O20A O -0.5690(4) -0.8708(4) 0.2905(2)
O21A O -0.4799(4) -0.6459(4) 0.2595(2)
O22A O -0.2725(4) -0.5452(4) 0.2811(2)
O23A O -0.2964(4) -1.0390(4) 0.3211(2)
O24A O -0.0934(4) -0.8024(4) 0.2799(2)
O25A O -0.5423(4) -1.0194(4) 0.2285(2)
O26A O -0.6436(4) -0.8043(4) 0.1896(2)
O27A O -0.3778(4) -0.6093(4) 0.1719(2)
O28A O -0.0904(4) -0.5361(4) 0.2502(2)
O29A O -0.2079(4) -0.8758(4) 0.1487(2)
O30A O -0.1854(4) -1.0007(4) 0.2329(2)
O31A O -0.3965(4) -1.1058(4) 0.2072(2)
O32A O -0.1930(4) -0.5983(4) 0.1357(2)
O33A O -0.0630(4) -0.6888(4) 0.1878(2)
O34A O -0.3490(4) -0.7532(4) 0.3120(2)
O35A O -0.3209(4) -0.9156(4) 0.2444(2)
O36A O -0.4662(4) -0.8201(4) 0.1921(2)
O37A O -0.2384(4) -0.7124(4) 0.2172(2)
O38A O -0.6330(4) -0.9703(4) 0.1228(2)
O39A O -0.5454(4) -0.7558(4) 0.0937(2)
O40A O -0.4151(4) -0.9836(4) 0.1194(2)
O41A O -0.3397(4) -0.7887(4) 0.0948(2)
O42A O -0.6776(4) -0.9264(4) 0.0030(2)
Tm1* Tm -0.48849(3) -1.09986(3) -0.06409(2)
Tm1A* Tm 0.48849(3) 0.09986(3) 1.06409(2)
Cu3* Cu -0.50000 -1.00000 0.50000
O1* O -0.5761(4) -1.0741(4) 0.0196(2)
O1A* O 0.5761(4) 0.0741(4) 0.9804(2)
O4A* O 0.4470(4) 0.1053(4) 0.4132(2)
#END
