
#######################################################################
#
#                 Cambridge Crystallographic Data Centre
#                                CCDC
#
#######################################################################
#
# If this CIF has been generated from an entry in the Cambridge
# Structural Database, then it will include bibliographic, chemical,
# crystal, experimental, refinement or atomic coordinate data resulting
# from the CCDC's data processing and validation procedures.
#
#######################################################################

data_CSD_CIF_YIVBUD
_audit_creation_date 2019-03-14
_audit_creation_method CSD-ConQuest-V1
_database_code_CSD YIVBUD
_database_code_depnum_ccdc_archive 'CCDC 1882858'
_chemical_formula_sum 'C64 H190 Cu6 Ge2 Lu2 N24 O102 W22'
_chemical_formula_moiety
;
2(C10 H24 Cu1 N4 2+),n(C44 H106 Cu4 Ge2 Lu2 N16 O84 W22 4-),18(H2 O1)
;
_journal_coden_Cambridge 9
_journal_volume 58
_journal_year 2019
_journal_page_first 4365
_journal_name_full 'Inorg.Chem. '
loop_
_publ_author_name
"J.Martin-Caballero"
"B.Artetxe"
"S.Reinoso"
"L.S.Felices"
"P.Vitoria"
"A.Larranaga"
"J.L.Vilas"
"J.M.Gutierrez-Zorrilla"
_chemical_name_systematic
;
catena-[bis((1,4,8,11-tetraazacyclotetradecane)-copper(ii)) 
dohexacontakis(\m-oxo)-bis(\m-acetato)-diaqua-tetrakis(1,4,8,11-tetraazacyclot
etradecane)-hexadeca-oxo-tetra-copper(ii)-di-germanium(iv)-di-lutetium(iii)-do
cosa-tungsten(vi) octadecahydrate]
;
_cell_volume   3944.436
_exptl_crystal_colour 'orange'
_exptl_crystal_density_diffrn 3.304
_exptl_special_details
;
Isostructural with the La, Ce, Pr, Nd, Sm, Eu, Gd, Tb, Dy, Ho, Er, Tm and Yb 
analogues.
;
_exptl_crystal_description 'plates'
_diffrn_ambient_temperature 100
_refine_special_details
;
The structure is disordered.

;
#These two values have been output from a single CSD field.
_refine_ls_R_factor_gt 0.0514
_refine_ls_wR_factor_gt 0.0514
_symmetry_cell_setting triclinic
_symmetry_space_group_name_H-M 'P -1'
_symmetry_Int_Tables_number 2
loop_
_symmetry_equiv_pos_site_id
_symmetry_equiv_pos_as_xyz
1 x,y,z
2 -x,-y,-z
_cell_length_a 13.5580(2)
_cell_length_b 13.8181(2)
_cell_length_c 22.8696(4)
_cell_angle_alpha 92.6585(15)
_cell_angle_beta 99.9826(14)
_cell_angle_gamma 109.8052(15)
_cell_formula_units_Z 1
loop_
_atom_type_symbol
_atom_type_radius_bond
C 0.68
H 0.23
Cu 1.32
Ge 1.17
Lu 1.87
N 0.68
O 0.68
W 1.62
loop_
_atom_site_label
_atom_site_type_symbol
_atom_site_fract_x
_atom_site_fract_y
_atom_site_fract_z
W1 W 0.20925(4) -0.28542(4) 0.60699(2)
W2 W 0.47537(4) -0.15753(4) 0.63779(2)
W3 W 0.37596(4) -0.40144(4) 0.67165(2)
W4 W 0.16961(4) -0.07049(4) 0.69194(2)
W5 W 0.43487(4) 0.05433(4) 0.72282(2)
W6 W 0.61785(4) -0.07117(4) 0.79912(2)
W7 W 0.52168(4) -0.30814(4) 0.83236(2)
W8 W 0.22561(4) -0.45397(4) 0.79267(2)
W9 W 0.05902(4) -0.33862(4) 0.73045(2)
W10 W 0.30437(4) 0.00349(3) 0.83675(2)
W11 W 0.20011(4) -0.25738(4) 0.87441(2)
Lu1 Lu 0.50815(4) -0.10140(4) 0.93756(2)
Ge1 Ge 0.3427(2) -0.2018(2) 0.75790(13)
Cu1 Cu 0.23585(14) -0.72483(13) 0.84532(8)
Cu2 Cu 0.00000 -0.50000 0.50000
Cu3 Cu 0.50000 0.00000 0.50000
N1 N 0.1145(10) -0.8228(10) 0.7813(6)
H1 H 0.12350 -0.88510 0.77910
N2 N 0.3427(10) -0.7099(11) 0.7900(6)
H2 H 0.35720 -0.76950 0.78890
N3 N 0.3636(10) -0.6326(11) 0.9080(6)
H3 H 0.36120 -0.56760 0.90800
N4 N 0.1319(11) -0.7545(12) 0.8994(7)
H4 H 0.10740 -0.70080 0.89940
C1 C 0.1056(13) -0.7902(14) 0.7203(8)
H5 H 0.09430 -0.72450 0.72100
H6 H 0.04470 -0.84120 0.69360
C2 C 0.2091(14) -0.7794(15) 0.6974(9)
H7 H 0.22150 -0.84430 0.70000
H8 H 0.19720 -0.76910 0.65540
C3 C 0.3078(12) -0.6949(12) 0.7287(7)
H9 H 0.36460 -0.68970 0.70710
H10 H 0.29510 -0.62990 0.72820
C4 C 0.4414(13) -0.6276(13) 0.8195(8)
H11 H 0.43740 -0.56110 0.81010
H12 H 0.50120 -0.63590 0.80470
C5 C 0.4605(13) -0.6289(14) 0.8866(8)
H13 H 0.47870 -0.68890 0.89680
H14 H 0.51980 -0.56730 0.90560
C6 C 0.3680(12) -0.6571(13) 0.9701(7)
H15 H 0.42630 -0.60180 0.99580
H16 H 0.38440 -0.72000 0.97320
C7 C 0.2663(13) -0.6716(14) 0.9932(8)
H17 H 0.28030 -0.67830 1.03560
H18 H 0.24870 -0.60950 0.98870
C8 C 0.1705(14) -0.7632(15) 0.9631(8)
H19 H 0.18870 -0.82520 0.96560
H20 H 0.11300 -0.77080 0.98450
C9 C 0.0401(15) -0.8461(15) 0.8704(9)
H21 H -0.02200 -0.85040 0.88720
H22 H 0.05640 -0.90840 0.87680
C10 C 0.0171(14) -0.8362(15) 0.8037(8)
H23 H -0.04000 -0.89790 0.78290
H24 H -0.00500 -0.77710 0.79700
N5 N -0.0421(8) -0.5408(8) 0.5788(5)
H25 H 0.00360 -0.49090 0.60790
N6 N 0.1208(8) -0.5563(8) 0.5116(5)
H26 H 0.17760 -0.50770 0.53630
C11 C -0.1493(10) -0.5349(10) 0.5758(6)
H27 H -0.16440 -0.53120 0.61560
H28 H -0.20340 -0.59580 0.55210
C12 C 0.1502(10) -0.5611(10) 0.4525(6)
H29 H 0.09960 -0.62200 0.42720
H30 H 0.22090 -0.56570 0.45720
C13 C 0.1027(11) -0.6549(11) 0.5379(6)
H31 H 0.16700 -0.67210 0.54210
H32 H 0.04540 -0.70980 0.51130
C14 C 0.0733(11) -0.6475(12) 0.5985(7)
H33 H 0.12610 -0.58650 0.62280
H34 H 0.07690 -0.70740 0.61800
C15 C -0.0371(10) -0.6415(10) 0.5963(6)
H35 H -0.08940 -0.69720 0.56790
H36 H -0.05550 -0.65090 0.63530
N7 N 0.4697(9) 0.0937(9) 0.5581(5)
H37 H 0.46690 0.06250 0.59230
N8 N 0.6549(8) 0.0970(9) 0.5245(5)
H38 H 0.66690 0.14150 0.49620
C16 C 0.5644(11) 0.1912(11) 0.5732(7)
H39 H 0.56370 0.22860 0.61000
H40 H 0.56460 0.23540 0.54140
C17 C 0.6617(12) 0.1590(12) 0.5804(7)
H41 H 0.72660 0.21970 0.58820
H42 H 0.66330 0.11820 0.61370
C18 C 0.7374(12) 0.0485(12) 0.5289(7)
H43 H 0.73000 0.00390 0.56060
H44 H 0.80770 0.10220 0.53930
C19 C 0.2710(13) 0.0139(13) 0.5285(8)
H45 H 0.20670 0.03080 0.52640
H46 H 0.27460 -0.02810 0.56110
C20 C 0.3665(11) 0.1124(12) 0.5422(7)
H47 H 0.36790 0.15080 0.50770
H48 H 0.35940 0.15460 0.57520
C21 C 0.4254(9) -0.1562(9) 1.0412(5)
C22 C 0.3762(10) -0.1902(10) 1.0935(6)
H49 H 0.34560 -0.14130 1.10600
H50 H 0.43010 -0.19390 1.12570
H51 H 0.32130 -0.25710 1.08250
O1 O 0.4257(6) -0.0736(6) 1.0194(3)
O2 O 0.4718(6) -0.2099(6) 1.0165(4)
O3 O 0.1184(6) -0.3241(6) 0.5398(4)
O4 O 0.5531(7) -0.1077(7) 0.5865(4)
O5 O 0.3909(6) -0.5125(6) 0.6430(4)
O6 O 0.0709(6) -0.0370(7) 0.6503(4)
O7 O 0.5090(7) 0.1719(7) 0.7034(4)
O8 O 0.7455(7) 0.0017(7) 0.7908(4)
O9 O 0.5868(7) -0.3953(7) 0.8467(4)
O10 O 0.1974(6) -0.5803(6) 0.8082(4)
O11 O -0.0765(6) -0.3883(7) 0.7033(4)
O12 O 0.2801(6) 0.0931(6) 0.8822(4)
O13 O 0.1386(6) -0.2627(6) 0.9351(4)
O14 O 0.3349(6) -0.2074(6) 0.5808(4)
O15 O 0.2566(6) -0.4008(6) 0.6087(3)
O16 O 0.1936(6) -0.1615(6) 0.6338(3)
O17 O 0.1147(6) -0.3494(6) 0.6598(3)
O18 O 0.4660(6) -0.3015(6) 0.6282(4)
O19 O 0.4400(6) -0.0393(6) 0.6594(4)
O20 O 0.5690(6) -0.1305(6) 0.7087(3)
O21 O 0.4775(6) -0.3591(6) 0.7401(3)
O22 O 0.2696(6) -0.4578(6) 0.7181(3)
O23 O 0.2943(6) 0.0364(7) 0.6787(4)
O24 O 0.0882(6) -0.1976(6) 0.7188(3)
O25 O 0.5422(6) 0.0194(6) 0.7703(4)
O26 O 0.6389(6) -0.1998(6) 0.8087(4)
O27 O 0.3725(6) -0.3963(6) 0.8281(3)
O28 O 0.0868(6) -0.4647(6) 0.7490(4)
O29 O 0.2054(6) -0.1257(6) 0.8504(3)
O30 O 0.1865(6) -0.0007(6) 0.7669(3)
O31 O 0.3949(6) 0.1018(6) 0.7919(3)
O32 O 0.1909(6) -0.4023(6) 0.8624(4)
O33 O 0.0625(6) -0.3099(6) 0.8113(3)
O34 O 0.3454(6) -0.2470(6) 0.6899(3)
O35 O 0.3212(5) -0.0925(6) 0.7543(3)
O36 O 0.4558(5) -0.1863(5) 0.8005(3)
O37 O 0.2422(5) -0.2850(6) 0.7807(3)
O38 O 0.6224(6) -0.0378(6) 0.8753(3)
O39 O 0.5373(6) -0.2441(6) 0.9042(3)
O40 O 0.4135(6) -0.0196(6) 0.8806(3)
O41 O 0.3377(6) -0.2130(6) 0.9060(3)
O42 O 0.6738(6) -0.0754(7) 0.9974(4)
Cu4 Cu -0.21479(14) -0.33766(16) 0.76589(9)
N9 N -0.3108(10) -0.347(1) 0.6855(6)
H52 H -0.36810 -0.33150 0.69250
N10 N -0.1258(10) -0.3202(10) 0.8481(6)
H53 H -0.06110 -0.31930 0.84170
N11 N -0.1604(10) -0.1851(10) 0.7731(6)
H54 H -0.21580 -0.16630 0.77990
N12 N -0.2722(12) -0.4942(12) 0.7558(7)
H55 H -0.22500 -0.51320 0.73840
C23 C -0.2818(16) -0.5491(17) 0.8084(10)
H56 H -0.29830 -0.62220 0.79680
H57 H -0.34070 -0.54210 0.82480
C24 C -0.1825(15) -0.5096(16) 0.8551(9)
H58 H -0.18760 -0.55810 0.88470
H59 H -0.12260 -0.50800 0.83680
C25 C -0.1594(13) -0.4056(13) 0.8858(8)
H60 H -0.10320 -0.39340 0.92090
H61 H -0.22290 -0.40410 0.89930
C26 C -0.1046(12) -0.2186(12) 0.8768(7)
H62 H -0.04630 -0.20170 0.91120
H63 H -0.16760 -0.21490 0.89000
C27 C -0.0736(13) -0.1422(13) 0.8292(8)
H64 H -0.06980 -0.07360 0.84360
H65 H -0.00450 -0.13760 0.82080
C28 C -0.1302(14) -0.1374(14) 0.7205(8)
H66 H -0.07330 -0.15810 0.71010
H67 H -0.10190 -0.06290 0.73040
C29 C -0.2170(16) -0.1634(16) 0.6682(9)
H68 H -0.19140 -0.12190 0.63720
H69 H -0.27490 -0.14460 0.67890
C30 C -0.2611(13) -0.2757(12) 0.6429(7)
H70 H -0.31440 -0.28460 0.60690
H71 H -0.20370 -0.29490 0.63190
C31 C -0.3513(13) -0.4555(13) 0.6581(8)
H72 H -0.29820 -0.46920 0.63890
H73 H -0.41600 -0.46890 0.62820
C32 C -0.3748(14) -0.5248(14) 0.7080(8)
H74 H -0.43210 -0.51530 0.72500
H75 H -0.39660 -0.59700 0.69240
O43 O 0.4304(7) -0.3958(8) 0.5065(4)
O44 O 0.7482(14) 0.1933(14) 0.7496(9)
O45 O 0.3800(8) -0.6054(8) 0.5265(5)
O46 O 0.0519(13) -0.5752(13) 0.9113(8)
O47 O -0.1347(11) -0.6138(11) 0.7225(7)
O48 O 0.8447(15) 0.0947(16) 0.9786(10)
O49 O 0.3581(9) -0.414(1) 0.9627(6)
O50 O 0.131(3) -0.254(3) 1.1111(17)
O51 O 0.169(3) -0.439(3) 1.0048(16)
O52? O -0.020(3) -0.016(3) 0.9758(17)
N5A N 0.0421(8) -0.4592(8) 0.4212(5)
H25A H -0.00360 -0.50910 0.39210
N6A N -0.1208(8) -0.4437(8) 0.4884(5)
H26A H -0.17760 -0.49230 0.46370
C11A C 0.1493(10) -0.4651(10) 0.4242(6)
H27A H 0.16440 -0.46880 0.38440
H28A H 0.20340 -0.40420 0.44790
C12A C -0.1502(10) -0.4389(10) 0.5475(6)
H29A H -0.09960 -0.37800 0.57280
H30A H -0.22090 -0.43430 0.54280
C13A C -0.1027(11) -0.3451(11) 0.4621(6)
H31A H -0.16700 -0.32790 0.45790
H32A H -0.04540 -0.29020 0.48870
C14A C -0.0733(11) -0.3525(12) 0.4015(7)
H33A H -0.12610 -0.41350 0.37720
H34A H -0.07690 -0.29260 0.38200
C15A C 0.0371(10) -0.3585(10) 0.4037(6)
H35A H 0.08940 -0.30280 0.43210
H36A H 0.05550 -0.34910 0.36470
N7A N 0.5303(9) -0.0937(9) 0.4419(5)
H37A H 0.53310 -0.06250 0.40770
N8A N 0.3451(8) -0.0970(9) 0.4755(5)
H38A H 0.33310 -0.14150 0.50380
C16A C 0.4356(11) -0.1912(11) 0.4268(7)
H39A H 0.43630 -0.22860 0.39000
H40A H 0.43540 -0.23540 0.45860
C17A C 0.3383(12) -0.1590(12) 0.4196(7)
H41A H 0.27340 -0.21970 0.41180
H42A H 0.33670 -0.11820 0.38630
C18A C 0.2626(12) -0.0485(12) 0.4711(7)
H43A H 0.27000 -0.00390 0.43940
H44A H 0.19230 -0.10220 0.46070
C19A C 0.7290(13) -0.0139(13) 0.4715(8)
H45A H 0.79330 -0.03080 0.47360
H46A H 0.72540 0.02810 0.43890
C20A C 0.6335(11) -0.1124(12) 0.4578(7)
H47A H 0.63210 -0.15080 0.49230
H48A H 0.64060 -0.15460 0.42480
W1A W -0.20925(4) -0.71458(4) 0.39301(2)
W2A W -0.47537(4) -0.84247(4) 0.36221(2)
W3A W -0.37596(4) -0.59856(4) 0.32835(2)
W4A W -0.16961(4) -0.92951(4) 0.30806(2)
W5A W -0.43487(4) -1.05433(4) 0.27718(2)
W6A W -0.61785(4) -0.92883(4) 0.20088(2)
W7A W -0.52168(4) -0.69186(4) 0.16764(2)
W8A W -0.22561(4) -0.54603(4) 0.20733(2)
W9A W -0.05902(4) -0.66138(4) 0.26955(2)
W10A W -0.30437(4) -1.00349(3) 0.16325(2)
W11A W -0.20011(4) -0.74262(4) 0.12559(2)
Lu1A Lu -0.50815(4) -0.89860(4) 0.06244(2)
Ge1A Ge -0.3427(2) -0.7982(2) 0.24210(13)
Cu1A Cu -0.23585(14) -0.27517(13) 0.15468(8)
N1A N -0.1145(10) -0.1772(10) 0.2187(6)
H1A H -0.12350 -0.11490 0.22090
N2A N -0.3427(10) -0.2901(11) 0.2100(6)
H2A H -0.35720 -0.23050 0.21110
N3A N -0.3636(10) -0.3674(11) 0.0920(6)
H3A H -0.36120 -0.43240 0.09200
N4A N -0.1319(11) -0.2455(12) 0.1006(7)
H4A H -0.10740 -0.29920 0.10060
C1A C -0.1056(13) -0.2098(14) 0.2797(8)
H5A H -0.09430 -0.27550 0.27900
H6A H -0.04470 -0.15880 0.30640
C2A C -0.2091(14) -0.2206(15) 0.3026(9)
H7A H -0.22150 -0.15570 0.30000
H8A H -0.19720 -0.23090 0.34460
C3A C -0.3078(12) -0.3051(12) 0.2713(7)
H9A H -0.36460 -0.31030 0.29290
H10A H -0.29510 -0.37010 0.27180
C4A C -0.4414(13) -0.3724(13) 0.1805(8)
H11A H -0.43740 -0.43890 0.18990
H12A H -0.50120 -0.36410 0.19530
C5A C -0.4605(13) -0.3711(14) 0.1134(8)
H13A H -0.47870 -0.31110 0.10320
H14A H -0.51980 -0.43270 0.09440
C6A C -0.3680(12) -0.3429(13) 0.0299(7)
H15A H -0.42630 -0.39820 0.00420
H16A H -0.38440 -0.28000 0.02680
C7A C -0.2663(13) -0.3284(14) 0.0068(8)
H17A H -0.28030 -0.32170 -0.03560
H18A H -0.24870 -0.39050 0.01130
C8A C -0.1705(14) -0.2368(15) 0.0369(8)
H19A H -0.18870 -0.17480 0.03440
H20A H -0.11300 -0.22920 0.01550
C9A C -0.0401(15) -0.1539(15) 0.1296(9)
H21A H 0.02200 -0.14960 0.11280
H22A H -0.05640 -0.09160 0.12320
C10A C -0.0171(14) -0.1638(15) 0.1963(8)
H23A H 0.04000 -0.10210 0.21710
H24A H 0.00500 -0.22290 0.20300
C21A C -0.4254(9) -0.8438(9) -0.0412(5)
C22A C -0.3762(10) -0.8098(10) -0.0935(6)
H49A H -0.34560 -0.85870 -0.10600
H50A H -0.43010 -0.80610 -0.12570
H51A H -0.32130 -0.74290 -0.08250
O1A O -0.4257(6) -0.9264(6) -0.0194(3)
O2A O -0.4718(6) -0.7901(6) -0.0165(4)
O3A O -0.1184(6) -0.6759(6) 0.4602(4)
O4A O -0.5531(7) -0.8923(7) 0.4135(4)
O5A O -0.3909(6) -0.4875(6) 0.3570(4)
O6A O -0.0709(6) -0.9630(7) 0.3497(4)
O7A O -0.5090(7) -1.1719(7) 0.2966(4)
O8A O -0.7455(7) -1.0017(7) 0.2092(4)
O9A O -0.5868(7) -0.6047(7) 0.1533(4)
O10A O -0.1974(6) -0.4197(6) 0.1918(4)
O11A O 0.0765(6) -0.6117(7) 0.2967(4)
O12A O -0.2801(6) -1.0931(6) 0.1178(4)
O13A O -0.1386(6) -0.7373(6) 0.0649(4)
O14A O -0.3349(6) -0.7926(6) 0.4192(4)
O15A O -0.2566(6) -0.5992(6) 0.3913(3)
O16A O -0.1936(6) -0.8385(6) 0.3662(3)
O17A O -0.1147(6) -0.6506(6) 0.3402(3)
O18A O -0.4660(6) -0.6985(6) 0.3718(4)
O19A O -0.4400(6) -0.9607(6) 0.3406(4)
O20A O -0.5690(6) -0.8695(6) 0.2913(3)
O21A O -0.4775(6) -0.6409(6) 0.2599(3)
O22A O -0.2696(6) -0.5422(6) 0.2819(3)
O23A O -0.2943(6) -1.0364(7) 0.3213(4)
O24A O -0.0882(6) -0.8024(6) 0.2812(3)
O25A O -0.5422(6) -1.0194(6) 0.2297(4)
O26A O -0.6389(6) -0.8002(6) 0.1913(4)
O27A O -0.3725(6) -0.6037(6) 0.1719(3)
O28A O -0.0868(6) -0.5353(6) 0.2510(4)
O29A O -0.2054(6) -0.8743(6) 0.1496(3)
O30A O -0.1865(6) -0.9993(6) 0.2331(3)
O31A O -0.3949(6) -1.1018(6) 0.2081(3)
O32A O -0.1909(6) -0.5977(6) 0.1376(4)
O33A O -0.0625(6) -0.6901(6) 0.1887(3)
O34A O -0.3454(6) -0.7530(6) 0.3101(3)
O35A O -0.3212(5) -0.9075(6) 0.2457(3)
O36A O -0.4558(5) -0.8137(5) 0.1995(3)
O37A O -0.2422(5) -0.7150(6) 0.2193(3)
O38A O -0.6224(6) -0.9622(6) 0.1247(3)
O39A O -0.5373(6) -0.7559(6) 0.0958(3)
O40A O -0.4135(6) -0.9804(6) 0.1194(3)
O41A O -0.3377(6) -0.7870(6) 0.0940(3)
O42A O -0.6738(6) -0.9246(7) 0.0026(4)
Lu1* Lu -0.49185(4) -1.10140(4) -0.06244(2)
Lu1A* Lu 0.49185(4) 0.10140(4) 1.06244(2)
Cu3* Cu -0.50000 -1.00000 0.50000
O1* O -0.5743(6) -1.0736(6) 0.0194(3)
O1A* O 0.5743(6) 0.0736(6) 0.9806(3)
O4A* O 0.4469(7) 0.1077(7) 0.4135(4)
#END
