
#######################################################################
#
#                 Cambridge Crystallographic Data Centre
#                                CCDC
#
#######################################################################
#
# If this CIF has been generated from an entry in the Cambridge
# Structural Database, then it will include bibliographic, chemical,
# crystal, experimental, refinement or atomic coordinate data resulting
# from the CCDC's data processing and validation procedures.
#
#######################################################################

data_CSD_CIF_YIVBEN
_audit_creation_date 2019-03-14
_audit_creation_method CSD-ConQuest-V1
_database_code_CSD YIVBEN
_database_code_depnum_ccdc_archive 'CCDC 1882855'
_chemical_formula_sum 'C64 H190 Cu6 Er2 Ge2 N24 O102 W22'
_chemical_formula_moiety
;
2(C10 H24 Cu1 N4 2+),n(C44 H106 Cu4 Er2 Ge2 N16 O84 W22 4-),18(H2 O1)
;
_journal_coden_Cambridge 9
_journal_volume 58
_journal_year 2019
_journal_page_first 4365
_journal_name_full 'Inorg.Chem. '
loop_
_publ_author_name
"J.Martin-Caballero"
"B.Artetxe"
"S.Reinoso"
"L.S.Felices"
"P.Vitoria"
"A.Larranaga"
"J.L.Vilas"
"J.M.Gutierrez-Zorrilla"
_chemical_name_systematic
;
catena-[bis((1,4,8,11-tetraazacyclotetradecane)-copper(ii)) 
dohexacontakis(\m-oxo)-bis(\m-acetato)-diaqua-tetrakis(1,4,8,11-tetraazacyclot
etradecane)-hexadeca-oxo-tetra-copper(ii)-di-erbium(iii)-di-germanium(iv)-doco
sa-tungsten(vi) octadecahydrate]
;
_cell_volume   3963.705
_exptl_crystal_colour 'orange'
_exptl_crystal_density_diffrn 3.282
_exptl_special_details
;
as-synthesised phase
Isostructural with the La, Ce, Pr, Nd, Sm, Eu, Gd, Tb, Dy, Ho, Tm, Yb and Lu 
analogues.
;
_exptl_crystal_description 'plates'
_diffrn_ambient_temperature 100
_refine_special_details
;
O10W disordered over one sites with occupancies 0.5; O3W,O9W and O11W,O12W 
disordered over two sites with occupancies 0.75,0.7:0.3,0.25; O6W disordered 
by symmetry over two configurations with occupancy 0.5.
;
#These two values have been output from a single CSD field.
_refine_ls_R_factor_gt 0.0414
_refine_ls_wR_factor_gt 0.0414
_symmetry_cell_setting triclinic
_symmetry_space_group_name_H-M 'P -1'
_symmetry_Int_Tables_number 2
loop_
_symmetry_equiv_pos_site_id
_symmetry_equiv_pos_as_xyz
1 x,y,z
2 -x,-y,-z
_cell_length_a 13.6108(4)
_cell_length_b 13.8628(3)
_cell_length_c 22.8601(5)
_cell_angle_alpha 92.7378(19)
_cell_angle_beta 100.061(2)
_cell_angle_gamma 110.005(2)
_cell_formula_units_Z 1
loop_
_atom_type_symbol
_atom_type_radius_bond
C 0.68
H 0.23
Cu 1.32
Er 1.89
Ge 1.17
N 0.68
O 0.68
W 1.62
loop_
_atom_site_label
_atom_site_type_symbol
_atom_site_fract_x
_atom_site_fract_y
_atom_site_fract_z
W1 W 0.21088(3) -0.28577(3) 0.60672(2)
W2 W 0.47590(3) -0.15672(3) 0.63788(2)
W3 W 0.37788(3) -0.39976(3) 0.67157(2)
W4 W 0.17117(4) -0.07024(3) 0.69170(2)
W5 W 0.43564(4) 0.05568(3) 0.72376(2)
W6 W 0.62250(3) -0.06798(3) 0.79953(2)
W7 W 0.52611(3) -0.30697(3) 0.83300(2)
W8 W 0.22795(3) -0.45267(3) 0.79332(2)
W9 W 0.06112(3) -0.33888(3) 0.73050(2)
W10 W 0.30291(3) 0.00464(3) 0.83656(2)
W11 W 0.19949(3) -0.25770(3) 0.87466(2)
Er1 Er 0.51034(4) -0.10080(4) 0.93578(2)
Ge1 Ge 0.34619(8) -0.19956(8) 0.75973(4)
Cu1 Cu 0.23566(12) -0.72463(11) 0.84571(7)
Cu2 Cu 0.00000 -0.50000 0.50000
Cu3 Cu 0.50000 0.00000 0.50000
N1 N 0.1140(8) -0.8213(7) 0.7823(4)
H1 H 0.12370 -0.88810 0.77980
N2 N 0.3403(8) -0.7092(7) 0.7915(4)
H2 H 0.35720 -0.77240 0.79080
N3 N 0.3611(8) -0.6318(7) 0.9082(4)
H3 H 0.35940 -0.56170 0.90860
N4 N 0.1323(9) -0.7537(8) 0.9009(4)
H4 H 0.10590 -0.69620 0.90100
C1 C 0.1054(10) -0.7899(9) 0.7220(5)
H5 H 0.09540 -0.72390 0.72280
H6 H 0.04340 -0.84040 0.69570
C2 C 0.2056(11) -0.7806(10) 0.6971(6)
H7 H 0.21750 -0.84560 0.69940
H8 H 0.19170 -0.77080 0.65520
C3 C 0.3079(10) -0.6936(9) 0.7284(5)
H9 H 0.36470 -0.69060 0.70740
H10 H 0.29680 -0.62820 0.72710
C4 C 0.4386(10) -0.6245(9) 0.8204(5)
H11 H 0.43190 -0.55860 0.81250
H12 H 0.49840 -0.62970 0.80460
C5 C 0.4576(10) -0.6309(9) 0.8871(5)
H13 H 0.47170 -0.69340 0.89540
H14 H 0.51890 -0.57200 0.90740
C6 C 0.3668(11) -0.6589(10) 0.9706(6)
H15 H 0.42730 -0.60590 0.99650
H16 H 0.37940 -0.72360 0.97220
C7 C 0.2683(11) -0.6693(10) 0.9942(6)
H17 H 0.25170 -0.60720 0.98890
H18 H 0.28270 -0.67450 1.03680
C8 C 0.1713(11) -0.7624(10) 0.9642(6)
H19 H 0.18960 -0.82410 0.96640
H20 H 0.11430 -0.77020 0.98590
C9 C 0.0394(12) -0.8472(11) 0.8723(6)
H21 H -0.02220 -0.85200 0.88940
H22 H 0.05610 -0.90910 0.87840
C10 C 0.0161(11) -0.8364(11) 0.8055(6)
H23 H -0.04090 -0.89810 0.78450
H24 H -0.00650 -0.77780 0.79940
N5 N -0.0419(8) -0.5398(7) 0.5789(4)
H25 H 0.00710 -0.48640 0.61060
N6 N 0.1197(8) -0.5567(7) 0.5115(4)
H26 H 0.18030 -0.50440 0.53860
C11 C -0.1512(10) -0.5347(9) 0.5749(5)
H27 H -0.20450 -0.59540 0.55060
H28 H -0.16740 -0.53190 0.61440
C12 C 0.1519(9) -0.5603(8) 0.4528(5)
H29 H 0.10260 -0.62120 0.42680
H30 H 0.22290 -0.56380 0.45830
C13 C 0.1016(10) -0.6550(9) 0.5384(5)
H31 H 0.16600 -0.67160 0.54300
H32 H 0.04500 -0.71040 0.51170
C14 C 0.0714(10) -0.6479(10) 0.5989(5)
H33 H 0.12400 -0.58710 0.62350
H34 H 0.07440 -0.70780 0.61830
C15 C -0.0400(9) -0.6418(8) 0.5960(5)
H35 H -0.09200 -0.69670 0.56700
H36 H -0.05940 -0.65170 0.63470
N7 N 0.4685(8) 0.0936(7) 0.5587(4)
H37 H 0.46510 0.06040 0.59550
N8 N 0.6536(9) 0.0966(8) 0.5246(5)
H38 H 0.66630 0.14400 0.49400
C16 C 0.5639(10) 0.1904(9) 0.5731(5)
H39 H 0.56340 0.22880 0.60960
H40 H 0.56380 0.23350 0.54100
C17 C 0.6621(11) 0.1601(10) 0.5811(6)
H41 H 0.72640 0.22130 0.58830
H42 H 0.66470 0.12050 0.61480
C18 C 0.7376(12) 0.0508(11) 0.5299(6)
H43 H 0.73150 0.00720 0.56210
H44 H 0.80720 0.10550 0.53980
C19 C 0.2720(12) 0.0129(10) 0.5280(6)
H45 H 0.27590 -0.02880 0.56060
H46 H 0.20760 0.02900 0.52590
C20 C 0.3676(11) 0.1131(10) 0.5424(6)
H47 H 0.36980 0.15140 0.50800
H48 H 0.36000 0.15500 0.57540
C21 C 0.4288(9) -0.1581(8) 1.0400(4)
C22 C 0.3778(9) -0.1950(8) 1.0920(5)
H49 H 0.34670 -0.14710 1.10490
H50 H 0.32310 -0.26190 1.08000
H51 H 0.43090 -0.19940 1.12440
O1 O 0.4257(6) -0.0747(5) 1.0195(3)
O2 O 0.4744(6) -0.2089(5) 1.0159(3)
O3 O 0.1181(6) -0.3244(5) 0.5399(3)
O4 O 0.5527(6) -0.1052(5) 0.5864(3)
O5 O 0.3941(6) -0.5103(5) 0.6435(3)
O6 O 0.0715(6) -0.0404(6) 0.6495(3)
O7 O 0.5116(6) 0.1734(6) 0.7037(3)
O8 O 0.7482(6) 0.0039(6) 0.7881(3)
O9 O 0.5909(6) -0.3938(6) 0.8448(3)
O10 O 0.1996(6) -0.5790(5) 0.8081(3)
O11 O -0.0751(6) -0.3889(6) 0.7020(3)
O12 O 0.2784(6) 0.0940(5) 0.8823(3)
O13 O 0.1388(6) -0.2633(6) 0.9359(3)
O14 O 0.3355(6) -0.2072(5) 0.5798(3)
O15 O 0.2583(5) -0.4010(5) 0.6082(3)
O16 O 0.1965(6) -0.1615(5) 0.6347(3)
O17 O 0.1196(6) -0.3487(5) 0.6607(3)
O18 O 0.4680(6) -0.2990(5) 0.6285(3)
O19 O 0.4395(6) -0.0400(5) 0.6605(3)
O20 O 0.5689(6) -0.1288(5) 0.7095(3)
O21 O 0.4802(5) -0.3526(5) 0.7408(3)
O22 O 0.2721(6) -0.4548(5) 0.7188(3)
O23 O 0.2952(6) 0.0378(5) 0.6783(3)
O24 O 0.0940(6) -0.1984(5) 0.7196(3)
O25 O 0.5423(6) 0.0198(5) 0.7715(3)
O26 O 0.6429(6) -0.1978(5) 0.8100(3)
O27 O 0.3760(6) -0.3922(5) 0.8278(3)
O28 O 0.0882(6) -0.4644(5) 0.7487(3)
O29 O 0.2057(6) -0.1263(5) 0.8505(3)
O30 O 0.1850(6) -0.0006(5) 0.7664(3)
O31 O 0.3954(6) 0.1038(5) 0.7916(3)
O32 O 0.1922(6) -0.4020(5) 0.8636(3)
O33 O 0.0627(5) -0.3114(5) 0.8117(3)
O34 O 0.3488(5) -0.2473(5) 0.6882(3)
O35 O 0.3197(5) -0.0855(5) 0.7548(3)
O36 O 0.4653(5) -0.1813(5) 0.8076(3)
O37 O 0.2376(5) -0.2893(5) 0.7824(3)
O38 O 0.6329(5) -0.0314(5) 0.8774(3)
O39 O 0.5440(5) -0.2470(5) 0.9065(3)
O40 O 0.4128(6) -0.0170(5) 0.8796(3)
O41 O 0.3383(6) -0.2135(5) 0.9054(3)
O42 O 0.6784(6) -0.0719(5) 0.9982(3)
Cu4 Cu 0.78589(13) -0.33925(13) 0.76602(8)
N9 N 0.6892(10) -0.3471(8) 0.6857(5)
H52 H 0.62820 -0.33030 0.69370
N10 N 0.8743(8) -0.3235(7) 0.8473(4)
H53 H 0.94350 -0.32290 0.84030
N11 N 0.8398(9) -0.1849(8) 0.7738(5)
H54 H 0.78030 -0.16510 0.78150
N12 N 0.7297(11) -0.4934(9) 0.7549(6)
H55 H 0.77990 -0.51360 0.73580
C23 C 0.7192(12) -0.5497(11) 0.8079(6)
H56 H 0.70190 -0.62260 0.79600
H57 H 0.66080 -0.54230 0.82440
C24 C 0.8207(12) -0.5102(10) 0.8557(6)
H58 H 0.81550 -0.55840 0.88540
H59 H 0.88050 -0.50830 0.83750
C25 C 0.8429(11) -0.4040(9) 0.8866(6)
H60 H 0.77940 -0.40270 0.89990
H61 H 0.89950 -0.38970 0.92170
C26 C 0.8967(11) -0.2190(9) 0.8765(5)
H62 H 0.95630 -0.20080 0.91030
H63 H 0.83470 -0.21530 0.89060
C27 C 0.9238(11) -0.1457(10) 0.8284(6)
H64 H 0.92890 -0.07700 0.84320
H65 H 0.99220 -0.14130 0.81950
C28 C 0.8701(11) -0.1367(10) 0.7210(6)
H66 H 0.92730 -0.15640 0.71060
H67 H 0.89740 -0.06220 0.73070
C29 C 0.7804(13) -0.1658(11) 0.6679(7)
H68 H 0.72230 -0.14840 0.67890
H69 H 0.80430 -0.12450 0.63660
C30 C 0.7385(12) -0.2770(11) 0.6434(6)
H70 H 0.68560 -0.28710 0.60690
H71 H 0.79650 -0.29530 0.63300
C31 C 0.6482(12) -0.4580(11) 0.6595(6)
H72 H 0.70020 -0.47160 0.63960
H73 H 0.58240 -0.47290 0.63030
C32 C 0.6280(12) -0.5257(11) 0.7096(7)
H74 H 0.57160 -0.51670 0.72740
H75 H 0.60660 -0.59790 0.69420
O43 O 0.4333(7) -0.3941(6) 0.5066(4)
O44 O 0.3781(7) -0.6045(7) 0.5268(4)
O45 O 0.1538(12) -0.0987(11) 1.0227(7)
O46 O 0.0560(9) -0.5750(8) 0.9129(5)
O47 O -0.1341(10) -0.6134(9) 0.7229(5)
O48 O -0.133(2) -0.7489(18) 0.8895(10)
O49 O 0.3560(8) -0.4180(7) 0.9632(4)
O50 O 0.7513(15) 0.1982(14) 0.7555(8)
O51 O 0.1749(17) -0.4336(16) 1.0080(9)
O52? O -0.104(3) -0.728(3) 0.9482(15)
O53? O 0.081(4) -0.416(4) 1.016(2)
O54? O 0.988(4) -0.020(3) 0.9731(17)
N5A N 0.0419(8) -0.4602(7) 0.4211(4)
H25A H -0.00710 -0.51360 0.38940
N6A N -0.1197(8) -0.4433(7) 0.4885(4)
H26A H -0.18030 -0.49560 0.46140
C11A C 0.1512(10) -0.4653(9) 0.4251(5)
H27A H 0.20450 -0.40460 0.44940
H28A H 0.16740 -0.46810 0.38560
C12A C -0.1519(9) -0.4397(8) 0.5472(5)
H29A H -0.10260 -0.37880 0.57320
H30A H -0.22290 -0.43620 0.54170
C13A C -0.1016(10) -0.3450(9) 0.4616(5)
H31A H -0.16600 -0.32840 0.45700
H32A H -0.04500 -0.28960 0.48830
C14A C -0.0714(10) -0.3521(10) 0.4011(5)
H33A H -0.12400 -0.41290 0.37650
H34A H -0.07440 -0.29220 0.38170
C15A C 0.0400(9) -0.3582(8) 0.4040(5)
H35A H 0.09200 -0.30330 0.43300
H36A H 0.05940 -0.34830 0.36530
N7A N 0.5315(8) -0.0936(7) 0.4413(4)
H37A H 0.53490 -0.06040 0.40450
N8A N 0.3464(9) -0.0966(8) 0.4754(5)
H38A H 0.33370 -0.14400 0.50600
C16A C 0.4361(10) -0.1904(9) 0.4269(5)
H39A H 0.43660 -0.22880 0.39040
H40A H 0.43620 -0.23350 0.45900
C17A C 0.3379(11) -0.1601(10) 0.4189(6)
H41A H 0.27360 -0.22130 0.41170
H42A H 0.33530 -0.12050 0.38520
C18A C 0.2624(12) -0.0508(11) 0.4701(6)
H43A H 0.26850 -0.00720 0.43790
H44A H 0.19280 -0.10550 0.46020
C19A C 0.7280(12) -0.0129(10) 0.4720(6)
H45A H 0.72410 0.02880 0.43940
H46A H 0.79240 -0.02900 0.47410
C20A C 0.6324(11) -0.1131(10) 0.4576(6)
H47A H 0.63020 -0.15140 0.49200
H48A H 0.64000 -0.15500 0.42460
W1A W -0.21088(3) -0.71423(3) 0.39328(2)
W2A W -0.47590(3) -0.84328(3) 0.36212(2)
W3A W -0.37788(3) -0.60024(3) 0.32843(2)
W4A W -0.17117(4) -0.92976(3) 0.30830(2)
W5A W -0.43564(4) -1.05568(3) 0.27624(2)
W6A W -0.62250(3) -0.93202(3) 0.20047(2)
W7A W -0.52611(3) -0.69303(3) 0.16700(2)
W8A W -0.22795(3) -0.54733(3) 0.20668(2)
W9A W -0.06112(3) -0.66112(3) 0.26950(2)
W10A W -0.30291(3) -1.00464(3) 0.16344(2)
W11A W -0.19949(3) -0.74230(3) 0.12534(2)
Er1A Er -0.51034(4) -0.89920(4) 0.06422(2)
Ge1A Ge -0.34619(8) -0.80044(8) 0.24027(4)
Cu1A Cu -0.23566(12) -0.27537(11) 0.15429(7)
N1A N -0.1140(8) -0.1787(7) 0.2177(4)
H1A H -0.12370 -0.11190 0.22020
N2A N -0.3403(8) -0.2908(7) 0.2085(4)
H2A H -0.35720 -0.22760 0.20920
N3A N -0.3611(8) -0.3682(7) 0.0918(4)
H3A H -0.35940 -0.43830 0.09140
N4A N -0.1323(9) -0.2463(8) 0.0991(4)
H4A H -0.10590 -0.30380 0.09900
C1A C -0.1054(10) -0.2101(9) 0.2780(5)
H5A H -0.09540 -0.27610 0.27720
H6A H -0.04340 -0.15960 0.30430
C2A C -0.2056(11) -0.2194(10) 0.3029(6)
H7A H -0.21750 -0.15440 0.30060
H8A H -0.19170 -0.22920 0.34480
C3A C -0.3079(10) -0.3064(9) 0.2716(5)
H9A H -0.36470 -0.30940 0.29260
H10A H -0.29680 -0.37180 0.27290
C4A C -0.4386(10) -0.3755(9) 0.1796(5)
H11A H -0.43190 -0.44140 0.18750
H12A H -0.49840 -0.37030 0.19540
C5A C -0.4576(10) -0.3691(9) 0.1129(5)
H13A H -0.47170 -0.30660 0.10460
H14A H -0.51890 -0.42800 0.09260
C6A C -0.3668(11) -0.3411(10) 0.0294(6)
H15A H -0.42730 -0.39410 0.00350
H16A H -0.37940 -0.27640 0.02780
C7A C -0.2683(11) -0.3307(10) 0.0058(6)
H17A H -0.25170 -0.39280 0.01110
H18A H -0.28270 -0.32550 -0.03680
C8A C -0.1713(11) -0.2376(10) 0.0358(6)
H19A H -0.18960 -0.17590 0.03360
H20A H -0.11430 -0.22980 0.01410
C9A C -0.0394(12) -0.1528(11) 0.1277(6)
H21A H 0.02220 -0.14800 0.11060
H22A H -0.05610 -0.09090 0.12160
C10A C -0.0161(11) -0.1636(11) 0.1945(6)
H23A H 0.04090 -0.10190 0.21550
H24A H 0.00650 -0.22220 0.20060
C21A C -0.4288(9) -0.8419(8) -0.0400(4)
C22A C -0.3778(9) -0.8050(8) -0.0920(5)
H49A H -0.34670 -0.85290 -0.10490
H50A H -0.32310 -0.73810 -0.08000
H51A H -0.43090 -0.80060 -0.12440
O1A O -0.4257(6) -0.9253(5) -0.0195(3)
O2A O -0.4744(6) -0.7911(5) -0.0159(3)
O3A O -0.1181(6) -0.6756(5) 0.4601(3)
O4A O -0.5527(6) -0.8948(5) 0.4136(3)
O5A O -0.3941(6) -0.4897(5) 0.3565(3)
O6A O -0.0715(6) -0.9596(6) 0.3505(3)
O7A O -0.5116(6) -1.1734(6) 0.2963(3)
O8A O -0.7482(6) -1.0039(6) 0.2119(3)
O9A O -0.5909(6) -0.6062(6) 0.1552(3)
O10A O -0.1996(6) -0.4210(5) 0.1919(3)
O11A O 0.0751(6) -0.6111(6) 0.2980(3)
O12A O -0.2784(6) -1.0940(5) 0.1177(3)
O13A O -0.1388(6) -0.7367(6) 0.0641(3)
O14A O -0.3355(6) -0.7928(5) 0.4202(3)
O15A O -0.2583(5) -0.5990(5) 0.3918(3)
O16A O -0.1965(6) -0.8385(5) 0.3653(3)
O17A O -0.1196(6) -0.6513(5) 0.3393(3)
O18A O -0.4680(6) -0.7010(5) 0.3715(3)
O19A O -0.4395(6) -0.9600(5) 0.3395(3)
O20A O -0.5689(6) -0.8712(5) 0.2905(3)
O21A O -0.4802(5) -0.6474(5) 0.2592(3)
O22A O -0.2721(6) -0.5452(5) 0.2812(3)
O23A O -0.2952(6) -1.0378(5) 0.3217(3)
O24A O -0.0940(6) -0.8016(5) 0.2804(3)
O25A O -0.5423(6) -1.0198(5) 0.2285(3)
O26A O -0.6429(6) -0.8022(5) 0.1900(3)
O27A O -0.3760(6) -0.6078(5) 0.1722(3)
O28A O -0.0882(6) -0.5356(5) 0.2513(3)
O29A O -0.2057(6) -0.8737(5) 0.1495(3)
O30A O -0.1850(6) -0.9994(5) 0.2336(3)
O31A O -0.3954(6) -1.1038(5) 0.2084(3)
O32A O -0.1922(6) -0.5980(5) 0.1364(3)
O33A O -0.0627(5) -0.6886(5) 0.1883(3)
O34A O -0.3488(5) -0.7527(5) 0.3118(3)
O35A O -0.3197(5) -0.9145(5) 0.2452(3)
O36A O -0.4653(5) -0.8187(5) 0.1924(3)
O37A O -0.2376(5) -0.7107(5) 0.2176(3)
O38A O -0.6329(5) -0.9686(5) 0.1226(3)
O39A O -0.5440(5) -0.7530(5) 0.0935(3)
O40A O -0.4128(6) -0.9830(5) 0.1204(3)
O41A O -0.3383(6) -0.7865(5) 0.0946(3)
O42A O -0.6784(6) -0.9281(5) 0.0018(3)
Er1* Er -0.48966(4) -1.10080(4) -0.06422(2)
Er1A* Er 0.48966(4) 0.10080(4) 1.06422(2)
Cu3* Cu -0.50000 -1.00000 0.50000
O1* O -0.5743(6) -1.0747(5) 0.0195(3)
O1A* O 0.5743(6) 0.0747(5) 0.9805(3)
O4A* O 0.4473(6) 0.1052(5) 0.4136(3)
#END
