
#######################################################################
#
#                 Cambridge Crystallographic Data Centre
#                                CCDC
#
#######################################################################
#
# If this CIF has been generated from an entry in the Cambridge
# Structural Database, then it will include bibliographic, chemical,
# crystal, experimental, refinement or atomic coordinate data resulting
# from the CCDC's data processing and validation procedures.
#
#######################################################################

data_CSD_CIF_YIVCOY
_audit_creation_date 2019-03-14
_audit_creation_method CSD-ConQuest-V1
_database_code_CSD YIVCOY
_database_code_depnum_ccdc_archive 'CCDC 1882861'
_chemical_formula_sum 'C64 H188 Cu6 Eu2 Ge2 N24 O101 W22'
_chemical_formula_moiety
;
2(C10 H24 Cu1 N4 2+),(C44 H106 Cu4 Eu2 Ge2 N16 O84 W22 4-)n,17(H2 O1)
;
_journal_coden_Cambridge 9
_journal_volume 58
_journal_year 2019
_journal_page_first 4365
_journal_name_full 'Inorg.Chem. '
loop_
_publ_author_name
"J.Martin-Caballero"
"B.Artetxe"
"S.Reinoso"
"L.S.Felices"
"P.Vitoria"
"A.Larranaga"
"J.L.Vilas"
"J.M.Gutierrez-Zorrilla"
_chemical_name_systematic
;
catena-[bis((1,4,8,11-tetraazacyclotetradecane)-copper(ii)) 
dohexacontakis(\m-oxo)-bis(\m-acetato)-diaqua-tetrakis(1,4,8,11-tetraazacyclot
etradecane)-hexadeca-oxo-tetra-copper(ii)-di-europium(iii)-di-germanium(iv)-do
cosa-tungsten(vi) heptadecahydrate]
;
_cell_volume   3999.866
_exptl_crystal_colour 'orange'
_exptl_crystal_density_diffrn 3.232
_exptl_special_details
;
Rehydrated phase - as-synthesised crystal was dehydrated by heating to 180 
deg.C for 1h before rehydration upon exposure to air for 24h.
;
_exptl_crystal_description 'plates'
_diffrn_ambient_temperature 100
_refine_special_details
;
O11W disordered over one sites with occupancies 0.25; O8W and O10W disordered 
over two sites with occupancies 0.25:0.25.
;
#These two values have been output from a single CSD field.
_refine_ls_R_factor_gt 0.0733
_refine_ls_wR_factor_gt 0.0733
_symmetry_cell_setting triclinic
_symmetry_space_group_name_H-M 'P -1'
_symmetry_Int_Tables_number 2
loop_
_symmetry_equiv_pos_site_id
_symmetry_equiv_pos_as_xyz
1 x,y,z
2 -x,-y,-z
_cell_length_a 13.6301(2)
_cell_length_b 13.8798(2)
_cell_length_c 23.0003(4)
_cell_angle_alpha 92.7678(14)
_cell_angle_beta 99.8584(13)
_cell_angle_gamma 110.0622(14)
_cell_formula_units_Z 1
loop_
_atom_type_symbol
_atom_type_radius_bond
C 0.68
H 0.23
Cu 1.32
Eu 1.98
Ge 1.17
N 0.68
O 0.68
W 1.62
loop_
_atom_site_label
_atom_site_type_symbol
_atom_site_fract_x
_atom_site_fract_y
_atom_site_fract_z
W1 W 0.21130(5) -0.28563(5) 0.60664(3)
W2 W 0.47572(6) -0.15696(5) 0.63764(3)
W3 W 0.37726(5) -0.39955(5) 0.67100(3)
W4 W 0.17106(6) -0.07138(5) 0.69143(3)
W5 W 0.43524(6) 0.05481(5) 0.72339(3)
W6 W 0.62270(5) -0.06772(5) 0.79754(3)
W7 W 0.52609(5) -0.30786(5) 0.83060(3)
W8 W 0.22804(6) -0.45236(5) 0.79264(3)
W9 W 0.06098(5) -0.34032(5) 0.72945(3)
W10 W 0.30116(5) 0.00424(5) 0.83531(3)
W11 W 0.19654(5) -0.25856(5) 0.87277(3)
Eu1 Eu 0.51021(7) -0.10214(7) 0.93446(4)
Ge1 Ge 0.34625(12) -0.19978(12) 0.75930(7)
Cu1 Cu 0.2345(2) -0.72541(19) 0.84415(11)
Cu2 Cu 0.00000 -0.50000 0.50000
Cu3 Cu 0.50000 0.00000 0.50000
N1 N 0.1145(14) -0.8218(14) 0.7806(8)
H1 H 0.12359 -0.88879 0.77793
N2 N 0.3417(15) -0.7091(15) 0.7909(8)
H2 H 0.35856 -0.77223 0.79051
N3 N 0.3604(15) -0.6327(15) 0.9077(8)
H3 H 0.35895 -0.56258 0.90798
N4 N 0.1291(15) -0.7553(15) 0.8982(8)
H4 H 0.10230 -0.69817 0.89832
C1 C 0.1082(19) -0.7884(19) 0.7214(10)
H5 H 0.10047 -0.72144 0.72330
H6 H 0.04532 -0.83686 0.69512
C2 C 0.205(2) -0.781(2) 0.6962(13)
H7 H 0.19088 -0.76905 0.65485
H8 H 0.21463 -0.84671 0.69718
C3 C 0.3104(18) -0.6942(18) 0.7287(10)
H9 H 0.36702 -0.69306 0.70800
H10 H 0.30163 -0.62789 0.72723
C4 C 0.4387(18) -0.6254(18) 0.820(1)
H11 H 0.43124 -0.55965 0.81295
H12 H 0.49815 -0.62926 0.80341
C5 C 0.4605(18) -0.6316(18) 0.8849(10)
H13 H 0.52189 -0.57246 0.90459
H14 H 0.47501 -0.69391 0.89278
C6 C 0.3671(16) -0.6579(16) 0.9691(9)
H15 H 0.42355 -0.60181 0.99499
H16 H 0.38525 -0.71951 0.97190
C7 C 0.261(2) -0.676(2) 0.9906(13)
H17 H 0.27347 -0.68475 1.03251
H18 H 0.24395 -0.61442 0.98693
C8 C 0.167(2) -0.7648(19) 0.9603(11)
H19 H 0.18436 -0.82699 0.96202
H20 H 0.10977 -0.77283 0.98169
C9 C 0.037(2) -0.850(2) 0.8691(12)
H21 H -0.02499 -0.85702 0.88633
H22 H 0.05502 -0.91132 0.87401
C10 C 0.0154(19) -0.835(2) 0.8049(11)
H23 H -0.04322 -0.89458 0.78321
H24 H -0.00410 -0.77452 0.80050
N5 N -0.0419(12) -0.5400(12) 0.5787(7)
H25 H 0.00715 -0.48631 0.60990
N6 N 0.1181(12) -0.5601(11) 0.5109(6)
H26 H 0.17820 -0.50770 0.53796
C11 C -0.1452(17) -0.5333(17) 0.5745(9)
H27 H -0.16092 -0.53048 0.61401
H28 H -0.19821 -0.59492 0.55115
C12 C 0.1526(19) -0.5599(18) 0.4534(10)
H29 H 0.10737 -0.62210 0.42749
H30 H 0.22545 -0.55808 0.45960
C13 C 0.1008(18) -0.6541(18) 0.5392(10)
H31 H 0.16487 -0.67107 0.54393
H32 H 0.04356 -0.71050 0.51389
C14 C 0.0728(18) -0.6430(18) 0.5987(10)
H33 H 0.12414 -0.57966 0.62129
H34 H 0.07900 -0.69998 0.61993
C15 C -0.0382(17) -0.6407(17) 0.5959(10)
H35 H -0.08901 -0.69625 0.56705
H36 H -0.05771 -0.65102 0.63434
N7 N 0.4694(16) 0.0915(16) 0.5590(9)
H37 H 0.46562 0.05749 0.59535
N8 N 0.6527(15) 0.0979(15) 0.5239(9)
H38 H 0.66404 0.14622 0.49391
C16 C 0.561(2) 0.187(2) 0.5734(12)
H39 H 0.55964 0.22403 0.60998
H40 H 0.56004 0.23071 0.54187
C17 C 0.658(2) 0.159(2) 0.5805(12)
H41 H 0.66089 0.11895 0.61359
H42 H 0.72132 0.22144 0.58836
C18 C 0.7387(19) 0.0517(19) 0.5270(11)
H43 H 0.80762 0.10720 0.53567
H44 H 0.73515 0.00962 0.55957
C19 C 0.269(2) 0.013(2) 0.5290(12)
H45 H 0.27050 -0.02739 0.56198
H46 H 0.20569 0.03115 0.52549
C20 C 0.370(2) 0.116(2) 0.5440(13)
H47 H 0.37273 0.15523 0.51017
H48 H 0.36396 0.15778 0.57740
C21 C 0.4238(13) -0.1610(13) 1.0405(7)
C22 C 0.3786(14) -0.1952(14) 1.0942(8)
H49 H 0.38477 -0.26050 1.10189
H50 H 0.41730 -0.14487 1.12786
H51 H 0.30488 -0.20227 1.08719
O1 O 0.4256(9) -0.0777(9) 1.0207(5)
O2 O 0.4698(9) -0.2128(9) 1.0161(5)
O3 O 0.1189(9) -0.3266(9) 0.5397(5)
O4 O 0.5519(10) -0.1057(10) 0.5875(6)
O5 O 0.3926(9) -0.5098(9) 0.6435(5)
O6 O 0.0719(10) -0.0412(10) 0.6490(5)
O7 O 0.5105(10) 0.1719(10) 0.7034(6)
O8 O 0.7483(11) 0.0031(10) 0.7853(6)
O9 O 0.5892(11) -0.3968(10) 0.8394(6)
O10 O 0.2015(9) -0.5798(9) 0.8074(5)
O11 O -0.0742(10) -0.3892(10) 0.7023(5)
O12 O 0.2764(9) 0.0926(9) 0.8794(5)
O13 O 0.1328(9) -0.2664(9) 0.9322(5)
O14 O 0.3364(10) -0.2080(9) 0.5802(5)
O15 O 0.2599(9) -0.3999(9) 0.6083(5)
O16 O 0.1980(9) -0.1605(9) 0.6352(5)
O17 O 0.1190(9) -0.3504(9) 0.6612(5)
O18 O 0.4665(9) -0.2997(9) 0.6269(5)
O19 O 0.4391(9) -0.0391(9) 0.6614(5)
O20 O 0.5674(8) -0.1299(8) 0.7095(4)
O21 O 0.4777(9) -0.3557(8) 0.7388(5)
O22 O 0.2719(9) -0.4568(8) 0.7175(5)
O23 O 0.2968(9) 0.0373(9) 0.6790(5)
O24 O 0.0917(8) -0.1997(8) 0.7184(4)
O25 O 0.5411(9) 0.0191(8) 0.7710(5)
O26 O 0.6425(9) -0.1974(9) 0.8074(5)
O27 O 0.3757(8) -0.3923(8) 0.8263(4)
O28 O 0.0877(8) -0.4668(8) 0.7469(4)
O29 O 0.2048(8) -0.1265(8) 0.8495(5)
O30 O 0.1841(8) -0.0021(8) 0.7658(4)
O31 O 0.3935(8) 0.1038(8) 0.7904(4)
O32 O 0.1905(9) -0.4028(8) 0.8616(5)
O33 O 0.0606(9) -0.3126(9) 0.8093(5)
O34 O 0.3498(8) -0.2450(8) 0.6880(4)
O35 O 0.3208(8) -0.0850(8) 0.7543(4)
O36 O 0.4648(9) -0.1816(8) 0.8074(5)
O37 O 0.2361(8) -0.2878(8) 0.7820(4)
O38 O 0.6365(8) -0.0271(8) 0.8753(5)
O39 O 0.5462(8) -0.2487(8) 0.9051(4)
O40 O 0.4111(8) -0.0171(8) 0.8786(4)
O41 O 0.3350(9) -0.2151(9) 0.9039(5)
O42 O 0.6808(9) -0.0713(8) 1.0006(5)
Cu4 Cu 0.7853(2) -0.3415(2) 0.76678(13)
N9 N 0.6908(15) -0.3525(14) 0.6868(8)
H52 H 0.62878 -0.33745 0.69469
N10 N 0.8764(15) -0.3189(14) 0.8476(8)
H53 H 0.94552 -0.31819 0.84057
N11 N 0.8393(15) -0.1885(15) 0.7721(8)
H54 H 0.77912 -0.16927 0.77899
N12 N 0.7320(19) -0.4935(18) 0.7579(11)
H55 H 0.78380 -0.51334 0.74023
C23 C 0.719(2) -0.550(2) 0.8105(12)
H56 H 0.70291 -0.62256 0.79943
H57 H 0.65973 -0.54248 0.82634
C24 C 0.825(2) -0.504(2) 0.8590(12)
H58 H 0.82258 -0.55074 0.88922
H59 H 0.88473 -0.50016 0.84055
C25 C 0.8410(19) -0.4060(18) 0.8861(10)
H60 H 0.89455 -0.39119 0.92235
H61 H 0.77521 -0.40687 0.89724
C26 C 0.8971(16) -0.2173(16) 0.8748(9)
H62 H 0.95687 -0.19820 0.90816
H63 H 0.83518 -0.21439 0.88911
C27 C 0.9231(19) -0.1431(19) 0.8271(10)
H64 H 0.92354 -0.07580 0.84088
H65 H 0.99286 -0.13493 0.81889
C28 C 0.869(2) -0.140(2) 0.7194(11)
H66 H 0.92707 -0.15817 0.70944
H67 H 0.89381 -0.06596 0.72877
C29 C 0.783(2) -0.171(2) 0.6687(13)
H68 H 0.80753 -0.13061 0.63719
H69 H 0.72541 -0.15157 0.67909
C30 C 0.739(3) -0.278(2) 0.6451(14)
H70 H 0.79549 -0.29665 0.63264
H71 H 0.68500 -0.28645 0.60992
C31 C 0.651(2) -0.460(2) 0.6609(12)
H72 H 0.70296 -0.47271 0.64064
H73 H 0.58524 -0.47458 0.63227
C32 C 0.632(2) -0.527(2) 0.7112(13)
H74 H 0.57393 -0.52055 0.72801
H75 H 0.61335 -0.59904 0.69609
O43 O 0.4319(13) -0.3961(12) 0.5065(7)
O44 O -0.246(2) -0.7990(19) 0.7561(12)
O45 O 0.3792(13) -0.6058(12) 0.5267(7)
O46 O 0.054(2) -0.5765(19) 0.9119(12)
O47 O -0.1282(18) -0.6146(18) 0.7273(10)
O48 O 0.159(3) -0.089(3) 1.0280(16)
O49 O 0.3559(15) -0.4180(14) 0.9612(8)
O50 O -0.096(5) -0.723(5) 0.954(3)
O51? O -0.130(5) -0.741(5) 0.893(3)
O52 O 0.163(4) -0.436(4) 0.994(3)
O53 O -0.007(8) -0.009(8) 0.981(4)
N5A N 0.0419(12) -0.4600(12) 0.4213(7)
H25A H -0.00715 -0.51369 0.39010
N6A N -0.1181(12) -0.4399(11) 0.4891(6)
H26A H -0.17820 -0.49230 0.46204
C11A C 0.1452(17) -0.4667(17) 0.4255(9)
H27A H 0.16092 -0.46952 0.38599
H28A H 0.19821 -0.40508 0.44885
C12A C -0.1526(19) -0.4401(18) 0.5466(10)
H29A H -0.10737 -0.37790 0.57251
H30A H -0.22545 -0.44192 0.54040
C13A C -0.1008(18) -0.3459(18) 0.4608(10)
H31A H -0.16487 -0.32893 0.45607
H32A H -0.04356 -0.28950 0.48611
C14A C -0.0728(18) -0.3570(18) 0.4013(10)
H33A H -0.12414 -0.42034 0.37871
H34A H -0.07900 -0.30002 0.38007
C15A C 0.0382(17) -0.3593(17) 0.4041(10)
H35A H 0.08901 -0.30375 0.43295
H36A H 0.05771 -0.34898 0.36566
N7A N 0.5306(16) -0.0915(16) 0.4410(9)
H37A H 0.53438 -0.05749 0.40465
N8A N 0.3473(15) -0.0979(15) 0.4761(9)
H38A H 0.33596 -0.14622 0.50609
C16A C 0.439(2) -0.187(2) 0.4266(12)
H39A H 0.44036 -0.22403 0.39002
H40A H 0.43996 -0.23071 0.45813
C17A C 0.342(2) -0.159(2) 0.4195(12)
H41A H 0.33911 -0.11895 0.38641
H42A H 0.27868 -0.22144 0.41164
C18A C 0.2613(19) -0.0517(19) 0.4730(11)
H43A H 0.19238 -0.10720 0.46433
H44A H 0.26485 -0.00962 0.44043
C19A C 0.731(2) -0.013(2) 0.4710(12)
H45A H 0.72950 0.02739 0.43802
H46A H 0.79431 -0.03115 0.47451
C20A C 0.630(2) -0.116(2) 0.4560(13)
H47A H 0.62727 -0.15523 0.48983
H48A H 0.63604 -0.15778 0.42260
W1A W -0.21130(5) -0.71437(5) 0.39336(3)
W2A W -0.47572(6) -0.84304(5) 0.36236(3)
W3A W -0.37726(5) -0.60045(5) 0.32900(3)
W4A W -0.17106(6) -0.92862(5) 0.30857(3)
W5A W -0.43524(6) -1.05481(5) 0.27661(3)
W6A W -0.62270(5) -0.93228(5) 0.20246(3)
W7A W -0.52609(5) -0.69214(5) 0.16940(3)
W8A W -0.22804(6) -0.54764(5) 0.20736(3)
W9A W -0.06098(5) -0.65968(5) 0.27055(3)
W10A W -0.30116(5) -1.00424(5) 0.16469(3)
W11A W -0.19654(5) -0.74144(5) 0.12723(3)
Eu1A Eu -0.51021(7) -0.89786(7) 0.06554(4)
Ge1A Ge -0.34625(12) -0.80022(12) 0.24070(7)
Cu1A Cu -0.2345(2) -0.27459(19) 0.15585(11)
N1A N -0.1145(14) -0.1782(14) 0.2194(8)
H1A H -0.12359 -0.11121 0.22207
N2A N -0.3417(15) -0.2909(15) 0.2091(8)
H2A H -0.35856 -0.22777 0.20949
N3A N -0.3604(15) -0.3673(15) 0.0923(8)
H3A H -0.35895 -0.43742 0.09202
N4A N -0.1291(15) -0.2447(15) 0.1018(8)
H4A H -0.10230 -0.30183 0.10168
C1A C -0.1082(19) -0.2116(19) 0.2786(10)
H5A H -0.10047 -0.27856 0.27670
H6A H -0.04532 -0.16314 0.30488
C2A C -0.205(2) -0.219(2) 0.3038(13)
H7A H -0.19088 -0.23095 0.34515
H8A H -0.21463 -0.15329 0.30282
C3A C -0.3104(18) -0.3058(18) 0.2713(10)
H9A H -0.36702 -0.30694 0.29200
H10A H -0.30163 -0.37211 0.27277
C4A C -0.4387(18) -0.3746(18) 0.180(1)
H11A H -0.43124 -0.44035 0.18705
H12A H -0.49815 -0.37074 0.19659
C5A C -0.4605(18) -0.3684(18) 0.1151(10)
H13A H -0.52189 -0.42754 0.09541
H14A H -0.47501 -0.30609 0.10722
C6A C -0.3671(16) -0.3421(16) 0.0309(9)
H15A H -0.42355 -0.39819 0.00501
H16A H -0.38525 -0.28049 0.02810
C7A C -0.261(2) -0.324(2) 0.0094(13)
H17A H -0.27347 -0.31525 -0.03251
H18A H -0.24395 -0.38558 0.01307
C8A C -0.167(2) -0.2352(19) 0.0397(11)
H19A H -0.18436 -0.17301 0.03798
H20A H -0.10977 -0.22717 0.01831
C9A C -0.037(2) -0.150(2) 0.1309(12)
H21A H 0.02499 -0.14298 0.11367
H22A H -0.05502 -0.08868 0.12599
C10A C -0.0154(19) -0.165(2) 0.1951(11)
H23A H 0.04322 -0.10542 0.21679
H24A H 0.00410 -0.22548 0.19950
C21A C -0.4238(13) -0.8390(13) -0.0405(7)
C22A C -0.3786(14) -0.8048(14) -0.0942(8)
H49A H -0.38477 -0.73950 -0.10189
H50A H -0.41730 -0.85513 -0.12786
H51A H -0.30488 -0.79773 -0.08719
O1A O -0.4256(9) -0.9223(9) -0.0207(5)
O2A O -0.4698(9) -0.7872(9) -0.0161(5)
O3A O -0.1189(9) -0.6734(9) 0.4603(5)
O4A O -0.5519(10) -0.8943(10) 0.4125(6)
O5A O -0.3926(9) -0.4902(9) 0.3565(5)
O6A O -0.0719(10) -0.9588(10) 0.3510(5)
O7A O -0.5105(10) -1.1719(10) 0.2966(6)
O8A O -0.7483(11) -1.0031(10) 0.2147(6)
O9A O -0.5892(11) -0.6032(10) 0.1606(6)
O10A O -0.2015(9) -0.4202(9) 0.1926(5)
O11A O 0.0742(10) -0.6108(10) 0.2977(5)
O12A O -0.2764(9) -1.0926(9) 0.1206(5)
O13A O -0.1328(9) -0.7336(9) 0.0678(5)
O14A O -0.3364(10) -0.7920(9) 0.4198(5)
O15A O -0.2599(9) -0.6001(9) 0.3917(5)
O16A O -0.1980(9) -0.8395(9) 0.3648(5)
O17A O -0.1190(9) -0.6496(9) 0.3388(5)
O18A O -0.4665(9) -0.7003(9) 0.3731(5)
O19A O -0.4391(9) -0.9609(9) 0.3386(5)
O20A O -0.5674(8) -0.8701(8) 0.2905(4)
O21A O -0.4777(9) -0.6443(8) 0.2612(5)
O22A O -0.2719(9) -0.5432(8) 0.2825(5)
O23A O -0.2968(9) -1.0373(9) 0.3210(5)
O24A O -0.0917(8) -0.8003(8) 0.2816(4)
O25A O -0.5411(9) -1.0191(8) 0.2290(5)
O26A O -0.6425(9) -0.8026(9) 0.1926(5)
O27A O -0.3757(8) -0.6077(8) 0.1737(4)
O28A O -0.0877(8) -0.5332(8) 0.2531(4)
O29A O -0.2048(8) -0.8735(8) 0.1505(5)
O30A O -0.1841(8) -0.9979(8) 0.2342(4)
O31A O -0.3935(8) -1.1038(8) 0.2096(4)
O32A O -0.1905(9) -0.5972(8) 0.1384(5)
O33A O -0.0606(9) -0.6874(9) 0.1907(5)
O34A O -0.3498(8) -0.7550(8) 0.3120(4)
O35A O -0.3208(8) -0.9150(8) 0.2457(4)
O36A O -0.4648(9) -0.8184(8) 0.1926(5)
O37A O -0.2361(8) -0.7122(8) 0.2180(4)
O38A O -0.6365(8) -0.9729(8) 0.1247(5)
O39A O -0.5462(8) -0.7513(8) 0.0949(4)
O40A O -0.4111(8) -0.9829(8) 0.1214(4)
O41A O -0.3350(9) -0.7849(9) 0.0961(5)
O42A O -0.6808(9) -0.9287(8) -0.0006(5)
Eu1* Eu -0.48979(7) -1.10214(7) -0.06554(4)
Eu1A* Eu 0.48979(7) 0.10214(7) 1.06554(4)
Cu3* Cu -0.50000 -1.00000 0.50000
O1* O -0.5744(9) -1.0777(9) 0.0207(5)
O1A* O 0.5744(9) 0.0777(9) 0.9793(5)
O4A* O 0.4481(10) 0.1057(10) 0.4125(6)
#END
