
#######################################################################
#
#                 Cambridge Crystallographic Data Centre
#                                CCDC
#
#######################################################################
#
# If this CIF has been generated from an entry in the Cambridge
# Structural Database, then it will include bibliographic, chemical,
# crystal, experimental, refinement or atomic coordinate data resulting
# from the CCDC's data processing and validation procedures.
#
#######################################################################

data_CSD_CIF_YIXFIW
_audit_creation_date 2014-03-31
_audit_creation_method CSD-ConQuest-V1
_database_code_CSD YIXFIW
_database_code_depnum_ccdc_archive 'CCDC 967579'
_chemical_formula_sum 'C44 H40 Cl2 N4 O16 Sm2'
_chemical_formula_moiety
;
(C32 H18 Cl2 O16 Sm2 2-)n,2n(C6 H11 N2 1+)
;
_journal_coden_Cambridge 155
_journal_volume 414
_journal_year 2014
_journal_page_first 226
_journal_name_full 'Inorg.Chim.Acta '
loop_
_publ_author_name
"Qing-Yan Liu"
"Hai-Yan Cao"
"Yu-Ling Wang"
"Li-Li Chen"
"Ying Liu"
_chemical_name_systematic
;
catena-[bis(1-ethyl-3-methyl-1H-imidazol-3-ium) 
bis(\m~4~-terephthalato)-(\m~2~-terephthalato)-(\m~2~-terephthalic 
acid)-dichloro-di-samarium]
;
_cell_volume   2333.329
_exptl_crystal_colour 'yellow'
_exptl_crystal_density_diffrn 1.783
_exptl_crystal_description 'PRISM'
_diffrn_ambient_temperature 296
#These two values have been output from a single CSD field.
_refine_ls_R_factor_gt 0.0449
_refine_ls_wR_factor_gt 0.0449
_symmetry_cell_setting monoclinic
_symmetry_space_group_name_H-M 'P 21/n'
_symmetry_Int_Tables_number 14
loop_
_symmetry_equiv_pos_site_id
_symmetry_equiv_pos_as_xyz
1 x,y,z
2 1/2-x,1/2+y,1/2-z
3 -x,-y,-z
4 -1/2+x,-1/2-y,-1/2+z
_cell_length_a 13.0196(7)
_cell_length_b 13.1488(6)
_cell_length_c 14.0444(8)
_cell_angle_alpha 90
_cell_angle_beta 103.955(2)
_cell_angle_gamma 90
_cell_formula_units_Z 2
loop_
_atom_type_symbol
_atom_type_radius_bond
C 0.68
H 0.23
Cl 0.99
N 0.68
O 0.68
Sm 1.98
loop_
_atom_site_label
_atom_site_type_symbol
_atom_site_fract_x
_atom_site_fract_y
_atom_site_fract_z
Sm1 Sm 0.408873(19) 0.446752(17) 0.088168(16)
O1 O 0.8495(3) 0.1127(3) 0.4233(3)
O2 O 0.4727(4) 0.3877(3) 0.2564(3)
O3 O 0.3585(3) 0.5120(3) 0.2399(3)
O4 O 0.5700(3) 0.4146(3) 0.0404(3)
O5 O 0.4412(4) 0.2512(3) 0.0862(3)
C1 C 0.8826(5) 0.1142(4) 0.3464(4)
C2 C 0.4652(4) 0.4795(4) 0.4003(4)
C3 C 0.3925(5) 0.1770(4) 0.0478(5)
C4 C 0.7138(4) 0.3073(4) 0.1157(4)
C5 C 0.7932(5) 0.2433(4) 0.0997(4)
H1 H 0.81100 0.24420 0.03940
C6 C 0.4291(4) 0.4579(4) 0.2919(4)
O6 O 0.2901(4) 0.1701(4) 0.0235(5)
H2 H 0.26420 0.22300 0.03800
C7 C 0.8455(5) 0.1783(4) 0.1729(4)
H3 H 0.89700 0.13420 0.16120
C8 C 0.5450(5) 0.4217(5) 0.4588(4)
H4 H 0.57530 0.36850 0.43150
C9 C 0.4202(6) 0.5569(5) 0.4421(4)
H5 H 0.36580 0.59520 0.40350
O7 O 0.9620(4) 0.0695(4) 0.3323(3)
O8 O 0.7041(3) 0.4064(3) -0.0269(3)
C10 C 0.7425(5) 0.2423(4) 0.2797(4)
H6 H 0.72540 0.24190 0.34030
C11 C 0.8211(5) 0.1789(4) 0.2641(4)
C12 C 0.6592(4) 0.3793(4) 0.0380(4)
C13 C 0.6882(5) 0.3071(4) 0.2058(4)
H7 H 0.63530 0.34970 0.21700
C14 C 0.4479(5) 0.0840(4) 0.0236(5)
C15 C 0.5562(6) 0.0744(5) 0.0597(6)
H8 H 0.59380 0.12500 0.09970
C16 C 0.3916(6) 0.0096(5) -0.0368(6)
H9 H 0.31890 0.01630 -0.06160
Cl1 Cl 0.19673(10) 0.36139(9) 0.07667(10)
N1 N 0.0418(9) 0.5617(7) 0.1782(11)
C17 C 0.1103(9) 0.4985(11) 0.2336(9)
H10 H 0.18330 0.50760 0.24940
N2 N 0.0625(9) 0.4222(10) 0.2629(8)
C18 C -0.0423(11) 0.4362(12) 0.2268(12)
H11 H -0.09590 0.39370 0.23670
C19 C -0.0554(10) 0.5222(13) 0.1741(11)
H12 H -0.11980 0.54990 0.14060
C20 C 0.0599(17) 0.6578(13) 0.121(2)
H13 H 0.03200 0.64700 0.05080
H14 H 0.02330 0.71540 0.14030
C21 C 0.119(2) 0.3210(19) 0.3192(13)
H15 H 0.19450 0.33090 0.33770
H16 H 0.10300 0.26330 0.27620
H17 H 0.09370 0.30910 0.37690
C22 C 0.168(3) 0.677(10) 0.140(9)
H18 H 0.18050 0.73570 0.10330
H19 H 0.20400 0.61950 0.12190
H20 H 0.19470 0.69070 0.20900
O2B O 0.5273(4) 0.6123(3) 0.7436(3)
O3B O 0.6415(3) 0.4880(3) 0.7601(3)
C2B C 0.5348(4) 0.5205(4) 0.5997(4)
C6B C 0.5709(4) 0.5421(4) 0.7081(4)
C8B C 0.4550(5) 0.5783(5) 0.5412(4)
H4B H 0.42470 0.63150 0.56850
C9B C 0.5798(6) 0.4431(5) 0.5579(4)
H5B H 0.63420 0.40480 0.59650
O5B O 0.5588(4) -0.2512(3) -0.0862(3)
C3B C 0.6075(5) -0.1770(4) -0.0478(5)
O6B O 0.7099(4) -0.1701(4) -0.0235(5)
H2B H 0.73580 -0.22300 -0.03800
C14B C 0.5521(5) -0.0840(4) -0.0236(5)
C15B C 0.4438(6) -0.0744(5) -0.0597(6)
H8B H 0.40620 -0.12500 -0.09970
C16B C 0.6084(6) -0.0096(5) 0.0368(6)
H9B H 0.68110 -0.01630 0.06160
Sm1B Sm 0.591127(19) -0.446752(17) -0.088168(16)
O1B O 0.1505(3) -0.1127(3) -0.4233(3)
O4B O 0.4300(3) -0.4146(3) -0.0404(3)
C1B C 0.1174(5) -0.1142(4) -0.3464(4)
C4B C 0.2862(4) -0.3073(4) -0.1157(4)
C5B C 0.2068(5) -0.2433(4) -0.0997(4)
H1B H 0.18900 -0.24420 -0.03940
C7B C 0.1545(5) -0.1783(4) -0.1729(4)
H3B H 0.10300 -0.13420 -0.16120
O7B O 0.0380(4) -0.0695(4) -0.3323(3)
O8B O 0.2959(3) -0.4064(3) 0.0269(3)
C10B C 0.2575(5) -0.2423(4) -0.2797(4)
H6B H 0.27460 -0.24190 -0.34030
C11B C 0.1789(5) -0.1789(4) -0.2641(4)
C12B C 0.3408(4) -0.3793(4) -0.0380(4)
C13B C 0.3118(5) -0.3071(4) -0.2058(4)
H7B H 0.36470 -0.34970 -0.21700
Cl1B Cl 0.80327(10) -0.36139(9) -0.07667(10)
Sm1* Sm 0.408873(19) -0.553248(17) 0.088168(16)
Sm1A Sm 0.091127(19) -0.053248(17) -0.588168(16)
Sm1A* Sm 1.091127(19) -0.053248(17) 0.411832(16)
Sm1B* Sm 0.591127(19) 0.553248(17) -0.088168(16)
Sm1B** Sm 0.591127(19) 0.553248(17) 0.911832(16)
Sm1C Sm -0.091127(19) 0.053248(17) -0.411832(16)
Sm1C* Sm 0.908873(19) 0.053248(17) 0.588168(16)
O1A O 0.6505(3) -0.3873(3) 0.0767(3)
O1C O 0.3495(3) 0.3873(3) -0.0767(3)
O2B* O 0.5273(4) -0.3877(3) -0.2564(3)
O3B* O 0.6415(3) -0.5120(3) -0.2399(3)
O4* O 0.5700(3) -0.5854(3) 0.0404(3)
O4B* O 0.4300(3) 0.5854(3) -0.0404(3)
O7A O 0.5380(4) 0.5695(4) 0.1677(3)
O7C O 0.4620(4) -0.5695(4) -0.1677(3)
O8* O 0.7041(3) -0.5936(3) -0.0269(3)
O8B* O 0.2959(3) 0.5936(3) 0.0269(3)
#END
