
#######################################################################
#
#                 Cambridge Crystallographic Data Centre
#                                CCDC
#
#######################################################################
#
# If this CIF has been generated from an entry in the Cambridge
# Structural Database, then it will include bibliographic, chemical,
# crystal, experimental, refinement or atomic coordinate data resulting
# from the CCDC's data processing and validation procedures.
#
#######################################################################

data_CSD_CIF_YIXFUI
_audit_creation_date 2014-03-31
_audit_creation_method CSD-ConQuest-V1
_database_code_CSD YIXFUI
_database_code_depnum_ccdc_archive 'CCDC 967581'
_chemical_formula_sum 'C60 H46 Cl2 N4 O24 Tb4'
_chemical_formula_moiety
;
(C48 H24 Cl2 O24 Tb4 2-)n,2n(C6 H11 N2 1+)
;
_journal_coden_Cambridge 155
_journal_volume 414
_journal_year 2014
_journal_page_first 226
_journal_name_full 'Inorg.Chim.Acta '
loop_
_publ_author_name
"Qing-Yan Liu"
"Hai-Yan Cao"
"Yu-Ling Wang"
"Li-Li Chen"
"Ying Liu"
_chemical_name_systematic
;
catena-[bis(1-ethyl-3-methyl-1H-imidazol-3-ium) 
(\m~4~-terephthalato-O,O,O',O'',O'',O''')-tris(\m~4~-terephthalato-O,O',O'',O'
'')-bis(\m~3~-terephthalato)-bis(\m~2~-chloro)-tetra-terbium]
;
_cell_volume   3152.453
_exptl_crystal_colour 'yellow'
_exptl_crystal_density_diffrn 2.016
_exptl_crystal_description 'block'
_diffrn_ambient_temperature 296
_refine_special_details
;
Disordered imidazolium cations were not modelled and the disordered density 
was taken into account using the SQUEEZE/PLATON procedure.
;
#These two values have been output from a single CSD field.
_refine_ls_R_factor_gt 0.0427
_refine_ls_wR_factor_gt 0.0427
_symmetry_cell_setting monoclinic
_symmetry_space_group_name_H-M 'P 21/c'
_symmetry_Int_Tables_number 14
loop_
_symmetry_equiv_pos_site_id
_symmetry_equiv_pos_as_xyz
1 x,y,z
2 -x,1/2+y,1/2-z
3 -x,-y,-z
4 x,-1/2-y,-1/2+z
_cell_length_a 8.0556(5)
_cell_length_b 21.3294(12)
_cell_length_c 18.3473(11)
_cell_angle_alpha 90
_cell_angle_beta 90.014(3)
_cell_angle_gamma 90
_cell_formula_units_Z 2
loop_
_atom_type_symbol
_atom_type_radius_bond
C 0.68
H 0.23
Cl 0.99
O 0.68
Tb 1.94
loop_
_atom_site_label
_atom_site_type_symbol
_atom_site_fract_x
_atom_site_fract_y
_atom_site_fract_z
Tb1 Tb 0.15774(3) 0.631356(12) 0.277651(15)
Tb2 Tb 0.64551(3) 0.580647(12) 0.250734(14)
Cl1 Cl 0.4428(2) 0.60181(11) 0.36815(9)
O1 O 0.9779(7) 0.7069(2) 0.2378(3)
O2 O 0.7114(7) 0.6849(2) 0.2553(5)
O3 O 0.8002(7) 1.0227(2) 0.2278(4)
O4 O 0.5471(6) 1.0047(2) 0.2710(3)
O5 O 0.2842(7) 0.7651(2) -0.1792(3)
O6 O 0.1048(6) 0.8148(2) -0.1103(3)
O7 O 0.5768(8) 0.6094(3) 0.1288(3)
O8 O 0.3814(6) 0.6465(2) 0.1987(3)
O9 O 0.0607(10) 0.5936(3) 0.1624(3)
O10 O -0.1618(7) 0.5342(3) 0.1799(3)
O11 O 0.9064(6) 0.5865(2) 0.3293(2)
O12 O 0.7493(6) 0.5023(2) 0.3338(3)
C1 C 0.7945(9) 0.7916(3) 0.2563(5)
C2 C 0.9240(9) 0.8339(3) 0.2478(6)
H1 H 1.03200 0.81950 0.24160
C3 C 0.8917(10) 0.8978(3) 0.2486(6)
H2 H 0.97790 0.92660 0.24440
C4 C 0.7269(9) 0.9182(3) 0.2558(5)
C5 C 0.5974(9) 0.8760(3) 0.2649(5)
H3 H 0.48910 0.89000 0.27140
C6 C 0.6329(9) 0.8120(3) 0.2640(5)
H4 H 0.54730 0.78300 0.26860
C7 C 0.8333(9) 0.7224(3) 0.2499(4)
C8 C 0.6890(9) 0.9881(3) 0.2511(5)
C9 C 0.2682(8) 0.7371(3) -0.0527(3)
C10 C 0.3679(10) 0.6844(4) -0.0593(4)
H5 H 0.39840 0.67020 -0.10530
C11 C 0.4223(10) 0.6528(4) 0.0024(4)
H6 H 0.48970 0.61760 -0.00250
C12 C 0.3767(9) 0.6733(3) 0.0716(4)
C13 C 0.2735(10) 0.7256(4) 0.0787(4)
H7 H 0.23920 0.73900 0.12450
C14 C 0.2228(10) 0.7571(4) 0.0163(4)
H8 H 0.15670 0.79260 0.02100
C15 C 0.2165(8) 0.7737(3) -0.1194(4)
C16 C 0.4475(9) 0.6403(3) 0.1369(3)
C17 C -0.1492(11) 0.4956(5) 0.0358(5)
H9 H -0.25060 0.49220 0.05970
C18 C -0.0208(10) 0.5239(4) 0.0699(4)
C19 C 0.1335(11) 0.5283(5) 0.0335(5)
H10 H 0.22370 0.54730 0.05620
C20 C -0.0415(10) 0.5534(4) 0.1435(4)
C21 C 1.0428(11) 0.5572(4) 0.4685(4)
H11 H 1.07120 0.59560 0.44790
C22 C 0.9401(8) 0.5163(3) 0.4315(3)
C23 C 0.8962(10) 0.4595(4) 0.4627(4)
H12 H 0.82590 0.43230 0.43790
C24 C 0.8625(8) 0.5346(3) 0.3607(3)
O9B O -0.0607(10) 0.4064(3) -0.1624(3)
O10B O 0.1618(7) 0.4658(3) -0.1799(3)
C17B C 0.1492(11) 0.5044(5) -0.0358(5)
H9B H 0.25060 0.50780 -0.05970
C18B C 0.0208(10) 0.4761(4) -0.0699(4)
C19B C -0.1335(11) 0.4717(5) -0.0335(5)
H10B H -0.22370 0.45270 -0.05620
C20B C 0.0415(10) 0.4466(4) -0.1435(4)
O11B O 1.0936(6) 0.4135(2) 0.6707(2)
O12B O 1.2507(6) 0.4977(2) 0.6662(3)
C21B C 0.9572(11) 0.4428(4) 0.5315(4)
H11B H 0.92880 0.40440 0.55210
C22B C 1.0599(8) 0.4837(3) 0.5685(3)
C23B C 1.1038(10) 0.5405(4) 0.5373(4)
H12B H 1.17410 0.56770 0.56210
C24B C 1.1375(8) 0.4654(3) 0.6393(3)
Tb1B Tb -0.15774(3) 0.368644(12) -0.277651(15)
Tb2B Tb -0.64551(3) 0.419353(12) -0.250734(14)
Cl1B Cl -0.4428(2) 0.39819(11) -0.36815(9)
O1B O -0.9779(7) 0.2931(2) -0.2378(3)
O2B O -0.7114(7) 0.3151(2) -0.2553(5)
O3B O -0.8002(7) -0.0227(2) -0.2278(4)
O4B O -0.5471(6) -0.0047(2) -0.2710(3)
O5B O -0.2842(7) 0.2349(2) 0.1792(3)
O6B O -0.1048(6) 0.1852(2) 0.1103(3)
O7B O -0.5768(8) 0.3906(3) -0.1288(3)
O8B O -0.3814(6) 0.3535(2) -0.1987(3)
C1B C -0.7945(9) 0.2084(3) -0.2563(5)
C2B C -0.9240(9) 0.1661(3) -0.2478(6)
H1B H -1.03200 0.18050 -0.24160
C3B C -0.8917(10) 0.1022(3) -0.2486(6)
H2B H -0.97790 0.07340 -0.24440
C4B C -0.7269(9) 0.0818(3) -0.2558(5)
C5B C -0.5974(9) 0.1240(3) -0.2649(5)
H3B H -0.48910 0.11000 -0.27140
C6B C -0.6329(9) 0.1880(3) -0.2640(5)
H4B H -0.54730 0.21700 -0.26860
C7B C -0.8333(9) 0.2776(3) -0.2499(4)
C8B C -0.6890(9) 0.0119(3) -0.2511(5)
C9B C -0.2682(8) 0.2629(3) 0.0527(3)
C10B C -0.3679(10) 0.3156(4) 0.0593(4)
H5B H -0.39840 0.32980 0.10530
C11B C -0.4223(10) 0.3472(4) -0.0024(4)
H6B H -0.48970 0.38240 0.00250
C12B C -0.3767(9) 0.3267(3) -0.0716(4)
C13B C -0.2735(10) 0.2744(4) -0.0787(4)
H7B H -0.23920 0.26100 -0.12450
C14B C -0.2228(10) 0.2429(4) -0.0163(4)
H8B H -0.15670 0.20740 -0.02100
C15B C -0.2165(8) 0.2263(3) 0.1194(4)
C16B C -0.4475(9) 0.3597(3) -0.1369(3)
Tb1* Tb 1.15774(3) 0.631356(12) 0.277651(15)
Tb1A Tb -0.15774(3) 0.131356(12) 0.222349(15)
Tb1A* Tb 0.84226(3) 1.131356(12) 0.222349(15)
Tb1B* Tb -1.15774(3) 0.368644(12) -0.277651(15)
Tb1B** Tb 0.84226(3) 0.368644(12) 0.722349(15)
Tb1C Tb -0.84226(3) -0.131356(12) -0.222349(15)
Tb1C* Tb 0.15774(3) 0.868644(12) -0.222349(15)
Tb2* Tb -0.35449(3) 0.580647(12) 0.250734(14)
Tb2A Tb 0.35449(3) 1.080647(12) 0.249266(14)
Tb2B* Tb 0.35449(3) 0.419353(12) -0.250734(14)
Tb2B** Tb 1.35449(3) 0.419353(12) 0.749266(14)
Tb2C Tb -0.35449(3) -0.080647(12) -0.249266(14)
O1* O -0.0221(7) 0.7069(2) 0.2378(3)
O1B* O 0.0221(7) 0.2931(2) -0.2378(3)
O3A O 0.1998(7) 0.5227(2) 0.2722(4)
O3C O -0.1998(7) 0.4773(2) -0.2722(4)
O4A O 0.4529(6) 0.5047(2) 0.2290(3)
O4C O -0.4529(6) 0.4953(2) -0.2290(3)
O5A O -0.2842(7) 0.2651(2) -0.3208(3)
O5C O 0.2842(7) 0.7349(2) 0.3208(3)
O6A O -0.1048(6) 0.3148(2) -0.3897(3)
O6C O 0.1048(6) 0.6852(2) 0.3897(3)
O10* O 0.8382(7) 0.5342(3) 0.1799(3)
O10B* O -0.8382(7) 0.4658(3) -0.1799(3)
O11* O -0.0936(6) 0.5865(2) 0.3293(2)
O11B* O -0.9064(6) 0.4135(2) -0.3293(2)
O11B** O 0.0936(6) 0.4135(2) -0.3293(2)
O12B* O -0.7493(6) 0.4977(2) -0.3338(3)
#END
