
#######################################################################
#
#                 Cambridge Crystallographic Data Centre
#                                CCDC
#
#######################################################################
#
# If this CIF has been generated from an entry in the Cambridge
# Structural Database, then it will include bibliographic, chemical,
# crystal, experimental, refinement or atomic coordinate data resulting
# from the CCDC's data processing and validation procedures.
#
#######################################################################

data_CSD_CIF_YIXFOC
_audit_creation_date 2014-03-31
_audit_creation_method CSD-ConQuest-V1
_database_code_CSD YIXFOC
_database_code_depnum_ccdc_archive 'CCDC 967580'
_chemical_formula_sum 'C60 H46 Cl2 Eu4 N4 O24'
_chemical_formula_moiety
;
(C48 H24 Cl2 Eu4 O24 2-)n,2n(C6 H11 N2 1+)
;
_journal_coden_Cambridge 155
_journal_volume 414
_journal_year 2014
_journal_page_first 226
_journal_name_full 'Inorg.Chim.Acta '
loop_
_publ_author_name
"Qing-Yan Liu"
"Hai-Yan Cao"
"Yu-Ling Wang"
"Li-Li Chen"
"Ying Liu"
_chemical_name_systematic
;
catena-[bis(1-ethyl-3-methyl-1H-imidazol-3-ium) 
(\m~4~-terephthalato-O,O,O',O'',O'',O''')-tris(\m~4~-terephthalato-O,O',O'',O'
'')-bis(\m~3~-terephthalato)-bis(\m~2~-chloro)-tetra-europium]
;
_cell_volume   3170.342
_exptl_crystal_colour 'brown'
_exptl_crystal_density_diffrn 1.975
_exptl_crystal_description 'block'
_diffrn_ambient_temperature 296
_refine_special_details
;
Disordered imidazolium cations were not modelled and the disordered density 
was taken into account using the SQUEEZE/PLATON procedure.
;
#These two values have been output from a single CSD field.
_refine_ls_R_factor_gt 0.0388
_refine_ls_wR_factor_gt 0.0388
_symmetry_cell_setting monoclinic
_symmetry_space_group_name_H-M 'P 21/c'
_symmetry_Int_Tables_number 14
loop_
_symmetry_equiv_pos_site_id
_symmetry_equiv_pos_as_xyz
1 x,y,z
2 -x,1/2+y,1/2-z
3 -x,-y,-z
4 x,-1/2-y,-1/2+z
_cell_length_a 8.0556(3)
_cell_length_b 21.4095(6)
_cell_length_c 18.3825(6)
_cell_angle_alpha 90
_cell_angle_beta 90.208(2)
_cell_angle_gamma 90
_cell_formula_units_Z 2
loop_
_atom_type_symbol
_atom_type_radius_bond
C 0.68
H 0.23
Cl 0.99
Eu 1.98
O 0.68
loop_
_atom_site_label
_atom_site_type_symbol
_atom_site_fract_x
_atom_site_fract_y
_atom_site_fract_z
Eu1 Eu 0.15201(3) 0.631619(12) 0.275405(15)
Eu2 Eu 0.64434(3) 0.581158(12) 0.250316(14)
Cl1 Cl 0.4330(2) 0.59927(10) 0.36704(9)
O1 O 0.0322(7) 0.2075(2) 0.2643(3)
O2 O 0.2940(8) 0.1867(2) 0.2369(4)
O3 O 0.1936(7) 0.5225(2) 0.2656(5)
O4 O 0.4500(6) 0.5061(2) 0.2248(3)
O5 O 0.2774(6) 0.7650(2) -0.1800(3)
O6 O 0.0968(6) 0.8142(2) -0.1117(3)
O7 O 0.5805(7) 0.6144(3) 0.1279(3)
O8 O 0.3793(6) 0.6473(2) 0.1964(2)
O9 O 0.0453(13) 0.5950(3) 0.1613(3)
O10 O -0.1665(8) 0.5312(4) 0.1787(3)
O11 O 0.9035(6) 0.5848(2) 0.3292(2)
O12 O 0.7457(6) 0.5013(2) 0.3348(3)
C1 C 0.2085(9) 0.2930(3) 0.2401(4)
C2 C 0.0777(9) 0.3337(3) 0.2461(5)
H1 H -0.03020 0.31880 0.25100
C3 C 0.1097(9) 0.3980(3) 0.2446(6)
H2 H 0.02270 0.42640 0.24770
C4 C 0.2720(9) 0.4192(3) 0.2387(5)
C5 C 0.4033(9) 0.3769(3) 0.2318(5)
H3 H 0.51150 0.39130 0.22630
C6 C 0.3709(9) 0.3130(3) 0.2331(4)
H4 H 0.45700 0.28430 0.22930
C7 C 0.1735(9) 0.2237(3) 0.2474(4)
C8 C 0.3073(8) 0.4884(3) 0.2437(4)
C9 C 0.2663(8) 0.7379(3) -0.0538(3)
C10 C 0.3631(9) 0.6854(3) -0.0602(3)
H5 H 0.39050 0.67060 -0.10610
C11 C 0.4205(9) 0.6542(3) 0.0011(4)
H6 H 0.48680 0.61890 -0.00400
C12 C 0.3788(8) 0.6758(3) 0.0702(3)
C13 C 0.2772(10) 0.7285(3) 0.0775(4)
H7 H 0.24620 0.74260 0.12330
C14 C 0.2239(10) 0.7593(4) 0.0154(4)
H8 H 0.15860 0.79490 0.01990
C15 C 0.2111(8) 0.7741(3) -0.1201(3)
C16 C 0.4510(8) 0.6435(3) 0.1354(3)
C17 C -0.1462(11) 0.4912(6) 0.0358(5)
H9 H -0.24540 0.48430 0.06030
C18 C -0.0246(9) 0.5238(3) 0.0692(4)
C19 C 0.1271(13) 0.5323(6) 0.0337(5)
H10 H 0.21380 0.55330 0.05660
C20 C -0.0529(12) 0.5519(4) 0.1425(4)
C21 C 1.0408(10) 0.5573(3) 0.4687(4)
H11 H 1.06770 0.59590 0.44860
C22 C 0.9382(8) 0.5161(3) 0.4313(3)
C23 C 0.8967(10) 0.4598(4) 0.4629(4)
H12 H 0.82590 0.43270 0.43830
C24 C 0.8597(7) 0.5337(3) 0.3612(3)
O9B O -0.0453(13) 0.4050(3) -0.1613(3)
O10B O 0.1665(8) 0.4688(4) -0.1787(3)
C17B C 0.1462(11) 0.5088(6) -0.0358(5)
H9B H 0.24540 0.51570 -0.06030
C18B C 0.0246(9) 0.4762(3) -0.0692(4)
C19B C -0.1271(13) 0.4677(6) -0.0337(5)
H10B H -0.21380 0.44670 -0.05660
C20B C 0.0529(12) 0.4481(4) -0.1425(4)
O11B O 1.0965(6) 0.4152(2) 0.6708(2)
O12B O 1.2543(6) 0.4987(2) 0.6652(3)
C21B C 0.9592(10) 0.4427(3) 0.5313(4)
H11B H 0.93230 0.40410 0.55140
C22B C 1.0618(8) 0.4839(3) 0.5687(3)
C23B C 1.1033(10) 0.5402(4) 0.5371(4)
H12B H 1.17410 0.56730 0.56170
C24B C 1.1403(7) 0.4663(3) 0.6388(3)
Eu1B Eu -0.15201(3) 0.368381(12) -0.275405(15)
Eu2B Eu -0.64434(3) 0.418842(12) -0.250316(14)
Cl1B Cl -0.4330(2) 0.40073(10) -0.36704(9)
O1B O -0.0322(7) 0.7925(2) -0.2643(3)
O2B O -0.2940(8) 0.8133(2) -0.2369(4)
O3B O -0.1936(7) 0.4775(2) -0.2656(5)
O4B O -0.4500(6) 0.4939(2) -0.2248(3)
O5B O -0.2774(6) 0.2350(2) 0.1800(3)
O6B O -0.0968(6) 0.1858(2) 0.1117(3)
O7B O -0.5805(7) 0.3856(3) -0.1279(3)
O8B O -0.3793(6) 0.3527(2) -0.1964(2)
C1B C -0.2085(9) 0.7070(3) -0.2401(4)
C2B C -0.0777(9) 0.6663(3) -0.2461(5)
H1B H 0.03020 0.68120 -0.25100
C3B C -0.1097(9) 0.6020(3) -0.2446(6)
H2B H -0.02270 0.57360 -0.24770
C4B C -0.2720(9) 0.5808(3) -0.2387(5)
C5B C -0.4033(9) 0.6231(3) -0.2318(5)
H3B H -0.51150 0.60870 -0.22630
C6B C -0.3709(9) 0.6870(3) -0.2331(4)
H4B H -0.45700 0.71570 -0.22930
C7B C -0.1735(9) 0.7763(3) -0.2474(4)
C8B C -0.3073(8) 0.5116(3) -0.2437(4)
C9B C -0.2663(8) 0.2621(3) 0.0538(3)
C10B C -0.3631(9) 0.3146(3) 0.0602(3)
H5B H -0.39050 0.32940 0.10610
C11B C -0.4205(9) 0.3458(3) -0.0011(4)
H6B H -0.48680 0.38110 0.00400
C12B C -0.3788(8) 0.3242(3) -0.0702(3)
C13B C -0.2772(10) 0.2715(3) -0.0775(4)
H7B H -0.24620 0.25740 -0.12330
C14B C -0.2239(10) 0.2407(4) -0.0154(4)
H8B H -0.15860 0.20510 -0.01990
C15B C -0.2111(8) 0.2259(3) 0.1201(3)
C16B C -0.4510(8) 0.3565(3) -0.1354(3)
Eu1* Eu 1.15201(3) 0.631619(12) 0.275405(15)
Eu1A Eu -0.15201(3) 0.131619(12) 0.224595(15)
Eu1B* Eu 0.84799(3) 0.368381(12) 0.724595(15)
Eu1C Eu 0.15201(3) 0.868381(12) -0.224595(15)
Eu2* Eu -0.35566(3) 0.581158(12) 0.250316(14)
Eu2A Eu 0.35566(3) 0.081158(12) 0.249684(14)
Eu2B* Eu 0.35566(3) 0.418842(12) -0.250316(14)
Eu2B** Eu 1.35566(3) 0.418842(12) 0.749684(14)
Eu2C Eu -0.35566(3) 0.918842(12) -0.249684(14)
O1A O -0.0322(7) 0.7075(2) 0.2357(3)
O1C O 0.0322(7) 0.2925(2) -0.2357(3)
O2A O 0.7060(8) 0.6867(2) 0.2631(4)
O2C O -0.7060(8) 0.3133(2) -0.2631(4)
O5A O -0.2774(6) 0.2650(2) -0.3200(3)
O5C O 0.2774(6) 0.7350(2) 0.3200(3)
O6A O -0.0968(6) 0.3142(2) -0.3883(3)
O6C O 0.0968(6) 0.6858(2) 0.3883(3)
O10* O 0.8335(8) 0.5312(4) 0.1787(3)
O10B* O -0.8335(8) 0.4688(4) -0.1787(3)
O11* O -0.0965(6) 0.5848(2) 0.3292(2)
O11B* O -0.9035(6) 0.4152(2) -0.3292(2)
O11B** O 0.0965(6) 0.4152(2) -0.3292(2)
O12B* O -0.7457(6) 0.4987(2) -0.3348(3)
#END
