
#######################################################################
#
#                 Cambridge Crystallographic Data Centre
#                                CCDC
#
#######################################################################
#
# If this CIF has been generated from an entry in the Cambridge
# Structural Database, then it will include bibliographic, chemical,
# crystal, experimental, refinement or atomic coordinate data resulting
# from the CCDC's data processing and validation procedures.
#
#######################################################################

data_CSD_CIF_YIXYIP
_audit_creation_date 2014-04-01
_audit_creation_method CSD-ConQuest-V1
_database_code_CSD YIXYIP
_database_code_depnum_ccdc_archive 'CCDC 978689'
_chemical_formula_sum 'C15 H19 Co1.5 N6 O8'
_chemical_formula_moiety
;
(C15 H11 Co1 N6 O4 1-)n,0.5n(H12 Co1 O6 2+),n(H2 O1)
;
_journal_coden_Cambridge 1350
_journal_volume 16
_journal_year 2014
_journal_page_first 4816
_journal_name_full 'CrystEngComm '
loop_
_publ_author_name
"B.K.Tripuramallu"
"P.Manna"
"S.K.Das"
_chemical_name_systematic
;
catena-[(\m~2~-5-(pyrazin-2-yl)-tetrazolato)-(\m~2~-2,2'-benzene-1,4-diyldiace
tato)-cobalt hemikis(hexa-aqua-cobalt(ii)) monohydrate]
;
_cell_volume    967.324
_exptl_crystal_colour 'red'
_exptl_crystal_density_diffrn 1.716
_exptl_crystal_description 'Block'
_diffrn_ambient_temperature 298
#These two values have been output from a single CSD field.
_refine_ls_R_factor_gt 0.0322
_refine_ls_wR_factor_gt 0.0322
_symmetry_cell_setting triclinic
_symmetry_space_group_name_H-M 'P -1'
_symmetry_Int_Tables_number 2
loop_
_symmetry_equiv_pos_site_id
_symmetry_equiv_pos_as_xyz
1 x,y,z
2 -x,-y,-z
_cell_length_a 9.3717(8)
_cell_length_b 10.1843(9)
_cell_length_c 11.7377(11)
_cell_angle_alpha 112.956(1)
_cell_angle_beta 108.358(1)
_cell_angle_gamma 90.696(1)
_cell_formula_units_Z 2
loop_
_atom_type_symbol
_atom_type_radius_bond
C 0.68
H 0.23
Co 1.26
N 0.68
O 0.68
loop_
_atom_site_label
_atom_site_type_symbol
_atom_site_fract_x
_atom_site_fract_y
_atom_site_fract_z
Co1 Co 0.83127(3) 0.32521(3) 0.36168(3)
O1 O 0.65533(19) 0.44365(19) 0.33507(18)
O2 O 0.5683(2) 0.2514(2) 0.3432(2)
O3 O 0.16357(19) -0.11447(17) -0.32535(17)
O4 O -0.0759(2) -0.15824(19) -0.34927(18)
N1 N 0.7785(2) 0.2594(2) 0.14742(18)
N2 N 0.9813(2) 0.47294(18) 0.35245(17)
N3 N 1.0892(2) 0.58818(19) 0.43279(17)
N4 N 1.1296(2) 0.6446(2) 0.36195(18)
N5 N 1.0494(2) 0.5685(2) 0.23375(18)
N6 N 0.7016(3) 0.2327(3) -0.1094(2)
C1 C 0.6741(3) 0.1522(3) 0.0471(2)
H1 H 0.62620 0.08460 0.06370
C2 C 0.6358(3) 0.1396(3) -0.0804(2)
H2 H 0.56200 0.06400 -0.14790
C3 C 0.8459(3) 0.3512(2) 0.1180(2)
C4 C 0.9602(2) 0.4649(2) 0.2320(2)
C5 C 0.5463(3) 0.3642(3) 0.3282(2)
C6 C 0.3883(3) 0.4044(3) 0.2939(2)
H3 H 0.39550 0.50710 0.31580
H4 H 0.33520 0.38330 0.34500
C7 C 0.3001(3) 0.3201(2) 0.1479(2)
C8 C 0.3365(3) 0.3478(3) 0.0537(3)
H5 H 0.41810 0.41880 0.08020
C9 C 0.1784(3) 0.2136(3) 0.1043(3)
H6 H 0.15130 0.19160 0.16520
C10 C 0.0965(3) 0.1392(3) -0.0289(3)
H7 H 0.01500 0.06800 -0.05560
C11 C 0.0397(3) -0.0722(2) -0.3179(2)
C12 C 0.0356(3) 0.0882(2) -0.2676(2)
H8 H -0.06870 0.10500 -0.27980
H9 H 0.07240 0.12650 -0.31880
C13 C 0.1322(3) 0.1676(2) -0.1228(2)
C14 C 0.2546(3) 0.2724(3) -0.0796(3)
H10 H 0.28270 0.29300 -0.14080
C15 C 0.8089(3) 0.3377(3) -0.0106(2)
H11 H 0.85960 0.40270 -0.02790
Co2 Co 0.50000 0.00000 0.50000
O5 O 0.63061(19) -0.08442(18) 0.62715(16)
H12 H 0.58940 -0.13610 0.64190
H13 H 0.70640 -0.10630 0.63690
O6 O 0.6449(2) -0.03857(19) 0.39020(19)
H14 H 0.68890 0.00900 0.37130
H15 H 0.68180 -0.11530 0.37360
O7 O 0.61434(19) 0.20380(17) 0.62945(15)
H16 H 0.68180 0.23610 0.61600
H17 H 0.65310 0.21040 0.72000
O8 O 0.2391(2) 0.28304(19) 0.62468(19)
H18 H 0.29200 0.36620 0.64570
H19 H 0.18410 0.26940 0.55080
Co1A Co 0.16873(3) -0.32521(3) -0.36168(3)
Co1A* Co 1.16873(3) 0.67479(3) 0.63832(3)
O3A O 0.83643(19) 0.11447(17) 0.32535(17)
N3A N 0.9108(2) 0.41182(19) 0.56721(17)
O5A O 0.36939(19) 0.08442(18) 0.37285(16)
H12A H 0.41060 0.13610 0.35810
H13A H 0.29360 0.10630 0.36310
O6A O 0.3551(2) 0.03857(19) 0.60980(19)
H14A H 0.31110 -0.00900 0.62870
H15A H 0.31820 0.11530 0.62640
O7A O 0.38566(19) -0.20380(17) 0.37055(15)
H16A H 0.31820 -0.23610 0.38400
H17A H 0.34690 -0.21040 0.28000
#END
