
#######################################################################
#
#                 Cambridge Crystallographic Data Centre
#                                CCDC
#
#######################################################################
#
# If this CIF has been generated from an entry in the Cambridge
# Structural Database, then it will include bibliographic, chemical,
# crystal, experimental, refinement or atomic coordinate data resulting
# from the CCDC's data processing and validation procedures.
#
#######################################################################

data_CSD_CIF_YIZYEO
_audit_creation_date 2019-03-19
_audit_creation_method CSD-ConQuest-V1
_database_code_CSD YIZYEO
_database_code_depnum_ccdc_archive 'CCDC 1889606'
_chemical_formula_sum 'C20 H24 Co2 N6 O11'
_chemical_formula_moiety
;
(C18 H10 Co2 N5 O8 1-)n,C2 H8 N1 1+,3(H2 O1)
;
_journal_coden_Cambridge 222
_journal_volume 48
_journal_year 2019
_journal_page_first 7100
_journal_name_full 'Dalton Trans. '
loop_
_publ_author_name
"Jiaxing Zhu"
"Junye Chen"
"Tianze Qiu"
"Mingli Deng"
"Qingshu Zheng"
"Zhenxia Chen"
"Yun Ling"
"Yaming Zhou"
_chemical_name_systematic
;
catena-[dimethylammonium 
(\m-3,5-diamino-1,2,4-triazolyl)-(\m-[1,1'-biphenyl]-3,3',5,5'-tetracarboxylat
o)-di-cobalt trihydrate]
;
_chemical_name_common
;
MAC-6-Co2
;
_cell_volume   3481.135
_exptl_crystal_colour 'blue'
_exptl_crystal_density_diffrn 1.226
_exptl_crystal_description 'block'
_diffrn_ambient_temperature 296
_refine_special_details
;
The SQUEEZE/PLATON program has been used to model some disordered cation and 
solvent molecules.
;
#These two values have been output from a single CSD field.
_refine_ls_R_factor_gt 0.0289
_refine_ls_wR_factor_gt 0.0289
_symmetry_cell_setting monoclinic
_symmetry_space_group_name_H-M 'C 2/m'
_symmetry_Int_Tables_number 12
loop_
_symmetry_equiv_pos_site_id
_symmetry_equiv_pos_as_xyz
1 x,y,z
2 -x,y,-z
3 1/2+x,1/2+y,z
4 1/2-x,1/2+y,-z
5 -x,-y,-z
6 x,-y,z
7 -1/2-x,-1/2-y,-z
8 -1/2+x,-1/2-y,z
_cell_length_a 16.9139(17)
_cell_length_b 20.364(2)
_cell_length_c 12.255(2)
_cell_angle_alpha 90
_cell_angle_beta 124.441(1)
_cell_angle_gamma 90
_cell_formula_units_Z 4
loop_
_atom_type_symbol
_atom_type_radius_bond
C 0.68
H 0.23
Co 1.26
N 0.68
O 0.68
loop_
_atom_site_label
_atom_site_type_symbol
_atom_site_fract_x
_atom_site_fract_y
_atom_site_fract_z
Co1 Co 0.08957(3) 0.00000 0.12867(4)
Co2 Co 0.50000 0.08783(2) 0.50000
C1 C 0.03839(16) 0.09673(11) -0.1002(2)
C2 C 0.07183(15) 0.15910(11) -0.1267(2)
C3 C 0.16480(16) 0.18020(11) -0.0330(2)
H1 H 0.20433 0.15486 0.04214
C4 C 0.20011(16) 0.23890(11) -0.0496(2)
C5 C 0.13712(17) 0.27554(12) -0.1625(2)
H2 H 0.15828 0.31503 -0.17551
C6 C 0.04383(16) 0.25530(12) -0.2564(2)
C7 C 0.01118(16) 0.19636(12) -0.2390(2)
H3 H -0.05077 0.18196 -0.30198
C8 C -0.01908(17) 0.29900(12) -0.3739(3)
C9 C 0.29138(14) 0.05206(10) 0.3328(2)
N1 N 0.23104(16) 0.00000 0.2780(2)
N2 N 0.38181(11) 0.03458(8) 0.41218(16)
N3 N 0.26101(13) 0.11584(8) 0.30564(19)
H4 H 0.30202 0.14730 0.34130
H5 H 0.20089 0.12452 0.25288
O1 O 0.09517(11) 0.06846(8) 0.00813(16)
O2 O -0.04498(11) 0.07607(8) -0.18752(16)
O3 O 0.01631(13) 0.35618(8) -0.36224(18)
O4 O -0.09725(12) 0.28032(10) -0.46909(19)
C1F C 0.46161(16) 0.40327(11) 0.1002(2)
C2F C 0.42817(15) 0.34090(11) 0.1267(2)
C3F C 0.33520(16) 0.31980(11) 0.0330(2)
H1F H 0.29567 0.34514 -0.04214
C4F C 0.29989(16) 0.26110(11) 0.0496(2)
C5F C 0.36288(17) 0.22446(12) 0.1625(2)
H2F H 0.34172 0.18497 0.17551
C6F C 0.45617(16) 0.24470(12) 0.2564(2)
C7F C 0.48882(16) 0.30364(12) 0.2390(2)
H3F H 0.55077 0.31804 0.30198
C8F C 0.51908(17) 0.20100(12) 0.3739(3)
O1F O 0.40483(11) 0.43154(8) -0.00813(16)
O2F O 0.54498(11) 0.42393(8) 0.18752(16)
O3F O 0.48369(13) 0.14382(8) 0.36224(18)
O4F O 0.59725(12) 0.21968(10) 0.46909(19)
C9E C 0.29138(14) -0.05206(10) 0.3328(2)
N2E N 0.38181(11) -0.03458(8) 0.41218(16)
N3E N 0.26101(13) -0.11584(8) 0.30564(19)
H4E H 0.30202 -0.14730 0.34130
H5E H 0.20089 -0.12452 0.25288
Co1A Co -0.08957(3) 0.00000 -0.12867(4)
Co1B Co 0.58957(3) 0.50000 0.12867(4)
Co1C Co 0.41043(3) 0.50000 -0.12867(4)
Co2D Co 0.50000 -0.08783(2) 0.50000
Co2F Co 0.00000 0.41217(2) -0.50000
N2A N 0.61819(11) 0.03458(8) 0.58782(16)
O1E O 0.09517(11) -0.06846(8) 0.00813(16)
O2A O 0.04498(11) 0.07607(8) 0.18752(16)
O2D O 0.04498(11) -0.07607(8) 0.18752(16)
O3G O 0.51631(13) 0.14382(8) 0.63776(18)
#END
