
#######################################################################
#
#                 Cambridge Crystallographic Data Centre
#                                CCDC
#
#######################################################################
#
# If this CIF has been generated from an entry in the Cambridge
# Structural Database, then it will include bibliographic, chemical,
# crystal, experimental, refinement or atomic coordinate data resulting
# from the CCDC's data processing and validation procedures.
#
#######################################################################

data_CSD_CIF_YIZYUE
_audit_creation_date 2019-03-19
_audit_creation_method CSD-ConQuest-V1
_database_code_CSD YIZYUE
_database_code_depnum_ccdc_archive 'CCDC 1889607'
_chemical_formula_sum 'C40 H42 Co4 N12 O19'
_chemical_formula_moiety
;
(C36 H22 Co4 N10 O17 2-)n,2(C2 H8 N1 1+),2(H2 O1)
;
_journal_coden_Cambridge 222
_journal_volume 48
_journal_year 2019
_journal_page_first 7100
_journal_name_full 'Dalton Trans. '
loop_
_publ_author_name
"Jiaxing Zhu"
"Junye Chen"
"Tianze Qiu"
"Mingli Deng"
"Qingshu Zheng"
"Zhenxia Chen"
"Yun Ling"
"Yaming Zhou"
_chemical_name_systematic
;
catena-[bis(dimethylammonium) 
bis(\m-3,5-diamino-1,2,4-triazolyl)-bis(\m-[1,1'-biphenyl]-3,3',5,5'-tetracarb
oxylato)-aqua-tetra-cobalt dihydrate]
;
_chemical_name_common
;
MAC-6'-Co2
;
_cell_volume   2362.463
_exptl_crystal_colour 'violet'
_exptl_crystal_density_diffrn 1.724
_exptl_crystal_description 'block'
_diffrn_ambient_temperature 293
_diffrn_special_details
;
twin

;
#These two values have been output from a single CSD field.
_refine_ls_R_factor_gt 0.1145
_refine_ls_wR_factor_gt 0.1145
_symmetry_cell_setting monoclinic
_symmetry_space_group_name_H-M 'P c'
_symmetry_Int_Tables_number 7
loop_
_symmetry_equiv_pos_site_id
_symmetry_equiv_pos_as_xyz
1 x,y,z
2 x,-y,1/2+z
_cell_length_a 8.097(3)
_cell_length_b 21.414(9)
_cell_length_c 14.114(6)
_cell_angle_alpha 90
_cell_angle_beta 105.123(5)
_cell_angle_gamma 90
_cell_formula_units_Z 2
loop_
_atom_type_symbol
_atom_type_radius_bond
C 0.68
H 0.23
Co 1.26
N 0.68
O 0.68
loop_
_atom_site_label
_atom_site_type_symbol
_atom_site_fract_x
_atom_site_fract_y
_atom_site_fract_z
C1 C 0.662(3) 0.9487(14) 0.686(2)
C2 C 0.543(4) 0.9975(14) 0.631(2)
C3 C 0.535(3) 1.0570(14) 0.664(2)
H1 H 0.60444 1.06757 0.72534
C4 C 0.428(4) 1.1028(15) 0.611(2)
C5 C 0.413(4) 1.1674(13) 0.644(2)
C6 C 0.331(4) 1.0871(14) 0.517(2)
H2 H 0.25884 1.11659 0.47877
C7 C 0.341(3) 1.0273(13) 0.4799(18)
C8 C 0.441(4) 0.9834(14) 0.5321(19)
H3 H 0.44635 0.94394 0.50556
C9 C 0.238(4) 1.0126(13) 0.3765(18)
C10 C 0.195(3) 1.0571(13) 0.3040(18)
H4 H 0.21766 1.09898 0.31964
C11 C 0.114(4) 1.0399(14) 0.206(2)
C12 C 0.086(4) 1.0922(15) 0.133(2)
C13 C 0.062(3) 0.9785(12) 0.1846(18)
H5 H 0.00550 0.96803 0.12033
C14 C 0.090(3) 0.9337(13) 0.2538(18)
C15 C 0.175(3) 0.9495(14) 0.354(2)
H6 H 0.18962 0.91964 0.40343
C16 C 0.035(3) 0.8689(13) 0.2325(17)
C17 C 0.897(4) 0.5424(14) 0.705(2)
C18 C 1.020(3) 0.4923(12) 0.7608(18)
C19 C 1.031(4) 0.4343(14) 0.717(2)
H7 H 0.96512 0.42502 0.65459
C20 C 1.147(3) 0.3900(13) 0.7732(19)
C21 C 1.156(3) 0.3272(13) 0.7331(19)
C22 C 1.240(3) 0.4055(13) 0.866(2)
H8 H 1.31353 0.37586 0.90278
C23 C 1.228(3) 0.4631(13) 0.9092(19)
C24 C 1.115(3) 0.5052(13) 0.850(2)
H9 H 1.10591 0.54487 0.87496
C25 C 1.319(2) 0.4762(7) 1.0143(8)
C26 C 1.358(2) 0.5378(6) 1.0422(10)
H10 H 1.33214 0.56951 0.99567
C27 C 1.437(2) 0.5520(5) 1.1396(11)
C28 C 1.476(2) 0.5046(7) 1.2092(8)
H11 H 1.52867 0.51414 1.27440
C29 C 1.437(2) 0.4430(6) 1.1813(10)
C30 C 1.358(2) 0.4288(5) 1.0839(11)
H12 H 1.33188 0.38755 1.06525
C31 C 1.483(4) 0.6164(14) 1.172(2)
C32 C 1.465(4) 0.3916(13) 1.2556(18)
C33 C 0.677(3) 0.7828(13) 0.468(2)
C34 C 0.677(4) 0.6842(13) 0.487(2)
C35 C 0.906(3) 0.8107(14) 0.8975(19)
C36 C 0.943(3) 0.7118(13) 0.904(2)
Co1 Co 0.8333(4) 0.83165(19) 0.6777(2)
Co2 Co 0.7503(4) 0.66608(18) 0.7037(2)
Co3 Co 1.0953(4) 0.77106(19) 1.1040(2)
Co4 Co 0.5370(5) 0.72160(19) 0.2640(2)
N1 N 0.734(3) 0.7713(11) 0.5684(18)
N2 N 0.734(3) 0.7060(11) 0.5787(17)
N3 N 0.636(3) 0.7312(11) 0.4180(19)
N4 N 0.661(3) 0.8418(13) 0.4360(17)
H13 H 0.61720 0.84967 0.37478
H14 H 0.69364 0.87196 0.47679
N5 N 0.656(3) 0.6244(11) 0.4683(18)
H15 H 0.67955 0.59787 0.51575
H16 H 0.61897 0.61154 0.40879
N6 N 0.850(3) 0.7893(11) 0.8058(15)
N7 N 0.875(3) 0.7251(12) 0.8081(18)
N8 N 0.967(3) 0.7640(11) 0.9616(16)
N9 N 0.899(3) 0.8709(11) 0.9245(19)
H17 H 0.85721 0.89878 0.88113
H18 H 0.93764 0.88136 0.98512
N10 N 1.000(3) 0.6553(11) 0.9406(18)
H19 H 0.99529 0.62398 0.90185
H20 H 1.04224 0.65064 1.00283
O1 O 0.678(3) 0.8999(11) 0.6352(17)
O2 O 0.737(3) 0.9574(10) 0.7708(14)
O3 O 0.502(3) 1.1834(9) 0.7316(13)
O4 O 0.324(2) 1.2062(10) 0.5886(14)
O5 O 0.082(4) 1.0806(11) 0.0473(14)
O6 O 0.058(2) 1.1475(10) 0.1555(14)
O7 O 0.019(3) 0.8524(9) 0.1437(14)
O8 O 0.017(3) 0.8328(10) 0.2970(14)
O9 O 0.885(3) 0.5912(10) 0.7471(16)
O10 O 0.819(3) 0.5337(9) 0.6152(16)
O11 O 1.047(3) 0.3116(9) 0.6540(16)
O12 O 1.287(2) 0.2916(9) 0.7721(13)
O13 O 1.529(3) 0.3396(10) 1.2348(16)
O14 O 1.430(3) 0.4014(11) 1.3345(15)
O15 O 1.577(3) 0.6258(10) 1.2613(15)
O16 O 1.434(3) 0.6616(9) 1.1186(15)
O17 O 0.7715(18) 0.7368(10) 0.2326(14)
H21 H 0.82154 0.77528 0.21869
H22 H 0.87136 0.71112 0.24695
C37 C 0.324(7) 0.202(2) 0.029(4)
H23 H 0.37133 0.19556 -0.02600
H24 H 0.35239 0.16740 0.07316
H25 H 0.37180 0.23973 0.06265
C38 C 0.070(5) 0.2736(17) -0.021(3)
H26 H 0.08989 0.29421 0.04123
H27 H -0.05028 0.27298 -0.05237
H28 H 0.12887 0.29557 -0.06187
N11 N 0.135(4) 0.2084(13) -0.0061(19)
H29 H 0.08857 0.18997 0.03713
H30 H 0.10000 0.18793 -0.06261
C39 C 0.303(4) 0.247(2) 0.347(3)
H31 H 0.22400 0.22368 0.37269
H32 H 0.37578 0.21906 0.32315
H33 H 0.24093 0.27289 0.29352
C40 C 0.583(4) 0.2645(16) 0.463(2)
H34 H 0.58009 0.22599 0.49720
H35 H 0.65057 0.29453 0.50689
H36 H 0.63220 0.25743 0.40893
N12 N 0.411(4) 0.2880(13) 0.426(2)
H37 H 0.41523 0.32636 0.40267
H38 H 0.36172 0.29052 0.47562
O18 O 0.779(3) 0.9734(12) 0.4448(16)
O19 O 0.753(5) 0.5603(18) 0.975(3)
Co1A Co -0.1667(4) 1.16835(19) 0.1777(2)
Co2A Co 1.7503(4) 0.33392(18) 1.2037(2)
Co3* Co 0.0953(4) 0.77106(19) 0.1040(2)
Co3A Co 0.0953(4) 1.22894(19) 0.6040(2)
Co3A* Co 1.0953(4) 0.22894(19) 0.6040(2)
Co4* Co 1.5370(5) 0.72160(19) 1.2640(2)
Co4A Co 0.5370(5) 1.27840(19) 0.7640(2)
Co4A* Co 1.5370(5) 0.27840(19) 0.7640(2)
O3A O 0.502(3) 0.8166(9) 0.2316(13)
O4A O 1.324(2) 0.7938(10) 1.0886(14)
O6A O 1.058(2) 0.8525(10) 0.6555(14)
O7* O 1.019(3) 0.8524(9) 1.1437(14)
O11A O 1.047(3) 0.6884(9) 1.1540(16)
O12A O 0.287(2) 0.7084(9) 0.2721(13)
O13A O 0.529(3) 0.6604(10) 0.7348(16)
O15* O 0.577(3) 0.6258(10) 0.2613(15)
O16* O 0.434(3) 0.6616(9) 0.1186(15)
#END
