
#######################################################################
#
#                 Cambridge Crystallographic Data Centre
#                                CCDC
#
#######################################################################
#
# If this CIF has been generated from an entry in the Cambridge
# Structural Database, then it will include bibliographic, chemical,
# crystal, experimental, refinement or atomic coordinate data resulting
# from the CCDC's data processing and validation procedures.
#
#######################################################################

data_CSD_CIF_YOCPAJ
_audit_creation_date 2014-04-03
_audit_creation_method CSD-ConQuest-V1
_database_code_CSD YOCPAJ
_database_code_depnum_ccdc_archive 'CCDC 891262'
_chemical_formula_sum 'C30 H59 Cu2 N16 O57.5 Si1 W12'
_chemical_formula_moiety
;
(C15 H16 Cu1 N8 O2 2+)2n,n(O40 Si1 W12 4-),13.5n(H2 O1)
;
_journal_coden_Cambridge 211
_journal_volume 67
_journal_year 2014
_journal_page_first 195
_journal_name_full 'J.Coord.Chem. '
loop_
_publ_author_name
"Wei-Qiu Kan"
"Ji-Ming Xu"
"Yu-He Kan"
"Jiao Guo"
"Shi-Zheng Wen"
_chemical_name_systematic
;
catena-[bis((\m~3~-4,4'-(1-(1H-1,2,4-Triazol-1-ylmethyl)-1H-1,2,4-triazole-3,5
-diyl)dipyridine)-diaqua-copper(ii)) 
(\m~12~-silicato)-tetracosakis(\m~2~-oxo)-dodeca-oxo-dodeca-tungsten hydrate]
;
_cell_volume   7761.047
_exptl_crystal_colour 'blue'
_exptl_crystal_density_diffrn 3.359
_exptl_crystal_description 'block'
_diffrn_ambient_temperature 293
_refine_special_details
;
The solvent water molecules are disordered.

;
#These two values have been output from a single CSD field.
_refine_ls_R_factor_gt 0.0351
_refine_ls_wR_factor_gt 0.0351
_symmetry_cell_setting orthorhombic
_symmetry_space_group_name_H-M 'P n m a'
_symmetry_Int_Tables_number 62
loop_
_symmetry_equiv_pos_site_id
_symmetry_equiv_pos_as_xyz
1 x,y,z
2 1/2-x,-y,1/2+z
3 1/2+x,1/2-y,1/2-z
4 -x,1/2+y,-z
5 -x,-y,-z
6 -1/2+x,y,-1/2-z
7 -1/2-x,-1/2+y,-1/2+z
8 x,-1/2-y,z
_cell_length_a 22.8645(6)
_cell_length_b 23.8954(5)
_cell_length_c 14.2051(3)
_cell_angle_alpha 90
_cell_angle_beta 90
_cell_angle_gamma 90
_cell_formula_units_Z 4
loop_
_atom_type_symbol
_atom_type_radius_bond
C 0.68
H 0.23
Cu 1.32
N 0.68
O 0.68
Si 1.20
W 1.62
loop_
_atom_site_label
_atom_site_type_symbol
_atom_site_fract_x
_atom_site_fract_y
_atom_site_fract_z
Cu1 Cu 0.16230(5) 0.50714(5) 0.30904(6)
C1 C 0.1809(4) 0.5263(4) 0.1043(6)
H1 H 0.20800 0.55320 0.12300
C2 C 0.1767(4) 0.5135(4) 0.0098(5)
H2 H 0.20060 0.53120 -0.03400
C3 C 0.1361(4) 0.4737(4) -0.0190(5)
C4 C 0.1007(5) 0.4503(4) 0.0492(6)
H3 H 0.07160 0.42490 0.03270
C5 C 0.1090(5) 0.4651(4) 0.1415(6)
H4 H 0.08570 0.44810 0.18690
C6 C 0.1294(4) 0.4578(4) -0.1171(5)
C7 C 0.1385(4) 0.4557(4) -0.2646(5)
C8 C 0.1541(4) 0.4682(4) -0.3630(5)
C9 C 0.1535(4) 0.5231(4) -0.3932(6)
H5 H 0.14760 0.55200 -0.35040
C10 C 0.1617(4) 0.5350(4) -0.4878(6)
H6 H 0.16100 0.57200 -0.50770
C11 C 0.1744(4) 0.4421(4) -0.5212(6)
H7 H 0.18270 0.41420 -0.56490
C12 C 0.1670(4) 0.4274(4) -0.4298(6)
H8 H 0.17040 0.39010 -0.41180
C13 C 0.0525(4) 0.3916(3) -0.2955(6)
H9 H 0.03720 0.35980 -0.26080
H10 H 0.07130 0.37760 -0.35200
C14 C -0.0490(4) 0.4322(4) -0.2854(6)
H11 H -0.06330 0.41050 -0.23630
C15 C -0.0392(4) 0.4920(4) -0.3935(6)
H12 H -0.04780 0.52120 -0.43460
N1 N 0.1483(3) 0.5023(3) 0.1696(4)
N2 N 0.1612(3) 0.4797(3) -0.1905(4)
N3 N 0.0883(3) 0.4225(3) -0.1436(4)
N4 N 0.0947(3) 0.4208(3) -0.2385(4)
N5 N 0.1705(3) 0.4946(3) -0.5509(4)
N6 N 0.0045(3) 0.4287(3) -0.3215(4)
N7 N 0.0110(3) 0.4674(3) -0.3912(5)
N8 N -0.0785(3) 0.4714(3) -0.3303(4)
O1 O 0.2350(3) 0.4636(3) 0.2897(4)
H13 H 0.27040 0.46640 0.30290
H14 H 0.22340 0.43130 0.30980
O2 O 0.2029(3) 0.5894(3) 0.3079(5)
H15 H 0.22250 0.60520 0.35120
H16 H 0.19450 0.61450 0.26840
W1 W -0.050194(18) 0.396835(15) 0.19210(3)
W2 W 0.079806(18) 0.319874(16) 0.27611(3)
W3 W -0.05537(2) 0.320427(16) 0.41823(3)
W4 W -0.17271(3) 0.25000 0.34209(4)
W5 W -0.167636(17) 0.172749(15) 0.11685(3)
W6 W -0.043821(18) 0.173015(15) -0.01104(2)
W7 W 0.08650(2) 0.25000 0.07185(4)
Si1 Si -0.04661(14) 0.25000 0.19999(19)
O3 O -0.0397(3) 0.4657(3) 0.2124(5)
O4 O -0.0348(3) 0.3942(2) 0.0595(4)
O5 O -0.1315(3) 0.3941(2) 0.1631(4)
O6 O -0.0678(3) 0.3704(2) 0.3157(4)
O7 O 0.0265(3) 0.3682(2) 0.2150(4)
O8 O 0.1289(3) 0.3671(3) 0.3196(5)
O9 O 0.1161(3) 0.3058(3) 0.1554(4)
O10 O 0.1126(4) 0.25000 0.3185(6)
O11 O 0.0240(3) 0.3162(3) 0.3747(4)
O12 O -0.0493(4) 0.3657(3) 0.5116(5)
O13 O -0.0432(4) 0.25000 0.4810(6)
O14 O -0.1377(3) 0.3059(3) 0.4206(4)
O15 O -0.2417(5) 0.25000 0.3872(8)
O16 O -0.1789(3) 0.1946(3) 0.2452(5)
O17 O -0.1752(4) 0.25000 0.0866(6)
O18 O -0.2351(3) 0.1487(3) 0.0866(6)
O19 O -0.1270(3) 0.1613(2) -0.0005(4)
O20 O -0.0348(3) 0.1496(3) -0.1234(4)
O21 O -0.0596(4) 0.25000 -0.0325(6)
O22 O 0.0325(3) 0.1961(3) 0.0231(4)
O23 O 0.1400(4) 0.25000 -0.0114(7)
O24 O 0.0243(3) 0.25000 0.2044(5)
O25 O -0.0737(4) 0.25000 0.3055(5)
O26 O -0.0697(3) 0.3057(2) 0.1449(4)
O27 O 0.2294(4) 0.3772(3) 0.1588(5)
H17 H 0.19460 0.37130 0.14010
H18 H 0.23160 0.41140 0.17520
O28 O 0.2673(6) 0.6432(5) 0.4491(8)
H19 H 0.25200 0.66010 0.49510
H20 H 0.29870 0.66030 0.43440
O29 O 0.1775(7) 0.6699(6) 0.1809(10)
H21 H 0.16780 0.67070 0.12270
H22 H 0.16880 0.70140 0.20430
O30 O 0.2013(13) 0.75000 0.4011(19)
H23 H 0.22180 0.72040 0.40270
O31 O 0.118(4) 0.25000 0.785(5)
O32 O 0.0024(16) 0.25000 0.691(2)
H24 H -0.00170 0.25000 0.63130
H25 H -0.03160 0.25000 0.71500
O33 O -0.1047(17) 0.25000 0.722(3)
O34 O 0.270(3) 0.75000 0.153(4)
O35 O 0.325(2) 0.685(2) 0.265(3)
O36 O 0.1909(16) 0.25000 0.485(3)
O37? O 0.061(3) 0.25000 0.781(4)
O38? O 0.0854(14) 0.2842(13) 0.559(2)
O39? O 0.174(2) 0.2851(19) 0.509(3)
Cu1* Cu 0.16230(5) 0.50714(5) -0.69096(6)
Cu1D Cu -0.16230(5) 0.49286(5) -0.30904(6)
N5* N 0.1705(3) 0.4946(3) 0.4491(4)
N8D N 0.0785(3) 0.5286(3) 0.3303(4)
O26G O -0.0697(3) 0.1943(2) 0.1449(4)
W1G W -0.050194(18) 0.103165(15) 0.19210(3)
W2G W 0.079806(18) 0.180126(16) 0.27611(3)
W3G W -0.05537(2) 0.179573(16) 0.41823(3)
W5G W -0.167636(17) 0.327251(15) 0.11685(3)
W6G W -0.043821(18) 0.326985(15) -0.01104(2)
O3G O -0.0397(3) 0.0343(3) 0.2124(5)
O4G O -0.0348(3) 0.1058(2) 0.0595(4)
O5G O -0.1315(3) 0.1059(2) 0.1631(4)
O6G O -0.0678(3) 0.1296(2) 0.3157(4)
O7G O 0.0265(3) 0.1318(2) 0.2150(4)
O8G O 0.1289(3) 0.1329(3) 0.3196(5)
O9G O 0.1161(3) 0.1942(3) 0.1554(4)
O11G O 0.0240(3) 0.1838(3) 0.3747(4)
O12G O -0.0493(4) 0.1343(3) 0.5116(5)
O14G O -0.1377(3) 0.1941(3) 0.4206(4)
O16G O -0.1789(3) 0.3054(3) 0.2452(5)
O18G O -0.2351(3) 0.3513(3) 0.0866(6)
O19G O -0.1270(3) 0.3387(2) -0.0005(4)
O20G O -0.0348(3) 0.3504(3) -0.1234(4)
O22G O 0.0325(3) 0.3039(3) 0.0231(4)
H23G H 0.22180 0.77960 0.40270
#END
