
#######################################################################
#
#                 Cambridge Crystallographic Data Centre
#                                CCDC
#
#######################################################################
#
# If this CIF has been generated from an entry in the Cambridge
# Structural Database, then it will include bibliographic, chemical,
# crystal, experimental, refinement or atomic coordinate data resulting
# from the CCDC's data processing and validation procedures.
#
#######################################################################

data_CSD_CIF_YODKAG
_audit_creation_date 2019-03-20
_audit_creation_method CSD-ConQuest-V1
_database_code_CSD YODKAG
_database_code_depnum_ccdc_archive 'CCDC 1863820'
_chemical_formula_sum 'C50 H74 In2 N8 O30'
_chemical_formula_moiety
;
(C34 H14 In2 N2 O18 2-)n,2n(C2 H8 N1 1+),4n(C3 H7 N1 O1),8n(H2 O1)
;
_journal_coden_Cambridge 1350
_journal_volume 21
_journal_year 2019
_journal_page_first 2576
_journal_name_full 'CrystEngComm '
loop_
_publ_author_name
"Huiyan Liu"
"Guimei Gao"
"Jie Liu"
"Fenlin Bao"
"Yuhui Wei"
"Haiying Wang"
_chemical_name_systematic
;
catena-(bis(dimethylammonium) 
bis(\m-5-[(3,5-dicarboxylatophenyl)carbamoyl]benzene-1,3-dicarboxylato)-di-ind
ium dimethylformamide solvate octahydrate)
;
_cell_volume   8649.162
_exptl_crystal_colour 'colorless'
_exptl_crystal_description 'block'
_diffrn_ambient_temperature 294
#These two values have been output from a single CSD field.
_refine_ls_R_factor_gt 0.044
_refine_ls_wR_factor_gt 0.044
_symmetry_cell_setting monoclinic
_symmetry_space_group_name_H-M 'P 21/c'
_symmetry_Int_Tables_number 14
loop_
_symmetry_equiv_pos_site_id
_symmetry_equiv_pos_as_xyz
1 x,y,z
2 -x,1/2+y,1/2-z
3 -x,-y,-z
4 x,-1/2-y,-1/2+z
_cell_length_a 9.957(2)
_cell_length_b 24.444(2)
_cell_length_c 35.537(2)
_cell_angle_alpha 90
_cell_angle_beta 90.337(3)
_cell_angle_gamma 90
_cell_formula_units_Z 4
loop_
_atom_type_symbol
_atom_type_radius_bond
C 0.68
H 0.23
In 1.42
N 0.68
O 0.68
loop_
_atom_site_label
_atom_site_type_symbol
_atom_site_fract_x
_atom_site_fract_y
_atom_site_fract_z
C1 C 1.0366(3) 0.25359(13) 0.36709(8)
C2 C 1.0560(3) 0.24920(12) 0.40579(8)
H1 H 1.07952 0.21574 0.41638
C3 C 1.0399(3) 0.29537(12) 0.42879(6)
C4 C 1.0051(3) 0.34480(12) 0.41212(8)
H2 H 0.99417 0.37569 0.42707
C5 C 0.9863(3) 0.34885(12) 0.37343(8)
C6 C 1.0024(3) 0.30273(12) 0.35138(8)
H3 H 0.98991 0.30519 0.32548
C7 C 0.9480(3) 0.39942(12) 0.35404(8)
C8 C 1.0093(3) 0.50034(13) 0.35536(8)
C9 C 1.0006(3) 0.54101(12) 0.38218(8)
H4 H 1.01017 0.53246 0.40755
C10 C 0.9772(3) 0.59548(12) 0.37103(8)
C11 C 0.9561(3) 0.60671(12) 0.33297(8)
H5 H 0.93062 0.64168 0.32548
C12 C 0.9729(3) 0.56613(13) 0.30638(8)
C13 C 1.0020(3) 0.51314(12) 0.31743(8)
H6 H 1.01664 0.48619 0.29944
C14 C 1.0290(3) 0.20280(11) 0.34373(7)
C15 C 1.0488(3) 0.29446(11) 0.47100(6)
C16 C 0.9587(3) 0.63910(12) 0.39935(8)
C17 C 0.9708(3) 0.57886(12) 0.26458(7)
C18 C 0.6662(3) 0.23532(12) 0.56174(8)
C19 C 0.5405(3) 0.25639(12) 0.55238(8)
H7 H 0.53396 0.29036 0.54072
C20 C 0.4246(3) 0.22686(12) 0.56038(8)
C21 C 0.4346(3) 0.17618(12) 0.57781(8)
H8 H 0.35727 0.15639 0.58322
C22 C 0.5597(3) 0.15501(12) 0.58718(8)
C23 C 0.6748(3) 0.18494(12) 0.57891(8)
H9 H 0.75871 0.17070 0.58507
C24 C 0.5706(3) 0.10307(12) 0.60844(8)
C25 C 0.4547(3) 0.02042(12) 0.64470(8)
C26 C 0.3322(3) -0.00295(12) 0.65455(8)
H10 H 0.25238 0.01556 0.64963
C27 C 0.3295(3) -0.05417(12) 0.67179(8)
C28 C 0.4483(3) -0.08114(12) 0.67971(8)
H11 H 0.44632 -0.11522 0.69133
C29 C 0.5713(3) -0.05740(12) 0.67033(8)
C30 C 0.5741(3) -0.00690(12) 0.65273(8)
H12 H 0.65583 0.00879 0.64625
C31 C 0.7933(3) 0.26280(12) 0.55446(8)
C32 C 0.2888(3) 0.25161(12) 0.55298(8)
C33 C 0.1882(3) -0.07056(12) 0.68165(8)
C34 C 0.7085(3) -0.07777(12) 0.67625(8)
In1 In 1.04207(2) 0.11068(2) 0.30557(2)
In2 In 1.04598(2) 0.29054(2) 0.54390(2)
N1 N 1.0388(3) 0.44414(10) 0.36722(7)
H13 H 1.10676 0.43711 0.38145
N2 N 0.4582(2) 0.07435(10) 0.62648(7)
H14 H 0.38319 0.09178 0.62634
O1 O 1.0329(2) 0.20347(8) 0.30902(6)
O2 O 1.0503(2) 0.15665(8) 0.35941(5)
O3 O 1.0426(2) 0.24867(8) 0.48745(5)
O4 O 1.0540(2) 0.33646(8) 0.49037(5)
O5 O 0.8543(2) 0.40323(9) 0.33149(6)
O6 O 0.9567(2) 0.62532(8) 0.43381(5)
O7 O 0.9626(2) 0.68818(8) 0.39132(5)
O8 O 0.9591(2) 0.62851(8) 0.25468(5)
O9 O 0.9700(2) 0.53992(8) 0.24249(5)
O10 O 0.8515(2) 0.25371(9) 0.52462(6)
O11 O 0.8584(2) 0.29140(9) 0.57818(6)
O12 O 0.2924(2) 0.29658(8) 0.53511(6)
O13 O 0.1907(2) 0.22527(8) 0.56323(5)
O14 O 0.6879(2) 0.08534(9) 0.61344(6)
O15 O 0.1017(2) -0.04115(8) 0.67398(5)
O16 O 0.1573(2) -0.11384(8) 0.69608(5)
O17 O 0.70196(19) -0.12015(8) 0.69636(6)
O18 O 0.8067(2) -0.05619(8) 0.66093(5)
C35 C 0.3523(3) 0.76783(14) 0.68666(9)
H15 H 0.33197 0.75616 0.71178
H16 H 0.30534 0.74506 0.66894
H17 H 0.32460 0.80516 0.68339
C36 C 0.5817(3) 0.76243(13) 0.71526(9)
H18 H 0.52380 0.76168 0.73675
H19 H 0.63707 0.79456 0.71627
H20 H 0.63763 0.73044 0.71533
N3 N 0.4990(3) 0.76339(12) 0.68028(7)
H21 H 0.52509 0.79154 0.66622
H22 H 0.51503 0.73295 0.66731
C37 C 0.3182(3) 0.06697(14) 0.75021(8)
H23 H 0.36762 0.10042 0.74739
H24 H 0.24379 0.07290 0.76678
H25 H 0.28534 0.05524 0.72607
C38 C 0.5515(3) 0.03206(13) 0.75835(8)
H26 H 0.56155 0.04991 0.73447
H27 H 0.59542 -0.00288 0.75770
H28 H 0.59122 0.05422 0.77774
N4 N 0.4074(3) 0.02427(11) 0.76624(7)
H29 H 0.39619 0.02342 0.79106
H30 H 0.38211 -0.00809 0.75716
In1A In 0.95793(2) 0.61068(2) 0.19443(2)
In1B In -0.04207(2) -0.11068(2) 0.69443(2)
In1B* In 0.95793(2) -0.11068(2) 0.69443(2)
In2* In 0.04598(2) 0.29054(2) 0.54390(2)
In2B In 0.95402(2) 0.70946(2) 0.45610(2)
O6B O 1.0433(2) 0.37468(8) 0.56619(5)
O7B O 1.0374(2) 0.31182(8) 0.60868(5)
O8A O 1.0409(2) 0.12851(8) 0.24532(5)
O9A O 1.0300(2) 0.03992(8) 0.25751(5)
O12* O 1.2924(2) 0.29658(8) 0.53511(6)
O13* O 1.1907(2) 0.22527(8) 0.56323(5)
O15B O 0.8983(2) 0.04115(8) 0.32602(5)
O16B O 0.8427(2) 0.11384(8) 0.30392(5)
O17B O 1.29804(19) 0.12015(8) 0.30364(6)
O18B O 1.1933(2) 0.05619(8) 0.33907(5)
#END
