
#######################################################################
#
#                 Cambridge Crystallographic Data Centre
#                                CCDC
#
#######################################################################
#
# If this CIF has been generated from an entry in the Cambridge
# Structural Database, then it will include bibliographic, chemical,
# crystal, experimental, refinement or atomic coordinate data resulting
# from the CCDC's data processing and validation procedures.
#
#######################################################################

data_CSD_CIF_YODTAN
_audit_creation_date 2009-01-29
_audit_creation_method CSD-ConQuest-V1
_database_code_CSD YODTAN
_database_code_depnum_ccdc_archive 'CCDC 685532'
_chemical_formula_sum 'C17 H26 Cr1 Mn1 N1 O12'
_chemical_formula_moiety
;
(C11 H26 N1 1+)n,n(C6 Cr1 Mn1 O12 1-)
;
_journal_coden_Cambridge 771
_journal_volume 7
_journal_year 2008
_journal_page_first 729
_journal_name_full 'Nat.Mater '
loop_
_publ_author_name
"C.Train"
"R.Gheorghe"
"V.Krstic"
"L.-M.Chamoreau"
"N.S.Ovanesyan"
"G.L.J.A.Rikken"
"M.Gruselle"
"M.Verdaguer"
_chemical_name_systematic
;
catena-((R)-s-Butyl(dipropyl)methylammonium 
tris(\m~2~-oxalato)-(\D)-chromium(iii)-(\d)-manganese(ii))
;
_cell_volume   1299.202
_exptl_crystal_colour 'pink'
_exptl_crystal_density_diffrn 1.389
_exptl_special_details
;
magnetic properties

;
_exptl_crystal_description 'hexagonal plate-like'
_diffrn_ambient_temperature 250
_refine_special_details
;
A propyl group, in the cation, is disordered by symmetry.

;
#These two values have been output from a single CSD field.
_refine_ls_R_factor_gt 0.0794
_refine_ls_wR_factor_gt 0.0794
loop_
_citation_database_id_CSD
_citation_special_details
AFULAP "is a stereoisomer of this entry"
_symmetry_cell_setting hexagonal
_symmetry_space_group_name_H-M 'P 63'
_symmetry_Int_Tables_number 173
loop_
_symmetry_equiv_pos_site_id
_symmetry_equiv_pos_as_xyz
1 x,y,z
2 -x,-y,1/2+z
3 -y,x-y,z
4 -x+y,-x,z
5 x-y,x,1/2+z
6 y,-x+y,1/2+z
_cell_length_a 9.441(1)
_cell_length_b 9.441(1)
_cell_length_c 16.831(2)
_cell_angle_alpha 90
_cell_angle_beta 90
_cell_angle_gamma 120
_cell_formula_units_Z 2
loop_
_atom_type_symbol
_atom_type_radius_bond
C 0.68
Cr 1.35
Mn 1.35
N 0.68
O 0.68
loop_
_atom_site_label
_atom_site_type_symbol
_atom_site_fract_x
_atom_site_fract_y
_atom_site_fract_z
Cr1 Cr 0.66670 0.33330 0.12540(16)
Mn1 Mn 0.00000 0.00000 0.12463(13)
O1 O 0.2012(7) 0.0219(6) 0.0571(3)
O2 O 0.2033(7) 0.1819(6) 0.1913(3)
O3 O 0.4796(7) 0.1593(6) 0.0593(3)
O4 O 0.4767(7) 0.3167(6) 0.1906(3)
C1 C 0.3379(8) 0.1240(8) 0.0863(5)
C2 C 0.3357(8) 0.2138(8) 0.1630(4)
N1 N 0.33330 0.66670 0.3019(7)
C3 C 0.320(4) 0.739(4) 0.2271(12)
C4 C 0.33330 0.66670 0.1507(18)
C5 C 0.399(4) 0.750(4) 0.0716(16)
C6 C 0.488(3) 0.719(3) 0.3474(12)
C7 C 0.615(7) 0.685(6) 0.346(4)
C8 C 0.691(6) 0.611(7) 0.387(4)
C9 C 0.521(11) 0.880(9) 0.383(7)
Mn1* Mn 1.00000 0.00000 0.12463(13)
Mn1** Mn 1.00000 1.00000 0.12463(13)
O1B O 0.9781(7) 0.1793(6) 0.0571(3)
O1C O 0.8207(7) 0.7988(6) 0.0571(3)
O1B* O -0.0219(7) 0.1793(6) 0.0571(3)
O1C* O -0.1793(7) -0.2012(6) 0.0571(3)
O2B O 0.8181(7) 0.0214(6) 0.1913(3)
O2C O 0.9786(7) 0.7967(6) 0.1913(3)
O2B* O -0.1819(7) 0.0214(6) 0.1913(3)
O2C* O -0.0214(7) -0.2033(6) 0.1913(3)
O3B O 0.8407(7) 0.3203(6) 0.0593(3)
O3C O 0.6797(7) 0.5204(6) 0.0593(3)
O4B O 0.6833(7) 0.1600(6) 0.1906(3)
O4C O 0.8400(7) 0.5233(6) 0.1906(3)
C1B C 0.8760(8) 0.2139(8) 0.0863(5)
C1C C 0.7861(8) 0.6621(8) 0.0863(5)
C2B C 0.7862(8) 0.1219(8) 0.1630(4)
C2C C 0.8781(8) 0.6643(8) 0.1630(4)
C3B C 0.261(4) 0.581(4) 0.2271(12)
C3C C 0.419(4) 0.680(4) 0.2271(12)
C5B C 0.250(4) 0.649(4) 0.0716(16)
C5C C 0.351(4) 0.601(4) 0.0716(16)
C6B C 0.281(3) 0.769(3) 0.3474(12)
C6C C 0.231(3) 0.512(3) 0.3474(12)
C7B C 0.315(7) 0.930(6) 0.346(4)
C7C C 0.070(7) 0.385(6) 0.346(4)
C8B C 0.389(6) 1.080(7) 0.387(4)
C8C C -0.080(6) 0.309(7) 0.387(4)
C9B C 0.120(11) 0.641(9) 0.383(7)
C9C C 0.359(11) 0.479(9) 0.383(7)
#END
