
#######################################################################
#
#                 Cambridge Crystallographic Data Centre
#                                CCDC
#
#######################################################################
#
# If this CIF has been generated from an entry in the Cambridge
# Structural Database, then it will include bibliographic, chemical,
# crystal, experimental, refinement or atomic coordinate data resulting
# from the CCDC's data processing and validation procedures.
#
#######################################################################

data_CSD_CIF_YODZEX
_audit_creation_date 2009-02-13
_audit_creation_method CSD-ConQuest-V1
_database_code_CSD YODZEX
_database_code_depnum_ccdc_archive 'CCDC 661277'
_chemical_formula_sum 'C18 H18 Co1 N4 O6'
_chemical_formula_moiety
;
(C12 H7 Co1 N2 O6 1-)n,n(C6 H11 N2 1+)
;
_journal_coden_Cambridge 222
_journal_year 2008
_journal_page_first 3989
_journal_name_full 'Dalton Trans. '
loop_
_publ_author_name
"Zhuojia Lin"
"Yang Li"
"A.M.Z.Slawin"
"R.E.Morris"
_chemical_name_systematic
;
catena-((\m~3~-Trimesato-O,O',O'',O''')-(imidazole)-cobalt 
1-ethyl-3-methylimidazolium clathrate)
;
_cell_volume    933.854
_exptl_crystal_colour 'purple'
_exptl_crystal_density_diffrn 1.584
_exptl_crystal_description 'Prism'
_diffrn_ambient_temperature 113
#These two values have been output from a single CSD field.
_refine_ls_R_factor_gt 0.047
_refine_ls_wR_factor_gt 0.047
_symmetry_cell_setting monoclinic
_symmetry_space_group_name_H-M 'P 21'
_symmetry_Int_Tables_number 4
loop_
_symmetry_equiv_pos_site_id
_symmetry_equiv_pos_as_xyz
1 x,y,z
2 -x,1/2+y,-z
_cell_length_a 7.6770(14)
_cell_length_b 16.387(2)
_cell_length_c 8.2916(15)
_cell_angle_alpha 90
_cell_angle_beta 116.458(3)
_cell_angle_gamma 90
_cell_formula_units_Z 2
loop_
_atom_type_symbol
_atom_type_radius_bond
C 0.68
H 0.23
Co 1.33
N 0.68
O 0.68
loop_
_atom_site_label
_atom_site_type_symbol
_atom_site_fract_x
_atom_site_fract_y
_atom_site_fract_z
Co1 Co 0.76451(8) 0.45055(4) 0.86683(8)
O1 O 0.5821(5) 0.36525(17) 0.6870(4)
O2 O 0.6776(5) 0.3310(2) 0.9698(5)
C1 C 0.3156(7) 0.1340(3) 0.5170(6)
C2 C 0.5875(7) 0.3146(3) 0.8035(7)
C3 C 0.4021(7) 0.2106(2) 0.5678(7)
H1 H 0.40030 0.24670 0.48050
C4 C 0.4907(6) 0.2333(2) 0.7481(6)
C5 C 0.3094(7) 0.0833(3) 0.6481(6)
H2 H 0.24500 0.03350 0.61410
C6 C 0.4899(7) 0.1800(2) 0.8775(7)
H3 H 0.55260 0.19470 0.99840
N1 N 1.0382(6) 0.4029(2) 0.9683(5)
N2 N 1.3488(6) 0.3852(3) 1.0300(6)
H4 H 1.46220 0.39290 1.03570
C7 C 1.1092(8) 0.3344(3) 1.0727(7)
H5 H 1.03780 0.30140 1.11280
C8 C 1.1893(7) 0.4325(3) 0.9432(7)
H6 H 1.18410 0.47870 0.87600
C9 C 1.2924(8) 0.3216(3) 1.1083(7)
H7 H 1.36980 0.27830 1.17360
C10 C 0.7513(8) 0.0137(3) 0.6230(8)
H8 H 0.67920 -0.00650 0.50250
H9 H 0.66950 0.01350 0.68320
H10 H 0.86220 -0.02070 0.68740
C11 C 0.7838(8) 0.1392(3) 0.4698(7)
H11 H 0.71160 0.12070 0.35260
N3 N 0.8704(7) 0.2117(2) 0.5167(6)
C12 C 0.9260(8) 0.1461(3) 0.7618(7)
H12 H 0.96980 0.13170 0.88210
N4 N 0.8176(6) 0.0983(2) 0.6170(6)
C13 C 0.9584(8) 0.2169(3) 0.7010(7)
H13 H 1.02720 0.26130 0.77000
C14 C 0.3967(6) 0.1048(3) 0.8289(6)
C15 C 0.3855(7) 0.0499(3) 0.9689(7)
O3 O 0.5190(5) 0.0502(2) 1.1268(5)
O4 O 0.2367(5) 0.00415(17) 0.9179(4)
C16 C 0.2347(7) 0.1050(3) 0.3245(7)
O5 O 0.2102(5) 0.02791(18) 0.3026(4)
O6 O 0.2033(7) 0.1555(2) 0.2042(5)
C17 C 0.8799(10) 0.2725(3) 0.3889(8)
H14 H 1.00430 0.26720 0.38600
H15 H 0.77890 0.26020 0.26920
C18 C 0.8571(12) 0.3556(3) 0.4321(9)
H16 H 0.86560 0.39140 0.34430
H17 H 0.95800 0.36880 0.54940
H18 H 0.73250 0.36190 0.43140
Co1A Co 0.23549(8) -0.04945(4) 1.13317(8)
Co1A* Co 0.23549(8) -0.04945(4) 0.13317(8)
O4A O 0.7633(5) 0.50415(17) 1.0821(4)
O5A O 0.7898(5) 0.52791(18) 0.6974(4)
#END
