
#######################################################################
#
#                 Cambridge Crystallographic Data Centre
#                                CCDC
#
#######################################################################
#
# If this CIF has been generated from an entry in the Cambridge
# Structural Database, then it will include bibliographic, chemical,
# crystal, experimental, refinement or atomic coordinate data resulting
# from the CCDC's data processing and validation procedures.
#
#######################################################################

data_CSD_CIF_YOFFUW
_audit_creation_date 2014-04-04
_audit_creation_method CSD-ConQuest-V1
_database_code_CSD YOFFUW
_database_code_depnum_ccdc_archive 'CCDC 978155'
_chemical_formula_sum 'C22 H26 N2 O17 S3 U2'
_chemical_formula_moiety
;
(C12 H12 O16 S3 U2 2-)n,2n(C5 H6 N1 1+),n(H2 O1)
;
_journal_coden_Cambridge 580
_journal_volume 73
_journal_year 2014
_journal_page_first 110
_journal_name_full 'Polyhedron '
loop_
_publ_author_name
"Anna Libo"
"L.Streicher"
"D.K.Unruh"
_chemical_name_systematic
;
catena-[bis(pyridin-1-ium) 
tris(\m~2~-2,2'-sulfanediyldiacetato)-tetra-oxo-di-uranium monohydrate]
;
_cell_volume   3176.563
_exptl_crystal_colour 'yellow'
_exptl_crystal_density_diffrn 2.431
_exptl_crystal_description 'blade'
_diffrn_ambient_temperature 210
#These two values have been output from a single CSD field.
_refine_ls_R_factor_gt 0.0287
_refine_ls_wR_factor_gt 0.0287
_symmetry_cell_setting monoclinic
_symmetry_space_group_name_H-M 'P c'
_symmetry_Int_Tables_number 7
loop_
_symmetry_equiv_pos_site_id
_symmetry_equiv_pos_as_xyz
1 x,y,z
2 x,-y,1/2+z
_cell_length_a 18.3253(16)
_cell_length_b 8.2754(7)
_cell_length_c 21.0402(19)
_cell_angle_alpha 90
_cell_angle_beta 95.401(2)
_cell_angle_gamma 90
_cell_formula_units_Z 4
loop_
_atom_type_symbol
_atom_type_radius_bond
C 0.68
H 0.23
N 0.68
O 0.68
S 1.02
U 1.96
loop_
_atom_site_label
_atom_site_type_symbol
_atom_site_fract_x
_atom_site_fract_y
_atom_site_fract_z
U1 U 0.758181(16) 0.56370(4) 0.790922(15)
U2 U 0.271088(16) 0.57038(4) 0.771021(15)
S1 S 0.87076(14) 1.0542(3) 0.92473(13)
S2 S 0.10851(15) 0.0604(3) 0.82279(14)
S3 S 0.50556(13) 0.4996(3) 0.63606(12)
O1 O 0.3160(4) 0.4885(8) 0.8425(3)
O2 O 0.8197(4) 0.4830(8) 0.7404(4)
O3 O 0.3736(4) 0.4799(8) 0.7059(4)
O4 O 0.6510(4) 0.4576(7) 0.7249(3)
O5 O 0.8585(3) 0.7074(7) 0.8564(3)
O6 O 0.8163(4) 1.3891(7) 0.8779(3)
O7 O 0.6915(4) 0.6936(8) 0.6987(3)
O8 O 0.6978(3) 0.6457(8) 0.8422(3)
O9 O 0.7215(3) 1.2886(8) 0.8225(3)
O10 O 0.1681(3) 0.3936(7) 0.7888(3)
O11 O 0.8055(4) 0.8382(7) 0.7771(3)
O12 O 0.2798(4) -0.1540(8) 0.8147(4)
O13 O 0.2252(3) 0.6491(8) 0.7004(3)
O14 O 0.3821(3) 0.7185(8) 0.7512(3)
O15 O 0.1846(3) -0.2943(7) 0.8340(3)
O16 O 0.2503(4) 0.2902(8) 0.7322(3)
C1 C 0.5966(5) 0.5769(12) 0.6278(5)
H1 H 0.61860 0.51270 0.59470
H2 H 0.59220 0.68970 0.61230
C2 C 0.6480(5) 0.5739(11) 0.6876(4)
C3 C 0.7772(5) 1.1227(11) 0.9055(5)
H3 H 0.74890 1.03590 0.88200
H4 H 0.75450 1.14260 0.94570
C4 C 0.1918(5) 0.2783(11) 0.7589(4)
C5 C 0.2189(5) -0.1621(11) 0.8383(4)
C6 C 0.8917(5) 0.9896(11) 0.8466(5)
H5 H 0.87870 1.07680 0.81540
H6 H 0.94510 0.96980 0.84740
C7 C 0.4062(5) 0.6101(12) 0.7166(5)
C8 C 0.7718(5) 1.2729(10) 0.8662(5)
C9 C 0.1474(5) 0.1230(12) 0.7514(5)
H7 H 0.17940 0.03550 0.73790
H8 H 0.10720 0.13820 0.71700
C10 C 0.8506(5) 0.8368(11) 0.8253(5)
C11 C 0.4822(5) 0.6423(12) 0.6936(5)
H9 H 0.51960 0.63910 0.73070
H10 H 0.48270 0.75200 0.67480
C12 C 0.1893(6) -0.0165(11) 0.8684(5)
H11 H 0.22740 0.06870 0.87230
H12 H 0.17720 -0.04420 0.91200
U3 U 0.589339(16) 0.03679(4) 0.510489(15)
U4 U 1.077804(17) -0.01376(4) 0.542730(16)
S4 S 0.48889(14) -0.4845(3) 0.37026(12)
S5 S 1.24647(14) -0.5103(3) 0.49513(13)
S6 S 0.84113(12) 0.1514(3) 0.65249(12)
O17 O 0.6980(4) -0.0439(8) 0.5786(3)
O18 O 1.1720(3) -0.1685(7) 0.4919(3)
O19 O 0.9661(3) -0.1520(7) 0.5697(3)
O20 O 1.1845(3) -0.8473(7) 0.5274(3)
O21 O 0.6286(3) -0.2385(7) 0.4834(3)
O22 O 0.5248(3) -0.1572(7) 0.4332(3)
O23 O 0.6538(3) 0.1942(7) 0.5962(3)
O24 O 0.5327(4) -0.0362(8) 0.5676(4)
O25 O 1.0366(4) 0.0544(8) 0.4686(4)
O26 O 0.9760(4) 0.1021(8) 0.5965(4)
O27 O 1.1183(4) -0.0837(8) 0.6163(3)
O28 O 1.1008(3) -0.7338(7) 0.5792(3)
O29 O 0.5466(3) -0.6810(7) 0.5147(3)
O30 O 1.0687(3) -0.2955(7) 0.4999(3)
O31 O 0.4843(3) -0.8344(7) 0.4444(3)
O32 O 0.6457(3) 0.1069(8) 0.4529(3)
C13 C 0.4554(5) -0.5514(10) 0.4441(4)
H13 H 0.46070 -0.46310 0.47590
H14 H 0.40280 -0.57900 0.43650
C14 C 1.1639(6) -0.4371(11) 0.4505(5)
H15 H 1.17490 -0.40720 0.40690
H16 H 1.12680 -0.52450 0.44680
C15 C 0.4974(4) -0.6959(11) 0.4696(4)
C16 C 0.6990(5) 0.082(1) 0.6126(4)
C17 C 0.5774(5) -0.4085(11) 0.3997(5)
H17 H 0.60430 -0.49510 0.42440
H18 H 0.60510 -0.38280 0.36280
C18 C 0.9399(5) -0.0295(11) 0.5943(5)
C19 C 0.7494(4) 0.1001(11) 0.6712(4)
H19 H 0.75090 -0.00220 0.69560
H20 H 0.73090 0.18600 0.69830
C20 C 0.5763(5) -0.2612(10) 0.4411(4)
C21 C 0.8678(5) -0.0403(11) 0.6217(5)
H21 H 0.87110 -0.12130 0.65640
H22 H 0.82990 -0.07700 0.58820
C22 C 1.1324(5) -0.2913(11) 0.4824(4)
C23 C 1.2080(5) -0.5751(10) 0.5661(4)
H23 H 1.24820 -0.59400 0.60000
H24 H 1.17680 -0.48750 0.58070
C24 C 1.1627(5) -0.7271(11) 0.5569(4)
O33 O 0.9656(4) -0.4368(10) 0.4122(4)
H25 H 0.922(3) -0.375(11) 0.407(5)
H26 H 0.980(5) -0.403(12) 0.455(2)
O34 O 1.3652(4) -0.2004(9) 0.4166(4)
H27 H 1.4176(12) -0.204(13) 0.421(5)
H28 H 1.340(5) -0.287(8) 0.394(4)
N1 N -0.0013(5) 0.5044(10) 0.7943(4)
H29 H -0.01350 0.48410 0.83290
C25 C 0.0289(5) 0.6496(12) 0.7820(6)
H30 H 0.03750 0.72660 0.81530
C26 C 0.0355(6) 0.5677(12) 0.6764(5)
H31 H 0.04840 0.58920 0.63460
C27 C -0.0126(5) 0.3954(13) 0.7505(5)
H32 H -0.03410 0.29500 0.76010
C28 C 0.0065(6) 0.4243(12) 0.6900(5)
H33 H -0.00070 0.34350 0.65800
C29 C 0.0466(5) 0.6850(12) 0.7238(5)
H34 H 0.06630 0.78770 0.71470
N2 N 1.3557(6) 0.0490(12) 0.5238(5)
H35 H 1.36820 0.07210 0.48540
C30 C 1.3266(4) -0.0942(11) 0.5357(4)
H36 H 1.32150 -0.17280 0.50270
C31 C 1.3053(6) -0.1292(14) 0.5906(5)
H37 H 1.28400 -0.23210 0.59650
C32 C 1.3661(6) 0.1621(13) 0.5733(6)
H38 H 1.38960 0.26230 0.56680
C33 C 1.3418(5) 0.1258(14) 0.6313(5)
H39 H 1.34560 0.20430 0.66440
C34 C 1.3124(6) -0.0209(14) 0.6420(5)
H40 H 1.29740 -0.04910 0.68250
N3 N 0.4921(5) 0.0628(10) 0.3184(4)
H41 H 0.47020 0.12510 0.34460
C35 C 0.5601(7) -0.1286(14) 0.2400(6)
H42 H 0.58430 -0.19650 0.21220
C36 C 0.4542(6) -0.0541(14) 0.2885(6)
H43 H 0.40390 -0.06910 0.29430
C37 C 0.5616(6) 0.0902(11) 0.3106(5)
H44 H 0.58670 0.17710 0.33250
C38 C 0.5970(6) -0.0055(16) 0.2713(5)
H45 H 0.64720 0.01320 0.26570
C39 C 0.4888(6) -0.1543(14) 0.2486(5)
H46 H 0.46270 -0.24090 0.22720
N4 N 0.8564(5) 0.6581(12) 0.9940(4)
H47 H 0.87950 0.72630 0.97080
C40 C 0.8964(6) 0.5615(12) 1.0334(5)
H48 H 0.94830 0.56760 1.03700
C41 C 0.7484(6) 0.5526(13) 1.0201(6)
H49 H 0.69640 0.54820 1.01460
C42 C 0.8621(6) 0.4544(12) 1.0684(6)
H50 H 0.88970 0.38360 1.09690
C43 C 0.7838(6) 0.6583(14) 0.9873(5)
H51 H 0.75770 0.73300 0.95940
C44 C 0.7870(7) 0.4481(14) 1.0626(7)
H52 H 0.76190 0.37380 1.08720
U1* U 0.758181(16) 1.56370(4) 0.790922(15)
U2* U 0.271088(16) -0.42962(4) 0.771021(15)
O6* O 0.8163(4) 0.3891(7) 0.8779(3)
O9* O 0.7215(3) 0.2886(8) 0.8225(3)
O12* O 0.2798(4) 0.8460(8) 0.8147(4)
O15* O 0.1846(3) 0.7057(7) 0.8340(3)
U3* U 0.589339(16) -0.96321(4) 0.510489(15)
U4* U 1.077804(17) -1.01376(4) 0.542730(16)
O20* O 1.1845(3) 0.1527(7) 0.5274(3)
O28* O 1.1008(3) 0.2662(7) 0.5792(3)
O29* O 0.5466(3) 0.3190(7) 0.5147(3)
O31* O 0.4843(3) 0.1656(7) 0.4444(3)
#END
