
#######################################################################
#
#                 Cambridge Crystallographic Data Centre
#                                CCDC
#
#######################################################################
#
# If this CIF has been generated from an entry in the Cambridge
# Structural Database, then it will include bibliographic, chemical,
# crystal, experimental, refinement or atomic coordinate data resulting
# from the CCDC's data processing and validation procedures.
#
#######################################################################

data_CSD_CIF_YOFGAD
_audit_creation_date 2014-04-04
_audit_creation_method CSD-ConQuest-V1
_database_code_CSD YOFGAD
_database_code_depnum_ccdc_archive 'CCDC 978156'
_chemical_formula_sum 'C22 H24 N2 O16 S3 U2'
_chemical_formula_moiety
;
(C12 H12 O16 S3 U2 2-)n,2n(C5 H6 N1 1+)
;
_journal_coden_Cambridge 580
_journal_volume 73
_journal_year 2014
_journal_page_first 110
_journal_name_full 'Polyhedron '
loop_
_publ_author_name
"Anna Libo"
"L.Streicher"
"D.K.Unruh"
_chemical_name_systematic
;
catena-[bis(pyridin-1-ium) 
tris(\m~2~-2,2'-sulfanediyldiacetato)-tetra-oxo-di-uranium]
;
_cell_volume   3129.803
_exptl_crystal_colour 'yellow'
_exptl_crystal_density_diffrn 2.429
_exptl_crystal_description 'blade'
_diffrn_ambient_temperature 210
#These two values have been output from a single CSD field.
_refine_ls_R_factor_gt 0.0213
_refine_ls_wR_factor_gt 0.0213
_symmetry_cell_setting monoclinic
_symmetry_space_group_name_H-M 'P 21/c'
_symmetry_Int_Tables_number 14
loop_
_symmetry_equiv_pos_site_id
_symmetry_equiv_pos_as_xyz
1 x,y,z
2 -x,1/2+y,1/2-z
3 -x,-y,-z
4 x,-1/2-y,-1/2+z
_cell_length_a 15.4597(13)
_cell_length_b 8.4774(7)
_cell_length_c 24.835(2)
_cell_angle_alpha 90
_cell_angle_beta 105.932(2)
_cell_angle_gamma 90
_cell_formula_units_Z 4
loop_
_atom_type_symbol
_atom_type_radius_bond
C 0.68
H 0.23
N 0.68
O 0.68
S 1.02
U 1.96
loop_
_atom_site_label
_atom_site_type_symbol
_atom_site_fract_x
_atom_site_fract_y
_atom_site_fract_z
U1 U 0.417525(10) 0.624873(15) 0.359587(6)
U2 U 0.050567(9) 0.395310(16) 0.122421(6)
S1 S 0.35950(8) 1.12670(11) 0.47851(4)
S2 S 0.38130(7) 0.62815(13) 0.14744(5)
S3 S -0.16950(7) 0.89063(11) 0.10549(6)
O1 O 0.3732(2) 0.9057(3) 0.35004(12)
O2 O 0.40841(19) 1.4790(3) 0.44414(11)
O3 O 0.02517(19) 0.6780(3) 0.10158(14)
O4 O 0.0519(2) 1.1105(3) 0.14343(14)
O5 O 0.35482(18) 0.7842(3) 0.42304(11)
O6 O 0.19339(19) 0.5474(3) 0.13921(14)
O7 O 0.0458(2) 0.3565(4) 0.05194(13)
O8 O 0.20551(19) 0.2909(3) 0.14532(13)
O9 O 0.4335(2) 0.7464(3) 0.27450(12)
O10 O 0.4589(3) 1.3517(4) 0.38349(14)
O11 O -0.09498(19) 0.5319(3) 0.08655(15)
O12 O 0.0568(2) 0.4358(4) 0.19309(13)
O13 O 0.5269(2) 0.6871(4) 0.39744(13)
O14 O -0.0782(2) 1.2278(3) 0.12141(14)
O15 O 0.3094(2) 0.5640(4) 0.32195(13)
O16 O 0.4841(3) 0.5080(4) 0.28995(15)
C1 C 0.3056(3) 1.0555(4) 0.40911(17)
H1 H 0.24160 1.03410 0.40620
H2 H 0.30780 1.13940 0.38180
C2 C 0.4408(3) 1.3555(4) 0.42958(16)
C3 C 0.4855(3) 0.6241(5) 0.20217(16)
H3 H 0.51960 0.52770 0.19860
H4 H 0.52250 0.71670 0.19850
C4 C 0.3473(3) 0.9085(4) 0.39346(16)
C5 C -0.0313(3) 1.1078(4) 0.13923(18)
C6 C 0.4674(3) 0.6264(5) 0.25847(18)
C7 C -0.0588(3) 0.6640(5) 0.08273(18)
C8 C 0.4596(3) 1.2115(5) 0.46640(17)
H5 H 0.50170 1.24020 0.50290
H6 H 0.48940 1.13110 0.44870
C9 C 0.2408(3) 0.4248(5) 0.14596(18)
C10 C -0.0732(3) 0.9643(5) 0.15756(19)
H7 H -0.09140 0.99090 0.19170
H8 H -0.02740 0.87980 0.16750
C11 C -0.1144(3) 0.8031(5) 0.05758(18)
H9 H -0.16030 0.76980 0.02320
H10 H -0.07540 0.88290 0.04680
C12 C 0.3410(3) 0.4330(6) 0.1577(3)
H11 H 0.36050 0.35780 0.13290
H12 H 0.36880 0.39980 0.19690
N1 N 0.2810(2) 0.6618(5) 0.50188(14)
H13 H 0.31420 0.69010 0.47980
C13 C 0.2069(3) 0.7431(6) 0.4998(2)
H14 H 0.19050 0.82980 0.47490
C14 C 0.3071(3) 0.5400(6) 0.53564(19)
H15 H 0.36080 0.48480 0.53620
C15 C 0.2557(4) 0.4950(6) 0.5696(2)
H16 H 0.27310 0.40720 0.59390
C16 C 0.1549(3) 0.7027(7) 0.5331(2)
H17 H 0.10190 0.76110 0.53200
C17 C 0.1789(4) 0.5766(7) 0.5685(2)
H18 H 0.14270 0.54620 0.59210
N2 N 0.2378(3) 0.8376(5) 0.21316(17)
H19 H 0.25760 0.76900 0.19270
C18 C 0.1710(4) 0.7943(7) 0.2337(2)
H20 H 0.14560 0.69170 0.22700
C19 C 0.1395(4) 0.9011(9) 0.2649(2)
H21 H 0.09250 0.87310 0.28090
C20 C 0.2764(4) 0.9769(8) 0.2215(2)
H22 H 0.32560 1.00050 0.20680
C21 C 0.1762(5) 1.0484(9) 0.2728(2)
H23 H 0.15350 1.12470 0.29340
C22 C 0.2455(6) 1.0860(7) 0.2510(3)
H24 H 0.27170 1.18820 0.25660
U1* U 0.417525(10) 1.624873(15) 0.359587(6)
U2* U 0.050567(9) 1.395310(16) 0.122421(6)
O2* O 0.40841(19) 0.4790(3) 0.44414(11)
O4* O 0.0519(2) 0.1105(3) 0.14343(14)
O10* O 0.4589(3) 0.3517(4) 0.38349(14)
O14* O -0.0782(2) 0.2278(3) 0.12141(14)
#END
