
#######################################################################
#
#                 Cambridge Crystallographic Data Centre
#                                CCDC
#
#######################################################################
#
# If this CIF has been generated from an entry in the Cambridge
# Structural Database, then it will include bibliographic, chemical,
# crystal, experimental, refinement or atomic coordinate data resulting
# from the CCDC's data processing and validation procedures.
#
#######################################################################

data_CSD_CIF_YOFGEH
_audit_creation_date 2014-04-04
_audit_creation_method CSD-ConQuest-V1
_database_code_CSD YOFGEH
_database_code_depnum_ccdc_archive 'CCDC 978157'
_chemical_formula_sum 'C29 H34 N2 O17 S3 U2'
_chemical_formula_moiety
;
(C12 H12 O16 S3 U2 2-)n,n(C7 H8),2n(C5 H6 N1 1+),n(H2 O1)
;
_journal_coden_Cambridge 580
_journal_volume 73
_journal_year 2014
_journal_page_first 110
_journal_name_full 'Polyhedron '
loop_
_publ_author_name
"Anna Libo"
"L.Streicher"
"D.K.Unruh"
_chemical_name_systematic
;
catena-[bis(pyridin-1-ium) 
tris(\m~2~-2,2'-sulfanediyldiacetato)-tetra(oxido)-di-uranium toluene solvate 
monohydrate]
;
_cell_volume   3770.766
_exptl_crystal_colour 'pale yellow'
_exptl_crystal_density_diffrn 2.21
_exptl_crystal_description 'needle'
_diffrn_ambient_temperature 210
#These two values have been output from a single CSD field.
_refine_ls_R_factor_gt 0.0339
_refine_ls_wR_factor_gt 0.0339
_symmetry_cell_setting monoclinic
_symmetry_space_group_name_H-M 'P 21/n'
_symmetry_Int_Tables_number 14
loop_
_symmetry_equiv_pos_site_id
_symmetry_equiv_pos_as_xyz
1 x,y,z
2 1/2-x,1/2+y,1/2-z
3 -x,-y,-z
4 -1/2+x,-1/2-y,-1/2+z
_cell_length_a 17.1870(13)
_cell_length_b 8.1645(7)
_cell_length_c 26.895(2)
_cell_angle_alpha 90
_cell_angle_beta 92.370(3)
_cell_angle_gamma 90
_cell_formula_units_Z 4
loop_
_atom_type_symbol
_atom_type_radius_bond
C 0.68
H 0.23
N 0.68
O 0.68
S 1.02
U 1.96
loop_
_atom_site_label
_atom_site_type_symbol
_atom_site_fract_x
_atom_site_fract_y
_atom_site_fract_z
U1 U -0.056994(15) 0.08016(4) 0.218241(11)
U2 U 0.375171(15) -0.14823(3) 0.094932(10)
S1 S 0.56531(11) 0.3667(2) 0.06941(8)
S2 S -0.17018(13) 0.5835(3) 0.31678(8)
S3 S 0.06924(12) -0.0940(3) 0.04266(8)
O1 O -0.0212(3) 0.3658(6) 0.2407(2)
O2 O 0.2406(3) -0.0552(7) 0.0769(2)
O3 O 0.4015(3) 0.5674(6) 0.1238(2)
O4 O 0.4863(3) 0.0244(6) 0.07225(19)
O5 O -0.1373(3) 0.1535(7) 0.18163(19)
O6 O 0.5029(3) 0.7169(6) 0.10768(19)
O7 O 0.3804(3) -0.0732(6) 0.15607(18)
O8 O 0.2544(3) -0.2940(7) 0.11236(19)
O9 O -0.1012(3) 0.2425(7) 0.28843(19)
O10 O -0.1496(3) 0.9325(7) 0.2691(2)
O11 O -0.1013(3) 0.7960(6) 0.2075(2)
O12 O 0.3711(3) -0.2229(7) 0.03355(18)
O13 O -0.0076(3) -0.0574(7) 0.1432(2)
O14 O 0.3707(3) 0.1347(7) 0.0643(2)
O15 O 0.0231(3) 0.0055(7) 0.25514(19)
O16 O 0.0314(3) 0.1947(7) 0.1585(2)
C1 C 0.4429(4) 0.1424(9) 0.0599(3)
C2 C 0.2124(4) -0.1886(10) 0.0902(3)
C3 C 0.4770(4) 0.2962(10) 0.0369(3)
H1 H 0.43810 0.38390 0.03710
H2 H 0.48830 0.27360 0.00220
C4 C 0.1276(4) -0.2331(10) 0.0805(3)
H3 H 0.10330 -0.24420 0.11260
H4 H 0.12550 -0.34100 0.06440
C5 C -0.1469(4) 0.8037(10) 0.2434(3)
C6 C 0.0670(5) 0.0855(10) 0.0815(3)
H5 H 0.12090 0.12050 0.08860
H6 H 0.04110 0.17320 0.06220
C7 C 0.5259(4) 0.4319(9) 0.1270(3)
H7 H 0.49600 0.34190 0.14080
H8 H 0.56870 0.45820 0.15080
C8 C 0.0275(4) 0.0703(11) 0.1303(3)
C9 C -0.0640(4) 0.3687(10) 0.2779(3)
C10 C -0.1949(4) 0.6576(10) 0.2555(3)
H9 H -0.18630 0.57070 0.23120
H10 H -0.25020 0.68720 0.25320
C11 C 0.4740(4) 0.5796(10) 0.1201(3)
C12 C -0.0712(4) 0.521(1) 0.3082(3)
H11 H -0.04380 0.61010 0.29200
H12 H -0.04540 0.50310 0.34090
O17 O 0.0541(3) 0.6287(8) 0.1965(2)
H13 H 0.018(4) 0.691(9) 0.176(3)
H14 H 0.034(4) 0.534(7) 0.213(3)
N1 N 0.3222(4) 0.2391(9) 0.2470(3)
H15 H 0.36250 0.21170 0.26580
C13 C 0.1984(5) 0.3252(12) 0.1875(4)
H16 H 0.15530 0.35540 0.16690
C14 C 0.3318(5) 0.2854(13) 0.2003(4)
H17 H 0.38240 0.28870 0.18840
C15 C 0.2726(6) 0.3272(13) 0.1700(4)
H18 H 0.28100 0.35780 0.13700
C16 C 0.2502(6) 0.2338(12) 0.2657(3)
H19 H 0.24320 0.20010 0.29860
C17 C 0.1888(5) 0.2779(13) 0.2359(4)
H20 H 0.13860 0.27650 0.24850
N2 N 0.6596(5) 0.805(1) 0.0916(3)
H21 H 0.61270 0.77130 0.09710
C18 C 0.7411(6) 0.9764(14) 0.0494(3)
H22 H 0.74860 1.05970 0.02600
C19 C 0.6688(5) 0.9238(13) 0.0588(3)
H23 H 0.62510 0.97120 0.04220
C20 C 0.8038(5) 0.9056(16) 0.0748(4)
H24 H 0.85490 0.93920 0.06910
C21 C 0.7190(8) 0.7357(14) 0.1165(4)
H25 H 0.71030 0.65180 0.13950
C22 C 0.7893(7) 0.7844(15) 0.1087(4)
H26 H 0.83130 0.73580 0.12670
C23 C 0.7728(9) 0.4247(17) 0.0350(5)
H27 H 0.72200 0.38890 0.02640
C24 C 0.8160(9) 0.546(2) 0.0061(5)
C25 C 0.8925(7) 0.5882(17) 0.0200(5)
H28 H 0.91910 0.66460 0.00080
C26 C 0.7727(8) 0.6167(18) -0.0353(5)
H29 H 0.77110 0.73480 -0.03150
H30 H 0.72010 0.57360 -0.03650
H31 H 0.79770 0.58950 -0.06590
C27 C 0.8920(16) 0.414(2) 0.0915(7)
H32 H 0.91290 0.36890 0.12130
C28 C 0.9327(10) 0.5146(18) 0.0643(6)
H33 H 0.98500 0.53880 0.07280
C29 C 0.8126(10) 0.374(2) 0.0728(9)
H34 H 0.78650 0.29850 0.09250
U1* U -0.056994(15) 1.08016(4) 0.218241(11)
U2* U 0.375171(15) 0.85177(3) 0.094932(10)
O3* O 0.4015(3) -0.4326(6) 0.1238(2)
O6* O 0.5029(3) -0.2831(6) 0.10768(19)
O10* O -0.1496(3) -0.0675(7) 0.2691(2)
O11* O -0.1013(3) -0.2040(6) 0.2075(2)
#END
