
#######################################################################
#
#                 Cambridge Crystallographic Data Centre
#                                CCDC
#
#######################################################################
#
# If this CIF has been generated from an entry in the Cambridge
# Structural Database, then it will include bibliographic, chemical,
# crystal, experimental, refinement or atomic coordinate data resulting
# from the CCDC's data processing and validation procedures.
#
#######################################################################

data_CSD_CIF_YOFLUB
_audit_creation_date 2009-02-13
_audit_creation_method CSD-ConQuest-V1
_database_code_CSD YOFLUB
_database_code_depnum_ccdc_archive 'CCDC 286417'
_chemical_formula_sum 'C90 H90 Cu3 Mo10 N18 O52 P4'
_chemical_formula_moiety
;
(C10 H8 N2)n,n(C80 H68 Cu3 Mo10 N16 O46 P4 2-),2n(H3 O1 1+),4n(H2 O1)
;
_journal_coden_Cambridge 971
_journal_volume 10
_journal_year 2008
_journal_page_first 121
_journal_name_full 'Solid State Sciences '
loop_
_publ_author_name
"Guangzhe Li"
"C.Salim"
"H.Hinode"
_chemical_name_systematic
;
catena-(Dioxonium tetrakis(\m~5~-hydrogen 
phosphato)-tetrakis(\m~2~-4,4'-bipyridine)-octadecakis(\m~2~-oxo)-tetrakis(4,4
'-bipyridine)-tetradecaoxo-tri-copper(ii)-deca-molybdenum 4,4'-bipyridine 
tetrahydrate clathrate)
;
_cell_volume   5957.391
_exptl_crystal_colour 'blue'
_exptl_crystal_density_diffrn 1.968
_exptl_special_details
;
magnetic properties

;
_exptl_crystal_description 'block'
_diffrn_ambient_temperature 293
_refine_special_details
;
The bipyridine molecule is disordered by symmetry with occupancy 0.5.

;
#These two values have been output from a single CSD field.
_refine_ls_R_factor_gt 0.0395
_refine_ls_wR_factor_gt 0.0395
_symmetry_cell_setting monoclinic
_symmetry_space_group_name_H-M 'P 21/n'
_symmetry_Int_Tables_number 14
loop_
_symmetry_equiv_pos_site_id
_symmetry_equiv_pos_as_xyz
1 x,y,z
2 1/2-x,1/2+y,1/2-z
3 -x,-y,-z
4 -1/2+x,-1/2-y,-1/2+z
_cell_length_a 13.9590(5)
_cell_length_b 22.4850(7)
_cell_length_c 19.1568(6)
_cell_angle_alpha 90
_cell_angle_beta 97.778(2)
_cell_angle_gamma 90
_cell_formula_units_Z 2
loop_
_atom_type_symbol
_atom_type_radius_bond
C 0.68
H 0.23
Cu 1.52
Mo 1.41
N 0.68
O 0.68
P 1.05
loop_
_atom_site_label
_atom_site_type_symbol
_atom_site_fract_x
_atom_site_fract_y
_atom_site_fract_z
Mo1 Mo -0.48638(3) 0.705635(17) 0.33774(2)
Mo2 Mo -0.43222(3) 0.676854(17) 0.51482(2)
Mo3 Mo -0.55777(3) 0.771625(18) 0.60311(2)
Mo4 Mo -0.64376(3) 0.888562(18) 0.47503(2)
Mo5 Mo -0.62035(3) 0.830679(19) 0.31454(2)
Cu1 Cu -0.25912(4) 0.73676(2) 0.23209(3)
Cu2 Cu -0.50000 0.50000 0.50000
P1 P -0.66680(9) 0.72994(5) 0.44460(6)
P2 P -0.43410(9) 0.81959(5) 0.45814(6)
O1 O -0.5781(2) 0.69477(13) 0.42593(17)
O2 O -0.3988(2) 0.68921(14) 0.42274(16)
O3 O -0.4787(2) 0.80116(13) 0.38336(16)
O4 O -0.5982(2) 0.74722(14) 0.29405(16)
O5 O -0.3978(2) 0.72781(14) 0.28779(16)
O6 O -0.5115(3) 0.63537(14) 0.30743(18)
O7 O -0.4593(2) 0.77178(13) 0.51186(16)
O8 O -0.5045(3) 0.69472(14) 0.59188(17)
O9 O -0.4683(2) 0.60354(14) 0.50793(17)
O10 O -0.3189(3) 0.67468(16) 0.55952(19)
O11 O -0.6121(3) 0.84077(15) 0.55699(17)
O12 O -0.6678(2) 0.73001(14) 0.52256(17)
O13 O -0.6365(2) 0.75749(14) 0.66318(16)
O14 O -0.4637(3) 0.80382(16) 0.65554(18)
O15 O -0.6633(3) 0.79371(14) 0.41467(17)
O16 O -0.6256(3) 0.89539(14) 0.37825(17)
O17 O -0.4761(2) 0.87855(13) 0.47737(16)
O18 O -0.7678(3) 0.88817(16) 0.4683(2)
O19 O -0.6137(3) 0.95837(15) 0.50591(19)
O20 O -0.7353(3) 0.83259(17) 0.2709(2)
O21 O -0.5525(3) 0.86366(17) 0.2577(2)
O22 O -0.7613(3) 0.69915(17) 0.4111(2)
H1 H -0.76300 0.69820 0.36820
O23 O -0.3238(2) 0.82112(15) 0.4634(2)
H2 H -0.30770 0.84630 0.43620
O24 O 0.4412(4) 0.3454(3) 0.2650(3)
O25 O 0.1943(4) 0.2309(3) 0.3593(3)
O26 O 0.8207(4) 0.2879(2) 0.7263(2)
N1 N -0.2543(3) 0.82898(16) 0.2491(2)
N2 N -0.2428(3) 1.14398(17) 0.2797(2)
N3 N -0.3535(3) 0.74505(17) 0.14318(19)
N4 N -0.6649(3) 0.77030(17) -0.17882(19)
N5 N -0.3853(3) 0.48998(19) 0.4434(2)
N6 N 0.1068(5) 0.5130(4) 0.3890(4)
N7 N -0.4048(3) 0.49161(18) 0.5902(2)
N8 N -0.0971(4) 0.4299(2) 0.9019(2)
N9 N 0.2030(15) 0.0995(9) 0.5403(9)
N10? N 0.1929(15) 0.0986(11) 0.5081(9)
C1 C -0.1850(4) 0.8627(2) 0.2268(3)
H3 H -0.13930 0.84420 0.20290
C2 C -0.1782(4) 0.9234(2) 0.2374(3)
H4 H -0.12800 0.94470 0.22190
C3 C -0.2462(4) 0.9524(2) 0.2712(3)
C4 C -0.3167(4) 0.9175(2) 0.2951(3)
H5 H -0.36360 0.93500 0.31860
C5 C -0.3178(4) 0.8563(2) 0.2841(3)
H6 H -0.36470 0.83360 0.30180
C6 C -0.1600(4) 1.1124(2) 0.2843(3)
H7 H -0.10170 1.13290 0.28780
C7 C -0.1577(4) 1.0506(2) 0.2840(3)
H8 H -0.09880 1.03070 0.28760
C8 C -0.2442(4) 1.0185(2) 0.2782(3)
C9 C -0.3289(4) 1.0515(2) 0.2759(3)
H9 H -0.38810 1.03210 0.27360
C10 C -0.3255(4) 1.1130(2) 0.2769(3)
H10 H -0.38320 1.13380 0.27560
C11 C -0.4332(4) 0.7795(2) 0.1391(2)
H11 H -0.44720 0.79830 0.17980
C12 C -0.4943(4) 0.7881(2) 0.0775(3)
H12 H -0.54850 0.81220 0.07700
C13 C -0.4752(3) 0.7606(2) 0.0160(2)
C14 C -0.3943(4) 0.7244(2) 0.0204(2)
H13 H -0.37950 0.70460 -0.01940
C15 C -0.3352(3) 0.7177(2) 0.0848(2)
H14 H -0.28110 0.69330 0.08700
C16 C -0.6976(4) 0.7770(2) -0.1171(3)
H15 H -0.76360 0.78240 -0.11700
C17 C -0.6385(4) 0.7764(2) -0.0535(2)
H16 H -0.66470 0.78210 -0.01180
C18 C -0.5405(4) 0.7671(2) -0.0515(2)
C19 C -0.5063(4) 0.7606(3) -0.1154(3)
H17 H -0.44050 0.75530 -0.11650
C20 C -0.5694(4) 0.7621(3) -0.1777(3)
H18 H -0.54480 0.75720 -0.22010
C21 C -0.3510(4) 0.5398(2) 0.4162(3)
H19 H -0.39230 0.57210 0.40680
C22 C -0.2579(4) 0.5446(2) 0.4018(3)
H20 H -0.23680 0.58000 0.38390
C23 C -0.1946(4) 0.4968(3) 0.4139(3)
C24 C -0.2322(4) 0.4436(2) 0.4365(3)
H21 H -0.19420 0.40950 0.44230
C25 C -0.3269(4) 0.4426(2) 0.4500(3)
H22 H -0.35150 0.40690 0.46440
C26 C 0.0569(6) 0.4617(4) 0.3768(5)
H23 H 0.09030 0.42890 0.36290
C27 C -0.0392(5) 0.4542(3) 0.3831(4)
H24 H -0.06900 0.41760 0.37300
C28 C -0.0913(5) 0.5016(3) 0.4048(3)
C29 C -0.0433(5) 0.5552(3) 0.4163(4)
H25 H -0.07560 0.58880 0.42910
C30 C 0.0538(6) 0.5581(4) 0.4085(5)
H26 H 0.08480 0.59450 0.41760
C31 C -0.3722(6) 0.5367(2) 0.6338(3)
H27 H -0.39410 0.57500 0.62230
C32 C -0.3084(6) 0.5286(2) 0.6942(3)
H28 H -0.28700 0.56100 0.72220
C33 C -0.2766(4) 0.4721(2) 0.7128(3)
C34 C -0.3083(4) 0.4257(2) 0.6682(3)
H29 H -0.28730 0.38700 0.67860
C35 C -0.3712(4) 0.4377(2) 0.6084(3)
H30 H -0.39160 0.40610 0.57870
C36 C -0.0761(5) 0.4776(3) 0.8662(3)
H31 H -0.02340 0.50120 0.88340
C37 C -0.1312(5) 0.4923(2) 0.8047(3)
H32 H -0.11500 0.52520 0.77920
C38 C -0.2117(4) 0.4581(2) 0.7795(3)
C39 C -0.2326(5) 0.4086(3) 0.8180(3)
H33 H -0.28610 0.38500 0.80290
C40 C -0.1728(5) 0.3954(3) 0.8785(3)
H34 H -0.18490 0.36160 0.90400
C41 C 0.1122(11) 0.1190(6) 0.4767(12)
C42? C 0.1110(11) 0.1171(6) 0.5517(12)
C43 C 0.0316(11) 0.0818(6) 0.4651(12)
C44? C 0.0282(11) 0.0788(6) 0.5440(12)
C45 C 0.0429(14) 0.0202(8) 0.5215(10)
C46? C 0.0422(17) 0.0223(9) 0.4822(10)
C47 C 0.1345(4) 0.0017(3) 0.5177(4)
C48 C 0.2102(4) 0.0420(3) 0.5276(4)
Mo1B Mo -0.51362(3) 0.294365(17) 0.66226(2)
Mo2B Mo -0.56778(3) 0.323146(17) 0.48518(2)
Mo3B Mo -0.44223(3) 0.228375(18) 0.39689(2)
Mo4B Mo -0.35624(3) 0.111438(18) 0.52497(2)
Mo5B Mo -0.37965(3) 0.169321(19) 0.68546(2)
Cu1B Cu -0.74088(4) 0.26324(2) 0.76791(3)
Cu1C Cu -0.75912(4) 0.76324(2) 0.73209(3)
Cu1A Cu -0.24088(4) 1.23676(2) 0.26791(3)
Cu1C* Cu -0.75912(4) 0.76324(2) -0.26791(3)
Cu1A* Cu -0.24088(4) 0.23676(2) 0.26791(3)
Cu1C** Cu 0.24088(4) 0.76324(2) 0.73209(3)
P1B P -0.33320(9) 0.27006(5) 0.55540(6)
P2B P -0.56590(9) 0.18041(5) 0.54186(6)
O1B O -0.4219(2) 0.30523(13) 0.57407(17)
O2B O -0.6012(2) 0.31079(14) 0.57726(16)
O3B O -0.5213(2) 0.19884(13) 0.61664(16)
O4B O -0.4018(2) 0.25278(14) 0.70595(16)
O5B O -0.6022(2) 0.27219(14) 0.71221(16)
O6B O -0.4885(3) 0.36463(14) 0.69257(18)
O7B O -0.5407(2) 0.22822(13) 0.48814(16)
O8B O -0.4955(3) 0.30528(14) 0.40812(17)
O9B O -0.5317(2) 0.39646(14) 0.49207(17)
O10B O -0.6811(3) 0.32532(16) 0.44048(19)
O11B O -0.3879(3) 0.15923(15) 0.44301(17)
O12B O -0.3322(2) 0.26999(14) 0.47744(17)
O13B O -0.3635(2) 0.24251(14) 0.33682(16)
O13C O -0.1365(2) 0.74251(14) 0.16318(16)
O13A O -0.8635(2) 0.25749(14) 0.83682(16)
O14B O -0.5363(3) 0.19618(16) 0.34446(18)
O15B O -0.3367(3) 0.20629(14) 0.58533(17)
O16B O -0.3744(3) 0.10461(14) 0.62175(17)
O17B O -0.5239(2) 0.12145(13) 0.52263(16)
O18B O -0.2322(3) 0.11183(16) 0.5317(2)
O19B O -0.3863(3) 0.04163(15) 0.49409(19)
O20B O -0.2647(3) 0.16741(17) 0.7291(2)
O21B O -0.4475(3) 0.13634(17) 0.7423(2)
O22B O -0.2387(3) 0.30085(17) 0.5889(2)
H1B H -0.23700 0.30180 0.63180
O23B O -0.6762(2) 0.17888(15) 0.5366(2)
H2B H -0.69230 0.15370 0.56380
N1A N -0.2457(3) 0.32898(16) 0.2509(2)
N1B N -0.7457(3) 0.17102(16) 0.7509(2)
N2A N -0.2572(3) 0.64398(17) 0.2203(2)
N2C N -0.7428(3) 0.35602(17) 0.7797(2)
N3C N 0.1465(3) 0.75495(17) 0.64318(19)
N3B N -0.6465(3) 0.25495(17) 0.85682(19)
N4C N -0.1649(3) 0.72970(17) 0.32118(19)
N4A N -0.8351(3) 0.27030(17) 0.67882(19)
N5B N -0.6147(3) 0.51002(19) 0.5566(2)
N6B N -1.1068(5) 0.4870(4) 0.6110(4)
N7B N -0.5952(3) 0.50839(18) 0.4098(2)
N8B N -0.9029(4) 0.5701(2) 0.0981(2)
N9B N -0.2030(15) -0.0995(9) 0.4597(9)
C1A C -0.3150(4) 0.3627(2) 0.2732(3)
H3A H -0.36070 0.34420 0.29710
C2A C -0.3218(4) 0.4234(2) 0.2626(3)
H4A H -0.37200 0.44470 0.27810
C3A C -0.2538(4) 0.4524(2) 0.2288(3)
C4A C -0.1833(4) 0.4175(2) 0.2049(3)
H5A H -0.13640 0.43500 0.18140
C5A C -0.1822(4) 0.3563(2) 0.2159(3)
H6A H -0.13530 0.33360 0.19820
C6A C -0.3400(4) 0.6124(2) 0.2157(3)
H7A H -0.39830 0.63290 0.21220
C7A C -0.3423(4) 0.5506(2) 0.2160(3)
H8A H -0.40120 0.53070 0.21240
C8A C -0.2558(4) 0.5185(2) 0.2218(3)
C9A C -0.1711(4) 0.5515(2) 0.2241(3)
H9A H -0.11190 0.53210 0.22640
C10A C -0.1745(4) 0.6130(2) 0.2231(3)
H10A H -0.11680 0.63380 0.22440
C11C C 0.0668(4) 0.7205(2) 0.6391(2)
H11C H 0.05280 0.70170 0.67980
C12C C 0.0057(4) 0.7119(2) 0.5775(3)
H12C H -0.04850 0.68780 0.57700
C13C C 0.0248(3) 0.7394(2) 0.5160(2)
C14C C 0.1057(4) 0.7756(2) 0.5204(2)
H13C H 0.12050 0.79540 0.48060
C15C C 0.1648(3) 0.7823(2) 0.5848(2)
H14C H 0.21890 0.80670 0.58700
C16C C -0.1976(4) 0.7230(2) 0.3829(3)
H15C H -0.26360 0.71760 0.38300
C17C C -0.1385(4) 0.7236(2) 0.4465(2)
H16C H -0.16470 0.71790 0.48820
C18C C -0.0405(4) 0.7329(2) 0.4485(2)
C19C C -0.0063(4) 0.7394(3) 0.3846(3)
H17C H 0.05950 0.74470 0.38350
C20C C -0.0694(4) 0.7379(3) 0.3223(3)
H18C H -0.04480 0.74280 0.27990
C21B C -0.6490(4) 0.4602(2) 0.5838(3)
H19B H -0.60770 0.42790 0.59320
C22B C -0.7421(4) 0.4554(2) 0.5982(3)
H20B H -0.76320 0.42000 0.61610
C23B C -0.8054(4) 0.5032(3) 0.5861(3)
C24B C -0.7678(4) 0.5564(2) 0.5635(3)
H21B H -0.80580 0.59050 0.55770
C25B C -0.6731(4) 0.5574(2) 0.5500(3)
H22B H -0.64850 0.59310 0.53560
C26B C -1.0569(6) 0.5383(4) 0.6232(5)
H23B H -1.09030 0.57110 0.63710
C27B C -0.9608(5) 0.5458(3) 0.6169(4)
H24B H -0.93100 0.58240 0.62700
C28B C -0.9087(5) 0.4984(3) 0.5952(3)
C29B C -0.9567(5) 0.4448(3) 0.5837(4)
H25B H -0.92440 0.41120 0.57090
C30B C -1.0538(6) 0.4419(4) 0.5915(5)
H26B H -1.08480 0.40550 0.58240
C31B C -0.6278(6) 0.4633(2) 0.3662(3)
H27B H -0.60590 0.42500 0.37770
C32B C -0.6916(6) 0.4714(2) 0.3058(3)
H28B H -0.71300 0.43900 0.27780
C33B C -0.7234(4) 0.5279(2) 0.2872(3)
C34B C -0.6917(4) 0.5743(2) 0.3318(3)
H29B H -0.71270 0.61300 0.32140
C35B C -0.6288(4) 0.5623(2) 0.3916(3)
H30B H -0.60840 0.59390 0.42130
C36B C -0.9239(5) 0.5224(3) 0.1338(3)
H31B H -0.97660 0.49880 0.11660
C37B C -0.8688(5) 0.5077(2) 0.1953(3)
H32B H -0.88500 0.47480 0.22080
C38B C -0.7883(4) 0.5419(2) 0.2205(3)
C39B C -0.7674(5) 0.5914(3) 0.1820(3)
H33B H -0.71390 0.61500 0.19710
C40B C -0.8272(5) 0.6046(3) 0.1215(3)
H34B H -0.81510 0.63840 0.09600
C41B C -0.1122(11) -0.1190(6) 0.5233(12)
C43B C -0.0316(11) -0.0818(6) 0.5349(12)
C45B C -0.0429(14) -0.0202(8) 0.4785(10)
C47B C -0.1345(4) -0.0017(3) 0.4823(4)
C48B C -0.2102(4) -0.0420(3) 0.4724(4)
#END
