
#######################################################################
#
#                 Cambridge Crystallographic Data Centre
#                                CCDC
#
#######################################################################
#
# If this CIF has been generated from an entry in the Cambridge
# Structural Database, then it will include bibliographic, chemical,
# crystal, experimental, refinement or atomic coordinate data resulting
# from the CCDC's data processing and validation procedures.
#
#######################################################################

data_CSD_CIF_YOGMOX
_audit_creation_date 2009-02-13
_audit_creation_method CSD-ConQuest-V1
_database_code_CSD YOGMOX
_database_code_depnum_ccdc_archive 'CCDC 680366'
_chemical_formula_sum 'C60 H58 Cu6 N12 O74 P4 W18'
_chemical_formula_moiety
;
(H3 O1 1+)2n,n(C60 H52 Cu6 N12 O72 P4 W18 2-)
;
_journal_coden_Cambridge 1147
_journal_volume 8
_journal_year 2008
_journal_page_first 2623
_journal_name_full 'Cryst.Growth Des. '
loop_
_publ_author_name
"Hongxun Yang"
"Jingxiang Lin"
"Jiutong Chen"
"Xiandong Zhu"
"Shuiying Gao"
"Rong Cao"
_chemical_name_systematic
;
catena-(bis(oxonium) 
bis(\m~9~-phosphato)-bis(\m~5~-phosphato)-octatriacontakis(\m~2~-oxo)-hexakis(
2,2'-bipyridine)-diaqua-hexadecaoxo-di-copper(i)-tetra-copper(ii)-octadeca-tun
gsten)
;
_cell_volume  10988.953
_exptl_crystal_colour 'blue'
_exptl_crystal_density_diffrn 3.593
_exptl_special_details
;
magnetic properties

;
_exptl_crystal_description 'prism'
_diffrn_ambient_temperature 293
_refine_special_details
;
One bipyridine group is equally disordered over two sites.

;
#These two values have been output from a single CSD field.
_refine_ls_R_factor_gt 0.0505
_refine_ls_wR_factor_gt 0.0505
_symmetry_cell_setting monoclinic
_symmetry_space_group_name_H-M 'C 2/c'
_symmetry_Int_Tables_number 15
loop_
_symmetry_equiv_pos_site_id
_symmetry_equiv_pos_as_xyz
1 x,y,z
2 1/2+x,1/2+y,z
3 -x,y,1/2-z
4 1/2-x,1/2+y,1/2-z
5 -x,-y,-z
6 -1/2-x,-1/2-y,-z
7 x,-y,-1/2+z
8 -1/2+x,-1/2-y,-1/2+z
_cell_length_a 23.2312(16)
_cell_length_b 17.1912(10)
_cell_length_c 28.154(2)
_cell_angle_alpha 90
_cell_angle_beta 102.225(3)
_cell_angle_gamma 90
_cell_formula_units_Z 4
loop_
_atom_type_symbol
_atom_type_radius_bond
C 0.68
H 0.23
Cu 1.41
N 0.68
O 0.70
P 1.05
W 1.37
loop_
_atom_site_label
_atom_site_type_symbol
_atom_site_fract_x
_atom_site_fract_y
_atom_site_fract_z
W1 W 0.54907(2) 0.31692(3) 0.439228(18)
W2 W 0.40111(2) 0.31556(3) 0.398701(18)
W3 W 0.47475(2) 0.14607(3) 0.419093(18)
W4 W 0.56957(2) 0.08452(3) 0.334297(18)
W5 W 0.41724(2) 0.44070(3) 0.295189(18)
W6 W 0.64428(2) 0.25333(3) 0.356228(19)
W7 W 0.56484(2) 0.43969(3) 0.334422(18)
W8 W 0.33541(2) 0.25605(3) 0.272492(19)
W9 W 0.40815(2) 0.08519(3) 0.293917(19)
Cu1 Cu 0.05090(8) 0.23233(14) 0.39613(7)
Cu2 Cu 0.27291(7) 0.37320(9) 0.45996(6)
Cu3 Cu 0.20384(7) 0.32997(9) 0.55005(6)
P1 P 0.48920(12) 0.25983(16) 0.31792(10)
P2 P 0.18413(14) 0.23884(19) 0.45077(12)
O1 O 0.4709(4) 0.3481(5) 0.4435(3)
O2 O 0.5289(4) 0.2153(5) 0.4598(3)
O3 O 0.4121(3) 0.2135(5) 0.4255(4)
O4 O 0.3651(4) 0.3581(5) 0.2691(3)
O5 O 0.4128(3) 0.3995(5) 0.3587(3)
O6 O 0.3712(4) 0.5167(5) 0.2945(3)
O7 O 0.4691(4) 0.0724(5) 0.4590(3)
O8 O 0.4333(4) 0.4526(5) 0.2324(3)
O9 O 0.4906(4) 0.0655(5) 0.3034(3)
O10 O 0.3543(4) 0.2699(5) 0.3423(3)
O11 O 0.4357(3) 0.2173(5) 0.2874(3)
O12 O 0.7156(4) 0.2674(5) 0.3856(3)
O13 O 0.5936(4) -0.0069(5) 0.3548(3)
O14 O 0.4895(4) 0.4895(5) 0.3244(3)
O15 O 0.6377(4) 0.1436(5) 0.3645(3)
O16 O 0.6188(3) 0.3572(5) 0.3379(3)
O17 O 0.3379(4) 0.1458(5) 0.2819(3)
O18 O 0.3501(4) 0.3507(6) 0.4297(3)
O19 O 0.4230(4) 0.1098(5) 0.3610(3)
O20 O 0.4916(3) 0.3449(5) 0.3027(3)
O21 O 0.5926(4) 0.0870(5) 0.2749(3)
O22 O 0.5469(3) 0.2169(5) 0.3177(3)
O23 O 0.6591(4) 0.2399(5) 0.2930(3)
O24 O 0.5884(4) 0.3527(6) 0.4930(3)
O25 O 0.6076(4) 0.2691(5) 0.4103(3)
O26 O 0.4810(4) 0.2600(4) 0.3721(3)
O27 O 0.3808(4) -0.0061(5) 0.2971(4)
O28 O 0.2622(4) 0.2713(5) 0.2641(3)
O29 O 0.5362(4) 0.1107(4) 0.3896(3)
O30 O 0.5499(4) 0.3999(5) 0.3956(3)
O31 O 0.6096(4) 0.5144(5) 0.3584(3)
O32 O 0.1363(4) 0.2359(6) 0.4047(4)
O33 O 0.1671(4) 0.2952(6) 0.4867(3)
O34 O 0.2427(4) 0.2654(5) 0.4371(3)
O35 O 0.1992(4) 0.1578(5) 0.4737(3)
O36 O 0.0477(6) 0.2749(16) 0.4622(7)
N1 N 0.2831(5) 0.4825(6) 0.4832(4)
N2 N 0.2423(5) 0.4284(7) 0.3966(4)
N3 N 0.1672(5) 0.4351(7) 0.5342(4)
N4 N 0.2300(5) 0.3786(6) 0.6148(4)
C1 C 0.2297(8) 0.3934(10) 0.3528(6)
H1 H 0.22660 0.33950 0.35160
C2 C 0.2214(8) 0.4333(13) 0.3105(8)
H2 H 0.21230 0.40740 0.28090
C3 C 0.2268(6) 0.5137(10) 0.3122(6)
H3 H 0.22110 0.54280 0.28370
C4 C 0.2406(6) 0.5494(9) 0.3565(6)
H4 H 0.24590 0.60300 0.35850
C5 C 0.2469(5) 0.5046(8) 0.3990(5)
C6 C 0.2643(6) 0.5371(8) 0.4483(6)
C7 C 0.2620(6) 0.6169(8) 0.4597(7)
H5 H 0.24880 0.65350 0.43550
C8 C 0.2801(7) 0.6390(9) 0.5079(7)
H6 H 0.27980 0.69100 0.51700
C9 C 0.2981(6) 0.5822(9) 0.5417(6)
H7 H 0.30920 0.59620 0.57430
C10 C 0.3006(6) 0.5057(8) 0.5294(5)
H8 H 0.31470 0.46930 0.55350
C11 C 0.1388(6) 0.4602(9) 0.4917(5)
H9 H 0.13300 0.42610 0.46550
C12 C 0.1170(7) 0.5352(12) 0.4843(7)
H10 H 0.09710 0.55060 0.45350
C13 C 0.1249(9) 0.5864(12) 0.5220(9)
H11 H 0.11080 0.63710 0.51820
C14 C 0.1540(8) 0.5597(10) 0.5648(8)
H12 H 0.15960 0.59310 0.59130
C15 C 0.1762(6) 0.4848(9) 0.5719(5)
C16 C 0.2149(5) 0.4540(8) 0.6174(5)
C17 C 0.2347(6) 0.4994(9) 0.6564(6)
H13 H 0.22310 0.55120 0.65630
C18 C 0.2723(6) 0.4683(9) 0.6966(6)
H14 H 0.28720 0.49880 0.72370
C19 C 0.2870(6) 0.3905(11) 0.6952(6)
H15 H 0.31090 0.36690 0.72200
C20 C 0.2659(7) 0.349(1) 0.6542(6)
H16 H 0.27710 0.29710 0.65340
C21 C -0.0730(9) 0.2322(12) 0.4101(9)
H17 H -0.05660 0.21620 0.44160
C22 C -0.1341(10) 0.2398(11) 0.3940(9)
H18 H -0.15980 0.22610 0.41390
N5 N -0.0387(7) 0.2491(15) 0.3778(7)
C23 C -0.1550(13) 0.2682(15) 0.3477(8)
H19 H -0.19550 0.27050 0.33600
C24 C -0.1213(11) 0.2915(16) 0.3202(11)
H20 H -0.13760 0.31390 0.29030
C25 C -0.0599(10) 0.2836(14) 0.3346(9)
N6 N 0.0415(7) 0.3013(9) 0.3334(5)
C26 C -0.0165(6) 0.3169(10) 0.3107(6)
C27 C -0.0287(6) 0.3577(11) 0.2671(6)
H21? H -0.06750 0.36820 0.25190
C28 C 0.0172(8) 0.3829(11) 0.2462(5)
H22? H 0.00900 0.41020 0.21700
C29 C -0.0752(7) 0.3673(12) 0.2311(6)
H23 H -0.10580 0.38410 0.24510
C30 C 0.0874(5) 0.3265(11) 0.3125(6)
H24 H 0.12620 0.31600 0.32770
C31? C -0.0730(9) 0.2322(12) 0.4101(9)
H25? H -0.05670 0.23740 0.44310
C32? C -0.1341(10) 0.2398(11) 0.3940(9)
H26? H -0.15690 0.24990 0.41680
N7? N -0.0379(7) 0.2178(13) 0.3800(7)
C33? C -0.1614(11) 0.2330(13) 0.3465(8)
H27? H -0.20170 0.23940 0.33490
C34? C -0.1257(11) 0.2170(17) 0.3202(12)
H28? H -0.14190 0.20780 0.28750
C35? C -0.0649(10) 0.2114(15) 0.3340(9)
N8? N 0.0349(7) 0.1900(9) 0.3283(4)
C36? C -0.0241(6) 0.1856(10) 0.3050(6)
C37? C -0.0394(5) 0.1604(11) 0.2571(6)
H29? H -0.07890 0.15750 0.24150
C38? C 0.0042(7) 0.1397(11) 0.2324(4)
H30? H -0.00610 0.12280 0.20040
C39? C 0.0631(6) 0.1441(12) 0.2557(6)
H31? H 0.09230 0.13020 0.23930
C40? C 0.0785(5) 0.1692(11) 0.3037(6)
H32? H 0.11800 0.17220 0.31930
O37 O 0.0483(12) 0.087(2) 0.4427(18)
C29B C 0.0752(7) 0.3673(12) 0.2689(6)
C27B C 0.0287(6) 0.3577(11) 0.2329(6)
C26B C 0.0165(6) 0.3169(10) 0.1893(6)
C25B C 0.0599(10) 0.2836(14) 0.1654(9)
N5B N 0.0387(7) 0.2491(15) 0.1222(7)
C21B C 0.0730(9) 0.2322(12) 0.0899(9)
H17B H 0.05660 0.21620 0.05840
C22B C 0.1341(10) 0.2398(11) 0.1060(9)
H18B H 0.15980 0.22610 0.08610
C23B C 0.1550(13) 0.2682(15) 0.1523(8)
H19B H 0.19550 0.27050 0.16400
C24B C 0.1213(11) 0.2915(16) 0.1798(11)
H20B H 0.13760 0.31390 0.20970
N6B N -0.0415(7) 0.3013(9) 0.1666(5)
C30B C -0.0874(5) 0.3265(11) 0.1875(6)
C28B C -0.0172(8) 0.3829(11) 0.2538(5)
H23B H 0.10580 0.38410 0.25490
H24B H -0.12620 0.31600 0.17230
O8B O 0.5667(4) 0.4526(5) 0.2676(3)
O23B O 0.3409(4) 0.2399(5) 0.2070(3)
O21B O 0.4074(4) 0.0870(5) 0.2251(3)
W4B W 0.43043(2) 0.08452(3) 0.165703(18)
W5B W 0.58276(2) 0.44070(3) 0.204811(18)
W6B W 0.35572(2) 0.25333(3) 0.143772(19)
W7B W 0.43516(2) 0.43969(3) 0.165578(18)
W8B W 0.66459(2) 0.25605(3) 0.227508(19)
W9B W 0.59185(2) 0.08519(3) 0.206083(19)
P2E P 0.31587(14) 0.26116(19) 0.54923(12)
O32E O 0.3637(4) 0.2641(6) 0.5953(4)
O33E O 0.3329(4) 0.2048(6) 0.5133(3)
O34E O 0.2573(4) 0.2346(5) 0.5629(3)
O35E O 0.3008(4) 0.3422(5) 0.5263(3)
O9B O 0.5094(4) 0.0655(5) 0.1966(3)
O13B O 0.4064(4) -0.0069(5) 0.1452(3)
O15B O 0.3623(4) 0.1436(5) 0.1355(3)
P1B P 0.51080(12) 0.25983(16) 0.18208(10)
O11B O 0.5643(3) 0.2173(5) 0.2126(3)
O20B O 0.5084(3) 0.3449(5) 0.1973(3)
O22B O 0.4531(3) 0.2169(5) 0.1823(3)
O26B O 0.5190(4) 0.2600(4) 0.1279(3)
O29B O 0.4638(4) 0.1107(4) 0.1104(3)
O4B O 0.6349(4) 0.3581(5) 0.2309(3)
O6B O 0.6288(4) 0.5167(5) 0.2055(3)
O14B O 0.5105(4) 0.4895(5) 0.1756(3)
O5B O 0.5872(3) 0.3995(5) 0.1413(3)
O12B O 0.2844(4) 0.2674(5) 0.1144(3)
O16B O 0.3812(3) 0.3572(5) 0.1621(3)
O25B O 0.3924(4) 0.2691(5) 0.0897(3)
O31B O 0.3904(4) 0.5144(5) 0.1416(3)
O30B O 0.4501(4) 0.3999(5) 0.1044(3)
O17B O 0.6621(4) 0.1458(5) 0.2181(3)
O28B O 0.7378(4) 0.2713(5) 0.2359(3)
O10B O 0.6457(4) 0.2699(5) 0.1577(3)
O27B O 0.6192(4) -0.0061(5) 0.2029(4)
O19B O 0.5770(4) 0.1098(5) 0.1390(3)
W1B W 0.45093(2) 0.31692(3) 0.060772(18)
W2B W 0.59889(2) 0.31556(3) 0.101299(18)
W3B W 0.52525(2) 0.14607(3) 0.080907(18)
Cu1E Cu 0.44910(8) 0.26767(14) 0.60387(7)
Cu2E Cu 0.22709(7) 0.12680(9) 0.54004(6)
Cu3E Cu 0.29616(7) 0.17003(9) 0.44995(6)
O1B O 0.5291(4) 0.3481(5) 0.0565(3)
O2B O 0.4711(4) 0.2153(5) 0.0402(3)
O24B O 0.4116(4) 0.3527(6) 0.0070(3)
O3B O 0.5879(3) 0.2135(5) 0.0745(4)
O18B O 0.6499(4) 0.3507(6) 0.0703(3)
O7B O 0.5309(4) 0.0724(5) 0.0410(3)
O36E O 0.4523(6) 0.2251(16) 0.5378(7)
N1E N 0.2169(5) 0.0175(6) 0.5168(4)
N2E N 0.2577(5) 0.0716(7) 0.6034(4)
C1E C 0.2703(8) 0.1066(10) 0.6472(6)
H1E H 0.27340 0.16050 0.64840
C2E C 0.2786(8) 0.0667(13) 0.6895(8)
H2E H 0.28770 0.09260 0.71910
C3E C 0.2732(6) -0.0137(10) 0.6878(6)
H3E H 0.27890 -0.04280 0.71630
C4E C 0.2594(6) -0.0494(9) 0.6435(6)
H4E H 0.25410 -0.10300 0.64150
C5E C 0.2531(5) -0.0046(8) 0.6010(5)
C6E C 0.2357(6) -0.0371(8) 0.5517(6)
C7E C 0.2380(6) -0.1169(8) 0.5403(7)
H5E H 0.25120 -0.15350 0.56450
C8E C 0.2199(7) -0.1390(9) 0.4921(7)
H6E H 0.22020 -0.19100 0.48300
C9E C 0.2019(6) -0.0822(9) 0.4583(6)
H7E H 0.19080 -0.09620 0.42570
C10E C 0.1994(6) -0.0057(8) 0.4706(5)
H8E H 0.18530 0.03070 0.44650
N3E N 0.3328(5) 0.0649(7) 0.4658(4)
N4E N 0.2700(5) 0.1214(6) 0.3852(4)
C11E C 0.3612(6) 0.0398(9) 0.5083(5)
H9E H 0.36700 0.07390 0.53450
C12E C 0.3830(7) -0.0352(12) 0.5157(7)
H10E H 0.40290 -0.05060 0.54650
C13E C 0.3751(9) -0.0864(12) 0.4780(9)
H11E H 0.38920 -0.13710 0.48180
C14E C 0.3460(8) -0.0597(10) 0.4352(8)
H12E H 0.34040 -0.09310 0.40870
C15E C 0.3238(6) 0.0152(9) 0.4281(5)
C16E C 0.2851(5) 0.0460(8) 0.3826(5)
C17E C 0.2653(6) 0.0006(9) 0.3436(6)
H13E H 0.27690 -0.05120 0.34370
C18E C 0.2277(6) 0.0317(9) 0.3034(6)
H14E H 0.21280 0.00120 0.27630
C19E C 0.2130(6) 0.1095(11) 0.3048(6)
H15E H 0.18910 0.13310 0.27800
C20E C 0.2341(7) 0.151(1) 0.3458(6)
H16E H 0.22290 0.20290 0.34660
Cu1B Cu -0.05090(8) 0.23233(14) 0.10387(7)
N5E N 0.5387(7) 0.2509(15) 0.6222(7)
N6E N 0.4585(7) 0.1987(9) 0.6666(5)
O18E O 0.1499(4) 0.1493(6) 0.5703(3)
Cu2B Cu 0.72709(7) 0.37320(9) 0.04004(6)
C26E C 0.5165(6) 0.1831(10) 0.6893(6)
C30E C 0.4126(5) 0.1735(11) 0.6875(6)
C25E C 0.5599(10) 0.2164(14) 0.6654(9)
C27E C 0.5287(6) 0.1423(11) 0.7329(6)
C29G C 0.4248(7) 0.1327(12) 0.7311(6)
H24E H 0.37380 0.18400 0.67230
C24E C 0.6213(11) 0.2085(16) 0.6798(11)
C29E C 0.5752(7) 0.1327(12) 0.7689(6)
C28E C 0.4828(8) 0.1171(11) 0.7538(5)
C28G C 0.5172(8) 0.1171(11) 0.7462(5)
C27G C 0.4713(6) 0.1423(11) 0.7671(6)
H23G H 0.39420 0.11590 0.74510
C23E C 0.6550(13) 0.2318(15) 0.6523(8)
H20E H 0.63760 0.18610 0.70970
C30G C 0.5874(5) 0.1735(11) 0.8125(6)
H23E H 0.60580 0.11590 0.75490
C26G C 0.4835(6) 0.1831(10) 0.8107(6)
C22E C 0.6341(10) 0.2602(11) 0.6060(9)
H19E H 0.69550 0.22950 0.66400
N6G N 0.5415(7) 0.1987(9) 0.8334(5)
H24G H 0.62620 0.18400 0.82770
C25G C 0.4401(10) 0.2164(14) 0.8346(9)
C21E C 0.5730(9) 0.2678(12) 0.5899(9)
H18E H 0.65980 0.27390 0.58610
Cu1G Cu 0.55090(8) 0.26767(14) 0.89613(7)
N5G N 0.4613(7) 0.2509(15) 0.8778(7)
C24G C 0.3787(11) 0.2085(16) 0.8202(11)
H17E H 0.55660 0.28380 0.55840
C21G C 0.4270(9) 0.2678(12) 0.9101(9)
C23G C 0.3450(13) 0.2318(15) 0.8477(8)
H20G H 0.36240 0.18610 0.79030
H17G H 0.44340 0.28380 0.94160
C22G C 0.3659(10) 0.2602(11) 0.8940(9)
H19G H 0.30450 0.22950 0.83600
H18G H 0.34020 0.27390 0.91390
#END
