
#######################################################################
#
#                 Cambridge Crystallographic Data Centre
#                                CCDC
#
#######################################################################
#
# If this CIF has been generated from an entry in the Cambridge
# Structural Database, then it will include bibliographic, chemical,
# crystal, experimental, refinement or atomic coordinate data resulting
# from the CCDC's data processing and validation procedures.
#
#######################################################################

data_CSD_CIF_YOKZEG
_audit_creation_date 2019-07-17
_audit_creation_method CSD-ConQuest-V1
_database_code_CSD YOKZEG
_database_code_depnum_ccdc_archive 'CCDC 1909942'
_chemical_formula_sum 'C142 H162 N32 O35 Zn6'
_chemical_formula_moiety
;
(C108 H60 N20 O17 Zn6 2-)n,2(C2 H8 N1 1+),10(C3 H7 N1 O1),8(H2 O1)
;
_journal_coden_Cambridge 1290
_journal_volume 2019
_journal_year 2019
_journal_page_first 4205
_journal_name_full 'Eur.J.Inorg.Chem. '
loop_
_publ_author_name
"Yong-Liang Huang"
"Pei-Li Qiu"
"Heng Zeng"
"Huan Liu"
"Dong Luo"
"Yan-Yan Li"
"Weigang Lu"
"Dan Li"
_chemical_name_systematic
;
catena-[bis(dimethylammonium) 
bis(\m-4,4',4'',4'''-(pyrene-1,3,6,8-tetrayl)tetrabenzoato)-(\m-oxido)-tetraki
s(\m-6-aminopurinyl)-hexa-zinc N,N-dimethylformamide solvate octahydrate]
;
_cell_volume  14092.519
_exptl_crystal_colour 'light yellow'
_exptl_crystal_density_diffrn 1.085
_exptl_crystal_description 'block'
_diffrn_ambient_temperature 100
_refine_special_details
;
The MASK/OLEX2 program has been used to model some disorder.

;
#These two values have been output from a single CSD field.
_refine_ls_R_factor_gt 0.0842
_refine_ls_wR_factor_gt 0.0842
_symmetry_cell_setting orthorhombic
_symmetry_space_group_name_H-M 'C c c a'
_symmetry_Int_Tables_number 68
loop_
_symmetry_equiv_pos_site_id
_symmetry_equiv_pos_as_xyz
1 x,y,z
2 1/2-x,-y,z
3 -x,y,1/2-z
4 1/2+x,-y,1/2-z
5 1/2+x,1/2+y,z
6 -x,1/2-y,z
7 1/2-x,1/2+y,1/2-z
8 x,1/2-y,1/2-z
9 -x,-y,-z
10 -1/2+x,y,-z
11 x,-y,-1/2+z
12 -1/2-x,y,-1/2+z
13 -1/2-x,-1/2-y,-z
14 x,-1/2+y,-z
15 -1/2+x,-1/2-y,-1/2+z
16 -x,-1/2+y,-1/2+z
_cell_length_a 30.7575(11)
_cell_length_b 10.7569(4)
_cell_length_c 42.5942(12)
_cell_angle_alpha 90
_cell_angle_beta 90
_cell_angle_gamma 90
_cell_formula_units_Z 4
loop_
_atom_type_symbol
_atom_type_radius_bond
C 0.68
H 0.23
N 0.68
O 0.68
Zn 1.22
loop_
_atom_site_label
_atom_site_type_symbol
_atom_site_fract_x
_atom_site_fract_y
_atom_site_fract_z
Zn1 Zn 0.50000 -0.25000 0.36266(2)
Zn2 Zn 0.46056(2) 0.13424(6) 0.27166(2)
O1 O 0.50000 0.25000 0.25000
O2 O 0.41838(14) 0.2269(4) 0.29557(10)
N1 N 0.52011(14) -0.1177(3) 0.33211(8)
N2 N 0.50046(13) 0.0260(4) 0.29578(9)
O3 O 0.44565(14) 0.3044(5) 0.61883(9)
N3 N 0.56287(13) 0.0141(4) 0.2619(1)
N4 N 0.61544(19) -0.1329(6) 0.27919(15)
C1 C 0.49067(16) -0.0368(5) 0.32268(11)
H1 H 0.46438 -0.02322 0.33388
C2 C 0.53926(14) -0.0176(4) 0.28766(11)
O4 O 0.39659(19) 0.0511(5) 0.31394(14)
C3 C 0.55218(16) -0.1062(5) 0.30959(11)
N5 N 0.6078(2) -0.2492(5) 0.32598(13)
H2 H 0.58690 -0.28058 0.33694
H3 H 0.62022 -0.30767 0.31542
C4 C 0.3957(2) 0.1622(7) 0.31389(13)
C5 C 0.5919(2) -0.1640(6) 0.30550(15)
C6 C 0.6001(2) -0.0530(7) 0.25995(15)
H4 H 0.61722 -0.03853 0.24173
C7 C 0.3692(2) 0.2364(8) 0.33710(16)
C8 C 0.4057(3) 0.4132(12) 0.58292(18)
C9 C 0.4448(3) 0.3855(11) 0.60037(16)
C10 C 0.3594(3) 0.3576(9) 0.33277(14)
H5 H 0.37111 0.39988 0.31513
O5 O 0.4783(4) 0.4517(12) 0.59674(18)
C11 C 0.3692(3) 0.3595(12) 0.58857(17)
H6 H 0.36770 0.29717 0.60432
C12 C 0.3159(4) 0.3692(15) 0.37747(15)
C13 C 0.3495(3) 0.1706(12) 0.3615(2)
H7 H 0.35443 0.08420 0.36440
C14 C 0.3334(3) 0.4202(10) 0.35274(17)
H8 H 0.32753 0.50537 0.34861
C15 C 0.4053(4) 0.5029(14) 0.5599(2)
H9 H 0.43082 0.54982 0.55572
C16 C 0.3219(3) 0.2387(13) 0.38174(19)
H10 H 0.30720 0.19718 0.39832
C17 C 0.25000 0.50000 0.3815(2)
H11 H 0.25000 0.50000 0.35920
C18 C 0.28536(8) 0.44699(13) 0.39766(15)
C19 C 0.3313(3) 0.3914(14) 0.57186(19)
H12 H 0.30474 0.36403 0.58087
C20 C 0.32056(11) 0.3942(2) 0.44723(10)
H13 H 0.34431 0.35861 0.43617
C21 C 0.28599(12) 0.44604(19) 0.43078(8)
C22 C 0.25030(9) 0.49956(14) 0.44696(11)
C23 C 0.25028(11) 0.49959(17) 0.47960(11)
C24 C 0.28561(15) 0.4466(2) 0.49605(8)
C25 C 0.32037(12) 0.3945(3) 0.47986(10)
H14 H 0.34399 0.35909 0.49110
C26 C 0.3666(4) 0.5257(17) 0.5424(2)
H15 H 0.36569 0.59022 0.52723
C27 C 0.3281(3) 0.4474(17) 0.54829(18)
C28 C 0.28519(18) 0.4473(3) 0.52915(16)
C29 C 0.25000 0.50000 0.5452(2)
H16 H 0.25000 0.50000 0.56747
O2A O 0.08162(14) 0.7731(4) 0.29557(10)
O3A O 0.05435(14) 0.6956(5) 0.61883(9)
O4A O 0.10341(19) 0.9489(5) 0.31394(14)
C4A C 0.1043(2) 0.8378(7) 0.31389(13)
C7A C 0.1308(2) 0.7636(8) 0.33710(16)
C8A C 0.0943(3) 0.5868(12) 0.58292(18)
C9A C 0.0552(3) 0.6145(11) 0.60037(16)
C10A C 0.1406(3) 0.6424(9) 0.33277(14)
H5A H 0.12889 0.60011 0.31513
O5A O 0.0217(4) 0.5483(12) 0.59674(18)
C11A C 0.1308(3) 0.6405(12) 0.58857(17)
H6A H 0.13230 0.70283 0.60432
C12A C 0.1841(4) 0.6308(15) 0.37747(15)
C13A C 0.1505(3) 0.8294(12) 0.3615(2)
H7A H 0.14557 0.91580 0.36440
C14A C 0.1666(3) 0.5798(10) 0.35274(17)
H8A H 0.17247 0.49463 0.34861
C15A C 0.0947(4) 0.4971(14) 0.5599(2)
H9A H 0.06918 0.45018 0.55572
C16A C 0.1781(3) 0.7613(13) 0.38174(19)
H10A H 0.19280 0.80282 0.39832
C18A C 0.21464(8) 0.55301(13) 0.39766(15)
C19A C 0.1687(3) 0.6086(14) 0.57186(19)
H12A H 0.19526 0.63597 0.58087
C20A C 0.17944(11) 0.6058(2) 0.44723(10)
H13A H 0.15569 0.64139 0.43617
C21A C 0.21401(12) 0.55396(19) 0.43078(8)
C24A C 0.21439(15) 0.5534(2) 0.49605(8)
C25A C 0.17963(12) 0.6055(3) 0.47986(10)
H14A H 0.15601 0.64091 0.49110
C26A C 0.1334(4) 0.4743(17) 0.5424(2)
H15A H 0.13431 0.40978 0.52723
C27A C 0.1719(3) 0.5526(17) 0.54829(18)
C28A C 0.21481(18) 0.5527(3) 0.52915(16)
Zn2A Zn 0.03944(2) 0.86576(6) 0.27166(2)
N1A N -0.02011(14) 1.1177(3) 0.33211(8)
N2A N -0.00046(13) 0.9740(4) 0.29578(9)
N3A N -0.06287(13) 0.9859(4) 0.2619(1)
N4A N -0.11544(19) 1.1329(6) 0.27919(15)
C1A C 0.00933(16) 1.0368(5) 0.32268(11)
H1A H 0.03562 1.02322 0.33388
C2A C -0.03926(14) 1.0176(4) 0.28766(11)
C3A C -0.05218(16) 1.1062(5) 0.30959(11)
N5A N -0.1078(2) 1.2492(5) 0.32598(13)
H2A H -0.08690 1.28058 0.33694
H3A H -0.12022 1.30767 0.31542
C5A C -0.0919(2) 1.1640(6) 0.30550(15)
C6A C -0.1001(2) 1.0530(7) 0.25995(15)
H4A H -0.11722 1.03853 0.24173
Zn1B Zn 0.50000 -0.25000 0.13734(2)
Zn2B Zn 0.53944(2) 0.13424(6) 0.22834(2)
O2B O 0.58162(14) 0.2269(4) 0.20443(10)
N1B N 0.47989(14) -0.1177(3) 0.16789(8)
N2B N 0.49954(13) 0.0260(4) 0.20422(9)
O3B O 0.55435(14) 0.3044(5) -0.11883(9)
N3B N 0.43713(13) 0.0141(4) 0.2381(1)
N4B N 0.38456(19) -0.1329(6) 0.22081(15)
C1B C 0.50933(16) -0.0368(5) 0.17732(11)
H1B H 0.53562 -0.02322 0.16612
C2B C 0.46074(14) -0.0176(4) 0.21234(11)
O4B O 0.60341(19) 0.0511(5) 0.18606(14)
C3B C 0.44782(16) -0.1062(5) 0.19041(11)
N5B N 0.3922(2) -0.2492(5) 0.17402(13)
H2B H 0.41310 -0.28058 0.16306
H3B H 0.37978 -0.30767 0.18458
C4B C 0.6043(2) 0.1622(7) 0.18611(13)
C5B C 0.4081(2) -0.1640(6) 0.19450(15)
C6B C 0.3999(2) -0.0530(7) 0.24005(15)
H4B H 0.38278 -0.03853 0.25827
C7B C 0.6308(2) 0.2364(8) 0.16290(16)
C8B C 0.5943(3) 0.4132(12) -0.08292(18)
C9B C 0.5552(3) 0.3855(11) -0.10037(16)
C10B C 0.6406(3) 0.3576(9) 0.16723(14)
H5B H 0.62889 0.39988 0.18487
O5B O 0.5217(4) 0.4517(12) -0.09674(18)
C11B C 0.6308(3) 0.3595(12) -0.08857(17)
H6B H 0.63230 0.29717 -0.10432
C12B C 0.6841(4) 0.3692(15) 0.12253(15)
C13B C 0.6505(3) 0.1706(12) 0.1385(2)
H7B H 0.64557 0.08420 0.13560
C14B C 0.6666(3) 0.4202(10) 0.14726(17)
H8B H 0.67247 0.50537 0.15139
C15B C 0.5947(4) 0.5029(14) -0.0599(2)
H9B H 0.56918 0.54982 -0.05572
C16B C 0.6781(3) 0.2387(13) 0.11826(19)
H10B H 0.69280 0.19718 0.10168
C17B C 0.75000 0.50000 0.1185(2)
H11B H 0.75000 0.50000 0.14080
C18B C 0.71464(8) 0.44699(13) 0.10234(15)
C19B C 0.6687(3) 0.3914(14) -0.07186(19)
H12B H 0.69526 0.36403 -0.08087
C20B C 0.67944(11) 0.3942(2) 0.05277(10)
H13B H 0.65569 0.35861 0.06383
C21B C 0.71401(12) 0.44604(19) 0.06922(8)
C22B C 0.74970(9) 0.49956(14) 0.05304(11)
C23B C 0.74972(11) 0.49959(17) 0.02040(11)
C24B C 0.71439(15) 0.4466(2) 0.00395(8)
C25B C 0.67963(12) 0.3945(3) 0.02014(10)
H14B H 0.65600 0.35909 0.00890
C26B C 0.6334(4) 0.5257(17) -0.0424(2)
H15B H 0.63431 0.59022 -0.02723
C27B C 0.6719(3) 0.4474(17) -0.04829(18)
C28B C 0.71481(18) 0.4473(3) -0.02915(16)
C29B C 0.75000 0.50000 -0.0452(2)
H16B H 0.75000 0.50000 -0.06747
O2C O 0.91838(14) 0.7731(4) 0.20443(10)
O3C O 0.94565(14) 0.6956(5) -0.11883(9)
O4C O 0.89659(19) 0.9489(5) 0.18606(14)
C4C C 0.8957(2) 0.8378(7) 0.18611(13)
C7C C 0.8692(2) 0.7636(8) 0.16290(16)
C8C C 0.9057(3) 0.5868(12) -0.08292(18)
C9C C 0.9448(3) 0.6145(11) -0.10037(16)
C10C C 0.8594(3) 0.6424(9) 0.16723(14)
H5C H 0.87111 0.60011 0.18487
O5C O 0.9783(4) 0.5483(12) -0.09674(18)
C11C C 0.8692(3) 0.6405(12) -0.08857(17)
H6C H 0.86770 0.70283 -0.10432
C12C C 0.8159(4) 0.6308(15) 0.12253(15)
C13C C 0.8495(3) 0.8294(12) 0.1385(2)
H7C H 0.85443 0.91580 0.13560
C14C C 0.8334(3) 0.5798(10) 0.14726(17)
H8C H 0.82753 0.49463 0.15139
C15C C 0.9053(4) 0.4971(14) -0.0599(2)
H9C H 0.93082 0.45018 -0.05572
C16C C 0.8219(3) 0.7613(13) 0.11826(19)
H10C H 0.80720 0.80282 0.10168
C18C C 0.78536(8) 0.55301(13) 0.10234(15)
C19C C 0.8313(3) 0.6086(14) -0.07186(19)
H12C H 0.80474 0.63597 -0.08087
C20C C 0.82056(11) 0.6058(2) 0.05277(10)
H13C H 0.84431 0.64139 0.06383
C21C C 0.78599(12) 0.55396(19) 0.06922(8)
C24C C 0.78561(15) 0.5534(2) 0.00395(8)
C25C C 0.82037(12) 0.6055(3) 0.02014(10)
H14C H 0.84400 0.64091 0.00890
C26C C 0.8666(4) 0.4743(17) -0.0424(2)
H15C H 0.86569 0.40978 -0.02723
C27C C 0.8281(3) 0.5526(17) -0.04829(18)
C28C C 0.78519(18) 0.5527(3) -0.02915(16)
Zn2E Zn 0.53944(2) -0.63424(6) 0.27166(2)
N1E N 0.47989(14) -0.3823(3) 0.33211(8)
N2E N 0.49954(13) -0.5260(4) 0.29578(9)
N3E N 0.43713(13) -0.5141(4) 0.2619(1)
N4E N 0.38456(19) -0.3671(6) 0.27919(15)
C1E C 0.50933(16) -0.4632(5) 0.32268(11)
H1E H 0.53562 -0.47678 0.33388
C2E C 0.46074(14) -0.4824(4) 0.28766(11)
C3E C 0.44782(16) -0.3938(5) 0.30959(11)
N5E N 0.3922(2) -0.2508(5) 0.32598(13)
H2E H 0.41310 -0.21942 0.33694
H3E H 0.37978 -0.19233 0.31542
C5E C 0.4081(2) -0.3360(6) 0.30550(15)
C6E C 0.3999(2) -0.4470(7) 0.25995(15)
H4E H 0.38278 -0.46147 0.24173
Zn1A Zn 0.00000 1.25000 0.36266(2)
Zn1H Zn 0.50000 0.25000 0.63734(2)
Zn1I Zn 0.00000 0.75000 0.63734(2)
Zn1J Zn 0.50000 0.25000 -0.13734(2)
Zn1K Zn 1.00000 0.75000 -0.13734(2)
Zn2C Zn -0.03944(2) 0.86576(6) 0.22834(2)
Zn2C* Zn 0.96056(2) 0.86576(6) 0.22834(2)
Zn2E* Zn 0.53944(2) 0.36576(6) 0.27166(2)
Zn2G Zn 0.46056(2) -0.63424(6) 0.22834(2)
Zn2G* Zn 0.46056(2) 0.36576(6) 0.22834(2)
O1* O 0.50000 -0.75000 0.25000
O1A O 0.00000 0.75000 0.25000
O2E O 0.58162(14) -0.7269(4) 0.29557(10)
N1G N 0.52011(14) -0.3823(3) 0.16789(8)
O3H O 0.55435(14) -0.3044(5) 0.38117(9)
O3J O 0.44565(14) -0.3044(5) 0.11883(9)
O3M O 0.44565(14) -0.1956(5) 0.38117(9)
O3O O 0.55435(14) -0.1956(5) 0.11883(9)
N3C N 0.06287(13) 0.9859(4) 0.2381(1)
N3G N 0.56287(13) -0.5141(4) 0.2381(1)
#END
