
#######################################################################
#
#                 Cambridge Crystallographic Data Centre
#                                CCDC
#
#######################################################################
#
# If this CIF has been generated from an entry in the Cambridge
# Structural Database, then it will include bibliographic, chemical,
# crystal, experimental, refinement or atomic coordinate data resulting
# from the CCDC's data processing and validation procedures.
#
#######################################################################

data_CSD_CIF_YOLSOK
_audit_creation_date 2019-07-17
_audit_creation_method CSD-ConQuest-V1
_database_code_CSD YOLSOK
_database_code_depnum_ccdc_archive 'CCDC 1868129'
_chemical_formula_sum 'C14 H14 Dy1 K1 O14 S2'
_chemical_formula_moiety
;
(C14 H14 Dy1 O14 S2 1-)n,K1 1+
;
_journal_coden_Cambridge 603
_journal_volume 38
_journal_year 2019
_journal_page_first 1194
_journal_name_full 'Jiegou Huaxue(Chin.)(Chin.J.Struct.Chem.) '
loop_
_publ_author_name
"Zhi-Qin Wang"
"Li-Juan Zhou"
"Yu-Ling Wang"
_chemical_name_systematic
;
catena-[potassium 
(\m-3,3'-disulfonato[1,1'-biphenyl]-4,4'-dicarboxylato)-tetra-aqua-dysprosium(
iii) unknown solvate]
;
_cell_volume   1185.116
_exptl_crystal_colour 'colorless'
_exptl_crystal_density_diffrn 1.883
_exptl_crystal_description 'block'
_diffrn_ambient_temperature 293
_refine_special_details
;
Disordered solvent molecules were not modelled and the disordered density was 
taken into account using the SQUEEZE/PLATON procedure.
;
#These two values have been output from a single CSD field.
_refine_ls_R_factor_gt 0.0262
_refine_ls_wR_factor_gt 0.0262
_symmetry_cell_setting triclinic
_symmetry_space_group_name_H-M 'P -1'
_symmetry_Int_Tables_number 2
loop_
_symmetry_equiv_pos_site_id
_symmetry_equiv_pos_as_xyz
1 x,y,z
2 -x,-y,-z
_cell_length_a 6.3950(4)
_cell_length_b 12.8171(9)
_cell_length_c 15.8005(10)
_cell_angle_alpha 109.543(1)
_cell_angle_beta 90.805(1)
_cell_angle_gamma 102.717(1)
_cell_formula_units_Z 2
loop_
_atom_type_symbol
_atom_type_radius_bond
C 0.68
H 0.23
Dy 1.92
K 2.03
O 0.68
S 1.02
loop_
_atom_site_label
_atom_site_type_symbol
_atom_site_fract_x
_atom_site_fract_y
_atom_site_fract_z
Dy1 Dy 0.70997(3) -0.02931(2) 0.19765(2)
S1 S 0.96348(15) 0.16997(8) 0.09517(6)
S2 S 0.72828(15) 0.86055(7) 0.37924(6)
O1 O 1.0512(4) 0.0957(2) 0.26116(19)
O2 O 0.4012(5) 0.0242(3) 0.1487(2)
O3 O 1.3312(6) 0.2363(3) 0.3301(3)
O4 O 0.9500(5) -0.1469(3) 0.14706(18)
O5 O 0.8305(5) 0.0610(2) 0.09420(18)
O6 O 0.6213(4) 0.1140(2) 0.32047(18)
O7 O 0.8877(5) 0.2005(3) 0.02188(18)
O8 O 0.5652(5) -0.1619(3) 0.04949(19)
O9 O 1.1915(5) 0.1737(3) 0.0983(2)
O10 O 0.1179(5) 0.7387(3) 0.2309(3)
O11 O 0.4226(4) 0.8530(2) 0.22667(19)
O12 O 0.5468(5) 0.8986(2) 0.42263(18)
O13 O 0.8953(5) 0.8620(2) 0.44314(18)
O14 O 0.8231(4) 0.9262(2) 0.32300(17)
C1 C 1.0307(6) 0.2848(3) 0.2794(2)
C2 C 0.9268(6) 0.2747(3) 0.1974(2)
C3 C 0.8086(6) 0.3502(3) 0.1925(3)
H1 H 0.74150 0.34180 0.13730
C4 C 0.7877(6) 0.4403(3) 0.2704(3)
C5 C 0.8973(7) 0.4525(3) 0.3506(3)
H2 H 0.89090 0.51320 0.40240
C6 C 1.0162(7) 0.3762(3) 0.3554(3)
H3 H 1.08750 0.38620 0.41030
C7 C 1.1485(6) 0.2002(3) 0.2906(3)
C8 C 0.6614(6) 0.5221(3) 0.2648(3)
C9 C 0.7376(6) 0.6381(3) 0.3152(2)
H4 H 0.86370 0.66240 0.35360
C10 C 0.6273(6) 0.7167(3) 0.3086(2)
C11 C 0.4344(6) 0.6819(3) 0.2520(3)
C12 C 0.3540(7) 0.5661(3) 0.2071(3)
H5 H 0.22190 0.54080 0.17260
C13 C 0.4656(7) 0.4869(3) 0.2124(3)
H6 H 0.40900 0.40970 0.18080
C14 C 0.3150(6) 0.7640(3) 0.2364(3)
K1 K 1.24973(15) 1.00898(9) 0.38905(6)
Dy1* Dy 0.70997(3) 0.97069(2) 0.19765(2)
O11* O 0.4226(4) -0.1470(2) 0.22667(19)
O14* O 0.8231(4) -0.0738(2) 0.32300(17)
#END
