
#######################################################################
#
#                 Cambridge Crystallographic Data Centre
#                                CCDC
#
#######################################################################
#
# If this CIF has been generated from an entry in the Cambridge
# Structural Database, then it will include bibliographic, chemical,
# crystal, experimental, refinement or atomic coordinate data resulting
# from the CCDC's data processing and validation procedures.
#
#######################################################################

data_CSD_CIF_YOMBAE
_audit_creation_date 2009-02-13
_audit_creation_method CSD-ConQuest-V1
_database_code_CSD YOMBAE
_database_code_depnum_ccdc_archive 'CCDC 286416'
_chemical_formula_sum 'C40 H46 Cu1 Mo5 N8 O28 P2'
_chemical_formula_moiety
;
(C10 H8 N2)2n,n(C20 H18 Cu1 Mo5 N4 O23 P2 2-),2n(H3 O1 1+),3n(H2 O1)
;
_journal_coden_Cambridge 971
_journal_volume 10
_journal_year 2008
_journal_page_first 121
_journal_name_full 'Solid State Sciences '
loop_
_publ_author_name
"Guangzhe Li"
"C.Salim"
"H.Hinode"
_chemical_name_systematic
;
catena-(Dioxonium bis(\m~5~-hydrogen 
phosphato)-bis(\m~2~-4,4'-bipyridine)-heptakis(\m~2~-oxo)-octaoxo-copper(ii)-p
enta-molybdenum trihydrate bis(4,4'-bipyridine) clathrate)
;
_cell_volume   5773.931
_exptl_crystal_colour 'black-blue'
_exptl_crystal_density_diffrn 1.946
_exptl_special_details
;
magnetic properties

;
_exptl_crystal_description 'block'
_diffrn_ambient_temperature 293
#These two values have been output from a single CSD field.
_refine_ls_R_factor_gt 0.0723
_refine_ls_wR_factor_gt 0.0723
_symmetry_cell_setting monoclinic
_symmetry_space_group_name_H-M 'C 2/c'
_symmetry_Int_Tables_number 15
loop_
_symmetry_equiv_pos_site_id
_symmetry_equiv_pos_as_xyz
1 x,y,z
2 1/2+x,1/2+y,z
3 -x,y,1/2-z
4 1/2-x,1/2+y,1/2-z
5 -x,-y,-z
6 -1/2-x,-1/2-y,-z
7 x,-y,-1/2+z
8 -1/2+x,-1/2-y,-1/2+z
_cell_length_a 17.667(3)
_cell_length_b 13.669(3)
_cell_length_c 25.067(5)
_cell_angle_alpha 90
_cell_angle_beta 107.479(3)
_cell_angle_gamma 90
_cell_formula_units_Z 4
loop_
_atom_type_symbol
_atom_type_radius_bond
C 0.68
H 0.23
Cu 1.52
Mo 1.42
N 0.68
O 0.68
P 1.05
loop_
_atom_site_label
_atom_site_type_symbol
_atom_site_fract_x
_atom_site_fract_y
_atom_site_fract_z
Mo1 Mo 0.08136(5) 0.49569(7) 0.17231(4)
Mo2 Mo 0.00000 0.35247(11) 0.25000
Mo3 Mo -0.07060(6) 0.73312(7) 0.29104(5)
Cu1 Cu 0.00000 0.50000 0.00000
P1 P 0.09439(16) 0.5688(2) 0.30899(12)
O1 O 0.0898(4) 0.4855(5) 0.2672(3)
O2 O 0.0110(5) 0.3940(6) 0.1802(3)
O3 O 0.0117(4) 0.5935(5) 0.3139(3)
O4 O 0.1281(4) 0.6256(6) 0.1886(3)
O5 O 0.0459(4) 0.5041(5) 0.1003(3)
O6 O 0.1684(5) 0.4337(6) 0.1842(3)
O7 O 0.0789(6) 0.2751(7) 0.2735(4)
O8 O 0.1303(4) 0.6592(6) 0.2924(3)
O9 O 0.00000 0.7714(8) 0.25000
O10 O -0.0192(5) 0.7780(6) 0.3551(4)
O11 O -0.1457(5) 0.8158(6) 0.2703(4)
O12 O 0.1430(4) 0.5347(7) 0.3688(3)
H1 H 0.18880 0.52260 0.36950
O13 O 0.3681(11) 0.6143(18) 0.6609(7)
O14 O 0.2384(8) 0.3181(13) 0.3285(5)
O15 O 0.2918(7) 0.4907(10) 0.3978(5)
N1 N 0.0822(5) 0.6060(6) -0.0009(4)
N2 N 0.0868(5) 0.3996(7) 0.0028(4)
N3 N 0.3869(10) 0.4351(14) 0.5018(8)
N4 N 0.7198(10) 0.3693(16) 0.7341(8)
C1 C 0.1052(8) 0.6179(11) -0.0463(5)
H2 H 0.07620 0.58690 -0.07910
C2 C 0.1681(8) 0.6725(11) -0.0474(6)
H3 H 0.18050 0.67780 -0.08080
C3 C 0.2152(6) 0.7212(8) -0.0006(5)
C4 C 0.1889(9) 0.7097(10) 0.0463(6)
H4 H 0.21650 0.74050 0.07950
C5 C 0.1244(8) 0.6551(10) 0.0447(6)
H5 H 0.10860 0.65140 0.07690
C6 C 0.0853(7) 0.3448(10) -0.0416(5)
H6 H 0.04070 0.34790 -0.07280
C7 C 0.1462(7) 0.2843(10) -0.0430(5)
H7 H 0.14040 0.24520 -0.07440
C8 C 0.2158(7) 0.2792(9) 0.0001(5)
C9 C 0.2165(7) 0.3357(10) 0.0469(5)
H8 H 0.26040 0.33330 0.07860
C10 C 0.1524(7) 0.3955(10) 0.0466(5)
H9 H 0.15530 0.43370 0.07780
C11 C 0.3824(12) 0.4706(18) 0.5515(10)
H10 H 0.33850 0.50400 0.55530
C12 C 0.4474(12) 0.4528(18) 0.5942(10)
H11 H 0.44620 0.47680 0.62860
C13 C 0.5149(12) 0.4050(18) 0.5949(10)
C14 C 0.5142(11) 0.3706(18) 0.5443(9)
H12 H 0.55670 0.33400 0.54040
C15 C 0.4517(11) 0.3897(18) 0.4995(9)
H13 H 0.45420 0.36960 0.46460
C16 C 0.6795(12) 0.4431(18) 0.7312(10)
H14 H 0.69840 0.49240 0.75740
C17 C 0.6077(12) 0.4565(18) 0.6912(10)
H15 H 0.57730 0.51230 0.69050
C18 C 0.5827(12) 0.3821(19) 0.6517(10)
C19 C 0.6225(12) 0.3044(19) 0.6602(10)
H16 H 0.60380 0.24800 0.63980
C20 C 0.6923(12) 0.3060(19) 0.6995(10)
H17 H 0.72450 0.25160 0.70090
Mo1B Mo -0.08136(5) 0.49569(7) 0.32769(4)
Mo3B Mo 0.07060(6) 0.73312(7) 0.20896(5)
Cu1A Cu 0.50000 1.00000 0.00000
Cu1A* Cu 0.50000 0.00000 0.00000
Cu1F Cu 0.00000 0.50000 0.50000
P1B P -0.09439(16) 0.5688(2) 0.19101(12)
O1B O -0.0898(4) 0.4855(5) 0.2328(3)
O2B O -0.0110(5) 0.3940(6) 0.3198(3)
O3B O -0.0117(4) 0.5935(5) 0.1861(3)
O4B O -0.1281(4) 0.6256(6) 0.3114(3)
O5B O -0.0459(4) 0.5041(5) 0.3997(3)
O5D O -0.0459(4) 0.4959(5) -0.1003(3)
O6B O -0.1684(5) 0.4337(6) 0.3158(3)
O7B O -0.0789(6) 0.2751(7) 0.2265(4)
O8B O -0.1303(4) 0.6592(6) 0.2076(3)
O10B O 0.0192(5) 0.7780(6) 0.1449(4)
O11B O 0.1457(5) 0.8158(6) 0.2297(4)
O12B O -0.1430(4) 0.5347(7) 0.1312(3)
H1B H -0.18880 0.52260 0.13050
N1E N 0.4178(5) 0.8940(6) 0.0009(4)
N1D N -0.0822(5) 0.3940(6) 0.0009(4)
N2E N 0.4132(5) 0.1004(7) -0.0028(4)
N2D N -0.0868(5) 0.6004(7) -0.0028(4)
C1E C 0.3948(8) 0.8821(11) 0.0463(5)
H2E H 0.42380 0.91310 0.07910
C2E C 0.3319(8) 0.8275(11) 0.0474(6)
H3E H 0.31950 0.82220 0.08080
C3E C 0.2848(6) 0.7788(8) 0.0006(5)
C4E C 0.3111(9) 0.7903(10) -0.0463(6)
H4E H 0.28350 0.75950 -0.07950
C5E C 0.3756(8) 0.8449(10) -0.0447(6)
H5E H 0.39140 0.84860 -0.07690
C6E C 0.4147(7) 0.1552(10) 0.0416(5)
H6E H 0.45930 0.15210 0.07280
C7E C 0.3538(7) 0.2157(10) 0.0430(5)
H7E H 0.35960 0.25480 0.07440
C8E C 0.2842(7) 0.2208(9) -0.0001(5)
C9E C 0.2835(7) 0.1643(10) -0.0469(5)
H8E H 0.23960 0.16670 -0.07860
C10E C 0.3476(7) 0.1045(10) -0.0466(5)
H9E H 0.34470 0.06630 -0.07780
#END
