
#######################################################################
#
#                 Cambridge Crystallographic Data Centre
#                                CCDC
#
#######################################################################
#
# If this CIF has been generated from an entry in the Cambridge
# Structural Database, then it will include bibliographic, chemical,
# crystal, experimental, refinement or atomic coordinate data resulting
# from the CCDC's data processing and validation procedures.
#
#######################################################################

data_CSD_CIF_YOQDOA
_audit_creation_date 2019-07-19
_audit_creation_method CSD-ConQuest-V1
_database_code_CSD YOQDOA
_database_code_depnum_ccdc_archive 'CCDC 1891664'
_chemical_formula_sum 'C24 H105 Dy2 Fe2 K1 N6 Na2 O107 Te2 W18'
_chemical_formula_moiety
;
(C16 H37 Dy2 Fe2 K1 N2 Na2 O89 Te2 W18 4-)n,4n(C2 H8 N1 1+),18n(H2 O1)
;
_journal_coden_Cambridge 9
_journal_volume 58
_journal_year 2019
_journal_page_first 9706
_journal_name_full 'Inorg.Chem. '
loop_
_publ_author_name
"Jian-Cai Liu"
"Jun-Wei Zhao"
"Yu-Fei Song"
_chemical_name_systematic
;
catena-(tetrakis(dimethylammonium) bis(\m-tellurito)-bis(\m-hydrogen 
pyridine-2,5-dicarboxylato)-tetrakis(\m-aqua)-hexatetracontakis(\m-oxo)-(aceta
to)-nona-aqua-tetradecaoxo-di-dysprosium-di-iron-potassium-di-sodium-octadeca-
tungsten octadecahydrate)
;
_cell_volume   5791.630
_exptl_crystal_colour 'yellow green'
_exptl_crystal_density_diffrn 3.573
_exptl_crystal_description 'lamellar'
_diffrn_ambient_temperature 170
_refine_special_details
;
The SQUEEZE/PLATON program was used to model some disordered cations and 
water molecules.
;
#These two values have been output from a single CSD field.
_refine_ls_R_factor_gt 0.0447
_refine_ls_wR_factor_gt 0.0447
_symmetry_cell_setting triclinic
_symmetry_space_group_name_H-M 'P -1'
_symmetry_Int_Tables_number 2
loop_
_symmetry_equiv_pos_site_id
_symmetry_equiv_pos_as_xyz
1 x,y,z
2 -x,-y,-z
_cell_length_a 13.3027(6)
_cell_length_b 17.6233(8)
_cell_length_c 26.6321(8)
_cell_angle_alpha 108.430(4)
_cell_angle_beta 96.594(3)
_cell_angle_gamma 97.479(4)
_cell_formula_units_Z 2
loop_
_atom_type_symbol
_atom_type_radius_bond
C 0.68
H 0.23
Dy 1.92
Fe 1.52
K 2.03
N 0.68
Na 1.66
O 0.68
Te 1.47
W 1.62
loop_
_atom_site_label
_atom_site_type_symbol
_atom_site_fract_x
_atom_site_fract_y
_atom_site_fract_z
Na1 Na 0.2851(4) 0.1532(3) 0.3048(2)
Na2 Na 0.5409(6) 0.2049(4) 0.2399(3)
W1 W -0.16031(4) -0.05490(3) -0.07848(2)
W2 W 0.38630(4) 0.07083(3) 0.44639(2)
W3 W -0.28027(4) -0.25179(3) -0.10226(2)
W4 W 0.75330(4) 0.08876(3) 0.40053(2)
W5 W 0.15783(4) -0.16716(3) -0.14184(2)
W6 W 0.91534(4) 0.18630(3) 0.51835(2)
W7 W -0.12142(4) -0.21133(3) -0.18589(2)
W8 W 0.06307(5) -0.31321(3) 0.02981(2)
W9 W 0.23443(4) -0.26786(3) -0.05856(2)
W10 W 0.55529(4) 0.28073(3) 0.63029(2)
W11 W 0.43048(4) 0.28011(3) 0.49932(2)
W12 W -0.16464(4) -0.24880(3) 0.03102(2)
W13 W 0.04012(5) -0.35813(3) -0.16730(2)
W14 W 0.52824(4) 0.18560(3) 0.38785(2)
W15 W 0.81147(4) 0.28880(3) 0.63732(2)
W16 W -0.13417(5) -0.40233(3) -0.07577(3)
W17 W 0.79132(4) 0.29233(3) 0.44907(2)
W18 W 0.68457(5) 0.39577(3) 0.57157(2)
Dy1 Dy 0.28188(5) -0.13420(4) 0.09343(2)
Dy2 Dy 0.11819(5) -0.07968(4) 0.37274(2)
Te1 Te 0.64316(6) 0.15170(5) 0.51950(3)
Te2 Te 0.01238(6) -0.17284(4) -0.03838(3)
Fe1 Fe -0.11711(13) -0.03074(10) 0.06699(6)
Fe2 Fe 0.57192(13) -0.07185(10) 0.41233(6)
K1 K 0.4592(4) 0.0724(3) 0.0789(2)
O1 O 0.1184(8) -0.3615(6) 0.0700(4)
O2 O -0.3779(9) -0.0929(8) 0.1231(4)
H1 H -0.42051 -0.08821 0.09987
O3 O 0.9071(8) 0.3306(6) 0.6933(4)
O4 O 0.2855(10) -0.2232(7) 0.1477(5)
O5 O -0.1464(6) -0.0458(5) -0.0087(3)
O6 O -0.2342(6) 0.0188(5) -0.0823(3)
O7 O -0.0302(7) -0.0076(5) -0.0767(3)
O8 O 0.6788(7) -0.1423(5) 0.3870(3)
O9 O 0.8845(6) 0.1083(5) 0.4442(3)
O10 O -0.2847(7) -0.1437(5) -0.0921(3)
O11 O 0.5336(7) 0.1700(5) 0.4750(3)
O12 O 0.6167(7) 0.1125(5) 0.3773(3)
O13 O 0.8701(7) 0.1082(5) 0.5439(3)
O14 O 0.4017(7) 0.0742(5) 0.5150(3)
O15 O 0.1225(7) -0.2095(5) 0.0592(4)
O16 O -0.0455(7) -0.2677(5) -0.0259(3)
O17 O -0.1016(7) -0.1753(5) -0.0877(3)
O18 O 0.8925(7) 0.2699(5) 0.5806(3)
O19 O 0.2637(7) -0.2055(5) -0.1068(3)
O20 O 0.4548(7) 0.2726(5) 0.5680(4)
O21 O 0.2631(7) 0.0129(5) 0.4186(3)
O22 O 0.3430(7) 0.1811(5) 0.4712(3)
O23 O -0.2150(7) -0.3461(5) -0.1105(3)
O24 O -0.0947(7) -0.1459(5) 0.0486(3)
O25 O -0.1650(7) -0.1116(5) -0.1571(3)
O26 O 0.4693(7) -0.0013(5) 0.4253(3)
O27 O -0.1567(8) -0.2285(6) -0.2535(3)
O28 O 0.1157(7) -0.2795(5) -0.1906(3)
O29 O 0.7946(7) 0.1930(5) 0.3917(3)
O30 O 0.4142(7) 0.1087(5) 0.3842(3)
O31 O 0.7464(7) 0.1839(5) 0.4838(3)
O32 O 0.7951(7) 0.3907(5) 0.6205(4)
O33 O 0.6842(7) 0.0243(5) 0.4329(3)
O34 O 0.0553(8) -0.0100(7) 0.3197(4)
O35 O 0.2518(7) -0.1762(5) -0.0033(3)
O36 O -0.2490(7) -0.2622(5) -0.1728(3)
O37 O 0.3435(8) 0.3455(6) 0.5050(4)
O38 O 0.5376(7) 0.1712(5) 0.6068(3)
O39 O -0.2513(7) -0.2327(5) -0.0277(4)
O40 O 0.9128(7) 0.2745(5) 0.4837(4)
O41 O 0.1436(7) -0.0832(4) -0.0841(3)
O42 O 0.4542(7) 0.2667(5) 0.4270(4)
O43 O 0.0171(7) -0.1643(5) -0.1730(3)
O44 O 0.3533(8) 0.0050(7) 0.2454(4)
O45 O 0.6676(7) 0.2578(5) 0.5697(3)
O46 O -0.0384(8) -0.4023(5) -0.1236(4)
O47 O -0.2689(7) -0.0665(5) 0.0700(3)
O48 O 0.7908(7) 0.1817(5) 0.6269(3)
O49 O 0.1510(7) -0.3255(5) -0.0242(4)
O50 O -0.1999(9) -0.5003(6) -0.1030(5)
O51 O -0.4089(8) -0.2950(6) -0.1180(4)
O52 O 0.5989(7) 0.3882(5) 0.6226(4)
O53 O 1.0473(7) 0.1956(6) 0.5288(4)
O54 O -0.0283(8) -0.4108(5) -0.0238(4)
O55 O 0.5630(7) 0.3524(5) 0.5199(3)
O56 O -0.0737(7) -0.3098(6) -0.1835(4)
O57 O -0.0585(7) -0.2901(5) 0.0635(4)
O58 O 0.1658(7) -0.3593(5) -0.1260(4)
O59 O 0.0807(7) -0.2355(5) -0.0909(3)
O60 O 0.6900(7) 0.3013(5) 0.6721(3)
O61 O 0.7726(8) 0.0230(6) 0.3424(4)
O62 O 0.6461(7) 0.2690(5) 0.4216(4)
O63 O 0.2269(8) -0.1233(6) -0.1790(4)
O64 O 0.4012(7) -0.0589(6) 0.1685(4)
O65 O 0.0276(9) -0.4435(6) -0.2224(4)
O66 O 0.4850(8) 0.3052(6) 0.6806(4)
O67 O 0.4994(8) 0.1961(6) 0.3258(3)
O68 O 0.7009(8) 0.4986(6) 0.5822(4)
O69 O -0.2481(7) -0.2430(6) 0.0748(4)
O70 O 0.8376(8) 0.3619(6) 0.4208(4)
O71 O 0.3481(7) -0.3023(6) -0.0521(4)
O72 O 0.3621(10) -0.2517(7) 0.0768(5)
O73 O 0.7618(7) 0.3614(5) 0.5153(4)
O74 O 0.1465(8) 0.0191(7) 0.2610(4)
O75 O -0.2084(7) -0.3634(5) -0.0180(4)
O76 O 0.7532(8) -0.2007(6) 0.3171(4)
H2 H 0.80957 -0.17736 0.33498
O77 O 0.1781(9) -0.0924(7) 0.1603(4)
O78 O 0.4400(8) -0.0890(7) 0.0683(4)
O79 O 0.2333(7) -0.0835(6) 0.3097(4)
O80 O 0.0305(8) -0.1902(6) 0.2910(4)
O81 O -0.0542(8) -0.1192(7) 0.3810(4)
O82 O 0.0639(8) 0.0395(6) 0.4308(4)
O83 O 0.6257(8) 0.0313(6) 0.0247(4)
O84 O 0.1746(10) 0.1657(9) 0.3930(6)
O85 O 0.4627(9) 0.1676(7) 0.0161(5)
O86 O 0.4320(15) 0.3141(11) 0.2580(8)
O87 O 0.3741(12) 0.1354(8) 0.2066(6)
O88 O 0.5683(12) 0.2323(9) 0.1595(6)
N1 N -0.1101(8) -0.0279(6) 0.1475(4)
N2 N 0.5529(8) -0.0890(6) 0.3290(4)
C1 C -0.0260(11) -0.0115(7) 0.1851(5)
H3 H 0.03778 0.00732 0.17810
C2 C -0.0331(11) -0.0223(8) 0.2343(5)
C3 C -0.1272(12) -0.048(1) 0.2454(6)
H4 H -0.13318 -0.05348 0.27859
C4 C -0.2108(12) -0.0652(9) 0.2073(6)
H5 H -0.27529 -0.08263 0.21404
C5 C -0.2009(11) -0.0569(9) 0.1588(6)
C6 C 0.0653(12) -0.0020(9) 0.2745(6)
C7 C -0.2921(11) -0.0742(9) 0.1145(5)
C8 C 0.4889(9) -0.0602(8) 0.3016(5)
H6 H 0.45300 -0.02206 0.32082
C9 C 0.4712(11) -0.0820(7) 0.2473(5)
C10 C 0.5262(11) -0.1399(8) 0.2194(6)
H7 H 0.51649 -0.15720 0.18207
C11 C 0.5945(11) -0.1713(9) 0.2469(6)
H8 H 0.63048 -0.21033 0.22870
C12 C 0.6077(10) -0.1432(8) 0.3020(5)
C13 C 0.6854(11) -0.1656(9) 0.3372(5)
C14 C 0.4020(11) -0.0449(9) 0.2176(5)
C15 C 0.3383(19) -0.2655(13) 0.1207(10)
C16 C 0.3682(18) -0.3421(13) 0.1332(9)
H9 H 0.34107 -0.34601 0.16440
H10 H 0.44165 -0.33670 0.13982
H11 H 0.33992 -0.39024 0.10313
O89 O 0.3345(14) 0.3343(10) 0.3646(7)
O90 O 0.1495(7) 0.0587(5) 0.5322(4)
O91 O -0.087(2) -0.4010(16) 0.2167(11)
O92 O 0.2621(12) -0.2349(8) 0.2459(5)
O93 O 0.0285(12) -0.2075(7) 0.1786(5)
N3 N -0.2556(17) -0.4484(11) -0.2298(8)
H12 H -0.21533 -0.40781 -0.20321
H13 H -0.32066 -0.44688 -0.22519
C17 C -0.241(2) -0.4398(17) -0.2832(12)
H14 H -0.25777 -0.38899 -0.28434
H15 H -0.17040 -0.44125 -0.28770
H16 H -0.28474 -0.48366 -0.31156
C18 C -0.229(3) -0.5261(11) -0.2295(11)
H17 H -0.17758 -0.53970 -0.25166
H18 H -0.28933 -0.56765 -0.24327
H19 H -0.20308 -0.52212 -0.19346
N4 N 0.1564(16) -0.5136(12) -0.0398(9)
H20 H 0.14854 -0.56039 -0.03332
H21 H 0.11692 -0.48339 -0.02020
C19 C 0.2656(19) -0.4723(14) -0.0148(9)
H22 H 0.27653 -0.46694 0.02249
H23 H 0.31235 -0.50431 -0.03278
H24 H 0.27750 -0.41944 -0.01831
C20 C 0.118(2) -0.5295(14) -0.0846(10)
H25 H 0.04758 -0.55564 -0.08940
H26 H 0.11949 -0.48058 -0.09336
H27 H 0.15434 -0.56545 -0.10783
C21 C 0.608(5) 0.424(4) 0.3811(11)
H28 H 0.66287 0.39565 0.36969
H29 H 0.54349 0.39177 0.36102
H30 H 0.61752 0.47506 0.37493
C22 C 0.532(3) 0.481(2) 0.4665(14)
H31 H 0.53763 0.47848 0.50215
H32 H 0.46426 0.45560 0.44713
H33 H 0.54436 0.53684 0.46832
N5 N 0.6087(18) 0.4384(13) 0.4386(9)
H34 H 0.67052 0.46608 0.45577
H35 H 0.60303 0.39015 0.44309
O94 O 0.0948(15) -0.3479(11) 0.1772(8)
O95 O -0.425(2) -0.4097(16) -0.0392(11)
Na1A Na -0.2851(4) -0.1532(3) -0.3048(2)
Dy1A Dy -0.28188(5) 0.13420(4) -0.09343(2)
Dy2A Dy 0.88181(5) 0.07968(4) 0.62726(2)
Fe1A Fe 0.11711(13) 0.03074(10) -0.06699(6)
Fe2A Fe 0.42808(13) 0.07185(10) 0.58767(6)
K1A K -0.4592(4) -0.0724(3) -0.0789(2)
K1A* K 0.5408(4) -0.0724(3) -0.0789(2)
O6A O 0.2342(6) -0.0188(5) 0.0823(3)
O7A O 0.0302(7) 0.0076(5) 0.0767(3)
O10A O 0.2847(7) 0.1437(5) 0.0921(3)
O13A O 0.1299(7) -0.1082(5) 0.4561(3)
O14A O 0.5983(7) -0.0742(5) 0.4850(3)
O27A O 0.1567(8) 0.2285(6) 0.2535(3)
O38A O 0.4624(7) -0.1712(5) 0.3932(3)
O41A O -0.1436(7) 0.0832(4) 0.0841(3)
O48A O 0.2092(7) -0.1817(5) 0.3731(3)
O83A O 0.3743(8) -0.0313(6) -0.0247(4)
#END
