
#######################################################################
#
#                 Cambridge Crystallographic Data Centre
#                                CCDC
#
#######################################################################
#
# If this CIF has been generated from an entry in the Cambridge
# Structural Database, then it will include bibliographic, chemical,
# crystal, experimental, refinement or atomic coordinate data resulting
# from the CCDC's data processing and validation procedures.
#
#######################################################################

data_CSD_CIF_YOQDIU
_audit_creation_date 2019-07-19
_audit_creation_method CSD-ConQuest-V1
_database_code_CSD YOQDIU
_database_code_depnum_ccdc_archive 'CCDC 1891663'
_chemical_formula_sum 'C24 H105 Fe2 K1 N6 Na2 O107 Tb2 Te2 W18'
_chemical_formula_moiety
;
(C16 H37 Fe2 K1 N2 Na2 O89 Tb2 Te2 W18 4-)n,4n(C2 H8 N1 1+),18n(H2 O1)
;
_journal_coden_Cambridge 9
_journal_volume 58
_journal_year 2019
_journal_page_first 9706
_journal_name_full 'Inorg.Chem. '
loop_
_publ_author_name
"Jian-Cai Liu"
"Jun-Wei Zhao"
"Yu-Fei Song"
_chemical_name_systematic
;
catena-(tetrakis(dimethylammonium) bis(\m-tellurito)-bis(\m-hydrogen 
pyridine-2,5-dicarboxylato)-tetrakis(\m-aqua)-hexatetracontakis(\m-oxo)-(aceta
to)-nona-aqua-tetradecaoxo-di-iron-potassium-di-sodium-di-terbium-octadeca-tun
gsten octadecahydrate)
;
_cell_volume   5836.188
_exptl_crystal_colour 'yellow green'
_exptl_crystal_density_diffrn 3.568
_exptl_crystal_description 'lamellar'
_diffrn_ambient_temperature 170.0
_refine_special_details
;
The SQUEEZE/PLATON program was used to model some disordered cations and 
water molecules.
;
#These two values have been output from a single CSD field.
_refine_ls_R_factor_gt 0.0593
_refine_ls_wR_factor_gt 0.0593
_symmetry_cell_setting triclinic
_symmetry_space_group_name_H-M 'P -1'
_symmetry_Int_Tables_number 2
loop_
_symmetry_equiv_pos_site_id
_symmetry_equiv_pos_as_xyz
1 x,y,z
2 -x,-y,-z
_cell_length_a 13.3385(5)
_cell_length_b 17.6697(4)
_cell_length_c 26.6886(9)
_cell_angle_alpha 108.618(2)
_cell_angle_beta 96.541(3)
_cell_angle_gamma 97.094(2)
_cell_formula_units_Z 2
loop_
_atom_type_symbol
_atom_type_radius_bond
C 0.68
H 0.23
Fe 1.52
K 2.03
N 0.68
Na 1.66
O 0.68
Tb 1.94
Te 1.47
W 1.62
loop_
_atom_site_label
_atom_site_type_symbol
_atom_site_fract_x
_atom_site_fract_y
_atom_site_fract_z
Na1 Na 0.2836(5) 0.1518(5) 0.3049(3)
Na2 Na 0.5363(7) 0.2025(6) 0.2399(4)
W1 W -0.15954(5) -0.05402(4) -0.07841(2)
W2 W 0.38641(5) 0.07069(4) 0.44653(2)
W3 W -0.27783(5) -0.25042(5) -0.10286(3)
W4 W 0.75282(5) 0.08811(5) 0.40063(3)
W5 W 0.15875(5) -0.16628(5) -0.14263(3)
W6 W 0.91335(5) 0.18536(5) 0.51844(3)
W7 W -0.11959(5) -0.20962(5) -0.18637(3)
W8 W 0.06497(6) -0.31315(5) 0.02793(3)
W9 W 0.23587(6) -0.26737(5) -0.06022(3)
W10 W 0.55234(5) 0.27976(5) 0.63032(3)
W11 W 0.42890(5) 0.27928(5) 0.49946(3)
W12 W -0.16251(5) -0.24843(5) 0.02983(3)
W13 W 0.04242(6) -0.35657(5) -0.16870(3)
W14 W 0.52765(5) 0.18479(5) 0.38804(3)
W15 W 0.80801(5) 0.28742(5) 0.63744(3)
W16 W -0.13124(6) -0.40121(5) -0.07738(3)
W17 W 0.78922(5) 0.29111(5) 0.44943(3)
W18 W 0.68147(6) 0.39431(5) 0.57192(3)
Tb1 Tb 0.28303(6) -0.13547(6) 0.09278(3)
Tb2 Tb 0.11880(6) -0.07935(6) 0.37252(3)
Te1 Te 0.64185(8) 0.15099(7) 0.51948(4)
Te2 Te 0.01363(8) -0.17230(7) -0.03921(4)
Fe1 Fe -0.11696(16) -0.03114(15) 0.06653(8)
Fe2 Fe 0.57266(16) -0.07178(15) 0.41233(8)
K1 K 0.4578(5) 0.0729(4) 0.0790(3)
O1 O 0.1198(9) -0.3620(9) 0.0677(5)
O2 O -0.3777(10) -0.0916(12) 0.1220(5)
H1 H -0.41975 -0.08678 0.09872
O3 O 0.9018(9) 0.3280(8) 0.6936(5)
O4 O 0.2900(13) -0.2249(10) 0.1478(6)
O5 O -0.1453(8) -0.0457(7) -0.0092(4)
O6 O -0.2333(8) 0.0202(8) -0.0825(5)
O7 O -0.0312(8) -0.0072(7) -0.0762(4)
O8 O 0.6786(8) -0.1421(7) 0.3868(4)
O9 O 0.8865(8) 0.1077(7) 0.4440(4)
O10 O -0.2837(8) -0.1420(7) -0.0928(4)
O11 O 0.5312(8) 0.1695(8) 0.4759(4)
O12 O 0.6160(8) 0.1116(8) 0.3777(4)
O13 O 0.8692(8) 0.1075(8) 0.5431(4)
O14 O 0.4000(8) 0.0739(7) 0.5154(4)
O15 O 0.1236(9) -0.2073(8) 0.0587(4)
O16 O -0.0439(8) -0.2678(7) -0.0274(4)
O17 O -0.1003(8) -0.1747(8) -0.0892(4)
O18 O 0.8901(8) 0.2704(8) 0.5806(4)
O19 O 0.2629(8) -0.2045(8) -0.1087(5)
O20 O 0.4532(9) 0.2730(7) 0.5680(4)
O21 O 0.2641(8) 0.0145(7) 0.4194(4)
O22 O 0.3412(9) 0.1802(8) 0.4714(5)
O23 O -0.2104(9) -0.3445(7) -0.1127(5)
O24 O -0.0940(8) -0.1456(7) 0.0470(4)
O25 O -0.1646(8) -0.1108(7) -0.1569(4)
O26 O 0.4699(9) -0.0016(8) 0.4249(4)
O27 O -0.1540(9) -0.2274(8) -0.2541(4)
O28 O 0.1190(9) -0.2782(8) -0.1909(4)
O29 O 0.7934(8) 0.1917(7) 0.3924(5)
O30 O 0.4143(8) 0.1077(8) 0.3855(4)
O31 O 0.7444(7) 0.1832(7) 0.4835(4)
O32 O 0.7903(8) 0.3878(8) 0.6206(5)
O33 O 0.6843(8) 0.0230(7) 0.4330(4)
O34 O 0.0525(9) -0.0106(10) 0.3193(5)
O35 O 0.2540(9) -0.1765(7) -0.0048(4)
O36 O -0.2466(8) -0.2599(7) -0.1737(4)
O37 O 0.343(1) 0.3457(9) 0.5058(6)
O38 O 0.5336(8) 0.1708(8) 0.6059(4)
O39 O -0.2486(9) -0.2325(8) -0.0293(5)
O40 O 0.9099(9) 0.2735(8) 0.4842(4)
O41 O 0.1464(9) -0.0820(7) -0.0846(4)
O42 O 0.4525(8) 0.2665(8) 0.4274(4)
O43 O 0.0186(8) -0.1615(7) -0.1729(4)
O44 O 0.3542(11) 0.0022(11) 0.2444(5)
O45 O 0.6669(8) 0.2568(7) 0.5702(4)
O46 O -0.0348(10) -0.4023(8) -0.1263(5)
O47 O -0.2686(8) -0.0673(7) 0.0700(4)
O48 O 0.7877(9) 0.1817(8) 0.6268(4)
O49 O 0.1531(9) -0.3259(8) -0.0252(5)
O50 O -0.1932(11) -0.4995(8) -0.1052(6)
O51 O -0.4072(9) -0.2932(9) -0.1191(5)
O52 O 0.5945(9) 0.3859(8) 0.6230(4)
O53 O 1.0474(9) 0.1957(8) 0.5291(5)
O54 O -0.0287(11) -0.4089(8) -0.0256(5)
O55 O 0.5616(8) 0.3505(7) 0.5201(5)
O56 O -0.0712(8) -0.3070(7) -0.1853(4)
O57 O -0.0562(9) -0.2909(8) 0.0609(5)
O58 O 0.1667(9) -0.3585(8) -0.1290(5)
O59 O 0.0809(8) -0.2360(7) -0.0921(4)
O60 O 0.6877(9) 0.3008(7) 0.6725(4)
O61 O 0.7732(9) 0.0208(9) 0.3427(4)
O62 O 0.6461(9) 0.2704(8) 0.4227(5)
O63 O 0.2272(9) -0.1226(9) -0.1799(5)
O64 O 0.4016(9) -0.0606(9) 0.1690(4)
O65 O 0.0308(11) -0.4402(8) -0.2262(5)
O66 O 0.4793(9) 0.3033(9) 0.6814(5)
O67 O 0.5000(9) 0.1961(8) 0.3264(5)
O68 O 0.6953(10) 0.4981(9) 0.5853(5)
O69 O -0.2487(10) -0.2411(10) 0.0747(5)
O70 O 0.8326(10) 0.3607(8) 0.4222(5)
O71 O 0.3521(11) -0.3006(9) -0.0553(5)
O72 O 0.3654(16) -0.2512(11) 0.0736(7)
O73 O 0.7616(8) 0.3599(7) 0.5156(4)
O74 O 0.1466(9) 0.0185(8) 0.2602(4)
O75 O -0.2041(9) -0.3605(8) -0.0186(5)
O76 O 0.7572(9) -0.2028(9) 0.3164(5)
H2 H 0.81430 -0.18091 0.33341
O77 O 0.1782(10) -0.0927(9) 0.1606(5)
O78 O 0.4411(9) -0.0873(10) 0.0677(5)
O79 O 0.2338(10) -0.0845(9) 0.3082(5)
O80 O 0.0318(10) -0.1905(10) 0.2912(5)
O81 O -0.0532(9) -0.1176(9) 0.3812(5)
O82 O 0.0633(9) 0.0401(9) 0.4308(4)
O83 O 0.6258(10) 0.0331(9) 0.0255(5)
O84 O 0.1702(14) 0.1681(14) 0.3958(9)
O85 O 0.4604(11) 0.1659(11) 0.0149(6)
O86 O 0.4304(19) 0.3164(17) 0.2595(10)
O87 O 0.3723(14) 0.1333(12) 0.2066(7)
O88 O 0.5658(19) 0.2356(16) 0.1616(9)
N1 N -0.1105(10) -0.0304(8) 0.1468(5)
N2 N 0.5542(9) -0.0874(9) 0.3292(5)
C1 C -0.0255(13) -0.0126(11) 0.1841(6)
H3 H 0.03735 0.00676 0.17694
C2 C -0.0319(12) -0.0231(11) 0.2334(6)
C3 C -0.1219(14) -0.0498(13) 0.2440(7)
H4 H -0.12481 -0.05901 0.27628
C4 C -0.2140(14) -0.0645(14) 0.2072(8)
H5 H -0.27771 -0.07916 0.21547
C5 C -0.2029(14) -0.0554(14) 0.1571(7)
C6 C 0.0660(14) -0.0014(13) 0.2735(7)
C7 C -0.2898(13) -0.0715(14) 0.1142(8)
C8 C 0.4901(13) -0.0612(11) 0.3024(7)
H6 H 0.45278 -0.02401 0.32156
C9 C 0.4720(12) -0.0836(11) 0.2475(6)
C10 C 0.5271(15) -0.1377(13) 0.2188(8)
H7 H 0.51765 -0.15353 0.18163
C11 C 0.5984(15) -0.1691(12) 0.2464(7)
H8 H 0.63681 -0.20618 0.22807
C12 C 0.6090(12) -0.1426(11) 0.3020(6)
C13 C 0.6857(12) -0.1603(14) 0.3390(8)
C14 C 0.4047(15) -0.0442(14) 0.2180(8)
C15 C 0.339(3) -0.268(2) 0.1221(11)
C16 C 0.365(3) -0.350(2) 0.1273(13)
H9 H 0.30380 -0.38226 0.13050
H10 H 0.41526 -0.33887 0.15861
H11 H 0.39107 -0.37955 0.09611
O89 O 0.3318(19) 0.3311(16) 0.3657(9)
O90 O 0.1489(9) 0.0579(8) 0.5310(4)
O91 O -0.075(2) -0.4042(19) 0.2155(11)
O92 O 0.2604(14) -0.2336(11) 0.2453(6)
O93 O 0.0284(13) -0.2077(12) 0.1762(8)
N3 N -0.2529(19) -0.4439(16) -0.2308(9)
H12 H -0.31782 -0.44085 -0.22687
H13 H -0.21335 -0.40491 -0.20324
C17 C -0.236(2) -0.430(2) -0.2793(12)
H14 H -0.25095 -0.37780 -0.27787
H15 H -0.16546 -0.43201 -0.28342
H16 H -0.27934 -0.47118 -0.30918
C18 C -0.231(3) -0.5229(17) -0.2298(11)
H17 H -0.25250 -0.53206 -0.19869
H18 H -0.15921 -0.52348 -0.22845
H19 H -0.26817 -0.56484 -0.26147
N4 N 0.156(3) -0.515(3) -0.0396(16)
H20 H 0.14869 -0.56409 -0.03614
H21 H 0.11547 -0.48730 -0.01943
C19 C 0.258(2) -0.477(2) -0.0171(12)
H22 H 0.27151 -0.47440 0.01954
H23 H 0.30437 -0.50718 -0.03696
H24 H 0.26794 -0.42297 -0.01864
C20 C 0.123(2) -0.525(2) -0.0860(12)
H25 H 0.05309 -0.55173 -0.09471
H26 H 0.12684 -0.47306 -0.09081
H27 H 0.16326 -0.55727 -0.10913
C21 C 0.616(7) 0.443(5) 0.3811(18)
H28 H 0.55012 0.45106 0.36691
H29 H 0.63334 0.39490 0.35717
H30 H 0.66659 0.48886 0.38464
C22 C 0.539(3) 0.482(3) 0.4622(18)
H31 H 0.54947 0.53485 0.45968
H32 H 0.55017 0.48557 0.49921
H33 H 0.47056 0.45480 0.44606
N5 N 0.612(2) 0.434(2) 0.4340(12)
H34 H 0.67442 0.45151 0.45374
H35 H 0.59389 0.38242 0.42991
O94 O 0.1015(18) -0.3446(16) 0.1774(9)
O95 O -0.423(2) -0.4009(18) -0.0349(10)
Na1A Na -0.2836(5) -0.1518(5) -0.3049(3)
Tb1A Tb -0.28303(6) 0.13547(6) -0.09278(3)
Tb2A Tb 0.88120(6) 0.07935(6) 0.62748(3)
Fe1A Fe 0.11696(16) 0.03114(15) -0.06653(8)
Fe2A Fe 0.42734(16) 0.07178(15) 0.58767(8)
K1A K -0.4578(5) -0.0729(4) -0.0790(3)
K1A* K 0.5422(5) -0.0729(4) -0.0790(3)
O6A O 0.2333(8) -0.0202(8) 0.0825(5)
O7A O 0.0312(8) 0.0072(7) 0.0762(4)
O10A O 0.2837(8) 0.1420(7) 0.0928(4)
O13A O 0.1308(8) -0.1075(8) 0.4569(4)
O14A O 0.6000(8) -0.0739(7) 0.4846(4)
O27A O 0.1540(9) 0.2274(8) 0.2541(4)
O38A O 0.4664(8) -0.1708(8) 0.3941(4)
O41A O -0.1464(9) 0.0820(7) 0.0846(4)
O48A O 0.2123(9) -0.1817(8) 0.3732(4)
O83A O 0.3742(10) -0.0331(9) -0.0255(5)
#END
