
#######################################################################
#
#                 Cambridge Crystallographic Data Centre
#                                CCDC
#
#######################################################################
#
# If this CIF has been generated from an entry in the Cambridge
# Structural Database, then it will include bibliographic, chemical,
# crystal, experimental, refinement or atomic coordinate data resulting
# from the CCDC's data processing and validation procedures.
#
#######################################################################

data_CSD_CIF_YOQDUG
_audit_creation_date 2019-07-19
_audit_creation_method CSD-ConQuest-V1
_database_code_CSD YOQDUG
_database_code_depnum_ccdc_archive 'CCDC 1891665'
_chemical_formula_sum 'C24 H105 Er2 Fe2 K1 N6 Na2 O107 Te2 W18'
_chemical_formula_moiety
;
(C16 H37 Er2 Fe2 K1 N2 Na2 O89 Te2 W18 4-)n,4n(C2 H8 N1 1+),18n(H2 O1)
;
_journal_coden_Cambridge 9
_journal_volume 58
_journal_year 2019
_journal_page_first 9706
_journal_name_full 'Inorg.Chem. '
loop_
_publ_author_name
"Jian-Cai Liu"
"Jun-Wei Zhao"
"Yu-Fei Song"
_chemical_name_systematic
;
catena-(tetrakis(dimethylammonium) bis(\m-tellurito)-bis(\m-hydrogen 
pyridine-2,5-dicarboxylato)-tetrakis(\m-aqua)-hexatetracontakis(\m-oxo)-(aceta
to)-nona-aqua-tetradecaoxo-di-erbium-di-iron-potassium-di-sodium-octadeca-tung
sten octadecahydrate)
;
_cell_volume   5762.606
_exptl_crystal_colour 'pale yellow'
_exptl_crystal_density_diffrn 3.623
_exptl_crystal_description 'lamellar'
_diffrn_ambient_temperature 170.0
_refine_special_details
;
The SQUEEZE/PLATON program was used to model some disordered cations and 
water molecules.
;
#These two values have been output from a single CSD field.
_refine_ls_R_factor_gt 0.0445
_refine_ls_wR_factor_gt 0.0445
_symmetry_cell_setting triclinic
_symmetry_space_group_name_H-M 'P -1'
_symmetry_Int_Tables_number 2
loop_
_symmetry_equiv_pos_site_id
_symmetry_equiv_pos_as_xyz
1 x,y,z
2 -x,-y,-z
_cell_length_a 13.2906(5)
_cell_length_b 17.5513(7)
_cell_length_c 26.6288(10)
_cell_angle_alpha 107.997(4)
_cell_angle_beta 96.863(3)
_cell_angle_gamma 97.994(3)
_cell_formula_units_Z 2
loop_
_atom_type_symbol
_atom_type_radius_bond
C 0.68
H 0.23
Er 1.89
Fe 1.52
K 2.03
N 0.68
Na 1.66
O 0.68
Te 1.47
W 1.62
loop_
_atom_site_label
_atom_site_type_symbol
_atom_site_fract_x
_atom_site_fract_y
_atom_site_fract_z
Na1 Na 0.2867(4) 0.1567(4) 0.3042(2)
Na2 Na 0.5435(6) 0.2087(4) 0.2407(3)
W1 W -0.16163(4) -0.05650(3) -0.07843(2)
W2 W 0.38641(4) 0.07119(3) 0.44623(2)
W3 W -0.28374(4) -0.25366(3) -0.10031(2)
W4 W 0.75405(4) 0.08937(4) 0.40059(2)
W5 W 0.15570(4) -0.16987(4) -0.14033(2)
W6 W 0.91794(4) 0.18665(4) 0.51843(2)
W7 W -0.12463(4) -0.21478(4) -0.18458(2)
W8 W 0.06061(5) -0.31194(4) 0.03390(2)
W9 W 0.23224(4) -0.26854(3) -0.05526(2)
W10 W 0.55904(4) 0.28146(4) 0.63019(2)
W11 W 0.43327(4) 0.28127(4) 0.49910(2)
W12 W -0.16725(4) -0.24792(4) 0.03383(2)
W13 W 0.03640(5) -0.36116(4) -0.16378(2)
W14 W 0.52941(4) 0.18683(4) 0.38779(2)
W15 W 0.81598(5) 0.28947(4) 0.63728(2)
W16 W -0.13854(5) -0.40326(4) -0.07144(2)
W17 W 0.79462(5) 0.29362(4) 0.44896(2)
W18 W 0.68952(5) 0.39733(4) 0.57142(2)
Er1 Er 0.28065(5) -0.13147(4) 0.09464(2)
Er2 Er 0.11782(5) -0.07929(4) 0.37304(2)
Te1 Te 0.64480(6) 0.15222(5) 0.51950(3)
Te2 Te 0.01076(6) -0.17342(5) -0.03650(3)
Fe1 Fe -0.11716(13) -0.02937(11) 0.06754(6)
Fe2 Fe 0.57098(13) -0.07179(11) 0.41238(6)
K1 K 0.4623(4) 0.0735(3) 0.0787(2)
O1 O 0.1146(8) -0.3605(7) 0.0757(4)
O2 O -0.3790(8) -0.0888(9) 0.1250(4)
H1 H -0.42177 -0.08406 0.10182
O3 O 0.9123(8) 0.3312(7) 0.6925(3)
O4 O 0.2866(10) -0.2186(7) 0.1499(4)
O5 O -0.1464(6) -0.0458(5) -0.0083(3)
O6 O -0.2355(6) 0.0171(5) -0.0826(3)
O7 O -0.0316(7) -0.0088(5) -0.0766(3)
O8 O 0.6768(7) -0.1433(6) 0.3883(3)
O9 O 0.8867(7) 0.1085(6) 0.4437(3)
O10 O -0.2872(7) -0.1444(5) -0.0917(3)
O11 O 0.5360(7) 0.1708(5) 0.4748(3)
O12 O 0.6171(7) 0.1118(6) 0.3772(3)
O13 O 0.8723(6) 0.1099(5) 0.5443(3)
O14 O 0.4022(7) 0.0744(5) 0.5153(3)
O15 O 0.1209(7) -0.2082(5) 0.0620(3)
O16 O -0.0474(7) -0.2685(5) -0.0233(3)
O17 O -0.1042(6) -0.1768(5) -0.0865(3)
O18 O 0.8975(7) 0.2714(6) 0.5803(3)
O19 O 0.2615(7) -0.2086(6) -0.1045(3)
O20 O 0.4570(7) 0.2724(6) 0.5673(3)
O21 O 0.2619(7) 0.0121(6) 0.4190(3)
O22 O 0.3428(7) 0.1819(6) 0.4715(3)
O23 O -0.2176(7) -0.3476(5) -0.1069(3)
O24 O -0.0980(7) -0.1459(6) 0.0494(3)
O25 O -0.1670(6) -0.1139(5) -0.1570(3)
O26 O 0.4701(6) -0.0008(5) 0.4247(3)
O27 O -0.1593(8) -0.2340(7) -0.2523(3)
O28 O 0.1122(7) -0.2827(6) -0.1868(3)
O29 O 0.7963(7) 0.1940(5) 0.3917(3)
O30 O 0.4146(7) 0.1098(6) 0.3849(3)
O31 O 0.7487(6) 0.1845(5) 0.4833(3)
O32 O 0.8013(7) 0.3913(6) 0.6213(3)
O33 O 0.6840(6) 0.0245(6) 0.4334(3)
O34 O 0.0568(7) -0.0081(7) 0.3217(3)
O35 O 0.2488(7) -0.1758(5) -0.0006(3)
O36 O -0.2539(7) -0.2655(6) -0.1706(3)
O37 O 0.3486(8) 0.3475(6) 0.5051(4)
O38 O 0.5386(7) 0.1706(6) 0.6078(3)
O39 O -0.2545(7) -0.2322(6) -0.0261(3)
O40 O 0.9170(8) 0.2764(6) 0.4841(4)
O41 O 0.1432(7) -0.0844(5) -0.0835(3)
O42 O 0.4566(7) 0.2689(6) 0.4275(3)
O43 O 0.0140(7) -0.1680(6) -0.1723(3)
O44 O 0.3549(8) 0.0070(8) 0.2452(4)
O45 O 0.6738(7) 0.2587(5) 0.5704(3)
O46 O -0.0426(8) -0.4039(6) -0.1195(4)
O47 O -0.2690(7) -0.0645(6) 0.0714(3)
O48 O 0.7946(7) 0.1834(6) 0.6278(3)
O49 O 0.1487(7) -0.3257(6) -0.0203(4)
O50 O -0.2065(8) -0.5017(6) -0.0975(4)
O51 O -0.4116(7) -0.2979(6) -0.1169(4)
O52 O 0.6042(7) 0.3893(6) 0.6222(3)
O53 O 1.0504(7) 0.1974(6) 0.5299(4)
O54 O -0.0342(7) -0.4111(6) -0.0186(4)
O55 O 0.5665(7) 0.3536(6) 0.5198(3)
O56 O -0.0771(7) -0.3127(6) -0.1813(3)
O57 O -0.0620(7) -0.2890(6) 0.0672(3)
O58 O 0.1619(8) -0.3618(6) -0.1227(4)
O59 O 0.0782(7) -0.2377(5) -0.0882(3)
O60 O 0.6936(7) 0.3025(6) 0.6719(3)
O61 O 0.7726(8) 0.0229(6) 0.3428(3)
O62 O 0.6493(7) 0.2704(6) 0.4215(3)
O63 O 0.2266(8) -0.1257(7) -0.1780(4)
O64 O 0.3995(7) -0.0581(7) 0.1687(3)
O65 O 0.0238(8) -0.4466(6) -0.2186(4)
O66 O 0.4880(8) 0.3048(7) 0.6808(3)
O67 O 0.5009(8) 0.1972(7) 0.3259(3)
O68 O 0.7067(8) 0.5013(6) 0.5824(4)
O69 O -0.2514(7) -0.2410(7) 0.0788(4)
O70 O 0.8406(8) 0.3639(6) 0.4204(4)
O71 O 0.3473(7) -0.3022(6) -0.0496(4)
O72 O 0.3590(9) -0.2474(7) 0.0808(4)
O73 O 0.7686(7) 0.3625(6) 0.5142(4)
O74 O 0.1519(8) 0.0229(8) 0.2631(4)
O75 O -0.2114(7) -0.3626(6) -0.0133(4)
O76 O 0.7510(8) -0.2017(7) 0.3178(4)
H2 H 0.80768 -0.17816 0.33585
O77 O 0.1793(8) -0.0878(7) 0.1620(4)
O78 O 0.4375(7) -0.0877(7) 0.0684(3)
O79 O 0.2334(8) -0.0830(7) 0.3108(3)
O80 O 0.0304(8) -0.1877(7) 0.2921(3)
O81 O -0.0534(8) -0.1193(7) 0.3805(4)
O82 O 0.0656(8) 0.0381(7) 0.4299(3)
O83 O 0.6271(8) 0.0331(7) 0.0244(3)
O84 O 0.1765(12) 0.1693(9) 0.3933(5)
O85 O 0.4660(9) 0.1681(8) 0.0145(4)
O86 O 0.4342(15) 0.3207(12) 0.2582(7)
O87 O 0.3778(14) 0.1389(11) 0.2037(6)
O88 O 0.5719(13) 0.2341(11) 0.1598(6)
N1 N -0.1091(8) -0.0261(7) 0.1486(4)
N2 N 0.5517(8) -0.0877(7) 0.3299(4)
C1 C -0.0246(10) -0.0099(8) 0.1847(5)
H3 H 0.03858 0.00727 0.17619
C2 C -0.0270(11) -0.0179(9) 0.2356(5)
C3 C -0.1270(12) -0.0446(10) 0.2467(5)
H4 H -0.13302 -0.04945 0.28009
C4 C -0.2117(11) -0.0627(10) 0.2089(5)
H5 H -0.27638 -0.08085 0.21548
C5 C -0.2001(11) -0.0534(10) 0.1602(5)
C6 C 0.0683(13) 0.0013(10) 0.2758(5)
C7 C -0.2921(11) -0.0726(10) 0.1153(5)
C8 C 0.4871(10) -0.0591(8) 0.3028(5)
H6 H 0.44899 -0.02284 0.32158
C9 C 0.4722(10) -0.0802(9) 0.2466(5)
C10 C 0.5269(11) -0.1366(10) 0.2194(5)
H7 H 0.51945 -0.15216 0.18228
C11 C 0.5928(11) -0.1697(9) 0.2475(5)
H8 H 0.62770 -0.20927 0.22945
C12 C 0.6058(10) -0.1434(9) 0.3023(5)
C13 C 0.6842(10) -0.167(1) 0.3372(5)
C14 C 0.4033(11) -0.0403(10) 0.2185(5)
C15 C 0.3374(15) -0.2637(12) 0.1211(7)
C16 C 0.3675(18) -0.3355(12) 0.1388(8)
H9 H 0.43670 -0.31980 0.15844
H10 H 0.36327 -0.38239 0.10763
H11 H 0.32101 -0.34864 0.16112
O89 O 0.3391(15) 0.3367(12) 0.3643(7)
O90 O 0.1482(7) 0.0581(6) 0.5327(3)
O91 O -0.097(3) -0.404(2) 0.2238(14)
O92 O 0.2581(12) -0.2306(9) 0.2476(5)
O93 O 0.0355(13) -0.2025(9) 0.1802(5)
N3 N -0.2624(18) -0.4556(15) -0.2253(8)
H12 H -0.22817 -0.41346 -0.19748
H13 H -0.32976 -0.45906 -0.22495
C17 C -0.236(2) -0.4472(18) -0.2793(10)
H14 H -0.25516 -0.39849 -0.28341
H15 H -0.16309 -0.44435 -0.27896
H16 H -0.27299 -0.49368 -0.30868
C18 C -0.232(3) -0.5257(17) -0.2244(13)
H17 H -0.18490 -0.53931 -0.24913
H18 H -0.29096 -0.56891 -0.23461
H19 H -0.19806 -0.51863 -0.18893
N4 N 0.1320(18) -0.5096(14) -0.0578(8)
H20 H 0.09749 -0.53763 -0.04051
H21 H 0.10759 -0.46357 -0.05285
C19 C 0.2545(18) -0.4840(15) -0.0271(8)
H22 H 0.25803 -0.45352 0.01006
H23 H 0.28250 -0.53241 -0.03004
H24 H 0.29358 -0.45115 -0.04358
C20 C 0.1070(19) -0.5515(15) -0.1088(8)
H25 H 0.03355 -0.56050 -0.11949
H26 H 0.14009 -0.52175 -0.12905
H27 H 0.12901 -0.60301 -0.11551
C21 C 0.606(4) 0.424(3) 0.3866(19)
H28 H 0.66321 0.39821 0.37625
H29 H 0.54268 0.38793 0.36780
H30 H 0.61077 0.47340 0.37783
C22 C 0.541(4) 0.475(3) 0.4580(18)
H31 H 0.54635 0.47314 0.49386
H32 H 0.47444 0.44705 0.43793
H33 H 0.55187 0.53058 0.45900
N5 N 0.609(2) 0.4405(17) 0.4359(10)
H34 H 0.67023 0.47205 0.45210
H35 H 0.60812 0.39409 0.44295
O94 O 0.096(2) -0.3477(18) 0.1789(10)
O95 O -0.433(2) -0.4087(19) -0.0338(10)
Na1A Na -0.2867(4) -0.1567(4) -0.3042(2)
Er1A Er -0.28065(5) 0.13147(4) -0.09464(2)
Er2A Er 0.88218(5) 0.07929(4) 0.62696(2)
Fe1A Fe 0.11716(13) 0.02937(11) -0.06754(6)
Fe2A Fe 0.42902(13) 0.07179(11) 0.58762(6)
K1A K -0.4623(4) -0.0735(3) -0.0787(2)
K1A* K 0.5377(4) -0.0735(3) -0.0787(2)
O6A O 0.2355(6) -0.0171(5) 0.0826(3)
O7A O 0.0316(7) 0.0088(5) 0.0766(3)
O10A O 0.2872(7) 0.1444(5) 0.0917(3)
O13A O 0.1277(6) -0.1099(5) 0.4557(3)
O14A O 0.5978(7) -0.0744(5) 0.4847(3)
O27A O 0.1593(8) 0.2340(7) 0.2523(3)
O38A O 0.4614(7) -0.1706(6) 0.3922(3)
O41A O -0.1432(7) 0.0844(5) 0.0835(3)
O48A O 0.2054(7) -0.1834(6) 0.3722(3)
O83A O 0.3729(8) -0.0331(7) -0.0244(3)
#END
