
#######################################################################
#
#                 Cambridge Crystallographic Data Centre
#                                CCDC
#
#######################################################################
#
# If this CIF has been generated from an entry in the Cambridge
# Structural Database, then it will include bibliographic, chemical,
# crystal, experimental, refinement or atomic coordinate data resulting
# from the CCDC's data processing and validation procedures.
#
#######################################################################

data_CSD_CIF_YOQDEQ
_audit_creation_date 2019-07-19
_audit_creation_method CSD-ConQuest-V1
_database_code_CSD YOQDEQ
_database_code_depnum_ccdc_archive 'CCDC 1891662'
_chemical_formula_sum 'C24 H105 Eu2 Fe2 K1 N6 Na2 O107 Te2 W18'
_chemical_formula_moiety
;
(C16 H37 Eu2 Fe2 K1 N2 Na2 O89 Te2 W18 4-)n,4n(C2 H8 N1 1+),18n(H2 O1)
;
_journal_coden_Cambridge 9
_journal_volume 58
_journal_year 2019
_journal_page_first 9706
_journal_name_full 'Inorg.Chem. '
loop_
_publ_author_name
"Jian-Cai Liu"
"Jun-Wei Zhao"
"Yu-Fei Song"
_chemical_name_systematic
;
catena-(tetrakis(dimethylammonium) bis(\m-tellurito)-bis(\m-hydrogen 
pyridine-2,5-dicarboxylato)-tetrakis(\m-aqua)-hexatetracontakis(\m-oxo)-(aceta
to)-nona-aqua-tetradecaoxo-di-europium-di-iron-potassium-di-sodium-octadeca-tu
ngsten octadecahydrate)
;
_cell_volume   5831.834
_exptl_crystal_colour 'yellow green'
_exptl_crystal_density_diffrn 3.563
_exptl_crystal_description 'lamellar'
_diffrn_ambient_temperature 170.0
_refine_special_details
;
The SQUEEZE/PLATON program was used to model some disordered cations and 
water molecules.
;
#These two values have been output from a single CSD field.
_refine_ls_R_factor_gt 0.0509
_refine_ls_wR_factor_gt 0.0509
_symmetry_cell_setting triclinic
_symmetry_space_group_name_H-M 'P -1'
_symmetry_Int_Tables_number 2
loop_
_symmetry_equiv_pos_site_id
_symmetry_equiv_pos_as_xyz
1 x,y,z
2 -x,-y,-z
_cell_length_a 13.3515(4)
_cell_length_b 17.6064(3)
_cell_length_c 26.7352(6)
_cell_angle_alpha 108.431(2)
_cell_angle_beta 96.535(2)
_cell_angle_gamma 97.427(2)
_cell_formula_units_Z 2
loop_
_atom_type_symbol
_atom_type_radius_bond
C 0.68
H 0.23
Eu 1.98
Fe 1.52
K 2.03
N 0.68
Na 1.66
O 0.68
Te 1.47
W 1.62
loop_
_atom_site_label
_atom_site_type_symbol
_atom_site_fract_x
_atom_site_fract_y
_atom_site_fract_z
Na1 Na 0.2825(6) 0.1519(4) 0.3054(3)
Na2 Na 0.5373(7) 0.2019(4) 0.2385(3)
W1 W -0.15940(5) -0.05431(3) -0.07831(2)
W2 W 0.38665(5) 0.07061(4) 0.44625(2)
W3 W -0.27912(5) -0.25180(4) -0.10307(3)
W4 W 0.75281(5) 0.08779(4) 0.40029(3)
W5 W 0.15795(6) -0.16664(4) -0.14236(3)
W6 W 0.91387(5) 0.18693(4) 0.51764(3)
W7 W -0.12020(5) -0.21032(4) -0.18619(2)
W8 W 0.06273(6) -0.31507(4) 0.02748(3)
W9 W 0.23429(6) -0.26890(4) -0.06037(3)
W10 W 0.55331(6) 0.28206(4) 0.62892(3)
W11 W 0.42983(6) 0.28036(4) 0.49806(3)
W12 W -0.16449(6) -0.25029(4) 0.02925(3)
W13 W 0.04066(6) -0.35808(4) -0.16865(3)
W14 W 0.52803(5) 0.18457(4) 0.38711(3)
W15 W 0.80895(6) 0.29037(4) 0.63628(3)
W16 W -0.13346(6) -0.40341(4) -0.07770(3)
W17 W 0.78982(6) 0.29192(4) 0.44801(3)
W18 W 0.68261(6) 0.39663(4) 0.57005(3)
Eu1 Eu 0.28330(7) -0.13681(5) 0.09300(3)
Eu2 Eu 0.11729(7) -0.08108(5) 0.37228(3)
Te1 Te 0.64247(8) 0.15211(6) 0.51895(4)
Te2 Te 0.01262(8) -0.17327(5) -0.03935(4)
Fe1 Fe -0.11777(17) -0.03188(11) 0.06627(8)
Fe2 Fe 0.57227(17) -0.07276(12) 0.41258(8)
K1 K 0.4591(5) 0.0735(4) 0.0788(3)
O1 O 0.1168(10) -0.3633(6) 0.0679(5)
O2 O -0.3777(11) -0.0914(8) 0.1239(5)
H1 H -0.42076 -0.08692 0.10103
O3 O 0.9033(9) 0.3320(6) 0.6916(5)
O4 O 0.2906(13) -0.2278(8) 0.1475(5)
O5 O -0.1458(8) -0.0452(6) -0.0085(4)
O6 O -0.2342(8) 0.0199(5) -0.0824(4)
O7 O -0.0308(8) -0.0076(5) -0.0751(4)
O8 O 0.6793(8) -0.1438(6) 0.3879(4)
O9 O 0.8826(8) 0.1084(6) 0.4429(4)
O10 O -0.2848(8) -0.1418(6) -0.0920(4)
O11 O 0.5330(8) 0.1702(6) 0.4747(4)
O12 O 0.6165(9) 0.1111(6) 0.3761(4)
O13 O 0.8683(9) 0.1084(5) 0.5429(4)
O14 O 0.4009(8) 0.0745(6) 0.5154(4)
O15 O 0.1181(9) -0.2117(6) 0.0570(4)
O16 O -0.0455(8) -0.2693(6) -0.0282(4)
O17 O -0.1017(9) -0.1754(5) -0.0889(4)
O18 O 0.8899(8) 0.2714(6) 0.5796(4)
O19 O 0.2644(9) -0.2043(6) -0.1070(4)
O20 O 0.4555(8) 0.2738(6) 0.5673(4)
O21 O 0.2648(8) 0.0127(6) 0.4187(4)
O22 O 0.3416(9) 0.1810(6) 0.4718(4)
O23 O -0.2137(8) -0.3471(5) -0.1125(4)
O24 O -0.0950(8) -0.1478(5) 0.0467(4)
O25 O -0.1641(8) -0.1105(5) -0.1562(4)
O26 O 0.4709(8) -0.0008(6) 0.4253(4)
O27 O -0.1564(10) -0.2284(7) -0.2532(4)
O28 O 0.1163(8) -0.2788(6) -0.1908(4)
O29 O 0.7937(8) 0.1920(6) 0.3912(4)
O30 O 0.4146(9) 0.1078(5) 0.3847(4)
O31 O 0.7445(8) 0.1839(6) 0.4833(4)
O32 O 0.7924(9) 0.3926(6) 0.6191(4)
O33 O 0.6851(8) 0.0236(6) 0.4322(4)
O34 O 0.053(1) -0.0110(7) 0.3192(5)
O35 O 0.2529(9) -0.1774(6) -0.0041(4)
O36 O -0.2483(9) -0.2624(6) -0.1737(4)
O37 O 0.3453(10) 0.3466(7) 0.5029(5)
O38 O 0.5358(8) 0.1730(6) 0.6066(4)
O39 O -0.2514(9) -0.2335(6) -0.0299(4)
O40 O 0.9114(8) 0.2755(6) 0.4825(4)
O41 O 0.1460(9) -0.0818(6) -0.0842(4)
O42 O 0.4542(8) 0.2661(6) 0.4264(4)
O43 O 0.0176(8) -0.1633(5) -0.1729(4)
O44 O 0.3533(10) 0.0028(8) 0.2466(5)
O45 O 0.6689(8) 0.2597(5) 0.5696(4)
O46 O -0.0383(10) -0.4031(6) -0.1262(5)
O47 O -0.2663(9) -0.0669(6) 0.0698(4)
O48 O 0.7878(9) 0.1855(6) 0.6272(4)
O49 O 0.1514(9) -0.3278(6) -0.0262(4)
O50 O -0.1978(12) -0.5023(6) -0.1050(6)
O51 O -0.4062(10) -0.2932(7) -0.1204(5)
O52 O 0.5967(9) 0.3884(6) 0.6206(4)
O53 O 1.0453(9) 0.1975(7) 0.5285(4)
O54 O -0.0301(10) -0.4122(6) -0.0263(5)
O55 O 0.5627(8) 0.3531(5) 0.5199(4)
O56 O -0.0739(9) -0.3092(6) -0.1848(4)
O57 O -0.0581(9) -0.2926(6) 0.0608(4)
O58 O 0.1639(9) -0.3606(6) -0.1290(5)
O59 O 0.0804(8) -0.2367(5) -0.0925(4)
O60 O 0.6862(8) 0.3043(6) 0.6709(4)
O61 O 0.7728(8) 0.0203(7) 0.3423(4)
O62 O 0.6462(9) 0.2675(6) 0.4205(4)
O63 O 0.2264(10) -0.1223(8) -0.1798(4)
O64 O 0.4034(10) -0.0587(7) 0.1696(5)
O65 O 0.0316(11) -0.4413(7) -0.2241(5)
O66 O 0.4813(10) 0.3074(7) 0.6801(4)
O67 O 0.4993(9) 0.1951(6) 0.3258(4)
O68 O 0.6983(10) 0.4978(6) 0.5804(5)
O69 O -0.2497(9) -0.2444(7) 0.0743(5)
O70 O 0.8373(10) 0.3611(6) 0.4198(5)
O71 O 0.3483(10) -0.3029(7) -0.0548(4)
O72 O 0.3696(12) -0.2521(8) 0.0727(6)
O73 O 0.7608(10) 0.3625(6) 0.5129(4)
O74 O 0.1465(10) 0.0182(8) 0.2589(5)
O75 O -0.2073(9) -0.3645(6) -0.0185(5)
O76 O 0.7529(10) -0.2021(7) 0.3173(5)
H2 H 0.80979 -0.17974 0.33458
O77 O 0.1762(9) -0.0941(7) 0.1619(5)
O78 O 0.4428(10) -0.0870(8) 0.0676(5)
O79 O 0.2336(9) -0.0871(7) 0.3074(5)
O80 O 0.0296(10) -0.1932(7) 0.2910(5)
O81 O -0.0577(10) -0.1212(7) 0.3803(5)
O82 O 0.0615(9) 0.0411(6) 0.4301(4)
O83 O 0.6276(9) 0.0329(7) 0.0247(4)
O84 O 0.1761(14) 0.1681(10) 0.3938(8)
O85 O 0.4652(11) 0.1684(9) 0.0160(5)
O86 O 0.437(2) 0.3167(13) 0.2592(10)
O87 O 0.3685(14) 0.1335(9) 0.2075(7)
O88 O 0.5690(14) 0.2328(9) 0.1618(7)
N1 N -0.1101(9) -0.0309(7) 0.1466(5)
N2 N 0.5535(10) -0.0896(8) 0.3304(5)
C1 C -0.0294(14) -0.0133(9) 0.1828(6)
H3 H 0.03308 0.00649 0.17528
C2 C -0.0322(13) -0.0228(8) 0.2338(6)
C3 C -0.1262(13) -0.0495(10) 0.2430(6)
H4 H -0.13203 -0.05735 0.27539
C4 C -0.2118(14) -0.0651(9) 0.2062(6)
H5 H -0.27602 -0.08024 0.21395
C5 C -0.2017(12) -0.0581(9) 0.1581(6)
C6 C 0.0658(15) -0.0029(10) 0.2732(7)
C7 C -0.2879(17) -0.0744(10) 0.1132(8)
C8 C 0.4867(12) -0.0589(9) 0.3044(6)
H6 H 0.45070 -0.02089 0.32358
C9 C 0.4704(13) -0.0837(9) 0.2479(6)
C10 C 0.5277(14) -0.1405(10) 0.2197(7)
H7 H 0.52016 -0.15628 0.18262
C11 C 0.5948(15) -0.1725(10) 0.2473(6)
H8 H 0.62960 -0.21253 0.22933
C12 C 0.6085(13) -0.1434(9) 0.3019(6)
C13 C 0.6858(12) -0.1654(10) 0.3391(7)
C14 C 0.4029(16) -0.0464(10) 0.2199(6)
C15 C 0.343(2) -0.2666(17) 0.1202(13)
C16 C 0.370(2) -0.3521(17) 0.1274(12)
H9 H 0.30839 -0.39140 0.11883
H10 H 0.40121 -0.34164 0.16367
H11 H 0.41686 -0.37297 0.10380
O89 O 0.3298(15) 0.3313(10) 0.3658(7)
O90 O 0.1515(9) 0.0593(6) 0.5311(4)
O91 O -0.081(2) -0.4007(16) 0.2166(11)
O92 O 0.2681(14) -0.2364(9) 0.2459(6)
O93 O 0.0254(15) -0.2087(9) 0.1751(7)
N3 N -0.261(2) -0.4474(13) -0.2298(10)
H12 H -0.22905 -0.40629 -0.20104
H13 H -0.32872 -0.45049 -0.23079
C17 C -0.227(3) -0.438(2) -0.2845(14)
H14 H -0.24415 -0.38915 -0.28863
H15 H -0.15430 -0.43637 -0.28241
H16 H -0.26189 -0.48408 -0.31453
C18 C -0.229(2) -0.5243(16) -0.2306(12)
H17 H -0.24569 -0.53683 -0.19976
H18 H -0.26428 -0.56708 -0.26240
H19 H -0.15669 -0.51937 -0.23029
N4 N 0.160(2) -0.5122(17) -0.0412(12)
H20 H 0.14708 -0.55698 -0.03261
H21 H 0.12270 -0.47798 -0.02319
C19 C 0.268(2) -0.4757(15) -0.0162(11)
H22 H 0.27590 -0.46694 0.02144
H23 H 0.31242 -0.51181 -0.03215
H24 H 0.28552 -0.42464 -0.02175
C20 C 0.119(2) -0.5325(15) -0.0893(11)
H25 H 0.04824 -0.55446 -0.09327
H26 H 0.12615 -0.48565 -0.10057
H27 H 0.15305 -0.57283 -0.11097
C21 C 0.600(6) 0.429(4) 0.392(3)
H28 H 0.65407 0.40351 0.37689
H29 H 0.53499 0.39653 0.37303
H30 H 0.60444 0.48196 0.38794
C22 C 0.539(4) 0.470(3) 0.461(2)
H31 H 0.56891 0.49532 0.49790
H32 H 0.48110 0.42900 0.45775
H33 H 0.51713 0.50979 0.44683
N5 N 0.607(2) 0.4357(15) 0.4341(11)
H34 H 0.66843 0.46440 0.45028
H35 H 0.60498 0.38635 0.43666
O94 O 0.0996(18) -0.3462(12) 0.1767(9)
O95 O -0.428(2) -0.4095(16) -0.0424(12)
Na1A Na -0.2825(6) -0.1519(4) -0.3054(3)
Eu1A Eu -0.28330(7) 0.13681(5) -0.09300(3)
Eu2A Eu 0.88271(7) 0.08108(5) 0.62772(3)
Fe1A Fe 0.11777(17) 0.03188(11) -0.06627(8)
Fe2A Fe 0.42773(17) 0.07276(12) 0.58742(8)
K1A K -0.4591(5) -0.0735(4) -0.0788(3)
K1A* K 0.5409(5) -0.0735(4) -0.0788(3)
O6A O 0.2342(8) -0.0199(5) 0.0824(4)
O7A O 0.0308(8) 0.0076(5) 0.0751(4)
O10A O 0.2848(8) 0.1418(6) 0.0920(4)
O13A O 0.1317(9) -0.1084(5) 0.4571(4)
O14A O 0.5991(8) -0.0745(6) 0.4846(4)
O27A O 0.1564(10) 0.2284(7) 0.2532(4)
O38A O 0.4642(8) -0.1730(6) 0.3934(4)
O41A O -0.1460(9) 0.0818(6) 0.0842(4)
O48A O 0.2122(9) -0.1855(6) 0.3728(4)
O83A O 0.3724(9) -0.0329(7) -0.0247(4)
#END
