
#######################################################################
#
#                 Cambridge Crystallographic Data Centre
#                                CCDC
#
#######################################################################
#
# If this CIF has been generated from an entry in the Cambridge
# Structural Database, then it will include bibliographic, chemical,
# crystal, experimental, refinement or atomic coordinate data resulting
# from the CCDC's data processing and validation procedures.
#
#######################################################################

data_CSD_CIF_YORYOU
_audit_creation_date 2009-08-17
_audit_creation_method CSD-ConQuest-V1
_database_code_CSD YORYOU
_database_code_depnum_ccdc_archive 'CCDC 697864'
_chemical_formula_sum 'C16 H28 Mg3 N2 O24'
_chemical_formula_moiety
;
(H12 Mg1 O6 2+)n,n(C16 H12 Mg2 N2 O16 2-),2n(H2 O1)
;
_journal_coden_Cambridge 222
_journal_year 2009
_journal_page_first 1644
_journal_name_full 'Dalton Trans. '
loop_
_publ_author_name
"M.C.Das"
"S.K.Ghosh"
"E.C.Sanudo"
"P.K.Bharadwaj"
_chemical_name_systematic
;
catena-[Hexa-aqua-magnesium(ii) 
bis(\m~2~-pyridine-2,4,6-tricarboxylato-N,O,O',O'',O''')-tetra-aqua-di-magnesi
um(ii) dihydrate]
;
_cell_volume    663.028
_exptl_crystal_colour 'colorless'
_exptl_crystal_density_diffrn 1.766
_exptl_crystal_description 'hexagonal'
_diffrn_ambient_temperature 100
#These two values have been output from a single CSD field.
_refine_ls_R_factor_gt 0.0677
_refine_ls_wR_factor_gt 0.0677
_symmetry_cell_setting triclinic
_symmetry_space_group_name_H-M 'P -1'
_symmetry_Int_Tables_number 2
loop_
_symmetry_equiv_pos_site_id
_symmetry_equiv_pos_as_xyz
1 x,y,z
2 -x,-y,-z
_cell_length_a 7.274(5)
_cell_length_b 8.955(4)
_cell_length_c 11.032(5)
_cell_angle_alpha 74.722(6)
_cell_angle_beta 74.713(6)
_cell_angle_gamma 79.032(7)
_cell_formula_units_Z 1
loop_
_atom_type_symbol
_atom_type_radius_bond
C 0.68
H 0.23
Mg 1.41
N 0.68
O 0.68
loop_
_atom_site_label
_atom_site_type_symbol
_atom_site_fract_x
_atom_site_fract_y
_atom_site_fract_z
Mg1 Mg 0.70669(17) 0.36294(14) 0.67703(12)
Mg2 Mg 1.00000 -0.50000 1.00000
O1 O 0.7467(4) 0.3469(3) 0.4729(3)
O2 O 0.7635(4) 0.1897(3) 0.3410(3)
O3 O 1.0030(4) 0.3450(3) 0.6575(3)
O4 O 1.2213(4) 0.0785(4) 0.7511(3)
O5 O 0.7097(4) 0.2238(3) 0.8760(3)
O6 O 0.7242(4) -0.3915(3) 0.5763(3)
O7 O 0.7324(4) -0.0190(3) 1.0013(3)
O8 O 0.6255(4) -0.4461(3) 0.7867(3)
O9 O 0.4135(4) 0.3870(3) 0.6882(3)
O10 O 0.7081(4) -0.4599(4) 1.0197(3)
O11 O 1.0115(4) -0.2775(3) 1.0113(3)
N1 N 0.7170(4) 0.1214(4) 0.6763(3)
O12 O 0.9735(4) -0.5776(4) 1.1942(3)
C1 C 0.6792(5) -0.1399(5) 0.7960(4)
H1 H 0.66300 -0.21180 0.87480
C2 C 0.7462(5) 0.2158(4) 0.4495(4)
C3 C 0.7081(5) -0.0716(4) 0.5656(4)
H2 H 0.71550 -0.09870 0.48850
C4 C 0.7213(5) 0.0816(4) 0.5667(4)
C5 C 0.6838(5) -0.1828(5) 0.6812(4)
C6 C 0.7117(5) 0.0771(4) 0.8995(4)
C7 C 0.6762(5) -0.3497(5) 0.6821(4)
C8 C 0.6996(5) 0.0133(4) 0.7871(4)
H3 H 0.931(10) -0.198(7) 1.009(9)
H4 H 0.375(9) 0.464(5) 0.637(5)
H5 H 1.076(6) 0.357(6) 0.587(3)
H6 H 0.668(10) -0.459(10) 0.956(4)
H7 H 1.094(7) -0.245(8) 1.033(7)
H8 H 0.357(10) 0.317(6) 0.687(8)
H9 H 0.618(7) -0.482(9) 1.081(4)
H10 H 1.056(7) 0.262(4) 0.692(4)
H11 H 1.227(8) 0.046(6) 0.828(2)
H12 H 1.234(11) -0.006(5) 0.729(7)
H13 H 0.911(10) -0.651(6) 1.234(7)
H14 H 0.958(11) -0.518(7) 1.243(6)
Mg1* Mg 0.70669(17) 1.36294(14) 0.67703(12)
Mg1** Mg 0.70669(17) -0.63706(14) 0.67703(12)
O1* O 0.7467(4) 1.3469(3) 0.4729(3)
O2* O 0.7635(4) 1.1897(3) 0.3410(3)
O3* O 1.0030(4) 1.3450(3) 0.6575(3)
O5* O 0.7097(4) 1.2238(3) 0.8760(3)
O6* O 0.7242(4) 0.6085(3) 0.5763(3)
O6** O 0.7242(4) 1.6085(3) 0.5763(3)
O7* O 0.7324(4) 0.9810(3) 1.0013(3)
O8* O 0.6255(4) 0.5539(3) 0.7867(3)
O8** O 0.6255(4) 1.5539(3) 0.7867(3)
O9* O 0.4135(4) 1.3870(3) 0.6882(3)
O10A O 1.2919(4) -0.5401(4) 0.9803(3)
O11A O 0.9885(4) -0.7225(3) 0.9887(3)
N1* N 0.7170(4) 1.1214(4) 0.6763(3)
O12A O 1.0265(4) -0.4224(4) 0.8058(3)
C1* C 0.6792(5) 0.8601(5) 0.7960(4)
H1* H 0.66300 0.78820 0.87480
C2* C 0.7462(5) 1.2158(4) 0.4495(4)
C3* C 0.7081(5) 0.9284(4) 0.5656(4)
H2* H 0.71550 0.90130 0.48850
C4* C 0.7213(5) 1.0816(4) 0.5667(4)
C5* C 0.6838(5) 0.8172(5) 0.6812(4)
C6* C 0.7117(5) 1.0771(4) 0.8995(4)
C7* C 0.6762(5) 0.6503(5) 0.6821(4)
C8* C 0.6996(5) 1.0133(4) 0.7871(4)
H3A H 1.069(10) -0.802(7) 0.991(9)
H4* H 0.375(9) 1.464(5) 0.637(5)
H5* H 1.076(6) 1.357(6) 0.587(3)
H6A H 1.332(10) -0.541(10) 1.044(4)
H7A H 0.906(7) -0.755(8) 0.967(7)
H8* H 0.357(10) 1.317(6) 0.687(8)
H9A H 1.382(7) -0.518(9) 0.919(4)
H10* H 1.056(7) 1.262(4) 0.692(4)
H13A H 1.089(10) -0.349(6) 0.766(7)
H14A H 1.042(11) -0.482(7) 0.757(6)
#END
