
#######################################################################
#
#                 Cambridge Crystallographic Data Centre
#                                CCDC
#
#######################################################################
#
# If this CIF has been generated from an entry in the Cambridge
# Structural Database, then it will include bibliographic, chemical,
# crystal, experimental, refinement or atomic coordinate data resulting
# from the CCDC's data processing and validation procedures.
#
#######################################################################

data_CSD_CIF_YOTDUI
_audit_creation_date 2015-02-16
_audit_creation_method CSD-ConQuest-V1
_database_code_CSD YOTDUI
_database_code_depnum_ccdc_archive 'CCDC 1049558'
_chemical_formula_sum 'C58 H44 N8 O14 Ru1 Zn2'
_chemical_formula_moiety
;
(C30 H24 N6 Ru1 2+)n,n(C28 H16 N2 O12 Zn2 2-),2n(H2 O1)
;
_journal_coden_Cambridge 208
_journal_volume 226
_journal_year 2015
_journal_page_first 295
_journal_name_full 'J.Solid State Chem. '
loop_
_publ_author_name
"Hui Xu"
"Junkuo Gao"
"Jiangpeng Wang"
"Xuefeng Qian"
"Ruijing Song"
"Yuanjing Cui"
"Yu Yang"
"Guodong Qian"
_chemical_name_systematic
;
catena-[tris(2,2'-Bipyridine)-ruthenium(ii) 
bis(\m~3~-benzene-1,3,5-tricarboxylato)-dipyridine-di-zinc dihydrate]
;
_cell_volume   5323.117
_exptl_crystal_colour 'orange'
_exptl_crystal_density_diffrn 1.631
_exptl_crystal_description 'Block'
_diffrn_ambient_temperature 103
#These two values have been output from a single CSD field.
_refine_ls_R_factor_gt 0.061
_refine_ls_wR_factor_gt 0.061
_symmetry_cell_setting monoclinic
_symmetry_space_group_name_H-M 'P 21/n'
_symmetry_Int_Tables_number 14
loop_
_symmetry_equiv_pos_site_id
_symmetry_equiv_pos_as_xyz
1 x,y,z
2 1/2-x,1/2+y,1/2-z
3 -x,-y,-z
4 -1/2+x,-1/2-y,-1/2+z
_cell_length_a 17.7510(9)
_cell_length_b 17.5007(11)
_cell_length_c 18.0280(9)
_cell_angle_alpha 90
_cell_angle_beta 108.1077(19)
_cell_angle_gamma 90
_cell_formula_units_Z 4
loop_
_atom_type_symbol
_atom_type_radius_bond
C 0.68
H 0.23
N 0.68
O 0.68
Ru 1.46
Zn 1.22
loop_
_atom_site_label
_atom_site_type_symbol
_atom_site_fract_x
_atom_site_fract_y
_atom_site_fract_z
C1 C 0.7801(3) 0.5782(3) 0.6893(3)
H1 H 0.81770 0.59690 0.73550
C2 C 0.7044(3) 0.5634(3) 0.6899(3)
H2 H 0.69030 0.57160 0.73590
C3 C 0.6493(3) 0.5367(3) 0.6233(3)
H3 H 0.59650 0.52680 0.62260
C4 C 0.6714(3) 0.5245(3) 0.5587(3)
H4 H 0.63430 0.50530 0.51240
C5 C 0.7482(3) 0.5404(3) 0.5612(3)
H5 H 0.76310 0.53220 0.51550
C6 C 0.9790(3) 0.7353(3) 0.7083(3)
C7 C 0.9879(3) 0.7918(3) 0.7737(3)
C8 C 0.9452(3) 0.7813(3) 0.8261(2)
H6 H 0.91070 0.73870 0.82020
C9 C 0.9529(3) 0.8329(3) 0.8870(3)
C10 C 0.9065(3) 0.8219(3) 0.9427(3)
C11 C 1.0018(3) 0.8965(3) 0.8928(3)
H7 H 1.00740 0.93200 0.93410
C12 C 1.0425(3) 0.9087(3) 0.8390(3)
C13 C 1.0916(3) 0.9787(3) 0.8438(3)
C14 C 1.0364(3) 0.8552(3) 0.7809(3)
H8 H 1.06590 0.86210 0.74550
C15 C 0.8744(3) 0.6784(3) 0.4667(3)
C16 C 0.8926(3) 0.6671(3) 0.3907(3)
C17 C 0.9260(3) 0.5986(3) 0.3769(3)
H9 H 0.93370 0.55820 0.41370
C18 C 0.9481(3) 0.5886(3) 0.3101(3)
C19 C 0.9873(3) 0.5155(3) 0.2984(3)
C20 C 0.9365(3) 0.6484(3) 0.2564(3)
H10 H 0.95120 0.64220 0.21040
C21 C 0.9034(3) 0.7168(3) 0.2700(3)
C22 C 0.8902(3) 0.7825(3) 0.2134(3)
C23 C 0.8821(3) 0.7264(3) 0.3371(3)
H11 H 0.86020 0.77360 0.34650
C24 C 0.7239(3) 0.9033(3) 0.1014(3)
H12 H 0.75630 0.92830 0.14690
C25 C 0.6423(3) 0.9008(3) 0.0877(3)
H13 H 0.61940 0.92350 0.12360
C26 C 0.5948(3) 0.8647(4) 0.0211(3)
H14 H 0.53920 0.86140 0.01110
C27 C 0.6298(3) 0.8338(4) -0.0307(3)
H15 H 0.59850 0.81020 -0.07760
C28 C 0.7109(3) 0.8379(3) -0.0130(3)
H16 H 0.73480 0.81620 -0.04850
N1 N 0.7583(2) 0.8716(2) 0.0527(2)
N2 N 0.8031(3) 0.5671(2) 0.6257(2)
O1 O 0.8626(2) 0.8431(2) 0.2283(2)
O2 O 0.9102(2) 0.7719(2) 0.15134(18)
O3 O 0.8432(2) 0.7385(2) 0.4775(2)
O4 O 0.8933(2) 0.6215(2) 0.51275(19)
O5 O 1.0084(2) 0.4720(2) 0.3586(2)
O6 O 0.9976(2) 0.5011(2) 0.2349(2)
O7 O 1.0703(2) 1.03540(19) 0.87738(19)
O8 O 1.1468(3) 0.9775(2) 0.8154(3)
O9 O 1.0265(2) 0.7344(2) 0.67106(19)
O10 O 0.9190(2) 0.68939(19) 0.69625(19)
O11 O 0.9324(2) 0.85719(19) 1.00735(19)
O12 O 0.8463(2) 0.7818(2) 0.9219(2)
Zn1 Zn 0.87946(3) 0.86551(3) 0.08801(3)
Zn2 Zn 0.91235(3) 0.60696(3) 0.62361(3)
C29 C 0.7804(3) 1.1604(3) 0.6284(3)
H17 H 0.72570 1.17020 0.60330
C30 C 0.8223(3) 1.2075(3) 0.6883(3)
H18 H 0.79640 1.24940 0.70350
C31 C 0.9009(3) 1.1945(3) 0.7259(3)
H19 H 0.92960 1.22580 0.76830
C32 C 0.9375(3) 1.1341(3) 0.7006(3)
H20 H 0.99220 1.12410 0.72550
C33 C 0.8947(3) 1.0885(3) 0.6394(3)
C34 C 0.9278(3) 1.0246(3) 0.6085(3)
C35 C 1.0078(3) 1.0066(4) 0.6327(3)
H21 H 1.04480 1.03710 0.67060
C36 C 1.0326(3) 0.9442(4) 0.6010(3)
H22 H 1.08740 0.93170 0.61600
C37 C 0.9790(4) 0.8999(4) 0.5480(4)
H23 H 0.99610 0.85570 0.52720
C38 C 0.9004(3) 0.9192(3) 0.5249(3)
H24 H 0.86350 0.88790 0.48790
C39 C 0.6060(3) 1.1125(3) 0.4617(3)
H25 H 0.62730 1.12820 0.42180
C40 C 0.5360(3) 1.1450(3) 0.4633(3)
H26 H 0.50950 1.18160 0.42520
C41 C 0.5052(3) 1.1230(3) 0.5213(3)
H27 H 0.45770 1.14550 0.52490
C42 C 0.5442(3) 1.0680(3) 0.5744(3)
H28 H 0.52310 1.05170 0.61420
C43 C 0.6142(3) 1.0364(3) 0.5693(3)
C44 C 0.6617(3) 0.9796(3) 0.6244(3)
C45 C 0.6378(3) 0.9455(3) 0.6825(3)
H29 H 0.58670 0.95590 0.68650
C46 C 0.6879(3) 0.8966(3) 0.7345(3)
H30 H 0.67240 0.87400 0.77540
C47 C 0.7614(4) 0.8808(3) 0.7265(3)
H31 H 0.79720 0.84740 0.76210
C48 C 0.7819(3) 0.9142(3) 0.6663(3)
H32 H 0.83210 0.90260 0.66070
C49 C 0.7932(3) 1.1468(3) 0.4252(3)
H33 H 0.80690 1.17650 0.47160
C50 C 0.7982(3) 1.1796(4) 0.3565(3)
H34 H 0.81490 1.23110 0.35620
C51 C 0.7789(3) 1.1370(4) 0.2889(3)
H35 H 0.78290 1.15850 0.24180
C52 C 0.7541(3) 1.0635(4) 0.2907(3)
H36 H 0.73980 1.03360 0.24450
C53 C 0.7495(3) 1.0324(4) 0.3599(3)
C54 C 0.7184(3) 0.9550(4) 0.3682(3)
C55 C 0.6965(4) 0.9026(4) 0.3078(4)
H37 H 0.70070 0.91490 0.25790
C56 C 0.6678(4) 0.8303(4) 0.3216(4)
H38 H 0.65150 0.79420 0.28040
C57 C 0.6635(4) 0.8123(4) 0.3940(4)
H39 H 0.64390 0.76420 0.40410
C58 C 0.6887(3) 0.8671(3) 0.4520(3)
H40 H 0.68790 0.85430 0.50300
N3 N 0.8152(2) 1.1006(2) 0.6042(2)
N4 N 0.8737(2) 0.9819(2) 0.5533(2)
N5 N 0.6461(2) 1.0597(2) 0.5134(2)
N6 N 0.7336(2) 0.9624(2) 0.6152(2)
N7 N 0.7692(2) 1.0740(2) 0.4275(2)
N8 N 0.7140(3) 0.9367(3) 0.4407(2)
Ru1 Ru 0.75791(2) 1.01899(2) 0.52450(2)
O13 O 0.7736(3) 0.7514(3) 0.5924(2)
O14 O 0.6111(3) 0.7412(3) 0.5757(3)
H41 H 0.64110 0.72730 0.54410
H42 H 0.57740 0.70110 0.57830
O5B O 0.9916(2) 0.5280(2) 0.6414(2)
O7B O 0.9297(2) 0.96460(19) 0.12262(19)
O11* O 0.9324(2) 0.85719(19) 0.00735(19)
Zn1* Zn 0.87946(3) 0.86551(3) 1.08801(3)
Zn1B Zn 1.12054(3) 1.13449(3) 0.91199(3)
Zn2B Zn 1.08765(3) 0.39304(3) 0.37639(3)
#END
