
#######################################################################
#
#                 Cambridge Crystallographic Data Centre
#                                CCDC
#
#######################################################################
#
# If this CIF has been generated from an entry in the Cambridge
# Structural Database, then it will include bibliographic, chemical,
# crystal, experimental, refinement or atomic coordinate data resulting
# from the CCDC's data processing and validation procedures.
#
#######################################################################

data_CSD_CIF_YOVCAP
_audit_creation_date 2015-02-16
_audit_creation_method CSD-ConQuest-V1
_database_code_CSD YOVCAP
_database_code_depnum_ccdc_archive 'CCDC 1017585'
_chemical_formula_sum 'C90 H98 N8 O29 Zn3'
_chemical_formula_moiety
;
(C72 H30 O24 Zn3 6-)n,6(C2 H8 N1 1+),2(C3 H7 N1 O1),3(H2 O1)
;
_journal_coden_Cambridge 1147
_journal_volume 14
_journal_year 2014
_journal_page_first 4258
_journal_name_full 'Cryst.Growth Des. '
loop_
_publ_author_name
"Hongming He"
"Fuxing Sun"
"Jiangtao Jia"
"Zheng Bian"
"Nian Zhao"
"Xuepeng Qiu"
"Lianxun Gao"
"Guangshan Zhu"
_chemical_name_systematic
;
catena-[hexakis(dimethylammonium) 
(\m-benzene-1,3,5-triyltris(1,3':5',1''-terphenyl-3,3'',5,5''-tetracarboxylato
))-tri-zinc(ii) N,N-dimethylformamide solvate trihydrate]
;
_chemical_name_common
;
JUC-124
;
_cell_volume  17615.160
_exptl_crystal_colour 'white'
_exptl_crystal_density_diffrn 0.861
_exptl_special_details
;
hhm topology. The solvents are unclear. The paper gives the formula with only 
2 dmf solvent molecules (squeezed) and the 3D structure has only 3 water 
molecules
;
_exptl_crystal_description 'Block'
_diffrn_ambient_temperature 293
_refine_special_details
;
Disordered cations and solvent molecules were not modelled and the disordered 
density was taken into account using the SQUEEZE/PLATON procedure.
;
#These two values have been output from a single CSD field.
_refine_ls_R_factor_gt 0.0555
_refine_ls_wR_factor_gt 0.0555
_symmetry_cell_setting rhombohedral
_symmetry_space_group_name_H-M 'R -3'
_symmetry_Int_Tables_number 148
loop_
_symmetry_equiv_pos_site_id
_symmetry_equiv_pos_as_xyz
1 x,y,z
2 -y,x-y,z
3 -x+y,-x,z
4 2/3+x,1/3+y,1/3+z
5 2/3-y,1/3+x-y,1/3+z
6 2/3-x+y,1/3-x,1/3+z
7 1/3+x,2/3+y,2/3+z
8 1/3-y,2/3+x-y,2/3+z
9 1/3-x+y,2/3-x,2/3+z
10 -x,-y,-z
11 y,-x+y,-z
12 x-y,x,-z
13 -2/3-x,-1/3-y,-1/3-z
14 -2/3+y,-1/3-x+y,-1/3-z
15 -2/3+x-y,-1/3+x,-1/3-z
16 -1/3-x,-2/3-y,-2/3-z
17 -1/3+y,-2/3-x+y,-2/3-z
18 -1/3+x-y,-2/3+x,-2/3-z
_cell_length_a 28.707(7)
_cell_length_b 28.707(7)
_cell_length_c 24.682(11)
_cell_angle_alpha 90
_cell_angle_beta 90
_cell_angle_gamma 120
_cell_formula_units_Z 6
loop_
_atom_type_symbol
_atom_type_radius_bond
C 0.68
H 0.23
O 0.68
Zn 1.22
loop_
_atom_site_label
_atom_site_type_symbol
_atom_site_fract_x
_atom_site_fract_y
_atom_site_fract_z
C1 C 0.2993(2) 0.27678(17) 0.0105(2)
C2 C 0.29605(17) 0.22316(16) 0.00486(18)
C3 C 0.33994(18) 0.22075(18) -0.0141(2)
H1 H 0.37000 0.25200 -0.02620
C4 C 0.33983(17) 0.17285(16) -0.0154(2)
C5 C 0.29397(16) 0.12706(16) 0.0022(2)
H2 H 0.29330 0.09440 0.00060
C6 C 0.24942(15) 0.12752(15) 0.02193(18)
C7 C 0.25127(15) 0.17667(15) 0.02274(17)
H3 H 0.22170 0.17840 0.03560
C8 C 0.3892(2) 0.1710(2) -0.0307(3)
C9 C 0.20390(15) 0.07852(15) 0.04599(17)
C10 C 0.21409(15) 0.04205(15) 0.07147(17)
H4 H 0.24910 0.04820 0.07160
C11 C 0.17501(14) -0.00294(15) 0.09665(16)
C12 C 0.12291(14) -0.01257(14) 0.09580(16)
H5 H 0.09590 -0.04300 0.11290
C13 C 0.10999(13) 0.02274(13) 0.06968(15)
C14 C 0.15057(14) 0.06750(14) 0.04493(16)
H6 H 0.14240 0.09110 0.02700
C15 C 0.05372(13) 0.01107(13) 0.06997(15)
C16 C 0.04174(13) 0.05246(13) 0.07002(15)
H7 H 0.06990 0.08790 0.07010
C17 C 0.18935(15) -0.03915(15) 0.12540(17)
C18 C 0.23893(16) -0.01963(17) 0.14875(19)
H8 H 0.26320 0.01710 0.14660
C19 C 0.25451(16) -0.05152(18) 0.1751(2)
C20 C 0.22006(19) -0.1053(2) 0.1766(2)
H9 H 0.23030 -0.12750 0.19390
C21 C 0.16977(18) -0.12772(17) 0.1526(2)
C22 C 0.15498(16) -0.09487(16) 0.12705(18)
H10 H 0.12150 -0.10980 0.11040
C23 C 0.1341(2) -0.1873(2) 0.1512(3)
C24 C 0.3106(2) -0.0264(2) 0.1976(2)
O1 O 0.26284(13) 0.27662(11) 0.03790(15)
O2 O 0.33815(18) 0.31693(15) -0.0079(2)
O3 O 0.38581(12) 0.12674(13) -0.04253(17)
O4 O 0.43266(15) 0.21418(15) -0.0306(3)
O5 O 0.09035(13) -0.20530(12) 0.12595(16)
O6 O 0.1480(2) -0.21569(16) 0.1742(3)
O7 O 0.34270(15) 0.02086(18) 0.19091(19)
O8 O 0.32186(13) -0.05480(14) 0.22643(15)
Zn1 Zn 0.395903(19) -0.00092(2) 0.24989(3)
O9 O 0.0080(4) 0.8265(5) 0.1437(4)
C1A C -0.27678(20) 0.02252(17) 0.0105(2)
C2A C -0.22316(17) 0.07289(16) 0.00486(18)
C3A C -0.22075(18) 0.11919(18) -0.0141(2)
H1A H -0.25200 0.11800 -0.02620
C4A C -0.17285(17) 0.16698(16) -0.0154(2)
C5A C -0.12706(16) 0.16691(16) 0.0022(2)
H2A H -0.09440 0.19890 0.00060
C6A C -0.12752(15) 0.12190(15) 0.02193(18)
C7A C -0.17667(15) 0.07460(15) 0.02274(17)
H3A H -0.17840 0.04330 0.03560
C8A C -0.1710(2) 0.2182(2) -0.0307(3)
C9A C -0.07852(15) 0.12538(15) 0.04599(17)
C10A C -0.04205(15) 0.17204(15) 0.07147(17)
H4A H -0.04820 0.20090 0.07160
C11A C 0.00294(14) 0.17795(15) 0.09665(16)
C12A C 0.01257(14) 0.13548(14) 0.09580(16)
H5A H 0.04300 0.13890 0.11290
C13A C -0.02274(13) 0.08725(13) 0.06968(15)
C14A C -0.06750(14) 0.08307(14) 0.04493(16)
H6A H -0.09110 0.05130 0.02700
C15A C -0.01107(13) 0.04265(13) 0.06997(15)
C16A C -0.05246(13) -0.01072(13) 0.07002(15)
H7A H -0.08790 -0.01800 0.07010
C17A C 0.03915(15) 0.22850(15) 0.12540(17)
C18A C 0.01963(16) 0.25856(17) 0.14875(19)
H8A H -0.01710 0.24610 0.14660
C19A C 0.05152(16) 0.30603(18) 0.1751(2)
C20A C 0.10530(19) 0.32536(20) 0.1766(2)
H9A H 0.12750 0.35780 0.19390
C21A C 0.12772(18) 0.29749(17) 0.1526(2)
C22A C 0.09487(16) 0.24985(16) 0.12705(18)
H10A H 0.10980 0.23130 0.11040
C23A C 0.1873(2) 0.3214(2) 0.1512(3)
C24A C 0.0264(2) 0.3370(2) 0.1976(2)
O1A O -0.27662(13) -0.01378(11) 0.03790(15)
O2A O -0.31693(18) 0.02122(15) -0.0079(2)
O3A O -0.12674(12) 0.25907(13) -0.04253(17)
O4A O -0.21418(15) 0.21848(15) -0.0306(3)
O5A O 0.20530(13) 0.29565(12) 0.12595(16)
O6A O 0.21569(20) 0.36369(16) 0.1742(3)
O7A O -0.02086(15) 0.32184(18) 0.19091(19)
O8A O 0.05480(13) 0.37666(14) 0.22643(15)
C1B C -0.02252(20) -0.29930(17) 0.0105(2)
C2B C -0.07289(17) -0.29605(16) 0.00486(18)
C3B C -0.11919(18) -0.33994(18) -0.0141(2)
H1B H -0.11800 -0.37000 -0.02620
C4B C -0.16698(17) -0.33983(16) -0.0154(2)
C5B C -0.16691(16) -0.29397(16) 0.0022(2)
H2B H -0.19890 -0.29330 0.00060
C6B C -0.12190(15) -0.24942(15) 0.02193(18)
C7B C -0.07460(15) -0.25127(15) 0.02274(17)
H3B H -0.04330 -0.22170 0.03560
C8B C -0.2182(2) -0.3892(2) -0.0307(3)
C9B C -0.12538(15) -0.20390(15) 0.04599(17)
C10B C -0.17204(15) -0.21409(15) 0.07147(17)
H4B H -0.20090 -0.24910 0.07160
C11B C -0.17795(14) -0.17501(15) 0.09665(16)
C12B C -0.13548(14) -0.12291(14) 0.09580(16)
H5B H -0.13890 -0.09590 0.11290
C13B C -0.08725(13) -0.10999(13) 0.06968(15)
C14B C -0.08307(14) -0.15057(14) 0.04493(16)
H6B H -0.05130 -0.14240 0.02700
C15B C -0.04265(13) -0.05372(13) 0.06997(15)
C16B C 0.01072(13) -0.04174(13) 0.07002(15)
H7B H 0.01800 -0.06990 0.07010
C17B C -0.22850(15) -0.18935(15) 0.12540(17)
C18B C -0.25856(16) -0.23893(17) 0.14875(19)
H8B H -0.24610 -0.26320 0.14660
C19B C -0.30603(16) -0.25451(18) 0.1751(2)
C20B C -0.32536(19) -0.22006(20) 0.1766(2)
H9B H -0.35780 -0.23030 0.19390
C21B C -0.29749(18) -0.16977(17) 0.1526(2)
C22B C -0.24985(16) -0.15498(16) 0.12705(18)
H10B H -0.23130 -0.12150 0.11040
C23B C -0.3214(2) -0.1341(2) 0.1512(3)
C24B C -0.3370(2) -0.3106(2) 0.1976(2)
O1B O 0.01378(13) -0.26284(11) 0.03790(15)
O2B O -0.02122(18) -0.33815(15) -0.0079(2)
O3B O -0.25907(12) -0.38581(13) -0.04253(17)
O4B O -0.21848(15) -0.43266(15) -0.0306(3)
O5B O -0.29565(13) -0.09035(12) 0.12595(16)
O6B O -0.36369(20) -0.14800(16) 0.1742(3)
O7B O -0.32184(15) -0.34270(18) 0.19091(19)
O8B O -0.37666(13) -0.32186(14) 0.22643(15)
Zn1A Zn 0.000920(19) 0.396823(20) 0.24989(3)
Zn1B Zn -0.396823(19) -0.395903(20) 0.24989(3)
O1O O 0.403827(130) 0.056713(110) 0.295433(150)
O1P O -0.056713(130) 0.347113(110) 0.295433(150)
O1Q O -0.347113(130) -0.403827(110) 0.295433(150)
O3C O 0.052477(120) 0.460073(130) 0.290803(170)
O3D O -0.460073(120) -0.407597(130) 0.290803(170)
O3E O 0.407597(120) -0.052477(130) 0.290803(170)
O5O O -0.423683(130) -0.461367(120) 0.207383(160)
O5P O 0.461367(130) 0.037683(120) 0.207383(160)
O5Q O -0.037683(130) 0.423683(120) 0.207383(160)
Zn1F Zn -0.270764(19) -0.334253(20) -0.083443(30)
Zn1G Zn 0.334253(19) 0.06349(2) -0.083443(30)
Zn1H Zn -0.063490(19) 0.270764(20) -0.083443(30)
Zn1O Zn 0.270764(19) 0.334253(20) 0.083443(30)
Zn1P Zn -0.334253(19) -0.06349(2) 0.083443(30)
Zn1Q Zn 0.063490(19) -0.270764(20) 0.083443(30)
#END
