
#######################################################################
#
#                 Cambridge Crystallographic Data Centre
#                                CCDC
#
#######################################################################
#
# If this CIF has been generated from an entry in the Cambridge
# Structural Database, then it will include bibliographic, chemical,
# crystal, experimental, refinement or atomic coordinate data resulting
# from the CCDC's data processing and validation procedures.
#
#######################################################################

data_CSD_CIF_YOXALT04
_audit_creation_date 1975-12-19
_audit_creation_method CSD-ConQuest-V1
_database_code_CSD YOXALT04
_database_code_depnum_ccdc_archive 'CCDC 1305828'
_chemical_formula_sum 'C4 H7 O11 Y1'
_chemical_formula_moiety
;
(C4 H2 O9 Y1 1-)n,n(H5 O2 1+)
;
_journal_coden_Cambridge 8
_journal_volume 62
_journal_year 1975
_journal_page_first 3797
_journal_name_full 'AIP J.Chem.Phys. '
loop_
_publ_author_name
"G.D.Brunton"
"C.K.Johnson"
_chemical_name_systematic
;
catena(Aqua-bis(\m~2~-oxalato)-yttrium hydronium)
;
_cell_volume    960.115
_diffrn_ambient_temperature 118.15
_diffrn_radiation_probe 'neutron radiation'
_refine_special_details
;
THE HYDROGEN POSITIONS ARE PARTIALLY OCCUPIED BY DEUTEURIUM ATOMS.

;
#These two values have been output from a single CSD field.
_refine_ls_R_factor_gt 0.0498
_refine_ls_wR_factor_gt 0.0498
_symmetry_cell_setting tetragonal
_symmetry_space_group_name_H-M 'P 42/n'
_symmetry_Int_Tables_number 86
loop_
_symmetry_equiv_pos_site_id
_symmetry_equiv_pos_as_xyz
1 x,y,z
2 -y,1/2+x,1/2+z
3 1/2-x,1/2-y,z
4 1/2+y,-x,1/2+z
5 -x,-y,-z
6 y,-1/2-x,-1/2-z
7 -1/2+x,-1/2+y,-z
8 -1/2-y,x,-1/2-z
_cell_length_a 8.6774(4)
_cell_length_b 8.6774(4)
_cell_length_c 12.751(7)
_cell_angle_alpha 90
_cell_angle_beta 90
_cell_angle_gamma 90
_cell_formula_units_Z 4
loop_
_atom_type_symbol
_atom_type_radius_bond
C 0.68
H 0.23
O 0.68
Y 1.78
loop_
_atom_site_label
_atom_site_type_symbol
_atom_site_fract_x
_atom_site_fract_y
_atom_site_fract_z
C1 C 0.52350 -0.03460 0.30038
C2 C 0.47590 0.04510 0.19708
H1 H 0.75060 0.16040 0.52460
O1 O 0.62430 0.02950 0.35430
O2 O 0.45660 -0.15970 0.32120
O3 O 0.36690 -0.01710 0.14730
O4 O 0.54820 0.16320 0.17156
O5 O 0.75000 0.25000 0.48190
Y1 Y 0.75000 0.25000 0.29047
H2 H 0.25000 0.25000 0.52520
H3 H 0.44600 0.24550 0.57840
H4 H 0.42970 0.32510 0.46520
O6 O 0.37850 0.30450 0.53200
Y1E Y 0.25000 -0.25000 0.20953
O1B O 0.87570 0.47050 0.35430
O2E O 0.84030 0.04340 0.17880
O2G O 0.65970 0.45660 0.17880
O3E O 0.98290 0.13310 0.35270
O3G O 0.51710 0.36690 0.35270
O4B O 0.95180 0.33680 0.17156
H1B H 0.74940 0.33960 0.52460
C1B C 0.97650 0.53460 0.30038
C2B C 1.02410 0.45490 0.19708
O2B O 1.04340 0.65970 0.32120
O3B O 1.13310 0.51710 0.14730
Y1E* Y 1.25000 0.75000 0.20953
O6B O 0.12150 0.19550 0.53200
H3B H 0.05400 0.25450 0.57840
H4B H 0.07030 0.17490 0.46520
#END
