
#######################################################################
#
#                 Cambridge Crystallographic Data Centre
#                                CCDC
#
#######################################################################
#
# If this CIF has been generated from an entry in the Cambridge
# Structural Database, then it will include bibliographic, chemical,
# crystal, experimental, refinement or atomic coordinate data resulting
# from the CCDC's data processing and validation procedures.
#
#######################################################################

data_CSD_CIF_YOXALT02
_audit_creation_date 1975-12-19
_audit_creation_method CSD-ConQuest-V1
_database_code_CSD YOXALT02
_database_code_depnum_ccdc_archive 'CCDC 1305826'
_chemical_formula_sum 'C4 H7 O11 Y1'
_chemical_formula_moiety
;
(C4 H2 O9 Y1 1-)n,n(H3 O1 1+),n(H2 O1)
;
_journal_coden_Cambridge 8
_journal_volume 62
_journal_year 1975
_journal_page_first 3797
_journal_name_full 'AIP J.Chem.Phys. '
loop_
_publ_author_name
"G.D.Brunton"
"C.K.Johnson"
_chemical_name_systematic
;
catena-(0.5-Deutero-aqua-bis(\m~2~-oxalato-O,O',O'',O''')-yttrium oxonium 
monohydrate)
;
_cell_volume    972.147
_diffrn_ambient_temperature ?
_diffrn_radiation_probe 'neutron radiation'
_diffrn_special_details
;
The study was carried out at room temperature,in the range 283-303K

;
_refine_special_details
;
THE HYDROGEN POSITIONS ARE PARTIALLY OCCUPIED BY DEUTERIUM ATOMS AND THE 
DIAQUO-ION IS DISORDERED.
;
#These two values have been output from a single CSD field.
_refine_ls_R_factor_gt 0.0527
_refine_ls_wR_factor_gt 0.0527
_symmetry_cell_setting tetragonal
_symmetry_space_group_name_H-M 'P 42/n'
_symmetry_Int_Tables_number 86
loop_
_symmetry_equiv_pos_site_id
_symmetry_equiv_pos_as_xyz
1 x,y,z
2 -y,1/2+x,1/2+z
3 1/2-x,1/2-y,z
4 1/2+y,-x,1/2+z
5 -x,-y,-z
6 y,-1/2-x,-1/2-z
7 -1/2+x,-1/2+y,-z
8 -1/2-y,x,-1/2-z
_cell_length_a 8.704(2)
_cell_length_b 8.704(2)
_cell_length_c 12.832(2)
_cell_angle_alpha 90
_cell_angle_beta 90
_cell_angle_gamma 90
_cell_formula_units_Z 4
loop_
_atom_type_symbol
_atom_type_radius_bond
C 0.68
H 0.23
O 0.68
Y 1.78
loop_
_atom_site_label
_atom_site_type_symbol
_atom_site_fract_x
_atom_site_fract_y
_atom_site_fract_z
C1 C 0.52400 -0.03460 0.30079
C2 C 0.47600 0.04370 0.19783
H1 H 0.74920 0.16180 0.52120
O1 O 0.62540 0.02900 0.35300
O2 O 0.45690 -0.15850 0.32290
O3 O 0.36830 -0.01950 0.14880
O4 O 0.54770 0.16080 0.17193
O5 O 0.75000 0.25000 0.47980
Y1 Y 0.75000 0.25000 0.28865
Y1E Y 0.25000 -0.25000 0.21135
Y1G Y 0.25000 0.75000 0.21135
O1G O 0.47100 0.62540 0.14700
C1G C 0.53460 0.52400 0.19921
C2G C 0.45630 0.47600 0.30217
O3G O 0.51950 0.36830 0.35120
O1B O 0.87460 0.47100 0.35300
O2G O 0.65850 0.45690 0.17710
O2E O 0.84150 0.04310 0.17710
O3E O 0.98050 0.13170 0.35120
O4B O 0.95230 0.33920 0.17193
H1B H 0.75080 0.33820 0.52120
O4G O 0.33920 0.54770 0.32807
#END
