
#######################################################################
#
#                 Cambridge Crystallographic Data Centre
#                                CCDC
#
#######################################################################
#
# If this CIF has been generated from an entry in the Cambridge
# Structural Database, then it will include bibliographic, chemical,
# crystal, experimental, refinement or atomic coordinate data resulting
# from the CCDC's data processing and validation procedures.
#
#######################################################################

data_CSD_CIF_YOXALT
_audit_creation_date 1975-12-19
_audit_creation_method CSD-ConQuest-V1
_database_code_CSD YOXALT
_database_code_depnum_ccdc_archive 'CCDC 1305824'
_chemical_formula_sum 'C4 H7 O11 Y1'
_chemical_formula_moiety
;
(C4 H2 O9 Y1 1-)n,n(H3 O1 1+),n(H2 O1)
;
_journal_coden_Cambridge 8
_journal_volume 62
_journal_year 1975
_journal_page_first 3797
_journal_name_full 'AIP J.Chem.Phys. '
loop_
_publ_author_name
"G.D.Brunton"
"C.K.Johnson"
_chemical_name_systematic
;
catena-(bis(\m~2~-Oxalato-O,O',O'',O''')-aqua-yttrium oxonium monohydrate)
;
_cell_volume    969.801
_diffrn_ambient_temperature ?
_diffrn_radiation_probe 'neutron radiation'
_diffrn_special_details
;
The study was carried out at room temperature,in the range 283-303K

;
_refine_special_details
;
The diaqua-ion is disordered.

;
#These two values have been output from a single CSD field.
_refine_ls_R_factor_gt 0.0489
_refine_ls_wR_factor_gt 0.0489
_symmetry_cell_setting tetragonal
_symmetry_space_group_name_H-M 'P 42/n'
_symmetry_Int_Tables_number 86
loop_
_symmetry_equiv_pos_site_id
_symmetry_equiv_pos_as_xyz
1 x,y,z
2 -y,1/2+x,1/2+z
3 1/2-x,1/2-y,z
4 1/2+y,-x,1/2+z
5 -x,-y,-z
6 y,-1/2-x,-1/2-z
7 -1/2+x,-1/2+y,-z
8 -1/2-y,x,-1/2-z
_cell_length_a 8.6962(6)
_cell_length_b 8.6962(6)
_cell_length_c 12.824(3)
_cell_angle_alpha 90
_cell_angle_beta 90
_cell_angle_gamma 90
_cell_formula_units_Z 4
loop_
_atom_type_symbol
_atom_type_radius_bond
C 0.68
H 0.23
O 0.68
Y 1.78
loop_
_atom_site_label
_atom_site_type_symbol
_atom_site_fract_x
_atom_site_fract_y
_atom_site_fract_z
C1 C 0.52390 -0.03470 0.30084
C2 C 0.47640 0.04370 0.19799
H1 H 0.74810 0.16190 0.52160
O1 O 0.62570 0.02920 0.35310
O2 O 0.45670 -0.15840 0.32300
O3 O 0.36840 -0.01940 0.14860
O4 O 0.54780 0.16120 0.17219
O5 O 0.75000 0.25000 0.47980
Y1 Y 0.75000 0.25000 0.28866
H1B H 0.75190 0.33810 0.52160
C1B C 0.97610 0.53470 0.30084
C2B C 1.02360 0.45630 0.19799
O1B O 0.87430 0.47080 0.35310
O2B O 1.04330 0.65840 0.32300
O3B O 1.13160 0.51940 0.14860
O4B O 0.95220 0.33880 0.17219
Y1E Y 0.25000 -0.25000 0.21134
O2E O 0.84160 0.04330 0.17700
O2G O 0.65840 0.45670 0.17700
O3E O 0.98060 0.13160 0.35140
O3G O 0.51940 0.36840 0.35140
Y1E* Y 1.25000 0.75000 0.21134
#END
