
#######################################################################
#
#                 Cambridge Crystallographic Data Centre
#                                CCDC
#
#######################################################################
#
# If this CIF has been generated from an entry in the Cambridge
# Structural Database, then it will include bibliographic, chemical,
# crystal, experimental, refinement or atomic coordinate data resulting
# from the CCDC's data processing and validation procedures.
#
#######################################################################

data_CSD_CIF_YOYCEV
_audit_creation_date 2009-11-24
_audit_creation_method CSD-ConQuest-V1
_database_code_CSD YOYCEV
_database_code_depnum_ccdc_archive 'CCDC 708860'
_chemical_formula_sum 'C44 H102 K1 N13 Ni2 O8 Si2'
_chemical_formula_moiety
;
(C4 H12 N1 1+)n,n(C32 H72 K1 N10 Ni2 O6 Si2 1-),2n(C4 H9 N1 O1)
;
_journal_coden_Cambridge 222
_journal_year 2009
_journal_page_first 2986
_journal_name_full 'Dalton Trans. '
loop_
_publ_author_name
"D.Powell-Jia"
"J.W.Ziller"
"A.G.DiPasquale"
"A.Rheingold"
"A.S.Borovik"
_chemical_name_systematic
;
catena-[Tetramethylammonium 
bis(\m~3~-N,N-bis(2-(N'-isopropylureido)ethyl)methylamine-N,N',N'',O,O')-bis(t
rimethylsiloxy)-di-nickel(ii)-potassium dimethylacetamide solvate]
;
_cell_volume  10727.408
_exptl_crystal_colour 'red'
_exptl_crystal_description 'polyhedra'
_exptl_crystal_preparation 'diethyl ether/dimethylacetamide/pentane'
_diffrn_ambient_temperature 158
_refine_special_details
;
The methyl carbon atoms from one of the two independent isopropyl units are 
disordered over two sites of equal occupancy. The formula of the structure 
given in the paper suggests the compound contains a dimethylacetamide solvent 
molecule, and the crystallographic data in the paper also includes the 
additional solvent. The deposited cif, however, does not include any solvent, 
either modelled in the data or included in the given formula. The structure 
contains 0.65% void space, suggesting additional unmodelled solvent may be 
present.
;
#These two values have been output from a single CSD field.
_refine_ls_R_factor_gt 0.0258
_refine_ls_wR_factor_gt 0.0258
_symmetry_cell_setting tetragonal
_symmetry_space_group_name_H-M 'I -4 2 d'
_symmetry_Int_Tables_number 122
loop_
_symmetry_equiv_pos_site_id
_symmetry_equiv_pos_as_xyz
1 x,y,z
2 -x,-y,z
3 y,-x,-z
4 -y,x,-z
5 1/2-x,y,3/4-z
6 1/2+x,-y,3/4-z
7 1/2-y,-x,3/4+z
8 1/2+y,x,3/4+z
9 1/2+x,1/2+y,1/2+z
10 1/2-x,1/2-y,1/2+z
11 1/2+y,1/2-x,1/2-z
12 1/2-y,1/2+x,1/2-z
13 -x,1/2+y,1/4-z
14 x,1/2-y,1/4-z
15 -y,1/2-x,1/4+z
16 y,1/2+x,1/4+z
_cell_length_a 24.6663(11)
_cell_length_b 24.6663(11)
_cell_length_c 17.6314(16)
_cell_angle_alpha 90
_cell_angle_beta 90
_cell_angle_gamma 90
_cell_formula_units_Z 8
loop_
_atom_type_symbol
_atom_type_radius_bond
C 0.68
H 0.23
K 2.03
N 0.68
Ni 1.24
O 0.68
Si 1.20
loop_
_atom_site_label
_atom_site_type_symbol
_atom_site_fract_x
_atom_site_fract_y
_atom_site_fract_z
Ni1 Ni 0.259149(9) 0.018619(9) 0.025290(13)
K1 K 0.25000 -0.20167(2) -0.12500
Si1 Si 0.32880(3) 0.01184(3) 0.16500(4)
O1 O 0.32659(5) 0.02233(5) 0.07417(8)
O2 O 0.30204(5) -0.13808(5) -0.03500(8)
O3 O 0.25859(6) 0.18571(5) 0.03860(8)
N1 N 0.18531(6) 0.01434(6) -0.00957(9)
N2 N 0.26397(6) -0.05640(6) -0.00133(9)
N3 N 0.24342(7) 0.09399(6) 0.03830(9)
N4 N 0.35685(7) -0.06721(7) -0.00521(10)
H1 H 0.3566(9) -0.0397(10) 0.0154(13)
N5 N 0.32947(7) 0.12794(7) 0.02270(12)
H2 H 0.3383(11) 0.0967(11) 0.0363(17)
C1 C 0.16799(8) -0.04230(8) 0.00346(14)
H3 H 0.13380 -0.04960 -0.02410
H4 H 0.16150 -0.04830 0.05820
C2 C 0.21196(7) -0.08009(7) -0.02437(13)
H5 H 0.20750 -0.11650 -0.00160
H6 H 0.21030 -0.08360 -0.08030
C3 C 0.30670(7) -0.08957(7) -0.01386(10)
C4 C 0.40658(8) -0.09856(8) -0.01045(13)
H7 H 0.40150 -0.12670 -0.05060
C5 C 0.42052(11) -0.12724(11) 0.06298(17)
H8 H 0.39060 -0.15130 0.07740
H9 H 0.42640 -0.10030 0.10300
H10 H 0.45360 -0.14870 0.05600
C6 C 0.45128(9) -0.06079(11) -0.03601(19)
H11 H 0.44070 -0.04320 -0.08360
H12 H 0.48470 -0.08160 -0.04390
H13 H 0.45750 -0.03310 0.00300
C7 C 0.15593(8) 0.05267(8) 0.04036(14)
H14 H 0.15470 0.03840 0.09280
H15 H 0.11820 0.05740 0.02220
C8 C 0.18536(8) 0.10655(8) 0.03904(14)
H16 H 0.17520 0.12750 -0.00670
H17 H 0.17600 0.12820 0.08450
C9 C 0.27578(8) 0.13759(7) 0.03502(11)
C10 C 0.37095(10) 0.16868(9) 0.03261(16)
H18 H 0.35510 0.20580 0.02750
C11 C 0.4042(4) 0.1653(3) 0.1001(5)
H19 H 0.38190 0.17290 0.14490
H20 H 0.43360 0.19200 0.09690
H21 H 0.41970 0.12880 0.10420
C12 C 0.4129(3) 0.1556(3) -0.0401(5)
H22 H 0.39260 0.15710 -0.08780
H23 H 0.42860 0.11940 -0.03390
H24 H 0.44190 0.18270 -0.04110
C13 C 0.17893(9) 0.02962(9) -0.09067(13)
H25 H 0.19060 0.06720 -0.09790
H26 H 0.14080 0.02610 -0.10540
H27 H 0.20120 0.00560 -0.12220
C14 C 0.28419(17) 0.06038(14) 0.21861(17)
H28 H 0.24660 0.05620 0.20170
H29 H 0.29620 0.09760 0.20900
H30 H 0.28660 0.05270 0.27300
C15 C 0.30712(13) -0.05881(11) 0.18984(15)
H31 H 0.26970 -0.06460 0.17320
H32 H 0.30940 -0.06390 0.24490
H33 H 0.33090 -0.08490 0.16450
C16 C 0.40015(15) 0.02048(13) 0.1979(2)
H34 H 0.41260 0.05720 0.18560
H35 H 0.42340 -0.00610 0.17240
H36 H 0.40190 0.01490 0.25290
N6 N 0.27028(9) -0.25000 0.12500
C17 C 0.30502(9) -0.26124(10) 0.05681(12)
H37 H 0.32800 -0.29290 0.06670
H38 H 0.32800 -0.22970 0.04640
H39 H 0.28180 -0.26850 0.01280
C18 C 0.23540(9) -0.20178(9) 0.10971(12)
H40 H 0.25840 -0.17020 0.09970
H41 H 0.21240 -0.19460 0.15390
H42 H 0.21250 -0.20890 0.06540
C19? C 0.3706(3) 0.1843(3) 0.1243(4)
C20? C 0.4211(2) 0.1526(3) 0.0081(6)
H43? H 0.36040 0.20020 0.00420
H44? H 0.33390 0.19530 0.13940
H45? H 0.39590 0.21430 0.13350
H46? H 0.38170 0.15270 0.15400
H47? H 0.41950 0.14390 -0.04600
H48? H 0.43260 0.12050 0.03660
H49? H 0.44720 0.18200 0.01630
Ni1B Ni 0.018619(9) -0.259149(9) -0.025290(13)
K1C K 0.20167 0.25000(2) 0.12500
K1B K -0.20167 -0.25000(2) 0.12500
Si1B Si 0.01184(3) -0.32880(3) -0.16500(4)
O1B O 0.02233(5) -0.32659(5) -0.07417(8)
O2B O -0.13808(5) -0.30204(5) 0.03500(8)
O2D O 0.19796(5) -0.13808(5) -0.21500(8)
O3B O 0.18571(6) -0.25859(5) -0.03860(8)
O3F O 0.31429(6) -0.25859(5) -0.21140(8)
N1B N 0.01434(6) -0.18531(6) 0.00957(9)
N2B N -0.05640(6) -0.26397(6) 0.00133(9)
N3B N 0.09399(7) -0.24342(6) -0.03830(9)
N4B N -0.06721(7) -0.35685(7) 0.00521(10)
H1B H -0.0397(9) -0.3566(10) -0.0154(13)
N5B N 0.12794(7) -0.32947(7) -0.02270(12)
H2B H 0.0967(11) -0.3383(11) -0.0363(17)
C1B C -0.04230(8) -0.16799(8) -0.00346(14)
H3B H -0.04960 -0.13380 0.02410
H4B H -0.04830 -0.16150 -0.05820
C2B C -0.08009(7) -0.21196(7) 0.02437(13)
H5B H -0.11650 -0.20750 0.00160
H6B H -0.08360 -0.21030 0.08030
C3B C -0.08957(7) -0.30670(7) 0.01386(10)
C4B C -0.09856(8) -0.40658(8) 0.01045(13)
H7B H -0.12670 -0.40150 0.05060
C5B C -0.12724(11) -0.42052(11) -0.06298(17)
H8B H -0.15130 -0.39060 -0.07740
H9B H -0.10030 -0.42640 -0.10300
H10B H -0.14870 -0.45360 -0.05600
C6B C -0.06079(9) -0.45128(11) 0.03601(19)
H11B H -0.04320 -0.44070 0.08360
H12B H -0.08160 -0.48470 0.04390
H13B H -0.03310 -0.45750 -0.00300
C7B C 0.05267(8) -0.15593(8) -0.04036(14)
H14B H 0.03840 -0.15470 -0.09280
H15B H 0.05740 -0.11820 -0.02220
C8B C 0.10655(8) -0.18536(8) -0.03904(14)
H16B H 0.12750 -0.17520 0.00670
H17B H 0.12820 -0.17600 -0.08450
C9B C 0.13759(8) -0.27578(7) -0.03502(11)
C10B C 0.16868(10) -0.37095(9) -0.03261(16)
H18B H 0.20580 -0.35510 -0.02750
C11B C 0.1653(4) -0.4042(3) -0.1001(5)
H19B H 0.17290 -0.38190 -0.14490
H20B H 0.19200 -0.43360 -0.09690
H21B H 0.12880 -0.41970 -0.10420
C12B C 0.1556(3) -0.4129(3) 0.0401(5)
H22B H 0.15710 -0.39260 0.08780
H23B H 0.11940 -0.42860 0.03390
H24B H 0.18270 -0.44190 0.04110
C13B C 0.02962(9) -0.17893(9) 0.09067(13)
H25B H 0.06720 -0.19060 0.09790
H26B H 0.02610 -0.14080 0.10540
H27B H 0.00560 -0.20120 0.12220
C14B C 0.06038(17) -0.28419(14) -0.21861(17)
H28B H 0.05620 -0.24660 -0.20170
H29B H 0.09760 -0.29620 -0.20900
H30B H 0.05270 -0.28660 -0.27300
C15B C -0.05881(13) -0.30712(11) -0.18984(15)
H31B H -0.06460 -0.26970 -0.17320
H32B H -0.06390 -0.30940 -0.24490
H33B H -0.08490 -0.33090 -0.16450
C16B C 0.02048(15) -0.40015(13) -0.1979(2)
H34B H 0.05720 -0.41260 -0.18560
H35B H -0.00610 -0.42340 -0.17240
H36B H 0.01490 -0.40190 -0.25290
C17M C 0.30502(9) -0.23876(10) 0.19319(12)
H37M H 0.32800 -0.20710 0.18330
H38M H 0.32800 -0.27030 0.20360
H39M H 0.28180 -0.23150 0.23720
C18M C 0.23540(9) -0.29822(9) 0.14029(12)
H40M H 0.25840 -0.32980 0.15030
H41M H 0.21240 -0.30540 0.09610
H42M H 0.21250 -0.29110 0.18460
#END
