
#######################################################################
#
#                 Cambridge Crystallographic Data Centre
#                                CCDC
#
#######################################################################
#
# If this CIF has been generated from an entry in the Cambridge
# Structural Database, then it will include bibliographic, chemical,
# crystal, experimental, refinement or atomic coordinate data resulting
# from the CCDC's data processing and validation procedures.
#
#######################################################################

data_CSD_CIF_YOYRUB
_audit_creation_date 2015-02-20
_audit_creation_method CSD-ConQuest-V1
_database_code_CSD YOYRUB
_database_code_depnum_ccdc_archive 'CCDC 1010731'
_chemical_formula_sum 'C28 H20 N4 O12 U1'
_chemical_formula_moiety
;
(C16 H6 O11 U1 2-)n,C12 H12 N4 2+,H2 O1
;
_journal_coden_Cambridge 1147
_journal_volume 14
_journal_year 2014
_journal_page_first 5904
_journal_name_full 'Cryst.Growth Des. '
loop_
_publ_author_name
"Weiting Yang"
"Wan-Guo Tian"
"Xiao-Xiao Liu"
"Lei Wang"
"Zhong-Ming Sun"
_chemical_name_systematic
;
catena-[1,1'-benzene-1,4-diylbis(1H-imidazol-3-ium) 
(\m-4,4'-oxydiphthalato)-dioxo-uranium monohydrate]
;
_cell_volume   2733.634
_exptl_crystal_colour 'yellow'
_exptl_crystal_density_diffrn 2.042
_exptl_crystal_description 'block'
_diffrn_ambient_temperature 293
#These two values have been output from a single CSD field.
_refine_ls_R_factor_gt 0.0417
_refine_ls_wR_factor_gt 0.0417
_symmetry_cell_setting monoclinic
_symmetry_space_group_name_H-M 'P 21/n'
_symmetry_Int_Tables_number 14
loop_
_symmetry_equiv_pos_site_id
_symmetry_equiv_pos_as_xyz
1 x,y,z
2 1/2-x,1/2+y,1/2-z
3 -x,-y,-z
4 -1/2+x,-1/2-y,-1/2+z
_cell_length_a 12.3655(9)
_cell_length_b 16.4911(12)
_cell_length_c 14.7331(10)
_cell_angle_alpha 90
_cell_angle_beta 114.511(2)
_cell_angle_gamma 90
_cell_formula_units_Z 4
loop_
_atom_type_symbol
_atom_type_radius_bond
C 0.68
H 0.23
N 0.68
O 0.68
U 1.96
loop_
_atom_site_label
_atom_site_type_symbol
_atom_site_fract_x
_atom_site_fract_y
_atom_site_fract_z
U1 U 0.55751(3) 0.093641(15) -0.339783(19)
O1 O 0.4425(5) 0.1648(3) -0.3605(3)
O2 O 0.6706(5) 0.0222(3) -0.3213(4)
O3 O 0.6796(5) 0.1540(3) -0.1848(3)
O4 O 0.8170(5) 0.0769(4) -0.0715(4)
O5 O 0.5244(4) 0.0319(3) -0.2117(3)
O6 O 0.3610(5) 0.0491(3) -0.1874(4)
O7 O 0.5875(4) 0.0099(3) 0.4148(3)
O8 O 0.5099(4) 0.0987(3) 0.4848(3)
O9 O 0.5768(6) 0.3030(3) 0.5509(4)
O10 O 0.6749(4) 0.1908(3) 0.6221(3)
O11 O 0.7464(5) 0.1885(3) 0.2194(4)
C1 C 0.7246(8) 0.1165(4) -0.1018(5)
C2 C 0.4663(7) 0.0582(4) -0.1614(5)
C3 C 0.6600(7) 0.1216(4) -0.0349(5)
C4 C 0.5400(7) 0.0991(4) -0.0642(5)
C5 C 0.4908(7) 0.1096(4) 0.0048(5)
H1 H 0.41130 0.09640 -0.01390
C6 C 0.5556(7) 0.1387(4) 0.0993(5)
H2 H 0.52080 0.14430 0.14410
C7 C 0.6719(7) 0.1592(4) 0.1266(5)
C8 C 0.7240(7) 0.1508(4) 0.0603(5)
H3 H 0.80330 0.16520 0.08010
C9 C 0.6327(7) 0.2412(4) 0.5494(5)
C10 C 0.5742(6) 0.0801(4) 0.4417(5)
C11 C 0.6545(7) 0.2240(4) 0.4591(5)
C12 C 0.6337(7) 0.1477(4) 0.4109(5)
C13 C 0.6625(6) 0.1356(4) 0.3304(5)
H4 H 0.65100 0.08500 0.30010
C14 C 0.7082(7) 0.1983(4) 0.2952(5)
C15 C 0.7278(7) 0.2733(5) 0.3407(5)
H5 H 0.75850 0.31550 0.31660
C16 C 0.7019(7) 0.2856(4) 0.4221(5)
H6 H 0.71640 0.33610 0.45300
O12 O 0.681(1) 0.8962(6) 0.8606(9)
N1 N 0.6013(8) 0.3289(4) -0.2592(6)
H7 H 0.57090 0.31700 -0.32160
N2 N 0.6149(7) 0.3550(4) -0.1134(5)
N3 N 0.5236(6) 0.4271(4) 0.2194(5)
N4 N 0.4461(6) 0.4335(4) 0.3263(5)
H8 H 0.39880 0.42640 0.35510
C17 C 0.7152(12) 0.3467(7) -0.2050(9)
H9 H 0.77510 0.34760 -0.22760
C18 C 0.7282(10) 0.3633(7) -0.1111(8)
H10 H 0.79790 0.37730 -0.05660
C19 C 0.5432(9) 0.3323(5) -0.2029(6)
H11 H 0.46300 0.32030 -0.22340
C20 C 0.5097(9) 0.3290(5) -0.0103(7)
H12 H 0.47150 0.28560 -0.05140
C21 C 0.5881(8) 0.3732(4) -0.0295(6)
C22 C 0.6494(8) 0.4329(6) 0.0334(6)
H13 H 0.70890 0.46040 0.02290
C23 C 0.6239(8) 0.4531(6) 0.1135(7)
H14 H 0.66170 0.49670 0.15430
C24 C 0.5425(7) 0.4082(5) 0.1319(6)
C25 C 0.4848(9) 0.3479(5) 0.0713(7)
H15 H 0.42810 0.31830 0.08340
C26 C 0.4283(8) 0.4059(5) 0.2363(6)
H16 H 0.36220 0.37730 0.19300
C27 C 0.5984(8) 0.4704(5) 0.3007(6)
H17 H 0.67070 0.49300 0.30870
C28 C 0.5506(7) 0.4744(5) 0.3655(5)
H18 H 0.58270 0.50050 0.42690
U1* U 0.55751(3) 0.093641(15) 0.660217(19)
U1B U 0.44249(3) -0.093641(15) 0.339783(19)
O7B O 0.4125(4) -0.0099(3) -0.4148(3)
O8* O 0.5099(4) 0.0987(3) -0.5152(3)
O10* O 0.6749(4) 0.1908(3) -0.3779(3)
#END
