
#######################################################################
#
#                 Cambridge Crystallographic Data Centre
#                                CCDC
#
#######################################################################
#
# If this CIF has been generated from an entry in the Cambridge
# Structural Database, then it will include bibliographic, chemical,
# crystal, experimental, refinement or atomic coordinate data resulting
# from the CCDC's data processing and validation procedures.
#
#######################################################################

data_CSD_CIF_YOYSEM
_audit_creation_date 2015-02-20
_audit_creation_method CSD-ConQuest-V1
_database_code_CSD YOYSEM
_database_code_depnum_ccdc_archive 'CCDC 1010733'
_chemical_formula_sum 'C46 H39 N10 O14 U1'
_chemical_formula_moiety
;
(C28 H16 N4 O11 U1 2-)n,C12 H12 N4 2+,0.5(C12 H10 N4),3(H2 O1)
;
_journal_coden_Cambridge 1147
_journal_volume 14
_journal_year 2014
_journal_page_first 5904
_journal_name_full 'Cryst.Growth Des. '
loop_
_publ_author_name
"Weiting Yang"
"Wan-Guo Tian"
"Xiao-Xiao Liu"
"Lei Wang"
"Zhong-Ming Sun"
_chemical_name_systematic
;
catena-[1,1'-(1,4-phenylene)bis-1H-imidazol-3-ium 
hemikis(1,1'-(1,4-phenylene)bis-1H-imidazole) 
(\m-4,4'-oxydiphthalato)-(1-(4-(1H-imidazol-1-yl)phenyl)-1H-imidazole)-dioxo-u
ranium trihydrate]
;
_cell_volume   4669.176
_exptl_crystal_density_diffrn 1.69
_diffrn_ambient_temperature 296
#These two values have been output from a single CSD field.
_refine_ls_R_factor_gt 0.0453
_refine_ls_wR_factor_gt 0.0453
_symmetry_cell_setting monoclinic
_symmetry_space_group_name_H-M 'P 21/n'
_symmetry_Int_Tables_number 14
loop_
_symmetry_equiv_pos_site_id
_symmetry_equiv_pos_as_xyz
1 x,y,z
2 1/2-x,1/2+y,1/2-z
3 -x,-y,-z
4 -1/2+x,-1/2-y,-1/2+z
_cell_length_a 11.408(2)
_cell_length_b 32.504(6)
_cell_length_c 12.620(3)
_cell_angle_alpha 90
_cell_angle_beta 93.819(4)
_cell_angle_gamma 90
_cell_formula_units_Z 4
loop_
_atom_type_symbol
_atom_type_radius_bond
C 0.68
H 0.23
N 0.68
O 0.68
U 1.96
loop_
_atom_site_label
_atom_site_type_symbol
_atom_site_fract_x
_atom_site_fract_y
_atom_site_fract_z
U1 U 0.83792(2) 0.129492(8) 0.58008(2)
O1 O 0.8291(5) 0.07533(18) 0.5616(5)
O2 O 0.8553(5) 0.18296(17) 0.5994(5)
O3 O 0.8602(5) 0.13728(18) 0.3952(4)
O4 O 0.7702(6) 0.09944(19) 0.2671(5)
O5 O 0.6534(5) 0.13749(17) 0.4929(4)
O6 O 0.5155(5) 0.18450(19) 0.5047(5)
O7 O 0.9412(5) 0.11687(19) -0.2575(4)
O8 O 1.0868(6) 0.1402(3) -0.1496(7)
O9 O 0.6985(5) 0.12547(19) -0.2879(4)
O10 O 0.6888(7) 0.0929(2) -0.1354(5)
O11 O 0.6820(5) 0.23716(16) 0.0547(4)
N1 N 1.0506(5) 0.12841(19) 0.5321(5)
N2 N 1.2003(5) 0.11316(19) 0.4369(5)
N3 N 1.4961(6) 0.02158(19) 0.1875(5)
N4 N 1.5727(6) -0.0298(2) 0.1018(6)
C1 C 0.7821(7) 0.1312(3) 0.3207(6)
C2 C 0.5947(7) 0.1692(2) 0.4589(6)
C3 C 0.6260(6) 0.1865(2) 0.3538(6)
C4 C 0.7061(6) 0.1679(2) 0.2882(6)
C5 C 0.7242(6) 0.1843(2) 0.1883(6)
H1 H 0.77540 0.17120 0.14490
C6 C 0.6668(6) 0.2197(2) 0.1532(6)
C7 C 0.5861(7) 0.2386(2) 0.2153(7)
H2 H 0.54700 0.26230 0.19210
C8 C 0.5652(7) 0.2209(2) 0.3133(6)
H3 H 0.50830 0.23270 0.35330
C9 C 0.9828(7) 0.1394(3) -0.1799(7)
C10 C 0.7182(7) 0.1221(2) -0.1878(6)
C11 C 0.8980(7) 0.1656(2) -0.1245(6)
C12 C 0.7779(6) 0.1578(2) -0.1290(5)
C13 C 0.7064(7) 0.1833(2) -0.0693(6)
H4 H 0.62590 0.17850 -0.07130
C14 C 0.7530(7) 0.2145(2) -0.0092(6)
C15 C 0.8719(7) 0.2226(2) -0.0048(6)
H5 H 0.90320 0.24450 0.03510
C16 C 0.9439(7) 0.1974(2) -0.0611(6)
H6 H 1.02450 0.20190 -0.05630
C17 C 1.0955(6) 0.1010(2) 0.4706(6)
H7 H 1.05960 0.07610 0.45210
C18 C 1.1312(7) 0.1599(3) 0.5387(7)
H8 H 1.12270 0.18400 0.57690
C19 C 1.2234(7) 0.1512(3) 0.4831(7)
H9 H 1.28980 0.16730 0.47650
C20 C 1.2747(6) 0.0902(2) 0.3707(6)
C21 C 1.2276(7) 0.0597(3) 0.3005(7)
H10 H 1.14720 0.05460 0.29510
C22 C 1.3007(7) 0.0377(3) 0.2406(7)
H11 H 1.26990 0.01750 0.19460
C23 C 1.4201(6) 0.0452(2) 0.2478(6)
C24 C 1.4658(7) 0.0752(2) 0.3150(7)
H12 H 1.54620 0.08020 0.31940
C25 C 1.3934(7) 0.0982(2) 0.3768(6)
H13 H 1.42480 0.11870 0.42150
C26 C 1.4792(8) -0.0169(2) 0.1506(6)
H14 H 1.41160 -0.03240 0.15800
C27 C 1.6528(8) 0.0017(3) 0.1068(7)
H15 H 1.72560 0.00150 0.07770
C28 C 1.6080(8) 0.0330(3) 0.1611(7)
H16 H 1.64520 0.05790 0.17790
N5 N 1.1052(6) 0.68955(19) 0.7073(5)
H17 H 1.13160 0.66490 0.71620
N6 N 1.0014(5) 0.74549(17) 0.7211(5)
N7 N 0.6123(7) 0.9000(2) 1.0017(6)
H18 H 0.60740 0.92040 1.04460
N8 N 0.6841(6) 0.8524(2) 0.9050(5)
C29 C 1.1409(7) 0.7177(2) 0.6358(6)
H19 H 1.19970 0.71340 0.58940
C30 C 1.0780(7) 0.7529(2) 0.6426(6)
H20 H 1.08480 0.77680 0.60310
C31 C 1.0237(7) 0.7068(2) 0.7593(6)
H21 H 0.98620 0.69460 0.81450
C32 C 0.9188(6) 0.7738(2) 0.7640(6)
C33 C 0.9425(7) 0.8152(2) 0.7702(7)
H22 H 1.01030 0.82560 0.74290
C34 C 0.8659(7) 0.8415(2) 0.8168(7)
H23 H 0.88170 0.86950 0.82100
C35 C 0.7653(7) 0.8257(2) 0.8573(6)
C36 C 0.7407(8) 0.7840(2) 0.8501(7)
H24 H 0.67290 0.77380 0.87750
C37 C 0.8169(7) 0.7574(3) 0.8018(7)
H25 H 0.80010 0.72950 0.79520
C38 C 0.7096(8) 0.8841(3) 0.9705(7)
H26 H 0.78500 0.89340 0.99060
C39 C 0.5202(8) 0.8788(3) 0.9546(8)
H27 H 0.44110 0.88400 0.96230
C40 C 0.5646(8) 0.8488(3) 0.8944(8)
H28 H 0.52190 0.82940 0.85360
N9 N 0.6453(6) 0.8881(2) 0.2816(5)
N10 N 0.6114(5) 0.94341(18) 0.3719(5)
C41 C 0.7435(7) 0.9126(2) 0.2792(7)
H29 H 0.81150 0.90650 0.24550
C42 C 0.7231(7) 0.9472(2) 0.3348(7)
H30 H 0.77410 0.96930 0.34610
C43 C 0.5670(7) 0.9064(2) 0.3373(6)
H31 H 0.49360 0.89590 0.35090
C44 C 0.5547(6) 0.9724(2) 0.4363(6)
C45 C 0.4344(7) 0.9704(2) 0.4434(7)
H32 H 0.39040 0.95060 0.40540
C46 C 0.3799(7) 0.9981(2) 0.5073(7)
H33 H 0.29900 0.99680 0.51240
O12 O 0.5913(9) 0.5301(3) 0.1748(8)
O13 O 0.5090(17) 0.5275(4) 0.6974(13)
O14 O 0.8567(13) 0.0799(5) 0.0545(12)
U1* U 0.83792(2) 0.129492(8) -0.41992(2)
O7* O 0.9412(5) 0.11687(19) 0.7425(4)
O9* O 0.6985(5) 0.12547(19) 0.7121(4)
N9B N 0.3547(6) 1.1119(2) 0.7184(5)
N10B N 0.3886(5) 1.05659(18) 0.6281(5)
C41B C 0.2565(7) 1.0874(2) 0.7208(7)
H29B H 0.18850 1.09350 0.75450
C42B C 0.2769(7) 1.0528(2) 0.6652(7)
H30B H 0.22590 1.03070 0.65390
C43B C 0.4330(7) 1.0936(2) 0.6627(6)
H31B H 0.50640 1.10410 0.64910
C44B C 0.4453(6) 1.0276(2) 0.5637(6)
C45B C 0.5656(7) 1.0296(2) 0.5566(7)
H32B H 0.60960 1.04940 0.59460
C46B C 0.6201(7) 1.0019(2) 0.4927(7)
H33B H 0.70100 1.00320 0.48760
#END
