
#######################################################################
#
#                 Cambridge Crystallographic Data Centre
#                                CCDC
#
#######################################################################
#
# If this CIF has been generated from an entry in the Cambridge
# Structural Database, then it will include bibliographic, chemical,
# crystal, experimental, refinement or atomic coordinate data resulting
# from the CCDC's data processing and validation procedures.
#
#######################################################################

data_CSD_CIF_YOYSAI
_audit_creation_date 2015-02-20
_audit_creation_method CSD-ConQuest-V1
_database_code_CSD YOYSAI
_database_code_depnum_ccdc_archive 'CCDC 1010732'
_chemical_formula_sum 'C26 H28 N4 O14 U1'
_chemical_formula_moiety
;
(C16 H6 O11 U1 2-)n,C10 H16 N4 2+,3(H2 O1)
;
_journal_coden_Cambridge 1147
_journal_volume 14
_journal_year 2014
_journal_page_first 5904
_journal_name_full 'Cryst.Growth Des. '
loop_
_publ_author_name
"Weiting Yang"
"Wan-Guo Tian"
"Xiao-Xiao Liu"
"Lei Wang"
"Zhong-Ming Sun"
_chemical_name_systematic
;
catena-[1,1'-butane-1,4-diylbis(1H-imidazol-3-ium) 
(\m-4,4'-oxydiphthalato)-dioxo-uranium trihydrate]
;
_cell_volume   1425.630
_exptl_crystal_colour 'yellow'
_exptl_crystal_density_diffrn 1.986
_exptl_crystal_description 'block'
_diffrn_ambient_temperature 293
#These two values have been output from a single CSD field.
_refine_ls_R_factor_gt 0.0413
_refine_ls_wR_factor_gt 0.0413
_symmetry_cell_setting triclinic
_symmetry_space_group_name_H-M 'P -1'
_symmetry_Int_Tables_number 2
loop_
_symmetry_equiv_pos_site_id
_symmetry_equiv_pos_as_xyz
1 x,y,z
2 -x,-y,-z
_cell_length_a 11.0082(7)
_cell_length_b 11.9635(8)
_cell_length_c 12.6607(8)
_cell_angle_alpha 87.187(1)
_cell_angle_beta 64.968(1)
_cell_angle_gamma 71.500(1)
_cell_formula_units_Z 2
loop_
_atom_type_symbol
_atom_type_radius_bond
C 0.68
H 0.23
N 0.68
O 0.68
U 1.96
loop_
_atom_site_label
_atom_site_type_symbol
_atom_site_fract_x
_atom_site_fract_y
_atom_site_fract_z
U1 U 1.59701(3) -0.14090(2) 0.64404(2)
O1 O 1.5238(5) -0.2237(4) 0.5911(5)
O2 O 1.6725(5) -0.0589(4) 0.6943(5)
O3 O 1.4132(5) 0.0425(4) 0.6760(4)
O4 O 1.3316(5) 0.0673(4) 0.5405(4)
O5 O 0.9998(7) 0.1794(6) 0.5827(5)
O6 O 1.1654(5) 0.2604(5) 0.4842(4)
O7 O 0.8576(5) 0.4695(4) 0.9476(4)
O8 O 0.5902(6) 0.1311(4) 1.1707(5)
O9 O 0.5990(8) 0.1548(6) 0.9953(6)
O10 O 0.2543(5) 0.4856(5) 1.3304(5)
O11 O 0.3282(5) 0.2983(4) 1.2579(4)
C1 C 1.3254(7) 0.0971(6) 0.6368(6)
C2 C 1.2055(7) 0.2005(6) 0.7145(6)
C3 C 1.2015(8) 0.2357(7) 0.8186(6)
H1 H 1.27720 0.19830 0.83680
C4 C 1.0867(8) 0.3255(7) 0.8957(6)
H2 H 1.08620 0.35050 0.96440
C5 C 0.9727(7) 0.3778(6) 0.8700(6)
C6 C 0.9739(7) 0.3447(6) 0.7673(6)
H3 H 0.89630 0.38110 0.75100
C7 C 1.0907(7) 0.2569(6) 0.6878(6)
C8 C 1.0846(8) 0.2275(6) 0.5767(6)
C9 C 0.7334(7) 0.4466(6) 1.0190(6)
C10 C 0.6249(8) 0.5403(6) 1.0935(7)
H4 H 0.63450 0.61490 1.09220
C11 C 0.5007(8) 0.5219(6) 1.1705(7)
H5 H 0.42650 0.58500 1.22170
C12 C 0.4845(7) 0.4105(6) 1.1732(6)
C13 C 0.5942(7) 0.3167(6) 1.0947(6)
C14 C 0.7179(7) 0.3362(6) 1.0171(6)
H6 H 0.79110 0.27460 0.96320
C15 C 0.5898(8) 0.1935(7) 1.0866(7)
C16 C 0.3459(7) 0.4000(6) 1.2601(6)
C17 C 1.0266(8) 0.3402(7) 0.2273(7)
H7 H 1.10000 0.29060 0.16220
C18 C 0.8935(9) 0.3949(8) 0.2418(7)
H8 H 0.85680 0.38990 0.18890
C19 C 0.9097(9) 0.4416(7) 0.3990(7)
H9 H 0.88750 0.47340 0.47300
C20 C 0.6705(8) 0.5320(7) 0.4036(8)
H10 H 0.64260 0.56680 0.34310
H11 H 0.65730 0.59610 0.45560
C21 C 0.5777(8) 0.4619(7) 0.4711(8)
H12 H 0.60650 0.42600 0.53080
H13 H 0.58950 0.39860 0.41880
N1 N 1.0343(7) 0.3706(6) 0.3249(6)
H14 H 1.10930 0.34710 0.33700
N2 N 0.8212(6) 0.4597(5) 0.3490(5)
C22 C 0.1765(10) 0.8528(8) 0.5845(9)
H15 H 0.25790 0.81650 0.51690
C23 C 0.1727(10) 0.8836(9) 0.6845(9)
H16 H 0.24950 0.87130 0.70220
C24 C -0.0458(10) 0.9342(8) 0.7025(9)
H17 H -0.14430 0.96290 0.73360
C25 C -0.0265(15) 1.0049(14) 0.8704(12)
H18 H -0.00900 1.08010 0.85800
H19 H -0.12850 1.02160 0.90780
C26 C 0.0268(17) 0.9502(14) 0.9411(12)
H20 H 0.12960 0.92070 0.90050
H21 H -0.00650 0.88350 0.96780
N3 N 0.0317(8) 0.9378(8) 0.7571(7)
N4 N 0.0403(9) 0.8834(7) 0.5970(7)
H22 H 0.01550 0.87110 0.54390
O12 O 0.6826(8) 0.8854(7) 0.9724(7)
O13 O 0.445(2) 0.7720(18) 0.3217(18)
O14 O 0.288(2) 0.8115(16) 0.2416(15)
U1A U 0.40299(3) 0.14090(2) 1.35596(2)
U1A* U 1.40299(3) 0.14090(2) 0.35596(2)
O4A O 1.6684(5) -0.0673(4) 0.4595(4)
O6A O 1.8346(5) -0.2604(5) 0.5158(4)
O8A O 1.4098(6) -0.1311(4) 0.8293(5)
O11A O 1.6718(5) -0.2983(4) 0.7421(4)
C17A C -0.0266(8) 0.6598(7) 0.7727(7)
H7A H -0.10000 0.70940 0.83780
C18A C 0.1065(9) 0.6051(8) 0.7582(7)
H8A H 0.14320 0.61010 0.81110
C19A C 0.0903(9) 0.5584(7) 0.6010(7)
H9A H 0.11250 0.52660 0.52700
C20A C 0.3295(8) 0.4680(7) 0.5964(8)
H10A H 0.35740 0.43320 0.65690
H11A H 0.34270 0.40390 0.54440
C21A C 0.4223(8) 0.5381(7) 0.5289(8)
H12A H 0.39350 0.57400 0.46920
H13A H 0.41050 0.60140 0.58120
N1A N -0.0343(7) 0.6294(6) 0.6751(6)
H14A H -0.10930 0.65290 0.66300
N2A N 0.1788(6) 0.5403(5) 0.6510(5)
C22A C -0.1765(10) 1.1472(8) 1.4155(9)
H15A H -0.25790 1.18350 1.48310
C23A C -0.1727(10) 1.1164(9) 1.3155(9)
H16A H -0.24950 1.12870 1.29780
C24A C 0.0458(10) 1.0658(8) 1.2975(9)
H17A H 0.14430 1.03710 1.26640
C25A C 0.0265(15) 0.9951(14) 1.1296(12)
H18A H 0.00900 0.91990 1.14200
H19A H 0.12850 0.97840 1.09220
C26A C -0.0268(17) 1.0498(14) 1.0589(12)
H20A H -0.12960 1.07930 1.09950
H21A H 0.00650 1.11650 1.03220
N3A N -0.0317(8) 1.0622(8) 1.2429(7)
N4A N -0.0403(9) 1.1166(7) 1.4030(7)
H22A H -0.01550 1.12890 1.45610
#END
