
#######################################################################
#
#                 Cambridge Crystallographic Data Centre
#                                CCDC
#
#######################################################################
#
# If this CIF has been generated from an entry in the Cambridge
# Structural Database, then it will include bibliographic, chemical,
# crystal, experimental, refinement or atomic coordinate data resulting
# from the CCDC's data processing and validation procedures.
#
#######################################################################

data_CSD_CIF_YOYSIQ
_audit_creation_date 2015-02-20
_audit_creation_method CSD-ConQuest-V1
_database_code_CSD YOYSIQ
_database_code_depnum_ccdc_archive 'CCDC 1050114'
_chemical_formula_sum 'C26 H26 N4 O16 U2'
_chemical_formula_moiety
;
(C16 H6 O14 U2 2-)n,C10 H16 N4 2+,2(H2 O1)
;
_journal_coden_Cambridge 1147
_journal_volume 14
_journal_year 2014
_journal_page_first 5904
_journal_name_full 'Cryst.Growth Des. '
loop_
_publ_author_name
"Weiting Yang"
"Wan-Guo Tian"
"Xiao-Xiao Liu"
"Lei Wang"
"Zhong-Ming Sun"
_chemical_name_systematic
;
catena-[1,1'-butane-1,4-diylbis(1H-imidazol-3-ium) 
(\m-4,4'-oxydiphthalato)-(\m-oxido)-tetraoxo-di-uranium dihydrate]
;
_cell_volume   3103.316
_exptl_crystal_colour 'yellow'
_exptl_crystal_density_diffrn 2.403
_exptl_crystal_description 'block'
_diffrn_ambient_temperature 293
#These two values have been output from a single CSD field.
_refine_ls_R_factor_gt 0.0408
_refine_ls_wR_factor_gt 0.0408
_symmetry_cell_setting monoclinic
_symmetry_space_group_name_H-M 'P 21/n'
_symmetry_Int_Tables_number 14
loop_
_symmetry_equiv_pos_site_id
_symmetry_equiv_pos_as_xyz
1 x,y,z
2 1/2-x,1/2+y,1/2-z
3 -x,-y,-z
4 -1/2+x,-1/2-y,-1/2+z
_cell_length_a 15.8932(12)
_cell_length_b 9.6528(7)
_cell_length_c 20.5316(16)
_cell_angle_alpha 90
_cell_angle_beta 99.859(2)
_cell_angle_gamma 90
_cell_formula_units_Z 4
loop_
_atom_type_symbol
_atom_type_radius_bond
C 0.68
H 0.23
N 0.68
O 0.68
U 1.96
loop_
_atom_site_label
_atom_site_type_symbol
_atom_site_fract_x
_atom_site_fract_y
_atom_site_fract_z
U1 U 0.39875(2) 0.45891(4) 0.134883(17)
U2 U 0.60225(2) 0.53412(4) 0.056478(17)
O1 O 0.4638(4) 0.4829(6) 0.0498(3)
O2 O 0.5775(4) 0.7126(6) 0.0566(3)
O3 O 0.6356(4) 0.3610(6) 0.0612(3)
O4 O 0.3801(4) 0.6378(7) 0.1374(3)
O5 O 0.4145(4) 0.2769(7) 0.1344(3)
O6 O 0.2962(4) 0.4529(8) 0.0312(3)
O7 O 0.2425(4) 0.3927(8) -0.0673(3)
O8 O 0.2602(4) 0.4102(7) 0.1538(3)
O9 O 0.1636(5) 0.5715(7) 0.1601(4)
O10 O -0.0945(4) 0.2958(7) 0.0491(3)
O11 O -0.0121(4) -0.1737(7) 0.1779(4)
O12 O 0.0745(4) -0.0446(7) 0.2477(3)
O13 O -0.0512(4) -0.0113(7) 0.3282(3)
O14 O -0.1762(4) 0.0854(8) 0.3239(3)
C1 C 0.2336(6) 0.4075(10) -0.0082(5)
C2 C 0.1510(5) 0.3803(9) 0.0127(4)
C3 C 0.1300(6) 0.4082(9) 0.0757(5)
C4 C 0.0481(6) 0.3789(10) 0.0857(5)
H1 H 0.03340 0.39860 0.12670
C5 C -0.0115(5) 0.3226(9) 0.0379(5)
C6 C 0.0075(6) 0.2943(10) -0.0236(5)
H2 H -0.03310 0.25450 -0.05630
C7 C 0.0876(6) 0.3261(11) -0.0360(5)
H3 H 0.09990 0.31090 -0.07810
C8 C 0.1887(7) 0.4695(11) 0.1334(5)
C9 C -0.0988(6) 0.2319(10) 0.1103(5)
C10 C -0.1562(6) 0.2835(10) 0.1458(5)
H4 H -0.19010 0.35940 0.13080
C11 C -0.1627(5) 0.2205(10) 0.2047(4)
H5 H -0.20340 0.25180 0.22890
C12 C -0.1096(6) 0.1104(10) 0.2291(4)
C13 C -0.0522(5) 0.0572(10) 0.1907(5)
C14 C -0.0488(5) 0.1192(9) 0.1301(4)
H6 H -0.01260 0.08410 0.10300
C15 C -0.1148(6) 0.0584(10) 0.2964(4)
C16 C 0.0062(6) -0.0664(11) 0.2073(5)
C17 C 0.8155(7) 0.1078(13) -0.1250(6)
H7 H 0.85810 0.15630 -0.14120
C18 C 0.7720(7) 0.1528(11) -0.0796(6)
H8 H 0.77970 0.23640 -0.05690
C19 C 0.7257(7) -0.0500(12) -0.1106(6)
H9 H 0.69500 -0.13250 -0.11380
C20 C 0.6468(7) 0.0583(12) -0.0308(6)
H10 H 0.60260 -0.00820 -0.04750
H11 H 0.62110 0.14970 -0.03460
C21 C 0.6786(7) 0.0282(12) 0.0412(6)
H12 H 0.72240 0.09480 0.05870
H13 H 0.70380 -0.06360 0.04580
C22 C 0.6055(6) 0.0363(11) 0.0799(6)
H14 H 0.58220 0.12940 0.07670
H15 H 0.56060 -0.02680 0.06060
C23 C 0.6339(7) 0.0001(13) 0.1514(6)
H16 H 0.66080 -0.09040 0.15460
H17 H 0.67600 0.06710 0.17150
C24 C 0.5435(9) 0.0920(13) 0.2301(6)
H18 H 0.57520 0.17180 0.24200
C25 C 0.4481(7) -0.0657(13) 0.2233(6)
H19 H 0.40100 -0.11690 0.23070
C26 C 0.5004(7) -0.0979(12) 0.1825(6)
H20 H 0.49570 -0.17450 0.15470
N1 N 0.7874(6) -0.0212(10) -0.1438(5)
H21 H 0.80610 -0.07390 -0.17200
N2 N 0.4758(8) 0.0574(11) 0.2527(5)
H22 H 0.45230 0.10280 0.28090
N3 N 0.7138(5) 0.0528(10) -0.0728(5)
N4 N 0.5615(6) -0.0012(9) 0.1880(4)
O15 O 0.7905(6) 0.7850(8) 0.7588(4)
O16 O 0.6916(6) 0.2922(10) 0.3117(5)
U1A U 0.10125(2) -0.04109(4) 0.365117(17)
U2A U -0.10225(2) 0.03412(4) 0.443522(17)
U2B U 0.39775(2) 0.46588(4) -0.056478(17)
O1B O 0.5362(4) 0.5171(6) -0.0498(3)
O6B O 0.7038(4) 0.5471(8) -0.0312(3)
O7B O 0.7575(4) 0.6073(8) 0.0673(3)
O12A O 0.4255(4) 0.4554(7) 0.2523(3)
O13A O 0.5512(4) 0.4887(7) 0.1718(3)
O14A O 0.6762(4) 0.5854(8) 0.1761(3)
#END
