
#######################################################################
#
#                 Cambridge Crystallographic Data Centre
#                                CCDC
#
#######################################################################
#
# If this CIF has been generated from an entry in the Cambridge
# Structural Database, then it will include bibliographic, chemical,
# crystal, experimental, refinement or atomic coordinate data resulting
# from the CCDC's data processing and validation procedures.
#
#######################################################################

data_CSD_CIF_YOZQAG
_audit_creation_date 2009-11-24
_audit_creation_method CSD-ConQuest-V1
_database_code_CSD YOZQAG
_database_code_depnum_ccdc_archive 'CCDC 714151'
_chemical_formula_sum 'C123 H133 N13 O53 S6 Zn7'
_chemical_formula_moiety
;
(C84 H39 O39 S6 Zn7 1-)n,n(H3 O1 1+),13n(C3 H7 N1 O1)
;
_journal_coden_Cambridge 1220
_journal_volume 15
_journal_year 2009
_journal_page_first 4523
_journal_name_full 'Chem.-Eur.J. '
loop_
_publ_author_name
"E.Neofotistou"
"C.D.Malliakas"
"P.N.Trikalitis"
_chemical_name_systematic
;
catena-(Oxonium 
tris(\m~4~-4,4'-bi-benzoato-2,2'-sulfone-O,O',O'',O''')-tris(\m~3~-4,4'-bi-ben
zoato-2,2'-sulfone-O,O',O'')-tris(\m~3~-hydroxo)-hepta-zinc dimethylformamide 
solvate)
;
_chemical_name_common
;
UoC-1
;
_cell_volume  33095.815
_exptl_special_details
;
air-sensitive
The paper refers to a small number of water molecules being present, but 
these are not specified in the reported formula
;
_diffrn_ambient_temperature 100
_refine_special_details
;
Most of the dimethylformamide molecules were taken into account using 
PLATON/SQUEEZE.
;
#These two values have been output from a single CSD field.
_refine_ls_R_factor_gt 0.0781
_refine_ls_wR_factor_gt 0.0781
_symmetry_cell_setting rhombohedral
_symmetry_space_group_name_H-M 'R -3'
_symmetry_Int_Tables_number 148
loop_
_symmetry_equiv_pos_site_id
_symmetry_equiv_pos_as_xyz
1 x,y,z
2 -y,x-y,z
3 -x+y,-x,z
4 2/3+x,1/3+y,1/3+z
5 2/3-y,1/3+x-y,1/3+z
6 2/3-x+y,1/3-x,1/3+z
7 1/3+x,2/3+y,2/3+z
8 1/3-y,2/3+x-y,2/3+z
9 1/3-x+y,2/3-x,2/3+z
10 -x,-y,-z
11 y,-x+y,-z
12 x-y,x,-z
13 -2/3-x,-1/3-y,-1/3-z
14 -2/3+y,-1/3-x+y,-1/3-z
15 -2/3+x-y,-1/3+x,-1/3-z
16 -1/3-x,-2/3-y,-2/3-z
17 -1/3+y,-2/3-x+y,-2/3-z
18 -1/3+x-y,-2/3+x,-2/3-z
_cell_length_a 23.078(3)
_cell_length_b 23.078(3)
_cell_length_c 71.754(14)
_cell_angle_alpha 90
_cell_angle_beta 90
_cell_angle_gamma 120
_cell_formula_units_Z 6
loop_
_atom_type_symbol
_atom_type_radius_bond
C 0.68
H 0.23
N 0.68
O 0.68
S 1.02
Zn 1.22
loop_
_atom_site_label
_atom_site_type_symbol
_atom_site_fract_x
_atom_site_fract_y
_atom_site_fract_z
Zn1 Zn 0.66670 0.33330 0.06818(2)
Zn2 Zn 1.17270(5) 0.59803(5) -0.092700(13)
Zn3 Zn 1.22673(5) 0.72621(6) -0.070710(14)
C1 C 0.9981(5) 0.8676(5) -0.21290(13)
C2 C 1.0281(5) 0.8510(4) -0.19692(12)
C3 C 1.0067(5) 0.7854(5) -0.19148(14)
H1 H 0.97540 0.74940 -0.19840
C4 C 1.0758(5) 0.9032(5) -0.18626(12)
H2 H 1.09010 0.94700 -0.18990
C5 C 1.0338(4) 0.7754(4) -0.17522(13)
C6 C 1.1026(5) 0.8918(4) -0.17048(13)
H3 H 1.13610 0.92770 -0.16390
C7 C 1.0802(4) 0.8285(5) -0.16452(12)
C8 C 1.1008(5) 0.8041(5) -0.14843(14)
C9 C 1.0708(4) 0.7352(5) -0.14707(14)
C10 C 1.1472(5) 0.8433(4) -0.13466(13)
H4 H 1.16880 0.88980 -0.13530
C11 C 1.1603(5) 0.8121(5) -0.12027(14)
H5 H 1.18810 0.83780 -0.11060
C12 C 1.0878(4) 0.7048(5) -0.13305(15)
H6 H 1.06840 0.65850 -0.13270
C13 C 1.1331(4) 0.7434(5) -0.11994(13)
C14 C 1.1547(4) 0.7118(6) -0.10561(14)
O1 O 1.1375(3) 0.6512(3) -0.10702(8)
O2 O 1.1917(3) 0.7509(3) -0.09265(9)
O3 O 0.9552(3) 0.8185(3) -0.2226(1)
O4 O 1.0143(3) 0.9267(3) -0.21625(7)
S1 S 1.01747(15) 0.69821(14) -0.16628(5)
O5 O 0.9497(3) 0.6606(4) -0.16033(13)
O6 O 1.0427(4) 0.6667(4) -0.17865(11)
C15 C 1.1026(4) 0.5990(5) -0.06022(12)
C16 C 1.0470(4) 0.5667(5) -0.04600(12)
C17 C 1.0120(5) 0.4974(5) -0.04469(12)
H7 H 1.02160 0.47260 -0.05300
C18 C 1.0333(4) 0.6047(5) -0.03415(13)
H8 H 1.05650 0.65110 -0.03500
C19 C 0.9626(5) 0.4640(5) -0.03118(14)
H9 H 0.93960 0.41760 -0.03020
C20 C 0.9848(5) 0.5730(5) -0.02105(13)
C21 C 0.9493(5) 0.5036(5) -0.01918(13)
C22 C 0.9010(6) 0.4797(5) -0.00342(13)
C23 C 0.9016(5) 0.5324(6) 0.00617(16)
C24 C 0.8589(5) 0.4156(5) 0.00301(14)
H10 H 0.85800 0.37940 -0.00300
C25 C 0.8608(6) 0.5237(5) 0.02126(14)
H11 H 0.86140 0.55980 0.02720
C26 C 0.8189(6) 0.4052(6) 0.01808(15)
H12 H 0.79110 0.36180 0.02230
C27 C 0.8190(7) 0.4581(6) 0.02709(15)
C28 C 0.7748(7) 0.4457(6) 0.04396(16)
O7 O 0.7471(4) 0.3891(3) 0.05069(9)
O8 O 0.7695(5) 0.4947(6) 0.04933(15)
O9 O 1.1082(3) 0.5623(3) -0.07205(8)
O10 O 1.1390(3) 0.6610(3) -0.05881(8)
S2 S 0.9597(2) 0.61086(17) -0.00400(5)
O11 O 1.0135(5) 0.6487(4) 0.00880(12)
O12 O 0.9280(5) 0.6434(4) -0.01230(13)
C29 C 0.7676(9) -0.1007(9) 0.1672(4)
H13 H 0.72560 -0.12380 0.16080
H14 H 0.77750 -0.05620 0.17020
H15 H 0.76520 -0.12430 0.17840
C30 C 0.7977(13) -0.1333(10) 0.1377(3)
H16 H 0.75040 -0.15130 0.13630
H17 H 0.80760 -0.16910 0.13760
H18 H 0.82090 -0.10300 0.12770
C31 C 0.8839(8) -0.0677(7) 0.1608(2)
H19 H 0.91480 -0.06810 0.15250
O13 O 0.9045(4) -0.0397(4) 0.17596(12)
N1 N 0.8196(9) -0.0976(6) 0.1554(2)
O14 O 0.7404(2) 0.3284(2) 0.08436(6)
O15 O 1.00000 0.00000 0.19509(8)
Zn2A Zn 0.40197(5) 0.57467(5) -0.092700(13)
Zn2B Zn 0.42533(5) -0.17270(5) -0.092700(13)
Zn2N Zn 0.908003(50) 0.839367(50) -0.240633(13)
Zn2I Zn 0.82730(5) 0.40197(5) 0.092700(13)
Zn2J Zn 0.59803(5) 0.42533(5) 0.092700(13)
Zn2K Zn 0.57467(5) 0.17270(5) 0.092700(13)
Zn2M Zn 0.931363(50) 0.091997(50) -0.240633(13)
Zn2L Zn 0.160633(50) 0.068637(50) -0.240633(13)
Zn3A Zn 0.27379(5) 0.50052(6) -0.070710(14)
Zn3B Zn 0.49948(5) -0.22673(6) -0.070710(14)
Zn3J Zn 0.72621(5) 0.49948(6) 0.070710(14)
Zn3I Zn 0.77327(5) 0.27379(6) 0.070710(14)
Zn3K Zn 0.50052(5) 0.22673(6) 0.070710(14)
Zn3M Zn 1.059543(50) 0.166147(60) -0.262623(14)
C1M C 1.200933(500) 0.536167(500) -0.120433(130)
C1A C 0.1324(5) 0.1305(5) -0.21290(13)
C2M C 1.184333(500) 0.489567(400) -0.136413(120)
C2A C 0.1490(5) 0.1771(4) -0.19692(12)
C3M C 1.118733(500) 0.445367(500) -0.141853(140)
C3A C 0.2146(5) 0.2213(5) -0.19148(14)
H1M H 1.08273 0.44067 -0.13493
H1A H 0.25060 0.22600 -0.19840
C4M C 1.236533(500) 0.494067(500) -0.147073(120)
C4A C 0.0968(5) 0.1726(5) -0.18626(12)
H2M H 1.28033 0.52357 -0.14343
H2A H 0.05300 0.14310 -0.18990
C5M C 1.108733(400) 0.408267(400) -0.158113(130)
C5A C 0.2246(4) 0.2584(4) -0.17522(13)
C6M C 1.225133(500) 0.455867(400) -0.162853(130)
C6A C 0.1082(5) 0.2108(4) -0.17048(13)
H3M H 1.26103 0.45827 -0.16943
H3A H 0.07230 0.20840 -0.16390
C7M C 1.161833(400) 0.414967(500) -0.168813(120)
C7A C 0.1715(4) 0.2517(5) -0.16452(12)
C8M C 1.137433(500) 0.369967(500) -0.184903(140)
C8A C 0.1959(5) 0.2967(5) -0.14843(14)
C9M C 1.068533(400) 0.331067(500) -0.186263(140)
C9A C 0.2648(4) 0.3356(5) -0.14707(14)
C10M C 1.176633(500) 0.362767(400) -0.198673(130)
C10A C 0.1567(5) 0.3039(4) -0.13466(13)
H4M H 1.22313 0.38767 -0.19803
H4A H 0.11020 0.27900 -0.13530
C11M C 1.145433(500) 0.318467(500) -0.213063(140)
C11A C 0.1879(5) 0.3482(5) -0.12027(14)
H5M H 1.17113 0.31637 -0.22273
H5A H 0.16220 0.35030 -0.11060
C12M C 1.038133(400) 0.283667(500) -0.200283(150)
C12A C 0.2952(4) 0.3830(5) -0.13305(15)
H6M H 0.99183 0.25677 -0.20063
H6A H 0.34150 0.40990 -0.13270
C13M C 1.076733(400) 0.276967(500) -0.213393(130)
C13A C 0.2566(4) 0.3897(5) -0.11994(13)
C14M C 1.045133(400) 0.223767(600) -0.227723(140)
C14A C 0.2882(4) 0.4429(6) -0.10561(14)
O1M O 0.984533(300) 0.180367(300) -0.226313(80)
O1A O 0.3488(3) 0.4863(3) -0.10702(8)
O1B O 0.5137(3) -0.1375(3) -0.10702(8)
O2M O 1.084233(300) 0.225867(300) -0.240683(90)
O2A O 0.2491(3) 0.4408(3) -0.09265(9)
O2B O 0.5592(3) -0.1917(3) -0.09265(9)
O3M O 1.151833(300) 0.529967(300) -0.110733(100)
O3A O 0.1815(3) 0.1367(3) -0.2226(1)
O3N O 0.470033(300) 0.621867(300) -0.110733(100)
O3L O 0.378133(300) -0.151833(300) -0.110733(100)
O4M O 1.260033(300) 0.579067(300) -0.117083(70)
O4A O 0.0733(3) 0.0876(3) -0.21625(7)
S1M S 1.031543(150) 0.347407(140) -0.167053(50)
S1A S 0.30179(15) 0.31926(14) -0.16628(5)
O5M O 0.993933(300) 0.377567(400) -0.173003(130)
O5A O 0.3394(3) 0.2891(4) -0.16033(13)
O6M O 1.000033(400) 0.290667(400) -0.154683(110)
O6A O 0.3333(4) 0.3760(4) -0.17865(11)
C15A C 0.4010(4) 0.5036(5) -0.06022(12)
C15B C 0.4964(4) -0.1026(5) -0.06022(12)
C16A C 0.4333(4) 0.4803(5) -0.04600(12)
C16B C 0.5197(4) -0.0470(5) -0.04600(12)
C17A C 0.5026(5) 0.5146(5) -0.04469(12)
C17B C 0.4854(5) -0.0120(5) -0.04469(12)
H7A H 0.52740 0.54900 -0.05300
H7B H 0.45100 -0.02160 -0.05300
C18A C 0.3953(4) 0.4286(5) -0.03415(13)
C18B C 0.5714(4) -0.0333(5) -0.03415(13)
H8A H 0.34890 0.40540 -0.03500
H8B H 0.59460 -0.05650 -0.03500
C19A C 0.5360(5) 0.4986(5) -0.03118(14)
C19B C 0.5014(5) 0.0374(5) -0.03118(14)
H9A H 0.58240 0.52200 -0.03020
H9B H 0.47800 0.06040 -0.03020
C20A C 0.4270(5) 0.4118(5) -0.02105(13)
C20B C 0.5882(5) 0.0152(5) -0.02105(13)
C21A C 0.4964(5) 0.4457(5) -0.01918(13)
C21B C 0.5543(5) 0.0507(5) -0.01918(13)
C22A C 0.5203(6) 0.4213(5) -0.00342(13)
C22B C 0.5787(6) 0.0990(5) -0.00342(13)
C23A C 0.4676(5) 0.3692(6) 0.00617(16)
C23B C 0.6308(5) 0.0984(6) 0.00617(16)
C24A C 0.5844(5) 0.4433(5) 0.00301(14)
C24B C 0.5567(5) 0.1411(5) 0.00301(14)
H10A H 0.62060 0.47860 -0.00300
H10B H 0.52140 0.14200 -0.00300
C25A C 0.4763(6) 0.3371(5) 0.02126(14)
C25B C 0.6629(6) 0.1392(5) 0.02126(14)
H11A H 0.44020 0.30160 0.02720
H11B H 0.69840 0.13860 0.02720
C26A C 0.5948(6) 0.4137(6) 0.01808(15)
C26B C 0.5863(6) 0.1811(6) 0.01808(15)
H12A H 0.63820 0.42930 0.02230
H12B H 0.57070 0.20890 0.02230
C27A C 0.5419(7) 0.3609(6) 0.02709(15)
C27B C 0.6391(7) 0.1810(6) 0.02709(15)
C28A C 0.5543(7) 0.3291(6) 0.04396(16)
C28B C 0.6709(7) 0.2252(6) 0.04396(16)
O7A O 0.6109(4) 0.3580(3) 0.05069(9)
O7B O 0.6420(4) 0.2529(3) 0.05069(9)
O8A O 0.5053(5) 0.2748(6) 0.04933(15)
O8B O 0.7252(5) 0.2305(6) 0.04933(15)
O8K O 1.2748(5) 0.7695(6) -0.04933(15)
O8I O 0.2305(5) 0.5053(6) -0.04933(15)
O8J O 0.4947(5) -0.2748(6) -0.04933(15)
O9A O 0.4377(3) 0.5459(3) -0.07205(8)
O9B O 0.4541(3) -0.1082(3) -0.07205(8)
O10A O 0.3390(3) 0.4780(3) -0.05881(8)
O10B O 0.5220(3) -0.1390(3) -0.05881(8)
S2A S 0.38914(20) 0.34884(17) -0.00400(5)
S2B S 0.65116(20) 0.04030(17) -0.00400(5)
O11A O 0.3513(5) 0.3648(4) 0.00880(12)
O11B O 0.6352(5) -0.0135(4) 0.00880(12)
O12A O 0.3566(5) 0.2846(4) -0.01230(13)
O12B O 0.7154(5) 0.0720(4) -0.01230(13)
O14A O 0.6716(2) 0.4120(2) 0.08436(6)
O14B O 0.5880(2) 0.2596(2) 0.08436(6)
O14I O 1.2596(2) 0.6716(2) -0.08436(6)
O14J O 0.3284(2) 0.5880(2) -0.08436(6)
O14K O 0.4120(2) -0.2596(2) -0.08436(6)
#END
