
#######################################################################
#
#                 Cambridge Crystallographic Data Centre
#                                CCDC
#
#######################################################################
#
# If this CIF has been generated from an entry in the Cambridge
# Structural Database, then it will include bibliographic, chemical,
# crystal, experimental, refinement or atomic coordinate data resulting
# from the CCDC's data processing and validation procedures.
#
#######################################################################

data_CSD_CIF_YOZSOX
_audit_creation_date 2015-02-20
_audit_creation_method CSD-ConQuest-V1
_database_code_CSD YOZSOX
_database_code_depnum_ccdc_archive 'CCDC 1014809'
_chemical_formula_sum 'C36 H40 Cu1 Mo12 N12 O44 P1'
_chemical_formula_moiety
;
Mo12 O40 P1 3-,n(C12 H10 Cu1 N4 1+),2(C12 H11 N4 1+),4(H2 O1)
;
_journal_coden_Cambridge 440
_journal_volume 39
_journal_year 2015
_journal_page_first 3528
_journal_name_full 'New J.Chem. '
loop_
_publ_author_name
"Shaobin Li"
"Li Zhang"
"Huiyuan Ma"
"Haijun Pang"
"Chunyan Zhao"
_chemical_name_systematic
;
catena-[bis(1-(4-(1H-imidazol-1-yl)phenyl)-1H-imidazol-3-ium) 
(\m~2~-1,1'-(1,4-phenylene)bis(1H-imidazole))-copper(i) 
(\m~12~-phosphato)-tetracosakis(\m~2~-oxido)-dodecaoxo-dodeca-molybdenum 
tetrahydrate]
;
_cell_volume   1668.787
_exptl_crystal_colour 'brown'
_exptl_crystal_density_diffrn 2.574
_exptl_crystal_description 'block'
_diffrn_ambient_temperature 293
_refine_special_details
;
O11,O12,O19,O20 disordered by symmetry over two configurations with occupancy 
0.50; O2W and O3W disordered over two sites with occupancies 0.60:0.40.
;
#These two values have been output from a single CSD field.
_refine_ls_R_factor_gt 0.0716
_refine_ls_wR_factor_gt 0.0716
_symmetry_cell_setting triclinic
_symmetry_space_group_name_H-M 'P -1'
_symmetry_Int_Tables_number 2
loop_
_symmetry_equiv_pos_site_id
_symmetry_equiv_pos_as_xyz
1 x,y,z
2 -x,-y,-z
_cell_length_a 11.158(5)
_cell_length_b 12.946(5)
_cell_length_c 13.292(5)
_cell_angle_alpha 97.478(5)
_cell_angle_beta 112.381(5)
_cell_angle_gamma 104.018(5)
_cell_formula_units_Z 1
loop_
_atom_type_symbol
_atom_type_radius_bond
C 0.68
H 0.23
Cu 1.32
Mo 1.54
N 0.68
O 0.68
P 1.05
loop_
_atom_site_label
_atom_site_type_symbol
_atom_site_fract_x
_atom_site_fract_y
_atom_site_fract_z
Mo1 Mo 1.03259(11) -0.12196(9) 0.23165(10)
Mo2 Mo 1.07692(10) 0.16492(8) 0.26671(9)
Mo3 Mo 0.74962(11) 0.10242(9) 0.03839(9)
Mo4 Mo 1.04277(11) 0.28613(8) 0.03582(9)
Mo5 Mo 0.70539(11) -0.18393(8) -0.00109(9)
Mo6 Mo 0.67332(11) -0.05830(9) -0.22746(10)
P1 P 1.00000 0.00000 0.00000
O1 O 0.5684(9) -0.2721(7) -0.0014(8)
O2 O 1.0433(10) -0.1854(8) 0.3349(8)
O3 O 1.0616(11) 0.4184(7) 0.0545(9)
O4 O 0.9773(13) 0.0986(10) 0.0564(10)
O5 O 0.9481(13) -0.1053(10) 0.0299(10)
O6 O 1.1054(9) 0.2339(7) 0.3932(7)
O7 O 0.6332(10) 0.1480(8) 0.0599(10)
O8 O 0.8810(9) 0.1291(10) 0.1895(8)
O9 O 0.6899(13) -0.0486(7) 0.0469(8)
O10 O 1.0985(10) 0.2714(8) 0.1931(8)
O11 O 1.0737(12) 0.0143(10) 0.1324(10)
O12 O 0.8437(12) -0.0269(9) -0.0294(10)
O13 O 0.6678(14) 0.0476(8) -0.1176(8)
O14 O 0.8597(9) 0.2271(10) 0.0244(8)
O15 O 1.2187(12) -0.0612(10) 0.2635(10)
O16 O 1.0288(11) 0.0123(8) 0.2857(12)
O17 O 0.6350(13) -0.1656(8) -0.1515(8)
O18 O 0.8379(9) -0.1693(9) 0.1435(7)
O19 O 0.5207(9) -0.0841(7) -0.3324(7)
O20 O 1.2180(9) 0.2857(9) 0.0544(7)
O21 O 0.9748(9) 0.2397(9) -0.1172(7)
O22 O 1.2492(12) 0.1491(9) 0.2932(10)
Cu1 Cu 0.50000 0.50000 0.00000
N1 N 0.5737(10) 0.5458(7) 0.3246(8)
N2 N 0.5635(11) 0.5401(8) 0.1567(9)
C1 C 0.5014(13) 0.4971(9) 0.2149(10)
H1 H 0.41850 0.44050 0.18410
C2 C 0.5725(13) 0.6058(9) 0.5085(10)
H2 H 0.62050 0.67710 0.51290
C3 C 0.6886(13) 0.6265(10) 0.3378(11)
H3 H 0.75710 0.67440 0.40440
C4 C 0.5382(14) 0.5834(10) 0.5928(11)
H4 H 0.56470 0.63930 0.65590
C5 C 0.6801(14) 0.6206(11) 0.2330(11)
H5 H 0.74440 0.66500 0.21530
C6 C 0.5348(12) 0.5205(9) 0.4145(9)
N3 N 0.6102(10) 0.8946(8) 0.3398(8)
N4 N 0.1390(11) 0.5929(9) 0.3185(9)
C7 C 0.4066(12) 0.7346(10) 0.2359(10)
H6 H 0.43000 0.72760 0.17580
C8 C 0.3365(13) 0.7602(11) 0.4161(10)
H7 H 0.31090 0.76890 0.47470
C9 C 0.2580(12) 0.6730(9) 0.3218(10)
C10 C 0.4527(13) 0.8337(10) 0.422(1)
H8 H 0.50720 0.89170 0.48510
C11 C 0.8168(14) 1.0095(14) 0.4076(13)
H9 H 0.90440 1.05530 0.45670
C12 C 0.2907(14) 0.660(1) 0.2309(11)
H10 H 0.23550 0.60220 0.16760
C13 C 0.4874(12) 0.8198(9) 0.3315(9)
C14 C 0.7285(13) 0.9457(12) 0.4358(11)
H11 H 0.74390 0.93710 0.50770
N5 N 0.7579(11) 0.9966(9) 0.2964(9)
H12 H 0.79560 1.02780 0.25780
N6 N -0.0656(12) 0.4817(9) 0.2590(11)
C15 C 0.6328(12) 0.9282(11) 0.256(1)
H13 H 0.57010 0.90660 0.18090
C16 C 0.0164(13) 0.5539(11) 0.2315(12)
H14 H -0.00780 0.57360 0.16350
C17 C 0.132(2) 0.5398(16) 0.4009(18)
H15 H 0.20300 0.55130 0.47100
C18 C 0.010(2) 0.4714(17) 0.3643(17)
H16 H -0.02120 0.42390 0.40230
O23 O 0.7175(11) 0.3876(8) 0.0522(9)
H17 H 0.69230 0.31980 0.05390
H18 H 0.78680 0.41990 0.11820
O24 O 0.6899(19) 0.3054(17) 0.2918(14)
O25? O 0.887(4) 0.259(3) 0.454(4)
O4A O 1.0227(13) -0.0986(10) -0.0564(10)
O5A O 1.0519(13) 0.1053(10) -0.0299(10)
O11A O 0.9263(12) -0.0143(10) -0.1324(10)
O12A O 1.1563(12) 0.0269(9) 0.0294(10)
Mo1A Mo 0.96741(11) 0.12196(9) -0.23165(10)
Mo2A Mo 0.92308(10) -0.16492(8) -0.26671(9)
Mo3A Mo 1.25038(11) -0.10242(9) -0.03839(9)
Mo4A Mo 0.95723(11) -0.28613(8) -0.03582(9)
Mo5A Mo 1.29461(11) 0.18393(8) 0.00109(9)
Mo6A Mo 1.32668(11) 0.05830(9) 0.22746(10)
O1A O 1.4316(9) 0.2721(7) 0.0014(8)
O2A O 0.9567(10) 0.1854(8) -0.3349(8)
O3A O 0.9384(11) -0.4184(7) -0.0545(9)
O6A O 0.8946(9) -0.2339(7) -0.3932(7)
O7A O 1.3668(10) -0.1480(8) -0.0599(10)
O8A O 1.1190(9) -0.1291(10) -0.1895(8)
O9A O 1.3101(13) 0.0486(7) -0.0469(8)
O10A O 0.9015(10) -0.2714(8) -0.1931(8)
O13A O 1.3322(14) -0.0476(8) 0.1176(8)
O14A O 1.1403(9) -0.2271(10) -0.0244(8)
O15A O 0.7813(12) 0.0612(10) -0.2635(10)
O16A O 0.9712(11) -0.0123(8) -0.2857(12)
O17A O 1.3650(13) 0.1656(8) 0.1515(8)
O18A O 1.1621(9) 0.1693(9) -0.1435(7)
O19A O 1.4793(9) 0.0841(7) 0.3324(7)
O20A O 0.7820(9) -0.2857(9) -0.0544(7)
O21A O 1.0252(9) -0.2397(9) 0.1172(7)
O22A O 0.7508(12) -0.1491(9) -0.2932(10)
N1A N 0.4263(10) 0.4542(7) 0.6754(8)
N2A N 0.4365(11) 0.4599(8) 0.8433(9)
C1A C 0.4986(13) 0.5029(9) 0.7851(10)
H1A H 0.58150 0.55950 0.81590
C2A C 0.4275(13) 0.3942(9) 0.4915(10)
H2A H 0.37950 0.32290 0.48710
C3A C 0.3114(13) 0.3735(10) 0.6622(11)
H3A H 0.24290 0.32560 0.59560
C4A C 0.4618(14) 0.4166(10) 0.4072(11)
H4A H 0.43530 0.36070 0.34410
C5A C 0.3199(14) 0.3794(11) 0.7670(11)
H5A H 0.25560 0.33500 0.78470
C6A C 0.4652(12) 0.4795(9) 0.5855(9)
Cu1* Cu 0.50000 0.50000 1.00000
N2A* N 0.4365(11) 0.4599(8) -0.1567(9)
#END
