
#######################################################################
#
#                 Cambridge Crystallographic Data Centre
#                                CCDC
#
#######################################################################
#
# If this CIF has been generated from an entry in the Cambridge
# Structural Database, then it will include bibliographic, chemical,
# crystal, experimental, refinement or atomic coordinate data resulting
# from the CCDC's data processing and validation procedures.
#
#######################################################################

data_CSD_CIF_YUBGUZ
_audit_creation_date 2015-02-20
_audit_creation_method CSD-ConQuest-V1
_database_code_CSD YUBGUZ
_database_code_depnum_ccdc_archive 'CCDC 1024951'
_chemical_formula_sum 'C22 H28 N3 O13 U2'
_chemical_formula_moiety
;
(C16 H12 N2 O13 U2 1-)n,C6 H16 N1 1+
;
_journal_coden_Cambridge 1350
_journal_volume 17
_journal_year 2015
_journal_page_first 2376
_journal_name_full 'CrystEngComm '
loop_
_publ_author_name
"Xiang-Sheng Zhai"
"Wen-Gang Zhu"
"Wei Xu"
"Ya-Jing Huang"
"Yue-Qing Zheng"
_chemical_name_systematic
;
catena-[triethylammonium 
bis(\m-5-aminoisophthalato)-(\m-aqua)-tetraoxo-di-uranium]
;
_cell_volume   1484.017
_exptl_crystal_colour 'yellow'
_exptl_crystal_density_diffrn 2.277
_exptl_crystal_description 'block'
_diffrn_ambient_temperature 295
_refine_special_details
;
C17,C18,C19,C20,C21,C22 and C17B,C18B,C19B,C20B,C21B,C22B disordered over two 
sites with occupancies 0.546:0.454.
;
#These two values have been output from a single CSD field.
_refine_ls_R_factor_gt 0.0761
_refine_ls_wR_factor_gt 0.0761
_symmetry_cell_setting triclinic
_symmetry_space_group_name_H-M 'P -1'
_symmetry_Int_Tables_number 2
loop_
_symmetry_equiv_pos_site_id
_symmetry_equiv_pos_as_xyz
1 x,y,z
2 -x,-y,-z
_cell_length_a 9.6416(19)
_cell_length_b 10.973(2)
_cell_length_c 15.997(3)
_cell_angle_alpha 109.52(3)
_cell_angle_beta 91.56(3)
_cell_angle_gamma 109.61(3)
_cell_formula_units_Z 2
loop_
_atom_type_symbol
_atom_type_radius_bond
C 0.68
H 0.23
N 0.68
O 0.68
U 1.96
loop_
_atom_site_label
_atom_site_type_symbol
_atom_site_fract_x
_atom_site_fract_y
_atom_site_fract_z
U1 U 0.10097(5) 0.29971(4) 0.37978(3)
U2 U 0.85495(5) 0.82900(4) -0.00320(3)
O1 O -0.0603(10) 0.2365(7) 0.3067(6)
O2 O 0.2646(10) 0.3609(7) 0.4531(6)
O3 O 0.1450(8) 0.0911(7) 0.2858(6)
O4 O 0.0379(9) 0.0800(7) 0.4030(6)
C1 C 0.0886(12) 0.0242(11) 0.3330(8)
C2 C 0.0845(12) -0.1202(10) 0.3124(8)
C3 C 0.0938(14) -0.1978(10) 0.2264(8)
H1 H 0.10330 -0.15800 0.18290
C4 C 0.0897(14) -0.3323(12) 0.2022(9)
C5 C 0.0742(14) -0.3932(11) 0.2674(8)
H2 H 0.06500 -0.48530 0.25240
C6 C 0.0728(13) -0.3121(10) 0.3554(8)
C7 C 0.0735(12) -0.1789(9) 0.3793(7)
H3 H 0.06680 -0.12920 0.43790
C8 C 0.0710(13) -0.3732(10) 0.4304(9)
O5 O 0.0323(12) -0.3163(9) 0.4997(6)
O6 O 0.1037(10) -0.4773(7) 0.4136(6)
N1 N 0.0890(17) -0.4116(12) 0.1142(8)
H4 H 0.09120 -0.37730 0.07290
H5 H 0.08640 -0.49510 0.10070
O7 O 0.9959(10) 0.7699(9) 0.0147(7)
O8 O 0.7111(11) 0.8809(10) -0.0232(7)
O9 O 0.6768(11) 0.6558(9) 0.0473(6)
O10 O 0.8017(10) 0.8579(8) 0.1491(6)
C9 C 0.7076(14) 0.7375(12) 0.1283(8)
C10 C 0.6265(13) 0.6972(11) 0.1981(9)
C11 C 0.6846(13) 0.7762(12) 0.2849(9)
H6 H 0.76970 0.85590 0.29910
C12 C 0.6160(14) 0.7380(12) 0.3548(8)
C13 C 0.4874(13) 0.6202(11) 0.3308(9)
H7 H 0.43920 0.59440 0.37520
C14 C 0.4298(12) 0.5398(10) 0.2404(8)
C15 C 0.5000(13) 0.5786(11) 0.1744(8)
H8 H 0.46220 0.52520 0.11420
C16 C 0.2901(12) 0.4113(11) 0.2160(8)
O11 O 0.2245(11) 0.3605(9) 0.1389(6)
O12 O 0.2437(9) 0.3679(7) 0.2770(6)
N2 N 0.6784(14) 0.8168(13) 0.4428(9)
H9 H 0.63780 0.79360 0.48510
H10 H 0.75830 0.88940 0.45560
O13 O 1.0023(10) 0.9439(7) -0.0864(6)
H11 H 1.04710 0.91050 -0.12190
H12 H 0.95020 0.94360 -0.12630
N3 N 0.5877(6) 0.1515(4) 0.2450(3)
H13 H 0.66520 0.15760 0.21340
C17 C 0.4539(11) 0.0575(7) 0.1843(7)
H14 H 0.43270 0.10810 0.14930
H15 H 0.37640 0.04640 0.22160
C18 C 0.424(2) -0.0906(11) 0.1157(13)
H16 H 0.32700 -0.12610 0.08030
H17 H 0.42710 -0.15040 0.14720
H18 H 0.49820 -0.08710 0.07710
C19 C 0.6132(12) 0.1004(8) 0.3129(5)
H19 H 0.71110 0.16320 0.34640
H20 H 0.62360 0.01240 0.28110
C20 C 0.514(2) 0.0743(17) 0.3850(8)
H21 H 0.55780 0.03740 0.42070
H22 H 0.41630 0.00920 0.35590
H23 H 0.50780 0.16030 0.42290
C21 C 0.5820(13) 0.2864(6) 0.2839(9)
H24 H 0.53510 0.28590 0.33670
H25 H 0.51060 0.29030 0.24190
C22 C 0.711(2) 0.4293(8) 0.314(3)
H26 H 0.67330 0.50150 0.34140
H27 H 0.75370 0.44220 0.26250
H28 H 0.78590 0.43280 0.35630
H29? H 0.51450 0.11630 0.19680
C23? C 0.7262(9) 0.2071(9) 0.2172(6)
H30? H 0.78890 0.16370 0.23440
H31? H 0.76750 0.30410 0.25650
C24? C 0.7595(17) 0.207(3) 0.1234(8)
H32? H 0.86010 0.26850 0.12850
H33? H 0.69180 0.23820 0.09880
H34? H 0.74720 0.11480 0.08470
C25? C 0.5827(12) 0.0384(7) 0.2714(7)
H35? H 0.68430 0.06080 0.29750
H36? H 0.56210 -0.04050 0.21580
C26? C 0.483(3) -0.0190(14) 0.3347(10)
H37? H 0.49910 -0.09980 0.33680
H38? H 0.38030 -0.04350 0.31240
H39? H 0.50880 0.05080 0.39390
C27? C 0.5590(12) 0.2564(9) 0.3151(7)
H40? H 0.47400 0.20680 0.33740
H41? H 0.52340 0.30660 0.28540
C28? C 0.667(3) 0.3696(18) 0.400(1)
H42? H 0.61090 0.41000 0.44210
H43? H 0.73660 0.44050 0.38360
H44? H 0.71980 0.32860 0.42700
U1* U 0.10097(5) -0.70029(4) 0.37978(3)
U1A U -0.10097(5) -0.29971(4) 0.62022(3)
U2A U 0.14505(5) 0.17100(4) 0.00320(3)
U2A* U 1.14505(5) 1.17100(4) 0.00320(3)
O5A O -0.0323(12) 0.3163(9) 0.5003(6)
O6* O 0.1037(10) 0.5227(7) 0.4136(6)
O11A O 0.7755(11) 0.6395(9) -0.1389(6)
O13A O 0.9977(10) 1.0561(7) 0.0864(6)
#END
