
#######################################################################
#
#                 Cambridge Crystallographic Data Centre
#                                CCDC
#
#######################################################################
#
# If this CIF has been generated from an entry in the Cambridge
# Structural Database, then it will include bibliographic, chemical,
# crystal, experimental, refinement or atomic coordinate data resulting
# from the CCDC's data processing and validation procedures.
#
#######################################################################

data_CSD_CIF_YUBTUM
_audit_creation_date 2015-02-20
_audit_creation_method CSD-ConQuest-V1
_database_code_CSD YUBTUM
_database_code_depnum_ccdc_archive 'CCDC 1042546'
_chemical_formula_sum 'C46 H79 Fe9 N2 O50'
_chemical_formula_moiety
;
(C44 H68 Fe9 O48 1-)n,C2 H3 O2 1-,2(H4 N1 1+)
;
_journal_coden_Cambridge 182
_journal_volume 51
_journal_year 2015
_journal_page_first 4627
_journal_name_full 'Chem.Commun. '
loop_
_publ_author_name
"Jiong-Peng Zhao"
"Song-De Han"
"Xue Jiang"
"Jian Xu"
"Ze Chang"
"Xian-He Bu"
_chemical_name_systematic
;
catena-[diammonium acetate docosakis(\m-acetato)-aqua-nona-iron]
;
_cell_volume   7660.693
_exptl_crystal_colour 'red'
_exptl_crystal_density_diffrn 1.276
_exptl_crystal_description 'block'
_diffrn_ambient_temperature 113.2
_refine_special_details
;
C23,C24,O25,O26 and C25,C26,O27,O28 disordered over two sites with 
occupancies 0.304:0.196; O1W disordered by symmetry over two configurations 
with occupancy 0.5.
;
#These two values have been output from a single CSD field.
_refine_ls_R_factor_gt 0.0518
_refine_ls_wR_factor_gt 0.0518
_symmetry_cell_setting hexagonal
_symmetry_space_group_name_H-M 'P 32 2 1'
_symmetry_Int_Tables_number 154
loop_
_symmetry_equiv_pos_site_id
_symmetry_equiv_pos_as_xyz
1 x,y,z
2 -y,x-y,2/3+z
3 -x+y,-x,1/3+z
4 y,x,-z
5 x-y,-y,1/3-z
6 -x,-x+y,2/3-z
_cell_length_a 18.927(3)
_cell_length_b 18.927(3)
_cell_length_c 24.693(5)
_cell_angle_alpha 90
_cell_angle_beta 90
_cell_angle_gamma 120
_cell_formula_units_Z 3
loop_
_atom_type_symbol
_atom_type_radius_bond
C 0.68
H 0.23
Fe 1.52
N 0.68
O 0.68
loop_
_atom_site_label
_atom_site_type_symbol
_atom_site_fract_x
_atom_site_fract_y
_atom_site_fract_z
Fe1 Fe 0.31929(6) 0.53847(6) 0.70848(4)
O1 O 0.3543(3) 0.5064(3) 0.64501(19)
O2 O 0.3764(4) 0.5038(3) 0.7621(2)
O3 O 0.2145(3) 0.4288(3) 0.7126(2)
O4 O 0.2564(3) 0.5858(3) 0.67002(19)
O5 O 0.4201(3) 0.6515(3) 0.7097(2)
O6 O 0.2796(3) 0.5738(3) 0.7727(2)
Fe2 Fe 0.36354(6) 0.41098(6) 0.64721(4)
Fe3 Fe 0.37943(6) 0.57017(6) 0.58114(4)
C1 C 0.4264(6) 0.4793(6) 0.7570(3)
C2 C 0.2074(5) 0.3603(5) 0.7083(4)
C3 C 0.2442(4) 0.5937(4) 0.6207(3)
C4 C 0.4570(5) 0.6967(5) 0.6692(3)
C5 C 0.2463(4) 0.5513(4) 0.8183(3)
O7 O 0.3800(3) 0.3141(3) 0.6456(2)
O8 O 0.4351(4) 0.4467(4) 0.7144(2)
O9 O 0.2629(4) 0.3464(3) 0.6925(2)
O10 O 0.2946(3) 0.3633(3) 0.5795(2)
O11 O 0.4701(3) 0.4589(3) 0.6044(2)
O12 O 0.2751(3) 0.5764(3) 0.58111(19)
O13 O 0.4370(3) 0.6770(3) 0.6208(2)
O14 O 0.3211(3) 0.4728(3) 0.5308(2)
O15 O 0.4894(3) 0.5778(3) 0.5711(2)
O16 O 0.2284(5) 0.5982(3) 0.8439(2)
C6 C 0.4768(9) 0.4869(10) 0.8053(4)
C7 C 0.1298(7) 0.2873(7) 0.7251(6)
C8 C 0.1893(5) 0.6284(5) 0.6091(3)
C9 C 0.5277(5) 0.7788(5) 0.6806(4)
C10 C 0.2241(5) 0.4699(5) 0.8415(3)
C11 C 0.3493(5) 0.2393(5) 0.6525(4)
C12 C 0.2848(4) 0.3962(4) 0.5387(3)
C13 C 0.5137(5) 0.5278(5) 0.5825(3)
H1 H 0.51270 0.46640 0.79680
H2 H 0.50840 0.54320 0.81570
H3 H 0.44170 0.45600 0.83470
H4 H 0.13360 0.23910 0.71940
H5 H 0.12000 0.29170 0.76280
H6 H 0.08560 0.28390 0.70400
H7 H 0.17030 0.63860 0.64260
H8 H 0.21910 0.67850 0.58930
H9 H 0.14350 0.59000 0.58800
H10 H 0.53630 0.78580 0.71900
H11 H 0.57570 0.78380 0.66360
H12 H 0.51700 0.81980 0.66650
H13 H 0.19940 0.46400 0.87640
H14 H 0.18630 0.42760 0.81780
H15 H 0.27240 0.46570 0.84520
O17 O 0.3922(3) 0.2073(3) 0.6545(2)
C14 C 0.2550(6) 0.1867(6) 0.6500(5)
C15 C 0.2279(5) 0.3420(5) 0.4948(3)
C16 C 0.6003(5) 0.5530(5) 0.5693(4)
Fe4 Fe 0.39020(6) 0.09962(6) 0.66128(4)
H16 H 0.23200 0.22180 0.64860
H17 H 0.23930 0.15300 0.61820
H18 H 0.23540 0.15280 0.68160
H19 H 0.22610 0.37520 0.46600
H20 H 0.24730 0.30740 0.48100
H21 H 0.17420 0.30910 0.50960
H22 H 0.62640 0.60610 0.55300
H23 H 0.62860 0.55450 0.60190
H24 H 0.60130 0.51440 0.54450
O18 O 0.3915(4) 0.00000 0.66670
O19 O 0.2968(4) 0.0665(3) 0.7138(3)
O20 O 0.4868(3) 0.1586(3) 0.6085(2)
O21 O 0.4674(4) 0.1516(3) 0.7241(2)
O22 O 0.2519(6) -0.0635(3) 0.7373(2)
Fe5 Fe 0.49240(8) 0.00000 0.66670
C17 C 0.2575(6) 0.0052(5) 0.7446(4)
C18 C 0.5361(5) 0.1397(5) 0.5889(3)
C19 C 0.5252(5) 0.1421(5) 0.7401(4)
O23 O 0.5410(4) 0.0780(3) 0.6036(3)
O24 O 0.5451(4) 0.0936(4) 0.7204(3)
C20 C 0.2109(9) 0.0142(7) 0.7907(6)
C21 C 0.5948(5) 0.1955(5) 0.5468(3)
C22 C 0.5739(6) 0.1967(6) 0.7863(4)
H25 H 0.22070 0.06910 0.79150
H26 H 0.15370 -0.02310 0.78580
H27 H 0.22870 0.00240 0.82420
H28 H 0.62900 0.17440 0.53510
H29 H 0.56490 0.19880 0.51650
H30 H 0.62790 0.24880 0.56210
H31 H 0.55110 0.23000 0.79670
H32 H 0.57210 0.16390 0.81650
H33 H 0.62950 0.23100 0.77510
O25 O 0.5993(10) -0.0021(17) 0.6529(6)
N1 N 0.8054(4) 0.4729(4) 0.9205(2)
H34 H 0.81060 0.48540 0.88220
H35 H 0.77210 0.49810 0.93000
H36 H 0.85720 0.49850 0.93870
H37 H 0.77720 0.41520 0.92730
C23 C 0.752(2) 0.085(3) 0.5188(16)
C24 C 0.7518(18) 0.098(2) 0.4579(11)
H38 H 0.80070 0.14700 0.44790
H39 H 0.74930 0.05240 0.43900
H40 H 0.70510 0.10270 0.44850
O26 O 0.809(2) 0.129(2) 0.5458(11)
O27 O 0.7006(19) 0.030(2) 0.5407(13)
C25? C 0.726(3) 0.689(3) 0.7286(16)
O28? O 0.801(3) 0.735(3) 0.7340(19)
O29? O 0.704(3) 0.736(3) 0.711(2)
C26? C 0.693(3) 0.608(2) 0.740(2)
H41? H 0.73470 0.59770 0.75350
H42? H 0.65120 0.59220 0.76720
H43? H 0.66930 0.57620 0.70790
H44? H 0.63760 -0.00030 0.67200
H45? H 0.61000 -0.00500 0.61980
Fe1D Fe -0.21918(6) -0.53847(6) 0.624853(40)
O1D O -0.1521(3) -0.5064(3) 0.688323(190)
O2D O -0.1274(4) -0.5038(3) 0.571233(200)
O3D O -0.2143(3) -0.4288(3) 0.620733(200)
O4D O -0.3294(3) -0.5858(3) 0.663313(190)
O5D O -0.2314(3) -0.6515(3) 0.623633(200)
O6D O -0.2942(3) -0.5738(3) 0.560633(200)
Fe2D Fe -0.04744(6) -0.41098(6) 0.686123(40)
Fe3D Fe -0.19074(6) -0.57017(6) 0.752193(40)
C1D C -0.0529(6) -0.4793(6) 0.576333(300)
C2D C -0.1529(5) -0.3603(5) 0.625033(400)
C3D C -0.3495(4) -0.5937(4) 0.712633(300)
C4D C -0.2397(5) -0.6967(5) 0.664133(300)
C5D C -0.3050(4) -0.5513(4) 0.515033(300)
O7D O 0.0659(3) -0.3141(3) 0.687733(200)
O8D O -0.0116(4) -0.4467(4) 0.618933(200)
O9D O -0.0835(4) -0.3464(3) 0.640833(200)
O10D O -0.0687(3) -0.3633(3) 0.753833(200)
O11D O 0.0112(3) -0.4589(3) 0.728933(200)
O12D O -0.3013(3) -0.5764(3) 0.752223(190)
O13D O -0.2400(3) -0.6770(3) 0.712533(200)
O14D O -0.1517(3) -0.4728(3) 0.802533(200)
O15D O -0.0884(3) -0.5778(3) 0.762233(200)
O16D O -0.3698(5) -0.5982(3) 0.489433(200)
C6D C -0.0101(9) -0.4869(10) 0.528033(400)
C7D C -0.1575(7) -0.2873(7) 0.608233(600)
C8D C -0.4391(5) -0.6284(5) 0.724233(300)
C9D C -0.2511(5) -0.7788(5) 0.652733(400)
C10D C -0.2458(5) -0.4699(5) 0.491833(300)
C11D C 0.1100(5) -0.2393(5) 0.680833(400)
C12D C -0.1114(4) -0.3962(4) 0.794633(300)
C13D C -0.0141(5) -0.5278(5) 0.750833(300)
H1D H 0.04630 -0.46640 0.53653
H2D H -0.03480 -0.54320 0.51763
H3D H -0.01430 -0.45600 0.49863
H4D H -0.10550 -0.23910 0.61393
H5D H -0.17170 -0.29170 0.57053
H6D H -0.19830 -0.28390 0.62933
H7D H -0.46830 -0.63860 0.69073
H8D H -0.45940 -0.67850 0.74403
H9D H -0.44650 -0.59000 0.74533
H10D H -0.24950 -0.78580 0.61433
H11D H -0.20810 -0.78380 0.66973
H12D H -0.30280 -0.81980 0.66683
H13D H -0.26460 -0.46400 0.45693
H14D H -0.24130 -0.42760 0.51553
H15D H -0.19330 -0.46570 0.48813
O17D O 0.1849(3) -0.2073(3) 0.678833(200)
C14D C 0.0683(6) -0.1867(6) 0.683333(500)
C15D C -0.1141(5) -0.3420(5) 0.838533(300)
C16D C 0.0473(5) -0.5530(5) 0.764033(400)
Fe4D Fe 0.29058(6) -0.09962(6) 0.672053(40)
H16D H 0.01020 -0.22180 0.68473
H17D H 0.08630 -0.15300 0.71513
H18D H 0.08260 -0.15280 0.65173
H19D H -0.14910 -0.37520 0.86733
H20D H -0.06010 -0.30740 0.85233
H21D H -0.13490 -0.30910 0.82373
H22D H 0.02030 -0.60610 0.78033
H23D H 0.07410 -0.55450 0.73143
H24D H 0.08690 -0.51440 0.78883
O19D O 0.2303(4) -0.0665(3) 0.619533(300)
O20D O 0.3282(3) -0.1586(3) 0.724833(200)
O21D O 0.3158(4) -0.1516(3) 0.609233(200)
O22D O 0.3154(6) 0.0635(3) 0.596033(200)
C17D C 0.2523(6) -0.0052(5) 0.588733(400)
C18D C 0.3964(5) -0.1397(5) 0.744433(300)
C19D C 0.3831(5) -0.1421(5) 0.593233(400)
O23D O 0.4630(4) -0.0780(3) 0.729733(300)
O24D O 0.4515(4) -0.0936(4) 0.612933(300)
C20D C 0.1967(9) -0.0142(7) 0.542633(600)
C21D C 0.3993(5) -0.1955(5) 0.786533(300)
C22D C 0.3772(6) -0.1967(6) 0.547033(400)
H25D H 0.15160 -0.06910 0.54183
H26D H 0.17680 0.02310 0.54753
H27D H 0.22630 -0.00240 0.50913
H28D H 0.45460 -0.17440 0.79823
H29D H 0.36610 -0.19880 0.81683
H30D H 0.37910 -0.24880 0.77123
H31D H 0.32110 -0.23000 0.53663
H32D H 0.40820 -0.16390 0.51683
H33D H 0.39850 -0.23100 0.55823
O25D O 0.6014(10) 0.0021(17) 0.680433(600)
Fe3B Fe 0.19074(6) 0.62057(6) 0.914473(40)
Fe3C Fe -0.42983(6) -0.62057(6) 0.41886(4)
O16A O 0.4018(5) 0.6302(3) 0.510567(200)
O16E O -0.2284(5) -0.6302(3) 0.822767(200)
#END
