
#######################################################################
#
#                 Cambridge Crystallographic Data Centre
#                                CCDC
#
#######################################################################
#
# If this CIF has been generated from an entry in the Cambridge
# Structural Database, then it will include bibliographic, chemical,
# crystal, experimental, refinement or atomic coordinate data resulting
# from the CCDC's data processing and validation procedures.
#
#######################################################################

data_CSD_CIF_YUCLOZ
_audit_creation_date 2015-02-20
_audit_creation_method CSD-ConQuest-V1
_database_code_CSD YUCLOZ
_database_code_depnum_ccdc_archive 'CCDC 1035041'
_chemical_formula_sum 'C38 H30 Cr1 Na1 O13 S24'
_chemical_formula_moiety
;
(C6 Cr1 Na1 O12 3-)n,3n(C10 H8 S8 1+),n(C2 H6 O1)
;
_journal_coden_Cambridge 1350
_journal_volume 17
_journal_year 2015
_journal_page_first 2783
_journal_name_full 'CrystEngComm '
loop_
_publ_author_name
"L.Martin"
"H.Akutsu"
"P.N.Horton"
"M.B.Hursthouse"
_chemical_name_systematic
;
catena-[tris(bis(ethylenedithio)tetrathiafulvane) 
tris(\m-oxalato)-chromium-sodium ethanol solvate]
;
_cell_volume   1382.388
_exptl_crystal_colour 'dark purple'
_exptl_crystal_density_diffrn 1.849
_exptl_crystal_description 'plate'
_diffrn_ambient_temperature 120
_diffrn_special_details
;
twin

;
_refine_special_details
;
C61,C62,O61 and C71,C72,O71 disordered over two sites with occupancies 
0.799:0.201.
;
#These two values have been output from a single CSD field.
_refine_ls_R_factor_gt 0.0317
_refine_ls_wR_factor_gt 0.0317
_symmetry_cell_setting triclinic
_symmetry_space_group_name_H-M 'P 1'
_symmetry_Int_Tables_number 1
loop_
_symmetry_equiv_pos_site_id
_symmetry_equiv_pos_as_xyz
1 x,y,z
_cell_length_a 8.8372(2)
_cell_length_b 9.5138(2)
_cell_length_c 18.1928(4)
_cell_angle_alpha 81.938(1)
_cell_angle_beta 77.483(1)
_cell_angle_gamma 68.091(1)
_cell_formula_units_Z 1
loop_
_atom_type_symbol
_atom_type_radius_bond
C 0.68
H 0.23
Cr 1.39
Na 1.66
O 0.68
S 1.02
loop_
_atom_site_label
_atom_site_type_symbol
_atom_site_fract_x
_atom_site_fract_y
_atom_site_fract_z
Na1 Na 0.3214(2) 0.8129(2) 0.00293(12)
Cr1 Cr 0.67501(12) 0.19461(11) -0.00184(6)
C1 C 0.5404(7) 0.4925(7) 0.0368(3)
C2 C 0.4822(7) 0.4903(6) -0.0390(3)
O1 O 0.4863(5) 0.6100(4) 0.0698(2)
O2 O 0.3824(5) 0.6056(5) -0.0631(2)
O3 O 0.5526(5) 0.3617(4) -0.0690(2)
O4 O 0.6415(5) 0.3652(5) 0.0586(2)
C3 C 0.4397(7) 1.0581(7) 0.0353(3)
C4 C 0.5682(7) 0.9765(6) -0.0346(3)
O5 O 0.3286(5) 1.0097(5) 0.0649(2)
O6 O 0.5541(5) 0.8666(5) -0.0573(2)
O7 O 0.6791(5) 1.0342(4) -0.0621(2)
O8 O 0.4655(5) 1.1694(4) 0.0546(2)
C5 C -0.0458(7) 0.9724(6) 0.0393(3)
C6 C 0.0139(7) 1.0544(6) -0.0373(3)
O9 O 0.0554(4) 0.8608(4) 0.0663(2)
O10 O 0.1583(5) 1.0013(4) -0.0698(2)
O11 O -0.1001(5) 1.1760(4) -0.0583(2)
O12 O -0.1978(5) 1.0346(5) 0.0668(2)
C7 C 0.8598(8) 0.4797(7) 0.8089(4)
H1 H 0.85910 0.44100 0.86230
H2 H 0.93880 0.53450 0.79570
C8 C 0.6886(8) 0.5910(7) 0.8012(4)
H3 H 0.64950 0.66200 0.84200
H4 H 0.61190 0.53450 0.80830
C9 C 0.7738(7) 0.5526(6) 0.6506(3)
C10 C 0.8753(7) 0.4079(6) 0.6656(3)
C11 C 0.8494(7) 0.4201(6) 0.5263(4)
C12 C 0.8618(7) 0.3768(6) 0.4557(3)
C13 C 0.9286(7) 0.2146(6) 0.3425(3)
C14 C 0.8232(7) 0.3506(6) 0.3228(4)
C15 C 0.8652(9) 0.2485(7) 0.1793(4)
H5 H 0.79680 0.18490 0.18300
H6 H 0.88180 0.28890 0.12620
C16 C 1.0301(8) 0.1486(7) 0.1972(3)
H7 H 1.10050 0.21050 0.19260
H8 H 1.08380 0.07110 0.15940
S1 S 0.9340(2) 0.32004(17) 0.75085(9)
S2 S 0.67942(18) 0.69987(15) 0.71122(9)
S3 S 0.72799(17) 0.59742(15) 0.55884(8)
S4 S 0.96029(18) 0.29181(15) 0.59065(9)
S5 S 0.98946(18) 0.19464(15) 0.43020(8)
S6 S 0.75549(17) 0.49218(15) 0.38690(8)
S7 S 0.7483(2) 0.40718(17) 0.23737(9)
S8 S 1.02080(19) 0.05299(15) 0.29065(9)
C17 C 0.4715(8) 0.8025(7) 0.2082(3)
H9 H 0.46320 0.73320 0.17470
H10 H 0.38670 0.90380 0.20020
C18 C 0.6431(8) 0.8148(6) 0.1867(4)
H11 H 0.67160 0.82710 0.13100
H12 H 0.72570 0.71920 0.20370
C19 C 0.5769(7) 0.9359(6) 0.3221(3)
C20 C 0.4860(7) 0.8486(6) 0.3518(3)
C21 C 0.5088(7) 0.9700(6) 0.4651(3)
C22 C 0.4931(7) 1.0165(6) 0.5355(4)
C23 C 0.4181(7) 1.0580(6) 0.6784(3)
C24 C 0.5132(6) 1.1438(6) 0.6480(3)
C25 C 0.5281(7) 1.1925(7) 0.7896(4)
H13 H 0.61280 1.09110 0.79740
H14 H 0.53860 1.26150 0.82260
C26 C 0.3581(8) 1.1806(6) 0.8135(4)
H15 H 0.27420 1.27800 0.79910
H16 H 0.33510 1.16460 0.86920
S9 S 0.42845(17) 0.73238(16) 0.30612(8)
S10 S 0.65621(19) 0.97240(16) 0.22729(8)
S11 S 0.62209(17) 1.03058(16) 0.38555(8)
S12 S 0.41663(17) 0.84761(16) 0.44935(8)
S13 S 0.37832(17) 0.95895(16) 0.61510(8)
S14 S 0.58715(17) 1.13864(16) 0.55068(8)
S15 S 0.57108(17) 1.26090(15) 0.69276(8)
S16 S 0.33517(19) 1.02849(16) 0.77241(8)
C27 C 0.1482(8) 0.5238(7) 0.1880(4)
H17 H 0.07160 0.46680 0.19700
H18 H 0.15460 0.56540 0.13480
C28 C 0.3194(8) 0.4140(7) 0.1990(4)
H19 H 0.39320 0.47250 0.19520
H20 H 0.36510 0.34410 0.15770
C29 C 0.2267(7) 0.4490(6) 0.3496(3)
C30 C 0.1220(7) 0.5916(6) 0.3341(3)
C31 C 0.1486(7) 0.5829(6) 0.4739(3)
C32 C 0.1369(7) 0.6264(6) 0.5437(4)
C33 C 0.0728(7) 0.7890(6) 0.6565(3)
C34 C 0.1818(7) 0.6512(6) 0.6774(3)
C35 C 0.1349(8) 0.7462(6) 0.8235(4)
H21 H 0.11350 0.69810 0.87470
H22 H 0.19950 0.81030 0.82630
C36 C -0.0304(8) 0.8490(7) 0.8029(4)
H23 H -0.08720 0.92560 0.84100
H24 H -0.10040 0.78750 0.80510
S17 S 0.06290(19) 0.67970(17) 0.24878(9)
S18 S 0.32226(19) 0.30257(16) 0.28824(9)
S19 S 0.27171(18) 0.40431(15) 0.44110(8)
S20 S 0.03464(17) 0.70988(15) 0.40957(8)
S21 S 0.00736(18) 0.80728(15) 0.57088(8)
S22 S 0.24486(17) 0.50856(15) 0.61280(8)
S23 S 0.26302(19) 0.59644(17) 0.76015(9)
S24 S -0.01347(18) 0.94631(15) 0.71032(9)
C37 C 0.9297(18) 0.5658(15) 0.0149(8)
H25 H 0.84890 0.54560 0.05810
H26 H 0.96350 0.64630 0.02760
C38 C 1.0786(17) 0.4234(17) -0.0011(9)
H27 H 1.04520 0.34750 -0.01770
H28 H 1.12570 0.38340 0.04480
H29 H 1.16190 0.44680 -0.04090
O13 O 0.8562(7) 0.6132(6) -0.0521(3)
H30 H 0.77840 0.69720 -0.04620
C39? C 1.065(9) 0.442(8) -0.016(3)
H31? H 1.03120 0.36380 -0.03070
H32? H 1.14970 0.46220 -0.05700
C40? C 0.917(6) 0.587(6) 0.001(3)
H33? H 0.87190 0.58680 0.05480
H34? H 0.83150 0.59200 -0.02740
H35? H 0.95120 0.67480 -0.01510
O14? O 1.130(3) 0.393(3) 0.0533(17)
H36? H 1.22770 0.33200 0.04400
Cr1* Cr -0.32499(12) 1.19461(11) -0.00184(6)
Cr1** Cr 0.67501(12) 1.19461(11) -0.00184(6)
O7* O 0.6791(5) 0.0342(4) -0.0621(2)
O8* O 0.4655(5) 0.1694(4) 0.0546(2)
O11* O 0.8999(5) 0.1760(4) -0.0583(2)
O12* O 0.8022(5) 0.0346(5) 0.0668(2)
#END
