
#######################################################################
#
#                 Cambridge Crystallographic Data Centre
#                                CCDC
#
#######################################################################
#
# If this CIF has been generated from an entry in the Cambridge
# Structural Database, then it will include bibliographic, chemical,
# crystal, experimental, refinement or atomic coordinate data resulting
# from the CCDC's data processing and validation procedures.
#
#######################################################################

data_CSD_CIF_YUDMIW
_audit_creation_date 2020-04-13
_audit_creation_method CSD-ConQuest-V1
_database_code_CSD YUDMIW
_database_code_depnum_ccdc_archive 'CCDC 1937760'
_chemical_formula_sum 'C27 H39 Cd2 N21 O49 Si1 W12'
_chemical_formula_moiety
;
(C27 H33 Cd2 N21 O6 4+)n,n(O40 Si1 W12 4-),3n(H2 O1)
;
_journal_coden_Cambridge 208
_journal_volume 286
_journal_year 2020
_journal_page_first 121302
_journal_name_full 'J.Solid State Chem. '
loop_
_publ_author_name
"Yingying Wu"
"Ying Liu"
"Yijiao Huang"
"Ge Xiao"
"Yamin Li"
"Yan Bai"
"Dongbin Dang"
_chemical_name_systematic
;
catena-(tris(\m-2,6-bis(1H-1,2,4-triazol-1-yl)pyridine)-hexa-aqua-di-cadmium 
tetracosakis(\m-oxo)-(\m-silicato)-dodecaoxo-dodeca-tungsten trihydrate)
;
_cell_volume  10628.133
_exptl_crystal_colour 'yellow'
_exptl_crystal_density_diffrn 3.657
_exptl_crystal_description 'block'
_diffrn_ambient_temperature 293
#These two values have been output from a single CSD field.
_refine_ls_R_factor_gt 0.0241
_refine_ls_wR_factor_gt 0.0241
_symmetry_cell_setting rhombohedral
_symmetry_space_group_name_H-M 'R 3 c'
_symmetry_Int_Tables_number 161
loop_
_symmetry_equiv_pos_site_id
_symmetry_equiv_pos_as_xyz
1 x,y,z
2 -y,x-y,z
3 -x+y,-x,z
4 -y,-x,1/2+z
5 -x+y,y,1/2+z
6 x,x-y,1/2+z
7 2/3+x,1/3+y,1/3+z
8 2/3-y,1/3+x-y,1/3+z
9 2/3-x+y,1/3-x,1/3+z
10 2/3-y,1/3-x,5/6+z
11 2/3-x+y,1/3+y,5/6+z
12 2/3+x,1/3+x-y,5/6+z
13 1/3+x,2/3+y,2/3+z
14 1/3-y,2/3+x-y,2/3+z
15 1/3-x+y,2/3-x,2/3+z
16 1/3-y,2/3-x,1/6+z
17 1/3-x+y,2/3+y,1/6+z
18 1/3+x,2/3+x-y,1/6+z
_cell_length_a 13.765(2)
_cell_length_b 13.765(2)
_cell_length_c 64.77(2)
_cell_angle_alpha 90
_cell_angle_beta 90
_cell_angle_gamma 120
_cell_formula_units_Z 6
loop_
_atom_type_symbol
_atom_type_radius_bond
C 0.68
H 0.23
Cd 1.44
N 0.68
O 0.68
Si 1.20
W 1.62
loop_
_atom_site_label
_atom_site_type_symbol
_atom_site_fract_x
_atom_site_fract_y
_atom_site_fract_z
Cd1 Cd -0.66670 -0.33330 1.06164(3)
Cd2 Cd -1.00000 0.00000 1.00519(4)
O1 O -0.8738(12) 0.1424(12) 1.0270(2)
O2 O -0.7757(10) -0.4793(9) 1.08362(19)
N1 N -0.5405(12) -0.1835(10) 1.0414(2)
N2 N -0.4774(10) -0.0591(10) 1.01697(19)
N3 N -0.386(1) -0.0602(10) 1.02395(16)
N4 N -0.5693(9) 0.0122(9) 0.99768(14)
N5 N -0.6757(10) 0.0696(9) 0.97996(16)
N6 N -0.6965(12) 0.1259(12) 0.96473(19)
N7 N -0.8445(11) 0.0405(12) 0.9862(2)
C1 C -0.3838(13) 0.0600(12) 0.9871(2)
H1 H -0.31940 0.05600 0.98980
C2 C -0.4745(12) 0.0106(14) 0.9997(2)
C3 C -0.3924(13) 0.1184(12) 0.9697(2)
H2 H -0.33280 0.15410 0.96050
C4 C -0.4291(12) -0.1370(12) 1.03854(19)
H3 H -0.38550 -0.15770 1.04630
C5 C -0.5722(11) 0.0701(12) 0.9813(2)
C6 C -0.4872(13) 0.1210(13) 0.9667(2)
H4 H -0.49620 0.15590 0.95510
C7 C -0.7644(13) 0.0197(13) 0.9924(2)
H5 H -0.76980 -0.02360 1.00380
C8 C -0.7977(18) 0.1062(14) 0.9694(3)
H6 H -0.83440 0.13530 0.96180
C9 C -0.5688(12) -0.1324(15) 1.0273(3)
H7 H -0.64100 -0.14570 1.02490
W1 W -0.58963(4) -0.17054(4) 0.87402(2)
W2 W -0.42079(4) -0.06841(4) 0.92179(2)
W3 W -0.70089(4) -0.09516(4) 0.91991(2)
W4 W -0.76240(4) -0.25008(4) 0.96342(2)
Si1 Si -0.66670 -0.33330 0.91964(10)
O3 O -0.7942(8) -0.2228(8) 0.98745(15)
O4 O -0.5480(7) -0.0540(8) 0.92624(13)
O5 O -0.3310(8) -0.1418(7) 0.91641(14)
O6 O -0.3167(8) 0.0674(8) 0.91889(15)
O7 O -0.5412(8) -0.0659(9) 0.85624(15)
O8 O -0.6902(8) 0.0325(8) 0.91707(14)
O9 O -0.6098(7) -0.2061(8) 0.96599(14)
O10 O -0.4056(7) -0.0914(7) 0.95018(12)
O11 O -0.7256(7) -0.1138(7) 0.94954(12)
O12 O -0.5379(8) -0.2605(7) 0.92785(13)
O13 O -0.4742(8) -0.1101(7) 0.89396(12)
O14 O -0.6684(7) -0.1267(7) 0.89327(12)
O15 O -0.66670 -0.33330 0.8948(2)
O16 O -0.5367(8) -0.2627(7) 0.86274(16)
O17 O -0.8903(15) 0.1395(15) 1.0703(3)
O2A O -0.5207(10) -0.2964(9) 1.08362(19)
N1A N -0.8165(12) -0.357(1) 1.0414(2)
N2A N -0.9409(10) -0.4183(10) 1.01697(19)
N3A N -0.9398(10) -0.3258(10) 1.02395(16)
N4A N -1.0122(9) -0.5815(9) 0.99768(14)
N5A N -1.0696(10) -0.7453(9) 0.97996(16)
N6A N -1.1259(12) -0.8224(12) 0.96473(19)
N7A N -1.0405(11) -0.8850(12) 0.9862(2)
C1A C -1.0600(13) -0.4438(12) 0.9871(2)
H1A H -1.05600 -0.37540 0.98980
C2A C -1.0106(12) -0.4851(14) 0.9997(2)
C3A C -1.1184(13) -0.5108(12) 0.9697(2)
H2A H -1.15410 -0.48690 0.96050
C4A C -0.8630(12) -0.2921(12) 1.03854(19)
H3A H -0.84230 -0.22780 1.04630
C5A C -1.0701(11) -0.6423(12) 0.9813(2)
C6A C -1.1210(13) -0.6082(13) 0.9667(2)
H4A H -1.15590 -0.65210 0.95510
C7A C -1.0197(13) -0.7841(13) 0.9924(2)
H5A H -0.97640 -0.74620 1.00380
C8A C -1.1062(18) -0.9039(14) 0.9694(3)
H6A H -1.13530 -0.96970 0.96180
C9A C -0.8676(12) -0.4364(15) 1.0273(3)
H7A H -0.85430 -0.49530 1.02490
O1B O -0.9838(12) -0.1262(12) 1.0270(2)
N1B N -1.6430(12) -0.4595(10) 1.0414(2)
N2B N -1.5817(10) -0.5226(10) 1.01697(19)
N3B N -1.6742(10) -0.614(1) 1.02395(16)
N4B N -1.4185(9) -0.4307(9) 0.99768(14)
N5B N -1.2547(10) -0.3243(9) 0.97996(16)
N6B N -1.1776(12) -0.3035(12) 0.96473(19)
N7B N -1.1150(11) -0.1555(12) 0.9862(2)
C1B C -1.5562(13) -0.6162(12) 0.9871(2)
H1B H -1.62460 -0.68060 0.98980
C2B C -1.5149(12) -0.5255(14) 0.9997(2)
C3B C -1.4892(13) -0.6076(12) 0.9697(2)
H2B H -1.51310 -0.66720 0.96050
C4B C -1.7079(12) -0.5709(12) 1.03854(19)
H3B H -1.77220 -0.61450 1.04630
C5B C -1.3577(11) -0.4278(12) 0.9813(2)
C6B C -1.3918(13) -0.5128(13) 0.9667(2)
H4B H -1.34790 -0.50380 0.95510
C7B C -1.2159(13) -0.2356(13) 0.9924(2)
H5B H -1.25380 -0.23020 1.00380
C8B C -1.0961(18) -0.2023(14) 0.9694(3)
H6B H -1.03030 -0.16560 0.96180
C9B C -1.5636(12) -0.4312(15) 1.0273(3)
H7B H -1.50470 -0.35900 1.02490
O1A O -1.1424(12) -0.0162(12) 1.0270(2)
O2B O -0.7036(10) -0.2243(9) 1.08362(19)
Cd1* Cd -1.66670 -0.33330 1.06164(3)
Cd2* Cd -1.00000 -1.00000 1.00519(4)
N1B* N -0.6430(12) -0.4595(10) 1.0414(2)
N7A* N -1.0405(11) 0.1150(12) 0.9862(2)
O12A O -0.7395(8) -0.2774(7) 0.92785(13)
O12B O -0.7226(8) -0.4621(7) 0.92785(13)
W1A W -0.82946(4) -0.41909(4) 0.87402(2)
W2A W -0.93159(4) -0.35238(4) 0.92179(2)
W3A W -0.90484(4) -0.60573(4) 0.91991(2)
W4A W -0.74992(4) -0.51232(4) 0.96342(2)
O3A O -0.7772(8) -0.5714(8) 0.98745(15)
O4A O -0.9460(7) -0.4940(8) 0.92624(13)
O5A O -0.8582(8) -0.1892(7) 0.91641(14)
O6A O -1.0674(8) -0.3841(8) 0.91889(15)
O7A O -0.9341(8) -0.4753(9) 0.85624(15)
O8A O -1.0325(8) -0.7227(8) 0.91707(14)
O9A O -0.7939(7) -0.4037(8) 0.96599(14)
O10A O -0.9086(7) -0.3142(7) 0.95018(12)
O11A O -0.8862(7) -0.6118(7) 0.94954(12)
O13A O -0.8899(8) -0.3641(7) 0.89396(12)
O14A O -0.8733(7) -0.5417(7) 0.89327(12)
O16A O -0.7373(8) -0.2740(7) 0.86274(16)
W1B W -0.58091(4) -0.41037(4) 0.87402(2)
W2B W -0.64762(4) -0.57921(4) 0.92179(2)
W3B W -0.39427(4) -0.29911(4) 0.91991(2)
W4B W -0.48768(4) -0.23760(4) 0.96342(2)
O3B O -0.4286(8) -0.2058(8) 0.98745(15)
O4B O -0.5060(7) -0.4520(8) 0.92624(13)
O5B O -0.8108(8) -0.6690(7) 0.91641(14)
O6B O -0.6159(8) -0.6833(8) 0.91889(15)
O7B O -0.5247(8) -0.4588(9) 0.85624(15)
O8B O -0.2773(8) -0.3098(8) 0.91707(14)
O9B O -0.5963(7) -0.3902(8) 0.96599(14)
O10B O -0.6858(7) -0.5944(7) 0.95018(12)
O11B O -0.3882(7) -0.2744(7) 0.94954(12)
O13B O -0.6359(8) -0.5258(7) 0.89396(12)
O14B O -0.4583(7) -0.3316(7) 0.89327(12)
O16B O -0.7260(8) -0.4633(7) 0.86274(16)
#END
