
#######################################################################
#
#                 Cambridge Crystallographic Data Centre
#                                CCDC
#
#######################################################################
#
# If this CIF has been generated from an entry in the Cambridge
# Structural Database, then it will include bibliographic, chemical,
# crystal, experimental, refinement or atomic coordinate data resulting
# from the CCDC's data processing and validation procedures.
#
#######################################################################

data_CSD_CIF_YUDMOC
_audit_creation_date 2020-04-13
_audit_creation_method CSD-ConQuest-V1
_database_code_CSD YUDMOC
_database_code_depnum_ccdc_archive 'CCDC 1937761'
_chemical_formula_sum 'C27 H39 Mn2 N21 O49 Si1 W12'
_chemical_formula_moiety
;
(C27 H33 Mn2 N21 O6 4+)n,n(O40 Si1 W12 4-),3n(H2 O1)
;
_journal_coden_Cambridge 208
_journal_volume 286
_journal_year 2020
_journal_page_first 121302
_journal_name_full 'J.Solid State Chem. '
loop_
_publ_author_name
"Yingying Wu"
"Ying Liu"
"Yijiao Huang"
"Ge Xiao"
"Yamin Li"
"Yan Bai"
"Dongbin Dang"
_chemical_name_systematic
;
catena-(tris(\m-2,6-bis(1H-1,2,4-triazol-1-yl)pyridine)-hexa-aqua-di-manganese
 tetracosakis(\m-oxo)-(\m-silicato)-dodecaoxo-dodeca-tungsten trihydrate)
;
_cell_volume  10449.800
_exptl_crystal_colour 'yellow'
_exptl_crystal_density_diffrn 3.61
_exptl_crystal_description 'block'
_diffrn_ambient_temperature 293
#These two values have been output from a single CSD field.
_refine_ls_R_factor_gt 0.0331
_refine_ls_wR_factor_gt 0.0331
_symmetry_cell_setting rhombohedral
_symmetry_space_group_name_H-M 'R 3 c'
_symmetry_Int_Tables_number 161
loop_
_symmetry_equiv_pos_site_id
_symmetry_equiv_pos_as_xyz
1 x,y,z
2 -y,x-y,z
3 -x+y,-x,z
4 -y,-x,1/2+z
5 -x+y,y,1/2+z
6 x,x-y,1/2+z
7 2/3+x,1/3+y,1/3+z
8 2/3-y,1/3+x-y,1/3+z
9 2/3-x+y,1/3-x,1/3+z
10 2/3-y,1/3-x,5/6+z
11 2/3-x+y,1/3+y,5/6+z
12 2/3+x,1/3+x-y,5/6+z
13 1/3+x,2/3+y,2/3+z
14 1/3-y,2/3+x-y,2/3+z
15 1/3-x+y,2/3-x,2/3+z
16 1/3-y,2/3-x,1/6+z
17 1/3-x+y,2/3+y,1/6+z
18 1/3+x,2/3+x-y,1/6+z
_cell_length_a 13.6465(4)
_cell_length_b 13.6465(4)
_cell_length_c 64.794(4)
_cell_angle_alpha 90
_cell_angle_beta 90
_cell_angle_gamma 120
_cell_formula_units_Z 6
loop_
_atom_type_symbol
_atom_type_radius_bond
C 0.68
H 0.23
Mn 1.61
N 0.68
O 0.68
Si 1.20
W 1.62
loop_
_atom_site_label
_atom_site_type_symbol
_atom_site_fract_x
_atom_site_fract_y
_atom_site_fract_z
Mn1 Mn -0.66670 -0.33330 1.06101(11)
Mn2 Mn -1.00000 0.00000 1.00426(17)
O1 O -0.879(2) 0.141(2) 1.0245(4)
O2 O -0.7725(15) -0.4745(15) 1.0810(3)
N1 N -0.546(2) -0.185(2) 1.0415(4)
N2 N -0.4803(17) -0.0585(19) 1.0170(4)
N3 N -0.389(2) -0.0602(18) 1.0241(4)
N4 N -0.5730(16) 0.0126(17) 0.9977(3)
N5 N -0.6785(18) 0.0705(17) 0.9797(3)
N6 N -0.697(2) 0.130(2) 0.9651(4)
N7 N -0.848(2) 0.038(2) 0.9857(4)
C1 C -0.386(2) 0.060(2) 0.9878(5)
H1 H -0.32070 0.05600 0.99050
C2 C -0.477(2) 0.010(2) 1.0000(4)
C3 C -0.394(2) 0.120(2) 0.9705(4)
H2 H -0.33280 0.15730 0.96160
C4 C -0.432(2) -0.137(2) 1.0390(4)
H3 H -0.38820 -0.15720 1.04700
C5 C -0.575(2) 0.070(2) 0.9816(5)
C6 C -0.493(2) 0.121(2) 0.9671(5)
H4 H -0.50280 0.15570 0.95550
C7 C -0.770(2) 0.019(2) 0.9917(4)
H5 H -0.77570 -0.02520 1.00310
C8 C -0.799(3) 0.109(3) 0.9687(6)
H6 H -0.83610 0.13800 0.96080
C9 C -0.573(3) -0.134(3) 1.0269(5)
H7 H -0.64580 -0.14910 1.02400
W1 W -0.58948(8) -0.16992(8) 0.87419(2)
W2 W -0.41938(8) -0.06698(8) 0.92189(2)
W3 W -0.70148(7) -0.09398(7) 0.91994(2)
W4 W -0.76320(8) -0.24957(8) 0.96320(2)
Si1 Si -0.66670 -0.33330 0.9197(2)
O3 O -0.7953(16) -0.2225(15) 0.9876(3)
O4 O -0.5484(13) -0.0520(13) 0.9264(3)
O5 O -0.3282(14) -0.1409(14) 0.9163(3)
O6 O -0.3135(17) 0.0708(16) 0.9193(3)
O7 O -0.5403(16) -0.0649(15) 0.8565(3)
O8 O -0.6915(16) 0.0346(16) 0.9172(3)
O9 O -0.6109(14) -0.2077(14) 0.9662(3)
O10 O -0.4037(15) -0.0887(15) 0.9506(3)
O11 O -0.7258(14) -0.1126(14) 0.9497(3)
O12 O -0.5377(13) -0.2600(13) 0.9281(2)
O13 O -0.4723(14) -0.1087(13) 0.8943(3)
O14 O -0.6699(14) -0.1249(14) 0.8937(2)
O15 O -0.66670 -0.33330 0.8945(4)
O16 O -0.5356(16) -0.2623(15) 0.8630(3)
O17 O -0.894(3) 0.136(3) 1.0680(6)
O2A O -0.5255(15) -0.2980(15) 1.0810(3)
N1A N -0.815(2) -0.361(2) 1.0415(4)
N2A N -0.9415(17) -0.4218(19) 1.0170(4)
N3A N -0.9398(20) -0.3288(18) 1.0241(4)
N4A N -1.0126(16) -0.5856(17) 0.9977(3)
N5A N -1.0705(18) -0.7490(17) 0.9797(3)
N6A N -1.130(2) -0.827(2) 0.9651(4)
N7A N -1.038(2) -0.886(2) 0.9857(4)
C1A C -1.060(2) -0.446(2) 0.9878(5)
H1A H -1.05600 -0.37670 0.99050
C2A C -1.010(2) -0.487(2) 1.0000(4)
C3A C -1.120(2) -0.514(2) 0.9705(4)
H2A H -1.15730 -0.49010 0.96160
C4A C -0.863(2) -0.295(2) 1.0390(4)
H3A H -0.84280 -0.23100 1.04700
C5A C -1.070(2) -0.645(2) 0.9816(5)
C6A C -1.121(2) -0.614(2) 0.9671(5)
H4A H -1.15570 -0.65850 0.95550
C7A C -1.019(2) -0.789(2) 0.9917(4)
H5A H -0.97480 -0.75050 1.00310
C8A C -1.109(3) -0.908(3) 0.9687(6)
H6A H -1.13800 -0.97410 0.96080
C9A C -0.866(3) -0.439(3) 1.0269(5)
H7A H -0.85090 -0.49670 1.02400
O1B O -0.980(2) -0.121(2) 1.0245(4)
N1B N -1.639(2) -0.454(2) 1.0415(4)
N2B N -1.5782(17) -0.5197(19) 1.0170(4)
N3B N -1.6712(20) -0.6110(18) 1.0241(4)
N4B N -1.4144(16) -0.4270(17) 0.9977(3)
N5B N -1.2510(18) -0.3215(17) 0.9797(3)
N6B N -1.173(2) -0.303(2) 0.9651(4)
N7B N -1.114(2) -0.152(2) 0.9857(4)
C1B C -1.554(2) -0.614(2) 0.9878(5)
H1B H -1.62330 -0.67930 0.99050
C2B C -1.513(2) -0.523(2) 1.0000(4)
C3B C -1.486(2) -0.606(2) 0.9705(4)
H2B H -1.50990 -0.66720 0.96160
C4B C -1.705(2) -0.568(2) 1.0390(4)
H3B H -1.76900 -0.61180 1.04700
C5B C -1.355(2) -0.425(2) 0.9816(5)
C6B C -1.386(2) -0.507(2) 0.9671(5)
H4B H -1.34150 -0.49720 0.95550
C7B C -1.211(2) -0.230(2) 0.9917(4)
H5B H -1.24950 -0.22430 1.00310
C8B C -1.092(3) -0.201(3) 0.9687(6)
H6B H -1.02590 -0.16390 0.96080
C9B C -1.561(3) -0.427(3) 1.0269(5)
H7B H -1.50330 -0.35420 1.02400
O1A O -1.141(2) -0.020(2) 1.0245(4)
O2B O -0.7020(15) -0.2275(15) 1.0810(3)
Mn1* Mn -1.66670 -0.33330 1.06101(11)
Mn2* Mn -1.00000 -1.00000 1.00426(17)
N1B* N -0.639(2) -0.454(2) 1.0415(4)
N7A* N -1.038(2) 0.114(2) 0.9857(4)
O12A O -0.7400(13) -0.2777(13) 0.9281(2)
O12B O -0.7223(13) -0.4623(13) 0.9281(2)
W1A W -0.83008(8) -0.41956(8) 0.87419(2)
W2A W -0.93302(8) -0.35240(8) 0.92189(2)
W3A W -0.90602(7) -0.60750(7) 0.91994(2)
W4A W -0.75043(8) -0.51363(8) 0.96320(2)
O3A O -0.7775(16) -0.5728(15) 0.9876(3)
O4A O -0.9480(13) -0.4964(13) 0.9264(3)
O5A O -0.8591(14) -0.1873(14) 0.9163(3)
O6A O -1.0708(17) -0.3843(16) 0.9193(3)
O7A O -0.9351(16) -0.4754(15) 0.8565(3)
O8A O -1.0346(16) -0.7261(16) 0.9172(3)
O9A O -0.7923(14) -0.4032(14) 0.9662(3)
O10A O -0.9113(15) -0.3150(15) 0.9506(3)
O11A O -0.8874(14) -0.6132(14) 0.9497(3)
O13A O -0.8913(14) -0.3636(13) 0.8943(3)
O14A O -0.8751(14) -0.5450(14) 0.8937(2)
O16A O -0.7377(16) -0.2733(15) 0.8630(3)
W1B W -0.58044(8) -0.41052(8) 0.87419(2)
W2B W -0.64760(8) -0.58062(8) 0.92189(2)
W3B W -0.39250(7) -0.29852(7) 0.91994(2)
W4B W -0.48637(8) -0.23680(8) 0.96320(2)
O3B O -0.4272(16) -0.2047(15) 0.9876(3)
O4B O -0.5036(13) -0.4516(13) 0.9264(3)
O5B O -0.8127(14) -0.6718(14) 0.9163(3)
O6B O -0.6157(17) -0.6865(16) 0.9193(3)
O7B O -0.5246(16) -0.4597(15) 0.8565(3)
O8B O -0.2739(16) -0.3085(16) 0.9172(3)
O9B O -0.5968(14) -0.3891(14) 0.9662(3)
O10B O -0.6850(15) -0.5963(15) 0.9506(3)
O11B O -0.3868(14) -0.2742(14) 0.9497(3)
O13B O -0.6364(14) -0.5277(13) 0.8943(3)
O14B O -0.4550(14) -0.3301(14) 0.8937(2)
O16B O -0.7267(16) -0.4644(15) 0.8630(3)
#END
