
#######################################################################
#
#                 Cambridge Crystallographic Data Centre
#                                CCDC
#
#######################################################################
#
# If this CIF has been generated from an entry in the Cambridge
# Structural Database, then it will include bibliographic, chemical,
# crystal, experimental, refinement or atomic coordinate data resulting
# from the CCDC's data processing and validation procedures.
#
#######################################################################

data_CSD_CIF_YUFPAS
_audit_creation_date 2015-06-30
_audit_creation_method CSD-ConQuest-V1
_database_code_CSD YUFPAS
_database_code_depnum_ccdc_archive 'CCDC 1045305'
_chemical_formula_sum 'C26 H37 Cu2 Mo12 N12 O48 P1'
_chemical_formula_moiety
;
(C26 H32 Cu2 N12 O6 4+)n,n(H1 Mo12 O40 P1 4-),2n(H2 O1)
;
_journal_coden_Cambridge 1500
_journal_volume 5
_journal_year 2015
_journal_page_first 56687
_journal_name_full 'RSC Advances '
loop_
_publ_author_name
"Xiu-Li Wang"
"Dan-Na Liu"
"Hong-Yan Lin"
"Guo-Cheng Liu"
"Na Han"
"Jian Luan"
"Zhi-Han Chang"
_chemical_name_systematic
;
catena-[bis(\m-N,N'-propane-1,3-diyldipyrazine-2-carboxamide)-diaqua-di-copper
(ii) 
tetracosakis(\m-oxo)-(\m-phosphato)-(hydroxy)-undecaoxo-deca-molybdenum(iv)-di
-molybdenum(v) dihydrate]
;
_cell_volume   1588.745
_exptl_crystal_colour 'green'
_exptl_crystal_density_diffrn 2.712
_exptl_special_details
;
The anion H atom has not been located and has been placed arbitrarily in the 
2D diagram
;
_exptl_crystal_description 'block'
_diffrn_ambient_temperature 296
_refine_special_details
;
O22,O23,O24,O4 disordered by symmetry over two configurations with occupancy 
0.50.
;
#These two values have been output from a single CSD field.
_refine_ls_R_factor_gt 0.0503
_refine_ls_wR_factor_gt 0.0503
_symmetry_cell_setting triclinic
_symmetry_space_group_name_H-M 'P -1'
_symmetry_Int_Tables_number 2
loop_
_symmetry_equiv_pos_site_id
_symmetry_equiv_pos_as_xyz
1 x,y,z
2 -x,-y,-z
_cell_length_a 11.4981(11)
_cell_length_b 11.7035(11)
_cell_length_c 13.2243(13)
_cell_angle_alpha 64.013(2)
_cell_angle_beta 89.207(2)
_cell_angle_gamma 83.681(2)
_cell_formula_units_Z 1
loop_
_atom_type_symbol
_atom_type_radius_bond
C 0.68
H 0.23
Cu 1.32
Mo 1.54
N 0.68
O 0.68
P 1.05
loop_
_atom_site_label
_atom_site_type_symbol
_atom_site_fract_x
_atom_site_fract_y
_atom_site_fract_z
P1 P 0.00000 0.00000 0.50000
Mo1 Mo -0.13011(7) -0.01418(7) 0.26431(6)
Mo2 Mo 0.01877(7) -0.27089(6) 0.76388(6)
Mo3 Mo -0.27438(6) 0.17541(7) 0.38645(6)
O1 O 0.0545(7) -0.2876(8) 0.4503(9)
Mo4 Mo 0.15564(8) -0.16398(8) 0.36224(8)
O2 O -0.0720(9) 0.0744(9) 0.4001(8)
Mo5 Mo -0.08745(8) -0.28678(8) 0.52155(8)
O3 O -0.1366(7) -0.2143(10) 0.7520(9)
Mo6 Mo -0.26002(7) -0.11341(9) 0.63715(7)
O4 O -0.2271(7) -0.2229(10) 0.5756(8)
O5 O -0.3193(10) 0.0185(7) 0.5036(6)
O6 O 0.2301(10) -0.0178(7) 0.3153(6)
O7 O 0.0303(7) -0.4044(6) 0.8860(6)
O8 O -0.1825(7) -0.0136(8) 0.1476(6)
O9 O -0.3778(6) -0.1611(7) 0.7081(6)
O10 O 0.249(1) -0.2279(7) 0.5036(6)
O11 O -0.0621(6) 0.1533(6) 0.1939(6)
O12 O -0.2503(6) 0.0747(7) 0.3021(6)
O13 O -0.1546(7) -0.1679(8) 0.3710(8)
O14 O -0.4051(6) 0.2548(8) 0.3336(10)
O15 O -0.1738(6) 0.2826(7) 0.2904(7)
O16 O 0.0323(7) -0.0758(8) 0.2606(10)
O17 O 0.2314(6) -0.2435(7) 0.3011(6)
O18 O -0.0126(8) -0.0786(9) 0.4292(8)
O19 O 0.1238(9) -0.0442(10) 0.4799(8)
O20 O 0.0543(9) 0.1205(9) 0.4166(9)
O21 O -0.1346(8) -0.4346(9) 0.5320(8)
O22 O -0.0167(7) -0.349(1) 0.6650(8)
Cu1 Cu -0.50000 0.50000 -0.50000
O23 O -0.4534(7) 0.5006(6) -0.3592(6)
C1 C -0.4972(8) 0.2888(9) -0.2930(8)
N1 N 0.1226(14) 0.0948(8) 0.0250(8)
O24 O -0.3022(8) 0.4796(9) -0.5569(10)
C2 C -0.5411(8) 0.2292(9) -0.4291(9)
H1 H -0.55260 0.24810 -0.50450
N2 N -0.5390(8) 0.0781(8) -0.2414(9)
Cu2 Cu 0.00000 0.00000 0.00000
O25 O -0.0898(10) 0.1690(7) -0.0668(6)
N3 N -0.5131(6) 0.3194(7) -0.4026(7)
N4 N -0.0809(10) 0.3761(8) -0.1082(9)
N5 N -0.4453(10) 0.3838(10) -0.1709(8)
C3 C -0.4646(9) 0.3997(10) -0.2736(9)
C4 C -0.2844(13) 0.4453(13) -0.0898(11)
H2 H -0.26290 0.51230 -0.07180
H3 H -0.28480 0.36820 -0.01970
N6 N 0.2787(12) 0.2598(11) 0.0182(9)
C5 C 0.1703(15) 0.2994(11) -0.0236(10)
H4 H 0.14710 0.38710 -0.05630
C6 C -0.1964(12) 0.4222(11) -0.1611(9)
H5 H -0.22140 0.36020 -0.18390
H6 H -0.19220 0.50130 -0.22860
C7 C -0.5124(10) 0.1686(11) -0.2122(10)
H7 H -0.50410 0.14980 -0.13650
C8 C -0.0342(14) 0.2567(10) -0.0676(8)
C9 C -0.4063(14) 0.4839(14) -0.1436(12)
H8 H -0.46040 0.49890 -0.09260
H9 H -0.40740 0.56320 -0.21190
C10 C 0.0884(15) 0.2208(9) -0.0226(9)
C11 C 0.3069(17) 0.1365(14) 0.0644(10)
H10 H 0.38180 0.10420 0.09660
C12 C 0.231(2) 0.0505(13) 0.0681(11)
H11 H 0.25600 -0.03680 0.10020
C13 C -0.5537(9) 0.1087(10) -0.3483(10)
H12 H -0.57310 0.04730 -0.37000
O26 O -0.3939(10) 0.1427(12) 0.0275(9)
O2A O 0.0720(9) -0.0744(9) 0.5999(8)
O18A O 0.0126(8) 0.0786(9) 0.5708(8)
O19A O -0.1238(9) 0.0442(10) 0.5201(8)
O20A O -0.0543(9) -0.1205(9) 0.5834(9)
Mo1A Mo 0.13011(7) 0.01418(7) 0.73569(6)
Mo2A Mo -0.01877(7) 0.27089(6) 0.23612(6)
Mo3A Mo 0.27438(6) -0.17541(7) 0.61355(6)
O1A O -0.0545(7) 0.2876(8) 0.5497(9)
Mo4A Mo -0.15564(8) 0.16398(8) 0.63776(8)
Mo5A Mo 0.08745(8) 0.28678(8) 0.47845(8)
O3A O 0.1366(7) 0.2143(10) 0.2480(9)
Mo6A Mo 0.26002(7) 0.11341(9) 0.36285(7)
O4A O 0.2271(7) 0.2229(10) 0.4244(8)
O5A O 0.3193(10) -0.0185(7) 0.4964(6)
O6A O -0.2301(10) 0.0178(7) 0.6847(6)
O7A O -0.0303(7) 0.4044(6) 0.1140(6)
O8A O 0.1825(7) 0.0136(8) 0.8524(6)
O9A O 0.3778(6) 0.1611(7) 0.2919(6)
O10A O -0.249(1) 0.2279(7) 0.4964(6)
O11A O 0.0621(6) -0.1533(6) 0.8061(6)
O12A O 0.2503(6) -0.0747(7) 0.6979(6)
O13A O 0.1546(7) 0.1679(8) 0.6290(8)
O14A O 0.4051(6) -0.2548(8) 0.6664(10)
O15A O 0.1738(6) -0.2826(7) 0.7096(7)
O16A O -0.0323(7) 0.0758(8) 0.7394(10)
O17A O -0.2314(6) 0.2435(7) 0.6989(6)
O21A O 0.1346(8) 0.4346(9) 0.4680(8)
O22A O 0.0167(7) 0.349(1) 0.3350(8)
O23A O -0.5466(7) 0.4994(6) -0.6408(6)
C1A C -0.5028(8) 0.7112(9) -0.7070(8)
N1A N -1.1226(14) 0.9052(8) -1.0250(8)
O24A O -0.6978(8) 0.5204(9) -0.4431(10)
C2A C -0.4589(8) 0.7708(9) -0.5709(9)
H1A H -0.44740 0.75190 -0.49550
N2A N -0.4610(8) 0.9219(8) -0.7586(9)
O25A O -0.9102(10) 0.8310(7) -0.9332(6)
N3A N -0.4869(6) 0.6806(7) -0.5974(7)
N4A N -0.9191(10) 0.6239(8) -0.8918(9)
N5A N -0.5547(10) 0.6162(10) -0.8291(8)
C3A C -0.5354(9) 0.6003(10) -0.7264(9)
C4A C -0.7156(13) 0.5547(13) -0.9102(11)
H2A H -0.73710 0.48770 -0.92820
H3A H -0.71520 0.63180 -0.98030
N6A N -1.2787(12) 0.7402(11) -1.0182(9)
C5A C -1.1703(15) 0.7006(11) -0.9764(10)
H4A H -1.14710 0.61290 -0.94370
C6A C -0.8036(12) 0.5778(11) -0.8389(9)
H5A H -0.77860 0.63980 -0.81610
H6A H -0.80780 0.49870 -0.77140
C7A C -0.4876(10) 0.8314(11) -0.7878(10)
H7A H -0.49590 0.85020 -0.86350
C8A C -0.9658(14) 0.7433(10) -0.9324(8)
C9A C -0.5937(14) 0.5161(14) -0.8564(12)
H8A H -0.53960 0.50110 -0.90740
H9A H -0.59260 0.43680 -0.78810
C10A C -1.0884(15) 0.7792(9) -0.9774(9)
C11A C -1.3069(17) 0.8635(14) -1.0644(10)
H10A H -1.38180 0.89580 -1.09660
C12A C -1.231(2) 0.9495(13) -1.0681(11)
H11A H -1.25600 1.03680 -1.10020
C13A C -0.4463(9) 0.8913(10) -0.6517(10)
H12A H -0.42690 0.95270 -0.63000
N1A* N -0.1226(14) -0.0948(8) -0.0250(8)
Cu2* Cu -1.00000 1.00000 -1.00000
O25A* O 0.0898(10) -0.1690(7) 0.0668(6)
#END
