
#######################################################################
#
#                 Cambridge Crystallographic Data Centre
#                                CCDC
#
#######################################################################
#
# If this CIF has been generated from an entry in the Cambridge
# Structural Database, then it will include bibliographic, chemical,
# crystal, experimental, refinement or atomic coordinate data resulting
# from the CCDC's data processing and validation procedures.
#
#######################################################################

data_CSD_CIF_YUFWAZ
_audit_creation_date 2015-06-30
_audit_creation_method CSD-ConQuest-V1
_database_code_CSD YUFWAZ
_database_code_depnum_ccdc_archive 'CCDC 1061652'
_chemical_formula_sum 'C8 H14 Cu1 Fe1 N1 O12'
_chemical_formula_moiety
;
(C6 H6 Cu1 Fe1 O12 1-)n,n(C2 H8 N1 1+)
;
_journal_coden_Cambridge 222
_journal_volume 44
_journal_year 2015
_journal_page_first 13234
_journal_name_full 'Dalton Trans. '
loop_
_publ_author_name
"A.Ciupa"
"M.Maczka"
"A.Gagor"
"A.Pikul"
"M.Ptak"
_chemical_name_systematic
;
catena-[dimethylammonium hexakis(\m-formato)-copper(ii)-iron(iii)]
;
_cell_volume   1607.809
_exptl_crystal_density_diffrn 1.802
_exptl_special_details
;
powder data

;
_diffrn_ambient_temperature 293
_refine_special_details
;
C2,C3,N1 and C2,C3,N2 disordered over two sites with occupancies 0.5:0.5.

;
#These two values have been output from a single CSD field.
_refine_ls_R_factor_gt 0.1131
_refine_ls_wR_factor_gt 0.1131
_symmetry_cell_setting monoclinic
_symmetry_space_group_name_H-M 'C 2/c'
_symmetry_Int_Tables_number 15
loop_
_symmetry_equiv_pos_site_id
_symmetry_equiv_pos_as_xyz
1 x,y,z
2 -x,y,1/2-z
3 1/2+x,1/2+y,z
4 1/2-x,1/2+y,1/2-z
5 -x,-y,-z
6 x,-y,-1/2+z
7 -1/2-x,-1/2-y,-z
8 -1/2+x,-1/2-y,-1/2+z
_cell_length_a 8.3771(8)
_cell_length_b 14.0950(14)
_cell_length_c 13.6352(15)
_cell_angle_alpha 90
_cell_angle_beta 92.975(6)
_cell_angle_gamma 90
_cell_formula_units_Z 4
loop_
_atom_type_symbol
_atom_type_radius_bond
C 0.68
H 0.23
Cu 1.32
Fe 1.52
N 0.68
O 0.68
loop_
_atom_site_label
_atom_site_type_symbol
_atom_site_fract_x
_atom_site_fract_y
_atom_site_fract_z
Cu1 Cu 0.50000 0.8263(12) 0.25000
Fe1 Fe 0.50000 0.50000 0.00000
O1 O 0.552(4) 0.7301(19) 0.140(2)
O2 O 0.570(3) 0.933(2) 0.154(2)
O3 O 0.736(4) 0.820(2) 0.326(2)
O4 O 0.575(4) 0.5757(19) 0.108(2)
O5 O 0.797(3) 0.966(2) 0.074(2)
O6 O 0.883(3) 0.8919(17) 0.445(2)
C1 C 0.620(3) 0.655(2) 0.151(3)
C2 C 0.717(3) 0.923(3) 0.142(3)
C3 C 0.775(5) 0.8927(18) 0.378(3)
H1 H 0.71457 0.65340 0.19416
H2 H 0.77489 0.87955 0.18437
H3 H 0.71920 0.95103 0.36445
C4 C 0.00858 0.32724 0.66250
N1 N 0.00000 0.273(1) 0.75000
N2? N 0.00000 0.33556 0.75000
C5? C 0.00850 0.27250 0.66250
O1A O 0.448(4) 0.7301(19) 0.360(2)
O2A O 0.430(3) 0.933(2) 0.346(2)
O3A O 0.264(4) 0.820(2) 0.174(2)
O4A O 0.425(4) 0.5757(19) 0.392(2)
O5A O 0.203(3) 0.966(2) 0.426(2)
O6A O 0.117(3) 0.8919(17) 0.055(2)
C1A C 0.380(3) 0.655(2) 0.349(3)
C2A C 0.283(3) 0.923(3) 0.358(3)
C3A C 0.225(5) 0.8927(18) 0.122(3)
H1A H 0.28543 0.65340 0.30584
H2A H 0.22511 0.87955 0.31563
H3A H 0.28080 0.95103 0.13555
Fe1A Fe 0.50000 0.50000 0.50000
Fe1B Fe 0.00000 1.00000 0.00000
Fe1B* Fe 1.00000 1.00000 0.00000
Fe1C Fe 0.00000 1.00000 0.50000
Fe1C* Fe 1.00000 1.00000 0.50000
O4D O 0.425(4) 0.4243(19) -0.108(2)
O5B O 0.297(3) 0.466(2) 0.074(2)
O5F O 0.703(3) 0.534(2) -0.074(2)
O6C O 0.617(3) 0.3919(17) 0.055(2)
O6G O 0.383(3) 0.6081(17) -0.055(2)
C4A C -0.00858 0.32724 0.83750
#END
