
#######################################################################
#
#                 Cambridge Crystallographic Data Centre
#                                CCDC
#
#######################################################################
#
# If this CIF has been generated from an entry in the Cambridge
# Structural Database, then it will include bibliographic, chemical,
# crystal, experimental, refinement or atomic coordinate data resulting
# from the CCDC's data processing and validation procedures.
#
#######################################################################

data_CSD_CIF_YUGDAI03
_audit_creation_date 2020-04-14
_audit_creation_method CSD-ConQuest-V1
_database_code_CSD YUGDAI03
_database_code_depnum_ccdc_archive 'CCDC 1974337'
_chemical_formula_sum 'C20 H40 Co2 N4 O22'
_chemical_formula_moiety
;
(C8 Co2 O16 4-)n,2(C6 H14 N2 2+),6(H2 O1)
;
_journal_coden_Cambridge 1695
_journal_volume 8
_journal_year 2020
_journal_page_first 6254
_journal_name_full 'J.Mater.Chem.C '
loop_
_publ_author_name
"K.Pasinska"
"A.Ciupa"
"A.Pikul"
"A.Gagor"
"A.Pietraszko"
"A.Cizman"
_chemical_name_systematic
;
catena-(bis(1,4-diazoniabicyclo[2.2.2]octane) 
bis(\m-oxalato)-bis(oxalato)-di-cobalt hexahydrate)
;
_cell_volume   1538.039
_exptl_crystal_colour 'red'
_exptl_crystal_density_diffrn 1.741
_exptl_special_details
;
Magnetic properties
P21 polymorph
The presence of reflections (h + l = 2n + 1) on the h0l plane of reciprocal 
space confirms P21 symmetry
;
_exptl_crystal_description 'needle'
_diffrn_ambient_temperature 190
_diffrn_special_details
;
twin

;
#These two values have been output from a single CSD field.
_refine_ls_R_factor_gt 0.0361
_refine_ls_wR_factor_gt 0.0361
_symmetry_cell_setting monoclinic
_symmetry_space_group_name_H-M 'P 21'
_symmetry_Int_Tables_number 4
loop_
_symmetry_equiv_pos_site_id
_symmetry_equiv_pos_as_xyz
1 x,y,z
2 -x,1/2+y,-z
_cell_length_a 9.394(3)
_cell_length_b 16.722(5)
_cell_length_c 9.795(3)
_cell_angle_alpha 90
_cell_angle_beta 91.63(3)
_cell_angle_gamma 90
_cell_formula_units_Z 2
loop_
_atom_type_symbol
_atom_type_radius_bond
C 0.68
H 0.23
Co 1.26
N 0.68
O 0.68
loop_
_atom_site_label
_atom_site_type_symbol
_atom_site_fract_x
_atom_site_fract_y
_atom_site_fract_z
Co1 Co 0.34996(12) 0.04609(7) -0.00128(12)
O1 O 0.1727(7) 0.0613(5) 0.1208(6)
O2 O 0.2910(6) -0.0571(6) -0.1073(6)
O3 O 0.5624(7) 0.0372(6) -0.0531(7)
O4 O 0.4241(7) 0.1594(5) 0.0620(7)
O5 O 0.2168(7) -0.0959(5) -0.3164(7)
O6 O 0.0907(6) 0.0244(5) 0.3230(6)
O7 O 0.6122(8) 0.2383(6) 0.0343(9)
O8 O 0.7636(7) 0.1090(6) -0.0462(8)
C1 C 0.1842(9) 0.0263(7) 0.2314(9)
C2 C 0.6315(12) 0.1019(9) -0.0303(11)
C3 C 0.5504(10) 0.1724(8) 0.0254(10)
C4 C 0.2532(8) -0.0428(8) -0.2285(8)
Co2 Co 0.15145(12) -0.04507(7) -0.50422(12)
O9 O 0.3287(7) -0.0596(6) 0.3751(6)
O10 O 0.2128(7) 0.0581(6) -0.3985(6)
O11 O -0.0593(7) -0.0389(6) -0.4489(7)
O12 O 0.0784(7) -0.1573(6) -0.5678(7)
O13 O 0.2856(7) 0.0962(5) -0.1884(7)
O14 O 0.4109(6) -0.0233(6) 0.1715(6)
O15 O -0.1021(8) -0.2409(6) -0.5229(9)
O16 O -0.2448(7) -0.1163(6) -0.4195(8)
C5 C 0.3213(10) -0.0231(7) 0.2628(8)
C6 C -0.1265(10) -0.1020(8) -0.4615(10)
C7 C -0.0426(11) -0.1748(8) -0.5235(10)
C8 C 0.2509(9) 0.0459(9) -0.2751(10)
N1 N 0.1357(8) 0.3289(7) -0.0267(8)
H1 H 0.22307 0.36088 -0.02520
N2 N -0.0869(8) 0.2476(7) -0.0261(8)
H2 H -0.17558 0.21681 -0.02576
C9 C 0.0271(10) 0.1991(7) -0.0984(10)
H3 H 0.05614 0.15335 -0.04352
H4 H -0.00924 0.18013 -0.18630
C10 C 0.1527(10) 0.2560(7) -0.117(1)
H5 H 0.24113 0.22888 -0.09294
H6 H 0.15627 0.27246 -0.21184
C11 C 0.0163(11) 0.3764(7) -0.0772(11)
H7 H 0.04046 0.40140 -0.16283
H8 H -0.00338 0.41844 -0.01210
C12 C -0.1135(12) 0.3256(8) -0.0985(11)
H9 H -0.13142 0.31635 -0.19528
H10 H -0.19597 0.35207 -0.06183
C13 C 0.1062(11) 0.2989(9) 0.1140(11)
H11 H 0.17560 0.25834 0.14015
H12 H 0.11465 0.34257 0.17886
C14 C -0.0393(11) 0.2645(8) 0.1175(10)
H13 H -0.10378 0.30198 0.15912
H14 H -0.03836 0.21549 0.17059
O17 O 0.6940(8) -0.0813(5) 0.2391(8)
H15 H 0.6063(19) -0.074(3) 0.219(6)
H16 H 0.731(5) -0.0388(18) 0.272(6)
O18 O 0.4092(8) 0.3605(6) 0.0583(9)
H17 H 0.43883 0.40678 0.03592
H18 H 0.48005 0.32913 0.07101
O19 O 0.9402(9) -0.0020(6) -0.1649(8)
H19 H 0.88358 0.03475 -0.14132
H20 H 0.94164 -0.00430 -0.25140
N3 N 0.3684(8) -0.3223(7) -0.4874(8)
H21 H 0.28044 -0.35365 -0.49576
N4 N 0.5901(9) -0.2444(6) -0.4649(8)
H22 H 0.67627 -0.21155 -0.45616
C15 C 0.4719(11) -0.2011(8) -0.4029(11)
H23 H 0.44878 -0.15397 -0.45677
H24 H 0.50037 -0.18387 -0.31160
C16 C 0.3425(9) -0.2545(8) -0.3961(10)
H25 H 0.32994 -0.27306 -0.30341
H26 H 0.25754 -0.22570 -0.42593
C17 C 0.4860(9) -0.3766(8) -0.4222(10)
H27 H 0.51196 -0.41876 -0.48481
H28 H 0.45347 -0.40079 -0.33859
C18 C 0.6151(10) -0.3199(8) -0.3918(11)
H29 H 0.62475 -0.30995 -0.29443
H30 H 0.70224 -0.34451 -0.42191
C19 C 0.4077(12) -0.2973(9) -0.6246(10)
H31 H 0.33915 -0.25893 -0.66117
H32 H 0.40934 -0.34306 -0.68534
C20 C 0.5579(11) -0.2586(9) -0.6123(10)
H33 H 0.62841 -0.29409 -0.65002
H34 H 0.55923 -0.20854 -0.66216
O20 O -0.1871(7) 0.0808(6) -0.7382(8)
H35 H -0.185(6) 0.091(5) -0.832(5)
H36 H -0.10125 0.06774 -0.71963
O21 O 0.1013(8) -0.3621(6) -0.5702(9)
H37 H 0.04644 -0.33625 -0.51827
H38 H 0.06622 -0.40441 -0.58357
O22 O -0.4239(10) 0.0058(6) -0.3335(9)
H39 H -0.35830 -0.01689 -0.37772
H40 H -0.39946 0.00818 -0.24957
O6* O 0.0907(6) 0.0244(5) -0.6770(6)
Co2* Co 0.15145(12) -0.04507(7) 0.49578(12)
O9* O 0.3287(7) -0.0596(6) -0.6249(6)
#END
