
#######################################################################
#
#                 Cambridge Crystallographic Data Centre
#                                CCDC
#
#######################################################################
#
# If this CIF has been generated from an entry in the Cambridge
# Structural Database, then it will include bibliographic, chemical,
# crystal, experimental, refinement or atomic coordinate data resulting
# from the CCDC's data processing and validation procedures.
#
#######################################################################

data_CSD_CIF_YUGDEM02
_audit_creation_date 2020-04-14
_audit_creation_method CSD-ConQuest-V1
_database_code_CSD YUGDEM02
_database_code_depnum_ccdc_archive 'CCDC 1974341'
_chemical_formula_sum 'C20 H40 Mg2 N4 O22'
_chemical_formula_moiety
;
(C8 Mg2 O16 4-)n,2(C6 H14 N2 2+),6(H2 O1)
;
_journal_coden_Cambridge 1695
_journal_volume 8
_journal_year 2020
_journal_page_first 6254
_journal_name_full 'J.Mater.Chem.C '
loop_
_publ_author_name
"K.Pasinska"
"A.Ciupa"
"A.Pikul"
"A.Gagor"
"A.Pietraszko"
"A.Cizman"
_chemical_name_systematic
;
catena-(bis(1,4-diazoniabicyclo[2.2.2]octane) 
bis(\m-oxalato)-bis(oxalato)-di-magnesium hexahydrate)
;
_cell_volume   1532.999
_exptl_crystal_colour 'colorless'
_exptl_crystal_density_diffrn 1.597
_exptl_special_details
;
P21 polymorph
The presence of reflections (h + l = 2n + 1) on the h0l plane of reciprocal 
space confirms P21 symmetry
;
_exptl_crystal_description 'needle'
_diffrn_ambient_temperature 100.0
_diffrn_special_details
;
twin

;
#These two values have been output from a single CSD field.
_refine_ls_R_factor_gt 0.0303
_refine_ls_wR_factor_gt 0.0303
_symmetry_cell_setting monoclinic
_symmetry_space_group_name_H-M 'P 21'
_symmetry_Int_Tables_number 4
loop_
_symmetry_equiv_pos_site_id
_symmetry_equiv_pos_as_xyz
1 x,y,z
2 -x,1/2+y,-z
_cell_length_a 9.391(3)
_cell_length_b 16.657(5)
_cell_length_c 9.802(3)
_cell_angle_alpha 90
_cell_angle_beta 91.11(3)
_cell_angle_gamma 90
_cell_formula_units_Z 2
loop_
_atom_type_symbol
_atom_type_radius_bond
C 0.68
H 0.23
Mg 1.41
N 0.68
O 0.68
loop_
_atom_site_label
_atom_site_type_symbol
_atom_site_fract_x
_atom_site_fract_y
_atom_site_fract_z
Mg1 Mg 0.34968(11) 0.04475(6) -0.00491(10)
O1 O 0.1716(2) 0.05792(15) 0.1152(2)
O2 O 0.2955(2) -0.05797(14) -0.1122(2)
O3 O 0.5605(2) 0.03634(14) -0.0570(2)
O4 O 0.4221(2) 0.15633(14) 0.0597(2)
O5 O 0.2225(2) -0.09503(14) -0.3228(2)
O6 O 0.0943(2) 0.02589(14) 0.3233(2)
O7 O 0.6162(2) 0.23432(15) 0.0458(2)
O8 O 0.7670(2) 0.10314(14) -0.0303(2)
C1 C 0.1832(3) 0.0250(2) 0.2301(3)
C2 C 0.6353(3) 0.0965(2) -0.0234(3)
C3 C 0.5507(3) 0.1699(2) 0.0323(3)
C4 C 0.2562(3) -0.0443(2) -0.2334(3)
Mg2 Mg 0.15467(11) -0.04334(6) -0.50659(10)
O9 O 0.3330(2) -0.05625(14) 0.3745(2)
O10 O 0.2114(2) 0.05885(14) -0.3985(2)
O11 O -0.0548(2) -0.03680(14) -0.4483(2)
O12 O 0.0819(2) -0.15473(15) -0.5718(2)
O13 O 0.2829(2) 0.09604(14) -0.1879(2)
O14 O 0.4124(2) -0.02307(14) 0.1669(2)
O15 O -0.0937(2) -0.24097(15) -0.5238(2)
O16 O -0.2402(2) -0.11675(14) -0.4120(2)
C5 C 0.3228(3) -0.0230(2) 0.2611(3)
C6 C -0.1198(3) -0.1030(2) -0.4560(3)
C7 C -0.0368(3) -0.1736(2) -0.5236(3)
C8 C 0.2487(3) 0.0451(2) -0.2774(3)
N1 N 0.1332(3) 0.32783(17) -0.0309(3)
H1 H 0.22032 0.36007 -0.03461
N2 N -0.0884(3) 0.24659(18) -0.0208(2)
H2 H -0.17567 0.21452 -0.01648
C9 C 0.0236(3) 0.1990(2) -0.0920(3)
H3 H -0.01429 0.17763 -0.17733
H4 H 0.05498 0.15440 -0.03520
C10 C 0.1491(3) 0.2558(2) -0.1192(3)
H5 H 0.23856 0.22898 -0.09827
H6 H 0.14855 0.27148 -0.21452
C11 C 0.0095(3) 0.3775(2) -0.0810(3)
H7 H 0.03163 0.40238 -0.16748
H8 H -0.01101 0.41948 -0.01572
C12 C -0.1191(3) 0.3218(2) -0.0983(3)
H9 H -0.20370 0.34746 -0.06360
H10 H -0.13543 0.30963 -0.19413
C13 C 0.1112(4) 0.3014(2) 0.1126(3)
H11 H 0.12192 0.34665 0.17430
H12 H 0.18105 0.26097 0.13830
C14 C -0.0390(3) 0.2668(2) 0.1209(3)
H13 H -0.03839 0.21901 0.17742
H14 H -0.10257 0.30584 0.16085
O17 O 0.6970(3) -0.08283(17) 0.2286(3)
H15 H 0.602(4) -0.071(2) 0.200(4)
H16 H 0.726(4) -0.039(2) 0.248(4)
O18 O 0.4076(3) 0.35645(16) 0.0618(3)
H17 H 0.44521 0.40287 0.06104
H18 H 0.47248 0.32080 0.05831
O19 O 0.9464(3) -0.00347(16) -0.1647(2)
H19 H 0.88593 0.02749 -0.12960
H20 H 0.93458 -0.00319 -0.25104
N3 N 0.3760(3) -0.32447(18) -0.4919(3)
H21 H 0.28925 -0.35653 -0.50425
N4 N 0.5965(3) -0.24280(18) -0.4618(2)
H22 H 0.68292 -0.21040 -0.44994
C15 C 0.4731(3) -0.1976(2) -0.4054(3)
H23 H 0.45165 -0.15132 -0.46221
H24 H 0.49625 -0.17891 -0.31396
C16 C 0.3446(3) -0.2538(2) -0.4025(3)
H25 H 0.32812 -0.27150 -0.30988
H26 H 0.26005 -0.22610 -0.43598
C17 C 0.4898(3) -0.3756(2) -0.4260(3)
H27 H 0.51990 -0.41704 -0.48876
H28 H 0.45361 -0.40129 -0.34495
C18 C 0.6163(3) -0.3207(2) -0.3879(3)
H29 H 0.61973 -0.31153 -0.29013
H30 H 0.70506 -0.34564 -0.41399
C19 C 0.4238(4) -0.2957(2) -0.6280(3)
H31 H 0.35757 -0.25595 -0.66385
H32 H 0.42656 -0.34028 -0.69161
C20 C 0.5721(3) -0.2589(2) -0.6109(3)
H33 H 0.64363 -0.29568 -0.64404
H34 H 0.57791 -0.20931 -0.66238
O20 O -0.1847(2) 0.07790(16) -0.7374(3)
H35 H -0.178(4) 0.083(2) -0.821(4)
H36 H -0.10125 0.06774 -0.71963
O21 O 0.1085(2) -0.36175(15) -0.5777(3)
H37 H 0.03850 -0.33159 -0.55926
H38 H 0.08071 -0.40636 -0.57655
O22 O -0.4161(3) 0.00905(16) -0.3379(3)
H39 H -0.35939 -0.02735 -0.36407
H40 H -0.40680 0.01514 -0.25216
O6* O 0.0943(2) 0.02589(14) -0.6767(2)
Mg2* Mg 0.15467(11) -0.04334(6) 0.49341(10)
O9* O 0.3330(2) -0.05625(14) -0.6255(2)
#END
