
#######################################################################
#
#                 Cambridge Crystallographic Data Centre
#                                CCDC
#
#######################################################################
#
# If this CIF has been generated from an entry in the Cambridge
# Structural Database, then it will include bibliographic, chemical,
# crystal, experimental, refinement or atomic coordinate data resulting
# from the CCDC's data processing and validation procedures.
#
#######################################################################

data_CSD_CIF_YUGDAI
_audit_creation_date 2020-04-14
_audit_creation_method CSD-ConQuest-V1
_database_code_CSD YUGDAI
_database_code_depnum_ccdc_archive 'CCDC 1974338'
_chemical_formula_sum 'C20 H40 Co2 N4 O22'
_chemical_formula_moiety
;
(C8 Co2 O16 4-)n,2(C6 H14 N2 2+),6(H2 O1)
;
_journal_coden_Cambridge 1695
_journal_volume 8
_journal_year 2020
_journal_page_first 6254
_journal_name_full 'J.Mater.Chem.C '
loop_
_publ_author_name
"K.Pasinska"
"A.Ciupa"
"A.Pikul"
"A.Gagor"
"A.Pietraszko"
"A.Cizman"
_chemical_name_systematic
;
catena-(bis(1,4-diazoniabicyclo[2.2.2]octane) 
bis(\m-oxalato)-bis(oxalato)-di-cobalt hexahydrate)
;
_cell_volume   1539.556
_exptl_crystal_colour 'colorless'
_exptl_crystal_density_diffrn 1.74
_exptl_special_details
;
P21/n polymorph

;
_exptl_crystal_description 'needle'
_diffrn_ambient_temperature 250
#These two values have been output from a single CSD field.
_refine_ls_R_factor_gt 0.0511
_refine_ls_wR_factor_gt 0.0511
_symmetry_cell_setting monoclinic
_symmetry_space_group_name_H-M 'P 21/n'
_symmetry_Int_Tables_number 14
loop_
_symmetry_equiv_pos_site_id
_symmetry_equiv_pos_as_xyz
1 x,y,z
2 1/2-x,1/2+y,1/2-z
3 -x,-y,-z
4 -1/2+x,-1/2-y,-1/2+z
_cell_length_a 9.419(3)
_cell_length_b 16.751(5)
_cell_length_c 9.762(3)
_cell_angle_alpha 90
_cell_angle_beta 91.69(3)
_cell_angle_gamma 90
_cell_formula_units_Z 2
loop_
_atom_type_symbol
_atom_type_radius_bond
C 0.68
H 0.23
Co 1.26
N 0.68
O 0.68
loop_
_atom_site_label
_atom_site_type_symbol
_atom_site_fract_x
_atom_site_fract_y
_atom_site_fract_z
Co1 Co 0.10076(5) 0.45409(3) 0.25188(5)
O1 O -0.0771(3) 0.43959(16) 0.3722(3)
O2 O 0.0400(3) 0.55754(15) 0.1453(3)
O3 O 0.3111(3) 0.46103(16) 0.1973(3)
O4 O 0.1736(2) 0.34152(16) 0.3141(3)
O5 O -0.0343(3) 0.59586(15) -0.0634(3)
O6 O -0.1603(2) 0.47717(16) 0.5740(3)
C1 C -0.0682(3) 0.4757(2) 0.4841(4)
C2 C 0.3788(4) 0.3974(3) 0.2135(4)
C3 C 0.2967(4) 0.3261(2) 0.2744(4)
C4 C 0.0025(4) 0.5441(2) 0.0235(4)
O7 O 0.3572(3) 0.26020(19) 0.2775(4)
O8 O 0.5037(3) 0.38628(19) 0.1839(4)
O9 O 0.43924 0.58103 0.49094
H1 H 0.34160 0.57240 0.46190
H2 H 0.43250 0.55710 0.58100
O10 O 0.1540(3) 0.1378(2) 0.3145(4)
H3 H 0.21099 0.17380 0.28883
H4 H 0.19484 0.09266 0.31173
O11 O 0.6798(2) 0.5035(2) 0.0836(4)
H5 H 0.66656 0.50967 -0.00226
H6 H 0.61232 0.47581 0.11527
N1 N -0.11703(14) 0.17466(8) 0.2329(2)
H7 H -0.02970 0.14288 0.23862
N2 N -0.33751(13) 0.25433(10) 0.2197(2)
H8 H -0.42476 0.28619 0.21446
C5 C -0.22222(14) 0.29871(9) 0.1523(2)
H9 H -0.19753 0.34606 0.20499
H10 H -0.25386 0.31530 0.06119
C6 C -0.09402(14) 0.24473(9) 0.14306(15)
H11 H -0.08273 0.22746 0.04917
H12 H -0.00879 0.27310 0.17283
C7 C -0.23391(16) 0.12459(9) 0.1736(2)
H13 H -0.25569 0.08158 0.23614
H14 H -0.20536 0.10134 0.08769
C8 C -0.36327(15) 0.17681(11) 0.14980(18)
H15 H -0.37997 0.18531 0.05237
H16 H -0.44638 0.15112 0.18623
C9 C -0.15266(18) 0.20163(13) 0.37197(16)
H17 H -0.08279 0.24006 0.40532
H18 H -0.15198 0.15654 0.43432
C10 C -0.29820(18) 0.23947(13) 0.36587(19)
H19 H -0.36692 0.20413 0.40639
H20 H -0.29692 0.28932 0.41644
O1B O 0.0771(3) 0.56041(16) 0.6278(3)
O6B O 0.1603(2) 0.52283(16) 0.4260(3)
C1B C 0.0682(3) 0.5243(2) 0.5159(4)
O2B O -0.0400(3) 0.44246(15) -0.1453(3)
O5B O 0.0343(3) 0.40414(15) 0.0634(3)
C4B C -0.0025(4) 0.4559(2) -0.0235(4)
Co1B Co -0.10076(5) 0.54591(3) -0.25188(5)
O3B O -0.3111(3) 0.53897(16) -0.1973(3)
O4B O -0.1736(2) 0.65848(16) -0.3141(3)
C2B C -0.3788(4) 0.6026(3) -0.2135(4)
C3B C -0.2967(4) 0.6739(2) -0.2744(4)
O7B O -0.3572(3) 0.73980(19) -0.2775(4)
O8B O -0.5037(3) 0.61372(19) -0.1839(4)
Co1B* Co -0.10076(5) 0.54591(3) 0.74812(5)
O1B* O 0.0771(3) 0.56041(16) -0.3722(3)
O6* O -0.1603(2) 0.47717(16) -0.4260(3)
#END
