
#######################################################################
#
#                 Cambridge Crystallographic Data Centre
#                                CCDC
#
#######################################################################
#
# If this CIF has been generated from an entry in the Cambridge
# Structural Database, then it will include bibliographic, chemical,
# crystal, experimental, refinement or atomic coordinate data resulting
# from the CCDC's data processing and validation procedures.
#
#######################################################################

data_CSD_CIF_YUGTUR
_audit_creation_date 2015-06-30
_audit_creation_method CSD-ConQuest-V1
_database_code_CSD YUGTUR
_database_code_depnum_ccdc_archive 'CCDC 1045306'
_chemical_formula_sum 'C26 H36 Cu2 Mo12 N12 O48 Si1'
_chemical_formula_moiety
;
(C26 H32 Cu2 N12 O6 4+)n,n(Mo12 O40 Si1 4-),2n(H2 O1)
;
_journal_coden_Cambridge 1500
_journal_volume 5
_journal_year 2015
_journal_page_first 56687
_journal_name_full 'RSC Advances '
loop_
_publ_author_name
"Xiu-Li Wang"
"Dan-Na Liu"
"Hong-Yan Lin"
"Guo-Cheng Liu"
"Na Han"
"Jian Luan"
"Zhi-Han Chang"
_chemical_name_systematic
;
catena-[bis(\m-N,N'-propane-1,3-diyldipyrazine-2-carboxamide)-diaqua-di-copper
 (\m-orthosilicato)-tetracosakis(\m-oxo)-dodecaoxo-dodeca-molybdenum 
dihydrate]
;
_cell_volume   1565.350
_exptl_crystal_colour 'green'
_exptl_crystal_density_diffrn 2.749
_exptl_crystal_description 'block'
_diffrn_ambient_temperature 296
_refine_special_details
;
O19,O21,O22,O24 disordered by symmetry over two configurations with occupancy 
0.50.
;
#These two values have been output from a single CSD field.
_refine_ls_R_factor_gt 0.0607
_refine_ls_wR_factor_gt 0.0607
_symmetry_cell_setting triclinic
_symmetry_space_group_name_H-M 'P -1'
_symmetry_Int_Tables_number 2
loop_
_symmetry_equiv_pos_site_id
_symmetry_equiv_pos_as_xyz
1 x,y,z
2 -x,-y,-z
_cell_length_a 11.3935(6)
_cell_length_b 11.8235(6)
_cell_length_c 13.0713(6)
_cell_angle_alpha 63.679(1)
_cell_angle_beta 88.765(1)
_cell_angle_gamma 82.966(1)
_cell_formula_units_Z 1
loop_
_atom_type_symbol
_atom_type_radius_bond
C 0.68
H 0.23
Cu 1.32
Mo 1.54
N 0.68
O 0.68
Si 1.20
loop_
_atom_site_label
_atom_site_type_symbol
_atom_site_fract_x
_atom_site_fract_y
_atom_site_fract_z
Mo1 Mo 0.51533(8) 0.23286(8) 0.26736(7)
Si1 Si 0.50000 0.50000 0.00000
Mo2 Mo 0.36702(8) 0.49131(8) -0.23554(7)
Mo3 Mo 0.77509(9) 0.31605(8) 0.11531(8)
O1 O 0.3135(12) 0.4927(13) -0.3527(9)
Mo4 Mo 0.42062(9) 0.20957(9) 0.02246(11)
O2 O 0.5332(10) 0.4271(10) -0.2445(13)
Mo5 Mo 0.65965(13) 0.34642(10) -0.14577(10)
O3 O 0.7365(7) 0.2665(8) -0.2063(7)
Mo6 Mo 0.76317(11) 0.61101(12) -0.1337(1)
O4 O 0.7366(19) 0.4827(11) -0.1899(8)
O5 O 0.8816(7) 0.6598(9) -0.2073(7)
O6 O 0.6430(8) 0.7134(16) -0.2565(13)
O7 O 0.8262(19) 0.4761(11) -0.0032(8)
O8 O 0.9057(8) 0.2384(9) 0.1673(12)
O9 O 0.7545(7) 0.4201(8) 0.1989(8)
O10 O 0.6761(7) 0.2126(8) 0.2135(8)
O11 O 0.5624(7) 0.3433(8) 0.3123(8)
O12 O 0.5258(13) 0.0980(8) 0.3875(8)
O13 O 0.4824(8) 0.1560(17) 0.1634(13)
O14 O 0.3711(9) 0.0818(7) 0.0272(7)
O15 O 0.7274(8) 0.7215(16) -0.0754(12)
O16 O 0.3434(10) 0.3364(10) -0.1279(12)
O17 O 0.4784(10) 0.4229(11) -0.0765(10)
O18 O 0.5569(10) 0.215(1) -0.0504(13)
O19 O 0.4495(10) 0.3674(11) 0.0877(10)
O20 O 0.5683(10) 0.422(1) 0.1094(10)
O21 O 0.7504(19) 0.2703(12) 0.0011(9)
O22 O 0.6425(11) 0.4503(11) -0.0228(10)
Cu1 Cu 0.50000 0.50000 -0.50000
N1 N 0.3746(16) 0.4028(10) -0.5164(10)
C1 C 0.265(2) 0.4477(16) -0.5628(14)
H1 H 0.24000 0.53470 -0.59980
O23 O 0.5933(12) 0.3305(8) -0.4325(8)
O24 O 0.7947(10) 0.0208(13) 0.0545(14)
Cu2 Cu 1.00000 0.00000 0.00000
N2 N 0.2192(15) 0.2373(13) -0.5027(12)
C2 C 0.1898(19) 0.3623(17) -0.5541(13)
H2 H 0.11370 0.39380 -0.58620
O25 O 0.9554(7) -0.0054(8) -0.1409(7)
C3 C 0.3276(16) 0.1949(13) -0.4579(14)
H3 H 0.35060 0.10760 -0.41970
N3 N 0.5800(11) 0.1231(9) -0.3767(10)
H4 H 0.53660 0.06770 -0.37480
C4 C 0.4079(16) 0.2769(12) -0.4664(11)
N4 N 0.9526(11) 0.1022(12) -0.3317(9)
H5 H 0.96770 0.17050 -0.38940
N5 N 1.0162(8) 0.1787(9) -0.1048(8)
C5 C 0.5334(16) 0.2426(11) -0.4231(10)
C6 C 0.7012(14) 0.0769(13) -0.3274(11)
H6 H 0.69970 0.00220 -0.25480
H7 H 0.73130 0.14190 -0.31290
N6 N 1.0443(11) 0.4162(11) -0.2736(12)
C7 C 0.7826(15) 0.0443(14) -0.4036(12)
H8 H 0.78090 0.11750 -0.47770
H9 H 0.75560 -0.02450 -0.41430
C8 C 0.9094(16) 0.0043(16) -0.3536(13)
H10 H 0.91230 -0.07340 -0.28290
H11 H 0.96060 -0.01310 -0.40660
C9 C 0.9699(11) 0.0931(12) -0.2296(10)
C10 C 1.0038(10) 0.2033(11) -0.2148(10)
C11 C 1.0186(12) 0.3215(12) -0.2989(12)
H12 H 1.01090 0.33760 -0.37500
C12 C 1.0568(11) 0.3891(12) -0.1661(14)
H13 H 1.07610 0.45140 -0.14660
C13 C 1.0422(10) 0.2702(12) -0.0802(12)
H14 H 1.05060 0.25440 -0.00420
O26 O 0.912(2) 0.316(3) -0.5520(19)
O17A O 0.5216(10) 0.5771(11) 0.0765(10)
O19A O 0.5505(10) 0.6326(11) -0.0877(10)
O20A O 0.4317(10) 0.578(1) -0.1094(10)
O22A O 0.3575(11) 0.5497(11) 0.0228(10)
Mo1A Mo 0.48467(8) 0.76714(8) -0.26736(7)
Mo2A Mo 0.63298(8) 0.50869(8) 0.23554(7)
Mo3A Mo 0.22491(9) 0.68395(8) -0.11531(8)
O1A O 0.6865(12) 0.5073(13) 0.3527(9)
Mo4A Mo 0.57938(9) 0.79043(9) -0.02246(11)
O2A O 0.4668(10) 0.5729(10) 0.2445(13)
Mo5A Mo 0.34035(13) 0.65358(10) 0.14577(10)
O3A O 0.2635(7) 0.7335(8) 0.2063(7)
Mo6A Mo 0.23683(11) 0.38899(12) 0.1337(1)
O4A O 0.2634(19) 0.5173(11) 0.1899(8)
O5A O 0.1184(7) 0.3402(9) 0.2073(7)
O6A O 0.3570(8) 0.2866(16) 0.2565(13)
O7A O 0.1738(19) 0.5239(11) 0.0032(8)
O8A O 0.0943(8) 0.7616(9) -0.1673(12)
O9A O 0.2455(7) 0.5799(8) -0.1989(8)
O10A O 0.3239(7) 0.7874(8) -0.2135(8)
O11A O 0.4376(7) 0.6567(8) -0.3123(8)
O12A O 0.4742(13) 0.9020(8) -0.3875(8)
O13A O 0.5176(8) 0.8440(17) -0.1634(13)
O14A O 0.6289(9) 0.9182(7) -0.0272(7)
O15A O 0.2726(8) 0.2785(16) 0.0754(12)
O16A O 0.6566(10) 0.6636(10) 0.1279(12)
O18A O 0.4431(10) 0.785(1) 0.0504(13)
O21A O 0.2496(19) 0.7297(12) -0.0011(9)
N1A N 0.6254(16) 0.5972(10) -0.4836(10)
C1A C 0.735(2) 0.5523(16) -0.4372(14)
H1A H 0.76000 0.46530 -0.40020
O23A O 0.4067(12) 0.6695(8) -0.5675(8)
N2A N 0.7808(15) 0.7627(13) -0.4973(12)
C2A C 0.8102(19) 0.6377(17) -0.4459(13)
H2A H 0.88630 0.60620 -0.41380
O25A O 0.0446(7) 1.0054(8) -0.8591(7)
C3A C 0.6724(16) 0.8051(13) -0.5421(14)
H3A H 0.64940 0.89240 -0.58030
N3A N 0.4200(11) 0.8769(9) -0.6233(10)
H4A H 0.46340 0.93230 -0.62520
C4A C 0.5921(16) 0.7231(12) -0.5336(11)
N4A N 0.0474(11) 0.8978(12) -0.6683(9)
H5A H 0.03230 0.82950 -0.61060
N5A N -0.0162(8) 0.8213(9) -0.8952(8)
C5A C 0.4666(16) 0.7574(11) -0.5769(10)
C6A C 0.2988(14) 0.9231(13) -0.6726(11)
H6A H 0.30030 0.99780 -0.74520
H7A H 0.26870 0.85810 -0.68710
N6A N -0.0443(11) 0.5838(11) -0.7264(12)
C7A C 0.2174(15) 0.9557(14) -0.5964(12)
H8A H 0.21910 0.88250 -0.52230
H9A H 0.24440 1.02450 -0.58570
C8A C 0.0906(16) 0.9957(16) -0.6464(13)
H10A H 0.08770 1.07340 -0.71710
H11A H 0.03940 1.01310 -0.59340
C9A C 0.0301(11) 0.9069(12) -0.7704(10)
C10A C -0.0038(10) 0.7967(11) -0.7852(10)
C11A C -0.0186(12) 0.6785(12) -0.7011(12)
H12A H -0.01090 0.66240 -0.62500
C12A C -0.0568(11) 0.6109(12) -0.8339(14)
H13A H -0.07610 0.54860 -0.85340
C13A C -0.0422(10) 0.7298(12) -0.9198(12)
H14A H -0.05060 0.74560 -0.99580
O24A O 1.2053(10) -0.0208(13) -0.0545(14)
Cu2* Cu 0.00000 1.00000 -1.00000
O25A* O 1.0446(7) 0.0054(8) 0.1409(7)
N5A* N 0.9838(8) -0.1787(9) 0.1048(8)
#END
