
#######################################################################
#
#                 Cambridge Crystallographic Data Centre
#                                CCDC
#
#######################################################################
#
# If this CIF has been generated from an entry in the Cambridge
# Structural Database, then it will include bibliographic, chemical,
# crystal, experimental, refinement or atomic coordinate data resulting
# from the CCDC's data processing and validation procedures.
#
#######################################################################

data_CSD_CIF_YUGVAZ
_audit_creation_date 2015-06-30
_audit_creation_method CSD-ConQuest-V1
_database_code_CSD YUGVAZ
_database_code_depnum_ccdc_archive 'CCDC 1045307'
_chemical_formula_sum 'C32 H44 Cu2 Mo12 N12 O46 Si1'
_chemical_formula_moiety
;
(C32 H40 Cu2 N12 O4 4+)n,n(Mo12 O40 Si1 4-),2n(H2 O1)
;
_journal_coden_Cambridge 1500
_journal_volume 5
_journal_year 2015
_journal_page_first 56687
_journal_name_full 'RSC Advances '
loop_
_publ_author_name
"Xiu-Li Wang"
"Dan-Na Liu"
"Hong-Yan Lin"
"Guo-Cheng Liu"
"Na Han"
"Jian Luan"
"Zhi-Han Chang"
_chemical_name_systematic
;
catena-[bis(\m-N,N'-hexane-1,6-diyldipyrazine-2-carboxamide)-di-copper 
(\m-orthosilicato)-tetracosakis(\m-oxo)-dodecaoxo-dodeca-molybdenum 
dihydrate]
;
_cell_volume   1694.336
_exptl_crystal_colour 'green'
_exptl_crystal_density_diffrn 2.587
_exptl_crystal_description 'block'
_diffrn_ambient_temperature 296
_refine_special_details
;
O3,O4,O5,O6 disordered by symmetry over two configurations with occupancy 
0.50.
;
#These two values have been output from a single CSD field.
_refine_ls_R_factor_gt 0.0641
_refine_ls_wR_factor_gt 0.0641
_symmetry_cell_setting triclinic
_symmetry_space_group_name_H-M 'P -1'
_symmetry_Int_Tables_number 2
loop_
_symmetry_equiv_pos_site_id
_symmetry_equiv_pos_as_xyz
1 x,y,z
2 -x,-y,-z
_cell_length_a 12.3112(7)
_cell_length_b 12.7440(8)
_cell_length_c 13.6911(9)
_cell_angle_alpha 110.973(1)
_cell_angle_beta 95.136(1)
_cell_angle_gamma 117.428(1)
_cell_formula_units_Z 1
loop_
_atom_type_symbol
_atom_type_radius_bond
C 0.68
H 0.23
Cu 1.32
Mo 1.54
N 0.68
O 0.68
Si 1.20
loop_
_atom_site_label
_atom_site_type_symbol
_atom_site_fract_x
_atom_site_fract_y
_atom_site_fract_z
Mo1 Mo -0.24366(9) -0.06625(10) 0.62724(9)
Mo2 Mo 0.05176(10) -0.25406(10) 0.35325(9)
Mo3 Mo -0.28047(9) -0.0134(1) 0.39294(9)
O1 O -0.0675(12) -0.1591(14) 0.4113(13)
Mo4 Mo 0.02161(11) -0.08693(11) 0.71474(9)
O2 O -0.0955(13) -0.0283(13) 0.3924(11)
Mo5 Mo -0.21145(9) -0.32624(10) 0.45662(10)
O3 O -0.1085(12) 0.0293(14) 0.5288(12)
Mo6 Mo -0.20952(10) -0.24802(11) 0.23393(9)
O4 O -0.0797(12) -0.0859(13) 0.5596(11)
O5 O 0.1828(12) -0.1655(9) 0.4832(8)
O6 O 0.1617(13) -0.1142(9) 0.3142(9)
Si1 Si 0.00000 0.00000 0.50000
O7 O -0.0828(12) -0.2850(18) 0.2392(12)
O8 O -0.1645(12) 0.0747(10) 0.3212(12)
O9 O -0.1188(13) -0.1082(10) 0.2048(13)
O10 O -0.3098(13) -0.1709(10) 0.2884(13)
O11 O -0.3276(13) -0.0776(9) 0.4912(9)
O12 O -0.2711(12) -0.3389(19) 0.3230(13)
O13 O -0.0919(11) -0.2537(11) 0.6007(10)
O14 O -0.1246(12) -0.0622(11) 0.7214(10)
O15 O 0.0775(10) -0.3700(9) 0.2752(8)
O16 O -0.3054(9) -0.4809(8) 0.4349(9)
O17 O -0.2913(12) -0.2465(12) 0.5258(10)
O18 O -0.0719(11) -0.3427(18) 0.4076(12)
O19 O -0.3163(9) -0.3631(9) 0.1113(7)
O20 O 0.0318(11) -0.1166(12) 0.8230(8)
O21 O -0.4081(8) -0.0117(9) 0.3424(9)
O22 O -0.3684(8) -0.1057(10) 0.6759(8)
O23 O -0.1481(7) -0.5614(7) -0.4494(6)
N1 N -0.5644(9) -0.1217(10) 0.0686(7)
C1 C -0.5126(12) -0.1956(13) 0.0544(10)
Cu1 Cu -0.50000 0.00000 0.00000
N2 N -0.3250(9) -0.8257(10) -0.8322(8)
C2 C -0.424(2) -0.608(2) -0.3501(17)
H1 H -0.50200 -0.64530 -0.33650
O24 O -0.3969(8) -0.0797(8) -0.0396(7)
N3 N -0.6518(16) -0.3225(17) 0.1295(15)
C3 C -0.5582(15) -0.2985(16) 0.0819(13)
H2 H -0.52390 -0.35190 0.06740
N4 N -0.1245(8) -0.6359(8) -0.6435(7)
C4 C -0.6982(16) -0.2446(18) 0.1490(13)
H3 H -0.76010 -0.25670 0.18530
C5 C -0.6562(13) -0.1448(14) 0.1161(11)
H4 H -0.69290 -0.09360 0.12770
N5 N -0.3427(13) -0.2156(14) -0.013(1)
H5 H -0.35650 -0.27090 0.01340
C6 C -0.1031(11) -0.6688(11) -0.7420(9)
H6 H -0.02050 -0.62640 -0.74710
N6 N -0.3574(8) -0.7148(9) -0.5033(8)
H7 H -0.42620 -0.77420 -0.55780
C7 C -0.2061(11) -0.7665(12) -0.8349(10)
H8 H -0.19080 -0.79150 -0.90240
C8 C -0.3451(11) -0.7954(11) -0.7354(9)
H9 H -0.42800 -0.83950 -0.73140
C9 C -0.2453(9) -0.6997(10) -0.6409(8)
C10 C -0.2513(9) -0.6549(9) -0.5252(8)
C11 C -0.368(3) -0.491(4) -0.333(3)
H10 H -0.31100 -0.46660 -0.37170
C12 C -0.4148(12) -0.1624(14) -0.0018(10)
C13 C -0.258(3) -0.305(3) -0.150(3)
H11 H -0.26410 -0.36500 -0.12020
H12 H -0.18380 -0.28110 -0.17650
C14 C -0.385(3) -0.378(3) -0.251(3)
H13 H -0.46240 -0.41430 -0.23030
H14 H -0.38430 -0.31990 -0.28130
C15 C -0.3677(14) -0.6880(16) -0.3918(12)
H15 H -0.28240 -0.64350 -0.34160
H16 H -0.41930 -0.77220 -0.39060
C16 C -0.2427(16) -0.1880(17) -0.0660(13)
H17 H -0.24230 -0.13110 -0.09780
H18 H -0.15990 -0.14020 -0.01080
Cu2 Cu 0.00000 -0.50000 -0.50000
O25 O -0.063(3) 0.170(3) 0.949(3)
O1A O 0.0675(12) 0.1591(14) 0.5887(13)
O2A O 0.0955(13) 0.0283(13) 0.6076(11)
O3A O 0.1085(12) -0.0293(14) 0.4712(12)
O4A O 0.0797(12) 0.0859(13) 0.4404(11)
Mo1A Mo 0.24366(9) 0.06625(10) 0.37276(9)
Mo2A Mo -0.05176(10) 0.25406(10) 0.64675(9)
Mo3A Mo 0.28047(9) 0.0134(1) 0.60706(9)
Mo4A Mo -0.02161(11) 0.08693(11) 0.28526(9)
Mo5A Mo 0.21145(9) 0.32624(10) 0.54338(10)
Mo6A Mo 0.20952(10) 0.24802(11) 0.76607(9)
O5A O -0.1828(12) 0.1655(9) 0.5168(8)
O6A O -0.1617(13) 0.1142(9) 0.6858(9)
O7A O 0.0828(12) 0.2850(18) 0.7608(12)
O8A O 0.1645(12) -0.0747(10) 0.6788(12)
O9A O 0.1188(13) 0.1082(10) 0.7952(13)
O10A O 0.3098(13) 0.1709(10) 0.7116(13)
O11A O 0.3276(13) 0.0776(9) 0.5088(9)
O12A O 0.2711(12) 0.3389(19) 0.6770(13)
O13A O 0.0919(11) 0.2537(11) 0.3993(10)
O14A O 0.1246(12) 0.0622(11) 0.2786(10)
O15A O -0.0775(10) 0.3700(9) 0.7248(8)
O16A O 0.3054(9) 0.4809(8) 0.5651(9)
O17A O 0.2913(12) 0.2465(12) 0.4742(10)
O18A O 0.0719(11) 0.3427(18) 0.5924(12)
O19A O 0.3163(9) 0.3631(9) 0.8887(7)
O20A O -0.0318(11) 0.1166(12) 0.1770(8)
O21A O 0.4081(8) 0.0117(9) 0.6576(9)
O22A O 0.3684(8) 0.1057(10) 0.3241(8)
O23A O -0.8519(7) -0.4386(7) -0.5506(6)
N1A N -0.4356(9) -0.8783(10) -1.0686(7)
C1A C -0.4874(12) -0.8044(13) -1.0544(10)
N2A N -0.6750(9) -0.1743(10) -0.1678(8)
C2A C -0.576(2) -0.392(2) -0.6499(17)
H1A H -0.49800 -0.35470 -0.66350
O24A O -0.6031(8) -0.9203(8) -0.9604(7)
N3A N -0.3482(16) -0.6775(17) -1.1295(15)
C3A C -0.4418(15) -0.7015(16) -1.0819(13)
H2A H -0.47610 -0.64810 -1.06740
N4A N -0.8755(8) -0.3641(8) -0.3565(7)
C4A C -0.3018(16) -0.7554(18) -1.1490(13)
H3A H -0.23990 -0.74330 -1.18530
C5A C -0.3438(13) -0.8552(14) -1.1161(11)
H4A H -0.30710 -0.90640 -1.12770
N5A N -0.6573(13) -0.7844(14) -0.987(1)
H5A H -0.64350 -0.72910 -1.01340
C6A C -0.8969(11) -0.3312(11) -0.2580(9)
H6A H -0.97950 -0.37360 -0.25290
N6A N -0.6426(8) -0.2852(9) -0.4967(8)
H7A H -0.57380 -0.22580 -0.44220
C7A C -0.7939(11) -0.2335(12) -0.1651(10)
H8A H -0.80920 -0.20850 -0.09760
C8A C -0.6549(11) -0.2046(11) -0.2646(9)
H9A H -0.57200 -0.16050 -0.26860
C9A C -0.7547(9) -0.3003(10) -0.3591(8)
C10A C -0.7487(9) -0.3451(9) -0.4748(8)
C11A C -0.632(3) -0.509(4) -0.667(3)
H10A H -0.68900 -0.53340 -0.62830
C12A C -0.5852(12) -0.8376(14) -0.9982(10)
C13A C -0.742(3) -0.695(3) -0.850(3)
H11A H -0.73590 -0.63500 -0.87980
H12A H -0.81620 -0.71890 -0.82350
C14A C -0.615(3) -0.622(3) -0.749(3)
H13A H -0.53760 -0.58570 -0.76970
H14A H -0.61570 -0.68010 -0.71870
C15A C -0.6323(14) -0.3120(16) -0.6082(12)
H15A H -0.71760 -0.35650 -0.65840
H16A H -0.58070 -0.22780 -0.60940
C16A C -0.7573(16) -0.8120(17) -0.9340(13)
H17A H -0.75770 -0.86890 -0.90220
H18A H -0.84010 -0.85980 -0.98920
O23A* O 0.1481(7) -0.4386(7) -0.5506(6)
N1A* N -0.4356(9) 0.1217(10) -0.0686(7)
Cu1* Cu -0.50000 -1.00000 -1.00000
N2* N -0.3250(9) 0.1743(10) 0.1678(8)
O24A* O -0.6031(8) 0.0797(8) 0.0396(7)
N4A* N 0.1245(8) -0.3641(8) -0.3565(7)
Cu2* Cu -1.00000 -0.50000 -0.50000
#END
