
#######################################################################
#
#                 Cambridge Crystallographic Data Centre
#                                CCDC
#
#######################################################################
#
# If this CIF has been generated from an entry in the Cambridge
# Structural Database, then it will include bibliographic, chemical,
# crystal, experimental, refinement or atomic coordinate data resulting
# from the CCDC's data processing and validation procedures.
#
#######################################################################

data_CSD_CIF_YUJDEP
_audit_creation_date 2020-04-14
_audit_creation_method CSD-ConQuest-V1
_database_code_CSD YUJDEP
_database_code_depnum_ccdc_archive 'CCDC 1934832'
_chemical_formula_sum 'C90 H102 N14 O44 Tb2'
_chemical_formula_moiety
;
(C40 H32 O36 Tb2 4-)n,n(C38 H34 N10 4+),4n(C3 H7 N1 O1),4n(H2 O1)
;
_journal_coden_Cambridge 4
_journal_volume 142
_journal_year 2020
_journal_page_first 7443
_journal_name_full 'J.Am.Chem.Soc. '
loop_
_publ_author_name
"Xu-Lang Chen"
"Yun-Jia Shen"
"Chao Gao"
"Jian Yang"
"Xin Sun"
"Xin Zhang"
"Yu-Dong Yang"
"Gong-Ping Wei"
"Jun-Feng Xiang"
"J.L.Sessler"
"Han-Yuan Gong"
_chemical_name_systematic
;
catena-(3,6,12,15,22,25,31,34,42,47-deca-azanonacyclo[34.2.2.2^17,20^.1^3,6^.1
^7,11^.1^12,15^.1^22,25^.1^26,30^.1^31,34^]octatetraconta-1(38),3(48),4,7(47),
8,10,13,15(46),17,19,22(43),23,26(42),27,29,32,34(41),36,39,44-icosaene-3,15,2
2,34-tetraium 
tris(\m-2,5-dihydroxyterephthalato)-bis(2,5-dihydroxyterephthalato)-hexa-aqua-
di-terbium dimethylformamide solvate tetrahydrate)
;
_cell_volume   2412.990
_exptl_crystal_colour 'yellow'
_exptl_crystal_density_diffrn 1.653
_exptl_crystal_description 'prism'
_diffrn_ambient_temperature 100
#These two values have been output from a single CSD field.
_refine_ls_R_factor_gt 0.0663
_refine_ls_wR_factor_gt 0.0663
_symmetry_cell_setting triclinic
_symmetry_space_group_name_H-M 'P -1'
_symmetry_Int_Tables_number 2
loop_
_symmetry_equiv_pos_site_id
_symmetry_equiv_pos_as_xyz
1 x,y,z
2 -x,-y,-z
_cell_length_a 13.410(3)
_cell_length_b 13.637(3)
_cell_length_c 13.674(3)
_cell_angle_alpha 81.29(3)
_cell_angle_beta 89.58(3)
_cell_angle_gamma 77.57(3)
_cell_formula_units_Z 1
loop_
_atom_type_symbol
_atom_type_radius_bond
C 0.68
H 0.23
N 0.68
O 0.68
Tb 1.94
loop_
_atom_site_label
_atom_site_type_symbol
_atom_site_fract_x
_atom_site_fract_y
_atom_site_fract_z
Tb1 Tb 0.23858(3) 0.25432(3) 0.24311(3)
O1 O 0.3467(4) 0.0660(4) 0.2169(4)
O2 O 0.1211(4) 0.3606(6) 0.1241(5)
O3 O 0.3115(4) 0.1961(5) 0.0982(4)
O4 O 0.4058(4) 0.2294(4) 0.3101(4)
O5 O 0.1134(4) 0.1548(4) 0.2149(4)
O6 O 0.3169(4) 0.3854(4) 0.1544(4)
O7 O 0.2126(4) 0.3874(4) 0.3490(4)
O8 O 0.0846(4) 0.3124(4) 0.3333(4)
O9 O 0.2439(4) 0.1410(4) 0.3954(4)
C1 C 0.3590(6) 0.1054(7) 0.1312(6)
C2 C 0.3175(6) 0.4308(6) 0.0662(6)
C3 C 0.1233(5) 0.3780(6) 0.3692(6)
C4 C 0.3094(6) 0.0865(6) 0.4625(6)
C5 C 0.4311(6) 0.0514(6) 0.0623(6)
O10 O 0.2423(4) 0.4463(5) 0.0045(4)
C6 C 0.4116(6) 0.4666(6) 0.0325(5)
C7 C 0.0586(5) 0.4422(6) 0.4357(6)
O11 O 0.3971(4) 0.1008(5) 0.4742(4)
C8 C 0.2763(6) 0.0009(6) 0.5264(6)
C9 C 0.4536(7) 0.1018(6) -0.0271(7)
C10 C 0.4775(6) -0.0517(7) 0.0904(6)
C11 C 0.4165(6) 0.5149(6) -0.0639(6)
C12 C 0.4971(6) 0.4526(6) 0.0968(5)
C13 C 0.0943(6) 0.5182(6) 0.4712(6)
C14 C -0.0371(6) 0.4234(6) 0.4648(6)
C15 C 0.1742(6) -0.0096(6) 0.5270(6)
C16 C 0.3464(6) -0.0675(7) 0.5913(6)
O12 O 0.4138(6) 0.2016(5) -0.0586(5)
H1 H 0.46259 -0.08657 0.15062
H2 H 0.36049 0.52545 -0.10687
O13 O 0.4962(4) 0.4077(5) 0.1937(4)
H3 H 0.15761 0.53055 0.45178
O14 O -0.0765(4) 0.3490(4) 0.4314(4)
O15 O 0.1018(4) 0.0522(4) 0.4619(4)
C17 C 0.1452(6) -0.0858(6) 0.5937(6)
C18 C 0.3166(6) -0.1452(6) 0.6578(6)
H4 H 0.41434 -0.06215 0.59105
H5 H 0.37296 0.22413 -0.01826
H6 H 0.44177 0.39046 0.20438
H7 H -0.03641 0.32064 0.39360
H8 H 0.12792 0.09350 0.42658
H9 H 0.07752 -0.09205 0.59365
C19 C 0.2149(6) -0.1526(6) 0.6599(6)
O16 O 0.3903(4) -0.2105(5) 0.7185(4)
C20 C 0.1815(6) -0.2348(6) 0.7320(6)
H10 H 0.36483 -0.25326 0.75240
O17 O 0.0886(4) -0.2329(4) 0.7404(4)
O18 O 0.2512(4) -0.2992(4) 0.7816(4)
O19 O 0.0806(5) -0.3896(6) 0.8970(5)
O20 O 0.5238(5) -0.0819(6) 0.3282(5)
O21 O 0.1195(5) 0.0578(6) 0.0524(6)
N1 N 0.1888(6) 0.0230(6) -0.0942(6)
C21 C 0.1741(7) 0.0748(8) -0.0186(8)
H11 H 0.20742 0.12803 -0.01917
C22 C 0.2575(8) 0.0449(9) -0.1739(8)
H12 H 0.25766 -0.00045 -0.22120
H13 H 0.23460 0.11382 -0.20594
H14 H 0.32534 0.03591 -0.14702
C23 C 0.1376(9) -0.0592(9) -0.1006(9)
H15 H 0.15726 -0.08760 -0.15973
H16 H 0.15654 -0.11081 -0.04391
H17 H 0.06499 -0.03361 -0.10234
O22 O 0.3339(6) 0.6269(6) 0.2893(6)
N2 N 0.2734(7) 0.6816(7) 0.1308(7)
C24 C 0.2745(8) 0.6265(8) 0.2215(8)
H18 H 0.22728 0.58546 0.23345
C25 C 0.1999(8) 0.6780(9) 0.0545(8)
H19 H 0.21043 0.72181 -0.00479
H20 H 0.20890 0.60958 0.04098
H21 H 0.13189 0.70013 0.07677
C26 C 0.3475(9) 0.7436(10) 0.1002(10)
H22 H 0.33247 0.77620 0.03308
H23 H 0.34387 0.79428 0.14258
H24 H 0.41496 0.70119 0.10481
N3 N 0.2576(6) 0.4298(6) 0.7409(5)
N4 N 0.3680(6) 0.5000(6) 0.6593(5)
N5 N 0.3389(5) 0.6399(6) 0.5377(5)
N6 N 0.2947(5) 0.7820(5) 0.4152(5)
N7 N 0.1454(5) 0.8566(5) 0.3525(5)
C27 C 0.2675(8) 0.5112(7) 0.6786(7)
H25 H 0.21533 0.56573 0.65309
C28 C 0.3518(8) 0.3662(8) 0.7629(8)
H26 H 0.36471 0.30438 0.80502
C29 C 0.4216(8) 0.4092(7) 0.7127(7)
H27 H 0.49173 0.38353 0.71355
C30 C 0.4092(7) 0.5730(7) 0.5944(6)
C31 C 0.5131(6) 0.5692(7) 0.5931(7)
H28 H 0.55927 0.51974 0.63420
C32 C 0.5444(7) 0.6434(7) 0.5271(6)
H29 H 0.61345 0.64408 0.52295
C33 C 0.4739(6) 0.7167(7) 0.4669(6)
H30 H 0.49326 0.76831 0.42351
C34 C 0.3735(6) 0.7086(6) 0.4755(6)
C35 C 0.1950(6) 0.7807(6) 0.4200(6)
H31 H 0.16574 0.73538 0.46249
C36 C 0.3082(7) 0.8591(7) 0.3421(6)
H32 H 0.36992 0.87578 0.32303
C37 C 0.2152(6) 0.9056(7) 0.3036(7)
H33 H 0.20058 0.96092 0.25304
C38 C 0.0333(6) 0.8884(6) 0.3428(8)
H34 H 0.01554 0.94983 0.29478
H35 H 0.00634 0.90429 0.40592
C39 C -0.0169(7) 0.8081(7) 0.3109(7)
C40 C 0.0035(7) 0.7781(8) 0.2179(7)
H36 H 0.04903 0.80548 0.17613
C41 C -0.0453(8) 0.7072(8) 0.1895(7)
H37 H -0.03052 0.68580 0.12852
C42 C -0.1152(8) 0.6668(8) 0.2482(7)
C43 C -0.1375(7) 0.6997(8) 0.3389(7)
H38 H -0.18525 0.67448 0.37924
C44 C -0.0884(7) 0.7703(7) 0.3693(7)
H39 H -0.10404 0.79234 0.42982
C45 C 0.1602(8) 0.4169(8) 0.7850(7)
H40 H 0.11069 0.48071 0.76940
H41 H 0.16994 0.40260 0.85635
C10A C 0.5225(6) 0.0517(7) -0.0904(6)
C9A C 0.5464(7) -0.1018(6) 0.0271(7)
C12A C 0.5029(6) 0.5474(6) -0.0968(5)
C11A C 0.5835(6) 0.4851(6) 0.0639(6)
C14A C 0.0371(6) 0.5766(6) 0.5352(6)
C13A C -0.0943(6) 0.4818(6) 0.5288(6)
C5A C 0.5689(6) -0.0514(6) -0.0623(6)
H1A H 0.53741 0.08657 -0.15062
O12A O 0.5862(6) -0.2016(5) 0.0586(5)
O13A O 0.5038(4) 0.5923(5) -0.1937(4)
C6A C 0.5884(6) 0.5334(6) -0.0325(5)
H2A H 0.63951 0.47455 0.10687
O14A O 0.0765(4) 0.6510(4) 0.5686(4)
C7A C -0.0586(5) 0.5578(6) 0.5643(6)
H3A H -0.15761 0.46945 0.54822
C1A C 0.6410(6) -0.1054(7) -0.1312(6)
H5A H 0.62704 -0.22413 0.01826
H6A H 0.55823 0.60954 -0.20438
C2A C 0.6825(6) 0.5692(6) -0.0662(6)
H7A H 0.03641 0.67936 0.60640
C3A C -0.1233(5) 0.6220(6) 0.6308(6)
O1A O 0.6533(4) -0.0660(4) -0.2169(4)
O3A O 0.6885(4) -0.1961(5) -0.0982(4)
O10A O 0.7577(4) 0.5537(5) -0.0045(4)
O6A O 0.6831(4) 0.6146(4) -0.1544(4)
O7A O -0.2126(4) 0.6126(4) 0.6510(4)
O8A O -0.0846(4) 0.6876(4) 0.6667(4)
Tb1A Tb 0.76142(3) -0.25432(3) -0.24311(3)
Tb1A* Tb 0.76142(3) 0.74568(3) -0.24311(3)
Tb1A** Tb -0.23858(3) 0.74568(3) 0.75689(3)
O2A O -0.1211(4) 0.6394(6) 0.8759(5)
O4A O -0.4058(4) 0.7706(4) 0.6899(4)
O5A O -0.1134(4) 0.8452(4) 0.7851(4)
O9A O -0.2439(4) 0.8590(4) 0.6046(4)
O1A* O -0.3467(4) 0.9340(4) 0.7831(4)
O3A* O -0.3115(4) 0.8039(5) 0.9018(4)
O6A* O -0.3169(4) 0.6146(4) 0.8456(4)
C4A C -0.3094(6) 0.9135(6) 0.5375(6)
O11A O -0.3971(4) 0.8992(5) 0.5258(4)
C8A C -0.2763(6) 0.9991(6) 0.4736(6)
C15A C -0.1742(6) 1.0096(6) 0.4730(6)
C16A C -0.3464(6) 1.0675(7) 0.4087(6)
O15A O -0.1018(4) 0.9478(4) 0.5381(4)
C17A C -0.1452(6) 1.0858(6) 0.4063(6)
C18A C -0.3166(6) 1.1452(6) 0.3422(6)
H4A H -0.41434 1.06215 0.40895
H8A H -0.12792 0.90650 0.57342
H9A H -0.07752 1.09204 0.40635
C19A C -0.2149(6) 1.1526(6) 0.3401(6)
O16A O -0.3903(4) 1.2105(5) 0.2815(4)
C20A C -0.1815(6) 1.2348(6) 0.2680(6)
H10A H -0.36483 1.25326 0.24760
O17A O -0.0886(4) 1.2329(4) 0.2596(4)
O18A O -0.2512(4) 1.2992(4) 0.2184(4)
N3A N -0.2576(6) 0.5702(6) 0.2591(5)
N4A N -0.3680(6) 0.5000(6) 0.3407(5)
N5A N -0.3389(5) 0.3601(6) 0.4623(5)
N6A N -0.2947(5) 0.2180(5) 0.5848(5)
N7A N -0.1454(5) 0.1434(5) 0.6475(5)
C27A C -0.2675(8) 0.4888(7) 0.3214(7)
H25A H -0.21533 0.43427 0.34691
C28A C -0.3518(8) 0.6338(8) 0.2371(8)
H26A H -0.36471 0.69562 0.19498
C29A C -0.4216(8) 0.5908(7) 0.2873(7)
H27A H -0.49173 0.61647 0.28645
C30A C -0.4092(7) 0.4270(7) 0.4056(6)
C31A C -0.5131(6) 0.4308(7) 0.4069(7)
H28A H -0.55927 0.48026 0.36580
C32A C -0.5444(7) 0.3566(7) 0.4729(6)
H29A H -0.61345 0.35592 0.47705
C33A C -0.4739(6) 0.2833(7) 0.5331(6)
H30A H -0.49326 0.23169 0.57649
C34A C -0.3735(6) 0.2914(6) 0.5245(6)
C35A C -0.1950(6) 0.2193(6) 0.5800(6)
H31A H -0.16574 0.26462 0.53751
C36A C -0.3082(7) 0.1409(7) 0.6579(6)
H32A H -0.36992 0.12422 0.67697
C37A C -0.2152(6) 0.0944(7) 0.6964(7)
H33A H -0.20058 0.03908 0.74696
C38A C -0.0333(6) 0.1116(6) 0.6572(8)
H34A H -0.01554 0.05017 0.70522
H35A H -0.00634 0.09571 0.59408
C39A C 0.0169(7) 0.1919(7) 0.6891(7)
C40A C -0.0035(7) 0.2219(8) 0.7821(7)
H36A H -0.04903 0.19452 0.82387
C41A C 0.0453(8) 0.2928(8) 0.8105(7)
H37A H 0.03052 0.31420 0.87148
C42A C 0.1152(8) 0.3332(8) 0.7518(7)
C43A C 0.1375(7) 0.3003(8) 0.6611(7)
H38A H 0.18525 0.32552 0.62075
C44A C 0.0884(7) 0.2297(7) 0.6307(7)
H39A H 0.10404 0.20766 0.57018
C45A C -0.1602(8) 0.5831(8) 0.2150(7)
H40A H -0.11069 0.51929 0.23060
H41A H -0.16994 0.59740 0.14365
#END
