
#######################################################################
#
#                 Cambridge Crystallographic Data Centre
#                                CCDC
#
#######################################################################
#
# If this CIF has been generated from an entry in the Cambridge
# Structural Database, then it will include bibliographic, chemical,
# crystal, experimental, refinement or atomic coordinate data resulting
# from the CCDC's data processing and validation procedures.
#
#######################################################################

data_CSD_CIF_YUJDAL
_audit_creation_date 2020-04-14
_audit_creation_method CSD-ConQuest-V1
_database_code_CSD YUJDAL
_database_code_depnum_ccdc_archive 'CCDC 1934831'
_chemical_formula_sum 'C90 H102 N14 Nd2 O44'
_chemical_formula_moiety
;
(C40 H32 Nd2 O36 4-)n,n(C38 H34 N10 4+),4n(C3 H7 N1 O1),4n(H2 O1)
;
_journal_coden_Cambridge 4
_journal_volume 142
_journal_year 2020
_journal_page_first 7443
_journal_name_full 'J.Am.Chem.Soc. '
loop_
_publ_author_name
"Xu-Lang Chen"
"Yun-Jia Shen"
"Chao Gao"
"Jian Yang"
"Xin Sun"
"Xin Zhang"
"Yu-Dong Yang"
"Gong-Ping Wei"
"Jun-Feng Xiang"
"J.L.Sessler"
"Han-Yuan Gong"
_chemical_name_systematic
;
catena-(3,6,12,15,22,25,31,34,42,47-deca-azanonacyclo[34.2.2.2^17,20^.1^3,6^.1
^7,11^.1^12,15^.1^22,25^.1^26,30^.1^31,34^]octatetraconta-1(38),3(48),4,7(47),
8,10,13,15(46),17,19,22(43),23,26(42),27,29,32,34(41),36,39,44-icosaene-3,15,2
2,34-tetraium 
tris(\m-2,5-dihydroxyterephthalato)-bis(2,5-dihydroxyterephthalato)-hexa-aqua-
di-neodymium dimethylformamide solvate tetrahydrate)
;
_cell_volume   2449.485
_exptl_crystal_colour 'colorless'
_exptl_crystal_density_diffrn 1.608
_exptl_crystal_description 'prism'
_diffrn_ambient_temperature 100
#These two values have been output from a single CSD field.
_refine_ls_R_factor_gt 0.0952
_refine_ls_wR_factor_gt 0.0952
_symmetry_cell_setting triclinic
_symmetry_space_group_name_H-M 'P -1'
_symmetry_Int_Tables_number 2
loop_
_symmetry_equiv_pos_site_id
_symmetry_equiv_pos_as_xyz
1 x,y,z
2 -x,-y,-z
_cell_length_a 13.505(3)
_cell_length_b 13.637(3)
_cell_length_c 13.752(3)
_cell_angle_alpha 98.74(3)
_cell_angle_beta 101.75(3)
_cell_angle_gamma 90.05(3)
_cell_formula_units_Z 1
loop_
_atom_type_symbol
_atom_type_radius_bond
C 0.68
H 0.23
N 0.68
Nd 2.01
O 0.68
loop_
_atom_site_label
_atom_site_type_symbol
_atom_site_fract_x
_atom_site_fract_y
_atom_site_fract_z
Nd1 Nd 0.26264(5) 0.75971(6) 0.25332(6)
O1 O 0.1632(7) 0.7924(7) 0.0728(7)
O2 O 0.3939(6) 0.7838(6) 0.1512(6)
O3 O 0.1809(7) 0.9116(7) 0.2017(7)
O4 O 0.3821(8) 0.8901(9) 0.3531(10)
O5 O 0.0915(5) 0.6871(7) 0.2281(6)
O6 O 0.2566(6) 0.6007(6) 0.1390(6)
O7 O 0.1875(6) 0.8463(7) 0.3922(6)
O8 O 0.2888(6) 0.6462(6) 0.3881(6)
O9 O 0.4166(6) 0.6687(7) 0.3160(6)
C1 C 0.141(1) 0.8740(11) 0.1103(10)
C2 C 0.1906(10) 0.535(1) 0.0835(10)
C3 C 0.1873(10) 0.9366(10) 0.4372(10)
C4 C 0.3770(9) 0.632(1) 0.3807(10)
C5 C 0.0680(9) 0.9412(10) 0.0532(10)
O10 O 0.1040(6) 0.5225(6) 0.1001(7)
C6 C 0.2254(8) 0.4684(9) -0.0014(9)
O11 O 0.2594(7) 0.9970(7) 0.4528(8)
C7 C 0.0900(9) 0.9687(10) 0.4707(9)
C8 C 0.4417(9) 0.5629(10) 0.4408(8)
C9 C 0.0324(10) 0.9094(10) -0.0483(9)
C10 C 0.0375(11) 1.0277(10) 0.102(1)
C11 C 0.3245(9) 0.4681(9) -0.0136(10)
C12 C 0.1542(9) 0.4064(9) -0.0702(10)
C13 C 0.0836(10) 1.0631(10) 0.5167(10)
C14 C 0.0039(9) 0.9014(10) 0.4523(9)
C15 C 0.4080(9) 0.5272(9) 0.5174(9)
C16 C 0.5382(9) 0.5378(10) 0.424(1)
H1 H 0.05255 0.85017 -0.08051
O12 O 0.0694(10) 1.0633(8) 0.2033(7)
O13 O 0.3977(6) 0.5348(7) 0.0491(7)
C17 C 0.3529(9) 0.4037(9) -0.0874(9)
C18 C 0.1815(9) 0.3391(10) -0.1469(10)
H2 H 0.08657 0.40955 -0.06516
H3 H 0.13980 1.10604 0.52814
O14 O 0.0052(6) 0.8061(6) 0.4095(7)
H4 H 0.34586 0.54776 0.53080
O15 O 0.5790(6) 0.5700(6) 0.3514(7)
H5 H 0.11127 1.02617 0.22882
H6 H 0.37180 0.56982 0.09038
H7 H 0.42032 0.40390 -0.09308
C19 C 0.2836(9) 0.3367(9) -0.1554(10)
O16 O 0.1102(6) 0.2798(7) -0.2123(7)
H8 H 0.06006 0.79522 0.39388
H9 H 0.54013 0.60771 0.32274
C20 C 0.3162(10) 0.2673(11) -0.2345(10)
H10 H 0.13626 0.24682 -0.25481
O17 O 0.4107(6) 0.2563(6) -0.2370(6)
O18 O 0.2464(6) 0.2156(7) -0.3031(7)
N1 N 0.3569(8) 0.6477(8) 0.8569(8)
N2 N 0.2071(7) 0.5872(8) 0.7811(8)
N3 N 0.1622(8) 0.4649(8) 0.6429(9)
N4 N 0.1308(9) 0.3445(8) 0.5019(8)
N5 N 0.2404(10) 0.2600(9) 0.4287(11)
C21 C 0.3045(9) 0.5791(11) 0.7812(10)
H11 H 0.33256 0.53425 0.73719
C22 C 0.2868(10) 0.6945(11) 0.9059(11)
H12 H 0.30103 0.74416 0.96166
C23 C 0.1953(11) 0.657(1) 0.8603(10)
H13 H 0.13445 0.67490 0.87874
C24 C 0.1294(10) 0.5258(10) 0.7109(10)
C25 C 0.0285(10) 0.5365(12) 0.7198(11)
H14 H 0.00898 0.58113 0.77003
C26 C -0.0415(10) 0.4735(11) 0.6457(12)
H15 H -0.10981 0.47483 0.64793
C27 C -0.0108(11) 0.4119(12) 0.5721(12)
H16 H -0.05679 0.37316 0.52117
C28 C 0.0912(11) 0.4088(10) 0.5758(10)
C29 C 0.2276(12) 0.3226(12) 0.5103(13)
H17 H 0.27901 0.34690 0.56470
C30 C 0.0770(12) 0.2876(11) 0.4109(10)
H18 H 0.00732 0.28371 0.38738
C31 C 0.1460(13) 0.2415(11) 0.3666(12)
H19 H 0.13288 0.20256 0.30343
C32 C 0.3350(13) 0.2142(14) 0.4158(14)
H20 H 0.32355 0.14272 0.40066
H21 H 0.38390 0.22871 0.47876
C33 C 0.3809(12) 0.2492(12) 0.3309(12)
C34 C 0.3610(11) 0.3394(10) 0.2990(11)
H22 H 0.31346 0.37964 0.32399
C35 C 0.4113(11) 0.3712(11) 0.2298(11)
H23 H 0.39862 0.43287 0.20977
C36 C 0.4814(10) 0.3087(12) 0.1905(10)
C37 C 0.4999(12) 0.2194(12) 0.2206(12)
H24 H 0.54519 0.17737 0.19396
C38 C 0.4509(12) 0.1913(12) 0.2915(12)
H25 H 0.46580 0.13071 0.31334
C39 C 0.4676(9) 0.6597(11) 0.8890(11)
H26 H 0.49487 0.59724 0.90605
H27 H 0.48373 0.70887 0.94926
C40 C 0.3308(13) 0.0176(14) 0.0743(13)
H28 H 0.29873 0.01658 0.12798
C41 C 0.3616(13) 0.1048(13) -0.0578(12)
H29 H 0.33800 0.16339 -0.08502
H30 H 0.43345 0.11131 -0.03303
H31 H 0.34622 0.04797 -0.10952
C42 C 0.2406(13) 0.1722(15) 0.0484(14)
H32 H 0.23776 0.21936 0.00281
H33 H 0.17431 0.14324 0.04194
H34 H 0.26411 0.20519 0.11612
O19 O 0.3876(8) -0.0525(8) 0.0573(9)
N6 N 0.3117(9) 0.0924(9) 0.0242(9)
C43 C 0.7734(14) 0.2293(15) 0.3804(13)
H35 H 0.72920 0.24047 0.42444
C44 C 0.6941(13) 0.0572(13) 0.3220(14)
H36 H 0.70254 -0.00119 0.27609
H37 H 0.70378 0.04126 0.38888
H38 H 0.62721 0.08103 0.30295
C45 C 0.8447(14) 0.1001(17) 0.2608(14)
H39 H 0.82600 0.03428 0.22563
H40 H 0.84849 0.14401 0.21328
H41 H 0.90945 0.09940 0.30525
O20 O 0.8309(10) 0.2949(10) 0.3781(9)
N7 N 0.7691(11) 0.1344(10) 0.3191(11)
O21 O 0.0180(8) 0.3268(8) 0.0756(8)
O22 O 0.4200(7) 0.1062(8) 0.6052(9)
C10A C -0.0375(11) 0.9723(10) -0.102(1)
C9A C -0.0324(10) 1.0906(10) 0.0483(9)
C14A C -0.0039(9) 1.0986(10) 0.5477(9)
C13A C -0.0836(10) 0.9369(10) 0.4833(10)
C16A C 0.4618(9) 0.4622(10) 0.576(1)
C15A C 0.5920(9) 0.4728(9) 0.4826(9)
O12A O -0.0694(10) 0.9367(8) -0.2033(7)
C5A C -0.0680(9) 1.0588(10) -0.0532(10)
H1A H -0.05255 1.14983 0.08051
O14A O -0.0052(6) 1.1939(6) 0.5905(7)
C7A C -0.0900(9) 1.0313(10) 0.5293(9)
H3A H -0.13980 0.89396 0.47186
O15A O 0.4210(6) 0.4300(6) 0.6486(7)
C8A C 0.5583(9) 0.4371(10) 0.5592(8)
H4A H 0.65414 0.45224 0.46920
H5A H -0.11127 0.97383 -0.22882
C1A C -0.141(1) 1.1260(11) -0.1103(10)
H8A H -0.06006 1.20478 0.60612
C3A C -0.1873(10) 1.0634(10) 0.5628(10)
H9A H 0.45987 0.39229 0.67726
C4A C 0.6230(9) 0.368(1) 0.6193(10)
O1A O -0.1632(7) 1.2076(7) -0.0728(7)
O3A O -0.1809(7) 1.0884(7) -0.2017(7)
O11A O -0.2594(7) 1.0030(7) 0.5472(8)
O7A O -0.1875(6) 1.1537(7) 0.6078(6)
O8A O 0.7112(6) 0.3538(6) 0.6119(6)
O9A O 0.5834(6) 0.3313(7) 0.6840(6)
Nd1A Nd -0.26264(5) 1.24029(6) -0.25332(6)
Nd1A* Nd -0.26264(5) 1.24029(6) 0.74668(6)
Nd1A** Nd 0.73736(5) 0.24029(6) 0.74668(6)
O2A O -0.3939(6) 1.2162(6) -0.1512(6)
O4A O -0.3821(8) 1.1099(9) -0.3531(10)
O5A O -0.0915(5) 1.3129(7) -0.2281(6)
O6A O -0.2566(6) 1.3993(6) -0.1390(6)
O7A* O -0.1875(6) 1.1537(7) -0.3922(6)
O8A* O -0.2888(6) 1.3538(6) -0.3881(6)
O9A* O -0.4166(6) 1.3313(7) -0.3160(6)
C2A C -0.1906(10) 1.465(1) -0.0835(10)
O10A O -0.1040(6) 1.4775(6) -0.1001(7)
C6A C -0.2254(8) 1.5316(9) 0.0014(9)
C11A C -0.3245(9) 1.5319(9) 0.0136(10)
C12A C -0.1542(9) 1.5936(9) 0.0702(10)
O13A O -0.3977(6) 1.4652(7) -0.0491(7)
C17A C -0.3529(9) 1.5963(9) 0.0874(9)
C18A C -0.1815(9) 1.6609(10) 0.1469(10)
H2A H -0.08657 1.59045 0.06516
H6A H -0.37180 1.43018 -0.09038
H7A H -0.42032 1.59610 0.09308
C19A C -0.2836(9) 1.6633(9) 0.1554(10)
O16A O -0.1102(6) 1.7202(7) 0.2123(7)
C20A C -0.3162(10) 1.7327(11) 0.2345(10)
H10A H -0.13626 1.75317 0.25481
O17A O -0.4107(6) 1.7437(6) 0.2370(6)
O18A O -0.2464(6) 1.7844(7) 0.3031(7)
N1A N 0.6431(8) 0.3523(8) 0.1431(8)
N2A N 0.7929(7) 0.4128(8) 0.2189(8)
N3A N 0.8378(8) 0.5351(8) 0.3571(9)
N4A N 0.8692(9) 0.6555(8) 0.4981(8)
N5A N 0.7596(10) 0.7400(9) 0.5713(11)
C21A C 0.6955(9) 0.4209(11) 0.2188(10)
H11A H 0.66744 0.46575 0.26281
C22A C 0.7132(10) 0.3055(11) 0.0941(11)
H12A H 0.69897 0.25584 0.03834
C23A C 0.8047(11) 0.343(1) 0.1397(10)
H13A H 0.86555 0.32510 0.12126
C24A C 0.8706(10) 0.4742(10) 0.2891(10)
C25A C 0.9715(10) 0.4635(12) 0.2802(11)
H14A H 0.99102 0.41887 0.22997
C26A C 1.0415(10) 0.5265(11) 0.3543(12)
H15A H 1.10981 0.52517 0.35207
C27A C 1.0108(11) 0.5881(12) 0.4279(12)
H16A H 1.05679 0.62684 0.47883
C28A C 0.9088(11) 0.5912(10) 0.4242(10)
C29A C 0.7724(12) 0.6774(12) 0.4897(13)
H17A H 0.72099 0.65309 0.43530
C30A C 0.9230(12) 0.7124(11) 0.5891(10)
H18A H 0.99268 0.71629 0.61262
C31A C 0.8540(13) 0.7585(11) 0.6334(12)
H19A H 0.86712 0.79744 0.69657
C32A C 0.6650(13) 0.7858(14) 0.5842(14)
H20A H 0.67644 0.85728 0.59934
H21A H 0.61610 0.77129 0.52124
C33A C 0.6191(12) 0.7508(12) 0.6691(12)
C34A C 0.6390(11) 0.6606(10) 0.7010(11)
H22A H 0.68654 0.62036 0.67601
C35A C 0.5887(11) 0.6288(11) 0.7702(11)
H23A H 0.60138 0.56713 0.79023
C36A C 0.5186(10) 0.6913(12) 0.8095(10)
C37A C 0.5001(12) 0.7806(12) 0.7794(12)
H24A H 0.45481 0.82263 0.80604
C38A C 0.5491(12) 0.8087(12) 0.7085(12)
H25A H 0.53420 0.86929 0.68666
C39A C 0.5324(9) 0.3403(11) 0.1110(11)
H26A H 0.50513 0.40276 0.09395
H27A H 0.51626 0.29113 0.05074
#END
