
#######################################################################
#
#                 Cambridge Crystallographic Data Centre
#                                CCDC
#
#######################################################################
#
# If this CIF has been generated from an entry in the Cambridge
# Structural Database, then it will include bibliographic, chemical,
# crystal, experimental, refinement or atomic coordinate data resulting
# from the CCDC's data processing and validation procedures.
#
#######################################################################

data_CSD_CIF_YUJDIT
_audit_creation_date 2020-04-14
_audit_creation_method CSD-ConQuest-V1
_database_code_CSD YUJDIT
_database_code_depnum_ccdc_archive 'CCDC 1934833'
_chemical_formula_sum 'C90 H96 Gd2 N14 O41'
_chemical_formula_moiety
;
(C40 H32 Gd2 O36 4-)n,n(C38 H34 N10 4+),4n(C3 H7 N1 O1),n(H2 O1)
;
_journal_coden_Cambridge 4
_journal_volume 142
_journal_year 2020
_journal_page_first 7443
_journal_name_full 'J.Am.Chem.Soc. '
loop_
_publ_author_name
"Xu-Lang Chen"
"Yun-Jia Shen"
"Chao Gao"
"Jian Yang"
"Xin Sun"
"Xin Zhang"
"Yu-Dong Yang"
"Gong-Ping Wei"
"Jun-Feng Xiang"
"J.L.Sessler"
"Han-Yuan Gong"
_chemical_name_systematic
;
catena-(3,6,12,15,22,25,31,34,42,47-deca-azanonacyclo[34.2.2.2^17,20^.1^3,6^.1
^7,11^.1^12,15^.1^22,25^.1^26,30^.1^31,34^]octatetraconta-1(38),3(48),4,7(47),
8,10,13,15(46),17,19,22(43),23,26(42),27,29,32,34(41),36,39,44-icosaene-3,15,2
2,34-tetraium 
tris(\m-2,5-dihydroxyterephthalato)-bis(2,5-dihydroxyterephthalato)-hexa-aqua-
di-gadolinium dimethylformamide solvate monohydrate)
;
_cell_volume   2431.333
_exptl_crystal_colour 'yellow'
_exptl_crystal_density_diffrn 1.601
_exptl_crystal_description 'plate'
_diffrn_ambient_temperature 100
#These two values have been output from a single CSD field.
_refine_ls_R_factor_gt 0.1025
_refine_ls_wR_factor_gt 0.1025
_symmetry_cell_setting triclinic
_symmetry_space_group_name_H-M 'P -1'
_symmetry_Int_Tables_number 2
loop_
_symmetry_equiv_pos_site_id
_symmetry_equiv_pos_as_xyz
1 x,y,z
2 -x,-y,-z
_cell_length_a 13.288(3)
_cell_length_b 13.453(3)
_cell_length_c 14.007(3)
_cell_angle_alpha 81.17(3)
_cell_angle_beta 79.33(3)
_cell_angle_gamma 88.99(3)
_cell_formula_units_Z 1
loop_
_atom_type_symbol
_atom_type_radius_bond
C 0.68
H 0.23
Gd 1.96
N 0.68
O 0.68
loop_
_atom_site_label
_atom_site_type_symbol
_atom_site_fract_x
_atom_site_fract_y
_atom_site_fract_z
Gd1 Gd 0.25967(6) 0.25301(6) 0.75221(7)
O1 O 0.2804(7) 0.1406(8) 0.6185(8)
O2 O 0.4147(7) 0.1661(8) 0.6849(8)
O3 O 0.0870(7) 0.1888(7) 0.7752(8)
O4 O 0.2550(7) 0.0931(7) 0.8568(8)
O5 O 0.3949(7) 0.2677(8) 0.8500(8)
O6 O 0.3775(9) 0.3841(10) 0.6647(12)
O7 O 0.1641(9) 0.2873(8) 0.9274(9)
O8 O 0.1772(9) 0.4068(8) 0.7991(9)
O9 O 0.1889(9) 0.3403(8) 0.6181(9)
C1 C 0.3734(11) 0.1259(12) 0.6240(13)
C2 C 0.1888(14) 0.0255(11) 0.9084(15)
C3 C 0.1396(11) 0.3721(11) 0.8897(11)
C4 C 0.1829(14) 0.4327(11) 0.5767(13)
C5 C 0.4407(10) 0.0647(10) 0.5603(10)
O10 O 0.1027(9) 0.0143(9) 0.8859(11)
C6 C 0.2231(12) -0.0432(12) 0.9880(14)
C7 C 0.0662(12) 0.4410(12) 0.9496(14)
O11 O 0.2577(10) 0.4946(9) 0.5636(11)
C8 C 0.0880(12) 0.4666(11) 0.5372(12)
C9 C 0.4025(10) 0.0287(10) 0.4838(11)
C10 C 0.5383(10) 0.0332(10) 0.5769(11)
C11 C 0.3235(12) -0.0379(10) 1.0079(12)
C12 C 0.1555(11) -0.1116(12) 1.0517(12)
C13 C 0.0241(13) 0.4078(12) 1.0447(13)
C14 C 0.0423(14) 0.5334(11) 0.9025(13)
C15 C 0.0873(14) 0.5624(12) 0.4859(13)
C16 C -0.0009(15) 0.4012(11) 0.5492(12)
H1 H 0.33689 0.04624 0.47359
O12 O 0.5794(7) 0.0678(8) 0.6485(8)
O13 O 0.3947(7) 0.0310(8) 0.9545(9)
C17 C 0.3512(11) -0.1024(12) 1.0868(12)
C18 C 0.1826(11) -0.1756(11) 1.1308(12)
H2 H 0.08867 -0.11488 1.04101
H3 H 0.04053 0.34443 1.07428
O14 O 0.0809(11) 0.5695(9) 0.8072(10)
H4 H 0.14552 0.60304 0.47468
O15 O 0.0022(9) 0.3050(8) 0.5983(9)
H5 H 0.53865 0.10527 0.67635
H6 H 0.36947 0.06658 0.91232
H7 H 0.41754 -0.09749 1.09817
C19 C 0.2853(12) -0.1737(10) 1.1493(12)
O16 O 0.1128(8) -0.2421(8) 1.1893(10)
H8 H 0.12205 0.52944 0.78410
H9 H 0.05778 0.29580 0.61554
C20 C 0.3165(15) -0.2432(12) 1.2362(13)
H10 H 0.13949 -0.27514 1.23200
O17 O 0.4106(9) -0.2446(9) 1.2417(10)
O18 O 0.2462(8) -0.2916(9) 1.2931(9)
O19 O 0.4216(13) 0.6056(16) 0.3943(15)
O20 O 0.6124(15) 0.5783(14) 0.0438(17)
N1 N 0.6815(16) 0.4244(16) 0.0258(17)
C21 C 0.6589(19) 0.500(2) 0.073(2)
H11 H 0.67887 0.49665 0.13391
C22 C 0.738(2) 0.3344(19) 0.062(2)
H12 H 0.74592 0.28828 0.01553
H13 H 0.80426 0.35467 0.07083
H14 H 0.70029 0.30206 0.12414
C23 C 0.652(3) 0.423(2) -0.066(2)
H15 H 0.67502 0.36201 -0.09010
H16 H 0.57907 0.42696 -0.05828
H17 H 0.68288 0.47973 -0.11186
O21 O 0.1666(12) 0.2027(12) 0.3762(13)
N2 N 0.2179(16) 0.3631(16) 0.3248(18)
C24 C 0.2220(16) 0.2717(18) 0.3811(14)
H18 H 0.26816 0.26202 0.42411
C25 C 0.2908(17) 0.4424(16) 0.3353(15)
H19 H 0.28102 0.50320 0.29243
H20 H 0.27832 0.45494 0.40212
H21 H 0.35979 0.41986 0.31822
C26 C 0.141(2) 0.393(2) 0.265(2)
H22 H 0.15497 0.46084 0.23221
H23 H 0.14378 0.34891 0.21664
H24 H 0.07469 0.38899 0.30578
N3 N 0.6553(11) -0.1444(11) 0.8585(10)
N4 N 0.8019(10) -0.0793(9) 0.7877(10)
N5 N 0.8427(10) 0.0381(10) 0.649(1)
N6 N 0.8702(11) 0.1566(11) 0.5073(13)
N7 N 0.7546(11) 0.2391(10) 0.4370(11)
C27 C 0.7010(13) -0.0804(12) 0.7847(13)
H25 H 0.66951 -0.04200 0.73777
C28 C 0.7256(14) -0.1885(13) 0.9122(15)
H26 H 0.71251 -0.23681 0.96826
C29 C 0.8164(13) -0.1480(13) 0.8677(15)
H27 H 0.87871 -0.16343 0.88726
C30 C 0.8792(12) -0.0222(12) 0.7189(15)
C31 C 0.9815(12) -0.0313(12) 0.7248(14)
H28 H 1.00384 -0.07214 0.77643
C32 C 1.0501(14) 0.0253(13) 0.6476(16)
H29 H 1.12012 0.01989 0.64653
C33 C 1.0164(15) 0.0870(13) 0.5753(14)
H30 H 1.06141 0.12558 0.52509
C34 C 0.9099(14) 0.0905(12) 0.5793(14)
C35 C 0.7669(14) 0.1769(11) 0.5168(14)
H31 H 0.71578 0.15170 0.56929
C36 C 0.9191(15) 0.2088(12) 0.4171(15)
H32 H 0.98893 0.20872 0.39177
C37 C 0.8471(16) 0.2596(15) 0.3731(14)
H33 H 0.85765 0.30015 0.31202
C38 C 0.6561(14) 0.2860(12) 0.4169(15)
H34 H 0.66789 0.35781 0.39742
H35 H 0.60667 0.27663 0.47800
C39 C 0.6084(13) 0.2472(12) 0.3392(13)
C40 C 0.5381(14) 0.3128(14) 0.2988(15)
H36 H 0.52557 0.37548 0.31850
C41 C 0.4869(14) 0.2824(13) 0.2283(15)
H37 H 0.43836 0.32416 0.20324
C42 C 0.5084(12) 0.1909(12) 0.1964(11)
C43 C 0.5842(14) 0.1309(14) 0.2324(15)
H38 H 0.60174 0.07083 0.20873
C44 C 0.6337(14) 0.1598(13) 0.3033(15)
H39 H 0.68419 0.11927 0.32625
C45 C 0.5416(12) -0.1599(14) 0.8865(12)
H40 H 0.51069 -0.09805 0.90473
H41 H 0.52688 -0.21157 0.94376
C10A C 0.4617(10) -0.0332(10) 0.4231(11)
C9A C 0.5975(10) -0.0287(10) 0.5162(11)
C14A C -0.0423(14) 0.4666(11) 1.0975(13)
C13A C -0.0241(13) 0.5922(12) 0.9553(13)
C16A C 0.0009(15) 0.5988(11) 0.4508(12)
C15A C -0.0873(14) 0.4376(12) 0.5141(13)
C5A C 0.5593(10) -0.0647(10) 0.4397(10)
O12A O 0.4206(7) -0.0678(8) 0.3515(8)
H1A H 0.66311 -0.04624 0.52641
C7A C -0.0662(12) 0.5590(12) 1.0504(14)
O14A O -0.0809(11) 0.4305(9) 1.1928(10)
H3A H -0.04053 0.65557 0.92572
C8A C -0.0880(12) 0.5334(11) 0.4628(12)
O15A O -0.0022(9) 0.6950(8) 0.4017(9)
H4A H -0.14552 0.39696 0.52532
C1A C 0.6266(11) -0.1259(12) 0.3760(13)
H5A H 0.46135 -0.10527 0.32365
C3A C -0.1396(11) 0.6279(11) 1.1103(11)
H8A H -0.12205 0.47056 1.21590
C4A C -0.1829(14) 0.5673(11) 0.4233(13)
H9A H -0.05778 0.70420 0.38446
O1A O 0.7196(7) -0.1406(8) 0.3815(8)
O2A O 0.5853(7) -0.1661(8) 0.3151(8)
O7A O -0.1641(9) 0.7127(8) 1.0726(9)
O8A O -0.1772(9) 0.5932(8) 1.2009(9)
O9A O -0.1889(9) 0.6597(8) 0.3819(9)
O11A O -0.2577(10) 0.5054(9) 0.4364(11)
Gd1A Gd 0.74033(6) -0.25301(6) 0.24779(7)
Gd1A* Gd -0.25967(6) 0.74699(6) 1.24779(7)
Gd1A** Gd -0.25967(6) 0.74699(6) 0.24779(7)
O7A* O 0.8359(9) -0.2873(8) 0.0726(9)
O3A O 0.9130(7) -0.1888(7) 0.2248(8)
O4A O 0.7450(7) -0.0931(7) 0.1432(8)
O5A O 0.6051(7) -0.2677(8) 0.1500(8)
O8A* O 0.8228(9) -0.4068(8) 0.2009(9)
O9A* O 0.8111(9) -0.3403(8) 0.3819(9)
O6A O 0.6225(9) -0.3841(10) 0.3353(12)
C2A C 0.8112(14) -0.0255(11) 0.0916(15)
O10A O 0.8973(9) -0.0143(9) 0.1141(11)
C6A C 0.7769(12) 0.0432(12) 0.0120(14)
C12A C 0.8445(11) 0.1116(12) -0.0517(12)
C11A C 0.6765(12) 0.0379(10) -0.0079(12)
C18A C 0.8174(11) 0.1756(11) -0.1308(12)
H2A H 0.91133 0.11488 -0.04101
C17A C 0.6488(11) 0.1024(12) -0.0868(12)
O13A O 0.6053(7) -0.0310(8) 0.0455(9)
O16A O 0.8872(8) 0.2421(8) -0.1893(10)
C19A C 0.7147(12) 0.1737(10) -0.1493(12)
H7A H 0.58246 0.09749 -0.09817
H6A H 0.63053 -0.06658 0.08768
H10A H 0.86051 0.27514 -0.23200
C20A C 0.6835(15) 0.2432(12) -0.2362(13)
O17A O 0.5894(9) 0.2446(9) -0.2417(10)
O18A O 0.7538(8) 0.2916(9) -0.2931(9)
N3A N 0.3447(11) 0.1444(11) 0.1415(10)
N4A N 0.1981(10) 0.0793(9) 0.2123(10)
N5A N 0.1573(10) -0.0381(10) 0.351(1)
N6A N 0.1298(11) -0.1566(11) 0.4927(13)
N7A N 0.2454(11) -0.2391(10) 0.5630(11)
C27A C 0.2990(13) 0.0804(12) 0.2153(13)
H25A H 0.33049 0.04200 0.26223
C28A C 0.2744(14) 0.1885(13) 0.0878(15)
H26A H 0.28749 0.23681 0.03174
C29A C 0.1836(13) 0.1480(13) 0.1323(15)
H27A H 0.12129 0.16343 0.11274
C30A C 0.1208(12) 0.0222(12) 0.2811(15)
C31A C 0.0185(12) 0.0313(12) 0.2752(14)
H28A H -0.00384 0.07214 0.22357
C32A C -0.0501(14) -0.0253(13) 0.3524(16)
H29A H -0.12012 -0.01989 0.35347
C33A C -0.0164(15) -0.0870(13) 0.4247(14)
H30A H -0.06141 -0.12558 0.47491
C34A C 0.0901(14) -0.0905(12) 0.4207(14)
C35A C 0.2331(14) -0.1769(11) 0.4832(14)
H31A H 0.28422 -0.15170 0.43071
C36A C 0.0809(15) -0.2088(12) 0.5829(15)
H32A H 0.01107 -0.20872 0.60823
C37A C 0.1529(16) -0.2596(15) 0.6269(14)
H33A H 0.14235 -0.30015 0.68798
C38A C 0.3439(14) -0.2860(12) 0.5831(15)
H34A H 0.33211 -0.35781 0.60258
H35A H 0.39333 -0.27663 0.52200
C39A C 0.3916(13) -0.2472(12) 0.6608(13)
C40A C 0.4619(14) -0.3128(14) 0.7012(15)
H36A H 0.47443 -0.37548 0.68150
C41A C 0.5131(14) -0.2824(13) 0.7717(15)
H37A H 0.56164 -0.32416 0.79676
C42A C 0.4916(12) -0.1909(12) 0.8036(11)
C43A C 0.4158(14) -0.1309(14) 0.7676(15)
H38A H 0.39826 -0.07083 0.79127
C44A C 0.3663(14) -0.1598(13) 0.6967(15)
H39A H 0.31581 -0.11927 0.67375
C45A C 0.4584(12) 0.1599(14) 0.1135(12)
H40A H 0.48931 0.09805 0.09527
H41A H 0.47312 0.21157 0.05624
#END
