
#######################################################################
#
#                 Cambridge Crystallographic Data Centre
#                                CCDC
#
#######################################################################
#
# If this CIF has been generated from an entry in the Cambridge
# Structural Database, then it will include bibliographic, chemical,
# crystal, experimental, refinement or atomic coordinate data resulting
# from the CCDC's data processing and validation procedures.
#
#######################################################################

data_CSD_CIF_YUJDOZ
_audit_creation_date 2020-04-14
_audit_creation_method CSD-ConQuest-V1
_database_code_CSD YUJDOZ
_database_code_depnum_ccdc_archive 'CCDC 1934834'
_chemical_formula_sum 'C90 H102 N14 O44 Sm2'
_chemical_formula_moiety
;
(C40 H32 O36 Sm2 4-)n,n(C38 H34 N10 4+),4n(C3 H7 N1 O1),4n(H2 O1)
;
_journal_coden_Cambridge 4
_journal_volume 142
_journal_year 2020
_journal_page_first 7443
_journal_name_full 'J.Am.Chem.Soc. '
loop_
_publ_author_name
"Xu-Lang Chen"
"Yun-Jia Shen"
"Chao Gao"
"Jian Yang"
"Xin Sun"
"Xin Zhang"
"Yu-Dong Yang"
"Gong-Ping Wei"
"Jun-Feng Xiang"
"J.L.Sessler"
"Han-Yuan Gong"
_chemical_name_systematic
;
catena-(3,6,12,15,22,25,31,34,42,47-deca-azanonacyclo[34.2.2.2^17,20^.1^3,6^.1
^7,11^.1^12,15^.1^22,25^.1^26,30^.1^31,34^]octatetraconta-1(38),3(48),4,7(47),
8,10,13,15(46),17,19,22(43),23,26(42),27,29,32,34(41),36,39,44-icosaene-3,15,2
2,34-tetraium 
tris(\m-2,5-dihydroxyterephthalato)-bis(2,5-dihydroxyterephthalato)-hexa-aqua-
di-samarium dimethylformamide solvate tetrahydrate)
;
_cell_volume   2449.156
_exptl_crystal_colour 'colorless'
_exptl_crystal_density_diffrn 1.617
_exptl_crystal_description 'prism'
_diffrn_ambient_temperature 100
#These two values have been output from a single CSD field.
_refine_ls_R_factor_gt 0.082
_refine_ls_wR_factor_gt 0.082
_symmetry_cell_setting triclinic
_symmetry_space_group_name_H-M 'P -1'
_symmetry_Int_Tables_number 2
loop_
_symmetry_equiv_pos_site_id
_symmetry_equiv_pos_as_xyz
1 x,y,z
2 -x,-y,-z
_cell_length_a 13.493(3)
_cell_length_b 13.659(3)
_cell_length_c 13.762(3)
_cell_angle_alpha 81.10(3)
_cell_angle_beta 77.90(3)
_cell_angle_gamma 89.71(3)
_cell_formula_units_Z 1
loop_
_atom_type_symbol
_atom_type_radius_bond
C 0.68
H 0.23
N 0.68
O 0.68
Sm 1.98
loop_
_atom_site_label
_atom_site_type_symbol
_atom_site_fract_x
_atom_site_fract_y
_atom_site_fract_z
Sm1 Sm 0.26202(4) 0.25866(4) 0.74660(4)
O1 O 0.0917(5) 0.1891(5) 0.7714(5)
O2 O 0.2555(5) 0.1014(5) 0.8595(5)
O3 O 0.3913(5) 0.2844(5) 0.8464(5)
O4 O 0.3797(6) 0.3867(7) 0.6446(7)
O5 O 0.1611(5) 0.2884(5) 0.9286(5)
O6 O 0.1831(6) 0.4080(5) 0.7980(5)
O7 O 0.1850(5) 0.3456(5) 0.6104(6)
O8 O 0.2875(5) 0.1485(6) 0.6130(5)
O9 O 0.4171(5) 0.1680(6) 0.6849(6)
C1 C 0.1907(8) 0.0355(8) 0.9146(8)
C2 C 0.1416(7) 0.3731(8) 0.8900(7)
C3 C 0.1843(8) 0.4379(8) 0.5659(8)
C4 C 0.3773(8) 0.1296(8) 0.6219(8)
O10 O 0.1027(5) 0.0245(6) 0.9005(5)
C5 C 0.2243(7) -0.0295(8) 1.0006(8)
C6 C 0.0694(8) 0.4378(8) 0.9460(8)
O11 O 0.2574(5) 0.4975(6) 0.5503(6)
C7 C 0.0888(8) 0.4670(7) 0.5315(8)
C8 C 0.4441(8) 0.0629(8) 0.5563(8)
C9 C 0.3255(7) -0.0294(8) 1.0115(8)
C10 C 0.1525(8) -0.0938(7) 1.0705(8)
C11 C 0.0296(9) 0.4124(9) 1.0496(8)
C12 C 0.0382(9) 0.5298(9) 0.8976(8)
C13 C 0.0839(8) 0.5643(8) 0.4843(8)
C14 C 0.0045(7) 0.4029(8) 0.5472(8)
C15 C 0.4059(8) 0.0260(8) 0.4812(7)
C16 C 0.5376(8) 0.0360(9) 0.5755(8)
O12 O 0.3975(5) 0.0371(5) 0.9503(5)
C17 C 0.3554(8) -0.0949(8) 1.0872(8)
C18 C 0.1837(7) -0.1587(8) 1.1437(8)
H1 H 0.08440 -0.09218 1.06692
H2 H 0.05004 0.35420 1.08368
O13 O 0.0736(7) 0.5609(7) 0.7981(6)
H3 H 0.13950 0.60761 0.47367
O14 O 0.0046(5) 0.3056(5) 0.5912(5)
H4 H 0.34209 0.04397 0.47024
O15 O 0.5776(5) 0.0694(6) 0.6486(5)
H5 H 0.37165 0.07179 0.90871
H6 H 0.42275 -0.09456 1.09331
C19 C 0.2848(7) -0.1614(8) 1.1545(7)
O16 O 0.1101(5) -0.2192(6) 1.2118(6)
H7 H 0.11434 0.52125 0.77515
H8 H 0.05845 0.29433 0.60892
H9 H 0.53784 0.10680 0.67699
C20 C 0.3168(8) -0.2339(8) 1.2352(8)
H10 H 0.13621 -0.25214 1.25437
O17 O 0.4092(5) -0.2414(5) 1.2363(5)
O18 O 0.2458(5) -0.2828(6) 1.3008(5)
O19 O 0.4206(6) 0.6083(7) 0.3932(7)
O20 O 0.9800(7) 0.1713(7) 0.0785(7)
O21 O 0.6152(7) 0.5529(7) 0.0577(7)
N1 N 0.6879(8) 0.4075(8) 0.0231(8)
C21 C 0.6707(9) 0.4814(11) 0.076(1)
H11 H 0.70178 0.48008 0.13042
C22 C 0.7598(11) 0.3304(11) 0.0442(11)
H12 H 0.76227 0.28349 -0.00143
H13 H 0.82595 0.36018 0.03579
H14 H 0.73823 0.29702 0.11213
C23 C 0.6393(11) 0.3998(10) -0.0594(10)
H15 H 0.66159 0.34153 -0.08787
H16 H 0.56708 0.39533 -0.03531
H17 H 0.65678 0.45735 -0.10995
O22 O 0.1675(8) 0.2068(8) 0.3759(7)
N2 N 0.2297(9) 0.3688(8) 0.3174(9)
C24 C 0.2264(11) 0.2768(12) 0.3756(10)
H18 H 0.27195 0.26599 0.41819
C25 C 0.3038(10) 0.4449(10) 0.3224(11)
H19 H 0.29561 0.50402 0.27739
H20 H 0.29318 0.45923 0.38987
H21 H 0.37105 0.42120 0.30319
C26 C 0.1508(11) 0.3998(12) 0.2597(11)
H22 H 0.16639 0.46594 0.22416
H23 H 0.14887 0.35541 0.21234
H24 H 0.08599 0.39813 0.30499
N3 N 0.6438(6) -0.1475(7) 0.8576(6)
N4 N 0.7921(6) -0.0864(7) 0.7823(6)
N5 N 0.8384(7) 0.0360(7) 0.6420(7)
N6 N 0.8678(7) 0.1575(7) 0.5013(7)
N7 N 0.7605(8) 0.2394(8) 0.4264(8)
C27 C 0.6937(8) -0.0812(8) 0.7812(8)
H25 H 0.66483 -0.03908 0.73553
C28 C 0.7133(8) -0.1978(9) 0.9080(9)
H26 H 0.69875 -0.24788 0.96341
C29 C 0.8061(8) -0.1591(9) 0.8600(8)
H27 H 0.86770 -0.17788 0.87612
C30 C 0.8724(8) -0.0254(8) 0.7108(8)
C31 C 0.9718(8) -0.0350(9) 0.7188(8)
H28 H 0.99062 -0.07956 0.76960
C32 C 1.0441(8) 0.0261(9) 0.6461(8)
H29 H 1.11245 0.02292 0.64824
C33 C 1.0123(8) 0.0907(8) 0.5718(8)
H30 H 1.05831 0.13100 0.52209
C34 C 0.9091(9) 0.0929(8) 0.5742(8)
C35 C 0.7694(9) 0.1785(8) 0.5105(9)
H31 H 0.71713 0.15520 0.56476
C36 C 0.9229(10) 0.2111(9) 0.4107(8)
H32 H 0.99266 0.21155 0.38660
C37 C 0.854(1) 0.2621(10) 0.3656(10)
H33 H 0.86773 0.30458 0.30439
C38 C 0.6615(11) 0.2840(9) 0.4166(10)
H34 H 0.66991 0.35566 0.40384
H35 H 0.61291 0.26602 0.47964
C39 C 0.6188(9) 0.2500(9) 0.3309(9)
C40 C 0.5487(9) 0.3127(10) 0.2911(10)
H36 H 0.53505 0.37409 0.31152
C41 C 0.5008(9) 0.2817(10) 0.2217(10)
H37 H 0.45437 0.32294 0.19584
C42 C 0.5197(8) 0.1911(9) 0.1892(8)
C43 C 0.5893(9) 0.1297(9) 0.2279(8)
H38 H 0.60306 0.06866 0.20690
C44 C 0.6383(10) 0.1598(10) 0.2983(10)
H39 H 0.68495 0.11843 0.32380
C45 C 0.5328(8) -0.1564(9) 0.8884(8)
H40 H 0.50687 -0.09239 0.90192
H41 H 0.51511 -0.20270 0.95071
C12A C -0.0382(9) 0.4702(9) 1.1024(8)
C11A C -0.0296(9) 0.5876(9) 0.9504(8)
C14A C -0.0045(7) 0.5971(8) 0.4528(8)
C13A C -0.0839(8) 0.4357(8) 0.5157(8)
C16A C 0.4624(8) -0.0360(9) 0.4245(8)
C15A C 0.5941(8) -0.0260(8) 0.5188(7)
O13A O -0.0736(7) 0.4391(7) 1.2019(6)
C6A C -0.0694(8) 0.5622(8) 1.0540(8)
H2A H -0.05004 0.64580 0.91632
O14A O -0.0046(5) 0.6944(5) 0.4088(5)
C7A C -0.0888(8) 0.5330(7) 0.4685(8)
H3A H -0.13950 0.39239 0.52633
O15A O 0.4224(5) -0.0694(6) 0.3514(5)
C8A C 0.5559(8) -0.0629(8) 0.4437(8)
H4A H 0.65791 -0.04397 0.52975
H7A H -0.11434 0.47875 1.22485
C2A C -0.1416(7) 0.6269(8) 1.1100(7)
H8A H -0.05845 0.70567 0.39108
C3A C -0.1843(8) 0.5621(8) 0.4341(8)
H9A H 0.46216 -0.10680 0.32301
C4A C 0.6227(8) -0.1296(8) 0.3781(8)
O5A O -0.1611(5) 0.7116(5) 1.0714(5)
O6A O -0.1831(6) 0.5920(5) 1.2020(5)
O11A O -0.2574(5) 0.5025(6) 0.4497(6)
O7A O -0.1850(5) 0.6544(5) 0.3896(6)
O8A O 0.7125(5) -0.1485(6) 0.3870(5)
O9A O 0.5829(5) -0.1680(6) 0.3151(6)
Sm1A Sm -0.26202(4) 0.74134(4) 1.25340(4)
Sm1A* Sm -0.26202(4) 0.74134(4) 0.25340(4)
Sm1A** Sm 0.73798(4) -0.25866(4) 0.25340(4)
O8A* O -0.2875(5) 0.8515(6) 1.3870(5)
O1A O -0.0917(5) 0.8109(5) 1.2286(5)
O2A O -0.2555(5) 0.8986(5) 1.1405(5)
O3A O -0.3913(5) 0.7156(5) 1.1536(5)
O9A* O -0.4171(5) 0.8320(6) 1.3151(6)
O7A* O -0.1850(5) 0.6544(5) 1.3896(6)
O4A O -0.3797(6) 0.6133(7) 1.3554(7)
C1A C -0.1907(8) 0.9645(8) 1.0854(8)
C5A C -0.2243(7) 1.0295(8) 0.9994(8)
O10A O -0.1027(5) 0.9755(6) 1.0995(5)
C10A C -0.1525(8) 1.0938(7) 0.9295(8)
C9A C -0.3255(7) 1.0294(8) 0.9885(8)
C18A C -0.1837(7) 1.1587(8) 0.8563(8)
H1A H -0.08440 1.09218 0.93308
O12A O -0.3975(5) 0.9629(5) 1.0497(5)
C17A C -0.3554(8) 1.0949(8) 0.9128(8)
O16A O -0.1101(5) 1.2192(6) 0.7882(6)
C19A C -0.2848(7) 1.1614(8) 0.8455(7)
H5A H -0.37165 0.92821 1.09129
H6A H -0.42275 1.09456 0.90669
H10A H -0.13621 1.25214 0.74563
C20A C -0.3168(8) 1.2339(8) 0.7648(8)
O17A O -0.4092(5) 1.2414(5) 0.7637(5)
O18A O -0.2458(5) 1.2828(6) 0.6992(5)
N3A N 0.3562(6) 0.1475(7) 0.1424(6)
N4A N 0.2079(6) 0.0864(7) 0.2177(6)
N5A N 0.1616(7) -0.0360(7) 0.3580(7)
N6A N 0.1322(7) -0.1575(7) 0.4987(7)
N7A N 0.2395(8) -0.2394(8) 0.5736(8)
C27A C 0.3063(8) 0.0812(8) 0.2188(8)
H25A H 0.33517 0.03908 0.26447
C28A C 0.2867(8) 0.1978(9) 0.0920(9)
H26A H 0.30125 0.24788 0.03659
C29A C 0.1939(8) 0.1591(9) 0.1400(8)
H27A H 0.13230 0.17788 0.12388
C30A C 0.1276(8) 0.0254(8) 0.2892(8)
C31A C 0.0282(8) 0.0350(9) 0.2812(8)
H28A H 0.00938 0.07956 0.23040
C32A C -0.0441(8) -0.0261(9) 0.3539(8)
H29A H -0.11245 -0.02292 0.35176
C33A C -0.0123(8) -0.0907(8) 0.4282(8)
H30A H -0.05831 -0.13100 0.47791
C34A C 0.0909(9) -0.0929(8) 0.4258(8)
C35A C 0.2306(9) -0.1785(8) 0.4895(9)
H31A H 0.28287 -0.15520 0.43524
C36A C 0.0771(10) -0.2111(9) 0.5893(8)
H32A H 0.00734 -0.21155 0.61340
C37A C 0.146(1) -0.2621(10) 0.6344(10)
H33A H 0.13227 -0.30458 0.69561
C38A C 0.3385(11) -0.2840(9) 0.5834(10)
H34A H 0.33009 -0.35566 0.59616
H35A H 0.38709 -0.26602 0.52036
C39A C 0.3812(9) -0.2500(9) 0.6691(9)
C40A C 0.4513(9) -0.3127(10) 0.7089(10)
H36A H 0.46495 -0.37409 0.68848
C41A C 0.4992(9) -0.2817(10) 0.7783(10)
H37A H 0.54563 -0.32294 0.80415
C42A C 0.4803(8) -0.1911(9) 0.8108(8)
C43A C 0.4107(9) -0.1297(9) 0.7721(8)
H38A H 0.39694 -0.06866 0.79310
C44A C 0.3617(10) -0.1598(10) 0.7017(10)
H39A H 0.31505 -0.11843 0.67620
C45A C 0.4672(8) 0.1564(9) 0.1116(8)
H40A H 0.49313 0.09239 0.09808
H41A H 0.48489 0.20270 0.04929
#END
