
#######################################################################
#
#                 Cambridge Crystallographic Data Centre
#                                CCDC
#
#######################################################################
#
# If this CIF has been generated from an entry in the Cambridge
# Structural Database, then it will include bibliographic, chemical,
# crystal, experimental, refinement or atomic coordinate data resulting
# from the CCDC's data processing and validation procedures.
#
#######################################################################

data_CSD_CIF_YUJFUH
_audit_creation_date 2020-04-14
_audit_creation_method CSD-ConQuest-V1
_database_code_CSD YUJFUH
_database_code_depnum_ccdc_archive 'CCDC 1986329'
_chemical_formula_sum 'C73 H45 Cd2 F16 N11 O19'
_chemical_formula_moiety
;
(C38 H34 N10 4+)n,n(C32 H4 Cd2 F16 O18 4-),n(C3 H7 N1 O1)
;
_journal_coden_Cambridge 4
_journal_volume 142
_journal_year 2020
_journal_page_first 7443
_journal_name_full 'J.Am.Chem.Soc. '
loop_
_publ_author_name
"Xu-Lang Chen"
"Yun-Jia Shen"
"Chao Gao"
"Jian Yang"
"Xin Sun"
"Xin Zhang"
"Yu-Dong Yang"
"Gong-Ping Wei"
"Jun-Feng Xiang"
"J.L.Sessler"
"Han-Yuan Gong"
_chemical_name_systematic
;
catena-(3,6,12,15,22,25,31,34,42,47-deca-azanonacyclo[34.2.2.2^17,20^.1^3,6^.1
^7,11^.1^12,15^.1^22,25^.1^26,30^.1^31,34^]octatetraconta-1(38),3(48),4,7(47),
8,10,13,15(46),17,19,22(43),23,26(42),27,29,32,34(41),36,39,44-icosaene-3,15,2
2,34-tetraium tetrakis(\m-2,3,5,6-tetrafluoroterephthalato)-diaqua-di-cadmium 
dimethylformamide solvate)
;
_cell_volume   1795.585
_exptl_crystal_colour 'colorless'
_exptl_crystal_density_diffrn 1.765
_exptl_crystal_description 'Prism'
_diffrn_ambient_temperature 173.2
_refine_special_details
;
The dimethylformamide solvent molecule is disordered by symmetry.

;
#These two values have been output from a single CSD field.
_refine_ls_R_factor_gt 0.0575
_refine_ls_wR_factor_gt 0.0575
_symmetry_cell_setting triclinic
_symmetry_space_group_name_H-M 'P -1'
_symmetry_Int_Tables_number 2
loop_
_symmetry_equiv_pos_site_id
_symmetry_equiv_pos_as_xyz
1 x,y,z
2 -x,-y,-z
_cell_length_a 10.641(2)
_cell_length_b 11.699(2)
_cell_length_c 15.585(3)
_cell_angle_alpha 99.44(3)
_cell_angle_beta 99.77(3)
_cell_angle_gamma 105.65(3)
_cell_formula_units_Z 1
loop_
_atom_type_symbol
_atom_type_radius_bond
C 0.68
H 0.23
Cd 1.44
F 0.64
N 0.68
O 0.68
loop_
_atom_site_label
_atom_site_type_symbol
_atom_site_fract_x
_atom_site_fract_y
_atom_site_fract_z
Cd1 Cd 0.35651(4) 0.82538(3) 0.29902(2)
F1 F 0.0499(3) 1.1091(3) 0.3629(2)
F2 F 0.1581(3) 0.8725(3) 0.5650(2)
F3 F 0.6957(3) 0.7034(3) 0.4975(2)
F4 F 0.7611(3) 0.5352(3) 0.5738(2)
F5 F -0.1037(4) 0.4964(4) 0.1472(2)
F6 F 0.2680(3) 0.5795(4) 0.0147(2)
F7 F 0.6424(3) 1.1044(3) 0.1699(2)
F8 F 0.2777(3) 0.8054(3) -0.0345(2)
O1 O 0.2048(3) 0.9195(3) 0.3471(2)
O2 O 0.5203(4) 1.0015(3) 0.3813(2)
O3 O 0.3408(4) 1.0442(3) 0.4719(2)
O4 O 0.4825(4) 0.7135(3) 0.3552(2)
O5 O 0.3368(4) 0.7279(4) 0.4400(3)
O6 O 0.1694(4) 0.6814(3) 0.2224(3)
O7 O 0.2659(5) 0.5336(4) 0.1964(3)
O8 O 0.4780(4) 0.8434(4) 0.1855(2)
O9 O 0.3147(4) 0.9275(4) 0.1732(2)
C1 C 0.2304(5) 0.9846(5) 0.4244(3)
C2 C 0.0262(5) 1.0542(5) 0.4314(3)
C3 C 0.1092(5) 0.9904(5) 0.4620(3)
C4 C 0.0802(5) 0.9366(5) 0.5322(3)
C5 C 0.4240(5) 0.6866(5) 0.4157(3)
C6 C 0.4640(5) 0.5914(5) 0.4606(3)
C7 C 0.5951(5) 0.6025(4) 0.4975(3)
C8 C 0.6306(5) 0.5144(5) 0.5365(3)
C9 C 0.1831(6) 0.5864(5) 0.1767(4)
C10 C -0.0492(6) 0.5011(5) 0.0751(4)
C11 C 0.0875(6) 0.5403(5) 0.0852(4)
C12 C 0.1357(6) 0.5386(5) 0.0083(4)
C13 C 0.4121(5) 0.9026(5) 0.1494(3)
C14 C 0.5691(5) 1.0512(5) 0.0853(3)
C15 C 0.4579(5) 0.9519(5) 0.0716(3)
C16 C 0.3887(5) 0.9020(5) -0.0155(3)
O10 O 0.5162(10) 0.3387(9) 0.1091(6)
N1 N 0.5027(11) 0.4661(11) 0.0130(7)
C17 C 0.4876(14) 0.3549(14) 0.0330(11)
C18 C 0.5476(11) 0.5545(11) 0.0825(5)
N2 N 0.9021(4) 0.8605(4) 0.2128(3)
N3 N 0.8370(4) 0.7177(4) 0.2817(3)
N4 N 0.7053(4) 0.5364(4) 0.3023(3)
N5 N 0.5573(4) 0.3558(4) 0.3115(3)
N6 N 0.3420(4) 0.2852(4) 0.2629(3)
C19 C 0.9331(5) 0.7693(5) 0.2415(3)
H1 H 1.00794 0.74504 0.23502
C20 C 0.7829(5) 0.8678(5) 0.2343(4)
H2 H 0.73985 0.92455 0.22185
C21 C 0.7405(5) 0.7774(5) 0.2769(4)
H3 H 0.66275 0.75904 0.29834
C22 C 0.8287(5) 0.6101(5) 0.3159(3)
C23 C 0.9428(6) 0.5873(6) 0.3555(4)
H4 H 1.02766 0.64167 0.36274
C24 C 0.9241(6) 0.4797(6) 0.3836(4)
H5 H 0.99798 0.45978 0.41040
C25 C 0.7987(6) 0.4019(6) 0.3726(4)
H6 H 0.78524 0.33013 0.39304
C26 C 0.6917(5) 0.4334(5) 0.3301(4)
C27 C 0.4477(5) 0.3820(5) 0.2737(3)
H7 H 0.44646 0.45512 0.25798
C28 C 0.5161(6) 0.2369(5) 0.3233(4)
H8 H 0.57106 0.19516 0.34765
C29 C 0.3829(6) 0.1937(5) 0.2933(4)
H9 H 0.32832 0.11667 0.29293
C30 C 0.2035(5) 0.2747(5) 0.2223(3)
H10 H 0.19239 0.35507 0.23291
H11 H 0.14417 0.22484 0.25194
C31 C 0.1615(5) 0.2204(4) 0.1232(3)
C32 C 0.0421(6) 0.2280(5) 0.0758(4)
H12 H -0.00901 0.26638 0.10578
C33 C -0.0021(5) 0.1796(5) -0.0149(4)
H13 H -0.08165 0.18663 -0.04548
C34 C 0.0720(5) 0.1204(5) -0.0607(4)
C35 C 0.1882(6) 0.1097(6) -0.0136(4)
H14 H 0.23755 0.06874 -0.04331
C36 C 0.2334(6) 0.1586(6) 0.0774(4)
H15 H 0.31214 0.15005 0.10799
C37 C 0.9779(5) 0.9342(5) 0.1594(3)
H16 H 1.07190 0.94057 0.17686
H17 H 0.97002 1.01566 0.17170
F1A F -0.0499(3) 0.8909(3) 0.6371(2)
F2A F -0.1581(3) 1.1275(3) 0.4350(2)
O1A O -0.2048(3) 1.0805(3) 0.6529(2)
O3A O -0.3408(4) 0.9558(3) 0.5281(2)
C1A C -0.2304(5) 1.0154(5) 0.5756(3)
C2A C -0.0262(5) 0.9458(5) 0.5686(3)
C3A C -0.1092(5) 1.0096(5) 0.5380(3)
C4A C -0.0802(5) 1.0634(5) 0.4678(3)
F3A F 0.3043(3) 0.2966(3) 0.5025(2)
F4A F 0.2389(3) 0.4648(3) 0.4262(2)
O4A O 0.5175(4) 0.2865(3) 0.6448(2)
O5A O 0.6632(4) 0.2721(4) 0.5600(3)
C5A C 0.5760(5) 0.3134(5) 0.5843(3)
C6A C 0.5360(5) 0.4086(5) 0.5394(3)
C7A C 0.4049(5) 0.3975(4) 0.5025(3)
C8A C 0.3694(5) 0.4856(5) 0.4635(3)
F5A F 0.1037(4) 0.5036(4) -0.1472(2)
F6A F -0.2680(3) 0.4205(4) -0.0147(2)
O6A O -0.1694(4) 0.3186(3) -0.2224(3)
O7A O -0.2659(5) 0.4664(4) -0.1964(3)
C9A C -0.1831(6) 0.4136(5) -0.1767(4)
C10A C 0.0492(6) 0.4989(5) -0.0751(4)
C11A C -0.0875(6) 0.4597(5) -0.0852(4)
C12A C -0.1357(6) 0.4614(5) -0.0083(4)
F7A F 0.3576(3) 0.8956(3) -0.1699(2)
F8A F 0.7223(3) 1.1946(3) 0.0345(2)
O8A O 0.5220(4) 1.1566(4) -0.1855(2)
O9A O 0.6853(4) 1.0725(4) -0.1732(2)
C13A C 0.5879(5) 1.0974(5) -0.1494(3)
C14A C 0.4309(5) 0.9488(5) -0.0853(3)
C15A C 0.5421(5) 1.0481(5) -0.0716(3)
C16A C 0.6113(5) 1.0980(5) 0.0155(3)
Cd1A Cd -0.35651(4) 0.17462(3) -0.29902(2)
O2A O -0.5203(4) -0.0015(3) -0.3813(2)
Cd1A* Cd -0.35651(4) 1.17462(3) 0.70098(2)
Cd1A** Cd 0.64349(4) 0.17462(3) 0.70098(2)
Cd1A*** Cd 0.64349(4) 1.17462(3) -0.29902(2)
O1A* O -0.2048(3) 0.0805(3) -0.3471(2)
O4A* O -0.4825(4) 0.2865(3) -0.3552(2)
O5A* O -0.3368(4) 0.2721(4) -0.4400(3)
O8A* O -0.4780(4) 0.1566(4) -0.1855(2)
O9A* O -0.3147(4) 0.0725(4) -0.1732(2)
O10A O 0.4838(10) 0.6613(9) -0.1091(6)
N1A N 0.4973(11) 0.5339(11) -0.0130(7)
C17A C 0.5124(14) 0.6451(14) -0.0330(11)
C18A C 0.4524(11) 0.4455(11) -0.0825(5)
N2A N 0.0979(4) 0.1395(4) -0.2128(3)
N3A N 0.1630(4) 0.2823(4) -0.2817(3)
N4A N 0.2947(4) 0.4636(4) -0.3023(3)
N5A N 0.4427(4) 0.6442(4) -0.3115(3)
N6A N 0.6580(4) 0.7148(4) -0.2629(3)
C19A C 0.0669(5) 0.2307(5) -0.2415(3)
H1A H -0.00794 0.25496 -0.23502
C20A C 0.2171(5) 0.1322(5) -0.2343(4)
H2A H 0.26015 0.07545 -0.22185
C21A C 0.2595(5) 0.2226(5) -0.2769(4)
H3A H 0.33725 0.24096 -0.29834
C22A C 0.1713(5) 0.3899(5) -0.3159(3)
C23A C 0.0572(6) 0.4127(6) -0.3555(4)
H4A H -0.02766 0.35833 -0.36274
C24A C 0.0759(6) 0.5203(6) -0.3836(4)
H5A H 0.00202 0.54022 -0.41040
C25A C 0.2013(6) 0.5981(6) -0.3726(4)
H6A H 0.21476 0.66987 -0.39304
C26A C 0.3083(5) 0.5666(5) -0.3301(4)
C27A C 0.5523(5) 0.6180(5) -0.2737(3)
H7A H 0.55354 0.54488 -0.25798
C28A C 0.4839(6) 0.7631(5) -0.3233(4)
H8A H 0.42894 0.80483 -0.34765
C29A C 0.6171(6) 0.8063(5) -0.2933(4)
H9A H 0.67168 0.88333 -0.29293
C30A C 0.7965(5) 0.7253(5) -0.2223(3)
H10A H 0.80761 0.64493 -0.23291
H11A H 0.85583 0.77516 -0.25194
C31A C 0.8385(5) 0.7796(4) -0.1232(3)
C32A C 0.9579(6) 0.7720(5) -0.0758(4)
H12A H 1.00901 0.73362 -0.10578
C33A C 1.0021(5) 0.8204(5) 0.0149(4)
H13A H 1.08166 0.81337 0.04548
C34A C 0.9280(5) 0.8796(5) 0.0607(4)
C35A C 0.8118(6) 0.8903(6) 0.0136(4)
H14A H 0.76245 0.93126 0.04331
C36A C 0.7666(6) 0.8414(6) -0.0774(4)
H15A H 0.68786 0.84995 -0.10799
C37A C 0.0221(5) 0.0658(5) -0.1594(3)
H16A H -0.07190 0.05943 -0.17686
H17A H 0.02998 -0.01566 -0.17170
#END
