
#######################################################################
#
#                 Cambridge Crystallographic Data Centre
#                                CCDC
#
#######################################################################
#
# If this CIF has been generated from an entry in the Cambridge
# Structural Database, then it will include bibliographic, chemical,
# crystal, experimental, refinement or atomic coordinate data resulting
# from the CCDC's data processing and validation procedures.
#
#######################################################################

data_CSD_CIF_YUJFAN
_audit_creation_date 2020-04-14
_audit_creation_method CSD-ConQuest-V1
_database_code_CSD YUJFAN
_database_code_depnum_ccdc_archive 'CCDC 1934836'
_chemical_formula_sum 'C90 H102 Eu2 N14 O44'
_chemical_formula_moiety
;
(C40 H32 Eu2 O36 4-)n,n(C38 H34 N10 4+),4n(C3 H7 N1 O1),4n(H2 O1)
;
_journal_coden_Cambridge 4
_journal_volume 142
_journal_year 2020
_journal_page_first 7443
_journal_name_full 'J.Am.Chem.Soc. '
loop_
_publ_author_name
"Xu-Lang Chen"
"Yun-Jia Shen"
"Chao Gao"
"Jian Yang"
"Xin Sun"
"Xin Zhang"
"Yu-Dong Yang"
"Gong-Ping Wei"
"Jun-Feng Xiang"
"J.L.Sessler"
"Han-Yuan Gong"
_chemical_name_systematic
;
catena-(3,6,12,15,22,25,31,34,42,47-deca-azanonacyclo[34.2.2.2^17,20^.1^3,6^.1
^7,11^.1^12,15^.1^22,25^.1^26,30^.1^31,34^]octatetraconta-1(38),3(48),4,7(47),
8,10,13,15(46),17,19,22(43),23,26(42),27,29,32,34(41),36,39,44-icosaene-3,15,2
2,34-tetraium 
tris(\m-2,5-dihydroxyterephthalato)-bis(2,5-dihydroxyterephthalato)-hexa-aqua-
di-europium dimethylformamide solvate tetrahydrate)
;
_cell_volume   2485.121
_exptl_crystal_colour 'yellow'
_exptl_crystal_density_diffrn 1.595
_exptl_crystal_description 'plate'
_diffrn_ambient_temperature 223
#These two values have been output from a single CSD field.
_refine_ls_R_factor_gt 0.056
_refine_ls_wR_factor_gt 0.056
_symmetry_cell_setting triclinic
_symmetry_space_group_name_H-M 'P -1'
_symmetry_Int_Tables_number 2
loop_
_symmetry_equiv_pos_site_id
_symmetry_equiv_pos_as_xyz
1 x,y,z
2 -x,-y,-z
_cell_length_a 13.527(3)
_cell_length_b 13.726(3)
_cell_length_c 13.879(3)
_cell_angle_alpha 80.92(3)
_cell_angle_beta 77.64(3)
_cell_angle_gamma 89.22(3)
_cell_formula_units_Z 1
loop_
_atom_type_symbol
_atom_type_radius_bond
C 0.68
H 0.23
Eu 1.98
N 0.68
O 0.68
loop_
_atom_site_label
_atom_site_type_symbol
_atom_site_fract_x
_atom_site_fract_y
_atom_site_fract_z
Eu1 Eu 0.26135(2) 0.25746(2) 0.74666(3)
O1 O 0.0916(3) 0.1890(3) 0.7731(3)
O2 O 0.2553(3) 0.1011(3) 0.8592(3)
O3 O 0.3899(3) 0.2827(3) 0.8449(4)
O4 O 0.3794(4) 0.3821(5) 0.6429(5)
O5 O 0.1578(4) 0.2868(4) 0.9300(4)
O6 O 0.1845(4) 0.4061(3) 0.8013(4)
O7 O 0.1839(3) 0.3460(3) 0.6146(4)
O8 O 0.2873(3) 0.1484(3) 0.6130(4)
O9 O 0.4161(3) 0.1660(3) 0.6845(4)
C1 C 0.1912(5) 0.0363(5) 0.9147(5)
C2 C 0.1403(5) 0.3711(5) 0.8917(5)
C3 C 0.1830(5) 0.4359(5) 0.5702(5)
C4 C 0.3766(5) 0.1302(5) 0.6210(5)
O10 O 0.1048(4) 0.0248(4) 0.8994(4)
C5 C 0.2251(5) -0.0297(5) 0.9986(5)
C6 C 0.0684(5) 0.4382(5) 0.9469(5)
O11 O 0.2551(4) 0.4970(4) 0.5551(4)
C7 C 0.0877(5) 0.4671(4) 0.5338(5)
C8 C 0.4419(5) 0.0638(5) 0.5573(5)
C9 C 0.3254(5) -0.0281(5) 1.0106(5)
C10 C 0.1546(5) -0.0938(5) 1.0683(5)
C11 C 0.0262(6) 0.4105(5) 1.0491(5)
C12 C 0.0416(6) 0.5290(5) 0.8985(5)
C13 C 0.0817(5) 0.5641(5) 0.4856(5)
C14 C 0.0050(5) 0.4034(5) 0.5469(5)
C15 C 0.4051(5) 0.0287(5) 0.4819(5)
C16 C 0.5369(5) 0.0346(5) 0.5750(5)
O12 O 0.3973(3) 0.0372(3) 0.9499(4)
C17 C 0.3547(5) -0.0944(5) 1.0861(5)
C18 C 0.1833(5) -0.1589(5) 1.1436(5)
H1 H 0.08705 -0.09225 1.06365
H2 H 0.04371 0.35080 1.08240
O13 O 0.0803(5) 0.5621(4) 0.7995(4)
H3 H 0.13674 0.60725 0.47517
O14 O 0.0047(4) 0.3061(3) 0.5925(4)
H4 H 0.34204 0.04785 0.46996
O15 O 0.5765(3) 0.0675(3) 0.6485(4)
H5 H 0.37172 0.07186 0.90838
H6 H 0.42187 -0.09442 1.09221
C19 C 0.2847(5) -0.1610(5) 1.1530(5)
O16 O 0.1116(3) -0.2207(4) 1.2080(4)
H7 H 0.12106 0.52239 0.77670
H8 H 0.05831 0.29470 0.61028
H9 H 0.53663 0.10481 0.67671
C20 C 0.3172(5) -0.2329(5) 1.2347(5)
H10 H 0.13741 -0.25354 1.25041
O17 O 0.4100(4) -0.2396(4) 1.2349(4)
O18 O 0.2484(4) -0.2821(4) 1.3000(4)
O19 O 0.4177(4) 0.6064(5) 0.3929(5)
O20 O 0.9780(6) 0.1710(5) 0.0810(6)
O21 O 0.6172(6) 0.5568(6) 0.0577(6)
N1 N 0.6887(6) 0.4104(6) 0.0222(6)
C21 C 0.6712(8) 0.4845(8) 0.0749(8)
H11 H 0.70197 0.48213 0.12910
C22 C 0.7574(8) 0.3307(7) 0.0436(9)
H12 H 0.75938 0.28510 -0.00259
H13 H 0.82407 0.35772 0.03675
H14 H 0.73382 0.29695 0.11053
C23 C 0.6395(10) 0.4067(8) -0.0596(9)
H15 H 0.66032 0.34902 -0.08919
H16 H 0.56744 0.40397 -0.03527
H17 H 0.65793 0.46459 -0.10882
O22 O 0.1628(5) 0.2101(5) 0.3749(5)
N2 N 0.2230(6) 0.3682(5) 0.3202(6)
C24 C 0.2221(7) 0.2781(7) 0.3752(7)
H18 H 0.26881 0.26615 0.41588
C25 C 0.2964(8) 0.4438(6) 0.3252(8)
H19 H 0.28698 0.50336 0.28183
H20 H 0.28647 0.45676 0.39260
H21 H 0.36380 0.42087 0.30461
C26 C 0.1481(9) 0.3969(9) 0.2605(9)
H22 H 0.16181 0.46359 0.22709
H23 H 0.15127 0.35375 0.21187
H24 H 0.08180 0.39229 0.30318
N3 N 0.6439(4) -0.1475(4) 0.8550(4)
N4 N 0.7924(4) -0.0853(4) 0.7827(4)
N5 N 0.8357(5) 0.0363(4) 0.6424(5)
N6 N 0.8653(5) 0.1582(4) 0.5016(5)
N7 N 0.7551(5) 0.2399(5) 0.4298(5)
C27 C 0.6942(5) -0.0810(5) 0.7812(5)
H25 H 0.66562 -0.03854 0.73597
C28 C 0.7137(6) -0.1952(5) 0.9061(6)
H26 H 0.69883 -0.24456 0.96155
C29 C 0.8068(6) -0.1571(5) 0.8606(6)
H27 H 0.86790 -0.17522 0.87808
C30 C 0.8701(5) -0.0247(5) 0.7106(5)
C31 C 0.9711(5) -0.0319(5) 0.7183(6)
H28 H 0.99056 -0.07482 0.76954
C32 C 1.0409(6) 0.0271(5) 0.6471(6)
H29 H 1.10904 0.02391 0.64947
C33 C 1.0102(6) 0.0915(5) 0.5714(6)
H30 H 1.05621 0.13124 0.52189
C34 C 0.9066(6) 0.0929(5) 0.5744(5)
C35 C 0.7671(7) 0.1766(6) 0.5106(6)
H31 H 0.71556 0.15004 0.56372
C36 C 0.9188(7) 0.2102(5) 0.4113(6)
H32 H 0.98841 0.21049 0.38659
C37 C 0.8491(7) 0.2604(6) 0.3665(6)
H33 H 0.86205 0.30099 0.30470
C38 C 0.6592(7) 0.2848(6) 0.4151(7)
H34 H 0.66948 0.35582 0.39937
H35 H 0.60960 0.27071 0.47753
C39 C 0.6151(6) 0.2500(5) 0.3323(6)
C40 C 0.5441(7) 0.3099(6) 0.2929(7)
H36 H 0.52947 0.37092 0.31308
C41 C 0.4957(6) 0.2796(6) 0.2247(7)
H37 H 0.44750 0.31965 0.20067
C42 C 0.5181(6) 0.1897(6) 0.1914(6)
C43 C 0.5886(6) 0.1313(6) 0.2293(6)
H38 H 0.60357 0.07072 0.20822
C44 C 0.6382(6) 0.1605(5) 0.2985(6)
H39 H 0.68667 0.12036 0.32203
C45 C 0.5329(5) -0.1577(6) 0.8879(6)
H40 H 0.50568 -0.09508 0.90392
H41 H 0.51644 -0.20604 0.94832
C12A C -0.0416(6) 0.4710(5) 1.1015(5)
C11A C -0.0262(6) 0.5895(5) 0.9509(5)
C14A C -0.0050(5) 0.5966(5) 0.4531(5)
C13A C -0.0817(5) 0.4359(5) 0.5144(5)
C16A C 0.4631(5) -0.0346(5) 0.4250(5)
C15A C 0.5949(5) -0.0287(5) 0.5181(5)
O13A O -0.0803(5) 0.4379(4) 1.2005(4)
C6A C -0.0684(5) 0.5618(5) 1.0531(5)
H2A H -0.04371 0.64920 0.91760
O14A O -0.0047(4) 0.6939(3) 0.4075(4)
C7A C -0.0877(5) 0.5329(4) 0.4662(5)
H3A H -0.13674 0.39275 0.52483
O15A O 0.4235(3) -0.0675(3) 0.3515(4)
C8A C 0.5581(5) -0.0638(5) 0.4427(5)
H4A H 0.65796 -0.04785 0.53004
H7A H -0.12106 0.47761 1.22330
C2A C -0.1403(5) 0.6289(5) 1.1083(5)
H8A H -0.05831 0.70530 0.38972
C3A C -0.1830(5) 0.5641(5) 0.4298(5)
H9A H 0.46337 -0.10481 0.32329
C4A C 0.6234(5) -0.1302(5) 0.3790(5)
O5A O -0.1578(4) 0.7132(4) 1.0700(4)
O6A O -0.1845(4) 0.5939(3) 1.1987(4)
O11A O -0.2551(4) 0.5030(4) 0.4449(4)
O7A O -0.1839(3) 0.6540(3) 0.3854(4)
O8A O 0.7127(3) -0.1484(3) 0.3870(4)
O9A O 0.5839(3) -0.1660(3) 0.3155(4)
Eu1A Eu -0.26135(2) 0.74254(2) 1.25334(3)
Eu1A* Eu -0.26135(2) 0.74254(2) 0.25334(3)
Eu1A** Eu 0.73865(2) -0.25746(2) 0.25334(3)
O3A O -0.3899(3) 0.7173(3) 1.1551(4)
O7A* O -0.1839(3) 0.6540(3) 1.3854(4)
O2A O -0.2553(3) 0.8989(3) 1.1408(3)
O8A* O -0.2873(3) 0.8516(3) 1.3870(4)
O1A O -0.0916(3) 0.8110(3) 1.2269(3)
O4A O -0.3794(4) 0.6179(5) 1.3571(5)
O9A* O -0.4161(3) 0.8340(3) 1.3155(4)
C1A C -0.1912(5) 0.9637(5) 1.0853(5)
O10A O -0.1048(4) 0.9752(4) 1.1006(4)
C5A C -0.2251(5) 1.0297(5) 1.0014(5)
C10A C -0.1546(5) 1.0938(5) 0.9317(5)
C9A C -0.3254(5) 1.0281(5) 0.9894(5)
H1A H -0.08705 1.09225 0.93635
C18A C -0.1833(5) 1.1589(5) 0.8564(5)
C17A C -0.3547(5) 1.0944(5) 0.9139(5)
O12A O -0.3973(3) 0.9628(3) 1.0501(4)
C19A C -0.2847(5) 1.1610(5) 0.8470(5)
O16A O -0.1116(3) 1.2207(4) 0.7920(4)
H6A H -0.42187 1.09442 0.90779
H5A H -0.37172 0.92814 1.09162
C20A C -0.3172(5) 1.2329(5) 0.7653(5)
H10A H -0.13741 1.25354 0.74959
O17A O -0.4100(4) 1.2396(4) 0.7651(4)
O18A O -0.2484(4) 1.2821(4) 0.7000(4)
N3A N 0.3561(4) 0.1475(4) 0.1450(4)
N4A N 0.2076(4) 0.0853(4) 0.2173(4)
N5A N 0.1643(5) -0.0363(4) 0.3576(5)
N6A N 0.1347(5) -0.1582(4) 0.4984(5)
N7A N 0.2449(5) -0.2399(5) 0.5702(5)
C27A C 0.3058(5) 0.0810(5) 0.2188(5)
H25A H 0.33438 0.03854 0.26403
C28A C 0.2863(6) 0.1952(5) 0.0939(6)
H26A H 0.30117 0.24456 0.03845
C29A C 0.1932(6) 0.1571(5) 0.1394(6)
H27A H 0.13210 0.17522 0.12192
C30A C 0.1299(5) 0.0247(5) 0.2894(5)
C31A C 0.0289(5) 0.0319(5) 0.2817(6)
H28A H 0.00944 0.07482 0.23046
C32A C -0.0409(6) -0.0271(5) 0.3529(6)
H29A H -0.10904 -0.02391 0.35053
C33A C -0.0102(6) -0.0915(5) 0.4286(6)
H30A H -0.05621 -0.13124 0.47811
C34A C 0.0934(6) -0.0929(5) 0.4256(5)
C35A C 0.2329(7) -0.1766(6) 0.4894(6)
H31A H 0.28444 -0.15004 0.43628
C36A C 0.0812(7) -0.2102(5) 0.5887(6)
H32A H 0.01159 -0.21049 0.61340
C37A C 0.1509(7) -0.2604(6) 0.6335(6)
H33A H 0.13795 -0.30099 0.69530
C38A C 0.3408(7) -0.2848(6) 0.5849(7)
H34A H 0.33052 -0.35582 0.60063
H35A H 0.39040 -0.27071 0.52247
C39A C 0.3849(6) -0.2500(5) 0.6677(6)
C40A C 0.4559(7) -0.3099(6) 0.7071(7)
H36A H 0.47053 -0.37092 0.68692
C41A C 0.5043(6) -0.2796(6) 0.7753(7)
H37A H 0.55250 -0.31965 0.79933
C42A C 0.4819(6) -0.1897(6) 0.8086(6)
C43A C 0.4114(6) -0.1313(6) 0.7707(6)
H38A H 0.39643 -0.07072 0.79178
C44A C 0.3618(6) -0.1605(5) 0.7015(6)
H39A H 0.31333 -0.12036 0.67797
C45A C 0.4671(5) 0.1577(6) 0.1121(6)
H40A H 0.49432 0.09508 0.09608
H41A H 0.48356 0.20604 0.05168
#END
