
#######################################################################
#
#                 Cambridge Crystallographic Data Centre
#                                CCDC
#
#######################################################################
#
# If this CIF has been generated from an entry in the Cambridge
# Structural Database, then it will include bibliographic, chemical,
# crystal, experimental, refinement or atomic coordinate data resulting
# from the CCDC's data processing and validation procedures.
#
#######################################################################

data_CSD_CIF_YUJFOB
_audit_creation_date 2020-04-14
_audit_creation_method CSD-ConQuest-V1
_database_code_CSD YUJFOB
_database_code_depnum_ccdc_archive 'CCDC 1986328'
_chemical_formula_sum 'C65 H81 Cd1 N11 O33'
_chemical_formula_moiety
;
(C38 H34 N10 4+)n,n(C16 H12 Cd1 O14 2-),n(C8 H4 O6 2-),n(C3 H7 N1 O1),12n(H2 
O1)
;
_journal_coden_Cambridge 4
_journal_volume 142
_journal_year 2020
_journal_page_first 7443
_journal_name_full 'J.Am.Chem.Soc. '
loop_
_publ_author_name
"Xu-Lang Chen"
"Yun-Jia Shen"
"Chao Gao"
"Jian Yang"
"Xin Sun"
"Xin Zhang"
"Yu-Dong Yang"
"Gong-Ping Wei"
"Jun-Feng Xiang"
"J.L.Sessler"
"Han-Yuan Gong"
_chemical_name_systematic
;
catena-(3,6,12,15,22,25,31,34,42,47-deca-azanonacyclo[34.2.2.2^17,20^.1^3,6^.1
^7,11^.1^12,15^.1^22,25^.1^26,30^.1^31,34^]octatetraconta-1(38),3(48),4,7(47),
8,10,13,15(46),17,19,22(43),23,26(42),27,29,32,34(41),36,39,44-icosaene-3,15,2
2,34-tetraium 
(\m-2,5-dihydroxyterephthalato)-diaqua-(2,5-dihydroxyterephthalato)-cadmium 
2,5-dihydroxyterephthalate dimethylformamide solvate dodecahydrate)
;
_cell_volume   3629.435
_exptl_crystal_colour 'colorless'
_exptl_crystal_density_diffrn 1.516
_exptl_crystal_description 'Prism'
_diffrn_ambient_temperature 173.2
#These two values have been output from a single CSD field.
_refine_ls_R_factor_gt 0.0637
_refine_ls_wR_factor_gt 0.0637
_symmetry_cell_setting monoclinic
_symmetry_space_group_name_H-M 'P 21/m'
_symmetry_Int_Tables_number 11
loop_
_symmetry_equiv_pos_site_id
_symmetry_equiv_pos_as_xyz
1 x,y,z
2 -x,1/2+y,-z
3 -x,-y,-z
4 x,-1/2-y,z
_cell_length_a 12.880(3)
_cell_length_b 20.339(4)
_cell_length_c 15.174(3)
_cell_angle_alpha 90
_cell_angle_beta 114.07(3)
_cell_angle_gamma 90
_cell_formula_units_Z 2
loop_
_atom_type_symbol
_atom_type_radius_bond
C 0.68
H 0.23
Cd 1.44
N 0.68
O 0.68
loop_
_atom_site_label
_atom_site_type_symbol
_atom_site_fract_x
_atom_site_fract_y
_atom_site_fract_z
Cd1 Cd -0.19249(3) 0.25000 0.48980(3)
O1 O -0.2042(3) 0.13041(16) 0.4896(3)
O2 O -0.3200(5) 0.25000 0.3330(4)
O3 O -0.0583(3) 0.17708(14) 0.4744(2)
O4 O -0.0593(4) 0.25000 0.6516(4)
O5 O -0.3443(4) 0.25000 0.5276(4)
C1 C -0.1091(4) 0.1263(2) 0.4852(3)
C2 C -0.4502(5) 0.25000 0.4775(5)
C3 C -0.0529(3) 0.06115(19) 0.4927(3)
O6 O -0.4964(4) 0.25000 0.3868(4)
C4 C -0.5242(5) 0.25000 0.5329(4)
C5 C -0.1081(3) 0.00390(19) 0.4987(3)
C6 C 0.0570(3) 0.05697(19) 0.4938(3)
C7 C -0.6432(5) 0.25000 0.4843(4)
C8 C -0.4752(5) 0.25000 0.6354(4)
H1 H -0.18068 0.00641 0.49772
O7 O 0.1159(2) 0.11196(13) 0.4894(2)
H2 H -0.67658 0.25000 0.41718
C9 C -0.7119(5) 0.25000 0.5352(4)
O8 O -0.3609(4) 0.25000 0.6850(4)
C10 C -0.5440(5) 0.25000 0.6858(4)
H3 H 0.07631 0.14460 0.48379
O9 O -0.8282(4) 0.25000 0.4868(3)
C11 C -0.6624(5) 0.25000 0.6378(4)
H4 H -0.33044 0.25000 0.64694
H5 H -0.51060 0.25000 0.75295
H6 H -0.85725 0.25000 0.52591
C12 C -0.7348(6) 0.25000 0.6950(5)
O10 O -0.6851(4) 0.25000 0.7848(3)
O11 O -0.8414(4) 0.25000 0.6471(4)
O12 O 0.6425(3) 0.06762(19) 0.3049(3)
O13 O -0.0206(5) 0.25000 0.2895(4)
O14 O -0.2614(4) 0.25000 0.1832(4)
O15 O 0.6421(3) 0.1476(2) 0.0540(3)
O16 O 0.4833(3) 0.12307(19) 0.1280(3)
O17 O -0.6224(5) 0.25000 0.0949(4)
O18 O -0.7820(5) 0.25000 0.9106(4)
O19 O 0.2865(3) -0.0551(2) 0.0411(3)
O20 O 0.2840(3) 0.0545(2) 0.0281(2)
O21 O 0.1045(3) 0.11894(19) 0.0016(3)
H7 H 0.17088 0.11311 0.00981
C13 C 0.2367(4) -0.0009(3) 0.0279(3)
C14 C 0.1143(4) -0.0001(2) 0.0127(3)
C15 C 0.0583(4) -0.0588(2) 0.0121(3)
H8 H 0.09749 -0.09833 0.02043
C16 C 0.0543(4) 0.0595(2) 0.0008(3)
O22 O -0.7231(5) 0.25000 0.2284(4)
O23 O -0.4625(6) 0.25000 0.9299(4)
O24 O -0.0169(5) 0.25000 -0.1531(4)
N1 N -0.0918(5) 0.25000 -0.0405(5)
C17 C -0.0068(9) 0.25000 -0.0655(7)
H9 H 0.06617 0.25000 -0.01668
C18 C -0.2114(11) 0.25000 -0.1037(13)
H10 H -0.25555 0.25000 -0.06577
C19 C -0.0708(11) 0.25000 0.0612(7)
H11 H -0.14202 0.25000 0.06751
N2 N 0.2378(3) 0.11005(17) 0.2953(2)
N3 N 0.3934(3) 0.09206(17) 0.4208(2)
N4 N 0.4157(3) 0.08276(16) 0.5790(2)
N5 N 0.4180(3) 0.08098(17) 0.7318(2)
N6 N 0.2738(3) 0.08977(17) 0.7695(2)
C20 C 0.2826(3) 0.10530(19) 0.3912(3)
H12 H 0.24360 0.11031 0.43061
C21 C 0.3225(4) 0.0989(2) 0.2633(3)
H13 H 0.31375 0.09907 0.19938
C22 C 0.4194(4) 0.0876(2) 0.3407(3)
H14 H 0.49023 0.07866 0.34081
C23 C 0.4700(4) 0.08803(19) 0.5207(3)
C24 C 0.5862(4) 0.0913(2) 0.5503(3)
H15 H 0.61963 0.09406 0.50650
C25 C 0.6503(4) 0.0902(2) 0.6490(3)
H16 H 0.72916 0.09226 0.67256
C26 C 0.5993(4) 0.0860(2) 0.7132(3)
H17 H 0.64178 0.08552 0.77965
C27 C 0.4814(3) 0.0826(2) 0.6735(3)
C28 C 0.3064(4) 0.0940(2) 0.6975(3)
H18 H 0.25967 0.10417 0.63379
C29 C 0.4573(4) 0.0670(2) 0.8297(3)
H19 H 0.53131 0.05601 0.87117
C30 C 0.3671(4) 0.0726(2) 0.8529(3)
H20 H 0.36735 0.06605 0.91367
C31 C 0.1598(4) 0.1037(2) 0.7622(3)
H21 H 0.11896 0.12816 0.70327
H22 H 0.16561 0.13155 0.81595
C32 C 0.0913(4) 0.0431(2) 0.7622(3)
C33 C -0.0124(4) 0.0530(2) 0.7681(3)
H23 H -0.03695 0.09544 0.77213
C34 C -0.0795(4) -0.0008(2) 0.7678(3)
H24 H -0.14863 0.00601 0.77211
C35 C -0.0443(4) -0.0645(2) 0.7611(3)
C36 C 0.0592(4) -0.0740(2) 0.7560(3)
H25 H 0.08401 -0.11646 0.75263
C37 C 0.1269(4) -0.0208(2) 0.7560(3)
H26 H 0.19602 -0.02784 0.75175
C38 C 0.1161(4) 0.1226(2) 0.2364(3)
H27 H 0.10478 0.13115 0.17017
H28 H 0.09223 0.16125 0.26058
H29? H -0.22907 0.28854 -0.14368
H30? H -0.02826 0.21146 0.09168
O1B O 0.2042(3) -0.13041(16) 0.5104(3)
O3B O 0.0583(3) -0.17708(14) 0.5256(2)
C1B C 0.1091(4) -0.1263(2) 0.5148(3)
C3B C 0.0529(3) -0.06115(19) 0.5073(3)
C5B C 0.1081(3) -0.00390(19) 0.5013(3)
C6B C -0.0570(3) -0.05697(19) 0.5062(3)
H1B H 0.18068 -0.00641 0.50228
O7B O -0.1159(2) -0.11196(13) 0.5106(2)
H3B H -0.07631 -0.14460 0.51621
Cd1A Cd 0.19249(3) -0.25000 0.51020(3)
O1C O -0.2042(3) 0.36959(16) 0.4896(3)
O3C O -0.0583(3) 0.32292(14) 0.4744(2)
O19B O -0.2865(3) 0.0551(2) -0.0411(3)
O20B O -0.2840(3) -0.0545(2) -0.0281(2)
O21B O -0.1045(3) -0.11894(19) -0.0016(3)
H7B H -0.17088 -0.11311 -0.00981
C13B C -0.2367(4) 0.0009(3) -0.0279(3)
C14B C -0.1143(4) 0.0001(2) -0.0127(3)
C15B C -0.0583(4) 0.0588(2) -0.0121(3)
H8B H -0.09749 0.09833 -0.02043
C16B C -0.0543(4) -0.0595(2) -0.0008(3)
N2B N -0.2378(3) -0.11005(17) 0.7047(2)
N3B N -0.3934(3) -0.09206(17) 0.5792(2)
N4B N -0.4157(3) -0.08276(16) 0.4210(2)
N5B N -0.4180(3) -0.08098(17) 0.2682(2)
N6B N -0.2738(3) -0.08977(17) 0.2305(2)
C20B C -0.2826(3) -0.10530(19) 0.6088(3)
H12B H -0.24360 -0.11031 0.56939
C21B C -0.3225(4) -0.0989(2) 0.7367(3)
H13B H -0.31375 -0.09907 0.80062
C22B C -0.4194(4) -0.0876(2) 0.6593(3)
H14B H -0.49023 -0.07866 0.65919
C23B C -0.4700(4) -0.08803(19) 0.4793(3)
C24B C -0.5862(4) -0.0913(2) 0.4497(3)
H15B H -0.61963 -0.09406 0.49350
C25B C -0.6503(4) -0.0902(2) 0.3510(3)
H16B H -0.72916 -0.09226 0.32744
C26B C -0.5993(4) -0.0860(2) 0.2868(3)
H17B H -0.64178 -0.08552 0.22035
C27B C -0.4814(3) -0.0826(2) 0.3265(3)
C28B C -0.3064(4) -0.0940(2) 0.3025(3)
H18B H -0.25967 -0.10417 0.36621
C29B C -0.4573(4) -0.0670(2) 0.1703(3)
H19B H -0.53131 -0.05601 0.12883
C30B C -0.3671(4) -0.0726(2) 0.1471(3)
H20B H -0.36735 -0.06605 0.08633
C31B C -0.1598(4) -0.1037(2) 0.2378(3)
H21B H -0.11896 -0.12816 0.29673
H22B H -0.16561 -0.13155 0.18405
C32B C -0.0913(4) -0.0431(2) 0.2378(3)
C33B C 0.0124(4) -0.0530(2) 0.2319(3)
H23B H 0.03695 -0.09544 0.22787
C34B C 0.0795(4) 0.0008(2) 0.2322(3)
H24B H 0.14863 -0.00601 0.22789
C35B C 0.0443(4) 0.0645(2) 0.2389(3)
C36B C -0.0592(4) 0.0740(2) 0.2440(3)
H25B H -0.08401 0.11646 0.24737
C37B C -0.1269(4) 0.0208(2) 0.2440(3)
H26B H -0.19602 0.02784 0.24825
C38B C -0.1161(4) -0.1226(2) 0.7636(3)
H27B H -0.10478 -0.13115 0.82983
H28B H -0.09223 -0.16125 0.73942
#END
