
#######################################################################
#
#                 Cambridge Crystallographic Data Centre
#                                CCDC
#
#######################################################################
#
# If this CIF has been generated from an entry in the Cambridge
# Structural Database, then it will include bibliographic, chemical,
# crystal, experimental, refinement or atomic coordinate data resulting
# from the CCDC's data processing and validation procedures.
#
#######################################################################

data_CSD_CIF_YUJWAD01
_audit_creation_date 2015-07-01
_audit_creation_method CSD-ConQuest-V1
_database_code_CSD YUJWAD01
_database_code_depnum_ccdc_archive 'CCDC 1031344'
_chemical_formula_sum 'C24 H34 Li4 N4 O33 Zr2'
_chemical_formula_moiety
;
(C16 H2 Li4 O33 Zr2 4-)n,4(C2 H8 N1 1+)
;
_journal_coden_Cambridge 4
_journal_volume 137
_journal_year 2015
_journal_page_first 6428
_journal_name_full 'J.Am.Chem.Soc. '
loop_
_publ_author_name
"S.Tominaka"
"F.-X.Coudert"
"T.D.Dao"
"T.Nagao"
"A.K.Cheetham"
_chemical_name_systematic
;
catena-[tetrakis(Dimethylammonium) 
bis(\m~4~-oxalato)-bis(\m~3~-oxalato)-tetrakis(\m~2~-oxalato)-aqua-tetra-lithi
um-di-zirconium]
;
_cell_volume   1077.278
_exptl_crystal_colour 'colorless'
_exptl_crystal_density_diffrn 1.721
_exptl_special_details
;
Absolute configuration

;
_exptl_crystal_description 'prism'
_diffrn_ambient_temperature 299
#These two values have been output from a single CSD field.
_refine_ls_R_factor_gt 0.0423
_refine_ls_wR_factor_gt 0.0423
_symmetry_cell_setting triclinic
_symmetry_space_group_name_H-M 'P 1'
_symmetry_Int_Tables_number 1
loop_
_symmetry_equiv_pos_site_id
_symmetry_equiv_pos_as_xyz
1 x,y,z
_cell_length_a 8.5302(6)
_cell_length_b 8.5902(6)
_cell_length_c 16.1582(12)
_cell_angle_alpha 89.309(6)
_cell_angle_beta 78.004(6)
_cell_angle_gamma 68.812(6)
_cell_formula_units_Z 1
loop_
_atom_type_symbol
_atom_type_radius_bond
C 0.68
H 0.23
Li 1.28
N 0.68
O 0.68
Zr 1.75
loop_
_atom_site_label
_atom_site_type_symbol
_atom_site_fract_x
_atom_site_fract_y
_atom_site_fract_z
Zr1 Zr 0.59693(5) 0.73780(5) 0.58595(3)
O1 O 0.4054(12) 0.9400(13) 0.6702(6)
O2 O 0.6604(13) 0.5373(13) 0.4841(7)
O3 O 0.8746(13) 0.5758(12) 0.5659(6)
O4 O 0.6062(14) 0.5772(13) 0.6906(7)
O5 O 0.7295(11) 0.8422(12) 0.6604(7)
O6 O 0.4205(13) 0.8751(14) 0.5042(7)
O7 O 0.7260(12) 0.8625(14) 0.4900(7)
O8 O 0.3735(16) 0.6582(17) 0.6100(8)
C1 C 0.446(2) 1.0171(19) 0.7187(10)
C2 C 0.816(2) 0.4375(19) 0.4604(10)
C3 C 0.9416(18) 0.4535(19) 0.5089(10)
C4 C 0.491(2) 0.520(2) 0.7205(11)
C5 C 0.6531(18) 0.952(2) 0.7084(10)
C6 C 0.462(2) 0.9676(18) 0.4501(10)
C7 C 0.6452(18) 0.9629(18) 0.4410(8)
C8 C 0.3383(19) 0.5759(18) 0.6743(9)
O9 O 0.3497(15) 1.1341(14) 0.7736(7)
O10 O 0.8683(16) 0.3205(16) 0.4021(8)
O11 O 1.0902(13) 0.3544(13) 0.4903(7)
O12 O 0.4946(19) 0.4354(16) 0.7785(10)
O13 O 0.6988(14) 1.0389(17) 0.7551(8)
O14 O 0.3719(14) 1.0590(13) 0.4047(7)
O15 O 0.7044(15) 1.0420(15) 0.3885(8)
O16 O 0.2166(14) 0.5472(18) 0.6959(7)
Li1 Li 0.477(7) 1.205(8) 0.850(4)
Li2 Li 0.825(3) 0.185(3) 0.3220(17)
Li3 Li 1.148(3) 0.218(3) 0.3787(15)
Li4 Li 0.4692(19) 1.242(2) 0.3778(10)
O17 O 0.6234(15) 1.2629(15) 0.9218(8)
O18 O 0.2706(15) 1.3577(13) 0.9396(7)
O19 O 0.5029(18) 0.928(2) 0.9086(9)
O20 O 0.6023(14) 0.3417(13) 0.2923(7)
O21 O 0.2703(14) 1.3553(14) 0.3098(8)
O22 O 0.1087(15) 1.0680(15) 0.2953(8)
O23 O 0.8851(13) 1.0357(14) 0.2070(8)
C9 C 0.5115(17) 0.4316(17) 0.2490(9)
C10 C 0.1658(17) 0.9610(18) 0.2390(9)
O24 O 0.4266(8) 0.3468(9) 0.4886(4)
C11 C 0.3215(18) 0.4392(16) 0.2563(10)
O25 O 0.5527(11) 0.5237(13) 0.1945(6)
C12 C 0.0343(18) 0.9400(18) 0.1893(9)
O26 O 0.3175(14) 0.8538(13) 0.2141(7)
H1 H 0.44390 0.27280 0.52880
H2 H 0.31800 0.42010 0.50580
O27 O 0.2422(14) 0.5314(14) 0.2058(7)
Zr2 Zr 0.37781(5) 0.65760(5) 0.11165(3)
O28 O 0.097(1) 0.8191(11) 0.1330(6)
O29 O 0.6033(16) 0.7298(17) 0.0887(8)
O30 O 0.3623(15) 0.8143(15) 0.0078(7)
O31 O 0.2407(13) 0.5556(14) 0.0415(7)
O32 O 0.5671(14) 0.4498(13) 0.0303(8)
C13 C 0.633(3) 0.802(2) 0.0234(13)
C14 C 0.495(3) 0.853(3) -0.0286(13)
C15 C 0.3356(18) 0.4207(16) -0.0198(8)
C16 C 0.525(2) 0.366(2) -0.0263(10)
O33 O 0.7722(16) 0.8338(19) -0.0009(10)
C17 C 0.005(2) 0.992(2) 0.5588(14)
H3 H 0.08200 1.04220 0.52920
H4 H -0.01060 1.01110 0.61880
H5 H -0.10480 1.04060 0.54320
C18 C 0.138(2) 0.755(3) 0.4454(11)
H6 H 0.05160 0.81710 0.41530
H7 H 0.15980 0.63770 0.43780
H8 H 0.24230 0.77470 0.42370
N1 N 0.0774(15) 0.8085(16) 0.5356(9)
H9 H 0.16630 0.76190 0.56100
H10 H -0.00360 0.76640 0.55740
C19 C -0.030(3) 0.308(3) 0.7313(17)
H11 H -0.03210 0.28830 0.67310
H12 H -0.11040 0.26810 0.76760
H13 H 0.08350 0.24890 0.74030
C20 C -0.104(3) 0.518(3) 0.8376(14)
H14 H -0.11550 0.63230 0.84520
H15 H -0.00850 0.44670 0.85970
H16 H -0.20780 0.50420 0.86730
N2 N -0.0756(18) 0.4733(17) 0.7494(7)
H17 H -0.17230 0.52910 0.73110
H18 H 0.00820 0.50620 0.72070
C21 C 0.835(2) 1.636(2) 1.2516(11)
H19 H 0.77030 1.75370 1.26180
H20 H 0.93400 1.60660 1.27650
H21 H 0.76420 1.57510 1.27640
C22 C 0.9640(19) 1.408(2) 1.1413(13)
H22 H 1.00600 1.38140 1.08130
H23 H 0.87530 1.36410 1.16150
H24 H 1.05690 1.35940 1.16980
N3 N 0.8926(18) 1.5921(18) 1.1587(9)
H25 H 0.80280 1.63760 1.13380
H26 H 0.97350 1.63430 1.13680
C23 C 0.014(2) 1.098(2) 0.9660(12)
H27 H 0.11040 1.13000 0.94250
H28 H -0.01660 1.12160 1.02640
H29 H -0.08210 1.16080 0.94190
C24 C 0.095(3) 0.864(3) 0.8542(12)
H30 H 0.14170 0.93720 0.82160
H31 H -0.01190 0.87350 0.83970
H32 H 0.17460 0.75050 0.84190
N4 N 0.063(2) 0.911(2) 0.9454(11)
H33 H 0.15860 0.85380 0.96440
H34 H -0.02220 0.87940 0.97350
Li1* Li 0.477(7) 0.205(8) 0.850(4)
Li3* Li 0.148(3) 1.218(3) 0.3787(15)
Li2* Li 0.825(3) 1.185(3) 0.3220(17)
O12* O 0.4946(19) 1.4354(16) 0.7785(10)
O15* O 0.7044(15) 0.0420(15) 0.3885(8)
O10* O -0.1317(16) 1.3205(16) 0.4021(8)
O11* O 0.0902(13) 1.3544(13) 0.4903(7)
O20* O 0.6023(14) 1.3417(13) 0.2923(7)
O10** O 0.8683(16) 1.3205(16) 0.4021(8)
O22* O 1.1087(15) 1.0680(15) 0.2953(8)
Li4* Li 0.4692(19) 0.242(2) 0.3778(10)
Li2** Li -0.175(3) 1.185(3) 0.3220(17)
O14* O 0.3719(14) 0.0590(13) 0.4047(7)
O21* O 0.2703(14) 0.3553(14) 0.3098(8)
O23* O -0.1149(13) 1.0357(14) 0.2070(8)
Li3** Li 0.148(3) 0.218(3) 0.3787(15)
O19* O 0.5029(18) 0.928(2) -0.0914(9)
O18* O 0.2706(15) 0.3577(13) -0.0604(7)
O17* O 0.6234(15) 0.2629(15) -0.0782(8)
Li1** Li 0.477(7) 1.205(8) -0.150(4)
Li1*** Li 0.477(7) 0.205(8) -0.150(4)
#END
