
#######################################################################
#
#                 Cambridge Crystallographic Data Centre
#                                CCDC
#
#######################################################################
#
# If this CIF has been generated from an entry in the Cambridge
# Structural Database, then it will include bibliographic, chemical,
# crystal, experimental, refinement or atomic coordinate data resulting
# from the CCDC's data processing and validation procedures.
#
#######################################################################

data_CSD_CIF_YUJWAD
_audit_creation_date 2015-07-01
_audit_creation_method CSD-ConQuest-V1
_database_code_CSD YUJWAD
_database_code_depnum_ccdc_archive 'CCDC 1031343'
_chemical_formula_sum 'C24 H34 Li4 N4 O33 Zr2'
_chemical_formula_moiety
;
(C2 H8 N1 1+)4n,n(C16 H2 Li4 O33 Zr2 4-)
;
_journal_coden_Cambridge 4
_journal_volume 137
_journal_year 2015
_journal_page_first 6428
_journal_name_full 'J.Am.Chem.Soc. '
loop_
_publ_author_name
"S.Tominaka"
"F.-X.Coudert"
"T.D.Dao"
"T.Nagao"
"A.K.Cheetham"
_chemical_name_systematic
;
catena-[tetrakis(Dimethylammonium) 
bis(\m~4~-oxalato)-bis(\m~3~-oxalato)-tetrakis(\m~2~-oxalato)-aqua-tetra-lithi
um-di-zirconium]
;
_cell_volume   1062.209
_exptl_crystal_colour 'colorless'
_exptl_crystal_density_diffrn 1.746
_exptl_special_details
;
Absolute configuration

;
_exptl_crystal_description 'prism'
_diffrn_ambient_temperature 120.0
#These two values have been output from a single CSD field.
_refine_ls_R_factor_gt 0.0459
_refine_ls_wR_factor_gt 0.0459
_symmetry_cell_setting triclinic
_symmetry_space_group_name_H-M 'P 1'
_symmetry_Int_Tables_number 1
loop_
_symmetry_equiv_pos_site_id
_symmetry_equiv_pos_as_xyz
1 x,y,z
_cell_length_a 8.4752(3)
_cell_length_b 8.4797(3)
_cell_length_c 16.1725(5)
_cell_angle_alpha 78.177(3)
_cell_angle_beta 89.232(3)
_cell_angle_gamma 69.334(3)
_cell_formula_units_Z 1
loop_
_atom_type_symbol
_atom_type_radius_bond
C 0.68
H 0.23
Li 1.28
N 0.68
O 0.68
Zr 1.75
loop_
_atom_site_label
_atom_site_type_symbol
_atom_site_fract_x
_atom_site_fract_y
_atom_site_fract_z
Li1 Li 0.242(3) 0.757(3) 0.0912(14)
Li2 Li 0.204(3) 1.099(3) 0.5653(15)
Li3 Li 1.187(2) 0.774(2) 0.5723(10)
Li4 Li 0.240(3) 0.420(3) 0.6260(14)
C1 C 0.9903(15) 0.7339(17) 0.6988(8)
C2 C 0.9994(17) 0.9168(18) 0.9624(8)
C3 C 0.4585(16) 1.0897(17) 0.7091(8)
C4 C 0.9776(18) 0.9301(19) 0.6885(9)
C5 C 1.0498(17) 0.7230(18) 0.9682(9)
C6 C 0.6088(18) 0.611(2) 0.9250(9)
C7 C 0.4804(16) 1.2154(17) 0.7592(9)
C8 C 0.5527(19) 0.756(2) 0.9747(10)
C9 C 0.3939(18) 0.8085(19) 0.2246(9)
C10 C 0.452(2) 0.607(2) 0.235(1)
C11 C 0.9897(17) 0.4416(19) 0.4849(9)
C12 C 0.9684(17) 0.3085(19) 0.4355(9)
C13 C 0.8430(19) 0.916(2) 0.2697(10)
C14 C 0.886(2) 0.770(2) 0.2188(11)
C15 C 0.4649(16) 0.6051(18) 0.5079(8)
C16 C 0.4613(16) 0.7872(18) 0.4989(8)
O1 O 0.3487(13) 1.1442(13) 0.6528(7)
O2 O 1.1053(13) 0.3803(14) 0.5432(7)
O3 O 0.2855(13) 0.9019(14) 0.1731(7)
O4 O 1.1624(14) 0.6209(15) 1.0244(7)
O5 O 1.0644(12) 0.9803(11) 0.6344(6)
O6 O 1.0862(6) 0.8204(6) 0.4599(3)
H1 H 1.00490 0.76420 0.45150
H2 H 1.16370 0.78770 0.41460
O7 O 0.4800(12) 0.8486(13) 0.2795(6)
O8 O 0.6024(13) 0.8854(13) 0.9401(7)
O9 O 0.5585(12) 0.9338(13) 0.7341(7)
O10 O 0.8874(12) 0.5926(13) 0.4601(6)
O11 O 0.9665(13) 0.6792(13) 0.9192(7)
O12 O 0.8488(12) 0.3759(13) 0.3778(6)
O13 O 0.8896(11) 1.0049(13) 0.7388(6)
O14 O 0.3889(12) 1.3689(13) 0.7408(6)
O15 O 1.0689(13) 0.1596(14) 0.4532(7)
O16 O 0.5758(13) 0.5222(13) 0.2882(7)
O17 O 0.8959(13) 0.6975(14) 0.7518(7)
O18 O 1.0764(11) 0.6468(12) 0.6536(6)
O19 O 0.3695(13) 0.5490(14) 0.1926(6)
O20 O 0.6002(12) 1.1499(13) 0.8170(6)
O21 O 0.8723(12) 1.0058(12) 0.9057(6)
O22 O 1.0706(13) 0.9723(13) 1.0033(6)
O23 O 0.4958(15) 0.7385(15) 1.0435(8)
O24 O 0.5795(15) 0.4770(13) 0.9501(7)
O25 O 0.6855(14) 0.6463(15) 0.8555(7)
O26 O 0.3664(12) 0.8832(13) 0.5428(6)
O27 O 0.3889(14) 0.5438(15) 0.5622(8)
O28 O 0.5664(12) 0.5216(13) 0.4561(6)
O29 O 0.5528(11) 0.8349(12) 0.4417(6)
O30 O 0.7711(13) 0.8784(14) 0.3344(7)
O31 O 0.8379(12) 0.6475(12) 0.2522(6)
O32 O 0.8730(16) 1.0448(15) 0.2467(8)
O33 O 0.9848(12) 0.7651(13) 0.1632(6)
Zr1 Zr 0.68592(5) 0.65558(5) 0.35981(3)
Zr2 Zr 0.76287(5) 0.87021(5) 0.83557(3)
C17 C 0.7843(19) 0.411(2) 0.6933(9)
H3 H 0.82380 0.50250 0.66960
H4 H 0.66370 0.45060 0.68380
H5 H 0.83560 0.31500 0.66680
C18 C 1.0177(19) 0.283(2) 0.8054(11)
H6 H 1.06660 0.19060 0.77640
H7 H 1.04400 0.23990 0.86520
H8 H 1.06280 0.37220 0.78600
N1 N 0.8318(15) 0.3540(16) 0.7880(8)
H9 H 0.78670 0.44480 0.81260
H10 H 0.78850 0.27320 0.81080
C19 C 0.3242(19) 0.227(2) 0.9836(11)
H11 H 0.30160 0.26090 0.92330
H12 H 0.26100 0.32050 1.00920
H13 H 0.29150 0.12900 1.00490
C20 C 0.545(2) 0.162(2) 1.0958(10)
H14 H 0.66500 0.11200 1.10870
H15 H 0.49180 0.08930 1.12860
H16 H 0.50240 0.27410 1.10940
N2 N 0.5081(15) 0.1788(16) 1.0044(8)
H17 H 0.56550 0.07810 0.98970
H18 H 0.54380 0.26000 0.97410
C21 C 1.1247(19) 1.291(2) 0.2129(12)
H19 H 1.16590 1.37120 0.17720
H20 H 1.18480 1.17670 0.20430
H21 H 1.14170 1.29380 0.27110
C22 C 0.896(2) 1.359(3) 0.1017(12)
H22 H 0.91450 1.45850 0.06910
H23 H 0.77860 1.37440 0.09520
H24 H 0.96340 1.25830 0.08200
N3 N 0.9433(14) 1.3383(16) 0.1918(7)
H25 H 0.88700 1.43790 0.20780
H26 H 0.90870 1.25660 0.22250
C23 C 0.667(2) 0.1150(19) 0.5007(9)
H27 H 0.78690 0.05730 0.50900
H28 H 0.61180 0.03690 0.52590
H29 H 0.63270 0.21310 0.52660
C24 C 0.4316(18) 0.2491(19) 0.3885(11)
H30 H 0.41150 0.28450 0.32810
H31 H 0.38270 0.34730 0.41370
H32 H 0.38110 0.16480 0.40960
N4 N 0.6189(14) 0.1716(14) 0.4109(7)
H33 H 0.66330 0.08080 0.38630
H34 H 0.66520 0.25030 0.38880
Li1* Li 0.242(3) 0.757(3) 1.0912(14)
Li1** Li 1.242(3) 0.757(3) 0.0912(14)
Li1*** Li 1.242(3) 0.757(3) 1.0912(14)
Li2* Li 1.204(3) 0.099(3) 0.5653(15)
Li2** Li 1.204(3) 1.099(3) 0.5653(15)
Li3* Li 0.187(2) 0.774(2) 0.5723(10)
Li4* Li 0.240(3) 1.420(3) 0.6260(14)
Li4** Li 1.240(3) 0.420(3) 0.6260(14)
O1* O 0.3487(13) 0.1442(13) 0.6528(7)
O2* O 0.1053(13) 0.3803(14) 0.5432(7)
O2** O 0.1053(13) 1.3803(14) 0.5432(7)
O4* O 0.1624(14) 0.6209(15) 0.0244(7)
O5* O 0.0644(12) 0.9803(11) 0.6344(6)
O14* O 0.3889(12) 0.3689(13) 0.7408(6)
O15* O 0.0689(13) 1.1596(14) 0.4532(7)
O18* O 0.0764(11) 0.6468(12) 0.6536(6)
O22* O 0.0706(13) 0.9723(13) 0.0033(6)
O23* O 0.4958(15) 0.7385(15) 0.0435(8)
O26* O 1.3664(12) 0.8832(13) 0.5428(6)
O27* O 1.3889(14) 0.5438(15) 0.5622(8)
O33* O -0.0152(12) 0.7651(13) 0.1632(6)
#END
