
#######################################################################
#
#                 Cambridge Crystallographic Data Centre
#                                CCDC
#
#######################################################################
#
# If this CIF has been generated from an entry in the Cambridge
# Structural Database, then it will include bibliographic, chemical,
# crystal, experimental, refinement or atomic coordinate data resulting
# from the CCDC's data processing and validation procedures.
#
#######################################################################

data_CSD_CIF_YUKTUU05
_audit_creation_date 2014-11-26
_audit_creation_method CSD-ConQuest-V1
_database_code_CSD YUKTUU05
_database_code_depnum_ccdc_archive 'CCDC 1036392'
_chemical_formula_sum 'C4 H9 Mn1 N3 O6'
_chemical_formula_moiety
;
(C3 H3 Mn1 O6 1-)n,C1 H6 N3 1+
;
_journal_coden_Cambridge 4
_journal_volume 136
_journal_year 2014
_journal_page_first 7801
_journal_name_full 'J.Am.Chem.Soc. '
loop_
_publ_author_name
"Wei Li"
"A.Thirumurugan"
"P.T.Barton"
"Zheshuai Lin"
"S.Henke"
"H.H.-M Yeung"
"M.T.Wharmby"
"E.G.Bithell"
"C.J.Howard"
"A.K.Cheetham"
_chemical_name_systematic
;
catena-[diaminomethaniminium tris(\m~2~-formato)-manganese]
;
_cell_volume    928.530
_exptl_crystal_colour 'colorless'
_exptl_crystal_density_diffrn 1.789
_exptl_crystal_description 'block'
_diffrn_ambient_temperature 373
_refine_special_details
;
H2A,H2B and H2A,H2B disordered over two sites with occupancies 0.5:0.5.

;
#These two values have been output from a single CSD field.
_refine_ls_R_factor_gt 0.0227
_refine_ls_wR_factor_gt 0.0227
_symmetry_cell_setting orthorhombic
_symmetry_space_group_name_H-M 'P n n a'
_symmetry_Int_Tables_number 52
loop_
_symmetry_equiv_pos_site_id
_symmetry_equiv_pos_as_xyz
1 x,y,z
2 1/2-x,-y,z
3 x,1/2-y,1/2-z
4 1/2-x,1/2+y,1/2-z
5 -x,-y,-z
6 -1/2+x,y,-z
7 -x,-1/2+y,-1/2+z
8 -1/2+x,-1/2-y,-1/2+z
_cell_length_a 8.5471(3)
_cell_length_b 12.0046(4)
_cell_length_c 9.0496(3)
_cell_angle_alpha 90
_cell_angle_beta 90
_cell_angle_gamma 90
_cell_formula_units_Z 4
loop_
_atom_type_symbol
_atom_type_radius_bond
C 0.68
H 0.23
Mn 1.61
N 0.68
O 0.68
loop_
_atom_site_label
_atom_site_type_symbol
_atom_site_fract_x
_atom_site_fract_y
_atom_site_fract_z
Mn1 Mn 0.25034(3) 0.75000 0.25000
O1 O 0.44416(14) 0.69167(9) 0.38830(12)
O2 O 0.59710(15) 0.68083(9) 0.58373(13)
O3 O 0.24557(14) 0.59213(9) 0.13000(12)
C1 C 0.4824(2) 0.71722(15) 0.51568(17)
H1 H 0.41940 0.76840 0.56470
C2 C 0.25000 0.50000 0.1909(3)
H2 H 0.25000 0.50000 0.29360
N1 N 0.1647(2) 0.57328(13) -0.18725(16)
H3 H 0.16450 0.57340 -0.09220
H4 H 0.10920 0.62100 -0.23500
N2 N 0.25000 0.50000 -0.4053(2)
H5 H 0.19440 0.54780 -0.45290
C3 C 0.25000 0.50000 -0.2597(2)
H6? H 0.19440 0.54780 -0.45290
O3A O 0.25443(14) 0.40787(9) 0.13000(12)
O1B O 0.44416(14) 0.80833(9) 0.11170(12)
O2B O 0.59710(15) 0.81917(9) -0.08373(13)
C1B C 0.4824(2) 0.78278(15) -0.01568(17)
H1B H 0.41940 0.73160 -0.06470
Mn1A Mn 0.24966(3) 0.25000 0.25000
Mn1E Mn 0.75034(3) 0.75000 -0.25000
Mn1E* Mn 0.75034(3) 0.75000 0.75000
O2E O 0.09710(15) 0.68083(9) 0.41627(13)
O2G O 0.09710(15) 0.81917(9) 0.08373(13)
O3B O 0.24557(14) 0.90787(9) 0.37000(12)
H5A H 0.30560 0.45220 -0.45290
N1A N 0.3353(2) 0.42672(13) -0.18725(16)
H3A H 0.33550 0.42660 -0.09220
H4A H 0.39080 0.37900 -0.23500
#END
