
#######################################################################
#
#                 Cambridge Crystallographic Data Centre
#                                CCDC
#
#######################################################################
#
# If this CIF has been generated from an entry in the Cambridge
# Structural Database, then it will include bibliographic, chemical,
# crystal, experimental, refinement or atomic coordinate data resulting
# from the CCDC's data processing and validation procedures.
#
#######################################################################

data_CSD_CIF_YUKTUU02
_audit_creation_date 2014-11-26
_audit_creation_method CSD-ConQuest-V1
_database_code_CSD YUKTUU02
_database_code_depnum_ccdc_archive 'CCDC 1036389'
_chemical_formula_sum 'C4 H9 Mn1 N3 O6'
_chemical_formula_moiety
;
(C3 H3 Mn1 O6 1-)n,C1 H6 N3 1+
;
_journal_coden_Cambridge 4
_journal_volume 136
_journal_year 2014
_journal_page_first 7801
_journal_name_full 'J.Am.Chem.Soc. '
loop_
_publ_author_name
"Wei Li"
"A.Thirumurugan"
"P.T.Barton"
"Zheshuai Lin"
"S.Henke"
"H.H.-M Yeung"
"M.T.Wharmby"
"E.G.Bithell"
"C.J.Howard"
"A.K.Cheetham"
_chemical_name_systematic
;
catena-[diaminomethaniminium tris(\m~2~-formato)-manganese]
;
_cell_volume    924.949
_exptl_crystal_colour 'colorless'
_exptl_crystal_density_diffrn 1.796
_exptl_crystal_description 'block'
_diffrn_ambient_temperature 313
_refine_special_details
;
H2A,H2B and H2A,H2B disordered over two sites with occupancies 0.5:0.5.

;
#These two values have been output from a single CSD field.
_refine_ls_R_factor_gt 0.0228
_refine_ls_wR_factor_gt 0.0228
_symmetry_cell_setting orthorhombic
_symmetry_space_group_name_H-M 'P n n a'
_symmetry_Int_Tables_number 52
loop_
_symmetry_equiv_pos_site_id
_symmetry_equiv_pos_as_xyz
1 x,y,z
2 1/2-x,-y,z
3 x,1/2-y,1/2-z
4 1/2-x,1/2+y,1/2-z
5 -x,-y,-z
6 -1/2+x,y,-z
7 -x,-1/2+y,-1/2+z
8 -1/2+x,-1/2-y,-1/2+z
_cell_length_a 8.5220(3)
_cell_length_b 11.9877(4)
_cell_length_c 9.0540(3)
_cell_angle_alpha 90
_cell_angle_beta 90
_cell_angle_gamma 90
_cell_formula_units_Z 4
loop_
_atom_type_symbol
_atom_type_radius_bond
C 0.68
H 0.23
Mn 1.61
N 0.68
O 0.68
loop_
_atom_site_label
_atom_site_type_symbol
_atom_site_fract_x
_atom_site_fract_y
_atom_site_fract_z
Mn1 Mn 0.24866(3) 0.75000 0.25000
O1 O 0.44309(13) 0.69132(9) 0.38772(11)
O2 O 0.59585(14) 0.67991(8) 0.58391(12)
O3 O 0.24400(13) 0.59239(9) 0.12887(12)
C1 C 0.48067(19) 0.71679(14) 0.51543(16)
H1 H 0.41720 0.76800 0.56430
C2 C 0.25000 0.50000 0.1899(2)
H2 H 0.25000 0.50000 0.29260
N1 N 0.16403(19) 0.57322(12) -0.18763(15)
H3 H 0.16370 0.57350 -0.09260
H4 H 0.10820 0.62080 -0.23550
N2 N 0.25000 0.50000 -0.4058(2)
H5 H 0.30600 0.45230 -0.45330
C3 C 0.25000 0.50000 -0.2598(2)
H6? H 0.30600 0.45230 -0.45330
O3A O 0.25600(13) 0.40761(9) 0.12887(12)
O1B O 0.44309(13) 0.80868(9) 0.11228(11)
O2B O 0.59585(14) 0.82009(8) -0.08391(12)
C1B C 0.48067(19) 0.78321(14) -0.01543(16)
H1B H 0.41720 0.73200 -0.06430
Mn1A Mn 0.25134(3) 0.25000 0.25000
Mn1E Mn 0.74866(3) 0.75000 -0.25000
Mn1E* Mn 0.74866(3) 0.75000 0.75000
O2E O 0.09585(14) 0.67991(8) 0.41609(12)
O2G O 0.09585(14) 0.82009(8) 0.08391(12)
O3B O 0.24400(13) 0.90761(9) 0.37113(12)
H5A H 0.19400 0.54770 -0.45330
N1A N 0.33597(19) 0.42678(12) -0.18763(15)
H3A H 0.33630 0.42650 -0.09260
H4A H 0.39180 0.37920 -0.23550
#END
