
#######################################################################
#
#                 Cambridge Crystallographic Data Centre
#                                CCDC
#
#######################################################################
#
# If this CIF has been generated from an entry in the Cambridge
# Structural Database, then it will include bibliographic, chemical,
# crystal, experimental, refinement or atomic coordinate data resulting
# from the CCDC's data processing and validation procedures.
#
#######################################################################

data_CSD_CIF_YUKTUU04
_audit_creation_date 2014-11-26
_audit_creation_method CSD-ConQuest-V1
_database_code_CSD YUKTUU04
_database_code_depnum_ccdc_archive 'CCDC 1036391'
_chemical_formula_sum 'C4 H9 Mn1 N3 O6'
_chemical_formula_moiety
;
(C3 H3 Mn1 O6 1-)n,C1 H6 N3 1+
;
_journal_coden_Cambridge 4
_journal_volume 136
_journal_year 2014
_journal_page_first 7801
_journal_name_full 'J.Am.Chem.Soc. '
loop_
_publ_author_name
"Wei Li"
"A.Thirumurugan"
"P.T.Barton"
"Zheshuai Lin"
"S.Henke"
"H.H.-M Yeung"
"M.T.Wharmby"
"E.G.Bithell"
"C.J.Howard"
"A.K.Cheetham"
_chemical_name_systematic
;
catena-[diaminomethaniminium tris(\m~2~-formato)-manganese]
;
_cell_volume    927.414
_exptl_crystal_colour 'colorless'
_exptl_crystal_density_diffrn 1.791
_exptl_crystal_description 'block'
_diffrn_ambient_temperature 353
_refine_special_details
;
H2A,H2B and H2A,H2B disordered over two sites with occupancies 0.5:0.5.

;
#These two values have been output from a single CSD field.
_refine_ls_R_factor_gt 0.0219
_refine_ls_wR_factor_gt 0.0219
_symmetry_cell_setting orthorhombic
_symmetry_space_group_name_H-M 'P n n a'
_symmetry_Int_Tables_number 52
loop_
_symmetry_equiv_pos_site_id
_symmetry_equiv_pos_as_xyz
1 x,y,z
2 1/2-x,-y,z
3 x,1/2-y,1/2-z
4 1/2-x,1/2+y,1/2-z
5 -x,-y,-z
6 -1/2+x,y,-z
7 -x,-1/2+y,-1/2+z
8 -1/2+x,-1/2-y,-1/2+z
_cell_length_a 8.5389(3)
_cell_length_b 11.9989(4)
_cell_length_c 9.0517(3)
_cell_angle_alpha 90
_cell_angle_beta 90
_cell_angle_gamma 90
_cell_formula_units_Z 4
loop_
_atom_type_symbol
_atom_type_radius_bond
C 0.68
H 0.23
Mn 1.61
N 0.68
O 0.68
loop_
_atom_site_label
_atom_site_type_symbol
_atom_site_fract_x
_atom_site_fract_y
_atom_site_fract_z
Mn1 Mn 0.24973(3) 0.75000 0.25000
O1 O 0.44373(13) 0.69164(9) 0.38812(11)
O2 O 0.59674(14) 0.68051(8) 0.58378(12)
O3 O 0.24494(13) 0.59234(9) 0.12967(11)
C1 C 0.48185(18) 0.71704(14) 0.51538(16)
H1 H 0.41860 0.76820 0.56440
C2 C 0.25000 0.50000 0.1903(2)
H2 H 0.25000 0.50000 0.29310
N1 N 0.1646(2) 0.57326(12) -0.18739(15)
H3 H 0.16440 0.57340 -0.09240
H4 H 0.10900 0.62090 -0.23520
N2 N 0.25000 0.50000 -0.4055(2)
H5 H 0.30570 0.45220 -0.45300
C3 C 0.25000 0.50000 -0.2597(2)
H6? H 0.30570 0.45220 -0.45300
O3A O 0.25506(13) 0.40766(9) 0.12967(11)
O1B O 0.44373(13) 0.80836(9) 0.11188(11)
O2B O 0.59674(14) 0.81949(8) -0.08378(12)
C1B C 0.48185(18) 0.78296(14) -0.01538(16)
H1B H 0.41860 0.73180 -0.06440
Mn1A Mn 0.25027(3) 0.25000 0.25000
Mn1E Mn 0.74973(3) 0.75000 -0.25000
Mn1E* Mn 0.74973(3) 0.75000 0.75000
O2E O 0.09674(14) 0.68051(8) 0.41622(12)
O2G O 0.09674(14) 0.81949(8) 0.08378(12)
O3B O 0.24494(13) 0.90766(9) 0.37033(11)
H5A H 0.19430 0.54780 -0.45300
N1A N 0.3354(2) 0.42674(12) -0.18739(15)
H3A H 0.33560 0.42660 -0.09240
H4A H 0.39100 0.37910 -0.23520
#END
