
#######################################################################
#
#                 Cambridge Crystallographic Data Centre
#                                CCDC
#
#######################################################################
#
# If this CIF has been generated from an entry in the Cambridge
# Structural Database, then it will include bibliographic, chemical,
# crystal, experimental, refinement or atomic coordinate data resulting
# from the CCDC's data processing and validation procedures.
#
#######################################################################

data_CSD_CIF_YUKTUU01
_audit_creation_date 2014-11-26
_audit_creation_method CSD-ConQuest-V1
_database_code_CSD YUKTUU01
_database_code_depnum_ccdc_archive 'CCDC 1036388'
_chemical_formula_sum 'C4 H9 Mn1 N3 O6'
_chemical_formula_moiety
;
(C3 H3 Mn1 O6 1-)n,C1 H6 N3 1+
;
_journal_coden_Cambridge 4
_journal_volume 136
_journal_year 2014
_journal_page_first 7801
_journal_name_full 'J.Am.Chem.Soc. '
loop_
_publ_author_name
"Wei Li"
"A.Thirumurugan"
"P.T.Barton"
"Zheshuai Lin"
"S.Henke"
"H.H.-M Yeung"
"M.T.Wharmby"
"E.G.Bithell"
"C.J.Howard"
"A.K.Cheetham"
_chemical_name_systematic
;
catena-[diaminomethaniminium tris(\m~2~-formato)-manganese]
;
_cell_volume    923.756
_exptl_crystal_colour 'colorless'
_exptl_crystal_density_diffrn 1.798
_exptl_crystal_description 'block'
_diffrn_ambient_temperature 293
_refine_special_details
;
H2A,H2B and H2A,H2B disordered over two sites with occupancies 0.5:0.5.

;
#These two values have been output from a single CSD field.
_refine_ls_R_factor_gt 0.021
_refine_ls_wR_factor_gt 0.021
_symmetry_cell_setting orthorhombic
_symmetry_space_group_name_H-M 'P n n a'
_symmetry_Int_Tables_number 52
loop_
_symmetry_equiv_pos_site_id
_symmetry_equiv_pos_as_xyz
1 x,y,z
2 1/2-x,-y,z
3 x,1/2-y,1/2-z
4 1/2-x,1/2+y,1/2-z
5 -x,-y,-z
6 -1/2+x,y,-z
7 -x,-1/2+y,-1/2+z
8 -1/2+x,-1/2-y,-1/2+z
_cell_length_a 8.5164(3)
_cell_length_b 11.9772(4)
_cell_length_c 9.0562(3)
_cell_angle_alpha 90
_cell_angle_beta 90
_cell_angle_gamma 90
_cell_formula_units_Z 4
loop_
_atom_type_symbol
_atom_type_radius_bond
C 0.68
H 0.23
Mn 1.61
N 0.68
O 0.68
loop_
_atom_site_label
_atom_site_type_symbol
_atom_site_fract_x
_atom_site_fract_y
_atom_site_fract_z
Mn1 Mn 0.24814(3) 0.75000 0.25000
O1 O 0.44270(12) 0.69117(8) 0.38771(11)
O2 O 0.59548(13) 0.67962(8) 0.58390(11)
O3 O 0.24355(12) 0.59250(8) 0.12847(11)
C1 C 0.48014(17) 0.71657(13) 0.51534(15)
H1 H 0.41650 0.76770 0.56420
C2 C 0.25000 0.50000 0.1897(2)
H2 H 0.25000 0.50000 0.29240
N1 N 0.16371(18) 0.57315(11) -0.18772(14)
H3 H 0.16340 0.57340 -0.09280
H4 H 0.10760 0.62070 -0.23550
N2 N 0.25000 0.50000 -0.4061(2)
H5 H 0.30620 0.45240 -0.45360
C3 C 0.25000 0.50000 -0.2599(2)
H6? H 0.30620 0.45240 -0.45360
O3A O 0.25645(12) 0.40750(8) 0.12847(11)
O1B O 0.44270(12) 0.80883(8) 0.11229(11)
O2B O 0.59548(13) 0.82038(8) -0.08390(11)
C1B C 0.48014(17) 0.78343(13) -0.01534(15)
H1B H 0.41650 0.73230 -0.06420
Mn1A Mn 0.25186(3) 0.25000 0.25000
Mn1E Mn 0.74814(3) 0.75000 -0.25000
Mn1E* Mn 0.74814(3) 0.75000 0.75000
O2E O 0.09548(13) 0.67962(8) 0.41610(11)
O2G O 0.09548(13) 0.82038(8) 0.08390(11)
O3B O 0.24355(12) 0.90750(8) 0.37153(11)
H5A H 0.19380 0.54760 -0.45360
N1A N 0.33629(18) 0.42685(11) -0.18772(14)
H3A H 0.33660 0.42660 -0.09280
H4A H 0.39240 0.37930 -0.23550
#END
