
#######################################################################
#
#                 Cambridge Crystallographic Data Centre
#                                CCDC
#
#######################################################################
#
# If this CIF has been generated from an entry in the Cambridge
# Structural Database, then it will include bibliographic, chemical,
# crystal, experimental, refinement or atomic coordinate data resulting
# from the CCDC's data processing and validation procedures.
#
#######################################################################

data_CSD_CIF_YUKVOQ05
_audit_creation_date 2018-08-31
_audit_creation_method CSD-ConQuest-V1
_database_code_CSD YUKVOQ05
_database_code_depnum_ccdc_archive 'CCDC 1865034'
_chemical_formula_sum 'C4 H9 Cu1 N3 O6'
_chemical_formula_moiety
;
(C3 H3 Cu1 O6 1-)n,C1 H6 N3 1+
;
_journal_coden_Cambridge 1767
_journal_volume 9
_journal_year 2018
_journal_page_first 751
_journal_name_full 'J.Phys.Chem.Lett. '
loop_
_publ_author_name
"Di Gui"
"Lijun Ji"
"A.Muhammad"
"Wei Li"
"Weizhao Cai"
"Yanchun Li"
"Xiaodong Li"
"Xiang Wu"
"Peixiang Lu"
_chemical_name_systematic
;
catena-[guanidinium tris(\m-formato)-copper]
;
_cell_volume    875.712
_exptl_crystal_colour 'blue'
_exptl_crystal_density_diffrn 1.962
_exptl_crystal_description 'block'
_diffrn_ambient_temperature 240.0
#These two values have been output from a single CSD field.
_refine_ls_R_factor_gt 0.021
_refine_ls_wR_factor_gt 0.021
_symmetry_cell_setting orthorhombic
_symmetry_space_group_name_H-M 'P n a 21'
_symmetry_Int_Tables_number 33
loop_
_symmetry_equiv_pos_site_id
_symmetry_equiv_pos_as_xyz
1 x,y,z
2 -x,-y,1/2+z
3 1/2-x,1/2+y,1/2+z
4 1/2+x,1/2-y,z
_cell_length_a 8.5269(3)
_cell_length_b 9.0459(4)
_cell_length_c 11.3532(4)
_cell_angle_alpha 90
_cell_angle_beta 90
_cell_angle_gamma 90
_cell_formula_units_Z 4
loop_
_atom_type_symbol
_atom_type_radius_bond
C 0.68
H 0.23
Cu 1.32
N 0.68
O 0.68
loop_
_atom_site_label
_atom_site_type_symbol
_atom_site_fract_x
_atom_site_fract_y
_atom_site_fract_z
Cu1 Cu -0.00511(2) -0.00078(3) 0.47640(11)
O1 O -0.00102(14) -0.11139(18) 0.32307(15)
O2 O 0.20796(16) 0.15251(15) 0.41564(14)
O3 O 0.01337(15) -0.10963(17) 0.12841(14)
O4 O 0.36224(16) 0.34878(15) 0.40428(12)
O5 O 0.16793(15) -0.12244(13) 0.53880(12)
O6 O 0.32108(17) -0.31996(16) 0.55112(14)
C1 C 0.2043(2) -0.2549(2) 0.51277(16)
H1 H 0.13870 -0.30610 0.46160
C2 C 0.0076(2) -0.04564(17) 0.2257(3)
H2 H 0.00980 0.05710 0.22630
C3 C 0.2472(2) 0.2780(2) 0.44691(17)
H3 H 0.18840 0.32350 0.50560
C4 C -0.0062(2) 0.50060(15) 0.7239(10)
N1 N -0.01395(19) 0.64637(15) 0.7301(3)
H4 H -0.08030 0.69380 0.68730
H5 H 0.04740 0.69380 0.77680
N2 N -0.0965(2) 0.42455(19) 0.65442(19)
H6 H -0.16400 0.46900 0.61060
H7 H -0.08880 0.32980 0.65220
N3 N 0.0930(2) 0.4297(2) 0.7986(2)
H8 H 0.086(4) 0.341(3) 0.800(2)
H9 H 0.136(5) 0.471(4) 0.829(3)
Cu1A Cu 0.00511(2) 0.00078(3) -0.02360(11)
Cu1C Cu 0.49489(2) -0.49922(3) 0.47640(11)
Cu1C* Cu 0.49489(2) 0.50078(3) 0.47640(11)
O3A O -0.01337(15) 0.10963(17) 0.62841(14)
O4C O -0.13776(16) 0.15122(15) 0.40428(12)
O6C O -0.17892(17) -0.18004(16) 0.55112(14)
#END
