
#######################################################################
#
#                 Cambridge Crystallographic Data Centre
#                                CCDC
#
#######################################################################
#
# If this CIF has been generated from an entry in the Cambridge
# Structural Database, then it will include bibliographic, chemical,
# crystal, experimental, refinement or atomic coordinate data resulting
# from the CCDC's data processing and validation procedures.
#
#######################################################################

data_CSD_CIF_YUKVUW
_audit_creation_date 2010-08-06
_audit_creation_method CSD-ConQuest-V1
_database_code_CSD YUKVUW
_database_code_depnum_ccdc_archive 'CCDC 709785'
_chemical_formula_sum 'C4 H9 N3 O6 Zn1'
_chemical_formula_moiety
;
(C3 H3 O6 Zn1 1-)n,n(C1 H6 N3 1+)
;
_journal_coden_Cambridge 1220
_journal_volume 15
_journal_year 2009
_journal_page_first 12050
_journal_name_full 'Chem.-Eur.J. '
loop_
_publ_author_name
"Ke-Li Hu"
"M.Kurmoo"
"Zheming Wang"
"Song Gao"
_chemical_name_systematic
;
catena-(Guanidinium tris(\m~2~-formato)-zinc(ii))
;
_cell_volume    872.335
_exptl_crystal_colour 'colorless'
_exptl_crystal_density_diffrn 1.984
_exptl_crystal_description 'block'
_diffrn_ambient_temperature 293
#These two values have been output from a single CSD field.
_refine_ls_R_factor_gt 0.0236
_refine_ls_wR_factor_gt 0.0236
_symmetry_cell_setting orthorhombic
_symmetry_space_group_name_H-M 'P n n a'
_symmetry_Int_Tables_number 52
loop_
_symmetry_equiv_pos_site_id
_symmetry_equiv_pos_as_xyz
1 x,y,z
2 1/2-x,-y,z
3 1/2-x,1/2+y,1/2-z
4 x,1/2-y,1/2-z
5 -x,-y,-z
6 -1/2+x,y,-z
7 -1/2+x,-1/2-y,-1/2+z
8 -x,-1/2+y,-1/2+z
_cell_length_a 8.3493(3)
_cell_length_b 11.7276(5)
_cell_length_c 8.9089(4)
_cell_angle_alpha 90
_cell_angle_beta 90
_cell_angle_gamma 90
_cell_formula_units_Z 4
loop_
_atom_type_symbol
_atom_type_radius_bond
C 0.68
H 0.23
N 0.68
O 0.68
Zn 1.22
loop_
_atom_site_label
_atom_site_type_symbol
_atom_site_fract_x
_atom_site_fract_y
_atom_site_fract_z
Zn1 Zn 0.25565(4) 0.25000 0.25000
O1 O 0.25761(18) 0.40584(11) 0.36451(16)
O2 O 0.40672(18) 0.18209(13) 0.41359(16)
O3 O 0.56379(18) 0.19234(13) 0.61254(17)
C1 C 0.25000 0.50000 0.3019(4)
H1 H 0.25000 0.50000 0.19750
C2 C 0.5226(3) 0.22178(19) 0.4839(3)
H2 H 0.58330 0.27780 0.43670
C3 C 0.25000 0.50000 0.7565(4)
N1 N 0.3399(3) 0.42716(18) 0.6826(2)
H3 H 0.33990 0.42720 0.58610
H4 H 0.39880 0.37940 0.73080
N2 N 0.25000 0.50000 0.9040(3)
H5 H 0.30890 0.45230 0.95230
Zn1A Zn 0.24435(4) 0.75000 0.25000
Zn1E Zn 0.75565(4) 0.25000 -0.25000
Zn1E* Zn 0.75565(4) 0.25000 0.75000
O1A O 0.24239(18) 0.59416(11) 0.36451(16)
O1C O 0.25761(18) 0.09416(11) 0.13549(16)
O2C O 0.40672(18) 0.31791(13) 0.08641(16)
O3C O 0.56379(18) 0.30766(13) -0.11254(17)
O3E O 0.06379(18) 0.19234(13) 0.38746(17)
O3F O 0.06379(18) 0.30766(13) 0.11254(17)
C2C C 0.5226(3) 0.27822(19) 0.0161(3)
H2C H 0.58330 0.22220 0.06330
N1A N 0.1601(3) 0.57284(18) 0.6826(2)
H3A H 0.16010 0.57280 0.58610
H4A H 0.10120 0.62060 0.73080
H5A H 0.19110 0.54770 0.95230
#END
