
#######################################################################
#
#                 Cambridge Crystallographic Data Centre
#                                CCDC
#
#######################################################################
#
# If this CIF has been generated from an entry in the Cambridge
# Structural Database, then it will include bibliographic, chemical,
# crystal, experimental, refinement or atomic coordinate data resulting
# from the CCDC's data processing and validation procedures.
#
#######################################################################

data_CSD_CIF_YUKVUW03
_audit_creation_date 2018-08-31
_audit_creation_method CSD-ConQuest-V1
_database_code_CSD YUKVUW03
_database_code_depnum_ccdc_archive 'CCDC 1865039'
_chemical_formula_sum 'C4 H9 N3 O6 Zn1'
_chemical_formula_moiety
;
(C3 H3 O6 Zn1 1-)n,C1 H6 N3 1+
;
_journal_coden_Cambridge 1767
_journal_volume 9
_journal_year 2018
_journal_page_first 751
_journal_name_full 'J.Phys.Chem.Lett. '
loop_
_publ_author_name
"Di Gui"
"Lijun Ji"
"A.Muhammad"
"Wei Li"
"Weizhao Cai"
"Yanchun Li"
"Xiaodong Li"
"Xiang Wu"
"Peixiang Lu"
_chemical_name_systematic
;
catena-[guanidinium tris(\m-formato)-zinc]
;
_cell_volume    871.809
_exptl_crystal_density_diffrn 1.985
_exptl_crystal_description 'block'
_diffrn_ambient_temperature 180.0
#These two values have been output from a single CSD field.
_refine_ls_R_factor_gt 0.0325
_refine_ls_wR_factor_gt 0.0325
_symmetry_cell_setting orthorhombic
_symmetry_space_group_name_H-M 'P n n a'
_symmetry_Int_Tables_number 52
loop_
_symmetry_equiv_pos_site_id
_symmetry_equiv_pos_as_xyz
1 x,y,z
2 1/2-x,-y,z
3 1/2-x,1/2+y,1/2-z
4 x,1/2-y,1/2-z
5 -x,-y,-z
6 -1/2+x,y,-z
7 -1/2+x,-1/2-y,-1/2+z
8 -x,-1/2+y,-1/2+z
_cell_length_a 8.3202(3)
_cell_length_b 11.7079(5)
_cell_length_c 8.9497(4)
_cell_angle_alpha 90
_cell_angle_beta 90
_cell_angle_gamma 90
_cell_formula_units_Z 4
loop_
_atom_type_symbol
_atom_type_radius_bond
C 0.68
H 0.23
N 0.68
O 0.68
Zn 1.22
loop_
_atom_site_label
_atom_site_type_symbol
_atom_site_fract_x
_atom_site_fract_y
_atom_site_fract_z
Zn1 Zn 0.25855(3) 0.75000 0.25000
O1 O 0.40889(13) 0.81970(8) 0.41320(11)
O2 O 0.56526(12) 0.80801(8) 0.61379(11)
O3 O 0.25972(12) 0.59488(9) 0.36643(12)
C1 C 0.52614(17) 0.77900(13) 0.48378(15)
H1 H 0.58810 0.72370 0.43650
C2 C 0.25000 0.50000 0.3021(2)
H2 H 0.25000 0.50000 0.19820
N1 N 0.34254(16) 0.57329(11) 0.68290(13)
H3 H 0.40240 0.62070 0.73080
H4 H 0.34240 0.57320 0.58680
N2 N 0.25000 0.50000 0.9057(2)
H5 H 0.19020 0.45270 0.95370
C3 C 0.25000 0.50000 0.7577(2)
H6? H 0.19020 0.45270 0.95370
O3A O 0.24028(12) 0.40512(9) 0.36643(12)
O1C O 0.40889(13) 0.68030(8) 0.08680(11)
O2C O 0.56526(12) 0.69199(8) -0.11379(11)
C1C C 0.52614(17) 0.72100(13) 0.01622(15)
H1C H 0.58810 0.77630 0.06350
Zn1A Zn 0.24145(3) 0.25000 0.25000
Zn1E Zn 0.75855(3) 0.75000 -0.25000
Zn1E* Zn 0.75855(3) 0.75000 0.75000
O2E O 0.06526(12) 0.80801(8) 0.38621(11)
O2F O 0.06526(12) 0.69199(8) 0.11379(11)
O3C O 0.25972(12) 0.90512(9) 0.13357(12)
H5A H 0.30980 0.54730 0.95370
N1A N 0.15746(16) 0.42671(11) 0.68290(13)
H3A H 0.09760 0.37930 0.73080
H4A H 0.15760 0.42680 0.58680
#END
