
#######################################################################
#
#                 Cambridge Crystallographic Data Centre
#                                CCDC
#
#######################################################################
#
# If this CIF has been generated from an entry in the Cambridge
# Structural Database, then it will include bibliographic, chemical,
# crystal, experimental, refinement or atomic coordinate data resulting
# from the CCDC's data processing and validation procedures.
#
#######################################################################

data_CSD_CIF_YUKVUW05
_audit_creation_date 2018-08-31
_audit_creation_method CSD-ConQuest-V1
_database_code_CSD YUKVUW05
_database_code_depnum_ccdc_archive 'CCDC 1865041'
_chemical_formula_sum 'C4 H9 N3 O6 Zn1'
_chemical_formula_moiety
;
(C3 H3 O6 Zn1 1-)n,C1 H6 N3 1+
;
_journal_coden_Cambridge 1767
_journal_volume 9
_journal_year 2018
_journal_page_first 751
_journal_name_full 'J.Phys.Chem.Lett. '
loop_
_publ_author_name
"Di Gui"
"Lijun Ji"
"A.Muhammad"
"Wei Li"
"Weizhao Cai"
"Yanchun Li"
"Xiaodong Li"
"Xiang Wu"
"Peixiang Lu"
_chemical_name_systematic
;
catena-[guanidinium tris(\m-formato)-zinc]
;
_cell_volume    874.763
_exptl_crystal_density_diffrn 1.978
_exptl_crystal_description 'block'
_diffrn_ambient_temperature 240.0
#These two values have been output from a single CSD field.
_refine_ls_R_factor_gt 0.017
_refine_ls_wR_factor_gt 0.017
_symmetry_cell_setting orthorhombic
_symmetry_space_group_name_H-M 'P n n a'
_symmetry_Int_Tables_number 52
loop_
_symmetry_equiv_pos_site_id
_symmetry_equiv_pos_as_xyz
1 x,y,z
2 1/2-x,-y,z
3 1/2-x,1/2+y,1/2-z
4 x,1/2-y,1/2-z
5 -x,-y,-z
6 -1/2+x,y,-z
7 -1/2+x,-1/2-y,-1/2+z
8 -x,-1/2+y,-1/2+z
_cell_length_a 8.3400(3)
_cell_length_b 11.7244(5)
_cell_length_c 8.9461(4)
_cell_angle_alpha 90
_cell_angle_beta 90
_cell_angle_gamma 90
_cell_formula_units_Z 4
loop_
_atom_type_symbol
_atom_type_radius_bond
C 0.68
H 0.23
N 0.68
O 0.68
Zn 1.22
loop_
_atom_site_label
_atom_site_type_symbol
_atom_site_fract_x
_atom_site_fract_y
_atom_site_fract_z
Zn1 Zn 0.257234(17) 0.75000 0.25000
O1 O 0.40796(10) 0.81898(6) 0.41338(9)
O2 O 0.56435(9) 0.80778(6) 0.61324(8)
O3 O 0.25869(9) 0.59468(6) 0.36571(9)
C1 C 0.52481(12) 0.77868(9) 0.48371(11)
H1 H 0.58650 0.72330 0.43640
C2 C 0.25000 0.50000 0.30196(17)
H2 H 0.25000 0.50000 0.19800
N1 N 0.34174(13) 0.57327(9) 0.68274(10)
H3 H 0.40120 0.62070 0.73070
H4 H 0.34170 0.57320 0.58660
N2 N 0.25000 0.50000 0.90505(16)
H5 H 0.19060 0.45260 0.95310
C3 C 0.25000 0.50000 0.75712(16)
H6? H 0.19060 0.45260 0.95310
O3A O 0.24131(9) 0.40532(6) 0.36571(9)
O1C O 0.40796(10) 0.68102(6) 0.08662(9)
O2C O 0.56435(9) 0.69222(6) -0.11324(8)
C1C C 0.52481(12) 0.72132(9) 0.01629(11)
H1C H 0.58650 0.77670 0.06360
Zn1A Zn 0.242766(17) 0.25000 0.25000
Zn1E Zn 0.757234(17) 0.75000 -0.25000
Zn1E* Zn 0.757234(17) 0.75000 0.75000
O2E O 0.06435(9) 0.80778(6) 0.38676(8)
O2F O 0.06435(9) 0.69222(6) 0.11324(8)
O3C O 0.25869(9) 0.90532(6) 0.13429(9)
H5A H 0.30940 0.54740 0.95310
N1A N 0.15826(13) 0.42673(9) 0.68274(10)
H3A H 0.09880 0.37930 0.73070
H4A H 0.15830 0.42680 0.58660
#END
