
#######################################################################
#
#                 Cambridge Crystallographic Data Centre
#                                CCDC
#
#######################################################################
#
# If this CIF has been generated from an entry in the Cambridge
# Structural Database, then it will include bibliographic, chemical,
# crystal, experimental, refinement or atomic coordinate data resulting
# from the CCDC's data processing and validation procedures.
#
#######################################################################

data_CSD_CIF_YUKVOQ04
_audit_creation_date 2018-08-31
_audit_creation_method CSD-ConQuest-V1
_database_code_CSD YUKVOQ04
_database_code_depnum_ccdc_archive 'CCDC 1865033'
_chemical_formula_sum 'C4 H9 Cu1 N3 O6'
_chemical_formula_moiety
;
(C3 H3 Cu1 O6 1-)n,C1 H6 N3 1+
;
_journal_coden_Cambridge 1767
_journal_volume 9
_journal_year 2018
_journal_page_first 751
_journal_name_full 'J.Phys.Chem.Lett. '
loop_
_publ_author_name
"Di Gui"
"Lijun Ji"
"A.Muhammad"
"Wei Li"
"Weizhao Cai"
"Yanchun Li"
"Xiaodong Li"
"Xiang Wu"
"Peixiang Lu"
_chemical_name_systematic
;
catena-[guanidinium tris(\m-formato)-copper]
;
_cell_volume    873.484
_exptl_crystal_colour 'blue'
_exptl_crystal_density_diffrn 1.967
_exptl_crystal_description 'block'
_diffrn_ambient_temperature 210.0
#These two values have been output from a single CSD field.
_refine_ls_R_factor_gt 0.021
_refine_ls_wR_factor_gt 0.021
_symmetry_cell_setting orthorhombic
_symmetry_space_group_name_H-M 'P n a 21'
_symmetry_Int_Tables_number 33
loop_
_symmetry_equiv_pos_site_id
_symmetry_equiv_pos_as_xyz
1 x,y,z
2 -x,-y,1/2+z
3 1/2-x,1/2+y,1/2+z
4 1/2+x,1/2-y,z
_cell_length_a 8.5134(3)
_cell_length_b 9.0450(4)
_cell_length_c 11.3434(4)
_cell_angle_alpha 90
_cell_angle_beta 90
_cell_angle_gamma 90
_cell_formula_units_Z 4
loop_
_atom_type_symbol
_atom_type_radius_bond
C 0.68
H 0.23
Cu 1.32
N 0.68
O 0.68
loop_
_atom_site_label
_atom_site_type_symbol
_atom_site_fract_x
_atom_site_fract_y
_atom_site_fract_z
Cu1 Cu -0.00579(2) -0.00083(3) 0.47638(11)
O1 O -0.00150(15) -0.11173(19) 0.32324(15)
O2 O 0.20735(16) 0.15205(15) 0.41557(14)
O3 O 0.01384(16) -0.11004(18) 0.12830(15)
O4 O 0.36149(16) 0.34883(15) 0.40388(12)
O5 O 0.16759(16) -0.12235(13) 0.53895(12)
O6 O 0.32074(17) -0.32021(16) 0.55146(14)
C1 C 0.2036(2) -0.2550(2) 0.51295(16)
H1 H 0.13770 -0.30610 0.46180
C2 C 0.0079(2) -0.04570(17) 0.2259(3)
H2 H 0.01070 0.05710 0.22650
C3 C 0.2464(2) 0.2779(2) 0.44675(17)
H3 H 0.18740 0.32350 0.50540
C4 C -0.0062(2) 0.50079(15) 0.7248(10)
N1 N -0.0139(2) 0.64661(15) 0.7299(3)
H4 H -0.07970 0.69360 0.68630
H5 H 0.04700 0.69450 0.77690
N2 N -0.0970(2) 0.4251(2) 0.6544(2)
N3 N 0.0935(2) 0.4296(2) 0.7986(2)
H6 H 0.087(4) 0.336(3) 0.799(3)
H7 H -0.168(4) 0.476(3) 0.611(3)
H8 H -0.084(3) 0.350(3) 0.650(3)
H9 H 0.135(5) 0.469(4) 0.832(4)
Cu1A Cu 0.00579(2) 0.00083(3) -0.02362(11)
Cu1C Cu 0.49421(2) -0.49917(3) 0.47638(11)
Cu1C* Cu 0.49421(2) 0.50083(3) 0.47638(11)
O3A O -0.01384(16) 0.11004(18) 0.62830(15)
O4C O -0.13851(16) 0.15117(15) 0.40388(12)
O6C O -0.17926(17) -0.17979(16) 0.55146(14)
#END
