
#######################################################################
#
#                 Cambridge Crystallographic Data Centre
#                                CCDC
#
#######################################################################
#
# If this CIF has been generated from an entry in the Cambridge
# Structural Database, then it will include bibliographic, chemical,
# crystal, experimental, refinement or atomic coordinate data resulting
# from the CCDC's data processing and validation procedures.
#
#######################################################################

data_CSD_CIF_YUKVOQ06
_audit_creation_date 2018-08-31
_audit_creation_method CSD-ConQuest-V1
_database_code_CSD YUKVOQ06
_database_code_depnum_ccdc_archive 'CCDC 1865035'
_chemical_formula_sum 'C4 H9 Cu1 N3 O6'
_chemical_formula_moiety
;
(C3 H3 Cu1 O6 1-)n,C1 H6 N3 1+
;
_journal_coden_Cambridge 1767
_journal_volume 9
_journal_year 2018
_journal_page_first 751
_journal_name_full 'J.Phys.Chem.Lett. '
loop_
_publ_author_name
"Di Gui"
"Lijun Ji"
"A.Muhammad"
"Wei Li"
"Weizhao Cai"
"Yanchun Li"
"Xiaodong Li"
"Xiang Wu"
"Peixiang Lu"
_chemical_name_systematic
;
catena-[guanidinium tris(\m-formato)-copper]
;
_cell_volume    877.958
_exptl_crystal_colour 'blue'
_exptl_crystal_density_diffrn 1.957
_exptl_crystal_description 'block'
_diffrn_ambient_temperature 270.0
#These two values have been output from a single CSD field.
_refine_ls_R_factor_gt 0.0207
_refine_ls_wR_factor_gt 0.0207
_symmetry_cell_setting orthorhombic
_symmetry_space_group_name_H-M 'P n a 21'
_symmetry_Int_Tables_number 33
loop_
_symmetry_equiv_pos_site_id
_symmetry_equiv_pos_as_xyz
1 x,y,z
2 -x,-y,1/2+z
3 1/2-x,1/2+y,1/2+z
4 1/2+x,1/2-y,z
_cell_length_a 8.5410(3)
_cell_length_b 9.0472(4)
_cell_length_c 11.3619(4)
_cell_angle_alpha 90
_cell_angle_beta 90
_cell_angle_gamma 90
_cell_formula_units_Z 4
loop_
_atom_type_symbol
_atom_type_radius_bond
C 0.68
H 0.23
Cu 1.32
N 0.68
O 0.68
loop_
_atom_site_label
_atom_site_type_symbol
_atom_site_fract_x
_atom_site_fract_y
_atom_site_fract_z
Cu1 Cu -0.004417(19) -0.00077(3) 0.47639(11)
O1 O -0.00042(14) -0.11098(18) 0.32290(15)
O2 O 0.20877(15) 0.15285(15) 0.41576(14)
O3 O 0.01281(15) -0.10923(17) 0.12848(14)
O4 O 0.36301(16) 0.34866(15) 0.40468(12)
O5 O 0.16842(15) -0.12258(13) 0.53868(12)
O6 O 0.32140(17) -0.31973(16) 0.55083(14)
C1 C 0.2050(2) -0.2547(2) 0.51242(16)
H1 H 0.13980 -0.30570 0.46090
C2 C 0.0074(2) -0.04532(16) 0.2259(3)
H2 H 0.00920 0.05750 0.22650
C3 C 0.24798(19) 0.2783(2) 0.44698(17)
H3 H 0.18910 0.32400 0.50540
C4 C -0.0062(2) 0.50043(15) 0.7238(10)
N1 N -0.01413(19) 0.64610(15) 0.7298(3)
H4 H -0.08040 0.69330 0.68700
H5 H 0.04700 0.69370 0.77650
N2 N -0.0961(2) 0.42439(19) 0.65463(19)
H6 H -0.16350 0.46870 0.61080
H7 H -0.08840 0.32970 0.65250
N3 N 0.0926(2) 0.4296(2) 0.7988(2)
H8 H 0.138(5) 0.472(4) 0.828(3)
H9 H 0.084(4) 0.341(3) 0.800(2)
Cu1A Cu 0.004417(19) 0.00077(3) -0.02361(11)
Cu1C Cu 0.495583(19) -0.49923(3) 0.47639(11)
Cu1C* Cu 0.495583(19) 0.50077(3) 0.47639(11)
O3A O -0.01281(15) 0.10923(17) 0.62848(14)
O4C O -0.13699(16) 0.15134(15) 0.40468(12)
O6C O -0.17860(17) -0.18027(16) 0.55083(14)
#END
