
#######################################################################
#
#                 Cambridge Crystallographic Data Centre
#                                CCDC
#
#######################################################################
#
# If this CIF has been generated from an entry in the Cambridge
# Structural Database, then it will include bibliographic, chemical,
# crystal, experimental, refinement or atomic coordinate data resulting
# from the CCDC's data processing and validation procedures.
#
#######################################################################

data_CSD_CIF_YUKVIK
_audit_creation_date 2010-08-06
_audit_creation_method CSD-ConQuest-V1
_database_code_CSD YUKVIK
_database_code_depnum_ccdc_archive 'CCDC 709783'
_chemical_formula_sum 'C4 H9 N3 Ni1 O6'
_chemical_formula_moiety
;
(C3 H3 Ni1 O6 1-)n,n(C1 H6 N3 1+)
;
_journal_coden_Cambridge 1220
_journal_volume 15
_journal_year 2009
_journal_page_first 12050
_journal_name_full 'Chem.-Eur.J. '
loop_
_publ_author_name
"Ke-Li Hu"
"M.Kurmoo"
"Zheming Wang"
"Song Gao"
_chemical_name_systematic
;
catena-(Guanidinium tris(\m~2~-formato)-nickel(ii))
;
_cell_volume    849.485
_exptl_crystal_colour 'green'
_exptl_crystal_density_diffrn 1.985
_exptl_crystal_description 'block'
_diffrn_ambient_temperature 293
#These two values have been output from a single CSD field.
_refine_ls_R_factor_gt 0.0251
_refine_ls_wR_factor_gt 0.0251
_symmetry_cell_setting orthorhombic
_symmetry_space_group_name_H-M 'P n n a'
_symmetry_Int_Tables_number 52
loop_
_symmetry_equiv_pos_site_id
_symmetry_equiv_pos_as_xyz
1 x,y,z
2 1/2-x,-y,z
3 1/2-x,1/2+y,1/2-z
4 x,1/2-y,1/2-z
5 -x,-y,-z
6 -1/2+x,y,-z
7 -1/2+x,-1/2-y,-1/2+z
8 -x,-1/2+y,-1/2+z
_cell_length_a 8.2610(4)
_cell_length_b 11.6414(5)
_cell_length_c 8.8332(4)
_cell_angle_alpha 90
_cell_angle_beta 90
_cell_angle_gamma 90
_cell_formula_units_Z 4
loop_
_atom_type_symbol
_atom_type_radius_bond
C 0.68
H 0.23
N 0.68
Ni 1.24
O 0.68
loop_
_atom_site_label
_atom_site_type_symbol
_atom_site_fract_x
_atom_site_fract_y
_atom_site_fract_z
Ni1 Ni 0.25405(5) 0.25000 0.25000
O1 O 0.2557(2) 0.40500(12) 0.36248(17)
O2 O 0.40781(18) 0.18375(14) 0.41197(17)
O3 O 0.56754(18) 0.19269(14) 0.61169(17)
C1 C 0.25000 0.50000 0.2993(4)
H1 H 0.25000 0.50000 0.19400
C2 C 0.5248(3) 0.22462(19) 0.4830(3)
H2 H 0.58420 0.28280 0.43690
C3 C 0.25000 0.50000 0.7562(4)
N1 N 0.3432(3) 0.42749(18) 0.6818(2)
H3 H 0.40390 0.38030 0.73060
H4 H 0.34330 0.42740 0.58440
N2 N 0.25000 0.50000 0.9048(3)
H5 H 0.18930 0.54730 0.95350
Ni1A Ni 0.24595(5) 0.75000 0.25000
Ni1E Ni 0.75405(5) 0.25000 -0.25000
Ni1E* Ni 0.75405(5) 0.25000 0.75000
O1A O 0.2443(2) 0.59500(12) 0.36248(17)
O1C O 0.2557(2) 0.09500(12) 0.13752(17)
O2C O 0.40781(18) 0.31625(14) 0.08803(17)
O3C O 0.56754(18) 0.30731(14) -0.11169(17)
O3E O 0.06754(18) 0.19269(14) 0.38831(17)
O3F O 0.06754(18) 0.30731(14) 0.11169(17)
C2C C 0.5248(3) 0.27538(19) 0.0170(3)
H2C H 0.58420 0.21720 0.06310
N1A N 0.1568(3) 0.57251(18) 0.6818(2)
H3A H 0.09610 0.61970 0.73060
H4A H 0.15670 0.57260 0.58440
H5A H 0.31070 0.45270 0.95350
#END
