
#######################################################################
#
#                 Cambridge Crystallographic Data Centre
#                                CCDC
#
#######################################################################
#
# If this CIF has been generated from an entry in the Cambridge
# Structural Database, then it will include bibliographic, chemical,
# crystal, experimental, refinement or atomic coordinate data resulting
# from the CCDC's data processing and validation procedures.
#
#######################################################################

data_CSD_CIF_YUKVUW02
_audit_creation_date 2018-08-31
_audit_creation_method CSD-ConQuest-V1
_database_code_CSD YUKVUW02
_database_code_depnum_ccdc_archive 'CCDC 1865038'
_chemical_formula_sum 'C4 H9 N3 O6 Zn1'
_chemical_formula_moiety
;
(C3 H3 O6 Zn1 1-)n,C1 H6 N3 1+
;
_journal_coden_Cambridge 1767
_journal_volume 9
_journal_year 2018
_journal_page_first 751
_journal_name_full 'J.Phys.Chem.Lett. '
loop_
_publ_author_name
"Di Gui"
"Lijun Ji"
"A.Muhammad"
"Wei Li"
"Weizhao Cai"
"Yanchun Li"
"Xiaodong Li"
"Xiang Wu"
"Peixiang Lu"
_chemical_name_systematic
;
catena-[guanidinium tris(\m-formato)-zinc]
;
_cell_volume    870.316
_exptl_crystal_density_diffrn 1.988
_exptl_crystal_description 'block'
_diffrn_ambient_temperature 150.1
#These two values have been output from a single CSD field.
_refine_ls_R_factor_gt 0.0388
_refine_ls_wR_factor_gt 0.0388
_symmetry_cell_setting orthorhombic
_symmetry_space_group_name_H-M 'P n n a'
_symmetry_Int_Tables_number 52
loop_
_symmetry_equiv_pos_site_id
_symmetry_equiv_pos_as_xyz
1 x,y,z
2 1/2-x,-y,z
3 1/2-x,1/2+y,1/2-z
4 x,1/2-y,1/2-z
5 -x,-y,-z
6 -1/2+x,y,-z
7 -1/2+x,-1/2-y,-1/2+z
8 -x,-1/2+y,-1/2+z
_cell_length_a 8.3106(3)
_cell_length_b 11.6990(5)
_cell_length_c 8.9515(4)
_cell_angle_alpha 90
_cell_angle_beta 90
_cell_angle_gamma 90
_cell_formula_units_Z 4
loop_
_atom_type_symbol
_atom_type_radius_bond
C 0.68
H 0.23
N 0.68
O 0.68
Zn 1.22
loop_
_atom_site_label
_atom_site_type_symbol
_atom_site_fract_x
_atom_site_fract_y
_atom_site_fract_z
Zn1 Zn 0.25922(3) 0.75000 0.25000
O1 O 0.40941(14) 0.82012(9) 0.41314(12)
O2 O 0.56565(13) 0.80817(9) 0.61405(12)
O3 O 0.26019(13) 0.59499(10) 0.36678(13)
C1 C 0.52677(18) 0.77909(14) 0.48379(16)
H1 H 0.58880 0.72360 0.43660
C2 C 0.25000 0.50000 0.3022(2)
H2 H 0.25000 0.50000 0.19830
N1 N 0.34301(18) 0.57329(12) 0.68291(14)
H3 H 0.40310 0.62060 0.73080
H4 H 0.34290 0.57320 0.58680
N2 N 0.25000 0.50000 0.9058(2)
H5 H 0.19000 0.45270 0.95380
C3 C 0.25000 0.50000 0.7577(3)
H6? H 0.19000 0.45270 0.95380
O3A O 0.23981(13) 0.40501(10) 0.36678(13)
O1C O 0.40941(14) 0.67988(9) 0.08686(12)
O2C O 0.56565(13) 0.69183(9) -0.11405(12)
C1C C 0.52677(18) 0.72091(14) 0.01621(16)
H1C H 0.58880 0.77640 0.06340
Zn1A Zn 0.24078(3) 0.25000 0.25000
Zn1E Zn 0.75922(3) 0.75000 -0.25000
Zn1E* Zn 0.75922(3) 0.75000 0.75000
O2E O 0.06565(13) 0.80817(9) 0.38595(12)
O2F O 0.06565(13) 0.69183(9) 0.11405(12)
O3C O 0.26019(13) 0.90501(10) 0.13322(13)
H5A H 0.31000 0.54730 0.95380
N1A N 0.15699(18) 0.42671(12) 0.68291(14)
H3A H 0.09690 0.37940 0.73080
H4A H 0.15710 0.42680 0.58680
#END
