
#######################################################################
#
#                 Cambridge Crystallographic Data Centre
#                                CCDC
#
#######################################################################
#
# If this CIF has been generated from an entry in the Cambridge
# Structural Database, then it will include bibliographic, chemical,
# crystal, experimental, refinement or atomic coordinate data resulting
# from the CCDC's data processing and validation procedures.
#
#######################################################################

data_CSD_CIF_YUKVEG
_audit_creation_date 2010-08-06
_audit_creation_method CSD-ConQuest-V1
_database_code_CSD YUKVEG
_database_code_depnum_ccdc_archive 'CCDC 709782'
_chemical_formula_sum 'C4 H9 Co1 N3 O6'
_chemical_formula_moiety
;
(C3 H3 Co1 O6 1-)n,n(C1 H6 N3 1+)
;
_journal_coden_Cambridge 1220
_journal_volume 15
_journal_year 2009
_journal_page_first 12050
_journal_name_full 'Chem.-Eur.J. '
loop_
_publ_author_name
"Ke-Li Hu"
"M.Kurmoo"
"Zheming Wang"
"Song Gao"
_chemical_name_systematic
;
catena-(Guanidinium tris(\m~2~-formato)-cobalt(ii))
;
_cell_volume    872.869
_exptl_crystal_colour 'red'
_exptl_crystal_density_diffrn 1.933
_exptl_crystal_description 'block'
_diffrn_ambient_temperature 293
#These two values have been output from a single CSD field.
_refine_ls_R_factor_gt 0.0243
_refine_ls_wR_factor_gt 0.0243
_symmetry_cell_setting orthorhombic
_symmetry_space_group_name_H-M 'P n n a'
_symmetry_Int_Tables_number 52
loop_
_symmetry_equiv_pos_site_id
_symmetry_equiv_pos_as_xyz
1 x,y,z
2 1/2-x,-y,z
3 1/2-x,1/2+y,1/2-z
4 x,1/2-y,1/2-z
5 -x,-y,-z
6 -1/2+x,y,-z
7 -1/2+x,-1/2-y,-1/2+z
8 -x,-1/2+y,-1/2+z
_cell_length_a 8.3343(2)
_cell_length_b 11.7530(4)
_cell_length_c 8.9111(3)
_cell_angle_alpha 90
_cell_angle_beta 90
_cell_angle_gamma 90
_cell_formula_units_Z 4
loop_
_atom_type_symbol
_atom_type_radius_bond
C 0.68
H 0.23
Co 1.26
N 0.68
O 0.68
loop_
_atom_site_label
_atom_site_type_symbol
_atom_site_fract_x
_atom_site_fract_y
_atom_site_fract_z
Co1 Co 0.25371(4) 0.25000 0.25000
O1 O 0.25671(16) 0.40566(12) 0.36555(15)
O2 O 0.40688(16) 0.18273(13) 0.41332(15)
O3 O 0.56460(15) 0.19227(12) 0.61190(15)
C1 C 0.25000 0.50000 0.3030(4)
H1 H 0.25000 0.50000 0.19860
C2 C 0.5234(2) 0.22225(19) 0.4835(2)
H2 H 0.58410 0.27830 0.43660
C3 C 0.25000 0.50000 0.7568(3)
N1 N 0.3404(2) 0.42696(17) 0.68355(19)
H3 H 0.34070 0.42670 0.58700
H4 H 0.39920 0.37950 0.73220
N2 N 0.25000 0.50000 0.9052(3)
H5 H 0.30890 0.45240 0.95340
Co1A Co 0.24629(4) 0.75000 0.25000
Co1E Co 0.75371(4) 0.25000 -0.25000
Co1E* Co 0.75371(4) 0.25000 0.75000
O1A O 0.24329(16) 0.59434(12) 0.36555(15)
O1C O 0.25671(16) 0.09434(12) 0.13445(15)
O2C O 0.40688(16) 0.31727(13) 0.08668(15)
O3C O 0.56460(15) 0.30773(12) -0.11190(15)
O3E O 0.06460(15) 0.19227(12) 0.38810(15)
O3F O 0.06460(15) 0.30773(12) 0.11190(15)
C2C C 0.5234(2) 0.27775(19) 0.0165(2)
H2C H 0.58410 0.22170 0.06340
N1A N 0.1596(2) 0.57304(17) 0.68355(19)
H3A H 0.15930 0.57330 0.58700
H4A H 0.10080 0.62050 0.73220
H5A H 0.19110 0.54760 0.95340
#END
