
#######################################################################
#
#                 Cambridge Crystallographic Data Centre
#                                CCDC
#
#######################################################################
#
# If this CIF has been generated from an entry in the Cambridge
# Structural Database, then it will include bibliographic, chemical,
# crystal, experimental, refinement or atomic coordinate data resulting
# from the CCDC's data processing and validation procedures.
#
#######################################################################

data_CSD_CIF_YUKVOQ03
_audit_creation_date 2018-08-31
_audit_creation_method CSD-ConQuest-V1
_database_code_CSD YUKVOQ03
_database_code_depnum_ccdc_archive 'CCDC 1865032'
_chemical_formula_sum 'C4 H9 Cu1 N3 O6'
_chemical_formula_moiety
;
(C3 H3 Cu1 O6 1-)n,C1 H6 N3 1+
;
_journal_coden_Cambridge 1767
_journal_volume 9
_journal_year 2018
_journal_page_first 751
_journal_name_full 'J.Phys.Chem.Lett. '
loop_
_publ_author_name
"Di Gui"
"Lijun Ji"
"A.Muhammad"
"Wei Li"
"Weizhao Cai"
"Yanchun Li"
"Xiaodong Li"
"Xiang Wu"
"Peixiang Lu"
_chemical_name_systematic
;
catena-[guanidinium tris(\m-formato)-copper]
;
_cell_volume    871.436
_exptl_crystal_colour 'blue'
_exptl_crystal_density_diffrn 1.972
_exptl_crystal_description 'block'
_diffrn_ambient_temperature 180.0
#These two values have been output from a single CSD field.
_refine_ls_R_factor_gt 0.0231
_refine_ls_wR_factor_gt 0.0231
_symmetry_cell_setting orthorhombic
_symmetry_space_group_name_H-M 'P n a 21'
_symmetry_Int_Tables_number 33
loop_
_symmetry_equiv_pos_site_id
_symmetry_equiv_pos_as_xyz
1 x,y,z
2 -x,-y,1/2+z
3 1/2-x,1/2+y,1/2+z
4 1/2+x,1/2-y,z
_cell_length_a 8.5009(3)
_cell_length_b 9.0436(4)
_cell_length_c 11.3352(4)
_cell_angle_alpha 90
_cell_angle_beta 90
_cell_angle_gamma 90
_cell_formula_units_Z 4
loop_
_atom_type_symbol
_atom_type_radius_bond
C 0.68
H 0.23
Cu 1.32
N 0.68
O 0.68
loop_
_atom_site_label
_atom_site_type_symbol
_atom_site_fract_x
_atom_site_fract_y
_atom_site_fract_z
Cu1 Cu -0.00646(2) -0.00084(3) 0.47630(11)
O1 O -0.00200(15) -0.1121(2) 0.32339(16)
O2 O 0.20676(17) 0.15169(16) 0.41553(14)
O3 O 0.01433(17) -0.11043(19) 0.12820(15)
O4 O 0.36079(17) 0.34896(15) 0.40350(13)
O5 O 0.16715(16) -0.12215(14) 0.53914(13)
O6 O 0.32039(18) -0.32032(16) 0.55181(14)
C1 C 0.2029(2) -0.2552(2) 0.51312(17)
H1 H 0.13680 -0.30640 0.46210
C2 C 0.0081(2) -0.04591(18) 0.2259(3)
H2 H 0.01120 0.05690 0.22650
C3 C 0.2456(2) 0.2777(2) 0.44680(18)
H3 H 0.18670 0.32310 0.50570
C4 C -0.0060(3) 0.50091(16) 0.7248(11)
N1 N -0.0137(2) 0.64688(16) 0.7302(3)
H4 H -0.07980 0.69400 0.68680
H5 H 0.04750 0.69460 0.77710
N2 N -0.0974(2) 0.4253(2) 0.6544(2)
N3 N 0.0939(2) 0.4294(2) 0.7985(2)
H6 H 0.088(4) 0.335(3) 0.798(3)
H7 H -0.171(4) 0.477(3) 0.610(3)
H8 H -0.085(4) 0.352(4) 0.649(3)
H9 H 0.132(6) 0.468(4) 0.830(4)
Cu1A Cu 0.00646(2) 0.00084(3) -0.02370(11)
Cu1C Cu 0.49354(2) -0.49916(3) 0.47630(11)
Cu1C* Cu 0.49354(2) 0.50084(3) 0.47630(11)
O3A O -0.01433(17) 0.11043(19) 0.62820(15)
O4C O -0.13921(17) 0.15104(15) 0.40350(13)
O6C O -0.17961(18) -0.17968(16) 0.55181(14)
#END
