
#######################################################################
#
#                 Cambridge Crystallographic Data Centre
#                                CCDC
#
#######################################################################
#
# If this CIF has been generated from an entry in the Cambridge
# Structural Database, then it will include bibliographic, chemical,
# crystal, experimental, refinement or atomic coordinate data resulting
# from the CCDC's data processing and validation procedures.
#
#######################################################################

data_CSD_CIF_YUKVUW01
_audit_creation_date 2018-08-31
_audit_creation_method CSD-ConQuest-V1
_database_code_CSD YUKVUW01
_database_code_depnum_ccdc_archive 'CCDC 1865037'
_chemical_formula_sum 'C4 H9 N3 O6 Zn1'
_chemical_formula_moiety
;
(C3 H3 O6 Zn1 1-)n,C1 H6 N3 1+
;
_journal_coden_Cambridge 1767
_journal_volume 9
_journal_year 2018
_journal_page_first 751
_journal_name_full 'J.Phys.Chem.Lett. '
loop_
_publ_author_name
"Di Gui"
"Lijun Ji"
"A.Muhammad"
"Wei Li"
"Weizhao Cai"
"Yanchun Li"
"Xiaodong Li"
"Xiang Wu"
"Peixiang Lu"
_chemical_name_systematic
;
catena-[guanidinium tris(\m-formato)-zinc]
;
_cell_volume    868.727
_exptl_crystal_density_diffrn 1.992
_exptl_crystal_description 'block'
_diffrn_ambient_temperature 120.1
#These two values have been output from a single CSD field.
_refine_ls_R_factor_gt 0.0391
_refine_ls_wR_factor_gt 0.0391
_symmetry_cell_setting orthorhombic
_symmetry_space_group_name_H-M 'P n n a'
_symmetry_Int_Tables_number 52
loop_
_symmetry_equiv_pos_site_id
_symmetry_equiv_pos_as_xyz
1 x,y,z
2 1/2-x,-y,z
3 1/2-x,1/2+y,1/2-z
4 x,1/2-y,1/2-z
5 -x,-y,-z
6 -1/2+x,y,-z
7 -1/2+x,-1/2-y,-1/2+z
8 -x,-1/2+y,-1/2+z
_cell_length_a 8.3010(3)
_cell_length_b 11.6888(5)
_cell_length_c 8.9533(4)
_cell_angle_alpha 90
_cell_angle_beta 90
_cell_angle_gamma 90
_cell_formula_units_Z 4
loop_
_atom_type_symbol
_atom_type_radius_bond
C 0.68
H 0.23
N 0.68
O 0.68
Zn 1.22
loop_
_atom_site_label
_atom_site_type_symbol
_atom_site_fract_x
_atom_site_fract_y
_atom_site_fract_z
Zn1 Zn 0.25980(3) 0.75000 0.25000
O1 O 0.40988(14) 0.82046(9) 0.41302(13)
O2 O 0.56610(14) 0.80830(9) 0.61428(12)
O3 O 0.26070(13) 0.5950(1) 0.36710(13)
C1 C 0.52740(18) 0.77928(14) 0.48383(16)
H1 H 0.58960 0.72380 0.43670
C2 C 0.25000 0.50000 0.3023(2)
H2 H 0.25000 0.50000 0.19840
N1 N 0.34343(18) 0.57320(11) 0.68288(15)
H3 H 0.40370 0.62050 0.73080
H4 H 0.34330 0.57310 0.58680
N2 N 0.25000 0.50000 0.9059(2)
H5 H 0.18970 0.45280 0.95390
C3 C 0.25000 0.50000 0.7576(3)
H6? H 0.18970 0.45280 0.95390
O3A O 0.23930(13) 0.4050(1) 0.36710(13)
O1C O 0.40988(14) 0.67954(9) 0.08698(13)
O2C O 0.56610(14) 0.69170(9) -0.11428(12)
C1C C 0.52740(18) 0.72072(14) 0.01617(16)
H1C H 0.58960 0.77620 0.06330
Zn1A Zn 0.24020(3) 0.25000 0.25000
Zn1E Zn 0.75980(3) 0.75000 -0.25000
Zn1E* Zn 0.75980(3) 0.75000 0.75000
O2E O 0.06610(14) 0.80830(9) 0.38572(12)
O2F O 0.06610(14) 0.69170(9) 0.11428(12)
O3C O 0.26070(13) 0.9050(1) 0.13290(13)
H5A H 0.31030 0.54720 0.95390
N1A N 0.15657(18) 0.42680(11) 0.68288(15)
H3A H 0.09630 0.37950 0.73080
H4A H 0.15670 0.42690 0.58680
#END
