
#######################################################################
#
#                 Cambridge Crystallographic Data Centre
#                                CCDC
#
#######################################################################
#
# If this CIF has been generated from an entry in the Cambridge
# Structural Database, then it will include bibliographic, chemical,
# crystal, experimental, refinement or atomic coordinate data resulting
# from the CCDC's data processing and validation procedures.
#
#######################################################################

data_CSD_CIF_YUKVOQ01
_audit_creation_date 2018-08-31
_audit_creation_method CSD-ConQuest-V1
_database_code_CSD YUKVOQ01
_database_code_depnum_ccdc_archive 'CCDC 1865030'
_chemical_formula_sum 'C4 H9 Cu1 N3 O6'
_chemical_formula_moiety
;
(C3 H3 Cu1 O6 1-)n,C1 H6 N3 1+
;
_journal_coden_Cambridge 1767
_journal_volume 9
_journal_year 2018
_journal_page_first 751
_journal_name_full 'J.Phys.Chem.Lett. '
loop_
_publ_author_name
"Di Gui"
"Lijun Ji"
"A.Muhammad"
"Wei Li"
"Weizhao Cai"
"Yanchun Li"
"Xiaodong Li"
"Xiang Wu"
"Peixiang Lu"
_chemical_name_systematic
;
catena-[guanidinium tris(\m-formato)-copper]
;
_cell_volume    867.693
_exptl_crystal_colour 'blue'
_exptl_crystal_density_diffrn 1.98
_exptl_special_details
;
yes

;
_exptl_crystal_description 'block'
_diffrn_ambient_temperature 120.1
#These two values have been output from a single CSD field.
_refine_ls_R_factor_gt 0.0228
_refine_ls_wR_factor_gt 0.0228
_symmetry_cell_setting orthorhombic
_symmetry_space_group_name_H-M 'P n a 21'
_symmetry_Int_Tables_number 33
loop_
_symmetry_equiv_pos_site_id
_symmetry_equiv_pos_as_xyz
1 x,y,z
2 -x,-y,1/2+z
3 1/2-x,1/2+y,1/2+z
4 1/2+x,1/2-y,z
_cell_length_a 8.4756(3)
_cell_length_b 9.0440(4)
_cell_length_c 11.3197(4)
_cell_angle_alpha 90
_cell_angle_beta 90
_cell_angle_gamma 90
_cell_formula_units_Z 4
loop_
_atom_type_symbol
_atom_type_radius_bond
C 0.68
H 0.23
Cu 1.32
N 0.68
O 0.68
loop_
_atom_site_label
_atom_site_type_symbol
_atom_site_fract_x
_atom_site_fract_y
_atom_site_fract_z
Cu1 Cu -0.00773(2) -0.00089(3) 0.47616(11)
O1 O -0.00277(15) -0.1128(2) 0.32363(16)
O2 O 0.20552(17) 0.15100(15) 0.41531(13)
O3 O 0.01515(17) -0.11106(19) 0.12809(15)
O4 O 0.35922(17) 0.34922(15) 0.40285(13)
O5 O 0.16633(16) -0.12200(14) 0.53956(13)
O6 O 0.31985(17) -0.32073(16) 0.55233(14)
C1 C 0.2018(2) -0.2555(2) 0.51372(16)
H1 H 0.13510 -0.30680 0.46300
C2 C 0.0089(2) -0.04618(18) 0.2260(3)
H2 H 0.01300 0.05660 0.22670
C3 C 0.2443(2) 0.2776(2) 0.44682(18)
H3 H 0.18560 0.32260 0.50620
C4 C -0.0057(3) 0.50111(16) 0.7247(10)
N1 N -0.0133(2) 0.64716(16) 0.7303(3)
H4 H -0.07980 0.69440 0.68710
H5 H 0.04830 0.69480 0.77720
N2 N -0.0979(2) 0.4254(2) 0.65420(19)
N3 N 0.0948(2) 0.4296(2) 0.79847(19)
H6 H 0.086(4) 0.335(3) 0.798(3)
H7 H -0.174(4) 0.479(3) 0.609(3)
H8 H -0.085(4) 0.352(4) 0.647(3)
H9 H 0.143(5) 0.473(4) 0.833(3)
Cu1A Cu 0.00773(2) 0.00089(3) -0.02384(11)
Cu1C Cu 0.49227(2) -0.49911(3) 0.47616(11)
Cu1C* Cu 0.49227(2) 0.50089(3) 0.47616(11)
O3A O -0.01515(17) 0.11106(19) 0.62809(15)
O4C O -0.14078(17) 0.15078(15) 0.40285(13)
O6C O -0.18015(17) -0.17927(16) 0.55233(14)
#END
