
#######################################################################
#
#                 Cambridge Crystallographic Data Centre
#                                CCDC
#
#######################################################################
#
# If this CIF has been generated from an entry in the Cambridge
# Structural Database, then it will include bibliographic, chemical,
# crystal, experimental, refinement or atomic coordinate data resulting
# from the CCDC's data processing and validation procedures.
#
#######################################################################

data_CSD_CIF_YUKVOQ02
_audit_creation_date 2018-08-31
_audit_creation_method CSD-ConQuest-V1
_database_code_CSD YUKVOQ02
_database_code_depnum_ccdc_archive 'CCDC 1865031'
_chemical_formula_sum 'C4 H9 Cu1 N3 O6'
_chemical_formula_moiety
;
(C3 H3 Cu1 O6 1-)n,C1 H6 N3 1+
;
_journal_coden_Cambridge 1767
_journal_volume 9
_journal_year 2018
_journal_page_first 751
_journal_name_full 'J.Phys.Chem.Lett. '
loop_
_publ_author_name
"Di Gui"
"Lijun Ji"
"A.Muhammad"
"Wei Li"
"Weizhao Cai"
"Yanchun Li"
"Xiaodong Li"
"Xiang Wu"
"Peixiang Lu"
_chemical_name_systematic
;
catena-[guanidinium tris(\m-formato)-copper]
;
_cell_volume    869.561
_exptl_crystal_colour 'blue'
_exptl_crystal_density_diffrn 1.976
_exptl_crystal_description 'block'
_diffrn_ambient_temperature 150.0
#These two values have been output from a single CSD field.
_refine_ls_R_factor_gt 0.0233
_refine_ls_wR_factor_gt 0.0233
_symmetry_cell_setting orthorhombic
_symmetry_space_group_name_H-M 'P n a 21'
_symmetry_Int_Tables_number 33
loop_
_symmetry_equiv_pos_site_id
_symmetry_equiv_pos_as_xyz
1 x,y,z
2 -x,-y,1/2+z
3 1/2-x,1/2+y,1/2+z
4 1/2+x,1/2-y,z
_cell_length_a 8.4877(3)
_cell_length_b 9.0448(4)
_cell_length_c 11.3269(4)
_cell_angle_alpha 90
_cell_angle_beta 90
_cell_angle_gamma 90
_cell_formula_units_Z 4
loop_
_atom_type_symbol
_atom_type_radius_bond
C 0.68
H 0.23
Cu 1.32
N 0.68
O 0.68
loop_
_atom_site_label
_atom_site_type_symbol
_atom_site_fract_x
_atom_site_fract_y
_atom_site_fract_z
Cu1 Cu -0.00710(2) -0.00086(3) 0.47623(11)
O1 O -0.00244(15) -0.1126(2) 0.32358(16)
O2 O 0.20614(17) 0.15134(16) 0.41538(14)
O3 O 0.01478(17) -0.11070(19) 0.12811(16)
O4 O 0.35998(17) 0.34903(15) 0.40312(13)
O5 O 0.16681(16) -0.12206(14) 0.53933(13)
O6 O 0.32011(18) -0.32052(16) 0.55211(14)
C1 C 0.2023(2) -0.2554(2) 0.51341(17)
H1 H 0.13590 -0.30660 0.46250
C2 C 0.0084(2) -0.04602(18) 0.2257(3)
H2 H 0.01180 0.05680 0.22630
C3 C 0.2448(2) 0.2776(2) 0.44682(18)
H3 H 0.18600 0.32290 0.50600
C4 C -0.0059(3) 0.50097(16) 0.7245(10)
N1 N -0.0135(2) 0.64705(16) 0.7302(3)
H4 H -0.08000 0.69430 0.68710
H5 H 0.04810 0.69470 0.77700
N2 N -0.0977(2) 0.4253(2) 0.6543(2)
N3 N 0.0943(2) 0.4296(2) 0.7986(2)
H6 H 0.087(4) 0.336(4) 0.798(3)
H7 H -0.172(4) 0.479(3) 0.610(3)
H8 H -0.085(4) 0.353(4) 0.648(3)
H9 H 0.139(6) 0.471(4) 0.832(4)
Cu1A Cu 0.00710(2) 0.00086(3) -0.02377(11)
Cu1C Cu 0.49290(2) -0.49914(3) 0.47623(11)
Cu1C* Cu 0.49290(2) 0.50086(3) 0.47623(11)
O3A O -0.01478(17) 0.11070(19) 0.62811(16)
O4C O -0.14002(17) 0.15097(15) 0.40312(13)
O6C O -0.17989(18) -0.17948(16) 0.55211(14)
#END
