
#######################################################################
#
#                 Cambridge Crystallographic Data Centre
#                                CCDC
#
#######################################################################
#
# If this CIF has been generated from an entry in the Cambridge
# Structural Database, then it will include bibliographic, chemical,
# crystal, experimental, refinement or atomic coordinate data resulting
# from the CCDC's data processing and validation procedures.
#
#######################################################################

data_CSD_CIF_YULNOK
_audit_creation_date 2015-07-01
_audit_creation_method CSD-ConQuest-V1
_database_code_CSD YULNOK
_database_code_depnum_ccdc_archive 'CCDC 1016613'
_chemical_formula_sum 'C66 H89 Cl3 Cu6 N6 Na3 O47.5'
_chemical_formula_moiety
;
(H3 O1 1+)2n,n(C66 H68 Cl3 Cu6 N6 Na3 O38 2-),7.5n(H2 O1)
;
_journal_coden_Cambridge 580
_journal_volume 99
_journal_year 2015
_journal_page_first 7
_journal_name_full 'Polyhedron '
loop_
_publ_author_name
"G.C.Giri"
"S.Haldar"
"L.Carrella"
"A.B.Panda"
"G.T.Musie"
"M.Bera"
_chemical_name_systematic
;
catena-[bis(Oxonium) 
hexakis(\m~4~-2-(((2-carboxylatoethyl)amino)methyl)benzoato)-bis(\m~3~-hydroxo
)-tris(perchlorato-O)-hexa-copper-tri-sodium hydrate]
;
_cell_volume   4451.099
_exptl_crystal_colour 'blue'
_exptl_crystal_density_diffrn 1.703
_exptl_crystal_description 'needle'
_diffrn_ambient_temperature 293
_refine_special_details
;
The structure is disordered.

;
#These two values have been output from a single CSD field.
_refine_ls_R_factor_gt 0.0508
_refine_ls_wR_factor_gt 0.0508
_symmetry_cell_setting hexagonal
_symmetry_space_group_name_H-M 'P 63/m'
_symmetry_Int_Tables_number 176
loop_
_symmetry_equiv_pos_site_id
_symmetry_equiv_pos_as_xyz
1 x,y,z
2 -y,x-y,z
3 -x+y,-x,z
4 -x,-y,1/2+z
5 y,-x+y,1/2+z
6 x-y,x,1/2+z
7 -x,-y,-z
8 y,-x+y,-z
9 x-y,x,-z
10 x,y,-1/2-z
11 -y,x-y,-1/2-z
12 -x+y,-x,-1/2-z
_cell_length_a 16.363(3)
_cell_length_b 16.363(3)
_cell_length_c 19.196(5)
_cell_angle_alpha 90
_cell_angle_beta 90
_cell_angle_gamma 120
_cell_formula_units_Z 2
loop_
_atom_type_symbol
_atom_type_radius_bond
C 0.68
H 0.23
Cl 0.99
Cu 1.32
N 0.68
Na 1.66
O 0.68
loop_
_atom_site_label
_atom_site_type_symbol
_atom_site_fract_x
_atom_site_fract_y
_atom_site_fract_z
Cu1 Cu 0.77114(5) 0.31792(5) 0.50904(4)
Na1 Na 0.5310(2) 0.0301(2) 0.75000
Cl1 Cl 0.2928(2) -0.0291(3) 0.75000
O1 O 0.2685(12) -0.0509(10) 0.6816(7)
O2 O 0.2694(14) -0.1187(15) 0.7866(9)
O3 O 0.2448(10) 0.0151(15) 0.7735(8)
O4 O 0.8611(3) 0.3984(3) 0.4376(3)
O5 O 0.9123(4) 0.4068(5) 0.3291(3)
O6 O 0.6665(3) 0.2203(3) 0.5650(2)
O7 O 0.5920(4) 0.1336(4) 0.6572(3)
O8 O 0.66670 0.33330 0.4670(4)
H1 H 0.66670 0.33330 0.41590
O9 O 0.3886(6) 0.0351(6) 0.75000
N1 N 0.8690(4) 0.3145(4) 0.5677(3)
H2 H 0.87810 0.35610 0.60720
C1 C 0.9344(6) 0.3069(6) 0.4069(5)
C2 C 0.9382(7) 0.2518(9) 0.3527(6)
H3 H 0.92140 0.25870 0.30770
C3 C 0.9677(9) 0.1855(9) 0.3668(9)
H4 H 0.96800 0.14740 0.33090
C4 C 0.9954(8) 0.1765(8) 0.4309(9)
H5 H 1.01520 0.13300 0.43890
C5 C 0.9944(6) 0.2311(6) 0.4844(6)
H6 H 1.01530 0.22570 0.52830
C6 C 0.9621(5) 0.2956(5) 0.4739(5)
C7 C 0.8997(5) 0.3745(6) 0.3897(5)
C8 C 0.9629(5) 0.3529(5) 0.5353(5)
H7 H 1.00710 0.35470 0.56980
H8 H 0.98470 0.41720 0.52030
C9 C 0.8349(5) 0.2193(5) 0.5987(4)
H9 H 0.88720 0.21750 0.62100
H10 H 0.81080 0.17210 0.56210
C10 C 0.7572(5) 0.1965(6) 0.6522(4)
H11 H 0.74530 0.14010 0.67740
H12 H 0.78040 0.24780 0.68560
C11 C 0.6649(5) 0.1809(5) 0.6234(4)
O10 O 1.00000 0.00000 0.25000
O11 O 0.7052(10) 0.2085(10) 0.3667(11)
O12 O 0.7987(10) 0.4181(12) 0.25000
O13? O 0.7238(9) 0.1917(9) 0.4241(9)
O14? O 0.7588(12) 0.3142(15) 0.25000
O1I O 0.2685(12) -0.0509(10) 0.8184(7)
O2I O 0.2694(14) -0.1187(15) 0.7134(9)
O3I O 0.2448(10) 0.0151(15) 0.7265(8)
Cu1A Cu 0.68208(5) 0.45322(5) 0.50904(4)
Na1A Na 0.9699(2) 0.5009(2) 0.75000
Cl1A Cl 1.0291(2) 0.3219(3) 0.75000
O1A O 1.0509(12) 0.3194(10) 0.6816(7)
O2A O 1.1187(14) 0.3881(15) 0.7866(9)
O3A O 0.9849(10) 0.2297(15) 0.7735(8)
O4A O 0.6016(3) 0.4627(3) 0.4376(3)
O5A O 0.5932(4) 0.5055(5) 0.3291(3)
O6A O 0.7797(3) 0.4462(3) 0.5650(2)
O7A O 0.8664(4) 0.4584(4) 0.6572(3)
O9A O 0.9649(6) 0.3535(6) 0.75000
N1A N 0.6855(4) 0.5545(4) 0.5677(3)
H2A H 0.64390 0.52200 0.60720
C1A C 0.6931(6) 0.6275(6) 0.4069(5)
C2A C 0.7482(7) 0.6864(9) 0.3527(6)
H3A H 0.74130 0.66270 0.30770
C3A C 0.8145(9) 0.7822(9) 0.3668(9)
H4A H 0.85260 0.82060 0.33090
C4A C 0.8235(8) 0.8189(8) 0.4309(9)
H5A H 0.86700 0.88220 0.43890
C5A C 0.7689(6) 0.7633(6) 0.4844(6)
H6A H 0.77430 0.78960 0.52830
C6A C 0.7044(5) 0.6665(5) 0.4739(5)
C7A C 0.6255(5) 0.5252(6) 0.3897(5)
C8A C 0.6471(5) 0.6100(5) 0.5353(5)
H7A H 0.64530 0.65240 0.56980
H8A H 0.58280 0.56750 0.52030
C9A C 0.7807(5) 0.6156(5) 0.5987(4)
H9A H 0.78250 0.66970 0.62100
H10A H 0.82790 0.63870 0.56210
C10A C 0.8035(5) 0.5607(6) 0.6522(4)
H11A H 0.85990 0.60520 0.67740
H12A H 0.75220 0.53260 0.68560
C11A C 0.8191(5) 0.4840(5) 0.6234(4)
O1J O 1.0509(12) 0.3194(10) 0.8184(7)
O2J O 1.1187(14) 0.3881(15) 0.7134(9)
O3J O 0.9849(10) 0.2297(15) 0.7265(8)
Cu1B Cu 0.54678(5) 0.22886(5) 0.50904(4)
Na1B Na 0.4991(2) 0.4690(2) 0.75000
Cl1B Cl 0.6781(2) 0.7072(3) 0.75000
O1B O 0.6806(12) 0.7315(10) 0.6816(7)
O2B O 0.6119(14) 0.7306(15) 0.7866(9)
O3B O 0.7703(10) 0.7552(15) 0.7735(8)
O4B O 0.5373(3) 0.1389(3) 0.4376(3)
O5B O 0.4945(4) 0.0877(5) 0.3291(3)
O6B O 0.5538(3) 0.3335(3) 0.5650(2)
O7B O 0.5416(4) 0.4080(4) 0.6572(3)
O9B O 0.6465(6) 0.6114(6) 0.75000
N1B N 0.4455(4) 0.1310(4) 0.5677(3)
H2B H 0.47800 0.12190 0.60720
C1B C 0.3725(6) 0.0656(6) 0.4069(5)
C2B C 0.3136(7) 0.0618(9) 0.3527(6)
H3B H 0.33730 0.07860 0.30770
C3B C 0.2178(9) 0.0323(9) 0.3668(9)
H4B H 0.17940 0.03200 0.33090
C4B C 0.1811(8) 0.0046(8) 0.4309(9)
H5B H 0.11780 -0.01520 0.43890
C5B C 0.2367(6) 0.0056(6) 0.4844(6)
H6B H 0.21040 -0.01530 0.52830
C6B C 0.3335(5) 0.0379(5) 0.4739(5)
C7B C 0.4748(5) 0.1003(6) 0.3897(5)
C8B C 0.3900(5) 0.0371(5) 0.5353(5)
H7B H 0.34760 -0.00710 0.56980
H8B H 0.43250 0.01530 0.52030
C9B C 0.3844(5) 0.1651(5) 0.5987(4)
H9B H 0.33030 0.11280 0.62100
H10B H 0.36130 0.18920 0.56210
C10B C 0.4393(5) 0.2428(6) 0.6522(4)
H11B H 0.39480 0.25470 0.67740
H12B H 0.46740 0.21960 0.68560
C11B C 0.5160(5) 0.3351(5) 0.6234(4)
O1K O 0.6806(12) 0.7315(10) 0.8184(7)
O2K O 0.6119(14) 0.7306(15) 0.7134(9)
O3K O 0.7703(10) 0.7552(15) 0.7265(8)
Cu1F Cu 0.22886(5) -0.31792(5) 0.49096(4)
O4F O 0.1389(3) -0.3984(3) 0.5624(3)
O5F O 0.0877(4) -0.4068(5) 0.6709(3)
O6F O 0.3335(3) -0.2203(3) 0.4350(2)
O7F O 0.4080(4) -0.1336(4) 0.3428(3)
O8F O 0.33330 -0.33330 0.5330(4)
H1F H 0.33330 -0.33330 0.58410
N1F N 0.1310(4) -0.3145(4) 0.4323(3)
H2F H 0.12190 -0.35610 0.39280
C1F C 0.0656(6) -0.3069(6) 0.5931(5)
C2F C 0.0618(7) -0.2518(9) 0.6473(6)
H3F H 0.07860 -0.25870 0.69230
C3F C 0.0323(9) -0.1855(9) 0.6332(9)
H4F H 0.03200 -0.14740 0.66910
C4F C 0.0046(8) -0.1765(8) 0.5691(9)
H5F H -0.01520 -0.13300 0.56110
C5F C 0.0056(6) -0.2311(6) 0.5156(6)
H6F H -0.01530 -0.22570 0.47170
C6F C 0.0379(5) -0.2956(5) 0.5261(5)
C7F C 0.1003(5) -0.3745(6) 0.6103(5)
C8F C 0.0371(5) -0.3529(5) 0.4647(5)
H7F H -0.00710 -0.35470 0.43020
H8F H 0.01530 -0.41720 0.47970
C9F C 0.1651(5) -0.2193(5) 0.4013(4)
H9F H 0.11280 -0.21750 0.37900
H10F H 0.18920 -0.17210 0.43790
C10F C 0.2428(5) -0.1965(6) 0.3478(4)
H11F H 0.25470 -0.14010 0.32260
H12F H 0.21960 -0.24780 0.31440
C11F C 0.3351(5) -0.1809(5) 0.3766(4)
Cu1G Cu 0.31792(5) -0.45322(5) 0.49096(4)
O4G O 0.3984(3) -0.4627(3) 0.5624(3)
O5G O 0.4068(4) -0.5055(5) 0.6709(3)
O6G O 0.2203(3) -0.4462(3) 0.4350(2)
O7G O 0.1336(4) -0.4584(4) 0.3428(3)
N1G N 0.3145(4) -0.5545(4) 0.4323(3)
H2G H 0.35610 -0.52200 0.39280
C1G C 0.3069(6) -0.6275(6) 0.5931(5)
C2G C 0.2518(7) -0.6864(9) 0.6473(6)
H3G H 0.25870 -0.66270 0.69230
C3G C 0.1855(9) -0.7822(9) 0.6332(9)
H4G H 0.14740 -0.82060 0.66910
C4G C 0.1765(8) -0.8189(8) 0.5691(9)
H5G H 0.13300 -0.88220 0.56110
C5G C 0.2311(6) -0.7633(6) 0.5156(6)
H6G H 0.22570 -0.78960 0.47170
C6G C 0.2956(5) -0.6665(5) 0.5261(5)
C7G C 0.3745(5) -0.5252(6) 0.6103(5)
C8G C 0.3529(5) -0.6100(5) 0.4647(5)
H7G H 0.35470 -0.65240 0.43020
H8G H 0.41720 -0.56750 0.47970
C9G C 0.2193(5) -0.6156(5) 0.4013(4)
H9G H 0.21750 -0.66970 0.37900
H10G H 0.17210 -0.63870 0.43790
C10G C 0.1965(5) -0.5607(6) 0.3478(4)
H11G H 0.14010 -0.60520 0.32260
H12G H 0.24780 -0.53260 0.31440
C11G C 0.1809(5) -0.4840(5) 0.3766(4)
Cu1H Cu 0.45322(5) -0.22886(5) 0.49096(4)
O4H O 0.4627(3) -0.1389(3) 0.5624(3)
O5H O 0.5055(4) -0.0877(5) 0.6709(3)
O6H O 0.4462(3) -0.3335(3) 0.4350(2)
O7H O 0.4584(4) -0.4080(4) 0.3428(3)
N1H N 0.5545(4) -0.1310(4) 0.4323(3)
H2H H 0.52200 -0.12190 0.39280
C1H C 0.6275(6) -0.0656(6) 0.5931(5)
C2H C 0.6864(7) -0.0618(9) 0.6473(6)
H3H H 0.66270 -0.07860 0.69230
C3H C 0.7822(9) -0.0323(9) 0.6332(9)
H4H H 0.82060 -0.03200 0.66910
C4H C 0.8189(8) -0.0046(8) 0.5691(9)
H5H H 0.88220 0.01520 0.56110
C5H C 0.7633(6) -0.0056(6) 0.5156(6)
H6H H 0.78960 0.01530 0.47170
C6H C 0.6665(5) -0.0379(5) 0.5261(5)
C7H C 0.5252(5) -0.1003(6) 0.6103(5)
C8H C 0.6100(5) -0.0371(5) 0.4647(5)
H7H H 0.65240 0.00710 0.43020
H8H H 0.56750 -0.01530 0.47970
C9H C 0.6156(5) -0.1651(5) 0.4013(4)
H9H H 0.66970 -0.11280 0.37900
H10H H 0.63870 -0.18920 0.43790
C10H C 0.5607(5) -0.2428(6) 0.3478(4)
H11H H 0.60520 -0.25470 0.32260
H12H H 0.53260 -0.21960 0.31440
C11H C 0.4840(5) -0.3351(5) 0.3766(4)
Na1A* Na -0.0301(2) -0.4991(2) 0.75000
Na1B* Na 0.4991(2) -0.5310(2) 0.75000
Na1C Na 0.4690(2) -0.0301(2) 0.25000
Na1D Na 0.0301(2) -0.5009(2) 0.25000
Na1D* Na 1.0301(2) 0.4991(2) 0.25000
Na1E Na 0.5009(2) -0.4690(2) 0.25000
Na1E* Na 0.5009(2) 0.5310(2) 0.25000
O5C O 1.0877(4) 0.5932(5) 0.8291(3)
O5D O 0.4068(4) 0.4945(5) 0.8291(3)
O5E O 0.5055(4) -0.0877(5) 0.8291(3)
O5F* O 1.0877(4) 0.5932(5) 0.6709(3)
O5G* O 0.4068(4) 0.4945(5) 0.6709(3)
O7I O 0.5920(4) 0.1336(4) 0.8428(3)
O7J O 0.8664(4) 0.4584(4) 0.8428(3)
O7K O 0.5416(4) 0.4080(4) 0.8428(3)
#END
