
#######################################################################
#
#                 Cambridge Crystallographic Data Centre
#                                CCDC
#
#######################################################################
#
# If this CIF has been generated from an entry in the Cambridge
# Structural Database, then it will include bibliographic, chemical,
# crystal, experimental, refinement or atomic coordinate data resulting
# from the CCDC's data processing and validation procedures.
#
#######################################################################

data_CSD_CIF_YULVAF
_audit_creation_date 2020-04-16
_audit_creation_method CSD-ConQuest-V1
_database_code_CSD YULVAF
_database_code_depnum_ccdc_archive 'CCDC 1815196'
_chemical_formula_sum 'C142 H140 N4 O29 Zn3'
_chemical_formula_moiety
;
(C132 H108 O26 Zn3 2-)n,2(C3 H7 N1 O1),2(C2 H8 N1 1+),H2 O1
;
_journal_coden_Cambridge 9
_journal_volume 59
_journal_year 2020
_journal_page_first 6202
_journal_name_full 'Inorg.Chem. '
loop_
_publ_author_name
"A.Mukhopadhyay"
"S.Jindal"
"G.Savitha"
"J.N.Moorthy"
_chemical_name_systematic
;
catena-[bis(dimethylammonium) 
bis(2,2',2'',2'''-{dibenzo[g,p]chrysene-3,6,11,14-tetrayltetrakis[(3,5-dimethy
l-4,1-phenylene)oxy]}tetraacetato)-diaqua-tri-zinc N,N-dimethylformamide 
unknown solvate monohydrate]
;
_cell_volume  13363.771
_exptl_crystal_colour 'colorless'
_exptl_crystal_density_diffrn 1.271
_exptl_crystal_description 'square'
_diffrn_ambient_temperature 100
_refine_special_details
;
Disordered solvent molecules were not modelled and the disordered density was 
taken into account using the SQUEEZE/PLATON procedure.
;
#These two values have been output from a single CSD field.
_refine_ls_R_factor_gt 0.0945
_refine_ls_wR_factor_gt 0.0945
_symmetry_cell_setting orthorhombic
_symmetry_space_group_name_H-M 'P b c n'
_symmetry_Int_Tables_number 60
loop_
_symmetry_equiv_pos_site_id
_symmetry_equiv_pos_as_xyz
1 x,y,z
2 1/2-x,1/2-y,1/2+z
3 1/2+x,1/2-y,-z
4 -x,y,1/2-z
5 -x,-y,-z
6 -1/2+x,-1/2+y,-1/2-z
7 -1/2-x,-1/2+y,z
8 x,-y,-1/2+z
_cell_length_a 46.3675(19)
_cell_length_b 19.1670(8)
_cell_length_c 15.0370(6)
_cell_angle_alpha 90
_cell_angle_beta 90
_cell_angle_gamma 90
_cell_formula_units_Z 4
loop_
_atom_type_symbol
_atom_type_radius_bond
C 0.68
H 0.23
N 0.68
O 0.68
Zn 1.22
loop_
_atom_site_label
_atom_site_type_symbol
_atom_site_fract_x
_atom_site_fract_y
_atom_site_fract_z
Zn1 Zn 0.00365(2) 0.68795(3) 0.09141(4)
O1 O 0.03001(8) 0.6537(2) 0.1822(2)
C1 C 0.05335(12) 0.6303(3) 0.1488(4)
Zn2 Zn 0.50000 0.62309(6) 0.75000
O2 O 0.05851(8) 0.6278(2) 0.0698(3)
C2 C 0.07412(11) 0.6015(3) 0.2191(4)
H1 H 0.07499 0.63327 0.26922
H2 H 0.06715 0.55680 0.24040
O3 O 0.10145(8) 0.5935(2) 0.1830(2)
C3 C 0.12225(12) 0.5710(3) 0.2413(4)
C4 C 0.15000(11) 0.5665(3) 0.2061(4)
H3 H 0.15332 0.58021 0.14767
O4 O 0.44646(7) 0.0829(2) 0.6225(3)
C5 C 0.17252(12) 0.5422(3) 0.2568(3)
O5 O -0.03317(8) 0.71077(19) 0.1560(2)
C6 C 0.16734(11) 0.5217(3) 0.3456(3)
O6 O 0.47468(11) 0.5650(3) 0.8203(4)
C7 C 0.13956(11) 0.5271(3) 0.3811(3)
O7 O 0.4475(1) 0.6575(2) 0.8474(3)
C8 C 0.11711(11) 0.5526(3) 0.3290(4)
H4 H 0.09873 0.55739 0.35293
O8 O 0.40895(10) 0.5753(2) 0.9388(3)
C9 C 0.13298(11) 0.5064(3) 0.4772(3)
H5 H 0.11640 0.53173 0.49773
H6 H 0.14926 0.51730 0.51411
H7 H 0.12914 0.45724 0.48003
O9 O 0.01566(10) 0.1897(2) 0.6645(4)
C10 C 0.20173(12) 0.5347(3) 0.2151(4)
H8 H 0.20941 0.48939 0.22849
H9 H 0.21439 0.56992 0.23829
H10 H 0.20011 0.54003 0.15180
O10 O 0.02419(9) 0.2306(2) 0.5326(3)
C11 C 0.19058(10) 0.4889(3) 0.3992(3)
O11 O 0.05803(9) 0.1136(2) 0.4971(4)
C12 C 0.18712(10) 0.4212(3) 0.4272(3)
H11 H 0.17046 0.39738 0.41083
O12 O 0.48792(8) 0.1401(2) 0.5111(3)
C13 C 0.20762(10) 0.3864(2) 0.4794(3)
O13 O 0.47984(11) 0.0590(3) 0.4114(3)
C14 C 0.23312(10) 0.4218(3) 0.5040(3)
C15 C 0.23692(10) 0.4899(3) 0.4725(3)
H12 H 0.25385 0.51360 0.48601
C16 C 0.21616(10) 0.5226(3) 0.4219(3)
H13 H 0.21929 0.56801 0.40262
C17 C 0.02522(11) 0.1826(3) 0.5901(6)
C18 C 0.03905(15) 0.1116(3) 0.5648(6)
H14 H 0.04877 0.09313 0.61682
H15 H 0.02373 0.07936 0.54937
C19 C 0.08535(12) 0.1399(3) 0.5136(5)
C20 C 0.10415(13) 0.1337(3) 0.4435(4)
H16 H 0.09808 0.11333 0.39055
C21 C 0.13171(12) 0.1574(3) 0.4517(4)
C22 C 0.14131(11) 0.1877(2) 0.5316(3)
C23 C 0.12282(11) 0.1935(3) 0.6028(4)
C24 C 0.09392(12) 0.1692(3) 0.5928(5)
H17 H 0.08093 0.17314 0.63964
C25 C 0.13222(13) 0.2242(3) 0.6903(4)
H18 H 0.11583 0.22861 0.72885
H19 H 0.14057 0.26935 0.68035
H20 H 0.14627 0.19415 0.71740
C26 C 0.15122(15) 0.1512(3) 0.3723(4)
H21 H 0.16942 0.13202 0.39041
H22 H 0.15421 0.19654 0.34675
H23 H 0.14249 0.12111 0.32892
C27 C 0.17136(10) 0.2166(3) 0.5353(3)
C28 C 0.19501(11) 0.1781(3) 0.5671(4)
H24 H 0.19231 0.13254 0.58670
C29 C 0.22223(11) 0.2073(3) 0.5695(3)
H25 H 0.23750 0.18114 0.59172
C30 C 0.22749(10) 0.2759(3) 0.5391(3)
C31 C 0.20351(10) 0.3149(2) 0.5085(3)
C32 C 0.17615(10) 0.2844(3) 0.5077(3)
H26 H 0.16058 0.31074 0.48788
C33 C 0.45443(15) 0.5955(4) 0.8577(5)
C34 C 0.43758(15) 0.5501(4) 0.9198(5)
H27 H 0.43611 0.50380 0.89415
H28 H 0.44813 0.54600 0.97524
C35 C 0.38807(12) 0.5583(3) 0.8774(4)
C36 C 0.36019(13) 0.5576(3) 0.9061(4)
H29 H 0.35610 0.57166 0.96391
C37 C 0.33771(12) 0.5363(3) 0.8513(3)
C38 C 0.34385(11) 0.5159(3) 0.7634(3)
C39 C 0.37219(11) 0.5196(3) 0.7334(3)
C40 C 0.39417(12) 0.5403(3) 0.7902(4)
H30 H 0.41306 0.54217 0.76961
C41 C 0.38044(12) 0.5018(3) 0.6372(4)
H31 H 0.39941 0.51932 0.62485
H32 H 0.36684 0.52280 0.59724
H33 H 0.38022 0.45207 0.62945
C42 C 0.30762(13) 0.5306(3) 0.8900(4)
H34 H 0.29761 0.49248 0.86231
H35 H 0.29729 0.57315 0.87947
H36 H 0.30891 0.52236 0.95290
C43 C 0.32099(10) 0.4855(3) 0.7063(3)
C44 C 0.29437(10) 0.5186(3) 0.6881(3)
H37 H 0.29077 0.56246 0.71218
C45 C 0.27406(10) 0.4882(3) 0.6368(3)
H38 H 0.25705 0.51216 0.62484
C46 C 0.27814(9) 0.4207(2) 0.6008(3)
C47 C 0.30352(10) 0.3843(2) 0.6221(3)
C48 C 0.3242(1) 0.4189(3) 0.6734(3)
H39 H 0.34125 0.39536 0.68610
C49 C 0.47664(12) 0.0843(3) 0.4867(4)
C50 C 0.45856(12) 0.0429(3) 0.5527(4)
H40 H 0.44303 0.02009 0.52066
H41 H 0.47053 0.00662 0.57855
C51 C 0.42051(10) 0.1154(3) 0.6041(4)
C52 C 0.39954(11) 0.1081(3) 0.6680(3)
H42 H 0.40320 0.08197 0.71882
C53 C 0.37282(10) 0.1400(3) 0.6566(3)
C54 C 0.36724(10) 0.1783(2) 0.5796(3)
C55 C 0.38832(11) 0.1845(3) 0.5144(3)
C56 C 0.41531(10) 0.1534(3) 0.5279(3)
H43 H 0.42974 0.15839 0.48543
C57 C 0.38324(12) 0.2265(3) 0.4316(4)
H44 H 0.40090 0.23012 0.39859
H45 H 0.37666 0.27231 0.44749
H46 H 0.36889 0.20388 0.39566
C58 C 0.35033(12) 0.1331(3) 0.7287(4)
H47 H 0.33304 0.11347 0.70408
H48 H 0.34617 0.17837 0.75295
H49 H 0.35748 0.10325 0.77494
C59 C 0.3341(1) 0.2798(3) 0.5961(3)
H50 H 0.34994 0.30448 0.61721
C60 C 0.30723(10) 0.3134(3) 0.5934(3)
C61 C 0.28275(10) 0.2753(3) 0.5621(3)
C62 C 0.28731(11) 0.2065(3) 0.5335(3)
H51 H 0.27181 0.18108 0.51131
C63 C 0.31427(11) 0.1754(3) 0.5373(4)
H52 H 0.31651 0.12947 0.51852
C64 C 0.33805(10) 0.2123(3) 0.5691(3)
C65 C 0.25534(10) 0.3114(3) 0.5516(3)
C66 C 0.25552(10) 0.3844(3) 0.5520(3)
N1 N 0.24851(11) 0.2580(3) 0.2922(3)
O14 O 0.24584(12) 0.3732(3) 0.2515(3)
C67 C 0.27984(14) 0.2567(4) 0.2953(5)
H53 H 0.28604 0.24144 0.35301
H54 H 0.28720 0.30265 0.28395
H55 H 0.28698 0.22508 0.25091
C68 C 0.23457(16) 0.3169(4) 0.2710(5)
H56 H 0.21452 0.31523 0.27108
C69 C 0.23318(15) 0.1945(3) 0.3099(4)
H57 H 0.21292 0.20192 0.30068
H58 H 0.23648 0.18058 0.37033
H59 H 0.23988 0.15864 0.27045
N2 N 0.0593(2) 0.3208(5) 0.3981(7)
H60 H 0.05563 0.28434 0.36332
H61 H 0.05061 0.31337 0.45001
C70 C 0.0958(3) 0.3254(7) 0.4157(8)
H62 H 0.10486 0.28442 0.39197
H63 H 0.09953 0.32833 0.47839
H64 H 0.10338 0.36602 0.38663
C71 C 0.0458(3) 0.3881(7) 0.3541(8)
H65 H 0.02603 0.37921 0.33879
H66 H 0.05641 0.39981 0.30131
H67 H 0.04672 0.42630 0.39532
O15 O 0.50000 0.0040(3) 0.25000
Zn1C Zn 0.99635(2) 0.68795(3) 1.40859(4)
O1C O 0.96999(8) 0.6537(2) 1.3178(2)
C1C C 0.94665(12) 0.6303(3) 1.3512(4)
O2C O 0.94149(8) 0.6278(2) 1.4302(3)
C2C C 0.92588(11) 0.6015(3) 1.2809(4)
H1C H 0.92501 0.63327 1.23078
H2C H 0.93285 0.55680 1.25960
O3C O 0.89855(8) 0.5935(2) 1.3170(2)
C3C C 0.87775(12) 0.5710(3) 1.2587(4)
C4C C 0.85000(11) 0.5665(3) 1.2939(4)
H3C H 0.84668 0.58021 1.35233
O4C O 0.55354(7) 0.0829(2) 0.8775(3)
C5C C 0.82748(12) 0.5422(3) 1.2432(3)
O5C O 1.03317(8) 0.71077(19) 1.3440(2)
C6C C 0.83266(11) 0.5217(3) 1.1544(3)
O6C O 0.52532(11) 0.5650(3) 0.6797(4)
C7C C 0.86044(11) 0.5271(3) 1.1189(3)
O7C O 0.5525(1) 0.6575(2) 0.6526(3)
C8C C 0.88289(11) 0.5526(3) 1.1710(4)
H4C H 0.90127 0.55739 1.14707
O8C O 0.59105(10) 0.5753(2) 0.5612(3)
C9C C 0.86702(11) 0.5064(3) 1.0228(3)
H5C H 0.88360 0.53173 1.00227
H6C H 0.85074 0.51730 0.98589
H7C H 0.87086 0.45724 1.01997
O9C O 0.98434(10) 0.1897(2) 0.8355(4)
C10C C 0.79827(12) 0.5347(3) 1.2849(4)
H8C H 0.79059 0.48939 1.27151
H9C H 0.78561 0.56992 1.26171
H10C H 0.79989 0.54003 1.34820
O10C O 0.97581(9) 0.2306(2) 0.9674(3)
C11C C 0.80942(10) 0.4889(3) 1.1008(3)
O11C O 0.94197(9) 0.1136(2) 1.0029(4)
C12C C 0.81288(10) 0.4212(3) 1.0728(3)
H11C H 0.82954 0.39738 1.08917
O12C O 0.51208(8) 0.1401(2) 0.9889(3)
C13C C 0.79238(10) 0.3864(2) 1.0206(3)
O13C O 0.52016(11) 0.0590(3) 1.0886(3)
C14C C 0.76688(10) 0.4218(3) 0.9960(3)
C15C C 0.76308(10) 0.4899(3) 1.0275(3)
H12C H 0.74615 0.51360 1.01399
C16C C 0.78384(10) 0.5226(3) 1.0781(3)
H13C H 0.78071 0.56801 1.09738
C17C C 0.97478(11) 0.1826(3) 0.9099(6)
C18C C 0.96095(15) 0.1116(3) 0.9352(6)
H14C H 0.95123 0.09313 0.88318
H15C H 0.97627 0.07936 0.95063
C19C C 0.91465(12) 0.1399(3) 0.9864(5)
C20C C 0.89585(13) 0.1337(3) 1.0565(4)
H16C H 0.90192 0.11333 1.10945
C21C C 0.86829(12) 0.1574(3) 1.0483(4)
C22C C 0.85869(11) 0.1877(2) 0.9684(3)
C23C C 0.87718(11) 0.1935(3) 0.8972(4)
C24C C 0.90608(12) 0.1692(3) 0.9072(5)
H17C H 0.91907 0.17314 0.86036
C25C C 0.86778(13) 0.2242(3) 0.8097(4)
H18C H 0.88417 0.22861 0.77115
H19C H 0.85943 0.26935 0.81965
H20C H 0.85373 0.19415 0.78260
C26C C 0.84878(15) 0.1512(3) 1.1277(4)
H21C H 0.83058 0.13202 1.10959
H22C H 0.84579 0.19654 1.15325
H23C H 0.85751 0.12111 1.17108
C27C C 0.82864(10) 0.2166(3) 0.9647(3)
C28C C 0.80499(11) 0.1781(3) 0.9329(4)
H24C H 0.80769 0.13254 0.91330
C29C C 0.77777(11) 0.2073(3) 0.9305(3)
H25C H 0.76250 0.18114 0.90828
C30C C 0.77251(10) 0.2759(3) 0.9609(3)
C31C C 0.79649(10) 0.3149(2) 0.9915(3)
C32C C 0.82385(10) 0.2844(3) 0.9923(3)
H26C H 0.83942 0.31074 1.01212
C33C C 0.54557(15) 0.5955(4) 0.6423(5)
C34C C 0.56242(15) 0.5501(4) 0.5802(5)
H27C H 0.56389 0.50380 0.60585
H28C H 0.55187 0.54600 0.52476
C35C C 0.61193(12) 0.5583(3) 0.6226(4)
C36C C 0.63981(13) 0.5576(3) 0.5939(4)
H29C H 0.64390 0.57166 0.53609
C37C C 0.66229(12) 0.5363(3) 0.6487(3)
C38C C 0.65615(11) 0.5159(3) 0.7366(3)
C39C C 0.62781(11) 0.5196(3) 0.7666(3)
C40C C 0.60583(12) 0.5403(3) 0.7098(4)
H30C H 0.58694 0.54217 0.73039
C41C C 0.61956(12) 0.5018(3) 0.8628(4)
H31C H 0.60059 0.51932 0.87515
H32C H 0.63316 0.52280 0.90276
H33C H 0.61978 0.45207 0.87055
C42C C 0.69238(13) 0.5306(3) 0.6100(4)
H34C H 0.70239 0.49248 0.63769
H35C H 0.70271 0.57315 0.62053
H36C H 0.69109 0.52236 0.54710
C43C C 0.67901(10) 0.4855(3) 0.7937(3)
C44C C 0.70563(10) 0.5186(3) 0.8119(3)
H37C H 0.70923 0.56246 0.78782
C45C C 0.72594(10) 0.4882(3) 0.8632(3)
H38C H 0.74295 0.51216 0.87516
C46C C 0.72186(9) 0.4207(2) 0.8992(3)
C47C C 0.69648(10) 0.3843(2) 0.8779(3)
C48C C 0.6758(1) 0.4189(3) 0.8266(3)
H39C H 0.65875 0.39536 0.81390
C49C C 0.52336(12) 0.0843(3) 1.0133(4)
C50C C 0.54144(12) 0.0429(3) 0.9473(4)
H40C H 0.55697 0.02009 0.97934
H41C H 0.52947 0.00662 0.92145
C51C C 0.57949(10) 0.1154(3) 0.8959(4)
C52C C 0.60046(11) 0.1081(3) 0.8320(3)
H42C H 0.59680 0.08197 0.78118
C53C C 0.62718(10) 0.1400(3) 0.8434(3)
C54C C 0.63276(10) 0.1783(2) 0.9204(3)
C55C C 0.61168(11) 0.1845(3) 0.9856(3)
C56C C 0.58469(10) 0.1534(3) 0.9721(3)
H43C H 0.57026 0.15839 1.01457
C57C C 0.61676(12) 0.2265(3) 1.0684(4)
H44C H 0.59910 0.23012 1.10141
H45C H 0.62334 0.27231 1.05251
H46C H 0.63111 0.20388 1.10434
C58C C 0.64967(12) 0.1331(3) 0.7713(4)
H47C H 0.66695 0.11347 0.79592
H48C H 0.65383 0.17837 0.74705
H49C H 0.64252 0.10325 0.72506
C59C C 0.6659(1) 0.2798(3) 0.9039(3)
H50C H 0.65006 0.30448 0.88279
C60C C 0.69277(10) 0.3134(3) 0.9066(3)
C61C C 0.71725(10) 0.2753(3) 0.9379(3)
C62C C 0.71269(11) 0.2065(3) 0.9665(3)
H51C H 0.72819 0.18108 0.98869
C63C C 0.68573(11) 0.1754(3) 0.9627(4)
H52C H 0.68349 0.12947 0.98148
C64C C 0.66195(10) 0.2123(3) 0.9309(3)
C65C C 0.74466(10) 0.3114(3) 0.9484(3)
C66C C 0.74448(10) 0.3844(3) 0.9480(3)
Zn1D Zn 0.99635(2) 0.31205(3) 0.90859(4)
Zn1E Zn 0.50365(2) 0.18795(3) 0.40859(4)
Zn1F Zn 0.49635(2) 0.18795(3) 1.09141(4)
Zn1G Zn 0.00365(2) 0.31205(3) 0.59141(4)
Zn2E Zn 0.00000 0.12309(6) 0.75000
Zn2E* Zn 1.00000 0.12309(6) 0.75000
O9E O 0.51566(10) 0.6897(2) 0.8355(4)
O9F O 0.48434(10) 0.6897(2) 0.6645(4)
O10D O 0.97581(9) 0.7694(2) 1.4674(3)
O10G O 0.02419(9) 0.7694(2) 0.0326(3)
O12E O -0.01208(8) 0.6401(2) -0.0111(3)
O12F O 1.01208(8) 0.6401(2) 1.5111(3)
#END
