
#######################################################################
#
#                 Cambridge Crystallographic Data Centre
#                                CCDC
#
#######################################################################
#
# If this CIF has been generated from an entry in the Cambridge
# Structural Database, then it will include bibliographic, chemical,
# crystal, experimental, refinement or atomic coordinate data resulting
# from the CCDC's data processing and validation procedures.
#
#######################################################################

data_CSD_CIF_YUNBIT
_audit_creation_date 2010-02-16
_audit_creation_method CSD-ConQuest-V1
_database_code_CSD YUNBIT
_database_code_depnum_ccdc_archive 'CCDC 734189 (not 670911 as published)'
_chemical_formula_sum 'C8 H16 Ag2 Cl3 K1 N8'
_chemical_formula_moiety
;
(K1 1+)n,n(C8 H16 Ag2 Cl3 N8 1-)
;
_journal_coden_Cambridge 211
_journal_volume 62
_journal_year 2009
_journal_page_first 1623
_journal_name_full 'J.Coord.Chem. '
loop_
_publ_author_name
"Yuan Yuan Liu"
"Bin Ding"
"En-Cui Yang"
"Xiao-Jun Zhao"
"Xiu Guang Wang"
_chemical_name_systematic
;
catena-(potassium 
(\m~3~-chloro)-bis(\m~2~-3,5-dimethyl-4-amino-1,2,4-triazole)-bis(\m~2~-chloro
)-di-silver(i))
;
_cell_volume   1730.259
_exptl_crystal_colour 'colorless'
_exptl_crystal_density_diffrn 2.248
_exptl_special_details
;
fluorescent

;
_exptl_crystal_description 'block'
_diffrn_ambient_temperature 293
#These two values have been output from a single CSD field.
_refine_ls_R_factor_gt 0.0562
_refine_ls_wR_factor_gt 0.0562
_symmetry_cell_setting monoclinic
_symmetry_space_group_name_H-M 'C 2/c'
_symmetry_Int_Tables_number 15
loop_
_symmetry_equiv_pos_site_id
_symmetry_equiv_pos_as_xyz
1 x,y,z
2 -x,y,1/2-z
3 1/2+x,1/2+y,z
4 1/2-x,1/2+y,1/2-z
5 -x,-y,-z
6 x,-y,-1/2+z
7 -1/2-x,-1/2-y,-z
8 -1/2+x,-1/2-y,-1/2+z
_cell_length_a 13.143(3)
_cell_length_b 12.128(2)
_cell_length_c 10.858(2)
_cell_angle_alpha 90
_cell_angle_beta 91.36(3)
_cell_angle_gamma 90
_cell_formula_units_Z 4
loop_
_atom_type_symbol
_atom_type_radius_bond
C 0.68
H 0.23
Ag 1.33
Cl 1.07
K 0.72
N 0.68
loop_
_atom_site_label
_atom_site_type_symbol
_atom_site_fract_x
_atom_site_fract_y
_atom_site_fract_z
Ag1 Ag 0.50000 0.70351(10) 0.25000
Ag2 Ag 0.50000 0.50000 0.00000
C1 C 0.7929(10) 0.4865(11) -0.0587(12)
H1 H 0.73850 0.45570 -0.10810
H2 H 0.82660 0.42880 -0.01300
H3 H 0.84080 0.52200 -0.11120
C2 C 0.781(1) 0.7832(11) 0.2586(10)
H4 H 0.80780 0.74730 0.33120
H5 H 0.72390 0.82800 0.27980
H6 H 0.83280 0.82880 0.22390
C3 C 0.7479(9) 0.6986(11) 0.1668(9)
C4 C 0.7513(9) 0.5683(9) 0.0276(9)
Cl1 Cl 0.4155(2) 0.6873(2) 0.0339(2)
Cl2 Cl 0.50000 0.4748(3) 0.25000
N1 N 0.9168(8) 0.6406(10) 0.1036(11)
H7 H 0.94750 0.68690 0.15160
H8 H 0.95140 0.59740 0.05780
N2 N 0.6537(7) 0.6692(7) 0.1408(7)
N3 N 0.6552(7) 0.5879(7) 0.0517(7)
N4 N 0.8108(7) 0.6356(8) 0.1000(9)
K1 K 0.50000 0.9100(4) 0.25000
Ag2A Ag 0.50000 0.50000 0.50000
C1A C 0.2071(10) 0.4865(11) 0.5587(12)
H1A H 0.26150 0.45570 0.60810
H2A H 0.17340 0.42880 0.51300
H3A H 0.15920 0.52200 0.61120
C2A C 0.219(1) 0.7832(11) 0.2414(10)
H4A H 0.19220 0.74730 0.16880
H5A H 0.27610 0.82800 0.22020
H6A H 0.16720 0.82880 0.27610
C3A C 0.2521(9) 0.6986(11) 0.3332(9)
C4A C 0.2487(9) 0.5683(9) 0.4724(9)
Cl1A Cl 0.5845(2) 0.6873(2) 0.4661(2)
Cl1D Cl 0.5845(2) 0.3127(2) -0.0339(2)
Cl2D Cl 0.50000 0.5252(3) -0.25000
N1A N 0.0832(8) 0.6406(10) 0.3964(11)
H7A H 0.05250 0.68690 0.34840
H8A H 0.04860 0.59740 0.44220
N2A N 0.3463(7) 0.6692(7) 0.3592(7)
N3A N 0.3448(7) 0.5879(7) 0.4483(7)
N3D N 0.3448(7) 0.4121(7) -0.0517(7)
N4A N 0.1892(7) 0.6356(8) 0.4000(9)
#END
