
#######################################################################
#
#                 Cambridge Crystallographic Data Centre
#                                CCDC
#
#######################################################################
#
# If this CIF has been generated from an entry in the Cambridge
# Structural Database, then it will include bibliographic, chemical,
# crystal, experimental, refinement or atomic coordinate data resulting
# from the CCDC's data processing and validation procedures.
#
#######################################################################

data_CSD_CIF_YURJUR
_audit_creation_date 2010-11-04
_audit_creation_method CSD-ConQuest-V1
_database_code_CSD YURJUR
_database_code_depnum_ccdc_archive 'CCDC 736838'
_chemical_formula_sum 'C69.84 H72.96 Ce5 N6.28 O25.28 S4'
_chemical_formula_moiety
;
(C2 H8 N1 1+)5n,n(C56 H24 Ce5 O24 S4 5-),1.28n(C3 H7 N1 O1)
;
_journal_coden_Cambridge 1350
_journal_volume 12
_journal_year 2010
_journal_page_first 1034
_journal_name_full 'CrystEngComm '
loop_
_publ_author_name
"E.Neofotistou"
"C.D.Malliakas"
"P.N.Trikalitis"
_chemical_name_systematic
;
catena-(pentakis(Dimethylammonium) 
tetrakis(\m~4~-5,5-dioxodibenzo(b,d)thiophene-3,7-dicarboxylato)-penta-cerium 
dimethylformamide solvate)
;
_cell_volume  16281.137
_exptl_crystal_colour 'yellow'
_exptl_crystal_density_diffrn 0.683
_exptl_special_details
;
The authors report that the cations were not located in the X-ray analysis, 
but are deduced to be dimethylammonium ions , as a result of the heating of 
the dmf molecules
;
_exptl_crystal_description 'cube'
_diffrn_ambient_temperature 100
_diffrn_radiation_probe x-ray
_diffrn_source synchrotron
_refine_special_details
;
The SQUEEZE/PLATON program has been used to model some disorder associated 
with dmf solvent molecules.
;
#These two values have been output from a single CSD field.
_refine_ls_R_factor_gt 0.079
_refine_ls_wR_factor_gt 0.079
_symmetry_cell_setting rhombohedral
_symmetry_space_group_name_H-M 'R -3'
_symmetry_Int_Tables_number 148
loop_
_symmetry_equiv_pos_site_id
_symmetry_equiv_pos_as_xyz
1 x,y,z
2 -y,x-y,z
3 -x+y,-x,z
4 2/3+x,1/3+y,1/3+z
5 2/3-y,1/3+x-y,1/3+z
6 2/3-x+y,1/3-x,1/3+z
7 1/3+x,2/3+y,2/3+z
8 1/3-y,2/3+x-y,2/3+z
9 1/3-x+y,2/3-x,2/3+z
10 -x,-y,-z
11 y,-x+y,-z
12 x-y,x,-z
13 -2/3-x,-1/3-y,-1/3-z
14 -2/3+y,-1/3-x+y,-1/3-z
15 -2/3+x-y,-1/3+x,-1/3-z
16 -1/3-x,-2/3-y,-2/3-z
17 -1/3+y,-2/3-x+y,-2/3-z
18 -1/3+x-y,-2/3+x,-2/3-z
_cell_length_a 25.0566(12)
_cell_length_b 25.0566(12)
_cell_length_c 29.944(3)
_cell_angle_alpha 90
_cell_angle_beta 90
_cell_angle_gamma 120
_cell_formula_units_Z 3
loop_
_atom_type_symbol
_atom_type_radius_bond
C 0.68
H 0.23
Ce 1.78
O 0.68
S 1.02
loop_
_atom_site_label
_atom_site_type_symbol
_atom_site_fract_x
_atom_site_fract_y
_atom_site_fract_z
Ce1 Ce 0.33330 0.66670 0.29962(3)
Ce2 Ce 0.33330 0.66670 0.16670
S1 S 0.12773(12) 0.30871(9) 0.22881(9)
O1 O 0.2521(2) 0.5530(2) 0.18889(19)
O2 O 0.3274(2) 0.5981(2) 0.23817(17)
O3 O 0.0355(2) 0.0868(2) 0.31112(19)
O4 O 0.1069(2) 0.0948(2) 0.35788(19)
O5 O 0.1328(4) 0.2904(3) 0.1834(2)
O6 O 0.0723(3) 0.3098(3) 0.2414(3)
C1 C 0.2815(3) 0.5492(3) 0.2209(3)
C2 C 0.2639(3) 0.4887(3) 0.2408(3)
C3 C 0.2991(3) 0.4814(3) 0.2730(3)
H1 H 0.33500 0.51580 0.28300
C4 C 0.2820(4) 0.4239(4) 0.2910(3)
H2 H 0.30600 0.41960 0.31290
C5 C 0.2101(4) 0.4366(4) 0.2251(3)
H3 H 0.18560 0.44080 0.20370
C6 C 0.1941(4) 0.3792(3) 0.2418(3)
C7 C 0.2283(3) 0.3725(3) 0.2755(3)
C8 C 0.1997(4) 0.3072(3) 0.2909(3)
C9 C 0.1452(4) 0.2687(3) 0.2691(3)
C10 C 0.2213(4) 0.2818(3) 0.3243(3)
H4 H 0.25880 0.30590 0.33860
C11 C 0.1086(4) 0.2061(4) 0.2799(3)
H5 H 0.07180 0.18130 0.26490
C12 C 0.1847(4) 0.2209(4) 0.3344(3)
H6 H 0.19770 0.20420 0.35670
C13 C 0.1284(4) 0.1822(3) 0.3131(2)
C14 C 0.0885(4) 0.1169(4) 0.3284(3)
Ce1O Ce 0.33337 0.66663 0.033713(30)
Ce1L Ce 0.00003 -0.00003 0.367047(30)
Ce1M Ce 1.00003 1.00007 0.367047(30)
Ce1N Ce -0.00007 0.99997 0.367047(30)
Ce1F Ce 0.66663 1.33337 -0.033713(30)
S1A S 0.69129(12) 0.81902(9) 0.22881(9)
S1B S 0.18098(12) 0.87227(9) 0.22881(9)
S1O S 0.538937(120) 1.024623(90) 0.104523(90)
O1A O 0.4470(2) 0.6991(2) 0.18889(19)
O1B O 0.3009(2) 0.7479(2) 0.18889(19)
O1O O 0.414567(200) 0.780333(200) 0.144443(190)
O1P O 0.219667(200) 0.634233(200) 0.144443(190)
O1Q O 0.365767(200) 0.585433(200) 0.144443(190)
O2A O 0.4019(2) 0.7293(2) 0.23817(17)
O2B O 0.2707(2) 0.6726(2) 0.23817(17)
O2O O 0.339267(200) 0.735233(200) 0.095163(170)
O2P O 0.264767(200) 0.604033(200) 0.095163(170)
O2Q O 0.395967(200) 0.660733(200) 0.095163(170)
O2L O 0.005933(200) 0.068567(200) 0.428497(170)
O2M O -0.068567(200) -0.062633(200) 0.428497(170)
O2N O 0.062633(200) -0.005933(200) 0.428497(170)
O2M* O 0.931433(200) 0.937367(200) 0.428497(170)
O2N* O 1.062633(200) 0.994067(200) 0.428497(170)
O2L* O 1.005933(200) 1.068567(200) 0.428497(170)
O3A O 0.9132(2) 0.9487(2) 0.31112(19)
O3B O 0.0513(2) 0.9645(2) 0.31112(19)
O3O O 0.631167(200) 1.246533(200) 0.022213(190)
O3L O 0.297833(200) 0.579867(200) 0.355547(190)
O3M O 0.420133(200) 0.717967(200) 0.355547(190)
O3N O 0.282033(200) 0.702167(200) 0.355547(190)
O3F O 0.368833(200) 0.753467(200) -0.022213(190)
O3G O 0.246533(200) 0.615367(200) -0.022213(190)
O3H O 0.384633(200) 0.631167(200) -0.022213(190)
O3A* O -0.0868(2) -0.0513(2) 0.31112(19)
O3B* O 0.0513(2) -0.0355(2) 0.31112(19)
O3B** O 1.0513(2) 0.9645(2) 0.31112(19)
O3* O 1.0355(2) 1.0868(2) 0.31112(19)
O4A O 0.9052(2) 1.0121(2) 0.35788(19)
O4B O -0.0121(2) 0.8931(2) 0.35788(19)
O4O O 0.559767(200) 1.238533(200) -0.024547(190)
O4L O 0.226433(200) 0.571867(200) 0.308787(190)
O4M O 0.428133(200) 0.654567(200) 0.308787(190)
O4N O 0.345433(200) 0.773567(200) 0.308787(190)
O4F O 0.440233(200) 0.761467(200) 0.024547(190)
O4G O 0.238533(200) 0.678767(200) 0.024547(190)
O4H O 0.321233(200) 0.559767(200) 0.024547(190)
O4A* O -0.0948(2) 0.0121(2) 0.35788(19)
O4B* O -0.0121(2) -0.1069(2) 0.35788(19)
O4B** O 0.9879(2) 0.8931(2) 0.35788(19)
O4* O 1.1069(2) 1.0948(2) 0.35788(19)
O5A O 0.7096(4) 0.8424(3) 0.1834(2)
O5B O 0.1576(4) 0.8672(3) 0.1834(2)
O5O O 0.533867(400) 1.042933(300) 0.149933(200)
O6A O 0.6902(3) 0.7625(3) 0.2414(3)
O6B O 0.2375(3) 0.9277(3) 0.2414(3)
O6O O 0.594367(300) 1.023533(300) 0.091933(300)
C1A C 0.4508(3) 0.7323(3) 0.2209(3)
C1B C 0.2677(3) 0.7185(3) 0.2209(3)
C1O C 0.385167(300) 0.784133(300) 0.112433(300)
C2A C 0.5113(3) 0.7752(3) 0.2408(3)
C2B C 0.2248(3) 0.7361(3) 0.2408(3)
C2O C 0.402767(300) 0.844633(300) 0.092533(300)
C3A C 0.5186(3) 0.8177(3) 0.2730(3)
C3B C 0.1823(3) 0.7009(3) 0.2730(3)
C3O C 0.367567(300) 0.851933(300) 0.060333(300)
H1A H 0.48420 0.81920 0.28300
H1B H 0.18080 0.66500 0.28300
H1O H 0.33167 0.81753 0.05033
C4A C 0.5761(4) 0.8581(4) 0.2910(3)
C4B C 0.1419(4) 0.7180(4) 0.2910(3)
C4O C 0.384667(400) 0.909433(400) 0.042333(300)
H2A H 0.58040 0.88640 0.31290
H2B H 0.11360 0.69400 0.31290
H2O H 0.36067 0.91373 0.02043
C5A C 0.5634(4) 0.7735(4) 0.2251(3)
C5B C 0.2265(4) 0.7899(4) 0.2251(3)
C5O C 0.456567(400) 0.896733(400) 0.108233(300)
H3A H 0.55920 0.74480 0.20370
H3B H 0.25520 0.81440 0.20370
H3O H 0.48107 0.89253 0.12963
C6A C 0.6208(4) 0.8149(3) 0.2418(3)
C6B C 0.1851(4) 0.8059(3) 0.2418(3)
C6O C 0.472567(400) 0.954133(300) 0.091533(300)
C7A C 0.6275(3) 0.8558(3) 0.2755(3)
C7B C 0.1442(3) 0.7717(3) 0.2755(3)
C7O C 0.438367(300) 0.960833(300) 0.057833(300)
C8A C 0.6928(4) 0.8925(3) 0.2909(3)
C8B C 0.1075(4) 0.8003(3) 0.2909(3)
C8O C 0.466967(400) 1.026133(300) 0.042433(300)
C9A C 0.7313(4) 0.8765(3) 0.2691(3)
C9B C 0.1235(4) 0.8548(3) 0.2691(3)
C9O C 0.521467(400) 1.064633(300) 0.064233(300)
C10A C 0.7182(4) 0.9395(3) 0.3243(3)
C10B C 0.0605(4) 0.7787(3) 0.3243(3)
C10O C 0.445367(400) 1.051533(300) 0.009033(300)
H4A H 0.69410 0.95290 0.33860
H4B H 0.04710 0.74120 0.33860
H4O H 0.40787 1.02743 -0.00527
C11A C 0.7939(4) 0.9025(4) 0.2799(3)
C11B C 0.0975(4) 0.8914(4) 0.2799(3)
C11O C 0.558067(400) 1.127233(400) 0.053433(300)
H5A H 0.81870 0.89050 0.26490
H5B H 0.10950 0.92820 0.26490
H5O H 0.59487 1.15203 0.06843
C12A C 0.7791(4) 0.9638(4) 0.3344(3)
C12B C 0.0362(4) 0.8153(4) 0.3344(3)
C12O C 0.481967(400) 1.112433(400) -0.001067(300)
H6A H 0.79580 0.99350 0.35670
H6B H 0.00650 0.80230 0.35670
H6O H 0.46897 1.12913 -0.02337
C13A C 0.8178(4) 0.9462(3) 0.3131(2)
C13B C 0.0538(4) 0.8716(3) 0.3131(2)
C13O C 0.538267(400) 1.151133(300) 0.020233(200)
C14A C 0.8831(4) 0.9716(4) 0.3284(3)
C14B C 0.0284(4) 0.9115(4) 0.3284(3)
C14O C 0.578167(400) 1.216433(400) 0.004933(300)
#END
