
#######################################################################
#
#                 Cambridge Crystallographic Data Centre
#                                CCDC
#
#######################################################################
#
# If this CIF has been generated from an entry in the Cambridge
# Structural Database, then it will include bibliographic, chemical,
# crystal, experimental, refinement or atomic coordinate data resulting
# from the CCDC's data processing and validation procedures.
#
#######################################################################

data_CSD_CIF_YUSSUD
_audit_creation_date 2020-08-24
_audit_creation_method CSD-ConQuest-V1
_database_code_CSD YUSSUD
_database_code_depnum_ccdc_archive 'CCDC 2015498'
_chemical_formula_sum 'C41 H46 Au1 Cl6 N2 O12 P1 Rh2'
_chemical_formula_moiety
;
(C14 H20 Au1 N2 O12 Rh2 1-)n,C24 H20 P1 1+,3(C1 H2 Cl2)
;
_journal_coden_Cambridge 1530
_journal_volume 12
_journal_year 2020
_journal_page_first 1868
_journal_name_full 'Polymers '
loop_
_publ_author_name
"P.Cruz"
"E.Fernandez-Bartolome"
"L.A.Galan"
"M.Cortijo"
"P.Delgado-Martinez"
"R.Gonzalez-Prieto"
"J.L.Priego"
"R.Jimenez-Aparicio"
_chemical_name_systematic
;
catena-[tetraphenylphosphanium 
tetrakis(\m-methoxyacetato)-bis(\m-cyano)-di-rhodium(ii)-gold 
dichloromethane]
;
_cell_volume   2671.443
_exptl_crystal_colour 'pink'
_exptl_crystal_density_diffrn 1.747
_exptl_crystal_description 'prismatic'
_diffrn_ambient_temperature 293
#These two values have been output from a single CSD field.
_refine_ls_R_factor_gt 0.0557
_refine_ls_wR_factor_gt 0.0557
_symmetry_cell_setting triclinic
_symmetry_space_group_name_H-M 'P -1'
_symmetry_Int_Tables_number 2
loop_
_symmetry_equiv_pos_site_id
_symmetry_equiv_pos_as_xyz
1 x,y,z
2 -x,-y,-z
_cell_length_a 12.9715(16)
_cell_length_b 13.806(2)
_cell_length_c 15.990(3)
_cell_angle_alpha 79.123(16)
_cell_angle_beta 86.132(15)
_cell_angle_gamma 71.808(18)
_cell_formula_units_Z 2
loop_
_atom_type_symbol
_atom_type_radius_bond
C 0.68
H 0.23
Au 1.36
Cl 0.99
N 0.68
O 0.68
P 1.05
Rh 1.42
loop_
_atom_site_label
_atom_site_type_symbol
_atom_site_fract_x
_atom_site_fract_y
_atom_site_fract_z
Au1 Au -0.11339(3) 0.76430(4) 0.24678(3)
C1 C 0.0382(10) 0.7547(10) 0.2643(8)
C2 C -0.266(1) 0.7752(9) 0.2279(8)
C3 C 0.3654(10) 0.8362(9) 0.3831(7)
C4 C 0.3545(12) 0.8880(13) 0.4622(9)
H1 H 0.40540 0.84190 0.50490
H2 H 0.37450 0.95110 0.44630
C5 C 0.239(3) 0.823(2) 0.547(2)
H3 H 0.19340 0.79700 0.51740
H4 H 0.20430 0.83910 0.59980
H5 H 0.30760 0.77030 0.55840
C6 C 0.4137(9) 0.6765(8) 0.1075(7)
C7 C 0.4247(11) 0.6237(11) 0.0312(9)
H6 H 0.42790 0.55190 0.05080
H7 H 0.36080 0.65670 -0.00390
C8 C 0.5069(16) 0.7208(13) -0.0718(10)
H8 H 0.44480 0.73750 -0.10740
H9 H 0.57070 0.71670 -0.10670
H10 H 0.49690 0.77360 -0.03800
C9 C 0.4689(10) 0.5711(9) 0.3307(8)
C10 C 0.5190(12) 0.4608(10) 0.3789(9)
H11 H 0.59090 0.43240 0.35570
H12 H 0.52730 0.46380 0.43810
C11 C 0.4611(16) 0.3702(14) 0.2931(14)
H13 H 0.41670 0.42940 0.25600
H14 H 0.43410 0.31250 0.29510
H15 H 0.53450 0.35300 0.27200
C12 C 0.3097(9) 0.9429(8) 0.1562(7)
C13 C 0.2561(11) 1.0535(10) 0.1111(9)
H16 H 0.20710 1.05220 0.06840
H17 H 0.21310 1.09320 0.15220
C14 C 0.3487(19) 1.091(2) -0.0113(13)
H18 H 0.36910 1.01890 -0.01410
H19 H 0.40610 1.11870 -0.03470
H20 H 0.28370 1.12730 -0.04340
N1 N 0.1296(7) 0.7456(7) 0.2704(6)
N2 N -0.3560(7) 0.7770(8) 0.2226(6)
O1 O 0.4559(6) 0.8264(6) 0.3435(5)
O2 O 0.4908(5) 0.7043(6) 0.1270(5)
O3 O 0.5356(6) 0.6200(6) 0.3031(5)
O4 O 0.4107(6) 0.9098(6) 0.1655(5)
O5 O 0.2433(6) 0.8944(6) 0.1836(5)
O6 O 0.2861(6) 0.8135(6) 0.3613(5)
O7 O 0.3234(6) 0.6868(6) 0.1470(5)
O8 O 0.3678(6) 0.6048(6) 0.3226(5)
O9 O 0.5186(7) 0.6272(7) -0.0192(6)
O10 O 0.2542(10) 0.9112(10) 0.4968(8)
O11 O 0.4584(9) 0.3932(8) 0.3754(8)
O12 O 0.3305(10) 1.1041(8) 0.0714(8)
Rh1 Rh 0.47887(6) 0.76605(6) 0.23462(5)
Rh2 Rh 0.29878(6) 0.74999(7) 0.25502(5)
C15 C 0.8875(9) 0.6359(8) 0.7282(7)
C16 C 0.8690(11) 0.5444(10) 0.7276(8)
H21 H 0.88620 0.51530 0.67850
C17 C 0.8267(12) 0.4938(11) 0.7953(10)
H22 H 0.81470 0.43170 0.79200
C18 C 0.8014(14) 0.5346(13) 0.8694(10)
H23 H 0.77240 0.50050 0.91630
C19 C 0.8200(17) 0.6273(14) 0.8723(10)
H24 H 0.80370 0.65570 0.92170
C20 C 0.8631(13) 0.6783(10) 0.8018(9)
H25 H 0.87550 0.74060 0.80400
C21 C 0.9805(9) 0.8043(8) 0.6720(7)
C22 C 1.0709(13) 0.7743(11) 0.7203(10)
H26 H 1.11110 0.70450 0.73050
C23 C 1.1066(13) 0.8433(13) 0.7555(11)
H27 H 1.16870 0.82070 0.78860
C24 C 1.0452(15) 0.9472(14) 0.7390(11)
H28 H 1.06760 0.99580 0.75990
C25 C 0.9527(13) 0.9784(11) 0.6926(11)
H29 H 0.91170 1.04800 0.68250
C26 C 0.9195(10) 0.9067(10) 0.6604(9)
H30 H 0.85490 0.92830 0.63040
C27 C 1.0539(9) 0.6191(9) 0.5929(7)
C28 C 1.0834(11) 0.6406(10) 0.5085(9)
H31 H 1.03880 0.69750 0.47310
C29 C 1.1753(11) 0.5811(11) 0.4756(9)
H32 H 1.19370 0.59820 0.41870
C30 C 1.2406(11) 0.4964(11) 0.5260(9)
H33 H 1.30460 0.45620 0.50410
C31 C 1.2117(12) 0.4710(12) 0.6084(11)
H34 H 1.25530 0.41250 0.64290
C32 C 1.1192(11) 0.5310(11) 0.6407(8)
H35 H 1.09970 0.51150 0.69700
C33 C 0.8355(9) 0.7652(9) 0.5586(7)
C34 C 0.8484(11) 0.8417(10) 0.4916(8)
H36 H 0.90940 0.86400 0.48910
C35 C 0.7714(14) 0.8838(12) 0.4299(9)
H37 H 0.78050 0.93430 0.38510
C36 C 0.6803(13) 0.8521(12) 0.4335(10)
H38 H 0.62680 0.88220 0.39240
C37 C 0.6699(13) 0.7754(13) 0.4986(12)
H39 H 0.60930 0.75260 0.50080
C38 C 0.7468(11) 0.7319(11) 0.5600(9)
H40 H 0.73870 0.67920 0.60320
P1 P 0.9396(2) 0.7059(2) 0.63766(19)
C39 C 0.5223(7) 0.0417(11) 0.2281(9)
H41 H 0.53650 -0.03260 0.24410
H42 H 0.49700 0.06220 0.16980
Cl1 Cl 0.4210(6) 0.1053(5) 0.2957(4)
Cl2 Cl 0.6431(5) 0.0727(5) 0.2349(4)
C40 C 0.9035(14) 0.1647(13) 0.9522(7)
H43 H 0.95580 0.11140 0.92620
H44 H 0.85300 0.20950 0.90870
Cl3 Cl 0.8327(6) 0.1072(6) 1.0346(5)
Cl4 Cl 0.9711(8) 0.2375(8) 0.9938(6)
C41 C 0.7237(7) 0.5536(7) 0.1310(11)
H45 H 0.69960 0.58990 0.17860
H46 H 0.68330 0.59600 0.08120
Cl5 Cl 0.8633(5) 0.5365(5) 0.1125(4)
Cl6 Cl 0.6963(5) 0.4342(5) 0.1535(4)
N2* N 0.6440(7) 0.7770(8) 0.2226(6)
Rh1* Rh -0.52113(6) 0.76605(6) 0.23462(5)
#END
