
#######################################################################
#
#                 Cambridge Crystallographic Data Centre
#                                CCDC
#
#######################################################################
#
# If this CIF has been generated from an entry in the Cambridge
# Structural Database, then it will include bibliographic, chemical,
# crystal, experimental, refinement or atomic coordinate data resulting
# from the CCDC's data processing and validation procedures.
#
#######################################################################

data_CSD_CIF_YUSSOX
_audit_creation_date 2020-08-24
_audit_creation_method CSD-ConQuest-V1
_database_code_CSD YUSSOX
_database_code_depnum_ccdc_archive 'CCDC 2015497'
_chemical_formula_sum 'C36 H36 Au1 Cl4 N2 O8 P1 Rh2'
_chemical_formula_moiety
;
C24 H20 P1 1+,(C10 H12 Au1 N2 O8 Rh2 1-)n,2(C1 H2 Cl2)
;
_journal_coden_Cambridge 1530
_journal_volume 12
_journal_year 2020
_journal_page_first 1868
_journal_name_full 'Polymers '
loop_
_publ_author_name
"P.Cruz"
"E.Fernandez-Bartolome"
"L.A.Galan"
"M.Cortijo"
"P.Delgado-Martinez"
"R.Gonzalez-Prieto"
"J.L.Priego"
"R.Jimenez-Aparicio"
_chemical_name_systematic
;
catena-[tetraphenylphosphanium 
tetrakis(\m-acetato)-bis(\m-cyano)-di-rhodium(ii)-gold dichloromethane 
unknown solvate]
;
_cell_volume   2351.253
_exptl_crystal_colour 'pink'
_exptl_crystal_density_diffrn 1.695
_exptl_crystal_description 'prismatic'
_diffrn_ambient_temperature 293
_refine_special_details
;
Disordered solvent molecules were not modelled and the disordered density was 
taken into account using the SQUEEZE/PLATON procedure.
;
#These two values have been output from a single CSD field.
_refine_ls_R_factor_gt 0.0459
_refine_ls_wR_factor_gt 0.0459
_symmetry_cell_setting triclinic
_symmetry_space_group_name_H-M 'P -1'
_symmetry_Int_Tables_number 2
loop_
_symmetry_equiv_pos_site_id
_symmetry_equiv_pos_as_xyz
1 x,y,z
2 -x,-y,-z
_cell_length_a 13.0075(13)
_cell_length_b 13.6277(15)
_cell_length_c 13.7398(15)
_cell_angle_alpha 87.339(2)
_cell_angle_beta 78.375(2)
_cell_angle_gamma 80.295(2)
_cell_formula_units_Z 2
loop_
_atom_type_symbol
_atom_type_radius_bond
C 0.68
H 0.23
Au 1.36
Cl 0.99
N 0.68
O 0.68
P 1.05
Rh 1.42
loop_
_atom_site_label
_atom_site_type_symbol
_atom_site_fract_x
_atom_site_fract_y
_atom_site_fract_z
Au1 Au 0.40126(2) 0.83106(3) 0.28313(2)
C1 C 0.9525(7) 0.7321(7) 0.1140(7)
C2 C 0.9814(9) 0.6746(9) 0.0188(8)
H1 H 1.05140 0.68330 -0.01520
H2 H 0.93110 0.69850 -0.02270
H3 H 0.98020 0.60520 0.03360
C3 C 0.8514(7) 0.9342(6) 0.4448(6)
C4 C 0.8222(8) 0.9897(9) 0.5415(8)
H4 H 0.79080 1.05710 0.52990
H5 H 0.88490 0.98950 0.56820
H6 H 0.77210 0.95780 0.58780
C5 C 0.8860(6) 0.6695(7) 0.3816(7)
C6 C 0.8760(9) 0.5717(8) 0.4398(10)
H7 H 0.88230 0.58020 0.50720
H8 H 0.93140 0.52010 0.40950
H9 H 0.80790 0.55350 0.43910
C7 C 0.9152(8) 0.9990(7) 0.1797(7)
C8 C 0.9217(9) 1.0978(8) 0.1239(9)
H10 H 0.93110 1.14680 0.16800
H11 H 0.85720 1.11950 0.09980
H12 H 0.98100 1.08940 0.06890
C9 C 0.5524(7) 0.8463(7) 0.2744(6)
C10 C 0.2495(6) 0.8170(7) 0.2920(7)
N1 N 0.6383(5) 0.8538(6) 0.2705(5)
N2 N 0.1646(6) 0.8106(6) 0.2932(6)
O1 O 1.0276(4) 0.7447(5) 0.1565(4)
O2 O 0.8558(4) 0.7624(4) 0.1474(4)
O3 O 0.7771(4) 0.9209(4) 0.4038(4)
O4 O 0.9502(4) 0.9046(4) 0.4112(4)
O5 O 0.9746(4) 0.6982(4) 0.3643(5)
O6 O 0.8035(4) 0.7137(4) 0.3555(5)
O7 O 0.9993(5) 0.9542(5) 0.2027(5)
O8 O 0.8251(4) 0.9714(4) 0.1967(4)
Rh1 Rh 0.99424(4) 0.82481(5) 0.28373(5)
Rh2 Rh 0.80966(4) 0.84271(4) 0.27520(4)
C11 C 0.3285(7) 0.3645(6) 0.2006(6)
C12 C 0.3535(9) 0.4341(7) 0.2574(8)
H13 H 0.41800 0.42300 0.27880
C13 C 0.2803(12) 0.5229(8) 0.2834(9)
H14 H 0.29900 0.57040 0.32020
C14 C 0.1893(12) 0.540(1) 0.2578(12)
H15 H 0.14110 0.59690 0.27940
C15 C 0.1627(9) 0.4708(10) 0.1958(12)
H16 H 0.09930 0.48500 0.17270
C16 C 0.2317(7) 0.3817(8) 0.1696(9)
H17 H 0.21310 0.33470 0.13220
C17 C 0.5312(6) 0.2740(6) 0.0792(6)
C18 C 0.6000(7) 0.1929(7) 0.0280(7)
H18 H 0.58500 0.12850 0.03860
C19 C 0.6913(9) 0.2117(8) -0.0391(7)
H19 H 0.73770 0.15890 -0.07260
C20 C 0.7130(7) 0.3061(8) -0.0560(7)
H20 H 0.77460 0.31710 -0.09990
C21 C 0.6448(8) 0.3843(8) -0.0089(8)
H21 H 0.65820 0.44890 -0.02340
C22 C 0.5553(7) 0.3685(7) 0.0607(7)
H22 H 0.51150 0.42220 0.09490
C23 C 0.4616(7) 0.2028(6) 0.2812(6)
C24 C 0.5623(8) 0.1481(7) 0.2785(7)
H23 H 0.61100 0.14130 0.21850
C25 C 0.5916(9) 0.1034(9) 0.3640(9)
H24 H 0.65710 0.06240 0.36040
C26 C 0.5219(10) 0.1204(8) 0.4554(7)
H25 H 0.54200 0.09280 0.51330
C27 C 0.4230(8) 0.1782(8) 0.4595(7)
H26 H 0.37690 0.18970 0.52060
C28 C 0.3920(7) 0.2191(7) 0.3744(7)
H27 H 0.32510 0.25750 0.37820
C29 C 0.3527(7) 0.1660(6) 0.1238(6)
C30 C 0.2895(8) 0.1095(7) 0.1889(7)
H28 H 0.29020 0.10910 0.25640
C31 C 0.2264(9) 0.0545(8) 0.1542(9)
H29 H 0.18300 0.01810 0.19870
C32 C 0.2260(9) 0.0522(8) 0.0526(9)
H30 H 0.18050 0.01700 0.02970
C33 C 0.2925(9) 0.1018(8) -0.0114(8)
H31 H 0.29670 0.09640 -0.07940
C34 C 0.3533(8) 0.1591(7) 0.0214(7)
H32 H 0.39640 0.19470 -0.02420
P1 P 0.41961(16) 0.25134(15) 0.17074(15)
C35 C 0.9330(8) 0.2398(15) 0.4483(8)
H33 H 0.95310 0.17210 0.47090
H34 H 0.91960 0.28370 0.50470
Cl1 Cl 1.0350(6) 0.2740(5) 0.3552(5)
Cl2 Cl 0.8186(7) 0.2494(6) 0.3964(6)
C36 C 0.6904(12) 0.6036(13) 0.2102(19)
H35 H 0.66560 0.60430 0.28170
H36 H 0.72270 0.66270 0.19140
Cl3 Cl 0.7871(6) 0.4966(6) 0.1777(6)
Cl4 Cl 0.5811(4) 0.6071(3) 0.1516(3)
N2* N 1.1646(6) 0.8106(6) 0.2932(6)
Rh1* Rh -0.00576(4) 0.82481(5) 0.28373(5)
#END
