
#######################################################################
#
#                 Cambridge Crystallographic Data Centre
#                                CCDC
#
#######################################################################
#
# If this CIF has been generated from an entry in the Cambridge
# Structural Database, then it will include bibliographic, chemical,
# crystal, experimental, refinement or atomic coordinate data resulting
# from the CCDC's data processing and validation procedures.
#
#######################################################################

data_CSD_CIF_YUSTIS
_audit_creation_date 2020-08-24
_audit_creation_method CSD-ConQuest-V1
_database_code_CSD YUSTIS
_database_code_depnum_ccdc_archive 'CCDC 2015501'
_chemical_formula_sum 'C42 H48 Au1 N2 O12 P1 Rh2'
_chemical_formula_moiety
;
(C18 H28 Au1 N2 O12 Rh2 1-)n,C24 H20 P1 1+
;
_journal_coden_Cambridge 1530
_journal_volume 12
_journal_year 2020
_journal_page_first 1868
_journal_name_full 'Polymers '
loop_
_publ_author_name
"P.Cruz"
"E.Fernandez-Bartolome"
"L.A.Galan"
"M.Cortijo"
"P.Delgado-Martinez"
"R.Gonzalez-Prieto"
"J.L.Priego"
"R.Jimenez-Aparicio"
_chemical_name_systematic
;
catena-[tetraphenylphosphanium 
tetrakis(\m-ethoxyacetato)-bis(\m-cyano)-di-rhodium(ii)-gold]
;
_cell_volume   4592.234
_exptl_crystal_colour 'violet'
_exptl_crystal_density_diffrn 1.745
_exptl_crystal_description 'prismatic'
_diffrn_ambient_temperature 293
#These two values have been output from a single CSD field.
_refine_ls_R_factor_gt 0.0433
_refine_ls_wR_factor_gt 0.0433
_symmetry_cell_setting monoclinic
_symmetry_space_group_name_H-M 'P 21/c'
_symmetry_Int_Tables_number 14
loop_
_symmetry_equiv_pos_site_id
_symmetry_equiv_pos_as_xyz
1 x,y,z
2 -x,1/2+y,1/2-z
3 -x,-y,-z
4 x,-1/2-y,-1/2+z
_cell_length_a 13.180(2)
_cell_length_b 22.270(4)
_cell_length_c 16.901(3)
_cell_angle_alpha 90
_cell_angle_beta 112.224(3)
_cell_angle_gamma 90
_cell_formula_units_Z 4
loop_
_atom_type_symbol
_atom_type_radius_bond
C 0.68
H 0.23
Au 1.36
N 0.68
O 0.68
P 1.05
Rh 1.42
loop_
_atom_site_label
_atom_site_type_symbol
_atom_site_fract_x
_atom_site_fract_y
_atom_site_fract_z
Au1 Au 1.00050(2) 0.24620(2) 1.16180(2)
N1 N 0.7680(5) 0.1974(3) 1.0527(4)
C1 C 1.1463(6) 0.2802(3) 1.2323(5)
C2 C 0.5434(6) 0.1111(3) 0.8249(5)
C3 C 0.5778(6) 0.0673(4) 0.7715(5)
H1 H 0.62870 0.08710 0.75090
H2 H 0.61610 0.03400 0.80730
C4 C 0.5248(8) 0.0057(5) 0.6513(7)
H3 H 0.57470 0.02640 0.63080
H4 H 0.56340 -0.02820 0.68550
C5 C 0.4333(11) -0.0153(7) 0.5807(9)
H5 H 0.40140 -0.04910 0.59800
H6 H 0.45650 -0.02720 0.53560
H7 H 0.37980 0.01620 0.56070
C6 C 0.4506(7) 0.2771(4) 1.0043(5)
C7 C 0.4302(8) 0.3274(4) 1.0563(6)
H8 H 0.44670 0.31290 1.11400
H9 H 0.48100 0.35980 1.05980
C8 C 0.2523(10) 0.3185(5) 1.0542(8)
H10 H 0.27870 0.31980 1.11610
H11 H 0.24850 0.27680 1.03650
C9 C 0.1409(9) 0.3471(6) 1.0159(8)
H12 H 0.14610 0.38870 1.03190
H13 H 0.09140 0.32700 1.03660
H14 H 0.11410 0.34390 0.95470
C10 C 0.4517(6) 0.1142(3) 1.0103(5)
C11 C 0.4297(7) 0.0695(4) 1.0716(5)
H15 H 0.47570 0.03450 1.07680
H16 H 0.45300 0.08800 1.12760
C12 C 0.2946(7) 0.0037(4) 0.9891(5)
H17 H 0.35230 -0.02630 1.00400
H18 H 0.28360 0.01950 0.93300
C13 C 0.1911(7) -0.0236(4) 0.9888(6)
H19 H 0.19880 -0.03240 1.04640
H20 H 0.17610 -0.06000 0.95590
H21 H 0.13160 0.00400 0.96380
C14 C 0.5423(6) 0.2698(3) 0.8177(5)
C15 C 0.5690(7) 0.3096(4) 0.7561(5)
H22 H 0.54190 0.29060 0.70030
H23 H 0.53060 0.34740 0.75100
C16 C 0.7416(10) 0.2712(5) 0.7654(7)
H24 H 0.72570 0.26680 0.70480
H25 H 0.72190 0.23420 0.78620
C17 C 0.8597(10) 0.2839(6) 0.8116(8)
H26 H 0.88360 0.31270 0.78020
H27 H 0.90080 0.24740 0.81750
H28 H 0.87140 0.29960 0.86730
C18 C 0.8542(6) 0.2129(4) 1.0914(5)
O1 O 0.6220(4) 0.1295(2) 0.8899(3)
O2 O 0.4439(4) 0.1263(2) 0.7992(3)
O3 O 0.5490(4) 0.2576(2) 1.0322(3)
O4 O 0.3743(4) 0.2597(2) 0.9382(3)
O5 O 0.5505(4) 0.1298(2) 1.0333(3)
O6 O 0.3726(4) 0.1309(2) 0.9451(3)
O7 O 0.6181(4) 0.2564(2) 0.8870(3)
O8 O 0.4435(4) 0.2528(2) 0.7938(3)
N2 N 1.2276(4) 0.2989(2) 1.2750(4)
O9 O 0.4914(4) 0.0453(3) 0.7028(4)
O10 O 0.3242(5) 0.3508(3) 1.0252(4)
O11 O 0.3236(4) 0.0501(2) 1.0499(3)
O12 O 0.6789(5) 0.3211(3) 0.7796(4)
Rh1 Rh 0.59083(4) 0.19313(2) 0.96411(3)
Rh2 Rh 0.40178(4) 0.19263(2) 0.86637(3)
C19 C 0.8876(6) 0.4310(3) 0.1344(5)
C20 C 0.8150(7) 0.3836(4) 0.1255(6)
H29 H 0.80220 0.36990 0.17290
C21 C 0.7620(8) 0.3567(4) 0.0470(7)
H30 H 0.71300 0.32540 0.04120
C22 C 0.7823(8) 0.3767(5) -0.0224(7)
H31 H 0.74720 0.35820 -0.07510
C23 C 0.8527(8) 0.4228(5) -0.0159(6)
H32 H 0.86530 0.43570 -0.06370
C24 C 0.9060(7) 0.4509(4) 0.0633(5)
H33 H 0.95360 0.48270 0.06810
C25 C 1.0855(5) 0.4930(3) 0.2386(4)
C26 C 1.1510(6) 0.4549(4) 0.2140(5)
H34 H 1.12500 0.41720 0.19190
C27 C 1.2553(6) 0.4726(4) 0.2221(5)
H35 H 1.29940 0.44720 0.20520
C28 C 1.2918(7) 0.5278(5) 0.2552(6)
H36 H 1.36120 0.54050 0.26020
C29 C 1.2291(8) 0.5640(4) 0.2808(6)
H37 H 1.25700 0.60090 0.30490
C30 C 1.1249(6) 0.5483(3) 0.2724(5)
H38 H 1.08190 0.57450 0.28930
C31 C 0.9773(6) 0.4152(3) 0.3200(5)
C32 C 1.0776(6) 0.3871(3) 0.3611(5)
H39 H 1.13540 0.39610 0.34430
C33 C 1.0937(7) 0.3463(4) 0.4261(5)
H40 H 1.16180 0.32830 0.45330
C34 C 1.0080(8) 0.3325(4) 0.4501(6)
H41 H 1.01860 0.30470 0.49360
C35 C 0.9077(7) 0.3586(4) 0.4117(6)
H42 H 0.85060 0.34890 0.42900
C36 C 0.8919(6) 0.3996(3) 0.3467(5)
H43 H 0.82340 0.41720 0.32010
C37 C 0.8750(6) 0.5283(3) 0.2468(5)
C38 C 0.8147(7) 0.5626(4) 0.1757(6)
H44 H 0.81110 0.55120 0.12170
C39 C 0.7606(8) 0.6131(4) 0.1848(7)
H45 H 0.72220 0.63620 0.13700
C40 C 0.7623(7) 0.6295(4) 0.2618(6)
H46 H 0.72410 0.66360 0.26650
C41 C 0.8197(7) 0.5968(4) 0.3336(6)
H47 H 0.82000 0.60810 0.38670
C42 C 0.8776(6) 0.5461(4) 0.3255(5)
H48 H 0.91850 0.52410 0.37390
P1 P 0.95526(15) 0.46667(8) 0.23548(13)
N2C N 0.2276(4) 0.2011(2) 0.7750(4)
Rh2C Rh 1.40178(4) 0.30737(2) 1.36637(3)
#END
