
#######################################################################
#
#                 Cambridge Crystallographic Data Centre
#                                CCDC
#
#######################################################################
#
# If this CIF has been generated from an entry in the Cambridge
# Structural Database, then it will include bibliographic, chemical,
# crystal, experimental, refinement or atomic coordinate data resulting
# from the CCDC's data processing and validation procedures.
#
#######################################################################

data_CSD_CIF_YUSWIV
_audit_creation_date 2020-08-24
_audit_creation_method CSD-ConQuest-V1
_database_code_CSD YUSWIV
_database_code_depnum_ccdc_archive 'CCDC 1985071'
_chemical_formula_sum 'C14 H20 Cu1 N2 O4'
_chemical_formula_moiety
;
C6 H16 N1 1+,(C8 H4 Cu1 N1 O4 1-)n
;
_journal_coden_Cambridge 1290
_journal_volume 2020
_journal_year 2020
_journal_page_first 3311
_journal_name_full 'Eur.J.Inorg.Chem. '
loop_
_publ_author_name
"Ang Li"
"Yanling Li"
"L.-M.Chamoreau"
"C.Desmarets"
"L.Lisnard"
"Y.Journaux"
_chemical_name_systematic
;
catena-[triethylammonium 
(\m-(2-{[carboxylato(oxidanidyl)methylidene]amino}phenyl)oxidanide)-copper(ii)
]
;
_cell_volume   1127.069
_exptl_crystal_colour 'green'
_exptl_crystal_density_diffrn 1.52
_exptl_special_details
;
Absolute configuration

;
_exptl_crystal_description 'plate'
_diffrn_ambient_temperature 200.2
#These two values have been output from a single CSD field.
_refine_ls_R_factor_gt 0.0198
_refine_ls_wR_factor_gt 0.0198
_symmetry_cell_setting hexagonal
_symmetry_space_group_name_H-M 'P 32'
_symmetry_Int_Tables_number 145
loop_
_symmetry_equiv_pos_site_id
_symmetry_equiv_pos_as_xyz
1 x,y,z
2 -y,x-y,2/3+z
3 -x+y,-x,1/3+z
_cell_length_a 9.6625(2)
_cell_length_b 9.6625(2)
_cell_length_c 13.9393(4)
_cell_angle_alpha 90
_cell_angle_beta 90
_cell_angle_gamma 120
_cell_formula_units_Z 3
loop_
_atom_type_symbol
_atom_type_radius_bond
C 0.68
H 0.23
Cu 1.32
N 0.68
O 0.68
loop_
_atom_site_label
_atom_site_type_symbol
_atom_site_fract_x
_atom_site_fract_y
_atom_site_fract_z
Cu1 Cu 0.84074(2) 0.85276(2) 0.51451(2)
O1 O 1.01864(17) 0.91387(18) 0.60648(10)
O2 O 1.10077(17) 1.03931(18) 0.74744(11)
O3 O 0.83668(16) 1.07670(17) 0.75408(9)
O4 O 0.62545(16) 0.76474(17) 0.45905(10)
N1 N 0.75799(17) 0.92931(18) 0.61297(10)
C1 C 1.0052(2) 0.9847(2) 0.67960(13)
C2 C 0.85427(19) 1.00102(19) 0.68490(11)
C3 C 0.60971(19) 0.9138(2) 0.59064(12)
C4 C 0.5280(2) 0.9749(2) 0.64132(13)
H1 H 0.57233 1.03339 0.69878
C5 C 0.3813(2) 0.9505(3) 0.60806(15)
H2 H 0.32584 0.99281 0.64236
C6 C 0.3169(2) 0.8635(3) 0.52410(16)
H3 H 0.21685 0.84648 0.50143
C7 C 0.3973(2) 0.8011(3) 0.47283(15)
H4 H 0.35212 0.74281 0.41541
C8 C 0.5441(2) 0.8238(2) 0.50548(12)
N2 N 0.4858(2) 0.4611(2) 0.40526(15)
H5 H 0.545(2) 0.571(4) 0.4293(8)
C9 C 0.5927(4) 0.3950(3) 0.4294(2)
H6 H 0.60626 0.39752 0.49985
H7 H 0.69920 0.46465 0.40067
C10 C 0.5302(7) 0.2261(4) 0.3945(3)
H8 H 0.41847 0.15952 0.41419
H9 H 0.59430 0.18333 0.42227
H10 H 0.53730 0.22586 0.32436
C11 C 0.4620(4) 0.4703(4) 0.2993(2)
H11 H 0.39933 0.52463 0.28909
H12 H 0.39916 0.36056 0.27336
C12 C 0.6174(4) 0.5588(4) 0.2446(2)
H13 H 0.68648 0.66215 0.27541
H14 H 0.59545 0.57623 0.17840
H15 H 0.67103 0.49547 0.24451
C13 C 0.3273(3) 0.3789(5) 0.4564(3)
H16 H 0.26554 0.43136 0.43818
H17 H 0.26644 0.26642 0.43473
C14 C 0.3422(4) 0.3817(5) 0.5639(3)
H18 H 0.37868 0.30799 0.58368
H19 H 0.23790 0.34889 0.59297
H20 H 0.41955 0.49021 0.58498
Cu1B Cu 1.01202(2) 1.15926(2) 0.847843(20)
O2A O 0.96069(17) 1.06146(18) 0.414107(110)
O3A O 0.92330(16) 0.75998(17) 0.420747(90)
#END
