
#######################################################################
#
#                 Cambridge Crystallographic Data Centre
#                                CCDC
#
#######################################################################
#
# If this CIF has been generated from an entry in the Cambridge
# Structural Database, then it will include bibliographic, chemical,
# crystal, experimental, refinement or atomic coordinate data resulting
# from the CCDC's data processing and validation procedures.
#
#######################################################################

data_CSD_CIF_YUTVOB
_audit_creation_date 2020-08-25
_audit_creation_method CSD-ConQuest-V1
_database_code_CSD YUTVOB
_database_code_depnum_ccdc_archive 'CCDC 2017086'
_chemical_formula_sum 'C38 H30 Cd3 N4 O18'
_chemical_formula_moiety
;
(C34 H14 Cd3 N2 O18 2-)n,2(C2 H8 N1 1+)
;
_journal_coden_Cambridge 1350
_journal_volume 22
_journal_year 2020
_journal_page_first 5882
_journal_name_full 'CrystEngComm '
loop_
_publ_author_name
"Runzhong Guo"
"Hao Dong"
"Peiyuan Li"
"Yi Sun"
"Haiying Wang"
"Huiyan Liu"
_chemical_name_systematic
;
catena-[bis(dimethylammonium) 
bis(\m-5-(3,5-dicarboxylatobenzamido)benzene-1,3-dicarboxylato)-tri-cadmium(ii
) unknown solvate]
;
_cell_volume   1154.665
_exptl_crystal_colour 'colorless'
_exptl_crystal_density_diffrn 1.547
_exptl_crystal_description 'block'
_diffrn_ambient_temperature 296
_refine_special_details
;
Disordered cations and solvent molecules were not modelled and the disordered 
density was taken into account using the SQUEEZE/PLATON procedure.
;
#These two values have been output from a single CSD field.
_refine_ls_R_factor_gt 0.0581
_refine_ls_wR_factor_gt 0.0581
_symmetry_cell_setting triclinic
_symmetry_space_group_name_H-M 'P -1'
_symmetry_Int_Tables_number 2
loop_
_symmetry_equiv_pos_site_id
_symmetry_equiv_pos_as_xyz
1 x,y,z
2 -x,-y,-z
_cell_length_a 9.9510(11)
_cell_length_b 10.3190(12)
_cell_length_c 12.6140(13)
_cell_angle_alpha 68.753(4)
_cell_angle_beta 73.032(5)
_cell_angle_gamma 83.923(5)
_cell_formula_units_Z 1
loop_
_atom_type_symbol
_atom_type_radius_bond
C 0.68
H 0.23
Cd 1.44
N 0.68
O 0.68
loop_
_atom_site_label
_atom_site_type_symbol
_atom_site_fract_x
_atom_site_fract_y
_atom_site_fract_z
Cd1 Cd 0.50000 0.00000 0.00000
Cd2 Cd 0.52561(5) 0.30213(5) -0.24528(4)
O1 O 0.7979(7) 0.3159(7) -0.2486(6)
O2 O 1.3238(6) 0.1577(8) -0.0301(7)
C1 C 1.0910(7) 0.1843(7) -0.0471(7)
O3 O 1.2937(6) 0.2557(7) -0.2092(6)
C2 C 0.9993(7) 0.2238(7) -0.1185(7)
H1 H 1.03437 0.26366 -0.20010
O4 O 0.5259(6) -0.0275(7) 0.8218(5)
O5 O 0.4991(7) -0.4771(6) 0.7648(6)
O6 O 0.5923(7) -0.4972(6) 0.5932(5)
O7 O 0.6283(5) 0.2029(6) -0.0936(5)
C3 C 0.6692(10) 0.0014(9) 0.5132(9)
H2 H 0.69534 0.09460 0.48109
C4 C 0.8051(7) 0.1450(7) 0.0544(7)
H3 H 0.70921 0.12931 0.08892
C5 C 0.7561(8) 0.2433(7) -0.1430(6)
O8 O 0.9201(8) 0.0987(8) 0.3165(6)
O9 O 0.6043(6) 0.1587(6) 0.6598(6)
C6 C 0.8556(7) 0.2036(7) -0.0678(7)
C7 C 0.6077(8) -0.0575(8) 0.6342(7)
C8 C 0.5958(9) -0.2725(8) 0.6058(7)
C9 C 0.5705(8) -0.1960(7) 0.6801(7)
H4 H 0.52852 -0.23788 0.76060
C10 C 0.5780(8) 0.0296(8) 0.7132(8)
C11 C 0.8521(9) 0.0612(10) 0.2596(7)
C12 C 0.8961(8) 0.1098(8) 0.1254(7)
C13 C 1.0397(8) 0.1299(8) 0.0738(7)
H5 H 1.10113 0.10643 0.12105
C14 C 0.5590(8) -0.4244(8) 0.6574(7)
C15 C 0.6572(10) -0.2139(8) 0.4867(7)
H6 H 0.67455 -0.26780 0.43895
C16 C 1.2464(8) 0.2003(9) -0.0989(8)
N1 N 0.7472(9) -0.0227(8) 0.3089(7)
H7 H 0.70879 -0.04725 0.26621
C17 C 0.6929(11) -0.0768(9) 0.4383(9)
Cd2A Cd 0.47439(5) -0.30213(5) 0.24528(4)
O1A O 0.2021(7) -0.3159(7) 0.2486(6)
O2A O -0.3238(6) -0.1577(8) 0.0301(7)
C1A C -0.0910(7) -0.1843(7) 0.0471(7)
O3A O -0.2937(6) -0.2557(7) 0.2092(6)
C2A C 0.0007(7) -0.2238(7) 0.1185(7)
H1A H -0.03437 -0.26366 0.20010
O4A O 0.4741(6) 0.0275(7) -0.8218(5)
O5A O 0.5009(7) 0.4771(6) -0.7648(6)
O6A O 0.4077(7) 0.4972(6) -0.5932(5)
O7A O 0.3717(5) -0.2029(6) 0.0936(5)
C3A C 0.3308(10) -0.0014(9) -0.5132(9)
H2A H 0.30466 -0.09460 -0.48109
C4A C 0.1949(7) -0.1450(7) -0.0544(7)
H3A H 0.29079 -0.12931 -0.08892
C5A C 0.2439(8) -0.2433(7) 0.1430(6)
O8A O 0.0799(8) -0.0987(8) -0.3165(6)
O9A O 0.3957(6) -0.1587(6) -0.6598(6)
C6A C 0.1444(7) -0.2036(7) 0.0678(7)
C7A C 0.3923(8) 0.0575(8) -0.6342(7)
C8A C 0.4042(9) 0.2725(8) -0.6058(7)
C9A C 0.4295(8) 0.1960(7) -0.6801(7)
H4A H 0.47148 0.23788 -0.76060
C10A C 0.4220(8) -0.0296(8) -0.7132(8)
C11A C 0.1479(9) -0.0612(10) -0.2596(7)
C12A C 0.1039(8) -0.1098(8) -0.1254(7)
C13A C -0.0397(8) -0.1299(8) -0.0738(7)
H5A H -0.10113 -0.10643 -0.12105
C14A C 0.4410(8) 0.4244(8) -0.6574(7)
C15A C 0.3428(10) 0.2139(8) -0.4867(7)
H6A H 0.32545 0.26780 -0.43895
C16A C -0.2464(8) -0.2003(9) 0.0989(8)
N1A N 0.2528(9) 0.0227(8) -0.3089(7)
H7A H 0.29121 0.04725 -0.26621
C17A C 0.3071(11) 0.0768(9) -0.4383(9)
Cd1* Cd -0.50000 0.00000 0.00000
Cd1** Cd 0.50000 0.00000 -1.00000
Cd1*** Cd 0.50000 0.00000 1.00000
Cd1**** Cd 1.50000 0.00000 0.00000
Cd2* Cd 0.52561(5) -0.69787(5) 0.75472(4)
Cd2** Cd 0.52561(5) 0.30213(5) 0.75472(4)
Cd2*** Cd 1.52561(5) 0.30213(5) -0.24528(4)
Cd2A* Cd -0.52561(5) -0.30213(5) 0.24528(4)
Cd2A** Cd 0.47439(5) -0.30213(5) -0.75472(4)
Cd2A*** Cd 0.47439(5) 0.69787(5) -0.75472(4)
O2* O 0.3238(6) 0.1577(8) -0.0301(7)
O2A* O 0.6762(6) -0.1577(8) 0.0301(7)
O3* O 0.2937(6) 0.2557(7) -0.2092(6)
O3A* O 0.7063(6) -0.2557(7) 0.2092(6)
O4* O 0.5259(6) -0.0275(7) -0.1782(5)
O4A* O 0.4741(6) 0.0275(7) 0.1782(5)
O5* O 0.4991(7) 0.5229(6) -0.2352(6)
O5A* O 0.5009(7) -0.5229(6) 0.2352(6)
O6* O 0.5923(7) 0.5028(6) -0.4068(5)
O6A* O 0.4077(7) -0.5028(6) 0.4068(5)
O9* O 0.6043(6) 0.1587(6) -0.3402(6)
O9A* O 0.3957(6) -0.1587(6) 0.3402(6)
#END
