
#######################################################################
#
#                 Cambridge Crystallographic Data Centre
#                                CCDC
#
#######################################################################
#
# If this CIF has been generated from an entry in the Cambridge
# Structural Database, then it will include bibliographic, chemical,
# crystal, experimental, refinement or atomic coordinate data resulting
# from the CCDC's data processing and validation procedures.
#
#######################################################################

data_CSD_CIF_YUVNIP
_audit_creation_date 2020-08-26
_audit_creation_method CSD-ConQuest-V1
_database_code_CSD YUVNIP
_database_code_depnum_ccdc_archive 'CCDC 1957493'
_chemical_formula_sum 'C98 H68 Ag6 Mo24 N28 O86 P2 S14'
_chemical_formula_moiety
;
(C56 H32 Ag5 Mo24 N16 O80 P2 S8 1-)n,(C14 H8 Ag1 N4 S2 1+)n,2(C14 H8 N4 
S2),6(H2 O1)
;
_journal_coden_Cambridge 440
_journal_volume 44
_journal_year 2020
_journal_page_first 15122
_journal_name_full 'New J.Chem. '
loop_
_publ_author_name
"Hai-chen Mou"
"Jun Ying"
"Ai-xiang Tian"
"Hong-tao Cui"
"Xiu-li Wang"
_chemical_name_systematic
;
catena-[(\m-2,5-bis(pyridin-4-yl)[1,3]thiazolo[5,4-d][1,3]thiazole)-silver(i) 
bis(-phosphato)-dopentacontakis(-oxo)-tetrakis(\m-2,5-bis(pyridin-4-yl)[1,3]th
iazolo[5,4-d][1,3]thiazole)-icosaoxo-tetracosa-molybdenum-penta-silver(i) 
bis(2,5-bis(pyridin-4-yl)[1,3]thiazolo[5,4-d][1,3]thiazole) hexahydrate]
;
_cell_volume  15892.358
_exptl_crystal_colour 'yellow'
_exptl_crystal_density_diffrn 2.706
_exptl_crystal_description 'block'
_diffrn_ambient_temperature 296.1
#These two values have been output from a single CSD field.
_refine_ls_R_factor_gt 0.077
_refine_ls_wR_factor_gt 0.077
_symmetry_cell_setting monoclinic
_symmetry_space_group_name_H-M 'C 2/c'
_symmetry_Int_Tables_number 15
loop_
_symmetry_equiv_pos_site_id
_symmetry_equiv_pos_as_xyz
1 x,y,z
2 -x,y,1/2-z
3 1/2+x,1/2+y,z
4 1/2-x,1/2+y,1/2-z
5 -x,-y,-z
6 x,-y,-1/2+z
7 -1/2-x,-1/2-y,-z
8 -1/2+x,-1/2-y,-1/2+z
_cell_length_a 22.563(6)
_cell_length_b 25.768(6)
_cell_length_c 27.347(6)
_cell_angle_alpha 90
_cell_angle_beta 91.734(5)
_cell_angle_gamma 90
_cell_formula_units_Z 4
loop_
_atom_type_symbol
_atom_type_radius_bond
C 0.68
H 0.23
Ag 1.45
Mo 1.54
N 0.68
O 0.68
P 1.05
S 1.02
loop_
_atom_site_label
_atom_site_type_symbol
_atom_site_fract_x
_atom_site_fract_y
_atom_site_fract_z
Ag1 Ag 0.95594(6) 0.24646(4) 0.46951(4)
Ag2 Ag 1.05031(6) 0.15384(4) 0.53136(5)
Mo1 Mo 1.09725(6) -0.14429(4) 0.30282(5)
Mo2 Mo 1.09813(6) 0.05792(5) 0.29460(5)
Mo3 Mo 1.05932(6) 0.05813(5) 0.17303(5)
Mo4 Mo 0.90386(6) 0.25194(5) 0.19832(5)
Mo5 Mo 1.09385(6) -0.33235(5) 0.30811(5)
Mo6 Mo 1.15113(6) 0.15127(5) 0.21983(5)
Mo7 Mo 1.15303(6) -0.23594(5) 0.22531(5)
Mo8 Mo 0.94411(6) -0.33994(5) 0.32372(5)
Mo9 Mo 1.05023(6) 0.25205(5) 0.17162(5)
Ag3 Ag 1.00000 -0.04176(7) 0.25000
Mo10 Mo 1.06383(6) -0.13932(5) 0.18016(5)
Mo11 Mo 1.04192(7) 0.15906(5) 0.37503(5)
Mo12 Mo 1.02475(7) -0.24239(5) 0.37621(5)
P1 P 1.00000 0.15406(15) 0.25000
P2 P 1.00000 -0.23800(17) 0.25000
S1 S 1.34295(19) 0.43564(14) 0.47180(14)
S2 S 0.66423(19) -0.03741(15) 0.53259(15)
S3 S 1.2696(2) 0.36292(15) 0.58843(15)
S4 S 0.7379(2) 0.03811(16) 0.41792(16)
O1 O 1.0144(4) 0.1886(3) 0.2944(3)
O2 O 1.0536(4) 0.1201(3) 0.2392(3)
O3 O 1.0100(4) -0.2723(3) 0.2950(3)
O4 O 1.0885(4) 0.1110(3) 0.3409(3)
O5 O 1.0896(4) 0.0234(3) 0.2309(3)
O6 O 1.0962(4) 0.2136(3) 0.3610(3)
O7 O 1.0701(4) 0.2707(3) 0.2364(3)
O8 O 1.1309(4) 0.0972(3) 0.1733(3)
O9 O 1.1617(4) 0.0973(3) 0.2666(3)
O10 O 0.8594(4) 0.1992(3) 0.2288(3)
O11 O 1.0909(4) -0.1069(4) 0.2396(4)
O12 O 0.9852(4) 0.2126(3) 0.3826(3)
O13 O 0.9755(4) 0.2851(3) 0.1763(3)
O14 O 1.0723(4) -0.3548(3) 0.2413(3)
O15 O 1.0544(4) -0.2040(3) 0.2434(3)
O16 O 1.0741(5) 0.0137(3) 0.1310(3)
O17 O 1.1606(4) -0.1811(4) 0.2773(3)
O18 O 0.9798(4) 0.1104(3) 0.3642(3)
O19 O 1.0865(4) 0.2959(3) 0.1389(4)
O20 O 1.0848(5) -0.2948(4) 0.3658(4)
O21 O 0.9807(4) 0.0384(3) 0.1933(3)
O22 O 1.1165(5) -0.2839(4) 0.1861(4)
O23 O 1.1391(5) -0.2816(4) 0.2796(4)
O24 O 1.0839(5) -0.0964(4) 0.1402(4)
O25 O 1.1369(5) -0.1804(3) 0.1830(4)
O26 O 1.0200(5) -0.3687(4) 0.3249(4)
O27 O 0.9699(5) -0.2964(4) 0.3782(4)
O28 O 1.0802(5) -0.1941(4) 0.3484(4)
O29 O 1.1379(4) 0.0131(3) 0.3245(3)
O30 O 1.0359(5) -0.2332(4) 0.4354(4)
O31 O 1.1081(4) 0.1986(3) 0.1798(3)
O32 O 1.1433(5) -0.3772(3) 0.3259(4)
N1 N 0.5199(6) -0.1904(4) 0.4713(4)
O33 O 1.0151(4) -0.1213(4) 0.3084(4)
O34 O 1.0597(5) 0.1482(3) 0.4333(3)
N2 N 1.1155(5) 0.2144(4) 0.5305(4)
O35 O 0.8535(5) 0.2971(4) 0.1844(4)
O36 O 0.9051(5) -0.3840(4) 0.3540(4)
O37 O 1.2251(5) -0.2449(4) 0.2165(4)
O38 O 0.9674(4) -0.1924(4) 0.3604(4)
N3 N 0.7406(6) 0.0456(4) 0.5159(5)
O39 O 1.1343(5) -0.0994(4) 0.3360(4)
N4 N 1.2634(6) 0.3560(4) 0.4931(5)
O40 O 1.2207(4) 0.1624(3) 0.2049(4)
N5 N 0.8865(6) 0.1886(5) 0.4731(5)
N6 N 1.3475(6) 0.4449(4) 0.5676(4)
N7 N 1.4867(6) 0.5915(4) 0.5292(4)
N8 N 0.6615(6) -0.0448(4) 0.4354(5)
C1 C 0.5995(7) -0.1092(5) 0.4757(5)
C2 C 1.2416(7) 0.3361(5) 0.5339(5)
C3 C 1.4086(6) 0.5087(5) 0.5264(5)
C4 C 1.4695(7) 0.5708(5) 0.4867(5)
H1 H 1.48422 0.58412 0.45786
C5 C 0.6413(6) -0.0652(5) 0.4769(5)
C6 C 1.1987(7) 0.2934(5) 0.5344(6)
C7 C 0.5324(7) -0.1687(6) 0.5151(5)
H2 H 0.51332 -0.17967 0.54294
C8 C 0.7044(8) 0.0052(6) 0.5005(6)
C9 C 0.5753(7) -0.1289(5) 0.5179(5)
H3 H 0.58739 -0.11575 0.54825
C10 C 0.5432(8) -0.1729(5) 0.4311(5)
H4 H 0.53122 -0.18753 0.40136
C11 C 1.3674(7) 0.4647(5) 0.5267(5)
C12 C 0.8039(7) 0.1093(5) 0.4730(5)
C13 C 0.5842(8) -0.1342(6) 0.4312(5)
H5 H 0.60189 -0.12433 0.40236
C14 C 1.4289(7) 0.5300(5) 0.5711(6)
H6 H 1.41661 0.51615 0.60050
C15 C 1.4301(7) 0.5299(5) 0.4847(5)
H7 H 1.41806 0.51640 0.45447
C16 C 0.6978(7) -0.0043(5) 0.4512(6)
C17 C 1.4673(8) 0.5719(6) 0.5710(6)
H8 H 1.47991 0.58660 0.60060
C18 C 1.3010(7) 0.3954(5) 0.5061(6)
C19 C 1.1352(7) 0.2351(5) 0.4906(5)
H9 H 1.11997 0.22257 0.46086
C20 C 0.7624(8) 0.0658(6) 0.4737(6)
C21 C 1.1383(7) 0.2340(5) 0.5736(5)
H10 H 1.12525 0.22001 0.60273
C22 C 1.1789(7) 0.2727(6) 0.5758(6)
H11 H 1.19293 0.28493 0.60596
C23 C 1.1764(7) 0.2739(5) 0.4892(5)
H12 H 1.18932 0.28699 0.45970
C24 C 1.3100(7) 0.4046(5) 0.5550(5)
C25 C 0.8653(8) 0.1668(6) 0.4313(6)
H13 H 0.87915 0.17896 0.40179
C26 C 0.8656(7) 0.1708(6) 0.5141(5)
H14 H 0.87942 0.18560 0.54334
C27 C 0.8244(8) 0.1314(6) 0.5164(6)
H15 H 0.81080 0.12001 0.54633
C28 C 0.8243(8) 0.1276(6) 0.4303(6)
H16 H 0.81059 0.11378 0.40065
Ag4 Ag 0.75000 0.25000 0.50000
S5 S 0.5350(2) 0.03840(17) 0.44175(17)
N9 N 0.5401(7) 0.0451(5) 0.5384(5)
N10 N 0.6827(7) 0.1902(5) 0.4994(6)
C29 C 0.6019(7) 0.1099(6) 0.4971(6)
C30 C 0.5610(8) 0.0671(6) 0.4964(6)
C31 C 0.5041(8) 0.0051(6) 0.5241(6)
C32 C 0.6229(9) 0.1306(7) 0.4549(7)
H17 H 0.60986 0.11729 0.42488
C33 C 0.6219(9) 0.1318(6) 0.5409(7)
H18 H 0.60767 0.11989 0.57040
C34 C 0.6631(9) 0.1710(7) 0.4563(7)
H19 H 0.67666 0.18487 0.42736
C35 C 0.6627(8) 0.1710(7) 0.5403(7)
H20 H 0.67676 0.18462 0.56992
S6 S 0.5797(2) 0.01931(17) 0.3100(2)
S7 S 0.4683(2) -0.10409(18) 0.3199(3)
N11 N 0.4605(7) -0.0020(6) 0.3228(5)
C36 C 0.4287(6) -0.0486(5) 0.3243(5)
C37 C 0.6836(7) -0.0384(5) 0.3008(6)
C38 C 0.6200(7) -0.0388(5) 0.3067(5)
N12 N 0.8043(6) -0.0422(5) 0.2899(5)
N13 N 0.5878(7) -0.0847(6) 0.3073(5)
C39 C 0.3627(6) -0.0471(6) 0.3313(6)
C40 C 0.3344(7) -0.0001(6) 0.3358(6)
H21 H 0.35537 0.03093 0.33565
C41 C 0.5185(7) -0.0161(5) 0.3165(6)
C42 C 0.5297(8) -0.0678(6) 0.3144(7)
C43 C 0.7753(7) 0.0032(6) 0.2906(6)
H22 H 0.79663 0.03389 0.28753
C44 C 0.7163(7) 0.0057(5) 0.2957(6)
H23 H 0.69757 0.03781 0.29578
N14 N 0.2466(6) -0.0445(5) 0.3397(5)
C45 C 0.3310(7) -0.0931(7) 0.3304(7)
H24 H 0.34988 -0.12479 0.32585
C46 C 0.7170(8) -0.0851(6) 0.3018(8)
H25 H 0.69741 -0.11622 0.30733
C47 C 0.2732(7) -0.0907(6) 0.3362(7)
H26 H 0.25104 -0.12107 0.33779
C48 C 0.2754(7) -0.0010(7) 0.3404(6)
H27 H 0.25487 0.03001 0.34414
C49 C 0.7736(9) -0.0860(7) 0.2954(9)
H28 H 0.79328 -0.11768 0.29467
O41 O 0.29026 -0.21113 0.31146
H29 H 0.30282 -0.21919 0.28348
H30 H 0.26366 -0.18924 0.30126
O42 O 0.70792 0.27195 0.39019
H31 H 0.70588 0.28576 0.35617
H32 H 0.67133 0.26471 0.38628
O43 O 0.28999 0.10525 0.29059
H33 H 0.29036 0.13009 0.27014
H34 H 0.27988 0.11933 0.31719
O1A O 0.9856(4) 0.1886(3) 0.2056(3)
O2A O 0.9464(4) 0.1201(3) 0.2608(3)
O3A O 0.9900(4) -0.2723(3) 0.2050(3)
O15A O 0.9456(4) -0.2040(3) 0.2566(3)
Ag1A Ag 1.04406(6) 0.24646(4) 0.03049(4)
Ag2A Ag 0.94969(6) 0.15384(4) -0.03136(5)
Mo1A Mo 0.90275(6) -0.14429(4) 0.19718(5)
Mo2A Mo 0.90187(6) 0.05792(5) 0.20540(5)
Mo3A Mo 0.94068(6) 0.05813(5) 0.32697(5)
Mo4A Mo 1.09614(6) 0.25194(5) 0.30168(5)
Mo5A Mo 0.90615(6) -0.33235(5) 0.19189(5)
Mo6A Mo 0.84887(6) 0.15127(5) 0.28017(5)
Mo7A Mo 0.84697(6) -0.23594(5) 0.27469(5)
Mo8A Mo 1.05589(6) -0.33994(5) 0.17628(5)
Mo9A Mo 0.94977(6) 0.25205(5) 0.32838(5)
Mo10A Mo 0.93617(6) -0.13932(5) 0.31984(5)
Mo11A Mo 0.95808(7) 0.15906(5) 0.12497(5)
Mo12A Mo 0.97525(7) -0.24239(5) 0.12379(5)
S1A S 0.65705(19) 0.43564(14) 0.02820(14)
S2A S 1.33577(19) -0.03741(15) -0.03259(15)
S3A S 0.7304(2) 0.36292(15) -0.08843(15)
S4A S 1.2621(2) 0.03811(16) 0.08208(16)
O4A O 0.9115(4) 0.1110(3) 0.1591(3)
O5A O 0.9104(4) 0.0234(3) 0.2691(3)
O6A O 0.9038(4) 0.2136(3) 0.1390(3)
O7A O 0.9299(4) 0.2707(3) 0.2636(3)
O8A O 0.8691(4) 0.0972(3) 0.3267(3)
O9A O 0.8383(4) 0.0973(3) 0.2334(3)
O10A O 1.1406(4) 0.1992(3) 0.2712(3)
O11A O 0.9091(4) -0.1069(4) 0.2604(4)
O12A O 1.0148(4) 0.2126(3) 0.1174(3)
O13A O 1.0245(4) 0.2851(3) 0.3237(3)
O14A O 0.9277(4) -0.3548(3) 0.2587(3)
O16A O 0.9259(5) 0.0137(3) 0.3690(3)
O17A O 0.8394(4) -0.1811(4) 0.2227(3)
O18A O 1.0202(4) 0.1104(3) 0.1358(3)
O19A O 0.9135(4) 0.2959(3) 0.3611(4)
O20A O 0.9152(5) -0.2948(4) 0.1342(4)
O21A O 1.0193(4) 0.0384(3) 0.3067(3)
O22A O 0.8835(5) -0.2839(4) 0.3139(4)
O23A O 0.8609(5) -0.2816(4) 0.2204(4)
O24A O 0.9161(5) -0.0964(4) 0.3598(4)
O25A O 0.8631(5) -0.1804(3) 0.3170(4)
O26A O 0.9800(5) -0.3687(4) 0.1751(4)
O27A O 1.0301(5) -0.2964(4) 0.1218(4)
O28A O 0.9198(5) -0.1941(4) 0.1516(4)
O29A O 0.8621(4) 0.0131(3) 0.1755(3)
O30A O 0.9641(5) -0.2332(4) 0.0646(4)
O31A O 0.8919(4) 0.1986(3) 0.3202(3)
O32A O 0.8567(5) -0.3772(3) 0.1741(4)
N1A N 1.4801(6) -0.1904(4) 0.0287(4)
O33A O 0.9849(4) -0.1213(4) 0.1916(4)
O34A O 0.9403(5) 0.1482(3) 0.0667(3)
N2A N 0.8845(5) 0.2144(4) -0.0305(4)
O35A O 1.1465(5) 0.2971(4) 0.3156(4)
O36A O 1.0949(5) -0.3840(4) 0.1460(4)
O37A O 0.7749(5) -0.2449(4) 0.2835(4)
O38A O 1.0326(4) -0.1924(4) 0.1396(4)
N3A N 1.2594(6) 0.0456(4) -0.0159(5)
O39A O 0.8657(5) -0.0994(4) 0.1640(4)
N4A N 0.7366(6) 0.3560(4) 0.0069(5)
O40A O 0.7793(4) 0.1624(3) 0.2951(4)
N5A N 1.1135(6) 0.1886(5) 0.0269(5)
N6A N 0.6525(6) 0.4449(4) -0.0676(4)
N7A N 0.5133(6) 0.5915(4) -0.0292(4)
N8A N 1.3385(6) -0.0448(4) 0.0646(5)
C1A C 1.4005(7) -0.1092(5) 0.0243(5)
C2A C 0.7584(7) 0.3361(5) -0.0339(5)
C3A C 0.5914(6) 0.5087(5) -0.0264(5)
C4A C 0.5305(7) 0.5708(5) 0.0133(5)
H1A H 0.51578 0.58412 0.04214
C5A C 1.3587(6) -0.0652(5) 0.0231(5)
C6A C 0.8013(7) 0.2934(5) -0.0344(6)
C7A C 1.4676(7) -0.1687(6) -0.0151(5)
H2A H 1.48668 -0.17967 -0.04294
C8A C 1.2956(8) 0.0052(6) -0.0005(6)
C9A C 1.4247(7) -0.1289(5) -0.0179(5)
H3A H 1.41261 -0.11575 -0.04825
C10A C 1.4568(8) -0.1729(5) 0.0689(5)
H4A H 1.46878 -0.18753 0.09864
C11A C 0.6326(7) 0.4647(5) -0.0267(5)
C12A C 1.1961(7) 0.1093(5) 0.0270(5)
C13A C 1.4158(8) -0.1342(6) 0.0688(5)
H5A H 1.39811 -0.12433 0.09764
C14A C 0.5711(7) 0.5300(5) -0.0711(6)
H6A H 0.58339 0.51615 -0.10050
C15A C 0.5699(7) 0.5299(5) 0.0153(5)
H7A H 0.58194 0.51640 0.04553
C16A C 1.3022(7) -0.0043(5) 0.0488(6)
C17A C 0.5327(8) 0.5719(6) -0.0710(6)
H8A H 0.52009 0.58660 -0.10060
C18A C 0.6990(7) 0.3954(5) -0.0061(6)
C19A C 0.8648(7) 0.2351(5) 0.0094(5)
H9A H 0.88003 0.22257 0.03914
C20A C 1.2376(8) 0.0658(6) 0.0263(6)
C21A C 0.8617(7) 0.2340(5) -0.0736(5)
H10A H 0.87475 0.22001 -0.10273
C22A C 0.8211(7) 0.2727(6) -0.0758(6)
H11A H 0.80707 0.28493 -0.10596
C23A C 0.8236(7) 0.2739(5) 0.0108(5)
H12A H 0.81068 0.28699 0.04030
C24A C 0.6900(7) 0.4046(5) -0.0550(5)
C25A C 1.1347(8) 0.1668(6) 0.0687(6)
H13A H 1.12085 0.17896 0.09821
C26A C 1.1344(7) 0.1708(6) -0.0141(5)
H14A H 1.12058 0.18560 -0.04334
C27A C 1.1756(8) 0.1314(6) -0.0164(6)
H15A H 1.18920 0.12001 -0.04633
C28A C 1.1757(8) 0.1276(6) 0.0697(6)
H16A H 1.18941 0.11378 0.09935
Ag1B Ag 0.45594(6) -0.25354(4) 0.46951(4)
Ag1C Ag 1.54406(6) -0.25354(4) 0.03049(4)
Ag1D Ag 1.04406(6) -0.24646(4) 0.53049(4)
Ag1E Ag 0.95594(6) -0.24646(4) -0.03049(4)
Ag2B Ag 1.55031(6) 0.65384(4) 0.53136(5)
Ag2C Ag 0.44969(6) 0.65384(4) -0.03136(5)
O30D O 0.9641(5) 0.2332(4) 0.5646(4)
O30E O 1.0359(5) 0.2332(4) -0.0646(4)
N1B N 1.0199(6) 0.3096(4) 0.4713(4)
N1C N 0.9801(6) 0.3096(4) 0.0287(4)
N7B N 0.9867(6) 0.0915(4) 0.5292(4)
N7C N 1.0133(6) 0.0915(4) -0.0292(4)
S5D S 0.4650(2) -0.03840(17) 0.55825(17)
N9D N 0.4599(7) -0.0451(5) 0.4616(5)
N10D N 0.3173(7) -0.1902(5) 0.5006(6)
C29D C 0.3981(7) -0.1099(6) 0.5029(6)
C30D C 0.4390(8) -0.0671(6) 0.5036(6)
C31D C 0.4959(8) -0.0051(6) 0.4759(6)
C32D C 0.3771(9) -0.1306(7) 0.5451(7)
H17D H 0.39014 -0.11729 0.57512
C33D C 0.3781(9) -0.1318(6) 0.4591(7)
H18D H 0.39233 -0.11989 0.42960
C34D C 0.3369(9) -0.1710(7) 0.5437(7)
H19D H 0.32334 -0.18487 0.57264
C35D C 0.3373(8) -0.1710(7) 0.4597(7)
H20D H 0.32324 -0.18462 0.43008
Ag4B Ag 0.25000 -0.25000 0.50000
N10F N 0.8173(7) 0.3098(5) 0.5006(6)
#END
