
#######################################################################
#
#                 Cambridge Crystallographic Data Centre
#                                CCDC
#
#######################################################################
#
# If this CIF has been generated from an entry in the Cambridge
# Structural Database, then it will include bibliographic, chemical,
# crystal, experimental, refinement or atomic coordinate data resulting
# from the CCDC's data processing and validation procedures.
#
#######################################################################

data_CSD_CIF_YUWKEJ
_audit_creation_date 2020-08-27
_audit_creation_method CSD-ConQuest-V1
_database_code_CSD YUWKEJ
_database_code_depnum_ccdc_archive 'CCDC 2011398'
_chemical_formula_sum 'C6 H4 Na2 O14 Zr1'
_chemical_formula_moiety
;
(C6 O12 Zr1 2-)n,2(H2 O1),2(Na1 1+)
;
_journal_coden_Cambridge 2066
_journal_volume 5
_journal_year 2020
_journal_page_first 21260
_journal_name_full 'ACS Omega '
loop_
_publ_author_name
"R.Thomas"
"P.Devaux"
"M.Rivenet"
"N.Henry"
"F.Abraham"
_chemical_name_systematic
;
catena-[di-sodium (\m-oxalato)-bis(oxalato)-zirconium dihydrate]
;
_cell_volume   1283.995
_exptl_crystal_colour 'colorless'
_exptl_crystal_density_diffrn 2.262
_exptl_crystal_description 'plate'
_diffrn_ambient_temperature 296
#These two values have been output from a single CSD field.
_refine_ls_R_factor_gt 0.0286
_refine_ls_wR_factor_gt 0.0286
_symmetry_cell_setting monoclinic
_symmetry_space_group_name_H-M 'C 2/c'
_symmetry_Int_Tables_number 15
loop_
_symmetry_equiv_pos_site_id
_symmetry_equiv_pos_as_xyz
1 x,y,z
2 -x,y,1/2-z
3 1/2+x,1/2+y,z
4 1/2-x,1/2+y,1/2-z
5 -x,-y,-z
6 x,-y,-1/2+z
7 -1/2-x,-1/2-y,-z
8 -1/2+x,-1/2-y,-1/2+z
_cell_length_a 13.8646(9)
_cell_length_b 10.4241(6)
_cell_length_c 8.9290(5)
_cell_angle_alpha 90
_cell_angle_beta 95.743(3)
_cell_angle_gamma 90
_cell_formula_units_Z 4
loop_
_atom_type_symbol
_atom_type_radius_bond
C 0.68
H 0.23
Na 1.66
O 0.68
Zr 1.75
loop_
_atom_site_label
_atom_site_type_symbol
_atom_site_fract_x
_atom_site_fract_y
_atom_site_fract_z
Zr1 Zr 0.00000 0.31473(2) 0.25000
C1 C 0.05187(15) 0.48328(19) -0.0098(2)
C2 C 0.16481(17) 0.1396(2) 0.3600(2)
C3 C 0.10285(17) 0.1443(2) 0.4927(2)
O1 O 0.09388(10) 0.40978(13) 0.08506(14)
O2 O 0.08729(10) 0.53294(13) -0.12179(14)
O3 O 0.02889(11) 0.21809(15) 0.46786(16)
O4 O 0.12741(11) 0.20447(14) 0.24455(16)
O5 O 0.12567(13) 0.08160(16) 0.60553(16)
O6 O 0.23995(12) 0.07984(17) 0.36582(18)
Na1 Na 0.25288(7) 0.09005(9) 0.08095(10)
O7 O 0.15385(14) 0.20701(18) -0.1105(2)
H1 H 0.0994(18) 0.206(3) -0.088(3)
H2 H 0.144(2) 0.170(3) -0.182(3)
C1D C -0.05187(15) 0.51672(19) 0.0098(2)
O1D O -0.09388(10) 0.59022(13) -0.08506(14)
O2D O -0.08729(10) 0.46706(13) 0.12179(14)
C2A C -0.16481(17) 0.1396(2) 0.1400(2)
C3A C -0.10285(17) 0.1443(2) 0.0073(2)
O3A O -0.02889(11) 0.21809(15) 0.03214(16)
O4A O -0.12741(11) 0.20447(14) 0.25545(16)
O5A O -0.12567(13) 0.08160(16) -0.10553(16)
O6A O -0.23995(12) 0.07984(17) 0.13418(18)
Zr1D Zr 0.00000 0.68527(2) -0.25000
O1A O -0.09388(10) 0.40978(13) 0.41494(14)
O2E O 0.08729(10) 0.46706(13) 0.37821(14)
#END
