
#######################################################################
#
#                 Cambridge Crystallographic Data Centre
#                                CCDC
#
#######################################################################
#
# If this CIF has been generated from an entry in the Cambridge
# Structural Database, then it will include bibliographic, chemical,
# crystal, experimental, refinement or atomic coordinate data resulting
# from the CCDC's data processing and validation procedures.
#
#######################################################################

data_CSD_CIF_YUWKIN
_audit_creation_date 2020-08-27
_audit_creation_method CSD-ConQuest-V1
_database_code_CSD YUWKIN
_database_code_depnum_ccdc_archive 'CCDC 2011399'
_chemical_formula_sum 'C6 H9 K1 O16 Zr1'
_chemical_formula_moiety
;
(C6 O12 Zr1 2-)n,H3 O1 1+,3(H2 O1),K1 1+
;
_journal_coden_Cambridge 2066
_journal_volume 5
_journal_year 2020
_journal_page_first 21260
_journal_name_full 'ACS Omega '
loop_
_publ_author_name
"R.Thomas"
"P.Devaux"
"M.Rivenet"
"N.Henry"
"F.Abraham"
_chemical_name_systematic
;
catena-[potassium oxonium (\m-oxalato)-bis(oxalato)-zirconium trihydrate]
;
_cell_volume   1382.020
_exptl_crystal_colour 'colorless'
_exptl_crystal_density_diffrn 2.247
_exptl_crystal_description 'plate'
_diffrn_ambient_temperature 296
#These two values have been output from a single CSD field.
_refine_ls_R_factor_gt 0.0291
_refine_ls_wR_factor_gt 0.0291
_symmetry_cell_setting monoclinic
_symmetry_space_group_name_H-M 'P 21/c'
_symmetry_Int_Tables_number 14
loop_
_symmetry_equiv_pos_site_id
_symmetry_equiv_pos_as_xyz
1 x,y,z
2 -x,1/2+y,1/2-z
3 -x,-y,-z
4 x,-1/2-y,-1/2+z
_cell_length_a 9.2166(9)
_cell_length_b 11.169(1)
_cell_length_c 14.0940(15)
_cell_angle_alpha 90
_cell_angle_beta 107.718(5)
_cell_angle_gamma 90
_cell_formula_units_Z 4
loop_
_atom_type_symbol
_atom_type_radius_bond
C 0.68
H 0.23
K 2.03
O 0.68
Zr 1.75
loop_
_atom_site_label
_atom_site_type_symbol
_atom_site_fract_x
_atom_site_fract_y
_atom_site_fract_z
Zr1 Zr 0.39097(3) 0.09841(2) 0.24535(2)
C1 C 0.4208(3) 0.3700(2) 0.23739(19)
C2 C 0.5826(3) 0.3258(2) 0.25522(18)
C3 C 0.2893(4) 0.1080(2) 0.0195(2)
C4 C 0.1396(4) 0.1148(2) 0.0459(2)
C5 C 0.2746(3) 0.1063(2) 0.4248(2)
C6 C 0.4461(3) 0.1306(2) 0.4672(2)
O1 O 0.6815(2) 0.40719(15) 0.26915(14)
O2 O 0.4014(2) 0.48090(15) 0.23263(13)
O3 O 0.6013(2) 0.21598(15) 0.25429(13)
O4 O 0.3204(2) 0.29093(15) 0.22829(14)
O5 O 0.2921(3) 0.11826(19) -0.06598(15)
O6 O 0.0183(3) 0.13229(19) -0.01775(16)
O7 O 0.4074(2) 0.09151(16) 0.09702(14)
O8 O 0.1594(2) 0.10142(16) 0.14017(13)
O9 O 0.5136(2) 0.13160(17) 0.39896(14)
O10 O 0.2324(2) 0.08923(16) 0.32972(14)
O11 O 0.5094(2) 0.14762(19) 0.55511(14)
O12 O 0.1929(3) 0.10343(18) 0.47785(15)
K1 K 0.07195(8) 0.47019(7) 0.13247(5)
O13 O 0.1474(3) 0.6528(2) 0.0197(2)
H1 H 0.115(4) 0.720(3) 0.029(3)
H2 H 0.237(3) 0.649(4) 0.044(3)
O14 O 0.0821(3) 0.6338(2) 0.29903(18)
H3 H 0.193(3) 0.636(3) 0.368(2)
H4 H 0.011(4) 0.612(3) 0.317(3)
H5 H 0.060(4) 0.701(3) 0.266(2)
O15 O 0.3171(3) 0.6471(2) 0.43946(18)
H6 H 0.385(4) 0.608(3) 0.428(3)
H7 H 0.355(4) 0.717(2) 0.446(2)
O16 O -0.0139(3) 0.3414(2) 0.27719(17)
H8 H 0.058(4) 0.340(3) 0.329(2)
H9 H -0.088(4) 0.367(3) 0.288(3)
Zr1A Zr 0.60903(3) 0.59841(2) 0.25465(2)
O1A O 0.3185(2) -0.09281(15) 0.23085(14)
O2A O 0.5986(2) -0.01910(15) 0.26737(13)
#END
