
#######################################################################
#
#                 Cambridge Crystallographic Data Centre
#                                CCDC
#
#######################################################################
#
# If this CIF has been generated from an entry in the Cambridge
# Structural Database, then it will include bibliographic, chemical,
# crystal, experimental, refinement or atomic coordinate data resulting
# from the CCDC's data processing and validation procedures.
#
#######################################################################

data_CSD_CIF_YUYGOQ
_audit_creation_date 2015-11-09
_audit_creation_method CSD-ConQuest-V1
_database_code_CSD YUYGOQ
_database_code_depnum_ccdc_archive 'CCDC 1424110'
_chemical_formula_sum 'C90 H76 Cd5 N6 O28'
_chemical_formula_moiety
;
(C84 H52 Cd5 N4 O26 2-)n,2(C1 H4 O1),2(C2 H8 N1 1+)
;
_journal_coden_Cambridge 1048
_journal_volume 18
_journal_year 2016
_journal_page_first 951
_journal_name_full 'Green Chemistry '
loop_
_publ_author_name
"Chengfang Qiao"
"Xiaoni Qu"
"Qi Yang"
"Qing Wei"
"Gang Xie"
"Sanping Chen"
"Desuo Yang"
_chemical_name_systematic
;
catena-[bis(dimethylammonium) 
tetrakis(\m-4,4',4''-nitrilotribenzoato)-diaqua--penta-cadmium methanol 
solvate]
;
_cell_volume   5067.406
_exptl_crystal_colour 'light yellow'
_exptl_crystal_density_diffrn 1.476
_exptl_crystal_description 'block'
_diffrn_ambient_temperature 296
#These two values have been output from a single CSD field.
_refine_ls_R_factor_gt 0.0563
_refine_ls_wR_factor_gt 0.0563
_symmetry_cell_setting monoclinic
_symmetry_space_group_name_H-M 'P 21/c'
_symmetry_Int_Tables_number 14
loop_
_symmetry_equiv_pos_site_id
_symmetry_equiv_pos_as_xyz
1 x,y,z
2 -x,1/2+y,1/2-z
3 -x,-y,-z
4 x,-1/2-y,-1/2+z
_cell_length_a 14.5830(13)
_cell_length_b 23.241(2)
_cell_length_c 15.6338(14)
_cell_angle_alpha 90
_cell_angle_beta 106.990(2)
_cell_angle_gamma 90
_cell_formula_units_Z 2
loop_
_atom_type_symbol
_atom_type_radius_bond
C 0.68
H 0.23
Cd 1.44
N 0.68
O 0.68
loop_
_atom_site_label
_atom_site_type_symbol
_atom_site_fract_x
_atom_site_fract_y
_atom_site_fract_z
Cd1 Cd 0.00000 0.50000 0.50000
Cd2 Cd 0.23637(3) 0.437629(14) 0.58375(2)
Cd3 Cd 0.25806(3) 0.301056(16) 0.69640(2)
C1 C 0.1562(4) 0.5360(2) 0.1322(3)
C2 C 0.2371(4) 0.5089(3) 0.1869(4)
H1 H 0.29000 0.50200 0.16650
C3 C 0.2380(4) 0.4921(2) 0.2727(3)
H2 H 0.29020 0.47130 0.30730
C4 C 0.1665(4) 0.5048(2) 0.3071(3)
C5 C 0.0870(4) 0.5333(2) 0.2521(3)
H3 H 0.03590 0.54250 0.27380
C6 C 0.0834(4) 0.5478(2) 0.1663(3)
H4 H 0.02920 0.56640 0.13060
C7 C 0.1685(4) 0.4879(2) 0.3998(3)
C8 C 0.1857(4) 0.5076(2) -0.0088(4)
C9 C 0.2268(5) 0.5243(3) -0.0743(4)
H5 H 0.23590 0.56320 -0.08310
C10 C 0.2539(5) 0.4847(3) -0.1256(4)
H6 H 0.28100 0.49690 -0.16940
C11 C 0.2417(4) 0.4263(3) -0.1140(4)
C12 C 0.2018(5) 0.4109(3) -0.0508(4)
H7 H 0.19450 0.37190 -0.04140
C13 C 0.1705(5) 0.4500(3) 0.0018(4)
H8 H 0.14010 0.43760 0.04310
C14 C 0.2669(5) 0.3827(4) -0.1750(5)
C15 C -0.1249(4) 0.7208(2) -0.1192(4)
C16 C -0.0470(4) 0.6774(2) -0.0798(4)
C17 C -0.0391(4) 0.6273(2) -0.1242(4)
H9 H -0.08010 0.62110 -0.18130
C18 C 0.0283(4) 0.5864(2) -0.0856(3)
H10 H 0.03240 0.55290 -0.11690
C19 C 0.0894(4) 0.5944(2) -0.0015(4)
C20 C 0.0859(5) 0.6462(2) 0.0395(4)
H11 H 0.13090 0.65370 0.09420
C21 C 0.0202(5) 0.6862(3) 0.0036(4)
H12 H 0.01900 0.72040 0.03430
C22 C -0.1571(4) 0.2934(2) 0.6634(4)
C23 C -0.1756(4) 0.3137(2) 0.5774(4)
H13 H -0.23600 0.30910 0.53670
C24 C -0.1036(4) 0.3410(2) 0.5521(4)
H14 H -0.11610 0.35520 0.49420
C25 C -0.0132(4) 0.3475(2) 0.6117(3)
C26 C 0.0019(4) 0.3266(2) 0.6967(4)
H15 H 0.06210 0.33090 0.73780
C27 C -0.0686(4) 0.2995(2) 0.7232(4)
H16 H -0.05620 0.28550 0.78120
C28 C 0.0609(3) 0.37861(19) 0.5827(4)
C29 C -0.2173(4) 0.2116(2) 0.7308(4)
C30 C -0.1473(4) 0.1733(2) 0.7196(4)
H17 H -0.10930 0.18340 0.68340
C31 C -0.1348(4) 0.1205(2) 0.7621(4)
H18 H -0.08570 0.09640 0.75750
C32 C -0.1935(4) 0.1037(2) 0.8107(4)
C33 C -0.2610(4) 0.1411(2) 0.8241(4)
H19 H -0.29960 0.12950 0.85890
C34 C -0.2725(4) 0.1947(2) 0.7873(4)
H20 H -0.31650 0.22010 0.79940
C35 C -0.1832(4) 0.0444(2) 0.8511(4)
C36 C -0.3237(4) 0.2915(2) 0.6669(4)
C37 C -0.4071(4) 0.2593(2) 0.6318(4)
H21 H -0.40290 0.22030 0.61990
C38 C -0.4969(4) 0.2856(2) 0.6144(4)
H22 H -0.55250 0.26380 0.59380
C39 C -0.5029(4) 0.3431(2) 0.6279(4)
C40 C -0.4203(4) 0.3754(2) 0.6607(5)
H23 H -0.42430 0.41460 0.67110
C41 C -0.3320(5) 0.3492(3) 0.6778(5)
H24 H -0.27680 0.37140 0.69720
C42 C -0.5986(4) 0.3706(2) 0.6103(4)
N1 N 0.1537(4) 0.55012(19) 0.0432(3)
N2 N -0.2333(3) 0.26527(19) 0.6892(3)
O1 O 0.1109(3) 0.51543(16) 0.4332(2)
O2 O 0.2237(3) 0.44960(17) 0.4388(2)
O3 O 0.3128(4) 0.3978(3) -0.2261(4)
O4 O 0.2377(4) 0.3312(2) -0.1717(3)
O5 O -0.1499(3) 0.75425(18) -0.0677(3)
O6 O -0.1630(3) 0.72015(19) -0.2014(3)
O7 O 0.0403(3) 0.40536(14) 0.5124(2)
O8 O 0.1469(3) 0.37612(14) 0.6347(3)
O9 O -0.1088(3) 0.01696(15) 0.8642(2)
O10 O -0.2595(3) 0.02532(16) 0.8667(3)
O11 O -0.6722(3) 0.34112(18) 0.5954(2)
O12 O -0.6032(3) 0.42356(18) 0.6113(3)
O13 O 0.3919(4) 0.2496(3) 0.7594(5)
H25 H 0.42310 0.24480 0.72170
H26 H 0.37850 0.21650 0.77560
C43 C 0.2745(9) 0.3163(5) 0.3890(6)
H27 H 0.25140 0.31750 0.32490
H28 H 0.33690 0.29890 0.40710
H29 H 0.27870 0.35480 0.41230
C44 C 0.1066(7) 0.3132(4) 0.3760(6)
H30 H 0.11050 0.35420 0.36970
H31 H 0.06810 0.30460 0.41480
H32 H 0.07810 0.29630 0.31840
N3 N 0.2162(8) 0.2865(5) 0.4196(7)
H33 H 0.23320 0.28880 0.47960
H34 H 0.21780 0.24930 0.40410
O14 O 0.5313(9) 0.2902(5) 0.8702(9)
H35 H 0.56000 0.25970 0.88440
C45 C 0.5885(13) 0.3362(7) 0.9180(14)
H36 H 0.65120 0.32210 0.94910
H37 H 0.55890 0.35180 0.96040
H38 H 0.59370 0.36580 0.87680
Cd2B Cd -0.23637(3) 0.562371(14) 0.41625(2)
Cd3B Cd -0.25806(3) 0.698944(16) 0.30360(2)
C1B C -0.1562(4) 0.4640(2) 0.8678(3)
C2B C -0.2371(4) 0.4911(3) 0.8131(4)
H1B H -0.29000 0.49800 0.83350
C3B C -0.2380(4) 0.5079(2) 0.7273(3)
H2B H -0.29020 0.52870 0.69270
C4B C -0.1665(4) 0.4952(2) 0.6929(3)
C5B C -0.0870(4) 0.4667(2) 0.7479(3)
H3B H -0.03590 0.45750 0.72620
C6B C -0.0834(4) 0.4522(2) 0.8337(3)
H4B H -0.02920 0.43360 0.86940
C7B C -0.1685(4) 0.5121(2) 0.6002(3)
C8B C -0.1857(4) 0.4924(2) 1.0088(4)
C9B C -0.2268(5) 0.4757(3) 1.0743(4)
H5B H -0.23590 0.43680 1.08310
C10B C -0.2539(5) 0.5153(3) 1.1256(4)
H6B H -0.28100 0.50310 1.16940
C11B C -0.2417(4) 0.5737(3) 1.1140(4)
C12B C -0.2018(5) 0.5891(3) 1.0508(4)
H7B H -0.19450 0.62810 1.04140
C13B C -0.1705(5) 0.5500(3) 0.9982(4)
H8B H -0.14010 0.56240 0.95690
C14B C -0.2669(5) 0.6173(4) 1.1750(5)
C15B C 0.1249(4) 0.2792(2) 1.1192(4)
C16B C 0.0470(4) 0.3226(2) 1.0798(4)
C17B C 0.0391(4) 0.3727(2) 1.1242(4)
H9B H 0.08010 0.37890 1.18130
C18B C -0.0283(4) 0.4136(2) 1.0856(3)
H10B H -0.03240 0.44710 1.11690
C19B C -0.0894(4) 0.4056(2) 1.0015(4)
C20B C -0.0859(5) 0.3538(2) 0.9605(4)
H11B H -0.13090 0.34630 0.90580
C21B C -0.0202(5) 0.3138(3) 0.9964(4)
H12B H -0.01900 0.27960 0.96570
C22B C 0.1571(4) 0.7066(2) 0.3366(4)
C23B C 0.1756(4) 0.6863(2) 0.4226(4)
H13B H 0.23600 0.69090 0.46330
C24B C 0.1036(4) 0.6590(2) 0.4479(4)
H14B H 0.11610 0.64480 0.50580
C25B C 0.0132(4) 0.6525(2) 0.3883(3)
C26B C -0.0019(4) 0.6734(2) 0.3033(4)
H15B H -0.06210 0.66910 0.26220
C27B C 0.0686(4) 0.7005(2) 0.2768(4)
H16B H 0.05620 0.71450 0.21880
C28B C -0.0609(3) 0.62139(19) 0.4173(4)
C29B C 0.2173(4) 0.7884(2) 0.2692(4)
C30B C 0.1473(4) 0.8267(2) 0.2804(4)
H17B H 0.10930 0.81660 0.31660
C31B C 0.1348(4) 0.8795(2) 0.2379(4)
H18B H 0.08570 0.90360 0.24250
C32B C 0.1935(4) 0.8963(2) 0.1893(4)
C33B C 0.2610(4) 0.8589(2) 0.1759(4)
H19B H 0.29960 0.87050 0.14110
C34B C 0.2725(4) 0.8053(2) 0.2127(4)
H20B H 0.31650 0.77990 0.20060
C35B C 0.1832(4) 0.9556(2) 0.1489(4)
C36B C 0.3237(4) 0.7085(2) 0.3331(4)
C37B C 0.4071(4) 0.7407(2) 0.3682(4)
H21B H 0.40290 0.77970 0.38010
C38B C 0.4969(4) 0.7144(2) 0.3856(4)
H22B H 0.55250 0.73620 0.40620
C39B C 0.5029(4) 0.6569(2) 0.3721(4)
C40B C 0.4203(4) 0.6246(2) 0.3393(5)
H23B H 0.42430 0.58540 0.32890
C41B C 0.3320(5) 0.6508(3) 0.3222(5)
H24B H 0.27680 0.62860 0.30280
C42B C 0.5986(4) 0.6294(2) 0.3897(4)
N1B N -0.1537(4) 0.44988(19) 0.9568(3)
N2B N 0.2333(3) 0.73473(19) 0.3108(3)
O1B O -0.1109(3) 0.48457(16) 0.5668(2)
O2B O -0.2237(3) 0.55040(17) 0.5612(2)
O3B O -0.3128(4) 0.6022(3) 1.2261(4)
O4B O -0.2377(4) 0.6688(2) 1.1717(3)
O5B O 0.1499(3) 0.24575(18) 1.0677(3)
O6B O 0.1630(3) 0.27985(19) 1.2014(3)
O7B O -0.0403(3) 0.59464(14) 0.4876(2)
O8B O -0.1469(3) 0.62388(14) 0.3653(3)
O9B O 0.1088(3) 0.98304(15) 0.1358(2)
O10B O 0.2595(3) 0.97468(16) 0.1333(3)
O11B O 0.6722(3) 0.65888(18) 0.4046(2)
O12B O 0.6032(3) 0.57644(18) 0.3887(3)
O13B O -0.3919(4) 0.7504(3) 0.2406(5)
H25B H -0.42310 0.75520 0.27830
H26B H -0.37850 0.78350 0.22440
Cd1A Cd 0.00000 0.00000 1.00000
Cd1A* Cd 0.00000 1.00000 0.00000
Cd2* Cd -0.76363(3) 0.437629(14) 0.58375(2)
Cd2A Cd -0.23637(3) -0.062371(14) 0.91625(2)
Cd2B* Cd 0.76363(3) 0.562371(14) 0.41625(2)
Cd2C Cd 0.23637(3) 1.062371(14) 0.08375(2)
Cd3* Cd -0.74194(3) 0.301056(16) 0.69640(2)
Cd3** Cd 0.25806(3) 0.301056(16) -0.30360(2)
Cd3A Cd -0.25806(3) 0.801056(16) -0.19640(2)
Cd3B* Cd -0.25806(3) 0.698944(16) 1.30360(2)
Cd3B** Cd 0.74194(3) 0.698944(16) 0.30360(2)
Cd3C Cd 0.25806(3) 0.198944(16) 1.19640(2)
O3* O 0.3128(4) 0.3978(3) 0.7739(4)
O3B* O -0.3128(4) 0.6022(3) 0.2261(4)
O4* O 0.2377(4) 0.3312(2) 0.8283(3)
O4B* O -0.2377(4) 0.6688(2) 0.1717(3)
O5A O 0.1499(3) 0.25425(18) 0.5677(3)
O5C O -0.1499(3) 0.74575(18) 0.4323(3)
O6A O 0.1630(3) 0.22015(19) 0.7014(3)
O6C O -0.1630(3) 0.77985(19) 0.2986(3)
O9A O 0.1088(3) 0.51696(15) 0.6358(2)
O9C O -0.1088(3) 0.48304(15) 0.3642(2)
O10A O 0.2595(3) 0.52532(16) 0.6333(3)
O10C O -0.2595(3) 0.47468(16) 0.3667(3)
O11* O 0.3278(3) 0.34112(18) 0.5954(2)
O11B* O -0.3278(3) 0.65888(18) 0.4046(2)
O12* O 0.3968(3) 0.42356(18) 0.6113(3)
O12B* O -0.3968(3) 0.57644(18) 0.3887(3)
#END
