
#######################################################################
#
#                 Cambridge Crystallographic Data Centre
#                                CCDC
#
#######################################################################
#
# If this CIF has been generated from an entry in the Cambridge
# Structural Database, then it will include bibliographic, chemical,
# crystal, experimental, refinement or atomic coordinate data resulting
# from the CCDC's data processing and validation procedures.
#
#######################################################################

data_CSD_CIF_YUYLEL
_audit_creation_date 2015-11-09
_audit_creation_method CSD-ConQuest-V1
_database_code_CSD YUYLEL
_database_code_depnum_ccdc_archive 'CCDC 1417833'
_chemical_formula_sum 'C88 H72 Cd5 N6 O28'
_chemical_formula_moiety
;
(C84 H52 Cd5 N4 O26 2-)n,2n(C2 H8 N1 1+),2n(H2 O1)
;
_journal_coden_Cambridge 1048
_journal_volume 18
_journal_year 2016
_journal_page_first 951
_journal_name_full 'Green Chemistry '
loop_
_publ_author_name
"Chengfang Qiao"
"Xiaoni Qu"
"Qi Yang"
"Qing Wei"
"Gang Xie"
"Sanping Chen"
"Desuo Yang"
_chemical_name_systematic
;
catena-[bis(dimethylammonium) 
tetrakis(\m-4,4',4''-nitrilotribenzoato)-diaqua-penta-cadmium dihydrate]
;
_cell_volume   5115.079
_exptl_crystal_colour 'colorless'
_exptl_crystal_density_diffrn 1.444
_exptl_crystal_description 'block'
_diffrn_ambient_temperature 296
#These two values have been output from a single CSD field.
_refine_ls_R_factor_gt 0.0487
_refine_ls_wR_factor_gt 0.0487
_symmetry_cell_setting monoclinic
_symmetry_space_group_name_H-M 'P 21/c'
_symmetry_Int_Tables_number 14
loop_
_symmetry_equiv_pos_site_id
_symmetry_equiv_pos_as_xyz
1 x,y,z
2 -x,1/2+y,1/2-z
3 -x,-y,-z
4 x,-1/2-y,-1/2+z
_cell_length_a 14.6261(6)
_cell_length_b 23.2526(9)
_cell_length_c 15.7357(7)
_cell_angle_alpha 90
_cell_angle_beta 107.099(2)
_cell_angle_gamma 90
_cell_formula_units_Z 2
loop_
_atom_type_symbol
_atom_type_radius_bond
C 0.68
H 0.23
Cd 1.44
N 0.68
O 0.68
loop_
_atom_site_label
_atom_site_type_symbol
_atom_site_fract_x
_atom_site_fract_y
_atom_site_fract_z
Cd1 Cd 0.25727(3) 0.300729(18) 0.69677(3)
Cd2 Cd 0.00000 0.50000 0.50000
Cd3 Cd 0.23509(3) 0.437743(16) 0.58374(3)
C1 C -0.1591(4) 0.2931(3) 0.6607(5)
C2 C -0.0705(4) 0.2996(3) 0.7213(4)
H1 H -0.05930 0.28580 0.77890
C3 C 0.0025(4) 0.3268(3) 0.6967(4)
H2 H 0.06250 0.33100 0.73800
C4 C -0.0133(4) 0.3477(2) 0.6117(4)
C5 C -0.1037(5) 0.3410(3) 0.5513(5)
H3 H -0.11540 0.35520 0.49390
C6 C -0.1762(5) 0.3137(3) 0.5753(5)
H4 H -0.23610 0.30920 0.53410
C7 C 0.0623(4) 0.3781(2) 0.5851(4)
C8 C -0.2180(4) 0.2114(3) 0.7302(5)
C9 C -0.1490(4) 0.1736(3) 0.7179(5)
H5 H -0.11180 0.18380 0.68150
C10 C -0.1362(4) 0.1204(3) 0.7606(4)
H6 H -0.08780 0.09610 0.75500
C11 C -0.1934(4) 0.1036(2) 0.8102(4)
C12 C -0.2617(5) 0.1411(3) 0.8227(5)
H7 H -0.30070 0.12980 0.85690
C13 C -0.2725(5) 0.1948(3) 0.7852(5)
H8 H -0.31650 0.22030 0.79660
C14 C -0.1849(5) 0.0442(3) 0.8505(4)
C15 C -0.3248(4) 0.2913(3) 0.6650(5)
C16 C -0.3326(5) 0.3494(3) 0.6772(6)
H9 H -0.27760 0.37160 0.69800
C17 C -0.4207(5) 0.3751(3) 0.6589(6)
H10 H -0.42460 0.41450 0.66720
C18 C -0.5046(4) 0.3428(3) 0.6278(4)
C19 C -0.4963(5) 0.2853(3) 0.6144(5)
H11 H -0.55130 0.26310 0.59380
C20 C -0.4077(5) 0.2593(3) 0.6307(5)
H12 H -0.40370 0.22040 0.61870
C21 C -0.6005(4) 0.3714(3) 0.6114(4)
C22 C 0.1679(4) 0.4879(3) 0.4008(4)
C23 C 0.1659(4) 0.5044(2) 0.3071(4)
C24 C 0.0869(4) 0.5331(3) 0.2526(4)
H13 H 0.03620 0.54270 0.27440
C25 C 0.0828(4) 0.5475(3) 0.1675(4)
H14 H 0.02860 0.56580 0.13170
C26 C 0.1582(4) 0.5354(3) 0.1333(4)
C27 C 0.2380(5) 0.5081(3) 0.1890(4)
H15 H 0.29080 0.50110 0.16910
C28 C 0.2398(5) 0.4914(3) 0.2733(4)
H16 H 0.29210 0.47090 0.30810
C29 C 0.1860(5) 0.5068(3) -0.0078(4)
C30 C 0.1722(5) 0.4492(3) 0.0034(5)
H17 H 0.14360 0.43730 0.04590
C31 C 0.2004(5) 0.4090(3) -0.0478(5)
H18 H 0.19240 0.37020 -0.03790
C32 C 0.2398(5) 0.4248(4) -0.1127(5)
C33 C 0.2535(6) 0.4822(4) -0.1249(5)
H19 H 0.28080 0.49350 -0.16870
C34 C 0.2272(6) 0.5242(3) -0.0730(5)
H20 H 0.23710 0.56300 -0.08180
C35 C 0.2653(5) 0.3800(5) -0.1732(6)
C36 C 0.0912(5) 0.5940(3) -0.0002(4)
C37 C 0.0289(5) 0.5861(3) -0.0845(4)
H21 H 0.03200 0.55250 -0.11570
C38 C -0.0381(4) 0.6277(3) -0.1228(4)
H22 H -0.07910 0.62170 -0.17970
C39 C -0.0452(5) 0.6778(3) -0.0785(4)
C40 C 0.0219(6) 0.6870(3) 0.0041(5)
H23 H 0.02090 0.72130 0.03420
C41 C 0.0892(5) 0.6463(3) 0.0414(5)
H24 H 0.13430 0.65380 0.09570
C42 C -0.1222(5) 0.7205(3) -0.1160(5)
N1 N -0.2343(3) 0.2651(2) 0.6864(5)
N2 N 0.1545(4) 0.5495(2) 0.0448(3)
O1 O 0.0418(3) 0.40498(16) 0.5130(3)
O2 O 0.1474(3) 0.37634(17) 0.6369(3)
O3 O -0.2588(4) 0.0255(2) 0.8664(4)
O4 O -0.1087(3) 0.01699(18) 0.8636(3)
O5 O -0.6050(3) 0.4241(2) 0.6121(4)
O6 O -0.6738(3) 0.3401(2) 0.5962(3)
O7 O 0.2246(3) 0.4497(2) 0.4403(3)
O8 O 0.1114(3) 0.51523(19) 0.4337(3)
O9 O 0.3126(4) 0.3962(3) -0.2232(5)
O10 O 0.2360(5) 0.3293(3) -0.1704(4)
O11 O -0.1617(4) 0.7210(2) -0.1980(3)
O12 O -0.1480(4) 0.7545(2) -0.0656(3)
O13 O 0.3898(5) 0.2492(4) 0.7585(6)
H25 H 0.39720 0.21360 0.77080
H26 H 0.44380 0.26550 0.77930
C43 C 0.1042(8) 0.3133(5) 0.3733(7)
H27 H 0.10290 0.35210 0.39340
H28 H 0.05880 0.29060 0.39200
H29 H 0.08800 0.31280 0.30950
C44 C 0.2747(12) 0.3153(7) 0.3909(9)
H30 H 0.25420 0.32160 0.32780
H31 H 0.33260 0.29310 0.40660
H32 H 0.28630 0.35160 0.42110
N3 N 0.2081(11) 0.2874(6) 0.4143(7)
H33 H 0.22250 0.28780 0.47390
H34 H 0.20800 0.25050 0.39700
O14 O 0.5644(19) 0.3115(14) 0.8924(16)
H35 H 0.61260 0.32980 0.92540
H36 H 0.51550 0.33260 0.88510
Cd1B Cd -0.25727(3) 0.699271(18) 0.30323(3)
Cd3B Cd -0.23509(3) 0.562257(16) 0.41626(3)
C1B C 0.1591(4) 0.7069(3) 0.3393(5)
C2B C 0.0705(4) 0.7004(3) 0.2787(4)
H1B H 0.05930 0.71420 0.22110
C3B C -0.0025(4) 0.6732(3) 0.3033(4)
H2B H -0.06250 0.66900 0.26200
C4B C 0.0133(4) 0.6523(2) 0.3883(4)
C5B C 0.1037(5) 0.6590(3) 0.4487(5)
H3B H 0.11540 0.64480 0.50610
C6B C 0.1762(5) 0.6863(3) 0.4247(5)
H4B H 0.23610 0.69080 0.46590
C7B C -0.0623(4) 0.6219(2) 0.4149(4)
C8B C 0.2180(4) 0.7886(3) 0.2698(5)
C9B C 0.1490(4) 0.8264(3) 0.2821(5)
H5B H 0.11180 0.81620 0.31850
C10B C 0.1362(4) 0.8796(3) 0.2394(4)
H6B H 0.08780 0.90390 0.24500
C11B C 0.1934(4) 0.8964(2) 0.1898(4)
C12B C 0.2617(5) 0.8589(3) 0.1773(5)
H7B H 0.30070 0.87020 0.14310
C13B C 0.2725(5) 0.8052(3) 0.2148(5)
H8B H 0.31650 0.77970 0.20340
C14B C 0.1849(5) 0.9558(3) 0.1495(4)
C15B C 0.3248(4) 0.7087(3) 0.3350(5)
C16B C 0.3326(5) 0.6506(3) 0.3228(6)
H9B H 0.27760 0.62840 0.30200
C17B C 0.4207(5) 0.6249(3) 0.3411(6)
H10B H 0.42460 0.58550 0.33280
C18B C 0.5046(4) 0.6572(3) 0.3722(4)
C19B C 0.4963(5) 0.7147(3) 0.3856(5)
H11B H 0.55130 0.73690 0.40620
C20B C 0.4077(5) 0.7407(3) 0.3693(5)
H12B H 0.40370 0.77960 0.38130
C21B C 0.6005(4) 0.6286(3) 0.3886(4)
C22B C -0.1679(4) 0.5121(3) 0.5992(4)
C23B C -0.1659(4) 0.4956(2) 0.6929(4)
C24B C -0.0869(4) 0.4669(3) 0.7474(4)
H13B H -0.03620 0.45730 0.72560
C25B C -0.0828(4) 0.4525(3) 0.8325(4)
H14B H -0.02860 0.43420 0.86830
C26B C -0.1582(4) 0.4646(3) 0.8667(4)
C27B C -0.2380(5) 0.4919(3) 0.8110(4)
H15B H -0.29080 0.49890 0.83090
C28B C -0.2398(5) 0.5086(3) 0.7267(4)
H16B H -0.29210 0.52910 0.69190
C29B C -0.1860(5) 0.4932(3) 1.0078(4)
C30B C -0.1722(5) 0.5508(3) 0.9966(5)
H17B H -0.14360 0.56270 0.95410
C31B C -0.2004(5) 0.5910(3) 1.0478(5)
H18B H -0.19240 0.62980 1.03790
C32B C -0.2398(5) 0.5752(4) 1.1127(5)
C33B C -0.2535(6) 0.5178(4) 1.1249(5)
H19B H -0.28080 0.50650 1.16870
C34B C -0.2272(6) 0.4758(3) 1.0730(5)
H20B H -0.23710 0.43700 1.08180
C35B C -0.2653(5) 0.6200(5) 1.1732(6)
C36B C -0.0912(5) 0.4060(3) 1.0002(4)
C37B C -0.0289(5) 0.4139(3) 1.0845(4)
H21B H -0.03200 0.44750 1.11570
C38B C 0.0381(4) 0.3723(3) 1.1228(4)
H22B H 0.07910 0.37830 1.17970
C39B C 0.0452(5) 0.3222(3) 1.0785(4)
C40B C -0.0219(6) 0.3130(3) 0.9959(5)
H23B H -0.02090 0.27870 0.96580
C41B C -0.0892(5) 0.3537(3) 0.9586(5)
H24B H -0.13430 0.34620 0.90430
C42B C 0.1222(5) 0.2795(3) 1.1160(5)
N1B N 0.2343(3) 0.7349(2) 0.3136(5)
N2B N -0.1545(4) 0.4505(2) 0.9552(3)
O1B O -0.0418(3) 0.59502(16) 0.4870(3)
O2B O -0.1474(3) 0.62366(17) 0.3631(3)
O3B O 0.2588(4) 0.9745(2) 0.1336(4)
O4B O 0.1087(3) 0.98301(18) 0.1364(3)
O5B O 0.6050(3) 0.5759(2) 0.3879(4)
O6B O 0.6738(3) 0.6599(2) 0.4038(3)
O7B O -0.2246(3) 0.5503(2) 0.5597(3)
O8B O -0.1114(3) 0.48477(19) 0.5663(3)
O9B O -0.3126(4) 0.6038(3) 1.2232(5)
O10B O -0.2360(5) 0.6707(3) 1.1704(4)
O11B O 0.1617(4) 0.2790(2) 1.1980(3)
O12B O 0.1480(4) 0.2455(2) 1.0656(3)
O13B O -0.3898(5) 0.7508(4) 0.2415(6)
H25B H -0.39720 0.78640 0.22920
H26B H -0.44380 0.73450 0.22070
Cd1* Cd -0.74273(3) 0.300729(18) 0.69677(3)
Cd1** Cd 0.25727(3) 0.300729(18) -0.30323(3)
Cd1A Cd -0.25727(3) 0.800729(18) -0.19677(3)
Cd1B* Cd -0.25727(3) 0.699271(18) 1.30323(3)
Cd1B** Cd 0.74273(3) 0.699271(18) 0.30323(3)
Cd1C Cd 0.25727(3) 0.199271(18) 1.19677(3)
Cd2A Cd 0.00000 0.00000 1.00000
Cd2A* Cd 0.00000 1.00000 0.00000
Cd3* Cd -0.76491(3) 0.437743(16) 0.58374(3)
Cd3A Cd -0.23509(3) -0.062257(16) 0.91626(3)
Cd3B* Cd 0.76491(3) 0.562257(16) 0.41626(3)
Cd3C Cd 0.23509(3) 1.062257(16) 0.08374(3)
O3A O 0.2588(4) 0.5255(2) 0.6336(4)
O3C O -0.2588(4) 0.4745(2) 0.3664(4)
O4A O 0.1087(3) 0.51699(18) 0.6364(3)
O4C O -0.1087(3) 0.48301(18) 0.3636(3)
O5* O 0.3950(3) 0.4241(2) 0.6121(4)
O5B* O -0.3950(3) 0.5759(2) 0.3879(4)
O6* O 0.3262(3) 0.3401(2) 0.5962(3)
O6B* O -0.3262(3) 0.6599(2) 0.4038(3)
O9* O 0.3126(4) 0.3962(3) 0.7768(5)
O9B* O -0.3126(4) 0.6038(3) 0.2232(5)
O10* O 0.2360(5) 0.3293(3) 0.8296(4)
O10B* O -0.2360(5) 0.6707(3) 0.1704(4)
O11A O 0.1617(4) 0.2210(2) 0.6980(3)
O11C O -0.1617(4) 0.7790(2) 0.3020(3)
O12A O 0.1480(4) 0.2545(2) 0.5656(3)
O12C O -0.1480(4) 0.7455(2) 0.4344(3)
#END
