
#######################################################################
#
#                 Cambridge Crystallographic Data Centre
#                                CCDC
#
#######################################################################
#
# If this CIF has been generated from an entry in the Cambridge
# Structural Database, then it will include bibliographic, chemical,
# crystal, experimental, refinement or atomic coordinate data resulting
# from the CCDC's data processing and validation procedures.
#
#######################################################################

data_CSD_CIF_YUYLOV
_audit_creation_date 2015-11-09
_audit_creation_method CSD-ConQuest-V1
_database_code_CSD YUYLOV
_database_code_depnum_ccdc_archive 'CCDC 1417835'
_chemical_formula_sum 'C88 H70 Cd3 Cu2 N6 O27'
_chemical_formula_moiety
;
(C84 H52 Cd3 Cu2 N4 O26 2-)n,2n(C2 H8 N1 1+),n(H2 O1)
;
_journal_coden_Cambridge 1048
_journal_volume 18
_journal_year 2016
_journal_page_first 951
_journal_name_full 'Green Chemistry '
loop_
_publ_author_name
"Chengfang Qiao"
"Xiaoni Qu"
"Qi Yang"
"Qing Wei"
"Gang Xie"
"Sanping Chen"
"Desuo Yang"
_chemical_name_systematic
;
catena-[bis(dimethylammonium) 
tetrakis(\m-4,4',4''-nitrilotribenzoato)-diaqua-tri-cadmium-di-copper 
monohydrate]
;
_cell_volume   5018.356
_exptl_crystal_colour 'green'
_exptl_crystal_density_diffrn 1.396
_exptl_crystal_description 'sheet'
_diffrn_ambient_temperature 296
#These two values have been output from a single CSD field.
_refine_ls_R_factor_gt 0.1079
_refine_ls_wR_factor_gt 0.1079
_symmetry_cell_setting monoclinic
_symmetry_space_group_name_H-M 'P 21/c'
_symmetry_Int_Tables_number 14
loop_
_symmetry_equiv_pos_site_id
_symmetry_equiv_pos_as_xyz
1 x,y,z
2 -x,1/2+y,1/2-z
3 -x,-y,-z
4 x,-1/2-y,-1/2+z
_cell_length_a 14.3997(19)
_cell_length_b 23.362(3)
_cell_length_c 15.543(3)
_cell_angle_alpha 90
_cell_angle_beta 106.309(9)
_cell_angle_gamma 90
_cell_formula_units_Z 2
loop_
_atom_type_symbol
_atom_type_radius_bond
C 0.68
H 0.23
Cd 1.44
Cu 1.32
N 0.68
O 0.68
loop_
_atom_site_label
_atom_site_type_symbol
_atom_site_fract_x
_atom_site_fract_y
_atom_site_fract_z
Cd1 Cd 0.50000 0.00000 1.00000
Cd2 Cd 0.25889(5) 0.05907(3) 0.92450(5)
Cu1 Cu 0.22480(7) 0.19356(4) 0.80364(7)
C1 C 0.4179(8) -0.1003(5) 1.5154(7)
C2 C 0.4811(9) -0.0917(5) 1.5958(7)
H1 H 0.47510 -0.05820 1.62610
C3 C 0.5530(8) -0.1281(5) 1.6362(7)
H2 H 0.59420 -0.11870 1.69200
C4 C 0.5661(10) -0.1777(5) 1.5971(8)
C5 C 0.5010(11) -0.1874(6) 1.5186(10)
H3 H 0.50710 -0.22170 1.49030
C6 C 0.4225(10) -0.1510(6) 1.4728(9)
H4 H 0.37840 -0.16100 1.41860
C7 C 0.6456(9) -0.2236(6) 1.6244(9)
C8 C 0.3447(8) -0.0426(5) 1.3742(7)
C9 C 0.417(1) -0.0548(5) 1.3407(7)
H5 H 0.47000 -0.07540 1.37440
C10 C 0.4132(9) -0.0364(5) 1.2535(7)
H6 H 0.46540 -0.04310 1.23070
C11 C 0.3371(7) -0.0101(4) 1.2049(6)
C12 C 0.2643(9) 0.0011(5) 1.2388(7)
H7 H 0.21160 0.02210 1.20550
C13 C 0.2662(8) -0.0181(5) 1.3225(7)
H8 H 0.21180 -0.01390 1.34300
C14 C 0.3352(7) 0.0082(4) 1.1103(7)
C15 C 0.314(1) -0.0162(5) 1.5168(8)
C16 C 0.2631(11) -0.0365(7) 1.5768(10)
H9 H 0.24780 -0.07500 1.57960
C17 C 0.2358(10) 0.0066(6) 1.6343(9)
H10 H 0.20870 -0.00530 1.67900
C18 C 0.2497(9) 0.0644(6) 1.6231(8)
C19 C 0.2954(10) 0.0771(6) 1.5635(9)
H11 H 0.30740 0.11570 1.55610
C20 C 0.3270(9) 0.0390(5) 1.5116(8)
H12 H 0.35880 0.05260 1.47120
C21 C 0.2181(10) 0.1022(7) 1.680(1)
C22 C 0.6444(7) 0.2089(4) 0.8307(7)
C23 C 0.6653(8) 0.1854(5) 0.9179(8)
H13 H 0.72680 0.18810 0.95780
C24 C 0.5937(7) 0.1593(5) 0.9409(8)
H14 H 0.60630 0.14480 0.99870
C25 C 0.5035(7) 0.1528(4) 0.8848(6)
C26 C 0.4837(7) 0.1745(4) 0.7999(7)
H15 H 0.42180 0.17070 0.76100
C27 C 0.5536(7) 0.2017(4) 0.7715(7)
H16 H 0.54030 0.21530 0.71300
C28 C 0.4266(7) 0.1205(4) 0.9142(6)
C29 C 0.7098(8) 0.2857(4) 0.7544(8)
C30 C 0.6392(7) 0.3265(4) 0.7610(7)
H17 H 0.59490 0.31750 0.79250
C31 C 0.6361(7) 0.3778(4) 0.7220(6)
H18 H 0.58860 0.40350 0.72710
C32 C 0.6949(7) 0.3935(4) 0.6779(6)
C33 C 0.7674(8) 0.3553(5) 0.6696(8)
H19 H 0.81180 0.36730 0.64010
C34 C 0.7747(8) 0.3000(5) 0.7040(8)
H20 H 0.81960 0.27380 0.69450
C35 C 0.6972(8) 0.4515(4) 0.6387(7)
C36 C 0.8174(8) 0.2049(5) 0.8266(8)
C37 C 0.8970(8) 0.2365(5) 0.8627(8)
H21 H 0.89220 0.27550 0.87290
C38 C 0.9855(9) 0.2099(5) 0.8841(8)
H22 H 1.04080 0.23210 0.90530
C39 C 0.9960(7) 0.1498(4) 0.8752(7)
C40 C 0.9111(9) 0.1213(5) 0.8366(8)
H23 H 0.91370 0.08190 0.82930
C41 C 0.8204(8) 0.1484(5) 0.8077(9)
H24 H 0.76500 0.12850 0.77700
C42 C 1.0899(8) 0.1235(5) 0.8990(7)
N1 N 0.3519(8) -0.0574(5) 1.4651(7)
N2 N 0.7218(6) 0.2331(4) 0.8018(7)
O1 O 0.6841(8) -0.2155(5) 1.7150(7)
O2 O 0.6667(10) -0.2556(5) 1.5776(8)
O3 O 0.3958(5) -0.0145(3) 1.0774(5)
O4 O 0.2722(6) 0.0448(3) 1.0668(5)
O5 O 0.1821(7) 0.0847(5) 1.7421(7)
O6 O 0.2453(7) 0.1563(5) 1.6754(6)
O7 O 0.4479(5) 0.0926(3) 0.9839(5)
O8 O 0.3427(5) 0.1207(3) 0.8657(5)
O9 O 0.6217(6) 0.4810(3) 0.6285(5)
O10 O 0.7737(6) 0.4696(3) 0.6192(5)
O11 O 1.0922(5) 0.0696(3) 0.9000(6)
O12 O 1.1665(5) 0.1518(4) 0.9140(5)
O13 O 0.0852(8) 0.2361(6) 0.7257(9)
C43 C 0.1672(5) 0.3109(4) 0.6876(4)
H25 H 0.13640 0.27410 0.67940
H26 H 0.11980 0.34000 0.68630
H27 H 0.21590 0.31190 0.74430
N3 N 0.2135(8) 0.3214(5) 0.6134(6)
H28 H 0.19000 0.35960 0.59940
H29 H 0.27050 0.33040 0.65650
C44 C 0.2310(8) 0.2783(5) 0.5453(6)
H30 H 0.29910 0.27110 0.55770
H31 H 0.20670 0.29370 0.48590
H32 H 0.19800 0.24320 0.54970
O14 O 1.00000 1.00000 1.00000
Cd2B Cd 0.74111(5) -0.05907(3) 1.07550(5)
Cu1B Cu 0.77520(7) -0.19356(4) 1.19636(7)
C1B C 0.5821(8) 0.1003(5) 0.4846(7)
C2B C 0.5189(9) 0.0917(5) 0.4042(7)
H1B H 0.52490 0.05820 0.37390
C3B C 0.4470(8) 0.1281(5) 0.3638(7)
H2B H 0.40580 0.11870 0.30800
C4B C 0.4339(10) 0.1777(5) 0.4029(8)
C5B C 0.4990(11) 0.1874(6) 0.4814(10)
H3B H 0.49290 0.22170 0.50970
C6B C 0.5775(10) 0.1510(6) 0.5272(9)
H4B H 0.62160 0.16100 0.58140
C7B C 0.3544(9) 0.2236(6) 0.3756(9)
C8B C 0.6553(8) 0.0426(5) 0.6258(7)
C9B C 0.583(1) 0.0548(5) 0.6593(7)
H5B H 0.53000 0.07540 0.62560
C10B C 0.5868(9) 0.0364(5) 0.7465(7)
H6B H 0.53460 0.04310 0.76930
C11B C 0.6629(7) 0.0101(4) 0.7951(6)
C12B C 0.7357(9) -0.0011(5) 0.7612(7)
H7B H 0.78840 -0.02210 0.79450
C13B C 0.7338(8) 0.0181(5) 0.6775(7)
H8B H 0.78820 0.01390 0.65700
C14B C 0.6648(7) -0.0082(4) 0.8897(7)
C15B C 0.686(1) 0.0162(5) 0.4832(8)
C16B C 0.7369(11) 0.0365(7) 0.4232(10)
H9B H 0.75220 0.07500 0.42040
C17B C 0.7642(10) -0.0066(6) 0.3657(9)
H10B H 0.79130 0.00530 0.32100
C18B C 0.7503(9) -0.0644(6) 0.3769(8)
C19B C 0.7046(10) -0.0771(6) 0.4365(9)
H11B H 0.69260 -0.11570 0.44390
C20B C 0.6730(9) -0.0390(5) 0.4884(8)
H12B H 0.64120 -0.05260 0.52880
C21B C 0.7819(10) -0.1022(7) 0.320(1)
C22B C 0.3556(7) -0.2089(4) 1.1693(7)
C23B C 0.3347(8) -0.1854(5) 1.0821(8)
H13B H 0.27320 -0.18810 1.04220
C24B C 0.4063(7) -0.1593(5) 1.0591(8)
H14B H 0.39370 -0.14480 1.00130
C25B C 0.4965(7) -0.1528(4) 1.1152(6)
C26B C 0.5163(7) -0.1745(4) 1.2001(7)
H15B H 0.57820 -0.17070 1.23900
C27B C 0.4464(7) -0.2017(4) 1.2285(7)
H16B H 0.45970 -0.21530 1.28700
C28B C 0.5734(7) -0.1205(4) 1.0858(6)
C29B C 0.2902(8) -0.2857(4) 1.2456(8)
C30B C 0.3608(7) -0.3265(4) 1.2390(7)
H17B H 0.40510 -0.31750 1.20750
C31B C 0.3639(7) -0.3778(4) 1.2780(6)
H18B H 0.41140 -0.40350 1.27290
C32B C 0.3051(7) -0.3935(4) 1.3221(6)
C33B C 0.2326(8) -0.3553(5) 1.3304(8)
H19B H 0.18820 -0.36730 1.35990
C34B C 0.2253(8) -0.3000(5) 1.2960(8)
H20B H 0.18040 -0.27380 1.30550
C35B C 0.3028(8) -0.4515(4) 1.3613(7)
C36B C 0.1826(8) -0.2049(5) 1.1734(8)
C37B C 0.1030(8) -0.2365(5) 1.1373(8)
H21B H 0.10780 -0.27550 1.12710
C38B C 0.0145(9) -0.2099(5) 1.1159(8)
H22B H -0.04080 -0.23210 1.09470
C39B C 0.0040(7) -0.1498(4) 1.1248(7)
C40B C 0.0889(9) -0.1213(5) 1.1634(8)
H23B H 0.08630 -0.08190 1.17070
C41B C 0.1796(8) -0.1484(5) 1.1923(9)
H24B H 0.23500 -0.12850 1.22300
C42B C -0.0899(8) -0.1235(5) 1.1010(7)
N1B N 0.6481(8) 0.0574(5) 0.5349(7)
N2B N 0.2782(6) -0.2331(4) 1.1982(7)
O1B O 0.3159(8) 0.2155(5) 0.2850(7)
O2B O 0.3333(10) 0.2556(5) 0.4224(8)
O3B O 0.6042(5) 0.0145(3) 0.9226(5)
O4B O 0.7278(6) -0.0448(3) 0.9332(5)
O5B O 0.8179(7) -0.0847(5) 0.2579(7)
O6B O 0.7547(7) -0.1563(5) 0.3246(6)
O7B O 0.5521(5) -0.0926(3) 1.0161(5)
O8B O 0.6573(5) -0.1207(3) 1.1343(5)
O9B O 0.3783(6) -0.4810(3) 1.3715(5)
O10B O 0.2263(6) -0.4696(3) 1.3808(5)
O11B O -0.0922(5) -0.0696(3) 1.1000(6)
O12B O -0.1665(5) -0.1518(4) 1.0860(5)
O13B O 0.9148(8) -0.2361(6) 1.2743(9)
Cd1A Cd 0.50000 -0.50000 1.50000
Cd1A* Cd 0.50000 0.50000 0.50000
Cd2* Cd 0.25889(5) 0.05907(3) 1.92450(5)
Cd2** Cd 1.25889(5) 0.05907(3) 0.92450(5)
Cd2A Cd 0.74111(5) 0.55907(3) 0.57550(5)
Cd2B* Cd -0.25889(5) -0.05907(3) 1.07550(5)
Cd2B** Cd 0.74111(5) -0.05907(3) 0.07550(5)
Cd2C Cd 0.25889(5) -0.55907(3) 1.42450(5)
Cu1* Cu 0.22480(7) 0.19356(4) 1.80364(7)
Cu1** Cu 1.22480(7) 0.19356(4) 0.80364(7)
Cu1A Cu 0.77520(7) -0.30644(4) 1.69636(7)
Cu1B* Cu -0.22480(7) -0.19356(4) 1.19636(7)
Cu1B** Cu 0.77520(7) -0.19356(4) 0.19636(7)
Cu1C Cu 0.22480(7) 0.30644(4) 0.30364(7)
O1A O 0.3159(8) 0.2845(5) 0.7850(7)
O1C O 0.6841(8) -0.2845(5) 1.2150(7)
O2A O 0.3333(10) 0.2444(5) 0.9224(8)
O2C O 0.6667(10) -0.2444(5) 1.0776(8)
O5* O 0.1821(7) 0.0847(5) 0.7421(7)
O5B* O 0.8179(7) -0.0847(5) 1.2579(7)
O6* O 0.2453(7) 0.1563(5) 0.6754(6)
O6B* O 0.7547(7) -0.1563(5) 1.3246(6)
O9A O 0.3783(6) -0.0190(3) 0.8715(5)
O9C O 0.6217(6) 0.0190(3) 1.1285(5)
O10A O 0.2263(6) -0.0304(3) 0.8808(5)
O10C O 0.7737(6) 0.0304(3) 1.1192(5)
O11* O 0.0922(5) 0.0696(3) 0.9000(6)
O11B* O 0.9078(5) -0.0696(3) 1.1000(6)
O12* O 0.1665(5) 0.1518(4) 0.9140(5)
O12B* O 0.8335(5) -0.1518(4) 1.0860(5)
#END
