
#######################################################################
#
#                 Cambridge Crystallographic Data Centre
#                                CCDC
#
#######################################################################
#
# If this CIF has been generated from an entry in the Cambridge
# Structural Database, then it will include bibliographic, chemical,
# crystal, experimental, refinement or atomic coordinate data resulting
# from the CCDC's data processing and validation procedures.
#
#######################################################################

data_CSD_CIF_ZACHIX
_audit_creation_date 2016-01-06
_audit_creation_method CSD-ConQuest-V1
_database_code_CSD ZACHIX
_database_code_depnum_ccdc_archive 'CCDC 1421992'
_chemical_formula_sum 'C92 H168 Cu12 Mo1 N5 O130 Si1 W11'
_chemical_formula_moiety
;
(C4 H12 N1 1+)5n,4n(C18 H12 Cu3 O15),n(Mo1 O40 Si1 W11 5-),30n(H2 O1)
;
_journal_coden_Cambridge 1350
_journal_volume 18
_journal_year 2016
_journal_page_first 596
_journal_name_full 'CrystEngComm '
loop_
_publ_author_name
"Chong Li"
"Minghui Sun"
"Lin Xu"
"Yuchao Wang"
"Jiawei Huang"
_chemical_name_systematic
;
catena-(pentakis(tetramethylammonium) 
tetrakis(bis(\m-benzene-1,3,5-tricarboxylato)-triaqua-tri-copper) 
(\m-silicato)-tetracosakis(\m-oxo)-dodecaoxo-molybdenum-undeca-tungsten 
tricontahydrate)
;
_cell_volume  18050.707
_exptl_crystal_colour 'blue'
_exptl_crystal_description 'block'
_diffrn_ambient_temperature 296
_refine_special_details
;
The SQUEEZE/PLATON program was used to model some disordered organic cations 
and water molecules.
;
#These two values have been output from a single CSD field.
_refine_ls_R_factor_gt 0.0635
_refine_ls_wR_factor_gt 0.0635
_symmetry_cell_setting cubic
_symmetry_space_group_name_H-M 'F m -3 m'
_symmetry_Int_Tables_number 225
loop_
_symmetry_equiv_pos_site_id
_symmetry_equiv_pos_as_xyz
1 x,y,z
2 -y,x,z
3 -x,-y,z
4 y,-x,z
5 x,-y,-z
6 y,x,-z
7 -x,y,-z
8 -y,-x,-z
9 z,x,y
10 -x,z,y
11 -z,-x,y
12 x,-z,y
13 z,-x,-y
14 x,z,-y
15 -z,x,-y
16 -x,-z,-y
17 y,z,x
18 -z,-y,-x
19 -z,y,x
20 z,y,-x
21 z,-y,x
22 y,-z,-x
23 -y,-z,x
24 -y,z,-x
25 x,1/2+y,1/2+z
26 -y,1/2+x,1/2+z
27 -x,1/2-y,1/2+z
28 y,1/2-x,1/2+z
29 x,1/2-y,1/2-z
30 y,1/2+x,1/2-z
31 -x,1/2+y,1/2-z
32 -y,1/2-x,1/2-z
33 z,1/2+x,1/2+y
34 -x,1/2+z,1/2+y
35 -z,1/2-x,1/2+y
36 x,1/2-z,1/2+y
37 z,1/2-x,1/2-y
38 x,1/2+z,1/2-y
39 -z,1/2+x,1/2-y
40 -x,1/2-z,1/2-y
41 y,1/2+z,1/2+x
42 -z,1/2-y,1/2-x
43 -z,1/2+y,1/2+x
44 z,1/2+y,1/2-x
45 z,1/2-y,1/2+x
46 y,1/2-z,1/2-x
47 -y,1/2-z,1/2+x
48 -y,1/2+z,1/2-x
49 1/2+x,y,1/2+z
50 1/2-y,x,1/2+z
51 1/2-x,-y,1/2+z
52 1/2+y,-x,1/2+z
53 1/2+x,-y,1/2-z
54 1/2+y,x,1/2-z
55 1/2-x,y,1/2-z
56 1/2-y,-x,1/2-z
57 1/2+z,x,1/2+y
58 1/2-x,z,1/2+y
59 1/2-z,-x,1/2+y
60 1/2+x,-z,1/2+y
61 1/2+z,-x,1/2-y
62 1/2+x,z,1/2-y
63 1/2-z,x,1/2-y
64 1/2-x,-z,1/2-y
65 1/2+y,z,1/2+x
66 1/2-z,-y,1/2-x
67 1/2-z,y,1/2+x
68 1/2+z,y,1/2-x
69 1/2+z,-y,1/2+x
70 1/2+y,-z,1/2-x
71 1/2-y,-z,1/2+x
72 1/2-y,z,1/2-x
73 1/2+x,1/2+y,z
74 1/2-y,1/2+x,z
75 1/2-x,1/2-y,z
76 1/2+y,1/2-x,z
77 1/2+x,1/2-y,-z
78 1/2+y,1/2+x,-z
79 1/2-x,1/2+y,-z
80 1/2-y,1/2-x,-z
81 1/2+z,1/2+x,y
82 1/2-x,1/2+z,y
83 1/2-z,1/2-x,y
84 1/2+x,1/2-z,y
85 1/2+z,1/2-x,-y
86 1/2+x,1/2+z,-y
87 1/2-z,1/2+x,-y
88 1/2-x,1/2-z,-y
89 1/2+y,1/2+z,x
90 1/2-z,1/2-y,-x
91 1/2-z,1/2+y,x
92 1/2+z,1/2+y,-x
93 1/2+z,1/2-y,x
94 1/2+y,1/2-z,-x
95 1/2-y,1/2-z,x
96 1/2-y,1/2+z,-x
97 -x,-y,-z
98 y,-x,-z
99 x,y,-z
100 -y,x,-z
101 -x,y,z
102 -y,-x,z
103 x,-y,z
104 y,x,z
105 -z,-x,-y
106 x,-z,-y
107 z,x,-y
108 -x,z,-y
109 -z,x,y
110 -x,-z,y
111 z,-x,y
112 x,z,y
113 -y,-z,-x
114 z,y,x
115 z,-y,-x
116 -z,-y,x
117 -z,y,-x
118 -y,z,x
119 y,z,-x
120 y,-z,x
121 -x,-1/2-y,-1/2-z
122 y,-1/2-x,-1/2-z
123 x,-1/2+y,-1/2-z
124 -y,-1/2+x,-1/2-z
125 -x,-1/2+y,-1/2+z
126 -y,-1/2-x,-1/2+z
127 x,-1/2-y,-1/2+z
128 y,-1/2+x,-1/2+z
129 -z,-1/2-x,-1/2-y
130 x,-1/2-z,-1/2-y
131 z,-1/2+x,-1/2-y
132 -x,-1/2+z,-1/2-y
133 -z,-1/2+x,-1/2+y
134 -x,-1/2-z,-1/2+y
135 z,-1/2-x,-1/2+y
136 x,-1/2+z,-1/2+y
137 -y,-1/2-z,-1/2-x
138 z,-1/2+y,-1/2+x
139 z,-1/2-y,-1/2-x
140 -z,-1/2-y,-1/2+x
141 -z,-1/2+y,-1/2-x
142 -y,-1/2+z,-1/2+x
143 y,-1/2+z,-1/2-x
144 y,-1/2-z,-1/2+x
145 -1/2-x,-y,-1/2-z
146 -1/2+y,-x,-1/2-z
147 -1/2+x,y,-1/2-z
148 -1/2-y,x,-1/2-z
149 -1/2-x,y,-1/2+z
150 -1/2-y,-x,-1/2+z
151 -1/2+x,-y,-1/2+z
152 -1/2+y,x,-1/2+z
153 -1/2-z,-x,-1/2-y
154 -1/2+x,-z,-1/2-y
155 -1/2+z,x,-1/2-y
156 -1/2-x,z,-1/2-y
157 -1/2-z,x,-1/2+y
158 -1/2-x,-z,-1/2+y
159 -1/2+z,-x,-1/2+y
160 -1/2+x,z,-1/2+y
161 -1/2-y,-z,-1/2-x
162 -1/2+z,y,-1/2+x
163 -1/2+z,-y,-1/2-x
164 -1/2-z,-y,-1/2+x
165 -1/2-z,y,-1/2-x
166 -1/2-y,z,-1/2+x
167 -1/2+y,z,-1/2-x
168 -1/2+y,-z,-1/2+x
169 -1/2-x,-1/2-y,-z
170 -1/2+y,-1/2-x,-z
171 -1/2+x,-1/2+y,-z
172 -1/2-y,-1/2+x,-z
173 -1/2-x,-1/2+y,z
174 -1/2-y,-1/2-x,z
175 -1/2+x,-1/2-y,z
176 -1/2+y,-1/2+x,z
177 -1/2-z,-1/2-x,-y
178 -1/2+x,-1/2-z,-y
179 -1/2+z,-1/2+x,-y
180 -1/2-x,-1/2+z,-y
181 -1/2-z,-1/2+x,y
182 -1/2-x,-1/2-z,y
183 -1/2+z,-1/2-x,y
184 -1/2+x,-1/2+z,y
185 -1/2-y,-1/2-z,-x
186 -1/2+z,-1/2+y,x
187 -1/2+z,-1/2-y,-x
188 -1/2-z,-1/2-y,x
189 -1/2-z,-1/2+y,-x
190 -1/2-y,-1/2+z,x
191 -1/2+y,-1/2+z,-x
192 -1/2+y,-1/2-z,x
_cell_length_a 26.232(7)
_cell_length_b 26.232(7)
_cell_length_c 26.232(7)
_cell_angle_alpha 90
_cell_angle_beta 90
_cell_angle_gamma 90
_cell_formula_units_Z 4
loop_
_atom_type_symbol
_atom_type_radius_bond
C 0.68
H 0.23
Cu 1.32
Mo 1.54
N 0.68
O 0.68
Si 1.20
W 1.62
loop_
_atom_site_label
_atom_site_type_symbol
_atom_site_fract_x
_atom_site_fract_y
_atom_site_fract_z
W1 W 0.09460(3) 0.00000 0.40540(3)
O1 O 0.0321(5) 0.0321(5) 0.4679(5)
O2 O 0.1397(5) 0.00000 0.3603(5)
O3 O 0.0524(5) 0.0524(5) 0.3738(6)
Si1 Si 0.00000 0.00000 0.50000
Cu1 Cu 0.00000 0.21488(6) 0.21488(6)
O4 O -0.0524(3) 0.1830(3) 0.2568(3)
C1 C -0.1330(5) 0.1992(6) 0.3670(5)
H1 H -0.11910 0.22860 0.38090
C2 C -0.1109(6) 0.1766(4) 0.3234(4)
C3 C -0.0675(6) 0.2024(4) 0.2976(4)
O5 O -0.3448(6) 0.00000 0.3448(6)
N1 N 0.25000 0.25000 0.25000
C4 C 0.2844(5) 0.2156(5) 0.2844(5)
H2 H 0.30550 0.23670 0.30550
O6 O 0.078(2) 0.00000 0.253(2)
Mo1? Mo 0.09460(3) 0.00000 0.40540(3)
O1C O 0.0321(5) -0.0321(5) 0.4679(5)
O3C O 0.0524(5) -0.0524(5) 0.3738(6)
O3JB O 0.1262(5) 0.0524(5) 0.4476(6)
O3MB O 0.1262(5) -0.0524(5) 0.4476(6)
O1A O -0.0321(5) 0.0321(5) 0.4679(5)
O1E O 0.0321(5) 0.0321(5) 0.5321(5)
W1A W 0.00000(3) 0.09460 0.40540(3)
W1IA W 0.09460(3) 0.09460 0.50000(3)
O1B O -0.0321(5) -0.0321(5) 0.4679(5)
O1D O 0.0321(5) -0.0321(5) 0.5321(5)
W1C W 0.00000(3) -0.09460 0.40540(3)
W1KA W 0.09460(3) -0.09460 0.50000(3)
O1F O -0.0321(5) 0.0321(5) 0.5321(5)
O1G O -0.0321(5) -0.0321(5) 0.5321(5)
W1B W -0.09460(3) 0.00000 0.40540(3)
W1MA W -0.09460(3) 0.09460 0.50000(3)
W1D W 0.09460(3) 0.00000 0.59460(3)
W1E W 0.00000(3) 0.09460 0.59460(3)
O2A O 0.0000(5) 0.13970 0.3603(5)
O3A O -0.0524(5) 0.0524(5) 0.3738(6)
O3MA O -0.0524(5) 0.1262(5) 0.4476(6)
O3SA O 0.0524(5) 0.1262(5) 0.4476(6)
O2IA O 0.1397(5) 0.13970 0.5000(5)
O3IA O 0.0524(5) 0.1262(5) 0.5524(6)
O3NB O 0.1262(5) 0.0524(5) 0.5524(6)
W1GA W -0.09460(3) -0.09460 0.50000(3)
W1G W 0.00000(3) -0.09460 0.59460(3)
O3B O -0.0524(5) -0.0524(5) 0.3738(6)
O2C O 0.0000(5) -0.13970 0.3603(5)
O3KA O 0.0524(5) -0.1262(5) 0.4476(6)
O3UA O -0.0524(5) -0.1262(5) 0.4476(6)
O2KA O 0.1397(5) -0.13970 0.5000(5)
O3NA O 0.0524(5) -0.1262(5) 0.5524(6)
O3FB O 0.1262(5) -0.0524(5) 0.5524(6)
W1F W -0.09460(3) 0.00000 0.59460(3)
O2B O -0.1397(5) 0.00000 0.3603(5)
O3HB O -0.1262(5) -0.0524(5) 0.4476(6)
O3OB O -0.1262(5) 0.0524(5) 0.4476(6)
O2MA O -0.1397(5) 0.13970 0.5000(5)
O3TA O -0.0524(5) 0.1262(5) 0.5524(6)
O3DB O -0.1262(5) 0.0524(5) 0.5524(6)
O2D O 0.1397(5) 0.00000 0.6397(5)
O3D O 0.0524(5) -0.0524(5) 0.6262(6)
O3E O 0.0524(5) 0.0524(5) 0.6262(6)
O2E O 0.0000(5) 0.13970 0.6397(5)
O3F O -0.0524(5) 0.0524(5) 0.6262(6)
O2GA O -0.1397(5) -0.13970 0.5000(5)
O3GA O -0.0524(5) -0.1262(5) 0.5524(6)
O3PB O -0.1262(5) -0.0524(5) 0.5524(6)
O2G O 0.0000(5) -0.13970 0.6397(5)
O3G O -0.0524(5) -0.0524(5) 0.6262(6)
O2F O -0.1397(5) 0.00000 0.6397(5)
O4HB O -0.2432(3) 0.0524(3) 0.3170(3)
C1HB C -0.1330(5) 0.1330(6) 0.3008(5)
H1HB H -0.11910 0.11910 0.27140
C2HB C -0.1766(6) 0.1109(4) 0.3234(4)
C3HB C -0.2024(6) 0.0675(4) 0.2976(4)
O4TA O -0.1830(3) 0.2432(3) 0.4476(3)
C1TA C -0.1992(5) 0.1330(6) 0.3670(5)
H1TA H -0.22860 0.11910 0.38090
C2TA C -0.1766(6) 0.1766(4) 0.3891(4)
C3TA C -0.2024(6) 0.2024(4) 0.4325(4)
O4WC O -0.1830(3) 0.0524(3) 0.2568(3)
O4EF O -0.2432(3) 0.1830(3) 0.4476(3)
O4YD O -0.0524(3) 0.2432(3) 0.3170(3)
Cu1A Cu -0.21488 0.00000(6) 0.21488(6)
Cu1BA Cu 0.00000 0.28512(6) 0.28512(6)
Cu1OA Cu -0.21488 0.28512(6) 0.50000(6)
Cu1AB Cu -0.28512 0.00000(6) 0.28512(6)
Cu1LB Cu -0.28512 0.21488(6) 0.50000(6)
O4XE O -0.2432(3) -0.0524(3) 0.3170(3)
C1J C -0.3670(5) 0.1330(6) 0.1992(5)
H1J H -0.38090 0.11910 0.22860
C2BB C -0.3891(6) 0.1766(4) 0.1766(4)
C3BB C -0.4325(6) 0.2024(4) 0.2024(4)
C1BB C -0.3670(5) 0.1992(6) 0.1330(5)
O4BB O -0.4476(3) 0.1830(3) 0.2432(3)
O4LD O -0.2568(3) 0.1830(3) 0.0524(3)
C3OC C -0.2976(6) 0.2024(4) 0.0675(4)
O4AB O -0.3170(3) -0.0524(3) 0.2432(3)
Cu1R Cu -0.21488 0.21488(6) 0.00000(6)
H1BB H -0.38090 0.22860 0.11910
O4OE O -0.3170(3) 0.0524(3) 0.2432(3)
C3J C -0.2976(6) 0.0675(4) 0.2024(4)
C1OC C -0.3008(5) 0.1330(6) 0.1330(5)
H1OC H -0.27140 0.11910 0.11910
C2OC C -0.3234(6) 0.1766(4) 0.1109(4)
O4OC O -0.3170(3) 0.2432(3) 0.0524(3)
C2J C -0.3234(6) 0.1109(4) 0.1766(4)
Cu1NC Cu -0.28512 0.28512(6) 0.00000(6)
O4J O -0.2568(3) 0.0524(3) 0.1830(3)
Cu1BB Cu -0.50000 0.21488(6) 0.28512(6)
Cu1VB Cu -0.50000 0.28512(6) 0.21488(6)
O4YF O -0.4476(3) 0.2432(3) 0.1830(3)
O5BB O -0.1552(6) 0.00000 0.1552(6)
O4DD O -0.2568(3) -0.0524(3) 0.1830(3)
O4A O -0.1830(3) -0.0524(3) 0.2568(3)
C4H C 0.2844(5) 0.2844(5) 0.2156(5)
H2H H 0.30550 0.30550 0.23670
C4P C 0.2156(5) 0.2844(5) 0.2844(5)
H2P H 0.23670 0.30550 0.30550
H2BA H 0.30550 0.26330 0.19450
H2JA H 0.30550 0.19450 0.26330
C4SA C 0.2156(5) 0.2156(5) 0.2156(5)
H2SA H 0.23670 0.19450 0.19450
H2BB H 0.19450 0.23670 0.19450
H2JB H 0.19450 0.30550 0.26330
H2SB H 0.26330 0.30550 0.19450
H2VB H 0.19450 0.26330 0.30550
H2DC H 0.19450 0.19450 0.23670
H2PC H 0.26330 0.19450 0.30550
#END
