
#######################################################################
#
#                 Cambridge Crystallographic Data Centre
#                                CCDC
#
#######################################################################
#
# If this CIF has been generated from an entry in the Cambridge
# Structural Database, then it will include bibliographic, chemical,
# crystal, experimental, refinement or atomic coordinate data resulting
# from the CCDC's data processing and validation procedures.
#
#######################################################################

data_CSD_CIF_ZADXEL02
_audit_creation_date 2020-12-03
_audit_creation_method CSD-ConQuest-V1
_database_code_CSD ZADXEL02
_database_code_depnum_ccdc_archive 'CCDC 2001358'
_chemical_formula_sum 'C6 H13 K1 N2 O7'
_chemical_formula_moiety
;
(C6 H5 K1 O7 2-)n,2(H4 N1 1+)
;
_journal_coeditor_code "hb4336"
_journal_coden_Cambridge 1959
_journal_volume 5
_journal_year 2020
_journal_page_first x200612
_journal_name_full 'IUCrData '
loop_
_publ_author_name
"N.V.Patel"
"J.T.Golab"
"J.A.Kaduk"
_chemical_name_systematic
;
catena-[bis(ammonium) citrato-potassium]
;
_cell_volume   1072.594
_exptl_crystal_colour 'white'
_exptl_crystal_density_diffrn 1.637
_exptl_special_details
;
powder data

;
_diffrn_ambient_temperature 300
#These two values have been output from a single CSD field.
_refine_ls_R_factor_gt 0.0719
_refine_ls_wR_factor_gt 0.0719
_symmetry_cell_setting monoclinic
_symmetry_space_group_name_H-M 'P 21/c'
_symmetry_Int_Tables_number 14
loop_
_symmetry_equiv_pos_site_id
_symmetry_equiv_pos_as_xyz
1 x,y,z
2 -x,1/2+y,1/2-z
3 -x,-y,-z
4 x,-1/2-y,-1/2+z
_cell_length_a 6.0238(5)
_cell_length_b 13.2925(6)
_cell_length_c 13.4155(8)
_cell_angle_alpha 90
_cell_angle_beta 93.131(4)
_cell_angle_gamma 90
_cell_formula_units_Z 4
loop_
_atom_type_symbol
_atom_type_radius_bond
C 0.68
H 0.23
K 2.03
N 0.68
O 0.68
loop_
_atom_site_label
_atom_site_type_symbol
_atom_site_fract_x
_atom_site_fract_y
_atom_site_fract_z
C1 C 0.8864(25) 0.0374(11) 0.8584(14)
C2 C 0.7569(22) 0.0812(8) 0.9422(10)
C3 C 0.7931(14) 0.1942(7) 0.9608(7)
C4 C 0.6691(24) 0.2264(7) 1.0527(10)
C5 C 0.6556(22) 0.3389(7) 1.0721(15)
C6 C 0.7043(15) 0.2540(13) 0.8679(10)
H1 H 0.77670 0.04320 0.99960
H2 H 0.57450 0.06940 0.92620
H3 H 0.50370 0.20020 1.04630
H4 H 0.71580 0.19530 1.10950
O1 O 0.8074(24) -0.0389(9) 0.8144(10)
O2 O 0.4733(21) 0.3730(9) 1.0971(13)
O3 O 0.8266(22) 0.3899(9) 1.0640(13)
O4 O 0.4977(17) 0.2596(12) 0.8525(10)
O5 O 0.8449(21) 0.2922(10) 0.8155(9)
O6 O 1.0258(16) 0.2132(9) 0.9785(9)
O7 O 1.0610(24) 0.0808(9) 0.8363(12)
H5 H 1.08650 0.16790 0.93840
K1 K 0.1585(12) 0.2585(6) 1.1929(5)
N1 N 0.825(4) 0.6005(14) 0.0743(17)
H6 H 0.93790 0.61560 0.05380
H7 H 0.90790 0.60060 0.13800
H8 H 0.69960 0.62600 0.08460
H9 H 0.79170 0.52180 0.07060
N2 N 0.369(4) 0.9754(16) 0.7422(14)
H10 H 0.30840 0.91370 0.72030
H11 H 0.26010 1.01030 0.77260
H12 H 0.38690 1.01050 0.67920
H13 H 0.50180 0.97670 0.76900
O1B O 0.1926(24) 0.0389(9) 1.1856(10)
O3* O -0.1734(22) 0.3899(9) 1.0640(13)
O4C O 0.4977(17) 0.2404(12) 1.3525(10)
O5C O -0.1551(21) 0.2078(10) 1.3155(9)
O6* O 0.0258(16) 0.2132(9) 0.9785(9)
O7C O 0.0610(24) 0.4192(9) 1.3363(12)
K1* K 1.1585(12) 0.2585(6) 1.1929(5)
K1B K 0.8415(12) -0.2585(6) 0.8071(5)
K1C K 0.1585(12) 0.2415(6) 0.6929(5)
K1C* K 1.1585(12) 0.2415(6) 0.6929(5)
#END
